<?xml version="1.0"?>
<VTKFile type="UnstructuredGrid">
  <UnstructuredGrid>
  <Piece NumberOfPoints="31839"  NumberOfCells="15790">
    <Points>
      <DataArray type="Float64" NumberOfComponents="3" format="ascii">
499.999 29.5031 0
499.955 -0.497027 0
0 0 0
0 30 0
500.043 59.503 0
0 60 0
110 29.9656 0
100.005 39.9713 0
90 29.977 0
99.9949 19.9713 0
210 29.8851 0
200.009 39.8949 0
190 29.9048 0
199.991 19.8949 0
310 29.7706 0
300.012 39.7833 0
290 29.7961 0
299.988 19.7833 0
409.999 29.6341 0
400.013 39.6486 0
390 29.663 0
399.986 19.6485 0
499.994 26.1123 0
499.989 22.7215 0
499.986 20.4068 0
499.983 18.0921 0
499.979 15.5791 0
499.975 13.0661 0
499.97 9.67535 0
499.965 6.28456 0
499.96 2.89377 0
496.565 -0.491992 0
493.174 -0.486996 0
489.783 -0.482012 0
486.392 -0.477033 0
482.968 -0.472009 0
479.544 -0.466988 0
475.983 -0.461768 0
472.421 -0.456551 0
468.997 -0.451536 0
465.572 -0.446525 0
462.148 -0.441517 0
458.723 -0.436512 0
455.298 -0.431513 0
451.874 -0.426518 0
448.449 -0.421529 0
445.025 -0.416545 0
441.6 -0.411568 0
438.175 -0.406598 0
434.751 -0.401636 0
431.326 -0.396681 0
427.902 -0.391735 0
424.477 -0.386796 0
421.052 -0.381865 0
417.628 -0.37694 0
414.203 -0.372019 0
410.779 -0.367101 0
407.354 -0.362184 0
403.93 -0.357268 0
400.505 -0.352354 0
397.081 -0.347449 0
393.656 -0.342557 0
390.232 -0.337686 0
386.807 -0.332839 0
383.383 -0.328018 0
379.958 -0.323222 0
376.534 -0.318449 0
373.109 -0.313698 0
369.685 -0.308967 0
366.26 -0.304255 0
362.836 -0.299561 0
359.411 -0.294886 0
355.987 -0.29023 0
352.562 -0.285593 0
349.138 -0.280975 0
345.713 -0.276377 0
342.289 -0.271799 0
338.864 -0.267242 0
335.44 -0.262707 0
332.015 -0.258194 0
328.591 -0.253703 0
325.166 -0.249234 0
321.742 -0.244787 0
318.318 -0.240363 0
314.893 -0.235958 0
311.469 -0.231572 0
308.044 -0.227202 0
304.62 -0.222846 0
301.195 -0.218505 0
297.771 -0.214183 0
294.347 -0.209885 0
290.922 -0.205621 0
287.498 -0.201394 0
284.073 -0.197209 0
280.649 -0.193063 0
277.225 -0.188957 0
273.8 -0.184888 0
270.376 -0.180853 0
266.952 -0.176852 0
263.527 -0.172884 0
260.103 -0.168949 0
256.678 -0.165047 0
253.254 -0.161177 0
249.83 -0.157341 0
246.405 -0.153539 0
242.981 -0.149771 0
239.557 -0.146038 0
236.132 -0.142341 0
232.708 -0.138679 0
229.284 -0.135054 0
225.859 -0.131466 0
222.435 -0.127915 0
219.011 -0.124401 0
215.586 -0.120922 0
212.162 -0.117478 0
208.738 -0.114065 0
205.313 -0.110682 0
201.889 -0.107325 0
198.465 -0.103999 0
195.041 -0.100708 0
191.616 -0.0974604 0
188.192 -0.0942653 0
184.768 -0.0911244 0
181.344 -0.0880405 0
177.919 -0.0850109 0
174.495 -0.0820338 0
171.071 -0.0791068 0
167.647 -0.0762279 0
164.222 -0.0733966 0
160.798 -0.070612 0
157.374 -0.0678743 0
153.95 -0.0651835 0
150.525 -0.0625403 0
147.101 -0.0599448 0
143.677 -0.0573977 0
140.253 -0.0548996 0
136.828 -0.0524508 0
133.404 -0.0500521 0
129.98 -0.047704 0
126.556 -0.0454071 0
123.132 -0.0431618 0
119.707 -0.0409684 0
116.283 -0.0388263 0
112.859 -0.0367344 0
109.435 -0.0346899 0
106.011 -0.0326887 0
102.586 -0.0307288 0
99.1622 -0.0288094 0
95.7381 -0.0269366 0
92.3139 -0.0251193 0
88.8898 -0.0233642 0
85.4656 -0.0216804 0
82.0415 -0.0200668 0
78.6174 -0.0185247 0
75.1933 -0.0170502 0
71.7691 -0.015641 0
68.345 -0.0142951 0
64.9209 -0.0130107 0
61.4968 -0.0117878 0
58.0726 -0.0106255 0
54.6485 -0.00952455 0
51.2244 -0.00848492 0
47.8003 -0.00750722 0
44.3762 -0.00659185 0
40.9521 -0.00573931 0
37.528 -0.00495006 0
34.1039 -0.00422441 0
30.6798 -0.00356271 0
27.2557 -0.00296492 0
23.8316 -0.00243092 0
20.4075 -0.0019598 0
16.9841 -0.00154995 0
13.5607 -0.00119821 0
10.1705 -0.000899227 0
6.78027 -0.000636003 0
3.39008 -0.00038123 0
0 3.39077 0
0 6.78155 0
0 9.09626 0
0 11.411 0
0 13.9239 0
0 16.4369 0
0 19.8277 0
0 23.2185 0
0 26.6092 0
500.004 32.8939 0
500.009 36.2846 0
500.012 38.5993 0
500.016 40.914 0
500.019 43.427 0
500.023 45.9399 0
500.028 49.3307 0
500.033 52.7214 0
500.038 56.1122 0
496.652 59.508 0
493.261 59.513 0
489.871 59.518 0
486.48 59.5229 0
483.056 59.528 0
479.632 59.533 0
476.07 59.5382 0
472.509 59.5434 0
469.084 59.5484 0
465.659 59.5535 0
462.235 59.5585 0
458.81 59.5635 0
455.385 59.5685 0
451.961 59.5735 0
448.536 59.5785 0
445.111 59.5834 0
441.687 59.5884 0
438.262 59.5934 0
434.837 59.5983 0
431.412 59.6033 0
427.988 59.6083 0
424.563 59.6132 0
421.138 59.6181 0
417.714 59.6231 0
414.289 59.628 0
410.864 59.6329 0
407.439 59.6378 0
404.015 59.6428 0
400.59 59.6477 0
397.165 59.6526 0
393.74 59.6575 0
390.316 59.6623 0
386.891 59.6672 0
383.466 59.672 0
380.041 59.6768 0
376.616 59.6816 0
373.192 59.6863 0
369.767 59.691 0
366.342 59.6957 0
362.917 59.7004 0
359.492 59.7051 0
356.068 59.7098 0
352.643 59.7144 0
349.218 59.719 0
345.793 59.7236 0
342.368 59.7282 0
338.943 59.7328 0
335.519 59.7373 0
332.094 59.7418 0
328.669 59.7463 0
325.244 59.7508 0
321.819 59.7552 0
318.394 59.7597 0
314.97 59.7641 0
311.545 59.7685 0
308.12 59.7728 0
304.695 59.7772 0
301.27 59.7815 0
297.845 59.7859 0
294.42 59.7902 0
290.995 59.7944 0
287.57 59.7987 0
284.146 59.8028 0
280.721 59.807 0
277.296 59.8111 0
273.871 59.8151 0
270.446 59.8192 0
267.021 59.8232 0
263.596 59.8272 0
260.171 59.8311 0
256.746 59.835 0
253.321 59.8389 0
249.896 59.8427 0
246.471 59.8465 0
243.046 59.8503 0
239.621 59.854 0
236.196 59.8577 0
232.771 59.8614 0
229.346 59.865 0
225.921 59.8686 0
222.496 59.8721 0
219.071 59.8757 0
215.647 59.8791 0
212.222 59.8826 0
208.797 59.886 0
205.372 59.8894 0
201.947 59.8928 0
198.522 59.8961 0
195.097 59.8994 0
191.671 59.9026 0
188.246 59.9058 0
184.821 59.909 0
181.396 59.912 0
177.971 59.9151 0
174.546 59.918 0
171.121 59.921 0
167.696 59.9238 0
164.271 59.9267 0
160.846 59.9295 0
157.421 59.9322 0
153.996 59.9349 0
150.571 59.9375 0
147.146 59.9401 0
143.721 59.9427 0
140.296 59.9452 0
136.87 59.9476 0
133.445 59.95 0
130.02 59.9524 0
126.595 59.9547 0
123.17 59.9569 0
119.745 59.9591 0
116.32 59.9613 0
112.895 59.9634 0
109.47 59.9654 0
106.044 59.9674 0
102.619 59.9694 0
99.1942 59.9713 0
95.769 59.9732 0
92.3439 59.975 0
88.9187 59.9767 0
85.4935 59.9784 0
82.0683 59.98 0
78.6432 59.9816 0
75.218 59.9831 0
71.7928 59.9845 0
68.3676 59.9858 0
64.9424 59.9871 0
61.5172 59.9883 0
58.092 59.9895 0
54.6668 59.9906 0
51.2416 59.9916 0
47.8164 59.9926 0
44.3912 59.9935 0
40.966 59.9944 0
37.5408 59.9952 0
34.1156 59.9959 0
30.6903 59.9966 0
27.2651 59.9972 0
23.8399 59.9977 0
20.4146 59.9982 0
16.9901 59.9986 0
13.5655 59.9989 0
10.1742 59.9992 0
6.78282 59.9994 0
3.39146 59.9997 0
0 56.6092 0
0 53.2185 0
0 50.9037 0
0 48.589 0
0 46.0761 0
0 43.5631 0
0 40.1723 0
0 36.7815 0
0 33.3908 0
109.919 31.2449 0
109.674 32.5034 0
109.271 33.7202 0
108.715 34.8754 0
108.016 35.95 0
107.185 36.9263 0
106.236 37.7884 0
105.185 38.522 0
104.048 39.115 0
102.845 39.5578 0
101.44 39.867 0
98.7257 39.8898 0
97.4672 39.6454 0
96.2503 39.242 0
95.095 38.6862 0
94.0204 37.9872 0
93.0441 37.1565 0
92.1821 36.2077 0
91.4486 35.1564 0
90.8557 34.0199 0
90.413 32.8169 0
90.1041 31.4118 0
90.1029 28.542 0
90.4106 27.1366 0
90.8522 25.933 0
91.4442 24.7959 0
92.1767 23.7437 0
93.0377 22.794 0
94.0131 21.9621 0
95.0869 21.2619 0
96.2414 20.7048 0
97.4577 20.3 0
98.7157 20.0542 0
101.43 20.0739 0
102.835 20.3814 0
104.038 20.8229 0
105.175 21.4147 0
106.228 22.1471 0
107.177 23.0081 0
108.009 23.9835 0
108.709 25.0573 0
109.266 26.2118 0
109.671 27.4282 0
109.917 28.6863 0
209.919 31.1645 0
209.675 32.423 0
209.272 33.64 0
208.717 34.7954 0
208.018 35.8703 0
207.188 36.847 0
206.239 37.7095 0
205.188 38.4435 0
204.052 39.037 0
202.849 39.4803 0
201.444 39.79 0
198.574 39.7929 0
197.168 39.4859 0
195.965 39.045 0
194.827 38.4537 0
193.775 37.7217 0
192.825 36.8611 0
191.993 35.8861 0
191.292 34.8126 0
190.735 33.6582 0
190.329 32.442 0
190.083 31.184 0
190.102 28.4697 0
190.409 27.0642 0
190.85 25.8605 0
191.442 24.7231 0
192.174 23.6706 0
193.035 22.7205 0
194.01 21.8883 0
195.083 21.1876 0
196.237 20.6301 0
197.454 20.2247 0
198.712 19.9784 0
201.426 19.997 0
202.831 20.3039 0
204.035 20.7449 0
205.172 21.3362 0
206.224 22.0682 0
207.174 22.9288 0
208.007 23.9038 0
208.707 24.9773 0
209.265 26.1317 0
209.67 27.3479 0
209.916 28.6059 0
309.919 31.05 0
309.676 32.3086 0
309.273 33.5257 0
308.718 34.6813 0
308.02 35.7564 0
307.19 36.7333 0
306.241 37.596 0
305.191 38.3304 0
304.054 38.9242 0
302.852 39.3679 0
301.447 39.678 0
298.577 39.6817 0
297.171 39.3751 0
295.967 38.9346 0
294.83 38.3436 0
293.777 37.6119 0
292.827 36.7516 0
291.994 35.7768 0
291.293 34.7035 0
290.736 33.5493 0
290.33 32.3332 0
290.083 31.0753 0
290.102 28.361 0
290.408 26.9554 0
290.849 25.7515 0
291.44 24.6139 0
292.172 23.5613 0
293.032 22.6109 0
294.007 21.7784 0
295.08 21.0774 0
296.234 20.5195 0
297.451 20.1139 0
298.708 19.8671 0
301.423 19.885 0
302.828 20.1915 0
304.032 20.6321 0
305.169 21.2231 0
306.222 21.9547 0
307.172 22.815 0
308.005 23.7899 0
308.706 24.8632 0
309.264 26.0173 0
309.669 27.2334 0
309.916 28.4914 0
409.898 31.0692 0
409.592 32.4749 0
409.151 33.6788 0
408.56 34.8165 0
407.829 35.8692 0
406.969 36.8198 0
405.994 37.6525 0
404.921 38.3536 0
403.767 38.9117 0
402.551 39.3176 0
401.293 39.5646 0
398.578 39.5472 0
397.173 39.2409 0
395.969 38.8005 0
394.831 38.2097 0
393.778 37.4782 0
392.828 36.6181 0
391.995 35.6434 0
391.294 34.5702 0
390.736 33.4161 0
390.33 32.2001 0
390.083 30.9422 0
390.101 28.2279 0
390.407 26.8223 0
390.848 25.6183 0
391.439 24.4806 0
392.17 23.4279 0
393.031 22.4773 0
394.005 21.6447 0
395.078 20.9435 0
396.233 20.3854 0
397.449 19.9795 0
398.706 19.7326 0
401.265 19.7289 0
402.524 19.9722 0
403.741 20.3746 0
404.896 20.9293 0
405.971 21.6274 0
406.948 22.4572 0
407.811 23.4053 0
408.546 24.4559 0
409.14 25.5919 0
409.584 26.7945 0
409.894 28.1993 0
496.608 29.508 0
493.218 29.513 0
489.827 29.518 0
486.436 29.523 0
482.977 29.528 0
479.519 29.5331 0
476.061 29.5382 0
472.603 29.5433 0
469.145 29.5483 0
465.687 29.5534 0
462.225 29.5585 0
458.764 29.5635 0
455.302 29.5686 0
451.841 29.5736 0
448.379 29.5787 0
444.918 29.5837 0
441.456 29.5888 0
437.995 29.5938 0
434.533 29.5988 0
431.072 29.6038 0
427.634 29.6088 0
424.197 29.6138 0
421.239 29.618 0
418.282 29.6223 0
415.997 29.6256 0
413.713 29.6288 0
411.856 29.6315 0
3.39078 30 0
6.78155 29.9999 0
10.1723 29.9998 0
13.5631 29.9995 0
17.0218 29.9992 0
20.4804 29.9988 0
23.9384 29.9983 0
27.3963 29.9978 0
30.8543 29.9972 0
34.3123 29.9965 0
37.7738 29.9957 0
41.2354 29.9949 0
44.6969 29.994 0
48.1584 29.9931 0
51.62 29.9921 0
55.0815 29.991 0
58.543 29.9899 0
62.0046 29.9887 0
65.466 29.9875 0
68.9274 29.9861 0
72.3651 29.9848 0
75.8027 29.9833 0
78.76 29.982 0
81.7174 29.9807 0
84.0019 29.9797 0
86.2865 29.9786 0
88.1432 29.9778 0
111.791 29.9645 0
113.582 29.9634 0
115.797 29.9621 0
118.012 29.9607 0
120.943 29.9589 0
123.873 29.957 0
127.449 29.9546 0
131.025 29.9522 0
134.66 29.9497 0
138.295 29.9471 0
142.727 29.9439 0
147.16 29.9406 0
150.796 29.9378 0
154.432 29.935 0
158.069 29.9321 0
161.705 29.9292 0
165.34 29.9262 0
168.975 29.9232 0
172.551 29.9201 0
176.127 29.917 0
179.057 29.9145 0
181.988 29.9119 0
184.203 29.9099 0
186.418 29.9079 0
188.209 29.9063 0
211.791 29.8833 0
213.582 29.8816 0
215.797 29.8793 0
218.012 29.8771 0
220.943 29.8741 0
223.873 29.8711 0
227.449 29.8673 0
231.025 29.8636 0
234.66 29.8597 0
238.295 29.8558 0
242.727 29.8509 0
247.159 29.846 0
250.796 29.842 0
254.432 29.8379 0
258.068 29.8338 0
261.705 29.8296 0
265.34 29.8254 0
268.975 29.8212 0
272.551 29.8169 0
276.126 29.8127 0
279.057 29.8092 0
281.988 29.8057 0
284.203 29.803 0
286.418 29.8003 0
288.209 29.7982 0
311.791 29.7683 0
313.582 29.766 0
315.797 29.7632 0
318.012 29.7604 0
320.942 29.7566 0
323.873 29.7528 0
327.449 29.7481 0
331.025 29.7434 0
334.66 29.7386 0
338.295 29.7338 0
342.727 29.7279 0
347.159 29.722 0
350.796 29.7171 0
354.432 29.7121 0
358.068 29.7072 0
361.705 29.7022 0
365.34 29.6972 0
368.974 29.6922 0
372.55 29.6873 0
376.126 29.6823 0
379.057 29.6782 0
381.988 29.6742 0
384.203 29.6711 0
386.418 29.668 0
388.209 29.6655 0
401.456 12.1887 0
22.4851 14.1101 0
388.858 10.3669 0
413.005 18.4211 0
415.901 23.3541 0
212.733 24.4816 0
313.189 24.1299 0
202.736 12.3279 0
306.769 6.18727 0
298.712 12.2522 0
83.8136 27.817 0
184.193 27.1158 0
284.163 27.0311 0
384.125 27.1528 0
388.957 27.4814 0
411.582 28.0859 0
288.895 27.5268 0
188.914 27.6378 0
88.8793 27.8324 0
290.77 8.29857 0
294.236 12.8883 0
338.798 23.4248 0
417.31 9.35251 0
314.909 9.73675 0
281.98 16.4515 0
495.127 6.37094 0
4.8397 23.0925 0
115.86 10.2163 0
117.197 23.7215 0
493.23 24.9986 0
6.80098 4.51718 0
399.03 2.88117 0
296.062 2.62184 0
194.783 2.72749 0
100.932 2.60933 0
105.082 8.31598 0
98.5083 7.88699 0
108.173 9.83365 0
116.416 13.5035 0
197.501 8.24684 0
296.45 8.03632 0
315.915 12.8929 0
399.877 8.59971 0
292.471 10.8404 0
402.558 9.69874 0
113.53 27.2979 0
214.187 26.1304 0
314.603 25.8934 0
311.752 25.4247 0
313.044 28.0697 0
311.088 26.8034 0
311.253 28.0719 0
211.472 25.6884 0
212.912 28.2515 0
210.956 26.9847 0
211.121 28.2533 0
111.912 26.562 0
112.838 28.8958 0
110.882 27.6282 0
111.047 28.8969 0
7.13775 25.2048 0
5.59144 27.8449 0
2.20066 24.4542 0
2.2007 27.845 0
495.365 23.0699 0
497.921 24.0496 0
494.535 27.4453 0
497.926 27.4404 0
492.79 4.24419 0
494.368 1.65156 0
497.763 5.03734 0
497.758 1.64656 0
4.63837 6.42304 0
2.09165 5.44168 0
5.48178 2.05055 0
2.09159 2.05084 0
337.599 20.646 0
155.891 21.712 0
149.764 20.6074 0
147.097 24.8782 0
144.163 20.7007 0
334.804 18.6644 0
429.851 15.7513 0
331.636 21.8597 0
270.979 11.6021 0
271.776 14.5265 0
268.915 13.9492 0
265.197 12.545 0
14.9411 11.7039 0
440.79 15.0197 0
433.539 16.9272 0
137.673 21.9225 0
162.961 22.1668 0
261.569 21.9955 0
275.404 15.3219 0
276.626 12.9562 0
278.84 10.4332 0
278.19 16.0987 0
281.731 12.9339 0
76.5728 15.8451 0
178.758 14.9428 0
139.793 25.7663 0
144.225 25.7631 0
149.827 25.6698 0
153.463 25.667 0
156.861 25.98 0
160.497 25.9771 0
240.363 25.7576 0
259.814 25.8153 0
333.103 26.3338 0
336.738 26.329 0
340.355 26.8297 0
344.787 26.8237 0
345.432 24.0398 0
347.804 26.938 0
351.44 26.9331 0
360.385 25.4027 0
356.749 25.4077 0
353.409 24.329 0
350.417 21.55 0
347.118 21.2633 0
344.101 21.1491 0
341.216 21.1467 0
256.177 25.8195 0
252.382 25.8422 0
248.746 25.8463 0
244.795 25.7528 0
362.733 21.7654 0
355.726 20.0246 0
349.086 18.6593 0
342.902 18.3702 0
254.128 21.8238 0
246.382 21.753 0
238.727 21.7923 0
59.9863 17.9254 0
484.456 14.8314 0
370.992 13.7819 0
361.526 17.3413 0
357.602 17.0971 0
354.262 16.0185 0
350.768 15.6934 0
347.468 15.4067 0
344.047 15.387 0
341.162 15.3846 0
337.221 16.3863 0
260.099 17.9331 0
255.919 17.9174 0
252.124 17.9402 0
248.233 17.8735 0
244.282 17.78 0
240.139 17.6555 0
231.294 13.7046 0
161.54 18.2469 0
157.984 18.067 0
154.586 17.754 0
151.334 17.5434 0
148.604 16.7519 0
145.454 16.8032 0
142.582 17.6881 0
139.254 18.025 0
72.7892 15.4224 0
69.1055 15.1988 0
65.5546 15.0775 0
62.0831 14.9761 0
58.6381 14.874 0
476.547 14.4412 0
480.19 14.638 0
469.501 14.311 0
472.996 14.4311 0
462.734 14.005 0
466.181 14.2643 0
459.861 13.8196 0
15.5772 15.3139 0
19.1022 15.714 0
49.0575 14.364 0
51.9208 14.5607 0
55.338 14.8101 0
225.057 15.1454 0
228.413 14.2406 0
426.736 15.5494 0
330.26 13.9167 0
331.259 17.6 0
482.996 11.5915 0
475.178 11.388 0
468.307 11.3313 0
462.114 11.0992 0
456.255 12.7226 0
432.904 13.9704 0
425.623 12.5507 0
374.185 11.2736 0
367.288 12.1382 0
360.062 13.3352 0
352.644 12.7659 0
345.728 12.4211 0
338.367 13.403 0
258.095 14.0494 0
250.024 13.9672 0
241.99 13.7761 0
234.933 12.1774 0
229.137 11.2391 0
222.657 12.3928 0
181.376 12.5841 0
175.094 13.3005 0
160.235 14.2889 0
153.426 13.8985 0
147.024 13.7392 0
140.545 14.1275 0
79.0892 13.0613 0
71.3614 12.3511 0
64.2064 12.0261 0
57.4348 11.8608 0
51.2715 11.6002 0
45.4796 13.2119 0
485.193 18.4573 0
478.007 17.6811 0
470.87 17.3641 0
463.928 16.9847 0
449.129 14.7122 0
456.875 15.6284 0
427.37 18.5062 0
16.0597 18.3728 0
22.9678 17.1689 0
30.3224 15.482 0
38.4226 15.2097 0
46.1289 16.1725 0
53.124 17.574 0
66.9823 18.1488 0
74.3169 18.6928 0
127.331 15.6002 0
133.759 14.8355 0
135.636 18.362 0
165.212 18.3887 0
167.876 14.5868 0
175.626 16.3471 0
227.213 17.611 0
234.208 15.1789 0
236.436 17.7883 0
263.745 18.1275 0
265.993 15.4694 0
273.34 17.669 0
365.193 18.0035 0
367.69 15.2231 0
125.003 12.3095 0
125.283 19.2933 0
375.153 17.873 0
374.587 14.3585 0
423.142 15.3055 0
327.092 17.112 0
329.558 25.2694 0
487.999 15.4107 0
11.8986 14.3626 0
490.752 13.5291 0
490.977 10.3683 0
488.64 8.24154 0
485.119 8.58983 0
480.853 8.39647 0
477.218 8.42101 0
473.666 8.41094 0
470.186 8.41705 0
466.866 8.37037 0
463.572 8.40892 0
460.698 8.22351 0
457.274 8.70416 0
454.288 10.5129 0
450.918 10.9903 0
446.777 11.1712 0
443.199 10.9885 0
439.001 11.1151 0
435.302 10.9121 0
431.614 9.73626 0
428.017 9.48484 0
424.423 9.24098 0
420.842 9.22672 0
379.377 8.69767 0
375.65 8.70304 0
372.055 8.12645 0
368.429 8.16489 0
365.128 9.6061 0
361.809 9.9356 0
357.884 9.69137 0
354.373 9.63779 0
350.879 9.31271 0
347.411 9.28935 0
343.99 9.26959 0
340.43 9.44666 0
336.49 10.4483 0
332.809 10.5344 0
328.642 10.0465 0
325.035 9.92781 0
321.512 9.5962 0
318.041 9.60929 0
281.159 9.63406 0
276.054 9.6564 0
272.322 9.08185 0
269.462 8.50457 0
266.041 8.52316 0
263.119 10.0433 0
259.73 10.3336 0
255.55 10.3179 0
251.893 10.3021 0
248.002 10.2355 0
244.367 10.1703 0
240.224 10.0459 0
236.877 9.77101 0
233.962 8.29679 0
230.623 8.21408 0
227.742 8.75003 0
224.381 8.91035 0
220.781 9.52812 0
217.324 9.41341 0
213.699 8.61517 0
182.866 9.86598 0
179.716 9.17806 0
176.317 9.37988 0
173.185 10.7842 0
169.79 10.9223 0
165.706 10.8043 0
162.168 10.6973 0
158.611 10.5174 0
155.226 10.4097 0
151.973 10.1992 0
148.634 10.1735 0
145.484 10.2248 0
142.116 10.3417 0
138.788 10.6787 0
135.3 10.9395 0
131.843 11.3105 0
127.973 11.9158 0
122.58 11.0993 0
118.96 10.2863 0
81.019 9.98654 0
76.975 9.49991 0
73.3437 9.33992 0
69.6601 9.11635 0
66.1787 9.04877 0
62.7074 8.94731 0
59.3068 8.92459 0
56.0067 8.86071 0
52.6804 8.86016 0
49.8172 8.66346 0
46.4152 9.17762 0
43.4866 10.986 0
40.1451 11.5107 0
36.0167 11.7001 0
32.4292 11.5605 0
28.4574 11.6434 0
24.7918 11.2688 0
20.9264 9.81393 0
17.3516 9.27013 0
13.6732 8.31886 0
10.3407 7.84263 0
9.12174 16.1423 0
8.90635 19.2339 0
486.294 21.4896 0
489.672 21.8281 0
479.302 20.7497 0
482.751 20.9102 0
472.146 20.4554 0
475.66 20.5529 0
465.177 20.2235 0
468.651 20.3352 0
458.224 19.6935 0
461.729 19.9642 0
443.156 18.6989 0
446.838 18.6004 0
450.978 18.4195 0
454.618 18.5965 0
435.558 19.2996 0
438.957 18.8255 0
428.914 21.3505 0
432.505 21.0806 0
425.799 21.1485 0
11.2044 21.3461 0
14.6103 21.0663 0
18.1355 21.4664 0
21.659 21.1419 0
25.042 19.5379 0
28.5127 19.2518 0
32.4846 19.1689 0
36.1659 19.0967 0
40.2944 18.9073 0
43.9244 19.1141 0
47.5024 20.2663 0
50.9786 20.5456 0
54.3958 20.7949 0
57.8823 20.8871 0
61.3274 20.9892 0
64.7697 21.0509 0
68.3207 21.1722 0
71.9676 21.3711 0
128.253 18.8996 0
132.179 18.733 0
136.175 26.1033 0
164.169 26.1189 0
169.297 18.5067 0
173.012 19.0343 0
225.736 21.0674 0
229.092 20.1626 0
232.797 19.3156 0
236.659 25.8904 0
263.46 26.0098 0
267.463 19.5318 0
271.404 20.3946 0
364.052 26.0649 0
368.897 19.6472 0
372.565 20.2315 0
96.2854 6.37296 0
97.5082 2.61123 0
108.61 3.80657 0
110.21 7.18663 0
195.508 6.78409 0
198.207 2.7242 0
210.407 8.39965 0
294.749 5.49449 0
322.57 13.0971 0
322.962 16.4721 0
381.721 10.8343 0
383.317 7.6818 0
121.939 14.7837 0
122.227 17.8407 0
221.457 15.7632 0
378.346 15.3647 0
380.963 13.6971 0
75.7513 21.7938 0
176.677 20.6765 0
275.033 21.1899 0
376.324 21.2378 0
402.455 2.87625 0
80.617 16.3317 0
181.908 15.6307 0
411.06 9.36073 0
414.099 9.39035 0
418.498 12.4326 0
419.539 15.2197 0
420.651 18.2184 0
421.852 21.2918 0
123.149 21.1401 0
221.043 19.4732 0
222.59 21.6223 0
323.961 20.1554 0
325.245 22.9873 0
491.807 19.8994 0
491.489 17.1551 0
8.17806 9.7485 0
8.48583 12.5323 0
494.468 12.1126 0
492.356 6.82501 0
486.498 5.04654 0
479.341 5.41936 0
472.225 5.45001 0
465.451 5.49466 0
458.732 6.01384 0
451.937 6.97185 0
444.988 7.26658 0
437.711 6.88094 0
430.414 6.42654 0
423.236 6.16086 0
416.443 6.18445 0
409.976 6.7006 0
384.463 5.39893 0
377.247 5.55052 0
369.894 5.59432 0
362.95 5.96225 0
356.119 6.23817 0
349.14 6.16123 0
342.113 6.31494 0
334.872 6.57812 0
327.584 6.54558 0
320.506 6.44002 0
313.476 6.65859 0
299.486 2.61752 0
288.531 5.7308 0
281.805 6.5298 0
274.537 6.55889 0
267.384 6.00292 0
260.574 6.31179 0
253.528 6.58627 0
246.236 6.50527 0
239.254 6.16527 0
232.567 5.80773 0
225.866 5.88534 0
219.049 5.93094 0
212.3 5.60072 0
184.388 6.55147 0
177.807 6.6618 0
171.014 7.00174 0
164.082 7.03281 0
157.158 6.81808 0
150.433 6.68472 0
143.726 6.77597 0
136.871 7.15373 0
129.514 8.0198 0
122.024 7.81212 0
115.519 6.86231 0
82.4569 6.5174 0
75.2736 6.26516 0
68.1611 6.03758 0
61.2792 5.94728 0
54.5524 5.92402 0
47.8242 6.43763 0
41.0807 7.47644 0
34.1517 7.86147 0
26.8986 7.34727 0
19.6584 6.42889 0
12.7512 5.40887 0
7.25616 6.83851 0
5.49349 17.4036 0
7.57606 22.6074 0
492.743 22.6909 0
487.23 24.281 0
480.403 23.7819 0
473.441 23.524 0
466.452 23.3148 0
459.473 22.9323 0
445.005 22.4062 0
452.328 22.4846 0
437.924 22.9789 0
430.934 23.7229 0
423.396 24.1361 0
13.2801 24.4398 0
20.2097 23.8355 0
27.2041 23.2248 0
34.3563 22.8665 0
41.6678 23.0011 0
48.7741 23.4873 0
55.7369 23.8587 0
62.6657 24.0126 0
69.755 24.2732 0
77.3713 25.0637 0
122.931 23.9173 0
130.131 22.4261 0
132.54 26.1058 0
167.803 26.1159 0
170.348 22.8362 0
178.016 23.8437 0
224.468 24.1739 0
231.319 22.7721 0
233.024 25.8943 0
267.095 26.0056 0
269.156 23.0527 0
277.503 24.0887 0
367.687 26.0599 0
370.068 23.012 0
377.785 24.117 0
100.829 7.11676 0
101.607 4.89889 0
105.86 6.09811 0
106.311 9.65661 0
199.654 7.82763 0
200.493 5.35133 0
206.022 5.26773 0
207.611 7.72385 0
298.887 7.80629 0
300.7 5.48201 0
317.209 14.9623 0
319.438 16.1404 0
384.903 12.6813 0
89.6507 7.05311 0
190.319 7.32936 0
215.431 12.2124 0
387.136 11.9015 0
386.806 7.53557 0
391.245 5.35788 0
397.76 5.78641 0
84.5712 10.0788 0
87.9008 9.4203 0
117.672 15.5459 0
119.805 16.6305 0
186.048 9.95747 0
188.904 9.47052 0
216.766 14.8268 0
218.642 16.7206 0
284.695 9.03043 0
287.58 8.49395 0
381.529 17.2117 0
79.7206 22.3854 0
81.5253 19.8085 0
180.629 21.1565 0
182.283 19.0741 0
279.439 21.3632 0
280.759 18.8172 0
284.299 15.6523 0
380.372 21.7584 0
382.09 19.7504 0
403.849 6.64434 0
84.0417 17.0247 0
184.901 16.7154 0
407.804 9.83904 0
411.927 12.5288 0
416.006 15.3455 0
418.248 21.206 0
416.307 25.4085 0
119.874 22.4647 0
217.18 23.0349 0
219.775 22.5797 0
318.265 22.4645 0
321.114 22.3474 0
494.56 18.0178 0
5.40122 11.5282 0
497.113 16.6828 0
497.109 14.1698 0
497.334 11.0089 0
497.329 7.61816 0
491.596 2.10563 0
488.206 2.11062 0
484.685 2.45889 0
481.261 2.46392 0
477.625 2.48846 0
474.063 2.49368 0
470.583 2.49978 0
467.159 2.50479 0
463.864 2.54334 0
460.44 2.54834 0
457.015 3.02899 0
453.591 3.03399 0
450.22 3.51135 0
446.796 3.51634 0
443.217 3.33369 0
439.792 3.33867 0
436.094 3.13568 0
432.669 3.14064 0
429.072 2.88922 0
425.647 2.89416 0
422.066 2.87991 0
418.641 2.88483 0
415.43 2.92268 0
412.006 2.9276 0
408.749 3.40591 0
405.324 3.41082 0
395.81 2.55779 0
392.386 2.56268 0
389.091 2.45751 0
385.667 2.46235 0
382.178 2.60856 0
378.754 2.61335 0
375.027 2.61871 0
371.602 2.62346 0
367.976 2.66189 0
364.552 2.66659 0
361.233 2.99609 0
357.809 3.00076 0
354.297 2.94718 0
350.873 2.95181 0
347.405 2.92844 0
343.981 2.93303 0
340.421 3.11011 0
336.997 3.11465 0
333.315 3.20076 0
329.891 3.20526 0
326.284 3.08661 0
322.859 3.09107 0
319.389 3.10416 0
315.964 3.10858 0
312.404 3.31406 0
308.98 3.31844 0
305.834 2.64163 0
302.409 2.64598 0
293.034 2.66276 0
289.609 2.66702 0
286.42 2.86239 0
282.995 2.86656 0
279.459 3.47018 0
276.034 3.47428 0
272.303 2.89973 0
268.878 2.90375 0
265.458 2.92232 0
262.033 2.92628 0
258.644 3.21657 0
255.219 3.22046 0
251.563 3.20463 0
248.138 3.20845 0
244.503 3.14328 0
241.079 3.14703 0
237.732 2.8722 0
234.307 2.87588 0
230.968 2.79317 0
227.544 2.79678 0
224.182 2.95709 0
220.758 2.96063 0
217.302 2.84592 0
213.877 2.84938 0
210.585 2.63386 0
207.16 2.63726 0
204.175 2.51979 0
200.751 2.52314 0
192.342 3.95916 0
189.593 3.27275 0
186.169 3.27591 0
182.987 3.18443 0
179.563 3.18748 0
176.164 3.3893 0
172.739 3.39225 0
169.346 3.53038 0
165.921 3.53324 0
162.383 3.42619 0
158.959 3.42895 0
155.573 3.32127 0
152.149 3.32393 0
148.81 3.29825 0
145.386 3.30082 0
142.018 3.41776 0
138.593 3.42023 0
135.106 3.68105 0
131.682 3.68343 0
127.812 4.28868 0
124.388 4.29095 0
120.768 3.47802 0
117.344 3.48018 0
114.459 3.34332 0
111.035 3.34538 0
106.686 2.25687 0
103.261 2.25884 0
94.5153 3.7348 0
91.091 3.7366 0
87.4494 3.29314 0
84.0252 3.29479 0
80.4732 3.20254 0
77.049 3.20405 0
73.4179 3.04405 0
69.9937 3.04543 0
66.5124 2.97785 0
63.0882 2.9791 0
59.6877 2.95639 0
56.2635 2.95752 0
52.9374 2.95698 0
49.5132 2.95799 0
46.1113 3.47214 0
42.6871 3.47303 0
39.3457 3.99768 0
35.9215 3.99844 0
32.3341 3.85881 0
28.9099 3.85944 0
25.2444 3.48487 0
21.8202 3.48536 0
18.2457 2.94157 0
14.8222 2.94194 0
11.4897 2.46573 0
8.09951 2.466 0
2.85445 12.8615 0
2.85449 15.3745 0
2.63899 18.466 0
2.63904 21.8568 0
488.522 27.0713 0
491.913 27.0663 0
481.685 26.7378 0
485.144 26.7327 0
474.779 26.5824 0
478.237 26.5773 0
467.807 26.49 0
471.265 26.4849 0
460.871 26.3833 0
464.333 26.3782 0
453.904 26.1176 0
457.366 26.1125 0
446.803 25.9457 0
450.264 25.9407 0
439.659 26.0493 0
443.12 26.0443 0
432.798 26.5284 0
436.26 26.5234 0
425.77 26.8033 0
429.208 26.7983 0
418.866 26.9509 0
421.823 26.9466 0
8.32787 27.3598 0
11.7186 27.3596 0
15.1246 27.0798 0
18.5832 27.0794 0
22.1069 26.7549 0
25.5648 26.7544 0
29.0357 26.4682 0
32.4936 26.4676 0
36.175 26.3954 0
39.6365 26.3946 0
43.2667 26.6014 0
46.7281 26.6005 0
50.2044 26.8799 0
53.6659 26.8788 0
57.1525 26.971 0
60.6139 26.9698 0
64.0563 27.0315 0
67.5177 27.0302 0
71.1647 27.2291 0
74.6023 27.2277 0
78.5717 27.8193 0
81.5291 27.818 0
121.765 27.5994 0
125.039 26.2749 0
128.615 26.2725 0
171.519 26.6435 0
175.095 26.6404 0
179.047 27.1203 0
181.978 27.1177 0
222.598 27.2999 0
225.744 26.7451 0
229.319 26.7413 0
271.036 26.8683 0
274.612 26.8641 0
279.018 27.0373 0
281.948 27.0338 0
323.136 27.466 0
326.712 27.4614 0
371.355 26.6443 0
374.931 26.6393 0
378.98 27.16 0
381.91 27.1559 0
103.157 6.76627 0
202.197 7.62656 0
204.626 7.60639 0
301.81 7.83474 0
304.145 8.14728 0
317.6 18.3373 0
316.85 20.7009 0
386.378 14.7643 0
91.5425 9.86375 0
103.608 10.3248 0
102.903 12.7717 0
191.652 10.1569 0
203.786 10.0827 0
209.011 10.7383 0
213.141 14.0286 0
302.332 10.4716 0
303.017 12.5128 0
307.292 8.82408 0
314.62 19.5228 0
390.003 8.08403 0
393.297 8.18919 0
396.657 8.27634 0
86.0896 15.4622 0
86.463 12.8895 0
117.96 18.6029 0
117.415 20.9443 0
186.884 15.1953 0
187.381 12.7851 0
216.352 18.5368 0
215.726 21.3862 0
286.553 14.3085 0
286.934 11.5982 0
384.707 18.0828 0
386.46 16.6977 0
388.693 15.918 0
84.5496 25.6716 0
83.1454 23.0784 0
184.898 24.8472 0
183.622 22.2412 0
284.85 24.7597 0
283.229 21.716 0
286.803 17.8261 0
384.873 24.9688 0
383.551 22.6296 0
114.852 24.4843 0
214.678 23.9904 0
315.285 23.65 0
91.8954 12.3923 0
93.6454 10.0251 0
95.5153 9.01057 0
95.8683 11.5391 0
100.059 9.75437 0
101.673 11.4311 0
104.816 13.5313 0
106.699 11.8425 0
110.598 9.37247 0
112.975 10.0794 0
110.938 12.7265 0
114.571 15.4759 0
192.089 12.4537 0
193.504 10.3126 0
195.06 9.47854 0
195.496 11.7753 0
199.205 10.5221 0
200.567 12.2303 0
205.165 12.3077 0
207.108 11.8857 0
209.904 12.5615 0
211.117 13.4684 0
209.214 14.6158 0
212.451 16.0828 0
293.422 8.07726 0
297.56 10.3891 0
300.682 12.2003 0
304.83 12.8961 0
306.45 11.6877 0
309.074 9.72772 0
311.349 9.94223 0
310.508 12.8059 0
314.077 15.0897 0
313.418 17.8222 0
390.454 14.9241 0
390.333 12.45 0
395.414 11.0025 0
405.428 10.2333 0
86.998 18.939 0
89.4192 14.8037 0
91.3522 14.0876 0
102.881 14.6376 0
113.793 18.114 0
115.282 19.8597 0
187.26 18.6387 0
189.741 14.7084 0
191.586 14.0689 0
201.945 14.4553 0
212.478 17.8034 0
213.85 19.4924 0
289.438 13.772 0
291.584 13.1096 0
303.179 14.6248 0
387.021 19.2364 0
390.536 16.8575 0
406.513 12.8934 0
86.3542 23.0947 0
87.4135 21.1358 0
113.234 23.7484 0
186.552 22.7648 0
187.588 20.8883 0
211.963 23.5485 0
286.17 22.2137 0
287.147 20.2213 0
289.401 18.8775 0
312.434 23.1813 0
386.591 22.9607 0
387.559 21.1231 0
407.036 14.794 0
408.925 15.6044 0
411.964 15.634 0
414.7 20.2807 0
113.349 26.0316 0
117.311 26.0047 0
118.834 27.6013 0
218.726 25.184 0
219.667 27.3029 0
319.549 25.2964 0
320.205 27.4698 0
93.4551 14.2489 0
95.2902 13.7233 0
97.1602 12.7087 0
99.3529 12.2013 0
106.678 13.7083 0
108.53 14.2443 0
110.907 14.9513 0
112.537 16.0716 0
193.438 14.2245 0
195.097 13.7791 0
196.653 12.9451 0
198.414 12.6495 0
206.058 14.1309 0
207.764 15.3026 0
208.977 16.2095 0
210.454 17.2432 0
296.275 12.4822 0
306.612 13.7998 0
308.328 14.4211 0
310.604 14.6356 0
312.124 15.7529 0
392.175 13.3895 0
394.222 12.9141 0
397.582 13.0013 0
399.329 12.9398 0
89.4614 19.5733 0
90.8225 18.4894 0
90.9789 16.6603 0
92.7555 17.7733 0
101.454 15.8274 0
103.368 16.5869 0
113.248 20.4554 0
112.538 22.3048 0
111.048 20.5591 0
189.572 19.3682 0
190.925 18.2861 0
191.089 16.4792 0
192.771 17.6466 0
200.707 15.9573 0
202.876 16.055 0
211.853 20.6527 0
211.441 22.3589 0
210.069 20.67 0
290.871 17.8174 0
291.203 15.8199 0
293.017 17.1551 0
301.75 15.9214 0
303.563 16.3047 0
312.668 20.1859 0
312.051 21.9555 0
310.849 20.2549 0
389.312 19.738 0
390.626 18.6606 0
392.387 17.6667 0
404.661 15.1883 0
88.8177 23.729 0
111.034 23.852 0
188.864 23.4943 0
210.18 23.5658 0
288.768 23.2651 0
291.215 20.2127 0
310.615 23.2503 0
388.882 23.4623 0
407.074 17.8992 0
410.658 20.5692 0
412.759 24.4832 0
497.433 21.7418 0
497.43 19.4271 0
2.54674 7.76296 0
2.54678 10.0777 0
413.439 28.0832 0
415.723 28.08 0
87.0225 27.8333 0
114.275 28.3655 0
116.489 28.3642 0
187.123 27.6394 0
214.856 27.7604 0
217.071 27.7581 0
287.104 27.5289 0
315.141 27.5898 0
317.356 27.5869 0
387.166 27.4839 0
94.2125 17.1481 0
94.747 15.4185 0
98.7748 14.3855 0
99.7668 15.8422 0
104.992 17.002 0
106.647 15.9331 0
110.129 17.5894 0
109.87 19.4211 0
194.191 17.0382 0
194.594 15.3943 0
198.015 14.6533 0
199.092 15.9694 0
204.447 16.5294 0
205.82 15.7246 0
209.004 17.93 0
208.973 19.5658 0
294.58 16.5765 0
295.388 14.7514 0
299.396 14.2934 0
300.171 15.8476 0
305.106 16.7084 0
306.708 15.6295 0
309.945 17.3681 0
309.676 19.2076 0
393.848 16.9935 0
394.343 15.3883 0
398.137 14.8514 0
402.011 14.0388 0
402.91 15.1881 0
96.0476 16.6225 0
97.5741 16.3497 0
106.844 17.538 0
108.24 18.3007 0
195.85 16.5928 0
197.331 16.265 0
206.153 17.7011 0
207.496 18.5321 0
296.619 16.1704 0
298.201 15.8995 0
306.822 17.3296 0
308.155 18.0903 0
395.895 16.5182 0
397.427 16.1763 0
399.174 16.1149 0
400.783 15.9392 0
91.238 20.6863 0
94.0561 18.9773 0
97.0396 18.0792 0
100.253 17.7916 0
103.564 18.1918 0
106.585 19.3696 0
109.16 21.2704 0
191.254 20.5356 0
194.027 18.8451 0
196.927 17.9089 0
200.023 17.5691 0
203.209 18.0315 0
206.123 19.3369 0
208.561 21.272 0
294.248 18.574 0
297.394 17.7246 0
300.554 17.5275 0
303.677 18.0049 0
306.553 19.1692 0
309.059 20.9772 0
391.163 20.5472 0
393.938 18.7966 0
396.932 17.7816 0
400.073 17.2642 0
403.434 17.0887 0
89.0846 26.4122 0
89.6013 25.2419 0
90.6606 23.283 0
91.4573 22.2821 0
92.8184 21.1982 0
93.843 20.4322 0
95.3 19.807 0
96.4854 19.326 0
98.0119 19.0532 0
99.2805 18.8888 0
100.967 18.874 0
102.387 19.0791 0
104.012 19.4942 0
105.182 20.0108 0
106.578 20.7735 0
107.579 21.5702 0
108.758 22.7082 0
109.524 23.7328 0
110.22 25.1765 0
110.701 26.3619 0
189.118 26.2175 0
189.635 25.047 0
190.671 23.1704 0
191.467 22.1692 0
192.821 21.087 0
193.845 20.3206 0
195.265 19.7122 0
196.45 19.2307 0
197.931 18.9029 0
199.199 18.738 0
200.814 18.726 0
202.234 18.9305 0
203.806 19.4049 0
204.976 19.921 0
206.319 20.752 0
207.32 21.5483 0
208.416 22.6525 0
209.182 23.6768 0
209.705 24.8664 0
210.186 26.0516 0
289.1 26.1064 0
289.616 24.9357 0
290.593 22.9433 0
291.389 21.9418 0
292.859 20.8818 0
293.883 20.1151 0
295.446 19.5364 0
296.631 19.0546 0
298.213 18.7838 0
299.481 18.6185 0
301.061 18.6922 0
302.481 18.8963 0
304.024 19.3 0
305.195 19.8158 0
306.528 20.5765 0
307.529 21.3725 0
308.703 22.4198 0
309.469 23.4438 0
309.851 24.6697 0
310.333 25.8548 0
389.161 26.0611 0
389.676 24.8903 0
390.644 23.0526 0
391.44 22.051 0
392.754 20.9736 0
393.778 20.2066 0
395.239 19.5335 0
396.424 19.0515 0
397.956 18.7097 0
399.224 18.5442 0
400.834 18.3685 0
402.103 18.5304 0
403.854 18.5305 0
405.04 19.0091 0
406.929 19.8195 0
407.956 20.5834 0
409.651 22.443 0
410.449 23.4423 0
410.855 25.4968 0
411.374 26.6661 0
413.165 26.5376 0
412.353 22.4288 0
408.963 18.7096 0
405.185 17.0889 0
401.682 17.0885 0
398.463 17.4398 0
395.4 18.1234 0
392.477 19.4698 0
389.85 21.6246 0
387.914 25.2999 0
310.997 24.4762 0
310.233 22.0245 0
307.886 19.9299 0
305.22 18.4085 0
302.134 17.6012 0
298.975 17.4537 0
295.812 17.9954 0
292.685 19.1527 0
289.745 21.2727 0
287.791 25.2575 0
210.703 24.7554 0
209.658 22.3762 0
207.465 20.1679 0
204.78 18.5059 0
201.638 17.557 0
198.408 17.5811 0
195.446 18.2367 0
192.607 19.4535 0
189.9 21.6178 0
187.828 25.3709 0
111.731 25.2957 0
110.338 22.4084 0
107.981 20.1324 0
105.188 18.6069 0
101.94 17.7767 0
98.5661 17.8064 0
95.5131 18.352 0
92.5991 19.6025 0
89.877 21.7701 0
87.7585 25.6879 0
399.884 14.7899 0
396.39 14.9129 0
308.424 16.2508 0
297.426 14.3454 0
207.526 16.8963 0
196.253 14.9489 0
108.499 16.4691 0
96.5821 14.8929 0
404.137 13.2877 0
392.297 15.8637 0
311.465 18.4854 0
304.992 15.0082 0
301.367 14.2415 0
293.349 15.1575 0
210.481 18.9637 0
204.114 14.5529 0
199.776 14.3577 0
192.935 15.8397 0
111.759 18.7097 0
104.795 15.3971 0
100.967 13.878 0
92.9119 15.9441 0
316.7 25.4135 0
216.131 25.6392 0
114.967 26.7676 0
5.0935 8.74435 0
494.877 20.7621 0
388.775 17.8514 0
313.87 21.8865 0
289.057 16.4822 0
213.224 22.3417 0
189.243 17.1186 0
114.738 22.2011 0
89.0459 17.3764 0
398.774 11.0896 0
392.054 10.9154 0
312.783 13.0204 0
308.232 12.5914 0
295.123 10.6191 0
210.427 15.5226 0
208.001 13.7089 0
197.052 10.9413 0
193.94 12.6093 0
113.316 13.4334 0
108.561 12.0195 0
97.7383 10.5246 0
93.9983 12.5536 0
322.398 25.1793 0
221.322 24.7287 0
119.656 25.2418 0
417.047 18.1326 0
414.965 12.5584 0
408.888 12.4992 0
385.268 20.6215 0
284.549 19.1699 0
185.276 20.1587 0
84.95 20.5015 0
289.819 11.0617 0
214.475 16.643 0
190.238 12.2981 0
115.827 17.5183 0
89.7925 12.231 0
406.719 7.17891 0
388.612 13.9846 0
315.37 17.1591 0
309.916 6.86407 0
304.668 10.7841 0
299.997 10.159 0
291.72 5.5354 0
211.806 11.4141 0
206.216 10.0625 0
201.357 10.1029 0
193.067 8.01576 0
112.634 6.72543 0
104.838 11.6654 0
102.379 8.98413 0
93.2924 7.49652 0
381.833 24.6377 0
281.909 24.2619 0
181.968 24.3236 0
81.3407 25.6553 0
384.145 15.5441 0
284.049 12.1347 0
218.228 20.4306 0
184.525 13.272 0
120.093 19.6875 0
83.1334 13.5479 0
394.54 5.46303 0
387.951 5.2527 0
319.83 19.5154 0
303.623 5.51046 0
203.037 5.15026 0
103.936 4.54839 0
373.736 23.5963 0
273.097 23.9155 0
227.614 23.6191 0
174.064 23.3637 0
126.205 22.5927 0
73.4019 24.472 0
66.108 24.0743 0
59.2234 23.9509 0
52.2504 23.7666 0
45.2979 23.2079 0
38.0377 22.7943 0
30.6749 22.9387 0
23.7333 23.5109 0
16.6861 24.16 0
9.87413 24.7196 0
419.449 24.2794 0
427.343 23.9928 0
434.525 23.453 0
441.323 22.5048 0
448.687 22.3077 0
455.968 22.6616 0
462.978 23.203 0
469.927 23.4266 0
476.954 23.6215 0
483.852 23.9424 0
490.608 24.6196 0
5.27803 20.4951 0
5.70894 14.312 0
9.41875 4.93263 0
16.0837 5.88507 0
23.233 6.97266 0
30.5642 7.72181 0
37.7392 8.00106 0
44.4222 6.95175 0
51.2261 5.92345 0
57.8786 5.92453 0
64.6797 5.96996 0
71.6424 6.10512 0
78.9048 6.42511 0
86.009 6.60961 0
118.404 6.99916 0
125.644 8.62502 0
133.384 7.41452 0
140.358 6.89289 0
147.094 6.65901 0
153.773 6.71038 0
160.544 6.92574 0
167.62 7.13984 0
174.408 6.86359 0
181.206 6.45995 0
187.57 6.64293 0
209.007 5.38519 0
215.592 5.81622 0
222.505 6.04564 0
229.228 5.725 0
235.907 5.89042 0
242.6 6.44008 0
249.871 6.57042 0
257.185 6.60207 0
263.964 6.02148 0
270.805 5.98433 0
278.268 7.13341 0
285.341 5.92615 0
317.036 6.4531 0
323.977 6.42691 0
331.191 6.66422 0
338.553 6.492 0
345.673 6.13785 0
352.608 6.18459 0
359.631 6.29174 0
366.268 5.63274 0
373.519 5.55587 0
380.974 5.54513 0
413.232 6.2223 0
419.654 6.1466 0
426.817 6.17511 0
434.012 6.67795 0
441.409 7.08393 0
448.566 7.44922 0
455.308 6.49448 0
462.156 5.5332 0
468.745 5.45611 0
475.706 5.4439 0
482.977 5.39482 0
490.019 4.69826 0
494.693 8.95176 0
494.242 15.2734 0
400.979 6.10977 0
378.912 18.8792 0
276.969 18.4644 0
179.291 17.9893 0
78.1006 19.1155 0
219.057 13.0106 0
119.516 13.5735 0
385.661 9.81845 0
319.047 12.7655 0
297.777 5.45355 0
197.95 5.55239 0
107.785 7.64781 0
99.2784 5.24937 0
366.4 22.4276 0
265.215 22.1899 0
235.024 21.9251 0
166.632 22.3086 0
134.056 22.2594 0
11.2627 10.7526 0
488.736 19.0367 0
328.091 20.7953 0
223.857 18.5158 0
424.255 18.3042 0
422.03 12.3068 0
377.78 11.8502 0
124.361 15.9939 0
326.094 13.4287 0
371.394 16.8667 0
269.711 16.8736 0
230.569 16.7061 0
171.961 14.7048 0
130.301 15.2065 0
70.5332 18.2701 0
63.4314 18.0275 0
56.5412 17.8233 0
49.7068 17.3246 0
42.551 15.0203 0
34.2942 15.3991 0
26.3506 15.5649 0
19.5848 18.7728 0
12.5346 17.9726 0
430.486 18.7081 0
436.592 15.1462 0
453.269 14.5313 0
444.988 14.8931 0
460.481 16.7255 0
467.375 17.2439 0
474.365 17.4843 0
481.65 17.878 0
18.6196 12.6552 0
48.4082 11.4034 0
54.1347 11.7969 0
60.735 11.9246 0
67.6778 12.1275 0
75.0451 12.5747 0
137.217 14.4645 0
143.874 13.7905 0
150.173 13.6879 0
156.679 14.109 0
163.792 14.4688 0
178.226 11.8961 0
226.257 11.775 0
232.018 10.7031 0
237.847 13.6516 0
246.133 13.9006 0
253.915 14.0338 0
262.274 14.0651 0
268.119 11.0248 0
273.84 12.1794 0
334.427 14.4046 0
342.307 12.4013 0
349.149 12.4408 0
356.138 13.091 0
363.987 13.5794 0
370.59 10.697 0
429.217 12.7946 0
459.24 10.9138 0
464.988 11.2846 0
471.627 11.378 0
478.729 11.3981 0
487.262 11.7848 0
141.291 21.5856 0
147.034 19.8158 0
152.494 21.3989 0
159.289 22.025 0
242.431 21.6595 0
250.332 21.8465 0
257.923 21.801 0
340.016 18.3679 0
345.787 18.3726 0
352.386 18.9459 0
359.066 21.1032 0
342.415 23.9255 0
348.448 24.154 0
335.181 22.9242 0
279.412 13.7331 0
4.18324 4.10172 0
495.561 3.79012 0
495.853 25.3777 0
4.40135 25.6899 0
112.094 27.8283 0
212.242 26.6215 0
312.507 26.3733 0
413.012 41.0665 0
310.354 37.1901 0
338.598 36.9109 0
22.489 45.8869 0
323.999 48.0625 0
188.813 48.5661 0
208.232 49.9628 0
399.792 47.8676 0
284.507 36.2403 0
415.356 36.4567 0
212.749 35.2824 0
312.795 35.1557 0
103.114 52.0723 0
315.332 40.6297 0
100.901 57.0924 0
83.8149 32.1427 0
184.055 32.337 0
384.22 32.1916 0
388.916 31.7476 0
411.49 31.1806 0
288.503 31.2494 0
188.866 31.9883 0
88.8776 32.1234 0
165.23 41.4649 0
417.389 50.134 0
280.275 49.8707 0
121.753 49.0149 0
389.327 51.1148 0
495.195 52.6493 0
301.152 56.2736 0
4.84 36.9075 0
117.026 36.1416 0
317.223 36.8018 0
493.243 34.0273 0
6.80296 55.482 0
113.049 56.876 0
388.054 48.6385 0
109.412 50.9344 0
114.931 45.4458 0
98.1731 51.4812 0
307.39 49.8351 0
312.307 46.0231 0
113.506 32.6288 0
214.199 33.6307 0
314.26 33.5891 0
311.413 34.3954 0
312.925 31.4652 0
310.972 32.7364 0
311.134 31.4674 0
211.486 34.0817 0
212.917 31.513 0
210.964 32.7837 0
211.126 31.5148 0
111.922 33.3684 0
112.839 31.0318 0
110.885 32.3017 0
111.048 31.0329 0
7.13807 34.7951 0
5.59155 32.155 0
2.20077 35.5458 0
2.20073 32.1551 0
4.63956 53.5766 0
2.0922 54.5582 0
5.48362 57.9486 0
2.09227 57.9489 0
492.864 54.7829 0
494.449 57.3709 0
497.835 53.9751 0
497.84 57.3659 0
495.384 35.9498 0
497.937 34.9626 0
494.541 31.5768 0
497.932 31.5718 0
330.242 39.1224 0
337.491 40.122 0
155.905 38.1561 0
149.783 39.2773 0
147.108 35.0097 0
144.174 39.2194 0
429.87 43.5133 0
335.333 42.6258 0
331.168 42.5027 0
331.924 46.6409 0
271.349 48.1095 0
268.944 45.4817 0
265.287 47.0538 0
168.036 45.1422 0
14.9441 48.2946 0
440.833 44.1745 0
433.56 42.3071 0
137.661 38.134 0
162.97 37.6383 0
261.621 37.6078 0
76.5831 44.1214 0
139.793 34.1536 0
144.225 34.1503 0
149.834 34.2082 0
153.47 34.2053 0
156.867 33.8857 0
160.504 33.8828 0
240.339 33.9968 0
259.841 33.8004 0
332.801 34.1155 0
336.436 34.1107 0
340.457 32.534 0
344.89 32.5281 0
345.575 35.2058 0
347.844 32.3997 0
351.481 32.3948 0
360.389 33.912 0
356.753 33.917 0
353.338 34.6489 0
350.387 37.3316 0
347.268 38.0229 0
344.313 38.1513 0
341.513 38.5453 0
256.204 33.8046 0
252.385 33.8435 0
248.748 33.8476 0
244.771 33.992 0
362.759 37.4848 0
355.659 38.8538 0
349.125 40.2771 0
343.206 41.3624 0
254.157 37.8102 0
246.36 37.9935 0
238.609 37.8283 0
59.9942 42.0541 0
324.622 45.3084 0
326.833 43.1375 0
328.466 34.7503 0
484.498 44.2202 0
370.797 45.3421 0
361.617 41.8426 0
357.635 42.0983 0
354.221 42.8303 0
350.77 43.1953 0
347.65 43.8866 0
344.371 44.098 0
341.57 44.492 0
338.247 44.2602 0
260.155 41.6416 0
255.964 41.7012 0
252.144 41.7402 0
248.245 41.8161 0
244.267 41.9604 0
240.11 42.0694 0
231.297 45.8875 0
161.562 41.663 0
158.006 41.7923 0
154.609 42.1119 0
151.356 42.3403 0
148.63 43.1418 0
145.482 43.12 0
142.599 42.2606 0
139.268 42.008 0
72.8003 44.5473 0
69.1165 44.7738 0
65.5652 44.8978 0
62.0933 45.0018 0
58.6478 45.1062 0
476.591 44.6335 0
480.233 44.4261 0
469.545 44.7841 0
473.04 44.654 0
462.779 45.1104 0
466.225 44.8405 0
459.909 45.3064 0
15.5796 44.6846 0
19.1052 44.2839 0
49.0659 45.622 0
51.9296 45.4237 0
55.3472 45.1722 0
225.11 44.3704 0
228.43 45.2999 0
323.697 41.9281 0
322.051 39.6735 0
324.018 37.2067 0
426.716 43.7104 0
483.048 47.4645 0
475.231 47.6908 0
468.36 47.7677 0
462.171 48.0201 0
456.322 46.4248 0
432.943 45.2764 0
425.6 46.7128 0
374.04 47.6558 0
367.357 46.9741 0
360.178 45.8192 0
352.745 46.4399 0
346.015 47.0163 0
339.412 46.9958 0
258.142 45.5717 0
250.052 45.7072 0
241.995 45.892 0
234.942 47.4677 0
229.178 48.3469 0
222.772 46.9781 0
160.266 45.6189 0
153.456 45.9765 0
147.055 46.183 0
140.577 45.9086 0
79.1096 46.8809 0
71.3747 47.6194 0
64.2189 47.9499 0
57.4463 48.1199 0
51.2819 48.3842 0
45.4881 46.7758 0
485.225 40.5922 0
478.042 41.3893 0
470.905 41.7268 0
463.964 42.1267 0
449.188 44.4561 0
456.931 43.515 0
427.334 40.7411 0
16.0617 41.6258 0
22.971 42.8281 0
30.3273 44.5126 0
38.4289 44.7816 0
46.1359 43.8153 0
53.1312 42.41 0
66.9909 41.8258 0
74.3249 41.2759 0
126.742 45.5111 0
133.706 45.5228 0
135.639 41.7819 0
227.228 41.911 0
234.193 44.4208 0
236.337 41.7598 0
263.8 41.4782 0
265.99 43.94 0
365.302 41.2056 0
367.6 43.9315 0
304.533 50.7783 0
175.743 42.8247 0
175.997 46.1608 0
273.516 41.8123 0
272.052 44.9957 0
125.037 49.1354 0
124.603 41.6663 0
374.984 41.263 0
374.283 44.6132 0
320.862 46.853 0
318.593 44.8404 0
319.84 41.8443 0
320.161 37.123 0
423.064 43.9406 0
488.04 43.6305 0
11.9006 45.6365 0
490.799 45.504 0
491.033 48.6642 0
488.702 50.7978 0
485.18 50.4599 0
480.915 50.6657 0
477.279 50.6519 0
473.728 50.6724 0
470.247 50.6764 0
466.928 50.7328 0
463.633 50.7039 0
460.763 50.8999 0
457.338 50.4293 0
454.359 48.638 0
450.987 48.1706 0
446.832 47.9933 0
443.254 48.1871 0
439.054 48.0827 0
435.358 48.3056 0
431.667 49.5118 0
428.071 49.7904 0
424.419 50.0206 0
420.873 50.0713 0
386.134 51.5338 0
382.715 51.4312 0
379.047 50.3659 0
375.556 50.2679 0
372.069 50.9968 0
368.54 50.8989 0
365.343 49.4883 0
361.954 49.2929 0
357.972 49.5486 0
354.46 49.6571 0
351.009 50.0221 0
347.596 50.1081 0
344.317 50.3195 0
340.907 50.3043 0
337.584 50.0724 0
334.032 50.0571 0
329.867 49.934 0
326.317 50.2619 0
322.556 51.8065 0
319.615 52.3623 0
276.175 50.5127 0
272.69 50.7018 0
269.582 51.1877 0
266.139 51.1103 0
263.185 49.5685 0
259.788 49.2868 0
255.597 49.3464 0
251.936 49.3777 0
248.037 49.4535 0
244.398 49.5265 0
240.241 49.6355 0
236.896 49.9099 0
234 51.3767 0
230.663 51.4629 0
227.797 50.8753 0
224.423 50.6138 0
220.883 49.8325 0
217.471 49.7825 0
214.227 50.5822 0
210.602 50.3928 0
205.965 50.8936 0
202.474 51.4917 0
180.847 50.7042 0
177.378 50.3341 0
173.629 48.9681 0
169.818 48.8593 0
165.605 49.2066 0
162.204 49.2067 0
158.647 49.336 0
155.26 49.4555 0
152.007 49.6839 0
148.671 49.7234 0
145.523 49.7016 0
142.168 49.6159 0
138.838 49.3633 0
135.427 49.1826 0
131.887 49.0494 0
128.462 49.014 0
118.765 49.0831 0
81.0425 49.9537 0
76.9914 50.4657 0
73.3598 50.6287 0
69.6759 50.8552 0
66.1938 50.9254 0
62.7219 51.0294 0
59.3205 51.0545 0
56.0197 51.1205 0
52.6927 51.123 0
49.829 51.3214 0
46.4259 50.8093 0
43.4958 49.0025 0
40.1533 48.4796 0
36.024 48.2921 0
32.4358 48.4331 0
28.4633 48.3517 0
24.7969 48.7274 0
20.931 50.1831 0
17.3556 50.7277 0
13.6765 51.6796 0
10.3432 52.1563 0
9.12303 43.8572 0
8.90729 40.7657 0
486.318 37.5567 0
489.694 37.2082 0
479.328 38.317 0
482.776 38.1465 0
472.172 38.6318 0
475.686 38.5244 0
465.201 38.8815 0
468.677 38.7619 0
458.24 39.4188 0
461.755 39.1514 0
443.189 40.4782 0
446.86 40.5504 0
451.015 40.7278 0
454.653 40.5372 0
435.588 39.9074 0
438.989 40.3738 0
428.892 37.9242 0
432.515 38.1443 0
425.738 38.1212 0
11.2054 38.6533 0
14.6117 38.9326 0
18.1371 38.5318 0
21.6611 38.8555 0
25.0448 40.4586 0
28.5161 40.7436 0
32.4885 40.825 0
36.1703 40.8957 0
40.2993 41.0832 0
43.9297 40.8747 0
47.5075 39.7208 0
50.9838 39.4396 0
54.4013 39.1882 0
57.888 39.0938 0
61.3334 38.9894 0
64.776 38.9254 0
68.3272 38.8014 0
71.9744 38.5997 0
128.028 41.5449 0
132.1 41.6488 0
136.164 33.9275 0
164.171 33.6847 0
169.443 41.1176 0
173.074 40.4909 0
225.747 38.4924 0
229.067 39.422 0
232.691 40.1796 0
236.565 33.6872 0
263.485 33.637 0
267.456 39.9062 0
271.367 39.1515 0
275.236 38.5959 0
364.074 33.275 0
368.742 39.5737 0
372.409 38.9479 0
183.844 51.2985 0
303.45 52.9857 0
302.117 50.5583 0
96.2476 53.3367 0
97.4757 57.0943 0
109.624 56.8781 0
111.946 52.2582 0
182.743 48.1211 0
381.194 47.9922 0
179.492 44.1906 0
182.094 45.6067 0
275.921 44.4401 0
278.557 46.9816 0
120.329 45.7007 0
121.309 43.0215 0
221.57 43.5892 0
378.227 43.5768 0
380.754 45.1302 0
75.7572 38.1738 0
176.569 38.5207 0
376.353 37.9114 0
316.65 51.031 0
317.969 47.5944 0
80.6341 43.6095 0
316.947 42.5858 0
315.758 38.3684 0
279.251 38.188 0
420.274 40.8412 0
421.663 38.1227 0
418.463 47.0057 0
419.158 43.8437 0
410.864 50.3627 0
414.036 50.2234 0
122.595 39.0553 0
221.086 40.1497 0
222.618 37.9633 0
491.835 39.1307 0
491.525 41.876 0
8.17984 50.2509 0
8.48739 47.4672 0
494.518 46.9096 0
492.422 52.2034 0
486.569 53.9991 0
479.411 53.6473 0
472.295 53.6375 0
465.521 53.6127 0
458.8 53.1131 0
452.003 52.1751 0
445.053 51.9015 0
437.779 52.3182 0
430.486 52.8196 0
423.345 53.1489 0
416.446 53.289 0
409.828 53.389 0
390.655 53.9557 0
383.987 53.9076 0
377.076 53.7069 0
370.055 53.511 0
363.137 53.2178 0
356.236 53.1309 0
349.311 53.3253 0
342.489 53.3961 0
335.527 53.3655 0
328.425 53.6781 0
321.934 54.5617 0
316.027 53.7861 0
309.464 52.8302 0
281.314 53.473 0
274.408 53.5908 0
267.48 53.7025 0
260.64 53.3432 0
253.583 53.0928 0
246.283 53.1971 0
239.299 53.5445 0
232.618 53.9051 0
225.908 53.7298 0
219.123 53.4182 0
212.085 53.1788 0
204.968 53.5874 0
185.22 54.0229 0
178.479 53.5115 0
171.198 53.0326 0
163.986 52.9238 0
157.198 53.0434 0
150.475 53.2024 0
143.784 53.1563 0
137.018 52.8899 0
130.182 52.6738 0
123.473 52.5179 0
117.152 51.5615 0
82.4769 53.4241 0
75.2927 53.7015 0
68.1789 53.9348 0
61.2954 54.0301 0
54.5669 54.0577 0
47.8367 53.5481 0
41.091 52.5131 0
34.1601 52.1312 0
26.9054 52.6479 0
19.6636 53.5682 0
12.7548 54.5895 0
7.25801 53.1608 0
5.49416 42.5963 0
7.57659 37.3924 0
492.762 36.3365 0
487.245 34.7625 0
480.42 35.2816 0
473.458 35.5595 0
466.468 35.7866 0
459.477 36.1736 0
445.016 36.7498 0
452.324 36.6315 0
437.944 36.2111 0
430.919 35.5245 0
423.22 35.3058 0
13.2809 35.5593 0
20.211 36.1623 0
27.2061 36.771 0
34.359 37.1267 0
41.671 36.9888 0
48.7776 36.4991 0
55.7406 36.1235 0
62.6698 35.9651 0
69.7595 35.6994 0
77.3751 34.9022 0
122.677 36.2179 0
129.961 37.804 0
132.529 33.93 0
167.806 33.6817 0
170.269 36.8136 0
177.796 35.4765 0
224.457 35.4744 0
231.21 36.7611 0
232.93 33.6911 0
267.12 33.6328 0
269.176 36.6898 0
277.102 35.5273 0
367.709 33.27 0
370.111 36.2221 0
377.901 35.1557 0
187.116 51.4397 0
191.749 54.2207 0
198.242 54.2314 0
199.756 51.7243 0
287.861 53.798 0
293.797 53.9789 0
298.82 53.3359 0
299.802 50.8457 0
100.438 51.9636 0
101.858 54.3241 0
107.156 54.1117 0
107.681 51.9151 0
185.091 46.201 0
187.039 46.8623 0
283.696 49.9419 0
286.718 50.9146 0
384.422 46.1955 0
386.503 47.0098 0
181.84 42.2706 0
280.375 40.8511 0
280.021 43.7981 0
115.727 48.2473 0
89.6712 52.8838 0
215.988 46.9966 0
116.139 43.8064 0
118.321 43.0897 0
84.595 49.8393 0
87.9105 50.4224 0
216.785 44.552 0
218.748 42.7574 0
381.454 41.78 0
79.7256 37.5784 0
81.5287 40.1545 0
180.465 37.8103 0
182.207 39.7909 0
380.475 37.4709 0
382.071 39.3573 0
314.381 49.0183 0
84.0551 42.914 0
314.085 43.6257 0
407.6 50.3733 0
284.061 33.9111 0
282.241 37.7825 0
417.757 38.0258 0
416.063 34.0172 0
415.673 43.9063 0
411.807 47.2076 0
119.383 37.573 0
217.205 36.7174 0
219.795 37.1316 0
494.593 41.0042 0
5.40225 48.4716 0
497.15 42.3318 0
497.153 44.8447 0
497.388 48.0049 0
497.393 51.3956 0
491.676 56.925 0
488.286 56.93 0
484.764 56.592 0
481.34 56.5971 0
477.704 56.5832 0
474.142 56.5884 0
470.662 56.5925 0
467.237 56.5975 0
463.943 56.5686 0
460.518 56.5736 0
457.092 56.103 0
453.668 56.108 0
450.296 55.6406 0
446.871 55.6456 0
443.293 55.8394 0
439.869 55.8444 0
436.172 56.0672 0
432.747 56.0722 0
429.151 56.3507 0
425.727 56.3557 0
422.181 56.4064 0
418.757 56.4114 0
415.403 56.5007 0
411.978 56.5057 0
408.714 56.5163 0
405.289 56.5212 0
402.127 56.4825 0
398.702 56.4874 0
395.534 56.7769 0
392.109 56.7818 0
388.861 56.8363 0
385.436 56.8411 0
382.017 56.7385 0
378.592 56.7433 0
375.101 56.6452 0
371.676 56.65 0
368.146 56.5521 0
364.722 56.5568 0
361.333 56.3614 0
357.908 56.3661 0
354.396 56.4746 0
350.971 56.4792 0
347.558 56.5652 0
344.133 56.5697 0
340.724 56.5545 0
337.299 56.5591 0
333.747 56.5437 0
330.322 56.5482 0
326.772 56.8761 0
323.347 56.8806 0
320.406 57.4363 0
316.981 57.4408 0
314.015 56.1095 0
310.591 56.1138 0
306.993 56.4892 0
303.568 56.4936 0
298.938 56.8438 0
295.513 56.8481 0
292.704 56.921 0
289.279 56.9252 0
286.152 56.6715 0
282.728 56.6756 0
279.307 56.6044 0
275.882 56.6085 0
272.397 56.7975 0
268.972 56.8016 0
265.529 56.7241 0
262.104 56.7281 0
258.707 56.4463 0
255.282 56.4502 0
251.621 56.4815 0
248.196 56.4853 0
244.558 56.5583 0
241.133 56.562 0
237.788 56.8365 0
234.363 56.8401 0
231.027 56.9264 0
227.602 56.93 0
224.228 56.6684 0
220.803 56.6719 0
217.391 56.6219 0
213.966 56.6254 0
210.34 56.436 0
206.915 56.4394 0
203.424 57.0375 0
199.999 57.0408 0
196.764 57.0867 0
193.339 57.0899 0
190.082 57.0334 0
186.656 57.0365 0
183.385 56.8953 0
179.96 56.8983 0
176.491 56.5283 0
173.066 56.5312 0
169.254 56.4224 0
165.829 56.4252 0
162.428 56.4253 0
159.003 56.428 0
155.616 56.5476 0
152.191 56.5502 0
148.855 56.5898 0
145.43 56.5923 0
142.075 56.5066 0
138.65 56.5091 0
135.239 56.3284 0
131.814 56.3308 0
128.389 56.2954 0
124.964 56.2977 0
121.68 56.1771 0
118.255 56.1793 0
115.217 55.3435 0
107.002 57.1991 0
103.577 57.201 0
94.5409 56.2156 0
91.1158 56.2174 0
87.474 56.6432 0
84.0489 56.6449 0
80.4963 56.7593 0
77.0712 56.7608 0
73.4394 56.9238 0
70.0143 56.9252 0
66.5322 56.9954 0
63.107 56.9967 0
59.7056 57.0217 0
56.2804 57.0229 0
52.9533 57.0254 0
49.5282 57.0264 0
46.125 56.5143 0
42.6998 56.5152 0
39.3572 55.9923 0
35.932 55.993 0
32.3436 56.134 0
28.9185 56.1347 0
25.252 56.5104 0
21.8269 56.5109 0
18.2513 57.0555 0
14.8268 57.0558 0
11.4935 57.5326 0
8.10214 57.5328 0
2.85494 47.1385 0
2.8549 44.6255 0
2.63927 41.534 0
2.63922 38.1432 0
488.529 31.9685 0
491.92 31.9635 0
481.694 32.3221 0
485.152 32.317 0
474.787 32.4977 0
478.245 32.4926 0
467.815 32.6101 0
471.273 32.6051 0
460.878 32.7349 0
464.34 32.7298 0
453.901 33.0073 0
457.363 33.0022 0
446.802 33.2029 0
450.264 33.1979 0
439.67 33.1357 0
443.132 33.1306 0
432.807 32.6742 0
436.268 32.6692 0
425.746 32.459 0
429.184 32.4541 0
418.714 32.4648 0
421.671 32.4605 0
8.32808 32.64 0
11.7189 32.6398 0
15.1251 32.9191 0
18.5838 32.9187 0
22.1076 33.2424 0
25.5656 33.2419 0
29.0368 33.5269 0
32.4948 33.5262 0
36.1765 33.5969 0
39.6381 33.5961 0
43.2683 33.3876 0
46.7299 33.3867 0
50.2061 33.1055 0
53.6677 33.1045 0
57.1543 33.0101 0
60.6159 33.0089 0
64.0584 32.9449 0
67.5199 32.9436 0
71.1671 32.7419 0
74.6047 32.7405 0
78.573 32.1451 0
81.5304 32.1438 0
121.669 32.3463 0
124.881 33.8285 0
128.457 33.8262 0
171.437 33.055 0
175.013 33.052 0
178.909 32.3415 0
181.84 32.339 0
222.6 32.4082 0
225.73 32.9373 0
229.306 32.9335 0
271.031 32.8782 0
274.607 32.8739 0
278.622 32.4661 0
281.552 32.4625 0
323.001 32.2045 0
326.576 32.1998 0
371.376 32.6442 0
374.952 32.6393 0
379.074 32.1987 0
382.005 32.1947 0
190.189 51.2905 0
193.446 51.347 0
196.52 51.7701 0
289.844 51.1684 0
292.44 51.519 0
295.249 51.4462 0
297.588 51.4158 0
105.059 52.2361 0
186.39 44.348 0
190.112 46.7131 0
194.96 48.8399 0
200.752 49.0305 0
285.679 47.3123 0
291.297 48.6356 0
296.231 48.956 0
300.885 48.6383 0
403.402 53.3609 0
404.551 50.2969 0
397.071 53.6118 0
386.062 44.1478 0
184.809 41.207 0
186.471 42.5276 0
283.011 43.3926 0
285.207 44.5341 0
103.639 49.8756 0
91.5522 49.9965 0
103.027 47.7302 0
201.911 46.9939 0
213.542 45.3517 0
301.819 46.6479 0
117.119 41.1272 0
116.944 38.9791 0
86.1688 44.4145 0
86.476 46.9521 0
216.301 41.1126 0
215.755 38.3692 0
188.419 43.1889 0
190.146 44.2401 0
191.92 45.9438 0
193.928 46.654 0
197.003 47.0771 0
199.193 47.2264 0
288.229 45.5068 0
290.467 46.2548 0
293.063 46.6054 0
295.134 46.9645 0
297.473 46.9342 0
299.504 46.9352 0
401.389 50.2582 0
389.695 46.5908 0
392.575 51.0604 0
395.475 51.2211 0
394.146 48.3802 0
398.643 50.9316 0
384.598 40.9107 0
386.253 42.2392 0
388.334 43.0535 0
389.981 44.0751 0
84.5493 34.2884 0
83.1465 36.8829 0
184.712 34.4189 0
183.434 36.7467 0
186.839 40.0479 0
285.562 41.5871 0
384.928 34.2736 0
383.619 36.6016 0
114.751 35.3525 0
214.696 35.7686 0
314.787 35.5805 0
104.972 47.894 0
107.315 49.0587 0
111.58 49.4019 0
113.317 47.9242 0
110.783 46.6003 0
113.728 43.4833 0
91.8387 47.3422 0
93.5994 49.8036 0
95.2385 50.6025 0
95.525 47.9482 0
99.429 49.2295 0
100.753 47.6022 0
203.948 46.6197 0
205.737 47.8671 0
210.374 47.3662 0
211.723 46.0471 0
209.352 45.6171 0
212.52 43.6026 0
303.865 46.1607 0
306.057 47.4078 0
310.987 49.4597 0
310.692 44.0671 0
113.158 41.3481 0
114.762 39.6958 0
102.086 45.6206 0
87.0633 40.9594 0
89.4842 44.9975 0
91.3001 45.4999 0
212.446 41.8409 0
213.793 40.1638 0
202.388 44.8157 0
190.228 42.4197 0
193.963 44.181 0
198.161 45.0405 0
312.896 39.4084 0
302.484 44.4576 0
289.996 43.4766 0
294.305 44.5837 0
298.407 44.9438 0
405.587 47.2705 0
400.714 45.9242 0
391.533 45.7037 0
393.332 46.3116 0
396.231 46.4723 0
397.968 46.5976 0
386.871 39.8164 0
390.172 42.1664 0
113.167 36.0921 0
86.3524 36.8644 0
87.3976 38.8269 0
211.983 36.2197 0
189.031 39.5352 0
190.314 40.6161 0
186.454 36.3995 0
187.369 38.2146 0
311.94 36.3868 0
287.827 40.0449 0
289.759 41.3483 0
285.631 38.9034 0
413.967 39.1752 0
412.317 44.2286 0
406.784 44.7874 0
409.146 44.3678 0
386.524 36.16 0
387.432 37.9468 0
113.331 33.897 0
117.19 33.9465 0
118.738 32.3482 0
218.736 34.5311 0
219.669 32.4112 0
319.19 34.3351 0
320.07 32.2083 0
106.703 46.9133 0
108.675 45.7724 0
110.411 44.2947 0
111.95 42.9874 0
93.3473 45.307 0
95.0607 45.9354 0
96.6997 46.7343 0
98.4876 47.1199 0
206.215 45.6889 0
207.868 44.9158 0
209.216 43.5967 0
210.627 42.5363 0
306.721 45.2174 0
308.491 44.1128 0
310.269 41.7154 0
311.31 40.2116 0
112.984 39.2 0
112.4 37.5138 0
110.796 39.1661 0
103.024 44.0435 0
100.75 43.9155 0
89.5112 40.3273 0
90.8736 41.3285 0
90.9928 42.9623 0
92.6894 41.8309 0
211.9 39.0975 0
211.467 37.4132 0
210.12 39.0903 0
203.14 43.2266 0
199.337 43.6097 0
201.103 43.6008 0
192.041 41.6673 0
193.526 42.3985 0
195.534 43.1086 0
197.147 43.4603 0
311.737 37.9504 0
309.489 37.8703 0
303.192 42.8924 0
299.443 43.4757 0
301.147 43.3796 0
291.997 42.0964 0
293.665 42.8117 0
295.736 43.1707 0
297.411 43.4746 0
401.887 44.673 0
403.735 44.711 0
400.063 43.403 0
393.617 43.7959 0
397.153 44.529 0
398.414 43.2572 0
395.159 42.7326 0
396.677 43.1319 0
389.088 39.2753 0
390.331 40.3676 0
391.977 41.3892 0
393.36 42.1247 0
110.979 36.0583 0
88.8003 36.2324 0
210.204 36.2125 0
190.845 38.7828 0
188.647 35.8868 0
309.692 36.3067 0
289.828 38.6647 0
287.451 35.032 0
412.273 35.1666 0
410.611 39.4974 0
407.294 41.8083 0
388.741 35.6189 0
497.456 37.2718 0
497.459 39.5865 0
2.54733 52.2369 0
2.5473 49.9222 0
413.346 31.178 0
415.631 31.1747 0
87.0208 32.1243 0
114.249 31.5604 0
116.463 31.559 0
187.075 31.9898 0
214.864 31.9992 0
217.079 31.997 0
284.497 31.2542 0
286.712 31.2516 0
314.916 31.89 0
317.131 31.8872 0
387.125 31.75 0
104.672 43.6248 0
106.331 44.6077 0
109.841 42.1595 0
109.605 40.3045 0
94.1139 42.4554 0
94.5221 44.0932 0
98.0233 45.1071 0
99.1121 43.8515 0
204.697 42.7919 0
206.078 43.6684 0
209.142 41.835 0
209.08 40.1674 0
304.758 42.3497 0
306.298 42.8657 0
309.109 40.2574 0
308.778 38.8224 0
106.644 42.4839 0
108.067 41.6117 0
95.8272 43.0838 0
97.3243 43.4659 0
206.35 42.0189 0
207.669 41.2278 0
306.527 41.2451 0
307.737 40.3262 0
109.022 38.6183 0
106.408 40.6288 0
103.337 41.9197 0
100.051 42.2743 0
96.9161 41.8282 0
91.2078 39.1959 0
93.9946 40.8215 0
208.647 38.4831 0
206.288 40.3513 0
203.412 41.5771 0
200.089 42.0206 0
193.613 40.5949 0
196.71 41.6778 0
308.117 37.9391 0
306.196 39.8101 0
303.421 41.2717 0
300.151 41.9104 0
293.428 40.6834 0
296.772 41.7026 0
403.084 42.1899 0
399.587 42.006 0
396.42 41.4607 0
390.893 38.498 0
393.518 40.3258 0
110.231 34.756 0
110.71 33.57 0
108.699 37.2031 0
109.464 36.1776 0
106.508 39.1393 0
107.508 38.3415 0
103.915 40.5294 0
105.085 40.0115 0
100.847 41.1548 0
102.267 40.9481 0
97.9402 40.9279 0
99.2091 41.0908 0
95.257 40.0661 0
96.4431 40.5457 0
92.8071 38.6768 0
93.8326 39.4416 0
90.647 36.6756 0
91.4448 37.6757 0
89.0841 33.5434 0
89.6019 34.7132 0
209.718 34.9072 0
210.198 33.721 0
208.437 37.1265 0
209.202 36.1007 0
206.397 39.0019 0
207.397 38.2037 0
203.909 40.3113 0
205.079 39.7929 0
200.932 40.9534 0
202.352 40.7461 0
197.746 40.7577 0
199.166 40.9622 0
194.963 39.8899 0
196.133 40.406 0
192.476 38.3624 0
193.478 39.1587 0
190.427 36.2572 0
191.193 37.2815 0
189.031 33.2569 0
189.512 34.4422 0
309.638 35.1539 0
310.116 33.9675 0
308.009 36.8601 0
308.773 35.8341 0
306.298 38.6108 0
307.298 37.8123 0
303.919 40.0485 0
305.089 39.5297 0
300.934 40.7989 0
302.354 40.5912 0
297.809 40.6908 0
299.229 40.8949 0
294.963 39.8711 0
296.134 40.3869 0
292.293 38.3599 0
293.295 39.1559 0
289.595 36.0323 0
290.362 37.0564 0
288.668 32.518 0
289.15 33.7031 0
410.77 33.7718 0
411.286 32.601 0
409.267 37.2129 0
410.063 36.2113 0
407.289 39.8712 0
408.313 39.1043 0
403.741 40.7727 0
404.926 40.2908 0
400.625 40.9002 0
401.893 40.7347 0
397.555 40.5505 0
398.976 40.7543 0
394.866 39.6355 0
396.037 40.1511 0
392.482 38.1042 0
393.483 38.9 0
390.472 35.9879 0
391.239 37.0119 0
389.081 33.0161 0
389.563 34.2012 0
387.833 33.8321 0
389.65 37.4057 0
392.136 39.5903 0
394.901 41.0614 0
397.938 41.8601 0
401.236 42.1518 0
404.932 42.2279 0
409.656 41.3888 0
411.566 37.6061 0
412.98 32.7271 0
287.006 32.7028 0
287.896 37.3612 0
291.76 39.9681 0
295.097 41.3987 0
298.447 42.0065 0
301.856 41.8144 0
304.987 40.7291 0
307.406 38.8912 0
308.827 36.987 0
310.557 35.6265 0
187.732 34.0718 0
189.562 37.7018 0
192.128 39.8637 0
195.098 41.3261 0
198.323 42.0295 0
201.855 42.0118 0
204.969 41.1423 0
207.606 39.5603 0
209.687 37.4059 0
210.72 35.0191 0
87.7552 34.2699 0
89.8455 38.1948 0
92.5701 40.1971 0
95.419 41.446 0
98.4131 42.2103 0
101.689 42.3383 0
104.984 41.501 0
107.832 39.7566 0
110.212 37.4799 0
111.747 34.6366 0
308.068 41.7611 0
207.732 42.8954 0
96.2354 44.7215 0
108.303 43.4668 0
310.151 38.7536 0
304.529 43.9704 0
210.553 40.7746 0
204.425 44.4415 0
99.8111 45.4927 0
92.8087 43.4647 0
111.379 40.8523 0
104.36 45.7486 0
316.251 34.014 0
216.145 34.1169 0
114.915 33.1574 0
5.09464 51.2553 0
494.903 38.259 0
391.818 43.188 0
388.526 41.1448 0
395.416 44.4038 0
398.889 44.6542 0
402.538 47.1942 0
296.376 44.9427 0
292.234 44.2246 0
300.439 44.9449 0
313.322 37.1471 0
195.971 44.8912 0
191.955 43.4709 0
200.351 45.1899 0
213.247 37.4204 0
89.177 42.4599 0
114.588 37.5477 0
312.469 41.6697 0
308.914 46.4645 0
210.701 44.298 0
208.004 46.9362 0
97.164 48.7471 0
93.886 47.1492 0
112.52 45.1226 0
109.047 48.078 0
322.128 34.6562 0
221.327 34.9453 0
119.465 34.7356 0
385.215 38.488 0
408.636 47.3469 0
414.978 47.0684 0
416.368 40.7443 0
283.366 40.4456 0
287.758 42.7286 0
185.177 38.7273 0
188.501 41.3685 0
84.9497 39.4589 0
397.046 48.5409 0
391.247 48.2194 0
214.339 42.9072 0
89.7915 47.5351 0
114.936 41.8439 0
313.061 52.4548 0
303.2 48.351 0
212.745 47.7962 0
203.47 48.7979 0
101.694 49.7118 0
93.3129 52.4579 0
114.114 50.7257 0
105.583 50.0394 0
382.023 34.7152 0
181.692 34.766 0
81.3434 34.3068 0
388.143 44.9621 0
383.981 43.3335 0
400.239 53.3222 0
393.903 53.9013 0
298.57 48.9256 0
293.892 48.9863 0
288.701 48.285 0
198.034 49.263 0
191.886 48.4168 0
188.338 45.0093 0
218.264 39.3179 0
83.1606 46.369 0
119.301 40.4105 0
282.657 46.3396 0
184.442 43.6866 0
406.564 53.3997 0
104.535 54.4327 0
296.606 53.906 0
290.987 54.0518 0
195.006 54.2772 0
188.492 54.1641 0
373.779 35.5963 0
281.117 35.1194 0
273.087 35.9352 0
227.586 36.0035 0
173.9 36.1869 0
125.889 37.7001 0
73.4067 35.4976 0
66.1124 35.901 0
59.2273 36.029 0
52.2539 36.2179 0
45.3013 36.7803 0
38.0407 37.1973 0
30.6773 37.0559 0
23.7349 36.486 0
16.6871 35.8386 0
9.87465 35.28 0
419.146 35.3072 0
427.295 35.3043 0
434.542 35.7446 0
441.345 36.6776 0
448.687 36.8221 0
455.962 36.4409 0
462.992 35.9062 0
469.944 35.6669 0
476.972 35.4521 0
483.868 35.111 0
490.622 34.414 0
5.27849 39.5048 0
5.70984 45.6879 0
9.42145 55.0662 0
16.0881 54.1127 0
23.239 53.0235 0
30.5718 52.2721 0
37.7484 51.9901 0
44.4336 53.036 0
51.2399 54.0602 0
57.894 54.0551 0
64.6968 54.005 0
71.661 53.8645 0
78.9244 53.5385 0
86.0294 53.3096 0
120.19 52.3973 0
126.757 52.6384 0
133.607 52.7092 0
140.429 53.0705 0
147.139 53.242 0
153.81 53.1629 0
160.585 52.9239 0
167.387 52.9237 0
175.01 53.1414 0
181.949 53.8816 0
201.477 54.1855 0
208.459 52.9893 0
215.71 53.3682 0
222.535 53.4682 0
229.282 53.9913 0
235.954 53.8189 0
242.645 53.27 0
249.922 53.1241 0
257.243 53.0614 0
264.037 53.625 0
270.923 53.7799 0
277.893 53.4017 0
284.734 53.5443 0
305.866 53.2056 0
318.993 55.1174 0
324.875 54.0059 0
331.975 53.3501 0
339.079 53.3808 0
345.898 53.4113 0
352.723 53.2393 0
359.748 53.0224 0
366.526 53.4131 0
373.585 53.6089 0
380.568 53.8049 0
387.406 54.0102 0
413.093 53.3784 0
419.8 53.1996 0
426.89 53.0982 0
434.083 52.541 0
441.475 52.0953 0
448.631 51.7077 0
455.375 52.6425 0
462.226 53.5838 0
468.815 53.6416 0
475.776 53.6334 0
483.047 53.6611 0
490.091 54.337 0
494.753 50.0698 0
494.284 43.7495 0
315.7 45.5818 0
378.927 40.2266 0
179.237 40.8545 0
78.1078 40.8499 0
219.232 46.1969 0
117.341 45.7689 0
277.385 41.2566 0
384.862 49.0575 0
185.74 48.7153 0
109.778 53.7908 0
99.1823 54.2154 0
301.033 52.7657 0
366.444 36.8478 0
265.266 37.4444 0
234.835 37.5186 0
166.638 37.4403 0
134.032 37.9079 0
11.265 49.2464 0
488.767 40.0025 0
223.908 40.9814 0
421.947 46.943 0
424.181 40.9381 0
318.194 39.5897 0
320.238 49.6071 0
377.526 46.9269 0
123.317 45.6324 0
274.458 47.6236 0
179.746 47.5267 0
371.04 42.2995 0
269.647 42.3679 0
230.548 42.8405 0
172.249 44.7948 0
130.167 45.3896 0
70.5421 41.7018 0
63.4396 41.9497 0
56.5487 42.1585 0
49.7137 42.6614 0
42.5581 44.9691 0
34.2998 44.594 0
26.3548 44.4312 0
19.5872 41.2251 0
12.5361 42.0265 0
430.488 40.544 0
436.633 44.0701 0
453.344 44.6334 0
445.032 44.2788 0
460.518 42.3966 0
467.41 41.8568 0
474.4 41.5967 0
481.684 41.1819 0
18.6231 47.3426 0
48.4181 48.5826 0
54.1456 48.1859 0
60.747 48.0538 0
67.6908 47.8459 0
75.0585 47.3928 0
137.246 45.6559 0
143.907 46.1612 0
150.203 46.2048 0
156.709 45.7481 0
163.823 45.4895 0
226.311 47.7593 0
232.045 48.9344 0
237.839 46.001 0
246.152 45.783 0
253.951 45.6313 0
262.333 45.512 0
268.241 48.5955 0
327.759 46.5178 0
336.089 46.764 0
342.735 47.2277 0
349.295 46.8049 0
356.196 46.0749 0
364.16 45.5635 0
370.554 48.3847 0
429.252 46.4826 0
459.301 48.2161 0
465.041 47.8241 0
471.68 47.7113 0
478.782 47.6703 0
487.313 47.2586 0
321.486 44.099 0
325.907 39.7572 0
141.29 38.36 0
147.057 40.0788 0
152.508 38.4757 0
159.302 37.8364 0
242.382 38.1379 0
250.338 37.8491 0
257.976 37.7712 0
340.405 41.7564 0
346.006 40.9684 0
352.245 39.5857 0
359.074 38.1218 0
342.62 35.3342 0
348.529 35.0774 0
334.577 38.4876 0
495.865 33.6406 0
495.636 55.2288 0
4.18447 55.8978 0
4.40152 34.3101 0
112.097 32.1001 0
212.252 33.1444 0
312.269 33.1643 0
120.721 12.3246 0
115.761 12.9535 0
311.275 27.7901 0
313.307 32.3583 0
338.597 40.7281 0
333.705 41.7625 0
109.503 51.9092 0
114.502 52.0046 0
272.246 13.9393 0
276.745 16.1191 0
459.668 31.2337 0
455.641 34.1973 0
449.053 49.2334 0
444.627 46.9082 0
249.991 58.04 0
253.259 54.2552 0
421.492 6.10445 0
416.659 4.82224 0
21.7764 59.3122 0
23.8122 54.7455 0
260.055 35.2829 0
264.811 36.8245 0
254.564 43.3539 0
254.685 48.3524 0
470.854 56.7361 0
472.781 52.1221 0
317.427 43.4107 0
322.403 43.9004 0
452.298 10.2696 0
453.47 5.40899 0
225.926 6.46175 0
221.228 8.17247 0
200.462 9.31442 0
196.301 12.0867 0
335.816 39.717 0
331.122 41.4396 0
308.54 17.169 0
304.509 14.2104 0
246.932 24.5816 0
244.67 29.0409 0
471.993 25.2946 0
472.195 20.2987 0
394.147 51.5131 0
394.732 46.5474 0
300.537 50.2649 0
295.998 52.3628 0
80.5403 16.754 0
85.5281 17.0989 0
59.1707 39.3924 0
63.5859 37.0455 0
273.313 2.29985 0
276.553 6.10742 0
159.585 51.0618 0
164.58 50.8205 0
173.044 51.648 0
177.734 49.9151 0
22.4151 54.8657 0
25.6315 51.0373 0
335.003 36.2699 0
334.939 41.2695 0
229.635 30.1631 0
226.913 25.9694 0
21.5593 38.0796 0
19.0611 33.7484 0
28.198 45.3451 0
25.4293 49.5087 0
257.066 3.11082 0
252.118 3.8253 0
4.06257 2.87405 0
9.05356 3.16067 0
173.931 29.3484 0
168.987 28.5998 0
114.158 41.8294 0
117.941 45.0994 0
210.29 6.54876 0
209.475 11.482 0
272.522 15.927 0
268.458 18.8399 0
42.9881 9.27146 0
47.0211 6.31645 0
174.238 24.8532 0
177.904 28.2527 0
329.682 10.6778 0
333.801 7.84285 0
76.2911 10.7262 0
73.7513 6.4193 0
136.502 24.9988 0
136.21 29.9903 0
104.282 15.2144 0
106.616 10.7923 0
461.883 16.3575 0
458.746 12.4642 0
354.31 45.4998 0
357.716 41.8398 0
343.637 6.87536 0
339.106 4.76063 0
220.186 19.4236 0
217.549 15.1754 0
201.266 52.9878 0
206.008 51.4001 0
116.118 41.5652 0
115.181 36.6538 0
213.452 38.1573 0
215.316 42.7969 0
9.92511 42.3534 0
4.94929 42.8482 0
376.794 48.1309 0
375.561 43.2852 0
398.107 49.6576 0
393.128 49.1955 0
440.47 40.3941 0
435.807 38.5879 0
445.879 24.8819 0
450.6 26.5277 0
48.0076 21.429 0
47.183 16.4974 0
142.584 22.2054 0
142.779 27.2017 0
49.2438 45.5753 0
52.1962 49.6107 0
347.804 30.5167 0
350.433 34.7692 0
466.062 41.6935 0
468.446 37.2986 0
22.5205 2.22434 0
26.3335 5.45816 0
52.6571 18.8064 0
52.0611 23.7708 0
430.945 1.54651 0
433.489 5.85068 0
325.401 16.742 0
320.459 15.9815 0
393.741 41.251 0
389.1 39.3903 0
481.2 46.7647 0
476.456 45.1851 0
222.357 43.5372 0
217.395 44.1588 0
325.403 26.8373 0
329.723 29.3553 0
74.3668 9.21225 0
69.3777 9.53452 0
169.55 9.60688 0
168.56 4.70576 0
386.72 6.37533 0
384.116 10.644 0
435.751 46.1722 0
440.617 47.3241 0
141.125 17.361 0
136.576 19.4355 0
63.5282 51.5486 0
58.9547 49.527 0
115.149 9.95341 0
119.52 7.52668 0
17.8086 31.0294 0
22.6563 32.2541 0
63.8054 41.0385 0
68.2912 43.2474 0
478.16 2.76701 0
476.812 7.58195 0
354.922 13.4924 0
355.294 18.4786 0
441.518 28.9922 0
443.502 33.5815 0
340.426 17.0892 0
342.536 12.556 0
154.565 8.1243 0
157.042 12.4677 0
88.5646 22.7978 0
93.3227 21.2617 0
186.447 19.8489 0
182.821 16.4055 0
225.921 56.1456 0
226.182 51.1526 0
221.082 7.82084 0
224.929 11.0137 0
415.451 19.0899 0
412.202 22.8905 0
37.673 38.7743 0
42.5765 39.7535 0
484.801 47.8772 0
480.371 50.1958 0
317.078 44.1821 0
312.319 45.7163 0
436.53 35.8148 0
437.515 30.9128 0
303.25 51.1053 0
308.138 50.051 0
226.727 11.8643 0
227.654 6.95076 0
436.062 37.0119 0
431.898 34.2451 0
7.21303 18.1267 0
2.25133 18.742 0
379.262 23.699 0
381.773 28.0227 0
105.828 48.1047 0
101.814 45.1231 0
69.9441 47.5191 0
65.9316 50.5028 0
59.8676 51.7648 0
55.6387 49.0967 0
150.913 7.96954 0
152.916 3.38834 0
242.362 11.095 0
237.395 10.5251 0
428.845 33.1659 0
425.389 36.7791 0
147.064 14.7005 0
146.908 19.6981 0
116.94 15.9397 0
114.618 11.5117 0
490.64 27.3392 0
487.55 31.2698 0
452.239 29.8804 0
454.406 25.3743 0
179.534 5.87606 0
174.536 5.98492 0
401.894 9.77425 0
401.887 4.77422 0
388.229 29.7251 0
383.272 29.0727 0
267.29 29.8629 0
271.435 27.067 0
277.129 19.3119 0
274.55 15.0283 0
131.349 15.4135 0
136.261 16.3445 0
429.481 43.6635 0
424.563 44.566 0
158.032 11.7951 0
161.478 8.1718 0
146.693 53.7283 0
143.367 49.9944 0
66.2363 26.211 0
66.2395 21.211 0
150.803 4.11018 0
147.826 0.0930028 0
322.401 25.457 0
317.448 26.1372 0
384.796 39.0157 0
379.955 37.767 0
159.019 27.93 0
154.053 28.5136 0
28.4614 31.7964 0
30.0901 36.5237 0
453.402 51.6546 0
453.187 46.6592 0
345.141 11.9249 0
347.395 16.3882 0
345.337 21.7182 0
345.591 16.7246 0
165.109 21.5802 0
162.154 25.6139 0
381.645 10.9676 0
382.283 15.9268 0
65.9805 44.9952 0
70.149 47.7567 0
52.5894 10.2499 0
47.6089 9.81451 0
65.6209 38.1514 0
68.1037 42.4914 0
457.275 38.1881 0
462.214 38.9723 0
387.376 21.8486 0
392.144 23.354 0
339.81 15.9285 0
344.62 17.2958 0
483.67 53.0581 0
480.468 49.2175 0
246.083 47.9256 0
245.242 52.8543 0
387.871 43.7497 0
392.87 43.8714 0
315.676 18.0738 0
312.605 22.0196 0
475.74 4.57687 0
476.9 -0.286593 0
449.032 30.7485 0
445.481 34.269 0
2.14316 25.9329 0
6.4362 23.37 0
130.455 28.1025 0
132.177 32.7968 0
8.02722 58.1524 0
3.45515 56.127 0
191.173 49.2453 0
192.132 54.1524 0
317.029 22.6766 0
312.448 20.6739 0
173.255 3.65131 0
169.856 7.31828 0
472.898 44.148 0
475.923 48.1291 0
216.748 47.1279 0
214.195 42.829 0
113.2 11.6348 0
112.228 6.73003 0
124.506 24.2814 0
124.261 19.2873 0
196.315 8.28897 0
200.261 11.3594 0
111.15 22.3349 0
114.844 18.9655 0
293.923 40.0004 0
294.42 44.9755 0
162.738 37.6805 0
166.849 40.5264 0
158.959 32.9756 0
162.463 36.5426 0
122.99 30.5215 0
120.701 34.9668 0
207.266 6.88238 0
205.045 2.40282 0
182.017 7.7944 0
184.793 11.9529 0
429.144 39.9252 0
429.321 44.922 0
491.276 22.2373 0
492.146 17.3135 0
324.861 33.1165 0
323.555 37.9431 0
41.3972 34.3238 0
43.7172 29.8945 0
346.714 30.7008 0
351.456 29.1155 0
462.944 46.9376 0
463.271 51.9269 0
357.439 39.349 0
352.704 40.9541 0
489.406 49.6623 0
485.05 47.2073 0
415.027 40.7966 0
417.069 36.2327 0
307.482 3.98969 0
302.877 2.04183 0
178.639 13.3411 0
175.083 16.8558 0
86.4397 20.0807 0
87.8546 24.8764 0
294.917 18.9468 0
289.971 19.6802 0
470.933 3.92491 0
475.26 1.42048 0
181.447 10.3833 0
181.645 15.3795 0
354.416 27.8651 0
356.086 32.5777 0
38.7016 3.87953 0
35.2578 7.50423 0
239.435 45.3679 0
243.78 42.8929 0
3.15515 44.8869 0
4.93794 49.5583 0
158.083 17.9272 0
158.272 22.9237 0
394.322 9.35067 0
398.926 7.40064 0
294.157 12.9419 0
293.576 17.9081 0
323.555 53.44 0
320.673 49.3544 0
24.0904 11.1358 0
22.6911 15.9362 0
27.9281 40.2032 0
27.9901 35.2036 0
114.161 56.9682 0
109.403 58.5062 0
474.997 39.5243 0
479.737 41.1143 0
273.906 15.8412 0
271.719 11.3447 0
331.711 46.5539 0
335.275 50.0602 0
188.675 19.9028 0
189.023 14.9148 0
307.447 39.6598 0
310.181 35.4735 0
466.457 31.0272 0
462.822 27.5944 0
273.946 15.9743 0
269.616 13.473 0
454.489 15.8589 0
457.246 20.03 0
99.8832 49.2792 0
96.9672 53.341 0
334.864 37.0613 0
337.81 33.0212 0
160.054 56.8157 0
161.983 52.203 0
208.405 47.5077 0
208.901 52.483 0
107.433 41.6067 0
105.398 46.1735 0
480.931 49.7836 0
476.119 48.4252 0
143.966 8.59023 0
139.348 10.5053 0
239.29 35.0333 0
238.308 39.9358 0
35.3082 50.1798 0
34.3788 45.2671 0
243.126 21.8402 0
247.438 24.3715 0
324.893 3.65979 0
320.904 0.645147 0
130.674 54.5422 0
125.689 54.1533 0
371.554 9.41546 0
370.052 4.64638 0
285.413 3.48923 0
289.066 0.0758778 0
212.172 13.3384 0
217.139 13.9072 0
432.648 37.0601 0
427.653 36.8371 0
218.187 24.9442 0
222.828 23.0847 0
298.146 49.5995 0
302.356 52.2968 0
75.5339 45.7929 0
70.8016 47.4081 0
304.043 10.4207 0
308.957 11.3388 0
240.348 7.85854 0
241.196 12.7862 0
232.536 39.5765 0
236.495 42.6314 0
107.43 55.6276 0
111.758 58.1322 0
251.802 7.88197 0
246.805 7.7125 0
343.912 17.534 0
339.311 19.4911 0
407.75 39.1766 0
409.62 34.5391 0
104.222 52.9876 0
100.449 49.7064 0
391.674 38.7593 0
390.186 33.9858 0
481.837 38.0634 0
476.851 37.6849 0
365.962 16.1296 0
362.041 13.0274 0
452.153 11.0514 0
451.002 6.18573 0
463.609 18.7513 0
461.506 14.2148 0
96.1571 42.0737 0
93.5587 37.8019 0
311.935 21.9439 0
307.73 19.2397 0
284.46 25.2297 0
280.204 22.6065 0
266.551 25.6265 0
266.925 20.6405 0
319.003 10.7544 0
317.163 15.4036 0
384.698 19.6853 0
380.221 17.4586 0
134.361 32.6934 0
135.136 37.633 0
276.899 30.5909 0
277.793 35.5104 0
31.5666 23.9082 0
36.5566 24.222 0
209.592 20.9219 0
204.601 20.6162 0
429.019 27.5341 0
431.099 22.9875 0
315.228 6.65592 0
317.186 11.2567 0
201.29 17.5124 0
204.669 13.8265 0
265.411 23.0194 0
269.524 20.1766 0
443.318 45.852 0
448.127 44.4824 0
143.038 31.3242 0
145.284 35.7914 0
20.1852 21.5457 0
18.7957 16.7426 0
497.984 45.438 0
496.303 50.1471 0
70.683 8.39236 0
68.202 4.05133 0
104.442 45.9007 0
106.461 41.3263 0
89.1218 47.123 0
85.9622 43.2477 0
175.931 21.4634 0
172.882 17.501 0
356.582 5.63179 0
361.578 5.81702 0
438.199 10.0375 0
436.619 14.7811 0
93.1072 54.3212 0
88.2055 53.3318 0
28.2288 4.50965 0
23.3744 3.31471 0
25.4306 44.6064 0
29.4745 47.5473 0
339.121 35.4158 0
335.433 32.04 0
127.106 21.0019 0
126.49 25.9639 0
325.649 29.4378 0
324.551 34.3158 0
181.94 28.589 0
186.377 26.2825 0
168.769 39.5557 0
172.163 35.8841 0
86.8191 39.4601 0
90.296 35.8669 0
443.588 17.1922 0
439.417 14.4345 0
146.536 25.4866 0
147.51 20.5824 0
365.254 53.0821 0
368.881 56.5237 0
335.701 48.8158 0
333.125 53.1014 0
71.2254 38.6373 0
73.3789 34.1248 0
306.784 2.15981 0
311.601 3.50118 0
25.9898 57.9517 0
27.778 53.2825 0
60.0742 11.8036 0
65.0486 11.3032 0
363.869 32.0906 0
368.869 32.0751 0
116.253 7.03401 0
121.083 5.74009 0
378.435 25.3582 0
383.412 24.8815 0
267.238 32.4147 0
263.674 28.9083 0
279.857 41.8269 0
280.003 46.8247 0
139.334 8.04131 0
137.77 12.7904 0
72.7235 41.5789 0
68.973 38.2722 0
239.47 19.5396 0
234.519 18.8427 0
459.324 28.7629 0
459.781 23.7838 0
477.509 23.9951 0
476.485 19.1011 0
378.143 7.21037 0
374.072 4.30791 0
284.125 9.9653 0
287.499 13.655 0
382.031 28.7633 0
377.882 31.5548 0
127.645 27.7596 0
124.256 24.0838 0
402.027 52.6315 0
400.444 57.3742 0
221.829 30.8004 0
224.795 34.8255 0
153.242 30.2915 0
151.766 35.0686 0
49.2711 30.2385 0
50.0938 25.3066 0
87.5326 42.0105 0
86.4127 37.1376 0
170.65 6.89544 0
166.016 5.01895 0
155.881 45.9314 0
159.932 48.8625 0
230.253 10.2404 0
232.758 14.5677 0
325.056 26.4931 0
326.447 31.2958 0
399.311 45.9965 0
401.851 41.6894 0
56.7268 37.5374 0
59.7842 33.5809 0
130.544 53.8108 0
129.407 58.6798 0
224.102 23.5591 0
226.321 19.0783 0
63.9616 7.96461 0
61.7765 3.46732 0
447.128 40.6821 0
444.563 44.974 0
229.201 8.10796 0
231.985 12.2611 0
485.377 17.526 0
480.407 16.9851 0
219.336 29.7779 0
216.369 33.8028 0
254.431 21.3809 0
252.79 16.6577 0
172.45 35.6974 0
170.606 40.3451 0
483.144 4.60345 0
487.759 6.52634 0
354.808 2.2662 0
359.428 0.356076 0
409.379 24.4489 0
409.431 19.4492 0
153.31 3.58586 0
153.919 8.54874 0
191.963 57.6603 0
196.543 59.6665 0
440.389 39.1765 0
436.845 42.7027 0
198.507 51.2772 0
197.973 56.2486 0
168.933 24.5077 0
169.853 19.593 0
179.284 39.4301 0
179.358 44.4296 0
275.177 5.32864 0
278.347 1.46233 0
34.3205 15.1293 0
29.883 12.826 0
462.966 23.0643 0
457.973 22.799 0
99.2423 9.82607 0
98.4352 14.7606 0
354.53 3.77017 0
350.623 6.89085 0
342.093 26.6231 0
337.341 25.0681 0
73.221 3.96325 0
71.6373 8.70591 0
252.613 37.3819 0
257.581 36.8201 0
128.841 42.5706 0
124.228 44.5004 0
118.305 55.6444 0
119.887 50.9013 0
25.1702 28.2467 0
23.7084 23.4652 0
415.004 48.0958 0
411.319 51.4755 0
110.879 13.1404 0
110.682 18.1366 0
385.106 51.6144 0
389.955 52.8345 0
24.4376 3.85645 0
29.4036 4.4323 0
47.93 38.0436 0
52.9275 38.2069 0
336.799 44.6867 0
331.807 44.9807 0
409.96 32.601 0
410.277 37.5909 0
181.673 51.3028 0
185.45 54.5802 0
231.193 51.2195 0
230.466 56.1662 0
475.495 37.9196 0
471.259 40.5761 0
228.662 38.5632 0
228.698 43.5631 0
20.8864 46.3573 0
22.7515 41.7181 0
61.2855 13.8005 0
65.0848 17.0505 0
56.3335 23.732 0
56.3461 18.7319 0
483.334 25.8632 0
478.813 27.9991 0
18.05 20.4524 0
22.815 18.9386 0
206.814 20.2766 0
207.443 15.3163 0
367.181 15.3849 0
363.563 11.9335 0
166.458 22.1743 0
171.454 21.9725 0
388.783 55.5007 0
386.973 50.8397 0
305.249 58.7455 0
300.289 59.3824 0
157.423 45.6903 0
161.105 42.3064 0
97.4258 9.27328 0
95.3067 13.8021 0
375.958 42.4839 0
370.964 42.2524 0
26.5097 59.7704 0
21.6382 58.6409 0
304.084 45.1724 0
303.898 40.1759 0
407.181 14.8578 0
407.592 9.87476 0
203.658 47.7233 0
208.122 45.4705 0
276.295 17.0116 0
279.198 21.0827 0
434.001 36.2786 0
432.846 41.1435 0
93.5587 1.71834 0
93.5351 6.71847 0
255.461 40.9811 0
254.227 45.8265 0
179.821 52.2687 0
177.413 47.8867 0
362.29 8.06014 0
359.428 12.16 0
417.57 30.6941 0
421.612 27.7504 0
198.553 17.778 0
194.615 20.8586 0
290.021 40.6089 0
289.035 45.5106 0
28.5391 56.3123 0
33.3738 55.0349 0
262.617 13.6697 0
266.066 10.0494 0
67.9416 3.15635 0
72.0705 0.337127 0
362.116 10.8255 0
361.566 15.7952 0
350.007 52.199 0
345.027 51.7471 0
164.308 40.485 0
161.133 36.6221 0
484.347 46.5466 0
488.558 49.2429 0
149.504 48.9826 0
145.018 51.1923 0
325.441 13.6541 0
325.708 8.66114 0
265.331 37.5407 0
263.77 32.7907 0
313.225 16.6393 0
317.773 18.718 0
343.449 25.0595 0
348.436 24.7012 0
445.409 45.8442 0
440.41 45.7593 0
222.651 29.8784 0
226.089 33.5091 0
473.523 25.1446 0
471.263 20.6842 0
367.973 42.2011 0
371.022 46.1641 0
110.861 2.7949 0
113.706 6.90644 0
432.9 29.5867 0
433.403 24.6121 0
39.6034 53.4483 0
42.9939 49.7733 0
377.905 14.5402 0
373.098 13.1662 0
31.0296 40.5689 0
36.0293 40.6468 0
127.347 53.5928 0
126.621 58.5397 0
379.309 30.2816 0
383.997 32.0207 0
100.334 53.5339 0
95.3674 54.1199 0
449.278 36.2761 0
448.875 41.2598 0
77.902 12.9219 0
78.4896 7.95637 0
99.1786 45.9851 0
103.822 44.1298 0
139.718 8.59876 0
144.67 7.91509 0
234.827 36.988 0
239.705 35.8911 0
492.957 50.8068 0
497.957 50.8429 0
113.977 35.3881 0
109.035 36.1532 0
424.891 28.8839 0
421.207 32.2647 0
331.778 57.0914 0
327.05 55.4655 0
496.814 45.0879 0
497.681 50.0121 0
9.26944 50.1854 0
8.75454 55.1587 0
114.247 23.4921 0
118.161 26.6038 0
318.144 19.1456 0
316.773 23.9541 0
46.2812 18.3067 0
47.1389 13.3807 0
480.267 26.3107 0
477.14 30.2118 0
476.952 8.71768 0
474.694 13.179 0
51.304 5.54151 0
48.2013 1.62081 0
223.473 21.9554 0
219.069 19.5889 0
95.0772 45.0577 0
99.5391 42.8004 0
380.414 21.3945 0
375.992 23.7274 0
161.613 2.38613 0
157.026 4.37553 0
213.306 14.5625 0
218.285 15.0134 0
113.443 16.9751 0
111.678 21.6533 0
70.2223 14.3083 0
71.9922 18.9846 0
470.395 30.9123 0
468.075 35.3415 0
245.655 40.8815 0
250.423 39.3751 0
321.23 16.293 0
320.093 11.424 0
466.151 10.6039 0
464.827 15.4255 0
36.0978 50.4745 0
31.2534 49.2351 0
274.339 24.8197 0
274.047 19.8282 0
491.788 37.5571 0
491.417 32.5709 0
233.357 47.3709 0
237.595 50.0237 0
63.5477 21.4041 0
63.7158 26.4013 0
408.302 21.3487 0
408.051 16.355 0
69.2871 47.9731 0
69.8197 43.0016 0
23.0109 50.8803 0
27.8806 49.7438 0
437.401 41.6029 0
434.305 45.5296 0
128.009 38.6357 0
125.108 42.7088 0
450.745 49.8598 0
453.498 54.0338 0
367.343 41.8123 0
368.284 46.7228 0
471.5 44.4136 0
476.471 43.8775 0
3.78758 30.6552 0
0.723383 26.7042 0
148.32 14.8618 0
143.396 15.7308 0
351.651 27.0293 0
356.141 24.8296 0
212.937 33.5034 0
210.551 37.8974 0
32.7051 53.7348 0
35.7496 57.7012 0
465.518 57.5032 0
460.905 55.5734 0
36.5947 36.5362 0
38.2366 41.2589 0
118.387 10.7107 0
115.435 6.67539 0
450.826 7.66149 0
446.244 9.66354 0
181.116 37.0724 0
178.041 33.1298 0
17.2758 37.0547 0
17.9886 32.1058 0
138.219 28.2699 0
140.178 32.8702 0
460.451 46.608 0
458.184 51.0647 0
258.317 14.0063 0
259.457 9.13796 0
361.149 4.20783 0
365.974 2.89608 0
348.342 1.63548 0
348.849 6.60977 0
239.025 44.9178 0
236.735 49.3628 0
184.775 24.6915 0
183.028 20.0069 0
130.25 56.9448 0
125.274 57.4345 0
90.8804 24.2066 0
86.1683 25.8787 0
16.9302 59.9466 0
19.4483 55.6268 0
174.262 36.7244 0
174.074 41.7209 0
171.266 3.92514 0
169.158 8.45923 0
485.032 47.2879 0
490.021 47.6196 0
237.344 58.3416 0
236.125 53.4924 0
303.835 48.2931 0
298.932 49.2758 0
153.692 52.4856 0
150.106 55.9704 0
414.164 16.9129 0
409.487 18.6824 0
72.7568 0.990431 0
76.2154 4.60097 0
131.771 16.0516 0
136.272 18.2266 0
230.528 50.5304 0
225.531 50.7054 0
114.769 54.9842 0
109.815 54.3003 0
120.975 3.15546 0
125.888 4.08306 0
103.066 16.8008 0
107.82 18.3471 0
499.396 5.39083 0
497.225 0.886671 0
337.873 50.2568 0
337.537 55.2454 0
439.193 45.4656 0
436.773 41.0903 0
464.558 33.9563 0
466.251 29.2514 0
484.592 5.98491 0
489.287 4.26414 0
325.687 9.42678 0
330.331 7.57465 0
138.263 39.323 0
136.344 43.94 0
234.634 19.1501 0
237.922 15.3825 0
460.909 15.158 0
457.2 18.5109 0
232.505 29.1724 0
237.504 29.2718 0
231.803 51.6442 0
236.306 49.4714 0
184.167 43.9744 0
185.413 39.132 0
107.896 43.4933 0
112.801 44.4634 0
152.781 31.7747 0
150.895 36.4054 0
449.821 24.0441 0
445.948 27.2069 0
332.143 48.5807 0
336.094 45.5162 0
22.4115 29.9347 0
17.894 32.0776 0
329.92 41.5052 0
331.79 36.868 0
272.88 43.8899 0
277.848 44.4519 0
81.1647 48.5651 0
76.1886 49.0585 0
8.5709 9.11342 0
4.66818 12.2385 0
245.208 31.1657 0
245.841 26.206 0
364.157 56.7507 0
361.964 52.2572 0
137.449 40.3139 0
140.223 36.1545 0
375.927 27.7203 0
380.927 27.67 0
485.73 17.481 0
489.505 20.76 0
126.807 27.3621 0
124.917 31.9911 0
109.306 53.0168 0
109.227 58.016 0
100.517 4.92767 0
103.396 9.01536 0
246.134 50.3602 0
242.6 46.8221 0
458.522 38.2549 0
453.706 36.9132 0
335.63 57.1738 0
331.574 54.2503 0
243.266 50.2743 0
238.976 52.8427 0
107.348 54.3821 0
102.507 53.1294 0
215.288 49.5178 0
212.452 53.6364 0
67.1072 30.293 0
70.8889 27.022 0
259.126 13.5748 0
258.588 18.5458 0
322.644 30.0266 0
319.108 26.4907 0
90.1952 17.072 0
85.5063 18.8076 0
1.8061 7.6586 0
0.713642 12.5378 0
321.831 3.93256 0
325.596 7.22225 0
164.4 11.076 0
161.558 15.1897 0
413.409 38.1877 0
417.571 40.9576 0
219.788 23.3906 0
224.567 21.921 0
128.833 30.2279 0
126.055 26.071 0
137.876 59.7739 0
142.835 59.1323 0
124.41 57.1165 0
129.292 56.0329 0
341.318 38.3834 0
343.755 34.0173 0
48.9786 50.5835 0
49.2679 55.575 0
225.706 51.7142 0
226.077 46.7281 0
97.0775 5.12804 0
92.1693 6.07897 0
244.807 22.4762 0
239.974 21.1971 0
67.4992 12.0085 0
71.873 9.5864 0
335.336 15.8082 0
339.525 13.0793 0
123.797 35.6775 0
122.819 30.774 0
390.389 50.478 0
389.679 45.5288 0
180.656 37.0748 0
185.527 35.9422 0
328.294 31.3155 0
324.591 27.9563 0
123.029 16.7302 0
127.746 18.3863 0
300.793 9.34335 0
301.229 14.3243 0
372.452 40.1194 0
377.264 38.7625 0
387.39 40.0594 0
386.907 35.0828 0
418.322 15.0891 0
417.653 20.0442 0
77.5497 13.2183 0
73.3977 10.4329 0
19.4165 54.7375 0
22.0288 59.0009 0
242.855 31.429 0
237.986 30.2916 0
221.929 45.6937 0
217.109 44.3641 0
36.4685 16.2686 0
40.6346 19.0328 0
439.037 50.5107 0
442.674 53.9418 0
347.563 24.4613 0
345.569 19.8762 0
478.176 4.4356 0
481.321 8.32293 0
275.27 8.50078 0
271.464 11.7435 0
26.2133 11.7034 0
28.445 7.22901 0
230.036 22.0134 0
230.212 27.0103 0
17.9397 43.9624 0
21.2987 40.2585 0
457.485 30.464 0
452.88 28.5173 0
401.517 54.8568 0
406.373 56.0509 0
129.588 53.4554 0
133.455 56.6246 0
71.9279 18.2396 0
75.9216 15.2315 0
398.15 44.226 0
402.086 41.1423 0
463.316 27.8856 0
465.659 32.3024 0
413.58 19.7666 0
417.65 16.8622 0
408.57 22.7126 0
413.366 21.3 0
368.87 4.31033 0
366.36 -0.0144075 0
305.142 43.0581 0
305.993 47.985 0
307.061 16.3883 0
311.788 14.7584 0
314.977 47.3322 0
310.258 48.984 0
270.078 18.3254 0
266.211 21.495 0
266.781 18.4524 0
263.199 21.9411 0
88.8807 42.5888 0
84.0691 41.2284 0
240.023 12.5569 0
241.628 7.82158 0
363.492 23.415 0
361.196 27.8562 0
155.536 44.3586 0
152.352 40.5036 0
441.996 49.7489 0
444.323 54.1742 0
26.6492 35.1606 0
31.0327 32.7553 0
62.5573 22.8474 0
67.5335 22.3617 0
192.965 2.78998 0
190.839 7.31578 0
194.678 9.06043 0
198.026 5.34667 0
98.4359 50.4434 0
98.1166 55.433 0
348.628 53.4345 0
348.616 48.4345 0
223.861 56.3444 0
218.921 57.1202 0
412.471 22.3535 0
415.808 26.0763 0
464.144 21.9623 0
459.801 19.4843 0
326.15 44.0743 0
321.184 44.6556 0
127.804 21.6384 0
132.738 22.4487 0
222.237 29.5571 0
221.991 24.5631 0
451.622 40.5725 0
456.048 42.8981 0
317.33 14.7243 0
313.737 18.2018 0
210.439 33.4112 0
207.776 37.6431 0
17.2794 2.37539 0
12.2878 2.65051 0
360.065 30.1507 0
362.278 25.6669 0
339.541 35.3134 0
344.53 35.6477 0
164.373 25.8312 0
167.872 29.4029 0
348.059 39.4893 0
351.669 36.03 0
449.45 46.4678 0
454.4 47.172 0
250.536 52.4024 0
246.838 55.7676 0
396.072 55.4058 0
400.816 53.8248 0
325.917 34.4046 0
330.895 33.9337 0
326.478 42.6569 0
326.661 37.6603 0
341.842 45.5096 0
337.293 47.5848 0
181.014 13.7706 0
176.691 11.2592 0
339.08 38.2728 0
334.162 37.3705 0
180.381 32.4087 0
176.309 35.3108 0
424.848 59.1671 0
428.561 55.818 0
178.251 27.423 0
178.939 22.4705 0
313.257 41.4486 0
316.935 44.8349 0
80.6957 52.5405 0
83.7175 48.5568 0
253.422 49.3627 0
256.96 45.8294 0
206.333 4.77044 0
206.971 9.72971 0
410.839 11.7497 0
413.793 7.71512 0
453.772 47.072 0
448.799 46.5488 0
267.023 12.7156 0
265.465 17.4664 0
273.376 49.9659 0
275.786 54.3468 0
223.745 52.4054 0
221.124 48.1472 0
437.104 38.0921 0
432.589 35.9444 0
439.154 13.8835 0
436.162 17.8895 0
258.812 50.7725 0
263.284 53.0079 0
406.513 1.40206 0
402.444 4.30828 0
268.504 14.5903 0
273.098 16.5641 0
117.72 20.5994 0
115.317 16.2146 0
277.255 51.5592 0
277.758 56.5338 0
396.507 49.1137 0
393.103 52.7759 0
146.245 14.3589 0
147.716 19.1374 0
58.721 37.1018 0
61.8944 33.2378 0
89.2938 48.7342 0
93.4147 45.902 0
25.2438 14.3756 0
30.2243 13.9397 0
79.4747 35.9385 0
75.4124 38.8539 0
49.497 28.2197 0
52.9624 24.6154 0
25.2689 42.4885 0
20.3545 41.5654 0
212.1 7.76421 0
207.444 9.5842 0
48.0806 12.1806 0
49.5004 16.9749 0
373.02 24.8615 0
377.958 24.0793 0
194.81 10.8084 0
199.809 10.8157 0
64.4562 57.491 0
68.8003 59.9676 0
377.475 21.8176 0
374.854 17.5598 0
29.2473 49.16 0
29.4667 44.1649 0
8.14222 12.1899 0
11.7901 8.77068 0
283.981 16.5183 0
288.971 16.8416 0
21.7425 40.8726 0
18.9891 45.0463 0
396.746 45.6366 0
396.047 50.5874 0
295.212 15.6572 0
290.461 17.2152 0
9.89034 38.2934 0
13.6758 35.0266 0
424.039 13.0617 0
424.624 18.0273 0
286.542 21.1414 0
282.217 18.6328 0
446.842 21.086 0
448.148 16.2595 0
157.965 14.1309 0
157.559 9.14724 0
490.905 27.3204 0
486.007 26.3136 0
219.883 48.1855 0
214.922 47.5575 0
52.2932 53.6229 0
47.3155 53.1446 0
50.9947 40.5118 0
55.1337 43.3171 0
498.453 5.60941 0
496.66 10.2769 0
480.299 14.0565 0
480.67 9.07026 0
379.189 38.5838 0
379.236 33.5841 0
246.242 52.382 0
246.603 47.3951 0
417.66 21.6486 0
420.485 17.5237 0
424.096 37.6862 0
423.66 42.6671 0
269.32 33.8155 0
269.353 28.8156 0
487.279 23.3959 0
492.195 24.309 0
426.095 49.9274 0
424.773 45.1053 0
370.352 48.8816 0
367.931 44.5066 0
427.466 33.1487 0
422.47 33.3296 0
453.032 38.5672 0
448.163 39.7077 0
159.335 53.6434 0
155.001 51.1499 0
147.41 28.1112 0
145.594 23.4526 0
137.374 22.9732 0
133.14 25.6314 0
313.007 39.2723 0
311.198 34.6111 0
483.48 8.61043 0
478.892 6.62185 0
60.7586 37.6196 0
56.8031 34.561 0
297.221 56.6215 0
292.888 59.1166 0
299.359 47.6534 0
298.432 52.5666 0
190.717 17.9797 0
195.674 17.3252 0
321.122 16.2235 0
318.692 20.5934 0
494.255 21.9638 0
496.363 26.4977 0
115.795 0.681929 0
115.111 5.63511 0
324.449 27.5381 0
328.403 24.4774 0
487.831 17.1938 0
492.182 14.7301 0
232.322 5.27671 0
227.621 3.57687 0
216.502 14.6432 0
218.6 10.1046 0
296.365 11.7591 0
292.027 9.27229 0
303.572 47.6877 0
307.725 44.9039 0
326.366 32.3101 0
321.679 34.0527 0
483.075 6.40954 0
485.637 10.7031 0
219.324 5.86344 0
223.74 3.51939 0
436.661 9.85175 0
438.575 5.23272 0
235.197 59.4627 0
232.401 55.3173 0
209.259 18.7535 0
206.229 14.7759 0
91.2951 44.2115 0
90.0834 49.0623 0
168.235 28.5046 0
171.781 32.0295 0
346.752 39.8741 0
351.342 37.8904 0
4.62759 32.2127 0
8.71564 35.0917 0
388.271 43.423 0
383.281 43.0986 0
185.927 54.7633 0
180.935 54.4604 0
160.746 45.6155 0
164.167 49.2619 0
62.5085 29.4686 0
67.5076 29.3743 0
352.482 47.1567 0
349.346 51.0506 0
125.695 56.6075 0
127.114 51.8133 0
163.561 30.5613 0
159.344 27.8761 0
141.979 39.9349 0
146.92 39.17 0
347.788 55.2393 0
344.052 58.5618 0
25.6794 50.9856 0
29.0461 47.2887 0
365.4 20.7219 0
369.207 23.9632 0
72.5501 24.9099 0
77.1777 23.0166 0
37.3613 25.0019 0
34.2214 28.893 0
151.583 48.0646 0
156.495 47.1298 0
435.803 53.2704 0
433.666 48.7499 0
257.667 19.0368 0
252.67 19.1997 0
244.323 25.214 0
249.303 24.7665 0
299.795 46.5381 0
302.227 42.1696 0
99.9793 58.8163 0
104.018 55.8676 0
48.4331 11.2887 0
44.3925 8.34419 0
248.796 22.8559 0
253.777 22.417 0
321.84 13.0059 0
325.737 9.87233 0
36.6336 25.2519 0
37.9942 20.4406 0
127.306 32.4489 0
129.952 36.6916 0
489.279 7.10348 0
485.758 10.6534 0
367.056 19.4708 0
363.132 22.5708 0
83.8101 52.2359 0
85.8829 56.786 0
73.2072 44.5455 0
69.7774 48.1839 0
60.8017 39.2881 0
65.7914 39.6116 0
125.545 2.82984 0
129.094 6.35113 0
374.414 15.9707 0
378.586 18.727 0
388.036 30.3172 0
390.203 25.8109 0
460.989 11.2079 0
465.506 13.3518 0
364.733 7.47933 0
368.451 4.13626 0
456.314 0.791201 0
451.939 3.21097 0
348.651 44.3723 0
353.594 45.1242 0
356.891 26.743 0
354.646 22.2757 0
439.405 -0.14928 0
436.266 3.74236 0
10.0267 14.4408 0
7.63456 18.8315 0
202.709 3.73451 0
198.794 0.625104 0
71.2242 30.3321 0
76.1152 31.3702 0
217.075 53.5721 0
212.144 52.7421 0
92.8654 6.90176 0
96.6488 3.63321 0
222.716 41.084 0
223.727 36.1872 0
67.8287 53.0071 0
67.3128 48.0339 0
405.667 56.3741 0
410.408 57.962 0
105.88 13.7265 0
101.936 16.7989 0
77.5121 29.0244 0
72.5665 29.7595 0
42.5275 27.9001 0
47.4619 27.0929 0
369.177 48.5483 0
369.862 53.501 0
156.325 47.4437 0
156.532 52.4393 0
20.9256 21.4914 0
22.5592 16.7658 0
350.279 44.1004 0
355.069 45.534 0
73.2151 15.5581 0
72.6518 20.5263 0
248.383 8.00796 0
245.204 4.14887 0
68.9794 37.5998 0
69.7212 32.6551 0
484.353 12.0429 0
479.454 13.0438 0
447.017 9.37545 0
447.396 4.38987 0
190.885 36.9618 0
192.25 41.7718 0
223.368 31.9207 0
218.628 30.3267 0
386.412 2.49285 0
385.523 7.41326 0
177.054 19.5749 0
177.988 24.4869 0
177.863 16.0454 0
178.961 20.9233 0
387.161 47.2305 0
391.789 45.3382 0
123.278 59.4118 0
128.209 58.5803 0
377.285 52.2773 0
374.209 48.3355 0
218.939 40.5135 0
214.661 37.9257 0
411.661 6.71862 0
416.485 5.40389 0
258.926 32.7743 0
263.4 35.0069 0
114.781 0.598276 0
119.167 2.99833 0
298.059 52.5497 0
294.339 55.89 0
299.166 49.9587 0
295.107 47.0389 0
461.436 6.33959 0
466.419 5.93507 0
182.836 35.5816 0
182.144 40.5334 0
240.042 43.4062 0
238.782 38.5674 0
58.9408 48.9542 0
55.134 52.1963 0
240.329 42.2592 0
242.477 46.7742 0
18.29 5.99193 0
19.8723 10.7351 0
232.376 25.8131 0
227.852 23.6836 0
185.179 20.6075 0
188.982 17.3618 0
378.075 33.3889 0
380.362 37.8349 0
471.157 25.3484 0
467.965 21.5 0
63.8101 54.0327 0
63.1182 58.9844 0
179.179 19.2629 0
182.092 15.1987 0
175.793 13.2911 0
178.603 9.15524 0
153.299 50.4076 0
155.156 55.05 0
308.385 42.7499 0
312.355 45.7905 0
155.735 15.1203 0
158.48 10.9411 0
199.757 3.67846 0
198.405 8.49227 0
325.321 9.04663 0
329.622 11.5965 0
367.723 48.4184 0
367.961 53.4127 0
272.446 10.0593 0
272.005 5.07865 0
372.15 34.5229 0
372.907 39.4651 0
178.008 27.0052 0
179.085 22.1225 0
166.408 49.0093 0
162.175 46.3487 0
21.6156 14.8104 0
17.5174 11.9465 0
150.587 34.6064 0
155.487 35.6036 0
90.8283 48.1136 0
93.7107 44.0279 0
192.615 50.1327 0
193.525 45.2163 0
283.764 38.831 0
279.516 36.1931 0
288.432 6.47024 0
290.434 1.88884 0
56.0175 48.1757 0
51.1318 47.1107 0
204.797 7.07343 0
207.179 11.4695 0
188.769 40.9352 0
190.622 45.5792 0
153.552 0.161557 0
157.088 3.69632 0
408.664 12.1801 0
405.395 15.9627 0
348.982 31.7214 0
347.005 27.1291 0
129.382 42.0394 0
124.417 42.6267 0
383.864 42.9746 0
385.858 47.56 0
280.314 7.86168 0
284.849 5.75709 0
274.007 40.7905 0
276.876 44.8858 0
413.09 7.39533 0
418.067 7.8685 0
101.108 42.1387 0
97.8328 45.9167 0
498.121 6.85153 0
494.922 3.00886 0
282.397 38.2117 0
284.25 42.8556 0
247.184 17.7477 0
250.188 13.7506 0
462.759 56.1493 0
458.648 58.9949 0
63.0859 45.6943 0
62.8283 50.6875 0
43.3092 30.7493 0
46.9226 27.2933 0
146.729 33.6744 0
142.541 30.9432 0
419.389 49.053 0
423.884 46.863 0
85.2225 26.9779 0
87.4713 31.4435 0
415.693 2.91592 0
419.145 6.53353 0
39.4826 26.0005 0
34.5524 26.8327 0
452.301 40.3185 0
448.029 37.7213 0
175.572 50.287 0
174.867 55.2369 0
164.865 15.7766 0
169.524 13.9615 0
294.604 52.8939 0
291.395 49.0594 0
467.24 13.3425 0
468.691 8.5578 0
483.53 36.4623 0
483.231 41.4534 0
326.414 14.0872 0
329.776 10.3864 0
234.041 54.7356 0
236.954 50.6721 0
335.606 42.6326 0
336.511 47.5498 0
249.611 18.827 0
254.288 17.059 0
271.433 13.5693 0
268.973 17.9222 0
417.359 29.363 0
421.713 26.9048 0
280.364 46.9021 0
277.796 51.1922 0
487.4 9.35645 0
486.383 4.4609 0
93.1184 20.0237 0
88.4295 18.2882 0
449.899 50.6485 0
447.62 55.099 0
397.166 54.0884 0
398.204 58.9794 0
193.603 55.7106 0
198.095 53.5142 0
165.311 5.19052 0
170.089 3.71808 0
141.414 44.4754 0
137.852 47.9843 0
200.857 46.6359 0
205.504 48.4822 0
268.456 7.26262 0
264.612 4.06637 0
115.414 31.0422 0
110.611 29.6536 0
309.153 45.8048 0
304.62 47.9154 0
238.533 24.3179 0
240.196 29.0331 0
403.3 18.2997 0
401.586 13.6026 0
30.0591 56.6428 0
25.1072 57.3396 0
416.058 58.5114 0
417.669 53.7779 0
230.787 41.9231 0
234.393 38.4594 0
216.922 54.8741 0
220.491 58.3766 0
384.418 59.011 0
379.769 57.1703 0
160.906 23.9738 0
158.447 19.6204 0
482.892 17.6763 0
485.025 22.1983 0
272.43 37.7636 0
271.03 32.9637 0
441.496 23.6005 0
445.686 26.3285 0
163.384 44.2114 0
158.55 42.9336 0
41.6456 48.0386 0
36.7064 47.2581 0
140.331 38.0504 0
139.096 33.2052 0
174.489 0.437581 0
170.483 3.4285 0
448.73 42.5278 0
447.025 37.8275 0
246.146 26.9162 0
248.617 22.5699 0
339.633 24.7672 0
340.084 19.7875 0
443.68 32.7996 0
447.633 29.7374 0
458.347 7.07445 0
453.359 6.72147 0
112.763 55.6265 0
115.763 51.6267 0
334.074 47.648 0
336.476 43.2627 0
113.88 20.8687 0
118.88 20.8864 0
4.8902 3.37053 0
9.35299 5.6239 0
86.5725 47.6466 0
83.6763 43.5707 0
79.3639 24.2075 0
75.3738 21.1946 0
313.346 14.2324 0
316.417 18.1783 0
215.928 15.2048 0
214.284 10.4827 0
485.891 16.2957 0
489.949 19.2166 0
407.406 39.664 0
412.252 40.8948 0
63.2061 55.6751 0
58.2849 54.7871 0
199.029 55.5416 0
194.552 53.3142 0
146.896 58.0581 0
147.382 53.0818 0
435.423 29.3009 0
434.757 34.2563 0
329.18 9.96401 0
329.584 14.9477 0
147.105 8.91629 0
143.296 12.1554 0
427.384 6.99534 0
432.383 7.11866 0
25.6412 43.4834 0
22.9718 47.7113 0
271.19 54.8037 0
266.268 53.9208 0
118.207 12.7473 0
118.638 7.76579 0
331.559 10.3166 0
330.386 15.177 0
401.395 16.0977 0
401.28 11.099 0
371.378 12.8462 0
366.499 13.9397 0
249.094 13.4123 0
247.668 8.61983 0
83.4433 50.1741 0
81.5178 54.7884 0
237.015 40.0481 0
232.091 39.1766 0
186.723 32.9762 0
189.127 37.3602 0
53.2003 13.7469 0
49.6143 17.2311 0
68.2294 5.78769 0
72.9634 4.18037 0
467.129 47.4224 0
471.848 45.7701 0
175.774 11.0279 0
173.733 6.46337 0
480.185 53.9478 0
484.451 51.3395 0
255.239 39.9637 0
260.234 39.7503 0
294.591 16.8227 0
292.614 21.4154 0
188.44 20.0473 0
185.326 23.9595 0
312.807 13.6522 0
316.91 16.5094 0
146.234 53.8814 0
150.269 56.8354 0
329.823 10.0643 0
326.183 6.63602 0
350.64 24.3385 0
346.825 21.1071 0
162.912 47.7893 0
166.671 51.0864 0
224.808 6.9305 0
223.424 11.735 0
198.702 46.6272 0
194.588 49.4699 0
140.509 17.9757 0
144.299 14.7149 0
449.931 28.7517 0
452.262 24.3283 0
382.088 54.7242 0
386.888 53.3242 0
453.172 49.6448 0
452.505 44.6894 0
280.495 55.4925 0
280.103 50.508 0
72.9747 18.0043 0
76.2639 21.77 0
154.892 41.065 0
153.475 36.2699 0
347.288 21.8159 0
351.877 19.8322 0
192.835 0.451732 0
193.275 5.4325 0
56.5687 11.8444 0
51.7127 13.0341 0
171.035 24.983 0
176.008 24.4701 0
75.8555 14.2205 0
71.2792 16.2342 0
45.1066 41.0348 0
40.5728 43.1436 0
435.748 10.9911 0
438.769 7.00757 0
462.078 2.31417 0
457.722 -0.140273 0
364.339 6.93656 0
361.749 2.65965 0
38.9736 34.0591 0
41.6655 29.8455 0
84.2991 26.4853 0
89.2991 26.4712 0
229.402 17.3083 0
224.471 18.1359 0
141.841 5.72696 0
138.676 1.85663 0
473.669 18.9504 0
478.641 19.4744 0
142.895 46.372 0
142.943 41.3723 0
363.354 17.8898 0
364.238 22.8111 0
243.455 25.3978 0
239.004 27.6744 0
144.172 15.564 0
145.695 20.3264 0
449.28 26.1362 0
451.954 30.3612 0
244.259 57.8526 0
247.568 54.1038 0
116.642 9.86867 0
114.577 5.31491 0
229.048 52.3562 0
224.049 52.461 0
342.669 24.5934 0
347.376 26.2804 0
159.046 41.0224 0
163.611 38.9822 0
421.592 53.4049 0
417.671 50.3022 0
450.332 46.2003 0
449.289 51.0901 0
493.481 5.63825 0
492.263 0.788851 0
294.318 6.76546 0
296.366 2.20425 0
332.117 43.7551 0
337.062 44.4948 0
228.223 27.2069 0
230.552 31.6311 0
448.508 51.1592 0
453.443 50.3492 0
327.528 8.33472 0
330.631 12.2553 0
172.553 22.1125 0
175.749 18.2679 0
45.8273 36.5706 0
40.8457 37.0006 0
409.369 15.1514 0
406.744 19.4074 0
6.92404 38.8436 0
1.98121 39.5992 0
127.417 35.41 0
125.672 40.0955 0
387.492 49.5572 0
392.227 51.1634 0
64.4278 26.2541 0
65.1114 21.301 0
89.3587 44.8242 0
89.7943 39.8434 0
275.171 26.8341 0
279.083 23.7196 0
320.851 32.9206 0
321.625 37.8602 0
325.512 41.7865 0
320.588 42.659 0
393.847 49.5123 0
393.378 54.4902 0
49.527 22.8227 0
45.8889 26.2526 0
366.316 53.2314 0
361.501 51.8853 0
129.491 21.3408 0
134.316 20.0304 0
174.888 35.3481 0
170.218 37.1346 0
318.557 41.4531 0
315.828 45.6427 0
308.202 48.6923 0
312.84 46.825 0
127.614 55.8429 0
129.813 51.3526 0
140.37 37.7649 0
143.882 41.3235 0
359.284 26.4009 0
354.447 27.6667 0
191.956 45.3294 0
196.638 43.5762 0
435.668 37.2079 0
434.448 42.0567 0
47.26 22.903 0
45.0095 18.4381 0
174.784 46.2604 0
179.372 44.2741 0
201.253 14.7134 0
200.044 19.5651 0
82.1679 41.1637 0
77.2267 41.9301 0
435.36 17.3197 0
431.025 14.8287 0
334.281 5.26429 0
338.227 8.33388 0
188.791 52.5247 0
187.474 57.3482 0
24.4988 0.986072 0
21.8272 5.21238 0
189.152 23.7257 0
192.927 20.447 0
149.932 23.5364 0
145.864 20.6291 0
147.48 27.3603 0
142.654 28.6677 0
279.379 55.5913 0
277.452 50.9772 0
139.494 8.06191 0
138.559 12.9738 0
239.53 51.8756 0
234.552 52.3415 0
291.488 8.76753 0
296.448 8.13699 0
322.488 37.8302 0
319.124 41.5297 0
55.2906 38.288 0
52.3901 42.3609 0
434.856 26.744 0
429.935 27.624 0
363.552 57.1285 0
367.933 59.5382 0
279.86 55.7385 0
276.337 59.2865 0
145.74 48.6521 0
145.878 43.6541 0
266.411 24.2858 0
262.648 27.5786 0
34.5997 22.7915 0
39.4605 23.9621 0
362.12 28.3709 0
364.144 32.9432 0
37.2922 35.0995 0
41.2411 32.0324 0
311.658 45.2384 0
306.662 45.0326 0
325.377 8.19572 0
330.322 7.45762 0
449.33 20.8085 0
453.917 18.8184 0
19.1255 21.4936 0
16.6346 25.8289 0
220.387 45.9876 0
220.732 40.9996 0
313.775 39.4663 0
316.642 35.3702 0
423.172 28.4247 0
419.334 25.2201 0
20.831 35.2807 0
22.4682 40.005 0
133.879 28.951 0
131.063 24.8196 0
275.886 50.7527 0
280.603 52.4137 0
458.208 12.096 0
456.133 7.54694 0
39.7797 16.7639 0
42.8866 12.8463 0
160.993 42.6503 0
156.264 41.0261 0
235.438 56.2909 0
235.141 51.2999 0
311.516 23.7817 0
310.394 28.6542 0
325.103 28.9506 0
328.651 32.4739 0
474.606 29.4528 0
479.284 31.2197 0
331.115 18.7865 0
326.194 17.9008 0
210.711 26.2681 0
211.029 21.2782 0
186.92 16.4684 0
185.249 21.1807 0
77.1425 44.6691 0
72.5125 46.5576 0
469.843 31.0844 0
474.657 29.7332 0
321.543 47.6644 0
318.501 51.6327 0
225.323 52.4169 0
227.942 56.6757 0
16.8604 45.5278 0
18.7682 40.906 0
410.019 22.6613 0
409.157 17.7362 0
184.728 27.2214 0
189.684 27.8831 0
81.9958 50.6802 0
77.7996 47.9609 0
341.065 54.2255 0
336.108 53.5672 0
103.27 52.3712 0
99.9491 48.6328 0
167.112 20.5293 0
167.337 15.5343 0
315.957 27.0836 0
314.042 31.7024 0
2.89262 4.64372 0
0.160617 0.456481 0
420.757 6.50244 0
417.563 10.3489 0
54.5306 31.4278 0
51.0429 35.0106 0
11.4765 36.7014 0
16.3066 35.4083 0
325.21 20.8939 0
326.585 16.0866 0
67.8114 5.07417 0
62.8631 4.36134 0
221.378 28.8323 0
224.887 32.3945 0
237.816 9.92901 0
236.712 5.05226 0
428.434 41.2222 0
423.623 39.8598 0
211.143 26.3573 0
216.13 25.9889 0
175.36 54.5817 0
175.643 49.5898 0
212.445 18.7985 0
208.895 15.2774 0
489.812 31.4423 0
493.753 34.5187 0
124.47 18.3407 0
129.39 19.2304 0
12.6295 50.4564 0
14.5815 45.8532 0
375.67 46.7526 0
375.472 41.7565 0
183.804 26.9018 0
179.72 29.7862 0
158.132 13.8252 0
158.649 8.85183 0
147.031 21.5627 0
148.901 16.9256 0
29.913 29.5786 0
33.7485 26.371 0
241.616 38.238 0
241.724 33.2392 0
81.645 41.4232 0
86.4934 40.2005 0
8.16709 31.7238 0
8.96104 36.6604 0
6.00814 31.7109 0
9.21773 35.5448 0
182.394 18.7892 0
186.418 21.756 0
224.872 6.19594 0
220.207 4.39644 0
484.743 30.5101 0
489.707 31.1099 0
405.551 12.1263 0
410.537 11.7482 0
93.6216 3.14611 0
98.6118 3.44822 0
479.268 58.8782 0
474.856 56.5257 0
110.422 12.7993 0
113.19 16.9629 0
410.391 48.538 0
410.576 43.5415 0
231.409 22.2413 0
229.585 17.5858 0
317.375 33.7689 0
321.183 37.009 0
127.218 28.5599 0
122.312 29.523 0
269.35 13.3305 0
266.974 8.93126 0
12.417 10.446 0
11.6425 5.50617 0
87.8057 56.2344 0
92.7539 55.5128 0
209.723 18.8956 0
214.048 21.403 0
336.11 32.0018 0
340.722 30.0708 0
213.794 30.97 0
217.815 27.9978 0
214.906 58.9363 0
211.413 55.3588 0
410.134 22.1098 0
415.128 22.3407 0
130.189 21.89 0
126.458 18.5615 0
450.531 1.83617 0
446.025 -0.331494 0
464.585 8.42766 0
461.068 11.9822 0
361.592 11.6455 0
366.479 12.702 0
256.805 30.6528 0
251.822 31.0702 0
42.3832 20.1944 0
45.6749 23.9579 0
37.0524 14.2633 0
36.2772 19.2029 0
354.351 52.462 0
350.318 49.506 0
12.1038 31.7448 0
14.7639 35.9785 0
452.547 30.0608 0
455.477 34.1129 0
461.795 24.672 0
466.123 27.1749 0
96.5582 4.69808 0
91.7425 3.35533 0
48.8873 51.4627 0
51.9757 55.3951 0
63.6495 4.23323 0
60.8878 8.4013 0
138.076 21.3961 0
139.844 16.7193 0
151.316 11.3192 0
152.526 16.1707 0
8.17101 19.9976 0
3.36922 21.3907 0
258.777 3.38276 0
263.592 4.72833 0
57.3998 51.1988 0
59.6543 55.6617 0
283.376 6.74529 0
287.624 4.1078 0
452.208 56.4819 0
454.623 52.1036 0
56.7042 26.6516 0
61.7029 26.543 0
312.421 56.3297 0
316.903 54.1134 0
137.651 39.0351 0
141.982 36.5364 0
402.337 56.0725 0
404.91 51.7853 0
415.728 26.7333 0
412.185 23.2059 0
24.3309 3.58639 0
27.254 7.64281 0
60.5264 42.7903 0
55.5396 42.4237 0
495.933 27.7281 0
495.344 22.763 0
296.086 56.3809 0
297.949 51.7409 0
283.193 12.5934 0
278.512 14.349 0
128.903 30.0722 0
125.23 33.4646 0
440.92 1.88634 0
442.204 6.71877 0
349.812 43.0699 0
354.527 41.404 0
364.364 29.253 0
367.203 33.3687 0
262.307 56.1551 0
257.812 53.9633 0
253.962 24.457 0
258.028 21.5477 0
124.551 43.967 0
120.822 40.6354 0
230.092 31.5936 0
235.054 30.9822 0
133.667 24.6008 0
130.679 20.592 0
219.517 1.34961 0
214.532 0.966433 0
309.204 7.42095 0
307.363 12.07 0
322.436 7.83796 0
319.591 11.9495 0
98.9007 47.9886 0
93.9047 47.7769 0
457.869 35.746 0
459.978 31.2123 0
256.96 23.5005 0
251.975 23.8856 0
169.176 8.94902 0
167.519 13.6666 0
354.384 51.5634 0
358.613 54.23 0
135.498 47.0413 0
138.298 51.1839 0
343.746 21.1618 0
345.753 16.5822 0
47.2864 17.9614 0
49.2363 13.3573 0
155.952 39.2796 0
158.391 34.9147 0
116.816 46.391 0
119.514 42.1813 0
228.317 2.08818 0
226.011 6.52492 0
18.319 8.95252 0
22.6171 11.5065 0
173.596 34.7317 0
171.066 30.4191 0
389.888 4.61619 0
393.028 8.50694 0
52.7854 59.4238 0
48.5962 56.6935 0
337.129 55.259 0
333.272 52.0765 0
82.7419 17.4681 0
86.7702 20.4298 0
78.7305 35.7639 0
77.1164 31.0316 0
290.332 12.0804 0
285.339 12.34 0
121.73 14.6144 0
117.655 17.5113 0
297.454 44.8845 0
292.49 44.284 0
191.228 51.8618 0
193.827 56.1336 0
226.503 54.2697 0
228.087 49.5275 0
174.317 4.11336 0
179.131 5.46385 0
485.062 31.1448 0
483.1 26.5458 0
306.394 18.0401 0
311.299 17.0676 0
424.627 8.54741 0
419.864 10.0682 0
104.955 10.3891 0
109.871 11.2958 0
370.386 33.1712 0
374.082 29.8036 0
429.34 48.088 0
432.623 51.8591 0
84.6789 18.8594 0
89.6783 18.9218 0
432.667 55.3469 0
429.763 59.4173 0
387.118 34.2115 0
389.757 29.9645 0
324.232 44.5566 0
320.518 41.2085 0
65.2459 4.2608 0
63.9476 9.08944 0
122.448 24.64 0
127.44 24.9348 0
491.987 47.1328 0
488.668 50.8717 0
167.331 31.0079 0
171.568 28.3533 0
357.999 39.6005 0
359.769 44.2764 0
300.047 45.154 0
297.823 49.6322 0
271.195 12.5562 0
271.947 7.61303 0
175.1 24.7614 0
177.709 20.4963 0
380.407 9.00969 0
375.431 8.51721 0
71.6399 17.0969 0
76.3901 15.5369 0
160.024 18.9947 0
162.634 14.7303 0
342.43 19.5778 0
338.461 22.6197 0
219.026 30.4694 0
224.003 30.9437 0
378.802 26.0795 0
383.709 27.0376 0
137.354 27.1896 0
134.579 23.0301 0
30.0653 51.9483 0
34.9527 50.8907 0
84.0103 48.1214 0
79.034 48.613 0
479.364 55.5622 0
482.622 51.7691 0
316.308 46.5372 0
319.6 50.3005 0
130.599 8.16546 0
129.292 3.33918 0
70.9361 32.2112 0
67.4147 35.7609 0
83.3217 21.5379 0
79.6903 18.101 0
491.448 23.8676 0
492.47 28.7622 0
376.453 20.6694 0
371.641 19.3115 0
184.139 27.552 0
186.822 31.7711 0
432.118 39.6523 0
428.532 36.1678 0
494.435 34.4948 0
489.59 35.7292 0
213.296 41.1752 0
210.65 36.9324 0
334.885 35.4861 0
339.824 36.2615 0
314.46 14.9631 0
311.734 10.7718 0
380.689 6.33464 0
385.437 4.76626 0
341.762 44.8759 0
342.972 40.0243 0
144.788 30.9155 0
146.999 26.431 0
297.062 2.5103 0
300.312 6.30951 0
484.924 29.9253 0
480.886 32.874 0
268.956 44.8804 0
273.835 45.9746 0
238.403 15.3063 0
241.801 18.9739 0
446.574 45.7459 0
441.661 46.6765 0
181.09 37.2803 0
183.308 32.7992 0
326.863 7.02635 0
331.333 9.26687 0
157.923 44.3034 0
159.444 39.5401 0
195.859 13.3031 0
194.856 18.2017 0
160.199 20.3189 0
155.264 19.5158 0
248.416 22.057 0
253.171 20.5104 0
335.788 7.52536 0
333.111 11.7482 0
2.06002 57.0848 0
0.316529 52.3986 0
130.79 27.9645 0
134.414 24.5199 0
108.023 57.2579 0
113.014 56.9364 0
389.045 8.15909 0
384.082 8.77113 0
322.417 14.8125 0
326.114 11.4462 0
102.809 50.5226 0
97.9762 49.2387 0
487.698 53.9211 0
488.994 49.092 0
247.197 33.2624 0
243.404 36.5203 0
167.949 13.5647 0
166.654 18.3941 0
175.511 10.4509 0
172.325 6.59762 0
173.54 7.73114 0
169.679 10.9081 0
149.433 41.92 0
153.044 38.4609 0
19.4535 7.58752 0
21.6167 12.0954 0
81.5602 23.4109 0
83.8298 18.9557 0
452.861 23.1562 0
451.143 18.4607 0
108.351 20.4544 0
104.762 16.9737 0
312.776 34.7749 0
313.063 29.7831 0
106.023 47.126 0
101.185 48.3884 0
472.962 18.4722 0
469.294 15.0738 0
269.554 47.0502 0
264.904 48.8868 0
364.614 0.760603 0
362.809 5.42364 0
113.599 52.832 0
118.592 53.1093 0
414.257 46.4087 0
409.371 45.3448 0
316.457 14.9976 0
318.93 19.3433 0
446.928 8.10118 0
451.394 5.85279 0
75.2957 47.3182 0
71.7037 43.8399 0
40.3935 40.6976 0
35.3953 40.8438 0
143.052 29.7552 0
141.38 34.4676 0
159.19 16.4028 0
162.954 19.6941 0
219.454 29.7322 0
216.719 33.9178 0
465.978 17.4101 0
461.416 15.3635 0
420.831 35.0685 0
416.164 33.2737 0
47.152 25.6681 0
52.0232 26.7953 0
336.028 19.4661 0
340.806 20.9381 0
94.3503 12.1024 0
99.2587 11.1517 0
52.0262 44.5067 0
53.6934 39.7929 0
307.994 2.06417 0
303.057 2.85223 0
60.1574 0.354373 0
65.1567 0.353672 0
212.533 24.4886 0
217.041 26.6513 0
72.2356 48.4624 0
68.2073 45.5001 0
443.697 14.9859 0
438.803 16.01 0
479.101 40.725 0
483.925 39.4076 0
370.083 58.0159 0
374.944 56.8445 0
183.911 46.5929 0
183.016 41.6737 0
35.8391 13.8676 0
34.9197 8.95278 0
35.0338 18.3184 0
39.2067 15.5643 0
371.288 26.5833 0
368.892 22.1946 0
116.961 50.5981 0
119.753 54.7455 0
362.2 10.2645 0
363.054 15.1911 0
10.6687 38.8487 0
5.82106 40.0745 0
167.784 48.542 0
167.437 53.5298 0
484.556 17.3392 0
480.622 20.4255 0
33.6084 50.318 0
38.5553 49.5872 0
157.806 34.4969 0
152.909 33.485 0
430.777 16.1109 0
434.013 19.9229 0
134.434 3.07256 0
139.391 2.42434 0
49.7468 18.8909 0
50.3615 13.9288 0
145.445 11.3129 0
142.82 7.0574 0
421.749 51.5139 0
423.65 46.8893 0
225.099 53.5275 0
222.33 57.691 0
425.119 38.5881 0
429.73 36.6546 0
113.752 13.4148 0
108.948 12.0288 0
72.6139 8.46403 0
67.6151 8.38591 0
489.43 24.2735 0
493.911 22.0551 0
21.5824 23.0725 0
20.2868 27.9017 0
367.682 32.3439 0
365.367 36.7755 0
351.653 54.5371 0
354.43 58.6948 0
273.347 43.4077 0
277.542 46.1271 0
365.527 18.5693 0
362.81 14.3722 0
228.835 45.3601 0
225.327 41.7975 0
445.89 26.431 0
441.179 28.1079 0
175.917 28.2702 0
180.066 31.0593 0
381.149 37.3576 0
383.481 32.9347 0
123.582 23.7375 0
124.462 18.8155 0
74.4806 41.5497 0
77.0912 45.8141 0
353.15 20.9413 0
355.994 25.0543 0
396.688 57.3164 0
391.689 57.1855 0
161.19 41.3809 0
164.847 37.9707 0
6.01325 35.3491 0
7.24468 40.195 0
317.987 22.8941 0
322.574 24.8835 0
117.438 17.1754 0
120.203 13.0096 0
283.362 40.4861 0
283.686 35.4966 0
436.444 19.4736 0
441.444 19.4443 0
18.735 3.62742 0
23.2533 1.48756 0
251.767 10.1456 0
248.813 14.1792 0
123.041 25.7586 0
118.203 27.0196 0
412.654 31.8906 0
416.808 29.1072 0
166.739 33.4196 0
167.413 38.3738 0
221.513 54.7993 0
216.521 54.5208 0
282.641 43.3744 0
278.07 45.402 0
344.443 18.354 0
339.444 18.4514 0
184.756 29.2631 0
187.479 25.07 0
427.894 8.51348 0
423.103 7.08107 0
267.235 55.965 0
262.268 55.3934 0
122.602 14.3464 0
118.036 16.3831 0
348.639 22.0191 0
351.636 26.0219 0
346.037 29.9433 0
341.15 31.0007 0
278.109 41.8873 0
282.939 40.5963 0
476.014 45.8367 0
474.394 41.1064 0
468.128 31.4466 0
463.6 33.566 0
115.132 44.9001 0
120.119 44.5292 0
321.863 14.4793 0
318.468 10.8088 0
89.5582 19.1619 0
85.8534 22.5195 0
218.513 12.0813 0
219.148 17.0408 0
313.506 7.89816 0
310.133 11.5885 0
280.436 29.4039 0
276.023 31.7544 0
54.7718 59.5054 0
56.5557 54.8346 0
103.762 5.88912 0
108.621 7.06686 0
150.896 52.6171 0
146.488 54.9786 0
344.173 24.8264 0
343.943 29.8211 0
376.944 25.4642 0
372.038 24.4977 0
98.2631 4.31844 0
100.294 8.88764 0
250.617 48.8108 0
246.481 46.0007 0
256.492 31.0424 0
260.224 34.3691 0
377.837 49.9409 0
379.411 54.6867 0
382.44 53.2673 0
387.282 52.0167 0
293.849 6.3158 0
291.006 2.20248 0
121.337 46.2298 0
118.01 49.9628 0
68.5598 44.4856 0
63.562 44.6456 0
489.582 32.8703 0
491.791 28.3849 0
327.768 40.1555 0
330.655 44.2376 0
487.82 44.3819 0
492.666 45.6113 0
458.93 21.2085 0
463.928 21.3523 0
346.536 12.99 0
342.338 10.2732 0
285.719 19.2218 0
290.55 17.9346 0
135.33 15.5522 0
137.122 10.8845 0
183.065 36.5084 0
178.203 35.3413 0
259.376 18.0378 0
263.585 20.7365 0
207.839 23.1686 0
211.88 20.2239 0
247.078 28.7942 0
251.861 30.2517 0
350.235 56.1007 0
355.163 55.2516 0
425.941 51.6274 0
428.739 55.771 0
30.4624 13.3297 0
31.3937 8.41701 0
148.672 7.55335 0
143.704 8.10787 0
242.692 8.35378 0
241.356 13.1719 0
227.618 4.54195 0
224.055 1.03524 0
62.5234 38.6873 0
62.0075 43.6605 0
95.8747 7.33266 0
99.883 4.34419 0
73.0625 29.6434 0
68.3606 27.9429 0
146.955 16.2568 0
149.024 20.8088 0
326.156 39.5395 0
322.883 43.3192 0
72.1095 26.6423 0
70.2241 22.0114 0
49.6153 34.6774 0
49.3318 29.6854 0
464.242 4.12842 0
468.01 7.41602 0
338.954 39.6655 0
341.605 35.426 0
209.523 5.26486 0
205.406 2.42801 0
110.802 16.3994 0
107.739 12.4475 0
145.013 47.0922 0
150.007 47.3279 0
144.389 22.7224 0
148.926 20.6204 0
180.265 38.0019 0
175.445 36.6733 0
214.662 13.4944 0
209.903 15.0254 0
16.0467 54.05 0
21.0437 53.8582 0
175.218 2.41316 0
170.431 0.970459 0
73.2556 15.2299 0
72.5086 20.1739 0
71.5785 56.1848 0
76.4573 57.2817 0
363.712 54.9035 0
368.68 54.3379 0
445.577 41.3988 0
450.286 43.0792 0
433.564 54.4607 0
432.093 59.2397 0
454.128 29.7589 0
458.101 26.7243 0
261.063 23.0915 0
257.09 26.1277 0
279.076 45.6733 0
284.052 45.1824 0
268.069 12.1629 0
265.719 7.74969 0
277.406 56.3574 0
273.686 59.6992 0
491.87 54.8682 0
487.434 52.5616 0
120.936 30.9689 0
116.178 32.5069 0
38.2489 2.6443 0
33.3989 3.85707 0
185.671 39.9684 0
185.026 44.9266 0
325.223 11.243 0
323.415 6.58123 0
139.886 11.0857 0
139.682 16.0817 0
170.857 40.6961 0
170.154 35.7458 0
42.3794 3.73799 0
46.9702 5.71754 0
159.517 9.47477 0
155.231 6.89929 0
458.964 9.93464 0
463.474 7.77604 0
87.2368 45.5048 0
84.2776 49.5352 0
96.4536 6.28101 0
93.5158 2.23524 0
146.501 45.4826 0
141.502 45.5516 0
397.145 43.3097 0
402.143 43.4503 0
63.0067 35.5848 0
63.7213 30.6362 0
404.067 8.42133 0
399.463 6.47199 0
57.8608 6.35802 0
54.6062 10.1536 0
74.7144 56.2193 0
75.8672 51.3541 0
379.874 30.5194 0
378.404 25.7403 0
439.599 45.0682 0
442.596 41.0659 0
73.0171 29.5386 0
78.0098 29.2696 0
32.967 38.0168 0
31.0962 33.3801 0
344.12 39.5772 0
348.488 42.0093 0
397.835 48.4262 0
399.889 52.9849 0
482.637 51.2264 0
486.773 54.0359 0
343.985 50.4093 0
341.915 54.9608 0
478.452 8.82195 0
474.811 12.2488 0
25.5306 23.6868 0
30.1302 25.647 0
28.7166 51.6959 0
28.6503 56.6953 0
361.93 31.8125 0
366.926 32.0137 0
335.221 6.98725 0
330.258 7.59032 0
258.413 4.10668 0
253.753 2.29519 0
324.571 32.6096 0
324.767 37.6057 0
489.15 54.4349 0
484.681 56.6761 0
250.142 9.39729 0
253.97 12.6135 0
226.094 55.8019 0
230.773 54.0377 0
328.219 2.17421 0
323.235 1.78313 0
475.883 10.9881 0
480.075 13.7127 0
134.2 35.7397 0
129.485 37.4032 0
311.004 45.5607 0
306.918 42.6788 0
28.8047 37.5273 0
30.8856 32.9809 0
422.899 19.1103 0
425.97 23.0562 0
214.163 30.5484 0
217.658 34.1235 0
488.587 4.11903 0
493.529 4.87346 0
413.17 59.2345 0
410.632 54.9263 0
495.522 26.0048 0
498.106 21.7245 0
109.605 9.01471 0
105.802 12.2599 0
198.777 3.12987 0
194.65 5.9521 0
396.291 52.976 0
397.971 48.2666 0
425.084 7.62988 0
420.177 6.66901 0
129.288 48.4138 0
130.612 53.2353 0
247.233 55.6537 0
242.787 57.9418 0
230.492 51.077 0
227.325 47.2076 0
57.274 41.0785 0
61.8483 43.0979 0
467.384 49.2526 0
472.068 47.503 0
271.837 17.875 0
270.732 12.9986 0
472.125 35.4467 0
469.999 39.9722 0
347.721 38.8741 0
351.949 36.2048 0
108.411 5.01553 0
113.315 4.04468 0
50.9405 56.0247 0
52.8082 51.3866 0
267.63 8.57958 0
269.937 4.14326 0
173.535 21.18 0
176.9 17.4819 0
204.328 53.9536 0
199.6 52.3269 0
115.856 51.9387 0
114.447 47.1416 0
260.509 34.3776 0
261.926 39.1727 0
489.742 11.8633 0
487.783 16.4638 0
281.605 18.464 0
282.124 23.4371 0
111.13 27.3745 0
110 22.5038 0
420.366 33.3368 0
416.388 30.3077 0
33.4493 36.0022 0
36.3258 31.9124 0
255.596 13.818 0
254.896 8.86706 0
284.321 55.6541 0
287.119 51.5103 0
179.212 34.0235 0
180.116 29.1058 0
468.168 46.129 0
471.999 42.9162 0
55.6278 6.43438 0
50.6912 7.22439 0
405.262 0.327276 0
410.049 1.77056 0
372.566 31.4834 0
370.772 26.8166 0
447.938 39.7683 0
447.514 44.7503 0
412.419 46.7567 0
407.557 45.592 0
152.586 7.73781 0
156.975 5.34271 0
224.074 32.9522 0
228.264 30.2237 0
188.52 14.6593 0
186.857 9.94377 0
347.467 26.1611 0
352.227 24.6327 0
75.0459 25.6333 0
79.6897 23.7802 0
372.557 43.4768 0
372.262 48.4681 0
119.955 49.1647 0
124.28 51.6735 0
23.5278 39.9085 0
19.1765 42.3721 0
174.345 13.2778 0
177.24 9.20113 0
373.912 34.2508 0
369.563 36.7178 0
71.3779 22.5234 0
76.124 24.0961 0
264.22 37.7953 0
266.912 42.0089 0
0.0581347 18.4795 0
4.15025 15.6068 0
20.3612 42.194 0
20.2087 37.1964 0
159.915 57.6608 0
164.635 59.3115 0
16.6366 50.1381 0
21.5633 50.9945 0
417.791 8.37742 0
417.62 13.3745 0
212.956 1.20044 0
217.924 0.638028 0
55.3894 34.8199 0
53.6269 30.1409 0
337.431 42.9652 0
341.512 45.8535 0
175.931 14.8111 0
170.937 14.5762 0
426.178 43.5015 0
428.328 38.9872 0
143.467 58.6853 0
145.547 54.1384 0
269.533 32.0234 0
273.067 35.5601 0
255.706 19.9996 0
250.776 20.8313 0
339.505 36.5736 0
338.344 41.4369 0
361.463 16.4029 0
357.598 13.2309 0
266.234 25.8016 0
269.658 22.1578 0
355.109 17.0485 0
350.385 15.4103 0
10.9987 15.1874 0
15.118 18.0209 0
191.808 5.17318 0
194.535 9.36367 0
334.905 46.7249 0
330.069 47.9928 0
466.528 55.1804 0
467.708 50.3215 0
140.818 3.62734 0
145.298 1.40638 0
19.9847 52.1215 0
21.5386 47.3691 0
465.126 21.6821 0
467.929 25.8223 0
482.587 35.6955 0
477.59 35.8704 0
285.84 27.6521 0
289.005 23.781 0
317.83 25.834 0
322.252 23.5006 0
354.178 4.80224 0
349.653 2.67612 0
130.377 52.8484 0
128.323 48.2896 0
152.064 2.29996 0
147.503 4.34637 0
354.183 5.48564 0
353.362 10.4178 0
459.633 42.4411 0
461.285 37.7218 0
461.676 27.4313 0
465.809 24.6164 0
460.547 22.379 0
456.655 25.518 0
271.553 49.8821 0
272.541 54.7835 0
216.357 41.8009 0
217.227 36.8772 0
5.6967 51.1716 0
9.21874 54.7209 0
119.281 34.2786 0
124.262 33.8464 0
365.204 35.7405 0
364.285 30.8257 0
387.93 53.6806 0
387.199 58.6268 0
356.64 39.0846 0
360.578 36.0028 0
381.81 44.9954 0
385.906 47.8629 0
204.24 16.3249 0
208.833 14.3486 0
135.855 33.2514 0
131.457 30.8726 0
315.097 28.4601 0
312.923 23.9575 0
187.126 38.1867 0
190.272 34.3005 0
366.227 8.77272 0
363.558 13.0007 0
219.556 17.2739 0
224.543 16.9231 0
76.09 50.5174 0
73.7718 46.0873 0
271.819 32.8815 0
275.14 29.1437 0
8.792 39.9379 0
3.82913 40.5484 0
336.231 30.8931 0
337.761 35.6533 0
186.276 18.5795 0
181.277 18.5237 0
465.901 9.89058 0
470.636 11.497 0
306.083 6.13992 0
301.301 7.59879 0
28.5722 31.1362 0
29.3534 26.1975 0
247.435 43.3903 0
249.82 38.9961 0
274.656 20.3072 0
279.437 18.8437 0
72.8446 35.1809 0
76.6272 38.4509 0
311.234 15.92 0
309.848 11.1162 0
23.3184 40.6529 0
28.3162 40.4947 0
187.731 12.0268 0
186.237 7.25514 0
7.38302 8.70215 0
2.45565 9.54809 0
209.894 3.6349 0
206.405 0.0539759 0
482.66 27.7481 0
486.703 30.69 0
147.229 50.0978 0
146.739 55.0736 0
430.707 48.4838 0
428.292 44.1057 0
162.986 6.77731 0
158.135 5.56514 0
440.226 30.0666 0
437.967 34.5271 0
140.979 25.6328 0
141.254 30.6252 0
271.716 27.9054 0
267.664 30.8342 0
345.466 51.5776 0
341.769 48.211 0
24.1922 47.7736 0
22.0152 43.2725 0
308.705 6.2361 0
304.02 4.49233 0
68.5877 24.8369 0
73.54 24.1482 0
33.2072 43.5314 0
37.7464 41.4342 0
480.792 3.23364 0
485.598 1.85458 0
222.99 7.20433 0
224.144 12.0694 0
303.444 50.6121 0
298.448 50.8085 0
129.06 42.3517 0
130.368 47.1776 0
248.582 27.2303 0
252.157 30.7268 0
19.1196 41.1266 0
23.0775 38.071 0
36.6702 44.5121 0
31.6852 44.1195 0
467.946 7.23089 0
472.439 5.03603 0
119.198 26.2316 0
114.205 26.4987 0
228.827 16.1707 0
230.814 11.5824 0
138.634 11.4463 0
143.443 12.8127 0
328.077 44.5938 0
332.963 45.6546 0
456.402 28.7038 0
452.681 32.043 0
346.377 41.2138 0
345.309 36.3292 0
45.6208 27.4384 0
47.3658 32.124 0
480.783 12.6216 0
475.792 12.3303 0
75.2718 21.7463 0
75.7536 26.7231 0
17.3773 14.2323 0
15.672 9.53202 0
350.338 47.6562 0
353.667 43.9259 0
75.0892 21.8225 0
70.5664 19.6912 0
153.346 42.5174 0
154.676 47.3374 0
468.816 36.6616 0
472.271 33.047 0
278.335 14.9535 0
283.301 15.5348 0
483.709 35.9429 0
481.421 40.3891 0
456.371 21.0221 0
460.73 18.5735 0
337.566 34.9839 0
337.378 39.9804 0
49.2812 46.0031 0
50.9241 41.2808 0
157.633 57.5009 0
153.911 54.1618 0
71.4217 44.6961 0
66.498 43.824 0
237.9 23.6752 0
238.591 28.6271 0
243.407 22.6885 0
243.624 27.6838 0
133.453 51.6022 0
130.488 47.5763 0
1.81817 5.66944 0
0.27766 10.4262 0
379.484 35.3378 0
376.213 39.1193 0
262.418 31.5671 0
261.621 36.5032 0
487.158 5.97065 0
486.293 1.04602 0
468.814 39.2411 0
468.62 44.2374 0
145.359 32.525 0
149.952 34.5018 0
446.654 23.7421 0
451.158 21.5704 0
459.244 16.3509 0
463.807 14.307 0
259.083 12.4971 0
254.77 9.96698 0
391.562 11.5054 0
392.69 16.3766 0
102.416 15.0679 0
97.6261 13.6363 0
100.648 1.5912 0
105.565 0.688456 0
60.9037 40.6699 0
65.401 42.8554 0
122.535 10.0504 0
126.873 7.56374 0
438.969 12.627 0
439.283 17.6172 0
462.109 33.1293 0
466.28 35.8871 0
114.674 44.5395 0
109.891 43.0799 0
138.971 36.3153 0
143.129 33.5384 0
341.641 56.9129 0
342.919 52.0791 0
437.611 32.5631 0
437.273 37.5517 0
75.8871 24.6672 0
71.7376 21.878 0
87.6748 9.44418 0
82.6753 9.43711 0
303.114 11.4151 0
306.497 15.0962 0
16.7496 40.9532 0
13.8436 36.8844 0
303.645 1.39798 0
298.745 0.402706 0
355.508 10.8413 0
360.33 12.1628 0
159.832 56.9862 0
164.628 55.5714 0
270.568 31.4607 0
270.419 26.4629 0
1.1761 32.9638 0
5.85944 31.2126 0
142.879 15.9512 0
138.118 14.4236 0
32.3426 37.1758 0
32.5095 42.1729 0
1.63357 40.7222 0
2.31324 45.6758 0
369.512 7.59584 0
367.769 2.90968 0
220.134 12.5538 0
223.178 16.5206 0
381.924 39.7299 0
385.957 36.7753 0
416.9 30.6031 0
420.565 34.0051 0
143.565 4.41034 0
146.064 8.74082 0
49.9149 6.7308 0
44.9389 7.21398 0
428.023 44.1653 0
430.656 48.4162 0
66.8868 38.8115 0
67.8858 33.9123 0
46.8008 12.2946 0
51.4188 10.3788 0
212.439 31.0978 0
211.828 26.1354 0
175.597 11.5631 0
177.914 15.9937 0
471.161 29.1268 0
469.056 33.6621 0
50.6951 14.7594 0
48.2016 10.4256 0
119.321 55.1339 0
114.621 53.4284 0
248.943 32.5899 0
251.711 28.4255 0
158.134 51.487 0
157.032 46.6099 0
149.162 43.2446 0
154.133 43.7829 0
115.228 23.7038 0
114.099 18.8329 0
65.0976 18.913 0
62.584 14.5907 0
250.055 13.1795 0
249.877 8.1826 0
302.365 11.43 0
306.946 13.4321 0
494.995 42.7594 0
497.845 38.6513 0
65.8351 49.9575 0
65.8671 54.9573 0
283.743 18.2274 0
288.215 20.4632 0
249.223 12.7957 0
252.23 8.80097 0
139.86 29.2732 0
139.183 24.3193 0
232.758 14.1213 0
237.55 15.5473 0
339.57 52.2145 0
341.254 56.9223 0
294.393 54.1111 0
298.945 52.0405 0
46.6046 26.1623 0
42.9485 29.573 0
16.8959 22.4889 0
13.1072 19.2264 0
71.3634 30.2279 0
75.7401 32.6454 0
422.635 19.367 0
427.274 17.5028 0
368.105 27.5424 0
371.54 23.9089 0
30.0271 31.4959 0
26.3179 34.8488 0
422.205 6.24884 0
418.705 9.81978 0
180.182 39.9078 0
184.833 38.0724 0
410.581 40.9169 0
415.154 42.9396 0
31.9084 3.90923 0
36.0753 1.14645 0
206.078 39.6815 0
207.405 44.5021 0
311.19 19.8736 0
312.856 24.5879 0
35.4 22.6653 0
39.6366 20.0102 0
445.801 13.4463 0
446.848 18.3353 0
289.218 24.6347 0
292.992 21.3549 0
340.192 20.7184 0
340.682 15.7424 0
28.8366 25.2653 0
32.5172 28.6495 0
115.949 33.277 0
113.775 28.7742 0
426.27 36.6396 0
427.734 31.8589 0
86.9694 0.0741495 0
91.2031 2.73335 0
212.286 54.4734 0
216.533 51.835 0
21.9616 31.9857 0
22.8702 27.0689 0
277.78 33.7228 0
274.838 37.7658 0
217.383 25.4398 0
217.198 30.4364 0
494.687 17.8362 0
498.302 14.3826 0
91.5863 52.7345 0
95.5407 49.6741 0
170.837 45.6657 0
167.778 41.7107 0
140.527 52.6182 0
136.328 49.9029 0
267.116 17.6145 0
262.143 17.098 0
104.85 57.6635 0
100.274 55.6468 0
396.697 7.68595 0
397.511 12.6193 0
468.216 11.9138 0
465.099 15.8232 0
350.14 12.8537 0
353.661 9.30393 0
229.287 51.9658 0
234.259 51.4365 0
227.548 3.30538 0
230.933 6.98486 0
11.437 11.5991 0
11.9549 6.62579 0
287.076 53.7953 0
291.244 56.5569 0
211.373 44.2156 0
215.931 46.2698 0
407.386 12.595 0
402.473 11.6668 0
465.778 28.8081 0
463.344 33.1753 0
231.18 7.40699 0
234.949 10.6921 0
365.777 44.5167 0
366.324 49.4867 0
218.103 31.9002 0
218.736 26.9405 0
149.55 50.2878 0
144.591 49.6449 0
61.0542 6.73825 0
56.842 4.04512 0
341.266 9.26152 0
345.241 6.2287 0
163.935 11.817 0
159.043 10.786 0
392.518 12.2929 0
397.365 13.5186 0
9.4496 42.2664 0
4.46817 42.701 0
129.358 53.8685 0
130.134 48.9293 0
14.3385 45.4534 0
12.9137 50.246 0
365.787 42.628 0
365.411 47.6138 0
344.838 32.2617 0
343.44 27.461 0
411.088 57.8687 0
406.312 59.3469 0
464.444 59.4872 0
462.224 55.007 0
264.697 33.31 0
268.835 36.1177 0
433.179 8.28495 0
435.296 12.8147 0
344.415 7.18486 0
339.984 4.86962 0
412.478 14.8327 0
417.048 16.8617 0
308.3 12.3686 0
311.959 8.96083 0
69.5308 14.1774 0
68.4553 19.0604 0
430.907 2.92618 0
425.921 3.29271 0
114.762 15.1168 0
112.084 10.8948 0
167.987 0.479588 0
164.715 4.25989 0
68.3436 52.7515 0
69.4511 47.8758 0
172.356 58.5773 0
167.375 59.0142 0
272.093 56.1254 0
271.324 51.1851 0
256.581 9.02213 0
261.411 10.3136 0
143.966 49.5527 0
148.934 48.9818 0
305.924 41.3753 0
309.64 44.7212 0
151.16 1.85952 0
156.151 2.15949 0
219.737 19.1761 0
219.199 24.1472 0
330.436 21.6975 0
327.248 25.5498 0
422.109 27.1301 0
421.695 22.1472 0
284.801 41.5857 0
288.405 45.0508 0
67.6637 28.0703 0
62.8433 26.7427 0
300.464 12.3731 0
297.921 16.678 0
284.412 25.5978 0
281.758 29.8353 0
100.457 59.5251 0
95.5412 58.6064 0
50.6847 35.576 0
47.0711 32.1203 0
105.805 42.9711 0
110.789 42.5759 0
289.396 19.1942 0
291.811 23.5722 0
176.947 24.4532 0
172.547 26.8271 0
145.493 56.3129 0
140.492 56.2634 0
323.235 58.3654 0
318.684 56.2937 0
379.882 10.0726 0
384.476 12.045 0
203.713 1.07938 0
202.151 5.82928 0
274.617 21.8149 0
273.145 26.5935 0
119.051 13.9999 0
119.508 18.979 0
260.347 44.5701 0
256.157 47.2982 0
498.334 37.0125 0
497.805 32.0407 0
447.423 0.824196 0
443.015 3.18365 0
264.261 40.4094 0
265.247 45.3112 0
382.197 37.558 0
380.032 42.0653 0
57.2986 13.9386 0
62.0946 15.351 0
495.502 38.554 0
499.169 41.9527 0
466.339 15.0144 0
463.202 11.121 0
440.179 29.5658 0
440.033 24.5679 0
112.941 41.8624 0
108.97 44.9004 0
272.007 41.5763 0
276.455 43.8599 0
409.613 34.7958 0
412.883 38.5775 0
307.202 47.7235 0
311.69 49.9288 0
22.5527 57.4033 0
27.3887 56.1306 0
136.497 37.6643 0
140.322 40.8852 0
97.8228 13.262 0
93.1778 11.4126 0
54.563 30.7224 0
50.5102 27.7942 0
269.307 1.31127 0
271.505 5.80258 0
415.881 34.7328 0
416.012 39.731 0
27.884 54.4899 0
22.9386 53.7484 0
463.667 25.1612 0
468.604 24.3706 0
435.404 18.0617 0
438.358 22.0953 0
387.051 5.74637 0
390.355 9.49972 0
371.364 11.3871 0
375.502 14.1931 0
235.652 6.25578 0
231.174 4.03242 0
372.621 8.39929 0
369.131 4.81897 0
448.915 40.026 0
444.771 42.8238 0
313.24 17.137 0
317.235 14.1296 0
493.554 5.62176 0
488.566 5.2817 0
126.107 43.0642 0
121.694 40.7128 0
75.8291 33.6226 0
73.8719 38.2236 0
414.992 10.222 0
410.04 10.9086 0
177.583 2.93401 0
182.574 3.21749 0
389.484 14.5204 0
385.52 17.5675 0
437.564 45.7728 0
434.433 41.8753 0
181.029 0.953549 0
176.476 3.01906 0
344.457 57.1464 0
349.343 58.2074 0
469.901 46.413 0
471.531 51.1399 0
358.472 26.024 0
361.892 22.3767 0
263.743 42.2761 0
259.687 45.1996 0
67.4952 42.9683 0
63.9088 46.4526 0
438.709 25.5246 0
440.462 30.2071 0
285.361 47.5257 0
289.17 44.2873 0
287.661 20.4082 0
284.616 24.3741 0
290.664 8.1633 0
285.742 9.03976 0
196.992 15.8706 0
194.614 11.4726 0
148.147 38.5039 0
151.741 41.9802 0
227.024 47.8616 0
231.61 49.8531 0
91.1882 5.74989 0
92.6768 10.5233 0
60.4815 20.0668 0
61.2708 25.0042 0
210.054 15.3317 0
205.054 15.3584 0
341.312 46.2457 0
344.896 42.7593 0
42.6184 33.0736 0
46.4323 29.8402 0
184.539 10.8535 0
179.539 10.8623 0
164.366 24.9006 0
168.311 27.9719 0
235.659 17.9326 0
235.062 12.9684 0
342.836 15.7178 0
338.232 17.6677 0
83.3047 43.6071 0
78.553 45.1641 0
446.031 51.851 0
445.668 46.8642 0
268.44 18.5619 0
264.907 22.1005 0
172.662 33.4527 0
168.654 30.4638 0
240.084 43.9701 0
244.627 41.881 0
308.543 53.7739 0
304.988 50.2584 0
344.791 54.8991 0
349.382 52.9176 0
149.761 43.4467 0
147.552 38.9612 0
367.742 4.94889 0
363.111 3.06249 0
411.523 3.95141 0
406.523 4.02029 0
309.263 44.9612 0
312.738 48.5563 0
485.91 34.7715 0
481.484 32.4458 0
438.446 44.1315 0
439.72 48.9665 0
80.8055 19.5165 0
82.5112 14.8164 0
160.203 58.1451 0
155.59 56.2152 0
315.007 8.10017 0
310.074 7.28853 0
71.8215 53.0275 0
73.3784 48.2762 0
124.973 12.4866 0
127.003 7.91711 0
238.583 12.298 0
235.976 8.03143 0
151.613 40.6931 0
153.958 36.277 0
176.629 33.9558 0
176.68 38.9555 0
116.077 44.641 0
120.305 41.9715 0
229.7 14.0696 0
230.436 9.12398 0
42.4412 44.8181 0
45.6514 48.6516 0
152.637 48.9532 0
152.959 43.9637 0
173.466 24.8982 0
168.808 23.0814 0
291.052 40.832 0
290.418 35.8724 0
4.28919 6.86199 0
2.95046 2.04449 0
48.0235 56.0582 0
44.3065 52.7136 0
441.567 22.7567 0
446.421 21.5573 0
433.451 47.6915 0
436.87 51.3393 0
441.233 48.0726 0
440.692 53.0433 0
16.3261 59.0087 0
11.398 59.8585 0
180.598 49.4606 0
182.264 44.7464 0
335.491 25.9633 0
331.535 29.0199 0
378.345 52.9435 0
377.851 57.9189 0
399.784 57.5558 0
399.943 52.5583 0
488.495 27.976 0
485.242 31.7734 0
228.321 24.9134 0
232.515 22.1924 0
441.986 44.4877 0
437.958 41.5256 0
66.4132 56.4661 0
62.3062 53.6137 0
458.902 38.3068 0
455.649 34.5097 0
31.4624 58.3624 0
35.0488 54.878 0
432.885 12.6116 0
436.909 9.64424 0
145.874 44.5512 0
144.34 49.31 0
8.02093 46.9711 0
10.8248 51.1111 0
125.594 23.237 0
130.434 21.9842 0
465.914 49.7965 0
463.948 45.1994 0
7.17553 34.7 0
2.18459 34.3969 0
331.88 38.6095 0
336.733 39.8148 0
299.912 2.70934 0
298.863 7.59808 0
407.446 22.6302 0
404.2 18.8271 0
241.256 39.4947 0
244.272 43.4825 0
197.219 46.7565 0
193.203 49.7347 0
251.34 28.525 0
256.333 28.2546 0
48.0693 36.7331 0
45.043 40.7133 0
445.083 51.6413 0
442.788 56.0835 0
143.306 32.1243 0
148.295 31.7915 0
189.045 12.8945 0
192.191 9.0089 0
200.762 19.1776 0
205.749 19.5276 0
49.7106 34.6712 0
45.7829 31.5772 0
253.973 9.49476 0
249.869 12.3506 0
140.518 19.7333 0
135.981 21.833 0
391.561 0.01987 0
392.785 4.86755 0
495.705 57.1522 0
495.171 52.1809 0
492.772 33.7512 0
491.166 38.4864 0
426.374 30.0795 0
422.477 26.9467 0
386.954 35.9534 0
383.968 39.9638 0
478.067 42.5502 0
481.992 39.4525 0
126.305 25.6511 0
123.25 29.6092 0
61.033 21.223 0
65.622 23.2078 0
205.101 53.0968 0
210.09 52.7659 0
415.909 37.9961 0
416.724 33.063 0
41.8587 6.77514 0
44.8171 10.8059 0
221.154 12.5417 0
221.645 7.56577 0
14.2776 4.1701 0
10.9053 7.86138 0
208.109 22.433 0
212.768 24.2473 0
349.899 13.2502 0
352.07 17.7544 0
386.784 20.5207 0
391.662 19.4215 0
277.893 29.6537 0
275.327 33.9452 0
459.749 11.5702 0
464.701 10.8795 0
131.488 54.1245 0
133.301 58.7844 0
421.469 26.4969 0
424.583 30.4092 0
63.9947 43.8859 0
61.9681 39.3151 0
44.8136 55.09 0
40.0288 53.6368 0
124.642 12.1151 0
123.54 7.2381 0
336.649 44.7728 0
341.624 45.2755 0
473.222 0.745385 0
478.218 0.547825 0
253.631 36.3232 0
254.681 41.2117 0
302.151 11.7555 0
307.023 12.8774 0
422.682 53.656 0
417.696 53.2891 0
263.527 42.7848 0
268.482 43.4574 0
173.66 31.4786 0
169.408 34.1091 0
433.66 37.4764 0
428.715 36.7382 0
11.3628 42.427 0
8.18383 38.5676 0
210.256 47.0111 0
211.079 51.943 0
167.187 28.9882 0
172.185 28.8465 0
257.143 0.486408 0
255.461 5.19494 0
411.801 32.1818 0
414.625 28.0558 0
323.898 26.775 0
320.223 30.1655 0
153.666 23.5681 0
158.483 24.9079 0
2.02914 23.2433 0
3.97479 18.6374 0
281.301 31.3673 0
282.165 26.4425 0
414.682 23.5251 0
410.91 20.2436 0
116.933 14.2631 0
112.124 12.8971 0
312.501 16.7416 0
311.226 11.9068 0
252.349 30.8618 0
247.553 29.4481 0
192.567 50.3711 0
197.458 49.3301 0
61.8577 27.054 0
64.1745 22.6232 0
474.264 19.9426 0
474.03 24.9371 0
66.1475 57.042 0
67.1395 52.1415 0
465.591 11.1778 0
460.716 10.0674 0
249.036 22.9817 0
247.683 18.1683 0
230.905 13.016 0
231.2 18.0074 0
85.9026 35.0119 0
88.5494 30.7698 0
216.896 27.8 0
216.994 32.799 0
174.446 5.03962 0
169.472 5.54533 0
324.37 7.75693 0
326.887 12.0773 0
306.197 40.8978 0
310.74 42.9863 0
26.8127 10.1413 0
31.6893 11.2432 0
436.164 43.6127 0
441.071 42.6547 0
140.741 37.1121 0
145.334 35.1353 0
32.6188 8.95284 0
32.5657 13.9527 0
279.72 26.9195 0
275.077 25.064 0
263.1 53.8387 0
268.028 54.682 0
174.561 33.7546 0
169.562 33.8155 0
420.399 47.7439 0
415.698 49.4462 0
93.7926 15.7333 0
96.8821 11.802 0
460.579 19.7429 0
464.901 17.2285 0
220.438 48.9911 0
225.121 47.2367 0
47.3197 47.2392 0
42.3647 46.5663 0
357.456 38.1851 0
359.261 33.522 0
343.569 31.3019 0
346.086 35.6224 0
421.001 9.62773 0
417.563 5.99696 0
152.469 51.4073 0
149.827 47.1622 0
194.019 1.96696 0
198.698 3.72798 0
446.581 8.67985 0
442.218 6.23889 0
142.13 56.2821 0
138.277 53.0953 0
460.288 51.5015 0
461.776 46.728 0
81.6139 18.6993 0
80.3641 23.5406 0
296.512 43.1648 0
301.492 43.6164 0
154.407 40.964 0
158.8 38.5752 0
327.393 23.6583 0
325.938 28.4421 0
340.156 52.5892 0
340.7 47.6189 0
76.7625 59.5269 0
72.9492 56.2924 0
59.0163 11.0249 0
55.9974 15.0106 0
474.128 32.1658 0
471.386 27.9844 0
378.54 55.9993 0
375.829 51.7981 0
205.449 10.9517 0
201.04 8.5948 0
340.387 58.2886 0
338.552 53.6372 0
97.4675 14.1981 0
95.3717 9.65849 0
237.017 33.849 0
241.844 35.1532 0
466.578 53.1882 0
470.572 56.1963 0
299.519 54.7147 0
304.504 54.3212 0
338.381 59.2631 0
334.671 55.911 0
102.812 1.60483 0
107.72 0.653054 0
474.747 17.4564 0
477.035 13.0102 0
44.221 19.5109 0
49.1475 20.3634 0
150.785 47.8376 0
147.502 51.6094 0
273.766 32.1352 0
270.269 35.7083 0
432.123 -0.214408 0
428.267 2.96817 0
151.458 54.4565 0
154.682 50.6344 0
464.873 15.568 0
469.857 15.9676 0
458.551 28.2419 0
458.18 23.2557 0
478.315 54.631 0
483.303 54.2906 0
118.647 51.2972 0
121.751 47.3772 0
440.984 9.91538 0
445.964 10.3605 0
60.8456 59.1624 0
62.9992 54.65 0
169.482 45.2218 0
171.693 40.7373 0
58.2567 25.098 0
62.859 23.144 0
154.429 56.8733 0
159.283 58.0728 0
42.6586 50.7544 0
37.927 49.137 0
335.578 54.9595 0
340.463 53.894 0
265.612 54.5151 0
270.202 52.5334 0
431.888 24.6129 0
427.708 21.8693 0
359.052 24.4426 0
354.514 26.5416 0
434.188 47.3679 0
436.861 43.1423 0
348.977 1.54665 0
353.694 3.20534 0
138.158 1.42468 0
133.752 3.78902 0
114.098 30.8837 0
111.216 26.7979 0
177.588 40.3782 0
182.584 40.5682 0
39.8999 37.2065 0
40.8562 32.2988 0
78.6518 21.2286 0
82.4099 17.9308 0
300.328 5.03938 0
302.224 9.66597 0
38.3577 43.9489 0
43.3521 44.1935 0
37.4854 56.2819 0
36.3561 51.4112 0
294.889 20.5555 0
290.921 23.5986 0
349.542 40.7869 0
344.57 40.2623 0
493.144 55.8413 0
497.557 58.1915 0
172.73 20.9911 0
173.106 25.9771 0
353.952 3.31538 0
352.537 8.11097 0
223.05 32.8039 0
222.491 27.8353 0
156.18 50.0929 0
154.094 45.5485 0
357.947 46.9033 0
353.138 45.5358 0
368.505 11.8732 0
368.097 6.88978 0
176.369 48.9837 0
180.738 46.5514 0
18.9017 2.8118 0
23.4928 4.79052 0
490.107 30.3123 0
485.169 29.5272 0
28.8939 32.9422 0
32.4339 29.4111 0
163.516 14.9197 0
168.174 13.1035 0
369.915 34.9922 0
367.208 30.7879 0
422.852 41.4172 0
427.479 43.3121 0
145.667 4.86164 0
146.693 9.7553 0
443.1 19.6985 0
438.415 21.4429 0
267.58 47.5432 0
272.323 49.127 0
471.68 58.5793 0
476.618 57.7946 0
328.618 27.8547 0
324.936 31.2378 0
273.631 3.50832 0
268.943 1.7693 0
235.946 34.0661 0
233.27 38.2896 0
206.88 9.20833 0
211.765 10.2698 0
192.225 56.8747 0
187.871 59.3324 0
254.633 17.288 0
253.636 12.3883 0
245.152 51.2544 0
242.185 55.2791 0
163.672 40.5275 0
164.823 45.3931 0
439.649 14.664 0
444.637 15.0027 0
165.598 42.2348 0
162.021 45.7286 0
159.122 8.11905 0
162.004 4.03304 0
72.767 32.4879 0
77.7456 32.0248 0
125.646 17.9374 0
125.763 12.9386 0
375.287 4.49399 0
380.226 5.27091 0
137.314 18.2117 0
132.974 20.6937 0
174.159 14.4809 0
171.087 10.5359 0
419.988 18.1221 0
424.66 19.9035 0
379.303 2.7847 0
378.779 7.7572 0
275.748 59.2215 0
280.248 57.0407 0
15.0053 44.2277 0
12.8948 48.7604 0
435.194 49.8105 0
440.157 49.201 0
211.365 34.104 0
208.926 38.4688 0
239.917 29.1038 0
242.048 33.6268 0
269.094 34.9486 0
273.997 33.9669 0
382.702 41.9541 0
386.317 45.4084 0
313.141 45.9454 0
316.9 42.6488 0
479.553 19.1 0
482.959 15.4396 0
456.741 5.20268 0
461.568 6.50702 0
497.801 48.1269 0
495.062 52.3102 0
433.439 51.058 0
438.389 50.3541 0
427.009 20.9563 0
429.93 16.898 0
288.29 7.19756 0
291.92 10.636 0
245.372 44.54 0
240.831 46.6329 0
75.6781 6.85626 0
70.6824 7.04892 0
135.295 28.72 0
140.223 29.5701 0
33.2532 39.7182 0
31.757 44.489 0
233.785 55.887 0
228.905 54.7949 0
327.49 17.9403 0
328.247 12.9979 0
48.584 51.0686 0
48.4481 56.0666 0
300.016 15.3818 0
295.018 15.5183 0
415.902 49.7522 0
413.201 45.5447 0
291.855 59.6006 0
287.714 56.7974 0
288.545 18.3707 0
292.098 14.8526 0
471.84 48.1274 0
475.766 45.0305 0
109.022 50.0089 0
108.709 45.0188 0
166.544 28.7984 0
170.736 26.0737 0
226.68 52.6556 0
224.76 48.0388 0
216.195 38.6079 0
218.492 43.0489 0
61.4969 24.5261 0
65.6085 27.3711 0
216.365 5.44149 0
212.722 2.01632 0
479.372 11.2037 0
474.823 9.12846 0
468.58 57.2038 0
468.879 52.2128 0
469.695 58.5716 0
470.148 53.5921 0
331.89 2.82055 0
336.172 5.40253 0
455.736 17.4113 0
455.778 12.4114 0
225.445 30.5281 0
230.222 29.0489 0
450.727 6.91477 0
455.659 6.09599 0
291.483 15.1887 0
286.486 15.3325 0
342.144 46.2809 0
347.09 47.0146 0
137.201 28.9767 0
140.898 25.611 0
251.945 40.8412 0
253.255 45.6664 0
213.495 46.0472 0
208.553 46.8119 0
342.748 33.2516 0
346.196 36.8731 0
416.361 25.1806 0
421.296 25.981 0
226.236 9.86809 0
229.943 13.223 0
124.916 3.16319 0
122.607 7.59805 0
263.486 45.0425 0
263.178 40.052 0
212.792 11.1565 0
212.796 6.15641 0
367.329 18.961 0
362.401 19.8039 0
310.981 19.657 0
315.464 17.4426 0
431.302 37.5387 0
430.428 32.6157 0
278.49 35.895 0
273.589 34.9056 0
163.794 31.4988 0
160.111 28.1168 0
83.053 12.5496 0
88.0118 13.1867 0
358.335 14.8772 0
353.336 14.9591 0
11.9927 48.3894 0
7.43051 50.4367 0
432.13 19.6474 0
432.95 14.7151 0
344.155 24.6536 0
339.156 24.6234 0
27.5021 6.85143 0
30.9668 10.4561 0
341.894 51.5639 0
337.637 54.1859 0
406.964 -0.0585139 0
410.214 3.74111 0
57.6725 4.94233 0
57.4275 9.93649 0
362.154 2.3541 0
367.012 3.53572 0
16.7921 34.5338 0
18.3936 39.2703 0
213.42 27.2361 0
214.11 32.1883 0
6.9658 10.3802 0
8.748 5.70856 0
88.9632 8.20105 0
92.8198 11.383 0
23.6566 26.0095 0
26.2549 21.7376 0
463.126 15.8774 0
458.126 15.9175 0
458.94 35.9914 0
456.557 31.5961 0
168.789 34.9287 0
172.042 31.1314 0
356.598 12.7392 0
352.924 9.34823 0
23.4095 26.8211 0
19.373 29.7717 0
411.217 11.7118 0
406.274 10.9613 0
318.617 48.1898 0
323.245 50.0832 0
141.557 50.721 0
140.069 45.9478 0
277.795 52.876 0
272.85 52.1376 0
475.333 3.5745 0
479.607 0.981102 0
169.45 50.4531 0
168.095 45.6404 0
95.0335 16.0385 0
90.4228 14.1049 0
162.44 1.73766 0
167.438 1.86218 0
6.26662 4.45886 0
2.29318 7.49342 0
232.273 59.1123 0
233.802 54.3519 0
343.514 20.5671 0
346.702 24.4187 0
162.465 47.0651 0
163.908 42.2779 0
206.324 19.0039 0
201.86 16.7527 0
285.215 57.0592 0
289.367 54.2725 0
28.244 25.0381 0
23.8407 27.4068 0
413.802 44.9336 0
412.929 49.8569 0
154.61 8.14062 0
157.934 4.40605 0
231.254 20.4865 0
233.404 25.0003 0
242.483 12.658 0
237.826 10.8385 0
477.718 25.1745 0
475.497 29.6539 0
116.678 17.7785 0
121.022 15.3015 0
453.177 6.44924 0
454.415 11.2937 0
408.568 48.1411 0
413.132 50.1839 0
241.812 58.6939 0
246.443 56.808 0
394.734 53.3024 0
394.523 58.2979 0
479.638 11.1475 0
474.895 9.56449 0
97.4897 15.4366 0
101.993 17.608 0
414.025 27.9049 0
418.962 27.1153 0
208.181 7.96864 0
205.1 4.03066 0
58.3875 47.5365 0
59.6812 52.3661 0
14.5409 35.4086 0
18.7368 32.6891 0
245.466 29.8446 0
247.756 34.289 0
257.542 47.5065 0
261.181 50.9359 0
285.748 45.0395 0
290.738 45.3583 0
360.979 28.0099 0
365.802 29.3272 0
465.326 31.0631 0
460.346 31.5032 0
2.51878 51.5659 0
1.31684 56.4193 0
74.0077 25.2158 0
79.0076 25.2048 0
474.145 53.891 0
471.465 49.6702 0
163.668 2.08116 0
168.641 1.56825 0
396.801 49.9868 0
396.177 54.9477 0
387.052 54.1253 0
383.317 57.4486 0
280.723 39.579 0
283.077 43.9902 0
331.349 26.6913 0
336.3 27.3937 0
420.449 32.6281 0
416.725 29.2912 0
238.283 8.38565 0
233.379 7.41204 0
49.4622 24.7265 0
50.4979 19.8348 0
7.59705 32.6806 0
12.5971 32.7043 0
162.893 28.9393 0
167.46 30.9728 0
100.79 13.0458 0
97.3652 9.40287 0
35.6895 51.0737 0
40.0706 53.4841 0
494.396 53.2973 0
498.652 55.9217 0
334.889 11.8798 0
338.521 8.44334 0
226.447 30.4427 0
226.726 25.4505 0
436.734 56.2766 0
432.391 58.7535 0
416.138 28.6851 0
417.773 23.96 0
462.204 52.5036 0
461.923 47.5116 0
87.8726 23.1793 0
90.0378 18.6724 0
429.179 32.9945 0
424.377 31.602 0
353.003 10.4742 0
348.02 10.0735 0
247.428 43.1638 0
242.783 45.0143 0
117.153 50.6 0
121.852 52.3091 0
385.489 15.1358 0
388.083 10.8613 0
309.934 10.7282 0
305.476 12.9928 0
216.531 16.5641 0
221.389 17.748 0
9.44261 23.6573 0
10.4225 18.7542 0
215.454 10.749 0
220.269 12.0964 0
410.852 51.5787 0
405.857 51.3554 0
196.198 18.2851 0
201.088 19.3254 0
192.019 48.4481 0
196.749 46.8242 0
39.191 38.2987 0
37.9126 33.465 0
486.556 15.6541 0
481.593 16.2651 0
457.119 55.9281 0
461.994 57.0406 0
247.291 40.0076 0
246.59 44.9582 0
134.054 25.8563 0
139.053 25.8225 0
62.3123 33.265 0
64.7017 37.657 0
285.168 45.0983 0
283.532 49.8229 0
441.07 40.7919 0
443.816 44.9704 0
249.604 54.4393 0
254.552 55.1575 0
140.724 25.1106 0
140.408 20.1206 0
406.04 15.8916 0
401.436 17.842 0
267.346 14.2776 0
264.459 10.1957 0
318.853 19.8123 0
313.906 20.5398 0
142.968 51.5367 0
147.625 49.7155 0
449.04 39.0047 0
444.802 36.3516 0
77.1011 14.6266 0
78.0315 19.5393 0
148.552 19.509 0
146.05 23.8382 0
498.652 23.3124 0
499.636 18.4101 0
353.814 52.1272 0
352.234 47.3834 0
250.153 14.3676 0
249.64 9.39395 0
398.567 57.7515 0
403.567 57.7484 0
212.307 4.15788 0
216.562 1.53368 0
345.711 10.8159 0
348.459 6.63917 0
250.749 23.6293 0
247.583 27.4988 0
461.988 43.9104 0
466.443 41.6393 0
338.668 57.9672 0
336.199 53.6196 0
34.9194 14.9001 0
31.1964 11.5629 0
3.45821 53.3936 0
8.29048 52.1069 0
242.899 17.8054 0
242.795 12.8065 0
110.342 51.72 0
106.32 48.7498 0
273.167 29.7829 0
278.166 29.8887 0
451.448 33.7671 0
451.88 28.7858 0
380.433 11.1585 0
375.504 10.3186 0
27.3504 3.84299 0
26.0754 8.67785 0
169.329 21.2835 0
173.817 19.0794 0
224.835 59.789 0
224.184 54.8318 0
459.274 44.5431 0
464.111 45.8105 0
336.8 30.6844 0
335.618 35.5427 0
268.972 7.39214 0
272.836 10.5661 0
210.473 54.2637 0
211.797 49.4421 0
327.479 10.4812 0
326.934 15.4515 0
368.897 12.0537 0
365.15 8.74284 0
129.53 35.2966 0
128.91 30.3352 0
395.396 6.45973 0
397.538 10.9778 0
319.265 12.0333 0
319.225 17.0332 0
268.259 29.6312 0
270.775 33.9521 0
106.935 57.15 0
103.24 53.7819 0
417.061 42.3014 0
418.36 47.1296 0
385.738 0.674815 0
387.174 5.46421 0
282.48 23.9423 0
278.348 21.1277 0
155.332 16.7699 0
154.691 21.7287 0
152.446 39.0636 0
156.977 36.9487 0
202.04 47.366 0
197.441 49.3294 0
392.063 38.2733 0
396.035 41.3107 0
353.413 54.2919 0
358.317 55.2712 0
476.515 27.333 0
471.913 29.2891 0
56.6133 41.5689 0
54.0185 45.843 0
451 28.0473 0
451.988 32.9487 0
113.56 6.87793 0
114.938 11.6844 0
298.594 9.15713 0
301.279 13.3747 0
14.2088 44.0534 0
15.3001 48.9327 0
216.617 22.8765 0
212.269 25.3457 0
220.84 27.0606 0
222.459 31.7913 0
245.805 14.0579 0
250.701 13.0451 0
406.723 41.1402 0
405.606 46.0138 0
259.313 37.5237 0
254.34 37.0076 0
342.092 47.9615 0
344.257 43.4545 0
432.701 48.9822 0
437.6 49.9818 0
62.7019 58.7682 0
59.522 54.9094 0
318.058 9.66078 0
322.691 7.78274 0
255.211 58.7262 0
259.649 56.4242 0
82.7197 4.08864 0
81.1789 8.8454 0
71.5556 1.16041 0
66.5715 1.54948 0
333.714 27.5458 0
331.478 32.018 0
114.242 58.0781 0
110.94 54.3233 0
305.783 39.3488 0
308.621 35.2322 0
202.477 10.5838 0
199.479 14.5849 0
189.271 55.0789 0
190.866 50.3402 0
61.5975 11.5267 0
57.3716 8.85499 0
147.997 34.0204 0
147.814 39.017 0
74.1048 44.5892 0
69.1997 45.5607 0
402.78 54.2566 0
404.021 59.1 0
174.598 26.8592 0
171.438 22.9845 0
27.4593 7.69739 0
31.2887 4.48298 0
31.139 25.3924 0
26.163 24.904 0
263.505 6.30119 0
265.257 10.9843 0
426.06 39.8729 0
421.127 39.0549 0
211.383 31.9228 0
216.371 31.5807 0
228.32 37.4667 0
223.553 35.9566 0
313.329 16.2139 0
318.131 17.6076 0
68.8276 34.0367 0
67.8814 38.9463 0
60.1388 16.5869 0
62.206 21.1395 0
469.418 59.0479 0
474.206 57.6079 0
272.685 19.2985 0
268.997 15.9214 0
44.82 25.8019 0
41.25 22.3013 0
231.157 58.8435 0
228.904 54.3795 0
460.598 29.4088 0
464.007 33.066 0
19.7639 42.7029 0
21.6206 47.3454 0
461.557 31.0204 0
460.906 35.9778 0
157.572 25.1825 0
155.152 20.807 0
222.131 41.7921 0
218.665 38.1879 0
407.517 52.4144 0
412.223 50.7253 0
352.161 34.2938 0
347.219 33.533 0
116.683 39.6609 0
114.832 35.0162 0
414.49 45.8456 0
417.953 42.2389 0
473.227 55.3482 0
475.814 51.0695 0
432.011 39.9741 0
427.056 40.6438 0
373.741 1.59087 0
374.562 6.5231 0
454.977 40.2687 0
459.923 39.5368 0
284.619 23.8876 0
279.912 22.2008 0
475.964 4.06539 0
471.713 6.69754 0
268.445 36.7241 0
272.705 39.3407 0
391.379 47.2684 0
386.379 47.274 0
46.0426 10.1659 0
50.5508 12.3275 0
200.628 3.89931 0
195.808 5.2283 0
428.313 51.1693 0
424.433 48.0162 0
417.677 57.1706 0
412.698 56.712 0
206.704 54.6524 0
202.723 57.6781 0
481.123 31.6702 0
478.088 27.6967 0
93.1521 38.6684 0
95.3736 43.1477 0
486.632 3.2677 0
483.694 7.31392 0
13.871 29.869 0
18.8329 29.2527 0
244.35 7.44291 0
239.356 7.20887 0
56.763 38.1762 0
51.9234 36.919 0
132.038 8.73319 0
131.343 13.6848 0
60.9142 44.0504 0
59.6031 48.8754 0
76.5474 7.06718 0
81.431 8.13756 0
162.93 22.7349 0
167.924 22.4769 0
55.1244 44.6943 0
55.9157 49.6312 0
466.598 14.0722 0
471.048 16.3523 0
380.093 29.7562 0
377.802 25.3118 0
192.093 4.36386 0
196.983 3.32154 0
103.71 49.249 0
98.7935 50.1605 0
456.357 44.7677 0
460.809 42.4908 0
482.771 26.3073 0
479.019 29.6116 0
439.459 55.567 0
444.453 55.3089 0
468.386 30.3086 0
467.208 25.4494 0
78.7157 17.8024 0
83.7134 17.6602 0
119.584 7.86063 0
117.014 12.1496 0
315.728 48.8828 0
320.634 47.9183 0
94.2571 8.30598 0
96.4723 3.82336 0
104.713 9.39389 0
99.907 10.7723 0
70.8567 59.5202 0
73.0723 55.0379 0
362.303 15.6226 0
357.307 15.434 0
165.181 34.039 0
160.212 34.6015 0
234.638 7.39116 0
234.363 2.39863 0
219.526 3.31093 0
214.738 1.8704 0
228.504 30.2385 0
226.976 34.9993 0
277.804 24.5649 0
281.609 21.3208 0
64.0563 51.6425 0
66.2579 47.1533 0
362.893 40.7358 0
357.916 40.2593 0
217.684 13.8134 0
222.439 12.2669 0
9.42224 46.5649 0
9.05855 41.5782 0
46.909 14.1172 0
44.9064 18.6987 0
18.0592 29.5556 0
18.3837 24.5662 0
320.079 12.4976 0
316.311 9.21014 0
57.9207 13.6869 0
55.7163 9.19915 0
253.813 0.820941 0
251.588 5.29848 0
291.112 10.9147 0
296.011 9.91885 0
468.048 33.0692 0
463.74 35.6072 0
181.357 37.4021 0
183.074 42.0979 0
251.663 29.9221 0
251.981 34.9119 0
237.798 32.4533 0
242.712 31.5289 0
164.646 31.3659 0
164.379 36.3588 0
163.796 42.41 0
168.626 43.7061 0
101.151 44.1562 0
105.285 46.9683 0
444.001 41.746 0
445.999 37.1629 0
307.958 16.8941 0
307.472 21.8705 0
444.81 10.4838 0
448.475 13.8851 0
361.513 58.2332 0
366.014 56.0548 0
199.402 43.3059 0
200.109 48.2556 0
331.964 27.3037 0
329.143 31.4323 0
420.627 18.8915 0
425.552 18.0297 0
130.59 34.6428 0
131.81 39.4917 0
74.2317 8.43228 0
69.411 7.10739 0
349.521 16.6414 0
351.759 12.1706 0
157.687 11.0355 0
161.419 7.70769 0
116.3 31.7289 0
111.396 30.7506 0
398.482 6.36512 0
402.831 8.83055 0
57.8687 25.8391 0
62.5516 27.591 0
88.8417 19.3786 0
93.6088 20.8861 0
228.813 40.4924 0
223.813 40.5032 0
233.778 16.5374 0
229.661 19.3756 0
143.464 43.018 0
139.081 40.6126 0
280.413 6.53073 0
276.574 9.73377 0
334.147 29.438 0
332.356 34.1065 0
152.073 30.7074 0
154.323 35.1726 0
142.491 23.3062 0
144.011 18.5427 0
477.926 9.68654 0
480.886 13.7162 0
137.062 40.8892 0
135.331 36.1987 0
145.332 21.8477 0
150.277 21.1091 0
339.795 10.8193 0
343.143 7.10507 0
165.701 24.8931 0
168.356 29.1303 0
391.445 8.28997 0
387.413 5.33369 0
15.0877 8.84991 0
17.5155 4.47891 0
466.056 53.067 0
470.852 54.482 0
133.64 28.5509 0
138.636 28.3604 0
157.559 16.2158 0
153.315 18.8597 0
143.829 42.114 0
147.537 38.76 0
447.11 48.7207 0
447.339 43.726 0
43.6249 0.217969 0
45.9774 4.62998 0
131.562 4.96645 0
136.095 2.85627 0
101.742 5.01918 0
96.8054 5.80775 0
223.495 49.5631 0
220.653 53.6768 0
230.342 39.0766 0
228.008 34.6547 0
63.3496 51.1287 0
63.3912 56.1283 0
450.447 32.6371 0
448.773 37.3483 0
258.846 24.7014 0
255.187 28.1092 0
237.255 38.2316 0
232.263 37.9532 0
472.315 40.7291 0
475.273 44.7597 0
259.021 51.0941 0
264.021 51.1787 0
244.051 36.6915 0
243.656 31.7072 0
428.755 15.9288 0
424.457 18.4836 0
139.397 54.0134 0
139.601 59.0091 0
353.461 17.922 0
358.398 17.1323 0
287.378 52.4445 0
287.166 47.4491 0
118.768 8.76881 0
118.297 3.79087 0
115.896 28.6826 0
114.064 33.335 0
482.59 45.2803 0
483.561 50.1851 0
160.833 42.6887 0
155.956 43.7928 0
15.3905 35.1716 0
15.6889 30.1805 0
268.337 33.1274 0
266.991 37.9426 0
457.941 39.2504 0
454.765 43.1126 0
150.823 28.7452 0
150.74 23.7459 0
271.307 26.1345 0
267.377 29.2256 0
344.805 47.0274 0
340.012 45.6039 0
202.037 48.8136 0
198.231 45.5708 0
427.255 16.9557 0
428.191 12.0441 0
168.467 18.1477 0
172.972 15.9789 0
306.091 53.928 0
304.675 58.7233 0
64.0581 37.3283 0
60.8644 41.1755 0
273.805 22.8722 0
271.793 27.4493 0
420.378 28.0427 0
416.002 25.6253 0
199.496 19.6331 0
195.911 16.1483 0
384.722 9.43977 0
379.997 7.80567 0
340.959 17.3647 0
345.685 18.9978 0
242.501 26.3295 0
247.354 25.1288 0
323.967 6.14404 0
324.534 11.1118 0
47.3342 21.0546 0
42.3696 21.6468 0
478.62 28.281 0
474.111 26.1198 0
409.313 46.8435 0
411.329 42.2679 0
402.301 50.3964 0
397.686 52.3207 0
484.315 11.9689 0
485.45 7.0993 0
181.27 42.4115 0
177.578 45.7841 0
390.874 23.4193 0
386.433 21.122 0
176.983 15.179 0
181.944 15.8016 0
55.9707 53.6822 0
51.0566 54.6087 0
192.956 52.6187 0
188.993 55.6682 0
359.814 13.4945 0
354.875 14.274 0
137.994 5.37897 0
142.975 4.95342 0
95.8409 12.2802 0
98.3631 16.5973 0
468.497 8.16752 0
467.841 13.1243 0
352.73 14.3751 0
357.296 16.4138 0
245.519 30.158 0
250.459 30.9248 0
163.456 51.816 0
165.455 47.2329 0
142.512 12.6778 0
137.899 10.7498 0
86.1391 37.0938 0
88.2925 32.5813 0
446.043 12.0745 0
449.18 15.9676 0
482.109 34.6015 0
481.727 29.6161 0
280.794 28.1136 0
284.99 30.8324 0
66.0228 41.9759 0
61.9182 44.8314 0
40.6013 8.00289 0
35.7255 9.10773 0
382.794 40.9686 0
377.899 39.9502 0
50.5638 59.4329 0
51.5573 54.5328 0
108.143 37.9827 0
110.773 33.7306 0
120.602 19.7546 0
124.941 22.2375 0
227.596 42.8557 0
230.978 46.5387 0
228.074 40.4029 0
223.108 40.9857 0
492.429 54.6161 0
495.141 50.4154 0
118.404 6.74601 0
118.109 11.7374 0
115.683 43.1516 0
114.106 38.4071 0
130.509 33.0054 0
125.961 30.9276 0
444.503 28.6599 0
439.504 28.5561 0
84.6778 56.2856 0
80.7758 59.4126 0
67.8024 32.8745 0
65.1396 37.1065 0
432.877 38.6347 0
428.03 37.4075 0
248.437 43.4119 0
244.907 39.871 0
365.838 19.1215 0
368.335 23.4534 0
75.3686 20.6971 0
74.9727 15.7127 0
194.229 45.0932 0
198.248 42.1181 0
242.607 40.5819 0
247.193 38.5892 0
263.433 5.46232 0
260.941 1.12748 0
384.923 29.4117 0
385.745 34.3437 0
495.12 48.0832 0
499.105 51.1038 0
62.822 24.1935 0
67.2333 21.84 0
243.635 49.3645 0
240.271 45.6652 0
430.088 41.2477 0
430.172 36.2484 0
358.125 56.6556 0
354.056 53.7502 0
220.315 42.4755 0
224.251 39.3919 0
84.73 32.0126 0
89.7289 32.117 0
335.676 12.3765 0
338.429 8.20271 0
383.477 28.5738 0
386.898 24.9276 0
209.681 12.9545 0
205.072 11.017 0
365.583 1.92177 0
370.414 0.632911 0
154.84 9.71338 0
152.062 13.8707 0
225.455 52.6228 0
221.864 49.1437 0
460.305 -0.282139 0
460.206 4.71689 0
265.504 29.5343 0
263.228 25.0822 0
493.167 27.6083 0
488.169 27.4379 0
244.498 41.4775 0
247.26 45.6454 0
88.2579 39.9135 0
92.7708 37.7607 0
369.469 38.6764 0
365.283 35.9418 0
21.3996 43.3954 0
19.8858 38.6301 0
329.842 51.5983 0
330.413 56.5656 0
83.8298 26.8395 0
88.5977 25.3335 0
370.264 27.239 0
367.984 31.6888 0
383.7 9.80101 0
387.619 12.905 0
139.408 14.2096 0
138.675 9.26367 0
483.332 1.80134 0
487.974 -0.056291 0
109.881 9.47091 0
112.32 5.10595 0
383.374 44.2728 0
383.853 49.2498 0
123.152 3.93615 0
128.126 3.43944 0
466.966 28.4368 0
471.048 25.5489 0
248.54 23.3864 0
252.059 26.9382 0
123.661 52.458 0
127.2 55.9909 0
126.044 56.727 0
121.138 57.6942 0
209.378 4.91938 0
214.026 3.07636 0
361.848 58.3003 0
364.029 53.801 0
96.7851 41.4897 0
101.771 41.8684 0
271.132 3.55416 0
271.158 8.55419 0
155.252 10.3758 0
160.127 9.26909 0
290.014 6.98503 0
292.184 11.4896 0
455.614 39.8382 0
456.683 44.7224 0
10.1481 22.2407 0
15.0985 21.5395 0
233.947 33.9574 0
237.474 37.501 0
436.462 8.09944 0
432.192 5.49819 0
124.652 26.7732 0
127.929 30.5496 0
487.416 30.1202 0
482.435 30.5465 0
347.474 25.6476 0
346.424 30.5361 0
11.7888 5.5604 0
16.2575 7.8022 0
284.162 1.54762 0
289.153 1.26432 0
196.703 16.3294 0
193.589 12.4174 0
75.916 27.8769 0
71.5224 25.4904 0
293.472 50.0478 0
298.041 52.0775 0
42.7464 21.8286 0
47.2656 19.6895 0
228.976 48.2303 0
233.902 49.0912 0
153.357 42.8258 0
157.927 44.8569 0
495.073 46.0356 0
490.974 48.8986 0
95.3138 57.2843 0
100.069 58.8305 0
34.0878 44.0678 0
29.3093 42.595 0
453.223 13.9599 0
448.679 11.8723 0
371.246 32.9817 0
370.445 28.0462 0
436.731 29.0153 0
440.315 25.5291 0
445.818 27.8036 0
442.347 31.4027 0
239.391 2.56165 0
235.719 5.95461 0
26.4162 38.5307 0
24.6097 33.8685 0
281.774 43.3431 0
286.43 45.1668 0
330.353 47.0676 0
334.353 50.068 0
117.648 28.0637 0
121.934 25.4881 0
360.23 54.3822 0
364.573 51.9033 0
431.386 4.20816 0
432.777 9.01066 0
305.655 8.27302 0
310.513 7.09125 0
241.555 40.9368 0
240.873 45.8901 0
240.866 33.7236 0
243.695 37.8462 0
371.423 2.53417 0
368.551 6.62721 0
392.92 42.3619 0
397.351 44.6784 0
41.2624 6.86432 0
45.3027 3.91941 0
68.8252 27.1741 0
66.3924 22.8059 0
426.651 14.2312 0
423.259 10.5577 0
384.317 56.5971 0
383.065 51.7565 0
484.88 26.0527 0
487.929 22.0904 0
208.161 17.7477 0
212.839 19.512 0
379.698 42.973 0
381.14 47.7607 0
273.136 32.1363 0
269.162 29.1015 0
483.28 43.2958 0
487.778 41.1131 0
428.1 18.1196 0
427.737 13.1327 0
67.0652 18.2815 0
62.0678 18.1288 0
232.921 36.0203 0
236.341 39.6673 0
179.051 51.0468 0
178.751 46.056 0
256.658 41.9552 0
256.284 46.9412 0
468.073 23.0395 0
471.031 27.071 0
114.116 24.3549 0
110.719 20.6866 0
286.503 38.3431 0
285.193 33.5178 0
466.798 50.9194 0
469.179 46.523 0
482.736 44.1485 0
487.628 43.1152 0
42.1087 38.4533 0
45.8217 35.1045 0
125.035 48.9099 0
129.95 49.8268 0
323.993 32.0455 0
321.892 27.5083 0
286.161 45.3694 0
290.252 42.4958 0
352.757 20.9309 0
354.834 25.479 0
111.731 3.52793 0
111.76 8.528 0
57.7237 18.8807 0
55.6855 14.3149 0
175.896 58.134 0
175.683 53.1386 0
239.993 43.0716 0
235.031 42.4583 0
272.098 21.8991 0
276.919 20.5739 0
270.629 26.5204 0
271.996 31.3299 0
118.067 38.7499 0
115.152 42.812 0
309.937 28.5636 0
311.496 33.3142 0
49.8847 9.1604 0
45.3695 7.01362 0
141.341 8.98394 0
141.625 13.976 0
312.875 23.3463 0
310.421 18.9902 0
413.467 54.8275 0
410.07 58.4965 0
53.3642 17.8028 0
54.3131 22.712 0
196.411 58.8838 0
191.853 56.8295 0
397.213 19.1224 0
401.349 16.3119 0
141.481 52.5478 0
143.348 47.9092 0
95.3244 56.9063 0
91.1308 54.1829 0
275.729 7.15601 0
273.558 11.6601 0
12.7223 9.56434 0
8.74073 12.5883 0
85.4142 10.9773 0
81.6999 14.3244 0
188.207 5.34411 0
191.531 1.60925 0
158.397 53.0898 0
160.291 57.7171 0
282.709 22.5186 0
280.863 17.8719 0
494.98 21.2352 0
490.37 19.2989 0
371.377 6.6027 0
375.666 4.03345 0
296.447 0.582211 0
301.241 2.00427 0
363.171 33.7522 0
358.326 34.9861 0
89.2367 40.1105 0
84.8519 37.7076 0
73.8291 26.4137 0
73.0199 31.3478 0
447.66 30.5753 0
448.341 35.5287 0
270.439 11.4464 0
269.628 6.51258 0
239.199 31.7535 0
240.672 36.5314 0
338.409 59.6165 0
335.63 55.4602 0
73.8424 45.9 0
70.7735 49.8476 0
427.752 7.97732 0
422.916 6.70646 0
157.672 2.02437 0
155.175 6.35628 0
320.59 5.28561 0
324.663 8.18595 0
471.22 37.16 0
471.781 42.1285 0
415.585 49.307 0
420.125 51.4007 0
454.314 16.9827 0
451.806 12.6575 0
146.918 44.5985 0
148.553 39.8733 0
485.568 32.0715 0
480.938 33.9589 0
497.519 44.7414 0
499.871 40.3292 0
337.063 44.2328 0
339.043 39.6415 0
399.478 47.557 0
401.06 52.3001 0
441.391 25.6238 0
444.121 21.4347 0
141.848 33.8297 0
143.672 38.4852 0
281.54 30.3445 0
285.838 32.8989 0
488.69 50.214 0
484.248 47.9186 0
2.4896 14.7494 0
3.13261 19.7079 0
327.178 2.44195 0
322.587 0.461653 0
24.3397 37.9254 0
19.3854 38.6013 0
365.948 5.17093 0
367.725 0.497326 0
66.8811 14.2182 0
66.6993 9.22138 0
179.368 49.4041 0
175.736 52.8404 0
145.208 38.0078 0
140.213 38.2309 0
131.855 20.4736 0
135.489 23.9074 0
36.3208 55.6435 0
31.3217 55.7706 0
206.804 57.9824 0
203.882 53.9249 0
322.866 6.29172 0
319.72 2.4053 0
411.492 46.8721 0
416.486 46.6338 0
54.539 48.2576 0
59.0527 50.4095 0
421.417 1.69237 0
416.885 3.80631 0
413.993 26.2561 0
415.251 31.0955 0
14.9043 3.31408 0
10.9487 0.256448 0
181.465 5.95223 0
177.056 8.30931 0
150.492 47.9088 0
155.424 47.0899 0
250.482 54.1329 0
246.003 56.3553 0
221.53 38.6682 0
226.408 37.5693 0
175.652 13.8983 0
172.112 10.3675 0
8.58725 29.2892 0
6.94579 34.0121 0
310.893 43.8951 0
309.478 39.0994 0
60.6069 50.2395 0
63.5207 54.3028 0
360.121 46.6465 0
355.33 45.2152 0
139.36 17.5682 0
141.135 22.2426 0
81.8402 11.1185 0
84.1163 6.6666 0
469.7 7.98502 0
469.486 12.9804 0
379.096 49.5475 0
376.42 53.771 0
348.005 56.1193 0
343.489 58.2658 0
493.275 9.81405 0
489.132 12.6134 0
430.531 40.6028 0
426.968 37.0951 0
86.4536 25.7112 0
84.0704 21.3157 0
261.414 35.741 0
264.975 39.2513 0
76.6684 5.71561 0
76.3246 0.727243 0
116.848 50.6078 0
117.372 45.6355 0
4.62298 44.0961 0
2.98984 48.8219 0
16.3636 16.8217 0
11.602 15.2974 0
120.988 42.7441 0
117.343 39.3217 0
14.2801 48.0723 0
12.1961 43.5273 0
243.154 54.3708 0
247.262 57.2217 0
421.217 24.4251 0
423.501 28.873 0
443.86 8.05992 0
448.817 8.71246 0
56.0808 51.3958 0
59.0079 55.4496 0
328.358 52.7147 0
331.108 48.539 0
144.259 36.2457 0
144.535 31.2533 0
82.4766 30.8446 0
84.6431 26.3383 0
435.786 50.0736 0
431.547 52.7257 0
430.18 47.1474 0
432.809 42.8947 0
469.954 39.4487 0
467.467 35.1111 0
88.0624 11.2381 0
90.4378 15.6379 0
28.8974 4.26636 0
33.0931 6.98517 0
219.185 18.6783 0
221.699 23.0003 0
122.923 58.0453 0
117.929 57.8051 0
156.362 41.8355 0
153.201 45.7092 0
30.7107 46.2169 0
26.7174 43.2076 0
446.435 57.5408 0
441.448 57.1779 0
80.0136 24.9574 0
79.8141 19.9613 0
279.884 11.2337 0
283.098 7.40348 0
21.4662 11.6327 0
19.2336 16.1066 0
14.2524 34.3115 0
9.39361 35.4921 0
114.083 5.78498 0
118.828 4.21032 0
241.41 48.8533 0
236.715 50.5733 0
415.917 29.6979 0
420.848 30.5237 0
331.88 15.9919 0
329.56 20.4213 0
92.5255 10.6307 0
88.3113 13.3211 0
476.822 26.5855 0
471.824 26.4632 0
299.851 59.1647 0
304.835 58.76 0
278.714 28.8072 0
280.208 33.5788 0
112.991 38.3243 0
108.14 39.5382 0
229.541 16.7525 0
225.21 14.2555 0
133.042 13.1858 0
128.294 14.7543 0
90.3045 51.9996 0
87.1677 55.8935 0
366.993 40.4571 0
367.131 45.4551 0
143.033 25.5874 0
141.69 30.4035 0
224.448 28.5326 0
229.002 26.4693 0
369.253 54.4781 0
369.882 49.5179 0
268.94 27.5638 0
273.046 30.4172 0
63.5082 45.4325 0
58.6098 44.4278 0
9.91399 42.7456 0
14.2397 40.2375 0
49.5753 19.6241 0
49.145 24.6057 0
262.942 47.0541 0
257.981 47.6796 0
361.465 13.5697 0
365.209 16.8835 0
269.969 21.6568 0
265.224 23.233 0
371.596 35.0128 0
372.313 39.9612 0
449.92 56.0473 0
454.73 57.4116 0
174.943 45.8392 0
179.891 45.1188 0
40.3753 44.9032 0
37.6236 49.0781 0
270.287 45.5344 0
268.012 49.9868 0
488.639 46.0439 0
483.844 44.6266 0
116.817 51.8816 0
120.53 55.2301 0
376.876 34.6332 0
381.147 37.2326 0
207.394 42.4607 0
203.984 46.1175 0
313.214 20.2675 0
317.283 23.172 0
226.366 57.0097 0
224.076 52.5647 0
83.6394 44.8681 0
79.4808 47.6446 0
79.9443 48.2922 0
76.9325 52.2835 0
59.4026 11.1922 0
64.082 9.43172 0
141.907 48.0218 0
137.143 46.5027 0
346.058 40.2846 0
347.405 35.4695 0
278.24 0.696772 0
276.393 5.34306 0
236.334 3.24157 0
231.431 2.26634 0
335.031 17.319 0
330.083 18.0381 0
5.60859 47.3537 0
0.763569 46.1168 0
70.8112 2.0317 0
67.6703 5.92187 0
306.028 11.8525 0
309.569 8.32234 0
187.38 26.3458 0
191.791 23.9928 0
459.064 23.5472 0
461.379 27.979 0
351.449 49.4066 0
356.402 48.7214 0
259.011 7.39765 0
263.094 10.2837 0
342.754 3.37513 0
346.685 6.46402 0
482.946 48.159 0
487.942 47.9649 0
394.771 4.19388 0
397.777 0.198593 0
437.225 44.2631 0
440.989 40.9714 0
66.4199 28.0622 0
71.3371 27.1559 0
477.627 26.8004 0
473.149 24.5768 0
48.5982 57.0118 0
45.1167 53.4227 0
426.545 2.08634 0
431.533 1.73979 0
276.372 39.6952 0
278.433 35.1397 0
176.801 30.2948 0
172.229 32.3175 0
484.6 43.9047 0
489.136 41.8001 0
354.781 35.4122 0
356.309 40.173 0
346.228 15.2983 0
346.51 10.3062 0
377.92 12.1788 0
376.216 16.8796 0
444.788 39.1721 0
439.824 38.5692 0
168.371 15.1061 0
170.379 10.5269 0
298.235 44.4329 0
302.371 47.2421 0
86.4932 56.5759 0
81.588 57.5486 0
143.626 43.5508 0
143.451 48.5477 0
178.43 32.641 0
183.414 33.0479 0
69.9895 25.6043 0
66.0569 28.6921 0
393.902 45.535 0
397.895 42.5257 0
86.4923 7.81228 0
91.2808 6.37523 0
221.651 13.6468 0
222.134 18.6234 0
482.443 22.1998 0
487.43 22.5567 0
175.309 15.5209 0
170.716 13.5467 0
152.11 53.8486 0
150.067 49.2848 0
180.406 12.4848 0
179.606 7.54913 0
154.309 31.9501 0
149.347 31.3388 0
144.969 14.272 0
141.132 11.0667 0
474.232 42.2248 0
470.66 38.7261 0
449.12 12.5933 0
454.12 12.5743 0
288.663 49.1101 0
292.934 46.5095 0
287.261 27.0619 0
282.874 29.4596 0
168.539 25.7971 0
171.065 21.4818 0
378.653 8.77021 0
379.568 13.6859 0
475.262 9.22701 0
470.264 9.33333 0
299.022 43.657 0
294.025 43.8224 0
345.57 36.1028 0
350.497 35.2501 0
353.994 14.0196 0
354.562 9.05192 0
183.896 49.433 0
186.495 53.7045 0
463.504 24.1311 0
468.396 23.0962 0
54.6445 5.59617 0
54.2703 0.609992 0
490.568 4.37577 0
491.789 -0.472929 0
383.385 4.58706 0
383.08 9.57784 0
270.706 54.1046 0
266.685 51.1331 0
230.496 3.93551 0
233.897 7.60023 0
396.102 15.6314 0
392.331 12.3481 0
44.2791 9.72572 0
39.281 9.84409 0
198.642 44.561 0
194.093 42.4858 0
362.761 56.4513 0
362.757 51.4513 0
207.311 6.12609 0
204.622 1.91076 0
208.3 41.3481 0
209.525 46.1957 0
487.282 37.6867 0
491.776 39.8782 0
291.51 54.54 0
290.245 49.7029 0
235.572 50.6816 0
232.422 54.5643 0
74.7384 54.581 0
70.933 57.8247 0
80.6665 42.1135 0
82.768 46.6504 0
386.62 14.3511 0
389.525 18.4211 0
107.261 51.4189 0
105.708 56.1716 0
239.521 12.7959 0
234.729 11.372 0
465.107 19.5029 0
462.646 23.8554 0
126.994 38.9954 0
123.584 42.6517 0
53.2304 30.4226 0
51.1776 34.9818 0
283.351 29.503 0
281.107 25.035 0
410.965 38.6575 0
415.158 41.3814 0
129.335 17.2244 0
126.014 13.487 0
153.359 42.4289 0
152.066 37.5989 0
154.373 3.80602 0
151.177 7.65111 0
300.403 40.3698 0
305.402 40.4944 0
332.61 1.81136 0
337.366 3.35108 0
139.422 44.7656 0
143.119 41.3993 0
375.559 35.28 0
377.776 39.7617 0
450.776 51.9769 0
455.768 52.2586 0
17.4787 25.0618 0
21.9783 22.8816 0
249.515 57.1932 0
244.721 58.6142 0
146.381 18.1036 0
146.594 13.1081 0
324.391 39.5107 0
319.558 40.791 0
283.907 30.3037 0
288.623 28.6409 0
488.706 18.8743 0
490.301 14.1355 0
221.709 24.7888 0
223.119 29.5858 0
329.423 13.1636 0
330.993 17.9106 0
365.817 39.1896 0
361.842 42.2226 0
33.4842 40.1879 0
28.505 40.6462 0
182.612 22.847 0
184.523 27.4671 0
336.754 15.9668 0
334.719 11.3998 0
169.269 23.1544 0
173.235 26.2001 0
316.417 7.6712 0
314.166 12.136 0
420.039 46.5511 0
420.436 51.5352 0
499.141 23.9139 0
495.157 20.8924 0
260.006 29.141 0
263.77 25.8502 0
470.592 21.1457 0
474.803 18.4504 0
93.6399 0.103679 0
94.3342 5.05542 0
456.828 38.9388 0
452.003 37.6262 0
262.392 31.1268 0
267.383 31.4371 0
378.644 12.5185 0
382.471 15.7363 0
46.7462 33.5897 0
50.3709 37.0338 0
361.153 50.6647 0
365.516 53.1077 0
462.585 38.2688 0
460.766 33.6114 0
474.661 20.7446 0
473.166 25.5157 0
158.806 45.7726 0
161.91 49.693 0
316.351 7.78101 0
311.357 7.53652 0
139.025 53.3561 0
143.993 53.9238 0
443.929 37.8995 0
440.086 34.7007 0
384.32 9.98016 0
388.165 6.7841 0
171.727 38.8039 0
175.912 41.5393 0
299.329 46.6639 0
294.652 48.4322 0
449.439 53.6933 0
444.686 52.1427 0
425.573 33.9213 0
420.626 34.6477 0
49.4984 23.9436 0
45.2865 26.638 0
488.667 23.5096 0
483.758 24.4605 0
320.924 5.54923 0
325.589 7.34808 0
364.914 30.0242 0
361.706 33.8595 0
31.2921 42.1163 0
33.952 37.8824 0
226.686 27.3253 0
226.538 22.3275 0
382.263 44.8698 0
381.06 49.7231 0
152.994 52.7271 0
147.999 52.5032 0
52.0801 19.2124 0
53.3118 24.0583 0
244.387 44.2242 0
239.772 46.1497 0
391.527 42.1023 0
391.687 47.0997 0
0.0681116 42.8313 0
4.93266 43.9886 0
177.351 32.3909 0
172.528 33.7083 0
195.227 52.3951 0
196.975 57.0794 0
105.457 51.9099 0
105.964 56.884 0
336.524 11.4194 0
339.964 15.0477 0
189.843 2.1787 0
191.576 6.86892 0
227.815 11.2512 0
232.679 10.0972 0
326.447 14.5532 0
322.928 11.0022 0
314.088 4.73381 0
310.983 0.814949 0
302.978 14.4269 0
300.157 18.5549 0
288.702 8.79736 0
287.094 13.5319 0
262.437 0.430416 0
259.711 4.62196 0
131.17 31.3757 0
126.255 32.2916 0
35.5495 46.9839 0
30.8409 45.3009 0
478.874 15.2823 0
475.288 11.7983 0
189.238 53.7936 0
193.639 56.1662 0
345.354 3.94843 0
348.972 7.39985 0
340.859 22.2104 0
336.237 24.1171 0
320.797 0.407284 0
320.803 5.40736 0
197.555 42.0117 0
197.959 46.9952 0
265.277 17.0483 0
269.882 15.0994 0
241.635 42.7921 0
246.429 44.2134 0
183.273 29.495 0
185.091 34.1525 0
256.837 2.81815 0
254.359 7.16108 0
440.199 23.6969 0
441.018 18.7644 0
383.543 43.4184 0
381.29 38.9547 0
50.802 9.44564 0
46.7765 6.48041 0
384.752 27.4597 0
381.674 31.4004 0
13.264 35.292 0
11.0042 30.8318 0
474.27 15.7898 0
478.705 18.0983 0
256.33 50.5322 0
251.787 52.622 0
105.258 43.9594 0
100.861 41.5793 0
54.1869 42.2073 0
57.9237 38.885 0
274.186 30.0668 0
279.18 30.3111 0
48.8363 27.868 0
46.1569 32.0895 0
423.235 56.1403 0
426.406 52.2746 0
339.177 31.0006 0
343.725 28.9245 0
478.755 33.5957 0
478.357 38.5799 0
290.706 11.4682 0
291.612 16.3854 0
456.171 30.0161 0
459.873 33.3777 0
360.643 44.5285 0
364.611 41.4856 0
313.035 26.4596 0
308.721 23.9318 0
2.15715 35.1907 0
5.28787 31.2921 0
323.868 12.9864 0
326.91 9.01796 0
450.134 58.6887 0
446.798 54.9639 0
30.7608 24.2494 0
30.501 19.2561 0
21.6556 14.0292 0
25.2692 17.4847 0
62.7651 34.6696 0
61.5775 39.5265 0
26.6302 20.9611 0
28.4509 25.6178 0
12.581 35.436 0
8.78909 32.1769 0
87.9923 54.1715 0
92.2865 51.6096 0
393.879 14.4863 0
395.927 9.92463 0
210.214 45.4 0
213.753 48.9326 0
465.002 34.9097 0
468.501 38.4816 0
447.001 41.3221 0
442.193 39.9492 0
226.14 49.3918 0
222.006 52.2046 0
258.895 3.55737 0
262.787 0.417793 0
57.504 25.0621 0
60.8316 28.794 0
369.238 2.3369 0
373.329 5.2115 0
443.581 56.5348 0
446.971 52.8589 0
410.582 0.983501 0
407.096 4.56721 0
220.008 26.5924 0
216.885 30.4965 0
214.223 54.708 0
214.794 59.6751 0
491.372 5.30919 0
495.494 8.14049 0
277.462 28.5804 0
278.174 33.5295 0
225.417 22.4195 0
223.137 17.9697 0
82.544 28.3509 0
87.0503 30.5171 0
129.408 7.95264 0
130.911 3.1838 0
7.13331 40.3474 0
5.05399 44.8946 0
246.204 20.385 0
241.823 17.9754 0
19.7994 12.7665 0
21.618 17.424 0
73.6892 12.7643 0
72.3157 7.95654 0
411.551 1.44529 0
412.052 6.42018 0
43.4085 26.9694 0
48.0189 28.9042 0
323.178 10.4148 0
319.956 6.59174 0
426.22 10.227 0
429.762 6.6975 0
149.583 35.9588 0
145.619 32.911 0
303.616 46.8447 0
299.892 43.5075 0
62.154 6.99862 0
66.5289 9.41855 0
93.3828 19.6998 0
92.9313 14.7201 0
122.524 39.1349 0
124.657 34.6126 0
422.595 14.7565 0
422.72 9.758 0
482.034 58.1489 0
486.801 56.6377 0
331.929 10.8055 0
335.093 6.93406 0
13.2574 16.8164 0
14.1391 21.7381 0
124.778 14.1731 0
126.706 9.55992 0
480.97 17.5362 0
475.97 17.5867 0
420.075 23.6988 0
420.275 18.7028 0
212.944 28.305 0
217.841 29.3131 0
53.9539 13.9502 0
58.2487 11.3905 0
219.542 18.4043 0
224.295 19.9551 0
455.856 33.1283 0
458.688 37.249 0
267.019 51.045 0
264.923 55.5848 0
491.304 6.06915 0
493.416 1.53709 0
426.144 38.002 0
421.883 40.6195 0
71.2421 58.4644 0
66.4545 57.0206 0
10.5548 33.5726 0
15.2425 35.312 0
245.797 20.7891 0
243.146 25.0282 0
185.961 38.6106 0
180.985 38.1255 0
62.5015 20.9276 0
65.8118 24.6747 0
345.66 37.5146 0
342.87 41.6633 0
164.581 4.3106 0
161.415 8.17986 0
416.226 55.5231 0
411.263 54.9157 0
231.974 51.5362 0
229.401 55.8235 0
346.715 37.7686 0
345.025 42.4743 0
367.571 4.87245 0
371.214 8.297 0
157.533 33.0302 0
160.881 29.3159 0
70.517 22.4862 0
66.691 19.2675 0
452.743 42.7629 0
457.553 41.3963 0
376.429 45.0333 0
372.723 48.39 0
437.096 59.2387 0
433.977 55.3304 0
336.59 51.991 0
331.627 51.3831 0
126 52.9855 0
121.185 51.6365 0
345.708 11.3891 0
341.259 9.10945 0
323.5 45.8102 0
319.185 43.2832 0
338.313 27.8061 0
343.246 28.6234 0
448.111 51.1053 0
447.96 46.1076 0
1.12666 41.6008 0
6.08866 40.9831 0
51.8453 49.3213 0
46.8721 49.8433 0
32.6488 27.5189 0
34.1795 22.7589 0
62.8448 22.1731 0
62.969 27.1716 0
493.167 30.2851 0
498.163 30.4904 0
468.493 24.6036 0
463.628 25.7578 0
433.017 20.0429 0
437.858 18.7916 0
435.712 24.5231 0
434.948 29.4644 0
126.085 51.9338 0
125.131 47.0257 0
98.4453 17.9077 0
102.956 15.7508 0
381.081 35.0386 0
377.186 31.9032 0
201.367 56.4129 0
197.793 52.9162 0
74.857 49.9987 0
72.6627 45.5059 0
371.918 53.0982 0
370.736 57.9565 0
73.8888 50.7248 0
69.0889 49.323 0
449.469 32.9693 0
453.659 30.2415 0
365.814 16.5107 0
364.651 21.3736 0
249.008 29.7562 0
252.78 33.038 0
161.115 34.9143 0
156.23 33.8464 0
89.3953 3.47005 0
88.8368 8.43894 0
245.757 3.14535 0
242.875 7.23167 0
207.947 40.5137 0
205.625 44.9417 0
354.949 51.3316 0
357.081 46.8086 0
244.344 22.0699 0
249.309 22.658 0
144.506 35.9022 0
143.009 40.6728 0
419.603 31.2257 0
414.653 30.5231 0
470.937 43.7341 0
466.051 44.7949 0
234.823 30.932 0
233.417 35.7302 0
390.282 45.9111 0
387.478 41.771 0
457.459 9.56866 0
455.727 14.2591 0
310.767 41.6183 0
312.324 46.3694 0
124.434 54.6561 0
129.425 54.9629 0
278.512 44.5407 0
275.315 48.3851 0
51.7534 19.4673 0
54.467 15.2677 0
25.3976 55.4115 0
30.3811 54.9963 0
68.4508 44.4628 0
73.3458 43.442 0
240.558 35.052 0
242.302 39.7379 0
95.3181 10.6365 0
97.4299 6.10426 0
287.171 33.5139 0
291.453 36.0953 0
384.618 5.40242 0
379.81 4.03196 0
357.515 22.4321 0
356.126 27.2356 0
24.15 52.2376 0
27.9145 55.5286 0
151.531 7.99204 0
155.993 5.73687 0
459.468 50.8078 0
459.319 55.8056 0
350.066 33.2532 0
345.46 31.308 0
440.144 27.2008 0
436.202 30.2762 0
220.378 35.9518 0
219.632 31.0078 0
343.113 38.4207 0
338.779 40.9135 0
179.588 1.12687 0
176.132 4.73975 0
148.943 37.3968 0
153.109 40.1621 0
51.1223 54.3886 0
49.5652 49.6374 0
186.287 23.9815 0
191.25 23.3753 0
328.156 33.546 0
329.209 28.658 0
438.799 37.0693 0
433.819 37.5149 0
317.07 45.1074 0
318.089 40.2123 0
431.697 55.1651 0
427.595 58.0249 0
275.412 0.91723 0
274.674 5.86257 0
350.406 16.6151 0
345.534 15.4922 0
427.969 38.554 0
424.208 35.26 0
354.384 31.9817 0
349.562 33.306 0
333.193 35.909 0
328.864 38.4121 0
443.082 37.3309 0
447.114 40.2875 0
22.453 9.00315 0
17.6457 10.3759 0
99.6575 54.9292 0
99.6176 49.9295 0
309.233 22.658 0
309.037 17.6619 0
275.405 -0.0910578 0
274.913 4.88478 0
114.401 1.51386 0
111.671 5.70277 0
493.414 42.6295 0
498.054 40.7684 0
358.286 50.7474 0
356.353 55.3585 0
472.873 35.1879 0
474.246 39.9955 0
78.8174 44.0741 0
78.9507 49.0722 0
208.258 9.92873 0
212.666 12.2884 0
217.904 9.35132 0
218.588 14.3043 0
192.055 7.27061 0
194.119 2.71642 0
380.063 44.5567 0
375.868 41.8355 0
8.07031 58.7057 0
4.69457 55.017 0
261.151 28.4046 0
261.871 33.3524 0
132.855 16.3297 0
130.935 11.7131 0
48.4324 41.7448 0
51.0808 45.9858 0
74.7358 21.4487 0
77.701 17.4228 0
60.7182 15.4915 0
55.7736 16.2319 0
145.842 18.3277 0
145.746 13.3286 0
324.175 23.6321 0
328.49 21.1072 0
130.961 4.08748 0
134.32 0.384784 0
221.36 43.5491 0
222.839 38.773 0
14.8344 41.9738 0
19.709 43.0883 0
91.1879 5.65902 0
90.4301 10.6014 0
281.261 33.3305 0
286.235 33.8355 0
48.4042 41.472 0
45.0262 37.7856 0
88.0979 57.527 0
88.9319 52.5972 0
458.86 22.3015 0
456.212 26.5427 0
50.2669 54.9463 0
48.6188 50.2258 0
17.2061 50.2822 0
22.1779 49.7458 0
113.451 10.853 0
109.751 7.49065 0
454.738 17.0849 0
456.497 12.4042 0
400.218 47.7271 0
404.775 45.6687 0
389.891 43.9078 0
391.43 39.1507 0
348.196 53.8863 0
350.068 49.25 0
422.64 31.2688 0
420.943 35.9719 0
489.657 11.4519 0
494.521 12.6075 0
106.758 47.4723 0
105.253 42.7044 0
203.547 13.249 0
199.787 16.5444 0
99.8958 9.84816 0
97.0743 13.976 0
102.959 42.5992 0
107.805 43.8349 0
55.756 52.5827 0
55.6766 47.5835 0
113.894 45.5817 0
112.855 50.4723 0
382.548 3.35342 0
379.148 -0.312632 0
146.866 59.3961 0
147.945 54.514 0
460.374 45.4868 0
456.7 48.8785 0
340.862 24.3328 0
338.439 19.9592 0
243.423 24.9065 0
247.081 28.315 0
356.577 28.6227 0
361.576 28.6804 0
69.4788 39.1455 0
72.3314 43.2519 0
356.788 13.7672 0
354.545 18.236 0
190.981 51.8782 0
189.048 56.4895 0
340.536 22.8981 0
345.061 25.0262 0
213.616 23.7982 0
218.606 24.1094 0
272.543 35.5504 0
276.485 32.4747 0
2.94773 31.8949 0
7.60913 33.7038 0
435.861 56.306 0
432.655 52.4691 0
207.977 45.2457 0
212.933 45.9088 0
230.372 52.613 0
235.273 51.6192 0
358.035 18.6833 0
363.005 18.1409 0
80.7393 51.7681 0
85.7167 52.2486 0
170.488 6.67772 0
173.238 2.50216 0
386.559 58.0522 0
381.617 57.2958 0
276.772 19.1925 0
275.1 23.9045 0
361.134 21.3143 0
361.624 16.3383 0
182.107 38.9861 0
183.931 34.3305 0
235.788 31.0771 0
233.777 26.4994 0
459.183 11.3015 0
464.134 10.6017 0
424.331 18.565 0
426.508 14.064 0
489.871 36.4123 0
484.883 36.7466 0
256.965 54.4901 0
255.289 49.7796 0
9.10269 39.3881 0
7.67695 44.1805 0
481.962 2.40911 0
484.746 6.56262 0
148.052 52.9843 0
144.905 49.0982 0
220.464 54.3441 0
224.439 57.3777 0
29.5553 27.2504 0
29.6058 22.2506 0
477.3 24.4402 0
473.069 27.1044 0
363.668 21.1544 0
367.662 18.1467 0
381.127 7.90108 0
381.19 12.9007 0
131.768 22.8483 0
136.762 22.5946 0
158.942 52.8385 0
162.361 49.1897 0
187.647 13.6563 0
192.397 15.2178 0
469.793 22.6438 0
472.727 26.6926 0
63.5807 4.50118 0
62.7074 9.42449 0
263.847 31.8826 0
259.422 34.2104 0
473.935 28.5249 0
478.762 27.2211 0
435.168 24.097 0
440.168 24.0163 0
208.08 5.40068 0
213.027 6.1201 0
225.377 49.5002 0
221.311 46.5909 0
451.517 54.7515 0
447.874 58.1765 0
162.607 14.4475 0
157.61 14.2883 0
268.321 6.07623 0
272.053 2.7491 0
34.8973 24.903 0
30.5474 22.4378 0
455.17 28.8612 0
450.311 27.6809 0
35.3134 45.4778 0
33.3071 50.0576 0
237.837 59.3247 0
235.279 55.0285 0
30.7333 54.5366 0
32.9409 50.0503 0
450.781 48.7833 0
453.117 44.3625 0
199.664 52.7472 0
199.342 57.7367 0
218.847 3.57698 0
214.051 2.16442 0
387.173 1.45957 0
392.127 0.787232 0
224.185 36.5255 0
221.9 32.0785 0
213.868 47.354 0
212.475 42.5517 0
168.253 32.7025 0
170.362 37.2359 0
306.841 44.4199 0
305.268 39.674 0
346.843 37.5452 0
351.52 35.7765 0
75.4653 27.7624 0
78.5187 31.7217 0
129.079 4.97644 0
128.709 -0.0100034 0
362.783 57.5185 0
363.195 52.5356 0
87.6534 13.7398 0
92.6519 13.8453 0
79.624 29.6276 0
83.5805 26.5705 0
313.217 25.6957 0
316.043 29.8201 0
417.831 16.6588 0
413.975 19.8417 0
226.908 4.0354 0
231.88 4.56727 0
237.198 31.3386 0
234.896 35.7772 0
99.6551 41.2103 0
95.4171 43.864 0
273.63 39.2241 0
276.507 43.3139 0
70.1944 15.6026 0
69.4586 10.657 0
301.817 50.7028 0
303.824 46.1235 0
384.329 40.7745 0
379.837 42.9698 0
229.002 53.5061 0
224.04 54.1217 0
68.0557 2.54226 0
73.0093 1.86782 0
368.465 19.4257 0
370.655 23.9202 0
151.051 30.5391 0
146.185 31.6894 0
416.613 9.78773 0
412.813 13.0374 0
146.57 44.224 0
151.55 44.6818 0
341.172 44.1484 0
336.228 43.401 0
184.495 28.6407 0
186.916 24.2658 0
63.7776 25.8684 0
60.723 29.8269 0
44.0762 51.9759 0
47.5952 48.4236 0
71.3265 29.3761 0
68.1667 33.2512 0
483.162 25.3831 0
480.447 29.5813 0
443.335 8.69146 0
442.564 13.6316 0
371.279 33.4621 0
367.773 37.0267 0
365.344 46.8529 0
369.003 50.2602 0
284.57 8.31632 0
287.352 4.16144 0
107.125 55.4503 0
110.567 59.0771 0
359.22 54.7162 0
364.21 54.3833 0
277.658 27.1946 0
274.313 23.4782 0
484.245 42.5656 0
489.243 42.4392 0
402.854 14.409 0
402.824 19.4089 0
107.022 13.4689 0
108.075 8.58101 0
143.52 57.4708 0
148.454 56.6543 0
291.028 38.7275 0
287.256 42.0103 0
441.84 40.6367 0
446.717 39.5358 0
167.89 44.186 0
172.071 46.9292 0
64.8993 51.6552 0
68.2008 55.4104 0
244.751 33.9798 0
240.109 35.8357 0
367.551 33.2033 0
363.606 30.1311 0
431.255 25.9717 0
434.66 29.633 0
459.413 45.377 0
455.529 48.525 0
51.0337 38.4559 0
53.6945 34.2226 0
366.136 31.7758 0
369.985 34.9671 0
214.126 53.0209 0
216.198 57.5712 0
450.663 27.2515 0
449.328 32.0701 0
92.5883 12.4571 0
91.3209 17.2939 0
228.136 34.3327 0
228.718 29.3666 0
308.424 0.892516 0
303.705 2.54616 0
248.459 38.3966 0
251.661 42.2369 0
376.029 48.5052 0
380.929 49.5006 0
115.113 15.2969 0
118.9 18.5617 0
190.536 21.3908 0
188.44 16.8513 0
245.188 54.88 0
249.126 51.7991 0
447.344 18.4508 0
445.4 23.0574 0
112.467 26.0094 0
114.104 30.7337 0
476.638 52.4886 0
480.569 49.3982 0
52.1296 54.1704 0
47.8609 51.5663 0
92.7336 49.3537 0
87.7688 49.9502 0
307.401 1.60335 0
311.686 4.17903 0
80.5179 25.7063 0
75.5461 26.2356 0
474.674 40.199 0
472.196 44.5417 0
327.747 33.3078 0
327.057 38.2599 0
238.245 36.2149 0
235.477 32.0517 0
358.17 58.6238 0
357.042 53.7527 0
406.316 6.90036 0
401.376 7.66678 0
36.7782 6.31766 0
41.4946 4.65931 0
254.686 36.4835 0
256.753 31.9308 0
380.619 5.17541 0
380.887 10.1683 0
110.713 50.625 0
105.715 50.7869 0
112.457 58.3571 0
107.457 58.2399 0
20.2448 33.4263 0
16.5214 36.7636 0
292.218 19.7716 0
287.22 19.6254 0
253.451 0.570698 0
248.452 0.530397 0
405.981 45.1529 0
410.957 45.6412 0
253.629 31.9647 0
257.301 28.5715 0
440.063 28.8084 0
444.12 31.7306 0
496.545 3.59441 0
493.337 -0.240477 0
33.4155 28.1835 0
38.2343 26.8499 0
18.3033 26.3933 0
18.2611 21.3935 0
324.357 6.59262 0
321.831 10.9082 0
333.331 5.73633 0
338.176 4.50006 0
5.29732 47.7201 0
9.67192 45.298 0
322.39 28.1047 0
326.643 30.7338 0
13.6201 42.301 0
15.67 46.8615 0
384.703 -0.105903 0
384.386 4.88411 0
170.14 30.5179 0
168.166 35.1118 0
447.533 41.8335 0
450.789 45.6281 0
139.306 21.0533 0
134.413 20.0257 0
131.573 43.8689 0
133.257 48.577 0
115.017 47.1404 0
117.079 42.5854 0
133.992 13.2112 0
138.987 13.4097 0
409.401 6.79589 0
408.966 1.81481 0
29.389 15.5886 0
25.9193 19.1886 0
103.834 1.78663 0
107.484 5.20303 0
430.217 47.5338 0
428.436 52.2057 0
457.658 38.4579 0
461.314 35.0463 0
4.65706 20.0114 0
6.66163 15.4308 0
385.758 51.8686 0
389.44 55.2511 0
229.374 53.4852 0
228.317 58.3721 0
74.4098 26.3244 0
74.2114 21.3283 0
81.2258 51.9413 0
76.2773 52.6608 0
34.0495 47.4873 0
35.6853 42.7625 0
184.389 50.4453 0
189.073 48.693 0
81.7643 39.9121 0
77.6056 42.6882 0
480.722 15.7341 0
483.83 11.8177 0
123.665 44.474 0
124.438 39.5342 0
89.4135 10.9297 0
87.3676 15.4921 0
431.556 37.5722 0
426.556 37.4915 0
52.7705 53.8526 0
48.0437 55.4844 0
132.46 5.7252 0
132.654 0.728799 0
60.6699 31.5605 0
62.9721 27.122 0
317.512 37.7331 0
318.535 42.6272 0
289.658 47.7896 0
288.95 42.84 0
138.22 7.45202 0
133.259 6.83456 0
366.33 29.2446 0
371.297 28.6677 0
217.254 31.0155 0
213.372 27.8644 0
85.1311 55.4871 0
82.4365 59.6989 0
56.7396 8.50655 0
52.9757 11.7976 0
192.779 56.8917 0
196.182 53.2289 0
115.61 23.1498 0
120.492 22.071 0
396.508 1.98117 0
401.092 -0.014742 0
144.287 19.1695 0
140.153 21.9813 0
35.5258 53.372 0
37.5523 48.8011 0
316.009 37.5562 0
311.555 39.8271 0
80.5635 55.4275 0
78.3693 59.9203 0
376.545 34.072 0
376.335 39.0676 0
156.852 38.5051 0
154.269 42.7862 0
458.872 0.988271 0
463.355 3.20202 0
451.274 15.1429 0
451.981 20.0927 0
411.756 6.86856 0
414.468 2.66748 0
341.853 41.1007 0
346.587 39.4906 0
331.612 14.8935 0
326.642 15.4457 0
251.497 42.3685 0
246.865 40.4861 0
69.8628 49.4787 0
64.8683 49.7222 0
140.829 50.8362 0
138.462 46.4316 0
81.8312 50.7555 0
78.7418 54.687 0
124.282 49.9469 0
119.302 50.3938 0
196.061 49.8124 0
191.854 47.1096 0
115.522 40.1674 0
110.53 40.4588 0
359.843 40.0499 0
363.619 43.3273 0
404.326 45.9282 0
403.656 50.8831 0
333.166 18.4043 0
328.176 18.7158 0
128.192 1.61828 0
123.343 0.40268 0
428.05 58.9048 0
427.591 53.9259 0
14.2 22.013 0
9.32205 23.11 0
299.172 14.2628 0
297.799 19.0708 0
172.539 50.163 0
177.119 52.1707 0
339.44 52.8065 0
342.064 57.0627 0
90.0935 32.9145 0
85.6075 35.1227 0
19.499 8.40835 0
24.1054 6.46515 0
344.937 39.6557 0
348.745 36.4155 0
307.965 6.72435 0
310.11 2.20774 0
113.182 12.1551 0
112.911 17.1479 0
35.8923 18.633 0
38.8799 14.6237 0
200.654 5.2913 0
205.437 6.74936 0
499.7 19.3557 0
498.288 24.1524 0
85.6206 16.844 0
90.6125 17.1227 0
452.935 36.076 0
453.625 41.0282 0
341.247 34.9623 0
338.065 38.8187 0
266.644 25.1758 0
267.313 20.2207 0
260.06 12.3805 0
261.489 7.58921 0
110.556 17.4131 0
107.889 21.6426 0
413.34 51.3144 0
418.083 52.8971 0
391.243 16.8979 0
386.478 18.4125 0
223.705 4.01821 0
222.135 8.76517 0
285.469 55.3344 0
287.121 50.6155 0
362.259 42.5381 0
363.125 47.4626 0
63.6675 47.4874 0
68.5646 46.4764 0
292.86 40.4652 0
288.337 38.3343 0
260.517 54.5435 0
256.135 56.9519 0
281.681 4.9886 0
279.313 0.584905 0
457.696 4.89155 0
456.699 -0.00787664 0
388.515 12.5738 0
392.256 9.25608 0
137.144 21.0405 0
141.13 24.0585 0
47.363 35.6923 0
51.1668 38.9376 0
233.374 16.1536 0
228.788 18.1474 0
175.376 6.49716 0
170.589 7.94044 0
238.327 15.3545 0
238.898 10.3871 0
197.789 50.6978 0
194.288 54.2678 0
168.811 40.8763 0
173.771 40.242 0
281.27 31.0891 0
286.003 29.4755 0
17.0384 11.3432 0
16.8734 6.34575 0
170.656 20.278 0
175.233 18.2658 0
471.253 56.3418 0
475.571 58.8624 0
182.917 41.9304 0
186.366 38.3097 0
376.339 4.67602 0
380.959 2.76414 0
253.087 32.0272 0
256.817 28.6969 0
74.336 39.805 0
71.0304 36.0536 0
80.451 6.62658 0
76.813 3.19693 0
275.984 27.6502 0
274.844 22.7819 0
43.8972 11.8294 0
45.1844 16.6609 0
14.0971 14.1783 0
18.8401 15.7595 0
54.5104 3.723 0
50.3917 0.888902 0
213.528 49.3419 0
211.034 53.6756 0
53.2533 40.8499 0
49.6407 44.3068 0
172.484 45.0136 0
170.889 40.2749 0
275.276 25.2036 0
278.916 21.7758 0
305.737 9.90091 0
309.976 12.5513 0
287.204 22.3176 0
282.297 23.2758 0
163.008 12.624 0
167.673 10.8242 0
261.404 29.1555 0
262.726 24.3336 0
119.138 16.5452 0
115.418 19.8855 0
309.579 34.4161 0
313.305 31.0824 0
46.3237 52.3907 0
49.0089 56.6085 0
408.915 4.99502 0
409.036 9.99359 0
313.692 28.1587 0
314.052 23.1716 0
64.0275 48.6368 0
61.1143 52.7006 0
421.203 40.6196 0
416.934 43.2218 0
45.0435 2.84244 0
40.1992 1.60728 0
354.297 44.7451 0
359.158 45.9159 0
280.662 59.113 0
276.328 56.6185 0
354.038 58.2997 0
359.036 58.1342 0
160.393 21.6338 0
158.129 17.1756 0
113.02 24.5106 0
113.188 29.5077 0
198.528 19.5775 0
203.181 17.747 0
33.0734 23.8864 0
37.9669 22.8606 0
439.955 20.2992 0
435.367 18.3119 0
72.4809 18.1139 0
76.6187 20.9205 0
103.769 13.267 0
99.8601 10.1495 0
373.936 34.5311 0
370.84 38.4575 0
234.853 33.2507 0
230.404 30.9695 0
494.601 52.1886 0
493.711 47.2684 0
436.747 39.072 0
441.623 37.9652 0
42.5571 30.2985 0
39.4654 26.369 0
353.845 10.5968 0
351.648 6.1057 0
380.828 44.8826 0
377.141 41.5053 0
376.205 53.3223 0
378.073 57.9602 0
459.55 40.6321 0
462.898 36.9183 0
224.777 50.0788 0
220.225 48.0095 0
290.775 58.68 0
294.874 55.817 0
284.31 34.1519 0
279.312 34.2724 0
433.483 3.90792 0
438.055 5.93204 0
220.521 11.3898 0
216.243 13.9773 0
386.55 31.9196 0
383.827 27.7261 0
222.257 24.6552 0
217.692 26.693 0
444.672 43.362 0
445.407 38.4163 0
41.8234 50.4728 0
41.656 55.4699 0
299.466 3.03529 0
296.408 6.9911 0
385.771 20.0359 0
386.874 15.159 0
26.4274 41.5571 0
26.8549 46.5387 0
270.998 34.4409 0
275.937 33.66 0
290.761 10.887 0
285.762 10.9584 0
133.885 29.9229 0
130.266 26.4731 0
239.931 0.168482 0
243.481 3.68902 0
418.351 52.51 0
422.977 50.6136 0
483.557 29.1195 0
480.904 24.8813 0
344.745 35.8179 0
345.543 30.8819 0
303.038 16.8145 0
307.459 14.4784 0
112.046 26.1089 0
116.617 24.0827 0
347.529 24.7709 0
345.102 20.3994 0
45.533 41.1791 0
45.6691 36.181 0
79.6886 46.8155 0
74.6883 46.792 0
465.687 35.0662 0
469.979 32.5014 0
282.434 31.2298 0
286.534 28.368 0
320.513 6.98107 0
325.451 7.76499 0
144.524 30.6855 0
140.437 27.8053 0
444.603 16.2169 0
446.166 11.4676 0
476.772 23.0713 0
471.777 22.8475 0
493.118 26.7025 0
488.901 24.0171 0
81.4306 30.3624 0
85.8015 32.7903 0
272.577 50.9207 0
267.686 51.9611 0
405.604 45.3368 0
408.65 49.3016 0
346.4 42.9935 0
346.403 37.9935 0
23.3448 31.0826 0
27.5662 28.4029 0
326.817 31.9487 0
322.062 30.4028 0
312.456 51.6248 0
310.478 56.2169 0
220.998 24.3298 0
219.483 29.095 0
286.961 14.0899 0
283.036 10.9921 0
41.8804 16.3506 0
41.5631 21.3406 0
425.37 43.3206 0
423.184 38.8241 0
139.215 32.3971 0
144.139 33.263 0
370.525 45.7922 0
375.146 43.8839 0
456.756 6.65237 0
454.411 11.0686 0
70.1352 39.7431 0
65.158 40.2223 0
494.355 58.2774 0
499.321 58.8556 0
34.2365 56.7688 0
39.1894 57.4591 0
274.317 1.85211 0
277.296 5.86785 0
271.81 49.1287 0
267.303 46.9628 0
134.066 17.1095 0
131.487 21.393 0
258.42 53.3801 0
253.5 54.2711 0
358.341 5.43078 0
355.09 1.63167 0
424.142 44.5035 0
428.462 47.0207 0
313.322 46.6548 0
318.083 45.1272 0
41.387 33.0101 0
41.1817 28.0144 0
421.556 19.7986 0
426.448 20.8319 0
187.481 29.2852 0
184.184 25.5265 0
283.094 24.6992 0
287.285 21.9732 0
279.036 20.8936 0
283.967 21.7198 0
483.371 41.4787 0
483.572 36.4827 0
313.932 22.8484 0
313.231 17.8978 0
175.312 10.6288 0
170.631 8.87305 0
255.204 26.7102 0
260.049 27.9452 0
44.5905 47.0252 0
41.1215 50.6263 0
311.637 30.8292 0
316.423 29.3849 0
333.816 41.9198 0
329.51 39.3778 0
495.791 7.20792 0
492.158 3.77274 0
263.119 9.08309 0
263.025 14.0823 0
143.07 20.6243 0
147.543 18.3904 0
191.168 6.3401 0
189.436 1.64954 0
142.711 40.4561 0
137.719 40.7467 0
192.03 9.22865 0
191.595 14.2098 0
250.365 17.0092 0
245.4 16.4205 0
119.486 6.59567 0
114.678 5.2247 0
472.617 48.7975 0
467.627 49.1154 0
173.598 19.1018 0
172.264 23.9206 0
288.819 29.327 0
290.537 34.0222 0
76.0393 48.326 0
77.2405 43.4725 0
70.492 24.2493 0
66.9644 20.7061 0
374.628 6.79382 0
374.043 11.7595 0
278.344 56.322 0
274.675 59.7188 0
417.885 32.114 0
414.112 28.8327 0
242.116 51.0848 0
239.883 55.5587 0
46.191 3.8572 0
41.2349 3.20102 0
172.909 48.2384 0
177.374 50.4877 0
463.325 7.76668 0
459.83 11.3425 0
236.677 46.1608 0
241.65 45.637 0
473.28 1.79995 0
478.14 2.97439 0
453.584 51.3505 0
458.395 52.7108 0
220.827 15.8807 0
218.404 20.2549 0
452.001 7.66128 0
456.329 5.1576 0
243.828 24.7788 0
239.537 22.212 0
176.865 57.0094 0
180.142 53.2334 0
64.7365 35.9948 0
63.4137 40.8166 0
443.35 52.5737 0
439.231 55.4073 0
272.148 14.3497 0
275.367 18.1759 0
11.4258 39.55 0
7.63799 36.286 0
484.543 10.5634 0
487.766 14.3858 0
109.008 18.3897 0
109.295 23.3815 0
178.015 21.5617 0
174.653 25.2626 0
161.902 38.4726 0
162.944 43.3628 0
178.686 34.5852 0
177.393 29.7553 0
317.128 15.3506 0
322.008 14.2625 0
17.7328 37.7231 0
15.4545 42.1739 0
93.4381 40.0102 0
89.0613 37.5928 0
451.188 53.4808 0
447.067 50.6485 0
395.156 54.217 0
399.638 52.0001 0
439.811 7.10233 0
438.567 11.9451 0
71.8125 54.9545 0
73.4768 50.2397 0
385.903 37.2305 0
385.48 32.2484 0
156.279 21.6445 0
156.017 26.6376 0
188.762 1.00631 0
183.764 1.13182 0
130.678 35.1591 0
134.114 38.7918 0
123.564 19.6192 0
120.969 23.8933 0
471.997 39.8692 0
476.966 40.4265 0
460.91 37.6522 0
465.046 40.4615 0
26.294 2.94129 0
21.9182 0.523177 0
440.908 8.88625 0
438.699 13.3718 0
390.948 43.0099 0
386.128 41.6783 0
47.6475 39.0395 0
52.6 38.3503 0
35.792 3.04264 0
40.3997 1.1029 0
344.08 29.4939 0
348.512 27.1787 0
335.9 17.9006 0
331.004 16.8833 0
23.7437 14.3351 0
22.8646 19.2573 0
230.878 55.0047 0
228.571 59.4405 0
142.949 46.9658 0
140.562 51.3593 0
10.6212 13.706 0
6.17026 11.4289 0
78.4118 52.8016 0
73.413 52.6685 0
237.101 8.81079 0
233.361 5.49253 0
453.179 16.0956 0
450.854 11.669 0
426.285 4.64542 0
423.032 0.848349 0
131.878 21.9262 0
133.222 17.1103 0
215.004 12.3461 0
210.27 13.9543 0
117.786 26.6715 0
121.01 22.8498 0
300.954 18.8533 0
305.945 18.5597 0
430.2 26.4802 0
432.264 21.926 0
44.6425 12.9001 0
48.7995 10.1222 0
3.24032 46.7581 0
0.399643 50.8729 0
45.0443 34.1473 0
47.0111 38.7442 0
10.0289 8.11396 0
8.55157 12.8908 0
289.152 49.1631 0
289.974 54.0951 0
104.784 9.03254 0
100.944 5.83095 0
31.7695 30.0649 0
36.3612 32.0438 0
10.9971 15.0804 0
13.0248 10.51 0
384.242 33.1514 0
379.248 33.401 0
470.208 50.4911 0
474.705 52.6777 0
20.745 50.8428 0
23.1521 55.2252 0
72.9079 44.5284 0
70.7035 49.0162 0
355.883 32.0853 0
351.283 30.1247 0
448.962 38.3747 0
444.705 35.7522 0
393.792 57.8097 0
388.793 57.7045 0
366.664 -0.295992 0
369.576 3.76807 0
366.259 38.8585 0
367.533 43.6936 0
3.02745 11.694 0
7.90188 10.5826 0
195.981 11.8729 0
190.983 12.0026 0
6.24016 42.686 0
1.38694 43.89 0
18.9951 47.7732 0
14.6414 45.3138 0
24.0158 12.3451 0
27.3915 16.0334 0
66.4836 25.6993 0
71.094 23.7644 0
58.3512 1.6233 0
63.3497 1.53601 0
57.1542 10.3529 0
57.4426 5.36109 0
75.1756 0.34598 0
73.6083 5.09412 0
461.444 40.4168 0
461.574 45.4151 0
329.416 3.14992 0
327.421 7.73507 0
320.681 54.9451 0
322.796 50.4145 0
328.631 20.4806 0
326.348 16.0322 0
47.8807 13.393 0
44.2797 16.8617 0
254.144 39.4839 0
259.037 38.4521 0
62.0789 35.3806 0
64.5513 39.7266 0
214.694 11.5505 0
209.943 9.99525 0
307.118 48.3534 0
312.103 48.7424 0
289.579 6.73764 0
285.359 4.05636 0
59.8225 41.5458 0
63.2714 45.166 0
62.0393 27.6586 0
58.455 31.1447 0
279.017 50.9473 0
284.012 50.7194 0
167.755 14.4956 0
169.46 9.79522 0
340.903 33.731 0
342.116 28.8803 0
426.307 2.68743 0
431.122 4.03408 0
496.142 30.4606 0
491.444 32.1716 0
422.738 35.2395 0
417.804 34.4312 0
80.3928 40.7892 0
75.5388 39.589 0
319.6 36.8264 0
317.728 41.463 0
498.476 31.9874 0
498.136 26.999 0
230.746 32.3172 0
228.177 28.0276 0
459.024 32.9734 0
463.72 34.6897 0
244.669 53.7484 0
245.311 48.7899 0
184.212 35.2106 0
186.089 39.8448 0
290.817 19.447 0
288.08 23.6318 0
412.139 57.068 0
412.411 52.0755 0
193.458 6.97335 0
189.756 3.61265 0
6.83976 49.0231 0
10.4335 45.5464 0
360.556 13.551 0
363.771 17.3807 0
355.589 43.9199 0
357.213 39.1909 0
248.083 49.9327 0
243.089 49.6708 0
262.835 27.8884 0
259.365 31.4883 0
86.9001 39.2642 0
84.7002 34.7742 0
344.537 36.9341 0
339.641 35.9178 0
30.4314 15.3064 0
34.4184 18.3233 0
322.754 34.3618 0
318.653 37.2214 0
433.415 24.5893 0
429.358 21.668 0
402.113 48.8786 0
397.392 47.2309 0
181.762 46.589 0
176.774 46.2418 0
377.825 32.3219 0
380.687 28.2216 0
56.0659 18.6338 0
51.3165 17.0716 0
274.682 8.85126 0
269.827 10.0436 0
207.717 15.4783 0
202.857 14.3035 0
331.963 3.39248 0
327.69 0.796058 0
422.288 44.0007 0
420.296 48.5868 0
412.428 13.852 0
415.371 17.894 0
146.315 20.0693 0
146.084 15.0746 0
51.2429 27.524 0
56.2173 27.0197 0
357.559 8.91028 0
361.23 12.3052 0
163.251 53.4546 0
160.479 49.2936 0
282.205 9.78928 0
279.129 13.7309 0
22.1252 30.1737 0
18.9561 34.0412 0
263.72 48.3331 0
267.22 51.9034 0
20.0361 36.7185 0
23.8163 33.4457 0
296.055 39.4141 0
301.011 40.0759 0
100.218 10.6397 0
103.701 7.05278 0
274.638 47.3116 0
279.638 47.3197 0
400.348 55.8793 0
403.358 51.8865 0
372.798 34.8969 0
373.03 29.9023 0
64.1746 9.50341 0
68.965 10.9342 0
222.293 43.9315 0
222.522 38.9368 0
40.6488 2.62978 0
35.6647 3.0187 0
393.425 39.2915 0
389.036 41.6863 0
391.88 56.2496 0
388.452 52.6096 0
121.915 11.8693 0
123.056 7.00116 0
187.759 57.6469 0
192.091 55.1487 0
147.865 2.2513 0
142.892 2.76071 0
141.765 29.669 0
146.664 28.6692 0
142.506 11.7402 0
145.839 15.4671 0
421.888 22.0448 0
419.308 17.7617 0
92.9631 6.7625 0
88.5275 4.45573 0
220.627 18.3943 0
218.305 22.8225 0
30.7356 2.46342 0
29.2026 7.22275 0
288.155 10.1763 0
288.706 5.20658 0
113.622 7.48248 0
112.8 2.55048 0
236.463 5.25371 0
240.05 8.7367 0
227.248 17.5062 0
222.305 16.7546 0
497.674 51.513 0
494.114 55.0245 0
216.042 40.0945 0
220.951 41.0424 0
444.042 12.6904 0
446.829 16.8414 0
182.843 23.9206 0
187.309 21.6722 0
254.775 54.4392 0
259.498 56.083 0
397.937 13.3443 0
402.385 15.6271 0
12.1812 50.1776 0
7.1835 50.3489 0
172.925 23.1526 0
174.314 18.3495 0
36.4232 58.0686 0
31.5967 59.3771 0
124.965 0.959113 0
129.391 3.28597 0
401.029 59.3391 0
406.029 59.3282 0
89.3405 50.2876 0
94.243 49.3024 0
20.7654 28.6669 0
17.0538 25.3167 0
469.365 32.1343 0
468.3 27.2492 0
118.999 30.5723 0
115.084 27.4625 0
13.7595 20.8201 0
16.6801 16.7618 0
211.892 14.1994 0
206.899 14.4669 0
133.684 8.1168 0
138.655 7.58202 0
281.724 53.0167 0
276.796 52.1692 0
40.1631 46.5752 0
37.0095 50.4554 0
131.051 46.3953 0
126.057 46.649 0
330.652 32.4042 0
328.641 27.8261 0
353.924 53.6821 0
348.933 53.989 0
307.127 48.6946 0
307.633 43.7203 0
13.9661 20.2063 0
9.08136 21.2728 0
190.742 41.4282 0
195.411 39.6402 0
326.567 56.3479 0
331.169 58.3038 0
375.723 8.66562 0
370.909 10.0153 0
445.942 50.0575 0
450.942 50.0098 0
369.764 30.6312 0
368.206 35.3825 0
143.352 22.2625 0
146.829 18.6693 0
35.1328 37.6899 0
32.1446 41.6988 0
276.915 4.10616 0
281.906 4.40556 0
305.432 55.1228 0
307.349 50.5049 0
286.865 14.0254 0
283.774 17.9554 0
374.049 46.6694 0
378.836 45.2261 0
419.392 15.1556 0
418.477 10.24 0
140.661 39.0149 0
140.635 44.0147 0
272.126 23.9973 0
267.678 26.2798 0
272.269 42.6707 0
267.356 41.7432 0
364.399 53.3388 0
364.076 58.3283 0
409.977 37.6189 0
410.984 32.7212 0
215.343 33.3261 0
219.807 35.579 0
76.1629 58.667 0
76.931 53.7265 0
418.698 43.8746 0
420.804 48.4097 0
396.229 15.6408 0
391.447 17.1018 0
12.9305 5.99106 0
16.9703 8.93664 0
472.348 2.75085 0
476.626 0.162756 0
162.655 24.2598 0
163.561 19.3426 0
358.99 25.1542 0
361.052 20.599 0
332.205 27.3183 0
334.131 22.7039 0
124.861 14.8133 0
125.114 9.8196 0
215.74 10.2246 0
220.445 11.914 0
163.881 4.04189 0
159.465 1.69763 0
151.27 53.1272 0
149.387 57.7589 0
322.116 47.4025 0
318.632 43.8159 0
443.759 3.52389 0
448.491 5.13754 0
400.474 8.57264 0
396.305 11.3327 0
206.925 16.3243 0
201.952 16.8459 0
313.976 31.8751 0
318.197 34.5537 0
440.787 9.08452 0
441.015 14.0794 0
412.474 36.8619 0
416.837 39.3031 0
13.2157 14.5991 0
18.0367 15.9233 0
421.101 47.2512 0
423.264 51.7589 0
63.7465 14.4257 0
58.8161 13.597 0
72.2311 46.9655 0
70.6603 51.7123 0
491.319 29.2165 0
488.93 33.6092 0
332.688 52.3267 0
336.215 55.8717 0
375.878 36.83 0
380.736 38.0159 0
445.681 35.866 0
443.176 40.1934 0
144.28 14.1114 0
145.085 19.0462 0
376.659 45.2451 0
372.347 42.714 0
33.8244 38.761 0
28.8912 39.5774 0
178.442 40.8448 0
182.742 43.396 0
144.626 30.3343 0
144.942 25.3443 0
277.395 21.9687 0
281.232 18.7637 0
135.583 10.7227 0
130.648 9.92239 0
431.529 19.3821 0
433.421 24.0104 0
378.841 19.5499 0
378.155 14.5972 0
73.5572 54.1439 0
69.024 52.0333 0
322.895 51.7807 0
327.894 51.8618 0
102.502 16.3276 0
106.091 12.8465 0
427.44 40.7795 0
423.31 37.9623 0
436.412 13.6757 0
438.328 18.2941 0
241.137 58.3754 0
245.624 56.168 0
52.8206 50.1192 0
57.2194 52.4972 0
410.145 7.25776 0
407.51 11.5068 0
291.578 59.2516 0
286.577 59.2162 0
235.317 30.7381 0
232.007 34.4862 0
83.549 58.3087 0
78.856 56.5819 0
413.249 12.9839 0
414.775 8.22255 0
331.178 3.8368 0
326.178 3.82934 0
478.124 36.6865 0
483.07 35.9511 0
238.048 31.7458 0
234.069 28.7178 0
363.851 4.1204 0
359.704 1.32789 0
401.957 54.2128 0
401.385 59.1799 0
110.292 41.1853 0
115.292 41.1314 0
325.278 10.7619 0
330.036 9.22691 0
323.506 12.7948 0
324.826 7.97215 0
168.702 7.03677 0
168.989 2.04487 0
465.904 20.4436 0
470.867 19.8385 0
118.472 32.9728 0
115.221 29.1743 0
169.693 53.5856 0
171.4 58.2853 0
490.277 33.9397 0
495.256 33.4824 0
324.418 10.0504 0
320.022 12.4324 0
461.977 52.0582 0
459.11 56.1547 0
383.373 39.3267 0
384.85 34.5496 0
129.896 12.3768 0
134.306 10.0217 0
329.654 26.9728 0
325.925 23.6422 0
54.2216 53.4749 0
50.6542 49.9712 0
379.885 49.6486 0
379.938 54.6482 0
434.674 13.3305 0
429.936 14.9285 0
44.5859 44.3227 0
42.1542 48.6916 0
245.777 5.27239 0
250.285 7.43447 0
20.5145 58.782 0
15.8882 56.8836 0
3.64642 44.4705 0
8.64405 44.6371 0
213.416 41.284 0
217.673 38.6624 0
311.289 54.3021 0
308.501 50.1516 0
104.959 11.0478 0
108.616 14.4577 0
115.488 44.1238 0
117.599 39.5908 0
81.3311 55.2031 0
85.6648 57.6979 0
434.37 40.5154 0
434.677 45.506 0
333.176 6.24195 0
335.565 1.84941 0
139.259 12.1189 0
139.619 17.106 0
409.499 8.55673 0
411.142 3.83416 0
261.313 23.2856 0
256.413 24.2808 0
129.176 58.2412 0
124.364 59.6016 0
113.968 46.2658 0
109.81 43.4888 0
282.336 15.8392 0
285.473 19.7326 0
199.088 17.5343 0
199.557 12.5563 0
425.069 52.8894 0
429.97 51.9027 0
261.171 31.9768 0
264.775 35.4426 0
46.3949 11.9986 0
44.1056 16.4437 0
314.831 27.9525 0
311.376 24.3384 0
272.129 37.1842 0
272.781 42.1415 0
253.976 41.3515 0
252.007 36.7556 0
344.02 37.9228 0
347.129 41.8381 0
362.549 34.4422 0
362.715 29.445 0
147.895 40.3189 0
147.219 45.273 0
396.883 45.8703 0
401.459 43.8552 0
214.046 17.8743 0
218.418 20.3 0
470.044 43.3276 0
467.843 47.8169 0
124.238 46.6568 0
128.158 49.7609 0
202.327 51.811 0
197.544 50.3541 0
228.113 39.741 0
231.48 43.4374 0
400.428 49.4174 0
397.833 53.6919 0
457.861 4.93442 0
458.78 9.84918 0
440.267 21.5052 0
445.231 20.9061 0
43.6601 12.3252 0
39.9149 15.6375 0
244.759 23.5731 0
245.236 18.5958 0
169.551 32.5652 0
174.059 30.4031 0
283.472 19.4693 0
281.16 15.0358 0
163.656 0.452396 0
167.154 4.02572 0
234.866 26.2661 0
230.318 28.3435 0
157.754 38.0676 0
155.186 33.7779 0
78.0828 31.9534 0
73.0947 32.2986 0
120.871 48.2141 0
119.736 43.3447 0
169.25 29.791 0
173.529 27.2059 0
4.19779 37.7119 0
8.39235 40.4335 0
98.4088 53.4889 0
94.0729 55.9797 0
267.223 24.0965 0
262.389 25.3758 0
328.828 41.664 0
333.499 43.4502 0
169.809 2.29154 0
174.745 3.08539 0
208.303 37.4229 0
203.752 39.4936 0
450.2 40.5826 0
445.946 43.2114 0
191.853 14.8533 0
192.405 19.823 0
22.0568 14.2995 0
18.462 17.7745 0
81.8696 12.3737 0
77.017 13.577 0
308.345 19.4632 0
309.608 14.6253 0
358.226 28.5532 0
362.361 31.3641 0
458.886 32.5168 0
459.463 27.5502 0
112.256 7.61083 0
114.313 12.1683 0
411.701 3.51061 0
416.533 4.79532 0
274.915 34.6785 0
275.259 39.6666 0
359.77 55.0459 0
355.545 57.7202 0
393.789 11.626 0
398.787 11.4898 0
463.075 39.1483 0
460.491 34.8677 0
377.998 36.8206 0
374.644 40.5286 0
377.656 25.6626 0
381.879 28.3391 0
19.5981 17.2738 0
24.4066 18.6432 0
11.9191 39.2872 0
14.5243 35.0195 0
211.608 16.4705 0
216.537 17.3067 0
191.931 3.28132 0
195.513 6.76896 0
268.195 10.0851 0
266.621 5.33938 0
241.973 37.1363 0
237.856 34.2987 0
389.914 48.664 0
387.878 44.0971 0
88.315 58.9294 0
88.2677 53.9298 0
396.704 12.3674 0
399.269 16.6593 0
398.992 46.4236 0
403.98 46.0762 0
469.585 52.3206 0
467.09 56.6536 0
236.855 17.0495 0
232.023 18.3361 0
331.138 5.43726 0
326.881 8.05917 0
87.923 44.8766 0
82.9787 44.1298 0
344.067 3.82654 0
348.841 2.34279 0
251.545 38.0675 0
256.323 36.5937 0
352.493 50.3424 0
357.275 48.8785 0
158.519 53.2831 0
162.26 49.9653 0
359.424 14.6909 0
354.801 12.7865 0
159.394 25.7461 0
162.635 29.5538 0
235.169 52.7291 0
236.31 57.597 0
197.4 53.3392 0
196.456 48.4291 0
166.658 52.7254 0
166.857 57.7213 0
209.039 12.9864 0
206.375 8.75474 0
151.281 41.7545 0
149.022 37.2935 0
199.509 59.4875 0
202.66 55.6048 0
358.668 32.1665 0
359.239 27.1991 0
376.922 11.6624 0
381.863 12.4311 0
431.082 49.3484 0
435.659 51.3613 0
421.889 26.5173 0
426.673 27.9699 0
21.1218 56.4839 0
16.8754 53.8433 0
41.44 15.5362 0
42.8252 20.3406 0
53.1385 19.6599 0
50.279 23.7615 0
53.6068 15.0767 0
48.6081 15.1716 0
261.613 1.04332 0
264.217 5.31169 0
318.041 20.2032 0
315.212 24.3263 0
361.716 47.6042 0
358.076 44.1762 0
235.461 8.32117 0
231.633 11.5379 0
150.274 32.4476 0
155.272 32.5581 0
401.389 2.79015 0
406.367 2.32328 0
370.11 44.9077 0
370.954 39.9794 0
318.584 8.23739 0
314.037 6.15723 0
40.5593 36.9252 0
36.8308 33.5937 0
224.965 31.5573 0
227.265 35.9972 0
183.189 48.4761 0
187.491 45.9286 0
22.9309 42.746 0
27.931 42.8045 0
432.395 52.1801 0
434.823 47.8094 0
387.121 4.98839 0
383.724 8.65687 0
323.687 44.6037 0
327.248 41.0936 0
362.299 23.1525 0
365.69 19.4777 0
404.317 54.4321 0
409.156 55.6893 0
254.597 58.5032 0
255.789 53.6476 0
61.238 15.6608 0
56.7045 13.5527 0
83.5348 0.548446 0
83.203 5.53764 0
228.092 45.4118 0
233.092 45.4997 0
492.395 38.7209 0
492.109 33.7291 0
460.384 7.02286 0
464.72 4.53222 0
54.4939 56.5764 0
58.2243 53.2466 0
112.346 11.9288 0
115.723 15.6158 0
220.625 38.2485 0
222.989 42.6545 0
184.799 57.2644 0
180.65 54.4735 0
184.295 55.3176 0
181.731 59.6098 0
163.174 43.9243 0
159.186 46.9406 0
38.1913 51.2613 0
35.4022 47.1114 0
53.8099 1.17021 0
53.7534 6.1701 0
166.049 39.542 0
161.246 38.152 0
494.419 23.5998 0
493.052 18.7904 0
493.735 33.6108 0
497.556 36.836 0
469.679 51.5901 0
474.558 50.4999 0
318.992 44.4793 0
322.327 48.2038 0
45.5473 13.2237 0
41.3938 10.4408 0
200.42 57.8833 0
205.058 59.7515 0
96.4455 40.0201 0
92.4195 37.0551 0
287.703 8.99892 0
283.714 12.0127 0
114.094 47.3232 0
109.899 44.6012 0
209.556 53.0277 0
212.931 56.7173 0
370.61 52.8694 0
374.837 50.1993 0
177.469 53.1923 0
182.032 55.2372 0
59.1383 57.5601 0
54.313 58.8731 0
347.71 12.2787 0
347.433 17.2711 0
18.4989 24.7314 0
15.6786 28.8601 0
121.675 5.90109 0
117.087 7.8875 0
98.0775 8.58504 0
93.8297 5.94831 0
430.135 55.2091 0
432.239 50.6736 0
350.279 27.011 0
346.631 23.5924 0
192.776 10.2859 0
193.29 15.2595 0
345.089 27.4925 0
348.768 24.1064 0
316.077 45.1257 0
319 41.0692 0
489.309 21.1512 0
484.7 23.0895 0
129.276 48.6614 0
124.997 46.0756 0
454.931 39.3307 0
457.634 43.537 0
160.956 51.1844 0
163.383 55.5561 0
127.234 42.2682 0
122.285 42.9764 0
43.5066 41.0033 0
46.9361 44.6418 0
343.672 45.1321 0
338.745 45.9814 0
356.091 39.0425 0
359.075 35.0309 0
101.065 13.3081 0
105.748 15.0592 0
457.495 5.13297 0
457.64 0.135073 0
126.251 14.9068 0
121.884 17.3415 0
176.126 26.7309 0
176.513 31.7159 0
15.4983 39.8553 0
14.1575 35.0384 0
43.6554 5.7507 0
43.9498 0.759165 0
150.714 7.745 0
146.706 10.7334 0
278.573 19.3852 0
282.833 16.7674 0
370.054 26.7222 0
372.372 31.1522 0
22.7026 6.38708 0
21.5542 1.52058 0
275.839 44.3306 0
273.567 48.7849 0
182.295 13.4678 0
186.905 11.531 0
47.0865 1.31664 0
43.1642 4.41695 0
35.6784 24.9945 0
30.7786 25.99 0
455.375 41.6251 0
454.064 46.45 0
304.232 11.4625 0
303.479 16.4055 0
287.936 56.9288 0
289.515 52.1847 0
289.681 41.1483 0
293.618 44.231 0
319.45 9.31268 0
318.513 4.40115 0
360.962 55.568 0
365.924 54.9497 0
328.859 1.24401 0
332.837 4.27389 0
239.043 48.2623 0
236.061 52.2761 0
238.775 10.5858 0
243.004 13.2531 0
20.0301 37.4048 0
16.0978 34.3166 0
174.783 27.4539 0
179.782 27.5823 0
343.713 50.2827 0
338.987 48.6508 0
165.876 18.8827 0
162.273 22.349 0
85.3921 9.39865 0
84.7503 4.43984 0
386.134 44.1013 0
381.189 44.8441 0
157.699 4.40433 0
156.337 9.21547 0
385.02 17.9256 0
382.32 22.1337 0
260.98 45.3825 0
257.205 42.1038 0
414.68 8.65196 0
416.856 4.15049 0
334.374 40.2142 0
339.227 41.4181 0
397.663 5.11774 0
392.677 4.7475 0
143.299 20.0047 0
147.111 16.7686 0
480.525 45.405 0
477.709 41.2732 0
485.477 18.2085 0
485.346 23.2068 0
106.834 41.2168 0
111.821 41.5823 0
308.651 18.058 0
313.605 17.3798 0
44.4476 7.64595 0
42.7072 12.3334 0
432.606 45.6058 0
433.39 40.6677 0
328.076 40.373 0
326.236 45.0222 0
345.05 38.2196 0
347.919 34.1244 0
107.262 56.7388 0
110.955 53.3684 0
93.65 53.8046 0
90.2232 50.1634 0
199.939 48.691 0
203.663 45.3543 0
8.72089 45.7546 0
12.6609 42.6759 0
245.867 22.0128 0
249.451 18.5261 0
472.739 27.3711 0
468.344 24.987 0
243.074 46.9653 0
241.409 42.2505 0
114.885 51.6324 0
110.044 52.8834 0
357.015 43.6913 0
360.182 47.5608 0
460.181 14.3418 0
455.195 14.7126 0
285.239 4.03563 0
289.07 7.24807 0
260.436 11.621 0
263.662 7.80122 0
46.2545 50.5502 0
50.918 52.3548 0
107.128 10.4237 0
102.165 9.8167 0
375.882 13.944 0
372.712 10.0777 0
161.401 13.2894 0
165.777 15.7079 0
391.35 18.187 0
395.226 15.0281 0
127.81 2.86306 0
123.608 0.15427 0
497.87 31.9409 0
497.464 26.9574 0
323.92 36.4388 0
320.856 32.4877 0
54.9309 53.0926 0
59.6958 51.5757 0
366.801 58.5214 0
366.984 53.5248 0
414.802 41.7219 0
417.803 37.7224 0
265.822 35.451 0
264.55 40.2864 0
217.019 53.8358 0
218.349 58.6556 0
384.9 39.3585 0
388.228 43.0904 0
66.3588 51.3244 0
65.4122 46.4149 0
426.353 52.0631 0
425.788 47.0951 0
292.085 1.48865 0
294.101 6.06442 0
49.0223 29.8691 0
44.3617 31.6798 0
384.618 24.1417 0
380.842 20.8644 0
341.003 39.175 0
342.828 43.8301 0
145.267 6.56126 0
141.742 3.01552 0
356.469 34.6454 0
359.51 30.6768 0
188.388 55.4853 0
193.331 56.2423 0
254.333 24.3846 0
259.115 25.8435 0
19.9324 41.3298 0
15.1001 40.0448 0
288.851 12.3963 0
283.853 12.2469 0
251.247 36.5122 0
255.566 39.0317 0
306.449 -0.147187 0
307.023 4.81986 0
271.447 43.7389 0
276.372 42.8748 0
473.402 54.5754 0
478.372 55.1158 0
294.63 46.0958 0
296.139 41.3291 0
238.258 38.4923 0
234.449 41.732 0
361.656 31.0393 0
361.073 36.0051 0
481.898 21.6451 0
479.263 17.3962 0
211.77 26.744 0
212.785 31.6399 0
87.9249 5.15231 0
92.6796 3.60721 0
261.001 53.7038 0
257.769 49.8891 0
410.212 44.5763 0
415.204 44.2837 0
450.345 -0.0794764 0
455.337 0.208105 0
117.894 0.172531 0
112.919 0.664706 0
327.7 10.3203 0
327.312 15.3053 0
334.715 42.3233 0
339.041 44.83 0
30.1069 21.8619 0
35.1018 22.0829 0
320.323 1.67893 0
315.388 2.48149 0
7.00463 57.9906 0
6.54441 53.0119 0
289.1 59.0656 0
284.171 58.2289 0
431.255 0.430614 0
426.871 2.8341 0
119.865 36.3498 0
122.702 40.4668 0
363.872 26.6362 0
360.039 29.8471 0
217.678 19.557 0
215.268 23.9381 0
214.34 8.41722 0
211.01 12.1466 0
73.3712 46.7271 0
73.6848 51.7171 0
115.67 32.1471 0
111.323 29.6766 0
357.611 2.03529 0
359.081 6.81422 0
177.552 29.1129 0
179.462 24.4922 0
320.421 46.7188 0
316.999 50.3646 0
341.267 15.9043 0
346.215 16.6199 0
47.2769 20.2735 0
45.1522 24.7996 0
316.043 31.7109 0
320.713 33.4962 0
360.54 7.68386 0
356.402 10.4901 0
56.4074 12.8694 0
59.2143 17.0071 0
27.8276 46.912 0
24.1597 50.3104 0
369.975 47.6298 0
370.269 42.6385 0
264.045 0.80131 0
268.418 3.2263 0
54.9892 36.6703 0
54.8573 41.6685 0
446.531 49.1635 0
448.836 44.7263 0
183.702 0.894073 0
188.647 0.160175 0
58.4929 33.0357 0
63.2419 34.6005 0
455.213 7.51009 0
456.155 12.4207 0
431.928 10.4462 0
426.982 9.71554 0
86.6215 2.12134 0
91.5444 1.25043 0
362.255 56.3893 0
363.239 51.4871 0
123.685 17.6789 0
123.693 22.679 0
39.1718 46.0676 0
38.7525 41.0853 0
174.062 34.3153 0
172.09 29.7204 0
344.313 36.2081 0
347.586 39.9882 0
53.3888 16.1181 0
55.9979 11.8528 0
218.171 22.1092 0
223.104 21.294 0
275.961 19.4622 0
278.681 23.6577 0
65.0112 54.6711 0
61.0734 57.7528 0
195.429 48.862 0
190.559 50 0
350.925 33.2018 0
355.846 32.3162 0
63.3348 58.0829 0
63.1808 53.0854 0
239.045 29.2687 0
241.786 33.4503 0
225.257 46.3847 0
222.47 42.2333 0
207.199 59.415 0
210.145 55.3745 0
10.6075 36.9849 0
11.7693 32.1218 0
442.083 10.1655 0
443.896 14.8251 0
357.865 30.939 0
355.044 35.0675 0
111.497 18.2285 0
114.265 14.0643 0
259.267 10.6469 0
264.135 9.50363 0
382.094 9.33071 0
383.401 14.1568 0
335.113 49.2999 0
334.229 44.3787 0
232.4 4.61322 0
229.965 8.98033 0
94.0549 57.8527 0
92.5197 53.0943 0
152.204 4.41773 0
147.468 2.81788 0
69.1796 11.9268 0
68.1682 7.03007 0
238.816 5.59403 0
234.649 2.83118 0
438.529 7.408 0
435.025 10.9748 0
335.138 6.83224 0
335.212 11.8317 0
69.504 52.5362 0
66.9997 48.2086 0
172.584 34.3321 0
172.289 39.3234 0
368.292 47.3098 0
364.479 44.0759 0
248.654 45.2344 0
253.651 45.0548 0
260.431 5.7246 0
262.472 10.289 0
338.396 53.0976 0
334.986 49.4406 0
346.509 26.549 0
349.046 22.2399 0
427.96 8.65687 0
425.767 4.1635 0
140.346 17.0349 0
139.572 12.095 0
210.596 22.3961 0
215.406 23.7621 0
144.218 19.5138 0
145.531 14.6893 0
157.479 37.0284 0
153.749 40.3579 0
67.2175 45.7605 0
72.2115 45.5071 0
455.69 0.976399 0
457.905 5.45907 0
205.453 43.7995 0
203.983 48.5787 0
139.171 21.8802 0
137.207 26.4784 0
413.926 37.219 0
409.544 34.8103 0
484.219 57.2791 0
486.058 52.6296 0
124.954 51.452 0
120.565 49.0577 0
189.317 52.0734 0
184.885 49.7583 0
278.272 47.4015 0
273.344 46.5565 0
237.318 25.5252 0
233.892 29.1666 0
274.757 14.5219 0
269.765 14.249 0
122.842 52.1647 0
118.103 53.7588 0
9.46784 14.2569 0
6.95748 9.93286 0
461.716 49.476 0
458.721 45.4718 0
276.319 23.2828 0
281.318 23.1604 0
52.5851 30.6174 0
47.9166 32.4078 0
409.516 40.1925 0
414.107 38.2102 0
12.1241 37.5497 0
7.47994 39.4028 0
274.465 44.9829 0
269.482 44.5656 0
385.164 33.059 0
387.251 28.5153 0
403.289 12.6338 0
399.187 9.7752 0
11.2802 2.35062 0
16.2794 2.34138 0
387.901 45.3982 0
392.681 43.9303 0
279.976 22.7355 0
275.745 25.399 0
392.797 46.7171 0
389.238 43.2042 0
251.49 55.9582 0
249.944 51.2032 0
118.117 42.3645 0
116.085 46.9333 0
341.79 1.42219 0
346.39 3.38039 0
148.46 10.7632 0
143.802 8.94804 0
310.049 53.2233 0
313.766 56.5677 0
182.499 7.05355 0
186.455 10.1109 0
208.961 49.7916 0
211.231 54.2464 0
379.28 44.0501 0
381.298 39.4754 0
365.799 9.53506 0
362.331 5.93413 0
333.755 50.2092 0
331.824 45.5972 0
20.9123 15.4868 0
15.9442 16.0477 0
156.145 9.32283 0
161.118 8.80678 0
331.248 54.3323 0
327.686 57.8409 0
447.279 6.05821 0
447.325 1.05839 0
28.1499 47.4949 0
23.1955 48.1721 0
368.545 42.2216 0
369.236 37.2696 0
41.869 53.0465 0
45.9115 50.1033 0
55.3637 13.0494 0
56.2477 17.9707 0
227.15 53.4424 0
231.943 52.0179 0
287.309 11.2729 0
282.339 11.8195 0
52.0851 44.2541 0
47.0963 43.9144 0
185.863 28.7062 0
181.903 31.7583 0
204.776 45.3857 0
204.265 50.3594 0
215.987 14.3091 0
210.987 14.24 0
315.775 2.91709 0
317.28 7.68533 0
431.246 44.137 0
433.198 39.5335 0
417.904 5.17979 0
413.278 7.07579 0
151.2 8.57634 0
156.138 9.35948 0
317.31 18.813 0
320.811 15.2434 0
155.394 59.0462 0
150.447 58.3168 0
382.587 11.7789 0
379.539 7.81587 0
331.822 44.3826 0
328.267 40.8665 0
248.316 40.0122 0
243.462 41.214 0
432.918 27.4794 0
429.204 30.827 0
392.365 43.3788 0
394.287 47.9947 0
303.452 11.9736 0
306.357 7.9041 0
282.898 41.8144 0
287.882 41.4174 0
249.959 22.8668 0
248.985 27.771 0
208.078 13.2279 0
203.927 16.0139 0
258.496 10.5313 0
263.483 10.8814 0
78.0825 32.6246 0
80.0061 37.2397 0
199.289 16.1904 0
194.3 15.8742 0
203.281 11.0581 0
198.651 12.9452 0
426.49 54.1129 0
423.641 50.004 0
314.948 24.7772 0
317.457 29.1022 0
163.565 50.8517 0
166.669 54.7718 0
59.3937 41.6057 0
54.858 43.7105 0
467.615 30.4465 0
472.56 29.7092 0
350.665 0.281639 0
352.006 5.09867 0
267.476 49.6153 0
266.511 54.5212 0
214.789 24.689 0
209.867 25.5733 0
362.216 53.4654 0
358.978 49.655 0
280.763 28.8375 0
284.919 31.6168 0
276.817 35.4049 0
281.809 35.1138 0
456.62 39.5634 0
459.708 35.6307 0
74.8064 18.8577 0
69.8526 19.5341 0
88.5952 49.7333 0
86.0657 54.0463 0
260.119 59.5294 0
258.287 54.877 0
69.4469 44.4471 0
67.0744 40.0458 0
463.344 44.9896 0
465.492 40.4744 0
326.872 35.7448 0
322.858 38.7267 0
332.728 45.998 0
331.106 50.7277 0
394.86 41.7503 0
399.86 41.792 0
275.87 50.4889 0
272.367 54.0567 0
17.7203 19.5647 0
22.669 18.8527 0
430.698 21.1433 0
434.368 24.5379 0
291.363 18.8664 0
287.064 21.4188 0
406.601 21.45 0
406.419 16.4533 0
382.706 16.8394 0
386.116 20.4958 0
416.003 36.3193 0
420.759 37.8617 0
213.844 40.6703 0
209.098 39.0951 0
447.05 53.904 0
450.069 49.9185 0
480.705 44.1148 0
481.384 39.1612 0
141.036 55.3376 0
136.871 52.5708 0
148.753 12.1619 0
153.142 9.76777 0
423.756 45.9047 0
427.652 49.0385 0
361.866 9.33322 0
358.691 5.47135 0
16.5639 51.2925 0
12.8187 47.9794 0
120.195 19.7752 0
125.133 20.5579 0
369.372 34.8201 0
365.278 37.691 0
115.026 45.967 0
110.4 44.069 0
171.247 27.1114 0
175.819 29.1351 0
300.073 46.2669 0
297.106 50.2918 0
214.674 42.6677 0
217.916 46.4743 0
269.191 9.78163 0
270.729 5.02394 0
170.847 59.3612 0
175.244 56.9798 0
185.789 52.8406 0
185.796 57.8405 0
380.64 51.5316 0
376.789 54.7209 0
249.439 25.4015 0
244.503 26.1947 0
122.883 43.5285 0
118.944 40.449 0
30.576 45.8491 0
25.6844 46.8867 0
438.072 8.53169 0
438.065 13.5317 0
178.993 40.9827 0
183.21 38.2957 0
428.903 57.9591 0
433.089 55.2233 0
383.936 14.3305 0
388.935 14.2666 0
157.187 38.227 0
157.078 33.2282 0
352.954 11.6558 0
350.992 7.05681 0
289.967 0.979162 0
294.874 0.0180106 0
25.278 5.76231 0
30.2208 5.01248 0
106.092 16.4826 0
104.994 11.6047 0
286.155 49.739 0
285.507 54.6967 0
262.889 10.1887 0
267.786 11.1974 0
129.324 41.4523 0
132.685 45.154 0
445.53 52.8901 0
441.805 56.2257 0
334.042 3.15656 0
330.279 6.44941 0
159.265 35.4529 0
159.908 40.4112 0
425.32 42.0368 0
425.029 37.0453 0
21.9834 16.9699 0
21.6598 11.9802 0
485.173 38.9214 0
488.33 35.0444 0
247.989 37.7192 0
243.01 38.1806 0
187.307 23.9998 0
183.231 26.8945 0
266.32 58.6202 0
262.038 56.0386 0
412.613 5.14785 0
412.138 10.1252 0
433.501 32.1826 0
431.396 27.6474 0
143.998 43.8766 0
148.975 43.3976 0
461.364 11.1063 0
464.098 6.91985 0
205.607 16.0423 0
201.735 12.8797 0
153.197 54.565 0
149.812 58.2452 0
452.237 20.5232 0
457.025 21.9628 0
11.7283 0.0727504 0
6.83852 1.11296 0
335.772 6.47117 0
335.494 1.47881 0
204.193 49.1123 0
200.957 52.9242 0
170.078 21.2149 0
173.817 17.8954 0
13.6524 5.67002 0
11.5575 1.12999 0
222.109 53.4297 0
225.049 49.3857 0
125.028 24.8103 0
120.034 25.0552 0
70.8079 8.36646 0
66.4594 10.8337 0
33.0538 25.3061 0
36.7633 21.9536 0
412.007 46.7425 0
415.856 49.9343 0
145.507 6.6821 0
148.487 10.6966 0
264.14 49.4868 0
268.983 48.2433 0
259.558 36.8808 0
262.587 32.903 0
375.895 23.0304 0
377.223 18.2099 0
284.36 32.7158 0
281.428 36.7658 0
12.0525 30.4048 0
16.9799 29.556 0
110.677 0.799921 0
115.008 3.29731 0
405.206 13.8043 0
404.84 8.81772 0
295.389 4.41794 0
298.871 8.00661 0
195.775 52.0192 0
191.832 48.9453 0
112.204 0.27834 0
113.688 5.05317 0
46.8632 6.98563 0
51.454 8.96547 0
49.7306 31.1794 0
44.772 30.5367 0
156.38 32.835 0
160.532 35.6213 0
346.591 35.835 0
344.868 40.5285 0
258.823 49.4984 0
254.293 51.615 0
463.461 59.5406 0
468.427 58.9609 0
466.428 28.0634 0
466.12 23.0728 0
66.7027 56.63 0
64.6184 52.0852 0
362.891 40.4625 0
366.235 44.1799 0
248.158 59.5235 0
250.309 55.0101 0
125.37 32.8549 0
129.711 30.3741 0
94.2128 0.771072 0
89.9775 3.42773 0
29.2983 39.9598 0
24.3594 40.741 0
222.437 54.5111 0
220.046 58.9023 0
392.898 3.07079 0
387.926 3.59861 0
163.229 58.6283 0
158.352 59.7351 0
89.5067 5.25005 0
85.0533 7.52233 0
112.474 12.9724 0
115.228 8.79877 0
138.104 13.4468 0
133.151 12.7668 0
496.571 16.6679 0
493.638 12.6185 0
48.7799 26.313 0
44.4988 28.896 0
473.217 29.3137 0
473.523 34.3044 0
182.575 50.181 0
178.846 53.5121 0
228.104 40.9062 0
225.37 36.7201 0
429.908 51.868 0
425.208 50.1623 0
364.425 4.1796 0
359.538 5.23677 0
233.523 16.8281 0
232.168 21.6409 0
43.0066 0.492112 0
40.5243 4.83242 0
145.77 20.0307 0
140.791 19.5728 0
119.197 45.3601 0
124.144 46.0888 0
453.076 53.0355 0
453.601 48.0632 0
6.59543 11.4891 0
1.66497 10.6612 0
61.6963 28.081 0
66.3531 26.2607 0
250.737 36.1737 0
251.168 41.155 0
32.5513 6.3862 0
35.7506 10.2285 0
161.959 0.516815 0
165.855 3.65087 0
435.059 9.15454 0
439.936 10.2539 0
359.845 36.2563 0
361.013 31.3946 0
116.281 9.05944 0
111.919 11.5035 0
472.688 39.1082 0
476.545 42.2894 0
484.554 44.8554 0
482.874 49.5646 0
70.7044 16.0402 0
71.6799 11.1362 0
236.194 18.3014 0
231.234 18.9305 0
187.771 52.0702 0
182.775 51.8669 0
383.146 45.8762 0
378.153 46.1424 0
76.6204 24.7178 0
79.3904 28.8803 0
411.327 35.0541 0
408.834 39.388 0
0.129473 31.0788 0
4.48912 28.6307 0
43.7772 45.9042 0
47.8159 48.8524 0
131.55 35.5917 0
130.197 40.4053 0
115.998 35.8756 0
111.49 38.0381 0
366.238 56.4814 0
362.834 52.8189 0
364.194 14.3016 0
359.35 13.0631 0
40.7463 14.6821 0
42.5389 10.0145 0
217.685 32.4017 0
222.578 33.4287 0
166.405 48.2894 0
171.271 49.4406 0
495.044 56.1261 0
490.051 56.3848 0
311.837 20.2313 0
308.361 16.637 0
18.0984 50.8922 0
13.5019 52.8613 0
356.623 26.0161 0
360.301 22.6292 0
240.633 8.36777 0
244.875 5.72069 0
423.141 43.6053 0
419.6 40.0757 0
445.049 20.8953 0
444.184 25.82 0
81.3818 13.4324 0
76.4156 12.8555 0
162.474 31.7004 0
167.081 29.759 0
72.007 21.7111 0
71.9826 26.7111 0
4.47902 21.6524 0
6.6468 17.1468 0
325.677 17.1215 0
320.702 16.6225 0
214.307 18.8742 0
211.803 14.5466 0
19.6196 47.9829 0
14.8487 49.4806 0
66.8711 3.51079 0
71.663 4.93624 0
417.826 16.2151 0
417.981 21.2127 0
411.707 51.7217 0
413.353 47.0006 0
370.813 5.49972 0
368.992 10.1561 0
32.5174 20.8734 0
37.4321 19.9547 0
291.242 43.1613 0
293.179 38.552 0
24.1743 21.8658 0
28.5989 24.1943 0
379.33 39.3909 0
376.278 35.4306 0
95.3213 54.9436 0
97.1711 50.2984 0
407.653 36.7983 0
404.308 40.5147 0
96.6397 6.25082 0
92.0023 4.38306 0
461.96 42.5745 0
463.321 37.7634 0
338.77 54.3661 0
334.004 55.8783 0
83.4375 52.1596 0
87.7345 54.7168 0
121.39 40.8648 0
116.433 40.2062 0
252.986 28.9396 0
255.186 33.4295 0
321.022 43 0
317.703 39.2602 0
391.561 10.4589 0
393.844 14.9071 0
354.049 16.1606 0
357.537 19.7432 0
487.721 42.4734 0
491.227 38.9089 0
212.671 15.9398 0
210.576 20.4797 0
331.663 52.9341 0
336.654 53.2289 0
498.251 30.3411 0
499.369 25.4676 0
464.334 10.5666 0
467.307 6.54681 0
479.717 45.4772 0
477.501 40.9954 0
410.847 28.3057 0
415.209 30.7488 0
344.551 40.51 0
347.249 44.7196 0
332.253 34.7142 0
332.822 39.6818 0
206.856 44.3275 0
209.562 48.5315 0
441.356 14.4467 0
442.882 9.68507 0
145.481 20.8977 0
148.896 24.5496 0
257.325 13.0605 0
262.123 11.6522 0
164.387 7.35039 0
169.282 6.33251 0
317.653 59.2961 0
314.076 55.8022 0
135.548 43.7131 0
134.335 38.8625 0
479.273 1.95813 0
483.08 5.19982 0
455.456 6.89255 0
460.223 8.40083 0
63.6665 27.6353 0
62.1799 32.4092 0
2.75398 53.075 0
3.14711 58.0594 0
260.657 52.0399 0
258.529 56.5642 0
50.1659 47.7597 0
46.909 51.5537 0
183.521 43.1907 0
185.5 38.5987 0
496.28 57.0253 0
491.791 54.823 0
489.151 10.3559 0
492.338 14.2087 0
317.656 19.659 0
320.084 15.2877 0
272.845 6.71657 0
274.679 2.06507 0
373.77 39.0821 0
378.559 37.6452 0
132.361 28.003 0
136.527 25.2382 0
151.827 13.42 0
147.385 11.1252 0
125.354 54.0573 0
121.594 50.7607 0
423.52 45.2851 0
420.303 41.457 0
334.488 39.3461 0
336.685 34.8546 0
54.2317 26.6466 0
53.1874 31.5363 0
471.539 25.1517 0
469.709 29.8047 0
149.969 6.96375 0
146.619 10.675 0
231.143 44.948 0
226.544 42.9873 0
144.368 53.6069 0
148.302 56.6941 0
235.93 19.5822 0
230.939 19.2836 0
114.204 41.9005 0
109.912 44.465 0
141.473 48.7127 0
137.256 46.026 0
120.429 10.0892 0
123.94 13.6487 0
6.15713 17.1057 0
5.57711 12.1394 0
313.035 49.9274 0
314.641 45.1922 0
458.974 7.99027 0
456.48 3.65633 0
62.6759 58.685 0
57.6783 58.8634 0
317.58 41.3826 0
318.942 36.5716 0
453.043 21.7786 0
450.641 26.164 0
355.48 18.6581 0
360.181 16.9568 0
486.508 38.3144 0
490.857 40.7822 0
217.281 22.0067 0
213.893 18.3293 0
306.102 5.68558 0
310.808 3.9965 0
110.427 47.9833 0
106.049 45.5677 0
239.004 7.28591 0
237.309 2.58196 0
250.59 22.975 0
255.586 23.1698 0
238.432 16.6547 0
237.832 21.6186 0
23.969 8.95568 0
25.0815 13.8305 0
3.89659 22.3274 0
4.68962 17.3907 0
332.198 8.46419 0
330.098 3.92655 0
339.215 35.7587 0
342.484 39.5425 0
447.826 43.1241 0
443.566 40.5067 0
77.6137 21.6426 0
75.4679 26.1588 0
428.699 3.53253 0
423.807 4.56748 0
280.695 38.8743 0
282.14 43.6609 0
252.284 35.5485 0
256.781 33.3624 0
122.04 58.902 0
126.012 55.8646 0
10.5299 45.6299 0
14.2706 42.3119 0
138.406 29.3121 0
133.828 27.3014 0
478.981 45.847 0
480.494 41.0815 0
221.653 21.0423 0
223.183 25.8024 0
250.859 44.9803 0
249.687 49.8411 0
198.824 49.3315 0
202.754 52.4218 0
456.55 4.05576 0
453.662 8.13737 0
382.063 17.5179 0
381.499 22.486 0
159.843 52.9725 0
159.737 47.9737 0
310.207 1.9725 0
311.807 6.70948 0
103.942 15.4256 0
99.0367 16.3927 0
229.888 12.8936 0
225.299 14.8781 0
477.907 5.70084 0
473.473 3.39051 0
88.2576 29.9141 0
85.2209 25.942 0
338.538 51.099 0
343.497 50.4613 0
410.993 6.8108 0
415.832 8.06854 0
191.074 3.77864 0
196.053 4.22551 0
475.217 43.9397 0
474.617 48.9036 0
196.775 54.8219 0
200.359 51.3353 0
498.218 14.618 0
497.746 9.64035 0
54.7501 13.4087 0
53.2196 8.64859 0
141.701 52.2768 0
145.034 56.004 0
443.968 53.6913 0
448.442 55.9248 0
459.887 39.7408 0
460.92 34.8486 0
58.6951 21.6493 0
62.6575 18.6 0
485.841 12.8545 0
483.067 8.6949 0
89.4247 13.4021 0
86.5126 9.33785 0
497.121 8.00281 0
493.311 4.76479 0
317.952 41.5985 0
319.429 46.3755 0
487.311 58.2425 0
488.07 53.3003 0
209.852 32.5801 0
212.303 28.222 0
405.964 55.656 0
409.678 59.0037 0
300.512 12.8289 0
295.616 11.8175 0
383.412 17.3674 0
386.127 13.1687 0
395.375 3.49889 0
390.811 5.54059 0
434.237 41.2599 0
431.029 37.4244 0
448.245 58.4537 0
452.177 55.3643 0
434.324 40.5119 0
437.74 36.8604 0
446.796 43.8735 0
443.874 47.9303 0
182.681 33.323 0
184.494 37.9829 0
151.478 57.9857 0
154.759 54.2129 0
28.0095 53.0425 0
25.9205 48.4998 0
416.389 3.09564 0
421.252 1.93136 0
314.624 44.0059 0
309.708 43.0899 0
61.2056 7.85816 0
60.8775 12.8475 0
339.348 52.6171 0
343.856 50.4539 0
19.6917 14.1271 0
22.379 9.91071 0
125.944 46.9534 0
128.473 51.2662 0
143.639 28.5416 0
146.317 24.3194 0
465.364 55.5464 0
470.354 55.229 0
432.342 57.2779 0
435.426 53.3428 0
423.348 38.684 0
428.266 39.5879 0
149.118 31.5264 0
145.445 28.1336 0
140.279 40.9353 0
138.328 36.3315 0
263.819 0.117736 0
266.115 4.55928 0
63.5236 18.6735 0
65.6024 23.2209 0
435.524 36.7813 0
439.985 39.0397 0
330.832 39.8645 0
326.051 38.4005 0
364.032 31.4379 0
366.192 35.9474 0
483.409 24.4415 0
478.414 24.2245 0
230.166 54.374 0
229.267 49.4554 0
492.867 12.7772 0
489.115 9.47155 0
36.1564 8.44156 0
34.733 3.64831 0
433.381 48.0235 0
429.775 44.5597 0
191.582 37.9051 0
188.954 33.6516 0
172.156 9.3747 0
168.264 12.5131 0
132.827 39.2211 0
135.674 43.3314 0
399.602 45.097 0
395.478 42.2703 0
482.819 42.9422 0
486.126 46.6924 0
162.591 21.4128 0
163.73 26.2814 0
378.424 35.6727 0
376.916 30.9054 0
277.524 25.1342 0
279.366 20.486 0
142.822 21.4067 0
144.559 26.0954 0
367.639 18.7586 0
364.071 22.2611 0
175.421 21.011 0
179.62 23.7256 0
144.626 33.1371 0
139.675 33.8369 0
162.028 28.1071 0
157.275 29.6589 0
282.977 24.003 0
283.158 28.9997 0
100.259 53.0805 0
95.3267 52.2597 0
137.006 52.6673 0
141.977 53.2129 0
20.1255 49.9324 0
18.2322 45.3048 0
338.992 55.3624 0
333.994 55.1981 0
415.639 15.9682 0
420.599 15.3387 0
17.7207 19.0344 0
12.7251 19.2353 0
156.243 0.445973 0
154.757 5.22004 0
86.3724 30.0594 0
87.3365 34.9655 0
50.9538 33.9244 0
46.6009 36.3848 0
52.0645 32.9457 0
47.3593 31.2542 0
251.707 23.6517 0
254.634 19.5981 0
436.86 18.6617 0
433.113 21.9721 0
320.687 35.829 0
315.692 35.6054 0
254.439 12.9411 0
252.464 8.34762 0
16.1162 40.2048 0
17.2486 45.0748 0
131.467 16.197 0
135.019 19.7151 0
223.461 46.6594 0
222.757 51.6094 0
113.122 0.957032 0
116.528 4.61786 0
175.26 51.602 0
179.258 54.6058 0
286.532 41.6665 0
286.271 46.6596 0
411.138 50.9511 0
406.772 53.388 0
275.282 7.38166 0
280.26 7.84918 0
381.321 15.5533 0
384.099 11.3965 0
403.921 8.46001 0
404.2 3.46775 0
115.357 56.5704 0
119.197 59.7735 0
319.538 7.67553 0
321.395 3.0332 0
170.554 53.6621 0
171.916 48.8514 0
311.095 10.6233 0
308.56 14.9333 0
383.223 4.9841 0
388.144 4.10502 0
378.316 54.0729 0
378.324 49.0729 0
290.195 15.1621 0
291.517 19.9842 0
190.336 7.95985 0
191.963 3.23175 0
281.325 47.8808 0
285.423 45.0148 0
376.962 34.2183 0
380.245 30.4465 0
31.0961 6.45204 0
27.1972 9.58181 0
265.225 41.9204 0
268.932 45.2749 0
240.488 1.69687 0
245.04 3.76538 0
252.92 45.343 0
252.548 50.3291 0
235.212 24.5923 0
235.284 19.5927 0
274.757 24.795 0
269.873 23.7245 0
192.063 18.2215 0
192.651 13.2562 0
235.633 34.105 0
240.176 36.1941 0
156.218 55.6292 0
155.371 50.7015 0
49.9213 7.04425 0
47.3421 2.76086 0
53.0978 26.4076 0
56.2081 30.3224 0
397.067 8.53906 0
400.807 11.8573 0
134.753 35.5315 0
136.512 40.2118 0
305.396 3.98292 0
310.135 5.5762 0
78.945 39.6024 0
82.9453 36.6025 0
328.092 11.7289 0
332.888 13.1439 0
65.8431 6.911 0
64.3742 11.6905 0
105.054 41.3451 0
107.493 45.7101 0
320.778 14.2935 0
317.248 17.8352 0
332.855 31.1945 0
330.987 26.5566 0
469.767 30.1223 0
474.54 31.6118 0
347.935 26.1864 0
342.968 26.7526 0
114.79 48.3795 0
110.134 46.5571 0
211.415 11.3421 0
210.513 6.42413 0
115.985 25.071 0
118.413 29.4423 0
174.649 48.9424 0
170.931 52.2861 0
201.085 50.6163 0
196.277 51.99 0
352.368 45.1837 0
348.729 41.7546 0
77.7865 9.52104 0
73.8696 12.6284 0
13.701 4.06689 0
9.11544 2.07533 0
447.615 25.1296 0
446.109 29.8973 0
368.765 14.6878 0
364.562 17.396 0
298.71 14.5195 0
303.708 14.373 0
271.014 6.9268 0
271.861 1.99891 0
391.028 4.10031 0
393.557 -0.213265 0
413.029 23.4595 0
410.229 27.6016 0
331.291 12.9354 0
331.318 7.93545 0
384.007 2.27187 0
384.81 7.20708 0
72.6366 34.4542 0
68.7859 37.6437 0
420.612 5.70299 0
425.591 6.15884 0
305.858 45.3607 0
301.277 47.3628 0
225.71 33.1711 0
220.72 32.8499 0
367.904 22.0991 0
364.89 26.0886 0
445.362 53.0837 0
445.858 58.059 0
151.82 57.2262 0
146.82 57.1606 0
178.39 21.2465 0
182.546 24.0274 0
116.188 43.9273 0
113.235 47.9621 0
258.846 33.6543 0
260.918 38.2046 0
345.359 46.3023 0
342.033 42.5691 0
257.509 39.9001 0
258.818 35.0745 0
15.9919 9.86928 0
16.1438 4.8714 0
138.601 26.9026 0
133.633 27.468 0
187.224 40.8473 0
182.902 38.3328 0
327.845 26.5218 0
329.623 31.1951 0
330.172 23.272 0
330.831 28.2283 0
49.982 48.9598 0
51.2377 44.1202 0
135.368 14.648 0
136.663 9.81852 0
167.67 18.3827 0
172.321 16.5477 0
235.451 10.3796 0
230.476 9.88295 0
399.758 7.36751 0
404.696 8.15016 0
181.074 48.8883 0
185.395 51.4062 0
299.221 43.7965 0
299.823 48.7601 0
243.386 25.0693 0
240.27 21.1592 0
478.155 0.645088 0
478.122 5.64499 0
70.35 13.8521 0
74.6722 11.3391 0
418.677 16.4436 0
416.764 11.8239 0
251.848 33.3249 0
253.466 28.5939 0
53.7757 56.3884 0
50.6451 52.4896 0
215.782 10.4168 0
214.331 15.2016 0
338.173 52.7199 0
336.772 47.9202 0
497.599 3.66804 0
493.082 1.52491 0
462.597 39.1516 0
463.367 34.2112 0
488.474 46.0152 0
488.172 51.006 0
142.265 35.3714 0
145.356 31.4417 0
281.779 32.5648 0
278.289 28.9848 0
199.968 45.6541 0
202.798 49.7765 0
178.164 27.4594 0
179.119 22.5515 0
231.869 42.0124 0
231.093 46.9519 0
28.044 1.21997 0
25.3566 5.43628 0
248.805 20.6624 0
246.861 25.2689 0
378.145 54.2857 0
382.953 52.9125 0
364.315 29.2705 0
361.096 33.0967 0
494.283 8.90486 0
499.222 8.12426 0
493.141 53.5963 0
498.035 54.6198 0
481.029 19.3397 0
485.996 18.7617 0
340.661 19.4699 0
336.623 22.4188 0
486.062 50.5587 0
481.245 49.2182 0
491.697 15.1775 0
488.893 11.0381 0
244.565 12.1993 0
239.582 12.6096 0
211.994 49.4938 0
207.977 46.517 0
471.924 3.28969 0
466.96 2.69631 0
58.6723 17.7529 0
53.7663 16.7898 0
74.7029 15.4871 0
78.1325 19.1254 0
139.145 40.4436 0
134.177 39.8711 0
382.124 47.0676 0
387.082 46.4246 0
173.723 39.4266 0
178.449 41.0584 0
0.689212 49.9881 0
4.78122 47.1143 0
58.2276 8.14818 0
59.0535 3.21668 0
229.042 35.0015 0
225.551 31.422 0
388.698 30.3269 0
389.727 35.2198 0
265.281 24.7154 0
260.299 25.132 0
162.817 4.0113 0
158.32 6.19636 0
72.0798 24.9455 0
77.0653 25.3238 0
194.09 46.8971 0
196.088 42.3136 0
239.996 13.5536 0
244.113 16.3908 0
11.2839 31.7628 0
6.84807 29.4555 0
220.624 33.1565 0
222.79 37.6628 0
150.247 7.86701 0
154.596 5.40179 0
156.717 44.9143 0
161.157 42.6136 0
150.925 33.7841 0
145.926 33.9017 0
389.543 14.1349 0
386.78 18.3022 0
260.895 23.4603 0
256.953 20.384 0
105.521 15.6338 0
109.979 13.3708 0
145.779 49.4849 0
144.243 44.7269 0
364.58 20.5494 0
360.574 17.5579 0
350.619 8.04755 0
346.183 5.74168 0
343.372 28.2026 0
343.014 33.1897 0
137.843 19.0812 0
140.668 23.2068 0
456.825 54.6375 0
451.825 54.5964 0
233.517 30.9063 0
235.111 26.1672 0
441.172 5.33139 0
442.825 0.612314 0
430.731 5.95899 0
425.865 7.10957 0
187.114 53.4715 0
183.42 50.1012 0
61.8009 40.0929 0
60.2431 35.3418 0
54.6858 39.2025 0
55.2566 44.1697 0
33.9273 51.3037 0
30.212 54.6502 0
237.513 42.3935 0
240.072 38.0975 0
410.573 52.6102 0
405.577 52.4229 0
465.572 7.67961 0
467.325 12.3622 0
238.728 54.8608 0
234.992 58.1834 0
393.584 47.6216 0
389.942 51.0465 0
133.082 22.908 0
130.188 26.9855 0
32.4092 45.3813 0
37.3922 44.9635 0
61.7039 50.9774 0
66.2901 48.9846 0
128.559 44.0148 0
131.885 47.7478 0
178.18 35.2454 0
182.997 36.5883 0
354.312 51.3475 0
349.404 52.3064 0
221.19 18.8848 0
217.533 22.2947 0
79.7274 56.6859 0
75.6909 53.7345 0
137.639 50.9186 0
134.924 55.1169 0
10.7966 46.8786 0
8.42732 42.4755 0
490.728 24.3866 0
495.159 26.7038 0
351.203 4.45156 0
347.381 7.67494 0
274.978 32.166 0
270.249 33.7911 0
156.456 7.55754 0
154.42 12.1239 0
125.571 2.10864 0
130.105 4.21438 0
123.791 59.891 0
127.894 57.0329 0
53.3493 55.5013 0
50.0814 51.7168 0
393.32 41.3179 0
395.624 45.7553 0
456.191 21.1105 0
455.013 25.9698 0
481.679 4.57519 0
486.041 7.01889 0
14.4089 24.8383 0
16.1225 29.5355 0
424.395 45.4983 0
420.463 48.5868 0
256.17 42.0684 0
258.5 37.6448 0
321.74 54.5214 0
321.592 49.5236 0
285.284 27.7894 0
284.897 32.7744 0
387.125 47.3852 0
383.042 50.2719 0
464.095 8.18089 0
465.071 13.0848 0
257.37 53.8553 0
254.652 58.0521 0
130.765 53.4568 0
133.435 57.6838 0
77.808 5.07924 0
72.9395 3.94268 0
40.2144 40.1089 0
43.9444 43.4388 0
151.975 54.7245 0
150.307 59.4381 0
475.529 35.722 0
470.529 35.7088 0
164.174 39.4808 0
160.835 43.203 0
438.808 43.7606 0
443.584 42.2812 0
448.729 14.4097 0
444.008 12.7639 0
382.728 40.8966 0
387.667 40.12 0
284.698 16.5344 0
279.714 16.9319 0
24.4949 47.7683 0
28.5803 50.6515 0
459.481 30.0442 0
462.841 26.3409 0
351.76 11.634 0
347.469 14.2008 0
252.119 49.3399 0
257.068 50.0562 0
318.617 55.2003 0
322.536 58.3047 0
25.1972 54.2216 0
20.4493 55.7911 0
489.759 16.8585 0
492.941 20.7153 0
323.102 29.7186 0
319.832 33.5012 0
411.253 45.4434 0
406.631 47.3511 0
158.511 54.3645 0
155.879 58.6154 0
76.364 27.7253 0
79.0935 23.536 0
282.052 10.0041 0
277.277 8.52241 0
266.532 43.7234 0
271.286 42.1731 0
16.5764 14.9935 0
14.328 19.4595 0
12.721 40.3115 0
10.7255 35.727 0
350.903 18.5113 0
347.201 15.1514 0
431.581 50.9445 0
426.804 52.4219 0
113.998 41.6736 0
113.36 46.6327 0
15.2663 36.462 0
11.8185 32.8408 0
235.786 25.6366 0
239.009 21.8137 0
292.253 4.1817 0
287.531 2.5379 0
490.457 51.0518 0
494.436 54.0794 0
39.1719 40.1153 0
40.2842 44.9899 0
44.896 50.3663 0
49.7869 49.325 0
170.558 9.28736 0
175.058 7.10726 0
310.657 54.1371 0
309.808 49.2097 0
148.887 38.8548 0
152.152 35.0679 0
309.036 24.7352 0
310.548 19.9691 0
187.565 17.5653 0
189.068 12.7964 0
445.871 23.1101 0
445.281 28.0752 0
220.609 55.2664 0
223.816 59.1026 0
348.383 54.5265 0
348.642 59.5197 0
116.828 47.471 0
115.061 42.7937 0
139.523 31.5617 0
135.468 28.6362 0
343.551 24.8218 0
343.526 19.8218 0
447.206 25.1156 0
445.112 29.6561 0
32.0013 19.1748 0
34.0468 14.6122 0
14.5236 40.5713 0
12.2867 45.0431 0
293.021 10.7497 0
297.339 13.2705 0
78.2843 32.249 0
82.5146 34.9145 0
229.298 41.3272 0
224.728 43.3568 0
163.333 44.933 0
158.509 46.2494 0
184.666 45.8449 0
184.746 40.8456 0
175.928 34.1065 0
180.451 36.2368 0
62.9036 34.4787 0
67.4115 32.3154 0
121.442 57.8264 0
119.785 53.109 0
280.22 51.6262 0
280.642 56.6082 0
440.092 40.8353 0
436.597 44.4103 0
264.571 43.72 0
269.52 43.0073 0
378.548 20.5587 0
376.711 15.9083 0
416.508 10.3408 0
415.407 5.46349 0
72.3817 40.2952 0
70.4579 35.6802 0
298.269 50.2168 0
300.334 54.7705 0
394.199 10.4006 0
390.176 13.37 0
176.047 19.9251 0
180.945 18.9239 0
382.029 39.2961 0
378.828 35.4552 0
46.5133 28.1819 0
50.0669 24.6645 0
10.7072 54.2213 0
12.1497 59.0085 0
123.51 39.7258 0
123.624 34.7271 0
91.7597 44.6817 0
96.7595 44.6052 0
140.264 35.9941 0
138.84 31.2013 0
452.453 14.8384 0
457.449 15.0304 0
470.417 52.0959 0
469.745 57.0505 0
288.155 3.59765 0
289.121 8.50349 0
485.985 17.0277 0
490.763 18.4998 0
182.907 10.2546 0
186.541 6.821 0
454.671 38.0106 0
453.327 42.8266 0
222.947 52.8851 0
227.023 55.7816 0
19.9339 45.1482 0
18.9896 50.0581 0
60.5806 31.4699 0
56.9808 27.9999 0
77.7854 58.5654 0
82.7709 58.955 0
129.811 14.65 0
133.954 11.8511 0
341.269 4.0206 0
336.303 3.43491 0
457.556 15.1411 0
462.362 13.7611 0
218.533 17.2101 0
222.539 14.2176 0
27.2848 48.4827 0
31.7913 46.3158 0
467.287 33.6496 0
471.085 36.9021 0
32.4507 46.9779 0
31.5373 51.8937 0
18.5896 33.8741 0
18.1695 28.8918 0
250.585 31.6479 0
255.549 31.0522 0
32.4536 39.6824 0
37.4329 39.2249 0
125.197 44.1168 0
125.531 39.128 0
408.275 6.01091 0
412.779 3.83862 0
206.908 51.6051 0
206.612 56.5962 0
329.761 32.2038 0
334.527 30.6939 0
449.581 42.3694 0
447.123 46.7232 0
437.646 56.7238 0
432.902 58.3029 0
144.969 10.5566 0
142.017 6.5208 0
150.16 19.513 0
149.858 24.504 0
118.487 16.5417 0
113.489 16.4257 0
143.228 44.1719 0
144.032 49.1067 0
377.559 26.5437 0
378.326 31.4845 0
169.046 30.7028 0
173.946 31.6938 0
414.905 38.7746 0
419.704 40.1779 0
18.495 28.802 0
20.865 33.2046 0
184.268 48.1359 0
184.046 43.1409 0
220.77 47.985 0
215.787 47.5796 0
118.705 37.0584 0
115.761 41.0999 0
456.656 36.171 0
451.662 35.9138 0
108.62 51.629 0
105.165 55.2434 0
253.721 54.5837 0
256.272 50.2838 0
202.193 5.47047 0
201.152 10.361 0
348.684 32.6927 0
344.787 29.561 0
119.921 23.1528 0
115.267 24.9799 0
389.394 45.48 0
387.238 49.9912 0
128.258 28.3051 0
131.437 24.4455 0
64.2822 28.5194 0
65.7262 33.3063 0
187.052 50.1979 0
184.248 46.0582 0
23.7904 19.0952 0
22.9487 24.0239 0
84.377 18.8567 0
79.4537 19.7278 0
240.982 30.7855 0
245.773 29.3563 0
329.801 41.3231 0
334.801 41.3222 0
364.328 48.5162 0
361.874 52.8726 0
429.041 18.9382 0
433.348 16.3987 0
354.7 34.4951 0
359.323 32.5907 0
442.769 34.9028 0
444.198 39.6943 0
242.93 5.66788 0
244.598 0.954068 0
142.279 33.2588 0
139.148 37.1572 0
169.342 57.2815 0
165.851 53.7018 0
479.057 33.4104 0
481.609 37.7103 0
477.933 37.8272 0
475.225 33.624 0
384.086 6.43753 0
388.25 9.20474 0
277.849 53.3376 0
273.052 51.9263 0
68.6828 34.1803 0
68.8026 29.1817 0
7.66915 42.3236 0
11.9089 44.9744 0
51.9689 22.7304 0
53.6152 27.4515 0
254.344 13.7878 0
251.094 17.5873 0
475.084 28.2133 0
472.265 32.3429 0
182.792 19.3755 0
187.273 17.1575 0
80.3073 37.9633 0
76.2591 40.8982 0
383.894 45.1772 0
388.891 45.3482 0
355.154 57.1361 0
360.103 56.4222 0
228.955 7.84788 0
226.516 3.48335 0
40.7055 58.358 0
39.7637 53.4476 0
355.929 2.52352 0
356.368 7.50431 0
275.384 45.3544 0
277.129 40.6687 0
474.082 29.549 0
478.544 31.8062 0
494.052 53.9422 0
492.152 58.5672 0
356.485 0.942765 0
357.882 5.74346 0
137.911 24.2933 0
137.483 19.3116 0
277.845 29.7395 0
274.445 26.074 0
130.674 19.4263 0
134.993 21.9443 0
156.336 50.7703 0
156.139 55.7663 0
439.142 36.3292 0
437.74 31.53 0
340.433 46.7802 0
335.517 45.8674 0
237.041 23.0524 0
239.413 27.4537 0
397.164 18.8338 0
402.136 19.3647 0
115.034 56.2863 0
118.471 59.9171 0
172.644 24.2796 0
176.607 21.2314 0
51.3465 21.6795 0
51.5628 26.6749 0
77.5296 5.1357 0
72.8384 3.40757 0
384.376 12.5027 0
380.988 16.1797 0
322.283 35.3827 0
327.268 34.9965 0
414.913 30.2052 0
410.808 27.3503 0
396.893 10.871 0
393.83 6.9188 0
467.867 33.8664 0
472.831 33.2683 0
468.052 20.32 0
466.557 25.0913 0
372.497 47.7609 0
376.428 44.6719 0
424.62 33.6651 0
429.353 35.2774 0
318.525 28.7505 0
313.705 27.4185 0
246.07 3.05341 0
241.363 4.73999 0
350.848 32.9806 0
351.108 27.9874 0
297.658 44.3434 0
302.336 46.1077 0
237.682 33.6489 0
237.315 38.6354 0
421.824 47.0093 0
424.102 42.5587 0
296.03 19.1028 0
291.187 17.8613 0
124.004 0.645213 0
125.918 5.26443 0
375.842 57.6141 0
371.28 59.6604 0
180.335 29.5045 0
180.102 24.5099 0
130.657 13.7537 0
130.815 18.7513 0
469.243 47.0352 0
471.16 42.4176 0
440.664 10.4705 0
444.716 13.4 0
116.322 56.3476 0
114.877 51.5612 0
126.865 45.0362 0
130.012 41.1503 0
382.206 5.43132 0
386.849 7.28629 0
490.892 16.4153 0
493.694 12.2741 0
496.126 24.3845 0
496.376 19.3907 0
134.911 14.7998 0
135.757 9.87184 0
495.033 3.25424 0
496.688 7.97239 0
230.67 41.8844 0
227.799 37.7909 0
462.89 55.4229 0
467.459 53.3904 0
292.418 20.9299 0
296.981 18.8836 0
101.607 48.1423 0
102.954 52.9572 0
489.11 19.3782 0
488.565 14.4079 0
69.4995 42.3162 0
71.5528 46.8751 0
11.5428 0.957736 0
6.58113 1.56934 0
258.761 57.2691 0
253.824 58.0609 0
157.426 57.9697 0
161.833 55.607 0
248.302 40.2884 0
244.877 43.9315 0
116.557 45.5908 0
120.044 49.1748 0
205.236 40.4475 0
202.196 44.4177 0
178.155 26.418 0
182.955 25.0168 0
78.651 56.5314 0
73.8011 55.3131 0
424.402 13.4032 0
426.508 17.9379 0
352.713 21.6211 0
352.89 26.618 0
125.179 12.2436 0
120.206 12.7612 0
328.992 9.08691 0
329.341 4.09902 0
348.337 46.2034 0
343.344 45.9411 0
67.6044 20.9075 0
65.3418 25.3663 0
235.817 19.3836 0
231.959 22.5637 0
485.895 45.6452 0
487.379 40.8705 0
225.347 50.5614 0
229.377 53.5218 0
106.365 9.60957 0
110.26 6.4745 0
339.611 40.641 0
343.973 43.0841 0
467.508 41.2291 0
467.012 46.2045 0
372.782 44.1935 0
377.28 46.3766 0
411.049 48.3178 0
412.405 43.5051 0
334.273 4.67712 0
334.044 9.67193 0
53.1719 29.6007 0
48.5164 27.7769 0
175.261 47.586 0
179.635 45.1639 0
342.469 44.1412 0
345.544 48.084 0
160.906 32.9355 0
162.592 28.2283 0
224.165 6.8472 0
229.164 6.94169 0
346.27 39.7868 0
347.36 34.907 0
418.162 39.8549 0
413.277 38.7855 0
138.411 43.7826 0
138.266 38.7848 0
194.562 11.4633 0
198.91 8.99393 0
348.441 37.1859 0
350.28 32.5365 0
244.112 43.515 0
247.926 40.2823 0
24.5148 56.8966 0
29.5148 56.8067 0
363.739 31.1759 0
358.766 31.6922 0
319.23 31.8821 0
315.117 29.0388 0
464.358 53.946 0
467.522 50.0743 0
229.19 47.7695 0
232.16 51.7915 0
297.54 14.7743 0
298.426 9.85326 0
360.533 34.5314 0
365.191 36.3506 0
190.871 4.17621 0
186.195 2.40718 0
300.604 14.3281 0
295.879 12.6942 0
54.3879 17.313 0
55.391 12.4145 0
87.3693 25.1332 0
82.7003 26.9223 0
81.5782 36.7592 0
77.1234 34.4888 0
166.526 43.1999 0
165.902 48.1606 0
423.279 40.1748 0
420.039 36.3664 0
47.974 34.2386 0
42.9887 33.853 0
480.775 22.5737 0
482.961 27.0702 0
7.15641 8.6512 0
2.21474 9.4091 0
487.97 2.48942 0
483.916 5.41522 0
439.875 52.1227 0
437.319 47.8254 0
339.347 18.2561 0
343.837 20.456 0
209.19 42.5313 0
206.369 46.6597 0
477.006 51.2173 0
480.142 47.3235 0
317.968 23.5082 0
319.594 28.2362 0
276.763 17.829 0
275.19 22.575 0
299.342 41.3702 0
301.833 45.7052 0
125.673 36.4569 0
126.066 31.4724 0
54.9674 29.7064 0
58.0215 25.7475 0
475.061 52.4573 0
480.059 52.3192 0
38.6303 25.6328 0
43.3302 23.9268 0
301.499 7.84952 0
300.59 12.7661 0
167.643 39.5207 0
170.421 35.3633 0
455.807 16.096 0
460.277 18.3375 0
288.044 13.6657 0
283.044 13.592 0
8.83935 33.1692 0
4.1347 31.476 0
13.2189 43.5135 0
8.37195 44.7429 0
315.162 14.0257 0
311.668 10.4502 0
273.623 38.0732 0
273.925 43.0641 0
362.658 55.8445 0
365.19 51.5332 0
314.019 13.8391 0
318.913 12.8155 0
362.591 15.3374 0
367.575 15.7357 0
165.392 43.4653 0
162.359 39.4906 0
153.11 16.3465 0
148.525 18.3406 0
442.984 54.0658 0
440.227 58.2369 0
471.65 52.6265 0
469.731 48.0096 0
202.89 44.3504 0
198.142 45.9196 0
496.731 30.4083 0
494.178 34.7074 0
495.616 52.3559 0
494.013 47.6197 0
247.618 37.4522 0
245.159 41.8058 0
218.293 21.1588 0
223.283 20.8419 0
117.708 58.7992 0
122.667 58.1549 0
287.763 36.004 0
283.113 34.1658 0
497.417 33.0342 0
492.424 32.7727 0
274.422 9.73129 0
278.834 12.0831 0
38.8372 6.96137 0
37.9857 2.03424 0
169.539 52.0386 0
169.892 57.026 0
240.067 3.48817 0
240.095 8.4882 0
79.65 5.21555 0
84.648 5.10046 0
310.984 18.4717 0
309.192 13.8036 0
202.086 47.2222 0
199.904 42.7231 0
441.692 31.2892 0
441.125 36.257 0
485.347 42.0018 0
483.666 46.7109 0
442.043 6.74621 0
438.822 10.57 0
369.577 53.6208 0
368.148 58.412 0
213.773 31.8166 0
210.45 28.0803 0
468.894 41.8317 0
470.12 36.9844 0
331.978 3.36103 0
331.76 8.35634 0
195.194 56.1119 0
190.726 53.8666 0
124.795 47.8247 0
120.017 46.3514 0
452.679 31.0781 0
450.491 26.5822 0
331.732 23.4557 0
332.22 18.4795 0
375.219 9.91263 0
371.379 13.1147 0
76.2837 26.8786 0
72.4212 30.0538 0
482.333 31.9207 0
477.431 32.9053 0
222.22 5.31962 0
217.221 5.35186 0
73.7269 41.1285 0
76.2949 45.4187 0
344.985 39.175 0
344.035 34.2663 0
301.973 57.7188 0
298.172 54.4693 0
342.149 8.93067 0
339.558 4.65459 0
405.526 4.28007 0
410.292 5.79146 0
344.854 30.8822 0
342.303 26.5816 0
258.393 59.269 0
256.709 54.5612 0
334.926 10.9601 0
330.192 9.35029 0
25.2041 49.2267 0
30.2028 49.3602 0
183.686 24.5246 0
179.022 26.3262 0
102.492 52.6115 0
106.8 50.0732 0
460.467 -0.0787751 0
463.575 3.83775 0
372.049 45.3333 0
367.117 44.5086 0
246.219 35.8174 0
247.312 40.6964 0
393.408 6.61978 0
396.73 2.88322 0
492.747 41.4307 0
490.941 36.7683 0
443.263 55.166 0
444.438 50.3062 0
383.737 56.9262 0
379.401 59.4171 0
261.777 38.8017 0
264.773 34.7989 0
130.294 7.96486 0
130.056 2.97036 0
219.089 9.29061 0
217.738 14.1049 0
298.159 57.3802 0
296.146 52.8035 0
192.024 47.2111 0
195.694 50.6062 0
128.929 44.9073 0
124.884 47.8456 0
113.101 16.3487 0
114.215 11.4744 0
423.291 18.9678 0
421.102 14.4728 0
343.867 8.78228 0
339.23 10.6529 0
187 2.57536 0
187.236 7.56996 0
415.787 44.0793 0
413.139 39.8381 0
487.697 50.5593 0
488.258 45.5909 0
239.182 21.2889 0
237.041 25.8072 0
209.449 49.6696 0
208.2 54.511 0
441.981 22.2184 0
445.412 25.8548 0
173.628 18.8192 0
170.242 15.1405 0
412.494 19.3466 0
412.228 24.3396 0
132.092 40.0713 0
132.79 45.0223 0
245.239 41.8564 0
245.437 46.8525 0
39.7964 43.1735 0
36.6913 39.2544 0
128.236 29.2486 0
123.714 31.3839 0
433.795 22.5659 0
430.358 26.197 0
51.1262 19.2536 0
49.2036 14.638 0
472.196 15.4237 0
475.037 11.3096 0
17.9459 35.9119 0
13.1651 34.4472 0
52.0231 5.98957 0
53.0054 1.08683 0
353.28 43.2454 0
355.617 47.6655 0
450.493 51.4189 0
453.366 55.5106 0
153.877 14.2923 0
148.888 14.6223 0
431.573 49.5967 0
434.534 53.6255 0
203.718 2.33874 0
200.249 5.93934 0
248.934 18.3346 0
247.251 23.0426 0
26.6355 48.8913 0
24.4528 53.3898 0
366.635 45.47 0
367.693 40.5832 0
278.584 50.3951 0
283.291 52.0821 0
418.02 27.3486 0
423.005 27.7373 0
244.545 6.58473 0
239.549 6.79119 0
330.759 46.6967 0
330.678 41.6974 0
19.7203 33.5032 0
19.6524 28.5037 0
246.933 9.83984 0
245.01 14.4553 0
486.864 27.7488 0
491.55 26.0062 0
53.6351 21.6826 0
51.9591 26.3934 0
142.322 35.6461 0
146.066 32.3312 0
452.564 30.7936 0
447.577 30.4234 0
310.923 46.7933 0
311.961 41.9021 0
349.352 23.8348 0
352.193 27.9488 0
74.6655 8.44518 0
79.6642 8.53225 0
464.644 43.9992 0
468.143 40.4268 0
401.048 57.59 0
403.494 53.2292 0
2.92104 54.1805 0
3.68197 59.1221 0
462.342 51.4032 0
463.092 46.4597 0
146.485 13.0121 0
149.423 17.0582 0
221.989 8.19553 0
217.233 9.73462 0
35.1144 15.0882 0
30.3093 16.4694 0
282.822 13.1845 0
281.122 8.48208 0
467.338 -0.428588 0
466.837 4.54632 0
267.55 45.8486 0
271.552 42.8508 0
78.1803 56.8888 0
74.25 53.7974 0
444.57 8.18046 0
440.058 6.02635 0
431.249 26.1202 0
429.21 21.5549 0
488.377 35.9207 0
485.547 31.7984 0
248.841 42.963 0
253.84 42.8517 0
167.091 32.9747 0
170.169 29.0347 0
422.822 14.3152 0
419.182 17.7425 0
21.7366 54.0664 0
22.0586 49.0769 0
153.132 46.9848 0
148.953 49.731 0
425.932 8.81231 0
424.785 13.679 0
254.879 36.5506 0
253.939 41.4614 0
156.463 55.4315 0
151.756 57.1186 0
301.781 56.4482 0
306.715 57.2601 0
325.141 34.7523 0
330.086 34.0144 0
333.997 10.9695 0
329.785 13.6636 0
238.204 17.4238 0
242.673 19.6646 0
21.1027 6.5273 0
25.9839 7.60814 0
126.609 47.7876 0
128.333 43.094 0
81.3563 23.0026 0
77.6634 26.3735 0
116.858 26.4325 0
117.059 31.4285 0
278.403 29.6693 0
275.119 33.4392 0
54.3436 11.4787 0
49.9338 9.1229 0
416.019 33.6959 0
414.806 28.8453 0
319.072 3.70804 0
324.064 3.98599 0
146.958 4.64622 0
151.225 2.04049 0
367.702 28.0002 0
363.025 26.2333 0
154.408 50.4276 0
154.288 55.4261 0
180.944 28.6023 0
185.811 29.7453 0
495.688 21.8084 0
494.997 26.7603 0
182.168 2.05128 0
177.211 1.40573 0
132.061 25.9111 0
133.6 30.6685 0
189.566 54.0193 0
193.139 57.5171 0
386.189 58.3393 0
383.286 54.2684 0
249.546 45.8938 0
254.101 47.9566 0
98.7684 16.5781 0
93.8481 17.4654 0
175.428 25.0202 0
173.529 29.6457 0
425.961 19.6873 0
429.908 16.6185 0
238.24 6.99373 0
239.54 11.8218 0
441.476 35.4144 0
444.239 39.5814 0
181.889 16.3457 0
176.897 16.0643 0
424.043 35.1207 0
423.884 30.1233 0
180.801 10.1573 0
177.75 6.19577 0
169.066 47.2787 0
172.026 43.2487 0
14.7109 59.0511 0
12.761 54.447 0
373.649 37.7906 0
371.388 42.2501 0
289.973 4.58397 0
286.105 7.75151 0
433.302 5.42489 0
430.906 9.8132 0
214.274 58.4982 0
219.142 59.6387 0
77.2465 5.16398 0
81.9356 6.89821 0
400.383 53.8658 0
401.812 49.0744 0
263.257 10.9866 0
263.32 15.9863 0
27.1436 31.3006 0
32.044 32.2939 0
215.488 45.9057 0
213.462 41.3344 0
120.741 0.0116463 0
116.538 2.71957 0
183.103 15.1908 0
184.456 20.0042 0
358.017 54.7861 0
353.7 52.2644 0
65.8649 36.5281 0
67.011 41.395 0
102.144 49.4964 0
100.16 54.086 0
298.761 57.082 0
293.773 57.4307 0
434.128 41.4133 0
430.11 44.3888 0
171.103 32.7623 0
175.776 34.5421 0
19.27 2.65784 0
14.5988 4.43956 0
188.117 50.6128 0
190.243 46.0876 0
84.6058 11.9337 0
80.3977 9.23391 0
367.46 32.0298 0
370.998 28.4961 0
449.805 54.2408 0
446.946 50.1388 0
467.451 45.0671 0
464.271 48.9253 0
218.022 54.4003 0
215.96 49.8455 0
145.938 27.0666 0
146.168 32.0614 0
96.1069 18.149 0
91.667 20.4482 0
440.417 49.0031 0
442.108 44.2977 0
233.463 28.1174 0
238.412 27.4007 0
291.517 17.7262 0
295.837 20.2437 0
446.498 5.62867 0
450.277 8.90251 0
241.361 45.9827 0
244.011 41.7427 0
155.055 29.4198 0
156.623 24.6718 0
161.352 3.4704 0
165.158 6.71349 0
246.081 50.7814 0
247.454 55.5893 0
458.087 2.81588 0
453.392 1.09611 0
434.666 7.84452 0
439.332 9.63961 0
16.1692 19.2551 0
11.3265 20.4986 0
143.022 39.1017 0
142.328 44.0533 0
435.223 10.468 0
435.454 15.4626 0
205.718 50.1949 0
202.306 46.5399 0
332.432 17.5887 0
333.614 22.4471 0
76.049 16.1711 0
74.8884 11.3075 0
114.676 48.0347 0
112.78 52.6612 0
183.688 32.6994 0
185.931 37.1679 0
217.355 26.5001 0
212.503 27.7041 0
147.887 47.392 0
152.87 46.9753 0
64.8905 46.4279 0
69.2156 48.9371 0
263.119 28.6434 0
267.293 31.3964 0
125.107 29.1678 0
124.719 34.1526 0
139.682 40.9108 0
136.792 44.9915 0
254.273 32.2041 0
257.628 28.4967 0
285.935 7.6559 0
290.714 9.12545 0
485.812 43.8167 0
482.571 47.6244 0
44.5202 33.6343 0
49.4816 33.0136 0
331.509 4.76386 0
329.834 0.0528418 0
430.227 55.6363 0
425.332 54.6193 0
455.429 13.7801 0
460.338 14.7321 0
51.8361 21.0491 0
56.2565 18.7129 0
433.909 14.2236 0
435.592 18.9319 0
430.379 30.8281 0
427.516 26.729 0
330.213 46.7505 0
331.019 41.816 0
20.4398 26.9655 0
25.0323 24.9883 0
255.167 5.72318 0
256.738 0.976327 0
268.967 25.8454 0
272.819 29.0329 0
234.325 55.7718 0
238.282 58.8283 0
108.679 56.4424 0
111.679 52.4424 0
64.8294 31.7967 0
62.1155 35.9962 0
278.786 56.2503 0
276.335 51.8922 0
141.242 5.13018 0
145.471 7.79607 0
281.695 23.3097 0
284.911 19.481 0
244.292 34.4014 0
247.843 37.9214 0
321.302 18.7771 0
325.213 15.6612 0
92.2404 59.8356 0
87.9893 57.2026 0
426.364 29.983 0
431.363 30.045 0
35.9548 41.6352 0
34.1598 36.9685 0
243.535 54.0978 0
238.804 52.4785 0
417.802 49.6359 0
414.573 53.4535 0
183.273 35.7051 0
178.279 35.4473 0
122.404 25.1064 0
121.361 29.9966 0
378.12 11.7672 0
374.823 15.5261 0
413.325 24.1295 0
408.54 22.6823 0
59.7369 6.04049 0
56.2487 2.4586 0
303.071 7.56303 0
307.669 5.59895 0
364.524 1.09721 0
369.523 1.12271 0
255.198 7.45257 0
258.304 3.53454 0
17.1185 39.1436 0
13.5444 42.6404 0
484.999 24.2246 0
489.992 23.9622 0
266.209 41.8861 0
269.989 38.6136 0
270.054 32.8264 0
268.551 37.5951 0
139.937 31.481 0
141.785 36.1271 0
296.597 1.5075 0
301.507 0.561419 0
403.447 50.9291 0
405.976 55.2424 0
224.773 14.17 0
220.393 11.7585 0
266.714 44.104 0
264.315 39.7168 0
467.266 57.9572 0
462.519 59.5274 0
409.529 17.2029 0
410.962 21.9932 0
293.436 41.3465 0
290.377 45.3021 0
237.342 10.367 0
232.426 11.2742 0
74.8985 19.1882 0
75.4661 14.2205 0
297.857 11.7422 0
293.03 10.441 0
190.642 41.9311 0
194.829 44.6641 0
157.804 22.1634 0
161.739 25.2482 0
321.829 24.0891 0
323.99 28.5981 0
291.588 52.0584 0
292.257 57.0134 0
284.714 41.3091 0
281.538 37.4474 0
469.1 53.944 0
464.166 54.7552 0
38.4025 1.53863 0
42.9603 3.59295 0
371.727 7.63125 0
376.355 5.7397 0
272.511 3.11838 0
271.829 8.07179 0
482.272 12.6221 0
485.979 9.26647 0
32.5368 32.8508 0
27.5448 32.5675 0
233.694 50.7102 0
238.694 50.7599 0
248.316 50.0821 0
249.913 45.344 0
56.6329 21.3378 0
56.258 26.3238 0
263.114 5.73737 0
264.4 0.90539 0
427.454 33.7682 0
430.005 29.4683 0
84.0415 45.031 0
79.0507 45.3406 0
451.865 34.9508 0
449.827 30.3848 0
379.194 8.78824 0
377.617 4.04362 0
444.511 23.3222 0
448.503 26.3331 0
53.7447 29.9386 0
49.1274 31.8573 0
150.297 52.5763 0
152.843 56.8799 0
340.105 28.6301 0
343.591 32.2145 0
51.2035 51.1227 0
54.8464 47.6975 0
271.853 14.3559 0
272.006 19.3536 0
128.274 35.2318 0
123.831 32.938 0
117.127 7.65929 0
122.115 8.01037 0
86.7478 26.495 0
89.9831 30.3071 0
184.836 2.65012 0
181.968 6.74553 0
230.973 34.3184 0
235.534 36.3683 0
4.26822 48.4292 0
8.3757 51.2808 0
10.9445 2.2714 0
15.4984 0.208486 0
340.439 58.1504 0
337.113 54.4167 0
247.448 17.2813 0
250.823 20.9701 0
185.529 30.9231 0
185.069 35.9019 0
22.0909 12.9057 0
27.0601 13.4553 0
483.561 3.91672 0
486.715 0.0371566 0
233.452 13.7598 0
238.44 13.4154 0
142.052 33.8 0
141.601 28.8204 0
137.201 37.9172 0
132.55 36.0814 0
59.6631 32.0714 0
58.5786 27.1904 0
345.676 5.47153 0
347.728 0.912217 0
278.583 12.0597 0
281.237 7.82179 0
427.501 20.7984 0
425.809 16.0933 0
319.931 41.6476 0
322.755 45.7743 0
462.003 22.5163 0
466.791 23.9581 0
213.131 17.0481 0
211.833 21.8767 0
427.326 46.7162 0
425.645 42.0073 0
96.9602 47.2844 0
101.379 44.9434 0
164.457 49.729 0
167.086 53.9819 0
37.2986 44.4225 0
33.2402 47.3435 0
403.592 42.2453 0
401.317 46.6978 0
200.252 3.50356 0
197.567 7.72123 0
422.864 9.64727 0
421.395 4.86775 0
491.371 34.5652 0
492.371 29.6661 0
442.807 49.8897 0
445.325 45.57 0
240.312 43.0622 0
239.206 38.1861 0
271.912 6.78879 0
273.651 11.4766 0
344.203 32.6435 0
346.688 28.3049 0
397.736 43.9246 0
396.685 48.813 0
35.5332 36.2227 0
40.3187 37.6717 0
211.106 8.26775 0
208.552 12.5658 0
44.874 16.6929 0
47.3543 12.3515 0
113.28 23.2299 0
114.699 28.0244 0
11.069 16.9158 0
10.4171 11.9584 0
159.252 30.5604 0
163.286 27.6069 0
446.341 33.3435 0
447.509 28.4818 0
421.963 38.5561 0
420.082 43.1886 0
496.441 47.9554 0
499.692 51.754 0
427.781 43.4669 0
426.261 38.7037 0
211.382 25.9485 0
216.147 24.433 0
22.4324 6.79249 0
23.4298 11.6921 0
78.5085 41.8348 0
79.6614 46.7 0
110.733 7.4182 0
108.993 12.1057 0
211.451 53.1179 0
213.783 48.6951 0
428.073 23.0045 0
428.022 18.0047 0
141.087 57.4073 0
137.925 53.5345 0
497.271 30.5497 0
495.163 35.0837 0
319.872 11.9251 0
324.834 11.3133 0
443.721 31.9275 0
448.721 31.9053 0
74.3712 26.0939 0
71.9785 30.4842 0
405.657 55.8763 0
410.619 56.4854 0
374.169 30.1582 0
377.917 33.4677 0
333.804 0.475216 0
329.179 2.37418 0
205.693 41.8873 0
209.548 45.0714 0
309.436 23.0419 0
312.852 26.6933 0
415.231 40.839 0
417.927 36.6274 0
371.346 24.9091 0
376.329 25.3236 0
258.434 51.6935 0
263.138 49.996 0
49.0569 12.4945 0
51.2966 16.9648 0
323.326 44.2168 0
319.723 40.7496 0
102.574 8.77756 0
97.9305 10.6317 0
46.9388 9.08496 0
47.1039 14.0824 0
40.6019 6.36611 0
42.24 11.0902 0
49.6845 0.055882 0
54.6002 0.966335 0
407.159 40.892 0
402.315 39.6507 0
254.346 54.0431 0
256.185 49.3935 0
465.309 45.6154 0
467.609 41.1757 0
282.377 7.05671 0
287.373 6.86527 0
441.819 14.844 0
446.81 14.5538 0
432.691 58.1003 0
427.904 59.5453 0
234.615 44.1326 0
232.885 48.8241 0
39.0083 57.3169 0
34.0994 58.2706 0
495.755 28.756 0
494.93 33.6874 0
13.5294 47.5999 0
13.9385 52.5829 0
169.439 54.99 0
173.573 52.1761 0
143.952 35.8589 0
148.885 36.6735 0
426.276 35.9591 0
427.817 31.2026 0
247.44 47.5339 0
244.368 43.5893 0
306.846 17.8398 0
301.939 18.8018 0
270.136 24.9425 0
275.059 24.0721 0
468.949 8.44271 0
467.23 3.74745 0
342.312 20.5639 0
341.12 25.4198 0
273.068 45.0702 0
277.504 42.7631 0
271.443 56.738 0
268.484 52.7077 0
345.251 44.0493 0
343.327 39.4342 0
207.603 3.72988 0
209.972 8.13327 0
123.299 49.7658 0
118.333 50.3479 0
117.627 36.109 0
117.928 31.1181 0
114.487 45.6618 0
113.649 40.7326 0
497.605 35.4412 0
492.756 34.2216 0
237.93 54.1331 0
241.624 57.5038 0
219.659 7.82915 0
217.059 3.55792 0
167.888 14.7921 0
165.141 10.6146 0
463.738 30.8895 0
461.215 26.5729 0
422.809 17.4341 0
419.506 21.1877 0
497.049 12.5609 0
499.11 8.00574 0
164.554 48.7503 0
169.165 46.8154 0
107.001 50.263 0
103.792 46.4287 0
239.833 18.5173 0
240.37 13.5462 0
278.218 55.7436 0
281.728 52.1823 0
261.855 27.6049 0
257.221 25.7272 0
22.6822 41.178 0
24.1328 36.3931 0
330.678 42.5362 0
325.682 42.7544 0
436.652 28.8698 0
441.51 27.6843 0
306.926 2.34757 0
302.516 4.70368 0
423.723 3.73577 0
424.402 8.68941 0
86.279 26.7981 0
88.4203 22.2798 0
111.244 18.8724 0
109.562 14.1638 0
77.0791 37.4774 0
81.2762 40.1949 0
217.695 41.4056 0
213.79 38.2832 0
231.947 12.4407 0
236.426 10.2198 0
354.767 41.1218 0
359.744 41.6077 0
427.145 52.5709 0
430.806 55.9765 0
73.6847 23.3744 0
72.8255 18.4487 0
109.702 35.6808 0
109.202 40.6558 0
183.437 10.8649 0
178.478 11.5037 0
135.997 20.752 0
140.439 23.0479 0
329.364 47.4507 0
332.563 51.2931 0
149.213 36.8911 0
144.33 37.9668 0
94.4775 49.7438 0
89.5408 48.9475 0
286.929 43.6904 0
286.499 38.709 0
133.372 31.2625 0
128.705 33.0553 0
3.25363 25.6193 0
7.97682 27.2597 0
406.454 38.5735 0
401.977 40.7993 0
130.7 13.8184 0
135.319 11.9029 0
445.627 9.20931 0
450.251 7.3067 0
236.681 12.8233 0
232.599 15.7108 0
216.437 26.0367 0
220.988 28.1081 0
365.644 36.2891 0
363.987 41.0064 0
412.178 50.609 0
415.713 47.0728 0
328.067 12.4811 0
324.373 9.1116 0
362.142 16.9535 0
358.982 20.8282 0
424.282 46.8294 0
419.704 44.8192 0
358.161 2.09524 0
354.053 4.94485 0
363.779 44.8835 0
368.521 46.4692 0
461.831 58.4298 0
460.28 53.6766 0
459.692 23.8394 0
458.364 19.0191 0
459.691 14.6129 0
462.166 18.9574 0
289.026 49.2351 0
284.036 49.5507 0
145.256 43.9506 0
140.31 44.69 0
84.6215 51.6492 0
84.371 56.6428 0
413.693 22.0983 0
408.961 23.7141 0
325.141 11.1334 0
329.969 9.83342 0
345.705 34.253 0
341.138 32.2176 0
43.8372 26.0583 0
44.0356 31.0544 0
130.004 16.6468 0
133.977 13.6117 0
452.554 23.2795 0
457.18 21.3826 0
453.439 27.1254 0
456.413 31.145 0
213.845 38.5204 0
209.542 41.0682 0
399.85 49.9276 0
395.387 52.1814 0
376.205 24.4131 0
377.629 29.206 0
139.52 3.36334 0
144.324 4.74753 0
194.74 49.4502 0
199.238 51.6339 0
279.975 9.11792 0
284.901 9.97501 0
355.668 57.8696 0
360.009 55.3872 0
246.814 13.2967 0
248.499 8.58897 0
447.584 27.4847 0
442.918 25.6869 0
269.926 0.237323 0
264.939 0.593152 0
193.666 50.2057 0
193.141 45.2335 0
68.752 23.4378 0
65.2067 26.9635 0
473.139 6.27815 0
477.378 3.62633 0
58.6921 25.6129 0
54.3149 28.0295 0
151.88 34.2201 0
150.281 38.9576 0
1.33056 41.5579 0
4.53475 37.7194 0
138.754 34.0822 0
133.882 35.2087 0
96.3785 46.4822 0
101.378 46.5622 0
183.16 8.90302 0
187.526 6.46771 0
230.305 52.9594 0
232.652 48.5446 0
161.889 23.8228 0
157.153 22.2199 0
54.5681 37.004 0
56.1449 32.2591 0
447.729 17.2673 0
449.747 12.6927 0
247.827 0.864297 0
252.823 0.666256 0
273.724 44.0834 0
277.138 47.7362 0
364.381 21.0959 0
363.194 16.2387 0
177.872 25.3675 0
182.872 25.4143 0
352.557 23.5665 0
347.559 23.4046 0
439.869 13.7706 0
440.824 8.86253 0
472.053 12.1881 0
468.325 8.85691 0
491.992 56.6532 0
493.883 52.0245 0
280.907 42.835 0
285.377 40.5953 0
288.207 23.4752 0
285.864 19.058 0
455.152 30.6175 0
450.176 31.1089 0
139.243 32.2387 0
135.112 35.0561 0
19.955 52.793 0
24.8118 51.6025 0
372.417 49.7916 0
367.651 48.2786 0
26.9515 26.7872 0
30.0552 22.8671 0
281.339 -0.113249 0
286.047 1.56776 0
379.989 18.1 0
382.895 14.0307 0
51.5055 45.0109 0
48.4418 48.9625 0
158.354 34.2657 0
163.264 33.3185 0
203.379 47.4086 0
202.461 52.3236 0
460.168 49.0903 0
459.367 44.1549 0
113.052 11.3509 0
115.978 15.4055 0
91.9385 20.6283 0
96.7103 19.1355 0
246.423 50.0999 0
241.616 48.7209 0
218.829 34.917 0
215.597 38.7321 0
459.463 53.7155 0
454.468 53.9179 0
264.723 30.6943 0
265.519 35.6307 0
236.409 26.1054 0
239.633 29.9273 0
41.1005 27.6283 0
37.557 31.156 0
163.336 43.0304 0
159.582 46.333 0
2.20153 30.502 0
3.37569 35.3622 0
35.8603 3.6501 0
40.8441 3.25727 0
266.577 30.7082 0
263 27.2145 0
336.032 23.377 0
332.554 26.9696 0
419.424 2.97384 0
414.622 1.57904 0
436.439 16.5085 0
431.447 16.7942 0
232.483 56.2678 0
231.839 51.3094 0
36.9635 28.0073 0
41.0291 25.0969 0
431.318 2.20438 0
433.764 6.56517 0
489.221 23.5624 0
489.113 28.5613 0
194.345 43.0305 0
195.78 47.82 0
10.9551 52.6832 0
15.9406 52.2939 0
209.117 35.0517 0
212.337 38.8766 0
37.6069 9.02082 0
33.0261 7.01801 0
69.1702 19.8933 0
67.1846 15.3045 0
152.861 18.9719 0
151.442 14.1774 0
46.8835 42.403 0
51.4589 40.386 0
159.147 54.8295 0
157.453 59.5339 0
253.449 30.3255 0
254.953 35.0939 0
227.625 23.0442 0
223.616 26.0317 0
210.339 41.0108 0
205.828 43.1679 0
235.563 19.0031 0
239.013 22.6227 0
488.079 45.6292 0
490.147 41.0765 0
387.492 50.1155 0
392.488 50.3207 0
380.429 26.2826 0
384.79 23.8381 0
195.937 49.9591 0
200.932 49.74 0
433.979 45.4118 0
438.774 43.9927 0
159.323 11.3235 0
164.178 10.1287 0
342.843 28.8272 0
337.876 29.4002 0
467.866 5.0057 0
468.574 9.95533 0
325.669 11.369 0
321.025 9.51725 0
368.934 34.1521 0
370.579 38.8736 0
77.3952 20.5942 0
82.3354 19.8245 0
174.17 11.6061 0
178.501 14.104 0
156.768 27.1957 0
153.59 23.3357 0
207.492 58.0654 0
202.917 56.0473 0
179.686 48.9768 0
176.263 45.3322 0
246.406 29.5646 0
251.389 29.1605 0
291.552 5.37242 0
292.246 10.3242 0
256.968 3.23717 0
253.18 6.50129 0
144.31 38.8032 0
142.871 43.5915 0
340.109 58.2682 0
341.076 53.3626 0
470.727 8.01018 0
475.438 9.68666 0
230.621 11.3625 0
230.709 6.36321 0
422.374 7.78331 0
417.375 7.69469 0
155.082 5.74696 0
150.366 7.4061 0
352.458 40.3964 0
355.974 43.9507 0
486.03 5.23072 0
486.968 10.1421 0
429.331 18.7143 0
433.458 21.5371 0
383.752 9.54863 0
386.99 5.73926 0
298.716 7.20379 0
297.926 12.1412 0
100.37 17.4125 0
95.5493 18.7397 0
268.805 35.1291 0
272.399 31.6538 0
127.77 24.4273 0
122.772 24.2982 0
341.023 6.42789 0
345.093 3.52429 0
250.115 17.2361 0
254.756 19.0962 0
65.3448 26.0759 0
69.0785 22.7503 0
131.583 25.535 0
133.259 30.2458 0
472.12 3.68565 0
469.894 8.16281 0
425.182 42.6254 0
429.025 39.4265 0
362.287 53.9913 0
365.802 50.4354 0
304.762 9.54881 0
307.546 5.39596 0
447.898 30.6664 0
446.711 35.5234 0
427.598 43.8749 0
431.541 46.9495 0
380.924 47.2706 0
385.508 49.2674 0
232.151 40.4513 0
236.863 42.1232 0
347.49 11.4935 0
352.343 10.2921 0
450.712 44.8021 0
447.685 48.7823 0
69.7624 9.91473 0
71.4772 5.21786 0
281.24 34.2544 0
276.24 34.2355 0
258.843 49.8546 0
263.663 48.5257 0
291.385 18.9426 0
294.024 14.6962 0
261.679 45.3934 0
260.94 40.4483 0
280.648 26.9601 0
283.798 23.077 0
164.607 13.9519 0
169.458 12.7403 0
182.37 7.25033 0
177.989 9.65914 0
389.534 34.4452 0
384.551 34.0325 0
497.389 18.2279 0
492.798 20.209 0
485.561 36.7598 0
480.576 37.1492 0
216.716 53.972 0
218.43 49.275 0
450.332 35.3469 0
455.217 34.2835 0
67.0493 58.9619 0
71.5418 56.7657 0
222.081 43.3175 0
217.28 41.9217 0
167.652 43.6671 0
163.725 40.5713 0
30.7872 43.4013 0
28.2681 47.7203 0
73.8131 20.6339 0
78.7583 19.8972 0
33.1853 1.92985 0
31.5996 6.67186 0
314.232 40.0276 0
316.272 44.5927 0
326.727 21.1369 0
328.179 25.9215 0
47.3332 32.5184 0
44.261 36.4633 0
319.207 59.1645 0
320.41 54.3114 0
458.587 28.528 0
463.357 30.0259 0
487.742 50.8748 0
489.42 55.5847 0
83.4305 29.1074 0
79.4993 32.1972 0
78.4502 43.4088 0
75.4293 39.4245 0
380.482 16.7979 0
385.171 18.5339 0
295.921 15.5005 0
300.856 14.6951 0
453.399 7.54222 0
449.238 10.3135 0
268.583 3.46065 0
273.214 5.34559 0
195.945 56.0496 0
194.931 51.1536 0
326.969 8.38631 0
322.079 7.34817 0
132.154 11.2822 0
137.031 10.1852 0
102.007 5.31488 0
98.5391 1.71368 0
482.56 35.7949 0
478.852 32.44 0
332.195 47.7794 0
331.167 42.8864 0
42.9278 46.8974 0
43.1637 41.903 0
66.1804 22.8131 0
70.4233 20.168 0
35.8319 24.6022 0
36.5705 19.657 0
217.753 17.0319 0
222.656 18.0114 0
57.2362 16.7168 0
59.2928 21.2743 0
134.978 8.55734 0
138.755 5.28177 0
492.721 42.2414 0
496.964 39.5953 0
460.594 13.2823 0
464.942 15.7513 0
117.832 2.93526 0
114.328 6.5012 0
157.319 21.4983 0
158.391 16.6146 0
66.2955 14.3585 0
68.4345 9.83907 0
337.914 20.8659 0
342.253 18.3805 0
177.291 17.3125 0
179.041 12.6284 0
162.514 43.5879 0
162.145 38.6016 0
146.68 35.8519 0
148.175 31.0809 0
365.829 19.266 0
367.249 14.4717 0
178.682 14.6974 0
173.83 15.9041 0
89.8321 30.6459 0
84.8375 30.8772 0
452.801 21.0416 0
449.83 17.0198 0
458.61 54.8807 0
462.688 51.9871 0
60.8708 7.21431 0
59.2137 11.9318 0
464.822 12.6776 0
468.298 16.271 0
162.383 45.2533 0
158.109 47.8483 0
312.585 6.93852 0
308.007 4.92887 0
154.751 35.2255 0
158.29 38.7578 0
31.6428 44.4431 0
30.5955 39.5541 0
160.512 53.0647 0
157.925 57.3431 0
457.695 17.6526 0
462.682 17.2855 0
428.317 2.38399 0
425.081 6.19581 0
274.846 7.49185 0
276.35 2.72326 0
170.747 39.537 0
175.725 39.9998 0
299.291 18.8499 0
301.714 14.476 0
207.09 6.04556 0
211.707 4.12689 0
106.424 12.835 0
109.931 9.27112 0
57.6019 2.8942 0
59.1818 7.63814 0
178.753 28.3761 0
173.824 27.5356 0
51.3428 52.6956 0
55.4938 55.4836 0
465.689 37.2133 0
469.068 33.5286 0
166.603 24.453 0
167.202 19.489 0
340.481 56.1761 0
335.494 56.5286 0
251.952 28.0728 0
248.548 24.4106 0
451.451 36.9338 0
448.107 33.2172 0
180.366 31.4731 0
175.776 33.4574 0
52.1093 29.7761 0
55.0743 33.8021 0
116.973 28.0254 0
118.48 23.2579 0
331.838 27.9299 0
336.796 27.2788 0
335.224 54.431 0
330.236 54.7776 0
188.192 47.2022 0
192.537 44.7283 0
36.6119 4.36357 0
39.7338 8.26897 0
63.4401 34.2381 0
59.5681 37.4017 0
55.1649 10.8341 0
55.6228 15.8132 0
88.1369 31.8767 0
85.9604 36.3782 0
458.478 32.9428 0
454.483 35.949 0
351.465 10.2638 0
355.107 13.6895 0
385.191 18.2562 0
389.896 19.949 0
65.2992 3.49063 0
67.9453 7.73301 0
74.6122 44.406 0
78.2166 47.8716 0
178.41 49.8751 0
180.501 45.3337 0
376.148 45.2248 0
375.615 40.2533 0
111.841 39.6627 0
110.737 44.5392 0
453.251 33.4498 0
453.614 38.4366 0
312.715 7.69907 0
315.458 11.88 0
3.63598 32.269 0
7.79724 35.0411 0
471.478 44.1529 0
476.355 43.0524 0
121.871 20.3871 0
118.755 24.2975 0
286.828 48.7779 0
287.774 53.6876 0
380.307 29.708 0
382.48 34.211 0
309.85 11.1085 0
304.861 11.4425 0
282.725 4.90544 0
286.961 2.25003 0
259.603 56.7359 0
254.802 58.1344 0
325.659 59.5828 0
323.405 55.1196 0
420.676 34.9362 0
425.472 33.5224 0
496.777 13.3886 0
495.002 18.0632 0
74.2724 36.5957 0
73.1413 41.4661 0
211.158 20.5726 0
211.443 25.5645 0
467.257 0.925455 0
469.408 5.43903 0
313.808 26.971 0
309.131 25.204 0
346.71 25.5917 0
342.057 23.7626 0
254.09 30.9288 0
251.61 35.2703 0
263.774 53.7607 0
259.11 51.957 0
299.435 16.5153 0
294.771 18.316 0
482.462 23.9968 0
481.264 19.1424 0
181.029 30.9976 0
180.843 35.9942 0
23.0724 48.9627 0
18.1942 47.8634 0
150.698 12.4743 0
154.734 9.52227 0
239.824 39.4867 0
235.464 41.9338 0
130.71 58.0307 0
131.258 53.061 0
385.774 15.7498 0
390.343 13.7204 0
496.151 3.5877 0
491.229 2.70604 0
424.424 23.9006 0
419.623 25.2949 0
51.0672 51.7619 0
51.8863 46.8295 0
447.17 27.6796 0
449.228 32.2366 0
496.753 6.36067 0
494.999 1.67851 0
241.091 23.3192 0
241.936 18.391 0
149.646 49.8497 0
153.2 53.3666 0
363.201 28.0154 0
363.843 32.9739 0
77.8923 9.06966 0
82.766 7.95521 0
220.629 28.1992 0
215.878 26.6404 0
136.731 41.7838 0
139.214 37.4441 0
250.263 2.69236 0
252.867 6.96078 0
55.532 25.4798 0
50.5804 26.1733 0
420.236 21.2078 0
415.8 23.514 0
264.885 32.6719 0
269.875 32.3561 0
473.453 11.773 0
468.465 12.1237 0
224.854 4.89629 0
227.121 0.439606 0
161.304 29.8427 0
165.504 32.5561 0
402.341 3.74215 0
397.625 5.40352 0
470.889 22.8271 0
467.422 19.2236 0
141.923 32.8468 0
140.535 37.6502 0
169.01 53.7599 0
173.748 52.1612 0
336.177 40.556 0
332.395 43.8261 0
425.954 46.6209 0
422.3 50.0334 0
120.942 8.68348 0
123.417 4.3391 0
268.876 32.9951 0
263.894 33.43 0
469.66 0.642117 0
466.301 4.34531 0
349.186 35.0087 0
353.697 37.1672 0
26.9854 22.1757 0
25.2364 26.8599 0
220.871 41.4099 0
223.231 37.002 0
271.244 15.2461 0
276.067 13.9272 0
480.718 23.3349 0
477.281 19.7032 0
309.151 38.5287 0
309.305 43.5263 0
19.3736 43.3638 0
17.5358 38.7138 0
428.92 20.2498 0
433.778 19.0683 0
142.213 4.37955 0
138.636 7.8725 0
245.031 18.0721 0
246.743 13.3744 0
35.9202 59.3998 0
33.965 54.798 0
477.898 48.4386 0
475.983 43.82 0
45.8949 17.9699 0
44.2679 22.6978 0
230.506 11.559 0
230.135 6.57273 0
147.968 10.4447 0
150.553 14.7246 0
131.182 28.1643 0
126.583 26.2037 0
149.027 53.3408 0
149.943 58.2561 0
273.845 54.2333 0
271.408 49.8678 0
229.542 12.975 0
230.184 17.9337 0
220.832 45.8885 0
221.017 50.885 0
304.032 8.48224 0
306.087 13.0407 0
136.606 53.2445 0
139.846 49.4366 0
34.6599 22.2849 0
36.1808 27.048 0
417.791 35.8383 0
417.081 30.8889 0
495.198 29.4424 0
493.205 24.8565 0
360.983 2.32286 0
356.409 4.34242 0
417.296 36.0102 0
416.243 40.898 0
212.985 22.3319 0
215.42 26.6989 0
153.453 8.58501 0
150.281 12.4499 0
394.596 15.3318 0
393.233 10.5212 0
276.8 21.6643 0
281.734 20.8562 0
422.556 4.69738 0
424.805 0.231607 0
277.168 25.5419 0
277.379 30.5374 0
456.934 52.1155 0
455.939 47.2155 0
5.24701 9.76954 0
1.54154 13.1262 0
53.3828 45.7133 0
55.6007 41.2321 0
197.846 53.1935 0
201.444 49.7206 0
388.746 42.1276 0
392.207 38.5187 0
437.827 31.7666 0
433.316 29.6089 0
161.338 13.6312 0
166.252 12.7076 0
275.948 35.9179 0
273.498 31.5592 0
446.077 12.9449 0
448.96 8.85931 0
252.56 46.7997 0
248.023 44.6983 0
454.245 21.4125 0
450.795 25.031 0
424.454 31.7445 0
429.258 30.3568 0
29.8431 5.62813 0
24.9482 6.64477 0
464.916 22.3004 0
461.268 25.7193 0
257.31 54.3893 0
256.774 59.3605 0
358.16 57.0326 0
363.069 56.077 0
17.6334 15.3028 0
21.7659 18.117 0
229.522 6.84176 0
233.628 3.98912 0
358.113 52.9722 0
356.706 57.7703 0
486.6 29.1076 0
490.514 32.2189 0
196.597 6.44969 0
197.387 1.51225 0
122.995 22.6661 0
121.083 18.0464 0
82.4309 10.9587 0
77.55 9.87612 0
267.537 51.4022 0
270.77 47.5879 0
389.819 22.4926 0
394.639 21.1603 0
145.048 46.9518 0
140.132 47.8651 0
90.3304 5.44066 0
85.3784 6.12801 0
85.2569 11.8734 0
83.6092 7.15265 0
114.027 14.1815 0
116.825 18.3254 0
393.78 14.8535 0
388.796 14.4567 0
274.416 49.1453 0
270.474 52.2214 0
204.173 0.745646 0
200.863 4.49322 0
167.474 47.5952 0
164.64 43.4758 0
211.271 46.3374 0
214.591 42.5979 0
384.944 19.1632 0
380.949 22.1699 0
268.049 12.927 0
273.048 12.8422 0
304.101 20.6541 0
309.069 20.0899 0
353.333 25.3039 0
352.8 20.3323 0
53.753 38.2488 0
52.0297 42.9424 0
337.592 38.7162 0
334.902 42.9311 0
404.287 11.1457 0
409.279 10.8643 0
179.83 58.1025 0
184.527 59.8163 0
350.993 33.1695 0
348.988 28.5893 0
167.948 5.6185 0
169.042 10.4975 0
418.377 9.62468 0
423.303 10.4805 0
375.576 41.2554 0
373.885 36.55 0
272.645 24.0605 0
270.36 28.5079 0
49.0415 19.6445 0
51.7892 15.4671 0
203.976 51.2193 0
207.74 54.5107 0
395.282 49.0376 0
390.361 48.1516 0
228.363 5.15032 0
232.145 1.87993 0
208.188 13.3982 0
203.495 15.1247 0
266.787 41.3586 0
267.502 46.3072 0
187.357 20.5345 0
191.335 23.5639 0
417.236 10.0462 0
422.161 10.9104 0
317.969 14.8148 0
315.399 10.5262 0
418.912 52.0707 0
414.286 50.1722 0
8.36544 23.6076 0
13.3651 23.6431 0
17.2001 16.1028 0
12.3908 17.4693 0
185.269 16.1291 0
184.256 21.0254 0
168.539 59.3712 0
169.004 54.393 0
326.098 3.46103 0
328.668 7.74951 0
415.834 7.08739 0
413.6 11.5601 0
75.2314 46.9854 0
70.2879 47.7376 0
115.357 40.7019 0
112.217 44.5935 0
428.194 5.4835 0
433.156 4.86973 0
147.966 41.3121 0
147.059 46.2291 0
314.812 49.4696 0
310.932 46.3159 0
117.19 44.8973 0
114.378 40.7631 0
313.455 38.227 0
318.432 38.7072 0
234.797 22.8867 0
231.482 26.6302 0
141.267 33.9951 0
136.273 34.2466 0
124.665 45.7576 0
120.857 42.5177 0
443.238 17.4097 0
447.099 14.2335 0
322.828 58.4383 0
320.377 54.0802 0
404.136 9.63047 0
405.768 4.9045 0
168.14 11.4876 0
163.141 11.4572 0
247.108 52.0609 0
242.158 52.7728 0
461.935 27.642 0
465.88 30.7143 0
209.616 19.6339 0
214.379 18.1134 0
131.144 32.345 0
135.728 34.3412 0
362.131 17.816 0
365.289 21.6919 0
115.841 6.20202 0
115.798 1.20203 0
139.805 3.84752 0
134.832 3.32852 0
297.324 14.7808 0
301.209 11.6335 0
13.4364 51.9441 0
11.6368 56.609 0
346.071 22.4798 0
341.366 24.173 0
16.9895 50.3785 0
21.9629 50.8987 0
13.9238 2.47956 0
9.22056 4.17445 0
408.506 5.19847 0
405.464 1.2299 0
209.343 41.6368 0
205.875 38.0344 0
344.113 27.7941 0
346.547 32.162 0
100.496 48.3486 0
97.1008 44.6778 0
441.563 40.3555 0
436.752 41.7169 0
230.916 47.6439 0
235.795 48.7404 0
345.929 43.3682 0
343.867 38.8133 0
187.611 53.3682 0
187.888 48.376 0
233.013 14.629 0
228.846 17.3928 0
142.737 16.7549 0
145.889 20.6366 0
434.348 45.7773 0
433.364 40.8751 0
153.984 10.1803 0
158.729 11.7536 0
385.373 8.9513 0
387.686 13.384 0
14.1557 32.1112 0
19.155 32.0205 0
262.025 29.1949 0
266.189 31.9628 0
249.195 17.2126 0
247.653 21.9691 0
406.779 44.7046 0
411.501 46.3497 0
425.276 11.4187 0
430.137 12.5926 0
152.859 20.2664 0
154.416 15.515 0
174.188 17.6847 0
177.454 13.8987 0
160.379 18.0863 0
155.707 19.8675 0
105.157 13.6044 0
103.968 8.74791 0
475.024 56.6625 0
470.155 57.7987 0
385.587 48.5742 0
380.908 46.8096 0
311.641 20.9413 0
306.645 21.1431 0
44.1088 29.7416 0
39.1923 28.8314 0
342.276 47.4099 0
341.35 52.3234 0
321.624 10.3154 0
316.822 11.7066 0
118.713 35.4488 0
118.841 40.4472 0
254.857 48.1805 0
258.547 44.8067 0
202.645 13.6365 0
207.017 16.0612 0
407.94 47.0776 0
406.27 51.7905 0
457.876 8.68625 0
461.667 11.9467 0
14.1377 2.7027 0
18.3738 5.35806 0
198.651 9.03379 0
200.739 4.49027 0
316.728 13.9843 0
319.891 17.8568 0
173.352 33.6185 0
176.947 37.0934 0
128.414 8.08409 0
126.983 3.29329 0
254.202 41.3029 0
251.853 36.8893 0
89.8885 14.0947 0
90.1759 19.0866 0
453.336 13.2801 0
456.506 9.41319 0
215.429 12.0908 0
211.96 15.6923 0
364.181 15.6691 0
368.341 12.8952 0
325.111 19.7142 0
328.46 23.4268 0
148.144 54.6659 0
143.592 52.5966 0
113.529 7.9103 0
108.908 9.8199 0
15.9411 40.9156 0
18.0527 45.4478 0
8.74137 44.5642 0
13.458 42.9038 0
313.856 29.843 0
312.337 34.6066 0
192.865 41.5902 0
188.23 39.7158 0
410.887 9.97602 0
406.064 11.2969 0
328.935 33.2698 0
332.559 29.8253 0
263.805 28.3082 0
258.819 27.9244 0
155.827 10.6321 0
160.104 8.04162 0
464.798 41.5654 0
459.969 40.2688 0
437.971 38.1558 0
433.194 39.6335 0
494.133 19.2056 0
498.711 21.217 0
280.097 20.3932 0
279.422 15.4389 0
80.6268 37.3822 0
77.9375 41.5974 0
388.088 30.8447 0
388.219 35.843 0
377.591 36.2403 0
381.803 33.5462 0
84.532 17.7267 0
83.2282 12.8996 0
426.19 41.3699 0
421.19 41.4365 0
369.587 35.1127 0
374.546 34.4669 0
232.621 57.9389 0
232.057 52.971 0
292.617 55.9304 0
296.94 58.4429 0
111.451 18.4958 0
116.438 18.8485 0
466.476 7.3981 0
461.482 7.64466 0
268.381 35.134 0
263.532 33.9158 0
228.012 38.3758 0
232.001 41.3906 0
106.89 44.8437 0
106.791 39.8448 0
439.687 59.5168 0
441.026 54.6994 0
4.9776 37.4746 0
4.51744 32.4958 0
113.211 52.5631 0
108.376 53.8411 0
27.7383 45.4883 0
23.4777 48.1057 0
7.25262 42.9678 0
11.1528 39.8388 0
432.946 14.521 0
437.92 14.017 0
45.9225 33.0191 0
44.8115 28.1441 0
332.579 23.9892 0
336.269 20.6143 0
164.039 39.2774 0
168.145 36.4228 0
266.193 50.6936 0
265.988 55.6893 0
385.862 51.0127 0
381.541 53.5276 0
437.41 36.7475 0
441.796 39.148 0
50.1978 23.8873 0
47.6771 28.2054 0
89.9255 19.4529 0
94.8506 18.5923 0
243.119 30.753 0
238.786 28.2576 0
93.6539 55.0604 0
88.6549 55.1866 0
39.4228 19.9369 0
34.8622 21.986 0
20.243 19.443 0
19.0584 14.5853 0
267.497 1.15505 0
262.762 2.76162 0
264.532 43.0806 0
260.1 45.3967 0
337.461 10.5611 0
337.519 15.5608 0
73.3978 32.5103 0
78.372 33.0176 0
74.2673 32.4256 0
78.3587 35.2996 0
352.208 25.4171 0
357.195 25.7688 0
329.09 7.80178 0
324.276 6.45029 0
269.224 30.9953 0
264.3 31.8642 0
65.2442 11.971 0
66.0494 16.9058 0
486.656 25.1495 0
487.998 29.9661 0
118.018 10.1345 0
118.027 5.13435 0
7.50773 54.4381 0
12.4976 54.7671 0
5.70281 7.16144 0
0.714214 7.48974 0
368.466 43.7595 0
363.488 43.2887 0
7.08665 28.4275 0
5.06115 23.8562 0
80.828 45.5912 0
85.3146 43.3837 0
211.703 18.7271 0
216.449 20.2998 0
461.918 17.1267 0
457.126 15.7011 0
155.77 34.0416 0
154.616 29.1767 0
41.0825 7.19318 0
43.2844 11.6823 0
333.444 47.3252 0
328.974 45.0836 0
413.041 12.0242 0
417.95 11.0733 0
466.041 34.25 0
467.867 38.9046 0
454.527 35.4249 0
456.968 31.0612 0
279.385 16.7079 0
284.379 16.964 0
246.143 26.0427 0
248.839 21.8317 0
364.19 14.8557 0
365.458 10.0192 0
451.54 25.7971 0
450.506 30.6891 0
86.2543 35.4194 0
84.79 30.6387 0
356.323 48.6261 0
355.98 43.6379 0
244.73 27.4204 0
239.772 26.779 0
436.163 42.3542 0
431.503 44.1667 0
473.793 40.2986 0
478.497 38.603 0
245.457 11.9241 0
246.546 16.8042 0
63.267 31.4232 0
59.761 34.9881 0
306.998 17.0306 0
311.735 18.6293 0
486.701 49.9505 0
485.061 45.227 0
0.967433 49.1344 0
5.80356 50.4059 0
429.382 12.6819 0
432.611 8.86504 0
398.697 3.66129 0
393.969 5.28697 0
467.351 42.0078 0
462.54 43.3675 0
476.486 43.0839 0
480.944 45.3462 0
362.346 21.8219 0
367.073 23.4515 0
211.078 8.67966 0
206.245 7.39673 0
173.278 29.9694 0
171.723 34.7214 0
489.723 23.0066 0
485.925 19.7541 0
130.803 30.1806 0
129.879 35.0945 0
263.638 5.4567 0
258.854 4.00653 0
159.442 49.1728 0
157.693 53.8571 0
74.3089 47.7736 0
69.3718 46.9806 0
302.362 42.4595 0
297.887 40.2294 0
265.009 51.0315 0
269.948 50.2494 0
289.34 25.9103 0
286.676 21.6792 0
431.933 10.0554 0
434.298 5.65017 0
482.49 46.0269 0
477.905 48.0219 0
333.136 10.3427 0
337.887 11.8988 0
5.77954 6.2779 0
5.07065 11.2275 0
395.706 46.5579 0
396.454 41.6142 0
219.365 42.7798 0
221.625 38.3198 0
76.2641 9.75415 0
77.225 4.84721 0
485.036 12.4855 0
485.075 7.48569 0
257.834 22.3802 0
253.638 19.6601 0
124.148 55.5597 0
123.285 50.6349 0
224.622 9.61481 0
222.684 14.2237 0
428.589 27.2147 0
432.58 30.2266 0
426.936 26.3267 0
431.875 27.1062 0
73.2147 55.3245 0
77.5565 57.8051 0
42.931 10.9758 0
38.2576 9.19954 0
227.478 16.5439 0
232.267 17.98 0
114.965 8.8387 0
114.039 13.7525 0
306.481 14.7125 0
302.364 17.55 0
304.482 41.8916 0
309.302 43.2222 0
390.244 21.3462 0
385.245 21.45 0
27.4632 27.1415 0
25.8303 22.4157 0
412.092 17.4168 0
409.424 21.6455 0
412.9 16.4666 0
411.08 21.1235 0
409.767 51.214 0
408.195 55.9605 0
143.148 33.0495 0
139.237 36.1636 0
396.877 5.1882 0
401.497 3.27545 0
107.663 43.103 0
105.584 47.6504 0
114.866 18.2966 0
111.987 22.385 0
188.925 18.4259 0
184.761 21.1935 0
367.906 26.0715 0
369.363 21.2887 0
409.773 9.16165 0
413.845 6.25958 0
131.517 46.5853 0
136.188 44.8013 0
282.189 50.1721 0
281.504 55.1249 0
405.714 41.7882 0
408.095 46.1847 0
417.479 11.7358 0
414.652 15.8602 0
184.942 19.568 0
180.138 18.1826 0
315.787 18.1511 0
318.45 22.3831 0
430.599 32.4674 0
428.61 37.0546 0
478.558 48.3855 0
478.759 43.3895 0
148.21 22.2431 0
146.308 26.8672 0
185.104 49.3125 0
183.056 44.7513 0
148.798 16.4177 0
145.908 20.4976 0
343.841 22.4414 0
341.208 26.6919 0
346.522 15.0807 0
351.148 13.1821 0
432.455 53.2963 0
435.946 49.7166 0
316.217 48.0005 0
321.186 48.557 0
464.495 25.7603 0
469.033 27.8585 0
474.562 0.626527 0
469.58 0.198893 0
480.388 50.5044 0
482.297 55.1257 0
216.5 14.683 0
221.195 16.3997 0
23.8974 41.6504 0
28.2281 39.151 0
136.188 19.4008 0
139.796 15.9384 0
166.043 27.523 0
170.918 26.4122 0
167.218 39.757 0
171.292 36.8567 0
171.784 49.5913 0
175.743 52.6451 0
134.934 20.68 0
136.527 15.9406 0
5.04234 18.3221 0
2.04489 22.3239 0
69.6422 11.7495 0
70.708 16.6347 0
207.968 50.813 0
212.923 51.4807 0
96.5331 17.3793 0
91.7907 18.9627 0
29.8764 42.3282 0
29.1968 37.3747 0
250.668 11.643 0
254.288 15.0919 0
463.57 30.4872 0
462.257 35.3116 0
220.975 18.9321 0
218.639 14.5113 0
95.6035 43.3248 0
100.492 44.3774 0
149.393 9.80746 0
154.116 8.16636 0
68.401 25.5404 0
73.3113 26.4827 0
382.396 33.1288 0
379.3 29.2028 0
470.174 55.1257 0
465.238 55.9209 0
308.469 9.87526 0
303.531 10.6565 0
188.43 39.9025 0
186.599 44.5551 0
295.192 16.1331 0
300 14.761 0
361.5 2.38975 0
365.408 5.50859 0
110.552 13.4391 0
105.594 12.7931 0
451.075 16.1621 0
452.55 11.3845 0
27.2266 25.3877 0
27.4749 20.3939 0
421.926 14.0988 0
426.81 13.0296 0
55.766 5.87033 0
60.358 7.84735 0
341.983 14.8073 0
339.417 10.516 0
290.119 8.96002 0
293.429 5.21301 0
332.025 44.8424 0
334.57 49.1465 0
8.5476 52.9703 0
4.9362 49.5119 0
363.019 56.2925 0
362.413 51.3293 0
329.46 43.4322 0
326.789 47.6588 0
48.0882 49.3419 0
51.9493 52.5191 0
32.0097 37.9391 0
36.9769 37.3655 0
33.9185 12.8289 0
31.3993 8.50994 0
35.4199 50.1825 0
39.9373 48.0384 0
254.219 59.0409 0
253.256 54.1347 0
343.959 36.5224 0
342.613 31.7069 0
348.568 37.6278 0
346.437 42.151 0
353.194 26.2334 0
357.498 28.7764 0
348.462 2.84657 0
353.46 2.97103 0
405.433 43.0089 0
409.591 45.7847 0
186.892 43.5644 0
187.77 48.4866 0
83.0175 49.4833 0
78.07 50.209 0
390.44 8.26547 0
388.683 3.58426 0
346.357 46.86 0
347.475 41.9867 0
439.458 50.315 0
435.092 47.8779 0
356.469 53.1718 0
360.521 56.1015 0
436.768 51.5276 0
440.108 47.8067 0
127.151 54.8261 0
127.904 49.8831 0
249.375 42.5484 0
252.135 46.7173 0
310.1 43.4944 0
306.346 46.7973 0
73.0824 51.8326 0
68.4311 49.9968 0
496.397 50.2243 0
495.765 55.1842 0
455.453 0.902137 0
455.291 5.89953 0
330.342 7.66743 0
326.587 10.9688 0
276.017 54.4707 0
272.085 57.5592 0
485.774 27.0174 0
486.007 22.0228 0
304.783 6.1039 0
308.27 2.52054 0
356.535 13.1396 0
353.674 9.03885 0
191.905 13.7686 0
187.164 12.1819 0
321.839 9.1669 0
323.007 4.30518 0
91.639 35.5769 0
89.4924 31.0613 0
163.097 26.4419 0
168.047 27.1464 0
350.277 58.2394 0
345.281 58.4419 0
371.214 46.5332 0
374.861 43.1122 0
304.616 55.7433 0
301.3 52.0009 0
367.546 32.1651 0
372.433 33.22 0
168.116 13.5178 0
170.031 8.899 0
215.967 24.9429 0
220.601 26.8224 0
127.884 55.7113 0
132.871 56.0778 0
20.6508 37.1539 0
25.5459 38.1738 0
142.645 41.9811 0
137.69 42.6518 0
85.0054 10.9888 0
80.5002 8.82111 0
206.376 50.6642 0
205.146 55.5106 0
18.4953 39.5464 0
14.0426 37.2716 0
25.6563 7.88682 0
25.1447 12.8607 0
38.5665 33.1978 0
34.0964 30.9576 0
39.9762 34.1161 0
43.992 31.1372 0
467.005 15.3811 0
470.305 11.6243 0
329.622 39.8501 0
325.192 42.1693 0
187.695 37.5185 0
182.698 37.3314 0
66.2258 31.3512 0
71.0449 30.0185 0
494.894 8.52365 0
497.427 12.8347 0
133.586 24.3149 0
137.996 21.9572 0
18.4862 53.4769 0
22.6504 56.2452 0
480.703 54.4605 0
482.42 49.7646 0
336.774 25.6237 0
334.701 30.1735 0
230.222 21.1309 0
228.238 25.7208 0
230.997 5.7566 0
234.998 8.75486 0
261.873 3.76905 0
266.393 1.63248 0
426.814 20.4119 0
431.731 21.32 0
286.107 10.8218 0
291.103 11.0305 0
148.167 31.8847 0
151.427 28.0939 0
73.9636 28.4851 0
77.4118 24.8644 0
207.214 16.7631 0
209.839 21.0185 0
447.676 54.0134 0
451.995 51.4949 0
418.365 -0.194974 0
421.374 3.79844 0
273.582 38.7687 0
268.698 39.8383 0
217.489 15.647 0
215.432 20.2043 0
63.6035 46.1199 0
61.6197 50.7095 0
353.357 57.3111 0
348.386 57.8525 0
75.5055 52.7559 0
73.9591 57.5107 0
197.319 18.3295 0
192.797 16.1974 0
180.772 41.1233 0
178.573 36.6332 0
271.181 55.361 0
271.977 50.4248 0
273.392 28.8693 0
268.692 30.574 0
354.603 18.4761 0
354.883 23.4682 0
472.491 31.9733 0
475.422 27.9226 0
397.69 1.34403 0
394.943 5.5214 0
372.183 4.41859 0
372.363 9.41539 0
209.228 56.5882 0
213.382 53.8053 0
334.681 5.07028 0
332.439 0.600748 0
32.7476 40.0531 0
27.8631 41.123 0
345.519 47.6166 0
349.423 50.7416 0
417.612 21.7475 0
418.398 26.6853 0
66.4221 13.7484 0
64.9634 18.531 0
379.68 13.8959 0
382.615 17.9435 0
31.441 6.35215 0
33.2436 11.016 0
499.703 30.9848 0
499.371 35.9738 0
114.292 13.928 0
113.751 8.9573 0
251.547 45.2508 0
256.457 46.1979 0
251.759 36.8145 0
256.31 38.8843 0
279.194 29.1948 0
275.374 25.9692 0
498.114 39.8588 0
494.031 42.7457 0
458.377 41.7655 0
455.037 45.4864 0
381.123 41.9721 0
380.39 37.0263 0
89.0401 30.6939 0
84.6925 33.1635 0
189.69 24.306 0
186.21 27.8966 0
256.266 7.47361 0
258.701 11.8406 0
338.543 3.83314 0
343.524 3.40348 0
143.698 23.3847 0
148.694 23.1828 0
69.0379 34.1969 0
70.1967 29.333 0
19.7543 45.4988 0
21.7963 50.0627 0
339.271 12.924 0
334.292 12.4666 0
433.014 15.9783 0
435.752 20.1618 0
424.358 49.861 0
422.384 45.2673 0
321.427 56.0363 0
317.393 58.9902 0
332.009 11.8485 0
336.814 10.466 0
491.005 31.9074 0
494.3 28.1466 0
69.64 43.7126 0
74.6089 43.1537 0
269.661 49.7423 0
265.421 47.0932 0
464.588 9.75021 0
461.046 13.2791 0
281.685 5.187 0
277.559 8.01011 0
20.1828 11.9894 0
23.9785 15.2437 0
402.866 4.80096 0
405.37 0.473305 0
60.1295 50.4806 0
64.6655 48.3759 0
82.2271 4.74433 0
77.3215 3.78061 0
287.165 35.9481 0
292.164 36.0417 0
304.64 8.56435 0
307.702 4.61189 0
55.7867 26.2647 0
54.1061 30.9739 0
110.232 11.3385 0
105.404 10.0398 0
16.6917 26.9152 0
21.3953 25.2192 0
29.0589 25.9427 0
30.4245 30.7526 0
477.092 18.3443 0
479.884 22.4921 0
480.26 34.0189 0
484.092 30.8077 0
355.486 42.4179 0
356.281 47.3543 0
32.9825 52.9385 0
28.3867 54.909 0
295.069 14.0414 0
296.812 9.35492 0
64.3271 17.273 0
69.1424 15.9276 0
239.093 53.2514 0
235.121 50.2148 0
338.68 15.2968 0
343.68 15.2757 0
354.471 57.9649 0
357.72 54.1646 0
132.856 50.0406 0
134.325 54.8199 0
50.9306 1.19276 0
54.7635 4.40295 0
113.117 24.0071 0
112.153 19.1009 0
223.06 11.347 0
226.669 14.8076 0
355.979 28.5309 0
353.764 33.0132 0
155.878 31.1345 0
159.104 27.3145 0
224.836 27.6794 0
229.382 25.5973 0
155.257 52.04 0
153.05 47.5535 0
139.629 47.6538 0
144.629 47.6169 0
115.452 9.14999 0
111.711 5.83325 0
110.483 33.3071 0
112.058 38.0526 0
312.67 33.5981 0
313.493 28.6663 0
192.897 40.5662 0
195.748 44.6736 0
446.502 31.8721 0
441.522 32.3116 0
329.858 21.4534 0
325.76 24.318 0
423.645 25.0037 0
420.924 29.1985 0
240.514 9.63925 0
243.074 5.34419 0
408.995 44.0564 0
413.867 45.1823 0
131.202 31.404 0
133.438 26.932 0
210.901 56.9552 0
206.464 54.6504 0
487.89 26.9554 0
492.812 27.8328 0
161.292 30.9248 0
165.85 28.8687 0
52.1481 42.7309 0
47.791 45.1842 0
57.181 31.9861 0
52.8257 34.4422 0
120.969 6.68836 0
124.832 3.51431 0
214.495 17.0599 0
216.077 12.3167 0
448.833 49.3768 0
446.784 53.9377 0
102.032 49.4877 0
98.8776 53.3676 0
346.04 37.867 0
348.021 33.2762 0
437.51 56.1264 0
434.487 52.1439 0
429.29 45.5404 0
424.34 46.2478 0
203.775 6.1094 0
201.023 10.2837 0
79.7076 43.5 0
74.7834 42.6307 0
431.451 54.9025 0
426.96 52.7047 0
71.0062 16.8981 0
66.0715 16.0948 0
88.2688 52.2544 0
90.8938 47.9988 0
125.292 38.3605 0
130.24 37.6385 0
273.256 26.1568 0
271.819 21.3679 0
203.738 50.3161 0
208.181 48.0213 0
6.02391 54.9412 0
10.9192 53.92 0
451.841 9.45076 0
447.332 11.6109 0
400.775 50.04 0
404.453 53.4275 0
25.2093 52.5651 0
27.3053 57.1045 0
207.179 20.0304 0
202.302 18.9282 0
52.5928 5.60757 0
56.2228 2.16945 0
174.81 48.9525 0
177.573 44.785 0
333.189 25.9435 0
337.631 23.6476 0
489.294 32.9172 0
492.863 29.4158 0
483.676 40.021 0
488.67 40.2697 0
71.897 13.7079 0
70.3537 18.4638 0
21.5166 4.1244 0
25.491 1.09121 0
128.709 53.8595 0
123.764 54.6048 0
411.577 1.62737 0
406.644 0.814457 0
161.088 47.2909 0
159.524 52.04 0
460.503 37.3487 0
465.317 35.9953 0
118.36 37.4291 0
123.241 38.5149 0
8.28458 39.6396 0
7.42237 34.7145 0
437.823 50.8643 0
433.029 49.4434 0
276.095 22.4671 0
280.965 21.3344 0
445.487 55.0143 0
449.526 57.9621 0
218.174 13.3349 0
218.576 18.3188 0
63.032 32.2191 0
65.4738 36.5823 0
177.271 35.7011 0
180.411 31.8096 0
162.099 7.26157 0
166.634 9.36691 0
467.409 12.2861 0
464.31 16.2096 0
76.5107 30.1895 0
73.0441 26.5865 0
421.084 30.182 0
419.394 25.4765 0
448.647 31.6021 0
443.657 31.909 0
348.415 22.0354 0
347.677 17.0901 0
247.983 32.9641 0
251.587 36.4292 0
3.41992 56.9264 0
1.39857 52.3532 0
221.459 32.8216 0
219.525 28.2111 0
71.9027 30.893 0
74.7234 35.0214 0
110.226 15.5065 0
106.808 11.8574 0
116.999 26.952 0
113.04 23.8991 0
347.225 32.1063 0
351.772 34.1844 0
172.031 48.3255 0
173.109 53.208 0
20.3878 52.7018 0
19.6074 47.7633 0
44.8103 0.281033 0
49.4685 2.09625 0
205.627 13.5513 0
201.776 10.3621 0
228 37.2616 0
228.933 42.1737 0
324.64 11.6208 0
322.735 16.2439 0
250.067 45.4325 0
251.855 50.102 0
464.975 32.8096 0
466.853 28.1759 0
98.0095 58.5388 0
101.547 55.005 0
99.9154 11.3188 0
103.48 7.81253 0
122.731 59.9059 0
117.743 59.5446 0
485.317 52.0327 0
485.086 57.0273 0
253.615 12.7936 0
248.621 13.0307 0
319.84 40.2775 0
322.592 36.1029 0
5.80795 58.2294 0
1.08008 56.6003 0
394.239 15.8479 0
396.335 11.3081 0
486.459 13.8554 0
490.652 11.1314 0
152.522 10.3178 0
149.313 6.4835 0
416.998 46.5847 0
419.881 42.4989 0
186.549 8.59699 0
190.973 10.9263 0
409.08 18.3584 0
414.079 18.4014 0
40.2733 7.74484 0
41.0567 12.6832 0
310.901 18.4933 0
307.523 22.1795 0
270.732 22.0821 0
275.683 22.7773 0
230.544 8.04278 0
229.082 3.26123 0
254.855 12.0721 0
250.06 10.6562 0
53.3959 4.41295 0
54.3496 9.32132 0
437.646 20.651 0
435.193 25.0084 0
181.367 31.6136 0
184.085 35.8103 0
74.7154 27.3911 0
79.7152 27.3604 0
169.965 2.02737 0
174.526 -0.0204895 0
326.611 23.2589 0
330.04 26.8981 0
28.9251 34.7547 0
24.0662 35.9352 0
303.838 7.78642 0
305.741 3.16261 0
418.18 38.9234 0
414.133 41.8592 0
239.918 24.3475 0
237.779 19.8281 0
33.7987 21.969 0
38.736 21.1811 0
53.913 44.3812 0
57.9445 47.339 0
361.316 14.258 0
365.237 11.1562 0
428.285 39.8587 0
433.068 41.3171 0
45.3401 53.8706 0
43.309 58.4394 0
277.575 7.84422 0
280.436 11.9454 0
23.7701 30.2943 0
27.2243 26.6792 0
291.451 20.7511 0
286.589 21.9171 0
45.5185 49.0955 0
47.466 44.4904 0
81.0594 2.52868 0
85.9474 3.57798 0
85.7413 5.77341 0
90.6955 5.10215 0
268.511 46.2111 0
265.809 42.0038 0
460.509 21.6718 0
455.875 23.5495 0
409.904 10.1332 0
407.652 5.66918 0
308.419 45.4855 0
305.965 41.1287 0
258.555 25.6067 0
259.555 20.7075 0
173.089 57.7283 0
172.052 52.8372 0
110.427 13.2483 0
115.333 12.285 0
52.3017 39.4207 0
56.9542 37.5887 0
324.287 7.54969 0
327.369 3.61279 0
385.932 35.774 0
386.773 30.8454 0
342.865 27.3156 0
346.985 30.148 0
352.049 44.7384 0
351.547 49.7131 0
46.2388 5.57941 0
41.2428 5.76199 0
135.021 48.7009 0
139.706 50.4495 0
344.151 39.1093 0
340.739 35.4544 0
89.0629 17.7268 0
84.5034 19.7785 0
120.453 16.4318 0
115.454 16.4687 0
47.297 24.9002 0
51.5464 27.535 0
271.01 25.1204 0
270.425 30.0861 0
122.474 7.62239 0
118.833 11.0489 0
450.752 28.3151 0
447.442 32.0628 0
228.651 33.6487 0
233.538 34.7072 0
461.259 33.9929 0
456.387 35.1168 0
25.2401 44.4484 0
24.6939 39.4784 0
354.155 31.4096 0
358.024 34.5763 0
405.163 41.2947 0
409.959 42.7079 0
180.901 38.1767 0
184.798 35.0438 0
436.15 13.1081 0
435.562 18.0734 0
36.6987 13.5168 0
38.865 18.0232 0
30.9898 53.9342 0
28.541 58.2935 0
317.123 41.6949 0
315.878 36.8525 0
203.493 50.6341 0
198.582 49.6933 0
298.781 14.2322 0
303.781 14.2499 0
60.6374 33.9436 0
57.4257 37.7757 0
439.465 21.9856 0
435.225 19.3351 0
459.618 54.9672 0
461.457 50.3179 0
221.1 50.6701 0
218.75 46.2568 0
373.65 34.2157 0
372.767 39.1373 0
216.061 52.3994 0
216.558 47.4242 0
339.07 25.0787 0
338.116 20.1705 0
363.87 24.3814 0
362.703 19.5196 0
278.37 20.8886 0
283.369 20.7689 0
81.6979 15.3894 0
86.0578 12.9423 0
221.193 33.54 0
224.25 29.5837 0
359.175 4.54413 0
356.788 0.150508 0
319.346 19.613 0
322.923 16.1201 0
6.38773 2.87922 0
1.8711 5.02276 0
491.349 1.68452 0
487.4 4.75047 0
86.2784 49.1854 0
88.2423 53.7836 0
211.708 33.4715 0
213.942 28.9979 0
76.1262 24.8737 0
73.4966 29.1264 0
133.086 55.9679 0
136.361 59.7468 0
335.864 27.6808 0
338.585 31.8755 0
0.711305 46.3296 0
5.57244 45.1577 0
64.21 31.5191 0
59.4555 29.9715 0
79.8215 58.0656 0
84.4467 56.1648 0
28.2568 9.70619 0
24.6849 13.2047 0
146.446 20.3095 0
147.042 15.3451 0
74.6934 47.8887 0
79.0829 45.4939 0
288.756 5.65252 0
292.179 9.29631 0
98.6666 4.17005 0
95.8161 8.27784 0
464.491 32.7855 0
459.58 33.723 0
372.898 5.79716 0
372.412 0.820691 0
441.309 8.12161 0
444.309 4.12125 0
465.157 14.3001 0
470.154 14.464 0
96.6375 7.93766 0
98.6557 12.5122 0
196.044 42.8001 0
191.207 41.5322 0
294.193 47.052 0
290.226 50.0948 0
134.72 1.97814 0
139.719 1.93888 0
78.526 18.4803 0
76.7987 23.1725 0
285.915 36.1166 0
290.908 35.8547 0
177.772 36.5908 0
176.461 31.7658 0
322.757 20.9588 0
321.872 16.0377 0
37.602 42.1668 0
42.5508 42.8831 0
329.511 0.453837 0
327.133 4.85238 0
474.505 28.9121 0
479.505 28.9604 0
7.51776 50.4016 0
6.08468 45.6114 0
425.185 20.5797 0
420.504 18.8244 0
359.335 12.8431 0
358.785 17.8128 0
400.389 57.8713 0
401.001 52.9088 0
57.0418 42.3643 0
61.4886 44.6508 0
264.06 23.5701 0
266.924 19.4714 0
355.389 3.30855 0
359.421 6.26621 0
3.24838 10.5605 0
1.89461 5.74727 0
333.165 37.9849 0
338.14 37.4834 0
360.921 48.3247 0
362.094 43.4643 0
265.941 21.5693 0
260.941 21.539 0
72.0837 23.177 0
76.6196 21.0736 0
336.859 7.38482 0
339.846 11.3942 0
459.568 1.03829 0
464.252 2.7873 0
383.743 10.3507 0
388.608 9.19646 0
45.4111 2.89152 0
45.4129 7.89172 0
56.5166 9.65493 0
54.653 5.01514 0
292.028 13.0965 0
287.38 14.9386 0
162.583 17.9333 0
165.325 22.1143 0
23.7425 2.97316 0
28.7378 3.1729 0
373.02 46.2083 0
377.152 49.0228 0
330.966 7.20858 0
335.137 9.96496 0
330.966 35.0482 0
330.659 30.0576 0
112.374 9.99138 0
110.686 5.28489 0
164.085 9.83347 0
166.227 14.3513 0
460.579 48.5294 0
460.885 43.5387 0
428.222 28.2309 0
430.756 23.9208 0
431.575 3.2667 0
426.593 3.69693 0
83.8461 54.754 0
88.6816 56.0283 0
19.6528 14.4045 0
16.7256 10.3511 0
459.08 49.2268 0
454.081 49.3015 0
247.359 1.9369 0
246.625 6.88279 0
101.885 53.6708 0
101.945 48.6713 0
330.196 57.7184 0
328.68 52.9536 0
143.587 20.5478 0
147.993 18.1846 0
229.885 6.72733 0
226.15 10.0505 0
385.919 10.7119 0
390.104 7.97533 0
4.85909 45.029 0
4.10763 49.9722 0
410.133 37.1907 0
409.797 42.1794 0
434.826 8.07456 0
430.897 4.98223 0
69.1303 26.8693 0
66.0163 22.9575 0
46.2408 29.8276 0
45.2888 24.9191 0
214.548 22.5681 0
211.623 18.5132 0
56.5171 53.9932 0
58.907 49.6013 0
90.8443 12.692 0
95.8432 12.772 0
489.409 39.0959 0
492.163 34.9227 0
319.46 16.8436 0
315.17 14.2748 0
48.4343 23.4697 0
46.3749 18.9136 0
308.736 6.88398 0
312.503 3.59572 0
137.609 38.1991 0
141.561 35.1354 0
236.753 25.7451 0
232.06 27.4699 0
304.591 40.9944 0
303.908 45.9475 0
430.068 20.8371 0
433.765 24.2032 0
271.436 7.97114 0
274.42 11.9833 0
364.777 5.08206 0
360.872 8.20364 0
72.2449 5.76508 0
71.3582 10.686 0
498.27 21.6947 0
494.864 25.3558 0
490.749 14.6127 0
494.907 11.8355 0
295.059 1.32835 0
294.178 6.25015 0
192.303 43.3563 0
190.185 38.8272 0
286.817 5.49767 0
282.69 8.32091 0
463.727 38.4112 0
461.879 43.057 0
67.3033 17.9222 0
70.8515 21.4448 0
29.6729 25.7427 0
32.3601 29.9591 0
273.198 44.4503 0
269.769 48.0888 0
28.5962 53.3036 0
30.5039 57.9253 0
32.5887 14.4637 0
31.5042 9.58265 0
365.301 19.2638 0
363.39 14.6433 0
365.28 50.8525 0
367.712 46.4837 0
489.579 14.2559 0
484.704 15.3674 0
422.631 22.5245 0
426.94 25.0601 0
250.383 33.4471 0
249.361 28.5526 0
344.431 9.79931 0
341.939 5.46465 0
339.765 5.66899 0
342.54 1.50969 0
47.1605 22.583 0
44.9954 18.076 0
351.331 23.7788 0
349.176 19.2674 0
281.179 7.12216 0
285.94 8.6483 0
378.977 20.121 0
383.016 23.0686 0
414.391 35.7045 0
414.226 30.7072 0
281.018 30.4715 0
283.041 35.0435 0
449.937 5.576 0
453.389 9.19323 0
366.246 56.0715 0
365.548 51.1205 0
247.995 31.4467 0
250.226 26.9722 0
357.03 36.7658 0
352.307 38.4081 0
313.854 5.32099 0
317.083 1.50391 0
465.499 55.5212 0
467.788 51.0756 0
221.482 0.915009 0
224.299 5.046 0
98.5763 16.6048 0
93.6274 17.3157 0
289.554 37.7731 0
287.202 33.3608 0
136.488 54.3551 0
135.79 49.4043 0
423.033 26.0076 0
418.247 24.561 0
358.685 14.7476 0
363.393 13.0629 0
213.571 22.825 0
218.508 22.033 0
291.418 2.28475 0
296.409 2.58213 0
225.815 37.8188 0
227.938 33.2917 0
126.637 30.9517 0
128.76 35.4784 0
359.688 12.9643 0
364.46 14.4563 0
410.265 53.9307 0
408.418 58.5768 0
431.18 16.6116 0
426.626 14.5487 0
364.58 27.6896 0
360.131 25.4087 0
493.899 28.0944 0
494.135 33.0888 0
310.527 6.92295 0
314.911 9.32698 0
23.5857 29.1818 0
26.1445 33.4774 0
288.863 53.9369 0
285.544 50.1972 0
290.162 34.5898 0
285.194 34.0238 0
332.673 57.4912 0
330.219 53.1348 0
443.37 50.0605 0
443.786 45.0778 0
308.172 6.54914 0
303.881 9.11664 0
34.776 51.274 0
39.2823 53.4416 0
50.9372 32.9877 0
54.2209 29.2171 0
260.731 21.1812 0
260.902 26.1783 0
66.3096 25.1084 0
65.9196 20.1236 0
239.09 56.9551 0
243.958 55.8133 0
39.5317 29.7588 0
37.8596 34.4709 0
129.9 48.3004 0
129.806 43.3014 0
430.075 55.5205 0
425.112 56.1318 0
126.188 45.7697 0
128.58 41.3787 0
137.317 1.539 0
132.569 -0.0267096 0
25.5275 18.8723 0
28.6839 22.7499 0
481.455 30.4469 0
486.417 31.063 0
347.532 10.8108 0
349.092 15.5611 0
341.352 4.87413 0
338.126 1.05379 0
261.837 3.91037 0
260.45 8.71446 0
70.6352 38.8433 0
74.8901 36.2171 0
327.919 19.273 0
332.215 21.8315 0
306.753 48.3765 0
301.8 49.0567 0
400.4 5.99313 0
395.402 6.09521 0
380.172 27.3642 0
378.681 32.1369 0
240.983 37.1605 0
238.699 41.6083 0
370.519 28.4376 0
373.521 24.4387 0
179.23 8.93712 0
182.761 12.4768 0
481.056 13.0932 0
476.971 10.2098 0
231.903 20.059 0
236.659 21.6027 0
189.301 24.2679 0
184.322 23.8179 0
11.6343 29.5642 0
16.1176 27.3508 0
45.9308 58.2626 0
50.9269 58.4778 0
253.122 26.7167 0
255.42 22.2764 0
430.002 58.4957 0
425.003 58.5742 0
421.113 22.7568 0
418.11 26.7539 0
27.896 48.501 0
31.6409 51.8143 0
48.4645 4.72583 0
53.2973 3.44582 0
226.133 32.548 0
226.629 37.5233 0
237.148 48.1942 0
242.124 48.6856 0
52.4109 33.1884 0
52.2316 38.1851 0
443.651 35.0844 0
440.515 38.9789 0
139.998 18.563 0
136.174 15.3417 0
431.452 6.29722 0
428.923 10.6102 0
231.323 26.5948 0
236.323 26.615 0
6.25269 54.909 0
2.47835 51.6291 0
228.977 3.84021 0
232.427 7.45895 0
494.347 55.2423 0
495.666 50.4193 0
67.1836 38.4128 0
67.1373 43.4126 0
144.529 25.6467 0
140.439 22.772 0
350.038 35.1788 0
348.973 30.2936 0
208.189 7.21242 0
204.471 10.5562 0
123.476 3.29344 0
127.843 5.72853 0
168.944 18.2201 0
164.275 20.0088 0
120.722 29.2447 0
122.213 24.4722 0
357.691 42.9689 0
359.517 38.314 0
210.922 8.41052 0
207.469 4.79434 0
320.271 36.1778 0
322.774 31.849 0
94.7495 17.7122 0
99.7362 17.3518 0
359.758 41.1748 0
360.378 46.1362 0
2.43113 14.3492 0
7.41155 14.7866 0
152.152 15.4058 0
147.678 13.1739 0
33.0928 20.1122 0
35.4902 15.7244 0
460.048 26.1323 0
465.01 26.7438 0
67.2274 11.5962 0
65.6904 6.83818 0
331.876 44.1029 0
327.937 41.0234 0
49.4282 35.8556 0
45.5883 39.0581 0
313.981 17.6377 0
308.981 17.6554 0
174.222 44.4167 0
177.493 40.6354 0
337.674 32.7414 0
334.53 28.8541 0
323.972 15.8194 0
324.823 20.7465 0
31.8497 58.455 0
36.8329 58.8748 0
293.546 6.18206 0
296.507 10.2109 0
325.181 27.0826 0
329.937 28.6273 0
45.6218 53.1909 0
41.4339 50.4585 0
116 49.6147 0
116.344 44.6266 0
332.278 24.5917 0
333.334 19.7043 0
465.936 38.5031 0
469.279 34.7847 0
443.63 30.0268 0
445.398 25.3495 0
32.0894 1.8405 0
27.3983 0.112214 0
150.028 46.2236 0
145.516 44.0691 0
365.26 35.0565 0
362.481 30.8999 0
362.818 21.9776 0
360.975 17.3299 0
35.5916 46.3888 0
30.8073 44.935 0
215.293 43.6934 0
218.715 47.3383 0
168.853 9.88879 0
173.117 12.5002 0
288.752 49.6911 0
284.731 52.6628 0
73.4782 9.05153 0
77.1624 12.4316 0
375.102 41.0657 0
378.472 44.7596 0
232.104 41.5815 0
227.142 42.2006 0
420.882 35.532 0
425.868 35.1652 0
103.615 45.1075 0
104.882 49.9441 0
439.213 7.40355 0
444.021 6.03419 0
285.092 11.5355 0
281.945 15.4214 0
499.683 49.5764 0
496.989 45.3642 0
434.683 7.17682 0
438.184 10.7466 0
47.3578 12.0901 0
52.2525 11.0713 0
453.48 14.7525 0
449.742 11.4321 0
3.22058 42.1467 0
7.88775 43.9412 0
381.173 0.0218021 0
385.288 2.86137 0
7.93412 55.7803 0
3.87893 58.7061 0
357.434 41.0888 0
358.598 36.2263 0
352.823 25.6783 0
350.076 21.5006 0
15.4347 18.5649 0
10.6118 17.2473 0
107.347 55.6421 0
102.349 55.7831 0
195.578 8.24212 0
195.019 13.2109 0
90.2624 13.8816 0
95.2553 14.141 0
64.4044 48.467 0
59.7785 46.5685 0
133.787 21.2236 0
135.984 16.732 0
244.947 28.6275 0
248.476 25.0857 0
307.157 59.7736 0
310.825 56.3754 0
293.846 42.8253 0
290.601 46.6293 0
365.217 21.2084 0
369.46 23.8526 0
401.245 0.522297 0
401.356 5.52109 0
10.6943 19.2929 0
6.9436 15.9868 0
168.516 52.0923 0
164.29 54.766 0
241.469 55.4646 0
246.245 53.9828 0
237.763 15.3251 0
238.105 10.3367 0
446.753 42.1105 0
444.847 37.488 0
70.1807 53.135 0
74.965 51.6806 0
55.5175 0.98767 0
50.519 1.07494 0
245.381 50.7441 0
242.58 46.6022 0
276.761 7.42828 0
275.196 2.67921 0
51.9402 18.8708 0
55.9251 15.8509 0
1.89747 20.8783 0
3.64733 16.1945 0
127.349 29.2298 0
122.587 30.7537 0
328.766 36.7755 0
329.703 41.6868 0
477.589 35.5171 0
481.194 32.0521 0
396.844 46.0772 0
391.948 45.063 0
4.5096 22.8618 0
2.53152 27.4538 0
105.359 1.99728 0
104.891 6.97553 0
146.764 18.5623 0
142.751 21.5449 0
331.817 21.0427 0
326.935 22.1248 0
304.519 39.4861 0
308.776 42.109 0
358.314 14.7433 0
362.62 12.2013 0
19.0756 6.73436 0
16.0713 2.73775 0
33.5093 9.15673 0
29.0696 11.4557 0
51.5284 38.8074 0
52.1967 33.8523 0
90.8339 6.92107 0
87.0431 10.181 0
125.777 51.4778 0
129.364 47.995 0
170.025 1.99466 0
167.012 5.98456 0
5.57988 41.9804 0
7.00192 37.1869 0
39.6326 58.1252 0
37.8557 53.4516 0
18.0151 23.6469 0
21.9179 26.7721 0
396.372 17.1334 0
401.311 16.3577 0
29.284 30.6307 0
29.0153 25.6379 0
36.3534 31.5082 0
32.1295 34.1838 0
309.008 55.0254 0
313.918 54.0787 0
495.721 34.7066 0
493.764 39.3075 0
41.0483 13.6297 0
36.2811 15.1364 0
411.994 6.76597 0
415.943 9.83316 0
348.118 14.6726 0
350.931 10.5387 0
456.309 26.45 0
454.41 31.0754 0
248.126 10.0693 0
245.482 5.82525 0
238.144 18.9242 0
240.704 14.629 0
377.093 52.9592 0
374.084 48.9665 0
205.326 8.2235 0
207.166 12.8726 0
371.985 36.7647 0
376.927 37.5272 0
312.597 33.7316 0
314.282 29.0238 0
424.015 8.45011 0
422.736 13.2837 0
98.1851 7.97482 0
100.819 12.225 0
135.91 21.1501 0
134.935 16.2462 0
262.309 29.4764 0
258.638 32.8712 0
56.4708 55.6733 0
57.4657 50.7734 0
440.805 56.5962 0
444.828 59.565 0
367.053 33.3942 0
371.089 30.4423 0
331.346 5.62172 0
335.626 8.20722 0
20.2812 57.022 0
20.3367 52.0225 0
34.6522 33.6278 0
36.3117 28.9112 0
422.231 27.6689 0
421.914 22.679 0
489.837 40.6261 0
490.944 35.7503 0
184.38 21.4383 0
179.469 20.4993 0
71.0125 3.70785 0
67.9943 7.69404 0
69.2261 52.0767 0
64.2361 51.7508 0
27.5101 4.18762 0
30.8437 0.461434 0
86.2636 57.9847 0
87.7641 53.2153 0
355.255 40.4396 0
350.32 39.6372 0
96.9342 10.6586 0
101.792 11.842 0
71.4571 1.86154 0
76.3499 2.88809 0
131.952 45.1528 0
136.763 43.7883 0
182.193 5.89474 0
177.315 4.80066 0
195.212 7.38222 0
200.103 8.41653 0
440.125 27.6261 0
437.217 31.6937 0
391.739 51.4945 0
389.133 55.7619 0
234.566 34.4095 0
237.743 38.2703 0
262.777 54.9707 0
267.12 52.4924 0
351.531 35.1789 0
349.851 30.4695 0
345.813 14.0742 0
346.118 19.0649 0
464.699 39.7915 0
459.846 38.5856 0
404.068 1.32648 0
404.887 6.25899 0
223.527 14.784 0
218.552 14.2843 0
269.36 15.1857 0
265.157 12.478 0
367.94 48.1954 0
364.096 44.9975 0
462.546 23.895 0
466.344 27.1462 0
152.324 15.7057 0
153.981 10.9882 0
358.069 23.7984 0
361.264 27.6447 0
112.458 35.9226 0
113.277 40.8551 0
223.871 1.14098 0
227.854 4.16251 0
0.18395 57.4844 0
2.71937 53.1746 0
270.132 46.8125 0
267.259 50.9047 0
334.014 31.0207 0
330.094 27.9172 0
184.558 3.82141 0
184.242 8.81156 0
90.9402 44.7678 0
90.7651 39.771 0
166.825 9.91597 0
166.779 4.91606 0
6.76281 3.86941 0
2.84441 6.97474 0
203.165 45.3208 0
199.133 48.2785 0
262.234 53.3125 0
260.732 58.0817 0
486.761 19.9661 0
486.84 14.9667 0
107.296 38.5438 0
111.23 35.4577 0
116.606 2.22584 0
120.987 4.63583 0
469.464 23.6157 0
474.383 24.5114 0
349.448 10.9105 0
344.649 12.3141 0
282.38 13.1676 0
281.493 8.24673 0
75.9923 24.3209 0
71.6715 21.8051 0
293.776 0.0540483 0
298.485 1.73442 0
373.35 7.33103 0
376.823 3.7341 0
292.201 46.3729 0
292.012 51.3693 0
80.1619 28.4016 0
82.3562 32.8943 0
486.569 25.1877 0
485.358 30.0389 0
42.9136 5.29747 0
37.9474 4.72342 0
19.4482 2.82572 0
14.4641 3.21408 0
267.218 58.1912 0
272.21 58.4679 0
88.0969 0.15584 0
89.8842 4.82556 0
134.948 53.202 0
131.77 49.3413 0
443.828 11.0074 0
448.809 10.5806 0
427.385 16.4032 0
422.631 17.9516 0
322.441 39.2037 0
317.954 41.4102 0
458.669 25.1573 0
456.185 29.4965 0
386.765 9.69645 0
390.747 12.7202 0
77.5895 19.3591 0
82.4458 20.5484 0
493.887 12.4573 0
498.879 12.1688 0
212.279 44.7313 0
217.017 46.3306 0
84.1467 35.7789 0
82.6165 31.0188 0
288.894 20.9638 0
284.004 19.922 0
110.097 18.6916 0
109.183 23.6075 0
63.5592 20.3366 0
61.6374 24.9526 0
146.686 14.5602 0
150.021 18.2849 0
19.2297 18.6063 0
21.8416 14.3428 0
68.5224 23.0055 0
73.5214 23.0932 0
34.2493 46.3357 0
34.8662 41.374 0
161.714 21.0505 0
162.09 26.0364 0
477.228 2.55024 0
472.446 4.01324 0
264.325 25.213 0
261.728 20.9401 0
400.667 39.6309 0
399.747 44.5455 0
255.805 52.7548 0
253.879 48.1406 0
467.971 12.8777 0
471.551 16.3677 0
140.188 38.883 0
136.829 35.1792 0
129.239 16.8652 0
128.496 11.9207 0
163.432 45.837 0
162.798 50.7965 0
345.424 33.5674 0
344.787 28.6081 0
434.904 53.4683 0
430.488 55.8139 0
498.561 31.4529 0
496.371 26.958 0
119.416 51.3631 0
119.812 56.3472 0
106.716 13.8706 0
102.732 10.8493 0
63.2011 58.681 0
67.8533 56.8472 0
308.722 10.5595 0
308.099 15.5206 0
351.138 2.80794 0
351.977 7.73706 0
24.4177 34.4179 0
24.5905 29.4209 0
64.8098 5.59823 0
63.4511 10.4102 0
38.2228 35.2996 0
35.0437 31.4404 0
367.092 13.1253 0
363.637 9.51182 0
53.9733 27.6326 0
58.4131 25.333 0
352.768 17.1555 0
354.312 12.3998 0
304.332 49.0048 0
299.424 49.9638 0
162.714 17.6916 0
159.722 21.6978 0
185.403 32.3078 0
182.884 27.989 0
17.0379 54.3523 0
21.5106 52.1163 0
139.357 21.9294 0
139.717 26.9165 0
34.3385 11.9734 0
37.8738 15.5089 0
130.35 44.3412 0
126.59 41.0456 0
472.078 5.88501 0
475.882 2.64078 0
15.5656 56.6663 0
10.9145 54.8297 0
197.818 48.4421 0
201.2 52.1246 0
15.5934 16.8871 0
19.1736 13.397 0
210.756 54.4153 0
215.453 52.7011 0
244.333 24.5092 0
246.92 20.2299 0
252.782 7.87058 0
254.206 3.07747 0
269.062 26.2172 0
273.395 23.7219 0
136.792 21.6202 0
131.836 20.9571 0
286.99 54.7397 0
282.53 52.4793 0
111.17 19.3683 0
116.17 19.3693 0
355.014 8.04156 0
357.653 12.2883 0
420.24 44.3134 0
421.865 49.0418 0
250.136 4.86964 0
252.321 0.372303 0
254.974 27.5545 0
250.666 30.0928 0
118.423 50.9256 0
113.634 52.3638 0
440.728 17.8749 0
441.748 12.9801 0
201.027 50.0912 0
205.622 48.1194 0
347.879 48.7328 0
343.372 46.5675 0
144.878 8.52719 0
144.935 3.52736 0
182.363 46.9422 0
187.298 46.1392 0
338.255 13.9058 0
336.566 9.19965 0
363.436 28.1448 0
358.999 30.4488 0
355.243 16.6097 0
359.813 18.6382 0
27.4983 51.8183 0
32.468 52.3731 0
378.002 47.5549 0
376.942 52.4414 0
422.631 18.4674 0
419.8 22.5889 0
170.621 1.45333 0
175.494 2.5671 0
78.0139 18.4656 0
76.5212 13.6936 0
24.3325 41.0624 0
19.339 41.3241 0
122.053 36.7119 0
125.746 33.3415 0
137.534 38.9877 0
138.831 34.1588 0
118.159 14.5452 0
117.258 9.62711 0
14.7146 20.9299 0
17.3129 16.658 0
26.5281 20.846 0
22.9874 24.3763 0
334.003 32.4833 0
338.419 34.8281 0
391.77 5.80363 0
396.34 3.77602 0
132.393 19.726 0
134.521 15.201 0
453.412 24.3838 0
451.245 28.8897 0
242.156 0.665985 0
247.136 0.223052 0
204.631 7.47148 0
209.311 5.71301 0
263.104 28.0738 0
263.123 33.0738 0
230.405 23.6644 0
225.688 25.3234 0
4.74518 53.0805 0
2.50005 57.5482 0
319.837 11.7181 0
316.068 15.0043 0
491.941 51.1468 0
493.089 46.2803 0
212.941 53.8504 0
209.404 50.3168 0
264.342 18.1741 0
269.242 19.1678 0
337.504 48.1617 0
342.486 47.7293 0
392.065 8.67959 0
393.09 13.5735 0
438.291 52.7685 0
437.543 47.8248 0
318.517 35.4844 0
313.772 33.9084 0
204.848 50.525 0
199.865 50.113 0
327.2 18.5169 0
331.998 19.9244 0
104.736 10.2754 0
107.433 14.4852 0
291.337 43.6572 0
289.58 48.3382 0
217.124 38.409 0
220.1 42.4269 0
300.817 45.4655 0
301.017 40.4695 0
97.4868 42.3538 0
102.441 43.0343 0
430.042 42.4273 0
434.914 43.5535 0
381.916 40.3792 0
377.267 38.5378 0
435.683 54.2282 0
430.728 53.5616 0
135.283 17.9386 0
133.123 13.4292 0
404.698 59.2515 0
403.718 54.3485 0
89.2221 4.26442 0
94.2196 4.1279 0
403.704 17.3331 0
405.216 12.5672 0
35.9441 12.1416 0
39.1456 8.30112 0
316.646 36.9052 0
320.69 39.845 0
132.206 15.6282 0
137.132 16.4881 0
209.785 18.3412 0
213.072 22.1087 0
72.4175 25.8618 0
73.0753 20.9052 0
414.67 32.8317 0
416.557 37.4618 0
11.1284 56.1877 0
8.10291 52.2067 0
273.316 26.6728 0
277.991 28.4461 0
363.413 46.7327 0
367.397 49.7548 0
123.387 58.2267 0
127.283 55.0924 0
284.998 53.0308 0
280.529 55.2742 0
179.532 41.6348 0
180.732 36.781 0
32.2057 35.5559 0
36.4653 32.9374 0
150.733 8.51757 0
151.862 13.3885 0
87.0297 42.9989 0
84.6357 47.3885 0
367.429 23.1831 0
372.417 22.8403 0
312.012 46.6341 0
316.648 48.5054 0
6.61724 22.5837 0
7.72956 27.4584 0
253.258 34.0057 0
250.378 38.0929 0
295.377 44.9698 0
296.48 40.093 0
401.77 50.3081 0
406.157 52.7075 0
304.525 41.0533 0
301.828 45.2631 0
271.072 3.1803 0
273.631 7.47617 0
159.78 40.9265 0
164.137 38.4729 0
487.974 29.1387 0
484.619 25.4308 0
22.0396 30.7289 0
17.6457 28.3429 0
71.7198 6.56773 0
66.8516 7.70581 0
428.928 34.7735 0
423.941 35.1338 0
476.835 21.6697 0
475.661 26.53 0
210.86 40.8573 0
214.89 43.8164 0
448.221 58.8275 0
443.469 57.2706 0
188.733 36.9472 0
190.709 41.5403 0
307.989 19.9165 0
309.927 24.5254 0
177.255 30.6242 0
178.715 35.4061 0
418.066 58.4013 0
413.432 56.5226 0
46.5156 20.6064 0
51.2876 19.1144 0
244.941 7.25903 0
240.884 4.33702 0
281.567 38.8649 0
283.253 34.1579 0
314.707 4.2964 0
319.481 5.78116 0
410.352 6.44085 0
405.98 4.01544 0
420.811 9.12151 0
424.999 6.39089 0
181.993 57.5267 0
182.143 52.529 0
68.6902 24.5222 0
66.6988 29.1085 0
447.364 24.4442 0
451.802 26.7477 0
401.315 40.5362 0
402.826 45.3022 0
9.11076 48.6759 0
6.83855 53.1299 0
200.588 8.7612 0
196.839 12.0694 0
182.94 39.8301 0
181.814 44.7016 0
75.0608 19.6542 0
70.0713 19.3339 0
21.0082 8.69071 0
20.3651 3.73206 0
43.4313 50.9819 0
40.3601 47.0362 0
85.4653 10.5639 0
83.2863 6.06363 0
444.649 16.6915 0
440.804 13.4951 0
152.984 -0.00658107 0
153.184 4.98956 0
391.795 6.16235 0
389.662 10.6844 0
440.393 51.5675 0
445.289 52.581 0
121.985 33.4698 0
122.952 38.3754 0
431.372 26.6607 0
426.372 26.6237 0
452.499 19.8229 0
448.252 22.4626 0
134.359 5.73879 0
138.624 3.12904 0
94.5725 52.7444 0
99.5654 53.0207 0
37.5227 47.5639 0
36.8757 52.5218 0
434.169 11.2732 0
439.161 10.9809 0
313.354 19.971 0
316.638 23.7413 0
373.993 38.8137 0
377.459 42.417 0
333.6 55.4574 0
337.769 52.6975 0
239.217 45.0384 0
236.127 41.1077 0
397.845 47.9666 0
393.273 49.9912 0
150.378 39.7659 0
155.145 38.2581 0
86.6231 53.4497 0
88.0955 48.6715 0
349.341 31.7782 0
344.42 32.6653 0
437.839 43.5027 0
442.776 42.7102 0
174.33 27.5477 0
174.578 32.5415 0
37.9285 21.0833 0
36.0574 16.4466 0
403.559 13.738 0
399.169 16.1313 0
370.56 50.0179 0
370.745 45.0213 0
444.649 1.05693 0
443.085 5.80604 0
64.5741 4.15005 0
60.4163 6.92662 0
211.66 33.1287 0
215.751 36.0036 0
214.594 3.81974 0
209.762 5.10391 0
25.5854 26.5298 0
30.2072 24.6224 0
152.86 29.3158 0
154.253 24.5137 0
274.1 1.08825 0
275.979 5.72183 0
256.636 38.1346 0
261.194 40.1891 0
411.125 35.3616 0
407.759 39.0585 0
336.264 22.1902 0
335.823 27.1707 0
441.4 38.248 0
446.393 38.5225 0
184.442 57.9335 0
179.492 58.6433 0
266.485 21.4677 0
270.657 24.2227 0
168.954 24.0161 0
171.622 19.7877 0
243.377 7.23442 0
245.904 2.92026 0
74.5416 46.6931 0
79.5002 47.3379 0
186.068 27.5726 0
190.094 24.6069 0
133.022 28.4769 0
128.084 27.6912 0
105.742 46.1297 0
108.694 50.1658 0
97.4411 57.5417 0
93.2815 54.7665 0
225.523 20.7093 0
227.119 25.4481 0
63.3877 56.2169 0
58.4259 56.8394 0
450.622 29.9164 0
446.276 27.4442 0
249.935 48.5141 0
245.02 49.4341 0
130.136 29.0012 0
125.489 27.1565 0
56.2584 8.91108 0
60.0202 12.2046 0
37.6769 7.95704 0
40.2552 12.241 0
475.471 22.8579 0
480.218 24.4275 0
263.089 10.0761 0
267.339 12.7102 0
156.219 38.7965 0
160.023 42.041 0
174.821 33.4825 0
172.719 38.019 0
431.912 25.0967 0
429.715 29.5882 0
496.069 31.4714 0
491.285 30.02 0
64.4339 3.44079 0
60.6928 0.12401 0
54.8622 43.9147 0
59.8622 43.972 0
149.248 11.7129 0
144.257 11.4194 0
364.901 43.5472 0
368.18 47.322 0
272.902 21.9771 0
276.493 18.498 0
53.1905 43.0448 0
51.959 38.1989 0
293.598 57.993 0
298.415 56.6531 0
349.054 4.58604 0
353.198 7.38301 0
9.1015 19.928 0
5.99437 23.8453 0
320.383 56.721 0
315.556 55.415 0
75.0449 32.7863 0
77.7474 28.5795 0
109.583 14.4725 0
105.059 12.3431 0
443.479 16.1476 0
443.639 21.1451 0
261.08 4.86364 0
258.766 0.43137 0
15.0081 36.2895 0
17.4231 31.9114 0
6.10173 37.4884 0
11.0351 36.6738 0
244.873 36.2921 0
240.217 34.4711 0
275.933 23.4133 0
280.331 21.034 0
37.5818 31.8069 0
33.3292 29.1772 0
247.138 47.081 0
249.299 51.5899 0
65.1252 39.7763 0
66.0052 34.8543 0
144.141 43.7945 0
149.004 42.631 0
267.702 25.0299 0
265.023 29.2518 0
316.653 52.7465 0
321.393 54.3392 0
33.9171 50.3046 0
37.2722 54.012 0
260.349 30.0802 0
255.771 32.0914 0
38.7817 1.46198 0
41.7438 5.48997 0
380.2 50.0191 0
376.1 52.8815 0
371.915 35.8545 0
372.948 30.9623 0
64.2946 55.0425 0
61.1215 51.1782 0
281.9 36.678 0
282.63 31.7316 0
423.282 30.817 0
419.749 27.2783 0
158.602 49.7813 0
155.659 53.8238 0
156.102 29.5432 0
160.404 32.0914 0
374.205 11.3619 0
379.201 11.5397 0
442.216 1.88762 0
442.921 6.83761 0
480.822 49.7849 0
476.024 51.1921 0
211.81 40.8978 0
215.836 37.9334 0
117.665 7.91193 0
122.665 7.96861 0
133.815 16.9467 0
129.314 14.7704 0
62.5636 23.2638 0
61.5855 28.1673 0
120.102 55.858 0
125.103 55.7938 0
117.189 9.44435 0
112.677 7.29064 0
46.5589 53.1242 0
49.8016 49.318 0
187.934 19.6551 0
188.414 24.6321 0
368.643 17.8024 0
364.713 14.7109 0
375.415 22.5068 0
371.084 20.0082 0
413.428 52.1495 0
410.721 56.3536 0
228.16 44.0494 0
223.364 45.4643 0
334.28 -0.029721 0
329.35 0.799963 0
91.4489 6.68043 0
96.1781 8.30214 0
123.109 24.6006 0
122.999 29.5994 0
489.39 1.07752 0
485.052 3.56365 0
442.226 42.0557 0
439.326 37.9828 0
469.084 14.9073 0
473.783 13.2 0
470.573 47.7618 0
466.484 50.6385 0
288.936 4.93144 0
288.072 9.85639 0
46.8482 21.2457 0
43.8336 25.2347 0
470.002 30.8493 0
472.485 26.5091 0
309.329 48.8263 0
305.272 45.9041 0
420.341 45.4932 0
425.135 46.9115 0
114.47 12.4257 0
111.526 16.4673 0
287.853 8.55549 0
283.682 11.3128 0
193.158 18.2143 0
188.82 15.7276 0
478.461 26.3451 0
483.275 27.6987 0
326.128 14.0298 0
328.981 18.136 0
448.994 55.3927 0
444.005 55.0694 0
21.2189 38.219 0
26.0763 37.0328 0
42.8299 52.6938 0
46.1957 48.996 0
323.008 48.8282 0
327.556 50.9054 0
346.14 47.8768 0
343.31 51.9988 0
164.236 17.0956 0
166.116 21.7286 0
48.2561 52.8123 0
49.2333 57.7158 0
176.793 58.0295 0
181.466 56.2501 0
31.9601 37.7656 0
35.5473 41.2488 0
169.01 29.469 0
168.078 34.3814 0
271.843 16.8765 0
275.503 20.2829 0
215.552 4.07916 0
216.098 9.04936 0
321.13 15.5291 0
324.295 19.3998 0
315.408 26.5777 0
315.846 31.5585 0
364.621 57.463 0
365.131 52.4891 0
141.361 6.35672 0
144.082 2.16182 0
291.676 44.4955 0
289.873 39.8318 0
397.145 47.9411 0
401.247 50.8003 0
486.884 53.6255 0
490.051 57.495 0
157.466 47.6414 0
161.638 44.8859 0
495.775 29.5051 0
494.062 34.2026 0
160.718 29.0907 0
158.125 24.8162 0
446.906 42.1479 0
451.53 44.0491 0
460.188 6.51409 0
459.666 11.4867 0
33.1629 14.402 0
33.8691 19.352 0
467.37 1.346 0
465.403 5.9429 0
149.503 41.9499 0
153.779 44.5418 0
372.368 28.2805 0
367.483 27.2148 0
239.727 45.3729 0
236.394 41.6453 0
419.447 40.3038 0
423.852 37.9381 0
382.262 44.448 0
379.937 40.0212 0
320.689 48.4384 0
316.48 51.1381 0
371.783 18.3189 0
374.468 14.1009 0
347.89 53.7251 0
344.667 49.9028 0
31.3263 48.7055 0
33.1028 53.3792 0
429.488 17.5827 0
434.205 19.2384 0
328.331 42.6465 0
332.23 45.7763 0
17.3892 11.9178 0
20.5926 8.07893 0
187.534 39.2836 0
188.335 34.3483 0
349.308 57.6233 0
344.566 56.0376 0
339.837 18.6858 0
336.286 22.2066 0
178.411 0.654252 0
175.025 4.33345 0
388.204 40.5587 0
393.064 39.3825 0
53.8477 30.5639 0
53.1813 35.5192 0
22.489 44.1814 0
18.9625 47.7262 0
487.307 30.7652 0
489.159 26.1208 0
464.483 16.7111 0
459.504 16.2526 0
416.679 37.5944 0
413.242 41.2266 0
472.002 46.4817 0
467.375 48.3759 0
135.059 57.3182 0
133.077 52.7279 0
416.46 37.1504 0
411.547 36.2212 0
139.692 9.84306 0
136.899 5.69607 0
153.434 45.5525 0
157.752 48.0744 0
461.641 8.58815 0
458.389 12.3864 0
48.6775 35.2149 0
49.899 40.0633 0
138.945 0.49208 0
142.568 3.93751 0
322.902 49.5608 0
326.039 45.6674 0
298.642 57.8733 0
294.782 54.6955 0
479.364 6.31312 0
481.634 10.7685 0
160.298 47.7077 0
163.985 44.3309 0
31.5683 11.4212 0
36.4944 12.2745 0
112.46 3.24579 0
113.894 8.03581 0
384.118 21.1361 0
381.74 25.5342 0
254.13 9.10642 0
257.134 13.1037 0
135.089 11.1574 0
139.103 8.17677 0
45.7612 22.1116 0
47.0942 17.2925 0
56.2415 29.9635 0
60.5107 32.5662 0
172.13 46.1223 0
168.8 42.3921 0
311.923 9.45148 0
315.72 6.19796 0
17.4294 9.5681 0
14.5455 5.48371 0
25.8246 59.9484 0
25.8592 54.9487 0
274.211 45.4285 0
270.009 48.1387 0
185.203 11.8296 0
185.82 6.86767 0
106.551 45.4245 0
111.48 46.2649 0
28.3073 29.9905 0
23.674 28.1113 0
485.16 21.7599 0
480.16 21.8033 0
443.488 14.9506 0
439.454 17.9042 0
353.533 45.8265 0
352.497 40.935 0
469.914 41.0543 0
465.049 39.9027 0
343.919 15.6724 0
338.939 16.1185 0
80.4525 40.8847 0
76.0499 38.5144 0
348.553 53.0935 0
347.16 57.8954 0
37.3993 55.4559 0
42.3923 55.1794 0
348.677 20.9105 0
348.356 25.9002 0
353.78 8.00101 0
355.852 12.5515 0
86.1295 51.222 0
86.3963 56.2147 0
227.34 51.7212 0
224.729 47.4573 0
147.5 54.1128 0
146.363 49.244 0
220.066 25.3478 0
218.827 20.5036 0
371.988 42.3068 0
366.988 42.3233 0
198.644 43.9172 0
193.656 43.5798 0
450.038 28.9454 0
452.066 33.5158 0
485.62 33.69 0
485.602 28.69 0
475.779 42.6783 0
474.566 37.8276 0
33.8247 29.3794 0
38.3223 31.5637 0
86.7052 48.4939 0
82.3161 50.8896 0
288.004 5.29027 0
283.014 4.97875 0
454.981 35.4422 0
452.895 30.8979 0
275.356 0.476598 0
272.969 4.87008 0
57.7988 0.853242 0
52.8703 0.014691 0
2.41446 53.6291 0
2.03768 48.6434 0
351.119 19.8694 0
348.956 24.3774 0
429.686 26.3967 0
427.614 21.8464 0
397.07 12.9688 0
392.445 14.8689 0
260.716 9.22238 0
256.856 12.4002 0
479.871 20.2748 0
480.929 15.388 0
150.659 32.7174 0
150.562 37.7164 0
300.207 53.8379 0
295.222 53.4432 0
251.771 9.42385 0
247.211 11.4741 0
160.055 52.8948 0
164.926 54.0281 0
333.13 36.7358 0
332.422 31.7861 0
328.785 30.6133 0
326.738 26.0516 0
33.6567 59.5229 0
34.1365 54.5461 0
365.772 32.9518 0
364.574 28.0974 0
299.513 9.21882 0
304.277 10.7382 0
353.281 4.7511 0
349.396 7.89951 0
413.665 22.0141 0
410.424 25.8214 0
328.085 38.7989 0
326.752 33.9799 0
122.714 52.6231 0
117.718 52.423 0
132.082 43.4375 0
131.858 38.4426 0
39.2126 13.1351 0
35.6417 9.63565 0
349.665 44.2496 0
345.626 47.1959 0
397.879 14.1517 0
396.786 9.27263 0
419.211 33.9551 0
420.655 38.742 0
452.429 48.3565 0
448.558 51.5212 0
425.477 25.3947 0
421.196 22.8103 0
147.391 29.8028 0
150.418 33.7824 0
179.529 32.2577 0
175.558 29.2205 0
164.108 55.8809 0
160.55 59.3936 0
364.535 13.3648 0
366.928 17.7548 0
122.32 18.3441 0
117.688 16.4607 0
435.979 52.8293 0
435.332 47.8713 0
379.539 22.36 0
381.74 17.8702 0
71.9869 20.8103 0
68.9694 24.7971 0
245.494 52.8793 0
243.371 57.4061 0
21.543 19.3345 0
16.6568 18.2755 0
246.483 15.1908 0
246.96 10.2135 0
390.325 5.52546 0
392.374 10.0862 0
145.268 30.1649 0
145.527 35.1582 0
127.434 23.1406 0
123.108 25.6478 0
491.111 10.9271 0
487.809 7.17329 0
167.796 21.7596 0
164.208 25.2419 0
249.715 50.205 0
253.968 52.8333 0
362.059 21.8042 0
357.452 19.8613 0
204.578 54.4094 0
202.201 58.8081 0
394.812 45.1928 0
393.2 40.4597 0
94.2686 42.2896 0
98.7728 40.1182 0
345.074 11.0485 0
341.397 14.4371 0
373.688 28.1385 0
368.775 29.0687 0
81.8237 30.0343 0
86.8208 30.2043 0
372.398 28.3723 0
367.529 29.5134 0
359.776 1.87786 0
359.775 6.87792 0
454.193 37.9982 0
453.052 33.1302 0
331.774 43.073 0
326.784 43.3992 0
435.059 44.2976 0
439.527 42.0516 0
426.96 54.4419 0
423.113 57.635 0
448.842 18.7122 0
444.746 21.5803 0
140.86 4.51821 0
139.398 9.29973 0
444.408 28.686 0
439.526 27.6043 0
80.8752 41.4445 0
85.7744 42.4448 0
62.8999 42.4875 0
64.915 47.0634 0
180.379 13.4426 0
179.913 18.421 0
391.701 46.9292 0
395.768 49.837 0
309.416 21.6492 0
312.518 25.5704 0
156.409 35.1317 0
161.395 34.7563 0
263.871 13.6181 0
265.407 8.8598 0
271.592 21.1141 0
266.821 22.6108 0
119.726 13.27 0
122.252 8.95513 0
442.509 13.088 0
445.662 9.20714 0
75.9218 13.3733 0
70.9312 13.074 0
331.22 3.26052 0
336.204 2.86465 0
252.464 38.6809 0
254.143 43.3903 0
207.828 59.4951 0
204.629 55.6522 0
145.921 24.5243 0
144.052 29.1619 0
478.284 52.07 0
473.815 54.3113 0
470.635 33.4259 0
474.994 30.9775 0
167.223 54.433 0
169.147 59.0477 0
284.858 10.5217 0
289.634 11.9998 0
347.845 27.7778 0
344.42 24.1359 0
491.432 47.4879 0
488.616 43.3565 0
294.04 54.5711 0
289.564 56.8009 0
43.145 9.84431 0
45.1452 5.26176 0
145.63 13.275 0
150.452 11.9534 0
272.146 16.49 0
273.042 21.409 0
360.671 26.4402 0
355.787 25.3713 0
305.484 42.0189 0
308.833 38.3058 0
459.151 34.3179 0
454.151 34.3866 0
401.489 13.2708 0
405.81 15.7854 0
315.429 7.91323 0
319.978 9.98797 0
344.46 22.3113 0
349.257 23.7216 0
305.548 52.3551 0
301.032 50.2083 0
53.4334 2.62494 0
58.1768 4.20415 0
235.359 56.8067 0
230.705 54.9772 0
258.697 10.4971 0
261.173 6.15312 0
419.456 56.2041 0
423.336 53.0495 0
15.8869 11.2799 0
13.4915 15.6687 0
114.96 15.4203 0
111.368 11.9427 0
167.592 13.6404 0
172.202 15.576 0
83.4645 34.6632 0
88.4088 33.9188 0
285.901 14.4463 0
282.905 18.4491 0
335.056 29.4529 0
339.107 26.5224 0
345.494 2.972 0
349.999 5.13901 0
302.712 11.6573 0
307.654 12.4148 0
73.7409 11.8485 0
73.7317 16.8486 0
156.421 14.6852 0
152.635 17.9509 0
307.795 6.14646 0
306.116 1.43686 0
389.44 9.88744 0
384.522 8.9882 0
244 7.99561 0
241.477 12.3125 0
346.124 21.3031 0
342.296 24.5202 0
459.629 28.1634 0
459.709 33.1628 0
346.558 13.5442 0
351.186 11.653 0
444.586 57.8132 0
443.132 53.0295 0
312.85 56.1716 0
312.702 51.1739 0
466.794 54.4261 0
466.565 49.4313 0
422.735 33.6442 0
420.257 37.9871 0
306.08 53.274 0
309.125 57.2401 0
185.471 10.427 0
188.331 6.326 0
382.035 21.5778 0
386.346 19.0444 0
156.14 39.3455 0
161.01 40.4808 0
270.045 10.4027 0
265.105 9.62999 0
177.031 59.3749 0
182.005 58.8596 0
211.982 16.4025 0
207.657 13.8941 0
187.314 39.5926 0
185.195 44.1213 0
329.926 23.3554 0
328.062 18.716 0
41.0428 58.0992 0
39.3114 53.4086 0
177.869 0.895023 0
172.893 0.412792 0
254.687 26.1221 0
258.96 28.7184 0
348.693 15.513 0
345.006 12.1351 0
369.121 27.2136 0
371.863 31.3945 0
150.061 40.5759 0
151.083 35.6816 0
362.628 51.4129 0
364.734 55.9479 0
101.651 54.4894 0
101.102 59.459 0
126.469 30.5127 0
125.593 25.5899 0
227.071 9.15763 0
226.696 4.17157 0
127.262 29.8965 0
127.246 34.8965 0
443.56 44.0323 0
447.053 47.6097 0
311.723 44.4334 0
306.962 42.9052 0
149.522 48.4462 0
145.154 50.8815 0
364.206 17.3905 0
361.456 21.566 0
107.104 14.6882 0
102.106 14.5793 0
495.681 9.32618 0
496.697 4.43047 0
31.4878 11.5732 0
26.5935 10.5531 0
105.648 9.24952 0
105.934 14.2414 0
75.2834 4.52261 0
74.0219 9.361 0
164.244 20.8895 0
168.773 23.0075 0
475.013 37.9881 0
479.899 36.9293 0
460.626 57.4452 0
465.5 58.5647 0
225.411 53.808 0
230.051 51.9448 0
339.828 21.8326 0
336.151 18.4444 0
494.549 28.1216 0
499.511 27.5067 0
238.136 58.0648 0
239.465 53.2448 0
212.56 36.0707 0
215.737 32.2096 0
376.631 34.5179 0
372.265 32.0814 0
440.03 48.7553 0
444.948 47.8526 0
7.99361 49.5225 0
7.19222 54.4577 0
176.468 19.3151 0
176.551 24.3144 0
78.1491 7.02311 0
78.8782 11.9698 0
97.3645 19.6954 0
98.5878 14.8473 0
90.5389 44.1273 0
85.7419 45.5389 0
147.503 32.1463 0
150.117 36.4084 0
371.212 5.09934 0
376.195 5.51445 0
376.602 8.77596 0
377.8 3.92142 0
190.102 16.8449 0
185.173 17.6854 0
396.55 8.07318 0
398.734 3.5754 0
217.475 14.2184 0
219.305 18.8718 0
54.6969 43.8152 0
57.8362 39.9234 0
157.178 33.2582 0
152.443 34.8644 0
139.924 53.4479 0
135.813 50.6002 0
271.486 30.0853 0
274.406 26.0261 0
388.849 22.5572 0
389.602 17.6142 0
121.413 12.1203 0
126.059 13.9682 0
296.383 44.0184 0
293.511 48.111 0
215.286 48.2293 0
210.304 47.7935 0
496.638 1.36044 0
491.791 0.130483 0
72.8461 20.332 0
77.4922 22.179 0
442.261 37.6896 0
446.498 35.0359 0
112.662 19.6601 0
117.352 17.9269 0
437.145 26.0832 0
433.947 29.9265 0
406.39 1.67882 0
401.391 1.80303 0
355.178 50.0764 0
358.438 46.2847 0
372.059 57.2849 0
376.263 54.5767 0
332.031 42.0289 0
336.714 40.2761 0
96.6259 44.1389 0
91.7631 42.9746 0
165.792 56.743 0
170.743 56.0384 0
375.775 30.6483 0
371.112 32.4531 0
231.649 34.6246 0
236.602 35.3091 0
391.005 35.8221 0
388.557 40.1816 0
316.244 1.99149 0
313.911 6.41395 0
374.723 48.4471 0
375.749 43.5535 0
470.123 4.34327 0
474.856 2.73228 0
75.1175 31.6005 0
70.405 33.2717 0
368.77 34.9799 0
363.954 33.6361 0
79.0186 31.5711 0
83.3869 29.1382 0
367.196 9.36281 0
365.548 4.64203 0
406.05 5.42832 0
409.581 1.88786 0
279.518 33.6589 0
281.134 28.9272 0
442.209 31.4076 0
437.234 31.9001 0
456.158 14.5144 0
459.056 18.589 0
251.102 3.99632 0
247.511 0.51745 0
131.675 29.6544 0
136.456 31.1183 0
156.977 3.28688 0
161.124 6.07936 0
225.971 8.04203 0
226.203 3.0473 0
259.806 36.318 0
262.691 32.2342 0
474.473 37.2668 0
476.792 32.8371 0
316.182 50.6071 0
319.783 47.1382 0
497.302 52.619 0
492.589 50.9495 0
49.7384 54.403 0
52.988 58.2032 0
21.8165 57.1306 0
21.3175 52.1558 0
169.386 16.2833 0
172.248 12.1836 0
313.47 7.3979 0
318.339 6.26229 0
421.965 37.1058 0
425.52 33.5892 0
11.6194 27.6845 0
12.6462 32.5779 0
37.172 48.2176 0
39.7213 43.9163 0
187.268 43.6325 0
184.135 47.5299 0
217.007 44.9377 0
217.721 39.989 0
91.7566 51.6098 0
91.5013 56.6031 0
304.295 9.38154 0
305.56 14.219 0
446.188 35.0301 0
442.605 31.5428 0
166.027 17.1855 0
162.246 20.4568 0
388.605 34.705 0
388.646 29.7051 0
144.359 20.133 0
139.481 19.0363 0
492.282 21.1641 0
494.584 16.7255 0
356.001 49.7486 0
352.634 53.4454 0
274.785 13.1479 0
269.792 12.8747 0
494.652 0.634138 0
499.652 0.560116 0
428.565 19.6677 0
431.525 23.6973 0
117.935 38.8599 0
122.629 37.138 0
286.557 6.73191 0
282.773 9.99965 0
185.583 9.24306 0
189.635 12.1715 0
374.287 9.01329 0
376.762 13.3577 0
483.931 52.4213 0
479.775 55.2008 0
380.918 10.2285 0
378.871 14.7902 0
305.429 50.6898 0
304.878 45.7203 0
145.078 33.0156 0
145.793 28.0669 0
245.423 19.4591 0
244.636 24.3968 0
190.647 52.3895 0
195.118 54.6288 0
287.287 18.8357 0
292.12 17.5531 0
65.926 45.211 0
63.6735 49.6749 0
37.7776 51.7609 0
41.6444 48.5905 0
285.954 44.2741 0
290.94 44.6498 0
360.355 59.5191 0
361.168 54.5856 0
452.232 23.4174 0
452.41 28.4142 0
201.682 53.6958 0
204.122 49.3318 0
438.481 24.2035 0
437.764 29.1518 0
441.815 8.59969 0
440.561 3.75944 0
315.381 40.6172 0
310.383 40.4765 0
187.485 39.2497 0
190.649 43.1208 0
359.816 19.4335 0
356.265 22.9534 0
433.724 29.7051 0
429.412 27.1733 0
218.122 20.8329 0
213.326 22.2454 0
68.0072 22.7111 0
70.2612 18.2479 0
222.213 27.1759 0
218.143 24.2715 0
379.179 56.6605 0
383.583 59.0275 0
447.952 22.1308 0
448.299 27.1188 0
410.917 20.9561 0
406.027 19.9127 0
216.758 14.9331 0
221.507 13.3699 0
312.551 34.0329 0
311.269 29.2001 0
288.393 45.5838 0
290.084 40.8785 0
359.539 34.7529 0
362.102 30.4597 0
409.906 19.9938 0
409.105 24.9293 0
345.254 37.3636 0
341.453 34.1145 0
409.878 46.5304 0
409.228 51.4881 0
58.5756 15.0581 0
61.5275 19.0936 0
240.201 43.1125 0
237.763 38.7469 0
71.7538 32.4494 0
75.223 36.05 0
260.322 47.1052 0
261.737 51.9007 0
331.518 59.2519 0
330.741 54.3128 0
201.565 53.2948 0
196.733 54.581 0
410.645 1.15388 0
410.649 6.15391 0
74.4238 31.4531 0
72.9522 36.2317 0
342.731 43.8735 0
345.67 47.9183 0
61.4962 13.2438 0
57.5554 16.321 0
343.652 42.7273 0
345.054 47.5268 0
163.99 44.9208 0
163.673 49.9106 0
325.423 5.74788 0
324.852 10.7153 0
421.768 13.8277 0
421.901 18.8259 0
250.951 36.4968 0
246.709 39.1425 0
60.6337 51.7338 0
64.5306 54.8671 0
441.736 9.12185 0
437.121 7.19851 0
48.9197 52.0517 0
43.9437 51.5572 0
66.5313 24.9555 0
71.4514 24.0656 0
443.731 30.2116 0
446.898 26.3427 0
428.604 22.5998 0
430.406 17.9357 0
475.671 35.4309 0
478.696 39.4114 0
174.897 4.50354 0
179.86 3.89962 0
232.802 16.1321 0
233.946 11.2647 0
75.1772 6.90485 0
71.9289 3.10389 0
407.87 39.3774 0
408.42 44.347 0
430.907 50.5587 0
429.672 55.404 0
452.457 56.3839 0
457.424 55.811 0
100.809 50.0479 0
101.053 55.0418 0
446.17 23.147 0
449.583 19.4931 0
50.723 33.194 0
55.7231 33.1989 0
260.672 35.1412 0
263.864 31.2928 0
252.194 50.4012 0
250.044 54.9154 0
407.592 6.9323 0
409.758 2.4259 0
133.744 33.1673 0
138.209 30.9156 0
53.7726 41.8685 0
49.0426 43.4904 0
219.402 31.7524 0
217.28 36.2801 0
209.4 19.8444 0
213.632 17.1829 0
436.508 57.6747 0
434.577 53.0623 0
34.9874 33.8385 0
35.3569 28.8522 0
439.598 5.44353 0
444.567 5.99691 0
89.9059 25.1921 0
85.9519 22.1319 0
469.159 35.3006 0
473.926 33.7931 0
321.388 11.9308 0
326.176 13.3708 0
452.1 56.8498 0
456.662 54.803 0
220.967 53.3144 0
219.692 48.4798 0
24.9389 2.18719 0
24.863 7.18682 0
32.5414 51.6979 0
28.2744 49.091 0
454.902 22.4584 0
459.837 23.2619 0
307.241 47.1389 0
304.069 43.2735 0
138.437 26.1192 0
138.346 21.12 0
129.804 30.3743 0
134.023 27.6922 0
322.273 28.6533 0
319.124 24.7701 0
125.005 30.8264 0
123.334 26.1141 0
3.99981 42.4692 0
1.18932 38.3338 0
114.518 7.29306 0
112.505 11.87 0
236.878 5.03421 0
231.885 4.77359 0
112.215 43.9807 0
111.746 39.0028 0
484.887 56.9834 0
487.666 52.8269 0
217.647 42.7743 0
212.905 41.1883 0
135.803 29.2276 0
130.822 29.6676 0
389.306 31.592 0
387.896 26.7951 0
481.936 2.49671 0
477.395 4.59071 0
407.699 5.14922 0
412.659 4.51764 0
186.92 17.6113 0
191.915 17.823 0
438.793 12.1414 0
443.765 12.6712 0
449.685 38.0229 0
446.099 41.5071 0
44.1842 20.4518 0
46.9152 24.64 0
395.334 15.5959 0
393.655 20.3053 0
19.3339 13.0736 0
17.6549 8.36389 0
55.2744 51.8412 0
57.044 47.1649 0
344.805 37.5995 0
345.467 32.6436 0
252.755 56.9385 0
257.466 55.262 0
269.001 29.245 0
267.203 33.9106 0
232.732 19.1776 0
233.582 14.2504 0
277.855 22.7294 0
281.735 19.5752 0
379.387 30.2461 0
375.586 26.9972 0
16.2262 27.8514 0
11.4023 26.5364 0
185.649 37.4244 0
189.866 34.7365 0
335.671 55.9918 0
339.298 59.4337 0
173.117 26.8194 0
171.167 22.2155 0
169.106 26.4479 0
173.991 27.5128 0
51.228 46.3291 0
56.2019 46.8433 0
122.237 33.4677 0
117.237 33.4591 0
254.08 2.16956 0
249.619 4.42679 0
190.644 7.97557 0
191.096 12.9552 0
95.3948 55.1565 0
100.111 56.8184 0
334.904 39.8161 0
338.376 36.2187 0
252.312 22.8329 0
247.836 25.0618 0
441.475 33.5461 0
439.242 38.0197 0
369.279 42.0658 0
365.938 38.3465 0
286.368 42.7422 0
287.721 37.9289 0
161.488 16.5093 0
156.627 17.6766 0
33.0752 38.5102 0
32.2993 33.5708 0
394.216 38.9708 0
392.549 43.6846 0
191.553 49.9227 0
196.282 51.5483 0
431.697 17.4787 0
428.488 21.3137 0
411.743 21.8157 0
406.876 20.6716 0
444.166 25.9244 0
449.008 27.1692 0
331.185 53.6369 0
327.035 56.4261 0
267.933 30.9682 0
267.029 26.0507 0
461.266 35.0495 0
460.018 39.8912 0
498.511 10.4931 0
494.961 6.97265 0
167.986 34.2261 0
172.768 32.7653 0
288.72 11.5615 0
291.15 15.9314 0
159.741 33.5793 0
157.249 37.9143 0
19.8398 29.3698 0
20.1262 34.3615 0
109.212 57.5087 0
105.092 54.675 0
71.8535 21.6264 0
76.523 19.8393 0
469.382 28.7806 0
470.416 33.6725 0
160.217 45.2599 0
156.894 41.5238 0
223.264 31.5163 0
218.264 31.4961 0
213.603 5.413 0
208.615 5.75178 0
204.523 45.4464 0
206.21 40.7393 0
71.8786 2.64613 0
70.3502 7.40691 0
225.735 39.7238 0
229.037 43.4781 0
446.518 32.0765 0
442.374 29.2784 0
348.394 58.6264 0
347.401 53.7259 0
283.856 52.5896 0
283.756 57.5885 0
499.731 24.093 0
497.505 28.5702 0
43.9162 45.9529 0
43.5717 50.9409 0
455.481 25.6053 0
453.978 30.3742 0
104.877 42.185 0
101.687 46.0355 0
315.724 17.6487 0
315.027 22.5999 0
45.1629 1.77895 0
42.7976 6.18409 0
84.163 12.5701 0
83.2007 17.4768 0
28.7312 54.9879 0
23.7351 54.7747 0
334.389 37.4312 0
332.941 42.2168 0
83.7274 44.1887 0
84.2374 49.1625 0
71.7053 25.5012 0
70.9204 30.4393 0
223.451 21.9689 0
228.106 20.144 0
84.1925 15.7358 0
87.0958 11.6651 0
257.187 55.0352 0
256.255 50.1229 0
209.417 18.0961 0
204.515 17.1123 0
281.906 17.6485 0
277.01 18.6637 0
126.863 55.9289 0
127.012 50.9313 0
479.988 5.52786 0
484.453 7.77813 0
367.956 37.569 0
362.98 38.0603 0
89.9657 5.71466 0
92.3656 1.32826 0
278.102 45.8684 0
279.254 50.7338 0
60.1733 47.8867 0
62.2841 52.4193 0
133.299 59.2427 0
129.365 56.156 0
63.6404 34.039 0
65.8425 38.528 0
68.022 7.03288 0
72.329 9.57183 0
477.929 17.6619 0
477.459 12.6841 0
410.981 19.729 0
415.733 18.1726 0
78.3132 6.91157 0
81.7441 10.5485 0
449.798 12.5486 0
444.835 11.9402 0
330.456 0.922288 0
325.948 3.08522 0
152.724 49.5149 0
157.309 47.52 0
395.593 51.4176 0
399.296 54.7776 0
163.949 39.7361 0
159.843 42.5893 0
78.497 7.9016 0
73.5403 7.2487 0
315.563 22.5231 0
312.641 18.4659 0
451.125 15.22 0
448.364 11.0514 0
199.632 8.66759 0
204.623 8.36186 0
131.784 0.736238 0
136.407 2.63878 0
485.123 27.1945 0
487.637 22.8721 0
494.975 35.4491 0
490.377 33.4833 0
128.391 6.00481 0
133.374 6.41493 0
142.279 32.6932 0
146.297 35.6697 0
187.37 54.4594 0
184.279 58.3895 0
361.786 24.4973 0
364.736 20.46 0
287.151 40.0275 0
292.13 40.476 0
418.173 35.9096 0
417.378 40.846 0
271.443 9.0444 0
275.686 6.40011 0
469.488 5.98978 0
471.565 1.44137 0
173.722 14.3167 0
171.339 9.9211 0
63.9203 33.0882 0
58.9363 33.4894 0
261.547 23.5274 0
263.863 27.9589 0
86.6423 37.7381 0
87.9273 32.906 0
476.212 22.8891 0
471.322 23.93 0
311.312 6.90329 0
311.555 11.8974 0
182.436 7.16507 0
185.606 11.0313 0
443.908 34.7811 0
441.024 30.6971 0
77.0078 17.7734 0
72.2454 16.2513 0
332.709 4.49265 0
328.878 7.70548 0
449.435 35.7857 0
454.429 36.0483 0
360.808 39.1956 0
365.586 40.6716 0
475.276 34.9216 0
470.843 37.2341 0
121.981 11.9836 0
121.072 7.06687 0
265.088 37.4583 0
269.463 39.879 0
471.016 52.7126 0
468.933 57.2578 0
35.7587 9.79711 0
39.7495 12.8089 0
151.516 41.9636 0
156.514 42.1339 0
352.013 17.2563 0
349.005 21.2504 0
464.466 47.3815 0
464.038 42.3998 0
352.435 25.1911 0
347.696 23.5977 0
470.065 52.5509 0
465.129 51.7514 0
261.74 25.2076 0
259.433 20.7719 0
401.749 44.6039 0
398.875 48.6951 0
370.331 22.7312 0
370.485 27.7288 0
252.573 19.9077 0
247.575 19.7944 0
203.184 19.1358 0
207.549 16.6978 0
171.193 41.3947 0
175.8 39.4516 0
340.903 54.8893 0
337.886 58.8769 0
181.188 33.2431 0
183.643 28.8868 0
153.277 59.6361 0
150.078 55.7931 0
392.92 48.98 0
388.039 47.8965 0
282.818 6.04397 0
278.224 8.0164 0
358.188 7.43303 0
357.982 2.43722 0
182.72 5.28556 0
185.239 0.966735 0
355.129 34.6498 0
358.655 38.1948 0
447.716 40.3706 0
449.225 45.1373 0
147.338 55.4025 0
144.872 59.7521 0
272.124 44.6151 0
276.855 46.2336 0
20.424 37.2388 0
17.7374 33.0219 0
412.144 15.9064 0
409.431 20.1069 0
475.705 5.89061 0
479.38 2.49982 0
151.289 42.0701 0
156.053 43.59 0
63.7891 5.71212 0
66.6141 1.58676 0
356.461 45.2237 0
354.754 40.5244 0
360.685 15.2884 0
356.809 12.1295 0
44.7015 42.2397 0
43.0114 37.534 0
92.3146 45.0331 0
97.2433 45.8766 0
235.564 36.2686 0
232.562 32.2702 0
444.492 31.6148 0
449.307 32.9605 0
67.3525 8.38949 0
71.8425 10.5887 0
301.9 43.7172 0
306.889 43.3867 0
389.461 34.4732 0
386.552 30.4066 0
309.349 5.19473 0
304.865 2.98251 0
198.392 46.1353 0
200.332 50.7435 0
324.09 35.9342 0
321.528 31.6409 0
22.8304 4.51776 0
17.965 5.66719 0
320.705 7.89057 0
316.477 10.5601 0
111.721 50.6975 0
116.635 49.7711 0
453.028 20.9739 0
455.683 25.211 0
281.484 5.98896 0
277.05 8.29824 0
328.543 12.931 0
323.727 14.2723 0
342.76 52.4995 0
343.394 57.4591 0
382.178 16.9631 0
381.691 21.9394 0
265.58 4.56465 0
269.274 1.19602 0
372.456 57.9378 0
371.361 53.0591 0
20.0641 41.4493 0
20.8944 46.3798 0
14.4665 8.2704 0
10.0052 10.5271 0
53.495 11.374 0
50.6998 15.5197 0
18.6983 44.2495 0
14.1928 46.4183 0
384.477 43.0906 0
380.28 45.8085 0
381.857 44.6749 0
377.671 47.4098 0
86.9644 21.2144 0
88.2388 16.3795 0
95.469 56.7032 0
90.627 57.9529 0
460.944 5.41625 0
456.663 2.83357 0
314.049 21.1522 0
311.014 17.1788 0
162.488 40.9269 0
158.004 38.713 0
452.443 4.5402 0
455.573 0.641086 0
193.573 49.415 0
198.557 49.0125 0
423.623 9.48334 0
424.866 14.3264 0
254.047 50.6027 0
258.801 52.1538 0
57.7486 16.1999 0
56.5948 21.0651 0
56.2535 34.299 0
60.8973 36.1527 0
483.156 18.8112 0
484.655 23.5809 0
326.719 15.3941 0
322.362 12.9418 0
30.2184 28.2801 0
26.124 25.4104 0
291.034 57.6552 0
286.506 55.5321 0
312.55 40.897 0
313.343 35.9602 0
324.974 40.356 0
327.739 44.5223 0
413.781 46.9475 0
408.781 46.8907 0
179.393 26.5337 0
174.814 24.5249 0
37.0274 42.5089 0
41.2422 39.8186 0
385.547 13.7358 0
386.296 18.6794 0
5.36641 13.3356 0
4.06973 8.50663 0
56.1361 40.7497 0
55.7249 45.7327 0
259.329 50.9846 0
260.115 55.9224 0
142.179 22.7547 0
147.143 23.358 0
306.118 4.83514 0
301.512 2.89042 0
279.839 57.3682 0
284.384 59.4535 0
258.637 51.4301 0
254.058 53.4406 0
484.223 43.7663 0
487.334 39.852 0
43.1155 55.5426 0
48.1162 55.5322 0
59.0856 11.4525 0
59.6461 16.4211 0
131.233 55.2788 0
135.029 58.5335 0
379.179 25.2529 0
384.011 23.9649 0
10.6586 32.0126 0
12.0713 36.8088 0
492.165 17.7205 0
488.162 14.7247 0
154.373 2.045 0
156.78 6.42774 0
23.0573 43.6721 0
21.2862 38.9964 0
395.73 46.5637 0
395.633 41.5646 0
385.535 13.9133 0
390.054 16.0524 0
230.428 30.4543 0
227.345 26.5172 0
402.515 42.5849 0
397.711 43.9719 0
83.1077 7.005 0
87.9477 5.75236 0
375.172 51.6013 0
380.058 50.5397 0
432.99 18.017 0
437.964 18.5177 0
426.165 22.3489 0
431.086 21.4664 0
471.236 56.3986 0
476.185 55.6865 0
309.62 46.0223 0
304.621 46.1102 0
48.6162 10.8772 0
51.2933 6.65432 0
227.538 10.0733 0
222.617 10.9559 0
496.251 14.8048 0
496.335 9.80545 0
37.1468 47.9151 0
35.835 52.7399 0
462.509 53.0253 0
465.816 49.2757 0
72.2863 36.2717 0
69.208 32.3316 0
197.718 56.7605 0
198.457 51.8154 0
130.624 47.1984 0
134.525 44.0697 0
453.027 40.7052 0
449.827 44.5473 0
239.911 32.874 0
241.297 28.0698 0
83.5931 4.35996 0
85.5051 8.98004 0
414.022 47.2764 0
417.096 43.3327 0
450.663 48.1534 0
449.542 53.0261 0
189.654 6.41245 0
193.798 9.20987 0
69.4383 13.9183 0
74.4115 13.4053 0
290.083 45.2749 0
286.517 48.7799 0
65.6695 18.3661 0
70.5047 17.094 0
155.938 25.5901 0
159.659 28.9292 0
20.9187 18.0541 0
25.7849 16.9065 0
298.122 41.6131 0
293.246 40.508 0
244.475 38.8896 0
243.251 34.0418 0
335.701 2.77421 0
339.747 5.71185 0
282.183 51.367 0
277.628 53.4303 0
250.234 29.1055 0
253.802 25.6026 0
58.0264 10.3979 0
62.3861 12.8454 0
344.847 3.77301 0
349.541 5.49524 0
100.201 15.8907 0
103.406 19.7283 0
170.409 22.854 0
168.867 27.6106 0
466.693 41.5584 0
468.005 46.3832 0
201.444 3.86177 0
196.933 1.7053 0
26.4605 30.4227 0
24.2684 25.9289 0
418.198 52.3452 0
420.453 56.8075 0
122.06 39.116 0
125.733 42.5092 0
282.448 4.78294 0
277.763 3.03794 0
18.87 37.3841 0
14.5456 39.8942 0
383.8 17.5682 0
384.729 12.6553 0
265.352 35.6439 0
263.761 40.3839 0
415.818 46.9806 0
418.136 51.4105 0
245.344 3.94473 0
249.225 0.792794 0
309.311 44.0464 0
311.135 39.3911 0
6.39502 38.8376 0
8.50183 34.3031 0
339.085 33.6824 0
335.12 36.729 0
296.769 56.1025 0
300.581 59.3385 0
322.089 48.476 0
320.967 53.3483 0
380.181 54.2279 0
375.847 51.7349 0
459.849 47.5036 0
457.541 43.0685 0
75.7529 21.4228 0
80.6634 22.3639 0
201.073 14.4214 0
197.549 17.9685 0
369.668 10.2415 0
373.557 7.09916 0
404.196 41.3224 0
402.257 45.9315 0
459.113 22.844 0
456.088 18.8626 0
41.8615 55.4707 0
46.1836 52.9559 0
306.524 4.38161 0
309.47 0.342011 0
248.668 34.2938 0
248.896 39.2886 0
457.429 12.2595 0
460.659 16.0759 0
394.314 50.6747 0
391.005 46.9261 0
343.151 39.8183 0
340.91 44.288 0
288.698 52.1731 0
293.528 50.8799 0
299.635 19.4014 0
304.408 17.9113 0
82.4272 5.17747 0
81.6272 0.241691 0
171.19 32.123 0
174.996 28.8806 0
385.714 23.4123 0
390.714 23.4175 0
322.94 36.3239 0
323.369 41.3055 0
266.043 53.2649 0
262.414 49.825 0
397.837 51.7752 0
392.851 52.1542 0
138.254 21.1807 0
136.784 25.9597 0
383.979 42.122 0
388.797 40.7855 0
453.986 35.1865 0
452.961 30.2928 0
325.391 23.4314 0
322.545 19.3206 0
377.433 34.621 0
379.494 39.1765 0
237.078 6.78416 0
232.529 8.85896 0
42.9399 11.5453 0
45.8393 15.6187 0
110.969 51.4402 0
106.481 49.2368 0
180.564 20.6441 0
184.812 18.0075 0
294.252 49.1509 0
290.392 45.9731 0
109.329 47.918 0
114.102 49.4089 0
71.3013 7.69563 0
68.3115 3.68808 0
297.685 0.286401 0
292.691 0.0435002 0
425.748 49.7234 0
422.345 46.0599 0
88.2902 57.575 0
83.3719 58.479 0
401.917 47.7833 0
399.74 43.2823 0
170.296 8.15637 0
169.623 13.1109 0
483.201 50.9337 0
487.547 53.4073 0
137.905 3.10348 0
142.886 2.67621 0
423.014 6.10027 0
423.895 1.17843 0
342.871 53.992 0
340.351 58.3105 0
36.9231 55.5677 0
32.0996 56.8873 0
47.4759 36.73 0
45.3948 41.2763 0
494.981 2.90314 0
490.064 3.80945 0
212.012 52.7443 0
214.363 57.1569 0
99.7015 42.2028 0
104.058 44.6573 0
55.5969 51.0723 0
54.0641 46.3131 0
217.74 24.8341 0
220.886 28.7198 0
316.64 2.69505 0
320.924 5.27252 0
450.514 2.91187 0
447.969 7.21608 0
58.6804 57.8126 0
63.6808 57.8734 0
146.853 33.6546 0
150.957 36.5107 0
218.383 25.7218 0
215.856 30.0364 0
148.529 43.4935 0
151.127 39.2218 0
122.41 35.8684 0
119.101 39.6171 0
144.017 9.01229 0
144.065 14.0122 0
312.327 19.3712 0
312.999 24.3258 0
177.78 58.2618 0
181.566 54.9949 0
348.943 4.57169 0
351.057 0.0402693 0
300.158 11.6197 0
305.093 12.4241 0
372.769 48.2161 0
377.713 47.4681 0
360.432 32.0692 0
365.324 33.1034 0
234.397 45.9745 0
229.907 43.7743 0
149.726 54.0186 0
149.479 59.0123 0
216.917 34.9187 0
211.923 34.6766 0
419.183 3.86655 0
417.507 8.57709 0
201.914 51.0035 0
205.258 54.7202 0
49.9649 41.393 0
53.456 37.8135 0
259.784 8.25504 0
257.26 12.5712 0
53.5158 38.013 0
49.8658 34.5956 0
249.693 19.2227 0
250.967 14.3875 0
265.468 27.6267 0
270.153 29.374 0
438.23 54.4761 0
441.669 58.1054 0
106.834 41.3462 0
106.109 46.2934 0
285.312 33.6648 0
283.146 29.1585 0
497.365 7.17988 0
496.78 2.21424 0
399.242 50.3251 0
402.547 54.0773 0
280.378 18.3075 0
284.996 20.2245 0
313.297 19.4869 0
312.008 14.6558 0
65.1476 13.934 0
61.6405 17.4977 0
416.853 19.8139 0
413.072 23.0855 0
144.519 49.2514 0
148.193 52.6433 0
85.2429 43.7938 0
83.0491 48.2868 0
287.591 46.6259 0
283.544 43.6896 0
165.689 59.2991 0
170.463 57.8116 0
177.228 59.708 0
181.485 57.0851 0
134.533 45.8091 0
130.328 43.1041 0
391.301 47.8251 0
389.577 52.5186 0
1.54176 38.9971 0
6.20751 40.7952 0
431.921 50.9322 0
432.388 55.9104 0
138.407 27.4979 0
139.379 32.4025 0
113.092 54.9583 0
116.994 58.0851 0
39.76 16.8622 0
44.5201 15.3332 0
46.4741 9.38456 0
41.5199 10.0555 0
33.2733 32.4796 0
28.7084 30.4396 0
421.086 34.3251 0
418.338 30.1486 0
189.492 53.3607 0
187.252 57.8306 0
3.83169 42.0977 0
8.68747 43.2913 0
355.409 8.33916 0
359.882 10.5734 0
323.389 28.7824 0
327.595 26.0788 0
413.592 1.93887 0
414.801 6.79061 0
369.045 53.7595 0
370.33 58.5916 0
401.536 58.1893 0
406.483 57.4602 0
281.78 56.3465 0
286.613 55.0629 0
93.9792 55.5703 0
91.1062 59.6626 0
460.355 57.8846 0
465.299 57.138 0
462.376 21.3124 0
467.37 21.5382 0
383.511 37.4605 0
379.116 35.0765 0
406.311 11.7012 0
405.831 16.6782 0
410.262 31.5999 0
408.924 36.4177 0
377.993 39.9008 0
373.316 41.6685 0
321.288 38.1098 0
324.178 42.1896 0
346.566 47.1365 0
350.875 44.6005 0
324.649 8.79971 0
326.71 13.3552 0
380.832 20.1197 0
382.436 15.3838 0
42.7228 56.054 0
47.7221 56.1709 0
73.6389 45.2018 0
74.3325 50.1533 0
334.72 13.8101 0
339.191 11.571 0
365.51 24.846 0
360.645 23.693 0
77.0225 29.7419 0
72.4033 27.8281 0
372.104 39.4649 0
372.601 44.4402 0
200.035 16.5593 0
195.037 16.6658 0
101.339 49.7281 0
106.29 50.4308 0
423.745 22.4753 0
419.529 25.1635 0
327.263 8.87523 0
330.886 12.3216 0
191.307 6.0828 0
188.372 2.03531 0
435.145 39.8934 0
437.382 35.422 0
378.239 32.5938 0
375.425 28.4606 0
241.613 19.6969 0
242.892 14.8631 0
145.586 22.3941 0
150.402 21.0514 0
422.594 42.2787 0
418.985 45.7386 0
354.111 55.2823 0
350.335 52.0055 0
457.516 27.563 0
458.585 32.4474 0
450.281 19.7171 0
455.17 20.7663 0
235.538 14.0706 0
232.696 9.95716 0
217.138 49.2999 0
214.656 44.9598 0
484.266 23.8556 0
486.769 28.1838 0
304.849 43.5824 0
308.812 46.631 0
360.336 50.0412 0
355.554 48.583 0
447.054 51.2888 0
452.009 51.9615 0
219.878 1.09468 0
215.254 2.99516 0
290.405 53.2353 0
294.836 55.5527 0
297.69 59.2801 0
300.182 54.945 0
411.89 51.1939 0
416.852 51.8106 0
353.534 38.8722 0
349.018 41.0187 0
453.218 46.0666 0
457.976 47.6027 0
343.887 7.92984 0
345.363 12.7071 0
334.03 31.1962 0
335.249 26.347 0
133.646 24.6231 0
135.887 20.1532 0
70.4618 46.2398 0
65.9282 44.1304 0
380.097 22.1229 0
385.03 22.9369 0
132.815 17.3838 0
130.112 13.177 0
385.806 29.3744 0
382.396 33.0307 0
57.1917 49.5502 0
62.1854 49.2899 0
269.956 24.1795 0
272.928 28.2005 0
337.774 30.7771 0
332.873 31.7668 0
265.912 40.4188 0
270.59 42.1845 0
281.562 52.6963 0
278.106 56.3095 0
442.077 40.3336 0
446.705 42.225 0
338.683 52.0152 0
343.6 52.9246 0
478.393 10.2061 0
476.195 14.697 0
356.026 39.2859 0
356.97 44.1959 0
117.718 37.8883 0
112.726 38.1785 0
473.868 37.5389 0
475.74 42.1754 0
244.848 13.3331 0
244.403 18.3133 0
260.54 19.6091 0
265.243 21.3054 0
52.4913 40.6515 0
52.9232 35.6702 0
108.113 48.5498 0
112.535 50.8843 0
446.483 34.5212 0
449.797 38.2655 0
104.312 10.8389 0
108.864 12.9075 0
145.933 38.7532 0
146.386 43.7327 0
135.13 23.5727 0
130.31 24.9007 0
283.147 33.9749 0
286.968 37.1991 0
255.732 47.8614 0
250.916 49.2087 0
360.536 47.1059 0
358.685 51.7509 0
17.2038 44.4676 0
12.865 41.9821 0
292.615 45.8706 0
293.92 50.6974 0
476.603 27.5957 0
478.915 32.029 0
263.131 40.5536 0
266.183 36.5931 0
357.613 3.33337 0
354.005 6.79452 0
265.56 17.0535 0
260.759 18.4474 0
377.901 57.8322 0
382.124 55.1551 0
389.881 46.1241 0
393.944 49.039 0
384.974 8.5248 0
386.632 3.8074 0
49.7655 4.0574 0
53.4048 0.629187 0
278.219 9.06331 0
275.508 4.86244 0
341.676 3.40809 0
338.901 7.56731 0
120.916 25.2245 0
116.407 23.0631 0
370.057 43.0255 0
370.792 47.9711 0
170.332 18.8493 0
168.028 14.4122 0
28.7646 43.9413 0
31.2389 39.5964 0
480.554 6.57884 0
484.935 4.1699 0
400.51 6.20498 0
395.525 6.5896 0
488.859 28.2195 0
483.944 29.1347 0
290.501 42.9884 0
292.208 38.2889 0
305.012 3.6059 0
300.312 5.3115 0
450.072 29.3166 0
447.946 24.7913 0
90.3018 3.28536 0
86.1272 6.0365 0
428.205 1.7461 0
433.152 2.47267 0
166.613 10.4351 0
168.121 15.2024 0
399.385 9.5531 0
402.911 13.0978 0
239.635 6.38899 0
238.87 11.3302 0
55.8535 18.1215 0
56.8443 23.0224 0
492.297 35.5374 0
492.597 40.5283 0
386.388 31.9446 0
387.849 27.1627 0
215.359 4.68127 0
210.809 2.6087 0
232.27 43.1516 0
236.249 40.1229 0
419.877 13.9551 0
415.354 11.824 0
429.628 56.8711 0
429.221 51.8877 0
34.0338 59.1017 0
29.5515 56.8846 0
282.061 53.0542 0
283.778 57.7501 0
192.097 9.39523 0
187.302 10.8094 0
310.075 3.56773 0
307.839 8.04013 0
228.391 42.1769 0
227.439 37.2684 0
428.898 46.322 0
431.957 50.277 0
290.302 14.6836 0
290.644 19.6719 0
435.889 4.66299 0
440.88 4.97505 0
84.8801 29.8686 0
81.6089 26.0872 0
435.172 11.2048 0
433.312 6.5639 0
467.276 12.4252 0
467.581 7.43445 0
15.4342 35.7312 0
14.2874 40.5979 0
386.296 17.135 0
390.476 19.8786 0
8.1488 19.0295 0
5.29292 14.9255 0
389.048 9.26837 0
384.749 11.8222 0
345.535 32.4945 0
350.479 31.7519 0
54.9927 58.1933 0
54.5211 53.2157 0
483.69 44.0599 0
482.94 49.0034 0
154.483 49.8033 0
149.765 51.461 0
141.389 29.7315 0
136.945 27.4401 0
444.83 57.5836 0
449.206 55.1643 0
222.547 43.4697 0
224.115 48.2176 0
74.0199 54.1375 0
74.9774 49.2301 0
54.1676 50.5538 0
53.4871 45.6004 0
337.875 24.7599 0
335.492 20.3642 0
203.629 44.5464 0
200.895 40.3601 0
13.9653 13.5556 0
18.8106 14.7881 0
12.5041 47.7045 0
7.72811 49.186 0
138.936 54.1806 0
138.712 49.1858 0
310.741 7.36246 0
306.874 4.19389 0
252.321 39.9913 0
257.184 41.1521 0
429.123 28.9318 0
425.124 25.9303 0
325.48 50.8953 0
329.189 54.249 0
157.243 18.6893 0
154.388 22.7934 0
156.048 48.8111 0
157.55 44.0423 0
19.1289 57.9037 0
14.2177 58.8459 0
373.316 53.9858 0
372.511 49.0511 0
205.593 9.36641 0
206.926 4.54734 0
48.6701 15.2598 0
53.6654 15.0518 0
471.846 32.1453 0
467.941 35.2674 0
363.158 28.5634 0
367.897 30.1581 0
148.98 38.1491 0
144.015 37.5559 0
31.8755 18.7704 0
34.4064 23.0825 0
399.883 5.67131 0
404.742 6.8494 0
374.903 34.0417 0
376.974 38.5923 0
194.69 44.4104 0
191.694 48.4135 0
220.068 9.80162 0
218.832 4.9566 0
390.474 32.9912 0
388.615 28.3495 0
447.83 8.36294 0
452.649 7.02979 0
439.717 12.2676 0
444.406 10.5326 0
407.177 19.1963 0
405.483 14.492 0
330.013 41.0455 0
326.116 37.9121 0
307.158 53.5191 0
311.939 52.0544 0
159.569 49.7832 0
154.573 49.9892 0
270.062 29.3218 0
275.06 29.4442 0
372.622 3.25264 0
371.638 8.15502 0
279.06 47.8918 0
283.531 45.6534 0
34.2863 55.874 0
29.9368 53.407 0
245.525 39.8896 0
250.487 40.5036 0
488.824 3.46776 0
484.401 5.79998 0
190.098 2.50597 0
185.606 0.311513 0
47.8941 12.3071 0
44.2824 15.7647 0
193.11 39.4827 0
189.774 35.7587 0
216.859 7.63959 0
221.826 8.21348 0
445.925 28.8222 0
450.123 26.1061 0
346.465 27.8867 0
351.31 29.1224 0
295.448 51.8039 0
298.969 55.3537 0
387.245 11.5846 0
390.77 15.1312 0
138.428 49.8277 0
136.7 54.5194 0
360.781 53.3906 0
364.42 56.8206 0
306.953 4.28427 0
302.174 5.75576 0
26.3658 20.1996 0
21.6721 21.9223 0
54.4323 0.64577 0
59.3373 1.61212 0
172.56 24.0529 0
167.743 22.7121 0
462.105 56.7915 0
457.151 57.4719 0
467.592 39.7572 0
471.852 42.3753 0
159.935 33.1994 0
159.066 38.1233 0
6.16276 56.4912 0
3.51239 52.2514 0
264.137 58.6059 0
267.804 55.2068 0
105.567 11.0365 0
110.078 8.8811 0
122.56 19.5494 0
125.654 23.4774 0
72.2742 6.25214 0
73.4238 1.38594 0
88.6113 12.1538 0
88.537 7.1542 0
13.1166 54.5464 0
8.13096 54.1586 0
242.566 11.8271 0
244.68 16.3581 0
212.843 17.5164 0
210.157 13.2988 0
146.901 15.7993 0
144.479 20.1737 0
259.901 14.8969 0
264.707 16.2752 0
268.847 28.9641 0
269.979 33.8343 0
135.769 1.14808 0
140.757 0.811616 0
50.9489 24.439 0
46.327 22.5321 0
264.315 50.3207 0
269.033 51.978 0
179.472 45.2212 0
184.354 46.3036 0
24.1599 23.9928 0
28.9243 22.4763 0
241.44 45.6973 0
236.544 44.6777 0
423.513 24.9061 0
420.873 29.1524 0
332.509 21.6345 0
328.192 24.1563 0
269.44 28.2432 0
264.475 28.8278 0
6.79676 35.3673 0
6.85229 30.3676 0
448.173 33.4434 0
447.767 38.4269 0
237.353 15.909 0
238.274 20.8235 0
198.11 2.55425 0
203.109 2.58315 0
257.505 52.1835 0
253.062 54.4777 0
204.766 45.407 0
200.68 48.2895 0
21.9718 37.5069 0
26.9425 36.9649 0
237.149 43.5076 0
235.147 48.0895 0
129.726 49.8066 0
130.404 54.7603 0
125.543 53.2835 0
121.041 55.4592 0
390.442 38.5302 0
395.306 39.6896 0
67.5507 1.45607 0
65.0087 5.76162 0
161.312 50.9744 0
163.508 55.4662 0
231.03 51.0689 0
226.083 50.3372 0
316.049 28.7655 0
320.996 29.4909 0
370.268 45.9817 0
368.647 41.2516 0
190.192 7.25809 0
193.736 3.73115 0
104.135 46.9355 0
103.236 42.017 0
245.48 10.9507 0
242.743 6.76646 0
10.507 29.4527 0
6.23584 32.0523 0
53.6692 43.0895 0
49.3365 40.5935 0
240.304 39.0582 0
236.317 42.0755 0
156.492 11.3567 0
156.355 6.35844 0
267.356 29.7327 0
271.626 27.1305 0
242.124 24.4805 0
244.325 28.9702 0
112.017 20.4481 0
116.582 18.4081 0
145.079 51.6088 0
145.552 46.6313 0
366.752 41.4122 0
368.121 46.2211 0
232.323 26.644 0
229.031 22.8807 0
56.8913 40.2605 0
56.9369 35.2608 0
467.621 0.73303 0
463.585 3.68395 0
365.101 47.0449 0
369.139 49.9934 0
64.7479 13.164 0
64.8182 18.1636 0
85.9028 57.334 0
90.413 59.4934 0
400.747 44.7965 0
395.824 45.6741 0
432.871 10.9724 0
430.783 15.5157 0
271.647 5.58283 0
266.782 4.42863 0
214.548 25.9164 0
217.979 22.2795 0
496.035 47.9685 0
497.259 43.1207 0
235.812 46.1994 0
239.078 49.9855 0
190.923 6.25956 0
186.141 7.71671 0
336.927 47.4383 0
341.407 49.6581 0
181.505 17.3155 0
181.649 22.3135 0
301.782 5.72163 0
302.518 10.6672 0
441.023 50.8665 0
444.773 47.5593 0
26.2352 56.3566 0
21.4362 54.9508 0
79.673 2.81816 0
84.6719 2.88794 0
436.843 30.0227 0
433.021 26.7993 0
336.493 55.4791 0
341.055 53.4324 0
456.281 31.1736 0
461.212 32.0007 0
355.532 44.3427 0
354.853 39.3891 0
467.357 8.65384 0
462.679 10.4191 0
361.321 11.1485 0
356.332 11.4746 0
489.419 34.8075 0
489.855 39.7884 0
287.036 13.0121 0
283.013 10.0423 0
284.747 36.9992 0
285.742 32.0992 0
253.631 38.4376 0
252.06 33.6911 0
256.936 6.99498 0
252.954 3.97231 0
154.099 25.0528 0
157.44 28.7732 0
375.971 20.2412 0
371.058 19.3134 0
233.813 46.1581 0
228.827 45.7868 0
241.008 33.5873 0
245.234 30.9159 0
11.0346 1.91474 0
9.2422 6.58252 0
451.406 56.7603 0
456.324 55.8605 0
363.978 32.0678 0
366.171 36.561 0
194.194 47.7514 0
193.92 52.7438 0
253.419 15.1294 0
250.167 18.9276 0
206.2 2.25013 0
211.033 0.968909 0
287.135 19.4339 0
287.319 14.4372 0
324.676 7.81846 0
320.449 5.1484 0
199.297 3.43985 0
197.193 7.97571 0
124.074 41.1349 0
120.73 37.4179 0
172.63 22.4089 0
172.715 17.4096 0
197.548 8.82416 0
194.503 4.85813 0
148.548 31.2625 0
145.58 27.2386 0
260.921 0.942108 0
262.152 5.7882 0
260.044 17.6287 0
256.538 14.0634 0
157.267 51.911 0
157.806 56.8818 0
220.563 5.58813 0
220.888 10.5777 0
158.087 28.0773 0
153.122 28.6653 0
202.375 56.9426 0
206.734 59.3921 0
405.379 57.3931 0
409.549 54.6354 0
439.464 7.24355 0
438.89 12.2105 0
131.061 17.2319 0
132.086 22.1259 0
331.871 44.3194 0
336.487 46.2435 0
6.33113 33.1136 0
7.4756 37.9809 0
32.4965 30.649 0
31.8672 35.6093 0
465.922 4.3296 0
461.914 7.31822 0
108.612 4.56802 0
112.523 7.68362 0
456.238 42.0299 0
451.309 41.1922 0
292.137 50.871 0
295.21 54.8155 0
401.182 11.9169 0
402.325 16.7845 0
335.588 41.7298 0
339.998 44.0863 0
491.407 28.7987 0
494.29 32.8839 0
287.47 42.997 0
283.037 45.3094 0
170.639 12.0798 0
165.64 12.1989 0
278.167 49.403 0
275.356 45.2683 0
131.414 47.6415 0
126.928 49.849 0
125.697 32.4732 0
122.037 29.0671 0
169.8 28.6788 0
173.246 32.3019 0
370.32 51.7757 0
367.269 47.8146 0
403.716 7.44282 0
403.943 2.44795 0
310.018 8.52647 0
305.874 5.72849 0
339.779 46.2372 0
336.887 42.1582 0
335.604 18.7477 0
331.296 16.211 0
360.857 11.9379 0
356.008 13.1578 0
32.9454 12.4488 0
32.5163 7.46705 0
146.813 8.06919 0
146.545 13.0621 0
331.919 18.3739 0
329.795 13.8475 0
319.217 19.4062 0
314.391 18.0969 0
68.4831 47.8206 0
67.5501 52.7327 0
239.74 19.6768 0
244.55 18.3118 0
78.0874 48.3951 0
81.2559 44.527 0
481.976 47.4489 0
486.299 44.9364 0
23.103 13.3635 0
28.0986 13.1667 0
318.188 38.4668 0
313.2 38.1224 0
269.518 0.532684 0
267.418 5.07041 0
423.273 32.8263 0
420.04 36.6399 0
284.843 13.6067 0
288.341 17.1796 0
397.744 46.2232 0
393.196 44.1466 0
430.675 38.5794 0
434.948 41.1758 0
237.929 45.1213 0
232.94 44.7814 0
215.864 24.2689 0
214.894 29.1738 0
377.088 5.64381 0
372.197 6.67899 0
296.711 50.7819 0
292.226 52.9942 0
315.877 36.6746 0
320.049 39.4302 0
457.68 39.1573 0
460.891 42.9896 0
80.1689 18.7711 0
85.1262 18.1213 0
199.05 3.91061 0
201.723 8.13604 0
8.45678 17.2652 0
10.0754 12.5344 0
360.605 11.1486 0
357.174 7.51165 0
71.5507 47.0017 0
70.8604 42.0496 0
119.923 23.3844 0
116.603 19.6462 0
154.964 30.3615 0
151.911 26.4021 0
320.141 15.7344 0
315.29 14.5237 0
296.13 48.7647 0
300.106 45.7325 0
26.614 6.84865 0
31.6011 7.19793 0
266.498 56.0605 0
269.904 59.7214 0
471.908 43.0397 0
468.501 39.3799 0
421.154 17.7578 0
425.26 14.9054 0
217.789 8.27426 0
222.602 9.62428 0
333.557 15.2515 0
332.854 20.2019 0
179.563 4.65024 0
184.502 3.8729 0
346.069 16.7643 0
341.154 17.6777 0
421.604 15.5046 0
425.559 12.446 0
82.8274 32.312 0
87.5467 30.6601 0
348.115 46.2108 0
343.543 44.187 0
346.85 53.4155 0
348.782 58.027 0
436.872 48.2252 0
438.084 53.0761 0
222.876 25.3491 0
219.017 22.1694 0
208.684 4.60598 0
212.239 8.12162 0
439.991 54.9282 0
441.295 50.1014 0
331.136 57.0603 0
333.296 52.5511 0
42.6375 50.1322 0
47.6364 50.006 0
164.553 33.9902 0
169.193 32.1289 0
89.3027 39.687 0
86.9401 44.0936 0
12.1285 54.4286 0
8.62954 50.8566 0
181.306 23.1743 0
180.423 18.2529 0
171.605 59.7061 0
175.406 56.4574 0
381.067 33.9624 0
378.801 29.5052 0
490.442 38.4677 0
489.136 33.641 0
433.019 4.11176 0
437.983 3.51051 0
169.344 47.9838 0
164.521 46.666 0
130.562 31.4184 0
134.938 33.8363 0
349.848 25.1528 0
345.188 26.9635 0
423.088 12.0942 0
419.744 15.8114 0
150.4 9.66948 0
147.664 5.48442 0
325.207 6.89178 0
320.49 8.5503 0
150.458 7.54832 0
152.655 3.05708 0
293.048 42.6523 0
288.06 43.0004 0
243.485 36.6283 0
238.852 34.7461 0
380.599 0.166341 0
378.997 4.90291 0
318.867 47.462 0
315.477 43.7862 0
223.405 25.0961 0
226.671 28.8822 0
479.126 20.0365 0
474.17 20.7014 0
273.752 20.2511 0
275.36 15.5165 0
70.2482 26.5287 0
75.2422 26.7724 0
104.251 47.6949 0
106.144 43.0673 0
386.9 54.8007 0
391.479 56.8081 0
497.133 43.5044 0
498.498 38.6945 0
209.416 8.13511 0
214.168 6.58206 0
101.258 49.1867 0
99.6791 53.9308 0
238.56 45.3422 0
238.173 40.3572 0
390.775 12.1384 0
395.73 12.8013 0
247.483 38.8428 0
250.337 42.9482 0
463.146 43.2293 0
468.079 44.0422 0
443.509 21.7067 0
440.311 25.5503 0
42.8775 48.4859 0
39.2923 45.0005 0
137.962 48.8324 0
142.539 50.846 0
155.135 8.19229 0
159.073 11.272 0
328.519 47.361 0
332.22 43.9993 0
469.581 26.9557 0
464.721 28.1307 0
242.577 32.6482 0
247.573 32.8545 0
206.62 18.0883 0
210.266 14.6663 0
498.936 29.0642 0
494.65 26.49 0
136.764 20.5568 0
132.476 23.1288 0
233.723 14.2651 0
236.138 9.88715 0
366.478 47.6324 0
362.445 44.677 0
25.2468 44.4244 0
20.3553 43.3865 0
303.367 43.9511 0
300.632 48.1372 0
73.0492 11.8917 0
70.4802 16.1812 0
485.387 37.8483 0
483.842 33.0931 0
174.257 4.67513 0
178.755 6.85867 0
250.1 13.0885 0
253.082 9.07506 0
325.787 24.1001 0
328.928 27.99 0
24.5715 55.818 0
25.1959 50.8573 0
226.78 9.71574 0
227.896 4.84187 0
249.048 29.7539 0
253.272 32.4297 0
277.736 15.0141 0
275.39 19.4291 0
252.386 22.991 0
248.556 19.777 0
410.712 24.2712 0
410.593 19.2726 0
474.519 38.8123 0
469.7 37.4775 0
29.6115 50.0375 0
24.6179 50.301 0
162.079 11.4109 0
158.108 8.37308 0
29.1959 21.1293 0
24.3991 22.5395 0
453.837 8.22112 0
452.208 12.9483 0
272.755 2.00813 0
273.453 6.95928 0
193.876 43.3425 0
193.522 38.3551 0
28.0131 26.5624 0
23.3112 24.8622 0
318.658 44.4846 0
318.252 39.5012 0
286.583 48.984 0
286.365 53.9792 0
159.353 21.1832 0
159.228 16.1847 0
154.504 8.45449 0
159.305 7.05639 0
289.83 47.1411 0
286.546 50.9117 0
366.181 45.6387 0
369.346 49.5097 0
350.98 15.1883 0
355.971 15.4796 0
343.715 24.6254 0
348.708 24.3739 0
317.479 11.1415 0
322.399 10.2512 0
300.549 5.00207 0
302.411 0.361901 0
203.045 55.2262 0
201.439 50.4914 0
370.668 53.9146 0
369.184 49.1398 0
393.562 21.0183 0
388.674 22.0706 0
248.077 30.8834 0
243.464 28.9552 0
220.904 59.826 0
222.902 55.2424 0
342.319 27.6161 0
337.346 28.1345 0
326.01 47.7393 0
322.131 50.8939 0
363.317 15.5212 0
361.265 20.081 0
138.92 36.4064 0
143.826 37.3719 0
434.147 53.7406 0
434.404 48.7472 0
370.547 18.3441 0
374.864 15.8201 0
61.9936 9.73312 0
57.8446 12.523 0
96.5743 46.9775 0
96.5483 51.9773 0
270.902 55.7327 0
271.209 50.7422 0
253.321 22.6444 0
254.305 17.7421 0
451.951 2.72751 0
449.754 7.21918 0
63.8838 14.118 0
58.8853 14.0108 0
288.134 15.0529 0
287.131 19.9512 0
330.533 17.0103 0
326.472 14.0937 0
101.479 47.4763 0
96.5406 48.2639 0
289.355 46.0431 0
294.352 46.2313 0
173.324 45.8752 0
172.056 50.7119 0
466.133 -0.0986047 0
461.97 2.67061 0
158.939 36.5528 0
156.74 41.0432 0
125.319 44.311 0
127.845 39.9956 0
448.398 30.5733 0
447.99 35.5566 0
88.9511 5.82401 0
93.3348 8.22786 0
241.535 15.9283 0
246.382 17.1534 0
481.084 25.5479 0
485.988 24.5718 0
152.633 53.9453 0
153.729 49.0669 0
82.2088 9.55416 0
85.5428 5.82822 0
250.806 48.693 0
255.736 47.8603 0
342.07 23.7764 0
339.886 28.2745 0
411.303 38.5633 0
411.465 43.5607 0
255.607 57.6674 0
259.759 54.8812 0
92.7085 15.5186 0
89.5234 11.6645 0
62.5296 9.1022 0
62.2727 14.0957 0
179.456 40.7062 0
183.881 38.3774 0
344.499 32.8542 0
348.612 35.6973 0
22.8959 2.44682 0
21.3953 7.21644 0
402.43 1.70091 0
404.777 6.11583 0
239.289 7.77374 0
243.959 5.98776 0
163.226 49.5504 0
158.308 48.6452 0
68.0094 33.2844 0
72.2272 30.5989 0
448.306 9.02353 0
444.097 6.32548 0
202.808 45.9309 0
198.249 47.9842 0
135.121 1.41148 0
140.05 0.57208 0
169.619 25.6039 0
173.779 28.3781 0
352.622 31.1542 0
349.204 27.5045 0
83.1468 42.8329 0
83.6393 37.8572 0
148.185 49.8164 0
152.731 51.899 0
488.541 16.3326 0
492.109 19.8349 0
328.691 11.6059 0
332.273 15.0941 0
92.6511 53.4072 0
88.1606 51.2073 0
475.617 45.4603 0
476.608 40.5593 0
486.434 50.066 0
486.026 45.0827 0
277.886 12.6233 0
282.619 11.0125 0
101.86 45.0487 0
106.12 42.4302 0
214.514 38.4554 0
210.221 41.0193 0
207.344 10.5084 0
210.811 6.90582 0
461.127 45.7377 0
464.511 49.4189 0
385.75 51.1896 0
380.867 52.2666 0
84.4633 8.01541 0
85.05 12.981 0
187.542 26.745 0
185.094 22.3848 0
188.45 28.0509 0
183.484 27.4709 0
181.067 6.46637 0
184.867 3.21794 0
349.471 44.9076 0
350.642 49.7685 0
469.718 49.2526 0
471.906 44.7567 0
262.285 41.7407 0
267.253 42.3128 0
56.8505 20.6302 0
52.0056 19.3956 0
484.387 14.8137 0
481.907 10.4723 0
72.2385 51.2822 0
67.8124 53.6091 0
413.134 34.6009 0
417.036 37.7268 0
92.6406 4.37674 0
96.932 6.94185 0
123.51 40.7056 0
122.342 45.5673 0
271.224 29.9085 0
266.226 30.0354 0
11.2397 44.3788 0
10.186 49.2665 0
321.034 56.4755 0
324.869 59.6836 0
447.756 44.7799 0
452.607 43.5687 0
203.775 4.48479 0
208.219 2.19327 0
190.229 44.0551 0
194.33 46.9149 0
177.773 29.7461 0
182.728 30.4098 0
164.798 53.7291 0
167.303 49.4019 0
53.7396 45.558 0
57.5176 48.8335 0
172.522 18.8216 0
176.408 21.9677 0
470.169 34.5276 0
471.978 39.189 0
238.158 10.0324 0
243.097 10.808 0
212.277 48.6629 0
211.894 53.6482 0
234.021 49.7688 0
234.527 54.7431 0
167.23 52.2789 0
165.727 47.5103 0
326.316 47.7076 0
324.448 43.0696 0
76.6018 44.0675 0
71.6301 44.6013 0
345.359 50.9542 0
344.897 45.9757 0
389.914 21.5537 0
386.754 17.6789 0
167.603 10.3748 0
162.697 11.3356 0
258.375 20.1104 0
260.314 15.5018 0
292.788 40.9566 0
297.672 42.0297 0
60.2176 15.4139 0
64.9505 13.8024 0
252.612 38.5528 0
255.478 42.6499 0
379.368 13.5315 0
374.472 14.548 0
368.618 49.0991 0
371.837 45.2727 0
181.071 41.4176 0
181.418 46.4055 0
299.872 13.0061 0
299.304 8.0384 0
219.077 42.7648 0
222.615 46.2982 0
94.587 56.1411 0
94.349 51.1469 0
486.212 24.9824 0
488.918 29.1865 0
265.609 35.5297 0
263.525 40.0749 0
66.0638 42.3104 0
62.0978 39.2655 0
385.452 1.36128 0
390.45 1.48581 0
412.849 1.75958 0
408.689 4.53295 0
154.323 8.64999 0
151.646 12.8729 0
118.85 42.5024 0
118.179 47.457 0
473.29 48.8915 0
477.405 51.7313 0
405.252 7.81304 0
400.435 9.1534 0
457.925 28.3529 0
461.731 31.595 0
381.096 4.38104 0
382.92 -0.274456 0
86.2234 35.2647 0
89.3891 31.3944 0
438.871 33.8669 0
442.587 37.2119 0
475.199 19.8845 0
475.596 14.9002 0
379.487 9.56945 0
379.778 4.5779 0
296.609 11.6522 0
294.899 16.3509 0
236.326 26.512 0
232.377 23.4452 0
265.216 8.30163 0
261.989 12.1204 0
292.065 57.4996 0
293.5 52.7101 0
324.882 37.5874 0
328.999 34.7502 0
402.901 4.26463 0
406.432 0.724605 0
11.036 13.7628 0
8.80873 18.2394 0
491.399 15.3638 0
493.634 10.8911 0
416.52 21.9768 0
413.729 17.8283 0
437.812 5.0553 0
442.6 3.61461 0
460.64 34.9038 0
456.293 32.432 0
342.234 41.9519 0
339.395 46.0673 0
94.274 14.2919 0
97.4325 18.1678 0
463.813 8.59084 0
462.171 13.3134 0
308.411 3.59094 0
305.719 7.80446 0
45.4228 56.5962 0
50.3955 57.1254 0
111.253 4.42463 0
107.059 1.70337 0
425.985 14.3225 0
423.665 9.89307 0
245.996 52.9112 0
249.47 49.3154 0
318.905 34.7562 0
317.707 29.902 0
191.374 39.9878 0
193.442 44.5402 0
31.1066 5.34973 0
33.2021 9.88946 0
441.807 3.26639 0
446.696 2.22029 0
432.801 38.9904 0
431.819 43.8931 0
163.993 39.3103 0
168.03 42.2596 0
19.7526 53.5708 0
15.3484 55.9389 0
377.472 18.8789 0
373.312 21.6523 0
416.415 33.4641 0
417.202 28.5264 0
376.231 20.2954 0
376.937 25.2452 0
259.805 36.8906 0
254.876 37.7287 0
244.509 15.5938 0
248.752 12.9495 0
275.355 19.5872 0
270.368 19.2329 0
282.662 46.4155 0
277.661 46.3913 0
319.028 58.1967 0
315.421 54.7343 0
348.052 26.4078 0
349.244 31.2635 0
206.013 45.1763 0
202.125 42.033 0
369.784 11.6785 0
373.113 7.94786 0
284.149 16.7591 0
288.942 15.3364 0
22.2115 8.22256 0
18.9105 11.9778 0
145.558 13.3521 0
142.853 9.14649 0
225.243 20.6088 0
225.088 15.6111 0
164.844 25.7463 0
161.96 21.6616 0
195.391 12.1416 0
193.937 7.35763 0
20.3047 6.71501 0
18.4401 2.07561 0
380.96 40.0218 0
380.739 45.0169 0
348.621 9.92746 0
343.639 9.50415 0
189.68 40.4112 0
192.928 44.2127 0
492.921 46.4158 0
493.176 51.4092 0
383.69 49.9427 0
384.529 45.0136 0
220.809 4.04614 0
220.895 9.04551 0
315.639 48.9443 0
320.299 50.7574 0
423.35 48.4797 0
419.387 51.528 0
433.364 20.1241 0
438.043 18.3627 0
358.702 35.3717 0
362.953 32.7401 0
13.2052 48.1871 0
13.3163 53.1857 0
185.982 26.187 0
185.906 31.1864 0
41.0289 5.85266 0
40.75 10.845 0
173.108 12.1813 0
178.107 12.1101 0
312.659 34.6049 0
312.348 29.6145 0
1.10141 49.584 0
4.24878 45.6987 0
160.612 44.8678 0
162.951 49.2871 0
17.1232 5.36025 0
12.8048 2.8412 0
331.396 3.82586 0
336.044 1.98284 0
62.467 19.2192 0
58.345 22.0491 0
247.61 23.5103 0
252.59 23.0695 0
288.688 17.6451 0
293.359 15.8611 0
390.702 55.2245 0
386.671 58.1828 0
33.4909 24.5065 0
30.2176 28.2861 0
184.31 38.8666 0
186.476 34.3602 0
487.985 50.9654 0
482.99 50.7378 0
340.315 32.3848 0
342.971 36.6212 0
182.803 16.3474 0
178.317 18.5552 0
70.1154 58.7633 0
75.0845 59.3252 0
369.771 11.383 0
366.442 7.65219 0
380.813 48.7447 0
382.782 44.149 0
61.6693 34.9829 0
58.8177 39.0902 0
249.945 16.4139 0
252.472 12.0994 0
75.8434 21.2181 0
80.2211 18.8026 0
283.624 2.78425 0
287.799 5.53454 0
248.761 4.84551 0
249.205 9.82585 0
182.196 47.0419 0
186.035 50.2453 0
61.656 34.8561 0
66.5945 34.0734 0
49.7696 19.5176 0
53.4154 16.0959 0
24.8169 24.7891 0
29.4697 22.9587 0
165.864 30.1718 0
161.512 32.6333 0
397.524 45.9703 0
400.518 41.9658 0
482.94 26.7506 0
486.4 23.1403 0
365.05 20.7126 0
360.128 19.8349 0
122.001 53.881 0
117.052 53.1637 0
116.672 55.256 0
114.162 59.5803 0
346.669 38.8063 0
344.206 43.1577 0
94.4 39.0831 0
90.3193 41.9725 0
333.117 17.7918 0
336.98 20.9654 0
43.707 14.5708 0
46.4143 10.3672 0
493.898 25.2735 0
498.487 27.2588 0
133.251 38.1953 0
129.615 41.6271 0
446.54 22.5935 0
448.75 18.1083 0
435.932 35.1624 0
439.275 31.4441 0
66.3917 17.0521 0
70.4216 14.0927 0
231.97 14.6631 0
230.448 9.90041 0
419.712 52.7668 0
422.919 48.9306 0
108.395 45.1511 0
109.371 50.055 0
313.57 9.14398 0
313.179 4.1592 0
262.233 29.5974 0
257.269 28.9927 0
112.235 28.4979 0
108.91 24.7639 0
462.418 38.2102 0
458.458 35.158 0
436.636 0.0373125 0
431.642 0.292662 0
475.57 36.9364 0
471.636 33.8513 0
180.618 51.9838 0
176.004 50.0565 0
333.491 49.6743 0
329.18 52.2072 0
147.512 49.869 0
147.796 44.8772 0
491.809 29.934 0
496.235 32.26 0
48.1374 58.3501 0
43.2614 59.46 0
5.58906 20.8987 0
10.0086 18.5609 0
468.059 57.064 0
472.161 54.205 0
118.561 1.03851 0
123.555 0.809368 0
274.458 9.2947 0
278.055 12.7677 0
102.555 15.0038 0
99.6755 10.916 0
90.1261 17.0133 0
90.8297 12.0629 0
272.011 53.5287 0
268.32 56.9023 0
198.631 56.6526 0
202.614 59.6759 0
413.67 3.98428 0
408.722 4.70351 0
274.964 4.56668 0
276.81 9.21345 0
369.53 28.7088 0
370.658 33.5798 0
226.729 22.6548 0
231.378 20.8143 0
240.323 44.2884 0
245.251 43.4398 0
371.816 19.9757 0
369.832 24.5653 0
327.258 4.97506 0
330.172 0.911844 0
326.816 54.0039 0
330.374 57.5169 0
12.5242 51.6628 0
8.03772 49.4547 0
14.444 33.7399 0
16.4451 38.322 0
470.756 9.22115 0
465.799 8.56765 0
167.19 10.8086 0
163.12 13.7132 0
171.641 49.0429 0
174.522 53.1294 0
22.3942 16.1237 0
26.7003 13.5831 0
391.076 23.1509 0
389.453 18.4217 0
420.839 56.0727 0
425.462 57.9767 0
318.383 22.2727 0
317.755 27.2332 0
396.674 13.3974 0
401.221 11.3167 0
75.8394 40.8252 0
70.9405 39.8239 0
146.887 29.0205 0
147.589 24.07 0
23.9932 27.4897 0
27.7489 24.189 0
136.82 15.9427 0
133.422 12.2751 0
372.857 30.6959 0
370.763 26.1557 0
490.356 19.7388 0
487.311 23.7047 0
237.749 55.6965 0
240.271 51.3794 0
81.5132 38.3999 0
86.3985 39.4654 0
334.464 53.1354 0
339.44 52.6408 0
384.17 5.12233 0
379.181 5.4397 0
381.059 16.6581 0
382.526 11.878 0
229.371 48.3709 0
233.83 50.6344 0
36.0151 32.6214 0
32.3109 29.2632 0
452.193 55.6132 0
457.175 55.1984 0
8.47688 38.0458 0
4.36927 35.1947 0
373.361 44.5834 0
373.281 39.584 0
275.346 37.1867 0
278.644 40.9446 0
327.765 1.2596 0
332.673 2.21141 0
155.41 41.437 0
159.742 43.9339 0
318.469 56.5856 0
323.295 55.28 0
272.409 27.254 0
276.914 29.4218 0
224.307 38.9118 0
223.69 43.8736 0
240.217 59.6849 0
236.635 56.1967 0
464.536 1.53662 0
468.635 4.39854 0
71.6897 22.1195 0
67.4297 19.5023 0
306.451 19.1407 0
303.767 14.9227 0
148.018 24.9464 0
153.002 25.3458 0
346.031 7.3596 0
341.602 5.03975 0
260.221 30.2982 0
263.818 33.7718 0
439.885 31.3366 0
436.493 35.0104 0
247.638 43.8637 0
245.856 39.192 0
461.16 14.1676 0
465.724 12.1249 0
206.061 42.0394 0
208.32 37.5787 0
256.804 47.981 0
252.212 46.0021 0
144.6 11.19 0
140.324 8.59879 0
66.8004 58.3624 0
71.8011 58.3479 0
163.924 22.9515 0
159.979 19.8803 0
184.888 6.46058 0
189.846 5.81806 0
17.5782 37.7186 0
13.8143 41.0102 0
368.14 20.1771 0
373.11 19.6314 0
429.681 31.3071 0
431.785 35.843 0
418.884 32.9621 0
414.6 35.5416 0
85.8983 5.88384 0
81.887 8.86831 0
433.56 27.9135 0
428.725 29.1863 0
117.573 12.7558 0
113.627 9.68576 0
251.364 22.8419 0
254.647 19.0701 0
111.96 19.5059 0
108.043 22.6131 0
365.228 8.95001 0
360.267 9.57173 0
356.113 38.6166 0
351.212 37.6262 0
323.609 32.5811 0
318.818 31.1506 0
128.872 36.0905 0
123.998 37.2103 0
465.727 8.00001 0
469.914 5.26587 0
254.136 6.4207 0
252.798 1.60317 0
159.936 21.8123 0
164.886 21.1104 0
326.76 2.27164 0
322.243 4.4149 0
339.606 17.3717 0
344.551 16.629 0
460.843 15.8448 0
458.403 20.2094 0
89.0085 11.1664 0
92.1919 7.31089 0
159.915 35.2193 0
164.858 35.9773 0
232.22 58.9937 0
228.936 55.2227 0
18.1034 46.463 0
18.7983 51.4144 0
299.786 18.6895 0
294.885 17.7013 0
447.134 43.1245 0
447.048 38.1252 0
51.7729 29.9658 0
56.7671 29.7246 0
404.472 14.451 0
408.041 17.9529 0
304.575 47.0552 0
303.7 42.1325 0
132.349 6.14598 0
129.607 10.3273 0
150.986 7.84494 0
146.896 10.7207 0
312.726 14.2325 0
310.555 9.7285 0
32.6169 6.32837 0
36.7919 3.57791 0
358.045 43.1507 0
354.564 39.562 0
47.5763 19.5065 0
52.2941 17.8512 0
392.738 18.3542 0
396.816 15.4624 0
6.88667 20.7287 0
4.11805 16.5652 0
437.972 54.4945 0
439.251 59.3282 0
477.499 38.7057 0
482.371 37.581 0
179.499 28.8718 0
174.501 28.7445 0
495.031 7.51991 0
494.931 12.5189 0
41.9346 45.6708 0
46.4731 47.7698 0
104.698 6.32705 0
100.176 8.45855 0
33.2587 25.1796 0
37.6763 22.8377 0
322.317 51.6697 0
324.858 47.3636 0
322.561 23.5686 0
317.578 23.9906 0
237.981 34.9135 0
233.464 37.0589 0
272.556 48.8746 0
276.471 45.7645 0
53.2887 29.4654 0
58.2763 29.1138 0
439.886 52.7551 0
444.766 51.6687 0
307.524 4.8753 0
310.946 1.23053 0
122.817 41.9199 0
127.66 40.6758 0
176.615 39.616 0
180.305 42.9905 0
271.819 6.54001 0
273.827 1.96095 0
280.113 51.2233 0
283.255 47.3337 0
80.3063 19.4299 0
75.6468 21.2431 0
239.946 36.6828 0
243.832 33.5367 0
42.6212 16.1873 0
45.2311 20.452 0
76.9249 40.4774 0
77.4662 45.448 0
85.8844 49.9067 0
83.0243 45.8055 0
493.075 25.7235 0
492.681 20.739 0
245.03 47.5597 0
250.011 47.1182 0
487.934 16.1703 0
486.289 11.4488 0
306.732 19.4388 0
302.098 17.5609 0
126.68 6.8204 0
126.779 11.8196 0
471.724 27.9682 0
475.472 31.2775 0
141.648 18.0541 0
136.999 16.2154 0
106.804 45.0886 0
101.945 43.9072 0
113.87 34.2904 0
111.105 38.4561 0
467.262 46.1247 0
463.426 49.332 0
270.282 58.0943 0
275.037 56.5477 0
199.029 50.9974 0
201.892 46.8977 0
12.6177 19.1329 0
15.8019 15.2781 0
429.925 25.3509 0
429.769 30.3484 0
495.298 45.7949 0
490.321 46.2743 0
106.481 9.46475 0
102.186 12.0242 0
379.862 48.7225 0
376.507 52.4302 0
74.9835 51.0375 0
74.8227 46.0402 0
439.785 15.8389 0
437.72 11.2856 0
412.269 0.657007 0
412.453 5.65365 0
302.351 3.22133 0
301.963 8.20629 0
214.217 24.6019 0
210.776 20.9748 0
260.587 53.66 0
257.544 57.6277 0
61.9351 32.7195 0
61.4806 37.6988 0
379.834 31.8282 0
376.182 28.4124 0
471.173 46.4446 0
466.198 45.9507 0
321.226 46.7394 0
321.423 51.7355 0
60.0767 47.7881 0
64.9506 46.6707 0
472.584 11.0393 0
470.639 15.6455 0
24.7079 31.8139 0
24.5658 36.8119 0
251.109 22.2936 0
255.597 20.0907 0
453.92 40.2022 0
449.48 37.9027 0
406.755 9.16726 0
410.553 12.4195 0
430.034 58.8541 0
425.086 58.133 0
139.912 45.5776 0
134.949 44.9719 0
8.72356 43.6661 0
3.72405 43.5728 0
379.804 33.8872 0
381.908 29.3512 0
240.178 49.7633 0
240.797 44.8018 0
19.2545 25.778 0
22.847 22.3004 0
38.4052 14.2514 0
33.9582 16.5364 0
170.567 53.8398 0
169.21 58.652 0
375.88 27.6796 0
370.88 27.648 0
155.398 18.4137 0
152.203 22.2602 0
219.47 31.0281 0
224.015 33.1123 0
419.742 8.5436 0
414.965 10.0195 0
92.5811 40.8387 0
95.5286 44.8775 0
78.5903 5.28628 0
73.6888 6.27117 0
63.256 3.7839 0
58.4807 5.26418 0
266.985 9.8592 0
264.788 14.3507 0
309.118 7.90234 0
308.684 2.92115 0
331.853 12.8932 0
335.636 16.1632 0
44.1231 38.388 0
39.6697 40.6617 0
270.36 49.3861 0
274.386 46.4208 0
47.5257 8.29928 0
51.2708 11.6115 0
103.47 48.6604 0
105.636 44.1537 0
320.505 59.7056 0
318.401 55.1699 0
379.776 5.72296 0
376.622 9.60267 0
8.93091 6.67602 0
7.32189 11.4102 0
477.907 44.7438 0
472.959 44.0258 0
129.451 23.7596 0
125.661 27.0213 0
353.992 43.1131 0
352.543 47.8984 0
437.281 38.897 0
434.9 34.5001 0
412.413 47.5545 0
416.506 44.6825 0
160.175 52.7178 0
162.522 48.3027 0
64.1291 17.0132 0
61.0217 13.0962 0
138.658 35.8057 0
139.294 40.7651 0
413.578 47.5131 0
418.396 48.8496 0
465.846 32.5241 0
470.843 32.3597 0
208.48 10.122 0
213.2 11.7703 0
92.7443 56.4358 0
88.2616 54.2198 0
421.628 33.7275 0
425.745 30.8903 0
242.538 29.7214 0
244.674 34.2423 0
413.724 41.9713 0
409.846 38.8153 0
31.8093 33.3376 0
36.645 32.0658 0
116.162 4.87433 0
111.164 4.73388 0
266.297 47.8094 0
261.31 48.1787 0
133.511 13.5621 0
130.185 17.2959 0
133.195 14.1609 0
131.001 9.66803 0
321.326 9.60766 0
316.467 8.43196 0
41.31 19.6298 0
44.1786 15.5345 0
21.0062 35.3954 0
24.5346 31.8525 0
119.638 39.9039 0
115.134 37.7334 0
309.37 26.2746 0
313.991 24.364 0
189.513 45.6491 0
184.704 47.017 0
342.258 38.7517 0
338.816 35.1248 0
216.834 51.5714 0
217.269 56.5523 0
279.69 8.03627 0
275.869 11.2616 0
493.687 54.0885 0
496.847 57.9634 0
417.105 44.9448 0
417.246 39.9468 0
421.615 25.0847 0
423.284 20.3713 0
71.8126 11.0632 0
75.4648 14.4778 0
260.07 45.0164 0
255.399 46.7994 0
492.037 30.39 0
496.871 29.1124 0
11.5885 43.7951 0
16.325 45.398 0
88.4933 46.0346 0
91.9032 42.3775 0
90.5962 24.2523 0
87.9019 28.4644 0
56.2525 13.9232 0
52.1933 11.0043 0
23.0939 51.7395 0
18.8486 54.3818 0
100.454 8.61779 0
103.249 12.7632 0
115.268 33.3628 0
118.046 29.2059 0
298.48 5.98304 0
296.695 1.31262 0
486.925 24.9677 0
491.397 22.7318 0
336.892 47.7584 0
341.033 50.5613 0
343.591 11.4642 0
347.863 14.0619 0
408.093 41.1904 0
412.373 43.7756 0
52.3721 51.0943 0
57.119 52.6664 0
168.928 32.152 0
170.521 36.8916 0
17.4521 26.3544 0
16.9982 31.3338 0
482.523 30.2424 0
478.163 32.6888 0
40.3458 22.5077 0
44.4039 19.5869 0
58.6771 29.7668 0
55.6452 25.791 0
158.502 39.4835 0
163.453 40.1826 0
469.492 27.2053 0
473.821 24.7036 0
118.89 57.6 0
114.09 56.1972 0
17.274 12.1919 0
16.0704 7.33885 0
333.644 43.01 0
332.014 47.7367 0
156.16 54.4963 0
160.812 56.3293 0
161.555 33.586 0
156.571 33.1807 0
350.166 33.1152 0
355.006 31.8582 0
15.1305 29.5899 0
14.104 24.6964 0
6.39119 41.1314 0
4.53087 36.4904 0
3.43649 56.0023 0
8.25963 54.6815 0
491.787 49.0154 0
495.746 45.9609 0
12.4363 46.5521 0
17.4367 46.5843 0
418.578 14.3086 0
413.998 12.3031 0
51.72 45.6821 0
55.6403 48.7858 0
397.168 2.16843 0
400.968 5.4175 0
152.132 28.464 0
153.946 33.1232 0
204.463 47.1585 0
207.067 42.89 0
252.028 21.9183 0
247.793 24.5763 0
63.3576 23.8638 0
64.3999 28.754 0
269.526 11.939 0
274.519 12.197 0
430.623 2.51631 0
425.653 1.97134 0
368.16 11.8283 0
364.19 14.8688 0
34.9774 0.91442 0
39.9209 0.169947 0
374.542 9.76965 0
373.589 4.86137 0
0.432578 39.2402 0
4.14884 42.5855 0
432.637 58.2743 0
431.358 53.4408 0
254.962 50.3985 0
258.681 53.74 0
187.878 30.6049 0
188.323 35.585 0
108.019 57.342 0
111.165 53.4549 0
47.6141 45.7769 0
43.5958 42.8012 0
17.4236 10.8164 0
20.386 14.8442 0
103.898 49.6375 0
99.8445 46.7095 0
242.804 17.9167 0
239.497 21.6667 0
308.175 12.3643 0
305.619 8.0665 0
459.681 39.932 0
462.061 35.5347 0
478.041 36.1279 0
477.586 41.1071 0
369.821 50.4866 0
365.195 52.3841 0
385.689 57.246 0
390.347 55.4265 0
313.132 30.2173 0
317.933 28.8211 0
256.131 48.7456 0
260.37 46.0926 0
36.0021 24.4413 0
39.4934 20.862 0
216.202 13.4492 0
220.072 10.2839 0
52.4532 14.3849 0
50.2467 9.89808 0
152.131 52.1452 0
157.081 52.8497 0
467.336 6.9828 0
463.443 10.1203 0
232.771 58.7242 0
234.042 53.8885 0
61.3116 42.5709 0
66.1712 41.3931 0
5.26898 32.4133 0
10.1615 33.4448 0
129.52 5.19188 0
132.251 9.38051 0
169.007 22.4039 0
167.182 27.0592 0
89.8498 51.0634 0
92.5427 46.8504 0
313.469 0.241373 0
317.064 3.7158 0
295.512 5.85953 0
293.241 10.314 0
461.014 29.1376 0
459.418 33.8761 0
480.319 46.3683 0
481.304 51.2703 0
478.59 30.5444 0
483.586 30.3512 0
271.641 14.8008 0
271.505 19.799 0
383.42 41.2249 0
378.428 41.4972 0
44.2814 52.2677 0
40.074 49.5656 0
354.12 45.8659 0
356.93 41.7299 0
82.7866 50.6775 0
80.2088 46.3932 0
67.7846 50.7901 0
63.1667 48.8721 0
68.2586 50.434 0
64.5528 53.7911 0
168.402 9.89748 0
172.983 11.8991 0
459.547 13.9891 0
459.539 8.9891 0
350.103 16.3045 0
354.113 19.2901 0
381.1 52.8457 0
383.364 57.3038 0
82.476 32.2327 0
87.1144 34.0996 0
58.6378 17.5012 0
55.3803 21.2944 0
359.843 9.4443 0
364.034 6.71837 0
8.35517 26.5066 0
8.56989 31.502 0
73.6232 13.0298 0
73.8552 18.0245 0
305.199 7.31797 0
309.758 5.26433 0
189.333 21.6507 0
186.853 17.3091 0
187.337 49.5496 0
188.405 44.6651 0
346.237 55.9459 0
349.673 52.3134 0
191.33 17.6204 0
190.929 22.6044 0
424.512 27.1772 0
419.826 25.4331 0
425.574 56.4885 0
421.416 53.7117 0
445.322 10.386 0
450.125 11.7785 0
133.733 41.8455 0
137.547 45.0791 0
374.048 5.55049 0
370.495 2.03284 0
230.008 1.77634 0
225.057 1.0783 0
221.55 14.6554 0
219.162 19.0482 0
484.906 31.3475 0
480.094 32.7054 0
488.833 2.58 0
493.129 5.13761 0
157.23 31.145 0
152.663 29.1105 0
490.92 44.7153 0
494.707 47.9796 0
53.0386 12.3209 0
56.3805 16.0398 0
422.108 9.58612 0
426.404 7.02693 0
155.164 51.1561 0
154.079 46.2753 0
450.677 41.6189 0
451.908 46.4652 0
205.894 15.9103 0
206.428 20.8816 0
34.354 48.4194 0
34.6156 43.4263 0
116.305 52.3322 0
112.411 55.4681 0
232.54 0.50297 0
232.687 5.50095 0
471.048 22.187 0
469.196 26.8314 0
51.3096 17.5887 0
55.6216 20.1193 0
69.425 30.0531 0
64.4256 29.9777 0
110.583 45.5006 0
106.249 43.0069 0
285.163 47.7842 0
289.868 46.0924 0
263.356 42.0331 0
264.352 46.9328 0
390.247 48.0173 0
385.443 46.6296 0
258.122 6.69149 0
259.854 2.00125 0
315.935 17.22 0
315.097 12.2906 0
166.175 49.7812 0
162.427 46.4714 0
324.638 23.7205 0
326.199 28.4705 0
120.58 26.567 0
121.368 31.5044 0
171.427 8.26243 0
168.818 3.99731 0
267.199 11.5878 0
264.601 15.8598 0
464.259 33.6986 0
461.543 29.5005 0
0.0954227 5.8328 0
2.89602 9.9746 0
432.457 31.5417 0
427.567 30.4997 0
144.882 23.4127 0
147.553 19.1857 0
25.8706 23.2902 0
24.4371 28.0803 0
381.154 4.69156 0
382.289 9.56105 0
328.214 14.9461 0
325.36 10.8404 0
200.998 49.0527 0
205.042 46.112 0
176.775 38.1691 0
175.201 42.9151 0
457.396 15.4186 0
462.278 16.4992 0
172.386 55.5027 0
177.372 55.8871 0
389.699 25.2366 0
385.573 28.0611 0
494.431 43.1087 0
489.532 44.1054 0
415.039 32.7292 0
417.889 36.8372 0
340.66 47.7297 0
338.316 52.146 0
315.145 5.70092 0
317.165 10.2748 0
357.28 31.228 0
361.909 29.3373 0
105.531 46.6058 0
103.141 42.2136 0
124.693 26.0491 0
127.872 22.1899 0
163.887 35.7975 0
163.613 40.79 0
13.1634 35.8248 0
16.1656 39.8232 0
269.845 44.4168 0
265.541 46.9626 0
119.173 18.0409 0
120.319 13.1738 0
334.447 23.8289 0
330.483 20.781 0
272.434 46.2145 0
268.903 42.674 0
76.4246 17.3844 0
72.4882 14.3018 0
322.683 21.7389 0
326.83 18.9464 0
187.29 53.8128 0
188.653 49.0021 0
301.81 48.3013 0
306.8 48.6142 0
105.837 18.6157 0
102.655 14.7593 0
274.351 23.4577 0
278.944 21.481 0
148.04 5.88614 0
153.039 5.84969 0
399.403 46.8598 0
394.403 46.8175 0
460.138 53.5266 0
455.699 55.8274 0
24.4206 33.8371 0
20.1945 31.1651 0
332.327 48.2438 0
334.629 52.6826 0
135.892 29.6969 0
139.277 33.3759 0
17.5606 56.0704 0
12.6167 56.8222 0
55.7534 47.5404 0
50.7654 47.8932 0
6.65159 50.3402 0
8.89803 54.8071 0
435.694 53.5215 0
439.88 56.2559 0
360.583 28.0892 0
365.545 28.6992 0
418.785 22.2636 0
413.796 22.6033 0
291.614 57.6302 0
296.566 58.3253 0
116.388 34.1448 0
114.956 38.9354 0
230.196 55.285 0
235.043 54.0544 0
461.446 1.2505 0
457.368 4.14284 0
69.3957 37.7544 0
64.4022 37.4953 0
125.169 50.7706 0
120.337 49.4845 0
268.458 34.8094 0
273.118 32.9952 0
96.5572 51.1667 0
92.8127 47.8531 0
445.789 54.5849 0
450.527 52.9857 0
257.027 29.3278 0
259.569 33.6332 0
27.7181 48.8612 0
22.7422 49.3574 0
241.995 15.2455 0
246.147 18.031 0
267.243 53.1616 0
262.952 55.7293 0
114.781 33.9501 0
119.703 33.0682 0
453.088 4.19216 0
456.926 7.39639 0
248.281 29.4181 0
244.46 32.6425 0
183.81 38.9085 0
178.97 37.6543 0
457.776 7.97235 0
462.711 7.16622 0
415.999 51.9689 0
419.998 48.9683 0
351.912 58.3264 0
348.501 54.6705 0
362.013 8.17805 0
359.68 3.75567 0
111.576 30.1321 0
115.284 33.4854 0
223.559 56.6127 0
218.723 57.883 0
332.017 20.7106 0
330.382 15.9856 0
55.0505 21.7723 0
56.0074 16.8647 0
155.235 51.2484 0
153.863 56.0564 0
10.4635 46.8003 0
6.85262 50.2593 0
350.75 34.9177 0
347.501 38.7186 0
383.64 39.025 0
381.033 43.292 0
243.907 26.1864 0
243.062 31.1144 0
79.5176 52.2274 0
83.5221 55.222 0
341.679 30.4946 0
346.494 31.8422 0
340.45 54.7689 0
338.842 59.5034 0
161.482 55.3472 0
157.059 57.6791 0
116.464 19.2117 0
112.927 22.7463 0
310.088 19.1744 0
305.657 16.8577 0
141.892 55.3669 0
139.322 51.0779 0
126.396 8.31416 0
130.329 11.4018 0
275.166 10.1144 0
279.197 7.1559 0
441.349 9.39046 0
441.638 14.3821 0
391.508 55.8249 0
386.714 57.2463 0
80.6891 52.6063 0
85.5037 51.2557 0
413.113 32.6853 0
414.464 27.8712 0
286.866 28.8195 0
286.486 23.8339 0
471.887 21.0002 0
476.571 19.2513 0
418.988 43.104 0
419.059 48.1035 0
480.731 11.1568 0
485.237 8.99068 0
226.053 44.312 0
223.696 48.7217 0
363.752 3.2881 0
366.384 7.53889 0
185.255 50.8993 0
184.894 45.9124 0
311.07 46.9543 0
313.119 42.3935 0
176.642 34.8809 0
171.914 33.2564 0
294.554 8.524 0
298.117 12.0317 0
252.145 25.6073 0
256.037 28.7458 0
362.229 51.1622 0
365.878 54.5803 0
371.89 54.9742 0
367.617 52.3777 0
494.781 11.8132 0
489.782 11.9152 0
227.69 57.6294 0
232.215 55.5022 0
466.691 56.0213 0
466.033 51.0648 0
16.8175 45.7539 0
21.1578 43.2711 0
482.465 11.9427 0
481.951 16.9162 0
145.971 20.2741 0
140.975 20.0839 0
287.811 37.7894 0
292.771 37.1566 0
319.784 42.2113 0
314.8 42.6046 0
409.458 8.68527 0
407.386 4.13469 0
232.646 24.1406 0
231.667 29.044 0
121.45 5.25775 0
120.107 10.074 0
79.7625 37.6338 0
75.6915 34.7309 0
141.445 57.1168 0
136.595 58.3343 0
360.766 4.11647 0
356.897 7.28418 0
224.432 37.0829 0
228.102 40.4797 0
18.4281 43.8928 0
13.8439 45.89 0
208.024 40.3737 0
207.826 45.3698 0
304.708 8.85519 0
299.856 10.0597 0
217.934 3.48742 0
214.943 7.49438 0
354.112 33.6929 0
350.772 29.9717 0
123.705 55.8084 0
118.711 56.0796 0
35.2936 15.2105 0
40.1075 13.8605 0
341.133 15.0672 0
336.135 14.9294 0
152.35 47.5239 0
154.94 51.8005 0
364.872 10.5661 0
369.317 8.27748 0
8.11057 21.3645 0
3.55035 23.4146 0
417.314 1.03764 0
419.989 5.2618 0
63.7084 27.4164 0
59.6063 24.5578 0
120.657 47.4931 0
115.693 48.0975 0
155.637 37.3387 0
155.808 32.3416 0
453.901 4.74811 0
449.827 1.8493 0
215.608 34.0656 0
213.74 29.4275 0
472.972 29.9295 0
473.59 34.8912 0
75.1556 52.3978 0
74.2224 57.3098 0
225.938 24.0836 0
220.946 23.808 0
292.271 4.0921 0
296.185 7.2039 0
225.974 15.9032 0
222.884 19.834 0
450.295 52.3558 0
454.895 54.3176 0
242.132 50.246 0
246.63 48.0632 0
106.06 57.4932 0
101.477 55.4927 0
421.126 31.9497 0
417.061 34.8606 0
176.783 7.18849 0
180.993 9.88531 0
189.507 41.657 0
193.068 45.167 0
353.423 22.8863 0
354.739 18.0625 0
290.873 57.459 0
294.796 54.3581 0
33.3205 47.3557 0
31.5323 52.025 0
475.249 27.5177 0
474.731 22.5447 0
110.282 19.4034 0
113.067 15.2506 0
142.44 40.1246 0
137.471 39.5667 0
159.806 43.6441 0
158.387 48.4385 0
161.501 4.17942 0
158.455 8.14433 0
228.566 37.4706 0
232.383 34.2407 0
394.41 8.32752 0
390.42 5.31499 0
101.192 53.6946 0
96.379 55.052 0
234.334 15.3168 0
236.247 19.9363 0
225.903 33.745 0
221.215 35.4844 0
441.654 42.268 0
446.615 42.889 0
401.755 7.28739 0
399.269 2.94931 0
224.779 10.2582 0
229.333 12.3228 0
266.197 38.8853 0
268.473 43.3373 0
92.3239 50.459 0
88.1482 47.7083 0
279.024 27.3411 0
279.715 22.389 0
76.7069 33.8623 0
81.7024 33.6491 0
362.749 39.9518 0
367.637 38.897 0
179.609 19.6421 0
174.694 18.7229 0
162.737 48.4654 0
158.043 50.1894 0
201.64 5.17636 0
197.12 7.31516 0
396.654 4.18531 0
401.604 3.47704 0
360.014 21.341 0
356.69 17.6061 0
217.837 21.0204 0
213.595 18.3739 0
35.7614 34.2802 0
34.4096 29.4664 0
396.367 3.16712 0
392.423 6.24004 0
78.0744 58.1896 0
75.1955 54.1015 0
11.9946 59.2712 0
16.9502 58.6 0
238.794 27.7682 0
243.725 28.5934 0
251.02 34.3036 0
247.96 30.3497 0
446.278 27.8745 0
446.794 32.8479 0
249.915 25.8928 0
250.924 20.9957 0
105.501 53.0618 0
109.224 56.4006 0
435.699 29.0118 0
439.465 25.7227 0
215.181 37.4898 0
212.143 33.5187 0
316.644 35.4771 0
321.173 33.3584 0
352.189 16.3359 0
353.858 21.0493 0
445.852 50.0141 0
447.481 45.2871 0
64.2563 16.4265 0
60.0459 19.123 0
103.215 41.0467 0
106.162 45.0855 0
277.572 6.26722 0
272.591 5.84157 0
284.606 28.7919 0
283.512 33.6708 0
299.384 18.2677 0
304.337 17.5854 0
55.3213 7.35105 0
58.9366 10.8045 0
174.166 32.7775 0
170.545 29.3285 0
189.542 22.3828 0
194.365 21.0661 0
252.054 44.1138 0
251.44 49.0759 0
22.143 33.4808 0
17.1432 33.4255 0
491.874 47.4826 0
486.913 46.8604 0
151.606 9.52634 0
147.021 11.5202 0
394.18 16.6477 0
392.666 21.4129 0
34.1658 10.9376 0
31.9983 6.43183 0
324.808 45.0778 0
329.807 44.9401 0
263.981 13.7421 0
261.081 17.8153 0
424.949 51.9346 0
429.646 53.65 0
451.39 27.3851 0
446.826 25.3437 0
314.107 40.9101 0
309.107 40.9249 0
434.996 36.8616 0
433.261 32.1724 0
287.74 5.68433 0
292.391 3.85183 0
282.209 59.3049 0
286.817 57.3636 0
420.719 5.11866 0
415.752 4.54466 0
235.969 14.4635 0
239.219 18.2633 0
447.278 23.7665 0
444.113 27.6375 0
125.065 24.3606 0
126.926 19.7198 0
172.919 45.2383 0
169.13 41.9748 0
254.397 45.985 0
256.967 50.2734 0
210.895 40.0668 0
206.177 41.7236 0
273.7 6.83131 0
272.876 11.7629 0
105.173 54.192 0
104.768 49.2085 0
451.003 28.5528 0
446.534 30.7952 0
14.5361 57.6955 0
17.1253 53.418 0
347.76 44.5819 0
344.586 48.4452 0
384.474 25.5317 0
385.539 20.6462 0
29.7878 4.82763 0
25.1686 2.91511 0
126.463 35.7074 0
125.231 40.5531 0
159.966 47.7126 0
160.3 52.7013 0
59.6838 13.8233 0
63.8951 16.5182 0
332.869 38.1454 0
336.399 34.605 0
458.867 6.16971 0
457.497 10.9783 0
7.62474 19.0056 0
10.9706 15.2902 0
292.085 13.1329 0
295.381 9.37337 0
247.758 10.521 0
249.177 15.3153 0
487.528 28.7714 0
492.438 27.8258 0
393.791 10.2192 0
397.022 6.40341 0
380.381 44.7614 0
375.928 42.4865 0
218.784 46.1462 0
223.653 47.2855 0
98.8103 18.0992 0
93.8284 18.5208 0
313.017 43.6051 0
312.776 48.5993 0
148.248 35.6436 0
148.951 30.6933 0
146.823 56.6828 0
149.979 52.805 0
34.6814 51.8534 0
33.3945 47.022 0
336.395 5.4536 0
341.35 6.11723 0
460.7 8.14178 0
465.482 9.60165 0
455.248 5.05114 0
451.927 8.78927 0
49.2747 7.03906 0
46.7363 11.3468 0
127.233 14.1967 0
125.663 9.44943 0
289.077 28.288 0
284.183 27.2655 0
370.533 56.6135 0
372.285 51.9304 0
23.6345 54.3133 0
28.4087 55.8007 0
257.944 29.0456 0
260.778 33.1645 0
159.117 38.3209 0
164.094 38.7983 0
347.129 50.018 0
351.293 52.7859 0
404.24 52.6496 0
399.245 52.4145 0
89.1346 17.3879 0
89.5269 12.4032 0
282.188 56.2179 0
287.178 56.5354 0
228.032 30.865 0
223.256 32.3431 0
355.645 7.39066 0
352.134 3.83105 0
57.4029 11.0726 0
57.0546 6.08456 0
105.519 5.80338 0
109.533 8.7845 0
225.831 39.4485 0
223.486 35.0325 0
99.137 54.9252 0
95.424 51.5762 0
126.791 28.9798 0
122.37 26.6451 0
268.578 33.6638 0
272.767 36.3944 0
337.517 33.815 0
339.517 38.3974 0
177.197 16.4624 0
177.569 11.4761 0
118.047 48.1366 0
116.4 52.8575 0
63.4177 32.569 0
62.5487 27.6451 0
62.0949 52.9074 0
57.4474 51.0621 0
362.937 23.688 0
357.938 23.805 0
351.089 42.6712 0
348.868 47.1509 0
290.441 38.0201 0
288.24 33.5307 0
448.353 52.1769 0
450.575 56.6559 0
188.389 51.4907 0
188.875 56.467 0
451.728 25.3107 0
451.851 30.3092 0
218.16 31.5821 0
220.686 35.8971 0
453.209 24.5199 0
458.068 23.3386 0
445.521 31.1024 0
445.34 26.1057 0
180.506 46.1472 0
184.988 48.3638 0
172.204 23.4892 0
167.354 22.2749 0
366.367 55.3153 0
362.769 58.7868 0
146.333 43.9731 0
142.181 41.1866 0
135.282 17.2936 0
136.318 22.1852 0
474.282 41.3431 0
476.442 36.8335 0
88.9869 43.2364 0
93.9662 43.6942 0
428.642 51.219 0
425.455 55.0719 0
497.499 1.15586 0
493.974 4.70203 0
471.722 5.81215 0
471.217 0.837675 0
208.497 59.5299 0
212.97 57.295 0
86.0008 1.73183 0
88.8021 5.87332 0
213.16 37.2819 0
212.268 42.2016 0
157.197 52.5326 0
160.752 49.0167 0
391.794 5.22364 0
395.998 7.92949 0
277.621 51.4845 0
282.468 52.7139 0
11.2873 54.4225 0
16.2862 54.2918 0
489.111 34.7997 0
494.044 35.6168 0
250.459 46.578 0
255.38 45.6878 0
71.2829 39.1285 0
76.0972 40.4793 0
424.515 8.03962 0
425.866 3.22537 0
304.715 40.8748 0
305.517 45.8101 0
428.103 34.0705 0
427.879 29.0755 0
449.952 32.3061 0
449.407 27.3358 0
69.2528 4.54719 0
67.7686 9.32196 0
451.74 52.7948 0
447.897 55.9937 0
440.206 17.6951 0
441.242 12.8036 0
189.841 11.0515 0
184.849 10.7825 0
264.277 35.4841 0
261.411 31.3872 0
165.38 5.04483 0
165.2 10.0417 0
117.496 21.3622 0
118.2 16.4118 0
344.718 34.8378 0
339.776 34.0767 0
20.5282 38.9566 0
20.0269 33.9818 0
178.121 21.783 0
173.198 22.6551 0
182.167 28.4796 0
177.202 27.8878 0
347.673 7.79257 0
349.347 12.504 0
1.15455 25.9972 0
0.873731 21.0051 0
46.0141 26.3299 0
45.2748 31.275 0
287.329 5.95139 0
284.826 1.6228 0
232.937 53.6455 0
237.934 53.8186 0
142.811 1.08294 0
147.765 0.408661 0
422.441 -0.102348 0
422.003 4.87848 0
259.733 19.2315 0
259.816 14.2321 0
24.2591 18.6596 0
29.0437 17.2089 0
188.81 21.9388 0
185.273 18.4047 0
269.514 37.1347 0
265.028 39.3428 0
402.46 13.4403 0
404.789 17.8648 0
440.619 48.5358 0
437.068 52.055 0
454.278 46.383 0
459.278 46.3769 0
277.15 26.0672 0
274.941 30.5528 0
342.694 42.7115 0
339.11 46.1981 0
71.4403 43.9858 0
75.8823 46.2817 0
439.027 15.9383 0
440.005 20.8416 0
65.7045 12.5513 0
69.928 15.2269 0
77.1671 17.0854 0
77.4685 12.0944 0
127.231 30.8934 0
124.907 26.4664 0
246.007 42.1634 0
241.02 41.797 0
169.129 32.6873 0
170.625 37.458 0
147.082 22.4683 0
150.049 18.444 0
167.843 43.5293 0
163.11 41.9181 0
445.655 38.8123 0
450.65 38.5941 0
93.5963 1.47551 0
98.271 3.24791 0
425.921 7.83668 0
423.316 3.56883 0
384.881 8.81851 0
389.23 6.35164 0
366.326 48.138 0
363.298 52.1169 0
434.404 31.2247 0
430.05 28.7677 0
250.024 55.431 0
245.864 58.2054 0
250.867 55.1926 0
248.978 59.8219 0
134.05 26.1711 0
138.887 24.9069 0
252.683 39.3098 0
248.233 37.0307 0
348.738 45.5971 0
343.901 46.8644 0
487.935 37.4316 0
483.554 35.0222 0
420.103 50.4131 0
424.719 48.4903 0
26.0669 52.0881 0
22.1212 49.0165 0
436.29 0.54032 0
441.252 1.15992 0
498.015 51.9074 0
493.339 53.6763 0
315.349 41.4655 0
310.443 40.5018 0
253.843 32.7231 0
255.987 37.2397 0
490.773 8.8885 0
485.947 7.5798 0
246.495 15.4766 0
241.919 13.4621 0
139.678 55.9079 0
135.308 58.3384 0
20.7509 41.1577 0
25.1705 43.4965 0
72.1838 26.9233 0
68.1859 23.9206 0
259.779 51.3902 0
256.872 55.4585 0
382.154 58.5917 0
384.229 54.0427 0
165.244 53.027 0
161.648 49.5531 0
288.832 34.9708 0
291.295 39.3215 0
177.057 53.2633 0
172.062 53.5038 0
40.6479 18.675 0
45.3647 17.0169 0
423.189 5.26733 0
423.909 0.319534 0
283.539 24.6457 0
284.638 29.5235 0
206.061 49.0403 0
211.061 49.0685 0
24.9 54.006 0
22.4947 49.6225 0
336.18 29.0239 0
337.226 33.9132 0
327.454 22.1053 0
325.741 17.4081 0
277.248 33.3177 0
281.103 30.1333 0
253.315 9.53067 0
249.654 12.9363 0
427.469 50.1802 0
432.016 52.2607 0
181.239 9.1406 0
185.602 6.69862 0
340.017 14.5656 0
344.484 16.8128 0
295.157 4.65224 0
300.007 3.43748 0
279.149 7.78437 0
274.177 7.2629 0
365.282 20.0078 0
363.005 24.4594 0
458.265 47.3101 0
453.311 46.6368 0
439.238 26.1755 0
436.366 30.2679 0
365.25 12.5221 0
366.196 17.4318 0
450.032 16.8471 0
445.032 16.8549 0
29.6005 27.8411 0
26.5595 31.81 0
465.265 59.4783 0
466.353 54.598 0
174.29 32.092 0
178.779 29.8917 0
95.6834 48.7981 0
90.6956 49.1537 0
319.313 45.4739 0
316.509 41.3342 0
80.1682 26.948 0
85.1623 27.1888 0
139.575 19.5406 0
136.763 15.4061 0
116.961 20.8912 0
121.957 20.7074 0
284.448 24.6617 0
289.444 24.8659 0
381.076 33.8329 0
383.121 29.2703 0
302.721 11.8545 0
300.274 7.49444 0
229.094 52.9339 0
224.098 52.7213 0
150.708 26.2721 0
150.676 31.272 0
423.465 23.7898 0
422.177 18.9586 0
167.753 3.71418 0
171.46 0.359174 0
216.883 9.03451 0
215.254 4.30717 0
226.871 29.5992 0
229.409 33.9069 0
106.382 58.2046 0
111.371 58.5471 0
179.87 49.7413 0
177.137 45.5545 0
315.624 6.82968 0
316.923 11.6581 0
140.479 19.9578 0
135.603 18.8495 0
327.95 28.9012 0
332.736 30.3471 0
99.0446 52.6367 0
95.427 49.185 0
468.219 37.6815 0
464.054 40.4482 0
274.056 22.8255 0
275.223 27.6873 0
90.6066 11.9371 0
95.4533 13.1639 0
283.881 10.5543 0
279.977 13.6776 0
413.705 8.4947 0
409.704 5.4956 0
420.873 13.8961 0
416.978 10.7612 0
446.405 27.4954 0
451.345 28.2657 0
28.6905 42.8807 0
31.7112 46.8651 0
458.581 34.0419 0
458.646 29.0423 0
393.36 41.1212 0
398.319 41.7567 0
125.655 24.383 0
121.237 26.7242 0
141.517 54.363 0
136.556 54.99 0
48.1973 20.6396 0
43.4994 18.9286 0
232.565 3.80556 0
228.942 7.25122 0
200.792 10.4048 0
201.244 15.3844 0
426.119 9.33299 0
421.848 6.73388 0
78.8046 23.2957 0
74.0005 24.6811 0
415.814 54.2331 0
419.495 50.8496 0
338.81 25.2279 0
342.592 21.957 0
379.569 23.6548 0
383.685 26.4941 0
168.86 9.79227 0
167.185 5.08109 0
329.85 20.3432 0
334.838 20.002 0
462.196 9.60478 0
465.948 6.29931 0
250.775 31.0376 0
245.781 31.2811 0
213.689 41.399 0
210.505 45.2541 0
45.4526 31.0736 0
40.4817 31.6132 0
407.46 56.9154 0
403.506 53.8555 0
382.927 41.6022 0
378.591 44.0925 0
4.92009 27.959 0
5.29594 22.9731 0
192.563 54.3249 0
191.544 49.4299 0
5.54278 29.2989 0
5.68731 34.2968 0
128.649 33.145 0
124.693 36.2029 0
89.323 19.3443 0
87.2528 23.8957 0
145.564 45.7494 0
149.806 48.397 0
320.786 40.4294 0
316.951 37.222 0
255.904 35.8245 0
253.806 40.3631 0
341.67 35.7532 0
346.542 36.8784 0
123.032 35.4588 0
118.124 36.4152 0
167.202 29.1387 0
172.146 29.8859 0
166.486 17.2604 0
161.983 15.0881 0
205.473 58.143 0
200.491 57.7231 0
388.234 32.0188 0
386.258 27.426 0
298.482 12.8225 0
293.545 12.0357 0
248.281 29.5344 0
248.348 34.534 0
482.216 36.8108 0
480.872 31.9948 0
50.8641 19.4591 0
50.3403 14.4865 0
135.095 39.2126 0
130.918 41.9617 0
21.0036 49.3416 0
21.9519 54.2507 0
139.859 34.9778 0
142.367 30.6522 0
384.099 48.485 0
387.182 44.5484 0
91.5677 46.0884 0
86.8169 44.5286 0
181.79 24.0969 0
176.807 23.6839 0
153.271 40.1188 0
156.974 43.4793 0
455.853 10.595 0
456.432 15.5614 0
191.602 49.6808 0
195.066 53.2873 0
112.407 18.4411 0
116.764 20.8935 0
450.936 55.9817 0
449.377 51.2311 0
405.378 14.641 0
406.366 9.73949 0
479.007 18.6021 0
476.322 14.3841 0
55.4953 29.8117 0
59.3958 32.9399 0
442.171 52.7725 0
447.171 52.8133 0
77.173 9.40778 0
78.957 14.0787 0
278.672 14.0811 0
275.378 10.3199 0
78.5777 3.21532 0
80.2902 7.91298 0
431.855 46.1413 0
426.869 45.7668 0
221.191 48.3493 0
217.797 44.6773 0
469.388 4.03604 0
471.899 8.36008 0
317.209 43.1107 0
321.812 41.158 0
115.519 25.0659 0
111.52 22.0641 0
402.201 16.6187 0
406.968 18.126 0
443.662 33.1704 0
447.44 29.8959 0
352.402 24.609 0
352.049 19.6215 0
76.2717 4.20013 0
73.6558 8.46125 0
19.3679 17.8792 0
20.5979 22.7256 0
53.4587 15.7707 0
50.0946 12.0719 0
176.306 25.1669 0
171.729 27.1808 0
221.516 51.9424 0
217.275 49.2929 0
348.653 54.0336 0
352.701 56.9688 0
107.624 50.4111 0
107.508 55.4096 0
486.357 13.9772 0
488.335 9.3854 0
234.509 34.0193 0
230.174 36.5108 0
189.935 17.7082 0
184.962 18.2275 0
319.044 15.2514 0
316.436 19.5178 0
471.311 25.5627 0
475.683 23.1361 0
342.645 40.0413 0
338.191 37.7691 0
325.146 48.111 0
320.146 48.0902 0
260.417 24.3305 0
264.742 21.8206 0
485.155 47.509 0
480.173 47.0912 0
225.767 11.1759 0
229.956 8.44746 0
481.789 21.4245 0
486.762 21.9395 0
187.617 52.2197 0
183.846 55.5031 0
333.032 8.69784 0
333.655 3.73667 0
172.359 20.557 0
172.298 25.5567 0
208.542 7.75346 0
205.562 3.73889 0
97.4896 51.6657 0
93.9932 48.0912 0
269.037 36.8599 0
270.276 41.7039 0
268.333 57.4571 0
263.676 55.6384 0
76.8117 19.9686 0
71.8237 19.6257 0
299.515 -0.168762 0
303.381 3.00136 0
443.052 15.8181 0
438.282 14.3206 0
67.1385 41.0076 0
70.5739 37.3745 0
207.128 20.1225 0
202.179 19.4128 0
388.681 48.5195 0
393.464 49.9748 0
427.563 13.422 0
425.824 8.73409 0
164.109 55.5332 0
166.96 59.6408 0
282.63 55.5049 0
280.598 50.9363 0
23.8344 7.53625 0
20.2645 11.0368 0
401.163 17.0968 0
404.607 20.7209 0
272.34 47.8498 0
271.041 52.6782 0
149.671 49.7791 0
145.756 52.8903 0
137.485 42.6182 0
142.062 40.6046 0
261.62 44.1936 0
257.936 47.5738 0
157.607 42.9717 0
162.002 45.3564 0
459.363 27.4192 0
464.323 28.0511 0
17.7915 8.01079 0
17.3017 12.9869 0
455.797 13.9968 0
459.096 17.7539 0
2.60034 35.4835 0
7.19705 33.516 0
25.5364 36.6228 0
28.7868 40.4222 0
60.8172 11.9286 0
56.0724 10.3528 0
102.341 50.7048 0
98.7021 54.1343 0
363.372 51.0529 0
368.294 51.9341 0
399.877 8.36895 0
397.893 3.77901 0
333.978 17.7981 0
338.841 16.6367 0
416.87 10.4302 0
411.923 9.71057 0
153.921 10.5665 0
151.915 5.98644 0
439.671 6.09859 0
442.5 10.2215 0
295.446 11.1788 0
300.298 12.3881 0
243.544 7.78014 0
246.356 11.9141 0
246.512 10.7261 0
241.866 12.5742 0
28.0545 13.6121 0
27.0466 18.5095 0
336.054 51.6029 0
332.581 48.0062 0
234.678 19.0236 0
238.618 15.9452 0
58.3898 32.8437 0
56.5525 37.4939 0
271.055 53.7298 0
269.321 58.4194 0
299.809 6.6347 0
301.388 1.89052 0
75.0189 53.6145 0
75.4175 48.6306 0
218.943 43.1818 0
223.266 45.6928 0
171.258 27.9559 0
171.14 22.9573 0
476.795 7.79882 0
480.045 3.99874 0
221.317 13.5409 0
216.429 14.5895 0
284.533 6.24048 0
279.582 6.94143 0
20.7808 1.32829 0
15.8483 0.514826 0
305.88 1.88668 0
310.762 2.9628 0
157.97 9.94602 0
156.833 5.07697 0
119.467 22.2543 0
119.963 27.2296 0
486.104 39.5582 0
483.734 35.1557 0
228.228 13.2981 0
223.913 10.7731 0
491.258 12.502 0
494.087 16.6244 0
114.014 47.1305 0
118.74 48.764 0
305.741 8.87852 0
300.742 8.82853 0
466.588 48.6511 0
465.563 43.7573 0
153.529 16.2714 0
148.537 15.9872 0
149.935 13.1485 0
145.426 15.3068 0
141.073 27.7132 0
136.1 28.2384 0
415.846 34.1682 0
418.548 29.9609 0
254.412 0.00650732 0
256.123 4.70463 0
253.854 40.2801 0
249.63 42.9551 0
400.925 45.9704 0
403.037 50.5027 0
39.1455 9.85269 0
34.7065 12.1531 0
36.7955 23.703 0
41.4329 21.8339 0
273.807 4.69754 0
277.212 8.35913 0
3.0778 51.0242 0
3.8191 55.9688 0
211.297 31.2514 0
213.309 26.6742 0
394.315 49.1367 0
390.726 52.6178 0
386.062 7.54133 0
381.209 8.74417 0
212.989 51.6871 0
208.593 49.3051 0
205.954 41.3506 0
207.822 36.7125 0
12.7639 5.73303 0
14.2342 0.953933 0
165.048 2.50803 0
163.921 7.37949 0
91.8918 6.85534 0
95.2642 3.16414 0
374.388 56.6988 0
371.05 52.9762 0
152.127 52.1109 0
149.698 56.4815 0
68.3249 18.3064 0
73.2975 17.7864 0
426.263 43.2819 0
430.192 46.3741 0
397.643 50.2119 0
392.643 50.2014 0
225.549 56.5846 0
223.882 51.8709 0
104.901 8.79009 0
99.9704 9.61968 0
263.401 28.3193 0
266.188 24.1676 0
27.7528 39.9696 0
22.7962 39.3106 0
251.176 30.171 0
247.219 33.2275 0
285.728 45.8971 0
280.762 45.3117 0
362.831 22.8251 0
359.792 18.8547 0
376.813 10.4136 0
379.839 6.4333 0
45.9518 54.367 0
48.7897 58.4837 0
209.621 4.81807 0
209.286 9.80696 0
474.013 35.2591 0
478.888 36.3709 0
459.566 55.849 0
454.699 54.7024 0
159.174 19.5653 0
154.246 20.4138 0
180.525 15.1437 0
185.236 16.8202 0
172.29 22.2063 0
176.429 19.4018 0
135.031 39.4852 0
136.515 44.26 0
15.5253 35.7891 0
14.4195 30.913 0
304.103 8.71565 0
299.956 5.92324 0
384.178 24.118 0
389.176 24.2606 0
464.224 2.01291 0
459.552 3.79416 0
331.302 31.0575 0
334.123 26.9293 0
35.847 37.5896 0
31.171 35.8186 0
184.288 31.2475 0
179.293 31.4617 0
463.783 54.8507 0
466.04 50.389 0
394.699 7.68762 0
399.688 7.37215 0
477.76 41.3893 0
482.481 39.7424 0
351.769 16.6124 0
353.08 11.7875 0
269.306 48.4496 0
273.964 46.6329 0
465.85 54.1099 0
465.44 59.0931 0
168.404 28.7133 0
172.557 25.9299 0
23.4601 32.9599 0
21.6738 28.2899 0
315.176 16.0145 0
311.432 12.7011 0
331.437 19.7828 0
336.147 21.4615 0
281.782 50.1682 0
283.681 54.7934 0
68.0349 14.5062 0
69.5141 19.2824 0
160.289 53.3849 0
164.481 50.6584 0
88.0696 11.3911 0
88.3136 6.39686 0
82.7081 59.5441 0
83.152 54.564 0
21.0432 43.9659 0
23.0092 48.5631 0
317.81 53.0996 0
319.786 57.6928 0
40.5975 17.7167 0
45.4054 16.3452 0
283.726 13.0184 0
280.835 17.0977 0
268.355 22.1588 0
270.672 17.728 0
125.82 31.0258 0
127.815 26.4407 0
59.5768 19.0079 0
60.6337 14.1208 0
292.497 54.4085 0
294.097 49.6713 0
315.084 7.72762 0
312.803 3.27849 0
90.5358 51.3315 0
90.5766 56.3312 0
454.932 35.9846 0
459.311 33.5726 0
160.725 4.89989 0
162.509 0.22915 0
339.869 13.2144 0
336.32 16.737 0
26.132 41.1585 0
29.796 37.7561 0
183.98 55.286 0
178.985 55.0429 0
312.827 9.56273 0
307.833 9.31171 0
28.8362 13.7549 0
25.12 17.0998 0
401.714 3.87215 0
406.476 5.39752 0
190.849 10.7508 0
188.446 15.1358 0
307.342 18.1518 0
311.718 15.7335 0
137.656 14.5797 0
137.473 9.58293 0
40.0277 11.6782 0
41.2322 6.82536 0
108.874 35.5975 0
112.131 39.3918 0
227.799 45.3454 0
232.762 45.949 0
121.042 17.7368 0
116.949 20.6088 0
289.05 39.4403 0
284.53 37.3031 0
194.273 11.5924 0
189.447 10.2875 0
50.2142 24.795 0
52.1915 20.2025 0
215.862 42.293 0
220.847 41.9024 0
421.587 38.4768 0
419.495 33.9354 0
449.855 25.1195 0
453.676 28.3442 0
200.014 51.7531 0
196.5 55.3105 0
65.2094 35.8886 0
69.2592 38.8211 0
287.493 24.4549 0
282.706 23.0116 0
155.745 53.7504 0
160.1 51.2925 0
402.132 53.7786 0
404.745 49.5152 0
495.057 27.3441 0
499.111 30.2709 0
238.793 28.7102 0
236.322 24.3634 0
126.071 34.7339 0
126.55 39.7109 0
440.924 9.16849 0
445.919 9.38017 0
61.6703 55.6225 0
66.0275 58.076 0
59.708 34.7837 0
55.785 37.884 0
452.29 37.0892 0
450.583 32.3895 0
84.9448 0.022139 0
87.7571 4.15615 0
429.765 22.8159 0
426.151 26.2713 0
220.899 1.18463 0
225.299 3.55905 0
304.585 39.3446 0
307.902 43.086 0
429.604 4.69706 0
428.728 -0.225613 0
339.186 45.1598 0
342.865 48.5455 0
334.161 28.0721 0
335.089 23.1591 0
148.359 19.3494 0
143.382 18.8787 0
343.928 26.5586 0
341.529 30.9453 0
378.343 10.7964 0
377.178 5.93403 0
22.6545 23.9413 0
25.3465 28.1547 0
249.107 17.6696 0
246.996 22.2021 0
450.803 28.1175 0
455.735 27.2981 0
180.527 37.2955 0
184.867 39.7785 0
136.247 9.77563 0
131.37 10.8727 0
64.9107 41.1378 0
63.8254 36.2571 0
486.516 48.9265 0
491.502 49.2983 0
69.2186 38.8955 0
69.216 33.8956 0
66.6042 35.192 0
69.3792 39.3513 0
320.927 31.0875 0
321.694 26.1466 0
449.163 17.366 0
451.073 12.7453 0
185.294 32.4109 0
181.296 35.4134 0
387.822 30.2751 0
384.943 26.1876 0
251.076 17.8839 0
246.473 15.9331 0
14.601 29.9598 0
17.1246 34.2762 0
24.9047 58.5264 0
29.6984 59.9503 0
153.891 27.7333 0
155.944 32.2922 0
178.197 57.9999 0
178.284 53.0008 0
128.426 8.35006 0
128.123 13.341 0
73.8894 0.885762 0
69.1846 2.57633 0
228.129 17.493 0
224.568 13.9828 0
330.447 6.87479 0
325.824 4.97239 0
160.158 52.0828 0
165.114 52.7532 0
488.609 35.4238 0
488.191 30.4413 0
133.438 28.1342 0
130.925 32.4565 0
21.4168 51.0112 0
23.0485 55.7373 0
379.232 12.9916 0
375.768 9.38608 0
85.0507 25.1354 0
87.0028 20.5321 0
85.2024 50.4573 0
84.9872 55.4525 0
157.52 6.83927 0
152.749 8.33338 0
352.218 16.633 0
356.924 18.3229 0
469.427 43.4139 0
474.301 44.5296 0
73.6036 5.53248 0
75.8937 9.97719 0
485.399 5.12229 0
482.135 1.33469 0
453.568 10.4178 0
448.591 10.8911 0
63.1306 16.1552 0
68.0879 15.5059 0
377.72 15.6076 0
381.434 12.2599 0
104.598 13.8624 0
99.9773 11.9519 0
49.582 29.8872 0
47.5258 34.4448 0
194.248 56.5007 0
192.609 51.777 0
317.338 42.0259 0
321.128 45.2877 0
102.987 46.4777 0
103.253 51.4705 0
94.3348 58.0823 0
95.7662 53.2916 0
26.1258 4.99804 0
23.4492 0.774912 0
212.86 23.262 0
217.652 24.69 0
1.64209 5.8326 0
5.6879 2.89528 0
225.714 12.6572 0
223.783 17.2693 0
310.709 19.909 0
314.395 16.5312 0
372.73 44.3905 0
368.007 46.032 0
482.858 21.9627 0
487.857 22.0552 0
163.918 34.2672 0
168.79 33.1416 0
495.47 44.2947 0
497.099 49.0216 0
113.767 1.44609 0
115.427 6.16266 0
75.7823 19.7124 0
70.9011 18.63 0
330.396 24.9721 0
335.396 24.9659 0
77.1375 54.7455 0
80.8651 58.0783 0
479.998 47.6607 0
484.939 46.8894 0
286.465 43.4542 0
286.949 48.4306 0
272.718 37.598 0
277.657 36.8187 0
110.462 43.2372 0
112.846 38.8425 0
331.33 16.1136 0
335.333 19.1104 0
229.596 33.6057 0
234.127 35.7193 0
143.555 50.0101 0
148.511 49.3419 0
30.4035 30.5955 0
28.7908 25.8627 0
84.9669 33.96 0
89.5312 36.0014 0
251.366 5.94328 0
250.295 10.8274 0
13.8714 25.1669 0
9.02239 26.3858 0
436.371 38.5414 0
440.301 41.632 0
456.994 25.2498 0
454.106 29.3316 0
450.631 54.0423 0
448.863 49.3653 0
132.142 49.6811 0
127.753 47.2855 0
251.034 16.2021 0
252.992 11.6015 0
488.238 7.5023 0
491.972 4.17644 0
474.114 45.8842 0
478.889 47.3683 0
20.7539 32.8073 0
18.9476 28.1451 0
143.323 9.18485 0
144.896 13.9309 0
458.126 55.6689 0
453.262 56.8244 0
17.0467 39.4422 0
15.8013 44.2846 0
169.226 15.2136 0
174.21 15.6076 0
248.771 32.9399 0
244.445 35.4481 0
110.555 35.6452 0
110.146 30.662 0
404.339 47.0935 0
404.304 42.0936 0
485.903 37.2969 0
485.831 42.2964 0
215.694 12.9288 0
211.177 10.7835 0
479.468 26.5028 0
477.268 30.9927 0
214.768 3.58248 0
213.755 8.47887 0
19.4389 16.3171 0
16.5821 12.2137 0
487.838 46.4646 0
489.108 51.3004 0
306.468 11.9717 0
301.665 13.3615 0
89.5604 27.246 0
84.6561 28.22 0
462.954 2.35938 0
463.879 7.27313 0
475.311 49.7468 0
476.325 54.6428 0
380.61 16.578 0
379.028 21.3213 0
39.6732 54.9801 0
34.9283 56.559 0
41.6727 44.4982 0
37.3081 42.0583 0
74.5329 51.9028 0
70.9746 48.3899 0
478.313 33.6878 0
477.38 28.7757 0
145.356 47.4471 0
144.495 42.5218 0
276.975 37.6988 0
278.03 42.5861 0
101.51 7.50842 0
102.804 2.67886 0
87.4084 31.1732 0
83.0076 28.8 0
387.478 39.3513 0
384.117 43.0531 0
324.22 24.3931 0
326.55 28.8174 0
28.0969 28.5161 0
23.7024 26.1311 0
178.905 6.18889 0
183.795 7.23061 0
368.693 30.2435 0
373.601 31.2003 0
390.152 40.3999 0
387.275 36.3104 0
366.382 21.4395 0
361.407 21.9373 0
336.134 30.8037 0
340.563 28.482 0
161.206 17.4558 0
166.193 17.8061 0
34.8121 24.2868 0
37.0053 28.7801 0
284.084 19.6734 0
284.528 14.6931 0
261.206 25.8411 0
265.006 29.0901 0
259.153 13.7382 0
255.666 17.321 0
360.067 14.5243 0
359.856 19.5199 0
79.5382 1.17664 0
74.6004 1.95869 0
393.826 15.0424 0
395.607 19.7146 0
490.466 54.8333 0
485.679 53.3869 0
160.223 20.7953 0
164.979 22.3397 0
311.348 36.3569 0
310.224 31.4849 0
216.4 57.3571 0
217.771 52.549 0
127.318 32.9579 0
129.659 28.5398 0
82.6701 31.5352 0
81.0158 26.8169 0
167.852 42.549 0
165.547 38.1116 0
475.617 30.5096 0
477.736 25.981 0
362.594 29.3563 0
366.302 26.0012 0
374.866 21.9604 0
376.678 17.3001 0
306.971 52.7377 0
302.324 50.8912 0
321.413 17.5833 0
317.268 14.7875 0
12.4157 47.754 0
9.15494 51.5447 0
277.094 26.0511 0
273.902 22.2028 0
262.906 55.6995 0
258.421 53.4896 0
374.89 17.4239 0
379.137 14.7857 0
260.283 43.3698 0
261.137 48.2963 0
252.454 27.6795 0
247.783 25.8951 0
439.151 40.0173 0
444.122 40.549 0
424.715 38.5842 0
422.406 34.1491 0
423.795 36.2128 0
426.361 40.5043 0
480.204 46.9042 0
484.132 43.8112 0
428.837 11.5044 0
425.129 8.14997 0
464.576 50.1189 0
462.968 54.853 0
398.119 49.9116 0
397.847 54.9041 0
109.203 50.0065 0
113.84 48.1348 0
135.758 41.5087 0
132.516 37.703 0
351.718 31.0774 0
347.418 28.5257 0
233.726 7.7809 0
230.355 11.4732 0
462.436 13.0943 0
465.227 8.94534 0
342.696 44.4089 0
337.725 44.9406 0
333.102 7.83285 0
337.411 5.29673 0
130.56 31.7804 0
127.119 28.1529 0
478.473 41.5622 0
475.24 37.7482 0
451.786 40.3416 0
447.054 38.7268 0
127.676 12.4463 0
123.163 10.2966 0
381.254 23.5985 0
381.783 28.5704 0
32.1219 52.406 0
27.9887 55.2204 0
173.829 14.4851 0
176.972 10.5961 0
457.797 52.297 0
455.367 47.9271 0
348.193 54.554 0
351.359 50.6838 0
341.227 1.76822 0
344.474 5.57002 0
25.8541 42.3595 0
21.0656 43.7996 0
54.0244 17.2118 0
50.1813 20.4101 0
485.894 15.6342 0
481.081 14.2793 0
337.469 44.8644 0
337.496 49.8643 0
288.13 48.2496 0
286.77 53.061 0
419.822 51.8828 0
416.149 48.4894 0
342.175 3.65376 0
342.673 8.62894 0
115.339 42.5518 0
117.456 38.022 0
368.59 42.7551 0
368.519 37.7556 0
255.121 16.0632 0
250.386 14.4599 0
60.8433 22.8097 0
58.4404 18.425 0
471.5 54.046 0
473.725 49.5684 0
469.022 54.5789 0
464.263 53.048 0
3.18095 22.2227 0
8.03426 23.4242 0
199.453 46.1556 0
204.366 45.2266 0
214.588 39.1457 0
217.835 42.9479 0
0.188486 53.5586 0
2.98907 49.4163 0
55.7241 32.9775 0
60.6637 33.7527 0
151.584 39.6285 0
146.587 39.4599 0
11.4282 27.6768 0
6.82855 29.6372 0
455.15 10.4873 0
460.091 9.72392 0
317.897 44.5094 0
321.478 47.9993 0
216.598 19.825 0
213.781 15.6939 0
82.3991 46.9558 0
77.4079 46.6531 0
481.135 29.6673 0
483.361 34.1447 0
192.091 40.6707 0
197.073 41.0973 0
289.827 20.9285 0
291.068 16.085 0
6.12101 4.89321 0
1.44091 3.13548 0
196.817 52.2633 0
201.725 51.3051 0
61.3296 53.6773 0
59.1422 49.1811 0
230.164 31.2806 0
232.72 35.5779 0
74.4618 54.7615 0
79.1075 56.6115 0
277.198 42.2413 0
281.199 45.2408 0
352.812 48.311 0
350.643 52.8161 0
106.737 50.336 0
111.223 48.1267 0
130.119 34.8267 0
125.771 32.3575 0
284.585 47.2786 0
279.637 46.5617 0
67.7369 28.4504 0
64.0381 31.8149 0
5.55056 31.7602 0
4.04158 36.5271 0
390.148 17.4122 0
394.974 16.1054 0
373.422 35.281 0
377.746 32.77 0
306.228 51.9464 0
306.288 56.946 0
85.9302 12.4195 0
80.9315 12.3291 0
144.432 12.9965 0
142.725 17.696 0
207.092 43.3595 0
208.663 38.6128 0
67.3872 3.46808 0
62.814 5.48819 0
116.332 28.582 0
115.13 23.7286 0
226.081 12.2067 0
230.499 14.5482 0
461.747 30.7316 0
459.029 34.9287 0
435.059 20.761 0
430.151 21.7188 0
427.131 32.5895 0
424.08 36.5507 0
371.02 27.7267 0
367.332 31.1032 0
492.865 50.5505 0
496.971 53.4035 0
331.693 24.9616 0
331.965 29.9542 0
448.431 3.21991 0
453.224 1.79573 0
177.802 43.0825 0
179.93 47.6073 0
200.579 46.6116 0
204.478 43.4815 0
216.637 27.3936 0
211.725 28.3248 0
379.465 31.0542 0
374.564 32.0422 0
414.327 48.6464 0
410.806 45.0968 0
56.1919 14.4277 0
56.5909 9.44348 0
217.115 26.2601 0
212.181 25.4499 0
11.7313 32.9487 0
11.7046 27.9488 0
442.596 44.7985 0
447.553 45.4584 0
69.1527 9.25496 0
74.1522 9.23547 0
242.868 26.4654 0
243.598 21.5189 0
150.593 28.2437 0
155.12 26.12 0
184.269 14.5816 0
183.148 19.4545 0
340.464 1.4815 0
337.874 5.75845 0
47.5725 37.2359 0
44.2065 33.5385 0
364.91 42.1096 0
364.863 47.1094 0
461.013 58.8913 0
463.495 54.551 0
342.403 25.8182 0
340.484 21.2013 0
203.037 43.0091 0
199.782 46.8048 0
85.06 26.9783 0
89.8186 28.5129 0
31.5487 51.6017 0
28.3051 55.4071 0
63.0288 3.98351 0
66.3357 7.73356 0
104.738 21.1224 0
109.285 23.2026 0
77.1636 48.7392 0
82.1276 48.1362 0
458.396 54.1137 0
459.517 49.241 0
3.80829 51.0689 0
8.78782 51.5275 0
56.2621 46.0327 0
61.1487 47.0936 0
221.526 31.5562 0
225.058 35.0954 0
69.7789 9.04977 0
74.2298 6.77248 0
449.639 20.9812 0
452.934 24.7412 0
323.801 47.2613 0
318.801 47.2587 0
293.82 38.4553 0
289.37 40.7348 0
246.499 15.7874 0
251.486 15.4292 0
488.871 52.5533 0
488.008 57.4783 0
477.727 4.21894 0
480.349 8.47624 0
12.1792 56.102 0
14.821 51.8567 0
7.83612 6.39545 0
12.7896 7.07079 0
315.583 23.3163 0
319.691 20.4661 0
122.594 54.4495 0
127.455 55.6255 0
455.834 47.8292 0
453.598 52.3014 0
238.088 43.658 0
234.744 39.9406 0
185.843 56.836 0
181.452 54.4431 0
473.513 24.2811 0
476.987 27.8763 0
152.266 30.6831 0
157.245 30.2235 0
192.428 10.2836 0
195.594 14.1536 0
192.288 56.0966 0
187.325 55.4878 0
50.2195 9.59172 0
55.2189 9.55435 0
194.99 5.33736 0
195.765 0.397684 0
248.28 8.13167 0
253.016 9.73585 0
151.304 26.3465 0
147.212 23.473 0
238.453 12.4234 0
242.494 15.3687 0
211.652 19.4353 0
212.68 14.5421 0
401.438 17.8949 0
401.825 12.9099 0
415.299 5.0393 0
411.615 1.65837 0
374.798 55.3833 0
369.877 54.4962 0
211.311 7.79431 0
207.52 4.53522 0
222.909 23.3089 0
224.418 28.0756 0
1.29942 56.5613 0
5.92688 54.6657 0
340.48 43.0371 0
345.159 41.2723 0
209.712 34.1954 0
214.215 32.0203 0
18.6212 19.7114 0
23.5044 20.7848 0
434.602 -0.059893 0
439.18 1.94942 0
376.01 53.4853 0
379.586 49.9912 0
117.204 24.4087 0
112.329 23.3002 0
226.471 34.2197 0
230.172 30.8579 0
151.119 30.3631 0
149.103 25.7875 0
491.571 28.3962 0
494.847 24.6195 0
105.834 48.5446 0
110.512 46.7768 0
360.445 5.69948 0
359.636 0.765295 0
18.1557 20.6784 0
13.6988 18.4127 0
145.374 53.9771 0
148.356 57.9906 0
414.36 44.2311 0
413.376 39.3289 0
115.611 51.2055 0
115.896 46.2138 0
40.4627 38.1289 0
45.453 37.8156 0
47.4721 23.286 0
43.0092 25.5401 0
79.8958 53.9249 0
75.8095 51.0431 0
491.677 41.643 0
494.43 45.8164 0
332.71 54.1936 0
328.169 56.2858 0
17.0334 9.67672 0
21.7967 8.1583 0
494.157 32.8127 0
497.879 36.152 0
224.885 22.4085 0
229.338 20.1352 0
328.894 8.07468 0
332.534 4.64723 0
343.826 17.6712 0
339.67 20.4503 0
272.473 25.7678 0
268.954 29.3204 0
2.44503 55.0611 0
6.46547 58.0343 0
184.465 29.9542 0
185.559 25.0753 0
13.8483 20.4702 0
9.68012 23.2316 0
322.198 34.2368 0
322.711 39.2105 0
416.165 36.8888 0
419.039 40.98 0
472.509 8.08473 0
472.607 13.0838 0
162.424 7.30827 0
157.775 9.14697 0
460.175 52.6935 0
458.919 47.8537 0
350.838 4.86076 0
346.319 2.72298 0
244.567 15.3042 0
241.514 19.2633 0
314.205 33.7234 0
318.357 36.5092 0
446.518 13.9809 0
441.97 11.9041 0
23.3477 24.3893 0
27.5263 21.6437 0
252.998 10.977 0
248.553 13.2673 0
62.2204 11.8376 0
57.6157 9.89013 0
283.517 50.9924 0
284.52 46.094 0
257.615 58.2444 0
253.989 54.8009 0
387.41 28.0511 0
391.024 24.5956 0
451.606 8.33659 0
450.512 3.45787 0
353.176 29.4816 0
348.279 30.4907 0
338.246 13.9531 0
337.612 8.99341 0
450.319 49.7277 0
454.476 52.5061 0
459.072 21.5066 0
464.064 21.2155 0
470.169 20.3903 0
469.315 15.4639 0
239.35 39.5046 0
242.696 35.7896 0
59.0715 24.6002 0
61.2066 29.1214 0
325.88 31.8568 0
324.583 36.6856 0
463.019 53.4626 0
460.469 57.7633 0
366.715 15.549 0
368.006 20.3792 0
109.722 53.703 0
113.241 57.2549 0
55.2734 49.6651 0
55.3747 44.6662 0
253.211 31.6874 0
257.787 33.7006 0
305.642 19.7531 0
310.116 21.9843 0
70.0535 4.56586 0
70.5301 9.54325 0
160.932 26.2656 0
164.477 22.7404 0
365.777 50.3888 0
362.618 46.5135 0
345.973 3.31227 0
343.275 7.52179 0
355.201 26.3724 0
358.92 29.7144 0
182.723 24.039 0
186.012 20.273 0
406.541 10.9209 0
401.787 12.4691 0
286.807 31.5218 0
282.637 34.28 0
233.444 34.9297 0
229.748 31.5618 0
216.248 17.9915 0
215.616 22.9514 0
317.625 41.8945 0
314.341 38.1242 0
136.296 29.9654 0
137.591 25.1357 0
221.081 48.0533 0
225.868 49.4955 0
380.751 19.7253 0
381.206 14.7461 0
73.5875 35.4845 0
77.8489 32.8689 0
7.12498 22.7062 0
5.53182 27.4456 0
159.184 10.6949 0
161.942 6.52487 0
252.903 31.7333 0
247.965 30.9483 0
251.498 44.1887 0
256.299 45.5863 0
284.872 50.1171 0
287.766 46.04 0
273.392 20.2663 0
278.015 22.1696 0
283.691 14.9129 0
280.992 10.7039 0
162.363 16.7162 0
167.315 16.0288 0
13.5425 23.4063 0
10.8891 27.6442 0
105.344 42.2897 0
109.023 38.9037 0
67.8343 55.4499 0
67.5014 50.4611 0
79.6492 26.3711 0
76.2661 30.0529 0
467.041 45.8623 0
470.914 49.0243 0
96.491 48.368 0
96.7971 53.3585 0
229.235 30.8544 0
225.71 27.3081 0
215.843 11.4244 0
220.559 13.082 0
193.077 39.4011 0
188.976 42.2622 0
413.785 21.7516 0
409.272 23.9034 0
307.937 16.7972 0
312.505 18.83 0
469.291 26.3166 0
470.065 31.2565 0
100.858 46.3262 0
105.689 45.0358 0
109.988 51.261 0
108.104 55.8923 0
361.024 11.0274 0
360.28 6.08303 0
372.325 33.4948 0
375.024 29.2854 0
120.168 7.02453 0
124.905 8.62306 0
311.897 36.3412 0
316.591 38.0639 0
456.256 46.0559 0
452.805 42.4372 0
118.878 47.4885 0
116.209 51.7167 0
138.199 22.6545 0
142.261 19.7393 0
66.9139 29.9402 0
70.7835 33.1066 0
360.5 27.8101 0
365.231 29.4296 0
240.327 51.768 0
245.18 52.9719 0
155.803 54.0528 0
154.505 49.2244 0
114.645 46.127 0
119.478 44.8454 0
270.67 15.6146 0
275.574 16.5923 0
229.43 6.89506 0
227.098 2.47226 0
99.4129 50.1877 0
101.028 45.4558 0
121.27 59.6055 0
117.663 56.1426 0
255.474 13.1431 0
256.454 8.23989 0
349.838 24.0012 0
348.983 28.9276 0
230.238 4.13791 0
227.319 0.0786752 0
437.246 40.8785 0
440.324 44.8189 0
216.649 52.2001 0
211.649 52.202 0
370.757 25.8748 0
369.811 20.9652 0
243.627 45.516 0
247.962 48.0067 0
470.585 6.92728 0
465.587 6.78644 0
163.373 28.4738 0
160.119 24.6773 0
125.736 27.6754 0
125.072 22.7197 0
116.571 42.8962 0
112.268 45.4424 0
160.558 24.0464 0
163.624 20.0966 0
350.661 43.5542 0
355.425 45.0737 0
151.732 27.8988 0
154.376 23.6556 0
288.1 6.45575 0
284.054 9.39377 0
209.543 1.34222 0
211.196 6.0611 0
124.39 5.3468 0
129.053 7.15146 0
476.129 12.7912 0
473.289 8.67573 0
77.4654 27.3499 0
75.0287 31.716 0
371.216 6.88352 0
366.221 6.66196 0
300.337 47.9226 0
295.385 48.6188 0
156.837 29.5076 0
159.061 25.0295 0
273.747 10.8764 0
270.277 14.4759 0
188.024 38.7823 0
189.819 34.1155 0
122.731 14.306 0
126.617 11.1601 0
160.351 40.8592 0
165.351 40.8569 0
475.94 43.9209 0
473.193 39.7428 0
301.046 52.4525 0
297.968 56.3927 0
43.7585 41.5511 0
43.3532 36.5676 0
83.5664 37.8296 0
81.9957 42.5764 0
391.033 51.8456 0
390.124 46.929 0
54.2459 35.9112 0
56.5556 31.4766 0
170.551 10.9706 0
166.556 13.9771 0
316.162 25.1487 0
311.162 25.1609 0
254.466 23.4997 0
251.978 19.1627 0
406.327 52.0274 0
407.009 47.0742 0
480.6 15.5616 0
477.504 19.4879 0
457.209 27.6005 0
455.553 22.8826 0
494.317 39.7848 0
492.991 34.9637 0
247.465 37.2531 0
248.623 42.1172 0
483.929 29.7967 0
487.624 33.1647 0
144.601 26.5904 0
149.122 28.7264 0
92.6322 42.8281 0
92.5989 47.8279 0
375.964 2.70598 0
380.794 1.4153 0
46.5525 30.4812 0
51.3329 31.9468 0
420.031 12.7694 0
418.301 17.4607 0
280.937 39.3943 0
284.128 35.5448 0
126.446 57.9822 0
131.405 57.3434 0
60.3217 6.35625 0
62.1772 10.9993 0
118.05 29.2846 0
113.793 26.6626 0
319.063 13.9376 0
319.101 8.93767 0
166.402 55.1869 0
164.977 50.3943 0
218.666 28.9134 0
221.35 33.132 0
446.898 47.3876 0
446.793 52.3865 0
366.195 9.90697 0
367.409 5.05661 0
448.839 39.4003 0
453.755 38.4864 0
233.523 39.0711 0
230.234 35.3051 0
78.9372 50.7341 0
78.406 45.7625 0
56.3609 25.0735 0
61.1405 23.6057 0
91.1648 45.746 0
92.8955 50.4368 0
59.6845 9.64844 0
61.5651 14.2813 0
223.008 13.614 0
218.03 13.1542 0
142.517 23.6563 0
142.515 18.6562 0
316.403 59.2505 0
319.386 55.2378 0
332.902 31.7932 0
334.844 27.186 0
489.732 25.1624 0
485.811 22.0593 0
121.612 5.92789 0
119.733 10.5616 0
223.879 47.4675 0
227.958 44.5764 0
287.359 30.0346 0
283.931 26.3941 0
176.846 8.97309 0
181.836 8.65517 0
119.044 56.3697 0
122.634 59.8495 0
37.5399 47.4381 0
41.8306 44.8704 0
149.548 44.8692 0
152.875 41.1371 0
428.616 33.1169 0
432.315 29.7521 0
293.938 16.8756 0
293.202 21.8211 0
396.688 7.62102 0
401.637 8.33541 0
465.013 53.8169 0
469.992 54.2815 0
92.8681 48.1176 0
91.7478 52.9904 0
229.202 16.8221 0
233.911 18.5015 0
47.0046 48.7243 0
42.0456 49.3671 0
126.851 25.3552 0
122.034 24.0178 0
144.87 36.316 0
147.766 32.24 0
271.09 37.8419 0
274.087 41.8442 0
55.4489 46.4969 0
52.3954 50.4564 0
22.1084 30.6845 0
17.1616 29.9571 0
223.408 54.032 0
221.317 58.574 0
413.717 48.1782 0
413.809 53.1774 0
339.701 6.03741 0
344.341 7.90008 0
445.474 31.4142 0
448.054 27.1312 0
5.95142 10.3091 0
3.99871 14.9121 0
366.318 46.9325 0
368.554 51.4044 0
344.596 27.5771 0
343.048 22.8229 0
450.695 22.8306 0
445.734 23.4533 0
295.196 39.8526 0
291.27 36.7561 0
287.276 16.5246 0
291.636 18.9708 0
306.543 49.0366 0
310.868 51.5455 0
254.068 52.0167 0
250.128 48.9381 0
10.0922 47.8376 0
8.28454 43.1758 0
466.401 7.95649 0
461.402 8.03551 0
56.6659 20.2588 0
55.2944 25.067 0
133.775 11.0098 0
138.139 13.449 0
269.643 43.5359 0
264.846 44.9473 0
281.636 45.3205 0
286.618 45.7467 0
179.65 55.5922 0
183.426 58.8697 0
355.876 8.91055 0
350.978 7.90339 0
317.541 54.8722 0
321.593 51.9421 0
249.82 45.0353 0
248.963 40.1094 0
427.483 33.7017 0
424.781 37.9094 0
319.043 48.6925 0
320.888 53.3392 0
438.952 30.4481 0
443.296 27.9717 0
197.249 10.0737 0
193.218 7.11587 0
16.046 11.552 0
13.1265 15.6111 0
157.498 52.8727 0
162.209 54.5487 0
203.823 18.2946 0
204.784 13.3879 0
211.809 16.8635 0
207.778 19.8223 0
352.428 20.9991 0
347.491 21.7866 0
477.439 11.2275 0
474.329 15.143 0
329.903 36.5305 0
334.109 39.2345 0
198.912 49.6369 0
198.784 44.6387 0
451.074 27.3791 0
446.135 28.1599 0
66.4652 33.9319 0
62.6087 37.1145 0
175.651 38.053 0
180.313 36.2436 0
286.875 14.8985 0
282.769 17.7513 0
167.956 13.2128 0
167.893 8.21309 0
184.036 19.7242 0
179.125 18.785 0
264.408 49.0322 0
263.482 44.1188 0
184.448 17.5423 0
188.489 20.486 0
222.197 14.8742 0
217.224 15.3888 0
182.715 4.53553 0
185.668 0.50082 0
479.864 35.9203 0
484.412 37.9967 0
484.057 35.2606 0
479.066 35.5622 0
48.7301 12.2899 0
43.8604 11.158 0
380.929 13.9299 0
378.492 9.56413 0
179.914 30.8585 0
175.573 33.3404 0
444.833 19.0771 0
447.808 23.0956 0
212.505 57.5897 0
217.415 58.5378 0
426.507 33.7695 0
421.908 31.808 0
208.495 50.2876 0
206.069 54.6598 0
105.814 21.4492 0
109.637 18.2259 0
147.176 48.9854 0
144.102 45.0417 0
284.771 26.7703 0
287.987 30.5989 0
307.081 52.0983 0
304.111 48.0758 0
409.431 14.2675 0
413.83 11.8918 0
378.893 22.1298 0
374.664 19.4627 0
350.429 46.1522 0
355.412 46.5677 0
479.773 25.6772 0
476.191 22.188 0
21.6029 51.4507 0
17.2594 48.9732 0
155.256 58.3942 0
155.977 53.4466 0
444.498 44.0131 0
440.059 46.3146 0
449.525 48.0359 0
447.536 52.6232 0
232.26 35.6577 0
230.179 31.1114 0
302.161 13.3119 0
299.018 9.42338 0
479.964 54.6019 0
477.37 50.3276 0
380.727 25.5194 0
384.448 28.8586 0
339.27 47.5053 0
339.203 52.5048 0
285.136 2.8803 0
285.667 7.85215 0
415.269 23.4641 0
413.325 28.0708 0
427.076 25.5619 0
426.2 30.4845 0
1.04148 7.61678 0
6.03316 7.89437 0
491.128 10.6938 0
488.421 6.48977 0
19.7029 6.13358 0
24.3846 4.37973 0
153.625 19.3566 0
157.319 15.9865 0
252.054 11.1014 0
251.057 16.0009 0
207.669 6.69608 0
211.068 10.3633 0
314.328 20.4137 0
318.867 18.3155 0
460.471 15.1469 0
456.124 12.677 0
86.7795 39.8533 0
83.7428 35.8811 0
58.5952 39.193 0
56.8445 43.8764 0
176.885 28.3889 0
172.288 26.422 0
104.787 48.1667 0
100.338 45.8842 0
76.0624 44.5158 0
78.6849 40.2587 0
40.9069 32.4551 0
45.1559 29.8194 0
221.216 16.5635 0
225.079 19.7378 0
151.43 55.6215 0
146.969 53.3635 0
438.625 41.4118 0
441.473 45.522 0
480.529 22.6317 0
485.4 21.5025 0
406.184 46.6273 0
408.816 50.8784 0
163.512 26.1165 0
168.477 26.7094 0
130.105 10.6583 0
129.307 15.5943 0
154.256 24.9202 0
151.158 20.9954 0
234.934 15.0272 0
235.402 10.049 0
31.2186 18.8581 0
33.6288 23.2388 0
373.666 17.4687 0
377.727 14.5517 0
234.652 42.842 0
229.781 43.9731 0
453.226 39.9792 0
450.839 35.5856 0
78.6668 6.76806 0
83.5709 7.73994 0
131.55 35.3674 0
126.756 33.9486 0
417.529 11.8581 0
417.992 16.8367 0
36.091 18.3988 0
38.7132 14.1416 0
283.665 2.64605 0
278.803 3.80855 0
393.476 45.8417 0
398.438 45.2237 0
33.272 42.1598 0
38.1877 43.0759 0
322.816 10.617 0
320.392 6.24389 0
381.605 55.125 0
380.993 50.1625 0
129.499 37.6833 0
133.627 40.5053 0
426.632 16.1913 0
430.85 18.8754 0
344.14 3.70164 0
339.232 4.656 0
290.679 26.089 0
286.655 23.1214 0
132.371 47.0912 0
135.984 43.6343 0
172.738 52.7655 0
177.563 51.4528 0
338.519 5.61276 0
338.772 0.619095 0
115.497 12.1435 0
119.841 9.66886 0
256.442 40.943 0
257.296 45.8694 0
306.824 1.8456 0
301.825 1.92208 0
224.125 42.8003 0
219.227 41.7904 0
328.844 15.2165 0
324.351 17.4106 0
59.3304 36.463 0
61.8476 32.1428 0
489.207 26.1173 0
492.737 29.6591 0
26.4196 25.5759 0
26.5639 20.5779 0
45.2301 7.60408 0
44.353 12.5267 0
344.167 43.3698 0
342.176 47.9565 0
36.0193 37.3316 0
39.8275 34.0915 0
100.665 3.14101 0
95.7577 4.09537 0
340.131 8.06551 0
342.019 12.6951 0
380.882 18.7706 0
382.498 14.0387 0
325.222 39.0498 0
321.148 41.9481 0
459.045 6.44745 0
461.589 2.14349 0
300.798 5.12594 0
296.595 7.83501 0
115.535 34.5144 0
111.259 31.9241 0
1.99085 28.834 0
6.65811 30.6275 0
7.70933 16.217 0
2.99237 17.8746 0
147.741 29.2037 0
150.045 24.7663 0
252.469 27.253 0
252.093 32.2389 0
381.08 3.57372 0
378.859 8.0536 0
380.272 34.9485 0
385.189 34.0461 0
278.561 20.5703 0
273.58 20.1429 0
450.525 40.2579 0
446.375 43.0462 0
209.787 7.57322 0
206.385 11.2373 0
432.357 52.8225 0
436.557 55.5353 0
269.396 39.0366 0
268.565 43.967 0
258.351 42.5392 0
254.604 39.2281 0
480.885 53.6527 0
479.269 58.3842 0
255.853 59.2536 0
252.263 55.7728 0
89.5577 11.0616 0
85.0745 13.2746 0
134.879 47.6077 0
138.954 50.5059 0
287.708 22.7218 0
288.047 17.7332 0
44.9744 10.5937 0
48.1679 6.74651 0
479.626 30.5641 0
477.676 25.9598 0
31.5455 5.17578 0
30.081 9.95663 0
419.333 50.2904 0
419.337 45.2904 0
278.21 51.0652 0
276.72 55.8378 0
232.322 33.1209 0
230.06 37.5804 0
16.0693 9.70527 0
20.4034 7.21298 0
58.9293 58.4152 0
53.9304 58.2814 0
136.344 19.5156 0
141.309 20.1082 0
237.837 59.748 0
233.923 56.6364 0
364.109 39.8992 0
366.498 44.2912 0
288.754 47.8614 0
289.335 42.8953 0
372.765 20.5144 0
372.472 25.5058 0
74.2289 8.85655 0
78.4349 11.5595 0
371.383 44.5658 0
372.962 49.3101 0
100.037 13.0749 0
97.9264 8.54238 0
378.117 5.02313 0
383.017 4.02989 0
173.232 5.65621 0
168.294 4.87614 0
317.173 10.3464 0
321.334 13.1187 0
267.092 50.1392 0
265.602 54.9119 0
235.662 8.79964 0
230.904 10.334 0
439.885 45.8673 0
434.947 46.6568 0
57.2985 54.1567 0
60.2876 58.165 0
58.641 44.911 0
63.4116 46.4091 0
54.3077 47.1604 0
59.2871 47.6193 0
9.37687 54.4003 0
4.66975 56.0884 0
51.4712 39.8011 0
48.4058 35.851 0
261.602 8.54203 0
257.327 5.9489 0
147.275 37.2964 0
146.73 32.3262 0
439.555 18.121 0
440.319 23.0623 0
250.579 53.8644 0
246.589 56.8788 0
278.693 38.0751 0
283.692 38.1536 0
245.901 27.2011 0
244.795 22.325 0
279.244 31.1521 0
281.403 35.6617 0
309.495 56.4003 0
308.559 51.4887 0
32.3616 38.4691 0
27.3649 38.6572 0
139.384 58.819 0
141.109 54.1259 0
133.304 19.6113 0
134.696 24.4136 0
86.134 50.2422 0
87.8258 45.5372 0
85.757 12.208 0
90.4079 14.0425 0
171.393 17.3119 0
174.896 20.8793 0
323.183 32.9517 0
328.162 32.4965 0
16.8133 52.234 0
21.5842 50.736 0
16.0719 26.5989 0
11.8681 29.306 0
392.171 13.5611 0
390.626 18.3164 0
276.134 48.2486 0
275.803 53.2375 0
164.178 13.3056 0
169.139 12.6884 0
370.54 10.8244 0
373.116 6.53894 0
73.5494 6.41465 0
74.3709 11.3468 0
121.937 6.58615 0
118.173 9.87739 0
133.826 11.5651 0
133.888 6.56531 0
219.042 10.2193 0
216.061 14.2336 0
1.36594 54.886 0
5.9542 56.8744 0
249.566 24.977 0
252.63 28.9286 0
155.496 50.6736 0
160.158 52.4811 0
433.529 10.4272 0
435.495 15.0245 0
491.782 45.583 0
496.022 48.2334 0
119.404 52.2793 0
117.06 47.8629 0
204.46 20.621 0
204.661 15.625 0
337.287 23.1329 0
341.291 20.1381 0
457.657 28.9929 0
456.082 24.2474 0
81.015 16.6448 0
85.2072 13.9202 0
478.18 40.6744 0
483.176 40.4628 0
396.193 13.8554 0
396.614 18.8377 0
280.712 17.9846 0
277.325 14.3067 0
33.6619 2.588 0
35.8564 7.08073 0
440.355 35.3201 0
445.175 33.9893 0
453.245 25.4427 0
448.359 26.5057 0
329.456 7.14437 0
325.03 4.81762 0
256.075 12.4069 0
260.572 10.2218 0
104.158 52.2268 0
104.803 57.1849 0
56.4814 54.8631 0
61.3482 56.0124 0
343.231 20.6214 0
345.973 24.8024 0
240.942 34.2194 0
243.586 38.4631 0
244.158 24.6315 0
241.432 20.4399 0
34.7535 21.4837 0
34.7941 26.4835 0
267.048 14.5501 0
266.033 19.4461 0
174.991 47.8316 0
179.518 49.9553 0
329.005 13.0274 0
331.915 8.9618 0
341.343 55.868 0
337.177 58.6323 0
109.964 53.2427 0
112.019 57.8009 0
115.284 22.2972 0
112.496 18.1467 0
249.882 22.9075 0
245.555 25.4132 0
360.898 34.3413 0
365.423 36.4679 0
160.211 38.9049 0
157.014 42.7493 0
397.841 14.6703 0
393.985 11.487 0
219.93 4.88585 0
214.933 4.71837 0
110.599 48.2319 0
114.977 45.8151 0
89.3141 50.6516 0
93.9111 52.6192 0
497.557 21.9648 0
496.439 26.8384 0
77.637 52.3793 0
78.6918 57.2666 0
181.533 12.8232 0
182.07 17.7943 0
462.974 24.8566 0
459.071 27.9828 0
117.841 56.5609 0
114.788 52.6005 0
257.986 39.0934 0
261.533 35.5691 0
223.104 17.192 0
220.093 21.1834 0
375.356 54.1789 0
373.193 49.671 0
257.086 37.9425 0
256.287 33.0069 0
252.705 57.2118 0
247.98 58.8475 0
114.761 46.0966 0
114.864 41.0977 0
435.664 43.3431 0
440.552 42.2895 0
146.513 47.1991 0
150.964 49.477 0
147.954 51.8482 0
152.719 53.3641 0
122.818 55.6661 0
120.755 51.1119 0
284.26 27.3918 0
281.655 31.6594 0
271.088 38.9939 0
276.086 38.8529 0
249.974 52.1489 0
244.992 51.7153 0
244.843 53.9919 0
247.374 58.304 0
417.78 38.4114 0
417.96 33.4146 0
456.064 13.6942 0
452.142 16.7953 0
37.1446 10.2169 0
33.196 7.14998 0
95.4411 59.2445 0
90.6098 57.9541 0
130.87 11.0603 0
133.819 15.0976 0
257.63 14.4899 0
255.085 18.7934 0
262.858 46.517 0
259.249 43.0568 0
233.652 40.5696 0
228.696 39.9071 0
37.4073 45.7933 0
41.4674 48.7118 0
461.776 11.5675 0
462.471 6.61599 0
75.8089 53.0399 0
72.1849 56.4851 0
198.242 14.1755 0
203.224 14.6038 0
242.803 4.39833 0
243.421 9.36012 0
378.686 58.426 0
373.695 58.1301 0
189.62 18.2484 0
186.153 14.6457 0
183.74 28.4833 0
185.87 23.9598 0
140.894 41.189 0
140.153 46.1336 0
258.705 9.26104 0
254.377 6.7581 0
413.502 24.1583 0
415.151 28.8787 0
192.142 9.27956 0
188.549 12.7562 0
84.3464 8.67101 0
89.0198 10.4474 0
149.977 38.7527 0
144.983 38.5137 0
394.561 1.15197 0
395.26 6.10288 0
436.975 55.0935 0
431.996 54.6284 0
141.329 32.1887 0
140.714 27.2267 0
319.163 33.9592 0
318.61 28.9898 0
279.371 36.6499 0
280.222 41.577 0
235.771 38.3292 0
240.566 36.9118 0
189.023 43.629 0
194.023 43.662 0
320.314 20.3244 0
324.684 22.7544 0
280.546 0.328057 0
285.527 0.759461 0
25.5129 5.88426 0
23.6917 10.5409 0
285.477 59.0497 0
290.258 57.5857 0
479.736 50.7614 0
479.246 45.7855 0
253.46 50.4985 0
249.997 54.1058 0
435.949 28.6842 0
440.601 26.8519 0
317.184 30.4253 0
317.907 35.3728 0
23.2767 15.2524 0
22.7369 10.2815 0
393.649 4.18744 0
390.192 0.574328 0
121.748 9.23547 0
119.928 13.8924 0
468.013 2.29957 0
470.059 6.86167 0
327.764 52.0792 0
332.572 53.4528 0
342.092 10.6171 0
347.03 9.82996 0
347.995 20.0352 0
344.34 23.4471 0
317.373 8.89989 0
320.54 12.7686 0
242.289 21.0071 0
240.404 16.3757 0
269.935 3.80387 0
265.722 1.11188 0
18.9687 51.8574 0
23.9692 51.8895 0
80.9681 11.6263 0
85.9562 11.9647 0
14.2312 20.9407 0
9.30666 20.0766 0
316.552 46.5296 0
312.076 48.7578 0
31.267 3.56327 0
32.3374 8.44752 0
48.3338 51.6699 0
43.3337 51.7372 0
316.413 47.8435 0
311.499 48.7727 0
217.33 17.8968 0
215.578 13.2137 0
80.8236 18.8573 0
83.127 23.2951 0
315.992 28.544 0
312.913 24.6051 0
304.087 52.1609 0
304.795 57.1104 0
21.1299 34.5453 0
20.3595 29.605 0
184.664 56.9663 0
179.669 56.7213 0
184.316 53.3549 0
179.315 53.332 0
254.102 3.38598 0
249.95 0.599977 0
257.656 29.402 0
252.659 29.572 0
422.56 25.5026 0
417.703 24.3172 0
430.224 31.154 0
425.457 29.6456 0
310.814 11.9557 0
305.863 12.6505 0
270.926 41.2113 0
270.822 36.2124 0
54.1077 28.224 0
49.6147 30.418 0
25.8004 3.86217 0
24.1622 8.58629 0
124.511 40.7162 0
121.84 44.9436 0
1.07196 30.4928 0
4.96306 33.6328 0
241.931 54.5182 0
245.938 57.5085 0
376.718 36.3002 0
381.64 37.1791 0
57.103 56.0808 0
52.2402 57.2466 0
378.405 36.6883 0
377.925 31.7115 0
199.967 12.4781 0
198.574 17.28 0
349.983 19.2048 0
353.93 16.135 0
173.076 19.6777 0
168.596 17.4579 0
365.048 7.92608 0
360.095 8.60596 0
172.135 14.0918 0
177.135 14.1383 0
79.5497 24.0407 0
78.277 28.876 0
434.067 41.8931 0
429.172 40.8706 0
67.0664 11.6506 0
70.2564 15.5007 0
354.159 47.4847 0
356.739 43.2016 0
16.4154 53.4517 0
20.6948 56.0384 0
173.853 45.6667 0
170.693 49.5416 0
188.437 21.2638 0
183.719 19.6097 0
241.353 32.711 0
245.88 34.8322 0
117.255 0.49682 0
115.133 5.02422 0
274.87 43.7126 0
278.957 40.8319 0
51.6885 59.2014 0
47.2506 56.8969 0
133.52 49.7769 0
129.1 47.4387 0
184.34 5.28324 0
179.903 7.58739 0
189.51 56.9785 0
185.23 54.3921 0
9.24864 15.3879 0
9.70612 20.367 0
407.075 2.60901 0
411.354 0.0212282 0
359.586 36.7965 0
355.652 33.7107 0
16.9534 4.46734 0
15.6177 9.28577 0
340.939 5.09615 0
344.724 8.36269 0
58.7326 33.773 0
57.7875 38.6829 0
332.29 34.0453 0
336.537 36.6839 0
179.307 16.5547 0
178.738 21.5223 0
171 53.1605 0
175.69 54.897 0
18.3619 18.7397 0
13.366 18.9332 0
182.127 20.465 0
184.007 15.8321 0
288.86 48.1591 0
284.215 50.0109 0
305.122 52.6732 0
309.47 55.1436 0
413.024 9.2896 0
414.987 4.69091 0
339.274 36.617 0
334.278 36.8197 0
228.656 32.6132 0
225.931 28.4212 0
36.0336 26.5571 0
39.2778 30.3616 0
354.685 12.0492 0
349.732 12.732 0
441.724 27.8083 0
436.729 27.5812 0
415.198 41.6602 0
416.072 46.5834 0
389.701 40.5185 0
386.874 36.3945 0
450.907 44.5904 0
455.62 42.9194 0
139.858 54.9173 0
136.838 50.9323 0
6.66071 51.9074 0
9.09646 47.5407 0
45.3536 31.9934 0
47.8098 27.6382 0
195.487 20.161 0
191.519 17.1189 0
163.739 51.0633 0
168.108 53.4967 0
336.304 1.2234 0
331.342 0.616225 0
47.1458 15.2885 0
51.2101 12.3766 0
105.86 45.1469 0
102.26 41.6771 0
88.4518 29.0927 0
91.1549 24.8862 0
139.521 28.4766 0
140.707 33.3338 0
280.298 50.4944 0
284.721 52.8278 0
483.777 24.6007 0
480.683 20.6736 0
83.9191 9.65913 0
88.875 10.3174 0
438.468 33.2281 0
441.391 37.2843 0
457.607 37.8027 0
459.479 33.1662 0
428.972 11.3018 0
433.968 11.0991 0
59.8723 12.0791 0
54.875 12.2274 0
164.86 58.9038 0
161.245 55.449 0
50.0277 28.8285 0
46.7102 25.0877 0
357.26 29.0293 0
352.345 29.9506 0
133.972 39.6797 0
133.165 44.6142 0
291.076 39.9927 0
287.236 43.1949 0
339.375 25.3007 0
341.149 29.9754 0
461.134 17.459 0
459.058 22.0074 0
23.077 13.5044 0
18.08 13.346 0
348.672 48.847 0
343.728 49.5954 0
357.574 37.056 0
355.288 41.503 0
30.6013 2.84978 0
25.8832 1.19655 0
398.723 15.8725 0
400.057 11.0537 0
273.201 28.1662 0
272.758 23.1858 0
200.469 2.55826 0
196.174 5.11678 0
373.531 44.1064 0
375.308 39.4328 0
15.0156 3.43544 0
19.0158 6.43454 0
7.92323 41.0297 0
11.6876 44.3208 0
364.325 47.6531 0
362.75 42.9076 0
422.309 42.3626 0
427.226 43.2668 0
126.618 34.151 0
131.547 34.992 0
45.5706 42.4914 0
50.5282 43.1434 0
109.982 42.7621 0
110.422 37.7816 0
184.896 12.691 0
187.83 8.64275 0
105.636 40.861 0
105.799 45.8583 0
397.636 16.8317 0
401.451 13.5996 0
481.477 25.003 0
483.103 20.2747 0
46.105 53.4583 0
41.2324 54.5824 0
167.178 20.3755 0
165.348 15.7224 0
63.8213 9.15994 0
62.8849 14.0716 0
306.895 47.1943 0
310.999 50.0508 0
28.5996 57.2775 0
33.172 55.2531 0
428.617 6.85554 0
433.429 8.21212 0
35.9778 33.0756 0
38.5001 37.3927 0
319.624 16.9083 0
323.317 13.5374 0
368.164 40.3237 0
368.15 45.3237 0
496.421 56.8148 0
491.877 58.9007 0
53.4159 29.3084 0
55.838 33.6825 0
24.072 34.1448 0
27.237 30.274 0
375.923 26.3648 0
372.96 30.3922 0
442.946 25.5359 0
438.108 24.2748 0
463.658 10.1315 0
466.373 14.3299 0
59.5192 42.8507 0
59.0129 37.8765 0
15.0126 56.3472 0
10.8208 59.0737 0
335.232 19.5811 0
330.529 17.8836 0
6.78087 29.5554 0
6.2372 24.585 0
246.202 21.9291 0
247.14 17.0178 0
324.779 20.8651 0
329.559 22.3315 0
241.316 14.4823 0
238.975 10.064 0
443.62 43.8522 0
438.994 45.7501 0
153.639 27.6556 0
153.847 22.6599 0
436.408 47.9627 0
433.516 43.8844 0
363.521 16.5558 0
362.369 11.6903 0
323.226 49.5564 0
319.625 46.0875 0
151.857 12.6687 0
149.74 8.13894 0
304.858 47.0659 0
308.518 50.4719 0
428.67 48.2314 0
424.289 50.6404 0
472.652 5.82952 0
477.492 7.0853 0
26.3331 5.29399 0
28.1481 0.634932 0
338.383 21.2573 0
333.384 21.3717 0
214.809 23.1989 0
218.902 26.0706 0
215.891 3.21328 0
210.954 2.42743 0
398.519 51.078 0
400.687 46.5725 0
112.457 51.2636 0
114.108 46.5438 0
231.049 46.5273 0
235.414 48.9662 0
75.663 23.1107 0
80.5854 23.9879 0
304.529 57.4242 0
309.061 59.538 0
332.034 35.1913 0
331.852 40.188 0
336.796 49.4457 0
335.788 44.5484 0
68.3506 46.3614 0
71.4428 50.2907 0
153.352 29.9413 0
152.777 24.9745 0
74.4895 2.60454 0
72.5389 7.20842 0
212.361 51.6666 0
209.868 56.0013 0
465.857 38.6509 0
460.955 37.6665 0
151.053 38.9087 0
152.151 34.0308 0
321.041 12.7907 0
316.243 11.3857 0
333.597 31.1862 0
329.978 27.7359 0
46.9289 37.8112 0
51.4832 39.875 0
338.908 15.8926 0
340.195 11.061 0
430.037 35.8306 0
432.159 40.358 0
485.413 32.6012 0
483.062 28.1885 0
488.216 22.985 0
487.935 17.9929 0
111.444 6.84714 0
115.578 9.66012 0
422.97 42.6414 0
418.489 44.8597 0
269.829 32.6156 0
274.644 31.2693 0
245.929 18.2962 0
249.16 22.1121 0
331.71 47.3544 0
335.484 44.0741 0
484.357 16.0312 0
487.701 12.3139 0
381.257 37.9253 0
377.367 34.7845 0
487.069 23.0578 0
483.189 19.9039 0
468.912 45.8789 0
472.448 49.414 0
357.953 26.257 0
353.003 25.5487 0
344.829 41.9933 0
345.253 46.9754 0
260.854 14.7933 0
256.146 16.4772 0
69.8296 10.5524 0
74.0958 13.1595 0
396.095 51.0364 0
400.984 52.0833 0
46.5279 30.2618 0
44.9976 25.5018 0
392.323 8.99495 0
387.54 10.4523 0
150.009 17.8792 0
145.473 19.9815 0
197.907 14.3654 0
202.725 13.0299 0
130.421 17.8505 0
133.375 21.8843 0
485.65 29.9896 0
489.511 26.8135 0
170.004 45.8973 0
174.756 44.3401 0
59.3172 10.836 0
59.9372 15.7975 0
117.236 25.3706 0
121.929 23.6468 0
327.267 12.4116 0
330.526 8.61983 0
416.466 17.0439 0
413.073 13.3717 0
295.835 52.381 0
298.107 56.835 0
271.404 19.8105 0
271.959 14.8414 0
473.035 37.9522 0
471.346 42.658 0
391.974 52.4979 0
388.783 56.348 0
388.068 8.29443 0
384.169 11.4247 0
298.388 19.349 0
302.701 16.82 0
10.1386 4.84538 0
14.0721 1.75935 0
241.874 57.3148 0
240.121 52.632 0
310.162 38.5473 0
307.437 42.74 0
423.963 7.15017 0
428.963 7.14838 0
445.042 19.6592 0
449.588 17.577 0
243.616 58.555 0
248.212 56.5853 0
122.294 3.1679 0
119.412 7.25387 0
51.3235 26.2307 0
56.2671 25.4819 0
350.225 55.2381 0
345.978 52.6 0
265.169 10.4579 0
260.685 12.6704 0
488.357 36.0045 0
487.879 31.0274 0
369.603 56.6178 0
374.588 56.2381 0
387.429 6.37104 0
389.266 1.72044 0
300.636 48.8567 0
303.269 44.6058 0
354.666 41.2199 0
359.343 39.4497 0
55.1416 33.0692 0
54.647 28.0937 0
228.443 29.7823 0
228.36 24.783 0
174.309 21.3808 0
177.374 25.331 0
428.041 32.6013 0
424.422 29.1506 0
460 16.4978 0
463.633 19.9326 0
378.857 22.3079 0
378.263 27.2724 0
351.325 52.4928 0
346.471 51.2925 0
272.415 7.18296 0
270.44 11.7763 0
123.923 34.5072 0
121.065 30.4044 0
452.598 54.6443 0
457.444 53.4135 0
89.6166 49.9303 0
84.6989 49.0244 0
195.638 50.9487 0
192.016 54.396 0
85.1967 43.8986 0
80.2918 42.9264 0
488.84 52.4616 0
493.837 52.6419 0
115.172 28.1164 0
116.039 33.0405 0
113.602 52.3687 0
117.204 48.9003 0
176.094 36.7725 0
178.716 41.0295 0
247.158 47.2954 0
251.34 44.5541 0
23.6102 21.3864 0
22.0867 26.1487 0
4.13022 44.497 0
6.23343 39.9608 0
466.362 47.0106 0
470.586 44.3346 0
103.861 0.478834 0
108.845 0.080067 0
293.851 11.9975 0
290.63 8.17377 0
2.2233 21.7639 0
6.65064 19.4408 0
380.062 38.4029 0
376.864 34.5596 0
484.366 14.5552 0
488.208 17.7539 0
381.61 33.9981 0
381.454 38.9957 0
436.576 36.7172 0
435.698 41.6395 0
434.461 38.7373 0
429.65 37.3768 0
346.847 30.5667 0
350.139 34.3306 0
354.406 24.3568 0
353.914 19.381 0
326.516 1.59339 0
321.874 3.45031 0
282.778 12.863 0
278.039 11.2699 0
287.265 10.8383 0
289.316 6.27809 0
461.92 53.157 0
458.466 56.772 0
178.53 49.541 0
174.251 52.128 0
481.268 3.94274 0
485.613 1.46856 0
89.5879 42.3244 0
92.0255 37.9589 0
239.388 48.3708 0
243.015 44.9297 0
445.756 5.02592 0
444.741 9.92194 0
171.008 53.909 0
175.859 52.6976 0
265.671 52.295 0
266.154 57.2716 0
343.86 47.0777 0
338.899 47.6977 0
405.966 6.64598 0
403.99 11.2391 0
86.3477 10.7406 0
81.5863 12.2655 0
326.76 7.02353 0
326.394 2.03681 0
426.139 44.9881 0
423.057 41.0507 0
36.7888 53.302 0
41.7742 53.6911 0
167.954 51.0602 0
166.08 46.4247 0
462.357 30.1528 0
460.147 25.6678 0
74.3885 16.8827 0
69.4653 17.7541 0
81.3573 17.5622 0
85.709 15.1004 0
224.785 35.866 0
222.205 40.1491 0
437.831 48.6032 0
442.428 46.636 0
109.104 10.1035 0
113.997 9.08026 0
341.331 35.6483 0
337.199 32.8338 0
244.42 47.5488 0
249.162 49.1344 0
368.568 23.572 0
365.758 27.7072 0
274.377 2.11419 0
269.791 0.123602 0
406.753 19.5482 0
406.366 14.5632 0
237.713 22.7483 0
239.328 18.0163 0
236.732 50.87 0
231.755 50.3887 0
5.50724 17.181 0
7.1759 21.8943 0
272.239 30.4112 0
271.959 25.419 0
424.502 52.2936 0
429.442 51.5163 0
24.0903 17.5442 0
28.3414 20.176 0
351.589 41.6119 0
355.567 44.6401 0
58.332 12.2859 0
62.9552 10.3826 0
379.995 19.2752 0
384.954 18.6344 0
25.8142 20.2006 0
27.5284 24.8976 0
316.476 14.9024 0
319.762 18.6706 0
229.649 9.2909 0
234.106 11.5559 0
333.619 38.8375 0
328.621 38.6744 0
351.636 27.3534 0
354.317 23.1329 0
455.897 47.5711 0
458.994 43.6456 0
396.818 12.5583 0
399.919 16.4807 0
465.292 33.1492 0
470.292 33.186 0
329.327 14.6784 0
330.542 9.8282 0
438.01 30.2918 0
437.549 25.3131 0
370.601 40.837 0
366.672 43.9291 0
470.93 50.3776 0
472.812 45.7453 0
363.108 7.22996 0
358.796 9.76065 0
245.366 56.3039 0
248.579 52.4734 0
412.6 35.1056 0
408.751 38.2979 0
74.9082 7.36358 0
79.3714 9.61654 0
250.288 15.296 0
245.304 15.6882 0
442.488 19.8302 0
447.476 19.4803 0
64.8559 23.237 0
61.6295 19.4175 0
35.2513 43.475 0
33.0648 47.9715 0
42.4635 25.1991 0
38.4636 28.1993 0
372.628 22.9416 0
374.598 18.3462 0
499.072 19.5367 0
496.073 23.5381 0
389.623 47.7676 0
394.595 47.24 0
333.705 44.4035 0
329.023 46.16 0
482.035 23.2607 0
478.704 19.5326 0
337.544 32.8464 0
333.664 36.0003 0
132.297 22.1477 0
134.539 17.6785 0
11.5618 37.811 0
6.5738 38.1607 0
222.638 51.9144 0
226.721 49.0276 0
90.3817 2.71801 0
92.3556 7.31195 0
274.812 46.7144 0
277.603 42.5662 0
130.835 43.1853 0
126.061 41.6993 0
270.271 12.9078 0
274.81 10.8114 0
447.713 54.0536 0
449.964 49.589 0
124.227 37.6017 0
128.847 35.6891 0
39.0345 12.7261 0
34.2956 11.1329 0
82.6953 10.884 0
87.654 11.5223 0
450.419 32.7809 0
454.872 35.0542 0
36.1443 1.75466 0
37.0384 6.67426 0
108.668 24.5572 0
112.702 27.5108 0
470.188 14.2208 0
467.051 18.1143 0
498.393 7.50077 0
494.47 4.3997 0
160.663 19.9318 0
165.619 20.5924 0
290.129 48.7838 0
288.158 44.189 0
128.165 41.9737 0
129.079 46.8894 0
182.392 14.9105 0
186.381 17.9251 0
3.9665 44.466 0
8.37187 42.1005 0
121.76 21.1855 0
116.809 20.4894 0
113.571 12.4619 0
116.499 8.4091 0
323.224 7.66626 0
324.666 2.87889 0
248.09 23.5942 0
243.121 24.1443 0
368.909 30.1081 0
366.895 34.685 0
68.0476 11.8072 0
72.3437 14.3647 0
206.044 9.11293 0
208.585 4.80687 0
411.003 3.1227 0
413.786 7.27639 0
108.153 14.5443 0
109.609 19.3274 0
353.658 28.652 0
355.199 23.8953 0
454.42 47.1722 0
458.349 44.0798 0
400.027 13.2719 0
398.696 8.45238 0
340.007 55.0829 0
343.378 58.7759 0
173.018 32.1942 0
170.896 36.7218 0
471.223 25.7594 0
475.905 27.5133 0
83.931 50.0658 0
88.1269 52.7855 0
380.768 54.4665 0
385.144 56.8869 0
300.984 46.7426 0
302.827 42.0948 0
450.683 54.0573 0
455.317 55.9348 0
280.547 4.68729 0
275.951 6.65356 0
173.334 31.3382 0
178.244 32.2819 0
15.5365 11.6606 0
10.6914 10.4279 0
190.234 12.6067 0
191.166 17.519 0
411.325 26.2313 0
416.208 27.3092 0
41.4155 2.27399 0
41.058 7.26139 0
215.402 38.3286 0
219.41 35.3384 0
110.225 45.9818 0
105.238 46.3466 0
80.0754 26.4392 0
77.5158 30.7345 0
325.676 37.6771 0
330.629 36.9925 0
317.633 32.4583 0
317.25 27.473 0
210.636 31.3924 0
212.572 26.7825 0
148.618 56.3589 0
152.741 53.5305 0
463.747 41.8593 0
463.836 46.8585 0
173.212 31.2918 0
178.212 31.3804 0
346.128 44.4622 0
351.128 44.4466 0
273.128 55.376 0
277.708 57.3839 0
20.3585 49.3331 0
19.973 54.318 0
258.165 46.2846 0
259.891 41.5919 0
178.889 48.2099 0
183.347 50.4752 0
288.581 39.8565 0
283.605 39.3739 0
270.814 47.1625 0
275.378 45.1204 0
366.22 21.8425 0
361.285 21.0392 0
279.433 26.2686 0
279.082 21.2809 0
1.28643 0.844175 0
6.27389 1.18516 0
458.186 50.9268 0
462.532 48.4551 0
434.016 14.9439 0
437.42 11.2823 0
179.478 8.71552 0
184.303 10.0237 0
266.372 30.8777 0
266.717 25.8896 0
280.296 30.3733 0
283.115 34.5031 0
44.1254 54.9166 0
40.94 51.0623 0
224.649 27.1763 0
229.529 26.0889 0
136.26 37.3201 0
141.225 37.9126 0
287.143 14.8553 0
284.263 18.9428 0
28.2515 11.5034 0
28.1503 6.50423 0
423 10.8851 0
418.998 7.8875 0
161.927 45.671 0
164.622 41.4592 0
30.525 3.37806 0
29.0056 8.14174 0
28.4454 18.6216 0
31.9523 15.0578 0
454.612 7.63671 0
451.056 11.1518 0
265.715 30.0881 0
268.331 25.8267 0
233.932 37.26 0
235.148 42.11 0
156.148 49.8885 0
159.428 46.1147 0
85.0054 30.6314 0
83.2346 35.3074 0
31.1023 21.4309 0
35.3974 18.8716 0
293.724 39.5049 0
290.855 43.5995 0
52.6273 10.9609 0
57.4097 9.50334 0
416.545 46.7753 0
420.893 49.2438 0
18.4787 55.1381 0
13.4834 54.905 0
46.4161 13.8936 0
41.9991 11.5513 0
55.957 34.8521 0
52.7553 38.6926 0
404.345 16.3604 0
400.397 19.4286 0
24.1685 49.334 0
27.9754 46.092 0
367.081 28.693 0
363.054 25.7297 0
62.7307 27.3112 0
66.3475 23.8589 0
411.277 5.49416 0
410.331 10.4038 0
350.868 15.663 0
353.636 19.827 0
275.887 8.58483 0
275.328 3.61611 0
378.34 48.6557 0
379.797 53.4385 0
322.599 18.6822 0
326.009 15.0254 0
438.793 13.523 0
437.481 8.69836 0
45.1849 11.5069 0
41.0171 8.74529 0
276.19 25.0775 0
277.643 20.2934 0
127.502 51.9788 0
129.024 56.7414 0
425.561 53.0379 0
422.468 49.1094 0
205.114 8.43752 0
205.338 3.44241 0
135.928 21.1321 0
136.445 26.1053 0
28.8611 21.8566 0
26.5116 26.2702 0
434.837 54.3579 0
439.835 54.2047 0
89.4046 57.1711 0
93.8512 54.8835 0
431.161 48.7489 0
433.15 44.1613 0
269.662 25.4329 0
271.698 20.8666 0
101.058 51.0695 0
96.1628 50.049 0
211.527 4.82399 0
207.949 8.31636 0
103.232 42.3593 0
105.929 38.1486 0
339.825 48.8618 0
341.741 44.2435 0
374.827 26.5051 0
375.243 31.4878 0
243.218 40.1663 0
238.255 40.7748 0
388.37 43.2295 0
390.153 47.901 0
134.864 22.9769 0
139.637 21.4877 0
386.982 44.5032 0
391.848 45.6524 0
449.819 31.9819 0
454.693 33.0985 0
494.972 39.2492 0
495.266 34.2578 0
354.68 47.8633 0
359.369 46.128 0
444.776 16.2054 0
440.636 19.0093 0
311.753 9.19942 0
310.539 4.34898 0
392.155 51.0588 0
393.503 46.2441 0
440.725 20.9127 0
435.939 22.3603 0
479.761 48.6587 0
477.183 44.3745 0
219.845 5.20907 0
217.183 9.44157 0
339.118 18.6807 0
342.507 22.3567 0
71.6684 56.064 0
73.4901 51.4077 0
295.878 49.0039 0
291.321 51.0634 0
417.91 13.8511 0
417.371 8.88013 0
175.603 19.1428 0
179.637 16.1888 0
472.581 39.8198 0
468.799 43.0908 0
465.989 44.1093 0
461.002 44.4658 0
192.85 41.5838 0
188.332 39.4413 0
253.146 24.4625 0
250.796 28.8763 0
408.42 8.09612 0
406.928 3.32395 0
369.936 12.8215 0
366.425 16.3817 0
292.239 15.6358 0
288.699 19.1671 0
343.531 28.1618 0
348.531 28.2063 0
18.976 32.0181 0
15.2191 35.3176 0
343.878 6.99174 0
341.047 2.87045 0
107.194 51.7998 0
106.106 46.9197 0
440.979 12.9848 0
436.759 10.3017 0
188.3 32.7567 0
188.79 27.7807 0
408.263 43.6513 0
405.548 47.8503 0
95.9497 4.15622 0
91.4109 2.05997 0
494.737 33.3351 0
497.237 29.0051 0
225.929 50.3145 0
223.463 54.6639 0
151.625 20.3412 0
155.411 17.0765 0
41.6228 11.1985 0
40.2022 15.9925 0
144.758 18.0312 0
139.99 19.5365 0
495.505 57.271 0
499.235 53.9408 0
433.385 47.573 0
428.665 49.2214 0
439.241 0.229843 0
438.729 5.20365 0
30.4811 27.3525 0
34.2721 30.6126 0
11.9506 37.0803 0
15.5151 40.5868 0
79.299 53.0722 0
75.7831 49.5169 0
346.524 21.5981 0
341.524 21.5118 0
482.783 10.5142 0
480.45 6.09144 0
367.097 50.5372 0
368.493 55.3382 0
5.76213 25.5262 0
4.73443 20.633 0
0.711051 29.8304 0
2.0757 25.0203 0
220.63 15.0625 0
224.757 12.2408 0
178.835 31.0729 0
174.146 32.8106 0
10.7244 15.8322 0
15.6169 16.8615 0
58.0967 40.9367 0
62.7759 39.1741 0
184.271 36.7359 0
189.119 35.5117 0
458.934 2.27674 0
462.171 6.08745 0
59.2512 45.854 0
60.1586 50.7709 0
477.05 16.4428 0
472.496 14.3794 0
66.3328 48.2234 0
62.9386 51.8951 0
174.328 58.0748 0
175.236 53.158 0
311.562 31.7975 0
316.448 32.8553 0
214.753 49.9009 0
219.529 51.3812 0
156.467 42.6349 0
152.162 45.1777 0
198.849 4.28505 0
203.222 6.70733 0
290.686 49.6337 0
288.35 45.2132 0
123.276 24.3822 0
123.366 19.3829 0
298.287 53.5284 0
296.568 58.2236 0
338.363 49.2289 0
337.764 44.265 0
185.834 25.0748 0
185.615 30.07 0
338.962 33.0303 0
334.302 31.2177 0
150.588 14.9169 0
152.081 19.6889 0
485.729 14.6658 0
490.619 13.6208 0
79.4356 57.3908 0
81.5671 52.8679 0
282.796 59.1378 0
287.229 56.824 0
429.183 28.3872 0
424.279 29.3631 0
261.431 48.2391 0
264.988 44.7255 0
390.52 13.393 0
387.852 9.16418 0
470.443 39.6653 0
475.443 39.5689 0
153.978 48.706 0
150.647 44.977 0
349.523 44.7026 0
354.523 44.6786 0
233.453 3.82069 0
238.225 5.31081 0
58.01 55.3396 0
61.2785 59.1236 0
430.489 36.7506 0
431.528 31.8597 0
335.306 16.2052 0
332.185 12.2988 0
483.238 18.9614 0
484.422 23.8192 0
491.193 58.1277 0
487.369 54.9061 0
245.697 40.6271 0
240.697 40.597 0
488.969 19.3991 0
484.18 20.8364 0
275.711 8.79326 0
280.691 9.23624 0
181.677 21.1199 0
183.644 16.523 0
241.619 42.2212 0
236.69 41.3835 0
70.3192 31.2722 0
65.3221 31.4434 0
424.261 42.7186 0
422.624 37.994 0
471.609 7.25676 0
466.958 5.42241 0
111.747 34.1177 0
107.595 36.9047 0
483.458 54.4126 0
488.458 54.4121 0
320.432 14.0381 0
321.329 18.957 0
368.663 17.7992 0
370.358 13.0953 0
281.667 3.06175 0
276.706 3.67967 0
350.279 37.3996 0
354.595 34.8752 0
497.471 25.8038 0
492.705 24.292 0
271.538 26.1895 0
271.128 21.2063 0
496.16 20.1966 0
491.162 20.3134 0
468.979 11.0317 0
472.63 14.4478 0
115.998 51.4776 0
120.944 50.7444 0
205.745 8.76715 0
200.902 7.52494 0
14.9254 54.5831 0
10.3211 52.6321 0
2.55956 3.26617 0
2.69209 8.2645 0
45.3166 20.5178 0
42.5239 16.3704 0
371.112 19.0658 0
374.633 15.5157 0
18.3282 32.7957 0
13.3695 32.1546 0
368.054 46.004 0
371.75 49.371 0
473.302 22.8301 0
472.571 17.8839 0
279.304 56.0883 0
282.413 52.1718 0
218.391 53.6346 0
223.19 52.2308 0
332.279 48.7094 0
328.578 52.0717 0
62.5134 42.8842 0
57.6937 44.216 0
360.47 40.611 0
355.507 39.9967 0
483.494 44.2689 0
488.379 45.3358 0
259.603 50.5524 0
258.261 45.7357 0
212.084 53.4214 0
216.757 51.641 0
340.525 52.0168 0
344.801 54.6093 0
249.075 17.5552 0
244.449 19.4516 0
45.8094 46.3504 0
45.6221 51.3468 0
379.253 41.2452 0
377.406 36.5989 0
338.942 13.7018 0
339.746 18.6367 0
486.202 19.0384 0
483.394 14.9015 0
53.9892 32.7291 0
54.4573 37.7071 0
45.7269 40.2286 0
50.1294 37.858 0
68.5458 23.7574 0
65.7938 19.583 0
222.737 35.3992 0
226.021 31.629 0
60.9333 29.7674 0
64.8136 32.9207 0
386.603 57.4579 0
387.917 52.6337 0
6.98508 6.99725 0
7.21158 2.00218 0
115.873 29.2341 0
113.883 24.6469 0
130.229 0.255182 0
128.871 5.06722 0
427.755 4.83822 0
422.807 4.11772 0
217.698 31.2617 0
216.794 26.3441 0
349.308 53.3786 0
352.385 49.4377 0
329.721 30.462 0
334.718 30.636 0
394.23 44.14 0
391.631 39.8684 0
132.184 7.47421 0
136.907 9.11361 0
7.41328 19.0801 0
12.3086 18.0637 0
28.9085 49.9489 0
30.6511 45.2624 0
314.925 36.6563 0
311.252 33.264 0
90.8116 42.545 0
91.1324 47.5346 0
389.269 46.6462 0
386.49 42.4899 0
292.094 15.1787 0
287.465 17.0684 0
324.033 23.4336 0
327.512 27.0251 0
48.4301 32.4402 0
45.255 36.3027 0
377.925 4.93231 0
373.043 3.85039 0
448.2 47.3146 0
446.034 51.8208 0
55.1019 47.8915 0
60.0436 48.6556 0
486.473 30.1435 0
488.079 25.4085 0
165.63 19.5268 0
169.813 22.2653 0
228.72 44.4561 0
227.633 39.5757 0
80.4269 20.4926 0
76.4482 23.5207 0
326.63 14.3205 0
322.28 11.8554 0
129.699 35.5453 0
129.837 30.5472 0
172.621 56.2973 0
177.62 56.4179 0
436.64 44.7784 0
432.64 47.7785 0
481.14 17.2745 0
485.51 14.8452 0
247.923 47.8989 0
252.753 46.6048 0
245.681 52.2752 0
242.021 48.868 0
107.558 53.9091 0
108.244 58.8617 0
62.0874 56.3188 0
57.2155 55.1918 0
262.381 15.7099 0
259.387 19.7147 0
103.511 0.693239 0
108.35 1.95025 0
258.733 35.993 0
253.784 35.2791 0
308.808 24.9651 0
306.77 20.3996 0
213.906 44.6214 0
216.314 49.0036 0
153.519 32.3423 0
149.231 29.7704 0
369.545 54.984 0
374.131 56.9752 0
221.651 32.9409 0
218.572 36.8803 0
116.442 29.9634 0
111.633 28.595 0
79.4446 37.1482 0
74.7861 35.3319 0
150.545 19.022 0
154.841 21.5797 0
282.77 49.2379 0
277.899 48.1097 0
222.965 48.015 0
218.017 47.2941 0
277.709 20.9493 0
281.686 23.9786 0
306.728 39.8197 0
310.7 42.8577 0
90.6523 19.4267 0
86.4002 22.0572 0
386.488 35.8085 0
386.299 30.8121 0
462.34 21.2286 0
459.83 16.9043 0
476.924 10.9686 0
481.69 12.4788 0
238.113 0.409986 0
241.362 4.21057 0
413.387 19.2713 0
416.899 22.83 0
87.0845 38.7547 0
83.067 35.7782 0
209.292 15.3788 0
209.414 20.3773 0
364.63 35.8902 0
362.9 40.5815 0
55.5763 49.3325 0
60.1513 51.3508 0
224.601 17.3284 0
224.318 12.3363 0
171.616 45.125 0
166.905 43.4494 0
39.4257 14.991 0
43.1901 18.2814 0
135.674 14.6229 0
131.72 17.6836 0
368.128 51.6848 0
367.666 46.7062 0
374.694 48.8803 0
376.37 53.591 0
471.845 14.8274 0
475.246 11.1614 0
240.474 3.77003 0
245.425 4.46457 0
7.29429 55.3453 0
3.0067 57.9187 0
209.112 19.3693 0
206.297 15.2367 0
106.629 14.4765 0
101.7 13.6353 0
120.427 49.0288 0
116.032 46.6439 0
140.221 14.0794 0
135.271 13.3756 0
222.227 14.9044 0
226.028 11.6565 0
325.552 53.5668 0
321.706 56.7619 0
279.26 58.0889 0
284.135 56.9747 0
411.448 45.7204 0
408.402 49.6856 0
93.1811 2.61066 0
97.9645 1.15712 0
9.10373 28.7967 0
9.99003 33.7175 0
458.434 8.6611 0
458.994 13.6296 0
69.5831 15.7954 0
70.9314 20.6102 0
450.718 30.1312 0
449.097 25.4013 0
315.682 29.86 0
311.318 27.4203 0
399.608 11.2754 0
397.526 15.8213 0
164.964 42.7916 0
169.847 43.8673 0
441.102 34.301 0
444.765 30.8978 0
44.4552 54.9058 0
48.647 52.1796 0
163.58 3.55536 0
162.761 8.48808 0
158.746 52.9554 0
163.725 53.4163 0
495.112 51.4489 0
490.46 49.616 0
433.93 50.2836 0
432.787 55.1511 0
404.806 55.8596 0
409.112 58.401 0
493.025 21.9544 0
488.564 24.2116 0
120.439 36.1375 0
118.679 40.8175 0
87.9129 25.0271 0
84.0344 21.8717 0
273.087 8.50362 0
268.398 6.76832 0
70.9713 32.5166 0
73.0886 37.0461 0
167.74 33.5818 0
170.102 29.1748 0
374.706 32.7866 0
369.713 32.5262 0
178.028 53.4918 0
181.842 56.7252 0
354.385 11.8891 0
359.378 11.6423 0
462.383 28.2549 0
461.906 23.2778 0
159.843 43.5151 0
164.533 41.7813 0
205.252 1.70152 0
202.662 5.97881 0
495.479 2.88244 0
499.722 5.52863 0
228.532 34.3487 0
233.113 32.3441 0
132.62 30.9833 0
134.849 26.5076 0
243.657 56.9737 0
239.036 55.0636 0
89.0652 12.1288 0
92.3597 8.36777 0
465.999 5.35264 0
462.82 1.49336 0
50.0307 20.584 0
51.6982 25.2978 0
95.2653 14.1797 0
100.237 14.7048 0
6.42521 31.8996 0
7.89107 27.1193 0
251.276 50.9484 0
254.685 54.6068 0
296.178 51.8619 0
298.816 47.6147 0
85.4003 41.0234 0
83.0736 36.5977 0
482.759 14.4138 0
478.07 12.6789 0
372.267 36.1217 0
367.694 34.1001 0
55.1576 49.9756 0
60.1349 50.4563 0
463.887 9.5258 0
461.143 5.34598 0
238.708 49.3664 0
234.063 51.2195 0
359.967 58.8018 0
364.426 56.5385 0
473.53 46.6376 0
477.249 49.9792 0
103.304 51.0615 0
101.767 46.3033 0
314.544 34.6341 0
309.754 36.0684 0
477.753 4.60134 0
476.587 -0.261039 0
446.261 12.735 0
450.473 10.0408 0
326.594 49.7041 0
322.276 47.183 0
15.6929 55.7728 0
11.2546 53.4691 0
449.495 10.9 0
450.658 15.763 0
470.123 12.2728 0
475.116 12.5384 0
67.6897 53.6301 0
71.9251 50.9721 0
461.563 1.23973 0
461.273 6.23136 0
348.307 15.7968 0
344.159 13.0052 0
10.1626 42.7793 0
5.72735 40.4703 0
469.341 32.9066 0
471.35 28.3278 0
424.801 21.9363 0
420.946 18.7526 0
359.541 13.508 0
356.068 17.1057 0
4.54593 35.8483 0
3.17923 31.0387 0
180.561 25.3962 0
184.565 22.4024 0
418.39 14.6678 0
418.887 9.69254 0
290.469 2.42848 0
295.386 1.52384 0
168.284 54.3025 0
163.913 56.731 0
321.745 48.4073 0
320.899 43.4796 0
390.883 35.3065 0
388.212 31.0798 0
66.1087 39.2372 0
61.2965 40.5954 0
484.651 21.162 0
480.792 24.3411 0
100.399 11.6194 0
105.268 12.7543 0
13.7755 4.05438 0
11.4603 8.48613 0
374.631 13.5137 0
370.059 15.5382 0
231.378 55.3288 0
235.529 52.5402 0
416.749 25.6588 0
421.276 27.7811 0
143.178 49.5442 0
140.885 53.9873 0
15.529 0.300231 0
11.6459 3.44939 0
129.557 18.3499 0
131.592 13.7825 0
336.57 57.2298 0
332.813 53.9302 0
304.221 3.53305 0
299.387 4.80914 0
228.615 8.80048 0
227.377 13.6448 0
277.981 48.5615 0
274.317 45.1595 0
295.913 45.8109 0
291.028 44.7414 0
289.548 6.94535 0
294.388 5.69194 0
286.076 34.6893 0
281.083 34.9631 0
230.23 27.3896 0
227.033 23.5446 0
484.751 29.6298 0
487.559 33.7661 0
347.78 43.5251 0
345.396 39.13 0
484.151 32.5418 0
480.195 29.4844 0
123.293 26.8381 0
127.616 24.3268 0
416.68 35.0746 0
411.894 36.5223 0
303.41 14.7134 0
306.873 11.1071 0
274.788 39.5913 0
279.256 37.3459 0
311.432 6.51335 0
314.465 2.53835 0
226.092 32.493 0
222.632 36.1026 0
338.489 27.8117 0
343.438 27.103 0
455.128 46.9894 0
455.122 41.9894 0
213.008 9.30352 0
208.012 9.49466 0
311.45 35.0535 0
312.843 39.8557 0
341.245 8.15324 0
344.896 4.73791 0
324.593 12.1405 0
325.912 16.9636 0
163.745 53.0762 0
165.155 57.8733 0
170.722 30.5827 0
173.932 26.7491 0
441.689 25.6283 0
446.689 25.7175 0
46.3705 39.2015 0
41.9971 36.7778 0
230.251 13.5848 0
225.702 15.6592 0
135.951 28.9125 0
135.039 33.8285 0
48.684 26.0542 0
49.1387 21.0749 0
287.187 21.8884 0
286.152 26.7801 0
484.591 29.6191 0
485.847 34.4587 0
497.175 21.0362 0
493.513 17.6316 0
467.576 57.4141 0
471.565 54.3999 0
208.189 7.53885 0
210.413 3.06056 0
20.308 57.1586 0
18.7938 52.3935 0
273.737 36.0243 0
269.028 34.3426 0
61.9841 6.72861 0
60.5929 1.92592 0
280.279 6.33162 0
285.145 7.47996 0
432.329 33.7807 0
434.506 29.2793 0
337.446 37.9488 0
335.683 33.2697 0
2.08466 43.1217 0
4.9929 47.189 0
55.0235 47.9747 0
53.3719 52.6939 0
387.26 9.34704 0
388.098 4.41779 0
312.052 50.4824 0
313.454 45.6831 0
484.398 21.763 0
479.401 21.6058 0
1.98594 44.4325 0
6.60213 46.3545 0
389.563 48.1793 0
384.684 47.0842 0
377.322 17.8395 0
379.704 13.4432 0
50.7043 51.1228 0
46.8775 47.9044 0
69.5166 14.1498 0
70.2318 9.20106 0
74.4805 7.85679 0
78.3769 10.9898 0
353.213 37.2877 0
351.386 41.942 0
87.7136 50.8476 0
85.5866 55.3726 0
256.237 9.4458 0
252.371 6.27529 0
268.883 54.5607 0
270.037 49.6957 0
295.012 9.34234 0
290.061 8.64644 0
282.813 50.4941 0
278.737 47.599 0
415.79 29.2941 0
420.688 28.2893 0
87.6791 43.9121 0
86.9216 48.8543 0
75.5949 18.4084 0
76.2579 13.4524 0
250.028 45.4426 0
247.3 49.6325 0
65.9579 34.7683 0
62.2057 31.4636 0
183.121 40.2338 0
185.543 35.8597 0
372.039 30.9633 0
370.031 26.3846 0
306.685 44.8734 0
309.34 49.1107 0
351.942 44.4775 0
352.545 49.441 0
363.027 34.1653 0
367.513 31.9553 0
19.1371 12.6046 0
19.0665 7.60491 0
474.738 31.5203 0
479.73 31.7939 0
44.9717 15.4978 0
45.5171 10.5275 0
289.942 56.1107 0
285.262 57.8721 0
406.959 51.8208 0
408.978 56.3951 0
465.288 20.3868 0
463.598 25.0926 0
349.909 16.0023 0
350.85 20.913 0
268.375 35.0834 0
265.912 30.7324 0
374.285 48.6806 0
370.759 52.2252 0
359.289 9.98733 0
362.969 6.60221 0
12.3966 20.3179 0
16.2665 23.4837 0
228.614 40.6854 0
230.377 45.3643 0
262.095 0.334554 0
257.101 0.1004 0
248.941 38.9293 0
244.014 38.0743 0
212.495 18.2654 0
217.479 18.6556 0
409.837 10.4434 0
404.862 9.94979 0
238.05 6.98459 0
236.952 2.10654 0
91.4768 9.25457 0
86.8482 11.1446 0
138.139 23.5271 0
136.623 28.2918 0
428.069 33.7499 0
428.166 28.7508 0
175.939 13.3187 0
171.751 10.5886 0
221.021 32.1132 0
226.02 32.2501 0
344.257 25.5804 0
348.528 28.1792 0
209.737 44.7046 0
204.785 45.3985 0
188.614 54.378 0
188.102 49.4045 0
480.541 45.2558 0
481.14 50.2198 0
278.151 25.2344 0
276.309 20.5861 0
49.3495 22.1025 0
44.4986 23.3141 0
392.341 20.7641 0
390.74 25.5012 0
393.01 17.2371 0
395.143 12.7149 0
2.97829 32.3395 0
6.31427 36.064 0
273.476 29.868 0
269.184 32.4335 0
368.086 27.2001 0
370.824 23.0165 0
122.902 56.3485 0
125.97 52.4007 0
121.548 49.5701 0
117.79 52.8691 0
264.743 26.1008 0
261.714 22.1224 0
19.8064 53.1244 0
19.0896 58.0726 0
217.903 8.26687 0
212.927 8.75394 0
319.185 26.5686 0
322.521 30.2926 0
382.776 11.2901 0
381.028 15.9745 0
284.572 27.8278 0
288.794 30.5055 0
424.913 18.2423 0
420.841 21.1437 0
497.659 17.7854 0
496.056 13.0494 0
41.7993 6.81076 0
37.7899 3.82397 0
8.61027 52.0066 0
6.47255 47.4866 0
412 22.303 0
414.741 18.1212 0
416.307 50.4537 0
414.878 55.2451 0
438.636 7.11806 0
443.336 8.82291 0
281.568 27.9935 0
286.493 28.8552 0
381.943 5.00516 0
377.065 6.10007 0
495.452 0.0852671 0
499.73 2.67399 0
49.5368 52.7718 0
47.5165 57.3455 0
78.0482 26.8231 0
78.7968 21.8794 0
420.248 7.32119 0
418.653 2.58245 0
357.533 49.2556 0
352.546 49.6149 0
41.8841 26.9267 0
37.286 24.963 0
490.751 37.67 0
495.749 37.5252 0
482.089 7.17364 0
484.375 2.7269 0
434.49 50.8279 0
438.444 47.7679 0
42.2467 51.4789 0
42.397 56.4765 0
69.1268 0.930472 0
64.8481 3.51648 0
59.863 36.1382 0
60.1659 31.1474 0
129.215 55.5493 0
134.131 56.4627 0
172.16 40.7287 0
175.765 44.1925 0
138.3 50.4496 0
139.972 55.1617 0
131.923 11.3109 0
135.074 7.42923 0
87.3677 52.8368 0
92.3663 52.6968 0
449.7 40.103 0
444.716 39.7064 0
146.87 46.607 0
147.227 41.6198 0
45.9405 40.362 0
42.6542 36.5936 0
109.94 9.35745 0
113.273 5.63013 0
84.0602 56.1116 0
82.9815 51.2294 0
178.708 1.15837 0
183.682 1.65461 0
157.79 45.304 0
153.245 43.2197 0
40.7843 18.159 0
45.2377 15.8865 0
14.0566 14.6239 0
12.4288 19.3516 0
451.978 35.229 0
446.979 35.3122 0
336.744 25.1695 0
337.611 20.2451 0
484.76 14.0418 0
489.334 12.0218 0
272.789 10.3844 0
275.699 6.31816 0
260.704 47.2556 0
256.633 50.1586 0
241.774 10.9566 0
236.774 10.9969 0
424.204 20.4055 0
428.937 18.796 0
477.773 9.6161 0
476.643 4.74566 0
130.024 44.7232 0
129.194 39.7926 0
443.434 15.0603 0
439.694 11.7416 0
36.6111 35.2389 0
34.2897 39.6674 0
101.337 18.866 0
99.0429 14.4235 0
381.244 1.30633 0
380.893 6.29408 0
8.02185 21.8806 0
3.02579 22.0738 0
203.621 49.5212 0
199.644 46.4912 0
225.865 55.1037 0
222.005 51.9249 0
328.573 4.87475 0
326.762 0.214224 0
108.508 49.589 0
106.19 45.1588 0
314.18 45.282 0
309.305 44.173 0
311.036 10.664 0
315.997 11.2863 0
46.1955 18.1454 0
43.9701 22.6229 0
152.808 55.8769 0
156.433 52.4337 0
121.741 29.7554 0
116.898 28.5101 0
398.434 19.1955 0
393.465 19.7567 0
223.07 32.316 0
228.068 32.1549 0
244.042 38.1083 0
248.863 36.7801 0
376.573 55.3823 0
380.755 52.6414 0
294.707 1.09387 0
292.797 5.71446 0
242.093 45.1795 0
237.224 46.3173 0
66.3759 32.978 0
66.6206 37.972 0
131.646 49.7394 0
129.113 54.0502 0
201.214 49.9684 0
203.694 45.6266 0
482.556 8.47398 0
485.695 12.3656 0
362.109 22.8058 0
358.961 18.9209 0
458.92 16.2582 0
456.111 12.1223 0
43.5465 32.594 0
48.3113 34.1096 0
463.205 45.7227 0
458.569 43.8486 0
24.7211 6.02596 0
22.9121 10.6873 0
406.688 1.45557 0
410.032 5.17237 0
151.784 10.0241 0
152.814 5.13128 0
480.997 51.4478 0
483.58 47.1664 0
64.3074 4.45452 0
66.4275 8.98284 0
356.532 50.9324 0
357.261 55.8791 0
37.6051 12.1839 0
42.3853 10.7191 0
413.264 49.1994 0
411.994 44.3635 0
376.432 6.24617 0
380.339 3.12632 0
185.113 10.6678 0
187.394 6.21824 0
70.7797 54.5178 0
75.0415 57.1334 0
68.6823 32.1234 0
64.3719 29.5896 0
35.3519 26.1831 0
35.6435 31.1746 0
350.281 48.6398 0
345.425 49.8305 0
161.921 26.9822 0
157.05 25.8534 0
324.963 28.7405 0
322.938 33.3121 0
418.898 17.5485 0
417.338 12.798 0
483.503 17.8344 0
482.709 12.8978 0
408.546 43.731 0
408.374 38.7339 0
493.923 46.9301 0
491.14 42.7763 0
5.20756 14.4632 0
10.1219 15.3825 0
497.072 42.546 0
496.481 37.581 0
54.0017 50.6513 0
57.6787 47.2629 0
4.53472 54.5805 0
3.33819 49.7258 0
275.624 30.3531 0
271.826 27.1004 0
300.206 52.6392 0
297.337 48.5443 0
134.907 51.9828 0
133.553 56.7958 0
78.6067 53.4285 0
75.3897 57.2564 0
215.943 34.5432 0
215.901 39.543 0
11.3107 31.4288 0
6.31672 31.6758 0
221.582 44.4934 0
222.092 49.4673 0
458.318 30.0696 0
463.103 31.5202 0
260.547 1.58515 0
265.416 0.450528 0
165.444 56.4025 0
162.835 52.1369 0
82.0827 2.41794 0
77.0939 2.74155 0
231.158 3.9957 0
235.653 6.18442 0
350.713 32.1105 0
349.421 36.9407 0
313.559 13.7564 0
308.646 14.6813 0
284.732 39.7136 0
279.741 40.022 0
384.735 30.4112 0
387.79 34.3698 0
81.0753 54.5543 0
80.2434 49.6241 0
338.874 52.8299 0
334.357 54.975 0
20.8146 44.1734 0
23.5709 40.0016 0
378.393 27.6201 0
374.519 30.7812 0
314.834 31.5221 0
317.933 27.5986 0
221.297 46.3934 0
223.334 50.9599 0
464.285 38.0426 0
469.2 37.1239 0
310.92 10.5918 0
309.909 5.69492 0
274.236 10.8306 0
278.372 13.6402 0
408.492 43.811 0
403.494 43.9605 0
438.642 43.6336 0
437.195 48.4197 0
368.761 23.3867 0
364.888 26.5482 0
131.69 3.57726 0
127.197 5.77036 0
139.341 39.2742 0
141.607 43.7309 0
226.971 33.0187 0
231.887 32.1047 0
380.748 11.7152 0
384.144 8.0458 0
337.829 14.2399 0
335.089 18.4218 0
402.811 5.56251 0
406.853 8.50667 0
420.077 55.9909 0
424.399 58.505 0
497.121 37.867 0
499.058 33.2575 0
159.937 8.04898 0
156.811 11.9512 0
177.851 37.3405 0
176.724 42.2119 0
162.801 41.1415 0
164.743 45.7486 0
197.797 42.9352 0
201.798 45.9351 0
297.625 43.2768 0
300.055 47.6466 0
411.561 45.5463 0
408.506 49.505 0
430.884 5.88575 0
429.643 1.04228 0
44.4187 55.9769 0
49.0294 57.9129 0
282.374 5.1332 0
277.551 6.45228 0
365.201 49.2267 0
364.851 44.2391 0
6.563 10.0195 0
11.0564 7.82747 0
152.514 33.0132 0
151.966 28.0433 0
315.252 48.4882 0
310.434 47.15 0
288.918 29.675 0
290.883 25.0774 0
237.021 52.0877 0
236.603 57.0701 0
40.5329 33.7123 0
42.6957 29.2042 0
216.59 27.0884 0
221.506 28 0
294.672 13.1594 0
294.099 8.19227 0
96.1556 16.077 0
94.3839 11.4014 0
424.82 22.9323 0
420.066 24.4816 0
225.393 32.7824 0
230.075 34.5367 0
93.2496 19.7466 0
98.2202 19.208 0
47.8059 31.7502 0
52.232 29.4243 0
146.827 7.37967 0
143.171 3.96859 0
79.0965 5.99283 0
77.9088 10.8499 0
449.991 4.21364 0
453.623 0.776493 0
132.734 13.3139 0
136.472 16.6344 0
76.4161 33.4939 0
75.3571 38.3805 0
319.228 14.1547 0
323.872 12.3039 0
466.066 41.5365 0
470.113 44.4732 0
291.383 54.7838 0
295.094 58.134 0
265.07 28.4788 0
261.402 25.081 0
141.732 5.92282 0
140.17 1.17304 0
36.7423 28.0636 0
31.809 27.2499 0
261.235 23.787 0
258.886 28.2011 0
104.974 41.0642 0
109.915 41.8288 0
111.982 16.8985 0
109.979 21.4797 0
111.669 32.9896 0
114.663 28.9855 0
291.812 45.4949 0
294.824 49.4857 0
456.143 5.98662 0
461.104 6.60901 0
437.878 44.456 0
432.954 45.3208 0
321.865 56.1668 0
323.586 51.4724 0
150.557 28.2274 0
151.397 23.2984 0
429.235 8.92384 0
431.318 13.4695 0
309.299 9.78041 0
311.624 5.35357 0
264.017 52.1008 0
266.215 47.6095 0
445.75 48.28 0
448.274 43.9638 0
164.684 40.8426 0
160.649 37.8907 0
416.971 39.7198 0
414.283 35.5039 0
132.4 45.034 0
128.49 41.9169 0
364.323 58.8244 0
367.907 55.3373 0
184.95 23.194 0
189.95 23.1805 0
142.14 16.3579 0
147.136 16.5549 0
30.5221 47.4351 0
27.3379 43.58 0
244.541 47.7365 0
243.812 42.79 0
362.955 49.05 0
362.887 44.0505 0
130.007 35.142 0
126.127 31.9884 0
135.817 44.1187 0
134.777 39.2281 0
399.153 2.35372 0
403.891 0.757973 0
330.33 2.16197 0
328.071 6.62215 0
217.264 20.4353 0
212.266 20.5963 0
271.248 4.19346 0
276.238 3.88092 0
260.344 25.9226 0
264.003 29.3307 0
361.736 5.60154 0
363.141 10.4 0
302.825 40.0045 0
298.703 42.8344 0
179.339 33.3378 0
174.339 33.3408 0
104.779 45.3286 0
107.348 41.0392 0
125.277 32.5745 0
129.95 30.7955 0
487.207 43.3989 0
484.863 47.8152 0
260.175 49.2487 0
264.245 46.3435 0
435.961 44.2912 0
440.372 46.6467 0
335.124 55.4366 0
330.821 52.8904 0
410.887 49.6841 0
414.111 53.5061 0
89.7416 29.0472 0
85.4965 26.4055 0
371.114 12.7849 0
367.074 9.83924 0
387.908 29.7825 0
387.731 34.7794 0
328.219 18.4188 0
332.94 16.7698 0
396.561 46.0774 0
400.699 48.8836 0
415.955 8.07076 0
420.955 8.06017 0
260.603 12.6942 0
259.951 7.73687 0
90.0064 18.5439 0
91.5038 13.7733 0
491.605 30.389 0
491.859 35.3826 0
297.663 48.8781 0
295.256 44.4957 0
97.3199 17.7749 0
99.3408 13.2015 0
155.052 4.89647 0
150.06 5.17446 0
101.157 54.0133 0
96.1679 54.3529 0
1.85469 25.0951 0
6.85249 25.239 0
238.671 43.3869 0
242.82 46.1778 0
348.314 55.0187 0
353.217 54.0382 0
137.541 29.0218 0
132.842 30.7306 0
473.377 5.43621 0
474.578 10.2897 0
194.355 8.08209 0
190.416 11.1609 0
464.912 27.1192 0
460.728 29.8574 0
50.1642 40.953 0
45.5803 38.9557 0
158.323 29.1261 0
161.748 25.4836 0
36.203 26.7919 0
34.5234 22.0825 0
59.3503 28.4393 0
61.8746 24.1233 0
69.166 51.5623 0
65.6315 55.0992 0
114.69 45.2051 0
115.439 40.2617 0
263.997 15.5654 0
268.09 18.4365 0
172.69 22.1667 0
177.529 20.9114 0
364.048 22.6264 0
359.605 20.3344 0
436.603 16.7047 0
441.56 17.3597 0
352.169 19.3434 0
357.028 20.5242 0
300.434 47.8535 0
304.698 50.4664 0
447.951 55.7099 0
443.217 57.3205 0
267.421 25.6638 0
270.598 21.8035 0
8.12415 12.2656 0
13.0546 11.4375 0
494.659 25.4237 0
493.01 20.7036 0
231.924 44.0817 0
229.758 39.5753 0
126.437 56.6249 0
121.694 58.2082 0
359.28 35.578 0
357.535 40.2636 0
466.988 13.0463 0
467.697 17.9957 0
194.813 6.52783 0
197.461 10.769 0
122.01 53.3506 0
117.107 52.3715 0
494.747 41.4402 0
496.375 36.7127 0
479.21 36.5499 0
482.068 40.6527 0
326.731 53.7976 0
322.274 51.5308 0
73.5005 43.0717 0
75.2756 47.7459 0
1.2762 5.34684 0
6.24766 4.81982 0
9.75863 34.0419 0
12.7645 38.0375 0
138.87 51.1841 0
140.146 56.0184 0
62.667 20.2687 0
63.5736 15.3515 0
349.817 3.7807 0
344.843 3.27368 0
101.893 49.79 0
101.979 44.7909 0
4.21387 17.7622 0
0.954863 21.554 0
182.66 14.1262 0
178.991 10.7286 0
70.4593 54.7115 0
69.5802 59.6334 0
14.251 48.5976 0
14.735 53.574 0
200.371 8.66499 0
202.665 4.22209 0
451.384 48.6042 0
452.927 53.3599 0
237.272 40.2636 0
239.096 44.919 0
206.924 52.1098 0
202.23 53.8326 0
384.798 55.8038 0
388.732 52.7182 0
434.135 14.2563 0
431.223 18.3206 0
192.025 55.9081 0
187.525 58.0872 0
274.903 10.9055 0
271.692 14.7378 0
365.919 42.1722 0
364.085 46.8238 0
18.1352 27.9653 0
22.8867 26.409 0
289.582 31.0998 0
285.403 33.8447 0
228.921 57.2133 0
224.245 58.9859 0
375.644 26.2505 0
371.266 23.8354 0
388.55 56.3032 0
393.486 55.5041 0
297.286 18.6263 0
292.295 18.3277 0
101.396 16.9814 0
96.4673 16.1423 0
55.2797 36.6116 0
55.9088 31.6514 0
233.436 52.6969 0
233.99 57.6661 0
460.277 0.585687 0
465.18 -0.390427 0
83.0972 7.46451 0
87.9524 6.27217 0
109.813 34.364 0
114.81 34.5488 0
258.228 26.9652 0
254.753 30.5603 0
147.78 47.1774 0
144.586 43.3308 0
173.652 38.0561 0
171.04 42.3196 0
11.2154 34.314 0
6.25551 34.9474 0
39.2374 32.2028 0
34.4569 30.7376 0
490.589 21.1876 0
490.253 26.1763 0
472.193 50.5089 0
468.541 53.9237 0
111.582 28.9457 0
111.557 23.9458 0
432.151 32.4743 0
435.028 28.3847 0
394.812 43.007 0
390.611 40.2957 0
276.532 35.0816 0
281.241 33.3992 0
496.809 31.6372 0
495.333 36.4143 0
189.832 7.98553 0
193.083 4.18684 0
188.506 36.7825 0
183.679 38.0831 0
285.625 12.1307 0
280.784 10.8789 0
4.79433 16.6203 0
4.28531 11.6463 0
412.807 11.1348 0
416.89 8.24855 0
427.589 12.4449 0
425.916 17.1568 0
137.462 33.7079 0
132.491 33.1764 0
366.611 50.1657 0
369.453 54.2799 0
434.741 54.3209 0
439.704 53.7139 0
261.062 38.7969 0
261.554 33.8211 0
281.182 4.99821 0
284.852 8.39351 0
45.6696 52.941 0
44.3296 57.758 0
309.26 12.6845 0
307.857 7.88534 0
49.3598 18.9287 0
48.8778 13.9519 0
150.328 17.7524 0
152.013 22.4601 0
474.721 26.6882 0
476.825 22.1525 0
224.604 50.9438 0
228.996 53.3337 0
156.936 29.1565 0
161.653 27.4992 0
455.041 51.9826 0
450.18 53.1522 0
437.553 31.2601 0
442.338 29.8064 0
105.854 4.29789 0
101.031 2.9831 0
234.003 34.3604 0
229.025 33.8919 0
413.911 35.2106 0
412.822 40.0908 0
5.51307 33.067 0
9.77106 30.4459 0
464.189 59.2722 0
469.167 58.7987 0
451.828 17.9359 0
453.148 22.7584 0
163.225 7.04589 0
158.726 9.22689 0
417.99 50.3265 0
422.973 50.7311 0
310.659 51.0352 0
313.277 55.2947 0
4.5979 18.9802 0
8.42949 22.1923 0
393.73 18.5745 0
388.927 17.1882 0
21.6136 33.9421 0
17.0935 31.8046 0
464.307 20.1716 0
469.042 21.7766 0
32.0427 59.82 0
37.0278 59.4231 0
228.217 55.2908 0
227.478 50.3457 0
276.143 34.3498 0
274.216 38.9636 0
385.182 59.0957 0
389.13 56.0279 0
176.598 15.2892 0
171.75 16.5114 0
481.878 54.6436 0
479.253 50.3884 0
12.3243 23.712 0
15.1489 19.5863 0
183.313 7.18605 0
187.307 10.1928 0
409.009 12.4152 0
406.104 16.4847 0
188.008 31.2996 0
183.902 28.4466 0
374.928 51.6049 0
370.405 49.4736 0
440.379 53.5462 0
437.161 57.3733 0
318.394 42.1826 0
313.712 40.4271 0
146.372 4.06747 0
142.411 1.01584 0
55.6735 40.856 0
59.6792 43.8486 0
375.059 50.2736 0
377.03 54.869 0
406.076 44.3611 0
401.436 42.4981 0
449.905 26.8429 0
450.619 21.8941 0
253.217 48.1596 0
254.626 43.3624 0
140.873 37.3046 0
145.371 35.121 0
152.969 15.1849 0
148.143 16.4904 0
259.222 48.2253 0
256.627 52.4992 0
316.904 39.7929 0
318.617 44.4903 0
287.958 29.3425 0
287.01 34.2517 0
209.421 36.7375 0
209.157 41.7305 0
263.48 15.2223 0
261.72 19.9025 0
235.869 31.24 0
232.734 35.135 0
80.858 23.7981 0
85.8466 23.4604 0
438.064 47.2213 0
438.567 52.196 0
267.718 14.3473 0
272.593 15.4582 0
219.765 16.3724 0
214.939 15.0654 0
82.3052 8.2866 0
83.3881 3.40513 0
265.362 28.932 0
269.819 31.1988 0
218.85 56.7973 0
223.851 56.8007 0
481.532 39.6269 0
481.5 44.6268 0
460.271 1.99667 0
463.614 5.71532 0
6.53625 40.653 0
11.2109 42.4278 0
412.229 32.6929 0
414.214 37.2819 0
222.648 23.5882 0
227.286 25.4552 0
455.559 36.0351 0
457.414 40.6784 0
95.5333 49.4231 0
93.9744 54.1738 0
75.6185 44.7598 0
78.3506 40.5722 0
403.004 7.10777 0
407.989 6.72074 0
137.366 0.572249 0
133.601 3.86202 0
242.567 36.4983 0
246.044 32.9051 0
12.8559 44.8677 0
15.1069 40.403 0
396.804 53.732 0
391.891 54.6587 0
66.6703 4.13571 0
66.0711 9.09984 0
247.457 49.9925 0
243.354 47.135 0
34.3008 49.5302 0
29.3143 49.155 0
309.892 41.5549 0
305.079 40.197 0
321.408 17.137 0
325.411 20.1336 0
37.9193 51.338 0
42.3956 49.1095 0
18.2216 54.5698 0
18.819 49.6058 0
318.588 31.8014 0
321.606 27.8148 0
144.973 26.4309 0
143.137 31.0817 0
439.297 13.9171 0
437.712 9.17505 0
265.531 39.4065 0
268.619 35.4735 0
316.09 53.0461 0
315.243 48.1183 0
200.594 17.2059 0
204.583 20.2199 0
304.112 42.968 0
307.46 46.681 0
479.038 38.3807 0
479.399 43.3677 0
126.289 5.13116 0
122.766 1.58388 0
66.6436 55.2409 0
68.9684 50.8142 0
39.5501 36.3798 0
43.6597 33.5316 0
115.86 1.08771 0
110.877 1.49413 0
46.8527 34.975 0
51.8523 35.0502 0
251.203 35.6396 0
248.293 31.5741 0
496.447 17.3894 0
491.997 19.6693 0
349.416 1.6805 0
348.055 6.49165 0
235.517 28.0913 0
236.553 23.1998 0
46.5829 50.1739 0
45.7812 45.2387 0
471.809 7.86893 0
470.956 2.94216 0
424.96 26.409 0
420.279 28.1658 0
221.803 51.1546 0
217.882 54.2566 0
125.451 39.912 0
121.143 42.4513 0
324.393 31.5709 0
324.046 36.5588 0
77.862 50.8408 0
81.8009 53.921 0
67.4415 52.886 0
65.9784 48.105 0
47.675 46.198 0
44.7501 42.1427 0
13.7847 50.2103 0
12.0739 54.9084 0
171.625 0.206015 0
169.446 4.70628 0
162.542 53.5323 0
167.217 55.3079 0
423.025 57.5484 0
427.151 54.7242 0
300.039 9.12786 0
297.527 4.80527 0
490.524 22.6333 0
495.497 22.115 0
310.85 41.5797 0
315.408 39.5234 0
292.474 54.0086 0
292.645 49.0116 0
162.631 17.2456 0
158.822 20.4838 0
21.2576 46.3239 0
18.3921 42.2265 0
70.2513 17.3575 0
74.8579 19.301 0
29.5374 17.2067 0
26.5437 21.2114 0
474.415 46.7575 0
470.608 49.9989 0
482.419 44.3207 0
478.297 41.4908 0
233.86 6.94238 0
229.208 5.1104 0
212.349 46.6788 0
216.786 48.9842 0
436.573 3.54783 0
436.608 8.54773 0
324.01 30.5254 0
328.789 29.0543 0
353.882 54.0615 0
356.513 58.3136 0
279.529 55.2788 0
276.234 59.0394 0
250.546 56.9108 0
255.379 55.6287 0
128.949 29.3391 0
123.97 29.7983 0
356.411 36.722 0
352.32 39.5975 0
157.955 50.0383 0
158.948 45.138 0
171.196 46.2638 0
175.827 48.1496 0
274.167 27.4289 0
279.122 28.1005 0
399.931 13.3851 0
402.452 9.06729 0
33.5827 11.0354 0
37.8227 13.6848 0
67.1493 6.53449 0
71.3554 9.23736 0
79.7531 9.53008 0
83.6705 12.6368 0
78.5049 52.519 0
77.3828 57.3913 0
180.246 4.48619 0
184.657 6.83875 0
268.994 20.2581 0
264.248 21.8321 0
480.374 31.6904 0
475.724 33.5295 0
475.994 19.2437 0
480.271 16.6544 0
397.705 49.8858 0
402.548 48.6438 0
15.5846 12.8747 0
10.8095 14.3561 0
40.0467 14.1504 0
35.0743 14.6711 0
11.319 50.9259 0
6.52994 49.4873 0
497.31 47.3126 0
499.572 42.8537 0
178.289 48.2897 0
178.85 53.258 0
38.7395 26.3734 0
33.8816 25.1903 0
40.8905 41.2038 0
36.3532 43.3051 0
90.6058 38.4086 0
86.1279 36.184 0
10.9706 13.1953 0
14.262 16.9589 0
187.075 7.89189 0
188.409 3.07298 0
238.797 23.0358 0
241.739 18.9934 0
22.7267 38.8112 0
17.7423 39.2093 0
232.215 51.8972 0
227.396 50.566 0
397.591 55.8824 0
393.361 58.5479 0
223.007 29.8221 0
227.944 30.6147 0
17.5599 7.84758 0
14.0101 11.3685 0
105.388 54.7477 0
104.312 59.6305 0
11.2514 37.0727 0
6.64231 35.1341 0
43.1099 14.0471 0
43.506 9.0627 0
233.951 13.8807 0
238.502 11.8099 0
260.365 38.9741 0
255.639 37.3392 0
250.657 16.1994 0
255.534 15.0978 0
249.861 50.6124 0
254.516 48.7867 0
245.509 3.31314 0
249.451 0.237533 0
454.853 5.18704 0
452.639 9.67028 0
479.348 43.6037 0
474.507 44.8575 0
74.3471 26.9112 0
78.9945 25.067 0
205.349 43.0726 0
201.463 39.9264 0
195.755 3.43336 0
200.695 4.20261 0
469.708 24.5322 0
470.599 19.612 0
466.651 13.5051 0
471.225 15.5253 0
41.7693 31.6059 0
40.3721 26.8051 0
221.554 52.2326 0
226.514 51.6032 0
491.448 36.34 0
495.056 39.8016 0
5.81357 9.1067 0
3.09581 4.91003 0
341.892 31.56 0
336.973 30.6645 0
252.524 48.5888 0
257.456 49.4132 0
25.6137 7.05107 0
25.0467 2.08313 0
240.805 33.9885 0
245.802 33.8076 0
275.413 21.7259 0
270.928 19.5156 0
70.8005 11.4302 0
75.666 10.28 0
424.29 38.15 0
420.188 41.0092 0
172.625 49.5189 0
171.662 54.4252 0
228.952 52.1764 0
227.905 47.2874 0
89.3109 53.8654 0
90.1296 58.7978 0
174.698 41.1764 0
170.955 37.8607 0
421.721 3.99521 0
416.729 3.70893 0
424.815 25.0635 0
427.112 20.6225 0
78.0048 40.1539 0
73.2038 41.5512 0
112.342 17.2793 0
109.478 13.1806 0
352.449 56.3272 0
347.452 56.1275 0
323.501 8.74561 0
325.008 3.97814 0
210.07 54.4016 0
212.27 49.9111 0
439.961 26.9524 0
444.94 26.4862 0
354.255 49.2005 0
353.079 44.3408 0
453.201 49.8155 0
449.588 53.2716 0
367.616 42.732 0
372.368 44.2872 0
52.3136 50.2228 0
57.1879 49.1066 0
52.9145 53.4815 0
57.8046 52.4362 0
261.22 15.2789 0
266.047 13.9785 0
248.951 22.3284 0
250.88 26.9412 0
442.588 21.7647 0
447.462 20.6517 0
9.26219 26.2226 0
7.81071 21.4379 0
207.063 14.1326 0
210.452 17.8085 0
266.463 42.0974 0
266.106 37.1102 0
270.434 47.6494 0
270.769 42.6607 0
40.4879 57.6883 0
39.8108 52.7346 0
363.449 36.3089 0
368.442 36.0385 0
77.0135 56.646 0
73.8921 52.7398 0
64.0047 27.2836 0
66.4044 22.8971 0
350.104 24.3717 0
351.671 19.6236 0
442.42 45.1912 0
445.998 48.6834 0
111.693 45.5177 0
109.166 49.832 0
275.826 50.0215 0
280.718 48.9871 0
464.032 37.7808 0
464.785 32.8378 0
67.4685 50.3671 0
72.4592 50.6803 0
479.298 5.71072 0
484.296 5.84114 0
340.951 57.2261 0
344.24 53.4594 0
439.943 43.1554 0
435.813 40.3377 0
405.153 46.8466 0
404.996 51.8441 0
400.009 5.22497 0
397.643 9.62996 0
366.032 29.9216 0
368.517 34.2605 0
25.0568 30.3594 0
20.0783 29.8968 0
277.17 41.6954 0
273.849 37.9579 0
139.104 58.7573 0
139.054 53.7577 0
35.3208 24.3003 0
37.9425 28.5577 0
339.732 -0.058482 0
340.836 4.8182 0
492.724 21.7232 0
497.545 23.0472 0
433.852 11.089 0
429.707 8.29242 0
281.144 6.47529 0
278.577 10.766 0
223.154 46.7538 0
228.02 47.9034 0
354.888 32.1336 0
350.136 33.6896 0
385.348 11.6955 0
380.624 13.3316 0
332.969 30.0276 0
337.651 31.781 0
473.54 11.4282 0
478.44 12.4239 0
195.178 50.5667 0
197.172 55.1519 0
104.128 13.8441 0
100.94 17.6958 0
442.936 15.4161 0
440.915 19.9892 0
282.174 26.6009 0
286.406 29.2624 0
30.6894 39.7537 0
35.4019 41.4256 0
433.783 51.3782 0
434.174 46.3934 0
384.237 13.8189 0
388.127 16.9607 0
478.288 54.0242 0
481.869 50.5349 0
58.8416 48.7206 0
54.7057 51.5308 0
262.726 35.6782 0
265.081 40.0888 0
35.834 15.6373 0
34.597 10.7927 0
85.5104 30.6531 0
87.0138 35.4217 0
333.917 23.4591 0
335.522 28.1944 0
350.359 35.5244 0
347.982 39.923 0
118.538 33.5617 0
115.514 37.5437 0
464.609 35.0499 0
461.106 31.4816 0
329.704 38.0549 0
332.805 34.1324 0
483.867 49.162 0
483.6 54.1549 0
57.0231 49.9255 0
61.6642 51.7867 0
27.9069 13.5649 0
27.0082 18.4835 0
423.14 40.0363 0
418.666 42.269 0
492.88 42.7732 0
497.291 40.4183 0
340.715 54.6775 0
335.939 53.1968 0
319.739 49.7334 0
324.667 48.8878 0
238.316 7.68176 0
234.484 10.8927 0
105.596 6.78341 0
101.041 8.84488 0
471.458 56.778 0
476.458 56.7129 0
470.777 17.6869 0
474.458 21.0713 0
336.414 19.2166 0
335.249 24.079 0
418.519 17.0059 0
414.46 14.0868 0
493.683 13.1822 0
491.529 8.67003 0
132.937 22.7061 0
131.447 17.9331 0
177.661 58.7415 0
182.241 56.7345 0
211.11 44.3007 0
212.514 49.0998 0
12.2457 24.5442 0
16.5645 22.025 0
437.193 41.1867 0
432.35 39.9433 0
78.0754 28.367 0
75.4483 24.1129 0
390.457 14.6246 0
395.062 16.5716 0
327.268 31.2544 0
326.346 36.1688 0
55.2858 38.8211 0
60.0534 40.3281 0
255.247 50.4081 0
252.626 54.6664 0
484.892 2.21538 0
489.388 0.0286925 0
464.082 49.8059 0
462.37 45.1081 0
463.415 39.035 0
459.34 36.1378 0
386.295 10.4416 0
389.955 7.03532 0
261.353 24.2272 0
259.194 28.7369 0
37.1821 54.8847 0
32.588 52.9099 0
454.982 46.5904 0
451.984 42.589 0
38.5648 33.6708 0
40.6993 38.1923 0
247.905 55.3689 0
248.198 50.3776 0
340.35 42.7067 0
335.649 41.0043 0
426.435 28.2226 0
427.31 23.2998 0
426.398 29.7882 0
422.585 33.0235 0
26.661 9.37971 0
23.4555 5.54261 0
423.767 41.707 0
427.139 45.3984 0
310.382 20.2251 0
308.426 15.6233 0
445.955 9.90099 0
450.903 9.18365 0
192.122 47.0014 0
196.647 44.8743 0
123.172 44.2917 0
126.296 40.3876 0
271.63 28.9859 0
270.571 24.0994 0
354.992 55.6732 0
359.769 57.1505 0
429.022 37.959 0
432.386 41.6585 0
63.3212 12.9911 0
65.0486 17.6833 0
384.93 14.1779 0
388.641 17.5285 0
378.561 23.1269 0
373.764 24.5343 0
268.675 25.6552 0
263.679 25.4406 0
359.81 31.9896 0
356.919 36.0694 0
387.085 39.1463 0
388.859 34.4717 0
0.126812 47.4492 0
4.59391 49.6962 0
277.505 46.0841 0
282.16 44.2575 0
21.5566 26.0794 0
18.9568 30.3503 0
462.138 29.2299 0
462.093 34.2297 0
270.997 25.7209 0
275.937 26.4907 0
324.797 18.4413 0
329.345 20.5183 0
13.7619 33.9315 0
8.76195 33.9673 0
224.446 26.1352 0
222.018 30.5062 0
460.478 31.8438 0
462.437 27.2432 0
9.48001 26.3462 0
4.53206 27.0652 0
490.109 37.9949 0
485.723 35.5948 0
134.873 36.6238 0
139.67 35.2136 0
437.833 1.52932 0
442.174 4.01031 0
166.83 8.88164 0
164.417 13.2611 0
376.188 34.9252 0
377.592 30.1265 0
273.633 46.1317 0
271.407 41.6548 0
91.3115 19.9986 0
90.6687 15.04 0
458.009 24.6123 0
453.608 22.2392 0
219.771 23.5827 0
222.382 27.8464 0
176.343 21.3472 0
174.543 16.6823 0
282.354 45.9006 0
278.117 48.555 0
211.315 8.95797 0
213.814 4.62727 0
41.006 21.0371 0
36.3494 19.2168 0
182.203 45.4121 0
183.868 50.1264 0
18.4511 1.61784 0
14.7521 4.98148 0
425.519 23.2021 0
420.906 21.2736 0
478.497 23.8047 0
473.655 25.0513 0
287.172 44.9974 0
290.789 48.4494 0
178.8 24.0519 0
176.105 19.8404 0
131.4 47.6819 0
136.305 48.654 0
138.8 6.29651 0
141.946 10.1824 0
44.69 18.0841 0
49.6683 18.5461 0
219.808 41.2232 0
219.628 46.22 0
95.7831 10.5211 0
97.9241 6.00263 0
72.3997 53.3603 0
69.7837 57.6214 0
47.7309 13.9248 0
43.7241 16.9155 0
38.9801 24.8362 0
40.7411 20.1565 0
292.281 50.8017 0
288.215 47.8914 0
345.03 32.0775 0
340.922 34.9282 0
34.2766 23.5126 0
32.4854 28.1807 0
149.435 20.8804 0
154.241 22.2591 0
422.176 46.4208 0
421.708 41.4427 0
64.841 32.3738 0
64.309 27.4022 0
226.474 44.0986 0
229.269 48.244 0
363.197 40.6523 0
361.967 45.4986 0
423.078 21.1954 0
420.657 16.8205 0
32.4901 41.3235 0
36.4927 44.3202 0
42.2515 57.5424 0
46.9966 55.9643 0
408.652 48.0029 0
403.873 49.4756 0
119.167 58.9818 0
120.692 54.2199 0
273.278 46.0528 0
270.103 49.9152 0
478.732 8.56718 0
483.732 8.60686 0
189.51 52.6161 0
184.847 54.4212 0
285.981 41.2661 0
290.843 42.4301 0
313.311 43.703 0
310.692 47.9623 0
226.705 18.7629 0
230.723 15.787 0
320.18 50.7388 0
322.358 46.238 0
190.268 54.5111 0
193.427 58.3866 0
174.139 20.0896 0
173.902 25.084 0
430.317 45.446 0
426.02 48.0019 0
318.483 51.2702 0
318.267 46.275 0
285.833 12.995 0
287.406 8.24904 0
188.957 36.7653 0
193.293 39.2539 0
8.27517 23.088 0
8.18482 18.0887 0
447.887 25.2358 0
452.509 27.1423 0
344.147 51.8843 0
348.699 49.8151 0
146.192 12.4539 0
146.449 7.46037 0
58.5112 22.9751 0
61.8046 19.2131 0
51.1691 36.6387 0
52.546 41.4454 0
465.281 0.699807 0
462.188 4.6287 0
238.102 54.6685 0
237.931 49.6715 0
344.051 50.3086 0
348.517 48.0593 0
280.645 31.9211 0
285.583 32.7064 0
481.272 11.5455 0
485.247 14.5794 0
397.859 13.3437 0
397.297 18.312 0
242.994 35.1984 0
240.629 30.7927 0
477.066 39.4559 0
476.237 44.3866 0
137.496 23.1446 0
133.579 26.2512 0
488.387 19.3255 0
493.277 18.2814 0
241.928 10.871 0
246.545 8.95359 0
465.945 35.5561 0
470.842 34.5459 0
156.138 15.017 0
152.553 18.5022 0
421.718 2.15064 0
426.347 4.04115 0
310.129 41.3278 0
311.11 46.2305 0
293.652 54.383 0
292.79 49.458 0
418.954 25.3179 0
414.536 27.6592 0
19.3351 50.5068 0
24.2824 49.7789 0
96.7812 45.8456 0
99.1051 50.2727 0
140.128 44.1559 0
135.368 45.6895 0
96.1951 50.1712 0
100.007 46.9346 0
457.188 25.3727 0
452.807 22.9641 0
346.74 1.39782 0
349.035 5.83988 0
219.173 42.0932 0
214.366 40.7154 0
16.7817 40.8307 0
15.8841 45.7494 0
54.9886 53.7291 0
58.4582 57.3296 0
429.365 5.85382 0
434.29 4.99175 0
361.91 7.19312 0
356.91 7.12703 0
430.467 23.0173 0
435.339 24.1395 0
348.073 31.3338 0
350.902 35.4565 0
217.548 51.5821 0
214.882 47.3522 0
328.356 39.4359 0
330.527 34.932 0
53.0964 50.9126 0
57.1814 48.0289 0
257.645 45.5714 0
262.066 47.9072 0
78.5509 19.48 0
80.4302 24.1134 0
299.765 11.3663 0
294.78 10.9912 0
476.683 36.868 0
476.092 31.903 0
473.473 42.8644 0
469.005 40.6214 0
257.459 29.0705 0
262.441 28.6424 0
59.8099 55.5462 0
54.8432 56.1283 0
188.753 20.1211 0
193.35 22.086 0
486.991 21.1812 0
489.578 16.9024 0
205.513 17.2229 0
201.203 19.7565 0
340.36 50.8041 0
344.749 53.2004 0
56.185 56.9813 0
51.7426 59.277 0
75.2259 34.8947 0
75.941 39.8433 0
395.492 2.87736 0
392.089 6.54039 0
269.786 45.3484 0
272.096 49.7826 0
386.111 11.7351 0
382.395 15.0806 0
107.844 14.4171 0
108.647 9.48188 0
51.1836 51.9471 0
55.8584 50.1721 0
278.253 21.1809 0
274.209 18.2406 0
455.777 47.1947 0
456.955 42.3354 0
200.752 4.88184 0
199.812 -0.029129 0
3.06597 35.3807 0
6.15319 39.3139 0
427.207 58.2577 0
427.402 53.2615 0
248.173 8.94815 0
253.117 8.20453 0
283.489 8.76808 0
287.974 6.55839 0
337.901 29.1135 0
342.644 27.5298 0
163.579 52.917 0
163.517 57.9165 0
438.87 19.38 0
439.454 14.4142 0
230.458 32.1953 0
226.225 34.8565 0
389.518 56.3586 0
392.158 52.1121 0
324.379 20.2585 0
324.493 15.2597 0
462.213 49.3029 0
467.188 49.802 0
89.0459 47.7884 0
84.9574 44.9099 0
7.95144 26.5779 0
11.093 22.6882 0
383.838 29.176 0
386.908 33.1224 0
254.432 49.2249 0
257.649 45.3975 0
260.3 29.7186 0
257.115 33.5732 0
5.63773 2.71625 0
7.78155 7.23333 0
130.689 44.8321 0
133.671 48.8453 0
253.873 5.2476 0
255.189 10.0714 0
171.856 55.3069 0
167.449 57.6688 0
349.931 45.6508 0
348.285 40.9296 0
147.301 13.2301 0
143.414 16.375 0
54.3101 34.1738 0
56.6679 38.5829 0
434.441 45.8541 0
430.709 49.1809 0
264.267 54.874 0
265.08 49.9406 0
238.743 34.7694 0
233.77 35.2903 0
263.377 5.38025 0
268.133 6.92211 0
7.88574 11.6872 0
11.3796 8.11077 0
12.7936 58.8341 0
8.10131 57.1051 0
327.106 23.1461 0
326.628 18.169 0
180.46 33.0093 0
175.477 33.4197 0
476.883 18.3731 0
472.724 21.1487 0
360.983 20.273 0
364.594 16.8146 0
41.548 37.7336 0
36.6769 38.8624 0
457.851 33.7847 0
457.524 38.774 0
253.294 5.54975 0
258.221 4.70036 0
154.928 7.06378 0
152.797 11.5867 0
13.7192 27.7239 0
18.0021 25.144 0
416.597 43.959 0
418.585 48.5468 0
28.6519 47.7455 0
24.1387 45.5925 0
382.324 47.1408 0
379.208 43.2305 0
223.697 41.0933 0
226.664 37.0683 0
431.125 22.6317 0
435.89 24.1466 0
466.457 13.4679 0
461.563 12.4441 0
406.053 19.8078 0
408.371 15.3775 0
392.408 51.9173 0
391.463 47.0075 0
235.287 5.69921 0
235.987 10.6501 0
373.891 54.631 0
378.292 57.004 0
25.5374 54.4656 0
28.0176 50.124 0
153.394 29.1277 0
149.136 31.7488 0
305.718 7.62692 0
303.599 12.1556 0
456.284 43.1764 0
451.299 43.5559 0
432.148 39.1054 0
430.108 43.6705 0
189.444 53.7151 0
191.191 58.3997 0
4.53272 50.193 0
5.12043 55.1583 0
389.8 8.49655 0
394.59 7.06472 0
439.395 30.7365 0
438.933 35.7152 0
376.774 39.6164 0
376.624 44.6142 0
367.702 53.793 0
371.008 57.5441 0
311.569 7.98843 0
315.681 5.14403 0
452.683 31.6665 0
448.416 29.0599 0
432.919 14.0004 0
431.093 9.34567 0
282.721 3.60512 0
287.663 4.36455 0
262.868 56.3452 0
267.3 54.0304 0
445.268 33.9937 0
450.163 32.97 0
371.516 55.4804 0
367.438 52.5881 0
33.2524 58.8828 0
36.4017 54.999 0
128.553 13.8862 0
132.402 17.0777 0
26.9845 35.1436 0
24.5981 30.7499 0
419.468 4.81921 0
418.974 9.79473 0
251.735 31.247 0
256.304 29.2154 0
141.149 13.8268 0
143.459 18.2615 0
265.798 37.6673 0
262.603 41.5134 0
444.436 18.2932 0
440.337 15.4295 0
353.942 16.5642 0
351.852 12.0219 0
79.5227 29.2247 0
80.272 34.1682 0
366.442 51.1617 0
364.776 55.876 0
111.83 56.4974 0
108.886 52.4564 0
162.068 7.28803 0
167.058 7.6086 0
385.531 47.9488 0
390.162 46.0637 0
221.835 3.02227 0
217.897 -0.05749 0
251.959 58.7942 0
247.63 56.2915 0
413.932 11.5247 0
416.95 15.5114 0
105.747 6.79392 0
100.762 7.17551 0
159.206 37.3593 0
156.127 33.4202 0
264.356 28.644 0
261.208 24.7591 0
245.288 41.7678 0
242.315 37.7473 0
154.217 22.5652 0
149.823 20.1801 0
260.676 49.4686 0
264.055 45.7827 0
253.713 23.4365 0
256.796 27.3731 0
407.657 15.0064 0
406.184 19.7844 0
110.719 56.6207 0
107.349 52.9267 0
105.343 10.2763 0
102.614 6.08658 0
323.378 59.5464 0
327.756 57.1294 0
309.099 8.44146 0
311.26 3.93273 0
162.493 13.9877 0
159.693 9.84517 0
457.302 14.3063 0
454.031 18.0872 0
71.5373 30.2425 0
75.2122 26.852 0
346.866 35.2928 0
350.929 32.3789 0
217.274 31.2532 0
215.572 26.5518 0
66.6828 5.26192 0
69.4159 1.07509 0
344.288 20.5258 0
349.288 20.5986 0
476.208 23.007 0
480.052 26.2046 0
212.653 5.56853 0
207.687 4.99002 0
331.294 3.76538 0
336.213 4.65833 0
53.9545 28.5729 0
55.4475 23.801 0
227.85 30.167 0
232.751 29.179 0
331.305 31.0072 0
335.293 27.9909 0
218.893 37.0843 0
214.459 34.7736 0
126.06 33.2272 0
123.078 37.2405 0
298.257 57.3779 0
299.367 52.5026 0
80.9807 10.8086 0
83.839 6.7062 0
213.445 31.4775 0
216.008 35.7706 0
54.3877 17.1872 0
59.3532 17.7706 0
186.807 39.1186 0
189.921 43.0306 0
312.072 18.1517 0
316.863 16.724 0
285.135 14.3515 0
282.974 18.8603 0
143.595 25.7672 0
148.286 24.0386 0
447.126 30.1081 0
450.628 33.677 0
111.546 36.5839 0
116.465 37.4776 0
109.376 16.8673 0
104.379 16.7113 0
125.409 58.1873 0
129.93 56.0505 0
278.07 42.7045 0
280.494 38.3314 0
386.709 7.29206 0
386.854 12.29 0
289.225 34.095 0
288.662 39.0631 0
101.251 5.56742 0
96.6921 7.62022 0
243.142 34.6868 0
241.085 39.2442 0
119.801 15.1772 0
124.759 14.5272 0
94.0154 53.4472 0
91.0676 49.4085 0
314.376 0.198084 0
316.845 4.54604 0
375.338 12.5226 0
375.067 17.5153 0
9.58045 52.4959 0
5.9973 49.0084 0
397.693 7.0233 0
398.545 2.09643 0
349.021 6.85904 0
353.969 7.57367 0
51.0469 52.5778 0
53.4148 56.9816 0
278.954 16.5313 0
275.819 20.4268 0
260.515 55.7369 0
265.498 56.1535 0
65.5228 55.8608 0
68.6656 51.9718 0
351.778 45.4054 0
347.883 42.2708 0
480.98 49.1941 0
479.924 44.3071 0
295.021 6.34331 0
294.28 1.3984 0
328.415 11.6402 0
331.036 15.8982 0
404.976 48.0838 0
402.131 52.1958 0
482.191 52.4269 0
477.283 53.3825 0
443.991 41.0059 0
448.696 42.6983 0
370.88 48.5169 0
373.01 43.9932 0
456.432 57.574 0
451.51 56.695 0
235.24 50.585 0
230.64 52.5446 0
426.583 31.715 0
425.313 26.8793 0
39.8429 17.3325 0
35.0955 18.9007 0
155.538 40.3 0
153.636 35.6761 0
204.302 6.58699 0
207.427 2.68429 0
218.389 16.8244 0
221.729 13.1036 0
224.827 9.27836 0
220.96 12.4473 0
168.418 36.1469 0
166.635 40.8181 0
410.943 15.642 0
406.419 17.7705 0
223.192 40.3862 0
227.633 38.0892 0
485.562 29.4457 0
488.943 25.7621 0
354.597 52.4194 0
358.301 55.7781 0
248.276 7.84398 0
244.81 4.24003 0
146.518 14.0383 0
142.452 16.9491 0
259.58 3.53669 0
263.168 0.0552425 0
275.316 53.0564 0
270.655 51.2474 0
160.174 40.732 0
159.519 45.6889 0
39.3195 3.60854 0
43.2421 6.70847 0
365.965 13.8792 0
370.962 13.7099 0
408.416 56.1119 0
406.422 51.527 0
441.213 53.9028 0
445.763 51.8285 0
443.238 7.25075 0
448.219 7.68681 0
221.101 25.5688 0
219.381 20.8739 0
250.839 28.916 0
246.37 26.6734 0
248.083 44.3616 0
243.145 43.5777 0
17.2704 46.0105 0
17.6308 41.0236 0
80.55 19.0127 0
77.5403 23.0054 0
32.6407 24.722 0
37.4322 26.1505 0
227.543 16.5283 0
227.049 11.5527 0
344.498 11.8291 0
347.368 15.9239 0
322.086 33.9169 0
317.562 31.789 0
333.817 9.93503 0
332.641 14.7949 0
263.348 29.8766 0
259.981 33.5729 0
67.8786 9.30837 0
72.7309 10.5127 0
87.4928 1.9145 0
92.3226 0.623473 0
143.892 22.0114 0
144.745 26.9381 0
73.3708 22.2926 0
77.7966 24.6188 0
89.6506 25.4634 0
90.0187 20.4769 0
410.124 18.5319 0
412.602 22.8747 0
91.1066 50.2572 0
86.3654 48.6681 0
197.45 55.9127 0
192.458 55.6315 0
423.97 55.0091 0
427.385 58.6611 0
308.803 19.6131 0
311.845 23.5811 0
394.537 11.7215 0
397.379 7.60755 0
184.787 36.6412 0
182.555 41.1154 0
328.377 53.6393 0
326.475 58.2635 0
181.866 42.3219 0
179.045 46.4507 0
278.542 30.6401 0
276.892 25.9203 0
373.706 6.81361 0
370.123 3.32658 0
443.78 13.4928 0
448.154 11.0714 0
449.821 23.0236 0
451.684 27.6636 0
426.106 48.3793 0
428.541 44.0122 0
218.977 27.288 0
220.632 22.5699 0
321.587 23.1979 0
324.435 19.0884 0
293.991 43.3226 0
296.436 47.6838 0
368.558 14.4983 0
363.956 12.5454 0
437.816 46.0391 0
432.843 46.5654 0
407.97 22.1148 0
412.196 19.4425 0
43.1041 37.8311 0
39.4518 34.4163 0
335.073 13.37 0
330.091 13.7934 0
244.97 49.9618 0
246.482 45.196 0
77.5209 22.6311 0
74.2537 18.8463 0
198.599 49.1393 0
200.925 44.7134 0
7.76545 57.7584 0
2.83911 56.8988 0
237.808 38.6274 0
232.83 39.0966 0
79.0098 16.9077 0
77.8749 21.7772 0
73.5675 34.7994 0
68.8083 33.2663 0
469.82 48.6866 0
466.323 45.1132 0
415.108 24.115 0
410.149 24.7552 0
51.139 32.1012 0
46.1402 32.2144 0
192.243 22.5732 0
187.304 23.3537 0
98.5058 40.8764 0
95.8952 45.1408 0
419.826 50.3175 0
423.641 53.5494 0
223.941 8.6966 0
220.991 12.7337 0
415.345 35.548 0
413.077 40.0041 0
279.818 45.7403 0
283.883 48.6524 0
347.653 29.9551 0
346.61 25.0651 0
118.349 23.2551 0
122.095 19.9429 0
387.59 15.582 0
391.448 18.7631 0
318.101 58.9014 0
313.453 57.0574 0
364.391 53.608 0
361.302 49.677 0
35.5962 21.6946 0
36.4734 26.617 0
282 50.6128 0
284.258 55.0736 0
385.289 54.6481 0
388.273 50.6358 0
81.8864 17.8873 0
85.5987 14.538 0
430.764 30.7777 0
433.76 34.7807 0
447.267 39.5805 0
443.036 36.9174 0
296.046 55.8553 0
291.077 56.4114 0
87.946 30.2676 0
89.211 35.1049 0
182.82 7.15045 0
181.614 12.0031 0
299.506 49.1809 0
296.9 44.9135 0
109.759 26.9025 0
111.425 22.1881 0
255.205 50.1371 0
254.538 55.0924 0
471.72 19.5406 0
476.693 20.0617 0
188.608 44.8462 0
191.033 49.2188 0
57.2275 19.5747 0
52.6348 17.5986 0
272.428 16.8161 0
274.974 12.5129 0
139.371 8.7119 0
141.742 13.1139 0
322.697 4.58761 0
319.254 8.21354 0
232.653 27.867 0
234.597 32.4739 0
366.866 40.1073 0
362.116 41.6684 0
33.9492 0.621519 0
32.3545 5.36054 0
296.018 12.8007 0
301.018 12.8135 0
486.496 46.6536 0
484.254 42.1847 0
469.252 16.6106 0
465.824 12.9712 0
15.5446 7.99687 0
10.611 8.8053 0
12.4205 45.2306 0
10.321 40.6927 0
15.8667 7.15319 0
10.9183 7.86559 0
340.204 44.4482 0
343.044 40.3325 0
463.922 46.547 0
464.895 41.6425 0
166.534 26.5211 0
167.649 31.3953 0
118.556 29.5803 0
117.245 24.7553 0
88.2575 52.6031 0
83.7016 50.5421 0
332.336 18.2232 0
333.835 22.9932 0
262.676 33.7747 0
259.127 30.253 0
430.138 5.89811 0
430.05 10.8974 0
223.291 52.563 0
227.958 50.7679 0
442.937 21.3439 0
445.547 17.0794 0
299.62 19.1249 0
294.621 19.1833 0
260.105 55.5214 0
265.067 54.9038 0
466.574 28.8113 0
467.461 23.8908 0
193.516 44.2901 0
190.746 40.1281 0
317.441 0.0930022 0
313.472 3.1338 0
351.949 46.4719 0
356.77 45.1456 0
255.833 5.22794 0
260.687 6.4232 0
388.988 50.3562 0
393.988 50.4319 0
187.242 54.2064 0
192.141 55.2072 0
442.147 35.3646 0
440.551 30.6263 0
8.31117 53.9926 0
8.84106 49.0209 0
122.756 10.5294 0
119.168 7.04752 0
60.5382 17.0835 0
65.0515 19.2347 0
136.526 39.9882 0
141.523 40.1645 0
478.598 28.0002 0
474.296 30.5488 0
250.201 46.9039 0
247.203 42.9024 0
47.5258 31.8296 0
52.4206 30.8089 0
204.017 14.0083 0
202.328 18.7145 0
223.287 4.90094 0
222.912 -0.0850564 0
269.211 59.7547 0
271.159 55.1495 0
344.482 52.8433 0
346.086 57.5792 0
358.299 47.749 0
354.14 50.5254 0
492.823 58.1126 0
490.23 53.8373 0
240.111 30.5051 0
235.152 29.8685 0
357.022 25.4641 0
359.903 29.5503 0
55.0311 50.8811 0
56.41 55.6871 0
123.696 4.11305 0
119.157 6.211 0
199.479 46.8486 0
202.971 43.2703 0
472.678 24.9707 0
469.165 21.4129 0
332.453 24.934 0
334.736 20.4853 0
304.321 5.34819 0
302.46 0.707654 0
158.579 58.8047 0
160.596 54.2296 0
30.6117 49.6514 0
34.4183 46.4091 0
175.525 30.0504 0
180.126 32.0061 0
320.604 53.5279 0
317.704 49.4549 0
73.5133 45.2591 0
76.2302 49.4566 0
489.332 54.0265 0
488.277 49.1391 0
137.859 2.5674 0
135.942 7.18552 0
357.063 18.4562 0
362.061 18.5804 0
276.523 28.2621 0
273.921 23.9927 0
55.3276 36.6275 0
56.5908 41.4652 0
484.819 6.75851 0
479.858 7.38192 0
332.382 48.2404 0
335.525 52.1293 0
136.851 40.6452 0
132.601 43.2803 0
253.691 18.7262 0
250.089 15.2588 0
492.817 54.3814 0
489.439 58.0683 0
274.07 15.6278 0
275.767 20.3309 0
234.44 56.2164 0
239.273 57.5009 0
162.895 36.9723 0
157.937 36.3198 0
322.897 35.0463 0
327.28 32.6394 0
468.382 22.7387 0
467.769 27.701 0
89.3967 35.9302 0
93.9629 37.9671 0
337.698 37.2734 0
334.302 33.604 0
435.549 9.26758 0
438.77 5.44309 0
163.181 47.6188 0
158.526 49.4451 0
11.1041 25.5733 0
14.852 28.8828 0
429.966 4.30055 0
428.484 9.07594 0
69.2047 22.5475 0
67.2884 27.1658 0
461.078 46.2325 0
457.189 49.3743 0
360.566 22.5473 0
360.226 27.5357 0
306.978 54.6153 0
311.652 56.3912 0
133.635 44.4952 0
133.135 49.4701 0
16.0399 27.4415 0
21.0397 27.4872 0
179.837 12.557 0
180.235 7.57276 0
316.253 38.3118 0
317.277 33.4178 0
69.6545 36.3135 0
67.9689 31.6063 0
125.759 33.5967 0
129.236 30.0029 0
248.72 38.0578 0
252.734 41.0384 0
410.516 37.6682 0
415.465 38.3804 0
142.785 36.3522 0
146.253 39.9535 0
389.5 49.2917 0
394.226 47.6588 0
129.36 49.9273 0
124.37 49.597 0
40.8851 46.749 0
43.131 42.2818 0
284.916 6.46532 0
287.89 10.4843 0
293.447 7.4741 0
296.449 11.4729 0
11.5226 46.9556 0
12.9689 42.1694 0
383.572 42.8936 0
378.578 42.6497 0
444.43 25.8791 0
447.349 21.8198 0
51.5658 50.3231 0
50.3652 45.4695 0
159.938 54.337 0
164.425 56.5454 0
356.085 48.7378 0
360.952 47.5913 0
446.679 55.0559 0
451.502 53.7396 0
184.121 40.5984 0
188.165 37.6573 0
410.325 8.27744 0
407.745 3.99441 0
191.172 15.8644 0
188.802 11.4616 0
450.801 26.5577 0
449.555 21.7155 0
380.764 47.0653 0
382.764 51.6478 0
456.424 32.8917 0
461.418 33.1349 0
335.647 38.238 0
340.19 36.1486 0
469.874 15.7618 0
467.269 20.0294 0
263.942 43.6659 0
262.656 48.4976 0
253.427 0.362738 0
250.595 4.4828 0
304.299 53.9361 0
307.589 50.1707 0
487.06 20.7614 0
483.215 17.5654 0
386.174 30.886 0
387.076 25.9681 0
289.075 32.3563 0
284.101 31.85 0
255.566 27.4783 0
259 23.8439 0
380.509 6.28953 0
378.962 1.5346 0
374.865 18.7872 0
371.988 22.8768 0
371.747 55.1259 0
374.097 50.7121 0
187.289 13.1342 0
191.065 9.85745 0
352.532 32.4336 0
356.624 29.5593 0
336.289 13.2902 0
341.122 14.5735 0
77.4652 18.79 0
82.139 20.566 0
474.581 28.4294 0
478.518 25.3461 0
367.388 22.0953 0
372.139 20.5373 0
3.96807 26.7434 0
7.48301 23.1875 0
107.993 16.4238 0
104.049 13.3508 0
99.6659 2.82352 0
95.2123 0.551914 0
266.207 10.3969 0
261.688 8.25785 0
127.868 30.3875 0
122.932 29.5904 0
297.104 6.4624 0
301.756 8.29468 0
259.284 5.12785 0
256.828 9.48309 0
275.406 42.2009 0
270.742 40.3993 0
102.468 5.59959 0
107.388 6.484 0
380.895 9.52099 0
376.564 12.0194 0
88.7159 37.4463 0
84.5996 40.2849 0
273.071 6.07064 0
278.046 5.5819 0
410.645 0.607165 0
409.237 5.40486 0
327.024 30.1675 0
331.901 29.0678 0
112.561 8.77339 0
114.794 13.2472 0
422.933 11.1009 0
417.952 11.5295 0
110.913 35.0154 0
112.618 39.7155 0
311.94 29.0744 0
313.125 24.2167 0
43.4047 35.8698 0
38.5913 34.5162 0
287.692 26.3881 0
282.909 27.8445 0
109.434 17.869 0
105.851 14.3813 0
291.227 55.0325 0
291.68 50.0531 0
230.774 16.5055 0
235.118 14.0291 0
52.196 38.8933 0
50.1363 34.3373 0
431.149 8.04962 0
434.386 11.8597 0
106.591 5.03245 0
105.085 0.264415 0
202.586 4.57702 0
207.545 3.94346 0
356.411 50.3042 0
357.57 55.1678 0
497.783 17.5603 0
495.038 13.3812 0
95.0223 6.71779 0
99.9863 7.31208 0
288.935 7.79543 0
293.912 8.27246 0
364.903 54.4922 0
366.329 49.6997 0
493.569 18.6646 0
490.597 14.6438 0
214.541 57.4458 0
210.455 54.5628 0
118.425 46.6898 0
119.35 51.6034 0
252.94 43.4218 0
248.007 44.2377 0
66.5411 34.1136 0
65.0335 38.8809 0
18.9091 26.1333 0
23.2348 28.6409 0
217.281 37.8513 0
216.17 42.7263 0
212.189 42.4863 0
215.027 38.3694 0
357.394 24.6426 0
356.129 29.48 0
74.1087 9.79175 0
76.6592 14.0923 0
126.931 34.607 0
126.887 39.6068 0
442.516 42.8574 0
438.702 39.6241 0
434.35 16.4138 0
434.988 21.3729 0
433.889 31.7848 0
428.889 31.7544 0
413.935 29.0456 0
416.057 24.5185 0
29.764 23.8513 0
30.433 28.8063 0
174.685 23.3499 0
174.777 18.3507 0
95.9614 54.9466 0
92.6428 51.2065 0
265.252 41.4043 0
264.163 46.2842 0
309.221 5.92733 0
304.276 5.18874 0
246.964 1.79934 0
243.274 5.17249 0
333.643 1.24936 0
328.701 2.00506 0
236.142 44.8615 0
231.504 42.9925 0
374.315 14.954 0
369.957 12.5023 0
258.171 44.2447 0
260.314 39.7269 0
343.939 35.3612 0
340.498 31.7339 0
118.028 59.9532 0
117.708 54.9636 0
168.57 56.6555 0
167.397 51.7952 0
493.845 44.0597 0
498.67 42.7459 0
143.626 42.9011 0
148.118 45.0971 0
201.766 9.98651 0
199.812 14.5887 0
187.285 11.3674 0
183.315 8.32755 0
422.372 30.3097 0
418.098 27.7152 0
270.36 26.1352 0
275.306 25.3982 0
156.474 1.07404 0
151.482 1.34079 0
217.558 4.80587 0
214.798 0.637085 0
482.017 46.0424 0
477.341 47.8136 0
260.8 49.3823 0
256.489 51.9146 0
447.273 16.9313 0
449.609 21.3523 0
430.079 58.6278 0
434.718 56.7625 0
127.828 41.2472 0
130.397 45.5365 0
23.0486 10.843 0
18.0589 10.5314 0
39.0961 39.3491 0
35.3471 42.6576 0
247.835 6.78838 0
248.808 11.6928 0
249.56 37.81 0
251.863 42.2479 0
26.5288 29.517 0
28.9397 33.8973 0
340.976 10.2922 0
344.249 14.072 0
179.772 13.1406 0
174.798 13.6482 0
82.0603 14.8001 0
82.0323 19.8001 0
208.056 12.0854 0
212.788 10.473 0
224.232 32.1836 0
228.244 29.1995 0
482.966 34.3677 0
478.394 32.3436 0
258.598 7.92076 0
253.898 6.21342 0
216.559 6.46372 0
212.402 9.242 0
14.9469 33.0034 0
16.9883 37.5677 0
468.409 10.6731 0
466.501 15.2948 0
6.61431 33.8147 0
10.9756 31.3694 0
83.6192 57.3366 0
79.1483 55.097 0
491.794 37.6164 0
492.072 42.6086 0
279.273 42.8252 0
283.565 40.2593 0
50.0771 26.8211 0
45.4387 24.9545 0
105.644 43.0479 0
110.584 42.2713 0
146.534 49.0877 0
146.929 54.072 0
312.21 52.3256 0
307.672 54.4264 0
28.0974 59.4808 0
23.1013 59.2646 0
31.4545 48.123 0
28.608 44.0123 0
62.0248 39.0859 0
59.4948 43.3986 0
242.442 13.61 0
240.361 18.1566 0
420.976 18.2182 0
425.303 20.7228 0
175.831 36.1945 0
172.368 32.5879 0
452.753 48.8325 0
449.802 52.8689 0
328.65 40.9451 0
328.923 35.9526 0
47.2008 5.23112 0
47.8929 0.279058 0
466.851 5.40827 0
471.23 2.99525 0
452.216 25.0232 0
448.942 21.2444 0
359.469 21.5466 0
360.645 26.4062 0
335.404 49.2217 0
330.553 50.4352 0
345.87 58.2123 0
340.948 59.0958 0
81.4506 42.2537 0
84.7039 46.0507 0
168.395 50.1853 0
164.567 46.9679 0
277.834 59.5217 0
272.841 59.2636 0
317.148 15.0575 0
322.148 15.1335 0
41.5949 9.75425 0
38.1839 13.4099 0
381.464 43.6397 0
386.215 42.0838 0
210.296 45.2104 0
208.161 40.6889 0
239.252 17.7428 0
235.825 14.1023 0
137.722 3.69731 0
132.979 5.28036 0
45.0962 36.186 0
41.1363 33.1333 0
220.26 13.8556 0
221.135 18.7784 0
191.842 42.0732 0
187.589 44.7023 0
295.198 2.40715 0
290.199 2.45618 0
445.248 24.4175 0
450.159 23.4827 0
279.328 54.0835 0
283.68 56.5462 0
373.427 45.8394 0
368.435 46.1314 0
163.296 18.8158 0
158.296 18.7988 0
189.088 42.1239 0
193.558 44.3636 0
288.492 46.5549 0
287.279 41.7042 0
366.337 31.5321 0
369.962 28.0886 0
238.617 40.9352 0
242.551 37.8497 0
51.0928 16.0357 0
46.6934 18.4112 0
143.055 23.2446 0
139.244 20.0078 0
357.575 27.3267 0
360.061 31.6647 0
188.325 8.08026 0
185.837 12.4177 0
483.126 37.7158 0
486.775 41.1346 0
289.508 33.9486 0
284.806 35.6505 0
132.103 4.49355 0
127.149 3.81966 0
208.486 18.9345 0
207.824 13.9785 0
213.717 0.980803 0
218.717 0.996775 0
11.0426 23.2372 0
7.1524 20.0963 0
188.487 16.6411 0
184.349 13.8352 0
314.102 15.499 0
309.411 13.7688 0
30.7222 42.2199 0
26.3493 44.6449 0
321.136 45.9081 0
319.653 41.1329 0
261.993 33.3284 0
257.171 34.6538 0
498.472 18.7677 0
499.183 13.8185 0
473.061 37.6477 0
469.812 41.4478 0
66.0875 42.5469 0
66.2813 47.543 0
299.437 51.8253 0
295.371 48.9155 0
154.525 49.8056 0
156.169 45.0834 0
5.19351 14.6577 0
10.0891 15.6721 0
190.096 59.6778 0
194.929 58.3929 0
220.766 52.8817 0
220.908 47.8839 0
4.26608 59.133 0
5.90445 54.4091 0
344.171 12.0433 0
339.394 10.5667 0
92.8837 40.4275 0
90.1913 36.2144 0
288.521 38.7343 0
284.814 42.0895 0
355.641 11.3176 0
350.708 10.502 0
173.176 35.5446 0
177.747 37.57 0
465.024 20.9115 0
460.78 23.555 0
486.34 57.2421 0
481.806 55.1344 0
66.2987 24.2861 0
67.1139 29.2192 0
47.444 19.8173 0
45.7825 24.5332 0
115.282 2.19618 0
119.63 4.66386 0
289.012 18.7118 0
293.991 18.2468 0
479.682 56.6278 0
479.334 51.6399 0
281.366 23.8849 0
283.722 28.295 0
223.804 14.0138 0
218.907 13.004 0
180.722 31.0058 0
175.857 32.1581 0
45.6607 28.0767 0
50.432 29.5712 0
408.48 35.7585 0
413.116 37.631 0
217.928 47.2719 0
218.228 52.2628 0
285.268 53.0812 0
287.373 48.5457 0
313.778 18.9579 0
317.972 16.2361 0
342.542 21.4391 0
340.889 26.1582 0
377.579 48.3192 0
382.298 49.9719 0
434.393 38.5883 0
438.581 35.8578 0
467.98 49.6979 0
462.98 49.7004 0
14.9827 16.7464 0
10.7012 14.1645 0
46.5414 23.2149 0
43.0062 19.6792 0
146.81 51.7039 0
148.113 46.8768 0
239.438 6.46577 0
241.699 10.9252 0
127.539 26.1299 0
132.472 25.3135 0
337.541 32.7587 0
335.615 37.3727 0
109.456 19.375 0
114.294 18.1125 0
110.58 51.8084 0
107.82 47.6391 0
345.043 13.5203 0
340.711 11.0236 0
211.844 52.3438 0
207.214 50.4545 0
499.955 40.4433 0
498.578 35.6367 0
262.155 29.6907 0
257.165 29.3646 0
272.963 47.3756 0
268.688 49.9688 0
92.0728 45.891 0
95.8747 49.1386 0
178.187 43.9783 0
173.51 45.7492 0
248.409 41.1112 0
250.541 36.5883 0
65.4905 43.632 0
63.5071 48.2218 0
65.7295 40.8068 0
60.7411 41.1519 0
137.364 10.2147 0
139.658 5.77196 0
377.132 43.7413 0
374.902 39.2663 0
277.672 45.8118 0
272.729 45.0585 0
146.547 27.6495 0
143.437 31.5643 0
290.004 52.5523 0
286.164 49.3491 0
349.367 48.5373 0
344.45 47.6297 0
170.777 20.3695 0
166.524 17.7408 0
153.941 48.3604 0
155.483 53.1166 0
495.703 47.058 0
498.185 42.7172 0
123.286 14.617 0
127.823 16.7178 0
472.485 38.0808 0
474.919 42.4483 0
401.23 50.9516 0
397.156 48.0531 0
75.7966 35.3286 0
72.4036 31.6561 0
338.843 29.5071 0
339.312 24.5292 0
444.506 28.699 0
439.519 29.0686 0
144.52 56.8833 0
149.512 56.5955 0
42.9934 17.4187 0
44.6478 22.1371 0
312.47 22.8288 0
307.579 21.7917 0
141.132 25.2893 0
140.616 20.3159 0
419.242 46.5226 0
423.911 48.312 0
298.404 10.4018 0
303.227 9.08469 0
359.502 30.2248 0
355.168 32.7181 0
334.948 46.6073 0
330.246 48.3072 0
301.398 13.9934 0
303.702 18.431 0
374.991 50.3791 0
374.636 55.3665 0
6.32121 14.6017 0
8.42549 19.1373 0
371.094 -0.0545816 0
376.086 0.233054 0
410.011 54.5246 0
414.976 53.9329 0
168.486 51.2124 0
173.469 51.6318 0
480.42 25.9627 0
477.911 30.2874 0
480.3 17.2109 0
475.645 19.0357 0
265.182 50.9065 0
266.596 46.1107 0
260.527 17.9089 0
255.844 16.1582 0
281.551 46.135 0
282.987 50.924 0
60.8486 35.3814 0
58.834 39.9576 0
90.6497 55.5986 0
93.8752 51.7778 0
58.5517 19.0407 0
62.2729 22.3801 0
40.3284 48.5517 0
35.3398 48.2074 0
477.675 38.0748 0
482.39 36.4093 0
334.54 43.589 0
339.073 41.4794 0
188.69 10.9291 0
185.161 7.3871 0
118.544 1.0627 0
120.901 5.47217 0
386.985 14.7141 0
389.077 10.1728 0
244.132 4.25466 0
240.259 7.41651 0
145.075 41.0148 0
143.354 45.7096 0
168.165 50.1097 0
168.01 45.1122 0
426.778 25.497 0
423.01 22.2103 0
203.664 16.0899 0
207.119 19.7037 0
157.147 8.69787 0
152.543 6.74966 0
144.78 55.7428 0
141.919 59.8435 0
334.426 17.3835 0
337.337 21.4487 0
441.52 21.6785 0
443.495 17.0853 0
367.878 10.1155 0
369.89 5.53815 0
316.614 36.7814 0
319.318 40.9874 0
93.2946 54.4017 0
91.7939 49.6323 0
128.665 49.3074 0
133.412 47.7376 0
126.362 57.016 0
121.599 55.4931 0
319.258 51.7696 0
317.678 47.0258 0
139.911 57.4791 0
135.166 55.903 0
74.7864 8.9541 0
78.327 12.4843 0
12.6541 19.0181 0
11.5802 23.9015 0
34.6552 2.97079 0
31.8036 7.07784 0
457.823 52.12 0
453.664 54.8957 0
343.352 51.3121 0
347.236 48.1626 0
387.593 11.264 0
389.723 15.7876 0
419.464 24.403 0
424.461 24.5861 0
34.7323 53.7282 0
30.1549 51.7151 0
495.186 4.66915 0
498.439 8.46613 0
426.84 51.998 0
429.024 56.4962 0
464.521 30.6252 0
463.5 25.7305 0
10.7801 24.4042 0
6.07766 26.1029 0
384.512 41.2092 0
389.419 40.2505 0
417.548 50.9545 0
415.262 55.4013 0
347.309 30.1627 0
345.789 34.9262 0
358.285 51.2626 0
356.135 46.7485 0
427.488 12.2322 0
422.846 10.3732 0
12.3987 23.5691 0
8.61412 20.3018 0
138.383 49.481 0
143.174 50.9154 0
164.323 25.9697 0
160.525 22.7179 0
419.965 22.022 0
415.764 19.3109 0
461.157 18.1408 0
462.791 13.4154 0
351.888 35.694 0
351.59 30.7029 0
308.284 3.87318 0
311.879 7.34752 0
21.4409 9.49693 0
16.4544 9.85505 0
45.7624 8.43752 0
40.9252 7.17407 0
58.4998 40.8697 0
55.5097 44.8773 0
473.827 20.7875 0
471.137 16.5725 0
345.221 24.8106 0
348.517 21.0507 0
295.936 19.3556 0
297.202 14.5185 0
481.582 32.7069 0
486.454 31.5822 0
377.128 50.1984 0
377.482 45.2109 0
288.417 19.4206 0
285.23 23.2737 0
429.248 3.84828 0
432.076 7.97212 0
112.773 3.60066 0
117.655 2.52095 0
186.429 55.669 0
187.176 50.7252 0
390.507 43.6134 0
388.044 47.965 0
225.127 8.86438 0
230.066 9.64498 0
463.39 30.3877 0
463.794 35.3714 0
198.367 42.9125 0
193.602 44.4284 0
218.873 28.5065 0
217.493 23.7008 0
230.017 44.9364 0
233.435 41.2867 0
39.4645 17.0314 0
43.4184 20.0916 0
431.356 3.81348 0
432.655 8.64175 0
314.664 7.24138 0
312.385 11.6916 0
384.748 28.0887 0
381.515 31.9029 0
0.656555 31.1555 0
4.61941 28.1066 0
399.815 53.2229 0
400.309 48.2475 0
364.798 8.42768 0
365.022 3.43264 0
427.926 20.3247 0
428.617 15.3727 0
79.263 5.68516 0
83.1862 8.78447 0
149.216 45.1963 0
144.614 43.241 0
404.211 9.90575 0
400.19 12.8778 0
179.962 40.5693 0
184.07 43.4194 0
20.71 55.9508 0
24.8005 53.0747 0
270.687 25.2374 0
268.35 29.6575 0
20.4274 34.0532 0
18.9324 38.8245 0
131.297 1.99668 0
128.222 5.93971 0
158.046 34.8524 0
163.033 35.2013 0
305.736 39.3459 0
310.653 40.2533 0
35.6122 48.6926 0
31.0168 50.6642 0
491.792 32.6995 0
492.258 37.6777 0
216.437 54.6199 0
219.908 51.0208 0
98.3813 2.75997 0
102.755 5.18251 0
124.651 54.7311 0
120.036 56.6546 0
290.64 21.7981 0
294.691 18.8673 0
168.012 56.7717 0
168.203 51.7755 0
0.509203 4.05086 0
2.79384 8.4982 0
37.1317 49.2612 0
34.212 45.2021 0
239.911 24.7924 0
242.12 20.3068 0
261.672 28.398 0
266.269 26.4307 0
68.2302 47.0972 0
68.4388 52.0927 0
290.085 52.5642 0
293.315 56.381 0
183.212 38.6618 0
182.969 43.6558 0
474.008 53.1179 0
473.751 48.1245 0
489.316 9.43152 0
494.302 9.80526 0
382.639 9.96703 0
377.859 11.4357 0
136.895 11.6634 0
138.516 16.3932 0
471.419 45.0408 0
474.707 41.2746 0
277.779 23.1871 0
279.481 18.4855 0
497.095 24.0337 0
495.986 19.1583 0
193.41 5.24002 0
188.75 7.05059 0
321.565 40.7978 0
318.282 37.0267 0
108.47 53.6696 0
113.4 52.8367 0
212.257 51.6528 0
216.408 48.8654 0
173.331 22.8536 0
168.757 20.8341 0
432.367 40.5785 0
427.452 41.4947 0
392.6 4.17002 0
392.563 9.16993 0
110.309 49.6522 0
115.242 50.468 0
440.88 27.4256 0
442.199 22.6026 0
40.3052 2.78468 0
35.9473 0.334538 0
106.869 51.4907 0
102.89 54.5182 0
177.636 48.2593 0
180.267 52.5109 0
84.7928 7.97025 0
87.0502 12.4317 0
360.798 3.03627 0
365.663 1.88487 0
259.774 49.8543 0
260.916 54.7222 0
57.4196 57.1186 0
62.3101 56.0749 0
31.3739 31.3988 0
34.7184 35.1156 0
441.623 46.4062 0
437.021 48.3621 0
14.7553 31.9753 0
18.9731 29.2901 0
411.882 25.7556 0
416.691 24.3873 0
180.609 37.8313 0
175.619 37.5109 0
423.756 11.8183 0
419.038 13.4736 0
118.464 6.19143 0
114.542 9.29296 0
375.569 31.9042 0
379.663 34.7739 0
379.786 30.4527 0
383.069 34.224 0
466.04 56.9222 0
463.361 52.7004 0
138.858 36.0022 0
143.784 35.1421 0
100.828 7.49135 0
96.5853 10.1365 0
306.525 22.0924 0
309.66 25.9877 0
343.218 50.3194 0
344.755 45.5615 0
369.124 26.1387 0
364.141 25.7369 0
172.083 9.85275 0
176.953 10.9849 0
176.717 35.8822 0
177.059 30.894 0
457.804 12.6485 0
462.324 10.5126 0
480.703 29.8375 0
485.547 28.5968 0
120.964 49.3742 0
125.914 50.0825 0
149.003 23.5518 0
153.901 22.5449 0
28.2696 33.0986 0
32.5545 30.5217 0
35.5934 6.25639 0
33.6693 1.64132 0
67.7888 45.6 0
63.1078 47.3583 0
73.7984 39.0845 0
74.2609 44.063 0
57.9943 23.9659 0
53.4286 26.0039 0
323.637 54.6573 0
325.039 49.8579 0
130.493 15.1506 0
125.557 15.9435 0
31.5962 23.618 0
26.5968 23.6829 0
474.308 30.5847 0
479.273 31.1789 0
79.1094 52.9502 0
83.9701 54.1247 0
225.132 48.0361 0
222.153 52.0521 0
243.909 40.9822 0
247.741 37.7707 0
469.557 23.2901 0
471.658 18.7526 0
262.53 23.0745 0
260.698 18.4225 0
338.899 8.26449 0
336.548 12.6773 0
150.48 34.4754 0
150.186 39.4667 0
152.994 57.0373 0
157.989 56.8056 0
486.783 3.41631 0
491.75 2.84451 0
56.8935 21.5134 0
61.8864 21.7766 0
111.925 1.55484 0
110.641 6.38728 0
372.904 40.6157 0
377.899 40.3786 0
346.677 55.256 0
344.314 59.6628 0
108.203 52.9653 0
103.221 53.4018 0
261.304 14.5702 0
260.031 19.4057 0
65.0975 38.4215 0
65.3819 43.4133 0
221.85 21.2206 0
216.866 21.6137 0
28.1761 29.9267 0
25.4409 34.1124 0
169.84 41.3593 0
172.809 45.3823 0
269.885 25.7011 0
270.731 20.7733 0
495.332 52.3078 0
491.955 55.9956 0
367.979 9.91217 0
366.489 5.13927 0
342.868 36.8278 0
347.849 36.3897 0
342.533 29.4297 0
347.406 28.3096 0
126.651 19.6438 0
128.32 14.9308 0
289.726 26.4319 0
286.908 30.5623 0
370.504 1.12297 0
371.146 6.08162 0
111.188 16.2169 0
112.378 11.3604 0
154.986 40.4277 0
149.993 40.1726 0
372.95 26.9653 0
367.994 26.3092 0
333.68 8.0259 0
329.764 4.91719 0
347.454 26.5025 0
344.107 22.7879 0
368.755 53.6875 0
370.228 48.9094 0
309.71 41.5939 0
305.106 39.6428 0
113.545 20.3962 0
110.575 16.3737 0
165.039 3.81403 0
162.983 8.37202 0
139.699 32.5915 0
137.092 36.8583 0
420.841 39.874 0
423.107 44.3314 0
193.056 18.2986 0
194.627 13.5517 0
81.7741 56.9497 0
86.6266 58.1581 0
286.332 55.1693 0
286.481 50.1716 0
385.891 10.7577 0
384.105 6.08773 0
150.352 2.61985 0
151.042 7.57211 0
440.431 49.8393 0
444.142 46.4893 0
416.557 4.62551 0
413.994 8.9187 0
250.934 25.9259 0
254.188 29.7217 0
391.014 43.1539 0
386.768 45.7945 0
438.297 33.2642 0
443.29 33.0163 0
4.29747 25.2294 0
8.80488 23.0656 0
37.1691 50.1171 0
40.5419 46.4258 0
99.6968 42.4272 0
104.433 40.8226 0
215.722 27.4627 0
219.638 24.354 0
59.4903 53.4419 0
64.1625 51.6597 0
286.414 16.7088 0
290.411 19.7121 0
302.822 47.1776 0
302.183 42.2187 0
270.652 34.2638 0
274.342 30.8889 0
256.596 45.7846 0
252.091 47.9541 0
102.059 57.1851 0
98.7748 53.4151 0
343.648 58.859 0
348.626 58.3939 0
230.214 8.51948 0
225.302 9.4515 0
357.498 18.1873 0
359.405 22.8093 0
458.292 24.7832 0
461.595 28.5364 0
377.797 53.4792 0
381.526 50.1479 0
284.866 56.0699 0
289.318 53.7925 0
158.436 37.614 0
158.249 42.6104 0
420.529 18.309 0
416.041 16.1061 0
266.708 38.1894 0
264.709 33.6062 0
282.326 26.8028 0
277.341 26.4161 0
80.3858 45.508 0
76.4074 48.537 0
321.488 17.1861 0
325.468 14.1596 0
409.175 39.7247 0
408.2 44.6287 0
430.586 54.5079 0
433.435 58.6169 0
277.074 20.5756 0
277.209 25.5738 0
198.476 8.54496 0
201.161 12.7628 0
364.318 34.5599 0
359.79 36.6802 0
407.315 11.3794 0
403.83 7.7937 0
471.757 55.559 0
476.753 55.7485 0
272.843 30.6032 0
271.934 25.6866 0
454.483 27.9774 0
457.71 31.7965 0
282.078 14.1052 0
281.75 19.0945 0
110.771 44.2292 0
114.273 47.7977 0
9.22283 32.7059 0
10.557 27.8872 0
329.975 52.9502 0
334.343 50.5169 0
228.552 38.6034 0
223.552 38.6648 0
408.55 6.29759 0
404.383 9.0616 0
243.722 16.3471 0
240.533 12.4959 0
316.051 20.4094 0
317.987 25.0194 0
260.879 49.2203 0
255.915 49.8188 0
300.492 4.87911 0
300.462 -0.120895 0
408.201 53.3805 0
405.952 48.9146 0
402.14 19.5333 0
401.061 14.6511 0
317.498 43.4802 0
313.366 46.297 0
381.64 58.8334 0
384.973 55.1058 0
172.678 52.1996 0
177.579 53.193 0
315.747 44.8897 0
310.752 44.6854 0
84.2951 17.4147 0
81.3032 21.4208 0
335.923 32.8826 0
332.755 36.7505 0
378.673 25.1053 0
374.047 27.0029 0
75.0331 8.14946 0
79.4865 5.87727 0
82.2566 5.27681 0
79.1462 9.19143 0
208.703 9.62775 0
208.117 4.66201 0
486.736 15.518 0
486.803 20.5176 0
150.283 55.5744 0
145.939 58.0521 0
384.587 26.0258 0
379.746 24.773 0
10.6566 58.1081 0
9.71091 53.1985 0
316.929 27.765 0
316.877 32.7648 0
158.401 4.73489 0
162.547 1.94017 0
61.9862 40.1934 0
57.0053 39.7531 0
133.711 25.2999 0
129.516 22.5786 0
462.861 37.9336 0
458.02 39.1821 0
159.106 16.0979 0
154.134 16.6211 0
319.429 33.7134 0
321.258 29.0597 0
476.239 54.2807 0
477.877 49.5566 0
499.367 19.2076 0
494.766 17.2505 0
317.467 51.2688 0
322.26 49.843 0
392 43.8595 0
397 43.8312 0
473.28 20.7999 0
469.566 17.4521 0
239.325 28.585 0
241.925 32.8558 0
131.276 1.03998 0
127.023 3.66876 0
47.049 41.1239 0
51.8776 42.4226 0
359.125 42.3093 0
363.919 43.7312 0
10.6879 12.7479 0
11.1865 17.7231 0
265.463 27.4475 0
267.95 23.1098 0
276.315 49.0062 0
280.921 50.9525 0
362.551 39.7506 0
357.595 39.0876 0
240.425 20.8163 0
238.528 25.4424 0
89.5323 21.1662 0
87.5411 25.7527 0
370.655 48.1787 0
366.925 51.5082 0
52.6197 27.2258 0
56.6592 30.1723 0
88.6544 4.35927 0
93.4898 3.08917 0
140.649 50.7373 0
137.626 54.7206 0
47.9002 19.7231 0
43.9667 22.8096 0
127.424 2.86654 0
132.081 4.68472 0
324.025 0.738876 0
329.018 0.999114 0
123 45.9738 0
125.59 41.6971 0
447.19 25.5506 0
443.929 21.7601 0
129.293 18.623 0
125.688 22.0879 0
134.053 24.0602 0
134.898 19.1321 0
336.52 16.2027 0
340.04 12.6519 0
415.846 49.1142 0
410.848 48.9835 0
359.709 6.12994 0
354.832 5.0298 0
460.324 36.4597 0
465.119 37.8795 0
276.809 47.8065 0
273.308 44.2368 0
313.135 19.8042 0
312.945 24.8006 0
332.942 4.91735 0
328.992 7.98318 0
282.428 25.0303 0
285.074 29.2726 0
249.118 8.15079 0
249.541 13.1329 0
160.573 16.4075 0
159.42 21.2729 0
3.49738 59.7325 0
8.49233 59.9755 0
59.8897 38.135 0
60.063 43.1319 0
248.858 31.1471 0
253.547 32.8826 0
29.1128 24.3567 0
32.6038 20.7772 0
332.802 34.8762 0
332.133 29.9212 0
446.152 30.1835 0
442.493 33.5907 0
412.504 28.1357 0
409.995 23.811 0
240.256 35.6592 0
240.879 40.6201 0
324.233 32.386 0
320.366 29.2169 0
259.239 26.8244 0
255.456 30.0931 0
369.99 13.1096 0
371.717 17.8022 0
299.948 13.2313 0
294.952 13.0459 0
194.166 41.811 0
191.811 46.2213 0
209.096 19.0719 0
212.58 15.4857 0
131.19 29.6458 0
129.098 34.1871 0
344.8 36.1705 0
348.396 32.6966 0
469.435 34.2098 0
464.439 34.015 0
193.552 8.31987 0
190.211 12.0398 0
451.503 41.2991 0
449.553 36.6947 0
280.034 53.6396 0
275.521 51.4864 0
197.616 59.5478 0
201.433 56.3183 0
35.2108 55.0871 0
33.603 50.3528 0
407.829 14.7103 0
404.739 18.6413 0
213.681 30.5481 0
218.502 29.2194 0
195.795 41.2911 0
200.438 43.1455 0
25.5297 37.7731 0
27.8128 33.3247 0
68.9612 40.4661 0
68.7095 45.4596 0
497.967 25.3336 0
497.8 30.3308 0
427.877 43.3126 0
423.069 44.6867 0
118.491 4.17377 0
118 9.14974 0
149.554 10.9031 0
144.573 11.3301 0
467.765 8.25411 0
466.461 3.42711 0
231.614 7.72621 0
234.464 11.8348 0
7.33323 6.01075 0
11.1033 9.29449 0
197.733 15.4694 0
201.121 11.7923 0
409.617 49.0731 0
414.551 49.8824 0
4.34024 31.647 0
1.63057 27.4448 0
130.01 38.2456 0
134.297 35.6728 0
265.68 7.427 0
262.363 3.68592 0
319.11 54.7653 0
321.725 50.5035 0
358.764 12.0341 0
354.573 9.30651 0
296.158 3.94976 0
300.933 5.43104 0
410.116 53.7247 0
410.238 48.7262 0
467.598 1.75046 0
466.234 6.56098 0
317.748 50.8492 0
315.967 55.5214 0
290.275 56.188 0
285.379 57.2052 0
394.716 5.72811 0
399.173 3.46199 0
155.16 52.2947 0
159.865 50.5999 0
343.366 16.1702 0
348.219 14.9677 0
257.733 48.9827 0
257.629 53.9815 0
104.723 52.1414 0
109.211 54.3477 0
424.239 38.7803 0
423.604 43.7399 0
89.1933 17.4428 0
87.1038 12.9003 0
482.01 18.8977 0
483.821 14.2372 0
23.9008 22.8484 0
19.7078 20.1249 0
329.231 54.6415 0
332.872 51.2144 0
17.8416 45.645 0
18.153 50.6352 0
151.41 39.1289 0
146.757 40.9605 0
410.808 47.1062 0
414.508 50.4689 0
332.743 38.8906 0
331.695 34.0017 0
414.194 21.4036 0
414.014 16.4068 0
252.767 51.2238 0
253.575 56.1581 0
206.97 18.5567 0
202.219 20.113 0
151.37 48.8459 0
151.346 53.8457 0
274.043 20.9829 0
278.167 18.1561 0
424.871 22.1257 0
424.204 17.1703 0
35.937 53.768 0
31.0887 54.9928 0
378.773 18.6944 0
376.259 23.0164 0
19.8028 21.9374 0
16.2125 18.4577 0
107.943 56.3574 0
112.233 58.9273 0
399.476 9.42453 0
397.136 13.8432 0
32.2381 26.9161 0
27.7445 29.1086 0
138.808 10.8085 0
134.004 12.1944 0
272.566 18.3918 0
273.793 13.5446 0
369.099 34.2757 0
367.914 39.1332 0
111.023 48.7322 0
115.38 51.1856 0
280.425 2.54921 0
276.744 5.93271 0
49.5984 19.2998 0
51.2237 14.5713 0
285.12 39.1161 0
284.293 34.1851 0
247.017 32.8705 0
250.849 29.658 0
167.111 19.4196 0
163.92 23.2694 0
46.5779 6.69774 0
45.4234 11.5628 0
146.805 45.1705 0
143.957 49.2806 0
327.344 22.3877 0
322.441 23.3671 0
141.174 29.4029 0
136.524 31.2393 0
467.595 45.8798 0
465.619 50.4729 0
22.5466 15.4606 0
20.5757 10.8654 0
266.978 9.28503 0
263.801 5.42376 0
252.6 50.162 0
248.7 53.2912 0
59.9254 3.24332 0
56.6221 6.9965 0
241.037 38.0489 0
236.35 36.3072 0
284.027 51.4878 0
279.055 50.9584 0
84.6112 22.2847 0
84.09 27.2575 0
130.909 15.3555 0
127.101 12.1161 0
21.3532 41.5893 0
20.2451 36.7137 0
52.5784 1.34907 0
48.2503 3.85155 0
443.982 2.5142 0
439.784 5.22927 0
18.965 19.0775 0
16.6859 23.5279 0
110.49 48.1805 0
108.672 43.5227 0
246.848 38.1757 0
249.016 33.6702 0
67.6703 1.92358 0
72.4506 0.460066 0
379.596 45.1148 0
384.396 46.5133 0
314.784 47.3687 0
309.857 46.5144 0
144.228 24.0788 0
149.121 25.1041 0
416.752 17.1044 0
412.07 15.3485 0
442.501 50.2233 0
439.474 46.2437 0
418.964 53.0374 0
414.002 53.6472 0
444.472 3.05166 0
441.03 6.67765 0
84.2385 8.65743 0
87.4404 12.4975 0
120.779 26.0592 0
116.888 22.9196 0
4.37892 45.4711 0
9.36464 45.0879 0
419.59 6.49452 0
419.737 11.4924 0
350.324 34.7974 0
355.304 34.3547 0
383.714 9.2352 0
388.418 10.9305 0
372.175 13.4007 0
377.022 12.1725 0
468.686 10.995 0
473.536 9.7774 0
471.511 54.8529 0
467.009 52.6768 0
159.024 1.44716 0
154.954 4.35084 0
125.69 44.6455 0
130.548 45.8266 0
49.9655 3.53465 0
48.3221 8.25694 0
451.268 52.2689 0
450.037 57.1147 0
428.542 53.4643 0
430.519 58.0571 0
41.1225 51.5869 0
44.1823 47.6323 0
64.7032 34.5765 0
62.819 29.9451 0
465.793 37.9248 0
460.817 37.4352 0
292.974 22.6321 0
289.527 26.2544 0
393.508 43.2205 0
388.54 43.7865 0
459.895 31.1868 0
462.266 26.7843 0
481.021 54.9825 0
483.335 50.5499 0
115.788 19.0238 0
116.942 23.8889 0
256.475 9.67403 0
252.039 7.36674 0
390.417 12.671 0
385.956 14.9273 0
332.804 49.8949 0
337.282 47.6694 0
86.1111 43.9962 0
90.5081 41.6153 0
466.692 36.6435 0
461.705 37.0122 0
315.872 12.3133 0
320.611 10.7196 0
42.4486 39.4059 0
40.3837 34.8522 0
378.644 36.328 0
382.161 32.773 0
119.684 39.5979 0
124.657 39.0707 0
385.848 41.4647 0
380.85 41.5971 0
259.776 42.8813 0
264.768 42.5838 0
423.133 15.4666 0
418.845 12.8961 0
113.204 8.86487 0
108.206 8.71721 0
495.357 28.1075 0
493.706 32.8271 0
327.27 45.3023 0
322.426 44.0641 0
436.57 51.8251 0
436.196 46.8391 0
147.217 7.46088 0
145.198 2.8868 0
29.6139 22.5664 0
34.3378 20.9285 0
381.397 43.8851 0
377.949 47.5061 0
187.272 29.9561 0
188.824 34.7094 0
116.79 26.3386 0
113.683 22.421 0
423.211 10.6185 0
418.216 10.8382 0
231.643 57.0742 0
229.001 52.8294 0
317.008 8.42895 0
315.429 3.68459 0
263.484 41.4973 0
268.03 43.5805 0
270.799 19.0438 0
265.922 17.9407 0
19.1112 16.8151 0
20.865 21.4975 0
384.964 23.3754 0
387.646 19.1557 0
370.809 42.1119 0
367.084 38.776 0
71.9931 13.8932 0
67.3854 15.8338 0
236.51 58.6901 0
233.782 54.4997 0
471.248 4.76361 0
476.244 4.54955 0
344.783 45.3049 0
346.741 40.7042 0
5.13875 23.2272 0
2.77565 18.8209 0
170.725 50.9826 0
166.964 47.6877 0
310.288 18.2406 0
315.085 16.8298 0
386.369 28.3455 0
382.428 31.4237 0
34.4533 10.9559 0
36.9983 6.65211 0
63.4692 53.575 0
59.9999 57.1759 0
146.369 13.998 0
148.229 18.6389 0
230.135 31.5656 0
235.074 30.7816 0
352.27 26.7288 0
348.093 23.9802 0
443.998 3.71592 0
439.002 3.93046 0
119.003 43.2805 0
121.345 38.8629 0
444.915 27.4414 0
449.554 29.3074 0
121.517 52.2182 0
116.517 52.1368 0
110.02 55.5755 0
107.03 59.5836 0
240.315 39.7182 0
237.956 35.3097 0
377.35 38.7736 0
373.63 35.4325 0
422.944 4.29942 0
426.263 8.03871 0
220.801 58.3115 0
221.737 53.3999 0
305.736 52.5459 0
305.77 57.5458 0
291.678 4.63832 0
286.687 4.92568 0
474.644 32.7236 0
479.558 31.7975 0
113.989 41.1311 0
112.885 46.0075 0
51.4644 41.7961 0
56.2697 40.4136 0
3.7794 39.8588 0
7.89877 42.693 0
201.913 19.2804 0
204.891 15.2645 0
104.572 7.95094 0
99.6165 7.28876 0
304.831 50.7647 0
299.969 51.9303 0
206.936 52.4417 0
202.584 54.9047 0
47.6941 13.9938 0
52.1564 11.7389 0
117.919 31.455 0
114.693 35.275 0
167.735 47.9493 0
170.727 43.9433 0
172.675 5.16313 0
171.241 9.95323 0
152.538 59.8781 0
155.408 55.7835 0
164.488 55.8542 0
168.643 53.0731 0
137.96 33.6711 0
134.998 29.6431 0
410.104 35.1597 0
415.101 35.3325 0
242.771 14.5303 0
246.308 18.064 0
19.6343 58.0433 0
19.9866 53.0559 0
292.442 55.5371 0
296.565 58.3669 0
372.537 45.4167 0
370.334 49.9052 0
316.369 27.3123 0
311.889 29.5327 0
457.098 23.7604 0
461.776 21.9933 0
182.555 16.2366 0
185.68 12.3337 0
447.891 18.4264 0
443.501 20.8201 0
232.574 4.51785 0
230.123 0.159793 0
391.793 49.0294 0
396.792 49.1378 0
366.443 24.119 0
370.648 21.4137 0
275.095 50.5756 0
271.325 53.8606 0
358.064 32.855 0
360.386 37.2829 0
238.285 9.45979 0
238.446 4.46226 0
373.32 32.8415 0
371.029 28.3974 0
152.127 20.5717 0
148.028 23.4347 0
156.869 8.10912 0
160.649 11.381 0
58.8942 45.8444 0
55.7498 41.9569 0
356.249 57.164 0
361.222 57.6896 0
265.399 53.6648 0
260.496 52.6865 0
229.477 40.9333 0
228.133 36.1174 0
297.225 8.06112 0
301.179 5.00059 0
255.797 37.542 0
259.801 34.5485 0
95.0194 14.4535 0
99.8399 15.7798 0
156.388 33.8736 0
152.37 30.8975 0
18.6831 19.3724 0
13.8853 20.7792 0
35.9831 26.286 0
33.1342 22.1771 0
6.43581 4.92892 0
2.19064 7.56987 0
335.747 31.3894 0
340.517 29.8886 0
377.824 32.7758 0
382.576 31.22 0
491.824 8.53104 0
487.574 5.89696 0
362.346 30.02 0
357.437 30.9715 0
2.50263 55.0718 0
7.47929 54.5817 0
441.195 20.4325 0
439.997 15.578 0
29.9651 42.5364 0
25.0033 41.9166 0
459.421 23.5889 0
463.717 21.0302 0
173.569 51.969 0
176.856 48.201 0
446.657 43.6658 0
441.661 43.4442 0
63.893 22.1643 0
59.4638 19.8449 0
306.018 5.27266 0
306.976 0.365254 0
417.045 37.4584 0
422.043 37.321 0
381.236 34.0734 0
385.929 35.798 0
368.915 51.4925 0
367.214 56.1943 0
60.6895 14.9454 0
56.5989 12.0706 0
245.599 17.8503 0
244.659 12.9393 0
164.99 16.5487 0
160.18 15.1818 0
57.6301 19.6727 0
58.2404 24.6354 0
64.2156 50.5431 0
62.1061 46.0099 0
290.569 51.1119 0
287.204 54.8103 0
362.766 30.0239 0
363.021 25.0304 0
324.185 12.9838 0
323.374 17.9176 0
97.915 44.3892 0
97.526 49.374 0
382.336 5.80018 0
383.145 0.865919 0
455.322 8.93135 0
451.862 5.32196 0
348.053 33.9184 0
348.172 38.9169 0
491.171 20.4132 0
493.16 15.8259 0
355.11 38.6308 0
350.152 39.2752 0
467.741 43.6204 0
472.669 44.4671 0
26.4572 54.9298 0
26.277 49.9332 0
421.975 0.645914 0
424.029 5.20434 0
80.9494 7.06631 0
75.9812 7.62435 0
188.401 8.51329 0
189.924 13.2757 0
430.818 40.6818 0
430.778 45.6816 0
362.292 38.805 0
362.181 33.8062 0
289.95 20.8945 0
292.087 16.3741 0
263.947 24.927 0
267.955 27.916 0
282.73 52.2774 0
277.803 51.4223 0
343.637 32.7774 0
343.56 27.778 0
84.1008 22.387 0
85.6553 17.6347 0
189.946 59.2828 0
190.026 54.2835 0
285.121 32.3895 0
286.551 37.1808 0
449.63 21.9086 0
447.033 17.6359 0
324.003 55.4586 0
328.918 56.3759 0
82.4936 15.4062 0
79.4335 19.3603 0
232.706 30.0815 0
231.839 35.0059 0
461.652 42.9519 0
457.287 40.5137 0
351.363 32.8598 0
353.48 37.3895 0
11.3991 18.6123 0
6.92112 20.8362 0
432.696 33.3464 0
437.523 34.6494 0
401 17.2347 0
403.45 12.8759 0
206.195 0.742046 0
211.082 1.79718 0
305.311 41.443 0
305.148 46.4403 0
5.83428 35.7609 0
7.97678 40.2786 0
14.6687 26.3144 0
15.5999 31.2269 0
186.479 53.413 0
188.275 58.0791 0
205.984 9.15996 0
210.963 8.6981 0
415.356 29.1449 0
410.493 27.9805 0
177.339 35.898 0
182.33 36.1974 0
322.749 47.9373 0
319.429 51.676 0
220.175 58.2968 0
225.161 57.9261 0
457.616 22.4086 0
455.134 18.0683 0
338.02 0.994765 0
334.37 4.41147 0
43.508 25.8216 0
43.8558 30.8095 0
472.729 4.63909 0
476.91 1.89742 0
148.249 39.6936 0
145.775 44.0388 0
413.179 42.2378 0
410.832 37.823 0
272.9 46.0291 0
275.183 50.4776 0
236.77 12.0622 0
234.433 16.4823 0
378.793 36.0438 0
374.327 33.7959 0
243.392 38.56 0
247.011 35.1092 0
333.953 16.5815 0
337.63 13.1935 0
36.129 20.1038 0
31.2095 20.9961 0
212.267 31.912 0
211.029 27.0678 0
368.462 37.3171 0
365.344 41.2266 0
313.292 15.5425 0
309.775 19.0973 0
332.238 36.3753 0
336.644 38.7385 0
185.874 51.441 0
181.598 48.8488 0
399.073 55.9797 0
394.302 57.4739 0
412.503 59.0363 0
407.917 57.0454 0
249.657 45.3624 0
252.982 49.0965 0
275.947 20.9937 0
271.266 22.7503 0
336.229 41.3533 0
331.288 42.1168 0
327.333 43.3009 0
329.824 47.6366 0
346.219 51.646 0
350.603 54.0498 0
191.41 1.61735 0
186.442 2.17349 0
338.548 55.8509 0
339.8 51.0101 0
239.925 -0.106057 0
234.956 0.446959 0
8.70478 41.7805 0
12.2672 45.2891 0
157.539 29.6665 0
154 26.135 0
63.0909 54.1354 0
67.8294 55.7329 0
278.071 55.4018 0
273.296 56.8842 0
317.484 42.204 0
312.808 40.4318 0
348.726 28.4951 0
344.651 25.5975 0
113.824 20.7329 0
111.927 25.3593 0
15.2124 41.8763 0
20.102 40.83 0
185.942 39.6904 0
182.334 43.1524 0
410.304 4.6353 0
415.2 5.65275 0
110.866 7.0702 0
115.711 5.83955 0
244.479 20.3542 0
248.387 17.2351 0
120.7 53.8999 0
116.32 51.4868 0
106.826 3.38944 0
102.214 1.46011 0
399.708 10.6509 0
404.226 12.7916 0
20.6113 19.1954 0
25.3714 20.7247 0
392.541 54.309 0
393.225 59.262 0
443.909 14.0761 0
439.466 16.3693 0
440.318 27.5649 0
441.366 32.4538 0
332.717 35.2112 0
337.674 35.8668 0
435.937 52.7293 0
437.321 57.5337 0
8.51121 47.6716 0
13.0169 49.8403 0
120.921 22.7399 0
125.614 24.4627 0
34.5627 18.3453 0
39.1547 20.323 0
377.893 30.9844 0
372.949 30.2392 0
439.144 4.23399 0
439.519 9.21999 0
234.868 55.3433 0
236.783 50.7244 0
140.76 47.9099 0
143.355 43.636 0
8.12652 5.12798 0
6.41912 0.428434 0
181.176 8.03825 0
176.458 9.69401 0
278.486 44.7336 0
273.49 44.9316 0
151.835 27.8099 0
149.279 23.5127 0
316.529 12.6225 0
321.417 11.5701 0
299.526 17.4647 0
294.534 17.7391 0
469.982 27.2401 0
474.683 25.538 0
107.355 22.385 0
111.007 18.9698 0
325.147 21.5488 0
320.347 20.1495 0
461.375 55.9334 0
465.121 59.2451 0
297.735 16.2179 0
301.399 12.8153 0
465.661 46.9362 0
466.155 51.9117 0
484.277 28.9632 0
486.194 24.3452 0
333.118 29.2161 0
334.856 24.5277 0
323.727 17.4156 0
320.919 13.2788 0
377.964 41.4396 0
378.736 36.4996 0
385.797 31.6773 0
390.33 33.7861 0
68.993 22.1726 0
65.2791 18.825 0
33.1341 13.2667 0
31.2782 17.9096 0
48.401 59.8975 0
49.0764 54.9435 0
369.164 11.9871 0
368.157 7.08942 0
299.327 8.07393 0
294.337 7.75426 0
147.69 9.0829 0
148.836 4.21578 0
164.815 6.48741 0
160.066 8.04829 0
151.232 31.0093 0
146.292 30.2361 0
368.059 30.7117 0
372.851 29.2851 0
128.995 21.5402 0
133.931 22.338 0
467.529 24.3965 0
471.413 27.5446 0
211.341 7.38978 0
207.686 10.8008 0
183.593 50.4926 0
184.153 45.5241 0
77.7453 7.77262 0
74.6372 11.689 0
495.298 47.1841 0
495.877 42.2177 0
327.686 24.302 0
329.533 28.9482 0
447.208 43.9421 0
450.63 40.296 0
273.437 15.6717 0
277.42 18.6945 0
322.245 28.3551 0
317.552 30.081 0
491.291 23.6561 0
488.378 19.5923 0
400.009 12.7715 0
399.638 7.7853 0
392.602 22.4687 0
387.739 21.3074 0
62.6144 21.5013 0
57.7162 20.4986 0
223.177 53.6121 0
224.888 58.31 0
58.6224 45.1814 0
53.6777 44.4372 0
377.613 1.26392 0
374.021 4.74231 0
398.074 13.4821 0
399.902 18.1358 0
104.836 48.8751 0
108.309 45.278 0
48.8408 31.8269 0
51.9935 27.946 0
213.088 59.5852 0
208.219 58.4477 0
242.849 24.0659 0
243.772 28.9798 0
483.456 6.44395 0
484.45 11.3441 0
229.648 39.876 0
232.805 35.9987 0
15.2041 51.2248 0
18.3162 55.1384 0
487.512 30.2965 0
484.599 34.3605 0
489.274 5.76535 0
493.608 8.25878 0
250.451 9.6719 0
255.41 10.3059 0
316.837 52.2417 0
315.588 57.0833 0
483.149 22.3966 0
478.7 20.1158 0
220.869 24.9441 0
221.705 20.0143 0
372.901 53.3227 0
368.408 51.13 0
166.823 12.1339 0
166.776 7.13404 0
37.146 28.865 0
38.3576 33.716 0
348.843 47.1442 0
344.014 45.848 0
444.419 58.9953 0
439.929 56.7951 0
5.2956 41.0125 0
6.03765 45.9571 0
440.682 7.54461 0
445.475 6.12273 0
174.794 47.5506 0
172.866 52.1643 0
199.659 52.556 0
204.061 50.1856 0
19.6843 42.4767 0
14.6993 42.8678 0
483.665 47.0793 0
478.668 47.255 0
187.197 12.0749 0
182.197 12.0531 0
20.3158 46.0422 0
16.926 42.3666 0
441.656 22.2706 0
446.619 21.6627 0
375.038 11.5412 0
372.415 7.285 0
228.313 40.2496 0
230.951 36.0018 0
258.28 17.8747 0
263.178 18.8822 0
287.091 17.3777 0
289.556 21.728 0
484.137 35.1535 0
479.689 32.8693 0
83.8646 44.2437 0
88.2051 46.7263 0
449.448 34.4074 0
447.907 29.6509 0
43.0461 26.5135 0
46.4516 22.8526 0
298.898 11.031 0
298.11 6.09343 0
457.219 43.2345 0
461.568 40.7678 0
379.412 37.1844 0
384.118 38.8729 0
333.729 37.8341 0
330.684 41.7998 0
336.646 9.48133 0
331.673 8.96735 0
24.6204 46.6462 0
29.4612 45.3929 0
318.109 6.26403 0
318.873 1.32266 0
52.0272 33.7265 0
53.5409 38.4919 0
457.344 20.0092 0
452.485 18.83 0
308.821 42.6275 0
307.009 37.9674 0
174.571 23.4752 0
172.849 18.7811 0
230.321 44.7041 0
233.505 40.8485 0
492.136 39.0718 0
489.996 34.5526 0
343.45 15.7202 0
341.632 20.378 0
214.698 46.4072 0
209.902 44.9901 0
451.239 46.8174 0
455.133 49.9539 0
134.034 7.4737 0
138.77 9.07642 0
312.386 54.8061 0
317.276 53.7633 0
408.254 5.30502 0
411.094 1.19014 0
59.4921 50.6911 0
62.2788 54.8425 0
66.6785 49.923 0
71.5036 51.2359 0
362.746 21.3052 0
365.763 17.3181 0
201.826 19.2727 0
206.739 18.3451 0
3.375 31.126 0
4.46188 36.0065 0
209.784 17.5463 0
213.727 14.471 0
491.084 33.043 0
486.194 34.0859 0
160.57 30.7599 0
156.542 27.7979 0
69.8534 40.9842 0
67.0342 36.8548 0
427.119 15.8219 0
424.088 11.8456 0
422.298 53.5522 0
421.079 48.7032 0
234.681 4.98962 0
233.562 0.116203 0
253.656 23.7794 0
258.439 25.2334 0
211.269 34.6238 0
211.487 39.619 0
345.441 18.5012 0
346.923 13.726 0
155.179 36.7211 0
155.215 41.7209 0
396.611 39.1709 0
392.346 36.5612 0
334.404 19.9879 0
334.357 14.9881 0
7.01664 52.3643 0
10.8569 55.5667 0
464.911 13.586 0
464.437 18.5635 0
155.555 47.3443 0
160.554 47.2571 0
136.806 56.6453 0
132.465 54.1625 0
335.787 46.6139 0
331.054 48.2251 0
42.5354 44.6592 0
41.5751 49.5661 0
397.848 15.7332 0
401.7 12.5461 0
15.6004 29.151 0
18.7834 25.295 0
250.539 19.0772 0
253.447 23.1446 0
171.903 2.141 0
168.787 6.05099 0
321.219 8.81713 0
321.6 13.8027 0
294.648 58.6355 0
291.764 54.551 0
421.674 16.5878 0
418.618 20.5449 0
444.41 1.97963 0
447.657 5.78246 0
9.55726 21.431 0
4.96426 23.4065 0
18.5692 16.8634 0
21.8269 20.6562 0
358.208 36.7737 0
363.131 35.899 0
439.018 20.8151 0
443.554 22.9169 0
264.609 6.53238 0
264.409 11.5285 0
196.396 48.7957 0
191.929 51.0423 0
385.013 49.4994 0
382.445 53.7899 0
263.576 18.6587 0
268.509 19.4741 0
183.614 51.6592 0
179.853 48.364 0
140.379 4.75767 0
135.413 5.3344 0
487.64 8.54547 0
491.623 11.5668 0
52.2179 23.1957 0
51.3534 18.271 0
26.0264 47.2374 0
22.6278 43.5698 0
182.981 37.6488 0
178.996 34.6286 0
279.045 46.3582 0
283.466 48.6936 0
42.3837 50.6687 0
45.3361 46.6332 0
309.709 37.49 0
306.677 41.4655 0
232.28 36.288 0
235.946 39.6875 0
312.681 24.1262 0
314.406 19.4334 0
184.004 30.4651 0
187.147 26.5765 0
248.542 34.6428 0
244.56 37.6668 0
192.691 13.5058 0
190.526 18.0129 0
477.843 48.5318 0
474.757 44.5975 0
33.4163 4.59562 0
30.7252 8.80965 0
77.6037 17.6817 0
74.0876 21.2364 0
47.4071 29.4806 0
42.6866 27.8325 0
160.608 18.2488 0
165.286 20.0132 0
76.3795 28.3334 0
77.0927 23.3845 0
216.583 11.8248 0
220.756 9.07079 0
247.099 10.9107 0
243.347 7.60543 0
50.0198 47.3908 0
46.3338 44.0123 0
53.4413 42.6993 0
49.7217 46.0409 0
202.006 10.709 0
204.999 6.70373 0
54.0031 43.7042 0
58.7585 42.1583 0
80.783 7.22916 0
82.3297 2.47427 0
61.4775 28.583 0
56.5734 29.5576 0
174.295 9.45974 0
177.857 5.95123 0
456.796 50.9889 0
452.574 48.3099 0
459.575 55.7204 0
464.502 54.8689 0
131.753 31.9706 0
127.078 30.1982 0
104.154 54.8552 0
99.2739 55.9484 0
417.59 47.8269 0
415.484 52.3617 0
172.628 3.07203 0
167.97 1.25602 0
481.735 15.6356 0
476.825 14.6917 0
178.841 29.3382 0
182.421 32.8285 0
37.7415 46.2409 0
42.1682 48.5664 0
165.1 13.3855 0
169.684 11.3905 0
282.979 41.3798 0
278.977 44.3774 0
235.637 1.48989 0
232.789 5.5993 0
337.166 12.168 0
337.097 17.1676 0
442.258 10.5157 0
437.861 12.8949 0
464.869 48.7059 0
467.976 52.6236 0
384.823 43.2853 0
379.83 43.5512 0
296.493 39.9069 0
291.638 38.7094 0
139.728 29.3362 0
142.568 25.2206 0
363.219 23.4479 0
358.222 23.6223 0
472.149 3.82819 0
477.137 3.48042 0
300.515 8.56302 0
295.75 10.0765 0
245.932 50.9733 0
248.031 55.5113 0
64.6681 33.0893 0
62.2505 37.4661 0
14.5774 15.8175 0
13.0589 20.5814 0
117.226 45.2831 0
115.1 49.8086 0
122.754 3.48831 0
125.555 7.63036 0
379.943 21.6732 0
375.397 23.7549 0
26.2688 39.1148 0
21.272 38.9302 0
49.4271 57.2283 0
54.3819 57.9042 0
278.116 22.3828 0
277.911 27.3786 0
472.803 49.6732 0
471.375 44.8813 0
401.032 9.05289 0
398.6 13.4218 0
21.5669 25.0064 0
16.6838 26.0805 0
39.7586 45.1935 0
41.9344 49.6952 0
89.5037 21.1613 0
88.3037 26.0153 0
420.917 49.5548 0
423.431 45.2324 0
234.539 22.2429 0
229.555 21.8453 0
69.4327 25.596 0
65.1728 22.9784 0
161.073 47.3661 0
165.998 46.5009 0
10.001 42.7781 0
5.23681 41.2597 0
358.63 22.4752 0
356.884 17.7897 0
111.775 12.4091 0
106.775 12.4326 0
197.289 50.0926 0
197.255 45.0928 0
40.8503 44.6126 0
35.9133 45.4065 0
410.886 32.3262 0
409.054 36.9784 0
185.77 5.84266 0
182.536 9.65588 0
54.5064 39.6757 0
56.8279 35.2473 0
266.45 15.7739 0
270.432 18.7978 0
476.716 29.4768 0
479.914 33.3203 0
378.575 52.7827 0
374.785 56.0439 0
88.1768 3.92 0
85.4364 8.10208 0
402.89 56.7192 0
399.602 52.9522 0
365.762 25.3843 0
365.326 30.3653 0
205.169 40.5961 0
204.646 45.5687 0
58.0036 10.1253 0
59.2895 5.29334 0
333.746 5.48948 0
328.765 5.91906 0
378.189 10.2291 0
382.446 7.60705 0
76.9953 54.7507 0
75.6879 49.9247 0
208.479 42.8549 0
213.428 42.1424 0
389.672 14.6613 0
385.22 12.3852 0
71.4971 30.1962 0
68.5164 26.1818 0
40.7141 6.28551 0
45.06 8.75699 0
253.942 11.3692 0
253.903 6.36924 0
128.198 18.7677 0
125.771 14.3958 0
262.786 7.57438 0
258.842 4.50213 0
112.912 21.8195 0
114.985 26.3696 0
429.663 27.6558 0
431.334 32.3684 0
341.048 40.639 0
344.988 43.7181 0
484.805 12.9765 0
480.016 11.5382 0
268.331 46.8879 0
271.506 43.0252 0
262.793 37.4995 0
267.707 38.4211 0
409.359 39.7137 0
411.222 35.0733 0
23.0416 54.6931 0
21.7467 49.8638 0
78.3592 16.2021 0
83.0487 17.936 0
166.101 48.2153 0
165.676 53.1972 0
236.041 16.8018 0
231.097 17.5515 0
180.007 32.9798 0
179.296 28.0307 0
85.8492 28.1969 0
85.2242 23.2361 0
72.6634 56.1295 0
74.7828 51.6009 0
399.783 9.0026 0
398.651 4.13229 0
175.629 11.5795 0
172.307 15.3168 0
46.1764 38.2414 0
51.1301 38.9221 0
326.033 5.28807 0
329.072 9.25841 0
394.007 39.8386 0
399.003 39.641 0
9.60031 54.7471 0
14.5832 54.3259 0
114.94 11.0868 0
119.56 12.9975 0
488.035 21.4501 0
490.932 17.3748 0
430.802 -0.132553 0
435.443 1.72743 0
423.862 52.4489 0
422.607 57.2887 0
124.785 28.3817 0
121.995 32.5313 0
308.64 47.2112 0
303.881 48.7448 0
77.6271 44.9163 0
76.2483 40.1102 0
137.797 29.861 0
142.636 31.122 0
125.855 0.998631 0
130.847 0.742327 0
294.308 47.5442 0
298.407 44.6809 0
266.325 37.1278 0
261.382 36.3771 0
386.391 20.6192 0
391.271 19.5311 0
418.455 20.726 0
413.841 18.8002 0
131.419 23.8452 0
133.808 28.2378 0
173.386 39.9398 0
175.218 35.2873 0
187.667 37.7007 0
184.125 34.1711 0
166.356 56.6554 0
170.356 53.655 0
349.838 17.9912 0
351.589 22.6745 0
293.476 14.5574 0
290.743 10.3706 0
162.441 37.1404 0
159.001 33.5121 0
226.051 13.7914 0
224.845 18.6437 0
398.631 57.7717 0
402.933 55.2232 0
139.654 52.3399 0
142.498 56.4524 0
140.923 2.99868 0
141.722 7.93449 0
134.869 24.4961 0
132.816 29.0549 0
442.944 41.9047 0
438.007 41.1153 0
390.858 17.0464 0
388.053 21.1856 0
226.027 9.43507 0
228.067 4.87 0
23.84 20.4356 0
24.6813 25.3643 0
295.515 43.676 0
291.164 41.2124 0
368.572 29.7496 0
367.69 34.6711 0
33.9627 8.95192 0
38.8828 8.06476 0
392.772 43.5303 0
395.863 47.4605 0
396.808 7.17496 0
391.816 7.44562 0
173.567 0.274855 0
175.372 4.93779 0
169.584 35.8645 0
165.823 39.1588 0
439.025 51.6606 0
443.814 50.222 0
222.51 52.7026 0
226.776 50.094 0
390.541 38.5908 0
393.441 42.6636 0
391.558 45.6832 0
394.791 49.4976 0
262.185 13.6467 0
261.824 18.6337 0
153.29 14.212 0
148.346 13.4677 0
273.764 1.95927 0
268.977 0.517315 0
483.722 22.1365 0
486.793 18.1905 0
344.792 6.97251 0
341.159 10.408 0
41.7902 24.6785 0
39.6905 29.2163 0
311.055 11.4614 0
315.508 13.7353 0
16.2098 47.8883 0
19.9978 44.6244 0
354.502 6.8266 0
359.445 6.07003 0
102.568 7.18722 0
97.8652 5.49063 0
156.622 11.7488 0
151.677 11.0127 0
323.87 55.7352 0
319.868 52.7369 0
10.7879 18.0638 0
15.1578 20.4931 0
167.35 0.475106 0
172.238 1.52544 0
234.413 56.5896 0
239.282 57.7265 0
45.858 44.0303 0
46.2114 39.0429 0
340.958 35.3052 0
337.515 38.9308 0
212.149 21.9156 0
211.971 26.9124 0
180.29 14.3154 0
176.27 17.289 0
50.5133 31.8417 0
48.0089 27.5142 0
450.398 17.0256 0
452.133 12.3363 0
389.663 6.67833 0
384.669 6.92414 0
51.5352 58.7887 0
46.5952 58.0117 0
201.971 48.6266 0
202.415 53.6068 0
283.077 29.9574 0
283.504 34.9391 0
328.946 57.8711 0
332.921 54.8378 0
298.573 7.43395 0
294.174 9.81004 0
464.92 48.675 0
462.208 44.4748 0
241.196 25.6273 0
238.912 30.075 0
21.8096 31.732 0
22.4527 26.7735 0
264.514 7.28279 0
264.821 2.29211 0
457.324 22.2566 0
461.259 19.1717 0
82.2762 51.6989 0
85.1133 55.8162 0
125.825 59.3227 0
127.208 54.518 0
361.473 13.1991 0
363.868 8.81033 0
144.873 49.5824 0
144.372 44.6077 0
342.376 23.7124 0
346.322 20.6422 0
410.225 48.7596 0
412.993 52.9236 0
299.144 3.72353 0
303.552 6.08365 0
163.61 18.1774 0
164.082 23.155 0
67.0139 51.3927 0
67.6088 46.4283 0
272.585 37.7877 0
268.676 34.6694 0
71.9275 19.5029 0
75.3169 23.1787 0
131.535 26.5316 0
131.407 21.5332 0
141.401 9.32426 0
145.656 6.69911 0
251.746 53.8678 0
256.53 52.4131 0
19.4958 14.9231 0
24.0503 12.8607 0
369.62 32.0616 0
370.377 27.1192 0
123.355 49.5968 0
122.385 44.6918 0
212.661 6.49001 0
207.828 5.20803 0
178.557 49.1698 0
179.806 54.0112 0
126.399 29.2564 0
129.072 25.0306 0
323.358 13.4223 0
325.033 18.1334 0
230.935 20.9067 0
227.967 16.8834 0
105.578 47.3215 0
104.746 52.2517 0
389.778 46.806 0
385.082 45.0903 0
88.0152 43.0654 0
90.8878 47.1579 0
215.151 7.46978 0
220.081 6.64067 0
411.078 10.7227 0
407.801 14.4995 0
379.621 8.49487 0
382.069 4.13532 0
208.332 4.2491 0
203.84 6.44451 0
15.4828 22.4715 0
13.0037 26.8136 0
253.909 6.56884 0
256.931 2.5854 0
219.231 34.8191 0
214.278 34.1357 0
72.2355 50.9509 0
75.6557 47.3034 0
341.569 52.233 0
346.422 53.4375 0
358.101 46.2064 0
358.671 51.1737 0
121.223 43.2197 0
122.929 47.9194 0
439.618 38.0465 0
443.82 35.3355 0
226.993 20.8472 0
231.869 19.7408 0
438.843 34.9553 0
439.22 29.9695 0
104.976 16.7161 0
104.51 11.7378 0
77.1611 22.1832 0
72.5497 20.251 0
422.887 47.6106 0
425.755 43.5152 0
151.072 22.1802 0
150.981 27.1794 0
35.5485 31.0469 0
37.2912 26.3604 0
214.598 3.5573 0
213.329 8.39377 0
131.435 47.3456 0
128.898 43.0367 0
370.869 49.4168 0
365.869 49.4664 0
282.552 8.68666 0
282.525 13.6867 0
241.246 38.6951 0
243.552 34.2588 0
130.776 24.792 0
128.964 20.1318 0
305.647 11.3321 0
307.656 6.75338 0
283.691 8.40468 0
287.831 11.2079 0
108.501 37.6996 0
110.952 42.0578 0
307.648 47.0782 0
302.871 45.6023 0
203.735 43.0087 0
207.051 39.2665 0
99.5802 55.6744 0
101.671 51.1326 0
358.795 34.5654 0
363.612 33.2261 0
437.93 3.51227 0
442.41 1.29274 0
23.5805 39.3765 0
18.6658 38.4555 0
65.8863 11.3621 0
66.6343 6.4182 0
323.868 39.3848 0
326.293 35.0121 0
130.566 45.862 0
128.461 41.3267 0
495.28 49.181 0
499.029 52.4893 0
217.679 30.8734 0
213.867 34.1089 0
463.94 3.22736 0
465.202 8.06567 0
54.2536 51.7226 0
50.5928 48.3166 0
429.539 41.4757 0
425.156 43.8814 0
367.563 13.4937 0
370.992 9.85521 0
366.967 49.6534 0
366.419 54.6233 0
196.837 50.9774 0
193.828 46.9843 0
251.798 45.072 0
247.58 42.3879 0
444.368 59.4496 0
439.725 57.5918 0
208.674 23.8165 0
209.594 18.9017 0
242.544 24.0225 0
241.264 19.189 0
18.0147 35.3103 0
22.0624 38.2458 0
169.436 41.1042 0
165.976 44.7141 0
334.76 19.8973 0
336.918 24.4077 0
302.519 5.39077 0
298.531 2.37497 0
359.901 53.4103 0
354.993 52.4545 0
276.409 43.5855 0
280.015 40.1218 0
364.264 30.5223 0
368.742 32.7456 0
139.811 28.3338 0
144.596 29.7838 0
269.951 50.2388 0
266.53 53.8855 0
88.3014 26.5523 0
85.586 22.3539 0
4.89187 41.6432 0
6.06875 36.7837 0
222.34 32.3383 0
224.667 27.9131 0
247.787 12.2041 0
247.324 17.1826 0
80.5132 32.6896 0
79.9248 27.7244 0
251.558 31.7287 0
253.434 36.3634 0
384.761 41.2743 0
387.282 45.5925 0
261.874 52.515 0
257.532 50.0354 0
145.486 38.3775 0
140.641 37.1414 0
377.371 32.5578 0
380.654 28.7864 0
89.6154 46.6336 0
86.6629 50.6689 0
309.921 40.7335 0
314.241 43.2496 0
451.417 11.1575 0
446.417 11.1686 0
410.299 13.9946 0
407.011 10.2274 0
211.132 46.2376 0
213.937 42.0983 0
160.114 15.9636 0
163.877 12.6721 0
344.398 3.35645 0
340.252 6.15111 0
8.6022 58.0663 0
9.85237 53.2253 0
468.294 24.9811 0
465.452 20.8675 0
440.553 22.0856 0
437.638 18.0238 0
126.136 54.825 0
124.422 59.5218 0
491.794 17.4473 0
488.454 13.7267 0
354.915 34.113 0
350.076 35.3705 0
146.747 48.5628 0
150.727 45.5355 0
459.804 33.7165 0
464.302 31.5336 0
481.627 23.3077 0
478.696 19.257 0
161.25 48.2216 0
159.002 43.7553 0
473.067 46.8628 0
477.959 45.8335 0
165.906 28.3492 0
161.192 26.6821 0
291.567 22.7714 0
287.469 19.9069 0
128.569 17.4679 0
126.744 12.8127 0
5.19332 37.9349 0
7.01082 33.2769 0
336.705 11.5342 0
331.748 12.1803 0
12.402 1.8045 0
9.47024 5.85468 0
19.0979 1.76271 0
15.1637 4.84787 0
9.90133 26.8978 0
14.8579 26.2409 0
301.141 6.14349 0
298.67 10.49 0
191.459 35.9641 0
194.302 40.0772 0
434.809 8.80198 0
429.887 7.92124 0
24.4723 55.2969 0
19.5124 54.6595 0
144.103 4.05753 0
149.103 4.06588 0
473.082 38.4452 0
478.082 38.4597 0
144.883 18.5848 0
139.894 18.9077 0
423.868 35.7223 0
419.581 38.2946 0
0.569778 13.3158 0
5.40589 12.0478 0
265.538 46.4939 0
269.814 49.0867 0
292.35 16.4889 0
297.349 16.5496 0
378.371 38.9866 0
374.673 35.6211 0
428.132 29.0522 0
426.931 24.1988 0
209.991 13.908 0
214.875 14.9807 0
435.29 9.554 0
430.294 9.35065 0
342.17 53.2233 0
342.731 48.2548 0
352.096 30.4775 0
352.506 35.4607 0
187.356 39.4092 0
187.521 34.4119 0
315.022 5.30686 0
320.011 5.62273 0
440.248 33.0835 0
437.776 28.7375 0
378.089 35.5161 0
376.831 30.6769 0
277.529 2.43623 0
272.922 0.492916 0
444.363 21.9171 0
445.968 26.6524 0
197.861 13.1884 0
202.355 10.997 0
310.926 56.2486 0
312.025 51.3709 0
291.097 48.1817 0
289.034 52.7362 0
362.231 32.4102 0
364.984 36.5836 0
213.577 40.8694 0
215.468 36.2408 0
479.678 44.3853 0
476.713 48.4111 0
487.225 38.5108 0
482.227 38.6528 0
337.012 36.1977 0
333.713 39.955 0
244.536 26.4986 0
249.285 24.9348 0
103.959 17.1444 0
108.825 18.2928 0
90.8324 14.9516 0
95.4523 13.0403 0
63.075 3.78166 0
58.6895 1.38101 0
386.847 36.559 0
383.237 33.099 0
261.103 4.32769 0
265.438 6.81833 0
302.562 52.4932 0
300.721 57.1421 0
70.0445 43.175 0
66.1726 46.3389 0
462.106 7.11481 0
466.786 8.87545 0
115.523 56.3515 0
111.133 58.7454 0
244.381 40.7641 0
248.727 43.2362 0
356.154 12.5366 0
353.844 16.9711 0
84.6798 18.9391 0
87.2681 23.217 0
41.5136 56.5907 0
44.8537 52.8697 0
263.798 8.91169 0
266.931 5.01558 0
381.074 35.6952 0
384.495 39.3413 0
62.7385 27.4885 0
63.3949 32.4452 0
251.197 15.5096 0
250.814 20.495 0
51.129 3.18936 0
47.2518 6.34596 0
289.763 20.3831 0
286.998 16.2172 0
111.419 37.4575 0
108.669 41.633 0
456.542 25.0757 0
460.339 28.3295 0
430.537 31.8345 0
427.781 36.0063 0
460.981 7.36594 0
462.544 12.1152 0
472.012 41.4668 0
477.011 41.3577 0
359.942 54.2434 0
356.07 51.0792 0
176.708 20.99 0
172.431 23.5797 0
7.72413 6.35476 0
12.6355 7.2885 0
119.396 40.1392 0
116.283 44.052 0
239.228 25.6985 0
240.607 20.8925 0
297.426 8.68173 0
301.434 5.69262 0
475.949 3.27112 0
476.907 8.17838 0
144.98 50.6595 0
145.616 55.6188 0
135.604 10.6358 0
130.745 9.45613 0
32.6139 26.3979 0
29.3984 22.5691 0
258.012 41.0711 0
256.127 36.4401 0
268.119 34.5188 0
272.493 32.0959 0
252.779 31.8912 0
257.461 30.1378 0
222.301 16.4087 0
217.49 15.0476 0
439.413 0.179182 0
439.581 5.17639 0
26.2035 6.15597 0
30.6168 3.80691 0
440.797 17.2318 0
443.516 21.4279 0
41.5723 18.2718 0
39.5398 22.8401 0
53.4239 47.5331 0
55.373 52.1375 0
331.155 53.359 0
335.282 50.5371 0
149.709 9.04628 0
152.852 5.15766 0
238.608 18.959 0
243.562 19.6362 0
152.35 5.54681 0
152.098 0.553015 0
233.286 18.8696 0
229.819 15.2665 0
217.157 18.5644 0
221.985 19.8669 0
217.402 27.377 0
222.295 26.3465 0
96.0316 41.9808 0
101.007 41.4844 0
468.003 45.971 0
471.978 42.9376 0
206.787 54.803 0
208.917 50.2796 0
120.078 19.3251 0
118.055 23.8975 0
129.581 58.3688 0
125.483 55.5037 0
9.45055 39.8223 0
12.7504 43.5789 0
23.6575 21.8484 0
20.9518 17.6437 0
446.01 55.3133 0
441.012 55.4376 0
253.937 7.0986 0
251.362 2.81239 0
244.447 49.5614 0
242.423 44.9893 0
27.5925 54.1013 0
27.1563 49.1205 0
31.7676 32.8656 0
36.7281 32.2378 0
269.311 11.5074 0
264.931 9.09537 0
150.64 15.3995 0
155.633 15.6501 0
223.097 14.4356 0
224.125 19.3288 0
214.346 55.7007 0
212.195 51.1874 0
171.101 50.7868 0
169.642 46.0043 0
137.007 45.588 0
139.682 41.3642 0
279.214 51.4389 0
284.212 51.5965 0
38.4465 6.58975 0
38.5168 1.59003 0
28.8221 44.2775 0
23.8223 44.3598 0
317.33 50.7593 0
318.135 45.8246 0
394.512 14.2521 0
393 9.48614 0
206.986 40.6547 0
210.634 44.0743 0
296.878 16.408 0
301.366 14.2046 0
192.431 4.35596 0
195.426 0.352188 0
242.992 35.999 0
243.15 40.9964 0
41.1223 58.9514 0
43.7057 54.6704 0
442.158 49.3278 0
447.095 50.1181 0
464.268 24.8888 0
468.941 23.1116 0
77.0912 34.8173 0
76.0005 39.6969 0
42.8269 7.74398 0
45.7456 3.68432 0
471.142 24.9314 0
466.837 27.4742 0
35.219 23.6692 0
32.1368 19.7322 0
417.59 33.7536 0
419.824 38.2267 0
5.42422 54.8671 0
4.71206 49.9182 0
358.068 13.8397 0
354.637 10.2023 0
38.5054 27.1237 0
41.8381 30.8511 0
210.79 32.0265 0
212.693 36.6502 0
229.062 12.9636 0
229.582 17.9365 0
268.463 24.3407 0
272.565 27.2001 0
491.916 19.7773 0
487.642 17.1826 0
218.963 33.2117 0
217.782 38.0704 0
154.045 55.2919 0
152.775 50.456 0
455.099 55.261 0
450.374 56.8972 0
5.55051 27.5471 0
10.0566 25.3804 0
330.102 29.6956 0
332.581 25.3534 0
474.803 36.7817 0
478.459 33.371 0
419.207 41.8783 0
418.347 36.9529 0
427.06 11.6197 0
431.006 8.54885 0
78.8725 22.6617 0
75.8699 26.6598 0
191.135 47.7046 0
186.744 45.3138 0
278.727 2.56578 0
273.824 3.54763 0
20.8542 27.9118 0
15.9126 28.6738 0
62.4818 14.3314 0
58.2847 17.0485 0
167.726 15.3366 0
164.562 11.4657 0
278.811 43.7088 0
273.829 44.1457 0
390.93 13.1015 0
386.323 15.0446 0
17.0868 54.6805 0
17.7569 49.7258 0
497.071 6.59098 0
494.162 2.52423 0
432.115 41.9949 0
436.726 43.9284 0
433.933 28.3215 0
429.031 29.308 0
336.18 45.4812 0
331.607 47.504 0
479.219 21.2596 0
484.133 20.3343 0
223.052 36.4063 0
218.196 37.5993 0
407.53 38.9518 0
412.245 37.2878 0
66.6679 10.4545 0
71.038 12.8832 0
166.384 12.2479 0
161.398 12.62 0
143.059 51.0897 0
142.464 46.1253 0
90.577 21.5336 0
88.2381 17.1143 0
75.4445 20.8189 0
74.9797 25.7973 0
364.925 10.4331 0
363.097 5.77911 0
463.475 44.8309 0
460.437 48.8026 0
174.629 26.0399 0
175.565 30.9515 0
262.459 33.1824 0
258.004 30.9125 0
390.344 44.1653 0
395.086 45.751 0
212.654 55.1822 0
208.415 52.53 0
383.857 55.2117 0
379.64 57.8981 0
250.753 32.0479 0
252.514 36.7273 0
236.625 7.41195 0
239.914 3.64676 0
366.26 15.5389 0
364.356 20.1619 0
294.555 5.36928 0
289.605 4.66716 0
91.7853 13.1361 0
87.1282 14.9548 0
48.5956 11.4328 0
45.9242 7.20625 0
195.813 50.3641 0
192.953 54.4651 0
139.712 43.1056 0
142.985 39.3249 0
324.393 52.9713 0
324.836 57.9515 0
60.6092 47.4196 0
58.3753 42.9464 0
462.82 53.8245 0
463.528 58.7741 0
68.8424 2.22061 0
63.8754 2.78782 0
168.059 51.786 0
163.351 53.4709 0
330.268 39.7758 0
326.28 36.76 0
33.8305 18.4335 0
29.576 21.0599 0
458.93 9.11584 0
455.924 13.1113 0
179.365 2.90305 0
183.894 5.02134 0
288.206 4.89872 0
284.742 8.50494 0
221.285 38.6148 0
221.61 33.6253 0
165.395 27.4073 0
160.577 26.0719 0
421.52 35.9751 0
425.499 32.947 0
251.603 4.21331 0
256.185 2.21436 0
323.257 55.0273 0
325.789 59.3391 0
37.3651 8.22332 0
41.9252 6.17361 0
493.789 33.6652 0
491.588 38.1547 0
225.765 14.4858 0
220.848 15.3911 0
79.1106 6.32798 0
74.2725 7.58779 0
421.457 6.04788 0
417.375 3.16079 0
400.94 11.3246 0
396.102 10.0642 0
236.84 18.8023 0
233.287 15.2849 0
468.215 35.4233 0
473.154 36.2008 0
373.687 19.2357 0
372.747 14.325 0
176.185 21.0089 0
177.759 16.2631 0
352.091 31.7566 0
347.092 31.8883 0
350.692 36.7642 0
346.262 39.084 0
60.4527 24.4527 0
58.5427 29.0735 0
216.957 37.5881 0
220.759 34.3407 0
426.381 12.8296 0
430.549 15.5917 0
152.115 6.8636 0
155.953 10.0675 0
108.811 24.1631 0
113.751 23.3877 0
388.431 31.2671 0
384.671 27.9713 0
469.12 30.2031 0
466.206 34.2661 0
39.1787 14.8556 0
43.5859 12.4949 0
80.132 14.5657 0
85.1071 14.0711 0
64.2678 29.8772 0
61.5623 25.6725 0
498.744 22.8049 0
494.985 26.1022 0
323.285 9.86757 0
321.574 14.5657 0
354.752 56.9047 0
350.549 59.6136 0
104.97 15.6077 0
100.163 16.9821 0
176.784 24.0605 0
173.959 28.1864 0
273.854 8.03365 0
278.806 7.34691 0
346.438 19.8568 0
341.818 21.7686 0
469.47 8.57095 0
472.099 12.8242 0
378.619 57.8251 0
383.616 57.6642 0
411.383 23.9302 0
416.379 24.134 0
419.146 7.12762 0
419.027 2.12902 0
326.306 52.4777 0
328.268 57.0767 0
141.47 2.98261 0
142.846 7.78964 0
290.233 47.1357 0
294.935 48.8369 0
183.234 36.2698 0
181.852 31.4647 0
380.527 18.0318 0
381.219 13.0799 0
247.652 5.56773 0
242.935 7.22613 0
35.4918 23.838 0
32.6678 27.9642 0
444.484 23.3491 0
449.05 21.3124 0
218.551 15.1716 0
217.034 10.4071 0
321.703 19.3546 0
320.408 24.184 0
70.7921 5.72747 0
75.1511 8.17594 0
98.3883 42.5474 0
94.9721 38.8963 0
173.694 47.9249 0
174.22 52.8971 0
464.019 40.1443 0
461.489 44.457 0
230.4 41.8645 0
225.722 43.6316 0
103.233 46.9868 0
104.738 51.755 0
5.33491 59.0776 0
1.16778 56.3136 0
409.567 3.01767 0
409.934 8.00419 0
156.789 55.3463 0
151.824 55.9389 0
282.14 37.9147 0
281.748 42.8993 0
12.6449 33.2792 0
10.6703 37.8728 0
107.029 52.1369 0
111.772 50.555 0
4.80907 29.1497 0
1.02647 25.8799 0
148.241 16.6719 0
145.441 12.5295 0
412.761 38.8533 0
412.946 33.8568 0
83.9656 3.80019 0
87.1085 7.6887 0
417.317 30.1186 0
422.179 31.2847 0
345.514 24.5119 0
342 28.0689 0
426.069 4.45813 0
421.971 1.59424 0
224.02 41.7559 0
228.712 43.4852 0
337.704 9.1523 0
342.447 10.7364 0
396.484 50.0641 0
401.453 49.5013 0
191.198 9.50399 0
196.029 8.21843 0
72.8772 46.5209 0
71.2115 41.8066 0
187.165 2.09298 0
190.568 5.75597 0
36.3146 44.7759 0
33.2385 40.8341 0
273.948 11.6249 0
276.524 7.33987 0
1.71491 14.3137 0
3.38124 9.59952 0
465.923 27.4831 0
463.423 23.153 0
354.444 2.96053 0
350.395 5.89408 0
484.024 15.387 0
481.234 19.5364 0
463.195 18.8984 0
460.599 23.172 0
228.53 3.03365 0
224.831 6.39715 0
321.803 53.1615 0
321.017 48.2238 0
153.945 16.1069 0
158.648 14.4104 0
187.219 8.38839 0
191.429 5.69073 0
188.047 51.0578 0
184.491 47.5424 0
42.0956 51.0089 0
42.2842 46.0125 0
118.99 2.16152 0
121.323 6.58384 0
281.019 41.1691 0
277.413 44.6326 0
216.43 4.31824 0
221.395 4.91253 0
253.853 16.4769 0
258.837 16.8648 0
320.451 54.8471 0
319.116 59.6656 0
135.941 25.2459 0
139.678 28.568 0
167.698 25.6394 0
168.108 20.6562 0
393.666 55.0599 0
388.696 55.6081 0
94.5812 49.5888 0
91.4204 45.7146 0
91.0562 9.05096 0
94.2084 5.16991 0
370.015 34.0872 0
365.043 33.5542 0
348.145 35.4464 0
344.858 39.214 0
422.661 19.1209 0
425.833 15.2565 0
246.358 41.7022 0
241.381 41.2251 0
75.8197 26.7561 0
80.1418 24.2422 0
382.188 26.7504 0
378.54 23.3314 0
227.044 20.2968 0
228.005 25.2036 0
285.704 21.8378 0
285.3 26.8215 0
471.205 26.4528 0
466.207 26.2947 0
127.998 36.0379 0
131.126 39.9382 0
67.9011 50.2609 0
71.484 53.7488 0
1.38971 50.727 0
5.99712 52.6703 0
119.541 5.84117 0
115.576 8.88613 0
40.0286 16.4182 0
41.462 21.2084 0
271.573 16.8229 0
266.596 17.2952 0
71.0051 8.32606 0
70.0732 3.41351 0
458.512 20.9406 0
463.495 21.3483 0
150.201 46.8901 0
151.655 42.1063 0
151.313 33.6571 0
151.623 38.6475 0
103.821 10.3459 0
98.8222 10.3993 0
264.538 17.3388 0
265.685 22.2054 0
337.345 15.7414 0
337.546 10.7453 0
244.431 54.5373 0
239.449 54.1083 0
301.772 4.80897 0
305.936 2.04166 0
170.352 30.2148 0
172.871 25.8952 0
439.086 40.3127 0
441.708 44.5703 0
17.9449 37.6417 0
16.8718 32.7582 0
481.143 48.9651 0
485.431 51.5365 0
437.353 37.8852 0
441.272 34.7795 0
342.65 14.3181 0
347.525 15.4282 0
208.359 49.1214 0
205.019 52.8418 0
405.434 20.5465 0
409.691 23.1694 0
321.305 22.9375 0
325.732 25.2617 0
392.294 49.5846 0
388.025 46.9812 0
147.214 6.77973 0
143.388 3.5615 0
6.92081 49.9023 0
6.86516 44.9027 0
446.98 34.7773 0
446.042 29.8662 0
406.619 43.2627 0
407.721 38.3858 0
206.19 39.633 0
202.484 42.9896 0
161.158 44.8925 0
160.663 39.9172 0
59.6988 22.1875 0
62.3333 26.4371 0
321.387 47.6531 0
326.381 47.9164 0
249.545 17.8362 0
244.665 18.9247 0
474.319 31.927 0
476.229 36.5475 0
76.2125 6.46306 0
72.4042 3.22363 0
345.806 32.3186 0
345.088 27.3703 0
356.756 21.8763 0
358.449 17.1717 0
308.216 45.1836 0
310.541 49.61 0
305.915 13.9929 0
306.867 18.9015 0
329.574 44.7402 0
325.767 41.4982 0
213.393 7.35654 0
216.88 3.77365 0
466.342 47.9521 0
470.749 50.313 0
41.4227 53.0964 0
45.8017 50.6822 0
446.065 35.9846 0
442.587 39.577 0
481.901 5.41644 0
484.575 1.19113 0
120.386 25.9612 0
125.385 25.9052 0
341.326 10.7212 0
339.533 6.05366 0
8.1672 0.648551 0
13.1565 0.963441 0
375.137 54.8638 0
371.981 58.7416 0
383.344 51.3531 0
378.71 53.2308 0
487.241 6.32189 0
484.51 2.13387 0
133.878 57.9419 0
132.285 53.2025 0
256.488 48.0693 0
258.378 43.4402 0
70.2353 45.942 0
69.8948 50.9303 0
30.6791 43.9082 0
31.0175 38.9197 0
89.6224 9.3335 0
94.4419 8.00399 0
143.287 36.4192 0
138.497 37.8531 0
343.475 2.3135 0
343.509 7.31345 0
346.966 39.4123 0
343.851 35.5019 0
179.415 28.6786 0
184.41 28.9161 0
39.1496 27.2935 0
34.2242 26.4335 0
258.385 16.221 0
253.937 13.9387 0
399.081 9.67345 0
400.949 5.03541 0
310.509 35.8737 0
308.279 40.3491 0
386.138 54.2094 0
385.965 59.2063 0
104.723 14.2867 0
109.723 14.3416 0
158.896 51.1826 0
163.708 49.8225 0
296.946 6.76762 0
297.093 1.76969 0
221.482 37.7512 0
221.772 42.7428 0
350.44 25.9438 0
350.389 30.9436 0
397.833 6.12637 0
393.154 7.88918 0
84.7066 26.0637 0
80.3055 23.6909 0
202.791 46.9023 0
207.512 48.551 0
227.373 18.7198 0
226.11 13.8818 0
182.282 50.735 0
181.944 55.7235 0
226.995 44.5302 0
227.055 49.5297 0
431.572 46.433 0
433.633 41.8775 0
96.9777 44.1935 0
93.8605 40.2841 0
307.172 57.543 0
311.574 55.1729 0
455.669 27.4174 0
450.669 27.3871 0
206.153 52.5636 0
210.093 49.4842 0
476.587 47.6718 0
481.247 45.8605 0
164.861 49.0919 0
169.093 51.7556 0
367.819 49.0797 0
371.895 46.1836 0
338.614 57.5036 0
343.125 55.3477 0
47.2328 54.9927 0
42.7975 57.302 0
260.052 38.1067 0
256.921 34.2083 0
245.552 26.9763 0
241.748 30.2217 0
327.335 38.697 0
322.555 37.2275 0
334.893 27.6795 0
330.561 25.1835 0
247.097 28.9218 0
244.686 24.5419 0
174.717 42.7459 0
179.542 41.4349 0
1.49863 23.5141 0
6.10369 21.5669 0
265.154 17.5991 0
269.923 16.0958 0
367.451 52.6981 0
369.933 48.3572 0
49.0615 53.0246 0
49.208 58.0223 0
284.261 49.517 0
287.702 45.8898 0
425.1 25.1344 0
429.058 28.1902 0
453.887 15.1749 0
456.148 19.6345 0
165.4 32.3099 0
161.157 34.9553 0
471.927 46.485 0
476.914 46.1207 0
228.188 25.4795 0
223.19 25.3334 0
193.101 43.5485 0
189.072 40.5867 0
394.974 51.1176 0
390.328 52.9677 0
52.3396 41.0122 0
54.6448 36.5752 0
374.964 9.71965 0
378.83 12.8897 0
226.803 29.6011 0
225.55 34.4416 0
304.787 50.9079 0
307.882 54.8351 0
368.853 51.3376 0
372.71 48.1565 0
188.768 3.2999 0
193.205 0.995092 0
148.037 46.5888 0
151.978 49.6657 0
210.798 52.1554 0
207.58 55.9828 0
245.801 3.99482 0
245.477 8.98439 0
341.135 22.6487 0
344.962 25.8664 0
313.644 59.4839 0
312.77 54.561 0
353.825 7.0583 0
356.434 11.3234 0
165.531 4.15944 0
161.872 7.56683 0
164.78 34.5065 0
169.709 33.665 0
430.556 55.0464 0
426.131 57.3746 0
28.7619 26.863 0
24.007 28.409 0
270.064 37.6185 0
265.854 40.3171 0
410.842 32.9471 0
410.117 37.8941 0
473.238 4.79741 0
468.243 5.03235 0
443.272 23.8866 0
446.638 20.1892 0
285.728 59.4679 0
280.727 59.4207 0
161.316 45.5632 0
164.955 42.1336 0
233.571 34.5131 0
230.038 38.0514 0
293.076 13.0164 0
291.562 17.782 0
177.334 24.0718 0
177.68 29.0598 0
365.437 33.3682 0
369.126 36.7439 0
343.058 30.3158 0
348.042 30.7146 0
265.184 8.78853 0
260.189 8.98985 0
138.975 49.9769 0
136.767 54.4631 0
30.4961 43.5203 0
29.2834 38.6697 0
415.702 40.2157 0
416.972 45.0515 0
210.511 48.1584 0
213.69 52.0172 0
212.681 19.9641 0
214.383 24.6653 0
285.2 29.7401 0
287.694 25.4067 0
109.705 15.2938 0
110.962 20.1333 0
463.975 2.18613 0
460.057 5.29304 0
214.393 36.4002 0
209.725 38.1926 0
141.741 42.0049 0
137.138 43.9576 0
85.49 52.3341 0
85.9206 47.3529 0
255.923 32.6741 0
257.484 27.9239 0
435.383 51.1445 0
440.192 49.7739 0
416.884 27.0598 0
418.742 22.4178 0
359.511 42.9622 0
357.358 47.4751 0
133.941 34.4061 0
138.496 36.4669 0
23.3749 55.573 0
20.3479 59.5528 0
443.307 45.9063 0
446.899 49.3854 0
468.867 41.5439 0
470.55 46.2521 0
450.045 30.0031 0
445.713 27.5061 0
283.892 24.8383 0
279.573 22.3194 0
393.247 47.2712 0
397.868 45.362 0
140.305 28.743 0
135.728 26.7307 0
434.799 27.175 0
433.88 22.26 0
445.438 8.18752 0
445.775 3.19886 0
312.44 47.6369 0
307.466 48.1559 0
253.657 52.3722 0
249.961 55.7396 0
392.245 55.3805 0
387.561 57.1301 0
232.574 23.9627 0
234.46 28.5933 0
130.419 21.3447 0
134.538 18.5094 0
13.362 27.1519 0
12.9913 22.1656 0
260.747 39.5113 0
265.485 41.1071 0
398.571 2.55067 0
393.591 2.10379 0
297.784 48.8469 0
297.541 43.8528 0
269.976 21.2064 0
269.664 16.2161 0
312.951 50.4185 0
310.312 54.6659 0
7.48219 46.0757 0
12.0424 44.0242 0
13.1248 20.9196 0
9.03436 18.0444 0
277.119 48.6085 0
273.357 51.9016 0
328.807 14.979 0
324.581 17.6508 0
295.561 10.1233 0
300.19 12.0136 0
94.4825 18.5771 0
99.2763 17.1571 0
486.621 51.1104 0
491.59 51.6653 0
321.127 28.6914 0
316.859 31.297 0
304.041 0.278887 0
299.072 0.830084 0
109.381 9.14213 0
110.124 4.19748 0
39.5643 41.6149 0
34.5778 41.986 0
9.5541 42.4678 0
11.8009 38.001 0
150.515 5.91908 0
151.184 0.963862 0
91.5008 10.761 0
95.3096 13.9999 0
86.6199 54.1556 0
91.3962 55.6365 0
272.221 13.5531 0
277.145 12.6808 0
146.543 43.7838 0
150.776 46.4454 0
122.459 16.0959 0
118.264 13.3745 0
158.982 42.2239 0
154.063 41.33 0
69.0962 49.52 0
67.7644 44.7007 0
339.005 47.1183 0
335.336 43.7215 0
45.6147 20.1304 0
41.1849 17.8121 0
264.195 52.2049 0
259.198 52.0384 0
238.701 54.577 0
234.067 56.4563 0
267.904 50.7694 0
271.786 53.92 0
70.0944 51.6465 0
66.3052 48.384 0
488.598 28.6818 0
491.567 32.705 0
215.127 43.4117 0
210.215 42.4775 0
228.447 6.91568 0
227.173 11.7505 0
98.3007 8.88929 0
100.096 13.556 0
189.191 19.3662 0
192.669 22.9576 0
155.95 55.4367 0
151.585 57.8751 0
417.774 15.6321 0
422.546 17.124 0
67.6854 56.9865 0
68.5884 52.0689 0
259.967 37.0552 0
264.298 39.5545 0
85.2703 32.8905 0
89.7985 35.0104 0
282.196 15.6316 0
280.786 20.4288 0
54.7967 32.1387 0
50.4379 29.6892 0
361.253 46.6633 0
365.739 44.4545 0
271.126 28.613 0
266.412 26.9446 0
19.7408 21.1448 0
15.9805 17.8495 0
341.778 46.8579 0
346.493 45.1934 0
6.85996 22.2377 0
10.1787 25.9774 0
385.797 50.8938 0
381.346 53.1709 0
278.875 9.52834 0
277.821 4.64074 0
336.882 52.8973 0
339.662 57.0537 0
289.517 36.4616 0
291.014 41.2323 0
46.2557 49.2398 0
49.9182 45.8356 0
206.768 55.1999 0
201.779 55.5425 0
139.238 24.6605 0
135.327 21.5455 0
210.745 11.7562 0
213.48 7.57052 0
464.363 50.4811 0
467.222 46.3789 0
431.34 31.4238 0
432.521 26.5653 0
210.567 42.1823 0
212.651 46.7276 0
71.6681 16.6038 0
74.7231 20.5618 0
260.589 13.0765 0
255.616 13.5932 0
108.861 19.7202 0
111.924 15.7681 0
361.541 4.84395 0
366.379 6.1084 0
425.864 53.554 0
420.93 52.7436 0
388.211 29.8222 0
383.42 31.2516 0
492.622 25.2084 0
489.171 28.8264 0
180.24 37.891 0
179.794 42.8711 0
368.69 46.5092 0
371.917 42.6903 0
284.813 36.4116 0
282.423 32.0198 0
107.036 54.3705 0
102.281 55.9178 0
379.057 4.52788 0
376.013 0.560962 0
341.145 20.5476 0
338.396 16.3714 0
363.979 37.9986 0
368.834 36.8011 0
185.013 56.4904 0
188.813 53.241 0
485.171 7.27737 0
489.611 9.57609 0
144.137 57.1424 0
148.664 55.0189 0
9.8155 59.1248 0
13.9647 56.3339 0
115.917 41.1032 0
117.016 45.9808 0
437.29 13.572 0
441.779 15.7739 0
258.785 38.9883 0
263.77 38.6035 0
395.992 1.13124 0
400.98 0.793542 0
207.722 6.68135 0
210.561 10.7973 0
478.145 8.42099 0
480.74 12.6951 0
174.689 44.7498 0
174.246 39.7694 0
257.691 3.17436 0
253.242 0.893107 0
260.276 30.5912 0
261.523 25.749 0
10.5444 14.2105 0
12.6925 9.69542 0
153.134 50.1651 0
156.76 46.722 0
466.733 3.21823 0
467.039 8.2089 0
110.544 53.9631 0
110.067 48.9861 0
318.456 0.974966 0
321.89 4.60888 0
24.7865 18.2601 0
20.8343 21.3226 0
338.062 41.2552 0
339.954 36.6267 0
464.298 6.65496 0
465.11 11.5886 0
471.944 24.7611 0
470.909 19.8694 0
29.1768 9.87201 0
33.2539 6.97831 0
349.292 31.982 0
345.722 35.4835 0
65.0358 27.5265 0
67.9638 23.4735 0
124.076 13.4865 0
126.138 18.0418 0
451.007 7.65872 0
452.177 2.79756 0
220.958 33.9865 0
215.96 33.8234 0
480.41 53.471 0
475.858 51.4017 0
493.378 52.3844 0
497.817 54.6861 0
378.162 51.5829 0
382.579 53.9269 0
63.5768 20.0614 0
61.6089 24.6579 0
343.735 39.5946 0
339.852 36.4448 0
144.157 18.7646 0
145.176 13.8694 0
138.815 34.3261 0
143.815 34.3523 0
370.301 44.2749 0
365.894 41.9139 0
194.276 45.1363 0
192.692 49.879 0
427.76 56.268 0
427.754 51.268 0
10.8503 12.1886 0
13.3609 16.5125 0
119.058 34.1065 0
121.527 29.7585 0
451.283 23.9655 0
454.506 20.143 0
370.994 26.8858 0
368.372 22.6288 0
39.6845 25.2164 0
40.3659 30.1698 0
347.818 12.6086 0
347.518 17.5997 0
322.885 19.7383 0
326.892 22.7294 0
436.365 48.0717 0
438.23 52.7111 0
100.188 57.8894 0
95.5458 56.0298 0
173.134 38.5289 0
168.545 36.5438 0
414.148 44.4213 0
419.041 43.3936 0
75.7299 58.7834 0
70.8217 59.7406 0
339.636 16.3127 0
343.153 19.8662 0
459.168 10.7956 0
463.303 13.6063 0
347.105 52.7237 0
346.636 57.7016 0
365.16 42.0059 0
364.413 46.9497 0
267.882 30.0419 0
272.437 32.1036 0
386.621 31.1531 0
381.622 31.2457 0
129.81 34.8755 0
134.81 34.915 0
225.134 34.485 0
224.92 39.4804 0
328.494 27.1221 0
323.859 28.9995 0
447.074 5.2619 0
451.897 6.58097 0
360.896 6.36063 0
357.528 10.0554 0
487.625 13.6541 0
492.41 15.1032 0
66.3851 34.5129 0
65.9851 39.4969 0
132.985 17.3531 0
129.803 13.4966 0
207.166 19.9645 0
204.283 15.8793 0
196.348 1.02343 0
201.333 0.648234 0
483.052 9.52439 0
478.058 9.76378 0
59.874 51.9863 0
57.9828 47.3578 0
17.1628 51.7752 0
21.374 54.4714 0
373.02 10.3011 0
371.498 15.0636 0
470.474 55.5101 0
466.398 52.6151 0
161.385 20.7621 0
160.34 25.6515 0
41.1406 54.3553 0
45.681 56.4506 0
31.4478 43.0527 0
34.5651 46.9621 0
235.347 27.2955 0
233.323 22.7236 0
163.867 9.13818 0
159.317 11.2085 0
345.233 42.3673 0
349.224 39.3552 0
448.48 56.1482 0
444.325 53.3677 0
106.458 51.3943 0
106.305 56.3918 0
44.2678 43.6478 0
39.2723 43.8675 0
351.679 45.8223 0
348.602 49.7636 0
466.26 32.1465 0
470.956 30.4306 0
429.172 15.8667 0
424.762 18.223 0
132.296 12.8789 0
137.179 11.8088 0
224.592 35.4377 0
221.489 31.5177 0
174.094 12.866 0
175.885 8.19815 0
364.588 56.0374 0
361.284 52.2842 0
176.891 47.9254 0
179.367 52.2696 0
11.9456 34.5042 0
16.4147 36.7464 0
320.087 18.9673 0
315.947 21.7712 0
242.83 9.52534 0
243.043 14.5209 0
452.771 29.0445 0
456.992 26.3643 0
18.684 32.6368 0
21.1379 28.2804 0
10.1259 46.2637 0
9.4075 41.3156 0
315.293 46.3514 0
316.266 41.447 0
277.584 24.5436 0
274.396 28.3958 0
56.2916 37.805 0
60.9014 39.7417 0
334.718 22.4683 0
333.272 17.6819 0
162.554 4.83411 0
159.246 1.08501 0
87.2602 40.5572 0
85.8131 35.7712 0
293.94 7.18856 0
289.104 8.45873 0
447.531 26.0523 0
443.331 28.7652 0
179.896 8.68372 0
178.017 4.05027 0
91.2844 12.975 0
88.7171 17.2656 0
413.577 7.58621 0
417.824 4.94802 0
313.574 4.9697 0
313.777 9.96563 0
252.904 57.0702 0
257.865 57.6933 0
4.08144 39.6737 0
5.67217 34.9335 0
187.028 29.1983 0
182.117 30.1398 0
374.057 26.0045 0
369.72 28.4927 0
181.522 16.9781 0
179.645 12.3439 0
231.945 28.3319 0
227.102 27.0889 0
283.532 36.4808 0
288.518 36.1094 0
301.445 19.8553 0
297.363 16.9691 0
61.7466 47.711 0
64.3163 52.0001 0
321.616 2.53448 0
326.318 4.23537 0
169.847 24.0151 0
166.858 28.023 0
127.97 3.02536 0
132.811 1.7784 0
496.36 46.634 0
491.577 48.0931 0
497.124 51.9287 0
497.828 56.8789 0
103.065 0.848746 0
100.235 4.97064 0
47.1022 23.1489 0
52.0984 23.3385 0
63.9301 49.7124 0
67.2802 53.4242 0
111.011 8.09943 0
112.441 3.30826 0
261.809 9.54829 0
266.265 7.28055 0
350.781 39.9247 0
353.931 43.8077 0
23.6326 18.9567 0
27.8449 21.6502 0
307.199 22.0691 0
306.131 17.1846 0
223.801 27.786 0
228.261 30.0464 0
161.655 58.2565 0
166.601 58.991 0
401.853 4.1435 0
399.117 -0.0414449 0
353.539 55.3259 0
358.516 54.8448 0
335.879 20.7883 0
333.751 25.313 0
141.228 31.672 0
142.576 36.4869 0
82.9172 0.651897 0
87.3547 2.95478 0
126.323 47.4645 0
121.507 46.118 0
137.872 34.8562 0
142.563 36.5853 0
135.64 9.66602 0
135.636 14.6661 0
256.499 37.609 0
259.785 33.8404 0
90.3276 7.07561 0
86.7925 10.6113 0
40.4732 19.3474 0
37.4021 23.293 0
125.028 57.6836 0
120.47 55.6284 0
178.022 23.7058 0
173.139 22.6313 0
267.853 17.7215 0
262.864 18.046 0
224.288 7.77026 0
228.425 4.96229 0
343.715 11.1554 0
344.398 6.20226 0
77.156 35.2099 0
79.1053 30.6054 0
7.18113 50.0653 0
2.38028 48.6665 0
487.637 17.4298 0
483.155 19.6469 0
284.506 31.4237 0
279.858 29.5796 0
328.471 23.1921 0
331.212 27.374 0
54.1974 28.9322 0
56.5594 33.339 0
262.668 3.50074 0
266.496 0.284342 0
232.969 18.824 0
236.727 22.1213 0
173.678 38.0335 0
175.543 33.3945 0
386.074 18.1989 0
384.963 23.074 0
0.512815 14.1462 0
5.23437 12.5021 0
279.29 17.0634 0
281.624 12.6416 0
31.9785 10.0263 0
36.9771 9.93627 0
255.748 15.8511 0
252.959 11.7014 0
288.988 11.6244 0
285.169 14.8517 0
262.282 21.5409 0
258.035 18.9028 0
428.812 28.7914 0
423.948 29.9479 0
461.788 49.574 0
456.892 50.5877 0
249.527 34.1291 0
246.989 29.8217 0
252.006 28.2199 0
247.363 26.364 0
13.8415 24.8852 0
10.923 20.8255 0
108.076 11.1042 0
109.642 6.35588 0
184.562 21.4969 0
189.517 22.1617 0
235.482 24.7157 0
230.49 24.4264 0
353.194 53.622 0
349.062 50.8062 0
171.651 22.7224 0
170.533 27.5959 0
45.6648 40.1993 0
49.3535 36.8236 0
118.313 21.1364 0
113.491 22.4598 0
479.3 45.6753 0
483.888 47.6634 0
125.196 59.0358 0
128.013 54.9043 0
144.121 53.1551 0
139.124 53.3515 0
83.0571 14.0258 0
87.1883 16.8421 0
247.724 18.6811 0
242.729 18.9197 0
154.584 19.9877 0
154.957 24.9738 0
273.016 31.9083 0
274.133 27.0347 0
386.354 21.6121 0
384.509 16.9649 0
130.271 0.788251 0
128.376 5.41532 0
177.519 48.2637 0
178.943 43.4709 0
363.724 27.6436 0
359.746 24.615 0
325.279 51.176 0
321.223 48.2516 0
128.86 19.1008 0
133.607 17.5315 0
318.207 19.728 0
316.93 14.8938 0
418.511 48.9739 0
417.842 53.9289 0
454.296 7.37436 0
459.253 8.02734 0
147.54 1.14392 0
142.547 0.887855 0
57.2658 28.0492 0
52.7453 30.1857 0
51.3036 38.1022 0
52.3973 33.2233 0
255.825 6.63464 0
260.189 4.19481 0
416.216 42.8499 0
421.049 41.5673 0
112.034 23.5658 0
112.757 18.6184 0
320.414 45.083 0
319.964 50.0626 0
208.744 52.5325 0
203.902 53.782 0
254.669 9.03416 0
259.523 10.2343 0
360.505 16.9751 0
362.557 12.4154 0
84.9734 24.6404 0
81.788 20.7865 0
64.9904 39.2559 0
69.8688 38.1592 0
308.76 5.87035 0
310.797 10.4365 0
467.223 19.2874 0
462.653 17.261 0
54.6295 7.33686 0
50.1836 5.05014 0
118.633 20.8939 0
122.701 17.9869 0
107.061 58.8099 0
103.416 55.3873 0
474.407 12.972 0
479.399 12.689 0
239.377 21.8451 0
242.871 18.2687 0
135.969 5.90794 0
132.468 9.47756 0
419.794 54.8265 0
423.004 50.9931 0
465.78 12.9707 0
467.524 17.6567 0
183.809 15.5004 0
182.368 20.2884 0
253.396 58.4085 0
249.762 54.9745 0
214.414 38.0714 0
215.25 43.001 0
324.917 9.63708 0
322.45 5.28778 0
363.221 23.7694 0
364.544 28.5913 0
2.67416 16.8667 0
4.26904 12.1278 0
157.906 51.3629 0
153.008 52.3679 0
363.674 5.6051 0
363.463 10.6007 0
118.771 11.4807 0
122.4 8.04138 0
249.754 43.2257 0
248.882 38.3024 0
153.843 48.299 0
149.116 46.6666 0
307.818 50.9276 0
309.475 46.2101 0
420.2 35.3524 0
415.745 37.623 0
168.823 47.6306 0
173.651 46.331 0
104.443 0.38114 0
108.023 3.87078 0
234.589 13.4243 0
239.551 12.8148 0
449.107 33.398 0
454.106 33.3336 0
414.422 43.7189 0
409.564 44.9022 0
88.5578 44.2375 0
84.0856 42.001 0
380.778 16.245 0
375.828 15.5416 0
180.286 51.8271 0
182.777 47.492 0
356.992 32.7771 0
355.989 27.8787 0
346.629 28.9675 0
346.32 23.9771 0
347.909 58.7844 0
343.389 56.6474 0
225.473 36.9673 0
230.274 38.3655 0
369.59 9.78891 0
367.983 5.05418 0
484.747 9.39598 0
488.006 13.1874 0
303.547 58.1668 0
307.636 55.2902 0
485.189 0.998508 0
480.305 2.06589 0
309.767 42.5676 0
308.961 37.633 0
238.346 24.0712 0
233.593 22.5188 0
128.056 19.633 0
124.296 16.3368 0
192.676 7.25579 0
197.515 5.99706 0
115.924 5.98423 0
113.17 1.81115 0
426.823 29.5404 0
426.81 24.5404 0
351.405 7.82028 0
349.396 3.24131 0
137.383 39.7474 0
135.22 44.2552 0
236.144 2.35214 0
231.682 0.0966912 0
121.774 35.0605 0
121.266 30.0864 0
442.629 20.9463 0
445.02 25.3379 0
168.722 15.4718 0
164.012 13.7948 0
39.1695 15.5548 0
40.4254 10.715 0
365.436 52.3866 0
361.063 54.8107 0
465.241 42.0749 0
461.155 44.9569 0
155.145 7.18562 0
154.456 12.138 0
366.98 27.3199 0
371.933 28.0018 0
394.596 42.4145 0
391.341 38.6193 0
143.9 19.2826 0
147.462 15.7731 0
386.938 15.521 0
389.946 19.5146 0
124.264 14.9804 0
120.244 12.0076 0
77.7199 0.258171 0
78.8895 5.11961 0
429.227 3.71598 0
433.883 5.53637 0
214.863 47.4927 0
216.54 52.2032 0
313.546 58.948 0
316.444 54.8733 0
333.138 53.1028 0
328.153 52.7238 0
403.124 12.3765 0
398.812 9.84538 0
415.83 20.6153 0
418.019 16.1199 0
415.188 8.46077 0
420.146 9.11258 0
463.339 46.5442 0
464.669 51.3639 0
210.086 20.9123 0
213.953 17.7425 0
389.275 18.1541 0
389.855 23.1204 0
465.793 57.544 0
462.79 53.5457 0
463.541 20.0527 0
467.557 17.0733 0
337.043 20.0945 0
341.987 19.3502 0
446.665 52.939 0
451.417 54.4938 0
52.939 24.8541 0
49.2574 28.2372 0
486.27 40.5277 0
481.765 38.3582 0
367.329 25.5782 0
364.997 30.0012 0
323.716 26.3772 0
327.097 30.0603 0
490.169 37.4897 0
495.133 36.8928 0
310.841 0.754957 0
309.66 5.61348 0
      </DataArray>
    </Points>
    <Cells>
      <DataArray type="Int32" Name="connectivity" format="ascii">
1891 2037 1865 695 697 653 
1891 1865 1857 653 1694 1609 
2075 2076 2086 874 826 654 
2075 2086 1980 654 1000 999 
1892 1920 2044 1541 1213 655 
1892 2044 1945 655 1214 1478 
1819 1908 1907 1576 1242 656 
1819 1907 1818 656 1577 1649 
1818 1907 1965 1577 1243 657 
1818 1965 1817 657 1244 1650 
2138 1837 1887 705 1567 658 
2138 1887 1880 658 1504 699 
2139 1827 1885 701 1571 659 
2139 1885 1879 659 1505 700 
1872 1873 1928 1553 1523 660 
1872 1928 1927 660 1471 1524 
1922 1923 1947 1476 1463 661 
1922 1947 86 661 1308 1307 
1860 1895 1924 1601 1531 662 
1860 1924 1869 662 1532 1685 
576 574 1937 575 1438 663 
576 1937 1856 663 1494 1657 
601 599 1936 600 1445 664 
601 1936 1846 664 1496 1660 
626 624 1935 625 1452 665 
626 1935 1836 665 1498 1663 
651 649 1934 650 1458 666 
651 1934 1826 666 1501 1666 
1826 503 20 1797 502 667 
1826 20 651 667 652 1666 
1817 549 18 1655 550 668 
1817 18 522 668 523 1816 
1836 459 16 1777 458 669 
1836 16 626 669 627 1663 
1846 415 12 1757 414 670 
1846 12 601 670 602 1660 
1856 371 8 1737 370 671 
1856 8 576 671 577 1657 
1914 2012 1925 1226 1124 672 
1914 1925 1895 672 1530 696 
1895 1860 1870 1601 1684 673 
1895 1870 1914 673 1557 696 
2129 637 2131 764 763 674 
2129 2131 2125 674 729 775 
2024 2060 1908 925 1085 675 
2024 1908 2023 675 1084 1110 
1893 1922 2013 1536 1122 676 
1893 2013 2045 676 943 694 
1911 2039 2132 1233 750 677 
1911 2132 1939 677 751 1234 
2134 29 2035 723 1255 678 
2134 2035 2034 678 1099 721 
2136 183 1976 715 1394 679 
2136 1976 1964 679 1160 713 
1900 1930 1990 1515 1146 680 
1900 1990 2043 680 982 691 
1906 1881 1889 1579 1503 681 
1906 1889 1942 681 1484 1245 
2135 525 1975 719 1396 682 
2135 1975 1883 682 1161 717 
2133 174 1978 727 1390 683 
2133 1978 1882 683 1158 725 
60 58 2037 59 1080 684 
60 2037 1944 684 1216 1282 
90 88 2046 89 1123 685 
90 2046 1925 685 1066 1310 
120 118 2047 119 1064 686 
120 2047 1929 686 1063 1338 
146 1949 2049 1364 1198 687 
146 2049 148 687 1060 147 
1932 1949 2048 1459 1199 688 
1932 2048 1931 688 1200 1468 
1902 1933 2049 1508 1059 689 
1902 2049 1932 689 1197 1510 
1901 1931 2048 1513 1200 690 
1901 2048 1930 690 1062 1514 
1900 2043 1917 691 1219 1517 
1898 1929 2047 1520 1063 692 
1898 2047 1928 692 1201 1522 
1895 1925 2046 1530 1066 693 
1895 2046 1924 693 1205 1531 
1893 2045 1921 694 1207 1538 
1891 1944 2037 1480 1216 695 
1865 2037 1919 697 1237 1543 
2137 1847 1881 709 1578 698 
2137 1881 579 698 1658 710 
2138 1880 604 699 1661 706 
2139 1879 629 700 1664 702 
478 1827 2139 1796 701 703 
2139 629 14 702 628 704 
478 2139 14 703 704 479 
434 1837 2138 1776 705 707 
2138 604 10 706 603 708 
434 2138 10 707 708 435 
390 1847 2137 1756 709 711 
2137 579 6 710 578 712 
390 2137 6 711 712 391 
1964 552 2136 1417 714 713 
2136 552 3 714 551 716 
183 2136 3 715 716 184 
1883 23 2135 1651 718 717 
2135 23 0 718 22 720 
525 2135 0 719 720 524 
2034 32 2134 1256 722 721 
2134 32 1 722 31 724 
29 2134 1 723 724 30 
1882 177 2133 1653 726 725 
2133 177 2 726 176 728 
174 2133 2 727 728 175 
2127 641 2130 771 768 772 
2125 2131 2106 729 734 797 
2121 591 2120 758 757 730 
2095 2121 2120 806 730 807 
2120 589 2119 756 732 731 
2094 2120 2119 808 731 809 
2119 589 2118 732 755 733 
2093 2119 2118 810 733 811 
2106 2131 2057 734 736 834 
2112 2079 2078 840 743 735 
2059 2112 2078 832 735 872 
2069 2091 2041 813 752 880 
2092 2118 2054 812 744 883 
2067 2097 2040 855 753 886 
2051 2124 2103 746 798 890 
2057 2131 635 736 762 901 
2056 2085 2117 866 788 902 
2055 2086 2077 741 825 903 
2015 2106 2063 939 833 940 
2104 2010 2105 947 946 737 
2105 2039 2065 747 892 738 
2104 2105 2065 737 738 739 
2104 2065 2103 739 891 740 
2009 2104 2103 948 740 949 
1997 2067 2096 968 885 969 
1992 2092 2068 978 882 979 
1979 2086 2055 1001 741 1002 
2079 2027 2081 920 919 742 
2079 2081 1968 742 1016 1021 
2078 2079 1967 743 1020 1023 
2054 2118 587 744 754 1045 
2121 2096 2053 805 884 745 
593 2121 2053 759 745 1046 
2052 2122 612 786 760 1052 
618 2124 2051 761 746 1053 
643 2128 2050 769 780 1056 
2105 2011 2132 945 749 748 
2039 2105 2132 747 748 750 
2132 2011 1939 749 944 751 
2041 2091 1943 752 860 1081 
2040 2097 1941 753 854 1082 
587 2118 589 754 755 588 
589 2120 591 756 757 590 
591 2121 593 758 759 592 
612 2122 614 760 779 613 
614 2123 616 778 777 615 
616 2124 618 776 761 617 
635 2131 637 762 763 636 
639 637 2129 638 764 765 
2129 2126 2130 774 773 766 
639 2129 2130 765 766 767 
639 2130 641 767 768 640 
641 2128 643 770 769 642 
2128 641 2127 770 771 781 
2127 2130 2126 772 773 782 
2126 2129 2125 774 775 783 
2124 616 2123 776 777 784 
2123 614 2122 778 779 785 
2070 1957 2071 1039 1038 787 
2111 2061 2064 842 898 789 
2110 2050 2128 893 780 790 
2109 2128 2127 791 781 792 
2108 2127 2126 793 782 794 
2126 2125 2107 783 796 795 
2102 2124 2123 799 784 800 
2101 2123 2122 801 785 802 
2122 2052 2100 786 889 803 
2069 2070 2090 879 815 814 
2070 2071 2089 787 817 816 
2117 2085 2116 788 819 835 
2116 2084 2115 818 821 836 
2115 2083 2114 820 823 837 
2114 2082 2113 822 824 838 
2111 2064 2110 789 894 843 
2110 2128 2109 790 791 844 
2109 2127 2108 792 793 845 
2108 2126 2107 794 795 846 
2107 2125 2106 796 797 847 
2103 2124 2102 798 799 848 
2102 2123 2101 800 801 849 
2101 2122 2100 802 803 850 
2100 2066 2099 888 804 851 
2099 2066 2098 804 831 852 
2098 2058 2042 830 1073 853 
2096 2121 2095 805 806 856 
2095 2120 2094 807 808 857 
2094 2119 2093 809 810 858 
2093 2118 2092 811 812 859 
2091 2069 2090 813 814 861 
2090 2070 2089 815 816 862 
2089 2071 2088 817 829 863 
2088 2072 2087 828 827 864 
2084 2116 2085 818 819 867 
2083 2115 2084 820 821 868 
2082 2114 2083 822 823 869 
2081 2028 2080 918 917 870 
2080 2113 2082 839 824 871 
2077 2086 2076 825 826 873 
2075 1981 2074 998 997 875 
2074 1982 2073 996 995 876 
2073 2087 2072 865 827 877 
2072 2088 2071 828 829 878 
2062 1991 2068 895 980 881 
2058 2098 2066 830 831 887 
2060 2112 2059 841 832 899 
2063 2106 2057 833 834 900 
2033 2117 2116 907 835 908 
2032 2116 2115 909 836 910 
2031 2115 2114 911 837 912 
2030 2114 2113 913 838 914 
2113 2080 2029 839 916 915 
2026 2079 2112 921 840 922 
2112 2060 2025 841 924 923 
2021 2061 2111 927 842 928 
2020 2111 2110 929 843 930 
2019 2110 2109 931 844 932 
2018 2109 2108 933 845 934 
2017 2108 2107 935 846 936 
2107 2106 2016 847 938 937 
2008 2103 2102 950 848 951 
2007 2102 2101 952 849 953 
2006 2101 2100 954 850 955 
2005 2100 2099 956 851 957 
2004 2099 2098 958 852 959 
2098 2042 2003 853 961 960 
2002 2042 1926 962 1212 963 
1999 1941 2097 964 854 965 
2097 2067 1998 855 967 966 
1996 2096 2095 970 856 971 
1995 2095 2094 972 857 973 
1994 2094 2093 974 858 975 
2093 2092 1993 859 977 976 
1988 1943 2091 983 860 984 
1987 2091 2090 985 861 986 
1986 2090 2089 987 862 988 
1985 2089 2088 989 863 990 
1984 2088 2087 991 864 992 
2087 2073 1983 865 994 993 
2085 2056 1974 866 1006 1009 
2084 2085 1973 867 1008 1011 
2083 2084 1972 868 1010 1013 
2082 2083 1971 869 1012 1015 
1969 2081 2080 1017 870 1018 
2080 2082 1970 871 1014 1019 
2059 2078 1966 872 1022 1024 
1963 2077 2076 1026 873 1027 
1962 2076 2075 1028 874 1029 
1961 2075 2074 1030 875 1031 
1960 2074 2073 1032 876 1033 
1959 2073 2072 1034 877 1035 
2072 2071 1958 878 1037 1036 
1956 2070 2069 1040 879 1041 
2069 2041 1955 880 1076 1042 
1954 2062 2068 896 881 1043 
2068 2092 2054 882 883 1044 
2053 2096 2067 884 885 1047 
2067 2040 1953 886 1077 1048 
1952 2058 2066 1049 887 1050 
2066 2100 2052 888 889 1051 
2051 2103 2065 890 891 1054 
2065 2039 1951 892 1078 1055 
2050 2110 2064 893 894 1057 
2064 2038 1950 897 1079 1058 
2049 1933 148 1059 1365 1060 
2045 2014 2063 942 941 1067 
2044 2061 2022 1069 926 1070 
2043 1991 2062 981 895 1071 
2062 1954 1942 896 1089 1072 
2038 2064 2061 897 898 1074 
1907 2060 2059 1086 899 1087 
1946 2063 2057 1068 900 1092 
2057 635 1904 901 1454 1093 
2056 2117 2036 902 904 1095 
2055 2077 1977 903 1004 1097 
2036 2117 2035 904 905 1098 
2035 2117 2034 905 906 1099 
2034 2117 2033 906 907 1100 
2033 2116 2032 908 909 1101 
2032 2115 2031 910 911 1102 
2031 2114 2030 912 913 1103 
2030 2113 2029 914 915 1104 
2029 2080 2028 916 917 1105 
2028 2081 2027 918 919 1106 
2027 2079 2026 920 921 1107 
2026 2112 2025 922 923 1108 
2025 2060 2024 924 925 1109 
2022 2061 2021 926 927 1113 
2021 2111 2020 928 929 1114 
2020 2110 2019 930 931 1115 
2019 2109 2018 932 933 1116 
2018 2108 2017 934 935 1117 
2017 2107 2016 936 937 1118 
2016 2106 2015 938 939 1119 
2015 2063 2014 940 941 1120 
2014 2045 2013 942 943 1121 
2012 1939 2011 1225 944 1125 
2011 2105 2010 945 946 1126 
2010 2104 2009 947 948 1127 
2009 2103 2008 949 950 1128 
2008 2102 2007 951 952 1129 
2007 2101 2006 953 954 1130 
2006 2100 2005 955 956 1131 
2005 2099 2004 957 958 1132 
2004 2098 2003 959 960 1133 
2003 2042 2002 961 962 1134 
2002 1926 2001 963 1065 1135 
2000 1941 1999 1221 964 1136 
1999 2097 1998 965 966 1137 
1998 2067 1997 967 968 1138 
1997 2096 1996 969 970 1139 
1996 2095 1995 971 972 1140 
1995 2094 1994 973 974 1141 
1994 2093 1993 975 976 1142 
1993 2092 1992 977 978 1143 
1992 2068 1991 979 980 1144 
1991 2043 1990 981 982 1145 
1989 1943 1988 1217 983 1147 
1988 2091 1987 984 985 1148 
1987 2090 1986 986 987 1149 
1986 2089 1985 988 989 1150 
1985 2088 1984 990 991 1151 
1984 2087 1983 992 993 1152 
1983 2073 1982 994 995 1153 
1982 2074 1981 996 997 1154 
1981 2075 1980 998 999 1155 
1980 2086 1979 1000 1001 1156 
1979 2055 1978 1002 1003 1157 
1978 2055 1882 1003 1096 1158 
1977 2077 1976 1004 1005 1159 
1976 2077 1964 1005 1025 1160 
1975 2056 1883 1007 1094 1161 
1974 2056 1975 1006 1007 1162 
1973 2085 1974 1008 1009 1163 
1972 2084 1973 1010 1011 1164 
1971 2083 1972 1012 1013 1165 
1970 2082 1971 1014 1015 1166 
1968 2081 1969 1016 1017 1167 
1969 2080 1970 1018 1019 1168 
1967 2079 1968 1020 1021 1169 
1966 2078 1967 1022 1023 1170 
1965 2059 1966 1088 1024 1171 
1964 2077 1963 1025 1026 1172 
1963 2076 1962 1027 1028 1173 
1962 2075 1961 1029 1030 1174 
1961 2074 1960 1031 1032 1175 
1960 2073 1959 1033 1034 1176 
1959 2072 1958 1035 1036 1177 
1958 2071 1957 1037 1038 1178 
1957 2070 1956 1039 1040 1179 
1956 2069 1955 1041 1042 1180 
1954 2068 2054 1043 1044 1183 
2054 587 585 1045 586 1184 
595 593 2053 594 1046 1185 
2053 2067 1953 1047 1048 1186 
1905 2058 1952 1091 1049 1188 
1952 2066 2052 1050 1051 1189 
2052 612 610 1052 611 1190 
620 618 2051 619 1053 1191 
2051 2065 1951 1054 1055 1192 
645 643 2050 644 1056 1194 
2050 2064 1950 1057 1058 1195 
1949 144 2048 1363 1061 1199 
2048 144 1930 1061 1362 1062 
2047 118 1948 1064 1337 1202 
2001 1926 1927 1065 1472 1204 
2045 2063 1946 1067 1068 1208 
1938 2061 2044 1075 1069 1209 
2044 2022 1945 1070 1112 1214 
1945 62 1944 1284 1283 1215 
2043 2062 1942 1071 1072 1220 
2042 2058 1940 1073 1090 1224 
2038 2061 1938 1074 1075 1227 
1937 1955 2041 1181 1076 1228 
1936 1953 2040 1187 1077 1230 
1935 1951 2039 1193 1078 1232 
1934 1950 2038 1196 1079 1235 
2037 58 1919 1080 1281 1237 
1913 2041 1943 1229 1081 1238 
1912 2040 1941 1231 1082 1239 
1919 2023 1909 1111 1083 1240 
1909 2023 1908 1083 1084 1241 
1908 2060 1907 1085 1086 1242 
1907 2059 1965 1087 1088 1243 
1942 1954 1906 1089 1182 1245 
1940 2058 1905 1090 1091 1247 
1946 2057 1904 1092 1093 1249 
1883 2056 2036 1094 1095 1250 
1882 2055 1977 1096 1097 1251 
27 2036 2035 1253 1098 1254 
34 2034 2033 1257 1100 1258 
36 2033 2032 1259 1101 1260 
38 2032 2031 1261 1102 1262 
40 2031 2030 1263 1103 1264 
42 2030 2029 1265 1104 1266 
44 2029 2028 1267 1105 1268 
46 2028 2027 1269 1106 1270 
48 2027 2026 1271 1107 1272 
50 2026 2025 1273 1108 1274 
52 2025 2024 1275 1109 1276 
54 2024 2023 1277 1110 1278 
2023 1919 56 1111 1280 1279 
64 1945 2022 1285 1112 1286 
66 2022 2021 1287 1113 1288 
68 2021 2020 1289 1114 1290 
70 2020 2019 1291 1115 1292 
72 2019 2018 1293 1116 1294 
74 2018 2017 1295 1117 1296 
76 2017 2016 1297 1118 1298 
78 2016 2015 1299 1119 1300 
80 2015 2014 1301 1120 1302 
82 2014 2013 1303 1121 1304 
2013 1922 84 1122 1306 1305 
1947 2046 88 1206 1123 1309 
92 1925 2012 1311 1124 1312 
94 2012 2011 1313 1125 1314 
96 2011 2010 1315 1126 1316 
98 2010 2009 1317 1127 1318 
100 2009 2008 1319 1128 1320 
102 2008 2007 1321 1129 1322 
104 2007 2006 1323 1130 1324 
106 2006 2005 1325 1131 1326 
108 2005 2004 1327 1132 1328 
110 2004 2003 1329 1133 1330 
112 2003 2002 1331 1134 1332 
114 2002 2001 1333 1135 1334 
116 2001 1948 1335 1203 1336 
120 1929 2000 1338 1211 1339 
122 2000 1999 1340 1136 1341 
124 1999 1998 1342 1137 1343 
126 1998 1997 1344 1138 1345 
128 1997 1996 1346 1139 1347 
130 1996 1995 1348 1140 1349 
132 1995 1994 1350 1141 1351 
134 1994 1993 1352 1142 1353 
136 1993 1992 1354 1143 1355 
138 1992 1991 1356 1144 1357 
140 1991 1990 1358 1145 1359 
1990 1930 142 1146 1361 1360 
150 1933 1989 1366 1210 1367 
152 1989 1988 1368 1147 1369 
154 1988 1987 1370 1148 1371 
156 1987 1986 1372 1149 1373 
158 1986 1985 1374 1150 1375 
160 1985 1984 1376 1151 1377 
162 1984 1983 1378 1152 1379 
164 1983 1982 1380 1153 1381 
166 1982 1981 1382 1154 1383 
168 1981 1980 1384 1155 1385 
170 1980 1979 1386 1156 1387 
172 1979 1978 1388 1157 1389 
181 1977 1976 1392 1159 1393 
1974 1975 527 1162 1395 1398 
1973 1974 529 1163 1397 1400 
1972 1973 531 1164 1399 1402 
1971 1972 533 1165 1401 1404 
1970 1971 535 1166 1403 1406 
539 1968 1969 1410 1167 1407 
1969 1970 537 1168 1405 1408 
1967 1968 541 1169 1409 1412 
1966 1967 543 1170 1411 1414 
547 1817 1965 1656 1244 1415 
1965 1966 545 1171 1413 1416 
554 1964 1963 1418 1172 1419 
556 1963 1962 1420 1173 1421 
558 1962 1961 1422 1174 1423 
560 1961 1960 1424 1175 1425 
562 1960 1959 1426 1176 1427 
564 1959 1958 1428 1177 1429 
566 1958 1957 1430 1178 1431 
568 1957 1956 1432 1179 1433 
570 1956 1955 1434 1180 1435 
1955 1937 572 1181 1437 1436 
583 1906 1954 1439 1182 1440 
1954 2054 585 1183 1184 1441 
595 2053 1953 1185 1186 1442 
1953 1936 597 1187 1444 1443 
608 1905 1952 1446 1188 1447 
1952 2052 610 1189 1190 1448 
620 2051 1951 1191 1192 1449 
1951 1935 622 1193 1451 1450 
645 2050 1950 1194 1195 1455 
1950 1934 647 1196 1457 1456 
1932 2049 1949 1197 1198 1459 
1928 2047 1948 1201 1202 1460 
1948 2001 1927 1203 1204 1461 
1924 2046 1947 1205 1206 1462 
1921 2045 1946 1207 1208 1464 
1938 2044 1920 1209 1213 1466 
1918 1989 1933 1218 1210 1467 
1916 2000 1929 1222 1211 1470 
1926 2042 1915 1212 1223 1473 
1892 1945 1944 1478 1215 1479 
1943 1989 1918 1217 1218 1482 
1917 2043 1942 1219 1220 1483 
1941 2000 1916 1221 1222 1486 
1915 2042 1940 1223 1224 1487 
1939 2012 1914 1225 1226 1490 
1910 2038 1938 1236 1227 1491 
1937 2041 1913 1228 1229 1495 
1936 2040 1912 1230 1231 1497 
1935 2039 1911 1232 1233 1499 
1911 1939 1886 1234 1489 1500 
1934 2038 1910 1235 1236 1502 
1887 1940 1880 1488 1246 1504 
1885 1946 1879 1465 1248 1505 
1913 1943 1890 1238 1481 1544 
1912 1941 1888 1239 1485 1550 
1865 1919 1909 1543 1240 1561 
1819 1909 1908 1575 1241 1576 
1880 1940 1905 1246 1247 1581 
1879 1946 1904 1248 1249 1583 
1883 2036 25 1250 1252 1652 
1882 1977 179 1251 1391 1654 
25 2036 27 1252 1253 26 
27 2035 29 1254 1255 28 
32 2034 34 1256 1257 33 
34 2033 36 1258 1259 35 
36 2032 38 1260 1261 37 
38 2031 40 1262 1263 39 
40 2030 42 1264 1265 41 
42 2029 44 1266 1267 43 
44 2028 46 1268 1269 45 
46 2027 48 1270 1271 47 
48 2026 50 1272 1273 49 
50 2025 52 1274 1275 51 
52 2024 54 1276 1277 53 
54 2023 56 1278 1279 55 
56 1919 58 1280 1281 57 
60 1944 62 1282 1283 61 
62 1945 64 1284 1285 63 
64 2022 66 1286 1287 65 
66 2021 68 1288 1289 67 
68 2020 70 1290 1291 69 
70 2019 72 1292 1293 71 
72 2018 74 1294 1295 73 
74 2017 76 1296 1297 75 
76 2016 78 1298 1299 77 
78 2015 80 1300 1301 79 
80 2014 82 1302 1303 81 
82 2013 84 1304 1305 83 
84 1922 86 1306 1307 85 
86 1947 88 1308 1309 87 
90 1925 92 1310 1311 91 
92 2012 94 1312 1313 93 
94 2011 96 1314 1315 95 
96 2010 98 1316 1317 97 
98 2009 100 1318 1319 99 
100 2008 102 1320 1321 101 
102 2007 104 1322 1323 103 
104 2006 106 1324 1325 105 
106 2005 108 1326 1327 107 
108 2004 110 1328 1329 109 
110 2003 112 1330 1331 111 
112 2002 114 1332 1333 113 
114 2001 116 1334 1335 115 
116 1948 118 1336 1337 117 
120 2000 122 1339 1340 121 
122 1999 124 1341 1342 123 
124 1998 126 1343 1344 125 
126 1997 128 1345 1346 127 
128 1996 130 1347 1348 129 
130 1995 132 1349 1350 131 
132 1994 134 1351 1352 133 
134 1993 136 1353 1354 135 
136 1992 138 1355 1356 137 
138 1991 140 1357 1358 139 
140 1990 142 1359 1360 141 
142 1930 144 1361 1362 143 
144 1949 146 1363 1364 145 
148 1933 150 1365 1366 149 
150 1989 152 1367 1368 151 
152 1988 154 1369 1370 153 
154 1987 156 1371 1372 155 
156 1986 158 1373 1374 157 
158 1985 160 1375 1376 159 
160 1984 162 1377 1378 161 
162 1983 164 1379 1380 163 
164 1982 166 1381 1382 165 
166 1981 168 1383 1384 167 
168 1980 170 1385 1386 169 
170 1979 172 1387 1388 171 
172 1978 174 1389 1390 173 
179 1977 181 1391 1392 180 
181 1976 183 1393 1394 182 
527 1975 525 1395 1396 526 
529 1974 527 1397 1398 528 
531 1973 529 1399 1400 530 
533 1972 531 1401 1402 532 
535 1971 533 1403 1404 534 
537 1970 535 1405 1406 536 
539 1969 537 1407 1408 538 
541 1968 539 1409 1410 540 
543 1967 541 1411 1412 542 
545 1966 543 1413 1414 544 
547 1965 545 1415 1416 546 
552 1964 554 1417 1418 553 
554 1963 556 1419 1420 555 
556 1962 558 1421 1422 557 
558 1961 560 1423 1424 559 
560 1960 562 1425 1426 561 
562 1959 564 1427 1428 563 
564 1958 566 1429 1430 565 
566 1957 568 1431 1432 567 
568 1956 570 1433 1434 569 
570 1955 572 1435 1436 571 
572 1937 574 1437 1438 573 
581 1906 583 1580 1439 582 
583 1954 585 1440 1441 584 
595 1953 597 1442 1443 596 
597 1936 599 1444 1445 598 
606 1905 608 1582 1446 607 
608 1952 610 1447 1448 609 
620 1951 622 1449 1450 621 
622 1935 624 1451 1452 623 
631 1904 633 1584 1453 632 
633 1904 635 1453 1454 634 
645 1950 647 1455 1456 646 
647 1934 649 1457 1458 648 
1928 1948 1927 1460 1461 1471 
1924 1947 1923 1462 1463 1474 
1921 1946 1885 1464 1465 1477 
1884 1938 1920 1492 1466 1493 
1903 1918 1933 1506 1467 1507 
1932 1931 1877 1468 1469 1511 
1876 1877 1931 1547 1469 1512 
1899 1916 1929 1518 1470 1519 
1927 1926 1897 1472 1526 1525 
1896 1926 1915 1527 1473 1529 
1924 1923 1869 1474 1475 1532 
1868 1869 1923 1558 1475 1533 
1923 1922 1894 1476 1535 1534 
1921 1885 1867 1477 1633 1539 
1892 1944 1891 1479 1480 1542 
1890 1943 1918 1481 1482 1545 
1917 1942 1889 1483 1484 1549 
1888 1941 1916 1485 1486 1551 
1915 1940 1887 1487 1488 1555 
1886 1939 1914 1489 1490 1556 
1910 1938 1884 1491 1492 1559 
1884 1920 1866 1493 1540 1560 
1856 1937 1913 1494 1495 1562 
1846 1936 1912 1496 1497 1565 
1836 1935 1911 1498 1499 1568 
1835 1911 1886 1569 1500 1570 
1826 1934 1910 1501 1502 1572 
1847 1889 1881 1564 1503 1578 
1878 1918 1903 1546 1506 1585 
1903 1933 1902 1507 1508 1509 
1864 1903 1902 1586 1509 1587 
1902 1932 1877 1510 1511 1588 
1876 1931 1901 1512 1513 1589 
1901 1930 1900 1514 1515 1516 
1863 1901 1900 1590 1516 1591 
1900 1917 1875 1517 1548 1592 
1874 1916 1899 1552 1518 1593 
1899 1929 1898 1519 1520 1521 
1862 1899 1898 1594 1521 1595 
1898 1928 1873 1522 1523 1596 
1872 1927 1897 1524 1525 1597 
1897 1926 1896 1526 1527 1528 
1861 1897 1896 1598 1528 1599 
1896 1915 1871 1529 1554 1600 
1868 1923 1894 1533 1534 1602 
1894 1922 1893 1535 1536 1537 
1859 1894 1893 1603 1537 1604 
1893 1921 1867 1538 1539 1605 
1866 1920 1892 1540 1541 1606 
1858 1892 1891 1607 1542 1608 
1855 1913 1890 1563 1544 1610 
1890 1918 1878 1545 1546 1612 
1851 1877 1876 1614 1547 1615 
1875 1917 1889 1548 1549 1616 
1845 1912 1888 1566 1550 1619 
1888 1916 1874 1551 1552 1621 
1841 1873 1872 1623 1553 1624 
1871 1915 1887 1554 1555 1625 
1886 1914 1870 1556 1557 1629 
1831 1869 1868 1631 1558 1632 
1825 1910 1884 1573 1559 1636 
1824 1884 1866 1637 1560 1638 
1865 1909 1820 1561 1574 1639 
1856 1913 1855 1562 1563 1640 
1848 1889 1847 1617 1564 1641 
1846 1912 1845 1565 1566 1642 
1838 1887 1837 1626 1567 1643 
1836 1911 1835 1568 1569 1644 
1835 1886 1834 1570 1628 1645 
1828 1885 1827 1634 1571 1646 
1826 1910 1825 1572 1573 1647 
1820 1909 1819 1574 1575 1648 
1881 1906 581 1579 1580 1659 
1880 1905 606 1581 1582 1662 
1879 1904 631 1583 1584 1665 
1878 1903 1864 1585 1586 1668 
1864 1902 1877 1587 1588 1669 
1876 1901 1863 1589 1590 1672 
1863 1900 1875 1591 1592 1673 
1874 1899 1862 1593 1594 1676 
1862 1898 1873 1595 1596 1677 
1872 1897 1861 1597 1598 1680 
1861 1896 1871 1599 1600 1681 
1868 1894 1859 1602 1603 1688 
1859 1893 1867 1604 1605 1689 
1866 1892 1858 1606 1607 1692 
1858 1891 1857 1608 1609 1693 
1855 1890 1854 1610 1611 1712 
1854 1890 1878 1611 1612 1613 
1854 1878 1853 1613 1667 1713 
1852 1877 1851 1670 1614 1715 
1851 1876 1850 1615 1671 1716 
1875 1889 1848 1616 1617 1618 
1849 1875 1848 1674 1618 1718 
1845 1888 1844 1619 1620 1719 
1844 1888 1874 1620 1621 1622 
1844 1874 1843 1622 1675 1720 
1842 1873 1841 1678 1623 1722 
1841 1872 1840 1624 1679 1723 
1871 1887 1838 1625 1626 1627 
1839 1871 1838 1682 1627 1725 
1834 1886 1870 1628 1629 1630 
1834 1870 1833 1630 1683 1726 
1832 1869 1831 1686 1631 1728 
1831 1868 1830 1632 1687 1729 
1867 1885 1828 1633 1634 1635 
1829 1867 1828 1690 1635 1731 
1825 1884 1824 1636 1637 1732 
1824 1866 1823 1638 1691 1733 
1821 1865 1820 1695 1639 1736 
373 1856 1855 1738 1640 1739 
388 1848 1847 1754 1641 1755 
417 1846 1845 1758 1642 1759 
432 1838 1837 1774 1643 1775 
461 1836 1835 1778 1644 1779 
463 1835 1834 1780 1645 1781 
476 1828 1827 1794 1646 1795 
505 1826 1825 1798 1647 1799 
516 1820 1819 1810 1648 1811 
518 1819 1818 1812 1649 1813 
520 1818 1817 1814 1650 1815 
23 1883 25 1651 1652 24 
177 1882 179 1653 1654 178 
549 1817 547 1655 1656 548 
579 1881 581 1658 1659 580 
604 1880 606 1661 1662 605 
629 1879 631 1664 1665 630 
1853 1878 1864 1667 1668 1696 
1864 1877 1852 1669 1670 1697 
1850 1876 1863 1671 1672 1698 
1863 1875 1849 1673 1674 1699 
1843 1874 1862 1675 1676 1700 
1862 1873 1842 1677 1678 1701 
1840 1872 1861 1679 1680 1702 
1861 1871 1839 1681 1682 1703 
1833 1870 1860 1683 1684 1704 
1860 1869 1832 1685 1686 1705 
1830 1868 1859 1687 1688 1706 
1859 1867 1829 1689 1690 1707 
1823 1866 1858 1691 1692 1708 
1822 1858 1857 1709 1693 1710 
1857 1865 1821 1694 1695 1711 
1853 1864 1852 1696 1697 1714 
1850 1863 1849 1698 1699 1717 
1843 1862 1842 1700 1701 1721 
1840 1861 1839 1702 1703 1724 
1833 1860 1832 1704 1705 1727 
1830 1859 1829 1706 1707 1730 
1823 1858 1822 1708 1709 1734 
1822 1857 1821 1710 1711 1735 
375 1855 1854 1740 1712 1741 
377 1854 1853 1742 1713 1743 
379 1853 1852 1744 1714 1745 
9 1852 1851 1746 1715 1747 
382 1851 1850 1748 1716 1749 
384 1850 1849 1750 1717 1751 
1849 1848 386 1718 1753 1752 
419 1845 1844 1760 1719 1761 
421 1844 1843 1762 1720 1763 
423 1843 1842 1764 1721 1765 
13 1842 1841 1766 1722 1767 
426 1841 1840 1768 1723 1769 
428 1840 1839 1770 1724 1771 
1839 1838 430 1725 1773 1772 
465 1834 1833 1782 1726 1783 
467 1833 1832 1784 1727 1785 
17 1832 1831 1786 1728 1787 
470 1831 1830 1788 1729 1789 
472 1830 1829 1790 1730 1791 
1829 1828 474 1731 1793 1792 
507 1825 1824 1800 1732 1801 
509 1824 1823 1802 1733 1803 
511 1823 1822 1804 1734 1805 
21 1822 1821 1806 1735 1807 
1821 1820 514 1736 1809 1808 
371 1856 373 1737 1738 372 
373 1855 375 1739 1740 374 
375 1854 377 1741 1742 376 
377 1853 379 1743 1744 378 
379 1852 9 1745 1746 380 
9 1851 382 1747 1748 381 
382 1850 384 1749 1750 383 
384 1849 386 1751 1752 385 
386 1848 388 1753 1754 387 
388 1847 390 1755 1756 389 
415 1846 417 1757 1758 416 
417 1845 419 1759 1760 418 
419 1844 421 1761 1762 420 
421 1843 423 1763 1764 422 
423 1842 13 1765 1766 424 
13 1841 426 1767 1768 425 
426 1840 428 1769 1770 427 
428 1839 430 1771 1772 429 
430 1838 432 1773 1774 431 
432 1837 434 1775 1776 433 
459 1836 461 1777 1778 460 
461 1835 463 1779 1780 462 
463 1834 465 1781 1782 464 
465 1833 467 1783 1784 466 
467 1832 17 1785 1786 468 
17 1831 470 1787 1788 469 
470 1830 472 1789 1790 471 
472 1829 474 1791 1792 473 
474 1828 476 1793 1794 475 
476 1827 478 1795 1796 477 
503 1826 505 1797 1798 504 
505 1825 507 1799 1800 506 
507 1824 509 1801 1802 508 
509 1823 511 1803 1804 510 
511 1822 21 1805 1806 512 
21 1821 514 1807 1808 513 
514 1820 516 1809 1810 515 
516 1819 518 1811 1812 517 
518 1818 520 1813 1814 519 
520 1817 522 1815 1816 521 
3390 3389 3311 2732 3079 2140 
3312 3390 3311 3078 2140 3156 
3323 3369 3348 3074 3126 2141 
3322 3323 3348 3152 2141 3127 
3619 637 3617 2243 2244 2142 
3613 3619 3617 2214 2142 2255 
3573 3563 3562 2309 2356 2143 
3464 3573 3562 2487 2143 2486 
3591 3499 3546 2428 2429 2144 
3604 3591 3546 2268 2144 2382 
3531 3421 3420 2700 2959 2145 
3432 3531 3420 2687 2145 2950 
3485 3404 3379 2451 3032 2146 
3403 3485 3379 2450 2146 3033 
3365 3414 3396 2998 3003 2147 
3364 3365 3396 3059 2147 3063 
3434 3314 3315 2728 3154 2148 
3391 3434 3315 2729 2148 3077 
3449 3390 3312 2730 3078 2149 
3313 3449 3312 2731 2149 3155 
3373 3333 3625 3069 2189 2150 
3357 3373 3625 3017 2150 2183 
3369 3323 3626 3074 2185 2151 
3356 3369 3626 3018 2151 2184 
3405 3408 3428 2974 2957 2152 
3533 3405 3428 2695 2152 2696 
3545 3523 3376 2571 2726 2153 
3369 3545 3376 2572 2153 3053 
3533 3428 309 2696 2855 2154 
311 3533 309 2551 2154 310 
3411 574 576 2929 575 2155 
3334 3411 576 3008 2155 3165 
3410 599 601 2936 600 2156 
3324 3410 601 3010 2156 3168 
3409 649 651 2949 650 2157 
3304 3409 651 3014 2157 3175 
20 500 3304 501 3302 2158 
651 20 3304 652 2158 3175 
18 549 3313 550 3163 2159 
481 18 3313 480 2159 3285 
16 456 3314 457 3282 2160 
626 16 3314 627 2160 3172 
12 412 3324 413 3262 2161 
601 12 3324 602 2161 3168 
8 368 3334 369 3242 2162 
576 8 3334 577 2162 3165 
3583 3609 3538 2288 2231 2163 
3554 3583 3538 2226 2163 2534 
3389 3543 3510 2576 2410 2164 
3509 3389 3510 2579 2164 2599 
3425 3496 3495 2701 2614 2165 
3549 3425 3495 2559 2165 2431 
3548 3475 3474 2378 2635 2166 
3528 3548 3474 2560 2166 2469 
3508 3530 3397 2411 2176 2167 
3415 3508 3397 2601 2167 3000 
3521 192 3621 2742 2207 2168 
3520 3521 3621 2588 2168 2205 
3534 3497 251 2548 2798 2169 
3429 3534 251 2693 2169 2799 
3460 346 3623 2885 2199 2170 
3448 3460 3623 2650 2170 2197 
3375 3358 3386 3016 3085 2171 
3424 3375 3386 2981 2171 2734 
3545 3369 3356 2572 3018 2172 
3384 3545 3356 2385 2172 3089 
3459 525 3620 2887 2211 2173 
3360 3459 3620 2651 2173 2209 
3462 337 3622 2881 2203 2174 
3359 3462 3622 2648 2174 2201 
3532 3407 305 2553 2853 2175 
307 3532 305 2552 2175 306 
3530 3412 3397 2704 2999 2176 
3532 3408 3383 2698 3020 2177 
3407 3532 3383 2553 2177 3021 
3528 3407 3382 2708 3022 2178 
3400 3528 3382 2711 2178 3024 
3533 3406 3380 2550 3027 2179 
3405 3533 3380 2695 2179 3029 
3497 3402 3377 2373 3038 2180 
3401 3497 3377 2613 2180 3039 
3523 3401 3377 2724 3039 2181 
3376 3523 3377 2726 2181 3040 
3358 3343 3624 3084 2193 2182 
579 3358 3624 3166 2182 2194 
604 3357 3625 3169 2183 2190 
629 3356 3626 3173 2184 2186 
3626 3323 437 2185 3265 2187 
14 629 3626 628 2186 2188 
14 3626 437 2188 2187 436 
3625 3333 393 2189 3245 2191 
10 604 3625 603 2190 2192 
10 3625 393 2192 2191 392 
3624 3343 349 2193 3225 2195 
6 579 3624 578 2194 2196 
6 3624 349 2196 2195 348 
3623 552 3448 2198 2908 2197 
3 552 3623 551 2198 2200 
3 3623 346 2200 2199 347 
3622 340 3359 2202 3161 2201 
5 340 3622 339 2202 2204 
5 3622 337 2204 2203 338 
3621 195 3520 2206 2743 2205 
4 195 3621 194 2206 2208 
4 3621 192 2208 2207 193 
3620 186 3360 2210 3159 2209 
0 186 3620 185 2210 2212 
0 3620 525 2212 2211 524 
3618 641 3615 2248 2251 2252 
3605 3619 3591 2213 2221 2269 
635 3619 3605 2242 2213 2270 
3592 3619 3613 2220 2214 2280 
3608 591 3609 2237 2238 2215 
3608 3609 3582 2215 2289 2290 
3607 589 3608 2217 2236 2216 
3607 3608 3581 2216 2291 2292 
3606 589 3607 2235 2217 2218 
3606 3607 3580 2218 2293 2294 
3565 3566 3598 2229 2324 2219 
3565 3598 3544 2219 2318 2354 
3526 3578 3556 2233 2296 2362 
3539 3606 3579 2230 2295 2365 
3589 3612 3536 2281 2232 2369 
3603 3572 3541 2271 2348 2387 
3564 3573 3540 2308 2227 2388 
3591 3619 3592 2221 2220 2222 
3591 3592 3500 2222 2426 2427 
3590 3549 3494 2223 2432 2433 
3552 3549 3590 2377 2223 2224 
3589 3552 3590 2370 2224 2225 
3589 3590 3493 2225 2434 2435 
3554 3550 3482 2375 2454 2455 
3583 3554 3481 2226 2456 2457 
3555 3579 3476 2364 2466 2467 
3540 3573 3463 2227 2488 2489 
3568 3513 3566 2404 2405 2228 
3452 3568 3566 2503 2228 2508 
3451 3566 3565 2507 2229 2510 
587 3606 3539 2234 2230 2532 
3609 593 3538 2239 2533 2231 
612 3610 3537 2240 2266 2539 
3536 3612 618 2232 2241 2540 
3535 3616 643 2260 2249 2544 
3525 3554 3437 2374 2535 2566 
3423 3578 3526 2342 2233 2570 
3528 3474 3407 2469 2636 2708 
3414 223 3415 2770 2771 2968 
589 3606 587 2235 2234 588 
591 3608 589 2237 2236 590 
593 3609 591 2239 2238 592 
614 3610 612 2259 2240 613 
616 3611 614 2257 2258 615 
618 3612 616 2241 2256 617 
637 3619 635 2243 2242 636 
3617 637 639 2244 638 2245 
3618 3614 3617 2253 2254 2246 
3618 3617 639 2246 2245 2247 
641 3618 639 2248 2247 640 
643 3616 641 2249 2250 642 
3615 641 3616 2251 2250 2261 
3614 3618 3615 2253 2252 2262 
3613 3617 3614 2255 2254 2263 
3611 616 3612 2257 2256 2264 
3610 614 3611 2259 2258 2265 
3558 3441 3557 2525 2526 2267 
3551 3547 3597 2381 2326 2272 
3616 3535 3596 2260 2371 2273 
3615 3616 3595 2261 2274 2275 
3614 3615 3594 2262 2276 2277 
3593 3613 3614 2279 2263 2278 
3611 3612 3588 2264 2282 2283 
3610 3611 3587 2265 2284 2285 
3586 3537 3610 2368 2266 2286 
3577 3557 3556 2298 2361 2297 
3576 3558 3557 2300 2267 2299 
3605 3591 3604 2269 2268 2315 
3384 635 3605 2945 2270 2317 
3602 3572 3603 2302 2271 2319 
3601 3571 3602 2304 2301 2320 
3600 3570 3601 2306 2303 2321 
3599 3569 3600 2307 2305 2322 
3596 3551 3597 2372 2272 2327 
3595 3616 3596 2274 2273 2328 
3594 3615 3595 2276 2275 2329 
3593 3614 3594 2278 2277 2330 
3592 3613 3593 2280 2279 2331 
3588 3612 3589 2282 2281 2332 
3587 3611 3588 2284 2283 2333 
3586 3610 3587 2286 2285 2334 
3585 3553 3586 2287 2367 2335 
3584 3553 3585 2314 2287 2336 
3527 3542 3584 2562 2313 2337 
3582 3609 3583 2289 2288 2338 
3581 3608 3582 2291 2290 2339 
3580 3607 3581 2293 2292 2340 
3579 3606 3580 2295 2294 2341 
3577 3556 3578 2297 2296 2343 
3576 3557 3577 2299 2298 2344 
3575 3558 3576 2312 2300 2345 
3574 3559 3575 2310 2311 2346 
3572 3602 3571 2302 2301 2349 
3571 3601 3570 2304 2303 2350 
3570 3600 3569 2306 2305 2351 
3567 3514 3568 2402 2403 2352 
3569 3599 3567 2307 2323 2353 
3563 3573 3564 2309 2308 2355 
3561 3465 3562 2484 2485 2357 
3560 3466 3561 2482 2483 2358 
3559 3574 3560 2310 2347 2359 
3558 3575 3559 2312 2311 2360 
3555 3475 3548 2468 2378 2363 
3553 3584 3542 2314 2313 2366 
3545 3605 3604 2316 2315 2384 
3384 3605 3545 2317 2316 2385 
3544 3598 3543 2318 2325 2386 
3602 3603 3519 2319 2392 2393 
3601 3602 3518 2320 2394 2395 
3600 3601 3517 2321 2396 2397 
3599 3600 3516 2322 2398 2399 
3515 3567 3599 2401 2323 2400 
3598 3566 3512 2324 2406 2407 
3511 3543 3598 2409 2325 2408 
3507 3547 3530 2413 2555 2412 
3597 3547 3506 2326 2414 2415 
3596 3597 3505 2327 2416 2417 
3595 3596 3504 2328 2418 2419 
3594 3595 3503 2329 2420 2421 
3593 3594 3502 2330 2422 2423 
3501 3592 3593 2425 2331 2424 
3588 3589 3492 2332 2436 2437 
3587 3588 3491 2333 2438 2439 
3586 3587 3490 2334 2440 2441 
3585 3586 3489 2335 2442 2443 
3584 3585 3488 2336 2444 2445 
3487 3527 3584 2447 2337 2446 
3403 3527 3486 2710 2448 2449 
3484 3419 3404 2690 2961 2452 
3582 3583 3480 2338 2458 2459 
3581 3582 3479 2339 2460 2461 
3580 3581 3478 2340 2462 2463 
3477 3579 3580 2465 2341 2464 
3578 3423 3472 2342 2470 2471 
3577 3578 3471 2343 2472 2473 
3576 3577 3470 2344 2474 2475 
3575 3576 3469 2345 2476 2477 
3574 3575 3468 2346 2478 2479 
3467 3560 3574 2481 2347 2480 
3458 3541 3572 2493 2348 2496 
3457 3572 3571 2495 2349 2498 
3456 3571 3570 2497 2350 2500 
3455 3570 3569 2499 2351 2502 
3567 3568 3453 2352 2504 2505 
3454 3569 3567 2501 2353 2506 
3450 3565 3544 2509 2354 2511 
3563 3564 3447 2355 2513 2514 
3562 3563 3446 2356 2515 2516 
3561 3562 3445 2357 2517 2518 
3560 3561 3444 2358 2519 2520 
3559 3560 3443 2359 2521 2522 
3442 3558 3559 2524 2360 2523 
3556 3557 3440 2361 2527 2528 
3439 3526 3556 2565 2362 2529 
3555 3548 3438 2363 2379 2530 
3539 3579 3555 2365 2364 2531 
3553 3542 3436 2366 2536 2537 
3537 3586 3553 2368 2367 2538 
3552 3589 3536 2370 2369 2541 
3435 3529 3552 2543 2376 2542 
3551 3596 3535 2372 2371 2545 
3433 3524 3551 2567 2380 2546 
3483 3550 3531 2453 2554 2547 
3402 3497 3534 2373 2548 2549 
311 3406 3533 2856 2550 2551 
3550 3554 3525 2375 2374 2556 
3549 3552 3529 2377 2376 2558 
3424 3438 3548 2580 2379 2561 
3547 3551 3524 2381 2380 2563 
3546 3498 3401 2430 2612 2568 
3523 3604 3546 2383 2382 2569 
3545 3604 3523 2384 2383 2571 
3390 3544 3543 2574 2386 2577 
3522 3603 3541 2389 2387 2584 
3461 3564 3540 2491 2388 2586 
3521 3603 3522 2390 2389 2587 
3520 3603 3521 2391 2390 2588 
3519 3603 3520 2392 2391 2589 
3518 3602 3519 2394 2393 2590 
3517 3601 3518 2396 2395 2591 
3516 3600 3517 2398 2397 2592 
3515 3599 3516 2400 2399 2593 
3514 3567 3515 2402 2401 2594 
3513 3568 3514 2404 2403 2595 
3512 3566 3513 2406 2405 2596 
3511 3598 3512 2408 2407 2597 
3510 3543 3511 2410 2409 2598 
3507 3530 3508 2412 2411 2602 
3506 3547 3507 2414 2413 2603 
3505 3597 3506 2416 2415 2604 
3504 3596 3505 2418 2417 2605 
3503 3595 3504 2420 2419 2606 
3502 3594 3503 2422 2421 2607 
3501 3593 3502 2424 2423 2608 
3500 3592 3501 2426 2425 2609 
3499 3591 3500 2428 2427 2610 
3498 3546 3499 2430 2429 2611 
3494 3549 3495 2432 2431 2615 
3493 3590 3494 2434 2433 2616 
3492 3589 3493 2436 2435 2617 
3491 3588 3492 2438 2437 2618 
3490 3587 3491 2440 2439 2619 
3489 3586 3490 2442 2441 2620 
3488 3585 3489 2444 2443 2621 
3487 3584 3488 2446 2445 2622 
3486 3527 3487 2448 2447 2623 
3485 3403 3486 2450 2449 2624 
3484 3404 3485 2452 2451 2625 
3482 3550 3483 2454 2453 2627 
3481 3554 3482 2456 2455 2628 
3480 3583 3481 2458 2457 2629 
3479 3582 3480 2460 2459 2630 
3478 3581 3479 2462 2461 2631 
3477 3580 3478 2464 2463 2632 
3476 3579 3477 2466 2465 2633 
3475 3555 3476 2468 2467 2634 
3472 3423 3473 2470 2713 2637 
3471 3578 3472 2472 2471 2638 
3470 3577 3471 2474 2473 2639 
3469 3576 3470 2476 2475 2640 
3468 3575 3469 2478 2477 2641 
3467 3574 3468 2480 2479 2642 
3466 3560 3467 2482 2481 2643 
3465 3561 3466 2484 2483 2644 
3464 3562 3465 2486 2485 2645 
3463 3573 3464 2488 2487 2646 
3462 3540 3463 2490 2489 2647 
3359 3540 3462 2585 2490 2648 
3460 3564 3461 2492 2491 2649 
3448 3564 3460 2512 2492 2650 
3360 3541 3459 2583 2494 2651 
3459 3541 3458 2494 2493 2652 
3458 3572 3457 2496 2495 2653 
3457 3571 3456 2498 2497 2654 
3456 3570 3455 2500 2499 2655 
3455 3569 3454 2502 2501 2656 
3453 3568 3452 2504 2503 2657 
3454 3567 3453 2506 2505 2658 
3452 3566 3451 2508 2507 2659 
3451 3565 3450 2510 2509 2660 
3450 3544 3449 2511 2575 2661 
3447 3564 3448 2513 2512 2662 
3446 3563 3447 2515 2514 2663 
3445 3562 3446 2517 2516 2664 
3444 3561 3445 2519 2518 2665 
3443 3560 3444 2521 2520 2666 
3442 3559 3443 2523 2522 2667 
3441 3558 3442 2525 2524 2668 
3440 3557 3441 2527 2526 2669 
3439 3556 3440 2529 2528 2670 
3539 3555 3438 2531 2530 2673 
585 587 3539 586 2532 2674 
3538 593 595 2533 594 2675 
3437 3554 3538 2535 2534 2676 
3436 3542 3385 2536 2582 2678 
3537 3553 3436 2538 2537 2679 
610 612 3537 611 2539 2680 
3536 618 620 2540 619 2681 
3435 3552 3536 2542 2541 2682 
3434 3529 3435 2573 2543 2683 
3535 643 645 2544 644 2684 
3433 3551 3535 2546 2545 2685 
3432 3483 3531 2626 2547 2687 
3431 283 3432 2830 2831 2688 
3429 253 3430 2800 2801 2692 
3416 3402 3534 2965 2549 2694 
3532 307 3428 2552 2854 2697 
3531 3550 3426 2554 2557 2699 
3530 3547 3413 2555 2564 2703 
3426 3550 3525 2557 2556 2705 
3425 3549 3529 2559 2558 2707 
3424 3548 3528 2561 2560 2712 
3422 3542 3527 2581 2562 2716 
3413 3547 3524 2564 2563 2717 
3526 3439 3411 2565 2671 2718 
3525 3437 3410 2566 2677 2720 
3524 3433 3409 2567 2686 2722 
3523 3546 3401 2569 2568 2724 
3423 3526 3395 2570 2719 2725 
3388 3509 3427 2578 2600 2727 
3391 3529 3434 2706 2573 2729 
3449 3544 3390 2575 2574 2730 
3390 3543 3389 2577 2576 2732 
3389 3509 3388 2579 2578 2733 
3386 3438 3424 2672 2580 2734 
3385 3542 3422 2582 2581 2736 
3522 3541 3360 2584 2583 2737 
3461 3540 3359 2586 2585 2738 
3521 3522 190 2587 2740 2741 
3519 3520 197 2589 2744 2745 
3518 3519 199 2590 2746 2747 
3517 3518 201 2591 2748 2749 
3516 3517 203 2592 2750 2751 
3515 3516 205 2593 2752 2753 
3514 3515 207 2594 2754 2755 
3513 3514 209 2595 2756 2757 
3512 3513 211 2596 2758 2759 
3511 3512 213 2597 2760 2761 
3510 3511 215 2598 2762 2763 
3509 3510 217 2599 2764 2765 
219 3427 3509 2767 2600 2766 
3508 3415 225 2601 2772 2773 
3507 3508 227 2602 2774 2775 
3506 3507 229 2603 2776 2777 
3505 3506 231 2604 2778 2779 
3504 3505 233 2605 2780 2781 
3503 3504 235 2606 2782 2783 
3502 3503 237 2607 2784 2785 
3501 3502 239 2608 2786 2787 
3500 3501 241 2609 2788 2789 
3499 3500 243 2610 2790 2791 
3498 3499 245 2611 2792 2793 
247 3401 3498 2795 2612 2794 
3497 3401 249 2613 2796 2797 
3496 3430 255 2691 2802 2803 
3495 3496 257 2614 2804 2805 
3494 3495 259 2615 2806 2807 
3493 3494 261 2616 2808 2809 
3492 3493 263 2617 2810 2811 
3491 3492 265 2618 2812 2813 
3490 3491 267 2619 2814 2815 
3489 3490 269 2620 2816 2817 
3488 3489 271 2621 2818 2819 
3487 3488 273 2622 2820 2821 
3486 3487 275 2623 2822 2823 
3485 3486 277 2624 2824 2825 
3484 3485 279 2625 2826 2827 
281 3431 3484 2829 2689 2828 
3483 3432 285 2626 2832 2833 
3482 3483 287 2627 2834 2835 
3481 3482 289 2628 2836 2837 
3480 3481 291 2629 2838 2839 
3479 3480 293 2630 2840 2841 
3478 3479 295 2631 2842 2843 
3477 3478 297 2632 2844 2845 
3476 3477 299 2633 2846 2847 
3475 3476 301 2634 2848 2849 
3474 3475 303 2635 2850 2851 
305 3407 3474 2853 2636 2852 
3473 3406 313 2709 2857 2858 
3472 3473 315 2637 2859 2860 
3471 3472 317 2638 2861 2862 
3470 3471 319 2639 2863 2864 
3469 3470 321 2640 2865 2866 
3468 3469 323 2641 2867 2868 
3467 3468 325 2642 2869 2870 
3466 3467 327 2643 2871 2872 
3465 3466 329 2644 2873 2874 
3464 3465 331 2645 2875 2876 
3463 3464 333 2646 2877 2878 
3462 3463 335 2647 2879 2880 
3460 3461 344 2649 2883 2884 
527 3459 3458 2886 2652 2889 
529 3458 3457 2888 2653 2891 
531 3457 3456 2890 2654 2893 
533 3456 3455 2892 2655 2895 
535 3455 3454 2894 2656 2897 
3453 3452 539 2657 2901 2898 
537 3454 3453 2896 2658 2899 
541 3452 3451 2900 2659 2903 
543 3451 3450 2902 2660 2905 
3449 3313 547 2731 3164 2906 
545 3450 3449 2904 2661 2907 
3447 3448 554 2662 2909 2910 
3446 3447 556 2663 2911 2912 
3445 3446 558 2664 2913 2914 
3444 3445 560 2665 2915 2916 
3443 3444 562 2666 2917 2918 
3442 3443 564 2667 2919 2920 
3441 3442 566 2668 2921 2922 
3440 3441 568 2669 2923 2924 
3439 3440 570 2670 2925 2926 
572 3411 3439 2928 2671 2927 
3438 3386 583 2672 2930 2931 
585 3539 3438 2674 2673 2932 
3437 3538 595 2676 2675 2933 
597 3410 3437 2935 2677 2934 
3436 3385 608 2678 2937 2938 
610 3537 3436 2680 2679 2939 
3435 3536 620 2682 2681 2940 
3434 3435 622 2683 2941 2942 
624 3314 3434 3171 2728 2943 
3433 3535 645 2685 2684 2946 
647 3409 3433 2948 2686 2947 
3431 3432 3420 2688 2950 2951 
3419 3484 3431 2690 2689 2952 
3430 3496 3418 2691 2702 2953 
3429 3430 3417 2692 2954 2955 
3416 3534 3429 2694 2693 2956 
3408 3532 3428 2698 2697 2957 
3421 3531 3426 2700 2699 2958 
3418 3496 3425 2702 2701 2962 
3427 221 3414 2768 2769 2966 
3412 3530 3413 2704 2703 2969 
3426 3525 3393 2705 2721 2970 
3425 3529 3391 2707 2706 2972 
3406 3473 3399 2709 2714 2975 
3398 3527 3403 2715 2710 2978 
3424 3528 3400 2712 2711 2980 
3399 3473 3423 2714 2713 2983 
3422 3527 3398 2716 2715 2984 
3413 3524 3387 2717 2723 3004 
3395 3526 3411 2719 2718 3009 
3393 3525 3410 2721 2720 3011 
3387 3524 3409 2723 2722 3015 
3357 3422 3373 2735 2985 3017 
3374 3423 3395 2982 2725 3044 
3388 3427 3365 2727 2967 3058 
3311 3389 3388 3079 2733 3081 
3385 3422 3357 2736 2735 3087 
188 3522 3360 2739 2737 3160 
342 3461 3359 2882 2738 3162 
190 3522 188 2740 2739 189 
192 3521 190 2742 2741 191 
197 3520 195 2744 2743 196 
199 3519 197 2746 2745 198 
201 3518 199 2748 2747 200 
203 3517 201 2750 2749 202 
205 3516 203 2752 2751 204 
207 3515 205 2754 2753 206 
209 3514 207 2756 2755 208 
211 3513 209 2758 2757 210 
213 3512 211 2760 2759 212 
215 3511 213 2762 2761 214 
217 3510 215 2764 2763 216 
219 3509 217 2766 2765 218 
221 3427 219 2768 2767 220 
223 3414 221 2770 2769 222 
225 3415 223 2772 2771 224 
227 3508 225 2774 2773 226 
229 3507 227 2776 2775 228 
231 3506 229 2778 2777 230 
233 3505 231 2780 2779 232 
235 3504 233 2782 2781 234 
237 3503 235 2784 2783 236 
239 3502 237 2786 2785 238 
241 3501 239 2788 2787 240 
243 3500 241 2790 2789 242 
245 3499 243 2792 2791 244 
247 3498 245 2794 2793 246 
249 3401 247 2796 2795 248 
251 3497 249 2798 2797 250 
253 3429 251 2800 2799 252 
255 3430 253 2802 2801 254 
257 3496 255 2804 2803 256 
259 3495 257 2806 2805 258 
261 3494 259 2808 2807 260 
263 3493 261 2810 2809 262 
265 3492 263 2812 2811 264 
267 3491 265 2814 2813 266 
269 3490 267 2816 2815 268 
271 3489 269 2818 2817 270 
273 3488 271 2820 2819 272 
275 3487 273 2822 2821 274 
277 3486 275 2824 2823 276 
279 3485 277 2826 2825 278 
281 3484 279 2828 2827 280 
283 3431 281 2830 2829 282 
285 3432 283 2832 2831 284 
287 3483 285 2834 2833 286 
289 3482 287 2836 2835 288 
291 3481 289 2838 2837 290 
293 3480 291 2840 2839 292 
295 3479 293 2842 2841 294 
297 3478 295 2844 2843 296 
299 3477 297 2846 2845 298 
301 3476 299 2848 2847 300 
303 3475 301 2850 2849 302 
305 3474 303 2852 2851 304 
309 3428 307 2855 2854 308 
313 3406 311 2857 2856 312 
315 3473 313 2859 2858 314 
317 3472 315 2861 2860 316 
319 3471 317 2863 2862 318 
321 3470 319 2865 2864 320 
323 3469 321 2867 2866 322 
325 3468 323 2869 2868 324 
327 3467 325 2871 2870 326 
329 3466 327 2873 2872 328 
331 3465 329 2875 2874 330 
333 3464 331 2877 2876 332 
335 3463 333 2879 2878 334 
337 3462 335 2881 2880 336 
344 3461 342 2883 2882 343 
346 3460 344 2885 2884 345 
525 3459 527 2887 2886 526 
527 3458 529 2889 2888 528 
529 3457 531 2891 2890 530 
531 3456 533 2893 2892 532 
533 3455 535 2895 2894 534 
535 3454 537 2897 2896 536 
537 3453 539 2899 2898 538 
539 3452 541 2901 2900 540 
541 3451 543 2903 2902 542 
543 3450 545 2905 2904 544 
545 3449 547 2907 2906 546 
554 3448 552 2909 2908 553 
556 3447 554 2911 2910 555 
558 3446 556 2913 2912 557 
560 3445 558 2915 2914 559 
562 3444 560 2917 2916 561 
564 3443 562 2919 2918 563 
566 3442 564 2921 2920 565 
568 3441 566 2923 2922 567 
570 3440 568 2925 2924 569 
572 3439 570 2927 2926 571 
574 3411 572 2929 2928 573 
583 3386 581 2930 3086 582 
585 3438 583 2932 2931 584 
597 3437 595 2934 2933 596 
599 3410 597 2936 2935 598 
608 3385 606 2937 3088 607 
610 3436 608 2939 2938 609 
622 3435 620 2941 2940 621 
624 3434 622 2943 2942 623 
633 3384 631 2944 3090 632 
635 3384 633 2945 2944 634 
647 3433 645 2947 2946 646 
649 3409 647 2949 2948 648 
3419 3431 3420 2952 2951 2960 
3417 3430 3418 2954 2953 2963 
3416 3429 3417 2956 2955 2964 
3421 3426 3394 2958 2971 2986 
3420 3421 3371 2959 2987 2988 
3419 3420 3370 2960 2989 2990 
3372 3404 3419 2977 2961 2991 
3418 3425 3392 2962 2973 2992 
3417 3418 3367 2963 2993 2994 
3416 3417 3366 2964 2995 2996 
3368 3402 3416 2979 2965 2997 
3365 3427 3414 2967 2966 2998 
3414 3415 3396 2968 3001 3003 
3412 3413 3362 2969 3005 3006 
3394 3426 3393 2971 2970 3012 
3392 3425 3391 2973 2972 3013 
3408 3405 3355 2974 2976 3019 
3406 3399 3381 2975 3025 3026 
3352 3355 3405 3043 2976 3030 
3404 3372 3351 2977 3049 3031 
3398 3403 3378 2978 3034 3036 
3402 3368 3349 2979 3054 3037 
3375 3424 3400 2981 2980 3042 
3399 3423 3374 2983 2982 3045 
3373 3422 3398 2985 2984 3048 
3371 3421 3394 2987 2986 3050 
3370 3420 3371 2989 2988 3051 
3372 3419 3370 2991 2990 3052 
3367 3418 3392 2993 2992 3055 
3366 3417 3367 2995 2994 3056 
3368 3416 3366 2997 2996 3057 
3397 3412 3361 2999 3007 3060 
3396 3415 3397 3001 3000 3002 
3396 3397 3363 3002 3061 3062 
3362 3413 3387 3005 3004 3064 
3361 3412 3362 3007 3006 3065 
3395 3411 3334 3009 3008 3067 
3393 3410 3324 3011 3010 3072 
3325 3394 3393 3070 3012 3073 
3392 3391 3315 3013 3077 3075 
3387 3409 3304 3015 3014 3082 
3358 3375 3343 3016 3066 3084 
3383 3408 3355 3020 3019 3091 
3382 3407 3383 3022 3021 3023 
3382 3383 3347 3023 3092 3093 
3354 3400 3382 3041 3024 3094 
3381 3399 3353 3025 3046 3095 
3380 3406 3381 3027 3026 3028 
3380 3381 3346 3028 3096 3097 
3352 3405 3380 3030 3029 3098 
3379 3404 3351 3032 3031 3099 
3378 3403 3379 3034 3033 3035 
3378 3379 3345 3035 3100 3101 
3350 3398 3378 3047 3036 3102 
3377 3402 3349 3038 3037 3103 
3376 3377 3344 3040 3104 3105 
3375 3400 3354 3042 3041 3107 
3339 3355 3352 3110 3043 3111 
3374 3395 3335 3044 3068 3112 
3353 3399 3374 3046 3045 3114 
3373 3398 3350 3048 3047 3116 
3329 3351 3372 3119 3049 3121 
3371 3394 3326 3050 3071 3122 
3370 3371 3327 3051 3123 3124 
3328 3372 3370 3120 3052 3125 
3369 3376 3348 3053 3106 3126 
3319 3349 3368 3128 3054 3130 
3367 3392 3316 3055 3076 3131 
3366 3367 3317 3056 3132 3133 
3318 3368 3366 3129 3057 3134 
3310 3388 3365 3080 3058 3136 
3309 3365 3364 3135 3059 3137 
3363 3397 3361 3061 3060 3138 
3364 3396 3363 3063 3062 3139 
3362 3387 3305 3064 3083 3143 
3361 3362 3306 3065 3144 3145 
3343 3375 3342 3066 3108 3147 
3335 3395 3334 3068 3067 3148 
3333 3373 3332 3069 3117 3149 
3326 3394 3325 3071 3070 3150 
3325 3393 3324 3073 3072 3151 
3316 3392 3315 3076 3075 3153 
3311 3388 3310 3081 3080 3157 
3305 3387 3304 3083 3082 3158 
581 3386 3358 3086 3085 3167 
606 3385 3357 3088 3087 3170 
631 3384 3356 3090 3089 3174 
3347 3383 3355 3092 3091 3177 
3354 3382 3347 3094 3093 3178 
3346 3381 3353 3096 3095 3181 
3352 3380 3346 3098 3097 3182 
3345 3379 3351 3100 3099 3185 
3350 3378 3345 3102 3101 3186 
3344 3377 3349 3104 3103 3189 
3348 3376 3344 3106 3105 3190 
3342 3375 3354 3108 3107 3109 
3342 3354 3341 3109 3179 3200 
3340 3355 3339 3176 3110 3202 
3339 3352 3338 3111 3183 3203 
3336 3374 3335 3113 3112 3205 
3353 3374 3336 3114 3113 3115 
3337 3353 3336 3180 3115 3206 
3332 3373 3350 3117 3116 3118 
3332 3350 3331 3118 3187 3207 
3330 3351 3329 3184 3119 3209 
3329 3372 3328 3121 3120 3210 
3327 3371 3326 3123 3122 3211 
3328 3370 3327 3125 3124 3212 
3322 3348 3321 3127 3191 3213 
3320 3349 3319 3188 3128 3215 
3319 3368 3318 3130 3129 3216 
3317 3367 3316 3132 3131 3217 
3318 3366 3317 3134 3133 3218 
3310 3365 3309 3136 3135 3219 
3309 3364 3308 3137 3140 3220 
3363 3361 3307 3138 3146 3141 
3308 3364 3363 3140 3139 3142 
3308 3363 3307 3142 3141 3221 
3306 3362 3305 3144 3143 3222 
3307 3361 3306 3146 3145 3223 
351 3343 3342 3224 3147 3227 
366 3335 3334 3240 3148 3243 
395 3333 3332 3244 3149 3247 
408 3326 3325 3258 3150 3261 
410 3325 3324 3260 3151 3263 
439 3323 3322 3264 3152 3267 
452 3316 3315 3278 3153 3281 
454 3315 3314 3280 3154 3283 
483 3313 3312 3284 3155 3287 
485 3312 3311 3286 3156 3289 
487 3311 3310 3288 3157 3291 
498 3305 3304 3300 3158 3303 
188 3360 186 3160 3159 187 
342 3359 340 3162 3161 341 
547 3313 549 3164 3163 548 
581 3358 579 3167 3166 580 
606 3357 604 3170 3169 605 
626 3314 624 3172 3171 625 
631 3356 629 3174 3173 630 
3347 3355 3340 3177 3176 3192 
3341 3354 3347 3179 3178 3193 
3346 3353 3337 3181 3180 3194 
3338 3352 3346 3183 3182 3195 
3345 3351 3330 3185 3184 3196 
3331 3350 3345 3187 3186 3197 
3344 3349 3320 3189 3188 3198 
3321 3348 3344 3191 3190 3199 
3341 3347 3340 3193 3192 3201 
3338 3346 3337 3195 3194 3204 
3331 3345 3330 3197 3196 3208 
3321 3344 3320 3199 3198 3214 
353 3342 3341 3226 3200 3229 
355 3341 3340 3228 3201 3231 
357 3340 3339 3230 3202 3233 
7 3339 3338 3232 3203 3235 
360 3338 3337 3234 3204 3237 
3336 3335 364 3205 3241 3238 
362 3337 3336 3236 3206 3239 
397 3332 3331 3246 3207 3249 
399 3331 3330 3248 3208 3251 
401 3330 3329 3250 3209 3253 
11 3329 3328 3252 3210 3255 
3327 3326 406 3211 3259 3256 
404 3328 3327 3254 3212 3257 
441 3322 3321 3266 3213 3269 
443 3321 3320 3268 3214 3271 
445 3320 3319 3270 3215 3273 
15 3319 3318 3272 3216 3275 
3317 3316 450 3217 3279 3276 
448 3318 3317 3274 3218 3277 
489 3310 3309 3290 3219 3293 
19 3309 3308 3292 3220 3295 
492 3308 3307 3294 3221 3297 
3306 3305 496 3222 3301 3298 
494 3307 3306 3296 3223 3299 
349 3343 351 3225 3224 350 
351 3342 353 3227 3226 352 
353 3341 355 3229 3228 354 
355 3340 357 3231 3230 356 
357 3339 7 3233 3232 358 
7 3338 360 3235 3234 359 
360 3337 362 3237 3236 361 
362 3336 364 3239 3238 363 
364 3335 366 3241 3240 365 
366 3334 368 3243 3242 367 
393 3333 395 3245 3244 394 
395 3332 397 3247 3246 396 
397 3331 399 3249 3248 398 
399 3330 401 3251 3250 400 
401 3329 11 3253 3252 402 
11 3328 404 3255 3254 403 
404 3327 406 3257 3256 405 
406 3326 408 3259 3258 407 
408 3325 410 3261 3260 409 
410 3324 412 3263 3262 411 
437 3323 439 3265 3264 438 
439 3322 441 3267 3266 440 
441 3321 443 3269 3268 442 
443 3320 445 3271 3270 444 
445 3319 15 3273 3272 446 
15 3318 448 3275 3274 447 
448 3317 450 3277 3276 449 
450 3316 452 3279 3278 451 
452 3315 454 3281 3280 453 
454 3314 456 3283 3282 455 
481 3313 483 3285 3284 482 
483 3312 485 3287 3286 484 
485 3311 487 3289 3288 486 
487 3310 489 3291 3290 488 
489 3309 19 3293 3292 490 
19 3308 492 3295 3294 491 
492 3307 494 3297 3296 493 
494 3306 496 3299 3298 495 
496 3305 498 3301 3300 497 
498 3304 500 3303 3302 499 
3627 3628
3629 3630
3631 3632
3633 3634
3635 3636
3637 3638
3639 3640
3641 3642
3643 3644
3645 3646
3647 3648
3649 3650
3651 3652
3653 3654
3655 3656
3657 3658
3659 3660
3661 3662
3663 3664
3665 3666
3667 3668
3669 3670
3671 3672
3673 3674
3675 3676
3677 3678
3679 3680
3681 3682
3683 3684
3685 3686
3687 3688
3689 3690
3691 3692
3693 3694
3695 3696
3697 3698
3699 3700
3701 3702
3703 3704
3705 3706
3707 3708
3709 3710
3711 3712
3713 3714
3715 3716
3717 3718
3719 3720
3721 3722
3723 3724
3725 3726
3727 3728
3729 3730
3731 3732
3733 3734
3735 3736
3737 3738
3739 3740
3741 3742
3743 3744
3745 3746
3747 3748
3749 3750
3751 3752
3753 3754
3755 3756
3757 3758
3759 3760
3761 3762
3763 3764
3765 3766
3767 3768
3769 3770
3771 3772
3773 3774
3775 3776
3777 3778
3779 3780
3781 3782
3783 3784
3785 3786
3787 3788
3789 3790
3791 3792
3793 3794
3795 3796
3797 3798
3799 3800
3801 3802
3803 3804
3805 3806
3807 3808
3809 3810
3811 3812
3813 3814
3815 3816
3817 3818
3819 3820
3821 3822
3823 3824
3825 3826
3827 3828
3829 3830
3831 3832
3833 3834
3835 3836
3837 3838
3839 3840
3841 3842
3843 3844
3845 3846
3847 3848
3849 3850
3851 3852
3853 3854
3855 3856
3857 3858
3859 3860
3861 3862
3863 3864
3865 3866
3867 3868
3869 3870
3871 3872
3873 3874
3875 3876
3877 3878
3879 3880
3881 3882
3883 3884
3885 3886
3887 3888
3889 3890
3891 3892
3893 3894
3895 3896
3897 3898
3899 3900
3901 3902
3903 3904
3905 3906
3907 3908
3909 3910
3911 3912
3913 3914
3915 3916
3917 3918
3919 3920
3921 3922
3923 3924
3925 3926
3927 3928
3929 3930
3931 3932
3933 3934
3935 3936
3937 3938
3939 3940
3941 3942
3943 3944
3945 3946
3947 3948
3949 3950
3951 3952
3953 3954
3955 3956
3957 3958
3959 3960
3961 3962
3963 3964
3965 3966
3967 3968
3969 3970
3971 3972
3973 3974
3975 3976
3977 3978
3979 3980
3981 3982
3983 3984
3985 3986
3987 3988
3989 3990
3991 3992
3993 3994
3995 3996
3997 3998
3999 4000
4001 4002
4003 4004
4005 4006
4007 4008
4009 4010
4011 4012
4013 4014
4015 4016
4017 4018
4019 4020
4021 4022
4023 4024
4025 4026
4027 4028
4029 4030
4031 4032
4033 4034
4035 4036
4037 4038
4039 4040
4041 4042
4043 4044
4045 4046
4047 4048
4049 4050
4051 4052
4053 4054
4055 4056
4057 4058
4059 4060
4061 4062
4063 4064
4065 4066
4067 4068
4069 4070
4071 4072
4073 4074
4075 4076
4077 4078
4079 4080
4081 4082
4083 4084
4085 4086
4087 4088
4089 4090
4091 4092
4093 4094
4095 4096
4097 4098
4099 4100
4101 4102
4103 4104
4105 4106
4107 4108
4109 4110
4111 4112
4113 4114
4115 4116
4117 4118
4119 4120
4121 4122
4123 4124
4125 4126
4127 4128
4129 4130
4131 4132
4133 4134
4135 4136
4137 4138
4139 4140
4141 4142
4143 4144
4145 4146
4147 4148
4149 4150
4151 4152
4153 4154
4155 4156
4157 4158
4159 4160
4161 4162
4163 4164
4165 4166
4167 4168
4169 4170
4171 4172
4173 4174
4175 4176
4177 4178
4179 4180
4181 4182
4183 4184
4185 4186
4187 4188
4189 4190
4191 4192
4193 4194
4195 4196
4197 4198
4199 4200
4201 4202
4203 4204
4205 4206
4207 4208
4209 4210
4211 4212
4213 4214
4215 4216
4217 4218
4219 4220
4221 4222
4223 4224
4225 4226
4227 4228
4229 4230
4231 4232
4233 4234
4235 4236
4237 4238
4239 4240
4241 4242
4243 4244
4245 4246
4247 4248
4249 4250
4251 4252
4253 4254
4255 4256
4257 4258
4259 4260
4261 4262
4263 4264
4265 4266
4267 4268
4269 4270
4271 4272
4273 4274
4275 4276
4277 4278
4279 4280
4281 4282
4283 4284
4285 4286
4287 4288
4289 4290
4291 4292
4293 4294
4295 4296
4297 4298
4299 4300
4301 4302
4303 4304
4305 4306
4307 4308
4309 4310
4311 4312
4313 4314
4315 4316
4317 4318
4319 4320
4321 4322
4323 4324
4325 4326
4327 4328
4329 4330
4331 4332
4333 4334
4335 4336
4337 4338
4339 4340
4341 4342
4343 4344
4345 4346
4347 4348
4349 4350
4351 4352
4353 4354
4355 4356
4357 4358
4359 4360
4361 4362
4363 4364
4365 4366
4367 4368
4369 4370
4371 4372
4373 4374
4375 4376
4377 4378
4379 4380
4381 4382
4383 4384
4385 4386
4387 4388
4389 4390
4391 4392
4393 4394
4395 4396
4397 4398
4399 4400
4401 4402
4403 4404
4405 4406
4407 4408
4409 4410
4411 4412
4413 4414
4415 4416
4417 4418
4419 4420
4421 4422
4423 4424
4425 4426
4427 4428
4429 4430
4431 4432
4433 4434
4435 4436
4437 4438
4439 4440
4441 4442
4443 4444
4445 4446
4447 4448
4449 4450
4451 4452
4453 4454
4455 4456
4457 4458
4459 4460
4461 4462
4463 4464
4465 4466
4467 4468
4469 4470
4471 4472
4473 4474
4475 4476
4477 4478
4479 4480
4481 4482
4483 4484
4485 4486
4487 4488
4489 4490
4491 4492
4493 4494
4495 4496
4497 4498
4499 4500
4501 4502
4503 4504
4505 4506
4507 4508
4509 4510
4511 4512
4513 4514
4515 4516
4517 4518
4519 4520
4521 4522
4523 4524
4525 4526
4527 4528
4529 4530
4531 4532
4533 4534
4535 4536
4537 4538
4539 4540
4541 4542
4543 4544
4545 4546
4547 4548
4549 4550
4551 4552
4553 4554
4555 4556
4557 4558
4559 4560
4561 4562
4563 4564
4565 4566
4567 4568
4569 4570
4571 4572
4573 4574
4575 4576
4577 4578
4579 4580
4581 4582
4583 4584
4585 4586
4587 4588
4589 4590
4591 4592
4593 4594
4595 4596
4597 4598
4599 4600
4601 4602
4603 4604
4605 4606
4607 4608
4609 4610
4611 4612
4613 4614
4615 4616
4617 4618
4619 4620
4621 4622
4623 4624
4625 4626
4627 4628
4629 4630
4631 4632
4633 4634
4635 4636
4637 4638
4639 4640
4641 4642
4643 4644
4645 4646
4647 4648
4649 4650
4651 4652
4653 4654
4655 4656
4657 4658
4659 4660
4661 4662
4663 4664
4665 4666
4667 4668
4669 4670
4671 4672
4673 4674
4675 4676
4677 4678
4679 4680
4681 4682
4683 4684
4685 4686
4687 4688
4689 4690
4691 4692
4693 4694
4695 4696
4697 4698
4699 4700
4701 4702
4703 4704
4705 4706
4707 4708
4709 4710
4711 4712
4713 4714
4715 4716
4717 4718
4719 4720
4721 4722
4723 4724
4725 4726
4727 4728
4729 4730
4731 4732
4733 4734
4735 4736
4737 4738
4739 4740
4741 4742
4743 4744
4745 4746
4747 4748
4749 4750
4751 4752
4753 4754
4755 4756
4757 4758
4759 4760
4761 4762
4763 4764
4765 4766
4767 4768
4769 4770
4771 4772
4773 4774
4775 4776
4777 4778
4779 4780
4781 4782
4783 4784
4785 4786
4787 4788
4789 4790
4791 4792
4793 4794
4795 4796
4797 4798
4799 4800
4801 4802
4803 4804
4805 4806
4807 4808
4809 4810
4811 4812
4813 4814
4815 4816
4817 4818
4819 4820
4821 4822
4823 4824
4825 4826
4827 4828
4829 4830
4831 4832
4833 4834
4835 4836
4837 4838
4839 4840
4841 4842
4843 4844
4845 4846
4847 4848
4849 4850
4851 4852
4853 4854
4855 4856
4857 4858
4859 4860
4861 4862
4863 4864
4865 4866
4867 4868
4869 4870
4871 4872
4873 4874
4875 4876
4877 4878
4879 4880
4881 4882
4883 4884
4885 4886
4887 4888
4889 4890
4891 4892
4893 4894
4895 4896
4897 4898
4899 4900
4901 4902
4903 4904
4905 4906
4907 4908
4909 4910
4911 4912
4913 4914
4915 4916
4917 4918
4919 4920
4921 4922
4923 4924
4925 4926
4927 4928
4929 4930
4931 4932
4933 4934
4935 4936
4937 4938
4939 4940
4941 4942
4943 4944
4945 4946
4947 4948
4949 4950
4951 4952
4953 4954
4955 4956
4957 4958
4959 4960
4961 4962
4963 4964
4965 4966
4967 4968
4969 4970
4971 4972
4973 4974
4975 4976
4977 4978
4979 4980
4981 4982
4983 4984
4985 4986
4987 4988
4989 4990
4991 4992
4993 4994
4995 4996
4997 4998
4999 5000
5001 5002
5003 5004
5005 5006
5007 5008
5009 5010
5011 5012
5013 5014
5015 5016
5017 5018
5019 5020
5021 5022
5023 5024
5025 5026
5027 5028
5029 5030
5031 5032
5033 5034
5035 5036
5037 5038
5039 5040
5041 5042
5043 5044
5045 5046
5047 5048
5049 5050
5051 5052
5053 5054
5055 5056
5057 5058
5059 5060
5061 5062
5063 5064
5065 5066
5067 5068
5069 5070
5071 5072
5073 5074
5075 5076
5077 5078
5079 5080
5081 5082
5083 5084
5085 5086
5087 5088
5089 5090
5091 5092
5093 5094
5095 5096
5097 5098
5099 5100
5101 5102
5103 5104
5105 5106
5107 5108
5109 5110
5111 5112
5113 5114
5115 5116
5117 5118
5119 5120
5121 5122
5123 5124
5125 5126
5127 5128
5129 5130
5131 5132
5133 5134
5135 5136
5137 5138
5139 5140
5141 5142
5143 5144
5145 5146
5147 5148
5149 5150
5151 5152
5153 5154
5155 5156
5157 5158
5159 5160
5161 5162
5163 5164
5165 5166
5167 5168
5169 5170
5171 5172
5173 5174
5175 5176
5177 5178
5179 5180
5181 5182
5183 5184
5185 5186
5187 5188
5189 5190
5191 5192
5193 5194
5195 5196
5197 5198
5199 5200
5201 5202
5203 5204
5205 5206
5207 5208
5209 5210
5211 5212
5213 5214
5215 5216
5217 5218
5219 5220
5221 5222
5223 5224
5225 5226
5227 5228
5229 5230
5231 5232
5233 5234
5235 5236
5237 5238
5239 5240
5241 5242
5243 5244
5245 5246
5247 5248
5249 5250
5251 5252
5253 5254
5255 5256
5257 5258
5259 5260
5261 5262
5263 5264
5265 5266
5267 5268
5269 5270
5271 5272
5273 5274
5275 5276
5277 5278
5279 5280
5281 5282
5283 5284
5285 5286
5287 5288
5289 5290
5291 5292
5293 5294
5295 5296
5297 5298
5299 5300
5301 5302
5303 5304
5305 5306
5307 5308
5309 5310
5311 5312
5313 5314
5315 5316
5317 5318
5319 5320
5321 5322
5323 5324
5325 5326
5327 5328
5329 5330
5331 5332
5333 5334
5335 5336
5337 5338
5339 5340
5341 5342
5343 5344
5345 5346
5347 5348
5349 5350
5351 5352
5353 5354
5355 5356
5357 5358
5359 5360
5361 5362
5363 5364
5365 5366
5367 5368
5369 5370
5371 5372
5373 5374
5375 5376
5377 5378
5379 5380
5381 5382
5383 5384
5385 5386
5387 5388
5389 5390
5391 5392
5393 5394
5395 5396
5397 5398
5399 5400
5401 5402
5403 5404
5405 5406
5407 5408
5409 5410
5411 5412
5413 5414
5415 5416
5417 5418
5419 5420
5421 5422
5423 5424
5425 5426
5427 5428
5429 5430
5431 5432
5433 5434
5435 5436
5437 5438
5439 5440
5441 5442
5443 5444
5445 5446
5447 5448
5449 5450
5451 5452
5453 5454
5455 5456
5457 5458
5459 5460
5461 5462
5463 5464
5465 5466
5467 5468
5469 5470
5471 5472
5473 5474
5475 5476
5477 5478
5479 5480
5481 5482
5483 5484
5485 5486
5487 5488
5489 5490
5491 5492
5493 5494
5495 5496
5497 5498
5499 5500
5501 5502
5503 5504
5505 5506
5507 5508
5509 5510
5511 5512
5513 5514
5515 5516
5517 5518
5519 5520
5521 5522
5523 5524
5525 5526
5527 5528
5529 5530
5531 5532
5533 5534
5535 5536
5537 5538
5539 5540
5541 5542
5543 5544
5545 5546
5547 5548
5549 5550
5551 5552
5553 5554
5555 5556
5557 5558
5559 5560
5561 5562
5563 5564
5565 5566
5567 5568
5569 5570
5571 5572
5573 5574
5575 5576
5577 5578
5579 5580
5581 5582
5583 5584
5585 5586
5587 5588
5589 5590
5591 5592
5593 5594
5595 5596
5597 5598
5599 5600
5601 5602
5603 5604
5605 5606
5607 5608
5609 5610
5611 5612
5613 5614
5615 5616
5617 5618
5619 5620
5621 5622
5623 5624
5625 5626
5627 5628
5629 5630
5631 5632
5633 5634
5635 5636
5637 5638
5639 5640
5641 5642
5643 5644
5645 5646
5647 5648
5649 5650
5651 5652
5653 5654
5655 5656
5657 5658
5659 5660
5661 5662
5663 5664
5665 5666
5667 5668
5669 5670
5671 5672
5673 5674
5675 5676
5677 5678
5679 5680
5681 5682
5683 5684
5685 5686
5687 5688
5689 5690
5691 5692
5693 5694
5695 5696
5697 5698
5699 5700
5701 5702
5703 5704
5705 5706
5707 5708
5709 5710
5711 5712
5713 5714
5715 5716
5717 5718
5719 5720
5721 5722
5723 5724
5725 5726
5727 5728
5729 5730
5731 5732
5733 5734
5735 5736
5737 5738
5739 5740
5741 5742
5743 5744
5745 5746
5747 5748
5749 5750
5751 5752
5753 5754
5755 5756
5757 5758
5759 5760
5761 5762
5763 5764
5765 5766
5767 5768
5769 5770
5771 5772
5773 5774
5775 5776
5777 5778
5779 5780
5781 5782
5783 5784
5785 5786
5787 5788
5789 5790
5791 5792
5793 5794
5795 5796
5797 5798
5799 5800
5801 5802
5803 5804
5805 5806
5807 5808
5809 5810
5811 5812
5813 5814
5815 5816
5817 5818
5819 5820
5821 5822
5823 5824
5825 5826
5827 5828
5829 5830
5831 5832
5833 5834
5835 5836
5837 5838
5839 5840
5841 5842
5843 5844
5845 5846
5847 5848
5849 5850
5851 5852
5853 5854
5855 5856
5857 5858
5859 5860
5861 5862
5863 5864
5865 5866
5867 5868
5869 5870
5871 5872
5873 5874
5875 5876
5877 5878
5879 5880
5881 5882
5883 5884
5885 5886
5887 5888
5889 5890
5891 5892
5893 5894
5895 5896
5897 5898
5899 5900
5901 5902
5903 5904
5905 5906
5907 5908
5909 5910
5911 5912
5913 5914
5915 5916
5917 5918
5919 5920
5921 5922
5923 5924
5925 5926
5927 5928
5929 5930
5931 5932
5933 5934
5935 5936
5937 5938
5939 5940
5941 5942
5943 5944
5945 5946
5947 5948
5949 5950
5951 5952
5953 5954
5955 5956
5957 5958
5959 5960
5961 5962
5963 5964
5965 5966
5967 5968
5969 5970
5971 5972
5973 5974
5975 5976
5977 5978
5979 5980
5981 5982
5983 5984
5985 5986
5987 5988
5989 5990
5991 5992
5993 5994
5995 5996
5997 5998
5999 6000
6001 6002
6003 6004
6005 6006
6007 6008
6009 6010
6011 6012
6013 6014
6015 6016
6017 6018
6019 6020
6021 6022
6023 6024
6025 6026
6027 6028
6029 6030
6031 6032
6033 6034
6035 6036
6037 6038
6039 6040
6041 6042
6043 6044
6045 6046
6047 6048
6049 6050
6051 6052
6053 6054
6055 6056
6057 6058
6059 6060
6061 6062
6063 6064
6065 6066
6067 6068
6069 6070
6071 6072
6073 6074
6075 6076
6077 6078
6079 6080
6081 6082
6083 6084
6085 6086
6087 6088
6089 6090
6091 6092
6093 6094
6095 6096
6097 6098
6099 6100
6101 6102
6103 6104
6105 6106
6107 6108
6109 6110
6111 6112
6113 6114
6115 6116
6117 6118
6119 6120
6121 6122
6123 6124
6125 6126
6127 6128
6129 6130
6131 6132
6133 6134
6135 6136
6137 6138
6139 6140
6141 6142
6143 6144
6145 6146
6147 6148
6149 6150
6151 6152
6153 6154
6155 6156
6157 6158
6159 6160
6161 6162
6163 6164
6165 6166
6167 6168
6169 6170
6171 6172
6173 6174
6175 6176
6177 6178
6179 6180
6181 6182
6183 6184
6185 6186
6187 6188
6189 6190
6191 6192
6193 6194
6195 6196
6197 6198
6199 6200
6201 6202
6203 6204
6205 6206
6207 6208
6209 6210
6211 6212
6213 6214
6215 6216
6217 6218
6219 6220
6221 6222
6223 6224
6225 6226
6227 6228
6229 6230
6231 6232
6233 6234
6235 6236
6237 6238
6239 6240
6241 6242
6243 6244
6245 6246
6247 6248
6249 6250
6251 6252
6253 6254
6255 6256
6257 6258
6259 6260
6261 6262
6263 6264
6265 6266
6267 6268
6269 6270
6271 6272
6273 6274
6275 6276
6277 6278
6279 6280
6281 6282
6283 6284
6285 6286
6287 6288
6289 6290
6291 6292
6293 6294
6295 6296
6297 6298
6299 6300
6301 6302
6303 6304
6305 6306
6307 6308
6309 6310
6311 6312
6313 6314
6315 6316
6317 6318
6319 6320
6321 6322
6323 6324
6325 6326
6327 6328
6329 6330
6331 6332
6333 6334
6335 6336
6337 6338
6339 6340
6341 6342
6343 6344
6345 6346
6347 6348
6349 6350
6351 6352
6353 6354
6355 6356
6357 6358
6359 6360
6361 6362
6363 6364
6365 6366
6367 6368
6369 6370
6371 6372
6373 6374
6375 6376
6377 6378
6379 6380
6381 6382
6383 6384
6385 6386
6387 6388
6389 6390
6391 6392
6393 6394
6395 6396
6397 6398
6399 6400
6401 6402
6403 6404
6405 6406
6407 6408
6409 6410
6411 6412
6413 6414
6415 6416
6417 6418
6419 6420
6421 6422
6423 6424
6425 6426
6427 6428
6429 6430
6431 6432
6433 6434
6435 6436
6437 6438
6439 6440
6441 6442
6443 6444
6445 6446
6447 6448
6449 6450
6451 6452
6453 6454
6455 6456
6457 6458
6459 6460
6461 6462
6463 6464
6465 6466
6467 6468
6469 6470
6471 6472
6473 6474
6475 6476
6477 6478
6479 6480
6481 6482
6483 6484
6485 6486
6487 6488
6489 6490
6491 6492
6493 6494
6495 6496
6497 6498
6499 6500
6501 6502
6503 6504
6505 6506
6507 6508
6509 6510
6511 6512
6513 6514
6515 6516
6517 6518
6519 6520
6521 6522
6523 6524
6525 6526
6527 6528
6529 6530
6531 6532
6533 6534
6535 6536
6537 6538
6539 6540
6541 6542
6543 6544
6545 6546
6547 6548
6549 6550
6551 6552
6553 6554
6555 6556
6557 6558
6559 6560
6561 6562
6563 6564
6565 6566
6567 6568
6569 6570
6571 6572
6573 6574
6575 6576
6577 6578
6579 6580
6581 6582
6583 6584
6585 6586
6587 6588
6589 6590
6591 6592
6593 6594
6595 6596
6597 6598
6599 6600
6601 6602
6603 6604
6605 6606
6607 6608
6609 6610
6611 6612
6613 6614
6615 6616
6617 6618
6619 6620
6621 6622
6623 6624
6625 6626
6627 6628
6629 6630
6631 6632
6633 6634
6635 6636
6637 6638
6639 6640
6641 6642
6643 6644
6645 6646
6647 6648
6649 6650
6651 6652
6653 6654
6655 6656
6657 6658
6659 6660
6661 6662
6663 6664
6665 6666
6667 6668
6669 6670
6671 6672
6673 6674
6675 6676
6677 6678
6679 6680
6681 6682
6683 6684
6685 6686
6687 6688
6689 6690
6691 6692
6693 6694
6695 6696
6697 6698
6699 6700
6701 6702
6703 6704
6705 6706
6707 6708
6709 6710
6711 6712
6713 6714
6715 6716
6717 6718
6719 6720
6721 6722
6723 6724
6725 6726
6727 6728
6729 6730
6731 6732
6733 6734
6735 6736
6737 6738
6739 6740
6741 6742
6743 6744
6745 6746
6747 6748
6749 6750
6751 6752
6753 6754
6755 6756
6757 6758
6759 6760
6761 6762
6763 6764
6765 6766
6767 6768
6769 6770
6771 6772
6773 6774
6775 6776
6777 6778
6779 6780
6781 6782
6783 6784
6785 6786
6787 6788
6789 6790
6791 6792
6793 6794
6795 6796
6797 6798
6799 6800
6801 6802
6803 6804
6805 6806
6807 6808
6809 6810
6811 6812
6813 6814
6815 6816
6817 6818
6819 6820
6821 6822
6823 6824
6825 6826
6827 6828
6829 6830
6831 6832
6833 6834
6835 6836
6837 6838
6839 6840
6841 6842
6843 6844
6845 6846
6847 6848
6849 6850
6851 6852
6853 6854
6855 6856
6857 6858
6859 6860
6861 6862
6863 6864
6865 6866
6867 6868
6869 6870
6871 6872
6873 6874
6875 6876
6877 6878
6879 6880
6881 6882
6883 6884
6885 6886
6887 6888
6889 6890
6891 6892
6893 6894
6895 6896
6897 6898
6899 6900
6901 6902
6903 6904
6905 6906
6907 6908
6909 6910
6911 6912
6913 6914
6915 6916
6917 6918
6919 6920
6921 6922
6923 6924
6925 6926
6927 6928
6929 6930
6931 6932
6933 6934
6935 6936
6937 6938
6939 6940
6941 6942
6943 6944
6945 6946
6947 6948
6949 6950
6951 6952
6953 6954
6955 6956
6957 6958
6959 6960
6961 6962
6963 6964
6965 6966
6967 6968
6969 6970
6971 6972
6973 6974
6975 6976
6977 6978
6979 6980
6981 6982
6983 6984
6985 6986
6987 6988
6989 6990
6991 6992
6993 6994
6995 6996
6997 6998
6999 7000
7001 7002
7003 7004
7005 7006
7007 7008
7009 7010
7011 7012
7013 7014
7015 7016
7017 7018
7019 7020
7021 7022
7023 7024
7025 7026
7027 7028
7029 7030
7031 7032
7033 7034
7035 7036
7037 7038
7039 7040
7041 7042
7043 7044
7045 7046
7047 7048
7049 7050
7051 7052
7053 7054
7055 7056
7057 7058
7059 7060
7061 7062
7063 7064
7065 7066
7067 7068
7069 7070
7071 7072
7073 7074
7075 7076
7077 7078
7079 7080
7081 7082
7083 7084
7085 7086
7087 7088
7089 7090
7091 7092
7093 7094
7095 7096
7097 7098
7099 7100
7101 7102
7103 7104
7105 7106
7107 7108
7109 7110
7111 7112
7113 7114
7115 7116
7117 7118
7119 7120
7121 7122
7123 7124
7125 7126
7127 7128
7129 7130
7131 7132
7133 7134
7135 7136
7137 7138
7139 7140
7141 7142
7143 7144
7145 7146
7147 7148
7149 7150
7151 7152
7153 7154
7155 7156
7157 7158
7159 7160
7161 7162
7163 7164
7165 7166
7167 7168
7169 7170
7171 7172
7173 7174
7175 7176
7177 7178
7179 7180
7181 7182
7183 7184
7185 7186
7187 7188
7189 7190
7191 7192
7193 7194
7195 7196
7197 7198
7199 7200
7201 7202
7203 7204
7205 7206
7207 7208
7209 7210
7211 7212
7213 7214
7215 7216
7217 7218
7219 7220
7221 7222
7223 7224
7225 7226
7227 7228
7229 7230
7231 7232
7233 7234
7235 7236
7237 7238
7239 7240
7241 7242
7243 7244
7245 7246
7247 7248
7249 7250
7251 7252
7253 7254
7255 7256
7257 7258
7259 7260
7261 7262
7263 7264
7265 7266
7267 7268
7269 7270
7271 7272
7273 7274
7275 7276
7277 7278
7279 7280
7281 7282
7283 7284
7285 7286
7287 7288
7289 7290
7291 7292
7293 7294
7295 7296
7297 7298
7299 7300
7301 7302
7303 7304
7305 7306
7307 7308
7309 7310
7311 7312
7313 7314
7315 7316
7317 7318
7319 7320
7321 7322
7323 7324
7325 7326
7327 7328
7329 7330
7331 7332
7333 7334
7335 7336
7337 7338
7339 7340
7341 7342
7343 7344
7345 7346
7347 7348
7349 7350
7351 7352
7353 7354
7355 7356
7357 7358
7359 7360
7361 7362
7363 7364
7365 7366
7367 7368
7369 7370
7371 7372
7373 7374
7375 7376
7377 7378
7379 7380
7381 7382
7383 7384
7385 7386
7387 7388
7389 7390
7391 7392
7393 7394
7395 7396
7397 7398
7399 7400
7401 7402
7403 7404
7405 7406
7407 7408
7409 7410
7411 7412
7413 7414
7415 7416
7417 7418
7419 7420
7421 7422
7423 7424
7425 7426
7427 7428
7429 7430
7431 7432
7433 7434
7435 7436
7437 7438
7439 7440
7441 7442
7443 7444
7445 7446
7447 7448
7449 7450
7451 7452
7453 7454
7455 7456
7457 7458
7459 7460
7461 7462
7463 7464
7465 7466
7467 7468
7469 7470
7471 7472
7473 7474
7475 7476
7477 7478
7479 7480
7481 7482
7483 7484
7485 7486
7487 7488
7489 7490
7491 7492
7493 7494
7495 7496
7497 7498
7499 7500
7501 7502
7503 7504
7505 7506
7507 7508
7509 7510
7511 7512
7513 7514
7515 7516
7517 7518
7519 7520
7521 7522
7523 7524
7525 7526
7527 7528
7529 7530
7531 7532
7533 7534
7535 7536
7537 7538
7539 7540
7541 7542
7543 7544
7545 7546
7547 7548
7549 7550
7551 7552
7553 7554
7555 7556
7557 7558
7559 7560
7561 7562
7563 7564
7565 7566
7567 7568
7569 7570
7571 7572
7573 7574
7575 7576
7577 7578
7579 7580
7581 7582
7583 7584
7585 7586
7587 7588
7589 7590
7591 7592
7593 7594
7595 7596
7597 7598
7599 7600
7601 7602
7603 7604
7605 7606
7607 7608
7609 7610
7611 7612
7613 7614
7615 7616
7617 7618
7619 7620
7621 7622
7623 7624
7625 7626
7627 7628
7629 7630
7631 7632
7633 7634
7635 7636
7637 7638
7639 7640
7641 7642
7643 7644
7645 7646
7647 7648
7649 7650
7651 7652
7653 7654
7655 7656
7657 7658
7659 7660
7661 7662
7663 7664
7665 7666
7667 7668
7669 7670
7671 7672
7673 7674
7675 7676
7677 7678
7679 7680
7681 7682
7683 7684
7685 7686
7687 7688
7689 7690
7691 7692
7693 7694
7695 7696
7697 7698
7699 7700
7701 7702
7703 7704
7705 7706
7707 7708
7709 7710
7711 7712
7713 7714
7715 7716
7717 7718
7719 7720
7721 7722
7723 7724
7725 7726
7727 7728
7729 7730
7731 7732
7733 7734
7735 7736
7737 7738
7739 7740
7741 7742
7743 7744
7745 7746
7747 7748
7749 7750
7751 7752
7753 7754
7755 7756
7757 7758
7759 7760
7761 7762
7763 7764
7765 7766
7767 7768
7769 7770
7771 7772
7773 7774
7775 7776
7777 7778
7779 7780
7781 7782
7783 7784
7785 7786
7787 7788
7789 7790
7791 7792
7793 7794
7795 7796
7797 7798
7799 7800
7801 7802
7803 7804
7805 7806
7807 7808
7809 7810
7811 7812
7813 7814
7815 7816
7817 7818
7819 7820
7821 7822
7823 7824
7825 7826
7827 7828
7829 7830
7831 7832
7833 7834
7835 7836
7837 7838
7839 7840
7841 7842
7843 7844
7845 7846
7847 7848
7849 7850
7851 7852
7853 7854
7855 7856
7857 7858
7859 7860
7861 7862
7863 7864
7865 7866
7867 7868
7869 7870
7871 7872
7873 7874
7875 7876
7877 7878
7879 7880
7881 7882
7883 7884
7885 7886
7887 7888
7889 7890
7891 7892
7893 7894
7895 7896
7897 7898
7899 7900
7901 7902
7903 7904
7905 7906
7907 7908
7909 7910
7911 7912
7913 7914
7915 7916
7917 7918
7919 7920
7921 7922
7923 7924
7925 7926
7927 7928
7929 7930
7931 7932
7933 7934
7935 7936
7937 7938
7939 7940
7941 7942
7943 7944
7945 7946
7947 7948
7949 7950
7951 7952
7953 7954
7955 7956
7957 7958
7959 7960
7961 7962
7963 7964
7965 7966
7967 7968
7969 7970
7971 7972
7973 7974
7975 7976
7977 7978
7979 7980
7981 7982
7983 7984
7985 7986
7987 7988
7989 7990
7991 7992
7993 7994
7995 7996
7997 7998
7999 8000
8001 8002
8003 8004
8005 8006
8007 8008
8009 8010
8011 8012
8013 8014
8015 8016
8017 8018
8019 8020
8021 8022
8023 8024
8025 8026
8027 8028
8029 8030
8031 8032
8033 8034
8035 8036
8037 8038
8039 8040
8041 8042
8043 8044
8045 8046
8047 8048
8049 8050
8051 8052
8053 8054
8055 8056
8057 8058
8059 8060
8061 8062
8063 8064
8065 8066
8067 8068
8069 8070
8071 8072
8073 8074
8075 8076
8077 8078
8079 8080
8081 8082
8083 8084
8085 8086
8087 8088
8089 8090
8091 8092
8093 8094
8095 8096
8097 8098
8099 8100
8101 8102
8103 8104
8105 8106
8107 8108
8109 8110
8111 8112
8113 8114
8115 8116
8117 8118
8119 8120
8121 8122
8123 8124
8125 8126
8127 8128
8129 8130
8131 8132
8133 8134
8135 8136
8137 8138
8139 8140
8141 8142
8143 8144
8145 8146
8147 8148
8149 8150
8151 8152
8153 8154
8155 8156
8157 8158
8159 8160
8161 8162
8163 8164
8165 8166
8167 8168
8169 8170
8171 8172
8173 8174
8175 8176
8177 8178
8179 8180
8181 8182
8183 8184
8185 8186
8187 8188
8189 8190
8191 8192
8193 8194
8195 8196
8197 8198
8199 8200
8201 8202
8203 8204
8205 8206
8207 8208
8209 8210
8211 8212
8213 8214
8215 8216
8217 8218
8219 8220
8221 8222
8223 8224
8225 8226
8227 8228
8229 8230
8231 8232
8233 8234
8235 8236
8237 8238
8239 8240
8241 8242
8243 8244
8245 8246
8247 8248
8249 8250
8251 8252
8253 8254
8255 8256
8257 8258
8259 8260
8261 8262
8263 8264
8265 8266
8267 8268
8269 8270
8271 8272
8273 8274
8275 8276
8277 8278
8279 8280
8281 8282
8283 8284
8285 8286
8287 8288
8289 8290
8291 8292
8293 8294
8295 8296
8297 8298
8299 8300
8301 8302
8303 8304
8305 8306
8307 8308
8309 8310
8311 8312
8313 8314
8315 8316
8317 8318
8319 8320
8321 8322
8323 8324
8325 8326
8327 8328
8329 8330
8331 8332
8333 8334
8335 8336
8337 8338
8339 8340
8341 8342
8343 8344
8345 8346
8347 8348
8349 8350
8351 8352
8353 8354
8355 8356
8357 8358
8359 8360
8361 8362
8363 8364
8365 8366
8367 8368
8369 8370
8371 8372
8373 8374
8375 8376
8377 8378
8379 8380
8381 8382
8383 8384
8385 8386
8387 8388
8389 8390
8391 8392
8393 8394
8395 8396
8397 8398
8399 8400
8401 8402
8403 8404
8405 8406
8407 8408
8409 8410
8411 8412
8413 8414
8415 8416
8417 8418
8419 8420
8421 8422
8423 8424
8425 8426
8427 8428
8429 8430
8431 8432
8433 8434
8435 8436
8437 8438
8439 8440
8441 8442
8443 8444
8445 8446
8447 8448
8449 8450
8451 8452
8453 8454
8455 8456
8457 8458
8459 8460
8461 8462
8463 8464
8465 8466
8467 8468
8469 8470
8471 8472
8473 8474
8475 8476
8477 8478
8479 8480
8481 8482
8483 8484
8485 8486
8487 8488
8489 8490
8491 8492
8493 8494
8495 8496
8497 8498
8499 8500
8501 8502
8503 8504
8505 8506
8507 8508
8509 8510
8511 8512
8513 8514
8515 8516
8517 8518
8519 8520
8521 8522
8523 8524
8525 8526
8527 8528
8529 8530
8531 8532
8533 8534
8535 8536
8537 8538
8539 8540
8541 8542
8543 8544
8545 8546
8547 8548
8549 8550
8551 8552
8553 8554
8555 8556
8557 8558
8559 8560
8561 8562
8563 8564
8565 8566
8567 8568
8569 8570
8571 8572
8573 8574
8575 8576
8577 8578
8579 8580
8581 8582
8583 8584
8585 8586
8587 8588
8589 8590
8591 8592
8593 8594
8595 8596
8597 8598
8599 8600
8601 8602
8603 8604
8605 8606
8607 8608
8609 8610
8611 8612
8613 8614
8615 8616
8617 8618
8619 8620
8621 8622
8623 8624
8625 8626
8627 8628
8629 8630
8631 8632
8633 8634
8635 8636
8637 8638
8639 8640
8641 8642
8643 8644
8645 8646
8647 8648
8649 8650
8651 8652
8653 8654
8655 8656
8657 8658
8659 8660
8661 8662
8663 8664
8665 8666
8667 8668
8669 8670
8671 8672
8673 8674
8675 8676
8677 8678
8679 8680
8681 8682
8683 8684
8685 8686
8687 8688
8689 8690
8691 8692
8693 8694
8695 8696
8697 8698
8699 8700
8701 8702
8703 8704
8705 8706
8707 8708
8709 8710
8711 8712
8713 8714
8715 8716
8717 8718
8719 8720
8721 8722
8723 8724
8725 8726
8727 8728
8729 8730
8731 8732
8733 8734
8735 8736
8737 8738
8739 8740
8741 8742
8743 8744
8745 8746
8747 8748
8749 8750
8751 8752
8753 8754
8755 8756
8757 8758
8759 8760
8761 8762
8763 8764
8765 8766
8767 8768
8769 8770
8771 8772
8773 8774
8775 8776
8777 8778
8779 8780
8781 8782
8783 8784
8785 8786
8787 8788
8789 8790
8791 8792
8793 8794
8795 8796
8797 8798
8799 8800
8801 8802
8803 8804
8805 8806
8807 8808
8809 8810
8811 8812
8813 8814
8815 8816
8817 8818
8819 8820
8821 8822
8823 8824
8825 8826
8827 8828
8829 8830
8831 8832
8833 8834
8835 8836
8837 8838
8839 8840
8841 8842
8843 8844
8845 8846
8847 8848
8849 8850
8851 8852
8853 8854
8855 8856
8857 8858
8859 8860
8861 8862
8863 8864
8865 8866
8867 8868
8869 8870
8871 8872
8873 8874
8875 8876
8877 8878
8879 8880
8881 8882
8883 8884
8885 8886
8887 8888
8889 8890
8891 8892
8893 8894
8895 8896
8897 8898
8899 8900
8901 8902
8903 8904
8905 8906
8907 8908
8909 8910
8911 8912
8913 8914
8915 8916
8917 8918
8919 8920
8921 8922
8923 8924
8925 8926
8927 8928
8929 8930
8931 8932
8933 8934
8935 8936
8937 8938
8939 8940
8941 8942
8943 8944
8945 8946
8947 8948
8949 8950
8951 8952
8953 8954
8955 8956
8957 8958
8959 8960
8961 8962
8963 8964
8965 8966
8967 8968
8969 8970
8971 8972
8973 8974
8975 8976
8977 8978
8979 8980
8981 8982
8983 8984
8985 8986
8987 8988
8989 8990
8991 8992
8993 8994
8995 8996
8997 8998
8999 9000
9001 9002
9003 9004
9005 9006
9007 9008
9009 9010
9011 9012
9013 9014
9015 9016
9017 9018
9019 9020
9021 9022
9023 9024
9025 9026
9027 9028
9029 9030
9031 9032
9033 9034
9035 9036
9037 9038
9039 9040
9041 9042
9043 9044
9045 9046
9047 9048
9049 9050
9051 9052
9053 9054
9055 9056
9057 9058
9059 9060
9061 9062
9063 9064
9065 9066
9067 9068
9069 9070
9071 9072
9073 9074
9075 9076
9077 9078
9079 9080
9081 9082
9083 9084
9085 9086
9087 9088
9089 9090
9091 9092
9093 9094
9095 9096
9097 9098
9099 9100
9101 9102
9103 9104
9105 9106
9107 9108
9109 9110
9111 9112
9113 9114
9115 9116
9117 9118
9119 9120
9121 9122
9123 9124
9125 9126
9127 9128
9129 9130
9131 9132
9133 9134
9135 9136
9137 9138
9139 9140
9141 9142
9143 9144
9145 9146
9147 9148
9149 9150
9151 9152
9153 9154
9155 9156
9157 9158
9159 9160
9161 9162
9163 9164
9165 9166
9167 9168
9169 9170
9171 9172
9173 9174
9175 9176
9177 9178
9179 9180
9181 9182
9183 9184
9185 9186
9187 9188
9189 9190
9191 9192
9193 9194
9195 9196
9197 9198
9199 9200
9201 9202
9203 9204
9205 9206
9207 9208
9209 9210
9211 9212
9213 9214
9215 9216
9217 9218
9219 9220
9221 9222
9223 9224
9225 9226
9227 9228
9229 9230
9231 9232
9233 9234
9235 9236
9237 9238
9239 9240
9241 9242
9243 9244
9245 9246
9247 9248
9249 9250
9251 9252
9253 9254
9255 9256
9257 9258
9259 9260
9261 9262
9263 9264
9265 9266
9267 9268
9269 9270
9271 9272
9273 9274
9275 9276
9277 9278
9279 9280
9281 9282
9283 9284
9285 9286
9287 9288
9289 9290
9291 9292
9293 9294
9295 9296
9297 9298
9299 9300
9301 9302
9303 9304
9305 9306
9307 9308
9309 9310
9311 9312
9313 9314
9315 9316
9317 9318
9319 9320
9321 9322
9323 9324
9325 9326
9327 9328
9329 9330
9331 9332
9333 9334
9335 9336
9337 9338
9339 9340
9341 9342
9343 9344
9345 9346
9347 9348
9349 9350
9351 9352
9353 9354
9355 9356
9357 9358
9359 9360
9361 9362
9363 9364
9365 9366
9367 9368
9369 9370
9371 9372
9373 9374
9375 9376
9377 9378
9379 9380
9381 9382
9383 9384
9385 9386
9387 9388
9389 9390
9391 9392
9393 9394
9395 9396
9397 9398
9399 9400
9401 9402
9403 9404
9405 9406
9407 9408
9409 9410
9411 9412
9413 9414
9415 9416
9417 9418
9419 9420
9421 9422
9423 9424
9425 9426
9427 9428
9429 9430
9431 9432
9433 9434
9435 9436
9437 9438
9439 9440
9441 9442
9443 9444
9445 9446
9447 9448
9449 9450
9451 9452
9453 9454
9455 9456
9457 9458
9459 9460
9461 9462
9463 9464
9465 9466
9467 9468
9469 9470
9471 9472
9473 9474
9475 9476
9477 9478
9479 9480
9481 9482
9483 9484
9485 9486
9487 9488
9489 9490
9491 9492
9493 9494
9495 9496
9497 9498
9499 9500
9501 9502
9503 9504
9505 9506
9507 9508
9509 9510
9511 9512
9513 9514
9515 9516
9517 9518
9519 9520
9521 9522
9523 9524
9525 9526
9527 9528
9529 9530
9531 9532
9533 9534
9535 9536
9537 9538
9539 9540
9541 9542
9543 9544
9545 9546
9547 9548
9549 9550
9551 9552
9553 9554
9555 9556
9557 9558
9559 9560
9561 9562
9563 9564
9565 9566
9567 9568
9569 9570
9571 9572
9573 9574
9575 9576
9577 9578
9579 9580
9581 9582
9583 9584
9585 9586
9587 9588
9589 9590
9591 9592
9593 9594
9595 9596
9597 9598
9599 9600
9601 9602
9603 9604
9605 9606
9607 9608
9609 9610
9611 9612
9613 9614
9615 9616
9617 9618
9619 9620
9621 9622
9623 9624
9625 9626
9627 9628
9629 9630
9631 9632
9633 9634
9635 9636
9637 9638
9639 9640
9641 9642
9643 9644
9645 9646
9647 9648
9649 9650
9651 9652
9653 9654
9655 9656
9657 9658
9659 9660
9661 9662
9663 9664
9665 9666
9667 9668
9669 9670
9671 9672
9673 9674
9675 9676
9677 9678
9679 9680
9681 9682
9683 9684
9685 9686
9687 9688
9689 9690
9691 9692
9693 9694
9695 9696
9697 9698
9699 9700
9701 9702
9703 9704
9705 9706
9707 9708
9709 9710
9711 9712
9713 9714
9715 9716
9717 9718
9719 9720
9721 9722
9723 9724
9725 9726
9727 9728
9729 9730
9731 9732
9733 9734
9735 9736
9737 9738
9739 9740
9741 9742
9743 9744
9745 9746
9747 9748
9749 9750
9751 9752
9753 9754
9755 9756
9757 9758
9759 9760
9761 9762
9763 9764
9765 9766
9767 9768
9769 9770
9771 9772
9773 9774
9775 9776
9777 9778
9779 9780
9781 9782
9783 9784
9785 9786
9787 9788
9789 9790
9791 9792
9793 9794
9795 9796
9797 9798
9799 9800
9801 9802
9803 9804
9805 9806
9807 9808
9809 9810
9811 9812
9813 9814
9815 9816
9817 9818
9819 9820
9821 9822
9823 9824
9825 9826
9827 9828
9829 9830
9831 9832
9833 9834
9835 9836
9837 9838
9839 9840
9841 9842
9843 9844
9845 9846
9847 9848
9849 9850
9851 9852
9853 9854
9855 9856
9857 9858
9859 9860
9861 9862
9863 9864
9865 9866
9867 9868
9869 9870
9871 9872
9873 9874
9875 9876
9877 9878
9879 9880
9881 9882
9883 9884
9885 9886
9887 9888
9889 9890
9891 9892
9893 9894
9895 9896
9897 9898
9899 9900
9901 9902
9903 9904
9905 9906
9907 9908
9909 9910
9911 9912
9913 9914
9915 9916
9917 9918
9919 9920
9921 9922
9923 9924
9925 9926
9927 9928
9929 9930
9931 9932
9933 9934
9935 9936
9937 9938
9939 9940
9941 9942
9943 9944
9945 9946
9947 9948
9949 9950
9951 9952
9953 9954
9955 9956
9957 9958
9959 9960
9961 9962
9963 9964
9965 9966
9967 9968
9969 9970
9971 9972
9973 9974
9975 9976
9977 9978
9979 9980
9981 9982
9983 9984
9985 9986
9987 9988
9989 9990
9991 9992
9993 9994
9995 9996
9997 9998
9999 10000
10001 10002
10003 10004
10005 10006
10007 10008
10009 10010
10011 10012
10013 10014
10015 10016
10017 10018
10019 10020
10021 10022
10023 10024
10025 10026
10027 10028
10029 10030
10031 10032
10033 10034
10035 10036
10037 10038
10039 10040
10041 10042
10043 10044
10045 10046
10047 10048
10049 10050
10051 10052
10053 10054
10055 10056
10057 10058
10059 10060
10061 10062
10063 10064
10065 10066
10067 10068
10069 10070
10071 10072
10073 10074
10075 10076
10077 10078
10079 10080
10081 10082
10083 10084
10085 10086
10087 10088
10089 10090
10091 10092
10093 10094
10095 10096
10097 10098
10099 10100
10101 10102
10103 10104
10105 10106
10107 10108
10109 10110
10111 10112
10113 10114
10115 10116
10117 10118
10119 10120
10121 10122
10123 10124
10125 10126
10127 10128
10129 10130
10131 10132
10133 10134
10135 10136
10137 10138
10139 10140
10141 10142
10143 10144
10145 10146
10147 10148
10149 10150
10151 10152
10153 10154
10155 10156
10157 10158
10159 10160
10161 10162
10163 10164
10165 10166
10167 10168
10169 10170
10171 10172
10173 10174
10175 10176
10177 10178
10179 10180
10181 10182
10183 10184
10185 10186
10187 10188
10189 10190
10191 10192
10193 10194
10195 10196
10197 10198
10199 10200
10201 10202
10203 10204
10205 10206
10207 10208
10209 10210
10211 10212
10213 10214
10215 10216
10217 10218
10219 10220
10221 10222
10223 10224
10225 10226
10227 10228
10229 10230
10231 10232
10233 10234
10235 10236
10237 10238
10239 10240
10241 10242
10243 10244
10245 10246
10247 10248
10249 10250
10251 10252
10253 10254
10255 10256
10257 10258
10259 10260
10261 10262
10263 10264
10265 10266
10267 10268
10269 10270
10271 10272
10273 10274
10275 10276
10277 10278
10279 10280
10281 10282
10283 10284
10285 10286
10287 10288
10289 10290
10291 10292
10293 10294
10295 10296
10297 10298
10299 10300
10301 10302
10303 10304
10305 10306
10307 10308
10309 10310
10311 10312
10313 10314
10315 10316
10317 10318
10319 10320
10321 10322
10323 10324
10325 10326
10327 10328
10329 10330
10331 10332
10333 10334
10335 10336
10337 10338
10339 10340
10341 10342
10343 10344
10345 10346
10347 10348
10349 10350
10351 10352
10353 10354
10355 10356
10357 10358
10359 10360
10361 10362
10363 10364
10365 10366
10367 10368
10369 10370
10371 10372
10373 10374
10375 10376
10377 10378
10379 10380
10381 10382
10383 10384
10385 10386
10387 10388
10389 10390
10391 10392
10393 10394
10395 10396
10397 10398
10399 10400
10401 10402
10403 10404
10405 10406
10407 10408
10409 10410
10411 10412
10413 10414
10415 10416
10417 10418
10419 10420
10421 10422
10423 10424
10425 10426
10427 10428
10429 10430
10431 10432
10433 10434
10435 10436
10437 10438
10439 10440
10441 10442
10443 10444
10445 10446
10447 10448
10449 10450
10451 10452
10453 10454
10455 10456
10457 10458
10459 10460
10461 10462
10463 10464
10465 10466
10467 10468
10469 10470
10471 10472
10473 10474
10475 10476
10477 10478
10479 10480
10481 10482
10483 10484
10485 10486
10487 10488
10489 10490
10491 10492
10493 10494
10495 10496
10497 10498
10499 10500
10501 10502
10503 10504
10505 10506
10507 10508
10509 10510
10511 10512
10513 10514
10515 10516
10517 10518
10519 10520
10521 10522
10523 10524
10525 10526
10527 10528
10529 10530
10531 10532
10533 10534
10535 10536
10537 10538
10539 10540
10541 10542
10543 10544
10545 10546
10547 10548
10549 10550
10551 10552
10553 10554
10555 10556
10557 10558
10559 10560
10561 10562
10563 10564
10565 10566
10567 10568
10569 10570
10571 10572
10573 10574
10575 10576
10577 10578
10579 10580
10581 10582
10583 10584
10585 10586
10587 10588
10589 10590
10591 10592
10593 10594
10595 10596
10597 10598
10599 10600
10601 10602
10603 10604
10605 10606
10607 10608
10609 10610
10611 10612
10613 10614
10615 10616
10617 10618
10619 10620
10621 10622
10623 10624
10625 10626
10627 10628
10629 10630
10631 10632
10633 10634
10635 10636
10637 10638
10639 10640
10641 10642
10643 10644
10645 10646
10647 10648
10649 10650
10651 10652
10653 10654
10655 10656
10657 10658
10659 10660
10661 10662
10663 10664
10665 10666
10667 10668
10669 10670
10671 10672
10673 10674
10675 10676
10677 10678
10679 10680
10681 10682
10683 10684
10685 10686
10687 10688
10689 10690
10691 10692
10693 10694
10695 10696
10697 10698
10699 10700
10701 10702
10703 10704
10705 10706
10707 10708
10709 10710
10711 10712
10713 10714
10715 10716
10717 10718
10719 10720
10721 10722
10723 10724
10725 10726
10727 10728
10729 10730
10731 10732
10733 10734
10735 10736
10737 10738
10739 10740
10741 10742
10743 10744
10745 10746
10747 10748
10749 10750
10751 10752
10753 10754
10755 10756
10757 10758
10759 10760
10761 10762
10763 10764
10765 10766
10767 10768
10769 10770
10771 10772
10773 10774
10775 10776
10777 10778
10779 10780
10781 10782
10783 10784
10785 10786
10787 10788
10789 10790
10791 10792
10793 10794
10795 10796
10797 10798
10799 10800
10801 10802
10803 10804
10805 10806
10807 10808
10809 10810
10811 10812
10813 10814
10815 10816
10817 10818
10819 10820
10821 10822
10823 10824
10825 10826
10827 10828
10829 10830
10831 10832
10833 10834
10835 10836
10837 10838
10839 10840
10841 10842
10843 10844
10845 10846
10847 10848
10849 10850
10851 10852
10853 10854
10855 10856
10857 10858
10859 10860
10861 10862
10863 10864
10865 10866
10867 10868
10869 10870
10871 10872
10873 10874
10875 10876
10877 10878
10879 10880
10881 10882
10883 10884
10885 10886
10887 10888
10889 10890
10891 10892
10893 10894
10895 10896
10897 10898
10899 10900
10901 10902
10903 10904
10905 10906
10907 10908
10909 10910
10911 10912
10913 10914
10915 10916
10917 10918
10919 10920
10921 10922
10923 10924
10925 10926
10927 10928
10929 10930
10931 10932
10933 10934
10935 10936
10937 10938
10939 10940
10941 10942
10943 10944
10945 10946
10947 10948
10949 10950
10951 10952
10953 10954
10955 10956
10957 10958
10959 10960
10961 10962
10963 10964
10965 10966
10967 10968
10969 10970
10971 10972
10973 10974
10975 10976
10977 10978
10979 10980
10981 10982
10983 10984
10985 10986
10987 10988
10989 10990
10991 10992
10993 10994
10995 10996
10997 10998
10999 11000
11001 11002
11003 11004
11005 11006
11007 11008
11009 11010
11011 11012
11013 11014
11015 11016
11017 11018
11019 11020
11021 11022
11023 11024
11025 11026
11027 11028
11029 11030
11031 11032
11033 11034
11035 11036
11037 11038
11039 11040
11041 11042
11043 11044
11045 11046
11047 11048
11049 11050
11051 11052
11053 11054
11055 11056
11057 11058
11059 11060
11061 11062
11063 11064
11065 11066
11067 11068
11069 11070
11071 11072
11073 11074
11075 11076
11077 11078
11079 11080
11081 11082
11083 11084
11085 11086
11087 11088
11089 11090
11091 11092
11093 11094
11095 11096
11097 11098
11099 11100
11101 11102
11103 11104
11105 11106
11107 11108
11109 11110
11111 11112
11113 11114
11115 11116
11117 11118
11119 11120
11121 11122
11123 11124
11125 11126
11127 11128
11129 11130
11131 11132
11133 11134
11135 11136
11137 11138
11139 11140
11141 11142
11143 11144
11145 11146
11147 11148
11149 11150
11151 11152
11153 11154
11155 11156
11157 11158
11159 11160
11161 11162
11163 11164
11165 11166
11167 11168
11169 11170
11171 11172
11173 11174
11175 11176
11177 11178
11179 11180
11181 11182
11183 11184
11185 11186
11187 11188
11189 11190
11191 11192
11193 11194
11195 11196
11197 11198
11199 11200
11201 11202
11203 11204
11205 11206
11207 11208
11209 11210
11211 11212
11213 11214
11215 11216
11217 11218
11219 11220
11221 11222
11223 11224
11225 11226
11227 11228
11229 11230
11231 11232
11233 11234
11235 11236
11237 11238
11239 11240
11241 11242
11243 11244
11245 11246
11247 11248
11249 11250
11251 11252
11253 11254
11255 11256
11257 11258
11259 11260
11261 11262
11263 11264
11265 11266
11267 11268
11269 11270
11271 11272
11273 11274
11275 11276
11277 11278
11279 11280
11281 11282
11283 11284
11285 11286
11287 11288
11289 11290
11291 11292
11293 11294
11295 11296
11297 11298
11299 11300
11301 11302
11303 11304
11305 11306
11307 11308
11309 11310
11311 11312
11313 11314
11315 11316
11317 11318
11319 11320
11321 11322
11323 11324
11325 11326
11327 11328
11329 11330
11331 11332
11333 11334
11335 11336
11337 11338
11339 11340
11341 11342
11343 11344
11345 11346
11347 11348
11349 11350
11351 11352
11353 11354
11355 11356
11357 11358
11359 11360
11361 11362
11363 11364
11365 11366
11367 11368
11369 11370
11371 11372
11373 11374
11375 11376
11377 11378
11379 11380
11381 11382
11383 11384
11385 11386
11387 11388
11389 11390
11391 11392
11393 11394
11395 11396
11397 11398
11399 11400
11401 11402
11403 11404
11405 11406
11407 11408
11409 11410
11411 11412
11413 11414
11415 11416
11417 11418
11419 11420
11421 11422
11423 11424
11425 11426
11427 11428
11429 11430
11431 11432
11433 11434
11435 11436
11437 11438
11439 11440
11441 11442
11443 11444
11445 11446
11447 11448
11449 11450
11451 11452
11453 11454
11455 11456
11457 11458
11459 11460
11461 11462
11463 11464
11465 11466
11467 11468
11469 11470
11471 11472
11473 11474
11475 11476
11477 11478
11479 11480
11481 11482
11483 11484
11485 11486
11487 11488
11489 11490
11491 11492
11493 11494
11495 11496
11497 11498
11499 11500
11501 11502
11503 11504
11505 11506
11507 11508
11509 11510
11511 11512
11513 11514
11515 11516
11517 11518
11519 11520
11521 11522
11523 11524
11525 11526
11527 11528
11529 11530
11531 11532
11533 11534
11535 11536
11537 11538
11539 11540
11541 11542
11543 11544
11545 11546
11547 11548
11549 11550
11551 11552
11553 11554
11555 11556
11557 11558
11559 11560
11561 11562
11563 11564
11565 11566
11567 11568
11569 11570
11571 11572
11573 11574
11575 11576
11577 11578
11579 11580
11581 11582
11583 11584
11585 11586
11587 11588
11589 11590
11591 11592
11593 11594
11595 11596
11597 11598
11599 11600
11601 11602
11603 11604
11605 11606
11607 11608
11609 11610
11611 11612
11613 11614
11615 11616
11617 11618
11619 11620
11621 11622
11623 11624
11625 11626
11627 11628
11629 11630
11631 11632
11633 11634
11635 11636
11637 11638
11639 11640
11641 11642
11643 11644
11645 11646
11647 11648
11649 11650
11651 11652
11653 11654
11655 11656
11657 11658
11659 11660
11661 11662
11663 11664
11665 11666
11667 11668
11669 11670
11671 11672
11673 11674
11675 11676
11677 11678
11679 11680
11681 11682
11683 11684
11685 11686
11687 11688
11689 11690
11691 11692
11693 11694
11695 11696
11697 11698
11699 11700
11701 11702
11703 11704
11705 11706
11707 11708
11709 11710
11711 11712
11713 11714
11715 11716
11717 11718
11719 11720
11721 11722
11723 11724
11725 11726
11727 11728
11729 11730
11731 11732
11733 11734
11735 11736
11737 11738
11739 11740
11741 11742
11743 11744
11745 11746
11747 11748
11749 11750
11751 11752
11753 11754
11755 11756
11757 11758
11759 11760
11761 11762
11763 11764
11765 11766
11767 11768
11769 11770
11771 11772
11773 11774
11775 11776
11777 11778
11779 11780
11781 11782
11783 11784
11785 11786
11787 11788
11789 11790
11791 11792
11793 11794
11795 11796
11797 11798
11799 11800
11801 11802
11803 11804
11805 11806
11807 11808
11809 11810
11811 11812
11813 11814
11815 11816
11817 11818
11819 11820
11821 11822
11823 11824
11825 11826
11827 11828
11829 11830
11831 11832
11833 11834
11835 11836
11837 11838
11839 11840
11841 11842
11843 11844
11845 11846
11847 11848
11849 11850
11851 11852
11853 11854
11855 11856
11857 11858
11859 11860
11861 11862
11863 11864
11865 11866
11867 11868
11869 11870
11871 11872
11873 11874
11875 11876
11877 11878
11879 11880
11881 11882
11883 11884
11885 11886
11887 11888
11889 11890
11891 11892
11893 11894
11895 11896
11897 11898
11899 11900
11901 11902
11903 11904
11905 11906
11907 11908
11909 11910
11911 11912
11913 11914
11915 11916
11917 11918
11919 11920
11921 11922
11923 11924
11925 11926
11927 11928
11929 11930
11931 11932
11933 11934
11935 11936
11937 11938
11939 11940
11941 11942
11943 11944
11945 11946
11947 11948
11949 11950
11951 11952
11953 11954
11955 11956
11957 11958
11959 11960
11961 11962
11963 11964
11965 11966
11967 11968
11969 11970
11971 11972
11973 11974
11975 11976
11977 11978
11979 11980
11981 11982
11983 11984
11985 11986
11987 11988
11989 11990
11991 11992
11993 11994
11995 11996
11997 11998
11999 12000
12001 12002
12003 12004
12005 12006
12007 12008
12009 12010
12011 12012
12013 12014
12015 12016
12017 12018
12019 12020
12021 12022
12023 12024
12025 12026
12027 12028
12029 12030
12031 12032
12033 12034
12035 12036
12037 12038
12039 12040
12041 12042
12043 12044
12045 12046
12047 12048
12049 12050
12051 12052
12053 12054
12055 12056
12057 12058
12059 12060
12061 12062
12063 12064
12065 12066
12067 12068
12069 12070
12071 12072
12073 12074
12075 12076
12077 12078
12079 12080
12081 12082
12083 12084
12085 12086
12087 12088
12089 12090
12091 12092
12093 12094
12095 12096
12097 12098
12099 12100
12101 12102
12103 12104
12105 12106
12107 12108
12109 12110
12111 12112
12113 12114
12115 12116
12117 12118
12119 12120
12121 12122
12123 12124
12125 12126
12127 12128
12129 12130
12131 12132
12133 12134
12135 12136
12137 12138
12139 12140
12141 12142
12143 12144
12145 12146
12147 12148
12149 12150
12151 12152
12153 12154
12155 12156
12157 12158
12159 12160
12161 12162
12163 12164
12165 12166
12167 12168
12169 12170
12171 12172
12173 12174
12175 12176
12177 12178
12179 12180
12181 12182
12183 12184
12185 12186
12187 12188
12189 12190
12191 12192
12193 12194
12195 12196
12197 12198
12199 12200
12201 12202
12203 12204
12205 12206
12207 12208
12209 12210
12211 12212
12213 12214
12215 12216
12217 12218
12219 12220
12221 12222
12223 12224
12225 12226
12227 12228
12229 12230
12231 12232
12233 12234
12235 12236
12237 12238
12239 12240
12241 12242
12243 12244
12245 12246
12247 12248
12249 12250
12251 12252
12253 12254
12255 12256
12257 12258
12259 12260
12261 12262
12263 12264
12265 12266
12267 12268
12269 12270
12271 12272
12273 12274
12275 12276
12277 12278
12279 12280
12281 12282
12283 12284
12285 12286
12287 12288
12289 12290
12291 12292
12293 12294
12295 12296
12297 12298
12299 12300
12301 12302
12303 12304
12305 12306
12307 12308
12309 12310
12311 12312
12313 12314
12315 12316
12317 12318
12319 12320
12321 12322
12323 12324
12325 12326
12327 12328
12329 12330
12331 12332
12333 12334
12335 12336
12337 12338
12339 12340
12341 12342
12343 12344
12345 12346
12347 12348
12349 12350
12351 12352
12353 12354
12355 12356
12357 12358
12359 12360
12361 12362
12363 12364
12365 12366
12367 12368
12369 12370
12371 12372
12373 12374
12375 12376
12377 12378
12379 12380
12381 12382
12383 12384
12385 12386
12387 12388
12389 12390
12391 12392
12393 12394
12395 12396
12397 12398
12399 12400
12401 12402
12403 12404
12405 12406
12407 12408
12409 12410
12411 12412
12413 12414
12415 12416
12417 12418
12419 12420
12421 12422
12423 12424
12425 12426
12427 12428
12429 12430
12431 12432
12433 12434
12435 12436
12437 12438
12439 12440
12441 12442
12443 12444
12445 12446
12447 12448
12449 12450
12451 12452
12453 12454
12455 12456
12457 12458
12459 12460
12461 12462
12463 12464
12465 12466
12467 12468
12469 12470
12471 12472
12473 12474
12475 12476
12477 12478
12479 12480
12481 12482
12483 12484
12485 12486
12487 12488
12489 12490
12491 12492
12493 12494
12495 12496
12497 12498
12499 12500
12501 12502
12503 12504
12505 12506
12507 12508
12509 12510
12511 12512
12513 12514
12515 12516
12517 12518
12519 12520
12521 12522
12523 12524
12525 12526
12527 12528
12529 12530
12531 12532
12533 12534
12535 12536
12537 12538
12539 12540
12541 12542
12543 12544
12545 12546
12547 12548
12549 12550
12551 12552
12553 12554
12555 12556
12557 12558
12559 12560
12561 12562
12563 12564
12565 12566
12567 12568
12569 12570
12571 12572
12573 12574
12575 12576
12577 12578
12579 12580
12581 12582
12583 12584
12585 12586
12587 12588
12589 12590
12591 12592
12593 12594
12595 12596
12597 12598
12599 12600
12601 12602
12603 12604
12605 12606
12607 12608
12609 12610
12611 12612
12613 12614
12615 12616
12617 12618
12619 12620
12621 12622
12623 12624
12625 12626
12627 12628
12629 12630
12631 12632
12633 12634
12635 12636
12637 12638
12639 12640
12641 12642
12643 12644
12645 12646
12647 12648
12649 12650
12651 12652
12653 12654
12655 12656
12657 12658
12659 12660
12661 12662
12663 12664
12665 12666
12667 12668
12669 12670
12671 12672
12673 12674
12675 12676
12677 12678
12679 12680
12681 12682
12683 12684
12685 12686
12687 12688
12689 12690
12691 12692
12693 12694
12695 12696
12697 12698
12699 12700
12701 12702
12703 12704
12705 12706
12707 12708
12709 12710
12711 12712
12713 12714
12715 12716
12717 12718
12719 12720
12721 12722
12723 12724
12725 12726
12727 12728
12729 12730
12731 12732
12733 12734
12735 12736
12737 12738
12739 12740
12741 12742
12743 12744
12745 12746
12747 12748
12749 12750
12751 12752
12753 12754
12755 12756
12757 12758
12759 12760
12761 12762
12763 12764
12765 12766
12767 12768
12769 12770
12771 12772
12773 12774
12775 12776
12777 12778
12779 12780
12781 12782
12783 12784
12785 12786
12787 12788
12789 12790
12791 12792
12793 12794
12795 12796
12797 12798
12799 12800
12801 12802
12803 12804
12805 12806
12807 12808
12809 12810
12811 12812
12813 12814
12815 12816
12817 12818
12819 12820
12821 12822
12823 12824
12825 12826
12827 12828
12829 12830
12831 12832
12833 12834
12835 12836
12837 12838
12839 12840
12841 12842
12843 12844
12845 12846
12847 12848
12849 12850
12851 12852
12853 12854
12855 12856
12857 12858
12859 12860
12861 12862
12863 12864
12865 12866
12867 12868
12869 12870
12871 12872
12873 12874
12875 12876
12877 12878
12879 12880
12881 12882
12883 12884
12885 12886
12887 12888
12889 12890
12891 12892
12893 12894
12895 12896
12897 12898
12899 12900
12901 12902
12903 12904
12905 12906
12907 12908
12909 12910
12911 12912
12913 12914
12915 12916
12917 12918
12919 12920
12921 12922
12923 12924
12925 12926
12927 12928
12929 12930
12931 12932
12933 12934
12935 12936
12937 12938
12939 12940
12941 12942
12943 12944
12945 12946
12947 12948
12949 12950
12951 12952
12953 12954
12955 12956
12957 12958
12959 12960
12961 12962
12963 12964
12965 12966
12967 12968
12969 12970
12971 12972
12973 12974
12975 12976
12977 12978
12979 12980
12981 12982
12983 12984
12985 12986
12987 12988
12989 12990
12991 12992
12993 12994
12995 12996
12997 12998
12999 13000
13001 13002
13003 13004
13005 13006
13007 13008
13009 13010
13011 13012
13013 13014
13015 13016
13017 13018
13019 13020
13021 13022
13023 13024
13025 13026
13027 13028
13029 13030
13031 13032
13033 13034
13035 13036
13037 13038
13039 13040
13041 13042
13043 13044
13045 13046
13047 13048
13049 13050
13051 13052
13053 13054
13055 13056
13057 13058
13059 13060
13061 13062
13063 13064
13065 13066
13067 13068
13069 13070
13071 13072
13073 13074
13075 13076
13077 13078
13079 13080
13081 13082
13083 13084
13085 13086
13087 13088
13089 13090
13091 13092
13093 13094
13095 13096
13097 13098
13099 13100
13101 13102
13103 13104
13105 13106
13107 13108
13109 13110
13111 13112
13113 13114
13115 13116
13117 13118
13119 13120
13121 13122
13123 13124
13125 13126
13127 13128
13129 13130
13131 13132
13133 13134
13135 13136
13137 13138
13139 13140
13141 13142
13143 13144
13145 13146
13147 13148
13149 13150
13151 13152
13153 13154
13155 13156
13157 13158
13159 13160
13161 13162
13163 13164
13165 13166
13167 13168
13169 13170
13171 13172
13173 13174
13175 13176
13177 13178
13179 13180
13181 13182
13183 13184
13185 13186
13187 13188
13189 13190
13191 13192
13193 13194
13195 13196
13197 13198
13199 13200
13201 13202
13203 13204
13205 13206
13207 13208
13209 13210
13211 13212
13213 13214
13215 13216
13217 13218
13219 13220
13221 13222
13223 13224
13225 13226
13227 13228
13229 13230
13231 13232
13233 13234
13235 13236
13237 13238
13239 13240
13241 13242
13243 13244
13245 13246
13247 13248
13249 13250
13251 13252
13253 13254
13255 13256
13257 13258
13259 13260
13261 13262
13263 13264
13265 13266
13267 13268
13269 13270
13271 13272
13273 13274
13275 13276
13277 13278
13279 13280
13281 13282
13283 13284
13285 13286
13287 13288
13289 13290
13291 13292
13293 13294
13295 13296
13297 13298
13299 13300
13301 13302
13303 13304
13305 13306
13307 13308
13309 13310
13311 13312
13313 13314
13315 13316
13317 13318
13319 13320
13321 13322
13323 13324
13325 13326
13327 13328
13329 13330
13331 13332
13333 13334
13335 13336
13337 13338
13339 13340
13341 13342
13343 13344
13345 13346
13347 13348
13349 13350
13351 13352
13353 13354
13355 13356
13357 13358
13359 13360
13361 13362
13363 13364
13365 13366
13367 13368
13369 13370
13371 13372
13373 13374
13375 13376
13377 13378
13379 13380
13381 13382
13383 13384
13385 13386
13387 13388
13389 13390
13391 13392
13393 13394
13395 13396
13397 13398
13399 13400
13401 13402
13403 13404
13405 13406
13407 13408
13409 13410
13411 13412
13413 13414
13415 13416
13417 13418
13419 13420
13421 13422
13423 13424
13425 13426
13427 13428
13429 13430
13431 13432
13433 13434
13435 13436
13437 13438
13439 13440
13441 13442
13443 13444
13445 13446
13447 13448
13449 13450
13451 13452
13453 13454
13455 13456
13457 13458
13459 13460
13461 13462
13463 13464
13465 13466
13467 13468
13469 13470
13471 13472
13473 13474
13475 13476
13477 13478
13479 13480
13481 13482
13483 13484
13485 13486
13487 13488
13489 13490
13491 13492
13493 13494
13495 13496
13497 13498
13499 13500
13501 13502
13503 13504
13505 13506
13507 13508
13509 13510
13511 13512
13513 13514
13515 13516
13517 13518
13519 13520
13521 13522
13523 13524
13525 13526
13527 13528
13529 13530
13531 13532
13533 13534
13535 13536
13537 13538
13539 13540
13541 13542
13543 13544
13545 13546
13547 13548
13549 13550
13551 13552
13553 13554
13555 13556
13557 13558
13559 13560
13561 13562
13563 13564
13565 13566
13567 13568
13569 13570
13571 13572
13573 13574
13575 13576
13577 13578
13579 13580
13581 13582
13583 13584
13585 13586
13587 13588
13589 13590
13591 13592
13593 13594
13595 13596
13597 13598
13599 13600
13601 13602
13603 13604
13605 13606
13607 13608
13609 13610
13611 13612
13613 13614
13615 13616
13617 13618
13619 13620
13621 13622
13623 13624
13625 13626
13627 13628
13629 13630
13631 13632
13633 13634
13635 13636
13637 13638
13639 13640
13641 13642
13643 13644
13645 13646
13647 13648
13649 13650
13651 13652
13653 13654
13655 13656
13657 13658
13659 13660
13661 13662
13663 13664
13665 13666
13667 13668
13669 13670
13671 13672
13673 13674
13675 13676
13677 13678
13679 13680
13681 13682
13683 13684
13685 13686
13687 13688
13689 13690
13691 13692
13693 13694
13695 13696
13697 13698
13699 13700
13701 13702
13703 13704
13705 13706
13707 13708
13709 13710
13711 13712
13713 13714
13715 13716
13717 13718
13719 13720
13721 13722
13723 13724
13725 13726
13727 13728
13729 13730
13731 13732
13733 13734
13735 13736
13737 13738
13739 13740
13741 13742
13743 13744
13745 13746
13747 13748
13749 13750
13751 13752
13753 13754
13755 13756
13757 13758
13759 13760
13761 13762
13763 13764
13765 13766
13767 13768
13769 13770
13771 13772
13773 13774
13775 13776
13777 13778
13779 13780
13781 13782
13783 13784
13785 13786
13787 13788
13789 13790
13791 13792
13793 13794
13795 13796
13797 13798
13799 13800
13801 13802
13803 13804
13805 13806
13807 13808
13809 13810
13811 13812
13813 13814
13815 13816
13817 13818
13819 13820
13821 13822
13823 13824
13825 13826
13827 13828
13829 13830
13831 13832
13833 13834
13835 13836
13837 13838
13839 13840
13841 13842
13843 13844
13845 13846
13847 13848
13849 13850
13851 13852
13853 13854
13855 13856
13857 13858
13859 13860
13861 13862
13863 13864
13865 13866
13867 13868
13869 13870
13871 13872
13873 13874
13875 13876
13877 13878
13879 13880
13881 13882
13883 13884
13885 13886
13887 13888
13889 13890
13891 13892
13893 13894
13895 13896
13897 13898
13899 13900
13901 13902
13903 13904
13905 13906
13907 13908
13909 13910
13911 13912
13913 13914
13915 13916
13917 13918
13919 13920
13921 13922
13923 13924
13925 13926
13927 13928
13929 13930
13931 13932
13933 13934
13935 13936
13937 13938
13939 13940
13941 13942
13943 13944
13945 13946
13947 13948
13949 13950
13951 13952
13953 13954
13955 13956
13957 13958
13959 13960
13961 13962
13963 13964
13965 13966
13967 13968
13969 13970
13971 13972
13973 13974
13975 13976
13977 13978
13979 13980
13981 13982
13983 13984
13985 13986
13987 13988
13989 13990
13991 13992
13993 13994
13995 13996
13997 13998
13999 14000
14001 14002
14003 14004
14005 14006
14007 14008
14009 14010
14011 14012
14013 14014
14015 14016
14017 14018
14019 14020
14021 14022
14023 14024
14025 14026
14027 14028
14029 14030
14031 14032
14033 14034
14035 14036
14037 14038
14039 14040
14041 14042
14043 14044
14045 14046
14047 14048
14049 14050
14051 14052
14053 14054
14055 14056
14057 14058
14059 14060
14061 14062
14063 14064
14065 14066
14067 14068
14069 14070
14071 14072
14073 14074
14075 14076
14077 14078
14079 14080
14081 14082
14083 14084
14085 14086
14087 14088
14089 14090
14091 14092
14093 14094
14095 14096
14097 14098
14099 14100
14101 14102
14103 14104
14105 14106
14107 14108
14109 14110
14111 14112
14113 14114
14115 14116
14117 14118
14119 14120
14121 14122
14123 14124
14125 14126
14127 14128
14129 14130
14131 14132
14133 14134
14135 14136
14137 14138
14139 14140
14141 14142
14143 14144
14145 14146
14147 14148
14149 14150
14151 14152
14153 14154
14155 14156
14157 14158
14159 14160
14161 14162
14163 14164
14165 14166
14167 14168
14169 14170
14171 14172
14173 14174
14175 14176
14177 14178
14179 14180
14181 14182
14183 14184
14185 14186
14187 14188
14189 14190
14191 14192
14193 14194
14195 14196
14197 14198
14199 14200
14201 14202
14203 14204
14205 14206
14207 14208
14209 14210
14211 14212
14213 14214
14215 14216
14217 14218
14219 14220
14221 14222
14223 14224
14225 14226
14227 14228
14229 14230
14231 14232
14233 14234
14235 14236
14237 14238
14239 14240
14241 14242
14243 14244
14245 14246
14247 14248
14249 14250
14251 14252
14253 14254
14255 14256
14257 14258
14259 14260
14261 14262
14263 14264
14265 14266
14267 14268
14269 14270
14271 14272
14273 14274
14275 14276
14277 14278
14279 14280
14281 14282
14283 14284
14285 14286
14287 14288
14289 14290
14291 14292
14293 14294
14295 14296
14297 14298
14299 14300
14301 14302
14303 14304
14305 14306
14307 14308
14309 14310
14311 14312
14313 14314
14315 14316
14317 14318
14319 14320
14321 14322
14323 14324
14325 14326
14327 14328
14329 14330
14331 14332
14333 14334
14335 14336
14337 14338
14339 14340
14341 14342
14343 14344
14345 14346
14347 14348
14349 14350
14351 14352
14353 14354
14355 14356
14357 14358
14359 14360
14361 14362
14363 14364
14365 14366
14367 14368
14369 14370
14371 14372
14373 14374
14375 14376
14377 14378
14379 14380
14381 14382
14383 14384
14385 14386
14387 14388
14389 14390
14391 14392
14393 14394
14395 14396
14397 14398
14399 14400
14401 14402
14403 14404
14405 14406
14407 14408
14409 14410
14411 14412
14413 14414
14415 14416
14417 14418
14419 14420
14421 14422
14423 14424
14425 14426
14427 14428
14429 14430
14431 14432
14433 14434
14435 14436
14437 14438
14439 14440
14441 14442
14443 14444
14445 14446
14447 14448
14449 14450
14451 14452
14453 14454
14455 14456
14457 14458
14459 14460
14461 14462
14463 14464
14465 14466
14467 14468
14469 14470
14471 14472
14473 14474
14475 14476
14477 14478
14479 14480
14481 14482
14483 14484
14485 14486
14487 14488
14489 14490
14491 14492
14493 14494
14495 14496
14497 14498
14499 14500
14501 14502
14503 14504
14505 14506
14507 14508
14509 14510
14511 14512
14513 14514
14515 14516
14517 14518
14519 14520
14521 14522
14523 14524
14525 14526
14527 14528
14529 14530
14531 14532
14533 14534
14535 14536
14537 14538
14539 14540
14541 14542
14543 14544
14545 14546
14547 14548
14549 14550
14551 14552
14553 14554
14555 14556
14557 14558
14559 14560
14561 14562
14563 14564
14565 14566
14567 14568
14569 14570
14571 14572
14573 14574
14575 14576
14577 14578
14579 14580
14581 14582
14583 14584
14585 14586
14587 14588
14589 14590
14591 14592
14593 14594
14595 14596
14597 14598
14599 14600
14601 14602
14603 14604
14605 14606
14607 14608
14609 14610
14611 14612
14613 14614
14615 14616
14617 14618
14619 14620
14621 14622
14623 14624
14625 14626
14627 14628
14629 14630
14631 14632
14633 14634
14635 14636
14637 14638
14639 14640
14641 14642
14643 14644
14645 14646
14647 14648
14649 14650
14651 14652
14653 14654
14655 14656
14657 14658
14659 14660
14661 14662
14663 14664
14665 14666
14667 14668
14669 14670
14671 14672
14673 14674
14675 14676
14677 14678
14679 14680
14681 14682
14683 14684
14685 14686
14687 14688
14689 14690
14691 14692
14693 14694
14695 14696
14697 14698
14699 14700
14701 14702
14703 14704
14705 14706
14707 14708
14709 14710
14711 14712
14713 14714
14715 14716
14717 14718
14719 14720
14721 14722
14723 14724
14725 14726
14727 14728
14729 14730
14731 14732
14733 14734
14735 14736
14737 14738
14739 14740
14741 14742
14743 14744
14745 14746
14747 14748
14749 14750
14751 14752
14753 14754
14755 14756
14757 14758
14759 14760
14761 14762
14763 14764
14765 14766
14767 14768
14769 14770
14771 14772
14773 14774
14775 14776
14777 14778
14779 14780
14781 14782
14783 14784
14785 14786
14787 14788
14789 14790
14791 14792
14793 14794
14795 14796
14797 14798
14799 14800
14801 14802
14803 14804
14805 14806
14807 14808
14809 14810
14811 14812
14813 14814
14815 14816
14817 14818
14819 14820
14821 14822
14823 14824
14825 14826
14827 14828
14829 14830
14831 14832
14833 14834
14835 14836
14837 14838
14839 14840
14841 14842
14843 14844
14845 14846
14847 14848
14849 14850
14851 14852
14853 14854
14855 14856
14857 14858
14859 14860
14861 14862
14863 14864
14865 14866
14867 14868
14869 14870
14871 14872
14873 14874
14875 14876
14877 14878
14879 14880
14881 14882
14883 14884
14885 14886
14887 14888
14889 14890
14891 14892
14893 14894
14895 14896
14897 14898
14899 14900
14901 14902
14903 14904
14905 14906
14907 14908
14909 14910
14911 14912
14913 14914
14915 14916
14917 14918
14919 14920
14921 14922
14923 14924
14925 14926
14927 14928
14929 14930
14931 14932
14933 14934
14935 14936
14937 14938
14939 14940
14941 14942
14943 14944
14945 14946
14947 14948
14949 14950
14951 14952
14953 14954
14955 14956
14957 14958
14959 14960
14961 14962
14963 14964
14965 14966
14967 14968
14969 14970
14971 14972
14973 14974
14975 14976
14977 14978
14979 14980
14981 14982
14983 14984
14985 14986
14987 14988
14989 14990
14991 14992
14993 14994
14995 14996
14997 14998
14999 15000
15001 15002
15003 15004
15005 15006
15007 15008
15009 15010
15011 15012
15013 15014
15015 15016
15017 15018
15019 15020
15021 15022
15023 15024
15025 15026
15027 15028
15029 15030
15031 15032
15033 15034
15035 15036
15037 15038
15039 15040
15041 15042
15043 15044
15045 15046
15047 15048
15049 15050
15051 15052
15053 15054
15055 15056
15057 15058
15059 15060
15061 15062
15063 15064
15065 15066
15067 15068
15069 15070
15071 15072
15073 15074
15075 15076
15077 15078
15079 15080
15081 15082
15083 15084
15085 15086
15087 15088
15089 15090
15091 15092
15093 15094
15095 15096
15097 15098
15099 15100
15101 15102
15103 15104
15105 15106
15107 15108
15109 15110
15111 15112
15113 15114
15115 15116
15117 15118
15119 15120
15121 15122
15123 15124
15125 15126
15127 15128
15129 15130
15131 15132
15133 15134
15135 15136
15137 15138
15139 15140
15141 15142
15143 15144
15145 15146
15147 15148
15149 15150
15151 15152
15153 15154
15155 15156
15157 15158
15159 15160
15161 15162
15163 15164
15165 15166
15167 15168
15169 15170
15171 15172
15173 15174
15175 15176
15177 15178
15179 15180
15181 15182
15183 15184
15185 15186
15187 15188
15189 15190
15191 15192
15193 15194
15195 15196
15197 15198
15199 15200
15201 15202
15203 15204
15205 15206
15207 15208
15209 15210
15211 15212
15213 15214
15215 15216
15217 15218
15219 15220
15221 15222
15223 15224
15225 15226
15227 15228
15229 15230
15231 15232
15233 15234
15235 15236
15237 15238
15239 15240
15241 15242
15243 15244
15245 15246
15247 15248
15249 15250
15251 15252
15253 15254
15255 15256
15257 15258
15259 15260
15261 15262
15263 15264
15265 15266
15267 15268
15269 15270
15271 15272
15273 15274
15275 15276
15277 15278
15279 15280
15281 15282
15283 15284
15285 15286
15287 15288
15289 15290
15291 15292
15293 15294
15295 15296
15297 15298
15299 15300
15301 15302
15303 15304
15305 15306
15307 15308
15309 15310
15311 15312
15313 15314
15315 15316
15317 15318
15319 15320
15321 15322
15323 15324
15325 15326
15327 15328
15329 15330
15331 15332
15333 15334
15335 15336
15337 15338
15339 15340
15341 15342
15343 15344
15345 15346
15347 15348
15349 15350
15351 15352
15353 15354
15355 15356
15357 15358
15359 15360
15361 15362
15363 15364
15365 15366
15367 15368
15369 15370
15371 15372
15373 15374
15375 15376
15377 15378
15379 15380
15381 15382
15383 15384
15385 15386
15387 15388
15389 15390
15391 15392
15393 15394
15395 15396
15397 15398
15399 15400
15401 15402
15403 15404
15405 15406
15407 15408
15409 15410
15411 15412
15413 15414
15415 15416
15417 15418
15419 15420
15421 15422
15423 15424
15425 15426
15427 15428
15429 15430
15431 15432
15433 15434
15435 15436
15437 15438
15439 15440
15441 15442
15443 15444
15445 15446
15447 15448
15449 15450
15451 15452
15453 15454
15455 15456
15457 15458
15459 15460
15461 15462
15463 15464
15465 15466
15467 15468
15469 15470
15471 15472
15473 15474
15475 15476
15477 15478
15479 15480
15481 15482
15483 15484
15485 15486
15487 15488
15489 15490
15491 15492
15493 15494
15495 15496
15497 15498
15499 15500
15501 15502
15503 15504
15505 15506
15507 15508
15509 15510
15511 15512
15513 15514
15515 15516
15517 15518
15519 15520
15521 15522
15523 15524
15525 15526
15527 15528
15529 15530
15531 15532
15533 15534
15535 15536
15537 15538
15539 15540
15541 15542
15543 15544
15545 15546
15547 15548
15549 15550
15551 15552
15553 15554
15555 15556
15557 15558
15559 15560
15561 15562
15563 15564
15565 15566
15567 15568
15569 15570
15571 15572
15573 15574
15575 15576
15577 15578
15579 15580
15581 15582
15583 15584
15585 15586
15587 15588
15589 15590
15591 15592
15593 15594
15595 15596
15597 15598
15599 15600
15601 15602
15603 15604
15605 15606
15607 15608
15609 15610
15611 15612
15613 15614
15615 15616
15617 15618
15619 15620
15621 15622
15623 15624
15625 15626
15627 15628
15629 15630
15631 15632
15633 15634
15635 15636
15637 15638
15639 15640
15641 15642
15643 15644
15645 15646
15647 15648
15649 15650
15651 15652
15653 15654
15655 15656
15657 15658
15659 15660
15661 15662
15663 15664
15665 15666
15667 15668
15669 15670
15671 15672
15673 15674
15675 15676
15677 15678
15679 15680
15681 15682
15683 15684
15685 15686
15687 15688
15689 15690
15691 15692
15693 15694
15695 15696
15697 15698
15699 15700
15701 15702
15703 15704
15705 15706
15707 15708
15709 15710
15711 15712
15713 15714
15715 15716
15717 15718
15719 15720
15721 15722
15723 15724
15725 15726
15727 15728
15729 15730
15731 15732
15733 15734
15735 15736
15737 15738
15739 15740
15741 15742
15743 15744
15745 15746
15747 15748
15749 15750
15751 15752
15753 15754
15755 15756
15757 15758
15759 15760
15761 15762
15763 15764
15765 15766
15767 15768
15769 15770
15771 15772
15773 15774
15775 15776
15777 15778
15779 15780
15781 15782
15783 15784
15785 15786
15787 15788
15789 15790
15791 15792
15793 15794
15795 15796
15797 15798
15799 15800
15801 15802
15803 15804
15805 15806
15807 15808
15809 15810
15811 15812
15813 15814
15815 15816
15817 15818
15819 15820
15821 15822
15823 15824
15825 15826
15827 15828
15829 15830
15831 15832
15833 15834
15835 15836
15837 15838
15839 15840
15841 15842
15843 15844
15845 15846
15847 15848
15849 15850
15851 15852
15853 15854
15855 15856
15857 15858
15859 15860
15861 15862
15863 15864
15865 15866
15867 15868
15869 15870
15871 15872
15873 15874
15875 15876
15877 15878
15879 15880
15881 15882
15883 15884
15885 15886
15887 15888
15889 15890
15891 15892
15893 15894
15895 15896
15897 15898
15899 15900
15901 15902
15903 15904
15905 15906
15907 15908
15909 15910
15911 15912
15913 15914
15915 15916
15917 15918
15919 15920
15921 15922
15923 15924
15925 15926
15927 15928
15929 15930
15931 15932
15933 15934
15935 15936
15937 15938
15939 15940
15941 15942
15943 15944
15945 15946
15947 15948
15949 15950
15951 15952
15953 15954
15955 15956
15957 15958
15959 15960
15961 15962
15963 15964
15965 15966
15967 15968
15969 15970
15971 15972
15973 15974
15975 15976
15977 15978
15979 15980
15981 15982
15983 15984
15985 15986
15987 15988
15989 15990
15991 15992
15993 15994
15995 15996
15997 15998
15999 16000
16001 16002
16003 16004
16005 16006
16007 16008
16009 16010
16011 16012
16013 16014
16015 16016
16017 16018
16019 16020
16021 16022
16023 16024
16025 16026
16027 16028
16029 16030
16031 16032
16033 16034
16035 16036
16037 16038
16039 16040
16041 16042
16043 16044
16045 16046
16047 16048
16049 16050
16051 16052
16053 16054
16055 16056
16057 16058
16059 16060
16061 16062
16063 16064
16065 16066
16067 16068
16069 16070
16071 16072
16073 16074
16075 16076
16077 16078
16079 16080
16081 16082
16083 16084
16085 16086
16087 16088
16089 16090
16091 16092
16093 16094
16095 16096
16097 16098
16099 16100
16101 16102
16103 16104
16105 16106
16107 16108
16109 16110
16111 16112
16113 16114
16115 16116
16117 16118
16119 16120
16121 16122
16123 16124
16125 16126
16127 16128
16129 16130
16131 16132
16133 16134
16135 16136
16137 16138
16139 16140
16141 16142
16143 16144
16145 16146
16147 16148
16149 16150
16151 16152
16153 16154
16155 16156
16157 16158
16159 16160
16161 16162
16163 16164
16165 16166
16167 16168
16169 16170
16171 16172
16173 16174
16175 16176
16177 16178
16179 16180
16181 16182
16183 16184
16185 16186
16187 16188
16189 16190
16191 16192
16193 16194
16195 16196
16197 16198
16199 16200
16201 16202
16203 16204
16205 16206
16207 16208
16209 16210
16211 16212
16213 16214
16215 16216
16217 16218
16219 16220
16221 16222
16223 16224
16225 16226
16227 16228
16229 16230
16231 16232
16233 16234
16235 16236
16237 16238
16239 16240
16241 16242
16243 16244
16245 16246
16247 16248
16249 16250
16251 16252
16253 16254
16255 16256
16257 16258
16259 16260
16261 16262
16263 16264
16265 16266
16267 16268
16269 16270
16271 16272
16273 16274
16275 16276
16277 16278
16279 16280
16281 16282
16283 16284
16285 16286
16287 16288
16289 16290
16291 16292
16293 16294
16295 16296
16297 16298
16299 16300
16301 16302
16303 16304
16305 16306
16307 16308
16309 16310
16311 16312
16313 16314
16315 16316
16317 16318
16319 16320
16321 16322
16323 16324
16325 16326
16327 16328
16329 16330
16331 16332
16333 16334
16335 16336
16337 16338
16339 16340
16341 16342
16343 16344
16345 16346
16347 16348
16349 16350
16351 16352
16353 16354
16355 16356
16357 16358
16359 16360
16361 16362
16363 16364
16365 16366
16367 16368
16369 16370
16371 16372
16373 16374
16375 16376
16377 16378
16379 16380
16381 16382
16383 16384
16385 16386
16387 16388
16389 16390
16391 16392
16393 16394
16395 16396
16397 16398
16399 16400
16401 16402
16403 16404
16405 16406
16407 16408
16409 16410
16411 16412
16413 16414
16415 16416
16417 16418
16419 16420
16421 16422
16423 16424
16425 16426
16427 16428
16429 16430
16431 16432
16433 16434
16435 16436
16437 16438
16439 16440
16441 16442
16443 16444
16445 16446
16447 16448
16449 16450
16451 16452
16453 16454
16455 16456
16457 16458
16459 16460
16461 16462
16463 16464
16465 16466
16467 16468
16469 16470
16471 16472
16473 16474
16475 16476
16477 16478
16479 16480
16481 16482
16483 16484
16485 16486
16487 16488
16489 16490
16491 16492
16493 16494
16495 16496
16497 16498
16499 16500
16501 16502
16503 16504
16505 16506
16507 16508
16509 16510
16511 16512
16513 16514
16515 16516
16517 16518
16519 16520
16521 16522
16523 16524
16525 16526
16527 16528
16529 16530
16531 16532
16533 16534
16535 16536
16537 16538
16539 16540
16541 16542
16543 16544
16545 16546
16547 16548
16549 16550
16551 16552
16553 16554
16555 16556
16557 16558
16559 16560
16561 16562
16563 16564
16565 16566
16567 16568
16569 16570
16571 16572
16573 16574
16575 16576
16577 16578
16579 16580
16581 16582
16583 16584
16585 16586
16587 16588
16589 16590
16591 16592
16593 16594
16595 16596
16597 16598
16599 16600
16601 16602
16603 16604
16605 16606
16607 16608
16609 16610
16611 16612
16613 16614
16615 16616
16617 16618
16619 16620
16621 16622
16623 16624
16625 16626
16627 16628
16629 16630
16631 16632
16633 16634
16635 16636
16637 16638
16639 16640
16641 16642
16643 16644
16645 16646
16647 16648
16649 16650
16651 16652
16653 16654
16655 16656
16657 16658
16659 16660
16661 16662
16663 16664
16665 16666
16667 16668
16669 16670
16671 16672
16673 16674
16675 16676
16677 16678
16679 16680
16681 16682
16683 16684
16685 16686
16687 16688
16689 16690
16691 16692
16693 16694
16695 16696
16697 16698
16699 16700
16701 16702
16703 16704
16705 16706
16707 16708
16709 16710
16711 16712
16713 16714
16715 16716
16717 16718
16719 16720
16721 16722
16723 16724
16725 16726
16727 16728
16729 16730
16731 16732
16733 16734
16735 16736
16737 16738
16739 16740
16741 16742
16743 16744
16745 16746
16747 16748
16749 16750
16751 16752
16753 16754
16755 16756
16757 16758
16759 16760
16761 16762
16763 16764
16765 16766
16767 16768
16769 16770
16771 16772
16773 16774
16775 16776
16777 16778
16779 16780
16781 16782
16783 16784
16785 16786
16787 16788
16789 16790
16791 16792
16793 16794
16795 16796
16797 16798
16799 16800
16801 16802
16803 16804
16805 16806
16807 16808
16809 16810
16811 16812
16813 16814
16815 16816
16817 16818
16819 16820
16821 16822
16823 16824
16825 16826
16827 16828
16829 16830
16831 16832
16833 16834
16835 16836
16837 16838
16839 16840
16841 16842
16843 16844
16845 16846
16847 16848
16849 16850
16851 16852
16853 16854
16855 16856
16857 16858
16859 16860
16861 16862
16863 16864
16865 16866
16867 16868
16869 16870
16871 16872
16873 16874
16875 16876
16877 16878
16879 16880
16881 16882
16883 16884
16885 16886
16887 16888
16889 16890
16891 16892
16893 16894
16895 16896
16897 16898
16899 16900
16901 16902
16903 16904
16905 16906
16907 16908
16909 16910
16911 16912
16913 16914
16915 16916
16917 16918
16919 16920
16921 16922
16923 16924
16925 16926
16927 16928
16929 16930
16931 16932
16933 16934
16935 16936
16937 16938
16939 16940
16941 16942
16943 16944
16945 16946
16947 16948
16949 16950
16951 16952
16953 16954
16955 16956
16957 16958
16959 16960
16961 16962
16963 16964
16965 16966
16967 16968
16969 16970
16971 16972
16973 16974
16975 16976
16977 16978
16979 16980
16981 16982
16983 16984
16985 16986
16987 16988
16989 16990
16991 16992
16993 16994
16995 16996
16997 16998
16999 17000
17001 17002
17003 17004
17005 17006
17007 17008
17009 17010
17011 17012
17013 17014
17015 17016
17017 17018
17019 17020
17021 17022
17023 17024
17025 17026
17027 17028
17029 17030
17031 17032
17033 17034
17035 17036
17037 17038
17039 17040
17041 17042
17043 17044
17045 17046
17047 17048
17049 17050
17051 17052
17053 17054
17055 17056
17057 17058
17059 17060
17061 17062
17063 17064
17065 17066
17067 17068
17069 17070
17071 17072
17073 17074
17075 17076
17077 17078
17079 17080
17081 17082
17083 17084
17085 17086
17087 17088
17089 17090
17091 17092
17093 17094
17095 17096
17097 17098
17099 17100
17101 17102
17103 17104
17105 17106
17107 17108
17109 17110
17111 17112
17113 17114
17115 17116
17117 17118
17119 17120
17121 17122
17123 17124
17125 17126
17127 17128
17129 17130
17131 17132
17133 17134
17135 17136
17137 17138
17139 17140
17141 17142
17143 17144
17145 17146
17147 17148
17149 17150
17151 17152
17153 17154
17155 17156
17157 17158
17159 17160
17161 17162
17163 17164
17165 17166
17167 17168
17169 17170
17171 17172
17173 17174
17175 17176
17177 17178
17179 17180
17181 17182
17183 17184
17185 17186
17187 17188
17189 17190
17191 17192
17193 17194
17195 17196
17197 17198
17199 17200
17201 17202
17203 17204
17205 17206
17207 17208
17209 17210
17211 17212
17213 17214
17215 17216
17217 17218
17219 17220
17221 17222
17223 17224
17225 17226
17227 17228
17229 17230
17231 17232
17233 17234
17235 17236
17237 17238
17239 17240
17241 17242
17243 17244
17245 17246
17247 17248
17249 17250
17251 17252
17253 17254
17255 17256
17257 17258
17259 17260
17261 17262
17263 17264
17265 17266
17267 17268
17269 17270
17271 17272
17273 17274
17275 17276
17277 17278
17279 17280
17281 17282
17283 17284
17285 17286
17287 17288
17289 17290
17291 17292
17293 17294
17295 17296
17297 17298
17299 17300
17301 17302
17303 17304
17305 17306
17307 17308
17309 17310
17311 17312
17313 17314
17315 17316
17317 17318
17319 17320
17321 17322
17323 17324
17325 17326
17327 17328
17329 17330
17331 17332
17333 17334
17335 17336
17337 17338
17339 17340
17341 17342
17343 17344
17345 17346
17347 17348
17349 17350
17351 17352
17353 17354
17355 17356
17357 17358
17359 17360
17361 17362
17363 17364
17365 17366
17367 17368
17369 17370
17371 17372
17373 17374
17375 17376
17377 17378
17379 17380
17381 17382
17383 17384
17385 17386
17387 17388
17389 17390
17391 17392
17393 17394
17395 17396
17397 17398
17399 17400
17401 17402
17403 17404
17405 17406
17407 17408
17409 17410
17411 17412
17413 17414
17415 17416
17417 17418
17419 17420
17421 17422
17423 17424
17425 17426
17427 17428
17429 17430
17431 17432
17433 17434
17435 17436
17437 17438
17439 17440
17441 17442
17443 17444
17445 17446
17447 17448
17449 17450
17451 17452
17453 17454
17455 17456
17457 17458
17459 17460
17461 17462
17463 17464
17465 17466
17467 17468
17469 17470
17471 17472
17473 17474
17475 17476
17477 17478
17479 17480
17481 17482
17483 17484
17485 17486
17487 17488
17489 17490
17491 17492
17493 17494
17495 17496
17497 17498
17499 17500
17501 17502
17503 17504
17505 17506
17507 17508
17509 17510
17511 17512
17513 17514
17515 17516
17517 17518
17519 17520
17521 17522
17523 17524
17525 17526
17527 17528
17529 17530
17531 17532
17533 17534
17535 17536
17537 17538
17539 17540
17541 17542
17543 17544
17545 17546
17547 17548
17549 17550
17551 17552
17553 17554
17555 17556
17557 17558
17559 17560
17561 17562
17563 17564
17565 17566
17567 17568
17569 17570
17571 17572
17573 17574
17575 17576
17577 17578
17579 17580
17581 17582
17583 17584
17585 17586
17587 17588
17589 17590
17591 17592
17593 17594
17595 17596
17597 17598
17599 17600
17601 17602
17603 17604
17605 17606
17607 17608
17609 17610
17611 17612
17613 17614
17615 17616
17617 17618
17619 17620
17621 17622
17623 17624
17625 17626
17627 17628
17629 17630
17631 17632
17633 17634
17635 17636
17637 17638
17639 17640
17641 17642
17643 17644
17645 17646
17647 17648
17649 17650
17651 17652
17653 17654
17655 17656
17657 17658
17659 17660
17661 17662
17663 17664
17665 17666
17667 17668
17669 17670
17671 17672
17673 17674
17675 17676
17677 17678
17679 17680
17681 17682
17683 17684
17685 17686
17687 17688
17689 17690
17691 17692
17693 17694
17695 17696
17697 17698
17699 17700
17701 17702
17703 17704
17705 17706
17707 17708
17709 17710
17711 17712
17713 17714
17715 17716
17717 17718
17719 17720
17721 17722
17723 17724
17725 17726
17727 17728
17729 17730
17731 17732
17733 17734
17735 17736
17737 17738
17739 17740
17741 17742
17743 17744
17745 17746
17747 17748
17749 17750
17751 17752
17753 17754
17755 17756
17757 17758
17759 17760
17761 17762
17763 17764
17765 17766
17767 17768
17769 17770
17771 17772
17773 17774
17775 17776
17777 17778
17779 17780
17781 17782
17783 17784
17785 17786
17787 17788
17789 17790
17791 17792
17793 17794
17795 17796
17797 17798
17799 17800
17801 17802
17803 17804
17805 17806
17807 17808
17809 17810
17811 17812
17813 17814
17815 17816
17817 17818
17819 17820
17821 17822
17823 17824
17825 17826
17827 17828
17829 17830
17831 17832
17833 17834
17835 17836
17837 17838
17839 17840
17841 17842
17843 17844
17845 17846
17847 17848
17849 17850
17851 17852
17853 17854
17855 17856
17857 17858
17859 17860
17861 17862
17863 17864
17865 17866
17867 17868
17869 17870
17871 17872
17873 17874
17875 17876
17877 17878
17879 17880
17881 17882
17883 17884
17885 17886
17887 17888
17889 17890
17891 17892
17893 17894
17895 17896
17897 17898
17899 17900
17901 17902
17903 17904
17905 17906
17907 17908
17909 17910
17911 17912
17913 17914
17915 17916
17917 17918
17919 17920
17921 17922
17923 17924
17925 17926
17927 17928
17929 17930
17931 17932
17933 17934
17935 17936
17937 17938
17939 17940
17941 17942
17943 17944
17945 17946
17947 17948
17949 17950
17951 17952
17953 17954
17955 17956
17957 17958
17959 17960
17961 17962
17963 17964
17965 17966
17967 17968
17969 17970
17971 17972
17973 17974
17975 17976
17977 17978
17979 17980
17981 17982
17983 17984
17985 17986
17987 17988
17989 17990
17991 17992
17993 17994
17995 17996
17997 17998
17999 18000
18001 18002
18003 18004
18005 18006
18007 18008
18009 18010
18011 18012
18013 18014
18015 18016
18017 18018
18019 18020
18021 18022
18023 18024
18025 18026
18027 18028
18029 18030
18031 18032
18033 18034
18035 18036
18037 18038
18039 18040
18041 18042
18043 18044
18045 18046
18047 18048
18049 18050
18051 18052
18053 18054
18055 18056
18057 18058
18059 18060
18061 18062
18063 18064
18065 18066
18067 18068
18069 18070
18071 18072
18073 18074
18075 18076
18077 18078
18079 18080
18081 18082
18083 18084
18085 18086
18087 18088
18089 18090
18091 18092
18093 18094
18095 18096
18097 18098
18099 18100
18101 18102
18103 18104
18105 18106
18107 18108
18109 18110
18111 18112
18113 18114
18115 18116
18117 18118
18119 18120
18121 18122
18123 18124
18125 18126
18127 18128
18129 18130
18131 18132
18133 18134
18135 18136
18137 18138
18139 18140
18141 18142
18143 18144
18145 18146
18147 18148
18149 18150
18151 18152
18153 18154
18155 18156
18157 18158
18159 18160
18161 18162
18163 18164
18165 18166
18167 18168
18169 18170
18171 18172
18173 18174
18175 18176
18177 18178
18179 18180
18181 18182
18183 18184
18185 18186
18187 18188
18189 18190
18191 18192
18193 18194
18195 18196
18197 18198
18199 18200
18201 18202
18203 18204
18205 18206
18207 18208
18209 18210
18211 18212
18213 18214
18215 18216
18217 18218
18219 18220
18221 18222
18223 18224
18225 18226
18227 18228
18229 18230
18231 18232
18233 18234
18235 18236
18237 18238
18239 18240
18241 18242
18243 18244
18245 18246
18247 18248
18249 18250
18251 18252
18253 18254
18255 18256
18257 18258
18259 18260
18261 18262
18263 18264
18265 18266
18267 18268
18269 18270
18271 18272
18273 18274
18275 18276
18277 18278
18279 18280
18281 18282
18283 18284
18285 18286
18287 18288
18289 18290
18291 18292
18293 18294
18295 18296
18297 18298
18299 18300
18301 18302
18303 18304
18305 18306
18307 18308
18309 18310
18311 18312
18313 18314
18315 18316
18317 18318
18319 18320
18321 18322
18323 18324
18325 18326
18327 18328
18329 18330
18331 18332
18333 18334
18335 18336
18337 18338
18339 18340
18341 18342
18343 18344
18345 18346
18347 18348
18349 18350
18351 18352
18353 18354
18355 18356
18357 18358
18359 18360
18361 18362
18363 18364
18365 18366
18367 18368
18369 18370
18371 18372
18373 18374
18375 18376
18377 18378
18379 18380
18381 18382
18383 18384
18385 18386
18387 18388
18389 18390
18391 18392
18393 18394
18395 18396
18397 18398
18399 18400
18401 18402
18403 18404
18405 18406
18407 18408
18409 18410
18411 18412
18413 18414
18415 18416
18417 18418
18419 18420
18421 18422
18423 18424
18425 18426
18427 18428
18429 18430
18431 18432
18433 18434
18435 18436
18437 18438
18439 18440
18441 18442
18443 18444
18445 18446
18447 18448
18449 18450
18451 18452
18453 18454
18455 18456
18457 18458
18459 18460
18461 18462
18463 18464
18465 18466
18467 18468
18469 18470
18471 18472
18473 18474
18475 18476
18477 18478
18479 18480
18481 18482
18483 18484
18485 18486
18487 18488
18489 18490
18491 18492
18493 18494
18495 18496
18497 18498
18499 18500
18501 18502
18503 18504
18505 18506
18507 18508
18509 18510
18511 18512
18513 18514
18515 18516
18517 18518
18519 18520
18521 18522
18523 18524
18525 18526
18527 18528
18529 18530
18531 18532
18533 18534
18535 18536
18537 18538
18539 18540
18541 18542
18543 18544
18545 18546
18547 18548
18549 18550
18551 18552
18553 18554
18555 18556
18557 18558
18559 18560
18561 18562
18563 18564
18565 18566
18567 18568
18569 18570
18571 18572
18573 18574
18575 18576
18577 18578
18579 18580
18581 18582
18583 18584
18585 18586
18587 18588
18589 18590
18591 18592
18593 18594
18595 18596
18597 18598
18599 18600
18601 18602
18603 18604
18605 18606
18607 18608
18609 18610
18611 18612
18613 18614
18615 18616
18617 18618
18619 18620
18621 18622
18623 18624
18625 18626
18627 18628
18629 18630
18631 18632
18633 18634
18635 18636
18637 18638
18639 18640
18641 18642
18643 18644
18645 18646
18647 18648
18649 18650
18651 18652
18653 18654
18655 18656
18657 18658
18659 18660
18661 18662
18663 18664
18665 18666
18667 18668
18669 18670
18671 18672
18673 18674
18675 18676
18677 18678
18679 18680
18681 18682
18683 18684
18685 18686
18687 18688
18689 18690
18691 18692
18693 18694
18695 18696
18697 18698
18699 18700
18701 18702
18703 18704
18705 18706
18707 18708
18709 18710
18711 18712
18713 18714
18715 18716
18717 18718
18719 18720
18721 18722
18723 18724
18725 18726
18727 18728
18729 18730
18731 18732
18733 18734
18735 18736
18737 18738
18739 18740
18741 18742
18743 18744
18745 18746
18747 18748
18749 18750
18751 18752
18753 18754
18755 18756
18757 18758
18759 18760
18761 18762
18763 18764
18765 18766
18767 18768
18769 18770
18771 18772
18773 18774
18775 18776
18777 18778
18779 18780
18781 18782
18783 18784
18785 18786
18787 18788
18789 18790
18791 18792
18793 18794
18795 18796
18797 18798
18799 18800
18801 18802
18803 18804
18805 18806
18807 18808
18809 18810
18811 18812
18813 18814
18815 18816
18817 18818
18819 18820
18821 18822
18823 18824
18825 18826
18827 18828
18829 18830
18831 18832
18833 18834
18835 18836
18837 18838
18839 18840
18841 18842
18843 18844
18845 18846
18847 18848
18849 18850
18851 18852
18853 18854
18855 18856
18857 18858
18859 18860
18861 18862
18863 18864
18865 18866
18867 18868
18869 18870
18871 18872
18873 18874
18875 18876
18877 18878
18879 18880
18881 18882
18883 18884
18885 18886
18887 18888
18889 18890
18891 18892
18893 18894
18895 18896
18897 18898
18899 18900
18901 18902
18903 18904
18905 18906
18907 18908
18909 18910
18911 18912
18913 18914
18915 18916
18917 18918
18919 18920
18921 18922
18923 18924
18925 18926
18927 18928
18929 18930
18931 18932
18933 18934
18935 18936
18937 18938
18939 18940
18941 18942
18943 18944
18945 18946
18947 18948
18949 18950
18951 18952
18953 18954
18955 18956
18957 18958
18959 18960
18961 18962
18963 18964
18965 18966
18967 18968
18969 18970
18971 18972
18973 18974
18975 18976
18977 18978
18979 18980
18981 18982
18983 18984
18985 18986
18987 18988
18989 18990
18991 18992
18993 18994
18995 18996
18997 18998
18999 19000
19001 19002
19003 19004
19005 19006
19007 19008
19009 19010
19011 19012
19013 19014
19015 19016
19017 19018
19019 19020
19021 19022
19023 19024
19025 19026
19027 19028
19029 19030
19031 19032
19033 19034
19035 19036
19037 19038
19039 19040
19041 19042
19043 19044
19045 19046
19047 19048
19049 19050
19051 19052
19053 19054
19055 19056
19057 19058
19059 19060
19061 19062
19063 19064
19065 19066
19067 19068
19069 19070
19071 19072
19073 19074
19075 19076
19077 19078
19079 19080
19081 19082
19083 19084
19085 19086
19087 19088
19089 19090
19091 19092
19093 19094
19095 19096
19097 19098
19099 19100
19101 19102
19103 19104
19105 19106
19107 19108
19109 19110
19111 19112
19113 19114
19115 19116
19117 19118
19119 19120
19121 19122
19123 19124
19125 19126
19127 19128
19129 19130
19131 19132
19133 19134
19135 19136
19137 19138
19139 19140
19141 19142
19143 19144
19145 19146
19147 19148
19149 19150
19151 19152
19153 19154
19155 19156
19157 19158
19159 19160
19161 19162
19163 19164
19165 19166
19167 19168
19169 19170
19171 19172
19173 19174
19175 19176
19177 19178
19179 19180
19181 19182
19183 19184
19185 19186
19187 19188
19189 19190
19191 19192
19193 19194
19195 19196
19197 19198
19199 19200
19201 19202
19203 19204
19205 19206
19207 19208
19209 19210
19211 19212
19213 19214
19215 19216
19217 19218
19219 19220
19221 19222
19223 19224
19225 19226
19227 19228
19229 19230
19231 19232
19233 19234
19235 19236
19237 19238
19239 19240
19241 19242
19243 19244
19245 19246
19247 19248
19249 19250
19251 19252
19253 19254
19255 19256
19257 19258
19259 19260
19261 19262
19263 19264
19265 19266
19267 19268
19269 19270
19271 19272
19273 19274
19275 19276
19277 19278
19279 19280
19281 19282
19283 19284
19285 19286
19287 19288
19289 19290
19291 19292
19293 19294
19295 19296
19297 19298
19299 19300
19301 19302
19303 19304
19305 19306
19307 19308
19309 19310
19311 19312
19313 19314
19315 19316
19317 19318
19319 19320
19321 19322
19323 19324
19325 19326
19327 19328
19329 19330
19331 19332
19333 19334
19335 19336
19337 19338
19339 19340
19341 19342
19343 19344
19345 19346
19347 19348
19349 19350
19351 19352
19353 19354
19355 19356
19357 19358
19359 19360
19361 19362
19363 19364
19365 19366
19367 19368
19369 19370
19371 19372
19373 19374
19375 19376
19377 19378
19379 19380
19381 19382
19383 19384
19385 19386
19387 19388
19389 19390
19391 19392
19393 19394
19395 19396
19397 19398
19399 19400
19401 19402
19403 19404
19405 19406
19407 19408
19409 19410
19411 19412
19413 19414
19415 19416
19417 19418
19419 19420
19421 19422
19423 19424
19425 19426
19427 19428
19429 19430
19431 19432
19433 19434
19435 19436
19437 19438
19439 19440
19441 19442
19443 19444
19445 19446
19447 19448
19449 19450
19451 19452
19453 19454
19455 19456
19457 19458
19459 19460
19461 19462
19463 19464
19465 19466
19467 19468
19469 19470
19471 19472
19473 19474
19475 19476
19477 19478
19479 19480
19481 19482
19483 19484
19485 19486
19487 19488
19489 19490
19491 19492
19493 19494
19495 19496
19497 19498
19499 19500
19501 19502
19503 19504
19505 19506
19507 19508
19509 19510
19511 19512
19513 19514
19515 19516
19517 19518
19519 19520
19521 19522
19523 19524
19525 19526
19527 19528
19529 19530
19531 19532
19533 19534
19535 19536
19537 19538
19539 19540
19541 19542
19543 19544
19545 19546
19547 19548
19549 19550
19551 19552
19553 19554
19555 19556
19557 19558
19559 19560
19561 19562
19563 19564
19565 19566
19567 19568
19569 19570
19571 19572
19573 19574
19575 19576
19577 19578
19579 19580
19581 19582
19583 19584
19585 19586
19587 19588
19589 19590
19591 19592
19593 19594
19595 19596
19597 19598
19599 19600
19601 19602
19603 19604
19605 19606
19607 19608
19609 19610
19611 19612
19613 19614
19615 19616
19617 19618
19619 19620
19621 19622
19623 19624
19625 19626
19627 19628
19629 19630
19631 19632
19633 19634
19635 19636
19637 19638
19639 19640
19641 19642
19643 19644
19645 19646
19647 19648
19649 19650
19651 19652
19653 19654
19655 19656
19657 19658
19659 19660
19661 19662
19663 19664
19665 19666
19667 19668
19669 19670
19671 19672
19673 19674
19675 19676
19677 19678
19679 19680
19681 19682
19683 19684
19685 19686
19687 19688
19689 19690
19691 19692
19693 19694
19695 19696
19697 19698
19699 19700
19701 19702
19703 19704
19705 19706
19707 19708
19709 19710
19711 19712
19713 19714
19715 19716
19717 19718
19719 19720
19721 19722
19723 19724
19725 19726
19727 19728
19729 19730
19731 19732
19733 19734
19735 19736
19737 19738
19739 19740
19741 19742
19743 19744
19745 19746
19747 19748
19749 19750
19751 19752
19753 19754
19755 19756
19757 19758
19759 19760
19761 19762
19763 19764
19765 19766
19767 19768
19769 19770
19771 19772
19773 19774
19775 19776
19777 19778
19779 19780
19781 19782
19783 19784
19785 19786
19787 19788
19789 19790
19791 19792
19793 19794
19795 19796
19797 19798
19799 19800
19801 19802
19803 19804
19805 19806
19807 19808
19809 19810
19811 19812
19813 19814
19815 19816
19817 19818
19819 19820
19821 19822
19823 19824
19825 19826
19827 19828
19829 19830
19831 19832
19833 19834
19835 19836
19837 19838
19839 19840
19841 19842
19843 19844
19845 19846
19847 19848
19849 19850
19851 19852
19853 19854
19855 19856
19857 19858
19859 19860
19861 19862
19863 19864
19865 19866
19867 19868
19869 19870
19871 19872
19873 19874
19875 19876
19877 19878
19879 19880
19881 19882
19883 19884
19885 19886
19887 19888
19889 19890
19891 19892
19893 19894
19895 19896
19897 19898
19899 19900
19901 19902
19903 19904
19905 19906
19907 19908
19909 19910
19911 19912
19913 19914
19915 19916
19917 19918
19919 19920
19921 19922
19923 19924
19925 19926
19927 19928
19929 19930
19931 19932
19933 19934
19935 19936
19937 19938
19939 19940
19941 19942
19943 19944
19945 19946
19947 19948
19949 19950
19951 19952
19953 19954
19955 19956
19957 19958
19959 19960
19961 19962
19963 19964
19965 19966
19967 19968
19969 19970
19971 19972
19973 19974
19975 19976
19977 19978
19979 19980
19981 19982
19983 19984
19985 19986
19987 19988
19989 19990
19991 19992
19993 19994
19995 19996
19997 19998
19999 20000
20001 20002
20003 20004
20005 20006
20007 20008
20009 20010
20011 20012
20013 20014
20015 20016
20017 20018
20019 20020
20021 20022
20023 20024
20025 20026
20027 20028
20029 20030
20031 20032
20033 20034
20035 20036
20037 20038
20039 20040
20041 20042
20043 20044
20045 20046
20047 20048
20049 20050
20051 20052
20053 20054
20055 20056
20057 20058
20059 20060
20061 20062
20063 20064
20065 20066
20067 20068
20069 20070
20071 20072
20073 20074
20075 20076
20077 20078
20079 20080
20081 20082
20083 20084
20085 20086
20087 20088
20089 20090
20091 20092
20093 20094
20095 20096
20097 20098
20099 20100
20101 20102
20103 20104
20105 20106
20107 20108
20109 20110
20111 20112
20113 20114
20115 20116
20117 20118
20119 20120
20121 20122
20123 20124
20125 20126
20127 20128
20129 20130
20131 20132
20133 20134
20135 20136
20137 20138
20139 20140
20141 20142
20143 20144
20145 20146
20147 20148
20149 20150
20151 20152
20153 20154
20155 20156
20157 20158
20159 20160
20161 20162
20163 20164
20165 20166
20167 20168
20169 20170
20171 20172
20173 20174
20175 20176
20177 20178
20179 20180
20181 20182
20183 20184
20185 20186
20187 20188
20189 20190
20191 20192
20193 20194
20195 20196
20197 20198
20199 20200
20201 20202
20203 20204
20205 20206
20207 20208
20209 20210
20211 20212
20213 20214
20215 20216
20217 20218
20219 20220
20221 20222
20223 20224
20225 20226
20227 20228
20229 20230
20231 20232
20233 20234
20235 20236
20237 20238
20239 20240
20241 20242
20243 20244
20245 20246
20247 20248
20249 20250
20251 20252
20253 20254
20255 20256
20257 20258
20259 20260
20261 20262
20263 20264
20265 20266
20267 20268
20269 20270
20271 20272
20273 20274
20275 20276
20277 20278
20279 20280
20281 20282
20283 20284
20285 20286
20287 20288
20289 20290
20291 20292
20293 20294
20295 20296
20297 20298
20299 20300
20301 20302
20303 20304
20305 20306
20307 20308
20309 20310
20311 20312
20313 20314
20315 20316
20317 20318
20319 20320
20321 20322
20323 20324
20325 20326
20327 20328
20329 20330
20331 20332
20333 20334
20335 20336
20337 20338
20339 20340
20341 20342
20343 20344
20345 20346
20347 20348
20349 20350
20351 20352
20353 20354
20355 20356
20357 20358
20359 20360
20361 20362
20363 20364
20365 20366
20367 20368
20369 20370
20371 20372
20373 20374
20375 20376
20377 20378
20379 20380
20381 20382
20383 20384
20385 20386
20387 20388
20389 20390
20391 20392
20393 20394
20395 20396
20397 20398
20399 20400
20401 20402
20403 20404
20405 20406
20407 20408
20409 20410
20411 20412
20413 20414
20415 20416
20417 20418
20419 20420
20421 20422
20423 20424
20425 20426
20427 20428
20429 20430
20431 20432
20433 20434
20435 20436
20437 20438
20439 20440
20441 20442
20443 20444
20445 20446
20447 20448
20449 20450
20451 20452
20453 20454
20455 20456
20457 20458
20459 20460
20461 20462
20463 20464
20465 20466
20467 20468
20469 20470
20471 20472
20473 20474
20475 20476
20477 20478
20479 20480
20481 20482
20483 20484
20485 20486
20487 20488
20489 20490
20491 20492
20493 20494
20495 20496
20497 20498
20499 20500
20501 20502
20503 20504
20505 20506
20507 20508
20509 20510
20511 20512
20513 20514
20515 20516
20517 20518
20519 20520
20521 20522
20523 20524
20525 20526
20527 20528
20529 20530
20531 20532
20533 20534
20535 20536
20537 20538
20539 20540
20541 20542
20543 20544
20545 20546
20547 20548
20549 20550
20551 20552
20553 20554
20555 20556
20557 20558
20559 20560
20561 20562
20563 20564
20565 20566
20567 20568
20569 20570
20571 20572
20573 20574
20575 20576
20577 20578
20579 20580
20581 20582
20583 20584
20585 20586
20587 20588
20589 20590
20591 20592
20593 20594
20595 20596
20597 20598
20599 20600
20601 20602
20603 20604
20605 20606
20607 20608
20609 20610
20611 20612
20613 20614
20615 20616
20617 20618
20619 20620
20621 20622
20623 20624
20625 20626
20627 20628
20629 20630
20631 20632
20633 20634
20635 20636
20637 20638
20639 20640
20641 20642
20643 20644
20645 20646
20647 20648
20649 20650
20651 20652
20653 20654
20655 20656
20657 20658
20659 20660
20661 20662
20663 20664
20665 20666
20667 20668
20669 20670
20671 20672
20673 20674
20675 20676
20677 20678
20679 20680
20681 20682
20683 20684
20685 20686
20687 20688
20689 20690
20691 20692
20693 20694
20695 20696
20697 20698
20699 20700
20701 20702
20703 20704
20705 20706
20707 20708
20709 20710
20711 20712
20713 20714
20715 20716
20717 20718
20719 20720
20721 20722
20723 20724
20725 20726
20727 20728
20729 20730
20731 20732
20733 20734
20735 20736
20737 20738
20739 20740
20741 20742
20743 20744
20745 20746
20747 20748
20749 20750
20751 20752
20753 20754
20755 20756
20757 20758
20759 20760
20761 20762
20763 20764
20765 20766
20767 20768
20769 20770
20771 20772
20773 20774
20775 20776
20777 20778
20779 20780
20781 20782
20783 20784
20785 20786
20787 20788
20789 20790
20791 20792
20793 20794
20795 20796
20797 20798
20799 20800
20801 20802
20803 20804
20805 20806
20807 20808
20809 20810
20811 20812
20813 20814
20815 20816
20817 20818
20819 20820
20821 20822
20823 20824
20825 20826
20827 20828
20829 20830
20831 20832
20833 20834
20835 20836
20837 20838
20839 20840
20841 20842
20843 20844
20845 20846
20847 20848
20849 20850
20851 20852
20853 20854
20855 20856
20857 20858
20859 20860
20861 20862
20863 20864
20865 20866
20867 20868
20869 20870
20871 20872
20873 20874
20875 20876
20877 20878
20879 20880
20881 20882
20883 20884
20885 20886
20887 20888
20889 20890
20891 20892
20893 20894
20895 20896
20897 20898
20899 20900
20901 20902
20903 20904
20905 20906
20907 20908
20909 20910
20911 20912
20913 20914
20915 20916
20917 20918
20919 20920
20921 20922
20923 20924
20925 20926
20927 20928
20929 20930
20931 20932
20933 20934
20935 20936
20937 20938
20939 20940
20941 20942
20943 20944
20945 20946
20947 20948
20949 20950
20951 20952
20953 20954
20955 20956
20957 20958
20959 20960
20961 20962
20963 20964
20965 20966
20967 20968
20969 20970
20971 20972
20973 20974
20975 20976
20977 20978
20979 20980
20981 20982
20983 20984
20985 20986
20987 20988
20989 20990
20991 20992
20993 20994
20995 20996
20997 20998
20999 21000
21001 21002
21003 21004
21005 21006
21007 21008
21009 21010
21011 21012
21013 21014
21015 21016
21017 21018
21019 21020
21021 21022
21023 21024
21025 21026
21027 21028
21029 21030
21031 21032
21033 21034
21035 21036
21037 21038
21039 21040
21041 21042
21043 21044
21045 21046
21047 21048
21049 21050
21051 21052
21053 21054
21055 21056
21057 21058
21059 21060
21061 21062
21063 21064
21065 21066
21067 21068
21069 21070
21071 21072
21073 21074
21075 21076
21077 21078
21079 21080
21081 21082
21083 21084
21085 21086
21087 21088
21089 21090
21091 21092
21093 21094
21095 21096
21097 21098
21099 21100
21101 21102
21103 21104
21105 21106
21107 21108
21109 21110
21111 21112
21113 21114
21115 21116
21117 21118
21119 21120
21121 21122
21123 21124
21125 21126
21127 21128
21129 21130
21131 21132
21133 21134
21135 21136
21137 21138
21139 21140
21141 21142
21143 21144
21145 21146
21147 21148
21149 21150
21151 21152
21153 21154
21155 21156
21157 21158
21159 21160
21161 21162
21163 21164
21165 21166
21167 21168
21169 21170
21171 21172
21173 21174
21175 21176
21177 21178
21179 21180
21181 21182
21183 21184
21185 21186
21187 21188
21189 21190
21191 21192
21193 21194
21195 21196
21197 21198
21199 21200
21201 21202
21203 21204
21205 21206
21207 21208
21209 21210
21211 21212
21213 21214
21215 21216
21217 21218
21219 21220
21221 21222
21223 21224
21225 21226
21227 21228
21229 21230
21231 21232
21233 21234
21235 21236
21237 21238
21239 21240
21241 21242
21243 21244
21245 21246
21247 21248
21249 21250
21251 21252
21253 21254
21255 21256
21257 21258
21259 21260
21261 21262
21263 21264
21265 21266
21267 21268
21269 21270
21271 21272
21273 21274
21275 21276
21277 21278
21279 21280
21281 21282
21283 21284
21285 21286
21287 21288
21289 21290
21291 21292
21293 21294
21295 21296
21297 21298
21299 21300
21301 21302
21303 21304
21305 21306
21307 21308
21309 21310
21311 21312
21313 21314
21315 21316
21317 21318
21319 21320
21321 21322
21323 21324
21325 21326
21327 21328
21329 21330
21331 21332
21333 21334
21335 21336
21337 21338
21339 21340
21341 21342
21343 21344
21345 21346
21347 21348
21349 21350
21351 21352
21353 21354
21355 21356
21357 21358
21359 21360
21361 21362
21363 21364
21365 21366
21367 21368
21369 21370
21371 21372
21373 21374
21375 21376
21377 21378
21379 21380
21381 21382
21383 21384
21385 21386
21387 21388
21389 21390
21391 21392
21393 21394
21395 21396
21397 21398
21399 21400
21401 21402
21403 21404
21405 21406
21407 21408
21409 21410
21411 21412
21413 21414
21415 21416
21417 21418
21419 21420
21421 21422
21423 21424
21425 21426
21427 21428
21429 21430
21431 21432
21433 21434
21435 21436
21437 21438
21439 21440
21441 21442
21443 21444
21445 21446
21447 21448
21449 21450
21451 21452
21453 21454
21455 21456
21457 21458
21459 21460
21461 21462
21463 21464
21465 21466
21467 21468
21469 21470
21471 21472
21473 21474
21475 21476
21477 21478
21479 21480
21481 21482
21483 21484
21485 21486
21487 21488
21489 21490
21491 21492
21493 21494
21495 21496
21497 21498
21499 21500
21501 21502
21503 21504
21505 21506
21507 21508
21509 21510
21511 21512
21513 21514
21515 21516
21517 21518
21519 21520
21521 21522
21523 21524
21525 21526
21527 21528
21529 21530
21531 21532
21533 21534
21535 21536
21537 21538
21539 21540
21541 21542
21543 21544
21545 21546
21547 21548
21549 21550
21551 21552
21553 21554
21555 21556
21557 21558
21559 21560
21561 21562
21563 21564
21565 21566
21567 21568
21569 21570
21571 21572
21573 21574
21575 21576
21577 21578
21579 21580
21581 21582
21583 21584
21585 21586
21587 21588
21589 21590
21591 21592
21593 21594
21595 21596
21597 21598
21599 21600
21601 21602
21603 21604
21605 21606
21607 21608
21609 21610
21611 21612
21613 21614
21615 21616
21617 21618
21619 21620
21621 21622
21623 21624
21625 21626
21627 21628
21629 21630
21631 21632
21633 21634
21635 21636
21637 21638
21639 21640
21641 21642
21643 21644
21645 21646
21647 21648
21649 21650
21651 21652
21653 21654
21655 21656
21657 21658
21659 21660
21661 21662
21663 21664
21665 21666
21667 21668
21669 21670
21671 21672
21673 21674
21675 21676
21677 21678
21679 21680
21681 21682
21683 21684
21685 21686
21687 21688
21689 21690
21691 21692
21693 21694
21695 21696
21697 21698
21699 21700
21701 21702
21703 21704
21705 21706
21707 21708
21709 21710
21711 21712
21713 21714
21715 21716
21717 21718
21719 21720
21721 21722
21723 21724
21725 21726
21727 21728
21729 21730
21731 21732
21733 21734
21735 21736
21737 21738
21739 21740
21741 21742
21743 21744
21745 21746
21747 21748
21749 21750
21751 21752
21753 21754
21755 21756
21757 21758
21759 21760
21761 21762
21763 21764
21765 21766
21767 21768
21769 21770
21771 21772
21773 21774
21775 21776
21777 21778
21779 21780
21781 21782
21783 21784
21785 21786
21787 21788
21789 21790
21791 21792
21793 21794
21795 21796
21797 21798
21799 21800
21801 21802
21803 21804
21805 21806
21807 21808
21809 21810
21811 21812
21813 21814
21815 21816
21817 21818
21819 21820
21821 21822
21823 21824
21825 21826
21827 21828
21829 21830
21831 21832
21833 21834
21835 21836
21837 21838
21839 21840
21841 21842
21843 21844
21845 21846
21847 21848
21849 21850
21851 21852
21853 21854
21855 21856
21857 21858
21859 21860
21861 21862
21863 21864
21865 21866
21867 21868
21869 21870
21871 21872
21873 21874
21875 21876
21877 21878
21879 21880
21881 21882
21883 21884
21885 21886
21887 21888
21889 21890
21891 21892
21893 21894
21895 21896
21897 21898
21899 21900
21901 21902
21903 21904
21905 21906
21907 21908
21909 21910
21911 21912
21913 21914
21915 21916
21917 21918
21919 21920
21921 21922
21923 21924
21925 21926
21927 21928
21929 21930
21931 21932
21933 21934
21935 21936
21937 21938
21939 21940
21941 21942
21943 21944
21945 21946
21947 21948
21949 21950
21951 21952
21953 21954
21955 21956
21957 21958
21959 21960
21961 21962
21963 21964
21965 21966
21967 21968
21969 21970
21971 21972
21973 21974
21975 21976
21977 21978
21979 21980
21981 21982
21983 21984
21985 21986
21987 21988
21989 21990
21991 21992
21993 21994
21995 21996
21997 21998
21999 22000
22001 22002
22003 22004
22005 22006
22007 22008
22009 22010
22011 22012
22013 22014
22015 22016
22017 22018
22019 22020
22021 22022
22023 22024
22025 22026
22027 22028
22029 22030
22031 22032
22033 22034
22035 22036
22037 22038
22039 22040
22041 22042
22043 22044
22045 22046
22047 22048
22049 22050
22051 22052
22053 22054
22055 22056
22057 22058
22059 22060
22061 22062
22063 22064
22065 22066
22067 22068
22069 22070
22071 22072
22073 22074
22075 22076
22077 22078
22079 22080
22081 22082
22083 22084
22085 22086
22087 22088
22089 22090
22091 22092
22093 22094
22095 22096
22097 22098
22099 22100
22101 22102
22103 22104
22105 22106
22107 22108
22109 22110
22111 22112
22113 22114
22115 22116
22117 22118
22119 22120
22121 22122
22123 22124
22125 22126
22127 22128
22129 22130
22131 22132
22133 22134
22135 22136
22137 22138
22139 22140
22141 22142
22143 22144
22145 22146
22147 22148
22149 22150
22151 22152
22153 22154
22155 22156
22157 22158
22159 22160
22161 22162
22163 22164
22165 22166
22167 22168
22169 22170
22171 22172
22173 22174
22175 22176
22177 22178
22179 22180
22181 22182
22183 22184
22185 22186
22187 22188
22189 22190
22191 22192
22193 22194
22195 22196
22197 22198
22199 22200
22201 22202
22203 22204
22205 22206
22207 22208
22209 22210
22211 22212
22213 22214
22215 22216
22217 22218
22219 22220
22221 22222
22223 22224
22225 22226
22227 22228
22229 22230
22231 22232
22233 22234
22235 22236
22237 22238
22239 22240
22241 22242
22243 22244
22245 22246
22247 22248
22249 22250
22251 22252
22253 22254
22255 22256
22257 22258
22259 22260
22261 22262
22263 22264
22265 22266
22267 22268
22269 22270
22271 22272
22273 22274
22275 22276
22277 22278
22279 22280
22281 22282
22283 22284
22285 22286
22287 22288
22289 22290
22291 22292
22293 22294
22295 22296
22297 22298
22299 22300
22301 22302
22303 22304
22305 22306
22307 22308
22309 22310
22311 22312
22313 22314
22315 22316
22317 22318
22319 22320
22321 22322
22323 22324
22325 22326
22327 22328
22329 22330
22331 22332
22333 22334
22335 22336
22337 22338
22339 22340
22341 22342
22343 22344
22345 22346
22347 22348
22349 22350
22351 22352
22353 22354
22355 22356
22357 22358
22359 22360
22361 22362
22363 22364
22365 22366
22367 22368
22369 22370
22371 22372
22373 22374
22375 22376
22377 22378
22379 22380
22381 22382
22383 22384
22385 22386
22387 22388
22389 22390
22391 22392
22393 22394
22395 22396
22397 22398
22399 22400
22401 22402
22403 22404
22405 22406
22407 22408
22409 22410
22411 22412
22413 22414
22415 22416
22417 22418
22419 22420
22421 22422
22423 22424
22425 22426
22427 22428
22429 22430
22431 22432
22433 22434
22435 22436
22437 22438
22439 22440
22441 22442
22443 22444
22445 22446
22447 22448
22449 22450
22451 22452
22453 22454
22455 22456
22457 22458
22459 22460
22461 22462
22463 22464
22465 22466
22467 22468
22469 22470
22471 22472
22473 22474
22475 22476
22477 22478
22479 22480
22481 22482
22483 22484
22485 22486
22487 22488
22489 22490
22491 22492
22493 22494
22495 22496
22497 22498
22499 22500
22501 22502
22503 22504
22505 22506
22507 22508
22509 22510
22511 22512
22513 22514
22515 22516
22517 22518
22519 22520
22521 22522
22523 22524
22525 22526
22527 22528
22529 22530
22531 22532
22533 22534
22535 22536
22537 22538
22539 22540
22541 22542
22543 22544
22545 22546
22547 22548
22549 22550
22551 22552
22553 22554
22555 22556
22557 22558
22559 22560
22561 22562
22563 22564
22565 22566
22567 22568
22569 22570
22571 22572
22573 22574
22575 22576
22577 22578
22579 22580
22581 22582
22583 22584
22585 22586
22587 22588
22589 22590
22591 22592
22593 22594
22595 22596
22597 22598
22599 22600
22601 22602
22603 22604
22605 22606
22607 22608
22609 22610
22611 22612
22613 22614
22615 22616
22617 22618
22619 22620
22621 22622
22623 22624
22625 22626
22627 22628
22629 22630
22631 22632
22633 22634
22635 22636
22637 22638
22639 22640
22641 22642
22643 22644
22645 22646
22647 22648
22649 22650
22651 22652
22653 22654
22655 22656
22657 22658
22659 22660
22661 22662
22663 22664
22665 22666
22667 22668
22669 22670
22671 22672
22673 22674
22675 22676
22677 22678
22679 22680
22681 22682
22683 22684
22685 22686
22687 22688
22689 22690
22691 22692
22693 22694
22695 22696
22697 22698
22699 22700
22701 22702
22703 22704
22705 22706
22707 22708
22709 22710
22711 22712
22713 22714
22715 22716
22717 22718
22719 22720
22721 22722
22723 22724
22725 22726
22727 22728
22729 22730
22731 22732
22733 22734
22735 22736
22737 22738
22739 22740
22741 22742
22743 22744
22745 22746
22747 22748
22749 22750
22751 22752
22753 22754
22755 22756
22757 22758
22759 22760
22761 22762
22763 22764
22765 22766
22767 22768
22769 22770
22771 22772
22773 22774
22775 22776
22777 22778
22779 22780
22781 22782
22783 22784
22785 22786
22787 22788
22789 22790
22791 22792
22793 22794
22795 22796
22797 22798
22799 22800
22801 22802
22803 22804
22805 22806
22807 22808
22809 22810
22811 22812
22813 22814
22815 22816
22817 22818
22819 22820
22821 22822
22823 22824
22825 22826
22827 22828
22829 22830
22831 22832
22833 22834
22835 22836
22837 22838
22839 22840
22841 22842
22843 22844
22845 22846
22847 22848
22849 22850
22851 22852
22853 22854
22855 22856
22857 22858
22859 22860
22861 22862
22863 22864
22865 22866
22867 22868
22869 22870
22871 22872
22873 22874
22875 22876
22877 22878
22879 22880
22881 22882
22883 22884
22885 22886
22887 22888
22889 22890
22891 22892
22893 22894
22895 22896
22897 22898
22899 22900
22901 22902
22903 22904
22905 22906
22907 22908
22909 22910
22911 22912
22913 22914
22915 22916
22917 22918
22919 22920
22921 22922
22923 22924
22925 22926
22927 22928
22929 22930
22931 22932
22933 22934
22935 22936
22937 22938
22939 22940
22941 22942
22943 22944
22945 22946
22947 22948
22949 22950
22951 22952
22953 22954
22955 22956
22957 22958
22959 22960
22961 22962
22963 22964
22965 22966
22967 22968
22969 22970
22971 22972
22973 22974
22975 22976
22977 22978
22979 22980
22981 22982
22983 22984
22985 22986
22987 22988
22989 22990
22991 22992
22993 22994
22995 22996
22997 22998
22999 23000
23001 23002
23003 23004
23005 23006
23007 23008
23009 23010
23011 23012
23013 23014
23015 23016
23017 23018
23019 23020
23021 23022
23023 23024
23025 23026
23027 23028
23029 23030
23031 23032
23033 23034
23035 23036
23037 23038
23039 23040
23041 23042
23043 23044
23045 23046
23047 23048
23049 23050
23051 23052
23053 23054
23055 23056
23057 23058
23059 23060
23061 23062
23063 23064
23065 23066
23067 23068
23069 23070
23071 23072
23073 23074
23075 23076
23077 23078
23079 23080
23081 23082
23083 23084
23085 23086
23087 23088
23089 23090
23091 23092
23093 23094
23095 23096
23097 23098
23099 23100
23101 23102
23103 23104
23105 23106
23107 23108
23109 23110
23111 23112
23113 23114
23115 23116
23117 23118
23119 23120
23121 23122
23123 23124
23125 23126
23127 23128
23129 23130
23131 23132
23133 23134
23135 23136
23137 23138
23139 23140
23141 23142
23143 23144
23145 23146
23147 23148
23149 23150
23151 23152
23153 23154
23155 23156
23157 23158
23159 23160
23161 23162
23163 23164
23165 23166
23167 23168
23169 23170
23171 23172
23173 23174
23175 23176
23177 23178
23179 23180
23181 23182
23183 23184
23185 23186
23187 23188
23189 23190
23191 23192
23193 23194
23195 23196
23197 23198
23199 23200
23201 23202
23203 23204
23205 23206
23207 23208
23209 23210
23211 23212
23213 23214
23215 23216
23217 23218
23219 23220
23221 23222
23223 23224
23225 23226
23227 23228
23229 23230
23231 23232
23233 23234
23235 23236
23237 23238
23239 23240
23241 23242
23243 23244
23245 23246
23247 23248
23249 23250
23251 23252
23253 23254
23255 23256
23257 23258
23259 23260
23261 23262
23263 23264
23265 23266
23267 23268
23269 23270
23271 23272
23273 23274
23275 23276
23277 23278
23279 23280
23281 23282
23283 23284
23285 23286
23287 23288
23289 23290
23291 23292
23293 23294
23295 23296
23297 23298
23299 23300
23301 23302
23303 23304
23305 23306
23307 23308
23309 23310
23311 23312
23313 23314
23315 23316
23317 23318
23319 23320
23321 23322
23323 23324
23325 23326
23327 23328
23329 23330
23331 23332
23333 23334
23335 23336
23337 23338
23339 23340
23341 23342
23343 23344
23345 23346
23347 23348
23349 23350
23351 23352
23353 23354
23355 23356
23357 23358
23359 23360
23361 23362
23363 23364
23365 23366
23367 23368
23369 23370
23371 23372
23373 23374
23375 23376
23377 23378
23379 23380
23381 23382
23383 23384
23385 23386
23387 23388
23389 23390
23391 23392
23393 23394
23395 23396
23397 23398
23399 23400
23401 23402
23403 23404
23405 23406
23407 23408
23409 23410
23411 23412
23413 23414
23415 23416
23417 23418
23419 23420
23421 23422
23423 23424
23425 23426
23427 23428
23429 23430
23431 23432
23433 23434
23435 23436
23437 23438
23439 23440
23441 23442
23443 23444
23445 23446
23447 23448
23449 23450
23451 23452
23453 23454
23455 23456
23457 23458
23459 23460
23461 23462
23463 23464
23465 23466
23467 23468
23469 23470
23471 23472
23473 23474
23475 23476
23477 23478
23479 23480
23481 23482
23483 23484
23485 23486
23487 23488
23489 23490
23491 23492
23493 23494
23495 23496
23497 23498
23499 23500
23501 23502
23503 23504
23505 23506
23507 23508
23509 23510
23511 23512
23513 23514
23515 23516
23517 23518
23519 23520
23521 23522
23523 23524
23525 23526
23527 23528
23529 23530
23531 23532
23533 23534
23535 23536
23537 23538
23539 23540
23541 23542
23543 23544
23545 23546
23547 23548
23549 23550
23551 23552
23553 23554
23555 23556
23557 23558
23559 23560
23561 23562
23563 23564
23565 23566
23567 23568
23569 23570
23571 23572
23573 23574
23575 23576
23577 23578
23579 23580
23581 23582
23583 23584
23585 23586
23587 23588
23589 23590
23591 23592
23593 23594
23595 23596
23597 23598
23599 23600
23601 23602
23603 23604
23605 23606
23607 23608
23609 23610
23611 23612
23613 23614
23615 23616
23617 23618
23619 23620
23621 23622
23623 23624
23625 23626
23627 23628
23629 23630
23631 23632
23633 23634
23635 23636
23637 23638
23639 23640
23641 23642
23643 23644
23645 23646
23647 23648
23649 23650
23651 23652
23653 23654
23655 23656
23657 23658
23659 23660
23661 23662
23663 23664
23665 23666
23667 23668
23669 23670
23671 23672
23673 23674
23675 23676
23677 23678
23679 23680
23681 23682
23683 23684
23685 23686
23687 23688
23689 23690
23691 23692
23693 23694
23695 23696
23697 23698
23699 23700
23701 23702
23703 23704
23705 23706
23707 23708
23709 23710
23711 23712
23713 23714
23715 23716
23717 23718
23719 23720
23721 23722
23723 23724
23725 23726
23727 23728
23729 23730
23731 23732
23733 23734
23735 23736
23737 23738
23739 23740
23741 23742
23743 23744
23745 23746
23747 23748
23749 23750
23751 23752
23753 23754
23755 23756
23757 23758
23759 23760
23761 23762
23763 23764
23765 23766
23767 23768
23769 23770
23771 23772
23773 23774
23775 23776
23777 23778
23779 23780
23781 23782
23783 23784
23785 23786
23787 23788
23789 23790
23791 23792
23793 23794
23795 23796
23797 23798
23799 23800
23801 23802
23803 23804
23805 23806
23807 23808
23809 23810
23811 23812
23813 23814
23815 23816
23817 23818
23819 23820
23821 23822
23823 23824
23825 23826
23827 23828
23829 23830
23831 23832
23833 23834
23835 23836
23837 23838
23839 23840
23841 23842
23843 23844
23845 23846
23847 23848
23849 23850
23851 23852
23853 23854
23855 23856
23857 23858
23859 23860
23861 23862
23863 23864
23865 23866
23867 23868
23869 23870
23871 23872
23873 23874
23875 23876
23877 23878
23879 23880
23881 23882
23883 23884
23885 23886
23887 23888
23889 23890
23891 23892
23893 23894
23895 23896
23897 23898
23899 23900
23901 23902
23903 23904
23905 23906
23907 23908
23909 23910
23911 23912
23913 23914
23915 23916
23917 23918
23919 23920
23921 23922
23923 23924
23925 23926
23927 23928
23929 23930
23931 23932
23933 23934
23935 23936
23937 23938
23939 23940
23941 23942
23943 23944
23945 23946
23947 23948
23949 23950
23951 23952
23953 23954
23955 23956
23957 23958
23959 23960
23961 23962
23963 23964
23965 23966
23967 23968
23969 23970
23971 23972
23973 23974
23975 23976
23977 23978
23979 23980
23981 23982
23983 23984
23985 23986
23987 23988
23989 23990
23991 23992
23993 23994
23995 23996
23997 23998
23999 24000
24001 24002
24003 24004
24005 24006
24007 24008
24009 24010
24011 24012
24013 24014
24015 24016
24017 24018
24019 24020
24021 24022
24023 24024
24025 24026
24027 24028
24029 24030
24031 24032
24033 24034
24035 24036
24037 24038
24039 24040
24041 24042
24043 24044
24045 24046
24047 24048
24049 24050
24051 24052
24053 24054
24055 24056
24057 24058
24059 24060
24061 24062
24063 24064
24065 24066
24067 24068
24069 24070
24071 24072
24073 24074
24075 24076
24077 24078
24079 24080
24081 24082
24083 24084
24085 24086
24087 24088
24089 24090
24091 24092
24093 24094
24095 24096
24097 24098
24099 24100
24101 24102
24103 24104
24105 24106
24107 24108
24109 24110
24111 24112
24113 24114
24115 24116
24117 24118
24119 24120
24121 24122
24123 24124
24125 24126
24127 24128
24129 24130
24131 24132
24133 24134
24135 24136
24137 24138
24139 24140
24141 24142
24143 24144
24145 24146
24147 24148
24149 24150
24151 24152
24153 24154
24155 24156
24157 24158
24159 24160
24161 24162
24163 24164
24165 24166
24167 24168
24169 24170
24171 24172
24173 24174
24175 24176
24177 24178
24179 24180
24181 24182
24183 24184
24185 24186
24187 24188
24189 24190
24191 24192
24193 24194
24195 24196
24197 24198
24199 24200
24201 24202
24203 24204
24205 24206
24207 24208
24209 24210
24211 24212
24213 24214
24215 24216
24217 24218
24219 24220
24221 24222
24223 24224
24225 24226
24227 24228
24229 24230
24231 24232
24233 24234
24235 24236
24237 24238
24239 24240
24241 24242
24243 24244
24245 24246
24247 24248
24249 24250
24251 24252
24253 24254
24255 24256
24257 24258
24259 24260
24261 24262
24263 24264
24265 24266
24267 24268
24269 24270
24271 24272
24273 24274
24275 24276
24277 24278
24279 24280
24281 24282
24283 24284
24285 24286
24287 24288
24289 24290
24291 24292
24293 24294
24295 24296
24297 24298
24299 24300
24301 24302
24303 24304
24305 24306
24307 24308
24309 24310
24311 24312
24313 24314
24315 24316
24317 24318
24319 24320
24321 24322
24323 24324
24325 24326
24327 24328
24329 24330
24331 24332
24333 24334
24335 24336
24337 24338
24339 24340
24341 24342
24343 24344
24345 24346
24347 24348
24349 24350
24351 24352
24353 24354
24355 24356
24357 24358
24359 24360
24361 24362
24363 24364
24365 24366
24367 24368
24369 24370
24371 24372
24373 24374
24375 24376
24377 24378
24379 24380
24381 24382
24383 24384
24385 24386
24387 24388
24389 24390
24391 24392
24393 24394
24395 24396
24397 24398
24399 24400
24401 24402
24403 24404
24405 24406
24407 24408
24409 24410
24411 24412
24413 24414
24415 24416
24417 24418
24419 24420
24421 24422
24423 24424
24425 24426
24427 24428
24429 24430
24431 24432
24433 24434
24435 24436
24437 24438
24439 24440
24441 24442
24443 24444
24445 24446
24447 24448
24449 24450
24451 24452
24453 24454
24455 24456
24457 24458
24459 24460
24461 24462
24463 24464
24465 24466
24467 24468
24469 24470
24471 24472
24473 24474
24475 24476
24477 24478
24479 24480
24481 24482
24483 24484
24485 24486
24487 24488
24489 24490
24491 24492
24493 24494
24495 24496
24497 24498
24499 24500
24501 24502
24503 24504
24505 24506
24507 24508
24509 24510
24511 24512
24513 24514
24515 24516
24517 24518
24519 24520
24521 24522
24523 24524
24525 24526
24527 24528
24529 24530
24531 24532
24533 24534
24535 24536
24537 24538
24539 24540
24541 24542
24543 24544
24545 24546
24547 24548
24549 24550
24551 24552
24553 24554
24555 24556
24557 24558
24559 24560
24561 24562
24563 24564
24565 24566
24567 24568
24569 24570
24571 24572
24573 24574
24575 24576
24577 24578
24579 24580
24581 24582
24583 24584
24585 24586
24587 24588
24589 24590
24591 24592
24593 24594
24595 24596
24597 24598
24599 24600
24601 24602
24603 24604
24605 24606
24607 24608
24609 24610
24611 24612
24613 24614
24615 24616
24617 24618
24619 24620
24621 24622
24623 24624
24625 24626
24627 24628
24629 24630
24631 24632
24633 24634
24635 24636
24637 24638
24639 24640
24641 24642
24643 24644
24645 24646
24647 24648
24649 24650
24651 24652
24653 24654
24655 24656
24657 24658
24659 24660
24661 24662
24663 24664
24665 24666
24667 24668
24669 24670
24671 24672
24673 24674
24675 24676
24677 24678
24679 24680
24681 24682
24683 24684
24685 24686
24687 24688
24689 24690
24691 24692
24693 24694
24695 24696
24697 24698
24699 24700
24701 24702
24703 24704
24705 24706
24707 24708
24709 24710
24711 24712
24713 24714
24715 24716
24717 24718
24719 24720
24721 24722
24723 24724
24725 24726
24727 24728
24729 24730
24731 24732
24733 24734
24735 24736
24737 24738
24739 24740
24741 24742
24743 24744
24745 24746
24747 24748
24749 24750
24751 24752
24753 24754
24755 24756
24757 24758
24759 24760
24761 24762
24763 24764
24765 24766
24767 24768
24769 24770
24771 24772
24773 24774
24775 24776
24777 24778
24779 24780
24781 24782
24783 24784
24785 24786
24787 24788
24789 24790
24791 24792
24793 24794
24795 24796
24797 24798
24799 24800
24801 24802
24803 24804
24805 24806
24807 24808
24809 24810
24811 24812
24813 24814
24815 24816
24817 24818
24819 24820
24821 24822
24823 24824
24825 24826
24827 24828
24829 24830
24831 24832
24833 24834
24835 24836
24837 24838
24839 24840
24841 24842
24843 24844
24845 24846
24847 24848
24849 24850
24851 24852
24853 24854
24855 24856
24857 24858
24859 24860
24861 24862
24863 24864
24865 24866
24867 24868
24869 24870
24871 24872
24873 24874
24875 24876
24877 24878
24879 24880
24881 24882
24883 24884
24885 24886
24887 24888
24889 24890
24891 24892
24893 24894
24895 24896
24897 24898
24899 24900
24901 24902
24903 24904
24905 24906
24907 24908
24909 24910
24911 24912
24913 24914
24915 24916
24917 24918
24919 24920
24921 24922
24923 24924
24925 24926
24927 24928
24929 24930
24931 24932
24933 24934
24935 24936
24937 24938
24939 24940
24941 24942
24943 24944
24945 24946
24947 24948
24949 24950
24951 24952
24953 24954
24955 24956
24957 24958
24959 24960
24961 24962
24963 24964
24965 24966
24967 24968
24969 24970
24971 24972
24973 24974
24975 24976
24977 24978
24979 24980
24981 24982
24983 24984
24985 24986
24987 24988
24989 24990
24991 24992
24993 24994
24995 24996
24997 24998
24999 25000
25001 25002
25003 25004
25005 25006
25007 25008
25009 25010
25011 25012
25013 25014
25015 25016
25017 25018
25019 25020
25021 25022
25023 25024
25025 25026
25027 25028
25029 25030
25031 25032
25033 25034
25035 25036
25037 25038
25039 25040
25041 25042
25043 25044
25045 25046
25047 25048
25049 25050
25051 25052
25053 25054
25055 25056
25057 25058
25059 25060
25061 25062
25063 25064
25065 25066
25067 25068
25069 25070
25071 25072
25073 25074
25075 25076
25077 25078
25079 25080
25081 25082
25083 25084
25085 25086
25087 25088
25089 25090
25091 25092
25093 25094
25095 25096
25097 25098
25099 25100
25101 25102
25103 25104
25105 25106
25107 25108
25109 25110
25111 25112
25113 25114
25115 25116
25117 25118
25119 25120
25121 25122
25123 25124
25125 25126
25127 25128
25129 25130
25131 25132
25133 25134
25135 25136
25137 25138
25139 25140
25141 25142
25143 25144
25145 25146
25147 25148
25149 25150
25151 25152
25153 25154
25155 25156
25157 25158
25159 25160
25161 25162
25163 25164
25165 25166
25167 25168
25169 25170
25171 25172
25173 25174
25175 25176
25177 25178
25179 25180
25181 25182
25183 25184
25185 25186
25187 25188
25189 25190
25191 25192
25193 25194
25195 25196
25197 25198
25199 25200
25201 25202
25203 25204
25205 25206
25207 25208
25209 25210
25211 25212
25213 25214
25215 25216
25217 25218
25219 25220
25221 25222
25223 25224
25225 25226
25227 25228
25229 25230
25231 25232
25233 25234
25235 25236
25237 25238
25239 25240
25241 25242
25243 25244
25245 25246
25247 25248
25249 25250
25251 25252
25253 25254
25255 25256
25257 25258
25259 25260
25261 25262
25263 25264
25265 25266
25267 25268
25269 25270
25271 25272
25273 25274
25275 25276
25277 25278
25279 25280
25281 25282
25283 25284
25285 25286
25287 25288
25289 25290
25291 25292
25293 25294
25295 25296
25297 25298
25299 25300
25301 25302
25303 25304
25305 25306
25307 25308
25309 25310
25311 25312
25313 25314
25315 25316
25317 25318
25319 25320
25321 25322
25323 25324
25325 25326
25327 25328
25329 25330
25331 25332
25333 25334
25335 25336
25337 25338
25339 25340
25341 25342
25343 25344
25345 25346
25347 25348
25349 25350
25351 25352
25353 25354
25355 25356
25357 25358
25359 25360
25361 25362
25363 25364
25365 25366
25367 25368
25369 25370
25371 25372
25373 25374
25375 25376
25377 25378
25379 25380
25381 25382
25383 25384
25385 25386
25387 25388
25389 25390
25391 25392
25393 25394
25395 25396
25397 25398
25399 25400
25401 25402
25403 25404
25405 25406
25407 25408
25409 25410
25411 25412
25413 25414
25415 25416
25417 25418
25419 25420
25421 25422
25423 25424
25425 25426
25427 25428
25429 25430
25431 25432
25433 25434
25435 25436
25437 25438
25439 25440
25441 25442
25443 25444
25445 25446
25447 25448
25449 25450
25451 25452
25453 25454
25455 25456
25457 25458
25459 25460
25461 25462
25463 25464
25465 25466
25467 25468
25469 25470
25471 25472
25473 25474
25475 25476
25477 25478
25479 25480
25481 25482
25483 25484
25485 25486
25487 25488
25489 25490
25491 25492
25493 25494
25495 25496
25497 25498
25499 25500
25501 25502
25503 25504
25505 25506
25507 25508
25509 25510
25511 25512
25513 25514
25515 25516
25517 25518
25519 25520
25521 25522
25523 25524
25525 25526
25527 25528
25529 25530
25531 25532
25533 25534
25535 25536
25537 25538
25539 25540
25541 25542
25543 25544
25545 25546
25547 25548
25549 25550
25551 25552
25553 25554
25555 25556
25557 25558
25559 25560
25561 25562
25563 25564
25565 25566
25567 25568
25569 25570
25571 25572
25573 25574
25575 25576
25577 25578
25579 25580
25581 25582
25583 25584
25585 25586
25587 25588
25589 25590
25591 25592
25593 25594
25595 25596
25597 25598
25599 25600
25601 25602
25603 25604
25605 25606
25607 25608
25609 25610
25611 25612
25613 25614
25615 25616
25617 25618
25619 25620
25621 25622
25623 25624
25625 25626
25627 25628
25629 25630
25631 25632
25633 25634
25635 25636
25637 25638
25639 25640
25641 25642
25643 25644
25645 25646
25647 25648
25649 25650
25651 25652
25653 25654
25655 25656
25657 25658
25659 25660
25661 25662
25663 25664
25665 25666
25667 25668
25669 25670
25671 25672
25673 25674
25675 25676
25677 25678
25679 25680
25681 25682
25683 25684
25685 25686
25687 25688
25689 25690
25691 25692
25693 25694
25695 25696
25697 25698
25699 25700
25701 25702
25703 25704
25705 25706
25707 25708
25709 25710
25711 25712
25713 25714
25715 25716
25717 25718
25719 25720
25721 25722
25723 25724
25725 25726
25727 25728
25729 25730
25731 25732
25733 25734
25735 25736
25737 25738
25739 25740
25741 25742
25743 25744
25745 25746
25747 25748
25749 25750
25751 25752
25753 25754
25755 25756
25757 25758
25759 25760
25761 25762
25763 25764
25765 25766
25767 25768
25769 25770
25771 25772
25773 25774
25775 25776
25777 25778
25779 25780
25781 25782
25783 25784
25785 25786
25787 25788
25789 25790
25791 25792
25793 25794
25795 25796
25797 25798
25799 25800
25801 25802
25803 25804
25805 25806
25807 25808
25809 25810
25811 25812
25813 25814
25815 25816
25817 25818
25819 25820
25821 25822
25823 25824
25825 25826
25827 25828
25829 25830
25831 25832
25833 25834
25835 25836
25837 25838
25839 25840
25841 25842
25843 25844
25845 25846
25847 25848
25849 25850
25851 25852
25853 25854
25855 25856
25857 25858
25859 25860
25861 25862
25863 25864
25865 25866
25867 25868
25869 25870
25871 25872
25873 25874
25875 25876
25877 25878
25879 25880
25881 25882
25883 25884
25885 25886
25887 25888
25889 25890
25891 25892
25893 25894
25895 25896
25897 25898
25899 25900
25901 25902
25903 25904
25905 25906
25907 25908
25909 25910
25911 25912
25913 25914
25915 25916
25917 25918
25919 25920
25921 25922
25923 25924
25925 25926
25927 25928
25929 25930
25931 25932
25933 25934
25935 25936
25937 25938
25939 25940
25941 25942
25943 25944
25945 25946
25947 25948
25949 25950
25951 25952
25953 25954
25955 25956
25957 25958
25959 25960
25961 25962
25963 25964
25965 25966
25967 25968
25969 25970
25971 25972
25973 25974
25975 25976
25977 25978
25979 25980
25981 25982
25983 25984
25985 25986
25987 25988
25989 25990
25991 25992
25993 25994
25995 25996
25997 25998
25999 26000
26001 26002
26003 26004
26005 26006
26007 26008
26009 26010
26011 26012
26013 26014
26015 26016
26017 26018
26019 26020
26021 26022
26023 26024
26025 26026
26027 26028
26029 26030
26031 26032
26033 26034
26035 26036
26037 26038
26039 26040
26041 26042
26043 26044
26045 26046
26047 26048
26049 26050
26051 26052
26053 26054
26055 26056
26057 26058
26059 26060
26061 26062
26063 26064
26065 26066
26067 26068
26069 26070
26071 26072
26073 26074
26075 26076
26077 26078
26079 26080
26081 26082
26083 26084
26085 26086
26087 26088
26089 26090
26091 26092
26093 26094
26095 26096
26097 26098
26099 26100
26101 26102
26103 26104
26105 26106
26107 26108
26109 26110
26111 26112
26113 26114
26115 26116
26117 26118
26119 26120
26121 26122
26123 26124
26125 26126
26127 26128
26129 26130
26131 26132
26133 26134
26135 26136
26137 26138
26139 26140
26141 26142
26143 26144
26145 26146
26147 26148
26149 26150
26151 26152
26153 26154
26155 26156
26157 26158
26159 26160
26161 26162
26163 26164
26165 26166
26167 26168
26169 26170
26171 26172
26173 26174
26175 26176
26177 26178
26179 26180
26181 26182
26183 26184
26185 26186
26187 26188
26189 26190
26191 26192
26193 26194
26195 26196
26197 26198
26199 26200
26201 26202
26203 26204
26205 26206
26207 26208
26209 26210
26211 26212
26213 26214
26215 26216
26217 26218
26219 26220
26221 26222
26223 26224
26225 26226
26227 26228
26229 26230
26231 26232
26233 26234
26235 26236
26237 26238
26239 26240
26241 26242
26243 26244
26245 26246
26247 26248
26249 26250
26251 26252
26253 26254
26255 26256
26257 26258
26259 26260
26261 26262
26263 26264
26265 26266
26267 26268
26269 26270
26271 26272
26273 26274
26275 26276
26277 26278
26279 26280
26281 26282
26283 26284
26285 26286
26287 26288
26289 26290
26291 26292
26293 26294
26295 26296
26297 26298
26299 26300
26301 26302
26303 26304
26305 26306
26307 26308
26309 26310
26311 26312
26313 26314
26315 26316
26317 26318
26319 26320
26321 26322
26323 26324
26325 26326
26327 26328
26329 26330
26331 26332
26333 26334
26335 26336
26337 26338
26339 26340
26341 26342
26343 26344
26345 26346
26347 26348
26349 26350
26351 26352
26353 26354
26355 26356
26357 26358
26359 26360
26361 26362
26363 26364
26365 26366
26367 26368
26369 26370
26371 26372
26373 26374
26375 26376
26377 26378
26379 26380
26381 26382
26383 26384
26385 26386
26387 26388
26389 26390
26391 26392
26393 26394
26395 26396
26397 26398
26399 26400
26401 26402
26403 26404
26405 26406
26407 26408
26409 26410
26411 26412
26413 26414
26415 26416
26417 26418
26419 26420
26421 26422
26423 26424
26425 26426
26427 26428
26429 26430
26431 26432
26433 26434
26435 26436
26437 26438
26439 26440
26441 26442
26443 26444
26445 26446
26447 26448
26449 26450
26451 26452
26453 26454
26455 26456
26457 26458
26459 26460
26461 26462
26463 26464
26465 26466
26467 26468
26469 26470
26471 26472
26473 26474
26475 26476
26477 26478
26479 26480
26481 26482
26483 26484
26485 26486
26487 26488
26489 26490
26491 26492
26493 26494
26495 26496
26497 26498
26499 26500
26501 26502
26503 26504
26505 26506
26507 26508
26509 26510
26511 26512
26513 26514
26515 26516
26517 26518
26519 26520
26521 26522
26523 26524
26525 26526
26527 26528
26529 26530
26531 26532
26533 26534
26535 26536
26537 26538
26539 26540
26541 26542
26543 26544
26545 26546
26547 26548
26549 26550
26551 26552
26553 26554
26555 26556
26557 26558
26559 26560
26561 26562
26563 26564
26565 26566
26567 26568
26569 26570
26571 26572
26573 26574
26575 26576
26577 26578
26579 26580
26581 26582
26583 26584
26585 26586
26587 26588
26589 26590
26591 26592
26593 26594
26595 26596
26597 26598
26599 26600
26601 26602
26603 26604
26605 26606
26607 26608
26609 26610
26611 26612
26613 26614
26615 26616
26617 26618
26619 26620
26621 26622
26623 26624
26625 26626
26627 26628
26629 26630
26631 26632
26633 26634
26635 26636
26637 26638
26639 26640
26641 26642
26643 26644
26645 26646
26647 26648
26649 26650
26651 26652
26653 26654
26655 26656
26657 26658
26659 26660
26661 26662
26663 26664
26665 26666
26667 26668
26669 26670
26671 26672
26673 26674
26675 26676
26677 26678
26679 26680
26681 26682
26683 26684
26685 26686
26687 26688
26689 26690
26691 26692
26693 26694
26695 26696
26697 26698
26699 26700
26701 26702
26703 26704
26705 26706
26707 26708
26709 26710
26711 26712
26713 26714
26715 26716
26717 26718
26719 26720
26721 26722
26723 26724
26725 26726
26727 26728
26729 26730
26731 26732
26733 26734
26735 26736
26737 26738
26739 26740
26741 26742
26743 26744
26745 26746
26747 26748
26749 26750
26751 26752
26753 26754
26755 26756
26757 26758
26759 26760
26761 26762
26763 26764
26765 26766
26767 26768
26769 26770
26771 26772
26773 26774
26775 26776
26777 26778
26779 26780
26781 26782
26783 26784
26785 26786
26787 26788
26789 26790
26791 26792
26793 26794
26795 26796
26797 26798
26799 26800
26801 26802
26803 26804
26805 26806
26807 26808
26809 26810
26811 26812
26813 26814
26815 26816
26817 26818
26819 26820
26821 26822
26823 26824
26825 26826
26827 26828
26829 26830
26831 26832
26833 26834
26835 26836
26837 26838
26839 26840
26841 26842
26843 26844
26845 26846
26847 26848
26849 26850
26851 26852
26853 26854
26855 26856
26857 26858
26859 26860
26861 26862
26863 26864
26865 26866
26867 26868
26869 26870
26871 26872
26873 26874
26875 26876
26877 26878
26879 26880
26881 26882
26883 26884
26885 26886
26887 26888
26889 26890
26891 26892
26893 26894
26895 26896
26897 26898
26899 26900
26901 26902
26903 26904
26905 26906
26907 26908
26909 26910
26911 26912
26913 26914
26915 26916
26917 26918
26919 26920
26921 26922
26923 26924
26925 26926
26927 26928
26929 26930
26931 26932
26933 26934
26935 26936
26937 26938
26939 26940
26941 26942
26943 26944
26945 26946
26947 26948
26949 26950
26951 26952
26953 26954
26955 26956
26957 26958
26959 26960
26961 26962
26963 26964
26965 26966
26967 26968
26969 26970
26971 26972
26973 26974
26975 26976
26977 26978
26979 26980
26981 26982
26983 26984
26985 26986
26987 26988
26989 26990
26991 26992
26993 26994
26995 26996
26997 26998
26999 27000
27001 27002
27003 27004
27005 27006
27007 27008
27009 27010
27011 27012
27013 27014
27015 27016
27017 27018
27019 27020
27021 27022
27023 27024
27025 27026
27027 27028
27029 27030
27031 27032
27033 27034
27035 27036
27037 27038
27039 27040
27041 27042
27043 27044
27045 27046
27047 27048
27049 27050
27051 27052
27053 27054
27055 27056
27057 27058
27059 27060
27061 27062
27063 27064
27065 27066
27067 27068
27069 27070
27071 27072
27073 27074
27075 27076
27077 27078
27079 27080
27081 27082
27083 27084
27085 27086
27087 27088
27089 27090
27091 27092
27093 27094
27095 27096
27097 27098
27099 27100
27101 27102
27103 27104
27105 27106
27107 27108
27109 27110
27111 27112
27113 27114
27115 27116
27117 27118
27119 27120
27121 27122
27123 27124
27125 27126
27127 27128
27129 27130
27131 27132
27133 27134
27135 27136
27137 27138
27139 27140
27141 27142
27143 27144
27145 27146
27147 27148
27149 27150
27151 27152
27153 27154
27155 27156
27157 27158
27159 27160
27161 27162
27163 27164
27165 27166
27167 27168
27169 27170
27171 27172
27173 27174
27175 27176
27177 27178
27179 27180
27181 27182
27183 27184
27185 27186
27187 27188
27189 27190
27191 27192
27193 27194
27195 27196
27197 27198
27199 27200
27201 27202
27203 27204
27205 27206
27207 27208
27209 27210
27211 27212
27213 27214
27215 27216
27217 27218
27219 27220
27221 27222
27223 27224
27225 27226
27227 27228
27229 27230
27231 27232
27233 27234
27235 27236
27237 27238
27239 27240
27241 27242
27243 27244
27245 27246
27247 27248
27249 27250
27251 27252
27253 27254
27255 27256
27257 27258
27259 27260
27261 27262
27263 27264
27265 27266
27267 27268
27269 27270
27271 27272
27273 27274
27275 27276
27277 27278
27279 27280
27281 27282
27283 27284
27285 27286
27287 27288
27289 27290
27291 27292
27293 27294
27295 27296
27297 27298
27299 27300
27301 27302
27303 27304
27305 27306
27307 27308
27309 27310
27311 27312
27313 27314
27315 27316
27317 27318
27319 27320
27321 27322
27323 27324
27325 27326
27327 27328
27329 27330
27331 27332
27333 27334
27335 27336
27337 27338
27339 27340
27341 27342
27343 27344
27345 27346
27347 27348
27349 27350
27351 27352
27353 27354
27355 27356
27357 27358
27359 27360
27361 27362
27363 27364
27365 27366
27367 27368
27369 27370
27371 27372
27373 27374
27375 27376
27377 27378
27379 27380
27381 27382
27383 27384
27385 27386
27387 27388
27389 27390
27391 27392
27393 27394
27395 27396
27397 27398
27399 27400
27401 27402
27403 27404
27405 27406
27407 27408
27409 27410
27411 27412
27413 27414
27415 27416
27417 27418
27419 27420
27421 27422
27423 27424
27425 27426
27427 27428
27429 27430
27431 27432
27433 27434
27435 27436
27437 27438
27439 27440
27441 27442
27443 27444
27445 27446
27447 27448
27449 27450
27451 27452
27453 27454
27455 27456
27457 27458
27459 27460
27461 27462
27463 27464
27465 27466
27467 27468
27469 27470
27471 27472
27473 27474
27475 27476
27477 27478
27479 27480
27481 27482
27483 27484
27485 27486
27487 27488
27489 27490
27491 27492
27493 27494
27495 27496
27497 27498
27499 27500
27501 27502
27503 27504
27505 27506
27507 27508
27509 27510
27511 27512
27513 27514
27515 27516
27517 27518
27519 27520
27521 27522
27523 27524
27525 27526
27527 27528
27529 27530
27531 27532
27533 27534
27535 27536
27537 27538
27539 27540
27541 27542
27543 27544
27545 27546
27547 27548
27549 27550
27551 27552
27553 27554
27555 27556
27557 27558
27559 27560
27561 27562
27563 27564
27565 27566
27567 27568
27569 27570
27571 27572
27573 27574
27575 27576
27577 27578
27579 27580
27581 27582
27583 27584
27585 27586
27587 27588
27589 27590
27591 27592
27593 27594
27595 27596
27597 27598
27599 27600
27601 27602
27603 27604
27605 27606
27607 27608
27609 27610
27611 27612
27613 27614
27615 27616
27617 27618
27619 27620
27621 27622
27623 27624
27625 27626
27627 27628
27629 27630
27631 27632
27633 27634
27635 27636
27637 27638
27639 27640
27641 27642
27643 27644
27645 27646
27647 27648
27649 27650
27651 27652
27653 27654
27655 27656
27657 27658
27659 27660
27661 27662
27663 27664
27665 27666
27667 27668
27669 27670
27671 27672
27673 27674
27675 27676
27677 27678
27679 27680
27681 27682
27683 27684
27685 27686
27687 27688
27689 27690
27691 27692
27693 27694
27695 27696
27697 27698
27699 27700
27701 27702
27703 27704
27705 27706
27707 27708
27709 27710
27711 27712
27713 27714
27715 27716
27717 27718
27719 27720
27721 27722
27723 27724
27725 27726
27727 27728
27729 27730
27731 27732
27733 27734
27735 27736
27737 27738
27739 27740
27741 27742
27743 27744
27745 27746
27747 27748
27749 27750
27751 27752
27753 27754
27755 27756
27757 27758
27759 27760
27761 27762
27763 27764
27765 27766
27767 27768
27769 27770
27771 27772
27773 27774
27775 27776
27777 27778
27779 27780
27781 27782
27783 27784
27785 27786
27787 27788
27789 27790
27791 27792
27793 27794
27795 27796
27797 27798
27799 27800
27801 27802
27803 27804
27805 27806
27807 27808
27809 27810
27811 27812
27813 27814
27815 27816
27817 27818
27819 27820
27821 27822
27823 27824
27825 27826
27827 27828
27829 27830
27831 27832
27833 27834
27835 27836
27837 27838
27839 27840
27841 27842
27843 27844
27845 27846
27847 27848
27849 27850
27851 27852
27853 27854
27855 27856
27857 27858
27859 27860
27861 27862
27863 27864
27865 27866
27867 27868
27869 27870
27871 27872
27873 27874
27875 27876
27877 27878
27879 27880
27881 27882
27883 27884
27885 27886
27887 27888
27889 27890
27891 27892
27893 27894
27895 27896
27897 27898
27899 27900
27901 27902
27903 27904
27905 27906
27907 27908
27909 27910
27911 27912
27913 27914
27915 27916
27917 27918
27919 27920
27921 27922
27923 27924
27925 27926
27927 27928
27929 27930
27931 27932
27933 27934
27935 27936
27937 27938
27939 27940
27941 27942
27943 27944
27945 27946
27947 27948
27949 27950
27951 27952
27953 27954
27955 27956
27957 27958
27959 27960
27961 27962
27963 27964
27965 27966
27967 27968
27969 27970
27971 27972
27973 27974
27975 27976
27977 27978
27979 27980
27981 27982
27983 27984
27985 27986
27987 27988
27989 27990
27991 27992
27993 27994
27995 27996
27997 27998
27999 28000
28001 28002
28003 28004
28005 28006
28007 28008
28009 28010
28011 28012
28013 28014
28015 28016
28017 28018
28019 28020
28021 28022
28023 28024
28025 28026
28027 28028
28029 28030
28031 28032
28033 28034
28035 28036
28037 28038
28039 28040
28041 28042
28043 28044
28045 28046
28047 28048
28049 28050
28051 28052
28053 28054
28055 28056
28057 28058
28059 28060
28061 28062
28063 28064
28065 28066
28067 28068
28069 28070
28071 28072
28073 28074
28075 28076
28077 28078
28079 28080
28081 28082
28083 28084
28085 28086
28087 28088
28089 28090
28091 28092
28093 28094
28095 28096
28097 28098
28099 28100
28101 28102
28103 28104
28105 28106
28107 28108
28109 28110
28111 28112
28113 28114
28115 28116
28117 28118
28119 28120
28121 28122
28123 28124
28125 28126
28127 28128
28129 28130
28131 28132
28133 28134
28135 28136
28137 28138
28139 28140
28141 28142
28143 28144
28145 28146
28147 28148
28149 28150
28151 28152
28153 28154
28155 28156
28157 28158
28159 28160
28161 28162
28163 28164
28165 28166
28167 28168
28169 28170
28171 28172
28173 28174
28175 28176
28177 28178
28179 28180
28181 28182
28183 28184
28185 28186
28187 28188
28189 28190
28191 28192
28193 28194
28195 28196
28197 28198
28199 28200
28201 28202
28203 28204
28205 28206
28207 28208
28209 28210
28211 28212
28213 28214
28215 28216
28217 28218
28219 28220
28221 28222
28223 28224
28225 28226
28227 28228
28229 28230
28231 28232
28233 28234
28235 28236
28237 28238
28239 28240
28241 28242
28243 28244
28245 28246
28247 28248
28249 28250
28251 28252
28253 28254
28255 28256
28257 28258
28259 28260
28261 28262
28263 28264
28265 28266
28267 28268
28269 28270
28271 28272
28273 28274
28275 28276
28277 28278
28279 28280
28281 28282
28283 28284
28285 28286
28287 28288
28289 28290
28291 28292
28293 28294
28295 28296
28297 28298
28299 28300
28301 28302
28303 28304
28305 28306
28307 28308
28309 28310
28311 28312
28313 28314
28315 28316
28317 28318
28319 28320
28321 28322
28323 28324
28325 28326
28327 28328
28329 28330
28331 28332
28333 28334
28335 28336
28337 28338
28339 28340
28341 28342
28343 28344
28345 28346
28347 28348
28349 28350
28351 28352
28353 28354
28355 28356
28357 28358
28359 28360
28361 28362
28363 28364
28365 28366
28367 28368
28369 28370
28371 28372
28373 28374
28375 28376
28377 28378
28379 28380
28381 28382
28383 28384
28385 28386
28387 28388
28389 28390
28391 28392
28393 28394
28395 28396
28397 28398
28399 28400
28401 28402
28403 28404
28405 28406
28407 28408
28409 28410
28411 28412
28413 28414
28415 28416
28417 28418
28419 28420
28421 28422
28423 28424
28425 28426
28427 28428
28429 28430
28431 28432
28433 28434
28435 28436
28437 28438
28439 28440
28441 28442
28443 28444
28445 28446
28447 28448
28449 28450
28451 28452
28453 28454
28455 28456
28457 28458
28459 28460
28461 28462
28463 28464
28465 28466
28467 28468
28469 28470
28471 28472
28473 28474
28475 28476
28477 28478
28479 28480
28481 28482
28483 28484
28485 28486
28487 28488
28489 28490
28491 28492
28493 28494
28495 28496
28497 28498
28499 28500
28501 28502
28503 28504
28505 28506
28507 28508
28509 28510
28511 28512
28513 28514
28515 28516
28517 28518
28519 28520
28521 28522
28523 28524
28525 28526
28527 28528
28529 28530
28531 28532
28533 28534
28535 28536
28537 28538
28539 28540
28541 28542
28543 28544
28545 28546
28547 28548
28549 28550
28551 28552
28553 28554
28555 28556
28557 28558
28559 28560
28561 28562
28563 28564
28565 28566
28567 28568
28569 28570
28571 28572
28573 28574
28575 28576
28577 28578
28579 28580
28581 28582
28583 28584
28585 28586
28587 28588
28589 28590
28591 28592
28593 28594
28595 28596
28597 28598
28599 28600
28601 28602
28603 28604
28605 28606
28607 28608
28609 28610
28611 28612
28613 28614
28615 28616
28617 28618
28619 28620
28621 28622
28623 28624
28625 28626
28627 28628
28629 28630
28631 28632
28633 28634
28635 28636
28637 28638
28639 28640
28641 28642
28643 28644
28645 28646
28647 28648
28649 28650
28651 28652
28653 28654
28655 28656
28657 28658
28659 28660
28661 28662
28663 28664
28665 28666
28667 28668
28669 28670
28671 28672
28673 28674
28675 28676
28677 28678
28679 28680
28681 28682
28683 28684
28685 28686
28687 28688
28689 28690
28691 28692
28693 28694
28695 28696
28697 28698
28699 28700
28701 28702
28703 28704
28705 28706
28707 28708
28709 28710
28711 28712
28713 28714
28715 28716
28717 28718
28719 28720
28721 28722
28723 28724
28725 28726
28727 28728
28729 28730
28731 28732
28733 28734
28735 28736
28737 28738
28739 28740
28741 28742
28743 28744
28745 28746
28747 28748
28749 28750
28751 28752
28753 28754
28755 28756
28757 28758
28759 28760
28761 28762
28763 28764
28765 28766
28767 28768
28769 28770
28771 28772
28773 28774
28775 28776
28777 28778
28779 28780
28781 28782
28783 28784
28785 28786
28787 28788
28789 28790
28791 28792
28793 28794
28795 28796
28797 28798
28799 28800
28801 28802
28803 28804
28805 28806
28807 28808
28809 28810
28811 28812
28813 28814
28815 28816
28817 28818
28819 28820
28821 28822
28823 28824
28825 28826
28827 28828
28829 28830
28831 28832
28833 28834
28835 28836
28837 28838
28839 28840
28841 28842
28843 28844
28845 28846
28847 28848
28849 28850
28851 28852
28853 28854
28855 28856
28857 28858
28859 28860
28861 28862
28863 28864
28865 28866
28867 28868
28869 28870
28871 28872
28873 28874
28875 28876
28877 28878
28879 28880
28881 28882
28883 28884
28885 28886
28887 28888
28889 28890
28891 28892
28893 28894
28895 28896
28897 28898
28899 28900
28901 28902
28903 28904
28905 28906
28907 28908
28909 28910
28911 28912
28913 28914
28915 28916
28917 28918
28919 28920
28921 28922
28923 28924
28925 28926
28927 28928
28929 28930
28931 28932
28933 28934
28935 28936
28937 28938
28939 28940
28941 28942
28943 28944
28945 28946
28947 28948
28949 28950
28951 28952
28953 28954
28955 28956
28957 28958
28959 28960
28961 28962
28963 28964
28965 28966
28967 28968
28969 28970
28971 28972
28973 28974
28975 28976
28977 28978
28979 28980
28981 28982
28983 28984
28985 28986
28987 28988
28989 28990
28991 28992
28993 28994
28995 28996
28997 28998
28999 29000
29001 29002
29003 29004
29005 29006
29007 29008
29009 29010
29011 29012
29013 29014
29015 29016
29017 29018
29019 29020
29021 29022
29023 29024
29025 29026
29027 29028
29029 29030
29031 29032
29033 29034
29035 29036
29037 29038
29039 29040
29041 29042
29043 29044
29045 29046
29047 29048
29049 29050
29051 29052
29053 29054
29055 29056
29057 29058
29059 29060
29061 29062
29063 29064
29065 29066
29067 29068
29069 29070
29071 29072
29073 29074
29075 29076
29077 29078
29079 29080
29081 29082
29083 29084
29085 29086
29087 29088
29089 29090
29091 29092
29093 29094
29095 29096
29097 29098
29099 29100
29101 29102
29103 29104
29105 29106
29107 29108
29109 29110
29111 29112
29113 29114
29115 29116
29117 29118
29119 29120
29121 29122
29123 29124
29125 29126
29127 29128
29129 29130
29131 29132
29133 29134
29135 29136
29137 29138
29139 29140
29141 29142
29143 29144
29145 29146
29147 29148
29149 29150
29151 29152
29153 29154
29155 29156
29157 29158
29159 29160
29161 29162
29163 29164
29165 29166
29167 29168
29169 29170
29171 29172
29173 29174
29175 29176
29177 29178
29179 29180
29181 29182
29183 29184
29185 29186
29187 29188
29189 29190
29191 29192
29193 29194
29195 29196
29197 29198
29199 29200
29201 29202
29203 29204
29205 29206
29207 29208
29209 29210
29211 29212
29213 29214
29215 29216
29217 29218
29219 29220
29221 29222
29223 29224
29225 29226
29227 29228
29229 29230
29231 29232
29233 29234
29235 29236
29237 29238
29239 29240
29241 29242
29243 29244
29245 29246
29247 29248
29249 29250
29251 29252
29253 29254
29255 29256
29257 29258
29259 29260
29261 29262
29263 29264
29265 29266
29267 29268
29269 29270
29271 29272
29273 29274
29275 29276
29277 29278
29279 29280
29281 29282
29283 29284
29285 29286
29287 29288
29289 29290
29291 29292
29293 29294
29295 29296
29297 29298
29299 29300
29301 29302
29303 29304
29305 29306
29307 29308
29309 29310
29311 29312
29313 29314
29315 29316
29317 29318
29319 29320
29321 29322
29323 29324
29325 29326
29327 29328
29329 29330
29331 29332
29333 29334
29335 29336
29337 29338
29339 29340
29341 29342
29343 29344
29345 29346
29347 29348
29349 29350
29351 29352
29353 29354
29355 29356
29357 29358
29359 29360
29361 29362
29363 29364
29365 29366
29367 29368
29369 29370
29371 29372
29373 29374
29375 29376
29377 29378
29379 29380
29381 29382
29383 29384
29385 29386
29387 29388
29389 29390
29391 29392
29393 29394
29395 29396
29397 29398
29399 29400
29401 29402
29403 29404
29405 29406
29407 29408
29409 29410
29411 29412
29413 29414
29415 29416
29417 29418
29419 29420
29421 29422
29423 29424
29425 29426
29427 29428
29429 29430
29431 29432
29433 29434
29435 29436
29437 29438
29439 29440
29441 29442
29443 29444
29445 29446
29447 29448
29449 29450
29451 29452
29453 29454
29455 29456
29457 29458
29459 29460
29461 29462
29463 29464
29465 29466
29467 29468
29469 29470
29471 29472
29473 29474
29475 29476
29477 29478
29479 29480
29481 29482
29483 29484
29485 29486
29487 29488
29489 29490
29491 29492
29493 29494
29495 29496
29497 29498
29499 29500
29501 29502
29503 29504
29505 29506
29507 29508
29509 29510
29511 29512
29513 29514
29515 29516
29517 29518
29519 29520
29521 29522
29523 29524
29525 29526
29527 29528
29529 29530
29531 29532
29533 29534
29535 29536
29537 29538
29539 29540
29541 29542
29543 29544
29545 29546
29547 29548
29549 29550
29551 29552
29553 29554
29555 29556
29557 29558
29559 29560
29561 29562
29563 29564
29565 29566
29567 29568
29569 29570
29571 29572
29573 29574
29575 29576
29577 29578
29579 29580
29581 29582
29583 29584
29585 29586
29587 29588
29589 29590
29591 29592
29593 29594
29595 29596
29597 29598
29599 29600
29601 29602
29603 29604
29605 29606
29607 29608
29609 29610
29611 29612
29613 29614
29615 29616
29617 29618
29619 29620
29621 29622
29623 29624
29625 29626
29627 29628
29629 29630
29631 29632
29633 29634
29635 29636
29637 29638
29639 29640
29641 29642
29643 29644
29645 29646
29647 29648
29649 29650
29651 29652
29653 29654
29655 29656
29657 29658
29659 29660
29661 29662
29663 29664
29665 29666
29667 29668
29669 29670
29671 29672
29673 29674
29675 29676
29677 29678
29679 29680
29681 29682
29683 29684
29685 29686
29687 29688
29689 29690
29691 29692
29693 29694
29695 29696
29697 29698
29699 29700
29701 29702
29703 29704
29705 29706
29707 29708
29709 29710
29711 29712
29713 29714
29715 29716
29717 29718
29719 29720
29721 29722
29723 29724
29725 29726
29727 29728
29729 29730
29731 29732
29733 29734
29735 29736
29737 29738
29739 29740
29741 29742
29743 29744
29745 29746
29747 29748
29749 29750
29751 29752
29753 29754
29755 29756
29757 29758
29759 29760
29761 29762
29763 29764
29765 29766
29767 29768
29769 29770
29771 29772
29773 29774
29775 29776
29777 29778
29779 29780
29781 29782
29783 29784
29785 29786
29787 29788
29789 29790
29791 29792
29793 29794
29795 29796
29797 29798
29799 29800
29801 29802
29803 29804
29805 29806
29807 29808
29809 29810
29811 29812
29813 29814
29815 29816
29817 29818
29819 29820
29821 29822
29823 29824
29825 29826
29827 29828
29829 29830
29831 29832
29833 29834
29835 29836
29837 29838
29839 29840
29841 29842
29843 29844
29845 29846
29847 29848
29849 29850
29851 29852
29853 29854
29855 29856
29857 29858
29859 29860
29861 29862
29863 29864
29865 29866
29867 29868
29869 29870
29871 29872
29873 29874
29875 29876
29877 29878
29879 29880
29881 29882
29883 29884
29885 29886
29887 29888
29889 29890
29891 29892
29893 29894
29895 29896
29897 29898
29899 29900
29901 29902
29903 29904
29905 29906
29907 29908
29909 29910
29911 29912
29913 29914
29915 29916
29917 29918
29919 29920
29921 29922
29923 29924
29925 29926
29927 29928
29929 29930
29931 29932
29933 29934
29935 29936
29937 29938
29939 29940
29941 29942
29943 29944
29945 29946
29947 29948
29949 29950
29951 29952
29953 29954
29955 29956
29957 29958
29959 29960
29961 29962
29963 29964
29965 29966
29967 29968
29969 29970
29971 29972
29973 29974
29975 29976
29977 29978
29979 29980
29981 29982
29983 29984
29985 29986
29987 29988
29989 29990
29991 29992
29993 29994
29995 29996
29997 29998
29999 30000
30001 30002
30003 30004
30005 30006
30007 30008
30009 30010
30011 30012
30013 30014
30015 30016
30017 30018
30019 30020
30021 30022
30023 30024
30025 30026
30027 30028
30029 30030
30031 30032
30033 30034
30035 30036
30037 30038
30039 30040
30041 30042
30043 30044
30045 30046
30047 30048
30049 30050
30051 30052
30053 30054
30055 30056
30057 30058
30059 30060
30061 30062
30063 30064
30065 30066
30067 30068
30069 30070
30071 30072
30073 30074
30075 30076
30077 30078
30079 30080
30081 30082
30083 30084
30085 30086
30087 30088
30089 30090
30091 30092
30093 30094
30095 30096
30097 30098
30099 30100
30101 30102
30103 30104
30105 30106
30107 30108
30109 30110
30111 30112
30113 30114
30115 30116
30117 30118
30119 30120
30121 30122
30123 30124
30125 30126
30127 30128
30129 30130
30131 30132
30133 30134
30135 30136
30137 30138
30139 30140
30141 30142
30143 30144
30145 30146
30147 30148
30149 30150
30151 30152
30153 30154
30155 30156
30157 30158
30159 30160
30161 30162
30163 30164
30165 30166
30167 30168
30169 30170
30171 30172
30173 30174
30175 30176
30177 30178
30179 30180
30181 30182
30183 30184
30185 30186
30187 30188
30189 30190
30191 30192
30193 30194
30195 30196
30197 30198
30199 30200
30201 30202
30203 30204
30205 30206
30207 30208
30209 30210
30211 30212
30213 30214
30215 30216
30217 30218
30219 30220
30221 30222
30223 30224
30225 30226
30227 30228
30229 30230
30231 30232
30233 30234
30235 30236
30237 30238
30239 30240
30241 30242
30243 30244
30245 30246
30247 30248
30249 30250
30251 30252
30253 30254
30255 30256
30257 30258
30259 30260
30261 30262
30263 30264
30265 30266
30267 30268
30269 30270
30271 30272
30273 30274
30275 30276
30277 30278
30279 30280
30281 30282
30283 30284
30285 30286
30287 30288
30289 30290
30291 30292
30293 30294
30295 30296
30297 30298
30299 30300
30301 30302
30303 30304
30305 30306
30307 30308
30309 30310
30311 30312
30313 30314
30315 30316
30317 30318
30319 30320
30321 30322
30323 30324
30325 30326
30327 30328
30329 30330
30331 30332
30333 30334
30335 30336
30337 30338
30339 30340
30341 30342
30343 30344
30345 30346
30347 30348
30349 30350
30351 30352
30353 30354
30355 30356
30357 30358
30359 30360
30361 30362
30363 30364
30365 30366
30367 30368
30369 30370
30371 30372
30373 30374
30375 30376
30377 30378
30379 30380
30381 30382
30383 30384
30385 30386
30387 30388
30389 30390
30391 30392
30393 30394
30395 30396
30397 30398
30399 30400
30401 30402
30403 30404
30405 30406
30407 30408
30409 30410
30411 30412
30413 30414
30415 30416
30417 30418
30419 30420
30421 30422
30423 30424
30425 30426
30427 30428
30429 30430
30431 30432
30433 30434
30435 30436
30437 30438
30439 30440
30441 30442
30443 30444
30445 30446
30447 30448
30449 30450
30451 30452
30453 30454
30455 30456
30457 30458
30459 30460
30461 30462
30463 30464
30465 30466
30467 30468
30469 30470
30471 30472
30473 30474
30475 30476
30477 30478
30479 30480
30481 30482
30483 30484
30485 30486
30487 30488
30489 30490
30491 30492
30493 30494
30495 30496
30497 30498
30499 30500
30501 30502
30503 30504
30505 30506
30507 30508
30509 30510
30511 30512
30513 30514
30515 30516
30517 30518
30519 30520
30521 30522
30523 30524
30525 30526
30527 30528
30529 30530
30531 30532
30533 30534
30535 30536
30537 30538
30539 30540
30541 30542
30543 30544
30545 30546
30547 30548
30549 30550
30551 30552
30553 30554
30555 30556
30557 30558
30559 30560
30561 30562
30563 30564
30565 30566
30567 30568
30569 30570
30571 30572
30573 30574
30575 30576
30577 30578
30579 30580
30581 30582
30583 30584
30585 30586
30587 30588
30589 30590
30591 30592
30593 30594
30595 30596
30597 30598
30599 30600
30601 30602
30603 30604
30605 30606
30607 30608
30609 30610
30611 30612
30613 30614
30615 30616
30617 30618
30619 30620
30621 30622
30623 30624
30625 30626
30627 30628
30629 30630
30631 30632
30633 30634
30635 30636
30637 30638
30639 30640
30641 30642
30643 30644
30645 30646
30647 30648
30649 30650
30651 30652
30653 30654
30655 30656
30657 30658
30659 30660
30661 30662
30663 30664
30665 30666
30667 30668
30669 30670
30671 30672
30673 30674
30675 30676
30677 30678
30679 30680
30681 30682
30683 30684
30685 30686
30687 30688
30689 30690
30691 30692
30693 30694
30695 30696
30697 30698
30699 30700
30701 30702
30703 30704
30705 30706
30707 30708
30709 30710
30711 30712
30713 30714
30715 30716
30717 30718
30719 30720
30721 30722
30723 30724
30725 30726
30727 30728
30729 30730
30731 30732
30733 30734
30735 30736
30737 30738
30739 30740
30741 30742
30743 30744
30745 30746
30747 30748
30749 30750
30751 30752
30753 30754
30755 30756
30757 30758
30759 30760
30761 30762
30763 30764
30765 30766
30767 30768
30769 30770
30771 30772
30773 30774
30775 30776
30777 30778
30779 30780
30781 30782
30783 30784
30785 30786
30787 30788
30789 30790
30791 30792
30793 30794
30795 30796
30797 30798
30799 30800
30801 30802
30803 30804
30805 30806
30807 30808
30809 30810
30811 30812
30813 30814
30815 30816
30817 30818
30819 30820
30821 30822
30823 30824
30825 30826
30827 30828
30829 30830
30831 30832
30833 30834
30835 30836
30837 30838
30839 30840
30841 30842
30843 30844
30845 30846
30847 30848
30849 30850
30851 30852
30853 30854
30855 30856
30857 30858
30859 30860
30861 30862
30863 30864
30865 30866
30867 30868
30869 30870
30871 30872
30873 30874
30875 30876
30877 30878
30879 30880
30881 30882
30883 30884
30885 30886
30887 30888
30889 30890
30891 30892
30893 30894
30895 30896
30897 30898
30899 30900
30901 30902
30903 30904
30905 30906
30907 30908
30909 30910
30911 30912
30913 30914
30915 30916
30917 30918
30919 30920
30921 30922
30923 30924
30925 30926
30927 30928
30929 30930
30931 30932
30933 30934
30935 30936
30937 30938
30939 30940
30941 30942
30943 30944
30945 30946
30947 30948
30949 30950
30951 30952
30953 30954
30955 30956
30957 30958
30959 30960
30961 30962
30963 30964
30965 30966
30967 30968
30969 30970
30971 30972
30973 30974
30975 30976
30977 30978
30979 30980
30981 30982
30983 30984
30985 30986
30987 30988
30989 30990
30991 30992
30993 30994
30995 30996
30997 30998
30999 31000
31001 31002
31003 31004
31005 31006
31007 31008
31009 31010
31011 31012
31013 31014
31015 31016
31017 31018
31019 31020
31021 31022
31023 31024
31025 31026
31027 31028
31029 31030
31031 31032
31033 31034
31035 31036
31037 31038
31039 31040
31041 31042
31043 31044
31045 31046
31047 31048
31049 31050
31051 31052
31053 31054
31055 31056
31057 31058
31059 31060
31061 31062
31063 31064
31065 31066
31067 31068
31069 31070
31071 31072
31073 31074
31075 31076
31077 31078
31079 31080
31081 31082
31083 31084
31085 31086
31087 31088
31089 31090
31091 31092
31093 31094
31095 31096
31097 31098
31099 31100
31101 31102
31103 31104
31105 31106
31107 31108
31109 31110
31111 31112
31113 31114
31115 31116
31117 31118
31119 31120
31121 31122
31123 31124
31125 31126
31127 31128
31129 31130
31131 31132
31133 31134
31135 31136
31137 31138
31139 31140
31141 31142
31143 31144
31145 31146
31147 31148
31149 31150
31151 31152
31153 31154
31155 31156
31157 31158
31159 31160
31161 31162
31163 31164
31165 31166
31167 31168
31169 31170
31171 31172
31173 31174
31175 31176
31177 31178
31179 31180
31181 31182
31183 31184
31185 31186
31187 31188
31189 31190
31191 31192
31193 31194
31195 31196
31197 31198
31199 31200
31201 31202
31203 31204
31205 31206
31207 31208
31209 31210
31211 31212
31213 31214
31215 31216
31217 31218
31219 31220
31221 31222
31223 31224
31225 31226
31227 31228
31229 31230
31231 31232
31233 31234
31235 31236
31237 31238
31239 31240
31241 31242
31243 31244
31245 31246
31247 31248
31249 31250
31251 31252
31253 31254
31255 31256
31257 31258
31259 31260
31261 31262
31263 31264
31265 31266
31267 31268
31269 31270
31271 31272
31273 31274
31275 31276
31277 31278
31279 31280
31281 31282
31283 31284
31285 31286
31287 31288
31289 31290
31291 31292
31293 31294
31295 31296
31297 31298
31299 31300
31301 31302
31303 31304
31305 31306
31307 31308
31309 31310
31311 31312
31313 31314
31315 31316
31317 31318
31319 31320
31321 31322
31323 31324
31325 31326
31327 31328
31329 31330
31331 31332
31333 31334
31335 31336
31337 31338
31339 31340
31341 31342
31343 31344
31345 31346
31347 31348
31349 31350
31351 31352
31353 31354
31355 31356
31357 31358
31359 31360
31361 31362
31363 31364
31365 31366
31367 31368
31369 31370
31371 31372
31373 31374
31375 31376
31377 31378
31379 31380
31381 31382
31383 31384
31385 31386
31387 31388
31389 31390
31391 31392
31393 31394
31395 31396
31397 31398
31399 31400
31401 31402
31403 31404
31405 31406
31407 31408
31409 31410
31411 31412
31413 31414
31415 31416
31417 31418
31419 31420
31421 31422
31423 31424
31425 31426
31427 31428
31429 31430
31431 31432
31433 31434
31435 31436
31437 31438
31439 31440
31441 31442
31443 31444
31445 31446
31447 31448
31449 31450
31451 31452
31453 31454
31455 31456
31457 31458
31459 31460
31461 31462
31463 31464
31465 31466
31467 31468
31469 31470
31471 31472
31473 31474
31475 31476
31477 31478
31479 31480
31481 31482
31483 31484
31485 31486
31487 31488
31489 31490
31491 31492
31493 31494
31495 31496
31497 31498
31499 31500
31501 31502
31503 31504
31505 31506
31507 31508
31509 31510
31511 31512
31513 31514
31515 31516
31517 31518
31519 31520
31521 31522
31523 31524
31525 31526
31527 31528
31529 31530
31531 31532
31533 31534
31535 31536
31537 31538
31539 31540
31541 31542
31543 31544
31545 31546
31547 31548
31549 31550
31551 31552
31553 31554
31555 31556
31557 31558
31559 31560
31561 31562
31563 31564
31565 31566
31567 31568
31569 31570
31571 31572
31573 31574
31575 31576
31577 31578
31579 31580
31581 31582
31583 31584
31585 31586
31587 31588
31589 31590
31591 31592
31593 31594
31595 31596
31597 31598
31599 31600
31601 31602
31603 31604
31605 31606
31607 31608
31609 31610
31611 31612
31613 31614
31615 31616
31617 31618
31619 31620
31621 31622
31623 31624
31625 31626
31627 31628
31629 31630
31631 31632
31633 31634
31635 31636
31637 31638
31639 31640
31641 31642
31643 31644
31645 31646
31647 31648
31649 31650
31651 31652
31653 31654
31655 31656
31657 31658
31659 31660
31661 31662
31663 31664
31665 31666
31667 31668
31669 31670
31671 31672
31673 31674
31675 31676
31677 31678
31679 31680
31681 31682
31683 31684
31685 31686
31687 31688
31689 31690
31691 31692
31693 31694
31695 31696
31697 31698
31699 31700
31701 31702
31703 31704
31705 31706
31707 31708
31709 31710
31711 31712
31713 31714
31715 31716
31717 31718
31719 31720
31721 31722
31723 31724
31725 31726
31727 31728
31729 31730
31731 31732
31733 31734
31735 31736
31737 31738
31739 31740
31741 31742
31743 31744
31745 31746
31747 31748
31749 31750
31751 31752
31753 31754
31755 31756
31757 31758
31759 31760
31761 31762
31763 31764
31765 31766
31767 31768
31769 31770
31771 31772
31773 31774
31775 31776
31777 31778
31779 31780
31781 31782
31783 31784
31785 31786
31787 31788
31789 31790
31791 31792
31793 31794
31795 31796
31797 31798
31799 31800
31801 31802
31803 31804
31805 31806
31807 31808
31809 31810
31811 31812
31813 31814
31815 31816
31817 31818
31819 31820
31821 31822
31823 31824
31825 31826
31827 31828
31829 31830
31831 31832
31833 31834
31835 31836
31837 31838
      </DataArray>
      <DataArray type="Int32" Name="offsets" format="ascii">
6
12
18
24
30
36
42
48
54
60
66
72
78
84
90
96
102
108
114
120
126
132
138
144
150
156
162
168
174
180
186
192
198
204
210
216
222
228
234
240
246
252
258
264
270
276
282
288
294
300
306
312
318
324
330
336
342
348
354
360
366
372
378
384
390
396
402
408
414
420
426
432
438
444
450
456
462
468
474
480
486
492
498
504
510
516
522
528
534
540
546
552
558
564
570
576
582
588
594
600
606
612
618
624
630
636
642
648
654
660
666
672
678
684
690
696
702
708
714
720
726
732
738
744
750
756
762
768
774
780
786
792
798
804
810
816
822
828
834
840
846
852
858
864
870
876
882
888
894
900
906
912
918
924
930
936
942
948
954
960
966
972
978
984
990
996
1002
1008
1014
1020
1026
1032
1038
1044
1050
1056
1062
1068
1074
1080
1086
1092
1098
1104
1110
1116
1122
1128
1134
1140
1146
1152
1158
1164
1170
1176
1182
1188
1194
1200
1206
1212
1218
1224
1230
1236
1242
1248
1254
1260
1266
1272
1278
1284
1290
1296
1302
1308
1314
1320
1326
1332
1338
1344
1350
1356
1362
1368
1374
1380
1386
1392
1398
1404
1410
1416
1422
1428
1434
1440
1446
1452
1458
1464
1470
1476
1482
1488
1494
1500
1506
1512
1518
1524
1530
1536
1542
1548
1554
1560
1566
1572
1578
1584
1590
1596
1602
1608
1614
1620
1626
1632
1638
1644
1650
1656
1662
1668
1674
1680
1686
1692
1698
1704
1710
1716
1722
1728
1734
1740
1746
1752
1758
1764
1770
1776
1782
1788
1794
1800
1806
1812
1818
1824
1830
1836
1842
1848
1854
1860
1866
1872
1878
1884
1890
1896
1902
1908
1914
1920
1926
1932
1938
1944
1950
1956
1962
1968
1974
1980
1986
1992
1998
2004
2010
2016
2022
2028
2034
2040
2046
2052
2058
2064
2070
2076
2082
2088
2094
2100
2106
2112
2118
2124
2130
2136
2142
2148
2154
2160
2166
2172
2178
2184
2190
2196
2202
2208
2214
2220
2226
2232
2238
2244
2250
2256
2262
2268
2274
2280
2286
2292
2298
2304
2310
2316
2322
2328
2334
2340
2346
2352
2358
2364
2370
2376
2382
2388
2394
2400
2406
2412
2418
2424
2430
2436
2442
2448
2454
2460
2466
2472
2478
2484
2490
2496
2502
2508
2514
2520
2526
2532
2538
2544
2550
2556
2562
2568
2574
2580
2586
2592
2598
2604
2610
2616
2622
2628
2634
2640
2646
2652
2658
2664
2670
2676
2682
2688
2694
2700
2706
2712
2718
2724
2730
2736
2742
2748
2754
2760
2766
2772
2778
2784
2790
2796
2802
2808
2814
2820
2826
2832
2838
2844
2850
2856
2862
2868
2874
2880
2886
2892
2898
2904
2910
2916
2922
2928
2934
2940
2946
2952
2958
2964
2970
2976
2982
2988
2994
3000
3006
3012
3018
3024
3030
3036
3042
3048
3054
3060
3066
3072
3078
3084
3090
3096
3102
3108
3114
3120
3126
3132
3138
3144
3150
3156
3162
3168
3174
3180
3186
3192
3198
3204
3210
3216
3222
3228
3234
3240
3246
3252
3258
3264
3270
3276
3282
3288
3294
3300
3306
3312
3318
3324
3330
3336
3342
3348
3354
3360
3366
3372
3378
3384
3390
3396
3402
3408
3414
3420
3426
3432
3438
3444
3450
3456
3462
3468
3474
3480
3486
3492
3498
3504
3510
3516
3522
3528
3534
3540
3546
3552
3558
3564
3570
3576
3582
3588
3594
3600
3606
3612
3618
3624
3630
3636
3642
3648
3654
3660
3666
3672
3678
3684
3690
3696
3702
3708
3714
3720
3726
3732
3738
3744
3750
3756
3762
3768
3774
3780
3786
3792
3798
3804
3810
3816
3822
3828
3834
3840
3846
3852
3858
3864
3870
3876
3882
3888
3894
3900
3906
3912
3918
3924
3930
3936
3942
3948
3954
3960
3966
3972
3978
3984
3990
3996
4002
4008
4014
4020
4026
4032
4038
4044
4050
4056
4062
4068
4074
4080
4086
4092
4098
4104
4110
4116
4122
4128
4134
4140
4146
4152
4158
4164
4170
4176
4182
4188
4194
4200
4206
4212
4218
4224
4230
4236
4242
4248
4254
4260
4266
4272
4278
4284
4290
4296
4302
4308
4314
4320
4326
4332
4338
4344
4350
4356
4362
4368
4374
4380
4386
4392
4398
4404
4410
4416
4422
4428
4434
4440
4446
4452
4458
4464
4470
4476
4482
4488
4494
4500
4506
4512
4518
4524
4530
4536
4542
4548
4554
4560
4566
4572
4578
4584
4590
4596
4602
4608
4614
4620
4626
4632
4638
4644
4650
4656
4662
4668
4674
4680
4686
4692
4698
4704
4710
4716
4722
4728
4734
4740
4746
4752
4758
4764
4770
4776
4782
4788
4794
4800
4806
4812
4818
4824
4830
4836
4842
4848
4854
4860
4866
4872
4878
4884
4890
4896
4902
4908
4914
4920
4926
4932
4938
4944
4950
4956
4962
4968
4974
4980
4986
4992
4998
5004
5010
5016
5022
5028
5034
5040
5046
5052
5058
5064
5070
5076
5082
5088
5094
5100
5106
5112
5118
5124
5130
5136
5142
5148
5154
5160
5166
5172
5178
5184
5190
5196
5202
5208
5214
5220
5226
5232
5238
5244
5250
5256
5262
5268
5274
5280
5286
5292
5298
5304
5310
5316
5322
5328
5334
5340
5346
5352
5358
5364
5370
5376
5382
5388
5394
5400
5406
5412
5418
5424
5430
5436
5442
5448
5454
5460
5466
5472
5478
5484
5490
5496
5502
5508
5514
5520
5526
5532
5538
5544
5550
5556
5562
5568
5574
5580
5586
5592
5598
5604
5610
5616
5622
5628
5634
5640
5646
5652
5658
5664
5670
5676
5682
5688
5694
5700
5706
5712
5718
5724
5730
5736
5742
5748
5754
5760
5766
5772
5778
5784
5790
5796
5802
5808
5814
5820
5826
5832
5838
5844
5850
5856
5862
5868
5874
5880
5886
5892
5898
5904
5910
5916
5922
5928
5934
5940
5946
5952
5958
5964
5970
5976
5982
5988
5994
6000
6006
6012
6018
6024
6030
6036
6042
6048
6054
6060
6066
6072
6078
6084
6090
6096
6102
6108
6114
6120
6126
6132
6138
6144
6150
6156
6162
6168
6174
6180
6186
6192
6198
6204
6210
6216
6222
6228
6234
6240
6246
6252
6258
6264
6270
6276
6282
6288
6294
6300
6306
6312
6318
6324
6330
6336
6342
6348
6354
6360
6366
6372
6378
6384
6390
6396
6402
6408
6414
6420
6426
6432
6438
6444
6450
6456
6462
6468
6474
6480
6486
6492
6498
6504
6510
6516
6522
6528
6534
6540
6546
6552
6558
6564
6570
6576
6582
6588
6594
6600
6606
6612
6618
6624
6630
6636
6642
6648
6654
6660
6666
6672
6678
6684
6690
6696
6702
6708
6714
6720
6726
6732
6738
6744
6750
6756
6762
6768
6774
6780
6786
6792
6798
6804
6810
6816
6822
6828
6834
6840
6846
6852
6858
6864
6870
6876
6882
6888
6894
6900
6906
6912
6918
6924
6930
6936
6942
6948
6954
6960
6966
6972
6978
6984
6990
6996
7002
7008
7014
7020
7026
7032
7038
7044
7050
7056
7062
7068
7074
7080
7086
7092
7098
7104
7110
7116
7122
7128
7134
7140
7146
7152
7158
7164
7170
7176
7182
7188
7194
7200
7206
7212
7218
7224
7230
7236
7242
7248
7254
7260
7266
7272
7278
7284
7290
7296
7302
7308
7314
7320
7326
7332
7338
7344
7350
7356
7362
7368
7374
7380
7386
7392
7398
7404
7410
7416
7422
7428
7434
7440
7446
7452
7458
7464
7470
7476
7482
7488
7494
7500
7506
7512
7518
7524
7530
7536
7542
7548
7554
7560
7566
7572
7578
7584
7590
7596
7602
7608
7614
7620
7626
7632
7638
7644
7650
7656
7662
7668
7674
7680
7686
7692
7698
7704
7710
7716
7722
7728
7734
7740
7746
7752
7758
7764
7770
7776
7782
7788
7794
7800
7806
7812
7818
7824
7830
7836
7842
7848
7854
7860
7866
7872
7878
7884
7890
7896
7902
7908
7914
7920
7926
7932
7938
7944
7950
7956
7962
7968
7974
7980
7986
7992
7998
8004
8010
8016
8022
8028
8034
8040
8046
8052
8058
8064
8070
8076
8082
8088
8094
8100
8106
8112
8118
8124
8130
8136
8142
8148
8154
8160
8166
8172
8178
8184
8190
8196
8202
8208
8214
8220
8226
8232
8238
8244
8250
8256
8262
8268
8274
8280
8286
8292
8298
8304
8310
8316
8322
8328
8334
8340
8346
8352
8358
8364
8370
8376
8382
8388
8394
8400
8406
8412
8418
8424
8430
8436
8442
8448
8454
8460
8466
8472
8478
8484
8490
8496
8502
8508
8514
8520
8526
8532
8538
8544
8550
8556
8562
8568
8574
8580
8586
8592
8598
8604
8610
8616
8622
8628
8634
8640
8646
8652
8658
8664
8670
8676
8682
8688
8694
8700
8706
8712
8718
8724
8730
8736
8742
8748
8754
8760
8766
8772
8778
8784
8790
8796
8802
8808
8814
8820
8826
8832
8838
8844
8850
8856
8862
8868
8874
8880
8886
8892
8898
8904
8910
8916
8922
8928
8934
8940
8946
8952
8958
8964
8970
8976
8982
8988
8994
9000
9006
9012
9018
9024
9030
9036
9042
9048
9054
9060
9066
9072
9078
9084
9090
9096
9102
9108
9114
9120
9126
9132
9138
9144
9150
9156
9162
9168
9174
9180
9186
9192
9198
9204
9210
9216
9222
9228
9234
9240
9246
9252
9258
9264
9270
9276
9282
9288
9294
9300
9306
9312
9318
9324
9330
9336
9342
9348
9354
9360
9366
9372
9378
9384
9390
9396
9402
9408
9414
9420
9426
9432
9438
9444
9450
9456
9462
9468
9474
9480
9486
9492
9498
9504
9510
9516
9522
9528
9534
9540
9546
9552
9558
9564
9570
9576
9582
9588
9594
9600
9606
9612
9618
9624
9630
9636
9642
9648
9654
9660
9666
9672
9678
9684
9690
9696
9702
9708
9714
9720
9726
9732
9738
9744
9750
9756
9762
9768
9774
9780
9786
9792
9798
9804
9810
9816
9822
9828
9834
9840
9846
9852
9858
9864
9870
9876
9882
9888
9894
9900
9906
9912
9918
9924
9930
9936
9942
9948
9954
9960
9966
9972
9978
9984
9990
9996
10002
10008
10014
10020
10026
10032
10038
10044
10050
10056
10062
10068
10074
10080
10086
10092
10098
10104
10106
10108
10110
10112
10114
10116
10118
10120
10122
10124
10126
10128
10130
10132
10134
10136
10138
10140
10142
10144
10146
10148
10150
10152
10154
10156
10158
10160
10162
10164
10166
10168
10170
10172
10174
10176
10178
10180
10182
10184
10186
10188
10190
10192
10194
10196
10198
10200
10202
10204
10206
10208
10210
10212
10214
10216
10218
10220
10222
10224
10226
10228
10230
10232
10234
10236
10238
10240
10242
10244
10246
10248
10250
10252
10254
10256
10258
10260
10262
10264
10266
10268
10270
10272
10274
10276
10278
10280
10282
10284
10286
10288
10290
10292
10294
10296
10298
10300
10302
10304
10306
10308
10310
10312
10314
10316
10318
10320
10322
10324
10326
10328
10330
10332
10334
10336
10338
10340
10342
10344
10346
10348
10350
10352
10354
10356
10358
10360
10362
10364
10366
10368
10370
10372
10374
10376
10378
10380
10382
10384
10386
10388
10390
10392
10394
10396
10398
10400
10402
10404
10406
10408
10410
10412
10414
10416
10418
10420
10422
10424
10426
10428
10430
10432
10434
10436
10438
10440
10442
10444
10446
10448
10450
10452
10454
10456
10458
10460
10462
10464
10466
10468
10470
10472
10474
10476
10478
10480
10482
10484
10486
10488
10490
10492
10494
10496
10498
10500
10502
10504
10506
10508
10510
10512
10514
10516
10518
10520
10522
10524
10526
10528
10530
10532
10534
10536
10538
10540
10542
10544
10546
10548
10550
10552
10554
10556
10558
10560
10562
10564
10566
10568
10570
10572
10574
10576
10578
10580
10582
10584
10586
10588
10590
10592
10594
10596
10598
10600
10602
10604
10606
10608
10610
10612
10614
10616
10618
10620
10622
10624
10626
10628
10630
10632
10634
10636
10638
10640
10642
10644
10646
10648
10650
10652
10654
10656
10658
10660
10662
10664
10666
10668
10670
10672
10674
10676
10678
10680
10682
10684
10686
10688
10690
10692
10694
10696
10698
10700
10702
10704
10706
10708
10710
10712
10714
10716
10718
10720
10722
10724
10726
10728
10730
10732
10734
10736
10738
10740
10742
10744
10746
10748
10750
10752
10754
10756
10758
10760
10762
10764
10766
10768
10770
10772
10774
10776
10778
10780
10782
10784
10786
10788
10790
10792
10794
10796
10798
10800
10802
10804
10806
10808
10810
10812
10814
10816
10818
10820
10822
10824
10826
10828
10830
10832
10834
10836
10838
10840
10842
10844
10846
10848
10850
10852
10854
10856
10858
10860
10862
10864
10866
10868
10870
10872
10874
10876
10878
10880
10882
10884
10886
10888
10890
10892
10894
10896
10898
10900
10902
10904
10906
10908
10910
10912
10914
10916
10918
10920
10922
10924
10926
10928
10930
10932
10934
10936
10938
10940
10942
10944
10946
10948
10950
10952
10954
10956
10958
10960
10962
10964
10966
10968
10970
10972
10974
10976
10978
10980
10982
10984
10986
10988
10990
10992
10994
10996
10998
11000
11002
11004
11006
11008
11010
11012
11014
11016
11018
11020
11022
11024
11026
11028
11030
11032
11034
11036
11038
11040
11042
11044
11046
11048
11050
11052
11054
11056
11058
11060
11062
11064
11066
11068
11070
11072
11074
11076
11078
11080
11082
11084
11086
11088
11090
11092
11094
11096
11098
11100
11102
11104
11106
11108
11110
11112
11114
11116
11118
11120
11122
11124
11126
11128
11130
11132
11134
11136
11138
11140
11142
11144
11146
11148
11150
11152
11154
11156
11158
11160
11162
11164
11166
11168
11170
11172
11174
11176
11178
11180
11182
11184
11186
11188
11190
11192
11194
11196
11198
11200
11202
11204
11206
11208
11210
11212
11214
11216
11218
11220
11222
11224
11226
11228
11230
11232
11234
11236
11238
11240
11242
11244
11246
11248
11250
11252
11254
11256
11258
11260
11262
11264
11266
11268
11270
11272
11274
11276
11278
11280
11282
11284
11286
11288
11290
11292
11294
11296
11298
11300
11302
11304
11306
11308
11310
11312
11314
11316
11318
11320
11322
11324
11326
11328
11330
11332
11334
11336
11338
11340
11342
11344
11346
11348
11350
11352
11354
11356
11358
11360
11362
11364
11366
11368
11370
11372
11374
11376
11378
11380
11382
11384
11386
11388
11390
11392
11394
11396
11398
11400
11402
11404
11406
11408
11410
11412
11414
11416
11418
11420
11422
11424
11426
11428
11430
11432
11434
11436
11438
11440
11442
11444
11446
11448
11450
11452
11454
11456
11458
11460
11462
11464
11466
11468
11470
11472
11474
11476
11478
11480
11482
11484
11486
11488
11490
11492
11494
11496
11498
11500
11502
11504
11506
11508
11510
11512
11514
11516
11518
11520
11522
11524
11526
11528
11530
11532
11534
11536
11538
11540
11542
11544
11546
11548
11550
11552
11554
11556
11558
11560
11562
11564
11566
11568
11570
11572
11574
11576
11578
11580
11582
11584
11586
11588
11590
11592
11594
11596
11598
11600
11602
11604
11606
11608
11610
11612
11614
11616
11618
11620
11622
11624
11626
11628
11630
11632
11634
11636
11638
11640
11642
11644
11646
11648
11650
11652
11654
11656
11658
11660
11662
11664
11666
11668
11670
11672
11674
11676
11678
11680
11682
11684
11686
11688
11690
11692
11694
11696
11698
11700
11702
11704
11706
11708
11710
11712
11714
11716
11718
11720
11722
11724
11726
11728
11730
11732
11734
11736
11738
11740
11742
11744
11746
11748
11750
11752
11754
11756
11758
11760
11762
11764
11766
11768
11770
11772
11774
11776
11778
11780
11782
11784
11786
11788
11790
11792
11794
11796
11798
11800
11802
11804
11806
11808
11810
11812
11814
11816
11818
11820
11822
11824
11826
11828
11830
11832
11834
11836
11838
11840
11842
11844
11846
11848
11850
11852
11854
11856
11858
11860
11862
11864
11866
11868
11870
11872
11874
11876
11878
11880
11882
11884
11886
11888
11890
11892
11894
11896
11898
11900
11902
11904
11906
11908
11910
11912
11914
11916
11918
11920
11922
11924
11926
11928
11930
11932
11934
11936
11938
11940
11942
11944
11946
11948
11950
11952
11954
11956
11958
11960
11962
11964
11966
11968
11970
11972
11974
11976
11978
11980
11982
11984
11986
11988
11990
11992
11994
11996
11998
12000
12002
12004
12006
12008
12010
12012
12014
12016
12018
12020
12022
12024
12026
12028
12030
12032
12034
12036
12038
12040
12042
12044
12046
12048
12050
12052
12054
12056
12058
12060
12062
12064
12066
12068
12070
12072
12074
12076
12078
12080
12082
12084
12086
12088
12090
12092
12094
12096
12098
12100
12102
12104
12106
12108
12110
12112
12114
12116
12118
12120
12122
12124
12126
12128
12130
12132
12134
12136
12138
12140
12142
12144
12146
12148
12150
12152
12154
12156
12158
12160
12162
12164
12166
12168
12170
12172
12174
12176
12178
12180
12182
12184
12186
12188
12190
12192
12194
12196
12198
12200
12202
12204
12206
12208
12210
12212
12214
12216
12218
12220
12222
12224
12226
12228
12230
12232
12234
12236
12238
12240
12242
12244
12246
12248
12250
12252
12254
12256
12258
12260
12262
12264
12266
12268
12270
12272
12274
12276
12278
12280
12282
12284
12286
12288
12290
12292
12294
12296
12298
12300
12302
12304
12306
12308
12310
12312
12314
12316
12318
12320
12322
12324
12326
12328
12330
12332
12334
12336
12338
12340
12342
12344
12346
12348
12350
12352
12354
12356
12358
12360
12362
12364
12366
12368
12370
12372
12374
12376
12378
12380
12382
12384
12386
12388
12390
12392
12394
12396
12398
12400
12402
12404
12406
12408
12410
12412
12414
12416
12418
12420
12422
12424
12426
12428
12430
12432
12434
12436
12438
12440
12442
12444
12446
12448
12450
12452
12454
12456
12458
12460
12462
12464
12466
12468
12470
12472
12474
12476
12478
12480
12482
12484
12486
12488
12490
12492
12494
12496
12498
12500
12502
12504
12506
12508
12510
12512
12514
12516
12518
12520
12522
12524
12526
12528
12530
12532
12534
12536
12538
12540
12542
12544
12546
12548
12550
12552
12554
12556
12558
12560
12562
12564
12566
12568
12570
12572
12574
12576
12578
12580
12582
12584
12586
12588
12590
12592
12594
12596
12598
12600
12602
12604
12606
12608
12610
12612
12614
12616
12618
12620
12622
12624
12626
12628
12630
12632
12634
12636
12638
12640
12642
12644
12646
12648
12650
12652
12654
12656
12658
12660
12662
12664
12666
12668
12670
12672
12674
12676
12678
12680
12682
12684
12686
12688
12690
12692
12694
12696
12698
12700
12702
12704
12706
12708
12710
12712
12714
12716
12718
12720
12722
12724
12726
12728
12730
12732
12734
12736
12738
12740
12742
12744
12746
12748
12750
12752
12754
12756
12758
12760
12762
12764
12766
12768
12770
12772
12774
12776
12778
12780
12782
12784
12786
12788
12790
12792
12794
12796
12798
12800
12802
12804
12806
12808
12810
12812
12814
12816
12818
12820
12822
12824
12826
12828
12830
12832
12834
12836
12838
12840
12842
12844
12846
12848
12850
12852
12854
12856
12858
12860
12862
12864
12866
12868
12870
12872
12874
12876
12878
12880
12882
12884
12886
12888
12890
12892
12894
12896
12898
12900
12902
12904
12906
12908
12910
12912
12914
12916
12918
12920
12922
12924
12926
12928
12930
12932
12934
12936
12938
12940
12942
12944
12946
12948
12950
12952
12954
12956
12958
12960
12962
12964
12966
12968
12970
12972
12974
12976
12978
12980
12982
12984
12986
12988
12990
12992
12994
12996
12998
13000
13002
13004
13006
13008
13010
13012
13014
13016
13018
13020
13022
13024
13026
13028
13030
13032
13034
13036
13038
13040
13042
13044
13046
13048
13050
13052
13054
13056
13058
13060
13062
13064
13066
13068
13070
13072
13074
13076
13078
13080
13082
13084
13086
13088
13090
13092
13094
13096
13098
13100
13102
13104
13106
13108
13110
13112
13114
13116
13118
13120
13122
13124
13126
13128
13130
13132
13134
13136
13138
13140
13142
13144
13146
13148
13150
13152
13154
13156
13158
13160
13162
13164
13166
13168
13170
13172
13174
13176
13178
13180
13182
13184
13186
13188
13190
13192
13194
13196
13198
13200
13202
13204
13206
13208
13210
13212
13214
13216
13218
13220
13222
13224
13226
13228
13230
13232
13234
13236
13238
13240
13242
13244
13246
13248
13250
13252
13254
13256
13258
13260
13262
13264
13266
13268
13270
13272
13274
13276
13278
13280
13282
13284
13286
13288
13290
13292
13294
13296
13298
13300
13302
13304
13306
13308
13310
13312
13314
13316
13318
13320
13322
13324
13326
13328
13330
13332
13334
13336
13338
13340
13342
13344
13346
13348
13350
13352
13354
13356
13358
13360
13362
13364
13366
13368
13370
13372
13374
13376
13378
13380
13382
13384
13386
13388
13390
13392
13394
13396
13398
13400
13402
13404
13406
13408
13410
13412
13414
13416
13418
13420
13422
13424
13426
13428
13430
13432
13434
13436
13438
13440
13442
13444
13446
13448
13450
13452
13454
13456
13458
13460
13462
13464
13466
13468
13470
13472
13474
13476
13478
13480
13482
13484
13486
13488
13490
13492
13494
13496
13498
13500
13502
13504
13506
13508
13510
13512
13514
13516
13518
13520
13522
13524
13526
13528
13530
13532
13534
13536
13538
13540
13542
13544
13546
13548
13550
13552
13554
13556
13558
13560
13562
13564
13566
13568
13570
13572
13574
13576
13578
13580
13582
13584
13586
13588
13590
13592
13594
13596
13598
13600
13602
13604
13606
13608
13610
13612
13614
13616
13618
13620
13622
13624
13626
13628
13630
13632
13634
13636
13638
13640
13642
13644
13646
13648
13650
13652
13654
13656
13658
13660
13662
13664
13666
13668
13670
13672
13674
13676
13678
13680
13682
13684
13686
13688
13690
13692
13694
13696
13698
13700
13702
13704
13706
13708
13710
13712
13714
13716
13718
13720
13722
13724
13726
13728
13730
13732
13734
13736
13738
13740
13742
13744
13746
13748
13750
13752
13754
13756
13758
13760
13762
13764
13766
13768
13770
13772
13774
13776
13778
13780
13782
13784
13786
13788
13790
13792
13794
13796
13798
13800
13802
13804
13806
13808
13810
13812
13814
13816
13818
13820
13822
13824
13826
13828
13830
13832
13834
13836
13838
13840
13842
13844
13846
13848
13850
13852
13854
13856
13858
13860
13862
13864
13866
13868
13870
13872
13874
13876
13878
13880
13882
13884
13886
13888
13890
13892
13894
13896
13898
13900
13902
13904
13906
13908
13910
13912
13914
13916
13918
13920
13922
13924
13926
13928
13930
13932
13934
13936
13938
13940
13942
13944
13946
13948
13950
13952
13954
13956
13958
13960
13962
13964
13966
13968
13970
13972
13974
13976
13978
13980
13982
13984
13986
13988
13990
13992
13994
13996
13998
14000
14002
14004
14006
14008
14010
14012
14014
14016
14018
14020
14022
14024
14026
14028
14030
14032
14034
14036
14038
14040
14042
14044
14046
14048
14050
14052
14054
14056
14058
14060
14062
14064
14066
14068
14070
14072
14074
14076
14078
14080
14082
14084
14086
14088
14090
14092
14094
14096
14098
14100
14102
14104
14106
14108
14110
14112
14114
14116
14118
14120
14122
14124
14126
14128
14130
14132
14134
14136
14138
14140
14142
14144
14146
14148
14150
14152
14154
14156
14158
14160
14162
14164
14166
14168
14170
14172
14174
14176
14178
14180
14182
14184
14186
14188
14190
14192
14194
14196
14198
14200
14202
14204
14206
14208
14210
14212
14214
14216
14218
14220
14222
14224
14226
14228
14230
14232
14234
14236
14238
14240
14242
14244
14246
14248
14250
14252
14254
14256
14258
14260
14262
14264
14266
14268
14270
14272
14274
14276
14278
14280
14282
14284
14286
14288
14290
14292
14294
14296
14298
14300
14302
14304
14306
14308
14310
14312
14314
14316
14318
14320
14322
14324
14326
14328
14330
14332
14334
14336
14338
14340
14342
14344
14346
14348
14350
14352
14354
14356
14358
14360
14362
14364
14366
14368
14370
14372
14374
14376
14378
14380
14382
14384
14386
14388
14390
14392
14394
14396
14398
14400
14402
14404
14406
14408
14410
14412
14414
14416
14418
14420
14422
14424
14426
14428
14430
14432
14434
14436
14438
14440
14442
14444
14446
14448
14450
14452
14454
14456
14458
14460
14462
14464
14466
14468
14470
14472
14474
14476
14478
14480
14482
14484
14486
14488
14490
14492
14494
14496
14498
14500
14502
14504
14506
14508
14510
14512
14514
14516
14518
14520
14522
14524
14526
14528
14530
14532
14534
14536
14538
14540
14542
14544
14546
14548
14550
14552
14554
14556
14558
14560
14562
14564
14566
14568
14570
14572
14574
14576
14578
14580
14582
14584
14586
14588
14590
14592
14594
14596
14598
14600
14602
14604
14606
14608
14610
14612
14614
14616
14618
14620
14622
14624
14626
14628
14630
14632
14634
14636
14638
14640
14642
14644
14646
14648
14650
14652
14654
14656
14658
14660
14662
14664
14666
14668
14670
14672
14674
14676
14678
14680
14682
14684
14686
14688
14690
14692
14694
14696
14698
14700
14702
14704
14706
14708
14710
14712
14714
14716
14718
14720
14722
14724
14726
14728
14730
14732
14734
14736
14738
14740
14742
14744
14746
14748
14750
14752
14754
14756
14758
14760
14762
14764
14766
14768
14770
14772
14774
14776
14778
14780
14782
14784
14786
14788
14790
14792
14794
14796
14798
14800
14802
14804
14806
14808
14810
14812
14814
14816
14818
14820
14822
14824
14826
14828
14830
14832
14834
14836
14838
14840
14842
14844
14846
14848
14850
14852
14854
14856
14858
14860
14862
14864
14866
14868
14870
14872
14874
14876
14878
14880
14882
14884
14886
14888
14890
14892
14894
14896
14898
14900
14902
14904
14906
14908
14910
14912
14914
14916
14918
14920
14922
14924
14926
14928
14930
14932
14934
14936
14938
14940
14942
14944
14946
14948
14950
14952
14954
14956
14958
14960
14962
14964
14966
14968
14970
14972
14974
14976
14978
14980
14982
14984
14986
14988
14990
14992
14994
14996
14998
15000
15002
15004
15006
15008
15010
15012
15014
15016
15018
15020
15022
15024
15026
15028
15030
15032
15034
15036
15038
15040
15042
15044
15046
15048
15050
15052
15054
15056
15058
15060
15062
15064
15066
15068
15070
15072
15074
15076
15078
15080
15082
15084
15086
15088
15090
15092
15094
15096
15098
15100
15102
15104
15106
15108
15110
15112
15114
15116
15118
15120
15122
15124
15126
15128
15130
15132
15134
15136
15138
15140
15142
15144
15146
15148
15150
15152
15154
15156
15158
15160
15162
15164
15166
15168
15170
15172
15174
15176
15178
15180
15182
15184
15186
15188
15190
15192
15194
15196
15198
15200
15202
15204
15206
15208
15210
15212
15214
15216
15218
15220
15222
15224
15226
15228
15230
15232
15234
15236
15238
15240
15242
15244
15246
15248
15250
15252
15254
15256
15258
15260
15262
15264
15266
15268
15270
15272
15274
15276
15278
15280
15282
15284
15286
15288
15290
15292
15294
15296
15298
15300
15302
15304
15306
15308
15310
15312
15314
15316
15318
15320
15322
15324
15326
15328
15330
15332
15334
15336
15338
15340
15342
15344
15346
15348
15350
15352
15354
15356
15358
15360
15362
15364
15366
15368
15370
15372
15374
15376
15378
15380
15382
15384
15386
15388
15390
15392
15394
15396
15398
15400
15402
15404
15406
15408
15410
15412
15414
15416
15418
15420
15422
15424
15426
15428
15430
15432
15434
15436
15438
15440
15442
15444
15446
15448
15450
15452
15454
15456
15458
15460
15462
15464
15466
15468
15470
15472
15474
15476
15478
15480
15482
15484
15486
15488
15490
15492
15494
15496
15498
15500
15502
15504
15506
15508
15510
15512
15514
15516
15518
15520
15522
15524
15526
15528
15530
15532
15534
15536
15538
15540
15542
15544
15546
15548
15550
15552
15554
15556
15558
15560
15562
15564
15566
15568
15570
15572
15574
15576
15578
15580
15582
15584
15586
15588
15590
15592
15594
15596
15598
15600
15602
15604
15606
15608
15610
15612
15614
15616
15618
15620
15622
15624
15626
15628
15630
15632
15634
15636
15638
15640
15642
15644
15646
15648
15650
15652
15654
15656
15658
15660
15662
15664
15666
15668
15670
15672
15674
15676
15678
15680
15682
15684
15686
15688
15690
15692
15694
15696
15698
15700
15702
15704
15706
15708
15710
15712
15714
15716
15718
15720
15722
15724
15726
15728
15730
15732
15734
15736
15738
15740
15742
15744
15746
15748
15750
15752
15754
15756
15758
15760
15762
15764
15766
15768
15770
15772
15774
15776
15778
15780
15782
15784
15786
15788
15790
15792
15794
15796
15798
15800
15802
15804
15806
15808
15810
15812
15814
15816
15818
15820
15822
15824
15826
15828
15830
15832
15834
15836
15838
15840
15842
15844
15846
15848
15850
15852
15854
15856
15858
15860
15862
15864
15866
15868
15870
15872
15874
15876
15878
15880
15882
15884
15886
15888
15890
15892
15894
15896
15898
15900
15902
15904
15906
15908
15910
15912
15914
15916
15918
15920
15922
15924
15926
15928
15930
15932
15934
15936
15938
15940
15942
15944
15946
15948
15950
15952
15954
15956
15958
15960
15962
15964
15966
15968
15970
15972
15974
15976
15978
15980
15982
15984
15986
15988
15990
15992
15994
15996
15998
16000
16002
16004
16006
16008
16010
16012
16014
16016
16018
16020
16022
16024
16026
16028
16030
16032
16034
16036
16038
16040
16042
16044
16046
16048
16050
16052
16054
16056
16058
16060
16062
16064
16066
16068
16070
16072
16074
16076
16078
16080
16082
16084
16086
16088
16090
16092
16094
16096
16098
16100
16102
16104
16106
16108
16110
16112
16114
16116
16118
16120
16122
16124
16126
16128
16130
16132
16134
16136
16138
16140
16142
16144
16146
16148
16150
16152
16154
16156
16158
16160
16162
16164
16166
16168
16170
16172
16174
16176
16178
16180
16182
16184
16186
16188
16190
16192
16194
16196
16198
16200
16202
16204
16206
16208
16210
16212
16214
16216
16218
16220
16222
16224
16226
16228
16230
16232
16234
16236
16238
16240
16242
16244
16246
16248
16250
16252
16254
16256
16258
16260
16262
16264
16266
16268
16270
16272
16274
16276
16278
16280
16282
16284
16286
16288
16290
16292
16294
16296
16298
16300
16302
16304
16306
16308
16310
16312
16314
16316
16318
16320
16322
16324
16326
16328
16330
16332
16334
16336
16338
16340
16342
16344
16346
16348
16350
16352
16354
16356
16358
16360
16362
16364
16366
16368
16370
16372
16374
16376
16378
16380
16382
16384
16386
16388
16390
16392
16394
16396
16398
16400
16402
16404
16406
16408
16410
16412
16414
16416
16418
16420
16422
16424
16426
16428
16430
16432
16434
16436
16438
16440
16442
16444
16446
16448
16450
16452
16454
16456
16458
16460
16462
16464
16466
16468
16470
16472
16474
16476
16478
16480
16482
16484
16486
16488
16490
16492
16494
16496
16498
16500
16502
16504
16506
16508
16510
16512
16514
16516
16518
16520
16522
16524
16526
16528
16530
16532
16534
16536
16538
16540
16542
16544
16546
16548
16550
16552
16554
16556
16558
16560
16562
16564
16566
16568
16570
16572
16574
16576
16578
16580
16582
16584
16586
16588
16590
16592
16594
16596
16598
16600
16602
16604
16606
16608
16610
16612
16614
16616
16618
16620
16622
16624
16626
16628
16630
16632
16634
16636
16638
16640
16642
16644
16646
16648
16650
16652
16654
16656
16658
16660
16662
16664
16666
16668
16670
16672
16674
16676
16678
16680
16682
16684
16686
16688
16690
16692
16694
16696
16698
16700
16702
16704
16706
16708
16710
16712
16714
16716
16718
16720
16722
16724
16726
16728
16730
16732
16734
16736
16738
16740
16742
16744
16746
16748
16750
16752
16754
16756
16758
16760
16762
16764
16766
16768
16770
16772
16774
16776
16778
16780
16782
16784
16786
16788
16790
16792
16794
16796
16798
16800
16802
16804
16806
16808
16810
16812
16814
16816
16818
16820
16822
16824
16826
16828
16830
16832
16834
16836
16838
16840
16842
16844
16846
16848
16850
16852
16854
16856
16858
16860
16862
16864
16866
16868
16870
16872
16874
16876
16878
16880
16882
16884
16886
16888
16890
16892
16894
16896
16898
16900
16902
16904
16906
16908
16910
16912
16914
16916
16918
16920
16922
16924
16926
16928
16930
16932
16934
16936
16938
16940
16942
16944
16946
16948
16950
16952
16954
16956
16958
16960
16962
16964
16966
16968
16970
16972
16974
16976
16978
16980
16982
16984
16986
16988
16990
16992
16994
16996
16998
17000
17002
17004
17006
17008
17010
17012
17014
17016
17018
17020
17022
17024
17026
17028
17030
17032
17034
17036
17038
17040
17042
17044
17046
17048
17050
17052
17054
17056
17058
17060
17062
17064
17066
17068
17070
17072
17074
17076
17078
17080
17082
17084
17086
17088
17090
17092
17094
17096
17098
17100
17102
17104
17106
17108
17110
17112
17114
17116
17118
17120
17122
17124
17126
17128
17130
17132
17134
17136
17138
17140
17142
17144
17146
17148
17150
17152
17154
17156
17158
17160
17162
17164
17166
17168
17170
17172
17174
17176
17178
17180
17182
17184
17186
17188
17190
17192
17194
17196
17198
17200
17202
17204
17206
17208
17210
17212
17214
17216
17218
17220
17222
17224
17226
17228
17230
17232
17234
17236
17238
17240
17242
17244
17246
17248
17250
17252
17254
17256
17258
17260
17262
17264
17266
17268
17270
17272
17274
17276
17278
17280
17282
17284
17286
17288
17290
17292
17294
17296
17298
17300
17302
17304
17306
17308
17310
17312
17314
17316
17318
17320
17322
17324
17326
17328
17330
17332
17334
17336
17338
17340
17342
17344
17346
17348
17350
17352
17354
17356
17358
17360
17362
17364
17366
17368
17370
17372
17374
17376
17378
17380
17382
17384
17386
17388
17390
17392
17394
17396
17398
17400
17402
17404
17406
17408
17410
17412
17414
17416
17418
17420
17422
17424
17426
17428
17430
17432
17434
17436
17438
17440
17442
17444
17446
17448
17450
17452
17454
17456
17458
17460
17462
17464
17466
17468
17470
17472
17474
17476
17478
17480
17482
17484
17486
17488
17490
17492
17494
17496
17498
17500
17502
17504
17506
17508
17510
17512
17514
17516
17518
17520
17522
17524
17526
17528
17530
17532
17534
17536
17538
17540
17542
17544
17546
17548
17550
17552
17554
17556
17558
17560
17562
17564
17566
17568
17570
17572
17574
17576
17578
17580
17582
17584
17586
17588
17590
17592
17594
17596
17598
17600
17602
17604
17606
17608
17610
17612
17614
17616
17618
17620
17622
17624
17626
17628
17630
17632
17634
17636
17638
17640
17642
17644
17646
17648
17650
17652
17654
17656
17658
17660
17662
17664
17666
17668
17670
17672
17674
17676
17678
17680
17682
17684
17686
17688
17690
17692
17694
17696
17698
17700
17702
17704
17706
17708
17710
17712
17714
17716
17718
17720
17722
17724
17726
17728
17730
17732
17734
17736
17738
17740
17742
17744
17746
17748
17750
17752
17754
17756
17758
17760
17762
17764
17766
17768
17770
17772
17774
17776
17778
17780
17782
17784
17786
17788
17790
17792
17794
17796
17798
17800
17802
17804
17806
17808
17810
17812
17814
17816
17818
17820
17822
17824
17826
17828
17830
17832
17834
17836
17838
17840
17842
17844
17846
17848
17850
17852
17854
17856
17858
17860
17862
17864
17866
17868
17870
17872
17874
17876
17878
17880
17882
17884
17886
17888
17890
17892
17894
17896
17898
17900
17902
17904
17906
17908
17910
17912
17914
17916
17918
17920
17922
17924
17926
17928
17930
17932
17934
17936
17938
17940
17942
17944
17946
17948
17950
17952
17954
17956
17958
17960
17962
17964
17966
17968
17970
17972
17974
17976
17978
17980
17982
17984
17986
17988
17990
17992
17994
17996
17998
18000
18002
18004
18006
18008
18010
18012
18014
18016
18018
18020
18022
18024
18026
18028
18030
18032
18034
18036
18038
18040
18042
18044
18046
18048
18050
18052
18054
18056
18058
18060
18062
18064
18066
18068
18070
18072
18074
18076
18078
18080
18082
18084
18086
18088
18090
18092
18094
18096
18098
18100
18102
18104
18106
18108
18110
18112
18114
18116
18118
18120
18122
18124
18126
18128
18130
18132
18134
18136
18138
18140
18142
18144
18146
18148
18150
18152
18154
18156
18158
18160
18162
18164
18166
18168
18170
18172
18174
18176
18178
18180
18182
18184
18186
18188
18190
18192
18194
18196
18198
18200
18202
18204
18206
18208
18210
18212
18214
18216
18218
18220
18222
18224
18226
18228
18230
18232
18234
18236
18238
18240
18242
18244
18246
18248
18250
18252
18254
18256
18258
18260
18262
18264
18266
18268
18270
18272
18274
18276
18278
18280
18282
18284
18286
18288
18290
18292
18294
18296
18298
18300
18302
18304
18306
18308
18310
18312
18314
18316
18318
18320
18322
18324
18326
18328
18330
18332
18334
18336
18338
18340
18342
18344
18346
18348
18350
18352
18354
18356
18358
18360
18362
18364
18366
18368
18370
18372
18374
18376
18378
18380
18382
18384
18386
18388
18390
18392
18394
18396
18398
18400
18402
18404
18406
18408
18410
18412
18414
18416
18418
18420
18422
18424
18426
18428
18430
18432
18434
18436
18438
18440
18442
18444
18446
18448
18450
18452
18454
18456
18458
18460
18462
18464
18466
18468
18470
18472
18474
18476
18478
18480
18482
18484
18486
18488
18490
18492
18494
18496
18498
18500
18502
18504
18506
18508
18510
18512
18514
18516
18518
18520
18522
18524
18526
18528
18530
18532
18534
18536
18538
18540
18542
18544
18546
18548
18550
18552
18554
18556
18558
18560
18562
18564
18566
18568
18570
18572
18574
18576
18578
18580
18582
18584
18586
18588
18590
18592
18594
18596
18598
18600
18602
18604
18606
18608
18610
18612
18614
18616
18618
18620
18622
18624
18626
18628
18630
18632
18634
18636
18638
18640
18642
18644
18646
18648
18650
18652
18654
18656
18658
18660
18662
18664
18666
18668
18670
18672
18674
18676
18678
18680
18682
18684
18686
18688
18690
18692
18694
18696
18698
18700
18702
18704
18706
18708
18710
18712
18714
18716
18718
18720
18722
18724
18726
18728
18730
18732
18734
18736
18738
18740
18742
18744
18746
18748
18750
18752
18754
18756
18758
18760
18762
18764
18766
18768
18770
18772
18774
18776
18778
18780
18782
18784
18786
18788
18790
18792
18794
18796
18798
18800
18802
18804
18806
18808
18810
18812
18814
18816
18818
18820
18822
18824
18826
18828
18830
18832
18834
18836
18838
18840
18842
18844
18846
18848
18850
18852
18854
18856
18858
18860
18862
18864
18866
18868
18870
18872
18874
18876
18878
18880
18882
18884
18886
18888
18890
18892
18894
18896
18898
18900
18902
18904
18906
18908
18910
18912
18914
18916
18918
18920
18922
18924
18926
18928
18930
18932
18934
18936
18938
18940
18942
18944
18946
18948
18950
18952
18954
18956
18958
18960
18962
18964
18966
18968
18970
18972
18974
18976
18978
18980
18982
18984
18986
18988
18990
18992
18994
18996
18998
19000
19002
19004
19006
19008
19010
19012
19014
19016
19018
19020
19022
19024
19026
19028
19030
19032
19034
19036
19038
19040
19042
19044
19046
19048
19050
19052
19054
19056
19058
19060
19062
19064
19066
19068
19070
19072
19074
19076
19078
19080
19082
19084
19086
19088
19090
19092
19094
19096
19098
19100
19102
19104
19106
19108
19110
19112
19114
19116
19118
19120
19122
19124
19126
19128
19130
19132
19134
19136
19138
19140
19142
19144
19146
19148
19150
19152
19154
19156
19158
19160
19162
19164
19166
19168
19170
19172
19174
19176
19178
19180
19182
19184
19186
19188
19190
19192
19194
19196
19198
19200
19202
19204
19206
19208
19210
19212
19214
19216
19218
19220
19222
19224
19226
19228
19230
19232
19234
19236
19238
19240
19242
19244
19246
19248
19250
19252
19254
19256
19258
19260
19262
19264
19266
19268
19270
19272
19274
19276
19278
19280
19282
19284
19286
19288
19290
19292
19294
19296
19298
19300
19302
19304
19306
19308
19310
19312
19314
19316
19318
19320
19322
19324
19326
19328
19330
19332
19334
19336
19338
19340
19342
19344
19346
19348
19350
19352
19354
19356
19358
19360
19362
19364
19366
19368
19370
19372
19374
19376
19378
19380
19382
19384
19386
19388
19390
19392
19394
19396
19398
19400
19402
19404
19406
19408
19410
19412
19414
19416
19418
19420
19422
19424
19426
19428
19430
19432
19434
19436
19438
19440
19442
19444
19446
19448
19450
19452
19454
19456
19458
19460
19462
19464
19466
19468
19470
19472
19474
19476
19478
19480
19482
19484
19486
19488
19490
19492
19494
19496
19498
19500
19502
19504
19506
19508
19510
19512
19514
19516
19518
19520
19522
19524
19526
19528
19530
19532
19534
19536
19538
19540
19542
19544
19546
19548
19550
19552
19554
19556
19558
19560
19562
19564
19566
19568
19570
19572
19574
19576
19578
19580
19582
19584
19586
19588
19590
19592
19594
19596
19598
19600
19602
19604
19606
19608
19610
19612
19614
19616
19618
19620
19622
19624
19626
19628
19630
19632
19634
19636
19638
19640
19642
19644
19646
19648
19650
19652
19654
19656
19658
19660
19662
19664
19666
19668
19670
19672
19674
19676
19678
19680
19682
19684
19686
19688
19690
19692
19694
19696
19698
19700
19702
19704
19706
19708
19710
19712
19714
19716
19718
19720
19722
19724
19726
19728
19730
19732
19734
19736
19738
19740
19742
19744
19746
19748
19750
19752
19754
19756
19758
19760
19762
19764
19766
19768
19770
19772
19774
19776
19778
19780
19782
19784
19786
19788
19790
19792
19794
19796
19798
19800
19802
19804
19806
19808
19810
19812
19814
19816
19818
19820
19822
19824
19826
19828
19830
19832
19834
19836
19838
19840
19842
19844
19846
19848
19850
19852
19854
19856
19858
19860
19862
19864
19866
19868
19870
19872
19874
19876
19878
19880
19882
19884
19886
19888
19890
19892
19894
19896
19898
19900
19902
19904
19906
19908
19910
19912
19914
19916
19918
19920
19922
19924
19926
19928
19930
19932
19934
19936
19938
19940
19942
19944
19946
19948
19950
19952
19954
19956
19958
19960
19962
19964
19966
19968
19970
19972
19974
19976
19978
19980
19982
19984
19986
19988
19990
19992
19994
19996
19998
20000
20002
20004
20006
20008
20010
20012
20014
20016
20018
20020
20022
20024
20026
20028
20030
20032
20034
20036
20038
20040
20042
20044
20046
20048
20050
20052
20054
20056
20058
20060
20062
20064
20066
20068
20070
20072
20074
20076
20078
20080
20082
20084
20086
20088
20090
20092
20094
20096
20098
20100
20102
20104
20106
20108
20110
20112
20114
20116
20118
20120
20122
20124
20126
20128
20130
20132
20134
20136
20138
20140
20142
20144
20146
20148
20150
20152
20154
20156
20158
20160
20162
20164
20166
20168
20170
20172
20174
20176
20178
20180
20182
20184
20186
20188
20190
20192
20194
20196
20198
20200
20202
20204
20206
20208
20210
20212
20214
20216
20218
20220
20222
20224
20226
20228
20230
20232
20234
20236
20238
20240
20242
20244
20246
20248
20250
20252
20254
20256
20258
20260
20262
20264
20266
20268
20270
20272
20274
20276
20278
20280
20282
20284
20286
20288
20290
20292
20294
20296
20298
20300
20302
20304
20306
20308
20310
20312
20314
20316
20318
20320
20322
20324
20326
20328
20330
20332
20334
20336
20338
20340
20342
20344
20346
20348
20350
20352
20354
20356
20358
20360
20362
20364
20366
20368
20370
20372
20374
20376
20378
20380
20382
20384
20386
20388
20390
20392
20394
20396
20398
20400
20402
20404
20406
20408
20410
20412
20414
20416
20418
20420
20422
20424
20426
20428
20430
20432
20434
20436
20438
20440
20442
20444
20446
20448
20450
20452
20454
20456
20458
20460
20462
20464
20466
20468
20470
20472
20474
20476
20478
20480
20482
20484
20486
20488
20490
20492
20494
20496
20498
20500
20502
20504
20506
20508
20510
20512
20514
20516
20518
20520
20522
20524
20526
20528
20530
20532
20534
20536
20538
20540
20542
20544
20546
20548
20550
20552
20554
20556
20558
20560
20562
20564
20566
20568
20570
20572
20574
20576
20578
20580
20582
20584
20586
20588
20590
20592
20594
20596
20598
20600
20602
20604
20606
20608
20610
20612
20614
20616
20618
20620
20622
20624
20626
20628
20630
20632
20634
20636
20638
20640
20642
20644
20646
20648
20650
20652
20654
20656
20658
20660
20662
20664
20666
20668
20670
20672
20674
20676
20678
20680
20682
20684
20686
20688
20690
20692
20694
20696
20698
20700
20702
20704
20706
20708
20710
20712
20714
20716
20718
20720
20722
20724
20726
20728
20730
20732
20734
20736
20738
20740
20742
20744
20746
20748
20750
20752
20754
20756
20758
20760
20762
20764
20766
20768
20770
20772
20774
20776
20778
20780
20782
20784
20786
20788
20790
20792
20794
20796
20798
20800
20802
20804
20806
20808
20810
20812
20814
20816
20818
20820
20822
20824
20826
20828
20830
20832
20834
20836
20838
20840
20842
20844
20846
20848
20850
20852
20854
20856
20858
20860
20862
20864
20866
20868
20870
20872
20874
20876
20878
20880
20882
20884
20886
20888
20890
20892
20894
20896
20898
20900
20902
20904
20906
20908
20910
20912
20914
20916
20918
20920
20922
20924
20926
20928
20930
20932
20934
20936
20938
20940
20942
20944
20946
20948
20950
20952
20954
20956
20958
20960
20962
20964
20966
20968
20970
20972
20974
20976
20978
20980
20982
20984
20986
20988
20990
20992
20994
20996
20998
21000
21002
21004
21006
21008
21010
21012
21014
21016
21018
21020
21022
21024
21026
21028
21030
21032
21034
21036
21038
21040
21042
21044
21046
21048
21050
21052
21054
21056
21058
21060
21062
21064
21066
21068
21070
21072
21074
21076
21078
21080
21082
21084
21086
21088
21090
21092
21094
21096
21098
21100
21102
21104
21106
21108
21110
21112
21114
21116
21118
21120
21122
21124
21126
21128
21130
21132
21134
21136
21138
21140
21142
21144
21146
21148
21150
21152
21154
21156
21158
21160
21162
21164
21166
21168
21170
21172
21174
21176
21178
21180
21182
21184
21186
21188
21190
21192
21194
21196
21198
21200
21202
21204
21206
21208
21210
21212
21214
21216
21218
21220
21222
21224
21226
21228
21230
21232
21234
21236
21238
21240
21242
21244
21246
21248
21250
21252
21254
21256
21258
21260
21262
21264
21266
21268
21270
21272
21274
21276
21278
21280
21282
21284
21286
21288
21290
21292
21294
21296
21298
21300
21302
21304
21306
21308
21310
21312
21314
21316
21318
21320
21322
21324
21326
21328
21330
21332
21334
21336
21338
21340
21342
21344
21346
21348
21350
21352
21354
21356
21358
21360
21362
21364
21366
21368
21370
21372
21374
21376
21378
21380
21382
21384
21386
21388
21390
21392
21394
21396
21398
21400
21402
21404
21406
21408
21410
21412
21414
21416
21418
21420
21422
21424
21426
21428
21430
21432
21434
21436
21438
21440
21442
21444
21446
21448
21450
21452
21454
21456
21458
21460
21462
21464
21466
21468
21470
21472
21474
21476
21478
21480
21482
21484
21486
21488
21490
21492
21494
21496
21498
21500
21502
21504
21506
21508
21510
21512
21514
21516
21518
21520
21522
21524
21526
21528
21530
21532
21534
21536
21538
21540
21542
21544
21546
21548
21550
21552
21554
21556
21558
21560
21562
21564
21566
21568
21570
21572
21574
21576
21578
21580
21582
21584
21586
21588
21590
21592
21594
21596
21598
21600
21602
21604
21606
21608
21610
21612
21614
21616
21618
21620
21622
21624
21626
21628
21630
21632
21634
21636
21638
21640
21642
21644
21646
21648
21650
21652
21654
21656
21658
21660
21662
21664
21666
21668
21670
21672
21674
21676
21678
21680
21682
21684
21686
21688
21690
21692
21694
21696
21698
21700
21702
21704
21706
21708
21710
21712
21714
21716
21718
21720
21722
21724
21726
21728
21730
21732
21734
21736
21738
21740
21742
21744
21746
21748
21750
21752
21754
21756
21758
21760
21762
21764
21766
21768
21770
21772
21774
21776
21778
21780
21782
21784
21786
21788
21790
21792
21794
21796
21798
21800
21802
21804
21806
21808
21810
21812
21814
21816
21818
21820
21822
21824
21826
21828
21830
21832
21834
21836
21838
21840
21842
21844
21846
21848
21850
21852
21854
21856
21858
21860
21862
21864
21866
21868
21870
21872
21874
21876
21878
21880
21882
21884
21886
21888
21890
21892
21894
21896
21898
21900
21902
21904
21906
21908
21910
21912
21914
21916
21918
21920
21922
21924
21926
21928
21930
21932
21934
21936
21938
21940
21942
21944
21946
21948
21950
21952
21954
21956
21958
21960
21962
21964
21966
21968
21970
21972
21974
21976
21978
21980
21982
21984
21986
21988
21990
21992
21994
21996
21998
22000
22002
22004
22006
22008
22010
22012
22014
22016
22018
22020
22022
22024
22026
22028
22030
22032
22034
22036
22038
22040
22042
22044
22046
22048
22050
22052
22054
22056
22058
22060
22062
22064
22066
22068
22070
22072
22074
22076
22078
22080
22082
22084
22086
22088
22090
22092
22094
22096
22098
22100
22102
22104
22106
22108
22110
22112
22114
22116
22118
22120
22122
22124
22126
22128
22130
22132
22134
22136
22138
22140
22142
22144
22146
22148
22150
22152
22154
22156
22158
22160
22162
22164
22166
22168
22170
22172
22174
22176
22178
22180
22182
22184
22186
22188
22190
22192
22194
22196
22198
22200
22202
22204
22206
22208
22210
22212
22214
22216
22218
22220
22222
22224
22226
22228
22230
22232
22234
22236
22238
22240
22242
22244
22246
22248
22250
22252
22254
22256
22258
22260
22262
22264
22266
22268
22270
22272
22274
22276
22278
22280
22282
22284
22286
22288
22290
22292
22294
22296
22298
22300
22302
22304
22306
22308
22310
22312
22314
22316
22318
22320
22322
22324
22326
22328
22330
22332
22334
22336
22338
22340
22342
22344
22346
22348
22350
22352
22354
22356
22358
22360
22362
22364
22366
22368
22370
22372
22374
22376
22378
22380
22382
22384
22386
22388
22390
22392
22394
22396
22398
22400
22402
22404
22406
22408
22410
22412
22414
22416
22418
22420
22422
22424
22426
22428
22430
22432
22434
22436
22438
22440
22442
22444
22446
22448
22450
22452
22454
22456
22458
22460
22462
22464
22466
22468
22470
22472
22474
22476
22478
22480
22482
22484
22486
22488
22490
22492
22494
22496
22498
22500
22502
22504
22506
22508
22510
22512
22514
22516
22518
22520
22522
22524
22526
22528
22530
22532
22534
22536
22538
22540
22542
22544
22546
22548
22550
22552
22554
22556
22558
22560
22562
22564
22566
22568
22570
22572
22574
22576
22578
22580
22582
22584
22586
22588
22590
22592
22594
22596
22598
22600
22602
22604
22606
22608
22610
22612
22614
22616
22618
22620
22622
22624
22626
22628
22630
22632
22634
22636
22638
22640
22642
22644
22646
22648
22650
22652
22654
22656
22658
22660
22662
22664
22666
22668
22670
22672
22674
22676
22678
22680
22682
22684
22686
22688
22690
22692
22694
22696
22698
22700
22702
22704
22706
22708
22710
22712
22714
22716
22718
22720
22722
22724
22726
22728
22730
22732
22734
22736
22738
22740
22742
22744
22746
22748
22750
22752
22754
22756
22758
22760
22762
22764
22766
22768
22770
22772
22774
22776
22778
22780
22782
22784
22786
22788
22790
22792
22794
22796
22798
22800
22802
22804
22806
22808
22810
22812
22814
22816
22818
22820
22822
22824
22826
22828
22830
22832
22834
22836
22838
22840
22842
22844
22846
22848
22850
22852
22854
22856
22858
22860
22862
22864
22866
22868
22870
22872
22874
22876
22878
22880
22882
22884
22886
22888
22890
22892
22894
22896
22898
22900
22902
22904
22906
22908
22910
22912
22914
22916
22918
22920
22922
22924
22926
22928
22930
22932
22934
22936
22938
22940
22942
22944
22946
22948
22950
22952
22954
22956
22958
22960
22962
22964
22966
22968
22970
22972
22974
22976
22978
22980
22982
22984
22986
22988
22990
22992
22994
22996
22998
23000
23002
23004
23006
23008
23010
23012
23014
23016
23018
23020
23022
23024
23026
23028
23030
23032
23034
23036
23038
23040
23042
23044
23046
23048
23050
23052
23054
23056
23058
23060
23062
23064
23066
23068
23070
23072
23074
23076
23078
23080
23082
23084
23086
23088
23090
23092
23094
23096
23098
23100
23102
23104
23106
23108
23110
23112
23114
23116
23118
23120
23122
23124
23126
23128
23130
23132
23134
23136
23138
23140
23142
23144
23146
23148
23150
23152
23154
23156
23158
23160
23162
23164
23166
23168
23170
23172
23174
23176
23178
23180
23182
23184
23186
23188
23190
23192
23194
23196
23198
23200
23202
23204
23206
23208
23210
23212
23214
23216
23218
23220
23222
23224
23226
23228
23230
23232
23234
23236
23238
23240
23242
23244
23246
23248
23250
23252
23254
23256
23258
23260
23262
23264
23266
23268
23270
23272
23274
23276
23278
23280
23282
23284
23286
23288
23290
23292
23294
23296
23298
23300
23302
23304
23306
23308
23310
23312
23314
23316
23318
23320
23322
23324
23326
23328
23330
23332
23334
23336
23338
23340
23342
23344
23346
23348
23350
23352
23354
23356
23358
23360
23362
23364
23366
23368
23370
23372
23374
23376
23378
23380
23382
23384
23386
23388
23390
23392
23394
23396
23398
23400
23402
23404
23406
23408
23410
23412
23414
23416
23418
23420
23422
23424
23426
23428
23430
23432
23434
23436
23438
23440
23442
23444
23446
23448
23450
23452
23454
23456
23458
23460
23462
23464
23466
23468
23470
23472
23474
23476
23478
23480
23482
23484
23486
23488
23490
23492
23494
23496
23498
23500
23502
23504
23506
23508
23510
23512
23514
23516
23518
23520
23522
23524
23526
23528
23530
23532
23534
23536
23538
23540
23542
23544
23546
23548
23550
23552
23554
23556
23558
23560
23562
23564
23566
23568
23570
23572
23574
23576
23578
23580
23582
23584
23586
23588
23590
23592
23594
23596
23598
23600
23602
23604
23606
23608
23610
23612
23614
23616
23618
23620
23622
23624
23626
23628
23630
23632
23634
23636
23638
23640
23642
23644
23646
23648
23650
23652
23654
23656
23658
23660
23662
23664
23666
23668
23670
23672
23674
23676
23678
23680
23682
23684
23686
23688
23690
23692
23694
23696
23698
23700
23702
23704
23706
23708
23710
23712
23714
23716
23718
23720
23722
23724
23726
23728
23730
23732
23734
23736
23738
23740
23742
23744
23746
23748
23750
23752
23754
23756
23758
23760
23762
23764
23766
23768
23770
23772
23774
23776
23778
23780
23782
23784
23786
23788
23790
23792
23794
23796
23798
23800
23802
23804
23806
23808
23810
23812
23814
23816
23818
23820
23822
23824
23826
23828
23830
23832
23834
23836
23838
23840
23842
23844
23846
23848
23850
23852
23854
23856
23858
23860
23862
23864
23866
23868
23870
23872
23874
23876
23878
23880
23882
23884
23886
23888
23890
23892
23894
23896
23898
23900
23902
23904
23906
23908
23910
23912
23914
23916
23918
23920
23922
23924
23926
23928
23930
23932
23934
23936
23938
23940
23942
23944
23946
23948
23950
23952
23954
23956
23958
23960
23962
23964
23966
23968
23970
23972
23974
23976
23978
23980
23982
23984
23986
23988
23990
23992
23994
23996
23998
24000
24002
24004
24006
24008
24010
24012
24014
24016
24018
24020
24022
24024
24026
24028
24030
24032
24034
24036
24038
24040
24042
24044
24046
24048
24050
24052
24054
24056
24058
24060
24062
24064
24066
24068
24070
24072
24074
24076
24078
24080
24082
24084
24086
24088
24090
24092
24094
24096
24098
24100
24102
24104
24106
24108
24110
24112
24114
24116
24118
24120
24122
24124
24126
24128
24130
24132
24134
24136
24138
24140
24142
24144
24146
24148
24150
24152
24154
24156
24158
24160
24162
24164
24166
24168
24170
24172
24174
24176
24178
24180
24182
24184
24186
24188
24190
24192
24194
24196
24198
24200
24202
24204
24206
24208
24210
24212
24214
24216
24218
24220
24222
24224
24226
24228
24230
24232
24234
24236
24238
24240
24242
24244
24246
24248
24250
24252
24254
24256
24258
24260
24262
24264
24266
24268
24270
24272
24274
24276
24278
24280
24282
24284
24286
24288
24290
24292
24294
24296
24298
24300
24302
24304
24306
24308
24310
24312
24314
24316
24318
24320
24322
24324
24326
24328
24330
24332
24334
24336
24338
24340
24342
24344
24346
24348
24350
24352
24354
24356
24358
24360
24362
24364
24366
24368
24370
24372
24374
24376
24378
24380
24382
24384
24386
24388
24390
24392
24394
24396
24398
24400
24402
24404
24406
24408
24410
24412
24414
24416
24418
24420
24422
24424
24426
24428
24430
24432
24434
24436
24438
24440
24442
24444
24446
24448
24450
24452
24454
24456
24458
24460
24462
24464
24466
24468
24470
24472
24474
24476
24478
24480
24482
24484
24486
24488
24490
24492
24494
24496
24498
24500
24502
24504
24506
24508
24510
24512
24514
24516
24518
24520
24522
24524
24526
24528
24530
24532
24534
24536
24538
24540
24542
24544
24546
24548
24550
24552
24554
24556
24558
24560
24562
24564
24566
24568
24570
24572
24574
24576
24578
24580
24582
24584
24586
24588
24590
24592
24594
24596
24598
24600
24602
24604
24606
24608
24610
24612
24614
24616
24618
24620
24622
24624
24626
24628
24630
24632
24634
24636
24638
24640
24642
24644
24646
24648
24650
24652
24654
24656
24658
24660
24662
24664
24666
24668
24670
24672
24674
24676
24678
24680
24682
24684
24686
24688
24690
24692
24694
24696
24698
24700
24702
24704
24706
24708
24710
24712
24714
24716
24718
24720
24722
24724
24726
24728
24730
24732
24734
24736
24738
24740
24742
24744
24746
24748
24750
24752
24754
24756
24758
24760
24762
24764
24766
24768
24770
24772
24774
24776
24778
24780
24782
24784
24786
24788
24790
24792
24794
24796
24798
24800
24802
24804
24806
24808
24810
24812
24814
24816
24818
24820
24822
24824
24826
24828
24830
24832
24834
24836
24838
24840
24842
24844
24846
24848
24850
24852
24854
24856
24858
24860
24862
24864
24866
24868
24870
24872
24874
24876
24878
24880
24882
24884
24886
24888
24890
24892
24894
24896
24898
24900
24902
24904
24906
24908
24910
24912
24914
24916
24918
24920
24922
24924
24926
24928
24930
24932
24934
24936
24938
24940
24942
24944
24946
24948
24950
24952
24954
24956
24958
24960
24962
24964
24966
24968
24970
24972
24974
24976
24978
24980
24982
24984
24986
24988
24990
24992
24994
24996
24998
25000
25002
25004
25006
25008
25010
25012
25014
25016
25018
25020
25022
25024
25026
25028
25030
25032
25034
25036
25038
25040
25042
25044
25046
25048
25050
25052
25054
25056
25058
25060
25062
25064
25066
25068
25070
25072
25074
25076
25078
25080
25082
25084
25086
25088
25090
25092
25094
25096
25098
25100
25102
25104
25106
25108
25110
25112
25114
25116
25118
25120
25122
25124
25126
25128
25130
25132
25134
25136
25138
25140
25142
25144
25146
25148
25150
25152
25154
25156
25158
25160
25162
25164
25166
25168
25170
25172
25174
25176
25178
25180
25182
25184
25186
25188
25190
25192
25194
25196
25198
25200
25202
25204
25206
25208
25210
25212
25214
25216
25218
25220
25222
25224
25226
25228
25230
25232
25234
25236
25238
25240
25242
25244
25246
25248
25250
25252
25254
25256
25258
25260
25262
25264
25266
25268
25270
25272
25274
25276
25278
25280
25282
25284
25286
25288
25290
25292
25294
25296
25298
25300
25302
25304
25306
25308
25310
25312
25314
25316
25318
25320
25322
25324
25326
25328
25330
25332
25334
25336
25338
25340
25342
25344
25346
25348
25350
25352
25354
25356
25358
25360
25362
25364
25366
25368
25370
25372
25374
25376
25378
25380
25382
25384
25386
25388
25390
25392
25394
25396
25398
25400
25402
25404
25406
25408
25410
25412
25414
25416
25418
25420
25422
25424
25426
25428
25430
25432
25434
25436
25438
25440
25442
25444
25446
25448
25450
25452
25454
25456
25458
25460
25462
25464
25466
25468
25470
25472
25474
25476
25478
25480
25482
25484
25486
25488
25490
25492
25494
25496
25498
25500
25502
25504
25506
25508
25510
25512
25514
25516
25518
25520
25522
25524
25526
25528
25530
25532
25534
25536
25538
25540
25542
25544
25546
25548
25550
25552
25554
25556
25558
25560
25562
25564
25566
25568
25570
25572
25574
25576
25578
25580
25582
25584
25586
25588
25590
25592
25594
25596
25598
25600
25602
25604
25606
25608
25610
25612
25614
25616
25618
25620
25622
25624
25626
25628
25630
25632
25634
25636
25638
25640
25642
25644
25646
25648
25650
25652
25654
25656
25658
25660
25662
25664
25666
25668
25670
25672
25674
25676
25678
25680
25682
25684
25686
25688
25690
25692
25694
25696
25698
25700
25702
25704
25706
25708
25710
25712
25714
25716
25718
25720
25722
25724
25726
25728
25730
25732
25734
25736
25738
25740
25742
25744
25746
25748
25750
25752
25754
25756
25758
25760
25762
25764
25766
25768
25770
25772
25774
25776
25778
25780
25782
25784
25786
25788
25790
25792
25794
25796
25798
25800
25802
25804
25806
25808
25810
25812
25814
25816
25818
25820
25822
25824
25826
25828
25830
25832
25834
25836
25838
25840
25842
25844
25846
25848
25850
25852
25854
25856
25858
25860
25862
25864
25866
25868
25870
25872
25874
25876
25878
25880
25882
25884
25886
25888
25890
25892
25894
25896
25898
25900
25902
25904
25906
25908
25910
25912
25914
25916
25918
25920
25922
25924
25926
25928
25930
25932
25934
25936
25938
25940
25942
25944
25946
25948
25950
25952
25954
25956
25958
25960
25962
25964
25966
25968
25970
25972
25974
25976
25978
25980
25982
25984
25986
25988
25990
25992
25994
25996
25998
26000
26002
26004
26006
26008
26010
26012
26014
26016
26018
26020
26022
26024
26026
26028
26030
26032
26034
26036
26038
26040
26042
26044
26046
26048
26050
26052
26054
26056
26058
26060
26062
26064
26066
26068
26070
26072
26074
26076
26078
26080
26082
26084
26086
26088
26090
26092
26094
26096
26098
26100
26102
26104
26106
26108
26110
26112
26114
26116
26118
26120
26122
26124
26126
26128
26130
26132
26134
26136
26138
26140
26142
26144
26146
26148
26150
26152
26154
26156
26158
26160
26162
26164
26166
26168
26170
26172
26174
26176
26178
26180
26182
26184
26186
26188
26190
26192
26194
26196
26198
26200
26202
26204
26206
26208
26210
26212
26214
26216
26218
26220
26222
26224
26226
26228
26230
26232
26234
26236
26238
26240
26242
26244
26246
26248
26250
26252
26254
26256
26258
26260
26262
26264
26266
26268
26270
26272
26274
26276
26278
26280
26282
26284
26286
26288
26290
26292
26294
26296
26298
26300
26302
26304
26306
26308
26310
26312
26314
26316
26318
26320
26322
26324
26326
26328
26330
26332
26334
26336
26338
26340
26342
26344
26346
26348
26350
26352
26354
26356
26358
26360
26362
26364
26366
26368
26370
26372
26374
26376
26378
26380
26382
26384
26386
26388
26390
26392
26394
26396
26398
26400
26402
26404
26406
26408
26410
26412
26414
26416
26418
26420
26422
26424
26426
26428
26430
26432
26434
26436
26438
26440
26442
26444
26446
26448
26450
26452
26454
26456
26458
26460
26462
26464
26466
26468
26470
26472
26474
26476
26478
26480
26482
26484
26486
26488
26490
26492
26494
26496
26498
26500
26502
26504
26506
26508
26510
26512
26514
26516
26518
26520
26522
26524
26526
26528
26530
26532
26534
26536
26538
26540
26542
26544
26546
26548
26550
26552
26554
26556
26558
26560
26562
26564
26566
26568
26570
26572
26574
26576
26578
26580
26582
26584
26586
26588
26590
26592
26594
26596
26598
26600
26602
26604
26606
26608
26610
26612
26614
26616
26618
26620
26622
26624
26626
26628
26630
26632
26634
26636
26638
26640
26642
26644
26646
26648
26650
26652
26654
26656
26658
26660
26662
26664
26666
26668
26670
26672
26674
26676
26678
26680
26682
26684
26686
26688
26690
26692
26694
26696
26698
26700
26702
26704
26706
26708
26710
26712
26714
26716
26718
26720
26722
26724
26726
26728
26730
26732
26734
26736
26738
26740
26742
26744
26746
26748
26750
26752
26754
26756
26758
26760
26762
26764
26766
26768
26770
26772
26774
26776
26778
26780
26782
26784
26786
26788
26790
26792
26794
26796
26798
26800
26802
26804
26806
26808
26810
26812
26814
26816
26818
26820
26822
26824
26826
26828
26830
26832
26834
26836
26838
26840
26842
26844
26846
26848
26850
26852
26854
26856
26858
26860
26862
26864
26866
26868
26870
26872
26874
26876
26878
26880
26882
26884
26886
26888
26890
26892
26894
26896
26898
26900
26902
26904
26906
26908
26910
26912
26914
26916
26918
26920
26922
26924
26926
26928
26930
26932
26934
26936
26938
26940
26942
26944
26946
26948
26950
26952
26954
26956
26958
26960
26962
26964
26966
26968
26970
26972
26974
26976
26978
26980
26982
26984
26986
26988
26990
26992
26994
26996
26998
27000
27002
27004
27006
27008
27010
27012
27014
27016
27018
27020
27022
27024
27026
27028
27030
27032
27034
27036
27038
27040
27042
27044
27046
27048
27050
27052
27054
27056
27058
27060
27062
27064
27066
27068
27070
27072
27074
27076
27078
27080
27082
27084
27086
27088
27090
27092
27094
27096
27098
27100
27102
27104
27106
27108
27110
27112
27114
27116
27118
27120
27122
27124
27126
27128
27130
27132
27134
27136
27138
27140
27142
27144
27146
27148
27150
27152
27154
27156
27158
27160
27162
27164
27166
27168
27170
27172
27174
27176
27178
27180
27182
27184
27186
27188
27190
27192
27194
27196
27198
27200
27202
27204
27206
27208
27210
27212
27214
27216
27218
27220
27222
27224
27226
27228
27230
27232
27234
27236
27238
27240
27242
27244
27246
27248
27250
27252
27254
27256
27258
27260
27262
27264
27266
27268
27270
27272
27274
27276
27278
27280
27282
27284
27286
27288
27290
27292
27294
27296
27298
27300
27302
27304
27306
27308
27310
27312
27314
27316
27318
27320
27322
27324
27326
27328
27330
27332
27334
27336
27338
27340
27342
27344
27346
27348
27350
27352
27354
27356
27358
27360
27362
27364
27366
27368
27370
27372
27374
27376
27378
27380
27382
27384
27386
27388
27390
27392
27394
27396
27398
27400
27402
27404
27406
27408
27410
27412
27414
27416
27418
27420
27422
27424
27426
27428
27430
27432
27434
27436
27438
27440
27442
27444
27446
27448
27450
27452
27454
27456
27458
27460
27462
27464
27466
27468
27470
27472
27474
27476
27478
27480
27482
27484
27486
27488
27490
27492
27494
27496
27498
27500
27502
27504
27506
27508
27510
27512
27514
27516
27518
27520
27522
27524
27526
27528
27530
27532
27534
27536
27538
27540
27542
27544
27546
27548
27550
27552
27554
27556
27558
27560
27562
27564
27566
27568
27570
27572
27574
27576
27578
27580
27582
27584
27586
27588
27590
27592
27594
27596
27598
27600
27602
27604
27606
27608
27610
27612
27614
27616
27618
27620
27622
27624
27626
27628
27630
27632
27634
27636
27638
27640
27642
27644
27646
27648
27650
27652
27654
27656
27658
27660
27662
27664
27666
27668
27670
27672
27674
27676
27678
27680
27682
27684
27686
27688
27690
27692
27694
27696
27698
27700
27702
27704
27706
27708
27710
27712
27714
27716
27718
27720
27722
27724
27726
27728
27730
27732
27734
27736
27738
27740
27742
27744
27746
27748
27750
27752
27754
27756
27758
27760
27762
27764
27766
27768
27770
27772
27774
27776
27778
27780
27782
27784
27786
27788
27790
27792
27794
27796
27798
27800
27802
27804
27806
27808
27810
27812
27814
27816
27818
27820
27822
27824
27826
27828
27830
27832
27834
27836
27838
27840
27842
27844
27846
27848
27850
27852
27854
27856
27858
27860
27862
27864
27866
27868
27870
27872
27874
27876
27878
27880
27882
27884
27886
27888
27890
27892
27894
27896
27898
27900
27902
27904
27906
27908
27910
27912
27914
27916
27918
27920
27922
27924
27926
27928
27930
27932
27934
27936
27938
27940
27942
27944
27946
27948
27950
27952
27954
27956
27958
27960
27962
27964
27966
27968
27970
27972
27974
27976
27978
27980
27982
27984
27986
27988
27990
27992
27994
27996
27998
28000
28002
28004
28006
28008
28010
28012
28014
28016
28018
28020
28022
28024
28026
28028
28030
28032
28034
28036
28038
28040
28042
28044
28046
28048
28050
28052
28054
28056
28058
28060
28062
28064
28066
28068
28070
28072
28074
28076
28078
28080
28082
28084
28086
28088
28090
28092
28094
28096
28098
28100
28102
28104
28106
28108
28110
28112
28114
28116
28118
28120
28122
28124
28126
28128
28130
28132
28134
28136
28138
28140
28142
28144
28146
28148
28150
28152
28154
28156
28158
28160
28162
28164
28166
28168
28170
28172
28174
28176
28178
28180
28182
28184
28186
28188
28190
28192
28194
28196
28198
28200
28202
28204
28206
28208
28210
28212
28214
28216
28218
28220
28222
28224
28226
28228
28230
28232
28234
28236
28238
28240
28242
28244
28246
28248
28250
28252
28254
28256
28258
28260
28262
28264
28266
28268
28270
28272
28274
28276
28278
28280
28282
28284
28286
28288
28290
28292
28294
28296
28298
28300
28302
28304
28306
28308
28310
28312
28314
28316
28318
28320
28322
28324
28326
28328
28330
28332
28334
28336
28338
28340
28342
28344
28346
28348
28350
28352
28354
28356
28358
28360
28362
28364
28366
28368
28370
28372
28374
28376
28378
28380
28382
28384
28386
28388
28390
28392
28394
28396
28398
28400
28402
28404
28406
28408
28410
28412
28414
28416
28418
28420
28422
28424
28426
28428
28430
28432
28434
28436
28438
28440
28442
28444
28446
28448
28450
28452
28454
28456
28458
28460
28462
28464
28466
28468
28470
28472
28474
28476
28478
28480
28482
28484
28486
28488
28490
28492
28494
28496
28498
28500
28502
28504
28506
28508
28510
28512
28514
28516
28518
28520
28522
28524
28526
28528
28530
28532
28534
28536
28538
28540
28542
28544
28546
28548
28550
28552
28554
28556
28558
28560
28562
28564
28566
28568
28570
28572
28574
28576
28578
28580
28582
28584
28586
28588
28590
28592
28594
28596
28598
28600
28602
28604
28606
28608
28610
28612
28614
28616
28618
28620
28622
28624
28626
28628
28630
28632
28634
28636
28638
28640
28642
28644
28646
28648
28650
28652
28654
28656
28658
28660
28662
28664
28666
28668
28670
28672
28674
28676
28678
28680
28682
28684
28686
28688
28690
28692
28694
28696
28698
28700
28702
28704
28706
28708
28710
28712
28714
28716
28718
28720
28722
28724
28726
28728
28730
28732
28734
28736
28738
28740
28742
28744
28746
28748
28750
28752
28754
28756
28758
28760
28762
28764
28766
28768
28770
28772
28774
28776
28778
28780
28782
28784
28786
28788
28790
28792
28794
28796
28798
28800
28802
28804
28806
28808
28810
28812
28814
28816
28818
28820
28822
28824
28826
28828
28830
28832
28834
28836
28838
28840
28842
28844
28846
28848
28850
28852
28854
28856
28858
28860
28862
28864
28866
28868
28870
28872
28874
28876
28878
28880
28882
28884
28886
28888
28890
28892
28894
28896
28898
28900
28902
28904
28906
28908
28910
28912
28914
28916
28918
28920
28922
28924
28926
28928
28930
28932
28934
28936
28938
28940
28942
28944
28946
28948
28950
28952
28954
28956
28958
28960
28962
28964
28966
28968
28970
28972
28974
28976
28978
28980
28982
28984
28986
28988
28990
28992
28994
28996
28998
29000
29002
29004
29006
29008
29010
29012
29014
29016
29018
29020
29022
29024
29026
29028
29030
29032
29034
29036
29038
29040
29042
29044
29046
29048
29050
29052
29054
29056
29058
29060
29062
29064
29066
29068
29070
29072
29074
29076
29078
29080
29082
29084
29086
29088
29090
29092
29094
29096
29098
29100
29102
29104
29106
29108
29110
29112
29114
29116
29118
29120
29122
29124
29126
29128
29130
29132
29134
29136
29138
29140
29142
29144
29146
29148
29150
29152
29154
29156
29158
29160
29162
29164
29166
29168
29170
29172
29174
29176
29178
29180
29182
29184
29186
29188
29190
29192
29194
29196
29198
29200
29202
29204
29206
29208
29210
29212
29214
29216
29218
29220
29222
29224
29226
29228
29230
29232
29234
29236
29238
29240
29242
29244
29246
29248
29250
29252
29254
29256
29258
29260
29262
29264
29266
29268
29270
29272
29274
29276
29278
29280
29282
29284
29286
29288
29290
29292
29294
29296
29298
29300
29302
29304
29306
29308
29310
29312
29314
29316
29318
29320
29322
29324
29326
29328
29330
29332
29334
29336
29338
29340
29342
29344
29346
29348
29350
29352
29354
29356
29358
29360
29362
29364
29366
29368
29370
29372
29374
29376
29378
29380
29382
29384
29386
29388
29390
29392
29394
29396
29398
29400
29402
29404
29406
29408
29410
29412
29414
29416
29418
29420
29422
29424
29426
29428
29430
29432
29434
29436
29438
29440
29442
29444
29446
29448
29450
29452
29454
29456
29458
29460
29462
29464
29466
29468
29470
29472
29474
29476
29478
29480
29482
29484
29486
29488
29490
29492
29494
29496
29498
29500
29502
29504
29506
29508
29510
29512
29514
29516
29518
29520
29522
29524
29526
29528
29530
29532
29534
29536
29538
29540
29542
29544
29546
29548
29550
29552
29554
29556
29558
29560
29562
29564
29566
29568
29570
29572
29574
29576
29578
29580
29582
29584
29586
29588
29590
29592
29594
29596
29598
29600
29602
29604
29606
29608
29610
29612
29614
29616
29618
29620
29622
29624
29626
29628
29630
29632
29634
29636
29638
29640
29642
29644
29646
29648
29650
29652
29654
29656
29658
29660
29662
29664
29666
29668
29670
29672
29674
29676
29678
29680
29682
29684
29686
29688
29690
29692
29694
29696
29698
29700
29702
29704
29706
29708
29710
29712
29714
29716
29718
29720
29722
29724
29726
29728
29730
29732
29734
29736
29738
29740
29742
29744
29746
29748
29750
29752
29754
29756
29758
29760
29762
29764
29766
29768
29770
29772
29774
29776
29778
29780
29782
29784
29786
29788
29790
29792
29794
29796
29798
29800
29802
29804
29806
29808
29810
29812
29814
29816
29818
29820
29822
29824
29826
29828
29830
29832
29834
29836
29838
29840
29842
29844
29846
29848
29850
29852
29854
29856
29858
29860
29862
29864
29866
29868
29870
29872
29874
29876
29878
29880
29882
29884
29886
29888
29890
29892
29894
29896
29898
29900
29902
29904
29906
29908
29910
29912
29914
29916
29918
29920
29922
29924
29926
29928
29930
29932
29934
29936
29938
29940
29942
29944
29946
29948
29950
29952
29954
29956
29958
29960
29962
29964
29966
29968
29970
29972
29974
29976
29978
29980
29982
29984
29986
29988
29990
29992
29994
29996
29998
30000
30002
30004
30006
30008
30010
30012
30014
30016
30018
30020
30022
30024
30026
30028
30030
30032
30034
30036
30038
30040
30042
30044
30046
30048
30050
30052
30054
30056
30058
30060
30062
30064
30066
30068
30070
30072
30074
30076
30078
30080
30082
30084
30086
30088
30090
30092
30094
30096
30098
30100
30102
30104
30106
30108
30110
30112
30114
30116
30118
30120
30122
30124
30126
30128
30130
30132
30134
30136
30138
30140
30142
30144
30146
30148
30150
30152
30154
30156
30158
30160
30162
30164
30166
30168
30170
30172
30174
30176
30178
30180
30182
30184
30186
30188
30190
30192
30194
30196
30198
30200
30202
30204
30206
30208
30210
30212
30214
30216
30218
30220
30222
30224
30226
30228
30230
30232
30234
30236
30238
30240
30242
30244
30246
30248
30250
30252
30254
30256
30258
30260
30262
30264
30266
30268
30270
30272
30274
30276
30278
30280
30282
30284
30286
30288
30290
30292
30294
30296
30298
30300
30302
30304
30306
30308
30310
30312
30314
30316
30318
30320
30322
30324
30326
30328
30330
30332
30334
30336
30338
30340
30342
30344
30346
30348
30350
30352
30354
30356
30358
30360
30362
30364
30366
30368
30370
30372
30374
30376
30378
30380
30382
30384
30386
30388
30390
30392
30394
30396
30398
30400
30402
30404
30406
30408
30410
30412
30414
30416
30418
30420
30422
30424
30426
30428
30430
30432
30434
30436
30438
30440
30442
30444
30446
30448
30450
30452
30454
30456
30458
30460
30462
30464
30466
30468
30470
30472
30474
30476
30478
30480
30482
30484
30486
30488
30490
30492
30494
30496
30498
30500
30502
30504
30506
30508
30510
30512
30514
30516
30518
30520
30522
30524
30526
30528
30530
30532
30534
30536
30538
30540
30542
30544
30546
30548
30550
30552
30554
30556
30558
30560
30562
30564
30566
30568
30570
30572
30574
30576
30578
30580
30582
30584
30586
30588
30590
30592
30594
30596
30598
30600
30602
30604
30606
30608
30610
30612
30614
30616
30618
30620
30622
30624
30626
30628
30630
30632
30634
30636
30638
30640
30642
30644
30646
30648
30650
30652
30654
30656
30658
30660
30662
30664
30666
30668
30670
30672
30674
30676
30678
30680
30682
30684
30686
30688
30690
30692
30694
30696
30698
30700
30702
30704
30706
30708
30710
30712
30714
30716
30718
30720
30722
30724
30726
30728
30730
30732
30734
30736
30738
30740
30742
30744
30746
30748
30750
30752
30754
30756
30758
30760
30762
30764
30766
30768
30770
30772
30774
30776
30778
30780
30782
30784
30786
30788
30790
30792
30794
30796
30798
30800
30802
30804
30806
30808
30810
30812
30814
30816
30818
30820
30822
30824
30826
30828
30830
30832
30834
30836
30838
30840
30842
30844
30846
30848
30850
30852
30854
30856
30858
30860
30862
30864
30866
30868
30870
30872
30874
30876
30878
30880
30882
30884
30886
30888
30890
30892
30894
30896
30898
30900
30902
30904
30906
30908
30910
30912
30914
30916
30918
30920
30922
30924
30926
30928
30930
30932
30934
30936
30938
30940
30942
30944
30946
30948
30950
30952
30954
30956
30958
30960
30962
30964
30966
30968
30970
30972
30974
30976
30978
30980
30982
30984
30986
30988
30990
30992
30994
30996
30998
31000
31002
31004
31006
31008
31010
31012
31014
31016
31018
31020
31022
31024
31026
31028
31030
31032
31034
31036
31038
31040
31042
31044
31046
31048
31050
31052
31054
31056
31058
31060
31062
31064
31066
31068
31070
31072
31074
31076
31078
31080
31082
31084
31086
31088
31090
31092
31094
31096
31098
31100
31102
31104
31106
31108
31110
31112
31114
31116
31118
31120
31122
31124
31126
31128
31130
31132
31134
31136
31138
31140
31142
31144
31146
31148
31150
31152
31154
31156
31158
31160
31162
31164
31166
31168
31170
31172
31174
31176
31178
31180
31182
31184
31186
31188
31190
31192
31194
31196
31198
31200
31202
31204
31206
31208
31210
31212
31214
31216
31218
31220
31222
31224
31226
31228
31230
31232
31234
31236
31238
31240
31242
31244
31246
31248
31250
31252
31254
31256
31258
31260
31262
31264
31266
31268
31270
31272
31274
31276
31278
31280
31282
31284
31286
31288
31290
31292
31294
31296
31298
31300
31302
31304
31306
31308
31310
31312
31314
31316
31318
31320
31322
31324
31326
31328
31330
31332
31334
31336
31338
31340
31342
31344
31346
31348
31350
31352
31354
31356
31358
31360
31362
31364
31366
31368
31370
31372
31374
31376
31378
31380
31382
31384
31386
31388
31390
31392
31394
31396
31398
31400
31402
31404
31406
31408
31410
31412
31414
31416
31418
31420
31422
31424
31426
31428
31430
31432
31434
31436
31438
31440
31442
31444
31446
31448
31450
31452
31454
31456
31458
31460
31462
31464
31466
31468
31470
31472
31474
31476
31478
31480
31482
31484
31486
31488
31490
31492
31494
31496
31498
31500
31502
31504
31506
31508
31510
31512
31514
31516
31518
31520
31522
31524
31526
31528
31530
31532
31534
31536
31538
31540
31542
31544
31546
31548
31550
31552
31554
31556
31558
31560
31562
31564
31566
31568
31570
31572
31574
31576
31578
31580
31582
31584
31586
31588
31590
31592
31594
31596
31598
31600
31602
31604
31606
31608
31610
31612
31614
31616
31618
31620
31622
31624
31626
31628
31630
31632
31634
31636
31638
31640
31642
31644
31646
31648
31650
31652
31654
31656
31658
31660
31662
31664
31666
31668
31670
31672
31674
31676
31678
31680
31682
31684
31686
31688
31690
31692
31694
31696
31698
31700
31702
31704
31706
31708
31710
31712
31714
31716
31718
31720
31722
31724
31726
31728
31730
31732
31734
31736
31738
31740
31742
31744
31746
31748
31750
31752
31754
31756
31758
31760
31762
31764
31766
31768
31770
31772
31774
31776
31778
31780
31782
31784
31786
31788
31790
31792
31794
31796
31798
31800
31802
31804
31806
31808
31810
31812
31814
31816
31818
31820
31822
31824
31826
31828
31830
31832
31834
31836
31838
31840
31842
31844
31846
31848
31850
31852
31854
31856
31858
31860
31862
31864
31866
31868
31870
31872
31874
31876
31878
31880
31882
31884
31886
31888
31890
31892
31894
31896
31898
31900
31902
31904
31906
31908
31910
31912
31914
31916
31918
31920
31922
31924
31926
31928
31930
31932
31934
31936
31938
31940
31942
31944
31946
31948
31950
31952
31954
31956
31958
31960
31962
31964
31966
31968
31970
31972
31974
31976
31978
31980
31982
31984
31986
31988
31990
31992
31994
31996
31998
32000
32002
32004
32006
32008
32010
32012
32014
32016
32018
32020
32022
32024
32026
32028
32030
32032
32034
32036
32038
32040
32042
32044
32046
32048
32050
32052
32054
32056
32058
32060
32062
32064
32066
32068
32070
32072
32074
32076
32078
32080
32082
32084
32086
32088
32090
32092
32094
32096
32098
32100
32102
32104
32106
32108
32110
32112
32114
32116
32118
32120
32122
32124
32126
32128
32130
32132
32134
32136
32138
32140
32142
32144
32146
32148
32150
32152
32154
32156
32158
32160
32162
32164
32166
32168
32170
32172
32174
32176
32178
32180
32182
32184
32186
32188
32190
32192
32194
32196
32198
32200
32202
32204
32206
32208
32210
32212
32214
32216
32218
32220
32222
32224
32226
32228
32230
32232
32234
32236
32238
32240
32242
32244
32246
32248
32250
32252
32254
32256
32258
32260
32262
32264
32266
32268
32270
32272
32274
32276
32278
32280
32282
32284
32286
32288
32290
32292
32294
32296
32298
32300
32302
32304
32306
32308
32310
32312
32314
32316
32318
32320
32322
32324
32326
32328
32330
32332
32334
32336
32338
32340
32342
32344
32346
32348
32350
32352
32354
32356
32358
32360
32362
32364
32366
32368
32370
32372
32374
32376
32378
32380
32382
32384
32386
32388
32390
32392
32394
32396
32398
32400
32402
32404
32406
32408
32410
32412
32414
32416
32418
32420
32422
32424
32426
32428
32430
32432
32434
32436
32438
32440
32442
32444
32446
32448
32450
32452
32454
32456
32458
32460
32462
32464
32466
32468
32470
32472
32474
32476
32478
32480
32482
32484
32486
32488
32490
32492
32494
32496
32498
32500
32502
32504
32506
32508
32510
32512
32514
32516
32518
32520
32522
32524
32526
32528
32530
32532
32534
32536
32538
32540
32542
32544
32546
32548
32550
32552
32554
32556
32558
32560
32562
32564
32566
32568
32570
32572
32574
32576
32578
32580
32582
32584
32586
32588
32590
32592
32594
32596
32598
32600
32602
32604
32606
32608
32610
32612
32614
32616
32618
32620
32622
32624
32626
32628
32630
32632
32634
32636
32638
32640
32642
32644
32646
32648
32650
32652
32654
32656
32658
32660
32662
32664
32666
32668
32670
32672
32674
32676
32678
32680
32682
32684
32686
32688
32690
32692
32694
32696
32698
32700
32702
32704
32706
32708
32710
32712
32714
32716
32718
32720
32722
32724
32726
32728
32730
32732
32734
32736
32738
32740
32742
32744
32746
32748
32750
32752
32754
32756
32758
32760
32762
32764
32766
32768
32770
32772
32774
32776
32778
32780
32782
32784
32786
32788
32790
32792
32794
32796
32798
32800
32802
32804
32806
32808
32810
32812
32814
32816
32818
32820
32822
32824
32826
32828
32830
32832
32834
32836
32838
32840
32842
32844
32846
32848
32850
32852
32854
32856
32858
32860
32862
32864
32866
32868
32870
32872
32874
32876
32878
32880
32882
32884
32886
32888
32890
32892
32894
32896
32898
32900
32902
32904
32906
32908
32910
32912
32914
32916
32918
32920
32922
32924
32926
32928
32930
32932
32934
32936
32938
32940
32942
32944
32946
32948
32950
32952
32954
32956
32958
32960
32962
32964
32966
32968
32970
32972
32974
32976
32978
32980
32982
32984
32986
32988
32990
32992
32994
32996
32998
33000
33002
33004
33006
33008
33010
33012
33014
33016
33018
33020
33022
33024
33026
33028
33030
33032
33034
33036
33038
33040
33042
33044
33046
33048
33050
33052
33054
33056
33058
33060
33062
33064
33066
33068
33070
33072
33074
33076
33078
33080
33082
33084
33086
33088
33090
33092
33094
33096
33098
33100
33102
33104
33106
33108
33110
33112
33114
33116
33118
33120
33122
33124
33126
33128
33130
33132
33134
33136
33138
33140
33142
33144
33146
33148
33150
33152
33154
33156
33158
33160
33162
33164
33166
33168
33170
33172
33174
33176
33178
33180
33182
33184
33186
33188
33190
33192
33194
33196
33198
33200
33202
33204
33206
33208
33210
33212
33214
33216
33218
33220
33222
33224
33226
33228
33230
33232
33234
33236
33238
33240
33242
33244
33246
33248
33250
33252
33254
33256
33258
33260
33262
33264
33266
33268
33270
33272
33274
33276
33278
33280
33282
33284
33286
33288
33290
33292
33294
33296
33298
33300
33302
33304
33306
33308
33310
33312
33314
33316
33318
33320
33322
33324
33326
33328
33330
33332
33334
33336
33338
33340
33342
33344
33346
33348
33350
33352
33354
33356
33358
33360
33362
33364
33366
33368
33370
33372
33374
33376
33378
33380
33382
33384
33386
33388
33390
33392
33394
33396
33398
33400
33402
33404
33406
33408
33410
33412
33414
33416
33418
33420
33422
33424
33426
33428
33430
33432
33434
33436
33438
33440
33442
33444
33446
33448
33450
33452
33454
33456
33458
33460
33462
33464
33466
33468
33470
33472
33474
33476
33478
33480
33482
33484
33486
33488
33490
33492
33494
33496
33498
33500
33502
33504
33506
33508
33510
33512
33514
33516
33518
33520
33522
33524
33526
33528
33530
33532
33534
33536
33538
33540
33542
33544
33546
33548
33550
33552
33554
33556
33558
33560
33562
33564
33566
33568
33570
33572
33574
33576
33578
33580
33582
33584
33586
33588
33590
33592
33594
33596
33598
33600
33602
33604
33606
33608
33610
33612
33614
33616
33618
33620
33622
33624
33626
33628
33630
33632
33634
33636
33638
33640
33642
33644
33646
33648
33650
33652
33654
33656
33658
33660
33662
33664
33666
33668
33670
33672
33674
33676
33678
33680
33682
33684
33686
33688
33690
33692
33694
33696
33698
33700
33702
33704
33706
33708
33710
33712
33714
33716
33718
33720
33722
33724
33726
33728
33730
33732
33734
33736
33738
33740
33742
33744
33746
33748
33750
33752
33754
33756
33758
33760
33762
33764
33766
33768
33770
33772
33774
33776
33778
33780
33782
33784
33786
33788
33790
33792
33794
33796
33798
33800
33802
33804
33806
33808
33810
33812
33814
33816
33818
33820
33822
33824
33826
33828
33830
33832
33834
33836
33838
33840
33842
33844
33846
33848
33850
33852
33854
33856
33858
33860
33862
33864
33866
33868
33870
33872
33874
33876
33878
33880
33882
33884
33886
33888
33890
33892
33894
33896
33898
33900
33902
33904
33906
33908
33910
33912
33914
33916
33918
33920
33922
33924
33926
33928
33930
33932
33934
33936
33938
33940
33942
33944
33946
33948
33950
33952
33954
33956
33958
33960
33962
33964
33966
33968
33970
33972
33974
33976
33978
33980
33982
33984
33986
33988
33990
33992
33994
33996
33998
34000
34002
34004
34006
34008
34010
34012
34014
34016
34018
34020
34022
34024
34026
34028
34030
34032
34034
34036
34038
34040
34042
34044
34046
34048
34050
34052
34054
34056
34058
34060
34062
34064
34066
34068
34070
34072
34074
34076
34078
34080
34082
34084
34086
34088
34090
34092
34094
34096
34098
34100
34102
34104
34106
34108
34110
34112
34114
34116
34118
34120
34122
34124
34126
34128
34130
34132
34134
34136
34138
34140
34142
34144
34146
34148
34150
34152
34154
34156
34158
34160
34162
34164
34166
34168
34170
34172
34174
34176
34178
34180
34182
34184
34186
34188
34190
34192
34194
34196
34198
34200
34202
34204
34206
34208
34210
34212
34214
34216
34218
34220
34222
34224
34226
34228
34230
34232
34234
34236
34238
34240
34242
34244
34246
34248
34250
34252
34254
34256
34258
34260
34262
34264
34266
34268
34270
34272
34274
34276
34278
34280
34282
34284
34286
34288
34290
34292
34294
34296
34298
34300
34302
34304
34306
34308
34310
34312
34314
34316
34318
34320
34322
34324
34326
34328
34330
34332
34334
34336
34338
34340
34342
34344
34346
34348
34350
34352
34354
34356
34358
34360
34362
34364
34366
34368
34370
34372
34374
34376
34378
34380
34382
34384
34386
34388
34390
34392
34394
34396
34398
34400
34402
34404
34406
34408
34410
34412
34414
34416
34418
34420
34422
34424
34426
34428
34430
34432
34434
34436
34438
34440
34442
34444
34446
34448
34450
34452
34454
34456
34458
34460
34462
34464
34466
34468
34470
34472
34474
34476
34478
34480
34482
34484
34486
34488
34490
34492
34494
34496
34498
34500
34502
34504
34506
34508
34510
34512
34514
34516
34518
34520
34522
34524
34526
34528
34530
34532
34534
34536
34538
34540
34542
34544
34546
34548
34550
34552
34554
34556
34558
34560
34562
34564
34566
34568
34570
34572
34574
34576
34578
34580
34582
34584
34586
34588
34590
34592
34594
34596
34598
34600
34602
34604
34606
34608
34610
34612
34614
34616
34618
34620
34622
34624
34626
34628
34630
34632
34634
34636
34638
34640
34642
34644
34646
34648
34650
34652
34654
34656
34658
34660
34662
34664
34666
34668
34670
34672
34674
34676
34678
34680
34682
34684
34686
34688
34690
34692
34694
34696
34698
34700
34702
34704
34706
34708
34710
34712
34714
34716
34718
34720
34722
34724
34726
34728
34730
34732
34734
34736
34738
34740
34742
34744
34746
34748
34750
34752
34754
34756
34758
34760
34762
34764
34766
34768
34770
34772
34774
34776
34778
34780
34782
34784
34786
34788
34790
34792
34794
34796
34798
34800
34802
34804
34806
34808
34810
34812
34814
34816
34818
34820
34822
34824
34826
34828
34830
34832
34834
34836
34838
34840
34842
34844
34846
34848
34850
34852
34854
34856
34858
34860
34862
34864
34866
34868
34870
34872
34874
34876
34878
34880
34882
34884
34886
34888
34890
34892
34894
34896
34898
34900
34902
34904
34906
34908
34910
34912
34914
34916
34918
34920
34922
34924
34926
34928
34930
34932
34934
34936
34938
34940
34942
34944
34946
34948
34950
34952
34954
34956
34958
34960
34962
34964
34966
34968
34970
34972
34974
34976
34978
34980
34982
34984
34986
34988
34990
34992
34994
34996
34998
35000
35002
35004
35006
35008
35010
35012
35014
35016
35018
35020
35022
35024
35026
35028
35030
35032
35034
35036
35038
35040
35042
35044
35046
35048
35050
35052
35054
35056
35058
35060
35062
35064
35066
35068
35070
35072
35074
35076
35078
35080
35082
35084
35086
35088
35090
35092
35094
35096
35098
35100
35102
35104
35106
35108
35110
35112
35114
35116
35118
35120
35122
35124
35126
35128
35130
35132
35134
35136
35138
35140
35142
35144
35146
35148
35150
35152
35154
35156
35158
35160
35162
35164
35166
35168
35170
35172
35174
35176
35178
35180
35182
35184
35186
35188
35190
35192
35194
35196
35198
35200
35202
35204
35206
35208
35210
35212
35214
35216
35218
35220
35222
35224
35226
35228
35230
35232
35234
35236
35238
35240
35242
35244
35246
35248
35250
35252
35254
35256
35258
35260
35262
35264
35266
35268
35270
35272
35274
35276
35278
35280
35282
35284
35286
35288
35290
35292
35294
35296
35298
35300
35302
35304
35306
35308
35310
35312
35314
35316
35318
35320
35322
35324
35326
35328
35330
35332
35334
35336
35338
35340
35342
35344
35346
35348
35350
35352
35354
35356
35358
35360
35362
35364
35366
35368
35370
35372
35374
35376
35378
35380
35382
35384
35386
35388
35390
35392
35394
35396
35398
35400
35402
35404
35406
35408
35410
35412
35414
35416
35418
35420
35422
35424
35426
35428
35430
35432
35434
35436
35438
35440
35442
35444
35446
35448
35450
35452
35454
35456
35458
35460
35462
35464
35466
35468
35470
35472
35474
35476
35478
35480
35482
35484
35486
35488
35490
35492
35494
35496
35498
35500
35502
35504
35506
35508
35510
35512
35514
35516
35518
35520
35522
35524
35526
35528
35530
35532
35534
35536
35538
35540
35542
35544
35546
35548
35550
35552
35554
35556
35558
35560
35562
35564
35566
35568
35570
35572
35574
35576
35578
35580
35582
35584
35586
35588
35590
35592
35594
35596
35598
35600
35602
35604
35606
35608
35610
35612
35614
35616
35618
35620
35622
35624
35626
35628
35630
35632
35634
35636
35638
35640
35642
35644
35646
35648
35650
35652
35654
35656
35658
35660
35662
35664
35666
35668
35670
35672
35674
35676
35678
35680
35682
35684
35686
35688
35690
35692
35694
35696
35698
35700
35702
35704
35706
35708
35710
35712
35714
35716
35718
35720
35722
35724
35726
35728
35730
35732
35734
35736
35738
35740
35742
35744
35746
35748
35750
35752
35754
35756
35758
35760
35762
35764
35766
35768
35770
35772
35774
35776
35778
35780
35782
35784
35786
35788
35790
35792
35794
35796
35798
35800
35802
35804
35806
35808
35810
35812
35814
35816
35818
35820
35822
35824
35826
35828
35830
35832
35834
35836
35838
35840
35842
35844
35846
35848
35850
35852
35854
35856
35858
35860
35862
35864
35866
35868
35870
35872
35874
35876
35878
35880
35882
35884
35886
35888
35890
35892
35894
35896
35898
35900
35902
35904
35906
35908
35910
35912
35914
35916
35918
35920
35922
35924
35926
35928
35930
35932
35934
35936
35938
35940
35942
35944
35946
35948
35950
35952
35954
35956
35958
35960
35962
35964
35966
35968
35970
35972
35974
35976
35978
35980
35982
35984
35986
35988
35990
35992
35994
35996
35998
36000
36002
36004
36006
36008
36010
36012
36014
36016
36018
36020
36022
36024
36026
36028
36030
36032
36034
36036
36038
36040
36042
36044
36046
36048
36050
36052
36054
36056
36058
36060
36062
36064
36066
36068
36070
36072
36074
36076
36078
36080
36082
36084
36086
36088
36090
36092
36094
36096
36098
36100
36102
36104
36106
36108
36110
36112
36114
36116
36118
36120
36122
36124
36126
36128
36130
36132
36134
36136
36138
36140
36142
36144
36146
36148
36150
36152
36154
36156
36158
36160
36162
36164
36166
36168
36170
36172
36174
36176
36178
36180
36182
36184
36186
36188
36190
36192
36194
36196
36198
36200
36202
36204
36206
36208
36210
36212
36214
36216
36218
36220
36222
36224
36226
36228
36230
36232
36234
36236
36238
36240
36242
36244
36246
36248
36250
36252
36254
36256
36258
36260
36262
36264
36266
36268
36270
36272
36274
36276
36278
36280
36282
36284
36286
36288
36290
36292
36294
36296
36298
36300
36302
36304
36306
36308
36310
36312
36314
36316
36318
36320
36322
36324
36326
36328
36330
36332
36334
36336
36338
36340
36342
36344
36346
36348
36350
36352
36354
36356
36358
36360
36362
36364
36366
36368
36370
36372
36374
36376
36378
36380
36382
36384
36386
36388
36390
36392
36394
36396
36398
36400
36402
36404
36406
36408
36410
36412
36414
36416
36418
36420
36422
36424
36426
36428
36430
36432
36434
36436
36438
36440
36442
36444
36446
36448
36450
36452
36454
36456
36458
36460
36462
36464
36466
36468
36470
36472
36474
36476
36478
36480
36482
36484
36486
36488
36490
36492
36494
36496
36498
36500
36502
36504
36506
36508
36510
36512
36514
36516
36518
36520
36522
36524
36526
36528
36530
36532
36534
36536
36538
36540
36542
36544
36546
36548
36550
36552
36554
36556
36558
36560
36562
36564
36566
36568
36570
36572
36574
36576
36578
36580
36582
36584
36586
36588
36590
36592
36594
36596
36598
36600
36602
36604
36606
36608
36610
36612
36614
36616
36618
36620
36622
36624
36626
36628
36630
36632
36634
36636
36638
36640
36642
36644
36646
36648
36650
36652
36654
36656
36658
36660
36662
36664
36666
36668
36670
36672
36674
36676
36678
36680
36682
36684
36686
36688
36690
36692
36694
36696
36698
36700
36702
36704
36706
36708
36710
36712
36714
36716
36718
36720
36722
36724
36726
36728
36730
36732
36734
36736
36738
36740
36742
36744
36746
36748
36750
36752
36754
36756
36758
36760
36762
36764
36766
36768
36770
36772
36774
36776
36778
36780
36782
36784
36786
36788
36790
36792
36794
36796
36798
36800
36802
36804
36806
36808
36810
36812
36814
36816
36818
36820
36822
36824
36826
36828
36830
36832
36834
36836
36838
36840
36842
36844
36846
36848
36850
36852
36854
36856
36858
36860
36862
36864
36866
36868
36870
36872
36874
36876
36878
36880
36882
36884
36886
36888
36890
36892
36894
36896
36898
36900
36902
36904
36906
36908
36910
36912
36914
36916
36918
36920
36922
36924
36926
36928
36930
36932
36934
36936
36938
36940
36942
36944
36946
36948
36950
36952
36954
36956
36958
36960
36962
36964
36966
36968
36970
36972
36974
36976
36978
36980
36982
36984
36986
36988
36990
36992
36994
36996
36998
37000
37002
37004
37006
37008
37010
37012
37014
37016
37018
37020
37022
37024
37026
37028
37030
37032
37034
37036
37038
37040
37042
37044
37046
37048
37050
37052
37054
37056
37058
37060
37062
37064
37066
37068
37070
37072
37074
37076
37078
37080
37082
37084
37086
37088
37090
37092
37094
37096
37098
37100
37102
37104
37106
37108
37110
37112
37114
37116
37118
37120
37122
37124
37126
37128
37130
37132
37134
37136
37138
37140
37142
37144
37146
37148
37150
37152
37154
37156
37158
37160
37162
37164
37166
37168
37170
37172
37174
37176
37178
37180
37182
37184
37186
37188
37190
37192
37194
37196
37198
37200
37202
37204
37206
37208
37210
37212
37214
37216
37218
37220
37222
37224
37226
37228
37230
37232
37234
37236
37238
37240
37242
37244
37246
37248
37250
37252
37254
37256
37258
37260
37262
37264
37266
37268
37270
37272
37274
37276
37278
37280
37282
37284
37286
37288
37290
37292
37294
37296
37298
37300
37302
37304
37306
37308
37310
37312
37314
37316
37318
37320
37322
37324
37326
37328
37330
37332
37334
37336
37338
37340
37342
37344
37346
37348
37350
37352
37354
37356
37358
37360
37362
37364
37366
37368
37370
37372
37374
37376
37378
37380
37382
37384
37386
37388
37390
37392
37394
37396
37398
37400
37402
37404
37406
37408
37410
37412
37414
37416
37418
37420
37422
37424
37426
37428
37430
37432
37434
37436
37438
37440
37442
37444
37446
37448
37450
37452
37454
37456
37458
37460
37462
37464
37466
37468
37470
37472
37474
37476
37478
37480
37482
37484
37486
37488
37490
37492
37494
37496
37498
37500
37502
37504
37506
37508
37510
37512
37514
37516
37518
37520
37522
37524
37526
37528
37530
37532
37534
37536
37538
37540
37542
37544
37546
37548
37550
37552
37554
37556
37558
37560
37562
37564
37566
37568
37570
37572
37574
37576
37578
37580
37582
37584
37586
37588
37590
37592
37594
37596
37598
37600
37602
37604
37606
37608
37610
37612
37614
37616
37618
37620
37622
37624
37626
37628
37630
37632
37634
37636
37638
37640
37642
37644
37646
37648
37650
37652
37654
37656
37658
37660
37662
37664
37666
37668
37670
37672
37674
37676
37678
37680
37682
37684
37686
37688
37690
37692
37694
37696
37698
37700
37702
37704
37706
37708
37710
37712
37714
37716
37718
37720
37722
37724
37726
37728
37730
37732
37734
37736
37738
37740
37742
37744
37746
37748
37750
37752
37754
37756
37758
37760
37762
37764
37766
37768
37770
37772
37774
37776
37778
37780
37782
37784
37786
37788
37790
37792
37794
37796
37798
37800
37802
37804
37806
37808
37810
37812
37814
37816
37818
37820
37822
37824
37826
37828
37830
37832
37834
37836
37838
37840
37842
37844
37846
37848
37850
37852
37854
37856
37858
37860
37862
37864
37866
37868
37870
37872
37874
37876
37878
37880
37882
37884
37886
37888
37890
37892
37894
37896
37898
37900
37902
37904
37906
37908
37910
37912
37914
37916
37918
37920
37922
37924
37926
37928
37930
37932
37934
37936
37938
37940
37942
37944
37946
37948
37950
37952
37954
37956
37958
37960
37962
37964
37966
37968
37970
37972
37974
37976
37978
37980
37982
37984
37986
37988
37990
37992
37994
37996
37998
38000
38002
38004
38006
38008
38010
38012
38014
38016
38018
38020
38022
38024
38026
38028
38030
38032
38034
38036
38038
38040
38042
38044
38046
38048
38050
38052
38054
38056
38058
38060
38062
38064
38066
38068
38070
38072
38074
38076
38078
38080
38082
38084
38086
38088
38090
38092
38094
38096
38098
38100
38102
38104
38106
38108
38110
38112
38114
38116
38118
38120
38122
38124
38126
38128
38130
38132
38134
38136
38138
38140
38142
38144
38146
38148
38150
38152
38154
38156
38158
38160
38162
38164
38166
38168
38170
38172
38174
38176
38178
38180
38182
38184
38186
38188
38190
38192
38194
38196
38198
38200
38202
38204
38206
38208
38210
38212
38214
38216
38218
38220
38222
38224
38226
38228
38230
38232
38234
38236
38238
38240
38242
38244
38246
38248
38250
38252
38254
38256
38258
38260
38262
38264
38266
38268
38270
38272
38274
38276
38278
38280
38282
38284
38286
38288
38290
38292
38294
38296
38298
38300
38302
38304
38306
38308
38310
38312
38314
38316
      </DataArray>
      <DataArray type="UInt8" Name="types" format="ascii">
69
69
69
69
69
69
69
69
69
69
69
69
69
69
69
69
69
69
69
69
69
69
69
69
69
69
69
69
69
69
69
69
69
69
69
69
69
69
69
69
69
69
69
69
69
69
69
69
69
69
69
69
69
69
69
69
69
69
69
69
69
69
69
69
69
69
69
69
69
69
69
69
69
69
69
69
69
69
69
69
69
69
69
69
69
69
69
69
69
69
69
69
69
69
69
69
69
69
69
69
69
69
69
69
69
69
69
69
69
69
69
69
69
69
69
69
69
69
69
69
69
69
69
69
69
69
69
69
69
69
69
69
69
69
69
69
69
69
69
69
69
69
69
69
69
69
69
69
69
69
69
69
69
69
69
69
69
69
69
69
69
69
69
69
69
69
69
69
69
69
69
69
69
69
69
69
69
69
69
69
69
69
69
69
69
69
69
69
69
69
69
69
69
69
69
69
69
69
69
69
69
69
69
69
69
69
69
69
69
69
69
69
69
69
69
69
69
69
69
69
69
69
69
69
69
69
69
69
69
69
69
69
69
69
69
69
69
69
69
69
69
69
69
69
69
69
69
69
69
69
69
69
69
69
69
69
69
69
69
69
69
69
69
69
69
69
69
69
69
69
69
69
69
69
69
69
69
69
69
69
69
69
69
69
69
69
69
69
69
69
69
69
69
69
69
69
69
69
69
69
69
69
69
69
69
69
69
69
69
69
69
69
69
69
69
69
69
69
69
69
69
69
69
69
69
69
69
69
69
69
69
69
69
69
69
69
69
69
69
69
69
69
69
69
69
69
69
69
69
69
69
69
69
69
69
69
69
69
69
69
69
69
69
69
69
69
69
69
69
69
69
69
69
69
69
69
69
69
69
69
69
69
69
69
69
69
69
69
69
69
69
69
69
69
69
69
69
69
69
69
69
69
69
69
69
69
69
69
69
69
69
69
69
69
69
69
69
69
69
69
69
69
69
69
69
69
69
69
69
69
69
69
69
69
69
69
69
69
69
69
69
69
69
69
69
69
69
69
69
69
69
69
69
69
69
69
69
69
69
69
69
69
69
69
69
69
69
69
69
69
69
69
69
69
69
69
69
69
69
69
69
69
69
69
69
69
69
69
69
69
69
69
69
69
69
69
69
69
69
69
69
69
69
69
69
69
69
69
69
69
69
69
69
69
69
69
69
69
69
69
69
69
69
69
69
69
69
69
69
69
69
69
69
69
69
69
69
69
69
69
69
69
69
69
69
69
69
69
69
69
69
69
69
69
69
69
69
69
69
69
69
69
69
69
69
69
69
69
69
69
69
69
69
69
69
69
69
69
69
69
69
69
69
69
69
69
69
69
69
69
69
69
69
69
69
69
69
69
69
69
69
69
69
69
69
69
69
69
69
69
69
69
69
69
69
69
69
69
69
69
69
69
69
69
69
69
69
69
69
69
69
69
69
69
69
69
69
69
69
69
69
69
69
69
69
69
69
69
69
69
69
69
69
69
69
69
69
69
69
69
69
69
69
69
69
69
69
69
69
69
69
69
69
69
69
69
69
69
69
69
69
69
69
69
69
69
69
69
69
69
69
69
69
69
69
69
69
69
69
69
69
69
69
69
69
69
69
69
69
69
69
69
69
69
69
69
69
69
69
69
69
69
69
69
69
69
69
69
69
69
69
69
69
69
69
69
69
69
69
69
69
69
69
69
69
69
69
69
69
69
69
69
69
69
69
69
69
69
69
69
69
69
69
69
69
69
69
69
69
69
69
69
69
69
69
69
69
69
69
69
69
69
69
69
69
69
69
69
69
69
69
69
69
69
69
69
69
69
69
69
69
69
69
69
69
69
69
69
69
69
69
69
69
69
69
69
69
69
69
69
69
69
69
69
69
69
69
69
69
69
69
69
69
69
69
69
69
69
69
69
69
69
69
69
69
69
69
69
69
69
69
69
69
69
69
69
69
69
69
69
69
69
69
69
69
69
69
69
69
69
69
69
69
69
69
69
69
69
69
69
69
69
69
69
69
69
69
69
69
69
69
69
69
69
69
69
69
69
69
69
69
69
69
69
69
69
69
69
69
69
69
69
69
69
69
69
69
69
69
69
69
69
69
69
69
69
69
69
69
69
69
69
69
69
69
69
69
69
69
69
69
69
69
69
69
69
69
69
69
69
69
69
69
69
69
69
69
69
69
69
69
69
69
69
69
69
69
69
69
69
69
69
69
69
69
69
69
69
69
69
69
69
69
69
69
69
69
69
69
69
69
69
69
69
69
69
69
69
69
69
69
69
69
69
69
69
69
69
69
69
69
69
69
69
69
69
69
69
69
69
69
69
69
69
69
69
69
69
69
69
69
69
69
69
69
69
69
69
69
69
69
69
69
69
69
69
69
69
69
69
69
69
69
69
69
69
69
69
69
69
69
69
69
69
69
69
69
69
69
69
69
69
69
69
69
69
69
69
69
69
69
69
69
69
69
69
69
69
69
69
69
69
69
69
69
69
69
69
69
69
69
69
69
69
69
69
69
69
69
69
69
69
69
69
69
69
69
69
69
69
69
69
69
69
69
69
69
69
69
69
69
69
69
69
69
69
69
69
69
69
69
69
69
69
69
69
69
69
69
69
69
69
69
69
69
69
69
69
69
69
69
69
69
69
69
69
69
69
69
69
69
69
69
69
69
69
69
69
69
69
69
69
69
69
69
69
69
69
69
69
69
69
69
69
69
69
69
69
69
69
69
69
69
69
69
69
69
69
69
69
69
69
69
69
69
69
69
69
69
69
69
69
69
69
69
69
69
69
69
69
69
69
69
69
69
69
69
69
69
69
69
69
69
69
69
69
69
69
69
69
69
69
69
69
69
69
69
69
69
69
69
69
69
69
69
69
69
69
69
69
69
69
69
69
69
69
69
69
69
69
69
69
69
69
69
69
69
69
69
69
69
69
69
69
69
69
69
69
69
69
69
69
69
69
69
69
69
69
69
69
69
69
69
69
69
69
69
69
69
69
69
69
69
69
69
69
69
69
69
69
69
69
69
69
69
69
69
69
69
69
69
69
69
69
69
69
69
69
69
69
69
69
69
69
69
69
69
69
69
69
69
69
69
69
69
69
69
69
69
69
69
69
69
69
69
69
69
69
69
69
69
69
69
69
69
69
69
69
69
69
69
69
69
69
69
69
69
69
69
69
69
69
69
69
69
69
69
69
69
69
69
69
69
69
69
69
69
69
69
69
69
69
69
69
69
69
69
69
69
69
69
69
69
69
69
69
69
69
69
69
69
69
69
69
69
69
69
69
69
69
69
69
69
69
69
69
69
69
69
69
69
69
69
69
69
69
69
69
69
69
69
69
69
69
69
69
69
69
69
69
69
69
69
69
69
69
69
69
69
69
69
69
69
69
69
69
69
69
69
69
69
69
69
69
69
69
69
69
69
69
69
69
69
69
69
69
69
69
69
69
69
69
69
69
69
69
69
69
69
69
69
69
69
69
69
69
69
69
69
69
69
69
69
69
69
69
69
69
69
69
69
69
69
69
69
69
69
69
69
69
69
69
69
69
69
69
69
69
69
69
69
69
69
69
69
69
69
69
69
69
69
69
69
69
69
69
69
69
69
69
69
69
69
69
69
69
69
69
69
69
69
69
69
69
69
69
69
69
69
69
69
69
69
69
69
69
69
69
69
69
69
69
69
69
69
69
69
69
69
69
69
69
69
69
69
69
69
69
69
69
69
69
69
69
69
69
69
69
69
69
69
69
69
69
69
69
69
69
69
69
69
69
69
69
69
69
69
69
69
69
69
69
69
69
69
69
69
69
69
69
69
69
69
69
3
3
3
3
3
3
3
3
3
3
3
3
3
3
3
3
3
3
3
3
3
3
3
3
3
3
3
3
3
3
3
3
3
3
3
3
3
3
3
3
3
3
3
3
3
3
3
3
3
3
3
3
3
3
3
3
3
3
3
3
3
3
3
3
3
3
3
3
3
3
3
3
3
3
3
3
3
3
3
3
3
3
3
3
3
3
3
3
3
3
3
3
3
3
3
3
3
3
3
3
3
3
3
3
3
3
3
3
3
3
3
3
3
3
3
3
3
3
3
3
3
3
3
3
3
3
3
3
3
3
3
3
3
3
3
3
3
3
3
3
3
3
3
3
3
3
3
3
3
3
3
3
3
3
3
3
3
3
3
3
3
3
3
3
3
3
3
3
3
3
3
3
3
3
3
3
3
3
3
3
3
3
3
3
3
3
3
3
3
3
3
3
3
3
3
3
3
3
3
3
3
3
3
3
3
3
3
3
3
3
3
3
3
3
3
3
3
3
3
3
3
3
3
3
3
3
3
3
3
3
3
3
3
3
3
3
3
3
3
3
3
3
3
3
3
3
3
3
3
3
3
3
3
3
3
3
3
3
3
3
3
3
3
3
3
3
3
3
3
3
3
3
3
3
3
3
3
3
3
3
3
3
3
3
3
3
3
3
3
3
3
3
3
3
3
3
3
3
3
3
3
3
3
3
3
3
3
3
3
3
3
3
3
3
3
3
3
3
3
3
3
3
3
3
3
3
3
3
3
3
3
3
3
3
3
3
3
3
3
3
3
3
3
3
3
3
3
3
3
3
3
3
3
3
3
3
3
3
3
3
3
3
3
3
3
3
3
3
3
3
3
3
3
3
3
3
3
3
3
3
3
3
3
3
3
3
3
3
3
3
3
3
3
3
3
3
3
3
3
3
3
3
3
3
3
3
3
3
3
3
3
3
3
3
3
3
3
3
3
3
3
3
3
3
3
3
3
3
3
3
3
3
3
3
3
3
3
3
3
3
3
3
3
3
3
3
3
3
3
3
3
3
3
3
3
3
3
3
3
3
3
3
3
3
3
3
3
3
3
3
3
3
3
3
3
3
3
3
3
3
3
3
3
3
3
3
3
3
3
3
3
3
3
3
3
3
3
3
3
3
3
3
3
3
3
3
3
3
3
3
3
3
3
3
3
3
3
3
3
3
3
3
3
3
3
3
3
3
3
3
3
3
3
3
3
3
3
3
3
3
3
3
3
3
3
3
3
3
3
3
3
3
3
3
3
3
3
3
3
3
3
3
3
3
3
3
3
3
3
3
3
3
3
3
3
3
3
3
3
3
3
3
3
3
3
3
3
3
3
3
3
3
3
3
3
3
3
3
3
3
3
3
3
3
3
3
3
3
3
3
3
3
3
3
3
3
3
3
3
3
3
3
3
3
3
3
3
3
3
3
3
3
3
3
3
3
3
3
3
3
3
3
3
3
3
3
3
3
3
3
3
3
3
3
3
3
3
3
3
3
3
3
3
3
3
3
3
3
3
3
3
3
3
3
3
3
3
3
3
3
3
3
3
3
3
3
3
3
3
3
3
3
3
3
3
3
3
3
3
3
3
3
3
3
3
3
3
3
3
3
3
3
3
3
3
3
3
3
3
3
3
3
3
3
3
3
3
3
3
3
3
3
3
3
3
3
3
3
3
3
3
3
3
3
3
3
3
3
3
3
3
3
3
3
3
3
3
3
3
3
3
3
3
3
3
3
3
3
3
3
3
3
3
3
3
3
3
3
3
3
3
3
3
3
3
3
3
3
3
3
3
3
3
3
3
3
3
3
3
3
3
3
3
3
3
3
3
3
3
3
3
3
3
3
3
3
3
3
3
3
3
3
3
3
3
3
3
3
3
3
3
3
3
3
3
3
3
3
3
3
3
3
3
3
3
3
3
3
3
3
3
3
3
3
3
3
3
3
3
3
3
3
3
3
3
3
3
3
3
3
3
3
3
3
3
3
3
3
3
3
3
3
3
3
3
3
3
3
3
3
3
3
3
3
3
3
3
3
3
3
3
3
3
3
3
3
3
3
3
3
3
3
3
3
3
3
3
3
3
3
3
3
3
3
3
3
3
3
3
3
3
3
3
3
3
3
3
3
3
3
3
3
3
3
3
3
3
3
3
3
3
3
3
3
3
3
3
3
3
3
3
3
3
3
3
3
3
3
3
3
3
3
3
3
3
3
3
3
3
3
3
3
3
3
3
3
3
3
3
3
3
3
3
3
3
3
3
3
3
3
3
3
3
3
3
3
3
3
3
3
3
3
3
3
3
3
3
3
3
3
3
3
3
3
3
3
3
3
3
3
3
3
3
3
3
3
3
3
3
3
3
3
3
3
3
3
3
3
3
3
3
3
3
3
3
3
3
3
3
3
3
3
3
3
3
3
3
3
3
3
3
3
3
3
3
3
3
3
3
3
3
3
3
3
3
3
3
3
3
3
3
3
3
3
3
3
3
3
3
3
3
3
3
3
3
3
3
3
3
3
3
3
3
3
3
3
3
3
3
3
3
3
3
3
3
3
3
3
3
3
3
3
3
3
3
3
3
3
3
3
3
3
3
3
3
3
3
3
3
3
3
3
3
3
3
3
3
3
3
3
3
3
3
3
3
3
3
3
3
3
3
3
3
3
3
3
3
3
3
3
3
3
3
3
3
3
3
3
3
3
3
3
3
3
3
3
3
3
3
3
3
3
3
3
3
3
3
3
3
3
3
3
3
3
3
3
3
3
3
3
3
3
3
3
3
3
3
3
3
3
3
3
3
3
3
3
3
3
3
3
3
3
3
3
3
3
3
3
3
3
3
3
3
3
3
3
3
3
3
3
3
3
3
3
3
3
3
3
3
3
3
3
3
3
3
3
3
3
3
3
3
3
3
3
3
3
3
3
3
3
3
3
3
3
3
3
3
3
3
3
3
3
3
3
3
3
3
3
3
3
3
3
3
3
3
3
3
3
3
3
3
3
3
3
3
3
3
3
3
3
3
3
3
3
3
3
3
3
3
3
3
3
3
3
3
3
3
3
3
3
3
3
3
3
3
3
3
3
3
3
3
3
3
3
3
3
3
3
3
3
3
3
3
3
3
3
3
3
3
3
3
3
3
3
3
3
3
3
3
3
3
3
3
3
3
3
3
3
3
3
3
3
3
3
3
3
3
3
3
3
3
3
3
3
3
3
3
3
3
3
3
3
3
3
3
3
3
3
3
3
3
3
3
3
3
3
3
3
3
3
3
3
3
3
3
3
3
3
3
3
3
3
3
3
3
3
3
3
3
3
3
3
3
3
3
3
3
3
3
3
3
3
3
3
3
3
3
3
3
3
3
3
3
3
3
3
3
3
3
3
3
3
3
3
3
3
3
3
3
3
3
3
3
3
3
3
3
3
3
3
3
3
3
3
3
3
3
3
3
3
3
3
3
3
3
3
3
3
3
3
3
3
3
3
3
3
3
3
3
3
3
3
3
3
3
3
3
3
3
3
3
3
3
3
3
3
3
3
3
3
3
3
3
3
3
3
3
3
3
3
3
3
3
3
3
3
3
3
3
3
3
3
3
3
3
3
3
3
3
3
3
3
3
3
3
3
3
3
3
3
3
3
3
3
3
3
3
3
3
3
3
3
3
3
3
3
3
3
3
3
3
3
3
3
3
3
3
3
3
3
3
3
3
3
3
3
3
3
3
3
3
3
3
3
3
3
3
3
3
3
3
3
3
3
3
3
3
3
3
3
3
3
3
3
3
3
3
3
3
3
3
3
3
3
3
3
3
3
3
3
3
3
3
3
3
3
3
3
3
3
3
3
3
3
3
3
3
3
3
3
3
3
3
3
3
3
3
3
3
3
3
3
3
3
3
3
3
3
3
3
3
3
3
3
3
3
3
3
3
3
3
3
3
3
3
3
3
3
3
3
3
3
3
3
3
3
3
3
3
3
3
3
3
3
3
3
3
3
3
3
3
3
3
3
3
3
3
3
3
3
3
3
3
3
3
3
3
3
3
3
3
3
3
3
3
3
3
3
3
3
3
3
3
3
3
3
3
3
3
3
3
3
3
3
3
3
3
3
3
3
3
3
3
3
3
3
3
3
3
3
3
3
3
3
3
3
3
3
3
3
3
3
3
3
3
3
3
3
3
3
3
3
3
3
3
3
3
3
3
3
3
3
3
3
3
3
3
3
3
3
3
3
3
3
3
3
3
3
3
3
3
3
3
3
3
3
3
3
3
3
3
3
3
3
3
3
3
3
3
3
3
3
3
3
3
3
3
3
3
3
3
3
3
3
3
3
3
3
3
3
3
3
3
3
3
3
3
3
3
3
3
3
3
3
3
3
3
3
3
3
3
3
3
3
3
3
3
3
3
3
3
3
3
3
3
3
3
3
3
3
3
3
3
3
3
3
3
3
3
3
3
3
3
3
3
3
3
3
3
3
3
3
3
3
3
3
3
3
3
3
3
3
3
3
3
3
3
3
3
3
3
3
3
3
3
3
3
3
3
3
3
3
3
3
3
3
3
3
3
3
3
3
3
3
3
3
3
3
3
3
3
3
3
3
3
3
3
3
3
3
3
3
3
3
3
3
3
3
3
3
3
3
3
3
3
3
3
3
3
3
3
3
3
3
3
3
3
3
3
3
3
3
3
3
3
3
3
3
3
3
3
3
3
3
3
3
3
3
3
3
3
3
3
3
3
3
3
3
3
3
3
3
3
3
3
3
3
3
3
3
3
3
3
3
3
3
3
3
3
3
3
3
3
3
3
3
3
3
3
3
3
3
3
3
3
3
3
3
3
3
3
3
3
3
3
3
3
3
3
3
3
3
3
3
3
3
3
3
3
3
3
3
3
3
3
3
3
3
3
3
3
3
3
3
3
3
3
3
3
3
3
3
3
3
3
3
3
3
3
3
3
3
3
3
3
3
3
3
3
3
3
3
3
3
3
3
3
3
3
3
3
3
3
3
3
3
3
3
3
3
3
3
3
3
3
3
3
3
3
3
3
3
3
3
3
3
3
3
3
3
3
3
3
3
3
3
3
3
3
3
3
3
3
3
3
3
3
3
3
3
3
3
3
3
3
3
3
3
3
3
3
3
3
3
3
3
3
3
3
3
3
3
3
3
3
3
3
3
3
3
3
3
3
3
3
3
3
3
3
3
3
3
3
3
3
3
3
3
3
3
3
3
3
3
3
3
3
3
3
3
3
3
3
3
3
3
3
3
3
3
3
3
3
3
3
3
3
3
3
3
3
3
3
3
3
3
3
3
3
3
3
3
3
3
3
3
3
3
3
3
3
3
3
3
3
3
3
3
3
3
3
3
3
3
3
3
3
3
3
3
3
3
3
3
3
3
3
3
3
3
3
3
3
3
3
3
3
3
3
3
3
3
3
3
3
3
3
3
3
3
3
3
3
3
3
3
3
3
3
3
3
3
3
3
3
3
3
3
3
3
3
3
3
3
3
3
3
3
3
3
3
3
3
3
3
3
3
3
3
3
3
3
3
3
3
3
3
3
3
3
3
3
3
3
3
3
3
3
3
3
3
3
3
3
3
3
3
3
3
3
3
3
3
3
3
3
3
3
3
3
3
3
3
3
3
3
3
3
3
3
3
3
3
3
3
3
3
3
3
3
3
3
3
3
3
3
3
3
3
3
3
3
3
3
3
3
3
3
3
3
3
3
3
3
3
3
3
3
3
3
3
3
3
3
3
3
3
3
3
3
3
3
3
3
3
3
3
3
3
3
3
3
3
3
3
3
3
3
3
3
3
3
3
3
3
3
3
3
3
3
3
3
3
3
3
3
3
3
3
3
3
3
3
3
3
3
3
3
3
3
3
3
3
3
3
3
3
3
3
3
3
3
3
3
3
3
3
3
3
3
3
3
3
3
3
3
3
3
3
3
3
3
3
3
3
3
3
3
3
3
3
3
3
3
3
3
3
3
3
3
3
3
3
3
3
3
3
3
3
3
3
3
3
3
3
3
3
3
3
3
3
3
3
3
3
3
3
3
3
3
3
3
3
3
3
3
3
3
3
3
3
3
3
3
3
3
3
3
3
3
3
3
3
3
3
3
3
3
3
3
3
3
3
3
3
3
3
3
3
3
3
3
3
3
3
3
3
3
3
3
3
3
3
3
3
3
3
3
3
3
3
3
3
3
3
3
3
3
3
3
3
3
3
3
3
3
3
3
3
3
3
3
3
3
3
3
3
3
3
3
3
3
3
3
3
3
3
3
3
3
3
3
3
3
3
3
3
3
3
3
3
3
3
3
3
3
3
3
3
3
3
3
3
3
3
3
3
3
3
3
3
3
3
3
3
3
3
3
3
3
3
3
3
3
3
3
3
3
3
3
3
3
3
3
3
3
3
3
3
3
3
3
3
3
3
3
3
3
3
3
3
3
3
3
3
3
3
3
3
3
3
3
3
3
3
3
3
3
3
3
3
3
3
3
3
3
3
3
3
3
3
3
3
3
3
3
3
3
3
3
3
3
3
3
3
3
3
3
3
3
3
3
3
3
3
3
3
3
3
3
3
3
3
3
3
3
3
3
3
3
3
3
3
3
3
3
3
3
3
3
3
3
3
3
3
3
3
3
3
3
3
3
3
3
3
3
3
3
3
3
3
3
3
3
3
3
3
3
3
3
3
3
3
3
3
3
3
3
3
3
3
3
3
3
3
3
3
3
3
3
3
3
3
3
3
3
3
3
3
3
3
3
3
3
3
3
3
3
3
3
3
3
3
3
3
3
3
3
3
3
3
3
3
3
3
3
3
3
3
3
3
3
3
3
3
3
3
3
3
3
3
3
3
3
3
3
3
3
3
3
3
3
3
3
3
3
3
3
3
3
3
3
3
3
3
3
3
3
3
3
3
3
3
3
3
3
3
3
3
3
3
3
3
3
3
3
3
3
3
3
3
3
3
3
3
3
3
3
3
3
3
3
3
3
3
3
3
3
3
3
3
3
3
3
3
3
3
3
3
3
3
3
3
3
3
3
3
3
3
3
3
3
3
3
3
3
3
3
3
3
3
3
3
3
3
3
3
3
3
3
3
3
3
3
3
3
3
3
3
3
3
3
3
3
3
3
3
3
3
3
3
3
3
3
3
3
3
3
3
3
3
3
3
3
3
3
3
3
3
3
3
3
3
3
3
3
3
3
3
3
3
3
3
3
3
3
3
3
3
3
3
3
3
3
3
3
3
3
3
3
3
3
3
3
3
3
3
3
3
3
3
3
3
3
3
3
3
3
3
3
3
3
3
3
3
3
3
3
3
3
3
3
3
3
3
3
3
3
3
3
3
3
3
3
3
3
3
3
3
3
3
3
3
3
3
3
3
3
3
3
3
3
3
3
3
3
3
3
3
3
3
3
3
3
3
3
3
3
3
3
3
3
3
3
3
3
3
3
3
3
3
3
3
3
3
3
3
3
3
3
3
3
3
3
3
3
3
3
3
3
3
3
3
3
3
3
3
3
3
3
3
3
3
3
3
3
3
3
3
3
3
3
3
3
3
3
3
3
3
3
3
3
3
3
3
3
3
3
3
3
3
3
3
3
3
3
3
3
3
3
3
3
3
3
3
3
3
3
3
3
3
3
3
3
3
3
3
3
3
3
3
3
3
3
3
3
3
3
3
3
3
3
3
3
3
3
3
3
3
3
3
3
3
3
3
3
3
3
3
3
3
3
3
3
3
3
3
3
3
3
3
3
3
3
3
3
3
3
3
3
3
3
3
3
3
3
3
3
3
3
3
3
3
3
3
3
3
3
3
3
3
3
3
3
3
3
3
3
3
3
3
3
3
3
3
3
3
3
3
3
3
3
3
3
3
3
3
3
3
3
3
3
3
3
3
3
3
3
3
3
3
3
3
3
3
3
3
3
3
3
3
3
3
3
3
3
3
3
3
3
3
3
3
3
3
3
3
3
3
3
3
3
3
3
3
3
3
3
3
3
3
3
3
3
3
3
3
3
3
3
3
3
3
3
3
3
3
3
3
3
3
3
3
3
3
3
3
3
3
3
3
3
3
3
3
3
3
3
3
3
3
3
3
3
3
3
3
3
3
3
3
3
3
3
3
3
3
3
3
3
3
3
3
3
3
3
3
3
3
3
3
3
3
3
3
3
3
3
3
3
3
3
3
3
3
3
3
3
3
3
3
3
3
3
3
3
3
3
3
3
3
3
3
3
3
3
3
3
3
3
3
3
3
3
3
3
3
3
3
3
3
3
3
3
3
3
3
3
3
3
3
3
3
3
3
3
3
3
3
3
3
3
3
3
3
3
3
3
3
3
3
3
3
3
3
3
3
3
3
3
3
3
3
3
3
3
3
3
3
3
3
3
3
3
3
3
3
3
3
3
3
3
3
3
3
3
3
3
3
3
3
3
3
3
3
3
3
3
3
3
3
3
3
3
3
3
3
3
3
3
3
3
3
3
3
3
3
3
3
3
3
3
3
3
3
3
3
3
3
3
3
3
3
3
3
3
3
3
3
3
3
3
3
3
3
3
3
3
3
3
3
3
3
3
3
3
3
3
3
3
3
3
3
3
3
3
3
3
3
3
3
3
3
3
3
3
3
3
3
3
3
3
3
3
3
3
3
3
3
3
3
3
3
3
3
3
3
3
3
3
3
3
3
3
3
3
3
3
3
3
3
3
3
3
3
3
3
3
3
3
3
3
3
3
3
3
3
3
3
3
3
3
3
3
3
3
3
3
3
3
3
3
3
3
3
3
3
3
3
3
3
3
3
3
3
3
3
3
3
3
3
3
3
3
3
3
3
3
3
3
3
3
3
3
3
3
3
3
3
3
3
3
3
3
3
3
3
3
3
3
3
3
3
3
3
3
3
3
3
3
3
3
3
3
3
3
3
3
3
3
3
3
3
3
3
3
3
3
3
3
3
3
3
3
3
3
3
3
3
3
3
3
3
3
3
3
3
3
3
3
3
3
3
3
3
3
3
3
3
3
3
3
3
3
3
3
3
3
3
3
3
3
3
3
3
3
3
3
3
3
3
3
3
3
3
3
3
3
3
3
3
3
3
3
3
3
3
3
3
3
3
3
3
3
3
3
3
3
3
3
3
3
3
3
3
3
3
3
3
3
3
3
3
3
3
3
3
3
3
3
3
3
3
3
3
3
3
3
3
3
3
3
3
3
3
3
3
3
3
3
3
3
3
3
3
3
3
3
3
3
3
3
3
3
3
3
3
3
3
3
3
3
3
3
3
3
3
3
3
3
3
3
3
3
3
3
3
3
3
3
3
3
3
3
3
3
3
3
3
3
3
3
3
3
3
3
3
3
3
3
3
3
3
3
3
3
3
3
3
3
3
3
3
3
3
3
3
3
3
3
3
3
3
3
3
3
3
3
3
3
3
3
3
3
3
3
3
3
3
3
3
3
3
3
3
3
3
3
3
3
3
3
3
3
3
3
3
3
3
3
3
3
3
3
3
3
3
3
3
3
3
3
3
3
3
3
3
3
3
3
3
3
3
3
3
3
3
3
3
3
3
3
3
3
3
3
3
3
3
3
3
3
3
3
3
3
3
3
3
3
3
3
3
3
3
3
3
3
3
3
3
3
3
3
3
3
3
3
3
3
3
3
3
3
3
3
3
3
3
3
3
3
3
3
3
3
3
3
3
3
3
3
3
3
3
3
3
3
3
3
3
3
3
3
3
3
3
3
3
3
3
3
3
3
3
3
3
3
3
3
3
3
3
3
3
3
3
3
3
3
3
3
3
3
3
3
3
3
3
3
3
3
3
3
3
3
3
3
3
3
3
3
3
3
3
3
3
3
3
3
3
3
3
3
3
3
3
3
3
3
3
3
3
3
3
3
3
3
3
3
3
3
3
3
3
3
3
3
3
3
3
3
3
3
3
3
3
3
3
3
3
3
3
3
3
3
3
3
3
3
3
3
3
3
3
3
3
3
3
3
3
3
3
3
3
3
3
3
3
3
3
3
3
3
3
3
3
3
3
3
3
3
3
3
3
3
3
3
3
3
3
3
3
3
3
3
3
3
3
3
3
3
3
3
3
3
3
3
3
3
3
3
3
3
3
3
3
3
3
3
3
3
3
3
3
3
3
3
3
3
3
3
3
3
3
3
3
3
3
3
3
3
3
3
3
3
3
3
3
3
3
3
3
3
3
3
3
3
3
3
3
3
3
3
3
3
3
3
3
3
3
3
3
3
3
3
3
3
3
3
3
3
3
3
3
3
3
3
3
3
3
3
3
3
3
3
3
3
3
3
3
3
3
3
3
3
3
3
3
3
3
3
3
3
3
3
3
3
3
3
3
3
3
3
3
3
3
3
3
3
3
3
3
3
3
3
3
3
3
3
3
3
3
3
3
3
3
3
3
3
3
3
3
3
3
3
3
3
3
3
3
3
3
3
3
3
3
3
3
3
3
3
3
3
3
3
3
3
3
3
3
3
3
3
3
3
3
3
3
3
3
3
3
3
3
3
3
3
3
3
3
3
3
3
3
3
3
3
3
3
3
3
3
3
3
3
3
3
3
3
3
3
3
3
3
3
3
3
3
3
3
3
3
3
3
3
3
3
3
3
3
3
3
3
3
3
3
3
3
3
3
3
3
3
3
3
3
3
3
3
3
3
3
3
3
3
3
3
3
3
3
3
3
3
3
3
3
3
3
3
3
3
3
3
3
3
3
3
3
3
3
3
3
3
3
3
3
3
3
3
3
3
3
3
3
3
3
3
3
3
3
3
3
3
3
3
3
3
3
3
3
3
3
3
3
3
3
3
3
3
3
3
3
3
3
3
3
3
3
3
3
3
3
3
3
3
3
3
3
3
3
3
3
3
3
3
3
3
3
3
3
3
3
3
3
3
3
3
3
3
3
3
3
3
3
3
3
3
3
3
3
3
3
3
3
3
3
3
3
3
3
3
3
3
3
3
3
3
3
3
3
3
3
3
3
3
3
3
3
3
3
3
3
3
3
3
3
3
3
3
3
3
3
3
3
3
3
3
3
3
3
3
3
3
3
3
3
3
3
3
3
3
3
3
3
3
3
3
3
3
3
3
3
3
3
3
3
3
3
3
3
3
3
3
3
3
3
3
3
3
3
3
3
3
3
3
3
3
3
3
3
3
3
3
3
3
3
3
3
3
3
3
3
3
3
3
3
3
3
3
3
3
3
3
3
3
3
3
3
3
3
3
3
3
3
3
3
3
3
3
3
3
3
3
3
3
3
3
3
3
3
3
3
3
3
3
3
3
3
3
3
3
3
3
3
3
3
3
3
3
3
3
3
3
3
3
3
3
3
3
3
3
3
3
3
3
3
3
3
3
3
3
3
3
3
3
3
3
3
3
3
3
3
3
3
3
3
3
3
3
3
3
3
3
3
3
3
3
3
3
3
3
3
3
3
3
3
3
3
3
3
3
3
3
3
3
3
3
3
3
3
3
3
3
3
3
3
3
3
3
3
3
3
3
3
3
3
3
3
3
3
3
3
3
3
3
3
3
3
3
3
3
3
3
3
3
3
3
3
3
3
3
3
3
3
3
3
3
3
3
3
3
3
3
3
3
3
3
3
3
3
3
3
3
3
3
3
3
3
3
3
3
3
3
3
3
3
3
3
3
3
3
3
3
3
3
3
3
3
3
3
3
3
3
3
3
3
3
3
3
3
3
3
3
3
3
3
3
3
3
3
3
3
3
3
3
3
3
3
3
3
3
3
3
3
3
3
3
3
3
3
3
3
3
3
3
3
3
3
3
3
3
3
3
3
3
3
3
3
3
3
3
3
3
3
3
3
3
3
3
3
3
3
3
3
3
3
3
3
3
3
3
3
3
3
3
3
3
3
3
3
3
3
3
3
3
3
3
3
3
3
3
3
3
3
3
3
3
3
3
3
3
3
3
3
3
3
3
3
3
3
3
3
3
3
3
3
3
3
3
3
3
3
3
3
3
3
3
3
3
3
3
3
3
3
3
3
3
3
3
3
3
3
3
3
3
3
3
3
3
3
3
3
3
3
3
3
3
3
3
3
3
3
3
3
3
3
3
3
3
3
3
3
3
3
3
3
3
3
3
3
3
3
3
3
3
3
3
3
3
3
3
3
3
3
3
3
3
3
3
3
3
3
3
3
3
3
3
3
3
3
3
3
3
3
3
3
3
3
3
3
3
3
3
3
3
3
3
3
3
3
3
3
3
3
3
3
3
3
3
3
3
3
3
3
3
3
3
3
3
3
3
3
3
3
3
3
3
3
3
3
3
3
3
3
3
3
3
3
3
3
3
3
3
3
3
3
3
3
3
3
3
3
3
3
3
3
3
3
3
3
3
3
3
3
3
3
3
3
3
3
3
3
3
3
3
3
3
3
3
3
3
3
3
3
3
3
3
3
3
3
3
3
3
3
3
3
3
3
3
3
3
3
3
3
3
3
3
3
3
3
3
3
3
3
3
3
3
3
3
3
3
3
3
3
3
3
3
3
3
3
3
3
3
3
3
3
3
3
3
3
3
3
3
3
3
3
3
3
3
3
3
3
3
3
3
3
3
3
3
3
3
3
3
3
3
3
3
3
3
3
3
3
3
3
3
3
3
3
3
3
3
3
3
3
3
3
3
3
3
3
3
3
3
3
3
3
3
3
3
3
3
3
3
3
3
3
3
3
3
3
3
3
3
3
3
3
3
3
3
3
3
3
3
3
3
3
3
3
3
3
3
3
3
3
3
3
3
3
3
3
3
3
3
3
3
3
3
3
3
3
3
3
3
3
3
3
3
3
3
3
3
3
3
3
3
3
3
3
3
3
3
3
3
3
3
3
3
3
3
3
3
3
3
3
3
3
3
3
3
3
3
3
3
3
3
3
3
3
3
3
3
3
3
3
3
3
3
3
3
3
3
3
3
3
3
3
3
3
3
3
3
3
3
3
3
3
3
3
3
3
3
3
3
3
3
3
3
3
3
3
3
3
3
3
3
3
3
3
3
3
3
3
3
3
3
3
3
3
3
3
3
3
3
3
3
3
3
3
3
3
3
3
3
3
3
3
3
3
3
3
3
3
3
3
3
3
3
3
3
3
3
3
3
3
3
3
3
3
3
3
3
3
3
3
3
3
3
3
3
3
3
3
3
3
3
3
3
3
3
3
3
3
3
3
3
3
3
3
3
3
3
3
3
3
3
3
3
3
3
3
3
3
3
3
3
3
3
3
3
3
3
3
3
3
3
3
3
3
3
3
3
3
3
3
3
3
3
3
3
3
3
3
3
3
3
3
3
3
3
3
3
3
3
3
3
3
3
3
3
3
3
3
3
3
3
3
3
3
3
3
3
3
3
3
3
3
3
3
3
3
3
3
3
3
3
3
3
3
3
3
3
3
3
3
3
3
3
3
3
3
3
3
3
3
3
3
3
3
3
3
3
3
3
3
3
3
3
3
3
3
3
3
3
3
3
3
3
3
3
3
3
3
3
3
3
3
3
3
3
3
3
3
3
3
3
3
3
3
3
3
3
3
3
3
3
3
3
3
3
3
3
3
3
3
3
3
3
3
3
3
3
3
3
3
3
3
3
3
3
3
3
3
3
3
3
3
3
3
3
3
3
3
3
3
3
3
3
3
3
3
3
3
3
3
3
3
3
3
3
3
3
3
3
3
3
3
3
3
3
3
3
3
3
3
3
3
3
3
3
3
3
3
3
3
3
3
3
3
3
3
3
3
3
3
3
3
3
3
3
3
3
3
3
3
3
3
3
3
3
3
3
3
3
3
3
3
3
3
3
3
3
3
3
3
3
3
3
3
3
3
3
3
3
3
3
3
3
3
3
3
3
3
3
3
3
3
3
3
3
3
3
3
3
3
3
3
3
3
3
3
3
3
3
3
3
3
3
3
3
3
3
3
3
3
3
3
3
3
3
3
3
3
3
3
3
3
3
3
3
3
3
3
3
3
3
3
3
3
3
3
3
3
3
3
3
3
3
3
3
3
3
3
3
3
3
3
3
3
3
3
3
3
3
3
3
3
3
3
3
3
3
3
3
3
3
3
3
3
3
3
3
3
3
3
3
3
3
3
3
3
3
3
3
3
3
3
3
3
3
3
3
3
3
3
3
3
3
3
3
3
3
3
3
3
3
3
3
3
3
3
3
3
3
3
3
3
3
3
3
3
3
3
3
3
3
3
3
3
3
3
3
3
3
3
3
3
3
3
3
3
3
3
3
3
3
3
3
3
3
3
3
3
3
3
3
3
3
3
3
3
3
3
3
3
3
3
3
3
3
3
3
3
3
3
3
3
3
3
3
3
3
3
3
3
3
3
3
3
3
3
3
3
3
3
3
3
3
3
3
3
3
3
3
3
3
3
3
3
3
3
3
3
3
3
3
3
3
3
3
3
3
3
3
3
3
3
3
3
3
3
3
3
3
3
3
3
3
3
3
3
3
3
3
3
3
3
3
3
3
3
3
3
3
3
3
3
3
3
3
3
3
3
3
3
3
3
3
3
3
3
3
3
3
3
3
3
3
3
3
3
3
3
3
3
3
3
3
3
3
3
3
3
3
3
3
3
3
3
3
3
3
3
3
3
3
3
3
3
3
3
3
3
3
3
3
3
3
3
3
3
3
3
3
3
3
3
3
3
3
3
3
3
3
3
3
3
3
3
3
3
3
3
3
3
3
3
3
3
3
3
3
3
3
3
3
3
3
3
3
3
3
3
3
3
3
3
3
3
3
3
3
3
3
3
3
3
3
3
3
3
3
3
3
3
3
3
3
3
3
3
3
3
3
3
3
3
3
3
3
3
3
3
3
3
3
3
3
3
3
3
3
3
3
3
3
3
3
3
3
3
3
3
3
3
3
3
3
3
3
3
3
3
3
3
3
3
3
3
3
3
3
3
3
3
3
3
3
3
3
3
3
3
3
3
3
3
3
3
3
3
3
3
3
3
3
3
3
3
3
3
3
3
3
3
3
3
3
3
3
3
3
3
3
3
3
3
3
3
3
3
3
3
3
3
3
3
3
3
3
3
3
3
3
3
3
3
3
3
3
3
3
3
3
3
3
3
3
3
3
3
3
3
3
3
3
3
3
3
3
3
3
3
3
3
3
3
3
3
3
3
3
3
3
3
3
3
3
3
3
3
3
3
3
3
3
3
3
3
3
3
3
3
3
3
3
3
3
3
3
3
3
3
3
3
3
3
3
3
3
3
3
3
3
3
3
3
3
3
3
3
3
3
3
3
3
3
3
3
3
3
3
3
3
3
3
3
3
3
3
3
3
3
3
3
3
3
3
3
3
3
3
3
3
3
3
3
3
3
3
3
3
3
3
3
3
3
3
3
3
3
3
3
3
3
3
3
3
3
3
3
3
3
3
3
3
3
3
3
3
3
3
3
3
3
3
3
3
3
3
3
3
3
3
3
3
3
3
3
3
3
3
3
3
3
3
3
3
3
3
3
3
3
3
3
3
3
3
3
3
3
3
3
3
3
3
3
3
3
3
3
3
3
3
3
3
3
3
3
3
3
3
3
3
3
3
3
3
3
3
3
3
3
3
3
3
3
3
3
3
3
3
3
3
3
3
3
3
3
3
3
3
3
3
3
3
3
3
3
3
3
3
3
3
3
3
3
3
3
3
3
3
3
3
3
3
3
3
3
3
3
3
3
3
3
3
3
3
3
3
3
3
3
3
3
3
3
3
3
3
3
3
3
3
3
3
3
3
3
3
3
3
3
3
3
3
3
3
3
3
3
3
3
3
3
3
3
3
3
3
3
3
3
3
3
3
3
3
3
3
3
3
3
3
3
3
3
3
3
3
3
3
3
3
3
3
3
3
3
3
3
3
3
3
3
3
3
3
3
3
3
3
3
3
3
3
3
3
3
3
3
3
3
3
3
3
3
3
3
3
3
3
3
3
3
3
3
3
3
3
3
3
3
3
3
3
3
3
3
3
3
3
3
3
3
3
3
3
3
3
3
3
3
3
3
3
3
3
3
3
3
3
3
3
3
3
3
3
3
3
3
3
3
3
3
3
3
3
3
3
3
3
3
3
3
3
3
3
3
3
3
3
3
3
3
3
3
3
3
3
3
3
3
3
3
3
3
3
3
3
3
3
3
3
3
3
3
3
3
3
3
3
3
3
3
3
3
3
3
3
3
3
3
3
3
3
3
3
3
3
3
3
3
3
3
3
3
3
3
3
3
3
3
3
3
3
3
3
3
3
3
3
3
3
3
3
3
3
3
3
3
3
3
3
3
3
3
3
3
3
3
3
3
3
3
3
3
3
3
3
3
3
3
3
3
3
3
3
3
3
3
3
3
3
3
3
3
3
3
3
3
3
3
3
3
3
3
3
3
3
3
3
3
3
3
3
3
3
3
3
3
3
3
3
3
3
3
3
3
3
3
3
3
3
3
3
3
3
3
3
3
3
3
3
3
3
3
3
3
3
3
3
3
3
3
3
3
3
3
3
3
3
3
3
3
3
3
3
3
3
3
3
3
3
3
3
3
3
3
3
3
3
3
3
3
3
3
3
3
3
3
3
3
3
3
3
3
3
3
3
3
3
3
3
3
3
3
3
3
3
3
3
3
3
3
3
3
3
3
3
3
3
3
3
3
3
3
3
3
3
3
3
3
3
3
3
3
3
3
3
3
3
3
3
3
3
3
3
3
3
3
3
3
3
3
3
3
3
3
3
3
3
3
3
3
3
3
3
3
3
3
3
3
3
3
3
3
3
3
3
3
3
3
3
3
3
3
3
3
3
3
3
3
3
3
3
3
3
3
3
3
3
3
3
3
3
3
3
3
3
3
3
3
3
3
3
3
3
3
3
3
3
3
3
3
3
3
3
3
3
3
3
3
3
3
3
3
3
3
3
3
3
3
3
3
3
3
3
3
3
3
3
3
3
3
3
3
3
3
3
3
3
3
3
3
3
3
3
3
3
3
3
3
3
3
3
3
3
3
3
3
3
3
3
3
3
3
3
3
3
3
3
3
3
3
3
3
3
3
3
3
3
3
3
3
3
3
3
3
3
3
3
3
3
3
3
3
3
3
3
3
3
3
3
3
3
3
3
3
3
3
3
3
3
3
3
3
3
3
3
3
3
3
3
3
3
3
3
3
3
3
3
3
3
3
3
3
3
3
3
3
3
3
3
3
3
3
3
3
3
3
3
3
3
3
3
3
3
3
3
3
3
3
3
3
3
3
3
3
3
3
3
3
3
3
3
3
3
3
3
3
3
3
3
3
3
3
3
3
3
3
3
3
3
3
3
3
3
3
3
3
3
3
3
3
3
3
3
3
3
3
3
3
3
3
3
3
3
3
3
3
3
3
3
3
3
3
3
3
3
3
3
3
3
3
3
3
3
3
3
3
3
3
3
3
3
3
3
3
3
3
3
3
3
3
3
3
3
3
3
3
3
3
3
3
3
3
3
3
3
3
3
3
3
3
3
3
3
3
3
3
3
3
3
3
3
3
3
3
3
3
3
3
3
3
3
3
3
3
3
3
3
3
3
3
3
3
3
3
3
3
3
3
3
3
3
3
3
3
3
3
3
3
3
3
3
3
3
3
3
3
3
3
3
3
3
3
3
3
3
3
3
3
3
3
3
3
3
3
3
3
3
3
3
3
3
3
3
3
3
3
3
3
3
3
3
3
3
3
3
3
3
3
3
3
3
3
3
3
3
3
3
3
3
3
3
3
3
3
3
3
3
3
3
3
3
3
3
3
3
3
3
3
3
3
3
3
3
3
3
3
3
3
3
3
3
3
3
3
3
3
3
3
3
3
3
3
3
3
3
3
3
3
3
3
3
3
3
3
3
3
3
3
3
3
3
3
3
3
3
3
3
3
3
3
3
3
3
3
3
3
3
3
3
3
3
3
3
3
3
3
3
3
3
3
3
3
3
3
3
3
3
3
3
3
3
3
3
3
3
3
3
3
3
3
3
3
3
3
3
3
3
3
3
3
3
3
3
3
3
3
3
3
3
3
3
3
3
3
3
3
3
3
3
3
3
3
3
3
3
3
3
3
3
3
3
3
3
3
3
3
3
3
3
3
3
3
3
3
3
3
3
3
3
3
3
3
3
3
3
3
3
3
3
3
3
3
3
3
3
3
3
3
3
3
3
3
3
3
3
3
3
3
3
3
3
3
3
3
3
3
3
3
3
3
3
3
3
3
3
3
3
3
3
3
3
3
3
3
3
3
3
3
3
3
3
3
3
3
3
3
3
3
3
3
3
3
3
3
3
3
3
3
3
3
3
3
3
3
3
3
3
3
3
3
3
3
3
3
3
3
3
3
3
3
3
3
3
3
3
3
3
3
3
3
3
3
3
3
3
3
3
3
3
3
3
3
3
3
3
3
3
3
3
3
3
3
3
3
3
3
3
3
3
3
3
3
3
3
3
3
3
3
3
3
3
3
3
3
3
3
3
3
3
3
3
3
3
3
3
3
3
3
3
3
3
3
3
3
3
3
3
3
3
3
3
3
3
3
3
3
3
3
3
3
3
3
3
3
3
3
3
3
3
3
3
3
3
3
3
3
3
3
3
3
3
3
3
3
3
3
3
3
3
3
3
3
3
3
3
3
3
3
3
3
3
3
3
3
3
3
3
3
3
3
3
3
3
3
3
3
3
3
3
3
3
3
3
3
3
3
3
3
3
3
3
3
3
3
3
3
3
3
3
3
3
3
3
3
3
3
3
3
3
3
3
3
3
3
3
3
3
3
3
3
3
3
3
3
3
3
3
3
3
3
3
3
3
3
3
3
3
3
3
3
3
3
3
3
3
3
3
3
3
3
3
3
3
3
3
3
3
3
3
3
3
3
3
3
3
3
3
3
3
3
3
3
3
3
3
3
3
3
3
3
3
3
3
3
3
3
3
3
3
3
3
3
3
3
3
3
3
3
3
3
3
3
3
3
3
3
3
3
3
3
3
3
3
3
3
3
3
3
3
3
3
3
3
3
3
3
3
3
3
3
3
3
3
3
3
3
3
3
3
3
3
3
3
3
3
3
3
3
3
3
3
3
3
3
3
3
3
3
3
3
3
3
3
3
3
3
3
3
3
3
3
3
3
3
3
3
3
3
3
3
3
3
3
3
3
3
3
3
3
3
3
3
3
3
3
3
3
3
3
3
3
3
3
3
3
3
3
3
3
3
3
3
3
3
3
3
3
3
3
3
3
3
3
3
3
3
3
3
3
3
3
3
3
3
3
3
3
3
3
3
3
3
3
3
3
3
3
3
3
3
3
3
3
3
3
3
3
3
3
3
3
3
3
3
3
3
3
3
3
3
3
3
3
3
3
3
3
3
3
3
3
3
3
3
3
3
3
3
3
3
3
3
3
3
3
3
3
3
3
3
3
3
3
3
3
3
3
3
3
3
3
3
3
3
3
3
3
3
3
3
3
3
3
3
3
3
3
3
3
3
3
3
3
3
3
3
3
3
3
3
3
3
3
3
3
3
3
3
3
3
3
3
3
3
3
3
3
3
3
3
3
3
3
3
3
3
3
3
3
3
3
3
3
3
3
3
3
3
3
3
3
3
3
3
3
3
3
3
3
3
3
3
3
3
3
3
3
3
3
3
3
3
3
3
3
3
3
3
3
3
3
3
3
3
3
3
3
3
3
3
3
3
3
3
3
3
3
3
3
3
3
3
3
3
3
3
3
3
3
3
3
3
3
3
3
3
3
3
3
3
3
3
3
3
3
3
3
3
3
3
3
3
3
3
3
3
3
3
3
3
3
3
3
3
3
3
3
3
3
3
3
3
3
3
3
3
3
3
3
3
3
3
3
3
3
3
3
3
3
3
3
3
3
3
3
3
3
3
3
3
3
3
3
3
3
3
3
3
3
3
3
3
3
3
3
3
3
3
3
3
3
3
3
3
3
3
3
3
3
3
3
3
3
3
3
3
3
3
3
3
3
3
3
3
3
3
3
3
3
3
3
3
3
3
3
3
3
3
3
3
3
3
3
3
3
3
3
3
3
3
3
3
3
3
3
3
3
3
3
3
3
3
3
3
3
3
3
3
3
3
3
3
3
3
3
3
3
3
3
3
3
3
3
3
3
3
3
3
3
3
3
3
3
3
3
3
3
3
3
3
3
3
3
3
3
3
3
3
3
3
3
3
3
3
3
3
3
3
3
3
3
3
3
3
3
3
3
3
3
3
3
3
3
3
3
3
3
3
3
3
3
3
3
3
3
3
3
3
3
3
3
3
3
3
3
3
3
3
3
3
3
3
3
3
3
3
3
3
3
3
3
3
3
3
3
3
3
3
3
3
3
3
3
3
3
3
3
3
3
3
3
3
3
3
3
3
3
3
3
3
3
3
3
3
3
3
3
3
3
3
3
3
3
3
3
3
3
3
3
3
3
3
3
3
3
3
3
3
3
3
3
3
3
3
3
3
3
3
3
3
3
3
3
3
3
3
3
3
3
3
3
3
3
3
3
3
3
3
3
3
3
3
3
3
3
3
3
3
3
3
3
3
3
3
3
3
3
3
3
3
3
3
3
3
3
3
3
3
3
3
3
3
3
3
3
3
3
3
3
3
3
3
3
3
3
3
3
3
3
3
3
3
3
3
3
3
3
3
3
3
3
3
3
3
3
3
3
3
3
3
3
3
3
3
3
3
3
3
3
3
3
3
3
3
3
3
3
3
3
3
3
3
3
3
3
3
3
3
3
3
3
3
3
3
3
3
3
3
3
3
3
3
3
3
3
3
3
3
3
3
3
3
3
3
3
3
3
3
3
3
3
3
3
3
3
3
3
3
3
3
3
3
3
3
3
3
3
3
3
3
3
3
3
3
3
3
3
3
3
3
3
3
3
3
3
3
3
3
3
3
3
3
3
3
3
3
3
3
3
3
3
3
3
3
3
3
3
3
3
3
3
3
3
3
3
3
3
3
3
3
3
3
3
3
3
3
3
3
3
3
3
3
3
3
3
3
3
3
3
3
3
3
3
3
3
3
3
3
3
3
3
3
3
3
3
3
3
3
3
3
3
3
3
3
3
3
3
3
3
3
3
3
3
3
3
3
3
3
3
3
3
3
3
3
3
3
3
3
3
3
3
3
3
3
3
3
3
3
3
3
3
3
3
3
3
3
3
3
3
3
3
3
3
3
3
3
3
3
3
3
3
3
3
3
3
3
3
3
3
3
3
3
3
3
3
3
3
3
3
3
3
3
3
3
3
3
3
3
3
3
3
3
3
3
3
3
3
3
3
3
3
3
3
3
3
3
3
3
3
3
3
3
3
3
3
3
3
3
3
3
3
3
3
3
3
3
3
3
3
3
3
3
3
3
3
3
3
3
3
3
3
3
3
3
3
3
3
3
3
3
3
3
3
3
3
3
3
3
3
3
3
3
3
3
3
3
3
3
3
3
3
3
3
3
3
3
3
3
3
3
3
3
3
3
3
3
3
3
3
3
3
3
3
3
3
3
3
3
3
3
3
3
3
3
3
3
3
3
3
3
3
3
3
3
3
3
3
3
3
3
3
3
3
3
3
3
3
3
3
3
3
3
3
3
3
3
3
3
3
3
3
3
3
3
3
3
3
3
3
3
3
3
3
3
3
3
3
3
3
3
3
3
3
3
3
3
3
3
3
3
3
3
3
3
3
3
3
3
3
3
3
3
3
3
3
3
3
3
3
3
3
3
3
3
3
3
3
3
3
3
3
3
3
3
3
3
3
3
3
3
3
3
3
3
3
3
3
3
3
3
3
3
3
3
3
3
3
3
3
3
3
3
3
3
3
3
3
3
3
3
3
3
3
3
3
3
3
3
3
3
3
3
3
3
3
3
3
3
3
3
3
3
3
3
3
3
3
3
3
3
3
3
3
3
3
3
3
3
3
3
3
3
3
3
3
3
3
3
3
3
3
3
3
3
3
3
3
3
3
3
3
3
3
3
3
3
3
3
3
3
3
3
3
3
3
3
3
3
3
3
3
3
3
3
3
3
3
3
3
3
3
3
3
3
3
3
3
3
3
3
3
3
3
3
3
3
3
3
3
3
3
3
3
3
3
3
3
3
3
3
3
3
3
3
3
3
3
3
3
3
3
3
3
3
3
3
3
3
3
3
3
3
3
3
3
3
3
3
3
3
3
3
3
3
3
3
3
3
3
3
3
3
3
3
3
3
3
3
3
3
3
3
3
3
3
3
3
3
3
3
3
3
3
3
3
3
3
3
3
3
3
3
3
3
3
3
3
3
3
3
3
3
3
3
3
3
3
3
3
3
3
3
3
3
3
3
3
3
3
3
3
3
3
3
3
3
3
3
3
3
3
3
3
3
3
3
3
3
3
3
3
3
3
3
3
3
3
3
3
3
3
3
3
3
3
3
3
3
3
3
3
3
3
3
3
3
3
3
3
3
3
3
3
3
3
3
3
3
3
3
3
3
3
3
3
3
3
3
3
3
3
3
3
3
3
3
3
3
3
3
3
3
3
3
3
3
3
3
3
3
3
3
3
3
3
3
3
3
3
3
3
3
3
3
3
3
3
3
3
3
3
3
3
3
3
3
3
3
3
3
3
3
3
3
3
3
3
3
3
3
3
3
3
3
3
3
3
3
3
3
3
3
3
3
3
3
3
3
3
3
3
3
3
3
3
3
3
3
3
3
3
3
3
3
3
3
3
3
3
3
3
3
3
3
3
3
3
3
3
3
3
3
3
3
3
3
3
3
3
3
3
3
3
3
3
3
3
3
3
3
3
3
3
3
3
3
3
3
3
3
3
3
3
3
3
3
3
3
3
3
3
3
3
3
3
3
3
3
3
3
3
3
3
3
3
3
3
3
3
3
3
3
3
3
3
3
3
3
3
3
3
3
3
3
3
3
3
3
3
3
3
3
3
3
3
3
3
3
3
3
3
3
3
3
3
3
3
3
3
3
3
3
3
3
3
3
3
3
3
3
3
3
3
3
3
3
3
3
3
3
3
3
3
3
3
3
3
3
3
3
3
3
3
3
3
3
3
3
3
3
3
3
3
3
3
3
3
3
3
3
3
3
3
3
3
3
3
3
3
3
3
3
3
3
3
3
3
3
3
3
3
3
3
3
3
3
3
3
3
3
3
3
3
3
3
3
3
3
3
3
3
3
3
3
3
3
3
3
3
3
3
3
3
3
3
3
3
3
3
3
3
3
3
3
3
3
3
3
3
3
3
3
3
3
3
3
3
3
3
3
3
3
3
3
3
3
3
3
3
3
3
3
3
3
3
3
3
3
3
3
3
3
3
3
3
3
3
3
3
3
3
3
3
3
3
3
3
3
3
3
3
3
3
3
3
3
3
3
3
3
3
3
3
3
3
3
3
3
3
3
3
3
3
3
3
3
3
3
3
3
3
3
3
3
3
3
3
3
3
3
3
3
3
3
3
3
3
3
3
3
3
3
3
3
3
3
3
3
3
3
3
3
3
3
3
3
3
3
3
3
3
3
3
3
3
3
3
3
3
3
3
3
3
3
3
3
3
3
3
3
3
3
3
3
3
3
3
3
3
3
3
3
3
3
3
3
3
3
3
3
3
3
3
3
3
3
3
3
3
3
3
3
3
3
3
3
3
3
3
3
3
3
3
3
3
3
3
3
3
3
3
3
3
3
3
3
3
3
3
3
3
3
3
3
3
3
3
3
3
3
3
3
3
3
3
3
3
3
3
3
3
3
3
3
3
3
3
3
3
3
3
3
3
3
3
3
3
3
3
3
3
3
3
3
3
3
3
3
3
3
3
3
3
3
3
3
3
3
3
3
3
3
3
3
3
3
3
3
3
3
3
3
3
3
3
3
3
3
3
3
3
3
3
3
3
3
3
3
3
3
3
3
3
3
3
3
3
3
3
3
3
3
3
3
3
3
3
3
3
3
3
3
3
3
3
3
3
3
3
3
3
3
3
3
3
3
3
3
3
3
3
3
3
3
3
3
3
3
3
3
3
3
3
3
3
3
3
3
3
3
3
3
3
3
3
3
3
3
3
3
3
3
3
3
3
3
3
3
3
3
3
3
3
3
3
3
3
3
3
3
3
3
3
3
3
3
3
3
3
3
3
3
3
3
3
3
3
3
3
3
3
3
3
3
3
3
3
3
3
3
3
3
3
3
3
3
3
3
3
3
3
3
3
3
3
3
3
3
3
3
3
3
3
3
3
3
3
3
3
3
3
3
3
3
3
3
3
3
3
3
3
3
3
3
3
3
3
3
3
3
3
3
3
3
3
3
3
3
3
3
3
3
3
3
3
3
3
3
3
3
3
3
3
3
3
3
3
3
3
3
3
3
3
3
3
3
3
3
3
3
3
3
3
3
3
3
3
3
3
3
3
3
3
3
3
3
3
3
3
3
3
3
3
3
3
3
3
3
3
3
3
3
3
3
3
3
3
3
3
3
3
3
3
3
3
3
3
3
3
3
3
3
3
3
3
3
3
3
3
3
3
3
3
3
3
3
3
3
3
3
3
3
3
3
3
3
3
3
3
3
3
3
3
3
3
3
3
3
3
3
3
3
3
3
3
3
3
3
3
3
3
3
3
3
3
3
3
3
3
3
3
3
3
3
3
3
3
3
3
3
3
3
3
3
3
3
3
3
3
3
3
3
3
3
3
3
3
3
3
3
3
3
3
3
3
3
3
3
3
3
3
3
3
3
3
3
3
3
3
3
3
3
3
3
3
3
3
3
3
3
3
3
3
3
3
3
3
3
3
3
3
3
3
3
3
3
3
3
3
3
3
3
3
3
3
3
3
3
3
3
3
3
3
3
3
3
3
3
3
3
3
3
3
3
3
3
3
3
3
3
3
3
3
3
3
3
3
3
3
3
3
3
3
3
3
3
3
3
3
3
3
3
3
3
3
3
3
3
3
3
3
3
3
3
3
3
3
3
3
3
3
3
3
3
3
3
3
3
3
3
3
3
3
3
3
3
3
3
3
3
3
3
3
3
3
3
3
3
3
3
3
3
3
3
3
3
3
3
3
3
3
3
3
3
3
3
3
3
3
3
3
3
3
3
3
3
3
3
3
3
3
3
3
3
3
3
3
3
3
3
3
3
3
3
3
3
3
3
3
3
3
3
3
3
3
3
3
3
3
3
3
3
3
3
3
3
3
3
3
3
3
3
3
3
3
3
3
3
3
3
3
3
3
3
3
3
3
3
3
3
3
3
3
3
3
3
3
3
3
3
3
3
3
3
3
3
3
3
3
3
3
3
3
3
3
3
3
3
3
3
3
3
3
3
3
3
3
3
3
3
3
3
3
3
3
3
3
3
3
3
3
3
3
3
3
3
3
3
3
3
3
3
3
3
3
3
3
3
3
3
3
3
3
3
3
3
3
3
3
3
3
3
3
3
3
3
3
3
3
3
3
3
3
3
3
3
3
3
3
3
3
3
3
3
3
3
3
3
3
3
3
3
3
3
3
3
3
3
3
3
3
3
3
3
3
3
3
3
3
3
3
3
3
3
3
3
3
3
3
3
3
3
3
3
3
3
3
3
3
3
3
3
3
3
3
3
3
3
3
3
3
3
3
3
3
3
3
3
3
3
3
3
3
3
3
3
3
3
3
3
3
3
3
3
3
3
3
3
3
3
3
3
3
3
3
3
3
3
3
3
3
3
3
3
3
3
3
3
3
3
3
3
3
3
3
3
3
3
3
3
3
3
3
3
3
3
3
3
3
3
3
3
3
3
3
3
3
3
3
3
3
3
3
3
3
3
3
3
3
3
3
3
3
3
3
3
3
3
3
3
3
3
3
3
3
3
3
3
3
3
3
3
3
3
3
3
3
3
3
3
3
3
3
3
3
3
3
3
3
3
3
3
3
3
3
3
3
3
3
3
3
3
3
3
3
3
3
3
3
3
3
3
3
3
3
3
3
3
3
3
3
3
3
3
3
3
3
3
3
3
3
3
3
3
3
3
3
3
3
3
3
3
3
3
3
3
3
3
3
3
3
3
3
3
3
3
3
3
3
3
3
3
3
3
3
3
3
3
3
3
3
3
3
3
3
3
3
3
3
3
3
3
3
3
3
3
3
3
3
3
3
3
3
3
3
3
3
3
3
3
3
3
3
3
3
3
3
3
3
3
3
3
3
3
3
3
3
3
3
3
3
3
3
3
3
3
3
3
3
3
3
3
3
3
3
3
3
3
3
3
3
3
3
3
3
3
3
3
3
3
3
3
3
3
3
3
3
3
3
3
3
3
3
3
3
3
3
3
3
3
3
3
3
3
3
3
3
3
3
3
3
3
3
3
3
3
3
3
3
3
3
3
3
3
3
3
3
3
3
3
3
3
3
3
3
3
3
3
3
3
3
3
3
3
3
3
3
3
3
3
3
3
3
3
3
3
3
3
3
3
3
3
3
3
3
3
3
3
3
3
3
3
3
3
3
3
3
3
3
3
3
3
3
3
3
3
3
3
3
3
3
3
3
3
3
3
3
3
3
3
3
3
3
3
3
3
3
3
3
3
3
3
3
3
3
3
3
3
3
3
3
3
3
3
3
3
3
3
3
3
3
3
3
3
3
3
3
3
3
3
3
3
3
3
3
3
3
3
3
3
3
3
3
3
3
3
3
3
3
3
3
3
3
3
3
3
3
3
3
3
3
3
3
3
3
3
3
3
3
3
3
3
3
3
3
3
3
3
3
3
3
3
3
3
3
3
3
3
3
3
3
3
3
3
3
3
3
3
3
3
3
3
3
3
3
3
3
3
3
3
3
3
3
3
3
3
3
3
3
3
3
3
3
3
3
3
3
3
3
3
3
3
3
3
3
3
3
3
3
3
3
3
3
3
3
3
3
3
3
3
3
3
3
3
3
3
3
3
3
3
3
3
3
3
3
3
3
3
3
3
3
3
3
3
3
3
3
3
3
3
3
3
3
3
3
3
3
3
3
3
3
3
3
3
3
3
3
3
3
3
3
3
3
3
3
3
3
3
3
3
3
3
3
3
3
3
3
3
3
3
3
3
3
3
3
3
3
3
3
3
3
3
3
3
3
3
3
3
3
3
3
3
3
3
3
3
3
3
3
3
3
3
3
3
3
3
3
3
3
3
3
3
3
3
3
3
3
3
3
3
3
3
3
3
3
3
3
3
3
3
3
3
3
3
3
3
3
3
3
3
3
3
3
3
3
3
3
3
3
3
3
3
3
3
3
3
3
3
3
3
3
3
3
3
3
3
3
3
3
3
3
3
3
3
3
3
3
3
3
3
3
3
3
3
3
3
3
3
3
3
3
3
3
3
3
3
3
3
3
3
3
3
3
3
3
3
3
3
3
3
3
3
3
3
3
3
3
3
3
3
3
3
3
3
3
3
3
3
3
3
3
3
3
3
3
3
3
3
3
3
3
3
3
3
3
3
3
3
3
3
3
3
3
3
3
3
3
3
3
3
3
3
3
3
3
3
3
3
3
3
3
3
3
3
3
3
3
3
3
3
3
3
3
3
3
3
3
3
3
3
3
3
3
3
3
3
3
3
3
3
3
3
3
3
3
3
3
3
3
3
3
3
3
3
3
3
3
3
3
3
3
3
3
3
3
3
3
3
3
3
3
3
3
3
3
3
3
3
3
3
3
3
3
3
3
3
3
3
3
3
3
3
3
3
3
3
3
3
3
3
3
3
3
3
3
3
3
3
3
3
3
3
3
3
3
3
3
3
3
3
3
3
3
3
3
3
3
3
3
3
3
3
3
3
3
3
3
3
3
3
3
3
3
3
3
3
3
3
3
3
3
3
3
3
3
3
3
3
3
3
3
3
3
3
3
3
3
3
3
3
3
3
3
3
3
3
3
3
3
3
3
3
3
3
3
3
3
3
3
3
3
3
3
3
3
3
3
3
3
3
3
3
3
3
3
3
3
3
3
3
3
3
3
3
3
3
3
3
3
3
3
3
3
3
3
3
3
3
3
3
3
3
3
3
3
3
3
3
3
3
3
3
3
3
3
3
3
3
3
3
3
3
3
3
3
3
3
3
3
3
3
3
3
3
3
3
3
3
3
3
3
3
3
3
3
3
3
3
3
3
3
3
3
3
3
3
3
3
3
3
3
3
3
3
3
3
3
3
3
3
3
3
3
3
3
3
3
3
3
3
3
3
3
3
3
3
3
3
3
3
3
3
3
3
3
3
3
3
3
3
3
3
3
3
3
3
3
3
3
3
3
3
3
3
3
3
3
3
3
3
3
3
3
3
3
3
3
3
3
3
3
3
3
3
3
3
3
3
3
3
3
3
3
3
3
3
3
3
3
3
3
3
3
3
3
3
3
3
3
3
3
3
3
3
3
3
3
3
3
3
3
3
3
3
3
3
3
3
3
3
3
3
3
3
3
3
3
3
3
3
3
3
3
3
3
3
3
3
3
3
3
3
3
3
3
3
3
3
3
3
3
3
3
3
3
3
3
3
3
3
3
3
3
3
3
3
3
3
3
3
3
3
3
3
3
3
3
3
3
3
3
3
3
3
3
3
3
3
3
3
3
3
3
3
3
3
3
3
3
3
3
3
3
3
3
3
3
3
3
3
3
3
3
3
3
3
3
3
3
3
3
3
3
3
3
3
3
3
3
3
3
3
3
3
3
3
3
3
3
3
3
3
3
3
3
3
3
3
3
3
3
3
3
3
3
3
3
3
3
3
3
3
3
3
3
3
3
3
3
3
3
3
3
3
3
3
3
3
3
3
3
3
3
3
3
3
3
3
3
3
3
3
3
3
3
3
3
3
3
3
3
3
3
3
3
3
3
3
3
3
3
3
3
3
3
3
3
3
3
3
3
3
3
3
3
3
3
3
3
3
3
3
3
3
3
3
3
3
3
3
3
3
3
3
3
3
3
3
3
3
3
3
3
3
3
3
3
3
3
3
3
3
3
3
3
3
3
3
3
3
3
3
3
3
3
3
3
3
3
3
3
3
3
3
3
3
3
3
3
3
3
3
3
3
3
3
3
3
3
3
3
3
3
3
3
3
3
3
3
3
3
3
3
3
3
3
3
3
3
3
3
3
3
3
3
3
3
3
3
3
3
3
3
3
3
3
3
3
3
3
3
3
3
3
3
3
3
3
3
3
3
3
3
3
3
3
3
3
3
3
3
3
3
3
3
3
3
3
3
3
3
3
3
3
3
3
3
3
3
3
3
3
3
3
3
3
3
3
3
3
3
3
3
3
3
3
3
3
3
3
3
3
3
3
3
3
3
3
3
3
3
3
3
3
3
3
3
3
3
3
3
3
3
3
3
3
3
3
3
3
3
3
3
3
3
3
3
3
3
3
3
3
3
3
3
3
3
3
3
3
3
3
3
3
3
3
3
3
3
3
3
3
3
3
3
3
3
3
3
3
3
3
3
3
3
3
3
3
3
3
3
3
3
3
3
3
3
3
3
3
3
3
3
3
3
3
3
3
3
3
3
3
3
3
3
3
3
3
3
3
3
3
3
3
3
3
3
3
3
3
3
3
3
3
3
3
3
3
3
3
3
3
3
3
3
3
3
3
3
3
3
3
3
3
3
3
3
3
3
3
3
3
3
3
3
3
3
3
3
3
3
3
3
3
3
3
3
3
3
3
3
3
3
3
3
3
3
3
3
3
3
3
3
3
3
3
3
3
3
3
3
3
3
3
3
3
3
3
3
3
3
3
3
3
3
3
3
3
3
3
3
3
3
3
3
3
3
3
3
3
3
3
3
3
3
3
3
3
3
3
3
3
3
3
3
3
3
3
3
3
3
3
3
3
3
3
3
3
3
3
3
3
3
3
3
3
3
3
3
3
3
3
3
3
3
3
3
3
3
3
3
3
3
3
3
3
3
3
3
3
3
3
3
3
3
3
3
3
3
3
3
3
3
3
3
3
3
3
3
3
3
3
3
3
3
3
3
3
3
3
3
3
3
3
3
3
3
3
3
3
3
3
3
3
3
3
3
3
3
3
3
3
3
3
3
3
3
3
3
3
3
3
3
3
3
3
3
3
3
3
3
3
3
3
3
3
3
3
3
3
3
3
3
3
3
3
3
3
3
3
3
3
3
3
3
3
3
3
3
3
3
3
3
3
3
3
3
3
3
3
3
3
3
3
3
3
3
3
3
3
3
3
3
3
3
3
3
3
3
3
3
3
3
3
3
3
3
3
3
3
3
3
3
3
3
3
3
3
3
3
3
3
3
3
3
3
3
3
3
3
3
3
3
3
3
3
3
3
3
3
3
3
3
3
3
3
3
3
3
3
3
3
3
3
3
3
3
3
3
3
3
3
3
3
3
3
3
3
3
3
3
3
3
3
3
3
3
3
3
3
3
3
3
3
3
3
3
3
3
3
3
3
3
3
3
3
3
3
3
3
3
3
3
3
3
3
3
3
3
3
3
3
3
3
3
3
3
3
3
3
3
3
3
3
3
3
3
3
3
3
3
3
3
3
3
3
3
3
3
3
3
3
3
3
3
3
3
3
3
3
3
3
3
3
3
3
3
3
3
3
3
3
3
3
3
3
3
3
3
3
3
3
3
3
3
3
3
3
3
3
3
3
3
3
3
3
3
3
3
3
3
3
3
3
3
3
3
3
3
3
3
3
3
3
3
3
3
3
3
3
3
3
3
3
3
3
3
3
3
3
3
3
3
3
3
3
3
3
3
3
3
3
3
3
3
3
3
3
3
3
3
3
3
3
3
3
3
3
3
3
3
3
3
3
3
3
3
3
3
3
3
3
3
3
3
3
3
3
3
3
3
3
3
3
3
3
3
3
3
3
3
3
3
3
3
3
3
3
3
3
3
3
3
3
3
3
3
3
3
3
3
3
3
3
3
3
3
3
3
3
3
3
3
3
3
3
3
3
3
3
3
3
3
3
3
3
3
3
3
3
3
3
3
3
3
3
3
3
3
3
3
3
3
3
3
3
3
3
3
3
3
3
3
3
3
3
3
3
3
3
3
3
3
3
3
3
3
3
3
3
3
3
3
3
3
3
3
3
3
3
3
3
3
3
3
3
3
3
3
3
3
3
3
3
3
3
3
3
3
3
3
3
3
3
3
3
3
3
3
3
3
3
3
3
3
3
3
3
3
3
3
3
3
3
3
3
3
3
3
3
3
3
3
3
3
3
3
3
3
3
3
3
3
3
3
3
3
3
3
3
3
3
3
3
3
3
3
3
3
3
3
3
3
3
3
3
3
3
3
3
3
3
3
3
3
3
3
3
3
3
3
3
3
3
3
3
3
3
3
3
3
3
3
3
3
3
3
3
3
3
3
3
3
3
3
3
3
3
3
3
3
3
3
3
3
3
3
3
3
3
3
3
3
3
3
3
3
3
3
3
3
3
3
3
3
3
3
3
3
3
3
3
3
3
3
3
3
3
3
3
3
3
3
3
3
3
3
3
3
3
3
3
3
3
3
3
3
3
3
3
3
3
3
3
3
3
3
3
3
3
3
3
3
3
3
3
3
3
3
3
3
3
3
3
3
3
3
3
3
3
3
3
3
3
3
3
3
3
3
3
3
3
3
3
3
3
3
3
3
3
3
3
3
3
3
3
3
3
3
3
3
3
3
3
3
3
3
3
3
3
3
3
3
3
3
3
3
3
3
3
3
3
3
3
3
3
3
3
3
3
3
3
3
3
3
3
3
3
3
3
3
3
3
3
3
3
3
3
3
3
3
3
3
3
3
3
3
3
3
3
3
3
3
3
3
3
3
3
3
3
3
3
3
3
3
3
3
3
3
3
3
3
3
3
3
3
3
3
3
3
3
3
3
3
3
3
3
3
3
3
3
3
3
3
3
3
3
3
3
3
3
3
3
3
3
3
3
3
3
3
3
3
3
3
3
3
3
3
3
3
3
3
3
3
3
3
3
3
3
3
3
      </DataArray>
    </Cells>
    <PointData>
      <DataArray type="Float64" NumberOfComponents="2" Name="Displacement" format="ascii">
-0.00087315 -0.496909
-0.044666 -0.497027
0 0
0 0
0.0429184 -0.497045
0 0
2.0673e-06 -0.0344136
0.00513677 -0.0287337
2.95629e-05 -0.0230377
-0.00511419 -0.0287428
-0.000101317 -0.114881
0.00919128 -0.105056
-3.23466e-05 -0.0952293
-0.00933443 -0.105073
-0.000303787 -0.229429
0.0119309 -0.216674
-0.000194209 -0.203933
-0.0124372 -0.216699
-0.000599647 -0.365891
0.0133601 -0.351424
-0.00044942 -0.336986
-0.0144187 -0.351458
-0.00577237 -0.496908
-0.0106941 -0.496924
-0.0140607 -0.496932
-0.0174307 -0.496943
-0.0210934 -0.496949
-0.02476 -0.496959
-0.0297132 -0.496968
-0.0346768 -0.496987
-0.0396557 -0.497004
-0.0446482 -0.491992
-0.0446239 -0.486996
-0.0446024 -0.482012
-0.0445798 -0.477033
-0.0445558 -0.472009
-0.0445294 -0.466988
-0.044499 -0.461768
-0.0444651 -0.456551
-0.0444288 -0.451536
-0.0443888 -0.446525
-0.0443446 -0.441517
-0.0442966 -0.436512
-0.0442442 -0.431513
-0.0441879 -0.426518
-0.0441273 -0.421529
-0.0440627 -0.416545
-0.0439939 -0.411568
-0.0439212 -0.406598
-0.0438448 -0.401636
-0.0437651 -0.396681
-0.0436824 -0.391735
-0.0435973 -0.386796
-0.0435105 -0.381865
-0.0434224 -0.37694
-0.0433335 -0.372019
-0.0432428 -0.367101
-0.043148 -0.362184
-0.0430472 -0.357268
-0.0429361 -0.352354
-0.0428132 -0.347449
-0.0426759 -0.342557
-0.0425277 -0.337686
-0.0423705 -0.332839
-0.0422086 -0.328018
-0.0420446 -0.323222
-0.0418797 -0.318449
-0.0417144 -0.313698
-0.0415483 -0.308967
-0.041381 -0.304255
-0.0412116 -0.299561
-0.0410396 -0.294886
-0.0408646 -0.29023
-0.0406862 -0.285593
-0.0405042 -0.280975
-0.0403182 -0.276377
-0.0401286 -0.271799
-0.0399349 -0.267242
-0.0397375 -0.262707
-0.0395364 -0.258194
-0.039332 -0.253703
-0.0391247 -0.249234
-0.0389149 -0.244787
-0.0387037 -0.240363
-0.0384911 -0.235958
-0.0382774 -0.231572
-0.0380612 -0.227202
-0.0378409 -0.222846
-0.0376127 -0.218505
-0.0373717 -0.214183
-0.0371175 -0.209885
-0.036849 -0.205621
-0.0365708 -0.201394
-0.0362863 -0.197209
-0.0359989 -0.193063
-0.0357111 -0.188957
-0.0354229 -0.184888
-0.0351349 -0.180853
-0.0348459 -0.176852
-0.0345556 -0.172884
-0.034263 -0.168949
-0.0339676 -0.165047
-0.0336689 -0.161177
-0.0333667 -0.157341
-0.0330608 -0.153539
-0.0327508 -0.149771
-0.032437 -0.146038
-0.0321192 -0.142341
-0.0317975 -0.138679
-0.031472 -0.135054
-0.031143 -0.131466
-0.0308111 -0.127915
-0.0304768 -0.124401
-0.0301412 -0.120922
-0.0298045 -0.117478
-0.029467 -0.114065
-0.0291269 -0.110682
-0.0287801 -0.107325
-0.0284235 -0.103999
-0.0280508 -0.100708
-0.0276647 -0.0974604
-0.0272657 -0.0942653
-0.0268597 -0.0911244
-0.0264493 -0.0880405
-0.026038 -0.0850109
-0.0256276 -0.0820338
-0.0252172 -0.0791068
-0.024807 -0.0762279
-0.0243956 -0.0733966
-0.0239825 -0.070612
-0.0235669 -0.0678743
-0.0231481 -0.0651835
-0.022726 -0.0625403
-0.0223 -0.0599448
-0.0218702 -0.0573977
-0.0214363 -0.0548996
-0.0209983 -0.0524508
-0.0205561 -0.0500521
-0.0201098 -0.047704
-0.0196596 -0.0454071
-0.0192058 -0.0431618
-0.0187491 -0.0409684
-0.0182902 -0.0388263
-0.0178308 -0.0367344
-0.0173707 -0.0346899
-0.01691 -0.0326887
-0.0164452 -0.0307288
-0.0159705 -0.0288094
-0.0154823 -0.0269366
-0.0149775 -0.0251193
-0.0144599 -0.0233642
-0.0139313 -0.0216804
-0.0133983 -0.0200668
-0.0128639 -0.0185247
-0.0123301 -0.0170502
-0.0117977 -0.015641
-0.0112654 -0.0142951
-0.0107331 -0.0130107
-0.0101991 -0.0117878
-0.00966307 -0.0106255
-0.00912419 -0.00952455
-0.00858203 -0.00848492
-0.00803645 -0.00750722
-0.00748711 -0.00659185
-0.0069342 -0.00573931
-0.00637759 -0.00495006
-0.00581757 -0.00422441
-0.00525432 -0.00356271
-0.00468812 -0.00296492
-0.00411976 -0.00243092
-0.00354934 -0.0019598
-0.00297876 -0.00154995
-0.00240726 -0.00119821
-0.00184392 -0.000899227
-0.00127836 -0.000636003
-0.000695457 -0.00038123
0 0
0 0
0 0
0 0
0 0
0 0
0 0
0 0
0 0
0.00404993 -0.496913
0.00896188 -0.496932
0.0123318 -0.496943
0.015697 -0.496959
0.019369 -0.496969
0.0230352 -0.496981
0.0280014 -0.496993
0.0329593 -0.497012
0.037942 -0.497025
0.0429437 -0.492026
0.0429519 -0.487029
0.0429551 -0.482042
0.0429558 -0.477061
0.0429546 -0.472035
0.0429507 -0.467013
0.0429436 -0.461791
0.042933 -0.456573
0.042919 -0.451558
0.0429012 -0.446546
0.0428794 -0.441537
0.0428537 -0.436533
0.0428237 -0.431533
0.0427898 -0.426538
0.0427517 -0.421548
0.0427098 -0.416564
0.0426639 -0.411587
0.0426145 -0.406617
0.0425616 -0.401653
0.0425059 -0.396697
0.0424476 -0.391748
0.0423872 -0.386806
0.0423254 -0.38187
0.042262 -0.376938
0.0421971 -0.372011
0.0421292 -0.367085
0.042056 -0.36216
0.041975 -0.357238
0.0418821 -0.352321
0.0417769 -0.347415
0.041658 -0.342527
0.0415293 -0.33766
0.0413932 -0.33282
0.0412535 -0.328005
0.0411124 -0.323214
0.0409704 -0.318445
0.0408279 -0.313696
0.0406839 -0.308967
0.0405379 -0.304255
0.0403891 -0.299561
0.040237 -0.294886
0.0400813 -0.290228
0.0399216 -0.28559
0.039758 -0.280971
0.0395902 -0.276371
0.0394185 -0.271792
0.0392427 -0.267234
0.0390633 -0.262698
0.0388803 -0.258182
0.0386941 -0.253689
0.0385052 -0.249217
0.038314 -0.244766
0.0381211 -0.240337
0.0379265 -0.235927
0.0377298 -0.231534
0.0375298 -0.227158
0.0373235 -0.222796
0.0371087 -0.218452
0.0368805 -0.214129
0.0366396 -0.209833
0.0363848 -0.205571
0.0361214 -0.201348
0.0358524 -0.197166
0.0355811 -0.193024
0.0353094 -0.188921
0.0350371 -0.184853
0.0347645 -0.180819
0.0344904 -0.176818
0.0342143 -0.172849
0.0339352 -0.168913
0.0336528 -0.16501
0.0333667 -0.161139
0.0330765 -0.157301
0.0327824 -0.153498
0.032484 -0.149729
0.0321816 -0.145994
0.031875 -0.142295
0.0315646 -0.138632
0.0312504 -0.135005
0.0309328 -0.131414
0.0306122 -0.12786
0.0302891 -0.124343
0.0299645 -0.12086
0.0296383 -0.117412
0.0293101 -0.113994
0.0289784 -0.110607
0.0286396 -0.107247
0.0282901 -0.103919
0.0279252 -0.100628
0.0275468 -0.0973813
0.0271557 -0.0941878
0.0267577 -0.0910488
0.0263563 -0.0879668
0.0259539 -0.0849385
0.0255521 -0.081962
0.0251501 -0.079035
0.0247477 -0.0761556
0.0243436 -0.0733235
0.0239373 -0.0705378
0.0235279 -0.0677988
0.0231151 -0.0651068
0.0226984 -0.0624621
0.0222776 -0.0598653
0.0218528 -0.0573168
0.0214235 -0.0548173
0.0209901 -0.0523672
0.0205522 -0.0499671
0.0201102 -0.0476175
0.0196641 -0.0453191
0.0192142 -0.0430721
0.0187616 -0.0408768
0.0183066 -0.0387325
0.0178506 -0.0366383
0.0173935 -0.0345911
0.0169356 -0.0325876
0.0164731 -0.0306257
0.0160002 -0.0287046
0.0155138 -0.0268308
0.0150106 -0.025013
0.0144946 -0.023258
0.0139677 -0.0215743
0.0134366 -0.019961
0.012904 -0.018419
0.0123718 -0.0169443
0.0118408 -0.0155346
0.0113097 -0.014188
0.010778 -0.0129028
0.0102444 -0.0116788
0.00970826 -0.0105155
0.00916895 -0.00941337
0.00862598 -0.00837264
0.00807922 -0.00739389
0.00752833 -0.00647759
0.00697352 -0.00562426
0.00641461 -0.00483445
0.00585195 -0.00410851
0.0052856 -0.0034469
0.00471597 -0.00284969
0.00414365 -0.00231695
0.00356891 -0.00184795
0.00299334 -0.0014415
0.00241643 -0.0010949
0.00184677 -0.000804127
0.00127455 -0.000554627
0.000687198 -0.000321218
0 0
0 0
0 0
0 0
0 0
0 0
0 0
0 0
0 0
0.000776455 -0.0343671
0.00153275 -0.0342276
0.00225224 -0.0339989
0.00292051 -0.0336834
0.00351977 -0.0332865
0.00404165 -0.0328157
0.00447235 -0.0322765
0.00480911 -0.0316808
0.00504471 -0.0310338
0.0051815 -0.0303512
0.00521753 -0.0295495
0.00497501 -0.0280022
0.0047354 -0.0272853
0.00443212 -0.0265894
0.00406931 -0.0259305
0.0036641 -0.0253169
0.00321771 -0.02476
0.00274614 -0.0242706
0.00224845 -0.0238531
0.0017403 -0.023519
0.00121974 -0.0232679
0.000623692 -0.0230967
-0.000566857 -0.0231011
-0.00116619 -0.0232758
-0.00169006 -0.0235285
-0.00220133 -0.0238638
-0.00270264 -0.024282
-0.00317715 -0.0247716
-0.00362738 -0.0253286
-0.00403542 -0.0259416
-0.00440142 -0.0266003
-0.00470707 -0.0272956
-0.00494978 -0.0280121
-0.00519814 -0.0295575
-0.00516493 -0.0303584
-0.00503064 -0.0310394
-0.00479704 -0.0316857
-0.00446192 -0.0322802
-0.00403277 -0.0328187
-0.00351218 -0.0332888
-0.00291422 -0.0336852
-0.00224668 -0.0340001
-0.00152787 -0.0342284
-0.000772009 -0.0343676
0.00117126 -0.1148
0.00241906 -0.114559
0.00361835 -0.114162
0.00474595 -0.113616
0.00577871 -0.112929
0.00670082 -0.112114
0.00749327 -0.111181
0.00814607 -0.110149
0.00864742 -0.109031
0.00899306 -0.107849
0.00919172 -0.106466
0.00899971 -0.103642
0.00862391 -0.10226
0.00814942 -0.101075
0.00754978 -0.0999567
0.00684365 -0.098922
0.00603817 -0.0979885
0.00515309 -0.097173
0.00419617 -0.0964858
0.00318848 -0.0959424
0.00213757 -0.0955466
0.00105732 -0.0953094
-0.00125747 -0.0953357
-0.00247004 -0.0956385
-0.00351673 -0.0960742
-0.00451766 -0.0966553
-0.00546595 -0.097377
-0.0063385 -0.0982233
-0.00712946 -0.0991842
-0.00781713 -0.100241
-0.00839602 -0.101378
-0.00884687 -0.102576
-0.00916438 -0.103813
-0.00934396 -0.106482
-0.0091541 -0.107864
-0.0088159 -0.109044
-0.00832171 -0.11016
-0.00767508 -0.11119
-0.0068884 -0.112121
-0.00597086 -0.112935
-0.00494205 -0.113621
-0.00381726 -0.114165
-0.00262 -0.11456
-0.00137339 -0.114801
0.00131145 -0.229323
0.00289871 -0.22901
0.00442849 -0.228494
0.00587488 -0.227785
0.00721089 -0.226893
0.0084144 -0.225834
0.00946391 -0.224623
0.0103432 -0.223283
0.0110385 -0.221832
0.0115394 -0.220298
0.0118633 -0.218505
0.0117471 -0.214842
0.0113165 -0.213049
0.0107392 -0.211514
0.00998735 -0.210063
0.00908009 -0.208722
0.00802856 -0.207512
0.00685433 -0.206456
0.00557178 -0.205567
0.004208 -0.204862
0.00277763 -0.204348
0.00130171 -0.204037
-0.00187297 -0.20407
-0.00352726 -0.204464
-0.00495007 -0.205029
-0.00630262 -0.205784
-0.00757044 -0.20672
-0.00872571 -0.207817
-0.00975615 -0.209063
-0.0106382 -0.210434
-0.0113623 -0.211908
-0.0119088 -0.213461
-0.0122716 -0.215067
-0.0123852 -0.218528
-0.0120764 -0.22032
-0.0115881 -0.221852
-0.0109048 -0.2233
-0.0100358 -0.224638
-0.00899588 -0.225846
-0.00780039 -0.226903
-0.0064716 -0.227793
-0.00503016 -0.2285
-0.00350347 -0.229013
-0.00191821 -0.229325
0.00142174 -0.365739
0.0034023 -0.365292
0.00509598 -0.364652
0.00669316 -0.363795
0.00816914 -0.362734
0.00949661 -0.361489
0.0106563 -0.360077
0.0116265 -0.358526
0.0123918 -0.356854
0.0129404 -0.355095
0.0132648 -0.353274
0.0131961 -0.349347
0.0127479 -0.347316
0.0121209 -0.345576
0.0112885 -0.343933
0.0102683 -0.342414
0.00907481 -0.341043
0.00773071 -0.339844
0.00625528 -0.338835
0.00467556 -0.338035
0.00301289 -0.337453
0.00129447 -0.337103
-0.00240858 -0.33714
-0.00433433 -0.337587
-0.00598698 -0.338228
-0.00755284 -0.339084
-0.00901096 -0.340145
-0.0103333 -0.341391
-0.011502 -0.342803
-0.0124938 -0.344357
-0.0132954 -0.346028
-0.013889 -0.347788
-0.014267 -0.349608
-0.0143427 -0.353307
-0.0140371 -0.355127
-0.0135059 -0.356883
-0.0127569 -0.358552
-0.0118026 -0.360101
-0.0106572 -0.361509
-0.00934185 -0.36275
-0.00787568 -0.363807
-0.00628569 -0.36466
-0.00459712 -0.365297
-0.00261991 -0.365742
-0.000853824 -0.491958
-0.000839523 -0.486993
-0.000827264 -0.48202
-0.000815184 -0.477043
-0.000803031 -0.471966
-0.000791029 -0.466888
-0.000779189 -0.461813
-0.000767477 -0.456741
-0.000755911 -0.451671
-0.000744467 -0.446604
-0.000733159 -0.441535
-0.000721985 -0.436471
-0.000710978 -0.431411
-0.000700125 -0.426357
-0.000689473 -0.421308
-0.000679012 -0.416264
-0.000668799 -0.411227
-0.000658834 -0.406197
-0.000649191 -0.401173
-0.000639895 -0.396158
-0.000631134 -0.391185
-0.000622916 -0.38622
-0.000616523 -0.381958
-0.000610865 -0.377705
-0.000607153 -0.374428
-0.000604019 -0.371161
-0.000601808 -0.368517
2.78102e-06 1.26587e-05
6.29212e-06 -6.82367e-05
9.82945e-06 -0.000235196
1.28144e-05 -0.000482521
1.53308e-05 -0.000812161
1.73027e-05 -0.00121602
1.8862e-05 -0.00169073
2.01085e-05 -0.00223447
2.11159e-05 -0.00284567
2.19795e-05 -0.00352341
2.27195e-05 -0.00426774
2.3403e-05 -0.00507741
2.4025e-05 -0.00595205
2.46301e-05 -0.00689116
2.52052e-05 -0.00789454
2.57851e-05 -0.00896178
2.63496e-05 -0.0100927
2.69372e-05 -0.0112871
2.75147e-05 -0.0125446
2.81362e-05 -0.0138651
2.87364e-05 -0.0152382
2.94035e-05 -0.0166717
2.99239e-05 -0.0179529
3.04074e-05 -0.0192734
3.06304e-05 -0.0203155
3.08254e-05 -0.0213727
3.05304e-05 -0.0222236
1.67768e-06 -0.0354911
1.5286e-06 -0.0365701
1.45263e-06 -0.0379219
1.27497e-06 -0.0392955
9.011e-07 -0.041149
2.79629e-07 -0.043042
-7.17429e-07 -0.0454043
-1.94746e-06 -0.0478235
-3.40991e-06 -0.0503398
-5.03659e-06 -0.0529131
-7.20721e-06 -0.0561269
-9.52953e-06 -0.0594237
-1.15326e-05 -0.0621896
-1.35766e-05 -0.0650101
-1.56735e-05 -0.0678851
-1.77565e-05 -0.070814
-1.98448e-05 -0.0737956
-2.18412e-05 -0.0768302
-2.38039e-05 -0.0798671
-2.55252e-05 -0.0829535
-2.70445e-05 -0.0855194
-2.82329e-05 -0.0881132
-2.91914e-05 -0.0900883
-2.96854e-05 -0.0920726
-3.06667e-05 -0.0936665
-0.000102332 -0.116662
-0.000103234 -0.11845
-0.000104314 -0.120675
-0.000105715 -0.12292
-0.000107917 -0.125916
-0.000110551 -0.128942
-0.000114193 -0.132673
-0.000118202 -0.136445
-0.000122579 -0.140321
-0.000127169 -0.144237
-0.000133042 -0.149066
-0.000139099 -0.153955
-0.000144186 -0.158009
-0.000149314 -0.162101
-0.000154475 -0.166232
-0.000159594 -0.170401
-0.000164667 -0.174605
-0.000169593 -0.178847
-0.000174313 -0.183055
-0.000178805 -0.187297
-0.000182222 -0.190798
-0.000185286 -0.194318
-0.000187891 -0.196987
-0.00018932 -0.199659
-0.000190972 -0.20181
-0.00030539 -0.231695
-0.000307 -0.233972
-0.000309087 -0.236803
-0.000311644 -0.239648
-0.000315717 -0.243431
-0.000320339 -0.247235
-0.000326536 -0.251899
-0.000333201 -0.256589
-0.00034035 -0.261381
-0.000347831 -0.266198
-0.000357275 -0.272105
-0.00036689 -0.278046
-0.000374897 -0.282945
-0.000382944 -0.287867
-0.000390953 -0.292812
-0.000398882 -0.297777
-0.000406736 -0.302763
-0.000414368 -0.307769
-0.000421645 -0.312713
-0.000428479 -0.317676
-0.000433674 -0.321757
-0.000438484 -0.325845
-0.000441692 -0.328938
-0.000444355 -0.33203
-0.000446657 -0.334519
-0.0250917 -0.353616
-0.00198585 -0.00169231
-0.0273659 -0.335602
-0.0164361 -0.370175
-0.00947847 -0.374305
-0.005453 -0.117603
-0.00741801 -0.233476
-0.016802 -0.10786
-0.0298412 -0.225463
-0.0218436 -0.215152
-0.000879093 -0.0202294
-0.00243242 -0.090081
-0.00344891 -0.196942
-0.00389476 -0.328833
-0.00343063 -0.335566
-0.002779 -0.36813
-0.00285347 -0.202642
-0.00197298 -0.0943007
-0.000866404 -0.0225653
-0.0263466 -0.205247
-0.0208577 -0.209489
-0.00864584 -0.266886
-0.0294513 -0.376406
-0.0257162 -0.235812
-0.0160425 -0.194359
-0.0345494 -0.489856
-0.000166879 -2.06533e-05
-0.0119382 -0.0382147
-0.0038236 -0.0388012
-0.00738911 -0.487019
-0.000986014 -0.000430053
-0.0382671 -0.350205
-0.0337 -0.211972
-0.025335 -0.100371
-0.0147448 -0.029691
-0.0120176 -0.0318617
-0.0115773 -0.0281575
-0.0114502 -0.0336121
-0.00998192 -0.0384728
-0.0203433 -0.102833
-0.0269815 -0.212358
-0.0217268 -0.237062
-0.0301548 -0.351367
-0.0233057 -0.207315
-0.0286544 -0.355215
-0.00161248 -0.0365383
-0.00383838 -0.119057
-0.00520598 -0.23528
-0.00577833 -0.231645
-0.00245083 -0.233289
-0.00404444 -0.230805
-0.00244646 -0.231015
-0.00425659 -0.116345
-0.00172608 -0.11778
-0.00297944 -0.115833
-0.0017231 -0.115997
-0.00204609 -0.035563
-0.000645823 -0.0361208
-0.0014087 -0.0349475
-0.000645002 -0.0350443
-0.00017135 -8.78217e-05
-5.69449e-05 -2.91754e-05
-5.93408e-05 1.73165e-05
-2.22154e-05 1.9575e-05
-0.010189 -0.490152
-0.00876413 -0.493891
-0.00384021 -0.488928
-0.00385073 -0.493889
-0.0376684 -0.486421
-0.0414808 -0.488747
-0.0365051 -0.493746
-0.0414916 -0.493753
-0.000592776 -0.000219342
-0.00027105 -9.12486e-05
-0.000917842 -0.000442846
-0.000336 -0.000157965
-0.0122817 -0.265308
-0.00638359 -0.0661979
-0.00701046 -0.0614536
-0.00375007 -0.0593933
-0.00672727 -0.0572405
-0.0148264 -0.261621
-0.0204799 -0.394441
-0.0105942 -0.257421
-0.021363 -0.181323
-0.0179751 -0.182222
-0.0185341 -0.178871
-0.0199964 -0.174559
-0.00151116 -0.000857429
-0.0216532 -0.410303
-0.0188327 -0.399773
-0.0056198 -0.0525113
-0.00624329 -0.071871
-0.00905874 -0.170272
-0.0171737 -0.186504
-0.0200205 -0.187985
-0.023126 -0.190667
-0.0163468 -0.189815
-0.0202605 -0.194104
-0.00577682 -0.0171085
-0.0129364 -0.0853489
-0.00296688 -0.0540018
-0.00304649 -0.0572436
-0.00321252 -0.0614589
-0.00327718 -0.0642647
-0.00309083 -0.0669339
-0.00314866 -0.0698445
-0.00453407 -0.146493
-0.00469906 -0.168237
-0.00478045 -0.259333
-0.00481183 -0.26414
-0.00417618 -0.268945
-0.00420885 -0.274867
-0.00790762 -0.275741
-0.00407312 -0.278918
-0.00409807 -0.283821
-0.00620875 -0.295982
-0.006177 -0.291024
-0.00759939 -0.286493
-0.0112856 -0.28246
-0.0116198 -0.278018
-0.0117253 -0.273972
-0.0116827 -0.270117
-0.00465432 -0.164088
-0.00458592 -0.159799
-0.00453925 -0.155728
-0.00459424 -0.15135
-0.0111553 -0.299206
-0.013411 -0.289656
-0.0151251 -0.280683
-0.0153857 -0.272386
-0.00909025 -0.161789
-0.00898799 -0.153127
-0.00875935 -0.144741
-0.00393845 -0.0106872
-0.0221791 -0.474159
-0.0221911 -0.310611
-0.0171376 -0.297578
-0.0173912 -0.292225
-0.018773 -0.287696
-0.0191277 -0.282972
-0.0194296 -0.27853
-0.0193685 -0.273942
-0.0192961 -0.270088
-0.0178728 -0.264841
-0.0136343 -0.168617
-0.0135143 -0.163851
-0.0133606 -0.159566
-0.0132997 -0.155218
-0.0132618 -0.150848
-0.0132451 -0.146316
-0.0170592 -0.136866
-0.00933221 -0.0707568
-0.00931133 -0.0678998
-0.00939264 -0.0652202
-0.00939245 -0.0626979
-0.00984598 -0.0606245
-0.00963686 -0.058255
-0.00884051 -0.0561171
-0.00843038 -0.0536935
-0.00569354 -0.0155375
-0.00551875 -0.0140745
-0.00530297 -0.0127283
-0.00507742 -0.0114747
-0.00484667 -0.0102924
-0.0227303 -0.462554
-0.0224534 -0.467898
-0.0228921 -0.452225
-0.0227324 -0.457347
-0.0233001 -0.442317
-0.0229432 -0.447362
-0.0235508 -0.438114
-0.0012493 -0.000825663
-0.00150238 -0.0012092
-0.004231 -0.00733713
-0.00440991 -0.00816849
-0.00460857 -0.00921721
-0.0152506 -0.130287
-0.0163528 -0.133814
-0.0207301 -0.389941
-0.0209063 -0.25568
-0.0161352 -0.256957
-0.0269025 -0.472021
-0.0271748 -0.460554
-0.0272231 -0.450485
-0.0275202 -0.44142
-0.0251168 -0.432848
-0.0230762 -0.398869
-0.0250136 -0.388354
-0.0257232 -0.31505
-0.0243563 -0.305519
-0.0225381 -0.295607
-0.0231043 -0.285533
-0.0233603 -0.276223
-0.0218326 -0.266389
-0.0179574 -0.166372
-0.0176855 -0.157264
-0.0175148 -0.148387
-0.0188664 -0.140772
-0.0195249 -0.134629
-0.0179518 -0.127844
-0.0151674 -0.0877075
-0.0141505 -0.0821844
-0.0124215 -0.069764
-0.0122964 -0.0643804
-0.0119945 -0.0594864
-0.0112785 -0.0546956
-0.00716008 -0.0182615
-0.00680446 -0.0150301
-0.00628836 -0.0123069
-0.00571717 -0.00996976
-0.00520789 -0.00805367
-0.00422848 -0.00638348
-0.0168979 -0.475236
-0.0180168 -0.46469
-0.0184567 -0.454223
-0.018978 -0.444055
-0.0221744 -0.422441
-0.0209056 -0.433744
-0.0165025 -0.390841
-0.00101117 -0.000811851
-0.00162649 -0.00168624
-0.00244829 -0.00292383
-0.00315461 -0.00459373
-0.00351964 -0.00648444
-0.00361598 -0.00846788
-0.00427689 -0.0132056
-0.00446742 -0.0161115
-0.00941163 -0.0454604
-0.010336 -0.0498603
-0.00801394 -0.0511132
-0.0093804 -0.07376
-0.0126365 -0.0760289
-0.0115621 -0.0825958
-0.0127974 -0.132506
-0.0156447 -0.139948
-0.0129652 -0.142305
-0.0135282 -0.172812
-0.0166591 -0.175446
-0.0143468 -0.184036
-0.0163033 -0.302599
-0.0201448 -0.306048
-0.0113948 -0.0439873
-0.00689278 -0.0440388
-0.0166362 -0.316349
-0.021473 -0.315584
-0.0210297 -0.384759
-0.0166634 -0.251499
-0.00613628 -0.254673
-0.0213376 -0.47936
-0.00100459 -0.000510333
-0.0240828 -0.483406
-0.0286987 -0.483744
-0.0318069 -0.480314
-0.0312916 -0.475144
-0.0315625 -0.468884
-0.0315126 -0.463551
-0.0315102 -0.458345
-0.0314813 -0.453245
-0.0315273 -0.448384
-0.0314465 -0.443562
-0.0316925 -0.43936
-0.0309625 -0.434353
-0.0283069 -0.429986
-0.0275819 -0.425066
-0.027277 -0.419031
-0.0275011 -0.413824
-0.027267 -0.407724
-0.027511 -0.40236
-0.0291511 -0.397027
-0.0294552 -0.391829
-0.0297439 -0.386646
-0.0296991 -0.381488
-0.0294387 -0.322296
-0.0293205 -0.317107
-0.0300065 -0.312131
-0.0298371 -0.307127
-0.0277582 -0.302573
-0.027206 -0.298025
-0.0274125 -0.292674
-0.0273688 -0.287906
-0.0276864 -0.283185
-0.0275949 -0.278516
-0.0274969 -0.27393
-0.0271299 -0.269178
-0.0256618 -0.263934
-0.0254126 -0.259071
-0.0258899 -0.253606
-0.0258995 -0.248898
-0.0261818 -0.244326
-0.0260162 -0.239842
-0.024202 -0.193467
-0.0239091 -0.187354
-0.0243877 -0.182944
-0.0249036 -0.179593
-0.0246847 -0.175603
-0.0227688 -0.172194
-0.0222528 -0.168295
-0.0220409 -0.163538
-0.0218539 -0.159416
-0.0217058 -0.155073
-0.021566 -0.151055
-0.0214551 -0.146524
-0.0215467 -0.142906
-0.0229309 -0.139808
-0.0227923 -0.136258
-0.0220355 -0.133211
-0.0216416 -0.129699
-0.020764 -0.125967
-0.0206455 -0.122439
-0.0211922 -0.118793
-0.0176953 -0.0891027
-0.0180636 -0.0863126
-0.0176207 -0.0833273
-0.0161772 -0.0805922
-0.015814 -0.0777057
-0.0156115 -0.0742987
-0.0154328 -0.071401
-0.0153039 -0.0685402
-0.0151237 -0.0658622
-0.0150269 -0.0633356
-0.0147759 -0.060782
-0.0144802 -0.0584134
-0.0141179 -0.0559244
-0.0136035 -0.0535059
-0.013136 -0.0510245
-0.012601 -0.0486126
-0.0118862 -0.0459698
-0.0119764 -0.0424371
-0.0121746 -0.0401464
-0.00870359 -0.0192104
-0.00851046 -0.0174397
-0.00820421 -0.0159181
-0.00790836 -0.0144483
-0.00756449 -0.0131198
-0.00722799 -0.0118588
-0.00686614 -0.0106815
-0.00652452 -0.00959774
-0.0061561 -0.00856081
-0.005892 -0.0077214
-0.00537057 -0.0067553
-0.00459706 -0.00592978
-0.00413444 -0.0050938
-0.00367997 -0.00415827
-0.00334525 -0.00342984
-0.00292527 -0.00269814
-0.00260244 -0.00211354
-0.00237337 -0.00161203
-0.00201894 -0.00119371
-0.00166168 -0.000845512
-0.00127529 -0.000571416
-0.000666587 -0.000274063
-0.000499459 -0.000218183
-0.0124869 -0.476848
-0.0119956 -0.481805
-0.0135551 -0.466585
-0.0133265 -0.471647
-0.0139668 -0.456087
-0.0138341 -0.461241
-0.0142807 -0.445875
-0.0141307 -0.450965
-0.0150194 -0.435704
-0.0146429 -0.44083
-0.0163664 -0.413728
-0.016535 -0.419089
-0.0168239 -0.425125
-0.0165899 -0.430438
-0.0154418 -0.402689
-0.0161517 -0.407625
-0.012445 -0.393059
-0.0128599 -0.398257
-0.0127074 -0.388559
-0.000508066 -0.000343024
-0.000696317 -0.000627553
-0.000835048 -0.000988676
-0.0010454 -0.00143246
-0.00144132 -0.0019473
-0.00169168 -0.00252083
-0.00194459 -0.00325453
-0.00217888 -0.00401179
-0.00246685 -0.00495081
-0.00263294 -0.00584604
-0.00253575 -0.00678257
-0.00263497 -0.00777241
-0.00272802 -0.00880868
-0.00286317 -0.009932
-0.00298701 -0.0111047
-0.00311819 -0.012339
-0.0032256 -0.013676
-0.00329681 -0.015116
-0.00729043 -0.0460229
-0.00759086 -0.0486983
-0.0026695 -0.0514158
-0.00308859 -0.0728372
-0.00945683 -0.0771643
-0.00916221 -0.0803134
-0.00917608 -0.130922
-0.0102131 -0.134452
-0.011219 -0.138388
-0.00434602 -0.14248
-0.00451581 -0.172434
-0.0120193 -0.177119
-0.0111136 -0.181732
-0.00533376 -0.301001
-0.0141167 -0.307687
-0.0133615 -0.312753
-0.0121406 -0.0269839
-0.0143022 -0.0277904
-0.0150064 -0.0340574
-0.0131998 -0.0348888
-0.0215659 -0.10095
-0.0256742 -0.103662
-0.0211665 -0.115503
-0.0300415 -0.210267
-0.02171 -0.245653
-0.0173758 -0.246123
-0.0265248 -0.32555
-0.0309762 -0.327822
-0.00958561 -0.0419361
-0.00766888 -0.042065
-0.0144466 -0.126549
-0.0201518 -0.320802
-0.022517 -0.324464
-0.00326665 -0.0166788
-0.0078867 -0.0834622
-0.0102575 -0.186018
-0.0120153 -0.317964
-0.0383747 -0.355119
-0.00582531 -0.0188679
-0.0124919 -0.088124
-0.0293147 -0.367431
-0.0293338 -0.371793
-0.0250648 -0.378093
-0.0210981 -0.379571
-0.0168337 -0.381154
-0.0124657 -0.382867
-0.00561791 -0.0426173
-0.0106591 -0.126074
-0.00852067 -0.127649
-0.0126601 -0.247389
-0.00903579 -0.249043
-0.0148006 -0.484941
-0.0187963 -0.484481
-0.000897113 -0.000350935
-0.000791227 -0.000302829
-0.0261511 -0.488869
-0.0338837 -0.485777
-0.0364803 -0.477175
-0.0359086 -0.466673
-0.0358246 -0.456242
-0.0357092 -0.446322
-0.0348907 -0.436495
-0.033424 -0.426571
-0.0329103 -0.416446
-0.0333639 -0.405876
-0.0338987 -0.395313
-0.0341467 -0.384956
-0.0339739 -0.375184
-0.0330945 -0.365891
-0.034213 -0.329458
-0.033748 -0.319362
-0.0334224 -0.309175
-0.0326602 -0.29963
-0.0320241 -0.290316
-0.0318496 -0.280881
-0.0313514 -0.271462
-0.0306899 -0.261846
-0.0304038 -0.252271
-0.0302066 -0.243072
-0.0295819 -0.234019
-0.0339264 -0.216286
-0.0293667 -0.20253
-0.027977 -0.194305
-0.0274935 -0.185607
-0.0276905 -0.177214
-0.0268884 -0.169338
-0.02611 -0.161325
-0.0257041 -0.153189
-0.0255818 -0.14555
-0.0254722 -0.138375
-0.0248818 -0.131314
-0.0243049 -0.124276
-0.0240977 -0.117459
-0.0208023 -0.0905664
-0.0201138 -0.0846977
-0.0192142 -0.078835
-0.0185656 -0.0730551
-0.0181019 -0.0674796
-0.0175707 -0.0622461
-0.0168573 -0.0572037
-0.0159206 -0.0522352
-0.0146162 -0.0471121
-0.0140238 -0.0421708
-0.0139533 -0.0381058
-0.0104424 -0.0199871
-0.00969529 -0.0168235
-0.00892232 -0.0139721
-0.00810424 -0.011461
-0.00726762 -0.00924142
-0.00627125 -0.00723789
-0.00517426 -0.00545169
-0.00424882 -0.00389699
-0.00344291 -0.00258387
-0.00263212 -0.00157512
-0.00178863 -0.000872779
-0.000929038 -0.000376665
-0.00035363 -7.68226e-05
-0.000285459 -0.00011946
-0.010741 -0.486309
-0.00842976 -0.478217
-0.00914835 -0.468196
-0.00951104 -0.45798
-0.00979769 -0.447737
-0.0103305 -0.437521
-0.01103 -0.416407
-0.0109509 -0.427082
-0.0101683 -0.406109
-0.00906153 -0.395972
-0.00842533 -0.38508
-0.000385287 -0.000476298
-0.000669636 -0.00121044
-0.00100573 -0.00224003
-0.00134382 -0.00357434
-0.00159639 -0.00522252
-0.00172963 -0.00709779
-0.0018508 -0.00919861
-0.00201117 -0.0115462
-0.00211362 -0.014208
-0.00197056 -0.0173529
-0.00384462 -0.0424498
-0.00502508 -0.0472501
-0.00260845 -0.0488756
-0.00314075 -0.075854
-0.00589497 -0.078013
-0.00520146 -0.0846133
-0.00595369 -0.129578
-0.00754651 -0.136785
-0.00429686 -0.138582
-0.00455546 -0.176656
-0.00798647 -0.179077
-0.00688746 -0.188947
-0.00535883 -0.305999
-0.00953133 -0.309291
-0.00806354 -0.31999
-0.0122438 -0.0294773
-0.0135562 -0.0299879
-0.0133636 -0.0323775
-0.0113752 -0.0325345
-0.020912 -0.104932
-0.0233586 -0.105809
-0.0239091 -0.111231
-0.0216245 -0.112743
-0.0273966 -0.215437
-0.0304033 -0.217768
-0.0191316 -0.238701
-0.0176971 -0.241563
-0.024019 -0.329996
-0.011028 -0.0234597
-0.0206122 -0.0960113
-0.0177063 -0.120463
-0.0251644 -0.33315
-0.0312892 -0.332735
-0.0345009 -0.339053
-0.0340946 -0.348353
-0.00901424 -0.0208555
-0.00966921 -0.0224954
-0.00882487 -0.039209
-0.00829028 -0.0405333
-0.0178543 -0.0919847
-0.0185201 -0.0946315
-0.0151608 -0.121767
-0.0133476 -0.123648
-0.0251186 -0.197763
-0.0259299 -0.201303
-0.0176368 -0.325231
-0.00314286 -0.0183932
-0.00432573 -0.0192213
-0.00757672 -0.0869258
-0.0094535 -0.0884107
-0.010127 -0.19127
-0.0131789 -0.192868
-0.0170783 -0.197173
-0.0113248 -0.323599
-0.0141161 -0.326003
-0.0330335 -0.35709
-0.00571576 -0.0204172
-0.0116627 -0.0907905
-0.0285651 -0.362752
-0.0248076 -0.368657
-0.0208616 -0.374495
-0.0125501 -0.377683
-0.00657316 -0.37488
-0.00467105 -0.0404977
-0.00696345 -0.122092
-0.00747869 -0.124744
-0.0095975 -0.239996
-0.00979373 -0.243679
-0.0175391 -0.488986
-0.000521874 -0.000149279
-0.0194843 -0.492737
-0.0231484 -0.492742
-0.0277638 -0.493087
-0.0327218 -0.493095
-0.040807 -0.48467
-0.0407897 -0.479688
-0.0402661 -0.474519
-0.0402436 -0.469496
-0.0401884 -0.464165
-0.0401585 -0.458946
-0.0401244 -0.453847
-0.0400888 -0.448834
-0.040002 -0.444013
-0.0399594 -0.439006
-0.0392198 -0.434001
-0.0391705 -0.429003
-0.0384313 -0.424085
-0.0383756 -0.419097
-0.0385859 -0.413893
-0.0385226 -0.408919
-0.0387516 -0.403556
-0.0386808 -0.398597
-0.0389733 -0.393398
-0.0388959 -0.388456
-0.0388402 -0.383297
-0.0387579 -0.378369
-0.0386311 -0.373754
-0.0385445 -0.368835
-0.0377808 -0.364154
-0.0376878 -0.359235
-0.0386242 -0.345597
-0.0384974 -0.34071
-0.0385236 -0.336031
-0.0383834 -0.331192
-0.0380391 -0.326287
-0.0378941 -0.321499
-0.0377343 -0.316314
-0.0375863 -0.311571
-0.0373818 -0.306571
-0.0372301 -0.301868
-0.0366375 -0.297323
-0.0364825 -0.292655
-0.0363993 -0.28789
-0.0362377 -0.283261
-0.0361081 -0.278594
-0.0359395 -0.274006
-0.0355316 -0.269255
-0.0353569 -0.264709
-0.0350585 -0.259845
-0.0348775 -0.255344
-0.0348441 -0.25063
-0.0346561 -0.246175
-0.0344519 -0.241684
-0.034259 -0.237272
-0.0337992 -0.232703
-0.0336025 -0.228328
-0.0342812 -0.224333
-0.0340714 -0.219985
-0.0334456 -0.208181
-0.033202 -0.203928
-0.0327355 -0.199998
-0.0324839 -0.195825
-0.0315025 -0.191543
-0.0312537 -0.18745
-0.0316634 -0.183044
-0.031406 -0.179024
-0.0311302 -0.175041
-0.030869 -0.171087
-0.0302818 -0.167198
-0.0300181 -0.163309
-0.0297552 -0.159193
-0.0294846 -0.155372
-0.0292695 -0.151355
-0.0289911 -0.147606
-0.0290155 -0.143982
-0.0287272 -0.140303
-0.0285338 -0.136752
-0.0282378 -0.133145
-0.0277817 -0.129636
-0.0274811 -0.126102
-0.0272951 -0.122576
-0.0269883 -0.119114
-0.0269092 -0.115823
-0.0265955 -0.112424
-0.0264364 -0.109486
-0.0261117 -0.106137
-0.0239343 -0.0980139
-0.024301 -0.0954538
-0.0239474 -0.0922888
-0.0237005 -0.0894021
-0.0233401 -0.0863466
-0.0228085 -0.0833603
-0.0224492 -0.0804091
-0.0219785 -0.077528
-0.0216186 -0.0746727
-0.0213337 -0.0717753
-0.0209678 -0.069015
-0.0206896 -0.0663355
-0.0203163 -0.0636686
-0.0199705 -0.0611149
-0.0195903 -0.0585425
-0.0191296 -0.056056
-0.018744 -0.0535805
-0.0181672 -0.0511018
-0.0177781 -0.0487273
-0.0169326 -0.0460843
-0.0165447 -0.0438186
-0.0166492 -0.0415087
-0.0162426 -0.0393501
-0.0159825 -0.0375761
-0.0155695 -0.0355096
-0.0156727 -0.0329902
-0.0152382 -0.0310212
-0.0133162 -0.0261251
-0.0128716 -0.0243247
-0.0126086 -0.0225024
-0.0121428 -0.020847
-0.0116995 -0.0192097
-0.0112286 -0.0176991
-0.010795 -0.0161765
-0.0103199 -0.0148002
-0.00986151 -0.0134676
-0.00938245 -0.0122157
-0.00891264 -0.0110336
-0.00842848 -0.00990297
-0.00795589 -0.00886334
-0.00746579 -0.00785374
-0.00683948 -0.0068901
-0.00635224 -0.0060046
-0.0057538 -0.00517889
-0.00526974 -0.00441825
-0.00478594 -0.00369584
-0.00429285 -0.00306615
-0.00381886 -0.00247951
-0.00331278 -0.00198185
-0.00284445 -0.00155326
-0.00232272 -0.0011801
-0.00185061 -0.000890897
-0.00131549 -0.000616128
-0.000247848 -3.80155e-05
-0.00020981 -2.00741e-05
-0.000151321 -9.03969e-07
-0.000105972 1.04521e-05
-0.00437784 -0.480109
-0.00438795 -0.485084
-0.00485485 -0.470074
-0.00486625 -0.475151
-0.00507077 -0.459937
-0.00508339 -0.465012
-0.00519266 -0.449715
-0.00520638 -0.454784
-0.00533317 -0.439559
-0.0053479 -0.444626
-0.00570137 -0.429376
-0.0057173 -0.434433
-0.00593038 -0.419016
-0.0059475 -0.424063
-0.00575942 -0.408621
-0.00577734 -0.413655
-0.00504951 -0.398664
-0.00506734 -0.403683
-0.00463361 -0.388497
-0.00465172 -0.393465
-0.00439988 -0.378548
-0.00441618 -0.382804
-0.000107311 -0.000135081
-0.000154046 -0.000340583
-0.000225398 -0.000626263
-0.00028119 -0.000990856
-0.000378094 -0.00143816
-0.000440797 -0.00194604
-0.000549625 -0.00252578
-0.000617113 -0.00316874
-0.00070273 -0.00392625
-0.000770379 -0.00470572
-0.000790706 -0.00559191
-0.000853081 -0.00650427
-0.000837297 -0.00748383
-0.000893081 -0.00852476
-0.000919181 -0.00963722
-0.000971436 -0.0108058
-0.00100021 -0.0120304
-0.00104848 -0.0133247
-0.00102042 -0.0147555
-0.0010597 -0.0161674
-0.000854858 -0.0178705
-0.00087116 -0.0191885
-0.00149073 -0.0416789
-0.00237691 -0.0438143
-0.0024341 -0.0461958
-0.00274906 -0.0789908
-0.00278721 -0.0820621
-0.00240935 -0.085512
-0.00242518 -0.0881059
-0.00273289 -0.127625
-0.00332936 -0.130895
-0.0033686 -0.134647
-0.00359009 -0.181272
-0.00361632 -0.1855
-0.00343306 -0.190753
-0.00344428 -0.194273
-0.00325548 -0.24628
-0.00327896 -0.250939
-0.00457662 -0.311063
-0.00459405 -0.31602
-0.00388684 -0.321651
-0.00389286 -0.32574
-0.0126897 -0.030806
-0.0213039 -0.107419
-0.0215112 -0.109802
-0.027511 -0.219138
-0.027234 -0.222098
-0.0148386 -0.23917
-0.0118136 -0.238186
-0.0211303 -0.33205
-0.00982254 -0.0243338
-0.0107435 -0.0309652
-0.00931845 -0.0305104
-0.0180966 -0.0971883
-0.0190433 -0.108927
-0.0187583 -0.114067
-0.0157609 -0.118124
-0.0242283 -0.219767
-0.0216966 -0.220615
-0.0265301 -0.226091
-0.0132569 -0.235332
-0.030614 -0.337254
-0.0305617 -0.341942
-0.0305313 -0.346748
-0.00658528 -0.0214221
-0.00785105 -0.0216757
-0.00697161 -0.0393341
-0.00551997 -0.0389615
-0.0131399 -0.0926243
-0.0153714 -0.093137
-0.0114298 -0.121293
-0.00857188 -0.12063
-0.01879 -0.199937
-0.0221086 -0.200451
-0.0164616 -0.329673
-0.0184211 -0.332146
-0.0195513 -0.335303
-0.0018 -0.0205678
-0.0029233 -0.019929
-0.00440502 -0.0907133
-0.00668575 -0.0895797
-0.0061372 -0.197772
-0.00975753 -0.195824
-0.0145151 -0.200189
-0.00689796 -0.329881
-0.0101316 -0.328035
-0.00331348 -0.0373475
-0.00596535 -0.119556
-0.00804872 -0.236159
-0.00857388 -0.0244353
-0.00995188 -0.0254387
-0.0106687 -0.0264789
-0.0093767 -0.026596
-0.0107236 -0.02897
-0.00995477 -0.0298404
-0.0090499 -0.0315863
-0.0101624 -0.0327046
-0.0119508 -0.0350539
-0.0117559 -0.0364577
-0.0100102 -0.0351668
-0.0086587 -0.0372922
-0.0159898 -0.0975418
-0.0180901 -0.0989412
-0.01899 -0.100451
-0.0168581 -0.100817
-0.018303 -0.104439
-0.0167592 -0.105738
-0.0169735 -0.110244
-0.0175079 -0.112165
-0.01702 -0.11492
-0.0161988 -0.116111
-0.014961 -0.114201
-0.0136908 -0.117399
-0.0267664 -0.208556
-0.024112 -0.21372
-0.021992 -0.217652
-0.0212877 -0.222915
-0.0228757 -0.224986
-0.0254677 -0.22835
-0.0252971 -0.231251
-0.0216271 -0.230141
-0.0188622 -0.234678
-0.0153765 -0.233807
-0.0209838 -0.33781
-0.0244693 -0.337669
-0.0266385 -0.344939
-0.0279543 -0.359338
-0.00496238 -0.0217781
-0.00715078 -0.0230815
-0.00766499 -0.024097
-0.00828251 -0.0304656
-0.0070447 -0.0367657
-0.00608452 -0.0376507
-0.0100131 -0.0929001
-0.0137472 -0.0952752
-0.0144518 -0.097025
-0.0147041 -0.107057
-0.0119966 -0.117401
-0.0103875 -0.118756
-0.0195611 -0.203491
-0.0204673 -0.206166
-0.0190527 -0.220804
-0.0148713 -0.332914
-0.018258 -0.337901
-0.0241866 -0.360886
-0.00297074 -0.0214157
-0.00391619 -0.0219393
-0.00371951 -0.0363631
-0.00626024 -0.0922082
-0.00797017 -0.0931659
-0.00635751 -0.116836
-0.00918809 -0.199378
-0.0116084 -0.200581
-0.0132926 -0.203356
-0.00860194 -0.232515
-0.00967452 -0.332288
-0.0122353 -0.333655
-0.0214906 -0.361632
-0.0203714 -0.36434
-0.0203821 -0.368695
-0.0138212 -0.372596
-0.00237024 -0.0364281
-0.00243135 -0.0388632
-0.0014635 -0.0398135
-0.00483436 -0.123657
-0.00270726 -0.124611
-0.00600567 -0.24164
-0.00323652 -0.242481
-0.00775341 -0.0252061
-0.00817864 -0.0262188
-0.00887273 -0.0272783
-0.00933273 -0.0285154
-0.00909838 -0.0326511
-0.00893776 -0.033713
-0.00870847 -0.0350958
-0.00816859 -0.0360454
-0.01442 -0.098782
-0.0149419 -0.100387
-0.0158289 -0.101911
-0.0162219 -0.103629
-0.0152541 -0.111095
-0.0142095 -0.112758
-0.0133899 -0.113942
-0.0124538 -0.115392
-0.0214514 -0.212064
-0.0202197 -0.225172
-0.0195014 -0.227349
-0.0193143 -0.230244
-0.0179543 -0.232173
-0.0231865 -0.340279
-0.0239053 -0.34321
-0.023857 -0.348033
-0.0239813 -0.350549
-0.00475847 -0.0229708
-0.00537636 -0.0236894
-0.00632488 -0.0238233
-0.00586095 -0.0247257
-0.00752078 -0.0296391
-0.0072412 -0.0307129
-0.00564464 -0.0363992
-0.00454431 -0.0359507
-0.00549308 -0.0350765
-0.00942019 -0.0950124
-0.0104782 -0.0962985
-0.0121752 -0.0964957
-0.0111603 -0.0980621
-0.0131898 -0.105827
-0.0132146 -0.107952
-0.00918046 -0.116743
-0.00750721 -0.11632
-0.00910737 -0.11497
-0.0146352 -0.205191
-0.0171111 -0.20564
-0.0155208 -0.20788
-0.017374 -0.218979
-0.0169596 -0.221281
-0.0123726 -0.232829
-0.0101349 -0.232032
-0.0122431 -0.230509
-0.0141856 -0.336135
-0.015715 -0.338007
-0.0171424 -0.340525
-0.0208869 -0.358219
-0.0027016 -0.0225821
-0.00361898 -0.035042
-0.00562338 -0.094299
-0.00631446 -0.115065
-0.00793291 -0.202527
-0.0116842 -0.205576
-0.00849211 -0.230201
-0.00897423 -0.335496
-0.017079 -0.36168
-0.013358 -0.366808
-0.00785725 -0.369805
-0.0121186 -0.493186
-0.015486 -0.493191
-0.000293825 -8.0402e-05
-0.000259454 -5.44244e-05
-0.00278456 -0.370772
-0.00279253 -0.374038
-0.000870968 -0.0217136
-0.000969506 -0.0369904
-0.000978524 -0.0383493
-0.00197671 -0.0927046
-0.00221998 -0.119729
-0.0022326 -0.121966
-0.00285622 -0.20049
-0.00306263 -0.235965
-0.0030747 -0.238807
-0.00343237 -0.333077
-0.00628666 -0.0255341
-0.00724277 -0.0258746
-0.00810565 -0.028146
-0.00738861 -0.0286822
-0.00712675 -0.0316273
-0.00783869 -0.0325896
-0.00713482 -0.0345804
-0.00608156 -0.0343962
-0.0118061 -0.09944
-0.0133862 -0.0998662
-0.0142881 -0.103206
-0.0130894 -0.104243
-0.0128422 -0.109486
-0.0136935 -0.110841
-0.011717 -0.113945
-0.0101336 -0.113896
-0.0162936 -0.209858
-0.0185949 -0.210908
-0.0193238 -0.215998
-0.0174081 -0.21697
-0.0165089 -0.223238
-0.0179203 -0.225279
-0.0158437 -0.229379
-0.0135253 -0.229023
-0.0181196 -0.342624
-0.0204052 -0.343354
-0.0212427 -0.348818
-0.022473 -0.354407
-0.020855 -0.355699
-0.00669529 -0.0265656
-0.00695209 -0.0274314
-0.00695495 -0.032674
-0.00661845 -0.0334643
-0.0123164 -0.101059
-0.0127095 -0.102512
-0.0118017 -0.111145
-0.0110663 -0.112453
-0.0168732 -0.212446
-0.0172702 -0.214461
-0.0157896 -0.225412
-0.01488 -0.227099
-0.0188304 -0.345571
-0.019345 -0.347783
-0.0194653 -0.350306
-0.0197461 -0.352631
-0.00425808 -0.0238472
-0.00529071 -0.0253999
-0.00596587 -0.0270951
-0.00635354 -0.0289307
-0.00637639 -0.0308027
-0.00593369 -0.0324979
-0.00501915 -0.0339564
-0.00838009 -0.0965588
-0.0100737 -0.0992423
-0.0111067 -0.10209
-0.0116 -0.105139
-0.0113324 -0.10826
-0.010234 -0.111099
-0.00848267 -0.113476
-0.0137882 -0.209405
-0.014951 -0.213412
-0.0153139 -0.217446
-0.0148345 -0.221417
-0.0134821 -0.22506
-0.0112993 -0.228231
-0.0130576 -0.338747
-0.0155587 -0.342731
-0.0170467 -0.347054
-0.0178434 -0.351599
-0.0181612 -0.35645
-0.00147742 -0.0226767
-0.00199904 -0.0229401
-0.00292843 -0.0234979
-0.00343732 -0.0239277
-0.00403159 -0.0246743
-0.00447913 -0.0252506
-0.00488874 -0.0260775
-0.00522591 -0.026757
-0.00548027 -0.0276322
-0.00566844 -0.0283589
-0.00581074 -0.0293206
-0.00581282 -0.0301246
-0.0057105 -0.0310388
-0.00551326 -0.0316956
-0.0051844 -0.0324795
-0.00480109 -0.033044
-0.00421864 -0.0337142
-0.00366423 -0.0341544
-0.00285035 -0.0345587
-0.00216082 -0.0348409
-0.00320429 -0.0944994
-0.00423317 -0.0949831
-0.00592501 -0.0959669
-0.00685363 -0.0967307
-0.00789035 -0.0980384
-0.00864601 -0.0990395
-0.00927811 -0.100433
-0.00979513 -0.101601
-0.010187 -0.103063
-0.0104186 -0.104314
-0.0105268 -0.105903
-0.0104175 -0.107295
-0.0100567 -0.108831
-0.00962961 -0.109973
-0.00890458 -0.111281
-0.00818654 -0.112258
-0.00716498 -0.11333
-0.00619586 -0.114082
-0.00505135 -0.114596
-0.00389641 -0.115071
-0.00452999 -0.202902
-0.00592217 -0.203542
-0.00832572 -0.204766
-0.00955256 -0.205766
-0.0108749 -0.207619
-0.0118461 -0.20892
-0.0126038 -0.210911
-0.0132441 -0.212425
-0.0136381 -0.214447
-0.0138958 -0.216067
-0.0138682 -0.218081
-0.0136735 -0.21989
-0.013233 -0.22185
-0.0126361 -0.223335
-0.0117361 -0.225023
-0.0107766 -0.226291
-0.00950113 -0.227777
-0.00823874 -0.228749
-0.00671483 -0.229236
-0.00523422 -0.229848
-0.00537953 -0.335863
-0.00699177 -0.336598
-0.00954058 -0.337982
-0.0109408 -0.339123
-0.0124592 -0.341009
-0.0135495 -0.342486
-0.0145177 -0.344596
-0.0152195 -0.346311
-0.0157317 -0.348529
-0.0159929 -0.350365
-0.0162801 -0.352694
-0.0160793 -0.354527
-0.0161201 -0.357053
-0.0154678 -0.35876
-0.0143593 -0.361473
-0.0132994 -0.362943
-0.0107046 -0.365369
-0.00930638 -0.366511
-0.00642081 -0.367094
-0.00477713 -0.367834
-0.0049629 -0.370382
-0.0107522 -0.369228
-0.0159628 -0.364386
-0.0181947 -0.35897
-0.0181265 -0.353925
-0.0175618 -0.349271
-0.0165359 -0.344841
-0.0145891 -0.340631
-0.0115392 -0.336875
-0.00643211 -0.334129
-0.0069627 -0.230686
-0.0100167 -0.229718
-0.0125741 -0.226747
-0.014386 -0.223373
-0.0152817 -0.219456
-0.015348 -0.215433
-0.0145593 -0.211395
-0.0130276 -0.207428
-0.0103612 -0.203745
-0.00554237 -0.201327
-0.0051645 -0.115581
-0.00745196 -0.114552
-0.00949864 -0.112407
-0.0109612 -0.109793
-0.0117015 -0.106724
-0.0115005 -0.10355
-0.0107196 -0.100634
-0.00944135 -0.0978645
-0.00734588 -0.0952764
-0.00394945 -0.0933452
-0.00279104 -0.0354544
-0.00442291 -0.0346375
-0.00559281 -0.0332871
-0.00626131 -0.0317153
-0.0064856 -0.0298886
-0.00622325 -0.0279692
-0.00571734 -0.0262261
-0.00488224 -0.0245917
-0.00366869 -0.0231319
-0.0017998 -0.0220631
-0.0213641 -0.351338
-0.0211207 -0.346301
-0.0171993 -0.227454
-0.0191817 -0.213495
-0.0126479 -0.112502
-0.0139042 -0.101483
-0.007666 -0.0336484
-0.00766279 -0.0269045
-0.023581 -0.357471
-0.0196926 -0.34042
-0.014483 -0.231307
-0.0186387 -0.223104
-0.0194647 -0.218503
-0.0180108 -0.208334
-0.010777 -0.115396
-0.0147334 -0.109182
-0.0146729 -0.104934
-0.0128728 -0.0982622
-0.00658617 -0.0355278
-0.008004 -0.0315408
-0.0085529 -0.0293933
-0.0068303 -0.0248636
-0.00583016 -0.237969
-0.00434539 -0.121018
-0.0019414 -0.0374131
-0.000574905 -0.000187504
-0.0135443 -0.489443
-0.016833 -0.335396
-0.0102543 -0.234355
-0.0162225 -0.202972
-0.00756405 -0.118103
-0.0114909 -0.0947556
-0.00467112 -0.03729
-0.00583951 -0.0228193
-0.0265947 -0.349764
-0.0266767 -0.340137
-0.0214441 -0.233045
-0.0218079 -0.227244
-0.0237092 -0.210643
-0.0141379 -0.11539
-0.015779 -0.113016
-0.017754 -0.102339
-0.0159683 -0.0993019
-0.00978418 -0.0365753
-0.0102212 -0.0337827
-0.0100877 -0.027655
-0.00867837 -0.0255493
-0.00618326 -0.24533
-0.00533352 -0.12632
-0.00293982 -0.0403404
-0.0169065 -0.375974
-0.0248216 -0.373017
-0.0247927 -0.364297
-0.0129257 -0.330445
-0.0128355 -0.197435
-0.00857502 -0.09108
-0.00413912 -0.0207829
-0.0229031 -0.204014
-0.0132345 -0.119423
-0.0160089 -0.0958012
-0.00751398 -0.0380233
-0.00846555 -0.0233527
-0.0323381 -0.36121
-0.0222695 -0.33521
-0.016275 -0.236315
-0.0291428 -0.229464
-0.0239385 -0.22273
-0.0245132 -0.216808
-0.0298058 -0.206484
-0.0182743 -0.116837
-0.0192309 -0.111317
-0.0188549 -0.106547
-0.0202046 -0.0985854
-0.0137308 -0.0363533
-0.0101011 -0.0316371
-0.0113729 -0.0302997
-0.0112165 -0.0253358
-0.00735657 -0.325633
-0.00671814 -0.194227
-0.00484082 -0.088099
-0.0017815 -0.0191041
-0.0199994 -0.328905
-0.021325 -0.196922
-0.00960004 -0.123181
-0.0147487 -0.0905193
-0.006405 -0.0406677
-0.00726618 -0.0200774
-0.0344573 -0.343748
-0.0345388 -0.334381
-0.0133903 -0.242037
-0.030529 -0.221474
-0.0237712 -0.108299
-0.0140262 -0.0313227
-0.00875812 -0.314366
-0.00704127 -0.183713
-0.00658556 -0.132868
-0.00553688 -0.0811833
-0.00478971 -0.0446103
-0.00212676 -0.0156786
-0.00208837 -0.0128066
-0.00192922 -0.0103482
-0.00176727 -0.00811348
-0.00168029 -0.00614691
-0.00150285 -0.00436946
-0.00118615 -0.00285348
-0.00083545 -0.00169433
-0.000516974 -0.000800098
-0.000266656 -0.00022857
-0.00819468 -0.379396
-0.00865443 -0.390778
-0.00946864 -0.401175
-0.0108689 -0.411049
-0.0111902 -0.421773
-0.0107098 -0.432398
-0.00994959 -0.442649
-0.00964456 -0.452828
-0.00937624 -0.463135
-0.00891914 -0.473259
-0.00793932 -0.483174
-0.000253373 -4.53446e-05
-0.000463355 -0.00012079
-0.001347 -0.00060928
-0.002209 -0.00118313
-0.00303066 -0.00203428
-0.00383658 -0.00320725
-0.00465225 -0.00465714
-0.00571237 -0.00630662
-0.00684591 -0.00823076
-0.00768649 -0.0103099
-0.00851851 -0.0126719
-0.00932135 -0.0153357
-0.0100615 -0.0183845
-0.0108198 -0.0216673
-0.0141701 -0.0398943
-0.0138483 -0.0445073
-0.0154003 -0.0497823
-0.0164452 -0.0547399
-0.0172695 -0.0597147
-0.0178683 -0.064823
-0.0183295 -0.070182
-0.0187955 -0.0759778
-0.0196348 -0.0817391
-0.0205979 -0.0877079
-0.0210037 -0.0934752
-0.024042 -0.114182
-0.0241471 -0.120767
-0.0244571 -0.127822
-0.0253066 -0.134841
-0.0256329 -0.141943
-0.025522 -0.149191
-0.0258812 -0.157225
-0.026335 -0.165463
-0.0274448 -0.173244
-0.0279341 -0.181215
-0.0270379 -0.19004
-0.0289279 -0.198613
-0.0300208 -0.238594
-0.0303894 -0.247572
-0.0304131 -0.256996
-0.0309641 -0.266722
-0.0317374 -0.276224
-0.0319582 -0.285559
-0.0320862 -0.295093
-0.0332354 -0.304184
-0.0336074 -0.314187
-0.0338869 -0.324563
-0.0338506 -0.370571
-0.0340952 -0.379801
-0.0341952 -0.39012
-0.0335978 -0.400517
-0.0331255 -0.411244
-0.0326911 -0.421655
-0.0341555 -0.431491
-0.035624 -0.441503
-0.0357915 -0.451145
-0.0358544 -0.461343
-0.0359593 -0.472006
-0.0369986 -0.482346
-0.0307705 -0.48921
-0.0215385 -0.488528
-0.0337228 -0.352971
-0.0152934 -0.321572
-0.0135083 -0.188336
-0.0102997 -0.0857737
-0.00447791 -0.017714
-0.0171163 -0.124132
-0.0101727 -0.0404143
-0.0280502 -0.331093
-0.0220079 -0.241097
-0.0302718 -0.214075
-0.0229451 -0.103335
-0.0126771 -0.0334476
-0.0130904 -0.0286709
-0.0102952 -0.304237
-0.00891012 -0.174485
-0.00852639 -0.140746
-0.00623311 -0.074898
-0.00526562 -0.0499566
-0.00118802 -0.000552008
-0.0160563 -0.480436
-0.0119152 -0.252775
-0.0117361 -0.128994
-0.0167561 -0.386345
-0.0253054 -0.383176
-0.025014 -0.32004
-0.0089705 -0.0434871
-0.0214038 -0.250233
-0.0179624 -0.311147
-0.0151642 -0.179771
-0.0138765 -0.136054
-0.0127708 -0.0794728
-0.00986147 -0.047472
-0.00443243 -0.0145802
-0.004112 -0.0118957
-0.00375794 -0.00954068
-0.00346252 -0.00745705
-0.00353055 -0.00558319
-0.00278359 -0.00369665
-0.0021131 -0.00223748
-0.00120109 -0.0012037
-0.000805318 -0.000491308
-0.0162452 -0.395343
-0.0214271 -0.404208
-0.02247 -0.428482
-0.0218762 -0.416409
-0.0193361 -0.439012
-0.0186175 -0.449103
-0.0182936 -0.459347
-0.0177372 -0.470035
-0.00179365 -0.00123206
-0.00498291 -0.00723399
-0.0054249 -0.00891682
-0.00600434 -0.0110795
-0.00656502 -0.0135964
-0.0070308 -0.016534
-0.0108194 -0.0522997
-0.0117451 -0.057138
-0.0122432 -0.0618757
-0.0123416 -0.0669283
-0.0124928 -0.0726504
-0.0155678 -0.0849383
-0.0187974 -0.131596
-0.0202599 -0.137688
-0.0174456 -0.143885
-0.0175773 -0.152941
-0.0177889 -0.161632
-0.0181213 -0.171161
-0.0218964 -0.177981
-0.0208176 -0.184688
-0.0203968 -0.261161
-0.0232798 -0.271646
-0.0234379 -0.28082
-0.0227642 -0.290266
-0.0223049 -0.300973
-0.0264222 -0.310081
-0.024717 -0.393541
-0.0277676 -0.437218
-0.0272705 -0.445624
-0.0271732 -0.455348
-0.0271732 -0.465762
-0.0266269 -0.478283
-0.00598323 -0.0551218
-0.00749168 -0.0593944
-0.00651059 -0.0635448
-0.0062462 -0.0688984
-0.00899381 -0.148778
-0.00897814 -0.157523
-0.00920074 -0.166096
-0.0153282 -0.268538
-0.0154419 -0.276249
-0.0148032 -0.285135
-0.0120055 -0.294197
-0.00802701 -0.271704
-0.0077862 -0.279794
-0.00925679 -0.262092
-0.019209 -0.191305
-0.000609952 -0.000262661
-0.0383367 -0.490502
-0.00683844 -0.490861
-9.2609e-05 -3.69469e-06
-0.00128944 -0.0356725
-0.00334107 -0.117111
-0.00458919 -0.232605
0.0155929 -0.37014
0.00902422 -0.229846
0.00908814 -0.266607
0.00201796 -0.00166593
0.0232717 -0.247469
0.0167731 -0.0944391
0.0194529 -0.11324
0.0250797 -0.351119
0.00740721 -0.197345
0.00906423 -0.373503
0.00525227 -0.11761
0.00649762 -0.23296
0.0120923 -0.0306779
0.0134696 -0.236216
0.0146324 -0.0295621
0.000938131 -0.0202291
0.00205398 -0.0899543
0.00301038 -0.328959
0.002394 -0.335498
0.00158043 -0.367993
0.00150608 -0.20216
0.0017471 -0.0942499
0.00092425 -0.0225606
0.00933506 -0.0737548
0.0286211 -0.37644
0.0236161 -0.192333
0.0120365 -0.0418601
0.0294288 -0.336193
0.0328673 -0.489881
0.0326749 -0.218251
0.000177243 -2.67186e-05
0.00378719 -0.0386892
0.0086408 -0.238635
0.00570957 -0.487024
0.000999299 -0.000381874
0.0160042 -0.0366337
0.0259152 -0.334377
0.0120735 -0.034301
0.00929167 -0.0375011
0.0112589 -0.0278866
0.0248704 -0.226114
0.020231 -0.232369
0.00161573 -0.0365221
0.0036327 -0.119064
0.00453168 -0.234832
0.00552854 -0.231201
0.00183999 -0.233133
0.00343909 -0.230648
0.00183902 -0.230859
0.00405883 -0.116351
0.00152082 -0.117783
0.00277737 -0.115835
0.00151971 -0.115998
0.00205121 -0.0355666
0.000649022 -0.0361212
0.00141276 -0.0349475
0.000648689 -0.0350444
0.00018555 -9.36176e-05
6.73099e-05 -3.26765e-05
6.37691e-05 1.3447e-05
2.57105e-05 1.7316e-05
0.000606931 -0.000193669
0.000279615 -7.81492e-05
0.000922949 -0.000383531
0.000342361 -0.000133038
0.0360002 -0.486449
0.0397996 -0.48878
0.0348059 -0.493771
0.0397853 -0.493783
0.00849424 -0.490159
0.00705197 -0.493898
0.00215064 -0.488929
0.00213562 -0.493889
0.0118503 -0.255574
0.0132928 -0.265147
0.00635195 -0.0661975
0.00699151 -0.0614538
0.0037345 -0.0593965
0.0067341 -0.0572353
0.0192913 -0.394425
0.0165337 -0.2623
0.0162716 -0.256807
0.0216955 -0.257828
0.0211012 -0.181706
0.0179347 -0.17886
0.0195969 -0.174615
0.0124927 -0.0761271
0.00153755 -0.000828172
0.020343 -0.410319
0.0175926 -0.399765
0.00572082 -0.0524935
0.00616133 -0.0718679
0.00867272 -0.170316
0.00582441 -0.0170889
0.00297383 -0.0539979
0.00304941 -0.0572398
0.00318974 -0.0614603
0.00325022 -0.0642662
0.003059 -0.0669354
0.00311249 -0.0698462
0.00432377 -0.14646
0.00432953 -0.168261
0.00536516 -0.258928
0.0053885 -0.263733
0.00334158 -0.269075
0.00335438 -0.274998
0.00691156 -0.275919
0.0031966 -0.278966
0.00320483 -0.283869
0.00528852 -0.295977
0.00527353 -0.291019
0.00623342 -0.286384
0.00979441 -0.282397
0.0106757 -0.278197
0.0108046 -0.274233
0.0112842 -0.270492
0.00429574 -0.164112
0.00429749 -0.159795
0.00426109 -0.155725
0.00437252 -0.151317
0.010143 -0.299222
0.0119043 -0.289539
0.0137094 -0.280704
0.0150418 -0.272763
0.00874227 -0.161806
0.0087665 -0.153087
0.00840283 -0.144596
0.00398693 -0.0106722
0.0197309 -0.24826
0.0169853 -0.251129
0.00615049 -0.253232
0.020563 -0.474172
0.0209793 -0.310294
0.0160341 -0.297667
0.0163079 -0.292235
0.0172265 -0.287599
0.0176428 -0.282932
0.0184953 -0.278733
0.0186972 -0.274334
0.0191486 -0.270594
0.0187555 -0.266171
0.0132144 -0.168653
0.0131468 -0.163874
0.0130637 -0.159562
0.0130149 -0.155204
0.0130335 -0.150804
0.0130014 -0.146256
0.0166823 -0.136825
0.00933237 -0.0707546
0.00927141 -0.067896
0.00935827 -0.0652155
0.00937196 -0.0626922
0.00983326 -0.0606189
0.00964618 -0.0582511
0.00886756 -0.0561076
0.00851652 -0.0536847
0.00574169 -0.0155165
0.00556705 -0.0140523
0.00535106 -0.0127051
0.00512511 -0.0114505
0.00489375 -0.0102673
0.0211674 -0.462567
0.0208662 -0.46791
0.0213758 -0.452237
0.0211933 -0.457359
0.0218292 -0.44233
0.0214488 -0.447374
0.0221018 -0.438132
0.00127727 -0.000810469
0.00153299 -0.00119175
0.00427552 -0.00730843
0.00445534 -0.00814099
0.00465494 -0.00919123
0.0148036 -0.130303
0.0159257 -0.133789
0.0153403 -0.247033
0.012401 -0.244884
0.00926544 -0.247431
0.0195402 -0.389868
0.0252974 -0.472037
0.0256219 -0.460568
0.0257159 -0.450499
0.0260568 -0.441439
0.0237071 -0.43289
0.0218582 -0.398875
0.0238358 -0.388263
0.0242319 -0.314788
0.0231389 -0.305559
0.0213942 -0.295716
0.0220423 -0.285618
0.0226239 -0.276554
0.0223976 -0.267736
0.0175892 -0.166384
0.0173822 -0.157253
0.0172095 -0.14835
0.0185425 -0.140732
0.0191468 -0.134617
0.017365 -0.127908
0.0124185 -0.069755
0.0122684 -0.0643678
0.012003 -0.0594741
0.0113685 -0.0546857
0.00719571 -0.0182344
0.00685103 -0.0149971
0.00633512 -0.0122713
0.00576312 -0.00993201
0.00525236 -0.00801346
0.00427145 -0.00634956
0.0152757 -0.475245
0.0164436 -0.4647
0.0169307 -0.454233
0.0174983 -0.444066
0.0208101 -0.422479
0.0194884 -0.433779
0.0152892 -0.390755
0.00103976 -0.000805345
0.00166003 -0.00167082
0.00248529 -0.00289948
0.00319533 -0.00456746
0.0035637 -0.00646209
0.00366268 -0.00845093
0.00432665 -0.0131922
0.00451767 -0.0161001
0.0101597 -0.045058
0.0106381 -0.0497992
0.00817435 -0.0510984
0.0123511 -0.132492
0.0152717 -0.139894
0.0125323 -0.142169
0.013141 -0.172849
0.0160396 -0.175405
0.0152296 -0.302716
0.0189856 -0.305882
0.0259343 -0.222483
0.0109325 -0.082663
0.013813 -0.0829215
0.0138098 -0.184214
0.0174882 -0.182506
0.0123931 -0.043999
0.00753492 -0.043587
0.0154435 -0.316081
0.0200437 -0.315115
0.0215979 -0.243388
0.0189364 -0.240439
0.0151339 -0.242031
0.0090968 -0.242427
0.0198269 -0.384599
0.0196973 -0.479372
0.00102929 -0.00049698
0.0224249 -0.483421
0.0270414 -0.483763
0.0301655 -0.480335
0.0296733 -0.475163
0.0299725 -0.468902
0.0299468 -0.463569
0.029968 -0.458362
0.0299621 -0.453262
0.03003 -0.4484
0.0299708 -0.443579
0.0302389 -0.439381
0.0295311 -0.434374
0.0269073 -0.430024
0.0262041 -0.425104
0.0259132 -0.419049
0.0261612 -0.413843
0.0259682 -0.407741
0.026249 -0.402379
0.0279421 -0.397037
0.028294 -0.391839
0.0285711 -0.386567
0.0285884 -0.381457
0.0299306 -0.33169
0.0296918 -0.326888
0.0281075 -0.321758
0.027878 -0.316901
0.028786 -0.312077
0.0285467 -0.307207
0.0265221 -0.302803
0.0261578 -0.29816
0.0263854 -0.292729
0.026422 -0.28796
0.0268007 -0.283294
0.0268004 -0.278699
0.0269679 -0.274302
0.0268251 -0.26975
0.026397 -0.265332
0.0262445 -0.260632
0.0259247 -0.255152
0.0262122 -0.25051
0.028057 -0.24563
0.0286433 -0.241825
0.024171 -0.187439
0.0242086 -0.183314
0.0246065 -0.179667
0.0243219 -0.17565
0.0223836 -0.172212
0.0218807 -0.168305
0.0217219 -0.163534
0.0215551 -0.159407
0.02142 -0.155053
0.0212913 -0.151031
0.0211661 -0.146485
0.0212602 -0.142866
0.0226405 -0.13978
0.0225092 -0.136233
0.0217022 -0.133201
0.0212069 -0.129674
0.0201719 -0.126003
0.0198975 -0.122512
0.0204826 -0.119241
0.0200416 -0.115603
0.0202066 -0.111012
0.0205329 -0.107589
0.0181149 -0.0872539
0.0175218 -0.0841904
0.0160669 -0.0809212
0.0157018 -0.0776783
0.0156807 -0.0741683
0.0154252 -0.0713812
0.0152568 -0.0685176
0.015087 -0.0658378
0.0150047 -0.0633096
0.0147652 -0.0607583
0.0144921 -0.0583912
0.0141537 -0.0559125
0.0136987 -0.053495
0.0132916 -0.0510693
0.0129086 -0.0486056
0.012601 -0.0462751
0.0118222 -0.0399591
0.00873628 -0.0191695
0.00855406 -0.017394
0.00824894 -0.0158713
0.0079538 -0.0143999
0.00761026 -0.0130704
0.00727376 -0.0118081
0.00691166 -0.0106298
0.00656955 -0.00954487
0.00620039 -0.00850716
0.00593546 -0.00766604
0.005413 -0.00670205
0.0046387 -0.00588537
0.00417482 -0.00505163
0.00371844 -0.00411694
0.0033818 -0.00338812
0.00295965 -0.0026577
0.00263449 -0.00207273
0.00240217 -0.00156615
0.00204514 -0.00114844
0.00168478 -0.000800458
0.00129588 -0.000531183
0.000687747 -0.000270264
0.000519128 -0.000220524
0.0108565 -0.476854
0.0103414 -0.481812
0.0119729 -0.466592
0.0117208 -0.471654
0.0124323 -0.456094
0.0122765 -0.461248
0.0127886 -0.44588
0.012619 -0.450971
0.0135537 -0.435694
0.0131743 -0.440835
0.0150255 -0.413742
0.0151489 -0.419085
0.0154244 -0.425143
0.015163 -0.430452
0.0141573 -0.402701
0.0148505 -0.407638
0.0112658 -0.393002
0.0116047 -0.398246
0.011525 -0.388446
0.000530556 -0.000346216
0.000723307 -0.000627717
0.000865713 -0.000986852
0.00107902 -0.00142797
0.00147684 -0.00193762
0.00172908 -0.00250915
0.00198397 -0.00324174
0.00221992 -0.00399839
0.00250953 -0.00493676
0.00267708 -0.00583265
0.00258154 -0.00677232
0.00268198 -0.00776308
0.00277613 -0.00880021
0.00291225 -0.00992408
0.003037 -0.0110973
0.00316904 -0.0123321
0.00327719 -0.0136697
0.00334903 -0.0151105
0.00763013 -0.0458599
0.00790475 -0.048631
0.00275262 -0.0514048
0.00300754 -0.0728356
0.00922604 -0.0772658
0.008841 -0.0803456
0.00876885 -0.130916
0.00982782 -0.134405
0.010734 -0.138252
0.00394749 -0.142371
0.00418045 -0.172457
0.0114359 -0.177088
0.0106526 -0.181668
0.0100806 -0.18624
0.00444518 -0.301023
0.0130528 -0.307447
0.0122377 -0.312513
0.018883 -0.0899505
0.0286625 -0.221127
0.0255464 -0.219411
0.0120385 -0.0268776
0.0141953 -0.0276612
0.0155895 -0.0345844
0.013109 -0.0358409
0.0159544 -0.0888975
0.024858 -0.324742
0.0122903 -0.0859512
0.0136745 -0.0882759
0.0169736 -0.18708
0.0200865 -0.190243
0.00983495 -0.0408824
0.00821711 -0.0414658
0.0138405 -0.126626
0.0186774 -0.32059
0.0208698 -0.324115
0.00331934 -0.016674
0.00727749 -0.0833504
0.0108495 -0.317982
0.026799 -0.237985
0.0224451 -0.239655
0.00586242 -0.0188525
0.0160034 -0.238303
0.0106066 -0.236756
0.00966652 -0.191026
0.0153602 -0.380575
0.0114933 -0.38257
0.0241544 -0.377979
0.019638 -0.378973
0.0288356 -0.367055
0.028692 -0.371616
0.00577558 -0.0422487
0.0103224 -0.126096
0.00814244 -0.127661
0.0131316 -0.48495
0.0171307 -0.484493
0.000917367 -0.00032693
0.000812156 -0.000289319
0.0244696 -0.488886
0.0322189 -0.485802
0.0348536 -0.477198
0.0343295 -0.466693
0.0342925 -0.456261
0.0342217 -0.44634
0.033447 -0.436513
0.0320247 -0.426588
0.0315574 -0.416465
0.0320728 -0.405898
0.0326935 -0.395337
0.0330526 -0.385027
0.0331313 -0.375092
0.0331472 -0.365572
0.0334714 -0.338096
0.0331938 -0.328688
0.0326896 -0.319035
0.0321841 -0.309312
0.0315424 -0.299804
0.0311744 -0.290394
0.0311718 -0.281031
0.030991 -0.271886
0.0306563 -0.262638
0.0307509 -0.253298
0.0315929 -0.244851
0.0303055 -0.237212
0.0287645 -0.228788
0.0279993 -0.193631
0.0277146 -0.185383
0.0274078 -0.177247
0.0265535 -0.169336
0.0258087 -0.161311
0.0254347 -0.153165
0.0253264 -0.145522
0.0252266 -0.138349
0.0245406 -0.131274
0.0237046 -0.12426
0.0229213 -0.117134
0.0227627 -0.110074
0.0214606 -0.0912586
0.0203908 -0.0852202
0.0193252 -0.0789256
0.0185868 -0.0729098
0.0180609 -0.067441
0.0175523 -0.0622077
0.0168754 -0.0571777
0.0160263 -0.0522753
0.0152069 -0.0475212
0.0144381 -0.0430543
0.0132087 -0.0390063
0.0104734 -0.0199242
0.00973828 -0.0167601
0.00896707 -0.0139063
0.00814941 -0.0113929
0.00731198 -0.00917132
0.00631379 -0.00716925
0.00521411 -0.00538806
0.00428498 -0.00383529
0.00347407 -0.00252041
0.00265725 -0.00151025
0.00180737 -0.000811168
0.000946265 -0.00034094
0.000367917 -7.92309e-05
0.000301449 -0.000125382
0.00906493 -0.486315
0.00679265 -0.478221
0.00755873 -0.468201
0.00796819 -0.457985
0.00829759 -0.447739
0.00885283 -0.437505
0.00965443 -0.416401
0.00950323 -0.427055
0.00885381 -0.406118
0.00783906 -0.395933
0.00748663 -0.384811
0.000410152 -0.000480161
0.000702495 -0.0012105
0.00104364 -0.00223693
0.00138533 -0.00356946
0.00164097 -0.00521757
0.00177689 -0.00709381
0.00190039 -0.00919555
0.00206284 -0.0115439
0.00216729 -0.0142065
0.00202611 -0.0173521
0.00397843 -0.0422808
0.00523142 -0.0471279
0.00269265 -0.0488648
0.00305468 -0.0758527
0.00568147 -0.0779361
0.00470204 -0.0844122
0.00563635 -0.129556
0.00710368 -0.136656
0.00390901 -0.138474
0.00420968 -0.176679
0.00775812 -0.179088
0.00650849 -0.188457
0.0044542 -0.306022
0.00849116 -0.309335
0.00707318 -0.320138
0.0192756 -0.0929339
0.0222394 -0.0973109
0.0228249 -0.103517
0.020551 -0.104938
0.0287931 -0.201603
0.0293731 -0.208961
0.0288584 -0.215264
0.025797 -0.216478
0.0117549 -0.0291617
0.0132106 -0.0300213
0.0136857 -0.0330568
0.0124712 -0.0333075
0.0143777 -0.09098
0.0150958 -0.0927679
0.0238731 -0.196463
0.0252095 -0.200158
0.0224178 -0.32925
0.0235969 -0.332178
0.0107059 -0.0880086
0.0128442 -0.19238
0.0163455 -0.19197
0.011048 -0.0380472
0.0110545 -0.0233978
0.0169987 -0.120965
0.00838605 -0.0382167
0.0080837 -0.0395675
0.0090352 -0.0208139
0.00964971 -0.0224399
0.0145878 -0.121742
0.0128728 -0.123721
0.0162301 -0.325086
0.00319572 -0.018389
0.00437531 -0.0192107
0.00675742 -0.0867631
0.00853022 -0.088316
0.0102664 -0.323721
0.012879 -0.325946
0.0241267 -0.23505
0.00575074 -0.0204023
0.0172431 -0.234631
0.0287918 -0.36236
0.00464483 -0.19681
0.00922448 -0.194615
0.0113182 -0.376951
0.00560944 -0.374518
0.01968 -0.373962
0.0243401 -0.368408
0.00473178 -0.0401782
0.00675439 -0.122106
0.00722845 -0.124752
0.0158507 -0.488997
0.000538095 -0.000139771
0.0177775 -0.492751
0.021445 -0.492759
0.0260648 -0.493106
0.0310254 -0.493119
0.0391459 -0.484699
0.0391522 -0.479715
0.0386522 -0.474544
0.0386526 -0.469519
0.0386214 -0.464187
0.038615 -0.458966
0.0386037 -0.453868
0.0385906 -0.448853
0.0385253 -0.444033
0.038505 -0.439025
0.0377878 -0.43402
0.0377609 -0.429022
0.0370439 -0.424104
0.0370106 -0.419116
0.0372457 -0.413913
0.037205 -0.408938
0.0374722 -0.403577
0.0374246 -0.398617
0.0377662 -0.393418
0.0377125 -0.388473
0.0377202 -0.383361
0.0376619 -0.378428
0.037724 -0.373602
0.0376604 -0.368675
0.0376044 -0.363979
0.0375314 -0.359054
0.0373955 -0.354509
0.0373068 -0.349595
0.0376219 -0.345063
0.0375147 -0.340183
0.0374773 -0.335577
0.0373587 -0.330747
0.0370872 -0.325949
0.0369644 -0.321168
0.0366948 -0.316314
0.036569 -0.311573
0.0362957 -0.306706
0.0361654 -0.302002
0.0357608 -0.297363
0.0356253 -0.292695
0.0356229 -0.287928
0.0354797 -0.283298
0.0354424 -0.278705
0.0352914 -0.274114
0.0351112 -0.269565
0.0349532 -0.265016
0.0347593 -0.26032
0.0345946 -0.255816
0.0348422 -0.251173
0.0346696 -0.246713
0.0352329 -0.242906
0.0350524 -0.238484
0.0331825 -0.234654
0.0330044 -0.230265
0.0332841 -0.225676
0.0330942 -0.221319
0.033257 -0.21546
0.033044 -0.211152
0.0329483 -0.207643
0.032719 -0.203399
0.0321906 -0.199556
0.0319551 -0.19539
0.0316275 -0.191268
0.0313893 -0.187179
0.0313631 -0.183058
0.0311196 -0.179038
0.0307782 -0.175028
0.0305306 -0.171073
0.0299568 -0.167177
0.0297056 -0.163286
0.0294636 -0.159165
0.0292048 -0.155343
0.0290014 -0.151322
0.0287343 -0.147571
0.0287616 -0.143947
0.0284844 -0.140266
0.0282984 -0.136717
0.0280134 -0.133108
0.0274549 -0.129583
0.0271665 -0.126046
0.0268219 -0.122558
0.0265285 -0.119092
0.0260227 -0.115454
0.0257251 -0.112052
0.0259966 -0.108627
0.0256807 -0.105282
0.0254142 -0.102154
0.0250783 -0.0988826
0.0246948 -0.0958152
0.0243436 -0.0926455
0.0238744 -0.0896671
0.0235189 -0.0866077
0.0228329 -0.0835533
0.0224805 -0.0805983
0.0219926 -0.0773639
0.0216382 -0.0745099
0.0212817 -0.0717217
0.0209221 -0.0689604
0.0206548 -0.0662786
0.0202871 -0.0636105
0.0199535 -0.0610588
0.0195781 -0.0584852
0.0191426 -0.0560089
0.0187609 -0.053532
0.0182492 -0.0511095
0.0178627 -0.0487323
0.0174472 -0.0464049
0.0170538 -0.0441299
0.0165948 -0.0419938
0.0161965 -0.03982
0.0153279 -0.0379104
0.0154554 -0.0330552
0.0150303 -0.0310807
0.0133492 -0.0260436
0.0129066 -0.0242437
0.0126353 -0.0224187
0.0121719 -0.0207638
0.0117394 -0.0191271
0.0112701 -0.0176164
0.0108379 -0.0160924
0.0103638 -0.0147156
0.00990611 -0.0133817
0.0094274 -0.0121289
0.00895761 -0.0109457
0.00847314 -0.009814
0.00799989 -0.00877337
0.00750883 -0.0077628
0.00688126 -0.00680185
0.00639242 -0.00591562
0.00579221 -0.00509297
0.005306 -0.00433202
0.0048196 -0.00360866
0.00432377 -0.00297941
0.00384638 -0.0023912
0.00333701 -0.00189534
0.00286446 -0.00146582
0.00233904 -0.00109714
0.00186243 -0.000811127
0.00132405 -0.000547475
0.000257538 -3.63551e-05
0.000218662 -2.12973e-05
0.00015858 -4.34704e-06
0.000112072 5.91467e-06
0.00273189 -0.480111
0.00271762 -0.485086
0.00325692 -0.470076
0.00324414 -0.475154
0.00352008 -0.45994
0.00350911 -0.465014
0.00368813 -0.449717
0.0036788 -0.454786
0.00387075 -0.439559
0.00386295 -0.444626
0.0042636 -0.42936
0.00425759 -0.434418
0.0045408 -0.419005
0.00453672 -0.424051
0.00443466 -0.408627
0.00443233 -0.41366
0.00375998 -0.398668
0.00375876 -0.403687
0.00343623 -0.388454
0.00343735 -0.393423
0.00342138 -0.378323
0.00342614 -0.382578
0.000123313 -0.000139145
0.000176282 -0.000344033
0.000252873 -0.000629048
0.000312954 -0.00099273
0.000413256 -0.00143923
0.000478666 -0.00194647
0.000589612 -0.0025256
0.000658948 -0.00316823
0.000746235 -0.00392548
0.000815303 -0.00470486
0.00083708 -0.00559118
0.000900671 -0.00650357
0.000886179 -0.00748337
0.000943086 -0.00852439
0.000970319 -0.00963701
0.00102365 -0.0108057
0.00105358 -0.0120304
0.00110291 -0.0133249
0.00107606 -0.0147559
0.00111633 -0.0161678
0.000912901 -0.0178706
0.000929937 -0.0191885
0.00150928 -0.0416164
0.00249686 -0.0437083
0.00255461 -0.0460873
0.00258027 -0.0789179
0.00261284 -0.0819882
0.00203898 -0.0853877
0.0020499 -0.08798
0.00247643 -0.127625
0.00304636 -0.130876
0.00307711 -0.134628
0.00336966 -0.181261
0.00338722 -0.185489
0.00292947 -0.190274
0.00293415 -0.193791
0.00282561 -0.2461
0.00283793 -0.250758
0.00361403 -0.311085
0.00361663 -0.316042
0.00301989 -0.321777
0.00301568 -0.325866
0.019387 -0.0957797
0.0197004 -0.0988534
0.0203427 -0.101805
0.0256864 -0.204007
0.0262571 -0.207232
0.026316 -0.210744
0.0263989 -0.213686
0.0123858 -0.0317951
0.0127708 -0.092129
0.0151521 -0.0956095
0.0174616 -0.100249
0.0180402 -0.105869
0.0207804 -0.198841
0.0226493 -0.205769
0.0232755 -0.211947
0.0230859 -0.217832
0.0329702 -0.356327
0.0286257 -0.357973
0.03317 -0.347241
0.0195831 -0.331543
0.0098676 -0.0906549
0.0111213 -0.0921749
0.0159496 -0.195566
0.0173948 -0.198236
0.0109151 -0.0309302
0.00980856 -0.0242794
0.00966382 -0.0305439
0.0161559 -0.10698
0.0152187 -0.118475
0.020631 -0.219006
0.00681836 -0.0387872
0.00550756 -0.038656
0.00659214 -0.021431
0.00783429 -0.0216405
0.011122 -0.121215
0.00836868 -0.120643
0.0118102 -0.0939687
0.0128655 -0.0955908
0.0145501 -0.0972935
0.0153392 -0.0992192
0.015933 -0.10219
0.0162125 -0.104324
0.0186844 -0.201937
0.0196879 -0.204707
0.0202266 -0.20794
0.0207577 -0.210542
0.0208172 -0.213492
0.0209003 -0.216067
0.0285077 -0.353423
0.0230722 -0.33668
0.0294378 -0.340803
0.0297392 -0.344942
0.0256896 -0.343024
0.0294047 -0.349479
0.0150512 -0.329479
0.0169179 -0.331803
0.0180814 -0.334734
0.019539 -0.337066
0.00185649 -0.0205649
0.00297632 -0.019924
0.00385514 -0.0905392
0.00587943 -0.0893979
0.00888496 -0.0924774
0.0138394 -0.19864
0.0058665 -0.329943
0.00907522 -0.32811
0.00326315 -0.0372812
0.00576128 -0.119564
0.00705672 -0.235505
0.00992102 -0.0316572
0.0107896 -0.0330319
0.0113763 -0.035554
0.0106499 -0.0365671
0.00965985 -0.0350205
0.00803838 -0.0367325
0.00848993 -0.0243554
0.00991445 -0.0253537
0.0104934 -0.0262564
0.00913154 -0.0263465
0.0101688 -0.0285367
0.00940078 -0.0292525
0.0159162 -0.108975
0.0172372 -0.110747
0.0170326 -0.115333
0.015808 -0.11666
0.0152504 -0.114295
0.0134323 -0.117429
0.0200962 -0.221605
0.0217496 -0.2244
0.0245482 -0.230705
0.0176943 -0.230292
0.00674688 -0.0363544
0.00584916 -0.037313
0.00841991 -0.0299802
0.00498032 -0.0217927
0.00711486 -0.0230784
0.00750801 -0.0240237
0.0116903 -0.117337
0.0100878 -0.118674
0.0140841 -0.10743
0.011181 -0.0956308
0.0130154 -0.0992044
0.0140651 -0.103291
0.0118647 -0.23309
0.0179081 -0.219843
0.0162609 -0.204084
0.0177747 -0.209468
0.0183727 -0.21466
0.0243308 -0.359462
0.0223357 -0.352442
0.0218585 -0.339279
0.0227504 -0.341845
0.0230337 -0.345995
0.0232437 -0.34849
0.0135415 -0.332661
0.0168577 -0.337322
0.00367272 -0.0363171
0.00302223 -0.0214083
0.00396491 -0.0219212
0.0061628 -0.116844
0.00847328 -0.0944733
0.00950851 -0.0956779
0.00560332 -0.0921047
0.00723775 -0.0929415
0.00803833 -0.231866
0.0120149 -0.201384
0.0136438 -0.203764
0.0106036 -0.198709
0.0129125 -0.371511
0.0200926 -0.369141
0.0208096 -0.361188
0.0202457 -0.364586
0.00846365 -0.332171
0.0109397 -0.333444
0.00237506 -0.0364148
0.00245031 -0.0387851
0.00148289 -0.0397523
0.00458538 -0.12366
0.00245633 -0.124611
0.0055229 -0.241166
0.0028148 -0.242302
0.00951012 -0.0326375
0.00901432 -0.0337627
0.00829064 -0.0347574
0.00763442 -0.035651
0.00757033 -0.025101
0.00803577 -0.0260459
0.00859287 -0.0269667
0.00894857 -0.0279706
0.0151433 -0.111195
0.0144814 -0.112818
0.0132631 -0.114138
0.0122932 -0.115528
0.0190117 -0.225237
0.017679 -0.227486
0.0147094 -0.229742
0.0128413 -0.231067
0.0054836 -0.0362241
0.00448402 -0.035859
0.00537636 -0.0349123
0.00761872 -0.0304961
0.00738265 -0.029205
0.00477421 -0.022979
0.0053465 -0.0236929
0.00619176 -0.0237962
0.00570721 -0.0246584
0.00897633 -0.116769
0.00731952 -0.116331
0.00891437 -0.114997
0.0125918 -0.108158
0.0127589 -0.104428
0.0128445 -0.106162
0.0105545 -0.0973201
0.0113091 -0.0987507
0.0120811 -0.100703
0.0125001 -0.102281
0.0100023 -0.231607
0.00986129 -0.228745
0.0159672 -0.220741
0.0165723 -0.215967
0.0165097 -0.218138
0.0146208 -0.206545
0.0155553 -0.208641
0.0160677 -0.211256
0.0165026 -0.213383
0.0205742 -0.354133
0.020656 -0.356798
0.018739 -0.3515
0.0192014 -0.342233
0.0202958 -0.347308
0.0185077 -0.349119
0.0177179 -0.34443
0.0183053 -0.346615
0.0127949 -0.335773
0.0143314 -0.337533
0.0157818 -0.339874
0.016835 -0.34185
0.00361339 -0.0350041
0.0027537 -0.022566
0.00612908 -0.115074
0.0078171 -0.0961412
0.00515678 -0.0940831
0.00791007 -0.229007
0.010361 -0.203819
0.00597324 -0.200904
0.0072098 -0.369091
0.0133301 -0.366699
0.0165722 -0.36193
0.00770932 -0.335271
0.0104076 -0.493195
0.0137747 -0.493203
0.000303772 -7.05326e-05
0.000268959 -4.90764e-05
0.00158146 -0.370635
0.00158303 -0.373901
0.00093001 -0.0217108
0.000972479 -0.036974
0.000981115 -0.0383327
0.00175315 -0.0926575
0.0020119 -0.119734
0.00202167 -0.121971
0.00151602 -0.19734
0.00151177 -0.200012
0.00238436 -0.235674
0.00239081 -0.238514
0.00240072 -0.333012
0.00750571 -0.031427
0.008175 -0.032387
0.00702717 -0.0343864
0.00596481 -0.034223
0.0061257 -0.0254455
0.007024 -0.0257079
0.00782851 -0.0276768
0.00722828 -0.0282749
0.0122534 -0.109682
0.0131721 -0.111043
0.0115411 -0.114048
0.00992103 -0.113974
0.015338 -0.222732
0.0160361 -0.224691
0.0128428 -0.228262
0.0110372 -0.22784
0.00700729 -0.0325374
0.00661153 -0.0333444
0.00657728 -0.0264083
0.00688936 -0.0272572
0.0115898 -0.111299
0.0108875 -0.112589
0.0140085 -0.22498
0.0128925 -0.226516
0.00500084 -0.0338656
0.00597314 -0.0323814
0.00647375 -0.0306532
0.00642964 -0.028792
0.00596243 -0.0270001
0.0042601 -0.0238157
0.00523715 -0.0253423
0.0082848 -0.113538
0.00998587 -0.111227
0.0110189 -0.108416
0.0112668 -0.105155
0.00959787 -0.0987999
0.0107643 -0.101831
0.00992213 -0.227001
0.012205 -0.224559
0.0139415 -0.22103
0.0146299 -0.216864
0.0129044 -0.208314
0.0142621 -0.212555
0.0170539 -0.355863
0.01674 -0.35081
0.0159249 -0.346235
0.0117108 -0.338313
0.0142916 -0.342061
0.00285698 -0.0345612
0.00216651 -0.0348438
0.00421467 -0.0336727
0.00365889 -0.0341137
0.00518255 -0.0324278
0.00479801 -0.0329938
0.00576606 -0.0309681
0.00556767 -0.0316264
0.00587026 -0.0292332
0.00586971 -0.0300384
0.00552131 -0.0275712
0.00570659 -0.028298
0.00487483 -0.0260335
0.00520847 -0.0267121
0.00402792 -0.0246516
0.00447111 -0.0252266
0.0029764 -0.0234803
0.00348198 -0.0239086
0.00153233 -0.0226706
0.00205072 -0.0229325
0.00485736 -0.114598
0.00369933 -0.115074
0.00698273 -0.113332
0.00600881 -0.114086
0.0087093 -0.111331
0.0079848 -0.112311
0.009837 -0.108896
0.00940339 -0.110041
0.0102808 -0.105976
0.0101653 -0.107371
0.00991422 -0.102838
0.0101881 -0.104238
0.00895928 -0.100099
0.00950119 -0.10125
0.00744782 -0.0976743
0.00821922 -0.0986472
0.00549227 -0.0957147
0.00642954 -0.0964439
0.00284087 -0.0944067
0.0038741 -0.0948532
0.00646908 -0.228944
0.00498465 -0.229558
0.00858021 -0.226869
0.00731217 -0.227845
0.0107176 -0.22469
0.00974979 -0.225962
0.0124293 -0.221662
0.0118234 -0.223151
0.0132559 -0.217858
0.0130496 -0.219668
0.0130127 -0.213869
0.0133159 -0.215683
0.0119153 -0.210242
0.012587 -0.211733
0.0100063 -0.206864
0.011 -0.208128
0.00716753 -0.203509
0.00840523 -0.204458
0.00299316 -0.202362
0.00439036 -0.20295
0.00523124 -0.366954
0.00358202 -0.367696
0.0100765 -0.364784
0.00866864 -0.365929
0.013817 -0.361929
0.0127431 -0.363404
0.0150425 -0.356816
0.0143763 -0.358527
0.0151717 -0.35231
0.0149558 -0.354145
0.0146334 -0.34787
0.0149397 -0.349924
0.0133165 -0.343988
0.0140535 -0.345677
0.0111567 -0.340564
0.0122748 -0.342
0.00821373 -0.337699
0.00963315 -0.33879
0.00412867 -0.335733
0.00575226 -0.336411
0.00525099 -0.333998
0.0101859 -0.336554
0.0132475 -0.340084
0.0153436 -0.344048
0.0165108 -0.348427
0.0169721 -0.353194
0.0171355 -0.358528
0.0160074 -0.365325
0.0106571 -0.368073
0.00376672 -0.370108
0.00321627 -0.200365
0.0087652 -0.201451
0.0119866 -0.206221
0.0138359 -0.210426
0.0146949 -0.21469
0.014568 -0.219037
0.0133148 -0.223022
0.011092 -0.226096
0.0087481 -0.227907
0.0070676 -0.230108
0.00355378 -0.0932485
0.00680225 -0.094937
0.00885892 -0.0973676
0.0103548 -0.10025
0.0111832 -0.103418
0.0113537 -0.10689
0.0106812 -0.109939
0.0092824 -0.112518
0.0072742 -0.114563
0.00497242 -0.115588
0.00185503 -0.022057
0.00371715 -0.0231051
0.00483537 -0.0245548
0.00565784 -0.0261474
0.00627666 -0.0278574
0.00658459 -0.0297233
0.006358 -0.0315817
0.00557432 -0.0331871
0.00440413 -0.0345551
0.00279815 -0.0354606
0.0147026 -0.22694
0.0125055 -0.112664
0.00748554 -0.0266686
0.00767051 -0.0335077
0.0109805 -0.229586
0.0173663 -0.222443
0.0105677 -0.115439
0.0138335 -0.109425
0.00817458 -0.0286907
0.00657211 -0.0247644
0.00636607 -0.0352787
0.00866648 -0.031275
0.00508624 -0.237383
0.00413648 -0.121026
0.00194419 -0.0373796
0.000590803 -0.000169825
0.0118529 -0.489453
0.0183168 -0.339664
0.0154084 -0.334993
0.0200901 -0.344812
0.0205013 -0.349809
0.0241717 -0.355072
0.0182969 -0.212084
0.0172562 -0.206871
0.0184471 -0.217242
0.00901687 -0.233632
0.0137992 -0.101156
0.0122426 -0.097275
0.0143312 -0.105436
0.00736619 -0.118111
0.0058264 -0.0228601
0.0045676 -0.0371889
0.0147137 -0.232553
0.0206664 -0.228036
0.0140267 -0.11562
0.0164664 -0.112975
0.00970191 -0.0272658
0.00857012 -0.0254376
0.00892468 -0.0360305
0.0103762 -0.0340242
0.0059638 -0.244969
0.00504323 -0.126317
0.00297449 -0.040216
0.011688 -0.33034
0.0244885 -0.363848
0.0241907 -0.372967
0.015176 -0.374958
0.0124204 -0.195977
0.0152799 -0.201326
0.00765867 -0.0909654
0.0101415 -0.0940131
0.00418751 -0.0207717
0.0259798 -0.347176
0.025398 -0.338893
0.0128285 -0.119248
0.0084057 -0.0233034
0.00713573 -0.0374455
0.0284584 -0.233388
0.0228225 -0.220771
0.0176039 -0.117707
0.0179963 -0.108529
0.0106425 -0.0298216
0.0112508 -0.0252756
0.0124041 -0.0371145
0.0111901 -0.0320489
0.00647609 -0.325885
0.00413838 -0.0878459
0.00183782 -0.0191032
0.0207558 -0.334476
0.0184181 -0.328621
0.03284 -0.351783
0.0334915 -0.342716
0.0233438 -0.2149
0.0232039 -0.20901
0.0220987 -0.202555
0.0180767 -0.103225
0.0168502 -0.0973124
0.0134772 -0.093927
0.0093908 -0.123198
0.00728957 -0.0200548
0.00648364 -0.0401514
0.019482 -0.195164
0.0120788 -0.0903537
0.0330949 -0.360876
0.0135754 -0.0315489
0.029446 -0.212482
0.0292947 -0.205466
0.0225848 -0.100404
0.0218899 -0.0942661
0.00765914 -0.31441
0.0060612 -0.193264
0.00693947 -0.18369
0.00624012 -0.132828
0.00523677 -0.0810333
0.00502608 -0.044395
0.00218133 -0.0156775
0.00214103 -0.0128045
0.00197984 -0.0103455
0.00181577 -0.00811008
0.00172625 -0.00614236
0.00154592 -0.00436423
0.00122591 -0.00284921
0.000871121 -0.00169264
0.000546244 -0.000802081
0.000286017 -0.000233949
0.00746214 -0.378944
0.00750684 -0.390693
0.00817019 -0.401183
0.00953784 -0.41106
0.0097696 -0.421749
0.00923475 -0.432367
0.00846899 -0.442649
0.00812471 -0.452832
0.00781013 -0.46314
0.00730573 -0.473264
0.00627823 -0.483178
0.000265811 -5.0806e-05
0.000479431 -0.000117632
0.00136263 -0.000553526
0.00223079 -0.00111884
0.00305893 -0.00197016
0.00387041 -0.00314509
0.00469052 -0.00459626
0.00575365 -0.00624038
0.00688946 -0.00815979
0.0077314 -0.0102407
0.00856363 -0.0126048
0.00936541 -0.0152709
0.0101031 -0.018322
0.010839 -0.0216035
0.014032 -0.0409391
0.0148441 -0.0452173
0.0155673 -0.0498762
0.0164874 -0.0547238
0.0172628 -0.0596783
0.0178377 -0.0647824
0.0182777 -0.0701455
0.018893 -0.0757196
0.0197581 -0.0821901
0.0210336 -0.0883039
0.0230564 -0.106662
0.0224517 -0.113515
0.0233918 -0.120788
0.0240152 -0.127767
0.0250682 -0.134817
0.0253802 -0.141915
0.025264 -0.149163
0.0256002 -0.157206
0.0260129 -0.165454
0.0270965 -0.17325
0.0277179 -0.181275
0.0277051 -0.189525
0.0282937 -0.197776
0.0290624 -0.224203
0.032165 -0.241051
0.0310133 -0.248667
0.0304811 -0.257953
0.0308283 -0.267346
0.0311507 -0.276447
0.0311885 -0.285636
0.0311556 -0.295173
0.0319283 -0.304453
0.0324381 -0.31419
0.0329401 -0.323901
0.0334469 -0.333501
0.0331963 -0.370267
0.0330638 -0.379919
0.0330385 -0.390142
0.0323443 -0.400541
0.0317969 -0.411264
0.0313138 -0.421673
0.0327341 -0.431509
0.034158 -0.441521
0.0342823 -0.451163
0.0342994 -0.461362
0.034356 -0.472028
0.0353485 -0.482372
0.0290908 -0.489231
0.019855 -0.488542
0.0197882 -0.236718
0.0140572 -0.321562
0.00936931 -0.0856964
0.00452783 -0.0177034
0.0163743 -0.124256
0.00966257 -0.0389986
0.0132567 -0.188805
0.0264282 -0.329885
0.0166939 -0.0916172
0.0137874 -0.0345882
0.0128446 -0.0285175
0.028262 -0.218058
0.00931411 -0.30428
0.00855795 -0.174529
0.00798337 -0.140526
0.00610453 -0.0748918
0.00543964 -0.0499326
0.00121136 -0.000524955
0.0144094 -0.480445
0.0112693 -0.12902
0.0241157 -0.382996
0.0155407 -0.386203
0.0122113 -0.239895
0.0251203 -0.242604
0.0233009 -0.319625
0.010002 -0.0428059
0.0206716 -0.185369
0.0152318 -0.0862215
0.016812 -0.310623
0.0143448 -0.179662
0.013451 -0.135998
0.0124367 -0.0796806
0.010311 -0.0473612
0.00448255 -0.0145677
0.00416119 -0.0118816
0.0038056 -0.00952494
0.00350815 -0.0074389
0.00357291 -0.00555634
0.0028225 -0.00367133
0.00214803 -0.00221476
0.00123269 -0.00119527
0.000830369 -0.000487624
0.0150341 -0.395314
0.0201571 -0.404222
0.0210919 -0.42854
0.0205255 -0.416427
0.0178798 -0.439023
0.0171142 -0.449112
0.0167448 -0.459357
0.0161394 -0.470045
0.00182276 -0.00120261
0.00502646 -0.00719233
0.00547016 -0.00887808
0.00605079 -0.0110427
0.00661184 -0.013562
0.0070767 -0.0165022
0.0109668 -0.0522908
0.0117752 -0.0571273
0.0122292 -0.0618618
0.0122991 -0.0669171
0.0125306 -0.0726434
0.0183699 -0.131599
0.0199321 -0.13766
0.0171261 -0.143832
0.0172865 -0.15292
0.0174729 -0.16163
0.0176997 -0.171187
0.021519 -0.178068
0.0213997 -0.252363
0.0219887 -0.263325
0.0228067 -0.272166
0.0224363 -0.280962
0.0216413 -0.290295
0.0211398 -0.301162
0.0251509 -0.30997
0.0235515 -0.393537
0.0263263 -0.437242
0.0257851 -0.445639
0.0256439 -0.455363
0.0255966 -0.465777
0.0249932 -0.4783
0.0180747 -0.244176
0.0125889 -0.249903
0.00600772 -0.0551105
0.00748021 -0.0593954
0.00648403 -0.063544
0.00620937 -0.0688984
0.00882773 -0.148709
0.00869997 -0.157513
0.00878166 -0.166141
0.0155047 -0.269028
0.0145737 -0.276512
0.0128363 -0.284912
0.0109626 -0.294185
0.00705393 -0.271963
0.00676707 -0.279889
0.0110978 -0.261283
0.00514101 -0.490865
0.0366508 -0.490531
0.000620836 -0.000227129
0.000101271 -8.82282e-06
0.00129299 -0.0356731
0.00313814 -0.117116
0.00398292 -0.232293
-0.0110474 -0.0412109
-0.0102653 -0.0380815
-0.00280169 -0.231042
0.00296987 -0.233618
0.0141115 -0.266618
0.0153651 -0.260145
0.012653 -0.0343776
0.0132167 -0.0373831
-0.0186813 -0.182782
-0.0162764 -0.188091
0.0016961 -0.437791
0.00598657 -0.4319
0.0277292 -0.422286
0.0243239 -0.415838
0.0310748 -0.157371
0.0270903 -0.160965
-0.0341931 -0.382446
-0.0359326 -0.375505
0.00370506 -0.00199832
0.00337898 -0.00211133
0.00600932 -0.168509
0.00783969 -0.173999
0.0149499 -0.162302
0.0205565 -0.16249
0.0388148 -0.454149
0.0320813 -0.456973
0.0170709 -0.238927
0.0178464 -0.245365
-0.0286409 -0.427081
-0.0357132 -0.428814
-0.0242876 -0.131362
-0.0221803 -0.126457
-0.0195483 -0.105688
-0.0166185 -0.101587
0.0127297 -0.262926
0.0148847 -0.256741
-0.0160483 -0.227594
-0.0196232 -0.222497
-0.00590296 -0.153718
-0.00101461 -0.151203
-0.00693634 -0.455854
-0.0141948 -0.45616
0.0301185 -0.343047
0.0231112 -0.343848
0.0251055 -0.217404
0.0274934 -0.211697
-0.00563332 -0.0188256
-0.00576646 -0.0211135
0.0030692 -0.0103574
0.00246397 -0.0118811
-0.0324463 -0.18425
-0.0281559 -0.188013
0.0167025 -0.0693023
0.0169213 -0.0733538
0.0183081 -0.0804688
0.0171837 -0.0844941
0.00320067 -0.0019164
0.00306889 -0.00226682
0.00820203 -0.261839
0.0147469 -0.261773
0.000193919 -0.134974
-0.00414253 -0.13212
0.000980436 -0.00140487
0.000408053 -0.0010528
0.00244541 -0.00254027
0.00281727 -0.00219128
-0.0302827 -0.165405
-0.0291032 -0.1598
-0.000644884 -0.000302611
-0.00141556 -0.000658105
-0.000502614 -0.0810525
-0.00111086 -0.0768416
0.00708434 -0.036969
0.00929458 -0.0393614
-0.0229927 -0.115429
-0.0180564 -0.114514
-0.0163624 -0.183086
-0.0128456 -0.178287
-0.00496531 -0.00585865
-0.00620292 -0.00702164
-0.00428389 -0.0813267
-0.0014385 -0.0845069
-0.0251075 -0.254961
-0.0289816 -0.260415
-0.00791997 -0.0171104
-0.00944823 -0.0161829
-0.00344216 -0.051653
2.48452e-05 -0.0514302
-0.00806787 -0.031252
-0.0107546 -0.0326815
-0.019878 -0.441064
-0.0255113 -0.436489
0.020819 -0.287732
0.0159604 -0.292344
-0.0306697 -0.273488
-0.0332802 -0.267481
-0.0106797 -0.125194
-0.0148511 -0.122558
0.0218836 -0.106433
0.020705 -0.111062
0.00703195 -0.0381705
0.00405118 -0.0375487
0.00809694 -0.118319
0.0127626 -0.120233
0.000668153 -0.000301042
0.000336843 -6.25346e-05
0.0249517 -0.318611
0.0182352 -0.316885
0.0275852 -0.348704
0.0268179 -0.341577
0.0148887 -0.409788
0.0122613 -0.403018
-0.00746252 -0.417673
-0.00510019 -0.424552
-0.00225146 -0.00690629
-0.00351143 -0.00676387
-0.0055816 -0.0560611
-0.0019839 -0.0561699
0.00427746 -0.00735817
0.00570064 -0.00831682
0.000690401 -0.278912
0.00637172 -0.282456
0.016874 -0.447137
0.0104936 -0.450635
-0.00359103 -0.00213581
-0.00366773 -0.00256688
-0.00322542 -0.00830304
-0.00175992 -0.00805633
-0.0409492 -0.396115
-0.0347829 -0.399765
-0.0170964 -0.249295
-0.017932 -0.242885
0.0156023 -0.342388
0.0129557 -0.335792
0.0242764 -0.469326
0.021971 -0.462368
0.0138229 -0.127437
0.0142228 -0.122357
-0.00407654 -0.249233
-0.000836559 -0.254879
-0.00836283 -0.0163447
-0.00771691 -0.0143251
-0.0168982 -0.0775326
-0.0209136 -0.0768326
-0.0329177 -0.332627
-0.0268524 -0.328911
0.0231776 -0.402945
0.0248883 -0.410008
-0.0089999 -0.0550575
-0.00731271 -0.0517611
0.0075453 -0.0121103
0.00636794 -0.0104669
-0.0120328 -0.0377846
-0.0139542 -0.0405808
0.000115803 -0.000898836
0.000299989 -0.00151097
0.00386399 -0.0120017
0.00493385 -0.0137087
-0.0397837 -0.464948
-0.0327361 -0.462958
-0.02219 -0.288612
-0.0154842 -0.289079
-0.0015277 -0.411317
0.00508266 -0.414199
-0.017025 -0.269094
-0.0230818 -0.271949
-0.0168447 -0.0654023
-0.0136511 -0.0672485
-0.00314188 -0.022471
-0.00400736 -0.0249504
-0.00888647 -0.0921417
-0.0118466 -0.0889274
0.0270541 -0.131333
0.0218827 -0.131515
-0.0225296 -0.126314
-0.0195054 -0.130226
-0.0155219 -0.373677
-0.0100988 -0.369011
0.0018629 -0.00429915
0.00233073 -0.0054735
0.0258993 -0.47461
0.0292852 -0.468105
0.0180459 -0.238482
0.0198414 -0.232382
0.00827883 -0.404066
0.00123662 -0.405498
0.0262866 -0.220855
0.0251765 -0.22707
-0.0187323 -0.132087
-0.0239063 -0.133158
0.00999716 -0.403388
0.00600952 -0.39735
-0.000442912 -0.000142231
-0.000125629 3.59701e-06
-0.00864375 -0.322048
-0.00270285 -0.325548
0.0101139 -0.0321526
0.00812476 -0.0298202
0.00668683 -0.0144275
0.00742698 -0.0129618
0.00720963 -0.0108349
0.00589599 -0.00937037
-0.0166378 -0.0625771
-0.02035 -0.0642596
-0.0204431 -0.148838
-0.0207705 -0.14345
0.00445483 -0.392933
0.00960366 -0.38794
-0.0112838 -0.0594978
-0.00757349 -0.0593009
-0.00853669 -0.0387443
-0.0110428 -0.0374166
-0.00399074 -0.483217
0.00171923 -0.478675
-0.000257209 -0.426937
-0.00677803 -0.430109
-0.0209623 -0.0862396
-0.0204027 -0.0818732
-0.0285322 -0.354259
-0.0356497 -0.354287
-0.000365329 -0.334548
-0.00126195 -0.32764
-0.000121675 -0.176876
-0.00336194 -0.181742
-0.0125105 -0.188522
-0.0174896 -0.185494
-0.00978876 -0.0481837
-0.00944776 -0.0515866
0.019503 -0.393863
0.0207419 -0.386762
-0.0142507 -0.0680496
-0.0174116 -0.0709026
0.0175819 -0.0593549
0.0145282 -0.0568002
-0.00132458 -0.0128417
-0.00312408 -0.0128832
-0.0195691 -0.0626076
-0.0222748 -0.0604844
-0.00582732 -0.245332
-0.00491751 -0.238929
0.0124191 -0.329755
0.0106719 -0.322995
-0.00158974 -0.0686482
-0.00110347 -0.0647151
0.000304404 -0.00241827
0.00111314 -0.00273615
0.031281 -0.428629
0.0240279 -0.428313
-0.0240026 -0.275441
-0.0181191 -0.278424
-0.0109887 -0.275624
-0.0176291 -0.275998
-0.00678174 -0.0736409
-0.00346383 -0.0711904
-0.026337 -0.325443
-0.0194357 -0.326293
0.00541752 -0.0128613
0.00679702 -0.0145131
-0.00573436 -0.00848857
-0.00533136 -0.00706043
0.00292946 -0.0126376
0.00463927 -0.0136257
0.0117678 -0.434285
0.0129153 -0.441506
-0.0112219 -0.333393
-0.00911415 -0.340108
-0.0185422 -0.268284
-0.0168478 -0.274693
0.0334739 -0.472942
0.0278563 -0.468249
0.0196321 -0.152868
0.0249875 -0.15201
0.0190515 -0.334086
0.0192964 -0.341167
-0.0151217 -0.236698
-0.0100642 -0.232738
-0.0371221 -0.461396
-0.0442485 -0.463112
0.000998798 -0.422258
0.00607706 -0.41708
-4.20099e-05 1.83319e-05
-0.000215271 -6.86828e-05
-0.00123907 -0.0474366
0.00192056 -0.048618
0.00135409 -0.000566259
0.000516174 -0.000185767
0.0175688 -0.0966587
0.0222103 -0.0976708
-0.00930798 -0.238404
-0.011753 -0.232545
-0.0222811 -0.0808423
-0.0188446 -0.0778479
0.0204563 -0.457151
0.0262623 -0.461582
0.0171748 -0.121737
0.0127442 -0.119102
-0.0108469 -0.0365511
-0.0136848 -0.0361087
-0.00365053 -0.043475
-0.00684896 -0.0433669
-0.0202098 -0.101687
-0.0175742 -0.105453
-0.00448709 -0.0351193
-0.00659658 -0.0373941
0.0120625 -0.208927
0.0182644 -0.209619
0.00618837 -0.0716789
0.00863548 -0.0750891
0.00237566 -0.0686005
0.00526972 -0.0714476
0.000359942 -0.0424676
0.00314305 -0.0410036
-0.0224251 -0.11242
-0.0266315 -0.110344
-0.0194796 -0.0883955
-0.0159566 -0.0907926
0.0141354 -0.393369
0.0213091 -0.393633
-0.0114007 -0.484158
-0.0185654 -0.485444
0.00400937 -0.24852
0.0102056 -0.246832
0.00101752 -0.00512989
-3.14685e-07 -0.00569796
0.000934039 -0.277446
-0.00117954 -0.283838
0.0244863 -0.44257
0.0317503 -0.443048
0.0125963 -0.29196
0.0146782 -0.285537
0.0285034 -0.48137
0.0249209 -0.474976
0.0152339 -0.373032
0.00876118 -0.375962
-0.0326655 -0.226407
-0.0348631 -0.220589
-0.01433 -0.0852718
-0.0111007 -0.0821196
-0.00439073 -0.02149
-0.00216592 -0.0221116
-0.0133375 -0.210246
-0.0123185 -0.204047
-0.0380439 -0.454354
-0.0417372 -0.460703
-0.0171278 -0.0878204
-0.0127015 -0.0878937
-0.00286157 -0.287848
0.00346866 -0.290113
-0.00568964 -0.00503599
-0.00445585 -0.00413855
0.0165229 -0.145555
0.0140304 -0.150276
0.000246665 -2.8889e-05
0.000521465 -0.000134158
-0.00942581 -0.0679806
-0.00550971 -0.0680769
-0.0289473 -0.343394
-0.031834 -0.350012
-0.0207879 -0.209388
-0.0146007 -0.208569
0.0302173 -0.246944
0.0248124 -0.243165
-0.00254719 -0.00201203
-0.00176595 -0.00167499
0.00160828 -0.00240016
0.00082955 -0.00235499
0.0161948 -0.0373122
0.0165226 -0.0345042
0.0137305 -0.460236
0.0160427 -0.467189
-0.0165103 -0.184722
-0.0216998 -0.182197
0.021575 -0.257546
0.0262953 -0.262274
-0.00890013 -0.094176
-0.0135157 -0.0946033
0.0120516 -0.226148
0.00687274 -0.229631
0.0013924 -0.44773
-0.00358128 -0.442412
-0.0163552 -0.184768
-0.0191175 -0.179698
-0.0205552 -0.430258
-0.014527 -0.434273
0.0102378 -0.0287923
0.0121221 -0.0272703
0.00923593 -0.261658
0.00396857 -0.265554
0.0213441 -0.0698127
0.0178234 -0.0712609
0.0170515 -0.113379
0.0219857 -0.113945
0.00657103 -0.0329793
0.00898608 -0.0318739
0.0286836 -0.468927
0.0266944 -0.46187
-0.0155515 -0.0573299
-0.0137726 -0.0539128
0.0054221 -0.145323
0.0106505 -0.144283
0.00402816 -0.00401543
0.00296004 -0.0037016
-0.00881492 -0.149538
-0.00614121 -0.15428
-0.0340256 -0.248808
-0.0377134 -0.243686
0.0165199 -0.0479036
0.0157303 -0.0445481
-0.0282141 -0.311426
-0.0347341 -0.309405
-0.0318994 -0.198753
-0.036355 -0.203318
-0.0163895 -0.117166
-0.0161041 -0.122162
0.0100494 -0.398438
0.00970129 -0.39121
-0.00506774 -0.123108
-0.00703489 -0.127884
0.024164 -0.214371
0.0277409 -0.219731
0.00644942 -0.0166715
0.00671807 -0.0147641
-0.0243683 -0.221939
-0.0234219 -0.228182
-0.0238278 -0.146703
-0.0185468 -0.147535
0.0100942 -0.138083
0.0134668 -0.142347
0.0145954 -0.0332589
0.0166001 -0.0358946
-0.0245478 -0.159359
-0.0244135 -0.153793
-0.0165158 -0.273743
-0.0138329 -0.267591
0.0128383 -0.362596
0.00630734 -0.365308
0.0127231 -0.0313327
0.010523 -0.0291187
0.0120774 -0.339421
0.00545584 -0.337277
0.0116012 -0.470275
0.0110555 -0.462959
-0.0188717 -0.303666
-0.0230072 -0.298313
-0.0275054 -0.426867
-0.0345547 -0.42521
-0.0164114 -0.443584
-0.0229876 -0.44052
0.00604845 -0.026575
0.00356225 -0.0250552
-0.0101474 -0.231884
-0.0134301 -0.226552
-0.00557912 -0.197301
-0.00866483 -0.192183
-0.00498573 -0.176022
-0.0107273 -0.176484
-0.0245869 -0.241067
-0.0185669 -0.238638
-0.0142267 -0.329651
-0.0172768 -0.323404
0.00187632 -0.050134
0.00528775 -0.0507026
0.000730466 -0.188218
0.00649519 -0.189282
-0.00105006 -0.0030104
-0.00115325 -0.00402568
-0.0088496 -0.114495
-0.00896348 -0.109601
-0.00359873 -0.39319
-0.0101161 -0.396214
-0.0296718 -0.236267
-0.0238687 -0.238717
-0.011725 -0.106384
-0.0154689 -0.109735
-0.00796246 -0.174707
-0.0113238 -0.179524
0.0227859 -0.413934
0.0208413 -0.420933
0.000988703 -0.0563562
0.00426824 -0.0580346
-0.000925607 -0.00123415
-0.00136655 -0.00114876
0.0223091 -0.49398
0.0292014 -0.491513
-0.00830151 -0.0148743
-0.00968649 -0.014064
0.008758 -0.0313241
0.00635722 -0.032419
0.00814249 -0.0229531
0.00601953 -0.0213066
-0.00719255 -0.082808
-0.0104528 -0.080219
-0.0328632 -0.290952
-0.0328063 -0.297757
-0.028812 -0.406567
-0.0219532 -0.404248
0.012186 -0.0252224
0.0111054 -0.0226741
-0.00408508 -0.00292063
-0.00356705 -0.00220753
0.00209773 -0.00207209
0.00292714 -0.00281445
0.00712706 -0.267299
0.00267021 -0.262403
-0.00585899 -0.0452267
-0.00260211 -0.0447752
-0.000726291 -0.249549
0.00555086 -0.248119
-0.00116068 -0.0880714
-0.00315594 -0.0920364
0.00790727 -0.0766865
0.00494888 -0.0795431
0.00425091 -0.0216527
0.00258717 -0.0232904
-0.018544 -0.414363
-0.022483 -0.408312
-0.00329007 -0.058968
-0.00694296 -0.0597435
0.0314311 -0.302704
0.0362857 -0.307717
0.0246741 -0.262827
0.030205 -0.259465
0.0033338 -0.0148089
0.00164275 -0.015661
-0.0349485 -0.225552
-0.0335158 -0.231672
0.00418116 -0.00256125
0.0036885 -0.00268563
-0.0059835 -0.0108557
-0.00662653 -0.0126344
0.00283811 -0.300742
0.00283114 -0.307622
-0.0139248 -0.038553
-0.0152465 -0.0416319
-0.00636042 -0.320894
-0.00702023 -0.327839
0.0028105 -0.176816
-0.00121042 -0.172675
0.0139932 -0.191763
0.0199586 -0.191973
-0.0155263 -0.0539679
-0.0120331 -0.0527284
0.00455449 -0.0154441
0.00310599 -0.0139155
-0.0111961 -0.145568
-0.0117767 -0.140234
-0.00188238 -0.437292
-0.00909762 -0.43797
-0.00883421 -0.463948
-0.0159473 -0.462454
-0.0314703 -0.320592
-0.0353553 -0.314968
-0.0239553 -0.197052
-0.0196247 -0.201107
-0.00168686 -0.325906
0.00213642 -0.320118
-0.00144241 -0.0455386
-0.00377131 -0.0433127
0.0318993 -0.354349
0.0386239 -0.352098
0.000834752 -0.126827
0.00497603 -0.129906
0.000258434 -0.0640812
0.00387513 -0.0629482
9.15243e-05 -0.00720678
-0.0012709 -0.00746103
0.00551271 -0.0220395
0.00314827 -0.021438
-0.0192715 -0.0785297
-0.0204017 -0.0747056
0.0123895 -0.0662659
0.0149785 -0.0695387
-0.0206389 -0.135826
-0.0162228 -0.138409
-0.00451749 -0.248782
0.00167055 -0.250589
0.0224148 -0.350422
0.0163203 -0.354084
0.00237202 -0.00952631
0.00119741 -0.0105213
0.0160112 -0.0477962
0.0191711 -0.0471623
-0.00657669 -0.129201
-0.0112465 -0.131554
-0.00771487 -0.0123406
-0.0090285 -0.0117319
0.0153406 -0.419476
0.0215269 -0.415744
-0.0228061 -0.134759
-0.0186152 -0.137624
-0.0182539 -0.475508
-0.019035 -0.468212
-0.00020544 -0.12427
0.00382489 -0.121253
-0.00959189 -0.162135
-0.0148123 -0.16033
0.00479829 -0.0797875
0.00862808 -0.0782419
-0.0371184 -0.472253
-0.0343159 -0.479023
-0.0373437 -0.288591
-0.0401536 -0.294899
-0.00788763 -0.364991
-0.0149236 -0.365055
-0.0202398 -0.0645587
-0.0164591 -0.0648866
0.0254736 -0.0975962
0.0278591 -0.102007
0.0131337 -0.409671
0.0181893 -0.404527
0.0200285 -0.103717
0.0247285 -0.103301
-0.0044815 -0.0768092
-0.00857556 -0.0776213
0.00813369 -0.0857291
0.0124926 -0.0858364
-0.0289924 -0.186391
-0.0338265 -0.190258
-0.00283827 -0.00370866
-0.00286716 -0.00291466
-0.0101507 -0.442631
-0.0105183 -0.435328
-0.010606 -0.0285111
-0.00787691 -0.0279475
-0.0352969 -0.288193
-0.0309295 -0.28287
-0.00445885 -0.271264
-0.00647099 -0.264944
-0.0103909 -0.0160581
-0.00828051 -0.0152451
0.00823201 -0.160063
0.00770293 -0.165687
0.00835111 -0.0464203
0.00933713 -0.0433815
0.015868 -0.039836
0.0130604 -0.0407098
-0.000225041 -0.00187863
-0.00084058 -0.00169117
0.0256616 -0.373005
0.0304365 -0.367711
-0.00976282 -0.0351217
-0.00685487 -0.0348973
0.030015 -0.330244
0.0318691 -0.337096
-0.00364476 -0.00234022
-0.00426409 -0.00312842
0.00215737 -0.00687007
0.00241834 -0.00833319
0.019278 -0.264252
0.0195226 -0.257663
0.00357995 -0.365812
0.0106221 -0.366228
0.0187118 -0.0880016
0.0219871 -0.0914809
0.0222882 -0.13679
0.0274494 -0.136108
0.0113972 -0.460969
0.0152581 -0.454753
0.00892234 -0.133972
0.0141281 -0.134052
0.00192885 -0.00146037
0.00150095 -0.00162028
-0.00541611 -0.0112222
-0.00455973 -0.0125155
-0.0019087 -0.00939206
-0.00346237 -0.00946147
-0.00612752 -0.472496
-0.00301852 -0.465856
-0.000932882 -0.000993462
-0.00138656 -0.00162901
-0.00937051 -0.111768
-0.0141785 -0.112442
-0.0199131 -0.305346
-0.0245367 -0.300406
-0.00633802 -0.0747542
-0.00664296 -0.0789574
0.0355904 -0.335456
0.0289792 -0.332866
0.0360477 -0.223485
0.0365391 -0.217205
0.0122986 -0.0674825
0.00982488 -0.0703903
-0.0107238 -0.0275168
-0.00813855 -0.0262257
0.0171367 -0.317435
0.0167464 -0.310517
0.00455348 -0.00271729
0.00359242 -0.00195243
0.0188621 -0.221881
0.0125875 -0.221636
-0.0214024 -0.361839
-0.0285098 -0.362448
0.0169675 -0.108701
0.0150376 -0.113075
-0.0152069 -0.187546
-0.0104553 -0.190983
0.00893446 -0.400398
0.0159142 -0.398729
-0.0142466 -0.0256978
-0.0116442 -0.0254918
0.012323 -0.163299
0.0177035 -0.161944
0.0194147 -0.0863757
0.0153952 -0.0841787
-0.0297755 -0.298703
-0.0241143 -0.294753
0.000907014 -0.376682
-0.0032722 -0.382497
-0.0113171 -0.103691
-0.00813565 -0.099784
0.0127426 -0.204078
0.0187192 -0.202927
0.00429879 -0.00292016
0.00475311 -0.00377174
-0.0185884 -0.171561
-0.0229207 -0.175606
-0.00999281 -0.0140007
-0.0117018 -0.0157461
-0.0260044 -0.298436
-0.0192364 -0.297643
0.0296873 -0.28196
0.0288958 -0.275266
0.00850148 -0.0729857
0.00529944 -0.0703673
0.023957 -0.473945
0.0278912 -0.480125
0.0142743 -0.0613766
0.0155476 -0.0580464
-0.0210899 -0.249379
-0.02757 -0.249792
0.00866947 -0.174605
0.0032174 -0.172785
-0.0168681 -0.233571
-0.0143579 -0.239389
-0.00653691 -0.273082
-0.00705688 -0.279776
0.0227916 -0.416976
0.0226268 -0.409706
-0.000103209 -0.127676
0.00363934 -0.131252
-0.00715719 -0.458098
-0.0136319 -0.454793
0.0166291 -0.306391
0.0221121 -0.310607
-0.0158761 -0.0354264
-0.0137355 -0.0369961
-0.000665484 -0.398805
-0.00779988 -0.399545
0.0052449 -0.00506456
0.00477521 -0.00577853
-0.0212864 -0.320194
-0.0230855 -0.313529
0.00185087 -0.00295913
0.00216107 -0.00396433
0.0155347 -0.0456342
0.0187292 -0.0452912
0.000392556 -0.322107
0.00277624 -0.328647
0.0126032 -0.029142
0.0123494 -0.0264234
0.00898241 -0.422612
0.0161842 -0.422022
-0.00712307 -0.0177451
-0.00934069 -0.0181481
0.00839262 -0.0283404
0.00772469 -0.03095
-0.0151637 -0.0542288
-0.0161106 -0.0578692
0.00742124 -0.140515
0.00634927 -0.145777
0.0301728 -0.48659
0.0302164 -0.493948
0.00327048 -0.0368076
0.00363997 -0.0338664
-0.00166383 -0.387223
0.0031459 -0.38191
0.0353806 -0.257735
0.0330172 -0.251519
0.0218015 -0.49226
0.0290018 -0.49354
0.00104125 -0.000399001
0.00127067 -0.000507713
-0.00389228 -0.0369813
-0.00207348 -0.039393
-0.0138221 -0.239864
-0.00768266 -0.238069
-0.00297852 -0.00648207
-0.00433226 -0.00682645
-0.00547368 -0.467992
0.000197649 -0.463395
-0.0310783 -0.463161
-0.0245627 -0.45984
-0.00696713 -0.00826846
-0.00764776 -0.00754257
-0.00820352 -0.12856
-0.0104741 -0.124048
0.00757472 -0.0260347
0.00668235 -0.028506
-0.0118277 -0.323658
-0.00859086 -0.317497
-0.0220927 -0.0711843
-0.0200143 -0.0674475
-0.0152401 -0.11828
-0.0150514 -0.12331
-0.00769539 -0.0365746
-0.00489196 -0.0354402
-0.00594427 -0.014531
-0.00423188 -0.0151544
0.00122222 -0.453501
0.00765211 -0.450093
0.0119036 -0.152325
0.0103891 -0.157616
-0.0175554 -0.243879
-0.0237706 -0.242466
-0.028269 -0.447329
-0.0212477 -0.445377
0.00417685 -0.00419113
0.00340482 -0.00318341
-0.00600038 -0.185181
-0.0118342 -0.184857
0.0108426 -0.484884
0.00360019 -0.484348
0.0183541 -0.139035
0.0214247 -0.143622
-0.00294175 -0.0118891
-0.00121377 -0.0119091
-0.0122273 -0.36344
-0.0192891 -0.363084
0.00680365 -0.01418
0.00493872 -0.0142997
0.00273591 -0.00187058
0.00312452 -0.00259571
0.0166098 -0.405332
0.022237 -0.400849
0.00571278 -0.0458162
0.00823488 -0.0439333
0.0286523 -0.424753
0.0347406 -0.428771
0.0160884 -0.305523
0.0228169 -0.306833
0.0208407 -0.455101
0.020066 -0.462391
1.59278e-05 7.44065e-06
-1.12992e-05 1.0595e-05
-0.0112422 -0.0604422
-0.010303 -0.0567481
-0.00397048 -0.284106
-0.00695052 -0.2902
0.00349709 -0.117799
0.00776918 -0.115421
0.00441219 -0.0035961
0.00563756 -0.00435619
0.0399022 -0.446337
0.0370491 -0.439591
0.00135351 -0.0040371
0.00242201 -0.00446052
-0.0118601 -0.0397737
-0.0140587 -0.0380596
-0.0324099 -0.424947
-0.029454 -0.418262
0.00612925 -0.0873374
0.0027056 -0.0846256
0.000681902 -0.00087544
0.000222694 -0.00092174
-0.00118201 -0.0528611
0.00206948 -0.054272
0.0239954 -0.438924
0.0304612 -0.435612
-0.018016 -0.166626
-0.0235976 -0.168005
-0.0349822 -0.297191
-0.0369759 -0.303815
-0.0378878 -0.279874
-0.0312363 -0.280484
0.0160202 -0.145105
0.0206651 -0.142685
-0.00454098 -0.0906039
-0.00864943 -0.0890651
0.0181 -0.0476816
0.017835 -0.0443671
-0.00248297 -0.0235906
-0.00171547 -0.0213177
0.00297754 -0.00143274
0.00287497 -0.00155566
0.00569704 -0.0813464
0.00992036 -0.0812132
-0.0218437 -0.0791377
-0.0178277 -0.077231
0.0250385 -0.47495
0.0255163 -0.482277
0.0303458 -0.143498
0.0250433 -0.142093
0.0227757 -0.221578
0.0237965 -0.215362
0.017303 -0.0646746
0.0196193 -0.0619944
-0.0185988 -0.371843
-0.01601 -0.365136
-0.0115406 -0.0159948
-0.0105182 -0.0172854
-0.00938365 -0.0484615
-0.0081394 -0.051564
0.0215193 -0.136075
0.0213752 -0.130829
0.0150574 -0.0376256
0.0140916 -0.034624
-0.016879 -0.0416524
-0.0168511 -0.0448116
-0.00710164 -0.0305388
-0.00656778 -0.0332215
-0.0359861 -0.496153
-0.0426132 -0.492966
0.026651 -0.265717
0.0332272 -0.265318
0.022192 -0.407939
0.0158673 -0.404421
0.00564181 -0.444944
-0.00118329 -0.44743
-0.0351008 -0.474375
-0.0376338 -0.481271
-0.0265758 -0.249755
-0.0291844 -0.255854
0.00657702 -0.0529336
0.00971143 -0.0516243
-0.011455 -0.140354
-0.0155953 -0.143939
-0.0216141 -0.439643
-0.0167284 -0.43421
-0.000844638 -0.138018
-0.000749818 -0.143382
0.0227771 -0.137444
0.0207556 -0.142225
0.0123242 -0.0901105
0.00802536 -0.0911798
0.00765761 -0.0332724
0.00855594 -0.0361878
0.00138699 -0.0637239
0.00486579 -0.0622846
-0.00868644 -0.423421
-0.00410856 -0.417769
0.02424 -0.258131
0.0203486 -0.263323
1.03169e-05 -0.00147259
0.000218748 -0.000911066
0.0149427 -0.255162
0.00894132 -0.257602
0.0162233 -0.183474
0.0170527 -0.189375
0.00812184 -0.0191905
0.0078764 -0.0170162
-0.000976635 -0.000396154
-0.0004286 -0.000104574
0.00129861 -0.151795
-0.00411222 -0.152504
0.0364078 -0.30123
0.0301924 -0.298192
0.00723782 -0.0523627
0.00440278 -0.0543197
-0.0031154 -0.317402
-0.00318689 -0.324367
-0.0183197 -0.476025
-0.0135489 -0.481561
-0.00169428 -0.0449804
0.00131244 -0.043727
0.0132818 -0.0342892
0.0162112 -0.0343851
-0.013412 -0.0293738
-0.0114556 -0.0308773
0.0223068 -0.152956
0.018248 -0.149023
0.0118674 -0.436108
0.00991375 -0.429071
0.0356833 -0.262814
0.0316433 -0.257435
0.0220402 -0.149798
0.0245465 -0.14516
0.0138636 -0.0331761
0.0126182 -0.0303577
0.0194869 -0.120294
0.0234069 -0.117511
0.000138366 -0.0131629
-0.00109601 -0.0146454
-0.018541 -0.167556
-0.0128924 -0.166882
3.07591e-05 -0.245636
-0.00447949 -0.241068
-0.00606426 -0.0234083
-0.00495591 -0.0210692
-0.000207782 -5.28252e-05
-6.21046e-05 -3.94395e-06
-0.0335122 -0.244827
-0.0294328 -0.249667
-0.0152925 -0.0732169
-0.0117807 -0.0708176
0.0115029 -0.370711
0.0154949 -0.376687
-0.00666027 -0.124752
-0.00826684 -0.129697
0.000180288 -0.0463337
-0.00252513 -0.0444856
0.0209945 -0.0530757
0.0211479 -0.0566409
0.0175233 -0.0437909
0.0173741 -0.0470059
0.0110674 -0.270232
0.00532106 -0.27348
0.00563457 -0.00740247
0.00706239 -0.00763775
0.0224331 -0.131028
0.0172884 -0.13134
-0.012895 -0.0274601
-0.0118134 -0.0247949
-0.00816251 -0.151383
-0.00942981 -0.146099
-0.00659362 -0.0135316
-0.0079533 -0.0153126
-0.0185825 -0.262349
-0.0222955 -0.267932
0.0036622 -0.0430061
0.00052023 -0.0423565
0.0285599 -0.337693
0.0215785 -0.33665
0.0061234 -0.0869308
0.00519274 -0.0912703
0.00170181 -0.253004
-0.00263175 -0.248171
-0.00841882 -0.0426034
-0.00760385 -0.0456898
-0.0255706 -0.217827
-0.0193559 -0.218328
0.0138433 -0.312572
0.0120264 -0.319249
0.0138831 -0.333391
0.00697616 -0.332705
-0.0212653 -0.377824
-0.0141951 -0.376834
-0.0069663 -0.0175849
-0.00776341 -0.0159078
0.00276368 -0.00151996
0.00370409 -0.00201986
0.0015747 -0.149206
0.000338124 -0.143902
0.0160054 -0.127021
0.0144151 -0.122068
-0.00277846 -0.00413483
-0.00245864 -0.00502978
0.0294758 -0.40772
0.034486 -0.413009
-0.0073684 -0.278602
-0.0134391 -0.275946
-0.037342 -0.464968
-0.0316715 -0.46957
-0.0252369 -0.186441
-0.0212204 -0.181891
-0.00268569 -0.00232247
-0.00365755 -0.00284831
-0.00830964 -0.135432
-0.00309669 -0.135589
0.00140367 -0.00104875
0.00122791 -0.00139887
0.000582886 -0.4346
-0.00222865 -0.427875
0.0350582 -0.353625
0.0368839 -0.36061
0.0156733 -0.0471374
0.0182522 -0.0498739
-0.00452141 -0.0151391
-0.00599022 -0.0168436
0.0198815 -0.348741
0.015542 -0.354423
-0.00315995 -0.443134
0.00324264 -0.446559
-0.0145352 -0.370993
-0.0187253 -0.376846
-0.0103161 -0.363826
-0.01236 -0.370681
-0.0351509 -0.307779
-0.0409876 -0.304388
0.0162401 -0.223221
0.022475 -0.224323
-0.0169791 -0.225722
-0.0192016 -0.231754
0.0219969 -0.235802
0.0239133 -0.229769
-0.0134874 -0.180188
-0.00972812 -0.175646
-0.0132461 -0.176333
-0.00915442 -0.172152
0.00587321 -0.0227155
0.00497179 -0.0203836
-0.0187334 -0.146261
-0.023953 -0.148098
-0.00892565 -0.300241
-0.00289514 -0.297084
0.0111461 -0.0659716
0.00802238 -0.0634408
0.0284075 -0.412016
0.0348436 -0.415407
0.000783229 -0.00213144
0.000496521 -0.00288484
-0.00240588 -0.011518
-0.00275537 -0.0133611
-0.0250937 -0.0986401
-0.0206693 -0.0965002
-0.0193539 -0.100095
-0.023148 -0.103414
0.0107282 -0.0280084
0.013378 -0.0279622
0.0312911 -0.280113
0.0245961 -0.280058
0.0270886 -0.129196
0.0274621 -0.124128
-0.0108598 -0.369397
-0.00562584 -0.374164
-0.0117533 -0.444359
-0.0153303 -0.43801
0.01818 -0.250243
0.0187813 -0.243789
-0.00546753 -0.0456865
-0.00509379 -0.049039
-0.000430693 -0.127249
-0.00551284 -0.12701
0.0152023 -0.426029
0.01859 -0.43249
-0.0194396 -0.23886
-0.0149056 -0.234212
0.00339531 -0.115314
0.00746172 -0.112683
-0.00276036 -0.00146815
-0.00195945 -0.000952602
0.000207133 -0.295536
-0.00586344 -0.29857
0.00699646 -0.267857
0.00748775 -0.274518
-0.00332374 -0.0730068
-0.000447998 -0.0759042
0.0126408 -0.279265
0.00806843 -0.284126
0.0237246 -0.422861
0.0247798 -0.430083
0.0248386 -0.157881
0.0283072 -0.153823
0.0356891 -0.345823
0.0335698 -0.352613
0.00567838 -0.249899
0.00511283 -0.256419
0.0163534 -0.250662
0.00989277 -0.250878
0.0205031 -0.270963
0.0231074 -0.264926
-0.0140928 -0.0873621
-0.0160179 -0.0836103
0.0108872 -0.267251
0.00963032 -0.26073
0.00210305 -0.0866862
0.00453905 -0.0831158
0.0417494 -0.387215
0.0369871 -0.392563
-0.00214677 -0.0848121
-0.00639892 -0.0854281
0.0144553 -0.233559
0.0188756 -0.238302
0.00986479 -0.0190835
0.00835146 -0.0203665
0.0216208 -0.161076
0.0178285 -0.16504
-0.0244232 -0.11155
-0.0196091 -0.112068
-0.0258989 -0.3671
-0.0317249 -0.371365
0.0246305 -0.429166
0.0238372 -0.421913
-0.0198831 -0.176679
-0.0143412 -0.174811
0.0233792 -0.184115
0.0286975 -0.187029
0.0230095 -0.129
0.018466 -0.126225
0.0115554 -0.404899
0.00844862 -0.398351
-0.0232746 -0.407933
-0.0174749 -0.403571
0.0235145 -0.167208
0.0263383 -0.172372
-0.0405952 -0.36096
-0.0363293 -0.355091
-0.017773 -0.178383
-0.0156349 -0.18376
-0.00574185 -0.0391562
-0.0082657 -0.0377344
0.0254728 -0.188739
0.0314334 -0.189413
0.0267793 -0.346406
0.0318764 -0.341567
-0.0114845 -0.0588898
-0.00802413 -0.0599174
0.00230928 -0.0101828
0.00112043 -0.0112542
0.00895592 -0.0230847
0.00788442 -0.0251525
-0.00219528 -0.00209267
-0.0027066 -0.00294555
0.00249631 -0.0182717
0.0035838 -0.0165331
-0.000459562 -0.00727396
-0.00154234 -0.00832259
0.00177993 -0.00200569
0.00132162 -0.00129673
-0.0219238 -0.117208
-0.019785 -0.112538
-0.00473999 -0.00711979
-0.00354525 -0.00740472
-0.00702135 -0.313371
-0.00811601 -0.320232
-0.0177204 -0.100179
-0.0180643 -0.105022
0.00979561 -0.0126325
0.0113698 -0.014354
-0.0112254 -0.319564
-0.0170634 -0.315937
0.00317676 -0.00281592
0.00235699 -0.00273704
-0.000773819 -0.000288967
-0.0013917 -0.000659718
-0.0160221 -0.196776
-0.0157788 -0.20286
0.0013293 -0.00146752
0.00160655 -0.00119359
0.0218591 -0.346729
0.0288559 -0.345756
-0.017462 -0.210671
-0.0153661 -0.204694
0.000446022 -0.000255748
0.000383415 -0.000509858
-0.0242563 -0.386065
-0.0171564 -0.386879
-0.0104843 -0.199836
-0.0134322 -0.194624
-0.0129451 -0.419087
-0.0199281 -0.421007
-0.0124055 -0.0679487
-0.0163017 -0.0677355
-0.00401825 -0.483605
-0.00547602 -0.476419
0.0184306 -0.124951
0.0174982 -0.119895
0.00689428 -0.00846006
0.00613946 -0.00701288
0.00298551 -0.00778018
0.00406995 -0.00908983
-0.035666 -0.49476
-0.0288334 -0.492098
-0.0233011 -0.46806
-0.0305775 -0.468613
0.0117934 -0.321927
0.00492021 -0.322
0.0245356 -0.153107
0.019077 -0.153437
-0.0119148 -0.376835
-0.0178227 -0.38092
0.0108903 -0.386076
0.0180101 -0.385456
0.00444051 -0.179252
-0.00133034 -0.179291
-0.00971595 -0.478291
-0.00839034 -0.485503
0.0284623 -0.388985
0.0215179 -0.387066
0.0258284 -0.309693
0.0197778 -0.30634
0.004426 -0.39094
0.00466661 -0.383728
0.0123053 -0.428086
0.0139371 -0.420985
0.0187364 -0.0691579
0.0163833 -0.0656685
-0.00136322 -0.0596148
-0.00476386 -0.0582771
-0.00487552 -0.0522883
-0.00294101 -0.0492929
0.0116951 -0.233233
0.00579821 -0.230927
-0.0312576 -0.472737
-0.0341484 -0.466012
0.00255492 -0.0108837
0.00144756 -0.00952916
0.0328711 -0.213294
0.0356869 -0.20791
0.021791 -0.215888
0.0278772 -0.214764
-0.0107563 -0.0961104
-0.0116063 -0.100874
-0.0176415 -0.24374
-0.011989 -0.24056
-0.0117972 -0.488527
-0.00521465 -0.491605
-0.0177807 -0.0384963
-0.0146595 -0.0378951
-0.00316914 -0.247988
-0.00715099 -0.253163
-0.0187394 -0.47911
-0.022331 -0.485503
-0.0260161 -0.138127
-0.0274285 -0.133205
-0.015331 -0.121503
-0.0200321 -0.123723
-0.0223536 -0.212189
-0.0252159 -0.206791
0.0220041 -0.22124
0.0186513 -0.226514
0.00297912 -0.250482
0.00518598 -0.244386
-0.0344748 -0.472148
-0.0282045 -0.4759
-0.0243954 -0.124558
-0.0271621 -0.129162
-0.0290589 -0.404335
-0.0357606 -0.40714
0.0313605 -0.141214
0.0267068 -0.138144
-0.0109298 -0.114188
-0.0146366 -0.111255
0.00685026 -0.0239859
0.0091946 -0.0234956
-0.00118557 -0.0762096
0.00172981 -0.07921
0.0131316 -0.277509
0.0105537 -0.283687
5.67835e-05 -9.04661e-06
0.000242279 -0.000167827
0.0185989 -0.334646
0.0180824 -0.327641
0.0221985 -0.0919204
0.0214549 -0.0874134
0.0124453 -0.0701419
0.015618 -0.0729854
-0.000149619 -0.0114664
-0.00019481 -0.0133159
0.022998 -0.285266
0.0281231 -0.28106
0.017342 -0.0446202
0.0143347 -0.045435
0.000489819 -0.0723301
-0.00163469 -0.0689088
0.00716335 -0.0556276
0.006803 -0.0592842
0.0336753 -0.279001
0.0379477 -0.274027
0.00306676 -0.00227278
0.00284186 -0.00273234
-0.0126055 -0.302869
-0.00822617 -0.3081
-0.00193649 -0.0153262
-0.0028076 -0.0172789
-0.00101603 -0.00419582
-0.000188212 -0.00350564
0.0137365 -0.0629528
0.0133648 -0.0667699
0.0334223 -0.403035
0.0268695 -0.399929
-0.0123101 -0.165827
-0.0119768 -0.160167
-0.00517427 -0.150832
-0.00573566 -0.156354
0.0204157 -0.216433
0.0150267 -0.219511
0.0154688 -0.0291015
0.0143286 -0.0312929
-0.0050167 -0.00724438
-0.00535595 -0.00624883
-0.00783128 -0.155801
-0.00842074 -0.161389
-0.0218013 -0.244707
-0.0259999 -0.249813
-0.000945194 -0.00403356
-0.0020014 -0.0043921
0.00163336 -0.0453113
0.00448948 -0.0471138
-0.0334734 -0.481255
-0.0282774 -0.476078
-0.0143324 -0.305151
-0.0100674 -0.29975
0.0100762 -0.0205107
0.0124888 -0.0216461
0.00576946 -0.0156829
0.00692929 -0.0143762
0.00311243 -0.0109153
0.00345992 -0.0127153
-0.0176348 -0.0446297
-0.015693 -0.0468786
-0.0192462 -0.315335
-0.0155004 -0.321119
0.000442116 -0.33428
-0.00572251 -0.337321
-0.0273539 -0.439774
-0.0242664 -0.446376
-0.0306523 -0.302055
-0.0353739 -0.307204
-0.042474 -0.432989
-0.0388913 -0.426592
0.0191676 -0.280081
0.0202961 -0.28676
-0.00438006 -0.291214
-0.010369 -0.288178
-0.0435719 -0.408381
-0.0378772 -0.403801
-0.000832931 -0.000365333
-0.000441126 -0.000154953
-0.025118 -0.108015
-0.0277534 -0.104294
0.000160133 -0.0147759
0.000584366 -0.0168058
0.0237034 -0.122175
0.0224901 -0.117185
-0.0114737 -0.0251309
-0.0136417 -0.0272813
0.011331 -0.127785
0.00635291 -0.128802
0.00857226 -0.0137448
0.00664804 -0.0134222
0.0373299 -0.359596
0.0397172 -0.366422
-0.0090248 -0.0321916
-0.00702237 -0.0298987
-0.00035827 -0.0174076
-5.80352e-05 -0.0153206
-0.000470645 -0.0053998
-0.000736879 -0.00670351
0.0253402 -0.308071
0.0321637 -0.309046
0.0135982 -0.0666402
0.0175251 -0.0669007
-0.000967545 -0.00133002
-0.00164848 -0.00163732
0.018843 -0.282274
0.0208838 -0.288761
-0.00566865 -0.015709
-0.00365591 -0.015403
-0.0241896 -0.155538
-0.0282199 -0.152103
0.00285478 -0.0139127
0.00102576 -0.0141799
-0.0262463 -0.474013
-0.0247753 -0.466822
-0.0298803 -0.419388
-0.0371157 -0.419967
0.00613483 -0.0961514
0.0106611 -0.0975201
0.00198432 -0.128418
0.000347641 -0.123547
-0.0383699 -0.332243
-0.0314213 -0.330927
-0.00884513 -0.0837994
-0.00465116 -0.0845869
-0.0119302 -0.0845471
-0.00773714 -0.0854574
0.0239197 -0.333106
0.0213478 -0.33964
0.0188749 -0.0431243
0.0189546 -0.046352
0.0307118 -0.319316
0.0251735 -0.315025
0.0106168 -0.123896
0.00789958 -0.119535
-0.0331058 -0.368311
-0.0350943 -0.37525
0.00316207 -0.167213
0.00574166 -0.172361
-0.0176993 -0.0378774
-0.0167618 -0.0405104
0.0278363 -0.214295
0.0317758 -0.209666
0.0246592 -0.215664
0.0208488 -0.210509
-0.0344423 -0.440445
-0.0350747 -0.447738
0.0048548 -0.088864
0.00918293 -0.088265
0.0144381 -0.146194
0.00919875 -0.144788
0.00617807 -0.0104482
0.006805 -0.00929329
0.0132138 -0.146496
0.0181898 -0.148887
-0.00249926 -0.00142646
-0.00214326 -0.00144535
-0.00437418 -0.137891
-0.00652339 -0.133118
-0.00816956 -0.0909884
-0.0112543 -0.0945083
0.0046507 -0.320383
0.0107676 -0.323563
-0.00685655 -0.454628
-0.0124367 -0.449957
0.00846358 -0.0122838
0.0101363 -0.0122049
-0.00918538 -0.0856627
-0.012885 -0.0882955
-0.0142014 -0.0827901
-0.017996 -0.0853312
0.0156655 -0.0643247
0.0194359 -0.0658789
0.0159571 -0.227346
0.0199369 -0.232428
-0.0114952 -0.0661648
-0.0149584 -0.0684254
-0.0249029 -0.105137
-0.02018 -0.103704
-0.0270535 -0.249283
-0.0239078 -0.25487
0.0251244 -0.306069
0.0319773 -0.306425
-0.0232453 -0.183074
-0.029077 -0.182646
0.00618295 -0.312154
0.0129517 -0.313203
-0.00250171 -0.0845994
-0.00670258 -0.0855582
0.0155782 -0.0748303
0.0131222 -0.0713106
-0.00181979 -0.00155412
-0.00175705 -0.00112513
0.0035026 -0.0620388
0.00436511 -0.0658518
0.00878902 -0.0238511
0.00693059 -0.0252647
0.0185012 -0.0980388
0.0139645 -0.0988054
0.0104939 -0.196452
0.00731518 -0.191343
-0.0284549 -0.202392
-0.0342209 -0.204967
0.00564549 -0.00946946
0.00487269 -0.00793946
-0.0220439 -0.109981
-0.0179196 -0.112242
0.0097523 -0.0942526
0.0141335 -0.0960634
-0.0229233 -0.0648661
-0.0205568 -0.0675184
-0.0252434 -0.363977
-0.019799 -0.359272
0.00229718 -0.280498
-0.0038148 -0.277843
0.00802719 -0.0467796
0.00814318 -0.0434775
0.0179168 -0.328457
0.0243543 -0.331275
-0.0262856 -0.192482
-0.0291025 -0.198016
0.012626 -0.184791
0.0175334 -0.188219
-0.0321679 -0.370358
-0.0315927 -0.377506
0.00643273 -0.0293921
0.00824879 -0.0275834
-0.0338449 -0.494264
-0.0394853 -0.489561
0.00973708 -0.194803
0.0153379 -0.197059
-0.0134009 -0.154055
-0.017933 -0.157451
0.0379041 -0.442301
0.0420217 -0.436295
0.00544239 -0.0118163
0.00716542 -0.0118369
0.000204752 -0.00559412
-0.000676556 -0.00655411
0.00274209 -0.0591061
0.000711718 -0.0559906
0.0271033 -0.379316
0.0240281 -0.385787
-0.00123887 -0.0208771
0.000640647 -0.0219198
-0.0386468 -0.374132
-0.0335294 -0.379065
-0.000854008 -0.00467211
-0.000586722 -0.00358097
0.0148374 -0.427019
0.0110665 -0.420789
0.0173427 -0.0826195
0.0215512 -0.0821146
-0.0114908 -0.0735107
-0.0132537 -0.0774215
0.0280758 -0.209955
0.023175 -0.205898
-0.0242897 -0.448915
-0.0312665 -0.451055
0.00927053 -0.472764
0.0165329 -0.472316
-0.0205614 -0.250644
-0.0254911 -0.255087
0.0262158 -0.139881
0.0220799 -0.14294
0.0165491 -0.262661
0.0230359 -0.26389
-0.0122947 -0.156743
-0.0144195 -0.162014
-0.0190814 -0.18183
-0.0139237 -0.178896
-0.000978389 -0.37638
-0.00447526 -0.382645
0.0200659 -0.192408
0.0250655 -0.18938
-0.0301748 -0.47849
-0.037338 -0.477007
-0.00467795 -0.0248613
-0.0053511 -0.0224901
0.0297892 -0.423519
0.0362257 -0.420205
0.0338492 -0.347379
0.0408496 -0.348897
0.0238059 -0.0990996
0.0221283 -0.10336
-0.0201911 -0.0741179
-0.0218977 -0.0781481
0.0103955 -0.0552717
0.0126458 -0.0527629
0.0157484 -0.105943
0.0178217 -0.110525
-0.0262922 -0.178439
-0.0297451 -0.174035
0.000661495 -0.0376864
-0.000187076 -0.0347814
0.0198403 -0.228338
0.0223323 -0.222575
-0.00605164 -0.144512
-0.00101144 -0.146302
-0.0164355 -0.356255
-0.0230851 -0.353797
0.00457976 -0.00320043
0.00395044 -0.00240022
0.040628 -0.374552
0.033856 -0.376853
0.0124992 -0.136243
0.00896807 -0.140058
0.0250101 -0.122046
0.0288869 -0.125762
0.0403662 -0.329335
0.0376044 -0.322812
-0.00474645 -0.0701867
-0.0081105 -0.0682493
-0.0180326 -0.471859
-0.0114554 -0.474984
0.00905842 -0.182917
0.00346868 -0.18126
-0.00929164 -0.411297
-0.00537493 -0.417389
0.0114713 -0.0722675
0.0101955 -0.0683431
0.00422066 -0.00539956
0.00357086 -0.00423886
0.00575359 -0.0544108
0.00229252 -0.0534926
-0.0251787 -0.0820101
-0.022183 -0.07849
0.0180173 -0.421812
0.0112165 -0.419327
-0.00333957 -0.152837
-0.00814227 -0.155603
-0.00688808 -0.267991
-0.0134569 -0.268617
0.00395597 -0.414458
-0.000459809 -0.420219
-0.0333431 -0.435927
-0.033804 -0.428646
0.0152168 -0.0364242
0.0131122 -0.0381477
0.0230845 -0.260668
0.0173977 -0.263816
-0.00542807 -0.0367787
-0.00561212 -0.0398833
-0.00075196 -0.000342376
-0.00129063 -0.000575797
0.00817625 -0.0217052
0.00603248 -0.0202378
-0.00236295 -0.0182258
-0.00349758 -0.0165248
-0.0199253 -0.233752
-0.0150092 -0.23765
-0.014739 -0.120912
-0.019365 -0.119341
-0.0200464 -0.476263
-0.0157945 -0.482216
0.0135246 -0.362099
0.0153384 -0.36905
0.00897134 -0.0121193
0.00802106 -0.0103934
0.024148 -0.104307
0.0216381 -0.0999495
0.0208366 -0.0596222
0.0171665 -0.0598571
-0.00107743 -0.402465
0.0060343 -0.401494
-0.0260185 -0.254312
-0.0195431 -0.254783
-0.0155873 -0.0596601
-0.0128949 -0.0567472
-0.0330252 -0.390932
-0.0329349 -0.398155
0.00195116 -0.0020823
0.00230434 -0.00177776
0.0289358 -0.181605
0.0275829 -0.17584
-0.0105847 -0.0396082
-0.0137157 -0.0400169
-0.0256506 -0.25743
-0.0192684 -0.255832
-0.019532 -0.353513
-0.0266359 -0.353368
-0.0234862 -0.311152
-0.0218731 -0.304419
-0.0182555 -0.156235
-0.0234686 -0.154732
0.00907704 -0.0202803
0.0109808 -0.0195255
0.0107308 -0.142887
0.00966045 -0.137606
0.00260574 -0.0923415
0.00648675 -0.0945349
-0.00475515 -0.00857616
-0.00348219 -0.00743227
-0.00902619 -0.0140076
-0.0102679 -0.015944
0.0252086 -0.448696
0.0228163 -0.455611
-0.0161537 -0.0828182
-0.0199177 -0.0811691
0.0347708 -0.467828
0.0309596 -0.474091
0.0111766 -0.16304
0.011072 -0.168733
-0.0159867 -0.209867
-0.0102097 -0.207304
-0.00876078 -0.0939577
-0.0051884 -0.0910999
-0.0206421 -0.233068
-0.0171485 -0.2383
0.0176504 -0.0590153
0.0202952 -0.062142
-0.025913 -0.255153
-0.0302214 -0.250442
-0.00756108 -0.282748
-0.0118233 -0.277625
0.0143328 -0.0719333
0.017311 -0.0750864
-0.0237183 -0.130187
-0.0186716 -0.128649
0.0156101 -0.103838
0.0180271 -0.0999053
-0.00852873 -0.0546008
-0.0110984 -0.0574343
-0.00188547 -0.423571
-0.00828449 -0.426981
0.0342738 -0.326032
0.0324664 -0.332764
0.0283602 -0.428292
0.0211683 -0.427317
0.0303753 -0.192677
0.0243709 -0.192134
-0.00467261 -0.0155681
-0.00329374 -0.0168968
0.00856329 -0.0654261
0.00482936 -0.06428
-0.0108867 -0.278243
-0.0136067 -0.284442
-0.0272834 -0.0985928
-0.0226411 -0.0988552
-0.00564083 -0.00968791
-0.00483478 -0.00814497
-0.00412478 -0.0785841
-0.00463609 -0.0828605
-0.00640847 -0.0168368
-0.00526917 -0.0149118
0.00278647 -0.0061417
0.00299481 -0.00503609
-0.0274032 -0.403005
-0.0331971 -0.407411
-0.0403186 -0.441402
-0.0438513 -0.435049
-0.0313804 -0.30152
-0.0371187 -0.298031
0.000902307 -0.00455268
-1.10466e-05 -0.00518261
-0.00144766 -0.0204516
-0.00145174 -0.0227756
-0.0131993 -0.134812
-0.0121491 -0.129636
-0.017434 -0.0558524
-0.0198692 -0.0536943
-0.0161591 -0.458324
-0.0154089 -0.465617
0.0118595 -0.0563851
0.00824269 -0.0563494
-0.0164261 -0.300076
-0.00975238 -0.301265
-0.00496269 -0.149878
-0.00246367 -0.145009
-0.0104707 -0.0573239
-0.00706075 -0.0583841
-0.00566223 -0.422628
0.000438002 -0.426521
0.0303979 -0.151018
0.0265235 -0.154603
-0.0122225 -0.038708
-0.0147955 -0.0375791
0.0233361 -0.134542
0.0230889 -0.129317
-0.00714648 -0.27204
-0.00494592 -0.278344
0.00871237 -0.0687197
0.00726211 -0.072402
0.0333905 -0.382502
0.028867 -0.376847
0.0233434 -0.424148
0.0304241 -0.422631
-0.0356235 -0.487435
-0.042744 -0.485653
-0.0284404 -0.209702
-0.0342422 -0.212363
0.0179304 -0.258062
0.0190327 -0.264599
-0.00287463 -0.13349
0.00172832 -0.135944
0.0305168 -0.421494
0.0293852 -0.428687
-0.0280722 -0.252173
-0.0230847 -0.256187
-0.00655497 -0.0798939
-0.00992004 -0.0826795
0.00169223 -0.0062807
0.00161213 -0.00501695
-0.0210236 -0.364976
-0.0149376 -0.361207
0.000327792 -0.000106342
9.87168e-05 6.22248e-06
0.00357554 -0.0453966
0.00657108 -0.044273
0.0271919 -0.333589
0.0295743 -0.340309
-0.0012774 -0.0121696
-0.00304414 -0.012462
0.0070192 -0.0230107
0.00454212 -0.0231105
-0.00365467 -0.186164
-0.00733724 -0.190836
0.00373003 -0.243312
0.0100657 -0.244325
0.0152028 -0.249397
0.0161986 -0.243005
0.0272823 -0.342605
0.0343099 -0.341972
-0.00193753 -0.00731993
-0.000926513 -0.00627912
0.031672 -0.304163
0.0296704 -0.297557
-0.00572579 -0.0468268
-0.00680321 -0.0501636
0.00454788 -0.0818836
0.00594637 -0.0778944
0.0146001 -0.240373
0.0198704 -0.236883
0.0234587 -0.227141
0.0212704 -0.233057
0.0170572 -0.0458732
0.0142826 -0.0472394
0.00555191 -0.0544371
0.00825191 -0.0570416
-0.00485353 -0.294476
-0.00312801 -0.287891
0.013979 -0.0973142
0.0125839 -0.101786
0.010277 -0.402816
0.01724 -0.40105
-0.00183083 -0.00668066
-0.00286618 -0.00614066
0.0138269 -0.081873
0.0123574 -0.085847
-0.0144162 -0.106376
-0.00966136 -0.105132
0.00485436 -0.0195108
0.00494061 -0.0173347
-0.0182868 -0.402411
-0.0218191 -0.396144
-0.0323915 -0.261085
-0.0285163 -0.266264
0.020409 -0.094505
0.0247148 -0.0934053
-0.00408202 -0.00248154
-0.00308256 -0.00190838
-0.00541601 -0.0945589
-0.00850281 -0.0981511
-0.00481632 -0.0615535
-0.00684511 -0.0585072
-0.00191973 -0.0596697
-0.00092635 -0.0560742
0.0304185 -0.191337
0.024791 -0.188967
-0.0155265 -0.0540824
-0.0119609 -0.0532883
0.0235406 -0.145745
0.0237039 -0.140386
-0.0258089 -0.206131
-0.0268562 -0.212353
0.0100421 -0.245445
0.0147124 -0.241105
0.00254435 -0.00907116
0.00360001 -0.00822454
-0.00474644 -0.401647
-0.00347242 -0.394515
0.0368996 -0.300404
0.0403923 -0.30644
0.0306276 -0.191917
0.0346075 -0.187768
0.0137351 -0.0585328
0.010061 -0.058554
-0.00652437 -0.175864
-0.00272152 -0.171491
-0.00136787 -0.00362545
-0.0013016 -0.00468366
-0.00220114 -0.298348
0.00399532 -0.301118
0.00108034 -0.00417873
0.000489313 -0.00508178
0.0192113 -0.231533
0.0187766 -0.22516
-0.0281596 -0.249368
-0.0293369 -0.255844
-0.0133596 -0.422715
-0.0162643 -0.429414
-0.000880214 -0.00110432
-0.000363358 -0.000782522
0.0162239 -0.125437
0.0111726 -0.125739
0.0119574 -0.234215
0.00681253 -0.237886
-0.00231598 -0.384745
-0.00685826 -0.379227
0.000623189 -0.00128223
0.00126508 -0.00155394
-0.000685844 -0.0497954
-0.003448 -0.0478671
0.0244403 -0.187099
0.0266839 -0.19276
-0.0260419 -0.435705
-0.0326338 -0.432692
-0.00291519 -0.00487171
-0.00408364 -0.00572374
0.0100937 -0.0703036
0.00859374 -0.0665054
0.0279854 -0.141407
0.0226339 -0.141
-0.00783754 -0.231347
-0.00171222 -0.229928
-0.00135332 -0.248837
0.00320304 -0.253472
-0.000901294 -0.459679
0.00165886 -0.46654
-0.0145863 -0.256757
-0.0156196 -0.250318
-0.00368511 -0.115591
-0.00854646 -0.115917
-0.0119792 -0.0926302
-0.00765717 -0.0910463
0.00609321 -0.0173369
0.00652458 -0.0154348
0.00147245 -0.452691
-0.000494221 -0.459753
0.0226676 -0.244277
0.0276539 -0.240379
0.0231347 -0.13064
0.027776 -0.13346
0.00146798 -0.000961097
0.0011459 -0.0010919
-0.0104014 -0.365895
-0.0173468 -0.364666
-0.00234205 -0.0905582
-0.00176093 -0.0949771
0.00916258 -0.0196233
0.00755431 -0.0176842
0.0320329 -0.269995
0.0309474 -0.263408
0.0122757 -0.0307734
0.00989272 -0.0288169
-0.00770457 -0.0753132
-0.0118234 -0.0755636
-0.00370747 -0.237012
0.00214328 -0.234557
-0.00040036 -0.00015517
-2.7562e-05 -1.3567e-05
-0.0336067 -0.381385
-0.0280296 -0.376763
0.000455416 -0.00878898
0.00143606 -0.00773913
0.00042254 -0.000348834
0.000494887 -0.000759442
-0.0117337 -0.24901
-0.0179772 -0.250846
-0.00924545 -0.0138746
-0.00886168 -0.012079
-0.00116656 -0.126365
0.00248074 -0.129996
-0.021435 -0.143915
-0.0265911 -0.142829
0.0159891 -0.392344
0.0139927 -0.385397
-0.00359841 -0.116019
-0.00399625 -0.121016
0.0210334 -0.0825254
0.0167465 -0.0826682
-0.0110178 -0.117355
-0.0142958 -0.113876
0.00196541 -0.481994
0.00642127 -0.487771
-0.00746736 -0.043518
-0.00712481 -0.0467854
0.00145734 -0.000670894
0.00129064 -0.000736983
0.0230211 -0.317045
0.0161285 -0.31676
-0.00261619 -0.0897336
-0.000135982 -0.0861036
-0.0126569 -0.068088
-0.0166267 -0.0686107
-0.0061996 -0.0593717
-0.00973197 -0.0608473
-4.87593e-05 -0.00267276
-0.000659695 -0.00341904
0.00891698 -0.147871
0.00352296 -0.147971
0.00494585 -0.0192771
0.0045924 -0.0215076
8.15248e-05 -0.000129115
0.000323976 -0.000189918
5.86726e-05 -4.431e-05
0.000279063 -0.000197413
-0.00970981 -0.0885124
-0.00716192 -0.0920954
-0.0244836 -0.13027
-0.0259645 -0.125499
0.000620569 -0.474556
0.00148311 -0.481842
-0.0252605 -0.359507
-0.0258952 -0.366666
-0.0135086 -0.0256726
-0.0139897 -0.028366
0.0419893 -0.46648
0.0385263 -0.460013
-0.00992498 -0.0348586
-0.00768703 -0.0364217
0.0262185 -0.366373
0.0190876 -0.366641
-0.00810483 -0.136885
-0.0129169 -0.135001
0.00478481 -0.238827
0.00896715 -0.24375
-0.000914305 -0.0452511
-0.000275593 -0.0420284
-0.0192721 -0.179388
-0.0242654 -0.17668
-0.00133972 -0.00065919
-0.00162368 -0.000769382
0.012479 -0.0225689
0.0127568 -0.0250738
-0.0108117 -0.114645
-0.00850873 -0.118937
0.00262303 -0.2633
9.55217e-05 -0.269429
0.000981805 -0.118661
-0.0019956 -0.122721
0.0289414 -0.12009
0.0250417 -0.116503
-0.0111782 -0.366058
-0.0109064 -0.3732
-0.00538492 -0.047295
-0.00742461 -0.0448271
-0.0408726 -0.424548
-0.0439561 -0.418
-0.0314271 -0.445044
-0.0262288 -0.439887
-0.0248738 -0.297711
-0.0235643 -0.3044
0.000764642 -0.164792
0.00121683 -0.15916
-0.00228669 -0.00543761
-0.00150371 -0.0062396
-0.00324283 -0.00431108
-0.00216386 -0.00403388
0.0302013 -0.287832
0.0260854 -0.282359
0.000124358 -0.000369614
0.000491882 -0.000613305
3.30005e-06 -0.427387
0.00586416 -0.43166
-0.007816 -0.440914
-0.00419572 -0.447247
-0.0130617 -0.0271921
-0.0131522 -0.0246778
0.00586764 -0.00740114
0.00737733 -0.0084221
-0.00901181 -0.0123653
-0.00721682 -0.0112389
-0.00600289 -0.0528041
-0.0093881 -0.0541401
-0.0141209 -0.0628029
-0.0105009 -0.0636404
-0.000422406 -0.000169757
-0.000144137 1.26076e-06
-0.0301026 -0.167346
-0.0289095 -0.172842
0.00674734 -0.00999448
0.0084924 -0.0108817
-0.0278125 -0.196204
-0.0312956 -0.201448
0.0382893 -0.426893
0.0319441 -0.430411
-0.00101176 -0.009492
-0.00113117 -0.0111884
0.0333791 -0.232612
0.0307687 -0.238344
0.00635121 -0.0524938
0.00472256 -0.0556012
0.0368149 -0.354809
0.0307553 -0.358492
-0.00469653 -0.374047
-0.00965386 -0.368986
-0.00366908 -0.00233611
-0.00344016 -0.0026313
0.00426526 -0.0108663
0.00382329 -0.00920432
-0.00343113 -0.490974
-0.010635 -0.490122
0.0324984 -0.211863
0.0268223 -0.214145
-0.0207329 -0.195877
-0.0184397 -0.190219
7.72766e-05 -0.0463811
0.0022675 -0.0439367
-0.0406469 -0.410566
-0.0336653 -0.412401
0.0174539 -0.28164
0.0153151 -0.288009
-0.00100898 -0.301423
0.00458624 -0.305324
0.0298876 -0.171296
0.0270724 -0.166115
-0.00614899 -0.161586
-0.00948864 -0.166219
0.00901412 -0.0435849
0.00669424 -0.0411232
0.00168666 -0.135457
0.00106562 -0.140743
-0.00365425 -0.049666
-0.00627165 -0.0476442
-0.0290187 -0.124875
-0.0289428 -0.119826
-0.0284 -0.228547
-0.0224311 -0.226144
-0.0284919 -0.24555
-0.0230758 -0.24181
0.00945143 -0.0282171
0.00889653 -0.0254637
0.00823129 -0.435155
0.00166503 -0.438244
-0.00726895 -0.164989
-0.00675248 -0.15935
-0.0174193 -0.0772339
-0.0133766 -0.0757471
0.0289901 -0.28787
0.0327535 -0.293636
0.0118105 -0.0510786
0.0149425 -0.0531471
-0.0117029 -0.273497
-0.0178222 -0.276217
-0.00313209 -0.00676263
-0.00452378 -0.00741376
0.00722468 -0.066243
0.00388921 -0.068152
0.010004 -0.0386832
0.00759092 -0.0403083
-0.0290471 -0.133975
-0.0242284 -0.13145
-0.00216892 -0.00131667
-0.00234089 -0.00178685
0.00400829 -0.0807683
0.000389449 -0.0786002
-0.0355029 -0.337133
-0.0301048 -0.341555
0.00869946 -0.00881178
0.00728176 -0.00748662
0.0332262 -0.264776
0.0288657 -0.259649
-0.00543901 -0.0198095
-0.0042357 -0.0216421
0.00240763 -0.0179438
0.000452552 -0.0172361
-0.021677 -0.20463
-0.0211335 -0.198488
-0.00967847 -0.0418055
-0.00762236 -0.0391614
0.018264 -0.21345
0.0173386 -0.207191
0.0200011 -0.0967679
0.0242256 -0.0993227
0.0251476 -0.131905
0.0203146 -0.133486
-0.0219928 -0.0817401
-0.021288 -0.0858955
0.00154176 -0.475023
-0.00513534 -0.472151
-0.014886 -0.224865
-0.0162656 -0.231107
-0.0307436 -0.386944
-0.0284746 -0.380074
-0.0108318 -0.0317341
-0.010756 -0.0345712
0.00433015 -0.309715
-0.000262778 -0.314837
0.0258616 -0.393668
0.0313395 -0.398426
-0.00489408 -0.0206804
-0.0050963 -0.0230951
0.0363755 -0.398498
0.0422058 -0.394312
0.00577549 -0.333001
-3.90504e-05 -0.336653
0.0187473 -0.247746
0.014336 -0.242905
-0.00921431 -0.012945
-0.00731125 -0.0122988
-0.00337428 -0.0421326
-0.00329288 -0.045414
0.0248013 -0.485166
0.0302736 -0.480284
0.000863471 -0.0754515
-0.00132618 -0.0790293
0.0129436 -0.292723
0.0192952 -0.295151
0.0186948 -0.216745
0.0241897 -0.213962
-0.0202565 -0.181563
-0.0260927 -0.182527
-0.00437498 -0.0820719
-0.0080716 -0.0843636
-0.0290339 -0.323731
-0.0295713 -0.316805
-0.00495367 -0.0150411
-0.0058943 -0.0170365
-0.00867016 -0.0695215
-0.0122126 -0.0716999
-0.0137778 -0.271747
-0.00970046 -0.266443
0.000492226 -0.123952
0.000987884 -0.129077
-0.00537043 -0.321405
-0.00405341 -0.328253
-0.0019302 -0.0522469
-0.00475354 -0.0503151
0.00375082 -0.0030427
0.00413156 -0.00396137
0.00817492 -0.020493
0.00794876 -0.0182394
0.0371317 -0.466623
0.031587 -0.471406
0.0210303 -0.237507
0.0259869 -0.241785
-0.0146215 -0.0478452
-0.017737 -0.0471124
0.000871721 -0.0146621
0.00212698 -0.0132969
-0.00361512 -0.0200204
-0.00499335 -0.0184248
-0.0090315 -0.484408
-0.0019277 -0.485898
-0.0127991 -0.318146
-0.0146121 -0.311479
-0.00205584 -0.0900325
0.00156566 -0.0924311
0.0137668 -0.397672
0.00874855 -0.39248
0.00638454 -0.48877
0.0081916 -0.481661
0.0110689 -0.118183
0.00683544 -0.115517
0.00717511 -0.261682
0.00824834 -0.268236
-0.0190365 -0.23517
-0.0242593 -0.231732
-0.0327745 -0.324155
-0.0351355 -0.330838
0.0196618 -0.270853
0.013265 -0.272445
0.000700961 -0.0576494
-0.00260095 -0.059311
-0.0339055 -0.213232
-0.0293446 -0.217264
-0.000228858 -0.474822
0.00405996 -0.468889
0.0172372 -0.178869
0.0187044 -0.184618
-0.0156984 -0.144461
-0.0118809 -0.148114
0.0226583 -0.418672
0.0239626 -0.411526
0.00630931 -0.0873146
0.00244961 -0.0892873
-0.0297451 -0.251323
-0.0270142 -0.257146
0.0112395 -0.0678607
0.00755846 -0.0690246
-0.0154394 -0.101134
-0.010726 -0.10006
-0.00762656 -0.0696472
-0.00806155 -0.0657282
-0.00870209 -0.155383
-0.0105314 -0.16072
-0.0294826 -0.263044
-0.0238341 -0.259455
0.000321252 -0.000117008
3.73533e-05 -6.39569e-06
-0.00133415 -0.0476657
-0.00372674 -0.0501877
0.015616 -0.0336538
0.0160363 -0.0366143
-0.0304796 -0.335894
-0.0294738 -0.328884
-0.0194952 -0.245433
-0.0239737 -0.250284
0.0111973 -0.0304703
0.0100388 -0.0277266
0.0347395 -0.478855
0.02767 -0.480766
0.0036025 -0.153999
0.00709801 -0.149821
-0.0134877 -0.0761079
-0.00943822 -0.0749552
-0.016633 -0.0826031
-0.0196751 -0.0799605
-0.0188142 -0.0809698
-0.0158179 -0.0776124
0.00895958 -0.0612147
0.00649106 -0.0639594
-0.00246635 -0.00150433
-0.00216121 -0.00163043
-0.00274576 -0.019208
-0.00481122 -0.0202848
-0.00998184 -0.427859
-0.0167654 -0.425365
-0.00543445 -0.0334963
-0.00712654 -0.0314974
0.00601713 -0.232936
-0.000285811 -0.233311
0.00957519 -0.0322484
0.00986878 -0.0295098
-0.0168525 -0.457287
-0.0217812 -0.451919
0.0197836 -0.179589
0.0216894 -0.17419
-0.0398435 -0.30198
-0.03339 -0.299444
0.0136245 -0.0368542
0.0143156 -0.0399469
0.023236 -0.371929
0.0216424 -0.364908
-0.0190611 -0.237734
-0.0135889 -0.240877
-0.0317257 -0.419265
-0.0350432 -0.425784
0.00706576 -0.0166003
0.00538591 -0.0150611
0.00242802 -0.00495343
0.00216281 -0.00383238
-0.000143411 -0.0563655
0.0032263 -0.055151
-0.0106836 -0.0688886
-0.00823062 -0.0718898
-0.000251646 -0.12439
0.0039439 -0.121607
-0.0183698 -0.447056
-0.0213187 -0.440385
0.00713383 -0.381368
0.00455655 -0.374663
-0.00110416 -0.00662608
-0.000890686 -0.0080232
-0.0138013 -0.263235
-0.0119515 -0.269573
-0.00894401 -0.0257532
-0.00989148 -0.0284866
0.0041972 -0.00815214
0.00292152 -0.00858697
-0.0351414 -0.227094
-0.0338501 -0.220803
-0.00986496 -0.0113088
-0.010635 -0.0130802
-0.00544367 -0.117402
-0.00334185 -0.121937
0.0072636 -0.0153618
0.00577369 -0.0137134
-0.0217302 -0.41453
-0.0202058 -0.407412
0.0154764 -0.466256
0.0135538 -0.473338
0.0383887 -0.309386
0.0369649 -0.316098
0.0146605 -0.0899202
0.0102217 -0.0890513
-0.00321904 -0.00405875
-0.00412167 -0.00401602
-0.00226469 -0.00378601
-0.00313919 -0.00476519
-0.00465969 -0.31097
-0.010637 -0.307671
0.0125964 -0.038864
0.015467 -0.0407242
-0.0267704 -0.298556
-0.0200895 -0.299682
0.000515159 -0.000310963
0.00031183 -7.2398e-05
0.015292 -0.0759674
0.0194005 -0.0757744
-0.0185252 -0.474302
-0.0140286 -0.468523
0.00386565 -0.0036705
0.00425703 -0.00470965
0.00355127 -0.0676838
0.00269143 -0.0638274
-0.0199748 -0.395779
-0.0145336 -0.400446
-0.0185145 -0.0506529
-0.0195474 -0.0541876
-0.00303128 -0.00743939
-0.00446146 -0.00772341
-0.0136748 -0.0583579
-0.0165644 -0.0565289
0.0306747 -0.382722
0.0240627 -0.38545
0.0242696 -0.130427
0.028347 -0.12764
0.0121878 -0.387554
0.00945219 -0.394214
-0.00982948 -0.0368405
-0.0102492 -0.0340094
-0.0084831 -0.0156475
-0.00796749 -0.0136823
-0.00844176 -0.481446
-0.0116647 -0.488023
-0.000809005 -0.00139706
-0.000216903 -0.00119418
0.00319369 -0.305984
0.00920611 -0.302798
0.032894 -0.2842
0.0386282 -0.287997
0.0156738 -0.184022
0.0190296 -0.189023
-0.0155382 -0.303054
-0.0211977 -0.299355
0.0160083 -0.134216
0.0121608 -0.130503
-0.00522764 -0.417685
-0.00280034 -0.410827
-0.00141649 -0.0827721
0.000948615 -0.0864089
0.0101129 -0.324661
0.00402993 -0.327926
-0.00397594 -0.0428748
-0.00716161 -0.0435055
0.00463684 -0.0161679
0.00657591 -0.0173346
-0.0121401 -0.286158
-0.00664705 -0.289998
0.0384268 -0.346716
0.0380718 -0.339589
0.0090905 -0.0704498
0.00648461 -0.073411
0.000172713 -5.47514e-05
0.00039615 -0.000130734
-0.00904626 -0.239636
-0.00656433 -0.245559
-0.00781483 -0.0390311
-0.0105769 -0.0408636
0.0124689 -0.195972
0.00651904 -0.196355
-0.0151988 -0.403973
-0.0152792 -0.411235
-0.00283768 -0.00158044
-0.00380963 -0.00227434
-0.0220212 -0.159277
-0.0173953 -0.15591
-0.002675 -0.0425108
-0.00181726 -0.0394184
0.00258502 -0.369647
-0.00134048 -0.37559
0.00282636 -0.0749603
0.0068905 -0.0755435
0.0253039 -0.126739
0.0246199 -0.121631
0.0159171 -0.195119
0.0181883 -0.189647
-0.0154391 -0.274448
-0.0152058 -0.267775
-0.00058398 -0.090583
-0.00421588 -0.0930324
-0.0308501 -0.391657
-0.0328217 -0.384759
0.0300206 -0.176997
0.0290104 -0.171238
-0.00990894 -0.0423738
-0.00833531 -0.0394206
-0.0106347 -0.280061
-0.00531796 -0.284088
-7.24993e-05 -0.276538
0.00132217 -0.269999
0.0140205 -0.189671
0.0125928 -0.195463
0.0229201 -0.461718
0.0160315 -0.459349
0.00199956 -0.450178
0.00507554 -0.443541
0.00897808 -0.0376148
0.0090883 -0.0407281
-0.0199059 -0.244719
-0.0244951 -0.240375
-0.00496954 -0.0230289
-0.00322675 -0.0211856
-0.0180249 -0.123594
-0.0130468 -0.124161
-0.0280002 -0.23404
-0.0231548 -0.229677
-0.000656773 -0.192452
0.00208792 -0.187173
0.00903364 -0.00942725
0.00781158 -0.00982847
-0.0132492 -0.0311786
-0.0131026 -0.0339552
0.0171466 -0.0625166
0.0184923 -0.0592325
-0.00685211 -0.274051
-0.000234382 -0.273731
-0.00621109 -0.318818
-0.00751407 -0.312012
-0.0134739 -0.0281411
-0.0112188 -0.0291254
0.0208518 -0.157921
0.0175406 -0.153286
0.0012008 -0.164436
0.00497732 -0.168702
0.0274855 -0.32007
0.0341303 -0.322292
0.0322491 -0.326515
0.0306407 -0.33331
-0.02897 -0.209124
-0.0338745 -0.205669
0.0102402 -0.0415369
0.0123011 -0.0395044
0.00541775 -0.0138317
0.00511206 -0.0119681
0.00403912 -0.481655
-0.0024743 -0.484904
0.0131428 -0.252336
0.01852 -0.256143
0.0207935 -0.479048
0.0225772 -0.486165
-0.0128266 -0.436732
-0.0126377 -0.444044
-0.0226266 -0.2773
-0.0261038 -0.271711
-0.012796 -0.198854
-0.0144813 -0.204791
-0.00994186 -0.0509447
-0.0133227 -0.0523123
0.00566604 -0.0890682
0.00459252 -0.0847688
-0.0134922 -0.167789
-0.010539 -0.172606
-0.00666821 -0.112768
-0.0096005 -0.116774
-0.00129094 -0.153866
0.00030976 -0.159203
0.034938 -0.282303
0.0340013 -0.288957
0.0309058 -0.388768
0.0369224 -0.392821
-0.00283435 -0.00300592
-0.00381142 -0.00333632
-0.0167485 -0.0608803
-0.0158807 -0.0571492
-0.023444 -0.149251
-0.0181377 -0.147703
-0.0264194 -0.133178
-0.029761 -0.129556
0.00298739 -0.0115143
0.0046592 -0.011397
-0.011588 -0.026728
-0.013657 -0.0290396
-0.00010336 -0.0155242
-0.000723795 -0.0136468
-0.0101233 -0.0593877
-0.00683168 -0.0608872
0.0123127 -0.250227
0.0171116 -0.245984
-0.00125749 -0.0151393
-0.00298407 -0.0144115
0.00130678 -0.00732007
-5.88527e-05 -0.00722418
-0.0376918 -0.44456
-0.0329266 -0.450061
0.0127192 -0.267088
0.00716542 -0.270608
-0.0242038 -0.114697
-0.0266402 -0.110699
-0.00786212 -0.0350021
-0.00990494 -0.0332934
0.0125329 -0.0579624
0.0130637 -0.0617309
-0.00526324 -0.0573875
-0.00696884 -0.060815
0.00691941 -0.0865874
0.00567837 -0.0823682
-0.0163787 -0.119663
-0.0145975 -0.114877
0.00221868 -0.00111229
0.00287912 -0.00169644
-0.0235543 -0.0825717
-0.0242539 -0.0785281
-0.00580379 -0.0157322
-0.00378859 -0.0153488
0.010284 -0.0153114
0.0114085 -0.0173708
0.033865 -0.300604
0.0332731 -0.307422
0.0163677 -0.417217
0.0188238 -0.424079
0.0351093 -0.399794
0.0419926 -0.39768
-0.000434545 -0.429695
-0.00483308 -0.435507
-0.00780389 -0.169683
-0.00431796 -0.165125
0.0185483 -0.190852
0.018139 -0.19684
-0.0205721 -0.177906
-0.0255604 -0.175243
0.0311981 -0.18899
0.0348852 -0.184632
0.0361263 -0.484987
0.0327482 -0.478469
0.000636517 -0.0411447
0.00155875 -0.0381563
-0.00590097 -0.0049872
-0.00493895 -0.00390478
0.00878176 -0.091419
0.0132243 -0.0909003
-0.0242033 -0.249125
-0.0301629 -0.24684
-0.0134026 -0.054286
-0.00983201 -0.0540345
0.00893049 -0.0784571
0.00479426 -0.0778353
-0.00624336 -0.0059168
-0.00635706 -0.00703076
-0.0162038 -0.0692895
-0.0178585 -0.065958
-0.0291887 -0.436818
-0.0323675 -0.443421
0.00719639 -0.0219752
0.00886129 -0.0206554
-0.0122085 -0.0270787
-0.0139702 -0.0256536
0.0114478 -0.0590472
0.011174 -0.0553522
0.0185646 -0.347289
0.0188364 -0.354503
0.00194251 -0.0116621
0.000250862 -0.0119032
-0.0305066 -0.357391
-0.0331677 -0.35079
-0.00754289 -0.0102879
-0.00597284 -0.00911271
0.01072 -0.0165972
0.00881425 -0.0169366
0.000718386 -0.322895
-0.0058356 -0.320851
0.0216222 -0.408528
0.0158701 -0.41288
-0.000143906 -0.0155055
-0.000259519 -0.0176243
0.00149376 -0.00329827
0.000605591 -0.00289956
0.0126925 -0.273979
0.0160092 -0.279852
0.0258336 -0.348308
0.0323516 -0.351278
0.0307935 -0.471429
0.0349076 -0.477497
0.0270756 -0.273859
0.0330472 -0.271135
-0.0309322 -0.465361
-0.0259186 -0.460014
-0.000876236 -0.00196496
-0.000708936 -0.00272746
0.00354338 -0.00279591
0.0043803 -0.00295347
0.00245616 -0.298085
0.00274216 -0.304943
-0.0301668 -0.262302
-0.0291607 -0.255758
-0.029252 -0.166915
-0.0309467 -0.161676
0.00335498 -0.248142
0.00979138 -0.248407
0.0354924 -0.480989
0.0387753 -0.474422
-0.0227589 -0.157471
-0.0193811 -0.161715
0.0267105 -0.131507
0.0252291 -0.136392
-0.0361373 -0.253173
-0.0363724 -0.246685
-0.0277608 -0.461588
-0.0238017 -0.467731
0.00396025 -0.0500346
0.00494894 -0.0468019
0.0195974 -0.230699
0.0158209 -0.22548
0.00122686 -0.00251698
0.000532962 -0.00285831
-0.0155886 -0.384386
-0.00998347 -0.388797
0.000562171 -0.119031
0.00416127 -0.122561
-0.037845 -0.480243
-0.0367454 -0.487507
0.041607 -0.370399
0.035366 -0.366733
-0.00592924 -0.490376
-0.0121437 -0.494172
-0.0120646 -0.0344764
-0.00984801 -0.0321772
-0.025339 -0.104202
-0.0222763 -0.100151
0.0322472 -0.346121
0.0256101 -0.348503
-0.0320704 -0.387609
-0.0333559 -0.380549
0.0122688 -0.0468203
0.0156288 -0.0478275
0.0282112 -0.154258
0.0303734 -0.149404
0.0220917 -0.136044
0.0178539 -0.132652
0.00350976 -0.00974607
0.00445622 -0.0113318
0.027875 -0.449069
0.0253414 -0.455932
-0.0140624 -0.18226
-0.0197188 -0.181013
0.00780478 -0.45603
0.014379 -0.452907
0.0118158 -0.27881
0.00830508 -0.284506
-0.0142765 -0.0338987
-0.0154211 -0.0368555
0.00742059 -0.0081368
0.0062917 -0.00854954
-0.0247111 -0.177451
-0.0300327 -0.180235
-0.00736759 -0.080742
-0.0106428 -0.0836874
0.0230679 -0.109451
0.0211162 -0.104797
0.0133124 -0.0382128
0.0102741 -0.037238
0.00499036 -0.169029
0.010459 -0.170674
-0.026514 -0.481925
-0.0198028 -0.479041
-0.0136204 -0.193889
-0.00769719 -0.194487
-0.00156061 -0.0350952
-0.00436031 -0.0344375
0.00466741 -0.380699
0.000358093 -0.374987
0.00113935 -0.00337423
0.00040899 -0.00395116
-0.0181068 -0.163535
-0.0236354 -0.162824
0.0308275 -0.197307
0.0259573 -0.200659
0.00347814 -0.0856541
-0.000715822 -0.0864533
0.0233295 -0.450218
0.0186622 -0.455835
-0.00724307 -0.0095615
-0.00640356 -0.00802532
-0.0421026 -0.359173
-0.0401563 -0.366034
0.00203118 -0.312734
-0.00433939 -0.310256
0.0140237 -0.420656
0.0212248 -0.420041
0.0237052 -0.369288
0.0219685 -0.362298
-0.0169661 -0.0638732
-0.0192467 -0.0673774
0.00304553 -0.129152
0.00025547 -0.133529
-0.0137225 -0.0941428
-0.0179281 -0.0927272
-0.00510528 -0.278466
-0.00718193 -0.284892
-0.00170017 -0.0163589
-0.00254991 -0.0183717
0.018451 -0.312721
0.0253085 -0.31233
0.0119764 -0.0407135
0.0139713 -0.04356
0.00131327 -0.00170306
0.00133008 -0.00116438
-0.0141241 -0.0815393
-0.0178484 -0.0841356
0.00581845 -0.314596
0.00916345 -0.308577
-0.00282845 -0.0148672
-0.00233944 -0.0168217
0.00893901 -0.173317
0.0138455 -0.176464
-3.27553e-06 5.96463e-07
-0.000303522 -4.90924e-05
0.00139433 -0.00130817
0.000818113 -0.00122002
0.0220062 -0.069724
0.0238817 -0.0736044
0.00189981 -0.00105231
0.00257866 -0.0016738
-0.0308577 -0.377105
-0.0237027 -0.376825
-0.0285596 -0.118235
-0.0295955 -0.12327
0.00149276 -0.00907438
6.95113e-05 -0.00850554
0.0170299 -0.26508
0.0209493 -0.270525
-0.012899 -0.0828835
-0.0128213 -0.078605
0.0192346 -0.389091
0.0127846 -0.392189
0.0208966 -0.0570923
0.0177724 -0.0585086
0.00237264 -0.179501
0.00650259 -0.183667
-0.011171 -0.16359
-0.0101121 -0.158027
0.00865566 -0.267813
0.0150395 -0.266285
-0.0184095 -0.297497
-0.0226147 -0.29225
-0.00478141 -0.175653
-0.00903065 -0.17967
-0.0174054 -0.288837
-0.0194974 -0.282458
-0.000871944 -0.000421346
-0.000978467 -0.000723657
-0.0227481 -0.097473
-0.019058 -0.0999511
0.0219002 -0.26176
0.0233987 -0.2554
0.0365159 -0.447815
0.029434 -0.449542
-0.0188443 -0.0551765
-0.0209858 -0.0585432
0.00252492 -0.00150325
0.00211651 -0.00157116
-0.0121632 -0.445798
-0.00616197 -0.449896
0.00815724 -0.471381
0.00841738 -0.464047
-0.00271521 -0.198963
-0.00731068 -0.202811
-0.00530587 -0.239422
-0.00833373 -0.245148
-0.0338871 -0.287702
-0.0365521 -0.281621
0.015344 -0.0476582
0.0121087 -0.0461674
-0.021095 -0.063638
-0.0190406 -0.0600931
-0.0329644 -0.2877
-0.0262844 -0.286529
0.0179413 -0.437729
0.0110997 -0.440148
-0.00381569 -0.440736
-0.0079072 -0.446792
-0.0111362 -0.439093
-0.00657634 -0.433395
0.0231866 -0.181965
0.0290017 -0.183195
0.0118123 -0.121278
0.00691492 -0.122129
0.000661126 -0.00019967
0.0013102 -0.00052617
0.00268746 -0.0400984
0.00249802 -0.0433025
0.00779851 -0.302574
0.0011238 -0.301313
0.0329996 -0.334237
0.0399394 -0.333245
0.0122287 -0.290873
0.00811578 -0.296236
0.0207 -0.32559
0.0247796 -0.331345
-0.0130282 -0.109286
-0.0152012 -0.113828
0.00227974 -0.0511843
0.000617225 -0.0481197
-0.00196024 -0.235908
-0.00763203 -0.233137
0.00720864 -0.0927208
0.00374866 -0.0955408
-0.0289327 -0.304092
-0.0230826 -0.30039
-0.0128287 -0.124574
-0.0133979 -0.129727
0.00848386 -0.0170095
0.00643517 -0.0159418
0.00337844 -0.18219
-0.000959103 -0.186124
0.000472443 -0.000206013
0.000211873 -1.97688e-05
0.00117122 -0.26346
0.00742524 -0.265492
-0.0100319 -0.0920054
-0.00990531 -0.0875223
-0.0293059 -0.446966
-0.0269947 -0.453895
-0.0298653 -0.224591
-0.0277811 -0.218495
0.000200856 -0.00243598
-0.00060011 -0.00258372
0.014716 -0.154317
0.00995428 -0.15694
-0.0112857 -0.185576
-0.0131173 -0.191283
0.00204452 -0.0154448
0.0034632 -0.017046
-0.0177128 -0.231036
-0.0237417 -0.229319
0.00139897 -0.00168383
0.00167721 -0.00247085
-0.0160879 -0.0934782
-0.0203276 -0.092232
-0.00085378 -0.000327064
-0.000257471 -5.73675e-05
-0.0258525 -0.115108
-0.0290721 -0.111752
-0.00338812 -0.471502
0.000878788 -0.477432
0.0149266 -0.0596766
0.0185891 -0.0594228
0.0264489 -0.395645
0.0201251 -0.392144
-0.0186736 -0.0721656
-0.0191854 -0.0682919
1.95444e-05 -0.409438
0.00643242 -0.406152
-0.00308289 -0.054862
0.000479237 -0.0550494
-0.0023907 -0.182072
0.000995243 -0.177312
0.0286863 -0.275851
0.0240803 -0.270883
0.00243603 -0.00195688
0.00164525 -0.00154601
-0.0298794 -0.227929
-0.0318355 -0.221995
-0.00187448 -0.013748
-0.00225735 -0.0157373
0.0025342 -0.0034298
0.0024288 -0.00435288
-0.0391141 -0.468806
-0.0411557 -0.475861
-0.0233016 -0.128295
-0.0183701 -0.12939
0.0256751 -0.221097
0.025685 -0.214765
0.00821772 -0.0465657
0.0115247 -0.0475296
-0.00301528 -0.155542
0.000837006 -0.159535
0.00119176 -0.00113703
0.00105019 -0.00161452
0.00299668 -0.00417059
0.00252494 -0.00314501
-0.0331962 -0.449969
-0.0364307 -0.456557
-0.00231748 -0.0400468
-0.00209768 -0.036948
-0.0143612 -0.134221
-0.0192632 -0.136394
-0.0130473 -0.053377
-0.0124273 -0.0568408
0.0189097 -0.252764
0.0204378 -0.259189
-0.0019639 -0.43302
0.00286874 -0.427579
0.0149073 -0.277011
0.00840006 -0.275564
-0.000621353 -0.00620146
0.000581816 -0.00667352
-0.0253945 -0.468772
-0.0258036 -0.461451
-0.00326934 -0.0164768
-0.00127474 -0.016655
-0.00150959 -0.00104445
-0.00179372 -0.00100185
0.0236063 -0.282373
0.0186872 -0.286853
-0.00323207 -0.0163993
-0.00388648 -0.0145734
0.00960748 -0.064235
0.0134001 -0.065342
0.00956878 -0.451178
0.00431994 -0.456248
-0.0177135 -0.19
-0.0171873 -0.195965
0.00851509 -0.473027
0.0149857 -0.469661
-0.0130856 -0.432991
-0.016656 -0.439371
0.00654411 -0.265233
0.0131045 -0.264997
0.00439858 -0.00737777
0.00319885 -0.00777023
0.021626 -0.067898
0.0186209 -0.0648846
0.00570306 -0.0149614
0.00502742 -0.0130353
-0.00672745 -0.143831
-0.0014416 -0.14456
-0.00790128 -0.149841
-0.00248425 -0.150054
0.0147908 -0.049743
0.0118017 -0.0476187
-0.000231032 -7.39908e-05
-2.69258e-05 -3.14042e-06
0.00732776 -0.322342
0.0125087 -0.317787
0.00181589 -0.171223
0.00741775 -0.170313
-0.0351283 -0.478141
-0.0423445 -0.476883
0.0133154 -0.451172
0.0205782 -0.450883
0.00188035 -0.0580776
0.00341219 -0.0615519
-0.0091101 -0.418805
-0.0122675 -0.425378
-0.0198725 -0.437205
-0.0228677 -0.443887
-0.0197615 -0.167522
-0.0223918 -0.162662
-0.0258314 -0.339429
-0.0189741 -0.340975
-0.00801004 -0.0301954
-0.00841659 -0.0275168
-0.0152742 -0.0295708
-0.0164339 -0.0324025
0.00357924 -0.0109671
0.00460338 -0.0126112
-0.0126422 -0.0424361
-0.0146633 -0.0453528
-0.0250848 -0.40767
-0.0178948 -0.408102
0.00444227 -0.44136
0.00844339 -0.447463
0.00873005 -0.0373272
0.00755637 -0.0344302
0.0044835 -0.0534174
0.00258813 -0.0564281
0.0356313 -0.270791
0.029257 -0.272449
0.00360833 -0.405636
0.0107789 -0.405144
-0.00210341 -0.0167185
-0.0030909 -0.015018
-0.00963397 -0.0223823
-0.00912186 -0.0199869
-0.0230786 -0.220749
-0.0185833 -0.225016
0.00102289 -0.000866808
0.00052817 -0.000538122
-0.0357248 -0.221576
-0.0366632 -0.215396
-0.025782 -0.289433
-0.0241358 -0.295983
0.0214568 -0.0696395
0.0208128 -0.073499
0.00172645 -0.180717
-0.00405566 -0.180548
1.84079e-05 1.3555e-05
4.20722e-05 -3.88334e-05
-0.0101128 -0.0563638
-0.0109075 -0.0529429
0.00131374 -0.00316666
0.00223212 -0.00326775
9.07528e-05 5.24437e-06
0.000189629 -1.75664e-05
-0.0306547 -0.308626
-0.0370324 -0.306282
-0.0176416 -0.125244
-0.0137518 -0.128316
0.0133938 -0.32574
0.00931482 -0.331379
0.000776874 -0.375721
0.005619 -0.380985
-0.0185738 -0.0571579
-0.0156265 -0.0588845
-0.0064498 -0.00781796
-0.00570891 -0.00643153
0.0202077 -0.391756
0.026351 -0.395571
0.00321983 -0.013119
0.00146266 -0.0134687
-0.00458858 -0.00676382
-0.00557531 -0.00813387
0.00110729 -0.117307
-0.00381896 -0.116698
-0.0156794 -0.082654
-0.0119777 -0.0845929
-0.00137038 -0.454627
0.00521436 -0.451534
-0.00425409 -0.00780046
-0.00522848 -0.00720578
0.0156634 -0.0404617
0.0140938 -0.0374926
0.00287928 -0.15594
-0.00171427 -0.159037
0.0169165 -0.0681507
0.0129943 -0.0671864
0.009939 -0.0610246
0.0106216 -0.0648643
-0.00378853 -0.0375816
-0.00663752 -0.0369404
-0.00389443 -0.0124891
-0.005249 -0.0116607
-0.0185594 -0.15731
-0.0240911 -0.157198
-0.0230279 -0.219797
-0.020696 -0.2256
0.0184084 -0.489586
0.0124137 -0.493767
0.007217 -0.0129122
0.00906 -0.0130657
-0.0139541 -0.196469
-0.0113304 -0.201882
-0.0189434 -0.156388
-0.0235486 -0.159821
-0.000482482 -0.0540392
-0.00397806 -0.0535713
-0.0166938 -0.138416
-0.0154027 -0.143536
0.0293044 -0.267987
0.0356253 -0.270276
0.0295721 -0.209708
0.0272471 -0.215406
-0.000964006 -0.0064731
-7.66653e-05 -0.00550233
-0.000679277 -0.000839124
-0.000753248 -0.000519119
0.000120756 -0.0148319
0.00109159 -0.0166473
-0.015219 -0.384004
-0.0179382 -0.390707
-0.00334145 -0.306572
-0.00831623 -0.311323
0.000270569 -0.00269526
0.000727782 -0.00207554
-0.0339999 -0.383471
-0.0288089 -0.378409
0.00857477 -0.0865228
0.00706965 -0.0906539
0.015348 -0.366653
0.0182924 -0.373215
-0.00471533 -0.00361192
-0.0058953 -0.00457906
0.00933914 -0.111019
0.0140527 -0.112357
-0.0127298 -0.230945
-0.0068381 -0.233051
-0.00142451 -0.00379438
-0.00218225 -0.00477658
-0.0239752 -0.417598
-0.0169181 -0.419105
-0.0062841 -0.203061
-0.0102869 -0.207781
-0.012231 -0.268756
-0.0188104 -0.269446
-0.000739161 -0.00249901
-0.000222232 -0.00316462
0.00202638 -0.038015
-0.000720375 -0.036687
0.0094101 -0.389212
0.00258337 -0.391327
-0.0141166 -0.0224068
-0.0133976 -0.0244237
0.0242299 -0.117359
0.0219063 -0.121594
0.000258223 -0.00141431
-0.000352102 -0.00154281
0.00439913 -0.189267
0.00910129 -0.185767
-0.00455974 -0.122288
0.000455861 -0.122093
-0.0178035 -0.489172
-0.0228382 -0.494493
0.0111978 -0.0243772
0.0100376 -0.0263971
0.0130907 -0.078492
0.00964678 -0.0758741
0.0161719 -0.0547838
0.0138689 -0.0517194
-0.0142231 -0.176731
-0.0146526 -0.170974
0.0154536 -0.0318238
0.013756 -0.0291672
-0.0313695 -0.346812
-0.0243972 -0.347934
-0.0263745 -0.45035
-0.0206713 -0.445773
-0.0229144 -0.282151
-0.0277946 -0.286946
0.0229435 -0.134787
0.0227212 -0.140058
-0.0277063 -0.133136
-0.0241083 -0.136614
-0.00114911 -0.000542261
-0.00157802 -0.000752178
0.0287419 -0.200639
0.0323997 -0.205823
0.0139802 -0.116289
0.0162661 -0.120898
-0.0246281 -0.362141
-0.0258538 -0.355082
-0.00182573 -0.446739
0.00450906 -0.443167
-0.023681 -0.136865
-0.0204468 -0.140816
0.0197484 -0.303377
0.0265479 -0.30415
0.00193033 -0.123012
-0.00306552 -0.123662
0.0152624 -0.0614378
0.014374 -0.0576974
-0.00780484 -0.011354
-0.00816003 -0.0100444
-0.0274065 -0.270293
-0.0315981 -0.275644
-0.0146555 -0.0728193
-0.0151242 -0.0688792
-0.0247433 -0.340781
-0.0231186 -0.347716
0.000630227 -0.000269817
0.000299505 -4.68845e-05
0.015927 -0.0469922
0.012683 -0.0474047
0.00123517 -0.000705739
0.00147438 -0.000689927
0.0171745 -0.303386
0.0239647 -0.302886
0.00300097 -0.274928
-0.00335772 -0.273062
0.0395986 -0.3674
0.04161 -0.360538
0.0427945 -0.444768
0.0362333 -0.441519
0.00381783 -0.17386
0.00709236 -0.178686
-0.0312665 -0.3993
-0.0247695 -0.40234
-0.0302892 -0.274526
-0.033176 -0.268646
-0.0215321 -0.369436
-0.0187167 -0.375982
-0.0220921 -0.227334
-0.0265731 -0.232044
-0.00594134 -0.0142623
-0.00401999 -0.013755
-0.0389564 -0.396051
-0.0383275 -0.388849
-0.00888673 -0.037417
-0.0111892 -0.0358988
-0.0243833 -0.0764921
-0.020896 -0.0736553
0.00853532 -0.0139347
0.00678095 -0.0142419
0.0241504 -0.0800466
0.0239525 -0.0758617
0.0305504 -0.182689
0.0247009 -0.181711
-0.0235608 -0.164729
-0.0223667 -0.170223
0.0142553 -0.0572328
0.0142292 -0.0609432
0.0141532 -0.224213
0.0184867 -0.228953
-0.0213301 -0.0629574
-0.0216652 -0.0668287
-0.0109139 -0.124736
-0.00588583 -0.124144
-0.0107858 -0.255844
-0.00575201 -0.251646
-0.00415614 -0.383215
-0.0112456 -0.382637
0.0138205 -0.197718
0.0181341 -0.202148
-0.000670758 -0.0133777
-0.00108196 -0.0115928
-0.0217667 -0.217374
-0.0162839 -0.214096
-0.00514288 -0.197243
-0.000150646 -0.194041
0.0159276 -0.0293919
0.014749 -0.02666
0.00158465 -0.00763736
0.000577428 -0.0065923
0.00722192 -0.0320638
0.00732392 -0.0349529
-0.012904 -0.203346
-0.00755982 -0.206268
-0.00466488 -0.0836778
-0.00260578 -0.0798678
0.0193778 -0.0585244
0.0187906 -0.0548517
0.0365908 -0.246585
0.0336658 -0.240666
-0.0275383 -0.322986
-0.0249001 -0.329402
-0.0278019 -0.109074
-0.0230382 -0.107415
-0.00951735 -0.185521
-0.00392256 -0.183762
-0.0098733 -0.0401097
-0.0068172 -0.040306
0.0165457 -0.168896
0.0194458 -0.164144
0.0100273 -0.494482
0.0028163 -0.493702
-0.042298 -0.420027
-0.0388004 -0.4136
0.011931 -0.173377
0.0175893 -0.174553
0.0103928 -0.326123
0.0166098 -0.323103
-0.00504053 -0.00987076
-0.00494945 -0.0114705
0.0122799 -0.490331
0.0172179 -0.495717
-0.0218533 -0.447592
-0.0274963 -0.443012
-0.000700809 -0.409369
-0.00789245 -0.409168
0.00703618 -0.0362306
0.00853603 -0.0339199
0.0134924 -0.182432
0.0163061 -0.187711
0.00666893 -0.365296
0.0120506 -0.369958
0.0221931 -0.225861
0.025175 -0.231607
0.00356803 -0.00202891
0.00410059 -0.00271905
0.00535404 -0.0516628
0.00777045 -0.0544318
-0.00863317 -0.0276353
-0.00919214 -0.0251445
0.000244504 -0.00879818
-0.000587305 -0.0075695
-0.0333003 -0.179564
-0.0281927 -0.182041
0.00662256 -0.374258
0.0137277 -0.374446
0.00390112 -0.00274388
0.00311961 -0.00195138
-0.00711156 -0.443653
-0.00827065 -0.450887
-0.0172203 -0.40247
-0.0114414 -0.406742
-0.0338133 -0.333103
-0.0286281 -0.337736
-0.0254935 -0.311145
-0.0217199 -0.316856
-0.0252236 -0.141661
-0.0272416 -0.136938
-0.0296479 -0.312911
-0.0344612 -0.308132
0.0144004 -0.422081
0.0184213 -0.416045
-0.0162384 -0.233586
-0.0201959 -0.238744
-0.0356477 -0.487543
-0.0361406 -0.480211
0.0085222 -0.044598
0.00678385 -0.0416839
0.00148392 -0.0166869
0.00327253 -0.0158847
-0.0281619 -0.373071
-0.0270837 -0.365957
-0.0233545 -0.0846127
-0.0236277 -0.0890297
-0.0215333 -0.336439
-0.0171906 -0.330817
0.0226199 -0.405575
0.0169789 -0.401028
-0.0254832 -0.0877226
-0.0231632 -0.0836434
0.0360765 -0.274554
0.0377305 -0.281123
0.0237479 -0.452757
0.0306431 -0.455142
-0.00535752 -0.293369
-0.0103173 -0.298053
0.0140523 -0.172788
0.0172334 -0.168145
0.00477858 -0.0133996
0.00577613 -0.0121274
-0.00651105 -0.407242
0.000221627 -0.409781
0.0210257 -0.198456
0.0172272 -0.203078
-0.011389 -0.201205
-0.00659571 -0.19749
-0.0265071 -0.205119
-0.0251636 -0.19904
-0.0130681 -0.102188
-0.017082 -0.0999754
0.00635396 -0.0602039
0.00911775 -0.062985
0.0185167 -0.132346
0.0208747 -0.137211
-0.0118628 -0.0242963
-0.00959999 -0.024907
-0.00325551 -0.0108232
-0.0016384 -0.0110455
-0.0143053 -0.115022
-0.0140062 -0.110094
0.0214628 -0.27026
0.0169312 -0.275031
0.000750846 -0.00542569
-1.50561e-05 -0.0064148
-0.0169315 -0.0905885
-0.0165658 -0.0861164
-0.00407519 -0.0730052
-0.00162325 -0.0762744
-0.0127829 -0.141468
-0.0180324 -0.140897
-0.0188984 -0.272319
-0.0162114 -0.26617
0.00602656 -0.0200667
0.00640441 -0.0179568
0.0314947 -0.417887
0.0242691 -0.417353
-0.013167 -0.178267
-0.00900663 -0.174128
0.00292464 -0.0799643
0.000421977 -0.0765599
0.0150472 -0.146246
0.0129597 -0.1512
0.0299178 -0.227622
0.0252994 -0.223058
0.033091 -0.274978
0.0306277 -0.281124
0.0101236 -0.0614836
0.00667215 -0.0597578
-0.0342295 -0.306218
-0.0366271 -0.299889
-0.0370653 -0.368133
-0.0368465 -0.360952
0.0187771 -0.228473
0.0234708 -0.232939
0.00680849 -0.476261
0.00343695 -0.469768
0.0202613 -0.406853
0.0272519 -0.408709
-0.0044252 -0.0189018
-0.00663562 -0.0197591
0.0224269 -0.0699689
0.0203918 -0.0662497
-0.0278127 -0.235962
-0.028611 -0.229659
0.00904934 -0.0153108
0.00729254 -0.0158236
-0.0112777 -0.0439633
-0.0144428 -0.0454287
-0.0189357 -0.144703
-0.0233489 -0.141971
0.00813468 -0.0628723
0.00484705 -0.0646567
0.00339421 -0.0833926
0.00765258 -0.0834489
0.00888683 -0.0381923
0.0075033 -0.0408086
-0.0165959 -0.135174
-0.0218231 -0.136042
0.0035274 -0.00552413
0.00476888 -0.00643748
0.0144949 -0.0637829
0.0106946 -0.0639527
-0.0042341 -0.0806621
-0.005655 -0.076712
0.0130381 -0.205355
0.00697509 -0.204514
-0.000531559 -0.000185054
-0.000494357 -0.000242367
0.0070253 -0.00730418
0.00565635 -0.00619757
-0.0105073 -0.411404
-0.0122624 -0.418472
0.0253416 -0.399615
0.0306465 -0.404578
0.025976 -0.410905
0.0331595 -0.410128
0.00277575 -0.00132852
0.00204052 -0.000898303
0.0169954 -0.0870087
0.0129192 -0.0884158
-0.0052819 -0.26249
-0.00127453 -0.25726
0.0316697 -0.320795
0.0385715 -0.320145
0.0388641 -0.351153
0.0317464 -0.351354
-0.003064 -0.480068
0.0024544 -0.475286
-0.00525606 -0.133603
-0.00818286 -0.138062
0.0208044 -0.411995
0.0165026 -0.406141
0.00969223 -0.013319
0.00812993 -0.0117343
0.0119433 -0.436663
0.00643863 -0.431911
0.00510729 -0.00352459
0.00495187 -0.00410716
-0.0250306 -0.398848
-0.0293619 -0.404697
0.0107213 -0.0585636
0.0141081 -0.0575044
0.000742446 -0.000252563
0.00128613 -0.000538955
-0.00435319 -0.0441996
-0.00533039 -0.0474614
0.0286608 -0.446917
0.0219629 -0.44404
0.000182975 -9.47664e-05
5.04947e-05 1.479e-05
0.0112118 -0.257726
0.0128751 -0.264141
-0.0338376 -0.216823
-0.0276553 -0.215409
-0.0104208 -0.362221
-0.0157072 -0.357551
0.0102639 -0.147485
0.0146915 -0.150823
0.0156422 -0.102396
0.0181736 -0.0985885
-0.00160252 -0.15862
-0.00192473 -0.164258
0.00181453 -0.00689624
0.00270195 -0.00612024
0.0311805 -0.416508
0.0375929 -0.413179
0.00156854 -0.0565544
0.00136622 -0.0602824
-0.015379 -0.0946728
-0.019207 -0.0977284
-0.0100861 -0.105844
-0.0100355 -0.110732
0.00130748 -0.00734751
0.000424915 -0.00624147
-0.022876 -0.16177
-0.0194685 -0.157116
-0.00727589 -0.0545824
-0.00562414 -0.0513115
-0.0420756 -0.339569
-0.0352449 -0.341251
0.0394773 -0.490631
0.0321809 -0.489846
0.00530998 -0.486333
0.0121962 -0.48397
4.09737e-05 -0.389363
-0.00441846 -0.383746
0.00817723 -0.332771
0.0137311 -0.328596
0.0181335 -0.464735
0.013622 -0.4705
-0.00280257 -0.0446541
-0.000221947 -0.0426362
-0.00289544 -0.010999
-0.00238387 -0.0126319
0.0222943 -0.110196
0.0223567 -0.115133
0.0112573 -0.374297
0.00426094 -0.375466
-0.00543713 -0.00566687
-0.00477846 -0.00627847
-0.0177129 -0.126291
-0.0228316 -0.126899
-0.00212174 -0.00107119
-0.00134666 -0.000616754
-0.00736762 -0.113029
-0.00568394 -0.117638
-0.0223765 -0.281822
-0.0163947 -0.284716
-0.0130738 -0.332571
-0.0146502 -0.33947
-0.000364326 -0.189406
0.00464235 -0.186345
-0.0268178 -0.437959
-0.0278581 -0.445205
0.0163222 -0.0484494
0.0197268 -0.0498304
-0.00505453 -0.382296
0.000510737 -0.386777
0.00487598 -0.0121117
0.00317629 -0.0113239
0.00632756 -0.00640571
0.00534262 -0.00517024
-0.0114924 -0.0437552
-0.0145437 -0.0431693
0.0193871 -0.264054
0.0201871 -0.27067
-0.0427113 -0.457719
-0.0430341 -0.465041
0.00707374 -0.161206
0.0125568 -0.162417
-0.0226108 -0.219522
-0.0213986 -0.225704
0.0337707 -0.384074
0.0331545 -0.376891
0.0146271 -0.172542
0.0155702 -0.178305
0.00128087 -0.0808192
0.00342859 -0.0771996
0.0106524 -0.399904
0.0095662 -0.392745
0.000774308 -0.000402214
0.00037792 -0.000162371
0.0166749 -0.11521
0.0216143 -0.116105
-0.000785365 -0.0753318
-0.000918011 -0.0795551
-0.0332672 -0.165557
-0.0278078 -0.163537
0.00299251 -0.368431
-0.00282502 -0.372466
-0.0041472 -0.247273
0.000206379 -0.242501
-0.00488842 -0.0644362
-0.00395716 -0.068231
-6.69302e-05 1.59863e-05
-0.000226709 -2.24024e-05
0.00164645 -0.19349
-0.00414164 -0.194534
-0.00922569 -0.372558
-0.0138221 -0.367169
-0.00955746 -0.0387761
-0.0100068 -0.0358706
-0.0167157 -0.232644
-0.0227964 -0.231069
0.000987249 -0.159752
-0.00057542 -0.154392
0.01872 -0.0979986
0.0181001 -0.102667
-0.000961505 -0.0112408
-0.00254094 -0.0121035
-0.0147179 -0.459195
-0.00745943 -0.458842
0.00986968 -0.0132396
0.00816642 -0.0134584
-0.0274299 -0.446508
-0.0290101 -0.439379
-0.00769755 -0.156067
-0.0129564 -0.154603
-0.0177624 -0.136465
-0.0125377 -0.136705
0.00218231 -0.0211919
0.000357249 -0.0224075
-0.00218986 -0.121788
0.00282539 -0.121886
-0.0212082 -0.0818236
-0.0202991 -0.0775738
-0.028684 -0.248063
-0.0231837 -0.251285
0.0135635 -0.22456
0.0163286 -0.230349
-0.0029913 -0.00246988
-0.00332779 -0.0032973
0.0194941 -0.40354
0.0181522 -0.410664
0.00509877 -0.0547015
0.00378933 -0.0580683
-0.00385574 -0.00355238
-0.00291262 -0.00338762
-0.00357344 -0.191595
-0.00572213 -0.186057
0.0272813 -0.172172
0.0285828 -0.177901
0.00319974 -0.0815984
0.00318848 -0.0773288
0.0252415 -0.380768
0.0276069 -0.374006
-0.00700561 -0.0253452
-0.00933004 -0.0271469
-0.0149589 -0.439148
-0.0186287 -0.445479
0.0192849 -0.125532
0.0177619 -0.130349
0.00455949 -0.006855
0.00393843 -0.0055423
0.0110279 -0.291981
0.00475548 -0.294436
0.00172529 -0.27323
0.00746959 -0.276605
-0.029127 -0.381713
-0.0342665 -0.376795
0.0163633 -0.0637018
0.0129259 -0.0615902
-0.0259773 -0.0996664
-0.0247574 -0.104109
-0.030883 -0.418758
-0.0343603 -0.412424
0.0189853 -0.0560429
0.0162945 -0.0531763
0.0311115 -0.438686
0.0241762 -0.440862
-0.00482507 -0.0192763
-0.00266635 -0.0186723
0.0160852 -0.212239
0.0168186 -0.218578
0.008464 -0.0650452
0.00677507 -0.0685007
-0.00819896 -0.251844
-0.00201047 -0.249927
0.0298243 -0.268769
0.0232617 -0.269454
0.0124159 -0.0175835
0.0105123 -0.01587
-0.00614085 -0.010519
-0.00459806 -0.00942319
0.00303867 -0.458973
-0.00302935 -0.454959
0.035927 -0.321089
0.0300037 -0.317289
-0.0183115 -0.110546
-0.0202822 -0.106267
0.0373993 -0.269135
0.0311451 -0.266648
-0.00810327 -0.0274156
-0.0103151 -0.026381
0.00412507 -0.142859
0.00559081 -0.148107
0.0336087 -0.447887
0.038024 -0.453735
0.0306222 -0.216165
0.0304013 -0.222481
0.0385894 -0.266482
0.033971 -0.261533
-0.01555 -0.0307908
-0.0167387 -0.0336547
-0.0183353 -0.459908
-0.024817 -0.463272
-0.0025522 -0.00591579
-0.00259373 -0.00724346
0.0135054 -0.062335
0.0160776 -0.0599143
0.00252206 -0.184492
0.00663925 -0.180368
-0.0435187 -0.397833
-0.0388431 -0.392236
0.0186045 -0.0629925
0.015956 -0.0654083
-0.021041 -0.445444
-0.0204835 -0.452743
-0.00263596 -0.436162
-0.00985749 -0.43563
0.035766 -0.465084
0.0352778 -0.472402
0.0131901 -0.0399361
0.0109972 -0.0418251
-0.029025 -0.410611
-0.0284416 -0.417851
0.00985463 -0.0114141
0.00858095 -0.0120123
0.0126413 -0.0773417
0.00899676 -0.079168
-0.00153348 -0.0100137
-0.00231466 -0.0116229
0.0207807 -0.0653571
0.0222653 -0.0692288
0.00497739 -0.00572132
0.00409219 -0.00455571
0.0327595 -0.262721
0.0315671 -0.269191
0.0282276 -0.175087
0.0262142 -0.180412
-0.00779159 -0.39735
-0.0116931 -0.391312
-0.0074957 -0.294165
-0.00463868 -0.287985
0.0248838 -0.400682
0.0188226 -0.404551
-0.0380381 -0.280729
-0.0360234 -0.287069
-0.0201151 -0.0533399
-0.0179398 -0.0501534
0.000561285 -0.0368826
-0.00190417 -0.0351468
0.00890208 -0.0842481
0.0092273 -0.0886567
0.00162157 -0.00479348
0.000545351 -0.00498932
-0.00360121 -0.0179319
-0.00521091 -0.0196497
-0.0309372 -0.217306
-0.0252337 -0.219639
0.00300951 -0.0045348
0.00344846 -0.00574107
0.00559011 -0.00467955
0.00440159 -0.00427365
-0.0113017 -0.210192
-0.00753077 -0.205161
0.0143974 -0.281267
0.0136091 -0.274584
0.0375532 -0.48686
0.0410015 -0.493365
-0.00750271 -0.0800541
-0.00332347 -0.0803492
-0.0358862 -0.287417
-0.0293613 -0.285439
0.00288412 -0.12809
-0.00218636 -0.127513
0.0156573 -0.0665741
0.0119798 -0.064859
0.0228056 -0.29268
0.0208378 -0.286144
-0.0247511 -0.307196
-0.0315768 -0.306684
0.0162752 -0.0832874
0.0144335 -0.0870838
-0.00295965 -0.00163735
-0.00337375 -0.00216048
0.000324814 -0.48243
-0.000807243 -0.475183
0.000492822 -0.00249769
-8.41527e-05 -0.0031472
-0.0121112 -0.0724165
-0.0138844 -0.0763042
0.00681209 -0.309063
0.00107585 -0.305333
0.0162121 -0.384288
0.0189772 -0.390968
-0.0184632 -0.0587013
-0.0149279 -0.0593292
-0.0149242 -0.413644
-0.0123804 -0.406826
0.020267 -0.177286
0.0223401 -0.182862
0.0415163 -0.455359
0.0403914 -0.462595
-0.00277883 -0.253432
0.0015911 -0.248617
-0.0310416 -0.184598
-0.0327363 -0.179127
0.00434257 -0.141706
0.00875912 -0.138857
-0.0201134 -0.111989
-0.0194075 -0.116819
0.024764 -0.0978236
0.0265834 -0.0938246
-0.0141756 -0.162402
-0.0196166 -0.161341
0.0232275 -0.151886
0.0274197 -0.148695
0.00851039 -0.0724638
0.0125119 -0.073464
-0.0221545 -0.408647
-0.0217146 -0.415899
0.00997862 -0.0740667
0.0126141 -0.0711768
-0.0172493 -0.0690081
-0.0208024 -0.0714481
0.000996576 -0.015405
0.000858529 -0.0175092
-0.00778893 -0.0442987
-0.0110442 -0.0444741
-0.0351435 -0.316651
-0.0342434 -0.323521
-0.00820178 -0.0523031
-0.00629488 -0.0492218
-0.0130842 -0.0813583
-0.0162341 -0.0788103
-0.0169622 -0.3802
-0.0144752 -0.386921
-0.0376773 -0.322263
-0.0307297 -0.321471
0.0344836 -0.187066
0.0322182 -0.192405
0.00118922 -0.000745092
0.00135596 -0.000648913
0.028418 -0.402144
0.0275955 -0.409343
0.00408008 -0.11623
0.00827904 -0.113813
-0.000934827 -0.145998
0.00394488 -0.148325
0.0057464 -0.178988
0.00465653 -0.184766
0.0164847 -0.326829
0.0213508 -0.331908
0.0201619 -0.233436
0.0160826 -0.238243
-0.0159553 -0.466956
-0.0212905 -0.471961
-0.0360506 -0.433591
-0.0341996 -0.440639
0.0262427 -0.493714
0.0323706 -0.489686
0.030195 -0.399605
0.0292418 -0.406779
-0.012993 -0.390307
-0.0188355 -0.394549
-0.0275559 -0.202204
-0.0235303 -0.206632
0.0158912 -0.152045
0.0179542 -0.147088
-0.00949395 -0.0169733
-0.00883147 -0.0149191
-0.000851017 -0.0507867
-0.000272612 -0.0543008
0.00182342 -0.00337649
0.00259714 -0.00316616
0.0274215 -0.139629
0.0258825 -0.134435
-0.0156005 -0.252011
-0.0220358 -0.253052
0.00572453 -0.0073044
0.00708673 -0.00742302
-0.0179863 -0.216777
-0.0176275 -0.210429
0.0280488 -0.3743
0.021985 -0.370411
0.0362104 -0.206633
0.0324532 -0.201471
-0.0138938 -0.202313
-0.0183384 -0.206773
0.0262508 -0.455598
0.0217451 -0.461356
0.0114962 -0.03405
0.00858469 -0.0337697
-0.000937804 -0.0747956
-0.00321398 -0.0783266
0.0234802 -0.132061
0.0185695 -0.129986
0.00861864 -0.12109
0.0131557 -0.123463
-0.00180444 -0.0111283
-0.000900978 -0.0126018
-0.0245874 -0.121557
-0.0277201 -0.117978
-0.0274588 -0.466705
-0.0304689 -0.460039
0.0394854 -0.450819
0.0321973 -0.451257
0.0414932 -0.452452
0.0342167 -0.453115
-0.0354851 -0.257975
-0.0322968 -0.263582
-0.0183137 -0.432074
-0.0255644 -0.432154
0.000565296 -0.130577
-0.000968542 -0.135595
-0.0334928 -0.424806
-0.0347389 -0.432006
-0.0178997 -0.206001
-0.0175402 -0.199838
0.0215336 -0.27137
0.0226532 -0.277997
-0.000681827 -0.0521331
-0.00309693 -0.0548033
0.0120582 -0.159331
0.0174811 -0.160846
0.0159079 -0.118436
0.0163773 -0.113517
0.00430116 -0.272132
0.00913263 -0.276755
-0.00689613 -0.374957
-0.00578745 -0.382047
-0.0207733 -0.131612
-0.0174943 -0.135444
-0.0173416 -0.044204
-0.0142186 -0.042553
0.0172099 -0.172512
0.0114932 -0.172121
-0.0185944 -0.117828
-0.0235823 -0.117943
-0.015032 -0.30553
-0.0138116 -0.29876
-0.0129966 -0.23068
-0.0159176 -0.236431
0.0107285 -0.396489
0.00367147 -0.395223
0.00695389 -0.190115
0.00574624 -0.184283
0.00124403 -0.0725215
-0.00145043 -0.069526
-0.00772102 -0.0200675
-0.00783799 -0.0224272
-0.0204071 -0.29324
-0.0201755 -0.28645
0.00123124 -0.000563314
0.00083842 -0.000283789
-0.0149132 -0.397719
-0.0220058 -0.398931
-0.00708085 -0.274028
-0.00707278 -0.267356
-0.00359968 -0.00270278
-0.0033937 -0.00318637
0.0285329 -0.271077
0.031831 -0.265439
-0.0427018 -0.36162
-0.0373358 -0.366254
-0.00798028 -0.0102798
-0.00633464 -0.010024
-0.0375535 -0.29859
-0.0361412 -0.305233
0.000429939 -0.000803673
0.000954024 -0.00102533
-0.00273577 -0.118288
0.00219654 -0.118976
-0.000730893 -0.000257934
-0.00119891 -0.00052528
-0.0103821 -0.0230706
-0.00917369 -0.024955
-0.000503994 -0.00166158
-0.00118798 -0.00210361
-0.0205821 -0.442885
-0.0204944 -0.435572
0.00858818 -0.436721
0.00222192 -0.433242
0.00409404 -0.076681
0.000983751 -0.0794321
-0.0232518 -0.290895
-0.0277096 -0.285948
-0.000393064 -0.00162105
-7.4188e-06 -0.0010786
-0.0259602 -0.367643
-0.0269341 -0.36055
0.0232337 -0.240496
0.0258568 -0.246507
0.0149004 -0.0554897
0.0113624 -0.0543188
0.0270722 -0.189401
0.0259063 -0.18352
-0.0385856 -0.460802
-0.0424074 -0.467076
0.0170081 -0.0773971
0.0129086 -0.0761831
-0.00693611 -0.0260157
-0.00758021 -0.0236146
-0.0227104 -0.0718777
-0.0231678 -0.0759864
-0.000909142 -0.000393901
-0.000267196 -7.28084e-05
0.0307228 -0.138085
0.0257894 -0.139619
-0.0124872 -0.27319
-0.0074169 -0.277444
0.0137178 -0.0715574
0.00993478 -0.0726744
-0.010561 -0.111299
-0.0124874 -0.106949
0.0325968 -0.198419
0.0294667 -0.203465
-0.000759353 -0.002398
-0.000323253 -0.00168117
0.0211209 -0.371274
0.0281479 -0.370024
-0.016836 -0.0654369
-0.0200838 -0.0681671
-0.00994 -0.136735
-0.00524398 -0.138991
-0.0187523 -0.148944
-0.0204598 -0.14391
-0.00712084 -0.464253
-0.00061047 -0.460985
-0.00740505 -0.0385469
-0.00919762 -0.0413357
-0.0341975 -0.428383
-0.0271748 -0.430167
0.0256212 -0.363751
0.0286197 -0.370316
0.0311123 -0.148355
0.0294246 -0.153406
0.0326672 -0.343898
0.0397518 -0.343631
-0.0275418 -0.467095
-0.0298331 -0.460143
-0.00744016 -0.0274019
-0.00658195 -0.0299208
-0.003037 -0.37161
-0.00416696 -0.378687
-0.0214266 -0.113301
-0.0250416 -0.110354
0.00566206 -0.0102302
0.00738972 -0.0107885
0.000439013 -0.000588648
0.000292033 -0.00100956
-0.000140421 -0.15208
0.00473416 -0.154621
0.019748 -0.16572
0.0238374 -0.169922
0.0180261 -0.198899
0.0185971 -0.205029
-0.00268666 -0.296787
-0.000909456 -0.303399
0.0014453 -0.446073
0.00208617 -0.438782
0.000290319 -6.33318e-05
0.000196262 -6.49463e-05
-0.0018466 -0.015926
-0.00193937 -0.0180657
0.0346703 -0.458972
0.0284989 -0.455046
-0.022568 -0.0728668
-0.0235477 -0.0770009
0.0280228 -0.346833
0.0350415 -0.345969
0.0335976 -0.333002
0.0381307 -0.327775
0.011338 -0.192793
0.01667 -0.19565
-0.00430309 -0.257022
-0.00341345 -0.263556
0.00365996 -0.380818
-0.00108008 -0.375472
-0.0231226 -0.144451
-0.0238302 -0.139204
-0.00141411 -0.0072829
-0.00281034 -0.00764196
0.000113543 -0.000105731
0.000194377 -0.000410244
-0.000810384 -0.0717831
0.000835315 -0.0755594
-0.00899391 -0.0293075
-0.0106488 -0.0274796
0.00425384 -0.0041213
0.00531276 -0.00517518
0.0338188 -0.488705
0.0376641 -0.494978
-0.0237233 -0.2618
-0.0283834 -0.266653
0.000479406 -0.131623
-0.00467619 -0.131927
0.037784 -0.404392
0.0412949 -0.398109
-0.00193745 -0.374631
-0.0086355 -0.376989
0.0325838 -0.441488
0.0253161 -0.441076
-0.00295133 -0.0221333
-0.00524075 -0.0232829
0.00421059 -0.393416
0.00221068 -0.386479
-0.0261969 -0.286043
-0.026568 -0.279325
0.0144668 -0.154307
0.016294 -0.149202
0.0126156 -0.0389839
0.0141424 -0.0420004
-0.0205936 -0.330795
-0.0266501 -0.3345
-0.0242372 -0.229434
-0.0211919 -0.223735
-0.0134092 -0.121502
-0.0124239 -0.126451
-0.000307227 -0.000209336
-0.000617295 -0.000319478
-0.0191754 -0.120515
-0.0181146 -0.125391
0.0305756 -0.36704
0.0301607 -0.359854
-0.0107077 -0.101369
-0.00996536 -0.106162
0.0168888 -0.0974395
0.0156772 -0.10194
0.00183215 -0.00463937
0.000753154 -0.00430755
-0.0209818 -0.47724
-0.0200856 -0.469955
0.0375331 -0.434059
0.0391991 -0.441183
0.0109973 -0.154131
0.016402 -0.153395
-0.00280385 -0.0499274
-0.00291433 -0.0534687
0.00113647 -0.0114024
0.0027183 -0.0122932
0.0180768 -0.198194
0.0237212 -0.196263
0.0154658 -0.410661
0.021516 -0.414656
0.0270392 -0.156873
0.0281951 -0.162438
-0.00345043 -0.0546799
-0.0069953 -0.0544975
-0.0199114 -0.3602
-0.0170466 -0.353567
-0.0180889 -0.177035
-0.0226659 -0.17374
-0.0129885 -0.240773
-0.0119545 -0.23441
0.0156167 -0.0565394
0.0146741 -0.059967
0.0129246 -0.422263
0.00907935 -0.416089
-0.00632913 -0.0173591
-0.00429447 -0.0176789
-0.00778383 -0.0605449
-0.00449271 -0.0586154
-0.00983494 -0.494965
-0.0169673 -0.496433
0.0297302 -0.287102
0.0232954 -0.284931
-0.0172479 -0.157403
-0.0227327 -0.156911
0.0391068 -0.349409
0.0392454 -0.356585
-0.0255401 -0.117503
-0.0285588 -0.121862
-0.0254983 -0.276216
-0.0311813 -0.279958
-0.007015 -0.157977
-0.00271308 -0.154429
0.0200827 -0.441173
0.0167961 -0.447695
0.0368858 -0.266848
0.0310203 -0.263529
-0.00293267 -0.00383818
-0.00321907 -0.00319419
0.000441465 -0.000124766
0.00102757 -0.000380193
-0.0131843 -0.149329
-0.018607 -0.149283
0.0126269 -0.03487
0.0105238 -0.0324485
-0.000213821 -0.183784
-8.95688e-05 -0.189732
0.00536041 -0.425778
-0.00183905 -0.426416
-0.0260404 -0.323746
-0.0270788 -0.316889
-0.00407006 -0.00280131
-0.00313371 -0.00240155
-0.00715477 -0.0771642
-0.00915419 -0.0810036
0.0307475 -0.130282
0.0255499 -0.1295
0.0209906 -0.437204
0.0228521 -0.444278
0.000898649 -0.264214
0.00725713 -0.262651
-0.0261727 -0.17904
-0.0226692 -0.183525
0.023874 -0.115543
0.0191797 -0.116783
-0.0252787 -0.252078
-0.01881 -0.251308
-0.0245136 -0.307734
-0.0289389 -0.302613
0.0035499 -0.0468187
0.000251435 -0.0463854
-0.0330708 -0.344962
-0.0267246 -0.347987
-0.0229555 -0.241388
-0.0165484 -0.241278
-0.000388373 -0.178008
0.00461163 -0.180961
0.0154187 -0.0330148
0.0130633 -0.030791
0.0174066 -0.375956
0.0243303 -0.377832
-0.0409027 -0.331317
-0.0342145 -0.33328
-0.00709989 -0.194916
-0.0103883 -0.189966
-0.0101918 -0.0658202
-0.00633158 -0.065254
0.00692954 -0.0635009
0.00544604 -0.0670372
0.0165224 -0.10711
0.0180982 -0.102651
0.0113949 -0.33997
0.0157077 -0.34568
0.0326344 -0.286578
0.0341554 -0.293241
-0.00398285 -0.462483
-0.00113569 -0.45573
0.0036252 -0.00953718
0.00475118 -0.00878706
-0.00290502 -0.425132
0.00417794 -0.426567
-0.0137373 -0.0369082
-0.010966 -0.0376079
-0.0256963 -0.215045
-0.0205466 -0.218399
0.00110948 -0.000666602
0.00163336 -0.000880004
-0.00710985 -0.121521
-0.00459816 -0.117138
-0.00296196 -0.125815
0.00184661 -0.127478
-0.0173895 -0.152576
-0.0187399 -0.158035
0.0156124 -0.361112
0.0225403 -0.359491
0.00853036 -0.167667
0.00785042 -0.162009
0.0237598 -0.271312
0.0178398 -0.274178
0.0271923 -0.398533
0.0286946 -0.405634
0.00999708 -0.0120487
0.00822227 -0.0108122
-0.0259508 -0.239862
-0.0285748 -0.245882
0.0322699 -0.163248
0.0300013 -0.168252
-0.0115968 -0.0202023
-0.00923605 -0.0193196
-0.0112924 -0.0155014
-0.0104042 -0.0135512
-0.00320235 -0.260136
0.00262506 -0.257184
0.0168809 -0.0373958
0.0142305 -0.0352936
0.0116189 -0.224034
0.00656151 -0.227658
-0.0184685 -0.107635
-0.0144383 -0.10464
0.022805 -0.0950112
0.0185608 -0.0963931
-0.00622075 -0.0113903
-0.00667678 -0.0100401
0.00301845 -0.0600632
0.00672324 -0.0599559
0.00584987 -0.0160537
0.00587293 -0.0140984
0.034233 -0.355437
0.0411959 -0.357245
-0.00259793 -0.0816319
-0.0057974 -0.0789376
-0.00345686 -0.00266341
-0.00452042 -0.00347018
-0.000777484 -0.00291621
-0.000721175 -0.0020536
-0.0270926 -0.172709
-0.0217987 -0.174652
0.0140342 -0.388913
0.0128185 -0.3818
0.0019251 -0.116253
0.00160101 -0.121254
0.00777384 -0.133606
0.00611346 -0.12862
-0.0174104 -0.233709
-0.0157836 -0.239861
0.00152623 -0.0138339
0.0033119 -0.0134995
-0.00439239 -0.0107645
-0.00297505 -0.0114121
0.0421885 -0.452047
0.0401074 -0.45906
-0.012422 -0.183249
-0.0162461 -0.178945
-0.00101741 -0.00599817
-0.00174151 -0.00512879
0.0303374 -0.136895
0.0254468 -0.134426
-0.000948142 -0.439154
0.00435046 -0.444139
0.0014092 -0.0012421
0.00212167 -0.00158159
0.00138592 -0.440554
0.00857077 -0.439595
-0.0037249 -0.0675031
-0.00705871 -0.0656255
0.0120316 -0.127186
0.00826567 -0.1236
0.0317065 -0.362243
0.0293788 -0.36901
0.00574903 -0.284791
0.00470144 -0.278126
0.00590974 -0.0384996
0.00306298 -0.0373298
0.0224344 -0.372263
0.0173288 -0.377237
0.0367969 -0.457626
0.0305534 -0.461421
0.014228 -0.397518
0.0151473 -0.390353
-0.0391049 -0.314545
-0.0323052 -0.31562
0.0147752 -0.430926
0.013729 -0.438155
-0.00717527 -0.197495
-0.0091418 -0.191834
-0.0378714 -0.461726
-0.0339997 -0.455488
0.0077859 -0.178232
0.0109016 -0.183247
0.0240607 -0.339074
0.0239646 -0.332006
-0.00507108 -0.00662293
-0.00493138 -0.00782114
-0.0247697 -0.105978
-0.0230635 -0.10128
0.0302825 -0.392192
0.0256915 -0.386582
0.0387326 -0.376876
0.0379717 -0.36971
0.0239482 -0.111807
0.0265562 -0.107953
0.00231081 -0.46924
-0.00345679 -0.464792
0.00402982 -0.0248404
0.00658089 -0.0261565
-0.0390876 -0.477375
-0.0331537 -0.473055
3.31877e-06 -0.000508726
-6.06046e-05 -0.00101453
-0.0245471 -0.151089
-0.0244625 -0.145638
0.00257276 -0.00954428
0.00200572 -0.00801637
-0.0143706 -0.0488147
-0.0109554 -0.0482152
0.00471422 -0.011021
0.00621698 -0.01067
-0.00950551 -0.0173362
-0.00958429 -0.0194581
-0.00578644 -0.0718419
-0.00613028 -0.0759746
0.00449078 -0.00911144
0.00609102 -0.00947227
-0.0232249 -0.447973
-0.0199288 -0.454487
-0.000326771 -0.323201
-0.00642264 -0.320013
-0.0235314 -0.0977667
-0.0249852 -0.102463
0.0105709 -0.0309591
0.010611 -0.0282012
0.0213027 -0.432941
0.0180174 -0.439448
-0.00548155 -0.471669
-0.000676421 -0.466154
0.0367974 -0.408343
0.0364912 -0.415597
0.000348074 -0.450557
-0.00670166 -0.448839
-0.00507103 -0.0180003
-0.00540332 -0.020253
-0.0137509 -0.0406111
-0.0108565 -0.0388776
0.0240081 -0.23678
0.0229611 -0.243102
-0.0109039 -0.0258228
-0.0135177 -0.027178
-0.0113712 -0.0316204
-0.0101561 -0.0288591
0.011511 -0.0151425
0.0100164 -0.0158793
-0.0194866 -0.298652
-0.0196305 -0.291836
0.00330822 -0.0736691
0.00367663 -0.0696135
-0.0239402 -0.140549
-0.0292411 -0.140374
-0.027016 -0.12483
-0.028051 -0.120009
0.000271182 -0.133781
0.0051901 -0.132184
-0.00633099 -0.189306
-0.0102081 -0.193875
0.00763751 -0.0123034
0.00622856 -0.0130062
0.0145536 -0.29941
0.0138312 -0.292611
-0.0162285 -0.122718
-0.0180682 -0.127621
0.000856203 -0.000332328
0.000568726 -0.000238125
-0.0041177 -0.00674448
-0.00279438 -0.00610878
-2.78118e-05 -0.000925441
-0.000531931 -0.000983626
-0.0223904 -0.242433
-0.0264518 -0.237621
-0.00517321 -0.0100819
-0.00638648 -0.00949383
-0.032611 -0.161781
-0.0274174 -0.159173
-0.0231474 -0.205621
-0.0246209 -0.211773
0.00435423 -0.450057
0.0080359 -0.443744
0.0064199 -0.0875511
0.010601 -0.0891073
-5.56262e-05 -0.158981
0.00547811 -0.159344
0.00264485 -0.1437
0.0016822 -0.14905
0.00114165 -0.0732229
0.00516872 -0.073017
0.0100364 -0.0725843
0.0113356 -0.0766041
0.00754382 -0.0294341
0.00942525 -0.0318217
0.01686 -0.414923
0.0102536 -0.417833
-0.0163744 -0.226857
-0.010161 -0.226221
-0.02825 -0.416171
-0.0233655 -0.421492
0.0383215 -0.297628
0.0355291 -0.303771
0.0124698 -0.10449
0.017255 -0.105231
-0.00350963 -0.257829
0.00185573 -0.254117
-0.0158734 -0.381115
-0.017164 -0.388218
0.00313666 -0.0475365
0.00643282 -0.0484074
-0.00867145 -0.0163132
-0.00866023 -0.0144172
-0.0178301 -0.281282
-0.0238781 -0.284343
-0.0148239 -0.067792
-0.0177801 -0.0708671
0.00108426 -0.0382315
0.000478126 -0.0352537
-0.033293 -0.349383
-0.0298959 -0.355613
-0.00128887 -0.0098796
-0.000788562 -0.0114853
-0.00482955 -0.0226681
-0.00422003 -0.0251143
0.0109345 -0.134145
0.0107757 -0.128917
-0.014188 -0.139469
-0.0110518 -0.135061
0.00946172 -0.0567538
0.00752054 -0.0535334
-0.0278903 -0.192626
-0.0238443 -0.187971
-0.000732777 -0.260704
0.00534978 -0.258342
0.000572146 -0.0631742
0.00400777 -0.0649363
-0.0047856 -0.0559829
-0.00829141 -0.0571567
-0.0296679 -0.464587
-0.0237986 -0.468921
0.00762249 -0.0520941
0.0043047 -0.0508293
-0.00593206 -0.0580967
-0.00665225 -0.0618403
-0.0252906 -0.268316
-0.0303438 -0.272825
-0.00410558 -0.0741082
-0.000672569 -0.0763098
-0.030366 -0.339301
-0.0344063 -0.333619
-0.00178841 -0.000965348
-0.00256152 -0.00140041
0.0334289 -0.447124
0.0355198 -0.454146
-0.000957811 -0.0496293
-0.00112124 -0.0531595
-0.0107431 -0.0675893
-0.00848296 -0.0642127
0.00882401 -0.0570113
0.0065224 -0.0597449
0.0269692 -0.419454
0.0197419 -0.419785
-0.00730912 -0.00638861
-0.00651476 -0.00680612
-0.0168894 -0.0486021
-0.0188576 -0.0518252
-0.0135052 -0.0300599
-0.0125005 -0.0272872
0.0200634 -0.128694
0.0240859 -0.125833
0.00950489 -0.135749
0.00484941 -0.133266
0.00737692 -0.0120348
0.0091575 -0.0122007
0.00372662 -0.424319
0.0105301 -0.421874
-0.00594584 -0.167134
-0.00208233 -0.162959
0.00880029 -0.143134
0.00837917 -0.137781
0.0154814 -0.456301
0.0213502 -0.460634
0.0238918 -0.167451
0.0242795 -0.173197
0.00729671 -0.150533
0.00188012 -0.150086
-0.020212 -0.392856
-0.0165021 -0.386636
0.0170599 -0.0540023
0.0206625 -0.0542878
-0.0161976 -0.286597
-0.0173597 -0.293309
0.0271114 -0.20099
0.0210103 -0.200659
-0.0131028 -0.0400686
-0.0161614 -0.0399349
-0.00078181 -0.0379832
0.00204467 -0.0368605
0.0221107 -0.471368
0.0292715 -0.472786
0.0101164 -0.0701751
0.0107302 -0.0662951
0.000445994 -0.00066668
2.97995e-05 -0.000676455
0.0036385 -0.1781
0.00916345 -0.176537
0.0133088 -0.435257
0.018895 -0.430616
-0.000910469 -0.0622118
-0.00467925 -0.0621706
-0.00444308 -0.181594
-0.000854263 -0.176979
0.022603 -0.274933
0.0205765 -0.268524
0.0179173 -0.107123
0.0145747 -0.103366
-0.0187216 -0.390683
-0.02578 -0.392064
-0.00971934 -0.0764718
-0.0117461 -0.0803169
0.029988 -0.224497
0.0359844 -0.222755
0.00257913 -0.0120548
0.00374627 -0.01096
-0.0082678 -0.184555
-0.0029203 -0.182163
-0.00285394 -0.380721
-0.00626484 -0.374442
-0.00955832 -0.104591
-0.012744 -0.101127
-0.0285553 -0.329776
-0.0307001 -0.323171
-0.0166735 -0.269802
-0.0146087 -0.276108
-0.00394185 -0.148826
-0.00530952 -0.154184
-0.0307556 -0.247563
-0.0243467 -0.24823
-0.00231949 -0.00672448
-0.00194245 -0.0054129
-0.0026088 -0.465572
-0.00574157 -0.458959
0.0237806 -0.364823
0.0172824 -0.367724
0.028723 -0.354736
0.0313536 -0.348115
-0.0263543 -0.473957
-0.0334723 -0.475632
0.0108074 -0.0875037
0.0135782 -0.0842925
-0.00902905 -0.338302
-0.0122327 -0.332075
-0.0126374 -0.0837923
-0.012342 -0.0881536
0.00737109 -0.00960381
0.00702513 -0.00812345
0.0208501 -0.0984154
0.0233222 -0.0947674
-0.0223157 -0.295267
-0.0211359 -0.288542
-0.0172865 -0.0530878
-0.0181141 -0.0567068
-0.00898459 -0.0265602
-0.00687375 -0.0278733
-0.0318342 -0.450773
-0.0246106 -0.449796
-0.0209448 -0.285635
-0.0183073 -0.291813
0.000201225 -0.152138
0.00105161 -0.157632
0.0176382 -0.0724528
0.0140535 -0.074012
-0.0124581 -0.0561593
-0.0134807 -0.0528684
0.00312397 -0.0213098
0.001121 -0.0222986
-0.0259619 -0.417958
-0.0203585 -0.422512
0.00656811 -0.470682
-0.000673472 -0.47013
-0.0021715 -0.192884
0.00102015 -0.197935
0.00432458 -0.0128301
0.00505339 -0.0113857
-0.00499333 -0.00531771
-0.00418257 -0.00417989
0.0151171 -0.326957
0.0136671 -0.320131
0.0083555 -0.00815199
0.00706829 -0.00826898
0.0046239 -0.0333546
0.00226136 -0.0348814
-0.00638595 -0.0409915
-0.00497897 -0.0437783
0.0133457 -0.132887
0.0173505 -0.136495
0.0108166 -0.133367
0.0112448 -0.12819
0.0357559 -0.48581
0.0295958 -0.489803
-0.014328 -0.0399023
-0.0112007 -0.0395721
0.00796263 -0.0379248
0.00506058 -0.0368995
0.00203987 -0.0474748
0.000631015 -0.0444141
-0.00201041 -0.415661
-0.00215258 -0.40839
0.0120872 -0.0210501
0.0129783 -0.0193494
0.00108174 -0.0134331
0.00253972 -0.0124502
0.0123109 -0.398771
0.0105201 -0.391756
0.0147791 -0.155431
0.0107779 -0.151493
-0.0147908 -0.303479
-0.0089149 -0.306899
-0.00370029 -0.0165276
-0.00572547 -0.0164345
0.0138895 -0.0994773
0.0112651 -0.103345
0.0114803 -0.14897
0.00943907 -0.154014
-0.0280533 -0.172643
-0.0328475 -0.169876
-0.000796415 -0.329945
0.00596111 -0.331084
0.0261842 -0.489771
0.0305963 -0.495638
-0.00195382 -0.0116007
-0.00293549 -0.0132519
0.0210703 -0.15019
0.0168824 -0.146466
0.0160406 -0.394737
0.00887272 -0.394852
0.0360276 -0.292993
0.0319286 -0.287443
0.0126537 -0.125323
0.00965028 -0.129363
0.000885156 -0.0206491
0.000920282 -0.0229417
-0.0230975 -0.262834
-0.0286977 -0.266534
-0.00194566 -0.327926
-0.00695006 -0.332711
-0.0166194 -0.114692
-0.0182229 -0.110173
-0.0382952 -0.303292
-0.0402827 -0.309959
-0.015634 -0.0655764
-0.0122289 -0.0633235
0.0233578 -0.130782
0.0195301 -0.127002
-0.0440904 -0.438823
-0.0367947 -0.438654
-0.00049795 -0.174796
-0.00557135 -0.172169
-0.00360276 -0.486922
-0.00384509 -0.479591
0.0125155 -0.151054
0.0171867 -0.154145
0.00452098 -0.022354
0.00353875 -0.0246177
0.0118358 -0.308449
0.00807262 -0.302683
0.00161326 -0.0014653
0.000963106 -0.00119577
0.0280971 -0.255134
0.0346219 -0.255935
-0.00129404 -0.0202361
-0.00195849 -0.0224583
-0.00376133 -0.309553
0.00230296 -0.3064
-0.0280211 -0.328335
-0.0237658 -0.33382
-0.0111443 -0.0538726
-0.0145976 -0.0534612
-0.0412241 -0.472536
-0.0439692 -0.479353
-0.0118241 -0.0346264
-0.0146676 -0.0362175
0.0197185 -0.327775
0.0266731 -0.32847
-0.0166335 -0.0430257
-0.0175347 -0.0463241
-0.00236616 -0.44848
-0.00656519 -0.454467
-0.00724242 -0.155512
-0.00336589 -0.159432
0.0144182 -0.0431752
0.0171085 -0.0456007
0.0174616 -0.0448545
0.0174993 -0.0416916
-0.0245341 -0.114562
-0.0267734 -0.119258
0.0384278 -0.298085
0.0323704 -0.30103
0.005766 -0.0269206
0.00633224 -0.0297658
-0.0308084 -0.181651
-0.0249422 -0.181581
-0.0151522 -0.0658835
-0.0164178 -0.0697851
-0.0279181 -0.204337
-0.0224916 -0.206945
0.0141537 -0.431856
0.0212387 -0.433417
-0.000408353 -0.000262826
-0.00068164 -0.000667973
0.004202 -0.139561
0.00802624 -0.143367
-0.031585 -0.404057
-0.0352688 -0.39789
-0.00204998 -0.0435576
0.000390744 -0.0457255
5.03349e-05 -0.478481
0.000676718 -0.471167
-0.00578866 -0.278478
0.000714988 -0.277057
-0.00164002 -0.000779969
-0.00203629 -0.0011262
-0.0341711 -0.197273
-0.0348965 -0.203397
-0.0126134 -0.101897
-0.0161247 -0.0989706
-0.000813695 -0.0167217
-0.00169119 -0.014906
0.0244948 -0.208499
0.0272466 -0.214266
-0.00191604 -0.00550476
-0.00267533 -0.00672633
0.0190132 -0.134402
0.0202079 -0.139641
0.00984448 -0.0642474
0.0116747 -0.0678708
0.0231912 -0.489702
0.0273842 -0.483676
0.0140141 -0.0264931
0.0154888 -0.0291521
0.0027038 -0.00361747
0.00208365 -0.00267912
-0.0232978 -0.428416
-0.0262815 -0.421799
0.00407432 -0.310904
-0.00266011 -0.309802
-0.00148897 -0.404362
-0.00651016 -0.409575
-0.00324754 -0.417578
0.00194253 -0.41252
-0.0294881 -0.145786
-0.0255504 -0.14174
0.00127261 -0.00212719
0.000546071 -0.00180268
0.0158545 -0.194074
0.0182049 -0.199731
0.0222014 -0.255766
0.026271 -0.261056
-0.00116871 -0.0390695
-0.00282701 -0.0417956
0.0330221 -0.295842
0.0297969 -0.301762
-0.0371154 -0.396733
-0.0302142 -0.398714
-0.0271488 -0.224016
-0.0288836 -0.230223
0.0118302 -0.147822
0.0171538 -0.147125
0.00403597 -0.147034
0.0085432 -0.150147
-0.0377022 -0.311325
-0.0319533 -0.307312
0.0171651 -0.341225
0.0205109 -0.347593
-0.00534128 -0.00551825
-0.00660821 -0.00665645
-0.00101292 -0.0138295
-0.00255373 -0.0129241
-0.0226185 -0.389826
-0.0278337 -0.384959
0.0369748 -0.329173
0.0301562 -0.32738
-0.00585382 -0.474764
-0.0116138 -0.479247
-0.0118541 -0.113116
-0.010332 -0.117741
0.0178625 -0.322639
0.0245346 -0.324665
0.00252039 -0.183746
-0.000999943 -0.179067
0.0192168 -0.472384
0.0160291 -0.478992
-0.017064 -0.391896
-0.0242101 -0.391401
-0.0042329 -0.0132349
-0.00399573 -0.0114075
0.00636059 -0.138472
0.0103046 -0.142158
0.0182758 -0.0856715
0.0138818 -0.0853232
0.0134551 -0.164664
0.0190499 -0.164284
-0.0102018 -0.450112
-0.00435494 -0.454439
-0.00337712 -0.0368974
-0.00540731 -0.0348792
0.00993874 -0.199763
0.00418099 -0.198175
0.0303013 -0.44821
0.0239061 -0.451699
0.0204603 -0.471584
0.0189467 -0.478768
0.00200072 -0.00534094
0.00131975 -0.00626775
0.0122464 -0.0439928
0.0132702 -0.0472983
0.00262632 -0.247389
-0.00319525 -0.244665
0.0184413 -0.199405
0.0150649 -0.204388
-0.0121483 -0.285626
-0.00606755 -0.288422
-0.015544 -0.0359191
-0.0125641 -0.0357719
-0.00349456 -0.00990954
-0.0047895 -0.00933965
0.0241637 -0.0830791
0.0198155 -0.0827724
0.0140759 -0.146138
0.0132259 -0.140772
-0.00937557 -0.182541
-0.0110169 -0.188264
-0.00399057 -0.180794
0.0015796 -0.182399
0.00541046 -0.039357
0.00772667 -0.037592
-0.00182716 -0.229351
0.0041685 -0.231311
-0.00575945 -0.00772423
-0.00581332 -0.00655215
-0.0150323 -0.0553941
-0.0114595 -0.0554837
-0.00840042 -0.233079
-0.0138187 -0.229973
0.0352822 -0.37081
0.0404774 -0.365938
-0.00356374 -0.00853728
-0.00214923 -0.00875889
0.0270959 -0.10186
0.0246842 -0.097471
-0.0151268 -0.347452
-0.0192262 -0.353445
0.0162121 -0.0554753
0.0130084 -0.0567452
0.0138149 -0.0264864
0.0118772 -0.0241854
-0.0268586 -0.187012
-0.0214164 -0.184363
-0.00144342 -0.000714858
-0.000813523 -0.000317925
-0.00867071 -0.0212286
-0.00680043 -0.0194002
-0.0222532 -0.094102
-0.0260535 -0.097323
0.0182087 -0.0683951
0.022093 -0.0700277
-0.00879422 -0.195194
-0.0143106 -0.193001
-0.0128561 -0.489592
-0.0156747 -0.482834
-0.0320857 -0.31121
-0.0357969 -0.317183
-0.0362784 -0.212501
-0.0348086 -0.218517
0.00508784 -0.299784
0.00672439 -0.293162
0.00465517 -0.0228386
0.00338064 -0.0207139
-0.00137104 -0.015847
0.000556775 -0.0155073
0.000749232 -0.420258
0.00790069 -0.421245
-0.0215191 -0.18069
-0.0272404 -0.179824
0.00190581 -0.145217
0.00705603 -0.146832
0.0390598 -0.266524
0.0334222 -0.262794
0.00636445 -0.0159675
0.00767323 -0.0148076
-0.0316189 -0.391456
-0.0333564 -0.384492
-0.0219432 -0.0680364
-0.0182767 -0.0659292
-0.0317003 -0.243199
-0.028141 -0.248438
0.0102935 -0.454702
0.0175161 -0.455516
0.0274056 -0.373843
0.030485 -0.380383
-0.0189257 -0.429999
-0.0251735 -0.426354
0.0108193 -0.0593465
0.00738908 -0.0605233
0.00288686 -0.475764
0.00563606 -0.468964
0.0212935 -0.493296
0.0148476 -0.496743
0.0186881 -0.264599
0.012689 -0.267206
0.024633 -0.350667
0.0314054 -0.352957
-0.00637737 -0.41114
-0.0124266 -0.415123
0.00277777 -0.0554896
0.00618218 -0.0568579
0.000446334 -0.193778
0.00345058 -0.198955
0.0293114 -0.480318
0.02596 -0.473798
-0.000190597 -1.77505e-05
-0.000160464 -2.47776e-06
-0.0357318 -0.251807
-0.0380493 -0.245869
0.00108896 -0.00179713
0.000934974 -0.00113413
-0.0338562 -0.30375
-0.0403474 -0.306257
-0.00571894 -0.0132434
-0.00755576 -0.0133093
0.0168565 -0.0859201
0.0195622 -0.0828119
0.00588741 -0.0579933
0.00587791 -0.0543274
-0.006399 -0.0484517
-0.00417448 -0.0509462
0.00528739 -0.00440281
0.00460486 -0.0034011
0.0272363 -0.111975
0.0230033 -0.109012
-0.0305116 -0.246132
-0.0353718 -0.242124
0.0238557 -0.367955
0.023592 -0.375134
0.00552964 -0.0090026
0.00666916 -0.0105224
-0.0405341 -0.382372
-0.0373956 -0.375838
-0.00536348 -0.371567
0.00147002 -0.373357
-0.00229829 -0.00117151
-0.00195089 -0.000951728
-0.0210735 -0.0879534
-0.0186106 -0.0839971
0.0135378 -0.0621115
0.0132602 -0.0659251
0.0267604 -0.157849
0.0288911 -0.152911
0.00883084 -0.126543
0.00783371 -0.131601
-0.0136695 -0.0826567
-0.0164527 -0.0796849
-2.38179e-05 -0.000146558
0.000151781 -8.31332e-05
0.0174831 -0.230548
0.0113994 -0.22873
0.0067762 -0.0110472
0.00852382 -0.012188
0.0225142 -0.295642
0.0204608 -0.289114
-0.00875945 -0.0537774
-0.00550813 -0.0550018
-0.00826927 -0.0195497
-0.0105694 -0.0207584
-0.0321083 -0.452535
-0.0248285 -0.452207
0.0269715 -0.321822
0.0327569 -0.318123
0.0348646 -0.279301
0.0375244 -0.273272
-0.0295095 -0.487123
-0.0254185 -0.481029
0.0151188 -0.395376
0.010066 -0.390221
-0.00178903 -0.0214511
-0.00373771 -0.0203668
0.00654876 -0.170072
0.0106226 -0.174198
-0.0100989 -0.0174369
-0.0121878 -0.0174956
0.0125918 -0.0387942
0.0095831 -0.0390151
0.000345154 -6.19171e-05
0.000297866 -5.20303e-05
-0.00117454 -0.000873624
-0.000915651 -0.000465925
0.00802443 -0.041256
0.00573126 -0.0389078
0.00144839 -0.000758549
0.000909173 -0.000483145
0.0265008 -0.14974
0.0299465 -0.15432
-0.0079998 -0.381939
-0.00167796 -0.385218
-0.0317465 -0.414801
-0.030862 -0.422014
0.00666302 -0.00957206
0.00833515 -0.0106565
0.0294909 -0.253201
0.0241487 -0.25677
0.00457376 -0.0572758
0.000945761 -0.057462
0.000390049 -0.0196179
-0.00151222 -0.0206101
0.028805 -0.403004
0.032574 -0.396872
0.0245189 -0.39488
0.0184307 -0.398678
0.0136182 -0.452841
0.00731766 -0.449203
-0.00879584 -0.0225142
-0.00680684 -0.0235748
-0.0042211 -0.00304644
-0.00428891 -0.00371733
-0.0113961 -0.124177
-0.00709621 -0.126718
0.0179453 -0.0428515
0.017173 -0.0396644
0.00922804 -0.0665922
0.0120468 -0.0641653
0.00281453 -0.00300706
0.00199179 -0.00224922
0.0397588 -0.418485
0.0391615 -0.411234
-0.00205894 -0.0185111
-0.00418876 -0.0184556
-0.0222188 -0.191907
-0.0269996 -0.195854
-0.00220426 -0.00162437
-0.00146979 -0.00121599
0.000345046 -0.000555843
0.000282003 -0.000207018
-0.014455 -0.0372618
-0.0159605 -0.0402535
0.0203875 -0.147747
0.021959 -0.14268
-0.000504982 -0.374313
0.000670011 -0.381394
-0.0182482 -0.257787
-0.0124282 -0.254703
-0.00953027 -0.0248236
-0.00779717 -0.0225719
-0.00506926 -0.462936
-0.00523893 -0.455604
0.0362352 -0.216648
0.0360408 -0.222959
-0.0013554 -0.190388
0.00424215 -0.192174
0.00497299 -0.0362208
0.00546982 -0.0333626
-0.013785 -0.134966
-0.0161757 -0.13046
-0.0114155 -0.0493964
-0.0100315 -0.0461225
0.010685 -0.0236942
0.0122283 -0.0222424
0.0142351 -0.305039
0.0210575 -0.305241
-0.00315257 -0.0563648
0.0003218 -0.0553672
-0.00148328 -0.12954
-0.00364842 -0.134314
0.0334864 -0.308213
0.0266897 -0.309048
-0.00277388 -0.178809
0.00052267 -0.18364
0.00538414 -0.011963
0.0046704 -0.010242
0.00068888 -0.000305492
0.000806896 -0.000609566
-0.00281908 -0.00737764
-0.00143821 -0.00719301
0.01949 -0.171903
0.0199654 -0.166222
-0.0222556 -0.297521
-0.0178294 -0.302627
-0.0096171 -0.180037
-0.00771451 -0.17449
0.00684961 -0.311387
0.0136249 -0.31238
0.037631 -0.423558
0.0396712 -0.430574
0.0134753 -0.0820051
0.0131241 -0.0863149
0.00338028 -0.00502271
0.00404774 -0.00448638
0.0180491 -0.180434
0.0231229 -0.177816
0.0232173 -0.480249
0.0211563 -0.473211
0.0133731 -0.038806
0.0158601 -0.0412314
0.00635353 -0.318713
0.00994058 -0.324658
0.0120673 -0.112328
0.0154319 -0.109006
-0.0122825 -0.233526
-0.00868257 -0.238729
0.0279915 -0.131816
0.0231979 -0.129347
0.00663039 -0.0202449
0.0075625 -0.018415
0.00788963 -0.0186357
0.00932683 -0.0174172
-0.00612324 -0.0106445
-0.00720319 -0.0123367
0.0129813 -0.0556907
0.011553 -0.0522318
0.0136655 -0.27658
0.00727907 -0.278377
-0.0347345 -0.190148
-0.0290552 -0.187837
-0.0285036 -0.142467
-0.0291305 -0.137256
-0.0165941 -0.261933
-0.0155365 -0.255408
0.000523335 -0.000133688
6.37483e-05 -1.98252e-06
-0.0108356 -0.015166
-0.00890593 -0.0137889
-0.0226505 -0.224448
-0.0272733 -0.229001
-0.00309895 -0.0929382
-0.00517498 -0.0970046
-0.0094381 -0.436921
-0.00302127 -0.440299
0.0259886 -0.283885
0.0252193 -0.290589
-0.02555 -0.167527
-0.0224915 -0.172161
-0.0352914 -0.27236
-0.0313436 -0.277577
0.0263114 -0.471886
0.0260241 -0.479222
-0.0362646 -0.344093
-0.0420569 -0.348439
0.0204404 -0.405081
0.0157241 -0.410543
-0.000662666 -0.0129043
-0.00105035 -0.0148251
-0.00475832 -0.464117
-0.00798118 -0.45755
0.00737071 -0.00749857
0.00593796 -0.00643076
-0.0400787 -0.389758
-0.040682 -0.396964
0.0113935 -0.187594
0.00606569 -0.190047
0.000294027 -0.0835416
0.00197294 -0.0795921
0.0201028 -0.474321
0.0170266 -0.480984
0.00726929 -0.288341
0.0136894 -0.290425
-0.0195426 -0.276866
-0.0262052 -0.277295
-0.0245612 -0.320232
-0.0180218 -0.317831
0.0131487 -0.416069
0.0122558 -0.40885
-0.0122344 -0.0764345
-0.0161892 -0.0782109
0.0177288 -0.214437
0.0213975 -0.219711
0.0124702 -0.0219352
0.0122495 -0.0196506
0.00985773 -0.0568804
0.013481 -0.0568332
0.00229183 -0.084967
0.00266418 -0.0893815
-0.00161813 -0.0142931
-0.000434497 -0.0127665
0.021664 -0.342654
0.0174591 -0.348368
-0.0102973 -0.0218583
-0.0115575 -0.024321
-0.0166138 -0.126783
-0.0115619 -0.127208
-0.0114507 -0.471193
-0.0109357 -0.478514
-0.0122557 -0.082334
-0.0136736 -0.0784355
0.0182032 -0.0634797
0.0145468 -0.0618125
-0.0151932 -0.0868483
-0.0194918 -0.0862571
0.001533 -0.0649151
0.00103558 -0.0610813
-0.0114657 -0.0579401
-0.0135154 -0.0551894
0.0176586 -0.459111
0.0125687 -0.453878
-0.0252416 -0.422438
-0.0253143 -0.429731
0.0231058 -0.202521
0.0201029 -0.207778
-0.00340693 -0.200681
-0.000591366 -0.195386
-0.00341298 -0.0764723
-0.00704182 -0.0786302
-0.0293164 -0.321286
-0.0225044 -0.322517
-0.0303272 -0.460683
-0.0301457 -0.453356
0.0167855 -0.215433
0.0168214 -0.209106
0.00810235 -0.275913
0.00701472 -0.282542
-0.0214556 -0.287349
-0.0281653 -0.288169
0.01721 -0.0899593
0.0212875 -0.0924157
-0.00860518 -0.443418
-0.0101203 -0.450585
-0.00738062 -0.00928274
-0.00887216 -0.0093776
-0.0374724 -0.483154
-0.0445976 -0.48496
-0.0353132 -0.327954
-0.0283162 -0.327469
0.0280844 -0.181026
0.0243793 -0.176285
-0.0272889 -0.136224
-0.0236664 -0.139753
-0.0200948 -0.345878
-0.0246609 -0.340514
-0.00499464 -0.00617288
-0.00442153 -0.00494415
0.0136341 -0.103756
0.0114184 -0.0992976
0.0359417 -0.299316
0.029121 -0.299272
-0.0231724 -0.112483
-0.0270744 -0.109942
0.0110311 -0.113212
0.0158288 -0.114473
0.0110433 -0.47827
0.0142198 -0.484863
0.0299281 -0.206122
0.0239092 -0.204481
0.0220024 -0.141453
0.0259103 -0.138152
0.0100388 -0.0165543
0.0108485 -0.0151102
0.00520263 -0.0188457
0.00738792 -0.0198794
-0.0217144 -0.332395
-0.0160403 -0.33645
0.0121423 -0.0330511
0.014705 -0.0322738
-0.0184497 -0.145712
-0.019711 -0.140567
-0.0153266 -0.445775
-0.00900254 -0.442161
0.00590987 -0.0451407
0.00811245 -0.042933
0.000151427 -0.00838323
0.00143151 -0.00777886
-0.000540409 -0.195961
-0.00579998 -0.193261
0.0121417 -0.367209
0.0160693 -0.37322
-0.00845642 -0.0467793
-0.0107053 -0.0446278
0.00954023 -0.0642438
0.00580278 -0.0631951
-0.0201826 -0.0653796
-0.0169044 -0.062789
0.0126923 -0.217178
0.013035 -0.223548
-0.0368486 -0.258939
-0.0350627 -0.265195
0.0104796 -0.0538333
0.00827059 -0.0564796
0.00723489 -0.316882
0.0134063 -0.31996
0.0317254 -0.424799
0.032179 -0.432083
-0.000456585 -0.000877909
-0.000847908 -0.00145285
0.0300938 -0.156824
0.031273 -0.151542
-0.00872741 -0.0589272
-0.0124331 -0.059177
0.0122399 -0.247925
0.0137778 -0.241662
0.000399546 -0.19663
-0.00154502 -0.202309
-0.0162926 -0.480392
-0.023198 -0.482742
-0.00527874 -0.126718
-0.000402078 -0.128161
-0.0218599 -0.25459
-0.0157242 -0.256604
0.0124934 -0.30342
0.0165533 -0.297976
0.00192422 -0.00342929
0.00171277 -0.00250573
-0.0061368 -0.088675
-0.0021298 -0.0903758
-0.0184121 -0.264225
-0.0243474 -0.26158
-0.00560572 -0.0771002
-0.00313795 -0.0804592
-0.0284282 -0.237779
-0.0226239 -0.234827
0.0235262 -0.380246
0.0306835 -0.380831
-0.00896078 -0.495675
-0.0133546 -0.489853
-0.000938291 -0.168449
-0.00470097 -0.172793
-0.0129594 -0.453807
-0.0168895 -0.459988
-0.0151063 -0.02581
-0.0126018 -0.0259782
0.0128543 -0.43363
0.0109409 -0.426585
0.00131508 -0.171193
0.00168755 -0.176984
-0.0241064 -0.321238
-0.0197041 -0.326558
0.000953454 -0.00650898
0.00198076 -0.00755731
0.0279988 -0.297074
0.0314751 -0.303063
0.0118954 -0.442051
0.00514098 -0.439394
-0.013553 -0.459775
-0.00661742 -0.457573
0.0124499 -0.0685859
0.0157944 -0.0711514
-0.0282844 -0.237693
-0.0283582 -0.231295
0.0165536 -0.0537186
0.0174585 -0.0573505
0.011309 -0.414818
0.00668765 -0.40923
-0.0277871 -0.329205
-0.032389 -0.334665
0.0073786 -0.0791836
0.00983875 -0.0827988
0.0205545 -0.215843
0.0225542 -0.209955
0.0342045 -0.422853
0.0319028 -0.415931
0.005523 -0.388204
0.00653373 -0.381073
-0.00162943 -0.00730018
-0.000817778 -0.00611626
-0.00955126 -0.480327
-0.00816617 -0.47312
-0.0313767 -0.243627
-0.0292692 -0.249656
3.70202e-05 -0.302177
0.00522511 -0.297777
0.00213931 -0.00303336
0.00151239 -0.00349431
-0.00273941 -0.131878
-0.00789764 -0.13175
0.0205326 -0.326222
0.0272651 -0.324563
0.0174251 -0.0641379
0.0167916 -0.0603089
-0.00307437 -0.00812164
-0.00171576 -0.00843462
0.0155045 -0.150956
0.0173805 -0.14593
0.0167824 -0.339241
0.0238293 -0.33951
4.4974e-06 4.70248e-07
0.000366179 -7.11893e-05
0.00207262 -0.0840218
0.00313668 -0.0798499
0.0208289 -0.100575
0.0254278 -0.102358
0.0122413 -0.0320166
0.0151453 -0.0324428
-0.0243848 -0.263968
-0.0197091 -0.268496
-0.0253426 -0.0957223
-0.0211475 -0.0972057
-0.0194336 -0.133237
-0.0209401 -0.138403
-0.0199589 -0.250682
-0.0244256 -0.246143
-0.0320746 -0.234836
-0.0369104 -0.230931
-0.0192935 -0.220551
-0.0140042 -0.216931
-0.0256207 -0.202679
-0.0197583 -0.200613
-0.0337699 -0.171612
-0.0287583 -0.168385
0.000953952 -0.0479237
0.00151971 -0.044611
0.00340549 -0.00398405
0.00266526 -0.00301079
-0.0215115 -0.465966
-0.0265772 -0.460713
0.0216167 -0.0949504
0.0242381 -0.0991453
-0.034648 -0.275828
-0.0301821 -0.280638
-0.010273 -0.269636
-0.00770719 -0.263484
-0.0380148 -0.243552
-0.0315538 -0.243472
0.0111272 -0.102663
0.0159151 -0.103119
-0.0148159 -0.174598
-0.0172342 -0.179989
0.0138385 -0.147925
0.0155785 -0.15321
-0.000384869 -0.0892581
0.00362483 -0.0908791
-0.0305969 -0.165151
-0.0255195 -0.16225
-0.0091469 -0.409412
-0.016256 -0.410619
0.0185307 -0.328008
0.0123179 -0.324856
-0.00577875 -0.00798158
-0.00612829 -0.00694888
-0.00347253 -0.329708
0.00192633 -0.325406
0.000390404 -0.000476971
5.92725e-05 -0.000289593
-0.0207591 -0.459211
-0.0174112 -0.465713
0.0230989 -0.16438
0.0251644 -0.159285
0.00773352 -0.0317643
0.00610651 -0.0292462
0.00367055 -0.00877413
0.00284742 -0.00993363
0.000116508 -0.184991
0.000405187 -0.190945
-0.000548498 -0.00708603
0.000558917 -0.0063433
0.0373567 -0.384878
0.0318446 -0.389441
0.00131822 -0.26737
-0.00142127 -0.273441
0.00511106 -0.46576
0.012356 -0.465168
-0.0224472 -0.205106
-0.0164277 -0.206139
-6.4422e-05 -0.432681
0.00480212 -0.438087
0.0196557 -0.296345
0.0155994 -0.301767
-0.00448262 -0.233278
-0.00762766 -0.227806
5.85833e-05 1.39521e-05
3.99978e-05 -2.28738e-05
-0.0218988 -0.24734
-0.0271575 -0.251355
0.0414774 -0.423874
0.0360198 -0.419009
-0.000964146 -0.00285536
-0.00181038 -0.00287646
-0.00192103 -0.0015801
-0.0017485 -0.00202228
0.00162326 -0.0115703
0.00322936 -0.0111887
-0.00132149 -0.00217563
-0.000673078 -0.00242919
0.000379192 -0.000422955
0.0001091 -0.000160987
0.011491 -0.0225941
0.0107041 -0.0247095
-0.0216728 -0.3427
-0.0281769 -0.345684
0.0150849 -0.115149
0.0188006 -0.118737
0.00702484 -0.445593
0.0122117 -0.450714
0.0162647 -0.419292
0.014257 -0.412294
0.0200526 -0.131443
0.0226776 -0.127198
-0.0299126 -0.167477
-0.0338131 -0.172015
-0.00152628 -0.00976394
-0.000369449 -0.0108761
-0.0378823 -0.308313
-0.0340768 -0.313927
0.0382588 -0.414333
0.0329665 -0.419257
-0.0412987 -0.366807
-0.0360785 -0.36177
-0.00342854 -0.124963
0.000515638 -0.121775
0.0246226 -0.119311
0.0296766 -0.119994
-0.0361045 -0.484334
-0.0319573 -0.49039
-0.00161995 -0.188892
0.00417473 -0.189739
-0.00777573 -0.130578
-0.0122676 -0.128254
-0.000650541 -0.0196489
0.000253713 -0.0217262
-0.0146511 -0.0470423
-0.01803 -0.0482171
0.000395695 -0.000126993
0.00040054 -8.35736e-05
-0.0104798 -0.152942
-0.0129615 -0.148148
-0.00189781 -0.00137319
-0.00149661 -0.00149345
-0.00683801 -0.0159655
-0.00865543 -0.015543
-0.0406601 -0.368194
-0.0335415 -0.368874
-0.000704565 -0.00562616
-0.00026437 -0.00685294
-0.0251943 -0.246476
-0.0299844 -0.242358
-0.0283588 -0.389231
-0.0334967 -0.394369
0.00449684 -0.061277
0.00216584 -0.0582723
0.0209464 -0.221291
0.0166273 -0.21654
-0.00784637 -0.0117289
-0.00746464 -0.0132393
-0.00486556 -0.0250129
-0.00746722 -0.0249113
0.00582319 -0.0422036
0.0029978 -0.0435641
-0.0218073 -0.383974
-0.0289714 -0.384188
0.0409288 -0.470537
0.038722 -0.477534
-0.0250251 -0.25791
-0.0302312 -0.262134
-0.00094078 -0.000574119
-0.000620306 -0.000575978
-0.0101719 -0.0437969
-0.0133332 -0.0451845
-0.0182337 -0.469037
-0.0181492 -0.461701
-0.00902442 -0.380298
-0.016138 -0.38061
-0.00167293 -0.117812
-0.000673268 -0.122746
-0.00475793 -0.00880339
-0.00594655 -0.0102518
-0.0116862 -0.124546
-0.0102759 -0.129433
0.00443952 -0.432216
0.0104099 -0.436351
0.0242962 -0.176672
0.0294171 -0.174307
-0.0349904 -0.484232
-0.0416472 -0.487347
0.0113576 -0.389031
0.015061 -0.382891
0.0111482 -0.0152566
0.00990464 -0.0133535
0.00021055 -0.000268034
0.000453168 -0.000653425
-0.0100269 -0.152488
-0.0053591 -0.149539
0.00756954 -0.0916704
0.00704223 -0.0872239
-0.00306062 -0.0115197
-0.00186552 -0.0126913
0.00997812 -0.276038
0.0154336 -0.272315
-0.0208408 -0.073544
-0.0173997 -0.0708515
0.0363357 -0.374782
0.0353639 -0.367639
0.0226746 -0.137623
0.027002 -0.134977
0.0103298 -0.277454
0.0165554 -0.275203
-0.0343279 -0.305984
-0.0297447 -0.310967
0.00240142 -0.0674621
-0.000504312 -0.0701457
-0.00281346 -0.0145233
-0.0038513 -0.0130785
0.0183786 -0.427664
0.0164184 -0.434689
0.0206612 -0.318094
0.0252124 -0.312968
0.0420802 -0.404925
0.0363724 -0.400395
0.0288891 -0.264031
0.027889 -0.257477
0.0149965 -0.0447238
0.013649 -0.0415555
-0.0247344 -0.276207
-0.0276079 -0.270285
0.0203432 -0.246802
0.0169594 -0.241194
-0.00288122 -0.266227
-0.00181882 -0.2728
0.0304348 -0.420916
0.0231921 -0.420691
6.75581e-05 4.71185e-06
0.000356416 -8.86857e-05
0.00557993 -0.00820424
0.00520651 -0.00679685
-0.000428787 -0.00319393
-0.00135743 -0.00353935
-0.00264755 -0.0116276
-0.000936984 -0.0116362
0.000280116 -0.486917
0.00056622 -0.494227
-0.00793228 -0.450724
-0.00624623 -0.443596
-0.0143531 -0.399003
-0.0161915 -0.406029
-0.00793823 -0.402894
-0.000842386 -0.401775
0.0143148 -0.0447537
0.0110312 -0.0440185
-0.00615858 -0.0278986
-0.00767335 -0.0304912
0.00691986 -0.32457
0.00261326 -0.319148
0.0252009 -0.1066
0.0215335 -0.103056
0.00814153 -0.0164763
0.00611531 -0.0154766
0.0316778 -0.311881
0.0383339 -0.310288
0.00834318 -0.0160916
0.00730319 -0.0141333
0.00420587 -0.422892
0.000263751 -0.42901
-0.0183491 -0.303459
-0.0117099 -0.301837
-0.000238259 -0.156011
0.00340662 -0.160239
0.00394147 -0.0703444
0.00301866 -0.0664308
-0.0127816 -0.0234682
-0.0102509 -0.0229984
-0.0293668 -0.152737
-0.0246785 -0.149475
0.0102107 -0.112859
0.0143837 -0.110608
0.028697 -0.288635
0.0226547 -0.291501
-0.00859433 -0.150875
-0.00805986 -0.156374
0.00433 -0.0574564
0.00773984 -0.0563902
0.00166492 -0.379602
0.000659821 -0.372503
0.0198506 -0.454278
0.021382 -0.447119
0.0010117 -0.140495
0.00606417 -0.139
0.0221274 -0.337507
0.0162757 -0.333522
-0.0297075 -0.43462
-0.0228834 -0.432072
0.0146011 -0.230377
0.0206718 -0.232393
0.0159236 -0.0437369
0.0166694 -0.0470668
0.0171805 -0.190168
0.0216095 -0.186393
-0.00298274 -0.00801942
-0.00440089 -0.00893199
0.00370046 -0.00237368
0.00433188 -0.00319981
0.00540137 -0.0137893
0.00533502 -0.015723
0.0054618 -0.146702
0.010557 -0.14863
-0.00979831 -0.0263222
-0.0124147 -0.0276189
0.00417238 -0.200564
0.00724072 -0.205792
-0.0342135 -0.329677
-0.0359571 -0.322954
-0.0101928 -0.292077
-0.00371382 -0.290173
0.00306448 -0.00207775
0.00407721 -0.00278534
-0.0166762 -0.0630518
-0.0188402 -0.0665905
0.0300964 -0.437488
0.0373744 -0.437272
0.004345 -0.281959
0.0017381 -0.275762
-0.00410378 -0.409324
0.000322112 -0.403593
0.00604739 -0.125344
0.0010377 -0.124572
0.0111439 -0.272629
0.0143593 -0.26686
-0.0251648 -0.0864378
-0.0216322 -0.0832911
0.00555493 -0.0607987
0.00779341 -0.0640246
0.00696979 -0.00813565
0.00543436 -0.00754458
-0.00517569 -0.0919632
-0.00573977 -0.0965057
0.00458807 -0.252824
-0.00173998 -0.254205
0.0100918 -0.40736
0.0107086 -0.400134
0.0192284 -0.238477
0.0130036 -0.239763
0.0360972 -0.397094
0.0401543 -0.391175
-0.0342465 -0.18677
-0.0283268 -0.185784
-0.0178852 -0.282477
-0.0192669 -0.275933
0.0121614 -0.391669
0.00742712 -0.386235
0.00266192 -0.287801
0.00441259 -0.28128
0.00770877 -0.259448
0.0109033 -0.253764
0.0104857 -0.413586
0.0147702 -0.419456
-0.00265619 -0.00184768
-0.00193568 -0.0011894
0.013289 -0.0288021
0.0105655 -0.0286567
-0.00921282 -0.228449
-0.0154452 -0.228222
-0.0354442 -0.186788
-0.0295012 -0.186087
-0.0170906 -0.0376091
-0.0142379 -0.0358078
0.0182237 -0.487265
0.015494 -0.494078
0.0280188 -0.293164
0.0341946 -0.290572
0.00742869 -0.457127
0.0144156 -0.459134
0.00595029 -0.0180544
0.0081425 -0.0182134
-0.0195035 -0.113337
-0.0174608 -0.11768
-0.0207481 -0.123029
-0.0157825 -0.123631
-0.0208149 -0.0976464
-0.0252791 -0.0997383
0.0200625 -0.32315
0.0162423 -0.31731
0.00139943 -0.000591359
0.000665504 -0.000233381
-0.00177577 -0.169765
0.00384162 -0.170594
-0.00925934 -0.0492048
-0.012256 -0.0479806
0.00317453 -0.00705915
0.00454657 -0.00790003
-0.00337068 -0.0162545
-0.00517776 -0.0175652
-0.00479983 -0.0109866
-0.00420203 -0.00932463
-0.00853612 -0.0585205
-0.0122114 -0.0585379
-0.00819086 -0.247646
-0.0115185 -0.253296
-0.0174213 -0.0482196
-0.0203713 -0.0506721
0.0137902 -0.126409
0.00897497 -0.127895
0.000986051 -0.000689768
0.0014483 -0.00124233
-0.0119088 -0.0242996
-0.00934023 -0.0237336
0.00395427 -0.193439
0.00455449 -0.199433
0.00309928 -0.00704704
0.00196742 -0.00607947
0.0131555 -0.0227585
0.0108283 -0.0230156
-0.0112423 -0.436626
-0.00509178 -0.432746
0.0070184 -0.00790378
0.00549683 -0.00729107
0.00198096 -0.00111879
0.00248842 -0.0017211
-0.0113363 -0.0367242
-0.0129729 -0.0346077
-0.0187804 -0.430618
-0.0255807 -0.433203
0.0248882 -0.351731
0.0220358 -0.358294
0.0193023 -0.336937
0.012627 -0.339079
0.0318793 -0.279536
0.0257341 -0.28202
0.00173245 -0.383974
0.00842118 -0.381531
-0.0271148 -0.481801
-0.0254284 -0.488946
0.0098333 -0.0326786
0.00703679 -0.0317463
-0.0159619 -0.108642
-0.0125743 -0.104918
-0.010657 -0.0288763
-0.00819028 -0.0272005
0.00681891 -0.0304454
0.00784447 -0.033225
0.00699884 -0.00950206
0.00542893 -0.00934676
0.00929737 -0.0368706
0.0121318 -0.0363446
-0.0370103 -0.326795
-0.0419925 -0.32209
0.0218352 -0.0596391
0.0182944 -0.0603167
0.0223661 -0.438811
0.0272727 -0.433442
-0.00747276 -0.269629
-0.0131999 -0.266429
-0.00549521 -0.149845
-0.00181568 -0.15387
-0.00184936 -0.290782
-0.00178115 -0.297603
0.00345508 -0.0141209
0.00519461 -0.0153061
-0.0218686 -0.291143
-0.0157966 -0.288064
0.019996 -0.0965358
0.024086 -0.0948393
-0.00936134 -0.269202
-0.00659503 -0.27524
-0.00613849 -0.118489
-0.00591343 -0.123539
0.00648508 -0.183047
0.00293142 -0.187723
3.09083e-05 1.46582e-05
0.000154614 -0.000109414
0.037813 -0.403126
0.0322201 -0.398473
0.0148097 -0.112929
0.015739 -0.117871
0.0236993 -0.135944
0.0229831 -0.141147
-0.0152577 -0.292804
-0.0160788 -0.299596
0.0095221 -0.0190812
0.0102954 -0.0214195
-0.0194406 -0.0783981
-0.0232635 -0.0808644
0.0391046 -0.332339
0.0378512 -0.325394
-0.0126436 -0.188097
-0.00707818 -0.186087
-0.0117471 -0.297019
-0.0185004 -0.297717
0.00782001 -0.0882229
0.0037755 -0.0898414
0.00116882 -0.141531
-0.00366766 -0.139383
-0.0272038 -0.437133
-0.0282585 -0.444377
-0.0163842 -0.386453
-0.0228563 -0.389621
0.00918379 -0.482073
0.00968138 -0.474749
0.0276115 -0.16516
0.0221921 -0.16319
0.000462718 -0.000218459
0.000588311 -0.000192147
-0.0403272 -0.470525
-0.0342557 -0.4746
0.0171573 -0.06036
0.013998 -0.0579197
0.0247541 -0.125651
0.0282081 -0.129816
-0.000430923 -0.00261414
-0.00125809 -0.00266691
-0.00818708 -0.463641
-0.00430989 -0.457429
-0.0119958 -0.300489
-0.0161489 -0.305992
-0.0306019 -0.32475
-0.0236311 -0.324788
-0.00479314 -0.0483665
-0.00512092 -0.0518564
0.0180595 -0.0688251
0.0154234 -0.0715088
-0.0145915 -0.0933609
-0.0134261 -0.0977648
-0.010781 -0.452633
-0.00490744 -0.456927
-0.00890686 -0.01233
-0.0070608 -0.0118437
0.00218183 -0.172874
0.00478829 -0.167782
-0.00224803 -0.458697
-0.00414874 -0.465782
-0.00854756 -0.402107
-0.008687 -0.409365
-0.0239499 -0.113261
-0.0236371 -0.118176
0.0201173 -0.13065
0.0168884 -0.126395
0.0357643 -0.425883
0.0407025 -0.420582
-0.0124389 -0.0716828
-0.0122596 -0.0676636
-0.027666 -0.178305
-0.0318223 -0.182753
-0.000968228 -0.00366577
-0.00126679 -0.00283604
-0.00173437 -0.431219
-0.00343318 -0.424128
0.00308115 -0.00390029
0.00378182 -0.00360301
0.0314489 -0.144051
0.026623 -0.141212
0.00429762 -0.00324859
0.00373977 -0.00353033
0.0270911 -0.424804
0.020698 -0.428209
0.021524 -0.104867
0.0262891 -0.10466
-0.0266862 -0.124129
-0.0276924 -0.119308
-0.0398567 -0.33333
-0.041008 -0.340364
0.0067089 -0.129279
0.00213551 -0.126901
0.0172315 -0.118829
0.0123922 -0.117373
0.00225715 -0.0762249
0.00603404 -0.0780165
0.0180104 -0.225386
0.012008 -0.223378
0.0100343 -0.277625
0.00772782 -0.283925
-0.000855762 -0.0165303
0.000738991 -0.0178468
-0.016613 -0.0469128
-0.0199184 -0.0468441
0.0374004 -0.299357
0.0306138 -0.299879
-0.00753809 -0.0222331
-0.00789622 -0.0247893
-0.00011499 -0.0183347
-0.00140784 -0.0201219
-0.00544606 -0.23351
-0.000236706 -0.237119
-0.019018 -0.377109
-0.0144341 -0.371559
-0.0268906 -0.132448
-0.0267326 -0.137674
0.00145245 -0.143051
0.00614058 -0.140584
0.00580824 -0.0285544
0.00696768 -0.0261957
0.0107848 -0.184339
0.0156628 -0.18777
-0.00544125 -0.0144929
-0.00729144 -0.0143235
0.0257136 -0.219031
0.0200479 -0.221553
0.0148598 -0.329102
0.0178598 -0.322831
0.0245382 -0.134514
0.0248042 -0.129338
-0.0102431 -0.0140702
-0.0112194 -0.016059
-0.0144136 -0.307092
-0.00829499 -0.3101
0.000441977 -0.0623854
0.00127519 -0.0586926
-0.0288147 -0.375402
-0.0240981 -0.369925
0.0105215 -0.0590802
0.0111603 -0.0628724
0.0186836 -0.270061
0.0175731 -0.263489
-0.00111872 -0.0903501
-0.00492719 -0.0925278
-0.00139962 -0.0119343
-2.69792e-05 -0.0108375
0.00544273 -0.00611599
0.0049021 -0.00695909
-0.000203157 -0.0148171
0.0012251 -0.0135747
-0.00682492 -0.472244
-0.000722255 -0.46825
-0.0308255 -0.414034
-0.0236746 -0.412888
0.00473031 -0.310951
0.00956945 -0.30611
0.0229249 -0.302791
0.027684 -0.307841
-0.0259782 -0.197624
-0.0312116 -0.201112
0.0144569 -0.0330757
0.0170115 -0.0352128
0.0334372 -0.294468
0.0331727 -0.301282
-0.00324417 -0.189127
-0.00756693 -0.185154
0.0181516 -0.473802
0.0179577 -0.481141
-0.0219624 -0.355621
-0.0148463 -0.355564
-0.00926202 -0.0328546
-0.012166 -0.03359
0.0200107 -0.0570958
0.0199581 -0.0607565
0.0104495 -0.205298
0.0143921 -0.200706
0.0152466 -0.41178
0.0136824 -0.418878
0.0116943 -0.0759939
0.01423 -0.079557
0.00773588 -0.0126109
0.00953314 -0.013961
0.00435904 -0.151295
0.0062971 -0.146215
0.00436264 -0.305803
0.000181682 -0.300382
-0.00584212 -0.39643
-0.000600288 -0.401357
0.022202 -0.437407
0.0267513 -0.431732
0.00240662 -0.00776641
0.00127357 -0.0085379
0.00241681 -0.303856
0.00677821 -0.30916
0.0229205 -0.119181
0.0276794 -0.121367
-0.00405428 -0.424642
0.00290706 -0.422687
-0.00860281 -0.0247985
-0.00602227 -0.0239822
0.00451728 -0.1334
-0.000634459 -0.134007
-0.0366583 -0.227663
-0.0342759 -0.221631
0.00925915 -0.155419
0.013599 -0.159023
0.0254516 -0.31755
0.0269519 -0.324379
-0.00880302 -0.037628
-0.00704473 -0.0399268
-0.00756705 -0.0958707
-0.0117 -0.0940187
0.027207 -0.151985
0.0240785 -0.156299
-0.0167547 -0.419827
-0.0100927 -0.41698
-0.00237677 -0.0358959
0.000470187 -0.0368866
0.0326286 -0.462628
0.0281204 -0.468396
0.00703555 -0.00842816
0.0057781 -0.00711636
0.0095982 -0.024881
0.00940466 -0.0223558
-0.0356921 -0.226347
-0.0326554 -0.231769
-0.00175042 -0.0187345
-0.00146732 -0.0165683
0.0147117 -0.459761
0.0210283 -0.456122
0.00427683 -0.252289
0.0106749 -0.251398
0.00666908 -0.144195
0.00220071 -0.141197
0.0387043 -0.293074
0.0320465 -0.291495
-0.0327264 -0.360633
-0.0315175 -0.353528
-0.00489509 -0.00450829
-0.00589709 -0.00566118
0.00727173 -0.162398
0.00219856 -0.164733
-0.0343907 -0.32407
-0.0274321 -0.32439
0.0120179 -0.0350642
0.0116279 -0.0321406
0.0168237 -0.0363217
0.0161175 -0.033353
0.000398248 -0.00119574
0.000624447 -0.000792851
-0.0122476 -0.206833
-0.0123347 -0.200677
-0.0328623 -0.16138
-0.0324816 -0.155789
0.0213189 -0.360032
0.0220893 -0.367187
0.0022189 -0.161194
-0.00157292 -0.165359
-0.00179044 -0.409202
0.00241557 -0.4151
-0.0386235 -0.491953
-0.0442618 -0.487235
-0.000315486 -0.00334382
-0.000646118 -0.0043796
-0.000345584 -0.000961856
-0.000848554 -0.00100406
-0.0301925 -0.248063
-0.0245036 -0.244723
-0.031727 -0.259826
-0.0335818 -0.26625
0.00050415 -0.000124566
0.000809504 -0.000326942
-0.00243307 -0.24531
0.000945739 -0.250845
0.000926787 -0.000583761
0.00148247 -0.000866471
-0.0419563 -0.329871
-0.0349326 -0.329357
0.000469492 -0.077814
0.00423333 -0.076158
0.0170068 -0.420067
0.0225176 -0.424814
-0.00628977 -0.0536905
-0.00681056 -0.0502315
0.00937728 -0.048299
0.0126976 -0.0495421
0.0103191 -0.0375873
0.00770268 -0.0387825
-0.0114667 -0.050056
-0.0116829 -0.0535864
-0.0329455 -0.365065
-0.0400661 -0.364479
-0.00235493 -0.00275262
-0.00154419 -0.00209086
-0.0155793 -0.0313657
-0.0140618 -0.0333503
0.0250754 -0.394936
0.0317772 -0.392372
0.0121595 -0.434845
0.00722094 -0.440194
-0.000233945 -3.10052e-05
-0.000504484 -0.00014886
0.0303896 -0.331162
0.0352603 -0.336384
0.0245437 -0.134905
0.0295868 -0.133889
-0.001415 -0.0160895
-0.00339961 -0.016037
0.00965369 -0.0193066
0.0094137 -0.0171471
0.00336253 -0.0036851
0.00256547 -0.00392548
0.0181579 -0.0904254
0.016908 -0.0946829
0.00427706 -0.0193148
0.00528208 -0.0175073
-0.0208575 -0.468676
-0.026574 -0.473245
0.00928396 -0.0430134
0.00615584 -0.0434552
-0.00907749 -0.0232035
-0.00666083 -0.0220417
0.010778 -0.396857
0.0106303 -0.389627
0.00702254 -0.00861145
0.0068704 -0.00729006
-0.0164665 -0.0491947
-0.019922 -0.0495033
0.000545668 -0.0108205
-0.000954017 -0.0116375
0.00983107 -0.239009
0.016101 -0.24035
0.021536 -0.203728
0.0154498 -0.202789
-0.0158402 -0.0531867
-0.0157869 -0.0497131
-0.00102209 -0.304126
-0.00181308 -0.310979
0.00103747 -0.122149
-0.00211141 -0.118239
0.0117679 -0.0212399
0.0133636 -0.0201203
-0.00671825 -0.00984574
-0.00531416 -0.00855991
0.0248356 -0.098347
0.0216961 -0.10151
-0.00412957 -0.0378202
-0.00493635 -0.0408951
-0.0394689 -0.346602
-0.0424711 -0.353193
-0.00784762 -0.0573521
-0.00566204 -0.0542916
0.00470632 -0.00415708
0.00398092 -0.00446331
0.00957989 -0.237077
0.0123624 -0.231378
0.0111483 -0.0191128
0.0128345 -0.0182962
0.00558333 -0.318253
0.0124386 -0.317956
0.00665452 -0.0669484
0.00986109 -0.0649574
-0.0422181 -0.436722
-0.0390354 -0.443265
-0.0215685 -0.425568
-0.014409 -0.426583
-0.0328933 -0.368446
-0.0389751 -0.372373
0.0146682 -0.270955
0.0126185 -0.277287
-0.019674 -0.257446
-0.0188089 -0.250927
0.0137394 -0.158841
0.0115091 -0.153662
0.00743899 -0.0144392
0.00703351 -0.0125496
0.0149195 -0.0549623
0.0115953 -0.0531714
0.00917988 -0.0195499
0.0105864 -0.0182767
0.0128537 -0.0435213
0.0126877 -0.0403273
0.0184565 -0.101326
0.0156321 -0.0972555
0.00616373 -0.0377853
0.00609822 -0.0347692
0.0135782 -0.295238
0.0180863 -0.300412
0.0223984 -0.357648
0.0294436 -0.356686
-0.0151305 -0.259462
-0.0146118 -0.252902
-0.0187601 -0.0464344
-0.0189444 -0.0432811
0.041433 -0.391835
0.0342425 -0.391157
-0.000601732 -0.000578339
-0.000330083 -0.000206027
-0.0193533 -0.215713
-0.0132587 -0.213916
0.0170037 -0.0800092
0.0191 -0.0840002
0.030083 -0.267819
0.0358509 -0.271356
0.00126088 -0.0231239
0.00222965 -0.021055
-0.00237468 -0.0014793
-0.00321675 -0.00218177
0.0128104 -0.275074
0.00855274 -0.280181
-0.0292222 -0.226978
-0.0350816 -0.229789
-0.0105349 -0.0365264
-0.00756122 -0.0362491
-0.0022562 -0.00396161
-0.00332019 -0.00471274
-0.0234303 -0.105967
-0.0224109 -0.110618
-0.0155904 -0.49652
-0.0086147 -0.494428
-0.00589315 -0.0211632
-0.00606514 -0.0236205
0.00870113 -0.427947
0.0158702 -0.428951
0.00654983 -0.27013
0.0115894 -0.265903
-0.00550466 -0.176133
-0.0112205 -0.176939
-0.0199411 -0.168641
-0.0254864 -0.170362
-0.00726239 -0.034836
-0.00477189 -0.0332199
0.0302425 -0.370617
0.0325984 -0.377446
-0.0182124 -0.338905
-0.0160194 -0.332156
-0.0266436 -0.129114
-0.0216369 -0.127378
0.0305152 -0.198699
0.0248663 -0.200648
0.0169889 -0.298548
0.0236998 -0.299752
0.00612118 -0.0120616
0.00617056 -0.0138693
0.0126218 -0.2076
0.00994544 -0.201993
0.0279161 -0.169214
0.0303371 -0.164261
-0.029828 -0.194188
-0.0349545 -0.191438
-0.036514 -0.434987
-0.0436448 -0.433554
-0.0242522 -0.335091
-0.0290248 -0.340445
-0.00621739 -0.0521443
-0.00421027 -0.0549824
0.00151625 -0.00669132
0.00254893 -0.00781121
-0.0145766 -0.139042
-0.012301 -0.134155
-0.0200378 -0.0825849
-0.0183842 -0.0784506
-0.0156434 -0.144379
-0.0210079 -0.145078
0.0194228 -0.103011
0.0225118 -0.0997179
0.00900077 -0.0767322
0.00865574 -0.0809414
0.00131978 -0.193453
-0.000571306 -0.199158
-0.00176844 -0.00108988
-0.00226836 -0.00125019
-0.0080334 -0.0782941
-0.00990135 -0.0822329
0.0382402 -0.454733
0.041951 -0.46106
0.0104461 -0.088966
0.0073067 -0.0920336
-0.0349302 -0.31811
-0.0377724 -0.324577
0.00228529 -0.160583
-0.00143039 -0.164807
0.00392446 -0.0160901
0.00233562 -0.0147133
-0.0101553 -0.0190667
-0.0111992 -0.0175977
-0.00270492 -0.18713
-0.00838851 -0.185786
-0.00442922 -0.00600941
-0.00332628 -0.00622215
-0.00121712 -0.000708487
-0.00147596 -0.00117644
-0.00794245 -0.00931562
-0.00818963 -0.00819927
0.0191946 -0.118517
0.023334 -0.116092
0.00321033 -0.00846516
0.00395851 -0.00744697
0.0126344 -0.0798843
0.00857997 -0.0784812
-0.00556072 -0.186292
-0.00963105 -0.190643
-0.0250985 -0.224099
-0.0219286 -0.229466
-0.00907009 -0.200631
-0.00788998 -0.194695
-0.013937 -0.0720444
-0.0157409 -0.0759319
-0.000924543 -0.170055
-0.00641815 -0.171593
-0.00830298 -0.0401122
-0.00607511 -0.0377337
0.00554515 -0.228875
0.00135718 -0.233618
0.0058176 -0.00672019
0.0073167 -0.00760007
-0.03551 -0.36438
-0.0283698 -0.364521
-0.00233915 -0.234114
-0.00863636 -0.234582
0.00656198 -0.0122173
0.00767079 -0.0112901
0.0150539 -0.381912
0.0187193 -0.375773
-0.0068515 -0.00663442
-0.00643291 -0.00548391
0.0198032 -0.287711
0.0215005 -0.294325
0.0347411 -0.19294
0.0314329 -0.18771
0.0380753 -0.287462
0.0380772 -0.294247
-0.00659019 -0.0697902
-0.010019 -0.0680284
-0.00326685 -0.0362309
-0.00027526 -0.0363323
-0.00955209 -0.10364
-0.0116037 -0.108235
-0.00110489 -0.00330374
-0.001486 -0.0043527
-0.014037 -0.409068
-0.0168601 -0.402416
-0.00460159 -0.0153651
-0.00365756 -0.0170558
-0.00911336 -0.0309942
-0.0104899 -0.0288484
0.00620213 -0.314629
0.0115509 -0.310342
0.0034654 -0.14053
0.00103663 -0.135787
0.0321933 -0.489008
0.0249958 -0.4877
0.0129629 -0.404382
0.0113942 -0.411464
9.527e-05 -0.00540386
-0.000772666 -0.00466581
-0.026059 -0.287181
-0.0320259 -0.284263
0.020527 -0.324218
0.0158028 -0.319078
0.0321274 -0.317821
0.0386378 -0.320455
0.0153165 -0.437609
0.00993672 -0.44251
0.0206774 -0.130034
0.0182721 -0.125299
0.0349895 -0.205278
0.0317191 -0.210335
0.004929 -0.19711
0.00505327 -0.191099
-0.0375878 -0.39977
-0.0347409 -0.406381
-0.0188491 -0.125663
-0.0159844 -0.121252
0.00263435 -0.33221
-0.00310817 -0.328417
-0.00542352 -0.127285
-0.00330556 -0.122598
0.0191983 -0.415901
0.0120604 -0.416969
0.00481641 -0.00550672
0.00599097 -0.00562127
-0.0334004 -0.216253
-0.0282787 -0.212323
-0.0137449 -0.331152
-0.020586 -0.332744
0.00172299 -0.00217279
0.00251284 -0.00234262
0.00517999 -0.181224
0.00431375 -0.18707
-0.0231641 -0.205186
-0.0228315 -0.199028
-2.17145e-05 -0.0497986
-0.00232599 -0.0473135
-0.0321295 -0.146435
-0.0285909 -0.150219
0.0320473 -0.377831
0.029401 -0.38449
-0.00139715 -0.472817
-0.00755143 -0.46893
0.00771561 -0.274808
0.00117281 -0.275874
-0.016301 -0.220612
-0.0193966 -0.226243
-0.00231515 -0.0356433
-0.00359122 -0.0384384
-0.00695601 -0.278555
-0.0127362 -0.275318
0.00284845 -0.0062568
0.00158798 -0.00623506
0.00721406 -0.0184894
0.00679718 -0.0163355
0.00725203 -0.446596
0.00352903 -0.452889
0.00148698 -0.194854
-0.00187013 -0.1998
-0.029509 -0.243072
-0.0287218 -0.24947
0.000532479 -0.0574538
-0.00152785 -0.0544596
-0.0199605 -0.415843
-0.0268415 -0.41814
-0.0101755 -0.462868
-0.01049 -0.455542
-0.0049169 -0.486853
-0.00881395 -0.48067
0.000188204 -0.0191436
0.00121605 -0.0211433
0.0244598 -0.183183
0.0253975 -0.177462
0.0215754 -0.359489
0.0272799 -0.36387
0.0172764 -0.27705
0.0106246 -0.277036
0.000158154 -0.0016055
-0.000224135 -0.00226474
0.00251482 -0.251073
0.000512215 -0.244882
0.0273705 -0.232604
0.0331298 -0.230122
-0.00573282 -0.125988
-0.000895525 -0.124421
-0.0190724 -0.20044
-0.0226594 -0.195713
-0.00316277 -0.00538603
-0.00197722 -0.00521791
0.018966 -0.387924
0.0125083 -0.384762
0.00172378 -0.0535757
0.00240325 -0.057173
0.0215911 -0.309919
0.0190536 -0.316311
-0.0339412 -0.433605
-0.0275015 -0.430162
0.00371107 -0.014385
0.0036474 -0.0124869
0.0411335 -0.48864
0.0419698 -0.495975
0.00521971 -0.0040072
0.0061028 -0.00510756
-0.0330522 -0.185449
-0.0284886 -0.188904
0.0223168 -0.182258
0.0195824 -0.176958
-0.00879522 -0.0500324
-0.00576458 -0.0481878
0.0264508 -0.166799
0.0271249 -0.161237
-0.0332055 -0.293346
-0.0382159 -0.288984
0.020647 -0.386155
0.0243152 -0.392397
0.0210715 -0.233672
0.0192873 -0.239783
0.000715481 -0.00512077
-0.000429599 -0.00506745
-0.014591 -0.382447
-0.0131659 -0.389497
-0.000560717 -0.0930233
-0.00380968 -0.0900732
-0.00620485 -0.195654
-0.00948642 -0.200732
-0.0106766 -0.19079
-0.00976097 -0.196715
0.0165695 -0.472522
0.00930005 -0.472826
-0.00904235 -0.23443
-0.0152755 -0.233566
-0.016465 -0.0824271
-0.0176012 -0.0784623
-0.00364711 -0.162982
-0.00229125 -0.168501
0.00425302 -0.00611926
0.0047744 -0.00534014
0.00103441 -0.231497
-0.000789097 -0.237607
0.0155734 -0.260292
0.0121685 -0.254615
-0.0333227 -0.490832
-0.0383599 -0.485492
-0.023871 -0.172211
-0.0181337 -0.172026
-0.0067405 -0.0564349
-0.00857114 -0.0597967
-0.0216032 -0.0968362
-0.0257904 -0.09536
0.00757008 -0.0561689
0.00755306 -0.0525599
-0.0189895 -0.0975694
-0.0143209 -0.0970294
-0.014331 -0.157605
-0.0147873 -0.152096
-0.0145355 -0.0405884
-0.0148617 -0.0376437
0.0272297 -0.456735
0.0276762 -0.449424
-0.00912703 -0.0808152
-0.00503305 -0.0796366
-0.000741516 -0.202539
0.00476582 -0.204633
0.00755329 -0.0169361
0.00559265 -0.0173607
-0.00214158 -0.0145001
-0.00333906 -0.0131627
-0.0319325 -0.315709
-0.0250485 -0.314849
0.0312217 -0.19011
0.034988 -0.185803
0.00292053 -0.377133
-0.00172763 -0.371733
0.0228512 -0.14855
0.0275476 -0.146192
-0.00674856 -0.00689521
-0.00620969 -0.00565984
0.015395 -0.0802919
0.0176553 -0.0841901
-0.0323799 -0.443203
-0.0271493 -0.438078
0.0172399 -0.14258
0.016917 -0.147969
-0.0411682 -0.4578
-0.03948 -0.464919
0.0308408 -0.428894
0.0328581 -0.43592
-0.0142974 -0.125899
-0.0097821 -0.123362
-0.0324236 -0.426661
-0.0361117 -0.432989
-0.00563992 -0.15029
-0.00832886 -0.145617
0.0232908 -0.0838913
0.0202948 -0.0866814
0.00213434 -0.0122937
0.00376524 -0.0118572
0.0325119 -0.413989
0.0365628 -0.408011
-0.0181965 -0.182662
-0.0138073 -0.186433
0.000597514 -0.000371163
0.000259286 -0.000122021
-0.0284067 -0.474294
-0.0228318 -0.479019
-0.00661376 -0.0339089
-0.00385722 -0.0340227
-0.00716154 -0.0846232
-0.00394478 -0.0816835
0.00679634 -0.0710028
0.0107632 -0.0718975
0.00395295 -0.0851916
-0.000162196 -0.0840591
-0.0186333 -0.238593
-0.0201897 -0.24491
0.000766182 -0.000932334
0.00104639 -0.000753003
0.00477106 -0.0250198
0.0034067 -0.0227095
0.0339138 -0.425402
0.0297623 -0.419395
0.0339751 -0.344507
0.0309456 -0.350913
-0.0330756 -0.408922
-0.0260638 -0.407089
0.00982137 -0.0153655
0.00810217 -0.0159096
0.00994486 -0.331302
0.00308696 -0.330716
-0.00644865 -0.0665046
-0.00256809 -0.0662635
-0.0263126 -0.0947554
-0.0256351 -0.0901718
0.00348419 -0.0475996
0.00604781 -0.0499973
-0.00660446 -0.0429064
-0.00381042 -0.0411852
0.014231 -0.455837
0.0150428 -0.463124
0.0109981 -0.4396
0.0150824 -0.445651
-0.00405954 -0.00266895
-0.0037294 -0.00213387
-0.0305116 -0.410506
-0.0240075 -0.407274
0.0180539 -0.338427
0.0161335 -0.331626
0.0024085 -0.00680269
0.00244587 -0.00823487
-0.00545168 -0.00443219
-0.00658264 -0.00555476
-0.000667717 -0.273915
-0.00375591 -0.27987
-0.0158519 -0.263076
-0.0170625 -0.256628
-0.00206843 -0.00186706
-0.00134852 -0.0016302
0.026257 -0.136522
0.0307317 -0.134179
0.0122938 -0.0564348
0.0152714 -0.0547803
-0.000930525 -0.000424527
-0.000604582 -0.000190681
0.00971942 -0.0180747
0.00908845 -0.0159477
-0.0225892 -0.143166
-0.0258664 -0.139228
-0.020203 -0.428345
-0.0265974 -0.42497
-0.036387 -0.389363
-0.0417851 -0.384704
-0.00541888 -0.0484507
-0.00874811 -0.0494454
-0.0175463 -0.120029
-0.0156706 -0.115259
-0.00202738 -0.0391581
-0.00446569 -0.0412195
-0.0136605 -0.217944
-0.0142223 -0.224292
-0.00511022 -0.394901
-0.0116454 -0.397904
-0.0042318 -0.00617181
-0.00537422 -0.00738336
0.000286331 -4.34486e-05
4.35946e-05 -5.97655e-06
0.00105937 -0.0060551
0.00230064 -0.00662367
-0.00121705 -0.000537063
-0.000779807 -0.000299123
0.0231941 -0.203124
0.0292862 -0.204211
-0.0115823 -0.0316709
-0.0129641 -0.0295829
3.33357e-05 -0.00301858
0.000435924 -0.00395921
-0.000878512 -0.000423394
-0.00140321 -0.000711333
0.00432669 -0.328987
0.00466912 -0.322017
0.0296915 -0.453204
0.0328993 -0.459792
0.00246201 -0.00156123
0.0033541 -0.00203282
0.00574167 -0.0155602
0.00733985 -0.0147602
0.00280588 -0.289836
0.000169786 -0.283603
0.0120138 -0.422149
0.00821465 -0.415948
0.0390319 -0.342585
0.0387004 -0.335488
-0.0413887 -0.304809
-0.0359253 -0.30876
0.0120482 -0.304027
0.0186595 -0.305789
-0.000282361 -5.23406e-05
-0.000825311 -0.000311405
-0.0167991 -0.101283
-0.0163338 -0.0965092
0.000423179 -0.000108981
9.95988e-05 -3.99053e-07
0.00190788 -0.00125778
0.0012505 -0.000731518
-0.00236949 -0.00196349
-0.00212435 -0.00239719
-0.00151322 -0.0129375
-0.00234257 -0.0147436
-0.00916506 -0.0106429
-0.00993441 -0.0123713
-0.00617279 -0.00992174
-0.00781432 -0.010188
-0.0121744 -0.0170259
-0.00997678 -0.016173
0.0150094 -0.440379
0.0222671 -0.440566
-0.0349253 -0.254722
-0.0288479 -0.252042
0.0320271 -0.243232
0.0262669 -0.245927
-0.0123334 -0.253484
-0.0180408 -0.250537
-0.0043945 -0.00703093
-0.0032119 -0.00598128
0.0106101 -0.1618
0.00957335 -0.167355
0.00184759 -0.0113299
0.00344162 -0.012258
-0.0183233 -0.119732
-0.0195546 -0.115008
0.0229856 -0.225758
0.0236821 -0.232127
-0.0281961 -0.203804
-0.0312049 -0.198675
0.00380886 -0.0106063
0.00527239 -0.0118729
-0.000759806 -0.0113029
0.000394776 -0.010064
0.0248393 -0.190837
0.0248296 -0.196857
-0.012705 -0.0759289
-0.0167334 -0.0774523
0.00492247 -0.26967
-0.00147673 -0.27129
-0.0392075 -0.38941
-0.0373617 -0.396354
0.000528825 -0.491274
0.00302066 -0.484388
0.00738927 -0.384116
0.0062079 -0.377016
0.00460672 -0.0187083
0.00388865 -0.0165923
0.00870875 -0.241701
0.0145913 -0.239304
0.00273767 -0.494683
-0.00448896 -0.494195
0.00244661 -0.13615
-0.00202279 -0.13344
0.0042163 -0.436846
0.00670523 -0.443716
0.0259283 -0.151394
0.0205374 -0.152027
0.00454259 -0.090092
0.00868149 -0.0917957
-0.0126218 -0.205095
-0.00748998 -0.201687
0.0384713 -0.368907
0.0313159 -0.369284
-0.0212127 -0.0989855
-0.0240021 -0.095595
0.000711018 -0.000221933
0.0008912 -0.000383687
-0.0222581 -0.29628
-0.0171259 -0.30065
0.0187219 -0.28946
0.01238 -0.291652
0.0219513 -0.155111
0.0213722 -0.149595
-0.00236979 -0.171706
0.00171331 -0.167713
0.00415985 -0.0216888
0.00206944 -0.0206346
0.00919352 -0.274531
0.00779349 -0.267992
-0.00248754 -0.00294814
-0.00222418 -0.00365821
0.00559247 -0.245782
0.00919803 -0.240479
-0.00783258 -0.399563
-0.0119939 -0.393699
0.0265597 -0.354461
0.0241308 -0.347665
0.0145281 -0.0879949
0.0139286 -0.0835974
0.00318768 -0.320037
-0.00243001 -0.324031
-0.00347659 -0.0093727
-0.00364206 -0.00793283
-0.0247893 -0.185738
-0.0231269 -0.179994
-0.0140358 -0.11271
-0.0149027 -0.107953
-0.0347382 -0.258062
-0.037908 -0.252506
0.0199034 -0.38348
0.0264489 -0.380621
-0.022929 -0.369368
-0.0172214 -0.373569
-0.00727484 -0.0588513
-0.010946 -0.0587559
-0.000671884 -0.00778667
-0.00089003 -0.0093322
-0.0284594 -0.29224
-0.0239671 -0.297211
0.0189516 -0.0723207
0.0153637 -0.0699867
-0.0240694 -0.194728
-0.0192004 -0.190965
3.93909e-05 -0.00143328
0.000436222 -0.00104204
0.0209934 -0.172814
0.0253031 -0.176919
0.000757848 -0.00119371
0.000472459 -0.00168227
0.0113505 -0.211627
0.0123457 -0.217951
-0.0102568 -0.0290368
-0.0125873 -0.031107
0.0203117 -0.18558
0.0205351 -0.191541
0.0364863 -0.351952
0.0308674 -0.356259
0.00669734 -0.313051
-0.000127985 -0.313379
-0.00718725 -0.0123681
-0.00713716 -0.0141237
0.0142229 -0.127376
0.00913307 -0.127569
-0.00625982 -0.00554427
-0.00543796 -0.00440629
0.0128287 -0.341919
0.016172 -0.335714
0.0367531 -0.339853
0.0315082 -0.334967
-0.0114312 -0.0419879
-0.0146473 -0.0428624
0.0250194 -0.0936762
0.0231362 -0.0976548
-0.020654 -0.0604363
-0.0197074 -0.0567184
-0.000204147 -0.0554223
-0.000946397 -0.0590523
-0.0131366 -0.0561764
-0.0106417 -0.0585656
-0.0113931 -0.382914
-0.0174669 -0.379225
-0.0115563 -0.0251874
-0.0121781 -0.0229916
-0.0117378 -0.125659
-0.00720071 -0.123239
-0.00481069 -0.00345587
-0.0037543 -0.00298066
-0.0239043 -0.201978
-0.0300203 -0.202757
-0.0133789 -0.036927
-0.016261 -0.0365982
-0.0263562 -0.142556
-0.0228587 -0.14636
-0.0129073 -0.132543
-0.0134744 -0.127409
0.0311966 -0.493532
0.0363532 -0.488289
0.010096 -0.120944
0.0112241 -0.125964
-0.0250501 -0.415042
-0.0190765 -0.419082
-0.00520029 -0.0888782
-0.00725258 -0.0929024
0.0274023 -0.162678
0.029601 -0.168073
-0.0233779 -0.348541
-0.0202204 -0.354942
0.00138317 -0.000624754
0.00080559 -0.000267073
-0.00569032 -0.0802059
-0.00979327 -0.081439
0.00581831 -0.00451406
0.00531907 -0.00359035
-0.018791 -0.0443185
-0.0177842 -0.0471806
0.0414533 -0.352949
0.0415759 -0.360131
0.00973044 -0.0231533
0.00971823 -0.0256854
-0.00013482 -0.00125335
-0.000420962 -0.00083006
0.00299662 -0.45199
-0.00409166 -0.450436
0.000381991 -0.0399152
-0.00152113 -0.0374845
-0.000671982 -0.000553339
-0.00120409 -0.00090852
-0.0155216 -0.116871
-0.0149751 -0.111919
-0.0149457 -0.0499706
-0.0157894 -0.053494
0.0274748 -0.19412
0.0261722 -0.1882
0.00374213 -0.00500835
0.00427524 -0.00438814
0.011048 -0.0479818
0.010855 -0.0446234
0.00312328 -0.256098
-0.00281599 -0.253463
0.0318316 -0.287264
0.0320469 -0.280528
0.0234171 -0.225771
0.0171554 -0.226392
-0.000729955 -0.000579977
-0.000409931 -0.000207024
0.01028 -0.0960919
0.00872603 -0.100535
0.0341431 -0.2509
0.0369405 -0.256949
-0.0293745 -0.317209
-0.0273691 -0.310528
0.0288949 -0.417757
0.0288716 -0.42504
0.000865211 -0.308858
0.0073333 -0.306706
-0.00556508 -0.056625
-0.00833087 -0.0592552
0.00152647 -0.00373606
0.00212137 -0.00318892
-0.0305634 -0.188486
-0.0305466 -0.194472
0.0314652 -0.223671
0.0257162 -0.226067
-0.0191473 -0.200324
-0.0142827 -0.196509
0.022872 -0.314796
0.02097 -0.321442
-0.0211874 -0.379361
-0.0282027 -0.378079
0.00645224 -0.0546589
0.0100189 -0.0546986
-0.00693382 -0.182566
-0.00424515 -0.177335
0.0147776 -0.182746
0.0135525 -0.17698
0.0317521 -0.301534
0.0385633 -0.301134
0.0106585 -0.365798
0.0037509 -0.367266
0.00333904 -0.120216
0.00565965 -0.124757
0.0119575 -0.0172948
0.00994618 -0.0174587
0.0196761 -0.378312
0.0262026 -0.381352
-0.0200838 -0.346061
-0.0179276 -0.339194
-0.00176376 -0.000865365
-0.00200821 -0.00116272
-0.0397704 -0.456431
-0.0435883 -0.462708
-0.00455672 -0.0716062
-0.00853794 -0.0723906
-0.0065346 -0.294078
-0.0127145 -0.29691
-0.00349192 -0.258147
-0.00953045 -0.260705
-0.00976386 -0.0438386
-0.0130209 -0.0441241
-0.0197208 -0.120815
-0.0183107 -0.125575
-0.020989 -0.0729781
-0.0224063 -0.069478
0.0175705 -0.0628158
0.0208983 -0.061495
0.0223507 -0.245018
0.0176254 -0.240483
-0.0383185 -0.41468
-0.0360451 -0.421557
-0.0302076 -0.352226
-0.0261926 -0.346213
-0.0131712 -0.111918
-0.0124027 -0.107039
0.00236147 -0.234472
0.0057914 -0.239887
-0.0302234 -0.410329
-0.0230121 -0.410634
0.00961181 -0.369374
0.0131276 -0.37563
-0.00110483 -0.000617695
-0.00139337 -0.00107803
0.0245454 -0.381778
0.0310519 -0.384907
-0.0053977 -0.012081
-0.00527788 -0.0103825
0.00666449 -0.0153286
0.00839498 -0.0148103
-0.00126698 -0.484209
0.00511359 -0.480697
0.0291696 -0.258882
0.0339929 -0.263573
0.00936144 -0.317324
0.0110189 -0.324084
0.00838134 -0.41737
0.0146145 -0.413724
-0.011538 -0.0574322
-0.00797353 -0.0579463
0.0209578 -0.318413
0.0174003 -0.312429
0.00167297 -0.00347876
0.00156234 -0.00255745
0.00933375 -0.0849979
0.0117418 -0.0888252
0.000277123 -0.0575288
-0.00336471 -0.0577779
-0.00938102 -0.188824
-0.0132534 -0.193437
-0.0133099 -0.0512285
-0.0134402 -0.0478296
-0.0152883 -0.396851
-0.00866298 -0.399573
-0.0143652 -0.321471
-0.021212 -0.320541
0.00971094 -0.0160504
0.00833787 -0.0141772
0.0280384 -0.246069
0.0283591 -0.252586
-0.00732228 -0.0302259
-0.00953984 -0.0323311
0.0153453 -0.390908
0.0112784 -0.384942
-0.0235429 -0.403953
-0.0169117 -0.406712
0.0307075 -0.147611
0.0286555 -0.152489
0.0059163 -0.00851885
0.00714456 -0.00997212
-0.0323015 -0.36613
-0.0261811 -0.362322
0.0357568 -0.206283
0.0353298 -0.20012
0.000807885 -0.141025
0.00473269 -0.137494
0.0128825 -0.0205873
0.011436 -0.0183891
-0.0241824 -0.370551
-0.0310187 -0.372772
-0.0341159 -0.257023
-0.0338717 -0.25048
0.00960311 -0.464829
0.008528 -0.47209
0.00189118 -0.143969
-0.00132813 -0.139689
-0.0352116 -0.300888
-0.0388429 -0.29526
0.0341506 -0.354255
0.0412358 -0.353458
0.00649824 -0.0346383
0.00672925 -0.0376549
-0.0248285 -0.249203
-0.0270141 -0.255444
-0.0221333 -0.246871
-0.0284253 -0.248653
-0.0189781 -0.0768848
-0.023187 -0.0772768
-0.0139637 -0.446939
-0.0148596 -0.454213
0.00186682 -0.0395859
-0.000480019 -0.0375682
0.0196549 -0.0776659
0.0237951 -0.0792253
0.0055903 -0.482673
0.00491324 -0.489974
-0.0257157 -0.248094
-0.0224721 -0.242361
0.0319333 -0.441155
0.0378817 -0.436967
0.0128439 -0.327765
0.00624619 -0.329833
-0.0117289 -0.0472567
-0.0136882 -0.0503516
-0.00392695 -0.254793
-0.00820072 -0.249926
0.00708959 -0.00904547
0.00564325 -0.00786878
0.0271318 -0.322922
0.0340948 -0.323028
-0.0240189 -0.401435
-0.0216622 -0.394568
0.00357526 -0.00606112
0.00442642 -0.00554089
-0.0270276 -0.152709
-0.0249485 -0.157669
0.00342988 -0.00181059
0.00248435 -0.00119842
0.000277797 -3.73028e-05
0.000687669 -0.000252179
0.0111811 -0.118304
0.0087152 -0.122592
0.0307293 -0.231138
0.0253198 -0.227534
-0.0104602 -0.031721
-0.00882208 -0.0337586
0.00853525 -0.0378204
0.00590557 -0.0390704
0.0111457 -0.0194536
0.0128968 -0.0215727
0.0150232 -0.400936
0.0222067 -0.401387
-0.0310561 -0.259614
-0.036955 -0.262836
-0.0126184 -0.0538102
-0.00910105 -0.0539713
-0.0304312 -0.365194
-0.0372244 -0.367587
-0.00758797 -0.16997
-0.00638362 -0.164363
0.0188467 -0.0469925
0.0191398 -0.043838
0.00971153 -0.0369288
0.00778532 -0.0343891
-0.0167893 -0.194795
-0.0121728 -0.19855
-0.0115824 -0.10422
-0.0163831 -0.104746
0.032708 -0.387513
0.0313639 -0.394589
0.00227513 -0.169786
0.00625783 -0.173953
-0.00462776 -0.00666223
-0.00330303 -0.00594523
-0.00260235 -0.235568
-0.0071384 -0.231167
0.00837915 -0.182561
0.0141743 -0.183348
0.0126906 -0.161622
0.00752419 -0.159379
0.0104976 -0.27384
0.0157533 -0.278024
0.00601903 -0.298931
-0.00074759 -0.299162
0.00769356 -0.0600297
0.0113381 -0.0595829
0.0221928 -0.346926
0.0194031 -0.353515
-0.0119946 -0.118973
-0.00973723 -0.123376
0.0192576 -0.452969
0.0257857 -0.449741
0.010726 -0.0434254
0.0130712 -0.0460866
0.0208304 -0.107451
0.0190782 -0.102768
0.0101304 -0.133403
0.0141158 -0.136992
0.0272928 -0.352037
0.0333042 -0.348333
-0.0364533 -0.435227
-0.0293114 -0.436549
-0.0123024 -0.409517
-0.0131955 -0.416741
-0.00428358 -0.00593438
-0.00317818 -0.00492887
-0.00696699 -0.151322
-0.0124052 -0.15189
0.00215666 -0.0773176
0.000381153 -0.0811631
-0.0124541 -0.196131
-0.0177146 -0.193388
-0.0238979 -0.0729143
-0.0213383 -0.0756793
-0.00392611 -0.14055
-0.0017054 -0.135698
0.00634259 -0.0676622
0.00294975 -0.0656071
0.000831481 -0.0176561
0.000926512 -0.0155394
0.0114559 -0.0412774
0.0083262 -0.0404661
-0.000130632 -0.0770618
-0.00229715 -0.08071
0.00017067 -1.5106e-05
0.000472647 -0.000189042
0.0123637 -0.0280683
0.0131659 -0.0257863
-0.00675342 -0.176812
-0.00522689 -0.171199
0.0151237 -0.253731
0.0175681 -0.259881
-0.0230697 -0.0779578
-0.0229229 -0.0821409
0.0072626 -0.113199
0.00905806 -0.108737
0.015211 -0.423954
0.0189891 -0.417756
-0.0137355 -0.0972578
-0.00908352 -0.0976632
-0.00192299 -0.00162772
-0.001233 -0.00108774
-0.0077004 -0.0195275
-0.00677001 -0.0173466
-0.0131688 -0.227331
-0.0192908 -0.228976
-0.00194633 -0.293028
0.00185036 -0.298675
0.00355487 -0.436646
-0.00363952 -0.437497
-0.013161 -0.0360976
-0.0106217 -0.0372131
-0.0377013 -0.368393
-0.0359685 -0.375324
0.00549481 -0.185856
0.011337 -0.186271
0.0339069 -0.295219
0.0373593 -0.289498
-0.0257168 -0.342605
-0.0260274 -0.349778
0.0131724 -0.442766
0.0069614 -0.43899
0.00935984 -0.320271
0.01443 -0.315609
-0.00594071 -0.319809
-0.00226874 -0.325695
-0.00136821 -0.00123502
-0.00152715 -0.00186703
0.00060749 -0.000404928
0.000407767 -0.000584552
-0.0132668 -0.116551
-0.0126666 -0.121497
-0.0245286 -0.0976465
-0.0215806 -0.100955
-0.0229925 -0.178085
-0.0284106 -0.176338
0.00773541 -0.148255
0.00461539 -0.143767
0.0259938 -0.337006
0.0195386 -0.334097
0.0138816 -0.022917
0.0114059 -0.0227236
-0.0247363 -0.346775
-0.018691 -0.35044
0.0230155 -0.349963
0.0226037 -0.357149
0.032358 -0.452291
0.0386716 -0.448638
-0.0137689 -0.142765
-0.0122229 -0.137576
-0.0320171 -0.256945
-0.0284026 -0.25133
0.00694073 -0.0222968
0.00624602 -0.0199259
-0.0347513 -0.274107
-0.0369618 -0.280533
0.00896943 -0.158867
0.00742518 -0.164255
0.0272806 -0.285302
0.0254576 -0.291776
0.0183733 -0.0684971
0.0160412 -0.0714409
-0.020685 -0.294725
-0.0231378 -0.288454
-0.00331397 -0.0689572
-0.000317886 -0.0715718
0.0241599 -0.141054
0.029457 -0.14237
0.0219032 -0.102685
0.0171776 -0.101683
0.0186637 -0.0751095
0.0228202 -0.0753957
-0.0165492 -0.114055
-0.0205212 -0.1115
0.00892423 -0.0626274
0.00548013 -0.0608586
0.0279974 -0.104865
0.0245332 -0.107847
0.0029243 -0.293628
-0.00377588 -0.294412
-0.0252538 -0.318848
-0.0243008 -0.325734
0.027699 -0.396191
0.0306625 -0.402823
-0.00502716 -0.3829
-0.00297068 -0.389798
0.00322836 -0.0018002
0.00231108 -0.00119406
-0.00332032 -0.00529671
-0.00227502 -0.00554597
-0.0030021 -0.00843586
-0.00170474 -0.00752804
-0.0043919 -0.00866898
-0.00397386 -0.00719036
-0.0329982 -0.170649
-0.0282801 -0.173551
-0.0124721 -0.239723
-0.00719243 -0.236064
0.0238554 -0.297824
0.0191227 -0.292842
-0.023005 -0.141412
-0.0193573 -0.137263
0.00187404 -0.0617913
0.00200978 -0.0656721
-0.0384676 -0.35359
-0.0392716 -0.360742
0.0203698 -0.309344
0.0136338 -0.3105
-0.0278021 -0.240561
-0.0302508 -0.234747
0.00158413 -0.00494743
0.000758669 -0.00406777
0.00162134 -0.130077
0.00622735 -0.132491
0.016302 -0.089304
0.0142709 -0.0931652
0.00164641 -0.00166364
0.00201877 -0.00244366
0.0317994 -0.398096
0.0255274 -0.401603
-0.0348825 -0.333211
-0.0296233 -0.328382
0.0187917 -0.247038
0.0143472 -0.25166
-0.00927038 -0.298607
-0.0143034 -0.303273
0.03452 -0.357647
0.0364285 -0.364613
0.0319683 -0.16255
0.0265794 -0.163813
-0.00478077 -0.0111635
-0.00511308 -0.00968657
-0.0133636 -0.0207356
-0.0109864 -0.0203709
0.0160257 -0.133435
0.0163619 -0.13873
0.0125336 -0.485772
0.00527971 -0.485361
-0.0334375 -0.438905
-0.0371069 -0.445256
0.00808067 -0.00923225
0.00750802 -0.0103253
-0.0105987 -0.0360287
-0.0086526 -0.0379969
0.00837976 -0.125609
0.0129475 -0.128082
0.0243561 -0.0909561
0.0214397 -0.0871603
0.022544 -0.0904498
0.0261256 -0.0882566
0.0112281 -0.0720919
0.0133987 -0.0689073
0.00458398 -0.00467402
0.00341739 -0.00395598
-0.0086286 -0.00920936
-0.00709167 -0.00898409
0.00780113 -0.0744159
0.00651969 -0.0704677
-0.00941977 -0.488764
-0.0164145 -0.48677
0.00510365 -0.487745
0.00977385 -0.493341
0.0312925 -0.452428
0.0297186 -0.459579
0.0184863 -0.240951
0.0233923 -0.245299
-0.00423152 -0.00640113
-0.00451124 -0.00542625
0.0265355 -0.10571
0.0288117 -0.110295
0.00490226 -0.0267069
0.00316874 -0.0244167
-0.0253196 -0.201444
-0.0214575 -0.196517
0.0103546 -0.0370263
0.00843139 -0.0344604
0.022575 -0.114606
0.0265304 -0.118052
0.0313196 -0.310072
0.0277635 -0.315904
0.0200209 -0.0843276
0.0222515 -0.0884105
0.00905766 -0.0107731
0.00876599 -0.00925969
-0.023611 -0.278885
-0.016943 -0.278468
-0.000518637 -0.000995564
-8.2532e-05 -0.000675397
-0.0152078 -0.0420064
-0.0134843 -0.0390434
-0.0111575 -0.0278974
-0.0120767 -0.0256761
0.0361352 -0.394835
0.0296243 -0.397867
-0.00398809 -0.282253
-0.00851475 -0.277352
-0.0180607 -0.0982489
-0.0134385 -0.0986161
-0.00332329 -0.275271
-0.00785281 -0.280225
0.0192187 -0.237199
0.0141202 -0.240942
-0.0129799 -0.481273
-0.0101595 -0.474504
0.0124332 -0.0468173
0.0104056 -0.0439128
0.0134165 -0.430859
0.0195234 -0.434807
0.0169156 -0.0704081
0.0206741 -0.0724778
0.00806463 -0.0453377
0.00824513 -0.042094
0.00268339 -0.00572609
0.00384 -0.00669473
0.0200523 -0.273405
0.0210384 -0.266842
0.0121643 -0.290126
0.00679056 -0.294184
-0.00887267 -0.0294588
-0.00826396 -0.0320906
-0.0361603 -0.434691
-0.0434483 -0.434928
-0.00979568 -0.0447544
-0.00796549 -0.0418516
-0.00272047 -0.0829569
0.00149576 -0.0832901
0.000848662 -0.000723812
0.000398458 -0.000551788
-0.005918 -0.00615538
-0.00722279 -0.00644573
-0.0167907 -0.0624311
-0.0142025 -0.0593142
-0.0124548 -0.190245
-0.015688 -0.195385
-0.00446592 -0.309263
0.0015785 -0.312465
-0.00304237 -0.00198181
-0.00353571 -0.00203627
0.0168415 -0.186981
0.0219986 -0.184328
-0.0144377 -0.0885098
-0.016484 -0.0927296
-0.00756186 -0.00724903
-0.00618521 -0.00608451
-0.000971763 -0.00382969
-0.000665668 -0.00284452
0.0167419 -0.431507
0.0237302 -0.429592
-0.0230664 -0.222169
-0.0168301 -0.221175
0.0326297 -0.201745
0.0269149 -0.203616
0.0133968 -0.203666
0.0173134 -0.208601
-0.0264583 -0.241664
-0.0327339 -0.240531
0.0346647 -0.29685
0.0340115 -0.303637
-0.0373881 -0.254027
-0.0336244 -0.259197
0.0196168 -0.145164
0.0237377 -0.142004
-0.0207869 -0.144941
-0.0181322 -0.149505
0.000833818 -0.00119983
0.000392374 -0.000731033
-0.00209848 -0.0817907
-0.00201697 -0.086159
0.0268974 -0.273495
0.0245698 -0.267182
-0.0090057 -0.0743035
-0.00607736 -0.0713082
-0.00941922 -0.0212698
-0.0116986 -0.0211448
0.0195192 -0.331643
0.0204795 -0.324722
-0.020061 -0.0679803
-0.0161461 -0.0667665
-0.0166843 -0.330113
-0.0108146 -0.326316
0.0174953 -0.169629
0.0136406 -0.165287
-0.0304021 -0.372633
-0.0369009 -0.375793
0.0133533 -0.261021
0.0150334 -0.267458
-0.0350416 -0.348221
-0.0354113 -0.341097
-0.00719814 -0.0566114
-0.00975256 -0.0594961
0.0222932 -0.468337
0.0162747 -0.464212
-0.0172603 -0.475652
-0.00998954 -0.475453
0.00631983 -0.0326309
0.00681087 -0.0355527
-0.014936 -0.227729
-0.0159421 -0.23405
-0.00553931 -0.00628784
-0.00419107 -0.00569319
0.0223287 -0.398388
0.0152347 -0.399516
0.0134313 -0.25274
0.0194105 -0.250361
0.0109059 -0.275221
0.00549303 -0.279066
0.0152203 -0.0331928
0.0136654 -0.0352768
0.0119832 -0.025494
0.00975855 -0.0235988
0.0176605 -0.105071
0.0146749 -0.108684
0.000749132 -0.000273794
0.000884977 -0.000507646
-0.00869189 -0.152556
-0.0126218 -0.156568
-0.00392204 -0.456943
-0.00737528 -0.450504
0.0184275 -0.149543
0.0132446 -0.147674
0.0130288 -0.037608
0.0132815 -0.0347219
0.0184449 -0.291397
0.0237555 -0.295729
-0.0227946 -0.438581
-0.0222219 -0.431293
-0.031222 -0.198529
-0.0275399 -0.203165
-0.0208243 -0.169083
-0.0253764 -0.172861
0.00532594 -0.00664869
0.00635625 -0.00801269
-0.0110125 -0.0329877
-0.010891 -0.030157
-0.0220718 -0.317385
-0.0273345 -0.31302
-0.0132943 -0.0707246
-0.0115963 -0.0742651
-0.0163926 -0.339041
-0.0209334 -0.344624
-0.0178822 -0.0461328
-0.0191406 -0.0434632
0.00267132 -0.493798
-0.00454934 -0.493214
0.00827569 -0.247302
0.00317645 -0.243319
0.0070588 -0.00925574
0.00712695 -0.0107712
0.0389454 -0.304874
0.0320972 -0.305083
0.0165504 -0.37271
0.0108867 -0.377016
0.00628197 -0.17517
0.0117979 -0.17371
0.0239661 -0.122124
0.0289761 -0.123577
0.0128956 -0.3299
0.0181319 -0.334584
0.00777541 -0.0131425
0.00588783 -0.0126768
0.0315393 -0.389364
0.0243873 -0.388535
-0.0348359 -0.207026
-0.0292963 -0.209445
-8.71829e-06 -0.0071356
0.000437699 -0.00586652
-0.00804011 -0.329525
-0.0125632 -0.324256
0.0121077 -0.269815
0.0183037 -0.27227
-0.017165 -0.0583515
-0.019391 -0.0558688
0.00625189 -0.290633
0.000916866 -0.294777
0.0230951 -0.0942021
0.0242798 -0.0988541
-0.00623542 -0.162005
-0.00465956 -0.167437
0.0012669 -0.00123969
0.000841803 -0.000687562
-0.0212219 -0.202793
-0.0211804 -0.196683
0.00723979 -0.158525
0.0101414 -0.163406
-0.0378604 -0.225169
-0.0315871 -0.225809
0.0159983 -0.181784
0.0151404 -0.187606
0.0356678 -0.457882
0.0364755 -0.465168
0.0196604 -0.209896
0.0137759 -0.211747
0.00910458 -0.144219
0.012434 -0.140142
0.00140957 -0.29771
0.0081233 -0.296912
-0.0122567 -0.470394
-0.0184342 -0.466533
-0.00321878 -0.116641
0.00164673 -0.11765
-0.0117588 -0.0226636
-0.0131458 -0.0251573
0.026989 -0.169756
0.022454 -0.166007
0.0205585 -0.366117
0.0202126 -0.373288
-0.043659 -0.424288
-0.0433116 -0.431566
-0.0183735 -0.039819
-0.0174147 -0.0367425
-0.0254965 -0.25237
-0.0190108 -0.251804
0.0161225 -0.261481
0.019528 -0.267229
-0.00134537 -0.00276279
-0.00152684 -0.00373896
-0.0363436 -0.242916
-0.0350319 -0.236543
0.00117574 -0.000487714
0.000843488 -0.00029218
0.0353394 -0.203216
0.0339423 -0.197168
-0.0425678 -0.396572
-0.0390078 -0.390222
0.00398681 -0.0404766
0.00667528 -0.0423326
-0.00455777 -0.300753
-0.00020277 -0.295501
-0.0104582 -0.122629
-0.00602708 -0.120151
-0.0214369 -0.119442
-0.0174982 -0.116028
0.00666289 -0.0157889
0.00872894 -0.0160333
0.00133611 -0.037843
-0.000173095 -0.0352094
-0.0377849 -0.2924
-0.0313558 -0.294337
-0.000706765 -0.0841983
-0.00466612 -0.0858812
0.0214098 -0.242816
0.0259593 -0.238429
-0.0186115 -0.270224
-0.0177829 -0.276837
-0.00252224 -0.00672022
-0.00127593 -0.00609316
0.00216223 -0.237117
0.00446516 -0.243135
-0.0302269 -0.296317
-0.0262843 -0.290651
-0.00530271 -0.00960794
-0.00419157 -0.0104415
0.00266327 -0.00251324
0.00279083 -0.00202094
0.0241001 -0.309168
0.0172642 -0.309558
-0.0334735 -0.173458
-0.0309956 -0.178478
0.0020417 -0.00896037
0.00354974 -0.0089763
0.0276054 -0.418612
0.0211989 -0.421966
-0.0258428 -0.0901238
-0.0270831 -0.0946781
0.000999296 -0.0100815
0.00161059 -0.0117411
-0.0326779 -0.431349
-0.025554 -0.432703
-0.0281338 -0.397476
-0.0291063 -0.390333
-0.0130658 -0.0221453
-0.0142052 -0.0246632
0.0358364 -0.298623
0.0291855 -0.299932
-0.00785038 -0.0430148
-0.00465556 -0.0429561
0.0035399 -0.00476509
0.00241619 -0.00457546
0.00366511 -0.0811683
-0.000190063 -0.0794734
0.00822837 -0.27423
0.0132977 -0.278631
-0.00406521 -0.00857865
-0.00558432 -0.00950374
-0.00791373 -0.123107
-0.00886961 -0.128183
-0.0123074 -0.18713
-0.00740639 -0.190355
0.00884532 -0.0127407
0.00940253 -0.0114406
0.0175152 -0.1007
0.0182223 -0.0960984
0.00428091 -0.283119
0.00311616 -0.289786
0.00984693 -0.012249
0.00804989 -0.0120293
-0.000756051 -0.145051
0.00375147 -0.148039
0.0168895 -0.13048
0.0124955 -0.127541
0.0286886 -0.1124
0.0249506 -0.115237
0.000405127 -0.000291025
0.000144506 -0.00034603
-0.0286775 -0.412206
-0.0219642 -0.414821
0.00126818 -0.292533
0.00680854 -0.288698
-0.0068493 -0.0353804
-0.00948076 -0.037137
-0.0218716 -0.167762
-0.0234449 -0.173377
-0.028634 -0.326088
-0.0219243 -0.327873
0.0252896 -0.262054
0.0188034 -0.260851
-0.026725 -0.138225
-0.0219429 -0.135546
0.0141454 -0.0258387
0.0114875 -0.0248757
-0.0194809 -0.0636759
-0.0201831 -0.060117
-0.00677628 -0.01418
-0.0085446 -0.0139394
-0.0261662 -0.145088
-0.0288035 -0.140669
-0.0326147 -0.407061
-0.0274168 -0.401958
-0.0303672 -0.262193
-0.0237974 -0.262227
0.00858671 -0.0143781
0.00668444 -0.0133075
0.00365892 -0.079899
0.00783169 -0.0796662
0.0236209 -0.306847
0.0191216 -0.301594
0.016797 -0.155689
0.0168154 -0.161286
-0.0275496 -0.169186
-0.022452 -0.171445
0.0304248 -0.266435
0.02547 -0.261887
-0.00458343 -0.277179
-0.0103456 -0.280607
-0.0306449 -0.391752
-0.0370705 -0.388619
-0.00919108 -0.0544975
-0.012659 -0.0540363
-0.00745281 -0.115481
-0.00620434 -0.120291
-0.0075937 -0.0572965
-0.0111953 -0.0583504
0.00552206 -0.0674361
0.00796985 -0.0645248
0.00579395 -0.0133404
0.00608169 -0.0152934
-0.0421958 -0.432076
-0.0356898 -0.435289
0.0132665 -0.11043
0.0178173 -0.10903
-0.00570052 -0.0535845
-0.0024246 -0.0521456
0.0101328 -0.371453
0.00668904 -0.365198
0.0396586 -0.473744
0.0328478 -0.476449
0.0138918 -0.0439967
0.0119617 -0.0410994
0.020038 -0.0949838
0.0175757 -0.0908603
0.0205745 -0.189906
0.0193684 -0.184042
-0.00474355 -0.143192
-0.000853847 -0.139499
-0.0180941 -0.185745
-0.0182199 -0.179862
0.0141481 -0.0426357
0.0146691 -0.0396568
-0.00079374 -0.000330502
-0.000748747 -0.000267794
0.0281723 -0.440773
0.0223364 -0.436395
-0.00782111 -0.187538
-0.00801957 -0.193518
0.000206112 -0.00818595
0.000663327 -0.0068274
0.0143034 -0.365127
0.0115425 -0.371712
0.000503422 -0.000403557
0.000377601 -0.000134931
0.0175619 -0.185356
0.0168913 -0.179483
0.00419876 -0.330275
-0.00201906 -0.333194
-0.024495 -0.356252
-0.0284691 -0.350366
-0.00182706 -0.000878282
-0.00260884 -0.00135952
0.0213637 -0.334138
0.0193767 -0.340898
-0.00850953 -0.191909
-0.00533612 -0.186849
0.0233123 -0.341086
0.0183045 -0.33601
0.0288688 -0.159007
0.0234689 -0.157201
0.00762648 -0.0394285
0.0102781 -0.0382409
-0.0378447 -0.271105
-0.0354554 -0.277226
-0.0143194 -0.0606361
-0.0152751 -0.0571986
0.0292929 -0.22954
0.0337564 -0.234339
-0.0201833 -0.0888471
-0.0177454 -0.0923532
0.0193344 -0.113961
0.0239181 -0.1163
0.0193481 -0.322057
0.0130377 -0.324867
-0.0278761 -0.303496
-0.0326753 -0.298783
0.0264337 -0.260268
0.0203284 -0.257688
-0.00167746 -0.00144342
-0.00121317 -0.000846522
-0.016046 -0.0666118
-0.0168704 -0.0705951
0.0317359 -0.257008
0.0361492 -0.252379
-0.0346926 -0.419787
-0.0419558 -0.419882
0.00278832 -0.00258222
0.00238911 -0.0018215
0.0166663 -0.307179
0.00991348 -0.308127
0.00543698 -0.00559378
0.00517185 -0.00654452
-0.00515411 -0.00926894
-0.00369362 -0.00944302
0.0243343 -0.132567
0.0231814 -0.137598
-0.0225231 -0.200917
-0.0216285 -0.194855
0.00412841 -0.00816512
0.00366093 -0.00672475
-0.00106187 -0.0915748
0.00155183 -0.0880366
0.0147677 -0.109777
0.0195652 -0.10933
-0.015638 -0.120987
-0.0154304 -0.115968
-0.0344944 -0.237032
-0.0284508 -0.238889
0.0202016 -0.396417
0.0136039 -0.399236
-0.0354463 -0.377292
-0.0326293 -0.37063
-0.016201 -0.0627819
-0.0160168 -0.0666058
-0.0142251 -0.238793
-0.0188899 -0.243348
0.0225879 -0.0661738
0.021445 -0.0623195
-0.0252277 -0.326755
-0.0306717 -0.322531
0.0187418 -0.257678
0.0140755 -0.252992
0.0110324 -0.15527
0.012194 -0.149913
-0.00368653 -0.398836
0.00111006 -0.393453
0.0185937 -0.340443
0.025148 -0.343222
-0.0223915 -0.221172
-0.0276488 -0.224913
0.0140522 -0.195419
0.0136849 -0.201464
-0.00784277 -0.157098
-0.00242315 -0.155988
-0.0162544 -0.1131
-0.0133112 -0.108982
-0.0219613 -0.166882
-0.0218259 -0.172601
0.00110574 -0.0176562
0.00305922 -0.0185116
-0.0128877 -0.104434
-0.012916 -0.0995714
-0.0180641 -0.108414
-0.015955 -0.103855
0.0344938 -0.389567
0.0285353 -0.385445
-0.0066195 -0.235724
-0.00114877 -0.238935
0.0168637 -0.0725223
0.0203571 -0.0751647
0.00380312 -0.0104611
0.0041705 -0.00900942
0.000548958 -0.449427
-0.000526507 -0.456678
-0.0398246 -0.283023
-0.0333963 -0.28476
0.0226636 -0.177187
0.0282948 -0.176131
-0.00527475 -0.119665
-0.00436358 -0.114757
0.0318472 -0.298546
0.0265604 -0.2941
-0.00132128 -0.192845
0.00194205 -0.197848
0.00636231 -0.188118
0.00605793 -0.194096
0.0137587 -0.433327
0.00806639 -0.437844
-0.00442524 -0.0163134
-0.00391212 -0.0142933
0.00938132 -0.0227616
0.0111965 -0.0216441
0.0335857 -0.168848
0.0281421 -0.166671
0.00546624 -0.0141757
0.00367904 -0.0132027
0.0216557 -0.443157
0.0151021 -0.446304
0.00741954 -0.251148
0.0112007 -0.245928
0.02088 -0.258881
0.0270102 -0.256785
0.0163211 -0.343994
0.0164382 -0.351204
0.0241268 -0.187077
0.028135 -0.182979
-0.00100286 -0.000970207
-0.00138839 -0.00160999
-0.0127559 -0.395639
-0.00791073 -0.400945
-0.0133512 -0.205784
-0.0101546 -0.200468
-0.0120617 -0.361004
-0.0191201 -0.360743
-0.0181707 -0.326879
-0.0131052 -0.331634
0.00887504 -0.374432
0.0111129 -0.381268
0.0105906 -0.118729
0.00888719 -0.113986
0.034484 -0.419374
0.0287316 -0.423767
0.0204124 -0.468603
0.0131987 -0.469609
0.0181819 -0.0552206
0.0157877 -0.0521631
-0.0132927 -0.0608258
-0.0154529 -0.0642512
0.0226515 -0.385601
0.0272062 -0.391232
-0.0280276 -0.29811
-0.0331643 -0.293822
0.00200738 -0.00107831
0.00128823 -0.000623681
-0.00635504 -0.0407316
-0.00606919 -0.0439231
0.00657422 -0.308314
0.0104493 -0.302677
0.0096123 -0.0375697
0.0081595 -0.034747
-0.00235703 -0.0787579
-0.000685503 -0.0826865
0.0200874 -0.216784
0.0249762 -0.213065
0.0126054 -0.119584
0.0165824 -0.122917
-0.0233988 -0.179254
-0.0290553 -0.181146
0.0246439 -0.078787
0.023094 -0.0824838
0.0204394 -0.0917498
0.0249858 -0.0918787
0.0297733 -0.323987
0.0340876 -0.318643
-0.00503757 -0.156503
-0.00410984 -0.151026
0.00863118 -0.04249
0.00649105 -0.0399261
0.00273812 -0.00297387
0.00245472 -0.00216318
-0.0309846 -0.40639
-0.0237697 -0.406352
0.00947226 -0.0854824
0.00723716 -0.0892017
0.0400835 -0.393065
0.0362036 -0.399109
-0.0216919 -0.328622
-0.0218794 -0.335665
0.00644882 -0.0672122
0.00255014 -0.0671004
-0.0246059 -0.285964
-0.0307209 -0.283365
-0.0353097 -0.20441
-0.0368715 -0.21054
-0.00347737 -0.00238793
-0.00427572 -0.00325081
-0.0074913 -0.032262
-0.0101489 -0.0317279
0.0237497 -0.199454
0.0297419 -0.198736
-0.0225894 -0.171927
-0.0216793 -0.17759
0.00763365 -0.0467326
0.0103186 -0.0490848
0.0329957 -0.41716
0.0377856 -0.411751
-0.0351534 -0.260803
-0.0306529 -0.255802
0.00433002 -0.0688544
0.00826547 -0.0694057
0.0171258 -0.387849
0.00998158 -0.387421
-0.00157957 -0.00155292
-0.00218023 -0.00163979
0.0128442 -0.475171
0.00719962 -0.479814
0.00850352 -0.154893
0.00888939 -0.149397
-0.00516507 -0.0928821
-0.00262095 -0.0892216
0.0330363 -0.175981
0.0297344 -0.170985
-0.035376 -0.369689
-0.0282439 -0.368973
0.00305611 -0.399675
-0.00344235 -0.396631
0.0101161 -0.0571594
0.0100435 -0.0608844
-0.0275044 -0.440323
-0.0336201 -0.444338
-0.0133745 -0.110629
-0.0162081 -0.106872
0.018862 -0.064339
0.0213167 -0.0618329
-0.0137876 -0.426955
-0.0117259 -0.433945
-0.00209637 -0.00102843
-0.00120514 -0.000585435
-0.0308703 -0.263037
-0.0374405 -0.262748
0.0183488 -0.109243
0.0217977 -0.106131
-0.00723461 -0.0777962
-0.0101589 -0.0810162
-0.00189242 -0.000946549
-0.00197462 -0.000960812
0.0239435 -0.127327
0.0199783 -0.130306
-0.00332185 -0.0438147
-0.00306327 -0.0405815
-0.00832539 -0.0149247
-0.0069336 -0.0131712
-0.000842216 -0.00328709
-0.00162551 -0.00409669
0.0236785 -0.368696
0.028309 -0.374234
-0.0170989 -0.0585263
-0.0143715 -0.0606582
0.0223403 -0.173313
0.0211456 -0.178932
0.00780852 -0.167945
0.00333664 -0.171419
-0.00954734 -0.317364
-0.0161988 -0.319224
0.0032363 -0.197172
0.0080096 -0.193636
3.7596e-05 -0.000362958
-2.57155e-05 -0.000807592
-0.0170402 -0.035393
-0.0160766 -0.0379139
-0.0228656 -0.359005
-0.029959 -0.358499
-0.0314181 -0.211092
-0.0271457 -0.215413
0.0205188 -0.101094
0.0173378 -0.0972726
-0.0175534 -0.0363269
-0.0148543 -0.0370463
-0.00600422 -0.00695361
-0.00598889 -0.00818962
0.000350082 -0.00733993
0.000158375 -0.00597198
0.00223608 -0.0665466
0.00449063 -0.0698758
0.00775727 -0.277284
0.0139679 -0.274984
0.0220692 -0.167204
0.0241959 -0.16209
0.0428642 -0.44333
0.0420547 -0.450596
-0.00290716 -0.447691
-0.010148 -0.447251
0.00979317 -0.0134331
0.00785982 -0.0125201
0.0141827 -0.299407
0.0192982 -0.304005
0.0325712 -0.15536
0.0277246 -0.15767
0.00187517 -0.0440269
0.000278658 -0.0469278
-0.0148372 -0.0260849
-0.0128804 -0.0237657
0.00164739 -0.00263462
0.00147461 -0.00183799
0.0250809 -0.127686
0.029385 -0.125318
-0.0377951 -0.341433
-0.0368691 -0.334367
0.0231606 -0.0724336
0.0234832 -0.0685332
-0.0119076 -0.0234539
-0.0102738 -0.021173
-0.00999078 -0.0360792
-0.012742 -0.0378666
-0.0115948 -0.0529528
-0.0117099 -0.0494814
-0.0195059 -0.491941
-0.0254125 -0.487648
-0.000967201 -0.00707701
-0.000246691 -0.00590117
-0.00110153 -0.457641
0.00614513 -0.458082
0.0177821 -0.0887857
0.0204244 -0.0855428
0.0113405 -0.133402
0.00693423 -0.130512
0.0313129 -0.394498
0.0287868 -0.387705
-0.0351538 -0.301673
-0.0335166 -0.294979
-0.0138702 -0.139193
-0.00875392 -0.137696
-0.0071415 -0.00621938
-0.00572378 -0.00542077
-0.00728099 -0.0584442
-0.00740222 -0.0547828
0.00954283 -0.040157
0.0103532 -0.0433533
0.033285 -0.428155
0.0260676 -0.428917
-0.000646422 -0.000212716
-0.000162173 -2.57914e-05
-0.000613967 -0.0111805
-0.0013088 -0.0128854
0.00685572 -0.157952
0.012382 -0.158462
-0.00433424 -0.00363414
-0.00395494 -0.00414768
-0.0236457 -0.0715296
-0.0215145 -0.0746139
-0.0300416 -0.402017
-0.0285224 -0.409086
0.00845159 -0.295235
0.00188875 -0.29683
-0.0126845 -0.038508
-0.010814 -0.0357838
0.0131249 -0.45685
0.0177537 -0.462503
0.0214892 -0.474253
0.0283646 -0.471779
-0.00530659 -0.0146863
-0.0073157 -0.01519
-0.01241 -0.142038
-0.0115708 -0.13673
0.0199058 -0.0935513
0.0193053 -0.0889996
0.0219493 -0.327463
0.0222269 -0.320495
-0.00209764 -0.0170311
-0.000421552 -0.0182312
0.00704362 -0.367742
0.0131521 -0.364151
7.61148e-07 2.1579e-06
-2.77548e-05 -2.85587e-06
0.00390186 -0.00588428
0.00503939 -0.00703086
0.00379497 -0.0481985
0.00697712 -0.0473136
0.00360279 -0.0380501
0.00475807 -0.0353168
0.0361228 -0.304082
0.0309877 -0.299386
-0.0213259 -0.301251
-0.0228882 -0.294638
-0.00346238 -0.00514963
-0.00473517 -0.00572175
0.00243183 -0.122587
0.00351684 -0.127604
0.0149856 -0.0748155
0.0162963 -0.0789173
0.0379694 -0.489658
0.0383527 -0.48231
-0.0122959 -0.231768
-0.016711 -0.227371
0.00215161 -0.00123777
0.00176313 -0.000821217
-0.00535717 -0.290851
-0.00995802 -0.295876
-0.0232954 -0.147003
-0.02647 -0.151704
0.0193476 -0.384709
0.0142596 -0.379602
-0.01321 -0.416475
-0.00610395 -0.415203
-0.00717998 -0.0192776
-0.00702808 -0.0171066
0.00139753 -0.0714409
-0.00015608 -0.0752428
-0.00316579 -0.0151285
-0.00122923 -0.0150875
-0.000187193 -1.79551e-05
-0.000441455 -0.000126992
-0.0166135 -0.249651
-0.0171171 -0.243192
-0.0110154 -0.119223
-0.0151736 -0.116776
0.00199585 -0.00133929
0.00163267 -0.000849652
-0.00971151 -0.0135802
-0.00979251 -0.0153876
-0.0196507 -0.377104
-0.0125376 -0.377298
0.0307961 -0.36827
0.0240685 -0.370631
-0.0335865 -0.310445
-0.0271204 -0.307882
-0.00163468 -0.00323251
-0.0020741 -0.00427408
0.0159123 -0.205622
0.0102479 -0.207977
-0.00107371 -0.00177951
-0.000903822 -0.0024669
0.0129072 -0.322123
0.00744417 -0.317881
0.0127773 -0.0264231
0.0105262 -0.0273045
0.00947417 -0.362472
0.0146845 -0.357634
-0.0122459 -0.0271813
-0.0126597 -0.0247722
0.0181426 -0.441132
0.0111633 -0.443129
0.0321193 -0.266945
0.0338959 -0.260653
0.00999898 -0.0203335
0.0117261 -0.0224836
0.00686501 -0.0414901
0.00622817 -0.0383499
-0.0011479 -0.16047
0.00386548 -0.162957
0.0166485 -0.243568
0.0117803 -0.239261
-0.027308 -0.33944
-0.0210765 -0.342645
-0.018577 -0.287406
-0.0138189 -0.29212
0.0180112 -0.478905
0.0128107 -0.484059
-0.0138431 -0.117622
-0.00930782 -0.115474
0.0299221 -0.257538
0.0305246 -0.264128
0.000349288 -0.494357
-0.00670632 -0.495999
-0.028311 -0.444669
-0.0341892 -0.449035
0.0223984 -0.467152
0.0158704 -0.463907
-0.0024691 -0.367089
0.000979749 -0.373299
0.0139375 -0.27456
0.0195964 -0.278199
0.00614074 -0.258208
0.0126273 -0.258971
0.0138533 -0.111814
0.0181319 -0.114541
-0.0224855 -0.411129
-0.0293822 -0.41337
-0.0066334 -0.0582177
-0.00403277 -0.0607562
-0.01904 -0.165509
-0.0208734 -0.171021
-0.0183335 -0.0732968
-0.0196206 -0.0773913
0.0374801 -0.239374
0.032792 -0.234728
0.00950683 -0.0510596
0.00610463 -0.0501519
-0.0409742 -0.466583
-0.0362451 -0.472158
-0.0335782 -0.431705
-0.0314304 -0.438664
-0.000785864 -0.0118865
0.000844884 -0.0113526
0.000342754 -8.74393e-05
0.000538676 -0.000224327
0.0250667 -0.169337
0.0300778 -0.166976
0.00496762 -0.00767155
0.0056649 -0.00685418
0.0115935 -0.0895205
0.00754997 -0.0912546
0.0392896 -0.491479
0.0360601 -0.484871
-0.0287157 -0.481061
-0.0230916 -0.485733
-0.0131563 -0.239232
-0.0188098 -0.242407
-0.0272023 -0.183603
-0.0328274 -0.185873
0.0124353 -0.314397
0.0104969 -0.321051
-0.00132113 -0.0487444
-0.00327632 -0.0516695
-0.0125571 -0.0631512
-0.0139645 -0.0598155
0.0156318 -0.0443247
0.0131316 -0.0417969
0.0217598 -0.385259
0.0162404 -0.380617
0.0122196 -0.261168
0.00636611 -0.264064
-0.000971396 -0.00870211
0.00047671 -0.00837144
-0.00714298 -0.455188
-0.000384561 -0.452496
-0.0173148 -0.0618833
-0.0142389 -0.0592504
0.0156876 -0.136651
0.0134383 -0.131785
0.017263 -0.05762
0.0199714 -0.0606425
-0.0110386 -0.14174
-0.0111907 -0.136414
0.00712902 -0.036998
0.00835371 -0.0344653
0.0134458 -0.0553874
0.0112268 -0.052304
-0.0124294 -0.0410829
-0.0104503 -0.0432596
-0.000408626 -0.000106128
-0.000520206 -0.000147459
0.0252308 -0.233331
0.019255 -0.235354
-0.0320165 -0.43684
-0.0382995 -0.433217
0.00996373 -0.0120363
0.00927374 -0.0103357
0.0144849 -0.239112
0.00837341 -0.24085
-0.0119753 -0.428129
-0.00562576 -0.424613
-0.015246 -0.28933
-0.0176327 -0.295742
0.0119582 -0.477133
0.015539 -0.483513
-0.00799435 -0.122202
-0.0115383 -0.118813
-0.0304411 -0.224622
-0.0328403 -0.230649
0.0104396 -0.0348368
0.00869514 -0.0322389
-0.0243552 -0.145255
-0.029293 -0.143534
-0.00773579 -0.157803
-0.0076153 -0.16343
-0.0142541 -0.144475
-0.00892273 -0.143773
-0.00284255 -0.00206776
-0.00225977 -0.00208224
-0.000148673 -3.45595e-06
-0.00029997 -4.97887e-05
-0.0281 -0.258295
-0.0339442 -0.255604
0.00757935 -0.267425
0.0126186 -0.271792
0.0188745 -0.420494
0.0150687 -0.414291
-0.00339176 -0.0174771
-0.00149695 -0.0165354
-0.0380381 -0.392856
-0.0364494 -0.385792
0.0105005 -0.192758
0.0162461 -0.194517
0.00618925 -0.159687
0.00380546 -0.164767
0.0183862 -0.0423082
0.01689 -0.0448087
0.000904874 -0.000392088
0.000973997 -0.000642421
-0.000451075 -0.0529928
-0.00181258 -0.0497637
0.0229374 -0.46607
0.0159944 -0.468299
-0.00908521 -0.126687
-0.00426717 -0.128236
0.0166125 -0.158148
0.0219428 -0.156896
0.0181966 -0.103994
0.0214542 -0.107879
-0.0377185 -0.433316
-0.0317502 -0.429081
-0.0172179 -0.325976
-0.0103247 -0.325169
0.0182486 -0.0695495
0.0142569 -0.0693667
-0.0353872 -0.229917
-0.029434 -0.231883
-0.00792562 -0.0310556
-0.00703392 -0.0282589
-0.0178363 -0.135391
-0.015538 -0.130544
-0.0354903 -0.46457
-0.0388427 -0.458077
4.28294e-06 -0.022275
-0.00168552 -0.0208775
0.0277883 -0.266605
0.0271273 -0.273207
-0.0329593 -0.367351
-0.0312609 -0.374292
-0.0239785 -0.0968238
-0.0240371 -0.101543
0.0201557 -0.460552
0.0273893 -0.459666
0.0232582 -0.102114
0.0202238 -0.10552
-0.0224949 -0.494369
-0.0297638 -0.493697
-0.00499005 -0.00906575
-0.00627951 -0.00873205
0.016037 -0.0556287
0.019099 -0.0581746
0.034139 -0.41489
0.0374355 -0.421404
0.0140247 -0.438102
0.00693407 -0.439618
-0.00265475 -0.0101937
-0.00386842 -0.0116089
-0.0250641 -0.476196
-0.031133 -0.472131
-0.00785006 -0.023128
-0.00956447 -0.0218143
-0.0321588 -0.492786
-0.0369047 -0.487187
0.0147701 -0.239593
0.0209338 -0.24153
0.0410774 -0.478283
0.03383 -0.479403
0.00257443 -0.114733
-0.00175498 -0.117173
0.0363087 -0.36002
0.0411975 -0.365376
-0.0211987 -0.21743
-0.0222469 -0.211243
-0.0174443 -0.327864
-0.0233627 -0.331713
-0.0372712 -0.344964
-0.0342286 -0.338433
0.0160925 -0.400743
0.0105629 -0.396094
0.0411107 -0.421123
0.0366627 -0.426846
0.0150178 -0.400869
0.0097868 -0.405822
0.0199518 -0.418995
0.0257956 -0.414744
0.00289855 -0.0887281
0.00698494 -0.0903491
0.0213106 -0.0631007
0.0187438 -0.0655478
0.00367903 -0.00271693
0.00271922 -0.00224113
-0.0384047 -0.375131
-0.0401866 -0.382133
0.0177437 -0.235325
0.0164274 -0.229033
-0.00743851 -0.0113673
-0.0057048 -0.0111043
0.0298284 -0.267696
0.0271304 -0.273688
-0.00173098 -0.00132176
-0.0025267 -0.00180571
0.0110452 -0.0445539
0.0141002 -0.0463323
-0.00102292 -0.0568
-0.00414517 -0.0588117
0.0370427 -0.446112
0.0366089 -0.453417
0.0391604 -0.398034
0.0335215 -0.402489
0.0123096 -0.384999
0.0136448 -0.392099
0.00117439 -0.0609073
-0.00133209 -0.0581411
0.00780413 -0.0544014
0.00447757 -0.0529568
-0.0342444 -0.173214
-0.0292809 -0.175767
-0.00389182 -0.0119184
-0.00237856 -0.0126245
0.0096633 -0.402607
0.0129344 -0.409084
0.012827 -0.256352
0.010839 -0.250085
0.0019536 -0.300966
0.00808741 -0.303933
-0.00819347 -0.472608
-0.00850239 -0.465276
0.0255374 -0.135756
0.0203122 -0.134726
-0.0251808 -0.486514
-0.0300083 -0.48101
-0.00437057 -0.00429509
-0.00517233 -0.00418419
0.0258191 -0.399515
0.0207935 -0.394289
0.00701082 -0.0968185
0.00318404 -0.094342
-0.0172988 -0.0797452
-0.0143804 -0.0763906
0.00629073 -0.0491066
0.00924968 -0.051143
0.0211419 -0.350837
0.0170657 -0.344885
0.0187021 -0.471708
0.024168 -0.476557
-0.00683711 -0.0715761
-0.00295177 -0.0724762
0.0077845 -0.320865
0.00124625 -0.318774
-0.00566028 -0.18897
-0.0111649 -0.191188
-0.00616588 -0.0562439
-0.00281021 -0.0574893
-0.0153128 -0.305958
-0.0104976 -0.301038
-0.00756461 -0.0823695
-0.00532798 -0.0860219
0.00231829 -0.0575337
0.00274762 -0.053912
-0.00147139 -0.0710791
-0.000228579 -0.0672531
-0.00703056 -0.195514
-0.00113155 -0.195728
0.0123468 -0.0290887
0.0113696 -0.0263483
0.0158686 -0.0522616
0.016741 -0.0558525
0.00227928 -0.00145535
0.00156781 -0.00110978
0.0334487 -0.267249
0.0330002 -0.260632
-0.0199678 -0.373964
-0.0209446 -0.381096
-0.00105556 -0.000979222
-0.000729347 -0.00048703
-0.0230247 -0.0669619
-0.0191214 -0.0656354
6.42029e-05 -0.0214125
0.00216801 -0.0218619
0.00112851 -0.00770652
0.00167162 -0.00648796
0.000871106 -0.00803368
0.000354174 -0.00666973
-0.00700735 -0.159051
-0.0115905 -0.16238
-0.0163701 -0.40458
-0.0115851 -0.399134
0.00744902 -0.243105
0.00709949 -0.236667
-0.0190369 -0.162239
-0.0240694 -0.160092
0.000915359 -0.000790361
0.00145782 -0.000993813
-0.00926726 -0.0482502
-0.00705032 -0.0506604
0.017076 -0.128618
0.0221194 -0.127963
-0.0172644 -0.036854
-0.0154432 -0.038803
0.0184521 -0.0823745
0.0214249 -0.0859305
0.0139575 -0.199821
0.0200125 -0.199555
0.0296825 -0.36745
0.0330826 -0.361175
-0.0265641 -0.186476
-0.0262975 -0.192417
-0.0199401 -0.32495
-0.0257988 -0.328879
-0.0304482 -0.357181
-0.0375767 -0.357619
0.0160957 -0.0380324
0.0185716 -0.0405241
-0.0285686 -0.241802
-0.0346523 -0.244279
0.0197985 -0.0783934
0.0158453 -0.0794551
-0.0244205 -0.230917
-0.0188639 -0.227639
-0.034751 -0.327721
-0.0361629 -0.334669
0.0332391 -0.320762
0.0262935 -0.320744
-0.0178836 -0.204401
-0.0119717 -0.205955
-0.0200303 -0.0960101
-0.0245782 -0.0976782
0.0212792 -0.193574
0.0179846 -0.198503
0.00578514 -0.318834
0.000618649 -0.323412
-0.00413309 -0.00335413
-0.00312297 -0.00255216
0.0136916 -0.174502
0.0176942 -0.178845
-0.0305183 -0.147
-0.0286286 -0.151931
0.0171055 -0.160465
0.0226515 -0.160106
-0.00570385 -0.140929
-0.0110069 -0.141046
-0.00603347 -0.185677
-0.00722017 -0.179914
-0.0105863 -0.0973746
-0.015278 -0.0980558
0.00437984 -0.14137
0.00668351 -0.14629
0.0199982 -0.0667288
0.0160657 -0.0659499
-0.00636177 -0.00780832
-0.00720716 -0.00725432
-0.00102177 -0.00835193
0.000128015 -0.00932299
-0.0301698 -0.347334
-0.025549 -0.352684
0.00383081 -0.0504201
0.00712562 -0.0516968
-0.0325571 -0.223753
-0.0307922 -0.229764
0.00403162 -0.018058
0.00284878 -0.0198311
-0.0236799 -0.252865
-0.0219996 -0.259144
-0.00831526 -0.0130663
-0.00642381 -0.012377
0.00627782 -0.0316195
0.00888718 -0.0330745
-0.0201085 -0.243315
-0.0154689 -0.238722
0.00155744 -0.258998
-0.00447601 -0.256546
7.62979e-05 -0.452582
0.00223373 -0.459579
-0.00507463 -0.279097
-0.00429276 -0.272432
0.0110485 -0.0374742
0.00958278 -0.0346346
-0.0183204 -0.116448
-0.0231341 -0.115654
-0.00298049 -0.0380428
-0.000319955 -0.0395466
0.0161175 -0.0817975
0.0186708 -0.0786829
0.0195867 -0.106217
0.0205315 -0.101576
0.0203456 -0.285101
0.0156741 -0.280175
-0.00858423 -0.0177903
-0.00690882 -0.0160434
-0.00204648 -0.00101976
-0.00150531 -0.000712889
-0.00711084 -0.420203
-0.00022782 -0.417999
-0.0208999 -0.307533
-0.0171194 -0.301736
-0.0190148 -0.215124
-0.0193886 -0.221478
-0.026842 -0.181443
-0.0326911 -0.182544
-0.0362713 -0.338759
-0.0424878 -0.342414
-0.00930394 -0.370193
-0.00346055 -0.366213
-0.0222196 -0.257045
-0.0287551 -0.257145
-0.0385847 -0.328859
-0.0316882 -0.329925
0.00175756 -0.0153568
0.00286422 -0.0138377
-0.0347519 -0.381182
-0.0341953 -0.388351
0.0191619 -0.224138
0.0215056 -0.21832
0.00328696 -0.130856
0.00290949 -0.125689
-0.0107577 -0.306309
-0.00530578 -0.302151
0.0332745 -0.416916
0.0405041 -0.417647
0.0207661 -0.0633433
0.0201565 -0.0595397
-0.00744286 -0.0849543
-0.00510408 -0.088613
0.00846233 -0.0382491
0.0106656 -0.0365183
0.00415418 -0.167121
0.00933548 -0.16951
0.0216542 -0.275671
0.0166148 -0.271202
0.0111681 -0.165619
0.00575618 -0.167093
-0.00179845 -0.00102407
-0.00232217 -0.00123204
-0.0021465 -0.053139
-0.00169668 -0.0496276
0.00962182 -0.092837
0.00726364 -0.0889276
-0.00449981 -0.252424
0.00154962 -0.254747
-0.00873617 -0.255488
-0.0023021 -0.256337
0.00528728 -0.00764734
0.00402637 -0.00790978
-0.0105701 -0.0509892
-0.0140318 -0.0520137
-0.00949105 -0.075802
-0.0112327 -0.0797526
-0.0208097 -0.141361
-0.0210282 -0.136069
-0.0319026 -0.351206
-0.0309072 -0.358296
0.0165227 -0.0874215
0.0191056 -0.0913585
0.016967 -0.215687
0.0231923 -0.216485
-0.00531808 -0.149803
-0.00947841 -0.146422
-0.0428912 -0.464948
-0.035573 -0.464885
-0.0061314 -0.0145917
-0.00751117 -0.0164102
-0.0193379 -0.378325
-0.0259044 -0.375606
0.00371636 -0.159191
-0.00153411 -0.161012
0.00792248 -0.00900282
0.00636248 -0.00793672
-0.0195305 -0.120854
-0.0146597 -0.1193
0.0299162 -0.266135
0.023532 -0.264238
-0.038515 -0.493509
-0.0416643 -0.486856
0.0131762 -0.442067
0.00601111 -0.443199
0.0231757 -0.480006
0.0304707 -0.479555
0.0038927 -0.0558016
0.00108805 -0.0580733
0.00305503 -0.194064
-0.00114715 -0.189879
0.0147547 -0.105065
0.0188979 -0.107881
-0.00211534 -0.0847353
-0.00633268 -0.0855861
0.0126339 -0.137391
0.0177907 -0.136622
-0.00461162 -0.00303734
-0.00353754 -0.00241346
-0.0102466 -0.155827
-0.00514925 -0.153636
0.0335293 -0.320526
0.031769 -0.327231
-0.000985201 -0.301355
0.00419019 -0.296942
-0.0308392 -0.488607
-0.031982 -0.495877
0.0342593 -0.486858
0.0357527 -0.494067
-0.0156089 -0.469122
-0.0164555 -0.476413
-0.0138869 -0.269388
-0.00993884 -0.264004
0.0298176 -0.476457
0.0278579 -0.469388
-0.0216786 -0.48479
-0.0277188 -0.48068
-0.0193604 -0.151238
-0.0186535 -0.145782
0.0192442 -0.116981
0.0160539 -0.112943
-0.0389795 -0.455809
-0.0398072 -0.448542
-0.00391372 -0.010245
-0.00389169 -0.0086811
-0.00580002 -0.0163261
-0.00447519 -0.0177277
0.00740396 -0.0535775
0.00678992 -0.0500519
0.0235901 -0.326037
0.0227881 -0.332991
0.00796475 -0.080895
0.00951883 -0.0850061
7.17783e-05 -8.81005e-06
0.000436673 -9.59375e-05
-0.00700188 -0.010346
-0.00873631 -0.0108086
0.00522591 -0.134355
0.00148528 -0.130687
0.000455114 -0.335195
0.00715441 -0.336648
-0.00601632 -0.17455
-0.00547837 -0.168796
-0.0209041 -0.0721096
-0.0187028 -0.0684204
-0.00191248 -0.0151344
-0.00185928 -0.0172201
0.0155778 -0.0993786
0.0113469 -0.101231
-0.0176575 -0.146216
-0.0147684 -0.150679
0.000116765 -0.000310648
-1.29283e-05 -7.02272e-05
0.00321936 -0.12559
0.00784008 -0.127838
-0.0166555 -0.0620699
-0.0189638 -0.0655043
0.011648 -0.0669115
0.0100725 -0.070436
0.00288866 -0.0622951
0.00289661 -0.0585052
-0.0220776 -0.336527
-0.016177 -0.332582
-0.00738237 -0.169488
-0.0107729 -0.165003
-0.00792519 -0.0319501
-0.00955592 -0.0345829
0.014353 -0.058578
0.0107507 -0.057353
-0.0128295 -0.301744
-0.016826 -0.296275
-0.0293758 -0.28285
-0.0322882 -0.276913
-0.00237601 -0.272969
0.00422088 -0.272487
-0.00761786 -0.0526672
-0.0048059 -0.0546534
0.0356502 -0.433628
0.0355421 -0.426332
0.000980471 -0.139097
-0.00403361 -0.140813
-0.0356588 -0.41091
-0.0425291 -0.413341
-0.0345782 -0.395774
-0.032833 -0.38874
0.0211304 -0.092978
0.0177746 -0.0895432
0.00343206 -0.0112738
0.00178491 -0.0106882
0.00279407 -0.00888975
0.00433992 -0.0091437
0.00409428 -0.00376319
0.00424687 -0.00315711
0.013252 -0.143443
0.00872735 -0.146186
0.032047 -0.366641
0.0316791 -0.359453
-0.0325245 -0.446491
-0.0257168 -0.449043
0.0267053 -0.144927
0.0299728 -0.140967
0.0246059 -0.342217
0.0293491 -0.337063
-0.0047924 -0.0492729
-0.00198275 -0.047258
0.00281401 -0.00331055
0.00314965 -0.00433845
0.00714526 -0.0114476
0.0069047 -0.0130585
0.009292 -0.0462506
0.0120246 -0.0485788
0.00451033 -0.0847487
0.00573504 -0.0890073
0.0286965 -0.287771
0.0298087 -0.281149
-0.0112614 -0.126232
-0.00771226 -0.122457
0.0116011 -0.0187796
0.00980021 -0.0169294
0.0146961 -0.0526714
0.0173698 -0.0508558
0.00100711 -0.000435514
0.000568971 -0.000212479
-0.00827765 -0.483351
-0.0049157 -0.489842
-0.0342335 -0.283685
-0.0297522 -0.278496
0.00256388 -0.18593
0.00442068 -0.180343
-0.0174561 -0.066904
-0.013733 -0.0651918
-0.0181119 -0.0446731
-0.0172394 -0.0476327
0.0192534 -0.0434737
0.0178822 -0.0460948
0.00759407 -0.00884147
0.00607605 -0.00775017
0.0156933 -0.341786
0.0220072 -0.345119
-0.0129568 -0.432728
-0.00591801 -0.430996
-0.037154 -0.470105
-0.0335913 -0.4765
-0.000389039 -0.000571689
-2.59116e-05 -0.000719115
0.0220769 -0.386522
0.0264514 -0.380862
0.0135659 -0.16411
0.00865029 -0.166739
0.0315313 -0.2446
0.0250673 -0.244357
-0.00255468 -0.198292
0.00330508 -0.19782
0.024136 -0.333057
0.0280811 -0.327339
-0.0317827 -0.444329
-0.0246522 -0.44574
0.0269202 -0.165611
0.031464 -0.162604
0.0157942 -0.0479374
0.018982 -0.0498906
-0.0105164 -0.0179535
-0.0103618 -0.0159437
0.00228514 -0.00490244
0.00330802 -0.00587847
0.0188618 -0.0633971
0.0222846 -0.0622457
0.00820332 -0.461023
0.00818565 -0.45369
0.00768424 -0.0728676
0.0105264 -0.070183
0.0197297 -0.407377
0.0176302 -0.414317
-0.0226087 -0.42186
-0.0249435 -0.414992
0.0150167 -0.326864
0.0139692 -0.33378
-0.0160239 -0.197646
-0.0154016 -0.191631
0.00246582 -0.00200206
0.00335272 -0.00274119
-2.65791e-05 -0.437519
-0.0053988 -0.442442
-0.0245985 -0.284349
-0.0210383 -0.278542
0.0215232 -0.159611
0.0226037 -0.165211
0.0322528 -0.240566
0.0364736 -0.245678
0.00349264 -0.00230119
0.00304075 -0.00168728
-0.0192283 -0.481941
-0.0136134 -0.486603
-0.0003642 -0.246232
0.00446441 -0.241995
0.0218113 -0.367612
0.0244625 -0.360965
0.0192306 -0.0685163
0.0223064 -0.0665422
-0.000878163 -0.0169134
-0.00263946 -0.0181097
-0.0238026 -0.194538
-0.0253234 -0.18883
0.0158095 -0.176033
0.0141676 -0.181585
-0.00136405 -0.000937494
-0.000809482 -0.000624189
0.000722218 -0.000479639
0.000337506 -0.000290491
-0.0153578 -0.283134
-0.0197633 -0.278173
0.0300057 -0.396915
0.0320631 -0.390015
0.00698349 -0.0368691
0.00988329 -0.0365666
0.000549757 -0.000664679
0.000190541 -0.00035198
-0.00460459 -0.141541
-0.0087434 -0.145046
-0.0315114 -0.207175
-0.0332123 -0.201369
0.0305351 -0.482914
0.0349657 -0.488764
0.00222889 -0.00465799
0.00339255 -0.00500284
0.00512904 -0.00628296
0.00536994 -0.00760026
-0.0172462 -0.078391
-0.0194823 -0.0822929
0.0304869 -0.230328
0.0241812 -0.229196
0.00664189 -0.0607678
0.00388258 -0.0632464
-0.00663088 -0.228208
-0.0125943 -0.230127
-0.0110057 -0.0931988
-0.0154708 -0.0946969
-0.0100187 -0.417666
-0.00285476 -0.416795
0.0257099 -0.125818
0.0299401 -0.129208
0.032745 -0.279794
0.039461 -0.280194
0.0106653 -0.0387125
0.00771031 -0.037536
0.0011363 -0.0537961
-0.000909749 -0.0509083
-0.00685245 -0.273218
-0.0134748 -0.273211
-0.00712966 -0.419606
-0.000574897 -0.416547
-0.00191458 -0.00316071
-0.0029159 -0.00366575
0.000850732 -0.000640136
0.00102234 -0.00051713
-0.0234446 -0.208004
-0.0205166 -0.213398
0.00095362 -0.0177442
0.00210932 -0.019633
0.0118212 -0.134663
0.0137422 -0.129895
0.0120515 -0.0722354
0.0128076 -0.0683558
0.0140321 -0.0905896
0.00954185 -0.0905941
0.00351363 -0.0827824
0.00539472 -0.0867477
0.00156118 -0.0116189
0.000873031 -0.0132817
0.0176212 -0.0418903
0.0144392 -0.0407003
0.0257173 -0.192289
0.0317265 -0.192872
0.0155223 -0.40924
0.0206468 -0.404169
0.0157354 -0.173756
0.015083 -0.179517
-0.0129691 -0.321059
-0.0193717 -0.318524
-0.0280211 -0.375248
-0.0349856 -0.373701
0.00403 -0.0152911
0.00217829 -0.0144829
0.0249388 -0.214533
0.0307383 -0.217196
-0.0274594 -0.343205
-0.0231691 -0.337435
-0.00851133 -0.0829207
-0.00954115 -0.0872241
0.0127942 -0.325887
0.0074872 -0.321428
-0.000441894 -0.00643929
-0.00144791 -0.00745817
0.00148871 -0.000624617
0.00209174 -0.00092669
0.00623946 -0.0428501
0.0030505 -0.0428888
0.00712526 -0.0242417
0.00746288 -0.0269593
0.00428987 -0.0543482
0.00087788 -0.0533043
-0.0220188 -0.427289
-0.0217769 -0.434585
0.0320337 -0.45351
0.0392683 -0.452525
-0.0319569 -0.202113
-0.0260038 -0.203202
-0.0189802 -0.4764
-0.0168378 -0.483412
-0.0173504 -0.0891302
-0.0207497 -0.0925232
0.0115044 -0.43048
0.0184738 -0.428516
0.0234459 -0.128183
0.0267652 -0.132478
0.00170019 -0.00131153
0.00216365 -0.00131868
0.000515065 -0.0107894
-0.000595151 -0.00957723
0.0121535 -0.0179899
0.0130692 -0.0202474
-0.0102018 -0.0471493
-0.0123989 -0.0500605
-0.0343625 -0.27037
-0.0348995 -0.263786
-0.021617 -0.434741
-0.0236522 -0.441773
-0.0128496 -0.12353
-0.0160776 -0.12769
0.0028588 -0.00246182
0.00293029 -0.00321236
0.00519674 -0.448942
0.0099188 -0.454503
0.00311286 -0.0033549
0.00392043 -0.00331337
0.000410463 -0.000998202
-9.40407e-05 -0.000938389
0.00185092 -0.157773
0.00120889 -0.163366
0.00177351 -0.00321835
0.00194558 -0.00425125
0.00915102 -0.044012
0.00593831 -0.0441703
-0.0340423 -0.363453
-0.0372562 -0.369937
0.020972 -0.111955
0.0258526 -0.111756
0.00285852 -0.254927
0.000907694 -0.261206
0.0177928 -0.423052
0.0240768 -0.419471
0.0384457 -0.405715
0.0406523 -0.398847
-0.0141939 -0.0580219
-0.0168762 -0.0559571
-0.00784934 -0.0617697
-0.00408807 -0.0614903
-0.00826559 -0.0397016
-0.00802244 -0.0366133
0.0102856 -0.0565955
0.0139346 -0.0572727
-0.0047313 -0.319673
0.00204041 -0.320736
0.0006194 -0.0768898
0.00146272 -0.0810659
0.0123537 -0.372856
0.0144066 -0.379753
-0.000105016 -0.000975723
0.000385251 -0.00127373
0.0160698 -0.0902701
0.0115716 -0.0899904
0.0182795 -0.125859
0.0175723 -0.120769
0.00439299 -0.0397464
0.0067339 -0.0379437
0.00884509 -0.433381
0.0084641 -0.426089
0.0124002 -0.0338512
0.0141095 -0.0319338
0.0274911 -0.161491
0.0228155 -0.164311
-0.023389 -0.107465
-0.0185926 -0.106342
0.0035905 -0.280097
-0.000579367 -0.274862
-0.00424472 -0.0405216
-0.00302341 -0.0376002
0.0215049 -0.336246
0.0277948 -0.333233
-0.00108837 -0.0459486
-0.00370794 -0.0481259
-0.000484236 -0.0121088
0.00120609 -0.0126475
0.0181376 -0.0928479
0.0142 -0.0902151
-0.00142672 -0.00176688
-0.000741175 -0.00157578
-0.00488177 -0.02054
-0.00427504 -0.018299
0.000873388 -0.147158
-0.000673257 -0.15242
0.014703 -0.255005
0.0148129 -0.26159
0.0251671 -0.301406
0.0310274 -0.298074
-0.0159011 -0.393253
-0.0195901 -0.399499
0.00603718 -0.28823
0.00349893 -0.294521
0.00698531 -0.413131
0.0138994 -0.41521
-0.0263875 -0.149569
-0.0316819 -0.151516
0.00237442 -0.0558029
0.00508257 -0.0535503
0.0227229 -0.0774605
0.0193958 -0.0744627
0.0048416 -0.466204
0.011088 -0.469942
0.0112617 -0.464546
0.00515565 -0.46058
-0.0327438 -0.328916
-0.0289844 -0.334755
0.027626 -0.189472
0.0256693 -0.183756
0.00157658 -0.013778
-0.000269368 -0.0138166
0.000509345 -0.000170809
0.000984666 -0.000485166
-0.00205563 -0.00803931
-0.000723286 -0.00850662
-0.0180837 -0.162119
-0.0137168 -0.158415
-0.00270215 -0.460383
0.00329756 -0.456241
-0.00920252 -0.0888608
-0.011366 -0.092939
0.00337647 -0.0186486
0.00445975 -0.0169094
0.0209874 -0.328507
0.0213108 -0.335535
0.0365509 -0.288963
0.0357929 -0.295686
-0.0230615 -0.134506
-0.0274336 -0.132051
0.00654203 -0.00549724
0.00526521 -0.00510198
-0.0370463 -0.290109
-0.0303204 -0.290637
0.0180332 -0.186449
0.0125567 -0.188498
-0.000760977 -0.458911
0.00251168 -0.465454
0.0347652 -0.488198
0.0415598 -0.485397
-0.0392157 -0.290886
-0.0327632 -0.292718
-0.00396611 -0.0526598
-0.00744003 -0.0524074
-0.000264065 -0.189349
-0.00453714 -0.185303
-0.00705295 -0.0476558
-0.00551339 -0.0506157
0.0162001 -0.0667108
0.0200976 -0.0666699
0.00902825 -0.407859
0.00212363 -0.405824
0.0221438 -0.269093
0.0207931 -0.262562
-0.00737462 -0.142907
-0.00270316 -0.145454
-0.015542 -0.347382
-0.0148906 -0.35457
0.0158833 -0.0378254
0.0185659 -0.0400722
-0.00473963 -0.0799598
-0.00740907 -0.0833974
-0.00233062 -0.00786581
-0.00091737 -0.00788569
-0.0104566 -0.0178303
-0.0105664 -0.0159241
-0.0242573 -0.329257
-0.0190636 -0.324482
0.00689744 -0.245172
0.00645662 -0.251665
0.000211097 -0.372875
-0.00381396 -0.367032
-0.0268605 -0.347061
-0.0323743 -0.342718
0.0055112 -0.449791
0.00464086 -0.457069
-0.0141508 -0.450086
-0.00721993 -0.447886
0.0243407 -0.312652
0.020162 -0.318092
0.00515365 -0.386829
0.00747821 -0.393667
-0.00159777 -0.24031
-0.00327455 -0.234132
-0.0294929 -0.153085
-0.0272817 -0.147878
0.00398503 -0.283014
-0.00268697 -0.28337
0.0175967 -0.213704
0.0199729 -0.219661
0.00391959 -0.143576
0.00923254 -0.143201
0.024209 -0.382818
0.0178599 -0.386093
-0.0131667 -0.211659
-0.01459 -0.205582
-0.0188727 -0.043702
-0.016078 -0.0447921
0.0380675 -0.317351
0.0407083 -0.311054
-0.000375951 -0.0866472
-0.00465867 -0.0864455
-0.0108607 -0.0477443
-0.00751251 -0.0477619
0.024652 -0.451792
0.0179357 -0.454607
-0.0282188 -0.410143
-0.0240313 -0.41602
0.0160735 -0.0386211
0.0129847 -0.0376012
0.00985702 -0.0451321
0.0074662 -0.0471957
-0.0340891 -0.326289
-0.031641 -0.332798
-0.0198741 -0.483606
-0.0259153 -0.487731
-0.00827926 -0.491264
-0.0155393 -0.491646
-0.0104354 -0.0506656
-0.0139167 -0.051373
-0.0391246 -0.489724
-0.0322032 -0.492149
0.0124542 -0.136119
0.00809754 -0.13306
0.036845 -0.442493
0.0339086 -0.449177
-0.0108112 -0.207066
-0.0134722 -0.212873
0.00977019 -0.0297447
0.0125703 -0.0306077
-0.0155593 -0.480984
-0.0228 -0.480193
0.00465754 -0.0141647
0.00657198 -0.0150535
-0.00198723 -0.000967998
-0.00113008 -0.000544712
0.0308977 -0.167253
0.0314076 -0.16167
0.0219741 -0.0677468
0.0205577 -0.0712184
0.0113358 -0.155256
0.0152057 -0.151493
0.00949703 -0.0385071
0.0119904 -0.0407701
0.0100304 -0.110196
0.0136901 -0.107239
-0.00300371 -0.0847288
-0.00424583 -0.0889766
0.0113859 -0.018297
0.0102232 -0.0161878
-0.0237725 -0.386586
-0.0173064 -0.389598
-0.0112224 -0.285563
-0.00452736 -0.285783
-0.0114513 -0.0441048
-0.0107327 -0.0408718
-0.027154 -0.254077
-0.0336806 -0.254608
0.0216055 -0.279669
0.0211171 -0.272971
-0.00329323 -0.0134038
-0.00160828 -0.0125117
-0.0112461 -0.141622
-0.00777956 -0.137467
0.0226398 -0.47622
0.0156767 -0.478407
0.0212139 -0.130635
0.0245824 -0.134908
-0.0114072 -0.032567
-0.0136254 -0.0349414
0.0140168 -0.267965
0.0173415 -0.273797
0.0162021 -0.449256
0.0234356 -0.448525
0.0194396 -0.313034
0.0225341 -0.31928
0.0259145 -0.367319
0.0190614 -0.369268
-0.0331636 -0.261084
-0.0265904 -0.260711
-8.8827e-05 -0.00836519
-0.000569421 -0.00699571
0.0149943 -0.0823043
0.01315 -0.0860895
0.018707 -0.271792
0.0240319 -0.27593
0.00236688 -0.0701686
-0.00137815 -0.0715384
-0.0237568 -0.129521
-0.0240257 -0.134745
0.0130072 -0.276862
0.0065302 -0.278316
0.0139289 -0.377535
0.0123506 -0.370523
0.00972322 -0.0530927
0.00619898 -0.0529309
-0.017087 -0.0999261
-0.01974 -0.104183
0.0095762 -0.279773
0.00338919 -0.282248
0.0147205 -0.150647
0.0113178 -0.154838
0.00379413 -0.00229356
0.00452803 -0.00310905
0.00159779 -0.300564
0.00228506 -0.293761
0.00239427 -0.241217
-0.00122729 -0.235933
0.0347006 -0.444639
0.0290728 -0.44927
0.0185437 -0.134621
0.022957 -0.137826
-0.0186513 -0.213635
-0.0248204 -0.214822
0.00612656 -0.296174
0.00862718 -0.302556
-0.0235883 -0.0966216
-0.0247434 -0.0923413
-0.0193272 -0.217533
-0.0211706 -0.211561
-0.00377641 -0.00886418
-0.00535297 -0.00929455
-0.00205025 -0.0218816
-0.00125307 -0.0197205
0.00288961 -0.0192119
0.00185355 -0.0172427
0.0108124 -0.0748461
0.0148442 -0.074396
0.0144396 -0.384901
0.00897631 -0.38023
0.00114935 -0.00685152
0.000942873 -0.00552261
-0.010905 -0.468744
-0.00437331 -0.471946
-0.000828509 -0.000313727
-0.000233332 -5.10918e-05
-0.0402332 -0.479342
-0.0359327 -0.473384
0.031817 -0.40894
0.0255783 -0.405223
-0.0154612 -0.267649
-0.0126398 -0.273623
0.0122216 -0.114101
0.0160986 -0.111357
0.030772 -0.463167
0.0250914 -0.467773
-0.00826474 -0.239608
-0.00225585 -0.241691
-0.0142541 -0.188096
-0.00863587 -0.186198
0.0139215 -0.215829
0.0194496 -0.219019
0.00421338 -0.0442434
0.000985498 -0.0444844
-6.01331e-05 -0.0089256
-0.00132115 -0.00993097
0.0325785 -0.460314
0.0323884 -0.467644
-0.000914662 -0.00447737
-0.00143579 -0.00562832
-0.0274768 -0.218744
-0.0212804 -0.217529
0.00783944 -0.0757432
0.00448248 -0.0780597
-0.0202205 -0.432183
-0.016996 -0.438709
-0.019634 -0.201776
-0.0195212 -0.195681
0.000156016 -0.000166603
3.49229e-05 1.26826e-06
0.00098837 -0.000568566
0.00067006 -0.000237761
-0.0202544 -0.236082
-0.0246653 -0.231651
0.00944025 -0.184328
0.0152892 -0.184704
0.0351091 -0.29917
0.0293112 -0.302606
-0.02045 -0.234618
-0.0219388 -0.240924
-0.0198803 -0.299047
-0.0194415 -0.305886
0.0109721 -0.0739096
0.00762644 -0.071382
-0.0103986 -0.0640905
-0.00865485 -0.0605401
0.0346696 -0.41346
0.040679 -0.409464
0.0328134 -0.455316
0.0260728 -0.452506
0.0136628 -0.107919
0.0149019 -0.103283
0.000451506 -0.492135
0.00669394 -0.488393
0.0324365 -0.490502
0.0255086 -0.488144
0.00820228 -0.15448
0.0128963 -0.151785
-0.00887097 -0.12324
-0.00933667 -0.128373
0.0177659 -0.0395577
0.0179842 -0.0426889
0.00713423 -0.201284
0.00494376 -0.195668
0.00425839 -0.493136
0.00389064 -0.485824
-0.0237348 -0.185414
-0.0211553 -0.190635
-0.00501592 -0.00494355
-0.00599742 -0.00495557
0.0183432 -0.0775028
0.0225668 -0.077916
-0.0285395 -0.146496
-0.0231302 -0.146414
-0.0106889 -0.0187602
-0.0113725 -0.02107
-0.0144863 -0.230693
-0.0203134 -0.228454
0.0163866 -0.107153
0.0119348 -0.104979
0.0017789 -0.411568
0.00893126 -0.41074
0.0173285 -0.475421
0.0241972 -0.472946
-0.0336233 -0.412167
-0.0280515 -0.407467
0.0323187 -0.308653
0.0388527 -0.306725
0.00182504 -0.118638
-0.0018944 -0.11533
0.0170803 -0.451286
0.0100381 -0.453089
-0.0347802 -0.258083
-0.028223 -0.25772
0.0243364 -0.100626
0.0218182 -0.0963422
0.0115232 -0.0438133
0.0102194 -0.0406955
0.00147383 -0.427578
-0.00502106 -0.424393
-0.00851766 -0.257538
-0.015011 -0.258214
-0.0276329 -0.316497
-0.0231169 -0.311151
-0.00121854 -0.0168806
5.52859e-05 -0.0152612
0.0026729 -0.471015
0.00410947 -0.463818
-0.0251814 -0.127546
-0.0247474 -0.122428
0.00442758 -0.0158507
0.0063495 -0.0169871
0.0121731 -0.275137
0.00565284 -0.273854
0.0345467 -0.219311
0.0302382 -0.214461
-0.0278787 -0.271475
-0.0334415 -0.268083
-0.0364498 -0.359518
-0.0344021 -0.366351
0.00117209 -0.27495
-0.00451487 -0.271545
0.0331463 -0.166871
0.0276743 -0.16487
-0.0249321 -0.261859
-0.0268594 -0.255647
0.00275097 -0.00214862
0.00331399 -0.00299265
-0.00468027 -0.0896296
-0.00308888 -0.0854901
0.0123281 -0.0303365
0.0113241 -0.0327536
-0.0437952 -0.439058
-0.0381098 -0.443584
0.0209922 -0.312024
0.0197643 -0.305219
0.00638467 -0.152922
0.0117536 -0.154159
-0.0327848 -0.342118
-0.0381912 -0.346909
0.0164781 -0.486286
0.00969817 -0.483642
0.0362685 -0.413867
0.0292398 -0.415568
0.0374146 -0.32836
0.0407225 -0.322319
0.0100334 -0.1705
0.00552145 -0.17395
-0.0147278 -0.0476431
-0.0180749 -0.0476427
-0.0208909 -0.124239
-0.0159379 -0.122768
0.0338809 -0.214486
0.0280491 -0.211888
0.0157375 -0.0974175
0.0191786 -0.100988
0.0099075 -0.0465147
0.0115437 -0.0438718
-0.00804278 -0.0363798
-0.0110305 -0.0371719
-0.0157966 -0.384952
-0.0221901 -0.381825
-0.0281408 -0.273771
-0.0254907 -0.267567
-0.0246753 -0.093075
-0.0201263 -0.0931402
0.0199288 -0.374126
0.0138455 -0.370323
0.0298175 -0.478859
0.0225567 -0.479689
-0.00931044 -0.145239
-0.00443947 -0.142892
0.0192473 -0.114444
0.0239328 -0.113286
-0.011285 -0.412007
-0.00605756 -0.416991
-0.00936758 -0.0808434
-0.0123091 -0.0780074
-0.0151153 -0.369439
-0.00805582 -0.369048
0.0068366 -0.0486078
0.0102357 -0.0491556
0.0129544 -0.151874
0.0184232 -0.152141
0.00294583 -0.00485263
0.00191381 -0.00408825
-0.000466158 -0.0459318
0.000913457 -0.0429389
-0.0107376 -0.400121
-0.00551627 -0.395131
-0.00300883 -0.00783632
-0.00416758 -0.00737205
-0.0212843 -0.456172
-0.0272886 -0.460347
0.000596461 -0.00093916
0.000327221 -0.000463701
-0.00692775 -0.00846515
-0.00853172 -0.00896684
0.0177644 -0.286326
0.0237713 -0.289517
0.0309125 -0.424386
0.0368881 -0.428581
-0.0120222 -0.0647239
-0.0114569 -0.0608777
0.0280631 -0.396901
0.0339171 -0.401198
-0.0265709 -0.109042
-0.0227722 -0.105556
-0.0128159 -0.155994
-0.00759495 -0.154081
0.00285434 -0.00236613
0.00326989 -0.00216014
0.0210671 -0.30456
0.0144168 -0.306002
0.0241571 -0.190312
0.0264381 -0.196001
-0.00383314 -0.377333
-0.00329437 -0.384505
-0.0254998 -0.151322
-0.024927 -0.145857
0.0217307 -0.256296
0.0152104 -0.256159
0.000396 -0.00113101
-0.000144552 -0.00111391
-0.0220795 -0.153893
-0.016918 -0.151692
-0.00339234 -0.477674
-0.00592651 -0.484554
-0.00242864 -0.00856005
-0.00100478 -0.00800598
0.00409162 -0.0558453
0.00174551 -0.0586047
0.00106268 -0.42741
0.000530067 -0.420137
0.0211584 -0.230604
0.0149936 -0.231904
-0.00822107 -0.281012
-0.00274219 -0.284837
-0.0087131 -0.0164935
-0.00921488 -0.0186486
0.0202207 -0.44506
0.0150373 -0.450187
0.0389498 -0.352966
0.0327845 -0.35646
0.000386685 -0.000111569
0.000688811 -0.000307203
0.0309816 -0.44169
0.0237919 -0.442787
-0.0124966 -0.0590974
-0.00966017 -0.061242
-0.0222109 -0.12724
-0.0203148 -0.122338
-0.00291134 -0.00387423
-0.00227708 -0.00289814
-0.0200038 -0.195418
-0.0255857 -0.193444
-0.0443798 -0.449108
-0.0371045 -0.448355
0.0183034 -0.177236
0.0149656 -0.181903
0.0114782 -0.0181026
0.00965245 -0.0163266
-0.0315812 -0.415834
-0.0346357 -0.409288
-0.00562941 -0.396421
-0.0121547 -0.393485
0.00847299 -0.47988
0.00249027 -0.475734
0.0142999 -0.155877
0.0143616 -0.16148
0.00246761 -0.0752529
-0.000755958 -0.0778395
-0.0224422 -0.384304
-0.0174926 -0.379043
0.00300012 -0.00179587
0.00238824 -0.00168618
0.0130211 -0.0641322
0.0147939 -0.0609727
-0.0303863 -0.388825
-0.0233831 -0.387138
0.00735025 -0.162617
0.0128122 -0.161581
0.0198682 -0.0669172
0.0206763 -0.0632905
0.0329321 -0.219051
0.0342477 -0.225332
0.00611892 -0.248887
0.00521106 -0.255356
-0.0248862 -0.260633
-0.0212208 -0.25506
-0.0134211 -0.144218
-0.0111608 -0.149061
-0.00281175 -0.00175737
-0.00328716 -0.00242635
0.0116417 -0.0450114
0.0086693 -0.0460851
-0.00291822 -0.0191183
-0.0014397 -0.017476
-0.00216363 -0.0385803
0.000903691 -0.0387016
-0.00034606 -0.190016
0.00405001 -0.186097
-0.00554163 -0.00899098
-0.00577545 -0.00773963
0.00515391 -0.374455
-0.00171021 -0.372724
-0.0336563 -0.241264
-0.0335591 -0.247724
-0.0187587 -0.0596737
-0.0211988 -0.0630006
-0.00271695 -0.306016
-0.0051002 -0.299591
0.0157729 -0.0651899
0.0196399 -0.0652094
-0.00114731 -0.0871863
-0.000169676 -0.0915282
-0.0120222 -0.490629
-0.00483375 -0.489605
-0.0246299 -0.0887037
-0.0246505 -0.0843381
-0.00273222 -0.0485459
0.000486627 -0.0495999
0.0218546 -0.0952608
0.0254602 -0.0987035
0.039494 -0.331819
0.0336762 -0.327707
0.0175655 -0.15669
0.0200827 -0.161825
-0.00691316 -0.0281036
-0.0060925 -0.0253258
-0.00416095 -0.0823549
-0.000253233 -0.0807064
-0.0147977 -0.3888
-0.0192363 -0.394519
-0.0246169 -0.144434
-0.0194998 -0.145749
0.00771883 -0.41125
0.0137368 -0.41527
-0.0118566 -0.0880958
-0.011867 -0.0837039
0.00722748 -0.385997
0.000102793 -0.385769
-0.0172806 -0.0872504
-0.0205165 -0.0846607
0.01433 -0.0770207
0.0111214 -0.0794739
0.00251594 -0.00116478
0.00179627 -0.000806767
0.0106636 -0.31423
0.0167496 -0.311103
-0.0308671 -0.204336
-0.0267519 -0.199509
-0.0353942 -0.399497
-0.0290293 -0.396002
0.0284409 -0.119442
0.0300537 -0.12441
-0.0104085 -0.0177066
-0.0102064 -0.0197327
0.0336173 -0.351991
0.0268325 -0.354029
-0.0216934 -0.172338
-0.0159652 -0.172344
0.000215968 -0.00219395
0.000430247 -0.00307541
0.0158767 -0.120444
0.0112327 -0.118351
-0.0188532 -0.0416228
-0.016617 -0.0388773
-0.0129447 -0.0892001
-0.00869141 -0.0903441
0.0334852 -0.29283
0.0299111 -0.286949
0.00235808 -0.0127159
0.00416985 -0.0131944
0.0105651 -0.0300724
0.0128859 -0.0290596
0.0335449 -0.21524
0.0336534 -0.208984
0.0163122 -0.400586
0.0205516 -0.394773
0.00233382 -0.078633
0.00388019 -0.082651
-0.00303451 -0.00168927
-0.00214284 -0.00109125
0.0185988 -0.0938379
0.0145819 -0.0957193
-0.0081439 -0.0208135
-0.00897912 -0.018954
0.00276554 -0.305679
-0.00204698 -0.310566
0.0350037 -0.423387
0.0290223 -0.419218
0.0217822 -0.449169
0.0273843 -0.444511
0.0246179 -0.123155
0.0198608 -0.120979
-0.00211903 -0.0585128
0.00154831 -0.0586805
-0.0058663 -0.0265656
-0.00439681 -0.0240761
0.0273122 -0.409721
0.020531 -0.412172
-0.00195875 -0.139043
-0.00275239 -0.144368
-0.0147668 -0.205995
-0.0117101 -0.211403
-0.0353052 -0.418652
-0.0306029 -0.42414
0.0172773 -0.147658
0.0127875 -0.150521
-0.000410651 -0.0654992
-0.00410453 -0.0667527
-0.0211888 -0.070938
-0.018925 -0.073948
0.0227663 -0.152905
0.0281566 -0.154502
-0.0395428 -0.435567
-0.0419905 -0.428723
-0.0319252 -0.401456
-0.0294018 -0.408213
-0.000938534 -0.000807999
-0.00056616 -0.000361411
0.00660458 -0.0563845
0.0101466 -0.0559334
-0.0281501 -0.402248
-0.0209592 -0.402555
0.0195064 -0.110758
0.0157418 -0.107363
-0.0161783 -0.258501
-0.00985854 -0.260024
-0.00560603 -0.0168796
-0.00754418 -0.0165014
0.0108307 -0.0373968
0.0134363 -0.0363536
0.00236493 -0.0896265
0.00628003 -0.091637
-0.00349616 -0.122257
-0.00226913 -0.117371
0.0129603 -0.0601213
0.0129958 -0.0639286
0.00584919 -0.0124848
0.00716726 -0.0141736
-0.00151092 -0.172033
0.00164047 -0.176879
-0.000509382 -0.0438511
0.00270286 -0.0436028
0.00775911 -0.0539696
0.0104723 -0.051958
0.00248968 -0.161921
-0.00165813 -0.165731
-0.0268585 -0.199303
-0.0253268 -0.205161
0.0199728 -0.476101
0.0255309 -0.471337
0.000921 -0.00591487
0.000849065 -0.00727319
-0.0329171 -0.257443
-0.0390027 -0.255325
0.0367534 -0.39497
0.0352035 -0.387897
-0.0235759 -0.431639
-0.0222289 -0.438809
-0.00253277 -0.00802039
-0.0034631 -0.00943283
-0.0227243 -0.400322
-0.0159708 -0.402739
0.00111237 -0.395153
-0.00474536 -0.391019
0.0217832 -0.25558
0.0153729 -0.256608
-0.000324179 -0.00121711
-0.000677032 -0.00187533
-0.0271917 -0.163193
-0.0326776 -0.165084
-0.00475763 -0.178844
-0.00108479 -0.183373
0.0273418 -0.140204
0.0309522 -0.144521
0.0152189 -0.0340144
0.0131913 -0.0356858
0.000661589 -0.0123104
0.00205684 -0.0113468
0.0311668 -0.190638
0.0258167 -0.187647
-0.0178042 -0.0554346
-0.0162721 -0.0584679
-0.00784539 -0.193971
-0.0124665 -0.197871
0.00481178 -0.15079
0.0087223 -0.154732
-0.0143707 -0.243949
-0.0184874 -0.24906
0.0149227 -0.0249539
0.0129803 -0.0226932
-9.67144e-05 -0.389348
-8.29806e-06 -0.396579
0.00235634 -0.00396377
0.00134728 -0.00352705
0.0262301 -0.150153
0.0241422 -0.144968
0.0279136 -0.377033
0.0333322 -0.372397
0.00496651 -0.0892531
0.00468405 -0.0848354
-0.00307758 -0.042101
2.47976e-05 -0.041417
-0.0251373 -0.320514
-0.0198665 -0.315904
-0.00836055 -0.370615
-0.0103582 -0.363783
-0.00788041 -0.0109277
-0.00858577 -0.00991961
-0.0279159 -0.220742
-0.0306339 -0.226619
-0.0393782 -0.301851
-0.0395674 -0.308723
-0.0252457 -0.163192
-0.0298946 -0.166804
0.000873412 -0.000881673
0.000947179 -0.000582528
-0.00851016 -0.474942
-0.00889412 -0.482271
0.0136825 -0.175645
0.00999893 -0.180046
0.00330341 -0.180113
0.00879281 -0.178358
0.00108188 -0.0540951
0.0044237 -0.0554547
-0.0351296 -0.212669
-0.0366473 -0.218883
0.0295049 -0.356385
0.0357169 -0.360036
-0.0162416 -0.130007
-0.0184659 -0.125524
0.016255 -0.176247
0.0111396 -0.173436
0.0405784 -0.448896
0.0428366 -0.441953
-0.0181102 -0.3652
-0.0113516 -0.367241
0.0137286 -0.208332
0.0185144 -0.204581
-0.0209367 -0.143396
-0.0196814 -0.13811
-0.00429499 -0.0163476
-0.00637922 -0.0166724
-0.0224417 -0.214076
-0.0238261 -0.208021
0.0107446 -0.0960081
0.0135191 -0.100047
-0.00609205 -0.0677099
-0.00374874 -0.0708545
-0.00757388 -0.244596
-0.00180456 -0.247388
0.0268752 -0.206181
0.0330327 -0.207088
0.0134851 -0.19761
0.00881857 -0.193768
0.0347253 -0.451581
0.0358799 -0.444359
-0.00617208 -0.00507213
-0.00636146 -0.00606783
-0.030679 -0.311682
-0.0334536 -0.318119
-0.031421 -0.183284
-0.0255468 -0.18238
-0.0253972 -0.470958
-0.0303042 -0.476404
0.000537511 -0.00317329
0.000412692 -0.0022646
0.0219129 -0.139443
0.022284 -0.144821
0.0221299 -0.155372
0.0169739 -0.157094
-0.00266431 -0.00951565
-0.00110552 -0.00934872
-0.0277154 -0.172269
-0.0333818 -0.173864
0.00531148 -0.390921
-0.000833215 -0.394614
0.00673457 -0.0204355
0.00651704 -0.0181784
0.00707208 -0.426386
0.000473295 -0.423418
-0.0293072 -0.32204
-0.0358575 -0.319896
-0.0097066 -0.415686
-0.00537575 -0.421494
9.95861e-06 -0.00854204
0.0005299 -0.00716795
0.0170601 -0.0620574
0.0206124 -0.0641237
-0.00180259 -0.268609
0.00293329 -0.273259
0.00603374 -0.00806145
0.00538737 -0.00908613
-0.0181777 -0.182315
-0.012341 -0.182449
0.0034783 -0.0459705
0.00190927 -0.0430179
-0.0136293 -0.0390754
-0.0139061 -0.042223
-0.00144794 -0.0215868
0.000164979 -0.0230318
-0.0243773 -0.0910924
-0.0204117 -0.0883798
0.00454225 -0.136396
0.00677932 -0.141271
0.000420136 -9.09763e-05
0.000994008 -0.00036446
-0.00178045 -0.00085341
-0.00270886 -0.00137967
0.0372183 -0.269203
0.0321127 -0.264747
-0.0139227 -0.154353
-0.00995964 -0.158079
0.000840888 -0.0912746
0.00515388 -0.0908598
-0.0021048 -0.0016712
-0.00249833 -0.00240875
-0.0381256 -0.472867
-0.0438266 -0.477505
-0.0171104 -0.139162
-0.0177285 -0.14453
0.00275976 -0.0556383
-0.000811465 -0.0553035
0.0055536 -0.0521642
0.00415107 -0.0488907
0.00070365 -0.0104748
-0.000870223 -0.0101101
-0.0326275 -0.276237
-0.0388285 -0.27906
-0.021172 -0.190335
-0.0263867 -0.193594
-0.0132232 -0.391018
-0.0199388 -0.3886
0.0148841 -0.242149
0.0202724 -0.245834
-0.0109423 -0.441224
-0.00886497 -0.448231
-0.0127704 -0.118066
-0.00798556 -0.116714
0.0238631 -0.390755
0.0170869 -0.388318
0.00890719 -0.0271224
0.00799303 -0.0295716
0.0160207 -0.073232
0.0197428 -0.0754928
0.00302802 -0.00430673
0.00325677 -0.00351894
0.0171404 -0.356597
0.0234454 -0.353312
-0.0251172 -0.105624
-0.0208481 -0.10291
-0.0291328 -0.384395
-0.035968 -0.382316
0.00649565 -0.484278
-0.000616202 -0.485751
0.0286199 -0.413195
0.0223944 -0.416853
0.0140784 -0.146484
0.00880089 -0.145246
-0.0270594 -0.182501
-0.0216371 -0.184475
0.00350415 -0.274078
-0.0022503 -0.277415
0.019447 -0.348144
0.0263574 -0.34666
0.0012529 -0.0038061
0.00174255 -0.00489751
-0.0213489 -0.116204
-0.0169324 -0.113579
-0.00329611 -0.00613979
-0.0046256 -0.00691369
-0.00402526 -0.0363933
-0.00117818 -0.037249
-0.000770264 -0.000394662
-0.00101853 -0.000451427
0.000478603 -0.0688322
-0.00188131 -0.0721079
0.00474317 -0.418332
-0.00227169 -0.42004
0.0121145 -0.383003
0.0187131 -0.380301
0.0259946 -0.491714
0.031546 -0.496506
0.0192026 -0.391405
0.0123625 -0.389201
-0.00400103 -0.116255
-0.00554867 -0.121038
-0.00295146 -0.00192789
-0.00240044 -0.00189734
0.00496751 -0.0178883
0.00716084 -0.0184749
-0.0131178 -0.0351928
-0.0102085 -0.0340336
0.0228115 -0.116498
0.0185653 -0.118764
-0.0100721 -0.391836
-0.0172277 -0.391785
0.0196841 -0.0553149
0.0165708 -0.0529357
0.000655021 -0.492924
0.00723726 -0.489836
-0.0231179 -0.242173
-0.0240974 -0.248618
0.00269921 -0.414519
0.00266898 -0.421802
-0.0015057 -0.0160741
0.00021968 -0.0150809
0.0366167 -0.35958
0.037602 -0.36672
0.00022196 -0.314958
0.00475852 -0.320164
-0.0386722 -0.260535
-0.0359274 -0.254425
0.0114313 -0.110653
0.0147254 -0.114483
-0.00873827 -0.228707
-0.00418706 -0.233045
0.0152968 -0.373326
0.00932982 -0.377193
-0.00694782 -0.311053
-0.00640206 -0.317963
0.0245373 -0.16679
0.0228714 -0.172162
-0.00474575 -0.007386
-0.00367121 -0.00792909
0.0182816 -0.246565
0.0137288 -0.241875
-0.0115069 -0.0304158
-0.0100486 -0.0277589
-0.00545341 -0.00690045
-0.00414339 -0.00679866
-0.00537511 -0.0053785
-0.00444455 -0.00561365
-0.00831879 -0.00803451
-0.00881203 -0.00946393
0.0152658 -0.361739
0.0134122 -0.354755
0.0269271 -0.162187
0.0218071 -0.164201
0.0225727 -0.446032
0.0161247 -0.449404
-0.0273759 -0.194987
-0.0279078 -0.201082
-0.0219169 -0.411799
-0.0223832 -0.419064
0.0403555 -0.398541
0.0423551 -0.391626
0.0149849 -0.140342
0.019865 -0.138552
0.0060434 -0.00506061
0.00550106 -0.00403618
-0.00194133 -0.490712
0.00521152 -0.489496
0.00133202 -0.00067787
0.00179638 -0.000853034
0.0208097 -0.0774845
0.0188037 -0.0809327
0.00428484 -0.0570458
0.0050132 -0.0607498
0.0084374 -0.38922
0.00164558 -0.391447
0.0192724 -0.154367
0.0148117 -0.150929
-0.0151516 -0.225439
-0.0137686 -0.2192
-0.00581349 -0.180219
-0.00688177 -0.186038
-0.0314359 -0.451433
-0.0382741 -0.448933
-0.0124711 -0.271584
-0.00604089 -0.26997
0.0176131 -0.183705
0.015041 -0.188954
0.0312242 -0.181933
0.0263135 -0.178403
0.0186541 -0.275513
0.0124896 -0.272918
-0.0255572 -0.112832
-0.0213981 -0.115076
0.0126501 -0.0428761
0.0125696 -0.0397156
0.00378171 -0.0390643
0.000716309 -0.0392431
0.00938896 -0.0372339
0.00641118 -0.0366447
0.00774788 -0.493413
0.00599291 -0.486309
0.0258619 -0.14405
0.0297991 -0.148124
-0.0224178 -0.124855
-0.0265519 -0.122311
-0.0124673 -0.0760353
-0.0157247 -0.0738363
0.00119481 -0.443747
-0.0050591 -0.440062
-0.0179816 -0.384266
-0.0125898 -0.379491
-0.0254967 -0.49266
-0.0321554 -0.495714
0.0152299 -0.0732945
0.0139504 -0.0770967
0.011452 -0.0328742
0.00900204 -0.0309599
-0.0123068 -0.145973
-0.0176841 -0.146623
0.0305218 -0.18995
0.0264703 -0.194113
-0.00268715 -0.170578
-0.00476955 -0.165276
0.00142715 -0.00160168
0.000873556 -0.0017504
0.0163032 -0.256163
0.0164587 -0.249624
-0.00169783 -0.404249
-0.00341087 -0.411308
-0.0347184 -0.225729
-0.0314837 -0.220083
-0.0376442 -0.385676
-0.0305356 -0.386619
-0.00131693 -0.0213676
-0.00338825 -0.0224083
-0.00646495 -0.0352181
-0.0090637 -0.0343192
0.00307596 -0.0172339
0.00438295 -0.0190975
0.011469 -0.122634
0.00823012 -0.11866
-0.0184238 -0.13758
-0.0210391 -0.142411
0.01494 -0.288334
0.0156833 -0.295107
0.0322832 -0.390508
0.0372542 -0.395808
-0.00256674 -0.0158018
-0.00448738 -0.0155006
0.0033811 -0.0342517
0.00614089 -0.0339916
-0.0168418 -0.0895921
-0.0159282 -0.0851677
-0.00637398 -0.0513355
-0.00491245 -0.0544885
0.0226676 -0.254471
0.0278089 -0.258707
0.00518492 -0.0610012
0.00582819 -0.0573407
0.00997014 -0.0258232
0.00908532 -0.023216
0.0164265 -0.200324
0.0103798 -0.19976
0.000890342 -0.0494424
0.0020492 -0.0462515
-6.9222e-05 1.26105e-05
-0.0001067 -0.000118613
0.0119649 -0.360735
0.0150496 -0.354266
-0.0108202 -0.0477724
-0.012469 -0.0510141
-0.0301045 -0.417366
-0.0329182 -0.42411
-0.018272 -0.142639
-0.0150099 -0.138222
-0.00395139 -0.121327
-0.00190032 -0.125964
0.00854748 -0.30318
0.0149381 -0.30091
0.0292114 -0.368945
0.0242084 -0.374023
-0.0227012 -0.252822
-0.0269293 -0.248047
-0.0176756 -0.298422
-0.0123759 -0.294083
0.0239854 -0.386362
0.0210411 -0.379761
-0.0377284 -0.293148
-0.0336893 -0.287531
0.0202061 -0.300637
0.0224751 -0.307159
0.0412265 -0.440947
0.0342791 -0.438675
-0.00901678 -0.43784
-0.0159978 -0.43591
-0.0223977 -0.437864
-0.0161058 -0.441471
0.0232762 -0.202969
0.0234169 -0.196871
0.0102431 -0.0580938
0.0104813 -0.0544736
0.00989035 -0.0208772
0.0122147 -0.0209163
-0.0112341 -0.371145
-0.00891621 -0.364391
-0.024342 -0.24902
-0.0262199 -0.255348
0.00564784 -0.276093
0.00292739 -0.269982
-0.000933132 -0.00574101
0.000282208 -0.00578079
-0.00887936 -0.0472428
-0.0111905 -0.0500373
-0.00980219 -0.427411
-0.0125669 -0.434173
-0.00424255 -0.428695
0.00156919 -0.433032
0.00846577 -0.118716
0.0108124 -0.114438
0.0280056 -0.351209
0.0310971 -0.344822
-0.0076509 -0.317792
-0.00108066 -0.319768
-0.0188891 -0.0542478
-0.0184067 -0.0577078
0.0180195 -0.10005
0.0204249 -0.104433
-0.0247591 -0.192051
-0.0239831 -0.197996
0.0375674 -0.289667
0.0343806 -0.295548
-0.0182725 -0.153704
-0.0235544 -0.155655
-0.00371106 -0.420151
-0.0062916 -0.413361
-0.0346074 -0.180315
-0.0337867 -0.174497
0.0186489 -0.0990391
0.0139582 -0.0984385
-0.00239803 -0.0138214
-0.00104015 -0.0124538
-0.0346208 -0.457579
-0.0385217 -0.4638
-0.00137862 -0.0101563
-0.000559813 -0.00872267
0.00323401 -0.0630324
0.00676983 -0.0618322
7.95724e-05 4.57072e-06
0.000184955 -2.25083e-05
0.00290523 -0.0532496
0.00358948 -0.0498097
0.00843231 -0.0267834
0.00888233 -0.0295915
-0.0185816 -0.0893918
-0.0211603 -0.0934398
0.0240591 -0.135879
0.019556 -0.1383
-0.00488927 -0.0709853
-0.00602815 -0.0671919
0.00212724 -0.00883033
0.000723484 -0.00930572
-0.0184678 -0.420392
-0.0251036 -0.423351
-0.0320576 -0.155086
-0.0327018 -0.16067
0.0164788 -0.184472
0.0209232 -0.188556
-0.012084 -0.301468
-0.0186677 -0.299867
-0.00389751 -0.084483
-0.00389957 -0.0889026
-0.00861323 -0.285342
-0.00877507 -0.278601
-0.0234453 -0.408972
-0.0305448 -0.410384
-0.0259949 -0.455971
-0.030828 -0.450518
0.0387464 -0.485164
0.0319543 -0.487951
0.0152224 -0.193028
0.0126379 -0.19841
-0.00767865 -0.201842
-0.0129973 -0.199032
0.000806525 -0.43119
0.00151889 -0.423925
0.00161228 -0.0535956
0.00351196 -0.0506692
0.00260223 -0.00152102
0.00305433 -0.0021574
0.0271352 -0.312551
0.0249311 -0.305969
-0.000460984 -0.00216876
-0.00117381 -0.00274044
-0.0359596 -0.193893
-0.0342901 -0.199573
-0.0163843 -0.323077
-0.0220905 -0.327165
0.00430213 -0.00800617
0.00513246 -0.00720843
0.0033797 -0.0681202
0.00270108 -0.0720896
0.0166456 -0.108424
0.0213364 -0.10759
0.0276024 -0.43851
0.0204275 -0.437339
-0.0110035 -0.0364692
-0.00879665 -0.0381584
-0.00431131 -0.0242144
-0.00534959 -0.0268884
0.0220381 -0.153272
0.0202556 -0.14797
0.00497544 -0.123755
0.00872519 -0.120484
0.0343295 -0.437482
0.0345812 -0.430186
0.000828194 -0.173889
0.00648366 -0.174817
-0.00411429 -0.142209
-5.06614e-05 -0.145689
-0.000516921 -0.00504906
0.000264483 -0.00422025
0.0105151 -0.0722142
0.0129429 -0.0692155
7.33312e-06 1.8646e-05
9.53504e-05 5.06721e-06
-0.00533413 -0.00442017
-0.00613983 -0.00556341
0.000848075 -0.176044
-0.00313839 -0.171899
-0.00867469 -0.263216
-0.00394801 -0.258608
-0.0386473 -0.379494
-0.0405411 -0.372604
-0.0194645 -0.403979
-0.0190014 -0.396744
0.0277213 -0.138249
0.0224261 -0.137477
-0.000386302 -0.00409074
-0.00109361 -0.00504664
-0.0400067 -0.396649
-0.0337564 -0.400158
-0.00947467 -0.48114
-0.00221499 -0.480974
0.0119478 -0.09955
0.0165568 -0.10102
0.00141234 -0.000595381
0.00202901 -0.00104303
0.00499482 -0.114007
0.00877311 -0.117206
-0.00441578 -0.00459178
-0.00427412 -0.00370286
-0.00374285 -0.0140211
-0.00533969 -0.0133346
-0.008377 -0.0638584
-0.0119552 -0.0628397
0.00324939 -0.00664009
0.00297547 -0.0079161
0.0196631 -0.0690352
0.0232161 -0.0678126
0.000393511 -0.16099
0.00572334 -0.162696
-0.00718126 -0.132884
-0.00403811 -0.128684
0.0107895 -0.115228
0.0126742 -0.110794
-0.011642 -0.141352
-0.00787644 -0.145044
0.022613 -0.479427
0.0159697 -0.482469
0.0279757 -0.333593
0.0283911 -0.340674
-0.00509262 -0.323672
-0.0084598 -0.329767
0.018586 -0.101209
0.0187337 -0.106055
0.022064 -0.400376
0.0200639 -0.407328
-0.0147185 -0.0690913
-0.016048 -0.0730556
-0.00154832 -0.272261
-0.000785824 -0.265643
-0.0364422 -0.44986
-0.0292289 -0.45088
-0.024057 -0.249705
-0.0262628 -0.243697
0.00566134 -0.30771
0.012117 -0.309982
-0.00382314 -0.0173924
-0.00435137 -0.0195876
-0.0155444 -0.0814206
-0.0136551 -0.0851368
-0.00214358 -0.0668556
-0.00506446 -0.0643791
0.0273821 -0.112658
0.0249861 -0.108108
0.0165035 -0.0861933
0.0131138 -0.0831415
-0.000446628 -0.15312
-0.000898894 -0.158675
-0.0299965 -0.206279
-0.0239308 -0.207044
-0.0301319 -0.16529
-0.0261819 -0.160935
0.00643634 -0.0573327
0.00984438 -0.0563249
0.0373582 -0.268766
0.0308879 -0.270001
-0.0320781 -0.45404
-0.0296573 -0.460938
-0.0194829 -0.136194
-0.024747 -0.136391
-0.0317992 -0.383704
-0.0318279 -0.376512
-0.0187429 -0.0658741
-0.0170163 -0.0621737
0.0139261 -0.285203
0.018772 -0.289983
-0.0362092 -0.476488
-0.0290259 -0.477854
-0.0162248 -0.393674
-0.0122118 -0.399636
-0.0283757 -0.328411
-0.0338213 -0.333017
-0.0281398 -0.21523
-0.0219479 -0.214158
-0.00657047 -0.0290021
-0.0055043 -0.0262379
0.0059511 -0.17865
0.00195676 -0.182876
-0.00363351 -0.0456388
-0.00359856 -0.0423443
-0.031155 -0.270007
-0.0352026 -0.275485
-0.0140707 -0.157324
-0.0121556 -0.162522
-0.00135669 -0.012509
-0.00266496 -0.0139543
-0.00297742 -0.0482193
0.00019796 -0.0493631
-0.038402 -0.456094
-0.0318502 -0.452818
0.0179676 -0.38765
0.0134195 -0.393196
0.0325667 -0.298647
0.0278296 -0.303438
-0.025498 -0.222863
-0.0308848 -0.226466
0.000880706 -0.420605
0.0078895 -0.41887
0.0197862 -0.391141
0.0242505 -0.396849
0.0238481 -0.324361
0.0267374 -0.330793
0.0110024 -0.137678
0.0129389 -0.142739
-0.0246528 -0.278597
-0.0264203 -0.285152
0.0213207 -0.424701
0.0270636 -0.420293
-0.00760902 -0.014464
-0.00965603 -0.0153024
0.00504214 -0.193413
0.00498871 -0.18743
0.0224744 -0.167231
0.0212116 -0.172751
-0.0132573 -0.205809
-0.0186091 -0.20919
0.017537 -0.170432
0.0118833 -0.169547
-0.00352798 -0.192709
-0.00813736 -0.196506
-0.0129625 -0.0733294
-0.0142697 -0.0773887
-0.019996 -0.0887263
-0.0175068 -0.0847797
0.00608776 -0.336373
0.00553591 -0.329417
-0.0172326 -0.493136
-0.0143499 -0.486395
0.00969918 -0.475745
0.0102733 -0.468426
0.0240801 -0.121818
0.0194461 -0.123481
0.00764199 -0.424148
0.00611096 -0.431281
0.0107189 -0.0136471
0.0105116 -0.0153164
0.0135862 -0.12715
0.0119707 -0.122216
0.0112535 -0.0757887
0.00854787 -0.0725082
0.00232871 -0.00296222
0.00283663 -0.00260805
-0.00366212 -0.0158789
-0.00417257 -0.0179917
-0.00528579 -0.00394835
-0.00415774 -0.00344028
0.0126789 -0.234803
0.0185447 -0.237446
-0.0114481 -0.250989
-0.00527916 -0.252863
0.000684611 -0.00666575
0.00161028 -0.00586667
0.0373994 -0.241377
0.0311952 -0.242874
-0.00222162 -0.436214
-5.68216e-05 -0.443191
0.0302791 -0.478924
0.0371787 -0.481384
-0.000334647 -0.0200535
0.000939934 -0.0182792
0.00563987 -0.0178836
0.00381696 -0.0165447
-0.0181972 -0.323771
-0.0158366 -0.33032
-0.0176838 -0.211571
-0.0188777 -0.217851
-0.0326119 -0.428701
-0.0285457 -0.422619
-0.0307341 -0.178666
-0.0288429 -0.184066
0.0243484 -0.101344
0.0196358 -0.100266
-0.0279811 -0.251442
-0.0291084 -0.245094
-0.0126453 -0.0488272
-0.013806 -0.0522654
-0.0133716 -0.0301997
-0.0149269 -0.028393
0.00830185 -0.471341
0.00343194 -0.465905
0.0231933 -0.258193
0.0167719 -0.256807
0.00406913 -0.00569062
0.00288005 -0.00565289
-0.0025439 -0.0128443
-0.00369664 -0.0145106
-0.00105438 -0.0038658
-0.00208788 -0.00408954
-0.0129951 -0.122737
-0.0122061 -0.127756
-0.00415205 -0.0097885
-0.00280213 -0.0104002
-0.0147614 -0.0508609
-0.0174352 -0.0536352
0.0176599 -0.486248
0.0137897 -0.492476
-0.0243362 -0.439189
-0.0207749 -0.445543
-0.0166403 -0.0396747
-0.014047 -0.0373875
-0.00659679 -0.0673302
-0.0104741 -0.0682463
-0.00562147 -0.0130201
-0.00750324 -0.0139505
-0.0119981 -0.265726
-0.0153586 -0.27152
-0.0108057 -0.0840308
-0.0149794 -0.0856388
0.0109221 -0.0715498
0.00690738 -0.0712014
0.00434651 -0.0590788
0.000837408 -0.0601912
-0.0145939 -0.303466
-0.0211629 -0.305446
-0.0131467 -0.0852859
-0.011853 -0.0810536
0.000304531 -0.0229695
0.000407752 -0.0207002
-0.0130404 -0.427777
-0.0188412 -0.423456
0.0360202 -0.436236
0.0318343 -0.442195
-0.00762004 -0.0112736
-0.0058605 -0.0105599
-0.0252429 -0.445377
-0.0200357 -0.450458
0.012254 -0.0714643
0.0140416 -0.0680621
-0.0291805 -0.232875
-0.0315021 -0.227061
0.00405749 -0.0652717
0.00690116 -0.0680944
0.00257965 -0.00314346
0.00165058 -0.00286387
0.0183839 -0.0700905
0.0215332 -0.0681253
-0.0179755 -0.434936
-0.018535 -0.442231
-0.0396866 -0.392312
-0.0341324 -0.387616
-0.0264076 -0.185956
-0.0321702 -0.187843
0.00795933 -0.0783554
0.00851628 -0.0826262
-0.0135943 -0.215822
-0.0191841 -0.218943
-0.0232337 -0.112266
-0.0255197 -0.116904
-0.00957389 -0.032523
-0.011946 -0.0346614
-0.00863859 -0.0103403
-0.0072796 -0.0106825
-0.00133563 -0.0852519
-0.00202278 -0.0809626
0.0065056 -0.00814808
0.00787684 -0.00950972
0.0103677 -0.446595
0.00502051 -0.451552
-0.00448109 -0.0748595
-0.00856185 -0.0753983
0.034597 -0.269238
0.0348251 -0.262627
-0.0021065 -0.159308
-0.00611603 -0.155515
0.00993821 -0.425781
0.00456264 -0.420906
0.00130273 -0.0866733
0.00296299 -0.0826502
-3.66238e-05 -0.00804155
0.00117706 -0.00896865
-0.00118835 -0.038649
-0.00413994 -0.0396087
-0.00269387 -0.257662
-0.00356648 -0.264214
0.0320468 -0.262248
0.0322719 -0.255683
0.01548 -0.093836
0.0134505 -0.0978536
-0.0052896 -0.00455107
-0.00482939 -0.00510333
0.00149021 -0.0118109
0.00243782 -0.0104723
-0.00582028 -0.00926789
-0.00432067 -0.00928535
0.000821946 -0.0222252
0.00279601 -0.021223
0.00417189 -0.436048
0.00852016 -0.430206
-0.0264293 -0.283966
-0.0219295 -0.288862
-0.0162246 -0.330351
-0.0138929 -0.336958
-0.0095039 -0.0129958
-0.00825149 -0.0138299
0.00581014 -0.0162618
0.00755222 -0.0178638
0.0171992 -0.0850852
0.0133458 -0.0868571
0.0209206 -0.317704
0.0140622 -0.316957
0.00570386 -0.0355407
0.00845535 -0.0349545
0.00490324 -0.42841
0.0121181 -0.428936
-0.0282165 -0.23303
-0.0230022 -0.236487
4.53491e-05 7.40604e-06
0.000213593 -0.000122953
0.0204611 -0.45507
0.0188644 -0.462223
-0.00604382 -0.0417987
-0.00350666 -0.0397757
0.022613 -0.200263
0.0286529 -0.201494
-0.000392602 -0.3235
0.00578278 -0.326525
-0.0237514 -0.229322
-0.023118 -0.222969
-0.0299975 -0.195452
-0.0335237 -0.200676
0.0303535 -0.168204
0.0315688 -0.162774
0.03831 -0.249756
0.032388 -0.246768
0.00694457 -0.381145
0.00495314 -0.388058
-0.0242883 -0.492258
-0.0174728 -0.489635
0.00263703 -0.0160412
0.00453206 -0.0156136
-0.00923627 -0.116051
-0.00437795 -0.116316
-0.0423984 -0.448984
-0.0358213 -0.452116
-0.00384016 -0.234263
-0.00604679 -0.228329
-0.00585731 -0.277451
-0.00823846 -0.271226
0.00106678 -0.161715
0.00587006 -0.158928
0.0272357 -0.172948
0.0248777 -0.167565
-0.0165434 -0.216027
-0.0141258 -0.21007
-0.00883864 -0.471218
-0.0158964 -0.469468
0.000898153 -0.0872611
0.00519085 -0.0870942
0.00248291 -0.00182485
0.00183525 -0.00116548
-0.0131978 -0.0623029
-0.0157737 -0.0654981
0.0102139 -0.145925
0.0126854 -0.141232
0.0188918 -0.048027
0.0155756 -0.0482647
-0.0197387 -0.33119
-0.0226789 -0.337668
-0.0386336 -0.491372
-0.0399242 -0.484129
-0.00876774 -0.386563
-0.00675376 -0.379641
0.00620276 -0.0080393
0.00485938 -0.00815757
-0.00342894 -0.419548
0.00314757 -0.422541
-0.0345641 -0.492252
-0.0414423 -0.489677
-0.00717134 -0.147301
-0.0125159 -0.148267
0.0149397 -0.061502
0.0179374 -0.0643126
-0.00268521 -0.299829
0.00403587 -0.300706
-0.00879092 -0.0178505
-0.00981508 -0.0200789
-0.0018061 -0.125595
-0.00334372 -0.12076
0.0082306 -0.0518698
0.00528725 -0.0536003
-0.0302255 -0.157751
-0.0256464 -0.160573
-0.00134954 -0.00912023
-0.00104063 -0.00759753
-0.0125689 -0.380541
-0.0092512 -0.374158
0.00308963 -0.174077
0.00275877 -0.179902
-0.0266062 -0.458023
-0.0260703 -0.450713
-0.0258287 -0.130283
-0.0306656 -0.132767
-8.65307e-05 -0.0704885
0.00211063 -0.0739331
-0.0371346 -0.354947
-0.0346345 -0.348164
-0.0105176 -0.454239
-0.0157412 -0.449167
0.002074 -0.055541
0.00547567 -0.0545555
0.0197379 -0.0770952
0.0188059 -0.0810828
0.013837 -0.263407
0.0180306 -0.258429
0.0237083 -0.388774
0.0285566 -0.383512
-0.0133645 -0.0414502
-0.0164034 -0.0431839
0.00349005 -0.17873
0.003948 -0.17293
-0.0428341 -0.452503
-0.0373934 -0.447571
0.00668111 -0.280775
0.00961382 -0.286873
-0.00115568 -0.00221664
-0.000420039 -0.0018943
0.0115943 -0.125885
0.00717562 -0.128291
-0.0171137 -0.181588
-0.018847 -0.187308
-0.00979855 -0.468659
-0.0150734 -0.463621
0.0106781 -0.228314
0.0169656 -0.228521
0.0014533 -0.00120629
0.000853654 -0.000921838
-0.0140211 -0.393072
-0.015759 -0.40011
-0.0184514 -0.0561669
-0.0155813 -0.0534717
-0.0129699 -0.15167
-0.0181837 -0.153624
0.00602249 -0.0044588
0.00478766 -0.00388213
0.0267168 -0.464479
0.019982 -0.461676
-0.00304085 -0.00638456
-0.00176855 -0.00588248
-0.0192699 -0.136068
-0.0244841 -0.135778
-0.0145187 -0.0602713
-0.0114839 -0.0621459
-0.00120315 -0.0479336
-0.00244732 -0.0448357
0.0175185 -0.061107
0.0213401 -0.0619326
0.0284382 -0.184726
0.0231623 -0.181793
-0.0177324 -0.135025
-0.0125765 -0.13563
0.0161468 -0.125894
0.0212563 -0.126158
-0.0268067 -0.22195
-0.0211557 -0.224511
0.0162349 -0.0519916
0.0138337 -0.054222
-0.00146843 -0.0036442
-0.000571273 -0.00392402
0.00820666 -0.376998
0.00118196 -0.37598
-0.000945397 -0.489894
-0.00759539 -0.486983
-0.0375446 -0.29699
-0.0346026 -0.290734
0.00844697 -0.376288
0.0153936 -0.374778
-0.00756822 -0.117863
-0.00328195 -0.120298
-0.0163906 -0.0645232
-0.0131864 -0.061984
-0.0204903 -0.343717
-0.0272639 -0.341823
-0.00973028 -0.188117
-0.0107636 -0.194028
-0.036237 -0.383989
-0.0427135 -0.387264
-0.00517953 -0.188544
0.00066836 -0.18879
0.0319804 -0.433785
0.0248526 -0.43233
-0.000560572 -0.000174397
-0.000130248 -1.1378e-05
0.00465964 -0.00858796
0.00346086 -0.00920609
0.0218019 -0.103113
0.0187505 -0.106555
0.0167879 -0.335309
0.0117392 -0.340176
0.00246377 -0.40595
-0.000634044 -0.399409
-0.0130162 -0.0706668
-0.014086 -0.0747108
0.00695387 -0.187083
0.00185091 -0.184175
-0.024703 -0.418004
-0.0306507 -0.422221
0.0187134 -0.160076
0.0161787 -0.154982
-0.0125106 -0.429885
-0.00726368 -0.424839
0.00241399 -0.38659
0.000437642 -0.393531
-0.00411512 -0.00315731
-0.00330087 -0.00230183
-0.0112651 -0.445489
-0.0062965 -0.440141
0.027521 -0.16555
0.0331167 -0.165032
0.0365413 -0.293045
0.0354429 -0.299734
-0.00142366 -0.00104655
-0.00142168 -0.00149928
-0.0241566 -0.135125
-0.0274855 -0.139549
0.0310285 -0.292945
0.0374791 -0.291075
-0.00141865 -0.477285
0.00309124 -0.483024
-0.021975 -0.102005
-0.0267559 -0.102906
-0.00464215 -0.0425017
-0.00747827 -0.0413247
-0.00839787 -0.019826
-0.00840676 -0.0176768
0.02474 -0.177281
0.0204648 -0.18102
-0.0103241 -0.336824
-0.0121867 -0.34372
0.0124323 -0.0579862
0.0127345 -0.0543978
-0.011914 -0.0238664
-0.0109748 -0.0213806
-0.00823066 -0.0211252
-0.0102828 -0.0205014
-0.00939299 -0.0369894
-0.00708177 -0.038629
-0.021151 -0.342554
-0.021609 -0.335465
0.0224644 -0.185336
0.0258655 -0.180726
-0.0281735 -0.109534
-0.0242177 -0.106191
0.0144868 -0.0756931
0.010942 -0.0732894
0.0160692 -0.116214
0.0125323 -0.119499
-0.0149565 -0.329999
-0.0107592 -0.324403
-0.0196842 -0.177872
-0.0200026 -0.183743
-0.0115638 -0.22194
-0.0124061 -0.228247
-0.00629151 -0.286387
-0.0129515 -0.285688
0.00246626 -0.00858777
0.00374459 -0.00812537
0.011447 -0.265276
0.0169236 -0.261732
-0.0266318 -0.357693
-0.0271321 -0.364865
0.02457 -0.0865243
0.0266391 -0.0907795
0.00423817 -0.283211
-0.00187748 -0.280508
-0.0200921 -0.0762939
-0.0161144 -0.0770853
-0.0290821 -0.377938
-0.0279452 -0.385022
0.0154401 -0.316903
0.00896563 -0.314558
-0.00686669 -0.183178
-0.00168825 -0.180475
-0.00278436 -0.00722451
-0.00413712 -0.00810791
0.02038 -0.109059
0.0238945 -0.11283
0.0266443 -0.344651
0.0252827 -0.337636
-0.0258421 -0.133945
-0.029602 -0.138024
-0.0160942 -0.113205
-0.0141463 -0.108569
0.0130923 -0.176315
0.0188323 -0.177184
-0.00828732 -0.0929603
-0.00556749 -0.0965817
-0.0284568 -0.376296
-0.0273088 -0.383374
-0.0193458 -0.239683
-0.0247288 -0.23643
0.0314263 -0.378638
0.028623 -0.371977
-0.000272676 -0.000151361
-0.000445577 -0.000489486
-0.00130817 -0.000979474
-0.000830115 -0.000488092
-0.0122087 -0.0911339
-0.00777586 -0.0901551
0.0243848 -0.0768438
0.0202673 -0.0771046
-0.0343469 -0.250381
-0.0288837 -0.253672
-0.0326667 -0.374303
-0.0262222 -0.371063
0.00692178 -0.0165666
0.00680189 -0.0145675
0.00647575 -0.0376894
0.0085916 -0.0358387
-0.0352168 -0.392112
-0.036193 -0.399289
0.00843537 -0.0600943
0.0120375 -0.059478
0.0247211 -0.235607
0.0205529 -0.230611
0.00911888 -0.0388886
0.00646488 -0.0370894
0.0103832 -0.233803
0.01109 -0.240198
-0.00750263 -0.140495
-0.00350644 -0.136937
0.00288649 -0.0550665
0.00297578 -0.0514836
0.0101766 -0.0436895
0.00787506 -0.041169
-0.0182272 -0.413852
-0.0228491 -0.419486
0.036663 -0.246058
0.030895 -0.242829
-0.0287859 -0.357483
-0.0355633 -0.359861
-0.015224 -0.0763083
-0.0148907 -0.0721769
0.0242386 -0.15406
0.0246893 -0.148623
-0.00351077 -0.441114
0.000938992 -0.446884
-0.010093 -0.114531
-0.0117718 -0.119305
0.00160463 -0.0479075
0.00303121 -0.0510994
-0.0165046 -0.298401
-0.0112845 -0.302713
-0.0143921 -0.0383251
-0.0174607 -0.0384779
-0.0185735 -0.0544361
-0.018382 -0.0509221
-0.0186349 -0.21336
-0.0227235 -0.218328
0.00167678 -0.000786384
0.00180985 -0.000787534
-0.00998707 -0.276606
-0.00768882 -0.270303
0.00196547 -0.00109763
0.00261393 -0.00172505
-0.00222928 -0.00111294
-0.00136941 -0.000626262
-0.0352094 -0.36379
-0.0408142 -0.359455
0.011357 -0.114245
0.00778711 -0.110823
-0.00291945 -0.273962
0.00287544 -0.277221
0.00978647 -0.0291197
0.00752757 -0.0271518
0.0148395 -0.411377
0.0167691 -0.404391
0.0185084 -0.136444
0.0199453 -0.141664
0.0177644 -0.276419
0.0116756 -0.273639
0.0210803 -0.0934334
0.0165346 -0.0935798
-0.0161703 -0.13868
-0.013089 -0.134225
-0.0095231 -0.0562459
-0.00684055 -0.0585255
0.0225941 -0.400912
0.0155326 -0.399479
-0.0152029 -0.064896
-0.014334 -0.0686066
-0.0292586 -0.330698
-0.0230942 -0.333909
0.000174198 -0.000537627
0.000228499 -0.00105648
-0.000880838 -0.17077
0.00228557 -0.175592
-0.0140629 -0.156297
-0.00878116 -0.154536
0.0206916 -0.361182
0.0231094 -0.367968
-0.0266323 -0.387861
-0.0250202 -0.394872
-0.00738784 -0.0638409
-0.011112 -0.0651231
-0.0103537 -0.0813378
-0.013774 -0.0842239
-0.00940736 -0.0698196
-0.00780716 -0.0660726
-0.00903605 -0.0317796
-0.0116621 -0.0312108
0.0387273 -0.460259
0.0403652 -0.453125
0.0257686 -0.3309
0.0232066 -0.324337
-0.0113996 -0.231514
-0.0110408 -0.225171
-3.7795e-05 -0.00579894
-0.000230459 -0.00459266
0.0230342 -0.271554
0.0295199 -0.270358
-0.0252592 -0.244462
-0.0232782 -0.238243
0.00340105 -0.0397436
0.00648514 -0.0398607
0.0203724 -0.162681
0.0167412 -0.166839
-0.0155339 -0.107753
-0.0134314 -0.112013
0.0240934 -0.362848
0.0307901 -0.360448
-0.0309941 -0.435233
-0.0262848 -0.440762
-0.00224105 -0.00112337
-0.00258366 -0.00146259
-0.0196826 -0.103931
-0.0242095 -0.10607
-0.0203634 -0.238094
-0.0155132 -0.242131
0.00307116 -0.0805563
0.00606672 -0.0836745
-0.014468 -0.0463684
-0.0174988 -0.0455655
0.0126436 -0.161877
0.00766945 -0.159207
-0.00754216 -0.0233414
-0.00503653 -0.0233423
-0.0242842 -0.428584
-0.0299247 -0.433228
-0.017828 -0.120463
-0.0140512 -0.116915
-0.0194631 -0.301224
-0.023346 -0.306962
-0.0132529 -0.248891
-0.00851263 -0.253242
0.0184287 -0.0604708
0.0164476 -0.057023
-0.0131113 -0.036857
-0.0115278 -0.0340435
0.00096825 -0.000782508
0.0015668 -0.00109216
0.000692178 -0.000256936
0.000960792 -0.000579267
-0.000209407 -0.234323
0.0058012 -0.232377
0.0105145 -0.0981022
0.00861927 -0.093741
-0.0284321 -0.367178
-0.0264518 -0.360247
0.00423602 -0.253845
-0.000226902 -0.258609
-0.00189545 -0.172827
-0.00230831 -0.167092
-0.0149975 -0.06633
-0.0173967 -0.0697974
0.0166852 -0.445287
0.0147908 -0.438222
0.0116514 -0.406158
0.0137475 -0.399231
-0.0158098 -0.488356
-0.0128817 -0.49506
-0.0112878 -0.192063
-0.017173 -0.191296
0.00313577 -0.0187881
0.00483698 -0.0176376
0.00116204 -0.334352
0.00802108 -0.334541
0.00856071 -0.319706
0.0048703 -0.325581
-0.00541563 -0.0206319
-0.00757396 -0.0201392
0.0161793 -0.389103
0.0162213 -0.381894
0.00697443 -0.308611
0.00611683 -0.315476
0.0295071 -0.13843
0.0241968 -0.137736
0.0317155 -0.207519
0.0351326 -0.212969
-0.00669249 -0.0353478
-0.00674577 -0.0383801
-0.0329417 -0.447816
-0.032542 -0.440509
0.00595153 -0.178154
0.00449879 -0.172511
0.00870995 -0.133287
0.011985 -0.137527
0.00834954 -0.0327124
0.00556999 -0.0325924
0.0425274 -0.408684
0.0355623 -0.410616
0.000197225 -3.25559e-05
6.19681e-05 -7.31188e-06
0.0134221 -0.0366117
0.0136634 -0.0337634
0.00242836 -0.00246535
0.00240919 -0.00186044
0.000506135 -0.000157085
0.000600119 -0.000354546
-0.0222848 -0.398926
-0.0230684 -0.40614
0.000792377 -0.00628342
-0.000435145 -0.00598474
-0.00783298 -0.258652
-0.0122999 -0.263545
0.00751514 -0.0727553
0.00530944 -0.0761453
0.0238431 -0.175708
0.0296127 -0.175542
0.0291924 -0.331303
0.0325843 -0.325258
0.009623 -0.405343
0.0130998 -0.411716
-0.0016672 -0.00750315
-0.00044672 -0.00675912
-0.00483889 -0.0232064
-0.0055452 -0.0258493
0.000843757 -0.149496
-0.00183794 -0.144772
0.0126346 -0.0255345
0.0120726 -0.0229574
-0.00218686 -0.0047278
-0.00153531 -0.00369015
-0.00116686 -0.00127412
-0.00162286 -0.00123184
-0.0333397 -0.177453
-0.0311132 -0.17193
0.0150004 -0.173706
0.0174745 -0.16862
-0.0255485 -0.26522
-0.0189663 -0.265242
0.00101214 -0.0156648
0.00126931 -0.0177829
0.000988282 -0.016026
0.00220757 -0.0177801
-0.00613137 -0.284863
-0.00569361 -0.29163
-0.0288339 -0.254224
-0.0303733 -0.247961
0.00118482 -0.179139
0.00216311 -0.173399
-0.00640284 -0.0126882
-0.00467408 -0.0128761
-0.00716763 -0.477374
-0.000174169 -0.479335
-0.0121843 -0.0395584
-0.015292 -0.0397187
0.00104722 -0.000395634
0.00178562 -0.000794486
-0.000708333 -0.000264948
-8.18837e-05 -1.84915e-05
0.0187667 -0.307074
0.0180313 -0.300233
-5.11889e-05 -7.92835e-05
-0.000154911 -2.35894e-05
0.0067581 -0.0189742
0.00604473 -0.0210012
-0.0110579 -0.116614
-0.00967429 -0.121372
-0.0187616 -0.441114
-0.0208019 -0.434111
0.00316264 -0.0660682
-0.000596729 -0.0651545
-0.00524124 -0.00546254
-0.0044055 -0.00585747
0.0226404 -0.259835
0.0195731 -0.253943
-0.0255489 -0.370259
-0.0269999 -0.377315
0.00606798 -0.447116
0.0128256 -0.449785
0.00776177 -0.430272
0.00144757 -0.433843
-0.0156589 -0.191239
-0.0154953 -0.197253
-0.004294 -0.152838
-0.0089597 -0.155855
-0.020571 -0.301242
-0.0272037 -0.303023
-0.0061586 -0.425925
0.000912367 -0.424407
0.00236677 -0.0213567
0.000307372 -0.0206783
0.0250882 -0.290481
0.0183506 -0.289989
-0.00277823 -0.151273
-0.00343015 -0.145846
0.017682 -0.403538
0.0202469 -0.396789
0.0148563 -0.45847
0.0123896 -0.465373
-0.0197086 -0.152226
-0.0144123 -0.153359
0.000519421 -0.0117397
0.00165628 -0.0105206
-0.0161706 -0.225638
-0.0143094 -0.23165
0.0289278 -0.477396
0.0220307 -0.474996
9.61427e-05 -1.03349e-05
0.000646881 -0.000190967
-0.0248812 -0.39378
-0.0304215 -0.398475
-0.0371447 -0.349718
-0.0346889 -0.342934
0.0173334 -0.449026
0.0192961 -0.44198
0.0189103 -0.462414
0.0222074 -0.468953
-0.0110741 -0.298675
-0.00890717 -0.30516
-0.0209379 -0.116166
-0.0218409 -0.111401
1.74792e-05 -0.0804911
0.0039712 -0.0791647
-0.0102825 -0.481878
-0.0150112 -0.476309
0.000151084 -0.0476716
0.0034233 -0.0470548
-0.0280737 -0.17288
-0.029398 -0.167419
0.0151883 -0.0691508
0.0187495 -0.0678531
0.00716962 -0.0161972
0.00643004 -0.0141925
0.0153955 -0.219683
0.0124272 -0.213966
0.0241666 -0.174338
0.0235317 -0.180084
-0.00476248 -0.203195
-0.00983605 -0.199994
-0.0286964 -0.397486
-0.0350861 -0.400938
0.0231997 -0.47122
0.0261086 -0.46449
-0.0256761 -0.259505
-0.0238001 -0.265769
-0.000754914 -0.000296667
-0.000497048 -0.000138243
0.0231449 -0.345243
0.0161437 -0.346285
0.0129217 -0.124352
0.0084793 -0.126639
-0.00832985 -0.0171274
-0.0105427 -0.0177094
-0.0256014 -0.475015
-0.0329061 -0.475081
-0.00854619 -0.165991
-0.0114924 -0.161254
0.0164795 -0.0435751
0.0132074 -0.0428865
-0.0209304 -0.129935
-0.0160789 -0.127839
-0.00405432 -0.39257
0.000251575 -0.398342
-0.00531807 -0.390183
-0.00421889 -0.397326
0.0101519 -0.0159468
0.0117897 -0.0178629
-0.00454277 -0.00578957
-0.00445083 -0.00473157
-0.0139147 -0.132798
-0.0126065 -0.13784
-0.0126922 -0.0377041
-0.00965006 -0.037007
-0.0190655 -0.224998
-0.0153546 -0.21975
0.0147542 -0.22238
0.0165817 -0.228515
-0.0119305 -0.337435
-0.0117721 -0.330409
-0.000415948 -0.00225197
-0.00107017 -0.00202687
-0.0178487 -0.368871
-0.0118235 -0.365044
-0.0192133 -0.370033
-0.0125803 -0.36741
0.0300336 -0.365478
0.036796 -0.36323
0.00223526 -0.0564408
0.00438347 -0.0536074
-0.0349183 -0.347096
-0.0377776 -0.35374
0.00742169 -0.0331321
0.0098356 -0.0320046
-0.00699541 -0.0374182
-0.00448229 -0.0356192
-0.010269 -0.094433
-0.00763658 -0.0906073
-0.00534411 -0.3063
-0.0118788 -0.308324
-0.0295728 -0.365584
-0.0338105 -0.37145
0.0112097 -0.0483047
0.0103014 -0.0515277
0.0240748 -0.194642
0.0300002 -0.193886
0.0165203 -0.359657
0.0228219 -0.363072
-0.0260434 -0.376633
-0.0201056 -0.372549
-0.00909673 -0.090786
-0.0101632 -0.0865182
-0.0150265 -0.23684
-0.00970407 -0.240235
0.00345952 -0.395471
0.0100186 -0.392594
0.02664 -0.465448
0.0193559 -0.465749
-0.00573372 -0.0602548
-0.00227009 -0.0587903
0.017189 -0.0910503
0.0129641 -0.0891231
-0.0101066 -0.0607776
-0.00694342 -0.0585415
-0.0100086 -0.273618
-0.0043627 -0.270083
-0.0198401 -0.277262
-0.0225032 -0.283507
0.0334111 -0.398186
0.0282918 -0.403234
0.0228985 -0.237401
0.0238047 -0.243822
-0.00624456 -0.444865
-0.00320835 -0.45151
-0.042895 -0.459682
-0.043482 -0.452388
0.0297362 -0.46813
0.0364993 -0.470925
-0.015291 -0.1215
-0.0137867 -0.12627
0.0015688 -0.00178405
0.00145876 -0.00243669
-0.00731953 -0.0514877
-0.0099405 -0.0541186
-0.00197234 -0.0743819
-0.00293498 -0.0784802
0.00801853 -0.0753904
0.00574132 -0.0788039
0.0164617 -0.0793551
0.0193939 -0.0828137
-0.00638189 -0.050588
-0.00974471 -0.0517822
-0.000298743 -5.32656e-05
-7.68566e-05 1.42366e-05
-0.00688654 -0.0143652
-0.00507585 -0.0146767
0.0202707 -0.112992
0.0212889 -0.117945
-0.0063166 -0.0268225
-0.005181 -0.0241808
0.00207879 -0.00277588
0.00121872 -0.00258431
-0.0202949 -0.158021
-0.0166208 -0.162039
0.000611589 -0.443502
0.00760621 -0.441573
-0.0112055 -0.12601
-0.0155761 -0.123679
0.00669201 -0.0262882
0.00761645 -0.0290634
-0.0151137 -0.0613678
-0.0167723 -0.0650501
-0.00161026 -0.0136716
-0.00133643 -0.0156323
0.00429708 -0.326411
-0.00108489 -0.322097
0.0364569 -0.453153
0.0375888 -0.445927
-0.0252536 -0.227577
-0.0240494 -0.221286
0.00879502 -0.093927
0.0129698 -0.0923233
-0.0168683 -0.210638
-0.0187627 -0.216761
-0.0374762 -0.297696
-0.0333731 -0.303004
-0.00956196 -0.0349202
-0.0095289 -0.0320466
-0.0200914 -0.425275
-0.027026 -0.427445
-0.000678119 -0.00222326
-0.00145207 -0.00232413
-0.0227381 -0.383014
-0.0243445 -0.390063
-0.00743776 -0.00962661
-0.00734511 -0.0110751
-0.0200821 -0.271189
-0.0256782 -0.267817
-0.0254981 -0.204427
-0.0303099 -0.208622
0.0193482 -0.257948
0.0250685 -0.261335
0.00110946 -0.000422101
0.000519918 -0.000133385
0.0357352 -0.299668
0.0289436 -0.298801
0.0174384 -0.25457
0.0228489 -0.251103
0.00519954 -0.00711908
0.00652673 -0.00832328
0.00143684 -0.00311049
0.00153827 -0.00412886
-0.00325007 -0.00368798
-0.0037951 -0.00333403
0.00404111 -0.00403898
0.00405293 -0.00498967
0.0325436 -0.162134
0.026955 -0.160959
0.00864087 -0.273755
0.00225838 -0.271951
0.0101669 -0.279946
0.0161557 -0.277095
-0.00504451 -0.286195
-0.00164415 -0.292037
-0.0362674 -0.280016
-0.0363295 -0.286756
0.0182553 -0.359247
0.0222735 -0.365223
0.0120829 -0.0925743
0.0166275 -0.0934727
0.00871512 -0.0200635
0.00855275 -0.017855
-0.0303711 -0.337873
-0.0369169 -0.335439
0.0224256 -0.277012
0.0159584 -0.278489
0.0291978 -0.40833
0.0256293 -0.401993
0.0312384 -0.290711
0.0353734 -0.296252
0.0309171 -0.404429
0.0255804 -0.40927
0.0163309 -0.0455361
0.0131302 -0.0459187
0.0138622 -0.156468
0.0186012 -0.159598
0.0169508 -0.229534
0.0209908 -0.224765
0.00870995 -0.015789
0.00749522 -0.0138951
0.0293142 -0.491651
0.0365851 -0.49072
-0.042301 -0.431731
-0.0350206 -0.43147
-0.0290636 -0.255867
-0.024611 -0.250908
0.0288594 -0.187306
0.0322367 -0.182703
-0.00445342 -0.476076
-0.0117113 -0.476425
-0.0298426 -0.222939
-0.0345771 -0.227438
-0.0227094 -0.290805
-0.0281522 -0.286966
-0.0147519 -0.0973342
-0.0159078 -0.0929513
-0.0267495 -0.244757
-0.0330908 -0.246347
0.00244562 -0.023965
0.00047697 -0.0228257
-0.00281447 -0.0719564
-0.00229846 -0.0760544
0.037818 -0.282381
0.0378483 -0.275671
0.0226231 -0.310874
0.0179862 -0.315913
0.0322053 -0.22264
0.0273166 -0.218388
0.0029499 -0.305796
0.00440347 -0.312548
-0.0135369 -0.0762479
-0.0175306 -0.0779546
-0.00503783 -0.120854
-0.00320132 -0.12557
0.017 -0.0460498
0.0178089 -0.0494536
0.000831699 -0.00127573
0.00117922 -0.00198461
0.00866801 -0.0561378
0.0088875 -0.0525621
-0.00862659 -0.0210327
-0.00917506 -0.0190135
0.0200115 -0.111415
0.0246579 -0.110287
0.000987982 -0.0010407
0.000565839 -0.000559022
-0.00320379 -0.00236414
-0.00240656 -0.00211938
0.000708483 -0.00445471
0.000203944 -0.00347991
0.00093755 -0.00478729
0.000302117 -0.00576967
-0.0213236 -0.448566
-0.0268076 -0.45341
0.0127843 -0.254763
0.0156895 -0.248982
0.00661417 -0.0932311
0.00638108 -0.0887428
0.000514799 -0.01283
4.10512e-05 -0.0147038
-0.0313967 -0.489507
-0.0250972 -0.493215
-0.00384752 -0.0496118
-0.00560642 -0.052741
0.00248877 -0.0013647
0.00342311 -0.00199889
0.0355222 -0.468587
0.0286567 -0.471112
-0.00573703 -0.26419
0.000227833 -0.261435
-0.00923608 -0.135636
-0.00441691 -0.133513
-0.0254079 -0.136709
-0.0225122 -0.140906
-0.0298897 -0.170883
-0.0326975 -0.176158
-0.0137698 -0.390027
-0.0125105 -0.397134
-0.0230145 -0.199453
-0.0230045 -0.205608
0.00143446 -0.0601857
-0.00140596 -0.0626777
-0.000558398 -0.0158981
-0.00205289 -0.017371
-0.0127611 -0.112197
-0.00876379 -0.114739
0.0346499 -0.420286
0.0310367 -0.426577
-0.0431783 -0.377997
-0.0375045 -0.382293
0.0102517 -0.184281
0.0113878 -0.178538
-0.0143742 -0.122489
-0.00973645 -0.120343
0.00563346 -0.0120105
0.00704393 -0.011411
0.0367079 -0.28653
0.0372082 -0.279831
0.00936537 -0.0168222
0.0111527 -0.0163273
-0.0107188 -0.102468
-0.0125286 -0.0981212
0.00965649 -0.0870518
0.00570454 -0.0850944
0.0295891 -0.181603
0.0238452 -0.18247
-0.00127594 -0.184051
0.000697923 -0.178515
-0.0154748 -0.288141
-0.00876944 -0.288496
0.00276073 -0.456572
-0.0031249 -0.460879
-0.0404175 -0.348302
-0.034387 -0.344324
-0.0351299 -0.312351
-0.0282381 -0.312544
0.0260763 -0.114349
0.0236493 -0.118447
-0.0326655 -0.261616
-0.038431 -0.258736
0.00185756 -0.00328108
0.00174891 -0.00240324
0.0234086 -0.275894
0.0277117 -0.281161
-0.0117739 -0.376766
-0.00477484 -0.377877
-0.00585553 -0.0130816
-0.0040233 -0.0124456
-0.0222148 -0.322671
-0.0166325 -0.326745
-0.00419625 -0.00342275
-0.00353217 -0.00360693
0.0012801 -0.496475
0.00851363 -0.495999
-0.0095643 -0.0371567
-0.0125027 -0.0369601
0.0169428 -0.158923
0.0182211 -0.164473
0.00758461 -0.159101
0.00999481 -0.16425
-0.000901534 -0.190963
-0.00466649 -0.186407
0.0141685 -0.494164
0.0183912 -0.488172
0.0169567 -0.435893
0.0223382 -0.431013
0.0164929 -0.324625
0.00965356 -0.323602
0.000325173 -0.022625
0.00137369 -0.0206307
-0.00489535 -0.0950436
-0.00175776 -0.0918852
-0.02529 -0.164402
-0.0204873 -0.167096
-0.034482 -0.266748
-0.0352902 -0.273388
-0.00476204 -0.0568704
-0.00504788 -0.0606134
0.00158971 -0.0139165
-0.000216851 -0.0143652
0.00172442 -0.00129675
0.00248626 -0.00167796
-0.0224926 -0.267596
-0.0229332 -0.261005
-0.0201908 -0.399017
-0.014204 -0.402967
0.0283407 -0.386479
0.0217193 -0.383621
0.0334758 -0.244211
0.0370709 -0.239034
-0.0236642 -0.258002
-0.0256503 -0.264363
0.00263812 -0.483744
-0.00282287 -0.488581
0.00519897 -0.0142397
0.0052975 -0.0162418
0.0229251 -0.179742
0.0196483 -0.17477
-0.0295011 -0.445044
-0.0243441 -0.43985
-0.0295889 -0.194188
-0.0259499 -0.189176
-0.00202769 -0.00144502
-0.00196387 -0.00187823
-0.0356374 -0.355692
-0.0418962 -0.359327
0.00680717 -0.0108896
0.00652894 -0.0124436
-0.01123 -0.019948
-0.0110165 -0.0177932
0.00706649 -0.200559
0.00717259 -0.206672
-0.0267325 -0.222721
-0.0318879 -0.226677
-0.00111487 -0.00919709
0.000317312 -0.00865521
-0.0107629 -0.034783
-0.0110713 -0.0320009
-0.000265602 -0.000782941
-0.000546979 -0.00135189
-0.00063521 -0.00253316
0.000148491 -0.00276662
-0.0170497 -0.463346
-0.0110224 -0.467436
0.00572415 -0.467968
0.00105369 -0.4736
0.0166972 -0.289314
0.0233699 -0.290416
0.00429567 -0.00362477
0.00404012 -0.00284385
-0.0194637 -0.210518
-0.0253612 -0.212792
-0.00443219 -0.0122336
-0.00524391 -0.0140743
0.0249956 -0.145294
0.0214764 -0.140962
-0.0193455 -0.266786
-0.0195066 -0.273451
0.0376422 -0.288045
0.0326306 -0.29242
0.0136662 -0.0492944
0.0170993 -0.0504291
-0.00818387 -0.00834243
-0.00776606 -0.00936698
-0.00356504 -0.0362913
-0.00638108 -0.0357578
-0.0190482 -0.128281
-0.0156775 -0.131975
-0.00197151 -0.28997
0.00404301 -0.286959
0.000914353 -0.0661469
-0.00207469 -0.0687181
-0.00236095 -0.129946
-0.00456054 -0.134718
0.0170984 -0.0658881
0.0134519 -0.0640778
0.0125461 -0.0540309
0.01289 -0.0576868
-0.0125498 -0.0379941
-0.0141645 -0.0358275
0.00201059 -0.0347085
0.00478447 -0.0356568
0.00453213 -0.232803
-0.00169747 -0.23386
0.00954626 -0.0981129
0.0135802 -0.100935
0.00262043 -0.418569
0.00325083 -0.411319
-0.0110933 -0.255087
-0.00732695 -0.249708
-0.00719077 -0.385435
-0.00121264 -0.381505
-0.0219122 -0.146848
-0.0267512 -0.149734
0.0197995 -0.364369
0.0214771 -0.371367
0.000973174 -0.0479451
-0.00205997 -0.0494936
0.0265892 -0.116025
0.0239262 -0.11157
-0.00454565 -0.479181
-0.00327652 -0.486402
0.00077322 -0.0704791
-0.000878005 -0.0742191
0.0036914 -0.00815749
0.00405204 -0.00694101
0.000650206 -0.00964265
0.001318 -0.00827176
-0.014632 -0.0415284
-0.0171022 -0.0441363
-0.0128216 -0.119437
-0.0176409 -0.121115
0.0279352 -0.421966
0.0345298 -0.418987
0.0105499 -0.0300087
0.0123507 -0.0283254
0.0104514 -0.276548
0.0043644 -0.279204
0.0375785 -0.405517
0.0317767 -0.401125
0.0221974 -0.393589
0.0231515 -0.386444
-0.0229007 -0.109
-0.0186579 -0.106217
0.00575674 -0.0184379
0.00509428 -0.0163076
0.0357141 -0.396738
0.0324729 -0.390242
-0.00499224 -0.0147907
-0.00497059 -0.0128997
0.0105849 -0.0226729
0.00873726 -0.0238818
0.00543292 -0.0440059
0.00513027 -0.0473167
-0.00443165 -0.183895
-0.00998892 -0.182215
0.019486 -0.108811
0.0175418 -0.113163
0.000857577 -0.000313642
0.00149655 -0.000631748
-0.0298243 -0.426419
-0.0266463 -0.419836
0.0281848 -0.352539
0.0330888 -0.357839
0.00324604 -0.00224836
0.00424735 -0.0027414
-0.00961831 -0.112127
-0.0104236 -0.107362
-0.00711382 -0.00865112
-0.00867443 -0.00992388
0.0161377 -0.0819371
0.0127108 -0.0842752
-0.00529028 -0.259448
-0.00833907 -0.265335
0.0041078 -0.481232
-0.000979996 -0.486474
0.0144469 -0.472972
0.0147988 -0.480303
-0.00631106 -0.0152125
-0.00434797 -0.0145062
-0.0031831 -0.00191267
-0.00422523 -0.00262832
0.0158535 -0.0465544
0.0158175 -0.0432982
-0.0403994 -0.36823
-0.0414411 -0.361152
0.0138063 -0.0704438
0.0174763 -0.0692734
0.0105575 -0.439005
0.00859983 -0.446052
0.0046106 -0.0395314
0.00545699 -0.0426633
0.000430626 -0.000176192
0.000190112 -0.000105089
0.0299721 -0.405959
0.0278612 -0.399008
-0.00877576 -0.187274
-0.010183 -0.1931
0.0360769 -0.417102
0.040412 -0.422987
-0.0167383 -0.123225
-0.011735 -0.123559
0.000790143 -0.0116566
0.00236485 -0.0125704
0.00488555 -0.0839544
0.00159053 -0.0867131
-0.0182006 -0.0714306
-0.0168668 -0.0751004
-0.025828 -0.449166
-0.0201059 -0.444617
0.000112282 -0.0169749
-0.0012921 -0.0155218
0.000184758 -0.381734
-0.00649465 -0.379311
0.00223121 -0.421695
0.00267251 -0.414425
-0.0106099 -0.279758
-0.0171897 -0.278797
0.00328264 -0.154871
0.00715415 -0.158907
0.000537281 -0.000206255
0.00016616 -3.35035e-05
0.00288758 -0.126448
-0.00178871 -0.124464
0.000375892 -0.0150504
0.00202269 -0.0162237
-0.0083376 -0.0346804
-0.0101633 -0.0327672
-0.00184684 -0.0386671
-0.00362721 -0.0362449
0.00280387 -0.278132
0.00559992 -0.284264
0.0154084 -0.0795448
0.0196453 -0.0805569
0.00264714 -0.00157297
0.00196933 -0.00133215
-0.00748206 -0.00669062
-0.00770383 -0.0078787
-0.0157926 -0.11068
-0.0186343 -0.106952
0.00755338 -0.133268
0.0126901 -0.134286
-0.0236921 -0.248361
-0.0176629 -0.245831
0.0170788 -0.157268
0.0223579 -0.159325
0.00397853 -0.445556
-0.00274457 -0.448315
0.0150504 -0.0280016
0.0135526 -0.0298644
-0.00986008 -0.0288509
-0.0121375 -0.0309584
0.0191231 -0.0427859
0.0182361 -0.0396037
0.031974 -0.475362
0.039291 -0.475016
-0.0191622 -0.161311
-0.0186539 -0.155713
0.013127 -0.242024
0.00782574 -0.245575
0.00099252 -0.000415788
0.000162353 -5.39801e-05
-0.019752 -0.343199
-0.0262283 -0.346256
-0.0236044 -0.477101
-0.0275835 -0.483264
-0.0149801 -0.0637573
-0.0176157 -0.0613977
0.0235295 -0.375871
0.0177245 -0.38001
-0.0191316 -0.09248
-0.0173316 -0.0965275
-0.0164628 -0.364554
-0.0164805 -0.371715
-0.00501391 -0.00524903
-0.00395235 -0.00527744
-0.0144567 -0.230588
-0.00978105 -0.226286
-0.00913796 -0.180932
-0.00840582 -0.186783
-0.0229671 -0.136178
-0.0278815 -0.134748
-0.0200323 -0.162723
-0.0213571 -0.157357
-0.00757896 -0.00894271
-0.0062004 -0.00905884
-0.0135143 -0.405713
-0.00723912 -0.40214
0.00142601 -0.0875609
0.00506566 -0.0899791
-0.000996196 -0.0162145
-0.00105148 -0.0183756
-0.0233094 -0.0780982
-0.0255781 -0.0820579
-0.00870468 -0.250824
-0.00402618 -0.2553
0.000784982 -0.00251339
0.000809848 -0.00173637
-0.0276732 -0.221712
-0.0336156 -0.224205
0.0126012 -0.37756
0.0167373 -0.371748
-0.00604334 -0.146016
-0.0108344 -0.143732
-0.00149163 -0.00347185
-0.0018794 -0.0045497
0.00430359 -0.00872584
0.00555797 -0.0100787
-0.0213173 -0.297312
-0.0256436 -0.302709
0.014033 -0.392128
0.0161655 -0.39905
0.00608209 -0.00650383
0.00696203 -0.00613995
-0.0261487 -0.189199
-0.0213913 -0.192558
5.75801e-05 -0.00166618
-0.000482228 -0.00221444
-0.0110223 -0.205861
-0.00954842 -0.199888
0.00486974 -0.00641341
0.00384131 -0.00683736
-0.012086 -0.0195036
-0.012268 -0.0217559
-0.0111882 -0.021569
-0.0121296 -0.0240668
0.0187635 -0.17836
0.0138056 -0.175181
-0.0121614 -0.439039
-0.00942384 -0.43226
-0.028188 -0.365766
-0.0345164 -0.36256
0.0194101 -0.2274
0.0138455 -0.224265
-0.00492055 -0.166798
-0.010474 -0.167969
0.0235066 -0.0806498
0.0192354 -0.0796468
-0.00966331 -0.0348509
-0.0106359 -0.0378349
0.00274224 -0.00815662
0.00239696 -0.00960102
-0.0289488 -0.247958
-0.0342151 -0.252037
0.00793152 -0.331343
0.00116395 -0.332523
-0.00354751 -0.272294
0.000199548 -0.277812
0.0197402 -0.284668
0.0264034 -0.284019
-0.00629879 -0.00683824
-0.00560031 -0.00555584
0.0129244 -0.0507749
0.0145446 -0.0541417
0.0120725 -0.27402
0.00719433 -0.269453
-0.00566491 -0.0228182
-0.00445894 -0.0205848
-0.00845327 -0.04095
-0.00812188 -0.0378132
-0.00130864 -0.0066717
-0.000672615 -0.00787702
-0.00561666 -0.181247
0.000136607 -0.180549
-0.0141898 -0.0424667
-0.0116888 -0.0400456
-0.00251762 -0.42477
0.00289594 -0.419938
0.0038138 -0.133939
0.00498754 -0.139126
0.005694 -0.440115
0.00731832 -0.432989
0.00205911 -0.00203921
0.00131981 -0.00187
0.00189383 -0.28749
0.0061698 -0.29275
0.0158088 -0.358864
0.0178907 -0.365756
0.00708497 -0.0871503
0.00440035 -0.0906166
-0.0243574 -0.403577
-0.0172048 -0.402699
-0.00336808 -0.00425349
-0.00257397 -0.00463313
0.00422301 -0.00327578
0.00463647 -0.00299572
0.0148716 -0.238525
0.00868441 -0.236907
0.019777 -0.108576
0.0185245 -0.103764
-0.0193762 -0.215217
-0.0195458 -0.221572
0.00133303 -0.010817
0.00247442 -0.00975756
-0.0116059 -0.40835
-0.0153881 -0.402206
0.0361547 -0.437708
0.029396 -0.440396
0.0210422 -0.12624
0.0164086 -0.123765
0.00576932 -0.314233
0.0125009 -0.313009
0.0224412 -0.121125
0.0174619 -0.121548
-0.00647274 -0.26724
-0.0129161 -0.265999
-0.00761738 -0.300756
-0.0142019 -0.299175
-0.0106713 -0.189994
-0.0108927 -0.195998
-0.00631823 -0.019375
-0.00779139 -0.0214778
0.00361451 -0.126175
-0.000405031 -0.129334
-0.0344436 -0.294493
-0.0403058 -0.291311
-0.0132543 -0.241411
-0.0178277 -0.246077
-0.00101496 -0.000470489
-0.000248869 -8.77067e-05
-0.0414248 -0.484308
-0.0369164 -0.478499
0.00888818 -0.0216034
0.0113311 -0.0227064
0.00345902 -0.116573
-0.000983872 -0.11881
-0.00202488 -0.0168194
-0.000305367 -0.0157036
0.0177574 -0.0495997
0.0207832 -0.0520006
-0.00303531 -0.262978
0.00246697 -0.266583
6.01839e-05 -2.0224e-06
0.000451208 -0.000106194
0.00055947 -0.0120824
2.06315e-05 -0.0104014
0.0122304 -0.0188701
0.0119992 -0.0209359
-0.00322302 -0.00272652
-0.00231293 -0.00203896
-0.00710312 -0.0589466
-0.0108043 -0.0594692
0.00725078 -0.0163598
0.00658632 -0.0181954
-0.0294767 -0.202809
-0.0251943 -0.206981
-0.0136039 -0.0283697
-0.0110845 -0.0266653
0.00394361 -0.444848
0.00530234 -0.437659
-0.0332514 -0.313323
-0.0401128 -0.312717
-0.0316228 -0.411093
-0.0374604 -0.415476
-0.0228854 -0.445862
-0.0226725 -0.453182
-0.0113513 -0.0271241
-0.00910555 -0.0281181
0.0118111 -0.101195
0.010395 -0.0965306
0.0208261 -0.209361
0.0243891 -0.204463
-0.0193101 -0.0508915
-0.0199344 -0.0544408
-0.00476973 -0.0179074
-0.00273317 -0.0171151
0.00726487 -0.199047
0.00695279 -0.205116
0.00565351 -0.0843937
0.0015377 -0.0832449
-0.0116033 -0.245819
-0.0179025 -0.244714
0.00257445 -0.00433261
0.00307403 -0.00551514
-0.0384588 -0.254894
-0.0325878 -0.251709
-0.00168654 -0.459533
-0.00162302 -0.466869
0.00084707 -0.000288398
0.000509721 -0.000132847
-0.0135144 -0.387675
-0.0159676 -0.380938
-0.023186 -0.294619
-0.0164474 -0.293832
0.039333 -0.352022
0.0322703 -0.352875
0.00390155 -0.00968868
0.00495945 -0.0112317
-0.00730965 -0.173138
-0.012075 -0.17649
-0.0359589 -0.289365
-0.0321129 -0.294806
-0.000324576 -7.20075e-05
-0.000240053 -7.6524e-05
0.010418 -0.259417
0.00983482 -0.266
0.0248124 -0.296742
0.0182426 -0.298324
-0.00963713 -0.175332
-0.00956389 -0.169553
-0.00259792 -0.0151471
-0.00359404 -0.0170548
-0.0297128 -0.264463
-0.0245323 -0.268378
-0.0421533 -0.43774
-0.0396495 -0.44458
-0.0272531 -0.328391
-0.0290062 -0.335262
-0.00689208 -0.00672894
-0.00559127 -0.00653179
-0.0063288 -0.00973621
-0.00756153 -0.00930798
-0.0205031 -0.20672
-0.0180528 -0.200939
-0.00963121 -0.0716087
-0.00635448 -0.0738152
-0.00367124 -0.00227642
-0.00438564 -0.00306637
0.0222152 -0.31337
0.0261954 -0.319113
-0.0296908 -0.256692
-0.0262473 -0.262151
0.00656273 -0.256514
7.49836e-05 -0.256107
-0.0117526 -0.0360979
-0.0143763 -0.0352337
-0.0162813 -0.0729862
-0.0127339 -0.0746602
0.026789 -0.439111
0.0195389 -0.439559
-0.00260077 -0.392036
-0.00877723 -0.395714
-0.0384779 -0.397013
-0.037759 -0.389815
0.0112579 -0.0206051
0.0124926 -0.0229986
-0.00169584 -0.00130958
-0.00183451 -0.00108715
0.0277943 -0.43692
0.0278686 -0.429618
-0.0308302 -0.154539
-0.0253152 -0.153611
0.0128511 -0.0300191
0.0100913 -0.029945
0.0361214 -0.255664
0.0298169 -0.253625
-0.00681604 -0.0568169
-0.00874567 -0.0601397
-0.0243033 -0.135511
-0.0205786 -0.131518
-0.0268038 -0.331447
-0.0307703 -0.337398
0.000388176 -7.78746e-05
0.0004409 -0.000103824
0.0100541 -0.366024
0.0171355 -0.365525
-0.0315958 -0.401687
-0.0359897 -0.396021
-0.00113019 -0.0139497
-0.00248646 -0.0127814
-1.81651e-05 -0.00636295
-0.00124966 -0.00612834
-0.0073709 -0.119432
-0.0112638 -0.116537
0.00753811 -0.00978916
0.00638757 -0.0104528
-0.0083287 -0.0238779
-0.00872591 -0.0265481
0.013088 -0.48139
0.00701257 -0.485438
-0.0167978 -0.241583
-0.0199373 -0.236089
-0.0017227 -0.00700187
-0.00282727 -0.00649639
-0.0290585 -0.227959
-0.0334448 -0.232824
0.00576458 -0.0524567
0.00370783 -0.0552855
-0.00450192 -0.142581
-0.00263075 -0.137548
0.0136337 -0.222518
0.0198299 -0.221659
-0.0131897 -0.39473
-0.00838816 -0.400072
-0.0256421 -0.181919
-0.0210752 -0.185377
-0.0339328 -0.302144
-0.0295315 -0.296763
-0.0095321 -0.015591
-0.00746403 -0.0150736
-0.012187 -0.494411
-0.00687056 -0.489414
-0.022502 -0.483399
-0.0265558 -0.489515
-0.0352471 -0.210743
-0.0290707 -0.209537
0.0121531 -0.0976031
0.0078458 -0.0955283
-0.0295435 -0.200428
-0.0258675 -0.195342
0.0121038 -0.443722
0.0188429 -0.441013
-0.00437904 -0.013331
-0.00322458 -0.0146666
-0.000682088 -0.00264392
1.47142e-05 -0.00313261
0.016891 -0.183854
0.0210029 -0.17985
0.00379841 -0.00282582
0.00487759 -0.00332976
-0.00281966 -0.00337863
-0.00361124 -0.00331643
-0.0145889 -0.302739
-0.0208423 -0.300147
0.0283838 -0.302725
0.0224765 -0.306045
-0.0230222 -0.481681
-0.0213981 -0.474522
-0.0107161 -0.383983
-0.00712735 -0.390191
0.00383708 -0.157548
-0.00156436 -0.156407
-0.026808 -0.274514
-0.0324738 -0.271242
-0.0321066 -0.268344
-0.0377665 -0.272105
-0.00191083 -0.00665692
-0.00295638 -0.00614375
-0.00831626 -0.283684
-0.0143149 -0.280799
-0.0272254 -0.193538
-0.0256507 -0.19929
-0.0135772 -0.321659
-0.009523 -0.327287
0.00798877 -0.372122
0.000919007 -0.371893
0.000594798 -0.19315
0.00597987 -0.195579
-0.0354271 -0.423661
-0.030214 -0.428678
0.0355612 -0.30409
0.0287585 -0.303094
0.00161727 -0.154883
-0.00331288 -0.157377
0.00911103 -0.291399
0.0112597 -0.284994
-0.0313111 -0.234526
-0.0363843 -0.23874
0.0370069 -0.44631
0.0305337 -0.449659
-0.0296466 -0.126903
-0.0256292 -0.129703
-0.00688483 -0.0279941
-0.00615798 -0.0252096
0.00927335 -0.203474
0.00399144 -0.200602
0.0170027 -0.0519364
0.0134758 -0.0513292
-0.0057577 -0.38455
-0.0077864 -0.377667
-0.0205907 -0.293718
-0.0229937 -0.300163
-0.00709605 -0.118448
-0.00799867 -0.123452
-0.033802 -0.206178
-0.0337727 -0.21241
0.00807636 -0.130983
0.00343525 -0.133189
0.000649583 -0.0448627
0.00365242 -0.0462992
-0.0230311 -0.2951
-0.0211213 -0.301615
0.0339317 -0.366201
0.040555 -0.363561
-0.0192605 -0.396359
-0.022163 -0.389788
-0.0031308 -0.301722
-0.00619891 -0.295634
-0.00289835 -0.487994
0.00434503 -0.488332
-0.0290984 -0.230244
-0.0262399 -0.235821
-8.77662e-05 -0.0016394
0.000523772 -0.00203928
0.0290241 -0.202838
0.0242756 -0.198714
0.00544069 -0.204186
0.00477794 -0.198176
0.0359517 -0.258916
0.0301216 -0.255644
0.028873 -0.414015
0.0216709 -0.414613
-0.0294549 -0.227244
-0.0260011 -0.22175
0.00418805 -0.0039359
0.00520238 -0.00498981
0.000865203 -0.00769746
-0.00020497 -0.00869086
-0.00996537 -0.169314
-0.00429926 -0.169484
-0.00172207 -0.0128753
-0.00350216 -0.012777
0.0289958 -0.145358
0.0281381 -0.150648
-2.8867e-05 -0.00467079
0.000963932 -0.00430123
0.012242 -0.0472329
0.00889173 -0.0470838
0.0365837 -0.39475
0.0373788 -0.387586
0.0102906 -0.0446945
0.00754788 -0.046229
-0.0199319 -0.052737
-0.0204319 -0.0494736
-0.00156598 -0.00203486
-0.00113801 -0.00249748
0.000533445 -0.469729
0.0014209 -0.477012
-0.025566 -0.278661
-0.0192639 -0.280714
-0.0332323 -0.270467
-0.0381427 -0.26624
-0.0297249 -0.170838
-0.0241381 -0.169149
0.00338895 -0.0145749
0.00250268 -0.0162979
-0.0138838 -0.252562
-0.0106402 -0.258184
0.0229999 -0.225293
0.0236491 -0.218996
-0.0338736 -0.352141
-0.0335876 -0.344973
-0.00360659 -0.323313
0.00293493 -0.32123
0.00773998 -0.147174
0.012455 -0.144719
-0.00212613 -0.309904
-0.00760271 -0.314066
-0.0182373 -0.0858887
-0.0153519 -0.0889478
-0.0247074 -0.469172
-0.0289006 -0.463186
-0.0104083 -0.137429
-0.00890986 -0.142506
-0.0049291 -0.0946887
-0.00530473 -0.0901996
-1.58741e-05 -0.000331826
-0.000217545 -0.000722351
0.0073164 -0.00681411
0.00813308 -0.00822143
-0.00362136 -0.160628
-0.00861255 -0.163248
0.0408787 -0.394654
0.0408975 -0.387436
-0.0103727 -0.381796
-0.00467647 -0.377462
0.00292528 -0.00256471
0.00391842 -0.00333055
-0.00682457 -0.00748313
-0.0078588 -0.00895234
0.00264893 -0.131296
0.00779161 -0.131832
0.0194384 -0.143113
0.0202458 -0.148525
0.000946509 -0.00813938
0.002382 -0.00812147
0.00724911 -0.414415
0.0128496 -0.409854
-0.00808532 -0.0542219
-0.0101402 -0.0515436
-0.0341034 -0.396815
-0.0278517 -0.39313
-0.00354188 -0.136769
-0.00357156 -0.142115
0.000889568 -0.000327381
0.000286486 -6.25233e-05
-0.0272648 -0.134623
-0.0237138 -0.138188
0.0366726 -0.488632
0.0296005 -0.490575
0.00308675 -0.013228
0.00491948 -0.0132703
-0.00313655 -0.0574699
-0.0051088 -0.0544909
0.00691549 -0.281923
0.00039422 -0.280486
-0.0221722 -0.113326
-0.0186307 -0.109591
-0.017087 -0.043259
-0.0159778 -0.046057
-0.00967987 -0.0768713
-0.00802712 -0.0729692
-0.000448177 -0.0410083
-0.00347535 -0.0419816
0.017484 -0.292314
0.0112276 -0.29479
-0.0211936 -0.116016
-0.0244963 -0.112672
0.00788957 -0.242567
0.00236842 -0.245805
-0.00601837 -0.0258155
-0.00655767 -0.0286427
0.0150979 -0.295125
0.0218287 -0.29599
-0.00019118 -1.91961e-05
-0.000590742 -0.000196274
-0.0110633 -0.0633645
-0.0124595 -0.0599909
-0.00180524 -0.00335799
-0.00281414 -0.00393792
-0.0056951 -0.438356
-0.00481903 -0.445618
-0.00672303 -0.0134394
-0.00832396 -0.0130122
0.0183781 -0.257747
0.0142718 -0.252561
0.00162373 -0.00727434
0.00231336 -0.0062428
-0.0156266 -0.234529
-0.0154515 -0.228151
0.0122201 -0.0813661
0.0091204 -0.0841673
0.00360032 -0.265374
-0.00149623 -0.261211
-0.0182461 -0.247443
-0.0119163 -0.248508
0.00518547 -0.0036015
0.00605557 -0.00463411
-0.0291177 -0.208749
-0.0242828 -0.212394
-0.00375927 -0.248943
-0.00178144 -0.25516
0.00594124 -0.00655694
0.00476977 -0.00541119
0.011905 -0.0382459
0.00889624 -0.0383575
-0.00704442 -0.258252
-0.0134357 -0.259672
0.0122401 -0.446956
0.00684399 -0.451859
-3.95648e-05 -0.414389
-0.00678627 -0.416971
-0.00513413 -0.00373908
-0.00469262 -0.00298282
0.0122317 -0.0617283
0.0103453 -0.0582892
0.0068698 -0.30265
0.00122211 -0.298839
-0.0108686 -0.299322
-0.0171426 -0.296823
0.00328898 -0.00397919
0.00259826 -0.00299673
0.0136557 -0.12022
0.0175015 -0.123744
-0.0166083 -0.0769408
-0.0147104 -0.0804993
0.0238206 -0.202638
0.0272239 -0.197758
-0.00833614 -0.0159822
-0.00727176 -0.0174375
0.0151736 -0.316245
0.0203177 -0.320934
0.0121895 -0.137638
0.012648 -0.132404
0.00779413 -0.381442
0.00730081 -0.388631
0.00825255 -0.030843
0.0110702 -0.0316436
-0.0326313 -0.408052
-0.0346827 -0.415047
-0.0220987 -0.198201
-0.0172785 -0.194329
0.0283615 -0.496485
0.0222046 -0.492518
-0.0328889 -0.401485
-0.0277883 -0.40654
-0.00469567 -0.00692208
-0.00545807 -0.00836194
-0.0221512 -0.428789
-0.0269297 -0.423349
0.000204518 -1.51991e-05
0.000594707 -0.000200404
-0.0416176 -0.324915
-0.0378073 -0.330653
0.00118595 -0.000470607
0.000700463 -0.000305317
0.0149422 -0.291958
0.00839934 -0.293534
-0.00578601 -0.285695
-0.0113468 -0.282
-0.000953082 -0.000745191
-0.000717178 -0.000355956
0.0145941 -0.0332108
0.0140811 -0.03034
-0.0201954 -0.100979
-0.015473 -0.100324
-0.00767961 -0.0235393
-0.0079559 -0.0261883
0.00653707 -0.0123504
0.00546678 -0.0106782
-0.00596487 -0.0497803
-0.00916259 -0.0513844
-0.00146546 -0.151509
-0.00537245 -0.155432
0.0374721 -0.225929
0.033351 -0.230568
0.0155779 -0.208869
0.0201533 -0.204878
-0.0119414 -0.302615
-0.00837893 -0.30845
-0.0417067 -0.353405
-0.034571 -0.353518
-0.000602818 -0.000331142
-0.000505955 -0.000155079
0.0183005 -0.0766448
0.0201199 -0.0732018
0.0275672 -0.147917
0.0262968 -0.153136
-0.0156498 -0.143769
-0.0210149 -0.14422
0.0174028 -0.418931
0.0107188 -0.416155
0.00889897 -0.0146606
0.00885378 -0.0165647
-0.0089452 -0.00975173
-0.00815527 -0.00822766
0.0226825 -0.152131
0.0180083 -0.148998
-0.0265965 -0.188234
-0.0321375 -0.186472
-0.00316496 -0.0080854
-0.00433117 -0.00938128
-8.50976e-05 1.09298e-05
-0.000254116 -3.09432e-05
-0.000475923 -0.0453379
0.000506577 -0.0422066
0.00877902 -0.25363
0.0151739 -0.254879
0.00790408 -0.464046
0.00286545 -0.469343
0.0224853 -0.346873
0.0209626 -0.339865
-0.000160458 -1.37116e-05
-3.05668e-05 1.87617e-05
-0.0156543 -0.0322323
-0.0127581 -0.0317916
-0.00840694 -0.0592083
-0.00606367 -0.0561906
-0.0116613 -0.257664
-0.0101749 -0.251255
0.011751 -0.222425
0.0151617 -0.227841
-0.0205877 -0.293212
-0.0241463 -0.299112
-0.00251835 -0.00149092
-0.00253468 -0.00131887
-0.0039193 -0.00372132
-0.00301942 -0.0028107
0.00252892 -0.00791722
0.00113365 -0.00807756
-0.0112302 -0.02407
-0.00921134 -0.0220453
0.0139866 -0.0445391
0.0119952 -0.0468636
-0.0233436 -0.07815
-0.0196987 -0.075503
0.000355362 -7.73791e-05
0.000270191 -9.95013e-05
0.00632291 -0.0052354
0.00502211 -0.00466567
-0.000611754 -0.000949849
-0.000372586 -0.00141231
-0.0179623 -0.346253
-0.0191604 -0.353392
0.0001235 -0.00256026
-0.000683561 -0.00252761
0.000327644 -0.00395615
0.000769243 -0.00310088
0.0315326 -0.228229
0.0305766 -0.234504
0.00668807 -0.490655
0.0133825 -0.487781
-0.00373153 -0.00524948
-0.00299681 -0.00412104
-0.0330453 -0.368788
-0.0287367 -0.374439
-0.020426 -0.27941
-0.0260426 -0.283241
-0.00522609 -0.432889
0.00146921 -0.430106
-0.0218964 -0.155212
-0.0263987 -0.152371
-0.0118128 -0.144136
-0.0165315 -0.14697
0.0316522 -0.319053
0.0260412 -0.314854
-0.0209627 -0.110476
-0.0165467 -0.112205
0.00924614 -0.311925
0.0103252 -0.31878
0.00469998 -0.23271
-0.00124557 -0.234866
-0.0308723 -0.386063
-0.0239177 -0.384187
-0.011496 -0.0279753
-0.00944505 -0.0293399
-0.00609471 -0.0512693
-0.0094386 -0.0506548
-0.000561223 -0.171098
0.00326916 -0.166883
0.00806831 -0.00982875
0.00661757 -0.0100046
0.0383083 -0.410299
0.0426787 -0.416152
0.00462025 -0.305117
0.000608436 -0.310689
-0.0317853 -0.257216
-0.0285782 -0.262819
0.00317036 -0.00171171
0.00255717 -0.00154475
0.000721549 -0.00360325
-0.000196684 -0.00394625
-0.00338972 -0.38339
-0.01049 -0.382949
0.0153145 -0.482015
0.00821851 -0.483649
-0.00741111 -0.0902632
-0.00811873 -0.0859065
-0.0101976 -0.0151759
-0.00827187 -0.01385
0.00837731 -0.0142569
0.00769638 -0.0123716
-0.00403652 -0.00281298
-0.00519544 -0.00357012
0.0131203 -0.021873
0.0109969 -0.0224511
0.014031 -0.288994
0.0128746 -0.282312
-0.0099406 -0.0272066
-0.00973874 -0.0298987
-0.0109968 -0.015431
-0.0112676 -0.0174121
0.0102698 -0.0485794
0.00963047 -0.0519189
-0.0211922 -0.0886062
-0.0216951 -0.0843202
-0.0209767 -0.10065
-0.0203826 -0.105357
-0.00349173 -0.409295
0.00235859 -0.405066
0.0300288 -0.339617
0.0359708 -0.335954
0.00468797 -0.140225
0.00885402 -0.143661
0.0285603 -0.171817
0.0259805 -0.176809
0.00692843 -0.283939
0.000629297 -0.28167
-0.0211614 -0.276319
-0.0145278 -0.276688
0.0141089 -0.445143
0.0123495 -0.438044
-0.0406375 -0.35745
-0.033608 -0.358584
-0.0155476 -0.128703
-0.0158008 -0.123594
-0.0171142 -0.179377
-0.0200717 -0.174514
0.0248247 -0.306366
0.020368 -0.301072
-0.00894479 -0.442015
-0.00423772 -0.447571
-0.0108445 -0.0634924
-0.0145784 -0.064875
-0.00835624 -0.292826
-0.00318144 -0.297177
0.00356035 -0.0358885
0.00646451 -0.0364203
-0.0296345 -0.129363
-0.0268352 -0.133435
2.88624e-05 -9.93462e-06
0.000340048 -8.7208e-05
0.0195319 -0.180264
0.024147 -0.17695
0.00133343 -0.260527
-0.00270358 -0.255368
-0.0232868 -0.0908021
-0.0187508 -0.0903715
0.0071077 -0.0238166
0.00454055 -0.0236006
-0.0164284 -0.0752468
-0.020562 -0.075341
-0.00101584 -0.000454547
-0.000342587 -0.000103763
0.0146146 -0.108196
0.0172131 -0.10428
0.0266212 -0.171166
0.0319781 -0.169522
-0.0147032 -0.477536
-0.0219841 -0.477659
0.00489901 -0.0328734
0.00327099 -0.0351522
-0.0169307 -0.038938
-0.0159381 -0.0416076
-0.00936883 -0.45215
-0.0080785 -0.459361
-0.0254956 -0.281237
-0.0234691 -0.274777
-0.020006 -0.194884
-0.0258897 -0.193896
-0.00224546 -0.0167647
-0.00311674 -0.014992
-0.036745 -0.209166
-0.0349715 -0.21504
-0.0311468 -0.313932
-0.0362574 -0.318795
0.0199042 -0.206861
0.0260495 -0.206698
-0.00062163 -0.0185742
0.00124846 -0.0195626
-0.00711208 -0.477246
-6.46304e-05 -0.47546
-0.00593313 -0.00598577
-0.00539644 -0.00483025
-0.00304127 -0.00170354
-0.00224157 -0.00113208
0.0326076 -0.177016
0.033316 -0.182868
-0.0142491 -0.0229599
-0.0121668 -0.0236623
0.0160405 -0.0508235
0.0130972 -0.0485315
-0.0274811 -0.414739
-0.028154 -0.421994
-0.0195149 -0.390873
-0.0172401 -0.384006
0.0118056 -0.245388
0.0145296 -0.239594
-0.0071042 -0.436341
-0.000816215 -0.432701
-0.0282518 -0.332651
-0.0240982 -0.338254
-0.00435113 -0.0174897
-0.00403055 -0.0196297
-0.0256478 -0.488015
-0.0260698 -0.495352
0.0145365 -0.117201
0.0163876 -0.122
0.00250542 -0.0203807
0.000463013 -0.0196816
-0.0107287 -0.202707
-0.0119197 -0.196771
-0.00650527 -0.0345415
-0.00372977 -0.0339576
-0.00331372 -0.0119068
-0.00166477 -0.0111746
-0.0113638 -0.0592163
-0.00876777 -0.0616802
-0.00119634 -0.00116332
-0.00189831 -0.00159704
-0.0025515 -0.0137358
-0.00267341 -0.0157363
0.00315705 -0.00369867
0.00223488 -0.00372972
-0.00709804 -0.0708653
-0.00312532 -0.0711362
-0.0400957 -0.463583
-0.0379254 -0.456571
-0.00543506 -0.173438
-0.0102627 -0.170462
0.0133471 -0.352369
0.0203601 -0.351046
0.0255735 -0.163817
0.0202774 -0.161577
-0.0249701 -0.449987
-0.0199084 -0.455224
0.00634041 -0.0543145
0.00363501 -0.0518813
-0.00868994 -0.04672
-0.0119243 -0.0463208
0.0127883 -0.0723287
0.016756 -0.0718947
0.00473595 -0.275715
-0.00184276 -0.274864
0.0336954 -0.401732
0.0370141 -0.395348
0.00196166 -0.494807
-0.0045475 -0.491616
0.0133054 -0.0404227
0.0164846 -0.0408069
-0.00900925 -0.0326695
-0.0103712 -0.0304542
0.0100406 -0.0122231
0.0100341 -0.0138762
-0.0243984 -0.227891
-0.0181072 -0.227048
-0.0364436 -0.283621
-0.0298438 -0.284687
0.000616164 -0.00177716
-5.94675e-05 -0.00178808
-0.00866975 -0.0127333
-0.00679034 -0.0120794
0.00114918 -0.00438893
0.000303252 -0.00367685
-0.0230005 -0.305241
-0.0278405 -0.30053
-0.000674206 -0.0086172
-0.0014621 -0.0100644
-0.0172126 -0.285664
-0.0236448 -0.287795
0.0236917 -0.222214
0.0246775 -0.215991
-0.00983173 -0.0717187
-0.00651811 -0.0692494
0.00203021 -0.0911594
-0.00167732 -0.0889121
0.0023875 -0.00122943
0.00271636 -0.0017013
-0.005672 -0.0537179
-0.00215084 -0.0539414
-0.00345785 -0.00379855
-0.00304635 -0.00446255
0.00962017 -0.0474694
0.00723168 -0.0448927
-0.0351883 -0.456025
-0.0399551 -0.46161
0.00241319 -0.00115679
0.00156277 -0.000661949
0.0172819 -0.103003
0.0210468 -0.106354
-0.00111068 -0.000792838
-0.00176543 -0.0012777
0.0240476 -0.115828
0.0226998 -0.120516
-0.00594088 -0.150848
-0.0106698 -0.153736
-0.0246227 -0.160459
-0.0301016 -0.162167
-0.00432917 -0.178955
-0.0072706 -0.184065
-0.00580034 -0.0518877
-0.00607171 -0.0484329
0.0298891 -0.200549
0.0268743 -0.195086
-0.00617759 -0.0351657
-0.00641899 -0.038206
-0.029545 -0.288793
-0.0238907 -0.292333
0.0203246 -0.380531
0.027126 -0.382883
-0.0277909 -0.157558
-0.0329894 -0.160114
-0.00270126 -0.162718
0.000132971 -0.157864
0.0129372 -0.039786
0.0133456 -0.0368632
-0.0175357 -0.4102
-0.0246068 -0.411705
0.0190777 -0.106153
0.0174758 -0.110637
0.0249715 -0.279068
0.0219494 -0.273012
-0.0156792 -0.0580069
-0.0193727 -0.0582003
0.0148786 -0.0885369
0.0144518 -0.0929919
-0.0211665 -0.266236
-0.027309 -0.264051
-0.00251042 -0.300152
0.00060878 -0.294079
-0.0179991 -0.289023
-0.0153496 -0.295229
0.00341526 -0.00259233
0.00412369 -0.00350643
0.0241809 -0.320288
0.0309289 -0.31884
-0.0165034 -0.384003
-0.0105999 -0.379907
-0.0238672 -0.0786717
-0.0234509 -0.0828061
-0.00475045 -0.017685
-0.00668146 -0.0171315
0.00151704 -0.001839
0.00122735 -0.00116658
0.00427431 -0.0418802
0.0021954 -0.044277
0.00631356 -0.0524105
0.00296055 -0.0533056
-0.00947242 -0.0395362
-0.012428 -0.0390976
-0.000712703 -0.000639169
-0.00126228 -0.000979758
-0.00133345 -0.00216078
-0.000697465 -0.00157797
0.00324327 -0.260513
0.00634727 -0.266365
-0.033888 -0.339793
-0.0369083 -0.346341
-0.00692782 -0.0488324
-0.0101338 -0.0503843
-0.0082081 -0.428661
-0.00168788 -0.425489
-0.0317854 -0.148847
-0.0327085 -0.154337
-0.0216429 -0.109809
-0.0237424 -0.114475
-0.00215986 -0.172017
0.00353525 -0.172037
-0.00659378 -0.13581
-0.00479249 -0.130842
0.000604796 -0.000188233
0.00040163 -0.000154415
-0.0233826 -0.24213
-0.0190393 -0.237234
0.0306722 -0.485095
0.0235534 -0.486786
0.0236596 -0.118005
0.0198829 -0.114409
-0.0134932 -0.173503
-0.0124867 -0.179202
0.0238745 -0.26521
0.0234644 -0.271836
-0.0298337 -0.34018
-0.022947 -0.341582
0.0327307 -0.406642
0.0255798 -0.405547
0.00698096 -0.240301
0.00493174 -0.234209
0.0197675 -0.109906
0.0190162 -0.105019
-0.0148468 -0.251627
-0.0131221 -0.25791
-0.0108758 -0.0316113
-0.00871595 -0.0330714
0.0165261 -0.205747
0.0222044 -0.203639
0.0084459 -0.122032
0.0125955 -0.125103
0.0191123 -0.217726
0.0128431 -0.217963
0.00629124 -0.027332
0.00702012 -0.0301551
0.0177334 -0.394672
0.0193977 -0.401727
0.0142929 -0.32573
0.0117172 -0.319253
0.034805 -0.402864
0.0337675 -0.395688
-0.00828904 -0.0508712
-0.011255 -0.0494476
0.0414314 -0.358218
0.0343865 -0.356786
-0.0123625 -0.0233486
-0.0130725 -0.025952
-0.0178188 -0.356839
-0.0246264 -0.359023
-0.00358198 -0.00412959
-0.00475287 -0.00496555
0.00876329 -0.237894
0.0125919 -0.243122
-0.00969704 -0.0487695
-0.00939772 -0.0522013
-0.0113528 -0.114713
-0.00778913 -0.117951
-0.00156429 -0.0152677
-0.00352381 -0.0155721
0.00392314 -0.372524
0.0105038 -0.375227
0.00169896 -0.000729153
0.00100875 -0.000370225
-0.00383135 -0.183964
-0.00177786 -0.189523
0.0227139 -0.300143
0.0269452 -0.305626
0.0181203 -0.0431581
0.0165218 -0.0456316
0.0276862 -0.198089
0.0301151 -0.192714
0.0100594 -0.0859617
0.0058702 -0.0869974
0.00101727 -0.0031253
0.000618249 -0.00398497
-0.0162048 -0.0624246
-0.0125834 -0.0631787
0.00596429 -0.0218154
0.00788597 -0.0207693
-0.00927584 -0.305651
-0.00978462 -0.312541
0.0209968 -0.231995
0.0235618 -0.237961
-0.0002487 -7.94201e-05
-9.51834e-05 -0.0001071
0.00448772 -0.160778
0.0089703 -0.157559
0.0182931 -0.210823
0.012221 -0.212171
0.0285866 -0.353972
0.0320974 -0.360289
0.0137052 -0.222435
0.0188952 -0.21901
-0.0312431 -0.181589
-0.026354 -0.184517
0.00866815 -0.0693077
0.00686872 -0.0728298
-0.00137525 -0.479301
-0.00675713 -0.474383
0.000106574 -0.00142212
-0.000143996 -0.000880779
-0.00914528 -0.0153502
-0.00813742 -0.0134159
0.00675517 -0.393052
0.00724554 -0.38585
-0.0122129 -0.462962
-0.00514822 -0.461232
0.0106606 -0.115744
0.0137591 -0.119814
0.0416543 -0.421088
0.0393252 -0.414172
0.00610949 -0.0941708
0.0103833 -0.0960632
-0.0125936 -0.226877
-0.00689506 -0.229331
0.000573448 -0.0839378
0.00465494 -0.0852177
0.0405109 -0.37744
0.0377151 -0.370766
-0.00239674 -0.006507
-0.00305755 -0.00788646
-0.0247881 -0.151744
-0.0276828 -0.147364
0.0105028 -0.193805
0.00493472 -0.195836
-0.0326675 -0.235637
-0.0310058 -0.241758
-0.0334744 -0.366433
-0.0368397 -0.360172
-0.0298494 -0.381443
-0.0338502 -0.387497
0.0242932 -0.0884336
0.0198437 -0.0884476
-0.00199362 -0.0137897
-0.00028833 -0.013008
-0.00809945 -0.419838
-0.00478515 -0.426305
0.0146608 -0.353308
0.0214841 -0.355488
0.000939824 -0.000353722
0.00088834 -0.000313556
-0.0200885 -0.105822
-0.016671 -0.102109
0.00858491 -0.0889691
0.0128563 -0.0880143
-0.0041126 -0.0164098
-0.00399939 -0.0143822
-0.00252384 -0.00166244
-0.00306578 -0.00177841
0.00512029 -0.00592236
0.00386522 -0.00506567
-0.00887224 -0.0212664
-0.0107519 -0.02039
-0.0192754 -0.415908
-0.023853 -0.410331
-0.0229846 -0.0644311
-0.0191412 -0.064417
-0.0333818 -0.339825
-0.0269402 -0.336738
0.0310201 -0.40969
0.0325448 -0.416809
0.0022228 -0.0418219
0.00535766 -0.0424741
-0.00485564 -0.396597
-0.00489195 -0.389366
-0.0148023 -0.427339
-0.0109645 -0.421138
-0.0166553 -0.050512
-0.018955 -0.0536123
0.0115395 -0.0259559
0.0122384 -0.0286992
0.00371345 -0.00442577
0.00469839 -0.00441988
-0.026975 -0.400716
-0.0274627 -0.407956
-0.0126599 -0.233708
-0.00795091 -0.237896
0.0120692 -0.314707
0.0170646 -0.319521
0.0333228 -0.260115
0.0298698 -0.2656
0.0161584 -0.145314
0.0118306 -0.141937
0.0251825 -0.34832
0.0279451 -0.34179
0.00738213 -0.0619136
0.00640602 -0.0655999
0.0109763 -0.0218968
0.00881176 -0.0224819
0.00237391 -0.280981
0.00353407 -0.274369
0.0193499 -0.40597
0.0182442 -0.413142
-0.00201624 -0.0813987
0.0021791 -0.0816116
-0.00186141 -0.00436754
-0.00271126 -0.00404212
-0.0229299 -0.356637
-0.0194418 -0.350299
0.0273954 -0.309987
0.0205382 -0.310222
-0.0419145 -0.41599
-0.0349999 -0.413687
-0.00916517 -0.0127034
-0.00766402 -0.0111273
0.00312043 -0.116526
0.00601313 -0.12063
-0.0260752 -0.11981
-0.0243833 -0.114938
-0.000473125 -0.00195052
-0.000883559 -0.00274981
-0.000485423 -0.0637842
-0.00417669 -0.0648884
-0.03394 -0.18521
-0.0285779 -0.187337
0.00916085 -0.164616
0.0115958 -0.169837
0.0074767 -0.367451
0.0126711 -0.362609
-0.0102334 -0.26353
-0.0037031 -0.262925
0.0118007 -0.411141
0.0122177 -0.418406
0.0249239 -0.0906498
0.0250103 -0.0862406
-0.00976528 -0.175966
-0.00665356 -0.180835
-0.00488732 -0.0768296
-0.00847713 -0.0791192
-0.0247095 -0.150025
-0.0296264 -0.152905
0.00674451 -0.0162724
0.00742899 -0.0184169
-0.00203787 -0.091758
-0.00462533 -0.0954099
-0.00100445 -0.0492001
-0.00149154 -0.0458328
0.00898853 -0.0320711
0.0115565 -0.0338608
0.0144327 -0.0276567
0.0124369 -0.0253282
-0.00953873 -0.130704
-0.00468422 -0.132338
0.0091886 -0.0122025
0.00871657 -0.0105093
-0.000203812 -0.424577
-0.00376679 -0.418246
0.0204858 -0.157155
0.0212261 -0.151714
-0.000636757 -0.0472175
-0.00181307 -0.044107
-0.00653638 -0.00967692
-0.00584434 -0.0108263
-0.00465435 -0.00464485
-0.00397833 -0.00509831
-0.010483 -0.46096
-0.00820997 -0.467924
-0.0227295 -0.17216
-0.0199036 -0.177047
0.00685938 -0.0664499
0.00956232 -0.0695148
0.00297359 -0.0818228
0.0067495 -0.0800265
-0.00709843 -0.397383
-0.000661594 -0.394193
0.00199494 -0.491166
-0.000101174 -0.484158
-0.00940337 -0.0126811
-0.0100269 -0.011503
0.004233 -0.00901434
0.00461253 -0.0106576
-0.0136668 -0.0612122
-0.0135048 -0.0574734
0.0184101 -0.302171
0.0236347 -0.306692
-0.00929862 -0.18349
-0.0134567 -0.18777
0.0038539 -0.00847945
0.00237419 -0.00803949
0.0343406 -0.208774
0.0329854 -0.214798
-0.0339594 -0.280786
-0.0303663 -0.286342
-0.000476789 -0.000221649
-0.000185095 -5.12437e-05
0.0343069 -0.242867
0.0323725 -0.236625
0.00113984 -0.0163532
-0.000539906 -0.0175099
-0.00888703 -0.0343243
-0.00973808 -0.0317493
-0.0200508 -0.414208
-0.0128415 -0.414423
-0.0285786 -0.169948
-0.0334651 -0.167406
0.000525885 -0.000638639
0.000197045 -0.000858702
0.000243971 -6.70312e-05
0.000403837 -0.000317625
0.00687825 -0.151437
0.00483203 -0.146329
-0.00766334 -0.187079
-0.0105305 -0.192341
0.000400493 -0.00422717
-0.000130214 -0.00332443
0.0187589 -0.154026
0.0238577 -0.156488
0.00348697 -0.0124698
0.00176359 -0.0127585
0.0100645 -0.057264
0.00947091 -0.0608964
-0.00568488 -0.177368
-0.00082067 -0.174238
0.0290008 -0.238008
0.0312788 -0.244148
0.00389768 -0.00373227
0.00506807 -0.00455438
0.000124124 -0.168842
0.00237298 -0.163618
-0.00624802 -0.00516181
-0.00573121 -0.00568841
0.0276553 -0.323363
0.031513 -0.317672
0.00800137 -0.311829
0.00131975 -0.313263
0.00888785 -0.012491
0.0071507 -0.0112499
0.00790971 -0.194204
0.00207705 -0.19509
0.00109025 -0.3849
-0.00393799 -0.379818
0.0156058 -0.0684903
0.0185278 -0.0662448
-0.000317024 -0.0663237
0.00169286 -0.0697612
-0.0256018 -0.315077
-0.0254795 -0.322023
-0.0406674 -0.412447
-0.0335034 -0.413443
0.0286853 -0.468767
0.030733 -0.461728
0.0107378 -0.116692
0.007937 -0.120723
-0.0135272 -0.039403
-0.0139868 -0.0425794
-0.00889289 -0.0498604
-0.0100885 -0.04681
-0.00226379 -0.0115163
-0.000584001 -0.0111412
0.0162091 -0.0409771
0.0167402 -0.0442069
-0.0125342 -0.0390602
-0.0133963 -0.0363612
0.00604021 -0.00680604
0.00536949 -0.00760433
-0.00910598 -0.0934999
-0.00460292 -0.0938788
-0.0166352 -0.307345
-0.0207801 -0.30196
-0.0102635 -0.316698
-0.0136504 -0.310705
0.0314408 -0.370746
0.0374151 -0.366866
0.0146108 -0.133491
0.015844 -0.128502
-0.0393645 -0.261172
-0.0379965 -0.254677
-0.0114228 -0.024397
-0.0111099 -0.0268616
-0.00341391 -0.0425612
-0.0002279 -0.0424732
-0.0423099 -0.48143
-0.0386484 -0.475056
0.017296 -0.412343
0.011409 -0.408126
-0.0220226 -0.451612
-0.0245285 -0.458504
0.0257144 -0.453741
0.0298903 -0.44775
-0.0303727 -0.203047
-0.0242912 -0.201882
-0.00224671 -0.0065884
-0.00113356 -0.00574579
0.00113107 -0.452925
-0.00517343 -0.456573
0.0236748 -0.228581
0.0198253 -0.223394
0.0220149 -0.380679
0.0241148 -0.387593
-0.0104799 -0.0373024
-0.00787081 -0.0354315
-0.0258698 -0.201638
-0.0223025 -0.19649
-0.0106392 -0.0984193
-0.0127549 -0.0943955
-0.00542106 -0.465342
-0.00346073 -0.472405
-0.0206265 -0.250271
-0.015383 -0.253961
0.0366686 -0.422208
0.0361379 -0.414945
0.000981016 -0.0013613
0.00103791 -0.00205584
0.00547044 -0.00582111
0.00491324 -0.00659175
0.0242247 -0.246188
0.0270992 -0.252134
0.0237745 -0.276728
0.0291654 -0.27297
-0.0103862 -0.0729735
-0.00669181 -0.0744741
0.00616476 -0.0072633
0.00766098 -0.00770381
0.0241717 -0.0838556
0.0230988 -0.0879295
0.00140362 -0.00309898
0.00225284 -0.00387077
-0.000395513 -0.0768598
0.0036323 -0.0760818
-0.0152291 -0.182276
-0.0113319 -0.18658
-0.0258956 -0.12077
-0.0209276 -0.121202
-0.0185332 -0.243758
-0.0136402 -0.24783
-0.00434538 -0.23631
0.00196816 -0.236864
0.0374019 -0.301873
0.0306159 -0.302531
-0.01693 -0.0554834
-0.020284 -0.057615
0.0175702 -0.206181
0.011788 -0.203887
0.0251321 -0.347314
0.0292758 -0.35322
0.0343064 -0.477661
0.0399827 -0.482309
0.0138332 -0.0675471
0.0119153 -0.0708542
-0.000855888 -0.490738
0.0059616 -0.488223
-0.00068249 -0.0700146
-0.00402212 -0.0679456
0.0174578 -0.419153
0.020235 -0.425894
-0.0341765 -0.438621
-0.0269384 -0.437838
-0.00288061 -0.00349343
-0.00199245 -0.00352684
-0.0417845 -0.449148
-0.0350551 -0.446251
0.00898547 -0.0612684
0.0111855 -0.0645984
-0.00234327 -0.312463
-0.00378556 -0.305716
0.0165419 -0.145871
0.0124123 -0.14223
0.0145836 -0.379383
0.0112482 -0.385724
0.0199456 -0.32622
0.0137822 -0.32297
0.0236328 -0.243177
0.026929 -0.237768
-0.0159755 -0.311679
-0.0218261 -0.315421
0.0316509 -0.279124
0.0264254 -0.274768
0.00331708 -0.00318304
0.00439576 -0.00366261
-0.0178486 -0.393906
-0.0155184 -0.400728
0.0163875 -0.253085
0.0205748 -0.258224
-0.00174671 -0.00111151
-0.00254966 -0.00163047
0.00820928 -0.093101
0.00379444 -0.0937904
0.0369434 -0.281069
0.0346008 -0.274688
-0.014905 -0.268296
-0.0102123 -0.263559
-0.0254464 -0.0854163
-0.0218743 -0.0823445
0.0145856 -0.334537
0.0129569 -0.341404
0.000194732 -0.00857427
0.00164159 -0.00838753
0.00179786 -0.00162924
0.00189931 -0.00125266
0.000987054 -0.47832
-0.0057586 -0.481046
-0.0193782 -0.444869
-0.0200167 -0.437585
0.0106937 -0.375402
0.0158239 -0.370471
0.0238531 -0.455837
0.026598 -0.449056
0.0189197 -0.0510119
0.0155283 -0.0495091
0.0100602 -0.375087
0.00869552 -0.36805
-0.0142733 -0.0541775
-0.0169486 -0.0522995
0.0119413 -0.0643442
0.0141941 -0.0677817
-0.0311698 -0.440736
-0.0256215 -0.435968
0.00142792 -0.00705555
0.00280022 -0.0074538
-0.0208783 -0.053938
-0.0188119 -0.0564414
0.0251674 -0.246056
0.0202404 -0.250109
0.0345309 -0.215102
0.0303201 -0.210203
-0.0346018 -0.466705
-0.0281005 -0.470024
0.0140847 -0.069813
0.0116009 -0.0727616
-0.00328282 -0.00326875
-0.00360802 -0.00424411
-0.0158008 -0.0363676
-0.0130725 -0.0370749
-0.0122047 -0.328833
-0.00612237 -0.325503
-0.0233208 -0.161954
-0.0189822 -0.165291
-0.0129678 -0.0508706
-0.0154085 -0.0537982
-0.00197575 -0.00628308
-0.00329576 -0.00672297
1.76033e-05 -0.00933372
0.000875997 -0.0107678
0.0135515 -0.0795959
0.0102553 -0.0767367
-0.0259469 -0.231991
-0.0302829 -0.236906
-0.00199655 -0.00119212
-0.00203493 -0.0010416
0.00446788 -0.00261584
0.00369464 -0.00242944
0.0180767 -0.185058
0.0210724 -0.180132
-0.0160958 -0.0911677
-0.0206434 -0.0918608
0.0086526 -0.0325256
0.00951831 -0.035429
1.92763e-05 -0.00238903
-0.000228431 -0.00165432
-0.012093 -0.475182
-0.0120243 -0.467843
-0.0217792 -0.414226
-0.0174828 -0.408349
0.0212387 -0.286681
0.0146489 -0.285258
0.0159518 -0.452782
0.014271 -0.445656
-0.0189863 -0.273768
-0.0182692 -0.267123
0.00465126 -0.0187359
0.00346898 -0.0168005
0.0308313 -0.280009
0.0372075 -0.278184
0.00539795 -0.00463129
0.00602156 -0.00579246
-0.0121138 -0.280118
-0.00545858 -0.279664
-0.0295549 -0.287122
-0.0234844 -0.289883
0.00984956 -0.0215889
0.0122825 -0.0218757
0.0225534 -0.132736
0.0179676 -0.129945
0.0179489 -0.0599708
0.0142217 -0.0590093
-0.00468764 -0.125027
-0.00954545 -0.123792
0.0168363 -0.311933
0.0167796 -0.305036
0.0130176 -0.103752
0.0124325 -0.0988979
-0.00160583 -0.423728
0.00499782 -0.42668
0.0052378 -0.475838
-0.00202371 -0.47582
0.0183196 -0.461378
0.0112637 -0.459607
-9.42861e-05 -0.00342406
0.000356277 -0.00439351
0.00859592 -0.0217922
0.00929164 -0.0197764
-0.0298729 -0.201891
-0.0299279 -0.195801
0.00778754 -0.430934
0.00121329 -0.427894
-0.0347656 -0.186715
-0.0293876 -0.183787
-0.00933603 -0.0104951
-0.00883589 -0.00897581
0.000307979 -7.98714e-05
0.000199316 -2.68294e-05
-0.0135441 -0.283416
-0.00749326 -0.280476
-0.00522793 -0.394158
-0.011725 -0.391177
-0.023892 -0.347296
-0.0211019 -0.340645
-0.023574 -0.169444
-0.0197627 -0.164985
-0.0142467 -0.467421
-0.0213622 -0.468981
0.00208106 -0.0620873
0.00584477 -0.0620372
0.0295619 -0.217024
0.0287919 -0.210737
-0.022826 -0.159294
-0.0202968 -0.154173
0.018206 -0.0697188
0.0195769 -0.0737066
0.00878703 -0.259367
0.00232701 -0.258428
0.000793797 -0.253648
-0.00509942 -0.250978
0.00568175 -0.00399679
0.00476093 -0.00390831
0.00401341 -0.303355
-0.00257738 -0.301713
-0.0256645 -0.216208
-0.0239793 -0.222233
-0.0339185 -0.286488
-0.0295286 -0.281203
-0.011353 -0.371107
-0.00596403 -0.366483
0.0113909 -0.252745
0.0051378 -0.250988
0.0144297 -0.0425646
0.0137985 -0.0393812
0.00911551 -0.048643
0.00572645 -0.0484307
-0.00367869 -0.00482877
-0.00406464 -0.00414418
0.0190281 -0.281448
0.0228516 -0.276033
-0.0222308 -0.348452
-0.0291226 -0.346924
0.0055404 -0.379037
0.0123674 -0.381119
0.0264847 -0.427208
0.0310424 -0.421567
-0.0066426 -0.388077
-0.0102972 -0.381916
-0.000111426 -0.0595981
0.00287948 -0.0619058
0.00197011 -0.0859342
-0.000612927 -0.0824594
0.0210131 -0.0730798
0.0234704 -0.0702833
-0.0226109 -0.301726
-0.0166718 -0.304984
-0.00735514 -0.0421169
-0.00826632 -0.0392013
0.0327874 -0.403288
0.0256224 -0.402342
-0.0104901 -0.322437
-0.0167241 -0.325522
-0.00351637 -0.0151297
-0.00189828 -0.0138967
0.0250319 -0.152288
0.0298356 -0.150034
-0.00125839 -0.0014462
-0.00105988 -0.000876201
-0.0161786 -0.15331
-0.0216699 -0.153917
-0.034234 -0.337743
-0.0278557 -0.340603
0.000154343 -0.0580065
0.00381023 -0.058212
-0.00446936 -0.0454241
-0.00274672 -0.0425548
-0.0278822 -0.48394
-0.0333689 -0.479095
-0.00671609 -0.0758733
-0.00379683 -0.0728738
0.0223478 -0.156932
0.0255429 -0.161742
-0.0110948 -0.298283
-0.0136583 -0.292004
0.0235332 -0.109706
0.0276073 -0.107469
0.0211965 -0.343952
0.014479 -0.341608
0.00604651 -0.0255265
0.00511282 -0.0280329
-0.0251671 -0.27536
-0.020556 -0.270412
-0.00253923 -0.314292
-0.0012637 -0.307494
5.26439e-05 -0.0193215
0.000124115 -0.0216207
-0.00221782 -0.312503
-0.000657379 -0.305777
-0.0380971 -0.29535
-0.0312949 -0.295281
0.0114851 -0.429783
0.00444099 -0.42812
0.0170308 -0.257607
0.0173231 -0.251066
0.0204702 -0.40194
0.0172716 -0.408419
0.0349757 -0.390248
0.0395074 -0.384708
-0.0163869 -0.422009
-0.01222 -0.416033
-0.0182058 -0.0551772
-0.0146353 -0.0539797
-0.00197273 -0.415523
-0.00352189 -0.408425
0.00491779 -0.018931
0.00562624 -0.0212017
0.00431475 -0.0116956
0.00607966 -0.0125067
-0.0143452 -0.0868049
-0.00994583 -0.0863175
0.0235893 -0.339528
0.0277866 -0.345353
-0.0104695 -0.228682
-0.00559941 -0.23262
0.0040193 -0.0665772
0.0038211 -0.0705708
-0.0187023 -0.17301
-0.024259 -0.174861
-0.0102799 -0.181949
-0.00845668 -0.17635
-0.0103776 -0.0405541
-0.0133158 -0.0422837
-0.0244591 -0.412811
-0.0301081 -0.417416
-0.00676913 -0.0168841
-0.00648278 -0.0148405
-0.0348734 -0.257087
-0.0356475 -0.263664
0.00967234 -0.159902
0.0149748 -0.161827
0.0288285 -0.113024
0.0247516 -0.109781
-0.00398552 -0.0585133
-0.000574937 -0.057104
0.0320207 -0.465042
0.0352833 -0.458487
0.00487084 -0.453848
0.00131216 -0.460246
0.0201299 -0.0756168
0.0241838 -0.0773446
-0.0233176 -0.197933
-0.0217435 -0.203767
-0.00295523 -0.278972
-0.00776966 -0.274384
0.0253213 -0.48435
0.0192964 -0.480219
0.030121 -0.209273
0.032586 -0.203749
-0.00484209 -0.00587928
-0.00623819 -0.00656021
-0.0122429 -0.0584525
-0.0135747 -0.0621257
-0.0156908 -0.182637
-0.00996425 -0.183659
-0.00480787 -0.29637
-0.00621915 -0.289716
0.0149465 -0.223655
0.0103931 -0.227909
0.00616392 -0.437031
0.00625908 -0.429724
-0.0235548 -0.353658
-0.0200584 -0.35987
-0.0280717 -0.236506
-0.0256124 -0.242336
-0.0101893 -0.274447
-0.00837109 -0.280886
0.0279717 -0.223789
0.0250575 -0.218031
-0.00812768 -0.009029
-0.00828885 -0.0104756
0.0285307 -0.141332
0.0262145 -0.136338
-0.022011 -0.167113
-0.0271094 -0.170028
0.0373773 -0.379435
0.0329094 -0.385014
-0.00165097 -0.000967409
-0.00104631 -0.000618392
-0.00871854 -0.0375318
-0.010507 -0.0354426
-0.0134028 -0.0758083
-0.0120475 -0.0796649
0.00201118 -0.0200666
0.00169778 -0.0223608
-0.018597 -0.199139
-0.0136682 -0.195455
-0.000714136 -0.261906
-0.00457339 -0.267285
-0.0359596 -0.27603
-0.0332575 -0.282052
-0.0227576 -0.220236
-0.0220077 -0.22651
-0.00721688 -0.0160101
-0.00518145 -0.0158979
-0.0118754 -0.0667137
-0.00914656 -0.063697
-0.0299462 -0.226771
-0.0358265 -0.224715
-0.0280566 -0.336434
-0.0291824 -0.3295
-0.0239197 -0.150694
-0.0190743 -0.14785
-0.0115519 -0.276683
-0.0072396 -0.271542
-0.00275129 -0.437739
0.00449074 -0.437849
-0.0218885 -0.277324
-0.0245554 -0.283574
0.0401291 -0.415797
0.0331696 -0.413673
0.0331999 -0.23316
0.0268064 -0.232916
0.0354163 -0.448204
0.0281318 -0.44787
0.00511591 -0.384111
0.0112871 -0.380546
0.0291597 -0.224476
0.0343596 -0.228406
-0.0173851 -0.0914459
-0.0213624 -0.094188
-0.0115828 -0.32592
-0.0151342 -0.331965
0.00728274 -0.0663922
0.00836542 -0.0702953
-0.0227189 -0.180244
-0.023353 -0.174498
0.0253716 -0.084101
0.0254865 -0.0884809
-0.0133521 -0.116926
-0.0155778 -0.112674
0.00848456 -0.0929043
0.0125062 -0.0910399
-0.00862457 -0.255165
-0.014609 -0.252752
0.00653205 -0.00556813
0.00519862 -0.00499548
-0.0251724 -0.0849317
-0.0250133 -0.0806401
-0.00429955 -0.162398
-0.00141306 -0.167252
-0.0193183 -0.280177
-0.0237185 -0.275258
-0.00379268 -0.307975
0.00190872 -0.31176
0.00797868 -0.0616787
0.00432393 -0.0624248
0.0290643 -0.299095
0.0353324 -0.302013
0.0132786 -0.0299087
0.0159786 -0.0297513
0.000362796 -0.0447508
-0.00282929 -0.0441831
-0.021566 -0.132499
-0.0267312 -0.132222
-3.87934e-05 -0.0452792
0.00323537 -0.04528
0.0201588 -0.414284
0.0253598 -0.419371
0.0181924 -0.231612
0.0161072 -0.225536
0.0138715 -0.0613803
0.0153307 -0.0581412
-0.0171204 -0.301247
-0.0114103 -0.297459
-0.00857557 -0.0328771
-0.00825568 -0.030027
-0.030223 -0.490662
-0.0373959 -0.492175
-0.00324696 -0.00324881
-0.00290294 -0.00242051
-0.0115435 -0.032162
-0.00873834 -0.0322127
-0.0104304 -0.0168933
-0.00826562 -0.016197
-0.00731333 -0.0729347
-0.00571506 -0.0766835
0.0114969 -0.460262
0.00995437 -0.467434
0.0397779 -0.439184
0.0414538 -0.446311
0.0245841 -0.130757
0.0229743 -0.135593
-0.0107563 -0.268264
-0.0151441 -0.263405
-0.00285935 -0.488946
-0.00375483 -0.496199
0.0301151 -0.144347
0.0250146 -0.145697
0.0060256 -0.11742
0.00222701 -0.120613
0.0061947 -0.318372
0.00284737 -0.312315
0.0269502 -0.409159
0.025693 -0.416307
0.000860481 -0.000299491
0.00100314 -0.000375111
-0.0090485 -0.083292
-0.00477688 -0.0833333
-0.0097102 -0.018031
-0.0076209 -0.0181971
-0.00506333 -0.0272517
-0.00784182 -0.0280318
0.00675361 -0.0235925
0.0070997 -0.021252
0.00162278 -0.0596845
0.00484768 -0.0616882
-0.0341534 -0.311001
-0.0337607 -0.3179
-0.0292478 -0.31843
-0.0360345 -0.320152
-0.0117855 -0.0955609
-0.0107995 -0.0910207
-0.0308165 -0.346597
-0.0372682 -0.349773
-0.0158094 -0.122499
-0.0112054 -0.124297
0.00419073 -0.00896054
0.00317387 -0.0099166
0.00257474 -0.0671799
0.00373378 -0.0634705
0.0167083 -0.0543675
0.014311 -0.0513712
0.000136376 -0.181799
-0.00459271 -0.185257
-0.0102348 -0.335457
-0.0171777 -0.336569
-0.0112317 -0.0416592
-0.0103947 -0.0446469
0.0171461 -0.212084
0.022105 -0.208521
0.0181937 -0.120272
0.0174503 -0.115269
-0.0419132 -0.492095
-0.0437103 -0.484961
-0.00374108 -0.0154846
-0.00316403 -0.0174203
0.0109996 -0.412391
0.0071855 -0.418561
-0.00608196 -0.0360557
-0.00735204 -0.0389643
-0.00570269 -0.40497
-0.000178901 -0.400323
-0.0401954 -0.36078
-0.0398786 -0.353603
0.0270106 -0.288937
0.0219816 -0.293345
0.0374606 -0.312108
0.0338691 -0.31791
0.0156743 -0.25794
0.0134802 -0.264117
0.00720252 -0.026876
0.00624765 -0.0241977
0.0218964 -0.0744875
0.0218227 -0.0786094
0.000893344 -0.317188
0.00335242 -0.31072
0.00487264 -0.137113
0.00567352 -0.142416
0.00798265 -0.338447
0.01406 -0.335031
-0.0357094 -0.237651
-0.0299162 -0.234581
0.0253399 -0.315737
0.0186078 -0.317146
-0.0374267 -0.453167
-0.0398147 -0.460106
0.000669696 -0.0163819
0.00126675 -0.0144524
0.00678844 -0.307484
0.00493442 -0.300858
0.00067956 -0.0180668
-0.000321685 -0.0200335
-0.0281549 -0.305417
-0.0345653 -0.303208
-0.0348218 -0.360262
-0.0399764 -0.365361
0.0043334 -0.191347
-0.0012162 -0.193291
0.00194943 -0.41232
0.00265508 -0.405089
-0.0225164 -0.432701
-0.0166249 -0.436923
-0.0288357 -0.158658
-0.0324149 -0.154744
-0.000202557 -0.0482696
0.000807633 -0.0516047
-0.020868 -0.0674432
-0.0190637 -0.0706738
-0.0226502 -0.131373
-0.0278615 -0.131736
0.00717644 -0.168227
0.00257622 -0.171538
0.0104486 -0.459471
0.00401098 -0.46288
0.0262352 -0.237379
0.0219262 -0.241994
0.0328183 -0.492985
0.0303823 -0.486048
0.00679439 -0.00773339
0.00836099 -0.00882685
0.00341829 -0.00191734
0.00269713 -0.00167677
-0.0113101 -0.0772683
-0.0149222 -0.0797626
-0.0286372 -0.234
-0.03033 -0.240276
0.0100451 -0.383004
0.00504867 -0.388128
-0.000132505 -0.000332678
0.000186589 -0.000413635
0.00381802 -0.00436429
0.00310635 -0.00484879
0.0121627 -0.092919
0.0155161 -0.0901394
0.0149862 -0.121972
0.0100475 -0.122649
0.0106471 -0.0244326
0.0131541 -0.024456
-0.0256871 -0.222273
-0.019652 -0.223832
0.0071765 -0.418108
0.00214429 -0.412895
-0.0103998 -0.0744502
-0.00759164 -0.0713039
0.00644839 -0.335076
-0.000392421 -0.335124
-0.00714844 -0.0573926
-0.00772503 -0.053842
-0.0129609 -0.485636
-0.0194218 -0.489025
0.0265943 -0.29005
0.0314627 -0.285516
-0.0197162 -0.185794
-0.0198222 -0.179912
-0.0429794 -0.489167
-0.0430998 -0.496566
-0.0148514 -0.392561
-0.00910168 -0.396828
0.00547275 -0.0392747
0.00456115 -0.0422554
-0.0280214 -0.200084
-0.0238448 -0.195411
-0.0184671 -0.0915792
-0.0160847 -0.0952414
-0.0288503 -0.315213
-0.0229015 -0.318612
0.0325421 -0.473327
0.0366038 -0.467225
-0.0273489 -0.324434
-0.0209576 -0.321537
0.0258633 -0.223623
0.0195796 -0.222892
0.00223557 -0.0578691
-0.00138363 -0.0584009
-0.0114688 -0.152088
-0.00606803 -0.151182
0.020442 -0.0962336
0.0229265 -0.100519
-0.0132975 -0.200768
-0.0149991 -0.20675
0.00549194 -0.0128448
0.00689604 -0.012114
0.00464426 -0.00459591
0.00435087 -0.00541298
0.0171045 -0.199142
0.0177335 -0.205269
0.0400235 -0.29606
0.0333345 -0.297123
-0.00960163 -0.42694
-0.00237701 -0.42719
0.0226006 -0.106852
0.0185572 -0.109176
-0.00841013 -0.406915
-0.00129391 -0.405862
-0.0309382 -0.411824
-0.0379258 -0.410032
0.0134549 -0.23628
0.0131514 -0.229885
0.00817739 -0.0930562
0.0118514 -0.0960386
-0.0142736 -0.295229
-0.00947657 -0.290374
-0.000496328 -0.399999
-0.00411594 -0.39376
-0.00919319 -0.123068
-0.00766102 -0.118205
-0.00264334 -0.0135395
-0.00442581 -0.0144728
-0.00285615 -0.127229
-0.00574251 -0.123066
0.0368713 -0.321985
0.0403546 -0.328164
-0.0114421 -0.420701
-0.00424085 -0.421195
-0.0128147 -0.367178
-0.0142108 -0.360177
-0.0150538 -0.121758
-0.0168884 -0.12664
0.00507962 -0.23265
-0.00102327 -0.231034
0.0187846 -0.202139
0.0130746 -0.204159
0.00641871 -0.294816
0.000625958 -0.298321
-0.0141606 -0.365733
-0.0072139 -0.364605
0.00977239 -0.275492
0.00543245 -0.270404
0.0233425 -0.365635
0.0304156 -0.364704
-0.00478194 -0.0102673
-0.00363675 -0.0112016
0.0141281 -0.146364
0.00936361 -0.143686
0.000970877 -0.014992
0.00244427 -0.0164372
0.0194264 -0.168891
0.0249731 -0.170574
0.0382045 -0.25742
0.0316869 -0.256341
0.0222038 -0.106731
0.0230256 -0.102068
-0.0410558 -0.366895
-0.0338915 -0.366862
0.000606737 -0.0160901
0.00245754 -0.0154936
0.0183587 -0.272141
0.0238152 -0.276098
-0.00562359 -0.0113094
-0.00430011 -0.00990143
0.0168608 -0.273366
0.0232749 -0.275269
0.0120794 -0.0727731
0.0161077 -0.0725926
-0.0313395 -0.249464
-0.0248722 -0.248649
-0.0231236 -0.382788
-0.0159826 -0.38295
0.00721718 -0.158194
0.0100327 -0.15348
0.00728568 -0.0110964
0.00885493 -0.0125712
-0.030182 -0.411708
-0.032896 -0.405019
0.00603454 -0.00742733
0.00532219 -0.00606965
-0.00178228 -0.0129599
-0.00223661 -0.0148853
0.000226556 -0.414535
-0.00535771 -0.419155
-0.0106547 -0.392606
-0.0173522 -0.395233
0.00778019 -0.461231
0.0135654 -0.465664
-0.0217147 -0.0822287
-0.022741 -0.0865873
-0.0145747 -0.138433
-0.0197798 -0.139732
-0.00941486 -0.0167601
-0.0105645 -0.0155678
0.0131247 -0.362767
0.0202056 -0.363542
0.0294404 -0.395939
0.0364087 -0.394168
0.0381495 -0.427256
0.0373654 -0.434504
0.0107436 -0.0293281
0.013515 -0.0295868
-0.00996686 -0.418102
-0.0152627 -0.423087
0.000919459 -0.0076351
0.00100561 -0.00917305
0.00585758 -0.169217
0.00150913 -0.172893
0.0227113 -0.159709
0.0276 -0.157372
-0.03271 -0.362465
-0.0392095 -0.365611
0.00219257 -0.0497053
0.000674207 -0.0528517
0.00354312 -0.00864012
0.00368953 -0.00726088
0.00178892 -0.124337
0.0063178 -0.122181
-0.0098817 -0.114315
-0.0126602 -0.118567
0.0398045 -0.404068
0.0331042 -0.401259
0.000769393 -0.00367415
-0.000202861 -0.00374213
-0.0354719 -0.408624
-0.0347445 -0.415841
-0.00202139 -0.0230891
-0.00340744 -0.0212346
0.00759289 -0.451682
0.00540221 -0.458674
-0.0231689 -0.244135
-0.0214816 -0.250342
0.0388237 -0.426736
0.0358898 -0.43339
0.0237388 -0.126148
0.0187182 -0.124759
-0.00397017 -0.00249141
-0.00320922 -0.00226773
0.00400531 -0.00350001
0.00306107 -0.00264481
-0.0109996 -0.430841
-0.0098541 -0.438053
0.0214561 -0.225907
0.0164751 -0.221857
-0.00269508 -0.0530248
-0.00620685 -0.0530009
0.000278985 -0.0469907
-0.00154745 -0.0498985
-0.00172961 -0.245157
-0.0066722 -0.241093
0.000561618 -0.0437835
-0.0024532 -0.042699
0.000262249 -3.31214e-05
5.11473e-05 9.13836e-06
-0.0135862 -0.0374785
-0.0106473 -0.0361259
-0.0266231 -0.143008
-0.0265147 -0.137675
0.00823191 -0.0358265
0.00532016 -0.0354775
0.0392263 -0.474724
0.0331367 -0.47881
0.0128424 -0.122598
0.0110664 -0.11779
-0.000502666 -0.0511432
-0.000192775 -0.0476849
0.00218101 -0.336035
-0.00437538 -0.334097
-0.0401987 -0.470486
-0.037111 -0.463822
-0.0352609 -0.362632
-0.0362801 -0.36976
-0.0109367 -0.0926077
-0.0109554 -0.0972439
-0.0257834 -0.407417
-0.0250749 -0.414639
0.0115078 -0.423204
0.0165272 -0.417978
-0.00231804 -0.00589112
-0.00136602 -0.0065689
-0.0201304 -0.344774
-0.0134086 -0.342308
-0.00181715 -0.00130644
-0.00215271 -0.00126073
0.00671093 -0.00932749
0.00542142 -0.00977888
0.0100795 -0.274891
0.00351027 -0.275773
0.0300623 -0.160445
0.0285211 -0.165742
-0.000834174 -0.178878
0.00452979 -0.176776
-0.0113622 -0.138321
-0.0165979 -0.139293
-0.00849113 -0.189371
-0.0122933 -0.194036
0.000343946 -0.322216
-0.00410553 -0.316929
-0.000174853 -0.000731791
-0.00019977 -0.000320505
0.00650472 -0.0913845
0.00413315 -0.0951785
0.0341254 -0.262855
0.0388645 -0.267702
-0.0026176 -0.0803565
-0.00643238 -0.0787115
-0.0028845 -0.0769464
-0.00204311 -0.0811064
0.00465735 -0.00795079
0.00524525 -0.00949887
0.00222509 -0.0419848
0.00215191 -0.0388139
-0.0311141 -0.162048
-0.0282454 -0.156991
-0.0200414 -0.0962984
-0.0154572 -0.0965906
0.0128984 -0.0264692
0.0143814 -0.0291111
0.0128424 -0.261719
0.0081752 -0.266311
-0.0079277 -0.159736
-0.00538976 -0.15472
0.00502829 -0.411251
0.0114617 -0.408004
0.0164651 -0.308191
0.0113477 -0.303584
0.0152583 -0.19963
0.00945 -0.201241
-0.01072 -0.0707393
-0.00955203 -0.0668275
0.00158989 -0.00332549
0.000663047 -0.00313036
0.0123733 -0.343051
0.0190279 -0.340708
0.0182257 -0.0970306
0.020114 -0.101571
-0.0180214 -0.397102
-0.0124942 -0.392443
-0.0116108 -0.368358
-0.0131587 -0.361396
-0.00595339 -0.415176
-0.00416961 -0.422228
0.0308218 -0.256917
0.0342689 -0.251512
0.0011502 -0.177627
-0.00450289 -0.176579
0.00722553 -0.440124
0.0142433 -0.438294
-0.0285174 -0.494818
-0.0336676 -0.489609
0.00350355 -0.0760049
0.00235116 -0.0800545
-0.0222377 -0.202648
-0.0169718 -0.205573
0.00286129 -0.0692302
0.00620689 -0.0672596
-5.15961e-05 -0.00113577
0.000499502 -0.00118622
0.0159105 -0.0343605
0.0137768 -0.0318762
-0.00319297 -0.0150672
-0.00410222 -0.0170263
-0.00187052 -0.452019
0.00522892 -0.453527
0.0121298 -0.0697103
0.00900978 -0.0670092
0.0015704 -0.12831
0.0015244 -0.123175
-0.0243918 -0.118772
-0.0236473 -0.113783
0.0148125 -0.10953
0.0103537 -0.111153
-0.0107419 -0.0155667
-0.00865199 -0.0147754
0.0100378 -0.130911
0.0140541 -0.134408
0.00291538 -0.418592
-0.00111657 -0.412563
0.0382481 -0.27985
0.0316323 -0.278467
0.0270844 -0.196695
0.0331344 -0.196653
-0.00870073 -0.496535
-0.00221422 -0.493271
0.00392581 -0.00592098
0.00512603 -0.00595691
-0.00644673 -0.431679
0.00045539 -0.429476
0.00672575 -0.0315275
0.00861738 -0.0297592
-0.0156632 -0.236763
-0.00937309 -0.235833
-0.00714625 -0.00671306
-0.00569964 -0.00592193
-0.00780636 -0.0205856
-0.00546014 -0.0200199
0.00410132 -0.00290601
0.00337242 -0.00210108
0.00971297 -0.261032
0.0159413 -0.25914
0.00632147 -0.0202725
0.00868279 -0.0206266
-0.00169057 -0.0149799
0.000200109 -0.0146539
-0.00818924 -0.128538
-0.0102018 -0.133415
-0.00632578 -0.0205153
-0.00849771 -0.0220226
0.0282443 -0.165421
0.0226331 -0.164289
-0.0115746 -0.114352
-0.0122848 -0.109547
-0.0146046 -0.194258
-0.0132737 -0.188385
0.0170291 -0.0453749
0.0137431 -0.0453464
-0.0357528 -0.467621
-0.0324768 -0.474167
0.0103099 -0.306362
0.0109255 -0.299526
-0.0117321 -0.0236696
-0.0142822 -0.0250871
0.0187437 -0.189689
0.0245967 -0.191118
0.00594137 -0.0108416
0.00771034 -0.0116914
0.0200437 -0.0498434
0.0174653 -0.0470591
0.00142559 -0.0118825
0.00307329 -0.0127236
-0.00852638 -0.0138833
-0.00800582 -0.0154972
-0.0180446 -0.464576
-0.0252938 -0.463895
-0.0145513 -0.367272
-0.0168305 -0.374087
-0.00977802 -0.0181068
-0.00851989 -0.019523
-0.0253128 -0.423426
-0.0261433 -0.4162
-0.0378982 -0.256125
-0.0348281 -0.250192
0.0149326 -0.0638609
0.0137269 -0.0674205
0.0300205 -0.345112
0.0348872 -0.350436
0.00788225 -0.0726846
0.00998845 -0.0693755
-0.0093655 -0.0181532
-0.00908216 -0.0160668
-0.00947903 -0.236521
-0.014541 -0.232807
-0.0214558 -0.42535
-0.0274672 -0.421343
-0.0201063 -0.104893
-0.0207752 -0.109782
-0.0198069 -0.0489041
-0.0190469 -0.0520532
-0.0041953 -0.47512
-0.0104773 -0.478816
0.00776847 -0.48956
0.00492732 -0.482821
-0.0158516 -0.0464162
-0.0160871 -0.0498055
0.00196795 -0.0558014
0.00420316 -0.0587904
0.022057 -0.0932373
0.0253188 -0.0905145
-0.00744406 -0.2979
-0.0129532 -0.301958
0.0119827 -0.20056
0.012621 -0.206689
0.00831106 -0.377547
0.0153334 -0.376409
-0.0243833 -0.181908
-0.0277535 -0.186975
-0.0350179 -0.452231
-0.0416801 -0.455289
-0.0131995 -0.080985
-0.0167723 -0.0790375
0.00110128 -0.0119805
0.0011523 -0.0102326
-0.00731715 -0.170238
-0.00229444 -0.172895
0.00343039 -0.0215501
0.00126159 -0.0221324
-0.0104391 -0.462047
-0.00891671 -0.454872
-0.0291624 -0.231246
-0.0228217 -0.231488
-0.020078 -0.0887879
-0.016847 -0.0915546
0.00681254 -0.414789
0.000926509 -0.410597
-0.0049908 -0.0172614
-0.00532604 -0.0153005
-0.0333309 -0.259026
-0.0289503 -0.253947
0.00827426 -0.422841
0.00866379 -0.430127
0.0124363 -0.296555
0.0145072 -0.303104
0.00704053 -0.460653
0.010401 -0.454148
-0.011364 -0.0420278
-0.0144024 -0.0415826
0.00857041 -0.174322
0.0114533 -0.179434
0.0329365 -0.454388
0.0395666 -0.451336
-0.00404447 -0.00416362
-0.00380142 -0.00496291
0.00909416 -0.0628115
0.00946763 -0.0667151
-0.0170613 -0.284642
-0.0116652 -0.280557
0.0251386 -0.444797
0.0178951 -0.444174
-0.0064357 -0.285171
-0.00851944 -0.278783
0.0326963 -0.452994
0.0315054 -0.445768
-0.00541051 -0.170453
-0.0103981 -0.167829
0.0204738 -0.353934
0.026236 -0.349803
-0.00991702 -0.309655
-0.0030933 -0.309858
-0.011186 -0.160052
-0.0111666 -0.154467
-0.0102769 -0.108225
-0.0128416 -0.112528
0.00952786 -0.078748
0.0080508 -0.0826877
0.0329073 -0.269786
0.0380515 -0.265821
0.00282309 -0.0874007
-0.000906676 -0.0895882
0.0227956 -0.0645388
0.0194815 -0.0619684
0.026509 -0.34128
0.0248729 -0.334349
-0.0286266 -0.195541
-0.0259804 -0.189971
-0.0304833 -0.293113
-0.0372557 -0.292899
-0.021787 -0.0890965
-0.0259517 -0.0915162
0.00624804 -0.288812
0.011056 -0.293614
0.0148931 -0.420333
0.0217964 -0.422534
0.0188976 -0.0598812
0.0218554 -0.0581621
0.0170456 -0.182588
0.0191289 -0.188205
0.000831902 -0.00124765
0.000308299 -0.00089733
-0.0199976 -0.368951
-0.0139934 -0.365054
-0.0352016 -0.461341
-0.0401815 -0.466738
0.00916387 -0.0626378
0.0105777 -0.0663686
-0.00850051 -0.0123584
-0.0103965 -0.0135655
0.0204997 -0.290651
0.0141367 -0.288314
-0.0199047 -0.296442
-0.0240813 -0.291188
0.00306312 -0.00605413
0.00182227 -0.00555681
0.00734835 -0.0245439
0.00818024 -0.027253
0.00667415 -0.141303
0.00241101 -0.13808
0.00224888 -0.415641
0.00419308 -0.422656
-0.00793726 -0.0135825
-0.00754954 -0.0152708
0.0169591 -0.219098
0.0167107 -0.225444
0.00612659 -0.336271
0.000564622 -0.332216
-0.031236 -0.228767
-0.0337927 -0.223096
0.0151223 -0.103529
0.019654 -0.105484
0.00762871 -0.247522
0.00209625 -0.244189
-0.00331834 -0.0020771
-0.00249166 -0.00140175
-0.0283453 -0.243307
-0.0247311 -0.237815
0.0121578 -0.0356682
0.0120582 -0.0386427
-0.0131394 -0.428109
-0.00701801 -0.431975
-0.0286091 -0.193929
-0.0255777 -0.188563
-0.0221328 -0.253441
-0.0202341 -0.247141
0.0298099 -0.27224
0.0364432 -0.273136
-0.0179913 -0.32614
-0.0110809 -0.325439
-0.0292373 -0.175146
-0.0334325 -0.179528
0.0383786 -0.312662
0.0316056 -0.311111
0.00128906 -0.00125812
0.00193233 -0.00146195
-0.00176512 -0.000923898
-0.00106205 -0.000460098
-0.00549075 -0.00873111
-0.00403907 -0.00778414
0.00149569 -0.00114244
0.00130152 -0.000712409
0.0180859 -0.329315
0.0218035 -0.323456
0.020255 -0.325655
0.0239726 -0.319828
-0.0038654 -0.021723
-0.00628422 -0.0224458
0.013726 -0.0265578
0.0137222 -0.0240518
-0.0357829 -0.439731
-0.0395004 -0.433488
-0.0111843 -0.234588
-0.0161163 -0.230742
0.0087831 -0.0714995
0.0068562 -0.0678662
-0.0369642 -0.427321
-0.0426833 -0.431908
0.0179018 -0.0989343
0.0178744 -0.103729
-0.0293817 -0.385491
-0.0224566 -0.387251
0.0230453 -0.161798
0.0250824 -0.167214
-0.00435243 -0.00996766
-0.0027477 -0.00950681
0.00135375 -0.00934907
0.00207211 -0.0109202
-0.0163809 -0.472244
-0.00944527 -0.474439
-0.018878 -0.251029
-0.0219026 -0.245385
-0.00026766 -0.00273045
-0.000646374 -0.00204329
0.0337419 -0.205581
0.0308246 -0.19997
0.0137384 -0.232653
0.00751894 -0.233658
0.0133426 -0.248689
0.018807 -0.252322
0.0239991 -0.371245
0.0238395 -0.364058
-0.00291371 -0.0858167
-0.00457033 -0.0818259
0.0026072 -0.00421121
0.00227492 -0.00514536
-0.0225556 -0.33089
-0.0156441 -0.331898
-0.000463079 -0.000119149
-0.000459725 -0.000138429
0.00334254 -0.00937131
0.0048586 -0.00932269
0.0237855 -0.167802
0.0294626 -0.168777
-0.0051735 -0.0557591
-0.0048753 -0.0594389
-0.0315185 -0.224657
-0.0337085 -0.218844
0.0325819 -0.19192
0.0354468 -0.19745
0.0242506 -0.167017
0.0262306 -0.161853
0.0199016 -0.473768
0.0141939 -0.478343
0.00621016 -0.00598565
0.0068934 -0.00731186
-0.00600658 -0.0105301
-0.00441346 -0.0105995
0.0170804 -0.0483055
0.0197652 -0.0510269
-0.00650661 -0.321931
-0.00828472 -0.328676
0.000124219 -0.000269457
0.000452586 -0.000393436
-0.0179726 -0.485472
-0.0223379 -0.4796
-0.021554 -0.0654383
-0.0183735 -0.067191
0.00177701 -0.00169914
0.00107659 -0.00137977
0.0231535 -0.345277
0.016065 -0.345103
-0.0223067 -0.330871
-0.0193853 -0.337228
0.000498717 -0.135812
-0.00358092 -0.132572
0.0176086 -0.355041
0.0195138 -0.348108
-0.0102935 -0.0202718
-0.0114676 -0.0226518
0.0297119 -0.316377
0.0283761 -0.323169
-0.0172616 -0.398972
-0.0165866 -0.406184
-0.0109952 -0.389082
-0.0122957 -0.396201
0.0383233 -0.454708
0.0373035 -0.461961
0.0201327 -0.228935
0.0200608 -0.222566
-0.00514768 -0.00730824
-0.00664176 -0.00822315
-0.0206432 -0.13297
-0.0194221 -0.12783
-0.0222221 -0.491479
-0.0295224 -0.491622
0.00375148 -0.00435122
0.00461495 -0.00420247
0.0333459 -0.441934
0.0279019 -0.446774
0.00245457 -0.0152216
0.00089919 -0.0139774
0.0251944 -0.103067
0.0205378 -0.103678
0.0115578 -0.0477048
0.00969211 -0.0503473
0.0154 -0.428078
0.0209462 -0.423411
0.0031128 -0.145992
-0.00205269 -0.147504
-0.0115853 -0.0205998
-0.00963028 -0.0213384
0.0244734 -0.371593
0.01888 -0.376007
0.0261767 -0.424632
0.0332365 -0.423002
-0.0214013 -0.0954163
-0.0191454 -0.0992506
-0.00603352 -0.014232
-0.00663483 -0.0162494
0.0184698 -0.204216
0.0226007 -0.199883
-0.00412251 -0.0127095
-0.00488509 -0.0145879
-0.0033787 -0.0662055
-0.000806482 -0.0691603
-0.00137173 -0.00138747
-0.00186972 -0.00211569
0.0141895 -0.214274
0.0126827 -0.208083
0.00969691 -0.151011
0.004408 -0.149645
-0.0357414 -0.263
-0.032049 -0.268319
0.0255137 -0.194651
0.027723 -0.18921
-0.000957212 -0.157381
-0.00486932 -0.1614
-0.00624716 -0.0102072
-0.00583763 -0.0116326
-0.034859 -0.275152
-0.0327598 -0.28143
-0.00739378 -0.028928
-0.00554496 -0.0306923
-0.00588167 -0.0780643
-0.00192437 -0.0767426
0.016679 -0.448062
0.023699 -0.44998
-0.0248801 -0.106775
-0.026525 -0.102464
8.19978e-05 -0.00208077
-0.000528557 -0.00175245
0.0318079 -0.37761
0.0382646 -0.380873
0.00579283 -0.0419036
0.00814024 -0.0443427
-0.0301272 -0.195119
-0.0318982 -0.189521
0.000781773 -0.00105897
0.00079733 -0.000633251
-0.0171691 -0.328405
-0.0240516 -0.329751
0.00649649 -0.174624
0.0118881 -0.172797
0.0240781 -0.374173
0.030465 -0.377519
-0.028455 -0.152262
-0.032256 -0.156641
0.0176226 -0.22853
0.0118035 -0.230842
0.000301647 -8.51106e-05
0.000200605 -0.000153512
0.0048459 -0.267248
0.0088044 -0.261995
0.0321941 -0.212718
0.0365029 -0.217573
0.0237347 -0.244993
0.0299779 -0.243584
0.0335171 -0.323364
0.0299167 -0.317314
0.0252939 -0.438044
0.0188434 -0.43467
-0.00341842 -0.0166828
-0.00317731 -0.0188119
-0.0146866 -0.106203
-0.0110807 -0.1027
-0.0270226 -0.308813
-0.0314742 -0.314221
0.0158342 -0.357471
0.0223712 -0.354667
-0.0104572 -0.436995
-0.0162126 -0.432584
0.00601952 -0.00567157
0.00594939 -0.0066997
-0.0321152 -0.22518
-0.037423 -0.229008
0.00475094 -0.155636
0.0102522 -0.155911
-0.0257984 -0.434566
-0.0202799 -0.439275
0.0289369 -0.343279
0.0235707 -0.33854
0.0129953 -0.272684
0.0188616 -0.269713
0.0268547 -0.202608
0.0255257 -0.208581
-0.0129075 -0.216254
-0.0149782 -0.222345
-0.0110561 -0.0200237
-0.0132137 -0.0198644
0.00180358 -0.0787063
-0.000898007 -0.081973
-0.00904868 -0.331059
-0.00903204 -0.338076
0.00811435 -0.246027
0.0145299 -0.246604
0.0268089 -0.175568
0.022636 -0.171326
0.0305832 -0.348328
0.0309905 -0.341204
-0.00616073 -0.0529343
-0.00277937 -0.0518474
0.0167309 -0.328615
0.0149071 -0.335372
0.00741617 -0.429482
0.000338396 -0.427991
-0.0084655 -0.249231
-0.0137025 -0.245556
0.00633847 -0.319488
0.0126124 -0.322352
-0.0247603 -0.143184
-0.0222398 -0.138267
-0.00440492 -0.00577456
-0.00364059 -0.00641923
0.0125245 -0.0352364
0.010816 -0.0325512
-0.00802205 -0.0868716
-0.0104955 -0.0906904
0.0234245 -0.209464
0.0193388 -0.204609
0.0103076 -0.0341869
0.0116088 -0.0370767
-0.0086462 -0.0151435
-0.00984025 -0.0141206
-0.0367363 -0.214063
-0.0366761 -0.207813
0.0281638 -0.388483
0.0228549 -0.383567
0.013206 -0.022856
0.0129364 -0.0205104
0.0249987 -0.354178
0.0185622 -0.351033
-0.0181774 -0.0781973
-0.0139706 -0.0775206
0.0303658 -0.472257
0.0339868 -0.478634
-0.0188912 -0.0530999
-0.0197686 -0.0567171
-0.0342295 -0.384638
-0.0413292 -0.385944
0.0317998 -0.272402
0.0374267 -0.269088
0.00535567 -0.00453063
0.00492693 -0.00358931
0.00179232 -0.00673106
0.00286477 -0.00622154
-0.0396408 -0.489648
-0.0383022 -0.482414
0.0224823 -0.117053
0.0270981 -0.119503
0.00636478 -0.0285923
0.00803479 -0.0310899
0.00650765 -0.00940846
0.0048967 -0.00881096
-0.00517159 -0.122653
-0.00127927 -0.125859
-0.0348275 -0.238148
-0.031734 -0.243632
-0.0393072 -0.424516
-0.0330219 -0.420786
0.00907559 -0.0106288
0.0098222 -0.0123656
0.00272937 -0.0591988
0.00494692 -0.0623324
-0.00428871 -0.123305
5.30095e-05 -0.120735
0.0100906 -0.0605469
0.00700056 -0.062484
0.00374984 -0.0421061
0.00598489 -0.0400169
-0.0152469 -0.057356
-0.0115962 -0.0572747
-0.0133909 -0.2324
-0.00716937 -0.233234
0.0244837 -0.0847247
0.0219904 -0.0879879
-0.0339738 -0.280638
-0.0401699 -0.283555
-0.0226955 -0.216994
-0.0218922 -0.223254
0.024974 -0.31303
0.0240544 -0.319886
0.00279878 -0.296036
0.00421745 -0.302739
0.0169285 -0.14013
0.0144013 -0.13533
0.0180989 -0.061655
0.0218607 -0.0616012
0.00494832 -0.121809
0.00464679 -0.116785
-0.0373595 -0.379141
-0.030566 -0.376695
0.02002 -0.107033
0.0238939 -0.110382
0.00317262 -0.00749153
0.00232506 -0.0084915
-0.024622 -0.168395
-0.0195894 -0.165443
0.00238639 -0.00851194
0.00129052 -0.00739195
-0.0118603 -0.156831
-0.0172622 -0.158313
-0.0026825 -0.174757
-0.000686368 -0.180229
0.0352002 -0.406557
0.0405106 -0.411558
0.00639094 -0.0326323
0.00911019 -0.0322847
0.00435414 -0.198319
-0.000944959 -0.195714
-0.0333637 -0.49315
-0.0406544 -0.492303
0.0285571 -0.350337
0.0339718 -0.355101
-0.0137784 -0.192415
-0.01157 -0.197969
-0.0132697 -0.233638
-0.0193395 -0.232036
-0.00568467 -0.0126035
-0.00418465 -0.0112682
-0.0145122 -0.375685
-0.00983232 -0.370254
0.0140796 -0.0576363
0.0169148 -0.060459
0.00623434 -0.0209753
0.00816559 -0.0200479
0.020025 -0.201169
0.0163225 -0.196211
0.023994 -0.0744722
0.0232907 -0.0784192
0.0256854 -0.0842823
0.023845 -0.0879684
0.0108905 -0.0503805
0.00878976 -0.0474361
0.0248436 -0.338968
0.0314129 -0.336558
7.1787e-05 8.55209e-06
0.000357379 -9.18675e-05
0.0299928 -0.397408
0.037185 -0.398096
-0.00172572 -0.0529974
0.00172923 -0.0536941
0.014852 -0.0366044
0.0172308 -0.0390905
-0.00289175 -0.00486494
-0.00361058 -0.00607784
-0.00532257 -0.00676436
-0.00461568 -0.00546929
0.000480782 -0.00331748
9.0851e-05 -0.00245876
0.00607724 -0.381736
0.000134998 -0.377784
0.0212402 -0.0951772
0.0251338 -0.0932135
0.00024334 -2.71316e-05
0.000626386 -0.000236959
-0.0291572 -0.289326
-0.0262798 -0.295387
-0.00156646 -0.246607
-0.00507095 -0.252099
-0.0400003 -0.371121
-0.0330702 -0.372819
0.0324911 -0.307922
0.0391927 -0.309733
0.0398213 -0.35367
0.0389063 -0.360774
0.0314912 -0.19424
0.0302592 -0.200093
0.0129403 -0.0257234
0.0146648 -0.0243599
0.0404171 -0.438788
0.039367 -0.446017
-0.0126898 -0.441772
-0.0123794 -0.449086
0.0102617 -0.327959
0.00696781 -0.321831
-0.0258806 -0.3606
-0.0187899 -0.359898
0.00216948 -0.36625
0.00895073 -0.364298
0.0135999 -0.320262
0.0159793 -0.31377
0.0103798 -0.243889
0.0156899 -0.247662
0.0228004 -0.277295
0.019527 -0.283081
-0.027345 -0.248411
-0.0215198 -0.251038
-0.0135941 -0.324245
-0.0201947 -0.326511
0.00628194 -0.00590498
0.00701414 -0.00722454
0.00606545 -0.0158713
0.00815307 -0.0162613
-0.0211852 -0.261555
-0.0242764 -0.267504
-0.00699786 -0.303006
-0.00852287 -0.296342
-6.7414e-05 -0.0171954
-0.000802778 -0.0152559
0.0129426 -0.31209
0.0197753 -0.312784
-0.0125737 -0.105162
-0.0122042 -0.100267
0.0106183 -0.0296213
0.0114803 -0.0324655
-0.0107954 -0.385589
-0.00693986 -0.379507
-0.0273578 -0.251819
-0.0230071 -0.25652
-0.0218549 -0.0969748
-0.0253185 -0.0943588
0.0141343 -0.402058
0.00771717 -0.405303
0.00356089 -0.320613
-0.00210085 -0.316703
-0.0110934 -0.147901
-0.0163778 -0.149358
-0.00553984 -0.0582807
-0.00670017 -0.0619369
0.0174418 -0.383919
0.0223472 -0.378727
0.0339997 -0.287532
0.0294397 -0.2824
-0.00361734 -0.43465
0.00345435 -0.436205
-0.0149429 -0.424104
-0.0134503 -0.431237
-0.0168843 -0.14139
-0.0210892 -0.138423
0.0193883 -0.122166
0.0148873 -0.119592
-0.00904574 -0.473866
-0.00276043 -0.477534
0.0168893 -0.222849
0.0208733 -0.227907
0.027126 -0.295955
0.0250072 -0.289436
0.0306904 -0.419376
0.0317144 -0.426597
-0.0293129 -0.125252
-0.0269634 -0.120498
0.0282556 -0.204732
0.0313881 -0.210283
0.0362342 -0.213925
0.0309486 -0.217005
0.0300436 -0.368531
0.0310167 -0.375671
0.011899 -0.286656
0.0146974 -0.280562
0.0231688 -0.428357
0.0254272 -0.435306
-0.029276 -0.27381
-0.0229682 -0.27573
0.00156264 -0.260548
-0.00477791 -0.262167
-0.00363853 -0.0496512
-0.00678451 -0.0512649
0.00623364 -0.0146064
0.00509936 -0.012827
-0.0108201 -0.323214
-0.0097074 -0.330104
-0.00853949 -0.0491586
-0.0112088 -0.0473856
-0.000846753 -0.331177
0.00416243 -0.32641
0.00619608 -0.00988307
0.00661214 -0.0115739
-0.00669461 -0.18001
-0.00205227 -0.183502
0.00102179 -0.265506
0.00230354 -0.259021
0.0119863 -0.175292
0.0141603 -0.180767
0.0270795 -0.19392
0.0311901 -0.189825
0.0148109 -0.412125
0.0175681 -0.418861
0.0290052 -0.266806
0.0304091 -0.273365
-0.0289114 -0.465271
-0.0223565 -0.462038
0.0124908 -0.290038
0.0191248 -0.291337
0.00487123 -0.0391312
0.00487916 -0.0360597
0.0108441 -0.458584
0.0175875 -0.461322
-0.0181363 -0.151531
-0.0126852 -0.150975
-0.011745 -0.169107
-0.00992533 -0.174523
0.00310918 -0.0082299
0.00167807 -0.00830946
0.0105678 -0.033487
0.0123476 -0.0361617
0.00644272 -0.418539
0.0118588 -0.423366
-0.0105197 -0.031355
-0.00973363 -0.0339386
0.00645921 -0.0585403
0.0101477 -0.0589347
-0.00439588 -0.0506967
-0.0033773 -0.0473523
0.00471885 -0.195708
0.00856618 -0.200324
0.0200583 -0.163668
0.0213104 -0.158261
0.0231479 -0.29621
0.0293924 -0.293715
0.00139393 -0.000976502
0.000850091 -0.000514105
0.0193015 -0.207371
0.0253202 -0.209068
-0.00360137 -0.462612
0.00283492 -0.465998
0.0120647 -0.172071
0.00759782 -0.175592
-0.0360224 -0.292385
-0.0311906 -0.287441
-0.0148194 -0.174926
-0.013071 -0.169369
0.0384528 -0.320215
0.0348773 -0.326087
0.0224196 -0.336941
0.0266158 -0.34274
-0.0298452 -0.330141
-0.0365275 -0.332535
-0.00718907 -0.00787964
-0.00873241 -0.00910979
-0.0247301 -0.189947
-0.0295677 -0.186794
-0.0351961 -0.270921
-0.0295567 -0.267169
-0.00297419 -0.0411433
-0.00420253 -0.0383142
0.0177906 -0.309267
0.0245887 -0.310297
-0.00921353 -0.0780344
-0.01279 -0.0761585
0.00226449 -0.00260881
0.00169256 -0.00298443
-0.0342182 -0.468449
-0.0377598 -0.474883
-0.0335751 -0.352296
-0.0328905 -0.345144
-0.00271085 -0.480602
-0.00137562 -0.473385
0.0156771 -0.204702
0.0099184 -0.206757
-0.0330124 -0.223271
-0.0305951 -0.21728
-0.00106967 -0.423777
-0.00760039 -0.420685
-0.0129955 -0.0239372
-0.0111087 -0.0217461
-0.0406043 -0.392156
-0.0396552 -0.3993
-0.0159836 -0.0750588
-0.0121407 -0.0762234
-0.028789 -0.350653
-0.0238282 -0.355707
-0.0253675 -0.14596
-0.0199917 -0.145031
-0.00362255 -0.00931345
-0.00214664 -0.00956506
0.00790509 -0.485633
0.0151639 -0.486067
0.00266897 -0.331984
-0.00387092 -0.334031
-0.0252721 -0.120559
-0.0269545 -0.116048
0.0138484 -0.137829
0.0107867 -0.142062
-0.0229107 -0.380066
-0.0258782 -0.37358
0.0385256 -0.394109
0.031331 -0.393505
0.00565806 -0.00405567
0.00454717 -0.00311849
0.0275401 -0.194528
0.033332 -0.196683
-0.0188396 -0.097629
-0.0171709 -0.0931133
-0.0333463 -0.229721
-0.0275485 -0.226799
0.0126722 -0.133716
0.00754728 -0.13268
0.0233162 -0.393025
0.0290487 -0.397458
-0.0184761 -0.204543
-0.0123411 -0.204878
-0.0365395 -0.40325
-0.0361702 -0.410487
-1.5815e-05 -0.0207201
-0.0016004 -0.0192252
-0.0270874 -0.40217
-0.0337507 -0.399504
-0.0256248 -0.448971
-0.0328967 -0.449434
0.000494405 -0.000674831
0.000838369 -0.000618735
-0.0178059 -0.331912
-0.0139959 -0.33778
-0.000463753 -0.000178979
-0.0004105 -9.55867e-05
-0.0289174 -0.335885
-0.0252184 -0.329788
0.00331274 -0.275863
0.00234229 -0.282517
0.00865633 -0.0094468
0.00704687 -0.00913093
0.0203302 -0.472984
0.0275447 -0.471877
0.0152952 -0.0652357
0.0161671 -0.0616264
-0.000159023 -0.0551479
-0.00175097 -0.0519553
0.039799 -0.416151
0.0363391 -0.422515
0.0137623 -0.127633
0.0187159 -0.129317
0.00976523 -0.0162414
0.00783349 -0.0165084
0.0061914 -0.00894459
0.00463459 -0.00861775
-0.00688077 -0.265653
-0.0126138 -0.262519
0.0138919 -0.108645
0.00970386 -0.105933
-0.00125581 -0.000711753
-0.00157888 -0.00119672
0.00123509 -0.000590359
0.000815131 -0.000276374
0.0171321 -0.0536754
0.0135626 -0.0534012
-0.0285497 -0.230511
-0.0323726 -0.225629
0.0111249 -0.159749
0.0125684 -0.165257
-0.00160001 -0.393338
-0.00587693 -0.387567
0.0270008 -0.249424
0.0315316 -0.254305
-0.00878973 -0.0673024
-0.0055026 -0.0650065
0.0146457 -0.0664457
0.0110135 -0.0675604
0.00310023 -0.00160292
0.00241551 -0.00110854
0.0329498 -0.31382
0.0261177 -0.312677
-0.0198669 -0.110716
-0.0246931 -0.112141
-0.00395469 -0.00720581
-0.00440394 -0.00868765
0.00301092 -0.455627
0.00754465 -0.449897
-0.00194241 -0.29977
0.000219741 -0.306282
0.006118 -0.0608325
0.00551915 -0.057104
-0.00197976 -0.00314399
-0.00130427 -0.00358213
-0.0343174 -0.351401
-0.0327626 -0.358371
0.00553624 -0.315972
0.01179 -0.318846
0.0132717 -0.0999076
0.0168338 -0.0971312
-0.0204375 -0.12523
-0.0252798 -0.124079
0.00409432 -0.337663
-0.00224332 -0.335089
-0.0313572 -0.420578
-0.033348 -0.427609
-0.0256122 -0.408757
-0.0281746 -0.415582
-0.0152438 -0.361828
-0.0218922 -0.359402
0.0143468 -0.255282
0.0102091 -0.250168
0.0295245 -0.225852
0.0278947 -0.231946
0.0156836 -0.0692645
0.0154466 -0.06531
-0.000746613 -0.180123
-0.000608586 -0.186029
-0.0367585 -0.312973
-0.0299539 -0.311554
0.0211931 -0.190854
0.0186885 -0.196214
0.00504716 -0.00398491
0.00399053 -0.00306572
0.0108162 -0.152175
0.0116392 -0.157696
-0.0388007 -0.480593
-0.0353709 -0.474095
-0.0250651 -0.0959499
-0.0265914 -0.0918741
-0.00468822 -0.00706426
-0.00348459 -0.00600611
0.00852264 -0.0982979
0.00504351 -0.0951085
-0.0224045 -0.122006
-0.0221809 -0.127071
-0.00177834 -0.417732
-0.00570808 -0.423856
-0.00280544 -0.277116
-0.0011701 -0.283641
0.0267702 -0.210998
0.0313907 -0.215478
-0.0256122 -0.333307
-0.0206979 -0.338255
0.0139937 -0.0532113
0.0171402 -0.0520905
0.0316936 -0.296586
0.0365141 -0.30159
-0.0322624 -0.225728
-0.0301413 -0.219632
-0.00142099 -0.00214482
-0.000951471 -0.0014233
-0.00888608 -0.00942635
-0.00931484 -0.0109734
-0.00492794 -0.0798888
-0.00593232 -0.0758217
0.0388363 -0.441345
0.0397843 -0.434108
0.0140637 -0.449381
0.0178752 -0.45562
0.00256393 -0.0693857
0.0064281 -0.0687111
0.000953719 -0.000374258
0.000422569 -0.000109725
0.0328482 -0.17345
0.0291783 -0.177647
-0.010521 -0.0320705
-0.0121893 -0.0347601
-0.00660333 -0.0422551
-0.00419916 -0.0442373
-0.0093388 -0.015585
-0.0114778 -0.0162502
-0.00839712 -0.0227586
-0.01085 -0.022894
0.00185512 -0.000842447
0.00112007 -0.000429104
-0.019659 -0.149048
-0.0148268 -0.151303
-0.0122952 -0.11777
-0.0163092 -0.115159
-0.0104592 -0.0593552
-0.00712369 -0.0574816
-0.0170739 -0.168424
-0.0156845 -0.173945
-0.00115806 -0.178698
0.00446814 -0.180025
-0.0200187 -0.0516578
-0.0208728 -0.0552319
-0.00153584 -0.00771852
-0.00189121 -0.00643018
0.023309 -0.173526
0.0254964 -0.179035
0.0131915 -0.0859464
0.0144269 -0.0903149
-0.000786256 -0.00175236
-0.00119202 -0.00254294
0.0169723 -0.147741
0.0156507 -0.142421
-0.0073291 -0.385245
-0.00127812 -0.381431
-0.0109019 -0.258573
-0.00756448 -0.252887
-0.00199159 -0.179395
-0.00130434 -0.173602
0.000196796 -8.26245e-05
1.94194e-05 -7.12328e-05
0.0048893 -0.421003
0.0120848 -0.420408
-0.0150074 -0.143318
-0.00978444 -0.144258
-0.0258279 -0.103573
-0.0262756 -0.108438
0.0250356 -0.165738
0.0273259 -0.160747
0.0147879 -0.109767
0.0173246 -0.105789
0.000929597 -0.00145408
0.00106256 -0.00219536
0.0144279 -0.14306
0.0192151 -0.14096
0.0132373 -0.0471458
0.0166387 -0.0477256
0.0151453 -0.0444295
0.0160633 -0.0415638
0.0117555 -0.337677
0.0133933 -0.344622
-0.0105836 -0.0139248
-0.00863518 -0.0128
0.0167768 -0.0706917
0.0206136 -0.0725784
0.0221188 -0.136614
0.0210298 -0.131399
-0.00157482 -0.237127
-0.000655438 -0.243501
0.0218456 -0.309565
0.0153428 -0.307318
-0.0206673 -0.0958951
-0.0242841 -0.0993437
0.00931283 -0.0311631
0.00651989 -0.0305973
-0.0207761 -0.152267
-0.0251763 -0.14934
-2.03987e-05 -0.00025575
7.20135e-05 -5.22918e-05
0.00390002 -0.00862758
0.00291536 -0.00729899
0.00976666 -0.146445
0.0128677 -0.142151
-0.014482 -0.066838
-0.0183876 -0.0668575
-0.000271282 -0.176954
-0.00328942 -0.181967
-0.00593634 -0.148423
-0.00109051 -0.150823
-0.00559681 -0.0356568
-0.00701902 -0.0384765
0.0158598 -0.0581009
0.0122319 -0.0583559
0.0155335 -0.30471
0.0221266 -0.306607
-0.00350045 -0.137832
-0.00738198 -0.134365
0.0032311 -0.00960994
0.00166906 -0.00957708
-0.0426831 -0.449518
-0.0383343 -0.4436
0.0231809 -0.302459
0.0273217 -0.308027
-0.0059287 -0.0124752
-0.00414591 -0.0123981
0.0127552 -0.0216748
0.0144752 -0.0239979
0.0207325 -0.352488
0.0218959 -0.345406
-0.02739 -0.398838
-0.0208295 -0.395791
-0.0284603 -0.182214
-0.029479 -0.176546
-0.00405373 -0.11942
-0.00773815 -0.122911
0.0260147 -0.491116
0.0189293 -0.492912
0.0172379 -0.14165
0.0214739 -0.145225
-0.0216562 -0.0966089
-0.0198993 -0.0921305
0.0229026 -0.26444
0.0259866 -0.270411
-0.0109809 -0.0877399
-0.00658813 -0.0878218
-0.0301626 -0.219134
-0.0239913 -0.22
0.0300135 -0.410604
0.0252672 -0.416052
0.0039679 -0.00253967
0.00307446 -0.00178621
-0.0117611 -0.0188668
-0.0124239 -0.0211713
-4.20376e-05 -0.404524
-0.0046618 -0.398986
0.0334875 -0.263936
0.0309797 -0.269974
0.00161058 -0.432838
0.00280677 -0.440048
0.0192902 -0.289384
0.0126123 -0.288445
-0.0311176 -0.449102
-0.0285137 -0.442249
-0.0255416 -0.297346
-0.0249522 -0.290545
0.00685285 -0.481411
0.0140947 -0.482044
-0.0203898 -0.20055
-0.0238056 -0.195701
0.00831427 -0.197635
0.00250847 -0.19884
0.00942993 -0.161215
0.00412469 -0.159429
-0.025874 -0.165172
-0.0290012 -0.160736
-0.00375953 -0.0647646
-0.000919689 -0.067385
-0.0133841 -0.317477
-0.0146019 -0.310672
0.0170939 -0.139508
0.0164531 -0.134213
0.00389081 -0.147189
0.0010266 -0.151824
-0.00182402 -0.000877944
-0.00121244 -0.000530192
0.0386855 -0.425724
0.0374271 -0.432898
0.00280752 -0.300891
0.00892162 -0.303904
0.0163866 -0.0994945
0.0210485 -0.0993348
-0.0165426 -0.161057
-0.0122012 -0.157364
-0.0268886 -0.111486
-0.02861 -0.116318
-0.0125662 -0.200575
-0.0186627 -0.200872
-0.0286179 -0.248461
-0.0318703 -0.243019
-0.0250899 -0.104698
-0.0205765 -0.102542
0.00716678 -0.0432341
0.00467838 -0.0410348
-0.00630801 -0.0799577
-0.0105227 -0.0800776
-0.0197984 -0.102866
-0.0232944 -0.100041
0.000974325 -0.0604735
-0.00198878 -0.0582443
-0.0330583 -0.169858
-0.0275927 -0.171161
-0.0139779 -0.168557
-0.0178729 -0.164601
0.0171755 -0.0674713
0.0211544 -0.0680185
-0.0247745 -0.125835
-0.0197 -0.126056
-0.00146729 -0.067902
-0.000982444 -0.0639884
0.0258078 -0.107596
0.0286211 -0.111939
0.038783 -0.359187
0.0349265 -0.365174
-0.0328663 -0.408418
-0.0256847 -0.407558
-0.00854649 -0.0479542
-0.00529107 -0.048592
0.0186607 -0.257743
0.0213165 -0.263848
0.000108121 -5.7994e-05
0.00032059 -0.000124493
0.000139191 -0.00315963
0.00101612 -0.00306045
-0.0374131 -0.447017
-0.0330211 -0.441141
-0.0145612 -0.0340322
-0.0131448 -0.0362557
0.017332 -0.432767
0.0160978 -0.425571
0.0254421 -0.206846
0.0304949 -0.210741
-0.025472 -0.353223
-0.018572 -0.354853
0.0153645 -0.262633
0.0185716 -0.268497
-0.00187327 -0.484339
0.00404736 -0.488559
0.0155988 -0.200978
0.0182559 -0.195613
-0.0149017 -0.0783978
-0.0144625 -0.0742149
0.0229533 -0.189802
0.0179307 -0.186415
0.0119165 -0.0482534
0.0130224 -0.0452658
0.00163182 -0.0442423
-0.000564019 -0.0418517
-0.00104892 -0.0775275
0.00196757 -0.0804634
0.0298053 -0.309665
0.0242864 -0.305441
-0.0318925 -0.356893
-0.0390284 -0.35726
-0.0270352 -0.22957
-0.0303747 -0.224332
0.0214065 -0.268219
0.0159562 -0.264356
-0.0147345 -0.262679
-0.0179465 -0.257017
-0.0244558 -0.296704
-0.0226705 -0.290089
-0.00322973 -0.00350433
-0.00412461 -0.00358608
-0.0161922 -0.0594637
-0.0124638 -0.0591413
-0.015142 -0.257818
-0.0209816 -0.255071
-0.0135154 -0.241246
-0.0150568 -0.23505
0.00667333 -0.0138652
0.00843585 -0.0136308
-0.0110572 -0.145859
-0.0126918 -0.151137
0.00776771 -0.0178192
0.00631191 -0.0191476
0.0252748 -0.470464
0.021605 -0.476814
-0.00214146 -0.00180059
-0.00264124 -0.00259137
0.0107786 -0.239883
0.0102462 -0.233476
-0.0342283 -0.179829
-0.028777 -0.177272
0.00395257 -0.384887
0.00936577 -0.380232
-0.0195751 -0.197863
-0.0153461 -0.202081
0.0227086 -0.348167
0.0196901 -0.341634
0.012217 -0.395582
0.0159771 -0.401774
0.0161882 -0.143919
0.0155961 -0.13856
-0.00570786 -0.120752
-0.000809559 -0.119766
-0.0336127 -0.319141
-0.0320087 -0.312343
0.0255659 -0.212573
0.0280648 -0.206989
0.00845856 -0.236905
0.0120469 -0.24229
0.0131732 -0.434875
0.0187417 -0.439569
-0.00472429 -0.0186276
-0.00526121 -0.0209027
-0.0246146 -0.104445
-0.0207756 -0.106943
-0.000563476 -0.000217819
-0.000948817 -0.00041144
-0.0255204 -0.296368
-0.0303399 -0.291733
0.00662187 -0.0150551
0.00463482 -0.0146985
-0.00410072 -0.0405214
-0.00627215 -0.0384711
0.00031482 -0.0654274
-0.00269272 -0.063057
-0.0182389 -0.242476
-0.0196246 -0.23624
0.0230337 -0.211818
0.0194205 -0.216823
-0.0034857 -0.00255661
-0.00406072 -0.00342046
0.0300792 -0.176141
0.034606 -0.180181
0.0188418 -0.455701
0.0135167 -0.450713
-0.0174976 -0.38188
-0.0216327 -0.387815
-0.0218304 -0.122936
-0.0207873 -0.127842
-0.0192624 -0.260005
-0.0127767 -0.259037
-0.0220476 -0.0863013
-0.0232345 -0.0907495
-0.0175873 -0.27664
-0.0162642 -0.270058
-0.0207225 -0.382541
-0.0251628 -0.388262
0.00100557 -0.0197773
0.000312766 -0.0219542
0.0216093 -0.27937
0.0187947 -0.273227
0.0311947 -0.277724
0.0374613 -0.280366
0.0261503 -0.404575
0.0331728 -0.406342
-0.00472578 -0.12792
-0.00787404 -0.123971
-0.0247854 -0.113881
-0.0215781 -0.117339
0.0358796 -0.409113
0.0289098 -0.410999
0.0353072 -0.256891
0.0294898 -0.259685
0.00482406 -0.00569883
0.0053315 -0.00701098
0.00325943 -0.0731504
0.00179396 -0.0770152
0.00444655 -0.0228631
0.00648985 -0.0217966
0.00170526 -0.000750298
0.0010023 -0.000371067
-0.00583225 -0.0875141
-0.0101123 -0.0867693
0.0250247 -0.0794393
0.0226593 -0.0826105
0.00544127 -0.324552
-0.000670683 -0.321401
0.0121711 -0.482907
0.00515934 -0.481
-0.0372849 -0.399097
-0.0382427 -0.406292
0.0149366 -0.0772652
0.0135295 -0.0732333
0.00097887 -0.0475076
0.00266913 -0.0505416
-0.0064665 -0.281677
-0.00402559 -0.275404
-0.0256276 -0.384701
-0.0202563 -0.379863
-0.0153016 -0.0621401
-0.0182044 -0.060179
-0.029844 -0.249166
-0.0274853 -0.24302
-0.0169168 -0.0622403
-0.0205774 -0.0640689
0.0153385 -0.207865
0.01562 -0.201699
0.00721668 -0.14991
0.00510781 -0.144847
-0.0413894 -0.32411
-0.0347124 -0.321809
0.0223086 -0.240812
0.0174908 -0.236419
-0.0049919 -0.128469
-0.00113145 -0.131858
-0.0145921 -0.466328
-0.0136145 -0.459056
-0.0113323 -0.184505
-0.0169425 -0.186449
-0.00127405 -0.0143916
-0.00124857 -0.0164381
0.00974779 -0.031241
0.00729858 -0.0322591
0.0345424 -0.332792
0.03753 -0.339287
0.0194897 -0.492726
0.0124745 -0.494724
-0.0213549 -0.114523
-0.0232642 -0.119311
0.0103136 -0.0295652
0.0127465 -0.0287865
0.0164543 -0.144605
0.0110973 -0.14414
-0.0249192 -0.3383
-0.0240996 -0.345374
0.00972465 -0.154336
0.0143397 -0.157546
0.0190973 -0.442867
0.020293 -0.45009
-0.0120309 -0.414232
-0.00647967 -0.40957
0.00444966 -0.00571596
0.0033137 -0.00477024
0.0132522 -0.0528579
0.0150766 -0.0562097
-0.0168421 -0.0658467
-0.0147409 -0.0688923
0.0225218 -0.253363
0.0182522 -0.2582
-0.00451977 -0.452315
-0.00280671 -0.445192
0.00289212 -0.148903
0.00315889 -0.154415
-0.0114524 -0.111598
-0.0149702 -0.115243
-0.00150353 -0.49536
-0.00522566 -0.489098
-0.00653986 -0.05188
-0.00462459 -0.0488517
-0.0165892 -0.139443
-0.0213769 -0.142108
0.0240173 -0.304353
0.0198964 -0.298809
0.0020562 -0.00203974
0.00153169 -0.00132908
0.0173029 -0.220965
0.0224484 -0.217507
-0.0071375 -0.0157249
-0.00523686 -0.0145947
0.0112825 -0.475488
0.00437369 -0.473228
-0.0215034 -0.0816715
-0.0200257 -0.0855246
-0.0186625 -0.157363
-0.0232936 -0.160774
-0.00760841 -0.249744
-0.00260478 -0.253839
0.00364282 -0.00226216
0.0029906 -0.00219378
-0.0209666 -0.132183
-0.0261281 -0.133463
-0.000240846 -0.156056
0.00273424 -0.160792
-0.0176203 -0.189284
-0.0123333 -0.186451
-0.0077535 -0.159818
-0.0112147 -0.155558
-0.0081427 -0.366887
-0.0151917 -0.366717
0.0126951 -0.459536
0.0107542 -0.452473
0.00336618 -0.00290482
0.0028421 -0.00208931
-0.0148511 -0.0713134
-0.0169597 -0.0681921
-0.00142403 -0.0026095
-0.000992086 -0.00180441
-0.0316304 -0.429337
-0.0247556 -0.42694
-0.0327484 -0.183598
-0.0269534 -0.184316
0.0122198 -0.0991047
0.0074492 -0.0986819
-0.000514973 -0.00234789
-0.000644798 -0.00162006
0.0184827 -0.240521
0.0120996 -0.23997
0.0228522 -0.199967
0.0289225 -0.199772
-0.00691254 -0.0689575
-0.0108582 -0.0689226
-0.0165831 -0.0653462
-0.0181114 -0.0691827
0.0207487 -0.203931
0.0251968 -0.199948
0.0212874 -0.303936
0.0266638 -0.308308
-0.0198094 -0.283263
-0.019538 -0.29002
-0.00711409 -0.273438
-0.00749554 -0.280143
-0.0240282 -0.239097
-0.0253739 -0.245468
-0.0309966 -0.217585
-0.0369581 -0.220033
0.0241988 -0.108217
0.019492 -0.106561
0.0327606 -0.31016
0.0261518 -0.308084
-0.0123946 -0.342169
-0.0109138 -0.335215
0.000999253 -0.154974
-0.0011044 -0.149876
0.0304132 -0.126219
0.0258713 -0.12818
-0.00314782 -0.271563
-0.00244623 -0.264942
0.0229258 -0.250087
0.0268589 -0.245069
-0.0196461 -0.30004
-0.0134192 -0.297205
0.00454635 -0.0533811
0.00537964 -0.0569626
0.0340778 -0.400637
0.0268747 -0.400998
-0.0159231 -0.309971
-0.0194617 -0.315959
-0.00687841 -0.0115818
-0.00554192 -0.0100867
0.00871138 -0.0269021
0.0113526 -0.0270045
0.0300059 -0.181281
0.0241758 -0.18157
-0.00815783 -0.160873
-0.013656 -0.162026
-0.039595 -0.426612
-0.0330393 -0.423387
-0.00551731 -0.0121377
-0.00514823 -0.0103956
-0.0179411 -0.201862
-0.0119367 -0.200564
-0.0168851 -0.256008
-0.0205549 -0.25072
0.00939293 -0.0296616
0.00938922 -0.026911
0.0193834 -0.203329
0.0198169 -0.209549
0.0134124 -0.080613
0.0174319 -0.0796078
-0.0438854 -0.447343
-0.0397972 -0.441242
0.00518828 -0.0685988
0.00862796 -0.0668821
0.00928449 -0.0440959
0.00660109 -0.0457195
0.000746033 -0.421334
0.00794015 -0.420734
-0.0115544 -0.0231513
-0.0108452 -0.025333
-0.0151643 -0.147859
-0.0140233 -0.153173
-0.00658312 -0.469193
-0.00800647 -0.476393
0.0183285 -0.0638863
0.0146667 -0.064633
-0.00902031 -0.0197676
-0.0111379 -0.021471
0.0207312 -0.158131
0.0200574 -0.163673
-0.00822032 -0.271243
-0.00227039 -0.268317
0.012012 -0.367693
0.0191274 -0.367917
0.0311052 -0.163676
0.0282492 -0.168351
-0.00703624 -0.0247679
-0.00872288 -0.0232345
-0.00715461 -0.0117908
-0.00539553 -0.0115617
0.00924761 -0.085888
0.00732256 -0.0898019
0.00378478 -0.274475
0.00759405 -0.280002
-0.00361776 -0.0021784
-0.00276078 -0.00176929
-0.0400548 -0.355095
-0.0338095 -0.358428
-0.0238485 -0.145554
-0.026112 -0.150691
0.0157808 -0.0722204
0.014685 -0.0682349
0.00123479 -0.0135141
0.000264315 -0.0151821
-0.0304052 -0.421268
-0.0342617 -0.415155
0.0151835 -0.10785
0.0168748 -0.103415
-0.0197545 -0.051193
-0.0209583 -0.0547292
-0.00358803 -0.0773825
-0.00131564 -0.0809223
0.00154837 -0.285413
-0.00332466 -0.280802
0.00566213 -0.0199813
0.00342106 -0.0201544
0.0147953 -0.0603919
0.0167641 -0.0639153
-0.0199942 -0.480154
-0.0148944 -0.485385
-0.0238617 -0.25365
-0.0194315 -0.258314
0.0116628 -0.0249543
0.0100601 -0.0225877
0.0223712 -0.461138
0.0152361 -0.462597
0.0290969 -0.477005
0.0218189 -0.476413
-0.0204698 -0.189493
-0.0226147 -0.195207
0.00808733 -0.0298459
0.00694298 -0.0322375
0.00842007 -0.11939
0.0107929 -0.115111
-0.0188718 -0.112422
-0.0226792 -0.11594
0.022734 -0.439913
0.028104 -0.444863
0.0294373 -0.331146
0.0308043 -0.324308
-0.0099748 -0.020874
-0.0076881 -0.0209933
-0.0027509 -0.093083
-0.00658059 -0.0908991
-0.00161811 -0.0938884
-0.00212443 -0.0894476
-0.0205796 -0.0875833
-0.0238654 -0.0911026
0.0199033 -0.281189
0.0264481 -0.282798
0.0278841 -0.452487
0.0213409 -0.455697
0.013394 -0.171102
0.0142067 -0.176863
-0.0028957 -0.00959603
-0.0030173 -0.00809622
-0.0222048 -0.474058
-0.0285336 -0.470425
0.00839553 -0.0154311
0.00879851 -0.0137563
0.00641605 -0.370324
0.0108856 -0.375915
-0.0127439 -0.0251066
-0.0119119 -0.0273176
0.00686493 -0.0428606
0.00989254 -0.0421725
-6.84232e-05 -0.18149
7.60656e-05 -0.175636
0.000888507 -0.000422792
0.00109188 -0.000442867
0.0340237 -0.243707
0.0383963 -0.248727
0.0212693 -0.420393
0.0195451 -0.427466
-0.0244823 -0.10904
-0.027131 -0.113484
0.0126982 -0.0956639
0.0156099 -0.0996091
-0.000169988 -0.0843912
0.000397774 -0.0887721
0.0193198 -0.0735947
0.0159687 -0.0755808
0.00464261 -0.00869481
0.00599895 -0.00997227
-0.00932283 -0.0798966
-0.00677407 -0.0832195
0.0064705 -0.453164
0.0132421 -0.455809
-0.0213449 -0.144284
-0.020797 -0.149649
0.0184365 -0.117251
0.0233747 -0.116952
0.0209342 -0.139778
0.0262608 -0.140401
0.0183445 -0.0755754
0.0142989 -0.0742409
0.0228954 -0.250486
0.016833 -0.248018
0.00580299 -0.017096
0.00568058 -0.0150435
0.027851 -0.275703
0.0212067 -0.27505
-0.0116387 -0.336967
-0.01705 -0.33255
-0.0161083 -0.0758837
-0.0149568 -0.0718171
-0.0111188 -0.166625
-0.0164033 -0.168891
0.0132296 -0.207516
0.0146997 -0.213702
-0.00478875 -0.0108159
-0.0057161 -0.0125341
0.00953349 -0.160068
0.0141947 -0.16333
-0.0227149 -0.322239
-0.0212092 -0.315424
0.0260807 -0.307305
0.0209048 -0.311731
0.00992527 -0.087319
0.0143449 -0.0876857
-0.020951 -0.216616
-0.0271284 -0.215961
0.0128943 -0.124058
0.0166598 -0.127737
0.0133159 -0.0260658
0.0106853 -0.0257913
-0.00741008 -0.476721
-0.00130712 -0.480687
0.0063692 -0.174922
0.0115285 -0.172523
0.0044482 -0.01285
0.00316547 -0.0113692
-0.0399239 -0.330904
-0.039951 -0.337971
-0.04024 -0.370056
-0.0361659 -0.364058
-0.0164157 -0.0651994
-0.0129616 -0.063023
0.00775258 -0.0398924
0.0107653 -0.0395556
0.0273686 -0.457721
0.0315238 -0.463752
-0.0314003 -0.359097
-0.0293814 -0.352165
-0.00247409 -0.435246
0.0022186 -0.440809
-0.0355176 -0.324748
-0.0421123 -0.327368
0.0022972 -0.0213419
0.00061613 -0.0227826
0.00548509 -0.407465
0.0103124 -0.412866
-0.0148049 -0.460566
-0.0220587 -0.461158
-0.0282281 -0.322441
-0.0351942 -0.322904
-0.0224975 -0.212499
-0.0165862 -0.210265
-0.00368105 -0.142118
-0.00686269 -0.137906
-0.0248926 -0.17465
-0.0203312 -0.170859
0.0336217 -0.206858
0.0277864 -0.208572
0.00976967 -0.248557
0.00615577 -0.253931
-0.0364037 -0.355747
-0.0415643 -0.360849
-0.00096554 -0.000454982
-0.000541354 -0.000225037
-0.0214068 -0.484352
-0.0279354 -0.487647
-0.0114368 -0.375198
-0.0172898 -0.371216
-0.0360048 -0.406034
-0.0381687 -0.412995
0.00701389 -0.439208
0.00343181 -0.432856
0.0158023 -0.271468
0.0211709 -0.267706
-0.00779719 -0.0256477
-0.0059434 -0.0273167
-0.0311834 -0.443914
-0.0243017 -0.441495
-0.0332239 -0.227598
-0.0277434 -0.224103
0.00680273 -0.00661797
0.00766215 -0.0080164
-0.0149525 -0.0356016
-0.016041 -0.0332284
-0.0224782 -0.388864
-0.0287944 -0.385549
0.0251009 -0.152843
0.0213481 -0.156647
0.006057 -0.2408
-0.000131599 -0.239255
0.00895406 -0.0966583
0.0133246 -0.098712
-0.00433592 -0.00340012
-0.00374347 -0.00363523
-0.0386608 -0.411845
-0.0402569 -0.418961
0.0128211 -0.39866
0.0198567 -0.397246
0.00753999 -0.0727171
0.0101106 -0.0760901
0.00266951 -0.00152141
0.00230793 -0.00110743
-0.0152781 -0.319568
-0.0114204 -0.313783
0.00482773 -0.375024
-0.00216303 -0.376157
-0.0133121 -0.317837
-0.00651169 -0.31881
0.00782419 -0.168229
0.00866704 -0.162618
-0.0156532 -0.151125
-0.0187501 -0.155861
-0.0121466 -0.18641
-0.0124401 -0.180522
0.0195736 -0.19517
0.0193479 -0.189167
0.0361397 -0.241135
0.0314921 -0.236444
-0.00478045 -0.279253
0.00168747 -0.280851
0.0146331 -0.110992
0.0113886 -0.107156
-0.0250515 -0.308961
-0.0302868 -0.313597
-0.0157363 -0.196976
-0.0176234 -0.202851
-0.00273113 -0.00184238
-0.001898 -0.00128729
-0.0121811 -0.0583967
-0.0150474 -0.0564954
-0.00963386 -0.130412
-0.0147723 -0.130313
-0.00339943 -0.073395
-0.00661777 -0.0710597
-0.0165056 -0.100707
-0.0208932 -0.0994315
-0.00268263 -0.0016457
-0.00297553 -0.0016163
0.0137909 -0.324395
0.0207121 -0.324095
-0.026784 -0.280135
-0.0271721 -0.273458
0.00929817 -0.0950851
0.0129889 -0.0982156
0.0237517 -0.486538
0.0310545 -0.486912
0.0276377 -0.328245
0.0207695 -0.329396
-0.0263731 -0.126126
-0.0212646 -0.126095
0.0240833 -0.236666
0.0266049 -0.242694
0.0263414 -0.385022
0.0306552 -0.37932
-0.0142394 -0.399505
-0.0168104 -0.406299
0.00724745 -0.293674
0.0037154 -0.299486
0.00134476 -0.000662529
0.00176614 -0.000814674
-0.00323917 -0.0916823
0.00106579 -0.091611
-0.0055509 -0.00550069
-0.00434934 -0.00525817
-0.0149814 -0.0804975
-0.0153728 -0.0848292
0.00580165 -0.232787
-0.000499366 -0.232403
0.000112526 -1.41022e-05
0.000353484 -6.39013e-05
0.0118411 -0.070024
0.0155467 -0.0719913
-0.00240877 -0.00131853
-0.00202268 -0.000990764
-0.0341411 -0.25731
-0.0368039 -0.263467
-0.00364492 -0.0115313
-0.0025117 -0.0100716
-0.00708888 -0.154477
-0.0076703 -0.160047
-0.0147858 -0.2025
-0.0171389 -0.208333
0.0352642 -0.338172
0.0392928 -0.332497
-0.00100299 -0.00338118
-0.000266639 -0.00273029
0.0077645 -0.0901881
0.0038074 -0.0921207
0.0304114 -0.479281
0.0300793 -0.471947
0.00314438 -0.268885
0.00876019 -0.272434
-0.0118975 -0.0889118
-0.00977073 -0.0849132
0.0111001 -0.014821
0.0120746 -0.016863
-0.0254572 -0.308946
-0.0304743 -0.304399
0.0258967 -0.324212
0.0195374 -0.326947
0.00170287 -0.0111829
0.00295454 -0.0102348
-0.0149739 -0.157144
-0.0198806 -0.160036
-0.0035056 -0.016723
-0.00471296 -0.0186504
-0.0326292 -0.196589
-0.0295609 -0.201633
-0.0277172 -0.156026
-0.0222284 -0.156418
0.0149571 -0.088389
0.0181033 -0.0919176
0.00165994 -0.0111776
0.00149615 -0.0129768
-0.00285918 -0.00743539
-0.00407372 -0.0085873
-0.000698468 -0.00184402
-0.00113543 -0.00263372
0.000179414 -0.07423
0.00213337 -0.0706596
0.0223461 -0.347849
0.0166958 -0.352156
-0.00483765 -0.471916
-0.0100868 -0.477
-0.0126137 -0.302389
-0.0137354 -0.295652
0.0151618 -0.0421363
0.0141886 -0.0389849
0.0154402 -0.0388063
0.0177863 -0.0373951
0.0117096 -0.277395
0.0174446 -0.274109
0.00428436 -0.0255389
0.00564659 -0.0234245
-0.0159295 -0.259401
-0.0118516 -0.264486
-0.00373419 -0.00588645
-0.00505754 -0.00671656
-0.00699014 -0.487997
-0.00411318 -0.494707
0.00560878 -0.0493917
0.00776463 -0.0469321
-0.0107673 -0.418643
-0.0172594 -0.421877
0.00733922 -0.403199
0.00200093 -0.408054
-0.00464276 -0.0130016
-0.00604347 -0.0146145
-0.0160845 -0.137569
-0.021008 -0.136038
0.0324403 -0.379792
0.0269825 -0.384402
0.00863697 -0.0335891
0.0115559 -0.0342564
-0.0264132 -0.234103
-0.0327613 -0.233681
-0.000423653 -0.171009
-0.00109943 -0.165322
-0.000886105 -0.035758
-0.00307965 -0.0337994
0.01181 -0.441807
0.00738029 -0.436016
-0.0432473 -0.404363
-0.0427753 -0.397133
0.00996808 -0.461082
0.00548803 -0.455316
0.0192299 -0.0870764
0.0171765 -0.0829895
0.0257219 -0.259916
0.0288643 -0.254272
0.0147795 -0.0598851
0.0110799 -0.0600124
-0.000226778 -0.484926
0.00313818 -0.491407
0.00767453 -0.00741904
0.00721129 -0.00616775
-0.000257293 -5.26348e-05
-0.000601945 -0.000294635
0.0392777 -0.450056
0.0351211 -0.456064
-0.0179181 -0.040203
-0.0187079 -0.0434032
-0.0242527 -0.185465
-0.0203051 -0.189693
-0.00805579 -0.0302747
-0.0100569 -0.0287258
-0.00608955 -0.0233748
-0.00864409 -0.0238908
0.0274917 -0.182551
0.0311896 -0.178278
0.0251776 -0.103946
0.0284951 -0.107894
-0.0370678 -0.371217
-0.0359226 -0.364105
-0.0298818 -0.186155
-0.0244754 -0.188262
-0.00175504 -0.308537
0.00488873 -0.310091
-0.00756408 -0.131947
-0.00960004 -0.136864
0.0154003 -0.146509
0.0146839 -0.151901
-0.0137036 -0.311717
-0.0074087 -0.308961
-0.0324341 -0.251871
-0.0378961 -0.255752
0.0311015 -0.251198
0.0358666 -0.255895
0.00153847 -0.000696299
0.000862156 -0.000300841
0.000305144 -0.000569965
0.000762786 -0.000800861
-0.0303121 -0.454078
-0.0312322 -0.446821
-0.0157181 -0.0755295
-0.0130634 -0.0721145
0.0159875 -0.0792245
0.0197042 -0.0817692
-0.00171818 -0.00162891
-0.00244524 -0.00234611
-0.00940275 -0.338592
-0.0160386 -0.336348
0.0372145 -0.381425
0.0400447 -0.388097
-0.00984357 -0.240149
-0.00352621 -0.239322
-0.0232757 -0.346724
-0.0263253 -0.353282
0.00440931 -0.0167307
0.00377895 -0.0147057
-0.000688329 -0.0592196
-0.00435946 -0.0597701
-0.00031442 -0.0017033
-0.000877081 -0.0023212
-0.00976068 -0.0519895
-0.0120668 -0.0496805
0.000955767 -0.313138
-0.00524185 -0.310245
-0.0150346 -0.482813
-0.00926714 -0.478338
0.0275308 -0.143883
0.0230529 -0.146543
0.00360161 -0.0191905
0.00423932 -0.0214525
0.0303075 -0.261231
0.0298636 -0.267818
-0.0345908 -0.329051
-0.0339709 -0.322059
-0.0183997 -0.324578
-0.0250879 -0.326668
0.0191832 -0.13482
0.0218412 -0.139586
0.000547599 -0.00388645
-0.00011037 -0.00312338
0.0370249 -0.42687
0.0364704 -0.434141
0.000368321 -0.000173491
0.00012054 -1.04593e-05
0.019986 -0.313837
0.0131186 -0.31372
0.00843132 -0.186369
0.0129169 -0.190307
-0.0373068 -0.252595
-0.0363261 -0.259015
0.00887435 -0.0658371
0.0110493 -0.069311
0.0340309 -0.240392
0.0325905 -0.246627
-0.00315011 -0.18289
-0.00063542 -0.188237
0.00915935 -0.129418
0.0142273 -0.128821
0.0320514 -0.146638
0.0279805 -0.142691
-0.041479 -0.444999
-0.0373347 -0.450988
-0.00299545 -0.0149964
-0.00380306 -0.0133552
-0.0135144 -0.224931
-0.0187009 -0.221549
-0.00371859 -0.0600881
-0.00351441 -0.0639078
-0.0301207 -0.276687
-0.0330235 -0.270798
0.000370673 -0.168695
0.00433738 -0.172841
0.00184658 -0.40894
0.00712273 -0.404012
0.0152444 -0.154546
0.0100637 -0.152536
-0.023054 -0.440014
-0.0260525 -0.446699
0.0115957 -0.111015
0.00741139 -0.113216
0.0202471 -0.164886
0.0178082 -0.159676
-0.0136995 -0.0577329
-0.0152184 -0.054667
0.0104564 -0.0135312
0.0111834 -0.0154764
-0.00563849 -0.0726546
-0.00796601 -0.069475
-0.0209294 -0.0910232
-0.0219679 -0.0956128
0.00075881 -0.000915208
0.000840985 -0.000581776
-0.0133829 -0.306642
-0.0141914 -0.31351
0.00179718 -0.394143
0.00829946 -0.397187
0.00412817 -0.378567
0.00775961 -0.372421
-0.0111544 -0.0216408
-0.00930062 -0.0196422
-0.00306537 -0.399766
-0.00123564 -0.392762
-0.0105294 -0.0392111
-0.0120526 -0.0368638
-0.00789873 -0.158672
-0.0121814 -0.162399
-0.00613739 -0.0356355
-0.00425557 -0.0333053
-0.0286582 -0.302718
-0.0276518 -0.295923
0.0115914 -0.290154
0.0101986 -0.283511
0.00331264 -0.246891
0.00146004 -0.240686
0.00406029 -0.0463781
0.00464934 -0.0431473
-0.0320588 -0.446718
-0.0360777 -0.452857
-0.0263366 -0.162014
-0.0316476 -0.160618
-0.00643426 -0.0694203
-0.00715592 -0.0734615
-0.0359313 -0.251265
-0.0329095 -0.245354
-0.0166331 -0.268
-0.0177317 -0.274606
-0.0206165 -0.439544
-0.0142724 -0.435964
-0.00892121 -0.0229905
-0.0111879 -0.0247618
0.0041594 -0.0693766
0.00487143 -0.0734093
0.0305921 -0.138026
0.0263338 -0.134476
0.00167778 -0.00112075
0.00229463 -0.0013358
-0.0138185 -0.216456
-0.0148986 -0.210225
0.0188709 -0.419486
0.0116465 -0.41936
1.77593e-05 -0.00794035
-5.65877e-05 -0.00950461
-0.0219321 -0.357949
-0.0170201 -0.363067
0.0212481 -0.222513
0.0150302 -0.221386
-0.016167 -0.0491051
-0.0130783 -0.0471117
-0.0167393 -0.0626367
-0.0142271 -0.0594572
-0.0199024 -0.232958
-0.0255332 -0.230239
-0.00435379 -0.00364919
-0.00548341 -0.00462359
0.0177367 -0.292797
0.0128403 -0.288053
-0.00274078 -0.00681516
-0.0034816 -0.00821027
-0.0161729 -0.341017
-0.0203489 -0.346909
-0.00032618 -0.000102718
-0.000280019 -4.00372e-05
0.0352233 -0.406183
0.0422464 -0.408051
0.0125395 -0.463909
0.0108989 -0.471061
-0.000914517 -0.0859092
-0.00101091 -0.0815448
-0.032866 -0.489711
-0.0255578 -0.489548
0.00368797 -0.00541628
0.00462011 -0.00663643
-0.0131051 -0.0317007
-0.0114409 -0.0290713
-0.000871005 -0.0033289
-0.00147953 -0.00428768
0.0278695 -0.245317
0.022398 -0.248582
-0.00825078 -0.245548
-0.00764625 -0.239105
0.00527372 -0.143903
0.00746606 -0.139057
0.0220553 -0.183135
0.0185585 -0.187744
-0.000128663 -0.00840123
-0.00025279 -0.0100038
0.032732 -0.408956
0.0312168 -0.416048
-0.031544 -0.226445
-0.0363774 -0.230876
0.00760403 -0.0424246
0.00704017 -0.045603
0.00821632 -0.0833961
0.0112762 -0.0866551
-0.0273461 -0.182397
-0.0328859 -0.184867
0.0252286 -0.192156
0.020704 -0.195898
-0.00444171 -0.0186801
-0.003488 -0.0166396
0.00720416 -0.146042
0.00386687 -0.150282
-0.00325638 -0.00557355
-0.00237145 -0.00616513
0.00431635 -0.0171897
0.00644775 -0.0174896
0.0091949 -0.0214326
0.00701911 -0.0199797
-0.00633737 -0.48679
-0.0135789 -0.486222
0.0191761 -0.151702
0.018943 -0.157223
-0.0202305 -0.479264
-0.0271164 -0.476856
-0.0131518 -0.225285
-0.0153309 -0.219411
-0.0151341 -0.0452471
-0.0118546 -0.0451741
-0.00305332 -0.455454
0.00174717 -0.460946
-0.00852974 -0.0554281
-0.00958074 -0.0521117
0.00848166 -0.0326663
0.00746495 -0.0298821
0.00261483 -0.0367419
0.00498387 -0.0350901
0.0233203 -0.448891
0.0279721 -0.443275
0.0327293 -0.180594
0.0312571 -0.186175
0.0198008 -0.104219
0.016062 -0.10696
-0.000729943 -0.000479738
-0.00127149 -0.000849426
-0.00672567 -0.394507
0.000425801 -0.394271
0.022839 -0.490033
0.0235506 -0.482719
-0.0115011 -0.0326376
-0.00967218 -0.0301182
0.0258436 -0.322885
0.0309001 -0.318235
0.00858731 -0.0165555
0.00649756 -0.0163775
-0.020462 -0.40884
-0.0270046 -0.405863
-0.0418088 -0.369232
-0.0346479 -0.369456
-0.033342 -0.219901
-0.0270524 -0.219327
-0.00535339 -0.11909
-0.0088336 -0.115668
0.0269116 -0.16928
0.0312117 -0.165873
0.000946433 -0.0112668
0.00260928 -0.0111363
0.00251208 -0.322836
-0.00216767 -0.317756
0.0237972 -0.454621
0.0230636 -0.447333
0.0214645 -0.243859
0.0279155 -0.244159
0.0058995 -0.0108063
0.00594148 -0.0125117
-0.0276715 -0.456751
-0.0209554 -0.453888
0.000267088 -0.00180866
0.000946732 -0.00181923
-0.00850079 -0.158389
-0.0110658 -0.163465
0.0146751 -0.429382
0.0113334 -0.422905
-0.0295016 -0.36125
-0.0249378 -0.366686
0.0413972 -0.394702
0.0402628 -0.387555
0.0110882 -0.0541997
0.0103406 -0.050658
0.000647176 -0.000243793
0.000265743 -3.32373e-05
0.00533686 -0.322791
-0.000881013 -0.325734
0.0213004 -0.146417
0.015975 -0.14703
-0.000430028 -0.00107711
-0.000957095 -0.00158088
-0.00336147 -0.00461378
-0.00253757 -0.00360148
0.0199496 -0.0784085
0.0238588 -0.0773861
-0.00317112 -0.317336
-0.00320452 -0.310404
-0.00892084 -0.0658478
-0.00584554 -0.0633116
0.00105764 -0.124406
0.00320896 -0.129092
-0.0306578 -0.37991
-0.028451 -0.373034
0.00517682 -0.0245761
0.00751431 -0.0262794
-0.0105245 -0.018288
-0.00950179 -0.0161625
-0.00911928 -0.0122423
-0.00797981 -0.0105347
-0.0231902 -0.176677
-0.0178995 -0.174061
-0.0277848 -0.228431
-0.0340912 -0.227958
-0.0222935 -0.257786
-0.0181248 -0.262742
0.00207715 -0.00585023
0.00237776 -0.00478182
0.0225452 -0.180557
0.0192515 -0.185274
-0.0057306 -0.0070881
-0.00520456 -0.00805316
0.0102204 -0.0308117
0.00786924 -0.0319823
0.0381737 -0.243063
0.0322028 -0.240287
-0.0335968 -0.322887
-0.0281017 -0.31845
-0.00116411 -0.000502861
-0.000725349 -0.000256244
0.0213288 -0.464498
0.0202785 -0.457242
-0.00411698 -0.0467768
-0.00190276 -0.0442214
0.017602 -0.287291
0.0239963 -0.285353
0.0127141 -0.405157
0.00638468 -0.401702
0.0248455 -0.36928
0.020801 -0.375161
0.0180754 -0.0698113
0.0147197 -0.0716244
-0.00451138 -0.0121662
-0.00563309 -0.0111479
0.00411644 -0.0531897
0.00763805 -0.0536882
0.024805 -0.370954
0.0267959 -0.377887
0.0035642 -0.446832
0.00332291 -0.454156
-0.0193289 -0.113553
-0.0180094 -0.118226
0.0132319 -0.0250988
0.0115475 -0.0227297
0.00522933 -0.382516
0.00119753 -0.388454
-0.000273051 -0.14886
0.00464378 -0.151211
0.0168918 -0.371162
0.0123524 -0.365605
0.000611805 -0.00303461
0.00044367 -0.004021
-0.0152435 -0.0385679
-0.0147581 -0.0355379
0.0205151 -0.175795
0.0206971 -0.170037
-0.0111916 -0.0497137
-0.00845542 -0.047355
-0.0107601 -0.0494821
-0.0136429 -0.0480777
-0.0261591 -0.244086
-0.0274556 -0.237832
-0.00236051 -0.00518255
-0.00353377 -0.00598455
0.000641892 -0.00130585
0.000270464 -0.00178256
0.0061852 -0.0403602
0.00469496 -0.0375252
-0.00470777 -0.228635
-0.00713147 -0.2345
0.0141332 -0.0950294
0.0150903 -0.0906437
0.0115688 -0.271487
0.00674118 -0.266893
0.0216616 -0.121895
0.0267408 -0.122432
-0.0260403 -0.191728
-0.0219962 -0.187109
0.0349803 -0.487661
0.0406683 -0.492315
0.0211845 -0.376022
0.0140495 -0.376218
-0.00706394 -0.38251
-0.0137928 -0.384934
-0.00735727 -0.0152454
-0.00627192 -0.0166663
0.0170414 -0.168582
0.0188485 -0.163279
0.000434296 -0.485261
-0.00142754 -0.492344
0.000879152 -0.00043976
0.00140764 -0.000901434
0.00755312 -0.0226092
0.00594723 -0.0242558
-0.00246101 -0.0234469
-0.00060072 -0.0221194
-0.00495837 -0.00953113
-0.00547184 -0.00834614
0.00286332 -0.00190849
0.00264241 -0.00143865
-0.0113822 -0.0292228
-0.00935171 -0.0307077
0.00207184 -0.0375958
-0.000465526 -0.0393171
-0.0296511 -0.214953
-0.0353804 -0.212796
-0.00743196 -0.477768
-0.0106819 -0.484334
0.0233229 -0.264397
0.0271705 -0.26992
-0.024565 -0.273371
-0.0212344 -0.279073
0.0157038 -0.363082
0.0194469 -0.369222
0.00615609 -0.0084094
0.00718709 -0.00994431
0.00181091 -0.0767919
0.00575215 -0.0781496
-0.000332176 -0.000866825
0.000138658 -0.000811575
0.000234946 -0.471298
0.0037942 -0.464892
-0.00165749 -0.00490855
-0.00254362 -0.00596198
-4.51094e-05 -0.0101378
-0.001257 -0.00915447
0.0074788 -0.0682701
0.00822367 -0.072282
-0.00415727 -0.452183
-0.00779833 -0.458536
0.0171632 -0.0402617
0.0157174 -0.0372461
-0.00170677 -0.00109039
-0.00205908 -0.00112373
0.0169957 -0.260071
0.0231313 -0.257954
0.0191033 -0.0666547
0.0210341 -0.0704107
0.00289219 -0.0706964
0.00250676 -0.0666984
0.00416122 -0.282095
0.00249819 -0.288645
-1.95231e-05 -0.000622468
-0.000391127 -0.000545333
0.000379978 -0.000101786
0.00015571 -1.78778e-05
0.000509506 -0.000181245
0.00116904 -0.000455463
0.0275537 -0.484871
0.0230803 -0.49069
0.00114401 -0.00055949
0.00162659 -0.00104803
-0.0223841 -0.378196
-0.0251685 -0.37163
0.00451289 -0.00808351
0.00579939 -0.0093633
-0.039224 -0.347544
-0.0347082 -0.352961
-0.00113015 -0.0632211
0.00242894 -0.064634
0.0164695 -0.109485
0.0124674 -0.112009
-0.00893752 -0.159423
-0.00592215 -0.154674
-0.00208271 -0.0117959
-0.000403135 -0.0121515
-0.0209008 -0.179613
-0.0208274 -0.185492
-0.0395425 -0.395643
-0.0402254 -0.388472
-0.0248036 -0.30672
-0.0205532 -0.301242
-0.0057705 -0.00435902
-0.00672587 -0.00548641
-0.0278117 -0.31556
-0.0345708 -0.314292
2.05393e-05 4.15232e-06
0.000274892 -3.7533e-05
0.0406062 -0.398465
0.0336029 -0.3966
0.0228693 -0.162828
0.026877 -0.167102
0.000564336 -0.0933743
0.00488724 -0.0937874
0.0156646 -0.033654
0.0137392 -0.035404
0.0041958 -0.00690413
0.003127 -0.00577779
-0.00186455 -0.00114974
-0.00170934 -0.00139103
0.0108058 -0.0310736
0.00883866 -0.0287261
-0.0130602 -0.149223
-0.00891309 -0.145577
-0.0220925 -0.227173
-0.0274077 -0.223973
0.0143015 -0.4378
0.00792944 -0.441286
0.00879121 -0.464708
0.0160331 -0.464032
0.0280185 -0.308969
0.0304745 -0.302618
0.0379371 -0.331107
0.0355379 -0.33767
0.000263278 -0.233399
-0.00150698 -0.239548
0.0210742 -0.164132
0.018277 -0.168936
-0.00109173 -0.00390374
-0.00198612 -0.00472976
-0.0165116 -0.12122
-0.0199467 -0.125225
-0.00450452 -0.00833299
-0.00559011 -0.00780506
0.0168992 -0.0634566
0.0178976 -0.0673445
-0.0335536 -0.449077
-0.028954 -0.443368
0.0303548 -0.138606
0.0253142 -0.139867
0.00424235 -0.0111355
0.00412214 -0.012878
7.03374e-05 -2.43929e-05
0.000195472 -0.000242796
-0.0165161 -0.0472036
-0.0139487 -0.0489431
-0.00621906 -0.076884
-0.00236115 -0.0753316
0.0101688 -0.0234345
0.00830028 -0.0247129
-0.0377929 -0.234122
-0.0335387 -0.238676
-0.0296338 -0.211218
-0.0239934 -0.208287
-0.00134169 -0.439763
0.005524 -0.437421
0.0236979 -0.468034
0.0308566 -0.469472
0.000678834 -0.465523
0.000391396 -0.472858
-0.0176489 -0.182059
-0.0118095 -0.181855
0.0154783 -0.327832
0.0158066 -0.320867
0.00554068 -0.00617759
0.00441447 -0.0050611
0.0213067 -0.287477
0.0157978 -0.291274
0.00924303 -0.0199881
0.00706846 -0.0187124
0.00772889 -0.0136673
0.00656257 -0.0119127
0.00764372 -0.0138396
0.00846845 -0.0125458
-0.0165661 -0.0765621
-0.0152133 -0.0803966
-0.0233025 -0.437656
-0.0305686 -0.437662
-0.0182939 -0.28207
-0.014372 -0.287472
0.031619 -0.324638
0.0379296 -0.327841
0.000970845 -0.0196173
0.00178105 -0.021756
-0.00399312 -0.010238
-0.00262197 -0.00911298
-0.0278112 -0.295345
-0.0316676 -0.301106
-0.000145089 -0.000138327
7.58094e-05 -0.000148281
-0.00672422 -0.0159319
-0.00471337 -0.0159298
-0.0283317 -0.223449
-0.0311691 -0.229287
-0.00730619 -0.0947529
-0.0112094 -0.0925521
0.0175674 -0.0930961
0.0131649 -0.0939825
0.0345536 -0.276925
0.0298282 -0.28151
-0.0111196 -0.0966954
-0.00644647 -0.0962178
-0.00409661 -0.38668
-0.00655863 -0.379934
0.0379012 -0.388253
0.0338287 -0.382249
-0.0283974 -0.416917
-0.0264317 -0.423906
0.00812155 -0.0497646
0.010582 -0.0524954
-0.0336338 -0.31492
-0.0383549 -0.310051
-0.0295239 -0.135764
-0.0298086 -0.130596
-0.0155799 -0.126663
-0.0110223 -0.124149
0.00183635 -0.474794
0.00381608 -0.467728
-0.0401029 -0.480608
-0.0363576 -0.486918
0.000928889 -0.0672179
-0.000641158 -0.0636315
0.0212733 -0.4836
0.0260332 -0.489164
-0.00516464 -0.00856443
-0.00430536 -0.00952391
-0.0292069 -0.383308
-0.0329618 -0.389517
0.0164021 -0.0657963
0.012539 -0.064858
0.0167124 -0.42465
0.0237382 -0.426446
-0.0135176 -0.110911
-0.00878702 -0.111388
0.00357502 -0.00377051
0.00261951 -0.00371343
0.0135991 -0.0385003
0.0150807 -0.0362072
-0.0310996 -0.138483
-0.0258063 -0.138509
-0.0114478 -0.454475
-0.00469957 -0.451751
-0.00349394 -0.00792058
-0.00299363 -0.00920641
5.31741e-05 -0.0140601
2.37904e-05 -0.01216
0.0090028 -0.0348806
0.00727209 -0.0323182
0.0213303 -0.198218
0.0194642 -0.203963
0.0137618 -0.172339
0.0194153 -0.173531
0.0250911 -0.337473
0.0230437 -0.330686
-0.0262951 -0.166527
-0.031761 -0.16861
-0.0162144 -0.237039
-0.0224638 -0.23602
0.0161959 -0.0746507
0.0132371 -0.0715179
-0.00808314 -0.248248
-0.00197465 -0.250268
-0.00212712 -0.0409228
0.000975964 -0.041422
-0.0181829 -0.0791526
-0.0215324 -0.0770704
-0.0211977 -0.1769
-0.0161579 -0.173826
0.00526794 -0.444506
-0.000816393 -0.440537
-1.16639e-05 -3.2144e-06
-0.000298043 -6.70273e-05
0.00213612 -0.398162
0.000641259 -0.391087
-0.00477388 -0.0577472
-0.00798098 -0.0597931
-0.000945542 -0.00202285
-0.000240538 -0.00176739
-0.0350858 -0.324825
-0.0283177 -0.326359
-0.019504 -0.252987
-0.0247301 -0.24931
0.018078 -0.106109
0.0154878 -0.110044
0.00698199 -0.0835283
0.0109857 -0.0821953
-0.0212134 -0.434507
-0.0196744 -0.441642
0.021534 -0.0799926
0.0223642 -0.0843057
-0.0065139 -0.336625
-0.00264591 -0.330853
0.0189195 -0.488759
0.0203866 -0.481562
0.00378001 -0.373052
0.00962794 -0.37714
0.0234071 -0.269402
0.0291634 -0.26632
-0.0308909 -0.236176
-0.0251253 -0.238704
0.00165625 -0.291736
-0.000892744 -0.298057
0.00924061 -0.0319567
0.00662071 -0.0305451
-0.00251686 -0.0435875
-0.00510733 -0.0457261
0.00470488 -0.0726095
0.00871979 -0.0724182
0.000425279 -0.000472291
0.000883917 -0.000790331
0.0167317 -0.179907
0.0195033 -0.174909
-0.00738031 -0.0401081
-0.0104829 -0.0409336
-0.00806405 -0.261117
-0.0119781 -0.255912
0.0189298 -0.182965
0.0146765 -0.178792
-0.0051214 -0.0170183
-0.0061203 -0.0154384
-0.0106004 -0.245717
-0.0142825 -0.25114
0.0214582 -0.0931484
0.017162 -0.0942995
0.0227028 -0.219004
0.023302 -0.225355
-0.00629821 -0.0320828
-0.00819814 -0.0303352
-0.00759138 -0.185199
-0.00998002 -0.190677
-0.0179407 -0.0604499
-0.0184626 -0.064278
0.0236421 -0.350557
0.0234865 -0.34338
0.0340594 -0.438468
0.0373728 -0.431985
0.000537579 -0.00177403
0.000146286 -0.00118138
0.0238056 -0.258371
0.0297189 -0.261444
-0.000178229 -0.0512053
0.00241557 -0.0536236
0.00264941 -0.00134952
0.00197793 -0.000880717
0.00542259 -0.00937032
0.00506215 -0.00784959
0.000743177 -0.000235968
0.00126919 -0.000505465
0.0337836 -0.402878
0.0378016 -0.408956
-0.00257836 -0.296245
-0.0017622 -0.303047
-0.0110525 -0.378449
-0.0105208 -0.371292
0.0337519 -0.206301
0.03496 -0.212497
0.00256039 -0.0382874
0.00540482 -0.0374252
0.026499 -0.135806
0.0255649 -0.140941
-0.0418648 -0.440483
-0.0376009 -0.434511
0.00292775 -0.0140766
0.0026502 -0.0121819
0.0134683 -0.0441221
0.0122107 -0.0409637
0.00557831 -0.178244
0.0035188 -0.183724
0.0109246 -0.0269886
0.00883733 -0.0248823
0.0354573 -0.417541
0.0331879 -0.424438
-0.00072253 -0.165045
0.00413773 -0.167949
0.00296456 -0.00254421
0.00249993 -0.00178885
-0.0159232 -0.148371
-0.0130537 -0.152902
0.0267646 -0.176962
0.0294446 -0.172032
0.00242128 -0.0372976
0.00194081 -0.0403626
-0.0374785 -0.428263
-0.0328607 -0.43385
-0.000609346 -0.155202
0.00290132 -0.150971
0.00779084 -0.0897408
0.00659075 -0.0854459
-0.0320314 -0.43509
-0.0332494 -0.442307
0.0312287 -0.374444
0.0269914 -0.380194
0.0380123 -0.284587
0.0329431 -0.279953
-0.0296054 -0.298322
-0.0355368 -0.295193
0.000103375 -0.0353614
0.00214625 -0.0376061
0.0273405 -0.128888
0.0282225 -0.123942
-0.0120977 -0.25793
-0.0182152 -0.255819
-0.00246203 -0.00900214
-0.00402203 -0.00938666
0.01648 -0.0658539
0.0200849 -0.0648941
0.000969816 -0.000409279
0.000763247 -0.000245885
0.00657269 -0.282884
0.0116054 -0.278513
0.012427 -0.328137
0.0183222 -0.324501
-0.00411224 -0.150371
0.00123499 -0.149433
0.00959216 -0.0185468
0.0114355 -0.0204679
0.000655079 -0.270704
0.00245028 -0.27715
0.0327274 -0.269181
0.0389328 -0.267097
0.0203124 -0.0709275
0.021703 -0.0674475
-0.00652786 -0.0383905
-0.00429923 -0.0361825
-0.0135785 -0.229547
-0.0163411 -0.223937
0.0182945 -0.055845
0.014959 -0.0538794
-0.0141232 -0.0450138
-0.0124173 -0.0475744
-0.0233203 -0.186291
-0.0270666 -0.191153
-0.0297885 -0.411143
-0.0225816 -0.411538
0.0361396 -0.339321
0.0379761 -0.33255
0.00989364 -0.0190824
0.00979884 -0.0212876
0.00370827 -0.370299
-0.00308537 -0.372236
-0.00133824 -0.2002
-0.00724586 -0.199753
-0.0131744 -0.455707
-0.015729 -0.462581
0.0185781 -0.378728
0.0257366 -0.378839
-0.0275314 -0.468698
-0.0307059 -0.475316
0.0147871 -0.131285
0.0192099 -0.12889
-0.0363457 -0.300763
-0.0306275 -0.304321
0.0186355 -0.0912204
0.0141059 -0.0907965
0.0213683 -0.230792
0.0156493 -0.233387
0.00417916 -0.083405
0.00275275 -0.0793243
-0.0262751 -0.209965
-0.0220926 -0.2144
-0.00484397 -0.159533
-0.00137304 -0.163921
0.02871 -0.298547
0.0335038 -0.303572
0.0342646 -0.311856
0.0305459 -0.305946
-0.0265884 -0.48933
-0.0264383 -0.481984
0.0287531 -0.133215
0.0268881 -0.13795
0.0377451 -0.448054
0.0305094 -0.447091
0.0014861 -0.00096135
0.00157967 -0.0014309
-0.0263889 -0.471242
-0.019138 -0.470479
-0.00711023 -0.0585914
-0.00704492 -0.0549096
0.00928217 -0.20135
0.00852582 -0.207447
0.0156026 -0.241962
0.0159662 -0.235543
-0.0302467 -0.365134
-0.0367043 -0.36219
-0.00613668 -0.138187
-0.000977476 -0.137128
-0.0155937 -0.0418832
-0.0124101 -0.0408781
0.00322028 -0.0184056
0.00192594 -0.0166311
0.0195147 -0.0555667
0.0198157 -0.0521226
-0.0350909 -0.296669
-0.0306378 -0.291359
0.00728601 -0.129538
0.0108973 -0.133396
0.0014358 -0.00110365
0.00122585 -0.000668978
0.010079 -0.112933
0.0149226 -0.112781
-0.0263693 -0.222804
-0.0246308 -0.21663
-0.0266989 -0.123201
-0.0224076 -0.12007
0.00495662 -0.287432
-3.47128e-05 -0.282914
0.0165906 -0.0432926
0.0161874 -0.040104
-0.00290151 -0.00390881
-0.00359573 -0.00501856
-0.0197151 -0.270053
-0.0197581 -0.263415
0.0133793 -0.0635348
0.0168839 -0.0656347
-0.026439 -0.302213
-0.0297111 -0.308349
-0.000359879 -0.000154121
-0.000115383 5.31374e-06
-0.0413817 -0.376477
-0.0353726 -0.38029
-0.000862102 -0.0119024
-0.00174274 -0.0104735
0.0109845 -0.0411255
0.010954 -0.0380227
0.00571071 -0.0659799
0.00184785 -0.0660937
-0.0366796 -0.429446
-0.0408433 -0.423521
0.00407925 -0.120483
-0.000555731 -0.118608
-0.000207242 -0.457281
0.00699736 -0.458179
0.00917495 -0.0166645
0.0111066 -0.0164294
-0.00607345 -0.131111
-0.00626089 -0.125938
-0.0316235 -0.2072
-0.0280017 -0.212038
-0.0145115 -0.131233
-0.0103539 -0.12797
0.0322708 -0.4241
0.0351669 -0.43081
0.0219407 -0.148555
0.019812 -0.153475
0.0155081 -0.0325171
0.0138151 -0.0298389
0.00269772 -0.381793
0.00681232 -0.375949
-0.0195633 -0.083788
-0.0175363 -0.0874279
0.0104452 -0.0949463
0.0138917 -0.0983678
-0.00953468 -0.286517
-0.0160335 -0.288328
0.0334882 -0.205378
0.0299022 -0.210215
0.00326682 -0.00353523
0.00394387 -0.00331643
-0.00371277 -0.460626
-0.0109366 -0.459874
-0.00611275 -0.0346391
-0.00868807 -0.0363825
0.00731928 -0.055967
0.00671604 -0.052371
0.0108229 -0.0693586
0.0145276 -0.0682943
-0.0206322 -0.0710357
-0.0171709 -0.0684741
0.00778382 -0.133865
0.0044801 -0.137893
-0.0303974 -0.34353
-0.0345343 -0.337879
0.0127871 -0.0296284
0.0129629 -0.0269991
-0.0155043 -0.140081
-0.0106719 -0.142078
0.00388025 -0.131058
0.00558888 -0.126203
0.0175985 -0.41151
0.0185273 -0.41873
-0.0320667 -0.354076
-0.0381772 -0.350546
-0.0202761 -0.130085
-0.0184031 -0.134815
0.0102308 -0.175616
0.0154307 -0.178293
0.0101217 -0.024696
0.00834527 -0.0224818
-0.00307603 -0.190761
-0.00891647 -0.191597
0.00159313 -0.0170624
0.00156277 -0.0192658
0.0134878 -0.299212
0.0121167 -0.305923
-0.00886872 -0.0860369
-0.00949019 -0.0817621
0.0148666 -0.0718022
0.0158838 -0.0680526
-0.0236261 -0.106931
-0.0211977 -0.102488
-0.0363363 -0.346787
-0.0374928 -0.353891
-0.0116966 -0.295489
-0.0166861 -0.29098
-0.00899677 -0.122776
-0.0114821 -0.118513
0.000873902 -0.00384024
-7.94908e-05 -0.00354363
-0.0377753 -0.346387
-0.0332917 -0.340718
0.0120319 -0.0181023
0.00989463 -0.0167313
0.00208902 -0.000924255
0.00283292 -0.00137942
-0.00236182 -0.144781
-0.00149777 -0.150164
0.00479118 -0.158264
0.000413408 -0.154843
-0.00314598 -0.418249
0.00402855 -0.418992
-0.00450153 -0.157032
-0.00993393 -0.158192
0.0129022 -0.03207
0.0152598 -0.0343339
-0.00149267 -0.402865
-0.00622874 -0.408339
0.0074798 -0.120058
0.00350736 -0.117006
0.0069483 -0.237889
0.00429263 -0.24373
-0.0182996 -0.284888
-0.0120055 -0.287116
0.028831 -0.417624
0.0220011 -0.419993
-0.0047274 -0.0122236
-0.00354571 -0.0106876
0.00599188 -0.0305765
0.00843171 -0.0322969
-0.0280296 -0.189225
-0.0282173 -0.18332
-0.00137565 -0.197474
0.00436093 -0.196149
-0.014336 -0.215947
-0.0153832 -0.222258
-0.00691907 -0.00943101
-0.00620561 -0.0104987
0.00237386 -0.0812555
-0.000513697 -0.0781583
-0.00663831 -0.0949339
-0.00792968 -0.0995379
0.0156999 -0.15948
0.0211915 -0.158846
0.000443081 -0.00144527
0.000335417 -0.000834581
0.0253127 -0.484999
0.0244123 -0.477712
-0.0155109 -0.0630695
-0.0136425 -0.0595327
-0.0186163 -0.343105
-0.0118379 -0.340878
-0.00364384 -0.00379507
-0.00425388 -0.00352556
0.0194386 -0.2485
0.019411 -0.255034
-0.0185647 -0.173135
-0.0138 -0.169746
0.031332 -0.387338
0.033878 -0.394124
-0.00386275 -0.425703
-0.00679926 -0.419051
0.0137949 -0.234646
0.0136814 -0.22826
0.00977623 -0.401841
0.0030412 -0.399326
-0.0293739 -0.201557
-0.0319286 -0.207355
0.0350944 -0.19481
0.0330827 -0.20038
-0.0355934 -0.381341
-0.036311 -0.374204
-0.0164868 -0.141848
-0.0125583 -0.145309
-0.00907748 -0.419714
-0.0034837 -0.415096
-0.00361293 -0.0438424
-0.00669031 -0.0451228
0.0128486 -0.080258
0.00992417 -0.0770103
0.0178886 -0.162137
0.0228434 -0.1651
0.00989018 -0.115773
0.0112971 -0.111126
-0.0271197 -0.184611
-0.0212636 -0.183555
0.0135105 -0.0319097
0.0106443 -0.0315636
-0.00217444 -0.425136
0.00106691 -0.418617
0.00235588 -0.00109338
0.00229993 -0.00120725
0.0194256 -0.278885
0.0244825 -0.274649
-0.00612316 -0.329322
-0.0128925 -0.330824
-0.00424858 -0.0031803
-0.00389448 -0.00249333
0.00374705 -0.0447624
0.00684739 -0.0439868
0.0140654 -0.0695466
0.0180736 -0.0699114
-0.00527593 -0.0106701
-0.0046706 -0.0120906
0.0106229 -0.259027
0.00603614 -0.263685
-0.0346651 -0.436691
-0.0276596 -0.434669
-0.000433368 -0.000152599
-0.000863163 -0.000417162
-0.0204607 -0.20679
-0.0252658 -0.210989
-0.021377 -0.154796
-0.0161571 -0.1563
-0.00190793 -0.478648
-0.0032863 -0.485853
-0.0277052 -0.342624
-0.0331978 -0.34729
0.0203515 -0.323594
0.0171399 -0.317393
0.0162986 -0.123798
0.01773 -0.128825
-0.00607692 -0.0281043
-0.00552489 -0.0252867
0.0171834 -0.233263
0.0235271 -0.232988
0.0042296 -0.0602603
0.000551867 -0.0607796
0.0197997 -0.0595285
0.0172039 -0.0618197
0.00429291 -0.00393363
0.00321029 -0.00354195
-0.0322396 -0.263876
-0.0315813 -0.270447
-0.0318115 -0.439362
-0.0297238 -0.446353
-0.0362545 -0.431411
-0.0307852 -0.426548
-0.00628452 -0.00762317
-0.00483245 -0.00677379
-0.0103271 -0.0454229
-0.0133115 -0.0444965
-0.00195844 -0.202854
-0.00317266 -0.196965
0.036474 -0.309995
0.0300793 -0.312381
0.00329285 -0.00207044
0.00419335 -0.00287918
-0.00104155 -0.166091
0.00361878 -0.169336
0.00658541 -0.068753
0.00713007 -0.072797
0.026664 -0.27807
0.0305238 -0.283699
0.0319744 -0.35753
0.0315252 -0.350351
-0.00583918 -0.0228633
-0.00835594 -0.0232121
0.0313644 -0.19473
0.0320954 -0.200809
0.000920096 -0.133285
0.00241523 -0.128303
-0.0304474 -0.289658
-0.0351099 -0.284951
-0.00596703 -0.00998175
-0.00753144 -0.0100338
-0.0134942 -0.0321898
-0.0121922 -0.0344402
0.00975701 -0.131009
0.00516721 -0.128547
0.0132252 -0.0285123
0.011022 -0.0263823
-0.000637583 -0.0449658
-0.0021014 -0.042072
0.00425881 -0.178382
0.00746981 -0.183312
0.00500886 -0.265166
0.0110582 -0.267833
-0.0115369 -0.08396
-0.0158899 -0.0843717
0.0111745 -0.0394873
0.0139318 -0.0385725
0.000914848 -0.0117966
-0.000770097 -0.0114841
0.00785816 -0.0116388
0.00670855 -0.0100063
-0.00855039 -0.299478
-0.00834622 -0.292648
0.0169479 -0.283362
0.0228869 -0.28039
0.00957936 -0.204565
0.00418929 -0.20185
0.0319917 -0.421268
0.038524 -0.424513
0.0194256 -0.0941098
0.0240478 -0.0946776
-0.00686234 -0.426201
0.000362827 -0.42637
0.00161048 -0.12307
0.00599788 -0.125661
-0.0080106 -0.428364
-0.00973689 -0.435466
0.00151025 -0.417141
-0.0056954 -0.416886
0.0140631 -0.0868725
0.0163239 -0.0909266
-0.00539277 -0.079588
-0.00628061 -0.0755001
0.0345291 -0.30425
0.039133 -0.299349
0.0103222 -0.0588987
0.00807266 -0.0557889
-0.00873479 -0.0508809
-0.00539132 -0.0515464
0.0163758 -0.459186
0.00981812 -0.462361
0.00620238 -0.0227841
0.00677377 -0.025395
0.030359 -0.392667
0.0358576 -0.388077
-0.042216 -0.49337
-0.0369972 -0.488162
-0.0352924 -0.455504
-0.0425607 -0.454782
0.0289275 -0.113688
0.0271131 -0.118104
-0.0131657 -0.0218601
-0.011512 -0.0230744
0.00722805 -0.118023
0.0120379 -0.117162
0.0176587 -0.0674293
0.0151631 -0.0702024
-0.0347086 -0.339835
-0.031005 -0.345808
0.0254041 -0.189175
0.0271537 -0.195014
0.00158558 -0.00067868
0.00227657 -0.001146
0.00684221 -0.48096
0.00801502 -0.488195
0.0183662 -0.157718
0.0175994 -0.163246
0.00352572 -0.0148362
0.00427894 -0.0168366
-0.0314711 -0.386787
-0.0384234 -0.388769
0.0134881 -0.222676
0.0197158 -0.223706
0.0057461 -0.391859
-0.0013933 -0.391539
0.00324823 -0.423597
-0.00392977 -0.42281
-0.00963421 -0.0144501
-0.00763058 -0.0137111
0.0329224 -0.426206
0.0375289 -0.420611
-0.0177905 -0.409443
-0.024856 -0.410971
-0.0171334 -0.0954627
-0.0170179 -0.0908712
0.00629834 -0.173376
0.00160743 -0.170062
-0.0203177 -0.074179
-0.0161985 -0.0738982
-0.00526868 -0.0390078
-0.00832782 -0.039523
0.0064158 -0.27477
0.00536993 -0.268169
0.0010326 -0.0012807
0.000455084 -0.00117153
-0.00697351 -0.0847148
-0.00611489 -0.0804429
-0.00125479 -0.0882734
-0.00174626 -0.0838932
-0.0296061 -0.278886
-0.0233593 -0.281085
-2.21457e-05 1.46086e-05
-3.8302e-05 8.84205e-06
-0.000909277 -0.00631229
0.000344783 -0.0061055
-0.0290217 -0.201047
-0.0341303 -0.198081
0.0249748 -0.138683
0.0255237 -0.144049
-0.0209259 -0.0567191
-0.0220294 -0.0604269
-0.0431405 -0.383861
-0.0359652 -0.383191
-0.0121505 -0.168185
-0.0178253 -0.168335
-0.00151541 -0.00184458
-0.00205957 -0.0026543
-0.00703433 -0.0942686
-0.0101547 -0.0911001
0.00827793 -0.179485
0.0107287 -0.17426
-0.0233326 -0.355056
-0.017085 -0.3584
0.026639 -0.410014
0.031683 -0.404866
0.0236343 -0.429905
0.0236536 -0.437209
-0.00456345 -0.188522
0.00068326 -0.185887
0.0168183 -0.272085
0.0213353 -0.267329
0.00542556 -0.0149575
0.00668034 -0.0168276
-0.0203113 -0.407737
-0.0132562 -0.409139
-0.00623308 -0.0128433
-0.00556733 -0.0143956
-0.00529037 -0.0173409
-0.00744304 -0.0175785
0.000613996 -0.0452585
-0.00225128 -0.0437262
0.0133171 -0.152725
0.0127407 -0.147245
0.00225328 -0.0769615
0.0062252 -0.0782407
-0.00553157 -0.0594013
-0.00864935 -0.0616995
0.0111495 -0.0759472
0.00960738 -0.0720172
0.0126331 -0.41733
0.0123367 -0.424611
-0.0143791 -0.0257279
-0.0140555 -0.0281853
-0.0317885 -0.388815
-0.0378759 -0.385091
-0.0294306 -0.330006
-0.0330326 -0.336179
0.0247042 -0.304145
0.0300462 -0.300016
0.001683 -0.400984
-0.00183589 -0.394679
0.0281721 -0.157359
0.0309188 -0.152793
0.0279685 -0.158297
0.0329737 -0.156278
-0.00258843 -0.0499231
-0.00355685 -0.0533548
0.0103771 -0.160152
0.00775252 -0.155161
0.0208062 -0.280206
0.0223594 -0.273722
0.0106707 -0.479229
0.00717719 -0.472802
0.0290665 -0.380349
0.0263766 -0.386996
0.00328146 -0.00236755
0.0023872 -0.00169313
-0.0425119 -0.403859
-0.0417065 -0.411052
0.0317732 -0.494037
0.0343762 -0.487149
0.0145327 -0.236242
0.0131847 -0.229961
0.00306522 -0.161436
0.00814306 -0.163876
-0.0308623 -0.483447
-0.0327704 -0.476361
-0.0158657 -0.153319
-0.0178516 -0.148315
0.0184453 -0.0542536
0.0196626 -0.051216
0.0013004 -0.00134095
0.00191686 -0.00200927
-0.00114998 -0.0151686
-0.00220268 -0.0135985
0.0242734 -0.168321
0.0287014 -0.165071
0.0396851 -0.326157
0.033391 -0.329029
0.0187852 -0.0739467
0.0156616 -0.0709366
0.00589864 -0.202573
0.0111824 -0.205636
0.0200462 -0.0839694
0.0198026 -0.0796701
-0.00254098 -0.00503945
-0.0032487 -0.00626234
-0.0354304 -0.384895
-0.0425666 -0.385972
-0.00626982 -0.196191
-0.000515872 -0.197512
0.0184024 -0.111081
0.0187602 -0.116041
0.00342018 -0.00224834
0.00250771 -0.00176154
-0.00127705 -0.263394
0.00513567 -0.264781
-0.0102084 -0.251933
-0.0162448 -0.249731
0.0039216 -0.188632
0.000198332 -0.193253
-0.0227974 -0.161028
-0.0188092 -0.156867
0.0288463 -0.39097
0.0319102 -0.397548
-0.0182167 -0.0876657
-0.0207776 -0.0916669
-0.0203472 -0.268572
-0.0174861 -0.274515
-0.0311123 -0.210795
-0.0329285 -0.216928
-0.0263111 -0.191084
-0.0266386 -0.185167
-0.0135758 -0.30271
-0.00750495 -0.299569
0.0250038 -0.435729
0.0239962 -0.428493
-0.0055766 -0.408009
0.000310263 -0.40383
-0.0237788 -0.302715
-0.0170999 -0.303979
-0.0190925 -0.423751
-0.0190426 -0.416466
-0.000334236 -0.00261989
0.000286414 -0.00209943
0.0427881 -0.445969
0.0356646 -0.447558
0.00179912 -0.081362
-4.64454e-05 -0.085275
0.00959183 -0.0264534
0.00929931 -0.0238122
0.0197724 -0.241374
0.0143957 -0.237733
-0.00122653 -0.0185773
-0.00114849 -0.0208493
-0.00737184 -0.0539027
-0.0101319 -0.0519591
-0.00553459 -0.0386782
-0.00584545 -0.0418502
-0.00625309 -0.197287
-0.00600634 -0.203334
0.00526354 -0.324566
-0.00099131 -0.327429
-0.0225106 -0.220245
-0.0278588 -0.217196
0.023945 -0.1346
0.0233614 -0.129373
-0.0027736 -0.0621309
0.000992855 -0.0620983
-0.00891932 -0.38518
-0.0157966 -0.383346
-0.0216592 -0.0761887
-0.0248913 -0.0794214
-0.0209975 -0.121998
-0.0256404 -0.120463
-0.000391253 -0.132067
0.00409177 -0.134739
0.0159597 -0.0327261
0.0167992 -0.0356758
0.01719 -0.0863694
0.0133542 -0.0839045
-0.0294686 -0.236773
-0.0233443 -0.238374
-0.00711418 -0.0545509
-0.00767482 -0.0510828
-0.00142233 -0.252555
0.000452988 -0.258842
0.0119735 -0.0283994
0.0097705 -0.0263231
0.0110494 -0.450301
0.0150611 -0.444198
-0.00832602 -0.184851
-0.00265869 -0.186225
-0.00868688 -0.0237798
-0.00848625 -0.0263234
-0.0232299 -0.196745
-0.0192974 -0.191983
-0.0306072 -0.371234
-0.034812 -0.36551
-0.0230112 -0.381499
-0.0274284 -0.375919
-0.00369325 -0.418434
-0.00258998 -0.425636
0.0020861 -0.0025756
0.00302251 -0.00320992
0.00576378 -0.436198
-0.00147673 -0.436299
0.0154153 -0.341842
0.0163676 -0.348978
-0.0036125 -0.044231
-0.00203678 -0.0413424
0.0175277 -0.0555455
0.0174559 -0.052001
-0.00247144 -0.00697051
-0.00265323 -0.00574039
-0.0275946 -0.138421
-0.0236854 -0.134505
-0.0185256 -0.105989
-0.0137704 -0.10636
-0.0296414 -0.38909
-0.0332961 -0.382953
-0.00273354 -0.0179841
-0.0020579 -0.0159255
0.0344749 -0.374185
0.0296831 -0.379474
-0.00627423 -0.266894
-0.0106327 -0.271949
-0.0087058 -0.322476
-0.00480008 -0.328218
-0.0166893 -0.0769483
-0.0204651 -0.0756733
-0.0125351 -0.255083
-0.0130758 -0.261656
-0.0296948 -0.441545
-0.0345397 -0.447047
0.00117725 -0.157985
0.00142669 -0.152428
0.0113056 -0.11858
0.0149572 -0.115436
0.000295436 -0.00615239
0.000386511 -0.00489747
0.0381482 -0.362177
0.033678 -0.356479
0.015998 -0.327143
0.0193963 -0.321098
-4.72683e-05 -1.20394e-05
-0.000186553 -3.33549e-05
0.0224102 -0.0980811
0.0177673 -0.0970114
-1.51329e-05 -2.75507e-05
0.000131705 -4.09534e-05
0.00210773 -0.046214
0.00402239 -0.0435958
-0.00486741 -0.0229072
-0.00261259 -0.0218328
0.0115838 -0.0583506
0.0138559 -0.0615961
0.0133432 -0.243249
0.00917102 -0.238286
0.0065555 -0.163776
0.0115821 -0.161424
0.00759819 -0.270696
0.0091438 -0.27722
0.0035045 -0.042507
0.00398155 -0.0393772
-0.000662497 -0.0753437
-5.23875e-05 -0.0795205
-0.0103604 -0.0748302
-0.0118867 -0.0711639
0.02727 -0.110666
0.0263872 -0.105776
0.00276614 -0.334554
-0.00351506 -0.33181
-0.0211226 -0.214854
-0.0218814 -0.208636
-0.000481583 -0.155202
0.00501082 -0.15528
0.00977916 -0.470834
0.00278273 -0.46887
-0.00293601 -0.00775553
-0.00430247 -0.00770337
0.00637483 -0.0506876
0.00805535 -0.0478239
0.00230611 -0.00155192
0.00305391 -0.00183139
0.00355919 -0.0540494
0.000501839 -0.0558625
0.02561 -0.32881
0.0201605 -0.333119
0.00782933 -0.0241796
0.0066923 -0.0217469
-0.00503606 -0.0879412
-0.00531783 -0.0835586
0.00776694 -0.0641509
0.0105411 -0.0670955
-0.028202 -0.43227
-0.0209998 -0.433097
0.0180047 -0.097072
0.0216565 -0.10044
-0.00677697 -0.0359217
-0.0055255 -0.0385556
0.0375473 -0.425038
0.0306295 -0.42276
-0.0216782 -0.359251
-0.0286775 -0.360687
-0.0166787 -0.466155
-0.0228127 -0.462224
-2.87117e-05 -0.00909366
0.000982358 -0.0103863
0.0327857 -0.412276
0.0329025 -0.419548
-0.0085703 -0.017528
-0.00670352 -0.0181785
-0.018765 -0.190414
-0.0230877 -0.186539
-0.0114335 -0.0183646
-0.00955966 -0.0189494
0.023091 -0.397302
0.0224935 -0.390093
0.0186764 -0.126297
0.0147643 -0.122772
-0.03787 -0.452092
-0.0315746 -0.455755
0.0166812 -0.238644
0.0143026 -0.244582
-0.0029758 -0.0377549
-0.00465214 -0.0353421
-0.0188055 -0.354675
-0.0167554 -0.361529
0.00449038 -0.414432
-0.000230915 -0.419939
-0.00721518 -0.285129
-0.0138919 -0.284675
-0.0106966 -0.0173252
-0.0085971 -0.016074
-0.00128488 -0.0011942
-0.000810035 -0.00127174
-0.00417366 -0.00860771
-0.00496075 -0.00769561
-0.00404887 -0.0831168
-0.00230334 -0.0791683
0.0223734 -0.126689
0.01939 -0.122305
0.0320954 -0.280152
0.0362164 -0.285639
0.0115967 -0.0332404
0.0144779 -0.033298
-0.0234267 -0.476951
-0.0301335 -0.479864
0.00427453 -0.140163
0.00681993 -0.135557
-0.0109754 -0.0953846
-0.0103032 -0.0908222
-0.0188229 -0.241063
-0.013307 -0.237663
-0.00654564 -0.454853
-0.0100792 -0.46127
0.0132816 -0.272008
0.0102113 -0.266068
0.0233766 -0.248964
0.023164 -0.242472
-0.00638804 -0.168936
-0.00932402 -0.173938
0.0253613 -0.47513
0.0247525 -0.467818
-0.0193887 -0.131096
-0.0225017 -0.135548
-0.0125773 -0.470234
-0.0118328 -0.477534
0.0200297 -0.0934125
0.0226674 -0.0900477
-0.027828 -0.25939
-0.0343708 -0.260284
-0.00785617 -0.0797403
-0.00366523 -0.0796583
-0.0216659 -0.113664
-0.0253682 -0.110816
0.0112865 -0.0275132
0.00906727 -0.0255195
0.00795227 -0.178926
0.0135921 -0.180397
0.0318374 -0.178303
0.0293912 -0.172865
-0.00406103 -0.0171483
-0.00397215 -0.0150779
-0.037436 -0.21638
-0.0336811 -0.221211
-0.0205227 -0.413589
-0.0226349 -0.406664
0.00403479 -0.013238
0.00282557 -0.0145391
-0.00952872 -0.112077
-0.00995448 -0.107234
0.0257623 -0.33526
0.0279267 -0.342062
-0.0237924 -0.391148
-0.0304968 -0.388669
0.0207289 -0.0730715
0.0244253 -0.0755345
0.0305334 -0.195252
0.0249105 -0.192734
-0.00302801 -0.00210011
-0.0021501 -0.0014854
-0.018104 -0.353174
-0.0130425 -0.358134
0.0208425 -0.182869
0.0264341 -0.181398
0.0148884 -0.0615193
0.0168689 -0.0586342
0.00885293 -0.052416
0.00764839 -0.0556952
0.016167 -0.170355
0.0198435 -0.16617
0.0101771 -0.0675924
0.0123141 -0.0711562
-0.00382902 -0.437351
-0.00292159 -0.444608
-0.00220817 -0.00128948
-0.00162858 -0.00107014
-0.0232644 -0.432174
-0.0178363 -0.436983
7.46897e-05 1.18154e-05
0.000138777 -9.14712e-05
0.000957858 -0.00196652
0.00169344 -0.00255134
-0.00601062 -0.0111078
-0.0060622 -0.00957152
0.0112531 -0.0302081
0.0127453 -0.0282483
0.0285977 -0.300111
0.0299593 -0.306874
-0.0304826 -0.351369
-0.0369526 -0.348566
-0.0159417 -0.260538
-0.0175837 -0.266989
-0.0279001 -0.375768
-0.0288322 -0.368667
-0.0148995 -0.064838
-0.0182472 -0.063405
-0.0345253 -0.408726
-0.0286016 -0.412812
-0.0230311 -0.21104
-0.021741 -0.217162
-0.024125 -0.150196
-0.0197674 -0.153219
-0.0210806 -0.153412
-0.0188112 -0.148271
-0.00256515 -0.00257135
-0.0017167 -0.00228643
0.0283561 -0.263319
0.0235034 -0.258703
-0.0115905 -0.140403
-0.0150226 -0.144686
0.000936377 -0.0100463
0.00235172 -0.0094692
0.0276675 -0.18143
0.0330361 -0.179475
-0.0289101 -0.216621
-0.0349614 -0.218706
0.00966886 -0.0166423
0.00762458 -0.0166797
0.0133097 -0.123924
0.0160735 -0.128403
-0.00165493 -0.0787653
-0.00581312 -0.0786842
-0.0324193 -0.462934
-0.0379904 -0.467709
-0.0167036 -0.126442
-0.015381 -0.12143
-0.0284954 -0.197621
-0.0273467 -0.19162
-0.00343806 -0.00194296
-0.00273433 -0.00140112
-0.0352414 -0.224406
-0.0341559 -0.230609
-0.0157052 -0.0680425
-0.0194418 -0.067273
-0.00478853 -0.0402409
-0.00170561 -0.0405286
0.013769 -0.476538
0.00737081 -0.473067
-0.017325 -0.133635
-0.0196906 -0.129175
-0.0255822 -0.484151
-0.0195693 -0.488296
0.0102327 -0.0369742
0.0116217 -0.0399364
-0.0263886 -0.224117
-0.0262125 -0.217769
0.0269955 -0.447904
0.019872 -0.446405
-0.0104793 -0.0644177
-0.010414 -0.0605868
-0.0126343 -0.0617049
-0.0107347 -0.0582598
-0.00159925 -0.054921
-0.00118887 -0.0513547
0.00582199 -0.374208
-0.000130812 -0.378087
-0.0335796 -0.162477
-0.0284085 -0.164298
0.0114908 -0.161478
0.0143208 -0.156756
0.0224049 -0.352747
0.0288893 -0.355794
-0.00440478 -0.00491253
-0.00345858 -0.00386898
-0.00126736 -0.00408303
-0.00185708 -0.00517936
-0.0296481 -0.184781
-0.0255143 -0.188755
0.000346605 -7.75464e-05
0.000567111 -0.000205019
0.00125841 -0.116169
-0.00329316 -0.118177
0.0267625 -0.343271
0.0315858 -0.338187
-0.0312582 -0.331685
-0.0294276 -0.324855
0.0214999 -0.118015
0.0188304 -0.113589
0.010928 -0.110905
0.00658008 -0.112732
-0.00176268 -0.000860537
-0.0024259 -0.00121562
-0.0223701 -0.0739856
-0.0182682 -0.0729139
-0.0113854 -0.0246212
-0.0137139 -0.0265495
0.0367415 -0.315326
0.0314811 -0.31068
0.0168725 -0.0634527
0.0199636 -0.0616967
-0.00429501 -0.013716
-0.00477798 -0.0157038
0.0189207 -0.389212
0.0234067 -0.394896
0.028361 -0.348042
0.0282266 -0.340894
0.0274797 -0.130955
0.0224677 -0.129133
-0.0117309 -0.0317444
-0.0107883 -0.0289242
-0.0018813 -0.17236
-0.006657 -0.175606
0.00156166 -0.00236708
0.00119514 -0.0015902
0.000219753 -0.158434
0.00356448 -0.154022
0.0190656 -0.198884
0.0181781 -0.192872
-0.00971934 -0.299335
-0.0150563 -0.295199
-0.0269824 -0.318707
-0.0326084 -0.322966
0.00629087 -0.00668234
0.00781076 -0.00760691
-0.024655 -0.114806
-0.019695 -0.114359
0.00753163 -0.458799
0.00914361 -0.46595
0.0374398 -0.437633
0.035725 -0.430525
-0.0081833 -0.0688315
-0.00732818 -0.0649197
-0.0128524 -0.0869036
-0.0115828 -0.0910914
-0.00646943 -0.0796687
-0.00897275 -0.0832579
0.00656013 -0.0506454
0.00994462 -0.05175
0.000502368 -0.000684137
8.44042e-05 -0.000558164
-0.0265163 -0.222037
-0.0298087 -0.216819
-0.0080732 -0.32891
-0.00786496 -0.335902
-0.0407801 -0.444541
-0.0381329 -0.437703
0.00137528 -0.256952
-0.00400958 -0.260677
0.00153695 -0.00388621
0.00103041 -0.0029299
0.00111788 -0.0901638
0.00128977 -0.0857262
0.0360166 -0.443798
0.0295247 -0.4471
-0.0313112 -0.34395
-0.0318943 -0.351106
0.0164437 -0.464287
0.0140431 -0.471218
-0.0179193 -0.284317
-0.0244326 -0.286133
0.0214012 -0.179312
0.0194839 -0.184777
0.0349491 -0.446822
0.0422261 -0.446225
-0.00101503 -0.0763506
-0.00335634 -0.0798793
0.000402239 -0.00162807
-0.000186387 -0.00137367
-0.0177237 -0.236077
-0.0217965 -0.231322
-0.0132954 -0.257173
-0.011187 -0.263378
0.0240495 -0.194151
0.0297421 -0.196515
-0.00570102 -0.0136758
-0.00399102 -0.0141638
0.0186196 -0.0699181
0.0167809 -0.0732694
-0.00872165 -0.0225128
-0.0111957 -0.02281
0.0133335 -0.0202404
0.0110824 -0.0202734
0.00165426 -0.0014293
0.00242234 -0.00180514
0.0295089 -0.239502
0.0355306 -0.242107
-0.00275631 -0.00504578
-0.00342234 -0.00628744
-0.0202417 -0.196516
-0.0152354 -0.192975
-0.00900552 -0.178144
-0.0141997 -0.180891
0.000694078 -0.0443214
-0.00231102 -0.0456571
-0.00355768 -0.0105292
-0.0052544 -0.0109885
0.0298263 -0.207347
0.0240603 -0.209276
-0.0282929 -0.236066
-0.0338668 -0.233213
0.0103757 -0.0237931
0.0128933 -0.0239699
0.0085724 -0.430862
0.00508435 -0.437266
-0.0199731 -0.0703866
-0.0239444 -0.0719869
-0.0221277 -0.268387
-0.0173892 -0.263643
0.00164477 -0.00211886
0.00130726 -0.00269556
0.0224848 -0.0901636
0.0217836 -0.0857007
-0.0258459 -0.233146
-0.0259381 -0.226774
-0.00261301 -0.00270247
-0.0017929 -0.00200744
-0.0369319 -0.354046
-0.0348762 -0.360873
-0.0174853 -0.0964157
-0.0132799 -0.0940635
-0.0147775 -0.226067
-0.017965 -0.231655
-0.0107674 -0.0526101
-0.0142672 -0.0525952
-0.00408451 -0.00506106
-0.00534673 -0.0055124
0.00332766 -0.0337741
0.00555984 -0.0357116
0.0159421 -0.133126
0.0168202 -0.138384
-0.00767019 -0.0413035
-0.005705 -0.038674
0.0112978 -0.202873
0.0086757 -0.197374
-0.0169455 -0.0996458
-0.0178093 -0.0951151
-0.00141579 -0.00749999
-0.00279411 -0.00813951
0.0122836 -0.120781
0.0120935 -0.125864
0.0119978 -0.382461
0.00551407 -0.379447
-0.00713272 -0.423468
-0.00248005 -0.429038
0.0205985 -0.105191
0.0236977 -0.10186
0.00211064 -0.0124677
0.00332348 -0.014032
-0.00650309 -0.200969
-0.00820721 -0.195189
0.0184788 -0.0663107
0.0169299 -0.0697204
0.0335359 -0.354504
0.0275149 -0.35825
-0.00398722 -0.489693
0.000244423 -0.495612
-0.00135347 -0.144778
-0.00596545 -0.142124
0.00310491 -0.0444972
0.00635903 -0.0448517
-0.0301038 -0.410527
-0.0298606 -0.41779
0.00874832 -0.0115746
0.0102365 -0.0132316
0.00158821 -0.0105012
0.0024416 -0.00922509
0.010165 -0.427004
0.00336894 -0.424518
-0.0138296 -0.0214284
-0.012226 -0.0226196
-0.0103531 -0.394284
-0.00539426 -0.389049
-0.0293154 -0.126296
-0.0272526 -0.13078
0.0115777 -0.222509
0.0163651 -0.226732
-0.0363767 -0.394155
-0.043461 -0.392927
0.019967 -0.267424
0.0245598 -0.272349
-0.00251692 -0.260724
-0.00894812 -0.26197
-0.00789459 -0.0604006
-0.0080178 -0.0566871
-0.00455517 -0.273718
0.00124967 -0.270504
-0.0264912 -0.320834
-0.0332125 -0.319262
-0.000741632 -0.00153504
-0.000239678 -0.00190621
-0.0135554 -0.156194
-0.00851062 -0.153805
-0.00280317 -0.424844
-0.00399726 -0.432048
0.00631225 -0.0868165
0.00859072 -0.0906936
-0.014026 -0.0517211
-0.0128592 -0.0482987
0.00396021 -0.0124067
0.00219845 -0.0119622
0.027431 -0.477127
0.0279679 -0.484452
0.00334979 -0.0140168
0.00148103 -0.0139851
0.0018994 -0.0129858
0.00352839 -0.0140838
0.00138603 -0.243411
-0.00493782 -0.244413
-0.0183357 -0.422481
-0.0250396 -0.425285
0.00211904 -0.0910612
0.00469433 -0.0874946
0.000384662 -0.333983
-0.00521963 -0.329975
-0.0133872 -0.158392
-0.0153643 -0.153288
1.05014e-05 -0.000573609
0.000414662 -0.000837283
0.00409861 -0.00241567
0.0051127 -0.00326541
-0.00170056 -0.06459
0.00181086 -0.0662008
0.0243001 -0.0850825
0.0199257 -0.0850379
-0.0142921 -0.0463682
-0.0109545 -0.0460377
-0.0117536 -0.0164647
-0.0103897 -0.0145039
-0.0129561 -0.133469
-0.0164238 -0.129797
-0.0301043 -0.256017
-0.0323669 -0.249999
0.0175663 -0.0697839
0.0185488 -0.0738328
0.00775031 -0.480222
0.000515261 -0.479618
-0.00124063 -0.04949
0.00167717 -0.0477575
0.00256327 -0.0016547
0.00341082 -0.00203646
-0.0234621 -0.322054
-0.0283776 -0.317265
-0.00203839 -0.0207999
-0.0041945 -0.0217517
0.00938812 -0.0211202
0.0117329 -0.0211698
-0.0181188 -0.0677657
-0.0165229 -0.063983
-0.0179018 -0.284924
-0.0157239 -0.291294
0.0193821 -0.452065
0.0210139 -0.459208
-0.00979565 -0.0161545
-0.00819828 -0.0169631
-0.0363662 -0.475561
-0.0419024 -0.470782
-0.0284382 -0.428935
-0.0277019 -0.421674
-0.00474553 -0.0118223
-0.00532954 -0.0136751
-0.0198046 -0.31993
-0.0245297 -0.325136
-0.00884693 -0.0314552
-0.00952168 -0.0288715
-4.00402e-06 -0.00729609
0.00119331 -0.00672799
0.0246129 -0.0997324
0.0200352 -0.098069
0.0152997 -0.238804
0.0195926 -0.24372
0.00896496 -0.0305028
0.0117699 -0.0307434
0.0143045 -0.0259955
0.0119601 -0.026615
-0.0037113 -0.00255271
-0.00394356 -0.00233687
-0.00665345 -0.117733
-0.00531477 -0.122564
-0.000205842 -6.35389e-05
-0.000902734 -0.000419424
-0.0178532 -0.131013
-0.0130108 -0.128932
-0.0126736 -0.230333
-0.0170422 -0.235071
0.0197093 -0.312963
0.0218653 -0.306449
-0.011796 -0.471803
-0.0116651 -0.479141
0.00347301 -0.0726292
0.00262365 -0.076677
0.0206473 -0.490284
0.0275536 -0.492683
-0.0170509 -0.0372257
-0.0143715 -0.0380713
-0.00412162 -0.0167131
-0.0043132 -0.0147213
-0.00653036 -0.255774
-0.00658678 -0.262367
0.0104102 -0.0175789
0.0123873 -0.0193403
0.0255834 -0.467561
0.0244569 -0.474813
0.0161252 -0.199756
0.0221958 -0.200407
0.00887046 -0.183256
0.00803084 -0.18912
0.00768394 -0.0347693
0.00526969 -0.0361376
-0.0180745 -0.257064
-0.0142535 -0.262317
0.00378034 -0.134936
0.00606545 -0.139759
0.0145554 -0.0569389
0.0144661 -0.0606293
0.000121891 -0.00276257
-0.000642036 -0.00248661
0.00171655 -0.0207573
0.00264885 -0.0229167
-0.026682 -0.158909
-0.0211802 -0.157617
-0.0003489 -0.00052184
-0.000163147 -0.000173093
0.0121976 -0.403835
0.0166722 -0.409544
-0.00696565 -0.433891
-0.00105257 -0.429664
0.0347241 -0.424591
0.0279188 -0.422009
0.0133596 -0.0487942
0.0113995 -0.045765
-0.0152513 -0.158364
-0.0204635 -0.160628
-0.0328881 -0.479725
-0.037767 -0.485217
0.0229867 -0.458933
0.025156 -0.465933
0.000337751 -0.0012576
-0.000176187 -0.00102992
-0.0150603 -0.0568392
-0.011711 -0.0578924
0.0371646 -0.43553
0.0387997 -0.42843
0.000897922 -0.000877724
0.00125993 -0.000824984
-0.0121924 -0.0771501
-0.012125 -0.0813845
0.0032629 -0.155748
0.00595221 -0.150963
0.00337036 -0.0347521
0.000424245 -0.034502
0.0240582 -0.357665
0.016935 -0.357624
0.0104795 -0.476246
0.0177568 -0.476131
-0.017004 -0.120715
-0.0188583 -0.116222
-0.00519346 -0.466819
0.00133151 -0.463582
-0.026329 -0.119992
-0.0213325 -0.118851
-0.00146268 -0.00123633
-0.00163383 -0.00101346
0.0238329 -0.479071
0.0309007 -0.480931
-0.0225183 -0.225005
-0.0205783 -0.218889
-0.00111657 -0.0228818
-0.000710264 -0.0206164
-0.0402615 -0.442683
-0.0331035 -0.444015
0.0286212 -0.460684
0.0357772 -0.462167
-0.0185046 -0.323951
-0.0119201 -0.321727
0.00560438 -0.00513132
0.00527852 -0.00414159
0.0033906 -0.00532787
0.00253202 -0.00426547
0.00889884 -0.01639
0.00711908 -0.0148539
0.0052454 -0.465112
-0.00188848 -0.463751
0.0128184 -0.0582238
0.00915543 -0.0575095
0.00905604 -0.188308
0.0148463 -0.189581
-0.0121008 -0.0298491
-0.0149431 -0.0307455
0.000527178 -0.0218908
-0.00046303 -0.0198602
0.0128956 -0.333513
0.018029 -0.328811
-0.00721258 -0.247701
-0.00152787 -0.250725
-0.000211032 -0.00235444
-0.000489015 -0.0016675
-0.0206285 -0.0856759
-0.0201377 -0.0900102
0.000336309 -0.30738
0.00164573 -0.314168
0.0143756 -0.33728
0.00867014 -0.333221
-0.0116405 -0.304216
-0.0109069 -0.29739
0.00105398 -0.263332
-0.00199881 -0.269218
-0.00994889 -0.0704966
-0.00989964 -0.0745797
-0.00108557 -0.00365353
-0.000227606 -0.00409796
-0.0122201 -0.196869
-0.0182466 -0.197463
-0.00468491 -0.169835
-0.00100564 -0.174218
-0.0183569 -0.167585
-0.0141752 -0.16357
-0.0209262 -0.295604
-0.0141574 -0.295283
-0.0124741 -0.0188779
-0.0114122 -0.0167126
-0.0208846 -0.342617
-0.0142597 -0.345126
0.0360761 -0.482922
0.0339566 -0.475892
-0.00724957 -0.0696618
-0.00616167 -0.0735273
0.00799301 -0.231112
0.00186003 -0.229706
0.0274806 -0.121567
0.0227194 -0.122865
0.00196694 -0.0453206
-0.000941902 -0.0468943
0.000679062 -0.0197058
-0.0012881 -0.0189572
0.0103411 -0.0759436
0.00662002 -0.0739908
0.000631986 -0.46116
-0.00594897 -0.464278
-0.000867604 -0.298996
-0.00543173 -0.304092
-0.0110101 -0.315938
-0.017448 -0.31847
0.0285252 -0.225606
0.0259739 -0.219677
-0.0159048 -0.244103
-0.0193568 -0.238779
0.00122964 -0.000583996
0.00110571 -0.000425273
-0.00458198 -0.188455
-0.00905163 -0.184672
0.029407 -0.171978
0.0265752 -0.166801
-0.0172512 -0.315987
-0.0209687 -0.321908
0.0151799 -0.168812
0.0208225 -0.169839
-0.00254588 -0.159873
-0.00447447 -0.154657
0.0143379 -0.407872
0.0151328 -0.4151
0.0121788 -0.38697
0.00583368 -0.383637
0.00878427 -0.38564
0.014941 -0.389348
0.0244797 -0.467864
0.0199671 -0.473635
-0.0265651 -0.393
-0.0313238 -0.387671
0.0291239 -0.444959
0.0360141 -0.442605
0.0279456 -0.348723
0.0350273 -0.348359
0.0115118 -0.0341568
0.0108202 -0.0368891
0.00799103 -0.051179
0.00524907 -0.0488781
0.00144384 -0.284191
-0.00195859 -0.278396
-0.0234627 -0.139566
-0.0193512 -0.13591
-0.0246218 -0.441884
-0.0306778 -0.445981
0.0190675 -0.272097
0.0196376 -0.265481
-0.0289652 -0.259493
-0.0324932 -0.265224
0.00122096 -0.047507
-0.00118012 -0.0451857
0.0166951 -0.465333
0.011148 -0.460596
0.0148688 -0.426267
0.0125153 -0.419368
-0.0115124 -0.0457585
-0.01254 -0.0428357
-0.00878861 -0.324826
-0.00195143 -0.325561
0.00408695 -0.00344059
0.00403657 -0.00278696
-0.0130621 -0.0810747
-0.0166138 -0.0838691
0.0322513 -0.435046
0.0258821 -0.431495
0.032774 -0.279539
0.0277012 -0.283772
-0.0373553 -0.270349
-0.0324442 -0.274626
0.00180267 -0.002095
0.00163607 -0.00142896
-0.00378282 -0.00875278
-0.00263314 -0.00754072
-0.0210104 -0.476269
-0.0229783 -0.469206
0.0195303 -0.265142
0.0261193 -0.265213
0.0220293 -0.201853
0.027828 -0.200254
0.0311722 -0.379947
0.0262437 -0.374654
-0.034893 -0.271583
-0.0282993 -0.272178
0.00758195 -0.0377035
0.00494411 -0.0389683
0.0173962 -0.307242
0.0105698 -0.307138
-0.0155663 -0.162968
-0.017156 -0.157661
-0.00235782 -0.0109151
-0.00368223 -0.0101555
0.0348858 -0.455096
0.028357 -0.458359
0.0356521 -0.451467
0.0333904 -0.444499
-0.000122391 6.54223e-06
-0.000269101 -0.000136092
0.0152048 -0.104566
0.0145907 -0.109373
0.00910588 -0.119468
0.0130252 -0.122791
2.30316e-05 -4.45747e-06
0.000308023 -5.74224e-05
0.00093798 -0.00917253
0.00127041 -0.0108252
0.00732598 -0.0628395
0.00700406 -0.0590363
-0.000130673 -0.000319115
-6.471e-06 -6.96246e-05
-0.0283521 -0.431243
-0.0295045 -0.438466
0.0184904 -0.239539
0.0230968 -0.244195
-0.0101529 -0.121528
-0.0141426 -0.118739
0.00749799 -0.0197164
0.00695886 -0.0174871
-0.000598265 -0.469261
0.0059023 -0.472521
0.00961854 -0.0973478
0.0102178 -0.10218
-0.010784 -0.20385
-0.0167795 -0.205468
-0.000866177 -0.00036726
-0.000215387 -9.118e-05
0.0208337 -0.102101
0.0202968 -0.106853
0.00803217 -0.011394
0.00627278 -0.0105215
0.00136038 -0.135533
0.00589125 -0.138256
0.0100792 -0.0164444
0.0114834 -0.0185013
0.0144156 -0.188587
0.0181088 -0.193397
0.0245588 -0.28572
0.0305398 -0.282823
0.0114688 -0.0327227
0.0105919 -0.0353132
0.0032499 -0.0472167
0.00155761 -0.044291
0.0206933 -0.19751
0.0196296 -0.191532
-0.000532579 -0.013405
0.000660827 -0.0120201
5.54858e-05 -3.07641e-05
0.000139182 -8.05656e-06
-0.0174701 -0.337344
-0.0194004 -0.344251
0.00722585 -0.313917
0.00380177 -0.319926
0.0274878 -0.224652
0.0338243 -0.224784
-0.00803032 -0.0214319
-0.00764008 -0.0191028
-0.0123636 -0.0575678
-0.00884211 -0.0562217
0.0129244 -0.112038
0.00840979 -0.113555
-0.00979816 -0.0137769
-0.00845722 -0.0120177
-0.000844689 -0.0382521
-0.00377154 -0.0375216
-0.0183401 -0.131405
-0.0161343 -0.13601
0.000967364 -0.440833
0.00704861 -0.436852
-0.0133378 -0.401959
-0.0119271 -0.394847
0.00362593 -0.390456
0.0092686 -0.386052
-0.00309735 -0.310597
0.00150478 -0.305503
0.0297978 -0.486455
0.0339695 -0.492499
-0.00655682 -0.257481
-5.90965e-05 -0.257826
-0.03883 -0.421481
-0.0409689 -0.428474
0.0112463 -0.0844568
0.0153144 -0.0863848
0.0157084 -0.105671
0.0129076 -0.109471
-0.00259552 -0.121527
-0.0016525 -0.116597
0.00145105 -0.322324
0.00279868 -0.315503
0.0264387 -0.372033
0.0213099 -0.366969
-0.00479543 -0.00949938
-0.00640381 -0.00976695
-0.00373454 -0.122013
-0.00449503 -0.11705
0.000195856 -0.000346037
-0.000117002 -0.000338285
0.0212579 -0.412883
0.0222495 -0.420097
-0.00780134 -0.0142461
-0.00833091 -0.0162548
-0.00379863 -0.149228
-0.0091751 -0.150059
-0.00128694 -0.0620363
-0.00295583 -0.0655591
-0.0135533 -0.09026
-0.00914342 -0.0891781
-0.0376976 -0.269339
-0.031904 -0.265831
0.00192907 -0.00676248
0.000891347 -0.00583282
0.0164534 -0.302179
0.0232628 -0.302133
0.0418932 -0.43975
0.0355773 -0.443377
-0.00552473 -0.271681
-0.0115989 -0.269141
0.0123766 -0.108055
0.0158457 -0.104895
-0.00123844 -0.020802
-0.000578289 -0.0229757
0.00386831 -0.00330665
0.00411236 -0.00284739
-0.00901765 -0.0121531
-0.00806838 -0.0132214
-0.00492165 -0.0314369
-0.00395639 -0.0340171
0.00783154 -0.0174266
0.00801375 -0.0196187
0.0349009 -0.435922
0.0278177 -0.437558
0.000432614 -0.000106637
0.00105872 -0.000398964
0.00499659 -0.00950127
0.00576176 -0.0111609
0.0016021 -0.126516
0.00525754 -0.130181
-0.0079468 -0.0144969
-0.00935898 -0.0163686
-0.0131117 -0.423164
-0.00768951 -0.427963
0.0222284 -0.247206
0.0220453 -0.240726
0.0101287 -0.208784
0.0128839 -0.203279
-0.0155251 -0.15332
-0.0161278 -0.158881
0.0327354 -0.480581
0.0399567 -0.479307
-0.0376566 -0.464309
-0.0314442 -0.468144
0.00185044 -0.000815034
0.00184458 -0.000915425
-0.00103109 -0.000432356
-0.00165349 -0.00080986
-0.00847515 -0.236543
-0.0121725 -0.24185
0.0155901 -0.0425346
0.0168947 -0.0457605
0.025743 -0.432178
0.0322227 -0.428916
0.0146279 -0.144076
0.0105463 -0.140444
0.0240761 -0.0918957
0.0214882 -0.0878737
-0.00841147 -0.458085
-0.00319431 -0.463176
0.000554261 -0.0633232
0.000211175 -0.0672289
-0.0180368 -0.0979187
-0.0146187 -0.10086
0.0240414 -0.0978638
0.0229942 -0.0932205
-0.00567405 -0.00780698
-0.0062222 -0.0093244
-0.0228866 -0.100493
-0.0276537 -0.101384
-0.0240463 -0.155421
-0.0225504 -0.160687
-0.00272619 -0.0625889
-0.00479209 -0.0594904
-0.018794 -0.144561
-0.0158114 -0.148915
-0.0103632 -0.116555
-0.0152263 -0.117653
-0.016971 -0.353569
-0.0240743 -0.354144
-0.0355915 -0.373548
-0.0403559 -0.368285
0.0349353 -0.315884
0.0335336 -0.309073
-0.0218346 -0.116419
-0.0247559 -0.112729
-0.00680788 -0.127966
-0.0019518 -0.12951
0.000195268 -6.54445e-05
0.000831091 -0.000299365
0.0171977 -0.269134
0.0149613 -0.275377
0.00416281 -0.114594
0.00202966 -0.119081
-0.00104118 -0.00107129
-0.00118536 -0.00169657
-0.043347 -0.401418
-0.0405247 -0.40804
0.0323471 -0.317551
0.0276007 -0.322507
-0.00340551 -0.038802
-0.0039629 -0.0358183
0.00437721 -0.131653
0.000919343 -0.135541
0.00030937 -0.0624381
-0.00311205 -0.0609068
-0.00245757 -0.48458
-0.00793905 -0.48939
0.0103641 -0.0321643
0.00974121 -0.0348625
-0.0329228 -0.29621
-0.039606 -0.295176
-0.000915732 -0.00100215
-0.000851512 -0.000583961
0.0176357 -0.0583756
0.0209551 -0.0607198
0.0201255 -0.372075
0.0131241 -0.370663
0.0128397 -0.0380434
0.00982672 -0.03811
0.00185165 -0.00493679
0.00199292 -0.00619278
-0.00173794 -0.00673506
-0.00103965 -0.00553327
0.0103911 -0.0187652
0.0086768 -0.0169039
0.0167907 -0.484715
0.0228725 -0.488757
0.0316207 -0.258929
0.0341432 -0.252992
-0.00193884 -0.00114385
-0.00268854 -0.00178779
0.0039444 -0.488365
0.00877898 -0.493814
-0.00777419 -0.130023
-0.0102492 -0.134712
-0.0284695 -0.253963
-0.0331195 -0.258793
-0.016332 -0.273628
-0.0125754 -0.268062
-0.0048782 -0.18297
-0.00074717 -0.178823
0.00033883 -0.000103548
0.00108975 -0.000452381
8.87623e-06 -0.0903225
-0.00420786 -0.0913052
-0.000703273 -0.000565822
-0.000337264 -0.000226136
0.00542683 -0.24506
0.0118197 -0.245739
0.00968555 -0.374664
0.0155442 -0.378797
-0.0319799 -0.45665
-0.0246928 -0.45678
-0.0181921 -0.0716939
-0.01632 -0.0679071
0.0328463 -0.438521
0.0257974 -0.436685
-0.0336672 -0.283187
-0.036332 -0.277139
-0.0159717 -0.151193
-0.0115587 -0.147796
0.00470111 -0.234762
0.0082852 -0.240096
-0.023209 -0.418641
-0.0261634 -0.412033
-0.000707232 -0.0016295
-0.00126152 -0.00231386
-0.0211617 -0.160645
-0.0183895 -0.155635
-0.00617196 -0.0116006
-0.00636922 -0.0100872
0.0251336 -0.19626
0.0192579 -0.197417
0.0319178 -0.165965
0.0277539 -0.161797
-0.00265422 -0.333416
-0.00739513 -0.338497
-0.0314388 -0.426082
-0.038513 -0.42451
-0.000691352 -0.286165
0.00065623 -0.279551
-0.021104 -0.266223
-0.0276214 -0.265439
0.0284569 -0.424131
0.032528 -0.430197
-0.0123952 -0.436939
-0.0128367 -0.444243
-0.0140556 -0.453189
-0.0212139 -0.451949
0.0102193 -0.14541
0.00629296 -0.149042
-0.00171449 -0.0102914
-0.000262416 -0.0110065
0.00239209 -0.249849
0.008603 -0.248165
0.0339867 -0.44268
0.0402409 -0.438954
-0.0196794 -0.304704
-0.0131053 -0.306456
0.0137296 -0.0345528
0.0162566 -0.0367617
0.0060354 -0.0092685
0.00450137 -0.00919036
0.001908 -0.160722
0.00419547 -0.165913
-0.0127278 -0.223903
-0.0100648 -0.22957
-0.0097314 -0.0147625
-0.00783247 -0.0147776
-0.00292611 -0.0701948
-0.00582356 -0.073111
0.0277652 -0.303405
0.022396 -0.299053
-0.0355271 -0.276667
-0.0297948 -0.272996
-0.00486972 -0.288917
-0.000381502 -0.293972
-0.0050958 -0.088771
-0.00849116 -0.0917426
-0.026997 -0.360934
-0.0246999 -0.354091
0.00182886 -0.200127
0.00507729 -0.195094
0.0052207 -0.139026
0.00165163 -0.135094
-0.0119701 -0.121196
-0.007014 -0.120508
0.0151396 -0.239173
0.01027 -0.234938
7.58038e-06 -0.0514912
-0.00336922 -0.0524257
0.0183676 -0.126179
0.0201432 -0.131162
-0.0141397 -0.324133
-0.0210614 -0.324796
0.00218047 -0.0157521
0.0012034 -0.0175546
-0.000264071 -9.91683e-05
-6.76394e-05 -2.78235e-05
-0.0152072 -0.0689938
-0.0187816 -0.071324
0.00195741 -0.160376
0.00107023 -0.154849
0.0157606 -0.158857
0.0175257 -0.164288
0.0241444 -0.197894
0.0193176 -0.201376
-0.0113067 -0.184078
-0.00915321 -0.189564
-0.0179511 -0.196446
-0.0229075 -0.193248
-0.0105991 -0.0714468
-0.0114145 -0.0755377
-0.00046929 -0.000506553
-0.000126065 -0.000282262
0.00681409 -0.0317935
0.00515889 -0.0338685
0.0095002 -0.0138221
0.00757529 -0.013551
-0.00146269 -0.0183469
5.73914e-05 -0.0168699
0.0229378 -0.448567
0.0275553 -0.454239
0.00943971 -0.0268859
0.0121123 -0.0271778
0.000912836 -0.134551
-0.00274928 -0.130858
-0.0185223 -0.120894
-0.0171289 -0.125671
0.00844389 -0.0982648
0.0109822 -0.0944662
-0.0117259 -0.371279
-0.00865234 -0.364836
-0.0164954 -0.226831
-0.0140779 -0.232631
-0.00544702 -0.451891
0.00172203 -0.453016
0.00871116 -0.0292935
0.00836824 -0.0320244
0.0123216 -0.0346491
0.0148287 -0.0336604
-0.0256975 -0.296941
-0.0323946 -0.29598
0.00477862 -0.312398
-0.000971571 -0.316145
-0.0143364 -0.0410076
-0.0137798 -0.0440208
0.0079804 -0.231812
0.0102354 -0.237825
0.0231715 -0.432793
0.0179072 -0.427755
0.0108406 -0.0399964
0.0132114 -0.0384252
-0.00512367 -0.0528796
-0.00734619 -0.0558525
1.09371e-05 -0.0130893
0.0012097 -0.014603
-0.00295534 -0.296133
-0.000770041 -0.302614
0.0234768 -0.14661
0.0251123 -0.151944
0.0187209 -0.0663631
0.0148485 -0.0652416
0.00967988 -0.037339
0.00924264 -0.0403264
-0.0166628 -0.180909
-0.0156801 -0.186692
-0.024094 -0.135027
-0.0285385 -0.132686
0.0106857 -0.0285476
0.00824785 -0.0293787
0.0187377 -0.0418363
0.0161043 -0.0394484
-0.0188597 -0.163407
-0.0244365 -0.1646
-0.00800389 -0.281668
-0.00142659 -0.280502
-0.0270546 -0.135945
-0.031062 -0.132985
0.0155658 -0.405108
0.0212687 -0.409581
0.0222834 -0.121718
0.0219144 -0.11668
-0.00562551 -0.310238
-0.0123259 -0.308943
0.0168778 -0.150134
0.0198203 -0.154952
-0.0336571 -0.453834
-0.0338266 -0.446516
-0.00118578 -0.0721769
-0.00417146 -0.0695464
-0.00147941 -0.0442687
-0.00467205 -0.0438598
0.00786176 -0.0384705
0.00909458 -0.0358848
-0.00468082 -0.069905
-0.00793189 -0.0724339
0.0181208 -0.282787
0.0202725 -0.289242
-0.00155603 -0.062913
-0.00483923 -0.0649909
-0.0284524 -0.201984
-0.024644 -0.196977
-0.0280979 -0.114823
-0.0235495 -0.116344
-0.0158581 -0.0437846
-0.0151529 -0.0468261
-0.0251331 -0.461944
-0.0311218 -0.457792
-0.00103929 -0.0173885
0.000714837 -0.0163446
-0.0316929 -0.310985
-0.0318232 -0.304107
0.0221677 -0.217131
0.0228188 -0.210879
-0.000345833 -0.0669055
-0.00387271 -0.0686936
-0.022349 -0.184597
-0.0179758 -0.18046
0.00776406 -0.0935429
0.00358755 -0.0951265
-0.00994369 -0.0424586
-0.0122744 -0.0450834
0.00863905 -0.0697666
0.00884551 -0.0738491
0.0201289 -0.461613
0.0140479 -0.457591
0.02787 -0.218071
0.0326315 -0.214231
0.00283232 -0.0057989
0.00160356 -0.00563427
0.00340681 -0.0201208
0.0054813 -0.0194514
0.0305051 -0.338618
0.0235566 -0.337291
0.00178936 -0.00872044
0.000485968 -0.00943708
-0.0158286 -0.0783464
-0.0130613 -0.0749394
-0.00616098 -0.237279
-0.00610656 -0.230896
-0.00722585 -0.162161
-0.0119968 -0.15939
0.0311296 -0.360531
0.0240738 -0.361509
-0.0211086 -0.468498
-0.015387 -0.463948
-0.00356238 -0.434201
-0.0103882 -0.431791
0.0140755 -0.488592
0.00706963 -0.486653
0.00798055 -0.154309
0.0133597 -0.155627
-0.000414213 -0.473362
0.00447081 -0.478781
-0.00245016 -0.0575186
-0.000916372 -0.0609108
0.00622757 -0.0246534
0.00880515 -0.0247684
-0.0376516 -0.317614
-0.0396515 -0.324366
0.000149718 -0.00644763
0.000577248 -0.00781141
-0.0246094 -0.380296
-0.0178819 -0.377779
0.0111222 -0.193049
0.00657789 -0.196888
0.0183384 -0.0451578
0.0185069 -0.0484814
-0.00784605 -0.0111155
-0.00645829 -0.0116088
-0.000416878 -0.0393197
-0.00199634 -0.0366974
-0.0205061 -0.241104
-0.0269252 -0.241219
0.0206741 -0.0749532
0.016605 -0.0736726
-0.00107683 -0.123586
0.00320191 -0.126336
0.0250369 -0.419145
0.0322794 -0.418998
-0.0273794 -0.304036
-0.0340689 -0.305759
0.0134956 -0.42197
0.0121905 -0.429142
0.00959052 -0.139131
0.00556218 -0.135615
0.0088706 -0.018249
0.00665286 -0.0179034
-0.00149428 -0.00938991
-0.00210225 -0.011011
0.00762239 -0.02396
0.0101689 -0.0249967
-0.00666549 -0.0107864
-0.00527497 -0.0113084
-0.0167203 -0.128185
-0.0169124 -0.123082
-0.00453409 -0.0559986
-0.00813833 -0.0560535
0.0373494 -0.237763
0.0323401 -0.24156
0.00233802 -0.25906
-0.003678 -0.26163
-0.00715079 -0.481888
-0.0116581 -0.476138
-0.0151838 -0.0419647
-0.012071 -0.0406275
0.0179299 -0.129061
0.0151498 -0.133285
8.53821e-05 -0.200792
-0.00420053 -0.196662
-0.0180158 -0.0837977
-0.0186966 -0.0882106
0.0164084 -0.0403217
0.019074 -0.0427218
0.00368824 -0.00442656
0.00349059 -0.00537405
0.011181 -0.0613408
0.00852858 -0.0638532
0.00438397 -0.392602
-0.000428267 -0.397958
-0.0158984 -0.209043
-0.00970645 -0.20804
-0.0314613 -0.346799
-0.0305727 -0.353899
0.0345165 -0.445598
0.0352227 -0.452886
0.00897794 -0.0249188
0.0113459 -0.0244688
-0.0136982 -0.134607
-0.0121165 -0.139588
0.00492356 -0.00680419
0.00457665 -0.00553149
-0.0030058 -0.0450189
-0.00375858 -0.0418687
0.00464106 -0.0577293
0.00169463 -0.059883
0.00912529 -0.181338
0.0138629 -0.18489
0.0050719 -0.00925042
0.00597047 -0.00839903
0.000101499 -0.00143145
1.14823e-05 -0.000827022
0.0246628 -0.128681
0.0291649 -0.126616
0.0257587 -0.371154
0.0329216 -0.371297
-0.0316156 -0.268253
-0.0293334 -0.274417
0.00195989 -0.417072
-0.00422227 -0.420837
-0.00062135 -0.000201198
-0.000306967 -5.11276e-05
0.023057 -0.30413
0.0292407 -0.307229
-0.00320902 -0.274609
-0.00949308 -0.272554
-0.0104437 -0.424699
-0.00952296 -0.417466
0.0118951 -0.210537
0.00804022 -0.205576
-0.0161139 -0.200785
-0.0132284 -0.206121
0.0238249 -0.22503
0.0271968 -0.230571
0.0246328 -0.161841
0.0209664 -0.157376
0.000995283 -0.000403511
0.00059087 -0.000212768
-0.0321272 -0.447705
-0.0319723 -0.44039
-0.00300295 -0.00954116
-0.00146954 -0.00904729
-0.0129631 -0.0499563
-0.0115957 -0.0529779
0.0157008 -0.179664
0.0171549 -0.174085
0.0182199 -0.193924
0.0189166 -0.199968
0.022333 -0.0863004
0.0256567 -0.0897573
-0.0284015 -0.289953
-0.0295828 -0.283336
0.0317762 -0.239175
0.0281899 -0.244381
0.0166284 -0.156988
0.0111584 -0.155991
0.00521654 -0.390963
0.0112146 -0.387065
0.0238959 -0.24105
0.0299625 -0.243483
0.000568716 -0.407587
-0.00300035 -0.413906
-0.0185902 -0.102548
-0.0210587 -0.0987536
-0.00164202 -0.000975837
-0.00102064 -0.000587171
0.0179541 -0.0676753
0.0197396 -0.0714973
-0.0111132 -0.108858
-0.0159011 -0.109854
-0.01289 -0.116746
-0.00984058 -0.112718
-0.012052 -0.28518
-0.0109286 -0.278516
-0.0274176 -0.463869
-0.0217009 -0.4593
0.00847671 -0.25512
0.0120667 -0.260666
0.018494 -0.104084
0.0137162 -0.103895
-0.00387087 -0.425242
-0.00273401 -0.41804
0.00144276 -0.0129273
0.00245321 -0.0115305
0.00685486 -0.082552
0.00539849 -0.0866253
-0.0180829 -0.200321
-0.0145032 -0.195297
-0.0137798 -0.07612
-0.0179269 -0.0761777
-0.00892963 -0.0899701
-0.00959977 -0.08562
0.0218315 -0.173618
0.0161522 -0.172499
-0.0108995 -0.0903689
-0.00835922 -0.0939956
-0.0153893 -0.127326
-0.0146204 -0.122224
-0.0224593 -0.0891149
-0.0264258 -0.0919239
0.00848772 -0.467384
0.0115003 -0.474056
0.00752268 -0.47354
0.00796814 -0.466213
-0.00477148 -0.00729909
-0.00459243 -0.00601998
-0.0221922 -0.324415
-0.0282078 -0.321053
0.000777099 -0.0862741
0.00286196 -0.0824737
-0.0158327 -0.416167
-0.0100483 -0.420488
0.0273668 -0.117644
0.0287702 -0.122623
0.00530973 -0.389554
0.00249821 -0.38292
0.0197908 -0.113506
0.0239026 -0.111181
-0.00480459 -0.0320455
-0.00674281 -0.0342794
0.0140941 -0.0596147
0.0109716 -0.0572537
-0.0037567 -0.197674
0.00074535 -0.201544
0.0277208 -0.225739
0.0225136 -0.221927
-0.0222828 -0.365069
-0.0257528 -0.371392
-0.010804 -0.321536
-0.0144416 -0.315665
0.021594 -0.282487
0.0222854 -0.289232
-0.00639348 -0.467268
-0.0114581 -0.462018
0.00264203 -0.00169296
0.00185199 -0.00108836
0.0220611 -0.0660468
0.0182631 -0.0664859
0.0201378 -0.415649
0.0234253 -0.409198
0.0259973 -0.422972
0.0326306 -0.420079
0.00596696 -0.137767
0.00118393 -0.135549
-0.02066 -0.21952
-0.0253851 -0.215577
0.0357276 -0.467503
0.0294734 -0.463702
-0.00614231 -0.324089
-0.00155452 -0.329282
0.023066 -0.26755
0.0296738 -0.267502
-0.0326217 -0.198429
-0.0266042 -0.198972
-0.00931716 -0.373398
-0.00280198 -0.370609
-0.00641108 -0.390387
0.00061895 -0.389111
-0.000119064 -2.7662e-05
-0.000721807 -0.000264955
-0.0282231 -0.483964
-0.0343707 -0.479996
-0.00267402 -0.0015926
-0.0035598 -0.00230959
-0.00811547 -0.0644477
-0.0109097 -0.0674024
-0.0209716 -0.159583
-0.0154754 -0.158392
-0.0226401 -0.112824
-0.0192674 -0.116121
-0.0121232 -0.234951
-0.0148997 -0.240804
-0.0216275 -0.439003
-0.0251818 -0.432657
0.00443751 -0.0216392
0.00254494 -0.0201951
0.00297727 -0.0101612
0.00436471 -0.00964916
-0.00131975 -0.0836156
-0.00294176 -0.0796477
0.0100588 -0.0315558
0.0084286 -0.0289934
0.00595476 -0.0168735
0.00430141 -0.0179496
0.000581471 -0.00500209
-1.95086e-05 -0.00607288
-0.0136211 -0.126289
-0.0105245 -0.13025
0.0194932 -0.0630002
0.017337 -0.0595531
0.0163434 -0.40711
0.0222934 -0.41125
-0.0108203 -0.468382
-0.0124676 -0.475534
0.0234236 -0.360322
0.0295362 -0.36411
-0.00308145 -0.0722979
-0.00266186 -0.0764165
-0.0128985 -0.047441
-0.0095395 -0.0467892
-0.00386449 -0.0648882
-0.00676978 -0.0625181
-0.0158389 -0.140728
-0.021159 -0.141314
-0.00192339 -0.00301749
-0.00124528 -0.00342187
-0.0171714 -0.314289
-0.021267 -0.319945
0.013618 -0.140369
0.0146037 -0.135199
0.0143498 -0.428369
0.00798801 -0.424889
-0.00988234 -0.0182672
-0.0100046 -0.0204624
0.00364394 -0.0481976
0.00260635 -0.0449487
-0.0258694 -0.376705
-0.0187669 -0.377338
-0.0023162 -0.00400869
-0.00341193 -0.00468685
-0.0327999 -0.196643
-0.0310505 -0.190749
0.0220894 -0.342048
0.0213026 -0.34916
0.00228135 -0.0034179
0.0028088 -0.00448
-0.0249186 -0.246003
-0.030454 -0.242927
0.0348172 -0.325359
0.0278755 -0.324472
0.00513556 -0.0468138
0.00719995 -0.0496751
-0.019809 -0.389787
-0.0160088 -0.395871
-0.0349214 -0.274206
-0.0334246 -0.26765
-0.00455035 -0.204813
-0.00810073 -0.19996
0.0116151 -0.0489015
0.00947767 -0.051366
0.0192348 -0.0802302
0.0185113 -0.0843733
-0.0321255 -0.266689
-0.0387536 -0.267104
-0.0107351 -0.0379391
-0.0126404 -0.040721
0.0123104 -0.164411
0.0178885 -0.165423
-0.0353498 -0.225608
-0.034949 -0.219258
0.0131444 -0.129261
0.0119162 -0.124202
-0.0191716 -0.25381
-0.0162051 -0.247921
0.00212386 -0.0103837
0.000751174 -0.0112343
-0.00576369 -0.481117
-0.000626946 -0.486287
-0.000629615 -0.00208959
-0.00137535 -0.00217079
-0.0056438 -0.00649385
-0.00429879 -0.00610694
0.0177252 -0.274058
0.0237559 -0.271425
0.00149236 -0.00392041
0.000928716 -0.00475207
-0.0144161 -0.0295211
-0.0132832 -0.02678
-0.0289473 -0.268797
-0.0228813 -0.271259
-0.0154645 -0.32432
-0.0220715 -0.326609
0.0116619 -0.249006
0.0153008 -0.243725
-0.0342625 -0.43695
-0.0405626 -0.440689
-0.0308554 -0.217898
-0.0272395 -0.212544
0.00277213 -0.0377611
0.00118616 -0.0351703
-1.02371e-05 1.94908e-05
2.7815e-05 -6.4475e-05
-0.000555174 -0.000191009
-0.000181053 -7.95366e-06
-0.000555766 -0.0598628
-0.0038951 -0.0616314
-0.00301971 -0.159891
0.00251406 -0.159465
-0.0366454 -0.324736
-0.0303197 -0.321581
0.0067946 -0.323441
0.00555346 -0.330308
-0.011051 -0.190224
-0.0114553 -0.184302
0.0147426 -0.424428
0.0187531 -0.41838
-0.0219385 -0.114905
-0.0180947 -0.111463
0.0327257 -0.398043
0.0367085 -0.404133
0.0104763 -0.179353
0.0161635 -0.178405
0.0141708 -0.166596
0.0103366 -0.162318
0.0343403 -0.468855
0.0412653 -0.466481
0.0329192 -0.163985
0.0287191 -0.159872
-0.00902587 -0.0232722
-0.00755129 -0.0209965
0.0121568 -0.0506546
0.0145196 -0.0536022
-0.0085854 -0.201241
-0.0146609 -0.201712
-0.00484872 -0.00632626
-0.00622967 -0.00732192
0.000706169 -0.467044
-0.00597964 -0.46419
-0.00442775 -0.00348968
-0.00338492 -0.00303997
0.0288777 -0.379239
0.0217106 -0.379234
0.0249366 -0.189873
0.0305315 -0.188163
0.00330287 -0.137825
0.00793423 -0.135442
-0.00182347 -0.00103784
-0.00263353 -0.0016389
0.00931301 -0.0107342
0.00852545 -0.00911875
-0.00724673 -0.0515962
-0.00704134 -0.055152
0.0319058 -0.14406
0.0282309 -0.139791
0.0134356 -0.301075
0.0194553 -0.304368
0.0215831 -0.202614
0.0155286 -0.203262
-0.0129757 -0.313028
-0.00613712 -0.312611
-0.00849558 -0.0162985
-0.00776069 -0.0180137
0.0199254 -0.311102
0.0264862 -0.313302
-0.00891671 -0.0288824
-0.0111648 -0.0278149
-0.0345129 -0.32058
-0.0360805 -0.327445
-0.0205627 -0.0807627
-0.0207449 -0.076605
-0.0250339 -0.238713
-0.021638 -0.24405
0.0232505 -0.176746
0.028686 -0.175082
-0.0225078 -0.141618
-0.0205807 -0.136512
0.022778 -0.408943
0.0238675 -0.401781
0.00768921 -0.0100482
0.00942927 -0.0111851
0.00482976 -0.0102613
0.00571927 -0.0119471
0.00517436 -0.00890517
0.00577114 -0.010534
0.00131222 -0.000527396
0.000703126 -0.000263687
0.00280936 -0.00791214
0.00159055 -0.00698343
-0.024403 -0.170474
-0.0270843 -0.165638
0.00542974 -0.0595362
0.00174838 -0.0591029
-0.0171713 -0.408495
-0.010061 -0.409588
0.0264682 -0.157952
0.0295142 -0.153569
0.00952488 -0.190359
0.00968358 -0.196364
-0.00302636 -0.152566
-0.00832692 -0.15137
0.00139033 -0.191021
0.00670305 -0.193607
0.0333098 -0.228868
0.027018 -0.227619
0.00154847 -0.00318479
0.00133812 -0.00228436
0.0204995 -0.0541259
0.0173148 -0.0552426
-0.00704607 -0.0494644
-0.00380623 -0.0503855
0.00938049 -0.0215628
0.00725703 -0.0222655
-0.00811608 -0.0213549
-0.00761047 -0.0236089
-0.0105458 -0.0789518
-0.00766169 -0.0819165
0.00378594 -0.246337
0.00322963 -0.252832
0.00213505 -0.00113459
0.00254803 -0.00166891
-0.00028275 -0.000720788
-3.26217e-05 -0.000348744
-0.022944 -0.34027
-0.0162008 -0.33801
0.0214857 -0.187366
0.0273821 -0.187032
-0.0134614 -0.0729885
-0.0142923 -0.0771218
-0.0262456 -0.310012
-0.0322337 -0.313617
-0.00942597 -0.0160998
-0.00748021 -0.0162844
-0.014798 -0.0421526
-0.0123577 -0.0396628
-0.0125855 -0.0499782
-0.0160353 -0.0501576
-0.0199449 -0.124172
-0.0157177 -0.121063
0.000185152 -5.13751e-05
0.000941076 -0.000374285
-0.00550738 -0.156647
-0.00115921 -0.160069
0.0160544 -0.0660472
0.0178847 -0.0697924
-0.0281847 -0.399794
-0.0215903 -0.402618
0.022538 -0.484866
0.0264021 -0.491097
0.0138789 -0.0404377
0.0109243 -0.0388646
-0.0089523 -0.109463
-0.0137265 -0.109705
-0.00901064 -0.264881
-0.0130162 -0.270224
-0.00154696 -0.434853
-0.0084142 -0.432561
-0.00571059 -0.0190407
-0.00725624 -0.0210417
0.0154033 -0.464904
0.0150908 -0.472236
-0.0226161 -0.346027
-0.0155294 -0.346588
-0.0141721 -0.192819
-0.0184454 -0.188801
-0.00522817 -0.0040132
-0.00461735 -0.00428072
0.00757982 -0.409621
0.00567326 -0.416634
-0.0066759 -0.428414
-0.00512611 -0.421284
-0.0297079 -0.254712
-0.0325285 -0.248968
-0.0197168 -0.164099
-0.0224259 -0.169263
0.012287 -0.0312776
0.0151741 -0.0317821
0.00781098 -0.00980541
0.00884008 -0.0114753
-0.0124104 -0.272812
-0.00690025 -0.276465
0.00457085 -0.147118
0.00921021 -0.150031
-0.00580514 -0.150654
-0.0102856 -0.147695
-0.0016283 -0.00367443
-0.000658612 -0.00363305
-0.0177615 -0.176684
-0.0120807 -0.175454
0.0151876 -0.0820749
0.0173523 -0.086062
-0.022023 -0.254044
-0.0274368 -0.257916
0.0342277 -0.270383
0.0376903 -0.264878
0.0134848 -0.0346843
0.0164341 -0.0360409
-0.00463053 -0.0376253
-0.0069532 -0.0359805
-0.00779629 -0.157012
-0.0049741 -0.152191
0.00587194 -0.296672
0.00878859 -0.302876
0.00708342 -0.0696367
0.00997263 -0.0671181
-0.021494 -0.348393
-0.0259182 -0.342888
-0.0254415 -0.125203
-0.0251993 -0.120129
0.0106 -0.0349441
0.00951717 -0.0375363
0.00990811 -0.0231505
0.0114006 -0.0255986
-0.0117942 -0.493366
-0.00472096 -0.491717
0.00944738 -0.0177244
0.0117151 -0.0183403
-0.0149649 -0.0878424
-0.01058 -0.0882363
-0.00755151 -0.442639
-0.00301215 -0.436924
0.0163859 -0.0395719
0.0136079 -0.0375734
0.0102718 -0.166158
0.00635543 -0.170208
-0.0130617 -0.12823
-0.00889756 -0.125081
0.0332866 -0.316649
0.02699 -0.313624
0.00895513 -0.165128
0.00340224 -0.164205
0.0303651 -0.160394
0.0318059 -0.155148
0.00967032 -0.0374092
0.00668767 -0.0373914
0.0191014 -0.402815
0.0176219 -0.409909
0.0127185 -0.0590839
0.0147637 -0.0625028
0.0162968 -0.0602601
0.0178897 -0.0639391
0.0163977 -0.0427132
0.0132755 -0.0412675
-0.00302376 -0.197058
0.00199028 -0.193915
0.0104633 -0.181339
0.0103977 -0.187251
0.0245205 -0.157249
0.0237224 -0.151717
0.0262075 -0.15159
0.0311531 -0.154466
0.0118676 -0.376985
0.00476599 -0.37724
-0.0237054 -0.432567
-0.0191823 -0.426829
-0.00410788 -0.00444951
-0.00427006 -0.00373147
0.0150761 -0.0266283
0.0137204 -0.024043
-0.0126913 -0.0479521
-0.0101602 -0.049897
-0.0174395 -0.165837
-0.0125047 -0.162897
0.0188713 -0.171801
0.0147877 -0.167626
0.0111767 -0.13928
0.0103215 -0.134017
0.00332645 -0.00435942
0.00436155 -0.00537288
-0.0268368 -0.440923
-0.0340489 -0.441958
0.00952039 -0.0169588
0.0104868 -0.0155658
-0.014757 -0.103437
-0.0146338 -0.108308
-0.0277634 -0.149459
-0.0223935 -0.15003
0.0393112 -0.321313
0.0386954 -0.314378
-0.0104599 -0.0950797
-0.0136006 -0.0919678
-0.00125337 -0.0896752
-0.00519213 -0.0915881
0.00801377 -0.0548504
0.0115005 -0.0543826
-0.0234143 -0.167143
-0.0259735 -0.162279
-0.00832139 -0.370868
-0.00166313 -0.373217
-0.0189509 -0.0976745
-0.0154738 -0.0942161
-0.0096536 -0.0207958
-0.00927795 -0.0230206
0.00660475 -0.0615979
0.0062495 -0.0578294
-0.0405818 -0.343829
-0.0335725 -0.344771
0.0360755 -0.404738
0.0353271 -0.397526
0.00159653 -0.0551065
-0.00194249 -0.0546624
0.00504311 -0.241132
-0.00129294 -0.24042
0.00785231 -0.191169
0.0137047 -0.192199
0.00886604 -0.141536
0.00746327 -0.146718
0.0122435 -0.0945344
0.0125292 -0.0992526
-0.0123668 -0.242657
-0.00932761 -0.248313
-0.0353627 -0.192926
-0.0352371 -0.198957
-0.0034905 -0.00241952
-0.00258761 -0.00197245
0.0350409 -0.198773
0.0336011 -0.204619
0.0301109 -0.467173
0.0228478 -0.46646
0.0228942 -0.161135
0.0266964 -0.157307
-0.00196341 -0.403228
-0.00460703 -0.409989
0.000533151 -0.238582
0.00683122 -0.239513
-0.001904 -0.00177529
-0.00251749 -0.00184349
-0.0362372 -0.34249
-0.0412326 -0.337618
-0.0130901 -0.0419511
-0.0100042 -0.0406681
-0.0403962 -0.450085
-0.0337494 -0.453065
0.0286367 -0.252417
0.0306422 -0.258739
-0.0256388 -0.271379
-0.026859 -0.277997
-0.0132698 -0.279205
-0.00868184 -0.274281
-0.0268968 -0.238991
-0.0220593 -0.243026
-0.00969613 -0.148627
-0.0146343 -0.14662
-0.03043 -0.180241
-0.0332487 -0.175391
0.00236628 -0.00136989
0.00299235 -0.00204012
-0.00795958 -0.0191388
-0.00825002 -0.0214584
-0.000686997 -0.000594122
-0.000480681 -0.000232114
0.0210293 -0.237821
0.0237005 -0.232092
-0.00468729 -0.00350561
-0.00391797 -0.00351552
0.00586099 -0.00725121
0.00529569 -0.00591934
0.0227052 -0.237652
0.0236959 -0.231355
-0.0121093 -0.122295
-0.0167118 -0.120593
-0.00471736 -0.0189186
-0.00282697 -0.0199196
-0.00185575 -0.237055
-0.00681701 -0.233123
0.0276554 -0.221928
0.0339465 -0.222886
0.000546531 -0.00131588
-2.68494e-05 -0.00120065
0.0240719 -0.0908253
0.023332 -0.0863458
0.0207751 -0.090422
0.0203081 -0.0859523
-0.0297464 -0.162043
-0.0325326 -0.157455
-0.000639981 -0.165762
-0.000444389 -0.160101
-0.00647451 -0.38387
-0.0081283 -0.376886
0.00157879 -0.394928
-0.000577828 -0.388039
-0.0227175 -0.230542
-0.0216383 -0.22423
0.0130375 -0.181157
0.00723067 -0.18102
-0.000499871 -0.00865729
0.000141137 -0.00730565
-0.00384214 -0.00254968
-0.00291832 -0.00210971
0.0069189 -0.0435151
0.00946288 -0.0418378
3.38723e-06 1.4042e-05
9.73124e-05 -1.9476e-05
0.0265722 -0.148404
0.0301567 -0.152861
0.00863894 -0.318491
0.00986838 -0.325346
0.00828515 -0.0100475
0.00796384 -0.00856578
0.00917994 -0.320838
0.00235119 -0.320176
-0.0164838 -0.105148
-0.0117998 -0.103717
-0.0144132 -0.281888
-0.0186088 -0.287245
-0.0086212 -0.0803617
-0.0102963 -0.0765887
-0.0300522 -0.302482
-0.0289581 -0.295698
-0.013299 -0.0796315
-0.0135476 -0.0839413
-0.00243696 -0.0183086
-0.000420477 -0.0177411
0.0170017 -0.400498
0.0154914 -0.393411
-0.00668782 -0.013377
-0.00548502 -0.0145194
0.0234863 -0.287538
0.0177785 -0.291019
0.00220814 -0.00113119
0.00310793 -0.00172794
0.0132653 -0.081064
0.0163385 -0.0784289
-0.00764462 -0.0939366
-0.00902243 -0.089687
0.00294981 -0.147564
0.00530325 -0.152544
-0.0180867 -0.0394074
-0.0150352 -0.0379291
0.0160812 -0.185827
0.0127903 -0.190681
0.00846256 -0.00847394
0.00714498 -0.00712051
0.0135424 -0.0497494
0.0116036 -0.0466743
-0.0219432 -0.0905599
-0.0194834 -0.0865189
0.0245853 -0.0952808
0.021796 -0.0912765
-0.000715163 -0.000294762
-0.000487301 -0.000253267
-0.0388805 -0.361757
-0.0426993 -0.367923
0.00917882 -0.294882
0.00498955 -0.289522
-0.00248154 -0.00133772
-0.00181093 -0.00100466
-0.0329188 -0.269914
-0.028732 -0.274924
0.00123974 -0.0101651
0.00277696 -0.00988627
0.00526946 -0.258254
0.00876351 -0.263871
-0.011554 -0.0858063
-0.00721322 -0.0852576
0.0194157 -0.0787605
0.0213377 -0.0828179
-0.0011261 -0.00105777
-0.000790788 -0.000545939
-0.00822011 -0.0882584
-0.0124157 -0.0900009
0.0219521 -0.202749
0.0239826 -0.197095
0.0283526 -0.22325
0.0317075 -0.228821
-0.0294562 -0.370251
-0.0360843 -0.373103
0.00870988 -0.267505
0.00891189 -0.260883
0.00273802 -0.133943
-0.00160418 -0.131086
-0.000667497 -0.00389487
0.000102796 -0.00461163
-0.024128 -0.288304
-0.0230654 -0.281601
-0.00323261 -0.411619
-0.00354902 -0.404362
0.0164675 -0.373279
0.0235135 -0.374538
0.0145392 -0.336645
0.00878718 -0.33266
0.0210153 -0.424986
0.0186189 -0.431864
0.0177545 -0.0543572
0.0146342 -0.0521022
0.000809924 -0.000271256
0.000877045 -0.000329281
0.000525582 -0.00612803
-0.000597928 -0.0067979
-0.0088428 -0.100645
-0.0115984 -0.0968856
0.0170501 -0.0726691
0.0194348 -0.0763335
-0.0378211 -0.263824
-0.0383493 -0.257293
-0.00382788 -0.00678077
-0.00497872 -0.00801355
0.00844359 -0.0321243
0.00626331 -0.0300413
-0.000336217 -0.0223657
-0.00216011 -0.023715
-0.00104483 -0.0537955
0.0024061 -0.0546571
0.0243648 -0.192369
0.0274235 -0.197749
-0.00796242 -0.473148
-0.0136678 -0.468611
-0.00914577 -0.0205607
-0.00932778 -0.0229521
0.00456569 -0.40688
0.0104121 -0.411127
0.0112102 -0.43477
0.00449566 -0.437512
-0.0268583 -0.393197
-0.0272231 -0.400425
-0.00587268 -0.0107792
-0.0053631 -0.00913647
0.0235728 -0.0737778
0.0203704 -0.0707383
-0.000296281 -0.00742605
-0.0012443 -0.00650927
-0.0013032 -0.291711
-6.30073e-05 -0.28504
0.0066502 -0.0499066
0.00998143 -0.0494087
0.0120052 -0.205373
0.0158329 -0.200693
-0.00618331 -0.267646
-3.02827e-05 -0.269998
-0.0182752 -0.439966
-0.0116693 -0.436916
-0.00212015 -0.00179291
-0.0016666 -0.00114859
0.0251497 -0.280136
0.0259839 -0.273509
0.00950779 -0.292139
0.0154622 -0.289042
-0.00472004 -0.00341369
-0.00427147 -0.00268477
-0.0198021 -0.349656
-0.026674 -0.351609
-0.00209314 -0.183825
-0.00788718 -0.183315
-0.0260508 -0.105861
-0.0232022 -0.101634
0.0193329 -0.314072
0.0129314 -0.316531
-0.00230298 -0.0011773
-0.0025457 -0.00149556
0.000470863 -0.000170569
0.000921854 -0.000456125
0.0239904 -0.301397
0.0174996 -0.29922
0.0175586 -0.383507
0.0189095 -0.390603
0.00273597 -0.0448582
0.00339104 -0.0481936
0.00318447 -0.00628757
0.00369837 -0.00768358
0.00738023 -0.0344784
0.00457989 -0.034681
-0.0152965 -0.0908684
-0.0191942 -0.0936587
0.00605262 -0.0319444
0.00883976 -0.0320994
-0.0184147 -0.348079
-0.0230867 -0.353602
-0.00737536 -0.46977
-0.0142513 -0.472164
0.00607171 -0.00669423
0.00572143 -0.0054883
-0.00783309 -0.0753698
-0.0115612 -0.0739104
-0.00727259 -0.012251
-0.00545331 -0.0117798
0.0215128 -0.225467
0.0253005 -0.230725
0.00447201 -0.00296657
0.00476762 -0.00373929
-0.0332487 -0.392713
-0.0313755 -0.399663
0.00063792 -0.00388027
0.00160608 -0.00447053
-0.0167197 -0.241795
-0.0211683 -0.246617
0.0140692 -0.306651
0.0208994 -0.306644
0.0389797 -0.491687
0.0420499 -0.484992
-0.000175096 -0.00844057
0.00115564 -0.00921204
0.000570846 -0.0017239
6.17155e-05 -0.00220805
-0.00497312 -0.317398
0.000541053 -0.313281
-0.00650937 -0.413402
-0.00830587 -0.406372
-0.0289393 -0.443681
-0.0228488 -0.447643
0.00421917 -0.0105223
0.00257051 -0.0102882
0.00229811 -0.0010888
0.00187888 -0.000817564
-0.0136347 -0.262181
-0.0157482 -0.255995
-9.30276e-06 -6.78115e-05
-0.000168911 -5.65474e-05
-0.00879115 -0.152927
-0.0142005 -0.154014
-0.0117626 -0.248449
-0.00994852 -0.254689
-0.0167184 -0.14764
-0.0213603 -0.145168
0.019899 -0.414371
0.0226007 -0.407651
-0.00175781 -0.0643935
-0.00558961 -0.0645855
0.0257663 -0.403901
0.0198609 -0.399702
-0.018243 -0.300313
-0.0248347 -0.298773
0.0251746 -0.246478
0.0205707 -0.241781
-0.0131321 -0.0631897
-0.0164038 -0.0616756
0.0212724 -0.222872
0.0257267 -0.227559
0.026059 -0.392701
0.0294602 -0.386381
-0.035273 -0.456867
-0.0334648 -0.463957
-0.00369351 -0.00257358
-0.00472745 -0.00308321
-0.0114912 -0.266346
-0.0112591 -0.259727
-0.00675186 -0.119691
-0.00394354 -0.123833
-0.0267991 -0.121136
-0.0271482 -0.116197
0.0296097 -0.349302
0.0232566 -0.352404
0.0125666 -0.0361239
0.00988867 -0.0370191
0.0173422 -0.13657
0.0201639 -0.141259
-0.00272741 -0.0166316
-0.00248021 -0.0187691
0.0343285 -0.222552
0.037287 -0.228355
0.00676015 -0.257919
0.0132688 -0.257695
0.0255421 -0.264281
0.0190686 -0.262912
0.00610955 -0.0137846
0.00791595 -0.0150854
-8.79346e-06 -0.0641665
-0.00379326 -0.0637349
-0.0111268 -0.0166386
-0.00898316 -0.0156587
0.0214335 -0.117383
0.0255497 -0.114975
0.0124547 -0.446841
0.0110189 -0.439666
0.00676107 -0.0624239
0.00309497 -0.0632413
-0.0220492 -0.243674
-0.0236654 -0.237502
0.00154851 -0.259977
-0.0029384 -0.255217
0.00205379 -0.00659091
0.00283105 -0.00791666
-0.0185662 -0.267084
-0.024985 -0.268845
0.00827345 -0.394658
0.0147805 -0.397733
0.00365651 -0.475537
-0.00274884 -0.472093
-0.0103135 -0.479667
-0.0175756 -0.479261
-0.0135315 -0.0356351
-0.012251 -0.0380566
0.0179653 -0.384461
0.0210823 -0.378013
0.00305835 -0.179848
0.00151733 -0.185533
-0.0127561 -0.152659
-0.00865824 -0.156211
0.0226211 -0.257551
0.0184377 -0.262507
-0.0204303 -0.474012
-0.0258548 -0.478927
0.0108962 -0.324811
0.00656246 -0.319395
-0.0102071 -0.477982
-0.0147909 -0.472291
0.0229676 -0.451308
0.0281282 -0.456487
-0.00504034 -0.292661
-0.00596093 -0.28594
0.0159123 -0.274939
0.0225469 -0.275532
-0.017231 -0.169519
-0.0151406 -0.164125
-0.00736811 -0.0144718
-0.00671015 -0.0161241
0.029493 -0.345828
0.0310952 -0.352847
9.32862e-05 -0.00644082
-0.00109629 -0.00604695
-0.0293955 -0.340543
-0.0272109 -0.333737
-0.00907273 -0.0616771
-0.00730492 -0.058223
-0.0145561 -0.103106
-0.0161239 -0.10784
-0.00809673 -0.0475065
-0.00549898 -0.0494865
-0.000136633 -0.475888
-0.00475301 -0.481562
0.0132357 -0.0777909
0.0121822 -0.0818254
-0.00623294 -0.0106259
-0.00464049 -0.0107116
-0.00281874 -0.038818
-0.00399026 -0.041804
-0.0227633 -0.251777
-0.027827 -0.256094
-0.0184482 -0.375146
-0.0236257 -0.370297
0.0275073 -0.211492
0.0331941 -0.214412
-0.0117937 -0.181736
-0.0176135 -0.182434
0.0114448 -0.457362
0.0182858 -0.454878
0.0314519 -0.339958
0.0367855 -0.335464
-0.03026 -0.334509
-0.0257609 -0.328978
-0.0129228 -0.214664
-0.016282 -0.220183
-0.00145835 -0.000670435
-0.00232159 -0.00116111
0.0296136 -0.148393
0.0243976 -0.146399
0.0107221 -0.2296
0.0159145 -0.22614
-0.0327389 -0.385997
-0.0328332 -0.393211
-0.0149939 -0.416469
-0.0180334 -0.4231
0.0311143 -0.150325
0.0293167 -0.155362
-0.017028 -0.0424981
-0.0141144 -0.0405209
-0.00103906 -0.00781677
-0.00136575 -0.00935669
0.0337777 -0.282281
0.0300704 -0.276546
-0.0224013 -0.174558
-0.0196411 -0.169353
0.00859477 -0.479851
0.00136665 -0.479159
0.0364436 -0.308712
0.0361112 -0.3156
-0.0329469 -0.33363
-0.0395726 -0.336288
0.0233483 -0.217517
0.0181214 -0.220842
0.0150701 -0.288198
0.0127596 -0.294554
0.000956636 -0.00898688
-0.000543825 -0.00882689
-0.000202482 -0.133717
-0.00539207 -0.133646
-0.00721939 -0.0814066
-0.00392289 -0.0840479
0.00364508 -0.391769
-0.00128325 -0.386546
-0.0196639 -0.438309
-0.0146969 -0.443616
-0.0105583 -0.321486
-0.00373213 -0.320652
0.0301311 -0.28374
0.0283429 -0.277197
-0.0266266 -0.183087
-0.0211337 -0.180687
0.00291572 -0.0430832
0.000281598 -0.0412274
0.0356197 -0.427459
0.0338735 -0.434531
0.00958109 -0.0232828
0.00866153 -0.0208413
0.0194975 -0.10094
0.022427 -0.0975665
0.00628099 -0.0209556
0.00554005 -0.0186893
0.0326011 -0.480536
0.032859 -0.487883
-0.00112438 -0.0375382
0.00188314 -0.0380708
0.0133453 -0.0368443
0.0115737 -0.0389769
0.00577585 -0.0829314
0.00950322 -0.08524
0.0189956 -0.154051
0.0161599 -0.158683
-0.00111117 -0.00170301
-0.000451857 -0.00143878
0.000316319 -5.02854e-05
0.000331002 -8.68702e-05
0.0246064 -0.447573
0.0207239 -0.453762
-0.0163275 -0.0314329
-0.0172242 -0.0343374
-0.0219427 -0.209021
-0.0264924 -0.205076
-8.99922e-05 1.23343e-05
-0.000359876 -0.000103888
0.0115491 -0.323144
0.00625254 -0.318696
-0.0225816 -0.474027
-0.0179237 -0.479663
0.0054907 -0.325311
0.0123754 -0.325086
0.00957589 -0.404133
0.0166498 -0.402863
0.0124681 -0.401067
0.0104864 -0.394098
0.000756037 -0.277626
0.0057838 -0.282058
-0.00757132 -0.287845
-0.0142464 -0.287201
-0.0368019 -0.250959
-0.0341384 -0.244891
-0.0203897 -0.19537
-0.0220889 -0.189695
-0.0230512 -0.200871
-0.0287442 -0.203488
0.0335339 -0.441073
0.038776 -0.436027
0.0169157 -0.0851851
0.0188202 -0.0815148
-0.038078 -0.469503
-0.0417219 -0.475884
0.00578268 -0.0230627
0.00363567 -0.0242195
0.0197527 -0.145539
0.0162126 -0.149456
-0.0361693 -0.417576
-0.0290622 -0.416073
0.0200489 -0.0787831
0.0194494 -0.0829154
0.0256642 -0.175123
0.0314588 -0.175763
0.0226415 -0.273669
0.0233082 -0.267058
-0.0330813 -0.360131
-0.0264928 -0.357266
-0.00887314 -0.021687
-0.00772518 -0.0194013
-0.029744 -0.251188
-0.0362174 -0.250792
0.0213666 -0.389037
0.0156901 -0.384583
0.00485338 -0.00442547
0.00557962 -0.00559096
0.0173944 -0.0761546
0.013432 -0.0745171
0.000128065 -0.441726
-0.00636837 -0.438501
-0.00520796 -0.0161694
-0.00456921 -0.0141676
-0.0053206 -0.0191785
-0.0067318 -0.0212491
0.00604432 -0.129899
0.0103593 -0.12725
0.0267065 -0.405967
0.0239111 -0.41264
-0.0113811 -0.0341506
-0.0124524 -0.0371064
0.00745619 -0.270243
0.00371902 -0.264743
0.0191324 -0.15103
0.0211306 -0.156301
-0.00875507 -0.30722
-0.00311027 -0.30334
-0.0327463 -0.185514
-0.0347297 -0.18016
-0.0147389 -0.36122
-0.0218069 -0.360671
-0.00771347 -0.143635
-0.0128275 -0.14543
0.0222777 -0.142703
0.0214487 -0.137372
-0.000361091 -7.95043e-05
-0.000296498 -0.000106336
0.000514725 -0.182687
-0.0052793 -0.182364
0.0318413 -0.386694
0.0307992 -0.393823
-0.00165686 -0.00184177
-0.00153356 -0.00247509
0.0155392 -0.284032
0.0196918 -0.289433
-0.00566307 -0.0102547
-0.00675036 -0.0119027
-0.0147564 -0.323081
-0.0156943 -0.330016
-0.00139042 -0.00205661
-0.000761113 -0.00227761
-0.0191831 -0.237759
-0.0144688 -0.241957
-0.0215964 -0.135207
-0.0194801 -0.139898
0.0115391 -0.260019
0.0112392 -0.253447
-0.00353674 -0.284085
-0.00921378 -0.287729
0.0253687 -0.43227
0.0196866 -0.436795
-0.0244683 -0.346938
-0.018958 -0.351381
0.00447106 -0.44602
0.00452271 -0.453346
-0.0198856 -0.254449
-0.0262493 -0.2561
0.000344221 -0.406218
-0.0068109 -0.405558
0.014803 -0.310014
0.0189646 -0.304605
0.0295287 -0.454262
0.0227821 -0.457024
-0.030936 -0.299832
-0.0273481 -0.293915
0.0287851 -0.152206
0.0247898 -0.1557
0.00712607 -0.369559
0.011606 -0.364038
-0.00919147 -0.0166311
-0.00870364 -0.0184837
-0.0162254 -0.157541
-0.0155838 -0.152
-0.0147301 -0.412753
-0.015268 -0.420016
-0.00234846 -0.0123477
-0.00353259 -0.0112325
0.00267649 -0.00384682
0.00335869 -0.00349966
-0.00110718 -0.00539865
-0.000361199 -0.00442638
-0.00964748 -0.312832
-0.015977 -0.315578
-0.0153267 -0.495598
-0.00950833 -0.491188
0.0247261 -0.336587
0.0240877 -0.343657
0.0188215 -0.260159
0.0209753 -0.254015
-0.00990798 -0.470593
-0.0153244 -0.465709
0.00373752 -0.2652
0.00783339 -0.260069
-0.0052834 -0.0487378
-0.00842982 -0.0503539
0.000495313 -0.000363982
0.000286854 -8.78031e-05
0.0224246 -0.127846
0.0197103 -0.132045
-0.0132931 -0.0240016
-0.0112058 -0.0248477
0.0196148 -0.185781
0.0148108 -0.189071
0.00887329 -0.0477837
0.00763137 -0.0445496
-0.0198047 -0.180473
-0.0224779 -0.185857
0.0347088 -0.42034
0.0282527 -0.423614
0.00490765 -0.0433
0.00379397 -0.0463593
-0.00375305 -0.00479906
-0.00361894 -0.00381545
-0.00845721 -0.0199505
-0.00861869 -0.0223023
0.00393435 -0.424278
0.00722582 -0.430776
-0.00577674 -0.00456541
-0.00485218 -0.0045514
-0.00319561 -0.0336618
-0.00148149 -0.0360381
-0.0230265 -0.453232
-0.0173513 -0.448626
-0.0328942 -0.494661
-0.0374412 -0.488894
-0.00795161 -0.070026
-0.00760175 -0.0740721
0.0227763 -0.204325
0.0170734 -0.201833
0.00792008 -0.0459576
0.0112361 -0.0466499
-0.0131573 -0.0885686
-0.0106296 -0.0921109
0.000302764 -4.55162e-05
0.000547815 -0.000205209
-0.00553657 -0.0417176
-0.00577156 -0.0385883
-0.0103842 -0.0367543
-0.0131046 -0.0386624
-0.0287496 -0.246575
-0.0350282 -0.248527
-0.0070056 -0.15501
-0.00631691 -0.149517
0.000152062 -0.307677
0.0063753 -0.3049
-0.00671914 -0.0137462
-0.00608415 -0.0153784
-0.0201468 -0.111166
-0.0245784 -0.113777
-0.0382408 -0.367393
-0.0323529 -0.371358
-0.0087372 -0.033487
-0.00612067 -0.0342449
-0.00180405 -0.286819
-0.00819863 -0.288922
0.0247802 -0.430113
0.0203141 -0.435852
-0.0235239 -0.351553
-0.0303347 -0.349673
0.0331242 -0.268595
0.0381997 -0.273129
0.00187575 -0.0802679
0.00561983 -0.0784674
-0.00625985 -0.454724
-0.00372017 -0.461589
0.00907544 -0.0205061
0.010829 -0.0226183
0.0338694 -0.324186
0.0374122 -0.330336
0.0207176 -0.217945
0.0149533 -0.220275
0.0347463 -0.424666
0.0375256 -0.431428
-0.0301154 -0.192826
-0.0274688 -0.187284
0.00116182 -0.0805391
0.00198489 -0.0848039
-0.00157789 -0.000919279
-0.0011455 -0.000515941
-0.015723 -0.0957893
-0.0112072 -0.0965433
-0.00538904 -0.367764
-0.00388368 -0.374733
-0.0064587 -0.00574447
-0.00522215 -0.00545411
0.00831868 -0.120286
0.00540974 -0.12435
0.00925526 -0.0346773
0.0090709 -0.0317848
-0.00143847 -0.0185362
0.000333414 -0.0174091
0.0098984 -0.249592
0.00908716 -0.256075
0.00311966 -0.23916
-0.00321905 -0.238671
0.00139769 -0.115511
-0.00318276 -0.11744
0.0197533 -0.060873
0.0180198 -0.0639606
0.0171094 -0.443748
0.0243751 -0.443876
0.00112243 -0.0804344
0.00121751 -0.0847755
0.0192253 -0.276691
0.0193269 -0.283422
0.0297393 -0.183897
0.0324444 -0.189368
0.00223374 -0.00146817
0.00279038 -0.00157448
0.0183963 -0.166417
0.0131497 -0.16835
0.0157752 -0.0854777
0.0181044 -0.0894851
0.0117979 -0.202303
0.0111411 -0.196261
0.0199701 -0.181067
0.0177571 -0.18644
-0.0110899 -0.303992
-0.0121216 -0.297228
-0.00433838 -0.191251
-0.0102189 -0.190844
-0.000233412 -0.000121281
-0.00110476 -0.000540513
0.0302607 -0.435614
0.0266914 -0.441968
-0.0216893 -0.400473
-0.0270055 -0.405429
-0.0184524 -0.0861133
-0.0176626 -0.0903956
0.00104195 -0.175805
-0.00468515 -0.176215
0.000479029 -0.192284
0.00534153 -0.195669
0.00619062 -0.00622148
0.00485596 -0.00530877
-0.00287603 -0.129753
-0.00405044 -0.134872
0.00510745 -0.0514924
0.00568553 -0.0550592
-0.0181456 -0.20065
-0.0131036 -0.197092
-0.0029271 -0.00266704
-0.00374081 -0.0028258
-0.0273596 -0.384583
-0.031584 -0.378844
0.0125621 -0.0710993
0.0093039 -0.0732528
-0.00461287 -0.00337621
-0.00357283 -0.00291171
-0.00178896 -0.00252095
-0.00265679 -0.00324014
-0.0324876 -0.43047
-0.0273491 -0.425266
0.000136081 -0.175041
-0.00477323 -0.1781
0.00768889 -0.139558
0.0128607 -0.140894
0.015495 -0.066545
0.0127599 -0.069089
0.000304609 -0.0207778
0.00228761 -0.0199615
-0.00146573 -0.00295305
-0.00217773 -0.00385197
0.0114405 -0.208671
0.0164394 -0.205148
-0.00552801 -0.00847841
-0.00647217 -0.0100317
0.0237954 -0.375219
0.0274008 -0.381483
0.00267786 -0.00142139
0.00193898 -0.00088894
-0.00413435 -0.00661631
-0.00431002 -0.00554018
0.00151687 -0.00925648
0.00255243 -0.00828585
-0.0192144 -0.357764
-0.0147471 -0.352056
0.00265342 -0.00199466
0.00254571 -0.00251904
-0.00177307 -0.30516
-0.00578299 -0.299633
-0.000886104 -0.0115503
-0.00217258 -0.0128982
-0.0348499 -0.367769
-0.0278101 -0.366378
-0.0191707 -0.283107
-0.0136429 -0.286822
-0.0251718 -0.187173
-0.0310349 -0.186607
0.025715 -0.320764
0.0324045 -0.322823
-0.0145239 -0.245632
-0.0193337 -0.250105
-0.0237905 -0.40741
-0.0307353 -0.405531
-0.00463697 -0.0063538
-0.00486845 -0.00539129
-0.0057162 -0.187379
-0.0113615 -0.189129
0.0144813 -0.0456976
0.0178196 -0.0468453
0.0329299 -0.388223
0.0272322 -0.383752
-0.0207381 -0.110264
-0.0256389 -0.110604
-0.00610785 -0.0512819
-0.00267252 -0.0516067
-0.00128957 -0.00254002
-0.000529403 -0.00209982
0.03498 -0.401638
0.0348296 -0.408885
0.0131584 -0.0234015
0.0125668 -0.0256337
0.0268365 -0.396303
0.0202556 -0.399173
-0.00524103 -0.179661
-0.0105704 -0.182076
0.011328 -0.0294901
0.0102952 -0.0267454
-0.0248091 -0.116706
-0.0210671 -0.113065
0.00670683 -0.0305978
0.00464773 -0.0321012
0.0248773 -0.268298
0.018824 -0.270821
-0.00477752 -0.315875
0.00204143 -0.316446
0.0110486 -0.149637
0.0115469 -0.144232
0.0183287 -0.334786
0.0249253 -0.337339
-0.0047985 -0.0505152
-0.00599444 -0.0539245
0.0200943 -0.332838
0.0217919 -0.339727
0.00277988 -0.423404
0.00439579 -0.430517
0.0132935 -0.489554
0.00603817 -0.489988
0.0240112 -0.288246
0.0217928 -0.294614
-0.0199785 -0.416095
-0.0159002 -0.410063
-0.02626 -0.231777
-0.0323764 -0.2303
0.0294248 -0.340205
0.0226585 -0.34209
-0.0131585 -0.410186
-0.011046 -0.403231
0.0270399 -0.467212
0.0207904 -0.463436
-0.0251045 -0.125108
-0.0206074 -0.122295
-0.0148967 -0.26734
-0.0101028 -0.271834
0.0102476 -0.0153435
0.00858099 -0.0159449
0.0233187 -0.211503
0.025636 -0.205835
-0.0230266 -0.377239
-0.0301291 -0.376498
-0.00916551 -0.0825436
-0.0118896 -0.0861025
0.0141595 -0.456692
0.0189108 -0.451145
0.0203849 -0.447029
0.0208856 -0.43973
0.0105078 -0.0980872
0.00837103 -0.093831
-0.00613037 -0.160665
-0.00121191 -0.158011
-0.0310661 -0.363647
-0.0378531 -0.361539
-0.0234858 -0.309161
-0.0185368 -0.304301
-0.0173764 -0.206934
-0.0129227 -0.202491
-0.00243056 -0.273182
-0.00238674 -0.279893
0.000226078 -0.00103521
0.000452899 -0.000651229
-0.0305246 -0.27381
-0.0358806 -0.270092
0.0123551 -0.0330207
0.00946493 -0.0322926
-0.0245915 -0.410587
-0.0284111 -0.404476
0.00241081 -0.0937519
-0.00185005 -0.09419
0.0192116 -0.363318
0.0251561 -0.359407
-0.0132749 -0.0268817
-0.0137706 -0.0245594
0.00470086 -0.489213
-0.00158384 -0.492878
0.0209962 -0.131238
0.0253194 -0.12875
-0.00728292 -0.0628845
-0.00995813 -0.0658779
-0.00435602 -0.00545849
-0.00312011 -0.00498853
-0.00870071 -0.0577178
-0.00739305 -0.054203
0.0396523 -0.490336
0.0347532 -0.495836
0.0251702 -0.39952
0.0274834 -0.392695
-0.0430188 -0.408139
-0.0358051 -0.407364
-0.000427554 -0.00278197
0.000139234 -0.0035155
0.000465414 -0.000386509
0.000912834 -0.000735279
0.00994137 -0.018474
0.00803101 -0.0168547
-0.0111655 -0.277218
-0.0112053 -0.270527
-0.0284747 -0.47171
-0.0349305 -0.468298
0.0280078 -0.305218
0.0346408 -0.307173
-0.000127394 -3.8226e-05
-0.000223045 -2.92906e-05
-7.75278e-08 1.05781e-05
-5.00986e-05 1.77594e-05
-0.0151193 -0.125709
-0.018229 -0.130024
0.000957405 -0.0853232
0.00240148 -0.0812391
-0.000809743 -0.000388432
-0.00111471 -0.000795737
0.00351144 -0.0100161
0.00316557 -0.0116094
0.00587996 -0.0901465
0.00482251 -0.0945087
-0.0403388 -0.436807
-0.0348164 -0.441522
0.00518657 -0.0104848
0.0069079 -0.0109072
-0.0198169 -0.463289
-0.0228056 -0.456614
0.00662848 -0.0130571
0.0076017 -0.0119088
0.0239395 -0.0817223
0.0197925 -0.0823859
0.00225651 -0.231399
0.00361689 -0.237637
0.0198357 -0.11976
0.0216597 -0.124639
0.00985574 -0.0666841
0.0115751 -0.0633521
-0.0242369 -0.104239
-0.0222749 -0.108443
0.0238461 -0.205026
0.0183304 -0.202081
-0.00355689 -0.042671
-0.00674616 -0.0427809
0.0290697 -0.214594
0.0348328 -0.212498
0.0253117 -0.266359
0.0187491 -0.265529
-0.00420894 -0.0915521
0.000108814 -0.091352
0.0039872 -0.267085
0.00159141 -0.260908
-0.0113407 -0.0621694
-0.00779683 -0.0632446
-0.0224219 -0.476029
-0.023949 -0.48321
0.0118745 -0.018674
0.0101127 -0.019489
0.0349386 -0.195517
0.032452 -0.200876
-0.00237899 -0.393426
-0.000980225 -0.38634
0.020772 -0.170176
0.0169056 -0.174248
-0.0231444 -0.337923
-0.0290302 -0.334193
0.0139334 -0.453559
0.0137954 -0.46089
0.0144073 -0.064821
0.0113295 -0.0621832
0.0196305 -0.281258
0.0197192 -0.288017
-0.0276505 -0.139366
-0.0264275 -0.144456
0.00816626 -0.0103203
0.00990705 -0.0115625
0.00959397 -0.395312
0.00259069 -0.396816
-0.018061 -0.262305
-0.0230815 -0.258229
-0.0161624 -0.472365
-0.00909881 -0.474096
0.040913 -0.483987
0.0361832 -0.478372
0.011627 -0.15237
0.0114356 -0.146883
-0.0155289 -0.480777
-0.0134354 -0.473744
-0.0249147 -0.18696
-0.0246555 -0.192911
-0.00763331 -0.0878536
-0.0117792 -0.0896622
0.0132206 -0.147902
0.0121439 -0.142546
0.000512017 -0.0144145
0.000541184 -0.0124922
0.0180907 -0.386322
0.011318 -0.383954
-0.0331828 -0.455334
-0.0358269 -0.448529
0.00249355 -0.0354611
0.00403503 -0.0330459
0.0354567 -0.47263
0.0354591 -0.479972
-0.0204246 -0.242871
-0.0141406 -0.243982
-0.0166399 -0.307373
-0.0231198 -0.309742
-0.0321519 -0.194212
-0.0310569 -0.188245
0.00988394 -0.282252
0.00654673 -0.288089
-0.0062196 -0.493227
-0.00841501 -0.486251
-0.00438096 -0.181865
-0.0101632 -0.181402
-0.0143665 -0.491326
-0.0141984 -0.483994
-0.0276633 -0.451469
-0.0227066 -0.45681
0.013044 -0.0382888
0.0130608 -0.0413801
-0.0204629 -0.110878
-0.0213007 -0.106155
0.00211462 -0.00101639
0.001325 -0.000543678
-0.000384946 -0.000167799
-0.000303216 -8.05105e-05
-0.00235918 -0.00618675
-0.00320536 -0.00554517
-0.0149419 -0.310747
-0.0198774 -0.315641
0.000296193 -0.000962793
0.000167249 -0.000470547
0.0218279 -0.306514
0.0265382 -0.311627
-0.0105189 -0.457779
-0.0177067 -0.456716
0.0310089 -0.191256
0.0264966 -0.194939
0.0238686 -0.123517
0.0227897 -0.128423
0.0244133 -0.258311
0.0286618 -0.253483
0.00442688 -0.0115637
0.00453433 -0.00993363
0.0143468 -0.296095
0.0134393 -0.289336
0.0206351 -0.472697
0.0221843 -0.479867
0.0233098 -0.168109
0.0177799 -0.166521
0.0231634 -0.117138
0.0217264 -0.121818
0.0290805 -0.269256
0.0327046 -0.274988
-0.0136804 -0.156159
-0.0114469 -0.151014
0.00419081 -0.00642566
0.00546241 -0.00650192
0.0154671 -0.322016
0.0090524 -0.319448
-0.021456 -0.26715
-0.0149679 -0.268176
-0.0160529 -0.476716
-0.0220754 -0.4726
0.00083707 -0.00862292
0.00233404 -0.00880201
0.00261795 -0.00629487
0.00220017 -0.00749488
-0.00227324 -0.0137389
-0.00369075 -0.0127375
0.00552898 -0.127773
0.00170096 -0.131179
-4.68171e-05 -0.0109107
0.00105595 -0.0123074
0.0382698 -0.332395
0.0315264 -0.334211
-0.000885044 -0.000353178
-0.00120438 -0.000570957
-0.000444545 -0.0379686
-0.00319961 -0.0367547
-0.0199366 -0.0478615
-0.0165295 -0.0467692
-0.0361379 -0.391483
-0.0370757 -0.384355
0.00128628 -0.1226
-0.00364734 -0.121687
0.0312431 -0.281028
0.0260605 -0.28515
0.000599126 -0.254875
0.000832258 -0.261457
0.0196975 -0.343111
0.0136368 -0.33937
-0.0152428 -0.048951
-0.0145474 -0.0522054
-0.000417754 -0.000141588
-0.000783672 -0.000471168
0.00327259 -0.00277813
0.00264231 -0.00297482
0.00842107 -0.235684
0.00410435 -0.231001
0.00596735 -0.0236917
0.00852482 -0.0239925
0.0231419 -0.336079
0.0172709 -0.332136
-0.0179355 -0.206762
-0.0154564 -0.201009
-0.00844426 -0.247463
-0.00384689 -0.251987
0.000678706 -0.00697164
0.0016047 -0.00612591
-0.0346323 -0.320314
-0.0359486 -0.313549
0.0249416 -0.421042
0.031451 -0.417892
0.00547083 -0.00917121
0.0061865 -0.0108149
8.56994e-05 -0.477096
-0.00679254 -0.479462
-0.00847048 -0.074092
-0.00635505 -0.0775643
0.0150599 -0.134084
0.00994397 -0.132897
-0.00398147 -0.018722
-0.0025814 -0.016963
-0.0202661 -0.250924
-0.0232999 -0.245292
0.00371926 -0.0469345
0.000394189 -0.0470136
0.022235 -0.0802126
0.0228533 -0.084536
0.0211776 -0.404232
0.0254574 -0.398441
-0.018615 -0.469288
-0.02216 -0.475706
0.0196993 -0.154907
0.0185053 -0.160291
0.0243812 -0.152485
0.0204381 -0.148415
0.0136129 -0.0332859
0.016582 -0.033833
0.00904721 -0.0117443
0.00801292 -0.0100544
-0.0162461 -0.171263
-0.0115935 -0.167786
-0.0161587 -0.0312245
-0.0160613 -0.0339732
0.00679121 -0.166998
0.00591287 -0.161375
-0.00634456 -0.227922
-0.0119611 -0.225331
0.0145116 -0.118832
0.0190365 -0.121325
0.00182642 -0.0642983
-0.000136648 -0.0609925
0.0341928 -0.308619
0.0371143 -0.314973
0.00301056 -0.126646
0.00694737 -0.123499
2.47383e-06 -0.0383196
-0.000827401 -0.0353963
0.00300555 -0.0182628
0.0021475 -0.016251
-0.00823623 -0.0620712
-0.00645137 -0.0653733
0.0229781 -0.195334
0.0214009 -0.189468
0.0184398 -0.128122
0.0174162 -0.12303
-0.0105883 -0.189204
-0.00705266 -0.19396
0.0122319 -0.225234
0.0161648 -0.230297
-0.00488451 -0.0235767
-0.00345204 -0.0214457
0.00797821 -0.33212
0.00111937 -0.331862
-0.0128113 -0.44172
-0.019073 -0.43806
-0.0277934 -0.463114
-0.025605 -0.470103
-0.0317045 -0.14446
-0.0278571 -0.147889
-0.0152351 -0.370718
-0.0102304 -0.375738
0.00392144 -0.0217703
0.00249004 -0.0198852
-0.0142181 -0.114267
-0.00936851 -0.114324
0.0079974 -0.301786
0.0143443 -0.29942
0.00596311 -0.00935635
0.00710224 -0.0109203
-0.0129837 -0.129781
-0.0181054 -0.129566
0.0126804 -0.0791458
0.0110362 -0.0751635
-0.00328395 -0.00482985
-0.00279133 -0.00567363
-0.0106076 -0.0512049
-0.00827754 -0.048399
0.0296121 -0.306644
0.0227798 -0.305982
0.0259375 -0.3157
0.0325055 -0.318053
-0.0221509 -0.455659
-0.0275055 -0.460653
-0.0282662 -0.146932
-0.0278897 -0.152339
0.00106541 -0.000410811
0.00050741 -0.000208162
-0.0103285 -0.114035
-0.0141928 -0.111316
-0.00865917 -0.032607
-0.00874381 -0.0298123
0.0119317 -0.0410109
0.0100981 -0.0382021
-0.0112912 -0.0544614
-0.0114446 -0.0509473
-0.0153599 -0.127357
-0.0189068 -0.13136
0.0304742 -0.249544
0.0344296 -0.244581
0.0334033 -0.191238
0.032417 -0.197102
0.0222098 -0.367891
0.0278241 -0.363512
-0.013729 -0.0254614
-0.0151534 -0.0280992
-4.89798e-05 -0.000173393
0.000206496 -0.000233438
-0.0310358 -0.436049
-0.0238206 -0.436849
-0.00532468 -0.0142488
-0.00354914 -0.0147076
0.000106408 -0.424717
-0.00672326 -0.422362
-0.000186419 -0.236656
-0.00326772 -0.231096
-0.0263495 -0.350962
-0.0198522 -0.34793
0.010402 -0.0735483
0.011532 -0.077633
0.00611453 -0.410708
0.00121525 -0.41604
0.00623215 -0.00630629
0.00603772 -0.00735407
-0.0213549 -0.0727465
-0.0172661 -0.0719371
0.0181343 -0.0686709
0.0189644 -0.0727073
0.0311088 -0.48976
0.0284342 -0.48292
0.0290844 -0.400315
0.0360945 -0.398672
0.0365723 -0.358356
0.0403184 -0.36456
-0.0118115 -0.486725
-0.00853126 -0.480175
0.00386951 -0.0408412
0.0067055 -0.0397628
-0.00209722 -0.0221385
-0.00348448 -0.0203456
-0.0251107 -0.183856
-0.0268645 -0.178381
0.000988104 -0.0146768
0.00278069 -0.015554
0.00297198 -0.0757971
-0.000640045 -0.0777825
0.00381753 -0.3157
0.00344826 -0.308786
0.0203328 -0.0848239
0.0235613 -0.088278
-0.0243349 -0.287899
-0.0248147 -0.29469
-0.00262296 -0.441769
-0.00983783 -0.44108
0.0107226 -0.0693867
0.00956128 -0.0731831
-0.0273391 -0.110567
-0.0229359 -0.107911
-0.0396711 -0.490382
-0.0357841 -0.496632
0.00453948 -0.133816
0.00249285 -0.138667
0.000696904 -0.048921
-0.00236984 -0.0504803
0.0293853 -0.15034
0.0269474 -0.145264
-0.00845048 -0.0229875
-0.010668 -0.0248127
-0.0359209 -0.447124
-0.0415248 -0.44249
-0.00257726 -0.00749439
-0.00131242 -0.0079346
-0.00793631 -0.0261927
-0.00804576 -0.0289667
6.91903e-05 -5.83798e-05
-0.000111283 -0.000114946
0.0232667 -0.158688
0.0275847 -0.162579
0.0268807 -0.211916
0.0217202 -0.2152
0.00493596 -0.0210017
0.00284912 -0.0198898
-0.0227855 -0.471669
-0.0253033 -0.464791
0.00836897 -0.312316
0.00558397 -0.306
0.00611948 -0.00923981
0.00679958 -0.0108908
-0.0298227 -0.444019
-0.0358872 -0.440022
0.0207855 -0.144815
0.0224777 -0.139845
0.039028 -0.295524
0.0361284 -0.301597
0.0240836 -0.458075
0.0289645 -0.463525
0.0115462 -0.0307634
0.00877119 -0.0298085
0.00585624 -0.235195
0.00761303 -0.229087
-0.0370974 -0.464346
-0.044209 -0.462654
-0.0250086 -0.418273
-0.028954 -0.424422
0.0254984 -0.250866
0.0220732 -0.245224
0.00234214 -0.00113663
0.00150966 -0.000644482
-0.0276983 -0.422992
-0.020666 -0.424667
-0.0258621 -0.453142
-0.0254977 -0.46046
0.0087916 -0.0137102
0.00823772 -0.0152965
-0.0418818 -0.440653
-0.0345985 -0.440208
-0.0189299 -0.279654
-0.0225353 -0.274114
0.000708817 -0.000322384
0.000318721 -7.16761e-05
0.00411752 -0.451953
-0.00253062 -0.454905
-0.0115733 -0.387115
-0.0160754 -0.381575
-0.0222904 -0.294894
-0.0173482 -0.29014
0.000141039 -1.60934e-05
1.95098e-05 1.37792e-05
-0.00390016 -0.0868489
-0.00655747 -0.0904239
-0.0218679 -0.377924
-0.0289946 -0.378671
-0.0335572 -0.204998
-0.0350257 -0.211149
0.020123 -0.0764993
0.0216875 -0.0729414
0.0236331 -0.244546
0.0172611 -0.243411
0.00727067 -0.338268
0.00148292 -0.334523
0.00333987 -0.0128301
0.00357542 -0.011103
-0.0129622 -0.474436
-0.00833628 -0.468766
-0.00973939 -0.0291159
-0.00952373 -0.03186
-0.00205864 -0.00102746
-0.00137185 -0.000641334
-0.02264 -0.315651
-0.0197608 -0.309311
0.0266384 -0.137058
0.0239833 -0.141436
-0.00622145 -0.375513
-0.00322769 -0.382014
0.0141846 -0.0566516
0.017192 -0.0550763
-0.00270433 -0.00137829
-0.00179284 -0.000859183
-0.00771889 -0.0469115
-0.0109068 -0.0483836
0.0358042 -0.264058
0.0312795 -0.259062
-0.0330588 -0.222268
-0.0311713 -0.21612
-0.0220415 -0.134128
-0.0169195 -0.132736
0.0219424 -0.18957
0.0177642 -0.185182
0.0193582 -0.211509
0.0178495 -0.20538
-0.0279393 -0.203761
-0.029775 -0.209811
0.00556584 -0.19924
0.00587673 -0.193224
-0.00270079 -0.135607
-0.00665095 -0.13226
-0.000657726 -0.474568
0.00534457 -0.478685
0.0180162 -0.278906
0.0121199 -0.275688
0.00357221 -0.473683
-0.000862704 -0.467881
-0.00199063 -0.0426696
-0.00369586 -0.0455366
0.00711337 -0.375403
0.00912524 -0.368546
-0.0189503 -0.221097
-0.0236262 -0.225531
0.0112387 -0.185712
0.00867217 -0.191031
-0.0296653 -0.231407
-0.0349071 -0.235358
0.00259197 -0.131254
0.00624454 -0.127668
-0.00287453 -0.26646
-0.0038316 -0.273061
0.0245194 -0.431146
0.0172688 -0.431137
-0.0204552 -0.118083
-0.019913 -0.113102
0.00635623 -0.231246
0.0124289 -0.233023
-0.0288753 -0.270279
-0.0335729 -0.275203
-0.0230181 -0.248294
-0.0168239 -0.249958
0.0186892 -0.0727161
0.0227586 -0.0739918
0.000524297 -0.0783077
-0.0026843 -0.0810573
-0.00637193 -0.411574
-0.00625944 -0.418851
0.00238842 -0.00645464
0.00160415 -0.00529591
-0.0171315 -0.135763
-0.014751 -0.130952
-0.000721159 -0.0512482
0.00266542 -0.0506121
-0.00103503 -0.00705135
-0.00239913 -0.00723061
-0.00958801 -0.200614
-0.00374336 -0.19934
-0.000672994 -0.474334
0.00635414 -0.47617
-0.0131448 -0.49281
-0.0181018 -0.48745
0.0397864 -0.449349
0.0354032 -0.455191
-0.0218506 -0.113319
-0.0264691 -0.11564
0.00319162 -0.00172034
0.00240556 -0.00136581
0.00705162 -0.184459
0.00504612 -0.17891
-0.00792009 -0.0116787
-0.00939296 -0.011387
-0.0281213 -0.192469
-0.0270267 -0.198342
0.0053451 -0.397975
-0.00110763 -0.401134
0.0104363 -0.265079
0.00428124 -0.262735
0.000142068 -3.3945e-06
0.000458887 -0.000105131
0.00548903 -0.00914836
0.00674884 -0.00875942
-0.0287564 -0.333354
-0.0357203 -0.3346
0.0258958 -0.232076
0.0198392 -0.233836
-0.012088 -0.474064
-0.0123103 -0.466728
0.000149052 -7.41426e-06
0.000582649 -0.000167125
0.0253038 -0.336506
0.0236644 -0.329623
-0.0167118 -0.319364
-0.0228445 -0.322709
0.00597781 -0.00791467
0.00469419 -0.00674948
-0.00595083 -0.0142574
-0.00793557 -0.0146702
-0.00893751 -0.0164357
-0.00800371 -0.0180043
0.00976986 -0.286218
0.0159774 -0.28376
0.00983674 -0.0223547
0.011772 -0.0214551
-0.0230625 -0.164332
-0.0263802 -0.16003
0.0284983 -0.178897
0.0228902 -0.180182
-0.0252854 -0.210526
-0.0258801 -0.204361
0.024495 -0.195401
0.0208298 -0.190464
-0.00107606 -0.374132
-0.00250427 -0.381166
0.00645102 -0.0221533
0.00878999 -0.0219077
-0.00465008 -0.0166508
-0.00676265 -0.017025
0.0170883 -0.157224
0.0215751 -0.154238
0.00173174 -0.0127403
0.000525433 -0.0113597
0.00894749 -0.0891332
0.00512018 -0.0912851
0.00132021 -0.312005
-0.00492659 -0.309232
0.0185766 -0.225189
0.024036 -0.228596
0.0193878 -0.284522
0.02607 -0.285366
0.00564678 -0.299587
0.00266443 -0.305751
-0.00185076 -0.00129596
-0.00241508 -0.00145605
0.0021007 -0.459869
0.00249239 -0.467195
-0.00360446 -0.00619208
-0.00492212 -0.00647145
0.0317625 -0.204204
0.0335898 -0.19849
0.0308471 -0.36144
0.0374365 -0.364359
-0.014044 -0.446037
-0.00721087 -0.443552
-0.0186937 -0.281811
-0.0121436 -0.283047
0.00589314 -0.178147
0.000874376 -0.17527
0.0256517 -0.315132
0.0304376 -0.310273
-0.0270564 -0.294584
-0.0317876 -0.299648
-0.000635584 -0.000445352
-0.000563443 -0.000762778
0.0111286 -0.133937
0.0160878 -0.135844
-0.0338519 -0.171222
-0.0337021 -0.165519
0.00985763 -0.155959
0.00879853 -0.150499
-0.0115433 -0.117412
-0.0113545 -0.122437
-0.0277439 -0.365669
-0.0283465 -0.358525
-0.0246135 -0.144228
-0.0297743 -0.143161
-0.0101241 -0.0243206
-0.00872633 -0.021918
-0.00450933 -0.052829
-0.0011555 -0.0517247
0.00528753 -0.39181
-0.00185752 -0.391954
-0.0141864 -0.0829161
-0.0162386 -0.0793724
0.00216468 -0.125997
0.00234102 -0.131177
-0.00585355 -0.274161
-0.00242289 -0.27989
0.0143755 -0.114666
0.0147807 -0.109786
0.0220978 -0.0943849
0.0174909 -0.0937983
0.0220756 -0.468362
0.029321 -0.469233
-0.00554711 -0.189718
-0.010991 -0.187537
-0.00212776 -0.0072774
-0.00162513 -0.00593561
-0.012755 -0.34042
-0.00614806 -0.338079
-0.0177602 -0.34142
-0.0242085 -0.344532
3.79801e-05 1.38764e-05
0.000205433 -6.7879e-05
-0.000114849 -0.18415
0.00284415 -0.179092
-0.00380768 -0.306547
-0.00953121 -0.310337
0.0168472 -0.0427866
0.0146099 -0.0446894
0.0123712 -0.0417401
0.0140829 -0.0394379
-0.00442397 -0.173919
-0.00891748 -0.170438
0.00262283 -0.00151326
0.00311428 -0.00160484
-0.0218461 -0.123052
-0.0209978 -0.118014
-0.00438071 -0.241166
0.000371691 -0.245478
-0.0259151 -0.327024
-0.0193496 -0.324538
-0.00251013 -0.197434
0.000635168 -0.202507
-0.0168524 -0.387295
-0.0126665 -0.381412
-0.0178773 -0.493535
-0.0247835 -0.4912
-0.00542115 -0.00565098
-0.00557261 -0.00483283
0.0010631 -0.000399405
0.000612854 -0.000177093
-0.010926 -0.368724
-0.0168888 -0.372664
0.0290611 -0.374884
0.0359099 -0.372841
-0.0330354 -0.407217
-0.0306353 -0.414035
-0.00231376 -0.193814
-0.0012976 -0.19975
-0.0346759 -0.325927
-0.0329778 -0.319102
-0.0437914 -0.490347
-0.0399791 -0.496664
0.00630919 -0.00762449
0.00730569 -0.00720978
-0.00125989 -0.0176425
-0.00333031 -0.0179901
-0.0324213 -0.380647
-0.0391926 -0.378389
0.0259754 -0.29213
0.0263039 -0.285368
-0.000690063 -0.00524388
-0.00102208 -0.00417942
0.01101 -0.483362
0.0107826 -0.490693
-0.033354 -0.470699
-0.039872 -0.474064
0.0298772 -0.401127
0.0255073 -0.406855
0.00510561 -0.0056396
0.00633951 -0.00583891
-0.0110201 -0.0145534
-0.00943266 -0.0128291
0.00203511 -0.010563
0.000406121 -0.0106456
0.0170404 -0.0469404
0.0182173 -0.0503389
0.0090072 -0.0795654
0.0121069 -0.0826962
0.0144229 -0.0531329
0.0179419 -0.0544461
-0.0126072 -0.0486675
-0.0155538 -0.0509605
0.0107668 -0.0222435
0.0112669 -0.0247833
0.0145151 -0.423225
0.0139195 -0.415964
0.0123049 -0.0593421
0.00862886 -0.0595399
0.00266382 -0.00635389
0.00158477 -0.00545788
-0.0118963 -0.0346645
-0.0144591 -0.036775
0.0119226 -0.0207509
0.00951819 -0.020094
-0.0250368 -0.0856596
-0.0251538 -0.0900797
0.0120179 -0.0677683
0.0101405 -0.0641647
-0.00266741 -0.00508191
-0.00352643 -0.00625326
-0.00117715 -0.000693903
-0.00070337 -0.000461207
0.00747459 -0.426551
0.00758516 -0.419261
-0.00633255 -0.264152
-0.0128088 -0.265327
-0.0233308 -0.474607
-0.0262823 -0.481326
-0.0228806 -0.183473
-0.0278516 -0.186992
0.0196155 -0.169331
0.0226948 -0.164719
-0.0205599 -0.148197
-0.020229 -0.142772
-0.0137535 -0.38626
-0.0161039 -0.393104
-0.0297702 -0.464364
-0.0368804 -0.462718
0.00985542 -0.0472537
0.006525 -0.0466265
-0.0216202 -0.414148
-0.0263712 -0.408728
0.00108952 -0.00402996
0.00186978 -0.00358539
-0.00584511 -0.0295303
-0.00810607 -0.0282963
-0.0398231 -0.324996
-0.032838 -0.324441
-0.000333796 -0.000145624
-0.000118567 7.761e-06
0.018707 -0.108686
0.0155373 -0.104756
0.0259656 -0.131255
0.0223904 -0.127193
-0.0326294 -0.253591
-0.0386142 -0.251305
0.0112044 -0.0337392
0.00847511 -0.0323137
0.0193538 -0.234764
0.0177823 -0.228523
-0.0243663 -0.230841
-0.0237823 -0.237188
-0.00301482 -0.00646198
-0.00177526 -0.00580632
0.0198344 -0.0640699
0.0175118 -0.0668229
-0.000127658 -0.0416606
-0.000890633 -0.0386026
-0.0150387 -0.349217
-0.0141892 -0.342041
0.00238611 -0.128111
0.00225774 -0.133323
0.00883616 -0.150531
0.00748961 -0.155861
0.0349979 -0.318347
0.0313235 -0.324154
-0.0355151 -0.210307
-0.0296509 -0.207822
0.016442 -0.148449
0.0174343 -0.143172
0.00109879 -0.0128902
0.00290409 -0.0130109
0.0133569 -0.0484545
0.0160234 -0.0468315
0.0189728 -0.106334
0.01494 -0.108717
-0.0314545 -0.471382
-0.0257773 -0.475983
-0.00973815 -0.298347
-0.0149528 -0.294066
-0.020005 -0.436732
-0.0259869 -0.43264
0.00065067 -0.00565891
0.0011226 -0.00694541
0.0227209 -0.442952
0.0199795 -0.436173
-0.00336291 -0.00229183
-0.00248214 -0.00185492
-0.0405231 -0.36121
-0.0352821 -0.365983
-0.0151454 -0.063194
-0.0189942 -0.0641254
0.0311157 -0.469022
0.0248621 -0.472819
-0.0090195 -0.0125943
-0.00761544 -0.0132149
0.0282115 -0.29078
0.0349374 -0.29181
-0.00373485 -0.00449075
-0.00454873 -0.00566114
0.0272126 -0.370506
0.0202805 -0.368677
-0.0327531 -0.31822
-0.0372417 -0.323705
-0.0171408 -0.0911144
-0.0213768 -0.0933247
0.0095165 -0.014939
0.0111477 -0.0167655
0.0008165 -0.0137717
-0.000111503 -0.0121404
-0.000728497 -0.00375183
0.000255507 -0.00380303
0.0249229 -0.282303
0.0263553 -0.275783
-0.00236806 -0.070995
-0.0031924 -0.0670848
-0.00162354 -0.248655
0.00424679 -0.246019
-0.0177652 -0.378636
-0.0245219 -0.376424
-0.0178031 -0.472755
-0.0249959 -0.471597
0.0193292 -0.363725
0.012219 -0.363494
0.0245009 -0.488011
0.0184442 -0.483925
-0.000416631 -9.77218e-05
-0.000787163 -0.000353629
0.0180906 -0.492637
0.0108611 -0.491768
0.00620303 -0.00889567
0.00550957 -0.00998922
0.000626499 -0.000212336
0.000351116 -7.19226e-05
0.000451439 -0.186698
-0.00332546 -0.182203
0.0280608 -0.217009
0.0228143 -0.213337
0.01519 -0.050766
0.0183818 -0.0499465
0.0100169 -0.0181788
0.0112481 -0.0169163
0.00455986 -0.120821
0.00954166 -0.120798
9.69268e-05 -0.000311683
6.06392e-05 -5.42637e-05
0.014763 -0.126649
0.019876 -0.127242
1.12212e-05 -0.435819
0.00210943 -0.442817
-0.0322916 -0.169413
-0.0339908 -0.175053
0.0215793 -0.0741915
0.0178447 -0.0719528
-0.012281 -0.0199768
-0.0114343 -0.0177378
-0.0272791 -0.136922
-0.0252999 -0.141664
0.00282198 -0.282832
0.00926097 -0.281093
-0.0205382 -0.23403
-0.0191849 -0.22775
0.0115654 -0.197624
0.0118459 -0.191617
0.000571592 -0.329681
0.00599053 -0.333938
0.010819 -0.0193164
0.00851017 -0.0188014
0.0300905 -0.267068
0.0327236 -0.261109
0.00166057 -0.00140359
0.00132805 -0.00171066
-0.00325511 -0.320834
0.00107394 -0.315443
0.00191804 -0.235569
-0.00306231 -0.23955
0.0166862 -0.126379
0.0214907 -0.12855
0.0115697 -0.444539
0.0102403 -0.451739
-0.024453 -0.230694
-0.0306293 -0.229474
-0.022427 -0.185177
-0.0192787 -0.19006
0.0194425 -0.363647
0.0195835 -0.356452
0.0195452 -0.407136
0.0264345 -0.405043
-0.00900935 -0.307487
-0.00468161 -0.302147
-0.0178515 -0.0487366
-0.0158816 -0.0456244
0.00658524 -0.0537068
0.00987242 -0.0554019
0.00314256 -0.132174
0.00223242 -0.137361
-0.0252727 -0.324181
-0.0304918 -0.328979
-0.0207139 -0.265667
-0.0151504 -0.262
-0.0345498 -0.355608
-0.0304461 -0.361393
0.0370824 -0.380327
0.040786 -0.386565
0.0112751 -0.492705
0.00457889 -0.495533
-0.0173763 -0.0696635
-0.0140397 -0.067077
0.00629711 -0.0844641
0.0104483 -0.0835092
0.00896872 -0.0717568
0.0127966 -0.0734033
0.01203 -0.102911
0.0151292 -0.106859
0.0162623 -0.213653
0.0218112 -0.216771
0.0219628 -0.368054
0.027568 -0.363663
-0.0346866 -0.395996
-0.0416503 -0.394238
0.00650066 -0.00633351
0.00768632 -0.00765322
-0.029699 -0.195022
-0.0278075 -0.189196
0.0261609 -0.302607
0.0193512 -0.302104
-0.000700549 -0.000242196
-0.00136853 -0.000630511
0.00232684 -0.0635188
-0.00144835 -0.0630936
0.0234845 -0.236164
0.0215924 -0.229981
-0.00033483 -0.202655
-0.00575092 -0.205088
0.0236011 -0.143034
0.0289157 -0.142674
0.000859305 -0.00491756
-0.000163488 -0.005439
-0.00290079 -0.12148
-0.0020129 -0.126498
-0.0205408 -0.210032
-0.0266613 -0.209402
-0.00699714 -0.0266386
-0.00931109 -0.0257926
-0.0101519 -0.387137
-0.00791169 -0.380282
0.00288381 -0.130524
0.00475744 -0.135445
-0.00483427 -0.0249392
-0.00540525 -0.0277479
0.000488249 -0.00679467
-0.00013786 -0.00807878
-0.0167068 -0.0594929
-0.0188549 -0.0568826
-0.0102755 -0.0184851
-0.00802047 -0.017804
-0.0374073 -0.423748
-0.0424595 -0.429061
-0.011306 -0.0491809
-0.00925812 -0.0517312
0.00144039 -0.0169371
0.00338929 -0.0165064
-0.0202336 -0.241313
-0.0227805 -0.247354
0.0166459 -0.447143
0.0209247 -0.453069
0.0302206 -0.205967
0.0346199 -0.210648
-0.00170512 -0.174293
-0.00555009 -0.170063
-0.0172811 -0.0557668
-0.0205398 -0.0547934
-0.000372428 -0.00404202
-0.000465031 -0.00303211
-0.00701715 -0.169878
-0.00199638 -0.167168
0.00612056 -0.0315713
0.00684304 -0.0344253
-0.0076494 -0.0356954
-0.00493268 -0.0344339
0.00182506 -0.0354155
-0.000594031 -0.0372273
0.0188066 -0.206365
0.0238659 -0.210185
-0.0349033 -0.432714
-0.0340468 -0.43996
0.0207242 -0.406029
0.0219222 -0.398891
0.0336673 -0.244781
0.0276692 -0.246964
-0.00129898 -0.0620086
-0.00503445 -0.0626797
-0.0302823 -0.393592
-0.023776 -0.396575
-0.025411 -0.228637
-0.0311537 -0.23167
0.0253403 -0.173205
0.0202805 -0.175698
0.0263189 -0.417474
0.020092 -0.421146
0.00880645 -0.0732988
0.00629353 -0.0699829
0.0137229 -0.375823
0.00770351 -0.371967
0.0102184 -0.0488859
0.0078994 -0.0461755
0.0392532 -0.301477
0.0346176 -0.306366
-0.00586126 -0.0907649
-0.00591285 -0.0952987
-0.00977624 -0.0558147
-0.00991245 -0.0595185
0.0030103 -0.00300119
0.00209606 -0.00235862
0.0193438 -0.151165
0.0139197 -0.150311
0.0258561 -0.299528
0.0190546 -0.299412
0.00345781 -0.0471422
0.00132131 -0.0445259
0.00980404 -0.051255
0.0063729 -0.0504647
-0.0390236 -0.350386
-0.041447 -0.357202
-0.0362666 -0.255938
-0.0303265 -0.252907
-0.00956493 -0.122198
-0.00924883 -0.117157
-0.0300658 -0.181774
-0.0307844 -0.187684
-0.00458339 -0.168845
-0.000729102 -0.173055
-0.033106 -0.297975
-0.0266143 -0.299843
0.0123333 -0.220267
0.0157434 -0.215021
0.0028926 -0.0857656
0.00284908 -0.0814057
0.00846347 -0.0315083
0.00625234 -0.0329235
0.0016928 -0.0439652
0.000559921 -0.0470904
0.0193611 -0.47815
0.0258087 -0.474701
0.0218581 -0.168747
0.0187337 -0.173401
0.0204695 -0.403247
0.0239077 -0.409652
0.0333674 -0.262126
0.0298283 -0.256431
0.0278654 -0.367087
0.0333989 -0.371732
-0.000354414 -0.022935
-0.00148566 -0.0210045
-0.0235642 -0.310788
-0.0274985 -0.305245
-0.000287201 -0.334103
0.00655491 -0.333857
-0.014998 -0.252961
-0.0172605 -0.259176
0.0224804 -0.346466
0.0265398 -0.352427
-0.0312602 -0.374469
-0.0313746 -0.381658
-0.0196101 -0.169259
-0.0252225 -0.168595
-0.00530455 -0.0232704
-0.00783758 -0.0241863
0.000433678 -0.484627
0.00768154 -0.484991
0.023244 -0.213752
0.0177001 -0.210665
-0.00615289 -0.02726
-0.00879093 -0.0284879
-0.0194035 -0.0658764
-0.0186815 -0.062006
0.012959 -0.0296172
0.0125667 -0.0268636
-4.40324e-05 1.76021e-05
-0.000162952 -7.64677e-05
0.0143614 -0.144706
0.0175592 -0.149256
0.0334021 -0.279706
0.0322844 -0.286311
-0.000651698 -0.0523753
0.000526357 -0.0490742
-0.0358521 -0.457929
-0.0287737 -0.459676
-0.0202477 -0.0998114
-0.0170738 -0.095998
-0.00427435 -0.445473
-0.000298363 -0.439344
0.00306207 -0.00754297
0.00228702 -0.00623943
-0.000647117 -0.0680889
-0.0035611 -0.070861
-0.000623268 -0.00393009
-0.00150175 -0.00361859
-0.000475878 -0.0103672
-0.0019506 -0.0112644
0.00817224 -0.0142196
0.00908187 -0.0129829
0.00912988 -0.0373489
0.00621639 -0.0377352
-0.0164731 -0.17313
-0.0133023 -0.17786
-0.00651302 -0.0800106
-0.0077089 -0.0842034
-0.0100014 -0.301006
-0.0130521 -0.294935
-0.0191837 -0.404216
-0.0182855 -0.411412
-0.0142666 -0.28484
-0.012758 -0.291423
0.0220854 -0.217254
0.0255485 -0.22269
0.0371173 -0.420689
0.0393942 -0.413806
-0.00495191 -0.177037
-0.00945897 -0.180776
-0.000768386 -0.000286163
-0.00133321 -0.000685713
-0.00677217 -0.489113
-0.0136303 -0.486705
0.0148125 -0.137471
0.0100086 -0.135135
0.0174402 -0.0451117
0.017897 -0.0420636
0.00753054 -0.294463
0.013831 -0.292093
-0.0247194 -0.448547
-0.0175263 -0.449573
-0.0217481 -0.100291
-0.017946 -0.102739
0.0148237 -0.0421287
0.0137046 -0.0389986
0.0164856 -0.489222
0.00959939 -0.491611
0.00940351 -0.466423
0.0153687 -0.47061
0.030829 -0.251085
0.0276882 -0.245261
0.00519582 -0.0157814
0.0072424 -0.0166008
-0.000164522 -5.35497e-05
-0.000888381 -0.000378864
0.000218301 -0.000221025
0.000565339 -0.000458206
0.014994 -0.0535567
0.0185761 -0.0545947
-0.00329447 -0.0115874
-0.00505851 -0.0119981
-0.0350747 -0.281825
-0.0355257 -0.275153
0.0107042 -0.0299357
0.00795416 -0.0299102
-0.000260131 -3.36272e-05
-3.923e-05 1.00106e-05
-0.0138716 -0.0888229
-0.0166441 -0.0856362
0.00955258 -0.0148181
0.0113603 -0.014644
0.00148974 -0.000768735
0.00199244 -0.000962487
-0.0201646 -0.105613
-0.0246402 -0.107959
0.0268361 -0.425683
0.0337552 -0.427938
0.0109687 -0.143166
0.0160246 -0.145182
0.0214686 -0.111979
0.0227778 -0.107391
0.0358793 -0.329841
0.0316693 -0.335364
-0.02268 -0.40065
-0.0168084 -0.396412
0.0238395 -0.097611
0.0253989 -0.0934715
-0.0223712 -0.185967
-0.0177247 -0.182121
0.0165558 -0.303565
0.0228544 -0.301064
-0.000185868 -0.000936366
-0.000436079 -0.00154855
0.00132972 -0.203443
0.00456631 -0.198428
0.0284226 -0.134499
0.0298586 -0.12965
-0.00512896 -0.31701
-0.00841501 -0.310945
0.0367142 -0.335133
0.0357496 -0.342132
-0.0138087 -0.213265
-0.0140432 -0.206955
-0.00688282 -0.0295905
-0.00698414 -0.026812
0.00203397 -0.00905213
0.000534481 -0.00922809
0.0240042 -0.1392
0.0293341 -0.139884
-0.0428224 -0.438777
-0.0443027 -0.445951
-0.0100792 -0.0202504
-0.0112138 -0.0226346
0.00262819 -0.0343168
0.0027819 -0.0373157
-0.00338579 -0.16642
0.000657136 -0.162464
0.0127926 -0.0600372
0.00975124 -0.0575876
0.00680602 -0.0808268
0.0102959 -0.0786264
0.000268752 -0.000315604
0.000166744 -6.13336e-05
0.000503603 -0.00460562
0.000163851 -0.00355366
-0.012927 -0.483152
-0.00567871 -0.482652
0.0297247 -0.456113
0.0346927 -0.450761
-0.000615604 -0.0353659
-0.00357402 -0.035353
0.00347224 -0.397718
-0.002392 -0.401893
0.0181023 -0.343935
0.0142322 -0.337928
0.00598119 -0.187779
0.00403512 -0.193415
0.00223349 -0.492248
0.00916928 -0.490084
-0.0199645 -0.0955381
-0.0237925 -0.0987097
0.00595941 -0.0939627
0.00705883 -0.0896197
-0.0214006 -0.198841
-0.0226872 -0.192995
-0.0003266 -5.9766e-05
-0.00040624 -9.70353e-05
-0.0268146 -0.369928
-0.0310244 -0.375811
-0.0251954 -0.391191
-0.0184176 -0.388748
0.00262121 -0.0523252
0.00218152 -0.0488359
0.027485 -0.304549
0.0332208 -0.308487
0.034925 -0.401499
0.0341174 -0.408695
0.0100111 -0.169679
0.00437091 -0.170229
-0.0297834 -0.193584
-0.0259003 -0.197967
0.00588215 -0.00656192
0.00694368 -0.00637486
-0.0217313 -0.228552
-0.0277454 -0.226824
-0.00299826 -0.00732746
-0.00432908 -0.00729642
-0.00918401 -0.0619229
-0.0056877 -0.0631622
-0.00491692 -0.459852
-0.011511 -0.462948
0.02156 -0.129867
0.024357 -0.134504
-0.000619168 -0.0669845
-0.00195316 -0.0707759
0.0317718 -0.431022
0.0334263 -0.423932
0.00173568 -0.405554
-0.000356158 -0.412508
-0.0143951 -0.0324343
-0.0145496 -0.0297321
0.00462831 -0.139623
0.0040713 -0.134335
0.00728503 -0.371434
0.0142011 -0.369869
9.23287e-05 -3.24394e-05
3.24699e-05 -0.000211713
0.0424779 -0.444395
0.0418221 -0.451679
-0.0175292 -0.426366
-0.0105584 -0.428279
-0.0184773 -0.0723535
-0.0163358 -0.068663
0.0289071 -0.377305
0.0295697 -0.384485
0.0265378 -0.230298
0.0321003 -0.233697
-0.000255466 -3.55784e-05
-0.000337729 -0.000163898
-0.0158719 -0.342436
-0.017768 -0.335618
0.000487338 -0.00137615
0.000183274 -0.000822913
-0.0143526 -0.444601
-0.0120383 -0.451534
0.00547592 -0.00369317
0.00620576 -0.00469844
0.0263481 -0.133721
0.0211292 -0.132859
0.00512162 -0.187315
0.010492 -0.185032
0.040517 -0.330409
0.0363459 -0.335952
-0.0125219 -0.0834553
-0.0112359 -0.0792665
0.0357926 -0.470311
0.0295653 -0.466464
-0.000404173 -0.000404732
-0.000848087 -0.000700244
-0.0201357 -0.0895759
-0.0177348 -0.0931346
-0.0249146 -0.36447
-0.0190697 -0.36029
0.00115821 -0.0934902
-0.00128516 -0.0898201
0.0297096 -0.316038
0.0266431 -0.30977
0.0338836 -0.409674
0.0393787 -0.405015
0.0155284 -0.240166
0.0131727 -0.234138
-0.0191283 -0.0592531
-0.0209264 -0.0564286
0.00334941 -0.00922413
0.00455867 -0.0105931
0.0278723 -0.316213
0.0343015 -0.318978
0.0201917 -0.36017
0.0174688 -0.353483
-0.00464303 -0.423537
-0.0117969 -0.424591
0.0202644 -0.160831
0.0149618 -0.162372
0.00524007 -0.0547982
0.00377969 -0.0580956
-0.0112807 -0.0640013
-0.010016 -0.0602795
0.0206455 -0.167645
0.0253375 -0.164745
0.0124419 -0.238235
0.0184887 -0.240468
-0.000723802 -0.201512
0.0050462 -0.200369
0.00662559 -0.114301
0.01144 -0.114062
-0.0168464 -0.172537
-0.0114435 -0.170461
0.00134194 -0.141619
0.00542564 -0.13827
-0.00256594 -0.0188915
-0.00279679 -0.0211762
0.0247144 -0.406303
0.0319063 -0.407041
-0.0180233 -0.177468
-0.0169142 -0.183175
-0.0137497 -0.124801
-0.014827 -0.119915
-0.00961187 -0.0198541
-0.0120043 -0.0205423
-0.0011873 -0.174632
0.0014213 -0.179837
0.0271265 -0.124049
0.0275597 -0.129194
0.0138763 -0.469826
0.0211584 -0.46977
-0.0407625 -0.438763
-0.0353716 -0.443634
0.000372072 -0.000103918
0.000763529 -0.000391002
0.0037149 -0.369038
0.010225 -0.371867
-0.00651767 -0.127694
-0.00467919 -0.132514
0.00864659 -0.431779
0.0153772 -0.434486
0.00990536 -0.0263868
0.0122128 -0.0256776
0.00602576 -0.0166896
0.00442054 -0.0178065
-0.0323528 -0.355873
-0.0330212 -0.363037
-0.0206236 -0.0528082
-0.0178723 -0.0500458
0.00705768 -0.148903
0.00320097 -0.152721
0.00105907 -0.000561557
0.000872316 -0.00069299
0.0333334 -0.34686
0.0345025 -0.339856
-0.00945025 -0.0134795
-0.00753418 -0.0130781
0.0219807 -0.154417
0.0186264 -0.149852
0.00378802 -0.00378888
0.00318311 -0.00282764
0.0144962 -0.229261
0.0126534 -0.223138
-0.0164773 -0.244102
-0.0127181 -0.249278
0.00456904 -0.0046151
0.00455137 -0.00561143
0.00257664 -0.00137115
0.0020933 -0.00128544
0.00228836 -0.240389
-0.00280155 -0.244294
-0.00257182 -0.0577956
0.000814182 -0.0564289
-0.0232277 -0.408139
-0.0300504 -0.405864
0.010814 -0.174845
0.0063461 -0.178433
0.0293588 -0.237285
0.0230114 -0.23615
-0.0119818 -0.105703
-0.00933173 -0.109586
0.0160928 -0.221911
0.0208861 -0.226184
0.0120658 -0.466168
0.019324 -0.466688
-0.016206 -0.0450418
-0.018106 -0.0428615
0.00926589 -0.0133647
0.0078632 -0.0141232
0.00142575 -0.00470354
0.000879153 -0.00569179
-0.0175391 -0.0385204
-0.0166525 -0.035485
0.00131462 -0.00654601
0.00146883 -0.00798065
0.00627273 -0.158473
0.00175845 -0.155214
-0.0184543 -0.491757
-0.0151355 -0.485221
-0.0378796 -0.281317
-0.0313625 -0.279416
-0.00199774 -0.141243
-0.00720752 -0.142381
0.0052629 -0.00672711
0.0039025 -0.00639464
-0.0322907 -0.455625
-0.0394805 -0.454392
-0.00519339 -0.387328
-0.00267899 -0.380578
0.0215861 -0.126971
0.0244608 -0.123009
0.00644255 -0.0441252
0.0078493 -0.0413517
0.00201778 -0.24791
0.00843192 -0.247465
0.00880548 -0.0177806
0.0106202 -0.0196279
0.00848098 -0.0135939
0.00655238 -0.0129222
0.00431353 -0.00692995
0.00304209 -0.00606527
0.00157363 -0.000767878
0.00173636 -0.000762342
-0.0250408 -0.0795666
-0.0210012 -0.077576
0.0189486 -0.0717446
0.0208553 -0.0756329
0.0393809 -0.384581
0.0353858 -0.390524
-0.0258038 -0.216875
-0.0310661 -0.213772
-0.0108251 -0.483054
-0.0115766 -0.490348
0.0145546 -0.230484
0.0120658 -0.23631
0.0293312 -0.207312
0.0231758 -0.207452
-0.0101867 -0.0716577
-0.00744535 -0.0685391
0.00195957 -0.00150845
0.0012588 -0.00106913
-0.00476797 -0.0144832
-0.00424708 -0.0163292
-0.00209521 -0.00274203
-0.00127977 -0.00215781
0.0242599 -0.459374
0.0289752 -0.453791
0.0207115 -0.471118
0.0165913 -0.465074
-0.0243628 -0.139727
-0.0259501 -0.134835
0.0164699 -0.117295
0.0190471 -0.121803
-0.038164 -0.404248
-0.03094 -0.404267
0.000672529 -0.247412
-0.00122565 -0.253654
0.0323421 -0.28721
0.0382076 -0.290818
0.0300541 -0.191513
0.0343053 -0.187641
0.0298601 -0.157969
0.0287858 -0.163381
-0.000408279 -0.0464125
-0.000101443 -0.0431053
0.00904561 -0.290556
0.0128532 -0.285015
0.0157574 -0.0679794
0.0119571 -0.0686902
0.0136147 -0.0788041
0.0155172 -0.0828033
-0.00295534 -0.184971
-0.00218458 -0.190877
-0.0233612 -0.351414
-0.0295504 -0.355066
-0.00356385 -0.00367406
-0.00343309 -0.0044973
-0.00861121 -0.013569
-0.00803895 -0.0151154
-0.00878076 -0.0186561
-0.00773328 -0.0203529
0.00960641 -0.0181074
0.0115857 -0.0177729
-0.0222601 -0.0869111
-0.0205668 -0.0908025
-0.011217 -0.178903
-0.0093007 -0.173366
0.00234126 -0.46814
0.00501785 -0.461313
-0.0157388 -0.461733
-0.0195163 -0.468014
0.0279 -0.348128
0.0262338 -0.355087
-0.00147101 -0.000889068
-0.000907421 -0.00042437
-0.00352472 -0.00499663
-0.00299113 -0.00387628
0.00133399 -0.000573488
0.000695491 -0.000213264
0.0250522 -0.492991
0.018533 -0.49631
0.0158046 -0.0849517
0.0202014 -0.0855402
-0.000757455 -0.00449758
-0.000885494 -0.00345427
0.00257286 -0.00508013
0.00272372 -0.0040785
0.00384161 -0.0234906
0.0027101 -0.0213003
-0.000995783 -0.000463256
-0.00100505 -0.000662209
-0.0198184 -0.0929828
-0.0243647 -0.0943593
-0.00742922 -0.144807
-0.0118577 -0.148046
0.00112786 -0.00157391
0.000912998 -0.000950808
0.0230724 -0.137886
0.0213533 -0.132776
0.0364119 -0.347999
0.0400655 -0.341977
-0.000160602 -0.128045
0.000660417 -0.133192
-0.0021968 -0.00126901
-0.00144118 -0.000776442
0.0138521 -0.0320487
0.0165088 -0.0315788
0.000436377 -0.000335658
0.000183999 -7.5831e-05
-0.00381194 -0.00574789
-0.00507473 -0.00599667
-0.0170074 -0.139693
-0.0194555 -0.144624
0.0101953 -0.168878
0.00824736 -0.163481
-0.0152394 -0.157942
-0.0166663 -0.163448
0.0228083 -0.1571
0.0210348 -0.162303
-0.0291625 -0.15246
-0.0328936 -0.156908
-0.0360522 -0.430834
-0.029514 -0.427583
0.0196678 -0.466613
0.0214917 -0.459511
-0.0011819 -0.0160613
-0.00199657 -0.0180603
0.0125576 -0.110322
0.00932394 -0.106486
-0.0247609 -0.10128
-0.0244831 -0.106035
-0.00803867 -0.452506
-0.015188 -0.453821
-0.02405 -0.448053
-0.0211326 -0.454748
0.000396494 -0.00521
-0.00069251 -0.00487753
0.0226736 -0.126733
0.0223737 -0.13187
0.00907403 -0.484387
0.0140974 -0.489676
-0.000648371 -0.000219408
-0.000422333 -0.000160611
0.00206206 -0.270989
0.000872868 -0.264443
0.0207073 -0.160057
0.0218986 -0.165645
-0.00332567 -0.00238917
-0.00400267 -0.00251275
0.00432049 -0.146968
0.00418372 -0.152454
-0.00963518 -0.186467
-0.0121256 -0.181178
-0.00711741 -0.0148306
-0.0080481 -0.0168577
0.0115546 -0.386356
0.0155992 -0.380451
0.0164628 -0.0800707
0.0205476 -0.0793501
0.023141 -0.134438
0.0179689 -0.133262
0.0114993 -0.0232454
0.01408 -0.0238276
0.00948235 -0.0817458
0.00656897 -0.0785224
-0.037229 -0.382791
-0.0375319 -0.375614
-0.00711175 -0.387123
-0.0134714 -0.390458
0.00422801 -0.0176525
0.00456935 -0.0156402
-0.00744978 -0.0359036
-0.00962588 -0.0342925
0.0353397 -0.285292
0.034851 -0.278558
-0.0273656 -0.246919
-0.033618 -0.248953
0.0239781 -0.115144
0.019678 -0.117263
-0.00446085 -0.409059
-0.00514547 -0.416302
0.0258002 -0.287679
0.0192311 -0.286059
0.0286083 -0.428335
0.0335934 -0.42307
0.0173481 -0.3059
0.0195609 -0.312462
0.00589285 -0.00836814
0.00605387 -0.00987085
0.00692957 -0.00864362
0.00719362 -0.0101624
-0.0166928 -0.169932
-0.0183808 -0.175527
-0.00841528 -0.155976
-0.00335261 -0.158109
-0.0119421 -0.412891
-0.0135758 -0.419992
-0.000175728 -0.000186729
-0.000342863 -0.000138771
-0.0153105 -0.112085
-0.0119015 -0.115382
0.0139336 -0.175942
0.00819008 -0.175504
0.0205214 -0.180626
0.0147198 -0.180981
0.00635062 -0.00541999
0.00510805 -0.00509059
0.00855565 -0.300166
0.0082287 -0.307031
0.0112127 -0.0175876
0.00917284 -0.0161472
-0.000911837 -0.0120106
-0.0025212 -0.0129277
-0.00751168 -0.282025
-0.0138826 -0.284165
0.0218238 -0.412627
0.0269052 -0.417836
0.00909598 -0.0355418
0.0114066 -0.0341308
0.0235708 -0.187019
0.0225787 -0.192856
0.0111894 -0.44417
0.00401946 -0.445278
0.00753654 -0.0135361
0.00817652 -0.015505
-0.0354823 -0.466609
-0.0353104 -0.473941
0.0360148 -0.269875
0.0311474 -0.274226
0.0188661 -0.409025
0.0147777 -0.403027
0.0237197 -0.358837
0.0308411 -0.358615
-0.034956 -0.351585
-0.0286377 -0.34815
-0.00010213 -0.303715
0.00580679 -0.307135
6.93006e-05 -0.00185925
5.84291e-06 -0.00116524
0.0137698 -0.188551
0.00930941 -0.184595
0.0204211 -0.053923
0.0168428 -0.0537495
-0.00109883 -0.00376001
-0.000280544 -0.00430727
-0.0397054 -0.268392
-0.0332831 -0.269782
-0.0121478 -0.486283
-0.0102206 -0.493345
-0.0272359 -0.400258
-0.031199 -0.394279
-0.028002 -0.193508
-0.0227157 -0.190347
0.0171561 -0.1283
0.0186171 -0.133391
0.00286746 -0.288484
0.00492793 -0.282054
-0.0254103 -0.330632
-0.0230189 -0.323993
3.66967e-05 -0.259149
0.00233936 -0.265343
-0.0271091 -0.458152
-0.0256762 -0.465335
0.0191022 -0.100491
0.0236078 -0.102503
-0.00882003 -0.0311881
-0.00645649 -0.0293224
-0.0211018 -0.413422
-0.0144902 -0.410464
-0.00395491 -0.194544
-0.00081997 -0.199645
0.00169003 -0.002884
0.00227895 -0.00384283
0.0306617 -0.400105
0.0234797 -0.40066
-0.0224131 -0.329049
-0.0180764 -0.334492
0.0348782 -0.465045
0.0297821 -0.470302
0.00609162 -0.0104093
0.00655004 -0.00913946
0.00649726 -0.171584
0.0115855 -0.174325
-0.00285872 -0.00401301
-0.00371777 -0.00388807
0.000314422 -0.0210117
0.00237274 -0.0217119
-0.00854088 -0.260419
-0.00236163 -0.262524
0.00737992 -0.282357
0.0132176 -0.279163
0.00223184 -0.0396283
0.00459299 -0.0377586
0.00722797 -0.445017
0.00205456 -0.439895
0.0104537 -0.254864
0.00538728 -0.258933
0.0277764 -0.473237
0.0350795 -0.472839
0.00629866 -0.00983756
0.00742001 -0.0114557
-0.00255922 -0.00254754
-0.00171819 -0.0022806
0.0142402 -0.384701
0.0173808 -0.378263
0.0184349 -0.486481
0.0149872 -0.492957
0.0326178 -0.269533
0.0304517 -0.26318
0.0252626 -0.24196
0.0243652 -0.248347
-0.0238819 -0.144502
-0.0202061 -0.140314
-0.012943 -0.0322032
-0.011317 -0.0295469
0.0388793 -0.455034
0.0388068 -0.46236
-0.017987 -0.454087
-0.0130774 -0.459476
-0.0141363 -0.263747
-0.00774604 -0.262176
-0.0185335 -0.378095
-0.0226305 -0.372283
-0.0245896 -0.487713
-0.0311823 -0.484558
-0.00492523 -0.0491743
-0.00809478 -0.0482074
0.0248902 -0.0846337
0.023611 -0.0886354
0.0140506 -0.116028
0.0188865 -0.117495
-0.000346597 -0.000392884
-0.000707601 -0.000809569
0.0160091 -0.40503
0.0141864 -0.398008
-0.000627849 -0.017653
-0.00231701 -0.0165351
-0.0214063 -0.337818
-0.0187399 -0.344372
0.00161969 -0.251661
0.00796071 -0.250463
0.00270654 -0.00907534
0.00342022 -0.0106693
0.0228967 -0.163151
0.0275066 -0.160261
-0.0406239 -0.474824
-0.0438504 -0.48143
0.0286654 -0.444235
0.0218244 -0.441731
0.0130085 -0.443264
0.00880083 -0.437305
-0.0271929 -0.33198
-0.0320916 -0.3372
-0.00651915 -0.170011
-0.00139289 -0.167519
0.00524433 -0.00456377
0.00424023 -0.00354662
0.0239395 -0.430933
0.0181229 -0.426556
0.000809859 -0.00445662
0.00187654 -0.00499417
0.0279466 -0.154999
0.0224493 -0.155245
0.0167583 -0.268958
0.0144143 -0.262709
-0.00260943 -0.389454
-0.00964476 -0.390732
-0.000374714 -0.389398
0.00423106 -0.383895
-0.00309345 -0.0024711
-0.00326165 -0.00212367
0.0166368 -0.385607
0.0219678 -0.390482
-0.0122696 -0.229915
-0.0179895 -0.227463
-0.0291068 -0.41784
-0.0302019 -0.425053
0.0155486 -0.0975065
0.0138215 -0.101813
0.00913567 -0.0426894
0.00678896 -0.0446902
-0.00113749 -0.181969
-0.00679538 -0.180734
0.0345644 -0.288729
0.0367704 -0.295237
0.0113166 -0.393191
0.0166504 -0.398063
-0.00586797 -0.0119622
-0.00433103 -0.012491
-0.0219244 -0.330019
-0.0172854 -0.335212
-0.00942863 -0.321073
-0.00747307 -0.314403
-0.0049744 -0.178503
-0.00516767 -0.172689
0.00268935 -0.295186
0.00817224 -0.291247
0.0126085 -0.332959
0.00612639 -0.33543
1.14569e-05 -3.75264e-07
0.000487523 -0.000120645
0.0189771 -0.188978
0.0169624 -0.194546
-0.000448683 -0.00136749
5.28886e-05 -0.00102928
-0.00120935 -0.441409
0.00603747 -0.441335
-0.00492021 -0.181229
-0.00406038 -0.187076
-0.0148872 -0.248492
-0.0122981 -0.25442
0.00030435 -0.000510964
0.000191493 -0.000165498
-0.00394207 -0.129545
0.00053579 -0.127022
0.0025796 -0.438975
-0.00408976 -0.441849
-0.000173913 -0.00019858
-6.40819e-05 -4.43885e-06
0.0114842 -0.48242
0.00800531 -0.475986
0.00458488 -0.0505111
0.00372218 -0.0539147
-0.0411088 -0.406089
-0.0375883 -0.412374
-0.0172838 -0.0752753
-0.0135131 -0.073186
0.00675127 -0.317756
0.000179772 -0.319716
0.018881 -0.184381
0.0135671 -0.181725
-0.00461732 -0.0239023
-0.00712681 -0.0237119
-0.00789181 -0.435377
-0.0113114 -0.428952
-0.00646599 -0.124732
-0.00217436 -0.127401
-0.00730285 -0.0831668
-0.011224 -0.0816565
0.0189425 -0.194794
0.0219409 -0.189732
-0.0206787 -0.116396
-0.0251974 -0.119003
-0.00202073 -0.00508673
-0.00216531 -0.00404925
0.0135075 -0.0883701
0.0178311 -0.0899479
-0.00303117 -0.00163926
-0.00211247 -0.00108335
-0.00977184 -0.388146
-0.0124822 -0.381505
-0.00911246 -0.465398
-0.00729291 -0.458291
0.0180251 -0.200636
0.0223968 -0.205136
-0.00503502 -0.0852996
-0.00858575 -0.0829717
0.0119428 -0.0482443
0.0129946 -0.0516776
-0.0167174 -0.0536358
-0.0142191 -0.0558044
-0.00293491 -0.00606349
-0.003122 -0.00742283
0.0113651 -0.124792
0.0164192 -0.124662
-0.00990342 -0.026579
-0.012526 -0.0278944
0.00925147 -0.015554
0.0106041 -0.0146495
-0.00423867 -0.00697551
-0.00315958 -0.00583701
-0.00109595 -0.00456405
-0.00220853 -0.00503631
0.0253642 -0.207024
0.0215957 -0.201952
0.00275749 -0.275186
0.00650189 -0.269696
-0.00121698 -0.00355065
-0.000306786 -0.00315959
-0.00679334 -0.0611999
-0.00590909 -0.0648969
0.02337 -0.383324
0.0162359 -0.38264
0.00086425 -0.012316
-0.000874276 -0.0121214
0.0145856 -0.131724
0.0190445 -0.134711
0.014445 -0.299827
0.0210015 -0.298158
-0.012615 -0.384633
-0.0188289 -0.381171
0.00207524 -0.00324986
0.00294296 -0.00412819
0.00657948 -0.00584182
0.00685685 -0.00701814
0.0254253 -0.363871
0.0274425 -0.356996
0.0180681 -0.0404797
0.0152373 -0.0413065
0.0187742 -0.183961
0.0231498 -0.180262
-0.0313054 -0.465772
-0.0312634 -0.473108
0.0205548 -0.0951763
0.0217866 -0.0909286
0.0134604 -0.199147
0.0150006 -0.205118
0.0173169 -0.23364
0.0226335 -0.230316
-0.011586 -0.13196
-0.0148462 -0.136229
0.026576 -0.242539
0.0208572 -0.245322
0.0223736 -0.0959277
0.0263103 -0.0989996
-0.00830883 -0.0812706
-0.0040844 -0.081037
0.0220735 -0.395076
0.0256932 -0.388872
0.0271868 -0.240352
0.0207642 -0.240029
-0.0203592 -0.19908
-0.0262193 -0.201095
0.00594706 -0.0943727
0.00830727 -0.0984707
-0.000292162 -0.000149932
-0.000507687 -0.000192034
-0.00695839 -0.420598
-0.00421623 -0.427337
0.0290452 -0.274088
0.026446 -0.280179
-0.0128887 -0.0588898
-0.0166116 -0.0592078
-0.0022208 -0.0101171
-0.00361132 -0.0112972
0.00189895 -0.00778877
0.00334338 -0.00825773
-0.0427094 -0.446094
-0.0369429 -0.441553
0.0264509 -0.144245
0.0210672 -0.14398
0.026944 -0.273947
0.0240912 -0.279923
0.00229531 -0.192701
0.00322406 -0.198647
-0.0269656 -0.469492
-0.0225474 -0.47532
-0.0233771 -0.348429
-0.0162935 -0.347578
0.00565774 -0.149366
0.000880195 -0.146773
0.0136308 -0.463272
0.0208075 -0.462048
-0.00475931 -0.0523736
-0.0025262 -0.0495946
-0.015636 -0.479923
-0.0171556 -0.487102
-0.0206615 -0.148367
-0.0230311 -0.153481
0.00796302 -0.446973
0.00649702 -0.454151
-0.0115996 -0.0664845
-0.00872182 -0.0636258
-0.0398816 -0.382802
-0.0372583 -0.389457
0.0142167 -0.229563
0.0204509 -0.230839
0.0298647 -0.208786
0.0237332 -0.20764
-0.0067172 -0.378679
-0.00338474 -0.372339
0.00225517 -0.00137358
0.00272917 -0.00202403
0.0081267 -0.0269945
0.0107018 -0.0283775
0.0100894 -0.0543334
0.0108643 -0.050964
0.0103627 -0.026766
0.00897429 -0.0288208
-0.00678823 -0.434175
-0.0102594 -0.42778
-0.0381276 -0.277725
-0.0322763 -0.280744
0.0122198 -0.124149
0.0106543 -0.119256
0.00101343 -0.000868427
0.00140064 -0.000863416
0.00726335 -0.00929338
0.0088833 -0.0105373
-0.0347051 -0.393801
-0.0360368 -0.400931
-0.0309435 -0.298193
-0.030851 -0.291379
-0.0100693 -0.395298
-0.00848735 -0.402354
0.00177842 -0.279274
0.00729414 -0.28309
0.0217235 -0.12262
0.0172902 -0.119851
0.0122218 -0.253102
0.00640715 -0.255937
0.00618252 -0.00862418
0.0057091 -0.00984313
0.0175674 -0.165818
0.0204243 -0.170903
-0.00434246 -0.0179057
-0.00242386 -0.0186994
-0.0229949 -0.216499
-0.0232318 -0.210205
0.0098681 -0.462714
0.00265497 -0.461856
0.0185886 -0.457997
0.0153214 -0.451449
-0.00101239 -0.165538
-0.00150996 -0.17125
0.0084743 -0.0109307
0.00799009 -0.00932611
-0.00870139 -0.0942436
-0.00694093 -0.0985381
-0.0129356 -0.477871
-0.0191642 -0.481676
-0.0122299 -0.110523
-0.00955848 -0.106267
0.0274673 -0.269026
0.0308228 -0.274905
0.00844633 -0.00978189
0.00849336 -0.00849295
0.00198248 -0.0164346
0.00401003 -0.0167646
-0.0381588 -0.345139
-0.0328568 -0.340239
0.017813 -0.179845
0.023098 -0.182603
-0.0253731 -0.331705
-0.0206166 -0.326456
-0.00878623 -0.0333109
-0.0116994 -0.0338997
0.00626977 -0.00807897
0.00625443 -0.00946785
-0.0103239 -0.189853
-0.0137005 -0.18506
0.0248214 -0.432094
0.0177779 -0.433815
-0.0238332 -0.106073
-0.0284911 -0.105302
8.67076e-05 8.38522e-06
0.000305363 -7.92539e-05
0.040483 -0.390616
0.0332822 -0.390882
-0.0231373 -0.155287
-0.0242701 -0.16083
-0.0253712 -0.196302
-0.0283192 -0.201828
-0.00116235 -0.265677
-0.00326327 -0.271997
0.0185444 -0.0725767
0.0226124 -0.0726492
-0.0153525 -0.407495
-0.0225125 -0.408365
0.00231708 -0.135845
0.00503053 -0.131397
0.0368261 -0.336503
0.0309122 -0.340217
-0.012536 -0.247933
-0.018984 -0.248127
0.0279233 -0.4415
0.0286746 -0.448781
0.00846483 -0.0229331
0.00674315 -0.0208638
-0.000134721 -0.000118908
-0.000422284 -0.000322159
-0.00112009 -0.32843
0.00428125 -0.332708
0.0215218 -0.162214
0.0173713 -0.165821
-0.000285063 -0.168785
0.00404544 -0.165147
-0.000904745 -0.000423811
-0.000978265 -0.000399665
0.00997119 -0.0477083
0.0129151 -0.0498355
-0.0276364 -0.161742
-0.0222981 -0.163133
0.0213149 -0.0795362
0.0228414 -0.0758862
0.0209094 -0.281812
0.0145649 -0.279574
-0.0123916 -0.0597057
-0.00983626 -0.0567502
0.0012727 -0.00872954
0.00269554 -0.0095175
0.0227057 -0.401046
0.0274528 -0.395649
0.0285512 -0.173535
0.0229128 -0.174407
0.0051311 -0.144729
0.00560634 -0.139376
-0.028144 -0.17258
-0.0266688 -0.178068
-0.000771503 -0.000284351
-0.00138922 -0.000647601
0.00218186 -0.000976031
0.0012951 -0.000531024
-0.00885726 -0.251472
-0.0152833 -0.250882
0.00261808 -0.0867555
0.0029279 -0.0823902
-0.0170074 -0.46304
-0.0129607 -0.456934
-0.013155 -0.296819
-0.0179116 -0.301783
0.00180839 -0.00519494
0.00183263 -0.00408013
0.00539081 -0.43513
0.0126174 -0.434648
-0.0272565 -0.161084
-0.0285632 -0.166683
-0.0177022 -0.0657159
-0.014028 -0.0639404
-0.000155233 -0.000497648
-0.000463026 -0.000935567
0.0197681 -0.37529
0.0263647 -0.378158
0.00287893 -0.00267484
0.00212669 -0.00189691
0.0236962 -0.326318
0.0182123 -0.321956
0.0113764 -0.128802
0.00732236 -0.131866
-0.0106259 -0.396252
-0.0084798 -0.403153
-0.024103 -0.447769
-0.025561 -0.440609
-0.0143594 -0.360215
-0.0206843 -0.363546
0.0306438 -0.340573
0.0236948 -0.339191
-0.0257912 -0.141283
-0.0205533 -0.141931
0.0338617 -0.314621
0.0373159 -0.320752
0.00357602 -0.00236224
0.0032016 -0.00262962
-0.000630423 -0.0641999
0.00134057 -0.0609215
-0.0279676 -0.224105
-0.0221689 -0.221358
0.0189944 -0.432835
0.0195195 -0.425557
0.0129819 -0.397715
0.0195195 -0.394769
0.0215629 -0.0951402
0.0260848 -0.0968896
0.000494223 -0.000125165
0.000733813 -0.000263226
-0.0300264 -0.336961
-0.0321901 -0.343802
0.000983348 -0.408229
0.00814405 -0.407555
0.0131974 -0.318566
0.0200857 -0.318364
0.0324902 -0.306072
0.0377761 -0.310658
-0.0277929 -0.231559
-0.0316322 -0.236874
0.00232449 -0.427583
-0.00143849 -0.421362
-0.0230332 -0.39889
-0.0297053 -0.396275
-0.0315703 -0.195475
-0.0309839 -0.20149
0.0301468 -0.171946
0.0277772 -0.177042
0.00567965 -0.41677
0.00420749 -0.423904
0.0349492 -0.311343
0.0308285 -0.3057
0.00548983 -0.00389063
0.0051622 -0.00439784
-0.0106242 -0.0463149
-0.00872488 -0.0488784
0.000790606 -0.00218619
0.00012123 -0.00178976
-0.0359973 -0.379543
-0.0288498 -0.378795
0.0014124 -0.159062
-0.000847461 -0.164223
-0.0115345 -0.0551402
-0.00846919 -0.056753
0.00882367 -0.175148
0.0131447 -0.171467
-0.0169613 -0.415592
-0.0210577 -0.409643
-0.018032 -0.287258
-0.0240805 -0.28447
-0.000280279 -0.0182898
0.00176671 -0.0186227
0.0288427 -0.304322
0.0352357 -0.30207
0.0156296 -0.035888
0.0129097 -0.0340274
-0.0181765 -0.0714051
-0.0183568 -0.0754968
0.0248916 -0.330817
0.0223399 -0.337338
-0.0275115 -0.127208
-0.0303008 -0.123264
0.032079 -0.159587
0.0289464 -0.15471
-0.0262792 -0.37154
-0.0206404 -0.375849
-0.0129533 -0.0322903
-0.0122044 -0.0294383
0.00583052 -0.0688182
0.00268672 -0.0663479
-0.00151394 -0.173465
-0.00591314 -0.169842
0.0128593 -0.151927
0.00840364 -0.148633
-0.00567312 -0.0648752
-0.00733372 -0.0615036
0.0221353 -0.169324
0.0180818 -0.173176
-0.0072828 -0.16131
-0.00291651 -0.164786
-0.0211995 -0.362523
-0.0143948 -0.360402
0.0155696 -0.0352271
0.0130217 -0.0331388
-0.0109315 -0.0319599
-0.0130103 -0.0305182
0.0381327 -0.246787
0.0352237 -0.252461
-0.0270998 -0.228399
-0.0329464 -0.231229
-0.0128026 -0.0715983
-0.0159231 -0.0694224
-0.0228264 -0.434373
-0.017324 -0.429581
0.000126574 -0.0149021
-0.00121641 -0.0164252
0.00703896 -0.277652
0.00318143 -0.283124
0.00127622 -0.122169
-0.00342983 -0.120451
-0.00903066 -0.0134403
-0.0110071 -0.0146593
-0.0125548 -0.274226
-0.0125396 -0.280942
-0.0102678 -0.462041
-0.00562753 -0.467677
-0.0241586 -0.117815
-0.024322 -0.112883
-0.0342153 -0.257176
-0.0332804 -0.263647
-0.000395001 -0.0086087
-0.00185935 -0.00910655
0.000196254 -0.133093
-0.000838318 -0.138281
0.00130982 -0.256957
-0.00262713 -0.262221
0.00716002 -0.123828
0.00477059 -0.119325
0.00212568 -0.0444841
0.00464009 -0.0425472
0.0338843 -0.21461
0.0278464 -0.215945
-0.00832909 -0.0191682
-0.0105181 -0.0206259
0.0014865 -0.11831
0.00578524 -0.120889
-0.00381436 -0.00886657
-0.00395037 -0.0104743
0.00804382 -0.092439
0.0117334 -0.0953562
-0.0149211 -0.232083
-0.0168736 -0.238237
-0.0186831 -0.198207
-0.0131758 -0.195535
-0.00303253 -0.0567774
-0.00439964 -0.0602973
7.54031e-05 -0.419481
0.00522944 -0.424582
0.00392658 -0.0353429
0.00458193 -0.0383471
-0.00749897 -0.0341524
-0.0072446 -0.0312845
0.0183458 -0.044479
0.0174583 -0.0474385
0.0149877 -0.189629
0.00985376 -0.192516
-0.0316285 -0.332601
-0.0246121 -0.332747
0.0048551 -0.203044
0.0108336 -0.202394
-0.0131446 -0.0297643
-0.0115254 -0.0271641
0.00510567 -0.149527
0.00998869 -0.147297
-0.00919448 -0.0405598
-0.00994176 -0.0437771
0.0118407 -0.025678
0.00946361 -0.0240113
-0.0379028 -0.235287
-0.0324602 -0.23838
-0.0240252 -0.31664
-0.0171278 -0.316233
0.00121821 -0.000483011
0.00061927 -0.000177012
-0.0323368 -0.348246
-0.0393715 -0.349518
-0.030909 -0.280711
-0.0301381 -0.287384
0.00643596 -0.00805722
0.00805251 -0.00891271
-0.0158563 -0.190724
-0.011169 -0.186956
0.0292794 -0.169231
0.0301155 -0.174982
0.0093477 -0.0129676
0.00827405 -0.0140369
0.0206284 -0.284305
0.0163456 -0.279039
0.0278226 -0.469
0.0206927 -0.467456
-0.0290045 -0.210592
-0.035105 -0.209766
-0.0238071 -0.253288
-0.0183471 -0.256678
0.0254792 -0.358582
0.0312811 -0.354496
0.0325489 -0.470772
0.0339371 -0.463572
0.0157915 -0.414909
0.0182639 -0.421761
0.0253408 -0.310421
0.0191682 -0.31335
0.0399258 -0.433058
0.0385917 -0.425876
0.0218783 -0.141095
0.0236463 -0.136225
0.00237581 -0.389664
-0.00452382 -0.387836
-0.00279222 -0.00487453
-0.00215349 -0.0037879
0.00799937 -0.0659265
0.00437882 -0.064402
-0.0224786 -0.109505
-0.0265733 -0.112686
-0.0132317 -0.123388
-0.0171724 -0.126873
-0.0212915 -0.130155
-0.0177979 -0.126094
0.00508884 -0.0763738
0.0088659 -0.0749132
-0.0203531 -0.367232
-0.0172498 -0.360742
0.0106346 -0.128272
0.00840263 -0.132888
-0.000926097 -0.475761
-0.00627942 -0.48073
0.0301528 -0.288166
0.0348431 -0.293225
-0.024364 -0.155422
-0.0280898 -0.151667
-0.0117393 -0.0591004
-0.00936721 -0.0560336
-0.0299869 -0.168259
-0.0342625 -0.172464
0.0271378 -0.186452
0.0247365 -0.180926
0.00853066 -0.0696229
0.012428 -0.0691559
-0.00583902 -0.00518942
-0.0056266 -0.00601376
-0.0219432 -0.303685
-0.0222893 -0.310571
0.037018 -0.36355
0.0304168 -0.360667
0.0344108 -0.410886
0.0314592 -0.417497
-0.0329096 -0.413901
-0.0323423 -0.421147
-0.00447789 -0.126088
-0.0091893 -0.124354
-0.00116813 -0.158058
-0.00360707 -0.153087
0.0158107 -0.155046
0.0147497 -0.149585
0.00155305 -0.0010164
0.00108574 -0.000963507
-0.004636 -0.0187941
-0.00282202 -0.0174354
-0.000937947 -0.00321036
-0.00077831 -0.00420327
-0.0139336 -0.132866
-0.0190746 -0.132429
-0.0241094 -0.274581
-0.0187375 -0.278391
0.00501556 -0.244914
0.00226805 -0.239068
-0.0262364 -0.260408
-0.0198332 -0.258803
-0.000106155 -0.172296
0.00407367 -0.168421
-0.00764726 -0.0137535
-0.00766622 -0.0156328
-0.0132912 -0.0225823
-0.0146417 -0.0250952
-0.0057647 -0.0570261
-0.00219862 -0.0576241
-0.00298543 -0.0156804
-0.00216103 -0.0175385
-0.00189891 -0.0229602
-0.00432413 -0.0232296
-0.0162336 -0.366048
-0.0101253 -0.369583
0.00989528 -0.0240559
0.00864818 -0.0216316
0.0243587 -0.102789
0.0236224 -0.0980128
0.035741 -0.385934
0.0410686 -0.390874
-0.0129942 -0.227912
-0.00809281 -0.231765
-0.0256001 -0.343675
-0.0314992 -0.34779
0.00580207 -0.0906086
0.00971052 -0.0886354
0.0306981 -0.253235
0.0366355 -0.250803
0.0107522 -0.0880323
0.0142443 -0.0855879
0.000789685 -0.190181
-0.00473411 -0.188214
-0.0318741 -0.314431
-0.0365555 -0.30952
-0.0238877 -0.414657
-0.027436 -0.421037
-0.010161 -0.423424
-0.00346084 -0.426131
0.0262367 -0.388998
0.0199937 -0.392505
-0.00271717 -0.123906
-0.00750876 -0.125623
-0.00871204 -0.244286
-0.0140445 -0.248015
0.0162001 -0.209057
0.0217056 -0.212191
-0.021155 -0.307249
-0.0237132 -0.300939
0.0230064 -0.40594
0.0237126 -0.398733
-0.0111475 -0.362967
-0.0149751 -0.369012
0.00189726 -0.00558334
0.000991423 -0.00466585
-0.0217734 -0.262026
-0.0210616 -0.255459
0.0218008 -0.151666
0.016658 -0.153278
-0.00297685 -0.0174295
-0.00440203 -0.0160832
0.0179979 -0.103772
0.0139052 -0.105995
0.00128485 -0.000532132
0.000441117 -0.000164112
0.00923711 -0.143734
0.00959759 -0.138392
-0.00547459 -0.018144
-0.00334398 -0.0175891
0.00191077 -0.0157413
0.00124061 -0.0138237
0.0270595 -0.452636
0.0218458 -0.447517
-0.00839501 -0.373166
-0.00746019 -0.366088
0.000618692 -0.00775425
0.000590595 -0.00633917
-0.00647921 -0.0974627
-0.00574077 -0.0928832
0.00553111 -0.0278927
0.00768243 -0.0264881
0.0289247 -0.379949
0.033634 -0.385456
-0.021832 -0.129247
-0.0175079 -0.12612
0.00777469 -0.373488
0.014081 -0.370234
0.0186558 -0.191742
0.0223236 -0.196673
-5.69058e-05 -0.27871
-0.00655671 -0.277319
-0.00413815 -0.0395266
-0.00633365 -0.0419486
-0.0200048 -0.333749
-0.0155792 -0.339173
0.0369968 -0.239946
0.0343668 -0.233943
0.0321197 -0.301525
0.0266606 -0.29727
-0.00162568 -0.00384854
-0.000663493 -0.0039896
0.0245957 -0.194419
0.0301192 -0.19722
0.0342746 -0.330523
0.0287269 -0.334699
-0.00520319 -0.0194124
-0.00699244 -0.0212116
0.00104059 -0.395711
0.00678376 -0.400049
0.0137494 -0.419679
0.00988942 -0.413519
0.0318404 -0.211805
0.0322089 -0.205613
0.000149902 -0.0221353
0.00223079 -0.0227496
-0.0201246 -0.0891328
-0.0156992 -0.0879326
0.0237038 -0.216087
0.0182799 -0.212748
-0.00184017 -0.0342832
-0.00457855 -0.0352843
0.0225895 -0.1631
0.0281208 -0.162422
-0.0152953 -0.455465
-0.0145507 -0.462758
0.0133422 -0.0941738
0.0175339 -0.0965264
-0.00324695 -0.00973494
-0.00357706 -0.00831821
-0.0153183 -0.182967
-0.0204744 -0.186028
-0.0150518 -0.0539763
-0.0120881 -0.0555872
-0.0327092 -0.245939
-0.0278633 -0.241427
-0.00221767 -0.138179
0.00264129 -0.140254
0.0137567 -0.304864
0.0158064 -0.298349
-0.00566608 -0.00416267
-0.00450309 -0.00363686
-0.0210444 -0.211735
-0.0212386 -0.218072
0.0241109 -0.477101
0.0175967 -0.473816
-0.019546 -0.451855
-0.0248218 -0.446843
-0.00192641 -0.00104329
-0.00124386 -0.000560152
0.0010474 -0.000531736
0.000601464 -0.000306619
-0.0020511 -0.00110918
-0.00134803 -0.00061768
0.0190549 -0.268774
0.0136745 -0.272542
0.0239224 -0.444002
0.0167974 -0.445429
-0.00279311 -0.074793
0.00118157 -0.0757171
-0.000234577 -0.0396364
-0.0031949 -0.0388257
0.0107546 -0.0226778
0.00927441 -0.0204113
-0.0153481 -0.258369
-0.00914847 -0.260313
0.00432947 -0.171522
0.00031836 -0.167441
-0.0346553 -0.394918
-0.0274563 -0.394757
0.0231391 -0.128533
0.0216007 -0.133369
-0.0125506 -0.413401
-0.0187225 -0.417215
-0.0132589 -0.216239
-0.013033 -0.209867
0.0290041 -0.168758
0.0286403 -0.174462
-0.00182211 -0.447904
-0.00896441 -0.449214
0.0130937 -0.0987788
0.00906701 -0.0960717
-0.0382215 -0.239227
-0.034089 -0.234073
0.0220637 -0.284542
0.0204017 -0.29107
-0.0277967 -0.163957
-0.0267686 -0.169465
0.0283523 -0.335708
0.0285855 -0.342812
0.0218137 -0.0931135
0.0231956 -0.0977038
0.00764905 -0.412227
0.000824734 -0.409909
0.00113581 -0.000436261
0.000929075 -0.000343275
-0.0123555 -0.042566
-0.0142188 -0.0403734
-0.00425348 -0.0108923
-0.00377713 -0.0124673
0.00697065 -0.0517039
0.00730886 -0.0552967
-0.00301661 -0.46554
0.000690471 -0.459223
0.0187149 -0.157433
0.0141712 -0.154055
0.0005064 -0.00671702
0.000260706 -0.00813615
-0.015255 -0.109093
-0.0106289 -0.10739
-0.025698 -0.128659
-0.0308127 -0.128406
0.0345888 -0.179372
0.0293394 -0.181573
0.0303361 -0.274545
0.0367327 -0.27674
0.023959 -0.293163
0.0275821 -0.287533
0.0408913 -0.486385
0.0346158 -0.482577
0.000569877 -0.146209
-0.000113287 -0.140848
-0.00610288 -0.291395
-0.000603472 -0.295315
0.0063859 -0.0092239
0.00806452 -0.00980962
-0.0165815 -0.0433729
-0.0147422 -0.0403935
0.0158692 -0.104599
0.0126251 -0.107993
-0.00740819 -0.45686
-0.0125669 -0.451716
-0.00660019 -0.258481
-0.0124413 -0.261518
-0.0307717 -0.222364
-0.0365238 -0.220087
0.0227689 -0.068687
0.0193257 -0.0701847
0.00340965 -0.00307547
0.00318671 -0.00373496
8.66294e-05 -0.0824305
0.00175744 -0.0864613
0.0301927 -0.243117
0.0248214 -0.239329
0.00607947 -0.0158205
0.00804884 -0.0170432
0.0348937 -0.481256
0.0277398 -0.479712
-0.0192667 -0.0530858
-0.0158079 -0.051578
-0.0155467 -0.291482
-0.015466 -0.298301
-0.00199105 -0.187771
-0.0069613 -0.184688
0.00204045 -0.00906754
0.00359144 -0.00952837
-0.0339693 -0.474706
-0.0330414 -0.467426
0.023803 -0.258443
0.029028 -0.262622
0.00744251 -0.0519415
0.00903881 -0.0489989
-0.0125362 -0.161322
-0.0162582 -0.157318
0.0354111 -0.48638
0.0408243 -0.481409
-0.0167669 -0.184918
-0.0112808 -0.186894
0.0278252 -0.140337
0.0296013 -0.145567
0.00562498 -0.0718025
0.00498013 -0.067797
0.00647283 -0.245969
0.00340952 -0.251678
-0.0106393 -0.450565
-0.00343499 -0.449657
0.00261478 -0.0228502
0.00365288 -0.0252843
0.00955265 -0.265413
0.00470902 -0.260909
-0.0298857 -0.402727
-0.0354594 -0.407421
0.0142136 -0.0721504
0.0153338 -0.0684234
-0.000251323 -0.000303859
-7.5905e-05 -0.000596602
-0.0369553 -0.39468
-0.030051 -0.392506
-0.00274523 -0.0140054
-0.000996044 -0.0132366
0.0234527 -0.439841
0.0279964 -0.434156
-0.0100718 -0.296238
-0.00332514 -0.295758
0.0309049 -0.225634
0.0334161 -0.231627
0.00992957 -0.049733
0.0132995 -0.0494761
-0.000208487 -0.000714232
-0.000273698 -0.0012922
-0.0150929 -0.0863429
-0.0195247 -0.0868132
0.0105442 -0.237392
0.00433758 -0.238702
0.00239498 -0.0141685
0.000619938 -0.0134943
0.00236108 -0.0442863
3.15347e-05 -0.0466057
0.0088927 -0.155708
0.0123021 -0.16022
0.010734 -0.366569
0.0117992 -0.373659
0.00461183 -0.0561887
0.00735439 -0.0587909
0.0268673 -0.336425
0.024672 -0.343133
0.0132864 -0.0469001
0.0126351 -0.0435713
0.00384753 -0.00518458
0.00296935 -0.0056508
-0.028246 -0.198083
-0.0235143 -0.201646
-0.0275136 -0.2086
-0.0227129 -0.2123
0.0010834 -0.000493351
0.000870851 -0.000525653
0.0178006 -0.328048
0.0174006 -0.321077
-0.00601944 -0.415561
-0.0118883 -0.419823
0.00584194 -0.00814699
0.00434052 -0.00767951
0.0193479 -0.0696581
0.0215898 -0.0733563
0.025232 -0.290158
0.0238175 -0.29678
0.0361519 -0.418836
0.0342931 -0.425861
0.00930157 -0.090031
0.00674517 -0.0936595
-0.0308477 -0.366381
-0.0369139 -0.362707
-0.012753 -0.0965884
-0.0166808 -0.0944839
-0.00505728 -0.424845
-0.0120501 -0.423039
0.0235593 -0.324137
0.0299957 -0.326958
0.0040973 -0.433045
0.00445046 -0.440348
0.0107882 -0.262697
0.00810372 -0.268723
-0.0207831 -0.452768
-0.0145702 -0.44894
0.0156506 -0.173028
0.0211289 -0.171589
-0.0330943 -0.161358
-0.0282553 -0.158079
0.0299044 -0.222217
0.0253039 -0.226371
-0.0135463 -0.477973
-0.0181944 -0.472333
0.00122069 -0.331687
-0.00551542 -0.332956
0.00280288 -0.202849
0.00221711 -0.196862
-0.00279028 -0.163389
-0.0069164 -0.167314
-0.0328314 -0.323904
-0.0394068 -0.321805
-0.0153735 -0.315946
-0.00973138 -0.311946
0.0344686 -0.31166
0.0284515 -0.314881
-0.0150465 -0.0930434
-0.0183302 -0.096643
0.00326097 -0.285292
-0.000589396 -0.290845
-0.0219166 -0.263636
-0.0203677 -0.270043
-0.00458545 -0.0174433
-0.00401174 -0.0194903
-0.00238761 -0.459645
-0.00687271 -0.465426
-0.0107576 -0.305599
-0.0129374 -0.312163
-6.24474e-05 5.03226e-06
-0.000259089 -0.000111938
-0.00765672 -0.0333561
-0.00908922 -0.031152
-0.0144652 -0.0289745
-0.0150965 -0.0266286
-0.0225262 -0.175764
-0.0247333 -0.170578
0.000284001 -0.0456847
-0.000233538 -0.0424298
-0.0289757 -0.213209
-0.0269313 -0.219062
-0.0281516 -0.167887
-0.0230546 -0.165002
0.0143185 -0.186455
0.0120885 -0.180937
-0.0132656 -0.0304509
-0.013309 -0.0332523
-0.0283348 -0.324408
-0.0247504 -0.318347
0.00333016 -0.0225393
0.00455801 -0.020618
-0.0279781 -0.183882
-0.028878 -0.189806
-0.0418404 -0.3669
-0.0349311 -0.364838
0.000215117 -0.251342
-0.00121277 -0.257743
-0.012497 -0.0362459
-0.0100115 -0.0374798
-0.027049 -0.384486
-0.0263472 -0.377314
0.00301145 -0.0349632
0.0057685 -0.0360085
-0.00118189 -0.231885
-0.00730799 -0.233395
0.00143727 -0.00564149
0.000991812 -0.00446752
-0.00420185 -0.201203
-0.00249013 -0.195429
-0.00693288 -0.0341669
-0.008653 -0.0321623
0.0305176 -0.205778
0.0244113 -0.206265
-0.0140953 -0.136273
-0.0169078 -0.14094
0.00258476 -0.00811851
0.00122569 -0.00746897
-0.0315727 -0.396364
-0.0261332 -0.401027
-0.0140583 -0.0328358
-0.0166141 -0.0321428
-0.0242886 -0.107872
-0.0253414 -0.112769
0.0273581 -0.290611
0.0339852 -0.292225
-0.0182054 -0.493717
-0.0242991 -0.489703
-0.011815 -0.0262881
-0.0120463 -0.028999
-0.0268611 -0.202986
-0.0265519 -0.209166
0.0333472 -0.302233
0.0268393 -0.304158
-0.0165975 -0.487529
-0.0224567 -0.483176
0.0274049 -0.119688
0.0241698 -0.115531
0.0103102 -0.039695
0.0134496 -0.0403867
0.0149643 -0.160471
0.0156711 -0.15496
0.00150955 -0.0129568
0.00316459 -0.0124266
-0.00038486 -0.00103378
-0.000155791 -0.00158956
0.00789181 -0.122189
0.0127299 -0.121098
0.0123148 -0.117086
0.00834898 -0.119906
-0.00721239 -0.291904
-0.000695712 -0.290172
-0.00809685 -0.0162199
-0.0065232 -0.0171814
0.00303957 -0.0450683
0.00630527 -0.0450753
0.0184549 -0.412765
0.013769 -0.407221
-0.0195791 -0.40095
-0.0124582 -0.401854
0.00248601 -0.400237
0.00243589 -0.392997
-0.00142713 -0.371479
-0.00783119 -0.374525
-0.000998518 -0.00267672
-0.000180537 -0.00276863
-0.00556124 -0.0817188
-0.00981068 -0.0818378
0.0128564 -0.0267692
0.0105365 -0.0248851
0.0130998 -0.174531
0.018662 -0.173306
-0.030298 -0.228591
-0.0309706 -0.222308
-0.0309498 -0.154105
-0.0269534 -0.149957
-0.0376437 -0.26031
-0.0363843 -0.253806
0.0158284 -0.14199
0.0136495 -0.137014
-0.020646 -0.315203
-0.0239246 -0.309193
0.0160908 -0.166405
0.0110475 -0.168823
0.00710238 -0.273727
0.00228715 -0.269128
0.0185295 -0.0397952
0.0153758 -0.0394427
0.0221164 -0.0767966
0.017958 -0.0757045
0.020309 -0.487898
0.018378 -0.494984
0.00938554 -0.0568717
0.0112636 -0.0602589
-0.0189954 -0.106949
-0.0144536 -0.104966
-0.0166599 -0.0930833
-0.0191108 -0.089547
0.00036725 -0.383589
-0.00331376 -0.377444
-0.00443472 -0.180479
-0.00533339 -0.186327
-0.022557 -0.0671214
-0.0217654 -0.0632226
-0.0253285 -0.122785
-0.0293 -0.120104
0.0232225 -0.470526
0.0258041 -0.463663
0.0220435 -0.169465
0.0246685 -0.164579
-0.0189501 -0.419729
-0.0125751 -0.423119
0.041071 -0.394766
0.038455 -0.401473
0.00742408 -0.0457223
0.0104249 -0.0475208
-0.00247592 -0.00186934
-0.00196534 -0.00123199
0.00205716 -0.00463017
0.00252067 -0.00385205
-0.0255015 -0.154954
-0.0201412 -0.155944
0.00863917 -0.156644
0.0136183 -0.15925
-5.0972e-05 -0.00209167
0.00064729 -0.00251054
-0.0260301 -0.269895
-0.0211205 -0.274225
-0.0145747 -0.0862734
-0.0138341 -0.0819227
-0.00661073 -0.0195533
-0.0043501 -0.0194505
-0.0173726 -0.113097
-0.0192745 -0.117838
0.00225937 -0.129315
-0.000807116 -0.133508
0.00622705 -0.47194
0.00329243 -0.465232
-0.0249297 -0.167046
-0.0265534 -0.16175
-0.0235698 -0.121729
-0.0204738 -0.117477
0.000256586 -0.000612676
0.000718171 -0.000849764
-0.0281823 -0.450635
-0.0214465 -0.447827
0.000137403 -7.00258e-05
9.04896e-05 -0.000288741
0.0124371 -0.0205853
0.0108187 -0.0184693
0.0109287 -0.484893
0.0181973 -0.485295
0.0151649 -0.191069
0.0122008 -0.196217
-0.000851497 -0.00744702
-0.00124477 -0.00616786
0.00725363 -0.0319731
0.00713615 -0.0348264
0.0141195 -0.0591348
0.0178614 -0.0595404
0.0282533 -0.232296
0.0307015 -0.226518
0.00476723 -0.00296758
0.00391564 -0.00218006
0.00322513 -0.00319215
0.00226373 -0.00258301
0.00310104 -0.0113415
0.00439756 -0.0105228
-0.0177169 -0.148884
-0.0127136 -0.146551
-0.0168382 -0.381621
-0.0133111 -0.387845
0.00528016 -0.0827016
0.00219956 -0.0797114
0.0271779 -0.42768
0.0330109 -0.423381
0.0141861 -0.253494
0.00771411 -0.253834
-0.00651808 -0.00711281
-0.00797191 -0.00751917
-0.0358467 -0.448372
-0.0394049 -0.454793
-0.00727947 -0.426913
-0.0127276 -0.422146
-0.0114118 -0.294744
-0.00485371 -0.296334
0.0251974 -0.262438
0.0266061 -0.256057
0.0375698 -0.276457
0.0385017 -0.269892
0.00530682 -0.0192
0.00726254 -0.0207697
0.016702 -0.0765066
0.0137784 -0.0732764
0.0350071 -0.189558
0.0343031 -0.183625
-0.019008 -0.238622
-0.0190736 -0.245081
-0.00469518 -0.0054974
-0.00352475 -0.00458597
0.0188107 -0.325102
0.0167005 -0.331749
0.0149028 -0.115227
0.0103882 -0.11307
-0.0131184 -0.145351
-0.0168645 -0.141698
-0.0184492 -0.0529489
-0.0168266 -0.0495678
0.00157011 -0.00608294
0.000739433 -0.00506025
-0.0163262 -0.125349
-0.0113673 -0.126177
0.0109274 -0.0971393
0.0131557 -0.0932319
-0.0339103 -0.210894
-0.0335038 -0.204662
-0.0081301 -0.416755
-0.00949892 -0.423916
0.0286091 -0.191253
0.0318653 -0.196542
0.0217159 -0.313932
0.0220108 -0.307039
-0.00895201 -0.0721797
-0.00875034 -0.068139
0.0108593 -0.0945666
0.013165 -0.0988202
0.0199748 -0.202273
0.0140204 -0.200731
0.00208607 -0.304132
-0.00260143 -0.309134
0.0117308 -0.144625
0.00851993 -0.148892
-0.00392187 -0.00788831
-0.00297691 -0.00659188
-0.00484575 -0.0563972
-0.00702683 -0.0536585
-0.00359706 -0.292143
0.00225143 -0.295529
-0.0197512 -0.0941324
-0.0156052 -0.0917312
0.0110939 -0.472169
0.0160626 -0.477519
0.0046802 -0.203385
0.00670573 -0.197706
-0.0172714 -0.0489891
-0.0171691 -0.0456577
-0.0107219 -0.113423
-0.015505 -0.112837
-0.0288517 -0.119006
-0.0293047 -0.124068
-0.000387676 -0.000314163
-0.000363405 -0.000119747
-0.0118959 -0.0940665
-0.0142302 -0.0903479
-0.0183431 -0.234705
-0.0203658 -0.228733
0.00211857 -0.00292868
0.0021797 -0.00221834
0.0203911 -0.243735
0.0142178 -0.241787
0.00381542 -0.170733
0.00526027 -0.165213
-0.0164462 -0.494723
-0.0236616 -0.495791
0.0110023 -0.4574
0.0165237 -0.452631
0.00453536 -0.0128622
0.00637365 -0.0130231
0.0270034 -0.216027
0.0231857 -0.210864
0.0153004 -0.0652689
0.0117471 -0.0664803
-0.000409994 -9.47999e-05
-0.000768026 -0.000346027
0.0271568 -0.0958994
0.0264738 -0.100428
0.0232808 -0.125934
0.0181845 -0.125999
0.000792961 -0.000351611
0.000816596 -0.000290604
-0.0238141 -0.27414
-0.0256103 -0.267786
0.00497188 -0.0247288
0.00275238 -0.0232445
0.0104326 -0.20222
0.0144285 -0.197737
-0.0251433 -0.289608
-0.0260844 -0.282941
0.0046836 -0.0804088
0.00649171 -0.084374
-0.0132813 -0.445651
-0.00943244 -0.439432
0.039608 -0.476857
0.0365111 -0.470204
-0.00201752 -0.0128767
-0.000249886 -0.0131656
-0.00265131 -0.00677349
-0.001361 -0.00626314
-0.0167844 -0.0381224
-0.0157669 -0.040744
-0.013487 -0.202882
-0.01419 -0.209085
0.0386931 -0.467088
0.0313941 -0.466582
-0.00716134 -0.193575
-0.0019601 -0.196409
-0.0163522 -0.129003
-0.0171144 -0.12398
0.000904454 -0.0869892
0.00186571 -0.0827192
-0.000460414 -0.00620986
-9.20983e-05 -0.00754312
0.00801833 -0.363669
0.0107093 -0.370293
0.0173886 -0.12294
0.0224627 -0.123325
0.0277635 -0.198419
0.0223556 -0.200927
-0.0139504 -0.234257
-0.0175299 -0.23967
-0.0113171 -0.271885
-0.00506498 -0.269659
0.0252306 -0.319704
0.0276432 -0.326296
0.0122537 -0.400967
0.00834801 -0.407044
0.0285263 -0.449941
0.0285059 -0.442622
-0.00107682 -0.000735174
-0.000909576 -0.000420362
-0.00172329 -0.0064806
-0.00244334 -0.00560225
0.016086 -0.0593958
0.0125918 -0.0602837
-0.0252705 -0.145744
-0.0205898 -0.148117
-0.0025109 -0.045474
-0.00314415 -0.0488328
0.00362235 -0.265198
0.009654 -0.262652
-0.00608602 -0.0341544
-0.00707346 -0.0370712
0.0127031 -0.0350136
0.0100182 -0.0332985
-0.0218766 -0.275293
-0.0250522 -0.269533
0.0220704 -0.116878
0.0198652 -0.11224
0.0150132 -0.496867
0.0080278 -0.494837
-0.000317532 -0.170919
-0.000681406 -0.165203
0.0203141 -0.1836
0.0231378 -0.178606
0.00776982 -0.0244393
0.0097886 -0.0265661
0.0120414 -0.0848025
0.013316 -0.0807712
0.0122446 -0.155381
0.00731061 -0.157734
0.00488873 -0.0126563
0.00636587 -0.0120199
0.00388635 -0.0127058
0.00373137 -0.010917
-0.0138132 -0.0525007
-0.0171787 -0.0542681
0.0188883 -0.319068
0.0126988 -0.315967
0.0186602 -0.189175
0.0175868 -0.183304
-0.00169683 -0.0589671
0.00116464 -0.05665
0.0273936 -0.204225
0.0232761 -0.19946
0.024757 -0.28107
0.0233933 -0.274461
-0.00796115 -0.0783958
-0.0099682 -0.0748554
0.0141378 -0.064786
0.0179587 -0.06609
0.024684 -0.490628
0.0183375 -0.494271
-0.00978361 -0.0428123
-0.00870636 -0.0457689
0.0116316 -0.456554
0.0179843 -0.460118
0.0294907 -0.353196
0.0252911 -0.347331
0.00216794 -0.0166773
0.000671834 -0.015255
-0.000646148 -0.266928
-0.00719835 -0.267565
-0.00195411 -0.415665
-0.00141545 -0.408412
0.0196918 -0.0578173
0.0200298 -0.0615581
-0.00298682 -0.0056408
-0.00192258 -0.00598825
-0.00904535 -0.232563
-0.0102599 -0.226355
-0.00333099 -0.054975
-0.00686465 -0.0546462
0.0234739 -0.3791
0.0261087 -0.385831
-0.024136 -0.214786
-0.0260105 -0.220919
0.000306913 -0.294766
0.00365349 -0.288865
0.0217472 -0.261816
0.0238153 -0.255635
-0.0197766 -0.218545
-0.014303 -0.221446
0.0280164 -0.316118
0.0349062 -0.31566
-0.0005059 -0.000144173
-0.000475449 -0.000192519
-0.0412628 -0.310908
-0.0410924 -0.317819
0.0347775 -0.365839
0.0340279 -0.372979
0.0175646 -0.0766021
0.0183296 -0.0808323
-0.00597946 -0.468218
0.000306494 -0.464527
-0.018706 -0.468055
-0.0160404 -0.461222
0.0240322 -0.174537
0.0185666 -0.176127
-0.0136756 -0.169108
-0.0154876 -0.163786
0.0191936 -0.193828
0.0250228 -0.195618
0.00181447 -0.0108981
0.00323585 -0.0102503
0.0125327 -0.023983
0.0109617 -0.0255552
-0.00348984 -0.0101825
-0.00255496 -0.0114216
0.00420897 -0.00509495
0.00363243 -0.00396968
0.011622 -0.464168
0.00919524 -0.47109
0.0177769 -0.261257
0.0151109 -0.267254
-0.0171623 -0.0943935
-0.0201147 -0.0912451
-0.0179008 -0.0401914
-0.015397 -0.041525
-0.0212122 -0.332905
-0.0276449 -0.335916
-0.028022 -0.15092
-0.0243 -0.146615
0.00808227 -0.0579222
0.0114097 -0.0567122
0.0166213 -0.0763124
0.0124664 -0.076105
-0.00650253 -0.389956
-0.0111672 -0.384531
-0.0132237 -0.108724
-0.00992744 -0.112072
-0.0166209 -0.0674202
-0.0177217 -0.0638674
0.0188786 -0.0579794
0.0215542 -0.0559927
-0.016495 -0.261132
-0.0112228 -0.264956
-0.0120602 -0.411338
-0.0186974 -0.414228
-0.0271437 -0.306348
-0.0334996 -0.30917
0.00860544 -0.237853
0.0140234 -0.241352
0.0122499 -0.0253238
0.0096481 -0.024395
0.0128132 -0.0464177
0.0121347 -0.0496338
0.0176897 -0.0450733
0.0161482 -0.0419222
0.0278638 -0.241358
0.0217054 -0.239276
0.0195997 -0.0544658
0.0179441 -0.0510464
-0.00851402 -0.0165278
-0.00734849 -0.0179416
-0.000740204 -0.000484447
-0.000366485 -0.000347498
-0.00529903 -0.00419784
-0.00410848 -0.0034635
0.0319939 -0.435084
0.0359962 -0.429015
0.0282535 -0.273021
0.0241897 -0.278201
-0.0260715 -0.333802
-0.0197527 -0.336762
-0.00801928 -0.379417
-0.00779053 -0.386614
0.00467618 -0.00400309
0.00372079 -0.00305181
-0.0370458 -0.489947
-0.0314813 -0.494723
0.0314533 -0.390067
0.0379738 -0.393234
0.000810928 -0.444894
-0.00628539 -0.443408
-0.000310745 -0.000288379
-0.000116584 -4.65528e-05
0.0154657 -0.329359
0.0141615 -0.336245
0.0298007 -0.376672
0.0361418 -0.373395
0.000219163 -0.278246
0.00654233 -0.276206
0.0287169 -0.293167
0.0225485 -0.290215
-0.0254992 -0.391047
-0.0280911 -0.384365
-0.00041633 -0.000411629
-0.000432506 -0.000190248
0.0137447 -0.0531719
0.0151826 -0.056677
-0.0032112 -0.0729648
-0.00573409 -0.0698876
-0.0114077 -0.380147
-0.0152122 -0.374125
-0.0172859 -0.439997
-0.0241574 -0.442402
0.00762091 -0.284422
0.000942886 -0.284018
-0.0328581 -0.227431
-0.0286243 -0.231965
-0.00247276 -0.00169145
-0.00185338 -0.00107413
-0.00549046 -0.00660542
-0.00522635 -0.00542541
0.00351255 -0.0101497
0.00457683 -0.00923731
-0.0134884 -0.458551
-0.0196089 -0.454617
-0.00688246 -0.275456
-0.0119243 -0.279902
-0.0128435 -0.211537
-0.018957 -0.213209
0.00381615 -0.469911
0.00217477 -0.477066
0.0278238 -0.319085
0.0209252 -0.319557
-0.0126071 -0.202142
-0.00791121 -0.198236
-0.0375937 -0.393647
-0.0316996 -0.397706
-0.0156249 -0.0365437
-0.0168769 -0.039579
0.0230719 -0.0924024
0.0186283 -0.0929738
0.0188972 -0.337807
0.0249692 -0.334357
-0.0217398 -0.130476
-0.0212519 -0.135639
0.000467609 -0.443238
0.00769385 -0.443823
0.0120375 -0.10347
0.0132285 -0.0988636
-0.00148776 -0.123798
-0.00630319 -0.122407
0.0156223 -0.135459
0.0119266 -0.139054
-0.00283312 -0.00479221
-0.00236616 -0.00570006
-0.0376844 -0.396693
-0.0307439 -0.39854
-0.028895 -0.235535
-0.0231173 -0.232552
-0.00260984 -0.329701
0.00261525 -0.325182
4.16914e-06 9.53974e-06
-4.09104e-05 -5.52462e-06
0.0326883 -0.351172
0.0256287 -0.351864
-0.0293582 -0.302134
-0.0362008 -0.302502
-0.0139049 -0.391634
-0.0210078 -0.39266
-0.010432 -0.0185703
-0.00947696 -0.0202461
0.0114063 -0.061093
0.00968712 -0.057607
-0.0283955 -0.357589
-0.0240871 -0.351789
0.00914514 -0.0863323
0.0118222 -0.0900157
0.00309902 -0.0017267
0.00326916 -0.00220227
-0.00547779 -0.180866
-0.000358144 -0.178115
0.000472471 -0.00122225
0.000935916 -0.00108264
-0.0188844 -0.0485231
-0.0158772 -0.0463046
0.00383378 -0.0678762
0.00420788 -0.0719073
0.0116141 -0.223975
0.0128773 -0.230229
0.00375848 -0.00403953
0.00363575 -0.00317912
0.00378599 -0.484897
0.0110164 -0.485574
0.0247134 -0.121548
0.0213189 -0.125022
-0.0143351 -0.0282648
-0.0135317 -0.0306278
0.0159962 -0.0438813
0.0167054 -0.0409579
-0.00972537 -0.20484
-0.013432 -0.20996
0.0221547 -0.0763326
0.0180099 -0.0763765
-7.09506e-05 -2.63495e-05
-0.000311228 -8.1744e-05
0.00403515 -0.00438236
0.00293332 -0.00366607
-0.00556532 -0.146006
-0.0104491 -0.148449
-0.00178521 -0.170365
-0.0040595 -0.175692
0.0063773 -0.0137528
0.0082948 -0.0139528
0.0274128 -0.204326
0.0323193 -0.208396
0.00755987 -0.0892055
0.0119833 -0.0890312
0.0335401 -0.458772
0.0262513 -0.458398
-0.0300671 -0.481304
-0.0295225 -0.488632
-0.02776 -0.326845
-0.0255912 -0.320154
-0.0127585 -0.0521324
-0.00954377 -0.0531909
0.0217535 -0.454982
0.0162763 -0.459809
-0.00795109 -0.189279
-0.0135447 -0.191338
-0.00878767 -0.492682
-0.0158779 -0.491074
-0.0228342 -0.0989894
-0.0207337 -0.0945562
0.013834 -0.244259
0.00894375 -0.24
0.0135736 -0.0338137
0.0136066 -0.0367337
0.0214122 -0.117279
0.0189034 -0.121418
-0.00595092 -0.0805558
-0.00750848 -0.0766864
0.0150987 -0.398034
0.0163706 -0.390926
-0.0362266 -0.340996
-0.0291549 -0.340883
0.0114075 -0.0348019
0.0123551 -0.0377987
-0.00378188 -0.410393
-0.0107327 -0.412323
-0.0061727 -0.00545584
-0.00604742 -0.00459064
0.0121445 -0.0328248
0.0134366 -0.0306113
0.0157342 -0.0843797
0.0196668 -0.0867764
-0.0100326 -0.0210325
-0.00812257 -0.0219763
-0.0365641 -0.296728
-0.0383494 -0.303403
0.0225254 -0.168296
0.0281475 -0.169674
0.00866589 -0.010187
0.00899213 -0.0118145
0.000265376 -0.00294488
0.00101048 -0.00362624
0.0235718 -0.411469
0.0263495 -0.404791
0.000171075 -0.000591169
-5.72318e-05 -0.00103102
-0.00605995 -0.368555
-0.00802155 -0.375433
0.00677864 -0.0868906
0.00639296 -0.0825218
-0.0260341 -0.385666
-0.0235852 -0.378863
-0.0146803 -0.0399574
-0.0123761 -0.0374323
0.00261193 -0.316899
0.00655364 -0.322593
0.000626986 -0.322772
0.00580062 -0.327347
0.039057 -0.447101
0.032878 -0.443181
0.00425981 -0.0533347
0.00376088 -0.0569181
-0.012038 -0.0294657
-0.0101834 -0.0270294
-0.00987277 -0.225023
-0.00506691 -0.228999
0.0269286 -0.272833
0.020652 -0.274856
-0.00525829 -0.307981
-0.00577946 -0.301123
-0.0168874 -0.0796724
-0.0162745 -0.0838444
0.00503064 -0.0834711
0.000801741 -0.0837667
-0.0252365 -0.435112
-0.0283749 -0.441729
-0.000350539 -0.468627
-0.00215902 -0.475739
0.012196 -0.0413613
0.0130864 -0.0445979
-0.00478064 -0.0608453
-0.00567938 -0.0646281
0.000506861 -0.00238998
0.000116409 -0.00317086
-0.00475469 -0.00425656
-0.00541763 -0.00405807
0.00577879 -0.0135549
0.006026 -0.0118577
0.00361289 -0.0158609
0.00564617 -0.0161102
-0.00188704 -0.00993517
-0.00114667 -0.00845604
0.0317996 -0.247063
0.0256369 -0.248839
-0.00991124 -0.047604
-0.00907696 -0.0442748
-0.0011023 -0.00301906
-0.000914662 -0.00213522
0.00074252 -0.45924
0.00159965 -0.466525
0.0098654 -0.0183865
0.0109784 -0.0206437
0.0185883 -0.130373
0.0225316 -0.127348
0.0119567 -0.150402
0.00855443 -0.154618
-0.00984183 -0.452287
-0.0164406 -0.455375
-0.00784942 -0.171373
-0.0130974 -0.169299
-0.0286348 -0.267157
-0.0227307 -0.263985
0.00340199 -0.0619559
0.00714937 -0.0617641
0.0207505 -0.0642449
0.0211138 -0.0681617
-0.0388703 -0.477597
-0.0397221 -0.484895
-0.0026208 -0.00959835
-0.00274492 -0.0112915
-0.0167501 -0.0361093
-0.0137182 -0.0351706
0.0145292 -0.313199
0.0142575 -0.320131
0.0336498 -0.277508
0.0394326 -0.274391
0.0131347 -0.0336388
0.0128481 -0.0307708
-0.0175037 -0.170038
-0.0119616 -0.168526
0.00300434 -0.0124458
0.00480267 -0.0126126
-0.00890952 -0.126889
-0.00837622 -0.121783
9.25524e-06 -0.00236647
0.000599205 -0.00193177
0.00944312 -0.0776024
0.0129646 -0.0801661
-0.00493295 -0.179922
-0.0106584 -0.180938
0.0323666 -0.490083
0.0377808 -0.485111
-0.0274255 -0.306489
-0.0339203 -0.304493
0.00903226 -0.272298
0.00850857 -0.278976
-0.000751375 -0.271846
-0.0022461 -0.278379
-0.00672769 -0.04494
-0.00991648 -0.0461366
-0.00414447 -0.203652
0.000703307 -0.200249
-0.0396105 -0.310075
-0.0327962 -0.310897
-0.00799364 -0.0352354
-0.0109388 -0.0360628
0.00807525 -0.0654937
0.00767247 -0.0616226
-0.00414235 -0.313271
-0.00502078 -0.306421
-0.0287362 -0.260252
-0.0326319 -0.25515
-0.00465082 -0.278448
-0.00955293 -0.273972
0.032382 -0.307521
0.0258633 -0.309522
0.0145402 -0.22903
0.0119644 -0.223173
-0.00569187 -0.03658
-0.00786175 -0.0348682
-0.0212953 -0.0739355
-0.0173791 -0.0721209
0.00186632 -0.0539248
0.00481144 -0.0520784
0.013985 -0.381389
0.0203875 -0.384661
-0.010555 -0.09832
-0.0151269 -0.0999397
0.0120015 -0.0197149
0.0132564 -0.022056
0.0303707 -0.199751
0.0242923 -0.199858
-0.0267388 -0.331407
-0.0332348 -0.328947
-0.0206569 -0.0623119
-0.0169523 -0.0626876
0.0285212 -0.409742
0.0237141 -0.415133
-0.0362127 -0.37536
-0.0300065 -0.371646
-0.00447658 -0.158173
-0.000278907 -0.161826
0.0182574 -0.338522
0.0218993 -0.332545
0.00461731 -0.406631
0.00426771 -0.413891
-0.000100477 -2.59682e-06
-0.000312866 -0.000177591
0.00422111 -0.00441377
0.0037421 -0.00509501
0.00648825 -0.0285919
0.00595688 -0.0312638
-0.0025214 -0.120602
-0.00568489 -0.124593
0.00772685 -0.0107555
0.0076555 -0.0123424
-0.0158632 -0.19973
-0.0122873 -0.204589
0.021334 -0.220284
0.015087 -0.219455
0.00497142 -0.180817
0.00107347 -0.185175
0.017762 -0.164626
0.0199768 -0.159562
0.0148304 -0.0302181
0.0123649 -0.0282695
0.0383243 -0.273491
0.0379469 -0.28016
-0.0224435 -0.13582
-0.021144 -0.130646
-0.0159175 -0.292076
-0.00970485 -0.294652
-0.00764515 -0.43579
-0.00221377 -0.440615
0.0323968 -0.320036
0.0278689 -0.325216
0.0313693 -0.197977
0.0288749 -0.203396
0.00600818 -0.0682029
0.00992597 -0.0680988
-0.0167028 -0.380978
-0.0197778 -0.37454
0.0094416 -0.176208
0.00415661 -0.173874
-0.00371696 -0.194728
-0.00415556 -0.188749
0.00668836 -0.0187741
0.00767591 -0.0170976
-0.0164165 -0.244205
-0.0204367 -0.249409
0.0136344 -0.364639
0.0206041 -0.363226
0.0351307 -0.395486
0.0411159 -0.399619
-0.0110177 -0.188449
-0.00514232 -0.188593
-0.0201353 -0.103772
-0.0162851 -0.106312
0.00618964 -0.301358
0.00902379 -0.29516
-0.0263589 -0.362043
-0.0313953 -0.357055
0.0370983 -0.455472
0.0373963 -0.462794
0.000738402 -0.1834
-0.00496822 -0.182333
-0.003012 -0.430218
0.00251193 -0.434927
-0.0188655 -0.194506
-0.0128688 -0.194058
0.0082779 -0.0349691
0.0106542 -0.0371456
0.000140561 -0.000185609
-0.000108364 -0.000260091
0.0298695 -0.255322
0.0268603 -0.261047
0.00896113 -0.133857
0.00888464 -0.128633
-0.0336387 -0.363845
-0.0296015 -0.357841
-0.0148002 -0.150249
-0.0188261 -0.146818
-0.0121665 -0.237161
-0.00634301 -0.239626
0.0218629 -0.169554
0.0222713 -0.1639
-0.0311477 -0.217516
-0.03744 -0.217576
0.0331017 -0.36323
0.0266804 -0.359988
-0.0146502 -0.354574
-0.0215841 -0.353036
0.0171618 -0.239017
0.0206175 -0.233727
0.0400019 -0.32544
0.0349062 -0.330082
0.0187474 -0.0801673
0.0200313 -0.0844237
0.0189066 -0.236774
0.0184792 -0.230372
-0.00554844 -0.0205274
-0.00360581 -0.0191053
0.00377576 -0.263052
0.00880129 -0.258872
-0.00670838 -0.321225
-0.00409378 -0.314791
-0.00887665 -0.0166571
-0.0103742 -0.0186624
-0.0109889 -0.0199409
-0.00886829 -0.0183973
-0.0198308 -0.113784
-0.0246818 -0.113317
-0.0211804 -0.477505
-0.0139009 -0.477595
0.0193368 -0.0621191
0.0207207 -0.0589059
-0.00544283 -0.329478
-0.00716743 -0.322721
0.0017747 -0.000764979
0.00128066 -0.000514093
-0.00284686 -0.238258
0.0035046 -0.238187
-0.0198707 -0.0685289
-0.0225579 -0.0719576
0.00347567 -0.0113403
0.00307775 -0.0096409
-0.00317782 -0.0496918
-0.00490385 -0.0468314
0.0114094 -0.442455
0.0132099 -0.435372
-0.0109203 -0.0688262
-0.0102431 -0.0648839
0.00473186 -0.241476
-0.00120731 -0.243841
0.0352473 -0.462041
0.0283485 -0.464447
-0.015806 -0.496033
-0.0186568 -0.489291
0.0271402 -0.239041
0.0255064 -0.245226
0.0192663 -0.339929
0.0193032 -0.347084
-0.0134691 -0.457749
-0.0183239 -0.452312
-0.00148953 -0.145356
0.00311096 -0.148189
-0.0195352 -0.0485447
-0.0172546 -0.0455791
0.00292497 -0.00666541
0.00358442 -0.00807123
0.0166209 -0.294265
0.0186413 -0.300824
-0.000996627 -0.000452241
-0.000728981 -0.000389827
-0.0028877 -0.174751
-0.00790111 -0.177665
0.0223919 -0.187589
0.0249472 -0.193124
0.013212 -0.29894
0.0122462 -0.292172
-0.00985162 -0.146594
-0.00484838 -0.144502
-0.00396251 -0.0229724
-0.00177148 -0.0219606
0.0248705 -0.310108
0.0293321 -0.304988
-0.000775744 -0.00820186
8.2362e-05 -0.0094694
-0.0122421 -0.023059
-0.013521 -0.0256051
0.0148327 -0.0548296
0.0173793 -0.0527532
-0.002701 -0.00690161
-0.00172946 -0.00580326
-0.0178341 -0.0458745
-0.0171382 -0.0489676
-0.0377729 -0.247731
-0.0377173 -0.254239
0.0101978 -0.0426057
0.00760568 -0.0442377
-0.00650178 -0.419582
-0.0119562 -0.414843
-0.00752401 -0.0467281
-0.00510049 -0.0442723
-0.00403296 -0.0499386
-0.0074467 -0.0505831
-0.0180959 -0.263912
-0.0228763 -0.268621
0.0271337 -0.374219
0.0268629 -0.36703
-0.0323091 -0.295201
-0.0336068 -0.288585
0.00926855 -0.438745
0.011334 -0.44576
0.020992 -0.188165
0.0166445 -0.183982
-0.0128652 -0.233429
-0.00657122 -0.233164
-0.0327844 -0.259326
-0.0285931 -0.254093
-0.00580994 -0.194851
-0.000810337 -0.198038
-0.0240784 -0.156353
-0.0185861 -0.156738
-0.0107532 -0.0700005
-0.00684398 -0.0690108
0.000690782 -0.000318266
0.00156153 -0.000674232
0.00269054 -0.010589
0.00434818 -0.0107123
0.00129154 -0.155843
0.00324039 -0.161103
-0.00089406 -0.00255546
-0.00165666 -0.00325089
0.00635716 -0.258931
-0.00010203 -0.258047
0.000184895 -0.418061
0.00509423 -0.41273
-0.00270962 -0.36944
-0.00878549 -0.365864
0.00610991 -0.146375
0.0114663 -0.147082
0.00306542 -0.247703
-0.0010053 -0.242686
-0.00355283 -0.167576
0.000135955 -0.16326
-0.0230915 -0.309234
-0.0166836 -0.31159
-0.0206727 -0.21671
-0.0206937 -0.210386
0.0107791 -0.0993556
0.014802 -0.0971957
-0.0106149 -0.114023
-0.0142873 -0.117538
-0.000207756 -0.0479366
0.00280453 -0.0465211
0.00818385 -0.274881
0.00359432 -0.279708
0.00600935 -0.452088
0.00572686 -0.444769
-0.0199595 -0.0990384
-0.0162459 -0.0957827
0.0162533 -0.425854
0.00958794 -0.423012
0.028121 -0.192093
0.0252897 -0.186674
0.0278589 -0.103035
0.0251154 -0.106663
0.00501693 -0.00414814
0.00387177 -0.0036704
-0.0216239 -0.36277
-0.0159823 -0.358327
0.000561289 -0.118548
-0.000768103 -0.123418
0.0103504 -0.10093
0.0123702 -0.105507
0.00112129 -0.00197747
0.000533667 -0.00231313
0.00392854 -0.0139322
0.00579694 -0.0139064
-0.00690095 -0.493953
0.000335833 -0.493698
0.0189822 -0.391543
0.0208961 -0.384608
-0.0159445 -0.0400429
-0.0127927 -0.0395749
-0.0143003 -0.0614639
-0.0135946 -0.0577093
-0.031703 -0.449699
-0.0387354 -0.447808
-0.0233747 -0.137319
-0.0192043 -0.140275
-0.000982761 -0.000411076
-0.00127018 -0.000584276
-0.013493 -0.102918
-0.0172151 -0.106287
0.0269702 -0.36526
0.0282124 -0.372357
4.05345e-05 -2.54356e-06
-1.96115e-05 1.81428e-05
0.00552756 -0.0471651
0.00391681 -0.050102
-0.0259313 -0.175204
-0.0300209 -0.171449
0.0317168 -0.241198
0.0263374 -0.244538
-0.0242662 -0.293848
-0.0278223 -0.288182
-0.0320493 -0.212066
-0.0304803 -0.218064
0.0336336 -0.365987
0.0264848 -0.366153
-0.0411952 -0.449479
-0.0341604 -0.447465
0.0266136 -0.239399
0.0325304 -0.237155
0.03188 -0.204617
0.0327862 -0.19862
-0.0340871 -0.343997
-0.0374432 -0.350403
0.0172881 -0.065818
0.0163577 -0.0695174
-0.018312 -0.273025
-0.0200346 -0.279544
0.0214266 -0.165955
0.0270807 -0.165906
0.0122974 -0.0316
0.0140522 -0.034268
0.0124551 -0.386283
0.0195461 -0.385377
-0.00581525 -0.022891
-0.00790046 -0.0219882
-0.0162536 -0.470562
-0.0230446 -0.473227
-0.000929854 -0.00172644
-0.0010592 -0.0011956
0.0320466 -0.254363
0.0277181 -0.259113
0.00156825 -0.00107234
0.00213006 -0.0012365
0.00694079 -0.0627007
0.00811905 -0.0591795
0.0241794 -0.366972
0.029052 -0.372297
0.0115933 -0.258864
0.00520782 -0.257472
-0.0122234 -0.371865
-0.0193167 -0.371631
0.0236643 -0.160365
0.0292487 -0.161353
-0.0110189 -0.111937
-0.00929146 -0.107262
0.0143154 -0.0628033
0.0181265 -0.0628916
-0.0104815 -0.184845
-0.0139036 -0.189769
-0.0113034 -0.387214
-0.0183767 -0.386279
0.00484155 -0.00425706
0.00442928 -0.00333016
-0.0155476 -0.32138
-0.00956874 -0.31787
-0.00086399 -0.00118108
-0.00101358 -0.00082615
0.0150809 -0.03358
0.0171383 -0.036205
-0.0289737 -0.350785
-0.0226534 -0.347384
-0.000531512 -0.00311651
-0.000116821 -0.00229346
-0.0135132 -0.0535172
-0.0121666 -0.0500876
-0.0134789 -0.183116
-0.0192077 -0.184614
0.00583059 -0.307938
0.0124419 -0.306305
0.010931 -0.0352067
0.0128052 -0.0379009
-0.0326791 -0.192726
-0.028376 -0.188243
-0.00290979 -0.00738963
-0.00435036 -0.00796068
0.0108531 -0.198092
0.00496814 -0.197088
0.0031716 -0.153798
-0.000347619 -0.158068
-0.00861531 -0.0753232
-0.00538205 -0.0726488
-0.00604563 -0.0068869
-0.00464622 -0.00641516
0.0112361 -0.0592702
0.0140557 -0.0572211
-0.00984144 -0.251788
-0.00850754 -0.245394
-0.000393486 -0.0549916
0.000892009 -0.0516525
0.0229651 -0.449379
0.0296448 -0.446485
-0.00181589 -0.00166614
-0.00220457 -0.00153108
-0.0238554 -0.176679
-0.0281227 -0.173069
0.0224678 -0.160162
0.0257031 -0.155847
-0.00884899 -0.0111023
-0.00718622 -0.00986004
0.00869866 -0.147237
0.00673062 -0.142148
0.0257603 -0.196886
0.0248546 -0.190883
-0.00330986 -0.0206094
-0.0011169 -0.0203555
-0.00980013 -0.047884
-0.0116853 -0.0453817
0.00139117 -0.00142693
0.00076547 -0.00121983
-0.00838769 -0.00882552
-0.00703711 -0.00745908
-0.0397873 -0.415011
-0.0357849 -0.408894
-0.00112884 -0.00112289
-0.000574844 -0.000805896
0.0105604 -0.0348779
0.00772752 -0.0337232
0.00897753 -0.153629
0.0040688 -0.156023
-0.0104236 -0.0139497
-0.0117102 -0.0158944
0.0208288 -0.322501
0.0228612 -0.329217
0.0220363 -0.235553
0.0207648 -0.22924
-0.00427157 -0.0572566
-0.0036232 -0.0609244
-0.0183664 -0.375555
-0.0207904 -0.368849
0.0290993 -0.412751
0.0233174 -0.408348
0.0328158 -0.378716
0.0335992 -0.371576
-0.0390149 -0.41572
-0.0337078 -0.410695
-0.00964843 -0.0207451
-0.0081249 -0.022166
-0.00244816 -0.041052
-0.00430267 -0.0386141
0.000359233 -6.5945e-05
0.000771455 -0.000303474
-0.0335945 -0.379706
-0.0264323 -0.379881
0.00640851 -0.282308
0.00585278 -0.28905
-0.0288134 -0.328362
-0.0265615 -0.334973
-0.0227417 -0.31225
-0.0245492 -0.318983
-0.0277151 -0.451041
-0.029516 -0.45815
0.036065 -0.455111
0.032865 -0.448519
-0.0225562 -0.0691339
-0.0198192 -0.065817
0.00952522 -0.0443457
0.0106301 -0.0476286
-0.00736585 -0.007959
-0.00583414 -0.00731082
0.032154 -0.425518
0.0391852 -0.423729
0.0335927 -0.392529
0.0402545 -0.395399
0.00500006 -0.00536794
0.00436684 -0.00602753
0.00163533 -0.0122733
1.22988e-05 -0.0115773
0.0114004 -0.446747
0.0106834 -0.439464
-0.00870015 -0.207744
-0.0043545 -0.203416
0.0183866 -0.342072
0.0191124 -0.335029
0.00162817 -0.438124
-0.00475476 -0.441599
0.0362871 -0.469054
0.0298048 -0.472454
-0.00660828 -0.0379749
-0.00371596 -0.0386414
-0.0228187 -0.164597
-0.0251382 -0.159635
-0.0241598 -0.337786
-0.0208941 -0.331453
0.0259855 -0.259013
0.0232185 -0.264912
0.00638732 -0.0213938
0.00547458 -0.0235121
0.00954146 -0.448065
0.0100714 -0.440764
-0.0224653 -0.237014
-0.0246974 -0.243145
0.00224166 -0.00543703
0.001112 -0.00488865
0.00868572 -0.321172
0.00380903 -0.326082
0.00599754 -0.0403866
0.00586674 -0.043594
0.0158329 -0.331232
0.0159704 -0.324242
0.0146076 -0.168228
0.0144385 -0.173976
-0.0207991 -0.384745
-0.0244078 -0.378589
-0.012505 -0.0366312
-0.0121001 -0.0336628
-0.00288055 -0.49013
0.0039664 -0.487703
0.0198055 -0.251714
0.018058 -0.245395
0.0313443 -0.404144
0.0241436 -0.403592
-0.0166828 -0.059784
-0.0198761 -0.0584169
-0.00120607 -0.00266432
-0.00171572 -0.00359665
0.0191505 -0.32501
0.0241121 -0.320215
1.15987e-05 -0.0928368
0.00411123 -0.0942333
-0.00222035 -0.0385378
-0.00450998 -0.0366432
-0.0277456 -0.384889
-0.0273414 -0.377699
0.0285065 -0.137373
0.0238287 -0.1345
-0.0274842 -0.238528
-0.0334906 -0.236575
0.0131532 -0.172484
0.0156971 -0.177778
-0.0126713 -0.181029
-0.0138099 -0.175338
-0.00138262 -0.00118516
-0.000963912 -0.00132203
-0.0091 -0.33001
-0.0149897 -0.333793
0.0165515 -0.310302
0.0119455 -0.305162
-0.00624498 -0.015247
-0.00515764 -0.0134001
0.0306482 -0.142607
0.025945 -0.1396
-0.0368207 -0.454814
-0.037165 -0.462134
0.0203116 -0.274892
0.0142361 -0.277497
-0.000174057 -2.79525e-05
-0.000154301 -1.25643e-06
0.0175543 -0.0784827
0.0145286 -0.07527
-0.0147565 -0.229809
-0.0166846 -0.235951
-0.002254 -0.331963
0.00195839 -0.326458
-0.0036703 -0.00385332
-0.00485183 -0.00454346
0.00825837 -0.0121472
0.00905142 -0.0110512
-0.0117592 -0.0589895
-0.00841842 -0.060312
0.00165764 -0.135503
0.000853369 -0.140764
-0.00437564 -0.284944
-0.00801424 -0.279317
-0.0380436 -0.415026
-0.0376522 -0.407768
0.00824222 -0.0400005
0.00560563 -0.0414407
-0.00376804 -0.416264
-0.00108243 -0.423021
0.0140512 -0.0417828
0.0135004 -0.0386267
0.0148674 -0.0347809
0.0168446 -0.0331473
0.0104773 -0.146461
0.00569659 -0.143878
0.0120423 -0.319368
0.00743419 -0.314205
-0.0368172 -0.38455
-0.0315042 -0.389307
0.0288483 -0.126079
0.0238847 -0.126942
0.028222 -0.22403
0.0345557 -0.224132
-0.0309103 -0.20645
-0.0302334 -0.20028
0.00384835 -0.45973
0.00249783 -0.466942
0.00666293 -0.0368567
0.00947506 -0.036267
0.00337827 -0.00793798
0.00324558 -0.00940999
0.000195518 -1.57898e-05
0.000541263 -0.000186533
-0.0100636 -0.106974
-0.0140881 -0.109935
-0.0121723 -0.0315792
-0.0120193 -0.028793
0.0259307 -0.222863
0.0271616 -0.216701
0.0217954 -0.111996
0.0238467 -0.107759
-0.00421706 -0.00696355
-0.005253 -0.00831357
0.000924309 -0.0392377
0.00321565 -0.037245
0.0147975 -0.0759161
0.0116407 -0.0783776
-0.0209308 -0.0803003
-0.0167377 -0.0789542
0.0228934 -0.0639738
0.0200349 -0.0660956
0.0210302 -0.0733904
0.0191302 -0.0767723
0.00260336 -0.0526801
-0.00021434 -0.0505767
0.00718475 -0.365995
0.00746712 -0.37314
-0.0167336 -0.149231
-0.0130233 -0.153081
0.00319681 -0.00167023
0.00263823 -0.0015336
0.0312177 -0.207296
0.0350119 -0.212496
0.0211165 -0.3127
0.0272342 -0.309674
-0.00341924 -0.23754
-0.000603003 -0.231819
-0.00912271 -0.434048
-0.0117 -0.440892
-0.0119847 -0.0886916
-0.015671 -0.0915898
-0.0167937 -0.420624
-0.0133093 -0.414223
-0.0268399 -0.138413
-0.0312398 -0.135931
0.0265523 -0.339676
0.0268197 -0.346815
-0.00799338 -0.304291
-0.0117215 -0.310097
0.0241884 -0.186157
0.0278381 -0.181749
0.00385005 -0.292804
0.00984437 -0.295975
-0.021968 -0.144432
-0.0273588 -0.144715
0.00388874 -0.313777
-0.00218168 -0.310609
-0.00712712 -0.0632699
-0.00484222 -0.0601064
-0.0170597 -0.0672149
-0.0147704 -0.0701562
0.0051542 -0.0103643
0.00369292 -0.00926434
0.0366368 -0.290449
0.0375672 -0.297224
0.0272304 -0.174828
0.0257946 -0.169161
0.0114167 -0.134849
0.00636904 -0.133403
-0.0269917 -0.213333
-0.0310344 -0.218383
0.00847787 -0.163661
0.00517504 -0.168217
-0.00777232 -0.0260503
-0.00742817 -0.0287247
0.00304219 -0.0665558
0.000717494 -0.0634042
-0.00108033 -0.00108427
-0.000681633 -0.000565028
-0.000720937 -0.00388561
-0.00142358 -0.00333569
-0.00091061 -0.000388038
-0.000254125 -6.8036e-05
0.00181985 -0.262819
-0.000144667 -0.269155
0.00380982 -0.320035
0.00167909 -0.326665
-0.0313858 -0.484991
-0.0352372 -0.478752
3.10161e-05 -0.298655
0.00131133 -0.29195
0.000347246 -0.000106646
0.00105092 -0.000398308
-0.0138534 -0.41087
-0.0208402 -0.409149
0.0021202 -0.00279561
0.00168008 -0.00195473
-0.00937884 -0.437444
-0.0131043 -0.443736
0.0186263 -0.0809251
0.0156309 -0.0836979
0.0196506 -0.418791
0.0192957 -0.411522
-0.00269086 -0.0120057
-0.0032772 -0.0104778
-0.0309592 -0.224522
-0.0372409 -0.22583
0.0105037 -0.375927
0.0103527 -0.383116
0.00559392 -0.324789
0.00796458 -0.33134
0.0293727 -0.307726
0.0357675 -0.30542
-0.00498133 -0.0109887
-0.00557214 -0.00969141
-0.0132321 -0.152298
-0.018557 -0.151329
-0.0108684 -0.0736017
-0.0117074 -0.0697042
-0.00323727 -0.009866
-0.00168078 -0.0100117
0.00726134 -0.012332
0.00547258 -0.0114742
0.0256557 -0.204902
0.029989 -0.200812
3.62662e-05 -0.299231
-0.00673089 -0.29959
-0.0219134 -0.247753
-0.0155266 -0.246645
0.00743303 -0.0276047
0.0100687 -0.0274796
-0.0335775 -0.326468
-0.0405221 -0.327667
-0.0306136 -0.431501
-0.0358203 -0.426469
0.00521962 -0.279247
0.0118797 -0.279416
-0.0140532 -0.484007
-0.0207331 -0.486937
0.0115969 -0.288793
0.0123882 -0.282084
0.0196787 -0.449595
0.0209205 -0.456816
0.00377515 -0.00252398
0.00297558 -0.002337
-0.0420525 -0.383184
-0.0355378 -0.386107
-0.0100154 -0.0192763
-0.00920348 -0.0170753
-0.0193598 -0.0941909
-0.0150838 -0.0954827
0.0152345 -0.395792
0.0224175 -0.395743
0.0119267 -0.298584
0.00515572 -0.298428
-0.0108271 -0.204002
-0.0164579 -0.206731
-0.00575738 -0.173001
-0.00236298 -0.177656
0.0266421 -0.195325
0.0253402 -0.189391
0.00367865 -0.273321
-0.00293864 -0.273221
-0.00325263 -0.0203726
-0.00551908 -0.0211623
0.026772 -0.0957488
0.0221407 -0.095696
0.00285144 -0.198091
0.00854216 -0.199818
-0.0117714 -0.423149
-0.0179299 -0.419377
0.0328574 -0.247548
0.0342985 -0.253973
-0.00636478 -0.0197375
-0.00443357 -0.0182945
0.000110805 -0.138232
0.00527552 -0.137317
0.0186896 -0.440682
0.0151379 -0.434301
0.00382609 -0.283711
0.0099095 -0.28658
-0.000687791 -0.000391497
-0.000323962 -0.000103304
0.00472343 -0.398507
0.00660695 -0.405508
-0.0179042 -0.352939
-0.0241539 -0.356482
-0.0283734 -0.111524
-0.0277882 -0.116342
0.0142189 -0.223435
0.0204959 -0.223239
0.000179985 -5.05756e-05
0.000441555 -0.000166219
-0.000278948 -0.000586932
0.000117976 -0.000669238
0.0210205 -0.0923939
0.0254727 -0.094164
-0.0200965 -0.111106
-0.0209113 -0.116051
-0.00128695 -0.373511
-0.00292702 -0.366588
0.00505437 -0.0840138
0.00538571 -0.0884134
0.0230639 -0.245845
0.0277507 -0.241578
0.0287764 -0.125436
0.0288408 -0.130579
-0.0110824 -0.434808
-0.0173581 -0.431193
-0.0382153 -0.266101
-0.0335178 -0.261216
-0.000983472 -0.00565813
0.000221695 -0.0057341
-0.0370126 -0.456983
-0.0410495 -0.46312
0.00724297 -0.0602913
0.0103382 -0.0584822
0.0172645 -0.370379
0.0109569 -0.367021
0.0187313 -0.183514
0.0240772 -0.18626
-0.0190899 -0.142749
-0.0142737 -0.140171
0.00829562 -0.321379
0.00519752 -0.315172
0.00931043 -0.149818
0.00562282 -0.153796
-0.0175329 -0.260515
-0.0220858 -0.265414
-0.00197217 -0.00398648
-0.00154704 -0.00297963
0.00191605 -0.117134
-0.00289729 -0.115905
0.00997132 -0.307058
0.0152589 -0.302774
-0.0182604 -0.233667
-0.0136664 -0.229151
0.00830527 -0.25819
0.0114607 -0.264019
0.0191761 -0.091796
0.0165243 -0.0878866
0.0365937 -0.350124
0.0385723 -0.34331
0.0413075 -0.36944
0.0383452 -0.362835
0.0169829 -0.156809
0.021299 -0.160578
-0.0105047 -0.187105
-0.00837094 -0.181556
0.0148845 -0.26348
0.0157714 -0.256963
0.0172106 -0.251784
0.0229256 -0.255075
0.0288058 -0.276861
0.032196 -0.282779
-0.026033 -0.0972091
-0.0249836 -0.0925752
0.0340753 -0.266665
0.0277189 -0.268282
-0.0324271 -0.146437
-0.0313795 -0.141063
0.000555237 -0.000220106
0.00103799 -0.000520169
-0.000222972 -0.0674634
-0.00292732 -0.0646812
0.00841048 -0.0120289
0.00960711 -0.0138295
0.0301036 -0.189769
0.0315302 -0.184119
0.015531 -0.238992
0.0131565 -0.232981
-0.00200253 -0.280156
-0.005834 -0.274689
-0.00550568 -0.0367457
-0.00275547 -0.0355719
0.00100394 -0.00072458
0.00122144 -0.00125301
0.00853875 -0.0916613
0.0115073 -0.0884586
-0.0360573 -0.366378
-0.0347097 -0.373401
-0.0133377 -0.0352826
-0.0146004 -0.0382573
-0.010465 -0.151038
-0.0140082 -0.155396
0.0150352 -0.0413029
0.0130812 -0.0384882
-0.0150349 -0.0330303
-0.0155533 -0.0304579
-0.027238 -0.351109
-0.0242884 -0.3576
-0.00121785 -0.00132578
-0.00129113 -0.00197865
0.034028 -0.340779
0.0410757 -0.34179
-0.0230463 -0.414843
-0.0196946 -0.408374
-0.0035802 -0.409576
0.00345538 -0.411093
0.0067931 -0.258819
0.00770474 -0.265377
0.0326422 -0.403228
0.0396137 -0.405247
0.000824777 -0.000294672
0.00145423 -0.000687951
-0.00453188 -0.041163
-0.00355993 -0.0442038
-0.00222917 -0.00368754
-0.00208753 -0.00465925
0.00135485 -0.320134
0.000332074 -0.313265
-0.0372152 -0.407973
-0.0300105 -0.408486
0.0269274 -0.140778
0.0221251 -0.142756
0.0128139 -0.0548534
0.00990417 -0.0566815
-0.00114605 -0.000502585
-0.00118465 -0.000589257
-0.0191914 -0.0876374
-0.017359 -0.0834424
0.0174088 -0.190139
0.0174661 -0.184202
-0.00162427 -0.0629933
-0.0048171 -0.0610556
-0.0220957 -0.237855
-0.0236344 -0.244177
-0.0153544 -0.216135
-0.0148403 -0.20978
-0.00410769 -0.452901
-0.00658774 -0.459799
-0.00436288 -0.0329161
-0.00639657 -0.0350751
-0.0108882 -0.248924
-0.0125911 -0.242701
0.0375781 -0.440277
0.0424459 -0.445758
-0.016854 -0.213865
-0.0212519 -0.218557
0.0244955 -0.446546
0.0317446 -0.447268
-0.0016251 -0.473874
-0.0083358 -0.476696
-0.00102132 -0.259347
-0.00715477 -0.261655
-0.0161821 -0.247108
-0.0214172 -0.24351
0.0157217 -0.320222
0.00892192 -0.321299
0.00230415 -0.33116
0.00518198 -0.337476
-0.00287828 -0.0139262
-0.00393581 -0.0125576
-0.00309284 -0.00351832
-0.00209473 -0.00304721
0.00814628 -0.00755277
0.00685946 -0.0075621
-0.0246119 -0.308102
-0.0313047 -0.306764
-0.0270852 -0.215989
-0.0272167 -0.209708
-0.0155137 -0.0600963
-0.0192802 -0.0611046
-0.019079 -0.0736725
-0.0173881 -0.0697668
0.000797467 -0.0625251
0.000207657 -0.0587718
0.000973153 -0.306505
-0.000971112 -0.313131
-0.00557531 -0.0464895
-0.00520779 -0.0498689
-0.00823058 -0.449312
-0.00366787 -0.454999
-0.022239 -0.116458
-0.0186082 -0.112754
0.018139 -0.0897073
0.0137148 -0.0901209
-0.00933794 -0.0178289
-0.00736288 -0.0163862
0.0248692 -0.490033
0.0176156 -0.490881
-0.00736989 -0.252224
-0.00136437 -0.25463
0.0200536 -0.419594
0.0147981 -0.424581
-0.0166934 -0.18417
-0.013247 -0.188873
-0.00211167 -0.245121
9.59747e-05 -0.239056
-0.00933885 -0.484177
-0.0152477 -0.479909
-0.0242343 -0.35153
-0.0313059 -0.351031
-0.0103489 -0.340776
-0.0119783 -0.333906
-0.00286887 -0.0115529
-0.00297899 -0.00988232
0.0242121 -0.128434
0.0292155 -0.130304
0.00491622 -0.0102602
0.00430255 -0.00865403
-0.0397261 -0.319928
-0.0347518 -0.314892
-0.0231852 -0.348737
-0.0165935 -0.351348
0.0104624 -0.0315964
0.00870298 -0.033541
0.000518824 -0.00708619
-0.000560487 -0.00800969
0.0294231 -0.118274
0.0278281 -0.113387
-0.00639716 -0.149219
-0.00107856 -0.150215
-0.0344256 -0.472707
-0.0272665 -0.474156
0.010319 -0.135021
0.00633557 -0.138348
0.00183382 -0.000934514
0.00265466 -0.00140234
0.000306226 -0.478622
0.00621377 -0.474338
-0.0354333 -0.48125
-0.0317847 -0.487615
-0.0224722 -0.157812
-0.0220467 -0.16338
0.0283613 -0.238239
0.0345166 -0.236686
-0.0111654 -0.472229
-0.0144761 -0.465702
-0.00510798 -0.125853
-0.0101317 -0.12675
0.03202 -0.313242
0.0288598 -0.307026
-0.0145971 -0.0751966
-0.0187249 -0.0752757
-0.000210967 -0.00412885
0.000815258 -0.00440957
0.0228773 -0.280356
0.0210123 -0.273867
0.0418444 -0.415556
0.0385837 -0.409028
0.000309082 -6.05491e-05
0.000517251 -0.00013529
-0.0324486 -0.410184
-0.0345747 -0.417161
0.0149335 -0.0819003
0.0187335 -0.0803277
0.0213404 -0.104859
0.019382 -0.109127
0.0013781 -0.00122822
0.00105056 -0.000691472
0.0247349 -0.472944
0.0249906 -0.465611
-0.0160077 -0.0929845
-0.0156933 -0.0884521
0.00183823 -0.00137953
0.00116846 -0.000907797
-0.011208 -0.411535
-0.0121112 -0.41876
-0.025375 -0.316232
-0.0311795 -0.312638
0.0106653 -0.133617
0.00630348 -0.136378
-0.0136409 -0.166538
-0.0126478 -0.17215
-0.0150687 -0.200548
-0.00980321 -0.203508
0.00736696 -0.473658
0.00405462 -0.467133
0.00635598 -0.0203373
0.00786944 -0.022484
0.0062831 -0.42286
-0.000584827 -0.420618
-0.000807768 -0.00553644
-0.00181346 -0.00646022
-0.0233747 -0.215403
-0.0294924 -0.214484
0.0190828 -0.4342
0.0155191 -0.44056
0.009867 -0.32224
0.0122182 -0.328806
0.0102298 -0.26016
0.015344 -0.256166
-0.026941 -0.264153
-0.0274197 -0.257597
0.00231867 -0.00199341
0.00256243 -0.00276185
-0.0303165 -0.23998
-0.0367206 -0.24105
0.00109416 -0.00802581
0.00252894 -0.00852472
-0.0145576 -0.434417
-0.0162391 -0.427323
0.0158165 -0.2279
0.00993672 -0.225595
-0.00545312 -0.0816206
-0.00936976 -0.0801766
0.0153934 -0.135778
0.0114663 -0.139125
0.0130449 -0.485392
0.00648109 -0.48226
-0.018911 -0.273141
-0.0127052 -0.270677
0.0163344 -0.119653
0.0146648 -0.114834
0.0242441 -0.42547
0.0288241 -0.431154
-0.0154225 -0.0502324
-0.0147389 -0.0535343
0.0314292 -0.232548
0.0303368 -0.238821
-0.0350511 -0.363428
-0.041015 -0.36754
0.00680946 -0.0106781
0.00855625 -0.0117629
0.00728992 -0.0132266
0.00829812 -0.0151339
-0.0117796 -0.299225
-0.0172472 -0.303385
-0.0100653 -0.106888
-0.0112114 -0.111712
2.22676e-05 1.18464e-05
0.000142017 -1.47759e-05
-0.0121265 -0.114723
-0.0153539 -0.118705
0.00428627 -0.483859
0.00581192 -0.47668
0.000639828 -0.0698939
-0.00167328 -0.0666744
0.00417049 -0.0142871
0.0025134 -0.0131589
-0.0203446 -0.390492
-0.0260006 -0.386144
0.0336148 -0.383519
0.0266279 -0.381749
-0.0265025 -0.14065
-0.0316053 -0.139582
-0.00689951 -0.161244
-0.00534015 -0.166667
0.00458962 -0.116133
0.00947339 -0.116361
-0.0152639 -0.275784
-0.0216565 -0.277813
0.00522062 -0.0656156
0.00908511 -0.0656868
0.0126486 -0.346504
0.00899963 -0.340356
-0.013086 -0.261083
-0.0196303 -0.261063
0.000876082 -0.000304341
0.00161039 -0.000683904
-0.0239223 -0.445505
-0.0166878 -0.444797
0.0134669 -0.0660318
0.013743 -0.0700126
0.018649 -0.0522228
0.0164501 -0.0491222
0.021782 -0.262925
0.0237366 -0.256695
0.00349698 -0.00554446
0.00457425 -0.00542133
-0.0199838 -0.348394
-0.0245888 -0.353966
-5.74387e-05 -0.000667548
-0.000468788 -0.00102443
-0.0120473 -0.157778
-0.00760313 -0.161012
-0.0234265 -0.0797362
-0.0198104 -0.0769832
-0.0271736 -0.243959
-0.0207674 -0.244386
0.0352145 -0.210097
0.0299572 -0.206437
-0.0191756 -0.382636
-0.0134944 -0.378216
-0.0405703 -0.415637
-0.0350977 -0.420339
-0.000424593 -0.000233482
-0.000163326 -2.26555e-05
-0.00133656 -0.00111922
-0.00111332 -0.00146256
0.00913379 -0.293003
0.00799712 -0.29973
-0.0132878 -0.407705
-0.0102865 -0.414294
-0.0268976 -0.17398
-0.0211291 -0.173661
0.01752 -0.101631
0.0192958 -0.0974096
0.0270503 -0.330099
0.0329797 -0.326526
-0.0129151 -0.172613
-0.0121129 -0.178341
0.0191884 -0.0897502
0.0159756 -0.0863298
-0.0179818 -0.0548211
-0.0170469 -0.0512626
-0.0313609 -0.478844
-0.0269479 -0.484691
-0.00193079 -0.00810934
-0.00330195 -0.00792081
0.00254009 -0.00222579
0.00173019 -0.00163647
0.00666411 -0.0889954
0.00399348 -0.0854639
0.0193633 -0.190821
0.0223542 -0.196169
0.00492582 -0.00565046
0.00422135 -0.00630611
0.00938954 -0.229025
0.0142896 -0.22517
0.00662961 -0.137791
0.0103142 -0.141733
-0.0074172 -0.232829
-0.0133649 -0.235058
0.000446227 -0.08991
-0.00289873 -0.0927283
0.00513308 -0.155496
0.00836821 -0.151098
-0.0150471 -0.0980876
-0.0107171 -0.0959304
0.0268526 -0.464397
0.0211133 -0.459877
-0.00479647 -0.00387689
-0.00366138 -0.00319751
-0.00506235 -0.0175192
-0.00343175 -0.0159864
-0.000109865 -0.00668202
-0.000488428 -0.00543991
-0.00928856 -0.0700024
-0.00806124 -0.0738027
-0.000633415 -0.0169192
-0.00265364 -0.0172401
-0.0181661 -0.121637
-0.0212292 -0.125952
-0.0209105 -0.154058
-0.0243026 -0.149985
0.0048503 -0.00762069
0.00362943 -0.00651908
0.00376864 -0.00855083
0.00444661 -0.0075049
-0.0183157 -0.107171
-0.0224206 -0.110188
0.00410722 -0.00874164
0.00394435 -0.0102546
-0.00992272 -0.0191952
-0.0122899 -0.0200885
-0.000443796 -0.0111023
-0.000108134 -0.00944156
-0.017394 -0.0815757
-0.0207404 -0.0847611
0.0303408 -0.433583
0.0264182 -0.427419
0.0372523 -0.437647
0.036048 -0.44485
0.00135847 -0.0483244
0.000158624 -0.045156
0.0137712 -0.0313419
0.0137997 -0.0286183
0.0253175 -0.376725
0.0317829 -0.373705
-0.022711 -0.0803244
-0.023733 -0.0764509
-0.0210029 -0.470165
-0.0223662 -0.462962
-0.000516657 -0.0853293
0.00247218 -0.0884969
0.00345109 -0.00444372
0.00439791 -0.00554119
-0.0134554 -0.0737455
-0.0154142 -0.0776063
0.0135328 -0.195515
0.0170019 -0.190724
-0.030323 -0.141763
-0.0257098 -0.138615
-0.0234213 -0.26481
-0.0168426 -0.264669
-0.0281733 -0.412459
-0.0246854 -0.40606
0.0270678 -0.445388
0.0327923 -0.449935
0.0183616 -0.3298
0.018665 -0.322823
0.0119844 -0.212187
0.0104324 -0.206054
-0.000437459 -0.0539437
-0.00340837 -0.0560247
-0.00887843 -0.299865
-0.00859531 -0.293035
-0.0381938 -0.456137
-0.0387339 -0.463447
-0.0265337 -0.217486
-0.0244124 -0.211442
0.0229678 -0.152742
0.0281134 -0.155141
0.00111298 -0.0122543
0.00255994 -0.011406
-0.0011231 -0.000715858
-0.000652811 -0.000496116
0.00935709 -0.0389179
0.0119413 -0.0376961
-0.0168762 -0.042784
-0.0144898 -0.0444773
-0.0114401 -0.323001
-0.0085502 -0.316671
0.00135142 -0.00211092
0.00106799 -0.00137705
0.00755144 -0.0077412
0.00847591 -0.00924491
-0.00890314 -0.189684
-0.00302929 -0.189429
0.0285074 -0.457007
0.0215213 -0.454918
-0.0295382 -0.353025
-0.0232817 -0.349496
-0.000577031 -0.00137643
-0.000341557 -0.000786199
0.0033952 -0.00488301
0.00464318 -0.00551281
-0.00396412 -0.0229584
-0.00165293 -0.0223169
0.0278476 -0.381519
0.021683 -0.38513
-0.00817807 -0.140224
-0.00847278 -0.134925
-0.00161033 -0.0140737
-0.00245057 -0.0124671
0.0138655 -0.0704332
0.0134892 -0.0744501
0.000696991 -0.000311634
0.000312429 -6.0328e-05
-0.0101475 -0.293596
-0.0164423 -0.291244
-0.0102663 -0.0356738
-0.00983223 -0.032735
0.0188113 -0.102517
0.0140635 -0.102408
0.00335202 -0.00513048
0.00311789 -0.00402592
0.00319375 -0.36713
0.00974311 -0.364479
-0.0215705 -0.0918454
-0.0178583 -0.0888125
0.00292787 -0.00883899
0.0016619 -0.00954136
-0.0163249 -0.175973
-0.0129478 -0.1806
-0.00086919 -0.462775
0.00470965 -0.467462
0.0314533 -0.321114
0.0358497 -0.315871
-0.012397 -0.0228378
-0.010041 -0.021336
0.037754 -0.355606
0.0322981 -0.350865
-0.00626767 -0.303351
0.000500027 -0.302744
0.0101688 -0.110131
0.014938 -0.109651
-0.00633335 -0.0102079
-0.00807425 -0.0108046
-0.0320705 -0.260376
-0.0312756 -0.253826
-0.0272753 -0.320624
-0.0310536 -0.326601
0.0103945 -0.0175178
0.00819326 -0.0168242
0.0125028 -0.113402
0.01203 -0.118325
-0.0213386 -0.336703
-0.0244408 -0.330444
0.000108866 -0.0148859
-0.00137552 -0.0137132
-0.00540832 -0.00540837
-0.00532753 -0.0064087
-0.0207733 -0.161702
-0.0263787 -0.161752
-0.00737484 -0.0459873
-0.0100962 -0.0444474
-0.0255835 -0.171855
-0.0288329 -0.167395
-0.00483695 -0.0361805
-0.00218198 -0.0374241
-0.00342621 -0.394122
0.00331907 -0.396534
0.0140422 -0.26988
0.0182075 -0.275159
-0.0248848 -0.474674
-0.0269728 -0.467649
0.0195411 -0.178156
0.0151676 -0.181849
0.0085729 -0.171666
0.00972914 -0.177375
0.0136212 -0.364904
0.00707011 -0.367591
0.0032644 -0.00199834
0.00245505 -0.00166557
-0.00573986 -0.0178721
-0.00524172 -0.0199419
0.0149031 -0.0745617
0.0189642 -0.0743065
-0.0140004 -0.141892
-0.0130119 -0.136602
0.00259027 -0.0863554
-0.00163187 -0.0857301
-0.000719122 -0.0211674
-0.00288952 -0.0208877
0.0104075 -0.015748
0.0088007 -0.0164863
-0.0295802 -0.351229
-0.0364726 -0.349649
-0.0156673 -0.082681
-0.0122723 -0.0797587
0.00213253 -0.00639105
0.00254281 -0.00780017
-0.0319667 -0.250267
-0.0269338 -0.25418
0.0136039 -0.342756
0.0133356 -0.349962
0.0013674 -0.000556135
0.00204208 -0.000973668
-0.0113273 -0.0376252
-0.0105349 -0.0404558
-0.012545 -0.479403
-0.0184762 -0.483662
-0.043372 -0.395921
-0.0407769 -0.402622
0.0320541 -0.385771
0.0389987 -0.383977
-0.00101506 -0.0436399
0.00162942 -0.0418265
0.0216012 -0.227691
0.0233456 -0.221639
0.00623213 -0.0175499
0.00413346 -0.0168974
-6.53093e-05 -0.0525575
0.000840819 -0.0560601
-0.0188784 -0.0449024
-0.0196843 -0.0482634
0.0214401 -0.209512
0.0180446 -0.214658
0.00821422 -0.17576
0.00727048 -0.170037
-0.0129344 -0.332018
-0.014492 -0.338912
-0.013235 -0.377983
-0.0159104 -0.371372
-0.00411155 -0.0481184
-0.00117268 -0.049747
0.00838704 -0.0806092
0.00450197 -0.0821689
0.00677803 -0.093207
0.00363812 -0.090015
0.0218836 -0.0749521
0.0197743 -0.0782264
-0.0160325 -0.2817
-0.00979678 -0.284037
-0.0187589 -0.208504
-0.0237978 -0.205173
0.00574749 -0.071433
0.00279794 -0.0686354
-0.0166984 -0.131346
-0.0116414 -0.130019
0.0391376 -0.3495
0.0356166 -0.355661
0.0158897 -0.0541468
0.0191501 -0.0563169
-0.0193102 -0.0552736
-0.0158245 -0.0557008
-0.00375358 -0.0505062
-0.000610813 -0.0490565
0.0170827 -0.413387
0.0159119 -0.406212
-0.0179966 -0.338357
-0.0121496 -0.33435
-0.0212088 -0.131402
-0.0261122 -0.133641
-0.00124967 -0.00175116
-0.000615477 -0.00181867
0.01669 -0.210982
0.0135094 -0.205499
-0.000336176 -0.307214
0.00636132 -0.305994
-0.00401141 -0.0038197
-0.00477473 -0.00491352
0.0188134 -0.341025
0.0244255 -0.345473
-0.0320972 -0.346976
-0.0315694 -0.33984
-0.0252106 -0.0812227
-0.0213862 -0.082626
0.00488099 -0.0773539
0.00748093 -0.0742258
0.031138 -0.407705
0.0291114 -0.41466
0.0232258 -0.127728
0.0208219 -0.132119
0.0118404 -0.337816
0.0175983 -0.341971
0.0218301 -0.339315
0.0272836 -0.343952
-0.0185956 -0.171064
-0.0128914 -0.170591
-0.0120468 -0.0642687
-0.0122859 -0.0604897
-0.0328831 -0.184791
-0.0342025 -0.179196
-0.0115442 -0.47307
-0.0172873 -0.477584
-0.0305875 -0.275033
-0.0258832 -0.270137
-0.0012109 -0.00523592
-0.00014864 -0.00470842
-0.0233546 -0.230856
-0.020637 -0.236529
0.00163278 -0.000946991
0.00164558 -0.00130848
-0.0311664 -0.288115
-0.0323804 -0.294841
-0.0123913 -0.0304579
-0.0127941 -0.0278797
-0.0141846 -0.0669319
-0.0143822 -0.0630881
0.0332099 -0.247379
0.0291378 -0.242157
-0.000681229 -0.00035531
-0.000772228 -0.000687617
-0.0243125 -0.0759611
-0.023988 -0.0800425
0.0282212 -0.140314
0.0298463 -0.145581
0.00359825 -0.00639152
0.00233981 -0.00640971
0.0069996 -0.269744
0.0117277 -0.265174
-0.00795549 -0.117029
-0.00305268 -0.116842
-0.01357 -0.0867095
-0.010782 -0.0831426
0.000539424 -0.0075691
-0.000633316 -0.00685397
-0.0188369 -0.424283
-0.025642 -0.426833
-0.0325859 -0.336789
-0.0320805 -0.329731
0.00831683 -0.00841258
0.00734964 -0.00698307
0.0177328 -0.107056
0.0225744 -0.107567
-7.01072e-06 -0.195629
0.00585779 -0.196137
0.0362555 -0.254027
0.0324765 -0.259213
-0.0278449 -0.215046
-0.0246634 -0.209465
0.0270231 -0.445462
0.0209034 -0.441494
-0.00468491 -0.147403
0.000107433 -0.144906
0.000225944 -0.00139297
-0.000382027 -0.00148575
-0.0260259 -0.173855
-0.0318114 -0.174318
-0.0113014 -0.434381
-0.0157906 -0.440144
0.00965839 -0.0197806
0.0119221 -0.0212423
0.0191458 -0.0447887
0.016133 -0.045566
-0.0227592 -0.297535
-0.0288051 -0.300855
0.0143512 -0.0579054
0.0106716 -0.057447
-0.00830828 -0.271653
-0.0124338 -0.276953
0.0265323 -0.366134
0.0325423 -0.370123
-0.0325171 -0.215833
-0.0298029 -0.221374
-0.00948104 -0.0724447
-0.00547832 -0.0727827
0.00787228 -0.0133906
0.00607405 -0.0135018
0.0090891 -0.1831
0.00541939 -0.178498
-0.00402526 -0.0151214
-0.00269025 -0.0164849
-0.00230531 -0.0481807
-0.00566727 -0.0481315
-0.0147923 -0.0554291
-0.0171008 -0.0586372
0.0265524 -0.159259
0.0252341 -0.164633
-0.00162337 -0.00127679
-0.00230079 -0.00195341
0.00281471 -0.308658
-0.00392518 -0.309709
0.0125464 -0.0429086
0.00933938 -0.0421854
-0.0232382 -0.117799
-0.0241189 -0.113017
0.0165927 -0.085202
0.0209518 -0.0864012
-0.000455796 -0.044705
-0.00326444 -0.0465111
-0.0213183 -0.246672
-0.0152902 -0.248802
-0.00949057 -0.136394
-0.0135828 -0.133306
0.00964896 -0.0319954
0.0123621 -0.0316153
0.0233766 -0.336801
0.0208855 -0.330172
0.00605672 -0.0222984
0.00831343 -0.0238554
-0.022448 -0.120281
-0.0236613 -0.125315
-0.0273695 -0.367448
-0.0219235 -0.362731
-0.0297283 -0.322638
-0.0358974 -0.326114
-0.025108 -0.113541
-0.0225801 -0.109056
-0.00062058 -0.000694478
-0.000210262 -0.000440891
-0.026155 -0.161754
-0.0308681 -0.165263
0.00488294 -0.124166
0.0041352 -0.119143
0.00826203 -0.0154213
0.00708998 -0.0167518
0.0294085 -0.270649
0.0312069 -0.27715
0.0218671 -0.292885
0.0286092 -0.293692
0.00833673 -0.0414136
0.0114356 -0.0425972
0.0115021 -0.408551
0.00761144 -0.41466
-0.00943963 -0.132239
-0.0107414 -0.137396
0.00705058 -0.407424
-0.000119557 -0.407975
-0.00728352 -0.0316226
-0.0100319 -0.0314479
-0.00315203 -0.0172775
-0.00376 -0.0153646
0.025087 -0.384352
0.0192493 -0.38848
-0.0058709 -0.0624393
-0.00209275 -0.0623372
0.000229658 -0.00378262
-0.000731755 -0.00417065
-0.0263396 -0.119821
-0.0213866 -0.118426
0.0117179 -0.0482619
0.00866354 -0.0464655
0.0265775 -0.310409
0.0265072 -0.303525
-0.0254182 -0.195168
-0.0193866 -0.195052
0.0094008 -0.147469
0.00464713 -0.149976
-0.00346021 -0.047671
-0.00650748 -0.0464852
-0.0232903 -0.223969
-0.0291697 -0.226584
-0.0258221 -0.196554
-0.0226275 -0.20156
0.00448008 -0.0335596
0.00703545 -0.0350416
0.0213951 -0.226426
0.0193583 -0.220339
0.0124129 -0.10874
0.00898247 -0.111972
0.0136873 -0.0287805
0.0114239 -0.0298375
0.00616039 -0.293801
0.00437676 -0.300389
-0.0382392 -0.406215
-0.041534 -0.412733
0.00124584 -0.00170332
0.000883962 -0.00104685
-0.00668431 -0.0129424
-0.00859267 -0.0133792
0.0120671 -0.247244
0.00646633 -0.25039
0.010655 -0.0476411
0.00750762 -0.0461485
0.0277896 -0.490007
0.0326227 -0.495532
0.000895972 -0.122581
0.00410451 -0.11873
-0.0390041 -0.444122
-0.0319591 -0.445948
0.00655738 -0.00900361
0.00516599 -0.00780912
0.0163629 -0.393943
0.0197674 -0.387616
-0.0225079 -0.305885
-0.027592 -0.310645
0.0267942 -0.305035
0.0335826 -0.304315
0.0196165 -0.102096
0.0156428 -0.0991293
0.0167549 -0.159202
0.01362 -0.154469
0.0425039 -0.415483
0.0397357 -0.408734
-0.00605751 -0.113585
-0.0108004 -0.114517
-0.00643876 -0.148885
-0.0116309 -0.147525
0.000539285 -0.000942062
0.0010244 -0.00147487
0.00921466 -0.0772598
0.0120239 -0.0744079
-0.0132114 -0.261554
-0.00733353 -0.264385
-0.0306192 -0.220075
-0.0341704 -0.215086
0.0316883 -0.295385
0.0302145 -0.288703
0.0159805 -0.187654
0.0119697 -0.191945
0.000712337 -0.301285
0.00374414 -0.307446
-0.0011478 -0.0540048
-0.00012376 -0.0575066
0.0235194 -0.180087
0.027559 -0.176143
-0.00141859 -0.0223113
-0.00329788 -0.0210621
0.000301124 -5.21699e-05
0.00022011 -6.25705e-05
0.00240324 -0.127356
-0.00211996 -0.12977
-0.0195234 -0.1548
-0.0140265 -0.154216
0.00115114 -0.0187306
-0.000901489 -0.0184687
0.00194526 -0.158864
0.00711498 -0.160984
0.0155584 -0.329708
0.0216253 -0.333266
0.0256847 -0.170741
0.0226063 -0.16574
0.00616759 -0.0582031
0.00511661 -0.0546289
0.00351043 -0.319405
-0.00165535 -0.323985
0.00794129 -0.0231888
0.00963994 -0.0218324
0.0134626 -0.229296
0.0167698 -0.23483
-0.0273444 -0.425794
-0.0272769 -0.418507
-0.0226873 -0.366314
-0.0279951 -0.361612
0.0159626 -0.116073
0.0120082 -0.118835
-0.0110818 -0.0696374
-0.0139565 -0.0727541
-0.0353942 -0.274557
-0.0314889 -0.268984
0.00144088 -0.000604584
0.00130169 -0.000525754
-0.00738376 -0.450432
-0.0133467 -0.446277
-0.0114683 -0.409932
-0.0172947 -0.405712
0.0162196 -0.0448618
0.0190951 -0.043873
-0.0183705 -0.484928
-0.0237936 -0.480031
0.00552559 -0.288522
0.00717171 -0.281974
0.0137468 -0.0592847
0.0117572 -0.0622527
0.00529295 -0.437986
0.00212823 -0.444573
-0.00983912 -0.469994
-0.0157253 -0.465698
0.0145631 -0.0705904
0.0108676 -0.0687151
0.0244108 -0.457396
0.0229171 -0.464573
-0.00130005 -0.0742659
-0.00259853 -0.0704039
-0.00853615 -0.205977
-0.0119964 -0.200976
-0.00825289 -0.0462573
-0.0112003 -0.0451275
0.000218608 -4.05012e-05
0.000126245 -8.33243e-05
-0.02424 -0.264207
-0.0232214 -0.257655
-0.00205161 -0.00100267
-0.00129187 -0.000575979
-0.00311628 -0.00171005
-0.00218441 -0.00113068
-0.000153158 -0.000221565
-0.000288734 -0.000604797
-0.029598 -0.218316
-0.0240386 -0.215121
0.00522697 -0.096671
0.00912351 -0.0994572
-0.0305463 -0.401658
-0.0317364 -0.394541
0.00355177 -0.00222854
0.00276777 -0.00152901
-0.0188908 -0.0575668
-0.019422 -0.0613122
0.0121613 -0.457429
0.0121814 -0.464764
-0.00830193 -0.0578026
-0.00783543 -0.0541419
0.0080847 -0.385746
0.0117191 -0.379573
-4.71757e-05 -1.71076e-06
-0.000506139 -0.00014066
0.0189631 -0.174901
0.0221684 -0.179913
-0.0163249 -0.207057
-0.0164244 -0.21337
0.0123429 -0.320788
0.00769777 -0.315651
-0.00142681 -0.391905
-0.00835775 -0.39018
-0.0157001 -0.114984
-0.0149081 -0.119852
-0.0294689 -0.40235
-0.0296853 -0.39512
0.0307482 -0.271459
0.0241696 -0.272167
0.000641952 -0.284702
0.00731415 -0.285257
0.00831913 -0.0929404
0.00385294 -0.0930599
-0.0313895 -0.236024
-0.0312364 -0.242445
0.00436041 -0.409466
-0.00188942 -0.40588
0.00756833 -0.3204
0.000933259 -0.318656
-0.0325998 -0.189256
-0.0345499 -0.183833
-0.0117321 -0.415473
-0.00490842 -0.417799
-0.0156741 -0.103081
-0.0180615 -0.107508
0.0331945 -0.230696
0.0270271 -0.23205
0.0220823 -0.205515
0.0275634 -0.20303
0.00326606 -0.298496
0.00894191 -0.302273
0.0107776 -0.118462
0.00624413 -0.120344
0.0208068 -0.467096
0.0266749 -0.46274
0.0122423 -0.478185
0.0124581 -0.470848
0.0081315 -0.2645
0.0130014 -0.260148
-0.00377958 -0.151062
-0.00554989 -0.156334
-0.00697656 -0.0310402
-0.00665739 -0.0338039
-0.00718417 -0.0237993
-0.00855115 -0.0263262
-0.00909551 -0.0121777
-0.00929585 -0.0107664
0.00901471 -0.332622
0.00425542 -0.327585
-0.0291938 -0.169986
-0.0266201 -0.174935
0.027998 -0.219993
0.0337423 -0.217717
0.0050194 -0.0143906
0.00592301 -0.012958
-0.033319 -0.441423
-0.0307907 -0.448264
0.0159812 -0.0381278
0.016887 -0.0355393
0.0117347 -0.15092
0.0145968 -0.155752
-0.0235129 -0.290293
-0.0174829 -0.287122
-0.00485697 -0.0206796
-0.00292623 -0.0218451
0.00624035 -0.00562611
0.00576323 -0.00634462
-0.0241069 -0.172998
-0.0288076 -0.176707
0.00782316 -0.324558
0.0128698 -0.329333
-0.000825684 -0.0115525
0.000871951 -0.011788
-0.0160265 -0.158555
-0.0104855 -0.158073
-0.00762976 -0.00831253
-0.00622411 -0.00708362
-0.0114522 -0.203779
-0.0164797 -0.20045
0.00442429 -0.0352712
0.00665889 -0.0336933
-0.00721638 -0.433232
-0.00251176 -0.438776
0.00255321 -0.395381
0.00851348 -0.391394
-0.0329434 -0.439776
-0.0260459 -0.442045
0.0165539 -0.455856
0.0163978 -0.463188
0.0328222 -0.295447
0.0283944 -0.290154
-0.00761872 -0.0834866
-0.00532167 -0.079781
-0.00101801 -0.00042591
-0.00161522 -0.000787581
0.00632024 -0.040209
0.00854399 -0.0383102
-0.00458328 -0.145259
-0.00977452 -0.146792
-0.0262297 -0.213577
-0.0301799 -0.218695
-0.0390331 -0.461706
-0.0318655 -0.463097
0.0151522 -0.0580069
0.0188764 -0.0585979
-0.013372 -0.0512454
-0.0137635 -0.0479088
-0.000632136 -0.00319273
-0.00119669 -0.00262572
0.0125025 -0.1662
0.00724929 -0.164031
0.00523943 -0.177846
0.00247042 -0.182986
0.00213229 -0.160236
0.00018723 -0.165539
-0.0138274 -0.127411
-0.0149766 -0.1225
-0.0430955 -0.40839
-0.0358582 -0.4086
-0.00354082 -0.00251776
-0.00454848 -0.00337431
-0.0184633 -0.410303
-0.0124329 -0.414242
-0.00269148 -0.00527089
-0.0015515 -0.00471426
0.00520596 -0.00863977
0.00681457 -0.00936723
0.0304565 -0.256874
0.0269228 -0.262288
-0.015715 -0.0616281
-0.0189777 -0.064154
-0.0117911 -0.144638
-0.0112188 -0.150036
-0.0186277 -0.0637537
-0.0224446 -0.0637255
-0.0117058 -0.138915
-0.0153499 -0.135281
-0.0114336 -0.122111
-0.0102908 -0.12704
-0.00261679 -0.122303
-0.00370164 -0.127316
0.00598946 -0.0265026
0.00606537 -0.0293284
0.023099 -0.449977
0.0186934 -0.455804
0.0241032 -0.111892
0.0198124 -0.113925
-0.00662955 -0.0406635
-0.00373662 -0.0393373
0.0189826 -0.04727
0.0165932 -0.044449
0.000503551 -0.000242805
0.000956379 -0.000529699
-0.00105225 -0.00170346
-0.0014227 -0.00140012
0.0365173 -0.417863
0.0366318 -0.410597
-0.0255621 -0.161775
-0.0301781 -0.158977
0.0213322 -0.151085
0.0162508 -0.148808
0.00379781 -0.00268171
0.00294585 -0.00245756
0.0005276 -0.00302447
0.000479735 -0.0040397
-0.0213936 -0.179367
-0.02396 -0.174306
-0.0109787 -0.0622004
-0.0110775 -0.0660756
-0.0158832 -0.128264
-0.0109124 -0.129263
0.0256311 -0.119456
0.0209438 -0.117209
0.0174193 -0.0787973
0.0133034 -0.0774872
0.0109033 -0.0521196
0.00808075 -0.0539752
0.0254375 -0.19108
0.025902 -0.197112
-0.00504951 -0.00486859
-0.00617814 -0.00509563
0.00232404 -0.0026256
0.00193029 -0.00182364
0.02648 -0.238859
0.0201825 -0.239856
-0.0220179 -0.343609
-0.0287201 -0.341503
0.0103066 -0.111914
0.0138033 -0.115551
-0.016585 -0.212772
-0.0195109 -0.218503
-0.0235713 -0.0980864
-0.0276607 -0.101061
0.00652499 -0.149366
0.0119473 -0.149569
0.00674836 -0.0056202
0.00607243 -0.00610572
0.0278001 -0.412251
0.0289938 -0.419435
-0.0075081 -0.444534
-0.0100994 -0.451384
0.00198648 -0.0172295
0.00395241 -0.0167886
-0.00532074 -0.00587122
-0.00673181 -0.00678354
-0.0074621 -0.454607
-0.0037627 -0.448292
-0.00121974 -0.00374484
-0.00182175 -0.00317701
0.00524495 -0.376709
0.0116247 -0.379924
0.000766636 -0.00027372
0.000506776 -0.000129172
-0.0218037 -0.292884
-0.0266163 -0.288258
-0.000592032 -0.00444
0.000222044 -0.00522563
0.00202695 -0.115663
0.0065975 -0.117553
-0.0177185 -0.134518
-0.0125508 -0.134994
-0.00648888 -0.17826
-0.00321357 -0.183075
-0.0149783 -0.485102
-0.0187556 -0.478833
0.00325823 -0.123889
0.00812441 -0.122699
0.0195107 -0.0650166
0.0156592 -0.063919
0.0365422 -0.431109
0.0388728 -0.424221
-6.49865e-05 -2.82505e-05
-0.000236621 -0.000236422
-0.00039508 -0.255377
-0.00605472 -0.258649
0.00974341 -0.459956
0.00478492 -0.465327
0.0168293 -0.379041
0.00979653 -0.377798
-0.0263721 -0.390433
-0.0308512 -0.396155
-0.00300207 -0.0180177
-0.0013016 -0.0167046
0.0161369 -0.0965896
0.0136676 -0.0924686
-0.0325337 -0.190686
-0.031009 -0.184827
-0.000222275 -0.00126664
-0.000100013 -0.000698685
-0.00533078 -0.0116303
-0.00411652 -0.0101286
-0.0120079 -0.0758914
-0.0149864 -0.0733408
0.0162015 -0.19052
0.0165556 -0.184598
-0.0235647 -0.338509
-0.0207364 -0.331969
0.00242951 -0.00124634
0.00198611 -0.00116488
-0.0342265 -0.492719
-0.0401971 -0.488443
0.0171313 -0.397671
0.0199537 -0.404356
-0.00248081 -0.400305
-0.00106196 -0.393205
0.0203052 -0.263437
0.0228133 -0.257417
-0.0128133 -0.466462
-0.0141657 -0.473676
0.00656303 -0.128103
0.00766175 -0.123119
0.0125166 -0.36228
0.0102131 -0.369045
-0.00709446 -0.0132604
-0.00656673 -0.0148877
-0.0144731 -0.0748299
-0.0138309 -0.0707356
0.0152994 -0.0565963
0.0116515 -0.0560646
-0.00380454 -0.0234886
-0.00592071 -0.0224253
-0.0036536 -0.0165583
-0.00163363 -0.0163305
-0.0266223 -0.302287
-0.0329158 -0.299834
0.0214257 -0.443348
0.0271854 -0.438904
-0.00328875 -0.0816609
0.000845997 -0.0824656
0.00365345 -0.171271
0.00105939 -0.166158
0.0196716 -0.337581
0.0219913 -0.344349
0.024969 -0.117743
0.0219951 -0.113463
0.0350163 -0.328515
0.0386142 -0.322637
0.0022939 -0.157961
0.00750251 -0.159949
-0.0240558 -0.142682
-0.0283555 -0.146327
-0.0196839 -0.30408
-0.0133533 -0.301438
-0.0301852 -0.210027
-0.0307408 -0.203879
-0.00818594 -0.024354
-0.00690545 -0.0219398
-0.00499337 -0.00728581
-0.00583106 -0.0066924
0.0189592 -0.101098
0.0225766 -0.0984535
0.00931847 -0.0540188
0.00676439 -0.0563589
0.0296478 -0.248029
0.0361404 -0.248663
0.00582417 -0.0109811
0.00417441 -0.0101385
0.0345131 -0.44239
0.0417442 -0.443428
-0.0104788 -0.0143865
-0.00956141 -0.0125061
0.0180065 -0.0762565
0.0189742 -0.0724026
0.0127005 -0.255611
0.00872347 -0.250378
-0.00216531 -0.00353601
-0.00145442 -0.00267833
-0.0303789 -0.436771
-0.02455 -0.432364
-0.0235705 -0.086181
-0.0221369 -0.0901632
-0.0303654 -0.202147
-0.0257589 -0.197831
0.0087697 -0.126291
0.00370599 -0.126605
-0.00206063 -0.073845
-0.00307469 -0.0699086
0.00842981 -0.382362
0.00413207 -0.388098
-0.0286308 -0.159214
-0.0312302 -0.164427
0.0322609 -0.246574
0.0379998 -0.249921
-0.00455962 -0.0045661
-0.00559028 -0.00570609
0.00518242 -0.487824
0.0117123 -0.484589
-0.0159659 -0.131036
-0.0147961 -0.125928
-0.010129 -0.018479
-0.00902579 -0.0163581
-0.0342737 -0.382396
-0.0383333 -0.376547
-0.0263082 -0.352879
-0.0279838 -0.345934
-0.0118989 -0.142729
-0.0154904 -0.138962
0.00777087 -0.450298
0.00889982 -0.457538
-0.014742 -0.314312
-0.0214815 -0.313034
-0.00758793 -0.0830322
-0.0117362 -0.0844533
0.00235338 -0.284694
0.0025135 -0.277955
0.00903982 -0.282807
0.0120726 -0.27685
-0.00180044 -0.010765
-0.000266785 -0.0100931
0.0076203 -0.121857
0.00442139 -0.125731
-0.0246251 -0.389446
-0.0207174 -0.395452
-0.0175937 -0.0635333
-0.0154483 -0.0664426
-0.00341646 -0.0337435
-0.00394296 -0.0366786
0.00173851 -0.334826
-0.00277083 -0.329594
0.000194154 -0.451633
0.00609131 -0.447357
-0.00329378 -0.00477586
-0.00423472 -0.00591063
-0.00657651 -0.018688
-0.00717687 -0.0209898
-1.12104e-05 -0.0121022
-0.00142108 -0.0111435
-0.0105727 -0.495101
-0.00578807 -0.489589
-0.0259057 -0.246623
-0.0197852 -0.244344
0.0362202 -0.288415
0.0396824 -0.282763
-0.00789925 -0.031637
-0.00679193 -0.0288908
-0.00499664 -0.0835364
-0.00147733 -0.0810781
-0.0257089 -0.184771
-0.0268147 -0.190681
-0.0134804 -0.277113
-0.0108704 -0.270916
-0.0312523 -0.452196
-0.0250685 -0.456035
0.0384716 -0.321214
0.0384445 -0.328198
-0.00862642 -0.367842
-0.00837802 -0.374987
-0.0326769 -0.379063
-0.0398526 -0.37893
0.0290921 -0.250517
0.0351813 -0.253131
-0.0193841 -0.0556718
-0.0160338 -0.0565271
0.0207595 -0.20443
0.0230681 -0.210316
0.00545926 -0.0892184
0.00130003 -0.0879912
-0.0164852 -0.323828
-0.0233821 -0.324828
-0.0268374 -0.154777
-0.0246886 -0.14954
-0.00119575 -0.00380071
-0.000347997 -0.00319603
-0.00966777 -0.415645
-0.01263 -0.422304
-0.0149053 -0.123578
-0.0196229 -0.122123
-0.0136395 -0.244464
-0.00743489 -0.242755
-0.00936737 -0.0150101
-0.00887852 -0.0167058
0.006461 -0.0278474
0.00419001 -0.0258612
0.0151812 -0.08096
0.0194778 -0.0815037
0.0146199 -0.444148
0.0208748 -0.440443
0.0124233 -0.135832
0.014069 -0.130933
0.00926779 -0.0306499
0.0120801 -0.0315993
0.000971008 -0.000422819
0.000172716 -5.60941e-05
-0.0383567 -0.365331
-0.0312299 -0.365822
0.0198346 -0.067173
0.0197781 -0.0633117
0.00938052 -0.194494
0.0153225 -0.194041
0.000234205 -0.00041624
0.000458763 -0.000302302
0.0125325 -0.0329327
0.012078 -0.0356954
-1.69096e-05 -9.42487e-06
-2.02748e-05 1.34942e-05
-0.00988601 -0.060351
-0.0127785 -0.0583276
0.0124409 -0.369782
0.00536245 -0.370057
-0.011897 -0.0207979
-0.0104264 -0.0221651
9.15185e-05 -0.376319
0.00175417 -0.38331
-0.00728171 -0.275849
-0.00254838 -0.271136
-0.0366524 -0.389054
-0.0406877 -0.38317
0.0120679 -0.129143
0.0140475 -0.134066
-0.0274154 -0.26556
-0.0254928 -0.271851
0.028125 -0.34638
0.0274326 -0.353513
-0.0186685 -0.0967772
-0.0202538 -0.101414
0.00653941 -0.0155826
0.00456055 -0.0148358
-0.0251354 -0.0932423
-0.0220914 -0.0962897
0.00302238 -0.00409887
0.00203095 -0.00338975
-0.0214762 -0.184824
-0.0266877 -0.187954
-0.000134309 -8.75875e-06
-0.000357461 -8.99807e-05
-0.00374817 -0.446953
-0.0100236 -0.443301
-0.0363879 -0.288088
-0.0322596 -0.282575
-0.0213686 -0.473525
-0.0153231 -0.469423
-0.016196 -0.442977
-0.00998693 -0.439168
-0.0280739 -0.134174
-0.0242721 -0.130223
0.0297754 -0.244666
0.0233688 -0.243599
-0.0106288 -0.0647446
-0.0122275 -0.0684885
-0.0193769 -0.0931021
-0.0222307 -0.0971008
0.019001 -0.0937831
0.0155502 -0.0904608
0.00497517 -0.00558874
0.00379911 -0.00551006
-0.0172667 -0.0404301
-0.0147354 -0.0417587
0.0132372 -0.193154
0.0172521 -0.188857
-0.0257284 -0.121653
-0.0255332 -0.126706
-0.0150542 -0.16153
-0.0148021 -0.167185
0.031889 -0.242933
0.0380415 -0.241267
-0.00325929 -0.0512552
-0.000981111 -0.0539083
-0.00352988 -0.0757675
-0.00763383 -0.0761435
0.0351256 -0.342385
0.035739 -0.335334
0.00989975 -0.0258751
0.00762696 -0.0240924
-0.010183 -0.0241095
-0.0125268 -0.0259067
0.0055781 -0.309202
0.0048284 -0.302353
0.00725524 -0.279373
0.0122228 -0.274967
-0.0155706 -0.384042
-0.0211377 -0.38864
0.0128246 -0.153109
0.0121358 -0.147634
-0.0012623 -0.016683
-0.00236356 -0.0185704
-0.00444964 -0.326128
-0.00914707 -0.321043
-0.0100106 -0.132298
-0.00495016 -0.13327
-0.00963619 -0.198815
-0.00369589 -0.198312
-0.0052529 -0.454696
-0.005473 -0.447371
0.00400254 -0.0457895
0.00670492 -0.0479431
0.00754123 -0.0136983
0.00929766 -0.0151965
0.000151752 -2.5023e-05
0.000756325 -0.000250645
-0.0150158 -0.0406482
-0.0127226 -0.0380781
-0.00301094 -0.00493789
-0.0020031 -0.00519506
-0.0152832 -0.18196
-0.014575 -0.176128
-0.00836297 -0.0150045
-0.0101864 -0.0148163
-0.0132131 -0.436121
-0.0126418 -0.443411
0.0127467 -0.0618717
0.00920932 -0.0629204
0.00279866 -0.0625929
0.00658376 -0.0628607
-0.0107514 -0.0310863
-0.0102569 -0.0282614
-0.0144576 -0.173738
-0.00890142 -0.175031
-0.0187242 -0.26501
-0.0253086 -0.26533
0.0267757 -0.151145
0.0259462 -0.145694
-0.0313089 -0.219137
-0.0350481 -0.224474
0.000219327 -0.0779943
-0.00338923 -0.0801479
0.0147631 -0.407778
0.0209213 -0.411591
0.000767621 -0.000955177
0.0002685 -0.000802759
0.0274882 -0.469239
0.031248 -0.47553
0.011259 -0.405261
0.00680392 -0.410954
-0.0207488 -0.272084
-0.0194023 -0.278606
0.0186341 -0.113354
0.0220389 -0.110111
-0.0133062 -0.359325
-0.00968484 -0.365428
-0.00904127 -0.243923
-0.00610981 -0.249667
0.0273474 -0.340393
0.0235877 -0.334324
-0.017191 -0.0598015
-0.0191768 -0.0570557
0.000756247 -0.000242859
0.00055102 -0.000160087
0.00681322 -0.419263
-0.000272641 -0.417901
0.0186341 -0.360954
0.0117179 -0.362559
0.00929765 -0.111129
0.0123288 -0.107512
0.0118926 -0.0704654
0.0079033 -0.0700098
-0.00252058 -0.0105274
-0.00117772 -0.0114121
0.0226473 -0.244075
0.0231687 -0.250572
-0.0133868 -0.156681
-0.0120277 -0.151258
0.00269177 -0.459254
0.00940252 -0.462049
-0.00972402 -0.0172145
-0.0105817 -0.015755
0.00308044 -0.276226
-0.00348543 -0.275269
-0.0109327 -0.291047
-0.0173075 -0.293379
0.0190216 -0.22714
0.0247205 -0.230135
-0.01995 -0.224285
-0.0138258 -0.22546
0.0191439 -0.254727
0.0148364 -0.249729
-0.0224285 -0.118513
-0.0263179 -0.122123
0.0259768 -0.447543
0.0294339 -0.453998
0.00539309 -0.00548639
0.00531025 -0.00653102
0.00855352 -0.417929
0.0137223 -0.412866
-0.0359237 -0.470428
-0.0421243 -0.474361
-0.00250347 -0.0408013
-0.00262142 -0.044044
-0.0254741 -0.270356
-0.0315867 -0.26803
-0.0014599 -0.000707362
-0.00224951 -0.00111241
0.0342278 -0.31635
0.0394695 -0.312013
0.0296002 -0.327769
0.0320807 -0.321305
-0.0346142 -0.478263
-0.0407418 -0.474263
0.0192137 -0.0502056
0.0157749 -0.0489738
0.0203307 -0.164528
0.0151897 -0.166634
0.00610007 -0.0145113
0.00800618 -0.0144876
0.0024087 -0.002952
0.00156288 -0.00293394
-0.00989155 -0.0233644
-0.0110804 -0.025932
0.00467371 -0.0565585
0.00555217 -0.0530881
-0.0367415 -0.273339
-0.0300814 -0.273312
0.0125205 -0.277796
0.0072879 -0.273609
-0.00107917 -0.0858352
-0.00088194 -0.0902735
-0.000565023 -0.00458753
-0.000657224 -0.0035156
-0.0155137 -0.166676
-0.0178963 -0.161658
-0.028611 -0.350215
-0.035252 -0.352936
0.0073768 -0.230046
0.0129359 -0.227206
0.0336863 -0.331714
0.0407052 -0.331511
-0.00861927 -0.0315192
-0.00897327 -0.0344095
0.0167405 -0.0687529
0.0160388 -0.0726196
-0.0285868 -0.213005
-0.0348348 -0.213287
0.00789741 -0.126488
0.0129865 -0.126825
-0.00541446 -0.282473
0.00126275 -0.282396
-0.033614 -0.348455
-0.0309818 -0.341742
-0.00163095 -0.0206396
-0.00260114 -0.0186456
0.0161205 -0.107843
0.0180186 -0.112508
-0.0116546 -0.13266
-0.0166079 -0.131406
0.0182541 -0.0885339
0.0226772 -0.088344
0.0150568 -0.132273
0.0202528 -0.132403
0.0235075 -0.396892
0.0169756 -0.399869
0.00725783 -0.0270743
0.00493835 -0.0252569
0.0346334 -0.225917
0.0318556 -0.231513
-0.00382445 -0.431951
-0.00385838 -0.42465
0.0218549 -0.111225
0.0191074 -0.115082
0.0255963 -0.462556
0.0229574 -0.469396
0.0155314 -0.0735531
0.0180684 -0.0771219
0.0260325 -0.306204
0.0221576 -0.311814
0.0362683 -0.26677
0.0336159 -0.272755
0.00662702 -0.00704962
0.00660119 -0.00596861
0.00920546 -0.168516
0.00475678 -0.164928
-0.00326879 -0.152181
0.000267126 -0.147994
0.0112454 -0.251763
0.00926925 -0.24553
-0.00303287 -0.261693
-0.0062572 -0.25599
-0.00115125 -0.153887
-0.00591087 -0.151235
0.0108196 -0.0817753
0.00988532 -0.0859683
-4.72425e-05 1.55049e-05
-0.000260848 -6.61184e-05
-0.0141788 -0.17445
-0.0160759 -0.180027
0.0309797 -0.30572
0.0250975 -0.309112
0.00632191 -0.00749666
0.00774384 -0.007708
0.0233871 -0.197143
0.019132 -0.201296
-0.0070121 -0.387534
-0.00266055 -0.393245
-0.0215421 -0.429381
-0.0150946 -0.432669
0.00191024 -0.0738469
0.00397487 -0.0703788
0.0238579 -0.455726
0.0233351 -0.463038
-0.00466656 -0.13346
-0.00474623 -0.128246
0.0123744 -0.0983663
0.0094413 -0.094526
0.0295801 -0.344225
0.0320678 -0.337626
0.00320527 -0.00818899
0.00200116 -0.00885082
-0.0278928 -0.316145
-0.0235949 -0.321494
-0.000389215 -0.131996
0.00459284 -0.130691
0.0261092 -0.222807
0.0312314 -0.22679
0.0291582 -0.30764
0.0248904 -0.312949
-0.0241921 -0.0946855
-0.0268102 -0.0989247
0.0123714 -0.0602208
0.0149886 -0.0632872
0.0218045 -0.115828
0.0253331 -0.112701
-0.028435 -0.152765
-0.0229312 -0.1523
-0.0096983 -0.270001
-0.0054796 -0.275104
0.037489 -0.234221
0.0311357 -0.233037
-0.0308278 -0.287195
-0.0251594 -0.290686
-0.0210618 -0.0743305
-0.0179338 -0.0712381
0.00368022 -0.07334
0.00306613 -0.0774531
0.0359074 -0.395444
0.0391889 -0.38906
-0.000481022 -0.00247557
-0.000192279 -0.00170243
0.00884749 -0.180131
0.011868 -0.175224
0.00406898 -0.367063
0.0110498 -0.365997
-0.0367846 -0.457728
-0.0364062 -0.450412
-0.0088874 -0.413881
-0.0142388 -0.418793
0.0355705 -0.199087
0.0351167 -0.193025
0.0124384 -0.0706025
0.00986649 -0.0735341
0.00478328 -0.13916
0.00842549 -0.135421
-0.0206481 -0.208031
-0.0146991 -0.206051
-0.0049959 -0.0840168
-0.000752015 -0.0843104
0.00457767 -0.302895
0.00919545 -0.307974
0.000420008 -0.272546
0.000954112 -0.279232
-0.0243286 -0.174604
-0.0238088 -0.168845
0.0141457 -0.0536062
0.0171076 -0.0521366
0.0023274 -0.00291072
0.00143447 -0.00261467
0.0144143 -0.374
0.0213353 -0.375831
0.0178238 -0.115479
0.0218815 -0.118725
-0.00988239 -0.117578
-0.00529281 -0.119257
-0.000261092 -0.19819
-0.00536555 -0.20121
-0.00842276 -0.0343782
-0.00573171 -0.0350307
-0.0405247 -0.444176
-0.0359537 -0.438434
0.00638208 -0.11926
0.00803441 -0.114603
0.00863973 -0.0554766
0.00977092 -0.0521873
0.0103108 -0.0213129
0.007979 -0.021382
0.00302644 -0.163791
-0.00230176 -0.165568
0.0303458 -0.402422
0.028424 -0.409395
-0.00423875 -0.375703
-0.010833 -0.378386
0.0175113 -0.294794
0.0235628 -0.291882
0.00304205 -0.0498468
0.00457733 -0.053078
0.00343481 -0.00207721
0.00350094 -0.00182086
0.0228643 -0.413918
0.0279302 -0.419148
0.0166619 -0.451246
0.0235152 -0.453708
-7.80765e-05 -0.423736
-0.00367644 -0.417426
-0.00604222 -0.196616
-0.00899707 -0.191427
0.024104 -0.341733
0.0214892 -0.348341
-0.000860343 -0.0543616
-0.0022284 -0.0510972
-0.00412766 -0.401562
-0.0111771 -0.400245
-0.0315821 -0.417095
-0.0388213 -0.417614
0.0222883 -0.232549
0.02275 -0.2262
0.0250056 -0.161384
0.0285109 -0.157294
0.0355349 -0.340365
0.0378441 -0.333743
-0.00632245 -0.138111
-0.0014612 -0.140108
-0.0057576 -0.0474582
-0.00785823 -0.0503398
-0.00019208 -0.000469153
-0.000536619 -0.000472058
0.0108142 -0.169319
0.0127654 -0.174799
-0.0387242 -0.34955
-0.0391927 -0.342434
0.0232105 -0.213905
0.0169799 -0.213551
-0.0101396 -0.180048
-0.0159271 -0.179722
0.0258537 -0.233227
0.0311431 -0.229893
0.000652033 -0.000207888
0.000930984 -0.00047909
-0.000631946 -0.000497374
-0.000565626 -0.000240891
0.0219581 -0.188542
0.0256577 -0.184116
-0.0194791 -0.253764
-0.0159013 -0.248218
-0.024345 -0.211203
-0.0222045 -0.21703
-0.00553195 -0.0256453
-0.00663129 -0.0283836
0.0306244 -0.477277
0.0314318 -0.484578
-0.00167824 -0.243672
0.00163987 -0.238165
-0.0371675 -0.222101
-0.0361474 -0.2158
-0.0119682 -0.0343403
-0.0149554 -0.034937
0.00258294 -0.00477174
0.00233577 -0.00367996
0.00064813 -0.000278847
0.000518284 -0.00038326
-0.018161 -0.062331
-0.0220195 -0.0630071
-0.00936429 -0.0242819
-0.00803466 -0.026222
0.0113162 -0.0219173
0.0126476 -0.0243694
-0.0191331 -0.182759
-0.0203696 -0.188607
0.0101945 -0.0590537
0.0124495 -0.0623047
-0.00878776 -0.0422455
-0.0102019 -0.039629
0.00965742 -0.068681
0.00873028 -0.0647799
0.00737949 -0.0141408
0.00544102 -0.0135297
0.0225467 -0.267195
0.0179712 -0.26231
-0.00247274 -0.00627197
-0.00277323 -0.00518543
0.0254709 -0.173413
0.0249757 -0.167666
0.0263971 -0.144891
0.0280508 -0.139942
0.0240258 -0.1777
0.0279372 -0.182292
0.00830688 -0.014585
0.00668503 -0.0130504
-0.00203943 -0.480218
0.00379459 -0.484567
0.013367 -0.120049
0.0122168 -0.115118
-0.0240009 -0.133992
-0.0188763 -0.132555
-0.0110171 -0.0280124
-0.00865971 -0.0289061
-0.00941007 -0.0946604
-0.00611989 -0.0978667
0.0198195 -0.0665132
0.021238 -0.06318
-0.0204815 -0.377032
-0.0184212 -0.383889
0.0100637 -0.013817
0.00830254 -0.0140097
0.00801357 -0.168414
0.0109533 -0.173414
0.00125838 -0.0208973
0.00218668 -0.0230322
-0.0170342 -0.194628
-0.0112574 -0.19289
0.000671231 -0.00887453
-5.93109e-05 -0.00754477
0.0225655 -0.297187
0.0196628 -0.303324
-0.00156859 -0.181375
-0.00347073 -0.175858
-0.000948401 -0.00118419
-0.00105285 -0.000813331
0.0222874 -0.270886
0.0202085 -0.277185
-0.000270598 -9.09148e-05
-0.00020741 -0.000241459
0.0290238 -0.331211
0.0320803 -0.324983
-0.0242094 -0.190724
-0.0299875 -0.189556
0.0300967 -0.264426
0.0357231 -0.268157
0.00768461 -0.203418
0.0135304 -0.205313
0.00498306 -0.00661412
0.00440601 -0.00755728
0.0244919 -0.111881
0.024395 -0.106984
-0.00373836 -0.0536085
-0.00579998 -0.0508541
-0.0178675 -0.115772
-0.022221 -0.118596
0.0296503 -0.444646
0.0236902 -0.448832
0.00196613 -0.396544
-0.00499586 -0.398262
0.0119439 -0.115465
0.016536 -0.117598
-0.00514931 -0.015061
-0.00372893 -0.0162581
-0.0191741 -0.169237
-0.0183603 -0.163561
-0.00586334 -0.0338024
-0.00830483 -0.0356841
-0.0341311 -0.297718
-0.0325875 -0.30433
0.0336781 -0.388662
0.0324282 -0.381546
-0.000233016 -0.334523
0.00172232 -0.327843
-0.00708481 -0.486127
-0.00183021 -0.481058
0.00682268 -0.086565
0.0111497 -0.0862037
0.0225337 -0.307391
0.0173613 -0.311835
0.00761296 -0.197715
0.00241562 -0.194839
0.0138219 -0.0329937
0.0141483 -0.0303054
-0.0352373 -0.321897
-0.0406335 -0.317713
-0.0124728 -0.270027
-0.0179222 -0.266399
0.0108531 -0.300895
0.00927102 -0.307572
0.0236767 -0.0911304
0.0210699 -0.0945429
-0.0332111 -0.475222
-0.0298559 -0.481738
0.0198396 -0.0575413
0.0187476 -0.0608727
0.00171729 -0.000739273
0.00213934 -0.000986288
0.0067437 -0.0380404
0.00976839 -0.0387999
-0.0237026 -0.405227
-0.0205748 -0.411737
0.010173 -0.16707
0.00985321 -0.1728
-0.0406628 -0.345874
-0.0413103 -0.353023
-0.0226588 -0.112876
-0.0188036 -0.115607
-0.0315165 -0.464912
-0.0252872 -0.468709
0.0125288 -0.0817719
0.00827178 -0.0813473
-0.0302579 -0.166113
-0.032482 -0.161135
0.000702153 -0.168758
-0.00479281 -0.1702
-0.000892625 -0.000407648
-0.00142957 -0.000707839
0.0154652 -0.0641915
0.0130639 -0.0669721
-0.0390428 -0.448208
-0.0317638 -0.448637
0.0139731 -0.0350476
0.010995 -0.0346443
-0.0371449 -0.240518
-0.0326405 -0.244893
-0.00160532 -0.00193207
-0.000982789 -0.00132049
0.0147944 -0.26591
0.00873112 -0.268409
-0.0340078 -0.444631
-0.026829 -0.445802
-0.00771103 -0.455782
-0.0148149 -0.454275
-0.00329866 -0.00288096
-0.00431057 -0.00374946
0.00264561 -0.280915
0.00728163 -0.276117
-0.000839191 -0.0123886
-0.00236092 -0.0135163
-0.0105645 -0.0433523
-0.00774687 -0.0446227
-0.032416 -0.425211
-0.0394961 -0.426942
0.00406488 -0.125934
0.00384136 -0.120839
0.0340736 -0.468158
0.0310386 -0.461484
0.0324825 -0.487208
0.0358505 -0.493745
0.0297736 -0.320532
0.0331755 -0.326714
-0.00341045 -0.0119169
-0.00176313 -0.0111666
0.012709 -0.273464
0.00849009 -0.268273
-0.00813665 -0.0572616
-0.0117748 -0.0581018
0.00307806 -0.0532951
0.00318868 -0.0569375
0.0195062 -0.309606
0.0162035 -0.30353
0.0139329 -0.099523
0.0182703 -0.0981068
0.0376223 -0.391408
0.0304163 -0.391385
-0.0010486 -0.000479005
-0.000971513 -0.000589223
0.00257695 -0.039957
-0.000125591 -0.0415231
-0.00880557 -0.425554
-0.0143496 -0.43027
-0.00424554 -0.310563
-0.0100397 -0.306952
-0.00103163 -0.00472506
6.23147e-05 -0.00486794
-0.0231736 -0.279027
-0.0165069 -0.27858
-0.0131735 -0.245995
-0.00939279 -0.251194
0.0259232 -0.403839
0.0326469 -0.406553
0.014983 -0.0291875
0.0133788 -0.0265778
0.00718987 -0.0803844
0.00541816 -0.0764815
0.020394 -0.371771
0.0189929 -0.378804
0.0119428 -0.0171151
0.0115932 -0.015137
-0.0180308 -0.268048
-0.0134093 -0.272712
-0.0279388 -0.437113
-0.0238832 -0.443151
0.0302797 -0.27806
0.0369227 -0.277478
0.0163165 -0.302523
0.023034 -0.301514
8.43748e-05 -0.177567
0.00247906 -0.182919
0.00158516 -0.33231
0.00171427 -0.325333
0.00327593 -0.0470068
0.00340836 -0.0504567
0.00463138 -0.130258
0.0097617 -0.13006
-0.00372688 -0.253271
-0.00128838 -0.247218
-0.0358453 -0.419494
-0.0339913 -0.426514
-0.0320402 -0.296818
-0.0269081 -0.292185
-0.023899 -0.478813
-0.021787 -0.485837
0.00164985 -0.0128996
0.00342776 -0.0127865
-0.00856961 -0.049277
-0.0109724 -0.0471682
-0.00968055 -0.112115
-0.0134602 -0.109333
-0.0271172 -0.101923
-0.0279882 -0.10676
-0.0299209 -0.472108
-0.0295557 -0.464781
0.00728466 -0.0108432
0.00556751 -0.0100918
0.00213145 -0.00115862
0.00300334 -0.00176115
-0.0270349 -0.313446
-0.0204405 -0.311302
0.0370203 -0.453593
0.0327717 -0.447624
-0.00731694 -0.0706017
-0.00340413 -0.0697191
0.00565538 -0.0054586
0.00680134 -0.00668116
0.00231624 -0.00307944
0.00330886 -0.003778
-0.00284028 -0.141063
-0.00764244 -0.138919
-0.0168303 -0.0728247
-0.0148094 -0.0690885
0.0164177 -0.275481
0.0124805 -0.280834
0.0377606 -0.42146
0.0336741 -0.415407
0.012048 -0.0325837
0.0149035 -0.0326257
0.00338329 -0.00596577
0.00306139 -0.00474314
0.0211849 -0.284173
0.0263738 -0.280049
0.00301631 -0.447439
0.000522461 -0.454325
-0.0203061 -0.393459
-0.0168783 -0.387077
-0.0115703 -0.0488876
-0.0126786 -0.0523307
0.00560111 -0.129698
0.00156273 -0.126477
-0.0144609 -0.0813303
-0.0186101 -0.0829813
0.0354493 -0.301814
0.0302058 -0.297264
0.0153943 -0.0837246
0.019377 -0.0859748
0.000299264 -0.000368924
0.000618694 -0.000781678
-0.0140974 -0.242374
-0.0104382 -0.237018
-0.0221773 -0.14938
-0.0167563 -0.149529
-0.00146609 -0.427716
-0.00535182 -0.433887
0.000285834 -0.00100319
-0.00018253 -0.00130259
0.000905522 -0.00037484
0.000578031 -0.000255843
0.0207564 -0.2362
0.0145332 -0.23742
-0.00635406 -0.189042
-0.00182948 -0.185241
0.00243786 -0.00938752
0.00326869 -0.010955
-0.00984673 -0.261482
-0.0160768 -0.259607
-0.0202094 -0.0718703
-0.0228711 -0.0693238
0.00479482 -0.0218809
0.00252089 -0.0211521
-0.0278948 -0.209222
-0.0260577 -0.203182
-0.00577855 -0.420078
-0.00185706 -0.413956
-0.0185143 -0.086484
-0.0224216 -0.0849579
-0.00822434 -0.0240973
-0.00587486 -0.0226586
-0.0319049 -0.371056
-0.0357773 -0.377178
-0.0317458 -0.234172
-0.0253744 -0.234358
0.0302217 -0.160615
0.0313112 -0.16624
0.0002076 -2.09987e-05
0.000150216 -4.25879e-05
-0.000635526 -0.0926185
0.000166554 -0.0882279
-0.00546067 -0.314807
-0.00204987 -0.308799
-0.01128 -0.0877597
-0.0152683 -0.0861772
-0.00172532 -0.137424
-0.00298723 -0.132314
0.00768824 -0.196169
0.00726062 -0.2022
-0.0124237 -0.218558
-0.0158988 -0.213382
0.00602601 -0.0113831
0.00779493 -0.0124076
-0.0353095 -0.244574
-0.0333504 -0.250655
-0.00490637 -0.0775827
-0.00157148 -0.0750582
-0.0177928 -0.0462339
-0.019218 -0.0495725
0.0240625 -0.491593
0.0262056 -0.484563
0.0318071 -0.492723
0.0390705 -0.493764
-0.0160112 -0.0309644
-0.0133552 -0.0292141
-0.00176066 -0.00663452
-0.00188549 -0.00807181
0.00693528 -0.0122076
0.00866447 -0.0135485
-0.0127432 -0.0353372
-0.015761 -0.0363541
-0.0232637 -0.170694
-0.0261368 -0.175886
0.0132665 -0.282936
0.0185343 -0.28721
-0.00143546 -0.00174631
-0.00127544 -0.00236755
-0.00991221 -0.225876
-0.0159478 -0.224536
-0.00224491 -0.12887
7.16107e-05 -0.133525
0.0226803 -0.0711435
0.0238444 -0.0752182
-0.0365485 -0.354244
-0.0424456 -0.350362
0.0340349 -0.286758
0.0335844 -0.293509
-0.012065 -0.263028
-0.00611772 -0.260192
0.00122659 -0.0550318
0.00470327 -0.0560364
-0.0132212 -0.0204419
-0.0127614 -0.0224698
0.0114078 -0.0448148
0.010182 -0.041644
0.00343188 -0.0526219
0.00477383 -0.0560276
-0.0140499 -0.0512955
-0.0105751 -0.0511774
0.00856777 -0.164458
0.0043742 -0.168197
-0.0110945 -0.0238042
-0.00897852 -0.0219081
-0.0023777 -0.00498564
-0.00137374 -0.0042213
0.0179686 -0.0442134
0.0161058 -0.0412042
-0.00531971 -0.0846189
-0.00613357 -0.0803924
-0.0141223 -0.17759
-0.0135939 -0.171796
-0.0228123 -0.129627
-0.0260439 -0.134014
-0.0249795 -0.27354
-0.031598 -0.274516
0.00214751 -0.0172583
0.000284327 -0.0181051
0.000792986 -0.000261209
0.000233817 -3.4688e-05
-0.0183954 -0.478824
-0.0151648 -0.472242
0.00171536 -0.19735
-0.000450881 -0.191759
-0.00881678 -0.253258
-0.00341436 -0.256839
-0.000289726 -0.00868386
0.00106299 -0.00944383
-0.0302561 -0.171804
-0.0342719 -0.17631
-0.0117429 -0.138577
-0.00835939 -0.142576
0.00678772 -0.0808492
0.00290732 -0.0824481
-0.0163139 -0.33159
-0.00951738 -0.33001
-4.01805e-05 -3.5733e-07
-0.000475624 -0.000125413
-0.0152327 -0.191121
-0.0206074 -0.193979
-0.00358256 -0.00339187
-0.00414934 -0.00442193
-0.0158289 -0.163681
-0.0203501 -0.160589
-0.0221734 -0.202976
-0.0180775 -0.19824
-0.00959126 -0.171097
-0.0124722 -0.166248
-0.00180035 -0.392889
-0.000147042 -0.385861
0.0283154 -0.440879
0.0297582 -0.433723
0.00458013 -0.156594
-0.000165758 -0.153765
-0.00194356 -0.159368
-0.00395551 -0.154188
-0.000369217 -0.00052103
-0.000525272 -0.000328725
-0.0107072 -0.0335221
-0.0136284 -0.0345793
-0.00736221 -0.0904266
-0.00684055 -0.0949149
-0.00557736 -0.141219
-0.00579912 -0.135896
0.0317223 -0.286275
0.0277856 -0.280676
-0.00602128 -0.0791202
-0.00194908 -0.07815
0.00260707 -0.0062779
0.00188537 -0.0072609
-0.00543676 -0.0395227
-0.00448175 -0.0365264
0.022687 -0.46654
0.0255875 -0.47327
0.0188765 -0.0443656
0.0164766 -0.046114
0.0169072 -0.0574263
0.0165602 -0.0537898
-0.00703933 -0.0200297
-0.00598968 -0.0219177
-0.0123942 -0.154643
-0.01197 -0.14913
-0.00766952 -0.0651893
-0.00383714 -0.0654374
0.00225477 -0.183604
-0.00341465 -0.184931
-0.0115492 -0.331961
-0.0180198 -0.329403
-0.0195799 -0.0478688
-0.0162433 -0.0464245
0.0157301 -0.0842773
0.0116356 -0.0854605
-0.00319065 -0.300547
-0.00726851 -0.29511
0.0273568 -0.249164
0.0234125 -0.243868
-0.00718615 -0.0464287
-0.00848129 -0.0497061
-0.0130812 -0.23994
-0.0192095 -0.238343
0.0269759 -0.378052
0.0340762 -0.377103
-0.0328655 -0.430011
-0.0319652 -0.437248
-0.0214489 -0.0602301
-0.0210365 -0.0565324
-0.000582494 -0.00967067
8.15809e-05 -0.0082345
0.00231836 -0.00784259
0.000956353 -0.00813539
-0.0262084 -0.163919
-0.0292802 -0.168942
0.0181787 -0.374742
0.0164066 -0.381691
-0.00380266 -0.03564
-0.00669285 -0.0361295
0.0193064 -0.242795
0.0256958 -0.242254
0.0220227 -0.11379
0.0228658 -0.10903
-0.023434 -0.162564
-0.0223545 -0.168061
-0.0176143 -0.296184
-0.0238532 -0.299024
-0.00225693 -0.0207653
-0.00390136 -0.0193294
0.00329573 -0.0124145
0.00309809 -0.0142657
-0.0303466 -0.228005
-0.0246449 -0.230539
-0.0156478 -0.448875
-0.0185704 -0.442188
-0.00684134 -0.00921369
-0.00696247 -0.00796
-0.00559786 -0.0397273
-0.00760142 -0.0423696
0.0163982 -0.0331398
0.0139858 -0.0309351
-0.0248632 -0.459419
-0.0252925 -0.466741
-0.00871866 -0.145445
-0.0126808 -0.149293
-0.016704 -0.0516355
-0.0139018 -0.0490904
0.0354023 -0.379916
0.0299468 -0.38453
-0.0248224 -0.446778
-0.0180182 -0.449319
-0.0127035 -0.0898287
-0.00838228 -0.0884747
0.0317641 -0.161195
0.0276453 -0.157059
0.00803739 -0.119287
0.0129632 -0.120169
-0.0262714 -0.248748
-0.0317905 -0.245608
-0.0084424 -0.299868
-0.00190709 -0.301671
-0.000175274 -8.14024e-06
-0.000392974 -9.00167e-05
0.0167989 -0.0679674
0.0171498 -0.0641405
-0.0331754 -0.300626
-0.0263504 -0.300281
-0.0114151 -0.0399947
-0.0139142 -0.0424059
0.0146246 -0.156896
0.00916581 -0.155889
0.0140831 -0.0647078
0.0125036 -0.0610406
0.0262727 -0.22667
0.0203652 -0.228751
0.00753372 -0.380461
0.0107251 -0.374062
0.0146069 -0.0768217
0.0138196 -0.0808997
-0.0164611 -0.0317693
-0.0148991 -0.0337112
-0.0175236 -0.140383
-0.0184308 -0.145745
0.00482469 -0.422363
0.00473565 -0.429659
0.0193949 -0.372164
0.0210139 -0.365185
0.00667092 -0.0225953
0.00532961 -0.0204022
-0.0189696 -0.324188
-0.0198631 -0.317299
0.0190637 -0.0867782
0.015395 -0.0889169
0.00374062 -0.291344
-0.0028485 -0.289985
-0.00136942 -0.277334
-0.00800011 -0.276933
0.0384366 -0.2792
0.0353602 -0.27312
0.00719102 -0.130621
0.00875972 -0.135672
-0.0276422 -0.30871
-0.034094 -0.306549
-0.0301125 -0.474595
-0.0245802 -0.479374
0.0352099 -0.221314
0.0317964 -0.226482
-0.0424094 -0.475264
-0.0408219 -0.468095
0.01577 -0.229106
0.00955572 -0.228075
-0.00631232 -0.144311
-0.00786445 -0.139209
-0.00679755 -0.0458798
-0.00874607 -0.0434381
-0.0208816 -0.098235
-0.0224838 -0.102903
-0.0145347 -0.0383834
-0.0167537 -0.0368496
-0.00072856 -0.390012
-0.00786908 -0.390005
-0.0297104 -0.283913
-0.0357806 -0.281267
0.0068388 -0.0523104
0.00986239 -0.0508374
-0.029442 -0.142286
-0.0314518 -0.137583
0.00322414 -0.0416918
8.14081e-05 -0.0413557
-0.013122 -0.412954
-0.00680184 -0.416421
-0.0119501 -0.0767226
-0.0130532 -0.0728428
-0.00313837 -0.00475679
-0.00434567 -0.00518477
0.030486 -0.302949
0.0336371 -0.296981
0.0174263 -0.445935
0.0215996 -0.439954
-0.0176273 -0.0658822
-0.0137247 -0.0652196
-0.00364075 -0.305023
-0.00272323 -0.311861
0.01726 -0.343621
0.0118809 -0.338948
-0.00774803 -0.0570644
-0.0105114 -0.0597775
-0.0200792 -0.33283
-0.0145045 -0.337034
-0.00961634 -0.0434433
-0.0112081 -0.0409146
-0.0126035 -0.0181188
-0.0106356 -0.0184263
-0.037784 -0.393616
-0.0352433 -0.400338
0.0174298 -0.119834
0.0222785 -0.121607
0.0367958 -0.234088
0.0317223 -0.237761
0.0302074 -0.259482
0.0294938 -0.252932
-0.0248577 -0.356015
-0.0283606 -0.349827
-0.0133609 -0.374213
-0.0197895 -0.377381
-0.0306861 -0.373364
-0.0298496 -0.380486
0.0239159 -0.443148
0.0309381 -0.445094
-0.00887361 -0.114984
-0.0121211 -0.118881
-0.0164133 -0.3361
-0.00944798 -0.336868
0.0399639 -0.44674
0.0341064 -0.442346
-0.0145221 -0.443482
-0.0188662 -0.449369
-0.0129961 -0.264574
-0.0140705 -0.271157
0.0330794 -0.418812
0.0353886 -0.425738
-0.00147205 -0.00831353
-0.000452645 -0.00720511
0.0151799 -0.476779
0.0120302 -0.47017
-0.00601287 -0.305507
5.73114e-06 -0.302292
-0.00465707 -0.247037
7.67186e-05 -0.251439
0.0107494 -0.482508
0.00986545 -0.489792
-0.0369785 -0.230751
-0.0307198 -0.229157
      </DataArray> 
      <DataArray type="Float64" NumberOfComponents="2" Name="Velocity" format="ascii">
0 0
0 0
0 0
0 0
0 0
0 0
0 0
0 0
0 0
0 0
0 0
0 0
0 0
0 0
0 0
0 0
0 0
0 0
0 0
0 0
0 0
0 0
0 0
0 0
0 0
0 0
0 0
0 0
0 0
0 0
0 0
0 0
0 0
0 0
0 0
0 0
0 0
0 0
0 0
0 0
0 0
0 0
0 0
0 0
0 0
0 0
0 0
0 0
0 0
0 0
0 0
0 0
0 0
0 0
0 0
0 0
0 0
0 0
0 0
0 0
0 0
0 0
0 0
0 0
0 0
0 0
0 0
0 0
0 0
0 0
0 0
0 0
0 0
0 0
0 0
0 0
0 0
0 0
0 0
0 0
0 0
0 0
0 0
0 0
0 0
0 0
0 0
0 0
0 0
0 0
0 0
0 0
0 0
0 0
0 0
0 0
0 0
0 0
0 0
0 0
0 0
0 0
0 0
0 0
0 0
0 0
0 0
0 0
0 0
0 0
0 0
0 0
0 0
0 0
0 0
0 0
0 0
0 0
0 0
0 0
0 0
0 0
0 0
0 0
0 0
0 0
0 0
0 0
0 0
0 0
0 0
0 0
0 0
0 0
0 0
0 0
0 0
0 0
0 0
0 0
0 0
0 0
0 0
0 0
0 0
0 0
0 0
0 0
0 0
0 0
0 0
0 0
0 0
0 0
0 0
0 0
0 0
0 0
0 0
0 0
0 0
0 0
0 0
0 0
0 0
0 0
0 0
0 0
0 0
0 0
0 0
0 0
0 0
0 0
0 0
0 0
0 0
0 0
0 0
0 0
0 0
0 0
0 0
0 0
0 0
0 0
0 0
0 0
0 0
0 0
0 0
0 0
0 0
0 0
0 0
0 0
0 0
0 0
0 0
0 0
0 0
0 0
0 0
0 0
0 0
0 0
0 0
0 0
0 0
0 0
0 0
0 0
0 0
0 0
0 0
0 0
0 0
0 0
0 0
0 0
0 0
0 0
0 0
0 0
0 0
0 0
0 0
0 0
0 0
0 0
0 0
0 0
0 0
0 0
0 0
0 0
0 0
0 0
0 0
0 0
0 0
0 0
0 0
0 0
0 0
0 0
0 0
0 0
0 0
0 0
0 0
0 0
0 0
0 0
0 0
0 0
0 0
0 0
0 0
0 0
0 0
0 0
0 0
0 0
0 0
0 0
0 0
0 0
0 0
0 0
0 0
0 0
0 0
0 0
0 0
0 0
0 0
0 0
0 0
0 0
0 0
0 0
0 0
0 0
0 0
0 0
0 0
0 0
0 0
0 0
0 0
0 0
0 0
0 0
0 0
0 0
0 0
0 0
0 0
0 0
0 0
0 0
0 0
0 0
0 0
0 0
0 0
0 0
0 0
0 0
0 0
0 0
0 0
0 0
0 0
0 0
0 0
0 0
0 0
0 0
0 0
0 0
0 0
0 0
0 0
0 0
0 0
0 0
0 0
0 0
0 0
0 0
0 0
0 0
0 0
0 0
0 0
0 0
0 0
0 0
0 0
0 0
0 0
0 0
0 0
0 0
0 0
0 0
0 0
0 0
0 0
0 0
0 0
0 0
0 0
0 0
0 0
0 0
0 0
0 0
0 0
0 0
0 0
0 0
0 0
0 0
0 0
0 0
0 0
0 0
0 0
0 0
0 0
0 0
0 0
0 0
0 0
0 0
0 0
0 0
0 0
0 0
0 0
0 0
0 0
0 0
0 0
0 0
0 0
0 0
0 0
0 0
0 0
0 0
0 0
0 0
0 0
0 0
0 0
0 0
0 0
0 0
0 0
0 0
0 0
0 0
0 0
0 0
0 0
0 0
0 0
0 0
0 0
0 0
0 0
0 0
0 0
0 0
0 0
0 0
0 0
0 0
0 0
0 0
0 0
0 0
0 0
0 0
0 0
0 0
0 0
0 0
0 0
0 0
0 0
0 0
0 0
0 0
0 0
0 0
0 0
0 0
0 0
0 0
0 0
0 0
0 0
0 0
0 0
0 0
0 0
0 0
0 0
0 0
0 0
0 0
0 0
0 0
0 0
0 0
0 0
0 0
0 0
0 0
0 0
0 0
0 0
0 0
0 0
0 0
0 0
0 0
0 0
0 0
0 0
0 0
0 0
0 0
0 0
0 0
0 0
0 0
0 0
0 0
0 0
0 0
0 0
0 0
0 0
0 0
0 0
0 0
0 0
0 0
0 0
0 0
0 0
0 0
0 0
0 0
0 0
0 0
0 0
0 0
0 0
0 0
0 0
0 0
0 0
0 0
0 0
0 0
0 0
0 0
0 0
0 0
0 0
0 0
0 0
0 0
0 0
0 0
0 0
0 0
0 0
0 0
0 0
0 0
0 0
0 0
0 0
0 0
0 0
0 0
0 0
0 0
0 0
0 0
0 0
0 0
0 0
0 0
0 0
0 0
0 0
0 0
0 0
0 0
0 0
0 0
0 0
0 0
0 0
0 0
0 0
0 0
0 0
0 0
0 0
0 0
0 0
0 0
0 0
0 0
0 0
0 0
0 0
0 0
0 0
0 0
0 0
0 0
0 0
0 0
0 0
0 0
0 0
0 0
0 0
0 0
0 0
0 0
0 0
0 0
0 0
0 0
0 0
0 0
0 0
0 0
0 0
0 0
0 0
0 0
0 0
0 0
0 0
0 0
0 0
0 0
0 0
0 0
0 0
0 0
0 0
0 0
0 0
0 0
0 0
0 0
0 0
0 0
0 0
0 0
0 0
0 0
0 0
0 0
0 0
0 0
0 0
0 0
0 0
0 0
0 0
0 0
0 0
0 0
0 0
0 0
0 0
0 0
0 0
0 0
0 0
0 0
0 0
0 0
0 0
0 0
0 0
0 0
0 0
0 0
0 0
0 0
0 0
0 0
0 0
0 0
0 0
0 0
0 0
0 0
0 0
0 0
0 0
0 0
0 0
0 0
0 0
0 0
0 0
0 0
0 0
0 0
0 0
0 0
0 0
0 0
0 0
0 0
0 0
0 0
0 0
0 0
0 0
0 0
0 0
0 0
0 0
0 0
0 0
0 0
0 0
0 0
0 0
0 0
0 0
0 0
0 0
0 0
0 0
0 0
0 0
0 0
0 0
0 0
0 0
0 0
0 0
0 0
0 0
0 0
0 0
0 0
0 0
0 0
0 0
0 0
0 0
0 0
0 0
0 0
0 0
0 0
0 0
0 0
0 0
0 0
0 0
0 0
0 0
0 0
0 0
0 0
0 0
0 0
0 0
0 0
0 0
0 0
0 0
0 0
0 0
0 0
0 0
0 0
0 0
0 0
0 0
0 0
0 0
0 0
0 0
0 0
0 0
0 0
0 0
0 0
0 0
0 0
0 0
0 0
0 0
0 0
0 0
0 0
0 0
0 0
0 0
0 0
0 0
0 0
0 0
0 0
0 0
0 0
0 0
0 0
0 0
0 0
0 0
0 0
0 0
0 0
0 0
0 0
0 0
0 0
0 0
0 0
0 0
0 0
0 0
0 0
0 0
0 0
0 0
0 0
0 0
0 0
0 0
0 0
0 0
0 0
0 0
0 0
0 0
0 0
0 0
0 0
0 0
0 0
0 0
0 0
0 0
0 0
0 0
0 0
0 0
0 0
0 0
0 0
0 0
0 0
0 0
0 0
0 0
0 0
0 0
0 0
0 0
0 0
0 0
0 0
0 0
0 0
0 0
0 0
0 0
0 0
0 0
0 0
0 0
0 0
0 0
0 0
0 0
0 0
0 0
0 0
0 0
0 0
0 0
0 0
0 0
0 0
0 0
0 0
0 0
0 0
0 0
0 0
0 0
0 0
0 0
0 0
0 0
0 0
0 0
0 0
0 0
0 0
0 0
0 0
0 0
0 0
0 0
0 0
0 0
0 0
0 0
0 0
0 0
0 0
0 0
0 0
0 0
0 0
0 0
0 0
0 0
0 0
0 0
0 0
0 0
0 0
0 0
0 0
0 0
0 0
0 0
0 0
0 0
0 0
0 0
0 0
0 0
0 0
0 0
0 0
0 0
0 0
0 0
0 0
0 0
0 0
0 0
0 0
0 0
0 0
0 0
0 0
0 0
0 0
0 0
0 0
0 0
0 0
0 0
0 0
0 0
0 0
0 0
0 0
0 0
0 0
0 0
0 0
0 0
0 0
0 0
0 0
0 0
0 0
0 0
0 0
0 0
0 0
0 0
0 0
0 0
0 0
0 0
0 0
0 0
0 0
0 0
0 0
0 0
0 0
0 0
0 0
0 0
0 0
0 0
0 0
0 0
0 0
0 0
0 0
0 0
0 0
0 0
0 0
0 0
0 0
0 0
0 0
0 0
0 0
0 0
0 0
0 0
0 0
0 0
0 0
0 0
0 0
0 0
0 0
0 0
0 0
0 0
0 0
0 0
0 0
0 0
0 0
0 0
0 0
0 0
0 0
0 0
0 0
0 0
0 0
0 0
0 0
0 0
0 0
0 0
0 0
0 0
0 0
0 0
0 0
0 0
0 0
0 0
0 0
0 0
0 0
0 0
0 0
0 0
0 0
0 0
0 0
0 0
0 0
0 0
0 0
0 0
0 0
0 0
0 0
0 0
0 0
0 0
0 0
0 0
0 0
0 0
0 0
0 0
0 0
0 0
0 0
0 0
0 0
0 0
0 0
0 0
0 0
0 0
0 0
0 0
0 0
0 0
0 0
0 0
0 0
0 0
0 0
0 0
0 0
0 0
0 0
0 0
0 0
0 0
0 0
0 0
0 0
0 0
0 0
0 0
0 0
0 0
0 0
0 0
0 0
0 0
0 0
0 0
0 0
0 0
0 0
0 0
0 0
0 0
0 0
0 0
0 0
0 0
0 0
0 0
0 0
0 0
0 0
0 0
0 0
0 0
0 0
0 0
0 0
0 0
0 0
0 0
0 0
0 0
0 0
0 0
0 0
0 0
0 0
0 0
0 0
0 0
0 0
0 0
0 0
0 0
0 0
0 0
0 0
0 0
0 0
0 0
0 0
0 0
0 0
0 0
0 0
0 0
0 0
0 0
0 0
0 0
0 0
0 0
0 0
0 0
0 0
0 0
0 0
0 0
0 0
0 0
0 0
0 0
0 0
0 0
0 0
0 0
0 0
0 0
0 0
0 0
0 0
0 0
0 0
0 0
0 0
0 0
0 0
0 0
0 0
0 0
0 0
0 0
0 0
0 0
0 0
0 0
0 0
0 0
0 0
0 0
0 0
0 0
0 0
0 0
0 0
0 0
0 0
0 0
0 0
0 0
0 0
0 0
0 0
0 0
0 0
0 0
0 0
0 0
0 0
0 0
0 0
0 0
0 0
0 0
0 0
0 0
0 0
0 0
0 0
0 0
0 0
0 0
0 0
0 0
0 0
0 0
0 0
0 0
0 0
0 0
0 0
0 0
0 0
0 0
0 0
0 0
0 0
0 0
0 0
0 0
0 0
0 0
0 0
0 0
0 0
0 0
0 0
0 0
0 0
0 0
0 0
0 0
0 0
0 0
0 0
0 0
0 0
0 0
0 0
0 0
0 0
0 0
0 0
0 0
0 0
0 0
0 0
0 0
0 0
0 0
0 0
0 0
0 0
0 0
0 0
0 0
0 0
0 0
0 0
0 0
0 0
0 0
0 0
0 0
0 0
0 0
0 0
0 0
0 0
0 0
0 0
0 0
0 0
0 0
0 0
0 0
0 0
0 0
0 0
0 0
0 0
0 0
0 0
0 0
0 0
0 0
0 0
0 0
0 0
0 0
0 0
0 0
0 0
0 0
0 0
0 0
0 0
0 0
0 0
0 0
0 0
0 0
0 0
0 0
0 0
0 0
0 0
0 0
0 0
0 0
0 0
0 0
0 0
0 0
0 0
0 0
0 0
0 0
0 0
0 0
0 0
0 0
0 0
0 0
0 0
0 0
0 0
0 0
0 0
0 0
0 0
0 0
0 0
0 0
0 0
0 0
0 0
0 0
0 0
0 0
0 0
0 0
0 0
0 0
0 0
0 0
0 0
0 0
0 0
0 0
0 0
0 0
0 0
0 0
0 0
0 0
0 0
0 0
0 0
0 0
0 0
0 0
0 0
0 0
0 0
0 0
0 0
0 0
0 0
0 0
0 0
0 0
0 0
0 0
0 0
0 0
0 0
0 0
0 0
0 0
0 0
0 0
0 0
0 0
0 0
0 0
0 0
0 0
0 0
0 0
0 0
0 0
0 0
0 0
0 0
0 0
0 0
0 0
0 0
0 0
0 0
0 0
0 0
0 0
0 0
0 0
0 0
0 0
0 0
0 0
0 0
0 0
0 0
0 0
0 0
0 0
0 0
0 0
0 0
0 0
0 0
0 0
0 0
0 0
0 0
0 0
0 0
0 0
0 0
0 0
0 0
0 0
0 0
0 0
0 0
0 0
0 0
0 0
0 0
0 0
0 0
0 0
0 0
0 0
0 0
0 0
0 0
0 0
0 0
0 0
0 0
0 0
0 0
0 0
0 0
0 0
0 0
0 0
0 0
0 0
0 0
0 0
0 0
0 0
0 0
0 0
0 0
0 0
0 0
0 0
0 0
0 0
0 0
0 0
0 0
0 0
0 0
0 0
0 0
0 0
0 0
0 0
0 0
0 0
0 0
0 0
0 0
0 0
0 0
0 0
0 0
0 0
0 0
0 0
0 0
0 0
0 0
0 0
0 0
0 0
0 0
0 0
0 0
0 0
0 0
0 0
0 0
0 0
0 0
0 0
0 0
0 0
0 0
0 0
0 0
0 0
0 0
0 0
0 0
0 0
0 0
0 0
0 0
0 0
0 0
0 0
0 0
0 0
0 0
0 0
0 0
0 0
0 0
0 0
0 0
0 0
0 0
0 0
0 0
0 0
0 0
0 0
0 0
0 0
0 0
0 0
0 0
0 0
0 0
0 0
0 0
0 0
0 0
0 0
0 0
0 0
0 0
0 0
0 0
0 0
0 0
0 0
0 0
0 0
0 0
0 0
0 0
0 0
0 0
0 0
0 0
0 0
0 0
0 0
0 0
0 0
0 0
0 0
0 0
0 0
0 0
0 0
0 0
0 0
0 0
0 0
0 0
0 0
0 0
0 0
0 0
0 0
0 0
0 0
0 0
0 0
0 0
0 0
0 0
0 0
0 0
0 0
0 0
0 0
0 0
0 0
0 0
0 0
0 0
0 0
0 0
0 0
0 0
0 0
0 0
0 0
0 0
0 0
0 0
0 0
0 0
0 0
0 0
0 0
0 0
0 0
0 0
0 0
0 0
0 0
0 0
0 0
0 0
0 0
0 0
0 0
0 0
0 0
0 0
0 0
0 0
0 0
0 0
0 0
0 0
0 0
0 0
0 0
0 0
0 0
0 0
0 0
0 0
0 0
0 0
0 0
0 0
0 0
0 0
0 0
0 0
0 0
0 0
0 0
0 0
0 0
0 0
0 0
0 0
0 0
0 0
0 0
0 0
0 0
0 0
0 0
0 0
0 0
0 0
0 0
0 0
0 0
0 0
0 0
0 0
0 0
0 0
0 0
0 0
0 0
0 0
0 0
0 0
0 0
0 0
0 0
0 0
0 0
0 0
0 0
0 0
0 0
0 0
0 0
0 0
0 0
0 0
0 0
0 0
0 0
0 0
0 0
0 0
0 0
0 0
0 0
0 0
0 0
0 0
0 0
0 0
0 0
0 0
0 0
0 0
0 0
0 0
0 0
0 0
0 0
0 0
0 0
0 0
0 0
0 0
0 0
0 0
0 0
0 0
0 0
0 0
0 0
0 0
0 0
0 0
0 0
0 0
0 0
0 0
0 0
0 0
0 0
0 0
0 0
0 0
0 0
0 0
0 0
0 0
0 0
0 0
0 0
0 0
0 0
0 0
0 0
0 0
0 0
0 0
0 0
0 0
0 0
0 0
0 0
0 0
0 0
0 0
0 0
0 0
0 0
0 0
0 0
0 0
0 0
0 0
0 0
0 0
0 0
0 0
0 0
0 0
0 0
0 0
0 0
0 0
0 0
0 0
0 0
0 0
0 0
0 0
0 0
0 0
0 0
0 0
0 0
0 0
0 0
0 0
0 0
0 0
0 0
0 0
0 0
0 0
0 0
0 0
0 0
0 0
0 0
0 0
0 0
0 0
0 0
0 0
0 0
0 0
0 0
0 0
0 0
0 0
0 0
0 0
0 0
0 0
0 0
0 0
0 0
0 0
0 0
0 0
0 0
0 0
0 0
0 0
0 0
0 0
0 0
0 0
0 0
0 0
0 0
0 0
0 0
0 0
0 0
0 0
0 0
0 0
0 0
0 0
0 0
0 0
0 0
0 0
0 0
0 0
0 0
0 0
0 0
0 0
0 0
0 0
0 0
0 0
0 0
0 0
0 0
0 0
0 0
0 0
0 0
0 0
0 0
0 0
0 0
0 0
0 0
0 0
0 0
0 0
0 0
0 0
0 0
0 0
0 0
0 0
0 0
0 0
0 0
0 0
0 0
0 0
0 0
0 0
0 0
0 0
0 0
0 0
0 0
0 0
0 0
0 0
0 0
0 0
0 0
0 0
0 0
0 0
0 0
0 0
0 0
0 0
0 0
0 0
0 0
0 0
0 0
0 0
0 0
0 0
0 0
0 0
0 0
0 0
0 0
0 0
0 0
0 0
0 0
0 0
0 0
0 0
0 0
0 0
0 0
0 0
0 0
0 0
0 0
0 0
0 0
0 0
0 0
0 0
0 0
0 0
0 0
0 0
0 0
0 0
0 0
0 0
0 0
0 0
0 0
0 0
0 0
0 0
0 0
0 0
0 0
0 0
0 0
0 0
0 0
0 0
0 0
0 0
0 0
0 0
0 0
0 0
0 0
0 0
0 0
0 0
0 0
0 0
0 0
0 0
0 0
0 0
0 0
0 0
0 0
0 0
0 0
0 0
0 0
0 0
0 0
0 0
0 0
0 0
0 0
0 0
0 0
0 0
0 0
0 0
0 0
0 0
0 0
0 0
0 0
0 0
0 0
0 0
0 0
0 0
0 0
0 0
0 0
0 0
0 0
0 0
0 0
0 0
0 0
0 0
0 0
0 0
0 0
0 0
0 0
0 0
0 0
0 0
0 0
0 0
0 0
0 0
0 0
0 0
0 0
0 0
0 0
0 0
0 0
0 0
0 0
0 0
0 0
0 0
0 0
0 0
0 0
0 0
0 0
0 0
0 0
0 0
0 0
0 0
0 0
0 0
0 0
0 0
0 0
0 0
0 0
0 0
0 0
0 0
0 0
0 0
0 0
0 0
0 0
0 0
0 0
0 0
0 0
0 0
0 0
0 0
0 0
0 0
0 0
0 0
0 0
0 0
0 0
0 0
0 0
0 0
0 0
0 0
0 0
0 0
0 0
0 0
0 0
0 0
0 0
0 0
0 0
0 0
0 0
0 0
0 0
0 0
0 0
0 0
0 0
0 0
0 0
0 0
0 0
0 0
0 0
0 0
0 0
0 0
0 0
0 0
0 0
0 0
0 0
0 0
0 0
0 0
0 0
0 0
0 0
0 0
0 0
0 0
0 0
0 0
0 0
0 0
0 0
0 0
0 0
0 0
0 0
0 0
0 0
0 0
0 0
0 0
0 0
0 0
0 0
0 0
0 0
0 0
0 0
0 0
0 0
0 0
0 0
0 0
0 0
0 0
0 0
0 0
0 0
0 0
0 0
0 0
0 0
0 0
0 0
0 0
0 0
0 0
0 0
0 0
0 0
0 0
0 0
0 0
0 0
0 0
0 0
0 0
0 0
0 0
0 0
0 0
0 0
0 0
0 0
0 0
0 0
0 0
0 0
0 0
0 0
0 0
0 0
0 0
0 0
0 0
0 0
0 0
0 0
0 0
0 0
0 0
0 0
0 0
0 0
0 0
0 0
0 0
0 0
0 0
0 0
0 0
0 0
0 0
0 0
0 0
0 0
0 0
0 0
0 0
0 0
0 0
0 0
0 0
0 0
0 0
0 0
0 0
0 0
0 0
0 0
0 0
0 0
0 0
0 0
0 0
0 0
0 0
0 0
0 0
0 0
0 0
0 0
0 0
0 0
0 0
0 0
0 0
0 0
0 0
0 0
0 0
0 0
0 0
0 0
0 0
0 0
0 0
0 0
0 0
0 0
0 0
0 0
0 0
0 0
0 0
0 0
0 0
0 0
0 0
0 0
0 0
0 0
0 0
0 0
0 0
0 0
0 0
0 0
0 0
0 0
0 0
0 0
0 0
0 0
0 0
0 0
0 0
0 0
0 0
0 0
0 0
0 0
0 0
0 0
0 0
0 0
0 0
0 0
0 0
0 0
0 0
0 0
0 0
0 0
0 0
0 0
0 0
0 0
0 0
0 0
0 0
0 0
0 0
0 0
0 0
0 0
0 0
0 0
0 0
0 0
0 0
0 0
0 0
0 0
0 0
0 0
0 0
0 0
0 0
0 0
0 0
0 0
0 0
0 0
0 0
0 0
0 0
0 0
0 0
0 0
0 0
0 0
0 0
0 0
0 0
0 0
0 0
0 0
0 0
0 0
0 0
0 0
0 0
0 0
0 0
0 0
0 0
0 0
0 0
0 0
0 0
0 0
0 0
0 0
0 0
0 0
0 0
0 0
0 0
0 0
0 0
0 0
0 0
0 0
0 0
0 0
0 0
0 0
0 0
0 0
0 0
0 0
0 0
0 0
0 0
0 0
0 0
0 0
0 0
0 0
0 0
0 0
0 0
0 0
0 0
0 0
0 0
0 0
0 0
0 0
0 0
0 0
0 0
0 0
0 0
0 0
0 0
0 0
0 0
0 0
0 0
0 0
0 0
0 0
0 0
0 0
0 0
0 0
0 0
0 0
0 0
0 0
0 0
0 0
0 0
0 0
0 0
0 0
0 0
0 0
0 0
0 0
0 0
0 0
0 0
0 0
0 0
0 0
0 0
0 0
0 0
0 0
0 0
0 0
0 0
0 0
0 0
0 0
0 0
0 0
0 0
0 0
0 0
0 0
0 0
0 0
0 0
0 0
0 0
0 0
0 0
0 0
0 0
0 0
0 0
0 0
0 0
0 0
0 0
0 0
0 0
0 0
0 0
0 0
0 0
0 0
0 0
0 0
0 0
0 0
0 0
0 0
0 0
0 0
0 0
0 0
0 0
0 0
0 0
0 0
0 0
0 0
0 0
0 0
0 0
0 0
0 0
0 0
0 0
0 0
0 0
0 0
0 0
0 0
0 0
0 0
0 0
0 0
0 0
0 0
0 0
0 0
0 0
0 0
0 0
0 0
0 0
0 0
0 0
0 0
0 0
0 0
0 0
0 0
0 0
0 0
0 0
0 0
0 0
0 0
0 0
0 0
0 0
0 0
0 0
0 0
0 0
0 0
0 0
0 0
0 0
0 0
0 0
0 0
0 0
0 0
0 0
0 0
0 0
0 0
0 0
0 0
0 0
0 0
0 0
0 0
0 0
0 0
0 0
0 0
0 0
0 0
0 0
0 0
0 0
0 0
0 0
0 0
0 0
0 0
0 0
0 0
0 0
0 0
0 0
0 0
0 0
0 0
0 0
0 0
0 0
0 0
0 0
0 0
0 0
0 0
0 0
0 0
0 0
0 0
0 0
0 0
0 0
0 0
0 0
0 0
0 0
0 0
0 0
0 0
0 0
0 0
0 0
0 0
0 0
0 0
0 0
0 0
0 0
0 0
0 0
0 0
0 0
0 0
0 0
0 0
0 0
0 0
0 0
0 0
0 0
0 0
0 0
0 0
0 0
0 0
0 0
0 0
0 0
0 0
0 0
0 0
0 0
0 0
0 0
0 0
0 0
0 0
0 0
0 0
0 0
0 0
0 0
0 0
0 0
0 0
0 0
0 0
0 0
0 0
0 0
0 0
0 0
0 0
0 0
0 0
0 0
0 0
0 0
0 0
0 0
0 0
0 0
0 0
0 0
0 0
0 0
0 0
0 0
0 0
0 0
0 0
0 0
0 0
0 0
0 0
0 0
0 0
0 0
0 0
0 0
0 0
0 0
0 0
0 0
0 0
0 0
0 0
0 0
0 0
0 0
0 0
0 0
0 0
0 0
0 0
0 0
0 0
0 0
0 0
0 0
0 0
0 0
0 0
0 0
0 0
0 0
0 0
0 0
0 0
0 0
0 0
0 0
0 0
0 0
0 0
0 0
0 0
0 0
0 0
0 0
0 0
0 0
0 0
0 0
0 0
0 0
0 0
0 0
0 0
0 0
0 0
0 0
0 0
0 0
0 0
0 0
0 0
0 0
0 0
0 0
0 0
0 0
0 0
0 0
0 0
0 0
0 0
0 0
0 0
0 0
0 0
0 0
0 0
0 0
0 0
0 0
0 0
0 0
0 0
0 0
0 0
0 0
0 0
0 0
0 0
0 0
0 0
0 0
0 0
0 0
0 0
0 0
0 0
0 0
0 0
0 0
0 0
0 0
0 0
0 0
0 0
0 0
0 0
0 0
0 0
0 0
0 0
0 0
0 0
0 0
0 0
0 0
0 0
0 0
0 0
0 0
0 0
0 0
0 0
0 0
0 0
0 0
0 0
0 0
0 0
0 0
0 0
0 0
0 0
0 0
0 0
0 0
0 0
0 0
0 0
0 0
0 0
0 0
0 0
0 0
0 0
0 0
0 0
0 0
0 0
0 0
0 0
0 0
0 0
0 0
0 0
0 0
0 0
0 0
0 0
0 0
0 0
0 0
0 0
0 0
0 0
0 0
0 0
0 0
0 0
0 0
0 0
0 0
0 0
0 0
0 0
0 0
0 0
0 0
0 0
0 0
0 0
0 0
0 0
0 0
0 0
0 0
0 0
0 0
0 0
0 0
0 0
0 0
0 0
0 0
0 0
0 0
0 0
0 0
0 0
0 0
0 0
0 0
0 0
0 0
0 0
0 0
0 0
0 0
0 0
0 0
0 0
0 0
0 0
0 0
0 0
0 0
0 0
0 0
0 0
0 0
0 0
0 0
0 0
0 0
0 0
0 0
0 0
0 0
0 0
0 0
0 0
0 0
0 0
0 0
0 0
0 0
0 0
0 0
0 0
0 0
0 0
0 0
0 0
0 0
0 0
0 0
0 0
0 0
0 0
0 0
0 0
0 0
0 0
0 0
0 0
0 0
0 0
0 0
0 0
0 0
0 0
0 0
0 0
0 0
0 0
0 0
0 0
0 0
0 0
0 0
0 0
0 0
0 0
0 0
0 0
0 0
0 0
0 0
0 0
0 0
0 0
0 0
0 0
0 0
0 0
0 0
0 0
0 0
0 0
0 0
0 0
0 0
0 0
0 0
0 0
0 0
0 0
0 0
0 0
0 0
0 0
0 0
0 0
0 0
0 0
0 0
0 0
0 0
0 0
0 0
0 0
0 0
0 0
0 0
0 0
0 0
0 0
0 0
0 0
0 0
0 0
0 0
0 0
0 0
0 0
0 0
0 0
0 0
0 0
0 0
0 0
0 0
0 0
0 0
0 0
0 0
0 0
0 0
0 0
0 0
0 0
0 0
0 0
0 0
0 0
0 0
0 0
0 0
0 0
0 0
0 0
0 0
0 0
0 0
0 0
0 0
0 0
0 0
0 0
0 0
0 0
0 0
0 0
0 0
0 0
0 0
0 0
0 0
0 0
0 0
0 0
0 0
0 0
0 0
0 0
0 0
0 0
0 0
0 0
0 0
0 0
0 0
0 0
0 0
0 0
0 0
0 0
0 0
0 0
0 0
0 0
0 0
0 0
0 0
0 0
0 0
0 0
0 0
0 0
0 0
0 0
0 0
0 0
0 0
0 0
0 0
0 0
0 0
0 0
0 0
0 0
0 0
0 0
0 0
0 0
0 0
0 0
0 0
0 0
0 0
0 0
0 0
0 0
0 0
0 0
0 0
0 0
0 0
0 0
0 0
0 0
0 0
0 0
0 0
0 0
0 0
0 0
0 0
0 0
0 0
0 0
0 0
0 0
0 0
0 0
0 0
0 0
0 0
0 0
0 0
0 0
0 0
0 0
0 0
0 0
0 0
0 0
0 0
0 0
0 0
0 0
0 0
0 0
0 0
0 0
0 0
0 0
0 0
0 0
0 0
0 0
0 0
0 0
0 0
0 0
0 0
0 0
0 0
0 0
0 0
0 0
0 0
0 0
0 0
0 0
0 0
0 0
0 0
0 0
0 0
0 0
0 0
0 0
0 0
0 0
0 0
0 0
0 0
0 0
0 0
0 0
0 0
0 0
0 0
0 0
0 0
0 0
0 0
0 0
0 0
0 0
0 0
0 0
0 0
0 0
0 0
0 0
0 0
0 0
0 0
0 0
0 0
0 0
0 0
0 0
0 0
0 0
0 0
0 0
0 0
0 0
0 0
0 0
0 0
0 0
0 0
0 0
0 0
0 0
0 0
0 0
0 0
0 0
0 0
0 0
0 0
0 0
0 0
0 0
0 0
0 0
0 0
0 0
0 0
0 0
0 0
0 0
0 0
0 0
0 0
0 0
0 0
0 0
0 0
0 0
0 0
0 0
0 0
0 0
0 0
0 0
0 0
0 0
0 0
0 0
0 0
0 0
0 0
0 0
0 0
0 0
0 0
0 0
0 0
0 0
0 0
0 0
0 0
0 0
0 0
0 0
0 0
0 0
0 0
0 0
0 0
0 0
0 0
0 0
0 0
0 0
0 0
0 0
0 0
0 0
0 0
0 0
0 0
0 0
0 0
0 0
0 0
0 0
0 0
0 0
0 0
0 0
0 0
0 0
0 0
0 0
0 0
0 0
0 0
0 0
0 0
0 0
0 0
0 0
0 0
0 0
0 0
0 0
0 0
0 0
0 0
0 0
0 0
0 0
0 0
0 0
0 0
0 0
0 0
0 0
0 0
0 0
0 0
0 0
0 0
0 0
0 0
0 0
0 0
0 0
0 0
0 0
0 0
0 0
0 0
0 0
0 0
0 0
0 0
0 0
0 0
0 0
0 0
0 0
0 0
0 0
0 0
0 0
0 0
0 0
0 0
0 0
0 0
0 0
0 0
0 0
0 0
0 0
0 0
0 0
0 0
0 0
0 0
0 0
0 0
0 0
0 0
0 0
0 0
0 0
0 0
0 0
0 0
0 0
0 0
0 0
0 0
0 0
0 0
0 0
0 0
0 0
0 0
0 0
0 0
0 0
0 0
0 0
0 0
0 0
0 0
0 0
0 0
0 0
0 0
0 0
0 0
0 0
0 0
0 0
0 0
0 0
0 0
0 0
0 0
0 0
0 0
0 0
0 0
0 0
0 0
0 0
0 0
0 0
0 0
0 0
0 0
0 0
0 0
0 0
0 0
0 0
0 0
0 0
0 0
0 0
0 0
0 0
0 0
0 0
0 0
0 0
0 0
0 0
0 0
0 0
0 0
0 0
0 0
0 0
0 0
0 0
0 0
0 0
0 0
0 0
0 0
0 0
0 0
0 0
0 0
0 0
0 0
0 0
0 0
0 0
0 0
0 0
0 0
0 0
0 0
0 0
0 0
0 0
0 0
0 0
0 0
0 0
0 0
0 0
0 0
0 0
0 0
0 0
0 0
0 0
0 0
0 0
0 0
0 0
0 0
0 0
0 0
0 0
0 0
0 0
0 0
0 0
0 0
0 0
0 0
0 0
0 0
0 0
0 0
0 0
0 0
0 0
0 0
0 0
0 0
0 0
0 0
0 0
0 0
0 0
0 0
0 0
0 0
0 0
0 0
0 0
0 0
0 0
0 0
0 0
0 0
0 0
0 0
0 0
0 0
0 0
0 0
0 0
0 0
0 0
0 0
0 0
0 0
0 0
0 0
0 0
0 0
0 0
0 0
0 0
0 0
0 0
0 0
0 0
0 0
0 0
0 0
0 0
0 0
0 0
0 0
0 0
0 0
0 0
0 0
0 0
0 0
0 0
0 0
0 0
0 0
0 0
0 0
0 0
0 0
0 0
0 0
0 0
0 0
0 0
0 0
0 0
0 0
0 0
0 0
0 0
0 0
0 0
0 0
0 0
0 0
0 0
0 0
0 0
0 0
0 0
0 0
0 0
0 0
0 0
0 0
0 0
0 0
0 0
0 0
0 0
0 0
0 0
0 0
0 0
0 0
0 0
0 0
0 0
0 0
0 0
0 0
0 0
0 0
0 0
0 0
0 0
0 0
0 0
0 0
0 0
0 0
0 0
0 0
0 0
0 0
0 0
0 0
0 0
0 0
0 0
0 0
0 0
0 0
0 0
0 0
0 0
0 0
0 0
0 0
0 0
0 0
0 0
0 0
0 0
0 0
0 0
0 0
0 0
0 0
0 0
0 0
0 0
0 0
0 0
0 0
0 0
0 0
0 0
0 0
0 0
0 0
0 0
0 0
0 0
0 0
0 0
0 0
0 0
0 0
0 0
0 0
0 0
0 0
0 0
0 0
0 0
0 0
0 0
0 0
0 0
0 0
0 0
0 0
0 0
0 0
0 0
0 0
0 0
0 0
0 0
0 0
0 0
0 0
0 0
0 0
0 0
0 0
0 0
0 0
0 0
0 0
0 0
0 0
0 0
0 0
0 0
0 0
0 0
0 0
0 0
0 0
0 0
0 0
0 0
0 0
0 0
0 0
0 0
0 0
0 0
0 0
0 0
0 0
0 0
0 0
0 0
0 0
0 0
0 0
0 0
0 0
0 0
0 0
0 0
0 0
0 0
0 0
0 0
0 0
0 0
0 0
0 0
0 0
0 0
0 0
0 0
0 0
0 0
0 0
0 0
0 0
0 0
0 0
0 0
0 0
0 0
0 0
0 0
0 0
0 0
0 0
0 0
0 0
0 0
0 0
0 0
0 0
0 0
0 0
0 0
0 0
0 0
0 0
0 0
0 0
0 0
0 0
0 0
0 0
0 0
0 0
0 0
0 0
0 0
0 0
0 0
0 0
0 0
0 0
0 0
0 0
0 0
0 0
0 0
0 0
0 0
0 0
0 0
0 0
0 0
0 0
0 0
0 0
0 0
0 0
0 0
0 0
0 0
0 0
0 0
0 0
0 0
0 0
0 0
0 0
0 0
0 0
0 0
0 0
0 0
0 0
0 0
0 0
0 0
0 0
0 0
0 0
0 0
0 0
0 0
0 0
0 0
0 0
0 0
0 0
0 0
0 0
0 0
0 0
0 0
0 0
0 0
0 0
0 0
0 0
0 0
0 0
0 0
0 0
0 0
0 0
0 0
0 0
0 0
0 0
0 0
0 0
0 0
0 0
0 0
0 0
0 0
0 0
0 0
0 0
0 0
0 0
0 0
0 0
0 0
0 0
0 0
0 0
0 0
0 0
0 0
0 0
0 0
0 0
0 0
0 0
0 0
0 0
0 0
0 0
0 0
0 0
0 0
0 0
0 0
0 0
0 0
0 0
0 0
0 0
0 0
0 0
0 0
0 0
0 0
0 0
0 0
0 0
0 0
0 0
0 0
0 0
0 0
0 0
0 0
0 0
0 0
0 0
0 0
0 0
0 0
0 0
0 0
0 0
0 0
0 0
0 0
0 0
0 0
0 0
0 0
0 0
0 0
0 0
0 0
0 0
0 0
0 0
0 0
0 0
0 0
0 0
0 0
0 0
0 0
0 0
0 0
0 0
0 0
0 0
0 0
0 0
0 0
0 0
0 0
0 0
0 0
0 0
0 0
0 0
0 0
0 0
0 0
0 0
0 0
0 0
0 0
0 0
0 0
0 0
0 0
0 0
0 0
0 0
0 0
0 0
0 0
0 0
0 0
0 0
0 0
0 0
0 0
0 0
0 0
0 0
0 0
0 0
0 0
0 0
0 0
0 0
0 0
0 0
0 0
0 0
0 0
0 0
0 0
0 0
0 0
0 0
0 0
0 0
0 0
0 0
0 0
0 0
0 0
0 0
0 0
0 0
0 0
0 0
0 0
0 0
0 0
0 0
0 0
0 0
0 0
0 0
0 0
0 0
0 0
0 0
0 0
0 0
0 0
0 0
0 0
0 0
0 0
0 0
0 0
0 0
0 0
0 0
0 0
0 0
0 0
0 0
0 0
0 0
0 0
0 0
0 0
0 0
0 0
0 0
0 0
0 0
0 0
0 0
0 0
0 0
0 0
0 0
0 0
0 0
0 0
0 0
0 0
0 0
0 0
0 0
0 0
0 0
0 0
0 0
0 0
0 0
0 0
0 0
0 0
0 0
0 0
0 0
0 0
0 0
0 0
0 0
0 0
0 0
0 0
0 0
0 0
0 0
0 0
0 0
0 0
0 0
0 0
0 0
0 0
0 0
0 0
0 0
0 0
0 0
0 0
0 0
0 0
0 0
0 0
0 0
0 0
0 0
0 0
0 0
0 0
0 0
0 0
0 0
0 0
0 0
0 0
0 0
0 0
0 0
0 0
0 0
0 0
0 0
0 0
0 0
0 0
0 0
0 0
0 0
0 0
0 0
0 0
0 0
0 0
0 0
0 0
0 0
0 0
0 0
0 0
0 0
0 0
0 0
0 0
0 0
0 0
0 0
0 0
0 0
0 0
0 0
0 0
0 0
0 0
0 0
0 0
0 0
0 0
0 0
0 0
0 0
0 0
0 0
0 0
0 0
0 0
0 0
0 0
0 0
0 0
0 0
0 0
0 0
0 0
0 0
0 0
0 0
0 0
0 0
0 0
0 0
0 0
0 0
0 0
0 0
0 0
0 0
0 0
0 0
0 0
0 0
0 0
0 0
0 0
0 0
0 0
0 0
0 0
0 0
0 0
0 0
0 0
0 0
0 0
0 0
0 0
0 0
0 0
0 0
0 0
0 0
0 0
0 0
0 0
0 0
0 0
0 0
0 0
0 0
0 0
0 0
0 0
0 0
0 0
0 0
0 0
0 0
0 0
0 0
0 0
0 0
0 0
0 0
0 0
0 0
0 0
0 0
0 0
0 0
0 0
0 0
0 0
0 0
0 0
0 0
0 0
0 0
0 0
0 0
0 0
0 0
0 0
0 0
0 0
0 0
0 0
0 0
0 0
0 0
0 0
0 0
0 0
0 0
0 0
0 0
0 0
0 0
0 0
0 0
0 0
0 0
0 0
0 0
0 0
0 0
0 0
0 0
0 0
0 0
0 0
0 0
0 0
0 0
0 0
0 0
0 0
0 0
0 0
0 0
0 0
0 0
0 0
0 0
0 0
0 0
0 0
0 0
0 0
0 0
0 0
0 0
0 0
0 0
0 0
0 0
0 0
0 0
0 0
0 0
0 0
0 0
0 0
0 0
0 0
0 0
0 0
0 0
0 0
0 0
0 0
0 0
0 0
0 0
0 0
0 0
0 0
0 0
0 0
0 0
0 0
0 0
0 0
0 0
0 0
0 0
0 0
0 0
0 0
0 0
0 0
0 0
0 0
0 0
0 0
0 0
0 0
0 0
0 0
0 0
0 0
0 0
0 0
0 0
0 0
0 0
0 0
0 0
0 0
0 0
0 0
0 0
0 0
0 0
0 0
0 0
0 0
0 0
0 0
0 0
0 0
0 0
0 0
0 0
0 0
0 0
0 0
0 0
0 0
0 0
0 0
0 0
0 0
0 0
0 0
0 0
0 0
0 0
0 0
0 0
0 0
0 0
0 0
0 0
0 0
0 0
0 0
0 0
0 0
0 0
0 0
0 0
0 0
0 0
0 0
0 0
0 0
0 0
0 0
0 0
0 0
0 0
0 0
0 0
0 0
0 0
0 0
0 0
0 0
0 0
0 0
0 0
0 0
0 0
0 0
0 0
0 0
0 0
0 0
0 0
0 0
0 0
0 0
0 0
0 0
0 0
0 0
0 0
0 0
0 0
0 0
0 0
0 0
0 0
0 0
0 0
0 0
0 0
0 0
0 0
0 0
0 0
0 0
0 0
0 0
0 0
0 0
0 0
0 0
0 0
0 0
0 0
0 0
0 0
0 0
0 0
0 0
0 0
0 0
0 0
0 0
0 0
0 0
0 0
0 0
0 0
0 0
0 0
0 0
0 0
0 0
0 0
0 0
0 0
0 0
0 0
0 0
0 0
0 0
0 0
0 0
0 0
0 0
0 0
0 0
0 0
0 0
0 0
0 0
0 0
0 0
0 0
0 0
0 0
0 0
0 0
0 0
0 0
0 0
0 0
0 0
0 0
0 0
0 0
0 0
0 0
0 0
0 0
0 0
0 0
0 0
0 0
0 0
0 0
0 0
0 0
0 0
0 0
0 0
0 0
0 0
0 0
0 0
0 0
0 0
0 0
0 0
0 0
0 0
0 0
0 0
0 0
0 0
0 0
0 0
0 0
0 0
0 0
0 0
0 0
0 0
0 0
0 0
0 0
0 0
0 0
0 0
0 0
0 0
0 0
0 0
0 0
0 0
0 0
0 0
0 0
0 0
0 0
0 0
0 0
0 0
0 0
0 0
0 0
0 0
0 0
0 0
0 0
0 0
0 0
0 0
0 0
0 0
0 0
0 0
0 0
0 0
0 0
0 0
0 0
0 0
0 0
0 0
0 0
0 0
0 0
0 0
0 0
0 0
0 0
0 0
0 0
0 0
0 0
0 0
0 0
0 0
0 0
0 0
0 0
0 0
0 0
0 0
0 0
0 0
0 0
0 0
0 0
0 0
0 0
0 0
0 0
0 0
0 0
0 0
0 0
0 0
0 0
0 0
0 0
0 0
0 0
0 0
0 0
0 0
0 0
0 0
0 0
0 0
0 0
0 0
0 0
0 0
0 0
0 0
0 0
0 0
0 0
0 0
0 0
0 0
0 0
0 0
0 0
0 0
0 0
0 0
0 0
0 0
0 0
0 0
0 0
0 0
0 0
0 0
0 0
0 0
0 0
0 0
0 0
0 0
0 0
0 0
0 0
0 0
0 0
0 0
0 0
0 0
0 0
0 0
0 0
0 0
0 0
0 0
0 0
0 0
0 0
0 0
0 0
0 0
0 0
0 0
0 0
0 0
0 0
0 0
0 0
0 0
0 0
0 0
0 0
0 0
0 0
0 0
0 0
0 0
0 0
0 0
0 0
0 0
0 0
0 0
0 0
0 0
0 0
0 0
0 0
0 0
0 0
0 0
0 0
0 0
0 0
0 0
0 0
0 0
0 0
0 0
0 0
0 0
0 0
0 0
0 0
0 0
0 0
0 0
0 0
0 0
0 0
0 0
0 0
0 0
0 0
0 0
0 0
0 0
0 0
0 0
0 0
0 0
0 0
0 0
0 0
0 0
0 0
0 0
0 0
0 0
0 0
0 0
0 0
0 0
0 0
0 0
0 0
0 0
0 0
0 0
0 0
0 0
0 0
0 0
0 0
0 0
0 0
0 0
0 0
0 0
0 0
0 0
0 0
0 0
0 0
0 0
0 0
0 0
0 0
0 0
0 0
0 0
0 0
0 0
0 0
0 0
0 0
0 0
0 0
0 0
0 0
0 0
0 0
0 0
0 0
0 0
0 0
0 0
0 0
0 0
0 0
0 0
0 0
0 0
0 0
0 0
0 0
0 0
0 0
0 0
0 0
0 0
0 0
0 0
0 0
0 0
0 0
0 0
0 0
0 0
0 0
0 0
0 0
0 0
0 0
0 0
0 0
0 0
0 0
0 0
0 0
0 0
0 0
0 0
0 0
0 0
0 0
0 0
0 0
0 0
0 0
0 0
0 0
0 0
0 0
0 0
0 0
0 0
0 0
0 0
0 0
0 0
0 0
0 0
0 0
0 0
0 0
0 0
0 0
0 0
0 0
0 0
0 0
0 0
0 0
0 0
0 0
0 0
0 0
0 0
0 0
0 0
0 0
0 0
0 0
0 0
0 0
0 0
0 0
0 0
0 0
0 0
0 0
0 0
0 0
0 0
0 0
0 0
0 0
0 0
0 0
0 0
0 0
0 0
0 0
0 0
0 0
0 0
0 0
0 0
0 0
0 0
0 0
0 0
0 0
0 0
0 0
0 0
0 0
0 0
0 0
0 0
0 0
0 0
0 0
0 0
0 0
0 0
0 0
0 0
0 0
0 0
0 0
0 0
0 0
0 0
0 0
0 0
0 0
0 0
0 0
0 0
0 0
0 0
0 0
0 0
0 0
0 0
0 0
0 0
0 0
0 0
0 0
0 0
0 0
0 0
0 0
0 0
0 0
0 0
0 0
0 0
0 0
0 0
0 0
0 0
0 0
0 0
0 0
0 0
0 0
0 0
0 0
0 0
0 0
0 0
0 0
0 0
0 0
0 0
0 0
0 0
0 0
0 0
0 0
0 0
0 0
0 0
0 0
0 0
0 0
0 0
0 0
0 0
0 0
0 0
0 0
0 0
0 0
0 0
0 0
0 0
0 0
0 0
0 0
0 0
0 0
0 0
0 0
0 0
0 0
0 0
0 0
0 0
0 0
0 0
0 0
0 0
0 0
0 0
0 0
0 0
0 0
0 0
0 0
0 0
0 0
0 0
0 0
0 0
0 0
0 0
0 0
0 0
0 0
0 0
0 0
0 0
0 0
0 0
0 0
0 0
0 0
0 0
0 0
0 0
0 0
0 0
0 0
0 0
0 0
0 0
0 0
0 0
0 0
0 0
0 0
0 0
0 0
0 0
0 0
0 0
0 0
0 0
0 0
0 0
0 0
0 0
0 0
0 0
0 0
0 0
0 0
0 0
0 0
0 0
0 0
0 0
0 0
0 0
0 0
0 0
0 0
0 0
0 0
0 0
0 0
0 0
0 0
0 0
0 0
0 0
0 0
0 0
0 0
0 0
0 0
0 0
0 0
0 0
0 0
0 0
0 0
0 0
0 0
0 0
0 0
0 0
0 0
0 0
0 0
0 0
0 0
0 0
0 0
0 0
0 0
0 0
0 0
0 0
0 0
0 0
0 0
0 0
0 0
0 0
0 0
0 0
0 0
0 0
0 0
0 0
0 0
0 0
0 0
0 0
0 0
0 0
0 0
0 0
0 0
0 0
0 0
0 0
0 0
0 0
0 0
0 0
0 0
0 0
0 0
0 0
0 0
0 0
0 0
0 0
0 0
0 0
0 0
0 0
0 0
0 0
0 0
0 0
0 0
0 0
0 0
0 0
0 0
0 0
0 0
0 0
0 0
0 0
0 0
0 0
0 0
0 0
0 0
0 0
0 0
0 0
0 0
0 0
0 0
0 0
0 0
0 0
0 0
0 0
0 0
0 0
0 0
0 0
0 0
0 0
0 0
0 0
0 0
0 0
0 0
0 0
0 0
0 0
0 0
0 0
0 0
0 0
0 0
0 0
0 0
0 0
0 0
0 0
0 0
0 0
0 0
0 0
0 0
0 0
0 0
0 0
0 0
0 0
0 0
0 0
0 0
0 0
0 0
0 0
0 0
0 0
0 0
0 0
0 0
0 0
0 0
0 0
0 0
0 0
0 0
0 0
0 0
0 0
0 0
0 0
0 0
0 0
0 0
0 0
0 0
0 0
0 0
0 0
0 0
0 0
0 0
0 0
0 0
0 0
0 0
0 0
0 0
0 0
0 0
0 0
0 0
0 0
0 0
0 0
0 0
0 0
0 0
0 0
0 0
0 0
0 0
0 0
0 0
0 0
0 0
0 0
0 0
0 0
0 0
0 0
0 0
0 0
0 0
0 0
0 0
0 0
0 0
0 0
0 0
0 0
0 0
0 0
0 0
0 0
0 0
0 0
0 0
0 0
0 0
0 0
0 0
0 0
0 0
0 0
0 0
0 0
0 0
0 0
0 0
0 0
0 0
0 0
0 0
0 0
0 0
0 0
0 0
0 0
0 0
0 0
0 0
0 0
0 0
0 0
0 0
0 0
0 0
0 0
0 0
0 0
0 0
0 0
0 0
0 0
0 0
0 0
0 0
0 0
0 0
0 0
0 0
0 0
0 0
0 0
0 0
0 0
0 0
0 0
0 0
0 0
0 0
0 0
0 0
0 0
0 0
0 0
0 0
0 0
0 0
0 0
0 0
0 0
0 0
0 0
0 0
0 0
0 0
0 0
0 0
0 0
0 0
0 0
0 0
0 0
0 0
0 0
0 0
0 0
0 0
0 0
0 0
0 0
0 0
0 0
0 0
0 0
0 0
0 0
0 0
0 0
0 0
0 0
0 0
0 0
0 0
0 0
0 0
0 0
0 0
0 0
0 0
0 0
0 0
0 0
0 0
0 0
0 0
0 0
0 0
0 0
0 0
0 0
0 0
0 0
0 0
0 0
0 0
0 0
0 0
0 0
0 0
0 0
0 0
0 0
0 0
0 0
0 0
0 0
0 0
0 0
0 0
0 0
0 0
0 0
0 0
0 0
0 0
0 0
0 0
0 0
0 0
0 0
0 0
0 0
0 0
0 0
0 0
0 0
0 0
0 0
0 0
0 0
0 0
0 0
0 0
0 0
0 0
0 0
0 0
0 0
0 0
0 0
0 0
0 0
0 0
0 0
0 0
0 0
0 0
0 0
0 0
0 0
0 0
0 0
0 0
0 0
0 0
0 0
0 0
0 0
0 0
0 0
0 0
0 0
0 0
0 0
0 0
0 0
0 0
0 0
0 0
0 0
0 0
0 0
0 0
0 0
0 0
0 0
0 0
0 0
0 0
0 0
0 0
0 0
0 0
0 0
0 0
0 0
0 0
0 0
0 0
0 0
0 0
0 0
0 0
0 0
0 0
0 0
0 0
0 0
0 0
0 0
0 0
0 0
0 0
0 0
0 0
0 0
0 0
0 0
0 0
0 0
0 0
0 0
0 0
0 0
0 0
0 0
0 0
0 0
0 0
0 0
0 0
0 0
0 0
0 0
0 0
0 0
0 0
0 0
0 0
0 0
0 0
0 0
0 0
0 0
0 0
0 0
0 0
0 0
0 0
0 0
0 0
0 0
0 0
0 0
0 0
0 0
0 0
0 0
0 0
0 0
0 0
0 0
0 0
0 0
0 0
0 0
0 0
0 0
0 0
0 0
0 0
0 0
0 0
0 0
0 0
0 0
0 0
0 0
0 0
0 0
0 0
0 0
0 0
0 0
0 0
0 0
0 0
0 0
0 0
0 0
0 0
0 0
0 0
0 0
0 0
0 0
0 0
0 0
0 0
0 0
0 0
0 0
0 0
0 0
0 0
0 0
0 0
0 0
0 0
0 0
0 0
0 0
0 0
0 0
0 0
0 0
0 0
0 0
0 0
0 0
0 0
0 0
0 0
0 0
0 0
0 0
0 0
0 0
0 0
0 0
0 0
0 0
0 0
0 0
0 0
0 0
0 0
0 0
0 0
0 0
0 0
0 0
0 0
0 0
0 0
0 0
0 0
0 0
0 0
0 0
0 0
0 0
0 0
0 0
0 0
0 0
0 0
0 0
0 0
0 0
0 0
0 0
0 0
0 0
0 0
0 0
0 0
0 0
0 0
0 0
0 0
0 0
0 0
0 0
0 0
0 0
0 0
0 0
0 0
0 0
0 0
0 0
0 0
0 0
0 0
0 0
0 0
0 0
0 0
0 0
0 0
0 0
0 0
0 0
0 0
0 0
0 0
0 0
0 0
0 0
0 0
0 0
0 0
0 0
0 0
0 0
0 0
0 0
0 0
0 0
0 0
0 0
0 0
0 0
0 0
0 0
0 0
0 0
0 0
0 0
0 0
0 0
0 0
0 0
0 0
0 0
0 0
0 0
0 0
0 0
0 0
0 0
0 0
0 0
0 0
0 0
0 0
0 0
0 0
0 0
0 0
0 0
0 0
0 0
0 0
0 0
0 0
0 0
0 0
0 0
0 0
0 0
0 0
0 0
0 0
0 0
0 0
0 0
0 0
0 0
0 0
0 0
0 0
0 0
0 0
0 0
0 0
0 0
0 0
0 0
0 0
0 0
0 0
0 0
0 0
0 0
0 0
0 0
0 0
0 0
0 0
0 0
0 0
0 0
0 0
0 0
0 0
0 0
0 0
0 0
0 0
0 0
0 0
0 0
0 0
0 0
0 0
0 0
0 0
0 0
0 0
0 0
0 0
0 0
0 0
0 0
0 0
0 0
0 0
0 0
0 0
0 0
0 0
0 0
0 0
0 0
0 0
0 0
0 0
0 0
0 0
0 0
0 0
0 0
0 0
0 0
0 0
0 0
0 0
0 0
0 0
0 0
0 0
0 0
0 0
0 0
0 0
0 0
0 0
0 0
0 0
0 0
0 0
0 0
0 0
0 0
0 0
0 0
0 0
0 0
0 0
0 0
0 0
0 0
0 0
0 0
0 0
0 0
0 0
0 0
0 0
0 0
0 0
0 0
0 0
0 0
0 0
0 0
0 0
0 0
0 0
0 0
0 0
0 0
0 0
0 0
0 0
0 0
0 0
0 0
0 0
0 0
0 0
0 0
0 0
0 0
0 0
0 0
0 0
0 0
0 0
0 0
0 0
0 0
0 0
0 0
0 0
0 0
0 0
0 0
0 0
0 0
0 0
0 0
0 0
0 0
0 0
0 0
0 0
0 0
0 0
0 0
0 0
0 0
0 0
0 0
0 0
0 0
0 0
0 0
0 0
0 0
0 0
0 0
0 0
0 0
0 0
0 0
0 0
0 0
0 0
0 0
0 0
0 0
0 0
0 0
0 0
0 0
0 0
0 0
0 0
0 0
0 0
0 0
0 0
0 0
0 0
0 0
0 0
0 0
0 0
0 0
0 0
0 0
0 0
0 0
0 0
0 0
0 0
0 0
0 0
0 0
0 0
0 0
0 0
0 0
0 0
0 0
0 0
0 0
0 0
0 0
0 0
0 0
0 0
0 0
0 0
0 0
0 0
0 0
0 0
0 0
0 0
0 0
0 0
0 0
0 0
0 0
0 0
0 0
0 0
0 0
0 0
0 0
0 0
0 0
0 0
0 0
0 0
0 0
0 0
0 0
0 0
0 0
0 0
0 0
0 0
0 0
0 0
0 0
0 0
0 0
0 0
0 0
0 0
0 0
0 0
0 0
0 0
0 0
0 0
0 0
0 0
0 0
0 0
0 0
0 0
0 0
0 0
0 0
0 0
0 0
0 0
0 0
0 0
0 0
0 0
0 0
0 0
0 0
0 0
0 0
0 0
0 0
0 0
0 0
0 0
0 0
0 0
0 0
0 0
0 0
0 0
0 0
0 0
0 0
0 0
0 0
0 0
0 0
0 0
0 0
0 0
0 0
0 0
0 0
0 0
0 0
0 0
0 0
0 0
0 0
0 0
0 0
0 0
0 0
0 0
0 0
0 0
0 0
0 0
0 0
0 0
0 0
0 0
0 0
0 0
0 0
0 0
0 0
0 0
0 0
0 0
0 0
0 0
0 0
0 0
0 0
0 0
0 0
0 0
0 0
0 0
0 0
0 0
0 0
0 0
0 0
0 0
0 0
0 0
0 0
0 0
0 0
0 0
0 0
0 0
0 0
0 0
0 0
0 0
0 0
0 0
0 0
0 0
0 0
0 0
0 0
0 0
0 0
0 0
0 0
0 0
0 0
0 0
0 0
0 0
0 0
0 0
0 0
0 0
0 0
0 0
0 0
0 0
0 0
0 0
0 0
0 0
0 0
0 0
0 0
0 0
0 0
0 0
0 0
0 0
0 0
0 0
0 0
0 0
0 0
0 0
0 0
0 0
0 0
0 0
0 0
0 0
0 0
0 0
0 0
0 0
0 0
0 0
0 0
0 0
0 0
0 0
0 0
0 0
0 0
0 0
0 0
0 0
0 0
0 0
0 0
0 0
0 0
0 0
0 0
0 0
0 0
0 0
0 0
0 0
0 0
0 0
0 0
0 0
0 0
0 0
0 0
0 0
0 0
0 0
0 0
0 0
0 0
0 0
0 0
0 0
0 0
0 0
0 0
0 0
0 0
0 0
0 0
0 0
0 0
0 0
0 0
0 0
0 0
0 0
0 0
0 0
0 0
0 0
0 0
0 0
0 0
0 0
0 0
0 0
0 0
0 0
0 0
0 0
0 0
0 0
0 0
0 0
0 0
0 0
0 0
0 0
0 0
0 0
0 0
0 0
0 0
0 0
0 0
0 0
0 0
0 0
0 0
0 0
0 0
0 0
0 0
0 0
0 0
0 0
0 0
0 0
0 0
0 0
0 0
0 0
0 0
0 0
0 0
0 0
0 0
0 0
0 0
0 0
0 0
0 0
0 0
0 0
0 0
0 0
0 0
0 0
0 0
0 0
0 0
0 0
0 0
0 0
0 0
0 0
0 0
0 0
0 0
0 0
0 0
0 0
0 0
0 0
0 0
0 0
0 0
0 0
0 0
0 0
0 0
0 0
0 0
0 0
0 0
0 0
0 0
0 0
0 0
0 0
0 0
0 0
0 0
0 0
0 0
0 0
0 0
0 0
0 0
0 0
0 0
0 0
0 0
0 0
0 0
0 0
0 0
0 0
0 0
0 0
0 0
0 0
0 0
0 0
0 0
0 0
0 0
0 0
0 0
0 0
0 0
0 0
0 0
0 0
0 0
0 0
0 0
0 0
0 0
0 0
0 0
0 0
0 0
0 0
0 0
0 0
0 0
0 0
0 0
0 0
0 0
0 0
0 0
0 0
0 0
0 0
0 0
0 0
0 0
0 0
0 0
0 0
0 0
0 0
0 0
0 0
0 0
0 0
0 0
0 0
0 0
0 0
0 0
0 0
0 0
0 0
0 0
0 0
0 0
0 0
0 0
0 0
0 0
0 0
0 0
0 0
0 0
0 0
0 0
0 0
0 0
0 0
0 0
0 0
0 0
0 0
0 0
0 0
0 0
0 0
0 0
0 0
0 0
0 0
0 0
0 0
0 0
0 0
0 0
0 0
0 0
0 0
0 0
0 0
0 0
0 0
0 0
0 0
0 0
0 0
0 0
0 0
0 0
0 0
0 0
0 0
0 0
0 0
0 0
0 0
0 0
0 0
0 0
0 0
0 0
0 0
0 0
0 0
0 0
0 0
0 0
0 0
0 0
0 0
0 0
0 0
0 0
0 0
0 0
0 0
0 0
0 0
0 0
0 0
0 0
0 0
0 0
0 0
0 0
0 0
0 0
0 0
0 0
0 0
0 0
0 0
0 0
0 0
0 0
0 0
0 0
0 0
0 0
0 0
0 0
0 0
0 0
0 0
0 0
0 0
0 0
0 0
0 0
0 0
0 0
0 0
0 0
0 0
0 0
0 0
0 0
0 0
0 0
0 0
0 0
0 0
0 0
0 0
0 0
0 0
0 0
0 0
0 0
0 0
0 0
0 0
0 0
0 0
0 0
0 0
0 0
0 0
0 0
0 0
0 0
0 0
0 0
0 0
0 0
0 0
0 0
0 0
0 0
0 0
0 0
0 0
0 0
0 0
0 0
0 0
0 0
0 0
0 0
0 0
0 0
0 0
0 0
0 0
0 0
0 0
0 0
0 0
0 0
0 0
0 0
0 0
0 0
0 0
0 0
0 0
0 0
0 0
0 0
0 0
0 0
0 0
0 0
0 0
0 0
0 0
0 0
0 0
0 0
0 0
0 0
0 0
0 0
0 0
0 0
0 0
0 0
0 0
0 0
0 0
0 0
0 0
0 0
0 0
0 0
0 0
0 0
0 0
0 0
0 0
0 0
0 0
0 0
0 0
0 0
0 0
0 0
0 0
0 0
0 0
0 0
0 0
0 0
0 0
0 0
0 0
0 0
0 0
0 0
0 0
0 0
0 0
0 0
0 0
0 0
0 0
0 0
0 0
0 0
0 0
0 0
0 0
0 0
0 0
0 0
0 0
0 0
0 0
0 0
0 0
0 0
0 0
0 0
0 0
0 0
0 0
0 0
0 0
0 0
0 0
0 0
0 0
0 0
0 0
0 0
0 0
0 0
0 0
0 0
0 0
0 0
0 0
0 0
0 0
0 0
0 0
0 0
0 0
0 0
0 0
0 0
0 0
0 0
0 0
0 0
0 0
0 0
0 0
0 0
0 0
0 0
0 0
0 0
0 0
0 0
0 0
0 0
0 0
0 0
0 0
0 0
0 0
0 0
0 0
0 0
0 0
0 0
0 0
0 0
0 0
0 0
0 0
0 0
0 0
0 0
0 0
0 0
0 0
0 0
0 0
0 0
0 0
0 0
0 0
0 0
0 0
0 0
0 0
0 0
0 0
0 0
0 0
0 0
0 0
0 0
0 0
0 0
0 0
0 0
0 0
0 0
0 0
0 0
0 0
0 0
0 0
0 0
0 0
0 0
0 0
0 0
0 0
0 0
0 0
0 0
0 0
0 0
0 0
0 0
0 0
0 0
0 0
0 0
0 0
0 0
0 0
0 0
0 0
0 0
0 0
0 0
0 0
0 0
0 0
0 0
0 0
0 0
0 0
0 0
0 0
0 0
0 0
0 0
0 0
0 0
0 0
0 0
0 0
0 0
0 0
0 0
0 0
0 0
0 0
0 0
0 0
0 0
0 0
0 0
0 0
0 0
0 0
0 0
0 0
0 0
0 0
0 0
0 0
0 0
0 0
0 0
0 0
0 0
0 0
0 0
0 0
0 0
0 0
0 0
0 0
0 0
0 0
0 0
0 0
0 0
0 0
0 0
0 0
0 0
0 0
0 0
0 0
0 0
0 0
0 0
0 0
0 0
0 0
0 0
0 0
0 0
0 0
0 0
0 0
0 0
0 0
0 0
0 0
0 0
0 0
0 0
0 0
0 0
0 0
0 0
0 0
0 0
0 0
0 0
0 0
0 0
0 0
0 0
0 0
0 0
0 0
0 0
0 0
0 0
0 0
0 0
0 0
0 0
0 0
0 0
0 0
0 0
0 0
0 0
0 0
0 0
0 0
0 0
0 0
0 0
0 0
0 0
0 0
0 0
0 0
0 0
0 0
0 0
0 0
0 0
0 0
0 0
0 0
0 0
0 0
0 0
0 0
0 0
0 0
0 0
0 0
0 0
0 0
0 0
0 0
0 0
0 0
0 0
0 0
0 0
0 0
0 0
0 0
0 0
0 0
0 0
0 0
0 0
0 0
0 0
0 0
0 0
0 0
0 0
0 0
0 0
0 0
0 0
0 0
0 0
0 0
0 0
0 0
0 0
0 0
0 0
0 0
0 0
0 0
0 0
0 0
0 0
0 0
0 0
0 0
0 0
0 0
0 0
0 0
0 0
0 0
0 0
0 0
0 0
0 0
0 0
0 0
0 0
0 0
0 0
0 0
0 0
0 0
0 0
0 0
0 0
0 0
0 0
0 0
0 0
0 0
0 0
0 0
0 0
0 0
0 0
0 0
0 0
0 0
0 0
0 0
0 0
0 0
0 0
0 0
0 0
0 0
0 0
0 0
0 0
0 0
0 0
0 0
0 0
0 0
0 0
0 0
0 0
0 0
0 0
0 0
0 0
0 0
0 0
0 0
0 0
0 0
0 0
0 0
0 0
0 0
0 0
0 0
0 0
0 0
0 0
0 0
0 0
0 0
0 0
0 0
0 0
0 0
0 0
0 0
0 0
0 0
0 0
0 0
0 0
0 0
0 0
0 0
0 0
0 0
0 0
0 0
0 0
0 0
0 0
0 0
0 0
0 0
0 0
0 0
0 0
0 0
0 0
0 0
0 0
0 0
0 0
0 0
0 0
0 0
0 0
0 0
0 0
0 0
0 0
0 0
0 0
0 0
0 0
0 0
0 0
0 0
0 0
0 0
0 0
0 0
0 0
0 0
0 0
0 0
0 0
0 0
0 0
0 0
0 0
0 0
0 0
0 0
0 0
0 0
0 0
0 0
0 0
0 0
0 0
0 0
0 0
0 0
0 0
0 0
0 0
0 0
0 0
0 0
0 0
0 0
0 0
0 0
0 0
0 0
0 0
0 0
0 0
0 0
0 0
0 0
0 0
0 0
0 0
0 0
0 0
0 0
0 0
0 0
0 0
0 0
0 0
0 0
0 0
0 0
0 0
0 0
0 0
0 0
0 0
0 0
0 0
0 0
0 0
0 0
0 0
0 0
0 0
0 0
0 0
0 0
0 0
0 0
0 0
0 0
0 0
0 0
0 0
0 0
0 0
0 0
0 0
0 0
0 0
0 0
0 0
0 0
0 0
0 0
0 0
0 0
0 0
0 0
0 0
0 0
0 0
0 0
0 0
0 0
0 0
0 0
0 0
0 0
0 0
0 0
0 0
0 0
0 0
0 0
0 0
0 0
0 0
0 0
0 0
0 0
0 0
0 0
0 0
0 0
0 0
0 0
0 0
0 0
0 0
0 0
0 0
0 0
0 0
0 0
0 0
0 0
0 0
0 0
0 0
0 0
0 0
0 0
0 0
0 0
0 0
0 0
0 0
0 0
0 0
0 0
0 0
0 0
0 0
0 0
0 0
0 0
0 0
0 0
0 0
0 0
0 0
0 0
0 0
0 0
0 0
0 0
0 0
0 0
0 0
0 0
0 0
0 0
0 0
0 0
0 0
0 0
0 0
0 0
0 0
0 0
0 0
0 0
0 0
0 0
0 0
0 0
0 0
0 0
0 0
0 0
0 0
0 0
0 0
0 0
0 0
0 0
0 0
0 0
0 0
0 0
0 0
0 0
0 0
0 0
0 0
0 0
0 0
0 0
0 0
0 0
0 0
0 0
0 0
0 0
0 0
0 0
0 0
0 0
0 0
0 0
0 0
0 0
0 0
0 0
0 0
0 0
0 0
0 0
0 0
0 0
0 0
0 0
0 0
0 0
0 0
0 0
0 0
0 0
0 0
0 0
0 0
0 0
0 0
0 0
0 0
0 0
0 0
0 0
0 0
0 0
0 0
0 0
0 0
0 0
0 0
0 0
0 0
0 0
0 0
0 0
0 0
0 0
0 0
0 0
0 0
0 0
0 0
0 0
0 0
0 0
0 0
0 0
0 0
0 0
0 0
0 0
0 0
0 0
0 0
0 0
0 0
0 0
0 0
0 0
0 0
0 0
0 0
0 0
0 0
0 0
0 0
0 0
0 0
0 0
0 0
0 0
0 0
0 0
0 0
0 0
0 0
0 0
0 0
0 0
0 0
0 0
0 0
0 0
0 0
0 0
0 0
0 0
0 0
0 0
0 0
0 0
0 0
0 0
0 0
0 0
0 0
0 0
0 0
0 0
0 0
0 0
0 0
0 0
0 0
0 0
0 0
0 0
0 0
0 0
0 0
0 0
0 0
0 0
0 0
0 0
0 0
0 0
0 0
0 0
0 0
0 0
0 0
0 0
0 0
0 0
0 0
0 0
0 0
0 0
0 0
0 0
0 0
0 0
0 0
0 0
0 0
0 0
0 0
0 0
0 0
0 0
0 0
0 0
0 0
0 0
0 0
0 0
0 0
0 0
0 0
0 0
0 0
0 0
0 0
0 0
0 0
0 0
0 0
0 0
0 0
0 0
0 0
0 0
0 0
0 0
0 0
0 0
0 0
0 0
0 0
0 0
0 0
0 0
0 0
0 0
0 0
0 0
0 0
0 0
0 0
0 0
0 0
0 0
0 0
0 0
0 0
0 0
0 0
0 0
0 0
0 0
0 0
0 0
0 0
0 0
0 0
0 0
0 0
0 0
0 0
0 0
0 0
0 0
0 0
0 0
0 0
0 0
0 0
0 0
0 0
0 0
0 0
0 0
0 0
0 0
0 0
0 0
0 0
0 0
0 0
0 0
0 0
0 0
0 0
0 0
0 0
0 0
0 0
0 0
0 0
0 0
0 0
0 0
0 0
0 0
0 0
0 0
0 0
0 0
0 0
0 0
0 0
0 0
0 0
0 0
0 0
0 0
0 0
0 0
0 0
0 0
0 0
0 0
0 0
0 0
0 0
0 0
0 0
0 0
0 0
0 0
0 0
0 0
0 0
0 0
0 0
0 0
0 0
0 0
0 0
0 0
0 0
0 0
0 0
0 0
0 0
0 0
0 0
0 0
0 0
0 0
0 0
0 0
0 0
0 0
0 0
0 0
0 0
0 0
0 0
0 0
0 0
0 0
0 0
0 0
0 0
0 0
0 0
0 0
0 0
0 0
0 0
0 0
0 0
0 0
0 0
0 0
0 0
0 0
0 0
0 0
0 0
0 0
0 0
0 0
0 0
0 0
0 0
0 0
0 0
0 0
0 0
0 0
0 0
0 0
0 0
0 0
0 0
0 0
0 0
0 0
0 0
0 0
0 0
0 0
0 0
0 0
0 0
0 0
0 0
0 0
0 0
0 0
0 0
0 0
0 0
0 0
0 0
0 0
0 0
0 0
0 0
0 0
0 0
0 0
0 0
0 0
0 0
0 0
0 0
0 0
0 0
0 0
0 0
0 0
0 0
0 0
0 0
0 0
0 0
0 0
0 0
0 0
0 0
0 0
0 0
0 0
0 0
0 0
0 0
0 0
0 0
0 0
0 0
0 0
0 0
0 0
0 0
0 0
0 0
0 0
0 0
0 0
0 0
0 0
0 0
0 0
0 0
0 0
0 0
0 0
0 0
0 0
0 0
0 0
0 0
0 0
0 0
0 0
0 0
0 0
0 0
0 0
0 0
0 0
0 0
0 0
0 0
0 0
0 0
0 0
0 0
0 0
0 0
0 0
0 0
0 0
0 0
0 0
0 0
0 0
0 0
0 0
0 0
0 0
0 0
0 0
0 0
0 0
0 0
0 0
0 0
0 0
0 0
0 0
0 0
0 0
0 0
0 0
0 0
0 0
0 0
0 0
0 0
0 0
0 0
0 0
0 0
0 0
0 0
0 0
0 0
0 0
0 0
0 0
0 0
0 0
0 0
0 0
0 0
0 0
0 0
0 0
0 0
0 0
0 0
0 0
0 0
0 0
0 0
0 0
0 0
0 0
0 0
0 0
0 0
0 0
0 0
0 0
0 0
0 0
0 0
0 0
0 0
0 0
0 0
0 0
0 0
0 0
0 0
0 0
0 0
0 0
0 0
0 0
0 0
0 0
0 0
0 0
0 0
0 0
0 0
0 0
0 0
0 0
0 0
0 0
0 0
0 0
0 0
0 0
0 0
0 0
0 0
0 0
0 0
0 0
0 0
0 0
0 0
0 0
0 0
0 0
0 0
0 0
0 0
0 0
0 0
0 0
0 0
0 0
0 0
0 0
0 0
0 0
0 0
0 0
0 0
0 0
0 0
0 0
0 0
0 0
0 0
0 0
0 0
0 0
0 0
0 0
0 0
0 0
0 0
0 0
0 0
0 0
0 0
0 0
0 0
0 0
0 0
0 0
0 0
0 0
0 0
0 0
0 0
0 0
0 0
0 0
0 0
0 0
0 0
0 0
0 0
0 0
0 0
0 0
0 0
0 0
0 0
0 0
0 0
0 0
0 0
0 0
0 0
0 0
0 0
0 0
0 0
0 0
0 0
0 0
0 0
0 0
0 0
0 0
0 0
0 0
0 0
0 0
0 0
0 0
0 0
0 0
0 0
0 0
0 0
0 0
0 0
0 0
0 0
0 0
0 0
0 0
0 0
0 0
0 0
0 0
0 0
0 0
0 0
0 0
0 0
0 0
0 0
0 0
0 0
0 0
0 0
0 0
0 0
0 0
0 0
0 0
0 0
0 0
0 0
0 0
0 0
0 0
0 0
0 0
0 0
0 0
0 0
0 0
0 0
0 0
0 0
0 0
0 0
0 0
0 0
0 0
0 0
0 0
0 0
0 0
0 0
0 0
0 0
0 0
0 0
0 0
0 0
0 0
0 0
0 0
0 0
0 0
0 0
0 0
0 0
0 0
0 0
0 0
0 0
0 0
0 0
0 0
0 0
0 0
0 0
0 0
0 0
0 0
0 0
0 0
0 0
0 0
0 0
0 0
0 0
0 0
0 0
0 0
0 0
0 0
0 0
0 0
0 0
0 0
0 0
0 0
0 0
0 0
0 0
0 0
0 0
0 0
0 0
0 0
0 0
0 0
0 0
0 0
0 0
0 0
0 0
0 0
0 0
0 0
0 0
0 0
0 0
0 0
0 0
0 0
0 0
0 0
0 0
0 0
0 0
0 0
0 0
0 0
0 0
0 0
0 0
0 0
0 0
0 0
0 0
0 0
0 0
0 0
0 0
0 0
0 0
0 0
0 0
0 0
0 0
0 0
0 0
0 0
0 0
0 0
0 0
0 0
0 0
0 0
0 0
0 0
0 0
0 0
0 0
0 0
0 0
0 0
0 0
0 0
0 0
0 0
0 0
0 0
0 0
0 0
0 0
0 0
0 0
0 0
0 0
0 0
0 0
0 0
0 0
0 0
0 0
0 0
0 0
0 0
0 0
0 0
0 0
0 0
0 0
0 0
0 0
0 0
0 0
0 0
0 0
0 0
0 0
0 0
0 0
0 0
0 0
0 0
0 0
0 0
0 0
0 0
0 0
0 0
0 0
0 0
0 0
0 0
0 0
0 0
0 0
0 0
0 0
0 0
0 0
0 0
0 0
0 0
0 0
0 0
0 0
0 0
0 0
0 0
0 0
0 0
0 0
0 0
0 0
0 0
0 0
0 0
0 0
0 0
0 0
0 0
0 0
0 0
0 0
0 0
0 0
0 0
0 0
0 0
0 0
0 0
0 0
0 0
0 0
0 0
0 0
0 0
0 0
0 0
0 0
0 0
0 0
0 0
0 0
0 0
0 0
0 0
0 0
0 0
0 0
0 0
0 0
0 0
0 0
0 0
0 0
0 0
0 0
0 0
0 0
0 0
0 0
0 0
0 0
0 0
0 0
0 0
0 0
0 0
0 0
0 0
0 0
0 0
0 0
0 0
0 0
0 0
0 0
0 0
0 0
0 0
0 0
0 0
0 0
0 0
0 0
0 0
0 0
0 0
0 0
0 0
0 0
0 0
0 0
0 0
0 0
0 0
0 0
0 0
0 0
0 0
0 0
0 0
0 0
0 0
0 0
0 0
0 0
0 0
0 0
0 0
0 0
0 0
0 0
0 0
0 0
0 0
0 0
0 0
0 0
0 0
0 0
0 0
0 0
0 0
0 0
0 0
0 0
0 0
0 0
0 0
0 0
0 0
0 0
0 0
0 0
0 0
0 0
0 0
0 0
0 0
0 0
0 0
0 0
0 0
0 0
0 0
0 0
0 0
0 0
0 0
0 0
0 0
0 0
0 0
0 0
0 0
0 0
0 0
0 0
0 0
0 0
0 0
0 0
0 0
0 0
0 0
0 0
0 0
0 0
0 0
0 0
0 0
0 0
0 0
0 0
0 0
0 0
0 0
0 0
0 0
0 0
0 0
0 0
0 0
0 0
0 0
0 0
0 0
0 0
0 0
0 0
0 0
0 0
0 0
0 0
0 0
0 0
0 0
0 0
0 0
0 0
0 0
0 0
0 0
0 0
0 0
0 0
0 0
0 0
0 0
0 0
0 0
0 0
0 0
0 0
0 0
0 0
0 0
0 0
0 0
0 0
0 0
0 0
0 0
0 0
0 0
0 0
0 0
0 0
0 0
0 0
0 0
0 0
0 0
0 0
0 0
0 0
0 0
0 0
0 0
0 0
0 0
0 0
0 0
0 0
0 0
0 0
0 0
0 0
0 0
0 0
0 0
0 0
0 0
0 0
0 0
0 0
0 0
0 0
0 0
0 0
0 0
0 0
0 0
0 0
0 0
0 0
0 0
0 0
0 0
0 0
0 0
0 0
0 0
0 0
0 0
0 0
0 0
0 0
0 0
0 0
0 0
0 0
0 0
0 0
0 0
0 0
0 0
0 0
0 0
0 0
0 0
0 0
0 0
0 0
0 0
0 0
0 0
0 0
0 0
0 0
0 0
0 0
0 0
0 0
0 0
0 0
0 0
0 0
0 0
0 0
0 0
0 0
0 0
0 0
0 0
0 0
0 0
0 0
0 0
0 0
0 0
0 0
0 0
0 0
0 0
0 0
0 0
0 0
0 0
0 0
0 0
0 0
0 0
0 0
0 0
0 0
0 0
0 0
0 0
0 0
0 0
0 0
0 0
0 0
0 0
0 0
0 0
0 0
0 0
0 0
0 0
0 0
0 0
0 0
0 0
0 0
0 0
0 0
0 0
0 0
0 0
0 0
0 0
0 0
0 0
0 0
0 0
0 0
0 0
0 0
0 0
0 0
0 0
0 0
0 0
0 0
0 0
0 0
0 0
0 0
0 0
0 0
0 0
0 0
0 0
0 0
0 0
0 0
0 0
0 0
0 0
0 0
0 0
0 0
0 0
0 0
0 0
0 0
0 0
0 0
0 0
0 0
0 0
0 0
0 0
0 0
0 0
0 0
0 0
0 0
0 0
0 0
0 0
0 0
0 0
0 0
0 0
0 0
0 0
0 0
0 0
0 0
0 0
0 0
0 0
0 0
0 0
0 0
0 0
0 0
0 0
0 0
0 0
0 0
0 0
0 0
0 0
0 0
0 0
0 0
0 0
0 0
0 0
0 0
0 0
0 0
0 0
0 0
0 0
0 0
0 0
0 0
0 0
0 0
0 0
0 0
0 0
0 0
0 0
0 0
0 0
0 0
0 0
0 0
0 0
0 0
0 0
0 0
0 0
0 0
0 0
0 0
0 0
0 0
0 0
0 0
0 0
0 0
0 0
0 0
0 0
0 0
0 0
0 0
0 0
0 0
0 0
0 0
0 0
0 0
0 0
0 0
0 0
0 0
0 0
0 0
0 0
0 0
0 0
0 0
0 0
0 0
0 0
0 0
0 0
0 0
0 0
0 0
0 0
0 0
0 0
0 0
0 0
0 0
0 0
0 0
0 0
0 0
0 0
0 0
0 0
0 0
0 0
0 0
0 0
0 0
0 0
0 0
0 0
0 0
0 0
0 0
0 0
0 0
0 0
0 0
0 0
0 0
0 0
0 0
0 0
0 0
0 0
0 0
0 0
0 0
0 0
0 0
0 0
0 0
0 0
0 0
0 0
0 0
0 0
0 0
0 0
0 0
0 0
0 0
0 0
0 0
0 0
0 0
0 0
0 0
0 0
0 0
0 0
0 0
0 0
0 0
0 0
0 0
0 0
0 0
0 0
0 0
0 0
0 0
0 0
0 0
0 0
0 0
0 0
0 0
0 0
0 0
0 0
0 0
0 0
0 0
0 0
0 0
0 0
0 0
0 0
0 0
0 0
0 0
0 0
0 0
0 0
0 0
0 0
0 0
0 0
0 0
0 0
0 0
0 0
0 0
0 0
0 0
0 0
0 0
0 0
0 0
0 0
0 0
0 0
0 0
0 0
0 0
0 0
0 0
0 0
0 0
0 0
0 0
0 0
0 0
0 0
0 0
0 0
0 0
0 0
0 0
0 0
0 0
0 0
0 0
0 0
0 0
0 0
0 0
0 0
0 0
0 0
0 0
0 0
0 0
0 0
0 0
0 0
0 0
0 0
0 0
0 0
0 0
0 0
0 0
0 0
0 0
0 0
0 0
0 0
0 0
0 0
0 0
0 0
0 0
0 0
0 0
0 0
0 0
0 0
0 0
0 0
0 0
0 0
0 0
0 0
0 0
0 0
0 0
0 0
0 0
0 0
0 0
0 0
0 0
0 0
0 0
0 0
0 0
0 0
0 0
0 0
0 0
0 0
0 0
0 0
0 0
0 0
0 0
0 0
0 0
0 0
0 0
0 0
0 0
0 0
0 0
0 0
0 0
0 0
0 0
0 0
0 0
0 0
0 0
0 0
0 0
0 0
0 0
0 0
0 0
0 0
0 0
0 0
0 0
0 0
0 0
0 0
0 0
0 0
0 0
0 0
0 0
0 0
0 0
0 0
0 0
0 0
0 0
0 0
0 0
0 0
0 0
0 0
0 0
0 0
0 0
0 0
0 0
0 0
0 0
0 0
0 0
0 0
0 0
0 0
0 0
0 0
0 0
0 0
0 0
0 0
0 0
0 0
0 0
0 0
0 0
0 0
0 0
0 0
0 0
0 0
0 0
0 0
0 0
0 0
0 0
0 0
0 0
0 0
0 0
0 0
0 0
0 0
0 0
0 0
0 0
0 0
0 0
0 0
0 0
0 0
0 0
0 0
0 0
0 0
0 0
0 0
0 0
0 0
0 0
0 0
0 0
0 0
0 0
0 0
0 0
0 0
0 0
0 0
0 0
0 0
0 0
0 0
0 0
0 0
0 0
0 0
0 0
0 0
0 0
0 0
0 0
0 0
0 0
0 0
0 0
0 0
0 0
0 0
0 0
0 0
0 0
0 0
0 0
0 0
0 0
0 0
0 0
0 0
0 0
0 0
0 0
0 0
0 0
0 0
0 0
0 0
0 0
0 0
0 0
0 0
0 0
0 0
0 0
0 0
0 0
0 0
0 0
0 0
0 0
0 0
0 0
0 0
0 0
0 0
0 0
0 0
0 0
0 0
0 0
0 0
0 0
0 0
0 0
0 0
0 0
0 0
0 0
0 0
0 0
0 0
0 0
0 0
0 0
0 0
0 0
0 0
0 0
0 0
0 0
0 0
0 0
0 0
0 0
0 0
0 0
0 0
0 0
0 0
0 0
0 0
0 0
0 0
0 0
0 0
0 0
0 0
0 0
0 0
0 0
0 0
0 0
0 0
0 0
0 0
0 0
0 0
0 0
0 0
0 0
0 0
0 0
0 0
0 0
0 0
0 0
0 0
0 0
0 0
0 0
0 0
0 0
0 0
0 0
0 0
0 0
0 0
0 0
0 0
0 0
0 0
0 0
0 0
0 0
0 0
0 0
0 0
0 0
0 0
0 0
0 0
0 0
0 0
0 0
0 0
0 0
0 0
0 0
0 0
0 0
0 0
0 0
0 0
0 0
0 0
0 0
0 0
0 0
0 0
0 0
0 0
0 0
0 0
0 0
0 0
0 0
0 0
0 0
0 0
0 0
0 0
0 0
0 0
0 0
0 0
0 0
0 0
0 0
0 0
0 0
0 0
0 0
0 0
0 0
0 0
0 0
0 0
0 0
0 0
0 0
0 0
0 0
0 0
0 0
0 0
0 0
0 0
0 0
0 0
0 0
0 0
0 0
0 0
0 0
0 0
0 0
0 0
0 0
0 0
0 0
0 0
0 0
0 0
0 0
0 0
0 0
0 0
0 0
0 0
0 0
0 0
0 0
0 0
0 0
0 0
0 0
0 0
0 0
0 0
0 0
0 0
0 0
0 0
0 0
0 0
0 0
0 0
0 0
0 0
0 0
0 0
0 0
0 0
0 0
0 0
0 0
0 0
0 0
0 0
0 0
0 0
0 0
0 0
0 0
0 0
0 0
0 0
0 0
0 0
0 0
0 0
0 0
0 0
0 0
0 0
0 0
0 0
0 0
0 0
0 0
0 0
0 0
0 0
0 0
0 0
0 0
0 0
0 0
0 0
0 0
0 0
0 0
0 0
0 0
0 0
0 0
0 0
0 0
0 0
0 0
0 0
0 0
0 0
0 0
0 0
0 0
0 0
0 0
0 0
0 0
0 0
0 0
0 0
0 0
0 0
0 0
0 0
0 0
0 0
0 0
0 0
0 0
0 0
0 0
0 0
0 0
0 0
0 0
0 0
0 0
0 0
0 0
0 0
0 0
0 0
0 0
0 0
0 0
0 0
0 0
0 0
0 0
0 0
0 0
0 0
0 0
0 0
0 0
0 0
0 0
0 0
0 0
0 0
0 0
0 0
0 0
0 0
0 0
0 0
0 0
0 0
0 0
0 0
0 0
0 0
0 0
0 0
0 0
0 0
0 0
0 0
0 0
0 0
0 0
0 0
0 0
0 0
0 0
0 0
0 0
0 0
0 0
0 0
0 0
0 0
0 0
0 0
0 0
0 0
0 0
0 0
0 0
0 0
0 0
0 0
0 0
0 0
0 0
0 0
0 0
0 0
0 0
0 0
0 0
0 0
0 0
0 0
0 0
0 0
0 0
0 0
0 0
0 0
0 0
0 0
0 0
0 0
0 0
0 0
0 0
0 0
0 0
0 0
0 0
0 0
0 0
0 0
0 0
0 0
0 0
0 0
0 0
0 0
0 0
0 0
0 0
0 0
0 0
0 0
0 0
0 0
0 0
0 0
0 0
0 0
0 0
0 0
0 0
0 0
0 0
0 0
0 0
0 0
0 0
0 0
0 0
0 0
0 0
0 0
0 0
0 0
0 0
0 0
0 0
0 0
0 0
0 0
0 0
0 0
0 0
0 0
0 0
0 0
0 0
0 0
0 0
0 0
0 0
0 0
0 0
0 0
0 0
0 0
0 0
0 0
0 0
0 0
0 0
0 0
0 0
0 0
0 0
0 0
0 0
0 0
0 0
0 0
0 0
0 0
0 0
0 0
0 0
0 0
0 0
0 0
0 0
0 0
0 0
0 0
0 0
0 0
0 0
0 0
0 0
0 0
0 0
0 0
0 0
0 0
0 0
0 0
0 0
0 0
0 0
0 0
0 0
0 0
0 0
0 0
0 0
0 0
0 0
0 0
0 0
0 0
0 0
0 0
0 0
0 0
0 0
0 0
0 0
0 0
0 0
0 0
0 0
0 0
0 0
0 0
0 0
0 0
0 0
0 0
0 0
0 0
0 0
0 0
0 0
0 0
0 0
0 0
0 0
0 0
0 0
0 0
0 0
0 0
0 0
0 0
0 0
0 0
0 0
0 0
0 0
0 0
0 0
0 0
0 0
0 0
0 0
0 0
0 0
0 0
0 0
0 0
0 0
0 0
0 0
0 0
0 0
0 0
0 0
0 0
0 0
0 0
0 0
0 0
0 0
0 0
0 0
0 0
0 0
0 0
0 0
0 0
0 0
0 0
0 0
0 0
0 0
0 0
0 0
0 0
0 0
0 0
0 0
0 0
0 0
0 0
0 0
0 0
0 0
0 0
0 0
0 0
0 0
0 0
0 0
0 0
0 0
0 0
0 0
0 0
0 0
0 0
0 0
0 0
0 0
0 0
0 0
0 0
0 0
0 0
0 0
0 0
0 0
0 0
0 0
0 0
0 0
0 0
0 0
0 0
0 0
0 0
0 0
0 0
0 0
0 0
0 0
0 0
0 0
0 0
0 0
0 0
0 0
0 0
0 0
0 0
0 0
0 0
0 0
0 0
0 0
0 0
0 0
0 0
0 0
0 0
0 0
0 0
0 0
0 0
0 0
0 0
0 0
0 0
0 0
0 0
0 0
0 0
0 0
0 0
0 0
0 0
0 0
0 0
0 0
0 0
0 0
0 0
0 0
0 0
0 0
0 0
0 0
0 0
0 0
0 0
0 0
0 0
0 0
0 0
0 0
0 0
0 0
0 0
0 0
0 0
0 0
0 0
0 0
0 0
0 0
0 0
0 0
0 0
0 0
0 0
0 0
0 0
0 0
0 0
0 0
0 0
0 0
0 0
0 0
0 0
0 0
0 0
0 0
0 0
0 0
0 0
0 0
0 0
0 0
0 0
0 0
0 0
0 0
0 0
0 0
0 0
0 0
0 0
0 0
0 0
0 0
0 0
0 0
0 0
0 0
0 0
0 0
0 0
0 0
0 0
0 0
0 0
0 0
0 0
0 0
0 0
0 0
0 0
0 0
0 0
0 0
0 0
0 0
0 0
0 0
0 0
0 0
0 0
0 0
0 0
0 0
0 0
0 0
0 0
0 0
0 0
0 0
0 0
0 0
0 0
0 0
0 0
0 0
0 0
0 0
0 0
0 0
0 0
0 0
0 0
0 0
0 0
0 0
0 0
0 0
0 0
0 0
0 0
0 0
0 0
0 0
0 0
0 0
0 0
0 0
0 0
0 0
0 0
0 0
0 0
0 0
0 0
0 0
0 0
0 0
0 0
0 0
0 0
0 0
0 0
0 0
0 0
0 0
0 0
0 0
0 0
0 0
0 0
0 0
0 0
0 0
0 0
0 0
0 0
0 0
0 0
0 0
0 0
0 0
0 0
0 0
0 0
0 0
0 0
0 0
0 0
0 0
0 0
0 0
0 0
0 0
0 0
0 0
0 0
0 0
0 0
0 0
0 0
0 0
0 0
0 0
0 0
0 0
0 0
0 0
0 0
0 0
0 0
0 0
0 0
0 0
0 0
0 0
0 0
0 0
0 0
0 0
0 0
0 0
0 0
0 0
0 0
0 0
0 0
0 0
0 0
0 0
0 0
0 0
0 0
0 0
0 0
0 0
0 0
0 0
0 0
0 0
0 0
0 0
0 0
0 0
0 0
0 0
0 0
0 0
0 0
0 0
0 0
0 0
0 0
0 0
0 0
0 0
0 0
0 0
0 0
0 0
0 0
0 0
0 0
0 0
0 0
0 0
0 0
0 0
0 0
0 0
0 0
0 0
0 0
0 0
0 0
0 0
0 0
0 0
0 0
0 0
0 0
0 0
0 0
0 0
0 0
0 0
0 0
0 0
0 0
0 0
0 0
0 0
0 0
0 0
0 0
0 0
0 0
0 0
0 0
0 0
0 0
0 0
0 0
0 0
0 0
0 0
0 0
0 0
0 0
0 0
0 0
0 0
0 0
0 0
0 0
0 0
0 0
0 0
0 0
0 0
0 0
0 0
0 0
0 0
0 0
0 0
0 0
0 0
0 0
0 0
0 0
0 0
0 0
0 0
0 0
0 0
0 0
0 0
0 0
0 0
0 0
0 0
0 0
0 0
0 0
0 0
0 0
0 0
0 0
0 0
0 0
0 0
0 0
0 0
0 0
0 0
0 0
0 0
0 0
0 0
0 0
0 0
0 0
0 0
0 0
0 0
0 0
0 0
0 0
0 0
0 0
0 0
0 0
0 0
0 0
0 0
0 0
0 0
0 0
0 0
0 0
0 0
0 0
0 0
0 0
0 0
0 0
0 0
0 0
0 0
0 0
0 0
0 0
0 0
0 0
0 0
0 0
0 0
0 0
0 0
0 0
0 0
0 0
0 0
0 0
0 0
0 0
0 0
0 0
0 0
0 0
0 0
0 0
0 0
0 0
0 0
0 0
0 0
0 0
0 0
0 0
0 0
0 0
0 0
0 0
0 0
0 0
0 0
0 0
0 0
0 0
0 0
0 0
0 0
0 0
0 0
0 0
0 0
0 0
0 0
0 0
0 0
0 0
0 0
0 0
0 0
0 0
0 0
0 0
0 0
0 0
0 0
0 0
0 0
0 0
0 0
0 0
0 0
0 0
0 0
0 0
0 0
0 0
0 0
0 0
0 0
0 0
0 0
0 0
0 0
0 0
0 0
0 0
0 0
0 0
0 0
0 0
0 0
0 0
0 0
0 0
0 0
0 0
0 0
0 0
0 0
0 0
0 0
0 0
0 0
0 0
0 0
0 0
0 0
0 0
0 0
0 0
0 0
0 0
0 0
0 0
0 0
0 0
0 0
0 0
0 0
0 0
0 0
0 0
0 0
0 0
0 0
0 0
0 0
0 0
0 0
0 0
0 0
0 0
0 0
0 0
0 0
0 0
0 0
0 0
0 0
0 0
0 0
0 0
0 0
0 0
0 0
0 0
0 0
0 0
0 0
0 0
0 0
0 0
0 0
0 0
0 0
0 0
0 0
0 0
0 0
0 0
0 0
0 0
0 0
0 0
0 0
0 0
0 0
0 0
0 0
0 0
0 0
0 0
0 0
0 0
0 0
0 0
0 0
0 0
0 0
0 0
0 0
0 0
0 0
0 0
0 0
0 0
0 0
0 0
0 0
0 0
0 0
0 0
0 0
0 0
0 0
0 0
0 0
0 0
0 0
0 0
0 0
0 0
0 0
0 0
0 0
0 0
0 0
0 0
0 0
0 0
0 0
0 0
0 0
0 0
0 0
0 0
0 0
0 0
0 0
0 0
0 0
0 0
0 0
0 0
0 0
0 0
0 0
0 0
0 0
0 0
0 0
0 0
0 0
0 0
0 0
0 0
0 0
0 0
0 0
0 0
0 0
0 0
0 0
0 0
0 0
0 0
0 0
0 0
0 0
0 0
0 0
0 0
0 0
0 0
0 0
0 0
0 0
0 0
0 0
0 0
0 0
0 0
0 0
0 0
0 0
0 0
0 0
0 0
0 0
0 0
0 0
0 0
0 0
0 0
0 0
0 0
0 0
0 0
0 0
0 0
0 0
0 0
0 0
0 0
0 0
0 0
0 0
0 0
0 0
0 0
0 0
0 0
0 0
0 0
0 0
0 0
0 0
0 0
0 0
0 0
0 0
0 0
0 0
0 0
0 0
0 0
0 0
0 0
0 0
0 0
0 0
0 0
0 0
0 0
0 0
0 0
0 0
0 0
0 0
0 0
0 0
0 0
0 0
0 0
0 0
0 0
0 0
0 0
0 0
0 0
0 0
0 0
0 0
0 0
0 0
0 0
0 0
0 0
0 0
0 0
0 0
0 0
0 0
0 0
0 0
0 0
0 0
0 0
0 0
0 0
0 0
0 0
0 0
0 0
0 0
0 0
0 0
0 0
0 0
0 0
0 0
0 0
0 0
0 0
0 0
0 0
0 0
0 0
0 0
0 0
0 0
0 0
0 0
0 0
0 0
0 0
0 0
0 0
0 0
0 0
0 0
0 0
0 0
0 0
0 0
0 0
0 0
0 0
0 0
0 0
0 0
0 0
0 0
0 0
0 0
0 0
0 0
0 0
0 0
0 0
0 0
0 0
0 0
0 0
0 0
0 0
0 0
0 0
0 0
0 0
0 0
0 0
0 0
0 0
0 0
0 0
0 0
0 0
0 0
0 0
0 0
0 0
0 0
0 0
0 0
0 0
0 0
0 0
0 0
0 0
0 0
0 0
0 0
0 0
0 0
0 0
0 0
0 0
0 0
0 0
0 0
0 0
0 0
0 0
0 0
0 0
0 0
0 0
0 0
0 0
0 0
0 0
0 0
0 0
0 0
0 0
0 0
0 0
0 0
0 0
0 0
0 0
0 0
0 0
0 0
0 0
0 0
0 0
0 0
0 0
0 0
0 0
0 0
0 0
0 0
0 0
0 0
0 0
0 0
0 0
0 0
0 0
0 0
0 0
0 0
0 0
0 0
0 0
0 0
0 0
0 0
0 0
0 0
0 0
0 0
0 0
0 0
0 0
0 0
0 0
0 0
0 0
0 0
0 0
0 0
0 0
0 0
0 0
0 0
0 0
0 0
0 0
0 0
0 0
0 0
0 0
0 0
0 0
0 0
0 0
0 0
0 0
0 0
0 0
0 0
0 0
0 0
0 0
0 0
0 0
0 0
0 0
0 0
0 0
0 0
0 0
0 0
0 0
0 0
0 0
0 0
0 0
0 0
0 0
0 0
0 0
0 0
0 0
0 0
0 0
0 0
0 0
0 0
0 0
0 0
0 0
0 0
0 0
0 0
0 0
0 0
0 0
0 0
0 0
0 0
0 0
0 0
0 0
0 0
0 0
0 0
0 0
0 0
0 0
0 0
0 0
0 0
0 0
0 0
0 0
0 0
0 0
0 0
0 0
0 0
0 0
0 0
0 0
0 0
0 0
0 0
0 0
0 0
0 0
0 0
0 0
0 0
0 0
0 0
0 0
0 0
0 0
0 0
0 0
0 0
0 0
0 0
0 0
0 0
0 0
0 0
0 0
0 0
0 0
0 0
0 0
0 0
0 0
0 0
0 0
0 0
0 0
0 0
0 0
0 0
0 0
0 0
0 0
0 0
0 0
0 0
0 0
0 0
0 0
0 0
0 0
0 0
0 0
0 0
0 0
0 0
0 0
0 0
0 0
0 0
0 0
0 0
0 0
0 0
0 0
0 0
0 0
0 0
0 0
0 0
0 0
0 0
0 0
0 0
0 0
0 0
0 0
0 0
0 0
0 0
0 0
0 0
0 0
0 0
0 0
0 0
0 0
0 0
0 0
0 0
0 0
0 0
0 0
0 0
0 0
0 0
0 0
0 0
0 0
0 0
0 0
0 0
0 0
0 0
0 0
0 0
0 0
0 0
0 0
0 0
0 0
0 0
0 0
0 0
0 0
0 0
0 0
0 0
0 0
0 0
0 0
0 0
0 0
0 0
0 0
0 0
0 0
0 0
0 0
0 0
0 0
0 0
0 0
0 0
0 0
0 0
0 0
0 0
0 0
0 0
0 0
0 0
0 0
0 0
0 0
0 0
0 0
0 0
0 0
0 0
0 0
0 0
0 0
0 0
0 0
0 0
0 0
0 0
0 0
0 0
0 0
0 0
0 0
0 0
0 0
0 0
0 0
0 0
0 0
0 0
0 0
0 0
0 0
0 0
0 0
0 0
0 0
0 0
0 0
0 0
0 0
0 0
0 0
0 0
0 0
0 0
0 0
0 0
0 0
0 0
0 0
0 0
0 0
0 0
0 0
0 0
0 0
0 0
0 0
0 0
0 0
0 0
0 0
0 0
0 0
0 0
0 0
0 0
0 0
0 0
0 0
0 0
0 0
0 0
0 0
0 0
0 0
0 0
0 0
0 0
0 0
0 0
0 0
0 0
0 0
0 0
0 0
0 0
0 0
0 0
0 0
0 0
0 0
0 0
0 0
0 0
0 0
0 0
0 0
0 0
0 0
0 0
0 0
0 0
0 0
0 0
0 0
0 0
0 0
0 0
0 0
0 0
0 0
0 0
0 0
0 0
0 0
0 0
0 0
0 0
0 0
0 0
0 0
0 0
0 0
0 0
0 0
0 0
0 0
0 0
0 0
0 0
0 0
0 0
0 0
0 0
0 0
0 0
0 0
0 0
0 0
0 0
0 0
0 0
0 0
0 0
0 0
0 0
0 0
0 0
0 0
0 0
0 0
0 0
0 0
0 0
0 0
0 0
0 0
0 0
0 0
0 0
0 0
0 0
0 0
0 0
0 0
0 0
0 0
0 0
0 0
0 0
0 0
0 0
0 0
0 0
0 0
0 0
0 0
0 0
0 0
0 0
0 0
0 0
0 0
0 0
0 0
0 0
0 0
0 0
0 0
0 0
0 0
0 0
0 0
0 0
0 0
0 0
0 0
0 0
0 0
0 0
0 0
0 0
0 0
0 0
0 0
0 0
0 0
0 0
0 0
0 0
0 0
0 0
0 0
0 0
0 0
0 0
0 0
0 0
0 0
0 0
0 0
0 0
0 0
0 0
0 0
0 0
0 0
0 0
0 0
0 0
0 0
0 0
0 0
0 0
0 0
0 0
0 0
0 0
0 0
0 0
0 0
0 0
0 0
0 0
0 0
0 0
0 0
0 0
0 0
0 0
0 0
0 0
0 0
0 0
0 0
0 0
0 0
0 0
0 0
0 0
0 0
0 0
0 0
0 0
0 0
0 0
0 0
0 0
0 0
0 0
0 0
0 0
0 0
0 0
0 0
0 0
0 0
0 0
0 0
0 0
0 0
0 0
0 0
0 0
0 0
0 0
0 0
0 0
0 0
0 0
0 0
0 0
0 0
0 0
0 0
0 0
0 0
0 0
0 0
0 0
0 0
0 0
0 0
0 0
0 0
0 0
0 0
0 0
0 0
0 0
0 0
0 0
0 0
0 0
0 0
0 0
0 0
0 0
0 0
0 0
0 0
0 0
0 0
0 0
0 0
0 0
0 0
0 0
0 0
0 0
0 0
0 0
0 0
0 0
0 0
0 0
0 0
0 0
0 0
0 0
0 0
0 0
0 0
0 0
0 0
0 0
0 0
0 0
0 0
0 0
0 0
0 0
0 0
0 0
0 0
0 0
0 0
0 0
0 0
0 0
0 0
0 0
0 0
0 0
0 0
0 0
0 0
0 0
0 0
0 0
0 0
0 0
0 0
0 0
0 0
0 0
0 0
0 0
0 0
0 0
0 0
0 0
0 0
0 0
0 0
0 0
0 0
0 0
0 0
0 0
0 0
0 0
0 0
0 0
0 0
0 0
0 0
0 0
0 0
0 0
0 0
0 0
0 0
0 0
0 0
0 0
0 0
0 0
0 0
0 0
0 0
0 0
0 0
0 0
0 0
0 0
0 0
0 0
0 0
0 0
0 0
0 0
0 0
0 0
0 0
0 0
0 0
0 0
0 0
0 0
0 0
0 0
0 0
0 0
0 0
0 0
0 0
0 0
0 0
0 0
0 0
0 0
0 0
0 0
0 0
0 0
0 0
0 0
0 0
0 0
0 0
0 0
0 0
0 0
0 0
0 0
0 0
0 0
0 0
0 0
0 0
0 0
0 0
0 0
0 0
0 0
0 0
0 0
0 0
0 0
0 0
0 0
0 0
0 0
0 0
0 0
0 0
0 0
0 0
0 0
0 0
0 0
0 0
0 0
0 0
0 0
0 0
0 0
0 0
0 0
0 0
0 0
0 0
0 0
0 0
0 0
0 0
0 0
0 0
0 0
0 0
0 0
0 0
0 0
0 0
0 0
0 0
0 0
0 0
0 0
0 0
0 0
0 0
0 0
0 0
0 0
0 0
0 0
0 0
0 0
0 0
0 0
0 0
0 0
0 0
0 0
0 0
0 0
0 0
0 0
0 0
0 0
0 0
0 0
0 0
0 0
0 0
0 0
0 0
0 0
0 0
0 0
0 0
0 0
0 0
0 0
0 0
0 0
0 0
0 0
0 0
0 0
0 0
0 0
0 0
0 0
0 0
0 0
0 0
0 0
0 0
0 0
0 0
0 0
0 0
0 0
0 0
0 0
0 0
0 0
0 0
0 0
0 0
0 0
0 0
0 0
0 0
0 0
0 0
0 0
0 0
0 0
0 0
0 0
0 0
0 0
0 0
0 0
0 0
0 0
0 0
0 0
0 0
0 0
0 0
0 0
0 0
0 0
0 0
0 0
0 0
0 0
0 0
0 0
0 0
0 0
0 0
0 0
0 0
0 0
0 0
0 0
0 0
0 0
0 0
0 0
0 0
0 0
0 0
0 0
0 0
0 0
0 0
0 0
0 0
0 0
0 0
0 0
0 0
0 0
0 0
0 0
0 0
0 0
0 0
0 0
0 0
0 0
0 0
0 0
0 0
0 0
0 0
0 0
0 0
0 0
0 0
0 0
0 0
0 0
0 0
0 0
0 0
0 0
0 0
0 0
0 0
0 0
0 0
0 0
0 0
0 0
0 0
0 0
0 0
0 0
0 0
0 0
0 0
0 0
0 0
0 0
0 0
0 0
0 0
0 0
0 0
0 0
0 0
0 0
0 0
0 0
0 0
0 0
0 0
0 0
0 0
0 0
0 0
0 0
0 0
0 0
0 0
0 0
0 0
0 0
0 0
0 0
0 0
0 0
0 0
0 0
0 0
0 0
0 0
0 0
0 0
0 0
0 0
0 0
0 0
0 0
0 0
0 0
0 0
0 0
0 0
0 0
0 0
0 0
0 0
0 0
0 0
0 0
0 0
0 0
0 0
0 0
0 0
0 0
0 0
0 0
0 0
0 0
0 0
0 0
0 0
0 0
0 0
0 0
0 0
0 0
0 0
0 0
0 0
0 0
0 0
0 0
0 0
0 0
0 0
0 0
0 0
0 0
0 0
0 0
0 0
0 0
0 0
0 0
0 0
0 0
0 0
0 0
0 0
0 0
0 0
0 0
0 0
0 0
0 0
0 0
0 0
0 0
0 0
0 0
0 0
0 0
0 0
0 0
0 0
0 0
0 0
0 0
0 0
0 0
0 0
0 0
0 0
0 0
0 0
0 0
0 0
0 0
0 0
0 0
0 0
0 0
0 0
0 0
0 0
0 0
0 0
0 0
0 0
0 0
0 0
0 0
0 0
0 0
0 0
0 0
0 0
0 0
0 0
0 0
0 0
0 0
0 0
0 0
0 0
0 0
0 0
0 0
0 0
0 0
0 0
0 0
0 0
0 0
0 0
0 0
0 0
0 0
0 0
0 0
0 0
0 0
0 0
0 0
0 0
0 0
0 0
0 0
0 0
0 0
0 0
0 0
0 0
0 0
0 0
0 0
0 0
0 0
0 0
0 0
0 0
0 0
0 0
0 0
0 0
0 0
0 0
0 0
0 0
0 0
0 0
0 0
0 0
0 0
0 0
0 0
0 0
0 0
0 0
0 0
0 0
0 0
0 0
0 0
0 0
0 0
0 0
0 0
0 0
0 0
0 0
0 0
0 0
0 0
0 0
0 0
0 0
0 0
0 0
0 0
0 0
0 0
0 0
0 0
0 0
0 0
0 0
0 0
0 0
0 0
0 0
0 0
0 0
0 0
0 0
0 0
0 0
0 0
0 0
0 0
0 0
0 0
0 0
0 0
0 0
0 0
0 0
0 0
0 0
0 0
0 0
0 0
0 0
0 0
0 0
0 0
0 0
0 0
0 0
0 0
0 0
0 0
0 0
0 0
0 0
0 0
0 0
0 0
0 0
0 0
0 0
0 0
0 0
0 0
0 0
0 0
0 0
0 0
0 0
0 0
0 0
0 0
0 0
0 0
0 0
0 0
0 0
0 0
0 0
0 0
0 0
0 0
0 0
0 0
0 0
0 0
0 0
0 0
0 0
0 0
0 0
0 0
0 0
0 0
0 0
0 0
0 0
0 0
0 0
0 0
0 0
0 0
0 0
0 0
0 0
0 0
0 0
0 0
0 0
0 0
0 0
0 0
0 0
0 0
0 0
0 0
0 0
0 0
0 0
0 0
0 0
0 0
0 0
0 0
0 0
0 0
0 0
0 0
0 0
0 0
0 0
0 0
0 0
0 0
0 0
0 0
0 0
0 0
0 0
0 0
0 0
0 0
0 0
0 0
0 0
0 0
0 0
0 0
0 0
0 0
0 0
0 0
0 0
0 0
0 0
0 0
0 0
0 0
0 0
0 0
0 0
0 0
0 0
0 0
0 0
0 0
0 0
0 0
0 0
0 0
0 0
0 0
0 0
0 0
0 0
0 0
0 0
0 0
0 0
0 0
0 0
0 0
0 0
0 0
0 0
0 0
0 0
0 0
0 0
0 0
0 0
0 0
0 0
0 0
0 0
0 0
0 0
0 0
0 0
0 0
0 0
0 0
0 0
0 0
0 0
0 0
0 0
0 0
0 0
0 0
0 0
0 0
0 0
0 0
0 0
0 0
0 0
0 0
0 0
0 0
0 0
0 0
0 0
0 0
0 0
0 0
0 0
0 0
0 0
0 0
0 0
0 0
0 0
0 0
0 0
0 0
0 0
0 0
0 0
0 0
0 0
0 0
0 0
0 0
0 0
0 0
0 0
0 0
0 0
0 0
0 0
0 0
0 0
0 0
0 0
0 0
0 0
0 0
0 0
0 0
0 0
0 0
0 0
0 0
0 0
0 0
0 0
0 0
0 0
0 0
0 0
0 0
0 0
0 0
0 0
0 0
0 0
0 0
0 0
0 0
0 0
0 0
0 0
0 0
0 0
0 0
0 0
0 0
0 0
0 0
0 0
0 0
0 0
0 0
0 0
0 0
0 0
0 0
0 0
0 0
0 0
0 0
0 0
0 0
0 0
0 0
0 0
0 0
0 0
0 0
0 0
0 0
0 0
0 0
0 0
0 0
0 0
0 0
0 0
0 0
0 0
0 0
0 0
0 0
0 0
0 0
0 0
0 0
0 0
0 0
0 0
0 0
0 0
0 0
0 0
0 0
0 0
0 0
0 0
0 0
0 0
0 0
0 0
0 0
0 0
0 0
0 0
0 0
0 0
0 0
0 0
0 0
0 0
0 0
0 0
0 0
0 0
0 0
0 0
0 0
0 0
0 0
0 0
0 0
0 0
0 0
0 0
0 0
0 0
0 0
0 0
0 0
0 0
0 0
0 0
0 0
0 0
0 0
0 0
0 0
0 0
0 0
0 0
0 0
0 0
0 0
0 0
0 0
0 0
0 0
0 0
0 0
0 0
0 0
0 0
0 0
0 0
0 0
0 0
0 0
0 0
0 0
0 0
0 0
0 0
0 0
0 0
0 0
0 0
0 0
0 0
0 0
0 0
0 0
0 0
0 0
0 0
0 0
0 0
0 0
0 0
0 0
0 0
0 0
0 0
0 0
0 0
0 0
0 0
0 0
0 0
0 0
0 0
0 0
0 0
0 0
0 0
0 0
0 0
0 0
0 0
0 0
0 0
0 0
0 0
0 0
0 0
0 0
0 0
0 0
0 0
0 0
0 0
0 0
0 0
0 0
0 0
0 0
0 0
0 0
0 0
0 0
0 0
0 0
0 0
0 0
0 0
0 0
0 0
0 0
0 0
0 0
0 0
0 0
0 0
0 0
0 0
0 0
0 0
0 0
0 0
0 0
0 0
0 0
0 0
0 0
0 0
0 0
0 0
0 0
0 0
0 0
0 0
0 0
0 0
0 0
0 0
0 0
0 0
0 0
0 0
0 0
0 0
0 0
0 0
0 0
0 0
0 0
0 0
0 0
0 0
0 0
0 0
0 0
0 0
0 0
0 0
0 0
0 0
0 0
0 0
0 0
0 0
0 0
0 0
0 0
0 0
0 0
0 0
0 0
0 0
0 0
0 0
0 0
0 0
0 0
0 0
0 0
0 0
0 0
0 0
0 0
0 0
0 0
0 0
0 0
0 0
0 0
0 0
0 0
0 0
0 0
0 0
0 0
0 0
0 0
0 0
0 0
0 0
0 0
0 0
0 0
0 0
0 0
0 0
0 0
0 0
0 0
0 0
0 0
0 0
0 0
0 0
0 0
0 0
0 0
0 0
0 0
0 0
0 0
0 0
0 0
0 0
0 0
0 0
0 0
0 0
0 0
0 0
0 0
0 0
0 0
0 0
0 0
0 0
0 0
0 0
0 0
0 0
0 0
0 0
0 0
0 0
0 0
0 0
0 0
0 0
0 0
0 0
0 0
0 0
0 0
0 0
0 0
0 0
0 0
0 0
0 0
0 0
0 0
0 0
0 0
0 0
0 0
0 0
0 0
0 0
0 0
0 0
0 0
0 0
0 0
0 0
0 0
0 0
0 0
0 0
0 0
0 0
0 0
0 0
0 0
0 0
0 0
0 0
0 0
0 0
0 0
0 0
0 0
0 0
0 0
0 0
0 0
0 0
0 0
0 0
0 0
0 0
0 0
0 0
0 0
0 0
0 0
0 0
0 0
0 0
0 0
0 0
0 0
0 0
0 0
0 0
0 0
0 0
0 0
0 0
0 0
0 0
0 0
0 0
0 0
0 0
0 0
0 0
0 0
0 0
0 0
0 0
0 0
0 0
0 0
0 0
0 0
0 0
0 0
0 0
0 0
0 0
0 0
0 0
0 0
0 0
0 0
0 0
0 0
0 0
0 0
0 0
0 0
0 0
0 0
0 0
0 0
0 0
0 0
0 0
0 0
0 0
0 0
0 0
0 0
0 0
0 0
0 0
0 0
0 0
0 0
0 0
0 0
0 0
0 0
0 0
0 0
0 0
0 0
0 0
0 0
0 0
0 0
0 0
0 0
0 0
0 0
0 0
0 0
0 0
0 0
0 0
0 0
0 0
0 0
0 0
0 0
0 0
0 0
0 0
0 0
0 0
0 0
0 0
0 0
0 0
0 0
0 0
0 0
0 0
0 0
0 0
0 0
0 0
0 0
0 0
0 0
0 0
0 0
0 0
0 0
0 0
0 0
0 0
0 0
0 0
0 0
0 0
0 0
0 0
0 0
0 0
0 0
0 0
0 0
0 0
0 0
0 0
0 0
0 0
0 0
0 0
0 0
0 0
0 0
0 0
0 0
0 0
0 0
0 0
0 0
0 0
0 0
0 0
0 0
0 0
0 0
0 0
0 0
0 0
0 0
0 0
0 0
0 0
0 0
0 0
0 0
0 0
0 0
0 0
0 0
0 0
0 0
0 0
0 0
0 0
0 0
0 0
0 0
0 0
0 0
0 0
0 0
0 0
0 0
0 0
0 0
0 0
0 0
0 0
0 0
0 0
0 0
0 0
0 0
0 0
0 0
0 0
0 0
0 0
0 0
0 0
0 0
0 0
0 0
0 0
0 0
0 0
0 0
0 0
0 0
0 0
0 0
0 0
0 0
0 0
0 0
0 0
0 0
0 0
0 0
0 0
0 0
0 0
0 0
0 0
0 0
0 0
0 0
0 0
0 0
0 0
0 0
0 0
0 0
0 0
0 0
0 0
0 0
0 0
0 0
0 0
0 0
0 0
0 0
0 0
0 0
0 0
0 0
0 0
0 0
0 0
0 0
0 0
0 0
0 0
0 0
0 0
0 0
0 0
0 0
0 0
0 0
0 0
0 0
0 0
0 0
0 0
0 0
0 0
0 0
0 0
0 0
0 0
0 0
0 0
0 0
0 0
0 0
0 0
0 0
0 0
0 0
0 0
0 0
0 0
0 0
0 0
0 0
0 0
0 0
0 0
0 0
0 0
0 0
0 0
0 0
0 0
0 0
0 0
0 0
0 0
0 0
0 0
0 0
0 0
0 0
0 0
0 0
0 0
0 0
0 0
0 0
0 0
0 0
0 0
0 0
0 0
0 0
0 0
0 0
0 0
0 0
0 0
0 0
0 0
0 0
0 0
0 0
0 0
0 0
0 0
0 0
0 0
0 0
0 0
0 0
0 0
0 0
0 0
0 0
0 0
0 0
0 0
0 0
0 0
0 0
0 0
0 0
0 0
0 0
0 0
0 0
0 0
0 0
0 0
0 0
0 0
0 0
0 0
0 0
0 0
0 0
0 0
0 0
0 0
0 0
0 0
0 0
0 0
0 0
0 0
0 0
0 0
0 0
0 0
0 0
0 0
0 0
0 0
0 0
0 0
0 0
0 0
0 0
0 0
0 0
0 0
0 0
0 0
0 0
0 0
0 0
0 0
0 0
0 0
0 0
0 0
0 0
0 0
0 0
0 0
0 0
0 0
0 0
0 0
0 0
0 0
0 0
0 0
0 0
0 0
0 0
0 0
0 0
0 0
0 0
0 0
0 0
0 0
0 0
0 0
0 0
0 0
0 0
0 0
0 0
0 0
0 0
0 0
0 0
0 0
0 0
0 0
0 0
0 0
0 0
0 0
0 0
0 0
0 0
0 0
0 0
0 0
0 0
0 0
0 0
0 0
0 0
0 0
0 0
0 0
0 0
0 0
0 0
0 0
0 0
0 0
0 0
0 0
0 0
0 0
0 0
0 0
0 0
0 0
0 0
0 0
0 0
0 0
0 0
0 0
0 0
0 0
0 0
0 0
0 0
0 0
0 0
0 0
0 0
0 0
0 0
0 0
0 0
0 0
0 0
0 0
0 0
0 0
0 0
0 0
0 0
0 0
0 0
0 0
0 0
0 0
0 0
0 0
0 0
0 0
0 0
0 0
0 0
0 0
0 0
0 0
0 0
0 0
0 0
0 0
0 0
0 0
0 0
0 0
0 0
0 0
0 0
0 0
0 0
0 0
0 0
0 0
0 0
0 0
0 0
0 0
0 0
0 0
0 0
0 0
0 0
0 0
0 0
0 0
0 0
0 0
0 0
0 0
0 0
0 0
0 0
0 0
0 0
0 0
0 0
0 0
0 0
0 0
0 0
0 0
0 0
0 0
0 0
0 0
0 0
0 0
0 0
0 0
0 0
0 0
0 0
0 0
0 0
0 0
0 0
0 0
0 0
0 0
0 0
0 0
0 0
0 0
0 0
0 0
0 0
0 0
0 0
0 0
0 0
0 0
0 0
0 0
0 0
0 0
0 0
0 0
0 0
0 0
0 0
0 0
0 0
0 0
0 0
0 0
0 0
0 0
0 0
0 0
0 0
0 0
0 0
0 0
0 0
0 0
0 0
0 0
0 0
0 0
0 0
0 0
0 0
0 0
0 0
0 0
0 0
0 0
0 0
0 0
0 0
0 0
0 0
0 0
0 0
0 0
0 0
0 0
0 0
0 0
0 0
0 0
0 0
0 0
0 0
0 0
0 0
0 0
0 0
0 0
0 0
0 0
0 0
0 0
0 0
0 0
0 0
0 0
0 0
0 0
0 0
0 0
0 0
0 0
0 0
0 0
0 0
0 0
0 0
0 0
0 0
0 0
0 0
0 0
0 0
0 0
0 0
0 0
0 0
0 0
0 0
0 0
0 0
0 0
0 0
0 0
0 0
0 0
0 0
0 0
0 0
0 0
0 0
0 0
0 0
0 0
0 0
0 0
0 0
0 0
0 0
0 0
0 0
0 0
0 0
0 0
0 0
0 0
0 0
0 0
0 0
0 0
0 0
0 0
0 0
0 0
0 0
0 0
0 0
0 0
0 0
0 0
0 0
0 0
0 0
0 0
0 0
0 0
0 0
0 0
0 0
0 0
0 0
0 0
0 0
0 0
0 0
0 0
0 0
0 0
0 0
0 0
0 0
0 0
0 0
0 0
0 0
0 0
0 0
0 0
0 0
0 0
0 0
0 0
0 0
0 0
0 0
0 0
0 0
0 0
0 0
0 0
0 0
0 0
0 0
0 0
0 0
0 0
0 0
0 0
0 0
0 0
0 0
0 0
0 0
0 0
0 0
0 0
0 0
0 0
0 0
0 0
0 0
0 0
0 0
0 0
0 0
0 0
0 0
0 0
0 0
0 0
0 0
0 0
0 0
0 0
0 0
0 0
0 0
0 0
0 0
0 0
0 0
0 0
0 0
0 0
0 0
0 0
0 0
0 0
0 0
0 0
0 0
0 0
0 0
0 0
0 0
0 0
0 0
0 0
0 0
0 0
0 0
0 0
0 0
0 0
0 0
0 0
0 0
0 0
0 0
0 0
0 0
0 0
0 0
0 0
0 0
0 0
0 0
0 0
0 0
0 0
0 0
0 0
0 0
0 0
0 0
0 0
0 0
0 0
0 0
0 0
0 0
0 0
0 0
0 0
0 0
0 0
0 0
0 0
0 0
0 0
0 0
0 0
0 0
0 0
0 0
0 0
0 0
0 0
0 0
0 0
0 0
0 0
0 0
0 0
0 0
0 0
0 0
0 0
0 0
0 0
0 0
0 0
0 0
0 0
0 0
0 0
0 0
0 0
0 0
0 0
0 0
0 0
0 0
0 0
0 0
0 0
0 0
0 0
0 0
0 0
0 0
0 0
0 0
0 0
0 0
0 0
0 0
0 0
0 0
0 0
0 0
0 0
0 0
0 0
0 0
0 0
0 0
0 0
0 0
0 0
0 0
0 0
0 0
0 0
0 0
0 0
0 0
0 0
0 0
0 0
0 0
0 0
0 0
0 0
0 0
0 0
0 0
0 0
0 0
0 0
0 0
0 0
0 0
0 0
0 0
0 0
0 0
0 0
0 0
0 0
0 0
0 0
0 0
0 0
0 0
0 0
0 0
0 0
0 0
0 0
0 0
0 0
0 0
0 0
0 0
0 0
0 0
0 0
0 0
0 0
0 0
0 0
0 0
0 0
0 0
0 0
0 0
0 0
0 0
0 0
0 0
0 0
0 0
0 0
0 0
0 0
0 0
0 0
0 0
0 0
0 0
0 0
0 0
0 0
0 0
0 0
0 0
0 0
0 0
0 0
0 0
0 0
0 0
0 0
0 0
0 0
0 0
0 0
0 0
0 0
0 0
0 0
0 0
0 0
0 0
0 0
0 0
0 0
0 0
0 0
0 0
0 0
0 0
0 0
0 0
0 0
0 0
0 0
0 0
0 0
0 0
0 0
0 0
0 0
0 0
0 0
0 0
0 0
0 0
0 0
0 0
0 0
0 0
0 0
0 0
0 0
0 0
0 0
0 0
0 0
0 0
0 0
0 0
0 0
0 0
0 0
0 0
0 0
0 0
0 0
0 0
0 0
0 0
0 0
0 0
0 0
0 0
0 0
0 0
0 0
0 0
0 0
0 0
0 0
0 0
0 0
0 0
0 0
0 0
0 0
0 0
0 0
0 0
0 0
0 0
0 0
0 0
0 0
0 0
0 0
0 0
0 0
0 0
0 0
0 0
0 0
0 0
0 0
0 0
0 0
0 0
0 0
0 0
0 0
0 0
0 0
0 0
0 0
0 0
0 0
0 0
0 0
0 0
0 0
0 0
0 0
0 0
0 0
0 0
0 0
0 0
0 0
0 0
0 0
0 0
0 0
0 0
0 0
0 0
0 0
0 0
0 0
0 0
0 0
0 0
0 0
0 0
0 0
0 0
0 0
0 0
0 0
0 0
0 0
0 0
0 0
0 0
0 0
0 0
0 0
0 0
0 0
0 0
0 0
0 0
0 0
0 0
0 0
0 0
0 0
0 0
0 0
0 0
0 0
0 0
0 0
0 0
0 0
0 0
0 0
0 0
0 0
0 0
0 0
0 0
0 0
0 0
0 0
0 0
0 0
0 0
0 0
0 0
0 0
0 0
0 0
0 0
0 0
0 0
0 0
0 0
0 0
0 0
0 0
0 0
0 0
0 0
0 0
0 0
0 0
0 0
0 0
0 0
0 0
0 0
0 0
0 0
0 0
0 0
0 0
0 0
0 0
0 0
0 0
0 0
0 0
0 0
0 0
0 0
0 0
0 0
0 0
0 0
0 0
0 0
0 0
0 0
0 0
0 0
0 0
0 0
0 0
0 0
0 0
0 0
0 0
0 0
0 0
0 0
0 0
0 0
0 0
0 0
0 0
0 0
0 0
0 0
0 0
0 0
0 0
0 0
0 0
0 0
0 0
0 0
0 0
0 0
0 0
0 0
0 0
0 0
0 0
0 0
0 0
0 0
0 0
0 0
0 0
0 0
0 0
0 0
0 0
0 0
0 0
0 0
0 0
0 0
0 0
0 0
0 0
0 0
0 0
0 0
0 0
0 0
0 0
0 0
0 0
0 0
0 0
0 0
0 0
0 0
0 0
0 0
0 0
0 0
0 0
0 0
0 0
0 0
0 0
0 0
0 0
0 0
0 0
0 0
0 0
0 0
0 0
0 0
0 0
0 0
0 0
0 0
0 0
0 0
0 0
0 0
0 0
0 0
0 0
0 0
0 0
0 0
0 0
0 0
0 0
0 0
0 0
0 0
0 0
0 0
0 0
0 0
0 0
0 0
0 0
0 0
0 0
0 0
0 0
0 0
0 0
0 0
0 0
0 0
0 0
0 0
0 0
0 0
0 0
0 0
0 0
0 0
0 0
0 0
0 0
0 0
0 0
0 0
0 0
0 0
0 0
0 0
0 0
0 0
0 0
0 0
0 0
0 0
0 0
0 0
0 0
0 0
0 0
0 0
0 0
0 0
0 0
0 0
0 0
0 0
0 0
0 0
0 0
0 0
0 0
0 0
0 0
0 0
0 0
0 0
0 0
0 0
0 0
0 0
0 0
0 0
0 0
0 0
0 0
0 0
0 0
0 0
0 0
0 0
0 0
0 0
0 0
0 0
0 0
0 0
0 0
0 0
0 0
0 0
0 0
0 0
0 0
0 0
0 0
0 0
0 0
0 0
0 0
0 0
0 0
0 0
0 0
0 0
0 0
0 0
0 0
0 0
0 0
0 0
0 0
0 0
0 0
0 0
0 0
0 0
0 0
0 0
0 0
0 0
0 0
0 0
0 0
0 0
0 0
0 0
0 0
0 0
0 0
0 0
0 0
0 0
0 0
0 0
0 0
0 0
0 0
0 0
0 0
0 0
0 0
0 0
0 0
0 0
0 0
0 0
0 0
0 0
0 0
0 0
0 0
0 0
0 0
0 0
0 0
0 0
0 0
0 0
0 0
0 0
0 0
0 0
0 0
0 0
0 0
0 0
0 0
0 0
0 0
0 0
0 0
0 0
0 0
0 0
0 0
0 0
0 0
0 0
0 0
0 0
0 0
0 0
0 0
0 0
0 0
0 0
0 0
0 0
0 0
0 0
0 0
0 0
0 0
0 0
0 0
0 0
0 0
0 0
0 0
0 0
0 0
0 0
0 0
0 0
0 0
0 0
0 0
0 0
0 0
0 0
0 0
0 0
0 0
0 0
0 0
0 0
0 0
0 0
0 0
0 0
0 0
0 0
0 0
0 0
0 0
0 0
0 0
0 0
0 0
0 0
0 0
0 0
0 0
0 0
0 0
0 0
0 0
0 0
0 0
0 0
0 0
0 0
0 0
0 0
0 0
0 0
0 0
0 0
0 0
0 0
0 0
0 0
0 0
0 0
0 0
0 0
0 0
0 0
0 0
0 0
0 0
0 0
0 0
0 0
0 0
0 0
0 0
0 0
0 0
0 0
0 0
0 0
0 0
0 0
0 0
0 0
0 0
0 0
0 0
0 0
0 0
0 0
0 0
0 0
0 0
0 0
0 0
0 0
0 0
0 0
0 0
0 0
0 0
0 0
0 0
0 0
0 0
0 0
0 0
0 0
0 0
0 0
0 0
0 0
0 0
0 0
0 0
0 0
0 0
0 0
0 0
0 0
0 0
0 0
0 0
0 0
0 0
0 0
0 0
0 0
0 0
0 0
0 0
0 0
0 0
0 0
0 0
0 0
0 0
0 0
0 0
0 0
0 0
0 0
0 0
0 0
0 0
0 0
0 0
0 0
0 0
0 0
0 0
0 0
0 0
0 0
0 0
0 0
0 0
0 0
0 0
0 0
0 0
0 0
0 0
0 0
0 0
0 0
0 0
0 0
0 0
0 0
0 0
0 0
0 0
0 0
0 0
0 0
0 0
0 0
0 0
0 0
0 0
0 0
0 0
0 0
0 0
0 0
0 0
0 0
0 0
0 0
0 0
0 0
0 0
0 0
0 0
0 0
0 0
0 0
0 0
0 0
0 0
0 0
0 0
0 0
0 0
0 0
0 0
0 0
0 0
0 0
0 0
0 0
0 0
0 0
0 0
0 0
0 0
0 0
0 0
0 0
0 0
0 0
0 0
0 0
0 0
0 0
0 0
0 0
0 0
0 0
0 0
0 0
0 0
0 0
0 0
0 0
0 0
0 0
0 0
0 0
0 0
0 0
0 0
0 0
0 0
0 0
0 0
0 0
0 0
0 0
0 0
0 0
0 0
0 0
0 0
0 0
0 0
0 0
0 0
0 0
0 0
0 0
0 0
0 0
0 0
0 0
0 0
0 0
0 0
0 0
0 0
0 0
0 0
0 0
0 0
0 0
0 0
0 0
0 0
0 0
0 0
0 0
0 0
0 0
0 0
0 0
0 0
0 0
0 0
0 0
0 0
0 0
0 0
0 0
0 0
0 0
0 0
0 0
0 0
0 0
0 0
0 0
0 0
0 0
0 0
0 0
0 0
0 0
0 0
0 0
0 0
0 0
0 0
0 0
0 0
0 0
0 0
0 0
0 0
0 0
0 0
0 0
0 0
0 0
0 0
0 0
0 0
0 0
0 0
0 0
0 0
0 0
0 0
0 0
0 0
0 0
0 0
0 0
0 0
0 0
0 0
0 0
0 0
0 0
0 0
0 0
0 0
0 0
0 0
0 0
0 0
0 0
0 0
0 0
0 0
0 0
0 0
0 0
0 0
0 0
0 0
0 0
0 0
0 0
0 0
0 0
0 0
0 0
0 0
0 0
0 0
0 0
0 0
0 0
0 0
0 0
0 0
0 0
0 0
0 0
0 0
0 0
0 0
0 0
0 0
0 0
0 0
0 0
0 0
0 0
0 0
0 0
0 0
0 0
0 0
0 0
0 0
0 0
0 0
0 0
0 0
0 0
0 0
0 0
0 0
0 0
0 0
0 0
0 0
0 0
0 0
0 0
0 0
0 0
0 0
0 0
0 0
0 0
0 0
0 0
0 0
0 0
0 0
0 0
0 0
0 0
0 0
0 0
0 0
0 0
0 0
0 0
0 0
0 0
0 0
0 0
0 0
0 0
0 0
0 0
0 0
0 0
0 0
0 0
0 0
0 0
0 0
0 0
0 0
0 0
0 0
0 0
0 0
0 0
0 0
0 0
0 0
0 0
0 0
0 0
0 0
0 0
0 0
0 0
0 0
0 0
0 0
0 0
0 0
0 0
0 0
0 0
0 0
0 0
0 0
0 0
0 0
0 0
0 0
0 0
0 0
0 0
0 0
0 0
0 0
0 0
0 0
0 0
0 0
0 0
0 0
0 0
0 0
0 0
0 0
0 0
0 0
0 0
0 0
0 0
0 0
0 0
0 0
0 0
0 0
0 0
0 0
0 0
0 0
0 0
0 0
0 0
0 0
0 0
0 0
0 0
0 0
0 0
0 0
0 0
0 0
0 0
0 0
0 0
0 0
0 0
0 0
0 0
0 0
0 0
0 0
0 0
0 0
0 0
0 0
0 0
0 0
0 0
0 0
0 0
0 0
0 0
0 0
0 0
0 0
0 0
0 0
0 0
0 0
0 0
0 0
0 0
0 0
0 0
0 0
0 0
0 0
0 0
0 0
0 0
0 0
0 0
0 0
0 0
0 0
0 0
0 0
0 0
0 0
0 0
0 0
0 0
0 0
0 0
0 0
0 0
0 0
0 0
0 0
0 0
0 0
0 0
0 0
0 0
0 0
0 0
0 0
0 0
0 0
0 0
0 0
0 0
0 0
0 0
0 0
0 0
0 0
0 0
0 0
0 0
0 0
0 0
0 0
0 0
0 0
0 0
0 0
0 0
0 0
0 0
0 0
0 0
0 0
0 0
0 0
0 0
0 0
0 0
0 0
0 0
0 0
0 0
0 0
0 0
0 0
0 0
0 0
0 0
0 0
0 0
0 0
0 0
0 0
0 0
0 0
0 0
0 0
0 0
0 0
0 0
0 0
0 0
0 0
0 0
0 0
0 0
0 0
0 0
0 0
0 0
0 0
0 0
0 0
0 0
0 0
0 0
0 0
0 0
0 0
0 0
0 0
0 0
0 0
0 0
0 0
0 0
0 0
0 0
0 0
0 0
0 0
0 0
0 0
0 0
0 0
0 0
0 0
0 0
0 0
0 0
0 0
0 0
0 0
0 0
0 0
0 0
0 0
0 0
0 0
0 0
0 0
0 0
0 0
0 0
0 0
0 0
0 0
0 0
0 0
0 0
0 0
0 0
0 0
0 0
0 0
0 0
0 0
0 0
0 0
0 0
0 0
0 0
0 0
0 0
0 0
0 0
0 0
0 0
0 0
0 0
0 0
0 0
0 0
0 0
0 0
0 0
0 0
0 0
0 0
0 0
0 0
0 0
0 0
0 0
0 0
0 0
0 0
0 0
0 0
0 0
0 0
0 0
0 0
0 0
0 0
0 0
0 0
0 0
0 0
0 0
0 0
0 0
0 0
0 0
0 0
0 0
0 0
0 0
0 0
0 0
0 0
0 0
0 0
0 0
0 0
0 0
0 0
0 0
0 0
0 0
0 0
0 0
0 0
0 0
0 0
0 0
0 0
0 0
0 0
0 0
0 0
0 0
0 0
0 0
0 0
0 0
0 0
0 0
0 0
0 0
0 0
0 0
0 0
0 0
0 0
0 0
0 0
0 0
0 0
0 0
0 0
0 0
0 0
0 0
0 0
0 0
0 0
0 0
0 0
0 0
0 0
0 0
0 0
0 0
0 0
0 0
0 0
0 0
0 0
0 0
0 0
0 0
0 0
0 0
0 0
0 0
0 0
0 0
0 0
0 0
0 0
0 0
0 0
0 0
0 0
0 0
0 0
0 0
0 0
0 0
0 0
0 0
0 0
0 0
0 0
0 0
0 0
0 0
0 0
0 0
0 0
0 0
0 0
0 0
0 0
0 0
0 0
0 0
0 0
0 0
0 0
0 0
0 0
0 0
0 0
0 0
0 0
0 0
0 0
0 0
0 0
0 0
0 0
0 0
0 0
0 0
0 0
0 0
0 0
0 0
0 0
0 0
0 0
0 0
0 0
0 0
0 0
0 0
0 0
0 0
0 0
0 0
0 0
0 0
0 0
0 0
0 0
0 0
0 0
0 0
0 0
0 0
0 0
0 0
0 0
0 0
0 0
0 0
0 0
0 0
0 0
0 0
0 0
0 0
0 0
0 0
0 0
0 0
0 0
0 0
0 0
0 0
0 0
0 0
0 0
0 0
0 0
0 0
0 0
0 0
0 0
0 0
0 0
0 0
0 0
0 0
0 0
0 0
0 0
0 0
0 0
0 0
0 0
0 0
0 0
0 0
0 0
0 0
0 0
0 0
0 0
0 0
0 0
0 0
0 0
0 0
0 0
0 0
0 0
0 0
0 0
0 0
0 0
0 0
0 0
0 0
0 0
0 0
0 0
0 0
0 0
0 0
0 0
0 0
0 0
0 0
0 0
0 0
0 0
0 0
0 0
0 0
0 0
0 0
0 0
0 0
0 0
0 0
0 0
0 0
0 0
0 0
0 0
0 0
0 0
0 0
0 0
0 0
0 0
0 0
0 0
0 0
0 0
0 0
0 0
0 0
0 0
0 0
0 0
0 0
0 0
0 0
0 0
0 0
0 0
0 0
0 0
0 0
0 0
0 0
0 0
0 0
0 0
0 0
0 0
0 0
0 0
0 0
0 0
0 0
0 0
0 0
0 0
0 0
0 0
0 0
0 0
0 0
0 0
0 0
0 0
0 0
0 0
0 0
0 0
0 0
0 0
0 0
0 0
0 0
0 0
0 0
0 0
0 0
0 0
0 0
0 0
0 0
0 0
0 0
0 0
0 0
0 0
0 0
0 0
0 0
0 0
0 0
0 0
0 0
0 0
0 0
0 0
0 0
0 0
0 0
0 0
0 0
0 0
0 0
0 0
0 0
0 0
0 0
0 0
0 0
0 0
0 0
0 0
0 0
0 0
0 0
0 0
0 0
0 0
0 0
0 0
0 0
0 0
0 0
0 0
0 0
0 0
0 0
0 0
0 0
0 0
0 0
0 0
0 0
0 0
0 0
0 0
0 0
0 0
0 0
0 0
0 0
0 0
0 0
0 0
0 0
0 0
0 0
0 0
0 0
0 0
0 0
0 0
0 0
0 0
0 0
0 0
0 0
0 0
0 0
0 0
0 0
0 0
0 0
0 0
0 0
0 0
0 0
0 0
0 0
0 0
0 0
0 0
0 0
0 0
0 0
0 0
0 0
0 0
0 0
0 0
0 0
0 0
0 0
0 0
0 0
0 0
0 0
0 0
0 0
0 0
0 0
0 0
0 0
0 0
0 0
0 0
0 0
0 0
0 0
0 0
0 0
0 0
0 0
0 0
0 0
0 0
0 0
0 0
0 0
0 0
0 0
0 0
0 0
0 0
0 0
0 0
0 0
0 0
0 0
0 0
0 0
0 0
0 0
0 0
0 0
0 0
0 0
0 0
0 0
0 0
0 0
0 0
0 0
0 0
0 0
0 0
0 0
0 0
0 0
0 0
0 0
0 0
0 0
0 0
0 0
0 0
0 0
0 0
0 0
0 0
0 0
0 0
0 0
0 0
0 0
0 0
0 0
0 0
0 0
0 0
0 0
0 0
0 0
0 0
0 0
0 0
0 0
0 0
0 0
0 0
0 0
0 0
0 0
0 0
0 0
0 0
0 0
0 0
0 0
0 0
0 0
0 0
0 0
0 0
0 0
0 0
0 0
0 0
0 0
0 0
0 0
0 0
0 0
0 0
0 0
0 0
0 0
0 0
0 0
0 0
0 0
0 0
0 0
0 0
0 0
0 0
0 0
0 0
0 0
0 0
0 0
0 0
0 0
0 0
0 0
0 0
0 0
0 0
0 0
0 0
0 0
0 0
0 0
0 0
0 0
0 0
0 0
0 0
0 0
0 0
0 0
0 0
0 0
0 0
0 0
0 0
0 0
0 0
0 0
0 0
0 0
0 0
0 0
0 0
0 0
0 0
0 0
0 0
0 0
0 0
0 0
0 0
0 0
0 0
0 0
0 0
0 0
0 0
0 0
0 0
0 0
0 0
0 0
0 0
0 0
0 0
0 0
0 0
0 0
0 0
0 0
0 0
0 0
0 0
0 0
0 0
0 0
0 0
0 0
0 0
0 0
0 0
0 0
0 0
0 0
0 0
0 0
0 0
0 0
0 0
0 0
0 0
0 0
0 0
0 0
0 0
0 0
0 0
0 0
0 0
0 0
0 0
0 0
0 0
0 0
0 0
0 0
0 0
0 0
0 0
0 0
0 0
0 0
0 0
0 0
0 0
0 0
0 0
0 0
0 0
0 0
0 0
0 0
0 0
0 0
0 0
0 0
0 0
0 0
0 0
0 0
0 0
0 0
0 0
0 0
0 0
0 0
0 0
0 0
0 0
0 0
0 0
0 0
0 0
0 0
0 0
0 0
0 0
0 0
0 0
0 0
0 0
0 0
0 0
0 0
0 0
0 0
0 0
0 0
0 0
0 0
0 0
0 0
0 0
0 0
0 0
0 0
0 0
0 0
0 0
0 0
0 0
0 0
0 0
0 0
0 0
0 0
0 0
0 0
0 0
0 0
0 0
0 0
0 0
0 0
0 0
0 0
0 0
0 0
0 0
0 0
0 0
0 0
0 0
0 0
0 0
0 0
0 0
0 0
0 0
0 0
0 0
0 0
0 0
0 0
0 0
0 0
0 0
0 0
0 0
0 0
0 0
0 0
0 0
0 0
0 0
0 0
0 0
0 0
0 0
0 0
0 0
0 0
0 0
0 0
0 0
0 0
0 0
0 0
0 0
0 0
0 0
0 0
0 0
0 0
0 0
0 0
0 0
0 0
0 0
0 0
0 0
0 0
0 0
0 0
0 0
0 0
0 0
0 0
0 0
0 0
0 0
0 0
0 0
0 0
0 0
0 0
0 0
0 0
0 0
0 0
0 0
0 0
0 0
0 0
0 0
0 0
0 0
0 0
0 0
0 0
0 0
0 0
0 0
0 0
0 0
0 0
0 0
0 0
0 0
0 0
0 0
0 0
0 0
0 0
0 0
0 0
0 0
0 0
0 0
0 0
0 0
0 0
0 0
0 0
0 0
0 0
0 0
0 0
0 0
0 0
0 0
0 0
0 0
0 0
0 0
0 0
0 0
0 0
0 0
0 0
0 0
0 0
0 0
0 0
0 0
0 0
0 0
0 0
0 0
0 0
0 0
0 0
0 0
0 0
0 0
0 0
0 0
0 0
0 0
0 0
0 0
0 0
0 0
0 0
0 0
0 0
0 0
0 0
0 0
0 0
0 0
0 0
0 0
0 0
0 0
0 0
0 0
0 0
0 0
0 0
0 0
0 0
0 0
0 0
0 0
0 0
0 0
0 0
0 0
0 0
0 0
0 0
0 0
0 0
0 0
0 0
0 0
0 0
0 0
0 0
0 0
0 0
0 0
0 0
0 0
0 0
0 0
0 0
0 0
0 0
0 0
0 0
0 0
0 0
0 0
0 0
0 0
0 0
0 0
0 0
0 0
0 0
0 0
0 0
0 0
0 0
0 0
0 0
0 0
0 0
0 0
0 0
0 0
0 0
0 0
0 0
0 0
0 0
0 0
0 0
0 0
0 0
0 0
0 0
0 0
0 0
0 0
0 0
0 0
0 0
0 0
0 0
0 0
0 0
0 0
0 0
0 0
0 0
0 0
0 0
0 0
0 0
0 0
0 0
0 0
0 0
0 0
0 0
0 0
0 0
0 0
0 0
0 0
0 0
0 0
0 0
0 0
0 0
0 0
0 0
0 0
0 0
0 0
0 0
0 0
0 0
0 0
0 0
0 0
0 0
0 0
0 0
0 0
0 0
0 0
0 0
0 0
0 0
0 0
0 0
0 0
0 0
0 0
0 0
0 0
0 0
0 0
0 0
0 0
0 0
0 0
0 0
0 0
0 0
0 0
0 0
0 0
0 0
0 0
0 0
0 0
0 0
0 0
0 0
0 0
0 0
0 0
0 0
0 0
0 0
0 0
0 0
0 0
0 0
0 0
0 0
0 0
0 0
0 0
0 0
0 0
0 0
0 0
0 0
0 0
0 0
0 0
0 0
0 0
0 0
0 0
0 0
0 0
0 0
0 0
0 0
0 0
0 0
0 0
0 0
0 0
0 0
0 0
0 0
0 0
0 0
0 0
0 0
0 0
0 0
0 0
0 0
0 0
0 0
0 0
0 0
0 0
0 0
0 0
0 0
0 0
0 0
0 0
0 0
0 0
0 0
0 0
0 0
0 0
0 0
0 0
0 0
0 0
0 0
0 0
0 0
0 0
0 0
0 0
0 0
0 0
0 0
0 0
0 0
0 0
0 0
0 0
0 0
0 0
0 0
0 0
0 0
0 0
0 0
0 0
0 0
0 0
0 0
0 0
0 0
0 0
0 0
0 0
0 0
0 0
0 0
0 0
0 0
0 0
0 0
0 0
0 0
0 0
0 0
0 0
0 0
0 0
0 0
0 0
0 0
0 0
0 0
0 0
0 0
0 0
0 0
0 0
0 0
0 0
0 0
0 0
0 0
0 0
0 0
0 0
0 0
0 0
0 0
0 0
0 0
0 0
0 0
0 0
0 0
0 0
0 0
0 0
0 0
0 0
0 0
0 0
0 0
0 0
0 0
0 0
0 0
0 0
0 0
0 0
0 0
0 0
0 0
0 0
0 0
0 0
0 0
0 0
0 0
0 0
0 0
0 0
0 0
0 0
0 0
0 0
0 0
0 0
0 0
0 0
0 0
0 0
0 0
0 0
0 0
0 0
0 0
0 0
0 0
0 0
0 0
0 0
0 0
0 0
0 0
0 0
0 0
0 0
0 0
0 0
0 0
0 0
0 0
0 0
0 0
0 0
0 0
0 0
0 0
0 0
0 0
0 0
0 0
0 0
0 0
0 0
0 0
0 0
0 0
0 0
0 0
0 0
0 0
0 0
0 0
0 0
0 0
0 0
0 0
0 0
0 0
0 0
0 0
0 0
0 0
0 0
0 0
0 0
0 0
0 0
0 0
0 0
0 0
0 0
0 0
0 0
0 0
0 0
0 0
0 0
0 0
0 0
0 0
0 0
0 0
0 0
0 0
0 0
0 0
0 0
0 0
0 0
0 0
0 0
0 0
0 0
0 0
0 0
0 0
0 0
0 0
0 0
0 0
0 0
0 0
0 0
0 0
0 0
0 0
0 0
0 0
0 0
0 0
0 0
0 0
0 0
0 0
0 0
0 0
0 0
0 0
0 0
0 0
0 0
0 0
0 0
0 0
0 0
0 0
0 0
0 0
0 0
0 0
0 0
0 0
0 0
0 0
0 0
0 0
0 0
0 0
0 0
0 0
0 0
0 0
0 0
0 0
0 0
0 0
0 0
0 0
0 0
0 0
0 0
0 0
0 0
0 0
0 0
0 0
0 0
0 0
0 0
0 0
0 0
0 0
0 0
0 0
0 0
0 0
0 0
0 0
0 0
0 0
0 0
0 0
0 0
0 0
0 0
0 0
0 0
0 0
0 0
0 0
0 0
0 0
0 0
0 0
0 0
0 0
0 0
0 0
0 0
0 0
0 0
0 0
0 0
0 0
0 0
0 0
0 0
0 0
0 0
0 0
0 0
0 0
0 0
0 0
0 0
0 0
0 0
0 0
0 0
0 0
0 0
0 0
0 0
0 0
0 0
0 0
0 0
0 0
0 0
0 0
0 0
0 0
0 0
0 0
0 0
0 0
0 0
0 0
0 0
0 0
0 0
0 0
0 0
0 0
0 0
0 0
0 0
0 0
0 0
0 0
0 0
0 0
0 0
0 0
0 0
0 0
0 0
0 0
0 0
0 0
0 0
0 0
0 0
0 0
0 0
0 0
0 0
0 0
0 0
0 0
0 0
0 0
0 0
0 0
0 0
0 0
0 0
0 0
0 0
0 0
0 0
0 0
0 0
0 0
0 0
0 0
0 0
0 0
0 0
0 0
0 0
0 0
0 0
0 0
0 0
0 0
0 0
0 0
0 0
0 0
0 0
0 0
0 0
0 0
0 0
0 0
0 0
0 0
0 0
0 0
0 0
0 0
0 0
0 0
0 0
0 0
0 0
0 0
0 0
0 0
0 0
0 0
0 0
0 0
0 0
0 0
0 0
0 0
0 0
0 0
0 0
0 0
0 0
0 0
0 0
0 0
0 0
0 0
0 0
0 0
0 0
0 0
0 0
0 0
0 0
0 0
0 0
0 0
0 0
0 0
0 0
0 0
0 0
0 0
0 0
0 0
0 0
0 0
0 0
0 0
0 0
0 0
0 0
0 0
0 0
0 0
0 0
0 0
0 0
0 0
0 0
0 0
0 0
0 0
0 0
0 0
0 0
0 0
0 0
0 0
0 0
0 0
0 0
0 0
0 0
0 0
0 0
0 0
0 0
0 0
0 0
0 0
0 0
0 0
0 0
0 0
0 0
0 0
0 0
0 0
0 0
0 0
0 0
0 0
0 0
0 0
0 0
0 0
0 0
0 0
0 0
0 0
0 0
0 0
0 0
0 0
0 0
0 0
0 0
0 0
0 0
0 0
0 0
0 0
0 0
0 0
0 0
0 0
0 0
0 0
0 0
0 0
0 0
0 0
0 0
0 0
0 0
0 0
0 0
0 0
0 0
0 0
0 0
0 0
0 0
0 0
0 0
0 0
0 0
0 0
0 0
0 0
0 0
0 0
0 0
0 0
0 0
0 0
0 0
0 0
0 0
0 0
0 0
0 0
0 0
0 0
0 0
0 0
0 0
0 0
0 0
0 0
0 0
0 0
0 0
0 0
0 0
0 0
0 0
0 0
0 0
0 0
0 0
0 0
0 0
0 0
0 0
0 0
0 0
0 0
0 0
0 0
0 0
0 0
0 0
0 0
0 0
0 0
0 0
0 0
0 0
0 0
0 0
0 0
0 0
0 0
0 0
0 0
0 0
0 0
0 0
0 0
0 0
0 0
0 0
0 0
0 0
0 0
0 0
0 0
0 0
0 0
0 0
0 0
0 0
0 0
0 0
0 0
0 0
0 0
0 0
0 0
0 0
0 0
0 0
0 0
0 0
0 0
0 0
0 0
0 0
0 0
0 0
0 0
0 0
0 0
0 0
0 0
0 0
0 0
0 0
0 0
0 0
0 0
0 0
0 0
0 0
0 0
0 0
0 0
0 0
0 0
0 0
0 0
0 0
0 0
0 0
0 0
0 0
0 0
0 0
0 0
0 0
0 0
0 0
0 0
0 0
0 0
0 0
0 0
0 0
0 0
0 0
0 0
0 0
0 0
0 0
0 0
0 0
0 0
0 0
0 0
0 0
0 0
0 0
0 0
0 0
0 0
0 0
0 0
0 0
0 0
0 0
0 0
0 0
0 0
0 0
0 0
0 0
0 0
0 0
0 0
0 0
0 0
0 0
0 0
0 0
0 0
0 0
0 0
0 0
0 0
0 0
0 0
0 0
0 0
0 0
0 0
0 0
0 0
0 0
0 0
0 0
0 0
0 0
0 0
0 0
0 0
0 0
0 0
0 0
0 0
0 0
0 0
0 0
0 0
0 0
0 0
0 0
0 0
0 0
0 0
0 0
0 0
0 0
0 0
0 0
0 0
0 0
0 0
0 0
0 0
0 0
0 0
0 0
0 0
0 0
0 0
0 0
0 0
0 0
0 0
0 0
0 0
0 0
0 0
0 0
0 0
0 0
0 0
0 0
0 0
0 0
0 0
0 0
0 0
0 0
0 0
0 0
0 0
0 0
0 0
0 0
0 0
0 0
0 0
0 0
0 0
0 0
0 0
0 0
0 0
0 0
0 0
0 0
0 0
0 0
0 0
0 0
0 0
0 0
0 0
0 0
0 0
0 0
0 0
0 0
0 0
0 0
0 0
0 0
0 0
0 0
0 0
0 0
0 0
0 0
0 0
0 0
0 0
0 0
0 0
0 0
0 0
0 0
0 0
0 0
0 0
0 0
0 0
0 0
0 0
0 0
0 0
0 0
0 0
0 0
0 0
0 0
0 0
0 0
0 0
0 0
0 0
0 0
0 0
0 0
0 0
0 0
0 0
0 0
0 0
0 0
0 0
0 0
0 0
0 0
0 0
0 0
0 0
0 0
0 0
0 0
0 0
0 0
0 0
0 0
0 0
0 0
0 0
0 0
0 0
0 0
0 0
0 0
0 0
0 0
0 0
0 0
0 0
0 0
0 0
0 0
0 0
0 0
0 0
0 0
0 0
0 0
0 0
0 0
0 0
0 0
0 0
0 0
0 0
0 0
0 0
0 0
0 0
0 0
0 0
0 0
0 0
0 0
0 0
0 0
0 0
0 0
0 0
0 0
0 0
0 0
0 0
0 0
0 0
0 0
0 0
0 0
0 0
0 0
0 0
0 0
0 0
0 0
0 0
0 0
0 0
0 0
0 0
0 0
0 0
0 0
0 0
0 0
0 0
0 0
0 0
0 0
0 0
0 0
0 0
0 0
0 0
0 0
0 0
0 0
0 0
0 0
0 0
0 0
0 0
0 0
0 0
0 0
0 0
0 0
0 0
0 0
0 0
0 0
0 0
0 0
0 0
0 0
0 0
0 0
0 0
0 0
0 0
0 0
0 0
0 0
0 0
0 0
0 0
0 0
0 0
0 0
0 0
0 0
0 0
0 0
0 0
0 0
0 0
0 0
0 0
0 0
0 0
0 0
0 0
0 0
0 0
0 0
0 0
0 0
0 0
0 0
0 0
0 0
0 0
0 0
0 0
0 0
0 0
0 0
0 0
0 0
0 0
0 0
0 0
0 0
0 0
0 0
0 0
0 0
0 0
0 0
0 0
0 0
0 0
0 0
0 0
0 0
0 0
0 0
0 0
0 0
0 0
0 0
0 0
0 0
0 0
0 0
0 0
0 0
0 0
0 0
0 0
0 0
0 0
0 0
0 0
0 0
0 0
0 0
0 0
0 0
0 0
0 0
0 0
0 0
0 0
0 0
0 0
0 0
0 0
0 0
0 0
0 0
0 0
0 0
0 0
0 0
0 0
0 0
0 0
0 0
0 0
0 0
0 0
0 0
0 0
0 0
0 0
0 0
0 0
0 0
0 0
0 0
0 0
0 0
0 0
0 0
0 0
0 0
0 0
0 0
0 0
0 0
0 0
0 0
0 0
0 0
0 0
0 0
0 0
0 0
0 0
0 0
0 0
0 0
0 0
0 0
0 0
0 0
0 0
0 0
0 0
0 0
0 0
0 0
0 0
0 0
0 0
0 0
0 0
0 0
0 0
0 0
0 0
0 0
0 0
0 0
0 0
0 0
0 0
0 0
0 0
0 0
0 0
0 0
0 0
0 0
0 0
0 0
0 0
0 0
0 0
0 0
0 0
0 0
0 0
0 0
0 0
0 0
0 0
0 0
0 0
0 0
0 0
0 0
0 0
0 0
0 0
0 0
0 0
0 0
0 0
0 0
0 0
0 0
0 0
0 0
0 0
0 0
0 0
0 0
0 0
0 0
0 0
0 0
0 0
0 0
0 0
0 0
0 0
0 0
0 0
0 0
0 0
0 0
0 0
0 0
0 0
0 0
0 0
0 0
0 0
0 0
0 0
0 0
0 0
0 0
0 0
0 0
0 0
0 0
0 0
0 0
0 0
0 0
0 0
0 0
0 0
0 0
0 0
0 0
0 0
0 0
0 0
0 0
0 0
0 0
0 0
0 0
0 0
0 0
0 0
0 0
0 0
0 0
0 0
0 0
0 0
0 0
0 0
0 0
0 0
0 0
0 0
0 0
0 0
0 0
0 0
0 0
0 0
0 0
0 0
0 0
0 0
0 0
0 0
0 0
0 0
0 0
0 0
0 0
0 0
0 0
0 0
0 0
0 0
0 0
0 0
0 0
0 0
0 0
0 0
0 0
0 0
0 0
0 0
0 0
0 0
0 0
0 0
0 0
0 0
0 0
0 0
0 0
0 0
0 0
0 0
0 0
0 0
0 0
0 0
0 0
0 0
0 0
0 0
0 0
0 0
0 0
0 0
0 0
0 0
0 0
0 0
0 0
0 0
0 0
0 0
0 0
0 0
0 0
0 0
0 0
0 0
0 0
0 0
0 0
0 0
0 0
0 0
0 0
0 0
0 0
0 0
0 0
0 0
0 0
0 0
0 0
0 0
0 0
0 0
0 0
0 0
0 0
0 0
0 0
0 0
0 0
0 0
0 0
0 0
0 0
0 0
0 0
0 0
0 0
0 0
0 0
0 0
0 0
0 0
0 0
0 0
0 0
0 0
0 0
0 0
0 0
0 0
0 0
0 0
0 0
0 0
0 0
0 0
0 0
0 0
0 0
0 0
0 0
0 0
0 0
0 0
0 0
0 0
0 0
0 0
0 0
0 0
0 0
0 0
0 0
0 0
0 0
0 0
0 0
0 0
0 0
0 0
0 0
0 0
0 0
0 0
0 0
0 0
0 0
0 0
0 0
0 0
0 0
0 0
0 0
0 0
0 0
0 0
0 0
0 0
0 0
0 0
0 0
0 0
0 0
0 0
0 0
0 0
0 0
0 0
0 0
0 0
0 0
0 0
0 0
0 0
0 0
0 0
0 0
0 0
0 0
0 0
0 0
0 0
0 0
0 0
0 0
0 0
0 0
0 0
0 0
0 0
0 0
0 0
0 0
0 0
0 0
0 0
0 0
0 0
0 0
0 0
0 0
0 0
0 0
0 0
0 0
0 0
0 0
0 0
0 0
0 0
0 0
0 0
0 0
0 0
0 0
0 0
0 0
0 0
0 0
0 0
0 0
0 0
0 0
0 0
0 0
0 0
0 0
0 0
0 0
0 0
0 0
0 0
0 0
0 0
0 0
0 0
0 0
0 0
0 0
0 0
0 0
0 0
0 0
0 0
0 0
0 0
0 0
0 0
0 0
0 0
0 0
0 0
0 0
0 0
0 0
0 0
0 0
0 0
0 0
0 0
0 0
0 0
0 0
0 0
0 0
0 0
0 0
0 0
0 0
0 0
0 0
0 0
0 0
0 0
0 0
0 0
0 0
0 0
0 0
0 0
0 0
0 0
0 0
0 0
0 0
0 0
0 0
0 0
0 0
0 0
0 0
0 0
0 0
0 0
0 0
0 0
0 0
0 0
0 0
0 0
0 0
0 0
0 0
0 0
0 0
0 0
0 0
0 0
0 0
0 0
0 0
0 0
0 0
0 0
0 0
0 0
0 0
0 0
0 0
0 0
0 0
0 0
0 0
0 0
0 0
0 0
0 0
0 0
0 0
0 0
0 0
0 0
0 0
0 0
0 0
0 0
0 0
0 0
0 0
0 0
0 0
0 0
0 0
0 0
0 0
0 0
0 0
0 0
0 0
0 0
0 0
0 0
0 0
0 0
0 0
0 0
0 0
0 0
0 0
0 0
0 0
0 0
0 0
0 0
0 0
0 0
0 0
0 0
0 0
0 0
0 0
0 0
0 0
0 0
0 0
0 0
0 0
0 0
0 0
0 0
0 0
0 0
0 0
0 0
0 0
0 0
0 0
0 0
0 0
0 0
0 0
0 0
0 0
0 0
0 0
0 0
0 0
0 0
0 0
0 0
0 0
0 0
0 0
0 0
0 0
0 0
0 0
0 0
0 0
0 0
0 0
0 0
0 0
0 0
0 0
0 0
0 0
0 0
0 0
0 0
0 0
0 0
0 0
0 0
0 0
0 0
0 0
0 0
0 0
0 0
0 0
0 0
0 0
0 0
0 0
0 0
0 0
0 0
0 0
0 0
0 0
0 0
0 0
0 0
0 0
0 0
0 0
0 0
0 0
0 0
0 0
0 0
0 0
0 0
0 0
0 0
0 0
0 0
0 0
0 0
0 0
0 0
0 0
0 0
0 0
0 0
0 0
0 0
0 0
0 0
0 0
0 0
0 0
0 0
0 0
0 0
0 0
0 0
0 0
0 0
0 0
0 0
0 0
0 0
0 0
0 0
0 0
0 0
0 0
0 0
0 0
0 0
0 0
0 0
0 0
0 0
0 0
0 0
0 0
0 0
0 0
0 0
0 0
0 0
0 0
0 0
0 0
0 0
0 0
0 0
0 0
0 0
0 0
0 0
0 0
0 0
0 0
0 0
0 0
0 0
0 0
0 0
0 0
0 0
0 0
0 0
0 0
0 0
0 0
0 0
0 0
0 0
0 0
0 0
0 0
0 0
0 0
0 0
0 0
0 0
0 0
0 0
0 0
0 0
0 0
0 0
0 0
0 0
0 0
0 0
0 0
0 0
0 0
0 0
0 0
0 0
0 0
0 0
0 0
0 0
0 0
0 0
0 0
0 0
0 0
0 0
0 0
0 0
0 0
0 0
0 0
0 0
0 0
0 0
0 0
0 0
0 0
0 0
0 0
0 0
0 0
0 0
0 0
0 0
0 0
0 0
0 0
0 0
0 0
0 0
0 0
0 0
0 0
0 0
0 0
0 0
0 0
0 0
0 0
0 0
0 0
0 0
0 0
0 0
0 0
0 0
0 0
0 0
0 0
0 0
0 0
0 0
0 0
0 0
0 0
0 0
0 0
0 0
0 0
0 0
0 0
0 0
0 0
0 0
0 0
0 0
0 0
0 0
0 0
0 0
0 0
0 0
0 0
0 0
0 0
0 0
0 0
0 0
0 0
0 0
0 0
0 0
0 0
0 0
0 0
0 0
0 0
0 0
0 0
0 0
0 0
0 0
0 0
0 0
0 0
0 0
0 0
0 0
0 0
0 0
0 0
0 0
0 0
0 0
0 0
0 0
0 0
0 0
0 0
0 0
0 0
0 0
0 0
0 0
0 0
0 0
0 0
0 0
0 0
0 0
0 0
0 0
0 0
0 0
0 0
0 0
0 0
0 0
0 0
0 0
0 0
0 0
0 0
0 0
0 0
0 0
0 0
0 0
0 0
0 0
0 0
0 0
0 0
0 0
0 0
0 0
0 0
0 0
0 0
0 0
0 0
0 0
0 0
0 0
0 0
0 0
0 0
0 0
0 0
0 0
0 0
0 0
0 0
0 0
0 0
0 0
0 0
0 0
0 0
0 0
0 0
0 0
0 0
0 0
0 0
0 0
0 0
0 0
0 0
0 0
0 0
0 0
0 0
0 0
0 0
0 0
0 0
0 0
0 0
0 0
0 0
0 0
0 0
0 0
0 0
0 0
0 0
0 0
0 0
0 0
0 0
0 0
0 0
0 0
0 0
0 0
0 0
0 0
0 0
0 0
0 0
0 0
0 0
0 0
0 0
0 0
0 0
0 0
0 0
0 0
0 0
0 0
0 0
0 0
0 0
0 0
0 0
0 0
0 0
0 0
0 0
0 0
0 0
0 0
0 0
0 0
0 0
0 0
0 0
0 0
0 0
0 0
0 0
0 0
0 0
0 0
0 0
0 0
0 0
0 0
0 0
0 0
0 0
0 0
0 0
0 0
0 0
0 0
0 0
0 0
0 0
0 0
0 0
0 0
0 0
0 0
0 0
0 0
0 0
0 0
0 0
0 0
0 0
0 0
0 0
0 0
0 0
0 0
0 0
0 0
0 0
0 0
0 0
0 0
0 0
0 0
0 0
0 0
0 0
0 0
0 0
0 0
0 0
0 0
0 0
0 0
0 0
0 0
0 0
0 0
0 0
0 0
0 0
0 0
0 0
0 0
0 0
0 0
0 0
0 0
0 0
0 0
0 0
0 0
0 0
0 0
0 0
0 0
0 0
0 0
0 0
0 0
0 0
0 0
0 0
0 0
0 0
0 0
0 0
0 0
0 0
0 0
0 0
0 0
0 0
0 0
0 0
0 0
0 0
0 0
0 0
0 0
0 0
0 0
0 0
0 0
0 0
0 0
0 0
0 0
0 0
0 0
0 0
0 0
0 0
0 0
0 0
0 0
0 0
0 0
0 0
0 0
0 0
0 0
0 0
0 0
0 0
0 0
0 0
0 0
0 0
0 0
0 0
0 0
0 0
0 0
0 0
0 0
0 0
0 0
0 0
0 0
0 0
0 0
0 0
0 0
0 0
0 0
0 0
0 0
0 0
0 0
0 0
0 0
0 0
0 0
0 0
0 0
0 0
0 0
0 0
0 0
0 0
0 0
0 0
0 0
0 0
0 0
0 0
0 0
0 0
0 0
0 0
0 0
0 0
0 0
0 0
0 0
0 0
0 0
0 0
0 0
0 0
0 0
0 0
0 0
0 0
0 0
0 0
0 0
0 0
0 0
0 0
0 0
0 0
0 0
0 0
0 0
0 0
0 0
0 0
0 0
0 0
0 0
0 0
0 0
0 0
0 0
0 0
0 0
0 0
0 0
0 0
0 0
0 0
0 0
0 0
0 0
0 0
0 0
0 0
0 0
0 0
0 0
0 0
0 0
0 0
0 0
0 0
0 0
0 0
0 0
0 0
0 0
0 0
0 0
0 0
0 0
0 0
0 0
0 0
0 0
0 0
0 0
0 0
0 0
0 0
0 0
0 0
0 0
0 0
0 0
0 0
0 0
0 0
0 0
0 0
0 0
0 0
0 0
0 0
0 0
0 0
0 0
0 0
0 0
0 0
0 0
0 0
0 0
0 0
0 0
0 0
0 0
0 0
0 0
0 0
0 0
0 0
0 0
0 0
0 0
0 0
0 0
0 0
0 0
0 0
0 0
0 0
0 0
0 0
0 0
0 0
0 0
0 0
0 0
0 0
0 0
0 0
0 0
0 0
0 0
0 0
0 0
0 0
0 0
0 0
0 0
0 0
0 0
0 0
0 0
0 0
0 0
0 0
0 0
0 0
0 0
0 0
0 0
0 0
0 0
0 0
0 0
0 0
0 0
0 0
0 0
0 0
0 0
0 0
0 0
0 0
0 0
0 0
0 0
0 0
0 0
0 0
0 0
0 0
0 0
0 0
0 0
0 0
0 0
0 0
0 0
0 0
0 0
0 0
0 0
0 0
0 0
0 0
0 0
0 0
0 0
0 0
0 0
0 0
0 0
0 0
0 0
0 0
0 0
0 0
0 0
0 0
0 0
0 0
0 0
0 0
0 0
0 0
0 0
0 0
0 0
0 0
0 0
0 0
0 0
0 0
0 0
0 0
0 0
0 0
0 0
0 0
0 0
0 0
0 0
0 0
0 0
0 0
0 0
0 0
0 0
0 0
0 0
0 0
0 0
0 0
0 0
0 0
0 0
0 0
0 0
0 0
0 0
0 0
0 0
0 0
0 0
0 0
0 0
0 0
0 0
0 0
0 0
0 0
0 0
0 0
0 0
0 0
0 0
0 0
0 0
0 0
0 0
0 0
0 0
0 0
0 0
0 0
0 0
0 0
0 0
0 0
0 0
0 0
0 0
0 0
0 0
0 0
0 0
0 0
0 0
0 0
0 0
0 0
0 0
0 0
0 0
0 0
0 0
0 0
0 0
0 0
0 0
0 0
0 0
0 0
0 0
0 0
0 0
0 0
0 0
0 0
0 0
0 0
0 0
0 0
0 0
0 0
0 0
0 0
0 0
0 0
0 0
0 0
0 0
0 0
0 0
0 0
0 0
0 0
0 0
0 0
0 0
0 0
0 0
0 0
0 0
0 0
0 0
0 0
0 0
0 0
0 0
0 0
0 0
0 0
0 0
0 0
0 0
0 0
0 0
0 0
0 0
0 0
0 0
0 0
0 0
0 0
0 0
0 0
0 0
0 0
0 0
0 0
0 0
0 0
0 0
0 0
0 0
0 0
0 0
0 0
0 0
0 0
0 0
0 0
0 0
0 0
0 0
0 0
0 0
0 0
0 0
0 0
0 0
0 0
0 0
0 0
0 0
0 0
0 0
0 0
0 0
0 0
0 0
0 0
0 0
0 0
0 0
0 0
0 0
0 0
0 0
0 0
0 0
0 0
0 0
0 0
0 0
0 0
0 0
0 0
0 0
0 0
0 0
0 0
0 0
0 0
0 0
0 0
0 0
0 0
0 0
0 0
0 0
0 0
0 0
0 0
0 0
0 0
0 0
0 0
0 0
0 0
0 0
0 0
0 0
0 0
0 0
0 0
0 0
0 0
0 0
0 0
0 0
0 0
0 0
0 0
0 0
0 0
0 0
0 0
0 0
0 0
0 0
0 0
0 0
0 0
0 0
0 0
0 0
0 0
0 0
0 0
0 0
0 0
0 0
0 0
0 0
0 0
0 0
0 0
0 0
0 0
0 0
0 0
0 0
0 0
0 0
0 0
0 0
0 0
0 0
0 0
0 0
0 0
0 0
0 0
0 0
0 0
0 0
0 0
0 0
0 0
0 0
0 0
0 0
0 0
0 0
0 0
0 0
0 0
0 0
0 0
0 0
0 0
0 0
0 0
0 0
0 0
0 0
0 0
0 0
0 0
0 0
0 0
0 0
0 0
0 0
0 0
0 0
0 0
0 0
0 0
0 0
0 0
0 0
0 0
0 0
0 0
0 0
0 0
0 0
0 0
0 0
0 0
0 0
0 0
0 0
0 0
0 0
0 0
0 0
0 0
0 0
0 0
0 0
0 0
0 0
0 0
0 0
0 0
0 0
0 0
0 0
0 0
0 0
0 0
0 0
0 0
0 0
0 0
0 0
0 0
0 0
0 0
0 0
0 0
0 0
0 0
0 0
0 0
0 0
0 0
0 0
0 0
0 0
0 0
0 0
0 0
0 0
0 0
0 0
0 0
0 0
0 0
0 0
0 0
0 0
0 0
0 0
0 0
0 0
0 0
0 0
0 0
0 0
0 0
0 0
0 0
0 0
0 0
0 0
0 0
0 0
0 0
0 0
0 0
0 0
0 0
0 0
0 0
0 0
0 0
0 0
0 0
0 0
0 0
0 0
0 0
0 0
0 0
0 0
0 0
0 0
0 0
0 0
0 0
0 0
0 0
0 0
0 0
0 0
0 0
0 0
0 0
0 0
0 0
0 0
0 0
0 0
0 0
0 0
0 0
0 0
0 0
0 0
0 0
0 0
0 0
0 0
0 0
0 0
0 0
0 0
0 0
0 0
0 0
0 0
0 0
0 0
0 0
0 0
0 0
0 0
0 0
0 0
0 0
0 0
0 0
0 0
0 0
0 0
0 0
0 0
0 0
0 0
0 0
0 0
0 0
0 0
0 0
0 0
0 0
0 0
0 0
0 0
0 0
0 0
0 0
0 0
0 0
0 0
0 0
0 0
0 0
0 0
0 0
0 0
0 0
0 0
0 0
0 0
0 0
0 0
0 0
0 0
0 0
0 0
0 0
0 0
0 0
0 0
0 0
0 0
0 0
0 0
0 0
0 0
0 0
0 0
0 0
0 0
0 0
0 0
0 0
0 0
0 0
0 0
0 0
0 0
0 0
0 0
0 0
0 0
0 0
0 0
0 0
0 0
0 0
0 0
0 0
0 0
0 0
0 0
0 0
0 0
0 0
0 0
0 0
0 0
0 0
0 0
0 0
0 0
0 0
0 0
0 0
0 0
0 0
0 0
0 0
0 0
0 0
0 0
0 0
0 0
0 0
0 0
0 0
0 0
0 0
0 0
0 0
0 0
0 0
0 0
0 0
0 0
0 0
0 0
0 0
0 0
0 0
0 0
0 0
0 0
0 0
0 0
0 0
0 0
0 0
0 0
0 0
0 0
0 0
0 0
0 0
0 0
0 0
0 0
0 0
0 0
0 0
0 0
0 0
0 0
0 0
0 0
0 0
0 0
0 0
0 0
0 0
0 0
0 0
0 0
0 0
0 0
0 0
0 0
0 0
0 0
0 0
0 0
0 0
0 0
0 0
0 0
0 0
0 0
0 0
0 0
0 0
0 0
0 0
0 0
0 0
0 0
0 0
0 0
0 0
0 0
0 0
0 0
0 0
0 0
0 0
0 0
0 0
0 0
0 0
0 0
0 0
0 0
0 0
0 0
0 0
0 0
0 0
0 0
0 0
0 0
0 0
0 0
0 0
0 0
0 0
0 0
0 0
0 0
0 0
0 0
0 0
0 0
0 0
0 0
0 0
0 0
0 0
0 0
0 0
0 0
0 0
0 0
0 0
0 0
0 0
0 0
0 0
0 0
0 0
0 0
0 0
0 0
0 0
0 0
0 0
0 0
0 0
0 0
0 0
0 0
0 0
0 0
0 0
0 0
0 0
0 0
0 0
0 0
0 0
0 0
0 0
0 0
0 0
0 0
0 0
0 0
0 0
0 0
0 0
0 0
0 0
0 0
0 0
0 0
0 0
0 0
0 0
0 0
0 0
0 0
0 0
0 0
0 0
0 0
0 0
0 0
0 0
0 0
0 0
0 0
0 0
0 0
0 0
0 0
0 0
0 0
0 0
0 0
0 0
0 0
0 0
0 0
0 0
0 0
0 0
0 0
0 0
0 0
0 0
0 0
0 0
0 0
0 0
0 0
0 0
0 0
0 0
0 0
0 0
0 0
0 0
0 0
0 0
0 0
0 0
0 0
0 0
0 0
0 0
0 0
0 0
0 0
0 0
0 0
0 0
0 0
0 0
0 0
0 0
0 0
0 0
0 0
0 0
0 0
0 0
0 0
0 0
0 0
0 0
0 0
0 0
0 0
0 0
0 0
0 0
0 0
0 0
0 0
0 0
0 0
0 0
0 0
0 0
0 0
0 0
0 0
0 0
0 0
0 0
0 0
0 0
0 0
0 0
0 0
0 0
0 0
0 0
0 0
0 0
0 0
0 0
0 0
0 0
0 0
0 0
0 0
0 0
0 0
0 0
0 0
0 0
0 0
0 0
0 0
0 0
0 0
0 0
0 0
0 0
0 0
0 0
0 0
0 0
0 0
0 0
0 0
0 0
0 0
0 0
0 0
0 0
0 0
0 0
0 0
0 0
0 0
0 0
0 0
0 0
0 0
0 0
0 0
0 0
0 0
0 0
0 0
0 0
0 0
0 0
0 0
0 0
0 0
0 0
0 0
0 0
0 0
0 0
0 0
0 0
0 0
0 0
0 0
0 0
0 0
0 0
0 0
0 0
0 0
0 0
0 0
0 0
0 0
0 0
0 0
0 0
0 0
0 0
0 0
0 0
0 0
0 0
0 0
0 0
0 0
0 0
0 0
0 0
0 0
0 0
0 0
0 0
0 0
0 0
0 0
0 0
0 0
0 0
0 0
0 0
0 0
0 0
0 0
0 0
0 0
0 0
0 0
0 0
0 0
0 0
0 0
0 0
0 0
0 0
0 0
0 0
0 0
0 0
0 0
0 0
0 0
0 0
0 0
0 0
0 0
0 0
0 0
0 0
0 0
0 0
0 0
0 0
0 0
0 0
0 0
0 0
0 0
0 0
0 0
0 0
0 0
0 0
0 0
0 0
0 0
0 0
0 0
0 0
0 0
0 0
0 0
0 0
0 0
0 0
0 0
0 0
0 0
0 0
0 0
0 0
0 0
0 0
0 0
0 0
0 0
0 0
0 0
0 0
0 0
0 0
0 0
0 0
0 0
0 0
0 0
0 0
0 0
0 0
0 0
0 0
0 0
0 0
0 0
0 0
0 0
0 0
0 0
0 0
0 0
0 0
0 0
0 0
0 0
0 0
0 0
0 0
0 0
0 0
0 0
0 0
0 0
0 0
0 0
0 0
0 0
0 0
0 0
0 0
0 0
0 0
0 0
0 0
0 0
0 0
0 0
0 0
0 0
0 0
0 0
0 0
0 0
0 0
0 0
0 0
0 0
0 0
0 0
0 0
0 0
0 0
0 0
0 0
0 0
0 0
0 0
0 0
0 0
0 0
0 0
0 0
0 0
0 0
0 0
0 0
0 0
0 0
0 0
0 0
0 0
0 0
0 0
0 0
0 0
0 0
0 0
0 0
0 0
0 0
0 0
0 0
0 0
0 0
0 0
0 0
0 0
0 0
0 0
0 0
0 0
0 0
0 0
0 0
0 0
0 0
0 0
0 0
0 0
0 0
0 0
0 0
0 0
0 0
0 0
0 0
0 0
0 0
0 0
0 0
0 0
0 0
0 0
0 0
0 0
0 0
0 0
0 0
0 0
0 0
0 0
0 0
0 0
0 0
0 0
0 0
0 0
0 0
0 0
0 0
0 0
0 0
0 0
0 0
0 0
0 0
0 0
0 0
0 0
0 0
0 0
0 0
0 0
0 0
0 0
0 0
0 0
0 0
0 0
0 0
0 0
0 0
0 0
0 0
0 0
0 0
0 0
0 0
0 0
0 0
0 0
0 0
0 0
0 0
0 0
0 0
0 0
0 0
0 0
0 0
0 0
0 0
0 0
0 0
0 0
0 0
0 0
0 0
0 0
0 0
0 0
0 0
0 0
0 0
0 0
0 0
0 0
0 0
0 0
0 0
0 0
0 0
0 0
0 0
0 0
0 0
0 0
0 0
0 0
0 0
0 0
0 0
0 0
0 0
0 0
0 0
0 0
0 0
0 0
0 0
0 0
0 0
0 0
0 0
0 0
0 0
0 0
0 0
0 0
0 0
0 0
0 0
0 0
0 0
0 0
0 0
0 0
0 0
0 0
0 0
0 0
0 0
0 0
0 0
0 0
0 0
0 0
0 0
0 0
0 0
0 0
0 0
0 0
0 0
0 0
0 0
0 0
0 0
0 0
0 0
0 0
0 0
0 0
0 0
0 0
0 0
0 0
0 0
0 0
0 0
0 0
0 0
0 0
0 0
0 0
0 0
0 0
0 0
0 0
0 0
0 0
0 0
0 0
0 0
0 0
0 0
0 0
0 0
0 0
0 0
0 0
0 0
0 0
0 0
0 0
0 0
0 0
0 0
0 0
0 0
0 0
0 0
0 0
0 0
0 0
0 0
0 0
0 0
0 0
0 0
0 0
0 0
0 0
0 0
0 0
0 0
0 0
0 0
0 0
0 0
0 0
0 0
0 0
0 0
0 0
0 0
0 0
0 0
0 0
0 0
0 0
0 0
0 0
0 0
0 0
0 0
0 0
0 0
0 0
0 0
0 0
0 0
0 0
0 0
0 0
0 0
0 0
0 0
0 0
0 0
0 0
0 0
0 0
0 0
0 0
0 0
0 0
0 0
0 0
0 0
0 0
0 0
0 0
0 0
0 0
0 0
0 0
0 0
0 0
0 0
0 0
0 0
0 0
0 0
0 0
0 0
0 0
0 0
0 0
0 0
0 0
0 0
0 0
0 0
0 0
0 0
0 0
0 0
0 0
0 0
0 0
0 0
0 0
0 0
0 0
0 0
0 0
0 0
0 0
0 0
0 0
0 0
0 0
0 0
0 0
0 0
0 0
0 0
0 0
0 0
0 0
0 0
0 0
0 0
0 0
0 0
0 0
0 0
0 0
0 0
0 0
0 0
0 0
0 0
0 0
0 0
0 0
0 0
0 0
0 0
0 0
0 0
0 0
0 0
0 0
0 0
0 0
0 0
0 0
0 0
0 0
0 0
0 0
0 0
0 0
0 0
0 0
0 0
0 0
0 0
0 0
0 0
0 0
0 0
0 0
0 0
0 0
0 0
0 0
0 0
0 0
0 0
0 0
0 0
0 0
0 0
0 0
0 0
0 0
0 0
0 0
0 0
0 0
0 0
0 0
0 0
0 0
0 0
0 0
0 0
0 0
0 0
0 0
0 0
0 0
0 0
0 0
0 0
0 0
0 0
0 0
0 0
0 0
0 0
0 0
0 0
0 0
0 0
0 0
0 0
0 0
0 0
0 0
0 0
0 0
0 0
0 0
0 0
0 0
0 0
0 0
0 0
0 0
0 0
0 0
0 0
0 0
0 0
0 0
0 0
0 0
0 0
0 0
0 0
0 0
0 0
0 0
0 0
0 0
0 0
0 0
0 0
0 0
0 0
0 0
0 0
0 0
0 0
0 0
0 0
0 0
0 0
0 0
0 0
0 0
0 0
0 0
0 0
0 0
0 0
0 0
0 0
0 0
0 0
0 0
0 0
0 0
0 0
0 0
0 0
0 0
0 0
0 0
0 0
0 0
0 0
0 0
0 0
0 0
0 0
0 0
0 0
0 0
0 0
0 0
0 0
0 0
0 0
0 0
0 0
0 0
0 0
0 0
0 0
0 0
0 0
0 0
0 0
0 0
0 0
0 0
0 0
0 0
0 0
0 0
0 0
0 0
0 0
0 0
0 0
0 0
0 0
0 0
0 0
0 0
0 0
0 0
0 0
0 0
0 0
0 0
0 0
0 0
0 0
0 0
0 0
0 0
0 0
0 0
0 0
0 0
0 0
0 0
0 0
0 0
0 0
0 0
0 0
0 0
0 0
0 0
0 0
0 0
0 0
0 0
0 0
0 0
0 0
0 0
0 0
0 0
0 0
0 0
0 0
0 0
0 0
0 0
0 0
0 0
0 0
0 0
0 0
0 0
0 0
0 0
0 0
0 0
0 0
0 0
0 0
0 0
0 0
0 0
0 0
0 0
0 0
0 0
0 0
0 0
0 0
0 0
0 0
0 0
0 0
0 0
0 0
0 0
0 0
0 0
0 0
0 0
0 0
0 0
0 0
0 0
0 0
0 0
0 0
0 0
0 0
0 0
0 0
0 0
0 0
0 0
0 0
0 0
0 0
0 0
0 0
0 0
0 0
0 0
0 0
0 0
0 0
0 0
0 0
0 0
0 0
0 0
0 0
0 0
0 0
0 0
0 0
0 0
0 0
0 0
0 0
0 0
0 0
0 0
0 0
0 0
0 0
0 0
0 0
0 0
0 0
0 0
0 0
0 0
0 0
0 0
0 0
0 0
0 0
0 0
0 0
0 0
0 0
0 0
0 0
0 0
0 0
0 0
0 0
0 0
0 0
0 0
0 0
0 0
0 0
0 0
0 0
0 0
0 0
0 0
0 0
0 0
0 0
0 0
0 0
0 0
0 0
0 0
0 0
0 0
0 0
0 0
0 0
0 0
0 0
0 0
0 0
0 0
0 0
0 0
0 0
0 0
0 0
0 0
0 0
0 0
0 0
0 0
0 0
0 0
0 0
0 0
0 0
0 0
0 0
0 0
0 0
0 0
0 0
0 0
0 0
0 0
0 0
0 0
0 0
0 0
0 0
0 0
0 0
0 0
0 0
0 0
0 0
0 0
0 0
0 0
0 0
0 0
0 0
0 0
0 0
0 0
0 0
0 0
0 0
0 0
0 0
0 0
0 0
0 0
0 0
0 0
0 0
0 0
0 0
0 0
0 0
0 0
0 0
0 0
0 0
0 0
0 0
0 0
0 0
0 0
0 0
0 0
0 0
0 0
0 0
0 0
0 0
0 0
0 0
0 0
0 0
0 0
0 0
0 0
0 0
0 0
0 0
0 0
0 0
0 0
0 0
0 0
0 0
0 0
0 0
0 0
0 0
0 0
0 0
0 0
0 0
0 0
0 0
0 0
0 0
0 0
0 0
0 0
0 0
0 0
0 0
0 0
0 0
0 0
0 0
0 0
0 0
0 0
0 0
0 0
0 0
0 0
0 0
0 0
0 0
0 0
0 0
0 0
0 0
0 0
0 0
0 0
0 0
0 0
0 0
0 0
0 0
0 0
0 0
0 0
0 0
0 0
0 0
0 0
0 0
0 0
0 0
0 0
0 0
0 0
0 0
0 0
0 0
0 0
0 0
0 0
0 0
0 0
0 0
0 0
0 0
0 0
0 0
0 0
0 0
0 0
0 0
0 0
0 0
0 0
0 0
0 0
0 0
0 0
0 0
0 0
0 0
0 0
0 0
0 0
0 0
0 0
0 0
0 0
0 0
0 0
0 0
0 0
0 0
0 0
0 0
0 0
0 0
0 0
0 0
0 0
0 0
0 0
0 0
0 0
0 0
0 0
0 0
0 0
0 0
0 0
0 0
0 0
0 0
0 0
0 0
0 0
0 0
0 0
0 0
0 0
0 0
0 0
0 0
0 0
0 0
0 0
0 0
0 0
0 0
0 0
0 0
0 0
0 0
0 0
0 0
0 0
0 0
0 0
0 0
0 0
0 0
0 0
0 0
0 0
0 0
0 0
0 0
0 0
0 0
0 0
0 0
0 0
0 0
0 0
0 0
0 0
0 0
0 0
0 0
0 0
0 0
0 0
0 0
0 0
0 0
0 0
0 0
0 0
0 0
0 0
0 0
0 0
0 0
0 0
0 0
0 0
0 0
0 0
0 0
0 0
0 0
0 0
0 0
0 0
0 0
0 0
0 0
0 0
0 0
0 0
0 0
0 0
0 0
0 0
0 0
0 0
0 0
0 0
0 0
0 0
0 0
0 0
0 0
0 0
0 0
0 0
0 0
0 0
0 0
0 0
0 0
0 0
0 0
0 0
0 0
0 0
0 0
0 0
0 0
0 0
0 0
0 0
0 0
0 0
0 0
0 0
0 0
0 0
0 0
0 0
0 0
0 0
0 0
0 0
0 0
0 0
0 0
0 0
0 0
0 0
0 0
0 0
0 0
0 0
0 0
0 0
0 0
0 0
0 0
0 0
0 0
0 0
0 0
0 0
0 0
0 0
0 0
0 0
0 0
0 0
0 0
0 0
0 0
0 0
0 0
0 0
0 0
0 0
0 0
0 0
0 0
0 0
0 0
0 0
0 0
0 0
0 0
0 0
0 0
0 0
0 0
0 0
0 0
0 0
0 0
0 0
0 0
0 0
0 0
0 0
0 0
0 0
0 0
0 0
0 0
0 0
0 0
0 0
0 0
0 0
0 0
0 0
0 0
0 0
0 0
0 0
0 0
0 0
0 0
0 0
0 0
0 0
0 0
0 0
0 0
0 0
0 0
0 0
0 0
0 0
0 0
0 0
0 0
0 0
0 0
0 0
0 0
0 0
0 0
0 0
0 0
0 0
0 0
0 0
0 0
0 0
0 0
0 0
0 0
0 0
0 0
0 0
0 0
0 0
0 0
0 0
0 0
0 0
0 0
0 0
0 0
0 0
0 0
0 0
0 0
0 0
0 0
0 0
0 0
0 0
0 0
0 0
0 0
0 0
0 0
0 0
0 0
0 0
0 0
0 0
0 0
0 0
0 0
0 0
0 0
0 0
0 0
0 0
0 0
0 0
0 0
0 0
0 0
0 0
0 0
0 0
0 0
0 0
0 0
0 0
0 0
0 0
0 0
0 0
0 0
0 0
0 0
0 0
0 0
0 0
0 0
0 0
0 0
0 0
0 0
0 0
0 0
0 0
0 0
0 0
0 0
0 0
0 0
0 0
0 0
0 0
0 0
0 0
0 0
0 0
0 0
0 0
0 0
0 0
0 0
0 0
0 0
0 0
0 0
0 0
0 0
0 0
0 0
0 0
0 0
0 0
0 0
0 0
0 0
0 0
0 0
0 0
0 0
0 0
0 0
0 0
0 0
0 0
0 0
0 0
0 0
0 0
0 0
0 0
0 0
0 0
0 0
0 0
0 0
0 0
0 0
0 0
0 0
0 0
0 0
0 0
0 0
0 0
0 0
0 0
0 0
0 0
0 0
0 0
0 0
0 0
0 0
0 0
0 0
0 0
0 0
0 0
0 0
0 0
0 0
0 0
0 0
0 0
0 0
0 0
0 0
0 0
0 0
0 0
0 0
0 0
0 0
0 0
0 0
0 0
0 0
0 0
0 0
0 0
0 0
0 0
0 0
0 0
0 0
0 0
0 0
0 0
0 0
0 0
0 0
0 0
0 0
0 0
0 0
0 0
0 0
0 0
0 0
0 0
0 0
0 0
0 0
0 0
0 0
0 0
0 0
0 0
0 0
0 0
0 0
0 0
0 0
0 0
0 0
0 0
0 0
0 0
0 0
0 0
0 0
0 0
0 0
0 0
0 0
0 0
0 0
0 0
0 0
0 0
0 0
0 0
0 0
0 0
0 0
0 0
0 0
0 0
0 0
0 0
0 0
0 0
0 0
0 0
0 0
0 0
0 0
0 0
0 0
0 0
0 0
0 0
0 0
0 0
0 0
0 0
0 0
0 0
0 0
0 0
0 0
0 0
0 0
0 0
0 0
0 0
0 0
0 0
0 0
0 0
0 0
0 0
0 0
0 0
0 0
0 0
0 0
0 0
0 0
0 0
0 0
0 0
0 0
0 0
0 0
0 0
0 0
0 0
0 0
0 0
0 0
0 0
0 0
0 0
0 0
0 0
0 0
0 0
0 0
0 0
0 0
0 0
0 0
0 0
0 0
0 0
0 0
0 0
0 0
0 0
0 0
0 0
0 0
0 0
0 0
0 0
0 0
0 0
0 0
0 0
0 0
0 0
0 0
0 0
0 0
0 0
0 0
0 0
0 0
0 0
0 0
0 0
0 0
0 0
0 0
0 0
0 0
0 0
0 0
0 0
0 0
0 0
0 0
0 0
0 0
0 0
0 0
0 0
0 0
0 0
0 0
0 0
0 0
0 0
0 0
0 0
0 0
0 0
0 0
0 0
0 0
0 0
0 0
0 0
0 0
0 0
0 0
0 0
0 0
0 0
0 0
0 0
0 0
0 0
0 0
0 0
0 0
0 0
0 0
0 0
0 0
0 0
0 0
0 0
0 0
0 0
0 0
0 0
0 0
0 0
0 0
0 0
0 0
0 0
0 0
0 0
0 0
0 0
0 0
0 0
0 0
0 0
0 0
0 0
0 0
0 0
0 0
0 0
0 0
0 0
0 0
0 0
0 0
0 0
0 0
0 0
0 0
0 0
0 0
0 0
0 0
0 0
0 0
0 0
0 0
0 0
0 0
0 0
0 0
0 0
0 0
0 0
0 0
0 0
0 0
0 0
0 0
0 0
0 0
0 0
0 0
0 0
0 0
0 0
0 0
0 0
0 0
0 0
0 0
0 0
0 0
0 0
0 0
0 0
0 0
0 0
0 0
0 0
0 0
0 0
0 0
0 0
0 0
0 0
0 0
0 0
0 0
0 0
0 0
0 0
0 0
0 0
0 0
0 0
0 0
0 0
0 0
0 0
0 0
0 0
0 0
0 0
0 0
0 0
0 0
0 0
0 0
0 0
0 0
0 0
0 0
0 0
0 0
0 0
0 0
0 0
0 0
0 0
0 0
0 0
0 0
0 0
0 0
0 0
0 0
0 0
0 0
0 0
0 0
0 0
0 0
0 0
0 0
0 0
0 0
0 0
0 0
0 0
0 0
0 0
0 0
0 0
0 0
0 0
0 0
0 0
0 0
0 0
0 0
0 0
0 0
0 0
0 0
0 0
0 0
0 0
0 0
0 0
0 0
0 0
0 0
0 0
0 0
0 0
0 0
0 0
0 0
0 0
0 0
0 0
0 0
0 0
0 0
0 0
0 0
0 0
0 0
0 0
0 0
0 0
0 0
0 0
0 0
0 0
0 0
0 0
0 0
0 0
0 0
0 0
0 0
0 0
0 0
0 0
0 0
0 0
0 0
0 0
0 0
0 0
0 0
0 0
0 0
0 0
0 0
0 0
0 0
0 0
0 0
0 0
0 0
0 0
0 0
0 0
0 0
0 0
0 0
0 0
0 0
0 0
0 0
0 0
0 0
0 0
0 0
0 0
0 0
0 0
0 0
0 0
0 0
0 0
0 0
0 0
0 0
0 0
0 0
0 0
0 0
0 0
0 0
0 0
0 0
0 0
0 0
0 0
0 0
0 0
0 0
0 0
0 0
0 0
0 0
0 0
0 0
0 0
0 0
0 0
0 0
0 0
0 0
0 0
0 0
0 0
0 0
0 0
0 0
0 0
0 0
0 0
0 0
0 0
0 0
0 0
0 0
0 0
0 0
0 0
0 0
0 0
0 0
0 0
0 0
0 0
0 0
0 0
0 0
0 0
0 0
0 0
0 0
0 0
0 0
0 0
0 0
0 0
0 0
0 0
0 0
0 0
0 0
0 0
0 0
0 0
0 0
0 0
0 0
0 0
0 0
0 0
0 0
0 0
0 0
0 0
0 0
0 0
0 0
0 0
0 0
0 0
0 0
0 0
0 0
0 0
0 0
0 0
0 0
0 0
0 0
0 0
0 0
0 0
0 0
0 0
0 0
0 0
0 0
0 0
0 0
0 0
0 0
0 0
0 0
0 0
0 0
0 0
0 0
0 0
0 0
0 0
0 0
0 0
0 0
0 0
0 0
0 0
0 0
0 0
0 0
0 0
0 0
0 0
0 0
0 0
0 0
0 0
0 0
0 0
0 0
0 0
0 0
0 0
0 0
0 0
0 0
0 0
0 0
0 0
0 0
0 0
0 0
0 0
0 0
0 0
0 0
0 0
0 0
0 0
0 0
0 0
0 0
0 0
0 0
0 0
0 0
0 0
0 0
0 0
0 0
0 0
0 0
0 0
0 0
0 0
0 0
0 0
0 0
0 0
0 0
0 0
0 0
0 0
0 0
0 0
0 0
0 0
0 0
0 0
0 0
0 0
0 0
0 0
0 0
0 0
0 0
0 0
0 0
0 0
0 0
0 0
0 0
0 0
0 0
0 0
0 0
0 0
0 0
0 0
0 0
0 0
0 0
0 0
0 0
0 0
0 0
0 0
0 0
0 0
0 0
0 0
0 0
0 0
0 0
0 0
0 0
0 0
0 0
0 0
0 0
0 0
0 0
0 0
0 0
0 0
0 0
0 0
0 0
0 0
0 0
0 0
0 0
0 0
0 0
0 0
0 0
0 0
0 0
0 0
0 0
0 0
0 0
0 0
0 0
0 0
0 0
0 0
0 0
0 0
0 0
0 0
0 0
0 0
0 0
0 0
0 0
0 0
0 0
0 0
0 0
0 0
0 0
0 0
0 0
0 0
0 0
0 0
0 0
0 0
0 0
0 0
0 0
0 0
0 0
0 0
0 0
0 0
0 0
0 0
0 0
0 0
0 0
0 0
0 0
0 0
0 0
0 0
0 0
0 0
0 0
0 0
0 0
0 0
0 0
0 0
0 0
0 0
0 0
0 0
0 0
0 0
0 0
0 0
0 0
0 0
0 0
0 0
0 0
0 0
0 0
0 0
0 0
0 0
0 0
0 0
0 0
0 0
0 0
0 0
0 0
0 0
0 0
0 0
0 0
0 0
0 0
0 0
0 0
0 0
0 0
0 0
0 0
0 0
0 0
0 0
0 0
0 0
0 0
0 0
0 0
0 0
0 0
0 0
0 0
0 0
0 0
0 0
0 0
0 0
0 0
0 0
0 0
0 0
0 0
0 0
0 0
0 0
0 0
0 0
0 0
0 0
0 0
0 0
0 0
0 0
0 0
0 0
0 0
0 0
0 0
0 0
0 0
0 0
0 0
0 0
0 0
0 0
0 0
0 0
0 0
0 0
0 0
0 0
0 0
0 0
0 0
0 0
0 0
0 0
0 0
0 0
0 0
0 0
0 0
0 0
0 0
0 0
0 0
0 0
0 0
0 0
0 0
0 0
0 0
0 0
0 0
0 0
0 0
0 0
0 0
0 0
0 0
0 0
0 0
0 0
0 0
0 0
0 0
0 0
0 0
0 0
0 0
0 0
0 0
0 0
0 0
0 0
0 0
0 0
0 0
0 0
0 0
0 0
0 0
0 0
0 0
0 0
0 0
0 0
0 0
0 0
0 0
0 0
0 0
0 0
0 0
0 0
0 0
0 0
0 0
0 0
0 0
0 0
0 0
0 0
0 0
0 0
0 0
0 0
0 0
0 0
0 0
0 0
0 0
0 0
0 0
0 0
0 0
0 0
0 0
0 0
0 0
0 0
0 0
0 0
0 0
0 0
0 0
0 0
0 0
0 0
0 0
0 0
0 0
0 0
0 0
0 0
0 0
0 0
0 0
0 0
0 0
0 0
0 0
0 0
0 0
0 0
0 0
0 0
0 0
0 0
0 0
0 0
0 0
0 0
0 0
0 0
0 0
0 0
0 0
0 0
0 0
0 0
0 0
0 0
0 0
0 0
0 0
0 0
0 0
0 0
0 0
0 0
0 0
0 0
0 0
0 0
0 0
0 0
0 0
0 0
0 0
0 0
0 0
0 0
0 0
0 0
0 0
0 0
0 0
0 0
0 0
0 0
0 0
0 0
0 0
0 0
0 0
0 0
0 0
0 0
0 0
0 0
0 0
0 0
0 0
0 0
0 0
0 0
0 0
0 0
0 0
0 0
0 0
0 0
0 0
0 0
0 0
0 0
0 0
0 0
0 0
0 0
0 0
0 0
0 0
0 0
0 0
0 0
0 0
0 0
0 0
0 0
0 0
0 0
0 0
0 0
0 0
0 0
0 0
0 0
0 0
0 0
0 0
0 0
0 0
0 0
0 0
0 0
0 0
0 0
0 0
0 0
0 0
0 0
0 0
0 0
0 0
0 0
0 0
0 0
0 0
0 0
0 0
0 0
0 0
0 0
0 0
0 0
0 0
0 0
0 0
0 0
0 0
0 0
0 0
0 0
0 0
0 0
0 0
0 0
0 0
0 0
0 0
0 0
0 0
0 0
0 0
0 0
0 0
0 0
0 0
0 0
0 0
0 0
0 0
0 0
0 0
0 0
0 0
0 0
0 0
0 0
0 0
0 0
0 0
0 0
0 0
0 0
0 0
0 0
0 0
0 0
0 0
0 0
0 0
0 0
0 0
0 0
0 0
0 0
0 0
0 0
0 0
0 0
0 0
0 0
0 0
0 0
0 0
0 0
0 0
0 0
0 0
0 0
0 0
0 0
0 0
0 0
0 0
0 0
0 0
0 0
0 0
0 0
0 0
0 0
0 0
0 0
0 0
0 0
0 0
0 0
0 0
0 0
0 0
0 0
0 0
0 0
0 0
0 0
0 0
0 0
0 0
0 0
0 0
0 0
0 0
0 0
0 0
0 0
0 0
0 0
0 0
0 0
0 0
0 0
0 0
0 0
0 0
0 0
0 0
0 0
0 0
0 0
0 0
0 0
0 0
0 0
0 0
0 0
0 0
0 0
0 0
0 0
0 0
0 0
0 0
0 0
0 0
0 0
0 0
0 0
0 0
0 0
0 0
0 0
0 0
0 0
0 0
0 0
0 0
0 0
0 0
0 0
0 0
0 0
0 0
0 0
0 0
0 0
0 0
0 0
0 0
0 0
0 0
0 0
0 0
0 0
0 0
0 0
0 0
0 0
0 0
0 0
0 0
0 0
0 0
0 0
0 0
0 0
0 0
0 0
0 0
0 0
0 0
0 0
0 0
0 0
0 0
0 0
0 0
0 0
0 0
0 0
0 0
0 0
0 0
0 0
0 0
0 0
0 0
0 0
0 0
0 0
0 0
0 0
0 0
0 0
0 0
0 0
0 0
0 0
0 0
0 0
0 0
0 0
0 0
0 0
0 0
0 0
0 0
0 0
0 0
0 0
0 0
0 0
0 0
0 0
0 0
0 0
0 0
0 0
0 0
0 0
0 0
0 0
0 0
0 0
0 0
0 0
0 0
0 0
0 0
0 0
0 0
0 0
0 0
0 0
0 0
0 0
0 0
0 0
0 0
0 0
0 0
0 0
0 0
0 0
0 0
0 0
0 0
0 0
0 0
0 0
0 0
0 0
0 0
0 0
0 0
0 0
0 0
0 0
0 0
0 0
0 0
0 0
0 0
0 0
0 0
0 0
0 0
0 0
0 0
0 0
0 0
0 0
0 0
0 0
0 0
0 0
0 0
0 0
0 0
0 0
0 0
0 0
0 0
0 0
0 0
0 0
0 0
0 0
0 0
0 0
0 0
0 0
0 0
0 0
0 0
0 0
0 0
0 0
0 0
0 0
0 0
0 0
0 0
0 0
0 0
0 0
0 0
0 0
0 0
0 0
0 0
0 0
0 0
0 0
0 0
0 0
0 0
0 0
0 0
0 0
0 0
0 0
0 0
0 0
0 0
0 0
0 0
0 0
0 0
0 0
0 0
0 0
0 0
0 0
0 0
0 0
0 0
0 0
0 0
0 0
0 0
0 0
0 0
0 0
0 0
0 0
0 0
0 0
0 0
0 0
0 0
0 0
0 0
0 0
0 0
0 0
0 0
0 0
0 0
0 0
0 0
0 0
0 0
0 0
0 0
0 0
0 0
0 0
0 0
0 0
0 0
0 0
0 0
0 0
0 0
0 0
0 0
0 0
0 0
0 0
0 0
0 0
0 0
0 0
0 0
0 0
0 0
0 0
0 0
0 0
0 0
0 0
0 0
0 0
0 0
0 0
0 0
0 0
0 0
0 0
0 0
0 0
0 0
0 0
0 0
0 0
0 0
0 0
0 0
0 0
0 0
0 0
0 0
0 0
0 0
0 0
0 0
0 0
0 0
0 0
0 0
0 0
0 0
0 0
0 0
0 0
0 0
0 0
0 0
0 0
0 0
0 0
0 0
0 0
0 0
0 0
0 0
0 0
0 0
0 0
0 0
0 0
0 0
0 0
0 0
0 0
0 0
0 0
0 0
0 0
0 0
0 0
0 0
0 0
0 0
0 0
0 0
0 0
0 0
0 0
0 0
0 0
0 0
0 0
0 0
0 0
0 0
0 0
0 0
0 0
0 0
0 0
0 0
0 0
0 0
0 0
0 0
0 0
0 0
0 0
0 0
0 0
0 0
0 0
0 0
0 0
0 0
0 0
0 0
0 0
0 0
0 0
0 0
0 0
0 0
0 0
0 0
0 0
0 0
0 0
0 0
0 0
0 0
0 0
0 0
0 0
0 0
0 0
0 0
0 0
0 0
0 0
0 0
0 0
0 0
0 0
0 0
0 0
0 0
0 0
0 0
0 0
0 0
0 0
0 0
0 0
0 0
0 0
0 0
0 0
0 0
0 0
0 0
0 0
0 0
0 0
0 0
0 0
0 0
0 0
0 0
0 0
0 0
0 0
0 0
0 0
0 0
0 0
0 0
0 0
0 0
0 0
0 0
0 0
0 0
0 0
0 0
0 0
0 0
0 0
0 0
0 0
0 0
0 0
0 0
0 0
0 0
0 0
0 0
0 0
0 0
0 0
0 0
0 0
0 0
0 0
0 0
0 0
0 0
0 0
0 0
0 0
0 0
0 0
0 0
0 0
0 0
0 0
0 0
0 0
0 0
0 0
0 0
0 0
0 0
0 0
0 0
0 0
0 0
0 0
0 0
0 0
0 0
0 0
0 0
0 0
0 0
0 0
0 0
0 0
0 0
0 0
0 0
0 0
0 0
0 0
0 0
0 0
0 0
0 0
0 0
0 0
0 0
0 0
0 0
0 0
0 0
0 0
0 0
0 0
0 0
0 0
0 0
0 0
0 0
0 0
0 0
0 0
0 0
0 0
0 0
0 0
0 0
0 0
0 0
0 0
0 0
0 0
0 0
0 0
0 0
0 0
0 0
0 0
0 0
0 0
0 0
0 0
0 0
0 0
0 0
0 0
0 0
0 0
0 0
0 0
0 0
0 0
0 0
0 0
0 0
0 0
0 0
0 0
0 0
0 0
0 0
0 0
0 0
0 0
0 0
0 0
0 0
0 0
0 0
0 0
0 0
0 0
0 0
0 0
0 0
0 0
0 0
0 0
0 0
0 0
0 0
0 0
0 0
0 0
0 0
0 0
0 0
0 0
0 0
0 0
0 0
0 0
0 0
0 0
0 0
0 0
0 0
0 0
0 0
0 0
0 0
0 0
0 0
0 0
0 0
0 0
0 0
0 0
0 0
0 0
0 0
0 0
0 0
0 0
0 0
0 0
0 0
0 0
0 0
0 0
0 0
0 0
0 0
0 0
0 0
0 0
0 0
0 0
0 0
0 0
0 0
0 0
0 0
0 0
0 0
0 0
0 0
0 0
0 0
0 0
0 0
0 0
0 0
0 0
0 0
0 0
0 0
0 0
0 0
0 0
0 0
0 0
0 0
0 0
0 0
0 0
0 0
0 0
0 0
0 0
0 0
0 0
0 0
0 0
0 0
0 0
0 0
0 0
0 0
0 0
0 0
0 0
0 0
0 0
0 0
0 0
0 0
0 0
0 0
0 0
0 0
0 0
0 0
0 0
0 0
0 0
0 0
0 0
0 0
0 0
0 0
0 0
0 0
0 0
0 0
0 0
0 0
0 0
0 0
0 0
0 0
0 0
0 0
0 0
0 0
0 0
0 0
0 0
0 0
0 0
0 0
0 0
0 0
0 0
0 0
0 0
0 0
0 0
0 0
0 0
0 0
0 0
0 0
0 0
0 0
0 0
0 0
0 0
0 0
0 0
0 0
0 0
0 0
0 0
0 0
0 0
0 0
0 0
0 0
0 0
0 0
0 0
0 0
0 0
0 0
0 0
0 0
0 0
0 0
0 0
0 0
0 0
0 0
0 0
0 0
0 0
0 0
0 0
0 0
0 0
0 0
0 0
0 0
0 0
0 0
0 0
0 0
0 0
0 0
0 0
0 0
0 0
0 0
0 0
0 0
0 0
0 0
0 0
0 0
0 0
0 0
0 0
0 0
0 0
0 0
0 0
0 0
0 0
0 0
0 0
0 0
0 0
0 0
0 0
0 0
0 0
0 0
0 0
0 0
0 0
0 0
0 0
0 0
0 0
0 0
0 0
0 0
0 0
0 0
0 0
0 0
0 0
0 0
0 0
0 0
0 0
0 0
0 0
0 0
0 0
0 0
0 0
0 0
0 0
0 0
0 0
0 0
0 0
0 0
0 0
0 0
0 0
0 0
0 0
0 0
0 0
0 0
0 0
0 0
0 0
0 0
0 0
0 0
0 0
0 0
0 0
0 0
0 0
0 0
0 0
0 0
0 0
0 0
0 0
0 0
0 0
0 0
0 0
0 0
0 0
0 0
0 0
0 0
0 0
0 0
0 0
0 0
0 0
0 0
0 0
0 0
0 0
0 0
0 0
0 0
0 0
0 0
0 0
0 0
0 0
0 0
0 0
0 0
0 0
0 0
0 0
0 0
0 0
0 0
0 0
0 0
0 0
0 0
0 0
0 0
0 0
0 0
0 0
0 0
0 0
0 0
0 0
0 0
0 0
0 0
0 0
0 0
0 0
0 0
0 0
0 0
0 0
0 0
0 0
0 0
0 0
0 0
0 0
0 0
0 0
0 0
0 0
0 0
0 0
0 0
0 0
0 0
0 0
0 0
0 0
0 0
0 0
0 0
0 0
0 0
0 0
0 0
0 0
0 0
0 0
0 0
0 0
0 0
0 0
0 0
0 0
0 0
0 0
0 0
0 0
0 0
0 0
0 0
0 0
0 0
0 0
0 0
0 0
0 0
0 0
0 0
0 0
0 0
0 0
0 0
0 0
0 0
0 0
0 0
0 0
0 0
0 0
0 0
0 0
0 0
0 0
0 0
0 0
0 0
0 0
0 0
0 0
0 0
0 0
0 0
0 0
0 0
0 0
0 0
0 0
0 0
0 0
0 0
0 0
0 0
0 0
0 0
0 0
0 0
0 0
0 0
0 0
0 0
0 0
0 0
0 0
0 0
0 0
0 0
0 0
0 0
0 0
0 0
0 0
0 0
0 0
0 0
0 0
0 0
0 0
0 0
0 0
0 0
0 0
0 0
0 0
0 0
0 0
0 0
0 0
0 0
0 0
0 0
0 0
0 0
0 0
0 0
0 0
0 0
0 0
0 0
0 0
0 0
0 0
0 0
0 0
0 0
0 0
0 0
0 0
0 0
0 0
0 0
0 0
0 0
0 0
0 0
0 0
0 0
0 0
0 0
0 0
0 0
0 0
0 0
0 0
0 0
0 0
0 0
0 0
0 0
0 0
0 0
0 0
0 0
0 0
0 0
0 0
0 0
0 0
0 0
0 0
0 0
0 0
0 0
0 0
0 0
0 0
0 0
0 0
0 0
0 0
0 0
0 0
0 0
0 0
0 0
0 0
0 0
0 0
0 0
0 0
0 0
0 0
0 0
0 0
0 0
0 0
0 0
0 0
0 0
0 0
0 0
0 0
0 0
0 0
0 0
0 0
0 0
0 0
0 0
0 0
0 0
0 0
0 0
0 0
0 0
0 0
0 0
0 0
0 0
0 0
0 0
0 0
0 0
0 0
0 0
0 0
0 0
0 0
0 0
0 0
0 0
0 0
0 0
0 0
0 0
0 0
0 0
0 0
0 0
0 0
0 0
0 0
0 0
0 0
0 0
0 0
0 0
0 0
0 0
0 0
0 0
0 0
0 0
0 0
0 0
0 0
0 0
0 0
0 0
0 0
0 0
0 0
0 0
0 0
0 0
0 0
0 0
0 0
0 0
0 0
0 0
0 0
0 0
0 0
0 0
0 0
0 0
0 0
0 0
0 0
0 0
0 0
0 0
0 0
0 0
0 0
0 0
0 0
0 0
0 0
0 0
0 0
0 0
0 0
0 0
0 0
0 0
0 0
0 0
0 0
0 0
0 0
0 0
0 0
0 0
0 0
0 0
0 0
0 0
0 0
0 0
0 0
0 0
0 0
0 0
0 0
0 0
0 0
0 0
0 0
0 0
0 0
0 0
0 0
0 0
0 0
0 0
0 0
0 0
0 0
0 0
0 0
0 0
0 0
0 0
0 0
0 0
0 0
0 0
0 0
0 0
0 0
0 0
0 0
0 0
0 0
0 0
0 0
0 0
0 0
0 0
0 0
0 0
0 0
0 0
0 0
0 0
0 0
0 0
0 0
0 0
0 0
0 0
0 0
0 0
0 0
0 0
0 0
0 0
0 0
0 0
0 0
0 0
0 0
0 0
0 0
0 0
0 0
0 0
0 0
0 0
0 0
0 0
0 0
0 0
0 0
0 0
0 0
0 0
0 0
0 0
0 0
0 0
0 0
0 0
0 0
0 0
0 0
0 0
0 0
0 0
0 0
0 0
0 0
0 0
0 0
0 0
0 0
0 0
0 0
0 0
0 0
0 0
0 0
0 0
0 0
0 0
0 0
0 0
0 0
0 0
0 0
0 0
0 0
0 0
0 0
0 0
0 0
0 0
0 0
0 0
0 0
0 0
0 0
0 0
0 0
0 0
0 0
0 0
0 0
0 0
0 0
0 0
0 0
0 0
0 0
0 0
0 0
0 0
0 0
0 0
0 0
0 0
0 0
0 0
0 0
0 0
0 0
0 0
0 0
0 0
0 0
0 0
0 0
0 0
0 0
0 0
0 0
0 0
0 0
0 0
0 0
0 0
0 0
0 0
0 0
0 0
0 0
0 0
0 0
0 0
0 0
0 0
0 0
0 0
0 0
0 0
0 0
0 0
0 0
0 0
0 0
0 0
0 0
0 0
0 0
0 0
0 0
0 0
0 0
0 0
0 0
0 0
0 0
0 0
0 0
0 0
0 0
0 0
0 0
0 0
0 0
0 0
0 0
0 0
0 0
0 0
0 0
0 0
0 0
0 0
0 0
0 0
0 0
0 0
0 0
0 0
0 0
0 0
0 0
0 0
0 0
0 0
0 0
0 0
0 0
0 0
0 0
0 0
0 0
0 0
0 0
0 0
0 0
0 0
0 0
0 0
0 0
0 0
0 0
0 0
0 0
0 0
0 0
0 0
0 0
0 0
0 0
0 0
0 0
0 0
0 0
0 0
0 0
0 0
0 0
0 0
0 0
0 0
0 0
0 0
0 0
0 0
0 0
0 0
0 0
0 0
0 0
0 0
0 0
0 0
0 0
0 0
0 0
0 0
0 0
0 0
0 0
0 0
0 0
0 0
0 0
0 0
0 0
0 0
0 0
0 0
0 0
0 0
0 0
0 0
0 0
0 0
0 0
0 0
0 0
0 0
0 0
0 0
0 0
0 0
0 0
0 0
0 0
0 0
0 0
0 0
0 0
0 0
0 0
0 0
0 0
0 0
0 0
0 0
0 0
0 0
0 0
0 0
0 0
0 0
0 0
0 0
0 0
0 0
0 0
0 0
0 0
0 0
0 0
0 0
0 0
0 0
0 0
0 0
0 0
0 0
0 0
0 0
0 0
0 0
0 0
0 0
0 0
0 0
0 0
0 0
0 0
0 0
0 0
0 0
0 0
0 0
0 0
0 0
0 0
0 0
0 0
0 0
0 0
0 0
0 0
0 0
0 0
0 0
0 0
0 0
0 0
0 0
0 0
0 0
0 0
0 0
0 0
0 0
0 0
0 0
0 0
0 0
0 0
0 0
0 0
0 0
0 0
0 0
0 0
0 0
0 0
0 0
0 0
0 0
0 0
0 0
0 0
0 0
0 0
0 0
0 0
0 0
0 0
0 0
0 0
0 0
0 0
0 0
0 0
0 0
0 0
0 0
0 0
0 0
0 0
0 0
0 0
0 0
0 0
0 0
0 0
0 0
0 0
0 0
0 0
0 0
0 0
0 0
0 0
0 0
0 0
0 0
0 0
0 0
0 0
0 0
0 0
0 0
0 0
0 0
0 0
0 0
0 0
0 0
0 0
0 0
0 0
0 0
0 0
0 0
0 0
0 0
0 0
0 0
0 0
0 0
0 0
0 0
0 0
0 0
0 0
0 0
0 0
0 0
0 0
0 0
0 0
0 0
0 0
0 0
0 0
0 0
0 0
0 0
0 0
0 0
0 0
0 0
0 0
0 0
0 0
0 0
0 0
0 0
0 0
0 0
0 0
0 0
0 0
0 0
0 0
0 0
0 0
0 0
0 0
0 0
0 0
0 0
0 0
0 0
0 0
0 0
0 0
0 0
0 0
0 0
0 0
0 0
0 0
0 0
0 0
0 0
0 0
0 0
0 0
0 0
0 0
0 0
0 0
0 0
0 0
0 0
0 0
0 0
0 0
0 0
0 0
0 0
0 0
0 0
0 0
0 0
0 0
0 0
0 0
0 0
0 0
0 0
0 0
0 0
0 0
0 0
0 0
0 0
0 0
0 0
0 0
0 0
0 0
0 0
0 0
0 0
0 0
0 0
0 0
0 0
0 0
0 0
0 0
0 0
0 0
0 0
0 0
0 0
0 0
0 0
0 0
0 0
0 0
0 0
0 0
0 0
0 0
0 0
0 0
0 0
0 0
0 0
0 0
0 0
0 0
0 0
0 0
0 0
0 0
0 0
0 0
0 0
0 0
0 0
0 0
0 0
0 0
0 0
0 0
0 0
0 0
0 0
0 0
0 0
0 0
0 0
0 0
0 0
0 0
0 0
0 0
0 0
0 0
0 0
0 0
0 0
0 0
0 0
0 0
0 0
0 0
0 0
0 0
0 0
0 0
0 0
0 0
0 0
0 0
0 0
0 0
0 0
0 0
0 0
0 0
0 0
0 0
0 0
0 0
0 0
0 0
0 0
0 0
0 0
0 0
0 0
0 0
0 0
0 0
0 0
0 0
0 0
0 0
0 0
0 0
0 0
0 0
0 0
0 0
0 0
0 0
0 0
0 0
0 0
0 0
0 0
0 0
0 0
0 0
0 0
0 0
0 0
0 0
0 0
0 0
0 0
0 0
0 0
0 0
0 0
0 0
0 0
0 0
0 0
0 0
0 0
0 0
0 0
0 0
0 0
0 0
0 0
0 0
0 0
0 0
0 0
0 0
0 0
0 0
0 0
0 0
0 0
0 0
0 0
0 0
0 0
0 0
0 0
0 0
0 0
0 0
0 0
0 0
0 0
0 0
0 0
0 0
0 0
0 0
0 0
0 0
0 0
0 0
0 0
0 0
0 0
0 0
0 0
0 0
0 0
0 0
0 0
0 0
0 0
0 0
0 0
0 0
0 0
0 0
0 0
0 0
0 0
0 0
0 0
0 0
0 0
0 0
0 0
0 0
0 0
0 0
0 0
0 0
0 0
0 0
0 0
0 0
0 0
0 0
0 0
0 0
0 0
0 0
0 0
0 0
0 0
0 0
0 0
0 0
0 0
0 0
0 0
0 0
0 0
0 0
0 0
0 0
0 0
0 0
0 0
0 0
0 0
0 0
0 0
0 0
0 0
0 0
0 0
0 0
0 0
0 0
0 0
0 0
0 0
0 0
0 0
0 0
0 0
0 0
0 0
0 0
0 0
0 0
0 0
0 0
0 0
0 0
0 0
0 0
0 0
0 0
0 0
0 0
0 0
0 0
0 0
0 0
0 0
0 0
0 0
0 0
0 0
0 0
0 0
0 0
0 0
0 0
0 0
0 0
0 0
0 0
0 0
0 0
0 0
0 0
0 0
0 0
0 0
0 0
0 0
0 0
0 0
0 0
0 0
0 0
0 0
0 0
0 0
0 0
0 0
0 0
0 0
0 0
0 0
0 0
0 0
0 0
0 0
0 0
0 0
0 0
0 0
0 0
0 0
0 0
0 0
0 0
0 0
0 0
0 0
0 0
0 0
0 0
0 0
0 0
0 0
0 0
0 0
0 0
0 0
0 0
0 0
0 0
0 0
0 0
0 0
0 0
0 0
0 0
0 0
0 0
0 0
0 0
0 0
0 0
0 0
0 0
0 0
0 0
0 0
0 0
0 0
0 0
0 0
0 0
0 0
0 0
0 0
0 0
0 0
0 0
0 0
0 0
0 0
0 0
0 0
0 0
0 0
0 0
0 0
0 0
0 0
0 0
0 0
0 0
0 0
0 0
0 0
0 0
0 0
0 0
0 0
0 0
0 0
0 0
0 0
0 0
0 0
0 0
0 0
0 0
0 0
0 0
0 0
0 0
0 0
0 0
0 0
0 0
0 0
0 0
0 0
0 0
0 0
0 0
0 0
0 0
0 0
0 0
0 0
0 0
0 0
0 0
0 0
0 0
0 0
0 0
0 0
0 0
0 0
0 0
0 0
0 0
0 0
0 0
0 0
0 0
0 0
0 0
0 0
0 0
0 0
0 0
0 0
0 0
0 0
0 0
0 0
0 0
0 0
0 0
0 0
0 0
0 0
0 0
0 0
0 0
0 0
0 0
0 0
0 0
0 0
0 0
0 0
0 0
0 0
0 0
0 0
0 0
0 0
0 0
0 0
0 0
0 0
0 0
0 0
0 0
0 0
0 0
0 0
0 0
0 0
0 0
0 0
0 0
0 0
0 0
0 0
0 0
0 0
0 0
0 0
0 0
0 0
0 0
0 0
0 0
0 0
0 0
0 0
0 0
0 0
0 0
0 0
0 0
0 0
0 0
0 0
0 0
0 0
0 0
0 0
0 0
0 0
0 0
0 0
0 0
0 0
0 0
0 0
0 0
0 0
0 0
0 0
0 0
0 0
0 0
0 0
0 0
0 0
0 0
0 0
0 0
0 0
0 0
0 0
0 0
0 0
0 0
0 0
0 0
0 0
0 0
0 0
0 0
0 0
0 0
0 0
0 0
0 0
0 0
0 0
0 0
0 0
0 0
0 0
0 0
0 0
0 0
0 0
0 0
0 0
0 0
0 0
0 0
0 0
0 0
0 0
0 0
0 0
0 0
0 0
0 0
0 0
0 0
0 0
0 0
0 0
0 0
0 0
0 0
0 0
0 0
0 0
0 0
0 0
0 0
0 0
0 0
0 0
0 0
0 0
0 0
0 0
0 0
0 0
0 0
0 0
0 0
0 0
0 0
0 0
0 0
0 0
0 0
0 0
0 0
0 0
0 0
0 0
0 0
0 0
0 0
0 0
0 0
0 0
0 0
0 0
0 0
0 0
0 0
0 0
0 0
0 0
0 0
0 0
0 0
0 0
0 0
0 0
0 0
0 0
0 0
0 0
0 0
0 0
0 0
0 0
0 0
0 0
0 0
0 0
0 0
0 0
0 0
0 0
0 0
0 0
0 0
0 0
0 0
0 0
0 0
0 0
0 0
0 0
0 0
0 0
0 0
0 0
0 0
0 0
0 0
0 0
0 0
0 0
0 0
0 0
0 0
0 0
0 0
0 0
0 0
0 0
0 0
0 0
0 0
0 0
0 0
0 0
0 0
0 0
0 0
0 0
0 0
0 0
0 0
0 0
0 0
0 0
0 0
0 0
0 0
0 0
0 0
0 0
0 0
0 0
0 0
0 0
0 0
0 0
0 0
0 0
0 0
0 0
0 0
0 0
0 0
0 0
0 0
0 0
0 0
0 0
0 0
0 0
0 0
0 0
0 0
0 0
0 0
0 0
0 0
0 0
0 0
0 0
0 0
0 0
0 0
0 0
0 0
0 0
0 0
0 0
0 0
0 0
0 0
0 0
0 0
0 0
0 0
0 0
0 0
0 0
0 0
0 0
0 0
0 0
0 0
0 0
0 0
0 0
0 0
0 0
0 0
0 0
0 0
0 0
0 0
0 0
0 0
0 0
0 0
0 0
0 0
0 0
0 0
0 0
0 0
0 0
0 0
0 0
0 0
0 0
0 0
0 0
0 0
0 0
0 0
0 0
0 0
0 0
0 0
0 0
0 0
0 0
0 0
0 0
0 0
0 0
0 0
0 0
0 0
0 0
0 0
0 0
0 0
0 0
0 0
0 0
0 0
0 0
0 0
0 0
0 0
0 0
0 0
0 0
0 0
0 0
0 0
0 0
0 0
0 0
0 0
0 0
0 0
0 0
0 0
0 0
0 0
0 0
0 0
0 0
0 0
0 0
0 0
0 0
0 0
0 0
0 0
0 0
0 0
0 0
0 0
0 0
0 0
0 0
0 0
0 0
0 0
0 0
0 0
0 0
0 0
0 0
0 0
0 0
0 0
0 0
0 0
0 0
0 0
0 0
0 0
0 0
0 0
0 0
0 0
0 0
0 0
0 0
0 0
0 0
0 0
0 0
0 0
0 0
0 0
0 0
0 0
0 0
0 0
0 0
0 0
0 0
0 0
0 0
0 0
0 0
0 0
0 0
0 0
0 0
0 0
0 0
0 0
0 0
0 0
0 0
0 0
0 0
0 0
0 0
0 0
0 0
0 0
0 0
0 0
0 0
0 0
0 0
0 0
0 0
0 0
0 0
0 0
0 0
0 0
0 0
0 0
0 0
0 0
0 0
0 0
0 0
0 0
0 0
0 0
0 0
0 0
0 0
0 0
0 0
0 0
0 0
0 0
0 0
0 0
0 0
0 0
0 0
0 0
0 0
0 0
0 0
0 0
0 0
0 0
0 0
0 0
0 0
0 0
0 0
0 0
0 0
0 0
0 0
0 0
0 0
0 0
0 0
0 0
0 0
0 0
0 0
0 0
0 0
0 0
0 0
0 0
0 0
0 0
0 0
0 0
0 0
0 0
0 0
0 0
0 0
0 0
0 0
0 0
0 0
0 0
0 0
0 0
0 0
0 0
0 0
0 0
0 0
0 0
0 0
0 0
0 0
0 0
0 0
0 0
0 0
0 0
0 0
0 0
0 0
0 0
0 0
0 0
0 0
0 0
0 0
0 0
0 0
0 0
0 0
0 0
0 0
0 0
0 0
0 0
0 0
0 0
0 0
0 0
0 0
0 0
0 0
0 0
0 0
0 0
0 0
0 0
0 0
0 0
0 0
0 0
0 0
0 0
0 0
0 0
0 0
0 0
0 0
0 0
0 0
0 0
0 0
0 0
0 0
0 0
0 0
0 0
0 0
0 0
0 0
0 0
0 0
0 0
0 0
0 0
0 0
0 0
0 0
0 0
0 0
0 0
0 0
0 0
0 0
0 0
0 0
0 0
0 0
0 0
0 0
0 0
0 0
0 0
0 0
0 0
0 0
0 0
0 0
0 0
0 0
0 0
0 0
0 0
0 0
0 0
0 0
0 0
0 0
0 0
0 0
0 0
0 0
0 0
0 0
0 0
0 0
0 0
0 0
0 0
0 0
0 0
0 0
0 0
0 0
0 0
0 0
0 0
0 0
0 0
0 0
0 0
0 0
0 0
0 0
0 0
0 0
0 0
0 0
0 0
0 0
0 0
0 0
0 0
0 0
0 0
0 0
0 0
0 0
0 0
0 0
0 0
0 0
0 0
0 0
0 0
0 0
0 0
0 0
0 0
0 0
0 0
0 0
0 0
0 0
0 0
0 0
0 0
0 0
0 0
0 0
0 0
0 0
0 0
0 0
0 0
0 0
0 0
0 0
0 0
0 0
0 0
0 0
0 0
0 0
0 0
0 0
0 0
0 0
0 0
0 0
0 0
0 0
0 0
0 0
0 0
0 0
0 0
0 0
0 0
0 0
0 0
0 0
0 0
0 0
0 0
0 0
0 0
0 0
0 0
0 0
0 0
0 0
0 0
0 0
0 0
0 0
0 0
0 0
0 0
0 0
0 0
0 0
0 0
0 0
0 0
0 0
0 0
0 0
0 0
0 0
0 0
0 0
0 0
0 0
0 0
0 0
0 0
0 0
0 0
0 0
0 0
0 0
0 0
0 0
0 0
0 0
0 0
0 0
0 0
0 0
0 0
0 0
0 0
0 0
0 0
0 0
0 0
0 0
0 0
0 0
0 0
0 0
0 0
0 0
0 0
0 0
0 0
0 0
0 0
0 0
0 0
0 0
0 0
0 0
0 0
0 0
0 0
0 0
0 0
0 0
0 0
0 0
0 0
0 0
0 0
0 0
0 0
0 0
0 0
0 0
0 0
0 0
0 0
0 0
0 0
0 0
0 0
0 0
0 0
0 0
0 0
0 0
0 0
0 0
0 0
0 0
0 0
0 0
0 0
0 0
0 0
0 0
0 0
0 0
0 0
0 0
0 0
0 0
0 0
0 0
0 0
0 0
0 0
0 0
0 0
0 0
0 0
0 0
0 0
0 0
0 0
0 0
0 0
0 0
0 0
0 0
0 0
0 0
0 0
0 0
0 0
0 0
0 0
0 0
0 0
0 0
0 0
0 0
0 0
0 0
0 0
0 0
0 0
0 0
0 0
0 0
0 0
0 0
0 0
0 0
0 0
0 0
0 0
0 0
0 0
0 0
0 0
0 0
0 0
0 0
0 0
0 0
0 0
0 0
0 0
0 0
0 0
0 0
0 0
0 0
0 0
0 0
0 0
0 0
0 0
0 0
0 0
0 0
0 0
0 0
0 0
0 0
0 0
0 0
0 0
0 0
0 0
0 0
0 0
0 0
0 0
0 0
0 0
0 0
0 0
0 0
0 0
0 0
0 0
0 0
0 0
0 0
0 0
0 0
0 0
0 0
0 0
0 0
0 0
0 0
0 0
0 0
0 0
0 0
0 0
0 0
0 0
0 0
0 0
0 0
0 0
0 0
0 0
0 0
0 0
0 0
0 0
0 0
0 0
0 0
0 0
0 0
0 0
0 0
0 0
0 0
0 0
0 0
0 0
0 0
0 0
0 0
0 0
0 0
0 0
0 0
0 0
0 0
0 0
0 0
0 0
0 0
0 0
0 0
0 0
0 0
0 0
0 0
0 0
0 0
0 0
0 0
0 0
0 0
0 0
0 0
0 0
0 0
0 0
0 0
0 0
0 0
0 0
0 0
0 0
0 0
0 0
0 0
0 0
0 0
0 0
0 0
0 0
0 0
0 0
0 0
0 0
0 0
0 0
0 0
0 0
0 0
0 0
0 0
0 0
0 0
0 0
0 0
0 0
0 0
0 0
0 0
0 0
0 0
0 0
0 0
0 0
0 0
0 0
0 0
0 0
0 0
0 0
0 0
0 0
0 0
0 0
0 0
0 0
0 0
0 0
0 0
0 0
0 0
0 0
0 0
0 0
0 0
0 0
0 0
0 0
0 0
0 0
0 0
0 0
0 0
0 0
0 0
0 0
0 0
0 0
0 0
0 0
0 0
0 0
0 0
0 0
0 0
0 0
0 0
0 0
0 0
0 0
0 0
0 0
0 0
0 0
0 0
0 0
0 0
0 0
0 0
0 0
0 0
0 0
0 0
0 0
0 0
0 0
0 0
0 0
0 0
0 0
0 0
0 0
0 0
0 0
0 0
0 0
0 0
0 0
0 0
0 0
0 0
0 0
0 0
0 0
0 0
0 0
0 0
0 0
0 0
0 0
0 0
0 0
0 0
0 0
0 0
0 0
0 0
0 0
0 0
0 0
0 0
0 0
0 0
0 0
0 0
0 0
0 0
0 0
0 0
0 0
0 0
0 0
0 0
0 0
0 0
0 0
0 0
0 0
0 0
0 0
0 0
0 0
0 0
0 0
0 0
0 0
0 0
0 0
0 0
0 0
0 0
0 0
0 0
0 0
0 0
0 0
0 0
0 0
0 0
0 0
0 0
0 0
0 0
0 0
0 0
0 0
0 0
0 0
0 0
0 0
0 0
0 0
0 0
0 0
0 0
0 0
0 0
0 0
0 0
0 0
0 0
0 0
0 0
0 0
0 0
0 0
0 0
0 0
0 0
0 0
0 0
0 0
0 0
0 0
0 0
0 0
0 0
0 0
0 0
0 0
0 0
0 0
0 0
0 0
0 0
0 0
0 0
0 0
0 0
0 0
0 0
0 0
0 0
0 0
0 0
0 0
0 0
0 0
0 0
0 0
0 0
0 0
0 0
0 0
0 0
0 0
0 0
0 0
0 0
0 0
0 0
0 0
0 0
0 0
0 0
0 0
0 0
0 0
0 0
0 0
0 0
0 0
0 0
0 0
0 0
0 0
0 0
0 0
0 0
0 0
0 0
0 0
0 0
0 0
0 0
0 0
0 0
0 0
0 0
0 0
0 0
0 0
0 0
0 0
0 0
0 0
0 0
0 0
0 0
0 0
0 0
0 0
0 0
0 0
0 0
0 0
0 0
0 0
0 0
0 0
0 0
0 0
0 0
0 0
0 0
0 0
0 0
0 0
0 0
0 0
0 0
0 0
0 0
0 0
0 0
0 0
0 0
0 0
0 0
0 0
0 0
0 0
0 0
0 0
0 0
0 0
0 0
0 0
0 0
0 0
0 0
0 0
0 0
0 0
0 0
0 0
0 0
0 0
0 0
0 0
0 0
0 0
0 0
0 0
0 0
0 0
0 0
0 0
0 0
0 0
0 0
0 0
0 0
0 0
0 0
0 0
0 0
0 0
0 0
0 0
0 0
0 0
0 0
0 0
0 0
0 0
0 0
0 0
0 0
0 0
0 0
0 0
0 0
0 0
0 0
0 0
0 0
0 0
0 0
0 0
0 0
0 0
0 0
0 0
0 0
0 0
0 0
0 0
0 0
0 0
0 0
0 0
0 0
0 0
0 0
0 0
0 0
0 0
0 0
0 0
0 0
0 0
0 0
0 0
0 0
0 0
0 0
0 0
0 0
0 0
0 0
0 0
0 0
0 0
0 0
0 0
0 0
0 0
0 0
0 0
0 0
0 0
0 0
0 0
0 0
0 0
0 0
0 0
0 0
0 0
0 0
0 0
0 0
0 0
0 0
0 0
0 0
0 0
0 0
0 0
0 0
0 0
0 0
0 0
0 0
0 0
0 0
0 0
0 0
0 0
0 0
0 0
0 0
0 0
0 0
0 0
0 0
0 0
0 0
0 0
0 0
0 0
0 0
0 0
0 0
0 0
0 0
0 0
0 0
0 0
0 0
0 0
0 0
0 0
0 0
0 0
0 0
0 0
0 0
0 0
0 0
0 0
0 0
0 0
0 0
0 0
0 0
0 0
0 0
0 0
0 0
0 0
0 0
0 0
0 0
0 0
0 0
0 0
0 0
0 0
0 0
0 0
0 0
0 0
0 0
0 0
0 0
0 0
0 0
0 0
0 0
0 0
0 0
0 0
0 0
0 0
0 0
0 0
0 0
0 0
0 0
0 0
0 0
0 0
0 0
0 0
0 0
0 0
0 0
0 0
0 0
0 0
0 0
0 0
0 0
0 0
0 0
0 0
0 0
0 0
0 0
0 0
0 0
0 0
0 0
0 0
0 0
0 0
0 0
0 0
0 0
0 0
0 0
0 0
0 0
0 0
0 0
0 0
0 0
0 0
0 0
0 0
0 0
0 0
0 0
0 0
0 0
0 0
0 0
0 0
0 0
0 0
0 0
0 0
0 0
0 0
0 0
0 0
0 0
0 0
0 0
0 0
0 0
0 0
0 0
0 0
0 0
0 0
0 0
0 0
0 0
0 0
0 0
0 0
0 0
0 0
0 0
0 0
0 0
0 0
0 0
0 0
0 0
0 0
0 0
0 0
0 0
0 0
0 0
0 0
0 0
0 0
0 0
0 0
0 0
0 0
0 0
0 0
0 0
0 0
0 0
0 0
0 0
0 0
0 0
0 0
0 0
0 0
0 0
0 0
0 0
0 0
0 0
0 0
0 0
0 0
0 0
0 0
0 0
0 0
0 0
0 0
0 0
0 0
0 0
0 0
0 0
0 0
0 0
0 0
0 0
0 0
0 0
0 0
0 0
0 0
0 0
0 0
0 0
0 0
0 0
0 0
0 0
0 0
0 0
0 0
0 0
0 0
0 0
0 0
0 0
0 0
0 0
0 0
0 0
0 0
0 0
0 0
0 0
0 0
0 0
0 0
0 0
0 0
0 0
0 0
0 0
0 0
0 0
0 0
0 0
0 0
0 0
0 0
0 0
0 0
0 0
0 0
0 0
0 0
0 0
0 0
0 0
0 0
0 0
0 0
0 0
0 0
0 0
0 0
0 0
0 0
0 0
0 0
0 0
0 0
0 0
0 0
0 0
0 0
0 0
0 0
0 0
0 0
0 0
0 0
0 0
0 0
0 0
0 0
0 0
0 0
0 0
0 0
0 0
0 0
0 0
0 0
0 0
0 0
0 0
0 0
0 0
0 0
0 0
0 0
0 0
0 0
0 0
0 0
0 0
0 0
0 0
0 0
0 0
0 0
0 0
0 0
0 0
0 0
0 0
0 0
0 0
0 0
0 0
0 0
0 0
0 0
0 0
0 0
0 0
0 0
0 0
0 0
0 0
0 0
0 0
0 0
0 0
0 0
0 0
0 0
0 0
0 0
0 0
0 0
0 0
0 0
0 0
0 0
0 0
0 0
0 0
0 0
0 0
0 0
0 0
0 0
0 0
0 0
0 0
0 0
0 0
0 0
0 0
0 0
0 0
0 0
0 0
0 0
0 0
0 0
0 0
0 0
0 0
0 0
0 0
0 0
0 0
0 0
0 0
0 0
0 0
0 0
0 0
0 0
0 0
0 0
0 0
0 0
0 0
0 0
0 0
0 0
0 0
0 0
0 0
0 0
0 0
0 0
0 0
0 0
0 0
0 0
0 0
0 0
0 0
0 0
0 0
0 0
0 0
0 0
0 0
0 0
0 0
0 0
0 0
0 0
0 0
0 0
0 0
0 0
0 0
0 0
0 0
0 0
0 0
0 0
0 0
0 0
0 0
0 0
0 0
0 0
0 0
0 0
0 0
0 0
0 0
0 0
0 0
0 0
0 0
0 0
0 0
0 0
0 0
0 0
0 0
0 0
0 0
0 0
0 0
0 0
0 0
0 0
0 0
0 0
0 0
0 0
0 0
0 0
0 0
0 0
0 0
0 0
0 0
0 0
0 0
0 0
0 0
0 0
0 0
0 0
0 0
0 0
0 0
0 0
0 0
0 0
0 0
0 0
0 0
0 0
0 0
0 0
0 0
0 0
0 0
0 0
0 0
0 0
0 0
0 0
0 0
0 0
0 0
0 0
0 0
0 0
0 0
0 0
0 0
0 0
0 0
0 0
0 0
0 0
0 0
0 0
0 0
0 0
0 0
0 0
0 0
0 0
0 0
0 0
0 0
0 0
0 0
0 0
0 0
0 0
0 0
0 0
0 0
0 0
0 0
0 0
0 0
0 0
0 0
0 0
0 0
0 0
0 0
0 0
0 0
0 0
0 0
0 0
0 0
0 0
0 0
0 0
0 0
0 0
0 0
0 0
0 0
0 0
0 0
0 0
0 0
0 0
0 0
0 0
0 0
0 0
0 0
0 0
0 0
0 0
0 0
0 0
0 0
0 0
0 0
0 0
0 0
0 0
0 0
0 0
0 0
0 0
0 0
0 0
0 0
0 0
0 0
0 0
0 0
0 0
0 0
0 0
0 0
0 0
0 0
0 0
0 0
0 0
0 0
0 0
0 0
0 0
0 0
0 0
0 0
0 0
0 0
0 0
0 0
0 0
0 0
0 0
0 0
0 0
0 0
0 0
0 0
0 0
0 0
0 0
0 0
0 0
0 0
0 0
0 0
0 0
0 0
0 0
0 0
0 0
0 0
0 0
0 0
0 0
0 0
0 0
0 0
0 0
0 0
0 0
0 0
0 0
0 0
0 0
0 0
0 0
0 0
0 0
0 0
0 0
0 0
0 0
0 0
0 0
0 0
0 0
0 0
0 0
0 0
0 0
0 0
0 0
0 0
0 0
0 0
0 0
0 0
0 0
0 0
0 0
0 0
0 0
0 0
0 0
0 0
0 0
0 0
0 0
0 0
0 0
0 0
0 0
0 0
0 0
0 0
0 0
0 0
0 0
0 0
0 0
0 0
0 0
0 0
0 0
0 0
0 0
0 0
0 0
0 0
0 0
0 0
0 0
0 0
0 0
0 0
0 0
0 0
0 0
0 0
0 0
0 0
0 0
0 0
0 0
0 0
0 0
0 0
0 0
0 0
0 0
0 0
0 0
0 0
0 0
0 0
0 0
0 0
0 0
0 0
0 0
0 0
0 0
0 0
0 0
0 0
0 0
0 0
0 0
0 0
0 0
0 0
0 0
0 0
0 0
0 0
0 0
0 0
0 0
0 0
0 0
0 0
0 0
0 0
0 0
0 0
0 0
0 0
0 0
0 0
0 0
0 0
0 0
0 0
0 0
0 0
0 0
0 0
0 0
0 0
0 0
0 0
0 0
0 0
0 0
0 0
0 0
0 0
0 0
0 0
0 0
0 0
0 0
0 0
0 0
0 0
0 0
0 0
0 0
0 0
0 0
0 0
0 0
0 0
0 0
0 0
0 0
0 0
0 0
0 0
0 0
0 0
0 0
0 0
0 0
0 0
0 0
0 0
0 0
0 0
0 0
0 0
0 0
0 0
0 0
0 0
0 0
0 0
0 0
0 0
0 0
0 0
0 0
0 0
0 0
0 0
0 0
0 0
0 0
0 0
0 0
0 0
0 0
0 0
0 0
0 0
0 0
0 0
0 0
0 0
0 0
0 0
0 0
0 0
0 0
0 0
0 0
0 0
0 0
0 0
0 0
0 0
0 0
0 0
0 0
0 0
0 0
0 0
0 0
0 0
0 0
0 0
0 0
0 0
0 0
0 0
0 0
0 0
0 0
0 0
0 0
0 0
0 0
0 0
0 0
0 0
0 0
0 0
0 0
0 0
0 0
0 0
0 0
0 0
0 0
0 0
0 0
0 0
0 0
0 0
0 0
0 0
0 0
0 0
0 0
0 0
0 0
0 0
0 0
0 0
0 0
0 0
0 0
0 0
0 0
0 0
0 0
0 0
0 0
0 0
0 0
0 0
0 0
0 0
0 0
0 0
0 0
0 0
0 0
0 0
0 0
0 0
0 0
0 0
0 0
0 0
0 0
0 0
0 0
0 0
0 0
0 0
0 0
0 0
0 0
0 0
0 0
0 0
0 0
0 0
0 0
0 0
0 0
0 0
0 0
0 0
0 0
0 0
0 0
0 0
0 0
0 0
0 0
0 0
0 0
0 0
0 0
0 0
0 0
0 0
0 0
0 0
0 0
0 0
0 0
0 0
0 0
0 0
0 0
0 0
0 0
0 0
0 0
0 0
0 0
0 0
0 0
0 0
0 0
0 0
0 0
0 0
0 0
0 0
0 0
0 0
0 0
0 0
0 0
0 0
0 0
0 0
0 0
0 0
0 0
0 0
0 0
0 0
0 0
0 0
0 0
0 0
0 0
0 0
0 0
0 0
0 0
0 0
0 0
0 0
0 0
0 0
0 0
0 0
0 0
0 0
0 0
0 0
0 0
0 0
0 0
0 0
0 0
0 0
0 0
0 0
0 0
0 0
0 0
0 0
0 0
0 0
0 0
0 0
0 0
0 0
0 0
0 0
0 0
0 0
0 0
0 0
0 0
0 0
0 0
0 0
0 0
0 0
0 0
0 0
0 0
0 0
0 0
0 0
0 0
0 0
0 0
0 0
0 0
0 0
0 0
0 0
0 0
0 0
0 0
0 0
0 0
0 0
0 0
0 0
0 0
0 0
0 0
0 0
0 0
0 0
0 0
0 0
0 0
0 0
0 0
0 0
0 0
0 0
0 0
0 0
0 0
0 0
0 0
0 0
0 0
0 0
0 0
0 0
0 0
0 0
0 0
0 0
0 0
0 0
0 0
0 0
0 0
0 0
0 0
0 0
0 0
0 0
0 0
0 0
0 0
0 0
0 0
0 0
0 0
0 0
0 0
0 0
0 0
0 0
0 0
0 0
0 0
0 0
0 0
0 0
0 0
0 0
0 0
0 0
0 0
0 0
0 0
0 0
0 0
0 0
0 0
0 0
0 0
0 0
0 0
0 0
0 0
0 0
0 0
0 0
0 0
0 0
0 0
0 0
0 0
0 0
0 0
0 0
0 0
0 0
0 0
0 0
0 0
0 0
0 0
0 0
0 0
0 0
0 0
0 0
0 0
0 0
0 0
0 0
0 0
0 0
0 0
0 0
0 0
0 0
0 0
0 0
0 0
0 0
0 0
0 0
0 0
0 0
0 0
0 0
0 0
0 0
0 0
0 0
0 0
0 0
0 0
0 0
0 0
0 0
0 0
0 0
0 0
0 0
0 0
0 0
0 0
0 0
0 0
0 0
0 0
0 0
0 0
0 0
0 0
0 0
0 0
0 0
0 0
0 0
0 0
0 0
0 0
0 0
0 0
0 0
0 0
0 0
0 0
0 0
0 0
0 0
0 0
0 0
0 0
0 0
0 0
0 0
0 0
0 0
0 0
0 0
0 0
0 0
0 0
0 0
0 0
0 0
0 0
0 0
0 0
0 0
0 0
0 0
0 0
0 0
0 0
0 0
0 0
0 0
0 0
0 0
0 0
0 0
0 0
0 0
0 0
0 0
0 0
0 0
0 0
0 0
0 0
0 0
0 0
0 0
0 0
0 0
0 0
0 0
0 0
0 0
0 0
0 0
0 0
0 0
0 0
0 0
0 0
0 0
0 0
0 0
0 0
0 0
0 0
0 0
0 0
0 0
0 0
0 0
0 0
0 0
0 0
0 0
0 0
0 0
0 0
0 0
0 0
0 0
0 0
0 0
0 0
0 0
0 0
0 0
0 0
0 0
0 0
0 0
0 0
0 0
0 0
0 0
0 0
0 0
0 0
0 0
0 0
0 0
0 0
0 0
0 0
0 0
0 0
0 0
0 0
0 0
0 0
0 0
0 0
0 0
0 0
0 0
0 0
0 0
0 0
0 0
0 0
0 0
0 0
0 0
0 0
0 0
0 0
0 0
0 0
0 0
0 0
0 0
0 0
0 0
0 0
0 0
0 0
0 0
0 0
0 0
0 0
0 0
0 0
0 0
0 0
0 0
0 0
0 0
0 0
0 0
0 0
0 0
0 0
0 0
0 0
0 0
0 0
0 0
0 0
0 0
0 0
0 0
0 0
0 0
0 0
0 0
0 0
0 0
0 0
0 0
0 0
0 0
0 0
0 0
0 0
0 0
0 0
0 0
0 0
0 0
0 0
0 0
0 0
0 0
0 0
0 0
0 0
0 0
0 0
0 0
0 0
0 0
0 0
0 0
0 0
0 0
0 0
0 0
0 0
0 0
0 0
0 0
0 0
0 0
0 0
0 0
0 0
0 0
0 0
0 0
0 0
0 0
0 0
0 0
0 0
0 0
0 0
0 0
0 0
0 0
0 0
0 0
0 0
0 0
0 0
0 0
0 0
0 0
0 0
0 0
0 0
0 0
0 0
0 0
0 0
0 0
0 0
0 0
0 0
0 0
0 0
0 0
0 0
0 0
0 0
0 0
0 0
0 0
0 0
0 0
0 0
0 0
0 0
0 0
0 0
0 0
0 0
0 0
0 0
0 0
0 0
0 0
0 0
0 0
0 0
0 0
0 0
0 0
0 0
0 0
0 0
0 0
0 0
0 0
0 0
0 0
0 0
0 0
0 0
0 0
0 0
0 0
0 0
0 0
0 0
0 0
0 0
0 0
0 0
0 0
0 0
0 0
0 0
0 0
0 0
0 0
0 0
0 0
0 0
0 0
0 0
0 0
0 0
0 0
0 0
0 0
0 0
0 0
0 0
0 0
0 0
0 0
0 0
0 0
0 0
0 0
0 0
0 0
0 0
0 0
0 0
0 0
0 0
0 0
0 0
0 0
0 0
0 0
0 0
0 0
0 0
0 0
0 0
0 0
0 0
0 0
0 0
0 0
0 0
0 0
0 0
0 0
0 0
0 0
0 0
0 0
0 0
0 0
0 0
0 0
0 0
0 0
0 0
0 0
0 0
0 0
0 0
0 0
0 0
0 0
0 0
0 0
0 0
0 0
0 0
0 0
0 0
0 0
0 0
0 0
0 0
0 0
0 0
0 0
0 0
0 0
0 0
0 0
0 0
0 0
0 0
0 0
0 0
0 0
0 0
0 0
0 0
0 0
0 0
0 0
0 0
0 0
0 0
0 0
0 0
0 0
0 0
0 0
0 0
0 0
0 0
0 0
0 0
0 0
0 0
0 0
0 0
0 0
0 0
0 0
0 0
0 0
0 0
0 0
0 0
0 0
0 0
0 0
0 0
0 0
0 0
0 0
0 0
0 0
0 0
0 0
0 0
0 0
0 0
0 0
0 0
0 0
0 0
0 0
0 0
0 0
0 0
0 0
0 0
0 0
0 0
0 0
0 0
0 0
0 0
0 0
0 0
0 0
0 0
0 0
0 0
0 0
0 0
0 0
0 0
0 0
0 0
0 0
0 0
0 0
0 0
0 0
0 0
0 0
0 0
0 0
0 0
0 0
0 0
0 0
0 0
0 0
0 0
0 0
0 0
0 0
0 0
0 0
0 0
0 0
0 0
0 0
0 0
0 0
0 0
0 0
0 0
0 0
0 0
0 0
0 0
0 0
0 0
0 0
0 0
0 0
0 0
0 0
0 0
0 0
0 0
0 0
0 0
0 0
0 0
0 0
0 0
0 0
0 0
0 0
0 0
0 0
0 0
0 0
0 0
0 0
0 0
0 0
0 0
0 0
0 0
0 0
0 0
0 0
0 0
0 0
0 0
0 0
0 0
0 0
0 0
0 0
0 0
0 0
0 0
0 0
0 0
0 0
0 0
0 0
0 0
0 0
0 0
0 0
0 0
0 0
0 0
0 0
0 0
0 0
0 0
0 0
0 0
0 0
0 0
0 0
0 0
0 0
0 0
0 0
0 0
0 0
0 0
0 0
0 0
0 0
0 0
0 0
0 0
0 0
0 0
0 0
0 0
0 0
0 0
0 0
0 0
0 0
0 0
0 0
0 0
0 0
0 0
0 0
0 0
0 0
0 0
0 0
0 0
0 0
0 0
0 0
0 0
0 0
0 0
0 0
0 0
0 0
0 0
0 0
0 0
0 0
0 0
0 0
0 0
0 0
0 0
0 0
0 0
0 0
0 0
0 0
0 0
0 0
0 0
0 0
0 0
0 0
0 0
0 0
0 0
0 0
0 0
0 0
0 0
0 0
0 0
0 0
0 0
0 0
0 0
0 0
0 0
0 0
0 0
0 0
0 0
0 0
0 0
0 0
0 0
0 0
0 0
0 0
0 0
0 0
0 0
0 0
0 0
0 0
0 0
0 0
0 0
0 0
0 0
0 0
0 0
0 0
0 0
0 0
0 0
0 0
0 0
0 0
0 0
0 0
0 0
0 0
0 0
0 0
0 0
0 0
0 0
0 0
0 0
0 0
0 0
0 0
0 0
0 0
0 0
0 0
0 0
0 0
0 0
0 0
0 0
0 0
0 0
0 0
0 0
0 0
0 0
0 0
0 0
0 0
0 0
0 0
0 0
0 0
0 0
0 0
0 0
0 0
0 0
0 0
0 0
0 0
0 0
0 0
0 0
0 0
0 0
0 0
0 0
0 0
0 0
0 0
0 0
0 0
0 0
0 0
0 0
0 0
0 0
0 0
0 0
0 0
0 0
0 0
0 0
0 0
0 0
0 0
0 0
0 0
0 0
0 0
0 0
0 0
0 0
0 0
0 0
0 0
0 0
0 0
0 0
0 0
0 0
0 0
0 0
0 0
0 0
0 0
0 0
0 0
0 0
0 0
0 0
0 0
0 0
0 0
0 0
0 0
0 0
0 0
0 0
0 0
0 0
0 0
0 0
0 0
0 0
0 0
0 0
0 0
0 0
0 0
0 0
0 0
0 0
0 0
0 0
0 0
0 0
0 0
0 0
0 0
0 0
0 0
0 0
0 0
0 0
0 0
0 0
0 0
0 0
0 0
0 0
0 0
0 0
0 0
0 0
0 0
0 0
0 0
0 0
0 0
0 0
0 0
0 0
0 0
0 0
0 0
0 0
0 0
0 0
0 0
0 0
0 0
0 0
0 0
0 0
0 0
0 0
0 0
0 0
0 0
0 0
0 0
0 0
0 0
0 0
0 0
0 0
0 0
0 0
0 0
0 0
0 0
0 0
0 0
0 0
0 0
0 0
0 0
0 0
0 0
0 0
0 0
0 0
0 0
0 0
0 0
0 0
0 0
0 0
0 0
0 0
0 0
0 0
0 0
0 0
0 0
0 0
0 0
0 0
0 0
0 0
0 0
0 0
0 0
0 0
0 0
0 0
0 0
0 0
0 0
0 0
0 0
0 0
0 0
0 0
0 0
0 0
0 0
0 0
0 0
0 0
0 0
0 0
0 0
0 0
0 0
0 0
0 0
0 0
0 0
0 0
0 0
0 0
0 0
0 0
0 0
0 0
0 0
0 0
0 0
0 0
0 0
0 0
0 0
0 0
0 0
0 0
0 0
0 0
0 0
0 0
0 0
0 0
0 0
0 0
0 0
0 0
0 0
0 0
0 0
0 0
0 0
0 0
0 0
0 0
0 0
0 0
0 0
0 0
0 0
0 0
0 0
0 0
0 0
0 0
0 0
0 0
0 0
0 0
0 0
0 0
0 0
0 0
0 0
0 0
0 0
0 0
0 0
0 0
0 0
0 0
0 0
0 0
0 0
0 0
0 0
0 0
0 0
0 0
0 0
0 0
0 0
0 0
0 0
0 0
0 0
0 0
0 0
0 0
0 0
0 0
0 0
0 0
0 0
0 0
0 0
0 0
0 0
0 0
0 0
0 0
0 0
0 0
0 0
0 0
0 0
0 0
0 0
0 0
0 0
0 0
0 0
0 0
0 0
0 0
0 0
0 0
0 0
0 0
0 0
0 0
0 0
0 0
0 0
0 0
0 0
0 0
0 0
0 0
0 0
0 0
0 0
0 0
0 0
0 0
0 0
0 0
0 0
0 0
0 0
0 0
0 0
0 0
0 0
0 0
0 0
0 0
0 0
0 0
0 0
0 0
0 0
0 0
0 0
0 0
0 0
0 0
0 0
0 0
0 0
0 0
0 0
0 0
0 0
0 0
0 0
0 0
0 0
0 0
0 0
0 0
0 0
0 0
0 0
0 0
0 0
0 0
0 0
0 0
0 0
0 0
0 0
0 0
0 0
0 0
0 0
0 0
0 0
0 0
0 0
0 0
0 0
0 0
0 0
0 0
0 0
0 0
0 0
0 0
0 0
0 0
0 0
0 0
0 0
0 0
0 0
0 0
0 0
0 0
0 0
0 0
0 0
0 0
0 0
0 0
0 0
0 0
0 0
0 0
0 0
0 0
0 0
0 0
0 0
0 0
0 0
0 0
0 0
0 0
0 0
0 0
0 0
0 0
0 0
0 0
0 0
0 0
0 0
0 0
0 0
0 0
0 0
0 0
0 0
0 0
0 0
0 0
0 0
0 0
0 0
0 0
0 0
0 0
0 0
0 0
0 0
0 0
0 0
0 0
0 0
0 0
0 0
0 0
0 0
0 0
0 0
0 0
0 0
0 0
0 0
0 0
0 0
0 0
0 0
0 0
0 0
0 0
0 0
0 0
0 0
0 0
0 0
0 0
0 0
0 0
0 0
0 0
0 0
0 0
0 0
0 0
0 0
0 0
0 0
0 0
0 0
0 0
0 0
0 0
0 0
0 0
0 0
0 0
0 0
0 0
0 0
0 0
0 0
0 0
0 0
0 0
0 0
0 0
0 0
0 0
0 0
0 0
0 0
0 0
0 0
0 0
0 0
0 0
0 0
0 0
0 0
0 0
0 0
0 0
0 0
0 0
0 0
0 0
0 0
0 0
0 0
0 0
0 0
0 0
0 0
0 0
0 0
0 0
0 0
0 0
0 0
0 0
0 0
0 0
0 0
0 0
0 0
0 0
0 0
0 0
0 0
0 0
0 0
0 0
0 0
0 0
0 0
0 0
0 0
0 0
0 0
0 0
0 0
0 0
0 0
0 0
0 0
0 0
0 0
0 0
0 0
0 0
0 0
0 0
0 0
0 0
0 0
0 0
0 0
0 0
0 0
0 0
0 0
0 0
0 0
0 0
0 0
0 0
0 0
0 0
0 0
0 0
0 0
0 0
0 0
0 0
0 0
0 0
0 0
0 0
0 0
0 0
0 0
0 0
0 0
0 0
0 0
0 0
0 0
0 0
0 0
0 0
0 0
0 0
0 0
0 0
0 0
0 0
0 0
0 0
0 0
0 0
0 0
0 0
0 0
0 0
0 0
0 0
0 0
0 0
0 0
0 0
0 0
0 0
0 0
0 0
0 0
0 0
0 0
0 0
0 0
0 0
0 0
0 0
0 0
0 0
0 0
0 0
0 0
0 0
0 0
0 0
0 0
0 0
0 0
0 0
0 0
0 0
0 0
0 0
0 0
0 0
0 0
0 0
0 0
0 0
0 0
0 0
0 0
0 0
0 0
0 0
0 0
0 0
0 0
0 0
0 0
0 0
0 0
0 0
0 0
0 0
0 0
0 0
0 0
0 0
0 0
0 0
0 0
0 0
0 0
0 0
0 0
0 0
0 0
0 0
0 0
0 0
0 0
0 0
0 0
0 0
0 0
0 0
0 0
0 0
0 0
0 0
0 0
0 0
0 0
0 0
0 0
0 0
0 0
0 0
0 0
0 0
0 0
0 0
0 0
0 0
0 0
0 0
0 0
0 0
0 0
0 0
0 0
0 0
0 0
0 0
0 0
0 0
0 0
0 0
0 0
0 0
0 0
0 0
0 0
0 0
0 0
0 0
0 0
0 0
0 0
0 0
0 0
0 0
0 0
0 0
0 0
0 0
0 0
0 0
0 0
0 0
0 0
0 0
0 0
0 0
0 0
0 0
0 0
0 0
0 0
0 0
0 0
0 0
0 0
0 0
0 0
0 0
0 0
0 0
0 0
0 0
0 0
0 0
0 0
0 0
0 0
0 0
0 0
0 0
0 0
0 0
0 0
0 0
0 0
0 0
0 0
0 0
0 0
0 0
0 0
0 0
0 0
0 0
0 0
0 0
0 0
0 0
0 0
0 0
0 0
0 0
0 0
0 0
0 0
0 0
0 0
0 0
0 0
0 0
0 0
0 0
0 0
0 0
0 0
0 0
0 0
0 0
0 0
0 0
0 0
0 0
0 0
0 0
0 0
0 0
0 0
0 0
0 0
0 0
0 0
0 0
0 0
0 0
0 0
0 0
0 0
0 0
0 0
0 0
0 0
0 0
0 0
0 0
0 0
0 0
0 0
0 0
0 0
0 0
0 0
0 0
0 0
0 0
0 0
0 0
0 0
0 0
0 0
0 0
0 0
0 0
0 0
0 0
0 0
0 0
0 0
0 0
0 0
0 0
0 0
0 0
0 0
0 0
0 0
0 0
0 0
0 0
0 0
0 0
0 0
0 0
0 0
0 0
0 0
0 0
0 0
0 0
0 0
0 0
0 0
0 0
0 0
0 0
0 0
0 0
0 0
0 0
0 0
0 0
0 0
0 0
0 0
0 0
0 0
0 0
0 0
0 0
0 0
0 0
0 0
0 0
0 0
0 0
0 0
0 0
0 0
0 0
0 0
0 0
0 0
0 0
0 0
0 0
0 0
0 0
0 0
0 0
0 0
0 0
0 0
0 0
0 0
0 0
0 0
0 0
0 0
0 0
0 0
0 0
0 0
0 0
0 0
0 0
0 0
0 0
0 0
0 0
0 0
0 0
0 0
0 0
0 0
0 0
0 0
0 0
0 0
0 0
0 0
0 0
0 0
0 0
0 0
0 0
0 0
0 0
0 0
0 0
0 0
0 0
0 0
0 0
0 0
0 0
0 0
0 0
0 0
0 0
0 0
0 0
0 0
0 0
0 0
0 0
0 0
0 0
0 0
0 0
0 0
0 0
0 0
0 0
0 0
0 0
0 0
0 0
0 0
0 0
0 0
0 0
0 0
0 0
0 0
0 0
0 0
0 0
0 0
0 0
0 0
0 0
0 0
0 0
0 0
0 0
0 0
0 0
0 0
0 0
0 0
0 0
0 0
0 0
0 0
0 0
0 0
0 0
0 0
0 0
0 0
0 0
0 0
0 0
0 0
0 0
0 0
0 0
0 0
0 0
0 0
0 0
0 0
0 0
0 0
0 0
0 0
0 0
0 0
0 0
0 0
0 0
0 0
0 0
0 0
0 0
0 0
0 0
0 0
0 0
0 0
0 0
0 0
0 0
0 0
0 0
0 0
0 0
0 0
0 0
0 0
0 0
0 0
0 0
0 0
0 0
0 0
0 0
0 0
0 0
0 0
0 0
0 0
0 0
0 0
0 0
0 0
0 0
0 0
0 0
0 0
0 0
0 0
0 0
0 0
0 0
0 0
0 0
0 0
0 0
0 0
0 0
0 0
0 0
0 0
0 0
0 0
0 0
0 0
0 0
0 0
0 0
0 0
0 0
0 0
0 0
0 0
0 0
0 0
0 0
0 0
0 0
0 0
0 0
0 0
0 0
0 0
0 0
0 0
0 0
0 0
0 0
0 0
0 0
0 0
0 0
0 0
0 0
0 0
0 0
0 0
0 0
0 0
0 0
0 0
0 0
0 0
0 0
0 0
0 0
0 0
0 0
0 0
0 0
0 0
0 0
0 0
0 0
0 0
0 0
0 0
0 0
0 0
0 0
0 0
0 0
0 0
0 0
0 0
0 0
0 0
0 0
0 0
0 0
0 0
0 0
0 0
0 0
0 0
0 0
0 0
0 0
0 0
0 0
0 0
0 0
0 0
0 0
0 0
0 0
0 0
0 0
0 0
0 0
0 0
0 0
0 0
0 0
0 0
0 0
0 0
0 0
0 0
0 0
0 0
0 0
0 0
0 0
0 0
0 0
0 0
0 0
0 0
0 0
0 0
0 0
0 0
0 0
0 0
0 0
0 0
0 0
0 0
0 0
0 0
0 0
0 0
0 0
0 0
0 0
0 0
0 0
0 0
0 0
0 0
0 0
0 0
0 0
0 0
0 0
0 0
0 0
0 0
0 0
0 0
0 0
0 0
0 0
0 0
0 0
0 0
0 0
0 0
0 0
0 0
0 0
0 0
0 0
0 0
0 0
0 0
0 0
0 0
0 0
0 0
0 0
0 0
0 0
0 0
0 0
0 0
0 0
0 0
0 0
0 0
0 0
0 0
0 0
0 0
0 0
0 0
0 0
0 0
0 0
0 0
0 0
0 0
0 0
0 0
0 0
0 0
0 0
0 0
0 0
0 0
0 0
0 0
0 0
0 0
0 0
0 0
0 0
0 0
0 0
0 0
0 0
0 0
0 0
0 0
0 0
0 0
0 0
0 0
0 0
0 0
0 0
0 0
0 0
0 0
0 0
0 0
0 0
0 0
0 0
0 0
0 0
0 0
0 0
0 0
0 0
0 0
0 0
0 0
0 0
0 0
0 0
0 0
0 0
0 0
0 0
0 0
0 0
0 0
0 0
0 0
0 0
0 0
0 0
0 0
0 0
0 0
0 0
0 0
0 0
0 0
0 0
0 0
0 0
0 0
0 0
0 0
0 0
0 0
0 0
0 0
0 0
0 0
0 0
0 0
0 0
0 0
0 0
0 0
0 0
0 0
0 0
0 0
0 0
0 0
0 0
0 0
0 0
0 0
0 0
0 0
0 0
0 0
0 0
0 0
0 0
0 0
0 0
0 0
0 0
0 0
0 0
0 0
0 0
0 0
0 0
0 0
0 0
0 0
0 0
0 0
0 0
0 0
0 0
0 0
0 0
0 0
0 0
0 0
0 0
0 0
0 0
0 0
0 0
0 0
0 0
0 0
0 0
0 0
0 0
0 0
0 0
0 0
0 0
0 0
0 0
0 0
0 0
0 0
0 0
0 0
0 0
0 0
0 0
0 0
0 0
0 0
0 0
0 0
0 0
0 0
0 0
0 0
0 0
0 0
0 0
0 0
0 0
0 0
0 0
0 0
0 0
0 0
0 0
0 0
0 0
0 0
0 0
0 0
0 0
0 0
0 0
0 0
0 0
0 0
0 0
0 0
0 0
0 0
0 0
0 0
0 0
0 0
0 0
0 0
0 0
0 0
0 0
0 0
0 0
0 0
0 0
0 0
0 0
0 0
0 0
0 0
0 0
0 0
0 0
0 0
0 0
0 0
0 0
0 0
0 0
0 0
0 0
0 0
0 0
0 0
0 0
0 0
0 0
0 0
0 0
0 0
0 0
0 0
0 0
0 0
0 0
0 0
0 0
0 0
0 0
0 0
0 0
0 0
0 0
0 0
0 0
0 0
0 0
0 0
0 0
0 0
0 0
0 0
0 0
0 0
0 0
0 0
0 0
0 0
0 0
0 0
0 0
0 0
0 0
0 0
0 0
0 0
0 0
0 0
0 0
0 0
0 0
0 0
0 0
0 0
0 0
0 0
0 0
0 0
0 0
0 0
0 0
0 0
0 0
0 0
0 0
0 0
0 0
0 0
0 0
0 0
0 0
0 0
0 0
0 0
0 0
0 0
0 0
0 0
0 0
0 0
0 0
0 0
0 0
0 0
0 0
0 0
0 0
0 0
0 0
0 0
0 0
0 0
0 0
0 0
0 0
0 0
0 0
0 0
0 0
0 0
0 0
0 0
0 0
0 0
0 0
0 0
0 0
0 0
0 0
0 0
0 0
0 0
0 0
0 0
0 0
0 0
0 0
0 0
0 0
0 0
0 0
0 0
0 0
0 0
0 0
0 0
0 0
0 0
0 0
0 0
0 0
0 0
0 0
0 0
0 0
0 0
0 0
0 0
0 0
0 0
0 0
0 0
0 0
0 0
0 0
0 0
0 0
0 0
0 0
0 0
0 0
0 0
0 0
0 0
0 0
0 0
0 0
0 0
0 0
0 0
0 0
0 0
0 0
0 0
0 0
0 0
0 0
0 0
0 0
0 0
0 0
0 0
0 0
0 0
0 0
0 0
0 0
0 0
0 0
0 0
0 0
0 0
0 0
0 0
0 0
0 0
0 0
0 0
0 0
0 0
0 0
0 0
0 0
0 0
0 0
0 0
0 0
0 0
0 0
0 0
0 0
0 0
0 0
0 0
0 0
0 0
0 0
0 0
0 0
0 0
0 0
0 0
0 0
0 0
0 0
0 0
0 0
0 0
0 0
0 0
0 0
0 0
0 0
0 0
0 0
0 0
0 0
0 0
0 0
0 0
0 0
0 0
0 0
0 0
0 0
0 0
0 0
0 0
0 0
0 0
0 0
0 0
0 0
0 0
0 0
0 0
0 0
0 0
0 0
0 0
0 0
0 0
0 0
0 0
0 0
0 0
0 0
0 0
0 0
0 0
0 0
0 0
0 0
0 0
0 0
0 0
0 0
0 0
0 0
0 0
0 0
0 0
0 0
0 0
0 0
0 0
0 0
0 0
0 0
0 0
0 0
0 0
0 0
0 0
0 0
0 0
0 0
0 0
0 0
0 0
0 0
0 0
0 0
0 0
0 0
0 0
0 0
0 0
0 0
0 0
0 0
0 0
0 0
0 0
0 0
0 0
0 0
0 0
0 0
0 0
0 0
0 0
0 0
0 0
0 0
0 0
0 0
0 0
0 0
0 0
0 0
0 0
0 0
0 0
0 0
0 0
0 0
0 0
0 0
0 0
0 0
0 0
0 0
0 0
0 0
0 0
0 0
0 0
0 0
0 0
0 0
0 0
0 0
0 0
0 0
0 0
0 0
0 0
0 0
0 0
0 0
0 0
0 0
0 0
0 0
0 0
0 0
0 0
0 0
0 0
0 0
0 0
0 0
0 0
0 0
0 0
0 0
0 0
0 0
0 0
0 0
0 0
0 0
0 0
0 0
0 0
0 0
0 0
0 0
0 0
0 0
0 0
0 0
0 0
0 0
0 0
0 0
0 0
0 0
0 0
0 0
0 0
0 0
0 0
0 0
0 0
0 0
0 0
0 0
0 0
0 0
0 0
0 0
0 0
0 0
0 0
0 0
0 0
0 0
0 0
0 0
0 0
0 0
0 0
0 0
0 0
0 0
0 0
0 0
0 0
0 0
0 0
0 0
0 0
0 0
0 0
0 0
0 0
0 0
0 0
0 0
0 0
0 0
0 0
0 0
0 0
0 0
0 0
0 0
0 0
0 0
0 0
0 0
0 0
0 0
0 0
0 0
0 0
0 0
0 0
0 0
0 0
0 0
0 0
0 0
0 0
0 0
0 0
0 0
0 0
0 0
0 0
0 0
0 0
0 0
0 0
0 0
0 0
0 0
0 0
0 0
0 0
0 0
0 0
0 0
0 0
0 0
0 0
0 0
0 0
0 0
0 0
0 0
0 0
0 0
0 0
0 0
0 0
0 0
0 0
0 0
0 0
0 0
0 0
0 0
0 0
0 0
0 0
0 0
0 0
0 0
0 0
0 0
0 0
0 0
0 0
0 0
0 0
0 0
0 0
0 0
0 0
0 0
0 0
0 0
0 0
0 0
0 0
0 0
0 0
0 0
0 0
0 0
0 0
0 0
0 0
0 0
0 0
0 0
0 0
0 0
0 0
0 0
0 0
0 0
0 0
0 0
0 0
0 0
0 0
0 0
0 0
0 0
0 0
0 0
0 0
0 0
0 0
0 0
0 0
0 0
0 0
0 0
0 0
0 0
0 0
0 0
0 0
0 0
0 0
0 0
0 0
0 0
0 0
0 0
0 0
0 0
0 0
0 0
0 0
0 0
0 0
0 0
0 0
0 0
0 0
0 0
0 0
0 0
0 0
0 0
0 0
0 0
0 0
0 0
0 0
0 0
0 0
0 0
0 0
0 0
0 0
0 0
0 0
0 0
0 0
0 0
0 0
0 0
0 0
0 0
0 0
0 0
0 0
0 0
0 0
0 0
0 0
0 0
0 0
0 0
0 0
0 0
0 0
0 0
0 0
0 0
0 0
0 0
0 0
0 0
0 0
0 0
0 0
0 0
0 0
0 0
0 0
0 0
0 0
0 0
0 0
0 0
0 0
0 0
0 0
0 0
0 0
0 0
0 0
0 0
0 0
0 0
0 0
0 0
0 0
0 0
0 0
0 0
0 0
0 0
0 0
0 0
0 0
0 0
0 0
0 0
0 0
0 0
0 0
0 0
0 0
0 0
0 0
0 0
0 0
0 0
0 0
0 0
0 0
0 0
0 0
0 0
0 0
0 0
0 0
0 0
0 0
0 0
0 0
0 0
0 0
0 0
0 0
0 0
0 0
0 0
0 0
0 0
0 0
0 0
0 0
0 0
0 0
0 0
0 0
0 0
0 0
0 0
0 0
0 0
0 0
0 0
0 0
0 0
0 0
0 0
0 0
0 0
0 0
0 0
0 0
0 0
0 0
0 0
0 0
0 0
0 0
0 0
0 0
0 0
0 0
0 0
0 0
0 0
0 0
0 0
0 0
0 0
0 0
0 0
0 0
0 0
0 0
0 0
0 0
0 0
0 0
0 0
0 0
0 0
0 0
0 0
0 0
0 0
0 0
0 0
0 0
0 0
0 0
0 0
0 0
0 0
0 0
0 0
0 0
0 0
0 0
0 0
0 0
0 0
0 0
0 0
0 0
0 0
0 0
0 0
0 0
0 0
0 0
0 0
0 0
0 0
0 0
0 0
0 0
0 0
0 0
0 0
0 0
0 0
0 0
0 0
0 0
0 0
0 0
0 0
0 0
0 0
0 0
0 0
0 0
0 0
0 0
0 0
0 0
0 0
0 0
0 0
0 0
0 0
0 0
0 0
0 0
0 0
0 0
0 0
0 0
0 0
0 0
0 0
0 0
0 0
0 0
0 0
0 0
0 0
0 0
0 0
0 0
0 0
0 0
0 0
0 0
0 0
0 0
0 0
0 0
0 0
0 0
0 0
0 0
0 0
0 0
0 0
0 0
0 0
0 0
0 0
0 0
0 0
0 0
0 0
0 0
0 0
0 0
0 0
0 0
0 0
0 0
0 0
0 0
0 0
0 0
0 0
0 0
0 0
0 0
0 0
0 0
0 0
0 0
0 0
0 0
0 0
0 0
0 0
0 0
0 0
0 0
0 0
0 0
0 0
0 0
0 0
0 0
0 0
0 0
0 0
0 0
0 0
0 0
0 0
0 0
0 0
0 0
0 0
0 0
0 0
0 0
0 0
0 0
0 0
0 0
0 0
0 0
0 0
0 0
0 0
0 0
0 0
0 0
0 0
0 0
0 0
0 0
0 0
0 0
0 0
0 0
0 0
0 0
0 0
0 0
0 0
0 0
0 0
0 0
0 0
0 0
0 0
0 0
0 0
0 0
0 0
0 0
0 0
0 0
0 0
0 0
0 0
0 0
0 0
0 0
0 0
0 0
0 0
0 0
0 0
0 0
0 0
0 0
0 0
0 0
0 0
0 0
0 0
0 0
0 0
0 0
0 0
0 0
0 0
0 0
0 0
0 0
0 0
0 0
0 0
0 0
0 0
0 0
0 0
0 0
0 0
0 0
0 0
0 0
0 0
0 0
0 0
0 0
0 0
0 0
0 0
0 0
0 0
0 0
0 0
0 0
0 0
0 0
0 0
0 0
0 0
0 0
0 0
0 0
0 0
0 0
0 0
0 0
0 0
0 0
0 0
0 0
0 0
0 0
0 0
0 0
0 0
0 0
0 0
0 0
0 0
0 0
0 0
0 0
0 0
0 0
0 0
0 0
0 0
0 0
0 0
0 0
0 0
0 0
0 0
0 0
0 0
0 0
0 0
0 0
0 0
0 0
0 0
0 0
0 0
0 0
0 0
0 0
0 0
0 0
0 0
0 0
0 0
0 0
0 0
0 0
0 0
0 0
0 0
0 0
0 0
0 0
0 0
0 0
0 0
0 0
0 0
0 0
0 0
0 0
0 0
0 0
0 0
0 0
0 0
0 0
0 0
0 0
0 0
0 0
0 0
0 0
0 0
0 0
0 0
0 0
0 0
0 0
0 0
0 0
0 0
0 0
0 0
0 0
0 0
0 0
0 0
0 0
0 0
0 0
0 0
0 0
0 0
0 0
0 0
0 0
0 0
0 0
0 0
0 0
0 0
0 0
0 0
0 0
0 0
0 0
0 0
0 0
0 0
0 0
0 0
0 0
0 0
0 0
0 0
0 0
0 0
0 0
0 0
0 0
0 0
0 0
0 0
0 0
0 0
0 0
0 0
0 0
0 0
0 0
0 0
0 0
0 0
0 0
0 0
0 0
0 0
0 0
0 0
0 0
0 0
0 0
0 0
0 0
0 0
0 0
0 0
0 0
0 0
0 0
0 0
0 0
0 0
0 0
0 0
0 0
0 0
0 0
0 0
0 0
0 0
0 0
0 0
0 0
0 0
0 0
0 0
0 0
0 0
0 0
0 0
0 0
0 0
0 0
0 0
0 0
0 0
0 0
0 0
0 0
0 0
0 0
0 0
0 0
0 0
0 0
0 0
0 0
0 0
0 0
0 0
0 0
0 0
0 0
0 0
0 0
0 0
0 0
0 0
0 0
0 0
0 0
0 0
0 0
0 0
0 0
0 0
0 0
0 0
0 0
0 0
0 0
0 0
0 0
0 0
0 0
0 0
0 0
0 0
0 0
0 0
0 0
0 0
0 0
0 0
0 0
0 0
0 0
0 0
0 0
0 0
0 0
0 0
0 0
0 0
0 0
0 0
0 0
0 0
0 0
0 0
0 0
0 0
0 0
0 0
0 0
0 0
0 0
0 0
0 0
0 0
0 0
0 0
0 0
0 0
0 0
0 0
0 0
0 0
0 0
0 0
0 0
0 0
0 0
0 0
0 0
0 0
0 0
0 0
0 0
0 0
0 0
0 0
0 0
0 0
0 0
0 0
0 0
0 0
0 0
0 0
0 0
0 0
0 0
0 0
0 0
0 0
0 0
0 0
0 0
0 0
0 0
0 0
0 0
0 0
0 0
0 0
0 0
0 0
0 0
0 0
0 0
0 0
0 0
0 0
0 0
0 0
0 0
0 0
0 0
0 0
0 0
0 0
0 0
0 0
0 0
0 0
0 0
0 0
0 0
0 0
0 0
0 0
0 0
0 0
0 0
0 0
0 0
0 0
0 0
0 0
0 0
0 0
0 0
0 0
0 0
0 0
0 0
0 0
0 0
0 0
0 0
0 0
0 0
0 0
0 0
0 0
0 0
0 0
0 0
0 0
0 0
0 0
0 0
0 0
0 0
0 0
0 0
0 0
0 0
0 0
0 0
0 0
0 0
0 0
0 0
0 0
0 0
0 0
0 0
0 0
0 0
0 0
0 0
0 0
0 0
0 0
0 0
0 0
0 0
0 0
0 0
0 0
0 0
0 0
0 0
0 0
0 0
0 0
0 0
0 0
0 0
0 0
0 0
0 0
0 0
0 0
0 0
0 0
0 0
0 0
0 0
0 0
0 0
0 0
0 0
0 0
0 0
0 0
0 0
0 0
0 0
0 0
0 0
0 0
0 0
0 0
0 0
0 0
0 0
0 0
0 0
0 0
0 0
0 0
0 0
0 0
0 0
0 0
0 0
0 0
0 0
0 0
0 0
0 0
0 0
0 0
0 0
0 0
0 0
0 0
0 0
0 0
0 0
0 0
0 0
0 0
0 0
0 0
0 0
0 0
0 0
0 0
0 0
0 0
0 0
0 0
0 0
0 0
0 0
0 0
0 0
0 0
0 0
0 0
0 0
0 0
0 0
0 0
0 0
0 0
0 0
0 0
0 0
0 0
0 0
0 0
0 0
0 0
0 0
0 0
0 0
0 0
0 0
0 0
0 0
0 0
0 0
0 0
0 0
0 0
0 0
0 0
0 0
0 0
0 0
0 0
0 0
0 0
0 0
0 0
0 0
0 0
0 0
0 0
0 0
0 0
0 0
0 0
0 0
0 0
0 0
0 0
0 0
0 0
0 0
0 0
0 0
0 0
0 0
0 0
0 0
0 0
0 0
0 0
0 0
0 0
0 0
0 0
0 0
0 0
0 0
0 0
0 0
0 0
0 0
0 0
0 0
0 0
0 0
0 0
0 0
0 0
0 0
0 0
0 0
0 0
0 0
0 0
0 0
0 0
0 0
0 0
0 0
0 0
0 0
0 0
0 0
0 0
0 0
0 0
0 0
0 0
0 0
0 0
0 0
0 0
0 0
0 0
0 0
0 0
0 0
0 0
0 0
0 0
0 0
0 0
0 0
0 0
0 0
0 0
0 0
0 0
0 0
0 0
0 0
0 0
0 0
0 0
0 0
0 0
0 0
0 0
0 0
0 0
0 0
0 0
0 0
0 0
0 0
0 0
0 0
0 0
0 0
0 0
0 0
0 0
0 0
0 0
0 0
0 0
0 0
0 0
0 0
0 0
0 0
0 0
0 0
0 0
0 0
0 0
0 0
0 0
0 0
0 0
0 0
0 0
0 0
0 0
0 0
0 0
0 0
0 0
0 0
0 0
0 0
0 0
0 0
0 0
0 0
0 0
0 0
0 0
0 0
0 0
0 0
0 0
0 0
0 0
0 0
0 0
0 0
0 0
0 0
0 0
0 0
0 0
0 0
0 0
0 0
0 0
0 0
0 0
0 0
0 0
0 0
0 0
0 0
0 0
0 0
0 0
0 0
0 0
0 0
0 0
0 0
0 0
0 0
0 0
0 0
0 0
0 0
0 0
0 0
0 0
0 0
0 0
0 0
0 0
0 0
0 0
0 0
0 0
0 0
0 0
0 0
0 0
0 0
0 0
0 0
0 0
0 0
0 0
0 0
0 0
0 0
0 0
0 0
0 0
0 0
0 0
0 0
0 0
0 0
0 0
0 0
0 0
0 0
0 0
0 0
0 0
0 0
0 0
0 0
0 0
0 0
0 0
0 0
0 0
0 0
0 0
0 0
0 0
0 0
0 0
0 0
0 0
0 0
0 0
0 0
0 0
0 0
0 0
0 0
0 0
0 0
0 0
0 0
0 0
0 0
0 0
0 0
0 0
0 0
0 0
0 0
0 0
0 0
0 0
0 0
0 0
0 0
0 0
0 0
0 0
0 0
0 0
0 0
0 0
0 0
0 0
0 0
0 0
0 0
0 0
0 0
0 0
0 0
0 0
0 0
0 0
0 0
0 0
0 0
0 0
0 0
0 0
0 0
0 0
0 0
0 0
0 0
0 0
0 0
0 0
0 0
0 0
0 0
0 0
0 0
0 0
0 0
0 0
0 0
0 0
0 0
0 0
0 0
0 0
0 0
0 0
0 0
0 0
0 0
0 0
0 0
0 0
0 0
0 0
0 0
0 0
0 0
0 0
0 0
0 0
0 0
0 0
0 0
0 0
0 0
0 0
0 0
0 0
0 0
0 0
0 0
0 0
0 0
0 0
0 0
0 0
0 0
0 0
0 0
0 0
0 0
0 0
0 0
0 0
0 0
0 0
0 0
0 0
0 0
0 0
0 0
0 0
0 0
0 0
0 0
0 0
0 0
0 0
0 0
0 0
0 0
0 0
0 0
0 0
0 0
0 0
0 0
0 0
0 0
0 0
0 0
0 0
0 0
0 0
0 0
0 0
0 0
0 0
0 0
0 0
0 0
0 0
0 0
0 0
0 0
0 0
0 0
0 0
0 0
0 0
0 0
0 0
0 0
0 0
0 0
0 0
0 0
0 0
0 0
0 0
0 0
0 0
0 0
0 0
0 0
0 0
0 0
0 0
0 0
0 0
0 0
0 0
0 0
0 0
0 0
0 0
0 0
0 0
0 0
0 0
0 0
0 0
0 0
0 0
0 0
0 0
0 0
0 0
0 0
0 0
0 0
0 0
0 0
0 0
0 0
0 0
0 0
0 0
0 0
0 0
0 0
0 0
0 0
0 0
0 0
0 0
0 0
0 0
0 0
0 0
0 0
0 0
0 0
0 0
0 0
0 0
0 0
0 0
0 0
0 0
0 0
0 0
0 0
0 0
0 0
0 0
0 0
0 0
0 0
0 0
0 0
0 0
0 0
0 0
0 0
0 0
0 0
0 0
0 0
0 0
0 0
0 0
0 0
0 0
0 0
0 0
0 0
0 0
0 0
0 0
0 0
0 0
0 0
0 0
0 0
0 0
0 0
0 0
0 0
0 0
0 0
0 0
0 0
0 0
0 0
0 0
0 0
0 0
0 0
0 0
0 0
0 0
0 0
0 0
0 0
0 0
0 0
0 0
0 0
0 0
0 0
0 0
0 0
0 0
0 0
0 0
0 0
0 0
0 0
0 0
0 0
0 0
0 0
0 0
0 0
0 0
0 0
0 0
0 0
0 0
0 0
0 0
0 0
0 0
0 0
0 0
0 0
0 0
0 0
0 0
0 0
0 0
0 0
0 0
0 0
0 0
0 0
0 0
0 0
0 0
0 0
0 0
0 0
0 0
0 0
0 0
0 0
0 0
0 0
0 0
0 0
0 0
0 0
0 0
0 0
0 0
0 0
0 0
0 0
0 0
0 0
0 0
0 0
0 0
0 0
0 0
0 0
0 0
0 0
0 0
0 0
0 0
0 0
0 0
0 0
0 0
0 0
0 0
0 0
0 0
0 0
0 0
0 0
0 0
0 0
0 0
0 0
0 0
0 0
0 0
0 0
0 0
0 0
0 0
0 0
0 0
0 0
0 0
0 0
0 0
0 0
0 0
0 0
0 0
0 0
0 0
0 0
0 0
0 0
0 0
0 0
0 0
0 0
0 0
0 0
0 0
0 0
0 0
0 0
0 0
0 0
0 0
0 0
0 0
0 0
0 0
0 0
0 0
0 0
0 0
0 0
0 0
0 0
0 0
0 0
0 0
0 0
0 0
0 0
0 0
0 0
0 0
0 0
0 0
0 0
0 0
0 0
0 0
0 0
0 0
0 0
0 0
0 0
0 0
0 0
0 0
0 0
0 0
0 0
0 0
0 0
0 0
0 0
0 0
0 0
0 0
0 0
0 0
0 0
0 0
0 0
0 0
0 0
0 0
0 0
0 0
0 0
0 0
0 0
0 0
0 0
0 0
0 0
0 0
0 0
0 0
0 0
0 0
0 0
0 0
0 0
0 0
0 0
0 0
0 0
0 0
0 0
0 0
0 0
0 0
0 0
0 0
0 0
0 0
0 0
0 0
0 0
0 0
0 0
0 0
0 0
0 0
0 0
0 0
0 0
0 0
0 0
0 0
0 0
0 0
0 0
0 0
0 0
0 0
0 0
0 0
0 0
0 0
0 0
0 0
0 0
0 0
0 0
0 0
0 0
0 0
0 0
0 0
0 0
0 0
0 0
0 0
0 0
0 0
0 0
0 0
0 0
0 0
0 0
0 0
0 0
0 0
0 0
0 0
0 0
0 0
0 0
0 0
0 0
0 0
0 0
0 0
0 0
0 0
0 0
0 0
0 0
0 0
0 0
0 0
0 0
0 0
0 0
0 0
0 0
0 0
0 0
0 0
0 0
0 0
0 0
0 0
0 0
0 0
0 0
0 0
0 0
0 0
0 0
0 0
0 0
0 0
0 0
0 0
0 0
0 0
0 0
0 0
0 0
0 0
0 0
0 0
0 0
0 0
0 0
0 0
0 0
0 0
0 0
0 0
0 0
0 0
0 0
0 0
0 0
0 0
0 0
0 0
0 0
0 0
0 0
0 0
0 0
0 0
0 0
0 0
0 0
0 0
0 0
0 0
0 0
0 0
0 0
0 0
0 0
0 0
0 0
0 0
0 0
0 0
0 0
0 0
0 0
0 0
0 0
0 0
0 0
0 0
0 0
0 0
0 0
0 0
0 0
0 0
0 0
0 0
0 0
0 0
0 0
0 0
0 0
0 0
0 0
0 0
0 0
0 0
0 0
0 0
0 0
0 0
0 0
0 0
0 0
0 0
0 0
0 0
0 0
0 0
0 0
0 0
0 0
0 0
0 0
0 0
0 0
0 0
0 0
0 0
0 0
0 0
0 0
0 0
0 0
0 0
0 0
0 0
0 0
0 0
0 0
0 0
0 0
0 0
0 0
0 0
0 0
0 0
0 0
0 0
0 0
0 0
0 0
0 0
0 0
0 0
0 0
0 0
0 0
0 0
0 0
0 0
0 0
0 0
0 0
0 0
0 0
0 0
0 0
0 0
0 0
0 0
0 0
0 0
0 0
0 0
0 0
0 0
0 0
0 0
0 0
0 0
0 0
0 0
0 0
0 0
0 0
0 0
0 0
0 0
0 0
0 0
0 0
0 0
0 0
0 0
0 0
0 0
0 0
0 0
0 0
0 0
0 0
0 0
0 0
0 0
0 0
0 0
0 0
0 0
0 0
0 0
0 0
0 0
0 0
0 0
0 0
0 0
0 0
0 0
0 0
0 0
0 0
0 0
0 0
0 0
0 0
0 0
0 0
0 0
0 0
0 0
0 0
0 0
0 0
0 0
0 0
0 0
0 0
0 0
0 0
0 0
0 0
0 0
0 0
0 0
0 0
0 0
0 0
0 0
0 0
0 0
0 0
0 0
0 0
0 0
0 0
0 0
0 0
0 0
0 0
0 0
0 0
0 0
0 0
0 0
0 0
0 0
0 0
0 0
0 0
0 0
0 0
0 0
0 0
0 0
0 0
0 0
0 0
0 0
0 0
0 0
0 0
0 0
0 0
0 0
0 0
0 0
0 0
0 0
0 0
0 0
0 0
0 0
0 0
0 0
0 0
0 0
0 0
0 0
0 0
0 0
0 0
0 0
0 0
0 0
0 0
0 0
0 0
0 0
0 0
0 0
0 0
0 0
0 0
0 0
0 0
0 0
0 0
0 0
0 0
0 0
0 0
0 0
0 0
0 0
0 0
0 0
0 0
0 0
0 0
0 0
0 0
0 0
0 0
0 0
0 0
0 0
0 0
0 0
0 0
0 0
0 0
0 0
0 0
0 0
0 0
0 0
0 0
0 0
0 0
0 0
0 0
0 0
0 0
0 0
0 0
0 0
0 0
0 0
0 0
0 0
0 0
0 0
0 0
0 0
0 0
0 0
0 0
0 0
0 0
0 0
0 0
0 0
0 0
0 0
0 0
0 0
0 0
0 0
0 0
0 0
0 0
0 0
0 0
0 0
0 0
0 0
0 0
0 0
0 0
0 0
0 0
0 0
0 0
0 0
0 0
0 0
0 0
0 0
0 0
0 0
0 0
0 0
0 0
0 0
0 0
0 0
0 0
0 0
0 0
0 0
0 0
0 0
0 0
0 0
0 0
0 0
0 0
0 0
0 0
0 0
0 0
0 0
0 0
0 0
0 0
0 0
0 0
0 0
0 0
0 0
0 0
0 0
0 0
0 0
0 0
0 0
0 0
0 0
0 0
0 0
0 0
0 0
0 0
0 0
0 0
0 0
0 0
0 0
0 0
0 0
0 0
0 0
0 0
0 0
0 0
0 0
0 0
0 0
0 0
0 0
0 0
0 0
0 0
0 0
0 0
0 0
0 0
0 0
0 0
0 0
0 0
0 0
0 0
0 0
0 0
0 0
0 0
0 0
0 0
0 0
0 0
0 0
0 0
0 0
0 0
0 0
0 0
0 0
0 0
0 0
0 0
0 0
0 0
0 0
0 0
0 0
0 0
0 0
0 0
0 0
0 0
0 0
0 0
0 0
0 0
0 0
0 0
0 0
0 0
0 0
0 0
0 0
0 0
0 0
0 0
0 0
0 0
0 0
0 0
0 0
0 0
0 0
0 0
0 0
0 0
0 0
0 0
0 0
0 0
0 0
0 0
0 0
0 0
0 0
0 0
0 0
0 0
0 0
0 0
0 0
0 0
0 0
0 0
0 0
0 0
0 0
0 0
0 0
0 0
0 0
0 0
0 0
0 0
0 0
0 0
0 0
0 0
0 0
0 0
0 0
0 0
0 0
0 0
0 0
0 0
0 0
0 0
0 0
0 0
0 0
0 0
0 0
0 0
0 0
0 0
0 0
0 0
0 0
0 0
0 0
0 0
0 0
0 0
0 0
0 0
0 0
0 0
0 0
0 0
0 0
0 0
0 0
0 0
0 0
0 0
0 0
0 0
0 0
0 0
0 0
0 0
0 0
0 0
0 0
0 0
0 0
0 0
0 0
0 0
0 0
0 0
0 0
0 0
0 0
0 0
0 0
0 0
0 0
0 0
0 0
0 0
0 0
0 0
0 0
0 0
0 0
0 0
0 0
0 0
0 0
0 0
0 0
0 0
0 0
0 0
0 0
0 0
0 0
0 0
0 0
0 0
0 0
0 0
0 0
0 0
0 0
0 0
0 0
0 0
0 0
0 0
0 0
0 0
0 0
0 0
0 0
0 0
0 0
0 0
0 0
0 0
0 0
0 0
0 0
0 0
0 0
0 0
0 0
0 0
0 0
0 0
0 0
0 0
0 0
0 0
0 0
0 0
0 0
0 0
0 0
0 0
0 0
0 0
0 0
0 0
0 0
0 0
0 0
0 0
0 0
0 0
0 0
0 0
0 0
0 0
0 0
0 0
0 0
0 0
0 0
0 0
0 0
0 0
0 0
0 0
0 0
0 0
0 0
0 0
0 0
0 0
0 0
0 0
0 0
0 0
0 0
0 0
0 0
0 0
0 0
0 0
0 0
0 0
0 0
0 0
0 0
0 0
0 0
0 0
0 0
0 0
0 0
0 0
0 0
0 0
0 0
0 0
0 0
0 0
0 0
0 0
0 0
0 0
0 0
0 0
0 0
0 0
0 0
0 0
0 0
0 0
0 0
0 0
0 0
0 0
0 0
0 0
0 0
0 0
0 0
0 0
0 0
0 0
0 0
0 0
0 0
0 0
0 0
0 0
0 0
0 0
0 0
0 0
0 0
0 0
0 0
0 0
0 0
0 0
0 0
0 0
0 0
0 0
0 0
0 0
0 0
0 0
0 0
0 0
0 0
0 0
0 0
0 0
0 0
0 0
0 0
0 0
0 0
0 0
0 0
0 0
0 0
0 0
0 0
0 0
0 0
0 0
0 0
0 0
0 0
0 0
0 0
0 0
0 0
0 0
0 0
0 0
0 0
0 0
0 0
0 0
0 0
0 0
0 0
0 0
0 0
0 0
0 0
0 0
0 0
0 0
0 0
0 0
0 0
0 0
0 0
0 0
0 0
0 0
0 0
0 0
0 0
0 0
0 0
0 0
0 0
0 0
0 0
0 0
0 0
0 0
0 0
0 0
0 0
0 0
0 0
0 0
0 0
0 0
0 0
0 0
0 0
0 0
0 0
0 0
0 0
0 0
0 0
0 0
0 0
0 0
0 0
0 0
0 0
0 0
0 0
0 0
0 0
0 0
0 0
0 0
0 0
0 0
0 0
0 0
0 0
0 0
0 0
0 0
0 0
0 0
0 0
0 0
0 0
0 0
0 0
0 0
0 0
0 0
0 0
0 0
0 0
0 0
0 0
0 0
0 0
0 0
0 0
0 0
0 0
0 0
0 0
      </DataArray> 
      <DataArray type="Float64" NumberOfComponents="2" Name="Acceleration" format="ascii">
0 0
0 0
0 0
0 0
0 0
0 0
0 0
0 0
0 0
0 0
0 0
0 0
0 0
0 0
0 0
0 0
0 0
0 0
0 0
0 0
0 0
0 0
0 0
0 0
0 0
0 0
0 0
0 0
0 0
0 0
0 0
0 0
0 0
0 0
0 0
0 0
0 0
0 0
0 0
0 0
0 0
0 0
0 0
0 0
0 0
0 0
0 0
0 0
0 0
0 0
0 0
0 0
0 0
0 0
0 0
0 0
0 0
0 0
0 0
0 0
0 0
0 0
0 0
0 0
0 0
0 0
0 0
0 0
0 0
0 0
0 0
0 0
0 0
0 0
0 0
0 0
0 0
0 0
0 0
0 0
0 0
0 0
0 0
0 0
0 0
0 0
0 0
0 0
0 0
0 0
0 0
0 0
0 0
0 0
0 0
0 0
0 0
0 0
0 0
0 0
0 0
0 0
0 0
0 0
0 0
0 0
0 0
0 0
0 0
0 0
0 0
0 0
0 0
0 0
0 0
0 0
0 0
0 0
0 0
0 0
0 0
0 0
0 0
0 0
0 0
0 0
0 0
0 0
0 0
0 0
0 0
0 0
0 0
0 0
0 0
0 0
0 0
0 0
0 0
0 0
0 0
0 0
0 0
0 0
0 0
0 0
0 0
0 0
0 0
0 0
0 0
0 0
0 0
0 0
0 0
0 0
0 0
0 0
0 0
0 0
0 0
0 0
0 0
0 0
0 0
0 0
0 0
0 0
0 0
0 0
0 0
0 0
0 0
0 0
0 0
0 0
0 0
0 0
0 0
0 0
0 0
0 0
0 0
0 0
0 0
0 0
0 0
0 0
0 0
0 0
0 0
0 0
0 0
0 0
0 0
0 0
0 0
0 0
0 0
0 0
0 0
0 0
0 0
0 0
0 0
0 0
0 0
0 0
0 0
0 0
0 0
0 0
0 0
0 0
0 0
0 0
0 0
0 0
0 0
0 0
0 0
0 0
0 0
0 0
0 0
0 0
0 0
0 0
0 0
0 0
0 0
0 0
0 0
0 0
0 0
0 0
0 0
0 0
0 0
0 0
0 0
0 0
0 0
0 0
0 0
0 0
0 0
0 0
0 0
0 0
0 0
0 0
0 0
0 0
0 0
0 0
0 0
0 0
0 0
0 0
0 0
0 0
0 0
0 0
0 0
0 0
0 0
0 0
0 0
0 0
0 0
0 0
0 0
0 0
0 0
0 0
0 0
0 0
0 0
0 0
0 0
0 0
0 0
0 0
0 0
0 0
0 0
0 0
0 0
0 0
0 0
0 0
0 0
0 0
0 0
0 0
0 0
0 0
0 0
0 0
0 0
0 0
0 0
0 0
0 0
0 0
0 0
0 0
0 0
0 0
0 0
0 0
0 0
0 0
0 0
0 0
0 0
0 0
0 0
0 0
0 0
0 0
0 0
0 0
0 0
0 0
0 0
0 0
0 0
0 0
0 0
0 0
0 0
0 0
0 0
0 0
0 0
0 0
0 0
0 0
0 0
0 0
0 0
0 0
0 0
0 0
0 0
0 0
0 0
0 0
0 0
0 0
0 0
0 0
0 0
0 0
0 0
0 0
0 0
0 0
0 0
0 0
0 0
0 0
0 0
0 0
0 0
0 0
0 0
0 0
0 0
0 0
0 0
0 0
0 0
0 0
0 0
0 0
0 0
0 0
0 0
0 0
0 0
0 0
0 0
0 0
0 0
0 0
0 0
0 0
0 0
0 0
0 0
0 0
0 0
0 0
0 0
0 0
0 0
0 0
0 0
0 0
0 0
0 0
0 0
0 0
0 0
0 0
0 0
0 0
0 0
0 0
0 0
0 0
0 0
0 0
0 0
0 0
0 0
0 0
0 0
0 0
0 0
0 0
0 0
0 0
0 0
0 0
0 0
0 0
0 0
0 0
0 0
0 0
0 0
0 0
0 0
0 0
0 0
0 0
0 0
0 0
0 0
0 0
0 0
0 0
0 0
0 0
0 0
0 0
0 0
0 0
0 0
0 0
0 0
0 0
0 0
0 0
0 0
0 0
0 0
0 0
0 0
0 0
0 0
0 0
0 0
0 0
0 0
0 0
0 0
0 0
0 0
0 0
0 0
0 0
0 0
0 0
0 0
0 0
0 0
0 0
0 0
0 0
0 0
0 0
0 0
0 0
0 0
0 0
0 0
0 0
0 0
0 0
0 0
0 0
0 0
0 0
0 0
0 0
0 0
0 0
0 0
0 0
0 0
0 0
0 0
0 0
0 0
0 0
0 0
0 0
0 0
0 0
0 0
0 0
0 0
0 0
0 0
0 0
0 0
0 0
0 0
0 0
0 0
0 0
0 0
0 0
0 0
0 0
0 0
0 0
0 0
0 0
0 0
0 0
0 0
0 0
0 0
0 0
0 0
0 0
0 0
0 0
0 0
0 0
0 0
0 0
0 0
0 0
0 0
0 0
0 0
0 0
0 0
0 0
0 0
0 0
0 0
0 0
0 0
0 0
0 0
0 0
0 0
0 0
0 0
0 0
0 0
0 0
0 0
0 0
0 0
0 0
0 0
0 0
0 0
0 0
0 0
0 0
0 0
0 0
0 0
0 0
0 0
0 0
0 0
0 0
0 0
0 0
0 0
0 0
0 0
0 0
0 0
0 0
0 0
0 0
0 0
0 0
0 0
0 0
0 0
0 0
0 0
0 0
0 0
0 0
0 0
0 0
0 0
0 0
0 0
0 0
0 0
0 0
0 0
0 0
0 0
0 0
0 0
0 0
0 0
0 0
0 0
0 0
0 0
0 0
0 0
0 0
0 0
0 0
0 0
0 0
0 0
0 0
0 0
0 0
0 0
0 0
0 0
0 0
0 0
0 0
0 0
0 0
0 0
0 0
0 0
0 0
0 0
0 0
0 0
0 0
0 0
0 0
0 0
0 0
0 0
0 0
0 0
0 0
0 0
0 0
0 0
0 0
0 0
0 0
0 0
0 0
0 0
0 0
0 0
0 0
0 0
0 0
0 0
0 0
0 0
0 0
0 0
0 0
0 0
0 0
0 0
0 0
0 0
0 0
0 0
0 0
0 0
0 0
0 0
0 0
0 0
0 0
0 0
0 0
0 0
0 0
0 0
0 0
0 0
0 0
0 0
0 0
0 0
0 0
0 0
0 0
0 0
0 0
0 0
0 0
0 0
0 0
0 0
0 0
0 0
0 0
0 0
0 0
0 0
0 0
0 0
0 0
0 0
0 0
0 0
0 0
0 0
0 0
0 0
0 0
0 0
0 0
0 0
0 0
0 0
0 0
0 0
0 0
0 0
0 0
0 0
0 0
0 0
0 0
0 0
0 0
0 0
0 0
0 0
0 0
0 0
0 0
0 0
0 0
0 0
0 0
0 0
0 0
0 0
0 0
0 0
0 0
0 0
0 0
0 0
0 0
0 0
0 0
0 0
0 0
0 0
0 0
0 0
0 0
0 0
0 0
0 0
0 0
0 0
0 0
0 0
0 0
0 0
0 0
0 0
0 0
0 0
0 0
0 0
0 0
0 0
0 0
0 0
0 0
0 0
0 0
0 0
0 0
0 0
0 0
0 0
0 0
0 0
0 0
0 0
0 0
0 0
0 0
0 0
0 0
0 0
0 0
0 0
0 0
0 0
0 0
0 0
0 0
0 0
0 0
0 0
0 0
0 0
0 0
0 0
0 0
0 0
0 0
0 0
0 0
0 0
0 0
0 0
0 0
0 0
0 0
0 0
0 0
0 0
0 0
0 0
0 0
0 0
0 0
0 0
0 0
0 0
0 0
0 0
0 0
0 0
0 0
0 0
0 0
0 0
0 0
0 0
0 0
0 0
0 0
0 0
0 0
0 0
0 0
0 0
0 0
0 0
0 0
0 0
0 0
0 0
0 0
0 0
0 0
0 0
0 0
0 0
0 0
0 0
0 0
0 0
0 0
0 0
0 0
0 0
0 0
0 0
0 0
0 0
0 0
0 0
0 0
0 0
0 0
0 0
0 0
0 0
0 0
0 0
0 0
0 0
0 0
0 0
0 0
0 0
0 0
0 0
0 0
0 0
0 0
0 0
0 0
0 0
0 0
0 0
0 0
0 0
0 0
0 0
0 0
0 0
0 0
0 0
0 0
0 0
0 0
0 0
0 0
0 0
0 0
0 0
0 0
0 0
0 0
0 0
0 0
0 0
0 0
0 0
0 0
0 0
0 0
0 0
0 0
0 0
0 0
0 0
0 0
0 0
0 0
0 0
0 0
0 0
0 0
0 0
0 0
0 0
0 0
0 0
0 0
0 0
0 0
0 0
0 0
0 0
0 0
0 0
0 0
0 0
0 0
0 0
0 0
0 0
0 0
0 0
0 0
0 0
0 0
0 0
0 0
0 0
0 0
0 0
0 0
0 0
0 0
0 0
0 0
0 0
0 0
0 0
0 0
0 0
0 0
0 0
0 0
0 0
0 0
0 0
0 0
0 0
0 0
0 0
0 0
0 0
0 0
0 0
0 0
0 0
0 0
0 0
0 0
0 0
0 0
0 0
0 0
0 0
0 0
0 0
0 0
0 0
0 0
0 0
0 0
0 0
0 0
0 0
0 0
0 0
0 0
0 0
0 0
0 0
0 0
0 0
0 0
0 0
0 0
0 0
0 0
0 0
0 0
0 0
0 0
0 0
0 0
0 0
0 0
0 0
0 0
0 0
0 0
0 0
0 0
0 0
0 0
0 0
0 0
0 0
0 0
0 0
0 0
0 0
0 0
0 0
0 0
0 0
0 0
0 0
0 0
0 0
0 0
0 0
0 0
0 0
0 0
0 0
0 0
0 0
0 0
0 0
0 0
0 0
0 0
0 0
0 0
0 0
0 0
0 0
0 0
0 0
0 0
0 0
0 0
0 0
0 0
0 0
0 0
0 0
0 0
0 0
0 0
0 0
0 0
0 0
0 0
0 0
0 0
0 0
0 0
0 0
0 0
0 0
0 0
0 0
0 0
0 0
0 0
0 0
0 0
0 0
0 0
0 0
0 0
0 0
0 0
0 0
0 0
0 0
0 0
0 0
0 0
0 0
0 0
0 0
0 0
0 0
0 0
0 0
0 0
0 0
0 0
0 0
0 0
0 0
0 0
0 0
0 0
0 0
0 0
0 0
0 0
0 0
0 0
0 0
0 0
0 0
0 0
0 0
0 0
0 0
0 0
0 0
0 0
0 0
0 0
0 0
0 0
0 0
0 0
0 0
0 0
0 0
0 0
0 0
0 0
0 0
0 0
0 0
0 0
0 0
0 0
0 0
0 0
0 0
0 0
0 0
0 0
0 0
0 0
0 0
0 0
0 0
0 0
0 0
0 0
0 0
0 0
0 0
0 0
0 0
0 0
0 0
0 0
0 0
0 0
0 0
0 0
0 0
0 0
0 0
0 0
0 0
0 0
0 0
0 0
0 0
0 0
0 0
0 0
0 0
0 0
0 0
0 0
0 0
0 0
0 0
0 0
0 0
0 0
0 0
0 0
0 0
0 0
0 0
0 0
0 0
0 0
0 0
0 0
0 0
0 0
0 0
0 0
0 0
0 0
0 0
0 0
0 0
0 0
0 0
0 0
0 0
0 0
0 0
0 0
0 0
0 0
0 0
0 0
0 0
0 0
0 0
0 0
0 0
0 0
0 0
0 0
0 0
0 0
0 0
0 0
0 0
0 0
0 0
0 0
0 0
0 0
0 0
0 0
0 0
0 0
0 0
0 0
0 0
0 0
0 0
0 0
0 0
0 0
0 0
0 0
0 0
0 0
0 0
0 0
0 0
0 0
0 0
0 0
0 0
0 0
0 0
0 0
0 0
0 0
0 0
0 0
0 0
0 0
0 0
0 0
0 0
0 0
0 0
0 0
0 0
0 0
0 0
0 0
0 0
0 0
0 0
0 0
0 0
0 0
0 0
0 0
0 0
0 0
0 0
0 0
0 0
0 0
0 0
0 0
0 0
0 0
0 0
0 0
0 0
0 0
0 0
0 0
0 0
0 0
0 0
0 0
0 0
0 0
0 0
0 0
0 0
0 0
0 0
0 0
0 0
0 0
0 0
0 0
0 0
0 0
0 0
0 0
0 0
0 0
0 0
0 0
0 0
0 0
0 0
0 0
0 0
0 0
0 0
0 0
0 0
0 0
0 0
0 0
0 0
0 0
0 0
0 0
0 0
0 0
0 0
0 0
0 0
0 0
0 0
0 0
0 0
0 0
0 0
0 0
0 0
0 0
0 0
0 0
0 0
0 0
0 0
0 0
0 0
0 0
0 0
0 0
0 0
0 0
0 0
0 0
0 0
0 0
0 0
0 0
0 0
0 0
0 0
0 0
0 0
0 0
0 0
0 0
0 0
0 0
0 0
0 0
0 0
0 0
0 0
0 0
0 0
0 0
0 0
0 0
0 0
0 0
0 0
0 0
0 0
0 0
0 0
0 0
0 0
0 0
0 0
0 0
0 0
0 0
0 0
0 0
0 0
0 0
0 0
0 0
0 0
0 0
0 0
0 0
0 0
0 0
0 0
0 0
0 0
0 0
0 0
0 0
0 0
0 0
0 0
0 0
0 0
0 0
0 0
0 0
0 0
0 0
0 0
0 0
0 0
0 0
0 0
0 0
0 0
0 0
0 0
0 0
0 0
0 0
0 0
0 0
0 0
0 0
0 0
0 0
0 0
0 0
0 0
0 0
0 0
0 0
0 0
0 0
0 0
0 0
0 0
0 0
0 0
0 0
0 0
0 0
0 0
0 0
0 0
0 0
0 0
0 0
0 0
0 0
0 0
0 0
0 0
0 0
0 0
0 0
0 0
0 0
0 0
0 0
0 0
0 0
0 0
0 0
0 0
0 0
0 0
0 0
0 0
0 0
0 0
0 0
0 0
0 0
0 0
0 0
0 0
0 0
0 0
0 0
0 0
0 0
0 0
0 0
0 0
0 0
0 0
0 0
0 0
0 0
0 0
0 0
0 0
0 0
0 0
0 0
0 0
0 0
0 0
0 0
0 0
0 0
0 0
0 0
0 0
0 0
0 0
0 0
0 0
0 0
0 0
0 0
0 0
0 0
0 0
0 0
0 0
0 0
0 0
0 0
0 0
0 0
0 0
0 0
0 0
0 0
0 0
0 0
0 0
0 0
0 0
0 0
0 0
0 0
0 0
0 0
0 0
0 0
0 0
0 0
0 0
0 0
0 0
0 0
0 0
0 0
0 0
0 0
0 0
0 0
0 0
0 0
0 0
0 0
0 0
0 0
0 0
0 0
0 0
0 0
0 0
0 0
0 0
0 0
0 0
0 0
0 0
0 0
0 0
0 0
0 0
0 0
0 0
0 0
0 0
0 0
0 0
0 0
0 0
0 0
0 0
0 0
0 0
0 0
0 0
0 0
0 0
0 0
0 0
0 0
0 0
0 0
0 0
0 0
0 0
0 0
0 0
0 0
0 0
0 0
0 0
0 0
0 0
0 0
0 0
0 0
0 0
0 0
0 0
0 0
0 0
0 0
0 0
0 0
0 0
0 0
0 0
0 0
0 0
0 0
0 0
0 0
0 0
0 0
0 0
0 0
0 0
0 0
0 0
0 0
0 0
0 0
0 0
0 0
0 0
0 0
0 0
0 0
0 0
0 0
0 0
0 0
0 0
0 0
0 0
0 0
0 0
0 0
0 0
0 0
0 0
0 0
0 0
0 0
0 0
0 0
0 0
0 0
0 0
0 0
0 0
0 0
0 0
0 0
0 0
0 0
0 0
0 0
0 0
0 0
0 0
0 0
0 0
0 0
0 0
0 0
0 0
0 0
0 0
0 0
0 0
0 0
0 0
0 0
0 0
0 0
0 0
0 0
0 0
0 0
0 0
0 0
0 0
0 0
0 0
0 0
0 0
0 0
0 0
0 0
0 0
0 0
0 0
0 0
0 0
0 0
0 0
0 0
0 0
0 0
0 0
0 0
0 0
0 0
0 0
0 0
0 0
0 0
0 0
0 0
0 0
0 0
0 0
0 0
0 0
0 0
0 0
0 0
0 0
0 0
0 0
0 0
0 0
0 0
0 0
0 0
0 0
0 0
0 0
0 0
0 0
0 0
0 0
0 0
0 0
0 0
0 0
0 0
0 0
0 0
0 0
0 0
0 0
0 0
0 0
0 0
0 0
0 0
0 0
0 0
0 0
0 0
0 0
0 0
0 0
0 0
0 0
0 0
0 0
0 0
0 0
0 0
0 0
0 0
0 0
0 0
0 0
0 0
0 0
0 0
0 0
0 0
0 0
0 0
0 0
0 0
0 0
0 0
0 0
0 0
0 0
0 0
0 0
0 0
0 0
0 0
0 0
0 0
0 0
0 0
0 0
0 0
0 0
0 0
0 0
0 0
0 0
0 0
0 0
0 0
0 0
0 0
0 0
0 0
0 0
0 0
0 0
0 0
0 0
0 0
0 0
0 0
0 0
0 0
0 0
0 0
0 0
0 0
0 0
0 0
0 0
0 0
0 0
0 0
0 0
0 0
0 0
0 0
0 0
0 0
0 0
0 0
0 0
0 0
0 0
0 0
0 0
0 0
0 0
0 0
0 0
0 0
0 0
0 0
0 0
0 0
0 0
0 0
0 0
0 0
0 0
0 0
0 0
0 0
0 0
0 0
0 0
0 0
0 0
0 0
0 0
0 0
0 0
0 0
0 0
0 0
0 0
0 0
0 0
0 0
0 0
0 0
0 0
0 0
0 0
0 0
0 0
0 0
0 0
0 0
0 0
0 0
0 0
0 0
0 0
0 0
0 0
0 0
0 0
0 0
0 0
0 0
0 0
0 0
0 0
0 0
0 0
0 0
0 0
0 0
0 0
0 0
0 0
0 0
0 0
0 0
0 0
0 0
0 0
0 0
0 0
0 0
0 0
0 0
0 0
0 0
0 0
0 0
0 0
0 0
0 0
0 0
0 0
0 0
0 0
0 0
0 0
0 0
0 0
0 0
0 0
0 0
0 0
0 0
0 0
0 0
0 0
0 0
0 0
0 0
0 0
0 0
0 0
0 0
0 0
0 0
0 0
0 0
0 0
0 0
0 0
0 0
0 0
0 0
0 0
0 0
0 0
0 0
0 0
0 0
0 0
0 0
0 0
0 0
0 0
0 0
0 0
0 0
0 0
0 0
0 0
0 0
0 0
0 0
0 0
0 0
0 0
0 0
0 0
0 0
0 0
0 0
0 0
0 0
0 0
0 0
0 0
0 0
0 0
0 0
0 0
0 0
0 0
0 0
0 0
0 0
0 0
0 0
0 0
0 0
0 0
0 0
0 0
0 0
0 0
0 0
0 0
0 0
0 0
0 0
0 0
0 0
0 0
0 0
0 0
0 0
0 0
0 0
0 0
0 0
0 0
0 0
0 0
0 0
0 0
0 0
0 0
0 0
0 0
0 0
0 0
0 0
0 0
0 0
0 0
0 0
0 0
0 0
0 0
0 0
0 0
0 0
0 0
0 0
0 0
0 0
0 0
0 0
0 0
0 0
0 0
0 0
0 0
0 0
0 0
0 0
0 0
0 0
0 0
0 0
0 0
0 0
0 0
0 0
0 0
0 0
0 0
0 0
0 0
0 0
0 0
0 0
0 0
0 0
0 0
0 0
0 0
0 0
0 0
0 0
0 0
0 0
0 0
0 0
0 0
0 0
0 0
0 0
0 0
0 0
0 0
0 0
0 0
0 0
0 0
0 0
0 0
0 0
0 0
0 0
0 0
0 0
0 0
0 0
0 0
0 0
0 0
0 0
0 0
0 0
0 0
0 0
0 0
0 0
0 0
0 0
0 0
0 0
0 0
0 0
0 0
0 0
0 0
0 0
0 0
0 0
0 0
0 0
0 0
0 0
0 0
0 0
0 0
0 0
0 0
0 0
0 0
0 0
0 0
0 0
0 0
0 0
0 0
0 0
0 0
0 0
0 0
0 0
0 0
0 0
0 0
0 0
0 0
0 0
0 0
0 0
0 0
0 0
0 0
0 0
0 0
0 0
0 0
0 0
0 0
0 0
0 0
0 0
0 0
0 0
0 0
0 0
0 0
0 0
0 0
0 0
0 0
0 0
0 0
0 0
0 0
0 0
0 0
0 0
0 0
0 0
0 0
0 0
0 0
0 0
0 0
0 0
0 0
0 0
0 0
0 0
0 0
0 0
0 0
0 0
0 0
0 0
0 0
0 0
0 0
0 0
0 0
0 0
0 0
0 0
0 0
0 0
0 0
0 0
0 0
0 0
0 0
0 0
0 0
0 0
0 0
0 0
0 0
0 0
0 0
0 0
0 0
0 0
0 0
0 0
0 0
0 0
0 0
0 0
0 0
0 0
0 0
0 0
0 0
0 0
0 0
0 0
0 0
0 0
0 0
0 0
0 0
0 0
0 0
0 0
0 0
0 0
0 0
0 0
0 0
0 0
0 0
0 0
0 0
0 0
0 0
0 0
0 0
0 0
0 0
0 0
0 0
0 0
0 0
0 0
0 0
0 0
0 0
0 0
0 0
0 0
0 0
0 0
0 0
0 0
0 0
0 0
0 0
0 0
0 0
0 0
0 0
0 0
0 0
0 0
0 0
0 0
0 0
0 0
0 0
0 0
0 0
0 0
0 0
0 0
0 0
0 0
0 0
0 0
0 0
0 0
0 0
0 0
0 0
0 0
0 0
0 0
0 0
0 0
0 0
0 0
0 0
0 0
0 0
0 0
0 0
0 0
0 0
0 0
0 0
0 0
0 0
0 0
0 0
0 0
0 0
0 0
0 0
0 0
0 0
0 0
0 0
0 0
0 0
0 0
0 0
0 0
0 0
0 0
0 0
0 0
0 0
0 0
0 0
0 0
0 0
0 0
0 0
0 0
0 0
0 0
0 0
0 0
0 0
0 0
0 0
0 0
0 0
0 0
0 0
0 0
0 0
0 0
0 0
0 0
0 0
0 0
0 0
0 0
0 0
0 0
0 0
0 0
0 0
0 0
0 0
0 0
0 0
0 0
0 0
0 0
0 0
0 0
0 0
0 0
0 0
0 0
0 0
0 0
0 0
0 0
0 0
0 0
0 0
0 0
0 0
0 0
0 0
0 0
0 0
0 0
0 0
0 0
0 0
0 0
0 0
0 0
0 0
0 0
0 0
0 0
0 0
0 0
0 0
0 0
0 0
0 0
0 0
0 0
0 0
0 0
0 0
0 0
0 0
0 0
0 0
0 0
0 0
0 0
0 0
0 0
0 0
0 0
0 0
0 0
0 0
0 0
0 0
0 0
0 0
0 0
0 0
0 0
0 0
0 0
0 0
0 0
0 0
0 0
0 0
0 0
0 0
0 0
0 0
0 0
0 0
0 0
0 0
0 0
0 0
0 0
0 0
0 0
0 0
0 0
0 0
0 0
0 0
0 0
0 0
0 0
0 0
0 0
0 0
0 0
0 0
0 0
0 0
0 0
0 0
0 0
0 0
0 0
0 0
0 0
0 0
0 0
0 0
0 0
0 0
0 0
0 0
0 0
0 0
0 0
0 0
0 0
0 0
0 0
0 0
0 0
0 0
0 0
0 0
0 0
0 0
0 0
0 0
0 0
0 0
0 0
0 0
0 0
0 0
0 0
0 0
0 0
0 0
0 0
0 0
0 0
0 0
0 0
0 0
0 0
0 0
0 0
0 0
0 0
0 0
0 0
0 0
0 0
0 0
0 0
0 0
0 0
0 0
0 0
0 0
0 0
0 0
0 0
0 0
0 0
0 0
0 0
0 0
0 0
0 0
0 0
0 0
0 0
0 0
0 0
0 0
0 0
0 0
0 0
0 0
0 0
0 0
0 0
0 0
0 0
0 0
0 0
0 0
0 0
0 0
0 0
0 0
0 0
0 0
0 0
0 0
0 0
0 0
0 0
0 0
0 0
0 0
0 0
0 0
0 0
0 0
0 0
0 0
0 0
0 0
0 0
0 0
0 0
0 0
0 0
0 0
0 0
0 0
0 0
0 0
0 0
0 0
0 0
0 0
0 0
0 0
0 0
0 0
0 0
0 0
0 0
0 0
0 0
0 0
0 0
0 0
0 0
0 0
0 0
0 0
0 0
0 0
0 0
0 0
0 0
0 0
0 0
0 0
0 0
0 0
0 0
0 0
0 0
0 0
0 0
0 0
0 0
0 0
0 0
0 0
0 0
0 0
0 0
0 0
0 0
0 0
0 0
0 0
0 0
0 0
0 0
0 0
0 0
0 0
0 0
0 0
0 0
0 0
0 0
0 0
0 0
0 0
0 0
0 0
0 0
0 0
0 0
0 0
0 0
0 0
0 0
0 0
0 0
0 0
0 0
0 0
0 0
0 0
0 0
0 0
0 0
0 0
0 0
0 0
0 0
0 0
0 0
0 0
0 0
0 0
0 0
0 0
0 0
0 0
0 0
0 0
0 0
0 0
0 0
0 0
0 0
0 0
0 0
0 0
0 0
0 0
0 0
0 0
0 0
0 0
0 0
0 0
0 0
0 0
0 0
0 0
0 0
0 0
0 0
0 0
0 0
0 0
0 0
0 0
0 0
0 0
0 0
0 0
0 0
0 0
0 0
0 0
0 0
0 0
0 0
0 0
0 0
0 0
0 0
0 0
0 0
0 0
0 0
0 0
0 0
0 0
0 0
0 0
0 0
0 0
0 0
0 0
0 0
0 0
0 0
0 0
0 0
0 0
0 0
0 0
0 0
0 0
0 0
0 0
0 0
0 0
0 0
0 0
0 0
0 0
0 0
0 0
0 0
0 0
0 0
0 0
0 0
0 0
0 0
0 0
0 0
0 0
0 0
0 0
0 0
0 0
0 0
0 0
0 0
0 0
0 0
0 0
0 0
0 0
0 0
0 0
0 0
0 0
0 0
0 0
0 0
0 0
0 0
0 0
0 0
0 0
0 0
0 0
0 0
0 0
0 0
0 0
0 0
0 0
0 0
0 0
0 0
0 0
0 0
0 0
0 0
0 0
0 0
0 0
0 0
0 0
0 0
0 0
0 0
0 0
0 0
0 0
0 0
0 0
0 0
0 0
0 0
0 0
0 0
0 0
0 0
0 0
0 0
0 0
0 0
0 0
0 0
0 0
0 0
0 0
0 0
0 0
0 0
0 0
0 0
0 0
0 0
0 0
0 0
0 0
0 0
0 0
0 0
0 0
0 0
0 0
0 0
0 0
0 0
0 0
0 0
0 0
0 0
0 0
0 0
0 0
0 0
0 0
0 0
0 0
0 0
0 0
0 0
0 0
0 0
0 0
0 0
0 0
0 0
0 0
0 0
0 0
0 0
0 0
0 0
0 0
0 0
0 0
0 0
0 0
0 0
0 0
0 0
0 0
0 0
0 0
0 0
0 0
0 0
0 0
0 0
0 0
0 0
0 0
0 0
0 0
0 0
0 0
0 0
0 0
0 0
0 0
0 0
0 0
0 0
0 0
0 0
0 0
0 0
0 0
0 0
0 0
0 0
0 0
0 0
0 0
0 0
0 0
0 0
0 0
0 0
0 0
0 0
0 0
0 0
0 0
0 0
0 0
0 0
0 0
0 0
0 0
0 0
0 0
0 0
0 0
0 0
0 0
0 0
0 0
0 0
0 0
0 0
0 0
0 0
0 0
0 0
0 0
0 0
0 0
0 0
0 0
0 0
0 0
0 0
0 0
0 0
0 0
0 0
0 0
0 0
0 0
0 0
0 0
0 0
0 0
0 0
0 0
0 0
0 0
0 0
0 0
0 0
0 0
0 0
0 0
0 0
0 0
0 0
0 0
0 0
0 0
0 0
0 0
0 0
0 0
0 0
0 0
0 0
0 0
0 0
0 0
0 0
0 0
0 0
0 0
0 0
0 0
0 0
0 0
0 0
0 0
0 0
0 0
0 0
0 0
0 0
0 0
0 0
0 0
0 0
0 0
0 0
0 0
0 0
0 0
0 0
0 0
0 0
0 0
0 0
0 0
0 0
0 0
0 0
0 0
0 0
0 0
0 0
0 0
0 0
0 0
0 0
0 0
0 0
0 0
0 0
0 0
0 0
0 0
0 0
0 0
0 0
0 0
0 0
0 0
0 0
0 0
0 0
0 0
0 0
0 0
0 0
0 0
0 0
0 0
0 0
0 0
0 0
0 0
0 0
0 0
0 0
0 0
0 0
0 0
0 0
0 0
0 0
0 0
0 0
0 0
0 0
0 0
0 0
0 0
0 0
0 0
0 0
0 0
0 0
0 0
0 0
0 0
0 0
0 0
0 0
0 0
0 0
0 0
0 0
0 0
0 0
0 0
0 0
0 0
0 0
0 0
0 0
0 0
0 0
0 0
0 0
0 0
0 0
0 0
0 0
0 0
0 0
0 0
0 0
0 0
0 0
0 0
0 0
0 0
0 0
0 0
0 0
0 0
0 0
0 0
0 0
0 0
0 0
0 0
0 0
0 0
0 0
0 0
0 0
0 0
0 0
0 0
0 0
0 0
0 0
0 0
0 0
0 0
0 0
0 0
0 0
0 0
0 0
0 0
0 0
0 0
0 0
0 0
0 0
0 0
0 0
0 0
0 0
0 0
0 0
0 0
0 0
0 0
0 0
0 0
0 0
0 0
0 0
0 0
0 0
0 0
0 0
0 0
0 0
0 0
0 0
0 0
0 0
0 0
0 0
0 0
0 0
0 0
0 0
0 0
0 0
0 0
0 0
0 0
0 0
0 0
0 0
0 0
0 0
0 0
0 0
0 0
0 0
0 0
0 0
0 0
0 0
0 0
0 0
0 0
0 0
0 0
0 0
0 0
0 0
0 0
0 0
0 0
0 0
0 0
0 0
0 0
0 0
0 0
0 0
0 0
0 0
0 0
0 0
0 0
0 0
0 0
0 0
0 0
0 0
0 0
0 0
0 0
0 0
0 0
0 0
0 0
0 0
0 0
0 0
0 0
0 0
0 0
0 0
0 0
0 0
0 0
0 0
0 0
0 0
0 0
0 0
0 0
0 0
0 0
0 0
0 0
0 0
0 0
0 0
0 0
0 0
0 0
0 0
0 0
0 0
0 0
0 0
0 0
0 0
0 0
0 0
0 0
0 0
0 0
0 0
0 0
0 0
0 0
0 0
0 0
0 0
0 0
0 0
0 0
0 0
0 0
0 0
0 0
0 0
0 0
0 0
0 0
0 0
0 0
0 0
0 0
0 0
0 0
0 0
0 0
0 0
0 0
0 0
0 0
0 0
0 0
0 0
0 0
0 0
0 0
0 0
0 0
0 0
0 0
0 0
0 0
0 0
0 0
0 0
0 0
0 0
0 0
0 0
0 0
0 0
0 0
0 0
0 0
0 0
0 0
0 0
0 0
0 0
0 0
0 0
0 0
0 0
0 0
0 0
0 0
0 0
0 0
0 0
0 0
0 0
0 0
0 0
0 0
0 0
0 0
0 0
0 0
0 0
0 0
0 0
0 0
0 0
0 0
0 0
0 0
0 0
0 0
0 0
0 0
0 0
0 0
0 0
0 0
0 0
0 0
0 0
0 0
0 0
0 0
0 0
0 0
0 0
0 0
0 0
0 0
0 0
0 0
0 0
0 0
0 0
0 0
0 0
0 0
0 0
0 0
0 0
0 0
0 0
0 0
0 0
0 0
0 0
0 0
0 0
0 0
0 0
0 0
0 0
0 0
0 0
0 0
0 0
0 0
0 0
0 0
0 0
0 0
0 0
0 0
0 0
0 0
0 0
0 0
0 0
0 0
0 0
0 0
0 0
0 0
0 0
0 0
0 0
0 0
0 0
0 0
0 0
0 0
0 0
0 0
0 0
0 0
0 0
0 0
0 0
0 0
0 0
0 0
0 0
0 0
0 0
0 0
0 0
0 0
0 0
0 0
0 0
0 0
0 0
0 0
0 0
0 0
0 0
0 0
0 0
0 0
0 0
0 0
0 0
0 0
0 0
0 0
0 0
0 0
0 0
0 0
0 0
0 0
0 0
0 0
0 0
0 0
0 0
0 0
0 0
0 0
0 0
0 0
0 0
0 0
0 0
0 0
0 0
0 0
0 0
0 0
0 0
0 0
0 0
0 0
0 0
0 0
0 0
0 0
0 0
0 0
0 0
0 0
0 0
0 0
0 0
0 0
0 0
0 0
0 0
0 0
0 0
0 0
0 0
0 0
0 0
0 0
0 0
0 0
0 0
0 0
0 0
0 0
0 0
0 0
0 0
0 0
0 0
0 0
0 0
0 0
0 0
0 0
0 0
0 0
0 0
0 0
0 0
0 0
0 0
0 0
0 0
0 0
0 0
0 0
0 0
0 0
0 0
0 0
0 0
0 0
0 0
0 0
0 0
0 0
0 0
0 0
0 0
0 0
0 0
0 0
0 0
0 0
0 0
0 0
0 0
0 0
0 0
0 0
0 0
0 0
0 0
0 0
0 0
0 0
0 0
0 0
0 0
0 0
0 0
0 0
0 0
0 0
0 0
0 0
0 0
0 0
0 0
0 0
0 0
0 0
0 0
0 0
0 0
0 0
0 0
0 0
0 0
0 0
0 0
0 0
0 0
0 0
0 0
0 0
0 0
0 0
0 0
0 0
0 0
0 0
0 0
0 0
0 0
0 0
0 0
0 0
0 0
0 0
0 0
0 0
0 0
0 0
0 0
0 0
0 0
0 0
0 0
0 0
0 0
0 0
0 0
0 0
0 0
0 0
0 0
0 0
0 0
0 0
0 0
0 0
0 0
0 0
0 0
0 0
0 0
0 0
0 0
0 0
0 0
0 0
0 0
0 0
0 0
0 0
0 0
0 0
0 0
0 0
0 0
0 0
0 0
0 0
0 0
0 0
0 0
0 0
0 0
0 0
0 0
0 0
0 0
0 0
0 0
0 0
0 0
0 0
0 0
0 0
0 0
0 0
0 0
0 0
0 0
0 0
0 0
0 0
0 0
0 0
0 0
0 0
0 0
0 0
0 0
0 0
0 0
0 0
0 0
0 0
0 0
0 0
0 0
0 0
0 0
0 0
0 0
0 0
0 0
0 0
0 0
0 0
0 0
0 0
0 0
0 0
0 0
0 0
0 0
0 0
0 0
0 0
0 0
0 0
0 0
0 0
0 0
0 0
0 0
0 0
0 0
0 0
0 0
0 0
0 0
0 0
0 0
0 0
0 0
0 0
0 0
0 0
0 0
0 0
0 0
0 0
0 0
0 0
0 0
0 0
0 0
0 0
0 0
0 0
0 0
0 0
0 0
0 0
0 0
0 0
0 0
0 0
0 0
0 0
0 0
0 0
0 0
0 0
0 0
0 0
0 0
0 0
0 0
0 0
0 0
0 0
0 0
0 0
0 0
0 0
0 0
0 0
0 0
0 0
0 0
0 0
0 0
0 0
0 0
0 0
0 0
0 0
0 0
0 0
0 0
0 0
0 0
0 0
0 0
0 0
0 0
0 0
0 0
0 0
0 0
0 0
0 0
0 0
0 0
0 0
0 0
0 0
0 0
0 0
0 0
0 0
0 0
0 0
0 0
0 0
0 0
0 0
0 0
0 0
0 0
0 0
0 0
0 0
0 0
0 0
0 0
0 0
0 0
0 0
0 0
0 0
0 0
0 0
0 0
0 0
0 0
0 0
0 0
0 0
0 0
0 0
0 0
0 0
0 0
0 0
0 0
0 0
0 0
0 0
0 0
0 0
0 0
0 0
0 0
0 0
0 0
0 0
0 0
0 0
0 0
0 0
0 0
0 0
0 0
0 0
0 0
0 0
0 0
0 0
0 0
0 0
0 0
0 0
0 0
0 0
0 0
0 0
0 0
0 0
0 0
0 0
0 0
0 0
0 0
0 0
0 0
0 0
0 0
0 0
0 0
0 0
0 0
0 0
0 0
0 0
0 0
0 0
0 0
0 0
0 0
0 0
0 0
0 0
0 0
0 0
0 0
0 0
0 0
0 0
0 0
0 0
0 0
0 0
0 0
0 0
0 0
0 0
0 0
0 0
0 0
0 0
0 0
0 0
0 0
0 0
0 0
0 0
0 0
0 0
0 0
0 0
0 0
0 0
0 0
0 0
0 0
0 0
0 0
0 0
0 0
0 0
0 0
0 0
0 0
0 0
0 0
0 0
0 0
0 0
0 0
0 0
0 0
0 0
0 0
0 0
0 0
0 0
0 0
0 0
0 0
0 0
0 0
0 0
0 0
0 0
0 0
0 0
0 0
0 0
0 0
0 0
0 0
0 0
0 0
0 0
0 0
0 0
0 0
0 0
0 0
0 0
0 0
0 0
0 0
0 0
0 0
0 0
0 0
0 0
0 0
0 0
0 0
0 0
0 0
0 0
0 0
0 0
0 0
0 0
0 0
0 0
0 0
0 0
0 0
0 0
0 0
0 0
0 0
0 0
0 0
0 0
0 0
0 0
0 0
0 0
0 0
0 0
0 0
0 0
0 0
0 0
0 0
0 0
0 0
0 0
0 0
0 0
0 0
0 0
0 0
0 0
0 0
0 0
0 0
0 0
0 0
0 0
0 0
0 0
0 0
0 0
0 0
0 0
0 0
0 0
0 0
0 0
0 0
0 0
0 0
0 0
0 0
0 0
0 0
0 0
0 0
0 0
0 0
0 0
0 0
0 0
0 0
0 0
0 0
0 0
0 0
0 0
0 0
0 0
0 0
0 0
0 0
0 0
0 0
0 0
0 0
0 0
0 0
0 0
0 0
0 0
0 0
0 0
0 0
0 0
0 0
0 0
0 0
0 0
0 0
0 0
0 0
0 0
0 0
0 0
0 0
0 0
0 0
0 0
0 0
0 0
0 0
0 0
0 0
0 0
0 0
0 0
0 0
0 0
0 0
0 0
0 0
0 0
0 0
0 0
0 0
0 0
0 0
0 0
0 0
0 0
0 0
0 0
0 0
0 0
0 0
0 0
0 0
0 0
0 0
0 0
0 0
0 0
0 0
0 0
0 0
0 0
0 0
0 0
0 0
0 0
0 0
0 0
0 0
0 0
0 0
0 0
0 0
0 0
0 0
0 0
0 0
0 0
0 0
0 0
0 0
0 0
0 0
0 0
0 0
0 0
0 0
0 0
0 0
0 0
0 0
0 0
0 0
0 0
0 0
0 0
0 0
0 0
0 0
0 0
0 0
0 0
0 0
0 0
0 0
0 0
0 0
0 0
0 0
0 0
0 0
0 0
0 0
0 0
0 0
0 0
0 0
0 0
0 0
0 0
0 0
0 0
0 0
0 0
0 0
0 0
0 0
0 0
0 0
0 0
0 0
0 0
0 0
0 0
0 0
0 0
0 0
0 0
0 0
0 0
0 0
0 0
0 0
0 0
0 0
0 0
0 0
0 0
0 0
0 0
0 0
0 0
0 0
0 0
0 0
0 0
0 0
0 0
0 0
0 0
0 0
0 0
0 0
0 0
0 0
0 0
0 0
0 0
0 0
0 0
0 0
0 0
0 0
0 0
0 0
0 0
0 0
0 0
0 0
0 0
0 0
0 0
0 0
0 0
0 0
0 0
0 0
0 0
0 0
0 0
0 0
0 0
0 0
0 0
0 0
0 0
0 0
0 0
0 0
0 0
0 0
0 0
0 0
0 0
0 0
0 0
0 0
0 0
0 0
0 0
0 0
0 0
0 0
0 0
0 0
0 0
0 0
0 0
0 0
0 0
0 0
0 0
0 0
0 0
0 0
0 0
0 0
0 0
0 0
0 0
0 0
0 0
0 0
0 0
0 0
0 0
0 0
0 0
0 0
0 0
0 0
0 0
0 0
0 0
0 0
0 0
0 0
0 0
0 0
0 0
0 0
0 0
0 0
0 0
0 0
0 0
0 0
0 0
0 0
0 0
0 0
0 0
0 0
0 0
0 0
0 0
0 0
0 0
0 0
0 0
0 0
0 0
0 0
0 0
0 0
0 0
0 0
0 0
0 0
0 0
0 0
0 0
0 0
0 0
0 0
0 0
0 0
0 0
0 0
0 0
0 0
0 0
0 0
0 0
0 0
0 0
0 0
0 0
0 0
0 0
0 0
0 0
0 0
0 0
0 0
0 0
0 0
0 0
0 0
0 0
0 0
0 0
0 0
0 0
0 0
0 0
0 0
0 0
0 0
0 0
0 0
0 0
0 0
0 0
0 0
0 0
0 0
0 0
0 0
0 0
0 0
0 0
0 0
0 0
0 0
0 0
0 0
0 0
0 0
0 0
0 0
0 0
0 0
0 0
0 0
0 0
0 0
0 0
0 0
0 0
0 0
0 0
0 0
0 0
0 0
0 0
0 0
0 0
0 0
0 0
0 0
0 0
0 0
0 0
0 0
0 0
0 0
0 0
0 0
0 0
0 0
0 0
0 0
0 0
0 0
0 0
0 0
0 0
0 0
0 0
0 0
0 0
0 0
0 0
0 0
0 0
0 0
0 0
0 0
0 0
0 0
0 0
0 0
0 0
0 0
0 0
0 0
0 0
0 0
0 0
0 0
0 0
0 0
0 0
0 0
0 0
0 0
0 0
0 0
0 0
0 0
0 0
0 0
0 0
0 0
0 0
0 0
0 0
0 0
0 0
0 0
0 0
0 0
0 0
0 0
0 0
0 0
0 0
0 0
0 0
0 0
0 0
0 0
0 0
0 0
0 0
0 0
0 0
0 0
0 0
0 0
0 0
0 0
0 0
0 0
0 0
0 0
0 0
0 0
0 0
0 0
0 0
0 0
0 0
0 0
0 0
0 0
0 0
0 0
0 0
0 0
0 0
0 0
0 0
0 0
0 0
0 0
0 0
0 0
0 0
0 0
0 0
0 0
0 0
0 0
0 0
0 0
0 0
0 0
0 0
0 0
0 0
0 0
0 0
0 0
0 0
0 0
0 0
0 0
0 0
0 0
0 0
0 0
0 0
0 0
0 0
0 0
0 0
0 0
0 0
0 0
0 0
0 0
0 0
0 0
0 0
0 0
0 0
0 0
0 0
0 0
0 0
0 0
0 0
0 0
0 0
0 0
0 0
0 0
0 0
0 0
0 0
0 0
0 0
0 0
0 0
0 0
0 0
0 0
0 0
0 0
0 0
0 0
0 0
0 0
0 0
0 0
0 0
0 0
0 0
0 0
0 0
0 0
0 0
0 0
0 0
0 0
0 0
0 0
0 0
0 0
0 0
0 0
0 0
0 0
0 0
0 0
0 0
0 0
0 0
0 0
0 0
0 0
0 0
0 0
0 0
0 0
0 0
0 0
0 0
0 0
0 0
0 0
0 0
0 0
0 0
0 0
0 0
0 0
0 0
0 0
0 0
0 0
0 0
0 0
0 0
0 0
0 0
0 0
0 0
0 0
0 0
0 0
0 0
0 0
0 0
0 0
0 0
0 0
0 0
0 0
0 0
0 0
0 0
0 0
0 0
0 0
0 0
0 0
0 0
0 0
0 0
0 0
0 0
0 0
0 0
0 0
0 0
0 0
0 0
0 0
0 0
0 0
0 0
0 0
0 0
0 0
0 0
0 0
0 0
0 0
0 0
0 0
0 0
0 0
0 0
0 0
0 0
0 0
0 0
0 0
0 0
0 0
0 0
0 0
0 0
0 0
0 0
0 0
0 0
0 0
0 0
0 0
0 0
0 0
0 0
0 0
0 0
0 0
0 0
0 0
0 0
0 0
0 0
0 0
0 0
0 0
0 0
0 0
0 0
0 0
0 0
0 0
0 0
0 0
0 0
0 0
0 0
0 0
0 0
0 0
0 0
0 0
0 0
0 0
0 0
0 0
0 0
0 0
0 0
0 0
0 0
0 0
0 0
0 0
0 0
0 0
0 0
0 0
0 0
0 0
0 0
0 0
0 0
0 0
0 0
0 0
0 0
0 0
0 0
0 0
0 0
0 0
0 0
0 0
0 0
0 0
0 0
0 0
0 0
0 0
0 0
0 0
0 0
0 0
0 0
0 0
0 0
0 0
0 0
0 0
0 0
0 0
0 0
0 0
0 0
0 0
0 0
0 0
0 0
0 0
0 0
0 0
0 0
0 0
0 0
0 0
0 0
0 0
0 0
0 0
0 0
0 0
0 0
0 0
0 0
0 0
0 0
0 0
0 0
0 0
0 0
0 0
0 0
0 0
0 0
0 0
0 0
0 0
0 0
0 0
0 0
0 0
0 0
0 0
0 0
0 0
0 0
0 0
0 0
0 0
0 0
0 0
0 0
0 0
0 0
0 0
0 0
0 0
0 0
0 0
0 0
0 0
0 0
0 0
0 0
0 0
0 0
0 0
0 0
0 0
0 0
0 0
0 0
0 0
0 0
0 0
0 0
0 0
0 0
0 0
0 0
0 0
0 0
0 0
0 0
0 0
0 0
0 0
0 0
0 0
0 0
0 0
0 0
0 0
0 0
0 0
0 0
0 0
0 0
0 0
0 0
0 0
0 0
0 0
0 0
0 0
0 0
0 0
0 0
0 0
0 0
0 0
0 0
0 0
0 0
0 0
0 0
0 0
0 0
0 0
0 0
0 0
0 0
0 0
0 0
0 0
0 0
0 0
0 0
0 0
0 0
0 0
0 0
0 0
0 0
0 0
0 0
0 0
0 0
0 0
0 0
0 0
0 0
0 0
0 0
0 0
0 0
0 0
0 0
0 0
0 0
0 0
0 0
0 0
0 0
0 0
0 0
0 0
0 0
0 0
0 0
0 0
0 0
0 0
0 0
0 0
0 0
0 0
0 0
0 0
0 0
0 0
0 0
0 0
0 0
0 0
0 0
0 0
0 0
0 0
0 0
0 0
0 0
0 0
0 0
0 0
0 0
0 0
0 0
0 0
0 0
0 0
0 0
0 0
0 0
0 0
0 0
0 0
0 0
0 0
0 0
0 0
0 0
0 0
0 0
0 0
0 0
0 0
0 0
0 0
0 0
0 0
0 0
0 0
0 0
0 0
0 0
0 0
0 0
0 0
0 0
0 0
0 0
0 0
0 0
0 0
0 0
0 0
0 0
0 0
0 0
0 0
0 0
0 0
0 0
0 0
0 0
0 0
0 0
0 0
0 0
0 0
0 0
0 0
0 0
0 0
0 0
0 0
0 0
0 0
0 0
0 0
0 0
0 0
0 0
0 0
0 0
0 0
0 0
0 0
0 0
0 0
0 0
0 0
0 0
0 0
0 0
0 0
0 0
0 0
0 0
0 0
0 0
0 0
0 0
0 0
0 0
0 0
0 0
0 0
0 0
0 0
0 0
0 0
0 0
0 0
0 0
0 0
0 0
0 0
0 0
0 0
0 0
0 0
0 0
0 0
0 0
0 0
0 0
0 0
0 0
0 0
0 0
0 0
0 0
0 0
0 0
0 0
0 0
0 0
0 0
0 0
0 0
0 0
0 0
0 0
0 0
0 0
0 0
0 0
0 0
0 0
0 0
0 0
0 0
0 0
0 0
0 0
0 0
0 0
0 0
0 0
0 0
0 0
0 0
0 0
0 0
0 0
0 0
0 0
0 0
0 0
0 0
0 0
0 0
0 0
0 0
0 0
0 0
0 0
0 0
0 0
0 0
0 0
0 0
0 0
0 0
0 0
0 0
0 0
0 0
0 0
0 0
0 0
0 0
0 0
0 0
0 0
0 0
0 0
0 0
0 0
0 0
0 0
0 0
0 0
0 0
0 0
0 0
0 0
0 0
0 0
0 0
0 0
0 0
0 0
0 0
0 0
0 0
0 0
0 0
0 0
0 0
0 0
0 0
0 0
0 0
0 0
0 0
0 0
0 0
0 0
0 0
0 0
0 0
0 0
0 0
0 0
0 0
0 0
0 0
0 0
0 0
0 0
0 0
0 0
0 0
0 0
0 0
0 0
0 0
0 0
0 0
0 0
0 0
0 0
0 0
0 0
0 0
0 0
0 0
0 0
0 0
0 0
0 0
0 0
0 0
0 0
0 0
0 0
0 0
0 0
0 0
0 0
0 0
0 0
0 0
0 0
0 0
0 0
0 0
0 0
0 0
0 0
0 0
0 0
0 0
0 0
0 0
0 0
0 0
0 0
0 0
0 0
0 0
0 0
0 0
0 0
0 0
0 0
0 0
0 0
0 0
0 0
0 0
0 0
0 0
0 0
0 0
0 0
0 0
0 0
0 0
0 0
0 0
0 0
0 0
0 0
0 0
0 0
0 0
0 0
0 0
0 0
0 0
0 0
0 0
0 0
0 0
0 0
0 0
0 0
0 0
0 0
0 0
0 0
0 0
0 0
0 0
0 0
0 0
0 0
0 0
0 0
0 0
0 0
0 0
0 0
0 0
0 0
0 0
0 0
0 0
0 0
0 0
0 0
0 0
0 0
0 0
0 0
0 0
0 0
0 0
0 0
0 0
0 0
0 0
0 0
0 0
0 0
0 0
0 0
0 0
0 0
0 0
0 0
0 0
0 0
0 0
0 0
0 0
0 0
0 0
0 0
0 0
0 0
0 0
0 0
0 0
0 0
0 0
0 0
0 0
0 0
0 0
0 0
0 0
0 0
0 0
0 0
0 0
0 0
0 0
0 0
0 0
0 0
0 0
0 0
0 0
0 0
0 0
0 0
0 0
0 0
0 0
0 0
0 0
0 0
0 0
0 0
0 0
0 0
0 0
0 0
0 0
0 0
0 0
0 0
0 0
0 0
0 0
0 0
0 0
0 0
0 0
0 0
0 0
0 0
0 0
0 0
0 0
0 0
0 0
0 0
0 0
0 0
0 0
0 0
0 0
0 0
0 0
0 0
0 0
0 0
0 0
0 0
0 0
0 0
0 0
0 0
0 0
0 0
0 0
0 0
0 0
0 0
0 0
0 0
0 0
0 0
0 0
0 0
0 0
0 0
0 0
0 0
0 0
0 0
0 0
0 0
0 0
0 0
0 0
0 0
0 0
0 0
0 0
0 0
0 0
0 0
0 0
0 0
0 0
0 0
0 0
0 0
0 0
0 0
0 0
0 0
0 0
0 0
0 0
0 0
0 0
0 0
0 0
0 0
0 0
0 0
0 0
0 0
0 0
0 0
0 0
0 0
0 0
0 0
0 0
0 0
0 0
0 0
0 0
0 0
0 0
0 0
0 0
0 0
0 0
0 0
0 0
0 0
0 0
0 0
0 0
0 0
0 0
0 0
0 0
0 0
0 0
0 0
0 0
0 0
0 0
0 0
0 0
0 0
0 0
0 0
0 0
0 0
0 0
0 0
0 0
0 0
0 0
0 0
0 0
0 0
0 0
0 0
0 0
0 0
0 0
0 0
0 0
0 0
0 0
0 0
0 0
0 0
0 0
0 0
0 0
0 0
0 0
0 0
0 0
0 0
0 0
0 0
0 0
0 0
0 0
0 0
0 0
0 0
0 0
0 0
0 0
0 0
0 0
0 0
0 0
0 0
0 0
0 0
0 0
0 0
0 0
0 0
0 0
0 0
0 0
0 0
0 0
0 0
0 0
0 0
0 0
0 0
0 0
0 0
0 0
0 0
0 0
0 0
0 0
0 0
0 0
0 0
0 0
0 0
0 0
0 0
0 0
0 0
0 0
0 0
0 0
0 0
0 0
0 0
0 0
0 0
0 0
0 0
0 0
0 0
0 0
0 0
0 0
0 0
0 0
0 0
0 0
0 0
0 0
0 0
0 0
0 0
0 0
0 0
0 0
0 0
0 0
0 0
0 0
0 0
0 0
0 0
0 0
0 0
0 0
0 0
0 0
0 0
0 0
0 0
0 0
0 0
0 0
0 0
0 0
0 0
0 0
0 0
0 0
0 0
0 0
0 0
0 0
0 0
0 0
0 0
0 0
0 0
0 0
0 0
0 0
0 0
0 0
0 0
0 0
0 0
0 0
0 0
0 0
0 0
0 0
0 0
0 0
0 0
0 0
0 0
0 0
0 0
0 0
0 0
0 0
0 0
0 0
0 0
0 0
0 0
0 0
0 0
0 0
0 0
0 0
0 0
0 0
0 0
0 0
0 0
0 0
0 0
0 0
0 0
0 0
0 0
0 0
0 0
0 0
0 0
0 0
0 0
0 0
0 0
0 0
0 0
0 0
0 0
0 0
0 0
0 0
0 0
0 0
0 0
0 0
0 0
0 0
0 0
0 0
0 0
0 0
0 0
0 0
0 0
0 0
0 0
0 0
0 0
0 0
0 0
0 0
0 0
0 0
0 0
0 0
0 0
0 0
0 0
0 0
0 0
0 0
0 0
0 0
0 0
0 0
0 0
0 0
0 0
0 0
0 0
0 0
0 0
0 0
0 0
0 0
0 0
0 0
0 0
0 0
0 0
0 0
0 0
0 0
0 0
0 0
0 0
0 0
0 0
0 0
0 0
0 0
0 0
0 0
0 0
0 0
0 0
0 0
0 0
0 0
0 0
0 0
0 0
0 0
0 0
0 0
0 0
0 0
0 0
0 0
0 0
0 0
0 0
0 0
0 0
0 0
0 0
0 0
0 0
0 0
0 0
0 0
0 0
0 0
0 0
0 0
0 0
0 0
0 0
0 0
0 0
0 0
0 0
0 0
0 0
0 0
0 0
0 0
0 0
0 0
0 0
0 0
0 0
0 0
0 0
0 0
0 0
0 0
0 0
0 0
0 0
0 0
0 0
0 0
0 0
0 0
0 0
0 0
0 0
0 0
0 0
0 0
0 0
0 0
0 0
0 0
0 0
0 0
0 0
0 0
0 0
0 0
0 0
0 0
0 0
0 0
0 0
0 0
0 0
0 0
0 0
0 0
0 0
0 0
0 0
0 0
0 0
0 0
0 0
0 0
0 0
0 0
0 0
0 0
0 0
0 0
0 0
0 0
0 0
0 0
0 0
0 0
0 0
0 0
0 0
0 0
0 0
0 0
0 0
0 0
0 0
0 0
0 0
0 0
0 0
0 0
0 0
0 0
0 0
0 0
0 0
0 0
0 0
0 0
0 0
0 0
0 0
0 0
0 0
0 0
0 0
0 0
0 0
0 0
0 0
0 0
0 0
0 0
0 0
0 0
0 0
0 0
0 0
0 0
0 0
0 0
0 0
0 0
0 0
0 0
0 0
0 0
0 0
0 0
0 0
0 0
0 0
0 0
0 0
0 0
0 0
0 0
0 0
0 0
0 0
0 0
0 0
0 0
0 0
0 0
0 0
0 0
0 0
0 0
0 0
0 0
0 0
0 0
0 0
0 0
0 0
0 0
0 0
0 0
0 0
0 0
0 0
0 0
0 0
0 0
0 0
0 0
0 0
0 0
0 0
0 0
0 0
0 0
0 0
0 0
0 0
0 0
0 0
0 0
0 0
0 0
0 0
0 0
0 0
0 0
0 0
0 0
0 0
0 0
0 0
0 0
0 0
0 0
0 0
0 0
0 0
0 0
0 0
0 0
0 0
0 0
0 0
0 0
0 0
0 0
0 0
0 0
0 0
0 0
0 0
0 0
0 0
0 0
0 0
0 0
0 0
0 0
0 0
0 0
0 0
0 0
0 0
0 0
0 0
0 0
0 0
0 0
0 0
0 0
0 0
0 0
0 0
0 0
0 0
0 0
0 0
0 0
0 0
0 0
0 0
0 0
0 0
0 0
0 0
0 0
0 0
0 0
0 0
0 0
0 0
0 0
0 0
0 0
0 0
0 0
0 0
0 0
0 0
0 0
0 0
0 0
0 0
0 0
0 0
0 0
0 0
0 0
0 0
0 0
0 0
0 0
0 0
0 0
0 0
0 0
0 0
0 0
0 0
0 0
0 0
0 0
0 0
0 0
0 0
0 0
0 0
0 0
0 0
0 0
0 0
0 0
0 0
0 0
0 0
0 0
0 0
0 0
0 0
0 0
0 0
0 0
0 0
0 0
0 0
0 0
0 0
0 0
0 0
0 0
0 0
0 0
0 0
0 0
0 0
0 0
0 0
0 0
0 0
0 0
0 0
0 0
0 0
0 0
0 0
0 0
0 0
0 0
0 0
0 0
0 0
0 0
0 0
0 0
0 0
0 0
0 0
0 0
0 0
0 0
0 0
0 0
0 0
0 0
0 0
0 0
0 0
0 0
0 0
0 0
0 0
0 0
0 0
0 0
0 0
0 0
0 0
0 0
0 0
0 0
0 0
0 0
0 0
0 0
0 0
0 0
0 0
0 0
0 0
0 0
0 0
0 0
0 0
0 0
0 0
0 0
0 0
0 0
0 0
0 0
0 0
0 0
0 0
0 0
0 0
0 0
0 0
0 0
0 0
0 0
0 0
0 0
0 0
0 0
0 0
0 0
0 0
0 0
0 0
0 0
0 0
0 0
0 0
0 0
0 0
0 0
0 0
0 0
0 0
0 0
0 0
0 0
0 0
0 0
0 0
0 0
0 0
0 0
0 0
0 0
0 0
0 0
0 0
0 0
0 0
0 0
0 0
0 0
0 0
0 0
0 0
0 0
0 0
0 0
0 0
0 0
0 0
0 0
0 0
0 0
0 0
0 0
0 0
0 0
0 0
0 0
0 0
0 0
0 0
0 0
0 0
0 0
0 0
0 0
0 0
0 0
0 0
0 0
0 0
0 0
0 0
0 0
0 0
0 0
0 0
0 0
0 0
0 0
0 0
0 0
0 0
0 0
0 0
0 0
0 0
0 0
0 0
0 0
0 0
0 0
0 0
0 0
0 0
0 0
0 0
0 0
0 0
0 0
0 0
0 0
0 0
0 0
0 0
0 0
0 0
0 0
0 0
0 0
0 0
0 0
0 0
0 0
0 0
0 0
0 0
0 0
0 0
0 0
0 0
0 0
0 0
0 0
0 0
0 0
0 0
0 0
0 0
0 0
0 0
0 0
0 0
0 0
0 0
0 0
0 0
0 0
0 0
0 0
0 0
0 0
0 0
0 0
0 0
0 0
0 0
0 0
0 0
0 0
0 0
0 0
0 0
0 0
0 0
0 0
0 0
0 0
0 0
0 0
0 0
0 0
0 0
0 0
0 0
0 0
0 0
0 0
0 0
0 0
0 0
0 0
0 0
0 0
0 0
0 0
0 0
0 0
0 0
0 0
0 0
0 0
0 0
0 0
0 0
0 0
0 0
0 0
0 0
0 0
0 0
0 0
0 0
0 0
0 0
0 0
0 0
0 0
0 0
0 0
0 0
0 0
0 0
0 0
0 0
0 0
0 0
0 0
0 0
0 0
0 0
0 0
0 0
0 0
0 0
0 0
0 0
0 0
0 0
0 0
0 0
0 0
0 0
0 0
0 0
0 0
0 0
0 0
0 0
0 0
0 0
0 0
0 0
0 0
0 0
0 0
0 0
0 0
0 0
0 0
0 0
0 0
0 0
0 0
0 0
0 0
0 0
0 0
0 0
0 0
0 0
0 0
0 0
0 0
0 0
0 0
0 0
0 0
0 0
0 0
0 0
0 0
0 0
0 0
0 0
0 0
0 0
0 0
0 0
0 0
0 0
0 0
0 0
0 0
0 0
0 0
0 0
0 0
0 0
0 0
0 0
0 0
0 0
0 0
0 0
0 0
0 0
0 0
0 0
0 0
0 0
0 0
0 0
0 0
0 0
0 0
0 0
0 0
0 0
0 0
0 0
0 0
0 0
0 0
0 0
0 0
0 0
0 0
0 0
0 0
0 0
0 0
0 0
0 0
0 0
0 0
0 0
0 0
0 0
0 0
0 0
0 0
0 0
0 0
0 0
0 0
0 0
0 0
0 0
0 0
0 0
0 0
0 0
0 0
0 0
0 0
0 0
0 0
0 0
0 0
0 0
0 0
0 0
0 0
0 0
0 0
0 0
0 0
0 0
0 0
0 0
0 0
0 0
0 0
0 0
0 0
0 0
0 0
0 0
0 0
0 0
0 0
0 0
0 0
0 0
0 0
0 0
0 0
0 0
0 0
0 0
0 0
0 0
0 0
0 0
0 0
0 0
0 0
0 0
0 0
0 0
0 0
0 0
0 0
0 0
0 0
0 0
0 0
0 0
0 0
0 0
0 0
0 0
0 0
0 0
0 0
0 0
0 0
0 0
0 0
0 0
0 0
0 0
0 0
0 0
0 0
0 0
0 0
0 0
0 0
0 0
0 0
0 0
0 0
0 0
0 0
0 0
0 0
0 0
0 0
0 0
0 0
0 0
0 0
0 0
0 0
0 0
0 0
0 0
0 0
0 0
0 0
0 0
0 0
0 0
0 0
0 0
0 0
0 0
0 0
0 0
0 0
0 0
0 0
0 0
0 0
0 0
0 0
0 0
0 0
0 0
0 0
0 0
0 0
0 0
0 0
0 0
0 0
0 0
0 0
0 0
0 0
0 0
0 0
0 0
0 0
0 0
0 0
0 0
0 0
0 0
0 0
0 0
0 0
0 0
0 0
0 0
0 0
0 0
0 0
0 0
0 0
0 0
0 0
0 0
0 0
0 0
0 0
0 0
0 0
0 0
0 0
0 0
0 0
0 0
0 0
0 0
0 0
0 0
0 0
0 0
0 0
0 0
0 0
0 0
0 0
0 0
0 0
0 0
0 0
0 0
0 0
0 0
0 0
0 0
0 0
0 0
0 0
0 0
0 0
0 0
0 0
0 0
0 0
0 0
0 0
0 0
0 0
0 0
0 0
0 0
0 0
0 0
0 0
0 0
0 0
0 0
0 0
0 0
0 0
0 0
0 0
0 0
0 0
0 0
0 0
0 0
0 0
0 0
0 0
0 0
0 0
0 0
0 0
0 0
0 0
0 0
0 0
0 0
0 0
0 0
0 0
0 0
0 0
0 0
0 0
0 0
0 0
0 0
0 0
0 0
0 0
0 0
0 0
0 0
0 0
0 0
0 0
0 0
0 0
0 0
0 0
0 0
0 0
0 0
0 0
0 0
0 0
0 0
0 0
0 0
0 0
0 0
0 0
0 0
0 0
0 0
0 0
0 0
0 0
0 0
0 0
0 0
0 0
0 0
0 0
0 0
0 0
0 0
0 0
0 0
0 0
0 0
0 0
0 0
0 0
0 0
0 0
0 0
0 0
0 0
0 0
0 0
0 0
0 0
0 0
0 0
0 0
0 0
0 0
0 0
0 0
0 0
0 0
0 0
0 0
0 0
0 0
0 0
0 0
0 0
0 0
0 0
0 0
0 0
0 0
0 0
0 0
0 0
0 0
0 0
0 0
0 0
0 0
0 0
0 0
0 0
0 0
0 0
0 0
0 0
0 0
0 0
0 0
0 0
0 0
0 0
0 0
0 0
0 0
0 0
0 0
0 0
0 0
0 0
0 0
0 0
0 0
0 0
0 0
0 0
0 0
0 0
0 0
0 0
0 0
0 0
0 0
0 0
0 0
0 0
0 0
0 0
0 0
0 0
0 0
0 0
0 0
0 0
0 0
0 0
0 0
0 0
0 0
0 0
0 0
0 0
0 0
0 0
0 0
0 0
0 0
0 0
0 0
0 0
0 0
0 0
0 0
0 0
0 0
0 0
0 0
0 0
0 0
0 0
0 0
0 0
0 0
0 0
0 0
0 0
0 0
0 0
0 0
0 0
0 0
0 0
0 0
0 0
0 0
0 0
0 0
0 0
0 0
0 0
0 0
0 0
0 0
0 0
0 0
0 0
0 0
0 0
0 0
0 0
0 0
0 0
0 0
0 0
0 0
0 0
0 0
0 0
0 0
0 0
0 0
0 0
0 0
0 0
0 0
0 0
0 0
0 0
0 0
0 0
0 0
0 0
0 0
0 0
0 0
0 0
0 0
0 0
0 0
0 0
0 0
0 0
0 0
0 0
0 0
0 0
0 0
0 0
0 0
0 0
0 0
0 0
0 0
0 0
0 0
0 0
0 0
0 0
0 0
0 0
0 0
0 0
0 0
0 0
0 0
0 0
0 0
0 0
0 0
0 0
0 0
0 0
0 0
0 0
0 0
0 0
0 0
0 0
0 0
0 0
0 0
0 0
0 0
0 0
0 0
0 0
0 0
0 0
0 0
0 0
0 0
0 0
0 0
0 0
0 0
0 0
0 0
0 0
0 0
0 0
0 0
0 0
0 0
0 0
0 0
0 0
0 0
0 0
0 0
0 0
0 0
0 0
0 0
0 0
0 0
0 0
0 0
0 0
0 0
0 0
0 0
0 0
0 0
0 0
0 0
0 0
0 0
0 0
0 0
0 0
0 0
0 0
0 0
0 0
0 0
0 0
0 0
0 0
0 0
0 0
0 0
0 0
0 0
0 0
0 0
0 0
0 0
0 0
0 0
0 0
0 0
0 0
0 0
0 0
0 0
0 0
0 0
0 0
0 0
0 0
0 0
0 0
0 0
0 0
0 0
0 0
0 0
0 0
0 0
0 0
0 0
0 0
0 0
0 0
0 0
0 0
0 0
0 0
0 0
0 0
0 0
0 0
0 0
0 0
0 0
0 0
0 0
0 0
0 0
0 0
0 0
0 0
0 0
0 0
0 0
0 0
0 0
0 0
0 0
0 0
0 0
0 0
0 0
0 0
0 0
0 0
0 0
0 0
0 0
0 0
0 0
0 0
0 0
0 0
0 0
0 0
0 0
0 0
0 0
0 0
0 0
0 0
0 0
0 0
0 0
0 0
0 0
0 0
0 0
0 0
0 0
0 0
0 0
0 0
0 0
0 0
0 0
0 0
0 0
0 0
0 0
0 0
0 0
0 0
0 0
0 0
0 0
0 0
0 0
0 0
0 0
0 0
0 0
0 0
0 0
0 0
0 0
0 0
0 0
0 0
0 0
0 0
0 0
0 0
0 0
0 0
0 0
0 0
0 0
0 0
0 0
0 0
0 0
0 0
0 0
0 0
0 0
0 0
0 0
0 0
0 0
0 0
0 0
0 0
0 0
0 0
0 0
0 0
0 0
0 0
0 0
0 0
0 0
0 0
0 0
0 0
0 0
0 0
0 0
0 0
0 0
0 0
0 0
0 0
0 0
0 0
0 0
0 0
0 0
0 0
0 0
0 0
0 0
0 0
0 0
0 0
0 0
0 0
0 0
0 0
0 0
0 0
0 0
0 0
0 0
0 0
0 0
0 0
0 0
0 0
0 0
0 0
0 0
0 0
0 0
0 0
0 0
0 0
0 0
0 0
0 0
0 0
0 0
0 0
0 0
0 0
0 0
0 0
0 0
0 0
0 0
0 0
0 0
0 0
0 0
0 0
0 0
0 0
0 0
0 0
0 0
0 0
0 0
0 0
0 0
0 0
0 0
0 0
0 0
0 0
0 0
0 0
0 0
0 0
0 0
0 0
0 0
0 0
0 0
0 0
0 0
0 0
0 0
0 0
0 0
0 0
0 0
0 0
0 0
0 0
0 0
0 0
0 0
0 0
0 0
0 0
0 0
0 0
0 0
0 0
0 0
0 0
0 0
0 0
0 0
0 0
0 0
0 0
0 0
0 0
0 0
0 0
0 0
0 0
0 0
0 0
0 0
0 0
0 0
0 0
0 0
0 0
0 0
0 0
0 0
0 0
0 0
0 0
0 0
0 0
0 0
0 0
0 0
0 0
0 0
0 0
0 0
0 0
0 0
0 0
0 0
0 0
0 0
0 0
0 0
0 0
0 0
0 0
0 0
0 0
0 0
0 0
0 0
0 0
0 0
0 0
0 0
0 0
0 0
0 0
0 0
0 0
0 0
0 0
0 0
0 0
0 0
0 0
0 0
0 0
0 0
0 0
0 0
0 0
0 0
0 0
0 0
0 0
0 0
0 0
0 0
0 0
0 0
0 0
0 0
0 0
0 0
0 0
0 0
0 0
0 0
0 0
0 0
0 0
0 0
0 0
0 0
0 0
0 0
0 0
0 0
0 0
0 0
0 0
0 0
0 0
0 0
0 0
0 0
0 0
0 0
0 0
0 0
0 0
0 0
0 0
0 0
0 0
0 0
0 0
0 0
0 0
0 0
0 0
0 0
0 0
0 0
0 0
0 0
0 0
0 0
0 0
0 0
0 0
0 0
0 0
0 0
0 0
0 0
0 0
0 0
0 0
0 0
0 0
0 0
0 0
0 0
0 0
0 0
0 0
0 0
0 0
0 0
0 0
0 0
0 0
0 0
0 0
0 0
0 0
0 0
0 0
0 0
0 0
0 0
0 0
0 0
0 0
0 0
0 0
0 0
0 0
0 0
0 0
0 0
0 0
0 0
0 0
0 0
0 0
0 0
0 0
0 0
0 0
0 0
0 0
0 0
0 0
0 0
0 0
0 0
0 0
0 0
0 0
0 0
0 0
0 0
0 0
0 0
0 0
0 0
0 0
0 0
0 0
0 0
0 0
0 0
0 0
0 0
0 0
0 0
0 0
0 0
0 0
0 0
0 0
0 0
0 0
0 0
0 0
0 0
0 0
0 0
0 0
0 0
0 0
0 0
0 0
0 0
0 0
0 0
0 0
0 0
0 0
0 0
0 0
0 0
0 0
0 0
0 0
0 0
0 0
0 0
0 0
0 0
0 0
0 0
0 0
0 0
0 0
0 0
0 0
0 0
0 0
0 0
0 0
0 0
0 0
0 0
0 0
0 0
0 0
0 0
0 0
0 0
0 0
0 0
0 0
0 0
0 0
0 0
0 0
0 0
0 0
0 0
0 0
0 0
0 0
0 0
0 0
0 0
0 0
0 0
0 0
0 0
0 0
0 0
0 0
0 0
0 0
0 0
0 0
0 0
0 0
0 0
0 0
0 0
0 0
0 0
0 0
0 0
0 0
0 0
0 0
0 0
0 0
0 0
0 0
0 0
0 0
0 0
0 0
0 0
0 0
0 0
0 0
0 0
0 0
0 0
0 0
0 0
0 0
0 0
0 0
0 0
0 0
0 0
0 0
0 0
0 0
0 0
0 0
0 0
0 0
0 0
0 0
0 0
0 0
0 0
0 0
0 0
0 0
0 0
0 0
0 0
0 0
0 0
0 0
0 0
0 0
0 0
0 0
0 0
0 0
0 0
0 0
0 0
0 0
0 0
0 0
0 0
0 0
0 0
0 0
0 0
0 0
0 0
0 0
0 0
0 0
0 0
0 0
0 0
0 0
0 0
0 0
0 0
0 0
0 0
0 0
0 0
0 0
0 0
0 0
0 0
0 0
0 0
0 0
0 0
0 0
0 0
0 0
0 0
0 0
0 0
0 0
0 0
0 0
0 0
0 0
0 0
0 0
0 0
0 0
0 0
0 0
0 0
0 0
0 0
0 0
0 0
0 0
0 0
0 0
0 0
0 0
0 0
0 0
0 0
0 0
0 0
0 0
0 0
0 0
0 0
0 0
0 0
0 0
0 0
0 0
0 0
0 0
0 0
0 0
0 0
0 0
0 0
0 0
0 0
0 0
0 0
0 0
0 0
0 0
0 0
0 0
0 0
0 0
0 0
0 0
0 0
0 0
0 0
0 0
0 0
0 0
0 0
0 0
0 0
0 0
0 0
0 0
0 0
0 0
0 0
0 0
0 0
0 0
0 0
0 0
0 0
0 0
0 0
0 0
0 0
0 0
0 0
0 0
0 0
0 0
0 0
0 0
0 0
0 0
0 0
0 0
0 0
0 0
0 0
0 0
0 0
0 0
0 0
0 0
0 0
0 0
0 0
0 0
0 0
0 0
0 0
0 0
0 0
0 0
0 0
0 0
0 0
0 0
0 0
0 0
0 0
0 0
0 0
0 0
0 0
0 0
0 0
0 0
0 0
0 0
0 0
0 0
0 0
0 0
0 0
0 0
0 0
0 0
0 0
0 0
0 0
0 0
0 0
0 0
0 0
0 0
0 0
0 0
0 0
0 0
0 0
0 0
0 0
0 0
0 0
0 0
0 0
0 0
0 0
0 0
0 0
0 0
0 0
0 0
0 0
0 0
0 0
0 0
0 0
0 0
0 0
0 0
0 0
0 0
0 0
0 0
0 0
0 0
0 0
0 0
0 0
0 0
0 0
0 0
0 0
0 0
0 0
0 0
0 0
0 0
0 0
0 0
0 0
0 0
0 0
0 0
0 0
0 0
0 0
0 0
0 0
0 0
0 0
0 0
0 0
0 0
0 0
0 0
0 0
0 0
0 0
0 0
0 0
0 0
0 0
0 0
0 0
0 0
0 0
0 0
0 0
0 0
0 0
0 0
0 0
0 0
0 0
0 0
0 0
0 0
0 0
0 0
0 0
0 0
0 0
0 0
0 0
0 0
0 0
0 0
0 0
0 0
0 0
0 0
0 0
0 0
0 0
0 0
0 0
0 0
0 0
0 0
0 0
0 0
0 0
0 0
0 0
0 0
0 0
0 0
0 0
0 0
0 0
0 0
0 0
0 0
0 0
0 0
0 0
0 0
0 0
0 0
0 0
0 0
0 0
0 0
0 0
0 0
0 0
0 0
0 0
0 0
0 0
0 0
0 0
0 0
0 0
0 0
0 0
0 0
0 0
0 0
0 0
0 0
0 0
0 0
0 0
0 0
0 0
0 0
0 0
0 0
0 0
0 0
0 0
0 0
0 0
0 0
0 0
0 0
0 0
0 0
0 0
0 0
0 0
0 0
0 0
0 0
0 0
0 0
0 0
0 0
0 0
0 0
0 0
0 0
0 0
0 0
0 0
0 0
0 0
0 0
0 0
0 0
0 0
0 0
0 0
0 0
0 0
0 0
0 0
0 0
0 0
0 0
0 0
0 0
0 0
0 0
0 0
0 0
0 0
0 0
0 0
0 0
0 0
0 0
0 0
0 0
0 0
0 0
0 0
0 0
0 0
0 0
0 0
0 0
0 0
0 0
0 0
0 0
0 0
0 0
0 0
0 0
0 0
0 0
0 0
0 0
0 0
0 0
0 0
0 0
0 0
0 0
0 0
0 0
0 0
0 0
0 0
0 0
0 0
0 0
0 0
0 0
0 0
0 0
0 0
0 0
0 0
0 0
0 0
0 0
0 0
0 0
0 0
0 0
0 0
0 0
0 0
0 0
0 0
0 0
0 0
0 0
0 0
0 0
0 0
0 0
0 0
0 0
0 0
0 0
0 0
0 0
0 0
0 0
0 0
0 0
0 0
0 0
0 0
0 0
0 0
0 0
0 0
0 0
0 0
0 0
0 0
0 0
0 0
0 0
0 0
0 0
0 0
0 0
0 0
0 0
0 0
0 0
0 0
0 0
0 0
0 0
0 0
0 0
0 0
0 0
0 0
0 0
0 0
0 0
0 0
0 0
0 0
0 0
0 0
0 0
0 0
0 0
0 0
0 0
0 0
0 0
0 0
0 0
0 0
0 0
0 0
0 0
0 0
0 0
0 0
0 0
0 0
0 0
0 0
0 0
0 0
0 0
0 0
0 0
0 0
0 0
0 0
0 0
0 0
0 0
0 0
0 0
0 0
0 0
0 0
0 0
0 0
0 0
0 0
0 0
0 0
0 0
0 0
0 0
0 0
0 0
0 0
0 0
0 0
0 0
0 0
0 0
0 0
0 0
0 0
0 0
0 0
0 0
0 0
0 0
0 0
0 0
0 0
0 0
0 0
0 0
0 0
0 0
0 0
0 0
0 0
0 0
0 0
0 0
0 0
0 0
0 0
0 0
0 0
0 0
0 0
0 0
0 0
0 0
0 0
0 0
0 0
0 0
0 0
0 0
0 0
0 0
0 0
0 0
0 0
0 0
0 0
0 0
0 0
0 0
0 0
0 0
0 0
0 0
0 0
0 0
0 0
0 0
0 0
0 0
0 0
0 0
0 0
0 0
0 0
0 0
0 0
0 0
0 0
0 0
0 0
0 0
0 0
0 0
0 0
0 0
0 0
0 0
0 0
0 0
0 0
0 0
0 0
0 0
0 0
0 0
0 0
0 0
0 0
0 0
0 0
0 0
0 0
0 0
0 0
0 0
0 0
0 0
0 0
0 0
0 0
0 0
0 0
0 0
0 0
0 0
0 0
0 0
0 0
0 0
0 0
0 0
0 0
0 0
0 0
0 0
0 0
0 0
0 0
0 0
0 0
0 0
0 0
0 0
0 0
0 0
0 0
0 0
0 0
0 0
0 0
0 0
0 0
0 0
0 0
0 0
0 0
0 0
0 0
0 0
0 0
0 0
0 0
0 0
0 0
0 0
0 0
0 0
0 0
0 0
0 0
0 0
0 0
0 0
0 0
0 0
0 0
0 0
0 0
0 0
0 0
0 0
0 0
0 0
0 0
0 0
0 0
0 0
0 0
0 0
0 0
0 0
0 0
0 0
0 0
0 0
0 0
0 0
0 0
0 0
0 0
0 0
0 0
0 0
0 0
0 0
0 0
0 0
0 0
0 0
0 0
0 0
0 0
0 0
0 0
0 0
0 0
0 0
0 0
0 0
0 0
0 0
0 0
0 0
0 0
0 0
0 0
0 0
0 0
0 0
0 0
0 0
0 0
0 0
0 0
0 0
0 0
0 0
0 0
0 0
0 0
0 0
0 0
0 0
0 0
0 0
0 0
0 0
0 0
0 0
0 0
0 0
0 0
0 0
0 0
0 0
0 0
0 0
0 0
0 0
0 0
0 0
0 0
0 0
0 0
0 0
0 0
0 0
0 0
0 0
0 0
0 0
0 0
0 0
0 0
0 0
0 0
0 0
0 0
0 0
0 0
0 0
0 0
0 0
0 0
0 0
0 0
0 0
0 0
0 0
0 0
0 0
0 0
0 0
0 0
0 0
0 0
0 0
0 0
0 0
0 0
0 0
0 0
0 0
0 0
0 0
0 0
0 0
0 0
0 0
0 0
0 0
0 0
0 0
0 0
0 0
0 0
0 0
0 0
0 0
0 0
0 0
0 0
0 0
0 0
0 0
0 0
0 0
0 0
0 0
0 0
0 0
0 0
0 0
0 0
0 0
0 0
0 0
0 0
0 0
0 0
0 0
0 0
0 0
0 0
0 0
0 0
0 0
0 0
0 0
0 0
0 0
0 0
0 0
0 0
0 0
0 0
0 0
0 0
0 0
0 0
0 0
0 0
0 0
0 0
0 0
0 0
0 0
0 0
0 0
0 0
0 0
0 0
0 0
0 0
0 0
0 0
0 0
0 0
0 0
0 0
0 0
0 0
0 0
0 0
0 0
0 0
0 0
0 0
0 0
0 0
0 0
0 0
0 0
0 0
0 0
0 0
0 0
0 0
0 0
0 0
0 0
0 0
0 0
0 0
0 0
0 0
0 0
0 0
0 0
0 0
0 0
0 0
0 0
0 0
0 0
0 0
0 0
0 0
0 0
0 0
0 0
0 0
0 0
0 0
0 0
0 0
0 0
0 0
0 0
0 0
0 0
0 0
0 0
0 0
0 0
0 0
0 0
0 0
0 0
0 0
0 0
0 0
0 0
0 0
0 0
0 0
0 0
0 0
0 0
0 0
0 0
0 0
0 0
0 0
0 0
0 0
0 0
0 0
0 0
0 0
0 0
0 0
0 0
0 0
0 0
0 0
0 0
0 0
0 0
0 0
0 0
0 0
0 0
0 0
0 0
0 0
0 0
0 0
0 0
0 0
0 0
0 0
0 0
0 0
0 0
0 0
0 0
0 0
0 0
0 0
0 0
0 0
0 0
0 0
0 0
0 0
0 0
0 0
0 0
0 0
0 0
0 0
0 0
0 0
0 0
0 0
0 0
0 0
0 0
0 0
0 0
0 0
0 0
0 0
0 0
0 0
0 0
0 0
0 0
0 0
0 0
0 0
0 0
0 0
0 0
0 0
0 0
0 0
0 0
0 0
0 0
0 0
0 0
0 0
0 0
0 0
0 0
0 0
0 0
0 0
0 0
0 0
0 0
0 0
0 0
0 0
0 0
0 0
0 0
0 0
0 0
0 0
0 0
0 0
0 0
0 0
0 0
0 0
0 0
0 0
0 0
0 0
0 0
0 0
0 0
0 0
0 0
0 0
0 0
0 0
0 0
0 0
0 0
0 0
0 0
0 0
0 0
0 0
0 0
0 0
0 0
0 0
0 0
0 0
0 0
0 0
0 0
0 0
0 0
0 0
0 0
0 0
0 0
0 0
0 0
0 0
0 0
0 0
0 0
0 0
0 0
0 0
0 0
0 0
0 0
0 0
0 0
0 0
0 0
0 0
0 0
0 0
0 0
0 0
0 0
0 0
0 0
0 0
0 0
0 0
0 0
0 0
0 0
0 0
0 0
0 0
0 0
0 0
0 0
0 0
0 0
0 0
0 0
0 0
0 0
0 0
0 0
0 0
0 0
0 0
0 0
0 0
0 0
0 0
0 0
0 0
0 0
0 0
0 0
0 0
0 0
0 0
0 0
0 0
0 0
0 0
0 0
0 0
0 0
0 0
0 0
0 0
0 0
0 0
0 0
0 0
0 0
0 0
0 0
0 0
0 0
0 0
0 0
0 0
0 0
0 0
0 0
0 0
0 0
0 0
0 0
0 0
0 0
0 0
0 0
0 0
0 0
0 0
0 0
0 0
0 0
0 0
0 0
0 0
0 0
0 0
0 0
0 0
0 0
0 0
0 0
0 0
0 0
0 0
0 0
0 0
0 0
0 0
0 0
0 0
0 0
0 0
0 0
0 0
0 0
0 0
0 0
0 0
0 0
0 0
0 0
0 0
0 0
0 0
0 0
0 0
0 0
0 0
0 0
0 0
0 0
0 0
0 0
0 0
0 0
0 0
0 0
0 0
0 0
0 0
0 0
0 0
0 0
0 0
0 0
0 0
0 0
0 0
0 0
0 0
0 0
0 0
0 0
0 0
0 0
0 0
0 0
0 0
0 0
0 0
0 0
0 0
0 0
0 0
0 0
0 0
0 0
0 0
0 0
0 0
0 0
0 0
0 0
0 0
0 0
0 0
0 0
0 0
0 0
0 0
0 0
0 0
0 0
0 0
0 0
0 0
0 0
0 0
0 0
0 0
0 0
0 0
0 0
0 0
0 0
0 0
0 0
0 0
0 0
0 0
0 0
0 0
0 0
0 0
0 0
0 0
0 0
0 0
0 0
0 0
0 0
0 0
0 0
0 0
0 0
0 0
0 0
0 0
0 0
0 0
0 0
0 0
0 0
0 0
0 0
0 0
0 0
0 0
0 0
0 0
0 0
0 0
0 0
0 0
0 0
0 0
0 0
0 0
0 0
0 0
0 0
0 0
0 0
0 0
0 0
0 0
0 0
0 0
0 0
0 0
0 0
0 0
0 0
0 0
0 0
0 0
0 0
0 0
0 0
0 0
0 0
0 0
0 0
0 0
0 0
0 0
0 0
0 0
0 0
0 0
0 0
0 0
0 0
0 0
0 0
0 0
0 0
0 0
0 0
0 0
0 0
0 0
0 0
0 0
0 0
0 0
0 0
0 0
0 0
0 0
0 0
0 0
0 0
0 0
0 0
0 0
0 0
0 0
0 0
0 0
0 0
0 0
0 0
0 0
0 0
0 0
0 0
0 0
0 0
0 0
0 0
0 0
0 0
0 0
0 0
0 0
0 0
0 0
0 0
0 0
0 0
0 0
0 0
0 0
0 0
0 0
0 0
0 0
0 0
0 0
0 0
0 0
0 0
0 0
0 0
0 0
0 0
0 0
0 0
0 0
0 0
0 0
0 0
0 0
0 0
0 0
0 0
0 0
0 0
0 0
0 0
0 0
0 0
0 0
0 0
0 0
0 0
0 0
0 0
0 0
0 0
0 0
0 0
0 0
0 0
0 0
0 0
0 0
0 0
0 0
0 0
0 0
0 0
0 0
0 0
0 0
0 0
0 0
0 0
0 0
0 0
0 0
0 0
0 0
0 0
0 0
0 0
0 0
0 0
0 0
0 0
0 0
0 0
0 0
0 0
0 0
0 0
0 0
0 0
0 0
0 0
0 0
0 0
0 0
0 0
0 0
0 0
0 0
0 0
0 0
0 0
0 0
0 0
0 0
0 0
0 0
0 0
0 0
0 0
0 0
0 0
0 0
0 0
0 0
0 0
0 0
0 0
0 0
0 0
0 0
0 0
0 0
0 0
0 0
0 0
0 0
0 0
0 0
0 0
0 0
0 0
0 0
0 0
0 0
0 0
0 0
0 0
0 0
0 0
0 0
0 0
0 0
0 0
0 0
0 0
0 0
0 0
0 0
0 0
0 0
0 0
0 0
0 0
0 0
0 0
0 0
0 0
0 0
0 0
0 0
0 0
0 0
0 0
0 0
0 0
0 0
0 0
0 0
0 0
0 0
0 0
0 0
0 0
0 0
0 0
0 0
0 0
0 0
0 0
0 0
0 0
0 0
0 0
0 0
0 0
0 0
0 0
0 0
0 0
0 0
0 0
0 0
0 0
0 0
0 0
0 0
0 0
0 0
0 0
0 0
0 0
0 0
0 0
0 0
0 0
0 0
0 0
0 0
0 0
0 0
0 0
0 0
0 0
0 0
0 0
0 0
0 0
0 0
0 0
0 0
0 0
0 0
0 0
0 0
0 0
0 0
0 0
0 0
0 0
0 0
0 0
0 0
0 0
0 0
0 0
0 0
0 0
0 0
0 0
0 0
0 0
0 0
0 0
0 0
0 0
0 0
0 0
0 0
0 0
0 0
0 0
0 0
0 0
0 0
0 0
0 0
0 0
0 0
0 0
0 0
0 0
0 0
0 0
0 0
0 0
0 0
0 0
0 0
0 0
0 0
0 0
0 0
0 0
0 0
0 0
0 0
0 0
0 0
0 0
0 0
0 0
0 0
0 0
0 0
0 0
0 0
0 0
0 0
0 0
0 0
0 0
0 0
0 0
0 0
0 0
0 0
0 0
0 0
0 0
0 0
0 0
0 0
0 0
0 0
0 0
0 0
0 0
0 0
0 0
0 0
0 0
0 0
0 0
0 0
0 0
0 0
0 0
0 0
0 0
0 0
0 0
0 0
0 0
0 0
0 0
0 0
0 0
0 0
0 0
0 0
0 0
0 0
0 0
0 0
0 0
0 0
0 0
0 0
0 0
0 0
0 0
0 0
0 0
0 0
0 0
0 0
0 0
0 0
0 0
0 0
0 0
0 0
0 0
0 0
0 0
0 0
0 0
0 0
0 0
0 0
0 0
0 0
0 0
0 0
0 0
0 0
0 0
0 0
0 0
0 0
0 0
0 0
0 0
0 0
0 0
0 0
0 0
0 0
0 0
0 0
0 0
0 0
0 0
0 0
0 0
0 0
0 0
0 0
0 0
0 0
0 0
0 0
0 0
0 0
0 0
0 0
0 0
0 0
0 0
0 0
0 0
0 0
0 0
0 0
0 0
0 0
0 0
0 0
0 0
0 0
0 0
0 0
0 0
0 0
0 0
0 0
0 0
0 0
0 0
0 0
0 0
0 0
0 0
0 0
0 0
0 0
0 0
0 0
0 0
0 0
0 0
0 0
0 0
0 0
0 0
0 0
0 0
0 0
0 0
0 0
0 0
0 0
0 0
0 0
0 0
0 0
0 0
0 0
0 0
0 0
0 0
0 0
0 0
0 0
0 0
0 0
0 0
0 0
0 0
0 0
0 0
0 0
0 0
0 0
0 0
0 0
0 0
0 0
0 0
0 0
0 0
0 0
0 0
0 0
0 0
0 0
0 0
0 0
0 0
0 0
0 0
0 0
0 0
0 0
0 0
0 0
0 0
0 0
0 0
0 0
0 0
0 0
0 0
0 0
0 0
0 0
0 0
0 0
0 0
0 0
0 0
0 0
0 0
0 0
0 0
0 0
0 0
0 0
0 0
0 0
0 0
0 0
0 0
0 0
0 0
0 0
0 0
0 0
0 0
0 0
0 0
0 0
0 0
0 0
0 0
0 0
0 0
0 0
0 0
0 0
0 0
0 0
0 0
0 0
0 0
0 0
0 0
0 0
0 0
0 0
0 0
0 0
0 0
0 0
0 0
0 0
0 0
0 0
0 0
0 0
0 0
0 0
0 0
0 0
0 0
0 0
0 0
0 0
0 0
0 0
0 0
0 0
0 0
0 0
0 0
0 0
0 0
0 0
0 0
0 0
0 0
0 0
0 0
0 0
0 0
0 0
0 0
0 0
0 0
0 0
0 0
0 0
0 0
0 0
0 0
0 0
0 0
0 0
0 0
0 0
0 0
0 0
0 0
0 0
0 0
0 0
0 0
0 0
0 0
0 0
0 0
0 0
0 0
0 0
0 0
0 0
0 0
0 0
0 0
0 0
0 0
0 0
0 0
0 0
0 0
0 0
0 0
0 0
0 0
0 0
0 0
0 0
0 0
0 0
0 0
0 0
0 0
0 0
0 0
0 0
0 0
0 0
0 0
0 0
0 0
0 0
0 0
0 0
0 0
0 0
0 0
0 0
0 0
0 0
0 0
0 0
0 0
0 0
0 0
0 0
0 0
0 0
0 0
0 0
0 0
0 0
0 0
0 0
0 0
0 0
0 0
0 0
0 0
0 0
0 0
0 0
0 0
0 0
0 0
0 0
0 0
0 0
0 0
0 0
0 0
0 0
0 0
0 0
0 0
0 0
0 0
0 0
0 0
0 0
0 0
0 0
0 0
0 0
0 0
0 0
0 0
0 0
0 0
0 0
0 0
0 0
0 0
0 0
0 0
0 0
0 0
0 0
0 0
0 0
0 0
0 0
0 0
0 0
0 0
0 0
0 0
0 0
0 0
0 0
0 0
0 0
0 0
0 0
0 0
0 0
0 0
0 0
0 0
0 0
0 0
0 0
0 0
0 0
0 0
0 0
0 0
0 0
0 0
0 0
0 0
0 0
0 0
0 0
0 0
0 0
0 0
0 0
0 0
0 0
0 0
0 0
0 0
0 0
0 0
0 0
0 0
0 0
0 0
0 0
0 0
0 0
0 0
0 0
0 0
0 0
0 0
0 0
0 0
0 0
0 0
0 0
0 0
0 0
0 0
0 0
0 0
0 0
0 0
0 0
0 0
0 0
0 0
0 0
0 0
0 0
0 0
0 0
0 0
0 0
0 0
0 0
0 0
0 0
0 0
0 0
0 0
0 0
0 0
0 0
0 0
0 0
0 0
0 0
0 0
0 0
0 0
0 0
0 0
0 0
0 0
0 0
0 0
0 0
0 0
0 0
0 0
0 0
0 0
0 0
0 0
0 0
0 0
0 0
0 0
0 0
0 0
0 0
0 0
0 0
0 0
0 0
0 0
0 0
0 0
0 0
0 0
0 0
0 0
0 0
0 0
0 0
0 0
0 0
0 0
0 0
0 0
0 0
0 0
0 0
0 0
0 0
0 0
0 0
0 0
0 0
0 0
0 0
0 0
0 0
0 0
0 0
0 0
0 0
0 0
0 0
0 0
0 0
0 0
0 0
0 0
0 0
0 0
0 0
0 0
0 0
0 0
0 0
0 0
0 0
0 0
0 0
0 0
0 0
0 0
0 0
0 0
0 0
0 0
0 0
0 0
0 0
0 0
0 0
0 0
0 0
0 0
0 0
0 0
0 0
0 0
0 0
0 0
0 0
0 0
0 0
0 0
0 0
0 0
0 0
0 0
0 0
0 0
0 0
0 0
0 0
0 0
0 0
0 0
0 0
0 0
0 0
0 0
0 0
0 0
0 0
0 0
0 0
0 0
0 0
0 0
0 0
0 0
0 0
0 0
0 0
0 0
0 0
0 0
0 0
0 0
0 0
0 0
0 0
0 0
0 0
0 0
0 0
0 0
0 0
0 0
0 0
0 0
0 0
0 0
0 0
0 0
0 0
0 0
0 0
0 0
0 0
0 0
0 0
0 0
0 0
0 0
0 0
0 0
0 0
0 0
0 0
0 0
0 0
0 0
0 0
0 0
0 0
0 0
0 0
0 0
0 0
0 0
0 0
0 0
0 0
0 0
0 0
0 0
0 0
0 0
0 0
0 0
0 0
0 0
0 0
0 0
0 0
0 0
0 0
0 0
0 0
0 0
0 0
0 0
0 0
0 0
0 0
0 0
0 0
0 0
0 0
0 0
0 0
0 0
0 0
0 0
0 0
0 0
0 0
0 0
0 0
0 0
0 0
0 0
0 0
0 0
0 0
0 0
0 0
0 0
0 0
0 0
0 0
0 0
0 0
0 0
0 0
0 0
0 0
0 0
0 0
0 0
0 0
0 0
0 0
0 0
0 0
0 0
0 0
0 0
0 0
0 0
0 0
0 0
0 0
0 0
0 0
0 0
0 0
0 0
0 0
0 0
0 0
0 0
0 0
0 0
0 0
0 0
0 0
0 0
0 0
0 0
0 0
0 0
0 0
0 0
0 0
0 0
0 0
0 0
0 0
0 0
0 0
0 0
0 0
0 0
0 0
0 0
0 0
0 0
0 0
0 0
0 0
0 0
0 0
0 0
0 0
0 0
0 0
0 0
0 0
0 0
0 0
0 0
0 0
0 0
0 0
0 0
0 0
0 0
0 0
0 0
0 0
0 0
0 0
0 0
0 0
0 0
0 0
0 0
0 0
0 0
0 0
0 0
0 0
0 0
0 0
0 0
0 0
0 0
0 0
0 0
0 0
0 0
0 0
0 0
0 0
0 0
0 0
0 0
0 0
0 0
0 0
0 0
0 0
0 0
0 0
0 0
0 0
0 0
0 0
0 0
0 0
0 0
0 0
0 0
0 0
0 0
0 0
0 0
0 0
0 0
0 0
0 0
0 0
0 0
0 0
0 0
0 0
0 0
0 0
0 0
0 0
0 0
0 0
0 0
0 0
0 0
0 0
0 0
0 0
0 0
0 0
0 0
0 0
0 0
0 0
0 0
0 0
0 0
0 0
0 0
0 0
0 0
0 0
0 0
0 0
0 0
0 0
0 0
0 0
0 0
0 0
0 0
0 0
0 0
0 0
0 0
0 0
0 0
0 0
0 0
0 0
0 0
0 0
0 0
0 0
0 0
0 0
0 0
0 0
0 0
0 0
0 0
0 0
0 0
0 0
0 0
0 0
0 0
0 0
0 0
0 0
0 0
0 0
0 0
0 0
0 0
0 0
0 0
0 0
0 0
0 0
0 0
0 0
0 0
0 0
0 0
0 0
0 0
0 0
0 0
0 0
0 0
0 0
0 0
0 0
0 0
0 0
0 0
0 0
0 0
0 0
0 0
0 0
0 0
0 0
0 0
0 0
0 0
0 0
0 0
0 0
0 0
0 0
0 0
0 0
0 0
0 0
0 0
0 0
0 0
0 0
0 0
0 0
0 0
0 0
0 0
0 0
0 0
0 0
0 0
0 0
0 0
0 0
0 0
0 0
0 0
0 0
0 0
0 0
0 0
0 0
0 0
0 0
0 0
0 0
0 0
0 0
0 0
0 0
0 0
0 0
0 0
0 0
0 0
0 0
0 0
0 0
0 0
0 0
0 0
0 0
0 0
0 0
0 0
0 0
0 0
0 0
0 0
0 0
0 0
0 0
0 0
0 0
0 0
0 0
0 0
0 0
0 0
0 0
0 0
0 0
0 0
0 0
0 0
0 0
0 0
0 0
0 0
0 0
0 0
0 0
0 0
0 0
0 0
0 0
0 0
0 0
0 0
0 0
0 0
0 0
0 0
0 0
0 0
0 0
0 0
0 0
0 0
0 0
0 0
0 0
0 0
0 0
0 0
0 0
0 0
0 0
0 0
0 0
0 0
0 0
0 0
0 0
0 0
0 0
0 0
0 0
0 0
0 0
0 0
0 0
0 0
0 0
0 0
0 0
0 0
0 0
0 0
0 0
0 0
0 0
0 0
0 0
0 0
0 0
0 0
0 0
0 0
0 0
0 0
0 0
0 0
0 0
0 0
0 0
0 0
0 0
0 0
0 0
0 0
0 0
0 0
0 0
0 0
0 0
0 0
0 0
0 0
0 0
0 0
0 0
0 0
0 0
0 0
0 0
0 0
0 0
0 0
0 0
0 0
0 0
0 0
0 0
0 0
0 0
0 0
0 0
0 0
0 0
0 0
0 0
0 0
0 0
0 0
0 0
0 0
0 0
0 0
0 0
0 0
0 0
0 0
0 0
0 0
0 0
0 0
0 0
0 0
0 0
0 0
0 0
0 0
0 0
0 0
0 0
0 0
0 0
0 0
0 0
0 0
0 0
0 0
0 0
0 0
0 0
0 0
0 0
0 0
0 0
0 0
0 0
0 0
0 0
0 0
0 0
0 0
0 0
0 0
0 0
0 0
0 0
0 0
0 0
0 0
0 0
0 0
0 0
0 0
0 0
0 0
0 0
0 0
0 0
0 0
0 0
0 0
0 0
0 0
0 0
0 0
0 0
0 0
0 0
0 0
0 0
0 0
0 0
0 0
0 0
0 0
0 0
0 0
0 0
0 0
0 0
0 0
0 0
0 0
0 0
0 0
0 0
0 0
0 0
0 0
0 0
0 0
0 0
0 0
0 0
0 0
0 0
0 0
0 0
0 0
0 0
0 0
0 0
0 0
0 0
0 0
0 0
0 0
0 0
0 0
0 0
0 0
0 0
0 0
0 0
0 0
0 0
0 0
0 0
0 0
0 0
0 0
0 0
0 0
0 0
0 0
0 0
0 0
0 0
0 0
0 0
0 0
0 0
0 0
0 0
0 0
0 0
0 0
0 0
0 0
0 0
0 0
0 0
0 0
0 0
0 0
0 0
0 0
0 0
0 0
0 0
0 0
0 0
0 0
0 0
0 0
0 0
0 0
0 0
0 0
0 0
0 0
0 0
0 0
0 0
0 0
0 0
0 0
0 0
0 0
0 0
0 0
0 0
0 0
0 0
0 0
0 0
0 0
0 0
0 0
0 0
0 0
0 0
0 0
0 0
0 0
0 0
0 0
0 0
0 0
0 0
0 0
0 0
0 0
0 0
0 0
0 0
0 0
0 0
0 0
0 0
0 0
0 0
0 0
0 0
0 0
0 0
0 0
0 0
0 0
0 0
0 0
0 0
0 0
0 0
0 0
0 0
0 0
0 0
0 0
0 0
0 0
0 0
0 0
0 0
0 0
0 0
0 0
0 0
0 0
0 0
0 0
0 0
0 0
0 0
0 0
0 0
0 0
0 0
0 0
0 0
0 0
0 0
0 0
0 0
0 0
0 0
0 0
0 0
0 0
0 0
0 0
0 0
0 0
0 0
0 0
0 0
0 0
0 0
0 0
0 0
0 0
0 0
0 0
0 0
0 0
0 0
0 0
0 0
0 0
0 0
0 0
0 0
0 0
0 0
0 0
0 0
0 0
0 0
0 0
0 0
0 0
0 0
0 0
0 0
0 0
0 0
0 0
0 0
0 0
0 0
0 0
0 0
0 0
0 0
0 0
0 0
0 0
0 0
0 0
0 0
0 0
0 0
0 0
0 0
0 0
0 0
0 0
0 0
0 0
0 0
0 0
0 0
0 0
0 0
0 0
0 0
0 0
0 0
0 0
0 0
0 0
0 0
0 0
0 0
0 0
0 0
0 0
0 0
0 0
0 0
0 0
0 0
0 0
0 0
0 0
0 0
0 0
0 0
0 0
0 0
0 0
0 0
0 0
0 0
0 0
0 0
0 0
0 0
0 0
0 0
0 0
0 0
0 0
0 0
0 0
0 0
0 0
0 0
0 0
0 0
0 0
0 0
0 0
0 0
0 0
0 0
0 0
0 0
0 0
0 0
0 0
0 0
0 0
0 0
0 0
0 0
0 0
0 0
0 0
0 0
0 0
0 0
0 0
0 0
0 0
0 0
0 0
0 0
0 0
0 0
0 0
0 0
0 0
0 0
0 0
0 0
0 0
0 0
0 0
0 0
0 0
0 0
0 0
0 0
0 0
0 0
0 0
0 0
0 0
0 0
0 0
0 0
0 0
0 0
0 0
0 0
0 0
0 0
0 0
0 0
0 0
0 0
0 0
0 0
0 0
0 0
0 0
0 0
0 0
0 0
0 0
0 0
0 0
0 0
0 0
0 0
0 0
0 0
0 0
0 0
0 0
0 0
0 0
0 0
0 0
0 0
0 0
0 0
0 0
0 0
0 0
0 0
0 0
0 0
0 0
0 0
0 0
0 0
0 0
0 0
0 0
0 0
0 0
0 0
0 0
0 0
0 0
0 0
0 0
0 0
0 0
0 0
0 0
0 0
0 0
0 0
0 0
0 0
0 0
0 0
0 0
0 0
0 0
0 0
0 0
0 0
0 0
0 0
0 0
0 0
0 0
0 0
0 0
0 0
0 0
0 0
0 0
0 0
0 0
0 0
0 0
0 0
0 0
0 0
0 0
0 0
0 0
0 0
0 0
0 0
0 0
0 0
0 0
0 0
0 0
0 0
0 0
0 0
0 0
0 0
0 0
0 0
0 0
0 0
0 0
0 0
0 0
0 0
0 0
0 0
0 0
0 0
0 0
0 0
0 0
0 0
0 0
0 0
0 0
0 0
0 0
0 0
0 0
0 0
0 0
0 0
0 0
0 0
0 0
0 0
0 0
0 0
0 0
0 0
0 0
0 0
0 0
0 0
0 0
0 0
0 0
0 0
0 0
0 0
0 0
0 0
0 0
0 0
0 0
0 0
0 0
0 0
0 0
0 0
0 0
0 0
0 0
0 0
0 0
0 0
0 0
0 0
0 0
0 0
0 0
0 0
0 0
0 0
0 0
0 0
0 0
0 0
0 0
0 0
0 0
0 0
0 0
0 0
0 0
0 0
0 0
0 0
0 0
0 0
0 0
0 0
0 0
0 0
0 0
0 0
0 0
0 0
0 0
0 0
0 0
0 0
0 0
0 0
0 0
0 0
0 0
0 0
0 0
0 0
0 0
0 0
0 0
0 0
0 0
0 0
0 0
0 0
0 0
0 0
0 0
0 0
0 0
0 0
0 0
0 0
0 0
0 0
0 0
0 0
0 0
0 0
0 0
0 0
0 0
0 0
0 0
0 0
0 0
0 0
0 0
0 0
0 0
0 0
0 0
0 0
0 0
0 0
0 0
0 0
0 0
0 0
0 0
0 0
0 0
0 0
0 0
0 0
0 0
0 0
0 0
0 0
0 0
0 0
0 0
0 0
0 0
0 0
0 0
0 0
0 0
0 0
0 0
0 0
0 0
0 0
0 0
0 0
0 0
0 0
0 0
0 0
0 0
0 0
0 0
0 0
0 0
0 0
0 0
0 0
0 0
0 0
0 0
0 0
0 0
0 0
0 0
0 0
0 0
0 0
0 0
0 0
0 0
0 0
0 0
0 0
0 0
0 0
0 0
0 0
0 0
0 0
0 0
0 0
0 0
0 0
0 0
0 0
0 0
0 0
0 0
0 0
0 0
0 0
0 0
0 0
0 0
0 0
0 0
0 0
0 0
0 0
0 0
0 0
0 0
0 0
0 0
0 0
0 0
0 0
0 0
0 0
0 0
0 0
0 0
0 0
0 0
0 0
0 0
0 0
0 0
0 0
0 0
0 0
0 0
0 0
0 0
0 0
0 0
0 0
0 0
0 0
0 0
0 0
0 0
0 0
0 0
0 0
0 0
0 0
0 0
0 0
0 0
0 0
0 0
0 0
0 0
0 0
0 0
0 0
0 0
0 0
0 0
0 0
0 0
0 0
0 0
0 0
0 0
0 0
0 0
0 0
0 0
0 0
0 0
0 0
0 0
0 0
0 0
0 0
0 0
0 0
0 0
0 0
0 0
0 0
0 0
0 0
0 0
0 0
0 0
0 0
0 0
0 0
0 0
0 0
0 0
0 0
0 0
0 0
0 0
0 0
0 0
0 0
0 0
0 0
0 0
0 0
0 0
0 0
0 0
0 0
0 0
0 0
0 0
0 0
0 0
0 0
0 0
0 0
0 0
0 0
0 0
0 0
0 0
0 0
0 0
0 0
0 0
0 0
0 0
0 0
0 0
0 0
0 0
0 0
0 0
0 0
0 0
0 0
0 0
0 0
0 0
0 0
0 0
0 0
0 0
0 0
0 0
0 0
0 0
0 0
0 0
0 0
0 0
0 0
0 0
0 0
0 0
0 0
0 0
0 0
0 0
0 0
0 0
0 0
0 0
0 0
0 0
0 0
0 0
0 0
0 0
0 0
0 0
0 0
0 0
0 0
0 0
0 0
0 0
0 0
0 0
0 0
0 0
0 0
0 0
0 0
0 0
0 0
0 0
0 0
0 0
0 0
0 0
0 0
0 0
0 0
0 0
0 0
0 0
0 0
0 0
0 0
0 0
0 0
0 0
0 0
0 0
0 0
0 0
0 0
0 0
0 0
0 0
0 0
0 0
0 0
0 0
0 0
0 0
0 0
0 0
0 0
0 0
0 0
0 0
0 0
0 0
0 0
0 0
0 0
0 0
0 0
0 0
0 0
0 0
0 0
0 0
0 0
0 0
0 0
0 0
0 0
0 0
0 0
0 0
0 0
0 0
0 0
0 0
0 0
0 0
0 0
0 0
0 0
0 0
0 0
0 0
0 0
0 0
0 0
0 0
0 0
0 0
0 0
0 0
0 0
0 0
0 0
0 0
0 0
0 0
0 0
0 0
0 0
0 0
0 0
0 0
0 0
0 0
0 0
0 0
0 0
0 0
0 0
0 0
0 0
0 0
0 0
0 0
0 0
0 0
0 0
0 0
0 0
0 0
0 0
0 0
0 0
0 0
0 0
0 0
0 0
0 0
0 0
0 0
0 0
0 0
0 0
0 0
0 0
0 0
0 0
0 0
0 0
0 0
0 0
0 0
0 0
0 0
0 0
0 0
0 0
0 0
0 0
0 0
0 0
0 0
0 0
0 0
0 0
0 0
0 0
0 0
0 0
0 0
0 0
0 0
0 0
0 0
0 0
0 0
0 0
0 0
0 0
0 0
0 0
0 0
0 0
0 0
0 0
0 0
0 0
0 0
0 0
0 0
0 0
0 0
0 0
0 0
0 0
0 0
0 0
0 0
0 0
0 0
0 0
0 0
0 0
0 0
0 0
0 0
0 0
0 0
0 0
0 0
0 0
0 0
0 0
0 0
0 0
0 0
0 0
0 0
0 0
0 0
0 0
0 0
0 0
0 0
0 0
0 0
0 0
0 0
0 0
0 0
0 0
0 0
0 0
0 0
0 0
0 0
0 0
0 0
0 0
0 0
0 0
0 0
0 0
0 0
0 0
0 0
0 0
0 0
0 0
0 0
0 0
0 0
0 0
0 0
0 0
0 0
0 0
0 0
0 0
0 0
0 0
0 0
0 0
0 0
0 0
0 0
0 0
0 0
0 0
0 0
0 0
0 0
0 0
0 0
0 0
0 0
0 0
0 0
0 0
0 0
0 0
0 0
0 0
0 0
0 0
0 0
0 0
0 0
0 0
0 0
0 0
0 0
0 0
0 0
0 0
0 0
0 0
0 0
0 0
0 0
0 0
0 0
0 0
0 0
0 0
0 0
0 0
0 0
0 0
0 0
0 0
0 0
0 0
0 0
0 0
0 0
0 0
0 0
0 0
0 0
0 0
0 0
0 0
0 0
0 0
0 0
0 0
0 0
0 0
0 0
0 0
0 0
0 0
0 0
0 0
0 0
0 0
0 0
0 0
0 0
0 0
0 0
0 0
0 0
0 0
0 0
0 0
0 0
0 0
0 0
0 0
0 0
0 0
0 0
0 0
0 0
0 0
0 0
0 0
0 0
0 0
0 0
0 0
0 0
0 0
0 0
0 0
0 0
0 0
0 0
0 0
0 0
0 0
0 0
0 0
0 0
0 0
0 0
0 0
0 0
0 0
0 0
0 0
0 0
0 0
0 0
0 0
0 0
0 0
0 0
0 0
0 0
0 0
0 0
0 0
0 0
0 0
0 0
0 0
0 0
0 0
0 0
0 0
0 0
0 0
0 0
0 0
0 0
0 0
0 0
0 0
0 0
0 0
0 0
0 0
0 0
0 0
0 0
0 0
0 0
0 0
0 0
0 0
0 0
0 0
0 0
0 0
0 0
0 0
0 0
0 0
0 0
0 0
0 0
0 0
0 0
0 0
0 0
0 0
0 0
0 0
0 0
0 0
0 0
0 0
0 0
0 0
0 0
0 0
0 0
0 0
0 0
0 0
0 0
0 0
0 0
0 0
0 0
0 0
0 0
0 0
0 0
0 0
0 0
0 0
0 0
0 0
0 0
0 0
0 0
0 0
0 0
0 0
0 0
0 0
0 0
0 0
0 0
0 0
0 0
0 0
0 0
0 0
0 0
0 0
0 0
0 0
0 0
0 0
0 0
0 0
0 0
0 0
0 0
0 0
0 0
0 0
0 0
0 0
0 0
0 0
0 0
0 0
0 0
0 0
0 0
0 0
0 0
0 0
0 0
0 0
0 0
0 0
0 0
0 0
0 0
0 0
0 0
0 0
0 0
0 0
0 0
0 0
0 0
0 0
0 0
0 0
0 0
0 0
0 0
0 0
0 0
0 0
0 0
0 0
0 0
0 0
0 0
0 0
0 0
0 0
0 0
0 0
0 0
0 0
0 0
0 0
0 0
0 0
0 0
0 0
0 0
0 0
0 0
0 0
0 0
0 0
0 0
0 0
0 0
0 0
0 0
0 0
0 0
0 0
0 0
0 0
0 0
0 0
0 0
0 0
0 0
0 0
0 0
0 0
0 0
0 0
0 0
0 0
0 0
0 0
0 0
0 0
0 0
0 0
0 0
0 0
0 0
0 0
0 0
0 0
0 0
0 0
0 0
0 0
0 0
0 0
0 0
0 0
0 0
0 0
0 0
0 0
0 0
0 0
0 0
0 0
0 0
0 0
0 0
0 0
0 0
0 0
0 0
0 0
0 0
0 0
0 0
0 0
0 0
0 0
0 0
0 0
0 0
0 0
0 0
0 0
0 0
0 0
0 0
0 0
0 0
0 0
0 0
0 0
0 0
0 0
0 0
0 0
0 0
0 0
0 0
0 0
0 0
0 0
0 0
0 0
0 0
0 0
0 0
0 0
0 0
0 0
0 0
0 0
0 0
0 0
0 0
0 0
0 0
0 0
0 0
0 0
0 0
0 0
0 0
0 0
0 0
0 0
0 0
0 0
0 0
0 0
0 0
0 0
0 0
0 0
0 0
0 0
0 0
0 0
0 0
0 0
0 0
0 0
0 0
0 0
0 0
0 0
0 0
0 0
0 0
0 0
0 0
0 0
0 0
0 0
0 0
0 0
0 0
0 0
0 0
0 0
0 0
0 0
0 0
0 0
0 0
0 0
0 0
0 0
0 0
0 0
0 0
0 0
0 0
0 0
0 0
0 0
0 0
0 0
0 0
0 0
0 0
0 0
0 0
0 0
0 0
0 0
0 0
0 0
0 0
0 0
0 0
0 0
0 0
0 0
0 0
0 0
0 0
0 0
0 0
0 0
0 0
0 0
0 0
0 0
0 0
0 0
0 0
0 0
0 0
0 0
0 0
0 0
0 0
0 0
0 0
0 0
0 0
0 0
0 0
0 0
0 0
0 0
0 0
0 0
0 0
0 0
0 0
0 0
0 0
0 0
0 0
0 0
0 0
0 0
0 0
0 0
0 0
0 0
0 0
0 0
0 0
0 0
0 0
0 0
0 0
0 0
0 0
0 0
0 0
0 0
0 0
0 0
0 0
0 0
0 0
0 0
0 0
0 0
0 0
0 0
0 0
0 0
0 0
0 0
0 0
0 0
0 0
0 0
0 0
0 0
0 0
0 0
0 0
0 0
0 0
0 0
0 0
0 0
0 0
0 0
0 0
0 0
0 0
0 0
0 0
0 0
0 0
0 0
0 0
0 0
0 0
0 0
0 0
0 0
0 0
0 0
0 0
0 0
0 0
0 0
0 0
0 0
0 0
0 0
0 0
0 0
0 0
0 0
0 0
0 0
0 0
0 0
0 0
0 0
0 0
0 0
0 0
0 0
0 0
0 0
0 0
0 0
0 0
0 0
0 0
0 0
0 0
0 0
0 0
0 0
0 0
0 0
0 0
0 0
0 0
0 0
0 0
0 0
0 0
0 0
0 0
0 0
0 0
0 0
0 0
0 0
0 0
0 0
0 0
0 0
0 0
0 0
0 0
0 0
0 0
0 0
0 0
0 0
0 0
0 0
0 0
0 0
0 0
0 0
0 0
0 0
0 0
0 0
0 0
0 0
0 0
0 0
0 0
0 0
0 0
0 0
0 0
0 0
0 0
0 0
0 0
0 0
0 0
0 0
0 0
0 0
0 0
0 0
0 0
0 0
0 0
0 0
0 0
0 0
0 0
0 0
0 0
0 0
0 0
0 0
0 0
0 0
0 0
0 0
0 0
0 0
0 0
0 0
0 0
0 0
0 0
0 0
0 0
0 0
0 0
0 0
0 0
0 0
0 0
0 0
0 0
0 0
0 0
0 0
0 0
0 0
0 0
0 0
0 0
0 0
0 0
0 0
0 0
0 0
0 0
0 0
0 0
0 0
0 0
0 0
0 0
0 0
0 0
0 0
0 0
0 0
0 0
0 0
0 0
0 0
0 0
0 0
0 0
0 0
0 0
0 0
0 0
0 0
0 0
0 0
0 0
0 0
0 0
0 0
0 0
0 0
0 0
0 0
0 0
0 0
0 0
0 0
0 0
0 0
0 0
0 0
0 0
0 0
0 0
0 0
0 0
0 0
0 0
0 0
0 0
0 0
0 0
0 0
0 0
0 0
0 0
0 0
0 0
0 0
0 0
0 0
0 0
0 0
0 0
0 0
0 0
0 0
0 0
0 0
0 0
0 0
0 0
0 0
0 0
0 0
0 0
0 0
0 0
0 0
0 0
0 0
0 0
0 0
0 0
0 0
0 0
0 0
0 0
0 0
0 0
0 0
0 0
0 0
0 0
0 0
0 0
0 0
0 0
0 0
0 0
0 0
0 0
0 0
0 0
0 0
0 0
0 0
0 0
0 0
0 0
0 0
0 0
0 0
0 0
0 0
0 0
0 0
0 0
0 0
0 0
0 0
0 0
0 0
0 0
0 0
0 0
0 0
0 0
0 0
0 0
0 0
0 0
0 0
0 0
0 0
0 0
0 0
0 0
0 0
0 0
0 0
0 0
0 0
0 0
0 0
0 0
0 0
0 0
0 0
0 0
0 0
0 0
0 0
0 0
0 0
0 0
0 0
0 0
0 0
0 0
0 0
0 0
0 0
0 0
0 0
0 0
0 0
0 0
0 0
0 0
0 0
0 0
0 0
0 0
0 0
0 0
0 0
0 0
0 0
0 0
0 0
0 0
0 0
0 0
0 0
0 0
0 0
0 0
0 0
0 0
0 0
0 0
0 0
0 0
0 0
0 0
0 0
0 0
0 0
0 0
0 0
0 0
0 0
0 0
0 0
0 0
0 0
0 0
0 0
0 0
0 0
0 0
0 0
0 0
0 0
0 0
0 0
0 0
0 0
0 0
0 0
0 0
0 0
0 0
0 0
0 0
0 0
0 0
0 0
0 0
0 0
0 0
0 0
0 0
0 0
0 0
0 0
0 0
0 0
0 0
0 0
0 0
0 0
0 0
0 0
0 0
0 0
0 0
0 0
0 0
0 0
0 0
0 0
0 0
0 0
0 0
0 0
0 0
0 0
0 0
0 0
0 0
0 0
0 0
0 0
0 0
0 0
0 0
0 0
0 0
0 0
0 0
0 0
0 0
0 0
0 0
0 0
0 0
0 0
0 0
0 0
0 0
0 0
0 0
0 0
0 0
0 0
0 0
0 0
0 0
0 0
0 0
0 0
0 0
0 0
0 0
0 0
0 0
0 0
0 0
0 0
0 0
0 0
0 0
0 0
0 0
0 0
0 0
0 0
0 0
0 0
0 0
0 0
0 0
0 0
0 0
0 0
0 0
0 0
0 0
0 0
0 0
0 0
0 0
0 0
0 0
0 0
0 0
0 0
0 0
0 0
0 0
0 0
0 0
0 0
0 0
0 0
0 0
0 0
0 0
0 0
0 0
0 0
0 0
0 0
0 0
0 0
0 0
0 0
0 0
0 0
0 0
0 0
0 0
0 0
0 0
0 0
0 0
0 0
0 0
0 0
0 0
0 0
0 0
0 0
0 0
0 0
0 0
0 0
0 0
0 0
0 0
0 0
0 0
0 0
0 0
0 0
0 0
0 0
0 0
0 0
0 0
0 0
0 0
0 0
0 0
0 0
0 0
0 0
0 0
0 0
0 0
0 0
0 0
0 0
0 0
0 0
0 0
0 0
0 0
0 0
0 0
0 0
0 0
0 0
0 0
0 0
0 0
0 0
0 0
0 0
0 0
0 0
0 0
0 0
0 0
0 0
0 0
0 0
0 0
0 0
0 0
0 0
0 0
0 0
0 0
0 0
0 0
0 0
0 0
0 0
0 0
0 0
0 0
0 0
0 0
0 0
0 0
0 0
0 0
0 0
0 0
0 0
0 0
0 0
0 0
0 0
0 0
0 0
0 0
0 0
0 0
0 0
0 0
0 0
0 0
0 0
0 0
0 0
0 0
0 0
0 0
0 0
0 0
0 0
0 0
0 0
0 0
0 0
0 0
0 0
0 0
0 0
0 0
0 0
0 0
0 0
0 0
0 0
0 0
0 0
0 0
0 0
0 0
0 0
0 0
0 0
0 0
0 0
0 0
0 0
0 0
0 0
0 0
0 0
0 0
0 0
0 0
0 0
0 0
0 0
0 0
0 0
0 0
0 0
0 0
0 0
0 0
0 0
0 0
0 0
0 0
0 0
0 0
0 0
0 0
0 0
0 0
0 0
0 0
0 0
0 0
0 0
0 0
0 0
0 0
0 0
0 0
0 0
0 0
0 0
0 0
0 0
0 0
0 0
0 0
0 0
0 0
0 0
0 0
0 0
0 0
0 0
0 0
0 0
0 0
0 0
0 0
0 0
0 0
0 0
0 0
0 0
0 0
0 0
0 0
0 0
0 0
0 0
0 0
0 0
0 0
0 0
0 0
0 0
0 0
0 0
0 0
0 0
0 0
0 0
0 0
0 0
0 0
0 0
0 0
0 0
0 0
0 0
0 0
0 0
0 0
0 0
0 0
0 0
0 0
0 0
0 0
0 0
0 0
0 0
0 0
0 0
0 0
0 0
0 0
0 0
0 0
0 0
0 0
0 0
0 0
0 0
0 0
0 0
0 0
0 0
0 0
0 0
0 0
0 0
0 0
0 0
0 0
0 0
0 0
0 0
0 0
0 0
0 0
0 0
0 0
0 0
0 0
0 0
0 0
0 0
0 0
0 0
0 0
0 0
0 0
0 0
0 0
0 0
0 0
0 0
0 0
0 0
0 0
0 0
0 0
0 0
0 0
0 0
0 0
0 0
0 0
0 0
0 0
0 0
0 0
0 0
0 0
0 0
0 0
0 0
0 0
0 0
0 0
0 0
0 0
0 0
0 0
0 0
0 0
0 0
0 0
0 0
0 0
0 0
0 0
0 0
0 0
0 0
0 0
0 0
0 0
0 0
0 0
0 0
0 0
0 0
0 0
0 0
0 0
0 0
0 0
0 0
0 0
0 0
0 0
0 0
0 0
0 0
0 0
0 0
0 0
0 0
0 0
0 0
0 0
0 0
0 0
0 0
0 0
0 0
0 0
0 0
0 0
0 0
0 0
0 0
0 0
0 0
0 0
0 0
0 0
0 0
0 0
0 0
0 0
0 0
0 0
0 0
0 0
0 0
0 0
0 0
0 0
0 0
0 0
0 0
0 0
0 0
0 0
0 0
0 0
0 0
0 0
0 0
0 0
0 0
0 0
0 0
0 0
0 0
0 0
0 0
0 0
0 0
0 0
0 0
0 0
0 0
0 0
0 0
0 0
0 0
0 0
0 0
0 0
0 0
0 0
0 0
0 0
0 0
0 0
0 0
0 0
0 0
0 0
0 0
0 0
0 0
0 0
0 0
0 0
0 0
0 0
0 0
0 0
0 0
0 0
0 0
0 0
0 0
0 0
0 0
0 0
0 0
0 0
0 0
0 0
0 0
0 0
0 0
0 0
0 0
0 0
0 0
0 0
0 0
0 0
0 0
0 0
0 0
0 0
0 0
0 0
0 0
0 0
0 0
0 0
0 0
0 0
0 0
0 0
0 0
0 0
0 0
0 0
0 0
0 0
0 0
0 0
0 0
0 0
0 0
0 0
0 0
0 0
0 0
0 0
0 0
0 0
0 0
0 0
0 0
0 0
0 0
0 0
0 0
0 0
0 0
0 0
0 0
0 0
0 0
0 0
0 0
0 0
0 0
0 0
0 0
0 0
0 0
0 0
0 0
0 0
0 0
0 0
0 0
0 0
0 0
0 0
0 0
0 0
0 0
0 0
0 0
0 0
0 0
0 0
0 0
0 0
0 0
0 0
0 0
0 0
0 0
0 0
0 0
0 0
0 0
0 0
0 0
0 0
0 0
0 0
0 0
0 0
0 0
0 0
0 0
0 0
0 0
0 0
0 0
0 0
0 0
0 0
0 0
0 0
0 0
0 0
0 0
0 0
0 0
0 0
0 0
0 0
0 0
0 0
0 0
0 0
0 0
0 0
0 0
0 0
0 0
0 0
0 0
0 0
0 0
0 0
0 0
0 0
0 0
0 0
0 0
0 0
0 0
0 0
0 0
0 0
0 0
0 0
0 0
0 0
0 0
0 0
0 0
0 0
0 0
0 0
0 0
0 0
0 0
0 0
0 0
0 0
0 0
0 0
0 0
0 0
0 0
0 0
0 0
0 0
0 0
0 0
0 0
0 0
0 0
0 0
0 0
0 0
0 0
0 0
0 0
0 0
0 0
0 0
0 0
0 0
0 0
0 0
0 0
0 0
0 0
0 0
0 0
0 0
0 0
0 0
0 0
0 0
0 0
0 0
0 0
0 0
0 0
0 0
0 0
0 0
0 0
0 0
0 0
0 0
0 0
0 0
0 0
0 0
0 0
0 0
0 0
0 0
0 0
0 0
0 0
0 0
0 0
0 0
0 0
0 0
0 0
0 0
0 0
0 0
0 0
0 0
0 0
0 0
0 0
0 0
0 0
0 0
0 0
0 0
0 0
0 0
0 0
0 0
0 0
0 0
0 0
0 0
0 0
0 0
0 0
0 0
0 0
0 0
0 0
0 0
0 0
0 0
0 0
0 0
0 0
0 0
0 0
0 0
0 0
0 0
0 0
0 0
0 0
0 0
0 0
0 0
0 0
0 0
0 0
0 0
0 0
0 0
0 0
0 0
0 0
0 0
0 0
0 0
0 0
0 0
0 0
0 0
0 0
0 0
0 0
0 0
0 0
0 0
0 0
0 0
0 0
0 0
0 0
0 0
0 0
0 0
0 0
0 0
0 0
0 0
0 0
0 0
0 0
0 0
0 0
0 0
0 0
0 0
0 0
0 0
0 0
0 0
0 0
0 0
0 0
0 0
0 0
0 0
0 0
0 0
0 0
0 0
0 0
0 0
0 0
0 0
0 0
0 0
0 0
0 0
0 0
0 0
0 0
0 0
0 0
0 0
0 0
0 0
0 0
0 0
0 0
0 0
0 0
0 0
0 0
0 0
0 0
0 0
0 0
0 0
0 0
0 0
0 0
0 0
0 0
0 0
0 0
0 0
0 0
0 0
0 0
0 0
0 0
0 0
0 0
0 0
0 0
0 0
0 0
0 0
0 0
0 0
0 0
0 0
0 0
0 0
0 0
0 0
0 0
0 0
0 0
0 0
0 0
0 0
0 0
0 0
0 0
0 0
0 0
0 0
0 0
0 0
0 0
0 0
0 0
0 0
0 0
0 0
0 0
0 0
0 0
0 0
0 0
0 0
0 0
0 0
0 0
0 0
0 0
0 0
0 0
0 0
0 0
0 0
0 0
0 0
0 0
0 0
0 0
0 0
0 0
0 0
0 0
0 0
0 0
0 0
0 0
0 0
0 0
0 0
0 0
0 0
0 0
0 0
0 0
0 0
0 0
0 0
0 0
0 0
0 0
0 0
0 0
0 0
0 0
0 0
0 0
0 0
0 0
0 0
0 0
0 0
0 0
0 0
0 0
0 0
0 0
0 0
0 0
0 0
0 0
0 0
0 0
0 0
0 0
0 0
0 0
0 0
0 0
0 0
0 0
0 0
0 0
0 0
0 0
0 0
0 0
0 0
0 0
0 0
0 0
0 0
0 0
0 0
0 0
0 0
0 0
0 0
0 0
0 0
0 0
0 0
0 0
0 0
0 0
0 0
0 0
0 0
0 0
0 0
0 0
0 0
0 0
0 0
0 0
0 0
0 0
0 0
0 0
0 0
0 0
0 0
0 0
0 0
0 0
0 0
0 0
0 0
0 0
0 0
0 0
0 0
0 0
0 0
0 0
0 0
0 0
0 0
0 0
0 0
0 0
0 0
0 0
0 0
0 0
0 0
0 0
0 0
0 0
0 0
0 0
0 0
0 0
0 0
0 0
0 0
0 0
0 0
0 0
0 0
0 0
0 0
0 0
0 0
0 0
0 0
0 0
0 0
0 0
0 0
0 0
0 0
0 0
0 0
0 0
0 0
0 0
0 0
0 0
0 0
0 0
0 0
0 0
0 0
0 0
0 0
0 0
0 0
0 0
0 0
0 0
0 0
0 0
0 0
0 0
0 0
0 0
0 0
0 0
0 0
0 0
0 0
0 0
0 0
0 0
0 0
0 0
0 0
0 0
0 0
0 0
0 0
0 0
0 0
0 0
0 0
0 0
0 0
0 0
0 0
0 0
0 0
0 0
0 0
0 0
0 0
0 0
0 0
0 0
0 0
0 0
0 0
0 0
0 0
0 0
0 0
0 0
0 0
0 0
0 0
0 0
0 0
0 0
0 0
0 0
0 0
0 0
0 0
0 0
0 0
0 0
0 0
0 0
0 0
0 0
0 0
0 0
0 0
0 0
0 0
0 0
0 0
0 0
0 0
0 0
0 0
0 0
0 0
0 0
0 0
0 0
0 0
0 0
0 0
0 0
0 0
0 0
0 0
0 0
0 0
0 0
0 0
0 0
0 0
0 0
0 0
0 0
0 0
0 0
0 0
0 0
0 0
0 0
0 0
0 0
0 0
0 0
0 0
0 0
0 0
0 0
0 0
0 0
0 0
0 0
0 0
0 0
0 0
0 0
0 0
0 0
0 0
0 0
0 0
0 0
0 0
0 0
0 0
0 0
0 0
0 0
0 0
0 0
0 0
0 0
0 0
0 0
0 0
0 0
0 0
0 0
0 0
0 0
0 0
0 0
0 0
0 0
0 0
0 0
0 0
0 0
0 0
0 0
0 0
0 0
0 0
0 0
0 0
0 0
0 0
0 0
0 0
0 0
0 0
0 0
0 0
0 0
0 0
0 0
0 0
0 0
0 0
0 0
0 0
0 0
0 0
0 0
0 0
0 0
0 0
0 0
0 0
0 0
0 0
0 0
0 0
0 0
0 0
0 0
0 0
0 0
0 0
0 0
0 0
0 0
0 0
0 0
0 0
0 0
0 0
0 0
0 0
0 0
0 0
0 0
0 0
0 0
0 0
0 0
0 0
0 0
0 0
0 0
0 0
0 0
0 0
0 0
0 0
0 0
0 0
0 0
0 0
0 0
0 0
0 0
0 0
0 0
0 0
0 0
0 0
0 0
0 0
0 0
0 0
0 0
0 0
0 0
0 0
0 0
0 0
0 0
0 0
0 0
0 0
0 0
0 0
0 0
0 0
0 0
0 0
0 0
0 0
0 0
0 0
0 0
0 0
0 0
0 0
0 0
0 0
0 0
0 0
0 0
0 0
0 0
0 0
0 0
0 0
0 0
0 0
0 0
0 0
0 0
0 0
0 0
0 0
0 0
0 0
0 0
0 0
0 0
0 0
0 0
0 0
0 0
0 0
0 0
0 0
0 0
0 0
0 0
0 0
0 0
0 0
0 0
0 0
0 0
0 0
0 0
0 0
0 0
0 0
0 0
0 0
0 0
0 0
0 0
0 0
0 0
0 0
0 0
0 0
0 0
0 0
0 0
0 0
0 0
0 0
0 0
0 0
0 0
0 0
0 0
0 0
0 0
0 0
0 0
0 0
0 0
0 0
0 0
0 0
0 0
0 0
0 0
0 0
0 0
0 0
0 0
0 0
0 0
0 0
0 0
0 0
0 0
0 0
0 0
0 0
0 0
0 0
0 0
0 0
0 0
0 0
0 0
0 0
0 0
0 0
0 0
0 0
0 0
0 0
0 0
0 0
0 0
0 0
0 0
0 0
0 0
0 0
0 0
0 0
0 0
0 0
0 0
0 0
0 0
0 0
0 0
0 0
0 0
0 0
0 0
0 0
0 0
0 0
0 0
0 0
0 0
0 0
0 0
0 0
0 0
0 0
0 0
0 0
0 0
0 0
0 0
0 0
0 0
0 0
0 0
0 0
0 0
0 0
0 0
0 0
0 0
0 0
0 0
0 0
0 0
0 0
0 0
0 0
0 0
0 0
0 0
0 0
0 0
0 0
0 0
0 0
0 0
0 0
0 0
0 0
0 0
0 0
0 0
0 0
0 0
0 0
0 0
0 0
0 0
0 0
0 0
0 0
0 0
0 0
0 0
0 0
0 0
0 0
0 0
0 0
0 0
0 0
0 0
0 0
0 0
0 0
0 0
0 0
0 0
0 0
0 0
0 0
0 0
0 0
0 0
0 0
0 0
0 0
0 0
0 0
0 0
0 0
0 0
0 0
0 0
0 0
0 0
0 0
0 0
0 0
0 0
0 0
0 0
0 0
0 0
0 0
0 0
0 0
0 0
0 0
0 0
0 0
0 0
0 0
0 0
0 0
0 0
0 0
0 0
0 0
0 0
0 0
0 0
0 0
0 0
0 0
0 0
0 0
0 0
0 0
0 0
0 0
0 0
0 0
0 0
0 0
0 0
0 0
0 0
0 0
0 0
0 0
0 0
0 0
0 0
0 0
0 0
0 0
0 0
0 0
0 0
0 0
0 0
0 0
0 0
0 0
0 0
0 0
0 0
0 0
0 0
0 0
0 0
0 0
0 0
0 0
0 0
0 0
0 0
0 0
0 0
0 0
0 0
0 0
0 0
0 0
0 0
0 0
0 0
0 0
0 0
0 0
0 0
0 0
0 0
0 0
0 0
0 0
0 0
0 0
0 0
0 0
0 0
0 0
0 0
0 0
0 0
0 0
0 0
0 0
0 0
0 0
0 0
0 0
0 0
0 0
0 0
0 0
0 0
0 0
0 0
0 0
0 0
0 0
0 0
0 0
0 0
0 0
0 0
0 0
0 0
0 0
0 0
0 0
0 0
0 0
0 0
0 0
0 0
0 0
0 0
0 0
0 0
0 0
0 0
0 0
0 0
0 0
0 0
0 0
0 0
0 0
0 0
0 0
0 0
0 0
0 0
0 0
0 0
0 0
0 0
0 0
0 0
0 0
0 0
0 0
0 0
0 0
0 0
0 0
0 0
0 0
0 0
0 0
0 0
0 0
0 0
0 0
0 0
0 0
0 0
0 0
0 0
0 0
0 0
0 0
0 0
0 0
0 0
0 0
0 0
0 0
0 0
0 0
0 0
0 0
0 0
0 0
0 0
0 0
0 0
0 0
0 0
0 0
0 0
0 0
0 0
0 0
0 0
0 0
0 0
0 0
0 0
0 0
0 0
0 0
0 0
0 0
0 0
0 0
0 0
0 0
0 0
0 0
0 0
0 0
0 0
0 0
0 0
0 0
0 0
0 0
0 0
0 0
0 0
0 0
0 0
0 0
0 0
0 0
0 0
0 0
0 0
0 0
0 0
0 0
0 0
0 0
0 0
0 0
0 0
0 0
0 0
0 0
0 0
0 0
0 0
0 0
0 0
0 0
0 0
0 0
0 0
0 0
0 0
0 0
0 0
0 0
0 0
0 0
0 0
0 0
0 0
0 0
0 0
0 0
0 0
0 0
0 0
0 0
0 0
0 0
0 0
0 0
0 0
0 0
0 0
0 0
0 0
0 0
0 0
0 0
0 0
0 0
0 0
0 0
0 0
0 0
0 0
0 0
0 0
0 0
0 0
0 0
0 0
0 0
0 0
0 0
0 0
0 0
0 0
0 0
0 0
0 0
0 0
0 0
0 0
0 0
0 0
0 0
0 0
0 0
0 0
0 0
0 0
0 0
0 0
0 0
0 0
0 0
0 0
0 0
0 0
0 0
0 0
0 0
0 0
0 0
0 0
0 0
0 0
0 0
0 0
0 0
0 0
0 0
0 0
0 0
0 0
0 0
0 0
0 0
0 0
0 0
0 0
0 0
0 0
0 0
0 0
0 0
0 0
0 0
0 0
0 0
0 0
0 0
0 0
0 0
0 0
0 0
0 0
0 0
0 0
0 0
0 0
0 0
0 0
0 0
0 0
0 0
0 0
0 0
0 0
0 0
0 0
0 0
0 0
0 0
0 0
0 0
0 0
0 0
0 0
0 0
0 0
0 0
0 0
0 0
0 0
0 0
0 0
0 0
0 0
0 0
0 0
0 0
0 0
0 0
0 0
0 0
0 0
0 0
0 0
0 0
0 0
0 0
0 0
0 0
0 0
0 0
0 0
0 0
0 0
0 0
0 0
0 0
0 0
0 0
0 0
0 0
0 0
0 0
0 0
0 0
0 0
0 0
0 0
0 0
0 0
0 0
0 0
0 0
0 0
0 0
0 0
0 0
0 0
0 0
0 0
0 0
0 0
0 0
0 0
0 0
0 0
0 0
0 0
0 0
0 0
0 0
0 0
0 0
0 0
0 0
0 0
0 0
0 0
0 0
0 0
0 0
0 0
0 0
0 0
0 0
0 0
0 0
0 0
0 0
0 0
0 0
0 0
0 0
0 0
0 0
0 0
0 0
0 0
0 0
0 0
0 0
0 0
0 0
0 0
0 0
0 0
0 0
0 0
0 0
0 0
0 0
0 0
0 0
0 0
0 0
0 0
0 0
0 0
0 0
0 0
0 0
0 0
0 0
0 0
0 0
0 0
0 0
0 0
0 0
0 0
0 0
0 0
0 0
0 0
0 0
0 0
0 0
0 0
0 0
0 0
0 0
0 0
0 0
0 0
0 0
0 0
0 0
0 0
0 0
0 0
0 0
0 0
0 0
0 0
0 0
0 0
0 0
0 0
0 0
0 0
0 0
0 0
0 0
0 0
0 0
0 0
0 0
0 0
0 0
0 0
0 0
0 0
0 0
0 0
0 0
0 0
0 0
0 0
0 0
0 0
0 0
0 0
0 0
0 0
0 0
0 0
0 0
0 0
0 0
0 0
0 0
0 0
0 0
0 0
0 0
0 0
0 0
0 0
0 0
0 0
0 0
0 0
0 0
0 0
0 0
0 0
0 0
0 0
0 0
0 0
0 0
0 0
0 0
0 0
0 0
0 0
0 0
0 0
0 0
0 0
0 0
0 0
0 0
0 0
0 0
0 0
0 0
0 0
0 0
0 0
0 0
0 0
0 0
0 0
0 0
0 0
0 0
0 0
0 0
0 0
0 0
0 0
0 0
0 0
0 0
0 0
0 0
0 0
0 0
0 0
0 0
0 0
0 0
0 0
0 0
0 0
0 0
0 0
0 0
0 0
0 0
0 0
0 0
0 0
0 0
0 0
0 0
0 0
0 0
0 0
0 0
0 0
0 0
0 0
0 0
0 0
0 0
0 0
0 0
0 0
0 0
0 0
0 0
0 0
0 0
0 0
0 0
0 0
0 0
0 0
0 0
0 0
0 0
0 0
0 0
0 0
0 0
0 0
0 0
0 0
0 0
0 0
0 0
0 0
0 0
0 0
0 0
0 0
0 0
0 0
0 0
0 0
0 0
0 0
0 0
0 0
0 0
0 0
0 0
0 0
0 0
0 0
0 0
0 0
0 0
0 0
0 0
0 0
0 0
0 0
0 0
0 0
0 0
0 0
0 0
0 0
0 0
0 0
0 0
0 0
0 0
0 0
0 0
0 0
0 0
0 0
0 0
0 0
0 0
0 0
0 0
0 0
0 0
0 0
0 0
0 0
0 0
0 0
0 0
0 0
0 0
0 0
0 0
0 0
0 0
0 0
0 0
0 0
0 0
0 0
0 0
0 0
0 0
0 0
0 0
0 0
0 0
0 0
0 0
0 0
0 0
0 0
0 0
0 0
0 0
0 0
0 0
0 0
0 0
0 0
0 0
0 0
0 0
0 0
0 0
0 0
0 0
0 0
0 0
0 0
0 0
0 0
0 0
0 0
0 0
0 0
0 0
0 0
0 0
0 0
0 0
0 0
0 0
0 0
0 0
0 0
0 0
0 0
0 0
0 0
0 0
0 0
0 0
0 0
0 0
0 0
0 0
0 0
0 0
0 0
0 0
0 0
0 0
0 0
0 0
0 0
0 0
0 0
0 0
0 0
0 0
0 0
0 0
0 0
0 0
0 0
0 0
0 0
0 0
0 0
0 0
0 0
0 0
0 0
0 0
0 0
0 0
0 0
0 0
0 0
0 0
0 0
0 0
0 0
0 0
0 0
0 0
0 0
0 0
0 0
0 0
0 0
0 0
0 0
0 0
0 0
0 0
0 0
0 0
0 0
0 0
0 0
0 0
0 0
0 0
0 0
0 0
0 0
0 0
0 0
0 0
0 0
0 0
0 0
0 0
0 0
0 0
0 0
0 0
0 0
0 0
0 0
0 0
0 0
0 0
0 0
0 0
0 0
0 0
0 0
0 0
0 0
0 0
0 0
0 0
0 0
0 0
0 0
0 0
0 0
0 0
0 0
0 0
0 0
0 0
0 0
0 0
0 0
0 0
0 0
0 0
0 0
0 0
0 0
0 0
0 0
0 0
0 0
0 0
0 0
0 0
0 0
0 0
0 0
0 0
0 0
0 0
0 0
0 0
0 0
0 0
0 0
0 0
0 0
0 0
0 0
0 0
0 0
0 0
0 0
0 0
0 0
0 0
0 0
0 0
0 0
0 0
0 0
0 0
0 0
0 0
0 0
0 0
0 0
0 0
0 0
0 0
0 0
0 0
0 0
0 0
0 0
0 0
0 0
0 0
0 0
0 0
0 0
0 0
0 0
0 0
0 0
0 0
0 0
0 0
0 0
0 0
0 0
0 0
0 0
0 0
0 0
0 0
0 0
0 0
0 0
0 0
0 0
0 0
0 0
0 0
0 0
0 0
0 0
0 0
0 0
0 0
0 0
0 0
0 0
0 0
0 0
0 0
0 0
0 0
0 0
0 0
0 0
0 0
0 0
0 0
0 0
0 0
0 0
0 0
0 0
0 0
0 0
0 0
0 0
0 0
0 0
0 0
0 0
0 0
0 0
0 0
0 0
0 0
0 0
0 0
0 0
0 0
0 0
0 0
0 0
0 0
0 0
0 0
0 0
0 0
0 0
0 0
0 0
0 0
0 0
0 0
0 0
0 0
0 0
0 0
0 0
0 0
0 0
0 0
0 0
0 0
0 0
0 0
0 0
0 0
0 0
0 0
0 0
0 0
0 0
0 0
0 0
0 0
0 0
0 0
0 0
0 0
0 0
0 0
0 0
0 0
0 0
0 0
0 0
0 0
0 0
0 0
0 0
0 0
0 0
0 0
0 0
0 0
0 0
0 0
0 0
0 0
0 0
0 0
0 0
0 0
0 0
0 0
0 0
0 0
0 0
0 0
0 0
0 0
0 0
0 0
0 0
0 0
0 0
0 0
0 0
0 0
0 0
0 0
0 0
0 0
0 0
0 0
0 0
0 0
0 0
0 0
0 0
0 0
0 0
0 0
0 0
0 0
0 0
0 0
0 0
0 0
0 0
0 0
0 0
0 0
0 0
0 0
0 0
0 0
0 0
0 0
0 0
0 0
0 0
0 0
0 0
0 0
0 0
0 0
0 0
0 0
0 0
0 0
0 0
0 0
0 0
0 0
0 0
0 0
0 0
0 0
0 0
0 0
0 0
0 0
0 0
0 0
0 0
0 0
0 0
0 0
0 0
0 0
0 0
0 0
0 0
0 0
0 0
0 0
0 0
0 0
0 0
0 0
0 0
0 0
0 0
0 0
0 0
0 0
0 0
0 0
0 0
0 0
0 0
0 0
0 0
0 0
0 0
0 0
0 0
0 0
0 0
0 0
0 0
0 0
0 0
0 0
0 0
0 0
0 0
0 0
0 0
0 0
0 0
0 0
0 0
0 0
0 0
0 0
0 0
0 0
0 0
0 0
0 0
0 0
0 0
0 0
0 0
0 0
0 0
0 0
0 0
0 0
0 0
0 0
0 0
0 0
0 0
0 0
0 0
0 0
0 0
0 0
0 0
0 0
0 0
0 0
0 0
0 0
0 0
0 0
0 0
0 0
0 0
0 0
0 0
0 0
0 0
0 0
0 0
0 0
0 0
0 0
0 0
0 0
0 0
0 0
0 0
0 0
0 0
0 0
0 0
0 0
0 0
0 0
0 0
0 0
0 0
0 0
0 0
0 0
0 0
0 0
0 0
0 0
0 0
0 0
0 0
0 0
0 0
0 0
0 0
0 0
0 0
0 0
0 0
0 0
0 0
0 0
0 0
0 0
0 0
0 0
0 0
0 0
0 0
0 0
0 0
0 0
0 0
0 0
0 0
0 0
0 0
0 0
0 0
0 0
0 0
0 0
0 0
0 0
0 0
0 0
0 0
0 0
0 0
0 0
0 0
0 0
0 0
0 0
0 0
0 0
0 0
0 0
0 0
0 0
0 0
0 0
0 0
0 0
0 0
0 0
0 0
0 0
0 0
0 0
0 0
0 0
0 0
0 0
0 0
0 0
0 0
0 0
0 0
0 0
0 0
0 0
0 0
0 0
0 0
0 0
0 0
0 0
0 0
0 0
0 0
0 0
0 0
0 0
0 0
0 0
0 0
0 0
0 0
0 0
0 0
0 0
0 0
0 0
0 0
0 0
0 0
0 0
0 0
0 0
0 0
0 0
0 0
0 0
0 0
0 0
0 0
0 0
0 0
0 0
0 0
0 0
0 0
0 0
0 0
0 0
0 0
0 0
0 0
0 0
0 0
0 0
0 0
0 0
0 0
0 0
0 0
0 0
0 0
0 0
0 0
0 0
0 0
0 0
0 0
0 0
0 0
0 0
0 0
0 0
0 0
0 0
0 0
0 0
0 0
0 0
0 0
0 0
0 0
0 0
0 0
0 0
0 0
0 0
0 0
0 0
0 0
0 0
0 0
0 0
0 0
0 0
0 0
0 0
0 0
0 0
0 0
0 0
0 0
0 0
0 0
0 0
0 0
0 0
0 0
0 0
0 0
0 0
0 0
0 0
0 0
0 0
0 0
0 0
0 0
0 0
0 0
0 0
0 0
0 0
0 0
0 0
0 0
0 0
0 0
0 0
0 0
0 0
0 0
0 0
0 0
0 0
0 0
0 0
0 0
0 0
0 0
0 0
0 0
0 0
0 0
0 0
0 0
0 0
0 0
0 0
0 0
0 0
0 0
0 0
0 0
0 0
0 0
0 0
0 0
0 0
0 0
0 0
0 0
0 0
0 0
0 0
0 0
0 0
0 0
0 0
0 0
0 0
0 0
0 0
0 0
0 0
0 0
0 0
0 0
0 0
0 0
0 0
0 0
0 0
0 0
0 0
0 0
0 0
0 0
0 0
0 0
0 0
0 0
0 0
0 0
0 0
0 0
0 0
0 0
0 0
0 0
0 0
0 0
0 0
0 0
0 0
0 0
0 0
0 0
0 0
0 0
0 0
0 0
0 0
0 0
0 0
0 0
0 0
0 0
0 0
0 0
0 0
0 0
0 0
0 0
0 0
0 0
0 0
0 0
0 0
0 0
0 0
0 0
0 0
0 0
0 0
0 0
0 0
0 0
0 0
0 0
0 0
0 0
0 0
0 0
0 0
0 0
0 0
0 0
0 0
0 0
0 0
0 0
0 0
0 0
0 0
0 0
0 0
0 0
0 0
0 0
0 0
0 0
0 0
0 0
0 0
0 0
0 0
0 0
0 0
0 0
0 0
0 0
0 0
0 0
0 0
0 0
0 0
0 0
0 0
0 0
0 0
0 0
0 0
0 0
0 0
0 0
0 0
0 0
0 0
0 0
0 0
0 0
0 0
0 0
0 0
0 0
0 0
0 0
0 0
0 0
0 0
0 0
0 0
0 0
0 0
0 0
0 0
0 0
0 0
0 0
0 0
0 0
0 0
0 0
0 0
0 0
0 0
0 0
0 0
0 0
0 0
0 0
0 0
0 0
0 0
0 0
0 0
0 0
0 0
0 0
0 0
0 0
0 0
0 0
0 0
0 0
0 0
0 0
0 0
0 0
0 0
0 0
0 0
0 0
0 0
0 0
0 0
0 0
0 0
0 0
0 0
0 0
0 0
0 0
0 0
0 0
0 0
0 0
0 0
0 0
0 0
0 0
0 0
0 0
0 0
0 0
0 0
0 0
0 0
0 0
0 0
0 0
0 0
0 0
0 0
0 0
0 0
0 0
0 0
0 0
0 0
0 0
0 0
0 0
0 0
0 0
0 0
0 0
0 0
0 0
0 0
0 0
0 0
0 0
0 0
0 0
0 0
0 0
0 0
0 0
0 0
0 0
0 0
0 0
0 0
0 0
0 0
0 0
0 0
0 0
0 0
0 0
0 0
0 0
0 0
0 0
0 0
0 0
0 0
0 0
0 0
0 0
0 0
0 0
0 0
0 0
0 0
0 0
0 0
0 0
0 0
0 0
0 0
0 0
0 0
0 0
0 0
0 0
0 0
0 0
0 0
0 0
0 0
0 0
0 0
0 0
0 0
0 0
0 0
0 0
0 0
0 0
0 0
0 0
0 0
0 0
0 0
0 0
0 0
0 0
0 0
0 0
0 0
0 0
0 0
0 0
0 0
0 0
0 0
0 0
0 0
0 0
0 0
0 0
0 0
0 0
0 0
0 0
0 0
0 0
0 0
0 0
0 0
0 0
0 0
0 0
0 0
0 0
0 0
0 0
0 0
0 0
0 0
0 0
0 0
0 0
0 0
0 0
0 0
0 0
0 0
0 0
0 0
0 0
0 0
0 0
0 0
0 0
0 0
0 0
0 0
0 0
0 0
0 0
0 0
0 0
0 0
0 0
0 0
0 0
0 0
0 0
0 0
0 0
0 0
0 0
0 0
0 0
0 0
0 0
0 0
0 0
0 0
0 0
0 0
0 0
0 0
0 0
0 0
0 0
0 0
0 0
0 0
0 0
0 0
0 0
0 0
0 0
0 0
0 0
0 0
0 0
0 0
0 0
0 0
0 0
0 0
0 0
0 0
0 0
0 0
0 0
0 0
0 0
0 0
0 0
0 0
0 0
0 0
0 0
0 0
0 0
0 0
0 0
0 0
0 0
0 0
0 0
0 0
0 0
0 0
0 0
0 0
0 0
0 0
0 0
0 0
0 0
0 0
0 0
0 0
0 0
0 0
0 0
0 0
0 0
0 0
0 0
0 0
0 0
0 0
0 0
0 0
0 0
0 0
0 0
0 0
0 0
0 0
0 0
0 0
0 0
0 0
0 0
0 0
0 0
0 0
0 0
0 0
0 0
0 0
0 0
0 0
0 0
0 0
0 0
0 0
0 0
0 0
0 0
0 0
0 0
0 0
0 0
0 0
0 0
0 0
0 0
0 0
0 0
0 0
0 0
0 0
0 0
0 0
0 0
0 0
0 0
0 0
0 0
0 0
0 0
0 0
0 0
0 0
0 0
0 0
0 0
0 0
0 0
0 0
0 0
0 0
0 0
0 0
0 0
0 0
0 0
0 0
0 0
0 0
0 0
0 0
0 0
0 0
0 0
0 0
0 0
0 0
0 0
0 0
0 0
0 0
0 0
0 0
0 0
0 0
0 0
0 0
0 0
0 0
0 0
0 0
0 0
0 0
0 0
0 0
0 0
0 0
0 0
0 0
0 0
0 0
0 0
0 0
0 0
0 0
0 0
0 0
0 0
0 0
0 0
0 0
0 0
0 0
0 0
0 0
0 0
0 0
0 0
0 0
0 0
0 0
0 0
0 0
0 0
0 0
0 0
0 0
0 0
0 0
0 0
0 0
0 0
0 0
0 0
0 0
0 0
0 0
0 0
0 0
0 0
0 0
0 0
0 0
0 0
0 0
0 0
0 0
0 0
0 0
0 0
0 0
0 0
0 0
0 0
0 0
0 0
0 0
0 0
0 0
0 0
0 0
0 0
0 0
0 0
0 0
0 0
0 0
0 0
0 0
0 0
0 0
0 0
0 0
0 0
0 0
0 0
0 0
0 0
0 0
0 0
0 0
0 0
0 0
0 0
0 0
0 0
0 0
0 0
0 0
0 0
0 0
0 0
0 0
0 0
0 0
0 0
0 0
0 0
0 0
0 0
0 0
0 0
0 0
0 0
0 0
0 0
0 0
0 0
0 0
0 0
0 0
0 0
0 0
0 0
0 0
0 0
0 0
0 0
0 0
0 0
0 0
0 0
0 0
0 0
0 0
0 0
0 0
0 0
0 0
0 0
0 0
0 0
0 0
0 0
0 0
0 0
0 0
0 0
0 0
0 0
0 0
0 0
0 0
0 0
0 0
0 0
0 0
0 0
0 0
0 0
0 0
0 0
0 0
0 0
0 0
0 0
0 0
0 0
0 0
0 0
0 0
0 0
0 0
0 0
0 0
0 0
0 0
0 0
0 0
0 0
0 0
0 0
0 0
0 0
0 0
0 0
0 0
0 0
0 0
0 0
0 0
0 0
0 0
0 0
0 0
0 0
0 0
0 0
0 0
0 0
0 0
0 0
0 0
0 0
0 0
0 0
0 0
0 0
0 0
0 0
0 0
0 0
0 0
0 0
0 0
0 0
0 0
0 0
0 0
0 0
0 0
0 0
0 0
0 0
0 0
0 0
0 0
0 0
0 0
0 0
0 0
0 0
0 0
0 0
0 0
0 0
0 0
0 0
0 0
0 0
0 0
0 0
0 0
0 0
0 0
0 0
0 0
0 0
0 0
0 0
0 0
0 0
0 0
0 0
0 0
0 0
0 0
0 0
0 0
0 0
0 0
0 0
0 0
0 0
0 0
0 0
0 0
0 0
0 0
0 0
0 0
0 0
0 0
0 0
0 0
0 0
0 0
0 0
0 0
0 0
0 0
0 0
0 0
0 0
0 0
0 0
0 0
0 0
0 0
0 0
0 0
0 0
0 0
0 0
0 0
0 0
0 0
0 0
0 0
0 0
0 0
0 0
0 0
0 0
0 0
0 0
0 0
0 0
0 0
0 0
0 0
0 0
0 0
0 0
0 0
0 0
0 0
0 0
0 0
0 0
0 0
0 0
0 0
0 0
0 0
0 0
0 0
0 0
0 0
0 0
0 0
0 0
0 0
0 0
0 0
0 0
0 0
0 0
0 0
0 0
0 0
0 0
0 0
0 0
0 0
0 0
0 0
0 0
0 0
0 0
0 0
0 0
0 0
0 0
0 0
0 0
0 0
0 0
0 0
0 0
0 0
0 0
0 0
0 0
0 0
0 0
0 0
0 0
0 0
0 0
0 0
0 0
0 0
0 0
0 0
0 0
0 0
0 0
0 0
0 0
0 0
0 0
0 0
0 0
0 0
0 0
0 0
0 0
0 0
0 0
0 0
0 0
0 0
0 0
0 0
0 0
0 0
0 0
0 0
0 0
0 0
0 0
0 0
0 0
0 0
0 0
0 0
0 0
0 0
0 0
0 0
0 0
0 0
0 0
0 0
0 0
0 0
0 0
0 0
0 0
0 0
0 0
0 0
0 0
0 0
0 0
0 0
0 0
0 0
0 0
0 0
0 0
0 0
0 0
0 0
0 0
0 0
0 0
0 0
0 0
0 0
0 0
0 0
0 0
0 0
0 0
0 0
0 0
0 0
0 0
0 0
0 0
0 0
0 0
0 0
0 0
0 0
0 0
0 0
0 0
0 0
0 0
0 0
0 0
0 0
0 0
0 0
0 0
0 0
0 0
0 0
0 0
0 0
0 0
0 0
0 0
0 0
0 0
0 0
0 0
0 0
0 0
0 0
0 0
0 0
0 0
0 0
0 0
0 0
0 0
0 0
0 0
0 0
0 0
0 0
0 0
0 0
0 0
0 0
0 0
0 0
0 0
0 0
0 0
0 0
0 0
0 0
0 0
0 0
0 0
0 0
0 0
0 0
0 0
0 0
0 0
0 0
0 0
0 0
0 0
0 0
0 0
0 0
0 0
0 0
0 0
0 0
0 0
0 0
0 0
0 0
0 0
0 0
0 0
0 0
0 0
0 0
0 0
0 0
0 0
0 0
0 0
0 0
0 0
0 0
0 0
0 0
0 0
0 0
0 0
0 0
0 0
0 0
0 0
0 0
0 0
0 0
0 0
0 0
0 0
0 0
0 0
0 0
0 0
0 0
0 0
0 0
0 0
0 0
0 0
0 0
0 0
0 0
0 0
0 0
0 0
0 0
0 0
0 0
0 0
0 0
0 0
0 0
0 0
0 0
0 0
0 0
0 0
0 0
0 0
0 0
0 0
0 0
0 0
0 0
0 0
0 0
0 0
0 0
0 0
0 0
0 0
0 0
0 0
0 0
0 0
0 0
0 0
0 0
0 0
0 0
0 0
0 0
0 0
0 0
0 0
0 0
0 0
0 0
0 0
0 0
0 0
0 0
0 0
0 0
0 0
0 0
0 0
0 0
0 0
0 0
0 0
0 0
0 0
0 0
0 0
0 0
0 0
0 0
0 0
0 0
0 0
0 0
0 0
0 0
0 0
0 0
0 0
0 0
0 0
0 0
0 0
0 0
0 0
0 0
0 0
0 0
0 0
0 0
0 0
0 0
0 0
0 0
0 0
0 0
0 0
0 0
0 0
0 0
0 0
0 0
0 0
0 0
0 0
0 0
0 0
0 0
0 0
0 0
0 0
0 0
0 0
0 0
0 0
0 0
0 0
0 0
0 0
0 0
0 0
0 0
0 0
0 0
0 0
0 0
0 0
0 0
0 0
0 0
0 0
0 0
0 0
0 0
0 0
0 0
0 0
0 0
0 0
0 0
0 0
0 0
0 0
0 0
0 0
0 0
0 0
0 0
0 0
0 0
0 0
0 0
0 0
0 0
0 0
0 0
0 0
0 0
0 0
0 0
0 0
0 0
0 0
0 0
0 0
0 0
0 0
0 0
0 0
0 0
0 0
0 0
0 0
0 0
0 0
0 0
0 0
0 0
0 0
0 0
0 0
0 0
0 0
0 0
0 0
0 0
0 0
0 0
0 0
0 0
0 0
0 0
0 0
0 0
0 0
0 0
0 0
0 0
0 0
0 0
0 0
0 0
0 0
0 0
0 0
0 0
0 0
0 0
0 0
0 0
0 0
0 0
0 0
0 0
0 0
0 0
0 0
0 0
0 0
0 0
0 0
0 0
0 0
0 0
0 0
0 0
0 0
0 0
0 0
0 0
0 0
0 0
0 0
0 0
0 0
0 0
0 0
0 0
0 0
0 0
0 0
0 0
0 0
0 0
0 0
0 0
0 0
0 0
0 0
0 0
0 0
0 0
0 0
0 0
0 0
0 0
0 0
0 0
0 0
0 0
0 0
0 0
0 0
0 0
0 0
0 0
0 0
0 0
0 0
0 0
0 0
0 0
0 0
0 0
0 0
0 0
0 0
0 0
0 0
0 0
0 0
0 0
0 0
0 0
0 0
0 0
0 0
0 0
0 0
0 0
0 0
0 0
0 0
0 0
0 0
0 0
0 0
0 0
0 0
0 0
0 0
0 0
0 0
0 0
0 0
0 0
0 0
0 0
0 0
0 0
0 0
0 0
0 0
0 0
0 0
0 0
0 0
0 0
0 0
0 0
0 0
0 0
0 0
0 0
0 0
0 0
0 0
0 0
0 0
0 0
0 0
0 0
0 0
0 0
0 0
0 0
0 0
0 0
0 0
0 0
0 0
0 0
0 0
0 0
0 0
0 0
0 0
0 0
0 0
0 0
0 0
0 0
0 0
0 0
0 0
0 0
0 0
0 0
0 0
0 0
0 0
0 0
0 0
0 0
0 0
0 0
0 0
0 0
0 0
0 0
0 0
0 0
0 0
0 0
0 0
0 0
0 0
0 0
0 0
0 0
0 0
0 0
0 0
0 0
0 0
0 0
0 0
0 0
0 0
0 0
0 0
0 0
0 0
0 0
0 0
0 0
0 0
0 0
0 0
0 0
0 0
0 0
0 0
0 0
0 0
0 0
0 0
0 0
0 0
0 0
0 0
0 0
0 0
0 0
0 0
0 0
0 0
0 0
0 0
0 0
0 0
0 0
0 0
0 0
0 0
0 0
0 0
0 0
0 0
0 0
0 0
0 0
0 0
0 0
0 0
0 0
0 0
0 0
0 0
0 0
0 0
0 0
0 0
0 0
0 0
0 0
0 0
0 0
0 0
0 0
0 0
0 0
0 0
0 0
0 0
0 0
0 0
0 0
0 0
0 0
0 0
0 0
0 0
0 0
0 0
0 0
0 0
0 0
0 0
0 0
0 0
0 0
0 0
0 0
0 0
0 0
0 0
0 0
0 0
0 0
0 0
0 0
0 0
0 0
0 0
0 0
0 0
0 0
0 0
0 0
0 0
0 0
0 0
0 0
0 0
0 0
0 0
0 0
0 0
0 0
0 0
0 0
0 0
0 0
0 0
0 0
0 0
0 0
0 0
0 0
0 0
0 0
0 0
0 0
0 0
0 0
0 0
0 0
0 0
0 0
0 0
0 0
0 0
0 0
0 0
0 0
0 0
0 0
0 0
0 0
0 0
0 0
0 0
0 0
0 0
0 0
0 0
0 0
0 0
0 0
0 0
0 0
0 0
0 0
0 0
0 0
0 0
0 0
0 0
0 0
0 0
0 0
0 0
0 0
0 0
0 0
0 0
0 0
0 0
0 0
0 0
0 0
0 0
0 0
0 0
0 0
0 0
0 0
0 0
0 0
0 0
0 0
0 0
0 0
0 0
0 0
0 0
0 0
0 0
0 0
0 0
0 0
0 0
0 0
0 0
0 0
0 0
0 0
0 0
0 0
0 0
0 0
0 0
0 0
0 0
0 0
0 0
0 0
0 0
0 0
0 0
0 0
0 0
0 0
0 0
0 0
0 0
0 0
0 0
0 0
0 0
0 0
0 0
0 0
0 0
0 0
0 0
0 0
0 0
0 0
0 0
0 0
0 0
0 0
0 0
0 0
0 0
0 0
0 0
0 0
0 0
0 0
0 0
0 0
0 0
0 0
0 0
0 0
0 0
0 0
0 0
0 0
0 0
0 0
0 0
0 0
0 0
0 0
0 0
0 0
0 0
0 0
0 0
0 0
0 0
0 0
0 0
0 0
0 0
0 0
0 0
0 0
0 0
0 0
0 0
0 0
0 0
0 0
0 0
0 0
0 0
0 0
0 0
0 0
0 0
0 0
0 0
0 0
0 0
0 0
0 0
0 0
0 0
0 0
0 0
0 0
0 0
0 0
0 0
0 0
0 0
0 0
0 0
0 0
0 0
0 0
0 0
0 0
0 0
0 0
0 0
0 0
0 0
0 0
0 0
0 0
0 0
0 0
0 0
0 0
0 0
0 0
0 0
0 0
0 0
0 0
0 0
0 0
0 0
0 0
0 0
0 0
0 0
0 0
0 0
0 0
0 0
0 0
0 0
0 0
0 0
0 0
0 0
0 0
0 0
0 0
0 0
0 0
0 0
0 0
0 0
0 0
0 0
0 0
0 0
0 0
0 0
0 0
0 0
0 0
0 0
0 0
0 0
0 0
0 0
0 0
0 0
0 0
0 0
0 0
0 0
0 0
0 0
0 0
0 0
0 0
0 0
0 0
0 0
0 0
0 0
0 0
0 0
0 0
0 0
0 0
0 0
0 0
0 0
0 0
0 0
0 0
0 0
0 0
0 0
0 0
0 0
0 0
0 0
0 0
0 0
0 0
0 0
0 0
0 0
0 0
0 0
0 0
0 0
0 0
0 0
0 0
0 0
0 0
0 0
0 0
0 0
0 0
0 0
0 0
0 0
0 0
0 0
0 0
0 0
0 0
0 0
0 0
0 0
0 0
0 0
0 0
0 0
0 0
0 0
0 0
0 0
0 0
0 0
0 0
0 0
0 0
0 0
0 0
0 0
0 0
0 0
0 0
0 0
0 0
0 0
0 0
0 0
0 0
0 0
0 0
0 0
0 0
0 0
0 0
0 0
0 0
0 0
0 0
0 0
0 0
0 0
0 0
0 0
0 0
0 0
0 0
0 0
0 0
0 0
0 0
0 0
0 0
0 0
0 0
0 0
0 0
0 0
0 0
0 0
0 0
0 0
0 0
0 0
0 0
0 0
0 0
0 0
0 0
0 0
0 0
0 0
0 0
0 0
0 0
0 0
0 0
0 0
0 0
0 0
0 0
0 0
0 0
0 0
0 0
0 0
0 0
0 0
0 0
0 0
0 0
0 0
0 0
0 0
0 0
0 0
0 0
0 0
0 0
0 0
0 0
0 0
0 0
0 0
0 0
0 0
0 0
0 0
0 0
0 0
0 0
0 0
0 0
0 0
0 0
0 0
0 0
0 0
0 0
0 0
0 0
0 0
0 0
0 0
0 0
0 0
0 0
0 0
0 0
0 0
0 0
0 0
0 0
0 0
0 0
0 0
0 0
0 0
0 0
0 0
0 0
0 0
0 0
0 0
0 0
0 0
0 0
0 0
0 0
0 0
0 0
0 0
0 0
0 0
0 0
0 0
0 0
0 0
0 0
0 0
0 0
0 0
0 0
0 0
0 0
0 0
0 0
0 0
0 0
0 0
0 0
0 0
0 0
0 0
0 0
0 0
0 0
0 0
0 0
0 0
0 0
0 0
0 0
0 0
0 0
0 0
0 0
0 0
0 0
0 0
0 0
0 0
0 0
0 0
0 0
0 0
0 0
0 0
0 0
0 0
0 0
0 0
0 0
0 0
0 0
0 0
0 0
0 0
0 0
0 0
0 0
0 0
0 0
0 0
0 0
0 0
0 0
0 0
0 0
0 0
0 0
0 0
0 0
0 0
0 0
0 0
0 0
0 0
0 0
0 0
0 0
0 0
0 0
0 0
0 0
0 0
0 0
0 0
0 0
0 0
0 0
0 0
0 0
0 0
0 0
0 0
0 0
0 0
0 0
0 0
0 0
0 0
0 0
0 0
0 0
0 0
0 0
0 0
0 0
0 0
0 0
0 0
0 0
0 0
0 0
0 0
0 0
0 0
0 0
0 0
0 0
0 0
0 0
0 0
0 0
0 0
0 0
0 0
0 0
0 0
0 0
0 0
0 0
0 0
0 0
0 0
0 0
0 0
0 0
0 0
0 0
0 0
0 0
0 0
0 0
0 0
0 0
0 0
0 0
0 0
0 0
0 0
0 0
0 0
0 0
0 0
0 0
0 0
0 0
0 0
0 0
0 0
0 0
0 0
0 0
0 0
0 0
0 0
0 0
0 0
0 0
0 0
0 0
0 0
0 0
0 0
0 0
0 0
0 0
0 0
0 0
0 0
0 0
0 0
0 0
0 0
0 0
0 0
0 0
0 0
0 0
0 0
0 0
0 0
0 0
0 0
0 0
0 0
0 0
0 0
0 0
0 0
0 0
0 0
0 0
0 0
0 0
0 0
0 0
0 0
0 0
0 0
0 0
0 0
0 0
0 0
0 0
0 0
0 0
0 0
0 0
0 0
0 0
0 0
0 0
0 0
0 0
0 0
0 0
0 0
0 0
0 0
0 0
0 0
0 0
0 0
0 0
0 0
0 0
0 0
0 0
0 0
0 0
0 0
0 0
0 0
0 0
0 0
0 0
0 0
0 0
0 0
0 0
0 0
0 0
0 0
0 0
0 0
0 0
0 0
0 0
0 0
0 0
0 0
0 0
0 0
0 0
0 0
0 0
0 0
0 0
0 0
0 0
0 0
0 0
0 0
0 0
0 0
0 0
0 0
0 0
0 0
0 0
0 0
0 0
0 0
0 0
0 0
0 0
0 0
0 0
0 0
0 0
0 0
0 0
0 0
0 0
0 0
0 0
0 0
0 0
0 0
0 0
0 0
0 0
0 0
0 0
0 0
0 0
0 0
0 0
0 0
0 0
0 0
0 0
0 0
0 0
0 0
0 0
0 0
0 0
0 0
0 0
0 0
0 0
0 0
0 0
0 0
0 0
0 0
0 0
0 0
0 0
0 0
0 0
0 0
0 0
0 0
0 0
0 0
0 0
0 0
0 0
0 0
0 0
0 0
0 0
0 0
0 0
0 0
0 0
0 0
0 0
0 0
0 0
0 0
0 0
0 0
0 0
0 0
0 0
0 0
0 0
0 0
0 0
0 0
0 0
0 0
0 0
0 0
0 0
0 0
0 0
0 0
0 0
0 0
0 0
0 0
0 0
0 0
0 0
0 0
0 0
0 0
0 0
0 0
0 0
0 0
0 0
0 0
0 0
0 0
0 0
0 0
0 0
0 0
0 0
0 0
0 0
0 0
0 0
0 0
0 0
0 0
0 0
0 0
0 0
0 0
0 0
0 0
0 0
0 0
0 0
0 0
0 0
0 0
0 0
0 0
0 0
0 0
0 0
0 0
0 0
0 0
0 0
0 0
0 0
0 0
0 0
0 0
0 0
0 0
0 0
0 0
0 0
0 0
0 0
0 0
0 0
0 0
0 0
0 0
0 0
0 0
0 0
0 0
0 0
0 0
0 0
0 0
0 0
0 0
0 0
0 0
0 0
0 0
0 0
0 0
0 0
0 0
0 0
0 0
0 0
0 0
0 0
0 0
0 0
0 0
0 0
0 0
0 0
0 0
0 0
0 0
0 0
0 0
0 0
0 0
0 0
0 0
0 0
0 0
0 0
0 0
0 0
0 0
0 0
0 0
0 0
0 0
0 0
0 0
0 0
0 0
0 0
0 0
0 0
0 0
0 0
0 0
0 0
0 0
0 0
0 0
0 0
0 0
0 0
0 0
0 0
0 0
0 0
0 0
0 0
0 0
0 0
0 0
0 0
0 0
0 0
0 0
0 0
0 0
0 0
0 0
0 0
0 0
0 0
0 0
0 0
0 0
0 0
0 0
0 0
0 0
0 0
0 0
0 0
0 0
0 0
0 0
0 0
0 0
0 0
0 0
0 0
0 0
0 0
0 0
0 0
0 0
0 0
0 0
0 0
0 0
0 0
0 0
0 0
0 0
0 0
0 0
0 0
0 0
0 0
0 0
0 0
0 0
0 0
0 0
0 0
0 0
0 0
0 0
0 0
0 0
0 0
0 0
0 0
0 0
0 0
0 0
0 0
0 0
0 0
0 0
0 0
0 0
0 0
0 0
0 0
0 0
0 0
0 0
0 0
0 0
0 0
0 0
0 0
0 0
0 0
0 0
0 0
0 0
0 0
0 0
0 0
0 0
0 0
0 0
0 0
0 0
0 0
0 0
0 0
0 0
0 0
0 0
0 0
0 0
0 0
0 0
0 0
0 0
0 0
0 0
0 0
0 0
0 0
0 0
0 0
0 0
0 0
0 0
0 0
0 0
0 0
0 0
0 0
0 0
0 0
0 0
0 0
0 0
0 0
0 0
0 0
0 0
0 0
0 0
0 0
0 0
0 0
0 0
0 0
0 0
0 0
0 0
0 0
0 0
0 0
0 0
0 0
0 0
0 0
0 0
0 0
0 0
0 0
0 0
0 0
0 0
0 0
0 0
0 0
0 0
0 0
0 0
0 0
0 0
0 0
0 0
0 0
0 0
0 0
0 0
0 0
0 0
0 0
0 0
0 0
0 0
0 0
0 0
0 0
0 0
0 0
0 0
0 0
0 0
0 0
0 0
0 0
0 0
0 0
0 0
0 0
0 0
0 0
0 0
0 0
0 0
0 0
0 0
0 0
0 0
0 0
0 0
0 0
0 0
0 0
0 0
0 0
0 0
0 0
0 0
0 0
0 0
0 0
0 0
0 0
0 0
0 0
0 0
0 0
0 0
0 0
0 0
0 0
0 0
0 0
0 0
0 0
0 0
0 0
0 0
0 0
0 0
0 0
0 0
0 0
0 0
0 0
0 0
0 0
0 0
0 0
0 0
0 0
0 0
0 0
0 0
0 0
0 0
0 0
0 0
0 0
0 0
0 0
0 0
0 0
0 0
0 0
0 0
0 0
0 0
0 0
0 0
0 0
0 0
0 0
0 0
0 0
0 0
0 0
0 0
0 0
0 0
0 0
0 0
0 0
0 0
0 0
0 0
0 0
0 0
0 0
0 0
0 0
0 0
0 0
0 0
0 0
0 0
0 0
0 0
0 0
0 0
0 0
0 0
0 0
0 0
0 0
0 0
0 0
0 0
0 0
0 0
0 0
0 0
0 0
0 0
0 0
0 0
0 0
0 0
0 0
0 0
0 0
0 0
0 0
0 0
0 0
0 0
0 0
0 0
0 0
0 0
0 0
0 0
0 0
0 0
0 0
0 0
0 0
0 0
0 0
0 0
0 0
0 0
0 0
0 0
0 0
0 0
0 0
0 0
0 0
0 0
0 0
0 0
0 0
0 0
0 0
0 0
0 0
0 0
0 0
0 0
0 0
0 0
0 0
0 0
0 0
0 0
0 0
0 0
0 0
0 0
0 0
0 0
0 0
0 0
0 0
0 0
0 0
0 0
0 0
0 0
0 0
0 0
0 0
0 0
0 0
0 0
0 0
0 0
0 0
0 0
0 0
0 0
0 0
0 0
0 0
0 0
0 0
0 0
0 0
0 0
0 0
0 0
0 0
0 0
0 0
0 0
0 0
0 0
0 0
0 0
0 0
0 0
0 0
0 0
0 0
0 0
0 0
0 0
0 0
0 0
0 0
0 0
0 0
0 0
0 0
0 0
0 0
0 0
0 0
0 0
0 0
0 0
0 0
0 0
0 0
0 0
0 0
0 0
0 0
0 0
0 0
0 0
0 0
0 0
0 0
0 0
0 0
0 0
0 0
0 0
0 0
0 0
0 0
0 0
0 0
0 0
0 0
0 0
0 0
0 0
0 0
0 0
0 0
0 0
0 0
0 0
0 0
0 0
0 0
0 0
0 0
0 0
0 0
0 0
0 0
0 0
0 0
0 0
0 0
0 0
0 0
0 0
0 0
0 0
0 0
0 0
0 0
0 0
0 0
0 0
0 0
0 0
0 0
0 0
0 0
0 0
0 0
0 0
0 0
0 0
0 0
0 0
0 0
0 0
0 0
0 0
0 0
0 0
0 0
0 0
0 0
0 0
0 0
0 0
0 0
0 0
0 0
0 0
0 0
0 0
0 0
0 0
0 0
0 0
0 0
0 0
0 0
0 0
0 0
0 0
0 0
0 0
0 0
0 0
0 0
0 0
0 0
0 0
0 0
0 0
0 0
0 0
0 0
0 0
0 0
0 0
0 0
0 0
0 0
0 0
0 0
0 0
0 0
0 0
0 0
0 0
0 0
0 0
0 0
0 0
0 0
0 0
0 0
0 0
0 0
0 0
0 0
0 0
0 0
0 0
0 0
0 0
0 0
0 0
0 0
0 0
0 0
0 0
0 0
0 0
0 0
0 0
0 0
0 0
0 0
0 0
0 0
0 0
0 0
0 0
0 0
0 0
0 0
0 0
0 0
0 0
0 0
0 0
0 0
0 0
0 0
0 0
0 0
0 0
0 0
0 0
0 0
0 0
0 0
0 0
0 0
0 0
0 0
0 0
0 0
0 0
0 0
0 0
0 0
0 0
0 0
0 0
0 0
0 0
0 0
0 0
0 0
0 0
0 0
0 0
0 0
0 0
0 0
0 0
0 0
0 0
0 0
0 0
0 0
0 0
0 0
0 0
0 0
0 0
0 0
0 0
0 0
0 0
0 0
0 0
0 0
0 0
0 0
0 0
0 0
0 0
0 0
0 0
0 0
0 0
0 0
0 0
0 0
0 0
0 0
0 0
0 0
0 0
0 0
0 0
0 0
0 0
0 0
0 0
0 0
0 0
0 0
0 0
0 0
0 0
0 0
0 0
0 0
0 0
0 0
0 0
0 0
0 0
0 0
0 0
0 0
0 0
0 0
0 0
0 0
0 0
0 0
0 0
0 0
0 0
0 0
0 0
0 0
0 0
0 0
0 0
0 0
0 0
0 0
0 0
0 0
0 0
0 0
0 0
0 0
0 0
0 0
0 0
0 0
0 0
0 0
0 0
0 0
0 0
0 0
0 0
0 0
0 0
0 0
0 0
0 0
0 0
0 0
0 0
0 0
0 0
0 0
0 0
0 0
0 0
0 0
0 0
0 0
0 0
0 0
0 0
0 0
0 0
0 0
0 0
0 0
0 0
0 0
0 0
0 0
0 0
0 0
0 0
0 0
0 0
0 0
0 0
0 0
0 0
0 0
0 0
0 0
0 0
0 0
0 0
0 0
0 0
0 0
0 0
0 0
0 0
0 0
0 0
0 0
0 0
0 0
0 0
0 0
0 0
0 0
0 0
0 0
0 0
0 0
0 0
0 0
0 0
0 0
0 0
0 0
0 0
0 0
0 0
0 0
0 0
0 0
0 0
0 0
0 0
0 0
0 0
0 0
0 0
0 0
0 0
0 0
0 0
0 0
0 0
0 0
0 0
0 0
0 0
0 0
0 0
0 0
0 0
0 0
0 0
0 0
0 0
0 0
0 0
0 0
0 0
0 0
0 0
0 0
0 0
0 0
0 0
0 0
0 0
0 0
0 0
0 0
0 0
0 0
0 0
0 0
0 0
0 0
0 0
0 0
0 0
0 0
0 0
0 0
0 0
0 0
0 0
0 0
0 0
0 0
0 0
0 0
0 0
0 0
0 0
0 0
0 0
0 0
0 0
0 0
0 0
0 0
0 0
0 0
0 0
0 0
0 0
0 0
0 0
0 0
0 0
0 0
0 0
0 0
0 0
0 0
0 0
0 0
0 0
0 0
0 0
0 0
0 0
0 0
0 0
0 0
0 0
0 0
0 0
0 0
0 0
0 0
0 0
0 0
0 0
0 0
0 0
0 0
0 0
0 0
0 0
0 0
0 0
0 0
0 0
0 0
0 0
0 0
0 0
0 0
0 0
0 0
0 0
0 0
0 0
0 0
0 0
0 0
0 0
0 0
0 0
0 0
0 0
0 0
0 0
0 0
0 0
0 0
0 0
0 0
0 0
0 0
0 0
0 0
0 0
0 0
0 0
0 0
0 0
0 0
0 0
0 0
0 0
0 0
0 0
0 0
0 0
0 0
0 0
0 0
0 0
0 0
0 0
0 0
0 0
0 0
0 0
0 0
0 0
0 0
0 0
0 0
0 0
0 0
0 0
0 0
0 0
0 0
0 0
0 0
0 0
0 0
0 0
0 0
0 0
0 0
0 0
0 0
0 0
0 0
0 0
0 0
0 0
0 0
0 0
0 0
0 0
0 0
0 0
0 0
0 0
0 0
0 0
0 0
0 0
0 0
0 0
0 0
0 0
0 0
0 0
0 0
0 0
0 0
0 0
0 0
0 0
0 0
0 0
0 0
0 0
0 0
0 0
0 0
0 0
0 0
0 0
0 0
0 0
0 0
0 0
0 0
0 0
0 0
0 0
0 0
0 0
0 0
0 0
0 0
0 0
0 0
0 0
0 0
0 0
0 0
0 0
0 0
0 0
0 0
0 0
0 0
0 0
0 0
0 0
0 0
0 0
0 0
0 0
0 0
0 0
0 0
0 0
0 0
0 0
0 0
0 0
0 0
0 0
0 0
0 0
0 0
0 0
0 0
0 0
0 0
0 0
0 0
0 0
0 0
0 0
0 0
0 0
0 0
0 0
0 0
0 0
0 0
0 0
0 0
0 0
0 0
0 0
0 0
0 0
0 0
0 0
0 0
0 0
0 0
0 0
0 0
0 0
0 0
0 0
0 0
0 0
0 0
0 0
0 0
0 0
0 0
0 0
0 0
0 0
0 0
0 0
0 0
0 0
0 0
0 0
0 0
0 0
0 0
0 0
0 0
0 0
0 0
0 0
0 0
0 0
0 0
0 0
0 0
0 0
0 0
0 0
0 0
0 0
0 0
0 0
0 0
0 0
0 0
0 0
0 0
0 0
0 0
0 0
0 0
0 0
0 0
0 0
0 0
0 0
0 0
0 0
0 0
0 0
0 0
0 0
0 0
0 0
0 0
0 0
0 0
0 0
0 0
0 0
0 0
0 0
0 0
0 0
0 0
0 0
0 0
0 0
0 0
0 0
0 0
0 0
0 0
0 0
0 0
0 0
0 0
0 0
0 0
0 0
0 0
0 0
0 0
0 0
0 0
0 0
0 0
0 0
0 0
0 0
0 0
0 0
0 0
0 0
0 0
0 0
0 0
0 0
0 0
0 0
0 0
0 0
0 0
0 0
0 0
0 0
0 0
0 0
0 0
0 0
0 0
0 0
0 0
0 0
0 0
0 0
0 0
0 0
0 0
0 0
0 0
0 0
0 0
0 0
0 0
0 0
0 0
0 0
0 0
0 0
0 0
0 0
0 0
0 0
0 0
0 0
0 0
0 0
0 0
0 0
0 0
0 0
0 0
0 0
0 0
0 0
0 0
0 0
0 0
0 0
0 0
0 0
0 0
0 0
0 0
0 0
0 0
0 0
0 0
0 0
0 0
0 0
0 0
0 0
0 0
0 0
0 0
0 0
0 0
0 0
0 0
0 0
0 0
0 0
0 0
0 0
0 0
0 0
0 0
0 0
0 0
0 0
0 0
0 0
0 0
0 0
0 0
0 0
0 0
0 0
0 0
0 0
0 0
0 0
0 0
0 0
0 0
0 0
0 0
0 0
0 0
0 0
0 0
0 0
0 0
0 0
0 0
0 0
0 0
0 0
0 0
0 0
0 0
0 0
0 0
0 0
0 0
0 0
0 0
0 0
0 0
0 0
0 0
0 0
0 0
0 0
0 0
0 0
0 0
0 0
0 0
0 0
0 0
0 0
0 0
0 0
0 0
0 0
0 0
0 0
0 0
0 0
0 0
0 0
0 0
0 0
0 0
0 0
0 0
0 0
0 0
0 0
0 0
0 0
0 0
0 0
0 0
0 0
0 0
0 0
0 0
0 0
0 0
0 0
0 0
0 0
0 0
0 0
0 0
0 0
0 0
0 0
0 0
0 0
0 0
0 0
0 0
0 0
0 0
0 0
0 0
0 0
0 0
0 0
0 0
0 0
0 0
0 0
0 0
0 0
0 0
0 0
0 0
0 0
0 0
0 0
0 0
0 0
0 0
0 0
0 0
0 0
0 0
0 0
0 0
0 0
0 0
0 0
0 0
0 0
0 0
0 0
0 0
0 0
0 0
0 0
0 0
0 0
0 0
0 0
0 0
0 0
0 0
0 0
0 0
0 0
0 0
0 0
0 0
0 0
0 0
0 0
0 0
0 0
0 0
0 0
0 0
0 0
0 0
0 0
0 0
0 0
0 0
0 0
0 0
0 0
0 0
0 0
0 0
0 0
0 0
0 0
0 0
0 0
0 0
0 0
0 0
0 0
0 0
0 0
0 0
0 0
0 0
0 0
0 0
0 0
0 0
0 0
0 0
0 0
0 0
0 0
0 0
0 0
0 0
0 0
0 0
0 0
0 0
0 0
0 0
0 0
0 0
0 0
0 0
0 0
0 0
0 0
0 0
0 0
0 0
0 0
0 0
0 0
0 0
0 0
0 0
0 0
0 0
0 0
0 0
0 0
0 0
0 0
0 0
0 0
0 0
0 0
0 0
0 0
0 0
0 0
0 0
0 0
0 0
0 0
0 0
0 0
0 0
0 0
0 0
0 0
0 0
0 0
0 0
0 0
0 0
0 0
0 0
0 0
0 0
0 0
0 0
0 0
0 0
0 0
0 0
0 0
0 0
0 0
0 0
0 0
0 0
0 0
0 0
0 0
0 0
0 0
0 0
0 0
0 0
0 0
0 0
0 0
0 0
0 0
0 0
0 0
0 0
0 0
0 0
0 0
0 0
0 0
0 0
0 0
0 0
0 0
0 0
0 0
0 0
0 0
0 0
0 0
0 0
0 0
0 0
0 0
0 0
0 0
0 0
0 0
0 0
0 0
0 0
0 0
0 0
0 0
0 0
0 0
0 0
0 0
0 0
0 0
0 0
0 0
0 0
0 0
0 0
0 0
0 0
0 0
0 0
0 0
0 0
0 0
0 0
0 0
0 0
0 0
0 0
0 0
0 0
0 0
0 0
0 0
0 0
0 0
0 0
0 0
0 0
0 0
0 0
0 0
0 0
0 0
0 0
0 0
0 0
0 0
0 0
0 0
0 0
0 0
0 0
0 0
0 0
0 0
0 0
0 0
0 0
0 0
0 0
0 0
0 0
0 0
0 0
0 0
0 0
0 0
0 0
0 0
0 0
0 0
0 0
0 0
0 0
0 0
0 0
0 0
0 0
0 0
0 0
0 0
0 0
0 0
0 0
0 0
0 0
0 0
0 0
0 0
0 0
0 0
0 0
0 0
0 0
0 0
0 0
0 0
0 0
0 0
0 0
0 0
0 0
0 0
0 0
0 0
0 0
0 0
0 0
0 0
0 0
0 0
0 0
0 0
0 0
0 0
0 0
0 0
0 0
0 0
0 0
0 0
0 0
0 0
0 0
0 0
0 0
0 0
0 0
0 0
0 0
0 0
0 0
0 0
0 0
0 0
0 0
0 0
0 0
0 0
0 0
0 0
0 0
0 0
0 0
0 0
0 0
0 0
0 0
0 0
0 0
0 0
0 0
0 0
0 0
0 0
0 0
0 0
0 0
0 0
0 0
0 0
0 0
0 0
0 0
0 0
0 0
0 0
0 0
0 0
0 0
0 0
0 0
0 0
0 0
0 0
0 0
0 0
0 0
0 0
0 0
0 0
0 0
0 0
0 0
0 0
0 0
0 0
0 0
0 0
0 0
0 0
0 0
0 0
0 0
0 0
0 0
0 0
0 0
0 0
0 0
0 0
0 0
0 0
0 0
0 0
0 0
0 0
0 0
0 0
0 0
0 0
0 0
0 0
0 0
0 0
0 0
0 0
0 0
0 0
0 0
0 0
0 0
0 0
0 0
0 0
0 0
0 0
0 0
0 0
0 0
0 0
0 0
0 0
0 0
0 0
0 0
0 0
0 0
0 0
0 0
0 0
0 0
0 0
0 0
0 0
0 0
0 0
0 0
0 0
0 0
0 0
0 0
0 0
0 0
0 0
0 0
0 0
0 0
0 0
0 0
0 0
0 0
0 0
0 0
0 0
0 0
0 0
0 0
0 0
0 0
0 0
0 0
0 0
0 0
0 0
0 0
0 0
0 0
0 0
0 0
0 0
0 0
0 0
0 0
0 0
0 0
0 0
0 0
0 0
0 0
0 0
0 0
0 0
0 0
0 0
0 0
0 0
0 0
0 0
0 0
0 0
0 0
0 0
0 0
0 0
0 0
0 0
0 0
0 0
0 0
0 0
0 0
0 0
0 0
0 0
0 0
0 0
0 0
0 0
0 0
0 0
0 0
0 0
0 0
0 0
0 0
0 0
0 0
0 0
0 0
0 0
0 0
0 0
0 0
0 0
0 0
0 0
0 0
0 0
0 0
0 0
0 0
0 0
0 0
0 0
0 0
0 0
0 0
0 0
0 0
0 0
0 0
0 0
0 0
0 0
0 0
0 0
0 0
0 0
0 0
0 0
0 0
0 0
0 0
0 0
0 0
0 0
0 0
0 0
0 0
0 0
0 0
0 0
0 0
0 0
0 0
0 0
0 0
0 0
0 0
0 0
0 0
0 0
0 0
0 0
0 0
0 0
0 0
0 0
0 0
0 0
0 0
0 0
0 0
0 0
0 0
0 0
0 0
0 0
0 0
0 0
0 0
0 0
0 0
0 0
0 0
0 0
0 0
0 0
0 0
0 0
0 0
0 0
0 0
0 0
0 0
0 0
0 0
0 0
0 0
0 0
0 0
0 0
0 0
0 0
0 0
0 0
0 0
0 0
0 0
0 0
0 0
0 0
0 0
0 0
0 0
0 0
0 0
0 0
0 0
0 0
0 0
0 0
0 0
0 0
0 0
0 0
0 0
0 0
0 0
0 0
0 0
0 0
0 0
0 0
0 0
0 0
0 0
0 0
0 0
0 0
0 0
0 0
0 0
0 0
0 0
0 0
0 0
0 0
0 0
0 0
0 0
0 0
0 0
0 0
0 0
0 0
0 0
0 0
0 0
0 0
0 0
0 0
0 0
0 0
0 0
0 0
0 0
0 0
0 0
0 0
0 0
0 0
0 0
0 0
0 0
0 0
0 0
0 0
0 0
0 0
0 0
0 0
0 0
0 0
0 0
0 0
0 0
0 0
0 0
0 0
0 0
0 0
0 0
0 0
0 0
0 0
0 0
0 0
0 0
0 0
0 0
0 0
0 0
0 0
0 0
0 0
0 0
0 0
0 0
0 0
0 0
0 0
0 0
0 0
0 0
0 0
0 0
0 0
0 0
0 0
0 0
0 0
0 0
0 0
0 0
0 0
0 0
0 0
0 0
0 0
0 0
0 0
0 0
0 0
0 0
0 0
0 0
0 0
0 0
0 0
0 0
0 0
0 0
0 0
0 0
0 0
0 0
0 0
0 0
0 0
0 0
0 0
0 0
0 0
0 0
0 0
0 0
0 0
0 0
0 0
0 0
0 0
0 0
0 0
0 0
0 0
0 0
0 0
0 0
0 0
0 0
0 0
0 0
0 0
0 0
0 0
0 0
0 0
0 0
0 0
0 0
0 0
0 0
0 0
0 0
0 0
0 0
0 0
0 0
0 0
0 0
0 0
0 0
0 0
0 0
0 0
0 0
0 0
0 0
0 0
0 0
0 0
0 0
0 0
0 0
0 0
0 0
0 0
0 0
0 0
0 0
0 0
0 0
0 0
0 0
0 0
0 0
0 0
0 0
0 0
0 0
0 0
0 0
0 0
0 0
0 0
0 0
0 0
0 0
0 0
0 0
0 0
0 0
0 0
0 0
0 0
0 0
0 0
0 0
0 0
0 0
0 0
0 0
0 0
0 0
0 0
0 0
0 0
0 0
0 0
0 0
0 0
0 0
0 0
0 0
0 0
0 0
0 0
0 0
0 0
0 0
0 0
0 0
0 0
0 0
0 0
0 0
0 0
0 0
0 0
0 0
0 0
0 0
0 0
0 0
0 0
0 0
0 0
0 0
0 0
0 0
0 0
0 0
0 0
0 0
0 0
0 0
0 0
0 0
0 0
0 0
0 0
0 0
0 0
0 0
0 0
0 0
0 0
0 0
0 0
0 0
0 0
0 0
0 0
0 0
0 0
0 0
0 0
0 0
0 0
0 0
0 0
0 0
0 0
0 0
0 0
0 0
0 0
0 0
0 0
0 0
0 0
0 0
0 0
0 0
0 0
0 0
0 0
0 0
0 0
0 0
0 0
0 0
0 0
0 0
0 0
0 0
0 0
0 0
0 0
0 0
0 0
0 0
0 0
0 0
0 0
0 0
0 0
0 0
0 0
0 0
0 0
0 0
0 0
0 0
0 0
0 0
0 0
0 0
0 0
0 0
0 0
0 0
0 0
0 0
0 0
0 0
0 0
0 0
0 0
0 0
0 0
0 0
0 0
0 0
0 0
0 0
0 0
0 0
0 0
0 0
0 0
0 0
0 0
0 0
0 0
0 0
0 0
0 0
0 0
0 0
0 0
0 0
0 0
0 0
0 0
0 0
0 0
0 0
0 0
0 0
0 0
0 0
0 0
0 0
0 0
0 0
0 0
0 0
0 0
0 0
0 0
0 0
0 0
0 0
0 0
0 0
0 0
0 0
0 0
0 0
0 0
0 0
0 0
0 0
0 0
0 0
0 0
0 0
0 0
0 0
0 0
0 0
0 0
0 0
0 0
0 0
0 0
0 0
0 0
0 0
0 0
0 0
0 0
0 0
0 0
0 0
0 0
0 0
0 0
0 0
0 0
0 0
0 0
0 0
0 0
0 0
0 0
0 0
0 0
0 0
0 0
0 0
0 0
0 0
0 0
0 0
0 0
0 0
0 0
0 0
0 0
0 0
0 0
0 0
0 0
0 0
0 0
0 0
0 0
0 0
0 0
0 0
0 0
0 0
0 0
0 0
0 0
0 0
0 0
0 0
0 0
0 0
0 0
0 0
0 0
0 0
0 0
0 0
0 0
0 0
0 0
0 0
0 0
0 0
0 0
0 0
0 0
0 0
0 0
0 0
0 0
0 0
0 0
0 0
0 0
0 0
0 0
0 0
0 0
0 0
0 0
0 0
0 0
0 0
0 0
0 0
0 0
0 0
0 0
0 0
0 0
0 0
0 0
0 0
0 0
0 0
0 0
0 0
0 0
0 0
0 0
0 0
0 0
0 0
0 0
0 0
0 0
0 0
0 0
0 0
0 0
0 0
0 0
0 0
0 0
0 0
0 0
0 0
0 0
0 0
0 0
0 0
0 0
0 0
0 0
0 0
0 0
0 0
0 0
0 0
0 0
0 0
0 0
0 0
0 0
0 0
0 0
0 0
0 0
0 0
0 0
0 0
0 0
0 0
0 0
0 0
0 0
0 0
0 0
0 0
0 0
0 0
0 0
0 0
0 0
0 0
0 0
0 0
0 0
0 0
0 0
0 0
0 0
0 0
0 0
0 0
0 0
0 0
0 0
0 0
0 0
0 0
0 0
0 0
0 0
0 0
0 0
0 0
0 0
0 0
0 0
0 0
0 0
0 0
0 0
0 0
0 0
0 0
0 0
0 0
0 0
0 0
0 0
0 0
0 0
0 0
0 0
0 0
0 0
0 0
0 0
0 0
0 0
0 0
0 0
0 0
0 0
0 0
0 0
0 0
0 0
0 0
0 0
0 0
0 0
0 0
0 0
0 0
0 0
0 0
0 0
0 0
0 0
0 0
0 0
0 0
0 0
0 0
0 0
0 0
0 0
0 0
0 0
0 0
0 0
0 0
0 0
0 0
0 0
0 0
0 0
0 0
0 0
0 0
0 0
0 0
0 0
0 0
0 0
0 0
0 0
0 0
0 0
0 0
0 0
0 0
0 0
0 0
0 0
0 0
0 0
0 0
0 0
0 0
0 0
0 0
0 0
0 0
0 0
0 0
0 0
0 0
0 0
0 0
0 0
0 0
0 0
0 0
0 0
0 0
0 0
0 0
0 0
0 0
0 0
0 0
0 0
0 0
0 0
0 0
0 0
0 0
0 0
0 0
0 0
0 0
0 0
0 0
0 0
0 0
0 0
0 0
0 0
0 0
0 0
0 0
0 0
0 0
0 0
0 0
0 0
0 0
0 0
0 0
0 0
0 0
0 0
0 0
0 0
0 0
0 0
0 0
0 0
0 0
0 0
0 0
0 0
0 0
0 0
0 0
0 0
0 0
0 0
0 0
0 0
0 0
0 0
0 0
0 0
0 0
0 0
0 0
0 0
0 0
0 0
0 0
0 0
0 0
0 0
0 0
0 0
0 0
0 0
0 0
0 0
0 0
0 0
0 0
0 0
0 0
0 0
0 0
0 0
0 0
0 0
0 0
0 0
0 0
0 0
0 0
0 0
0 0
0 0
0 0
0 0
0 0
0 0
0 0
0 0
0 0
0 0
0 0
0 0
0 0
0 0
0 0
0 0
0 0
0 0
0 0
0 0
0 0
0 0
0 0
0 0
0 0
0 0
0 0
0 0
0 0
0 0
0 0
0 0
0 0
0 0
0 0
0 0
0 0
0 0
0 0
0 0
0 0
0 0
0 0
0 0
0 0
0 0
0 0
0 0
0 0
0 0
0 0
0 0
0 0
0 0
0 0
0 0
0 0
0 0
0 0
0 0
0 0
0 0
0 0
0 0
0 0
0 0
0 0
0 0
0 0
0 0
0 0
0 0
0 0
0 0
0 0
0 0
0 0
0 0
0 0
0 0
0 0
0 0
0 0
0 0
0 0
0 0
0 0
0 0
0 0
0 0
0 0
0 0
0 0
0 0
0 0
0 0
0 0
0 0
0 0
0 0
0 0
0 0
0 0
0 0
0 0
0 0
0 0
0 0
0 0
0 0
0 0
0 0
0 0
0 0
0 0
0 0
0 0
0 0
0 0
0 0
0 0
0 0
0 0
0 0
0 0
0 0
0 0
0 0
0 0
0 0
0 0
0 0
0 0
0 0
0 0
0 0
0 0
0 0
0 0
0 0
0 0
0 0
0 0
0 0
0 0
0 0
0 0
0 0
0 0
0 0
0 0
0 0
0 0
0 0
0 0
0 0
0 0
0 0
0 0
0 0
0 0
0 0
0 0
0 0
0 0
0 0
0 0
0 0
0 0
0 0
0 0
0 0
0 0
0 0
0 0
0 0
0 0
0 0
0 0
0 0
0 0
0 0
0 0
0 0
0 0
0 0
0 0
0 0
0 0
0 0
0 0
0 0
0 0
0 0
0 0
0 0
0 0
0 0
0 0
0 0
0 0
0 0
0 0
0 0
0 0
0 0
0 0
0 0
0 0
0 0
0 0
0 0
0 0
0 0
0 0
0 0
0 0
0 0
0 0
0 0
0 0
0 0
0 0
0 0
0 0
0 0
0 0
0 0
0 0
0 0
0 0
0 0
0 0
0 0
0 0
0 0
0 0
0 0
0 0
0 0
0 0
0 0
0 0
0 0
0 0
0 0
0 0
0 0
0 0
0 0
0 0
0 0
0 0
0 0
0 0
0 0
0 0
0 0
0 0
0 0
0 0
0 0
0 0
0 0
0 0
0 0
0 0
0 0
0 0
0 0
0 0
0 0
0 0
0 0
0 0
0 0
0 0
0 0
0 0
0 0
0 0
0 0
0 0
0 0
0 0
0 0
0 0
0 0
0 0
0 0
0 0
0 0
0 0
0 0
0 0
0 0
0 0
0 0
0 0
0 0
0 0
0 0
0 0
0 0
0 0
0 0
0 0
0 0
0 0
0 0
0 0
0 0
0 0
0 0
0 0
0 0
0 0
0 0
0 0
0 0
0 0
0 0
0 0
0 0
0 0
0 0
0 0
0 0
0 0
0 0
0 0
0 0
0 0
0 0
0 0
0 0
0 0
0 0
0 0
0 0
0 0
0 0
0 0
0 0
0 0
0 0
0 0
0 0
0 0
0 0
0 0
0 0
0 0
0 0
0 0
0 0
0 0
0 0
0 0
0 0
0 0
0 0
0 0
0 0
0 0
0 0
0 0
0 0
0 0
0 0
0 0
0 0
0 0
0 0
0 0
0 0
0 0
0 0
0 0
0 0
0 0
0 0
0 0
0 0
0 0
0 0
0 0
0 0
0 0
0 0
0 0
0 0
0 0
0 0
0 0
0 0
0 0
0 0
0 0
0 0
0 0
0 0
0 0
0 0
0 0
0 0
0 0
0 0
0 0
0 0
0 0
0 0
0 0
0 0
0 0
0 0
0 0
0 0
0 0
0 0
0 0
0 0
0 0
0 0
0 0
0 0
0 0
0 0
0 0
0 0
0 0
0 0
0 0
0 0
0 0
0 0
0 0
0 0
0 0
0 0
0 0
0 0
0 0
0 0
0 0
0 0
0 0
0 0
0 0
0 0
0 0
0 0
0 0
0 0
0 0
0 0
0 0
0 0
0 0
0 0
0 0
0 0
0 0
0 0
0 0
0 0
0 0
0 0
0 0
0 0
0 0
0 0
0 0
0 0
0 0
0 0
0 0
0 0
0 0
0 0
0 0
0 0
0 0
0 0
0 0
0 0
0 0
0 0
0 0
0 0
0 0
0 0
0 0
0 0
0 0
0 0
0 0
0 0
0 0
0 0
0 0
0 0
0 0
0 0
0 0
0 0
0 0
0 0
0 0
0 0
0 0
0 0
0 0
0 0
0 0
0 0
0 0
0 0
0 0
0 0
0 0
0 0
0 0
0 0
0 0
0 0
0 0
0 0
0 0
0 0
0 0
0 0
0 0
0 0
0 0
0 0
0 0
0 0
0 0
0 0
0 0
0 0
0 0
0 0
0 0
0 0
0 0
0 0
0 0
0 0
0 0
0 0
0 0
0 0
0 0
0 0
0 0
0 0
0 0
0 0
0 0
0 0
0 0
0 0
0 0
0 0
0 0
0 0
0 0
0 0
0 0
0 0
0 0
0 0
0 0
0 0
0 0
0 0
0 0
0 0
0 0
0 0
0 0
0 0
0 0
0 0
0 0
0 0
0 0
0 0
0 0
0 0
0 0
0 0
0 0
0 0
0 0
0 0
0 0
0 0
0 0
0 0
0 0
0 0
0 0
0 0
0 0
0 0
0 0
0 0
0 0
0 0
0 0
0 0
0 0
0 0
0 0
0 0
0 0
0 0
0 0
0 0
0 0
0 0
0 0
0 0
0 0
0 0
0 0
0 0
0 0
0 0
0 0
0 0
0 0
0 0
0 0
0 0
0 0
0 0
0 0
0 0
0 0
0 0
0 0
0 0
0 0
0 0
0 0
0 0
0 0
0 0
0 0
0 0
0 0
0 0
0 0
0 0
0 0
0 0
0 0
0 0
0 0
0 0
0 0
0 0
0 0
0 0
0 0
0 0
0 0
0 0
0 0
0 0
0 0
0 0
0 0
0 0
0 0
0 0
0 0
0 0
0 0
0 0
0 0
0 0
0 0
0 0
0 0
0 0
0 0
0 0
0 0
0 0
0 0
0 0
0 0
0 0
0 0
0 0
0 0
0 0
0 0
0 0
0 0
0 0
0 0
0 0
0 0
0 0
0 0
0 0
0 0
0 0
0 0
0 0
0 0
0 0
0 0
0 0
0 0
0 0
0 0
0 0
0 0
0 0
0 0
0 0
0 0
0 0
0 0
0 0
0 0
0 0
0 0
0 0
0 0
0 0
0 0
0 0
0 0
0 0
0 0
0 0
0 0
0 0
0 0
0 0
0 0
0 0
0 0
0 0
0 0
0 0
0 0
0 0
0 0
0 0
0 0
0 0
0 0
0 0
0 0
0 0
0 0
0 0
0 0
0 0
0 0
0 0
0 0
0 0
0 0
0 0
0 0
0 0
0 0
0 0
0 0
0 0
0 0
0 0
0 0
0 0
0 0
0 0
0 0
0 0
0 0
0 0
0 0
0 0
0 0
0 0
0 0
0 0
0 0
0 0
0 0
0 0
0 0
0 0
0 0
0 0
0 0
0 0
0 0
0 0
0 0
0 0
0 0
0 0
0 0
0 0
0 0
0 0
0 0
0 0
0 0
0 0
0 0
0 0
0 0
0 0
0 0
0 0
0 0
0 0
0 0
0 0
0 0
0 0
0 0
0 0
0 0
0 0
0 0
0 0
0 0
0 0
0 0
0 0
0 0
0 0
0 0
0 0
0 0
0 0
0 0
0 0
0 0
0 0
0 0
0 0
0 0
0 0
0 0
0 0
0 0
0 0
0 0
0 0
0 0
0 0
0 0
0 0
0 0
0 0
0 0
0 0
0 0
0 0
0 0
0 0
0 0
0 0
0 0
0 0
0 0
0 0
0 0
0 0
0 0
0 0
0 0
0 0
0 0
0 0
0 0
0 0
0 0
0 0
0 0
0 0
0 0
0 0
0 0
0 0
0 0
0 0
0 0
0 0
0 0
0 0
0 0
0 0
0 0
0 0
0 0
0 0
0 0
0 0
0 0
0 0
0 0
0 0
0 0
0 0
0 0
0 0
0 0
0 0
0 0
0 0
0 0
0 0
0 0
0 0
0 0
0 0
0 0
0 0
0 0
0 0
0 0
0 0
0 0
0 0
0 0
0 0
0 0
0 0
0 0
0 0
0 0
0 0
0 0
0 0
0 0
0 0
0 0
0 0
0 0
0 0
0 0
0 0
0 0
0 0
0 0
0 0
0 0
0 0
0 0
0 0
0 0
0 0
0 0
0 0
0 0
0 0
0 0
0 0
0 0
0 0
0 0
0 0
0 0
0 0
0 0
0 0
0 0
0 0
0 0
0 0
0 0
0 0
0 0
0 0
0 0
0 0
0 0
0 0
0 0
0 0
0 0
0 0
0 0
0 0
0 0
0 0
0 0
0 0
0 0
0 0
0 0
0 0
0 0
0 0
0 0
0 0
0 0
0 0
0 0
0 0
0 0
0 0
0 0
0 0
0 0
0 0
0 0
0 0
0 0
0 0
0 0
0 0
0 0
0 0
0 0
0 0
0 0
0 0
0 0
0 0
0 0
0 0
0 0
0 0
0 0
0 0
0 0
0 0
0 0
0 0
0 0
0 0
0 0
0 0
0 0
0 0
0 0
0 0
0 0
0 0
0 0
0 0
0 0
0 0
0 0
0 0
0 0
0 0
0 0
0 0
0 0
0 0
0 0
0 0
0 0
0 0
0 0
0 0
0 0
0 0
0 0
0 0
0 0
0 0
0 0
0 0
0 0
0 0
0 0
0 0
0 0
0 0
0 0
0 0
0 0
0 0
0 0
0 0
0 0
0 0
0 0
0 0
0 0
0 0
0 0
0 0
0 0
0 0
0 0
0 0
0 0
0 0
0 0
0 0
0 0
0 0
0 0
0 0
0 0
0 0
0 0
0 0
0 0
0 0
0 0
0 0
0 0
0 0
0 0
0 0
0 0
0 0
0 0
0 0
0 0
0 0
0 0
0 0
0 0
0 0
0 0
0 0
0 0
0 0
0 0
0 0
0 0
0 0
0 0
0 0
0 0
0 0
0 0
0 0
0 0
0 0
0 0
0 0
0 0
0 0
0 0
0 0
0 0
0 0
0 0
0 0
0 0
0 0
0 0
0 0
0 0
0 0
0 0
0 0
0 0
0 0
0 0
0 0
0 0
0 0
0 0
0 0
0 0
0 0
0 0
0 0
0 0
0 0
0 0
0 0
0 0
0 0
0 0
0 0
0 0
0 0
0 0
0 0
0 0
0 0
0 0
0 0
0 0
0 0
0 0
0 0
0 0
0 0
0 0
0 0
0 0
0 0
0 0
0 0
0 0
0 0
0 0
0 0
0 0
0 0
0 0
0 0
0 0
0 0
0 0
0 0
0 0
0 0
0 0
0 0
0 0
0 0
0 0
0 0
0 0
0 0
0 0
0 0
0 0
0 0
0 0
0 0
0 0
0 0
0 0
0 0
0 0
0 0
0 0
0 0
0 0
0 0
0 0
0 0
0 0
0 0
0 0
0 0
0 0
0 0
0 0
0 0
0 0
0 0
0 0
0 0
0 0
0 0
0 0
0 0
0 0
0 0
0 0
0 0
0 0
0 0
0 0
0 0
0 0
0 0
0 0
0 0
0 0
0 0
0 0
0 0
0 0
0 0
0 0
0 0
0 0
0 0
0 0
0 0
0 0
0 0
0 0
0 0
0 0
0 0
0 0
0 0
0 0
0 0
0 0
0 0
0 0
0 0
0 0
0 0
0 0
0 0
0 0
0 0
0 0
0 0
0 0
0 0
0 0
0 0
0 0
0 0
0 0
0 0
0 0
0 0
0 0
0 0
0 0
0 0
0 0
0 0
0 0
0 0
0 0
0 0
0 0
0 0
0 0
0 0
0 0
0 0
0 0
0 0
0 0
0 0
0 0
0 0
0 0
0 0
0 0
0 0
0 0
0 0
0 0
0 0
0 0
0 0
0 0
0 0
0 0
0 0
0 0
0 0
0 0
0 0
0 0
0 0
0 0
0 0
0 0
0 0
0 0
0 0
0 0
0 0
0 0
0 0
0 0
0 0
0 0
0 0
0 0
0 0
0 0
0 0
0 0
0 0
0 0
0 0
0 0
0 0
0 0
0 0
0 0
0 0
0 0
0 0
0 0
0 0
0 0
0 0
0 0
0 0
0 0
0 0
0 0
0 0
0 0
0 0
0 0
0 0
0 0
0 0
0 0
0 0
0 0
0 0
0 0
0 0
0 0
0 0
0 0
0 0
0 0
0 0
0 0
0 0
0 0
0 0
0 0
0 0
0 0
0 0
0 0
0 0
0 0
0 0
0 0
0 0
0 0
0 0
0 0
0 0
0 0
0 0
0 0
0 0
0 0
0 0
0 0
0 0
0 0
0 0
0 0
0 0
0 0
0 0
0 0
0 0
0 0
0 0
0 0
0 0
0 0
0 0
0 0
0 0
0 0
0 0
0 0
0 0
0 0
0 0
0 0
0 0
0 0
0 0
0 0
0 0
0 0
0 0
0 0
0 0
0 0
0 0
0 0
0 0
0 0
0 0
0 0
0 0
0 0
0 0
0 0
0 0
0 0
0 0
0 0
0 0
0 0
0 0
0 0
0 0
0 0
0 0
0 0
0 0
0 0
0 0
0 0
0 0
0 0
0 0
0 0
0 0
0 0
0 0
0 0
0 0
0 0
0 0
0 0
0 0
0 0
0 0
0 0
0 0
0 0
0 0
0 0
0 0
0 0
0 0
0 0
0 0
0 0
0 0
0 0
0 0
0 0
0 0
0 0
0 0
0 0
0 0
0 0
0 0
0 0
0 0
0 0
0 0
0 0
0 0
0 0
0 0
0 0
0 0
0 0
0 0
0 0
0 0
0 0
0 0
0 0
0 0
0 0
0 0
0 0
0 0
0 0
0 0
0 0
0 0
0 0
0 0
0 0
0 0
0 0
0 0
0 0
0 0
0 0
0 0
0 0
0 0
0 0
0 0
0 0
0 0
0 0
0 0
0 0
0 0
0 0
0 0
0 0
0 0
0 0
0 0
0 0
0 0
0 0
0 0
0 0
0 0
0 0
0 0
0 0
0 0
0 0
0 0
0 0
0 0
0 0
0 0
0 0
0 0
0 0
0 0
0 0
0 0
0 0
0 0
0 0
0 0
0 0
0 0
0 0
0 0
0 0
0 0
0 0
0 0
0 0
0 0
0 0
0 0
0 0
0 0
0 0
0 0
0 0
0 0
0 0
0 0
0 0
0 0
0 0
0 0
0 0
0 0
0 0
0 0
0 0
0 0
0 0
0 0
0 0
0 0
0 0
0 0
0 0
0 0
0 0
0 0
0 0
0 0
0 0
0 0
0 0
0 0
0 0
0 0
0 0
0 0
0 0
0 0
0 0
0 0
0 0
0 0
0 0
0 0
0 0
0 0
0 0
0 0
0 0
0 0
0 0
0 0
0 0
0 0
0 0
0 0
0 0
0 0
0 0
0 0
0 0
0 0
0 0
0 0
0 0
0 0
0 0
0 0
0 0
0 0
0 0
0 0
0 0
0 0
0 0
0 0
0 0
0 0
0 0
0 0
0 0
0 0
0 0
0 0
0 0
0 0
0 0
0 0
0 0
0 0
0 0
0 0
0 0
0 0
0 0
0 0
0 0
0 0
0 0
0 0
0 0
0 0
0 0
0 0
0 0
0 0
0 0
0 0
0 0
0 0
0 0
0 0
0 0
0 0
0 0
0 0
0 0
0 0
0 0
0 0
0 0
0 0
0 0
0 0
0 0
0 0
0 0
0 0
0 0
0 0
0 0
0 0
0 0
0 0
0 0
0 0
0 0
0 0
0 0
0 0
0 0
0 0
0 0
0 0
0 0
0 0
0 0
0 0
0 0
0 0
0 0
0 0
0 0
0 0
0 0
0 0
0 0
0 0
0 0
0 0
0 0
0 0
0 0
0 0
0 0
0 0
0 0
0 0
0 0
0 0
0 0
0 0
0 0
0 0
0 0
0 0
0 0
0 0
0 0
0 0
0 0
0 0
0 0
0 0
0 0
0 0
0 0
0 0
0 0
0 0
0 0
0 0
0 0
0 0
0 0
0 0
0 0
0 0
0 0
0 0
0 0
0 0
0 0
0 0
0 0
0 0
0 0
0 0
0 0
0 0
0 0
0 0
0 0
0 0
0 0
0 0
0 0
0 0
0 0
0 0
0 0
0 0
0 0
0 0
0 0
0 0
0 0
0 0
0 0
0 0
0 0
0 0
0 0
0 0
0 0
0 0
0 0
0 0
0 0
0 0
0 0
0 0
0 0
0 0
0 0
0 0
0 0
0 0
0 0
0 0
0 0
0 0
0 0
0 0
0 0
0 0
0 0
0 0
0 0
0 0
0 0
0 0
0 0
0 0
0 0
0 0
0 0
0 0
0 0
0 0
0 0
0 0
0 0
0 0
0 0
0 0
0 0
0 0
0 0
0 0
0 0
0 0
0 0
0 0
0 0
0 0
0 0
0 0
0 0
0 0
0 0
0 0
0 0
0 0
0 0
0 0
0 0
0 0
0 0
0 0
0 0
0 0
0 0
0 0
0 0
0 0
0 0
0 0
0 0
0 0
0 0
0 0
0 0
0 0
0 0
0 0
0 0
0 0
0 0
0 0
0 0
0 0
0 0
0 0
0 0
0 0
0 0
0 0
0 0
0 0
0 0
0 0
0 0
0 0
0 0
0 0
0 0
0 0
0 0
0 0
0 0
0 0
0 0
0 0
0 0
0 0
0 0
0 0
0 0
0 0
0 0
0 0
0 0
0 0
0 0
0 0
0 0
0 0
0 0
0 0
0 0
0 0
0 0
0 0
0 0
0 0
0 0
0 0
0 0
0 0
0 0
0 0
0 0
0 0
0 0
0 0
0 0
0 0
0 0
0 0
0 0
0 0
0 0
0 0
0 0
0 0
0 0
0 0
0 0
0 0
0 0
0 0
0 0
0 0
0 0
0 0
0 0
0 0
0 0
0 0
0 0
0 0
0 0
0 0
0 0
0 0
0 0
0 0
0 0
0 0
0 0
0 0
0 0
0 0
0 0
0 0
0 0
0 0
0 0
0 0
0 0
0 0
0 0
0 0
0 0
0 0
0 0
0 0
0 0
0 0
0 0
0 0
0 0
0 0
0 0
0 0
0 0
0 0
0 0
0 0
0 0
0 0
0 0
0 0
0 0
0 0
0 0
0 0
0 0
0 0
0 0
0 0
0 0
0 0
0 0
0 0
0 0
0 0
0 0
0 0
0 0
0 0
0 0
0 0
0 0
0 0
0 0
0 0
0 0
0 0
0 0
0 0
0 0
0 0
0 0
0 0
0 0
0 0
0 0
0 0
0 0
0 0
0 0
0 0
0 0
0 0
0 0
0 0
0 0
0 0
0 0
0 0
0 0
0 0
0 0
0 0
0 0
0 0
0 0
0 0
0 0
0 0
0 0
0 0
0 0
0 0
0 0
0 0
0 0
0 0
0 0
0 0
0 0
0 0
0 0
0 0
0 0
0 0
0 0
0 0
0 0
0 0
0 0
0 0
0 0
0 0
0 0
0 0
0 0
0 0
0 0
0 0
0 0
0 0
0 0
0 0
0 0
0 0
0 0
0 0
0 0
0 0
0 0
0 0
0 0
0 0
0 0
0 0
0 0
0 0
0 0
0 0
0 0
0 0
0 0
0 0
0 0
0 0
0 0
0 0
0 0
0 0
0 0
0 0
0 0
0 0
0 0
0 0
0 0
0 0
0 0
0 0
0 0
0 0
0 0
0 0
0 0
0 0
0 0
0 0
0 0
0 0
0 0
0 0
0 0
0 0
0 0
0 0
0 0
0 0
0 0
0 0
0 0
0 0
0 0
0 0
0 0
0 0
0 0
0 0
0 0
0 0
0 0
0 0
0 0
0 0
0 0
0 0
0 0
0 0
0 0
0 0
0 0
0 0
0 0
0 0
0 0
0 0
0 0
0 0
0 0
0 0
0 0
0 0
0 0
0 0
0 0
0 0
0 0
0 0
0 0
0 0
0 0
0 0
0 0
0 0
0 0
0 0
0 0
0 0
0 0
0 0
0 0
0 0
0 0
0 0
0 0
0 0
0 0
0 0
0 0
0 0
0 0
0 0
0 0
0 0
0 0
0 0
0 0
0 0
0 0
0 0
0 0
0 0
0 0
0 0
0 0
0 0
0 0
0 0
0 0
0 0
0 0
0 0
0 0
0 0
0 0
0 0
0 0
0 0
0 0
0 0
0 0
0 0
0 0
0 0
0 0
0 0
0 0
0 0
0 0
0 0
0 0
0 0
0 0
0 0
0 0
0 0
0 0
0 0
0 0
0 0
0 0
0 0
0 0
0 0
0 0
0 0
0 0
0 0
0 0
0 0
0 0
0 0
0 0
0 0
0 0
0 0
0 0
0 0
0 0
0 0
0 0
0 0
0 0
0 0
0 0
0 0
0 0
0 0
0 0
0 0
0 0
0 0
0 0
0 0
0 0
0 0
0 0
0 0
0 0
0 0
0 0
0 0
0 0
0 0
0 0
0 0
0 0
0 0
0 0
0 0
0 0
0 0
0 0
0 0
0 0
0 0
0 0
0 0
0 0
0 0
0 0
0 0
0 0
0 0
0 0
0 0
0 0
0 0
0 0
0 0
0 0
0 0
0 0
0 0
0 0
0 0
0 0
0 0
0 0
0 0
0 0
0 0
0 0
0 0
0 0
0 0
0 0
0 0
0 0
0 0
0 0
0 0
0 0
0 0
0 0
0 0
0 0
0 0
0 0
0 0
0 0
0 0
0 0
0 0
0 0
0 0
0 0
0 0
0 0
0 0
0 0
0 0
0 0
0 0
0 0
0 0
0 0
0 0
0 0
0 0
0 0
0 0
0 0
0 0
0 0
0 0
0 0
0 0
0 0
0 0
0 0
0 0
0 0
0 0
0 0
0 0
0 0
0 0
0 0
0 0
0 0
0 0
0 0
0 0
0 0
0 0
0 0
0 0
0 0
0 0
0 0
0 0
0 0
0 0
0 0
0 0
0 0
0 0
0 0
0 0
0 0
0 0
0 0
0 0
0 0
0 0
0 0
0 0
0 0
0 0
0 0
0 0
0 0
0 0
0 0
0 0
0 0
0 0
0 0
0 0
0 0
0 0
0 0
0 0
0 0
0 0
0 0
0 0
0 0
0 0
0 0
0 0
0 0
0 0
0 0
0 0
0 0
0 0
0 0
0 0
0 0
0 0
0 0
0 0
0 0
0 0
0 0
0 0
0 0
0 0
0 0
0 0
0 0
0 0
0 0
0 0
0 0
0 0
0 0
0 0
0 0
0 0
0 0
0 0
0 0
0 0
0 0
0 0
0 0
0 0
0 0
0 0
0 0
0 0
0 0
0 0
0 0
0 0
0 0
0 0
0 0
0 0
0 0
0 0
0 0
0 0
0 0
0 0
0 0
0 0
0 0
0 0
0 0
0 0
0 0
0 0
0 0
0 0
0 0
0 0
0 0
0 0
0 0
0 0
0 0
0 0
0 0
0 0
0 0
0 0
0 0
0 0
0 0
0 0
0 0
0 0
0 0
0 0
0 0
0 0
0 0
0 0
0 0
0 0
0 0
0 0
0 0
0 0
0 0
0 0
0 0
0 0
0 0
0 0
0 0
0 0
0 0
0 0
0 0
0 0
0 0
0 0
0 0
0 0
0 0
0 0
0 0
0 0
0 0
0 0
0 0
0 0
0 0
0 0
0 0
0 0
0 0
0 0
0 0
0 0
0 0
0 0
0 0
0 0
0 0
0 0
0 0
0 0
0 0
0 0
0 0
0 0
0 0
0 0
0 0
0 0
0 0
0 0
0 0
0 0
0 0
0 0
0 0
0 0
0 0
0 0
0 0
0 0
0 0
0 0
0 0
0 0
0 0
0 0
0 0
0 0
0 0
0 0
0 0
0 0
0 0
0 0
0 0
0 0
0 0
0 0
0 0
0 0
0 0
0 0
0 0
0 0
0 0
0 0
0 0
0 0
0 0
0 0
0 0
0 0
0 0
0 0
0 0
0 0
0 0
0 0
0 0
0 0
0 0
0 0
0 0
0 0
0 0
0 0
0 0
0 0
0 0
0 0
0 0
0 0
0 0
0 0
0 0
0 0
0 0
0 0
0 0
0 0
0 0
0 0
0 0
0 0
0 0
0 0
0 0
0 0
0 0
0 0
0 0
0 0
0 0
0 0
0 0
0 0
0 0
0 0
0 0
0 0
0 0
0 0
0 0
0 0
0 0
0 0
0 0
0 0
0 0
0 0
0 0
0 0
0 0
0 0
0 0
0 0
0 0
0 0
0 0
0 0
0 0
0 0
0 0
0 0
0 0
0 0
0 0
0 0
0 0
0 0
0 0
0 0
0 0
0 0
0 0
0 0
0 0
0 0
0 0
0 0
0 0
0 0
0 0
0 0
0 0
0 0
0 0
0 0
0 0
0 0
0 0
0 0
0 0
0 0
0 0
0 0
0 0
0 0
0 0
0 0
0 0
0 0
0 0
0 0
0 0
0 0
0 0
0 0
0 0
0 0
0 0
0 0
0 0
0 0
0 0
0 0
0 0
0 0
0 0
0 0
0 0
0 0
0 0
0 0
0 0
0 0
0 0
0 0
0 0
0 0
0 0
0 0
0 0
0 0
0 0
0 0
0 0
0 0
0 0
0 0
0 0
0 0
0 0
0 0
0 0
0 0
0 0
0 0
0 0
0 0
0 0
0 0
0 0
0 0
0 0
0 0
0 0
0 0
0 0
0 0
0 0
0 0
0 0
0 0
0 0
0 0
0 0
0 0
0 0
0 0
0 0
0 0
0 0
0 0
0 0
0 0
0 0
0 0
0 0
0 0
0 0
0 0
0 0
0 0
0 0
0 0
0 0
0 0
0 0
0 0
0 0
0 0
0 0
0 0
0 0
0 0
0 0
0 0
0 0
0 0
0 0
0 0
0 0
0 0
0 0
0 0
0 0
0 0
0 0
0 0
0 0
0 0
0 0
0 0
0 0
0 0
0 0
0 0
0 0
0 0
0 0
0 0
0 0
0 0
0 0
0 0
0 0
0 0
0 0
0 0
0 0
0 0
0 0
0 0
0 0
0 0
0 0
0 0
0 0
0 0
0 0
0 0
0 0
0 0
0 0
0 0
0 0
0 0
0 0
0 0
0 0
0 0
0 0
0 0
0 0
0 0
0 0
0 0
0 0
0 0
0 0
0 0
0 0
0 0
0 0
0 0
0 0
0 0
0 0
0 0
0 0
0 0
0 0
0 0
0 0
0 0
0 0
0 0
0 0
0 0
0 0
0 0
0 0
0 0
0 0
0 0
0 0
0 0
0 0
0 0
0 0
0 0
0 0
0 0
0 0
0 0
0 0
0 0
0 0
0 0
0 0
0 0
0 0
0 0
0 0
0 0
0 0
0 0
0 0
0 0
0 0
0 0
0 0
0 0
0 0
0 0
0 0
0 0
0 0
0 0
0 0
0 0
0 0
0 0
0 0
0 0
0 0
0 0
0 0
0 0
0 0
0 0
0 0
0 0
0 0
0 0
0 0
0 0
0 0
0 0
0 0
0 0
0 0
0 0
0 0
0 0
0 0
0 0
0 0
0 0
0 0
0 0
0 0
0 0
0 0
0 0
0 0
0 0
0 0
0 0
0 0
0 0
0 0
0 0
0 0
0 0
0 0
0 0
0 0
0 0
0 0
0 0
0 0
0 0
0 0
0 0
0 0
0 0
0 0
0 0
0 0
0 0
0 0
0 0
0 0
0 0
0 0
0 0
0 0
0 0
0 0
0 0
0 0
0 0
0 0
0 0
0 0
0 0
0 0
0 0
0 0
0 0
0 0
0 0
0 0
0 0
0 0
0 0
0 0
0 0
0 0
0 0
0 0
0 0
0 0
0 0
0 0
0 0
0 0
0 0
0 0
0 0
0 0
0 0
0 0
0 0
0 0
0 0
0 0
0 0
0 0
0 0
0 0
0 0
0 0
0 0
0 0
0 0
0 0
0 0
0 0
0 0
0 0
0 0
0 0
0 0
0 0
0 0
0 0
0 0
0 0
0 0
0 0
0 0
0 0
0 0
0 0
0 0
0 0
0 0
0 0
0 0
0 0
0 0
0 0
0 0
0 0
0 0
0 0
0 0
0 0
0 0
0 0
0 0
0 0
0 0
0 0
0 0
0 0
0 0
0 0
0 0
0 0
0 0
0 0
0 0
0 0
0 0
0 0
0 0
0 0
0 0
0 0
0 0
0 0
0 0
0 0
0 0
0 0
0 0
0 0
0 0
0 0
0 0
0 0
0 0
0 0
0 0
0 0
0 0
0 0
0 0
0 0
0 0
0 0
0 0
0 0
0 0
0 0
0 0
0 0
0 0
0 0
0 0
0 0
0 0
0 0
0 0
0 0
0 0
0 0
0 0
0 0
0 0
0 0
0 0
0 0
0 0
0 0
0 0
0 0
0 0
0 0
0 0
0 0
0 0
0 0
0 0
0 0
0 0
0 0
0 0
0 0
0 0
0 0
0 0
0 0
0 0
0 0
0 0
0 0
0 0
0 0
0 0
0 0
0 0
0 0
0 0
0 0
0 0
0 0
0 0
0 0
0 0
0 0
0 0
0 0
0 0
0 0
0 0
0 0
0 0
0 0
0 0
0 0
0 0
0 0
0 0
0 0
0 0
0 0
0 0
0 0
0 0
0 0
0 0
0 0
0 0
0 0
0 0
0 0
0 0
0 0
0 0
0 0
0 0
0 0
0 0
0 0
0 0
0 0
0 0
0 0
0 0
0 0
0 0
0 0
0 0
0 0
0 0
0 0
0 0
0 0
0 0
0 0
0 0
0 0
0 0
0 0
0 0
0 0
0 0
0 0
0 0
0 0
0 0
0 0
0 0
0 0
0 0
0 0
0 0
0 0
0 0
0 0
0 0
0 0
0 0
0 0
0 0
0 0
0 0
0 0
0 0
0 0
0 0
0 0
0 0
0 0
0 0
0 0
0 0
0 0
0 0
0 0
0 0
0 0
0 0
0 0
0 0
0 0
0 0
0 0
0 0
0 0
0 0
0 0
0 0
0 0
0 0
0 0
0 0
0 0
0 0
0 0
0 0
0 0
0 0
0 0
0 0
0 0
0 0
0 0
0 0
0 0
0 0
0 0
0 0
0 0
0 0
0 0
0 0
0 0
0 0
0 0
0 0
0 0
0 0
0 0
0 0
0 0
0 0
0 0
0 0
0 0
0 0
0 0
0 0
0 0
0 0
0 0
0 0
0 0
0 0
0 0
0 0
0 0
0 0
0 0
0 0
0 0
0 0
0 0
0 0
0 0
0 0
0 0
0 0
0 0
0 0
0 0
0 0
0 0
0 0
0 0
0 0
0 0
0 0
0 0
0 0
0 0
0 0
0 0
0 0
0 0
0 0
0 0
0 0
0 0
0 0
0 0
0 0
0 0
0 0
0 0
0 0
0 0
0 0
0 0
0 0
0 0
0 0
0 0
0 0
0 0
0 0
0 0
0 0
0 0
0 0
0 0
0 0
0 0
0 0
0 0
0 0
0 0
0 0
0 0
0 0
0 0
0 0
0 0
0 0
0 0
0 0
0 0
0 0
0 0
0 0
0 0
0 0
0 0
0 0
0 0
0 0
0 0
0 0
0 0
0 0
0 0
0 0
0 0
0 0
0 0
0 0
0 0
0 0
0 0
0 0
0 0
0 0
0 0
0 0
0 0
0 0
0 0
0 0
0 0
0 0
0 0
0 0
0 0
0 0
0 0
0 0
0 0
0 0
0 0
0 0
0 0
0 0
0 0
0 0
0 0
0 0
0 0
0 0
0 0
0 0
0 0
0 0
0 0
0 0
0 0
0 0
0 0
0 0
0 0
0 0
0 0
0 0
0 0
0 0
0 0
0 0
0 0
0 0
0 0
0 0
0 0
0 0
0 0
0 0
0 0
0 0
0 0
0 0
0 0
0 0
0 0
0 0
0 0
0 0
0 0
0 0
0 0
0 0
0 0
0 0
0 0
0 0
0 0
0 0
0 0
0 0
0 0
0 0
0 0
0 0
0 0
0 0
0 0
0 0
0 0
0 0
0 0
0 0
0 0
0 0
0 0
0 0
0 0
0 0
0 0
0 0
0 0
0 0
0 0
0 0
0 0
0 0
0 0
0 0
0 0
0 0
0 0
0 0
0 0
0 0
0 0
0 0
0 0
0 0
0 0
0 0
0 0
0 0
0 0
0 0
0 0
0 0
0 0
0 0
0 0
0 0
0 0
0 0
0 0
0 0
0 0
0 0
0 0
0 0
0 0
0 0
0 0
0 0
0 0
0 0
0 0
0 0
0 0
0 0
0 0
0 0
0 0
0 0
0 0
0 0
0 0
0 0
0 0
0 0
0 0
0 0
0 0
0 0
0 0
0 0
0 0
0 0
0 0
0 0
0 0
0 0
0 0
0 0
0 0
0 0
0 0
0 0
0 0
0 0
0 0
0 0
0 0
0 0
0 0
0 0
0 0
0 0
0 0
0 0
0 0
0 0
0 0
0 0
0 0
0 0
0 0
0 0
0 0
0 0
0 0
0 0
0 0
0 0
0 0
0 0
0 0
0 0
0 0
0 0
0 0
0 0
0 0
0 0
0 0
0 0
0 0
0 0
0 0
0 0
0 0
0 0
0 0
0 0
0 0
0 0
0 0
0 0
0 0
0 0
0 0
0 0
0 0
0 0
0 0
0 0
0 0
0 0
0 0
0 0
0 0
0 0
0 0
0 0
0 0
0 0
0 0
0 0
0 0
0 0
0 0
0 0
0 0
0 0
0 0
0 0
0 0
0 0
0 0
0 0
0 0
0 0
0 0
0 0
0 0
0 0
0 0
0 0
0 0
0 0
0 0
0 0
0 0
0 0
0 0
0 0
0 0
0 0
0 0
0 0
0 0
0 0
0 0
0 0
0 0
0 0
0 0
0 0
0 0
0 0
0 0
0 0
0 0
0 0
0 0
0 0
0 0
0 0
0 0
0 0
0 0
0 0
0 0
0 0
0 0
0 0
0 0
0 0
0 0
0 0
0 0
0 0
0 0
0 0
0 0
0 0
0 0
0 0
0 0
0 0
0 0
0 0
0 0
0 0
0 0
0 0
0 0
0 0
0 0
0 0
0 0
0 0
0 0
0 0
0 0
0 0
0 0
0 0
0 0
0 0
0 0
0 0
0 0
0 0
0 0
0 0
0 0
0 0
0 0
0 0
0 0
0 0
0 0
0 0
0 0
0 0
0 0
0 0
0 0
0 0
0 0
0 0
0 0
0 0
0 0
0 0
0 0
0 0
0 0
0 0
0 0
0 0
0 0
0 0
0 0
0 0
0 0
0 0
0 0
0 0
0 0
0 0
0 0
0 0
0 0
0 0
0 0
0 0
0 0
0 0
0 0
0 0
0 0
0 0
0 0
0 0
0 0
0 0
0 0
0 0
0 0
0 0
0 0
0 0
0 0
0 0
0 0
0 0
0 0
0 0
0 0
0 0
0 0
0 0
0 0
0 0
0 0
0 0
0 0
0 0
0 0
0 0
0 0
0 0
0 0
0 0
0 0
0 0
0 0
0 0
0 0
0 0
0 0
0 0
0 0
0 0
0 0
0 0
0 0
0 0
0 0
0 0
0 0
0 0
0 0
0 0
0 0
0 0
0 0
0 0
0 0
0 0
0 0
0 0
0 0
0 0
0 0
0 0
0 0
0 0
0 0
0 0
0 0
0 0
0 0
0 0
0 0
0 0
0 0
0 0
0 0
0 0
0 0
0 0
0 0
0 0
0 0
0 0
0 0
0 0
0 0
0 0
0 0
0 0
0 0
0 0
0 0
0 0
0 0
0 0
0 0
0 0
0 0
0 0
0 0
0 0
0 0
0 0
0 0
0 0
0 0
0 0
0 0
0 0
0 0
0 0
0 0
0 0
0 0
0 0
0 0
0 0
0 0
0 0
0 0
0 0
0 0
0 0
0 0
0 0
0 0
0 0
0 0
0 0
0 0
0 0
0 0
0 0
0 0
0 0
0 0
0 0
0 0
0 0
0 0
0 0
0 0
0 0
0 0
0 0
0 0
0 0
0 0
0 0
0 0
0 0
0 0
0 0
0 0
0 0
0 0
0 0
0 0
0 0
0 0
0 0
0 0
0 0
0 0
0 0
0 0
0 0
0 0
0 0
0 0
0 0
0 0
0 0
0 0
0 0
0 0
0 0
0 0
0 0
0 0
0 0
0 0
0 0
0 0
0 0
0 0
0 0
0 0
0 0
0 0
0 0
0 0
0 0
0 0
0 0
0 0
0 0
0 0
0 0
0 0
0 0
0 0
0 0
0 0
0 0
0 0
0 0
0 0
0 0
0 0
0 0
0 0
0 0
0 0
0 0
0 0
0 0
0 0
0 0
0 0
0 0
0 0
0 0
0 0
0 0
0 0
0 0
0 0
0 0
0 0
0 0
0 0
0 0
0 0
0 0
0 0
0 0
0 0
0 0
0 0
0 0
0 0
0 0
0 0
0 0
0 0
0 0
0 0
0 0
0 0
0 0
0 0
0 0
0 0
0 0
0 0
0 0
0 0
0 0
0 0
0 0
0 0
0 0
0 0
0 0
0 0
0 0
0 0
0 0
0 0
0 0
0 0
0 0
0 0
0 0
0 0
0 0
0 0
0 0
0 0
0 0
0 0
0 0
0 0
0 0
0 0
0 0
0 0
0 0
0 0
0 0
0 0
0 0
0 0
0 0
0 0
0 0
0 0
0 0
0 0
0 0
0 0
0 0
0 0
0 0
0 0
0 0
0 0
0 0
0 0
0 0
0 0
0 0
0 0
0 0
0 0
0 0
0 0
0 0
0 0
0 0
0 0
0 0
0 0
0 0
0 0
0 0
0 0
0 0
0 0
0 0
0 0
0 0
0 0
0 0
0 0
0 0
0 0
0 0
0 0
0 0
0 0
0 0
0 0
0 0
0 0
0 0
0 0
0 0
0 0
0 0
0 0
0 0
0 0
0 0
0 0
0 0
0 0
0 0
0 0
0 0
0 0
0 0
0 0
0 0
0 0
0 0
0 0
0 0
0 0
0 0
0 0
0 0
0 0
0 0
0 0
0 0
0 0
0 0
0 0
0 0
0 0
0 0
0 0
0 0
0 0
0 0
0 0
0 0
0 0
0 0
0 0
0 0
0 0
0 0
0 0
0 0
0 0
0 0
0 0
0 0
0 0
0 0
0 0
0 0
0 0
0 0
0 0
0 0
0 0
0 0
0 0
0 0
0 0
0 0
0 0
0 0
0 0
0 0
0 0
0 0
0 0
0 0
0 0
0 0
0 0
0 0
0 0
0 0
0 0
0 0
0 0
0 0
0 0
0 0
0 0
0 0
0 0
0 0
0 0
0 0
0 0
0 0
0 0
0 0
0 0
0 0
0 0
0 0
0 0
0 0
0 0
0 0
0 0
0 0
0 0
0 0
0 0
0 0
0 0
0 0
0 0
0 0
0 0
0 0
0 0
0 0
0 0
0 0
0 0
0 0
0 0
0 0
0 0
0 0
0 0
0 0
0 0
0 0
0 0
0 0
0 0
0 0
0 0
0 0
0 0
0 0
0 0
0 0
0 0
0 0
0 0
0 0
0 0
0 0
0 0
0 0
0 0
0 0
0 0
0 0
0 0
0 0
0 0
0 0
0 0
0 0
0 0
0 0
0 0
0 0
0 0
0 0
0 0
0 0
0 0
0 0
0 0
0 0
0 0
0 0
0 0
0 0
0 0
0 0
0 0
0 0
0 0
0 0
0 0
0 0
0 0
0 0
0 0
0 0
0 0
0 0
0 0
0 0
0 0
0 0
0 0
0 0
0 0
0 0
0 0
0 0
0 0
0 0
0 0
0 0
0 0
0 0
0 0
0 0
0 0
0 0
0 0
0 0
0 0
0 0
0 0
0 0
0 0
0 0
0 0
0 0
0 0
0 0
0 0
0 0
0 0
0 0
0 0
0 0
0 0
0 0
0 0
0 0
0 0
0 0
0 0
0 0
0 0
0 0
0 0
0 0
0 0
0 0
0 0
0 0
0 0
0 0
0 0
0 0
0 0
0 0
0 0
0 0
0 0
0 0
0 0
0 0
0 0
0 0
0 0
0 0
0 0
0 0
0 0
0 0
0 0
0 0
0 0
0 0
0 0
0 0
0 0
0 0
0 0
0 0
0 0
0 0
0 0
0 0
0 0
0 0
0 0
0 0
0 0
0 0
0 0
0 0
0 0
0 0
0 0
0 0
0 0
0 0
0 0
0 0
0 0
0 0
0 0
0 0
0 0
0 0
0 0
0 0
0 0
0 0
0 0
0 0
0 0
0 0
0 0
0 0
0 0
0 0
0 0
0 0
0 0
0 0
0 0
0 0
0 0
0 0
0 0
0 0
0 0
0 0
0 0
0 0
0 0
0 0
0 0
0 0
0 0
0 0
0 0
0 0
0 0
0 0
0 0
0 0
0 0
0 0
0 0
0 0
0 0
0 0
0 0
0 0
0 0
0 0
0 0
0 0
0 0
0 0
0 0
0 0
0 0
0 0
0 0
0 0
0 0
0 0
0 0
0 0
0 0
0 0
0 0
0 0
0 0
0 0
0 0
0 0
0 0
0 0
0 0
0 0
0 0
0 0
0 0
0 0
0 0
0 0
0 0
0 0
0 0
0 0
0 0
0 0
0 0
0 0
0 0
0 0
0 0
0 0
0 0
0 0
0 0
0 0
0 0
0 0
0 0
0 0
0 0
0 0
0 0
0 0
0 0
0 0
0 0
0 0
0 0
0 0
0 0
0 0
0 0
0 0
0 0
0 0
0 0
0 0
0 0
0 0
0 0
0 0
0 0
0 0
0 0
0 0
0 0
0 0
0 0
0 0
0 0
0 0
0 0
0 0
0 0
0 0
0 0
0 0
0 0
0 0
0 0
0 0
0 0
0 0
0 0
0 0
0 0
0 0
0 0
0 0
0 0
0 0
0 0
0 0
0 0
0 0
0 0
0 0
0 0
0 0
0 0
0 0
0 0
0 0
0 0
0 0
0 0
0 0
0 0
0 0
0 0
0 0
0 0
0 0
0 0
0 0
0 0
0 0
0 0
0 0
0 0
0 0
0 0
0 0
0 0
0 0
0 0
0 0
0 0
0 0
0 0
0 0
0 0
0 0
0 0
0 0
0 0
0 0
0 0
0 0
0 0
0 0
0 0
0 0
0 0
0 0
0 0
0 0
0 0
0 0
0 0
0 0
0 0
0 0
0 0
0 0
0 0
0 0
0 0
0 0
0 0
0 0
0 0
0 0
0 0
0 0
0 0
0 0
0 0
0 0
0 0
0 0
0 0
0 0
0 0
0 0
0 0
0 0
0 0
0 0
0 0
0 0
0 0
0 0
0 0
0 0
0 0
0 0
0 0
0 0
0 0
0 0
0 0
0 0
0 0
0 0
0 0
0 0
0 0
0 0
0 0
0 0
0 0
0 0
0 0
0 0
0 0
0 0
0 0
0 0
0 0
0 0
0 0
0 0
0 0
0 0
0 0
0 0
0 0
0 0
0 0
0 0
0 0
0 0
0 0
0 0
0 0
0 0
0 0
0 0
0 0
0 0
0 0
0 0
0 0
0 0
0 0
0 0
0 0
0 0
0 0
0 0
0 0
0 0
0 0
0 0
0 0
0 0
0 0
0 0
0 0
0 0
0 0
0 0
0 0
0 0
0 0
0 0
0 0
0 0
0 0
0 0
0 0
0 0
0 0
0 0
0 0
0 0
0 0
0 0
0 0
0 0
0 0
0 0
0 0
0 0
0 0
0 0
0 0
0 0
0 0
0 0
0 0
0 0
0 0
0 0
0 0
0 0
0 0
0 0
0 0
0 0
0 0
0 0
0 0
0 0
0 0
0 0
0 0
0 0
0 0
0 0
0 0
0 0
0 0
0 0
0 0
0 0
0 0
0 0
0 0
0 0
0 0
0 0
0 0
0 0
0 0
0 0
0 0
0 0
0 0
0 0
0 0
0 0
0 0
0 0
0 0
0 0
0 0
0 0
0 0
0 0
0 0
0 0
0 0
0 0
0 0
0 0
0 0
0 0
0 0
0 0
0 0
0 0
0 0
0 0
0 0
0 0
0 0
0 0
0 0
0 0
0 0
0 0
0 0
0 0
0 0
0 0
0 0
0 0
0 0
0 0
0 0
0 0
0 0
0 0
0 0
0 0
0 0
0 0
0 0
0 0
0 0
0 0
0 0
0 0
0 0
0 0
0 0
0 0
0 0
0 0
0 0
0 0
0 0
0 0
0 0
0 0
0 0
0 0
0 0
0 0
0 0
0 0
0 0
0 0
0 0
0 0
0 0
0 0
0 0
0 0
0 0
0 0
0 0
0 0
0 0
0 0
0 0
0 0
0 0
0 0
0 0
0 0
0 0
0 0
0 0
0 0
0 0
0 0
0 0
0 0
0 0
0 0
0 0
0 0
0 0
0 0
0 0
0 0
0 0
0 0
0 0
0 0
0 0
0 0
0 0
0 0
0 0
0 0
0 0
0 0
0 0
0 0
0 0
0 0
0 0
0 0
0 0
0 0
0 0
0 0
0 0
0 0
0 0
0 0
0 0
0 0
0 0
0 0
0 0
0 0
0 0
0 0
0 0
0 0
0 0
0 0
0 0
0 0
0 0
0 0
0 0
0 0
0 0
0 0
0 0
0 0
0 0
0 0
0 0
0 0
0 0
0 0
0 0
0 0
0 0
0 0
0 0
0 0
0 0
0 0
0 0
0 0
0 0
0 0
0 0
0 0
0 0
0 0
0 0
0 0
0 0
0 0
0 0
0 0
0 0
0 0
0 0
0 0
0 0
0 0
0 0
0 0
0 0
0 0
0 0
0 0
0 0
0 0
0 0
0 0
0 0
0 0
0 0
0 0
0 0
0 0
0 0
0 0
0 0
0 0
0 0
0 0
0 0
0 0
0 0
0 0
0 0
0 0
0 0
0 0
0 0
0 0
0 0
0 0
0 0
0 0
0 0
0 0
0 0
0 0
0 0
0 0
0 0
0 0
0 0
0 0
0 0
0 0
0 0
0 0
0 0
0 0
0 0
0 0
0 0
0 0
0 0
0 0
0 0
0 0
0 0
0 0
0 0
0 0
0 0
0 0
0 0
0 0
0 0
0 0
0 0
0 0
0 0
0 0
0 0
0 0
0 0
0 0
0 0
0 0
0 0
0 0
0 0
0 0
0 0
0 0
0 0
0 0
0 0
0 0
0 0
0 0
0 0
0 0
0 0
0 0
0 0
0 0
0 0
0 0
0 0
0 0
0 0
0 0
0 0
0 0
0 0
0 0
0 0
0 0
0 0
0 0
0 0
0 0
0 0
0 0
0 0
0 0
0 0
0 0
0 0
0 0
0 0
0 0
0 0
0 0
0 0
0 0
0 0
0 0
0 0
0 0
0 0
0 0
0 0
0 0
0 0
0 0
0 0
0 0
0 0
0 0
0 0
0 0
0 0
0 0
0 0
0 0
0 0
0 0
0 0
0 0
0 0
0 0
0 0
0 0
0 0
0 0
0 0
0 0
0 0
0 0
0 0
0 0
0 0
0 0
0 0
0 0
0 0
0 0
0 0
0 0
0 0
0 0
0 0
0 0
0 0
0 0
0 0
0 0
0 0
0 0
0 0
0 0
0 0
0 0
0 0
0 0
0 0
0 0
0 0
0 0
0 0
0 0
0 0
0 0
0 0
0 0
0 0
0 0
0 0
0 0
0 0
0 0
0 0
0 0
0 0
0 0
0 0
0 0
0 0
0 0
0 0
0 0
0 0
0 0
0 0
0 0
0 0
0 0
0 0
0 0
0 0
0 0
0 0
0 0
0 0
0 0
0 0
0 0
0 0
0 0
0 0
0 0
0 0
0 0
0 0
0 0
0 0
0 0
0 0
0 0
0 0
0 0
0 0
0 0
0 0
0 0
0 0
0 0
0 0
0 0
0 0
0 0
0 0
0 0
0 0
0 0
0 0
0 0
0 0
0 0
0 0
0 0
0 0
0 0
0 0
0 0
0 0
0 0
0 0
0 0
0 0
0 0
0 0
0 0
0 0
0 0
0 0
0 0
0 0
0 0
0 0
0 0
0 0
0 0
0 0
0 0
0 0
0 0
0 0
0 0
0 0
0 0
0 0
0 0
0 0
0 0
0 0
0 0
0 0
0 0
0 0
0 0
0 0
0 0
0 0
0 0
0 0
0 0
0 0
0 0
0 0
0 0
0 0
0 0
0 0
0 0
0 0
0 0
0 0
0 0
0 0
0 0
0 0
0 0
0 0
0 0
0 0
0 0
0 0
0 0
0 0
0 0
0 0
0 0
0 0
0 0
0 0
0 0
0 0
0 0
0 0
0 0
0 0
0 0
0 0
0 0
0 0
0 0
0 0
0 0
0 0
0 0
0 0
0 0
0 0
0 0
0 0
0 0
0 0
0 0
0 0
0 0
0 0
0 0
0 0
0 0
0 0
0 0
0 0
0 0
0 0
0 0
0 0
0 0
0 0
0 0
0 0
0 0
0 0
0 0
0 0
0 0
0 0
0 0
0 0
0 0
0 0
0 0
0 0
0 0
0 0
0 0
0 0
0 0
0 0
0 0
0 0
0 0
0 0
0 0
0 0
0 0
0 0
0 0
0 0
0 0
0 0
0 0
0 0
0 0
0 0
0 0
0 0
0 0
0 0
0 0
0 0
0 0
0 0
0 0
0 0
0 0
0 0
0 0
0 0
0 0
0 0
0 0
0 0
0 0
0 0
0 0
0 0
0 0
0 0
0 0
0 0
0 0
0 0
0 0
0 0
0 0
0 0
0 0
0 0
0 0
0 0
0 0
0 0
0 0
0 0
0 0
0 0
0 0
0 0
0 0
0 0
0 0
0 0
0 0
0 0
0 0
0 0
0 0
0 0
0 0
0 0
0 0
0 0
0 0
0 0
0 0
0 0
0 0
0 0
0 0
0 0
0 0
0 0
0 0
0 0
0 0
0 0
0 0
0 0
0 0
0 0
0 0
0 0
0 0
0 0
0 0
0 0
0 0
0 0
0 0
0 0
0 0
0 0
0 0
0 0
0 0
0 0
0 0
0 0
0 0
0 0
0 0
0 0
0 0
0 0
0 0
0 0
0 0
0 0
0 0
0 0
0 0
0 0
0 0
0 0
0 0
0 0
0 0
0 0
0 0
0 0
0 0
0 0
0 0
0 0
0 0
0 0
0 0
0 0
0 0
0 0
0 0
0 0
0 0
0 0
0 0
0 0
0 0
0 0
0 0
0 0
0 0
0 0
0 0
0 0
0 0
0 0
0 0
0 0
0 0
0 0
0 0
0 0
0 0
0 0
0 0
0 0
0 0
0 0
0 0
0 0
0 0
0 0
0 0
0 0
0 0
0 0
0 0
0 0
0 0
0 0
0 0
0 0
0 0
0 0
0 0
0 0
0 0
0 0
0 0
0 0
0 0
0 0
0 0
0 0
0 0
0 0
0 0
0 0
0 0
0 0
0 0
0 0
0 0
0 0
0 0
0 0
0 0
0 0
0 0
0 0
0 0
0 0
0 0
0 0
0 0
0 0
0 0
0 0
0 0
0 0
0 0
0 0
0 0
0 0
0 0
0 0
0 0
0 0
0 0
0 0
0 0
0 0
0 0
0 0
0 0
0 0
0 0
0 0
0 0
0 0
0 0
0 0
0 0
0 0
0 0
0 0
0 0
0 0
0 0
0 0
0 0
0 0
0 0
0 0
0 0
0 0
0 0
0 0
0 0
0 0
0 0
0 0
0 0
0 0
0 0
0 0
0 0
0 0
0 0
0 0
0 0
0 0
0 0
0 0
0 0
0 0
0 0
0 0
0 0
0 0
0 0
0 0
0 0
0 0
0 0
0 0
0 0
0 0
0 0
0 0
0 0
0 0
0 0
0 0
0 0
0 0
0 0
0 0
0 0
0 0
0 0
0 0
0 0
0 0
0 0
0 0
0 0
0 0
0 0
0 0
0 0
0 0
0 0
0 0
0 0
0 0
0 0
0 0
0 0
0 0
0 0
0 0
0 0
0 0
0 0
0 0
0 0
0 0
0 0
0 0
0 0
0 0
0 0
0 0
0 0
0 0
0 0
0 0
0 0
0 0
0 0
0 0
0 0
0 0
0 0
0 0
0 0
0 0
0 0
0 0
0 0
0 0
0 0
0 0
0 0
0 0
0 0
0 0
0 0
0 0
0 0
0 0
0 0
0 0
0 0
0 0
0 0
0 0
0 0
0 0
0 0
0 0
0 0
0 0
0 0
0 0
0 0
0 0
0 0
0 0
0 0
0 0
0 0
0 0
0 0
0 0
0 0
0 0
0 0
0 0
0 0
0 0
0 0
0 0
0 0
0 0
0 0
0 0
0 0
0 0
0 0
0 0
0 0
0 0
0 0
0 0
0 0
0 0
0 0
0 0
0 0
0 0
0 0
0 0
0 0
0 0
0 0
0 0
0 0
0 0
0 0
0 0
0 0
0 0
0 0
0 0
0 0
0 0
0 0
0 0
0 0
0 0
0 0
0 0
0 0
0 0
0 0
0 0
0 0
0 0
0 0
0 0
0 0
0 0
0 0
0 0
0 0
0 0
0 0
0 0
0 0
0 0
0 0
0 0
0 0
0 0
0 0
0 0
0 0
0 0
0 0
0 0
0 0
0 0
0 0
0 0
0 0
0 0
0 0
0 0
0 0
0 0
0 0
0 0
0 0
0 0
0 0
0 0
0 0
0 0
0 0
0 0
0 0
0 0
0 0
0 0
0 0
0 0
0 0
0 0
0 0
0 0
0 0
0 0
0 0
0 0
0 0
0 0
0 0
0 0
0 0
0 0
0 0
0 0
0 0
0 0
0 0
0 0
0 0
0 0
0 0
0 0
0 0
0 0
0 0
0 0
0 0
0 0
0 0
0 0
0 0
0 0
0 0
0 0
0 0
0 0
0 0
0 0
0 0
0 0
0 0
0 0
0 0
0 0
0 0
0 0
0 0
0 0
0 0
0 0
0 0
0 0
0 0
0 0
0 0
0 0
0 0
0 0
0 0
0 0
0 0
0 0
0 0
0 0
0 0
0 0
0 0
0 0
0 0
0 0
0 0
0 0
0 0
0 0
0 0
0 0
0 0
0 0
0 0
0 0
0 0
0 0
0 0
0 0
0 0
0 0
0 0
0 0
0 0
0 0
0 0
0 0
0 0
0 0
0 0
0 0
0 0
0 0
0 0
0 0
0 0
0 0
0 0
0 0
0 0
0 0
0 0
0 0
0 0
0 0
0 0
0 0
0 0
0 0
0 0
0 0
0 0
0 0
0 0
0 0
0 0
0 0
0 0
0 0
0 0
0 0
0 0
0 0
0 0
0 0
0 0
0 0
0 0
0 0
0 0
0 0
0 0
0 0
0 0
0 0
0 0
0 0
0 0
0 0
0 0
0 0
0 0
0 0
0 0
0 0
0 0
0 0
0 0
0 0
0 0
0 0
0 0
0 0
0 0
0 0
0 0
0 0
0 0
0 0
0 0
0 0
0 0
0 0
0 0
0 0
0 0
0 0
0 0
0 0
0 0
0 0
0 0
0 0
0 0
0 0
0 0
0 0
0 0
0 0
0 0
0 0
0 0
0 0
0 0
0 0
0 0
0 0
0 0
0 0
0 0
0 0
0 0
0 0
0 0
0 0
0 0
0 0
0 0
0 0
0 0
0 0
0 0
0 0
0 0
0 0
0 0
0 0
0 0
0 0
0 0
0 0
0 0
0 0
0 0
0 0
0 0
0 0
0 0
0 0
0 0
0 0
0 0
0 0
0 0
0 0
0 0
0 0
0 0
0 0
0 0
0 0
0 0
0 0
0 0
0 0
0 0
0 0
0 0
0 0
0 0
0 0
0 0
0 0
0 0
0 0
0 0
0 0
0 0
0 0
0 0
0 0
0 0
0 0
0 0
0 0
0 0
0 0
0 0
0 0
0 0
0 0
0 0
0 0
0 0
0 0
0 0
0 0
0 0
0 0
0 0
0 0
0 0
0 0
0 0
0 0
0 0
0 0
0 0
0 0
0 0
0 0
0 0
0 0
0 0
0 0
0 0
0 0
0 0
0 0
0 0
0 0
0 0
0 0
0 0
0 0
0 0
0 0
0 0
0 0
0 0
0 0
0 0
0 0
0 0
0 0
0 0
0 0
0 0
0 0
0 0
0 0
0 0
0 0
0 0
0 0
0 0
0 0
0 0
0 0
0 0
0 0
0 0
0 0
0 0
0 0
0 0
0 0
0 0
0 0
0 0
0 0
0 0
0 0
0 0
0 0
0 0
0 0
0 0
0 0
0 0
0 0
0 0
0 0
0 0
0 0
0 0
0 0
0 0
0 0
0 0
0 0
0 0
0 0
0 0
0 0
0 0
0 0
0 0
0 0
0 0
0 0
0 0
0 0
0 0
0 0
0 0
0 0
0 0
0 0
0 0
0 0
0 0
0 0
0 0
0 0
0 0
0 0
0 0
0 0
0 0
0 0
0 0
0 0
0 0
0 0
0 0
0 0
0 0
0 0
0 0
0 0
0 0
0 0
0 0
0 0
0 0
0 0
0 0
0 0
0 0
0 0
0 0
0 0
0 0
0 0
0 0
0 0
0 0
0 0
0 0
0 0
0 0
0 0
0 0
0 0
0 0
0 0
0 0
0 0
0 0
0 0
0 0
0 0
0 0
0 0
0 0
0 0
0 0
0 0
0 0
0 0
0 0
0 0
0 0
0 0
0 0
0 0
0 0
0 0
0 0
0 0
0 0
0 0
0 0
0 0
0 0
0 0
0 0
0 0
0 0
0 0
0 0
0 0
0 0
0 0
0 0
0 0
0 0
0 0
0 0
0 0
0 0
0 0
0 0
0 0
0 0
0 0
0 0
0 0
0 0
0 0
0 0
0 0
0 0
0 0
0 0
0 0
0 0
0 0
0 0
0 0
0 0
0 0
0 0
0 0
0 0
0 0
0 0
0 0
0 0
0 0
0 0
0 0
0 0
0 0
0 0
0 0
0 0
0 0
0 0
0 0
0 0
0 0
0 0
0 0
0 0
0 0
0 0
0 0
0 0
0 0
0 0
0 0
0 0
0 0
0 0
0 0
0 0
0 0
0 0
0 0
0 0
0 0
0 0
0 0
0 0
0 0
0 0
0 0
0 0
0 0
0 0
0 0
0 0
0 0
0 0
0 0
0 0
0 0
0 0
0 0
0 0
0 0
0 0
0 0
0 0
0 0
0 0
0 0
0 0
0 0
0 0
0 0
0 0
0 0
0 0
0 0
0 0
0 0
0 0
0 0
0 0
0 0
0 0
0 0
0 0
0 0
0 0
0 0
0 0
0 0
0 0
0 0
0 0
0 0
0 0
0 0
0 0
0 0
0 0
0 0
0 0
0 0
0 0
0 0
0 0
0 0
0 0
0 0
0 0
0 0
0 0
0 0
0 0
0 0
0 0
0 0
0 0
0 0
0 0
0 0
0 0
0 0
0 0
0 0
0 0
0 0
0 0
0 0
0 0
0 0
0 0
0 0
0 0
0 0
0 0
0 0
0 0
0 0
0 0
0 0
0 0
0 0
0 0
0 0
0 0
0 0
0 0
0 0
0 0
0 0
0 0
0 0
0 0
0 0
0 0
0 0
0 0
0 0
0 0
0 0
0 0
0 0
0 0
0 0
0 0
0 0
0 0
0 0
0 0
0 0
0 0
0 0
0 0
0 0
0 0
0 0
0 0
0 0
0 0
0 0
0 0
0 0
0 0
0 0
0 0
0 0
0 0
0 0
0 0
0 0
0 0
0 0
0 0
0 0
0 0
0 0
0 0
0 0
0 0
0 0
0 0
0 0
0 0
0 0
0 0
0 0
0 0
0 0
0 0
0 0
0 0
0 0
0 0
0 0
0 0
0 0
0 0
0 0
0 0
0 0
0 0
0 0
0 0
0 0
0 0
0 0
0 0
0 0
0 0
0 0
0 0
0 0
0 0
0 0
0 0
0 0
0 0
0 0
0 0
0 0
0 0
0 0
0 0
0 0
0 0
0 0
0 0
0 0
0 0
0 0
0 0
0 0
0 0
0 0
0 0
0 0
0 0
0 0
0 0
0 0
0 0
0 0
0 0
0 0
0 0
0 0
0 0
0 0
0 0
0 0
0 0
0 0
0 0
0 0
0 0
0 0
0 0
0 0
0 0
0 0
0 0
0 0
0 0
0 0
0 0
0 0
0 0
0 0
0 0
0 0
0 0
0 0
0 0
0 0
0 0
0 0
0 0
0 0
0 0
0 0
0 0
0 0
0 0
0 0
0 0
0 0
0 0
0 0
0 0
0 0
0 0
0 0
0 0
0 0
0 0
0 0
0 0
0 0
0 0
0 0
0 0
0 0
0 0
0 0
0 0
0 0
0 0
0 0
0 0
0 0
0 0
0 0
0 0
0 0
0 0
0 0
0 0
0 0
0 0
0 0
0 0
0 0
0 0
0 0
0 0
0 0
0 0
0 0
0 0
0 0
0 0
0 0
0 0
0 0
0 0
0 0
0 0
0 0
0 0
0 0
0 0
0 0
0 0
0 0
0 0
0 0
0 0
0 0
0 0
0 0
0 0
0 0
0 0
0 0
0 0
0 0
0 0
0 0
0 0
0 0
0 0
0 0
0 0
0 0
0 0
0 0
0 0
0 0
0 0
0 0
0 0
0 0
0 0
0 0
0 0
0 0
0 0
0 0
0 0
0 0
0 0
0 0
0 0
0 0
0 0
0 0
0 0
0 0
0 0
0 0
0 0
0 0
0 0
0 0
0 0
0 0
0 0
0 0
0 0
0 0
0 0
0 0
0 0
0 0
0 0
0 0
0 0
0 0
0 0
0 0
0 0
0 0
0 0
0 0
0 0
0 0
0 0
0 0
0 0
0 0
0 0
0 0
0 0
0 0
0 0
0 0
0 0
0 0
0 0
0 0
0 0
0 0
0 0
0 0
0 0
0 0
0 0
0 0
0 0
0 0
0 0
0 0
0 0
0 0
0 0
0 0
0 0
0 0
0 0
0 0
0 0
0 0
0 0
0 0
0 0
0 0
0 0
0 0
0 0
0 0
0 0
0 0
0 0
0 0
0 0
0 0
0 0
0 0
0 0
0 0
0 0
0 0
0 0
0 0
0 0
0 0
0 0
0 0
0 0
0 0
0 0
0 0
0 0
0 0
0 0
0 0
0 0
0 0
0 0
0 0
0 0
0 0
0 0
0 0
0 0
0 0
0 0
0 0
0 0
0 0
0 0
0 0
0 0
0 0
0 0
0 0
0 0
0 0
0 0
0 0
0 0
0 0
0 0
0 0
0 0
0 0
0 0
0 0
0 0
0 0
0 0
0 0
0 0
0 0
0 0
0 0
0 0
0 0
0 0
0 0
0 0
0 0
0 0
0 0
0 0
0 0
0 0
0 0
0 0
0 0
0 0
0 0
0 0
0 0
0 0
0 0
0 0
0 0
0 0
0 0
0 0
0 0
0 0
0 0
0 0
0 0
0 0
0 0
0 0
0 0
0 0
0 0
0 0
0 0
0 0
0 0
0 0
0 0
0 0
0 0
0 0
0 0
0 0
0 0
0 0
0 0
0 0
0 0
0 0
0 0
0 0
0 0
0 0
0 0
0 0
0 0
0 0
0 0
0 0
0 0
0 0
0 0
0 0
0 0
0 0
0 0
0 0
0 0
0 0
0 0
0 0
0 0
0 0
0 0
0 0
0 0
0 0
0 0
0 0
0 0
0 0
0 0
0 0
0 0
0 0
0 0
0 0
0 0
0 0
0 0
0 0
0 0
0 0
0 0
0 0
0 0
0 0
0 0
0 0
0 0
0 0
0 0
0 0
0 0
0 0
0 0
0 0
0 0
0 0
0 0
0 0
0 0
0 0
0 0
0 0
0 0
0 0
0 0
0 0
0 0
0 0
0 0
0 0
0 0
0 0
0 0
0 0
0 0
0 0
0 0
0 0
0 0
0 0
0 0
0 0
0 0
0 0
0 0
0 0
0 0
0 0
0 0
0 0
0 0
0 0
0 0
0 0
0 0
0 0
0 0
0 0
0 0
0 0
0 0
0 0
0 0
0 0
0 0
0 0
0 0
0 0
0 0
0 0
0 0
0 0
0 0
0 0
0 0
0 0
0 0
0 0
0 0
0 0
0 0
0 0
0 0
0 0
0 0
0 0
0 0
0 0
0 0
0 0
0 0
0 0
0 0
0 0
0 0
0 0
0 0
0 0
0 0
0 0
0 0
0 0
0 0
0 0
0 0
0 0
0 0
0 0
0 0
0 0
0 0
0 0
0 0
0 0
0 0
0 0
0 0
0 0
0 0
0 0
0 0
0 0
0 0
0 0
0 0
0 0
0 0
0 0
0 0
0 0
0 0
0 0
0 0
0 0
0 0
0 0
0 0
0 0
0 0
0 0
0 0
0 0
0 0
0 0
0 0
0 0
0 0
0 0
0 0
0 0
0 0
0 0
0 0
0 0
0 0
0 0
0 0
0 0
0 0
0 0
0 0
0 0
0 0
0 0
0 0
0 0
0 0
0 0
0 0
0 0
0 0
0 0
0 0
0 0
0 0
0 0
0 0
0 0
0 0
0 0
0 0
0 0
0 0
0 0
0 0
0 0
0 0
0 0
0 0
0 0
0 0
0 0
0 0
0 0
0 0
0 0
0 0
0 0
0 0
0 0
0 0
0 0
0 0
0 0
0 0
0 0
0 0
0 0
0 0
0 0
0 0
0 0
0 0
0 0
0 0
0 0
0 0
0 0
0 0
0 0
0 0
0 0
0 0
0 0
0 0
0 0
0 0
0 0
0 0
0 0
0 0
0 0
0 0
0 0
0 0
0 0
0 0
0 0
0 0
0 0
0 0
0 0
0 0
0 0
0 0
0 0
0 0
0 0
0 0
0 0
0 0
0 0
0 0
0 0
0 0
0 0
0 0
0 0
0 0
0 0
0 0
0 0
0 0
0 0
0 0
0 0
0 0
0 0
0 0
0 0
0 0
0 0
0 0
0 0
0 0
0 0
0 0
0 0
0 0
0 0
0 0
0 0
0 0
0 0
0 0
0 0
0 0
0 0
0 0
0 0
0 0
0 0
0 0
0 0
0 0
0 0
0 0
0 0
0 0
0 0
0 0
0 0
0 0
0 0
0 0
0 0
0 0
0 0
0 0
0 0
0 0
0 0
0 0
0 0
0 0
0 0
0 0
0 0
0 0
0 0
0 0
0 0
0 0
0 0
0 0
0 0
0 0
0 0
0 0
0 0
0 0
0 0
0 0
0 0
0 0
0 0
0 0
0 0
0 0
0 0
0 0
0 0
0 0
0 0
0 0
0 0
0 0
0 0
0 0
0 0
0 0
0 0
0 0
0 0
0 0
0 0
0 0
0 0
0 0
0 0
0 0
0 0
0 0
0 0
0 0
0 0
0 0
0 0
0 0
0 0
0 0
0 0
0 0
0 0
0 0
0 0
0 0
0 0
0 0
0 0
0 0
0 0
0 0
0 0
0 0
0 0
0 0
0 0
0 0
0 0
0 0
0 0
0 0
0 0
0 0
0 0
0 0
0 0
0 0
0 0
0 0
0 0
0 0
0 0
0 0
0 0
0 0
0 0
0 0
0 0
0 0
0 0
0 0
0 0
0 0
0 0
0 0
0 0
0 0
0 0
0 0
0 0
0 0
0 0
0 0
0 0
0 0
0 0
0 0
0 0
0 0
0 0
0 0
0 0
0 0
0 0
0 0
0 0
0 0
0 0
0 0
0 0
0 0
0 0
0 0
0 0
0 0
0 0
0 0
0 0
0 0
0 0
0 0
0 0
0 0
0 0
0 0
0 0
0 0
0 0
0 0
0 0
0 0
0 0
0 0
0 0
0 0
0 0
0 0
0 0
0 0
0 0
0 0
0 0
0 0
0 0
0 0
0 0
0 0
0 0
0 0
0 0
0 0
0 0
0 0
0 0
0 0
0 0
0 0
0 0
0 0
0 0
0 0
0 0
0 0
0 0
0 0
0 0
0 0
0 0
0 0
0 0
0 0
0 0
0 0
0 0
0 0
0 0
0 0
0 0
0 0
0 0
0 0
0 0
0 0
0 0
0 0
0 0
0 0
0 0
0 0
0 0
0 0
0 0
0 0
0 0
0 0
0 0
0 0
0 0
0 0
0 0
0 0
0 0
0 0
0 0
0 0
0 0
0 0
0 0
0 0
0 0
0 0
0 0
0 0
0 0
0 0
0 0
0 0
0 0
0 0
0 0
0 0
0 0
0 0
0 0
0 0
0 0
0 0
0 0
0 0
0 0
0 0
0 0
0 0
0 0
0 0
0 0
0 0
0 0
0 0
0 0
0 0
0 0
0 0
0 0
0 0
0 0
0 0
0 0
0 0
0 0
0 0
0 0
0 0
0 0
0 0
0 0
0 0
0 0
0 0
0 0
0 0
0 0
0 0
0 0
0 0
0 0
0 0
0 0
0 0
0 0
0 0
0 0
0 0
0 0
0 0
0 0
0 0
0 0
0 0
0 0
0 0
0 0
0 0
0 0
0 0
0 0
0 0
0 0
0 0
0 0
0 0
0 0
0 0
0 0
0 0
0 0
0 0
0 0
0 0
0 0
0 0
0 0
0 0
0 0
0 0
0 0
0 0
0 0
0 0
0 0
0 0
0 0
0 0
0 0
0 0
0 0
0 0
0 0
0 0
0 0
0 0
0 0
0 0
0 0
0 0
0 0
0 0
0 0
0 0
0 0
0 0
0 0
0 0
0 0
0 0
0 0
0 0
0 0
0 0
0 0
0 0
0 0
0 0
0 0
0 0
0 0
0 0
0 0
0 0
0 0
0 0
0 0
0 0
0 0
0 0
0 0
0 0
0 0
0 0
0 0
0 0
0 0
0 0
0 0
0 0
0 0
0 0
0 0
0 0
0 0
0 0
0 0
0 0
0 0
0 0
0 0
0 0
0 0
0 0
0 0
0 0
0 0
0 0
0 0
0 0
0 0
0 0
0 0
0 0
0 0
0 0
0 0
0 0
0 0
0 0
0 0
0 0
0 0
0 0
0 0
0 0
0 0
0 0
0 0
0 0
0 0
0 0
0 0
0 0
0 0
0 0
0 0
0 0
0 0
0 0
0 0
0 0
0 0
0 0
0 0
0 0
0 0
0 0
0 0
0 0
0 0
0 0
0 0
0 0
0 0
0 0
0 0
0 0
0 0
0 0
0 0
0 0
0 0
0 0
0 0
0 0
0 0
0 0
0 0
0 0
0 0
0 0
0 0
0 0
0 0
0 0
0 0
0 0
0 0
0 0
0 0
0 0
0 0
0 0
0 0
0 0
0 0
0 0
0 0
0 0
0 0
0 0
0 0
0 0
0 0
0 0
0 0
0 0
0 0
0 0
0 0
0 0
0 0
0 0
0 0
0 0
0 0
0 0
0 0
0 0
0 0
0 0
0 0
0 0
0 0
0 0
0 0
0 0
0 0
0 0
0 0
0 0
0 0
0 0
0 0
0 0
0 0
0 0
0 0
0 0
0 0
0 0
0 0
0 0
0 0
0 0
0 0
0 0
0 0
0 0
0 0
0 0
0 0
0 0
0 0
0 0
0 0
0 0
0 0
0 0
0 0
0 0
0 0
0 0
0 0
0 0
0 0
0 0
0 0
0 0
0 0
0 0
0 0
0 0
0 0
0 0
0 0
0 0
0 0
0 0
0 0
0 0
0 0
0 0
0 0
0 0
0 0
0 0
0 0
0 0
0 0
0 0
0 0
0 0
0 0
0 0
0 0
0 0
0 0
0 0
0 0
0 0
0 0
0 0
0 0
0 0
0 0
0 0
0 0
0 0
0 0
0 0
0 0
0 0
0 0
0 0
0 0
0 0
0 0
0 0
0 0
0 0
0 0
0 0
0 0
0 0
0 0
0 0
0 0
0 0
0 0
0 0
0 0
0 0
0 0
0 0
0 0
0 0
0 0
0 0
0 0
0 0
0 0
0 0
0 0
0 0
0 0
0 0
0 0
0 0
0 0
0 0
0 0
0 0
0 0
0 0
0 0
0 0
0 0
0 0
0 0
0 0
0 0
0 0
0 0
0 0
0 0
0 0
0 0
0 0
0 0
0 0
0 0
0 0
0 0
0 0
0 0
0 0
0 0
0 0
0 0
0 0
0 0
0 0
0 0
0 0
0 0
0 0
0 0
0 0
0 0
0 0
0 0
0 0
0 0
0 0
0 0
0 0
0 0
0 0
0 0
0 0
0 0
0 0
0 0
0 0
0 0
0 0
0 0
0 0
0 0
0 0
0 0
0 0
0 0
0 0
0 0
0 0
0 0
0 0
0 0
0 0
0 0
0 0
0 0
0 0
0 0
0 0
0 0
0 0
0 0
0 0
0 0
0 0
0 0
0 0
0 0
0 0
0 0
0 0
0 0
0 0
0 0
0 0
0 0
0 0
0 0
0 0
0 0
0 0
0 0
0 0
0 0
0 0
0 0
0 0
0 0
0 0
0 0
0 0
0 0
0 0
0 0
0 0
0 0
0 0
0 0
0 0
0 0
0 0
0 0
0 0
0 0
0 0
0 0
0 0
0 0
0 0
0 0
0 0
0 0
0 0
0 0
0 0
0 0
0 0
0 0
0 0
0 0
0 0
0 0
0 0
0 0
0 0
0 0
0 0
0 0
0 0
0 0
0 0
0 0
0 0
0 0
0 0
0 0
0 0
0 0
0 0
0 0
0 0
0 0
0 0
0 0
0 0
0 0
0 0
0 0
0 0
0 0
0 0
0 0
0 0
0 0
0 0
0 0
0 0
0 0
0 0
0 0
0 0
0 0
0 0
0 0
0 0
0 0
0 0
0 0
0 0
0 0
0 0
0 0
0 0
0 0
0 0
0 0
0 0
0 0
0 0
0 0
0 0
0 0
0 0
0 0
0 0
0 0
0 0
0 0
0 0
0 0
0 0
0 0
0 0
0 0
0 0
0 0
0 0
0 0
0 0
0 0
0 0
0 0
0 0
0 0
0 0
0 0
0 0
0 0
0 0
0 0
0 0
0 0
0 0
0 0
0 0
0 0
0 0
0 0
0 0
0 0
0 0
0 0
0 0
0 0
0 0
0 0
0 0
0 0
0 0
0 0
0 0
0 0
0 0
0 0
0 0
0 0
0 0
0 0
0 0
0 0
0 0
0 0
0 0
0 0
0 0
0 0
0 0
0 0
0 0
0 0
0 0
0 0
0 0
0 0
0 0
0 0
0 0
0 0
0 0
0 0
0 0
0 0
0 0
0 0
0 0
0 0
0 0
0 0
0 0
0 0
0 0
0 0
0 0
0 0
0 0
0 0
0 0
0 0
0 0
0 0
0 0
0 0
0 0
0 0
0 0
0 0
0 0
0 0
0 0
0 0
0 0
0 0
0 0
0 0
0 0
0 0
0 0
0 0
0 0
0 0
0 0
0 0
0 0
0 0
0 0
0 0
0 0
0 0
0 0
0 0
0 0
0 0
0 0
0 0
0 0
0 0
0 0
0 0
0 0
0 0
0 0
0 0
0 0
0 0
0 0
0 0
0 0
0 0
0 0
0 0
0 0
0 0
0 0
0 0
0 0
0 0
0 0
0 0
0 0
0 0
0 0
0 0
0 0
0 0
0 0
0 0
0 0
0 0
0 0
0 0
0 0
0 0
0 0
0 0
0 0
0 0
0 0
0 0
0 0
0 0
0 0
0 0
0 0
0 0
0 0
0 0
0 0
0 0
0 0
0 0
0 0
0 0
0 0
0 0
0 0
0 0
0 0
0 0
0 0
0 0
0 0
0 0
0 0
0 0
0 0
0 0
0 0
0 0
0 0
0 0
0 0
0 0
0 0
0 0
0 0
0 0
0 0
0 0
0 0
0 0
0 0
0 0
0 0
0 0
0 0
0 0
0 0
0 0
0 0
0 0
0 0
0 0
0 0
0 0
0 0
0 0
0 0
0 0
0 0
0 0
0 0
0 0
0 0
0 0
0 0
0 0
0 0
0 0
0 0
0 0
0 0
0 0
0 0
0 0
0 0
0 0
0 0
0 0
0 0
0 0
0 0
0 0
0 0
0 0
0 0
0 0
0 0
0 0
0 0
0 0
0 0
0 0
0 0
0 0
0 0
0 0
0 0
0 0
0 0
0 0
0 0
0 0
0 0
0 0
0 0
0 0
0 0
0 0
0 0
0 0
0 0
0 0
0 0
0 0
0 0
0 0
0 0
0 0
0 0
0 0
0 0
0 0
0 0
0 0
0 0
0 0
0 0
0 0
0 0
0 0
0 0
0 0
0 0
0 0
0 0
0 0
0 0
0 0
0 0
0 0
0 0
0 0
0 0
0 0
0 0
0 0
0 0
0 0
0 0
0 0
0 0
0 0
0 0
0 0
0 0
0 0
0 0
0 0
0 0
0 0
0 0
0 0
0 0
0 0
0 0
0 0
0 0
0 0
0 0
0 0
0 0
0 0
0 0
0 0
0 0
0 0
0 0
0 0
0 0
0 0
0 0
0 0
0 0
0 0
0 0
0 0
0 0
0 0
0 0
0 0
0 0
0 0
0 0
0 0
0 0
0 0
0 0
0 0
0 0
0 0
0 0
0 0
0 0
0 0
0 0
0 0
0 0
0 0
0 0
0 0
0 0
0 0
0 0
0 0
0 0
0 0
0 0
0 0
0 0
0 0
0 0
0 0
0 0
0 0
0 0
0 0
0 0
0 0
0 0
0 0
0 0
0 0
0 0
0 0
0 0
0 0
0 0
0 0
0 0
0 0
0 0
0 0
0 0
0 0
0 0
0 0
0 0
0 0
0 0
0 0
0 0
0 0
0 0
0 0
0 0
0 0
0 0
0 0
0 0
0 0
0 0
0 0
0 0
0 0
0 0
0 0
0 0
0 0
0 0
0 0
0 0
0 0
0 0
0 0
0 0
0 0
0 0
0 0
0 0
0 0
0 0
0 0
0 0
0 0
0 0
0 0
0 0
0 0
0 0
0 0
0 0
0 0
0 0
0 0
0 0
0 0
0 0
0 0
0 0
0 0
0 0
0 0
0 0
0 0
0 0
0 0
0 0
0 0
0 0
0 0
0 0
0 0
0 0
0 0
0 0
0 0
0 0
0 0
0 0
0 0
0 0
0 0
0 0
0 0
0 0
0 0
0 0
0 0
0 0
0 0
0 0
0 0
0 0
0 0
0 0
0 0
0 0
0 0
0 0
0 0
0 0
0 0
0 0
0 0
0 0
0 0
0 0
0 0
0 0
0 0
0 0
0 0
0 0
0 0
0 0
0 0
0 0
0 0
0 0
0 0
0 0
0 0
0 0
0 0
0 0
0 0
0 0
0 0
0 0
0 0
0 0
0 0
0 0
0 0
0 0
0 0
0 0
0 0
0 0
0 0
0 0
0 0
0 0
0 0
0 0
0 0
0 0
0 0
0 0
0 0
0 0
0 0
0 0
0 0
0 0
0 0
0 0
0 0
0 0
0 0
0 0
0 0
0 0
0 0
0 0
0 0
0 0
0 0
0 0
0 0
0 0
0 0
0 0
0 0
0 0
0 0
0 0
0 0
0 0
0 0
0 0
0 0
0 0
0 0
0 0
0 0
0 0
0 0
0 0
0 0
0 0
0 0
0 0
0 0
0 0
0 0
0 0
0 0
0 0
0 0
0 0
0 0
0 0
0 0
0 0
0 0
0 0
0 0
0 0
0 0
0 0
0 0
0 0
0 0
0 0
0 0
0 0
0 0
0 0
0 0
0 0
0 0
0 0
0 0
0 0
0 0
0 0
0 0
0 0
0 0
0 0
0 0
0 0
0 0
0 0
0 0
0 0
0 0
0 0
0 0
0 0
0 0
0 0
0 0
0 0
0 0
0 0
0 0
0 0
0 0
0 0
0 0
0 0
0 0
0 0
0 0
0 0
0 0
0 0
0 0
0 0
0 0
0 0
0 0
0 0
0 0
0 0
0 0
0 0
0 0
0 0
0 0
0 0
0 0
0 0
0 0
0 0
0 0
0 0
0 0
0 0
0 0
0 0
0 0
0 0
0 0
0 0
0 0
0 0
0 0
0 0
0 0
0 0
0 0
0 0
0 0
0 0
0 0
0 0
0 0
0 0
0 0
0 0
0 0
0 0
0 0
0 0
0 0
0 0
0 0
0 0
0 0
0 0
0 0
0 0
0 0
0 0
0 0
0 0
0 0
0 0
0 0
0 0
0 0
0 0
0 0
0 0
0 0
0 0
0 0
0 0
0 0
0 0
0 0
0 0
0 0
0 0
0 0
0 0
0 0
0 0
0 0
0 0
0 0
0 0
0 0
0 0
0 0
0 0
0 0
0 0
0 0
0 0
0 0
0 0
0 0
0 0
0 0
0 0
0 0
0 0
0 0
0 0
0 0
0 0
0 0
0 0
0 0
0 0
0 0
0 0
0 0
0 0
0 0
0 0
0 0
0 0
0 0
0 0
0 0
0 0
0 0
0 0
0 0
0 0
0 0
0 0
0 0
0 0
0 0
0 0
0 0
0 0
0 0
0 0
0 0
0 0
0 0
0 0
0 0
0 0
0 0
0 0
0 0
0 0
0 0
0 0
0 0
0 0
0 0
0 0
0 0
0 0
0 0
0 0
0 0
0 0
0 0
0 0
0 0
0 0
0 0
0 0
0 0
0 0
0 0
0 0
0 0
0 0
0 0
0 0
0 0
0 0
0 0
0 0
0 0
0 0
0 0
0 0
0 0
0 0
0 0
0 0
0 0
0 0
0 0
0 0
0 0
0 0
0 0
0 0
0 0
0 0
0 0
0 0
0 0
0 0
0 0
0 0
0 0
0 0
0 0
0 0
0 0
0 0
0 0
0 0
0 0
0 0
0 0
0 0
0 0
0 0
0 0
0 0
0 0
0 0
0 0
0 0
0 0
0 0
0 0
0 0
0 0
0 0
0 0
0 0
0 0
0 0
0 0
0 0
0 0
0 0
0 0
0 0
0 0
0 0
0 0
0 0
0 0
0 0
0 0
0 0
0 0
0 0
0 0
0 0
0 0
0 0
0 0
0 0
0 0
0 0
0 0
0 0
0 0
0 0
0 0
0 0
0 0
0 0
0 0
0 0
0 0
0 0
0 0
0 0
0 0
0 0
0 0
0 0
0 0
0 0
0 0
0 0
0 0
0 0
0 0
0 0
0 0
0 0
0 0
0 0
0 0
0 0
0 0
0 0
0 0
0 0
0 0
0 0
0 0
0 0
0 0
0 0
0 0
0 0
0 0
0 0
0 0
0 0
0 0
0 0
0 0
0 0
0 0
0 0
0 0
0 0
0 0
0 0
0 0
0 0
0 0
0 0
0 0
0 0
0 0
0 0
0 0
0 0
0 0
0 0
0 0
0 0
0 0
0 0
0 0
0 0
0 0
0 0
0 0
0 0
0 0
0 0
0 0
0 0
0 0
0 0
0 0
0 0
0 0
0 0
0 0
0 0
0 0
0 0
0 0
0 0
0 0
0 0
0 0
0 0
0 0
0 0
0 0
0 0
0 0
0 0
0 0
0 0
0 0
0 0
0 0
0 0
0 0
0 0
0 0
0 0
0 0
0 0
0 0
0 0
0 0
0 0
0 0
0 0
0 0
0 0
0 0
0 0
0 0
0 0
0 0
0 0
0 0
0 0
0 0
0 0
0 0
0 0
0 0
0 0
0 0
0 0
0 0
0 0
0 0
0 0
0 0
0 0
0 0
0 0
0 0
0 0
0 0
0 0
0 0
0 0
0 0
0 0
0 0
0 0
0 0
0 0
0 0
0 0
0 0
0 0
0 0
0 0
0 0
0 0
0 0
0 0
0 0
0 0
0 0
0 0
0 0
0 0
0 0
0 0
0 0
0 0
0 0
0 0
0 0
0 0
0 0
0 0
0 0
0 0
0 0
0 0
0 0
0 0
0 0
0 0
0 0
0 0
0 0
0 0
0 0
0 0
0 0
0 0
0 0
0 0
0 0
0 0
0 0
0 0
0 0
0 0
0 0
0 0
0 0
0 0
0 0
0 0
0 0
0 0
0 0
0 0
0 0
0 0
0 0
0 0
0 0
0 0
0 0
0 0
0 0
0 0
0 0
0 0
0 0
0 0
0 0
0 0
0 0
0 0
0 0
0 0
0 0
0 0
0 0
0 0
0 0
0 0
0 0
0 0
0 0
0 0
0 0
0 0
0 0
0 0
0 0
0 0
0 0
0 0
0 0
0 0
0 0
0 0
0 0
0 0
0 0
0 0
0 0
0 0
0 0
0 0
0 0
0 0
0 0
0 0
0 0
0 0
0 0
0 0
0 0
0 0
0 0
0 0
0 0
0 0
0 0
0 0
0 0
0 0
0 0
0 0
0 0
0 0
0 0
0 0
0 0
0 0
0 0
0 0
0 0
0 0
0 0
0 0
0 0
0 0
0 0
0 0
0 0
0 0
0 0
0 0
0 0
0 0
0 0
0 0
0 0
0 0
0 0
0 0
0 0
0 0
0 0
0 0
0 0
0 0
0 0
0 0
0 0
0 0
0 0
0 0
0 0
0 0
0 0
0 0
0 0
0 0
0 0
0 0
0 0
0 0
0 0
0 0
0 0
0 0
0 0
0 0
0 0
0 0
0 0
0 0
0 0
0 0
0 0
0 0
0 0
0 0
0 0
0 0
0 0
0 0
0 0
0 0
0 0
0 0
0 0
0 0
0 0
0 0
0 0
0 0
0 0
0 0
0 0
0 0
0 0
0 0
0 0
0 0
0 0
0 0
0 0
0 0
0 0
0 0
0 0
0 0
0 0
0 0
0 0
0 0
0 0
0 0
0 0
0 0
0 0
0 0
0 0
0 0
0 0
0 0
0 0
0 0
0 0
0 0
0 0
0 0
0 0
0 0
0 0
0 0
0 0
0 0
0 0
0 0
0 0
0 0
0 0
0 0
0 0
0 0
0 0
0 0
0 0
0 0
0 0
0 0
0 0
0 0
0 0
0 0
0 0
0 0
0 0
0 0
0 0
0 0
0 0
0 0
0 0
0 0
0 0
0 0
0 0
0 0
0 0
0 0
0 0
0 0
0 0
0 0
0 0
0 0
0 0
0 0
0 0
0 0
0 0
0 0
0 0
0 0
0 0
0 0
0 0
0 0
0 0
0 0
0 0
0 0
0 0
0 0
0 0
0 0
0 0
0 0
0 0
0 0
0 0
0 0
0 0
0 0
0 0
0 0
0 0
0 0
0 0
0 0
0 0
0 0
0 0
0 0
0 0
0 0
0 0
0 0
0 0
0 0
0 0
0 0
0 0
0 0
0 0
0 0
0 0
0 0
0 0
0 0
0 0
0 0
0 0
0 0
0 0
0 0
0 0
0 0
0 0
0 0
0 0
0 0
0 0
0 0
0 0
0 0
0 0
0 0
0 0
0 0
0 0
0 0
0 0
0 0
0 0
0 0
0 0
0 0
0 0
0 0
0 0
0 0
0 0
0 0
0 0
0 0
0 0
0 0
0 0
0 0
0 0
0 0
0 0
0 0
0 0
0 0
0 0
0 0
0 0
0 0
0 0
0 0
0 0
0 0
0 0
0 0
0 0
0 0
0 0
0 0
0 0
0 0
0 0
0 0
0 0
0 0
0 0
0 0
0 0
0 0
0 0
0 0
0 0
0 0
0 0
0 0
0 0
0 0
0 0
0 0
0 0
0 0
0 0
0 0
0 0
0 0
0 0
0 0
0 0
0 0
0 0
0 0
0 0
0 0
0 0
0 0
0 0
0 0
0 0
0 0
0 0
0 0
0 0
0 0
0 0
0 0
0 0
0 0
0 0
0 0
0 0
0 0
0 0
0 0
0 0
0 0
0 0
0 0
0 0
0 0
0 0
0 0
0 0
0 0
0 0
0 0
0 0
0 0
0 0
0 0
0 0
0 0
0 0
0 0
0 0
0 0
0 0
0 0
0 0
0 0
0 0
0 0
0 0
0 0
0 0
0 0
0 0
0 0
0 0
0 0
0 0
0 0
0 0
0 0
0 0
0 0
0 0
0 0
0 0
0 0
0 0
0 0
0 0
0 0
0 0
0 0
0 0
0 0
0 0
0 0
0 0
0 0
0 0
0 0
0 0
0 0
0 0
0 0
0 0
0 0
0 0
0 0
0 0
0 0
0 0
0 0
0 0
0 0
0 0
0 0
0 0
0 0
0 0
0 0
0 0
0 0
0 0
0 0
0 0
0 0
0 0
0 0
0 0
0 0
0 0
0 0
0 0
0 0
0 0
0 0
0 0
0 0
0 0
0 0
0 0
0 0
0 0
0 0
0 0
0 0
0 0
0 0
0 0
0 0
0 0
0 0
0 0
0 0
0 0
0 0
0 0
0 0
0 0
0 0
0 0
0 0
0 0
0 0
0 0
0 0
0 0
0 0
0 0
0 0
0 0
0 0
0 0
0 0
0 0
0 0
0 0
0 0
0 0
0 0
0 0
0 0
0 0
0 0
0 0
0 0
0 0
0 0
0 0
0 0
0 0
0 0
0 0
0 0
0 0
0 0
0 0
0 0
0 0
0 0
0 0
0 0
0 0
0 0
0 0
0 0
0 0
0 0
0 0
0 0
0 0
0 0
0 0
0 0
0 0
0 0
0 0
0 0
0 0
0 0
0 0
0 0
0 0
0 0
0 0
0 0
0 0
0 0
0 0
0 0
0 0
0 0
0 0
0 0
0 0
0 0
0 0
0 0
0 0
0 0
0 0
0 0
0 0
0 0
0 0
0 0
0 0
0 0
0 0
0 0
0 0
0 0
0 0
0 0
0 0
0 0
0 0
0 0
0 0
0 0
0 0
0 0
0 0
0 0
0 0
0 0
0 0
0 0
0 0
0 0
0 0
0 0
0 0
0 0
0 0
0 0
0 0
0 0
0 0
0 0
0 0
0 0
0 0
0 0
0 0
0 0
0 0
0 0
0 0
0 0
0 0
0 0
0 0
0 0
0 0
0 0
0 0
0 0
0 0
0 0
0 0
0 0
0 0
0 0
0 0
0 0
0 0
0 0
0 0
0 0
0 0
0 0
0 0
0 0
0 0
0 0
0 0
0 0
0 0
0 0
0 0
0 0
0 0
0 0
0 0
0 0
0 0
0 0
0 0
0 0
0 0
0 0
0 0
0 0
0 0
0 0
0 0
0 0
0 0
0 0
0 0
0 0
0 0
0 0
0 0
0 0
0 0
0 0
0 0
0 0
0 0
0 0
0 0
0 0
0 0
0 0
0 0
0 0
0 0
0 0
0 0
0 0
0 0
0 0
0 0
0 0
0 0
0 0
0 0
0 0
0 0
0 0
0 0
0 0
0 0
0 0
0 0
0 0
0 0
0 0
0 0
0 0
0 0
0 0
0 0
0 0
0 0
0 0
0 0
0 0
0 0
0 0
0 0
0 0
0 0
0 0
0 0
0 0
0 0
0 0
0 0
0 0
0 0
0 0
0 0
0 0
0 0
0 0
0 0
0 0
0 0
0 0
0 0
0 0
0 0
0 0
0 0
0 0
0 0
0 0
0 0
0 0
0 0
0 0
0 0
0 0
0 0
0 0
0 0
0 0
0 0
0 0
0 0
0 0
0 0
0 0
0 0
0 0
0 0
0 0
0 0
0 0
0 0
0 0
0 0
0 0
0 0
0 0
0 0
0 0
0 0
0 0
0 0
0 0
0 0
0 0
0 0
0 0
0 0
0 0
0 0
0 0
0 0
0 0
0 0
0 0
0 0
0 0
0 0
0 0
0 0
0 0
0 0
0 0
0 0
0 0
0 0
0 0
0 0
0 0
0 0
0 0
0 0
0 0
0 0
0 0
0 0
0 0
0 0
0 0
0 0
0 0
0 0
0 0
0 0
0 0
0 0
0 0
0 0
0 0
0 0
0 0
0 0
0 0
0 0
0 0
0 0
0 0
0 0
0 0
0 0
0 0
0 0
0 0
0 0
0 0
0 0
0 0
0 0
0 0
0 0
0 0
0 0
0 0
0 0
0 0
0 0
0 0
0 0
0 0
0 0
0 0
0 0
0 0
0 0
0 0
0 0
0 0
0 0
0 0
0 0
0 0
0 0
0 0
0 0
0 0
0 0
0 0
0 0
0 0
0 0
0 0
0 0
0 0
0 0
0 0
0 0
0 0
0 0
0 0
0 0
0 0
0 0
0 0
0 0
0 0
0 0
0 0
0 0
0 0
0 0
0 0
0 0
0 0
0 0
0 0
0 0
0 0
0 0
0 0
0 0
0 0
0 0
0 0
0 0
0 0
0 0
0 0
0 0
0 0
0 0
0 0
0 0
0 0
0 0
0 0
0 0
0 0
0 0
0 0
0 0
0 0
0 0
0 0
0 0
0 0
0 0
0 0
0 0
0 0
0 0
0 0
0 0
0 0
0 0
0 0
0 0
0 0
0 0
0 0
0 0
0 0
0 0
0 0
0 0
0 0
0 0
0 0
0 0
0 0
0 0
0 0
0 0
0 0
0 0
0 0
0 0
0 0
0 0
0 0
0 0
0 0
0 0
0 0
0 0
0 0
0 0
0 0
0 0
0 0
0 0
0 0
0 0
0 0
0 0
      </DataArray> 
      <DataArray type="Float64" NumberOfComponents="2" Name="CauchyNormalStress" format="ascii">
-4.45714 -0.0391696
-1.52429 4.65557
-168.749 -33.1598
0.719327 0.0502826
-9.92633 -6.91517
310.065 50.8955
-0.231797 -0.133565
138.436 3.38103
-0.365987 -0.561013
-75.4931 -1.63531
-0.238355 0.614258
100.379 2.21778
-0.203002 0.634318
-57.5219 -1.38154
-0.0720837 1.46244
61.7934 1.26498
-0.652699 2.27972
-40.1631 -0.710407
0.0742766 2.27834
22.5165 0.939935
0.137551 2.32731
-22.284 -0.56332
-0.263199 2.62394
0.382704 4.61156
0.0837706 4.10395
0.0372627 3.63336
0.00182797 3.35088
-0.0367148 3.38785
0.0698607 4.20404
0.325369 5.11687
-0.24708 5.55617
-3.93691 0.499428
-4.66677 -0.47921
-4.34356 -0.0107535
-4.5645 -0.0277735
-5.01982 0.0169421
-5.61261 0.00766809
-6.35708 0.0153489
-7.19729 0.00890591
-8.05938 0.0093858
-8.97424 0.0050399
-9.91132 0.00308973
-10.8684 -0.000606316
-11.8413 -0.0043633
-12.8082 -0.00342107
-13.7831 -0.00666052
-14.7336 -0.00608934
-15.6771 -0.0125233
-16.5627 -0.013568
-17.4081 -0.0287761
-18.1376 -0.0183829
-18.7805 -0.0368922
-19.2442 -0.00237502
-19.5929 0.00829991
-19.8655 0.0530848
-20.1149 0.125725
-20.8591 0.11065
-21.935 0.25694
-23.9237 0.064352
-26.4592 0.16676
-29.5711 0.0398316
-32.5701 -0.0970902
-34.9054 -0.0582891
-36.5234 -0.198485
-37.2937 -0.0834169
-37.6633 -0.0859915
-37.7879 -0.0252586
-37.9264 0.0254529
-38.17 0.0149913
-38.5569 0.0369491
-39.1169 0.0184547
-39.772 0.0289338
-40.5446 0.0156352
-41.3623 0.0157171
-42.2471 0.00701922
-43.1475 0.00394941
-44.063 -0.00167146
-44.9713 -0.00856007
-45.8425 -0.010385
-46.673 -0.0242684
-47.4001 -0.0151697
-48.0369 -0.0312528
-48.4998 0.00683982
-48.8278 0.0223837
-49.1405 0.0844765
-49.4948 0.192568
-50.2918 0.0806734
-51.6781 0.189358
-54.1264 0.023243
-57.1923 0.0293229
-60.4184 -0.0218267
-63.2813 -0.187587
-65.136 -0.0864493
-66.2664 -0.222713
-66.6015 -0.0806536
-66.711 -0.056406
-66.7131 -0.0222579
-66.8198 0.0363934
-67.101 0.0227783
-67.5285 0.0425686
-68.1502 0.0224684
-68.8531 0.0307182
-69.6694 0.0167354
-70.522 0.016111
-71.4371 0.00815725
-72.3569 0.00674239
-73.2998 0.00160905
-74.2278 -0.00160263
-75.133 -0.00574738
-75.9913 -0.0142794
-76.7485 -0.0108245
-77.3802 -0.027664
-77.8419 0.00423508
-78.1053 -0.0168946
-78.3293 0.0464053
-78.7089 0.0979071
-79.7039 0.0607815
-81.7118 0.180254
-84.5495 0.0729313
-88.2083 0.119694
-91.1266 -0.0851072
-93.7307 -0.252906
-95.0651 -0.0831982
-95.6613 -0.0911231
-95.6342 -0.0376548
-95.5442 0.0365596
-95.5175 0.0169812
-95.644 0.0639981
-96.0154 0.0336236
-96.504 0.0446717
-97.1973 0.0248621
-97.9445 0.0263939
-98.8108 0.0151863
-99.6983 0.0142886
-100.644 0.00766279
-101.603 0.00550813
-102.578 -0.000200455
-103.563 -0.00516955
-104.5 -0.0155958
-105.399 -0.0340809
-106.154 -0.0201797
-106.774 -0.0581176
-107.086 0.0207729
-107.22 0.00821177
-107.386 0.125637
-107.896 0.154004
-109.407 0.00926109
-112.275 0.120478
-115.67 -0.0570195
-119.347 -0.230738
-122.056 -0.0860931
-123.971 -0.323809
-124.555 -0.110358
-124.67 -0.0602571
-124.401 -0.0212362
-124.234 0.0507998
-124.228 0.0251473
-124.442 0.0494489
-124.885 0.0270435
-125.465 0.0304262
-126.189 0.0172726
-126.973 0.0139483
-127.817 0.00578354
-128.678 8.08382e-05
-129.528 -0.0017797
-130.367 -0.00838431
-131.147 -0.00443884
-131.871 -0.0130778
-132.484 0.00236326
-132.962 -0.00154523
-133.285 0.0598384
-133.346 0.100423
-133.282 0.482108
-133.017 0.376687
-131.634 3.527
-151.783 -3.43982
-126.916 -38.0839
-101.938 -31.0734
-91.7366 -27.5266
-80.5509 -24.0534
-69.5837 -20.8784
-58.1341 -17.2524
-43.5026 -13.052
-28.6456 -8.578
-14.0815 -4.2244
-5.3337 -4.84843
-8.534 -8.38558
-7.9681 -9.08837
-8.92728 -7.96719
-7.31373 -6.96145
-7.11657 -5.9375
-5.49477 -6.47862
-6.91908 -6.8857
-5.45343 -7.11089
-5.9833 -0.730047
0.0304316 0.659276
0.78334 0.0551251
1.67063 0.0917808
2.72133 -0.0151621
3.90758 -0.00260796
5.34444 -0.0223863
6.92756 -0.0125256
8.55154 -0.0135621
10.2626 -0.00691676
12.016 -0.00234144
13.7932 0.00475324
15.5935 0.0131506
17.3569 0.012687
19.1242 0.0221886
20.8077 0.0193647
22.4615 0.0350014
23.9622 0.0299956
25.3691 0.0545323
26.544 0.0267598
27.559 0.039677
28.3247 -0.0221249
28.9558 -0.0685562
29.6643 -0.117121
30.5748 -0.259437
32.448 -0.156353
35.2335 -0.32612
39.6301 -0.0472591
44.9169 -0.0552342
50.6936 0.0251313
55.8284 0.282162
59.6157 0.129496
61.9549 0.279607
63.0045 0.115238
63.4765 0.0548884
63.7511 0.0162293
64.188 -0.0659532
64.9357 -0.0349251
65.9589 -0.0652887
67.2994 -0.0322692
68.7937 -0.0371667
70.4558 -0.0190888
72.173 -0.0111487
73.9432 -0.00221136
75.7115 0.00692969
77.4392 0.0107014
79.1246 0.0224244
80.6912 0.0201281
82.1558 0.0369411
83.4409 0.0192218
84.5473 0.0352394
85.4362 -0.00073287
86.118 0.00125137
86.9717 -0.087773
88.0788 -0.101936
90.1009 -0.125429
93.3609 -0.371253
98.3408 -0.118277
103.962 0.146535
109.915 0.0981809
114.744 0.345072
117.824 0.154651
119.509 0.290339
120.032 0.116327
120.224 0.0143647
120.357 0.00451613
120.751 -0.0751808
121.533 -0.043946
122.589 -0.0681071
123.968 -0.0351146
125.492 -0.0402138
127.173 -0.0211833
128.907 -0.0137559
130.703 -0.00543395
132.489 0.000806619
134.272 0.00380188
136.008 0.0102618
137.672 0.0136122
139.238 0.0246344
140.626 0.0159988
141.796 0.0326718
142.724 -0.0251662
143.325 -0.00655261
144.112 -0.144605
145.189 -0.349254
147.496 -0.144464
151.396 -0.343497
157.125 0.00318967
163.542 0.181911
169.36 0.112837
173.581 0.426367
175.824 0.163586
176.716 0.203276
176.735 0.0642338
176.621 -0.0639419
176.728 -0.0361432
177.153 -0.109493
178.028 -0.0539347
179.137 -0.0685067
180.591 -0.0408985
182.144 -0.0365415
183.884 -0.0214989
185.656 -0.0162316
187.502 -0.00788275
189.365 -0.003108
191.23 0.00369845
193.099 0.00721883
194.886 0.0188517
196.596 0.0227679
198.049 0.0127995
199.125 0.0500531
199.797 -0.0863439
200.244 -0.247292
200.556 -0.191589
201.769 -0.380748
204.943 -0.0657135
210.294 -0.234124
216.726 0.107545
223.574 0.400307
228.61 0.157064
232.088 0.552146
233.19 0.200294
233.408 0.089865
232.984 0.0369469
232.773 -0.0932246
232.892 -0.0459812
233.439 -0.084602
234.415 -0.0480829
235.655 -0.0500098
237.158 -0.0294302
238.778 -0.0215023
240.504 -0.00717268
242.267 0.00298918
244.009 0.0074082
245.737 0.0182312
247.357 0.0135328
248.884 0.0290588
250.208 0.00432166
251.3 0.0148232
252.11 -0.0873097
252.49 -0.139664
252.624 -0.730172
252.512 -0.552477
250.617 -5.42627
283.393 5.52633
238.349 59.5721
193.679 49.1972
174.243 43.5515
153.324 38.1633
132.562 33.135
111.112 27.4899
83.5172 20.8773
55.5973 13.8442
28.2422 7.06061
-1.67063 -5.83162
-2.80717 -7.75266
-2.63622 -8.55939
-0.495675 -0.203321
7.25255 6.10661
20.897 15.9557
43.4759 20.7897
69.3562 21.6867
101.087 19.0681
123.41 12.0464
143.141 7.32754
124.864 4.94096
93.1758 6.31855
59.4938 5.84306
26.3108 2.09475
-2.14869 -11.3023
-15.2032 -23.1465
-25.1631 -43.0564
-21.5702 -49.9182
-15.5355 -59.3893
-8.91459 -47.5642
-3.73874 -26.6021
1.94568 16.294
4.66852 26.3759
8.37125 32.0607
11.3003 26.5041
13.3354 22.7246
7.53924 11.7976
0.334777 5.67686
-15.4546 -1.27473
-33.0188 -3.20958
-51.2713 -3.37512
-68.2453 -2.70499
-77.6837 -4.14852
-66.5879 -6.58234
-54.4697 -10.5713
-37.2486 -11.6082
-23.461 -11.0568
-11.41 -8.29729
-3.89129 -3.05862
0.321319 0.304673
1.57217 4.96343
1.5254 4.49904
0.945872 3.66118
-1.61355 -0.504478
-1.36811 -0.782184
-1.09611 0.573448
1.48724 6.93561
8.64865 11.7591
19.5713 17.4758
37.3175 19.6977
56.2526 18.6706
79.1382 15.5447
94.2794 9.32985
106.202 5.34107
84.3079 2.9949
56.2954 3.8564
29.1884 1.52107
6.48913 -3.15373
-12.4839 -16.0129
-18.645 -25.7894
-23.1196 -41.5612
-17.7948 -44.4318
-12.7415 -48.4338
-6.52999 -36.2918
-2.12504 -19.1013
1.62098 14.3512
4.11859 22.5437
7.62311 27.4228
9.96351 23.1205
12.2914 20.2038
8.04923 11.2466
3.15985 6.18458
-9.10149 0.179669
-22.6057 -1.75282
-37.1064 -2.33521
-51.0222 -2.1108
-60.97 -3.26674
-53.6761 -5.14418
-45.2391 -8.70358
-31.9184 -10.325
-21.0393 -10.9454
-10.8595 -9.60034
-4.66634 -6.18986
-0.690844 -3.308
0.80669 0.598847
0.814 1.49201
0.985918 1.61526
-1.19639 4.32566
-0.555353 7.15844
0.815816 9.67921
4.33891 13.6472
10.3372 16.5049
18.3888 18.7891
31.3684 18.5202
43.4893 15.4375
57.4704 11.9341
65.2834 6.53682
69.3413 3.52131
47.3016 1.2415
27.1915 1.0555
7.64564 -2.52721
-5.71422 -7.33641
-17.7355 -19.4408
-18.1652 -26.5252
-19.2147 -37.5011
-14.9987 -36.6078
-8.74131 -40.7298
-3.99911 -30.1233
-1.60148 -14.8742
1.24743 12.377
3.34052 19.0942
6.49838 23.1546
8.68752 19.6958
11.1841 17.6482
8.43479 10.8087
6.12049 6.8293
-2.78041 1.67166
-11.8985 -0.0968999
-23.4359 -1.05652
-33.8159 -1.01384
-44.0451 -2.48435
-40.135 -4.17578
-35.4223 -7.46402
-26.376 -8.94759
-19.177 -10.5198
-11.3502 -10.0197
-6.37204 -8.65394
-2.3656 -6.61588
-0.438541 -3.57793
0.227752 -2.01092
0.797567 -0.175163
0.327316 10.2982
2.04625 15.8315
5.32532 20.0186
9.17746 20.2355
16.182 21.8558
20.6124 17.6902
27.5248 16.5208
30.9174 12.0826
36.7581 9.05909
34.6295 4.39319
32.3753 2.43122
10.598 -0.0398991
-2.47132 -1.24475
-13.6409 -5.33567
-19.0934 -9.55274
-23.7786 -18.1382
-20.7292 -23.3638
-18.9089 -31.1524
-12.3054 -30.8495
-8.42017 -30.0397
-3.61995 -21.0238
-0.488286 -9.42124
0.697102 10.3016
2.41062 15.4964
5.01939 18.7114
6.95819 16.7448
9.67524 15.4345
9.14525 10.1704
8.68599 7.04366
4.01066 2.74666
-1.4919 1.01728
-8.97524 -0.254362
-16.7953 -0.513917
-27.2501 -1.89462
-26.6508 -3.04367
-26.4933 -6.03657
-21.6277 -7.46764
-18.5273 -10.5252
-12.6237 -10.5641
-9.26964 -11.7729
-4.96505 -9.80693
-2.96178 -8.90191
-1.0284 -5.95126
0.101009 -2.51199
-4.44935 0.160417
-2.99715 0.086103
-2.92405 -0.0285947
-2.8607 0.00611509
-2.80429 -0.00423564
-2.74966 0.00858505
-2.70291 0.00305193
-2.65724 0.00145157
-2.61705 -0.0064046
-2.57329 -0.0147823
-2.53401 -0.0278133
-2.48523 -0.0413148
-2.44338 -0.0598401
-2.38543 -0.0757557
-2.33494 -0.0975896
-2.26243 -0.113219
-2.19582 -0.133696
-2.0995 -0.14477
-2.00426 -0.156355
-1.85938 -0.164953
-1.70944 -0.160271
-1.45933 -0.184056
-1.2213 -0.151381
-0.876043 -0.166056
-0.570192 -0.0299512
-0.160135 0.374654
0.114895 1.28686
0.908473 -0.58872
1.0295 -0.892257
0.891089 -0.811961
0.738176 -0.731548
0.605819 -0.540174
0.474997 -0.415635
0.399534 -0.286026
0.329295 -0.19845
0.291885 -0.134973
0.263151 -0.0870016
0.244937 -0.0636952
0.237437 -0.0457356
0.227678 -0.0431749
0.228257 -0.0434178
0.225286 -0.0483715
0.227122 -0.0598981
0.232598 -0.0640498
0.232451 -0.0796176
0.250214 -0.0733536
0.246881 -0.0833923
0.278913 -0.0578729
0.320316 -0.0601094
0.283511 -0.0335164
0.260707 0.0377481
0.235258 0.108556
-0.271452 1.04274
-0.23078 -0.0412736
0.0543217 0.0155286
0.179213 0.143734
0.130039 -0.0819005
0.0842177 -0.0761871
0.00337199 -0.105048
-0.0993312 -0.101839
-0.132849 -0.0732647
-0.218953 -0.0986709
-0.241733 -0.086206
-0.290551 -0.0944249
-0.311264 -0.0982002
-0.339915 -0.107434
-0.344917 -0.117012
-0.340213 -0.127722
-0.344271 -0.129332
-0.331767 -0.140161
-0.306787 -0.133631
-0.279111 -0.137202
-0.226528 -0.113531
-0.139481 -0.0767624
-0.129957 -0.0500134
-0.0853043 0.0136317
0.0739604 0.108682
-0.0734021 1.01565
-0.232899 0.523843
0.068168 0.403055
-0.0433626 0.288779
-0.0499184 0.0947554
-0.286483 -0.040355
-0.378159 -0.0654065
-0.546105 -0.120983
-0.647042 -0.117248
-0.747951 -0.13696
-0.812184 -0.13544
-0.864721 -0.143644
-0.914359 -0.148028
-0.950052 -0.155373
-0.956009 -0.160585
-0.962865 -0.169643
-0.94386 -0.171057
-0.933336 -0.180836
-0.875806 -0.169299
-0.838832 -0.165303
-0.743373 -0.12563
-0.650694 -0.0649578
-0.475528 0.0389091
-0.283532 0.273836
-0.0718371 0.727763
1.0798 0.752733
-0.377239 1.34411
0.0988184 0.822569
-0.0646328 0.332193
-0.253589 0.127656
-0.550579 -0.0571944
-0.784791 -0.064262
-1.01224 -0.162841
-1.1537 -0.17663
-1.30193 -0.205776
-1.38578 -0.202453
-1.44583 -0.19422
-1.52097 -0.199776
-1.55999 -0.202047
-1.56967 -0.213204
-1.57508 -0.224496
-1.53921 -0.233787
-1.49542 -0.239686
-1.45309 -0.233935
-1.35817 -0.218072
-1.24898 -0.19011
-1.02321 -0.140241
-0.888656 -0.00863781
-0.687056 0.163548
-0.365118 0.291248
-0.147337 1.01297
-0.132468 1.43435
-17.6657 -2.22348
-72.2466 -0.111038
-21.3688 2.36694
-13.5819 -1.58564
-8.13121 -0.508535
-11.0032 -1.93467
-9.83101 -1.6934
-51.83 -4.2302
-42.531 -0.816149
-35.2853 -1.28543
-2.7981 -1.30668
-2.41098 -0.960232
-1.10302 -0.639672
0.185684 -0.210303
3.09567 5.58226
-1.95195 -0.746916
3.36337 5.93563
3.86788 6.64108
4.10562 6.78364
-44.319 2.07898
-34.8635 3.1103
-10.3855 -0.0160423
-16.4395 -0.147287
-35.9215 -0.19827
-24.1875 0.836745
-0.257992 1.14004
-30.4867 -6.11266
-72.889 0.517544
-19.6661 -1.14258
-0.652543 0.296225
-120.472 -3.68283
-25.6651 -0.112321
-53.664 0.0860189
-80.2673 -0.0872167
-101.953 -0.459997
-81.6094 -2.03555
-85.0944 -1.38758
-76.2556 -1.32975
-61.0694 0.663835
-63.3484 -0.518496
-43.181 0.339254
-31.137 -0.094261
-20.4519 -0.777352
-39.1467 2.51025
-19.11 -1.98686
-3.97372 -1.77832
-6.95456 -1.97258
-6.4564 -1.50657
-5.35442 -2.57105
-1.66011 -0.835298
-2.28238 -2.29041
-1.69657 -1.03042
-4.55494 -2.317
-1.20338 -1.03908
-1.55239 -0.580571
-1.1868 -0.603001
-3.67622 -1.47492
-0.452566 -0.914403
-0.210931 1.22527
-0.291187 -0.064202
-21.1656 -3.3753
-8.82398 -2.16461
-23.705 -6.47547
-8.96251 -2.3172
0.0759797 1.08258
0.426471 2.94999
-1.14511 0.23397
-1.50377 -0.208246
-1.56111 0.0521102
-2.52096 -0.357217
0.0114677 2.20759
-0.657282 2.16831
-112.735 -10.7455
-113.215 -19.1871
-127.637 -0.0827278
-147.053 -19.9821
-14.6345 0.0294858
-26.3981 -0.432987
-30.7244 -0.245623
-16.9195 -0.152561
-31.0033 -0.192442
-18.0016 0.123808
-10.3847 0.453731
-13.437 0.174506
-38.781 -0.549714
-31.6933 -0.765872
-33.748 -0.717249
-37.8348 -0.549616
-84.7449 -1.64296
-8.7936 0.184326
-9.06362 0.355095
-27.4319 -0.146525
-23.8852 -0.77227
-17.3387 -0.624925
-28.7175 -0.661789
-34.3212 -0.124956
-40.0667 0.261966
-26.3254 -0.366309
-33.7121 1.02592
-52.8422 -0.844867
-42.5638 -0.0674275
-14.1986 -0.101198
-14.1805 -0.106043
-14.0663 -0.191134
-14.0562 -0.225825
-12.5872 -0.279403
-12.5767 -0.363957
-10.415 -0.085376
-9.41717 -0.320459
-6.2069 -0.0405463
-6.24678 -0.0464091
-5.22492 -0.0923034
-5.22481 -0.115993
-9.04793 -0.128379
-4.8303 -0.150308
-4.7876 -0.162236
-6.34108 -0.337887
-6.36423 -0.286366
-8.16998 -0.232943
-12.0437 -0.210216
-12.8588 -0.12986
-13.2114 -0.0848459
-13.5979 -0.0235467
-9.43657 -0.251718
-9.83291 -0.191745
-9.82644 -0.148638
-10.4271 -0.114116
-10.2623 -0.579649
-13.4657 -0.337553
-16.1481 -0.167052
-17.3593 -0.0295412
-18.7208 -0.345929
-19.6694 -0.16907
-20.2509 -0.0662122
-49.202 -0.690874
-1.86832 -0.163406
-18.6405 -0.605304
-15.9822 -0.479954
-17.0971 -0.364062
-18.9649 -0.257572
-20.0337 -0.175238
-20.8638 -0.104253
-21.489 -0.0366214
-21.8572 0.0145452
-21.0676 0.12337
-26.5683 -0.500461
-27.4293 -0.358652
-27.8216 -0.24759
-28.648 -0.168712
-29.2427 -0.0994166
-30.2247 -0.0348398
-41.1995 0.127846
-36.5007 -0.633542
-37.8841 -0.491356
-39.348 -0.356529
-40.64 -0.276615
-43.5534 -0.207332
-43.8925 -0.161796
-41.2234 -0.124357
-40.5862 -0.100065
-56.3867 -1.09263
-58.2824 -1.03778
-59.8854 -0.867039
-61.1358 -0.680232
-62.3065 -0.494525
-3.40488 -0.22652
-2.80476 -0.244601
-4.63152 -0.140536
-4.11454 -0.185865
-5.78226 -0.0723969
-5.26015 -0.10322
-6.35252 -0.0444629
-67.821 -1.61845
-65.7212 -0.678346
-66.2756 -0.140116
-64.8917 -0.224424
-63.2614 -0.353722
-38.675 0.237113
-40.4935 0.187167
-11.2202 0.511986
-25.9994 0.307967
-20.1344 0.201681
-2.60013 -0.167265
-4.23267 -0.194504
-5.54431 -0.112315
-6.72753 -0.0489089
-7.23395 -0.0189525
-10.7438 0.364578
-13.0842 0.444529
-21.4381 -0.30669
-21.6605 -0.482336
-21.5543 -0.395219
-23.6805 -0.184512
-25.3695 -0.0465279
-25.2577 0.0962322
-35.8442 -0.422239
-37.4705 -0.194637
-39.2464 -0.0444899
-44.3676 0.0714431
-47.8329 0.188101
-46.4748 0.375441
-51.0992 1.29607
-49.348 -0.506702
-49.6565 -0.583409
-52.2348 -0.313911
-53.8553 -0.16904
-53.5812 -0.101168
-65.4463 0.608128
-70.0688 -0.753414
-73.1871 -0.670642
-75.339 -0.387237
-77.6411 -0.172066
-71.7963 -0.0427075
-1.52889 -0.0889466
-2.74846 -0.245339
-3.84783 -0.176003
-4.85774 -0.0907201
-7.63339 0.0496254
-6.19055 -0.0235507
-9.32099 0.554512
-53.6049 -1.76171
-58.3712 -0.221003
-64.5956 0.152408
-64.3818 0.0885639
-58.9953 -0.0819496
-51.927 -0.325606
-46.541 -1.18153
-41.5726 -1.51532
-50.4983 0.0754634
-52.189 -0.0382879
-39.6932 -0.087828
-35.3193 -0.854706
-46.9 -0.906886
-38.7116 -0.967152
-32.0554 0.122953
-37.089 0.0656966
-30.23 0.00901784
-25.5567 -0.669053
-30.9283 -0.775329
-23.896 -1.04193
-14.5928 -0.62954
-17.4715 -0.697019
-62.53 0.204486
-37.5577 -0.143053
-12.0554 -0.796686
-17.0379 -0.485744
-12.2169 0.498568
-21.6958 0.317246
-8.20571 0.0472243
-1.21313 0.135846
-72.9952 -3.56995
-0.942187 0.586851
-1.05726 0.521142
-1.81084 0.0493585
-2.61564 -0.111777
-3.58909 -0.175379
-4.39699 -0.15407
-5.1086 -0.120796
-5.87191 -0.0894989
-6.49781 -0.0642347
-7.22063 -0.0422045
-7.78427 -0.0294197
-8.38726 -0.0113835
-8.29739 0.000206338
-8.83019 0.0226139
-9.39345 0.0561168
-10.2461 0.0899903
-10.8893 0.159233
-11.7681 0.226851
-13.1241 0.276399
-13.9921 0.320525
-14.9698 0.310116
-15.7092 0.195729
-24.2186 0.29406
-24.7847 -0.146305
-26.2992 -0.270707
-26.8359 -0.308162
-25.5696 -0.342392
-25.7647 -0.306055
-26.8475 -0.211448
-27.6363 -0.152546
-28.7037 -0.0924784
-29.4727 -0.0496603
-30.1053 -0.00790991
-30.6264 0.0363823
-29.8867 0.0974571
-30.5494 0.172006
-32.1554 0.239648
-33.1154 0.287769
-34.5225 0.273129
-35.256 0.139413
-42.1042 0.911574
-42.5557 -0.160125
-44.4919 -0.364204
-46.5011 -0.370529
-47.0333 -0.361027
-44.124 -0.380364
-44.1147 -0.321573
-44.9534 -0.213274
-45.7465 -0.150519
-46.5647 -0.089513
-47.507 -0.0498098
-48.5019 -0.00529988
-49.8959 0.033396
-54.0749 0.064305
-55.0313 0.112779
-54.3224 0.173198
-54.7245 0.242627
-54.1303 0.33039
-55.2319 0.2749
-58.3035 -0.0382973
-60.665 1.44058
-63.0979 0.461507
-62.7328 -0.106031
-58.4647 -0.48642
-58.5644 -0.627626
-60.0062 -0.547077
-61.0154 -0.439403
-62.3573 -0.324524
-63.3958 -0.245319
-64.6751 -0.169975
-65.464 -0.129114
-65.8142 -0.0891488
-66.1492 -0.0679801
-65.5266 -0.0409073
-65.4074 -0.0185374
-64.6505 0.0260874
-63.4572 0.11628
-67.6393 0.365215
-71.3664 0.497481
-79.3098 1.01469
-81.8179 -0.0582572
-82.8589 -0.433093
-84.7029 -0.524512
-85.4931 -0.485984
-86.7322 -0.39133
-87.4357 -0.297464
-88.385 -0.210074
-89.0468 -0.139241
-90.4248 -0.0879293
-88.9275 -0.0412302
-81.7 -0.00285477
-80.1271 0.0486241
-80.0149 0.107071
-81.4097 0.142989
-81.8111 0.138761
-84.3077 0.0923073
-91.7029 -0.0859818
-95.1813 -0.462904
-100.318 -1.25286
-104.176 -2.97882
-63.559 -6.42248
-48.952 -5.20562
-1.2833 -0.0723812
-0.876595 0.154137
-2.21232 -0.216644
-1.87849 -0.184996
-3.09299 -0.161983
-2.81067 -0.195582
-3.86836 -0.0940114
-3.60936 -0.125974
-4.70035 -0.0454703
-4.38856 -0.0674456
-6.64887 0.10014
-6.41803 0.0487649
-5.87514 0.00729973
-5.54161 -0.0186187
-7.32996 0.258651
-7.27437 0.184617
-7.09547 0.394129
-6.88614 0.312228
-7.94651 0.486208
-39.7434 -3.36188
-41.1203 -1.955
-39.122 -0.957368
-40.4582 -0.391669
-47.264 -0.086631
-48.2271 0.0789408
-47.8666 0.111173
-47.8467 0.0882453
-47.9803 0.0317994
-46.7448 -0.0359176
-41.2465 -0.116938
-39.7412 -0.212792
-38.104 -0.326139
-37.3255 -0.48097
-36.1427 -0.658396
-35.2879 -0.891447
-33.6456 -1.12987
-31.6605 -1.43121
-38.4977 -0.13933
-38.9399 -0.0833034
-13.3023 -0.100009
-11.4121 -0.46911
-33.7351 -0.997789
-30.9325 -1.21356
-23.2457 0.0261604
-25.1098 0.0442127
-27.0106 0.0463621
-10.4131 -0.0651872
-8.36975 -0.400712
-21.4066 -0.84075
-18.6495 -1.01132
-4.9348 -0.387411
-11.5473 -0.748223
-10.0717 -0.86236
-91.7028 0.0678891
-104.774 -0.235712
-95.4683 -0.328026
-84.3402 -0.457934
-68.1238 0.537882
-77.3907 -0.194177
-59.4995 -0.6594
-48.659 0.343976
-29.0118 0.398353
-23.5519 0.333716
-20.9824 0.791826
-25.4229 0.83974
-54.5286 0.362505
-43.0748 -0.0842621
-38.0907 0.30952
-14.5803 -0.137197
-16.7859 0.68139
-27.9053 -1.60157
-23.887 -1.22464
-15.5582 -1.16235
-7.49286 -0.854041
-23.154 -0.364749
-50.1774 0.252766
-39.9594 1.01261
-17.4649 -1.32213
-17.0666 -0.653958
-14.8624 -0.0175596
-13.308 0.312962
-11.1811 0.423112
-8.50162 0.468329
-30.6851 -0.249427
-28.0023 -0.0566091
-21.7363 -0.109805
-17.2525 0.268121
-12.1698 0.13074
-0.507762 0.578839
-0.631418 0.670776
-94.5897 -6.89812
-80.7205 -6.30442
-0.37704 1.52403
-1.13453 0.425655
-3.02234 -0.0992732
-4.53044 -0.0934399
-6.06221 -0.0547423
-7.55078 -0.0247425
-8.9121 -0.00810437
-10.0731 0.00559707
-11.4391 0.0481702
-13.17 0.105915
-14.9417 0.1528
-16.5297 0.128398
-17.81 -0.130931
-18.8156 -0.784488
-28.3678 0.459194
-29.1442 0.072161
-30.1571 -0.131828
-30.8827 -0.126912
-31.8582 -0.0842108
-33.4234 -0.0298853
-34.7235 0.0144211
-35.9133 0.0822403
-37.5388 0.152302
-39.2198 0.130092
-40.3837 -0.293926
-50.8627 -0.206052
-50.4067 0.801481
-49.5507 0.430445
-50.3369 -0.0586944
-52.7441 -0.174478
-53.2654 -0.136065
-54.0455 -0.0846773
-55.7787 -0.0281712
-58.1225 0.0155417
-60.4968 0.0531687
-61.8313 0.133074
-63.2801 0.155912
-65.5181 -0.19958
-71.8068 0.974085
-72.0033 0.176755
-71.6976 -0.205274
-72.7739 -0.251952
-74.814 -0.14559
-76.6352 -0.0714509
-77.7707 -0.0355271
-77.9907 -0.00349983
-76.6554 0.0991234
-79.2252 0.271696
-84.1945 0.186157
-94.7542 0.82722
-96.4075 0.0231813
-98.265 -0.221155
-99.7733 -0.167937
-101.154 -0.0850574
-100.351 -0.0277625
-97.294 0.0253466
-97.066 0.0987321
-100.891 0.150014
-106.659 0.0545635
-113.452 -0.541657
-108.655 -5.66342
-57.0185 -9.4189
-32.9576 -4.98031
-0.43864 0.529853
-1.34958 -0.0699389
-1.99657 -0.163168
-2.58481 -0.137869
-3.11342 -0.0858237
-3.66427 -0.0439345
-4.8541 0.0554938
-4.29121 -0.00277048
-5.13854 0.141371
-5.33317 0.264182
-5.9357 0.358934
-25.2693 -1.96718
-28.1125 -0.644681
-30.4377 -0.0921597
-31.3946 0.054012
-30.1471 -0.00104508
-27.4365 -0.136381
-25.2005 -0.344326
-23.6491 -0.68298
-21.0375 -1.22066
-14.6146 -1.97625
-20.5095 -0.71916
-26.0813 -0.227173
-13.2638 -0.11655
-11.3954 -0.605031
-20.0366 -1.29131
-13.5463 -1.78186
-15.0335 -0.271444
-18.3916 -0.0520066
-10.3739 -0.0560375
-8.33922 -0.509774
-13.6255 -0.959276
-8.57039 -1.27276
-4.8928 -0.466269
-7.47509 -0.832703
-3.95751 -0.963744
-86.9012 -1.85602
-94.2392 -0.742429
-88.9346 -1.06941
-76.9571 -2.18947
-63.5752 -1.49869
-69.6059 -0.628099
-67.7203 -0.70444
-61.4683 -1.29497
-42.648 -0.718628
-45.7596 -0.551239
-27.6832 0.137273
-24.9466 0.262751
-17.8566 1.98398
-91.631 1.3427
-68.3814 1.44517
-49.1283 0.153464
-19.4387 2.66954
-24.9682 1.40902
-26.7974 0.634728
-23.6337 0.103473
-78.6997 2.26836
-82.6514 3.13901
-53.0168 0.498982
-48.0361 0.214617
-60.0834 2.40403
-62.4419 2.8914
-42.0886 0.414991
-35.8522 0.24575
-43.0926 1.58159
-44.619 2.10128
-11.282 0.448418
-22.6853 -1.66189
-32.7023 -0.336729
-19.7712 -0.958677
-26.5581 0.445638
-12.7675 -1.03018
-18.4854 0.0731334
-26.0229 2.16126
-5.21324 -0.563368
-7.07407 0.292566
-20.4576 -0.882254
-44.9689 2.30368
-34.7741 2.83597
-17.914 -2.09127
-16.1827 -1.42854
-14.1151 -0.295299
-9.63597 0.1762
-5.47914 -0.151868
-25.6804 -0.738837
-17.4352 -0.74473
-19.3039 -0.303744
-13.6403 -0.190801
-13.9281 0.105236
-0.189874 1.46153
-85.3904 -11.6438
-0.273697 2.18825
-0.170588 2.81743
-0.298692 2.06867
-0.0889447 3.36676
-3.02939 0.111664
-3.40878 -0.0530843
-4.13963 -0.0368101
-4.70494 -0.0482687
-5.4804 -0.0352276
-6.26757 -0.0259944
-7.03471 -0.0212723
-7.90593 -0.0109425
-8.64244 -0.0104535
-9.56923 -0.00280975
-10.2043 -0.00237076
-11.1455 0.00422052
-11.714 0.00809487
-12.6459 0.0163602
-13.5029 0.0242968
-14.3922 0.0341171
-15.2901 0.0523789
-16.0595 0.060379
-16.9287 0.078713
-17.5001 0.070087
-18.1923 0.0532542
-18.5994 0.00280349
-19.1954 -0.126211
-19.8219 -0.231712
-20.358 -0.518538
-21.8201 -0.552945
-27.5103 0.157879
-29.92 0.351205
-31.2269 0.323762
-32.4331 0.317612
-32.8473 0.149219
-33.2109 0.0691933
-33.6862 -0.0252301
-33.9501 -0.0692811
-34.4703 -0.0601039
-34.9576 -0.0649971
-35.14 -0.0562973
-35.8385 -0.0448669
-36.6317 -0.0295683
-37.4596 -0.0174467
-38.2416 -0.00957388
-39.1248 0.00160699
-39.6561 0.0109321
-40.5206 0.0235751
-41.1971 0.0433718
-41.9587 0.0535968
-42.9047 0.0773455
-43.4782 0.07117
-44.1881 0.0500848
-44.6184 -0.00831164
-45.0728 -0.246514
-45.7551 -0.353931
-47.6213 -0.428051
-49.4286 -0.322949
-55.0646 0.284158
-57.2165 0.45199
-57.6419 0.382652
-58.438 0.330318
-57.3941 0.117596
-57.5854 0.0115591
-59.4804 -0.0725624
-59.7271 -0.0909514
-60.2431 -0.0738537
-60.7703 -0.0713954
-60.7508 -0.0562284
-61.4888 -0.0441101
-62.2904 -0.027812
-63.1504 -0.0158766
-64.1015 -0.00965395
-65.0081 0.0017298
-66.4267 0.0061001
-67.3181 0.0176799
-68.2846 0.0280024
-69.0771 0.0434058
-69.4413 0.0697019
-70.0152 0.071564
-71.0612 0.071832
-71.4265 -0.0162943
-72.5845 -0.137274
-73.3805 -0.30097
-74.4857 -0.359533
-76.7165 -0.362766
-78.1825 0.585549
-81.1613 0.584913
-82.8711 0.554221
-83.5151 0.317576
-83.9297 0.145525
-83.5787 -0.015048
-83.652 -0.0934321
-83.6858 -0.123799
-83.9745 -0.124387
-84.9659 -0.0929439
-85.5467 -0.0736815
-86.5735 -0.0502427
-87.3572 -0.0358385
-88.1522 -0.0249351
-89.0441 -0.0165348
-89.395 -0.0116601
-90.3362 -0.00534941
-90.2244 0.00486056
-91.1596 0.0149183
-89.9511 0.0736549
-90.7582 0.105144
-94.4868 0.142369
-95.0043 0.137334
-96.1785 0.0643348
-96.5224 -0.0339356
-100.953 -0.311025
-102.107 -0.315209
-102.233 0.280943
-105.009 0.674291
-107.79 0.644733
-109.063 0.537766
-109.752 0.186136
-109.862 0.0325374
-110.918 -0.0659068
-110.922 -0.11283
-111.702 -0.0931689
-112.042 -0.0847239
-112.739 -0.060976
-113.372 -0.0427997
-114.04 -0.0288556
-114.83 -0.0151328
-113.352 -0.00647766
-114.181 0.00534968
-112.62 0.0217832
-113.411 0.0345856
-114.774 0.0501991
-115.452 0.0582755
-117.906 0.0632186
-118.383 0.040306
-121.691 0.00491383
-122.062 -0.145299
-125.731 -0.246991
-127.872 -1.62183
-76.2112 -17.2631
-64.5233 -13.7336
-50.3295 -12.401
-35.3043 -8.0776
-1.52591 -0.0293845
-1.57212 0.129095
-1.80766 -0.0874353
-1.82567 -0.0595737
-2.08687 -0.0776318
-2.11506 -0.0826242
-2.33536 -0.0537066
-2.36551 -0.0622721
-2.56314 -0.0402186
-2.59368 -0.044605
-2.83393 -0.0342593
-2.86955 -0.0374962
-3.10342 -0.0195029
-3.15284 -0.0275888
-3.27936 0.0168736
-3.342 -0.00393955
-3.23602 0.0660806
-3.32366 0.0326978
-3.27694 0.127615
-3.41989 0.101747
-3.57306 0.0508912
-3.67086 0.158904
-11.5602 -2.01434
-11.5289 -1.42738
-13.1579 -0.964321
-13.1473 -0.562204
-14.5668 -0.30958
-14.5848 -0.141925
-15.6023 -0.0502417
-15.6249 -0.00855687
-15.607 0.00353596
-15.6228 -0.00622385
-14.3997 -0.0318085
-14.406 -0.0629663
-12.8986 -0.101956
-12.9041 -0.151621
-12.1195 -0.219105
-12.1236 -0.299561
-11.2665 -0.403969
-11.2769 -0.531647
-9.3611 -0.6882
-9.46352 -0.838366
-4.7972 -1.22325
-3.82991 -1.02156
-7.47092 -0.453664
-12.7515 -0.312536
-12.7481 -0.171604
-8.55841 -0.708872
-8.56505 -0.87648
-4.57003 -1.13863
-3.45195 -0.871761
-6.76391 -0.200515
-8.34779 -0.116718
-8.43037 -0.0681459
-5.56234 -0.558967
-5.5469 -0.654321
-2.96747 -0.878983
-2.05933 -0.551271
-4.58306 -0.0564112
-4.63233 -0.0337538
-3.3889 -0.50248
-3.31071 -0.550338
-1.1774 -0.580713
-0.527026 -0.313785
-87.0899 -1.74295
-62.9194 -1.87896
-62.6037 -1.80882
-41.3863 -1.56435
-40.3031 -1.87781
-21.8919 0.139153
-17.5567 -0.32654
-14.9107 2.82501
-80.072 3.12882
-75.1783 -3.44848
-67.6052 -5.09171
-59.6864 3.0016
-56.6532 -2.71465
-54.3584 -1.36857
-45.2373 -0.00655763
-37.1656 -2.43482
-34.1379 -3.74247
-38.5729 -1.82501
-20.1921 -0.495352
-24.2098 1.8793
-23.0918 1.60557
-22.1555 0.518845
-54.8264 5.08269
-67.0346 3.72416
-40.9021 0.153653
-31.1067 -0.71935
-42.3822 4.90432
-51.089 3.72767
-31.7813 0.0906178
-22.7256 -0.765767
-30.6034 3.79421
-37.3302 2.6255
-8.76159 1.83728
-11.569 3.37171
-12.9258 4.44057
-4.28873 -0.523402
-16.5737 -1.01574
-3.71014 0.220724
-13.6099 -0.195564
-1.46097 0.549215
-9.80564 -0.0373261
-20.1557 3.81711
1.01631 1.02855
-2.26648 0.128756
-15.7788 -1.80634
-13.7717 -1.32418
-11.5172 -0.798163
-70.5537 4.01141
-79.5873 2.02417
-82.2687 -0.0236245
-73.2879 0.714378
-77.937 -2.36021
-71.9604 -4.26512
-65.5325 -4.35019
-70.0699 -2.37479
-77.2125 -0.437962
-74.1312 0.22349
-66.1769 -0.176899
-54.6275 0.657219
-53.0927 3.82239
-59.2955 2.19666
-60.8864 0.63623
-54.7358 1.37557
-56.7523 -1.69088
-52.1736 -3.64401
-51.5038 -3.54167
-52.1577 -2.4195
-50.0332 -1.15311
-47.7349 -0.545977
-45.7162 -1.34766
-40.541 -0.128866
-44.3769 1.47843
-38.7553 -0.234057
-35.0823 -2.78614
-33.641 -3.6869
-34.8065 -2.66633
-37.1365 -1.4844
-36.4 -0.851092
-32.722 -1.50476
-28.4652 -0.356531
-24.2392 -0.600532
-15.3207 4.93748
-18.7182 3.55061
-19.9587 1.50371
-17.9673 -2.53866
-35.9291 5.04746
-58.6182 6.69369
-63.9432 6.41856
-62.7325 -6.27332
-44.4513 0.657852
-35.6209 -0.175379
-27.5271 4.87099
-44.5287 6.00482
-48.2653 5.69067
-47.7647 -5.25086
-35.7188 -0.0529413
-28.8245 -0.28279
-32.0575 4.68245
-34.6676 4.5817
-31.977 -4.75068
-6.51952 3.4284
-11.8431 5.7082
-16.7676 -3.26852
-10.6921 1.97969
-21.6365 5.65229
-16.1085 -1.8495
-8.1063 2.51878
-16.2887 5.41019
-13.2498 -2.10953
-5.76562 2.18214
-12.0757 4.3826
-16.0847 6.81046
-11.8438 -2.20661
0.353568 2.41456
-2.29518 4.1857
-16.4743 -3.94973
-15.7844 -3.24364
-15.2211 -1.81762
-11.4054 -0.554732
-7.1684 -2.19301
-11.2488 -1.58021
-7.53843 -0.759258
-11.7673 -0.976667
-6.62058 -0.375489
-8.41916 -0.35536
-4.45612 -0.105981
-63.4204 4.83706
-65.9129 1.7281
-68.9987 -1.28773
-69.9222 -3.88739
-64.59 -2.93935
-62.1965 -1.15529
-58.7962 0.230892
-53.1673 0.649101
-47.8149 4.63075
-49.5507 2.33913
-51.4194 0.106503
-51.8329 -2.20331
-47.6564 -3.66809
-45.007 -2.3499
-42.2245 -1.47577
-38.2004 -0.642435
-35.6517 1.04344
-32.2767 -3.45929
-31.2161 -2.57338
-30.3319 -1.54109
-28.0412 -0.911933
-17.5999 4.04076
-18.4596 3.09849
-17.8082 0.590863
-17.8475 -0.929729
-30.5314 9.1952
-40.6218 10.1212
-51.3842 8.25982
-45.4479 9.06191
-61.4141 -7.21532
-59.5564 -6.91973
-34.1433 -0.0614799
-23.8505 -1.12849
-32.7826 -0.0339056
-23.0499 8.22382
-30.89 8.88699
-39.0773 7.32386
-34.1551 8.1177
-46.3963 -5.73924
-45.8865 -6.16659
-26.2379 -0.761808
-18.5998 -1.92685
-25.709 -1.45593
-21.489 7.54147
-27.7927 5.96544
-23.8443 6.85071
-31.9188 -4.89468
-31.303 -5.29333
-19.9371 -1.08713
-15.423 -2.00635
-19.8204 -1.99304
-4.6372 5.88887
-7.70796 6.627
-10.0126 6.58125
-16.5904 -4.45577
-3.74814 8.31283
-14.2078 -1.25354
-2.01018 7.74333
-12.1404 -2.46759
-0.199649 6.65159
-10.8893 9.36368
-11.5398 -3.24176
2.97829 6.2971
-16.7308 -5.05233
-13.1453 -3.33801
-7.36812 -1.98722
-0.115181 2.15159
0.0632769 2.73497
-101.172 -21.7939
-89.4383 -17.9188
-1.9196 -0.554704
-2.26343 -0.371375
2.66146 1.00389
-3.33697 -1.08507
-3.42682 -0.929778
3.05203 1.4837
-4.37481 -0.90558
-4.5108 -0.595946
2.99599 1.75864
-3.77545 -0.490357
-3.99855 -0.286457
2.52565 1.86258
-52.604 6.02262
-59.7433 3.73644
-63.7285 -3.79047
-60.43 -6.11299
-56.6067 -5.04639
-58.321 -2.93749
-49.6376 0.233941
-41.3939 -0.00441756
-39.5669 5.71957
-44.9272 4.02923
-47.4905 -1.79426
-45.1855 -3.8444
-44.5972 -5.43575
-44.9301 -4.09703
-37.8758 -1.4663
-32.58 -1.81948
-27.7427 4.76602
-31.6293 2.71933
-32.5142 -2.44415
-30.978 -3.68892
-30.3301 -4.91466
-30.4867 -3.79522
-26.8343 -1.95215
-23.7114 -2.48152
-12.7104 5.47558
-15.43 4.35057
-16.5778 0.0406456
-16.9606 -3.23954
-16.9988 -4.1397
-55.0237 1.54662
-59.3356 -2.47678
-53.8418 -2.60028
-47.6037 -0.833679
-41.2046 2.50216
-44.6768 -0.806019
-41.7181 -4.00219
-36.9303 -2.81262
-28.5798 1.531
-31.1847 -1.18004
-29.0787 -3.99691
-26.4247 -3.16828
-13.6793 3.27518
-15.8515 1.15974
-16.0195 -1.18208
-17.0921 -2.98254
-23.2826 12.4823
-40.8473 8.35701
-54.0721 -1.02627
-60.8584 -8.01976
-58.482 -7.68337
-47.3762 -3.25945
-31.0933 -0.658842
-16.8547 10.999
-30.2645 7.78856
-40.4214 0.209523
-46.2065 -6.02554
-45.7955 -7.09955
-38.2722 -4.7057
-25.0604 -2.86612
-20.2221 6.79805
-27.7799 0.427347
-32.178 -4.76828
-32.069 -6.27301
-27.4955 -5.05642
-19.918 -3.56556
-2.00971 8.30204
-7.77215 6.7156
-13.1942 2.15818
-17.3643 -2.52818
-18.119 -5.32063
4.00832 13.4105
5.15255 13.5338
-1.48171 15.7529
-5.74813 11.12
-14.5318 10.3857
-25.1822 5.2404
-33.2992 1.72376
-48.2358 -0.139789
-54.644 -3.24941
-64.6784 -3.55554
-66.3018 -4.88581
-62.7613 -6.85161
-57.697 -5.93917
-45.6046 -7.45234
-37.7294 -6.00861
-26.2508 -4.73777
-17.5301 -4.21224
-11.1224 -1.37122
-4.26547 -1.33329
-2.52463 0.152073
3.72309 11.9689
4.8291 12.2231
-0.120581 13.9762
-2.98322 10.2186
-9.73022 9.62225
-17.6969 5.28648
-23.6848 2.4784
-35.2953 0.709471
-40.2884 -2.03443
-48.6443 -2.42638
-50.5934 -4.01723
-49.3129 -5.54708
-46.4956 -5.61094
-37.7435 -7.2479
-31.3193 -6.86804
-21.9334 -6.40112
-14.7991 -5.95247
-9.52141 -3.55607
-4.19786 -3.1488
-2.76221 -1.12104
3.42764 10.3833
4.70637 10.6346
1.07106 11.8503
-0.645047 9.1505
-5.23227 8.78549
-10.547 5.26254
-14.9058 2.66562
-23.5608 0.953457
-27.4284 -1.34642
-34.2495 -1.95055
-35.6269 -3.07182
-35.6501 -4.71547
-33.6778 -4.8598
-28.1011 -6.61385
-24.3535 -6.34656
-17.8604 -6.70098
-13.5692 -6.22871
-9.33721 -5.07738
-5.15942 -5.14423
-3.49816 -3.29138
3.25846 9.21271
4.63981 9.72619
3.75183 10.7148
3.74083 8.61084
1.43924 8.32684
-1.17049 5.44137
-3.96385 3.65675
-9.50802 2.03245
-12.4703 0.0812757
-18.016 -0.550471
-19.5806 -2.17505
-21.2501 -3.37809
-20.6014 -4.16966
-18.7189 -5.78106
-17.1667 -5.2268
-13.8411 -6.24942
-10.5608 -5.35379
-7.61287 -5.04452
-4.201 -4.50286
-2.63524 -3.04659
-4.08907 -0.962248
-10.0288 -1.6841
-15.017 -3.61103
-16.7981 -5.29512
-17.6354 -4.19535
-15.4344 -0.233177
-10.8029 4.62135
-5.50796 7.87616
0.195504 7.0774
4.20851 3.89451
-7.39483 -3.61316
-15.6618 -3.03477
-23.7726 -3.91902
-29.7145 -5.44112
-32.1896 -5.84379
-30.3389 -2.6436
-24.7476 3.61033
-17.0257 8.73597
-6.81109 7.73935
3.83443 3.42662
-6.69316 -2.89709
-18.0319 -2.64974
-32.048 -3.33873
-42.6319 -5.65256
-46.0354 -7.1402
-43.3129 -3.18259
-35.9999 4.25257
-25.3912 10.1047
-10.558 9.24512
3.50852 3.57428
-7.06339 -2.49621
-22.39 -0.992176
-39.8548 -1.0501
-53.1537 -4.98394
-60.1025 -8.561
-57.7294 -5.17543
-48.3526 3.90128
-34.1181 11.4135
-14.89 10.3409
3.4644 3.07747
-16.7293 -1.90508
-16.4021 2.31789
-29.079 -2.66663
-32.4466 -0.102507
-41.759 -2.45674
-46.5407 1.13766
-55.3067 -0.586089
-62.0144 -0.243414
-16.6097 -3.85912
-14.3597 5.79585
-24.0661 -1.13066
-31.2046 -4.66371
-32.1701 -4.35399
-30.5871 5.36461
-33.3901 -0.464451
-47.031 -5.29924
-47.6065 -4.42228
-42.9685 6.67325
-43.2403 0.856219
-60.2895 -5.20281
-64.2098 -6.39213
-56.8398 7.43035
-7.97334 -0.700699
-9.48078 -1.40678
-7.00601 -2.09147
-99.3321 -11.7233
-0.0143808 1.19552
-9.45249 5.10802
-15.5649 -1.04877
-25.1796 5.92177
-19.0906 -1.34266
-35.4773 7.35857
-25.0966 -1.18757
-46.1158 8.30252
-18.989 -0.390695
-20.6917 2.98058
-31.9248 -0.620495
-33.3992 -2.35509
-39.1271 1.47583
-43.0594 -0.651007
-48.0947 -2.20084
-56.3197 -0.460549
-52.7647 3.0715
-62.828 0.700971
-69.1819 -1.23736
-75.9499 -1.72896
-70.1218 2.9459
-8.62722 -0.0269075
-13.4029 -0.447821
-15.094 -1.1069
-12.4041 0.21903
-15.6714 -0.503854
-16.4801 -2.5731
-4.05968 1.44899
-15.9425 1.43738
-20.4125 1.90565
-26.4658 1.2946
-38.8609 3.39782
-38.0822 0.373676
-53.5315 4.55522
-45.9397 0.542941
-71.0534 5.05624
-19.3689 -1.3036
-16.4613 3.89685
-24.6748 -0.0518391
-40.8744 -0.747222
-36.1546 -2.93867
-38.1961 -1.78195
-49.8031 0.921923
-52.2624 -0.370787
-56.3023 -2.33639
-56.9068 -2.90191
-65.7281 1.45947
-85.349 0.0455448
-70.7054 -3.66363
-79.7809 -2.8604
-88.8346 1.17409
-1.1939 -0.930267
-4.96641 -1.4404
-8.33525 -1.97531
-8.79962 -2.54237
-13.4788 1.79622
-35.8092 1.98514
-25.5996 -0.187826
-48.8054 2.76223
-36.3029 -0.25818
-63.1083 2.24778
-25.3767 0.651737
-27.841 0.810781
-19.2404 0.257276
-44.528 -0.951091
-68.958 -0.93812
-94.539 -0.78248
-5.91182 -0.972209
-10.7951 -1.1353
-16.4272 -0.079383
-17.0641 -1.55753
-25.5173 -0.344225
-18.9641 -1.55513
-22.7458 -0.884879
-24.4077 -0.472055
-25.9467 -0.217726
-28.9455 -0.0624688
-31.3865 0.0444939
-31.4343 0.0481825
-29.4303 -0.221128
-26.7338 -1.07616
-23.7247 -2.83972
-6.51245 0.405689
-5.54006 0.33527
-5.16648 0.195586
-5.1006 0.0933593
-4.62555 0.0136235
-3.98927 -0.0311471
-3.37533 -0.0655152
-2.86253 -0.11211
-2.30334 -0.167826
-1.67161 -0.165194
-0.974954 0.0444536
-42.3125 -7.66657
-71.4886 -10.428
-117.631 -1.30131
-110.196 -0.00843822
-103.423 0.159121
-98.4526 0.137662
-95.7163 0.0656016
-98.8563 -0.00310276
-101.839 -0.0527024
-100.509 -0.126364
-99.0983 -0.222487
-97.4922 -0.238152
-95.3402 0.231479
-94.0296 1.47018
-82.9808 0.355078
-75.4683 0.212026
-77.8634 0.0245775
-78.1129 -0.0217757
-77.4384 -0.0503063
-75.8665 -0.102294
-73.8091 -0.20072
-71.7862 -0.310813
-71.6824 -0.150837
-72.3483 0.506123
-71.0982 1.45497
-66.7349 -0.520349
-64.3666 0.111339
-62.2182 0.185549
-61.4584 0.0850236
-59.543 0.0278184
-56.7295 -0.00860097
-54.8543 -0.0532078
-53.2699 -0.120643
-53.3123 -0.176809
-52.2524 -0.197364
-48.405 0.124269
-50.5124 0.872042
-39.9617 0.0686772
-38.4954 0.191263
-36.5866 0.124918
-35.2403 0.0401287
-34.2041 -0.00979857
-32.6633 -0.0560239
-31.0896 -0.121307
-30.7251 -0.156329
-29.6414 -0.135516
-28.6468 0.258549
-18.4412 -0.406924
-17.2413 0.0917815
-15.8041 0.188301
-14.058 0.139112
-12.2801 0.069397
-10.6015 0.0256248
-9.51068 0.000276049
-8.28443 -0.0153542
-6.83194 -0.0385998
-5.31128 -0.0779716
-3.73354 -0.129749
-2.18888 -0.0985205
-0.292561 1.33799
-0.359229 1.48116
-21.901 -0.588088
-9.4084 -0.617584
-20.7005 -0.99781
-31.53 -0.684461
-37.6592 -1.48454
-45.9947 0.499676
-59.6887 0.56376
-22.1764 1.71336
-30.4957 0.308438
-47.2229 -0.174583
-70.1804 -0.368611
-83.3223 -1.08892
-94.1732 -0.824586
-8.84915 -0.702153
-16.2377 -0.765505
-20.2375 -0.0253304
-22.625 -0.986714
-26.4892 -0.142999
-90.11 -3.12055
-0.908304 0.0958824
-15.5848 0.247739
-30.1993 0.136654
-10.2174 0.628053
-14.1257 0.417821
-19.8669 -0.053024
-49.5979 0.117393
-27.6822 0.399385
-14.3875 -0.852621
-26.7585 -0.964005
-33.8498 0.123268
-45.2797 -1.00381
-51.4187 0.0101196
-44.8084 -1.4153
-47.9814 -0.894374
-50.2924 -0.466673
-53.5269 -0.186902
-64.53 0.0118687
-64.2738 0.151673
-65.0313 0.129068
-51.5683 -0.702789
-55.6848 -3.09218
-8.59588 0.451574
-9.45261 0.279647
-7.08723 0.00291572
-8.1867 0.095092
-5.37827 -0.0613824
-4.35245 -0.129536
-3.32781 -0.222147
-2.12311 -0.264688
-79.7874 -0.428005
-79.0225 -0.0951759
-76.262 -0.253477
-74.3762 -0.509489
-71.9017 -0.79327
-68.1294 -0.589168
-52.9357 -0.0643375
-54.1897 -0.119846
-53.4922 -0.218843
-50.9387 -0.41093
-48.2542 -0.729192
-53.6276 0.159421
-47.1342 0.274439
-48.5586 0.117998
-40.2403 0.0231142
-38.2675 -0.108056
-36.641 -0.275108
-34.9535 -0.563956
-40.7582 -0.537472
-36.726 -0.520113
-24.4929 0.192069
-26.0047 0.013611
-24.742 -0.105956
-22.613 -0.271031
-20.4273 -0.524391
-22.9445 -0.432156
-12.1424 0.442178
-7.30739 -0.0299583
-6.16536 -0.0759063
-4.91968 -0.149967
-3.50886 -0.23222
-1.59818 -0.042999
-28.2781 -0.140983
-33.6413 -0.206866
-27.8226 -0.316773
-24.9225 -0.552848
-20.2401 -0.0988361
-19.0552 -0.228555
-18.2818 -0.44743
-17.7405 0.0278119
-16.9878 -0.0945768
-15.3337 -0.253074
-11.6132 -0.447556
-9.40911 -0.0806491
-8.66809 -0.163675
-11.4367 0.0457922
-31.8471 0.190345
-125.007 -7.24083
-0.309588 0.167955
-0.020521 0.562701
-18.5812 -4.16994
-1.0987 -1.3716
-3.3219 -2.17496
-4.10866 -2.15385
18.8774 4.00566
23.6228 7.32386
17.9789 -0.42367
136.32 -0.0552468
53.7313 -0.413897
102.89 -6.18247
103.285 2.92852
26.8559 0.825673
5.69253 -0.203963
12.7009 2.41386
19.6824 4.27885
15.2719 4.66345
155.626 4.30969
36.1022 1.35705
189.312 0.920805
5.69515 3.00777
3.76067 2.51681
-1.76679 1.39238
-5.78926 -4.96788
3.47238 4.42038
-5.22079 -1.77107
-7.0737 -8.20343
-7.65685 -10.1653
64.9791 1.47645
23.7596 0.858223
73.7901 -0.647623
127.539 -0.601932
38.1496 -3.26243
-5.02089 -2.45665
87.7506 0.581366
59.108 9.0253
35.9112 2.30855
22.1287 1.14316
-6.06596 -1.06995
226.389 6.19421
181.632 0.207407
31.9939 -3.91864
146.782 1.4958
108.156 -1.23198
155.305 2.3614
65.0365 3.63363
53.2784 2.44676
7.48479 3.53924
12.4151 4.09001
10.3821 3.67519
9.95801 6.71315
2.85631 2.68222
3.80183 6.48265
3.07869 4.27497
8.30012 5.2501
2.3329 2.57847
2.90113 2.34726
2.27223 2.55215
7.0211 3.12713
1.12619 1.90139
0.479948 -1.88196
0.608163 0.725396
41.7224 4.32473
19.036 1.84563
46.4218 9.8107
18.8991 3.05998
211.299 17.0889
213.622 30.5953
241.205 0.573381
272.193 31.0051
-3.53215 -0.862169
-2.02022 -0.264277
-5.82003 -3.67132
-7.05632 -4.51337
-7.11263 -2.40711
-7.52351 -5.92854
-4.70024 -0.763622
-5.64214 -0.999215
26.1699 -0.62454
27.0218 -0.449282
48.4229 0.570721
56.623 0.250273
30.8385 0.0456964
57.3999 0.157305
13.5881 -0.854428
34.4237 -0.487662
35.5958 -0.605063
46.7041 -0.505523
69.1611 1.12849
58.9833 1.36806
67.302 0.969425
85.5183 1.70602
159.646 2.45639
10.3212 -0.494293
11.17 -0.820554
51.6545 0.0738783
43.3587 1.21122
29.5754 0.825996
98.922 1.77421
26.0023 -0.0308805
25.9 -0.0400517
25.4374 0.10115
25.4024 0.143809
22.6212 0.244723
22.6338 0.379885
17.378 -0.173547
14.9446 0.186701
10.8806 -0.392314
10.6946 -0.383698
5.62627 -0.292865
5.50317 -0.279781
12.3033 -0.243351
4.69913 -0.223165
4.60356 -0.229863
7.59132 0.09734
7.55441 0.0148337
10.0287 -0.0790461
16.9347 -0.0640087
19.416 -0.178302
20.1357 -0.23078
21.868 -0.338049
14.9248 0.0785938
15.9197 -0.0297464
15.9185 -0.0859099
17.2991 -0.143694
14.628 0.637896
19.5737 0.192078
24.5958 -0.067954
28.9016 -0.28585
32.2345 0.293953
34.5261 -0.0139379
35.1588 -0.174737
92.6643 1.23056
45.8706 -0.521431
38.6936 -0.591885
13.7928 -0.462611
-3.47818 0.157367
29.2117 1.24261
24.7749 0.615863
26.9493 0.353159
29.5219 0.17184
31.6217 0.027428
34.1438 -0.0836006
35.7955 -0.190886
37.563 -0.270951
38.0976 -0.38116
46.5104 0.704372
48.3597 0.41004
49.3478 0.208168
50.9716 0.0602787
52.3437 -0.0496712
54.1477 -0.158242
73.9962 -0.301739
67.4818 1.03173
69.8052 0.745325
72.5833 0.499457
75.1386 0.347889
80.658 0.235389
81.5104 0.153002
76.7016 0.0840291
76.0847 0.0406674
105.723 2.11802
109.432 1.97525
112.525 1.60784
114.976 1.2421
117.23 0.884986
-0.508165 0.404267
-1.72548 0.396891
1.91107 0.264263
0.861655 0.341367
4.195 0.115588
3.13578 0.184498
5.3026 0.0485523
128.057 2.19188
124.052 0.697931
124.872 0.223412
122.21 0.381267
119.104 0.618082
68.9062 -0.363959
72.4142 -0.374706
36.5951 -0.502505
30.3107 -0.138988
22.0194 -0.398397
15.1648 -0.838985
-1.99283 0.151621
1.1067 0.337477
3.66087 0.211724
5.96941 0.0850289
7.01956 -0.015878
14.0538 -0.717368
18.1997 -0.521402
33.3082 0.956414
34.636 0.898633
34.8269 0.565281
39.0114 0.137967
42.7598 -0.101976
44.9697 -0.293705
63.9042 0.62844
67.2714 0.184408
70.6402 -0.0722351
80.1016 -0.221737
86.2513 -0.343387
82.5647 -0.503828
92.0031 0.983666
96.7056 0.469355
100.096 0.204669
100.367 0.0818543
122.185 -0.966259
131.379 1.46531
137.46 1.24563
141.68 0.696634
146.146 0.29592
135.288 0.0500649
-4.34322 0.117458
-1.84336 0.43229
0.3771 0.325549
2.43103 0.147087
7.94181 -0.207002
5.08443 -0.0162585
12.0195 -0.975123
101.52 2.28397
110.299 -0.0290908
121.942 -0.41984
121.465 -0.219419
111.245 0.11135
97.8842 0.551488
87.5245 2.18639
77.9582 2.94059
102.071 -0.336299
99.9311 -0.0289552
75.1769 0.031273
56.6947 -0.244244
66.3856 -0.247752
53.4294 -0.21324
44.7917 1.0476
53.7868 1.3719
22.3253 0.933544
27.2748 1.24176
68.1234 3.70187
66.3158 2.36035
87.7171 0.835202
40.8149 2.09032
55.3271 1.55095
126.683 -0.374787
77.063 0.110559
17.2033 1.85783
25.6147 1.29793
51.6454 -0.212076
47.1745 0.134766
37.7378 -0.00498207
22.9931 0.0883337
16.8641 -0.52194
-4.80773 -0.402773
137.594 5.34254
-5.21125 -1.29721
-4.50646 -1.44135
-3.3167 -0.44046
-1.84689 0.037344
-0.0798301 0.256713
1.45277 0.260418
2.82045 0.223522
4.28046 0.171361
5.50197 0.12601
6.87804 0.078642
7.97806 0.0511999
9.12293 0.00727108
9.02185 -0.0388522
10.0357 -0.102834
11.1839 -0.186871
12.7553 -0.26444
14.0629 -0.393354
15.6632 -0.485284
18.1124 -0.505009
19.6567 -0.479561
21.3063 -0.306094
22.6133 0.0803081
39.4543 -2.05742
40.3172 -0.928417
38.3837 0.0221311
39.2948 0.601538
42.7205 0.669767
43.749 0.640671
41.7053 0.618446
42.5935 0.480903
44.7291 0.27276
46.4529 0.151493
48.5584 0.0438583
50.1988 -0.0315623
51.8666 -0.0987692
53.231 -0.163765
53.7828 -0.243142
55.1733 -0.315163
56.4061 -0.388094
58.6693 -0.375623
64.3993 -0.234854
66.9406 -0.0222798
78.1232 0.486085
79.9892 0.76915
83.5425 0.733324
84.4117 0.667489
79.061 0.651252
79.1978 0.511315
81.0148 0.290793
82.6496 0.168588
84.259 0.0602004
86.0988 -0.0116802
87.9237 -0.0788877
90.5318 -0.134378
98.2615 -0.157665
100.042 -0.219918
98.4614 -0.300938
98.7336 -0.382137
96.7214 -0.447613
98.0238 -0.293525
103.521 0.172577
104.133 1.32938
107.675 4.01024
112.256 3.80418
115.869 -1.18349
114.315 0.101468
106.922 0.998098
107.568 1.25083
111.853 0.968734
113.128 0.771022
115.376 0.538672
117.471 0.385253
120.007 0.245443
121.626 0.168184
122.497 0.098777
123.357 0.0582542
122.766 0.0155869
123.059 -0.0236762
123.28 -0.0903256
124.588 -0.201875
129.747 -0.869472
148.078 -1.78166
153.186 0.201492
155.241 0.868578
158.841 0.999222
160.447 0.916191
162.871 0.718091
164.311 0.541235
166.171 0.3725
167.523 0.241231
170.17 0.147714
167.458 0.0603635
153.931 -0.017086
151.047 -0.11974
150.883 -0.239404
153.562 -0.326499
154.332 -0.362592
159.048 -0.31355
172.896 -0.0216571
179.34 0.578912
188.901 1.9105
195.739 4.63619
120.321 9.87151
93.2337 7.77495
-4.94281 0.0875447
-5.78362 -0.415269
-2.9356 0.392545
-3.67708 0.313079
-1.08899 0.306864
-1.73095 0.363013
0.54773 0.153026
-0.0436594 0.224901
2.29164 0.00681825
1.60076 0.0739597
6.43298 -0.397425
5.81256 -0.276801
4.70006 -0.152751
3.94206 -0.0733008
8.03887 -0.704871
7.72377 -0.571109
8.24325 -0.91145
7.47887 -0.82685
9.82994 -0.944129
75.9456 4.49646
78.3181 2.34518
74.481 0.821317
76.8067 0.0811122
89.4888 -0.243441
91.211 -0.403931
90.5155 -0.367499
90.4235 -0.274339
90.6326 -0.128336
88.2814 0.00258984
77.9203 0.156829
75.0755 0.323491
71.9612 0.535815
70.48 0.810377
68.2074 1.15298
66.5809 1.59077
63.4146 2.07926
59.658 2.69433
75.0855 0.151037
75.3967 0.02131
25.0889 -0.0269103
20.1497 0.596501
60.4264 1.85517
54.8572 2.37994
40.6131 -0.121922
44.1971 -0.220038
47.2295 -0.27463
16.6454 -0.20289
13.1584 0.365008
36.4156 1.41601
31.7992 1.8579
26.6644 2.24005
5.1401 0.216948
16.8782 1.21092
14.2778 1.57351
119.968 -2.56788
75.7663 1.73543
69.1324 3.23097
169.818 -0.147943
194.579 0.460549
182.407 0.3466
153.659 0.044863
99.0526 -2.63932
31.4198 -0.59338
72.9679 0.32934
82.0532 -1.98668
50.4193 1.49969
61.0827 -0.0593505
106.131 -0.962188
86.8065 -0.0450215
66.8743 -0.355353
20.8024 1.07028
23.6919 -0.15
52.4437 3.12675
39.4963 2.62083
9.25464 1.88514
64.6988 0.364607
55.1074 0.196117
93.4864 -0.22111
41.1857 0.651427
28.0687 1.94012
21.3723 2.4893
15.3301 0.0776886
11.6096 -0.68948
21.15 0.777519
18.5572 0.362305
25.6246 2.8864
25.043 1.79798
58.9246 0.406086
49.6377 0.312392
38.0957 0.234068
-6.64661 -1.22078
-6.29399 -1.3651
177.974 10.9635
152.298 9.92852
-5.61342 -3.0226
-4.14363 -1.33303
-1.13868 -0.0366846
1.72713 0.135884
4.66831 0.10754
7.51027 0.056564
10.0918 0.0159533
12.2934 -0.0307101
14.8536 -0.119719
18.0196 -0.210197
21.18 -0.239941
23.9494 -0.0772891
26.3577 0.491651
29.0389 1.25711
43.9609 -1.23747
46.4902 -0.636342
47.9331 0.0562054
49.7509 0.318374
51.6822 0.242844
54.282 0.117683
57.6537 0.0103354
60.6764 -0.0628244
63.4282 -0.140044
67.0573 -0.184003
71.8464 -0.109078
71.9973 0.296925
72.1653 1.45647
90.2201 -0.59356
92.5171 0.195901
95.2303 0.334376
96.2613 0.235138
98.0278 0.122308
101.494 0.018298
105.951 -0.0510327
110.376 -0.104143
112.363 -0.214029
113.829 -0.224308
115.706 0.703907
120.72 1.7201
136.697 -1.39489
134.759 -0.285695
133.565 0.382436
135.366 0.449652
138.72 0.250689
142.422 0.107506
144.918 0.0397604
146.063 -0.017353
147.567 -0.159068
149.572 -0.46756
146.651 -0.66822
177.114 -1.52897
180.578 -0.00887487
184.296 0.423099
187.361 0.310048
190.176 0.15069
188.881 0.041367
183.32 -0.0585894
183.043 -0.195635
190.346 -0.289387
201.22 -0.127834
213.772 0.880163
204.34 9.08282
108.305 14.6615
63.6261 7.06342
-6.79259 -1.19467
-4.92016 0.0437953
-3.44194 0.307999
-2.11058 0.26454
-0.912047 0.137293
0.324651 0.000680081
3.0805 -0.357193
1.72704 -0.157185
4.0056 -0.589824
4.95211 -0.803263
7.26076 -0.724198
48.9622 2.04399
53.8177 0.270592
57.9102 -0.278117
59.5704 -0.290271
57.1527 -0.0915035
52.0172 0.169392
47.7822 0.53434
44.8277 1.15077
39.8587 2.19036
27.6755 3.78663
39.4112 1.24424
50.3843 0.255207
25.118 0.00948579
20.2237 0.844719
35.3936 2.22666
22.061 3.37393
25.9778 0.328364
31.4353 -0.157083
16.7247 -0.194151
13.2276 0.57173
23.3285 1.56122
14.1237 2.58057
5.259 0.386602
9.68982 1.22541
3.69324 1.94258
119.859 -3.8261
134.807 -1.22133
129.083 0.534435
114.889 2.49644
89.8403 -1.41348
87.1267 -1.01343
80.4475 0.60508
71.2832 1.50805
156.848 3.9127
171.271 1.74736
166.947 1.25694
153.096 2.60777
85.8369 -5.14799
91.8865 -7.08097
73.3045 -2.1025
78.068 -3.4186
25.3349 -2.35842
27.8408 -3.84161
58.7847 -0.741279
31.5312 1.0357
45.7919 0.324445
126.192 -0.923536
171.126 -2.56496
86.2503 -0.0657295
95.4901 -0.906602
88.9022 -0.382955
146.732 -4.12632
153.482 -5.95772
74.1398 -0.258679
63.3005 -0.0686447
14.3117 0.365797
42.5899 3.42445
60.9151 0.978631
31.2096 2.68699
40.7971 0.867897
5.4428 1.77487
7.46497 0.737902
60.2777 1.07655
83.5201 -3.90497
46.0824 1.54834
27.1402 3.50212
0.452796 2.32745
16.9132 1.53256
13.5099 0.575664
8.22551 0.985241
19.8173 1.91511
23.0186 3.43901
48.5845 1.43335
31.1968 1.66394
34.2398 0.694367
-7.10072 -2.75398
160.955 18.412
-7.74 -4.58116
-7.43202 -5.32107
-5.70505 -3.95956
-6.33935 -5.77512
-1.97836 -0.280595
-0.527055 -0.0120059
0.869097 0.0258194
2.08666 0.0693218
3.58607 0.0598824
5.09569 0.0500806
6.56436 0.043508
8.20347 0.0246426
9.6027 0.0246957
11.3316 0.00806673
12.5283 0.00615671
14.259 -0.0103817
15.3283 -0.0226836
17.0021 -0.0421555
18.5785 -0.0581146
20.1208 -0.0749816
21.7358 -0.101945
23.0194 -0.105439
24.5456 -0.112718
25.4997 -0.0786185
26.7225 0.0020894
27.5648 0.104535
28.816 0.36327
30.3626 0.481314
32.0424 0.740702
35.4372 0.630318
37.9177 0.396491
42.8742 -0.0832876
46.2148 -0.45778
50.3366 -0.684712
52.3156 -0.556223
54.1138 -0.438054
54.8995 -0.159636
55.4913 0.00273482
56.2526 0.0991891
56.9457 0.160358
57.9499 0.13358
59.1315 0.125544
60.0053 0.090928
61.5407 0.0624318
63.272 0.034266
64.9695 0.00947906
66.6318 -0.00111548
68.3383 -0.0224133
69.7225 -0.0317597
71.317 -0.0518619
72.7058 -0.0688356
74.0723 -0.0782356
76.3099 -0.0847255
77.3617 -0.0560408
79.8831 -0.0464124
80.7739 -0.00140633
78.5855 0.282638
80.2309 0.551225
82.7935 0.783299
86.4314 0.787455
91.9155 -0.033136
97.0151 -0.35793
99.529 -0.64361
103.196 -0.763738
103.416 -0.640055
104.696 -0.442154
105.175 -0.0795004
105.583 0.0853011
107.412 0.135678
108.076 0.17246
108.925 0.132445
110.13 0.122032
110.257 0.0892608
111.813 0.0622489
113.463 0.0351751
115.184 0.0108806
117.039 0.00332009
118.783 -0.0175062
121.432 -0.0197672
123.096 -0.0370576
124.89 -0.0502792
126.353 -0.0695197
126.548 -0.110817
127.665 -0.109811
128.902 -0.0922744
129.797 0.0497096
130.486 0.550362
132.244 0.787948
137.12 0.843702
141.548 0.499531
145.032 0.0102939
150.508 -0.569179
152.653 -0.764613
155.733 -0.832884
155.822 -0.4921
156.534 -0.262598
154.827 0.0357792
155.053 0.183393
155.496 0.212225
156.202 0.218504
157.45 0.162607
158.707 0.124577
160.781 0.079672
162.382 0.0521434
164.013 0.0346277
165.777 0.0169884
166.665 0.0119075
168.483 -0.00281738
168.782 -0.0128732
170.561 -0.0369775
171.821 -0.0823199
173.389 -0.134396
174.175 -0.240894
175.274 -0.258512
171.417 -0.238358
185.636 0.772477
187.937 0.804626
191.328 -0.55197
196.516 -1.26771
201.61 -1.17624
203.951 -0.979019
205.49 -0.315647
205.719 -0.039126
207.814 0.129698
207.927 0.21442
209.507 0.168569
210.286 0.153792
211.71 0.106817
213.047 0.0733265
214.41 0.0490299
216.037 0.0226064
213.365 0.00862455
215.063 -0.0150716
212.213 -0.0445033
213.843 -0.0704615
216.484 -0.0998595
217.913 -0.116419
222.58 -0.128912
223.64 -0.0907931
229.848 -0.0344875
230.655 0.201596
237.312 0.379824
240.869 2.24501
144.543 27.3252
122.79 21.8415
96.2167 19.5052
68.112 12.73
-4.6956 -0.0358981
-4.96247 -0.387376
-3.86943 0.161673
-3.98021 0.0754975
-3.09735 0.153659
-3.16364 0.156964
-2.41156 0.0836874
-2.46395 0.110205
-1.76629 0.00224342
-1.82198 0.0358999
-1.02155 -0.0879527
-1.08507 -0.0465491
-0.216305 -0.205637
-0.287788 -0.152901
0.515321 -0.352165
0.416174 -0.286141
0.975756 -0.476113
0.828462 -0.416934
2.00463 -0.533774
1.73151 -0.541391
4.23931 -0.00669427
3.63169 -0.395024
23.9142 1.56326
23.5422 0.762409
26.293 0.260907
25.9615 -0.0840301
28.4165 -0.235542
28.2631 -0.291857
30.0689 -0.278205
30.0191 -0.23347
29.9327 -0.164381
29.9251 -0.108421
27.5993 -0.0309959
27.6014 0.02109
24.7542 0.0931384
24.7691 0.158931
23.2793 0.277832
23.3034 0.395067
21.6737 0.598023
21.7242 0.810796
18.0875 1.1578
18.3341 1.43541
9.50702 2.30826
7.68631 2.17576
13.968 0.725937
24.8087 0.418995
24.6461 0.143795
14.5052 1.09001
14.787 1.44372
6.71564 2.05211
5.16552 1.88298
11.1251 0.167701
13.7661 -0.0346033
13.6353 -0.159913
8.59411 0.760654
8.78769 1.04267
3.86404 1.55962
3.90772 1.59775
6.51607 -0.190622
6.20217 -0.260847
2.60395 0.550675
2.89595 0.733758
-0.527875 1.13093
-1.228 1.10012
119.447 -4.56104
117.672 -3.17407
118.036 -0.25334
77.9172 -3.91715
78.9633 -3.39694
76.6012 -2.08424
75.0515 -0.195448
156.233 3.54757
73.6229 -6.98885
91.7206 -8.89867
103.771 -2.81315
101.302 4.31142
61.6058 -3.88663
67.8312 -5.27269
67.3493 -1.79018
63.6101 3.20095
32.9595 1.04497
27.7453 3.25319
38.6665 -0.536117
19.3841 -3.78851
48.2987 -3.56223
59.7439 -7.89756
41.5466 -1.53476
48.0468 -4.70122
141.716 5.75046
148.789 -6.00124
129.09 8.69643
91.626 7.95019
79.7037 0.337528
57.2545 5.82812
74.7589 -0.252527
57.5834 1.49274
101.277 -9.42216
124 -6.94608
56.5208 0.341585
40.5913 1.9042
65.0925 -10.8629
75.6799 -12.6154
87.7369 -9.88597
92.8914 -6.53308
93.8574 -0.0493887
94.0298 4.52052
52.6275 -7.41985
58.0896 -8.69473
59.2299 -7.58975
61.0858 -4.84731
59.6424 -0.945643
59.3407 2.78395
29.9424 1.70612
26.5356 -6.11355
36.3837 -3.45496
35.6487 -2.43599
30.3953 -4.37781
32.5588 -0.589218
9.40564 -1.66284
13.2694 -4.47523
15.3212 -6.76063
19.4238 -8.4834
7.98031 1.50655
30.8421 2.44536
4.28591 0.742692
19.0304 1.98391
38.7387 -6.98636
31.8854 -4.02854
-4.57207 -0.495457
-0.245214 1.08882
28.5654 3.56075
24.5767 2.94173
17.8358 2.54916
129.798 6.87489
135.872 3.37571
136.192 0.576701
126.048 -0.64453
119.463 0.294135
95.5427 -0.997501
129.83 -8.00826
147.647 -4.08928
151.558 -0.693623
133.845 -2.39353
139.6 4.46093
128.845 8.63485
90.3201 7.93638
94.6251 5.26074
91.0311 2.39035
84.778 1.05769
84.0708 2.84003
72.4681 0.803469
56.3502 7.06987
58.5519 5.18178
62.5898 2.42511
48.7482 3.59807
79.3623 -0.849437
63.4529 0.68044
118.206 11.1565
65.8322 -9.16074
107.766 -12.6926
115.944 -12.7596
63.3581 0.836762
51.1113 1.24231
84.0648 9.90087
61.4021 -14.1656
78.6094 -9.98141
84.7205 2.88501
32.7104 3.1126
52.67 7.8314
43.7398 -10.206
51.5454 -8.10176
53.5138 0.984687
24.1115 5.00386
23.6818 2.23268
24.1331 -7.69761
26.1758 -7.07218
25.6579 -4.56314
25.7911 -2.07628
4.75831 -4.29393
12.7354 -9.56907
29.0751 3.79067
19.5103 -2.84611
39.7614 -10.195
23.646 4.66015
31.1878 -13.3048
44.2315 -16.5347
9.34831 -2.53266
21.5198 -8.0941
20.0791 6.05173
21.378 -8.00055
30.5617 -12.7612
15.9704 -2.62747
16.9317 3.25866
21.0776 4.31916
22.2409 7.43627
21.5969 6.45105
-4.55408 -2.29487
-1.94926 -5.8542
13.382 4.3183
20.9983 2.94036
14.2748 1.29778
20.6122 1.82351
11.2568 0.558476
13.8368 0.827507
6.9254 0.0790158
123.607 5.60607
116.48 2.14418
105.236 0.0417465
93.321 -0.950882
114.808 -10.2496
120.753 -4.51628
125.357 0.754078
126.972 5.84236
85.9229 6.77201
82.3562 4.50707
75.663 2.98912
68.3502 1.7035
53.1953 6.77394
50.6369 5.38693
42.9943 4.42681
37.1655 4.10994
60.9006 0.48914
42.9698 2.45799
58.8697 0.590881
112.756 12.8809
112.753 13.3874
55.6594 -17.0841
73.1417 -19.3155
91.8954 -16.1645
79.9211 -17.9141
46.65 2.15289
33.1496 4.26416
45.7704 3.43317
81.0771 11.2721
79.8553 7.23936
82.727 10.4887
54.6161 -16.6861
65.9762 -13.4281
71.646 -6.57156
79.1538 -0.146729
27.4354 4.58004
27.6059 8.37541
51.3378 9.27584
49.5787 4.04054
52.5297 7.30857
35.4749 -13.7697
43.022 -11.7026
44.6502 -6.85451
49.862 -1.6751
22.2458 4.61769
22.5061 6.67246
21.0648 2.13572
19.2571 -9.56346
21.6106 -4.13195
18.5063 -1.77263
15.0253 -9.01448
18.4689 -5.69047
0.969262 -9.03175
5.18181 -11.354
8.92538 -12.2705
13.1059 -11.3807
25.9948 2.70257
6.54437 -14.5525
21.7708 5.42288
22.5557 -20.2214
-0.585091 -11.9391
17.5497 9.43077
10.7683 -13.9082
-2.85537 -4.84016
11.9628 6.15343
19.0817 7.81569
22.0311 9.13199
-9.57949 -8.84173
-8.33984 -4.40155
-8.64128 -5.76966
190.982 34.4997
169.34 28.5151
3.09003 2.32064
2.77097 1.25291
-4.77981 -0.645066
6.47377 2.03144
6.55791 1.65817
-5.24909 -0.673163
7.90682 1.91662
7.78842 1.13207
-2.4353 0.190914
-2.16716 0.354729
6.05791 1.49086
5.76403 0.66826
-5.10499 -0.845154
108.577 10.0768
111.578 6.05859
91.1254 0.0707191
75.2767 0.590035
93.5826 -12.5172
107.466 -8.78562
115.987 4.94898
110.702 9.73457
78.0807 9.85197
79.0864 7.34428
67.4547 3.08511
57.5091 3.85687
50.5206 9.45226
49.0479 8.02257
39.3328 6.33695
33.8203 7.94073
100.732 5.60992
88.6681 2.25718
99.9203 -4.48906
108.679 2.95986
73.7402 7.28691
65.397 5.31516
46.7114 8.37397
41.5503 8.03863
57.1419 1.84207
89.2237 6.6181
108.807 14.4957
111.99 14.1037
98.4917 0.870963
41.1628 -23.3047
72.5985 -16.3578
44.2778 5.7418
66.7215 8.59458
80.6214 12.4765
81.4551 10.0063
47.3958 -16.773
68.4602 -2.70784
29.782 10.9256
44.4008 10.7099
52.7321 10.4826
50.728 6.23304
27.1851 -15.328
40.9244 -4.62739
22.72 7.93261
19.1744 1.26275
11.6166 -7.48238
-4.41963 -14.3801
3.55758 -14.0225
8.00406 2.70784
4.70279 0.154954
31.9166 8.36174
20.0759 2.93001
70.0266 11.9581
48.391 9.56061
107.933 11.5415
86.1289 14.1667
121.716 9.46896
115.986 12.6672
99.5492 5.80815
118.117 6.18532
58.5878 -3.76525
86.7558 -0.38462
24.0869 -20.1921
43.5557 -10.4471
1.96947 -29.3741
9.7474 -21.3491
-7.90738 -23.8967
-10.1519 -24.858
7.65402 6.60764
5.00569 3.3759
26.4514 11.1599
17.07 7.24626
54.9749 12.4208
38.6474 11.7492
81.6482 10.1761
66.0552 13.249
89.5672 7.09869
87.3981 10.0826
66.8463 3.09922
85.4405 3.95321
34.8434 -6.97333
56.0314 -2.85091
10.3104 -20.7426
22.6687 -12.3529
-3.5266 -25.8385
-0.288953 -20.524
-7.38536 -19.0086
-9.90781 -21.9416
10.159 11.2142
7.07557 8.70224
20.1801 15.1267
13.1423 12.9761
39.1102 13.026
28.0502 14.2938
55.7367 8.62078
46.9693 12.067
56.4282 4.8789
58.4066 7.49897
37.783 0.636925
52.331 1.98965
16.4916 -8.71189
30.5076 -4.5176
2.1933 -19.2503
9.18285 -12.6375
-5.41383 -16.8215
-3.85178 -15.395
-5.92026 -11.7364
-9.63045 -14.7844
7.3734 10.8422
4.49094 8.78691
17.2606 11.0368
13.0402 11.804
23.493 9.37269
20.0027 11.1485
26.5436 7.00891
25.327 9.8339
21.2978 2.55525
26.3152 4.40572
7.02988 -2.60289
17.435 -0.910388
-4.50191 -10.0618
2.66422 -6.28056
-9.73265 -17.5733
-8.15764 -12.5263
-10.1213 -18.92
-12.2022 -17.0022
-6.53635 -12.5895
-9.43997 -16.1532
-9.43316 -4.73945
-6.94611 -11.0607
0.544673 -14.7759
8.35262 -11.3183
15.3116 -3.2153
20.9035 4.92483
21.5736 9.39095
20.0921 7.29332
16.2414 6.04337
6.67924 3.41011
-6.62833 1.00359
4.41753 -5.93696
21.0721 -16.8102
35.5436 -10.7151
46.4101 1.65632
52.6402 9.21703
49.6127 10.2723
36.8107 10.294
21.8966 11.2978
14.6026 8.59257
-7.96717 -4.63863
12.0085 -15.2469
36.7574 -20.2034
59.4417 -10.5498
75.8173 4.71689
82.1134 12.5767
74.513 10.2006
56.1335 6.30475
32.1899 5.58886
12.0533 6.22667
-6.82314 -4.76128
26.9767 -18.9694
59.7028 -21.8944
86.718 -8.28061
105.869 8.43487
110.779 16.1102
100.551 10.0062
73.8419 2.80979
40.6 2.31226
13.2071 4.93855
45.498 6.52121
74.5042 4.6008
113.1 -1.56379
103.102 1.70616
32.1618 5.94202
51.4392 9.093
59.3187 1.60571
82.0973 9.78401
116.861 10.7074
100.432 -15.3416
77.4467 -1.1424
117.655 9.9376
12.6604 1.7903
16.8741 2.79809
13.0777 3.97878
186.812 18.6651
-7.67519 -2.37862
17.1161 -10.7053
8.84263 -7.54656
21.4571 -7.55311
21.843 -0.675563
24.3826 4.21915
53.5363 -4.03761
49.5696 -11.4024
53.1782 5.76435
23.8283 3.628
83.7306 -3.89442
72.3413 -14.697
84.7098 8.85106
34.0082 3.1603
84.2452 -15.6611
44.8954 2.55136
41.2811 2.53494
55.5892 4.51381
77.4472 1.55149
90.2194 4.15522
137.701 2.00904
128.939 -6.24563
108.551 -1.12288
129.601 2.02476
14.5574 -0.120605
23.2857 0.739917
28.322 2.06313
1.63032 -0.798266
23.3757 5.17099
22.2978 1.97022
17.2587 1.13275
26.7184 -0.331203
38.6522 -8.3582
28.418 -1.31772
50.5828 -12.1
48.9308 -1.85345
29.5546 -2.5018
30.8853 -5.66136
67.4606 0.0212377
131.021 -9.67861
81.6948 -0.773405
69.8476 0.871417
61.4908 5.32208
91.9067 0.622779
98.8268 6.3467
141.007 6.66234
165.999 -2.28239
143.234 -0.560043
142.251 4.63361
-0.854557 2.22793
12.2536 4.11509
16.7333 5.02633
21.8841 -6.01357
17.2006 -1.72365
35.4957 0.358895
41.7623 -1.48042
65.7614 0.904724
68.7797 -4.52213
66.5214 -5.92671
103.933 1.80599
102.766 -6.97376
79.6835 -9.9246
45.8397 0.690459
117.381 -3.97257
68.8417 0.45896
56.7657 -1.8404
68.0805 -4.32386
30.8691 1.7628
170.273 1.98955
84.5455 -0.439324
89.3324 -1.78328
132.436 -0.71835
136.408 -2.08335
7.00057 1.62008
8.0099 3.55689
18.5587 2.02141
28.3249 -0.07059
29.546 2.77104
49.835 0.52644
35.9429 2.87795
43.119 1.53818
46.2809 0.763857
49.2046 0.313727
54.8688 0.0386989
59.5064 -0.197651
59.694 -0.359732
56.1242 -0.199014
51.4464 0.770607
46.3549 3.31656
9.30758 -0.577201
5.77419 -0.896602
4.30888 -0.699429
3.74381 -0.468086
2.49247 -0.233764
1.03725 -0.0613576
-0.320609 0.0746308
-1.48768 0.207927
-2.75277 0.325505
-4.18575 0.293159
-5.74067 -0.279408
81.0764 11.7214
135.247 16.4422
221.176 2.09486
207.759 -0.0269145
195.117 -0.318214
185.703 -0.270387
180.424 -0.132812
186.171 -0.00402039
191.57 0.0881896
188.856 0.225982
185.978 0.412305
182.728 0.462059
178.468 -0.381974
175.551 -2.73038
150.47 -0.622203
148.845 -0.262589
146.332 -0.0591964
145.783 0.0133602
144.058 0.0646798
140.832 0.161259
136.681 0.352615
134.13 0.558953
133.14 0.310696
136.463 -0.917323
125.869 1.81202
116.393 1.68912
115.148 -0.0859462
112.609 -0.291811
112.158 -0.149066
108.595 -0.0712355
103.335 -0.0198233
99.6732 0.0569558
96.4128 0.185376
96.1729 0.316735
94.4216 0.397306
90.6571 0.0704592
89.6702 -1.3416
74.8688 2.0725
74.3531 -0.0113563
69.2913 -0.192203
64.7915 -0.189869
62.0259 -0.103579
59.2965 -0.0304708
56.0146 0.0515168
52.5826 0.186196
50.8398 0.324085
48.7601 0.354613
47.1602 -0.172715
45.5581 -1.25449
27.709 1.03229
25.2136 0.0933022
22.6941 -0.256579
19.6112 -0.264029
16.3959 -0.166019
13.2925 -0.0773908
11.2238 -0.00641445
8.90203 0.035454
6.13766 0.0819442
3.2241 0.141439
0.194264 0.158663
-2.6669 -0.217931
-5.03188 -3.04398
-6.57998 -2.8617
50.7243 0.762581
12.0542 1.92603
50.7907 2.25687
70.4619 3.01937
80.694 -0.590087
108.648 -1.1892
35.4599 2.25045
33.4026 -2.20941
103.331 -4.8793
163.92 0.691432
172.91 1.69243
76.659 1.58553
12.1944 0.902953
27.718 1.12771
34.4051 -0.225002
40.7318 1.64228
50.6708 0.0863433
169.501 4.85667
-5.69055 -0.249629
53.1166 -0.168752
19.9358 -0.262833
13.6939 -0.948344
31.5263 0.407841
59.5396 -0.195731
29.7376 0.803198
104.278 -0.515814
65.5097 1.11761
95.2441 -0.569534
21.7979 1.63451
45.3851 1.80846
60.1597 -0.327314
80.8427 2.06256
100.145 -0.118202
84.1916 2.67807
90.3211 1.62481
94.7729 0.812131
100.935 0.300127
121.683 -0.0582801
121.296 -0.361177
122.756 -0.44707
97.6156 0.611005
105.466 4.3809
10.5953 -0.966682
11.6721 -0.671216
6.8278 -0.086822
9.07777 -0.323087
3.48411 0.0713293
1.4002 0.235639
-0.679371 0.413038
-3.10311 0.448792
150.378 0.443437
148.803 0.153994
143.494 0.446061
139.793 0.930861
134.948 1.49981
127.598 1.21751
99.7372 0.0216719
100.94 0.117395
99.2034 0.294993
94.1417 0.651899
89.6446 1.28064
84.6845 -0.453546
87.8518 -0.259323
72.4633 -0.178777
68.8432 0.0298346
65.6416 0.334225
61.99 0.926788
72.6744 1.02613
47.9812 -0.607066
45.5112 -0.402037
44.4303 -0.193687
41.108 -0.00285987
36.9093 0.296151
32.6138 0.858535
36.7057 0.95043
16.5634 -0.752893
7.093 0.0365884
4.8718 0.141409
2.43866 0.281201
-0.287962 0.380801
-3.80885 -0.199977
43.7824 -0.381057
29.3242 -0.626911
52.4966 0.0648656
62.1532 0.192763
51.1394 0.366345
45.6412 0.796808
35.8787 -0.125043
33.1396 0.0905264
31.1891 0.48675
30.7114 -0.367086
27.1545 -0.174498
22.1488 0.0567809
17.0325 0.383246
13.0294 -0.304922
11.564 -0.185225
23.2151 -0.55306
-5.99896 -2.27894
-4.3684 -1.90283
234.05 11.8593
37.0392 5.60815
2.20428 2.86195
6.07248 4.78624
6.82261 5.38284
0 0
0 0
0 0
0 0
0 0
0 0
0 0
0 0
0 0
0 0
0 0
0 0
0 0
0 0
0 0
0 0
0 0
0 0
0 0
0 0
0 0
0 0
0 0
0 0
0 0
0 0
0 0
0 0
0 0
0 0
0 0
0 0
0 0
0 0
0 0
0 0
0 0
0 0
0 0
0 0
0 0
0 0
0 0
0 0
0 0
0 0
0 0
0 0
0 0
0 0
0 0
0 0
0 0
0 0
0 0
0 0
0 0
0 0
0 0
0 0
0 0
0 0
0 0
0 0
0 0
0 0
0 0
0 0
0 0
0 0
0 0
0 0
0 0
0 0
0 0
0 0
0 0
0 0
0 0
0 0
0 0
0 0
0 0
0 0
0 0
0 0
0 0
0 0
0 0
0 0
0 0
0 0
0 0
0 0
0 0
0 0
0 0
0 0
0 0
0 0
0 0
0 0
0 0
0 0
0 0
0 0
0 0
0 0
0 0
0 0
0 0
0 0
0 0
0 0
0 0
0 0
0 0
0 0
0 0
0 0
0 0
0 0
0 0
0 0
0 0
0 0
0 0
0 0
0 0
0 0
0 0
0 0
0 0
0 0
0 0
0 0
0 0
0 0
0 0
0 0
0 0
0 0
0 0
0 0
0 0
0 0
0 0
0 0
0 0
0 0
0 0
0 0
0 0
0 0
0 0
0 0
0 0
0 0
0 0
0 0
0 0
0 0
0 0
0 0
0 0
0 0
0 0
0 0
0 0
0 0
0 0
0 0
0 0
0 0
0 0
0 0
0 0
0 0
0 0
0 0
0 0
0 0
0 0
0 0
0 0
0 0
0 0
0 0
0 0
0 0
0 0
0 0
0 0
0 0
0 0
0 0
0 0
0 0
0 0
0 0
0 0
0 0
0 0
0 0
0 0
0 0
0 0
0 0
0 0
0 0
0 0
0 0
0 0
0 0
0 0
0 0
0 0
0 0
0 0
0 0
0 0
0 0
0 0
0 0
0 0
0 0
0 0
0 0
0 0
0 0
0 0
0 0
0 0
0 0
0 0
0 0
0 0
0 0
0 0
0 0
0 0
0 0
0 0
0 0
0 0
0 0
0 0
0 0
0 0
0 0
0 0
0 0
0 0
0 0
0 0
0 0
0 0
0 0
0 0
0 0
0 0
0 0
0 0
0 0
0 0
0 0
0 0
0 0
0 0
0 0
0 0
0 0
0 0
0 0
0 0
0 0
0 0
0 0
0 0
0 0
0 0
0 0
0 0
0 0
0 0
0 0
0 0
0 0
0 0
0 0
0 0
0 0
0 0
0 0
0 0
0 0
0 0
0 0
0 0
0 0
0 0
0 0
0 0
0 0
0 0
0 0
0 0
0 0
0 0
0 0
0 0
0 0
0 0
0 0
0 0
0 0
0 0
0 0
0 0
0 0
0 0
0 0
0 0
0 0
0 0
0 0
0 0
0 0
0 0
0 0
0 0
0 0
0 0
0 0
0 0
0 0
0 0
0 0
0 0
0 0
0 0
0 0
0 0
0 0
0 0
0 0
0 0
0 0
0 0
0 0
0 0
0 0
0 0
0 0
0 0
0 0
0 0
0 0
0 0
0 0
0 0
0 0
0 0
0 0
0 0
0 0
0 0
0 0
0 0
0 0
0 0
0 0
0 0
0 0
0 0
0 0
0 0
0 0
0 0
0 0
0 0
0 0
0 0
0 0
0 0
0 0
0 0
0 0
0 0
0 0
0 0
0 0
0 0
0 0
0 0
0 0
0 0
0 0
0 0
0 0
0 0
0 0
0 0
0 0
0 0
0 0
0 0
0 0
0 0
0 0
0 0
0 0
0 0
0 0
0 0
0 0
0 0
0 0
0 0
0 0
0 0
0 0
0 0
0 0
0 0
0 0
0 0
0 0
0 0
0 0
0 0
0 0
0 0
0 0
0 0
0 0
0 0
0 0
0 0
0 0
0 0
0 0
0 0
0 0
0 0
0 0
0 0
0 0
0 0
0 0
0 0
0 0
0 0
0 0
0 0
0 0
0 0
0 0
0 0
0 0
0 0
0 0
0 0
0 0
0 0
0 0
0 0
0 0
0 0
0 0
0 0
0 0
0 0
0 0
0 0
0 0
0 0
0 0
0 0
0 0
0 0
0 0
0 0
0 0
0 0
0 0
0 0
0 0
0 0
0 0
0 0
0 0
0 0
0 0
0 0
0 0
0 0
0 0
0 0
0 0
0 0
0 0
0 0
0 0
0 0
0 0
0 0
0 0
0 0
0 0
0 0
0 0
0 0
0 0
0 0
0 0
0 0
0 0
0 0
0 0
0 0
0 0
0 0
0 0
0 0
0 0
0 0
0 0
0 0
0 0
0 0
0 0
0 0
0 0
0 0
0 0
0 0
0 0
0 0
0 0
0 0
0 0
0 0
0 0
0 0
0 0
0 0
0 0
0 0
0 0
0 0
0 0
0 0
0 0
0 0
0 0
0 0
0 0
0 0
0 0
0 0
0 0
0 0
0 0
0 0
0 0
0 0
0 0
0 0
0 0
0 0
0 0
0 0
0 0
0 0
0 0
0 0
0 0
0 0
0 0
0 0
0 0
0 0
0 0
0 0
0 0
0 0
0 0
0 0
0 0
0 0
0 0
0 0
0 0
0 0
0 0
0 0
0 0
0 0
0 0
0 0
0 0
0 0
0 0
0 0
0 0
0 0
0 0
0 0
0 0
0 0
0 0
0 0
0 0
0 0
0 0
0 0
0 0
0 0
0 0
0 0
0 0
0 0
0 0
0 0
0 0
0 0
0 0
0 0
0 0
0 0
0 0
0 0
0 0
0 0
0 0
0 0
0 0
0 0
0 0
0 0
0 0
0 0
0 0
0 0
0 0
0 0
0 0
0 0
0 0
0 0
0 0
0 0
0 0
0 0
0 0
0 0
0 0
0 0
0 0
0 0
0 0
0 0
0 0
0 0
0 0
0 0
0 0
0 0
0 0
0 0
0 0
0 0
0 0
0 0
0 0
0 0
0 0
0 0
0 0
0 0
0 0
0 0
0 0
0 0
0 0
0 0
0 0
0 0
0 0
0 0
0 0
0 0
0 0
0 0
0 0
0 0
0 0
0 0
0 0
0 0
0 0
0 0
0 0
0 0
0 0
0 0
0 0
0 0
0 0
0 0
0 0
0 0
0 0
0 0
0 0
0 0
0 0
0 0
0 0
0 0
0 0
0 0
0 0
0 0
0 0
0 0
0 0
0 0
0 0
0 0
0 0
0 0
0 0
0 0
0 0
0 0
0 0
0 0
0 0
0 0
0 0
0 0
0 0
0 0
0 0
0 0
0 0
0 0
0 0
0 0
0 0
0 0
0 0
0 0
0 0
0 0
0 0
0 0
0 0
0 0
0 0
0 0
0 0
0 0
0 0
0 0
0 0
0 0
0 0
0 0
0 0
0 0
0 0
0 0
0 0
0 0
0 0
0 0
0 0
0 0
0 0
0 0
0 0
0 0
0 0
0 0
0 0
0 0
0 0
0 0
0 0
0 0
0 0
0 0
0 0
0 0
0 0
0 0
0 0
0 0
0 0
0 0
0 0
0 0
0 0
0 0
0 0
0 0
0 0
0 0
0 0
0 0
0 0
0 0
0 0
0 0
0 0
0 0
0 0
0 0
0 0
0 0
0 0
0 0
0 0
0 0
0 0
0 0
0 0
0 0
0 0
0 0
0 0
0 0
0 0
0 0
0 0
0 0
0 0
0 0
0 0
0 0
0 0
0 0
0 0
0 0
0 0
0 0
0 0
0 0
0 0
0 0
0 0
0 0
0 0
0 0
0 0
0 0
0 0
0 0
0 0
0 0
0 0
0 0
0 0
0 0
0 0
0 0
0 0
0 0
0 0
0 0
0 0
0 0
0 0
0 0
0 0
0 0
0 0
0 0
0 0
0 0
0 0
0 0
0 0
0 0
0 0
0 0
0 0
0 0
0 0
0 0
0 0
0 0
0 0
0 0
0 0
0 0
0 0
0 0
0 0
0 0
0 0
0 0
0 0
0 0
0 0
0 0
0 0
0 0
0 0
0 0
0 0
0 0
0 0
0 0
0 0
0 0
0 0
0 0
0 0
0 0
0 0
0 0
0 0
0 0
0 0
0 0
0 0
0 0
0 0
0 0
0 0
0 0
0 0
0 0
0 0
0 0
0 0
0 0
0 0
0 0
0 0
0 0
0 0
0 0
0 0
0 0
0 0
0 0
0 0
0 0
0 0
0 0
0 0
0 0
0 0
0 0
0 0
0 0
0 0
0 0
0 0
0 0
0 0
0 0
0 0
0 0
0 0
0 0
0 0
0 0
0 0
0 0
0 0
0 0
0 0
0 0
0 0
0 0
0 0
0 0
0 0
0 0
0 0
0 0
0 0
0 0
0 0
0 0
0 0
0 0
0 0
0 0
0 0
0 0
0 0
0 0
0 0
0 0
0 0
0 0
0 0
0 0
0 0
0 0
0 0
0 0
0 0
0 0
0 0
0 0
0 0
0 0
0 0
0 0
0 0
0 0
0 0
0 0
0 0
0 0
0 0
0 0
0 0
0 0
0 0
0 0
0 0
0 0
0 0
0 0
0 0
0 0
0 0
0 0
0 0
0 0
0 0
0 0
0 0
0 0
0 0
0 0
0 0
0 0
0 0
0 0
0 0
0 0
0 0
0 0
0 0
0 0
0 0
0 0
0 0
0 0
0 0
0 0
0 0
0 0
0 0
0 0
0 0
0 0
0 0
0 0
0 0
0 0
0 0
0 0
0 0
0 0
0 0
0 0
0 0
0 0
0 0
0 0
0 0
0 0
0 0
0 0
0 0
0 0
0 0
0 0
0 0
0 0
0 0
0 0
0 0
0 0
0 0
0 0
0 0
0 0
0 0
0 0
0 0
0 0
0 0
0 0
0 0
0 0
0 0
0 0
0 0
0 0
0 0
0 0
0 0
0 0
0 0
0 0
0 0
0 0
0 0
0 0
0 0
0 0
0 0
0 0
0 0
0 0
0 0
0 0
0 0
0 0
0 0
0 0
0 0
0 0
0 0
0 0
0 0
0 0
0 0
0 0
0 0
0 0
0 0
0 0
0 0
0 0
0 0
0 0
0 0
0 0
0 0
0 0
0 0
0 0
0 0
0 0
0 0
0 0
0 0
0 0
0 0
0 0
0 0
0 0
0 0
0 0
0 0
0 0
0 0
0 0
0 0
0 0
0 0
0 0
0 0
0 0
0 0
0 0
0 0
0 0
0 0
0 0
0 0
0 0
0 0
0 0
0 0
0 0
0 0
0 0
0 0
0 0
0 0
0 0
0 0
0 0
0 0
0 0
0 0
0 0
0 0
0 0
0 0
0 0
0 0
0 0
0 0
0 0
0 0
0 0
0 0
0 0
0 0
0 0
0 0
0 0
0 0
0 0
0 0
0 0
0 0
0 0
0 0
0 0
0 0
0 0
0 0
0 0
0 0
0 0
0 0
0 0
0 0
0 0
0 0
0 0
0 0
0 0
0 0
0 0
0 0
0 0
0 0
0 0
0 0
0 0
0 0
0 0
0 0
0 0
0 0
0 0
0 0
0 0
0 0
0 0
0 0
0 0
0 0
0 0
0 0
0 0
0 0
0 0
0 0
0 0
0 0
0 0
0 0
0 0
0 0
0 0
0 0
0 0
0 0
0 0
0 0
0 0
0 0
0 0
0 0
0 0
0 0
0 0
0 0
0 0
0 0
0 0
0 0
0 0
0 0
0 0
0 0
0 0
0 0
0 0
0 0
0 0
0 0
0 0
0 0
0 0
0 0
0 0
0 0
0 0
0 0
0 0
0 0
0 0
0 0
0 0
0 0
0 0
0 0
0 0
0 0
0 0
0 0
0 0
0 0
0 0
0 0
0 0
0 0
0 0
0 0
0 0
0 0
0 0
0 0
0 0
0 0
0 0
0 0
0 0
0 0
0 0
0 0
0 0
0 0
0 0
0 0
0 0
0 0
0 0
0 0
0 0
0 0
0 0
0 0
0 0
0 0
0 0
0 0
0 0
0 0
0 0
0 0
0 0
0 0
0 0
0 0
0 0
0 0
0 0
0 0
0 0
0 0
0 0
0 0
0 0
0 0
0 0
0 0
0 0
0 0
0 0
0 0
0 0
0 0
0 0
0 0
0 0
0 0
0 0
0 0
0 0
0 0
0 0
0 0
0 0
0 0
0 0
0 0
0 0
0 0
0 0
0 0
0 0
0 0
0 0
0 0
0 0
0 0
0 0
0 0
0 0
0 0
0 0
0 0
0 0
0 0
0 0
0 0
0 0
0 0
0 0
0 0
0 0
0 0
0 0
0 0
0 0
0 0
0 0
0 0
0 0
0 0
0 0
0 0
0 0
0 0
0 0
0 0
0 0
0 0
0 0
0 0
0 0
0 0
0 0
0 0
0 0
0 0
0 0
0 0
0 0
0 0
0 0
0 0
0 0
0 0
0 0
0 0
0 0
0 0
0 0
0 0
0 0
0 0
0 0
0 0
0 0
0 0
0 0
0 0
0 0
0 0
0 0
0 0
0 0
0 0
0 0
0 0
0 0
0 0
0 0
0 0
0 0
0 0
0 0
0 0
0 0
0 0
0 0
0 0
0 0
0 0
0 0
0 0
0 0
0 0
0 0
0 0
0 0
0 0
0 0
0 0
0 0
0 0
0 0
0 0
0 0
0 0
0 0
0 0
0 0
0 0
0 0
0 0
0 0
0 0
0 0
0 0
0 0
0 0
0 0
0 0
0 0
0 0
0 0
0 0
0 0
0 0
0 0
0 0
0 0
0 0
0 0
0 0
0 0
0 0
0 0
0 0
0 0
0 0
0 0
0 0
0 0
0 0
0 0
0 0
0 0
0 0
0 0
0 0
0 0
0 0
0 0
0 0
0 0
0 0
0 0
0 0
0 0
0 0
0 0
0 0
0 0
0 0
0 0
0 0
0 0
0 0
0 0
0 0
0 0
0 0
0 0
0 0
0 0
0 0
0 0
0 0
0 0
0 0
0 0
0 0
0 0
0 0
0 0
0 0
0 0
0 0
0 0
0 0
0 0
0 0
0 0
0 0
0 0
0 0
0 0
0 0
0 0
0 0
0 0
0 0
0 0
0 0
0 0
0 0
0 0
0 0
0 0
0 0
0 0
0 0
0 0
0 0
0 0
0 0
0 0
0 0
0 0
0 0
0 0
0 0
0 0
0 0
0 0
0 0
0 0
0 0
0 0
0 0
0 0
0 0
0 0
0 0
0 0
0 0
0 0
0 0
0 0
0 0
0 0
0 0
0 0
0 0
0 0
0 0
0 0
0 0
0 0
0 0
0 0
0 0
0 0
0 0
0 0
0 0
0 0
0 0
0 0
0 0
0 0
0 0
0 0
0 0
0 0
0 0
0 0
0 0
0 0
0 0
0 0
0 0
0 0
0 0
0 0
0 0
0 0
0 0
0 0
0 0
0 0
0 0
0 0
0 0
0 0
0 0
0 0
0 0
0 0
0 0
0 0
0 0
0 0
0 0
0 0
0 0
0 0
0 0
0 0
0 0
0 0
0 0
0 0
0 0
0 0
0 0
0 0
0 0
0 0
0 0
0 0
0 0
0 0
0 0
0 0
0 0
0 0
0 0
0 0
0 0
0 0
0 0
0 0
0 0
0 0
0 0
0 0
0 0
0 0
0 0
0 0
0 0
0 0
0 0
0 0
0 0
0 0
0 0
0 0
0 0
0 0
0 0
0 0
0 0
0 0
0 0
0 0
0 0
0 0
0 0
0 0
0 0
0 0
0 0
0 0
0 0
0 0
0 0
0 0
0 0
0 0
0 0
0 0
0 0
0 0
0 0
0 0
0 0
0 0
0 0
0 0
0 0
0 0
0 0
0 0
0 0
0 0
0 0
0 0
0 0
0 0
0 0
0 0
0 0
0 0
0 0
0 0
0 0
0 0
0 0
0 0
0 0
0 0
0 0
0 0
0 0
0 0
0 0
0 0
0 0
0 0
0 0
0 0
0 0
0 0
0 0
0 0
0 0
0 0
0 0
0 0
0 0
0 0
0 0
0 0
0 0
0 0
0 0
0 0
0 0
0 0
0 0
0 0
0 0
0 0
0 0
0 0
0 0
0 0
0 0
0 0
0 0
0 0
0 0
0 0
0 0
0 0
0 0
0 0
0 0
0 0
0 0
0 0
0 0
0 0
0 0
0 0
0 0
0 0
0 0
0 0
0 0
0 0
0 0
0 0
0 0
0 0
0 0
0 0
0 0
0 0
0 0
0 0
0 0
0 0
0 0
0 0
0 0
0 0
0 0
0 0
0 0
0 0
0 0
0 0
0 0
0 0
0 0
0 0
0 0
0 0
0 0
0 0
0 0
0 0
0 0
0 0
0 0
0 0
0 0
0 0
0 0
0 0
0 0
0 0
0 0
0 0
0 0
0 0
0 0
0 0
0 0
0 0
0 0
0 0
0 0
0 0
0 0
0 0
0 0
0 0
0 0
0 0
0 0
0 0
0 0
0 0
0 0
0 0
0 0
0 0
0 0
0 0
0 0
0 0
0 0
0 0
0 0
0 0
0 0
0 0
0 0
0 0
0 0
0 0
0 0
0 0
0 0
0 0
0 0
0 0
0 0
0 0
0 0
0 0
0 0
0 0
0 0
0 0
0 0
0 0
0 0
0 0
0 0
0 0
0 0
0 0
0 0
0 0
0 0
0 0
0 0
0 0
0 0
0 0
0 0
0 0
0 0
0 0
0 0
0 0
0 0
0 0
0 0
0 0
0 0
0 0
0 0
0 0
0 0
0 0
0 0
0 0
0 0
0 0
0 0
0 0
0 0
0 0
0 0
0 0
0 0
0 0
0 0
0 0
0 0
0 0
0 0
0 0
0 0
0 0
0 0
0 0
0 0
0 0
0 0
0 0
0 0
0 0
0 0
0 0
0 0
0 0
0 0
0 0
0 0
0 0
0 0
0 0
0 0
0 0
0 0
0 0
0 0
0 0
0 0
0 0
0 0
0 0
0 0
0 0
0 0
0 0
0 0
0 0
0 0
0 0
0 0
0 0
0 0
0 0
0 0
0 0
0 0
0 0
0 0
0 0
0 0
0 0
0 0
0 0
0 0
0 0
0 0
0 0
0 0
0 0
0 0
0 0
0 0
0 0
0 0
0 0
0 0
0 0
0 0
0 0
0 0
0 0
0 0
0 0
0 0
0 0
0 0
0 0
0 0
0 0
0 0
0 0
0 0
0 0
0 0
0 0
0 0
0 0
0 0
0 0
0 0
0 0
0 0
0 0
0 0
0 0
0 0
0 0
0 0
0 0
0 0
0 0
0 0
0 0
0 0
0 0
0 0
0 0
0 0
0 0
0 0
0 0
0 0
0 0
0 0
0 0
0 0
0 0
0 0
0 0
0 0
0 0
0 0
0 0
0 0
0 0
0 0
0 0
0 0
0 0
0 0
0 0
0 0
0 0
0 0
0 0
0 0
0 0
0 0
0 0
0 0
0 0
0 0
0 0
0 0
0 0
0 0
0 0
0 0
0 0
0 0
0 0
0 0
0 0
0 0
0 0
0 0
0 0
0 0
0 0
0 0
0 0
0 0
0 0
0 0
0 0
0 0
0 0
0 0
0 0
0 0
0 0
0 0
0 0
0 0
0 0
0 0
0 0
0 0
0 0
0 0
0 0
0 0
0 0
0 0
0 0
0 0
0 0
0 0
0 0
0 0
0 0
0 0
0 0
0 0
0 0
0 0
0 0
0 0
0 0
0 0
0 0
0 0
0 0
0 0
0 0
0 0
0 0
0 0
0 0
0 0
0 0
0 0
0 0
0 0
0 0
0 0
0 0
0 0
0 0
0 0
0 0
0 0
0 0
0 0
0 0
0 0
0 0
0 0
0 0
0 0
0 0
0 0
0 0
0 0
0 0
0 0
0 0
0 0
0 0
0 0
0 0
0 0
0 0
0 0
0 0
0 0
0 0
0 0
0 0
0 0
0 0
0 0
0 0
0 0
0 0
0 0
0 0
0 0
0 0
0 0
0 0
0 0
0 0
0 0
0 0
0 0
0 0
0 0
0 0
0 0
0 0
0 0
0 0
0 0
0 0
0 0
0 0
0 0
0 0
0 0
0 0
0 0
0 0
0 0
0 0
0 0
0 0
0 0
0 0
0 0
0 0
0 0
0 0
0 0
0 0
0 0
0 0
0 0
0 0
0 0
0 0
0 0
0 0
0 0
0 0
0 0
0 0
0 0
0 0
0 0
0 0
0 0
0 0
0 0
0 0
0 0
0 0
0 0
0 0
0 0
0 0
0 0
0 0
0 0
0 0
0 0
0 0
0 0
0 0
0 0
0 0
0 0
0 0
0 0
0 0
0 0
0 0
0 0
0 0
0 0
0 0
0 0
0 0
0 0
0 0
0 0
0 0
0 0
0 0
0 0
0 0
0 0
0 0
0 0
0 0
0 0
0 0
0 0
0 0
0 0
0 0
0 0
0 0
0 0
0 0
0 0
0 0
0 0
0 0
0 0
0 0
0 0
0 0
0 0
0 0
0 0
0 0
0 0
0 0
0 0
0 0
0 0
0 0
0 0
0 0
0 0
0 0
0 0
0 0
0 0
0 0
0 0
0 0
0 0
0 0
0 0
0 0
0 0
0 0
0 0
0 0
0 0
0 0
0 0
0 0
0 0
0 0
0 0
0 0
0 0
0 0
0 0
0 0
0 0
0 0
0 0
0 0
0 0
0 0
0 0
0 0
0 0
0 0
0 0
0 0
0 0
0 0
0 0
0 0
0 0
0 0
0 0
0 0
0 0
0 0
0 0
0 0
0 0
0 0
0 0
0 0
0 0
0 0
0 0
0 0
0 0
0 0
0 0
0 0
0 0
0 0
0 0
0 0
0 0
0 0
0 0
0 0
0 0
0 0
0 0
0 0
0 0
0 0
0 0
0 0
0 0
0 0
0 0
0 0
0 0
0 0
0 0
0 0
0 0
0 0
0 0
0 0
0 0
0 0
0 0
0 0
0 0
0 0
0 0
0 0
0 0
0 0
0 0
0 0
0 0
0 0
0 0
0 0
0 0
0 0
0 0
0 0
0 0
0 0
0 0
0 0
0 0
0 0
0 0
0 0
0 0
0 0
0 0
0 0
0 0
0 0
0 0
0 0
0 0
0 0
0 0
0 0
0 0
0 0
0 0
0 0
0 0
0 0
0 0
0 0
0 0
0 0
0 0
0 0
0 0
0 0
0 0
0 0
0 0
0 0
0 0
0 0
0 0
0 0
0 0
0 0
0 0
0 0
0 0
0 0
0 0
0 0
0 0
0 0
0 0
0 0
0 0
0 0
0 0
0 0
0 0
0 0
0 0
0 0
0 0
0 0
0 0
0 0
0 0
0 0
0 0
0 0
0 0
0 0
0 0
0 0
0 0
0 0
0 0
0 0
0 0
0 0
0 0
0 0
0 0
0 0
0 0
0 0
0 0
0 0
0 0
0 0
0 0
0 0
0 0
0 0
0 0
0 0
0 0
0 0
0 0
0 0
0 0
0 0
0 0
0 0
0 0
0 0
0 0
0 0
0 0
0 0
0 0
0 0
0 0
0 0
0 0
0 0
0 0
0 0
0 0
0 0
0 0
0 0
0 0
0 0
0 0
0 0
0 0
0 0
0 0
0 0
0 0
0 0
0 0
0 0
0 0
0 0
0 0
0 0
0 0
0 0
0 0
0 0
0 0
0 0
0 0
0 0
0 0
0 0
0 0
0 0
0 0
0 0
0 0
0 0
0 0
0 0
0 0
0 0
0 0
0 0
0 0
0 0
0 0
0 0
0 0
0 0
0 0
0 0
0 0
0 0
0 0
0 0
0 0
0 0
0 0
0 0
0 0
0 0
0 0
0 0
0 0
0 0
0 0
0 0
0 0
0 0
0 0
0 0
0 0
0 0
0 0
0 0
0 0
0 0
0 0
0 0
0 0
0 0
0 0
0 0
0 0
0 0
0 0
0 0
0 0
0 0
0 0
0 0
0 0
0 0
0 0
0 0
0 0
0 0
0 0
0 0
0 0
0 0
0 0
0 0
0 0
0 0
0 0
0 0
0 0
0 0
0 0
0 0
0 0
0 0
0 0
0 0
0 0
0 0
0 0
0 0
0 0
0 0
0 0
0 0
0 0
0 0
0 0
0 0
0 0
0 0
0 0
0 0
0 0
0 0
0 0
0 0
0 0
0 0
0 0
0 0
0 0
0 0
0 0
0 0
0 0
0 0
0 0
0 0
0 0
0 0
0 0
0 0
0 0
0 0
0 0
0 0
0 0
0 0
0 0
0 0
0 0
0 0
0 0
0 0
0 0
0 0
0 0
0 0
0 0
0 0
0 0
0 0
0 0
0 0
0 0
0 0
0 0
0 0
0 0
0 0
0 0
0 0
0 0
0 0
0 0
0 0
0 0
0 0
0 0
0 0
0 0
0 0
0 0
0 0
0 0
0 0
0 0
0 0
0 0
0 0
0 0
0 0
0 0
0 0
0 0
0 0
0 0
0 0
0 0
0 0
0 0
0 0
0 0
0 0
0 0
0 0
0 0
0 0
0 0
0 0
0 0
0 0
0 0
0 0
0 0
0 0
0 0
0 0
0 0
0 0
0 0
0 0
0 0
0 0
0 0
0 0
0 0
0 0
0 0
0 0
0 0
0 0
0 0
0 0
0 0
0 0
0 0
0 0
0 0
0 0
0 0
0 0
0 0
0 0
0 0
0 0
0 0
0 0
0 0
0 0
0 0
0 0
0 0
0 0
0 0
0 0
0 0
0 0
0 0
0 0
0 0
0 0
0 0
0 0
0 0
0 0
0 0
0 0
0 0
0 0
0 0
0 0
0 0
0 0
0 0
0 0
0 0
0 0
0 0
0 0
0 0
0 0
0 0
0 0
0 0
0 0
0 0
0 0
0 0
0 0
0 0
0 0
0 0
0 0
0 0
0 0
0 0
0 0
0 0
0 0
0 0
0 0
0 0
0 0
0 0
0 0
0 0
0 0
0 0
0 0
0 0
0 0
0 0
0 0
0 0
0 0
0 0
0 0
0 0
0 0
0 0
0 0
0 0
0 0
0 0
0 0
0 0
0 0
0 0
0 0
0 0
0 0
0 0
0 0
0 0
0 0
0 0
0 0
0 0
0 0
0 0
0 0
0 0
0 0
0 0
0 0
0 0
0 0
0 0
0 0
0 0
0 0
0 0
0 0
0 0
0 0
0 0
0 0
0 0
0 0
0 0
0 0
0 0
0 0
0 0
0 0
0 0
0 0
0 0
0 0
0 0
0 0
0 0
0 0
0 0
0 0
0 0
0 0
0 0
0 0
0 0
0 0
0 0
0 0
0 0
0 0
0 0
0 0
0 0
0 0
0 0
0 0
0 0
0 0
0 0
0 0
0 0
0 0
0 0
0 0
0 0
0 0
0 0
0 0
0 0
0 0
0 0
0 0
0 0
0 0
0 0
0 0
0 0
0 0
0 0
0 0
0 0
0 0
0 0
0 0
0 0
0 0
0 0
0 0
0 0
0 0
0 0
0 0
0 0
0 0
0 0
0 0
0 0
0 0
0 0
0 0
0 0
0 0
0 0
0 0
0 0
0 0
0 0
0 0
0 0
0 0
0 0
0 0
0 0
0 0
0 0
0 0
0 0
0 0
0 0
0 0
0 0
0 0
0 0
0 0
0 0
0 0
0 0
0 0
0 0
0 0
0 0
0 0
0 0
0 0
0 0
0 0
0 0
0 0
0 0
0 0
0 0
0 0
0 0
0 0
0 0
0 0
0 0
0 0
0 0
0 0
0 0
0 0
0 0
0 0
0 0
0 0
0 0
0 0
0 0
0 0
0 0
0 0
0 0
0 0
0 0
0 0
0 0
0 0
0 0
0 0
0 0
0 0
0 0
0 0
0 0
0 0
0 0
0 0
0 0
0 0
0 0
0 0
0 0
0 0
0 0
0 0
0 0
0 0
0 0
0 0
0 0
0 0
0 0
0 0
0 0
0 0
0 0
0 0
0 0
0 0
0 0
0 0
0 0
0 0
0 0
0 0
0 0
0 0
0 0
0 0
0 0
0 0
0 0
0 0
0 0
0 0
0 0
0 0
0 0
0 0
0 0
0 0
0 0
0 0
0 0
0 0
0 0
0 0
0 0
0 0
0 0
0 0
0 0
0 0
0 0
0 0
0 0
0 0
0 0
0 0
0 0
0 0
0 0
0 0
0 0
0 0
0 0
0 0
0 0
0 0
0 0
0 0
0 0
0 0
0 0
0 0
0 0
0 0
0 0
0 0
0 0
0 0
0 0
0 0
0 0
0 0
0 0
0 0
0 0
0 0
0 0
0 0
0 0
0 0
0 0
0 0
0 0
0 0
0 0
0 0
0 0
0 0
0 0
0 0
0 0
0 0
0 0
0 0
0 0
0 0
0 0
0 0
0 0
0 0
0 0
0 0
0 0
0 0
0 0
0 0
0 0
0 0
0 0
0 0
0 0
0 0
0 0
0 0
0 0
0 0
0 0
0 0
0 0
0 0
0 0
0 0
0 0
0 0
0 0
0 0
0 0
0 0
0 0
0 0
0 0
0 0
0 0
0 0
0 0
0 0
0 0
0 0
0 0
0 0
0 0
0 0
0 0
0 0
0 0
0 0
0 0
0 0
0 0
0 0
0 0
0 0
0 0
0 0
0 0
0 0
0 0
0 0
0 0
0 0
0 0
0 0
0 0
0 0
0 0
0 0
0 0
0 0
0 0
0 0
0 0
0 0
0 0
0 0
0 0
0 0
0 0
0 0
0 0
0 0
0 0
0 0
0 0
0 0
0 0
0 0
0 0
0 0
0 0
0 0
0 0
0 0
0 0
0 0
0 0
0 0
0 0
0 0
0 0
0 0
0 0
0 0
0 0
0 0
0 0
0 0
0 0
0 0
0 0
0 0
0 0
0 0
0 0
0 0
0 0
0 0
0 0
0 0
0 0
0 0
0 0
0 0
0 0
0 0
0 0
0 0
0 0
0 0
0 0
0 0
0 0
0 0
0 0
0 0
0 0
0 0
0 0
0 0
0 0
0 0
0 0
0 0
0 0
0 0
0 0
0 0
0 0
0 0
0 0
0 0
0 0
0 0
0 0
0 0
0 0
0 0
0 0
0 0
0 0
0 0
0 0
0 0
0 0
0 0
0 0
0 0
0 0
0 0
0 0
0 0
0 0
0 0
0 0
0 0
0 0
0 0
0 0
0 0
0 0
0 0
0 0
0 0
0 0
0 0
0 0
0 0
0 0
0 0
0 0
0 0
0 0
0 0
0 0
0 0
0 0
0 0
0 0
0 0
0 0
0 0
0 0
0 0
0 0
0 0
0 0
0 0
0 0
0 0
0 0
0 0
0 0
0 0
0 0
0 0
0 0
0 0
0 0
0 0
0 0
0 0
0 0
0 0
0 0
0 0
0 0
0 0
0 0
0 0
0 0
0 0
0 0
0 0
0 0
0 0
0 0
0 0
0 0
0 0
0 0
0 0
0 0
0 0
0 0
0 0
0 0
0 0
0 0
0 0
0 0
0 0
0 0
0 0
0 0
0 0
0 0
0 0
0 0
0 0
0 0
0 0
0 0
0 0
0 0
0 0
0 0
0 0
0 0
0 0
0 0
0 0
0 0
0 0
0 0
0 0
0 0
0 0
0 0
0 0
0 0
0 0
0 0
0 0
0 0
0 0
0 0
0 0
0 0
0 0
0 0
0 0
0 0
0 0
0 0
0 0
0 0
0 0
0 0
0 0
0 0
0 0
0 0
0 0
0 0
0 0
0 0
0 0
0 0
0 0
0 0
0 0
0 0
0 0
0 0
0 0
0 0
0 0
0 0
0 0
0 0
0 0
0 0
0 0
0 0
0 0
0 0
0 0
0 0
0 0
0 0
0 0
0 0
0 0
0 0
0 0
0 0
0 0
0 0
0 0
0 0
0 0
0 0
0 0
0 0
0 0
0 0
0 0
0 0
0 0
0 0
0 0
0 0
0 0
0 0
0 0
0 0
0 0
0 0
0 0
0 0
0 0
0 0
0 0
0 0
0 0
0 0
0 0
0 0
0 0
0 0
0 0
0 0
0 0
0 0
0 0
0 0
0 0
0 0
0 0
0 0
0 0
0 0
0 0
0 0
0 0
0 0
0 0
0 0
0 0
0 0
0 0
0 0
0 0
0 0
0 0
0 0
0 0
0 0
0 0
0 0
0 0
0 0
0 0
0 0
0 0
0 0
0 0
0 0
0 0
0 0
0 0
0 0
0 0
0 0
0 0
0 0
0 0
0 0
0 0
0 0
0 0
0 0
0 0
0 0
0 0
0 0
0 0
0 0
0 0
0 0
0 0
0 0
0 0
0 0
0 0
0 0
0 0
0 0
0 0
0 0
0 0
0 0
0 0
0 0
0 0
0 0
0 0
0 0
0 0
0 0
0 0
0 0
0 0
0 0
0 0
0 0
0 0
0 0
0 0
0 0
0 0
0 0
0 0
0 0
0 0
0 0
0 0
0 0
0 0
0 0
0 0
0 0
0 0
0 0
0 0
0 0
0 0
0 0
0 0
0 0
0 0
0 0
0 0
0 0
0 0
0 0
0 0
0 0
0 0
0 0
0 0
0 0
0 0
0 0
0 0
0 0
0 0
0 0
0 0
0 0
0 0
0 0
0 0
0 0
0 0
0 0
0 0
0 0
0 0
0 0
0 0
0 0
0 0
0 0
0 0
0 0
0 0
0 0
0 0
0 0
0 0
0 0
0 0
0 0
0 0
0 0
0 0
0 0
0 0
0 0
0 0
0 0
0 0
0 0
0 0
0 0
0 0
0 0
0 0
0 0
0 0
0 0
0 0
0 0
0 0
0 0
0 0
0 0
0 0
0 0
0 0
0 0
0 0
0 0
0 0
0 0
0 0
0 0
0 0
0 0
0 0
0 0
0 0
0 0
0 0
0 0
0 0
0 0
0 0
0 0
0 0
0 0
0 0
0 0
0 0
0 0
0 0
0 0
0 0
0 0
0 0
0 0
0 0
0 0
0 0
0 0
0 0
0 0
0 0
0 0
0 0
0 0
0 0
0 0
0 0
0 0
0 0
0 0
0 0
0 0
0 0
0 0
0 0
0 0
0 0
0 0
0 0
0 0
0 0
0 0
0 0
0 0
0 0
0 0
0 0
0 0
0 0
0 0
0 0
0 0
0 0
0 0
0 0
0 0
0 0
0 0
0 0
0 0
0 0
0 0
0 0
0 0
0 0
0 0
0 0
0 0
0 0
0 0
0 0
0 0
0 0
0 0
0 0
0 0
0 0
0 0
0 0
0 0
0 0
0 0
0 0
0 0
0 0
0 0
0 0
0 0
0 0
0 0
0 0
0 0
0 0
0 0
0 0
0 0
0 0
0 0
0 0
0 0
0 0
0 0
0 0
0 0
0 0
0 0
0 0
0 0
0 0
0 0
0 0
0 0
0 0
0 0
0 0
0 0
0 0
0 0
0 0
0 0
0 0
0 0
0 0
0 0
0 0
0 0
0 0
0 0
0 0
0 0
0 0
0 0
0 0
0 0
0 0
0 0
0 0
0 0
0 0
0 0
0 0
0 0
0 0
0 0
0 0
0 0
0 0
0 0
0 0
0 0
0 0
0 0
0 0
0 0
0 0
0 0
0 0
0 0
0 0
0 0
0 0
0 0
0 0
0 0
0 0
0 0
0 0
0 0
0 0
0 0
0 0
0 0
0 0
0 0
0 0
0 0
0 0
0 0
0 0
0 0
0 0
0 0
0 0
0 0
0 0
0 0
0 0
0 0
0 0
0 0
0 0
0 0
0 0
0 0
0 0
0 0
0 0
0 0
0 0
0 0
0 0
0 0
0 0
0 0
0 0
0 0
0 0
0 0
0 0
0 0
0 0
0 0
0 0
0 0
0 0
0 0
0 0
0 0
0 0
0 0
0 0
0 0
0 0
0 0
0 0
0 0
0 0
0 0
0 0
0 0
0 0
0 0
0 0
0 0
0 0
0 0
0 0
0 0
0 0
0 0
0 0
0 0
0 0
0 0
0 0
0 0
0 0
0 0
0 0
0 0
0 0
0 0
0 0
0 0
0 0
0 0
0 0
0 0
0 0
0 0
0 0
0 0
0 0
0 0
0 0
0 0
0 0
0 0
0 0
0 0
0 0
0 0
0 0
0 0
0 0
0 0
0 0
0 0
0 0
0 0
0 0
0 0
0 0
0 0
0 0
0 0
0 0
0 0
0 0
0 0
0 0
0 0
0 0
0 0
0 0
0 0
0 0
0 0
0 0
0 0
0 0
0 0
0 0
0 0
0 0
0 0
0 0
0 0
0 0
0 0
0 0
0 0
0 0
0 0
0 0
0 0
0 0
0 0
0 0
0 0
0 0
0 0
0 0
0 0
0 0
0 0
0 0
0 0
0 0
0 0
0 0
0 0
0 0
0 0
0 0
0 0
0 0
0 0
0 0
0 0
0 0
0 0
0 0
0 0
0 0
0 0
0 0
0 0
0 0
0 0
0 0
0 0
0 0
0 0
0 0
0 0
0 0
0 0
0 0
0 0
0 0
0 0
0 0
0 0
0 0
0 0
0 0
0 0
0 0
0 0
0 0
0 0
0 0
0 0
0 0
0 0
0 0
0 0
0 0
0 0
0 0
0 0
0 0
0 0
0 0
0 0
0 0
0 0
0 0
0 0
0 0
0 0
0 0
0 0
0 0
0 0
0 0
0 0
0 0
0 0
0 0
0 0
0 0
0 0
0 0
0 0
0 0
0 0
0 0
0 0
0 0
0 0
0 0
0 0
0 0
0 0
0 0
0 0
0 0
0 0
0 0
0 0
0 0
0 0
0 0
0 0
0 0
0 0
0 0
0 0
0 0
0 0
0 0
0 0
0 0
0 0
0 0
0 0
0 0
0 0
0 0
0 0
0 0
0 0
0 0
0 0
0 0
0 0
0 0
0 0
0 0
0 0
0 0
0 0
0 0
0 0
0 0
0 0
0 0
0 0
0 0
0 0
0 0
0 0
0 0
0 0
0 0
0 0
0 0
0 0
0 0
0 0
0 0
0 0
0 0
0 0
0 0
0 0
0 0
0 0
0 0
0 0
0 0
0 0
0 0
0 0
0 0
0 0
0 0
0 0
0 0
0 0
0 0
0 0
0 0
0 0
0 0
0 0
0 0
0 0
0 0
0 0
0 0
0 0
0 0
0 0
0 0
0 0
0 0
0 0
0 0
0 0
0 0
0 0
0 0
0 0
0 0
0 0
0 0
0 0
0 0
0 0
0 0
0 0
0 0
0 0
0 0
0 0
0 0
0 0
0 0
0 0
0 0
0 0
0 0
0 0
0 0
0 0
0 0
0 0
0 0
0 0
0 0
0 0
0 0
0 0
0 0
0 0
0 0
0 0
0 0
0 0
0 0
0 0
0 0
0 0
0 0
0 0
0 0
0 0
0 0
0 0
0 0
0 0
0 0
0 0
0 0
0 0
0 0
0 0
0 0
0 0
0 0
0 0
0 0
0 0
0 0
0 0
0 0
0 0
0 0
0 0
0 0
0 0
0 0
0 0
0 0
0 0
0 0
0 0
0 0
0 0
0 0
0 0
0 0
0 0
0 0
0 0
0 0
0 0
0 0
0 0
0 0
0 0
0 0
0 0
0 0
0 0
0 0
0 0
0 0
0 0
0 0
0 0
0 0
0 0
0 0
0 0
0 0
0 0
0 0
0 0
0 0
0 0
0 0
0 0
0 0
0 0
0 0
0 0
0 0
0 0
0 0
0 0
0 0
0 0
0 0
0 0
0 0
0 0
0 0
0 0
0 0
0 0
0 0
0 0
0 0
0 0
0 0
0 0
0 0
0 0
0 0
0 0
0 0
0 0
0 0
0 0
0 0
0 0
0 0
0 0
0 0
0 0
0 0
0 0
0 0
0 0
0 0
0 0
0 0
0 0
0 0
0 0
0 0
0 0
0 0
0 0
0 0
0 0
0 0
0 0
0 0
0 0
0 0
0 0
0 0
0 0
0 0
0 0
0 0
0 0
0 0
0 0
0 0
0 0
0 0
0 0
0 0
0 0
0 0
0 0
0 0
0 0
0 0
0 0
0 0
0 0
0 0
0 0
0 0
0 0
0 0
0 0
0 0
0 0
0 0
0 0
0 0
0 0
0 0
0 0
0 0
0 0
0 0
0 0
0 0
0 0
0 0
0 0
0 0
0 0
0 0
0 0
0 0
0 0
0 0
0 0
0 0
0 0
0 0
0 0
0 0
0 0
0 0
0 0
0 0
0 0
0 0
0 0
0 0
0 0
0 0
0 0
0 0
0 0
0 0
0 0
0 0
0 0
0 0
0 0
0 0
0 0
0 0
0 0
0 0
0 0
0 0
0 0
0 0
0 0
0 0
0 0
0 0
0 0
0 0
0 0
0 0
0 0
0 0
0 0
0 0
0 0
0 0
0 0
0 0
0 0
0 0
0 0
0 0
0 0
0 0
0 0
0 0
0 0
0 0
0 0
0 0
0 0
0 0
0 0
0 0
0 0
0 0
0 0
0 0
0 0
0 0
0 0
0 0
0 0
0 0
0 0
0 0
0 0
0 0
0 0
0 0
0 0
0 0
0 0
0 0
0 0
0 0
0 0
0 0
0 0
0 0
0 0
0 0
0 0
0 0
0 0
0 0
0 0
0 0
0 0
0 0
0 0
0 0
0 0
0 0
0 0
0 0
0 0
0 0
0 0
0 0
0 0
0 0
0 0
0 0
0 0
0 0
0 0
0 0
0 0
0 0
0 0
0 0
0 0
0 0
0 0
0 0
0 0
0 0
0 0
0 0
0 0
0 0
0 0
0 0
0 0
0 0
0 0
0 0
0 0
0 0
0 0
0 0
0 0
0 0
0 0
0 0
0 0
0 0
0 0
0 0
0 0
0 0
0 0
0 0
0 0
0 0
0 0
0 0
0 0
0 0
0 0
0 0
0 0
0 0
0 0
0 0
0 0
0 0
0 0
0 0
0 0
0 0
0 0
0 0
0 0
0 0
0 0
0 0
0 0
0 0
0 0
0 0
0 0
0 0
0 0
0 0
0 0
0 0
0 0
0 0
0 0
0 0
0 0
0 0
0 0
0 0
0 0
0 0
0 0
0 0
0 0
0 0
0 0
0 0
0 0
0 0
0 0
0 0
0 0
0 0
0 0
0 0
0 0
0 0
0 0
0 0
0 0
0 0
0 0
0 0
0 0
0 0
0 0
0 0
0 0
0 0
0 0
0 0
0 0
0 0
0 0
0 0
0 0
0 0
0 0
0 0
0 0
0 0
0 0
0 0
0 0
0 0
0 0
0 0
0 0
0 0
0 0
0 0
0 0
0 0
0 0
0 0
0 0
0 0
0 0
0 0
0 0
0 0
0 0
0 0
0 0
0 0
0 0
0 0
0 0
0 0
0 0
0 0
0 0
0 0
0 0
0 0
0 0
0 0
0 0
0 0
0 0
0 0
0 0
0 0
0 0
0 0
0 0
0 0
0 0
0 0
0 0
0 0
0 0
0 0
0 0
0 0
0 0
0 0
0 0
0 0
0 0
0 0
0 0
0 0
0 0
0 0
0 0
0 0
0 0
0 0
0 0
0 0
0 0
0 0
0 0
0 0
0 0
0 0
0 0
0 0
0 0
0 0
0 0
0 0
0 0
0 0
0 0
0 0
0 0
0 0
0 0
0 0
0 0
0 0
0 0
0 0
0 0
0 0
0 0
0 0
0 0
0 0
0 0
0 0
0 0
0 0
0 0
0 0
0 0
0 0
0 0
0 0
0 0
0 0
0 0
0 0
0 0
0 0
0 0
0 0
0 0
0 0
0 0
0 0
0 0
0 0
0 0
0 0
0 0
0 0
0 0
0 0
0 0
0 0
0 0
0 0
0 0
0 0
0 0
0 0
0 0
0 0
0 0
0 0
0 0
0 0
0 0
0 0
0 0
0 0
0 0
0 0
0 0
0 0
0 0
0 0
0 0
0 0
0 0
0 0
0 0
0 0
0 0
0 0
0 0
0 0
0 0
0 0
0 0
0 0
0 0
0 0
0 0
0 0
0 0
0 0
0 0
0 0
0 0
0 0
0 0
0 0
0 0
0 0
0 0
0 0
0 0
0 0
0 0
0 0
0 0
0 0
0 0
0 0
0 0
0 0
0 0
0 0
0 0
0 0
0 0
0 0
0 0
0 0
0 0
0 0
0 0
0 0
0 0
0 0
0 0
0 0
0 0
0 0
0 0
0 0
0 0
0 0
0 0
0 0
0 0
0 0
0 0
0 0
0 0
0 0
0 0
0 0
0 0
0 0
0 0
0 0
0 0
0 0
0 0
0 0
0 0
0 0
0 0
0 0
0 0
0 0
0 0
0 0
0 0
0 0
0 0
0 0
0 0
0 0
0 0
0 0
0 0
0 0
0 0
0 0
0 0
0 0
0 0
0 0
0 0
0 0
0 0
0 0
0 0
0 0
0 0
0 0
0 0
0 0
0 0
0 0
0 0
0 0
0 0
0 0
0 0
0 0
0 0
0 0
0 0
0 0
0 0
0 0
0 0
0 0
0 0
0 0
0 0
0 0
0 0
0 0
0 0
0 0
0 0
0 0
0 0
0 0
0 0
0 0
0 0
0 0
0 0
0 0
0 0
0 0
0 0
0 0
0 0
0 0
0 0
0 0
0 0
0 0
0 0
0 0
0 0
0 0
0 0
0 0
0 0
0 0
0 0
0 0
0 0
0 0
0 0
0 0
0 0
0 0
0 0
0 0
0 0
0 0
0 0
0 0
0 0
0 0
0 0
0 0
0 0
0 0
0 0
0 0
0 0
0 0
0 0
0 0
0 0
0 0
0 0
0 0
0 0
0 0
0 0
0 0
0 0
0 0
0 0
0 0
0 0
0 0
0 0
0 0
0 0
0 0
0 0
0 0
0 0
0 0
0 0
0 0
0 0
0 0
0 0
0 0
0 0
0 0
0 0
0 0
0 0
0 0
0 0
0 0
0 0
0 0
0 0
0 0
0 0
0 0
0 0
0 0
0 0
0 0
0 0
0 0
0 0
0 0
0 0
0 0
0 0
0 0
0 0
0 0
0 0
0 0
0 0
0 0
0 0
0 0
0 0
0 0
0 0
0 0
0 0
0 0
0 0
0 0
0 0
0 0
0 0
0 0
0 0
0 0
0 0
0 0
0 0
0 0
0 0
0 0
0 0
0 0
0 0
0 0
0 0
0 0
0 0
0 0
0 0
0 0
0 0
0 0
0 0
0 0
0 0
0 0
0 0
0 0
0 0
0 0
0 0
0 0
0 0
0 0
0 0
0 0
0 0
0 0
0 0
0 0
0 0
0 0
0 0
0 0
0 0
0 0
0 0
0 0
0 0
0 0
0 0
0 0
0 0
0 0
0 0
0 0
0 0
0 0
0 0
0 0
0 0
0 0
0 0
0 0
0 0
0 0
0 0
0 0
0 0
0 0
0 0
0 0
0 0
0 0
0 0
0 0
0 0
0 0
0 0
0 0
0 0
0 0
0 0
0 0
0 0
0 0
0 0
0 0
0 0
0 0
0 0
0 0
0 0
0 0
0 0
0 0
0 0
0 0
0 0
0 0
0 0
0 0
0 0
0 0
0 0
0 0
0 0
0 0
0 0
0 0
0 0
0 0
0 0
0 0
0 0
0 0
0 0
0 0
0 0
0 0
0 0
0 0
0 0
0 0
0 0
0 0
0 0
0 0
0 0
0 0
0 0
0 0
0 0
0 0
0 0
0 0
0 0
0 0
0 0
0 0
0 0
0 0
0 0
0 0
0 0
0 0
0 0
0 0
0 0
0 0
0 0
0 0
0 0
0 0
0 0
0 0
0 0
0 0
0 0
0 0
0 0
0 0
0 0
0 0
0 0
0 0
0 0
0 0
0 0
0 0
0 0
0 0
0 0
0 0
0 0
0 0
0 0
0 0
0 0
0 0
0 0
0 0
0 0
0 0
0 0
0 0
0 0
0 0
0 0
0 0
0 0
0 0
0 0
0 0
0 0
0 0
0 0
0 0
0 0
0 0
0 0
0 0
0 0
0 0
0 0
0 0
0 0
0 0
0 0
0 0
0 0
0 0
0 0
0 0
0 0
0 0
0 0
0 0
0 0
0 0
0 0
0 0
0 0
0 0
0 0
0 0
0 0
0 0
0 0
0 0
0 0
0 0
0 0
0 0
0 0
0 0
0 0
0 0
0 0
0 0
0 0
0 0
0 0
0 0
0 0
0 0
0 0
0 0
0 0
0 0
0 0
0 0
0 0
0 0
0 0
0 0
0 0
0 0
0 0
0 0
0 0
0 0
0 0
0 0
0 0
0 0
0 0
0 0
0 0
0 0
0 0
0 0
0 0
0 0
0 0
0 0
0 0
0 0
0 0
0 0
0 0
0 0
0 0
0 0
0 0
0 0
0 0
0 0
0 0
0 0
0 0
0 0
0 0
0 0
0 0
0 0
0 0
0 0
0 0
0 0
0 0
0 0
0 0
0 0
0 0
0 0
0 0
0 0
0 0
0 0
0 0
0 0
0 0
0 0
0 0
0 0
0 0
0 0
0 0
0 0
0 0
0 0
0 0
0 0
0 0
0 0
0 0
0 0
0 0
0 0
0 0
0 0
0 0
0 0
0 0
0 0
0 0
0 0
0 0
0 0
0 0
0 0
0 0
0 0
0 0
0 0
0 0
0 0
0 0
0 0
0 0
0 0
0 0
0 0
0 0
0 0
0 0
0 0
0 0
0 0
0 0
0 0
0 0
0 0
0 0
0 0
0 0
0 0
0 0
0 0
0 0
0 0
0 0
0 0
0 0
0 0
0 0
0 0
0 0
0 0
0 0
0 0
0 0
0 0
0 0
0 0
0 0
0 0
0 0
0 0
0 0
0 0
0 0
0 0
0 0
0 0
0 0
0 0
0 0
0 0
0 0
0 0
0 0
0 0
0 0
0 0
0 0
0 0
0 0
0 0
0 0
0 0
0 0
0 0
0 0
0 0
0 0
0 0
0 0
0 0
0 0
0 0
0 0
0 0
0 0
0 0
0 0
0 0
0 0
0 0
0 0
0 0
0 0
0 0
0 0
0 0
0 0
0 0
0 0
0 0
0 0
0 0
0 0
0 0
0 0
0 0
0 0
0 0
0 0
0 0
0 0
0 0
0 0
0 0
0 0
0 0
0 0
0 0
0 0
0 0
0 0
0 0
0 0
0 0
0 0
0 0
0 0
0 0
0 0
0 0
0 0
0 0
0 0
0 0
0 0
0 0
0 0
0 0
0 0
0 0
0 0
0 0
0 0
0 0
0 0
0 0
0 0
0 0
0 0
0 0
0 0
0 0
0 0
0 0
0 0
0 0
0 0
0 0
0 0
0 0
0 0
0 0
0 0
0 0
0 0
0 0
0 0
0 0
0 0
0 0
0 0
0 0
0 0
0 0
0 0
0 0
0 0
0 0
0 0
0 0
0 0
0 0
0 0
0 0
0 0
0 0
0 0
0 0
0 0
0 0
0 0
0 0
0 0
0 0
0 0
0 0
0 0
0 0
0 0
0 0
0 0
0 0
0 0
0 0
0 0
0 0
0 0
0 0
0 0
0 0
0 0
0 0
0 0
0 0
0 0
0 0
0 0
0 0
0 0
0 0
0 0
0 0
0 0
0 0
0 0
0 0
0 0
0 0
0 0
0 0
0 0
0 0
0 0
0 0
0 0
0 0
0 0
0 0
0 0
0 0
0 0
0 0
0 0
0 0
0 0
0 0
0 0
0 0
0 0
0 0
0 0
0 0
0 0
0 0
0 0
0 0
0 0
0 0
0 0
0 0
0 0
0 0
0 0
0 0
0 0
0 0
0 0
0 0
0 0
0 0
0 0
0 0
0 0
0 0
0 0
0 0
0 0
0 0
0 0
0 0
0 0
0 0
0 0
0 0
0 0
0 0
0 0
0 0
0 0
0 0
0 0
0 0
0 0
0 0
0 0
0 0
0 0
0 0
0 0
0 0
0 0
0 0
0 0
0 0
0 0
0 0
0 0
0 0
0 0
0 0
0 0
0 0
0 0
0 0
0 0
0 0
0 0
0 0
0 0
0 0
0 0
0 0
0 0
0 0
0 0
0 0
0 0
0 0
0 0
0 0
0 0
0 0
0 0
0 0
0 0
0 0
0 0
0 0
0 0
0 0
0 0
0 0
0 0
0 0
0 0
0 0
0 0
0 0
0 0
0 0
0 0
0 0
0 0
0 0
0 0
0 0
0 0
0 0
0 0
0 0
0 0
0 0
0 0
0 0
0 0
0 0
0 0
0 0
0 0
0 0
0 0
0 0
0 0
0 0
0 0
0 0
0 0
0 0
0 0
0 0
0 0
0 0
0 0
0 0
0 0
0 0
0 0
0 0
0 0
0 0
0 0
0 0
0 0
0 0
0 0
0 0
0 0
0 0
0 0
0 0
0 0
0 0
0 0
0 0
0 0
0 0
0 0
0 0
0 0
0 0
0 0
0 0
0 0
0 0
0 0
0 0
0 0
0 0
0 0
0 0
0 0
0 0
0 0
0 0
0 0
0 0
0 0
0 0
0 0
0 0
0 0
0 0
0 0
0 0
0 0
0 0
0 0
0 0
0 0
0 0
0 0
0 0
0 0
0 0
0 0
0 0
0 0
0 0
0 0
0 0
0 0
0 0
0 0
0 0
0 0
0 0
0 0
0 0
0 0
0 0
0 0
0 0
0 0
0 0
0 0
0 0
0 0
0 0
0 0
0 0
0 0
0 0
0 0
0 0
0 0
0 0
0 0
0 0
0 0
0 0
0 0
0 0
0 0
0 0
0 0
0 0
0 0
0 0
0 0
0 0
0 0
0 0
0 0
0 0
0 0
0 0
0 0
0 0
0 0
0 0
0 0
0 0
0 0
0 0
0 0
0 0
0 0
0 0
0 0
0 0
0 0
0 0
0 0
0 0
0 0
0 0
0 0
0 0
0 0
0 0
0 0
0 0
0 0
0 0
0 0
0 0
0 0
0 0
0 0
0 0
0 0
0 0
0 0
0 0
0 0
0 0
0 0
0 0
0 0
0 0
0 0
0 0
0 0
0 0
0 0
0 0
0 0
0 0
0 0
0 0
0 0
0 0
0 0
0 0
0 0
0 0
0 0
0 0
0 0
0 0
0 0
0 0
0 0
0 0
0 0
0 0
0 0
0 0
0 0
0 0
0 0
0 0
0 0
0 0
0 0
0 0
0 0
0 0
0 0
0 0
0 0
0 0
0 0
0 0
0 0
0 0
0 0
0 0
0 0
0 0
0 0
0 0
0 0
0 0
0 0
0 0
0 0
0 0
0 0
0 0
0 0
0 0
0 0
0 0
0 0
0 0
0 0
0 0
0 0
0 0
0 0
0 0
0 0
0 0
0 0
0 0
0 0
0 0
0 0
0 0
0 0
0 0
0 0
0 0
0 0
0 0
0 0
0 0
0 0
0 0
0 0
0 0
0 0
0 0
0 0
0 0
0 0
0 0
0 0
0 0
0 0
0 0
0 0
0 0
0 0
0 0
0 0
0 0
0 0
0 0
0 0
0 0
0 0
0 0
0 0
0 0
0 0
0 0
0 0
0 0
0 0
0 0
0 0
0 0
0 0
0 0
0 0
0 0
0 0
0 0
0 0
0 0
0 0
0 0
0 0
0 0
0 0
0 0
0 0
0 0
0 0
0 0
0 0
0 0
0 0
0 0
0 0
0 0
0 0
0 0
0 0
0 0
0 0
0 0
0 0
0 0
0 0
0 0
0 0
0 0
0 0
0 0
0 0
0 0
0 0
0 0
0 0
0 0
0 0
0 0
0 0
0 0
0 0
0 0
0 0
0 0
0 0
0 0
0 0
0 0
0 0
0 0
0 0
0 0
0 0
0 0
0 0
0 0
0 0
0 0
0 0
0 0
0 0
0 0
0 0
0 0
0 0
0 0
0 0
0 0
0 0
0 0
0 0
0 0
0 0
0 0
0 0
0 0
0 0
0 0
0 0
0 0
0 0
0 0
0 0
0 0
0 0
0 0
0 0
0 0
0 0
0 0
0 0
0 0
0 0
0 0
0 0
0 0
0 0
0 0
0 0
0 0
0 0
0 0
0 0
0 0
0 0
0 0
0 0
0 0
0 0
0 0
0 0
0 0
0 0
0 0
0 0
0 0
0 0
0 0
0 0
0 0
0 0
0 0
0 0
0 0
0 0
0 0
0 0
0 0
0 0
0 0
0 0
0 0
0 0
0 0
0 0
0 0
0 0
0 0
0 0
0 0
0 0
0 0
0 0
0 0
0 0
0 0
0 0
0 0
0 0
0 0
0 0
0 0
0 0
0 0
0 0
0 0
0 0
0 0
0 0
0 0
0 0
0 0
0 0
0 0
0 0
0 0
0 0
0 0
0 0
0 0
0 0
0 0
0 0
0 0
0 0
0 0
0 0
0 0
0 0
0 0
0 0
0 0
0 0
0 0
0 0
0 0
0 0
0 0
0 0
0 0
0 0
0 0
0 0
0 0
0 0
0 0
0 0
0 0
0 0
0 0
0 0
0 0
0 0
0 0
0 0
0 0
0 0
0 0
0 0
0 0
0 0
0 0
0 0
0 0
0 0
0 0
0 0
0 0
0 0
0 0
0 0
0 0
0 0
0 0
0 0
0 0
0 0
0 0
0 0
0 0
0 0
0 0
0 0
0 0
0 0
0 0
0 0
0 0
0 0
0 0
0 0
0 0
0 0
0 0
0 0
0 0
0 0
0 0
0 0
0 0
0 0
0 0
0 0
0 0
0 0
0 0
0 0
0 0
0 0
0 0
0 0
0 0
0 0
0 0
0 0
0 0
0 0
0 0
0 0
0 0
0 0
0 0
0 0
0 0
0 0
0 0
0 0
0 0
0 0
0 0
0 0
0 0
0 0
0 0
0 0
0 0
0 0
0 0
0 0
0 0
0 0
0 0
0 0
0 0
0 0
0 0
0 0
0 0
0 0
0 0
0 0
0 0
0 0
0 0
0 0
0 0
0 0
0 0
0 0
0 0
0 0
0 0
0 0
0 0
0 0
0 0
0 0
0 0
0 0
0 0
0 0
0 0
0 0
0 0
0 0
0 0
0 0
0 0
0 0
0 0
0 0
0 0
0 0
0 0
0 0
0 0
0 0
0 0
0 0
0 0
0 0
0 0
0 0
0 0
0 0
0 0
0 0
0 0
0 0
0 0
0 0
0 0
0 0
0 0
0 0
0 0
0 0
0 0
0 0
0 0
0 0
0 0
0 0
0 0
0 0
0 0
0 0
0 0
0 0
0 0
0 0
0 0
0 0
0 0
0 0
0 0
0 0
0 0
0 0
0 0
0 0
0 0
0 0
0 0
0 0
0 0
0 0
0 0
0 0
0 0
0 0
0 0
0 0
0 0
0 0
0 0
0 0
0 0
0 0
0 0
0 0
0 0
0 0
0 0
0 0
0 0
0 0
0 0
0 0
0 0
0 0
0 0
0 0
0 0
0 0
0 0
0 0
0 0
0 0
0 0
0 0
0 0
0 0
0 0
0 0
0 0
0 0
0 0
0 0
0 0
0 0
0 0
0 0
0 0
0 0
0 0
0 0
0 0
0 0
0 0
0 0
0 0
0 0
0 0
0 0
0 0
0 0
0 0
0 0
0 0
0 0
0 0
0 0
0 0
0 0
0 0
0 0
0 0
0 0
0 0
0 0
0 0
0 0
0 0
0 0
0 0
0 0
0 0
0 0
0 0
0 0
0 0
0 0
0 0
0 0
0 0
0 0
0 0
0 0
0 0
0 0
0 0
0 0
0 0
0 0
0 0
0 0
0 0
0 0
0 0
0 0
0 0
0 0
0 0
0 0
0 0
0 0
0 0
0 0
0 0
0 0
0 0
0 0
0 0
0 0
0 0
0 0
0 0
0 0
0 0
0 0
0 0
0 0
0 0
0 0
0 0
0 0
0 0
0 0
0 0
0 0
0 0
0 0
0 0
0 0
0 0
0 0
0 0
0 0
0 0
0 0
0 0
0 0
0 0
0 0
0 0
0 0
0 0
0 0
0 0
0 0
0 0
0 0
0 0
0 0
0 0
0 0
0 0
0 0
0 0
0 0
0 0
0 0
0 0
0 0
0 0
0 0
0 0
0 0
0 0
0 0
0 0
0 0
0 0
0 0
0 0
0 0
0 0
0 0
0 0
0 0
0 0
0 0
0 0
0 0
0 0
0 0
0 0
0 0
0 0
0 0
0 0
0 0
0 0
0 0
0 0
0 0
0 0
0 0
0 0
0 0
0 0
0 0
0 0
0 0
0 0
0 0
0 0
0 0
0 0
0 0
0 0
0 0
0 0
0 0
0 0
0 0
0 0
0 0
0 0
0 0
0 0
0 0
0 0
0 0
0 0
0 0
0 0
0 0
0 0
0 0
0 0
0 0
0 0
0 0
0 0
0 0
0 0
0 0
0 0
0 0
0 0
0 0
0 0
0 0
0 0
0 0
0 0
0 0
0 0
0 0
0 0
0 0
0 0
0 0
0 0
0 0
0 0
0 0
0 0
0 0
0 0
0 0
0 0
0 0
0 0
0 0
0 0
0 0
0 0
0 0
0 0
0 0
0 0
0 0
0 0
0 0
0 0
0 0
0 0
0 0
0 0
0 0
0 0
0 0
0 0
0 0
0 0
0 0
0 0
0 0
0 0
0 0
0 0
0 0
0 0
0 0
0 0
0 0
0 0
0 0
0 0
0 0
0 0
0 0
0 0
0 0
0 0
0 0
0 0
0 0
0 0
0 0
0 0
0 0
0 0
0 0
0 0
0 0
0 0
0 0
0 0
0 0
0 0
0 0
0 0
0 0
0 0
0 0
0 0
0 0
0 0
0 0
0 0
0 0
0 0
0 0
0 0
0 0
0 0
0 0
0 0
0 0
0 0
0 0
0 0
0 0
0 0
0 0
0 0
0 0
0 0
0 0
0 0
0 0
0 0
0 0
0 0
0 0
0 0
0 0
0 0
0 0
0 0
0 0
0 0
0 0
0 0
0 0
0 0
0 0
0 0
0 0
0 0
0 0
0 0
0 0
0 0
0 0
0 0
0 0
0 0
0 0
0 0
0 0
0 0
0 0
0 0
0 0
0 0
0 0
0 0
0 0
0 0
0 0
0 0
0 0
0 0
0 0
0 0
0 0
0 0
0 0
0 0
0 0
0 0
0 0
0 0
0 0
0 0
0 0
0 0
0 0
0 0
0 0
0 0
0 0
0 0
0 0
0 0
0 0
0 0
0 0
0 0
0 0
0 0
0 0
0 0
0 0
0 0
0 0
0 0
0 0
0 0
0 0
0 0
0 0
0 0
0 0
0 0
0 0
0 0
0 0
0 0
0 0
0 0
0 0
0 0
0 0
0 0
0 0
0 0
0 0
0 0
0 0
0 0
0 0
0 0
0 0
0 0
0 0
0 0
0 0
0 0
0 0
0 0
0 0
0 0
0 0
0 0
0 0
0 0
0 0
0 0
0 0
0 0
0 0
0 0
0 0
0 0
0 0
0 0
0 0
0 0
0 0
0 0
0 0
0 0
0 0
0 0
0 0
0 0
0 0
0 0
0 0
0 0
0 0
0 0
0 0
0 0
0 0
0 0
0 0
0 0
0 0
0 0
0 0
0 0
0 0
0 0
0 0
0 0
0 0
0 0
0 0
0 0
0 0
0 0
0 0
0 0
0 0
0 0
0 0
0 0
0 0
0 0
0 0
0 0
0 0
0 0
0 0
0 0
0 0
0 0
0 0
0 0
0 0
0 0
0 0
0 0
0 0
0 0
0 0
0 0
0 0
0 0
0 0
0 0
0 0
0 0
0 0
0 0
0 0
0 0
0 0
0 0
0 0
0 0
0 0
0 0
0 0
0 0
0 0
0 0
0 0
0 0
0 0
0 0
0 0
0 0
0 0
0 0
0 0
0 0
0 0
0 0
0 0
0 0
0 0
0 0
0 0
0 0
0 0
0 0
0 0
0 0
0 0
0 0
0 0
0 0
0 0
0 0
0 0
0 0
0 0
0 0
0 0
0 0
0 0
0 0
0 0
0 0
0 0
0 0
0 0
0 0
0 0
0 0
0 0
0 0
0 0
0 0
0 0
0 0
0 0
0 0
0 0
0 0
0 0
0 0
0 0
0 0
0 0
0 0
0 0
0 0
0 0
0 0
0 0
0 0
0 0
0 0
0 0
0 0
0 0
0 0
0 0
0 0
0 0
0 0
0 0
0 0
0 0
0 0
0 0
0 0
0 0
0 0
0 0
0 0
0 0
0 0
0 0
0 0
0 0
0 0
0 0
0 0
0 0
0 0
0 0
0 0
0 0
0 0
0 0
0 0
0 0
0 0
0 0
0 0
0 0
0 0
0 0
0 0
0 0
0 0
0 0
0 0
0 0
0 0
0 0
0 0
0 0
0 0
0 0
0 0
0 0
0 0
0 0
0 0
0 0
0 0
0 0
0 0
0 0
0 0
0 0
0 0
0 0
0 0
0 0
0 0
0 0
0 0
0 0
0 0
0 0
0 0
0 0
0 0
0 0
0 0
0 0
0 0
0 0
0 0
0 0
0 0
0 0
0 0
0 0
0 0
0 0
0 0
0 0
0 0
0 0
0 0
0 0
0 0
0 0
0 0
0 0
0 0
0 0
0 0
0 0
0 0
0 0
0 0
0 0
0 0
0 0
0 0
0 0
0 0
0 0
0 0
0 0
0 0
0 0
0 0
0 0
0 0
0 0
0 0
0 0
0 0
0 0
0 0
0 0
0 0
0 0
0 0
0 0
0 0
0 0
0 0
0 0
0 0
0 0
0 0
0 0
0 0
0 0
0 0
0 0
0 0
0 0
0 0
0 0
0 0
0 0
0 0
0 0
0 0
0 0
0 0
0 0
0 0
0 0
0 0
0 0
0 0
0 0
0 0
0 0
0 0
0 0
0 0
0 0
0 0
0 0
0 0
0 0
0 0
0 0
0 0
0 0
0 0
0 0
0 0
0 0
0 0
0 0
0 0
0 0
0 0
0 0
0 0
0 0
0 0
0 0
0 0
0 0
0 0
0 0
0 0
0 0
0 0
0 0
0 0
0 0
0 0
0 0
0 0
0 0
0 0
0 0
0 0
0 0
0 0
0 0
0 0
0 0
0 0
0 0
0 0
0 0
0 0
0 0
0 0
0 0
0 0
0 0
0 0
0 0
0 0
0 0
0 0
0 0
0 0
0 0
0 0
0 0
0 0
0 0
0 0
0 0
0 0
0 0
0 0
0 0
0 0
0 0
0 0
0 0
0 0
0 0
0 0
0 0
0 0
0 0
0 0
0 0
0 0
0 0
0 0
0 0
0 0
0 0
0 0
0 0
0 0
0 0
0 0
0 0
0 0
0 0
0 0
0 0
0 0
0 0
0 0
0 0
0 0
0 0
0 0
0 0
0 0
0 0
0 0
0 0
0 0
0 0
0 0
0 0
0 0
0 0
0 0
0 0
0 0
0 0
0 0
0 0
0 0
0 0
0 0
0 0
0 0
0 0
0 0
0 0
0 0
0 0
0 0
0 0
0 0
0 0
0 0
0 0
0 0
0 0
0 0
0 0
0 0
0 0
0 0
0 0
0 0
0 0
0 0
0 0
0 0
0 0
0 0
0 0
0 0
0 0
0 0
0 0
0 0
0 0
0 0
0 0
0 0
0 0
0 0
0 0
0 0
0 0
0 0
0 0
0 0
0 0
0 0
0 0
0 0
0 0
0 0
0 0
0 0
0 0
0 0
0 0
0 0
0 0
0 0
0 0
0 0
0 0
0 0
0 0
0 0
0 0
0 0
0 0
0 0
0 0
0 0
0 0
0 0
0 0
0 0
0 0
0 0
0 0
0 0
0 0
0 0
0 0
0 0
0 0
0 0
0 0
0 0
0 0
0 0
0 0
0 0
0 0
0 0
0 0
0 0
0 0
0 0
0 0
0 0
0 0
0 0
0 0
0 0
0 0
0 0
0 0
0 0
0 0
0 0
0 0
0 0
0 0
0 0
0 0
0 0
0 0
0 0
0 0
0 0
0 0
0 0
0 0
0 0
0 0
0 0
0 0
0 0
0 0
0 0
0 0
0 0
0 0
0 0
0 0
0 0
0 0
0 0
0 0
0 0
0 0
0 0
0 0
0 0
0 0
0 0
0 0
0 0
0 0
0 0
0 0
0 0
0 0
0 0
0 0
0 0
0 0
0 0
0 0
0 0
0 0
0 0
0 0
0 0
0 0
0 0
0 0
0 0
0 0
0 0
0 0
0 0
0 0
0 0
0 0
0 0
0 0
0 0
0 0
0 0
0 0
0 0
0 0
0 0
0 0
0 0
0 0
0 0
0 0
0 0
0 0
0 0
0 0
0 0
0 0
0 0
0 0
0 0
0 0
0 0
0 0
0 0
0 0
0 0
0 0
0 0
0 0
0 0
0 0
0 0
0 0
0 0
0 0
0 0
0 0
0 0
0 0
0 0
0 0
0 0
0 0
0 0
0 0
0 0
0 0
0 0
0 0
0 0
0 0
0 0
0 0
0 0
0 0
0 0
0 0
0 0
0 0
0 0
0 0
0 0
0 0
0 0
0 0
0 0
0 0
0 0
0 0
0 0
0 0
0 0
0 0
0 0
0 0
0 0
0 0
0 0
0 0
0 0
0 0
0 0
0 0
0 0
0 0
0 0
0 0
0 0
0 0
0 0
0 0
0 0
0 0
0 0
0 0
0 0
0 0
0 0
0 0
0 0
0 0
0 0
0 0
0 0
0 0
0 0
0 0
0 0
0 0
0 0
0 0
0 0
0 0
0 0
0 0
0 0
0 0
0 0
0 0
0 0
0 0
0 0
0 0
0 0
0 0
0 0
0 0
0 0
0 0
0 0
0 0
0 0
0 0
0 0
0 0
0 0
0 0
0 0
0 0
0 0
0 0
0 0
0 0
0 0
0 0
0 0
0 0
0 0
0 0
0 0
0 0
0 0
0 0
0 0
0 0
0 0
0 0
0 0
0 0
0 0
0 0
0 0
0 0
0 0
0 0
0 0
0 0
0 0
0 0
0 0
0 0
0 0
0 0
0 0
0 0
0 0
0 0
0 0
0 0
0 0
0 0
0 0
0 0
0 0
0 0
0 0
0 0
0 0
0 0
0 0
0 0
0 0
0 0
0 0
0 0
0 0
0 0
0 0
0 0
0 0
0 0
0 0
0 0
0 0
0 0
0 0
0 0
0 0
0 0
0 0
0 0
0 0
0 0
0 0
0 0
0 0
0 0
0 0
0 0
0 0
0 0
0 0
0 0
0 0
0 0
0 0
0 0
0 0
0 0
0 0
0 0
0 0
0 0
0 0
0 0
0 0
0 0
0 0
0 0
0 0
0 0
0 0
0 0
0 0
0 0
0 0
0 0
0 0
0 0
0 0
0 0
0 0
0 0
0 0
0 0
0 0
0 0
0 0
0 0
0 0
0 0
0 0
0 0
0 0
0 0
0 0
0 0
0 0
0 0
0 0
0 0
0 0
0 0
0 0
0 0
0 0
0 0
0 0
0 0
0 0
0 0
0 0
0 0
0 0
0 0
0 0
0 0
0 0
0 0
0 0
0 0
0 0
0 0
0 0
0 0
0 0
0 0
0 0
0 0
0 0
0 0
0 0
0 0
0 0
0 0
0 0
0 0
0 0
0 0
0 0
0 0
0 0
0 0
0 0
0 0
0 0
0 0
0 0
0 0
0 0
0 0
0 0
0 0
0 0
0 0
0 0
0 0
0 0
0 0
0 0
0 0
0 0
0 0
0 0
0 0
0 0
0 0
0 0
0 0
0 0
0 0
0 0
0 0
0 0
0 0
0 0
0 0
0 0
0 0
0 0
0 0
0 0
0 0
0 0
0 0
0 0
0 0
0 0
0 0
0 0
0 0
0 0
0 0
0 0
0 0
0 0
0 0
0 0
0 0
0 0
0 0
0 0
0 0
0 0
0 0
0 0
0 0
0 0
0 0
0 0
0 0
0 0
0 0
0 0
0 0
0 0
0 0
0 0
0 0
0 0
0 0
0 0
0 0
0 0
0 0
0 0
0 0
0 0
0 0
0 0
0 0
0 0
0 0
0 0
0 0
0 0
0 0
0 0
0 0
0 0
0 0
0 0
0 0
0 0
0 0
0 0
0 0
0 0
0 0
0 0
0 0
0 0
0 0
0 0
0 0
0 0
0 0
0 0
0 0
0 0
0 0
0 0
0 0
0 0
0 0
0 0
0 0
0 0
0 0
0 0
0 0
0 0
0 0
0 0
0 0
0 0
0 0
0 0
0 0
0 0
0 0
0 0
0 0
0 0
0 0
0 0
0 0
0 0
0 0
0 0
0 0
0 0
0 0
0 0
0 0
0 0
0 0
0 0
0 0
0 0
0 0
0 0
0 0
0 0
0 0
0 0
0 0
0 0
0 0
0 0
0 0
0 0
0 0
0 0
0 0
0 0
0 0
0 0
0 0
0 0
0 0
0 0
0 0
0 0
0 0
0 0
0 0
0 0
0 0
0 0
0 0
0 0
0 0
0 0
0 0
0 0
0 0
0 0
0 0
0 0
0 0
0 0
0 0
0 0
0 0
0 0
0 0
0 0
0 0
0 0
0 0
0 0
0 0
0 0
0 0
0 0
0 0
0 0
0 0
0 0
0 0
0 0
0 0
0 0
0 0
0 0
0 0
0 0
0 0
0 0
0 0
0 0
0 0
0 0
0 0
0 0
0 0
0 0
0 0
0 0
0 0
0 0
0 0
0 0
0 0
0 0
0 0
0 0
0 0
0 0
0 0
0 0
0 0
0 0
0 0
0 0
0 0
0 0
0 0
0 0
0 0
0 0
0 0
0 0
0 0
0 0
0 0
0 0
0 0
0 0
0 0
0 0
0 0
0 0
0 0
0 0
0 0
0 0
0 0
0 0
0 0
0 0
0 0
0 0
0 0
0 0
0 0
0 0
0 0
0 0
0 0
0 0
0 0
0 0
0 0
0 0
0 0
0 0
0 0
0 0
0 0
0 0
0 0
0 0
0 0
0 0
0 0
0 0
0 0
0 0
0 0
0 0
0 0
0 0
0 0
0 0
0 0
0 0
0 0
0 0
0 0
0 0
0 0
0 0
0 0
0 0
0 0
0 0
0 0
0 0
0 0
0 0
0 0
0 0
0 0
0 0
0 0
0 0
0 0
0 0
0 0
0 0
0 0
0 0
0 0
0 0
0 0
0 0
0 0
0 0
0 0
0 0
0 0
0 0
0 0
0 0
0 0
0 0
0 0
0 0
0 0
0 0
0 0
0 0
0 0
0 0
0 0
0 0
0 0
0 0
0 0
0 0
0 0
0 0
0 0
0 0
0 0
0 0
0 0
0 0
0 0
0 0
0 0
0 0
0 0
0 0
0 0
0 0
0 0
0 0
0 0
0 0
0 0
0 0
0 0
0 0
0 0
0 0
0 0
0 0
0 0
0 0
0 0
0 0
0 0
0 0
0 0
0 0
0 0
0 0
0 0
0 0
0 0
0 0
0 0
0 0
0 0
0 0
0 0
0 0
0 0
0 0
0 0
0 0
0 0
0 0
0 0
0 0
0 0
0 0
0 0
0 0
0 0
0 0
0 0
0 0
0 0
0 0
0 0
0 0
0 0
0 0
0 0
0 0
0 0
0 0
0 0
0 0
0 0
0 0
0 0
0 0
0 0
0 0
0 0
0 0
0 0
0 0
0 0
0 0
0 0
0 0
0 0
0 0
0 0
0 0
0 0
0 0
0 0
0 0
0 0
0 0
0 0
0 0
0 0
0 0
0 0
0 0
0 0
0 0
0 0
0 0
0 0
0 0
0 0
0 0
0 0
0 0
0 0
0 0
0 0
0 0
0 0
0 0
0 0
0 0
0 0
0 0
0 0
0 0
0 0
0 0
0 0
0 0
0 0
0 0
0 0
0 0
0 0
0 0
0 0
0 0
0 0
0 0
0 0
0 0
0 0
0 0
0 0
0 0
0 0
0 0
0 0
0 0
0 0
0 0
0 0
0 0
0 0
0 0
0 0
0 0
0 0
0 0
0 0
0 0
0 0
0 0
0 0
0 0
0 0
0 0
0 0
0 0
0 0
0 0
0 0
0 0
0 0
0 0
0 0
0 0
0 0
0 0
0 0
0 0
0 0
0 0
0 0
0 0
0 0
0 0
0 0
0 0
0 0
0 0
0 0
0 0
0 0
0 0
0 0
0 0
0 0
0 0
0 0
0 0
0 0
0 0
0 0
0 0
0 0
0 0
0 0
0 0
0 0
0 0
0 0
0 0
0 0
0 0
0 0
0 0
0 0
0 0
0 0
0 0
0 0
0 0
0 0
0 0
0 0
0 0
0 0
0 0
0 0
0 0
0 0
0 0
0 0
0 0
0 0
0 0
0 0
0 0
0 0
0 0
0 0
0 0
0 0
0 0
0 0
0 0
0 0
0 0
0 0
0 0
0 0
0 0
0 0
0 0
0 0
0 0
0 0
0 0
0 0
0 0
0 0
0 0
0 0
0 0
0 0
0 0
0 0
0 0
0 0
0 0
0 0
0 0
0 0
0 0
0 0
0 0
0 0
0 0
0 0
0 0
0 0
0 0
0 0
0 0
0 0
0 0
0 0
0 0
0 0
0 0
0 0
0 0
0 0
0 0
0 0
0 0
0 0
0 0
0 0
0 0
0 0
0 0
0 0
0 0
0 0
0 0
0 0
0 0
0 0
0 0
0 0
0 0
0 0
0 0
0 0
0 0
0 0
0 0
0 0
0 0
0 0
0 0
0 0
0 0
0 0
0 0
0 0
0 0
0 0
0 0
0 0
0 0
0 0
0 0
0 0
0 0
0 0
0 0
0 0
0 0
0 0
0 0
0 0
0 0
0 0
0 0
0 0
0 0
0 0
0 0
0 0
0 0
0 0
0 0
0 0
0 0
0 0
0 0
0 0
0 0
0 0
0 0
0 0
0 0
0 0
0 0
0 0
0 0
0 0
0 0
0 0
0 0
0 0
0 0
0 0
0 0
0 0
0 0
0 0
0 0
0 0
0 0
0 0
0 0
0 0
0 0
0 0
0 0
0 0
0 0
0 0
0 0
0 0
0 0
0 0
0 0
0 0
0 0
0 0
0 0
0 0
0 0
0 0
0 0
0 0
0 0
0 0
0 0
0 0
0 0
0 0
0 0
0 0
0 0
0 0
0 0
0 0
0 0
0 0
0 0
0 0
0 0
0 0
0 0
0 0
0 0
0 0
0 0
0 0
0 0
0 0
0 0
0 0
0 0
0 0
0 0
0 0
0 0
0 0
0 0
0 0
0 0
0 0
0 0
0 0
0 0
0 0
0 0
0 0
0 0
0 0
0 0
0 0
0 0
0 0
0 0
0 0
0 0
0 0
0 0
0 0
0 0
0 0
0 0
0 0
0 0
0 0
0 0
0 0
0 0
0 0
0 0
0 0
0 0
0 0
0 0
0 0
0 0
0 0
0 0
0 0
0 0
0 0
0 0
0 0
0 0
0 0
0 0
0 0
0 0
0 0
0 0
0 0
0 0
0 0
0 0
0 0
0 0
0 0
0 0
0 0
0 0
0 0
0 0
0 0
0 0
0 0
0 0
0 0
0 0
0 0
0 0
0 0
0 0
0 0
0 0
0 0
0 0
0 0
0 0
0 0
0 0
0 0
0 0
0 0
0 0
0 0
0 0
0 0
0 0
0 0
0 0
0 0
0 0
0 0
0 0
0 0
0 0
0 0
0 0
0 0
0 0
0 0
0 0
0 0
0 0
0 0
0 0
0 0
0 0
0 0
0 0
0 0
0 0
0 0
0 0
0 0
0 0
0 0
0 0
0 0
0 0
0 0
0 0
0 0
0 0
0 0
0 0
0 0
0 0
0 0
0 0
0 0
0 0
0 0
0 0
0 0
0 0
0 0
0 0
0 0
0 0
0 0
0 0
0 0
0 0
0 0
0 0
0 0
0 0
0 0
0 0
0 0
0 0
0 0
0 0
0 0
0 0
0 0
0 0
0 0
0 0
0 0
0 0
0 0
0 0
0 0
0 0
0 0
0 0
0 0
0 0
0 0
0 0
0 0
0 0
0 0
0 0
0 0
0 0
0 0
0 0
0 0
0 0
0 0
0 0
0 0
0 0
0 0
0 0
0 0
0 0
0 0
0 0
0 0
0 0
0 0
0 0
0 0
0 0
0 0
0 0
0 0
0 0
0 0
0 0
0 0
0 0
0 0
0 0
0 0
0 0
0 0
0 0
0 0
0 0
0 0
0 0
0 0
0 0
0 0
0 0
0 0
0 0
0 0
0 0
0 0
0 0
0 0
0 0
0 0
0 0
0 0
0 0
0 0
0 0
0 0
0 0
0 0
0 0
0 0
0 0
0 0
0 0
0 0
0 0
0 0
0 0
0 0
0 0
0 0
0 0
0 0
0 0
0 0
0 0
0 0
0 0
0 0
0 0
0 0
0 0
0 0
0 0
0 0
0 0
0 0
0 0
0 0
0 0
0 0
0 0
0 0
0 0
0 0
0 0
0 0
0 0
0 0
0 0
0 0
0 0
0 0
0 0
0 0
0 0
0 0
0 0
0 0
0 0
0 0
0 0
0 0
0 0
0 0
0 0
0 0
0 0
0 0
0 0
0 0
0 0
0 0
0 0
0 0
0 0
0 0
0 0
0 0
0 0
0 0
0 0
0 0
0 0
0 0
0 0
0 0
0 0
0 0
0 0
0 0
0 0
0 0
0 0
0 0
0 0
0 0
0 0
0 0
0 0
0 0
0 0
0 0
0 0
0 0
0 0
0 0
0 0
0 0
0 0
0 0
0 0
0 0
0 0
0 0
0 0
0 0
0 0
0 0
0 0
0 0
0 0
0 0
0 0
0 0
0 0
0 0
0 0
0 0
0 0
0 0
0 0
0 0
0 0
0 0
0 0
0 0
0 0
0 0
0 0
0 0
0 0
0 0
0 0
0 0
0 0
0 0
0 0
0 0
0 0
0 0
0 0
0 0
0 0
0 0
0 0
0 0
0 0
0 0
0 0
0 0
0 0
0 0
0 0
0 0
0 0
0 0
0 0
0 0
0 0
0 0
0 0
0 0
0 0
0 0
0 0
0 0
0 0
0 0
0 0
0 0
0 0
0 0
0 0
0 0
0 0
0 0
0 0
0 0
0 0
0 0
0 0
0 0
0 0
0 0
0 0
0 0
0 0
0 0
0 0
0 0
0 0
0 0
0 0
0 0
0 0
0 0
0 0
0 0
0 0
0 0
0 0
0 0
0 0
0 0
0 0
0 0
0 0
0 0
0 0
0 0
0 0
0 0
0 0
0 0
0 0
0 0
0 0
0 0
0 0
0 0
0 0
0 0
0 0
0 0
0 0
0 0
0 0
0 0
0 0
0 0
0 0
0 0
0 0
0 0
0 0
0 0
0 0
0 0
0 0
0 0
0 0
0 0
0 0
0 0
0 0
0 0
0 0
0 0
0 0
0 0
0 0
0 0
0 0
0 0
0 0
0 0
0 0
0 0
0 0
0 0
0 0
0 0
0 0
0 0
0 0
0 0
0 0
0 0
0 0
0 0
0 0
0 0
0 0
0 0
0 0
0 0
0 0
0 0
0 0
0 0
0 0
0 0
0 0
0 0
0 0
0 0
0 0
0 0
0 0
0 0
0 0
0 0
0 0
0 0
0 0
0 0
0 0
0 0
0 0
0 0
0 0
0 0
0 0
0 0
0 0
0 0
0 0
0 0
0 0
0 0
0 0
0 0
0 0
0 0
0 0
0 0
0 0
0 0
0 0
0 0
0 0
0 0
0 0
0 0
0 0
0 0
0 0
0 0
0 0
0 0
0 0
0 0
0 0
0 0
0 0
0 0
0 0
0 0
0 0
0 0
0 0
0 0
0 0
0 0
0 0
0 0
0 0
0 0
0 0
0 0
0 0
0 0
0 0
0 0
0 0
0 0
0 0
0 0
0 0
0 0
0 0
0 0
0 0
0 0
0 0
0 0
0 0
0 0
0 0
0 0
0 0
0 0
0 0
0 0
0 0
0 0
0 0
0 0
0 0
0 0
0 0
0 0
0 0
0 0
0 0
0 0
0 0
0 0
0 0
0 0
0 0
0 0
0 0
0 0
0 0
0 0
0 0
0 0
0 0
0 0
0 0
0 0
0 0
0 0
0 0
0 0
0 0
0 0
0 0
0 0
0 0
0 0
0 0
0 0
0 0
0 0
0 0
0 0
0 0
0 0
0 0
0 0
0 0
0 0
0 0
0 0
0 0
0 0
0 0
0 0
0 0
0 0
0 0
0 0
0 0
0 0
0 0
0 0
0 0
0 0
0 0
0 0
0 0
0 0
0 0
0 0
0 0
0 0
0 0
0 0
0 0
0 0
0 0
0 0
0 0
0 0
0 0
0 0
0 0
0 0
0 0
0 0
0 0
0 0
0 0
0 0
0 0
0 0
0 0
0 0
0 0
0 0
0 0
0 0
0 0
0 0
0 0
0 0
0 0
0 0
0 0
0 0
0 0
0 0
0 0
0 0
0 0
0 0
0 0
0 0
0 0
0 0
0 0
0 0
0 0
0 0
0 0
0 0
0 0
0 0
0 0
0 0
0 0
0 0
0 0
0 0
0 0
0 0
0 0
0 0
0 0
0 0
0 0
0 0
0 0
0 0
0 0
0 0
0 0
0 0
0 0
0 0
0 0
0 0
0 0
0 0
0 0
0 0
0 0
0 0
0 0
0 0
0 0
0 0
0 0
0 0
0 0
0 0
0 0
0 0
0 0
0 0
0 0
0 0
0 0
0 0
0 0
0 0
0 0
0 0
0 0
0 0
0 0
0 0
0 0
0 0
0 0
0 0
0 0
0 0
0 0
0 0
0 0
0 0
0 0
0 0
0 0
0 0
0 0
0 0
0 0
0 0
0 0
0 0
0 0
0 0
0 0
0 0
0 0
0 0
0 0
0 0
0 0
0 0
0 0
0 0
0 0
0 0
0 0
0 0
0 0
0 0
0 0
0 0
0 0
0 0
0 0
0 0
0 0
0 0
0 0
0 0
0 0
0 0
0 0
0 0
0 0
0 0
0 0
0 0
0 0
0 0
0 0
0 0
0 0
0 0
0 0
0 0
0 0
0 0
0 0
0 0
0 0
0 0
0 0
0 0
0 0
0 0
0 0
0 0
0 0
0 0
0 0
0 0
0 0
0 0
0 0
0 0
0 0
0 0
0 0
0 0
0 0
0 0
0 0
0 0
0 0
0 0
0 0
0 0
0 0
0 0
0 0
0 0
0 0
0 0
0 0
0 0
0 0
0 0
0 0
0 0
0 0
0 0
0 0
0 0
0 0
0 0
0 0
0 0
0 0
0 0
0 0
0 0
0 0
0 0
0 0
0 0
0 0
0 0
0 0
0 0
0 0
0 0
0 0
0 0
0 0
0 0
0 0
0 0
0 0
0 0
0 0
0 0
0 0
0 0
0 0
0 0
0 0
0 0
0 0
0 0
0 0
0 0
0 0
0 0
0 0
0 0
0 0
0 0
0 0
0 0
0 0
0 0
0 0
0 0
0 0
0 0
0 0
0 0
0 0
0 0
0 0
0 0
0 0
0 0
0 0
0 0
0 0
0 0
0 0
0 0
0 0
0 0
0 0
0 0
0 0
0 0
0 0
0 0
0 0
0 0
0 0
0 0
0 0
0 0
0 0
0 0
0 0
0 0
0 0
0 0
0 0
0 0
0 0
0 0
0 0
0 0
0 0
0 0
0 0
0 0
0 0
0 0
0 0
0 0
0 0
0 0
0 0
0 0
0 0
0 0
0 0
0 0
0 0
0 0
0 0
0 0
0 0
0 0
0 0
0 0
0 0
0 0
0 0
0 0
0 0
0 0
0 0
0 0
0 0
0 0
0 0
0 0
0 0
0 0
0 0
0 0
0 0
0 0
0 0
0 0
0 0
0 0
0 0
0 0
0 0
0 0
0 0
0 0
0 0
0 0
0 0
0 0
0 0
0 0
0 0
0 0
0 0
0 0
0 0
0 0
0 0
0 0
0 0
0 0
0 0
0 0
0 0
0 0
0 0
0 0
0 0
0 0
0 0
0 0
0 0
0 0
0 0
0 0
0 0
0 0
0 0
0 0
0 0
0 0
0 0
0 0
0 0
0 0
0 0
0 0
0 0
0 0
0 0
0 0
0 0
0 0
0 0
0 0
0 0
0 0
0 0
0 0
0 0
0 0
0 0
0 0
0 0
0 0
0 0
0 0
0 0
0 0
0 0
0 0
0 0
0 0
0 0
0 0
0 0
0 0
0 0
0 0
0 0
0 0
0 0
0 0
0 0
0 0
0 0
0 0
0 0
0 0
0 0
0 0
0 0
0 0
0 0
0 0
0 0
0 0
0 0
0 0
0 0
0 0
0 0
0 0
0 0
0 0
0 0
0 0
0 0
0 0
0 0
0 0
0 0
0 0
0 0
0 0
0 0
0 0
0 0
0 0
0 0
0 0
0 0
0 0
0 0
0 0
0 0
0 0
0 0
0 0
0 0
0 0
0 0
0 0
0 0
0 0
0 0
0 0
0 0
0 0
0 0
0 0
0 0
0 0
0 0
0 0
0 0
0 0
0 0
0 0
0 0
0 0
0 0
0 0
0 0
0 0
0 0
0 0
0 0
0 0
0 0
0 0
0 0
0 0
0 0
0 0
0 0
0 0
0 0
0 0
0 0
0 0
0 0
0 0
0 0
0 0
0 0
0 0
0 0
0 0
0 0
0 0
0 0
0 0
0 0
0 0
0 0
0 0
0 0
0 0
0 0
0 0
0 0
0 0
0 0
0 0
0 0
0 0
0 0
0 0
0 0
0 0
0 0
0 0
0 0
0 0
0 0
0 0
0 0
0 0
0 0
0 0
0 0
0 0
0 0
0 0
0 0
0 0
0 0
0 0
0 0
0 0
0 0
0 0
0 0
0 0
0 0
0 0
0 0
0 0
0 0
0 0
0 0
0 0
0 0
0 0
0 0
0 0
0 0
0 0
0 0
0 0
0 0
0 0
0 0
0 0
0 0
0 0
0 0
0 0
0 0
0 0
0 0
0 0
0 0
0 0
0 0
0 0
0 0
0 0
0 0
0 0
0 0
0 0
0 0
0 0
0 0
0 0
0 0
0 0
0 0
0 0
0 0
0 0
0 0
0 0
0 0
0 0
0 0
0 0
0 0
0 0
0 0
0 0
0 0
0 0
0 0
0 0
0 0
0 0
0 0
0 0
0 0
0 0
0 0
0 0
0 0
0 0
0 0
0 0
0 0
0 0
0 0
0 0
0 0
0 0
0 0
0 0
0 0
0 0
0 0
0 0
0 0
0 0
0 0
0 0
0 0
0 0
0 0
0 0
0 0
0 0
0 0
0 0
0 0
0 0
0 0
0 0
0 0
0 0
0 0
0 0
0 0
0 0
0 0
0 0
0 0
0 0
0 0
0 0
0 0
0 0
0 0
0 0
0 0
0 0
0 0
0 0
0 0
0 0
0 0
0 0
0 0
0 0
0 0
0 0
0 0
0 0
0 0
0 0
0 0
0 0
0 0
0 0
0 0
0 0
0 0
0 0
0 0
0 0
0 0
0 0
0 0
0 0
0 0
0 0
0 0
0 0
0 0
0 0
0 0
0 0
0 0
0 0
0 0
0 0
0 0
0 0
0 0
0 0
0 0
0 0
0 0
0 0
0 0
0 0
0 0
0 0
0 0
0 0
0 0
0 0
0 0
0 0
0 0
0 0
0 0
0 0
0 0
0 0
0 0
0 0
0 0
0 0
0 0
0 0
0 0
0 0
0 0
0 0
0 0
0 0
0 0
0 0
0 0
0 0
0 0
0 0
0 0
0 0
0 0
0 0
0 0
0 0
0 0
0 0
0 0
0 0
0 0
0 0
0 0
0 0
0 0
0 0
0 0
0 0
0 0
0 0
0 0
0 0
0 0
0 0
0 0
0 0
0 0
0 0
0 0
0 0
0 0
0 0
0 0
0 0
0 0
0 0
0 0
0 0
0 0
0 0
0 0
0 0
0 0
0 0
0 0
0 0
0 0
0 0
0 0
0 0
0 0
0 0
0 0
0 0
0 0
0 0
0 0
0 0
0 0
0 0
0 0
0 0
0 0
0 0
0 0
0 0
0 0
0 0
0 0
0 0
0 0
0 0
0 0
0 0
0 0
0 0
0 0
0 0
0 0
0 0
0 0
0 0
0 0
0 0
0 0
0 0
0 0
0 0
0 0
0 0
0 0
0 0
0 0
0 0
0 0
0 0
0 0
0 0
0 0
0 0
0 0
0 0
0 0
0 0
0 0
0 0
0 0
0 0
0 0
0 0
0 0
0 0
0 0
0 0
0 0
0 0
0 0
0 0
0 0
0 0
0 0
0 0
0 0
0 0
0 0
0 0
0 0
0 0
0 0
0 0
0 0
0 0
0 0
0 0
0 0
0 0
0 0
0 0
0 0
0 0
0 0
0 0
0 0
0 0
0 0
0 0
0 0
0 0
0 0
0 0
0 0
0 0
0 0
0 0
0 0
0 0
0 0
0 0
0 0
0 0
0 0
0 0
0 0
0 0
0 0
0 0
0 0
0 0
0 0
0 0
0 0
0 0
0 0
0 0
0 0
0 0
0 0
0 0
0 0
0 0
0 0
0 0
0 0
0 0
0 0
0 0
0 0
0 0
0 0
0 0
0 0
0 0
0 0
0 0
0 0
0 0
0 0
0 0
0 0
0 0
0 0
0 0
0 0
0 0
0 0
0 0
0 0
0 0
0 0
0 0
0 0
0 0
0 0
0 0
0 0
0 0
0 0
0 0
0 0
0 0
0 0
0 0
0 0
0 0
0 0
0 0
0 0
0 0
0 0
0 0
0 0
0 0
0 0
0 0
0 0
0 0
0 0
0 0
0 0
0 0
0 0
0 0
0 0
0 0
0 0
0 0
0 0
0 0
0 0
0 0
0 0
0 0
0 0
0 0
0 0
0 0
0 0
0 0
0 0
0 0
0 0
0 0
0 0
0 0
0 0
0 0
0 0
0 0
0 0
0 0
0 0
0 0
0 0
0 0
0 0
0 0
0 0
0 0
0 0
0 0
0 0
0 0
0 0
0 0
0 0
0 0
0 0
0 0
0 0
0 0
0 0
0 0
0 0
0 0
0 0
0 0
0 0
0 0
0 0
0 0
0 0
0 0
0 0
0 0
0 0
0 0
0 0
0 0
0 0
0 0
0 0
0 0
0 0
0 0
0 0
0 0
0 0
0 0
0 0
0 0
0 0
0 0
0 0
0 0
0 0
0 0
0 0
0 0
0 0
0 0
0 0
0 0
0 0
0 0
0 0
0 0
0 0
0 0
0 0
0 0
0 0
0 0
0 0
0 0
0 0
0 0
0 0
0 0
0 0
0 0
0 0
0 0
0 0
0 0
0 0
0 0
0 0
0 0
0 0
0 0
0 0
0 0
0 0
0 0
0 0
0 0
0 0
0 0
0 0
0 0
0 0
0 0
0 0
0 0
0 0
0 0
0 0
0 0
0 0
0 0
0 0
0 0
0 0
0 0
0 0
0 0
0 0
0 0
0 0
0 0
0 0
0 0
0 0
0 0
0 0
0 0
0 0
0 0
0 0
0 0
0 0
0 0
0 0
0 0
0 0
0 0
0 0
0 0
0 0
0 0
0 0
0 0
0 0
0 0
0 0
0 0
0 0
0 0
0 0
0 0
0 0
0 0
0 0
0 0
0 0
0 0
0 0
0 0
0 0
0 0
0 0
0 0
0 0
0 0
0 0
0 0
0 0
0 0
0 0
0 0
0 0
0 0
0 0
0 0
0 0
0 0
0 0
0 0
0 0
0 0
0 0
0 0
0 0
0 0
0 0
0 0
0 0
0 0
0 0
0 0
0 0
0 0
0 0
0 0
0 0
0 0
0 0
0 0
0 0
0 0
0 0
0 0
0 0
0 0
0 0
0 0
0 0
0 0
0 0
0 0
0 0
0 0
0 0
0 0
0 0
0 0
0 0
0 0
0 0
0 0
0 0
0 0
0 0
0 0
0 0
0 0
0 0
0 0
0 0
0 0
0 0
0 0
0 0
0 0
0 0
0 0
0 0
0 0
0 0
0 0
0 0
0 0
0 0
0 0
0 0
0 0
0 0
0 0
0 0
0 0
0 0
0 0
0 0
0 0
0 0
0 0
0 0
0 0
0 0
0 0
0 0
0 0
0 0
0 0
0 0
0 0
0 0
0 0
0 0
0 0
0 0
0 0
0 0
0 0
0 0
0 0
0 0
0 0
0 0
0 0
0 0
0 0
0 0
0 0
0 0
0 0
0 0
0 0
0 0
0 0
0 0
0 0
0 0
0 0
0 0
0 0
0 0
0 0
0 0
0 0
0 0
0 0
0 0
0 0
0 0
0 0
0 0
0 0
0 0
0 0
0 0
0 0
0 0
0 0
0 0
0 0
0 0
0 0
0 0
0 0
0 0
0 0
0 0
0 0
0 0
0 0
0 0
0 0
0 0
0 0
0 0
0 0
0 0
0 0
0 0
0 0
0 0
0 0
0 0
0 0
0 0
0 0
0 0
0 0
0 0
0 0
0 0
0 0
0 0
0 0
0 0
0 0
0 0
0 0
0 0
0 0
0 0
0 0
0 0
0 0
0 0
0 0
0 0
0 0
0 0
0 0
0 0
0 0
0 0
0 0
0 0
0 0
0 0
0 0
0 0
0 0
0 0
0 0
0 0
0 0
0 0
0 0
0 0
0 0
0 0
0 0
0 0
0 0
0 0
0 0
0 0
0 0
0 0
0 0
0 0
0 0
0 0
0 0
0 0
0 0
0 0
0 0
0 0
0 0
0 0
0 0
0 0
0 0
0 0
0 0
0 0
0 0
0 0
0 0
0 0
0 0
0 0
0 0
0 0
0 0
0 0
0 0
0 0
0 0
0 0
0 0
0 0
0 0
0 0
0 0
0 0
0 0
0 0
0 0
0 0
0 0
0 0
0 0
0 0
0 0
0 0
0 0
0 0
0 0
0 0
0 0
0 0
0 0
0 0
0 0
0 0
0 0
0 0
0 0
0 0
0 0
0 0
0 0
0 0
0 0
0 0
0 0
0 0
0 0
0 0
0 0
0 0
0 0
0 0
0 0
0 0
0 0
0 0
0 0
0 0
0 0
0 0
0 0
0 0
0 0
0 0
0 0
0 0
0 0
0 0
0 0
0 0
0 0
0 0
0 0
0 0
0 0
0 0
0 0
0 0
0 0
0 0
0 0
0 0
0 0
0 0
0 0
0 0
0 0
0 0
0 0
0 0
0 0
0 0
0 0
0 0
0 0
0 0
0 0
0 0
0 0
0 0
0 0
0 0
0 0
0 0
0 0
0 0
0 0
0 0
0 0
0 0
0 0
0 0
0 0
0 0
0 0
0 0
0 0
0 0
0 0
0 0
0 0
0 0
0 0
0 0
0 0
0 0
0 0
0 0
0 0
0 0
0 0
0 0
0 0
0 0
0 0
0 0
0 0
0 0
0 0
0 0
0 0
0 0
0 0
0 0
0 0
0 0
0 0
0 0
0 0
0 0
0 0
0 0
0 0
0 0
0 0
0 0
0 0
0 0
0 0
0 0
0 0
0 0
0 0
0 0
0 0
0 0
0 0
0 0
0 0
0 0
0 0
0 0
0 0
0 0
0 0
0 0
0 0
0 0
0 0
0 0
0 0
0 0
0 0
0 0
0 0
0 0
0 0
0 0
0 0
0 0
0 0
0 0
0 0
0 0
0 0
0 0
0 0
0 0
0 0
0 0
0 0
0 0
0 0
0 0
0 0
0 0
0 0
0 0
0 0
0 0
0 0
0 0
0 0
0 0
0 0
0 0
0 0
0 0
0 0
0 0
0 0
0 0
0 0
0 0
0 0
0 0
0 0
0 0
0 0
0 0
0 0
0 0
0 0
0 0
0 0
0 0
0 0
0 0
0 0
0 0
0 0
0 0
0 0
0 0
0 0
0 0
0 0
0 0
0 0
0 0
0 0
0 0
0 0
0 0
0 0
0 0
0 0
0 0
0 0
0 0
0 0
0 0
0 0
0 0
0 0
0 0
0 0
0 0
0 0
0 0
0 0
0 0
0 0
0 0
0 0
0 0
0 0
0 0
0 0
0 0
0 0
0 0
0 0
0 0
0 0
0 0
0 0
0 0
0 0
0 0
0 0
0 0
0 0
0 0
0 0
0 0
0 0
0 0
0 0
0 0
0 0
0 0
0 0
0 0
0 0
0 0
0 0
0 0
0 0
0 0
0 0
0 0
0 0
0 0
0 0
0 0
0 0
0 0
0 0
0 0
0 0
0 0
0 0
0 0
0 0
0 0
0 0
0 0
0 0
0 0
0 0
0 0
0 0
0 0
0 0
0 0
0 0
0 0
0 0
0 0
0 0
0 0
0 0
0 0
0 0
0 0
0 0
0 0
0 0
0 0
0 0
0 0
0 0
0 0
0 0
0 0
0 0
0 0
0 0
0 0
0 0
0 0
0 0
0 0
0 0
0 0
0 0
0 0
0 0
0 0
0 0
0 0
0 0
0 0
0 0
0 0
0 0
0 0
0 0
0 0
0 0
0 0
0 0
0 0
0 0
0 0
0 0
0 0
0 0
0 0
0 0
0 0
0 0
0 0
0 0
0 0
0 0
0 0
0 0
0 0
0 0
0 0
0 0
0 0
0 0
0 0
0 0
0 0
0 0
0 0
0 0
0 0
0 0
0 0
0 0
0 0
0 0
0 0
0 0
0 0
0 0
0 0
0 0
0 0
0 0
0 0
0 0
0 0
0 0
0 0
0 0
0 0
0 0
0 0
0 0
0 0
0 0
0 0
0 0
0 0
0 0
0 0
0 0
0 0
0 0
0 0
0 0
0 0
0 0
0 0
0 0
0 0
0 0
0 0
0 0
0 0
0 0
0 0
0 0
0 0
0 0
0 0
0 0
0 0
0 0
0 0
0 0
0 0
0 0
0 0
0 0
0 0
0 0
0 0
0 0
0 0
0 0
0 0
0 0
0 0
0 0
0 0
0 0
0 0
0 0
0 0
0 0
0 0
0 0
0 0
0 0
0 0
0 0
0 0
0 0
0 0
0 0
0 0
0 0
0 0
0 0
0 0
0 0
0 0
0 0
0 0
0 0
0 0
0 0
0 0
0 0
0 0
0 0
0 0
0 0
0 0
0 0
0 0
0 0
0 0
0 0
0 0
0 0
0 0
0 0
0 0
0 0
0 0
0 0
0 0
0 0
0 0
0 0
0 0
0 0
0 0
0 0
0 0
0 0
0 0
0 0
0 0
0 0
0 0
0 0
0 0
0 0
0 0
0 0
0 0
0 0
0 0
0 0
0 0
0 0
0 0
0 0
0 0
0 0
0 0
0 0
0 0
0 0
0 0
0 0
0 0
0 0
0 0
0 0
0 0
0 0
0 0
0 0
0 0
0 0
0 0
0 0
0 0
0 0
0 0
0 0
0 0
0 0
0 0
0 0
0 0
0 0
0 0
0 0
0 0
0 0
0 0
0 0
0 0
0 0
0 0
0 0
0 0
0 0
0 0
0 0
0 0
0 0
0 0
0 0
0 0
0 0
0 0
0 0
0 0
0 0
0 0
0 0
0 0
0 0
0 0
0 0
0 0
0 0
0 0
0 0
0 0
0 0
0 0
0 0
0 0
0 0
0 0
0 0
0 0
0 0
0 0
0 0
0 0
0 0
0 0
0 0
0 0
0 0
0 0
0 0
0 0
0 0
0 0
0 0
0 0
0 0
0 0
0 0
0 0
0 0
0 0
0 0
0 0
0 0
0 0
0 0
0 0
0 0
0 0
0 0
0 0
0 0
0 0
0 0
0 0
0 0
0 0
0 0
0 0
0 0
0 0
0 0
0 0
0 0
0 0
0 0
0 0
0 0
0 0
0 0
0 0
0 0
0 0
0 0
0 0
0 0
0 0
0 0
0 0
0 0
0 0
0 0
0 0
0 0
0 0
0 0
0 0
0 0
0 0
0 0
0 0
0 0
0 0
0 0
0 0
0 0
0 0
0 0
0 0
0 0
0 0
0 0
0 0
0 0
0 0
0 0
0 0
0 0
0 0
0 0
0 0
0 0
0 0
0 0
0 0
0 0
0 0
0 0
0 0
0 0
0 0
0 0
0 0
0 0
0 0
0 0
0 0
0 0
0 0
0 0
0 0
0 0
0 0
0 0
0 0
0 0
0 0
0 0
0 0
0 0
0 0
0 0
0 0
0 0
0 0
0 0
0 0
0 0
0 0
0 0
0 0
0 0
0 0
0 0
0 0
0 0
0 0
0 0
0 0
0 0
0 0
0 0
0 0
0 0
0 0
0 0
0 0
0 0
0 0
0 0
0 0
0 0
0 0
0 0
0 0
0 0
0 0
0 0
0 0
0 0
0 0
0 0
0 0
0 0
0 0
0 0
0 0
0 0
0 0
0 0
0 0
0 0
0 0
0 0
0 0
0 0
0 0
0 0
0 0
0 0
0 0
0 0
0 0
0 0
0 0
0 0
0 0
0 0
0 0
0 0
0 0
0 0
0 0
0 0
0 0
0 0
0 0
0 0
0 0
0 0
0 0
0 0
0 0
0 0
0 0
0 0
0 0
0 0
0 0
0 0
0 0
0 0
0 0
0 0
0 0
0 0
0 0
0 0
0 0
0 0
0 0
0 0
0 0
0 0
0 0
0 0
0 0
0 0
0 0
0 0
0 0
0 0
0 0
0 0
0 0
0 0
0 0
0 0
0 0
0 0
0 0
0 0
0 0
0 0
0 0
0 0
0 0
0 0
0 0
0 0
0 0
0 0
0 0
0 0
0 0
0 0
0 0
0 0
0 0
0 0
0 0
0 0
0 0
0 0
0 0
0 0
0 0
0 0
0 0
0 0
0 0
0 0
0 0
0 0
0 0
0 0
0 0
0 0
0 0
0 0
0 0
0 0
0 0
0 0
0 0
0 0
0 0
0 0
0 0
0 0
0 0
0 0
0 0
0 0
0 0
0 0
0 0
0 0
0 0
0 0
0 0
0 0
0 0
0 0
0 0
0 0
0 0
0 0
0 0
0 0
0 0
0 0
0 0
0 0
0 0
0 0
0 0
0 0
0 0
0 0
0 0
0 0
0 0
0 0
0 0
0 0
0 0
0 0
0 0
0 0
0 0
0 0
0 0
0 0
0 0
0 0
0 0
0 0
0 0
0 0
0 0
0 0
0 0
0 0
0 0
0 0
0 0
0 0
0 0
0 0
0 0
0 0
0 0
0 0
0 0
0 0
0 0
0 0
0 0
0 0
0 0
0 0
0 0
0 0
0 0
0 0
0 0
0 0
0 0
0 0
0 0
0 0
0 0
0 0
0 0
0 0
0 0
0 0
0 0
0 0
0 0
0 0
0 0
0 0
0 0
0 0
0 0
0 0
0 0
0 0
0 0
0 0
0 0
0 0
0 0
0 0
0 0
0 0
0 0
0 0
0 0
0 0
0 0
0 0
0 0
0 0
0 0
0 0
0 0
0 0
0 0
0 0
0 0
0 0
0 0
0 0
0 0
0 0
0 0
0 0
0 0
0 0
0 0
0 0
0 0
0 0
0 0
0 0
0 0
0 0
0 0
0 0
0 0
0 0
0 0
0 0
0 0
0 0
0 0
0 0
0 0
0 0
0 0
0 0
0 0
0 0
0 0
0 0
0 0
0 0
0 0
0 0
0 0
0 0
0 0
0 0
0 0
0 0
0 0
0 0
0 0
0 0
0 0
0 0
0 0
0 0
0 0
0 0
0 0
0 0
0 0
0 0
0 0
0 0
0 0
0 0
0 0
0 0
0 0
0 0
0 0
0 0
0 0
0 0
0 0
0 0
0 0
0 0
0 0
0 0
0 0
0 0
0 0
0 0
0 0
0 0
0 0
0 0
0 0
0 0
0 0
0 0
0 0
0 0
0 0
0 0
0 0
0 0
0 0
0 0
0 0
0 0
0 0
0 0
0 0
0 0
0 0
0 0
0 0
0 0
0 0
0 0
0 0
0 0
0 0
0 0
0 0
0 0
0 0
0 0
0 0
0 0
0 0
0 0
0 0
0 0
0 0
0 0
0 0
0 0
0 0
0 0
0 0
0 0
0 0
0 0
0 0
0 0
0 0
0 0
0 0
0 0
0 0
0 0
0 0
0 0
0 0
0 0
0 0
0 0
0 0
0 0
0 0
0 0
0 0
0 0
0 0
0 0
0 0
0 0
0 0
0 0
0 0
0 0
0 0
0 0
0 0
0 0
0 0
0 0
0 0
0 0
0 0
0 0
0 0
0 0
0 0
0 0
0 0
0 0
0 0
0 0
0 0
0 0
0 0
0 0
0 0
0 0
0 0
0 0
0 0
0 0
0 0
0 0
0 0
0 0
0 0
0 0
0 0
0 0
0 0
0 0
0 0
0 0
0 0
0 0
0 0
0 0
0 0
0 0
0 0
0 0
0 0
0 0
0 0
0 0
0 0
0 0
0 0
0 0
0 0
0 0
0 0
0 0
0 0
0 0
0 0
0 0
0 0
0 0
0 0
0 0
0 0
0 0
0 0
0 0
0 0
0 0
0 0
0 0
0 0
0 0
0 0
0 0
0 0
0 0
0 0
0 0
0 0
0 0
0 0
0 0
0 0
0 0
0 0
0 0
0 0
0 0
0 0
0 0
0 0
0 0
0 0
0 0
0 0
0 0
0 0
0 0
0 0
0 0
0 0
0 0
0 0
0 0
0 0
0 0
0 0
0 0
0 0
0 0
0 0
0 0
0 0
0 0
0 0
0 0
0 0
0 0
0 0
0 0
0 0
0 0
0 0
0 0
0 0
0 0
0 0
0 0
0 0
0 0
0 0
0 0
0 0
0 0
0 0
0 0
0 0
0 0
0 0
0 0
0 0
0 0
0 0
0 0
0 0
0 0
0 0
0 0
0 0
0 0
0 0
0 0
0 0
0 0
0 0
0 0
0 0
0 0
0 0
0 0
0 0
0 0
0 0
0 0
0 0
0 0
0 0
0 0
0 0
0 0
0 0
0 0
0 0
0 0
0 0
0 0
0 0
0 0
0 0
0 0
0 0
0 0
0 0
0 0
0 0
0 0
0 0
0 0
0 0
0 0
0 0
0 0
0 0
0 0
0 0
0 0
0 0
0 0
0 0
0 0
0 0
0 0
0 0
0 0
0 0
0 0
0 0
0 0
0 0
0 0
0 0
0 0
0 0
0 0
0 0
0 0
0 0
0 0
0 0
0 0
0 0
0 0
0 0
0 0
0 0
0 0
0 0
0 0
0 0
0 0
0 0
0 0
0 0
0 0
0 0
0 0
0 0
0 0
0 0
0 0
0 0
0 0
0 0
0 0
0 0
0 0
0 0
0 0
0 0
0 0
0 0
0 0
0 0
0 0
0 0
0 0
0 0
0 0
0 0
0 0
0 0
0 0
0 0
0 0
0 0
0 0
0 0
0 0
0 0
0 0
0 0
0 0
0 0
0 0
0 0
0 0
0 0
0 0
0 0
0 0
0 0
0 0
0 0
0 0
0 0
0 0
0 0
0 0
0 0
0 0
0 0
0 0
0 0
0 0
0 0
0 0
0 0
0 0
0 0
0 0
0 0
0 0
0 0
0 0
0 0
0 0
0 0
0 0
0 0
0 0
0 0
0 0
0 0
0 0
0 0
0 0
0 0
0 0
0 0
0 0
0 0
0 0
0 0
0 0
0 0
0 0
0 0
0 0
0 0
0 0
0 0
0 0
0 0
0 0
0 0
0 0
0 0
0 0
0 0
0 0
0 0
0 0
0 0
0 0
0 0
0 0
0 0
0 0
0 0
0 0
0 0
0 0
0 0
0 0
0 0
0 0
0 0
0 0
0 0
0 0
0 0
0 0
0 0
0 0
0 0
0 0
0 0
0 0
0 0
0 0
0 0
0 0
0 0
0 0
0 0
0 0
0 0
0 0
0 0
0 0
0 0
0 0
0 0
0 0
0 0
0 0
0 0
0 0
0 0
0 0
0 0
0 0
0 0
0 0
0 0
0 0
0 0
0 0
0 0
0 0
0 0
0 0
0 0
0 0
0 0
0 0
0 0
0 0
0 0
0 0
0 0
0 0
0 0
0 0
0 0
0 0
0 0
0 0
0 0
0 0
0 0
0 0
0 0
0 0
0 0
0 0
0 0
0 0
0 0
0 0
0 0
0 0
0 0
0 0
0 0
0 0
0 0
0 0
0 0
0 0
0 0
0 0
0 0
0 0
0 0
0 0
0 0
0 0
0 0
0 0
0 0
0 0
0 0
0 0
0 0
0 0
0 0
0 0
0 0
0 0
0 0
0 0
0 0
0 0
0 0
0 0
0 0
0 0
0 0
0 0
0 0
0 0
0 0
0 0
0 0
0 0
0 0
0 0
0 0
0 0
0 0
0 0
0 0
0 0
0 0
0 0
0 0
0 0
0 0
0 0
0 0
0 0
0 0
0 0
0 0
0 0
0 0
0 0
0 0
0 0
0 0
0 0
0 0
0 0
0 0
0 0
0 0
0 0
0 0
0 0
0 0
0 0
0 0
0 0
0 0
0 0
0 0
0 0
0 0
0 0
0 0
0 0
0 0
0 0
0 0
0 0
0 0
0 0
0 0
0 0
0 0
0 0
0 0
0 0
0 0
0 0
0 0
0 0
0 0
0 0
0 0
0 0
0 0
0 0
0 0
0 0
0 0
0 0
0 0
0 0
0 0
0 0
0 0
0 0
0 0
0 0
0 0
0 0
0 0
0 0
0 0
0 0
0 0
0 0
0 0
0 0
0 0
0 0
0 0
0 0
0 0
0 0
0 0
0 0
0 0
0 0
0 0
0 0
0 0
0 0
0 0
0 0
0 0
0 0
0 0
0 0
0 0
0 0
0 0
0 0
0 0
0 0
0 0
0 0
0 0
0 0
0 0
0 0
0 0
0 0
0 0
0 0
0 0
0 0
0 0
0 0
0 0
0 0
0 0
0 0
0 0
0 0
0 0
0 0
0 0
0 0
0 0
0 0
0 0
0 0
0 0
0 0
0 0
0 0
0 0
0 0
0 0
0 0
0 0
0 0
0 0
0 0
0 0
0 0
0 0
0 0
0 0
0 0
0 0
0 0
0 0
0 0
0 0
0 0
0 0
0 0
0 0
0 0
0 0
0 0
0 0
0 0
0 0
0 0
0 0
0 0
0 0
0 0
0 0
0 0
0 0
0 0
0 0
0 0
0 0
0 0
0 0
0 0
0 0
0 0
0 0
0 0
0 0
0 0
0 0
0 0
0 0
0 0
0 0
0 0
0 0
0 0
0 0
0 0
0 0
0 0
0 0
0 0
0 0
0 0
0 0
0 0
0 0
0 0
0 0
0 0
0 0
0 0
0 0
0 0
0 0
0 0
0 0
0 0
0 0
0 0
0 0
0 0
0 0
0 0
0 0
0 0
0 0
0 0
0 0
0 0
0 0
0 0
0 0
0 0
0 0
0 0
0 0
0 0
0 0
0 0
0 0
0 0
0 0
0 0
0 0
0 0
0 0
0 0
0 0
0 0
0 0
0 0
0 0
0 0
0 0
0 0
0 0
0 0
0 0
0 0
0 0
0 0
0 0
0 0
0 0
0 0
0 0
0 0
0 0
0 0
0 0
0 0
0 0
0 0
0 0
0 0
0 0
0 0
0 0
0 0
0 0
0 0
0 0
0 0
0 0
0 0
0 0
0 0
0 0
0 0
0 0
0 0
0 0
0 0
0 0
0 0
0 0
0 0
0 0
0 0
0 0
0 0
0 0
0 0
0 0
0 0
0 0
0 0
0 0
0 0
0 0
0 0
0 0
0 0
0 0
0 0
0 0
0 0
0 0
0 0
0 0
0 0
0 0
0 0
0 0
0 0
0 0
0 0
0 0
0 0
0 0
0 0
0 0
0 0
0 0
0 0
0 0
0 0
0 0
0 0
0 0
0 0
0 0
0 0
0 0
0 0
0 0
0 0
0 0
0 0
0 0
0 0
0 0
0 0
0 0
0 0
0 0
0 0
0 0
0 0
0 0
0 0
0 0
0 0
0 0
0 0
0 0
0 0
0 0
0 0
0 0
0 0
0 0
0 0
0 0
0 0
0 0
0 0
0 0
0 0
0 0
0 0
0 0
0 0
0 0
0 0
0 0
0 0
0 0
0 0
0 0
0 0
0 0
0 0
0 0
0 0
0 0
0 0
0 0
0 0
0 0
0 0
0 0
0 0
0 0
0 0
0 0
0 0
0 0
0 0
0 0
0 0
0 0
0 0
0 0
0 0
0 0
0 0
0 0
0 0
0 0
0 0
0 0
0 0
0 0
0 0
0 0
0 0
0 0
0 0
0 0
0 0
0 0
0 0
0 0
0 0
0 0
0 0
0 0
0 0
0 0
0 0
0 0
0 0
0 0
0 0
0 0
0 0
0 0
0 0
0 0
0 0
0 0
0 0
0 0
0 0
0 0
0 0
0 0
0 0
0 0
0 0
0 0
0 0
0 0
0 0
0 0
0 0
0 0
0 0
0 0
0 0
0 0
0 0
0 0
0 0
0 0
0 0
0 0
0 0
0 0
0 0
0 0
0 0
0 0
0 0
0 0
0 0
0 0
0 0
0 0
0 0
0 0
0 0
0 0
0 0
0 0
0 0
0 0
0 0
0 0
0 0
0 0
0 0
0 0
0 0
0 0
0 0
0 0
0 0
0 0
0 0
0 0
0 0
0 0
0 0
0 0
0 0
0 0
0 0
0 0
0 0
0 0
0 0
0 0
0 0
0 0
0 0
0 0
0 0
0 0
0 0
0 0
0 0
0 0
0 0
0 0
0 0
0 0
0 0
0 0
0 0
0 0
0 0
0 0
0 0
0 0
0 0
0 0
0 0
0 0
0 0
0 0
0 0
0 0
0 0
0 0
0 0
0 0
0 0
0 0
0 0
0 0
0 0
0 0
0 0
0 0
0 0
0 0
0 0
0 0
0 0
0 0
0 0
0 0
0 0
0 0
0 0
0 0
0 0
0 0
0 0
0 0
0 0
0 0
0 0
0 0
0 0
0 0
0 0
0 0
0 0
0 0
0 0
0 0
0 0
0 0
0 0
0 0
0 0
0 0
0 0
0 0
0 0
0 0
0 0
0 0
0 0
0 0
0 0
0 0
0 0
0 0
0 0
0 0
0 0
0 0
0 0
0 0
0 0
0 0
0 0
0 0
0 0
0 0
0 0
0 0
0 0
0 0
0 0
0 0
0 0
0 0
0 0
0 0
0 0
0 0
0 0
0 0
0 0
0 0
0 0
0 0
0 0
0 0
0 0
0 0
0 0
0 0
0 0
0 0
0 0
0 0
0 0
0 0
0 0
0 0
0 0
0 0
0 0
0 0
0 0
0 0
0 0
0 0
0 0
0 0
0 0
0 0
0 0
0 0
0 0
0 0
0 0
0 0
0 0
0 0
0 0
0 0
0 0
0 0
0 0
0 0
0 0
0 0
0 0
0 0
0 0
0 0
0 0
0 0
0 0
0 0
0 0
0 0
0 0
0 0
0 0
0 0
0 0
0 0
0 0
0 0
0 0
0 0
0 0
0 0
0 0
0 0
0 0
0 0
0 0
0 0
0 0
0 0
0 0
0 0
0 0
0 0
0 0
0 0
0 0
0 0
0 0
0 0
0 0
0 0
0 0
0 0
0 0
0 0
0 0
0 0
0 0
0 0
0 0
0 0
0 0
0 0
0 0
0 0
0 0
0 0
0 0
0 0
0 0
0 0
0 0
0 0
0 0
0 0
0 0
0 0
0 0
0 0
0 0
0 0
0 0
0 0
0 0
0 0
0 0
0 0
0 0
0 0
0 0
0 0
0 0
0 0
0 0
0 0
0 0
0 0
0 0
0 0
0 0
0 0
0 0
0 0
0 0
0 0
0 0
0 0
0 0
0 0
0 0
0 0
0 0
0 0
0 0
0 0
0 0
0 0
0 0
0 0
0 0
0 0
0 0
0 0
0 0
0 0
0 0
0 0
0 0
0 0
0 0
0 0
0 0
0 0
0 0
0 0
0 0
0 0
0 0
0 0
0 0
0 0
0 0
0 0
0 0
0 0
0 0
0 0
0 0
0 0
0 0
0 0
0 0
0 0
0 0
0 0
0 0
0 0
0 0
0 0
0 0
0 0
0 0
0 0
0 0
0 0
0 0
0 0
0 0
0 0
0 0
0 0
0 0
0 0
0 0
0 0
0 0
0 0
0 0
0 0
0 0
0 0
0 0
0 0
0 0
0 0
0 0
0 0
0 0
0 0
0 0
0 0
0 0
0 0
0 0
0 0
0 0
0 0
0 0
0 0
0 0
0 0
0 0
0 0
0 0
0 0
0 0
0 0
0 0
0 0
0 0
0 0
0 0
0 0
0 0
0 0
0 0
0 0
0 0
0 0
0 0
0 0
0 0
0 0
0 0
0 0
0 0
0 0
0 0
0 0
0 0
0 0
0 0
0 0
0 0
0 0
0 0
0 0
0 0
0 0
0 0
0 0
0 0
0 0
0 0
0 0
0 0
0 0
0 0
0 0
0 0
0 0
0 0
0 0
0 0
0 0
0 0
0 0
0 0
0 0
0 0
0 0
0 0
0 0
0 0
0 0
0 0
0 0
0 0
0 0
0 0
0 0
0 0
0 0
0 0
0 0
0 0
0 0
0 0
0 0
0 0
0 0
0 0
0 0
0 0
0 0
0 0
0 0
0 0
0 0
0 0
0 0
0 0
0 0
0 0
0 0
0 0
0 0
0 0
0 0
0 0
0 0
0 0
0 0
0 0
0 0
0 0
0 0
0 0
0 0
0 0
0 0
0 0
0 0
0 0
0 0
0 0
0 0
0 0
0 0
0 0
0 0
0 0
0 0
0 0
0 0
0 0
0 0
0 0
0 0
0 0
0 0
0 0
0 0
0 0
0 0
0 0
0 0
0 0
0 0
0 0
0 0
0 0
0 0
0 0
0 0
0 0
0 0
0 0
0 0
0 0
0 0
0 0
0 0
0 0
0 0
0 0
0 0
0 0
0 0
0 0
0 0
0 0
0 0
0 0
0 0
0 0
0 0
0 0
0 0
0 0
0 0
0 0
0 0
0 0
0 0
0 0
0 0
0 0
0 0
0 0
0 0
0 0
0 0
0 0
0 0
0 0
0 0
0 0
0 0
0 0
0 0
0 0
0 0
0 0
0 0
0 0
0 0
0 0
0 0
0 0
0 0
0 0
0 0
0 0
0 0
0 0
0 0
0 0
0 0
0 0
0 0
0 0
0 0
0 0
0 0
0 0
0 0
0 0
0 0
0 0
0 0
0 0
0 0
0 0
0 0
0 0
0 0
0 0
0 0
0 0
0 0
0 0
0 0
0 0
0 0
0 0
0 0
0 0
0 0
0 0
0 0
0 0
0 0
0 0
0 0
0 0
0 0
0 0
0 0
0 0
0 0
0 0
0 0
0 0
0 0
0 0
0 0
0 0
0 0
0 0
0 0
0 0
0 0
0 0
0 0
0 0
0 0
0 0
0 0
0 0
0 0
0 0
0 0
0 0
0 0
0 0
0 0
0 0
0 0
0 0
0 0
0 0
0 0
0 0
0 0
0 0
0 0
0 0
0 0
0 0
0 0
0 0
0 0
0 0
0 0
0 0
0 0
0 0
0 0
0 0
0 0
0 0
0 0
0 0
0 0
0 0
0 0
0 0
0 0
0 0
0 0
0 0
0 0
0 0
0 0
0 0
0 0
0 0
0 0
0 0
0 0
0 0
0 0
0 0
0 0
0 0
0 0
0 0
0 0
0 0
0 0
0 0
0 0
0 0
0 0
0 0
0 0
0 0
0 0
0 0
0 0
0 0
0 0
0 0
0 0
0 0
0 0
0 0
0 0
0 0
0 0
0 0
0 0
0 0
0 0
0 0
0 0
0 0
0 0
0 0
0 0
0 0
0 0
0 0
0 0
0 0
0 0
0 0
0 0
0 0
0 0
0 0
0 0
0 0
0 0
0 0
0 0
0 0
0 0
0 0
0 0
0 0
0 0
0 0
0 0
0 0
0 0
0 0
0 0
0 0
0 0
0 0
0 0
0 0
0 0
0 0
0 0
0 0
0 0
0 0
0 0
0 0
0 0
0 0
0 0
0 0
0 0
0 0
0 0
0 0
0 0
0 0
0 0
0 0
0 0
0 0
0 0
0 0
0 0
0 0
0 0
0 0
0 0
0 0
0 0
0 0
0 0
0 0
0 0
0 0
0 0
0 0
0 0
0 0
0 0
0 0
0 0
0 0
0 0
0 0
0 0
0 0
0 0
0 0
0 0
0 0
0 0
0 0
0 0
0 0
0 0
0 0
0 0
0 0
0 0
0 0
0 0
0 0
0 0
0 0
0 0
0 0
0 0
0 0
0 0
0 0
0 0
0 0
0 0
0 0
0 0
0 0
0 0
0 0
0 0
0 0
0 0
0 0
0 0
0 0
0 0
0 0
0 0
0 0
0 0
0 0
0 0
0 0
0 0
0 0
0 0
0 0
0 0
0 0
0 0
0 0
0 0
0 0
0 0
0 0
0 0
0 0
0 0
0 0
0 0
0 0
0 0
0 0
0 0
0 0
0 0
0 0
0 0
0 0
0 0
0 0
0 0
0 0
0 0
0 0
0 0
0 0
0 0
0 0
0 0
0 0
0 0
0 0
0 0
0 0
0 0
0 0
0 0
0 0
0 0
0 0
0 0
0 0
0 0
0 0
0 0
0 0
0 0
0 0
0 0
0 0
0 0
0 0
0 0
0 0
0 0
0 0
0 0
0 0
0 0
0 0
0 0
0 0
0 0
0 0
0 0
0 0
0 0
0 0
0 0
0 0
0 0
0 0
0 0
0 0
0 0
0 0
0 0
0 0
0 0
0 0
0 0
0 0
0 0
0 0
0 0
0 0
0 0
0 0
0 0
0 0
0 0
0 0
0 0
0 0
0 0
0 0
0 0
0 0
0 0
0 0
0 0
0 0
0 0
0 0
0 0
0 0
0 0
0 0
0 0
0 0
0 0
0 0
0 0
0 0
0 0
0 0
0 0
0 0
0 0
0 0
0 0
0 0
0 0
0 0
0 0
0 0
0 0
0 0
0 0
0 0
0 0
0 0
0 0
0 0
0 0
0 0
0 0
0 0
0 0
0 0
0 0
0 0
0 0
0 0
0 0
0 0
0 0
0 0
0 0
0 0
0 0
0 0
0 0
0 0
0 0
0 0
0 0
0 0
0 0
0 0
0 0
0 0
0 0
0 0
0 0
0 0
0 0
0 0
0 0
0 0
0 0
0 0
0 0
0 0
0 0
0 0
0 0
0 0
0 0
0 0
0 0
0 0
0 0
0 0
0 0
0 0
0 0
0 0
0 0
0 0
0 0
0 0
0 0
0 0
0 0
0 0
0 0
0 0
0 0
0 0
0 0
0 0
0 0
0 0
0 0
0 0
0 0
0 0
0 0
0 0
0 0
0 0
0 0
0 0
0 0
0 0
0 0
0 0
0 0
0 0
0 0
0 0
0 0
0 0
0 0
0 0
0 0
0 0
0 0
0 0
0 0
0 0
0 0
0 0
0 0
0 0
0 0
0 0
0 0
0 0
0 0
0 0
0 0
0 0
0 0
0 0
0 0
0 0
0 0
0 0
0 0
0 0
0 0
0 0
0 0
0 0
0 0
0 0
0 0
0 0
0 0
0 0
0 0
0 0
0 0
0 0
0 0
0 0
0 0
0 0
0 0
0 0
0 0
0 0
0 0
0 0
0 0
0 0
0 0
0 0
0 0
0 0
0 0
0 0
0 0
0 0
0 0
0 0
0 0
0 0
0 0
0 0
0 0
0 0
0 0
0 0
0 0
0 0
0 0
0 0
0 0
0 0
0 0
0 0
0 0
0 0
0 0
0 0
0 0
0 0
0 0
0 0
0 0
0 0
0 0
0 0
0 0
0 0
0 0
0 0
0 0
0 0
0 0
0 0
0 0
0 0
0 0
0 0
0 0
0 0
0 0
0 0
0 0
0 0
0 0
0 0
0 0
0 0
0 0
0 0
0 0
0 0
0 0
0 0
0 0
0 0
0 0
0 0
0 0
0 0
0 0
0 0
0 0
0 0
0 0
0 0
0 0
0 0
0 0
0 0
0 0
0 0
0 0
0 0
0 0
0 0
0 0
0 0
0 0
0 0
0 0
0 0
0 0
0 0
0 0
0 0
0 0
0 0
0 0
0 0
0 0
0 0
0 0
0 0
0 0
0 0
0 0
0 0
0 0
0 0
0 0
0 0
0 0
0 0
0 0
0 0
0 0
0 0
0 0
0 0
0 0
0 0
0 0
0 0
0 0
0 0
0 0
0 0
0 0
0 0
0 0
0 0
0 0
0 0
0 0
0 0
0 0
0 0
0 0
0 0
0 0
0 0
0 0
0 0
0 0
0 0
0 0
0 0
0 0
0 0
0 0
0 0
0 0
0 0
0 0
0 0
0 0
0 0
0 0
0 0
0 0
0 0
0 0
0 0
0 0
0 0
0 0
0 0
0 0
0 0
0 0
0 0
0 0
0 0
0 0
0 0
0 0
0 0
0 0
0 0
0 0
0 0
0 0
0 0
0 0
0 0
0 0
0 0
0 0
0 0
0 0
0 0
0 0
0 0
0 0
0 0
0 0
0 0
0 0
0 0
0 0
0 0
0 0
0 0
0 0
0 0
0 0
0 0
0 0
0 0
0 0
0 0
0 0
0 0
0 0
0 0
0 0
0 0
0 0
0 0
0 0
0 0
0 0
0 0
0 0
0 0
0 0
0 0
0 0
0 0
0 0
0 0
0 0
0 0
0 0
0 0
0 0
0 0
0 0
0 0
0 0
0 0
0 0
0 0
0 0
0 0
0 0
0 0
0 0
0 0
0 0
0 0
0 0
0 0
0 0
0 0
0 0
0 0
0 0
0 0
0 0
0 0
0 0
0 0
0 0
0 0
0 0
0 0
0 0
0 0
0 0
0 0
0 0
0 0
0 0
0 0
0 0
0 0
0 0
0 0
0 0
0 0
0 0
0 0
0 0
0 0
0 0
0 0
0 0
0 0
0 0
0 0
0 0
0 0
0 0
0 0
0 0
0 0
0 0
0 0
0 0
0 0
0 0
0 0
0 0
0 0
0 0
0 0
0 0
0 0
0 0
0 0
0 0
0 0
0 0
0 0
0 0
0 0
0 0
0 0
0 0
0 0
0 0
0 0
0 0
0 0
0 0
0 0
0 0
0 0
0 0
0 0
0 0
0 0
0 0
0 0
0 0
0 0
0 0
0 0
0 0
0 0
0 0
0 0
0 0
0 0
0 0
0 0
0 0
0 0
0 0
0 0
0 0
0 0
0 0
0 0
0 0
0 0
0 0
0 0
0 0
0 0
0 0
0 0
0 0
0 0
0 0
0 0
0 0
0 0
0 0
0 0
0 0
0 0
0 0
0 0
0 0
0 0
0 0
0 0
0 0
0 0
0 0
0 0
0 0
0 0
0 0
0 0
0 0
0 0
0 0
0 0
0 0
0 0
0 0
0 0
0 0
0 0
0 0
0 0
0 0
0 0
0 0
0 0
0 0
0 0
0 0
0 0
0 0
0 0
0 0
0 0
0 0
0 0
0 0
0 0
0 0
0 0
0 0
0 0
0 0
0 0
0 0
0 0
0 0
0 0
0 0
0 0
0 0
0 0
0 0
0 0
0 0
0 0
0 0
0 0
0 0
0 0
0 0
0 0
0 0
0 0
0 0
0 0
0 0
0 0
0 0
0 0
0 0
0 0
0 0
0 0
0 0
0 0
0 0
0 0
0 0
0 0
0 0
0 0
0 0
0 0
0 0
0 0
0 0
0 0
0 0
0 0
0 0
0 0
0 0
0 0
0 0
0 0
0 0
0 0
0 0
0 0
0 0
0 0
0 0
0 0
0 0
0 0
0 0
0 0
0 0
0 0
0 0
0 0
0 0
0 0
0 0
0 0
0 0
0 0
0 0
0 0
0 0
0 0
0 0
0 0
0 0
0 0
0 0
0 0
0 0
0 0
0 0
0 0
0 0
0 0
0 0
0 0
0 0
0 0
0 0
0 0
0 0
0 0
0 0
0 0
0 0
0 0
0 0
0 0
0 0
0 0
0 0
0 0
0 0
0 0
0 0
0 0
0 0
0 0
0 0
0 0
0 0
0 0
0 0
0 0
0 0
0 0
0 0
0 0
0 0
0 0
0 0
0 0
0 0
0 0
0 0
0 0
0 0
0 0
0 0
0 0
0 0
0 0
0 0
0 0
0 0
0 0
0 0
0 0
0 0
0 0
0 0
0 0
0 0
0 0
0 0
0 0
0 0
0 0
0 0
0 0
0 0
0 0
0 0
0 0
0 0
0 0
0 0
0 0
0 0
0 0
0 0
0 0
0 0
0 0
0 0
0 0
0 0
0 0
0 0
0 0
0 0
0 0
0 0
0 0
0 0
0 0
0 0
0 0
0 0
0 0
0 0
0 0
0 0
0 0
0 0
0 0
0 0
0 0
0 0
0 0
0 0
0 0
0 0
0 0
0 0
0 0
0 0
0 0
0 0
0 0
0 0
0 0
0 0
0 0
0 0
0 0
0 0
0 0
0 0
0 0
0 0
0 0
0 0
0 0
0 0
0 0
0 0
0 0
0 0
0 0
0 0
0 0
0 0
0 0
0 0
0 0
0 0
0 0
0 0
0 0
0 0
0 0
0 0
0 0
0 0
0 0
0 0
0 0
0 0
0 0
0 0
0 0
0 0
0 0
0 0
0 0
0 0
0 0
0 0
0 0
0 0
0 0
0 0
0 0
0 0
0 0
0 0
0 0
0 0
0 0
0 0
0 0
0 0
0 0
0 0
0 0
0 0
0 0
0 0
0 0
0 0
0 0
0 0
0 0
0 0
0 0
0 0
0 0
0 0
0 0
0 0
0 0
0 0
0 0
0 0
0 0
0 0
0 0
0 0
0 0
0 0
0 0
0 0
0 0
0 0
0 0
0 0
0 0
0 0
0 0
0 0
0 0
0 0
0 0
0 0
0 0
0 0
0 0
0 0
0 0
0 0
0 0
0 0
0 0
0 0
0 0
0 0
0 0
0 0
0 0
0 0
0 0
0 0
0 0
0 0
0 0
0 0
0 0
0 0
0 0
0 0
0 0
0 0
0 0
0 0
0 0
0 0
0 0
0 0
0 0
0 0
0 0
0 0
0 0
0 0
0 0
0 0
0 0
0 0
0 0
0 0
0 0
0 0
0 0
0 0
0 0
0 0
0 0
0 0
0 0
0 0
0 0
0 0
0 0
0 0
0 0
0 0
0 0
0 0
0 0
0 0
0 0
0 0
0 0
0 0
0 0
0 0
0 0
0 0
0 0
0 0
0 0
0 0
0 0
0 0
0 0
0 0
0 0
0 0
0 0
0 0
0 0
0 0
0 0
0 0
0 0
0 0
0 0
0 0
0 0
0 0
0 0
0 0
0 0
0 0
0 0
0 0
0 0
0 0
0 0
0 0
0 0
0 0
0 0
0 0
0 0
0 0
0 0
0 0
0 0
0 0
0 0
0 0
0 0
0 0
0 0
0 0
0 0
0 0
0 0
0 0
0 0
0 0
0 0
0 0
0 0
0 0
0 0
0 0
0 0
0 0
0 0
0 0
0 0
0 0
0 0
0 0
0 0
0 0
0 0
0 0
0 0
0 0
0 0
0 0
0 0
0 0
0 0
0 0
0 0
0 0
0 0
0 0
0 0
0 0
0 0
0 0
0 0
0 0
0 0
0 0
0 0
0 0
0 0
0 0
0 0
0 0
0 0
0 0
0 0
0 0
0 0
0 0
0 0
0 0
0 0
0 0
0 0
0 0
0 0
0 0
0 0
0 0
0 0
0 0
0 0
0 0
0 0
0 0
0 0
0 0
0 0
0 0
0 0
0 0
0 0
0 0
0 0
0 0
0 0
0 0
0 0
0 0
0 0
0 0
0 0
0 0
0 0
0 0
0 0
0 0
0 0
0 0
0 0
0 0
0 0
0 0
0 0
0 0
0 0
0 0
0 0
0 0
0 0
0 0
0 0
0 0
0 0
0 0
0 0
0 0
0 0
0 0
0 0
0 0
0 0
0 0
0 0
0 0
0 0
0 0
0 0
0 0
0 0
0 0
0 0
0 0
0 0
0 0
0 0
0 0
0 0
0 0
0 0
0 0
0 0
0 0
0 0
0 0
0 0
0 0
0 0
0 0
0 0
0 0
0 0
0 0
0 0
0 0
0 0
0 0
0 0
0 0
0 0
0 0
0 0
0 0
0 0
0 0
0 0
0 0
0 0
0 0
0 0
0 0
0 0
0 0
0 0
0 0
0 0
0 0
0 0
0 0
0 0
0 0
0 0
0 0
0 0
0 0
0 0
0 0
0 0
0 0
0 0
0 0
0 0
0 0
0 0
0 0
0 0
0 0
0 0
0 0
0 0
0 0
0 0
0 0
0 0
0 0
0 0
0 0
0 0
0 0
0 0
0 0
0 0
0 0
0 0
0 0
0 0
0 0
0 0
0 0
0 0
0 0
0 0
0 0
0 0
0 0
0 0
0 0
0 0
0 0
0 0
0 0
0 0
0 0
0 0
0 0
0 0
0 0
0 0
0 0
0 0
0 0
0 0
0 0
0 0
0 0
0 0
0 0
0 0
0 0
0 0
0 0
0 0
0 0
0 0
0 0
0 0
0 0
0 0
0 0
0 0
0 0
0 0
0 0
0 0
0 0
0 0
0 0
0 0
0 0
0 0
0 0
0 0
0 0
0 0
0 0
0 0
0 0
0 0
0 0
0 0
0 0
0 0
0 0
0 0
0 0
0 0
0 0
0 0
0 0
0 0
0 0
0 0
0 0
0 0
0 0
0 0
0 0
0 0
0 0
0 0
0 0
0 0
0 0
0 0
0 0
0 0
0 0
0 0
0 0
0 0
0 0
0 0
0 0
0 0
0 0
0 0
0 0
0 0
0 0
0 0
0 0
0 0
0 0
0 0
0 0
0 0
0 0
0 0
0 0
0 0
0 0
0 0
0 0
0 0
0 0
0 0
0 0
0 0
0 0
0 0
0 0
0 0
0 0
0 0
0 0
0 0
0 0
0 0
0 0
0 0
0 0
0 0
0 0
0 0
0 0
0 0
0 0
0 0
0 0
0 0
0 0
0 0
0 0
0 0
0 0
0 0
0 0
0 0
0 0
0 0
0 0
0 0
0 0
0 0
0 0
0 0
0 0
0 0
0 0
0 0
0 0
0 0
0 0
0 0
0 0
0 0
0 0
0 0
0 0
0 0
0 0
0 0
0 0
0 0
0 0
0 0
0 0
0 0
0 0
0 0
0 0
0 0
0 0
0 0
0 0
0 0
0 0
0 0
0 0
0 0
0 0
0 0
0 0
0 0
0 0
0 0
0 0
0 0
0 0
0 0
0 0
0 0
0 0
0 0
0 0
0 0
0 0
0 0
0 0
0 0
0 0
0 0
0 0
0 0
0 0
0 0
0 0
0 0
0 0
0 0
0 0
0 0
0 0
0 0
0 0
0 0
0 0
0 0
0 0
0 0
0 0
0 0
0 0
0 0
0 0
0 0
0 0
0 0
0 0
0 0
0 0
0 0
0 0
0 0
0 0
0 0
0 0
0 0
0 0
0 0
0 0
0 0
0 0
0 0
0 0
0 0
0 0
0 0
0 0
0 0
0 0
0 0
0 0
0 0
0 0
0 0
0 0
0 0
0 0
0 0
0 0
0 0
0 0
0 0
0 0
0 0
0 0
0 0
0 0
0 0
0 0
0 0
0 0
0 0
0 0
0 0
0 0
0 0
0 0
0 0
0 0
0 0
0 0
0 0
0 0
0 0
0 0
0 0
0 0
0 0
0 0
0 0
0 0
0 0
0 0
0 0
0 0
0 0
0 0
0 0
0 0
0 0
0 0
0 0
0 0
0 0
0 0
0 0
0 0
0 0
0 0
0 0
0 0
0 0
0 0
0 0
0 0
0 0
0 0
0 0
0 0
0 0
0 0
0 0
0 0
0 0
0 0
0 0
0 0
0 0
0 0
0 0
0 0
0 0
0 0
0 0
0 0
0 0
0 0
0 0
0 0
0 0
0 0
0 0
0 0
0 0
0 0
0 0
0 0
0 0
0 0
0 0
0 0
0 0
0 0
0 0
0 0
0 0
0 0
0 0
0 0
0 0
0 0
0 0
0 0
0 0
0 0
0 0
0 0
0 0
0 0
0 0
0 0
0 0
0 0
0 0
0 0
0 0
0 0
0 0
0 0
0 0
0 0
0 0
0 0
0 0
0 0
0 0
0 0
0 0
0 0
0 0
0 0
0 0
0 0
0 0
0 0
0 0
0 0
0 0
0 0
0 0
0 0
0 0
0 0
0 0
0 0
0 0
0 0
0 0
0 0
0 0
0 0
0 0
0 0
0 0
0 0
0 0
0 0
0 0
0 0
0 0
0 0
0 0
0 0
0 0
0 0
0 0
0 0
0 0
0 0
0 0
0 0
0 0
0 0
0 0
0 0
0 0
0 0
0 0
0 0
0 0
0 0
0 0
0 0
0 0
0 0
0 0
0 0
0 0
0 0
0 0
0 0
0 0
0 0
0 0
0 0
0 0
0 0
0 0
0 0
0 0
0 0
0 0
0 0
0 0
0 0
0 0
0 0
0 0
0 0
0 0
0 0
0 0
0 0
0 0
0 0
0 0
0 0
0 0
0 0
0 0
0 0
0 0
0 0
0 0
0 0
0 0
0 0
0 0
0 0
0 0
0 0
0 0
0 0
0 0
0 0
0 0
0 0
0 0
0 0
0 0
0 0
0 0
0 0
0 0
0 0
0 0
0 0
0 0
0 0
0 0
0 0
0 0
0 0
0 0
0 0
0 0
0 0
0 0
0 0
0 0
0 0
0 0
0 0
0 0
0 0
0 0
0 0
0 0
0 0
0 0
0 0
0 0
0 0
0 0
0 0
0 0
0 0
0 0
0 0
0 0
0 0
0 0
0 0
0 0
0 0
0 0
0 0
0 0
0 0
0 0
0 0
0 0
0 0
0 0
0 0
0 0
0 0
0 0
0 0
0 0
0 0
0 0
0 0
0 0
0 0
0 0
0 0
0 0
0 0
0 0
0 0
0 0
0 0
0 0
0 0
0 0
0 0
0 0
0 0
0 0
0 0
0 0
0 0
0 0
0 0
0 0
0 0
0 0
0 0
0 0
0 0
0 0
0 0
0 0
0 0
0 0
0 0
0 0
0 0
0 0
0 0
0 0
0 0
0 0
0 0
0 0
0 0
0 0
0 0
0 0
0 0
0 0
0 0
0 0
0 0
0 0
0 0
0 0
0 0
0 0
0 0
0 0
0 0
0 0
0 0
0 0
0 0
0 0
0 0
0 0
0 0
0 0
0 0
0 0
0 0
0 0
0 0
0 0
0 0
0 0
0 0
0 0
0 0
0 0
0 0
0 0
0 0
0 0
0 0
0 0
0 0
0 0
0 0
0 0
0 0
0 0
0 0
0 0
0 0
0 0
0 0
0 0
0 0
0 0
0 0
0 0
0 0
0 0
0 0
0 0
0 0
0 0
0 0
0 0
0 0
0 0
0 0
0 0
0 0
0 0
0 0
0 0
0 0
0 0
0 0
0 0
0 0
0 0
0 0
0 0
0 0
0 0
0 0
0 0
0 0
0 0
0 0
0 0
0 0
0 0
0 0
0 0
0 0
0 0
0 0
0 0
0 0
0 0
0 0
0 0
0 0
0 0
0 0
0 0
0 0
0 0
0 0
0 0
0 0
0 0
0 0
0 0
0 0
0 0
0 0
0 0
0 0
0 0
0 0
0 0
0 0
0 0
0 0
0 0
0 0
0 0
0 0
0 0
0 0
0 0
0 0
0 0
0 0
0 0
0 0
0 0
0 0
0 0
0 0
0 0
0 0
0 0
0 0
0 0
0 0
0 0
0 0
0 0
0 0
0 0
0 0
0 0
0 0
0 0
0 0
0 0
0 0
0 0
0 0
0 0
0 0
0 0
0 0
0 0
0 0
0 0
0 0
0 0
0 0
0 0
0 0
0 0
0 0
0 0
0 0
0 0
0 0
0 0
0 0
0 0
0 0
0 0
0 0
0 0
0 0
0 0
0 0
0 0
0 0
0 0
0 0
0 0
0 0
0 0
0 0
0 0
0 0
0 0
0 0
0 0
0 0
0 0
0 0
0 0
0 0
0 0
0 0
0 0
0 0
0 0
0 0
0 0
0 0
0 0
0 0
0 0
0 0
0 0
0 0
0 0
0 0
0 0
0 0
0 0
0 0
0 0
0 0
0 0
0 0
0 0
0 0
0 0
0 0
0 0
0 0
0 0
0 0
0 0
0 0
0 0
0 0
0 0
0 0
0 0
0 0
0 0
0 0
0 0
0 0
0 0
0 0
0 0
0 0
0 0
0 0
0 0
0 0
0 0
0 0
0 0
0 0
0 0
0 0
0 0
0 0
0 0
0 0
0 0
0 0
0 0
0 0
0 0
0 0
0 0
0 0
0 0
0 0
0 0
0 0
0 0
0 0
0 0
0 0
0 0
0 0
0 0
0 0
0 0
0 0
0 0
0 0
0 0
0 0
0 0
0 0
0 0
0 0
0 0
0 0
0 0
0 0
0 0
0 0
0 0
0 0
0 0
0 0
0 0
0 0
0 0
0 0
0 0
0 0
0 0
0 0
0 0
0 0
0 0
0 0
0 0
0 0
0 0
0 0
0 0
0 0
0 0
0 0
0 0
0 0
0 0
0 0
0 0
0 0
0 0
0 0
0 0
0 0
0 0
0 0
0 0
0 0
0 0
0 0
0 0
0 0
0 0
0 0
0 0
0 0
0 0
0 0
0 0
0 0
0 0
0 0
0 0
0 0
0 0
0 0
0 0
0 0
0 0
0 0
0 0
0 0
0 0
0 0
0 0
0 0
0 0
0 0
0 0
0 0
0 0
0 0
0 0
0 0
0 0
0 0
0 0
0 0
0 0
0 0
0 0
0 0
0 0
0 0
0 0
0 0
0 0
0 0
0 0
0 0
0 0
0 0
0 0
0 0
0 0
0 0
0 0
0 0
0 0
0 0
0 0
0 0
0 0
0 0
0 0
0 0
0 0
0 0
0 0
0 0
0 0
0 0
0 0
0 0
0 0
0 0
0 0
0 0
0 0
0 0
0 0
0 0
0 0
0 0
0 0
0 0
0 0
0 0
0 0
0 0
0 0
0 0
0 0
0 0
0 0
0 0
0 0
0 0
0 0
0 0
0 0
0 0
0 0
0 0
0 0
0 0
0 0
0 0
0 0
0 0
0 0
0 0
0 0
0 0
0 0
0 0
0 0
0 0
0 0
0 0
0 0
0 0
0 0
0 0
0 0
0 0
0 0
0 0
0 0
0 0
0 0
0 0
0 0
0 0
0 0
0 0
0 0
0 0
0 0
0 0
0 0
0 0
0 0
0 0
0 0
0 0
0 0
0 0
0 0
0 0
0 0
0 0
0 0
0 0
0 0
0 0
0 0
0 0
0 0
0 0
0 0
0 0
0 0
0 0
0 0
0 0
0 0
0 0
0 0
0 0
0 0
0 0
0 0
0 0
0 0
0 0
0 0
0 0
0 0
0 0
0 0
0 0
0 0
0 0
0 0
0 0
0 0
0 0
0 0
0 0
0 0
0 0
0 0
0 0
0 0
0 0
0 0
0 0
0 0
0 0
0 0
0 0
0 0
0 0
0 0
0 0
0 0
0 0
0 0
0 0
0 0
0 0
0 0
0 0
0 0
0 0
0 0
0 0
0 0
0 0
0 0
0 0
0 0
0 0
0 0
0 0
0 0
0 0
0 0
0 0
0 0
0 0
0 0
0 0
0 0
0 0
0 0
0 0
0 0
0 0
0 0
0 0
0 0
0 0
0 0
0 0
0 0
0 0
0 0
0 0
0 0
0 0
0 0
0 0
0 0
0 0
0 0
0 0
0 0
0 0
0 0
0 0
0 0
0 0
0 0
0 0
0 0
0 0
0 0
0 0
0 0
0 0
0 0
0 0
0 0
0 0
0 0
0 0
0 0
0 0
0 0
0 0
0 0
0 0
0 0
0 0
0 0
0 0
0 0
0 0
0 0
0 0
0 0
0 0
0 0
0 0
0 0
0 0
0 0
0 0
0 0
0 0
0 0
0 0
0 0
0 0
0 0
0 0
0 0
0 0
0 0
0 0
0 0
0 0
0 0
0 0
0 0
0 0
0 0
0 0
0 0
0 0
0 0
0 0
0 0
0 0
0 0
0 0
0 0
0 0
0 0
0 0
0 0
0 0
0 0
0 0
0 0
0 0
0 0
0 0
0 0
0 0
0 0
0 0
0 0
0 0
0 0
0 0
0 0
0 0
0 0
0 0
0 0
0 0
0 0
0 0
0 0
0 0
0 0
0 0
0 0
0 0
0 0
0 0
0 0
0 0
0 0
0 0
0 0
0 0
0 0
0 0
0 0
0 0
0 0
0 0
0 0
0 0
0 0
0 0
0 0
0 0
0 0
0 0
0 0
0 0
0 0
0 0
0 0
0 0
0 0
0 0
0 0
0 0
0 0
0 0
0 0
0 0
0 0
0 0
0 0
0 0
0 0
0 0
0 0
0 0
0 0
0 0
0 0
0 0
0 0
0 0
0 0
0 0
0 0
0 0
0 0
0 0
0 0
0 0
0 0
0 0
0 0
0 0
0 0
0 0
0 0
0 0
0 0
0 0
0 0
0 0
0 0
0 0
0 0
0 0
0 0
0 0
0 0
0 0
0 0
0 0
0 0
0 0
0 0
0 0
0 0
0 0
0 0
0 0
0 0
0 0
0 0
0 0
0 0
0 0
0 0
0 0
0 0
0 0
0 0
0 0
0 0
0 0
0 0
0 0
0 0
0 0
0 0
0 0
0 0
0 0
0 0
0 0
0 0
0 0
0 0
0 0
0 0
0 0
0 0
0 0
0 0
0 0
0 0
0 0
0 0
0 0
0 0
0 0
0 0
0 0
0 0
0 0
0 0
0 0
0 0
0 0
0 0
0 0
0 0
0 0
0 0
0 0
0 0
0 0
0 0
0 0
0 0
0 0
0 0
0 0
0 0
0 0
0 0
0 0
0 0
0 0
0 0
0 0
0 0
0 0
0 0
0 0
0 0
0 0
0 0
0 0
0 0
0 0
0 0
0 0
0 0
0 0
0 0
0 0
0 0
0 0
0 0
0 0
0 0
0 0
0 0
0 0
0 0
0 0
0 0
0 0
0 0
0 0
0 0
0 0
0 0
0 0
0 0
0 0
0 0
0 0
0 0
0 0
0 0
0 0
0 0
0 0
0 0
0 0
0 0
0 0
0 0
0 0
0 0
0 0
0 0
0 0
0 0
0 0
0 0
0 0
0 0
0 0
0 0
0 0
0 0
0 0
0 0
0 0
0 0
0 0
0 0
0 0
0 0
0 0
0 0
0 0
0 0
0 0
0 0
0 0
0 0
0 0
0 0
0 0
0 0
0 0
0 0
0 0
0 0
0 0
0 0
0 0
0 0
0 0
0 0
0 0
0 0
0 0
0 0
0 0
0 0
0 0
0 0
0 0
0 0
0 0
0 0
0 0
0 0
0 0
0 0
0 0
0 0
0 0
0 0
0 0
0 0
0 0
0 0
0 0
0 0
0 0
0 0
0 0
0 0
0 0
0 0
0 0
0 0
0 0
0 0
0 0
0 0
0 0
0 0
0 0
0 0
0 0
0 0
0 0
0 0
0 0
0 0
0 0
0 0
0 0
0 0
0 0
0 0
0 0
0 0
0 0
0 0
0 0
0 0
0 0
0 0
0 0
0 0
0 0
0 0
0 0
0 0
0 0
0 0
0 0
0 0
0 0
0 0
0 0
0 0
0 0
0 0
0 0
0 0
0 0
0 0
0 0
0 0
0 0
0 0
0 0
0 0
0 0
0 0
0 0
0 0
0 0
0 0
0 0
0 0
0 0
0 0
0 0
0 0
0 0
0 0
0 0
0 0
0 0
0 0
0 0
0 0
0 0
0 0
0 0
0 0
0 0
0 0
0 0
0 0
0 0
0 0
0 0
0 0
0 0
0 0
0 0
0 0
0 0
0 0
0 0
0 0
0 0
0 0
0 0
0 0
0 0
0 0
0 0
0 0
0 0
0 0
0 0
0 0
0 0
0 0
0 0
0 0
0 0
0 0
0 0
0 0
0 0
0 0
0 0
0 0
0 0
0 0
0 0
0 0
0 0
0 0
0 0
0 0
0 0
0 0
0 0
0 0
0 0
0 0
0 0
0 0
0 0
0 0
0 0
0 0
0 0
0 0
0 0
0 0
0 0
0 0
0 0
0 0
0 0
0 0
0 0
0 0
0 0
0 0
0 0
0 0
0 0
0 0
0 0
0 0
0 0
0 0
0 0
0 0
0 0
0 0
0 0
0 0
0 0
0 0
0 0
0 0
0 0
0 0
0 0
0 0
0 0
0 0
0 0
0 0
0 0
0 0
0 0
0 0
0 0
0 0
0 0
0 0
0 0
0 0
0 0
0 0
0 0
0 0
0 0
0 0
0 0
0 0
0 0
0 0
0 0
0 0
0 0
0 0
0 0
0 0
0 0
0 0
0 0
0 0
0 0
0 0
0 0
0 0
0 0
0 0
0 0
0 0
0 0
0 0
0 0
0 0
0 0
0 0
0 0
0 0
0 0
0 0
0 0
0 0
0 0
0 0
0 0
0 0
0 0
0 0
0 0
0 0
0 0
0 0
0 0
0 0
0 0
0 0
0 0
0 0
0 0
0 0
0 0
0 0
0 0
0 0
0 0
0 0
0 0
0 0
0 0
0 0
0 0
0 0
0 0
0 0
0 0
0 0
0 0
0 0
0 0
0 0
0 0
0 0
0 0
0 0
0 0
0 0
0 0
0 0
0 0
0 0
0 0
0 0
0 0
0 0
0 0
0 0
0 0
0 0
0 0
0 0
0 0
0 0
0 0
0 0
0 0
0 0
0 0
0 0
0 0
0 0
0 0
0 0
0 0
0 0
0 0
0 0
0 0
0 0
0 0
0 0
0 0
0 0
0 0
0 0
0 0
0 0
0 0
0 0
0 0
0 0
0 0
0 0
0 0
0 0
0 0
0 0
0 0
0 0
0 0
0 0
0 0
0 0
0 0
0 0
0 0
0 0
0 0
0 0
0 0
0 0
0 0
0 0
0 0
0 0
0 0
0 0
0 0
0 0
0 0
0 0
0 0
0 0
0 0
0 0
0 0
0 0
0 0
0 0
0 0
0 0
0 0
0 0
0 0
0 0
0 0
0 0
0 0
0 0
0 0
0 0
0 0
0 0
0 0
0 0
0 0
0 0
0 0
0 0
0 0
0 0
0 0
0 0
0 0
0 0
0 0
0 0
0 0
0 0
0 0
0 0
0 0
0 0
0 0
0 0
0 0
0 0
0 0
0 0
0 0
0 0
0 0
0 0
0 0
0 0
0 0
0 0
0 0
0 0
0 0
0 0
0 0
0 0
0 0
0 0
0 0
0 0
0 0
0 0
0 0
0 0
0 0
0 0
0 0
0 0
0 0
0 0
0 0
0 0
0 0
0 0
0 0
0 0
0 0
0 0
0 0
0 0
0 0
0 0
0 0
0 0
0 0
0 0
0 0
0 0
0 0
0 0
0 0
0 0
0 0
0 0
0 0
0 0
0 0
0 0
0 0
0 0
0 0
0 0
0 0
0 0
0 0
0 0
0 0
0 0
0 0
0 0
0 0
0 0
0 0
0 0
0 0
0 0
0 0
0 0
0 0
0 0
0 0
0 0
0 0
0 0
0 0
0 0
0 0
0 0
0 0
0 0
0 0
0 0
0 0
0 0
0 0
0 0
0 0
0 0
0 0
0 0
0 0
0 0
0 0
0 0
0 0
0 0
0 0
0 0
0 0
0 0
0 0
0 0
0 0
0 0
0 0
0 0
0 0
0 0
0 0
0 0
0 0
0 0
0 0
0 0
0 0
0 0
0 0
0 0
0 0
0 0
0 0
0 0
0 0
0 0
0 0
0 0
0 0
0 0
0 0
0 0
0 0
0 0
0 0
0 0
0 0
0 0
0 0
0 0
0 0
0 0
0 0
0 0
0 0
0 0
0 0
0 0
0 0
0 0
0 0
0 0
0 0
0 0
0 0
0 0
0 0
0 0
0 0
0 0
0 0
0 0
0 0
0 0
0 0
0 0
0 0
0 0
0 0
0 0
0 0
0 0
0 0
0 0
0 0
0 0
0 0
0 0
0 0
0 0
0 0
0 0
0 0
0 0
0 0
0 0
0 0
0 0
0 0
0 0
0 0
0 0
0 0
0 0
0 0
0 0
0 0
0 0
0 0
0 0
0 0
0 0
0 0
0 0
0 0
0 0
0 0
0 0
0 0
0 0
0 0
0 0
0 0
0 0
0 0
0 0
0 0
0 0
0 0
0 0
0 0
0 0
0 0
0 0
0 0
0 0
0 0
0 0
0 0
0 0
0 0
0 0
0 0
0 0
0 0
0 0
0 0
0 0
0 0
0 0
0 0
0 0
0 0
0 0
0 0
0 0
0 0
0 0
0 0
0 0
0 0
0 0
0 0
0 0
0 0
0 0
0 0
0 0
0 0
0 0
0 0
0 0
0 0
0 0
0 0
0 0
0 0
0 0
0 0
0 0
0 0
0 0
0 0
0 0
0 0
0 0
0 0
0 0
0 0
0 0
0 0
0 0
0 0
0 0
0 0
0 0
0 0
0 0
0 0
0 0
0 0
0 0
0 0
0 0
0 0
0 0
0 0
0 0
0 0
0 0
0 0
0 0
0 0
0 0
0 0
0 0
0 0
0 0
0 0
0 0
0 0
0 0
0 0
0 0
0 0
0 0
0 0
0 0
0 0
0 0
0 0
0 0
0 0
0 0
0 0
0 0
0 0
0 0
0 0
0 0
0 0
0 0
0 0
0 0
0 0
0 0
0 0
0 0
0 0
0 0
0 0
0 0
0 0
0 0
0 0
0 0
0 0
0 0
0 0
0 0
0 0
0 0
0 0
0 0
0 0
0 0
0 0
0 0
0 0
0 0
0 0
0 0
0 0
0 0
0 0
0 0
0 0
0 0
0 0
0 0
0 0
0 0
0 0
0 0
0 0
0 0
0 0
0 0
0 0
0 0
0 0
0 0
0 0
0 0
0 0
0 0
0 0
0 0
0 0
0 0
0 0
0 0
0 0
0 0
0 0
0 0
0 0
0 0
0 0
0 0
0 0
0 0
0 0
0 0
0 0
0 0
0 0
0 0
0 0
0 0
0 0
0 0
0 0
0 0
0 0
0 0
0 0
0 0
0 0
0 0
0 0
0 0
0 0
0 0
0 0
0 0
0 0
0 0
0 0
0 0
0 0
0 0
0 0
0 0
0 0
0 0
0 0
0 0
0 0
0 0
0 0
0 0
0 0
0 0
0 0
0 0
0 0
0 0
0 0
0 0
0 0
0 0
0 0
0 0
0 0
0 0
0 0
0 0
0 0
0 0
0 0
0 0
0 0
0 0
0 0
0 0
0 0
0 0
0 0
0 0
0 0
0 0
0 0
0 0
0 0
0 0
0 0
0 0
0 0
0 0
0 0
0 0
0 0
0 0
0 0
0 0
0 0
0 0
0 0
0 0
0 0
0 0
0 0
0 0
0 0
0 0
0 0
0 0
0 0
0 0
0 0
0 0
0 0
0 0
0 0
0 0
0 0
0 0
0 0
0 0
0 0
0 0
0 0
0 0
0 0
0 0
0 0
0 0
0 0
0 0
0 0
0 0
0 0
0 0
0 0
0 0
0 0
0 0
0 0
0 0
0 0
0 0
0 0
0 0
0 0
0 0
0 0
0 0
0 0
0 0
0 0
0 0
0 0
0 0
0 0
0 0
0 0
0 0
0 0
0 0
0 0
0 0
0 0
0 0
0 0
0 0
0 0
0 0
0 0
0 0
0 0
0 0
0 0
0 0
0 0
0 0
0 0
0 0
0 0
0 0
0 0
0 0
0 0
0 0
0 0
0 0
0 0
0 0
0 0
0 0
0 0
0 0
0 0
0 0
0 0
0 0
0 0
0 0
0 0
0 0
0 0
0 0
0 0
0 0
0 0
0 0
0 0
0 0
0 0
0 0
0 0
0 0
0 0
0 0
0 0
0 0
0 0
0 0
0 0
0 0
0 0
0 0
0 0
0 0
0 0
0 0
0 0
0 0
0 0
0 0
0 0
0 0
0 0
0 0
0 0
0 0
0 0
0 0
0 0
0 0
0 0
0 0
0 0
0 0
0 0
0 0
0 0
0 0
0 0
0 0
0 0
0 0
0 0
0 0
0 0
0 0
0 0
0 0
0 0
0 0
0 0
0 0
0 0
0 0
0 0
0 0
0 0
0 0
0 0
0 0
0 0
0 0
0 0
0 0
0 0
0 0
0 0
0 0
0 0
0 0
0 0
0 0
0 0
0 0
0 0
0 0
0 0
0 0
0 0
0 0
0 0
0 0
0 0
0 0
0 0
0 0
0 0
0 0
0 0
0 0
0 0
0 0
0 0
0 0
0 0
0 0
0 0
0 0
0 0
0 0
0 0
0 0
0 0
0 0
0 0
0 0
0 0
0 0
0 0
0 0
0 0
0 0
0 0
0 0
0 0
0 0
0 0
0 0
0 0
0 0
0 0
0 0
0 0
0 0
0 0
0 0
0 0
0 0
0 0
0 0
0 0
0 0
0 0
0 0
0 0
0 0
0 0
0 0
0 0
0 0
0 0
0 0
0 0
0 0
0 0
0 0
0 0
0 0
0 0
0 0
0 0
0 0
0 0
0 0
0 0
0 0
0 0
0 0
0 0
0 0
0 0
0 0
0 0
0 0
0 0
0 0
0 0
0 0
0 0
0 0
0 0
0 0
0 0
0 0
0 0
0 0
0 0
0 0
0 0
0 0
0 0
0 0
0 0
0 0
0 0
0 0
0 0
0 0
0 0
0 0
0 0
0 0
0 0
0 0
0 0
0 0
0 0
0 0
0 0
0 0
0 0
0 0
0 0
0 0
0 0
0 0
0 0
0 0
0 0
0 0
0 0
0 0
0 0
0 0
0 0
0 0
0 0
0 0
0 0
0 0
0 0
0 0
0 0
0 0
0 0
0 0
0 0
0 0
0 0
0 0
0 0
0 0
0 0
0 0
0 0
0 0
0 0
0 0
0 0
0 0
0 0
0 0
0 0
0 0
0 0
0 0
0 0
0 0
0 0
0 0
0 0
0 0
0 0
0 0
0 0
0 0
0 0
0 0
0 0
0 0
0 0
0 0
0 0
0 0
0 0
0 0
0 0
0 0
0 0
0 0
0 0
0 0
0 0
0 0
0 0
0 0
0 0
0 0
0 0
0 0
0 0
0 0
0 0
0 0
0 0
0 0
0 0
0 0
0 0
0 0
0 0
0 0
0 0
0 0
0 0
0 0
0 0
0 0
0 0
0 0
0 0
0 0
0 0
0 0
0 0
0 0
0 0
0 0
0 0
0 0
0 0
0 0
0 0
0 0
0 0
0 0
0 0
0 0
0 0
0 0
0 0
0 0
0 0
0 0
0 0
0 0
0 0
0 0
0 0
0 0
0 0
0 0
0 0
0 0
0 0
0 0
0 0
0 0
0 0
0 0
0 0
0 0
0 0
0 0
0 0
0 0
0 0
0 0
0 0
0 0
0 0
0 0
0 0
0 0
0 0
0 0
0 0
0 0
0 0
0 0
0 0
0 0
0 0
0 0
0 0
0 0
0 0
0 0
0 0
0 0
0 0
0 0
0 0
0 0
0 0
0 0
0 0
0 0
0 0
0 0
0 0
0 0
0 0
0 0
0 0
0 0
0 0
0 0
0 0
0 0
0 0
0 0
0 0
0 0
0 0
0 0
0 0
0 0
0 0
0 0
0 0
0 0
0 0
0 0
0 0
0 0
0 0
0 0
0 0
0 0
0 0
0 0
0 0
0 0
0 0
0 0
0 0
0 0
0 0
0 0
0 0
0 0
0 0
0 0
0 0
0 0
0 0
0 0
0 0
0 0
0 0
0 0
0 0
0 0
0 0
0 0
0 0
0 0
0 0
0 0
0 0
0 0
0 0
0 0
0 0
0 0
0 0
0 0
0 0
0 0
0 0
0 0
0 0
0 0
0 0
0 0
0 0
0 0
0 0
0 0
0 0
0 0
0 0
0 0
0 0
0 0
0 0
0 0
0 0
0 0
0 0
0 0
0 0
0 0
0 0
0 0
0 0
0 0
0 0
0 0
0 0
0 0
0 0
0 0
0 0
0 0
0 0
0 0
0 0
0 0
0 0
0 0
0 0
0 0
0 0
0 0
0 0
0 0
0 0
0 0
0 0
0 0
0 0
0 0
0 0
0 0
0 0
0 0
0 0
0 0
0 0
0 0
0 0
0 0
0 0
0 0
0 0
0 0
0 0
0 0
0 0
0 0
0 0
0 0
0 0
0 0
0 0
0 0
0 0
0 0
0 0
0 0
0 0
0 0
0 0
0 0
0 0
0 0
0 0
0 0
0 0
0 0
0 0
0 0
0 0
0 0
0 0
0 0
0 0
0 0
0 0
0 0
0 0
0 0
0 0
0 0
0 0
0 0
0 0
0 0
0 0
0 0
0 0
0 0
0 0
0 0
0 0
0 0
0 0
0 0
0 0
0 0
0 0
0 0
0 0
0 0
0 0
0 0
0 0
0 0
0 0
0 0
0 0
0 0
0 0
0 0
0 0
0 0
0 0
0 0
0 0
0 0
0 0
0 0
0 0
0 0
0 0
0 0
0 0
0 0
0 0
0 0
0 0
0 0
0 0
0 0
0 0
0 0
0 0
0 0
0 0
0 0
0 0
0 0
0 0
0 0
0 0
0 0
0 0
0 0
0 0
0 0
0 0
0 0
0 0
0 0
0 0
0 0
0 0
0 0
0 0
0 0
0 0
0 0
0 0
0 0
0 0
0 0
0 0
0 0
0 0
0 0
0 0
0 0
0 0
0 0
0 0
0 0
0 0
0 0
0 0
0 0
0 0
0 0
0 0
0 0
0 0
0 0
0 0
0 0
0 0
0 0
0 0
0 0
0 0
0 0
0 0
0 0
0 0
0 0
0 0
0 0
0 0
0 0
0 0
0 0
0 0
0 0
0 0
0 0
0 0
0 0
0 0
0 0
0 0
0 0
0 0
0 0
0 0
0 0
0 0
0 0
0 0
0 0
0 0
0 0
0 0
0 0
0 0
0 0
0 0
0 0
0 0
0 0
0 0
0 0
0 0
0 0
0 0
0 0
0 0
0 0
0 0
0 0
0 0
0 0
0 0
0 0
0 0
0 0
0 0
0 0
0 0
0 0
0 0
0 0
0 0
0 0
0 0
0 0
0 0
0 0
0 0
0 0
0 0
0 0
0 0
0 0
0 0
0 0
0 0
0 0
0 0
0 0
0 0
0 0
0 0
0 0
0 0
0 0
0 0
0 0
0 0
0 0
0 0
0 0
0 0
0 0
0 0
0 0
0 0
0 0
0 0
0 0
0 0
0 0
0 0
0 0
0 0
0 0
0 0
0 0
0 0
0 0
0 0
0 0
0 0
0 0
0 0
0 0
0 0
0 0
0 0
0 0
0 0
0 0
0 0
0 0
0 0
0 0
0 0
0 0
0 0
0 0
0 0
0 0
0 0
0 0
0 0
0 0
0 0
0 0
0 0
0 0
0 0
0 0
0 0
0 0
0 0
0 0
0 0
0 0
0 0
0 0
0 0
0 0
0 0
0 0
0 0
0 0
0 0
0 0
0 0
0 0
0 0
0 0
0 0
0 0
0 0
0 0
0 0
0 0
0 0
0 0
0 0
0 0
0 0
0 0
0 0
0 0
0 0
0 0
0 0
0 0
0 0
0 0
0 0
0 0
0 0
0 0
0 0
0 0
0 0
0 0
0 0
0 0
0 0
0 0
0 0
0 0
0 0
0 0
0 0
0 0
0 0
0 0
0 0
0 0
0 0
0 0
0 0
0 0
0 0
0 0
0 0
0 0
0 0
0 0
0 0
0 0
0 0
0 0
0 0
0 0
0 0
0 0
0 0
0 0
0 0
0 0
0 0
0 0
0 0
0 0
0 0
0 0
0 0
0 0
0 0
0 0
0 0
0 0
0 0
0 0
0 0
0 0
0 0
0 0
0 0
0 0
0 0
0 0
0 0
0 0
0 0
0 0
0 0
0 0
0 0
0 0
0 0
0 0
0 0
0 0
0 0
0 0
0 0
0 0
0 0
0 0
0 0
0 0
0 0
0 0
0 0
0 0
0 0
0 0
0 0
0 0
0 0
0 0
0 0
0 0
0 0
0 0
0 0
0 0
0 0
0 0
0 0
0 0
0 0
0 0
0 0
0 0
0 0
0 0
0 0
0 0
0 0
0 0
0 0
0 0
0 0
0 0
0 0
0 0
0 0
0 0
0 0
0 0
0 0
0 0
0 0
0 0
0 0
0 0
0 0
0 0
0 0
0 0
0 0
0 0
0 0
0 0
0 0
0 0
0 0
0 0
0 0
0 0
0 0
0 0
0 0
0 0
0 0
0 0
0 0
0 0
0 0
0 0
0 0
0 0
0 0
0 0
0 0
0 0
0 0
0 0
0 0
0 0
0 0
0 0
0 0
0 0
0 0
0 0
0 0
0 0
0 0
0 0
0 0
0 0
0 0
0 0
0 0
0 0
0 0
0 0
0 0
0 0
0 0
0 0
0 0
0 0
0 0
0 0
0 0
0 0
0 0
0 0
0 0
0 0
0 0
0 0
0 0
0 0
0 0
0 0
0 0
0 0
0 0
0 0
0 0
0 0
0 0
0 0
0 0
0 0
0 0
0 0
0 0
0 0
0 0
0 0
0 0
0 0
0 0
0 0
0 0
0 0
0 0
0 0
0 0
0 0
0 0
0 0
0 0
0 0
0 0
0 0
0 0
0 0
0 0
0 0
0 0
0 0
0 0
0 0
0 0
0 0
0 0
0 0
0 0
0 0
0 0
0 0
0 0
0 0
0 0
0 0
0 0
0 0
0 0
0 0
0 0
0 0
0 0
0 0
0 0
0 0
0 0
0 0
0 0
0 0
0 0
0 0
0 0
0 0
0 0
0 0
0 0
0 0
0 0
0 0
0 0
0 0
0 0
0 0
0 0
0 0
0 0
0 0
0 0
0 0
0 0
0 0
0 0
0 0
0 0
0 0
0 0
0 0
0 0
0 0
0 0
0 0
0 0
0 0
0 0
0 0
0 0
0 0
0 0
0 0
0 0
0 0
0 0
0 0
0 0
0 0
0 0
0 0
0 0
0 0
0 0
0 0
0 0
0 0
0 0
0 0
0 0
0 0
0 0
0 0
0 0
0 0
0 0
0 0
0 0
0 0
0 0
0 0
0 0
0 0
0 0
0 0
0 0
0 0
0 0
0 0
0 0
0 0
0 0
0 0
0 0
0 0
0 0
0 0
0 0
0 0
0 0
0 0
0 0
0 0
0 0
0 0
0 0
0 0
0 0
0 0
0 0
0 0
0 0
0 0
0 0
0 0
0 0
0 0
0 0
0 0
0 0
0 0
0 0
0 0
0 0
0 0
0 0
0 0
0 0
0 0
0 0
0 0
0 0
0 0
0 0
0 0
0 0
0 0
0 0
0 0
0 0
0 0
0 0
0 0
0 0
0 0
0 0
0 0
0 0
0 0
0 0
0 0
0 0
0 0
0 0
0 0
0 0
0 0
0 0
0 0
0 0
0 0
0 0
0 0
0 0
0 0
0 0
0 0
0 0
0 0
0 0
0 0
0 0
0 0
0 0
0 0
0 0
0 0
0 0
0 0
0 0
0 0
0 0
0 0
0 0
0 0
0 0
0 0
0 0
0 0
0 0
0 0
0 0
0 0
0 0
0 0
0 0
0 0
0 0
0 0
0 0
0 0
0 0
0 0
0 0
0 0
0 0
0 0
0 0
0 0
0 0
0 0
0 0
0 0
0 0
0 0
0 0
0 0
0 0
0 0
0 0
0 0
0 0
0 0
0 0
0 0
0 0
0 0
0 0
0 0
0 0
0 0
0 0
0 0
0 0
0 0
0 0
0 0
0 0
0 0
0 0
0 0
0 0
0 0
0 0
0 0
0 0
0 0
0 0
0 0
0 0
0 0
0 0
0 0
0 0
0 0
0 0
0 0
0 0
0 0
0 0
0 0
0 0
0 0
0 0
0 0
0 0
0 0
0 0
0 0
0 0
0 0
0 0
0 0
0 0
0 0
0 0
0 0
0 0
0 0
0 0
0 0
0 0
0 0
0 0
0 0
0 0
0 0
0 0
0 0
0 0
0 0
0 0
0 0
0 0
0 0
0 0
0 0
0 0
0 0
0 0
0 0
0 0
0 0
0 0
0 0
0 0
0 0
0 0
0 0
0 0
0 0
0 0
0 0
0 0
0 0
0 0
0 0
0 0
0 0
0 0
0 0
0 0
0 0
0 0
0 0
0 0
0 0
0 0
0 0
0 0
0 0
0 0
0 0
0 0
0 0
0 0
0 0
0 0
0 0
0 0
0 0
0 0
0 0
0 0
0 0
0 0
0 0
0 0
0 0
0 0
0 0
0 0
0 0
0 0
0 0
0 0
0 0
0 0
0 0
0 0
0 0
0 0
0 0
0 0
0 0
0 0
0 0
0 0
0 0
0 0
0 0
0 0
0 0
0 0
0 0
0 0
0 0
0 0
0 0
0 0
0 0
0 0
0 0
0 0
0 0
0 0
0 0
0 0
0 0
0 0
0 0
0 0
0 0
0 0
0 0
0 0
0 0
0 0
0 0
0 0
0 0
0 0
0 0
0 0
0 0
0 0
0 0
0 0
0 0
0 0
0 0
0 0
0 0
0 0
0 0
0 0
0 0
0 0
0 0
0 0
0 0
0 0
0 0
0 0
0 0
0 0
0 0
0 0
0 0
0 0
0 0
0 0
0 0
0 0
0 0
0 0
0 0
0 0
0 0
0 0
0 0
0 0
0 0
0 0
0 0
0 0
0 0
0 0
0 0
0 0
0 0
0 0
0 0
0 0
0 0
0 0
0 0
0 0
0 0
0 0
0 0
0 0
0 0
0 0
0 0
0 0
0 0
0 0
0 0
0 0
0 0
0 0
0 0
0 0
0 0
0 0
0 0
0 0
0 0
0 0
0 0
0 0
0 0
0 0
0 0
0 0
0 0
0 0
0 0
0 0
0 0
0 0
0 0
0 0
0 0
0 0
0 0
0 0
0 0
0 0
0 0
0 0
0 0
0 0
0 0
0 0
0 0
0 0
0 0
0 0
0 0
0 0
0 0
0 0
0 0
0 0
0 0
0 0
0 0
0 0
0 0
0 0
0 0
0 0
0 0
0 0
0 0
0 0
0 0
0 0
0 0
0 0
0 0
0 0
0 0
0 0
0 0
0 0
0 0
0 0
0 0
0 0
0 0
0 0
0 0
0 0
0 0
0 0
0 0
0 0
0 0
0 0
0 0
0 0
0 0
0 0
0 0
0 0
0 0
0 0
0 0
0 0
0 0
0 0
0 0
0 0
0 0
0 0
0 0
0 0
0 0
0 0
0 0
0 0
0 0
0 0
0 0
0 0
0 0
0 0
0 0
0 0
0 0
0 0
0 0
0 0
0 0
0 0
0 0
0 0
0 0
0 0
0 0
0 0
0 0
0 0
0 0
0 0
0 0
0 0
0 0
0 0
0 0
0 0
0 0
0 0
0 0
0 0
0 0
0 0
0 0
0 0
0 0
0 0
0 0
0 0
0 0
0 0
0 0
0 0
0 0
0 0
0 0
0 0
0 0
0 0
0 0
0 0
0 0
0 0
0 0
0 0
0 0
0 0
0 0
0 0
0 0
0 0
0 0
0 0
0 0
0 0
0 0
0 0
0 0
0 0
0 0
0 0
0 0
0 0
0 0
0 0
0 0
0 0
0 0
0 0
0 0
0 0
0 0
0 0
0 0
0 0
0 0
0 0
0 0
0 0
0 0
0 0
0 0
0 0
0 0
0 0
0 0
0 0
0 0
0 0
0 0
0 0
0 0
0 0
0 0
0 0
0 0
0 0
0 0
0 0
0 0
0 0
0 0
0 0
0 0
0 0
0 0
0 0
0 0
0 0
0 0
0 0
0 0
0 0
0 0
0 0
0 0
0 0
0 0
0 0
0 0
0 0
0 0
0 0
0 0
0 0
0 0
0 0
0 0
0 0
0 0
0 0
0 0
0 0
0 0
0 0
0 0
0 0
0 0
0 0
0 0
0 0
0 0
0 0
0 0
0 0
0 0
0 0
0 0
0 0
0 0
0 0
0 0
0 0
0 0
0 0
0 0
0 0
0 0
0 0
0 0
0 0
0 0
0 0
0 0
0 0
0 0
0 0
0 0
0 0
0 0
0 0
0 0
0 0
0 0
0 0
0 0
0 0
0 0
0 0
0 0
0 0
0 0
0 0
0 0
0 0
0 0
0 0
0 0
0 0
0 0
0 0
0 0
0 0
0 0
0 0
0 0
0 0
0 0
0 0
0 0
0 0
0 0
0 0
0 0
0 0
0 0
0 0
0 0
0 0
0 0
0 0
0 0
0 0
0 0
0 0
0 0
0 0
0 0
0 0
0 0
0 0
0 0
0 0
0 0
0 0
0 0
0 0
0 0
0 0
0 0
0 0
0 0
0 0
0 0
0 0
0 0
0 0
0 0
0 0
0 0
0 0
0 0
0 0
0 0
0 0
0 0
0 0
0 0
0 0
0 0
0 0
0 0
0 0
0 0
0 0
0 0
0 0
0 0
0 0
0 0
0 0
0 0
0 0
0 0
0 0
0 0
0 0
0 0
0 0
0 0
0 0
0 0
0 0
0 0
0 0
0 0
0 0
0 0
0 0
0 0
0 0
0 0
0 0
0 0
0 0
0 0
0 0
0 0
0 0
0 0
0 0
0 0
0 0
0 0
0 0
0 0
0 0
0 0
0 0
0 0
0 0
0 0
0 0
0 0
0 0
0 0
0 0
0 0
0 0
0 0
0 0
0 0
0 0
0 0
0 0
0 0
0 0
0 0
0 0
0 0
0 0
0 0
0 0
0 0
0 0
0 0
0 0
0 0
0 0
0 0
0 0
0 0
0 0
0 0
0 0
0 0
0 0
0 0
0 0
0 0
0 0
0 0
0 0
0 0
0 0
0 0
0 0
0 0
0 0
0 0
0 0
0 0
0 0
0 0
0 0
0 0
0 0
0 0
0 0
0 0
0 0
0 0
0 0
0 0
0 0
0 0
0 0
0 0
0 0
0 0
0 0
0 0
0 0
0 0
0 0
0 0
0 0
0 0
0 0
0 0
0 0
0 0
0 0
0 0
0 0
0 0
0 0
0 0
0 0
0 0
0 0
0 0
0 0
0 0
0 0
0 0
0 0
0 0
0 0
0 0
0 0
0 0
0 0
0 0
0 0
0 0
0 0
0 0
0 0
0 0
0 0
0 0
0 0
0 0
0 0
0 0
0 0
0 0
0 0
0 0
0 0
0 0
0 0
0 0
0 0
0 0
0 0
0 0
0 0
0 0
0 0
0 0
0 0
0 0
0 0
0 0
0 0
0 0
0 0
0 0
0 0
0 0
0 0
0 0
0 0
0 0
0 0
0 0
0 0
0 0
0 0
0 0
0 0
0 0
0 0
0 0
0 0
0 0
0 0
0 0
0 0
0 0
0 0
0 0
0 0
0 0
0 0
0 0
0 0
0 0
0 0
0 0
0 0
0 0
0 0
0 0
0 0
0 0
0 0
0 0
0 0
0 0
0 0
0 0
0 0
0 0
0 0
0 0
0 0
0 0
0 0
0 0
0 0
0 0
0 0
0 0
0 0
0 0
0 0
0 0
0 0
0 0
0 0
0 0
0 0
0 0
0 0
0 0
0 0
0 0
0 0
0 0
0 0
0 0
0 0
0 0
0 0
0 0
0 0
0 0
0 0
0 0
0 0
0 0
0 0
0 0
0 0
0 0
0 0
0 0
0 0
0 0
0 0
0 0
0 0
0 0
0 0
0 0
0 0
0 0
0 0
0 0
0 0
0 0
0 0
0 0
0 0
0 0
0 0
0 0
0 0
0 0
0 0
0 0
0 0
0 0
0 0
0 0
0 0
0 0
0 0
0 0
0 0
0 0
0 0
0 0
0 0
0 0
0 0
0 0
0 0
0 0
0 0
0 0
0 0
0 0
0 0
0 0
0 0
0 0
0 0
0 0
0 0
0 0
0 0
0 0
0 0
0 0
0 0
0 0
0 0
0 0
0 0
0 0
0 0
0 0
0 0
0 0
0 0
0 0
0 0
0 0
0 0
0 0
0 0
0 0
0 0
0 0
0 0
0 0
0 0
0 0
0 0
0 0
0 0
0 0
0 0
0 0
0 0
0 0
0 0
0 0
0 0
0 0
0 0
0 0
0 0
0 0
0 0
0 0
0 0
0 0
0 0
0 0
0 0
0 0
0 0
0 0
0 0
0 0
0 0
0 0
0 0
0 0
0 0
0 0
0 0
0 0
0 0
0 0
0 0
0 0
0 0
0 0
0 0
0 0
0 0
0 0
0 0
0 0
0 0
0 0
0 0
0 0
0 0
0 0
0 0
0 0
0 0
0 0
0 0
0 0
0 0
0 0
0 0
0 0
0 0
0 0
0 0
0 0
0 0
0 0
0 0
0 0
0 0
0 0
0 0
0 0
0 0
0 0
0 0
0 0
0 0
0 0
0 0
0 0
0 0
0 0
0 0
0 0
0 0
0 0
0 0
0 0
0 0
0 0
0 0
0 0
0 0
0 0
0 0
0 0
0 0
0 0
0 0
0 0
0 0
0 0
0 0
0 0
0 0
0 0
0 0
0 0
0 0
0 0
0 0
0 0
0 0
0 0
0 0
0 0
0 0
0 0
0 0
0 0
0 0
0 0
0 0
0 0
0 0
0 0
0 0
0 0
0 0
0 0
0 0
0 0
0 0
0 0
0 0
0 0
0 0
0 0
0 0
0 0
0 0
0 0
0 0
0 0
0 0
0 0
0 0
0 0
0 0
0 0
0 0
0 0
0 0
0 0
0 0
0 0
0 0
0 0
0 0
0 0
0 0
0 0
0 0
0 0
0 0
0 0
0 0
0 0
0 0
0 0
0 0
0 0
0 0
0 0
0 0
0 0
0 0
0 0
0 0
0 0
0 0
0 0
0 0
0 0
0 0
0 0
0 0
0 0
0 0
0 0
0 0
0 0
0 0
0 0
0 0
0 0
0 0
0 0
0 0
0 0
0 0
0 0
0 0
0 0
0 0
0 0
0 0
0 0
0 0
0 0
0 0
0 0
0 0
0 0
0 0
0 0
0 0
0 0
0 0
0 0
0 0
0 0
0 0
0 0
0 0
0 0
0 0
0 0
0 0
0 0
0 0
0 0
0 0
0 0
0 0
0 0
0 0
0 0
0 0
0 0
0 0
0 0
0 0
0 0
0 0
0 0
0 0
0 0
0 0
0 0
0 0
0 0
0 0
0 0
0 0
0 0
0 0
0 0
0 0
0 0
0 0
0 0
0 0
0 0
0 0
0 0
0 0
0 0
0 0
0 0
0 0
0 0
0 0
0 0
0 0
0 0
0 0
0 0
0 0
0 0
0 0
0 0
0 0
0 0
0 0
0 0
0 0
0 0
0 0
0 0
0 0
0 0
0 0
0 0
0 0
0 0
0 0
0 0
0 0
0 0
0 0
0 0
0 0
0 0
0 0
0 0
0 0
0 0
0 0
0 0
0 0
0 0
0 0
0 0
0 0
0 0
0 0
0 0
0 0
0 0
0 0
0 0
0 0
0 0
0 0
0 0
0 0
0 0
0 0
0 0
0 0
0 0
0 0
0 0
0 0
0 0
0 0
0 0
0 0
0 0
0 0
0 0
0 0
0 0
0 0
0 0
0 0
0 0
0 0
0 0
0 0
0 0
0 0
0 0
0 0
0 0
0 0
0 0
0 0
0 0
0 0
0 0
0 0
0 0
0 0
0 0
0 0
0 0
0 0
0 0
0 0
0 0
0 0
0 0
0 0
0 0
0 0
0 0
0 0
0 0
0 0
0 0
0 0
0 0
0 0
0 0
0 0
0 0
0 0
0 0
0 0
0 0
0 0
0 0
0 0
0 0
0 0
0 0
0 0
0 0
0 0
0 0
0 0
0 0
0 0
0 0
0 0
0 0
0 0
0 0
0 0
0 0
0 0
0 0
0 0
0 0
0 0
0 0
0 0
0 0
0 0
0 0
0 0
0 0
0 0
0 0
0 0
0 0
0 0
0 0
0 0
0 0
0 0
0 0
0 0
0 0
0 0
0 0
0 0
0 0
0 0
0 0
0 0
0 0
0 0
0 0
0 0
0 0
0 0
0 0
0 0
0 0
0 0
0 0
0 0
0 0
0 0
0 0
0 0
0 0
0 0
0 0
0 0
0 0
0 0
0 0
0 0
0 0
0 0
0 0
0 0
0 0
0 0
0 0
0 0
0 0
0 0
0 0
0 0
0 0
0 0
0 0
0 0
0 0
0 0
0 0
0 0
0 0
0 0
0 0
0 0
0 0
0 0
0 0
0 0
0 0
0 0
0 0
0 0
0 0
0 0
0 0
0 0
0 0
0 0
0 0
0 0
0 0
0 0
0 0
0 0
0 0
0 0
0 0
0 0
0 0
0 0
0 0
0 0
0 0
0 0
0 0
0 0
0 0
0 0
0 0
0 0
0 0
0 0
0 0
0 0
0 0
0 0
0 0
0 0
0 0
0 0
0 0
0 0
0 0
0 0
0 0
0 0
0 0
0 0
0 0
0 0
0 0
0 0
0 0
0 0
0 0
0 0
0 0
0 0
0 0
0 0
0 0
0 0
0 0
0 0
0 0
0 0
0 0
0 0
0 0
0 0
0 0
0 0
0 0
0 0
0 0
0 0
0 0
0 0
0 0
0 0
0 0
0 0
0 0
0 0
0 0
0 0
0 0
0 0
0 0
0 0
0 0
0 0
0 0
0 0
0 0
0 0
0 0
0 0
0 0
0 0
0 0
0 0
0 0
0 0
0 0
0 0
0 0
0 0
0 0
0 0
0 0
0 0
0 0
0 0
0 0
0 0
0 0
0 0
0 0
0 0
0 0
0 0
0 0
0 0
0 0
0 0
0 0
0 0
0 0
0 0
0 0
0 0
0 0
0 0
0 0
0 0
0 0
0 0
0 0
0 0
0 0
0 0
0 0
0 0
0 0
0 0
0 0
0 0
0 0
0 0
0 0
0 0
0 0
0 0
0 0
0 0
0 0
0 0
0 0
0 0
0 0
0 0
0 0
0 0
0 0
0 0
0 0
0 0
0 0
0 0
0 0
0 0
0 0
0 0
0 0
0 0
0 0
0 0
0 0
0 0
0 0
0 0
0 0
0 0
0 0
0 0
0 0
0 0
0 0
0 0
0 0
0 0
0 0
0 0
0 0
0 0
0 0
0 0
0 0
0 0
0 0
0 0
0 0
0 0
0 0
0 0
0 0
0 0
0 0
0 0
0 0
0 0
0 0
0 0
0 0
0 0
0 0
0 0
0 0
0 0
0 0
0 0
0 0
0 0
0 0
0 0
0 0
0 0
0 0
0 0
0 0
0 0
0 0
0 0
0 0
0 0
0 0
0 0
0 0
0 0
0 0
0 0
0 0
0 0
0 0
0 0
0 0
0 0
0 0
0 0
0 0
0 0
0 0
0 0
0 0
0 0
0 0
0 0
0 0
0 0
0 0
0 0
0 0
0 0
0 0
0 0
0 0
0 0
0 0
0 0
0 0
0 0
0 0
0 0
0 0
0 0
0 0
0 0
0 0
0 0
0 0
0 0
0 0
0 0
0 0
0 0
0 0
0 0
0 0
0 0
0 0
0 0
0 0
0 0
0 0
0 0
0 0
0 0
0 0
0 0
0 0
0 0
0 0
0 0
0 0
0 0
0 0
0 0
0 0
0 0
0 0
0 0
0 0
0 0
0 0
0 0
0 0
0 0
0 0
0 0
0 0
0 0
0 0
0 0
0 0
0 0
0 0
0 0
0 0
0 0
0 0
0 0
0 0
0 0
0 0
0 0
0 0
0 0
0 0
0 0
0 0
0 0
0 0
0 0
0 0
0 0
0 0
0 0
0 0
0 0
0 0
0 0
0 0
0 0
0 0
0 0
0 0
0 0
0 0
0 0
0 0
0 0
0 0
0 0
0 0
0 0
0 0
0 0
0 0
0 0
0 0
0 0
0 0
0 0
0 0
0 0
0 0
0 0
0 0
0 0
0 0
0 0
0 0
0 0
0 0
0 0
0 0
0 0
0 0
0 0
0 0
0 0
0 0
0 0
0 0
0 0
0 0
0 0
0 0
0 0
0 0
0 0
0 0
0 0
0 0
0 0
0 0
0 0
0 0
0 0
0 0
0 0
0 0
0 0
0 0
0 0
0 0
0 0
0 0
0 0
0 0
0 0
0 0
0 0
0 0
0 0
0 0
0 0
0 0
0 0
0 0
0 0
0 0
0 0
0 0
0 0
0 0
0 0
0 0
0 0
0 0
0 0
0 0
0 0
0 0
0 0
0 0
0 0
0 0
0 0
0 0
0 0
0 0
0 0
0 0
0 0
0 0
0 0
0 0
0 0
0 0
0 0
0 0
0 0
0 0
0 0
0 0
0 0
0 0
0 0
0 0
0 0
0 0
0 0
0 0
0 0
0 0
0 0
0 0
0 0
0 0
0 0
0 0
0 0
0 0
0 0
0 0
0 0
0 0
0 0
0 0
0 0
0 0
0 0
0 0
0 0
0 0
0 0
0 0
0 0
0 0
0 0
0 0
0 0
0 0
0 0
0 0
0 0
0 0
0 0
0 0
0 0
0 0
0 0
0 0
0 0
0 0
0 0
0 0
0 0
0 0
0 0
0 0
0 0
0 0
0 0
0 0
0 0
0 0
0 0
0 0
0 0
0 0
0 0
0 0
0 0
0 0
0 0
0 0
0 0
0 0
0 0
0 0
0 0
0 0
0 0
0 0
0 0
0 0
0 0
0 0
0 0
0 0
0 0
0 0
0 0
0 0
0 0
0 0
0 0
0 0
0 0
0 0
0 0
0 0
0 0
0 0
0 0
0 0
0 0
0 0
0 0
0 0
0 0
0 0
0 0
0 0
0 0
0 0
0 0
0 0
0 0
0 0
0 0
0 0
0 0
0 0
0 0
0 0
0 0
0 0
0 0
0 0
0 0
0 0
0 0
0 0
0 0
0 0
0 0
0 0
0 0
0 0
0 0
0 0
0 0
0 0
0 0
0 0
0 0
0 0
0 0
0 0
0 0
0 0
0 0
0 0
0 0
0 0
0 0
0 0
0 0
0 0
0 0
0 0
0 0
0 0
0 0
0 0
0 0
0 0
0 0
0 0
0 0
0 0
0 0
0 0
0 0
0 0
0 0
0 0
0 0
0 0
0 0
0 0
0 0
0 0
0 0
0 0
0 0
0 0
0 0
0 0
0 0
0 0
0 0
0 0
0 0
0 0
0 0
0 0
0 0
0 0
0 0
0 0
0 0
0 0
0 0
0 0
0 0
0 0
0 0
0 0
0 0
0 0
0 0
0 0
0 0
0 0
0 0
0 0
0 0
0 0
0 0
0 0
0 0
0 0
0 0
0 0
0 0
0 0
0 0
0 0
0 0
0 0
0 0
0 0
0 0
0 0
0 0
0 0
0 0
0 0
0 0
0 0
0 0
0 0
0 0
0 0
0 0
0 0
0 0
0 0
0 0
0 0
0 0
0 0
0 0
0 0
0 0
0 0
0 0
0 0
0 0
0 0
0 0
0 0
0 0
0 0
0 0
0 0
0 0
0 0
0 0
0 0
0 0
0 0
0 0
0 0
0 0
0 0
0 0
0 0
0 0
0 0
0 0
0 0
0 0
0 0
0 0
0 0
0 0
0 0
0 0
0 0
0 0
0 0
0 0
0 0
0 0
0 0
0 0
0 0
0 0
0 0
0 0
0 0
0 0
0 0
0 0
0 0
0 0
0 0
0 0
0 0
0 0
0 0
0 0
0 0
0 0
0 0
0 0
0 0
0 0
0 0
0 0
0 0
0 0
0 0
0 0
0 0
0 0
0 0
0 0
0 0
0 0
0 0
0 0
0 0
0 0
0 0
0 0
0 0
0 0
0 0
0 0
0 0
0 0
0 0
0 0
0 0
0 0
0 0
0 0
0 0
0 0
0 0
0 0
0 0
0 0
0 0
0 0
0 0
0 0
0 0
0 0
0 0
0 0
0 0
0 0
0 0
0 0
0 0
0 0
0 0
0 0
0 0
0 0
0 0
0 0
0 0
0 0
0 0
0 0
0 0
0 0
0 0
0 0
0 0
0 0
0 0
0 0
0 0
0 0
0 0
0 0
0 0
0 0
0 0
0 0
0 0
0 0
0 0
0 0
0 0
0 0
0 0
0 0
0 0
0 0
0 0
0 0
0 0
0 0
0 0
0 0
0 0
0 0
0 0
0 0
0 0
0 0
0 0
0 0
0 0
0 0
0 0
0 0
0 0
0 0
0 0
0 0
0 0
0 0
0 0
0 0
0 0
0 0
0 0
0 0
0 0
0 0
0 0
0 0
0 0
0 0
0 0
0 0
0 0
0 0
0 0
0 0
0 0
0 0
0 0
0 0
0 0
0 0
0 0
0 0
0 0
0 0
0 0
0 0
0 0
0 0
0 0
0 0
0 0
0 0
0 0
0 0
0 0
0 0
0 0
0 0
0 0
0 0
0 0
0 0
0 0
0 0
0 0
0 0
0 0
0 0
0 0
0 0
0 0
0 0
0 0
0 0
0 0
0 0
0 0
0 0
0 0
0 0
0 0
0 0
0 0
0 0
0 0
0 0
0 0
0 0
0 0
0 0
0 0
0 0
0 0
0 0
0 0
0 0
0 0
0 0
0 0
0 0
0 0
0 0
0 0
0 0
0 0
0 0
0 0
0 0
0 0
0 0
0 0
0 0
0 0
0 0
0 0
0 0
0 0
0 0
0 0
0 0
0 0
0 0
0 0
0 0
0 0
0 0
0 0
0 0
0 0
0 0
0 0
0 0
0 0
0 0
0 0
0 0
0 0
0 0
0 0
0 0
0 0
0 0
0 0
0 0
0 0
0 0
0 0
0 0
0 0
0 0
0 0
0 0
0 0
0 0
0 0
0 0
0 0
0 0
0 0
0 0
0 0
0 0
0 0
0 0
0 0
0 0
0 0
0 0
0 0
0 0
0 0
0 0
0 0
0 0
0 0
0 0
0 0
0 0
0 0
0 0
0 0
0 0
0 0
0 0
0 0
0 0
0 0
0 0
0 0
0 0
0 0
0 0
0 0
0 0
0 0
0 0
0 0
0 0
0 0
0 0
0 0
0 0
0 0
0 0
0 0
0 0
0 0
0 0
0 0
0 0
0 0
0 0
0 0
0 0
0 0
0 0
0 0
0 0
0 0
0 0
0 0
0 0
0 0
0 0
0 0
0 0
0 0
0 0
0 0
0 0
0 0
0 0
0 0
0 0
0 0
0 0
0 0
0 0
0 0
0 0
0 0
0 0
0 0
0 0
0 0
0 0
0 0
0 0
0 0
0 0
0 0
0 0
0 0
0 0
0 0
0 0
0 0
0 0
0 0
0 0
0 0
0 0
0 0
0 0
0 0
0 0
0 0
0 0
0 0
0 0
0 0
0 0
0 0
0 0
0 0
0 0
0 0
0 0
0 0
0 0
0 0
0 0
0 0
0 0
0 0
0 0
0 0
0 0
0 0
0 0
0 0
0 0
0 0
0 0
0 0
0 0
0 0
0 0
0 0
0 0
0 0
0 0
0 0
0 0
0 0
0 0
0 0
0 0
0 0
0 0
0 0
0 0
0 0
0 0
0 0
0 0
0 0
0 0
0 0
0 0
0 0
0 0
0 0
0 0
0 0
0 0
0 0
0 0
0 0
0 0
0 0
0 0
0 0
0 0
0 0
0 0
0 0
0 0
0 0
0 0
0 0
0 0
0 0
0 0
0 0
0 0
0 0
0 0
0 0
0 0
0 0
0 0
0 0
0 0
0 0
0 0
0 0
0 0
0 0
0 0
0 0
0 0
0 0
0 0
0 0
0 0
0 0
0 0
0 0
0 0
0 0
0 0
0 0
0 0
0 0
0 0
0 0
0 0
0 0
0 0
0 0
0 0
0 0
0 0
0 0
0 0
0 0
0 0
0 0
0 0
0 0
0 0
0 0
0 0
0 0
0 0
0 0
0 0
0 0
0 0
0 0
0 0
0 0
0 0
0 0
0 0
0 0
0 0
0 0
0 0
0 0
0 0
0 0
0 0
0 0
0 0
0 0
0 0
0 0
0 0
0 0
0 0
0 0
0 0
0 0
0 0
0 0
0 0
0 0
0 0
0 0
0 0
0 0
0 0
0 0
0 0
0 0
0 0
0 0
0 0
0 0
0 0
0 0
0 0
0 0
0 0
0 0
0 0
0 0
0 0
0 0
0 0
0 0
0 0
0 0
0 0
0 0
0 0
0 0
0 0
0 0
0 0
0 0
0 0
0 0
0 0
0 0
0 0
0 0
0 0
0 0
0 0
0 0
0 0
0 0
0 0
0 0
0 0
0 0
0 0
0 0
0 0
0 0
0 0
0 0
0 0
0 0
0 0
0 0
0 0
0 0
0 0
0 0
0 0
0 0
0 0
0 0
0 0
0 0
0 0
0 0
0 0
0 0
0 0
0 0
0 0
0 0
0 0
0 0
0 0
0 0
0 0
0 0
0 0
0 0
0 0
0 0
0 0
0 0
0 0
0 0
0 0
0 0
0 0
0 0
0 0
0 0
0 0
0 0
0 0
0 0
0 0
0 0
0 0
0 0
0 0
0 0
0 0
0 0
0 0
0 0
0 0
0 0
0 0
0 0
0 0
0 0
0 0
0 0
0 0
0 0
0 0
0 0
0 0
0 0
0 0
0 0
0 0
0 0
0 0
0 0
0 0
0 0
0 0
0 0
0 0
0 0
0 0
0 0
0 0
0 0
0 0
0 0
0 0
0 0
0 0
0 0
0 0
0 0
0 0
0 0
0 0
0 0
0 0
0 0
0 0
0 0
0 0
0 0
0 0
0 0
0 0
0 0
0 0
0 0
0 0
0 0
0 0
0 0
0 0
0 0
0 0
0 0
0 0
0 0
0 0
0 0
0 0
0 0
0 0
0 0
0 0
0 0
0 0
0 0
0 0
0 0
0 0
0 0
0 0
0 0
0 0
0 0
0 0
0 0
0 0
0 0
0 0
0 0
0 0
0 0
0 0
0 0
0 0
0 0
0 0
0 0
0 0
0 0
0 0
0 0
0 0
0 0
0 0
0 0
0 0
0 0
0 0
0 0
0 0
0 0
0 0
0 0
0 0
0 0
0 0
0 0
0 0
0 0
0 0
0 0
0 0
0 0
0 0
0 0
0 0
0 0
0 0
0 0
0 0
0 0
0 0
0 0
0 0
0 0
0 0
0 0
0 0
0 0
0 0
0 0
0 0
0 0
0 0
0 0
0 0
0 0
0 0
0 0
0 0
0 0
0 0
0 0
0 0
0 0
0 0
0 0
0 0
0 0
0 0
0 0
0 0
0 0
0 0
0 0
0 0
0 0
0 0
0 0
0 0
0 0
0 0
0 0
0 0
0 0
0 0
0 0
0 0
0 0
0 0
0 0
0 0
0 0
0 0
0 0
0 0
0 0
0 0
0 0
0 0
0 0
0 0
0 0
0 0
0 0
0 0
0 0
0 0
0 0
0 0
0 0
0 0
0 0
0 0
0 0
0 0
0 0
0 0
0 0
0 0
0 0
0 0
0 0
0 0
0 0
0 0
0 0
0 0
0 0
0 0
0 0
0 0
0 0
0 0
0 0
0 0
0 0
0 0
0 0
0 0
0 0
0 0
0 0
0 0
0 0
0 0
0 0
0 0
0 0
0 0
0 0
0 0
0 0
0 0
0 0
0 0
0 0
0 0
0 0
0 0
0 0
0 0
0 0
0 0
0 0
0 0
0 0
0 0
0 0
0 0
0 0
0 0
0 0
0 0
0 0
0 0
0 0
0 0
0 0
0 0
0 0
0 0
0 0
0 0
0 0
0 0
0 0
0 0
0 0
0 0
0 0
0 0
0 0
0 0
0 0
0 0
0 0
0 0
0 0
0 0
0 0
0 0
0 0
0 0
0 0
0 0
0 0
0 0
0 0
0 0
0 0
0 0
0 0
0 0
0 0
0 0
0 0
0 0
0 0
0 0
0 0
0 0
0 0
0 0
0 0
0 0
0 0
0 0
0 0
0 0
0 0
0 0
0 0
0 0
0 0
0 0
0 0
0 0
0 0
0 0
0 0
0 0
0 0
0 0
0 0
0 0
0 0
0 0
0 0
0 0
0 0
0 0
0 0
0 0
0 0
0 0
0 0
0 0
0 0
0 0
0 0
0 0
0 0
0 0
0 0
0 0
0 0
0 0
0 0
0 0
0 0
0 0
0 0
0 0
0 0
0 0
0 0
0 0
0 0
0 0
0 0
0 0
0 0
0 0
0 0
0 0
0 0
0 0
0 0
0 0
0 0
0 0
0 0
0 0
0 0
0 0
0 0
0 0
0 0
0 0
0 0
0 0
0 0
0 0
0 0
0 0
0 0
0 0
0 0
0 0
0 0
0 0
0 0
0 0
0 0
0 0
0 0
0 0
0 0
0 0
0 0
0 0
0 0
0 0
0 0
0 0
0 0
0 0
0 0
0 0
0 0
0 0
0 0
0 0
0 0
0 0
0 0
0 0
0 0
0 0
0 0
0 0
0 0
0 0
0 0
0 0
0 0
0 0
0 0
0 0
0 0
0 0
0 0
0 0
0 0
0 0
0 0
0 0
0 0
0 0
0 0
0 0
0 0
0 0
0 0
0 0
0 0
0 0
0 0
0 0
0 0
0 0
0 0
0 0
0 0
0 0
0 0
0 0
0 0
0 0
0 0
0 0
0 0
0 0
0 0
0 0
0 0
0 0
0 0
0 0
0 0
0 0
0 0
0 0
0 0
0 0
0 0
0 0
0 0
0 0
0 0
0 0
0 0
0 0
0 0
0 0
0 0
0 0
0 0
0 0
0 0
0 0
0 0
0 0
0 0
0 0
0 0
0 0
0 0
0 0
0 0
0 0
0 0
0 0
0 0
0 0
0 0
0 0
0 0
0 0
0 0
0 0
0 0
0 0
0 0
0 0
0 0
0 0
0 0
0 0
0 0
0 0
0 0
0 0
0 0
0 0
0 0
0 0
0 0
0 0
0 0
0 0
0 0
0 0
0 0
0 0
0 0
0 0
0 0
0 0
0 0
0 0
0 0
0 0
0 0
0 0
0 0
0 0
0 0
0 0
0 0
0 0
0 0
0 0
0 0
0 0
0 0
0 0
0 0
0 0
0 0
0 0
0 0
0 0
0 0
0 0
0 0
0 0
0 0
0 0
0 0
0 0
0 0
0 0
0 0
0 0
0 0
0 0
0 0
0 0
0 0
0 0
0 0
0 0
0 0
0 0
0 0
0 0
0 0
0 0
0 0
0 0
0 0
0 0
0 0
0 0
0 0
0 0
0 0
0 0
0 0
0 0
0 0
0 0
0 0
0 0
0 0
0 0
0 0
0 0
0 0
0 0
0 0
0 0
0 0
0 0
0 0
0 0
0 0
0 0
0 0
0 0
0 0
0 0
0 0
0 0
0 0
0 0
0 0
0 0
0 0
0 0
0 0
0 0
0 0
0 0
0 0
0 0
0 0
0 0
0 0
0 0
0 0
0 0
0 0
0 0
0 0
0 0
0 0
0 0
0 0
0 0
0 0
0 0
0 0
0 0
0 0
0 0
0 0
0 0
0 0
0 0
0 0
0 0
0 0
0 0
0 0
0 0
0 0
0 0
0 0
0 0
0 0
0 0
0 0
0 0
0 0
0 0
0 0
0 0
0 0
0 0
0 0
0 0
0 0
0 0
0 0
0 0
0 0
0 0
0 0
0 0
0 0
0 0
0 0
0 0
0 0
0 0
0 0
0 0
0 0
0 0
0 0
0 0
0 0
0 0
0 0
0 0
0 0
0 0
0 0
0 0
0 0
0 0
0 0
0 0
0 0
0 0
0 0
0 0
0 0
0 0
0 0
0 0
0 0
0 0
0 0
0 0
0 0
0 0
0 0
0 0
0 0
0 0
0 0
0 0
0 0
0 0
0 0
0 0
0 0
0 0
0 0
0 0
0 0
0 0
0 0
0 0
0 0
0 0
0 0
0 0
0 0
0 0
0 0
0 0
0 0
0 0
0 0
0 0
0 0
0 0
0 0
0 0
0 0
0 0
0 0
0 0
0 0
0 0
0 0
0 0
0 0
0 0
0 0
0 0
0 0
0 0
0 0
0 0
0 0
0 0
0 0
0 0
0 0
0 0
0 0
0 0
0 0
0 0
0 0
0 0
0 0
0 0
0 0
0 0
0 0
0 0
0 0
0 0
0 0
0 0
0 0
0 0
0 0
0 0
0 0
0 0
0 0
0 0
0 0
0 0
0 0
0 0
0 0
0 0
0 0
0 0
0 0
0 0
0 0
0 0
0 0
0 0
0 0
0 0
0 0
0 0
0 0
0 0
0 0
0 0
0 0
0 0
0 0
0 0
0 0
0 0
0 0
0 0
0 0
0 0
0 0
0 0
0 0
0 0
0 0
0 0
0 0
0 0
0 0
0 0
0 0
0 0
0 0
0 0
0 0
0 0
0 0
0 0
0 0
0 0
0 0
0 0
0 0
0 0
0 0
0 0
0 0
0 0
0 0
0 0
0 0
0 0
0 0
0 0
0 0
0 0
0 0
0 0
0 0
0 0
0 0
0 0
0 0
0 0
0 0
0 0
0 0
0 0
0 0
0 0
0 0
0 0
0 0
0 0
0 0
0 0
0 0
0 0
0 0
0 0
0 0
0 0
0 0
0 0
0 0
0 0
0 0
0 0
0 0
0 0
0 0
0 0
0 0
0 0
0 0
0 0
0 0
0 0
0 0
0 0
0 0
0 0
0 0
0 0
0 0
0 0
0 0
0 0
0 0
0 0
0 0
0 0
0 0
0 0
0 0
0 0
0 0
0 0
0 0
0 0
0 0
0 0
0 0
0 0
0 0
0 0
0 0
0 0
0 0
0 0
0 0
0 0
0 0
0 0
0 0
0 0
0 0
0 0
0 0
0 0
0 0
0 0
0 0
0 0
0 0
0 0
0 0
0 0
0 0
0 0
0 0
0 0
0 0
0 0
0 0
0 0
0 0
0 0
0 0
0 0
0 0
0 0
0 0
0 0
0 0
0 0
0 0
0 0
0 0
0 0
0 0
0 0
0 0
0 0
0 0
0 0
0 0
0 0
0 0
0 0
0 0
0 0
0 0
0 0
0 0
0 0
0 0
0 0
0 0
0 0
0 0
0 0
0 0
0 0
0 0
0 0
0 0
0 0
0 0
0 0
0 0
0 0
0 0
0 0
0 0
0 0
0 0
0 0
0 0
0 0
0 0
0 0
0 0
0 0
0 0
0 0
0 0
0 0
0 0
0 0
0 0
0 0
0 0
0 0
0 0
0 0
0 0
0 0
0 0
0 0
0 0
0 0
0 0
0 0
0 0
0 0
0 0
0 0
0 0
0 0
0 0
0 0
0 0
0 0
0 0
0 0
0 0
0 0
0 0
0 0
0 0
0 0
0 0
0 0
0 0
0 0
0 0
0 0
0 0
0 0
0 0
0 0
0 0
0 0
0 0
0 0
0 0
0 0
0 0
0 0
0 0
0 0
0 0
0 0
0 0
0 0
0 0
0 0
0 0
0 0
0 0
0 0
0 0
0 0
0 0
0 0
0 0
0 0
0 0
0 0
0 0
0 0
0 0
0 0
0 0
0 0
0 0
0 0
0 0
0 0
0 0
0 0
0 0
0 0
0 0
0 0
0 0
0 0
0 0
0 0
0 0
0 0
0 0
0 0
0 0
0 0
0 0
0 0
0 0
0 0
0 0
0 0
0 0
0 0
0 0
0 0
0 0
0 0
0 0
0 0
0 0
0 0
0 0
0 0
0 0
0 0
0 0
0 0
0 0
0 0
0 0
0 0
0 0
0 0
0 0
0 0
0 0
0 0
0 0
0 0
0 0
0 0
0 0
0 0
0 0
0 0
0 0
0 0
0 0
0 0
0 0
0 0
0 0
0 0
0 0
0 0
0 0
0 0
0 0
0 0
0 0
0 0
0 0
0 0
0 0
0 0
0 0
0 0
0 0
0 0
0 0
0 0
0 0
0 0
0 0
0 0
0 0
0 0
0 0
0 0
0 0
0 0
0 0
0 0
0 0
0 0
0 0
0 0
0 0
0 0
0 0
0 0
0 0
0 0
0 0
0 0
0 0
0 0
0 0
0 0
0 0
0 0
0 0
0 0
0 0
0 0
0 0
0 0
0 0
0 0
0 0
0 0
0 0
0 0
0 0
0 0
0 0
0 0
0 0
0 0
0 0
0 0
0 0
0 0
0 0
0 0
0 0
0 0
0 0
0 0
0 0
0 0
0 0
0 0
0 0
0 0
0 0
0 0
0 0
0 0
0 0
0 0
0 0
0 0
0 0
0 0
0 0
0 0
0 0
0 0
0 0
0 0
0 0
0 0
0 0
0 0
0 0
0 0
0 0
0 0
0 0
0 0
0 0
0 0
0 0
0 0
0 0
0 0
0 0
0 0
0 0
0 0
0 0
0 0
0 0
0 0
0 0
0 0
0 0
0 0
0 0
0 0
0 0
0 0
0 0
0 0
0 0
0 0
0 0
0 0
0 0
0 0
0 0
0 0
0 0
0 0
0 0
0 0
0 0
0 0
0 0
0 0
0 0
0 0
0 0
0 0
0 0
0 0
0 0
0 0
0 0
0 0
0 0
0 0
0 0
0 0
0 0
0 0
0 0
0 0
0 0
0 0
0 0
0 0
0 0
0 0
0 0
0 0
0 0
0 0
0 0
0 0
0 0
0 0
0 0
0 0
0 0
0 0
0 0
0 0
0 0
0 0
0 0
0 0
0 0
0 0
0 0
0 0
0 0
0 0
0 0
0 0
0 0
0 0
0 0
0 0
0 0
0 0
0 0
0 0
0 0
0 0
0 0
0 0
0 0
0 0
0 0
0 0
0 0
0 0
0 0
0 0
0 0
0 0
0 0
0 0
0 0
0 0
0 0
0 0
0 0
0 0
0 0
0 0
0 0
0 0
0 0
0 0
0 0
0 0
0 0
0 0
0 0
0 0
0 0
0 0
0 0
0 0
0 0
0 0
0 0
0 0
0 0
0 0
0 0
0 0
0 0
0 0
0 0
0 0
0 0
0 0
0 0
0 0
0 0
0 0
0 0
0 0
0 0
0 0
0 0
0 0
0 0
0 0
0 0
0 0
0 0
0 0
0 0
0 0
0 0
0 0
0 0
0 0
0 0
0 0
0 0
0 0
0 0
0 0
0 0
0 0
0 0
0 0
0 0
0 0
0 0
0 0
0 0
0 0
0 0
0 0
0 0
0 0
0 0
0 0
0 0
0 0
0 0
0 0
0 0
0 0
0 0
0 0
0 0
0 0
0 0
0 0
0 0
0 0
0 0
0 0
0 0
0 0
0 0
0 0
0 0
0 0
0 0
0 0
0 0
0 0
0 0
0 0
0 0
0 0
0 0
0 0
0 0
0 0
0 0
0 0
0 0
0 0
0 0
0 0
0 0
0 0
0 0
0 0
0 0
0 0
0 0
0 0
0 0
0 0
0 0
0 0
0 0
0 0
0 0
0 0
0 0
0 0
0 0
0 0
0 0
0 0
0 0
0 0
0 0
0 0
0 0
0 0
0 0
0 0
0 0
0 0
0 0
0 0
0 0
0 0
0 0
0 0
0 0
0 0
0 0
0 0
0 0
0 0
0 0
0 0
0 0
0 0
0 0
0 0
0 0
0 0
0 0
0 0
0 0
0 0
0 0
0 0
0 0
0 0
0 0
0 0
0 0
0 0
0 0
0 0
0 0
0 0
0 0
0 0
0 0
0 0
0 0
0 0
0 0
0 0
0 0
0 0
0 0
0 0
0 0
0 0
0 0
0 0
0 0
0 0
0 0
0 0
0 0
0 0
0 0
0 0
0 0
0 0
0 0
0 0
0 0
0 0
0 0
0 0
0 0
0 0
0 0
0 0
0 0
0 0
0 0
0 0
0 0
0 0
0 0
0 0
0 0
0 0
0 0
0 0
0 0
0 0
0 0
0 0
0 0
0 0
0 0
0 0
0 0
0 0
0 0
0 0
0 0
0 0
0 0
0 0
0 0
0 0
0 0
0 0
0 0
0 0
0 0
0 0
0 0
0 0
0 0
0 0
0 0
0 0
0 0
0 0
0 0
0 0
0 0
0 0
0 0
0 0
0 0
0 0
0 0
0 0
0 0
0 0
0 0
0 0
0 0
0 0
0 0
0 0
0 0
0 0
0 0
0 0
0 0
0 0
0 0
0 0
0 0
0 0
0 0
0 0
0 0
0 0
0 0
0 0
0 0
0 0
0 0
0 0
0 0
0 0
0 0
0 0
0 0
0 0
0 0
0 0
0 0
0 0
0 0
0 0
0 0
0 0
0 0
0 0
0 0
0 0
0 0
0 0
0 0
0 0
0 0
0 0
0 0
0 0
0 0
0 0
0 0
0 0
0 0
0 0
0 0
0 0
0 0
0 0
0 0
0 0
0 0
0 0
0 0
0 0
0 0
0 0
0 0
0 0
0 0
0 0
0 0
0 0
0 0
0 0
0 0
0 0
0 0
0 0
0 0
0 0
0 0
0 0
0 0
0 0
0 0
0 0
0 0
0 0
0 0
0 0
0 0
0 0
0 0
0 0
0 0
0 0
0 0
0 0
0 0
0 0
0 0
0 0
0 0
0 0
0 0
0 0
0 0
0 0
0 0
0 0
0 0
0 0
0 0
0 0
0 0
0 0
0 0
0 0
0 0
0 0
0 0
0 0
0 0
0 0
0 0
0 0
0 0
0 0
0 0
0 0
0 0
0 0
0 0
0 0
0 0
0 0
0 0
0 0
0 0
0 0
0 0
0 0
0 0
0 0
0 0
0 0
0 0
0 0
0 0
0 0
0 0
0 0
0 0
0 0
0 0
0 0
0 0
0 0
0 0
0 0
0 0
0 0
0 0
0 0
0 0
0 0
0 0
0 0
0 0
0 0
0 0
0 0
0 0
0 0
0 0
0 0
0 0
0 0
0 0
0 0
0 0
0 0
0 0
0 0
0 0
0 0
0 0
0 0
0 0
0 0
0 0
0 0
0 0
0 0
0 0
0 0
0 0
0 0
0 0
0 0
0 0
0 0
0 0
0 0
0 0
0 0
0 0
0 0
0 0
0 0
0 0
0 0
0 0
0 0
0 0
0 0
0 0
0 0
0 0
0 0
0 0
0 0
0 0
0 0
0 0
0 0
0 0
0 0
0 0
0 0
0 0
0 0
0 0
0 0
0 0
0 0
0 0
0 0
0 0
0 0
0 0
0 0
0 0
0 0
0 0
0 0
0 0
0 0
0 0
0 0
0 0
0 0
0 0
0 0
0 0
0 0
0 0
0 0
0 0
0 0
0 0
0 0
0 0
0 0
0 0
0 0
0 0
0 0
0 0
0 0
0 0
0 0
0 0
0 0
0 0
0 0
0 0
0 0
0 0
0 0
0 0
0 0
0 0
0 0
0 0
0 0
0 0
0 0
0 0
0 0
0 0
0 0
0 0
0 0
0 0
0 0
0 0
0 0
0 0
0 0
0 0
0 0
0 0
0 0
0 0
0 0
0 0
0 0
0 0
0 0
0 0
0 0
0 0
0 0
0 0
0 0
0 0
0 0
0 0
0 0
0 0
0 0
0 0
0 0
0 0
0 0
0 0
0 0
0 0
0 0
0 0
0 0
0 0
0 0
0 0
0 0
0 0
0 0
0 0
0 0
0 0
0 0
0 0
0 0
0 0
0 0
0 0
0 0
0 0
0 0
0 0
0 0
0 0
0 0
0 0
0 0
0 0
0 0
0 0
0 0
0 0
0 0
0 0
0 0
0 0
0 0
0 0
0 0
0 0
0 0
0 0
0 0
0 0
0 0
0 0
0 0
0 0
0 0
0 0
0 0
0 0
0 0
0 0
0 0
0 0
0 0
0 0
0 0
0 0
0 0
0 0
0 0
0 0
0 0
0 0
0 0
0 0
0 0
0 0
0 0
0 0
0 0
0 0
0 0
0 0
0 0
0 0
0 0
0 0
0 0
0 0
0 0
0 0
0 0
0 0
0 0
0 0
0 0
0 0
0 0
0 0
0 0
0 0
0 0
0 0
0 0
0 0
0 0
0 0
0 0
0 0
0 0
0 0
0 0
0 0
0 0
0 0
0 0
0 0
0 0
0 0
0 0
0 0
0 0
0 0
0 0
0 0
0 0
0 0
0 0
0 0
0 0
0 0
0 0
0 0
0 0
0 0
0 0
0 0
0 0
0 0
0 0
0 0
0 0
0 0
0 0
0 0
0 0
0 0
0 0
0 0
0 0
0 0
0 0
0 0
0 0
0 0
0 0
0 0
0 0
0 0
0 0
0 0
0 0
0 0
0 0
0 0
0 0
0 0
0 0
0 0
0 0
0 0
0 0
0 0
0 0
0 0
0 0
0 0
0 0
0 0
0 0
0 0
0 0
0 0
0 0
0 0
0 0
0 0
0 0
0 0
0 0
0 0
0 0
0 0
0 0
0 0
0 0
0 0
0 0
0 0
0 0
0 0
0 0
0 0
0 0
0 0
0 0
0 0
0 0
0 0
0 0
0 0
0 0
0 0
0 0
0 0
0 0
0 0
0 0
0 0
0 0
0 0
0 0
0 0
0 0
0 0
0 0
0 0
0 0
0 0
0 0
0 0
0 0
0 0
0 0
0 0
0 0
0 0
0 0
0 0
0 0
0 0
0 0
0 0
0 0
0 0
0 0
0 0
0 0
0 0
0 0
0 0
0 0
0 0
0 0
0 0
0 0
0 0
0 0
0 0
0 0
0 0
0 0
0 0
0 0
0 0
0 0
0 0
0 0
0 0
0 0
0 0
0 0
0 0
0 0
0 0
0 0
0 0
0 0
0 0
0 0
0 0
0 0
0 0
0 0
0 0
0 0
0 0
0 0
0 0
0 0
0 0
0 0
0 0
0 0
0 0
0 0
0 0
0 0
0 0
0 0
0 0
0 0
0 0
0 0
0 0
0 0
0 0
0 0
0 0
0 0
0 0
0 0
0 0
0 0
0 0
0 0
0 0
0 0
0 0
0 0
0 0
0 0
0 0
0 0
0 0
0 0
0 0
0 0
0 0
0 0
0 0
0 0
0 0
0 0
0 0
0 0
0 0
0 0
0 0
0 0
0 0
0 0
0 0
0 0
0 0
0 0
0 0
0 0
0 0
0 0
0 0
0 0
0 0
0 0
0 0
0 0
0 0
0 0
0 0
0 0
0 0
0 0
0 0
0 0
0 0
0 0
0 0
0 0
0 0
0 0
0 0
0 0
0 0
0 0
0 0
0 0
0 0
0 0
0 0
0 0
0 0
0 0
0 0
0 0
0 0
0 0
0 0
0 0
0 0
0 0
0 0
0 0
0 0
0 0
0 0
0 0
0 0
0 0
0 0
0 0
0 0
0 0
0 0
0 0
0 0
0 0
0 0
0 0
0 0
0 0
0 0
0 0
0 0
0 0
0 0
0 0
0 0
0 0
0 0
0 0
0 0
0 0
0 0
0 0
0 0
0 0
0 0
0 0
0 0
0 0
0 0
0 0
0 0
0 0
0 0
0 0
0 0
0 0
0 0
0 0
0 0
0 0
0 0
0 0
0 0
0 0
0 0
0 0
0 0
0 0
0 0
0 0
0 0
0 0
0 0
0 0
0 0
0 0
0 0
0 0
0 0
0 0
0 0
0 0
0 0
0 0
0 0
0 0
0 0
0 0
0 0
0 0
0 0
0 0
0 0
0 0
0 0
0 0
0 0
0 0
0 0
0 0
0 0
0 0
0 0
0 0
0 0
0 0
0 0
0 0
0 0
0 0
0 0
0 0
0 0
0 0
0 0
0 0
0 0
0 0
0 0
0 0
0 0
0 0
0 0
0 0
0 0
0 0
0 0
0 0
0 0
0 0
0 0
0 0
0 0
0 0
0 0
0 0
0 0
0 0
0 0
0 0
0 0
0 0
0 0
0 0
0 0
0 0
0 0
0 0
0 0
0 0
0 0
0 0
0 0
0 0
0 0
0 0
0 0
0 0
0 0
0 0
0 0
0 0
0 0
0 0
0 0
0 0
0 0
0 0
0 0
0 0
0 0
0 0
0 0
0 0
0 0
0 0
0 0
0 0
0 0
0 0
0 0
0 0
0 0
0 0
0 0
0 0
0 0
0 0
0 0
0 0
0 0
0 0
0 0
0 0
0 0
0 0
0 0
0 0
0 0
0 0
0 0
0 0
0 0
0 0
0 0
0 0
0 0
0 0
0 0
0 0
0 0
0 0
0 0
0 0
0 0
0 0
0 0
0 0
0 0
0 0
0 0
0 0
0 0
0 0
0 0
0 0
0 0
0 0
0 0
0 0
0 0
0 0
0 0
0 0
0 0
0 0
0 0
0 0
0 0
0 0
0 0
0 0
0 0
0 0
0 0
0 0
0 0
0 0
0 0
0 0
0 0
0 0
0 0
0 0
0 0
0 0
0 0
0 0
0 0
0 0
0 0
0 0
0 0
0 0
0 0
0 0
0 0
0 0
0 0
0 0
0 0
0 0
0 0
0 0
0 0
0 0
0 0
0 0
0 0
0 0
0 0
0 0
0 0
0 0
0 0
0 0
0 0
0 0
0 0
0 0
0 0
0 0
0 0
0 0
0 0
0 0
0 0
0 0
0 0
0 0
0 0
0 0
0 0
0 0
0 0
0 0
0 0
0 0
0 0
0 0
0 0
0 0
0 0
0 0
0 0
0 0
0 0
0 0
0 0
0 0
0 0
0 0
0 0
0 0
0 0
0 0
0 0
0 0
0 0
0 0
0 0
0 0
0 0
0 0
0 0
0 0
0 0
0 0
0 0
0 0
0 0
0 0
0 0
0 0
0 0
0 0
0 0
0 0
0 0
0 0
0 0
0 0
0 0
0 0
0 0
0 0
0 0
0 0
0 0
0 0
0 0
0 0
0 0
0 0
0 0
0 0
0 0
0 0
0 0
0 0
0 0
0 0
0 0
0 0
0 0
0 0
0 0
0 0
0 0
0 0
0 0
0 0
0 0
0 0
0 0
0 0
0 0
0 0
0 0
0 0
0 0
0 0
0 0
0 0
0 0
0 0
0 0
0 0
0 0
0 0
0 0
0 0
0 0
0 0
0 0
0 0
0 0
0 0
0 0
0 0
0 0
0 0
0 0
0 0
0 0
0 0
0 0
0 0
0 0
0 0
0 0
0 0
0 0
0 0
0 0
0 0
0 0
0 0
0 0
0 0
0 0
0 0
0 0
0 0
0 0
0 0
0 0
0 0
0 0
0 0
0 0
0 0
0 0
0 0
0 0
0 0
0 0
0 0
0 0
0 0
0 0
0 0
0 0
0 0
0 0
0 0
0 0
0 0
0 0
0 0
0 0
0 0
0 0
0 0
0 0
0 0
0 0
0 0
0 0
0 0
0 0
0 0
0 0
0 0
0 0
0 0
0 0
0 0
0 0
0 0
0 0
0 0
0 0
0 0
0 0
0 0
0 0
0 0
0 0
0 0
0 0
0 0
0 0
0 0
0 0
0 0
0 0
0 0
0 0
0 0
0 0
0 0
0 0
0 0
0 0
0 0
0 0
0 0
0 0
0 0
0 0
0 0
0 0
0 0
0 0
0 0
0 0
0 0
0 0
0 0
0 0
0 0
0 0
0 0
0 0
0 0
0 0
0 0
0 0
0 0
0 0
0 0
0 0
0 0
0 0
0 0
0 0
0 0
0 0
0 0
0 0
0 0
0 0
0 0
0 0
0 0
0 0
0 0
0 0
0 0
0 0
0 0
0 0
0 0
0 0
0 0
0 0
0 0
0 0
0 0
0 0
0 0
0 0
0 0
0 0
0 0
0 0
0 0
0 0
0 0
0 0
0 0
0 0
0 0
0 0
0 0
0 0
0 0
0 0
0 0
0 0
0 0
0 0
0 0
0 0
0 0
0 0
0 0
0 0
0 0
0 0
0 0
0 0
0 0
0 0
0 0
0 0
0 0
0 0
0 0
0 0
0 0
0 0
0 0
0 0
0 0
0 0
0 0
0 0
0 0
0 0
0 0
0 0
0 0
0 0
0 0
0 0
0 0
0 0
0 0
0 0
0 0
0 0
0 0
0 0
0 0
0 0
0 0
0 0
0 0
0 0
0 0
0 0
0 0
0 0
0 0
0 0
0 0
0 0
0 0
0 0
0 0
0 0
0 0
0 0
0 0
0 0
0 0
0 0
0 0
0 0
0 0
0 0
0 0
0 0
0 0
0 0
0 0
0 0
0 0
0 0
0 0
0 0
0 0
0 0
0 0
0 0
0 0
0 0
0 0
0 0
0 0
0 0
0 0
0 0
0 0
0 0
0 0
0 0
0 0
0 0
0 0
0 0
0 0
0 0
0 0
0 0
0 0
0 0
0 0
0 0
0 0
0 0
0 0
0 0
0 0
0 0
0 0
0 0
0 0
0 0
0 0
0 0
0 0
0 0
0 0
0 0
0 0
0 0
0 0
0 0
0 0
0 0
0 0
0 0
0 0
0 0
0 0
0 0
0 0
0 0
0 0
0 0
0 0
0 0
0 0
0 0
0 0
0 0
0 0
0 0
0 0
0 0
0 0
0 0
0 0
0 0
0 0
0 0
0 0
0 0
0 0
0 0
0 0
0 0
0 0
0 0
0 0
0 0
0 0
0 0
0 0
0 0
0 0
0 0
0 0
0 0
0 0
0 0
0 0
0 0
0 0
0 0
0 0
0 0
0 0
0 0
0 0
0 0
0 0
0 0
0 0
0 0
0 0
0 0
0 0
0 0
0 0
0 0
0 0
0 0
0 0
0 0
0 0
0 0
0 0
0 0
0 0
0 0
0 0
0 0
0 0
0 0
0 0
0 0
0 0
0 0
0 0
0 0
0 0
0 0
0 0
0 0
0 0
0 0
0 0
0 0
0 0
0 0
0 0
0 0
0 0
0 0
0 0
0 0
0 0
0 0
0 0
0 0
0 0
0 0
0 0
0 0
0 0
0 0
0 0
0 0
0 0
0 0
0 0
0 0
0 0
0 0
0 0
0 0
0 0
0 0
0 0
0 0
0 0
0 0
0 0
0 0
0 0
0 0
0 0
0 0
0 0
0 0
0 0
0 0
0 0
0 0
0 0
0 0
0 0
0 0
0 0
0 0
0 0
0 0
0 0
0 0
0 0
0 0
0 0
0 0
0 0
0 0
0 0
0 0
0 0
0 0
0 0
0 0
0 0
0 0
0 0
0 0
0 0
0 0
0 0
0 0
0 0
0 0
0 0
0 0
0 0
0 0
0 0
0 0
0 0
0 0
0 0
0 0
0 0
0 0
0 0
0 0
0 0
0 0
0 0
0 0
0 0
0 0
0 0
0 0
0 0
0 0
0 0
0 0
0 0
0 0
0 0
0 0
0 0
0 0
0 0
0 0
0 0
0 0
0 0
0 0
0 0
0 0
0 0
0 0
0 0
0 0
0 0
0 0
0 0
0 0
0 0
0 0
0 0
0 0
0 0
0 0
0 0
0 0
0 0
0 0
0 0
0 0
0 0
0 0
0 0
0 0
0 0
0 0
0 0
0 0
0 0
0 0
0 0
0 0
0 0
0 0
0 0
0 0
0 0
0 0
0 0
0 0
0 0
0 0
0 0
0 0
0 0
0 0
0 0
0 0
0 0
0 0
0 0
0 0
0 0
0 0
0 0
0 0
0 0
0 0
0 0
0 0
0 0
0 0
0 0
0 0
0 0
0 0
0 0
0 0
0 0
0 0
0 0
0 0
0 0
0 0
0 0
0 0
0 0
0 0
0 0
0 0
0 0
0 0
0 0
0 0
0 0
0 0
0 0
0 0
0 0
0 0
0 0
0 0
0 0
0 0
0 0
0 0
0 0
0 0
0 0
0 0
0 0
0 0
0 0
0 0
0 0
0 0
0 0
0 0
0 0
0 0
0 0
0 0
0 0
0 0
0 0
0 0
0 0
0 0
0 0
0 0
0 0
0 0
0 0
0 0
0 0
0 0
0 0
0 0
0 0
0 0
0 0
0 0
0 0
0 0
0 0
0 0
0 0
0 0
0 0
0 0
0 0
0 0
0 0
0 0
0 0
0 0
0 0
0 0
0 0
0 0
0 0
0 0
0 0
0 0
0 0
0 0
0 0
0 0
0 0
0 0
0 0
0 0
0 0
0 0
0 0
0 0
0 0
0 0
0 0
0 0
0 0
0 0
0 0
0 0
0 0
0 0
0 0
0 0
0 0
0 0
0 0
0 0
0 0
0 0
0 0
0 0
0 0
0 0
0 0
0 0
0 0
0 0
0 0
0 0
0 0
0 0
0 0
0 0
0 0
0 0
0 0
0 0
0 0
0 0
0 0
0 0
0 0
0 0
0 0
0 0
0 0
0 0
0 0
0 0
0 0
0 0
0 0
0 0
0 0
0 0
0 0
0 0
0 0
0 0
0 0
0 0
0 0
0 0
0 0
0 0
0 0
0 0
0 0
0 0
0 0
0 0
0 0
0 0
0 0
0 0
0 0
0 0
0 0
0 0
0 0
0 0
0 0
0 0
0 0
0 0
0 0
0 0
0 0
0 0
0 0
0 0
0 0
0 0
0 0
0 0
0 0
0 0
0 0
0 0
0 0
0 0
0 0
0 0
0 0
0 0
0 0
0 0
0 0
0 0
0 0
0 0
0 0
0 0
0 0
0 0
0 0
0 0
0 0
0 0
0 0
0 0
0 0
0 0
0 0
0 0
0 0
0 0
0 0
0 0
0 0
0 0
0 0
0 0
0 0
0 0
0 0
0 0
0 0
0 0
0 0
0 0
0 0
0 0
0 0
0 0
0 0
0 0
0 0
0 0
0 0
0 0
0 0
0 0
0 0
0 0
0 0
0 0
0 0
0 0
0 0
0 0
0 0
0 0
0 0
0 0
0 0
0 0
0 0
0 0
0 0
0 0
0 0
0 0
0 0
0 0
0 0
0 0
0 0
0 0
0 0
0 0
0 0
0 0
0 0
0 0
0 0
0 0
0 0
0 0
0 0
0 0
0 0
0 0
0 0
0 0
0 0
0 0
0 0
0 0
0 0
0 0
0 0
0 0
0 0
0 0
0 0
0 0
0 0
0 0
0 0
0 0
0 0
0 0
0 0
0 0
0 0
0 0
0 0
0 0
0 0
0 0
0 0
0 0
0 0
0 0
0 0
0 0
0 0
0 0
0 0
0 0
0 0
0 0
0 0
0 0
0 0
0 0
0 0
0 0
0 0
0 0
0 0
0 0
0 0
0 0
0 0
0 0
0 0
0 0
0 0
0 0
0 0
0 0
0 0
0 0
0 0
0 0
0 0
0 0
0 0
0 0
0 0
0 0
0 0
0 0
0 0
0 0
0 0
0 0
0 0
0 0
0 0
0 0
0 0
0 0
0 0
0 0
0 0
0 0
0 0
0 0
0 0
0 0
0 0
0 0
0 0
0 0
0 0
0 0
0 0
0 0
0 0
0 0
0 0
0 0
0 0
0 0
0 0
0 0
0 0
0 0
0 0
0 0
0 0
0 0
0 0
0 0
0 0
0 0
0 0
0 0
0 0
0 0
0 0
0 0
0 0
0 0
0 0
0 0
0 0
0 0
0 0
0 0
0 0
0 0
0 0
0 0
0 0
0 0
0 0
0 0
0 0
0 0
0 0
0 0
0 0
0 0
0 0
0 0
0 0
0 0
0 0
0 0
0 0
0 0
0 0
0 0
0 0
0 0
0 0
0 0
0 0
0 0
0 0
0 0
0 0
0 0
0 0
0 0
0 0
0 0
0 0
0 0
0 0
0 0
0 0
0 0
0 0
0 0
0 0
0 0
0 0
0 0
0 0
0 0
0 0
0 0
0 0
0 0
0 0
0 0
0 0
0 0
0 0
0 0
0 0
0 0
0 0
0 0
0 0
0 0
0 0
0 0
0 0
0 0
0 0
0 0
0 0
0 0
0 0
0 0
0 0
0 0
0 0
0 0
0 0
0 0
0 0
0 0
0 0
0 0
0 0
0 0
0 0
0 0
0 0
0 0
0 0
0 0
0 0
0 0
0 0
0 0
0 0
0 0
0 0
0 0
0 0
0 0
0 0
0 0
0 0
0 0
0 0
0 0
0 0
0 0
0 0
0 0
0 0
0 0
0 0
0 0
0 0
0 0
0 0
0 0
0 0
0 0
0 0
0 0
0 0
0 0
0 0
0 0
0 0
0 0
0 0
0 0
0 0
0 0
0 0
0 0
0 0
0 0
0 0
0 0
0 0
0 0
0 0
0 0
0 0
0 0
0 0
0 0
0 0
0 0
0 0
0 0
0 0
0 0
0 0
0 0
0 0
0 0
0 0
0 0
0 0
0 0
0 0
0 0
0 0
0 0
0 0
0 0
0 0
0 0
0 0
0 0
0 0
0 0
0 0
0 0
0 0
0 0
0 0
0 0
0 0
0 0
0 0
0 0
0 0
0 0
0 0
0 0
0 0
0 0
0 0
0 0
0 0
0 0
0 0
0 0
0 0
0 0
0 0
0 0
0 0
0 0
0 0
0 0
0 0
0 0
0 0
0 0
0 0
0 0
0 0
0 0
0 0
0 0
0 0
0 0
0 0
0 0
0 0
0 0
0 0
0 0
0 0
0 0
0 0
0 0
0 0
0 0
0 0
0 0
0 0
0 0
0 0
0 0
0 0
0 0
0 0
0 0
0 0
0 0
0 0
0 0
0 0
0 0
0 0
0 0
0 0
0 0
0 0
0 0
0 0
0 0
0 0
0 0
0 0
0 0
0 0
0 0
0 0
0 0
0 0
0 0
0 0
0 0
0 0
0 0
0 0
0 0
0 0
0 0
0 0
0 0
0 0
0 0
0 0
0 0
0 0
0 0
0 0
0 0
0 0
0 0
0 0
0 0
0 0
0 0
0 0
0 0
0 0
0 0
0 0
0 0
0 0
0 0
0 0
0 0
0 0
0 0
0 0
0 0
0 0
0 0
0 0
0 0
0 0
0 0
0 0
0 0
0 0
0 0
0 0
0 0
0 0
0 0
0 0
0 0
0 0
0 0
0 0
0 0
0 0
0 0
0 0
0 0
0 0
0 0
0 0
0 0
0 0
0 0
0 0
0 0
0 0
0 0
0 0
0 0
0 0
0 0
0 0
0 0
0 0
0 0
0 0
0 0
0 0
0 0
0 0
0 0
0 0
0 0
0 0
0 0
0 0
0 0
0 0
0 0
0 0
0 0
0 0
0 0
0 0
0 0
0 0
0 0
0 0
0 0
0 0
0 0
0 0
0 0
0 0
0 0
0 0
0 0
0 0
0 0
0 0
0 0
0 0
0 0
0 0
0 0
0 0
0 0
0 0
0 0
0 0
0 0
0 0
0 0
0 0
0 0
0 0
0 0
0 0
0 0
0 0
0 0
0 0
0 0
0 0
0 0
0 0
0 0
0 0
0 0
0 0
0 0
0 0
0 0
0 0
0 0
0 0
0 0
0 0
0 0
0 0
0 0
0 0
0 0
0 0
0 0
0 0
0 0
0 0
0 0
0 0
0 0
0 0
0 0
0 0
0 0
0 0
0 0
0 0
0 0
0 0
0 0
0 0
0 0
0 0
0 0
0 0
0 0
0 0
0 0
0 0
0 0
0 0
0 0
0 0
0 0
0 0
0 0
0 0
0 0
0 0
0 0
0 0
0 0
0 0
0 0
0 0
0 0
0 0
0 0
0 0
0 0
0 0
0 0
0 0
0 0
0 0
0 0
0 0
0 0
0 0
0 0
0 0
0 0
0 0
0 0
0 0
0 0
0 0
0 0
0 0
0 0
0 0
0 0
0 0
0 0
0 0
0 0
0 0
0 0
0 0
0 0
0 0
0 0
0 0
0 0
0 0
0 0
0 0
0 0
0 0
0 0
0 0
0 0
0 0
0 0
0 0
0 0
0 0
0 0
0 0
0 0
0 0
0 0
0 0
0 0
0 0
0 0
0 0
0 0
0 0
0 0
0 0
0 0
0 0
0 0
0 0
0 0
0 0
0 0
0 0
0 0
0 0
0 0
0 0
0 0
0 0
0 0
0 0
0 0
0 0
0 0
0 0
0 0
0 0
0 0
0 0
0 0
0 0
0 0
0 0
0 0
0 0
0 0
0 0
0 0
0 0
0 0
0 0
0 0
0 0
0 0
0 0
0 0
0 0
0 0
0 0
0 0
0 0
0 0
0 0
0 0
0 0
0 0
0 0
0 0
0 0
0 0
0 0
0 0
0 0
0 0
0 0
0 0
0 0
0 0
0 0
0 0
0 0
0 0
0 0
0 0
0 0
0 0
0 0
0 0
0 0
0 0
0 0
0 0
0 0
0 0
0 0
0 0
0 0
0 0
0 0
0 0
0 0
0 0
0 0
0 0
0 0
0 0
0 0
0 0
0 0
0 0
0 0
0 0
0 0
0 0
0 0
0 0
0 0
0 0
0 0
0 0
0 0
0 0
0 0
0 0
0 0
0 0
0 0
0 0
0 0
0 0
0 0
0 0
0 0
0 0
0 0
0 0
0 0
0 0
0 0
0 0
0 0
0 0
0 0
0 0
0 0
0 0
0 0
0 0
0 0
0 0
0 0
0 0
0 0
0 0
0 0
0 0
0 0
0 0
0 0
0 0
0 0
0 0
0 0
0 0
0 0
0 0
0 0
0 0
0 0
0 0
0 0
0 0
0 0
0 0
0 0
0 0
0 0
0 0
0 0
0 0
0 0
0 0
0 0
0 0
0 0
0 0
0 0
0 0
0 0
0 0
0 0
0 0
0 0
0 0
0 0
0 0
0 0
0 0
0 0
0 0
0 0
0 0
0 0
0 0
0 0
0 0
0 0
0 0
0 0
0 0
0 0
0 0
0 0
0 0
0 0
0 0
0 0
0 0
0 0
0 0
0 0
0 0
0 0
0 0
0 0
0 0
0 0
0 0
0 0
0 0
0 0
0 0
0 0
0 0
0 0
0 0
0 0
0 0
0 0
0 0
0 0
0 0
0 0
0 0
0 0
0 0
0 0
0 0
0 0
0 0
0 0
0 0
0 0
0 0
0 0
0 0
0 0
0 0
0 0
0 0
0 0
0 0
0 0
0 0
0 0
0 0
0 0
0 0
0 0
0 0
0 0
0 0
0 0
0 0
0 0
0 0
0 0
0 0
0 0
0 0
0 0
0 0
0 0
0 0
0 0
0 0
0 0
0 0
0 0
0 0
0 0
0 0
0 0
0 0
0 0
0 0
0 0
0 0
0 0
0 0
0 0
0 0
0 0
0 0
0 0
0 0
0 0
0 0
0 0
0 0
0 0
0 0
0 0
0 0
0 0
0 0
0 0
0 0
0 0
0 0
0 0
0 0
0 0
0 0
0 0
0 0
0 0
0 0
0 0
0 0
0 0
0 0
0 0
0 0
0 0
0 0
0 0
0 0
0 0
0 0
0 0
0 0
0 0
0 0
0 0
0 0
0 0
0 0
0 0
0 0
0 0
0 0
0 0
0 0
0 0
0 0
0 0
0 0
0 0
0 0
0 0
0 0
0 0
0 0
0 0
0 0
0 0
0 0
0 0
0 0
0 0
0 0
0 0
0 0
0 0
0 0
0 0
0 0
0 0
0 0
0 0
0 0
0 0
0 0
0 0
0 0
0 0
0 0
0 0
0 0
0 0
0 0
0 0
0 0
0 0
0 0
0 0
0 0
0 0
0 0
0 0
0 0
0 0
0 0
0 0
0 0
0 0
0 0
0 0
0 0
0 0
0 0
0 0
0 0
0 0
0 0
0 0
0 0
0 0
0 0
0 0
0 0
0 0
0 0
0 0
0 0
0 0
0 0
0 0
0 0
0 0
0 0
0 0
0 0
0 0
0 0
0 0
0 0
0 0
0 0
0 0
0 0
0 0
0 0
0 0
0 0
0 0
0 0
0 0
0 0
0 0
0 0
0 0
0 0
0 0
0 0
0 0
0 0
0 0
0 0
0 0
0 0
0 0
0 0
0 0
0 0
0 0
0 0
0 0
0 0
0 0
0 0
0 0
0 0
0 0
0 0
0 0
0 0
0 0
0 0
0 0
0 0
0 0
0 0
0 0
0 0
0 0
0 0
0 0
0 0
0 0
0 0
0 0
0 0
0 0
0 0
0 0
0 0
0 0
0 0
0 0
0 0
0 0
0 0
0 0
0 0
0 0
0 0
0 0
0 0
0 0
0 0
0 0
0 0
0 0
0 0
0 0
0 0
0 0
0 0
0 0
0 0
0 0
0 0
0 0
0 0
0 0
0 0
0 0
0 0
0 0
0 0
0 0
0 0
0 0
0 0
0 0
0 0
0 0
0 0
0 0
0 0
0 0
0 0
0 0
0 0
0 0
0 0
0 0
0 0
0 0
0 0
0 0
0 0
0 0
0 0
0 0
0 0
0 0
0 0
0 0
0 0
0 0
0 0
0 0
0 0
0 0
0 0
0 0
0 0
0 0
0 0
0 0
0 0
0 0
0 0
0 0
0 0
0 0
0 0
0 0
0 0
0 0
0 0
0 0
0 0
0 0
0 0
0 0
0 0
0 0
0 0
0 0
0 0
0 0
0 0
0 0
0 0
0 0
0 0
0 0
0 0
0 0
0 0
0 0
0 0
0 0
0 0
0 0
0 0
0 0
0 0
0 0
0 0
0 0
0 0
0 0
0 0
0 0
0 0
0 0
0 0
0 0
0 0
0 0
0 0
0 0
0 0
0 0
0 0
0 0
0 0
0 0
0 0
0 0
0 0
0 0
0 0
0 0
0 0
0 0
0 0
0 0
0 0
0 0
0 0
0 0
0 0
0 0
0 0
0 0
0 0
0 0
0 0
0 0
0 0
0 0
0 0
0 0
0 0
0 0
0 0
0 0
0 0
0 0
0 0
0 0
0 0
0 0
0 0
0 0
0 0
0 0
0 0
0 0
0 0
0 0
0 0
0 0
0 0
0 0
0 0
0 0
0 0
0 0
0 0
0 0
0 0
0 0
0 0
0 0
0 0
0 0
0 0
0 0
0 0
0 0
0 0
0 0
0 0
0 0
0 0
0 0
0 0
0 0
0 0
0 0
0 0
0 0
0 0
0 0
0 0
0 0
0 0
0 0
0 0
0 0
0 0
0 0
0 0
0 0
0 0
0 0
0 0
0 0
0 0
0 0
0 0
0 0
0 0
0 0
0 0
0 0
0 0
0 0
0 0
0 0
0 0
0 0
0 0
0 0
0 0
0 0
0 0
0 0
0 0
0 0
0 0
0 0
0 0
0 0
0 0
0 0
0 0
0 0
0 0
0 0
0 0
0 0
0 0
0 0
0 0
0 0
0 0
0 0
0 0
0 0
0 0
0 0
0 0
0 0
0 0
0 0
0 0
0 0
0 0
0 0
0 0
0 0
0 0
0 0
0 0
0 0
0 0
0 0
0 0
0 0
0 0
0 0
0 0
0 0
0 0
0 0
0 0
0 0
0 0
0 0
0 0
0 0
0 0
0 0
0 0
0 0
0 0
0 0
0 0
0 0
0 0
0 0
0 0
0 0
0 0
0 0
0 0
0 0
0 0
0 0
0 0
0 0
0 0
0 0
0 0
0 0
0 0
0 0
0 0
0 0
0 0
0 0
0 0
0 0
0 0
0 0
0 0
0 0
0 0
0 0
0 0
0 0
0 0
0 0
0 0
0 0
0 0
0 0
0 0
0 0
0 0
0 0
0 0
0 0
0 0
0 0
0 0
0 0
0 0
0 0
0 0
0 0
0 0
0 0
0 0
0 0
0 0
0 0
0 0
0 0
0 0
0 0
0 0
0 0
0 0
0 0
0 0
0 0
0 0
0 0
0 0
0 0
0 0
0 0
0 0
0 0
0 0
0 0
0 0
0 0
0 0
0 0
0 0
0 0
0 0
0 0
0 0
0 0
0 0
0 0
0 0
0 0
0 0
0 0
0 0
0 0
0 0
0 0
0 0
0 0
0 0
0 0
0 0
0 0
0 0
0 0
0 0
0 0
0 0
0 0
0 0
0 0
0 0
0 0
0 0
0 0
0 0
0 0
0 0
0 0
0 0
0 0
0 0
0 0
0 0
0 0
0 0
0 0
0 0
0 0
0 0
0 0
0 0
0 0
0 0
0 0
0 0
0 0
0 0
0 0
0 0
0 0
0 0
0 0
0 0
0 0
0 0
0 0
0 0
0 0
0 0
0 0
0 0
0 0
0 0
0 0
0 0
0 0
0 0
0 0
0 0
0 0
0 0
0 0
0 0
0 0
0 0
0 0
0 0
0 0
0 0
0 0
0 0
0 0
0 0
0 0
0 0
0 0
0 0
0 0
0 0
0 0
0 0
0 0
0 0
0 0
0 0
0 0
0 0
0 0
0 0
0 0
0 0
0 0
0 0
0 0
0 0
0 0
0 0
0 0
0 0
0 0
0 0
0 0
0 0
0 0
0 0
0 0
0 0
0 0
0 0
0 0
0 0
0 0
0 0
0 0
0 0
0 0
0 0
0 0
0 0
0 0
0 0
0 0
0 0
0 0
0 0
0 0
0 0
0 0
0 0
0 0
0 0
0 0
0 0
0 0
0 0
0 0
0 0
0 0
0 0
0 0
0 0
0 0
0 0
0 0
0 0
0 0
0 0
0 0
0 0
0 0
0 0
0 0
0 0
0 0
0 0
0 0
0 0
0 0
0 0
0 0
0 0
0 0
0 0
0 0
0 0
0 0
0 0
0 0
0 0
0 0
0 0
0 0
0 0
0 0
0 0
0 0
0 0
0 0
0 0
0 0
0 0
0 0
0 0
0 0
0 0
0 0
0 0
0 0
0 0
0 0
0 0
0 0
0 0
0 0
0 0
0 0
0 0
0 0
0 0
0 0
0 0
0 0
0 0
0 0
0 0
0 0
0 0
0 0
0 0
0 0
0 0
0 0
0 0
0 0
0 0
0 0
0 0
0 0
0 0
0 0
0 0
0 0
0 0
0 0
0 0
0 0
0 0
0 0
0 0
0 0
0 0
0 0
0 0
0 0
0 0
0 0
0 0
0 0
0 0
0 0
0 0
0 0
0 0
0 0
0 0
0 0
0 0
0 0
0 0
0 0
0 0
0 0
0 0
0 0
0 0
0 0
0 0
0 0
0 0
0 0
0 0
0 0
0 0
0 0
0 0
0 0
0 0
0 0
0 0
0 0
0 0
0 0
0 0
0 0
0 0
0 0
0 0
0 0
0 0
0 0
0 0
0 0
0 0
0 0
0 0
0 0
0 0
0 0
0 0
0 0
0 0
0 0
0 0
0 0
0 0
0 0
0 0
0 0
0 0
0 0
0 0
0 0
0 0
0 0
0 0
0 0
0 0
0 0
0 0
0 0
0 0
0 0
0 0
0 0
0 0
0 0
0 0
0 0
0 0
0 0
0 0
0 0
0 0
0 0
0 0
0 0
0 0
0 0
0 0
0 0
0 0
0 0
0 0
0 0
0 0
0 0
0 0
0 0
0 0
0 0
0 0
0 0
0 0
0 0
0 0
0 0
0 0
0 0
0 0
0 0
0 0
0 0
0 0
0 0
0 0
0 0
0 0
0 0
0 0
0 0
0 0
0 0
0 0
0 0
0 0
0 0
0 0
0 0
0 0
0 0
0 0
0 0
0 0
0 0
0 0
0 0
0 0
0 0
0 0
0 0
0 0
0 0
0 0
0 0
0 0
0 0
0 0
0 0
0 0
0 0
0 0
0 0
0 0
0 0
0 0
0 0
0 0
0 0
0 0
0 0
0 0
0 0
0 0
0 0
0 0
0 0
0 0
0 0
0 0
0 0
0 0
0 0
0 0
0 0
0 0
0 0
0 0
0 0
0 0
0 0
0 0
0 0
0 0
0 0
0 0
0 0
0 0
0 0
0 0
0 0
0 0
0 0
0 0
0 0
0 0
0 0
0 0
0 0
0 0
0 0
0 0
0 0
0 0
0 0
0 0
0 0
0 0
0 0
0 0
0 0
0 0
0 0
0 0
0 0
0 0
0 0
0 0
0 0
0 0
0 0
0 0
0 0
0 0
0 0
0 0
0 0
0 0
0 0
0 0
0 0
0 0
0 0
0 0
0 0
0 0
0 0
0 0
0 0
0 0
0 0
0 0
0 0
0 0
0 0
0 0
0 0
0 0
0 0
0 0
0 0
0 0
0 0
0 0
0 0
0 0
0 0
0 0
0 0
0 0
0 0
0 0
0 0
0 0
0 0
0 0
0 0
0 0
0 0
0 0
0 0
0 0
0 0
0 0
0 0
0 0
0 0
0 0
0 0
0 0
0 0
0 0
0 0
0 0
0 0
0 0
0 0
0 0
0 0
0 0
0 0
0 0
0 0
0 0
0 0
0 0
0 0
0 0
0 0
0 0
0 0
0 0
0 0
0 0
0 0
0 0
0 0
0 0
0 0
0 0
0 0
0 0
0 0
0 0
0 0
0 0
0 0
0 0
0 0
0 0
0 0
0 0
0 0
0 0
0 0
0 0
0 0
0 0
0 0
0 0
0 0
0 0
0 0
0 0
0 0
0 0
0 0
0 0
0 0
0 0
0 0
0 0
0 0
0 0
0 0
0 0
0 0
0 0
0 0
0 0
0 0
0 0
0 0
0 0
0 0
0 0
0 0
0 0
0 0
0 0
0 0
0 0
0 0
0 0
0 0
0 0
0 0
0 0
0 0
0 0
0 0
0 0
0 0
0 0
0 0
0 0
0 0
0 0
0 0
0 0
0 0
0 0
0 0
0 0
0 0
0 0
0 0
0 0
0 0
0 0
0 0
0 0
0 0
0 0
0 0
0 0
0 0
0 0
0 0
0 0
0 0
0 0
0 0
0 0
0 0
0 0
0 0
0 0
0 0
0 0
0 0
0 0
0 0
0 0
0 0
0 0
0 0
0 0
0 0
0 0
0 0
0 0
0 0
0 0
0 0
0 0
0 0
0 0
0 0
0 0
0 0
0 0
0 0
0 0
0 0
0 0
0 0
0 0
0 0
0 0
0 0
0 0
0 0
0 0
0 0
0 0
0 0
0 0
0 0
0 0
0 0
0 0
0 0
0 0
0 0
0 0
0 0
0 0
0 0
0 0
0 0
0 0
0 0
0 0
0 0
0 0
0 0
0 0
      </DataArray> 
      <DataArray type="Float64" NumberOfComponents="1" Name="CauchyShearStress" format="ascii">
-3.43553
-1.72214
-26.4684
8.00649
-6.45567
-42.431
2.34264
-1.6347
-6.17428
-0.837965
1.48441
-1.04933
-4.88439
-0.668235
0.453294
-0.971285
-4.33437
-0.82993
-0.992224
-1.15623
-2.43715
-0.776806
-2.81938
-2.59808
-3.08181
-3.20656
-3.03102
-2.84352
-2.5828
-2.81967
-2.25636
-0.342926
0.668709
0.14903
0.0947423
0.0472387
0.0183912
0.00439239
-0.00741411
-0.0105234
-0.0139949
-0.0165543
-0.020005
-0.0247752
-0.0289774
-0.0275396
-0.0258614
-0.0182701
-0.0103488
0.00300266
0.0207193
0.0452993
0.0806821
0.119067
0.16929
0.167735
0.136065
-0.0408693
-0.259535
-0.329295
-0.366045
-0.198271
-0.0608932
0.0682234
0.152835
0.152672
0.154055
0.119618
0.0919398
0.0726439
0.0534868
0.0397473
0.0284412
0.0258771
0.02282
0.023168
0.0225148
0.0254636
0.0291726
0.0410505
0.0579495
0.0878937
0.131799
0.183788
0.236461
0.19284
0.114446
-0.0191496
-0.213369
-0.256308
-0.293422
-0.111763
0.0307508
0.146685
0.22449
0.215574
0.193486
0.14356
0.106556
0.0840534
0.0659619
0.0541634
0.0454641
0.0436534
0.0419469
0.0435259
0.0445754
0.0494714
0.053725
0.0664098
0.0798948
0.114881
0.15776
0.190007
0.230781
0.138874
0.0453326
-0.155838
-0.359899
-0.208412
-0.401141
-0.173049
0.0818643
0.175709
0.25273
0.218424
0.189886
0.140999
0.100797
0.0781159
0.0557847
0.0488932
0.039977
0.0372433
0.0325574
0.0288735
0.0229234
0.0216126
0.0206931
0.0452534
0.0847023
0.138723
0.220556
0.248672
0.315303
0.24083
0.00169279
-0.270117
-0.573152
-0.411714
-0.190828
0.0317565
0.206011
0.21344
0.209066
0.153999
0.108753
0.0770359
0.0448909
0.0328871
0.0169189
0.011941
0.00333715
-0.000733745
-0.00515586
0.00300614
0.0140586
0.0380151
0.0695541
0.115539
0.187021
0.297678
0.602732
0.707543
3.90276
-7.70566
-17.3317
-8.28499
-4.96046
-1.91406
0.248422
2.21743
3.75598
5.03435
5.416
-5.00526
-6.15301
-6.23469
-6.38962
-5.86848
-5.34231
-5.09701
-4.9381
-4.68498
-1.94324
0.762896
0.172303
0.161955
0.067269
0.0214085
-0.0123461
-0.0380798
-0.0509741
-0.0625163
-0.0733197
-0.0844516
-0.0976356
-0.107504
-0.106653
-0.102068
-0.0893504
-0.072762
-0.048787
-0.0151815
0.0246351
0.0822064
0.124298
0.170505
0.109561
-0.00418999
-0.253853
-0.569988
-0.685623
-0.739229
-0.468144
-0.203686
-0.0227751
0.129261
0.10387
0.0875938
0.0197509
-0.0376294
-0.0796029
-0.119901
-0.141377
-0.158781
-0.161519
-0.163803
-0.161081
-0.157977
-0.14874
-0.138123
-0.116063
-0.0900652
-0.0590478
-0.0155434
0.00322835
0.112606
-0.0885386
-0.275277
-0.602992
-0.891635
-0.76995
-0.799541
-0.492964
-0.201832
-0.0137776
0.134477
0.0813361
0.0256718
-0.0513107
-0.110974
-0.146861
-0.179406
-0.197954
-0.210953
-0.213208
-0.21306
-0.209748
-0.203657
-0.194692
-0.184148
-0.161987
-0.135445
-0.0698258
0.0149293
0.0842168
0.157985
-0.0289639
-0.280363
-0.570024
-0.899545
-0.83134
-0.70967
-0.374583
-0.0537969
0.0534171
0.147326
0.0878669
0.0261361
-0.0439264
-0.113555
-0.15326
-0.191988
-0.199916
-0.21079
-0.212156
-0.214486
-0.216641
-0.218785
-0.212458
-0.204469
-0.153068
-0.0786318
0.0746338
0.276112
0.227308
0.342511
0.0798505
-0.358371
-0.821022
-1.31147
-0.997694
-0.556064
-0.148053
0.1854
0.19974
0.19335
0.0998102
0.0188762
-0.0308171
-0.0847981
-0.0991125
-0.121163
-0.124117
-0.132839
-0.13621
-0.138191
-0.119111
-0.0934242
-0.0451375
0.0154644
0.102255
0.226164
0.412524
0.890507
1.08904
6.02271
-12.3795
-28.0111
-13.4912
-8.17573
-3.26096
0.24462
3.47808
6.13261
8.43098
9.59038
3.27404
3.38376
3.00088
-1.93363
-8.12093
-19.5607
-29.3109
-37.7258
-39.139
-33.2999
-19.4394
12.0919
20.304
17.7295
10.1073
-5.76056
-15.6696
-27.3912
-26.0657
-25.1055
-19.6236
-12.9109
-7.03945
-10.5199
-13.3583
-13.7605
-14.1881
-7.75599
-2.30074
5.99437
9.92424
11.2617
6.61022
-10.8707
-18.2268
-21.3368
-20.2227
-15.6836
-10.4504
-4.34717
-0.95771
1.7314
1.90931
1.78251
1.40424
0.953799
-0.10998
-4.80872
-10.5206
-19.1799
-26.2883
-31.6348
-31.7789
-26.2773
-15.312
8.65328
13.3871
8.09516
0.574117
-12.4311
-18.977
-26.3153
-23.0924
-20.3624
-14.5355
-9.42379
-5.8955
-8.94777
-11.7355
-12.3111
-12.9895
-8.00814
-3.81634
2.89928
6.3056
7.78545
4.77555
-8.28167
-14.5332
-17.704
-17.7755
-14.7188
-10.6625
-5.67728
-2.40718
0.250294
0.776959
0.933036
-0.34315
-1.86702
-4.33094
-8.30763
-13.0771
-18.8927
-23.2846
-25.39
-23.9583
-18.5817
-10.526
3.88432
5.43433
-0.146372
-6.21303
-15.9077
-18.0637
-21.7082
-18.8259
-15.6697
-11.9201
-8.4189
-4.89721
-7.44903
-9.96465
-10.683
-11.5651
-8.1665
-5.30115
-0.0139378
2.83138
4.61359
2.61475
-6.74932
-11.3358
-14.3992
-14.7684
-13.4497
-10.6813
-7.30966
-4.45565
-1.80913
-0.603545
0.114446
-3.17441
-5.44266
-8.80398
-12.1303
-16.2715
-17.2724
-18.2635
-16.8476
-14.9788
-9.9732
-5.3986
-0.589996
-2.3197
-7.82532
-12.5426
-18.7919
-20.2085
-21.504
-17.1291
-13.2357
-8.32098
-4.86225
-3.62713
-5.74923
-8.03336
-9.36141
-10.6114
-8.76319
-6.92093
-3.11065
-0.636507
1.44052
0.962673
-4.24415
-7.3232
-10.2676
-11.298
-11.928
-10.4056
-8.8872
-6.37259
-4.40217
-2.45262
-1.29655
-5.72626
-7.20623
-7.30293
-7.35848
-7.19682
-7.03733
-6.88208
-6.73805
-6.63907
-6.55238
-6.50784
-6.47491
-6.47722
-6.49056
-6.54166
-6.60754
-6.72997
-6.8736
-7.10833
-7.37818
-7.76319
-8.1727
-8.5319
-8.6829
-8.14759
-7.75533
-4.67718
3.35211
-0.945559
-3.27235
-5.30303
-6.11509
-6.75543
-6.8706
-6.93239
-6.85939
-6.7864
-6.72222
-6.67526
-6.6895
-6.72764
-6.87299
-7.0526
-7.41986
-7.8438
-8.5979
-9.45888
-10.913
-12.5274
-15.1121
-17.5751
-18.8307
-22.3451
-16.9824
2.43437
1.53634
-0.965184
-3.02401
-4.29347
-5.31428
-5.77253
-6.09886
-6.23536
-6.35502
-6.45534
-6.60148
-6.73618
-6.93629
-7.25509
-7.65756
-8.33005
-9.13225
-10.4445
-11.9754
-14.1171
-16.0928
-16.9635
-19.2654
-14.2147
0.184585
-1.45488
-3.43144
-4.946
-5.7313
-6.30788
-6.45433
-6.54911
-6.54271
-6.53978
-6.56135
-6.60154
-6.71218
-6.85633
-7.12599
-7.45205
-7.99954
-8.64831
-9.73368
-10.9692
-12.626
-14.9219
-14.7618
-15.3444
-11.4303
-2.23001
-4.49459
-5.83087
-6.84122
-7.10615
-7.28167
-7.06646
-7.03263
-6.87199
-6.72319
-6.64119
-6.60208
-6.66508
-6.82797
-7.02808
-7.28405
-7.71219
-8.22612
-9.06016
-9.97901
-11.1611
-12.2974
-12.4062
-13.1668
-9.25435
-5.72991
-3.10727
-2.89074
-3.91104
-5.36169
-4.96864
-5.15113
-4.36973
-2.14302
-6.42066
-10.9972
-9.16355
-7.97722
-7.06324
-4.25277
-3.1474
-5.21628
-6.06609
-7.11761
-3.35146
-5.53508
-4.24363
-1.52772
-1.71707
-1.38961
-2.09087
-0.0404386
-2.13835
-4.88983
-4.51997
-5.88728
-2.25147
-2.162
-2.23863
-1.8319
-2.53928
-5.33294
-1.79212
-3.28982
-5.49938
-5.01954
-2.51006
-5.13036
-4.74407
-4.59889
-0.754019
-3.53552
-4.70685
-4.76087
-3.3068
-2.43219
-1.84096
-3.79118
-1.45431
-0.978828
-0.593941
-1.65119
0.843732
0.874594
0.929685
-0.968121
0.117133
2.98171
3.24563
-3.76908
-3.2085
-4.5754
-4.03897
-0.962836
-0.0876029
-2.43286
-1.62307
-9.28274
-10.1784
-1.9622
-18.8092
-3.98205
-4.10576
-3.89332
-4.13253
-3.86985
-3.74109
-3.35342
-4.27973
-1.57001
-2.26609
-2.31603
-2.15697
-3.41312
-3.31168
-3.62311
-3.97289
-4.40613
-4.24291
-2.11838
-1.3898
-0.869432
-2.11354
-1.16996
-1.70114
-1.30068
-4.10118
-4.1639
-4.22125
-4.3226
-4.44648
-4.66587
-4.19416
-4.54544
-4.47674
-4.37541
-4.34276
-4.30988
-4.20538
-4.30868
-4.36493
-4.44601
-4.32035
-4.18016
-3.96911
-3.92392
-3.94137
-3.96174
-4.36651
-4.30124
-4.22527
-4.20723
-4.19296
-3.86293
-3.67729
-3.66866
-4.06714
-4.01371
-4.04518
-3.48656
-3.13978
-2.27492
-3.31515
-3.35995
-3.19069
-3.19729
-3.18044
-3.20592
-3.22552
-3.40101
-3.41401
-3.48641
-3.46853
-3.50044
-3.49556
-3.5099
-2.98797
-3.44621
-3.50817
-3.41352
-3.43977
-3.30945
-3.35957
-3.47678
-3.54585
-2.20163
-2.47395
-2.61969
-2.79445
-2.82965
-3.07778
-3.09915
-3.09428
-3.11059
-3.08154
-3.11737
-3.07554
-3.60863
-3.60004
-2.92579
-2.90527
-2.92644
-3.34424
-3.08503
-3.28206
-2.98503
-3.66112
-2.52215
-2.55625
-2.6283
-2.63048
-2.91471
-3.00208
-2.49155
-1.49532
-2.07086
-2.6472
-2.71587
-2.73679
-2.93375
-2.78349
-2.93627
-2.99083
-2.6984
-2.52541
-2.78048
-0.733849
-1.40952
-2.72388
-2.84258
-2.92483
-3.06307
-0.566434
-1.36197
-1.94479
-2.27743
-2.40135
-2.74702
-3.81522
-3.67753
-3.60537
-3.54775
-3.27335
-3.37165
-3.94423
-4.0144
-3.67726
-3.23781
-3.14347
-3.25544
-3.4521
-3.43569
-3.08921
-3.55805
-3.26046
-3.59383
-3.56336
-2.38878
-2.16154
-3.79541
-3.25426
-3.55271
-3.49124
-2.84363
-2.98986
-3.46017
-2.80155
-2.9061
-3.99762
-3.05923
-2.18333
-3.14756
-3.59982
-4.53125
-3.21574
-4.1526
-2.89833
-2.48027
-1.76947
-1.81627
-1.8062
-1.89521
-1.95028
-2.01518
-2.03814
-2.08189
-2.05646
-2.17524
-2.51241
-2.59429
-2.62324
-2.55681
-2.55002
-2.43397
-2.10899
-1.91516
-1.70823
-1.58402
-0.964412
-0.960898
-1.07248
-1.23898
-1.70485
-1.91132
-1.99575
-2.07923
-2.07635
-2.11228
-2.13071
-2.15843
-2.34244
-2.30645
-2.14252
-2.01135
-1.82994
-1.74803
-0.895856
-0.954117
-0.984832
-1.10568
-1.30641
-1.78316
-1.98938
-2.12104
-2.20645
-2.25384
-2.27872
-2.27889
-2.22487
-1.9257
-1.85058
-1.94842
-1.87683
-1.96127
-1.82272
-1.44649
-0.799436
-0.676163
-0.554079
-1.14772
-1.40395
-1.70798
-1.89622
-2.00633
-2.12297
-2.15392
-2.22691
-2.27713
-2.33888
-2.43432
-2.4968
-2.61532
-2.73542
-2.67777
-2.33127
-0.369765
-0.548398
-0.582329
-0.965648
-1.19839
-1.43469
-1.61979
-1.73566
-1.83774
-1.84843
-1.98917
-2.34459
-2.43077
-2.46574
-2.39807
-2.43137
-2.33769
-2.15421
-2.20879
-2.61688
-3.77448
-3.84427
-2.75624
-4.20685
-4.21093
-4.06037
-4.14439
-3.93916
-4.0059
-3.87079
-3.91235
-3.81212
-3.8427
-3.76878
-3.71786
-3.68964
-3.69548
-3.9332
-3.79923
-4.42369
-4.2317
-4.47582
-3.34194
-4.03646
-4.09352
-4.22146
-3.89321
-3.81244
-3.72156
-3.67502
-3.62486
-3.64162
-3.78339
-3.84806
-3.8858
-4.00143
-4.03483
-4.24401
-4.25314
-4.62216
-3.80631
-3.6971
-4.11459
-4.90235
-3.37665
-3.61435
-4.20591
-3.95236
-3.8059
-4.23159
-4.72263
-3.69752
-4.0754
-4.65281
-3.70914
-3.94794
-4.69694
-2.16255
-0.560744
-1.06035
-4.60007
-2.30342
-1.5587
-3.82348
-2.68974
-3.58906
-1.42694
-1.15028
-3.59735
-4.23535
-3.5674
-2.07983
-1.49602
-4.45833
-3.7461
-4.20378
-4.06282
-2.11813
-1.29066
-1.18605
-2.03658
-1.68461
-2.18028
-3.00541
-3.85581
-4.67505
-4.40819
-4.52497
-4.34056
-4.31512
-4.56061
-3.75542
-3.48039
-5.45783
-4.14592
-2.8794
-1.70254
-0.947495
-1.19584
-1.36812
-1.4717
-1.63303
-1.85961
-1.88535
-1.68065
-1.33745
-0.973839
-0.942149
-1.89338
-1.13689
-0.505174
-0.691518
-1.08058
-1.37328
-1.48583
-1.54828
-1.53158
-1.31294
-1.01775
-1.11719
-2.10958
-2.26645
-0.793948
-0.465171
-0.737373
-1.15225
-1.45179
-1.55877
-1.51078
-1.36766
-1.20847
-0.92024
-0.816224
-1.30351
-0.323897
-0.506252
-1.00078
-1.33361
-1.51774
-1.64872
-1.78071
-1.95033
-1.63889
-0.975728
-0.79731
-0.114405
-0.465086
-0.916537
-1.2021
-1.44037
-1.67765
-1.67788
-1.42491
-1.16891
-1.7768
-5.23851
-2.44001
-1.80105
-4.08839
-4.62496
-4.48342
-4.31181
-4.19697
-4.13414
-4.18284
-4.12155
-4.3736
-4.71609
-5.22726
-3.54501
-4.36164
-4.36582
-4.20746
-4.14318
-4.2025
-4.39672
-4.79216
-5.56867
-7.13636
-3.9968
-4.05173
-4.04291
-5.33779
-4.99627
-5.94089
-4.40593
-4.20473
-4.24488
-5.07742
-4.81004
-5.66732
-4.93756
-4.69438
-5.43362
-3.85866
-2.8178
-1.6377
-2.17931
-4.57808
-3.50682
-1.82843
-1.84728
-4.85655
-3.58641
-3.24927
-3.5226
-1.57842
-3.48227
-3.57891
-2.48448
-2.10004
-1.78449
-2.79164
-4.08027
-1.05489
-2.57854
-4.26761
-4.18271
-1.62842
-2.97488
-3.64648
-4.02674
-1.2986
-2.28645
-2.22575
-4.97874
-1.56906
-3.69178
-1.37019
-4.14475
-2.09078
-1.09577
-4.16585
-2.73932
-3.54221
0.0941088
-0.370747
-2.83264
-2.39001
-2.94338
-4.74203
-5.56816
-4.45317
-4.80885
-4.71843
-4.83043
-4.72834
-3.31166
-5.62941
-3.19814
-3.02983
-2.75453
-2.57398
-0.322588
-0.370856
-0.497595
-0.53911
-0.632244
-0.656663
-0.712291
-0.723305
-0.757445
-0.762535
-0.88814
-0.888196
-0.999547
-0.99361
-0.916055
-0.903303
-0.774475
-0.745027
-0.563872
-0.512109
-0.399399
-0.354869
-0.488425
-0.562607
-1.31429
-1.63612
-2.02234
-1.7808
-1.02328
-0.774177
-0.285043
-0.233599
-0.17888
-0.229897
-0.375695
-0.420094
-0.602814
-0.633388
-0.701847
-0.714752
-0.740798
-0.743521
-0.775371
-0.767722
-0.722222
-0.69628
-0.552567
-0.499352
-0.408704
-0.361012
-0.621551
-0.772421
-1.30848
-1.59323
-1.8108
-1.50495
-0.736629
-0.509097
-0.156206
-0.150687
-0.168023
-0.230022
-0.400244
-0.447333
-0.631696
-0.659727
-0.735364
-0.746789
-0.76157
-0.765707
-0.690263
-0.685303
-0.619784
-0.59733
-0.520388
-0.469837
-0.307245
-0.271582
-0.408727
-0.582713
-1.26468
-1.57986
-2.74591
-1.46027
-1.05979
-0.270944
-0.130848
-0.0236133
-0.0692075
-0.272034
-0.347077
-0.536941
-0.582993
-0.682728
-0.706145
-0.763496
-0.775082
-0.834643
-0.840661
-0.909778
-0.90499
-0.996561
-0.952392
-0.583511
-0.493278
-0.316775
-0.340208
-0.697545
-0.986977
-2.9411
-2.58518
-1.08452
-0.733168
-0.0096117
0.0204819
0.00535678
-0.0712208
-0.286583
-0.349333
-0.510814
-0.545613
-0.629092
-0.64414
-0.785795
-0.787383
-0.888176
-0.873337
-0.782171
-0.751312
-0.586614
-0.533944
-0.471298
-0.404193
-1.04026
-1.37089
-2.97266
-1.03871
0.666312
1.96979
-4.77634
-4.69178
-4.63301
-4.73333
-4.44188
-4.54095
-4.30634
-4.36885
-4.23826
-4.26638
-4.2215
-4.2202
-4.27206
-4.23504
-4.42245
-4.33218
-4.71672
-4.54798
-5.18891
-4.93309
-5.73142
-5.48782
-1.55945
-3.03133
-3.87246
-4.33414
-4.46996
-4.52043
-4.45224
-4.40698
-4.33821
-4.30754
-4.29984
-4.32163
-4.3822
-4.48813
-4.63226
-4.88238
-5.17275
-5.66866
-6.26343
-7.20489
-8.45381
-10.1647
-3.59702
-3.8542
-4.04956
-5.85101
-6.70997
-7.5079
-8.77553
-4.29905
-4.27822
-4.33651
-5.55561
-6.2603
-6.8875
-7.92979
-4.89316
-4.76666
-5.29024
-5.81829
-6.35745
-7.10536
-2.85095
-3.82915
-2.67026
-4.2006
-3.34343
-4.15664
-5.01759
-1.86369
-4.3638
-3.34146
-4.08837
-4.2226
-3.69819
-2.22774
-3.24275
-4.78869
-4.78069
-2.56704
-4.80714
-2.99163
-4.05365
-4.95593
0.0226512
-1.67496
-5.01247
-5.42358
-0.740846
-2.09976
-4.74158
-5.72174
-1.33447
-2.18958
-1.78219
-1.55417
-1.95912
-7.98671
-4.50208
-6.29088
-3.43591
-5.75451
-3.53999
-1.13866
-5.67028
-4.12071
-4.48436
-5.25268
-5.31334
-5.10537
-5.97277
-5.87472
-6.77616
-5.30185
-4.84671
-2.98068
-2.39831
-1.51605
-1.92139
-2.4923
-4.2258
-4.89909
-5.50503
-5.66368
-6.42645
-5.89056
-5.90418
-3.31077
-2.63027
-2.47083
-2.81014
-3.21584
-3.96553
-4.50308
-6.00055
-5.72539
-3.84993
-3.28411
-2.17004
-2.01055
-2.58075
-3.25487
-4.37793
-3.01715
-3.28778
-5.50087
-3.85803
0.288737
-1.54008
-4.02002
-4.51089
-5.97602
-5.9222
-0.342411
-2.07068
-4.08181
-5.2241
-5.29018
-5.57571
-2.37926
-4.13587
-5.02556
-1.88038
-2.71191
-3.7837
-2.88695
0.91371
-5.40646
-2.61762
0.132501
-5.87177
-2.75378
-0.731124
-0.80674
-5.67641
-3.57511
-2.18851
-3.90051
-3.41218
-3.11833
-4.42904
-3.24643
-3.05533
-2.93122
-4.38794
-3.92121
-5.00642
-4.7526
-5.69036
-7.12714
-7.50493
-6.24229
-2.73675
-2.93666
-3.73192
-4.71725
-5.33907
-6.5851
-7.06902
-6.63133
-3.18676
-3.43495
-4.04451
-4.8239
-6.46107
-3.44682
-3.1855
-3.15479
-3.52561
-4.13774
-5.31036
-6.34911
-6.45864
1.17914
0.188585
-2.26476
-2.53223
-5.31119
-4.63121
-6.7178
-7.75202
-7.78701
0.11642
-0.822438
-2.64775
-2.93459
-5.84912
-4.92827
-6.50118
-7.51871
-7.21997
-1.7565
-3.24656
-3.62237
-5.59608
-4.9798
-5.32644
-6.28907
-5.78959
-1.87627
-2.20062
-3.44035
-4.71186
-2.95481
-6.58637
-3.06112
-6.70102
-3.24441
-1.72298
-6.37849
-4.00438
-4.6165
-5.00578
-5.34838
-3.26857
-3.35766
-8.23277
-4.967
-5.28097
-5.6081
-12.414
-0.646068
-2.01957
-10.5274
-2.67054
-3.61404
-9.06169
-4.09121
-4.75822
-7.50643
-4.18427
-6.61136
-7.19805
-6.10054
-4.67631
-3.53421
-5.3765
-7.98331
-4.29941
-6.14582
-7.19226
-6.41132
-4.73571
-3.90515
-5.2119
-7.41915
-4.86489
-6.36385
-6.7398
-5.91327
-4.81043
-3.8656
-4.23125
-5.86373
-4.18506
-5.29626
-6.66605
-5.69927
-5.47419
-6.15331
-6.49547
-5.62807
-6.30269
-5.91122
-6.27477
-5.50663
-6.18548
-6.02458
-6.30051
-4.90752
-5.10261
-5.47797
-5.81616
-6.08117
-5.99725
0.255521
-2.40686
-4.75256
-5.78676
-6.49454
-8.06003
-9.12132
-0.742062
-2.99527
-4.97524
-5.604
-6.04862
-7.84935
-8.65523
-3.71597
-5.29587
-5.88018
-6.05778
-6.63524
-7.06488
-2.96835
-4.02106
-5.0412
-5.607
-5.4395
-8.7455
-8.8067
-5.34816
-2.85802
-2.484
2.10869
1.65718
3.24907
2.44309
-2.12499
-4.44559
-11.0038
-12.4171
-13.4103
-13.8343
-10.5293
-9.47257
-5.81197
-3.00709
-1.39744
-7.57746
-7.93703
-5.31696
-3.53504
-3.35604
0.27173
-0.133076
1.35928
0.634296
-2.59345
-3.88868
-9.13546
-10.6387
-12.0999
-12.7576
-10.2504
-9.24961
-5.96525
-3.88977
-2.30947
-6.55052
-7.05256
-5.14065
-4.06264
-4.17007
-1.44453
-1.79714
-0.247066
-0.816967
-2.87159
-3.92656
-7.88521
-8.75929
-10.1357
-10.4475
-9.07619
-8.52196
-6.26073
-5.01273
-3.33391
-5.561
-6.59435
-5.64357
-5.33688
-5.29779
-3.35873
-3.42737
-1.85807
-2.03021
-2.92932
-3.6238
-6.04882
-6.04569
-7.44117
-7.30621
-7.01003
-7.21899
-5.76085
-5.30539
-3.7645
-5.22986
-5.16569
-4.16365
-4.73973
-5.74497
-5.32677
-4.53342
-3.06965
-2.44321
-5.3942
-5.60167
-7.04724
-6.94269
-6.0845
-5.78182
-5.63233
-4.60513
-2.1937
-0.716684
-5.6543
-5.09964
-8.44646
-8.7222
-6.64709
-5.55069
-5.50806
-4.16133
-1.20293
0.293874
-6.25582
-4.32256
-9.07825
-9.08939
-6.95102
-5.85415
-5.27124
-3.82483
-0.228085
1.41745
-7.23045
-6.57456
-6.40347
-3.67016
-7.19878
-4.24031
-7.37681
-4.04599
-8.03582
-4.90096
-3.88256
-4.76468
-4.03045
-5.91953
-5.04837
-6.16756
-3.758
-6.70802
-4.60022
-6.67076
-3.21931
-5.80407
-4.7315
-5.08014
-4.2386
-2.23847
-7.52608
-3.55219
-1.52439
-5.71698
-1.30422
-6.62811
-0.484167
-6.42393
0.453745
-6.30248
-4.28407
-2.49
-2.76638
-5.93865
-3.60119
-2.72476
-6.67332
-6.09362
-3.0952
-2.03528
-6.74673
-6.6339
-4.91731
-4.48277
-3.81398
-3.70879
-2.14699
-2.79884
-2.19632
-1.02939
-0.259127
0.0662401
-3.32971
-4.40976
-3.58098
-5.25684
-3.39921
-2.82782
-2.32739
-3.95466
-1.4872
-3.7598
-5.69046
-3.24165
-2.07615
-2.59348
-4.95163
-4.84739
-0.82665
-2.76098
-3.86951
-5.18814
-5.78673
-5.91255
-6.26291
-8.19032
-1.47326
-1.17695
-5.0422
-0.738636
-4.79922
-0.197684
-3.69927
-1.81776
-4.43869
-2.87306
-2.695
-1.88399
-5.0284
-5.31028
-4.32866
-5.43597
-4.13016
-6.12073
-5.06765
-4.54097
-4.27192
-4.1493
-4.14796
-4.28081
-4.445
-4.22983
-2.60938
-5.5277
-4.94823
-4.51528
-4.24615
-4.13054
-4.11692
-4.15974
-4.24168
-4.38888
-4.57476
-4.63839
-1.05166
-3.94116
-3.02123
-1.13889
-1.26323
-1.58021
-1.76322
-1.57927
-1.2928
-1.09465
-0.714354
-0.204197
-0.1331
-1.757
-1.22577
-2.03142
-1.84462
-1.70972
-1.58204
-1.44323
-1.20419
-0.769681
-0.276034
-0.513589
-2.28651
-1.06128
-0.745863
-1.10464
-1.28668
-1.4377
-1.5748
-1.53224
-1.35373
-0.937434
-0.528465
-0.462264
-1.31074
-0.917538
-1.14495
-1.46891
-1.5723
-1.51332
-1.44805
-1.28213
-0.868541
-0.51357
-0.604669
-1.14989
-0.85101
-1.126
-1.5368
-1.80608
-1.95597
-1.75757
-1.50922
-1.42871
-1.2961
-1.07996
-0.863077
-2.56493
-3.15953
-4.13987
-2.9614
-2.86417
-1.95305
-2.5781
-2.92155
-3.40951
-1.70447
-2.54854
-4.12241
-4.24839
-1.40957
-3.83143
-4.39008
-4.38619
-4.09063
-4.5993
-4.00794
-4.12087
-3.84731
-4.26713
-4.09296
-3.92128
-2.29082
-1.3431
-3.75895
-2.85262
-3.01705
-3.01405
-3.5408
-2.08864
-3.3847
-3.35251
-3.48482
-3.48334
-3.4233
-3.10152
-3.18582
-3.304
-4.03725
-4.04626
-3.9535
-3.31718
-3.24381
-3.30221
-3.51785
-3.58258
-3.63097
-3.72572
-3.03369
-2.41046
-2.38285
-2.1536
-1.70466
-0.954733
-3.15229
-2.97574
-2.87119
-2.80932
-2.62084
-0.758278
-2.62535
-2.42108
-2.99531
-2.97995
-2.88793
-2.6591
-1.65911
-1.45795
-3.11909
-2.75713
-2.71312
-2.70953
-2.56609
-1.59042
-2.69016
-2.60753
-2.65029
-2.60168
-2.50539
-2.56324
-3.94948
-3.77818
-4.00901
-4.22935
-4.00845
-4.03053
-4.11795
-3.68347
-3.65225
-3.71153
-4.0252
-4.22265
-4.19651
-4.28812
-1.30039
-10.494
-1.44382
-4.22126
0.87108
0.442945
-2.55439
-4.05863
-6.22449
-11.3466
-8.11465
-5.9293
-4.32663
-5.75131
-4.38732
-11.4797
-9.05318
-8.60266
-8.88034
-8.72356
-6.53439
-7.94133
-4.02465
-22.0502
-19.4567
-14.9559
-9.18055
-5.67825
-12.4335
-12.8376
-14.2478
-7.45928
-2.99236
-1.97753
-4.95466
-4.67801
-4.06193
-4.72894
0.066221
-9.27652
-8.619
-8.77121
-9.6658
-0.861409
-4.58521
-3.04643
-7.30585
-10.912
-5.70655
-5.45441
-1.37001
-6.33822
-8.02608
-8.49938
-6.09635
-4.50242
-3.24438
-6.83589
-2.71242
-1.91208
-1.08311
-3.02383
1.66046
1.56455
1.82082
-1.6912
0.236069
5.1291
6.14003
-15.0133
-16.3343
-3.35747
-30.0663
-2.58944
-1.08687
-3.49512
-4.92108
-7.73486
-7.8316
-8.9003
-5.62182
-7.82541
-7.41995
-8.33717
-7.84724
-8.27733
-7.73335
-5.94093
-6.63979
-6.59149
-5.25838
-3.67609
-5.3471
-4.84335
-5.31013
-6.0305
-6.08079
-6.54656
-7.84862
-9.04639
-8.7724
-3.84577
-8.16955
-8.308
-8.47224
-8.68901
-8.96484
-9.41652
-8.3339
-9.20546
-8.64418
-8.48351
-8.63972
-8.57521
-8.38296
-8.61628
-8.73771
-9.05606
-8.76209
-8.49679
-8.09589
-7.86018
-7.82537
-7.73009
-8.82711
-8.63569
-8.4715
-8.37968
-8.77884
-8.04644
-7.50367
-7.14706
-8.27385
-8.01622
-7.97108
-7.15293
-5.58879
-6.36427
-8.66932
-5.99394
-5.43669
-7.11168
-7.07646
-6.76057
-6.65913
-6.42495
-6.32258
-6.16367
-6.16377
-7.18317
-7.21176
-7.08462
-7.0642
-6.97115
-6.92516
-5.80632
-7.14695
-7.23181
-6.99822
-6.9961
-6.70984
-6.75188
-6.94122
-7.01102
-4.75901
-5.26415
-5.50695
-5.81799
-5.85663
-5.93591
-5.96354
-5.96099
-5.99403
-5.90838
-5.99387
-5.87905
-6.45276
-6.673
-5.98433
-5.95896
-6.0217
-6.40417
-5.98791
-6.82019
-7.86491
-8.35299
-5.69869
-4.82891
-4.91079
-5.03357
-5.01263
-5.52594
-5.33248
-4.31845
-3.87193
-4.86789
-5.8211
-5.7092
-5.4739
-5.35344
-5.93292
-6.02727
-5.96819
-5.30551
-4.94196
-5.51426
-5.75481
-5.88839
-5.9371
-6.08349
-1.5331
-3.08995
-4.17551
-4.7711
-4.97265
-5.61759
-7.31509
-7.09961
-6.9727
-6.84135
-6.14404
-6.43754
-6.96283
-7.25435
-6.99795
-6.4138
-6.34777
-6.61479
-7.03532
-7.12857
-6.57453
-6.56319
-6.28752
-7.0439
-7.2385
-6.34645
-6.98216
-7.41183
-6.34001
-7.5119
-6.37954
-7.39297
-5.47542
-3.28087
-6.80998
-5.21058
-5.03645
-7.56729
-7.30833
-5.35959
-4.79997
-5.69724
-7.0089
-8.58095
-5.43294
-6.08086
-7.1278
-5.34196
-4.6205
-3.5593
-3.52828
-3.53227
-3.64684
-3.74911
-3.85721
-3.89408
-3.96663
-3.90681
-4.11118
-4.73794
-4.86126
-4.86534
-4.69438
-4.6003
-4.33635
-3.66917
-3.32237
-2.99515
-2.90158
-2.88836
-2.11344
-2.37581
-2.60105
-2.78953
-3.17083
-4.04371
-4.35256
-4.40106
-4.46616
-4.34717
-4.31875
-4.20171
-4.13279
-4.13524
-3.99121
-3.86269
-3.55044
-2.79226
-2.4419
-2.25346
-2.4399
-2.73427
-3.13743
-4.05212
-4.39969
-4.54913
-4.6462
-4.65333
-4.64167
-4.5718
-4.42934
-3.83327
-3.67898
-3.86234
-3.80014
-4.08776
-4.03028
-3.43163
-4.03785
-5.58528
-7.54435
-1.61204
-1.56279
-2.77148
-3.34162
-3.795
-4.15677
-4.33417
-4.51287
-4.51761
-4.61345
-4.65963
-4.7309
-4.84781
-4.90573
-5.01495
-4.9699
-4.93879
-1.02341
-1.43331
-1.52959
-2.2576
-2.7009
-3.13288
-3.47318
-3.67551
-3.85806
-3.86337
-4.1313
-4.81854
-4.97644
-5.01451
-4.86273
-4.85114
-4.61627
-4.1209
-4.10958
-4.59035
-6.39284
-6.49474
-4.71022
-8.1624
-8.16837
-7.89091
-8.0316
-7.67544
-7.79949
-7.53275
-7.62019
-7.38198
-7.46115
-7.11268
-7.06785
-7.05938
-7.10764
-7.29163
-7.09268
-8.06885
-7.83798
-8.04836
-5.8968
-7.32502
-7.66623
-8.02822
-7.54965
-7.4757
-7.39785
-7.34891
-7.29116
-7.34428
-7.63614
-7.77837
-7.87132
-8.11764
-8.21149
-8.64973
-8.71397
-9.48088
-7.31885
-7.14105
-8.15692
-9.94421
-7.29684
-7.95306
-7.99256
-7.59636
-7.41561
-8.37474
-9.60545
-7.98285
-8.77794
-8.91841
-9.51986
-8.11895
-8.79469
-2.21246
-7.00088
-8.76238
-9.37334
-4.59586
-0.873261
-2.54544
-2.28273
-3.14536
-3.56915
-1.89499
-4.82252
-2.95942
-6.95106
-7.97694
-6.88465
-5.39015
-3.96522
-9.24912
-8.66793
-9.26773
-3.10863
-4.47767
-3.05215
-6.8433
-8.96906
-9.28077
-6.51633
-8.01658
-3.95152
-5.16243
-4.65015
-3.51002
-8.63723
-8.37345
-8.12175
-7.39621
-6.47215
-9.01937
-6.90672
-5.04864
-3.49216
-2.10495
-2.35426
-2.62355
-2.80364
-3.08577
-3.46364
-3.43576
-2.96536
-2.30698
-1.80337
-2.15499
-4.16023
-4.45614
-1.83701
-1.29162
-1.9424
-2.68028
-3.07288
-3.10114
-3.00132
-2.79067
-2.30515
-1.65474
-2.12667
-4.08009
-1.45285
-1.25282
-1.94931
-2.72839
-3.19967
-3.28568
-3.10258
-2.78316
-2.54338
-2.26
-2.57204
-5.10502
-2.71513
-0.929561
-1.39416
-2.40026
-2.99385
-3.26234
-3.42582
-3.57128
-3.57004
-3.30081
-3.14136
-1.70564
-0.524109
-1.23359
-2.08355
-2.60411
-3.04813
-3.50576
-3.4948
-2.96183
-2.36266
-3.16299
-8.64026
-3.98497
-3.1134
-8.08177
-9.03598
-8.77508
-8.45547
-8.22732
-8.07786
-8.04252
-8.00015
-8.32508
-8.83412
-9.35435
-6.5498
-8.33102
-8.53751
-8.35923
-8.29922
-8.44794
-8.85883
-9.67812
-11.2713
-14.4691
-7.72269
-7.91614
-8.00226
-10.8396
-10.4399
-13.1291
-8.35103
-8.16121
-8.37923
-10.352
-9.99764
-12.1276
-10.132
-10.0072
-11.9273
-3.78387
-6.51823
-7.85925
-9.48118
-3.76276
-6.86936
-8.23523
-9.88452
-8.51945
-6.10478
-2.86074
-3.47836
-2.11791
-3.14922
-2.42681
-3.61638
-3.38607
-3.67468
-3.4789
-5.67807
-4.39954
-5.20812
-6.69594
-5.30948
-8.78243
-8.44979
-2.23392
-4.99467
-7.14814
-7.60843
-5.71699
-10.3493
-3.78604
-9.55823
-5.03817
-9.80752
-7.30005
-4.07713
-0.385327
-6.56738
-6.10166
-15.691
-8.86453
-7.90441
-9.6444
-5.13122
-5.10295
-8.64274
-8.73099
-8.69477
-6.30452
-9.17682
-5.42207
-6.17694
-4.4073
-5.63586
-1.08253
-0.969758
-1.04438
-1.10081
-1.23036
-1.27716
-1.37281
-1.39783
-1.45734
-1.47006
-1.6927
-1.69224
-1.87119
-1.85373
-1.67506
-1.64165
-1.37689
-1.31507
-1.00836
-0.928527
-0.85188
-0.838845
-1.27982
-1.52915
-2.71291
-3.22679
-4.25173
-4.40103
-3.4889
-3.02
-1.63141
-1.25382
-0.609671
-0.593378
-0.707422
-0.819346
-1.15765
-1.24473
-1.53526
-1.57969
-1.63016
-1.64077
-1.60806
-1.59928
-1.54658
-1.51906
-1.39531
-1.34463
-1.04791
-0.98583
-0.716524
-0.706815
-1.39934
-1.73073
-2.81505
-3.39154
-4.24304
-4.29489
-3.1848
-2.65252
-1.37119
-1.01016
-0.506919
-0.559164
-0.730163
-0.85313
-1.1987
-1.28182
-1.60661
-1.64809
-1.73874
-1.74955
-1.73102
-1.72848
-1.55901
-1.54286
-1.41084
-1.36822
-1.29849
-1.21504
-1.05915
-1.02131
-1.62779
-2.06857
-3.38166
-3.9428
-4.43504
-4.20391
-2.77901
-2.13184
-0.801424
-0.569048
-0.397992
-0.50464
-0.931016
-1.06441
-1.42162
-1.50425
-1.65581
-1.69181
-1.76401
-1.77696
-1.84994
-1.8515
-1.92733
-1.91159
-1.83778
-1.7629
-1.56547
-1.39291
-1.34995
-1.76775
-2.36651
-5.70439
-5.00935
-2.22036
-1.55857
-0.255393
-0.200191
-0.264982
-0.406114
-0.812913
-0.926504
-1.21948
-1.27909
-1.42483
-1.4467
-1.71945
-1.71573
-1.91364
-1.87888
-1.69335
-1.62788
-1.28977
-1.18586
-0.997104
-0.883387
-1.836
-2.42525
-4.91871
-1.7535
1.04148
3.34096
-9.43013
-9.25712
-9.16172
-9.35426
-8.79385
-8.98504
-8.52851
-8.65148
-8.38588
-8.44309
-8.33105
-8.33211
-8.3941
-8.32932
-8.64041
-8.47941
-9.17525
-8.86629
-9.96789
-9.5104
-10.5876
-10.2868
-2.85746
-5.79997
-7.46171
-8.42189
-8.77578
-8.89922
-8.83604
-8.75395
-8.66419
-8.60441
-8.61134
-8.65622
-8.78714
-9.00165
-9.29866
-9.80326
-10.3935
-11.3931
-12.5912
-14.4957
-16.9971
-20.4001
-7.04118
-7.55877
-7.97162
-11.9428
-13.6918
-15.6854
-18.424
-8.31864
-8.35157
-8.50103
-11.3197
-12.7266
-14.2414
-16.291
-9.4085
-9.22961
-10.9315
-12.0785
-13.3362
-14.9133
-6.69006
-8.84389
-10.1823
-5.33404
-7.55339
-8.9133
-9.79657
-4.54359
-2.1758
-6.03724
-11.4519
-10.5127
-3.52004
-7.5695
-11.1803
-10.793
-7.1076
-8.31633
-7.40404
-3.97288
-2.0485
-0.912127
-3.25631
-2.6137
-6.78399
-8.32984
-7.67516
-10.2079
-6.60536
-10.8554
-10.0719
-10.4061
-0.305447
-3.36791
-8.82437
-10.313
-1.57086
-4.42377
-8.10708
-11.1786
-13.3688
-12.2998
-3.55047
-6.26494
-8.80602
-11.3866
-12.3858
-12.11
-9.65282
-5.36732
-6.5151
-8.56273
-9.06321
-9.50011
-5.13317
-4.0598
-4.02711
-5.22599
-16.3001
-9.56005
-15.0922
-9.53075
-1.70385
-3.13372
-13.1745
-10.0078
-8.31968
-9.44278
-9.23742
-5.76935
-4.61174
-3.83594
-5.14383
-5.67919
-9.05552
-9.6502
-11.3463
-11.4039
-13.2106
-11.5085
-11.1726
-7.73524
-6.64342
-5.08176
-5.93773
-6.22976
-7.66319
-8.92107
-7.48779
-4.46091
-6.76097
-12.0972
-11.6397
-9.44816
-0.00989553
-2.98895
-7.32732
-9.94468
-10.2757
-10.1285
-3.14061
-10.6475
-13.8937
-9.07215
-10.7608
-4.81526
-10.68
-13.2183
-8.77073
-11.9151
-6.63305
-8.64889
-10.9743
-12.0063
-5.30401
-5.24027
-10.0365
-6.37007
1.0075
-10.5577
-0.490967
-0.786262
-8.03823
-2.31114
-10.3077
-2.62735
-3.0819
-5.01008
-7.21384
-5.40663
-8.12011
-6.35678
-9.30385
-6.67683
-6.01954
-5.7695
-5.65921
-8.07506
-7.50972
-9.0189
-9.08808
-5.13744
-5.66621
-7.85931
-10.0273
-10.341
-13.374
-14.4458
-13.1482
-6.63098
-6.54867
-7.79625
-9.09106
-7.25342
-7.01061
-8.28302
-9.50938
-12.944
-14.535
-14.9799
-9.00802
-11.2012
1.88579
-0.0104918
-4.0249
-4.30826
-11.8144
-13.5091
-13.1704
-9.73409
-11.9417
-11.039
-4.37119
-6.77709
-11.0813
-11.8609
-10.5501
-12.5745
-9.97373
-11.7959
-11.1996
-5.51307
-8.18212
-10.9915
-11.7734
-11.5534
-10.0792
-11.757
-8.95527
-12.1848
-11.8784
-10.1115
-10.8502
-5.18259
-5.30856
-6.65324
-7.84738
-12.2486
-6.37272
-12.1246
-2.44902
-8.34858
-12.2297
-4.22249
-10.4904
-8.65652
-7.43215
-8.09055
-10.0842
-6.20656
-7.4108
-13.3791
-8.10685
-9.82394
-10.46
-24.6861
-1.16432
-3.89155
-21.6998
-4.93549
-6.8584
-18.047
-20.1503
-7.41094
-8.88087
-15.6235
-8.17913
-6.6932
-10.6777
-15.5824
-7.11334
-11.9981
-14.3755
-12.5743
-9.62948
-7.89114
-9.85497
-13.5961
-10.0668
-8.74785
-10.2903
-13.0834
-10.3144
-11.9939
-11.4473
-12.2711
-10.7029
-11.5464
-10.7031
-11.5088
-17.3386
-15.218
-11.3794
-10.7459
-8.86956
-0.020455
-4.48536
-15.6302
-14.5296
-12.0307
-10.7793
-5.5546
-9.30838
-14.812
-14.1408
-11.7275
-10.7997
-7.0407
-10.2103
-10.3494
-10.8663
-10.3712
-7.42031
-8.66807
-5.70963
-2.68774
-17.7706
-10.86
-26.3105
-19.9588
-22.7088
-24.7755
-8.0355
-19.7841
3.577
-4.60874
2.68473
5.94625
-5.45619
3.25332
-10.4245
-6.03122
-17.0998
-17.1051
-7.27498
-4.42129
-16.7126
-10.9837
-22.8205
-18.3922
-19.6563
-21.9361
-7.6829
-17.1015
1.01626
-4.38919
-2.32435
1.99107
-8.44846
-1.7909
-11.2813
-9.25066
-14.8319
-16.359
-9.58187
-6.65998
-16.2244
-11.7048
-19.8886
-17.3627
-15.9439
-18.6004
-6.89375
-13.502
-2.79736
-5.21061
-6.41952
-2.5264
-9.19723
-5.42885
-10.5974
-9.46172
-13.886
-15.2848
-9.47012
-6.95461
-11.8281
-10.0447
-10.8576
-11.0084
-9.87108
-12.1672
-6.52344
-9.6592
-6.39094
-5.9723
-10.1167
-6.54992
-12.6312
-10.0016
-11.8497
-12.7495
-10.8436
-13.5233
-12.7964
-6.98216
-7.04207
-9.41438
-10.7019
-10.948
-9.25582
-6.31175
-7.90554
-8.94572
-16.6372
-3.97441
-3.82432
-8.94806
-10.5528
-10.6897
-12.617
-15.0655
-14.0749
-10.6843
-14.7921
-1.54117
-2.22248
-7.57407
-10.041
-11.0362
-12.8988
-15.7774
-15.2521
-9.24909
-14.7559
2.17096
-0.729511
-6.7726
-10.3982
-10.6715
-12.3546
-17.5377
-17.0015
-8.00831
-8.73155
-8.16969
-15.0557
-7.78702
-11.413
-8.76158
-11.4199
-7.73551
-13.0109
-8.05002
-13.3352
-6.11713
-8.85374
-7.673
-4.14657
-12.2264
-7.20035
-6.50614
-3.86837
-10.9751
-12.7316
-11.1809
-13.0902
-7.51563
-12.524
-9.91015
-13.9947
-6.46022
-12.4956
-11.8591
0.574585
-12.0306
-7.86755
-5.77598
-7.07221
-5.33618
-13.5775
-12.5191
-7.30802
-4.10402
-9.06357
-8.3722
-7.3048
-6.59977
-6.40661
-4.10905
-6.23212
-4.70441
-2.05292
-3.29328
0.0863791
-0.70204
-11.1372
-6.61469
-8.44437
-6.45453
-10.7571
-2.9011
-9.32329
-4.77857
-8.08118
-9.04451
-9.87218
-3.22584
-4.97668
-13.0103
-14.7686
-16.6427
-4.13488
-3.93544
-8.13879
-6.1746
-11.8363
-9.94191
-4.96966
-12.5004
-9.15163
-2.98926
-9.17274
-0.762917
-9.4096
-2.51284
-1.35759
-5.68902
-4.10487
-7.92285
-5.40994
-8.12518
-4.50468
-10.8614
-13.1424
-10.9971
-8.30748
-11.4744
-8.0414
-12.4026
-10.2461
-9.15934
-8.59641
-8.32929
-8.28359
-8.44839
-8.60289
-7.95061
-4.69854
-9.46145
-9.14682
-8.55355
-8.11607
-7.98142
-8.02241
-8.14535
-8.31937
-8.59917
-8.94066
-9.04139
-1.68013
-6.4477
-5.11462
-2.22027
-2.61644
-3.29127
-3.66996
-3.31552
-2.76442
-2.4104
-1.70956
-0.73535
-0.523251
-3.46599
-3.06814
-3.47256
-3.63152
-3.49605
-3.34255
-3.16027
-2.78601
-1.95687
-0.913285
-1.25927
-6.88462
-3.38737
-2.11138
-2.43222
-2.62051
-2.92984
-3.2598
-3.28978
-3.07311
-2.35059
-1.52023
-1.07405
-2.21449
-5.50431
-1.41267
-1.98102
-2.63083
-2.92619
-3.05838
-3.12266
-2.98732
-2.33792
-1.52903
-1.20387
-2.76769
-2.80434
-1.75214
-1.95352
-2.66332
-3.23995
-3.60887
-3.3012
-2.86657
-2.72756
-2.49887
-2.19728
-2.19039
-4.74692
-5.6476
-5.36321
-7.41609
-5.67593
-5.65753
-5.91205
-7.12333
-6.48396
-2.92908
-2.9591
-1.91405
-8.08042
-8.32952
-9.26178
-9.12275
-8.02156
-9.51339
-7.86549
-6.99072
-7.37307
-7.70708
-4.00073
-6.76991
-8.11665
-3.5401
-3.63531
-6.74358
-3.37439
-1.91873
-6.9796
-6.87997
-6.83524
-4.85753
-6.41314
-7.01071
-7.17932
-7.1166
-6.95827
-6.2983
-6.39114
-6.44684
-7.5243
-7.05208
-7.11229
-6.0017
-6.13693
-6.14219
-6.76333
-6.92357
-7.02155
-7.16706
-5.60968
-4.97297
-4.95244
-4.55337
-3.73593
-2.31622
-6.18756
-5.98114
-5.8869
-5.88031
-5.58985
-5.13019
-4.74852
-5.90128
-6.02227
-6.02145
-5.80242
-3.89932
-5.13607
-5.34964
-5.35279
-5.58595
-5.81736
-5.78629
-3.98374
-4.67292
-4.95167
-5.06396
-4.9911
-4.81876
-4.84414
-5.99799
-7.69147
-7.85186
-7.59252
-8.10351
-8.62358
-7.92963
-8.12025
-8.4564
-7.00353
-7.28074
-7.75307
-8.35807
-8.36021
-8.4183
-7.9126
-8.27645
-3.21323
-16.8219
1.67004
0.882307
-4.55649
-6.84693
0
0
0
0
0
0
0
0
0
0
0
0
0
0
0
0
0
0
0
0
0
0
0
0
0
0
0
0
0
0
0
0
0
0
0
0
0
0
0
0
0
0
0
0
0
0
0
0
0
0
0
0
0
0
0
0
0
0
0
0
0
0
0
0
0
0
0
0
0
0
0
0
0
0
0
0
0
0
0
0
0
0
0
0
0
0
0
0
0
0
0
0
0
0
0
0
0
0
0
0
0
0
0
0
0
0
0
0
0
0
0
0
0
0
0
0
0
0
0
0
0
0
0
0
0
0
0
0
0
0
0
0
0
0
0
0
0
0
0
0
0
0
0
0
0
0
0
0
0
0
0
0
0
0
0
0
0
0
0
0
0
0
0
0
0
0
0
0
0
0
0
0
0
0
0
0
0
0
0
0
0
0
0
0
0
0
0
0
0
0
0
0
0
0
0
0
0
0
0
0
0
0
0
0
0
0
0
0
0
0
0
0
0
0
0
0
0
0
0
0
0
0
0
0
0
0
0
0
0
0
0
0
0
0
0
0
0
0
0
0
0
0
0
0
0
0
0
0
0
0
0
0
0
0
0
0
0
0
0
0
0
0
0
0
0
0
0
0
0
0
0
0
0
0
0
0
0
0
0
0
0
0
0
0
0
0
0
0
0
0
0
0
0
0
0
0
0
0
0
0
0
0
0
0
0
0
0
0
0
0
0
0
0
0
0
0
0
0
0
0
0
0
0
0
0
0
0
0
0
0
0
0
0
0
0
0
0
0
0
0
0
0
0
0
0
0
0
0
0
0
0
0
0
0
0
0
0
0
0
0
0
0
0
0
0
0
0
0
0
0
0
0
0
0
0
0
0
0
0
0
0
0
0
0
0
0
0
0
0
0
0
0
0
0
0
0
0
0
0
0
0
0
0
0
0
0
0
0
0
0
0
0
0
0
0
0
0
0
0
0
0
0
0
0
0
0
0
0
0
0
0
0
0
0
0
0
0
0
0
0
0
0
0
0
0
0
0
0
0
0
0
0
0
0
0
0
0
0
0
0
0
0
0
0
0
0
0
0
0
0
0
0
0
0
0
0
0
0
0
0
0
0
0
0
0
0
0
0
0
0
0
0
0
0
0
0
0
0
0
0
0
0
0
0
0
0
0
0
0
0
0
0
0
0
0
0
0
0
0
0
0
0
0
0
0
0
0
0
0
0
0
0
0
0
0
0
0
0
0
0
0
0
0
0
0
0
0
0
0
0
0
0
0
0
0
0
0
0
0
0
0
0
0
0
0
0
0
0
0
0
0
0
0
0
0
0
0
0
0
0
0
0
0
0
0
0
0
0
0
0
0
0
0
0
0
0
0
0
0
0
0
0
0
0
0
0
0
0
0
0
0
0
0
0
0
0
0
0
0
0
0
0
0
0
0
0
0
0
0
0
0
0
0
0
0
0
0
0
0
0
0
0
0
0
0
0
0
0
0
0
0
0
0
0
0
0
0
0
0
0
0
0
0
0
0
0
0
0
0
0
0
0
0
0
0
0
0
0
0
0
0
0
0
0
0
0
0
0
0
0
0
0
0
0
0
0
0
0
0
0
0
0
0
0
0
0
0
0
0
0
0
0
0
0
0
0
0
0
0
0
0
0
0
0
0
0
0
0
0
0
0
0
0
0
0
0
0
0
0
0
0
0
0
0
0
0
0
0
0
0
0
0
0
0
0
0
0
0
0
0
0
0
0
0
0
0
0
0
0
0
0
0
0
0
0
0
0
0
0
0
0
0
0
0
0
0
0
0
0
0
0
0
0
0
0
0
0
0
0
0
0
0
0
0
0
0
0
0
0
0
0
0
0
0
0
0
0
0
0
0
0
0
0
0
0
0
0
0
0
0
0
0
0
0
0
0
0
0
0
0
0
0
0
0
0
0
0
0
0
0
0
0
0
0
0
0
0
0
0
0
0
0
0
0
0
0
0
0
0
0
0
0
0
0
0
0
0
0
0
0
0
0
0
0
0
0
0
0
0
0
0
0
0
0
0
0
0
0
0
0
0
0
0
0
0
0
0
0
0
0
0
0
0
0
0
0
0
0
0
0
0
0
0
0
0
0
0
0
0
0
0
0
0
0
0
0
0
0
0
0
0
0
0
0
0
0
0
0
0
0
0
0
0
0
0
0
0
0
0
0
0
0
0
0
0
0
0
0
0
0
0
0
0
0
0
0
0
0
0
0
0
0
0
0
0
0
0
0
0
0
0
0
0
0
0
0
0
0
0
0
0
0
0
0
0
0
0
0
0
0
0
0
0
0
0
0
0
0
0
0
0
0
0
0
0
0
0
0
0
0
0
0
0
0
0
0
0
0
0
0
0
0
0
0
0
0
0
0
0
0
0
0
0
0
0
0
0
0
0
0
0
0
0
0
0
0
0
0
0
0
0
0
0
0
0
0
0
0
0
0
0
0
0
0
0
0
0
0
0
0
0
0
0
0
0
0
0
0
0
0
0
0
0
0
0
0
0
0
0
0
0
0
0
0
0
0
0
0
0
0
0
0
0
0
0
0
0
0
0
0
0
0
0
0
0
0
0
0
0
0
0
0
0
0
0
0
0
0
0
0
0
0
0
0
0
0
0
0
0
0
0
0
0
0
0
0
0
0
0
0
0
0
0
0
0
0
0
0
0
0
0
0
0
0
0
0
0
0
0
0
0
0
0
0
0
0
0
0
0
0
0
0
0
0
0
0
0
0
0
0
0
0
0
0
0
0
0
0
0
0
0
0
0
0
0
0
0
0
0
0
0
0
0
0
0
0
0
0
0
0
0
0
0
0
0
0
0
0
0
0
0
0
0
0
0
0
0
0
0
0
0
0
0
0
0
0
0
0
0
0
0
0
0
0
0
0
0
0
0
0
0
0
0
0
0
0
0
0
0
0
0
0
0
0
0
0
0
0
0
0
0
0
0
0
0
0
0
0
0
0
0
0
0
0
0
0
0
0
0
0
0
0
0
0
0
0
0
0
0
0
0
0
0
0
0
0
0
0
0
0
0
0
0
0
0
0
0
0
0
0
0
0
0
0
0
0
0
0
0
0
0
0
0
0
0
0
0
0
0
0
0
0
0
0
0
0
0
0
0
0
0
0
0
0
0
0
0
0
0
0
0
0
0
0
0
0
0
0
0
0
0
0
0
0
0
0
0
0
0
0
0
0
0
0
0
0
0
0
0
0
0
0
0
0
0
0
0
0
0
0
0
0
0
0
0
0
0
0
0
0
0
0
0
0
0
0
0
0
0
0
0
0
0
0
0
0
0
0
0
0
0
0
0
0
0
0
0
0
0
0
0
0
0
0
0
0
0
0
0
0
0
0
0
0
0
0
0
0
0
0
0
0
0
0
0
0
0
0
0
0
0
0
0
0
0
0
0
0
0
0
0
0
0
0
0
0
0
0
0
0
0
0
0
0
0
0
0
0
0
0
0
0
0
0
0
0
0
0
0
0
0
0
0
0
0
0
0
0
0
0
0
0
0
0
0
0
0
0
0
0
0
0
0
0
0
0
0
0
0
0
0
0
0
0
0
0
0
0
0
0
0
0
0
0
0
0
0
0
0
0
0
0
0
0
0
0
0
0
0
0
0
0
0
0
0
0
0
0
0
0
0
0
0
0
0
0
0
0
0
0
0
0
0
0
0
0
0
0
0
0
0
0
0
0
0
0
0
0
0
0
0
0
0
0
0
0
0
0
0
0
0
0
0
0
0
0
0
0
0
0
0
0
0
0
0
0
0
0
0
0
0
0
0
0
0
0
0
0
0
0
0
0
0
0
0
0
0
0
0
0
0
0
0
0
0
0
0
0
0
0
0
0
0
0
0
0
0
0
0
0
0
0
0
0
0
0
0
0
0
0
0
0
0
0
0
0
0
0
0
0
0
0
0
0
0
0
0
0
0
0
0
0
0
0
0
0
0
0
0
0
0
0
0
0
0
0
0
0
0
0
0
0
0
0
0
0
0
0
0
0
0
0
0
0
0
0
0
0
0
0
0
0
0
0
0
0
0
0
0
0
0
0
0
0
0
0
0
0
0
0
0
0
0
0
0
0
0
0
0
0
0
0
0
0
0
0
0
0
0
0
0
0
0
0
0
0
0
0
0
0
0
0
0
0
0
0
0
0
0
0
0
0
0
0
0
0
0
0
0
0
0
0
0
0
0
0
0
0
0
0
0
0
0
0
0
0
0
0
0
0
0
0
0
0
0
0
0
0
0
0
0
0
0
0
0
0
0
0
0
0
0
0
0
0
0
0
0
0
0
0
0
0
0
0
0
0
0
0
0
0
0
0
0
0
0
0
0
0
0
0
0
0
0
0
0
0
0
0
0
0
0
0
0
0
0
0
0
0
0
0
0
0
0
0
0
0
0
0
0
0
0
0
0
0
0
0
0
0
0
0
0
0
0
0
0
0
0
0
0
0
0
0
0
0
0
0
0
0
0
0
0
0
0
0
0
0
0
0
0
0
0
0
0
0
0
0
0
0
0
0
0
0
0
0
0
0
0
0
0
0
0
0
0
0
0
0
0
0
0
0
0
0
0
0
0
0
0
0
0
0
0
0
0
0
0
0
0
0
0
0
0
0
0
0
0
0
0
0
0
0
0
0
0
0
0
0
0
0
0
0
0
0
0
0
0
0
0
0
0
0
0
0
0
0
0
0
0
0
0
0
0
0
0
0
0
0
0
0
0
0
0
0
0
0
0
0
0
0
0
0
0
0
0
0
0
0
0
0
0
0
0
0
0
0
0
0
0
0
0
0
0
0
0
0
0
0
0
0
0
0
0
0
0
0
0
0
0
0
0
0
0
0
0
0
0
0
0
0
0
0
0
0
0
0
0
0
0
0
0
0
0
0
0
0
0
0
0
0
0
0
0
0
0
0
0
0
0
0
0
0
0
0
0
0
0
0
0
0
0
0
0
0
0
0
0
0
0
0
0
0
0
0
0
0
0
0
0
0
0
0
0
0
0
0
0
0
0
0
0
0
0
0
0
0
0
0
0
0
0
0
0
0
0
0
0
0
0
0
0
0
0
0
0
0
0
0
0
0
0
0
0
0
0
0
0
0
0
0
0
0
0
0
0
0
0
0
0
0
0
0
0
0
0
0
0
0
0
0
0
0
0
0
0
0
0
0
0
0
0
0
0
0
0
0
0
0
0
0
0
0
0
0
0
0
0
0
0
0
0
0
0
0
0
0
0
0
0
0
0
0
0
0
0
0
0
0
0
0
0
0
0
0
0
0
0
0
0
0
0
0
0
0
0
0
0
0
0
0
0
0
0
0
0
0
0
0
0
0
0
0
0
0
0
0
0
0
0
0
0
0
0
0
0
0
0
0
0
0
0
0
0
0
0
0
0
0
0
0
0
0
0
0
0
0
0
0
0
0
0
0
0
0
0
0
0
0
0
0
0
0
0
0
0
0
0
0
0
0
0
0
0
0
0
0
0
0
0
0
0
0
0
0
0
0
0
0
0
0
0
0
0
0
0
0
0
0
0
0
0
0
0
0
0
0
0
0
0
0
0
0
0
0
0
0
0
0
0
0
0
0
0
0
0
0
0
0
0
0
0
0
0
0
0
0
0
0
0
0
0
0
0
0
0
0
0
0
0
0
0
0
0
0
0
0
0
0
0
0
0
0
0
0
0
0
0
0
0
0
0
0
0
0
0
0
0
0
0
0
0
0
0
0
0
0
0
0
0
0
0
0
0
0
0
0
0
0
0
0
0
0
0
0
0
0
0
0
0
0
0
0
0
0
0
0
0
0
0
0
0
0
0
0
0
0
0
0
0
0
0
0
0
0
0
0
0
0
0
0
0
0
0
0
0
0
0
0
0
0
0
0
0
0
0
0
0
0
0
0
0
0
0
0
0
0
0
0
0
0
0
0
0
0
0
0
0
0
0
0
0
0
0
0
0
0
0
0
0
0
0
0
0
0
0
0
0
0
0
0
0
0
0
0
0
0
0
0
0
0
0
0
0
0
0
0
0
0
0
0
0
0
0
0
0
0
0
0
0
0
0
0
0
0
0
0
0
0
0
0
0
0
0
0
0
0
0
0
0
0
0
0
0
0
0
0
0
0
0
0
0
0
0
0
0
0
0
0
0
0
0
0
0
0
0
0
0
0
0
0
0
0
0
0
0
0
0
0
0
0
0
0
0
0
0
0
0
0
0
0
0
0
0
0
0
0
0
0
0
0
0
0
0
0
0
0
0
0
0
0
0
0
0
0
0
0
0
0
0
0
0
0
0
0
0
0
0
0
0
0
0
0
0
0
0
0
0
0
0
0
0
0
0
0
0
0
0
0
0
0
0
0
0
0
0
0
0
0
0
0
0
0
0
0
0
0
0
0
0
0
0
0
0
0
0
0
0
0
0
0
0
0
0
0
0
0
0
0
0
0
0
0
0
0
0
0
0
0
0
0
0
0
0
0
0
0
0
0
0
0
0
0
0
0
0
0
0
0
0
0
0
0
0
0
0
0
0
0
0
0
0
0
0
0
0
0
0
0
0
0
0
0
0
0
0
0
0
0
0
0
0
0
0
0
0
0
0
0
0
0
0
0
0
0
0
0
0
0
0
0
0
0
0
0
0
0
0
0
0
0
0
0
0
0
0
0
0
0
0
0
0
0
0
0
0
0
0
0
0
0
0
0
0
0
0
0
0
0
0
0
0
0
0
0
0
0
0
0
0
0
0
0
0
0
0
0
0
0
0
0
0
0
0
0
0
0
0
0
0
0
0
0
0
0
0
0
0
0
0
0
0
0
0
0
0
0
0
0
0
0
0
0
0
0
0
0
0
0
0
0
0
0
0
0
0
0
0
0
0
0
0
0
0
0
0
0
0
0
0
0
0
0
0
0
0
0
0
0
0
0
0
0
0
0
0
0
0
0
0
0
0
0
0
0
0
0
0
0
0
0
0
0
0
0
0
0
0
0
0
0
0
0
0
0
0
0
0
0
0
0
0
0
0
0
0
0
0
0
0
0
0
0
0
0
0
0
0
0
0
0
0
0
0
0
0
0
0
0
0
0
0
0
0
0
0
0
0
0
0
0
0
0
0
0
0
0
0
0
0
0
0
0
0
0
0
0
0
0
0
0
0
0
0
0
0
0
0
0
0
0
0
0
0
0
0
0
0
0
0
0
0
0
0
0
0
0
0
0
0
0
0
0
0
0
0
0
0
0
0
0
0
0
0
0
0
0
0
0
0
0
0
0
0
0
0
0
0
0
0
0
0
0
0
0
0
0
0
0
0
0
0
0
0
0
0
0
0
0
0
0
0
0
0
0
0
0
0
0
0
0
0
0
0
0
0
0
0
0
0
0
0
0
0
0
0
0
0
0
0
0
0
0
0
0
0
0
0
0
0
0
0
0
0
0
0
0
0
0
0
0
0
0
0
0
0
0
0
0
0
0
0
0
0
0
0
0
0
0
0
0
0
0
0
0
0
0
0
0
0
0
0
0
0
0
0
0
0
0
0
0
0
0
0
0
0
0
0
0
0
0
0
0
0
0
0
0
0
0
0
0
0
0
0
0
0
0
0
0
0
0
0
0
0
0
0
0
0
0
0
0
0
0
0
0
0
0
0
0
0
0
0
0
0
0
0
0
0
0
0
0
0
0
0
0
0
0
0
0
0
0
0
0
0
0
0
0
0
0
0
0
0
0
0
0
0
0
0
0
0
0
0
0
0
0
0
0
0
0
0
0
0
0
0
0
0
0
0
0
0
0
0
0
0
0
0
0
0
0
0
0
0
0
0
0
0
0
0
0
0
0
0
0
0
0
0
0
0
0
0
0
0
0
0
0
0
0
0
0
0
0
0
0
0
0
0
0
0
0
0
0
0
0
0
0
0
0
0
0
0
0
0
0
0
0
0
0
0
0
0
0
0
0
0
0
0
0
0
0
0
0
0
0
0
0
0
0
0
0
0
0
0
0
0
0
0
0
0
0
0
0
0
0
0
0
0
0
0
0
0
0
0
0
0
0
0
0
0
0
0
0
0
0
0
0
0
0
0
0
0
0
0
0
0
0
0
0
0
0
0
0
0
0
0
0
0
0
0
0
0
0
0
0
0
0
0
0
0
0
0
0
0
0
0
0
0
0
0
0
0
0
0
0
0
0
0
0
0
0
0
0
0
0
0
0
0
0
0
0
0
0
0
0
0
0
0
0
0
0
0
0
0
0
0
0
0
0
0
0
0
0
0
0
0
0
0
0
0
0
0
0
0
0
0
0
0
0
0
0
0
0
0
0
0
0
0
0
0
0
0
0
0
0
0
0
0
0
0
0
0
0
0
0
0
0
0
0
0
0
0
0
0
0
0
0
0
0
0
0
0
0
0
0
0
0
0
0
0
0
0
0
0
0
0
0
0
0
0
0
0
0
0
0
0
0
0
0
0
0
0
0
0
0
0
0
0
0
0
0
0
0
0
0
0
0
0
0
0
0
0
0
0
0
0
0
0
0
0
0
0
0
0
0
0
0
0
0
0
0
0
0
0
0
0
0
0
0
0
0
0
0
0
0
0
0
0
0
0
0
0
0
0
0
0
0
0
0
0
0
0
0
0
0
0
0
0
0
0
0
0
0
0
0
0
0
0
0
0
0
0
0
0
0
0
0
0
0
0
0
0
0
0
0
0
0
0
0
0
0
0
0
0
0
0
0
0
0
0
0
0
0
0
0
0
0
0
0
0
0
0
0
0
0
0
0
0
0
0
0
0
0
0
0
0
0
0
0
0
0
0
0
0
0
0
0
0
0
0
0
0
0
0
0
0
0
0
0
0
0
0
0
0
0
0
0
0
0
0
0
0
0
0
0
0
0
0
0
0
0
0
0
0
0
0
0
0
0
0
0
0
0
0
0
0
0
0
0
0
0
0
0
0
0
0
0
0
0
0
0
0
0
0
0
0
0
0
0
0
0
0
0
0
0
0
0
0
0
0
0
0
0
0
0
0
0
0
0
0
0
0
0
0
0
0
0
0
0
0
0
0
0
0
0
0
0
0
0
0
0
0
0
0
0
0
0
0
0
0
0
0
0
0
0
0
0
0
0
0
0
0
0
0
0
0
0
0
0
0
0
0
0
0
0
0
0
0
0
0
0
0
0
0
0
0
0
0
0
0
0
0
0
0
0
0
0
0
0
0
0
0
0
0
0
0
0
0
0
0
0
0
0
0
0
0
0
0
0
0
0
0
0
0
0
0
0
0
0
0
0
0
0
0
0
0
0
0
0
0
0
0
0
0
0
0
0
0
0
0
0
0
0
0
0
0
0
0
0
0
0
0
0
0
0
0
0
0
0
0
0
0
0
0
0
0
0
0
0
0
0
0
0
0
0
0
0
0
0
0
0
0
0
0
0
0
0
0
0
0
0
0
0
0
0
0
0
0
0
0
0
0
0
0
0
0
0
0
0
0
0
0
0
0
0
0
0
0
0
0
0
0
0
0
0
0
0
0
0
0
0
0
0
0
0
0
0
0
0
0
0
0
0
0
0
0
0
0
0
0
0
0
0
0
0
0
0
0
0
0
0
0
0
0
0
0
0
0
0
0
0
0
0
0
0
0
0
0
0
0
0
0
0
0
0
0
0
0
0
0
0
0
0
0
0
0
0
0
0
0
0
0
0
0
0
0
0
0
0
0
0
0
0
0
0
0
0
0
0
0
0
0
0
0
0
0
0
0
0
0
0
0
0
0
0
0
0
0
0
0
0
0
0
0
0
0
0
0
0
0
0
0
0
0
0
0
0
0
0
0
0
0
0
0
0
0
0
0
0
0
0
0
0
0
0
0
0
0
0
0
0
0
0
0
0
0
0
0
0
0
0
0
0
0
0
0
0
0
0
0
0
0
0
0
0
0
0
0
0
0
0
0
0
0
0
0
0
0
0
0
0
0
0
0
0
0
0
0
0
0
0
0
0
0
0
0
0
0
0
0
0
0
0
0
0
0
0
0
0
0
0
0
0
0
0
0
0
0
0
0
0
0
0
0
0
0
0
0
0
0
0
0
0
0
0
0
0
0
0
0
0
0
0
0
0
0
0
0
0
0
0
0
0
0
0
0
0
0
0
0
0
0
0
0
0
0
0
0
0
0
0
0
0
0
0
0
0
0
0
0
0
0
0
0
0
0
0
0
0
0
0
0
0
0
0
0
0
0
0
0
0
0
0
0
0
0
0
0
0
0
0
0
0
0
0
0
0
0
0
0
0
0
0
0
0
0
0
0
0
0
0
0
0
0
0
0
0
0
0
0
0
0
0
0
0
0
0
0
0
0
0
0
0
0
0
0
0
0
0
0
0
0
0
0
0
0
0
0
0
0
0
0
0
0
0
0
0
0
0
0
0
0
0
0
0
0
0
0
0
0
0
0
0
0
0
0
0
0
0
0
0
0
0
0
0
0
0
0
0
0
0
0
0
0
0
0
0
0
0
0
0
0
0
0
0
0
0
0
0
0
0
0
0
0
0
0
0
0
0
0
0
0
0
0
0
0
0
0
0
0
0
0
0
0
0
0
0
0
0
0
0
0
0
0
0
0
0
0
0
0
0
0
0
0
0
0
0
0
0
0
0
0
0
0
0
0
0
0
0
0
0
0
0
0
0
0
0
0
0
0
0
0
0
0
0
0
0
0
0
0
0
0
0
0
0
0
0
0
0
0
0
0
0
0
0
0
0
0
0
0
0
0
0
0
0
0
0
0
0
0
0
0
0
0
0
0
0
0
0
0
0
0
0
0
0
0
0
0
0
0
0
0
0
0
0
0
0
0
0
0
0
0
0
0
0
0
0
0
0
0
0
0
0
0
0
0
0
0
0
0
0
0
0
0
0
0
0
0
0
0
0
0
0
0
0
0
0
0
0
0
0
0
0
0
0
0
0
0
0
0
0
0
0
0
0
0
0
0
0
0
0
0
0
0
0
0
0
0
0
0
0
0
0
0
0
0
0
0
0
0
0
0
0
0
0
0
0
0
0
0
0
0
0
0
0
0
0
0
0
0
0
0
0
0
0
0
0
0
0
0
0
0
0
0
0
0
0
0
0
0
0
0
0
0
0
0
0
0
0
0
0
0
0
0
0
0
0
0
0
0
0
0
0
0
0
0
0
0
0
0
0
0
0
0
0
0
0
0
0
0
0
0
0
0
0
0
0
0
0
0
0
0
0
0
0
0
0
0
0
0
0
0
0
0
0
0
0
0
0
0
0
0
0
0
0
0
0
0
0
0
0
0
0
0
0
0
0
0
0
0
0
0
0
0
0
0
0
0
0
0
0
0
0
0
0
0
0
0
0
0
0
0
0
0
0
0
0
0
0
0
0
0
0
0
0
0
0
0
0
0
0
0
0
0
0
0
0
0
0
0
0
0
0
0
0
0
0
0
0
0
0
0
0
0
0
0
0
0
0
0
0
0
0
0
0
0
0
0
0
0
0
0
0
0
0
0
0
0
0
0
0
0
0
0
0
0
0
0
0
0
0
0
0
0
0
0
0
0
0
0
0
0
0
0
0
0
0
0
0
0
0
0
0
0
0
0
0
0
0
0
0
0
0
0
0
0
0
0
0
0
0
0
0
0
0
0
0
0
0
0
0
0
0
0
0
0
0
0
0
0
0
0
0
0
0
0
0
0
0
0
0
0
0
0
0
0
0
0
0
0
0
0
0
0
0
0
0
0
0
0
0
0
0
0
0
0
0
0
0
0
0
0
0
0
0
0
0
0
0
0
0
0
0
0
0
0
0
0
0
0
0
0
0
0
0
0
0
0
0
0
0
0
0
0
0
0
0
0
0
0
0
0
0
0
0
0
0
0
0
0
0
0
0
0
0
0
0
0
0
0
0
0
0
0
0
0
0
0
0
0
0
0
0
0
0
0
0
0
0
0
0
0
0
0
0
0
0
0
0
0
0
0
0
0
0
0
0
0
0
0
0
0
0
0
0
0
0
0
0
0
0
0
0
0
0
0
0
0
0
0
0
0
0
0
0
0
0
0
0
0
0
0
0
0
0
0
0
0
0
0
0
0
0
0
0
0
0
0
0
0
0
0
0
0
0
0
0
0
0
0
0
0
0
0
0
0
0
0
0
0
0
0
0
0
0
0
0
0
0
0
0
0
0
0
0
0
0
0
0
0
0
0
0
0
0
0
0
0
0
0
0
0
0
0
0
0
0
0
0
0
0
0
0
0
0
0
0
0
0
0
0
0
0
0
0
0
0
0
0
0
0
0
0
0
0
0
0
0
0
0
0
0
0
0
0
0
0
0
0
0
0
0
0
0
0
0
0
0
0
0
0
0
0
0
0
0
0
0
0
0
0
0
0
0
0
0
0
0
0
0
0
0
0
0
0
0
0
0
0
0
0
0
0
0
0
0
0
0
0
0
0
0
0
0
0
0
0
0
0
0
0
0
0
0
0
0
0
0
0
0
0
0
0
0
0
0
0
0
0
0
0
0
0
0
0
0
0
0
0
0
0
0
0
0
0
0
0
0
0
0
0
0
0
0
0
0
0
0
0
0
0
0
0
0
0
0
0
0
0
0
0
0
0
0
0
0
0
0
0
0
0
0
0
0
0
0
0
0
0
0
0
0
0
0
0
0
0
0
0
0
0
0
0
0
0
0
0
0
0
0
0
0
0
0
0
0
0
0
0
0
0
0
0
0
0
0
0
0
0
0
0
0
0
0
0
0
0
0
0
0
0
0
0
0
0
0
0
0
0
0
0
0
0
0
0
0
0
0
0
0
0
0
0
0
0
0
0
0
0
0
0
0
0
0
0
0
0
0
0
0
0
0
0
0
0
0
0
0
0
0
0
0
0
0
0
0
0
0
0
0
0
0
0
0
0
0
0
0
0
0
0
0
0
0
0
0
0
0
0
0
0
0
0
0
0
0
0
0
0
0
0
0
0
0
0
0
0
0
0
0
0
0
0
0
0
0
0
0
0
0
0
0
0
0
0
0
0
0
0
0
0
0
0
0
0
0
0
0
0
0
0
0
0
0
0
0
0
0
0
0
0
0
0
0
0
0
0
0
0
0
0
0
0
0
0
0
0
0
0
0
0
0
0
0
0
0
0
0
0
0
0
0
0
0
0
0
0
0
0
0
0
0
0
0
0
0
0
0
0
0
0
0
0
0
0
0
0
0
0
0
0
0
0
0
0
0
0
0
0
0
0
0
0
0
0
0
0
0
0
0
0
0
0
0
0
0
0
0
0
0
0
0
0
0
0
0
0
0
0
0
0
0
0
0
0
0
0
0
0
0
0
0
0
0
0
0
0
0
0
0
0
0
0
0
0
0
0
0
0
0
0
0
0
0
0
0
0
0
0
0
0
0
0
0
0
0
0
0
0
0
0
0
0
0
0
0
0
0
0
0
0
0
0
0
0
0
0
0
0
0
0
0
0
0
0
0
0
0
0
0
0
0
0
0
0
0
0
0
0
0
0
0
0
0
0
0
0
0
0
0
0
0
0
0
0
0
0
0
0
0
0
0
0
0
0
0
0
0
0
0
0
0
0
0
0
0
0
0
0
0
0
0
0
0
0
0
0
0
0
0
0
0
0
0
0
0
0
0
0
0
0
0
0
0
0
0
0
0
0
0
0
0
0
0
0
0
0
0
0
0
0
0
0
0
0
0
0
0
0
0
0
0
0
0
0
0
0
0
0
0
0
0
0
0
0
0
0
0
0
0
0
0
0
0
0
0
0
0
0
0
0
0
0
0
0
0
0
0
0
0
0
0
0
0
0
0
0
0
0
0
0
0
0
0
0
0
0
0
0
0
0
0
0
0
0
0
0
0
0
0
0
0
0
0
0
0
0
0
0
0
0
0
0
0
0
0
0
0
0
0
0
0
0
0
0
0
0
0
0
0
0
0
0
0
0
0
0
0
0
0
0
0
0
0
0
0
0
0
0
0
0
0
0
0
0
0
0
0
0
0
0
0
0
0
0
0
0
0
0
0
0
0
0
0
0
0
0
0
0
0
0
0
0
0
0
0
0
0
0
0
0
0
0
0
0
0
0
0
0
0
0
0
0
0
0
0
0
0
0
0
0
0
0
0
0
0
0
0
0
0
0
0
0
0
0
0
0
0
0
0
0
0
0
0
0
0
0
0
0
0
0
0
0
0
0
0
0
0
0
0
0
0
0
0
0
0
0
0
0
0
0
0
0
0
0
0
0
0
0
0
0
0
0
0
0
0
0
0
0
0
0
0
0
0
0
0
0
0
0
0
0
0
0
0
0
0
0
0
0
0
0
0
0
0
0
0
0
0
0
0
0
0
0
0
0
0
0
0
0
0
0
0
0
0
0
0
0
0
0
0
0
0
0
0
0
0
0
0
0
0
0
0
0
0
0
0
0
0
0
0
0
0
0
0
0
0
0
0
0
0
0
0
0
0
0
0
0
0
0
0
0
0
0
0
0
0
0
0
0
0
0
0
0
0
0
0
0
0
0
0
0
0
0
0
0
0
0
0
0
0
0
0
0
0
0
0
0
0
0
0
0
0
0
0
0
0
0
0
0
0
0
0
0
0
0
0
0
0
0
0
0
0
0
0
0
0
0
0
0
0
0
0
0
0
0
0
0
0
0
0
0
0
0
0
0
0
0
0
0
0
0
0
0
0
0
0
0
0
0
0
0
0
0
0
0
0
0
0
0
0
0
0
0
0
0
0
0
0
0
0
0
0
0
0
0
0
0
0
0
0
0
0
0
0
0
0
0
0
0
0
0
0
0
0
0
0
0
0
0
0
0
0
0
0
0
0
0
0
0
0
0
0
0
0
0
0
0
0
0
0
0
0
0
0
0
0
0
0
0
0
0
0
0
0
0
0
0
0
0
0
0
0
0
0
0
0
0
0
0
0
0
0
0
0
0
0
0
0
0
0
0
0
0
0
0
0
0
0
0
0
0
0
0
0
0
0
0
0
0
0
0
0
0
0
0
0
0
0
0
0
0
0
0
0
0
0
0
0
0
0
0
0
0
0
0
0
0
0
0
0
0
0
0
0
0
0
0
0
0
0
0
0
0
0
0
0
0
0
0
0
0
0
0
0
0
0
0
0
0
0
0
0
0
0
0
0
0
0
0
0
0
0
0
0
0
0
0
0
0
0
0
0
0
0
0
0
0
0
0
0
0
0
0
0
0
0
0
0
0
0
0
0
0
0
0
0
0
0
0
0
0
0
0
0
0
0
0
0
0
0
0
0
0
0
0
0
0
0
0
0
0
0
0
0
0
0
0
0
0
0
0
0
0
0
0
0
0
0
0
0
0
0
0
0
0
0
0
0
0
0
0
0
0
0
0
0
0
0
0
0
0
0
0
0
0
0
0
0
0
0
0
0
0
0
0
0
0
0
0
0
0
0
0
0
0
0
0
0
0
0
0
0
0
0
0
0
0
0
0
0
0
0
0
0
0
0
0
0
0
0
0
0
0
0
0
0
0
0
0
0
0
0
0
0
0
0
0
0
0
0
0
0
0
0
0
0
0
0
0
0
0
0
0
0
0
0
0
0
0
0
0
0
0
0
0
0
0
0
0
0
0
0
0
0
0
0
0
0
0
0
0
0
0
0
0
0
0
0
0
0
0
0
0
0
0
0
0
0
0
0
0
0
0
0
0
0
0
0
0
0
0
0
0
0
0
0
0
0
0
0
0
0
0
0
0
0
0
0
0
0
0
0
0
0
0
0
0
0
0
0
0
0
0
0
0
0
0
0
0
0
0
0
0
0
0
0
0
0
0
0
0
0
0
0
0
0
0
0
0
0
0
0
0
0
0
0
0
0
0
0
0
0
0
0
0
0
0
0
0
0
0
0
0
0
0
0
0
0
0
0
0
0
0
0
0
0
0
0
0
0
0
0
0
0
0
0
0
0
0
0
0
0
0
0
0
0
0
0
0
0
0
0
0
0
0
0
0
0
0
0
0
0
0
0
0
0
0
0
0
0
0
0
0
0
0
0
0
0
0
0
0
0
0
0
0
0
0
0
0
0
0
0
0
0
0
0
0
0
0
0
0
0
0
0
0
0
0
0
0
0
0
0
0
0
0
0
0
0
0
0
0
0
0
0
0
0
0
0
0
0
0
0
0
0
0
0
0
0
0
0
0
0
0
0
0
0
0
0
0
0
0
0
0
0
0
0
0
0
0
0
0
0
0
0
0
0
0
0
0
0
0
0
0
0
0
0
0
0
0
0
0
0
0
0
0
0
0
0
0
0
0
0
0
0
0
0
0
0
0
0
0
0
0
0
0
0
0
0
0
0
0
0
0
0
0
0
0
0
0
0
0
0
0
0
0
0
0
0
0
0
0
0
0
0
0
0
0
0
0
0
0
0
0
0
0
0
0
0
0
0
0
0
0
0
0
0
0
0
0
0
0
0
0
0
0
0
0
0
0
0
0
0
0
0
0
0
0
0
0
0
0
0
0
0
0
0
0
0
0
0
0
0
0
0
0
0
0
0
0
0
0
0
0
0
0
0
0
0
0
0
0
0
0
0
0
0
0
0
0
0
0
0
0
0
0
0
0
0
0
0
0
0
0
0
0
0
0
0
0
0
0
0
0
0
0
0
0
0
0
0
0
0
0
0
0
0
0
0
0
0
0
0
0
0
0
0
0
0
0
0
0
0
0
0
0
0
0
0
0
0
0
0
0
0
0
0
0
0
0
0
0
0
0
0
0
0
0
0
0
0
0
0
0
0
0
0
0
0
0
0
0
0
0
0
0
0
0
0
0
0
0
0
0
0
0
0
0
0
0
0
0
0
0
0
0
0
0
0
0
0
0
0
0
0
0
0
0
0
0
0
0
0
0
0
0
0
0
0
0
0
0
0
0
0
0
0
0
0
0
0
0
0
0
0
0
0
0
0
0
0
0
0
0
0
0
0
0
0
0
0
0
0
0
0
0
0
0
0
0
0
0
0
0
0
0
0
0
0
0
0
0
0
0
0
0
0
0
0
0
0
0
0
0
0
0
0
0
0
0
0
0
0
0
0
0
0
0
0
0
0
0
0
0
0
0
0
0
0
0
0
0
0
0
0
0
0
0
0
0
0
0
0
0
0
0
0
0
0
0
0
0
0
0
0
0
0
0
0
0
0
0
0
0
0
0
0
0
0
0
0
0
0
0
0
0
0
0
0
0
0
0
0
0
0
0
0
0
0
0
0
0
0
0
0
0
0
0
0
0
0
0
0
0
0
0
0
0
0
0
0
0
0
0
0
0
0
0
0
0
0
0
0
0
0
0
0
0
0
0
0
0
0
0
0
0
0
0
0
0
0
0
0
0
0
0
0
0
0
0
0
0
0
0
0
0
0
0
0
0
0
0
0
0
0
0
0
0
0
0
0
0
0
0
0
0
0
0
0
0
0
0
0
0
0
0
0
0
0
0
0
0
0
0
0
0
0
0
0
0
0
0
0
0
0
0
0
0
0
0
0
0
0
0
0
0
0
0
0
0
0
0
0
0
0
0
0
0
0
0
0
0
0
0
0
0
0
0
0
0
0
0
0
0
0
0
0
0
0
0
0
0
0
0
0
0
0
0
0
0
0
0
0
0
0
0
0
0
0
0
0
0
0
0
0
0
0
0
0
0
0
0
0
0
0
0
0
0
0
0
0
0
0
0
0
0
0
0
0
0
0
0
0
0
0
0
0
0
0
0
0
0
0
0
0
0
0
0
0
0
0
0
0
0
0
0
0
0
0
0
0
0
0
0
0
0
0
0
0
0
0
0
0
0
0
0
0
0
0
0
0
0
0
0
0
0
0
0
0
0
0
0
0
0
0
0
0
0
0
0
0
0
0
0
0
0
0
0
0
0
0
0
0
0
0
0
0
0
0
0
0
0
0
0
0
0
0
0
0
0
0
0
0
0
0
0
0
0
0
0
0
0
0
0
0
0
0
0
0
0
0
0
0
0
0
0
0
0
0
0
0
0
0
0
0
0
0
0
0
0
0
0
0
0
0
0
0
0
0
0
0
0
0
0
0
0
0
0
0
0
0
0
0
0
0
0
0
0
0
0
0
0
0
0
0
0
0
0
0
0
0
0
0
0
0
0
0
0
0
0
0
0
0
0
0
0
0
0
0
0
0
0
0
0
0
0
0
0
0
0
0
0
0
0
0
0
0
0
0
0
0
0
0
0
0
0
0
0
0
0
0
0
0
0
0
0
0
0
0
0
0
0
0
0
0
0
0
0
0
0
0
0
0
0
0
0
0
0
0
0
0
0
0
0
0
0
0
0
0
0
0
0
0
0
0
0
0
0
0
0
0
0
0
0
0
0
0
0
0
0
0
0
0
0
0
0
0
0
0
0
0
0
0
0
0
0
0
0
0
0
0
0
0
0
0
0
0
0
0
0
0
0
0
0
0
0
0
0
0
0
0
0
0
0
0
0
0
0
0
0
0
0
0
0
0
0
0
0
0
0
0
0
0
0
0
0
0
0
0
0
0
0
0
0
0
0
0
0
0
0
0
0
0
0
0
0
0
0
0
0
0
0
0
0
0
0
0
0
0
0
0
0
0
0
0
0
0
0
0
0
0
0
0
0
0
0
0
0
0
0
0
0
0
0
0
0
0
0
0
0
0
0
0
0
0
0
0
0
0
0
0
0
0
0
0
0
0
0
0
0
0
0
0
0
0
0
0
0
0
0
0
0
0
0
0
0
0
0
0
0
0
0
0
0
0
0
0
0
0
0
0
0
0
0
0
0
0
0
0
0
0
0
0
0
0
0
0
0
0
0
0
0
0
0
0
0
0
0
0
0
0
0
0
0
0
0
0
0
0
0
0
0
0
0
0
0
0
0
0
0
0
0
0
0
0
0
0
0
0
0
0
0
0
0
0
0
0
0
0
0
0
0
0
0
0
0
0
0
0
0
0
0
0
0
0
0
0
0
0
0
0
0
0
0
0
0
0
0
0
0
0
0
0
0
0
0
0
0
0
0
0
0
0
0
0
0
0
0
0
0
0
0
0
0
0
0
0
0
0
0
0
0
0
0
0
0
0
0
0
0
0
0
0
0
0
0
0
0
0
0
0
0
0
0
0
0
0
0
0
0
0
0
0
0
0
0
0
0
0
0
0
0
0
0
0
0
0
0
0
0
0
0
0
0
0
0
0
0
0
0
0
0
0
0
0
0
0
0
0
0
0
0
0
0
0
0
0
0
0
0
0
0
0
0
0
0
0
0
0
0
0
0
0
0
0
0
0
0
0
0
0
0
0
0
0
0
0
0
0
0
0
0
0
0
0
0
0
0
0
0
0
0
0
0
0
0
0
0
0
0
0
0
0
0
0
0
0
0
0
0
0
0
0
0
0
0
0
0
0
0
0
0
0
0
0
0
0
0
0
0
0
0
0
0
0
0
0
0
0
0
0
0
0
0
0
0
0
0
0
0
0
0
0
0
0
0
0
0
0
0
0
0
0
0
0
0
0
0
0
0
0
0
0
0
0
0
0
0
0
0
0
0
0
0
0
0
0
0
0
0
0
0
0
0
0
0
0
0
0
0
0
0
0
0
0
0
0
0
0
0
0
0
0
0
0
0
0
0
0
0
0
0
0
0
0
0
0
0
0
0
0
0
0
0
0
0
0
0
0
0
0
0
0
0
0
0
0
0
0
0
0
0
0
0
0
0
0
0
0
0
0
0
0
0
0
0
0
0
0
0
0
0
0
0
0
0
0
0
0
0
0
0
0
0
0
0
0
0
0
0
0
0
0
0
0
0
0
0
0
0
0
0
0
0
0
0
0
0
0
0
0
0
0
0
0
0
0
0
0
0
0
0
0
0
0
0
0
0
0
0
0
0
0
0
0
0
0
0
0
0
0
0
0
0
0
0
0
0
0
0
0
0
0
0
0
0
0
0
0
0
0
0
0
0
0
0
0
0
0
0
0
0
0
0
0
0
0
0
0
0
0
0
0
0
0
0
0
0
0
0
0
0
0
0
0
0
0
0
0
0
0
0
0
0
0
0
0
0
0
0
0
0
0
0
0
0
0
0
0
0
0
0
0
0
0
0
0
0
0
0
0
0
0
0
0
0
0
0
0
0
0
0
0
0
0
0
0
0
0
0
0
0
0
0
0
0
0
0
0
0
0
0
0
0
0
0
0
0
0
0
0
0
0
0
0
0
0
0
0
0
0
0
0
0
0
0
0
0
0
0
0
0
0
0
0
0
0
0
0
0
0
0
0
0
0
0
0
0
0
0
0
0
0
0
0
0
0
0
0
0
0
0
0
0
0
0
0
0
0
0
0
0
0
0
0
0
0
0
0
0
0
0
0
0
0
0
0
0
0
0
0
0
0
0
0
0
0
0
0
0
0
0
0
0
0
0
0
0
0
0
0
0
0
0
0
0
0
0
0
0
0
0
0
0
0
0
0
0
0
0
0
0
0
0
0
0
0
0
0
0
0
0
0
0
0
0
0
0
0
0
0
0
0
0
0
0
0
0
0
0
0
0
0
0
0
0
0
0
0
0
0
0
0
0
0
0
0
0
0
0
0
0
0
0
0
0
0
0
0
0
0
0
0
0
0
0
0
0
0
0
0
0
0
0
0
0
0
0
0
0
0
0
0
0
0
0
0
0
0
0
0
0
0
0
0
0
0
0
0
0
0
0
0
0
0
0
0
0
0
0
0
0
0
0
0
0
0
0
0
0
0
0
0
0
0
0
0
0
0
0
0
0
0
0
0
0
0
0
0
0
0
0
0
0
0
0
0
0
0
0
0
0
0
0
0
0
0
0
0
0
0
0
0
0
0
0
0
0
0
0
0
0
0
0
0
0
0
0
0
0
0
0
0
0
0
0
0
0
0
0
0
0
0
0
0
0
0
0
0
0
0
0
0
0
0
0
0
0
0
0
0
0
0
0
0
0
0
0
0
0
0
0
0
0
0
0
0
0
0
0
0
0
0
0
0
0
0
0
0
0
0
0
0
0
0
0
0
0
0
0
0
0
0
0
0
0
0
0
0
0
0
0
0
0
0
0
0
0
0
0
0
0
0
0
0
0
0
0
0
0
0
0
0
0
0
0
0
0
0
0
0
0
0
0
0
0
0
0
0
0
0
0
0
0
0
0
0
0
0
0
0
0
0
0
0
0
0
0
0
0
0
0
0
0
0
0
0
0
0
0
0
0
0
0
0
0
0
0
0
0
0
0
0
0
0
0
0
0
0
0
0
0
0
0
0
0
0
0
0
0
0
0
0
0
0
0
0
0
0
0
0
0
0
0
0
0
0
0
0
0
0
0
0
0
0
0
0
0
0
0
0
0
0
0
0
0
0
0
0
0
0
0
0
0
0
0
0
0
0
0
0
0
0
0
0
0
0
0
0
0
0
0
0
0
0
0
0
0
0
0
0
0
0
0
0
0
0
0
0
0
0
0
0
0
0
0
0
0
0
0
0
0
0
0
0
0
0
0
0
0
0
0
0
0
0
0
0
0
0
0
0
0
0
0
0
0
0
0
0
0
0
0
0
0
0
0
0
0
0
0
0
0
0
0
0
0
0
0
0
0
0
0
0
0
0
0
0
0
0
0
0
0
0
0
0
0
0
0
0
0
0
0
0
0
0
0
0
0
0
0
0
0
0
0
0
0
0
0
0
0
0
0
0
0
0
0
0
0
0
0
0
0
0
0
0
0
0
0
0
0
0
0
0
0
0
0
0
0
0
0
0
0
0
0
0
0
0
0
0
0
0
0
0
0
0
0
0
0
0
0
0
0
0
0
0
0
0
0
0
0
0
0
0
0
0
0
0
0
0
0
0
0
0
0
0
0
0
0
0
0
0
0
0
0
0
0
0
0
0
0
0
0
0
0
0
0
0
0
0
0
0
0
0
0
0
0
0
0
0
0
0
0
0
0
0
0
0
0
0
0
0
0
0
0
0
0
0
0
0
0
0
0
0
0
0
0
0
0
0
0
0
0
0
0
0
0
0
0
0
0
0
0
0
0
0
0
0
0
0
0
0
0
0
0
0
0
0
0
0
0
0
0
0
0
0
0
0
0
0
0
0
0
0
0
0
0
0
0
0
0
0
0
0
0
0
0
0
0
0
0
0
0
0
0
0
0
0
0
0
0
0
0
0
0
0
0
0
0
0
0
0
0
0
0
0
0
0
0
0
0
0
0
0
0
0
0
0
0
0
0
0
0
0
0
0
0
0
0
0
0
0
0
0
0
0
0
0
0
0
0
0
0
0
0
0
0
0
0
0
0
0
0
0
0
0
0
0
0
0
0
0
0
0
0
0
0
0
0
0
0
0
0
0
0
0
0
0
0
0
0
0
0
0
0
0
0
0
0
0
0
0
0
0
0
0
0
0
0
0
0
0
0
0
0
0
0
0
0
0
0
0
0
0
0
0
0
0
0
0
0
0
0
0
0
0
0
0
0
0
0
0
0
0
0
0
0
0
0
0
0
0
0
0
0
0
0
0
0
0
0
0
0
0
0
0
0
0
0
0
0
0
0
0
0
0
0
0
0
0
0
0
0
0
0
0
0
0
0
0
0
0
0
0
0
0
0
0
0
0
0
0
0
0
0
0
0
0
0
0
0
0
0
0
0
0
0
0
0
0
0
0
0
0
0
0
0
0
0
0
0
0
0
0
0
0
0
0
0
0
0
0
0
0
0
0
0
0
0
0
0
0
0
0
0
0
0
0
0
0
0
0
0
0
0
0
0
0
0
0
0
0
0
0
0
0
0
0
0
0
0
0
0
0
0
0
0
0
0
0
0
0
0
0
0
0
0
0
0
0
0
0
0
0
0
0
0
0
0
0
0
0
0
0
0
0
0
0
0
0
0
0
0
0
0
0
0
0
0
0
0
0
0
0
0
0
0
0
0
0
0
0
0
0
0
0
0
0
0
0
0
0
0
0
0
0
0
0
0
0
0
0
0
0
0
0
0
0
0
0
0
0
0
0
0
0
0
0
0
0
0
0
0
0
0
0
0
0
0
0
0
0
0
0
0
0
0
0
0
0
0
0
0
0
0
0
0
0
0
0
0
0
0
0
0
0
0
0
0
0
0
0
0
0
0
0
0
0
0
0
0
0
0
0
0
0
0
0
0
0
0
0
0
0
0
0
0
0
0
0
0
0
0
0
0
0
0
0
0
0
0
0
0
0
0
0
0
0
0
0
0
0
0
0
0
0
0
0
0
0
0
0
0
0
0
0
0
0
0
0
0
0
0
0
0
0
0
0
0
0
0
0
0
0
0
0
0
0
0
0
0
0
0
0
0
0
0
0
0
0
0
0
0
0
0
0
0
0
0
0
0
0
0
0
0
0
0
0
0
0
0
0
0
0
0
0
0
0
0
0
0
0
0
0
0
0
0
0
0
0
0
0
0
0
0
0
0
0
0
0
0
0
0
0
0
0
0
0
0
0
0
0
0
0
0
0
0
0
0
0
0
0
0
0
0
0
0
0
0
0
0
0
0
0
0
0
0
0
0
0
0
0
0
0
0
0
0
0
0
0
0
0
0
0
0
0
0
0
0
0
0
0
0
0
0
0
0
0
0
0
0
0
0
0
0
0
0
0
0
0
0
0
0
0
0
0
0
0
0
0
0
0
0
0
0
0
0
0
0
0
0
0
0
0
0
0
0
0
0
0
0
0
0
0
0
0
0
0
0
0
0
0
0
0
0
0
0
0
0
0
0
0
0
0
0
0
0
0
0
0
0
0
0
0
0
0
0
0
0
0
0
0
0
0
0
0
0
0
0
0
0
0
0
0
0
0
0
0
0
0
0
0
0
0
0
0
0
0
0
0
0
0
0
0
0
0
0
0
0
0
0
0
0
0
0
0
0
0
0
0
0
0
0
0
0
0
0
0
0
0
0
0
0
0
0
0
0
0
0
0
0
0
0
0
0
0
0
0
0
0
0
0
0
0
0
0
0
0
0
0
0
0
0
0
0
0
0
0
0
0
0
0
0
0
0
0
0
0
0
0
0
0
0
0
0
0
0
0
0
0
0
0
0
0
0
0
0
0
0
0
0
0
0
0
0
0
0
0
0
0
0
0
0
0
0
0
0
0
0
0
0
0
0
0
0
0
0
0
0
0
0
0
0
0
0
0
0
0
0
0
0
0
0
0
0
0
0
0
0
0
0
0
0
0
0
0
0
0
0
0
0
0
0
0
0
0
0
0
0
0
0
0
0
0
0
0
0
0
0
0
0
0
0
0
0
0
0
0
0
0
0
0
0
0
0
0
0
0
0
0
0
0
0
0
0
0
0
0
0
0
0
0
0
0
0
0
0
0
0
0
0
0
0
0
0
0
0
0
0
0
0
0
0
0
0
0
0
0
0
0
0
0
0
0
0
0
0
0
0
0
0
0
0
0
0
0
0
0
0
0
0
0
0
0
0
0
0
0
0
0
0
0
0
0
0
0
0
0
0
0
0
0
0
0
0
0
0
0
0
0
0
0
0
0
0
0
0
0
0
0
0
0
0
0
0
0
0
0
0
0
0
0
0
0
0
0
0
0
0
0
0
0
0
0
0
0
0
0
0
0
0
0
0
0
0
0
0
0
0
0
0
0
0
0
0
0
0
0
0
0
0
0
0
0
0
0
0
0
0
0
0
0
0
0
0
0
0
0
0
0
0
0
0
0
0
0
0
0
0
0
0
0
0
0
0
0
0
0
0
0
0
0
0
0
0
0
0
0
0
0
0
0
0
0
0
0
0
0
0
0
0
0
0
0
0
0
0
0
0
0
0
0
0
0
0
0
0
0
0
0
0
0
0
0
0
0
0
0
0
0
0
0
0
0
0
0
0
0
0
0
0
0
0
0
0
0
0
0
0
0
0
0
0
0
0
0
0
0
0
0
0
0
0
0
0
0
0
0
0
0
0
0
0
0
0
0
0
0
0
0
0
0
0
0
0
0
0
0
0
0
0
0
0
0
0
0
0
0
0
0
0
0
0
0
0
0
0
0
0
0
0
0
0
0
0
0
0
0
0
0
0
0
0
0
0
0
0
0
0
0
0
0
0
0
0
0
0
0
0
0
0
0
0
0
0
0
0
0
0
0
0
0
0
0
0
0
0
0
0
0
0
0
0
0
0
0
0
0
0
0
0
0
0
0
0
0
0
0
0
0
0
0
0
0
0
0
0
0
0
0
0
0
0
0
0
0
0
0
0
0
0
0
0
0
0
0
0
0
0
0
0
0
0
0
0
0
0
0
0
0
0
0
0
0
0
0
0
0
0
0
0
0
0
0
0
0
0
0
0
0
0
0
0
0
0
0
0
0
0
0
0
0
0
0
0
0
0
0
0
0
0
0
0
0
0
0
0
0
0
0
0
0
0
0
0
0
0
0
0
0
0
0
0
0
0
0
0
0
0
0
0
0
0
0
0
0
0
0
0
0
0
0
0
0
0
0
0
0
0
0
0
0
0
0
0
0
0
0
0
0
0
0
0
0
0
0
0
0
0
0
0
0
0
0
0
0
0
0
0
0
0
0
0
0
0
0
0
0
0
0
0
0
0
0
0
0
0
0
0
0
0
0
0
0
0
0
0
0
0
0
0
0
0
0
0
0
0
0
0
0
0
0
0
0
0
0
0
0
0
0
0
0
0
0
0
0
0
0
0
0
0
0
0
0
0
0
0
0
0
0
0
0
0
0
0
0
0
0
0
0
0
0
0
0
0
0
0
0
0
0
0
0
0
0
0
0
0
0
0
0
0
0
0
0
0
0
0
0
0
0
0
0
0
0
0
0
0
0
0
0
0
0
0
0
0
0
0
0
0
0
0
0
0
0
0
0
0
0
0
0
0
0
0
0
0
0
0
0
0
0
0
0
0
0
0
0
0
0
0
0
0
0
0
0
0
0
0
0
0
0
0
0
0
0
0
0
0
0
0
0
0
0
0
0
0
0
0
0
0
0
0
0
0
0
0
0
0
0
0
0
0
0
0
0
0
0
0
0
0
0
0
0
0
0
0
0
0
0
0
0
0
0
0
0
0
0
0
0
0
0
0
0
0
0
0
0
0
0
0
0
0
0
0
0
0
0
0
0
0
0
0
0
0
0
0
0
0
0
0
0
0
0
0
0
0
0
0
0
0
0
0
0
0
0
0
0
0
0
0
0
0
0
0
0
0
0
0
0
0
0
0
0
0
0
0
0
0
0
0
0
0
0
0
0
0
0
0
0
0
0
0
0
0
0
0
0
0
0
0
0
0
0
0
0
0
0
0
0
0
0
0
0
0
0
0
0
0
0
0
0
0
0
0
0
0
0
0
0
0
0
0
0
0
0
0
0
0
0
0
0
0
0
0
0
0
0
0
0
0
0
0
0
0
0
0
0
0
0
0
0
0
0
0
0
0
0
0
0
0
0
0
0
0
0
0
0
0
0
0
0
0
0
0
0
0
0
0
0
0
0
0
0
0
0
0
0
0
0
0
0
0
0
0
0
0
0
0
0
0
0
0
0
0
0
0
0
0
0
0
0
0
0
0
0
0
0
0
0
0
0
0
0
0
0
0
0
0
0
0
0
0
0
0
0
0
0
0
0
0
0
0
0
0
0
0
0
0
0
0
0
0
0
0
0
0
0
0
0
0
0
0
0
0
0
0
0
0
0
0
0
0
0
0
0
0
0
0
0
0
0
0
0
0
0
0
0
0
0
0
0
0
0
0
0
0
0
0
0
0
0
0
0
0
0
0
0
0
0
0
0
0
0
0
0
0
0
0
0
0
0
0
0
0
0
0
0
0
0
0
0
0
0
0
0
0
0
0
0
0
0
0
0
0
0
0
0
0
0
0
0
0
0
0
0
0
0
0
0
0
0
0
0
0
0
0
0
0
0
0
0
0
0
0
0
0
0
0
0
0
0
0
0
0
0
0
0
0
0
0
0
0
0
0
0
0
0
0
0
0
0
0
0
0
0
0
0
0
0
0
0
0
0
0
0
0
0
0
0
0
0
0
0
0
0
0
0
0
0
0
0
0
0
0
0
0
0
0
0
0
0
0
0
0
0
0
0
0
0
0
0
0
0
0
0
0
0
0
0
0
0
0
0
0
0
0
0
0
0
0
0
0
0
0
0
0
0
0
0
0
0
0
0
0
0
0
0
0
0
0
0
0
0
0
0
0
0
0
0
0
0
0
0
0
0
0
0
0
0
0
0
0
0
0
0
0
0
0
0
0
0
0
0
0
0
0
0
0
0
0
0
0
0
0
0
0
0
0
0
0
0
0
0
0
0
0
0
0
0
0
0
0
0
0
0
0
0
0
0
0
0
0
0
0
0
0
0
0
0
0
0
0
0
0
0
0
0
0
0
0
0
0
0
0
0
0
0
0
0
0
0
0
0
0
0
0
0
0
0
0
0
0
0
0
0
0
0
0
0
0
0
0
0
0
0
0
0
0
0
0
0
0
0
0
0
0
0
0
0
0
0
0
0
0
0
0
0
0
0
0
0
0
0
0
0
0
0
0
0
0
0
0
0
0
0
0
0
0
0
0
0
0
0
0
0
0
0
0
0
0
0
0
0
0
0
0
0
0
0
0
0
0
0
0
0
0
0
0
0
0
0
0
0
0
0
0
0
0
0
0
0
0
0
0
0
0
0
0
0
0
0
0
0
0
0
0
0
0
0
0
0
0
0
0
0
0
0
0
0
0
0
0
0
0
0
0
0
0
0
0
0
0
0
0
0
0
0
0
0
0
0
0
0
0
0
0
0
0
0
0
0
0
0
0
0
0
0
0
0
0
0
0
0
0
0
0
0
0
0
0
0
0
0
0
0
0
0
0
0
0
0
0
0
0
0
0
0
0
0
0
0
0
0
0
0
0
0
0
0
0
0
0
0
0
0
0
0
0
0
0
0
0
0
0
0
0
0
0
0
0
0
0
0
0
0
0
0
0
0
0
0
0
0
0
0
0
0
0
0
0
0
0
0
0
0
0
0
0
0
0
0
0
0
0
0
0
0
0
0
0
0
0
0
0
0
0
0
0
0
0
0
0
0
0
0
0
0
0
0
0
0
0
0
0
0
0
0
0
0
0
0
0
0
0
0
0
0
0
0
0
0
0
0
0
0
0
0
0
0
0
0
0
0
0
0
0
0
0
0
0
0
0
0
0
0
0
0
0
0
0
0
0
0
0
0
0
0
0
0
0
0
0
0
0
0
0
0
0
0
0
0
0
0
0
0
0
0
0
0
0
0
0
0
0
0
0
0
0
0
0
0
0
0
0
0
0
0
0
0
0
0
0
0
0
0
0
0
0
0
0
0
0
0
0
0
0
0
0
0
0
0
0
0
0
0
0
0
0
0
0
0
0
0
0
0
0
0
0
0
0
0
0
0
0
0
0
0
0
0
0
0
0
0
0
0
0
0
0
0
0
0
0
0
0
0
0
0
0
0
0
0
0
0
0
0
0
0
0
0
0
0
0
0
0
0
0
0
0
0
0
0
0
0
0
0
0
0
0
0
0
0
0
0
0
0
0
0
0
0
0
0
0
0
0
0
0
0
0
0
0
0
0
0
0
0
0
0
0
0
0
0
0
0
0
0
0
0
0
0
0
0
0
0
0
0
0
0
0
0
0
0
0
0
0
0
0
0
0
0
0
0
0
0
0
0
0
0
0
0
0
0
0
0
0
0
0
0
0
0
0
0
0
0
0
0
0
0
0
0
0
0
0
0
0
0
0
0
0
0
0
0
0
0
0
0
0
0
0
0
0
0
0
0
0
0
0
0
0
0
0
0
0
0
0
0
0
0
0
0
0
0
0
0
0
0
0
0
0
0
0
0
0
0
0
0
0
0
0
0
0
0
0
0
0
0
0
0
0
0
0
0
0
0
0
0
0
0
0
0
0
0
0
0
0
0
0
0
0
0
0
0
0
0
0
0
0
0
0
0
0
0
0
0
0
0
0
0
0
0
0
0
0
0
0
0
0
0
0
0
0
0
0
0
0
0
0
0
0
0
0
0
0
0
0
0
0
0
0
0
0
0
0
0
0
0
0
0
0
0
0
0
0
0
0
0
0
0
0
0
0
0
0
0
0
0
0
0
0
0
0
0
0
0
0
0
0
0
0
0
0
0
0
0
0
0
0
0
0
0
0
0
0
0
0
0
0
0
0
0
0
0
0
0
0
0
0
0
0
0
0
0
0
0
0
0
0
0
0
0
0
0
0
0
0
0
0
0
0
0
0
0
0
0
0
0
0
0
0
0
0
0
0
0
0
0
0
0
0
0
0
0
0
0
0
0
0
0
0
0
0
0
0
0
0
0
0
0
0
0
0
0
0
0
0
0
0
0
0
0
0
0
0
0
0
0
0
0
0
0
0
0
0
0
0
0
0
0
0
0
0
0
0
0
0
0
0
0
0
0
0
0
0
0
0
0
0
0
0
0
0
0
0
0
0
0
0
0
0
0
0
0
0
0
0
0
0
0
0
0
0
0
0
0
0
0
0
0
0
0
0
0
0
0
0
0
0
0
0
0
0
0
0
0
0
0
0
0
0
0
0
0
0
0
0
0
0
0
0
0
0
0
0
0
0
0
0
0
0
0
0
0
0
0
0
0
0
0
0
0
0
0
0
0
0
0
0
0
0
0
0
0
0
0
0
0
0
0
0
0
0
0
0
0
0
0
0
0
0
0
0
0
0
0
0
0
0
0
0
0
0
0
0
0
0
0
0
0
0
0
0
0
0
0
0
0
0
0
0
0
0
0
0
0
0
0
0
0
0
0
0
0
0
0
0
0
0
0
0
0
0
0
0
0
0
0
0
0
0
0
0
0
0
0
0
0
0
0
0
0
0
0
0
0
0
0
0
0
0
0
0
0
0
0
0
0
0
0
0
0
0
0
0
0
0
0
0
0
0
0
0
0
0
0
0
0
0
0
0
0
0
0
0
0
0
0
0
0
0
0
0
0
0
0
0
0
0
0
0
0
0
0
0
0
0
0
0
0
0
0
0
0
0
0
0
0
0
0
0
0
0
0
0
0
0
0
0
0
0
0
0
0
0
0
0
0
0
0
0
0
0
0
0
0
0
0
0
0
0
0
0
0
0
0
0
0
0
0
0
0
0
0
0
0
0
0
0
0
0
0
0
0
0
0
0
0
0
0
0
0
0
0
0
0
0
0
0
0
0
0
0
0
0
0
0
0
0
0
0
0
0
0
0
0
0
0
0
0
0
0
0
0
0
0
0
0
0
0
0
0
0
0
0
0
0
0
0
0
0
0
0
0
0
0
0
0
0
0
0
0
0
0
0
0
0
0
0
0
0
0
0
0
0
0
0
0
0
0
0
0
0
0
0
0
0
0
0
0
0
0
0
0
0
0
0
0
0
0
0
0
0
0
0
0
0
0
0
0
0
0
0
0
0
0
0
0
0
0
0
0
0
0
0
0
0
0
0
0
0
0
0
0
0
0
0
0
0
0
0
0
0
0
0
0
0
0
0
0
0
0
0
0
0
0
0
0
0
0
0
0
0
0
0
0
0
0
0
0
0
0
0
0
0
0
0
0
0
0
0
0
0
0
0
0
0
0
0
0
0
0
0
0
0
0
0
0
0
0
0
0
0
0
0
0
0
0
0
0
0
0
0
0
0
0
0
0
0
0
0
0
0
0
0
0
0
0
0
0
0
0
0
0
0
0
0
0
0
0
0
0
0
0
0
0
0
0
0
0
0
0
0
0
0
0
0
0
0
0
0
0
0
0
0
0
0
0
0
0
0
0
0
0
0
0
0
0
0
0
0
0
0
0
0
0
0
0
0
0
0
0
0
0
0
0
0
0
0
0
0
0
0
0
0
0
0
0
0
0
0
0
0
0
0
0
0
0
0
0
0
0
0
0
0
0
0
0
0
0
0
0
0
0
0
0
0
0
0
0
0
0
0
0
0
0
0
0
0
0
0
0
0
0
0
0
0
0
0
0
0
0
0
0
0
0
0
0
0
0
0
0
0
0
0
0
0
0
0
0
0
0
0
0
0
0
0
0
0
0
0
0
0
0
0
0
0
0
0
0
0
0
0
0
0
0
0
0
0
0
0
0
0
0
0
0
0
0
0
0
0
0
0
0
0
0
0
0
0
0
0
0
0
0
0
0
0
0
0
0
0
0
0
0
0
0
0
0
0
0
0
0
0
0
0
0
0
0
0
0
0
0
0
0
0
0
0
0
0
0
0
0
0
0
0
0
0
0
0
0
0
0
0
0
0
0
0
0
0
0
0
0
0
0
0
0
0
0
0
0
0
0
0
0
0
0
0
0
0
0
0
0
0
0
0
0
0
0
0
0
0
0
0
0
0
0
0
0
0
0
0
0
0
0
0
0
0
0
0
0
0
0
0
0
0
0
0
0
0
0
0
0
0
0
0
0
0
0
0
0
0
0
0
0
0
0
0
0
0
0
0
0
0
0
0
0
0
0
0
0
0
0
0
0
0
0
0
0
0
0
0
0
0
0
0
0
0
0
0
0
0
0
0
0
0
0
0
0
0
0
0
0
0
0
0
0
0
0
0
0
0
0
0
0
0
0
0
0
0
0
0
0
0
0
0
0
0
0
0
0
0
0
0
0
0
0
0
0
0
0
0
0
0
0
0
0
0
0
0
0
0
0
0
0
0
0
0
0
0
0
0
0
0
0
0
0
0
0
0
0
0
0
0
0
0
0
0
0
0
0
0
0
0
0
0
0
0
0
0
0
0
0
0
0
0
0
0
0
0
0
0
0
0
0
0
0
0
0
0
0
0
0
0
0
0
0
0
0
0
0
0
0
0
0
0
0
0
0
0
0
0
0
0
0
0
0
0
0
0
0
0
0
0
0
0
0
0
0
0
0
0
0
0
0
0
0
0
0
0
0
0
0
0
0
0
0
0
0
0
0
0
0
0
0
0
0
0
0
0
0
0
0
0
0
0
0
0
0
0
0
0
0
0
0
0
0
0
0
0
0
0
0
0
0
0
0
0
0
0
0
0
0
0
0
0
0
0
0
0
0
0
0
0
0
0
0
0
0
0
0
0
0
0
0
0
0
0
0
0
0
0
0
0
0
0
0
0
0
0
0
0
0
0
0
0
0
0
0
0
0
0
0
0
0
0
0
0
0
0
0
0
0
0
0
0
0
0
0
0
0
0
0
0
0
0
0
0
0
0
0
0
0
0
0
0
0
0
0
0
0
0
0
0
0
0
0
0
0
0
0
0
0
0
0
0
0
0
0
0
0
0
0
0
0
0
0
0
0
0
0
0
0
0
0
0
0
0
0
0
0
0
0
0
0
0
0
0
0
0
0
0
0
0
0
0
0
0
0
0
0
0
0
0
0
0
0
0
0
0
0
0
0
0
0
0
0
0
0
0
0
0
0
0
0
0
0
0
0
0
0
0
0
0
0
0
0
0
0
0
0
0
0
0
0
0
0
0
0
0
0
0
0
0
0
0
0
0
0
0
0
0
0
0
0
0
0
0
0
0
0
0
0
0
0
0
0
0
0
0
0
0
0
0
0
0
0
0
0
0
0
0
0
0
0
0
0
0
0
0
0
0
0
0
0
0
0
0
0
0
0
0
0
0
0
0
0
0
0
0
0
0
0
0
0
0
0
0
0
0
0
0
0
0
0
0
0
0
0
0
0
0
0
0
0
0
0
0
0
0
0
0
0
0
0
0
0
0
0
0
0
0
0
0
0
0
0
0
0
0
0
0
0
0
0
0
0
0
0
0
0
0
0
0
0
0
0
0
0
0
0
0
0
0
0
0
0
0
0
0
0
0
0
0
0
0
0
0
0
0
0
0
0
0
0
0
0
0
0
0
0
0
0
0
0
0
0
0
0
0
0
0
0
0
0
0
0
0
0
0
0
0
0
0
0
0
0
0
0
0
0
0
0
0
0
0
0
0
0
0
0
0
0
0
0
0
0
0
0
0
0
0
0
0
0
0
0
0
0
0
0
0
0
0
0
0
0
0
0
0
0
0
0
0
0
0
0
0
0
0
0
0
0
0
0
0
0
0
0
0
0
0
0
0
0
0
0
0
0
0
0
0
0
0
0
0
0
0
0
0
0
0
0
0
0
0
0
0
0
0
0
0
0
0
0
0
0
0
0
0
0
0
0
0
0
0
0
0
0
0
0
0
0
0
0
0
0
0
0
0
0
0
0
0
0
0
0
0
0
0
0
0
0
0
0
0
0
0
0
0
0
0
0
0
0
0
0
0
0
0
0
0
0
0
0
0
0
0
0
0
0
0
0
0
0
0
0
0
0
0
0
0
0
0
0
0
0
0
0
0
0
0
0
0
0
0
0
0
0
0
0
0
0
0
0
0
0
0
0
0
0
0
0
0
0
0
0
0
0
0
0
0
0
0
0
0
0
0
0
0
0
0
0
0
0
0
0
0
0
0
0
0
0
0
0
0
0
0
0
0
0
0
0
0
0
0
0
0
0
0
0
0
0
0
0
0
0
0
0
0
0
0
0
0
0
0
0
0
0
0
0
0
0
0
0
0
0
0
0
0
0
0
0
0
0
0
0
0
0
0
0
0
0
0
0
0
0
0
0
0
0
0
0
0
0
0
0
0
0
0
0
0
0
0
0
0
0
0
0
0
0
0
0
0
0
0
0
0
0
0
0
0
0
0
0
0
0
0
0
0
0
0
0
0
0
0
0
0
0
0
0
0
0
0
0
0
0
0
0
0
0
0
0
0
0
0
0
0
0
0
0
0
0
0
0
0
0
0
0
0
0
0
0
0
0
0
0
0
0
0
0
0
0
0
0
0
0
0
0
0
0
0
0
0
0
0
0
0
0
0
0
0
0
0
0
0
0
0
0
0
0
0
0
0
0
0
0
0
0
0
0
0
0
0
0
0
0
0
0
0
0
0
0
0
0
0
0
0
0
0
0
0
0
0
0
0
0
0
0
0
0
0
0
0
0
0
0
0
0
0
0
0
0
0
0
0
0
0
0
0
0
0
0
0
0
0
0
0
0
0
0
0
0
0
0
0
0
0
0
0
0
0
0
0
0
0
0
0
0
0
0
0
0
0
0
0
0
0
0
0
0
0
0
0
0
0
0
0
0
0
0
0
0
0
0
0
0
0
0
0
0
0
0
0
0
0
0
0
0
0
0
0
0
0
0
0
0
0
0
0
0
0
0
0
0
0
0
0
0
0
0
0
0
0
0
0
0
0
0
0
0
0
0
0
0
0
0
0
0
0
0
0
0
0
0
0
0
0
0
0
0
0
0
0
0
0
0
0
0
0
0
0
0
0
0
0
0
0
0
0
0
0
0
0
0
0
0
0
0
0
0
0
0
0
0
0
0
0
0
0
0
0
0
0
0
0
0
0
0
0
0
0
0
0
0
0
0
0
0
0
0
0
0
0
0
0
0
0
0
0
0
0
0
0
0
0
0
0
0
0
0
0
0
0
0
0
0
0
0
0
0
0
0
0
0
0
0
0
0
0
0
0
0
0
0
0
0
0
0
0
0
0
0
0
0
0
0
0
0
0
0
0
0
0
0
0
0
0
0
0
0
0
0
0
0
0
0
0
0
0
0
0
0
0
0
0
0
0
0
0
0
0
0
0
0
0
0
0
0
0
0
0
0
0
0
0
0
0
0
0
0
0
0
0
0
0
0
0
0
0
0
0
0
0
0
0
0
0
0
0
0
0
0
0
0
0
0
0
0
0
0
0
0
0
0
0
0
0
0
0
0
0
0
0
0
0
0
0
0
0
0
0
0
0
0
0
0
0
0
0
0
0
0
0
0
0
0
0
0
0
0
0
0
0
0
0
0
0
0
0
0
0
0
0
0
0
0
0
0
0
0
0
0
0
0
0
0
0
0
0
0
0
0
0
0
0
0
0
0
0
0
0
0
0
0
0
0
0
0
0
0
0
0
0
0
0
0
0
0
0
0
0
0
0
0
0
0
0
0
0
0
0
0
0
0
0
0
0
0
0
0
0
0
0
0
0
0
0
0
0
0
0
0
0
0
0
0
0
0
0
0
0
0
0
0
0
0
0
0
0
0
0
0
0
0
0
0
0
0
0
0
0
0
0
0
0
0
0
0
0
0
0
0
0
0
0
0
0
0
0
0
0
0
0
0
0
0
0
0
0
0
0
0
0
0
0
0
0
0
0
0
0
0
0
0
0
0
0
0
0
0
0
0
0
0
0
0
0
0
0
0
0
0
0
0
0
0
0
0
0
0
0
0
0
0
0
0
0
0
0
0
0
0
0
0
0
0
0
0
0
0
0
0
0
0
0
0
0
0
0
0
0
0
0
0
0
0
0
0
0
0
0
0
0
0
0
0
0
0
0
0
0
0
0
0
0
0
0
0
0
0
0
0
0
0
0
0
0
0
0
0
0
0
0
0
0
0
0
0
0
0
0
0
0
0
0
0
0
0
0
0
0
0
0
0
0
0
0
0
0
0
0
0
0
0
0
0
0
0
0
0
0
0
0
0
0
0
0
0
0
0
0
0
0
0
0
0
0
0
0
0
0
0
0
0
0
0
0
0
0
0
0
0
0
0
0
0
0
0
0
0
0
0
0
0
0
0
0
0
0
0
0
0
0
0
0
0
0
0
0
0
0
0
0
0
0
0
0
0
0
0
0
0
0
0
0
0
0
0
0
0
0
0
0
0
0
0
0
0
0
0
0
0
0
0
0
0
0
0
0
0
0
0
0
0
0
0
0
0
0
0
0
0
0
0
0
0
0
0
0
0
0
0
0
0
0
0
0
0
0
0
0
0
0
0
0
0
0
0
0
0
0
0
0
0
0
0
0
0
0
0
0
0
0
0
0
0
0
0
0
0
0
0
0
0
0
0
0
0
0
0
0
0
0
0
0
0
0
0
0
0
0
0
0
0
0
0
0
0
0
0
0
0
0
0
0
0
0
0
0
0
0
0
0
0
0
0
0
0
0
0
0
0
0
0
0
0
0
0
0
0
0
0
0
0
0
0
0
0
0
0
0
0
0
0
0
0
0
0
0
0
0
0
0
0
0
0
0
0
0
0
0
0
0
0
0
0
0
0
0
0
0
0
0
0
0
0
0
0
0
0
0
0
0
0
0
0
0
0
0
0
0
0
0
0
0
0
0
0
0
0
0
0
0
0
0
0
0
0
0
0
0
0
0
0
0
0
0
0
0
0
0
0
0
0
0
0
0
0
0
0
0
0
0
0
0
0
0
0
0
0
0
0
0
0
0
0
0
0
0
0
0
0
0
0
0
0
0
0
0
0
0
0
0
0
0
0
0
0
0
0
0
0
0
0
0
0
0
0
0
0
0
0
0
0
0
0
0
0
0
0
0
0
0
0
0
0
0
0
0
0
0
0
0
0
0
0
0
0
0
0
0
0
0
0
0
0
0
0
0
0
0
0
0
0
0
0
0
0
0
0
0
0
0
0
0
0
0
0
0
0
0
0
0
0
0
0
0
0
0
0
0
0
0
0
0
0
0
0
0
0
0
0
0
0
0
0
0
0
0
0
0
0
0
0
0
0
0
0
0
0
0
0
0
0
0
0
0
0
0
0
0
0
0
0
0
0
0
0
0
0
0
0
0
0
0
0
0
0
0
0
0
0
0
0
0
0
0
0
0
0
0
0
0
0
0
0
0
0
0
0
0
0
0
0
0
0
0
0
0
0
0
0
0
0
0
0
0
0
0
0
0
0
0
0
0
0
0
0
0
0
0
0
0
0
0
0
0
0
0
0
0
0
0
0
0
0
0
0
0
0
0
0
0
0
0
0
0
0
0
0
0
0
0
0
0
0
0
0
0
0
0
0
0
0
0
0
0
0
0
0
0
0
0
0
0
0
0
0
0
0
0
0
0
0
0
0
0
0
0
0
0
0
0
0
0
0
0
0
0
0
0
0
0
0
0
0
0
0
0
0
0
0
0
0
0
0
0
0
0
0
0
0
0
0
0
0
0
0
0
0
0
0
0
0
0
0
0
0
0
0
0
0
0
0
0
0
0
0
0
0
0
0
0
0
0
0
0
0
0
0
0
0
0
0
0
0
0
0
0
0
0
0
0
0
0
0
0
0
0
0
0
0
0
0
0
0
0
0
0
0
0
0
0
0
0
0
0
0
0
0
0
0
0
0
0
0
0
0
0
0
0
0
0
0
0
0
0
0
0
0
0
0
0
0
0
0
0
0
0
0
0
0
0
0
0
0
0
0
0
0
0
0
0
0
0
0
0
0
0
0
0
0
0
0
0
0
0
0
0
0
0
0
0
0
0
0
0
0
0
0
0
0
0
0
0
0
0
0
0
0
0
0
0
0
0
0
0
0
0
0
0
0
0
0
0
0
0
0
0
0
0
0
0
0
0
0
0
0
0
0
0
0
0
0
0
0
0
0
0
0
0
0
0
0
0
0
0
0
0
0
0
0
0
0
0
0
0
0
0
0
0
0
0
0
0
0
0
0
0
0
0
0
0
0
0
0
0
0
0
0
0
0
0
0
0
0
0
0
0
0
0
0
0
0
0
0
0
0
0
0
0
0
0
0
0
0
0
0
0
0
0
0
0
0
0
0
0
0
0
0
0
0
0
0
0
0
0
0
0
0
0
0
0
0
0
0
0
0
0
0
0
0
0
0
0
0
0
0
0
0
0
0
0
0
0
0
0
0
0
0
0
0
0
0
0
0
0
0
0
0
0
0
0
0
0
0
0
0
0
0
0
0
0
0
0
0
0
0
0
0
0
0
0
0
0
0
0
0
0
0
0
0
0
0
0
0
0
0
0
0
0
0
0
0
0
0
0
0
0
0
0
0
0
0
0
0
0
0
0
0
0
0
0
0
0
0
0
0
0
0
0
0
0
0
0
0
0
0
0
0
0
0
0
0
0
0
0
0
0
0
0
0
0
0
0
0
0
0
0
0
0
0
0
0
0
0
0
0
0
0
0
0
0
0
0
0
0
0
0
0
0
0
0
0
0
0
0
0
0
0
0
0
0
0
0
0
0
0
0
0
0
0
0
0
0
0
0
0
0
0
0
0
0
0
0
0
0
0
0
0
0
0
0
0
0
0
0
0
0
0
0
0
0
0
0
0
0
0
0
0
0
0
0
0
0
0
0
0
0
0
0
0
0
0
0
0
0
0
0
0
0
0
0
0
0
0
0
0
0
0
0
0
0
0
0
0
0
0
0
0
0
0
0
0
0
0
0
0
0
0
0
0
0
0
0
0
0
0
0
0
0
0
0
0
0
0
0
0
0
0
0
0
0
0
0
0
0
0
0
0
0
0
0
0
0
0
0
0
0
0
0
0
0
0
0
0
0
0
0
0
0
0
0
0
0
0
0
0
0
0
0
0
0
0
0
0
0
0
0
0
0
0
0
0
0
0
0
0
0
0
0
0
0
0
0
0
0
0
0
0
0
0
0
0
0
0
0
0
0
0
0
0
0
0
0
0
0
0
0
0
0
0
0
0
0
0
0
0
0
0
0
0
0
0
0
0
0
0
0
0
0
0
0
0
0
0
0
0
0
0
0
0
0
0
0
0
0
0
0
0
0
0
0
0
0
0
0
0
0
0
0
0
0
0
0
0
0
0
0
0
0
0
0
0
0
0
0
0
0
0
0
0
0
0
0
0
0
0
0
0
0
0
0
0
0
0
0
0
0
0
0
0
0
0
0
0
0
0
0
0
0
0
0
0
0
0
0
0
0
0
0
0
0
0
0
0
0
0
0
0
0
0
0
0
0
0
0
0
0
0
0
0
0
0
0
0
0
0
0
0
0
0
0
0
0
0
0
0
0
0
0
0
0
0
0
0
0
0
0
0
0
0
0
0
0
0
0
0
0
0
0
0
0
0
0
0
0
0
0
0
0
0
0
0
0
0
0
0
0
0
0
0
0
0
0
0
0
0
0
0
0
0
0
0
0
0
0
0
0
0
0
0
0
0
0
0
0
0
0
0
0
0
0
0
0
0
0
0
0
0
0
0
0
0
0
0
0
0
0
0
0
0
0
0
0
0
0
0
0
0
0
0
0
0
0
0
0
0
0
0
0
0
0
0
0
0
0
0
0
0
0
0
0
0
0
0
0
0
0
0
0
0
0
0
0
0
0
0
0
0
0
0
0
0
0
0
0
0
0
0
0
0
0
0
0
0
0
0
0
0
0
0
0
0
0
0
0
0
0
0
0
0
0
0
0
0
0
0
0
0
0
0
0
0
0
0
0
0
0
0
0
0
0
0
0
0
0
0
0
0
0
0
0
0
0
0
0
0
0
0
0
0
0
0
0
0
0
0
0
0
0
0
0
0
0
0
0
0
0
0
0
0
0
0
0
0
0
0
0
0
0
0
0
0
0
0
0
0
0
0
0
0
0
0
0
0
0
0
0
0
0
0
0
0
0
0
0
0
0
0
0
0
0
0
0
0
0
0
0
0
0
0
0
0
0
0
0
0
0
0
0
0
0
0
0
0
0
0
0
0
0
0
0
0
0
0
0
0
0
0
0
0
0
0
0
0
0
0
0
0
0
0
0
0
0
0
0
0
0
0
0
0
0
0
0
0
0
0
0
0
0
0
0
0
0
0
0
0
0
0
0
0
0
0
0
0
0
0
0
0
0
0
0
0
0
0
0
0
0
0
0
0
0
0
0
0
0
0
0
0
0
0
0
0
0
0
0
0
0
0
0
0
0
0
0
0
0
0
0
0
0
0
0
0
0
0
0
0
0
0
0
0
0
0
0
0
0
0
0
0
0
0
0
0
0
0
0
0
0
0
0
0
0
0
0
0
0
0
0
0
0
0
0
0
0
0
0
0
0
0
0
0
0
0
0
0
0
0
0
0
0
0
0
0
0
0
0
0
0
0
0
0
0
0
0
0
0
0
0
0
0
0
0
0
0
0
0
0
0
0
0
0
0
0
0
0
0
0
0
0
0
0
0
0
0
0
0
0
0
0
0
0
0
0
0
0
0
0
0
0
0
0
0
0
0
0
0
0
0
0
0
0
0
0
0
0
0
0
0
0
0
0
0
0
0
0
0
0
0
0
0
0
0
0
0
0
0
0
0
0
0
0
0
0
0
0
0
0
0
0
0
0
0
0
0
0
0
0
0
0
0
0
0
0
0
0
0
0
0
0
0
0
0
0
0
0
0
0
0
0
0
0
0
0
0
0
0
0
0
0
0
0
0
0
0
0
0
0
0
0
0
0
0
0
0
0
0
0
0
0
0
0
0
0
0
0
0
0
0
0
0
0
0
0
0
0
0
0
0
0
0
0
0
0
0
0
0
0
0
0
0
0
0
0
0
0
0
0
0
0
0
0
0
0
0
0
0
0
0
0
0
0
0
0
0
0
0
0
0
0
0
0
0
0
0
0
0
0
0
0
0
0
0
0
0
0
0
0
0
0
0
0
0
0
0
0
0
0
0
0
0
0
0
0
0
0
0
0
0
0
0
0
0
0
0
0
0
0
0
0
0
0
0
0
0
0
0
0
0
0
0
0
0
0
0
0
0
0
0
0
0
0
0
0
0
0
0
0
0
0
0
0
0
0
0
0
0
0
0
0
0
0
0
0
0
0
0
0
0
0
0
0
0
0
0
0
0
0
0
0
0
0
0
0
0
0
0
0
0
0
0
0
0
0
0
0
0
0
0
0
0
0
0
0
0
0
0
0
0
0
0
0
0
0
0
0
0
0
0
0
0
0
0
0
0
0
0
0
0
0
0
0
0
0
0
0
0
0
0
0
0
0
0
0
0
0
0
0
0
0
0
0
0
0
0
0
0
0
0
0
0
0
0
0
0
0
0
0
0
0
0
0
0
0
0
0
0
0
0
0
0
0
0
0
0
0
0
0
0
0
0
0
0
0
0
0
0
0
0
0
0
0
0
0
0
0
0
0
0
0
0
0
0
0
0
0
0
0
0
0
0
0
0
0
0
0
0
0
0
0
0
0
0
0
0
0
0
0
0
0
0
0
0
0
0
0
0
0
0
0
0
0
0
0
0
0
0
0
0
0
0
0
0
0
0
0
0
0
0
0
0
0
0
0
0
0
0
0
0
0
0
0
0
0
0
0
0
0
0
0
0
0
0
0
0
0
0
0
0
0
0
0
0
0
0
0
0
0
0
0
0
0
0
0
0
0
0
0
0
0
0
0
0
0
0
0
0
0
0
0
0
0
0
0
0
0
0
0
0
0
0
0
0
0
0
0
0
0
0
0
0
0
0
0
0
0
0
0
0
0
0
0
0
0
0
0
0
0
0
0
0
0
0
0
0
0
0
0
0
0
0
0
0
0
0
0
0
0
0
0
0
0
0
0
0
0
0
0
0
0
0
0
0
0
0
0
0
0
0
0
0
0
0
0
0
0
0
0
0
0
0
0
0
0
0
0
0
0
0
0
0
0
0
0
0
0
0
0
0
0
0
0
0
0
0
0
0
0
0
0
0
0
0
0
0
0
0
0
0
0
0
0
0
0
0
0
0
0
0
0
0
0
0
0
0
0
0
0
0
0
0
0
0
0
0
0
0
0
0
0
0
0
0
0
0
0
0
0
0
0
0
0
0
0
0
0
0
0
0
0
0
0
0
0
0
0
0
0
0
0
0
0
0
0
0
0
0
0
0
0
0
0
0
0
0
0
0
0
0
0
0
0
0
0
0
0
0
0
0
0
0
0
0
0
0
0
0
0
0
0
0
0
0
0
0
0
0
0
0
0
0
0
0
0
0
0
0
0
0
0
0
0
0
0
0
0
0
0
0
0
0
0
0
0
0
0
0
0
0
0
0
0
0
0
0
0
0
0
0
0
0
0
0
0
0
0
0
0
0
0
0
0
0
0
0
0
0
0
0
0
0
0
0
0
0
0
0
0
0
0
0
0
0
0
0
0
0
0
0
0
0
0
0
0
0
0
0
0
0
0
0
0
0
0
0
0
0
0
0
0
0
0
0
0
0
0
0
0
0
0
0
0
0
0
0
0
0
0
0
0
0
0
0
0
0
0
0
0
0
0
0
0
0
0
0
0
0
0
0
0
0
0
0
0
0
0
0
0
0
0
0
0
0
0
0
0
0
0
0
0
0
0
0
0
0
0
0
0
0
0
0
0
0
0
0
0
0
0
0
0
0
0
0
0
0
0
0
0
0
0
0
0
0
0
0
0
0
0
0
0
0
0
0
0
0
0
0
0
0
0
0
0
0
0
0
0
0
0
0
0
0
0
0
0
0
0
0
0
0
0
0
0
0
0
0
0
0
0
0
0
0
0
0
0
0
0
0
0
0
0
0
0
0
0
0
0
0
0
0
0
0
0
0
0
0
0
0
0
0
0
0
0
0
0
0
0
0
0
0
0
0
0
0
0
0
0
0
0
0
0
0
0
0
0
0
0
0
0
0
0
0
0
0
0
0
0
0
0
0
0
0
0
0
0
0
0
0
0
0
0
0
0
0
0
0
0
0
0
0
0
0
0
0
0
0
0
0
0
0
0
0
0
0
0
0
0
0
0
0
0
0
0
0
0
0
0
0
0
0
0
0
0
0
0
0
0
0
0
0
0
0
0
0
0
0
0
0
0
0
0
0
0
0
0
0
0
0
0
0
0
0
0
0
0
0
0
0
0
0
0
0
0
0
0
0
0
0
0
0
0
0
0
0
0
0
0
0
0
0
0
0
0
0
0
0
0
0
0
0
0
0
0
0
0
0
0
0
0
0
0
0
0
0
0
0
0
0
0
0
0
0
0
0
0
0
0
0
0
0
0
0
0
0
0
0
0
0
0
0
0
0
0
0
0
0
0
0
0
0
0
0
0
0
0
0
0
0
0
0
0
0
0
0
0
0
0
0
0
0
0
0
0
0
0
0
0
0
0
0
0
0
0
0
0
0
0
0
0
0
0
0
0
0
0
0
0
0
0
0
0
0
0
0
0
0
0
0
0
0
0
0
0
0
0
0
0
0
0
0
0
0
0
0
0
0
0
0
0
0
0
0
0
0
0
0
0
0
0
0
0
0
0
0
0
0
0
0
0
0
0
0
0
0
0
0
0
0
0
0
0
0
0
0
0
0
0
0
0
0
0
0
0
0
0
0
0
0
0
0
0
0
0
0
0
0
0
0
0
0
0
0
0
0
0
0
0
0
0
0
0
0
0
0
0
0
0
0
0
0
0
0
0
0
0
0
0
0
0
0
0
0
0
0
0
0
0
0
0
0
0
0
0
0
0
0
0
0
0
0
0
0
0
0
0
0
0
0
0
0
0
0
0
0
0
0
0
0
0
0
0
0
0
0
0
0
0
0
0
0
0
0
0
0
0
0
0
0
0
0
0
0
0
0
0
0
0
0
0
0
0
0
0
0
0
0
0
0
0
0
0
0
0
0
0
0
0
0
0
0
0
0
0
0
0
0
0
0
0
0
0
0
0
0
0
0
0
0
0
0
0
0
0
0
0
0
0
0
0
0
0
0
0
0
0
0
0
0
0
0
0
0
0
0
0
0
0
0
0
0
0
0
0
0
0
0
0
0
0
0
0
0
0
0
0
0
0
0
0
0
0
0
0
0
0
0
0
0
0
0
0
0
0
0
0
0
0
0
0
0
0
0
0
0
0
0
0
0
0
0
0
0
0
0
0
0
0
0
0
0
0
0
0
0
0
0
0
0
0
0
0
0
0
0
0
0
0
0
0
0
0
0
0
0
0
0
0
0
0
0
0
0
0
0
0
0
0
0
0
0
0
0
0
0
0
0
0
0
0
0
0
0
0
0
0
0
0
0
0
0
0
0
0
0
0
0
0
0
0
0
0
0
0
0
0
0
0
0
0
0
0
0
0
0
0
0
0
0
0
0
0
0
0
0
0
0
0
0
0
0
0
0
0
0
0
0
0
0
0
0
0
0
0
0
0
0
0
0
0
0
0
0
0
0
0
0
0
0
0
0
0
0
0
0
0
0
0
0
0
0
0
0
0
0
0
0
0
0
0
0
0
0
0
0
0
0
0
0
0
0
0
0
0
0
0
0
0
0
0
0
0
0
0
0
0
0
0
0
0
0
0
0
0
0
0
0
0
0
0
0
0
0
0
0
0
0
0
0
0
0
0
0
0
0
0
0
0
0
0
0
0
0
0
0
0
0
0
0
0
0
0
0
0
0
0
0
0
0
0
0
0
0
0
0
0
0
0
0
0
0
0
0
0
0
0
0
0
0
0
0
0
0
0
0
0
0
0
0
0
0
0
0
0
0
0
0
0
0
0
0
0
0
0
0
0
0
0
0
0
0
0
0
0
0
0
0
0
0
0
0
0
0
0
0
0
0
0
0
0
0
0
0
0
0
0
0
0
0
0
0
0
0
0
0
0
0
0
0
0
0
0
0
0
0
0
0
0
0
0
0
0
0
0
0
0
0
0
0
0
0
0
0
0
0
0
0
0
0
0
0
0
0
0
0
0
0
0
0
0
0
0
0
0
0
0
0
0
0
0
0
0
0
0
0
0
0
0
0
0
0
0
0
0
0
0
0
0
0
0
0
0
0
0
0
0
0
0
0
0
0
0
0
0
0
0
0
0
0
0
0
0
0
0
0
0
0
0
0
0
0
0
0
0
0
0
0
0
0
0
0
0
0
0
0
0
0
0
0
0
0
0
0
0
0
0
0
0
0
0
0
0
0
0
0
0
0
0
0
0
0
0
0
0
0
0
0
0
0
0
0
0
0
0
0
0
0
0
0
0
0
0
0
0
0
0
0
0
0
0
0
0
0
0
0
0
0
0
0
0
0
0
0
0
0
0
0
0
0
0
0
0
0
0
0
0
0
0
0
0
0
0
0
0
0
0
0
0
0
0
0
0
0
0
0
0
0
0
0
0
0
0
0
0
0
0
0
0
0
0
0
0
0
0
0
0
0
0
0
0
0
0
0
0
0
0
0
0
0
0
0
0
0
0
0
0
0
0
0
0
0
0
0
0
0
0
0
0
0
0
0
0
0
0
0
0
0
0
0
0
0
0
0
0
0
0
0
0
0
0
0
0
0
0
0
0
0
0
0
0
0
0
0
0
0
0
0
0
0
0
0
0
0
0
0
0
0
0
0
0
0
0
0
0
0
0
0
0
0
0
0
0
0
0
0
0
0
0
0
0
0
0
0
0
0
0
0
0
0
0
0
0
0
0
0
0
0
0
0
0
0
0
0
0
0
0
0
0
0
0
0
0
0
0
0
0
0
0
0
0
0
0
0
0
0
0
0
0
0
0
0
0
0
0
0
0
0
0
0
0
0
0
0
0
0
0
0
0
0
0
0
0
0
0
0
0
0
0
0
0
0
0
0
0
0
0
0
0
0
0
0
0
0
0
0
0
0
0
0
0
0
0
0
0
0
0
0
0
0
0
0
0
0
0
0
0
0
0
0
0
0
0
0
0
0
0
0
0
0
0
0
0
0
0
0
0
0
0
0
0
0
0
0
0
0
0
0
0
0
0
0
0
0
0
0
0
0
0
0
0
0
0
0
0
0
0
0
0
0
0
0
0
0
0
0
0
0
0
0
0
0
0
0
0
0
0
0
0
0
0
0
0
0
0
0
0
0
0
0
0
0
0
0
0
0
0
0
0
0
0
0
0
0
0
0
0
0
0
0
0
0
0
0
0
0
0
0
0
0
0
0
0
0
0
0
0
0
0
0
0
0
0
0
0
0
0
0
0
0
0
0
0
0
0
0
0
0
0
0
0
0
0
0
0
0
0
0
0
0
0
0
0
0
0
0
0
0
0
0
0
0
0
0
0
0
0
0
0
0
0
0
0
0
0
0
0
0
0
0
0
0
0
0
0
0
0
0
0
0
0
0
0
0
0
0
0
0
0
0
0
0
0
0
0
0
0
0
0
0
0
0
0
0
0
0
0
0
0
0
0
0
0
0
0
0
0
0
0
0
0
0
0
0
0
0
0
0
0
0
0
0
0
0
0
0
0
0
0
0
0
0
0
0
0
0
0
0
0
0
0
0
0
0
0
0
0
0
0
0
0
0
0
0
0
0
0
0
0
0
0
0
0
0
0
0
0
0
0
0
0
0
0
0
0
0
0
0
0
0
0
0
0
0
0
0
0
0
0
0
0
0
0
0
0
0
0
0
0
0
0
0
0
0
0
0
0
0
0
0
0
0
0
0
0
0
0
0
0
0
0
0
0
0
0
0
0
0
0
0
0
0
0
0
0
0
0
0
0
0
0
0
0
0
0
0
0
0
0
0
0
0
0
0
0
0
0
0
0
0
0
0
0
0
0
0
0
0
0
0
0
0
0
0
0
0
0
0
0
0
0
0
0
0
0
0
0
0
0
0
0
0
0
0
0
0
0
0
0
0
0
0
0
0
0
0
0
0
0
0
0
0
0
0
0
0
0
0
0
0
0
0
0
0
0
0
0
0
0
0
0
0
0
0
0
0
0
0
0
0
0
0
0
0
0
0
0
0
0
0
0
0
0
0
0
0
0
0
0
0
0
0
0
0
0
0
0
0
0
0
0
0
0
0
0
0
0
0
0
0
0
0
0
0
0
0
0
0
0
0
0
0
0
0
0
0
0
0
0
0
0
0
0
0
0
0
0
0
0
0
0
0
0
0
0
0
0
0
0
0
0
0
0
0
0
0
0
0
0
0
0
0
0
0
0
0
0
0
0
0
0
0
0
0
0
0
0
0
0
0
0
0
0
0
0
0
0
0
0
0
0
0
0
0
0
0
0
0
0
0
0
0
0
0
0
0
0
0
0
0
0
0
0
0
0
0
0
0
0
0
0
0
0
0
0
0
0
0
0
0
0
0
0
0
0
0
0
0
0
0
0
0
0
0
0
0
0
0
0
0
0
0
0
0
0
0
0
0
0
0
0
0
0
0
0
0
0
0
0
0
0
0
0
0
0
0
0
0
0
0
0
0
0
0
0
0
0
0
0
0
0
0
0
0
0
0
0
0
0
0
0
0
0
0
0
0
0
0
0
0
0
0
0
0
0
0
0
0
0
0
0
0
0
0
0
0
0
0
0
0
0
0
0
0
0
0
0
0
0
0
0
0
0
0
0
0
0
0
0
0
0
0
0
0
0
0
0
0
0
0
0
0
0
0
0
0
0
0
0
0
0
0
0
0
0
0
0
0
0
0
0
0
0
0
0
0
0
0
0
0
0
0
0
0
0
0
0
0
0
0
0
0
0
0
0
0
0
0
0
0
0
0
0
0
0
0
0
0
0
0
0
0
0
0
0
0
0
0
0
0
0
0
0
0
0
0
0
0
0
0
0
0
0
0
0
0
0
0
0
0
0
0
0
0
0
0
0
0
0
0
0
0
0
0
0
0
0
0
0
0
0
0
0
0
0
0
0
0
0
0
0
0
0
0
0
0
0
0
0
0
0
0
0
0
0
0
0
0
0
0
0
0
0
0
0
0
0
0
0
0
0
0
0
0
0
0
0
0
0
0
0
0
0
0
0
0
0
0
0
0
0
0
0
0
0
0
0
0
0
0
0
0
0
0
0
0
0
0
0
0
0
0
0
0
0
0
0
0
0
0
0
0
0
0
0
0
0
0
0
0
0
0
0
0
0
0
0
0
0
0
0
0
0
0
0
0
0
0
0
0
0
0
0
0
0
0
0
0
0
0
0
0
0
0
0
0
0
0
0
0
0
0
0
0
0
0
0
0
0
0
0
0
0
0
0
0
0
0
0
0
0
0
0
0
0
0
0
0
0
0
0
0
0
0
0
0
0
0
0
0
0
0
0
0
0
0
0
0
0
0
0
0
0
0
0
0
0
0
0
0
0
0
0
0
0
0
0
0
0
0
0
0
0
0
0
0
0
0
0
0
0
0
0
0
0
0
0
0
0
0
0
0
0
0
0
0
0
0
0
0
0
0
0
0
0
0
0
0
0
0
0
0
0
0
0
0
0
0
0
0
0
0
0
0
0
0
0
0
0
0
0
0
0
0
0
0
0
0
0
0
0
0
0
0
0
0
0
0
0
0
0
0
0
0
0
0
0
0
0
0
0
0
0
0
0
0
0
0
0
0
0
0
0
0
0
0
0
0
0
0
0
0
0
0
0
0
0
0
0
0
0
0
0
0
0
0
0
0
0
0
0
0
0
0
0
0
0
0
0
0
0
0
0
0
0
0
0
0
0
0
0
0
0
0
0
0
0
0
0
0
0
0
0
0
0
0
0
0
0
0
0
0
0
0
0
0
0
0
0
0
0
0
0
0
0
0
0
0
0
0
0
0
0
0
0
0
0
0
0
0
0
0
0
0
0
0
0
0
0
0
0
0
0
0
0
0
0
0
0
0
0
0
0
0
0
0
0
0
0
0
0
0
0
0
0
0
0
0
0
0
0
0
0
0
0
0
0
0
0
0
0
0
0
0
0
0
0
0
0
0
0
0
0
0
0
0
0
0
0
0
0
0
0
0
0
0
0
0
0
0
0
0
0
0
0
0
0
0
0
0
0
0
0
0
0
0
0
0
0
0
0
0
0
0
0
0
0
0
0
0
0
0
0
0
0
0
0
0
0
0
0
0
0
0
0
0
0
0
0
0
0
0
0
0
0
0
0
0
0
0
0
0
0
0
0
0
0
0
0
0
0
0
0
0
0
0
0
0
0
0
0
0
0
0
0
0
0
0
0
0
0
0
0
0
0
0
0
0
0
0
0
0
0
0
0
0
0
0
0
0
0
0
0
0
0
0
0
0
0
0
0
0
0
0
0
0
0
0
0
0
0
0
0
0
0
0
0
0
0
0
0
0
0
0
0
0
0
0
0
0
0
0
0
0
0
0
0
0
0
0
0
0
0
0
0
0
0
0
0
0
0
0
0
0
0
0
0
0
0
0
0
0
0
0
0
0
0
0
0
0
0
0
0
0
0
0
0
0
0
0
0
0
0
0
0
0
0
0
0
0
0
0
0
0
0
0
0
0
0
0
0
0
0
0
0
0
0
0
0
0
0
0
0
0
0
0
0
0
0
0
0
0
0
0
0
0
0
0
0
0
0
0
0
0
0
0
0
0
0
0
0
0
0
0
0
0
0
0
0
0
0
0
0
0
0
0
0
0
0
0
0
0
0
0
0
0
0
0
0
0
0
0
0
0
0
0
0
0
0
0
0
0
0
0
0
0
0
0
0
0
0
0
0
0
0
0
0
0
0
0
0
0
0
0
0
0
0
0
0
0
0
0
0
0
0
0
0
0
0
0
0
0
0
0
0
0
0
0
0
0
0
0
0
0
0
0
0
0
0
0
0
0
0
0
0
0
0
0
0
0
0
0
0
0
0
0
0
0
0
0
0
0
0
0
0
0
0
0
0
0
0
0
0
0
0
0
0
0
0
0
0
0
0
0
0
0
0
0
0
0
0
0
0
0
0
0
0
0
0
0
0
0
0
0
0
0
0
0
0
0
0
0
0
0
0
0
0
0
0
0
0
0
0
0
0
0
0
0
0
0
0
0
0
0
0
0
0
0
0
0
0
0
0
0
0
0
0
0
0
0
0
0
0
0
0
0
0
0
0
0
0
0
0
0
0
0
0
0
0
0
0
0
0
0
0
0
0
0
0
0
0
0
0
0
0
0
0
0
0
0
0
0
0
0
0
0
0
0
0
0
0
0
0
0
0
0
0
0
0
0
0
0
0
0
0
0
0
0
0
0
0
0
0
0
0
0
0
0
0
0
0
0
0
0
0
0
0
0
0
0
0
0
0
0
0
0
0
0
0
0
0
0
0
0
0
0
0
0
0
0
0
0
0
0
0
0
0
0
0
0
0
0
0
0
0
0
0
0
0
0
0
0
0
0
0
0
0
0
0
0
0
0
0
0
0
0
0
0
0
0
0
0
0
0
0
0
0
0
0
0
0
0
0
0
0
0
0
0
0
0
0
0
0
0
0
0
0
0
0
0
0
0
0
0
0
0
0
0
0
0
0
0
0
0
0
0
0
0
0
0
0
0
0
0
0
0
0
0
0
0
0
0
0
0
0
0
0
0
0
0
0
0
0
0
0
0
0
0
0
0
0
0
0
0
0
0
0
0
0
0
0
0
0
0
0
0
0
0
0
0
0
0
0
0
0
0
0
0
0
0
0
0
0
0
0
0
0
0
0
0
0
0
0
0
0
0
0
0
0
0
0
0
0
0
0
0
0
0
0
0
0
0
0
0
0
0
0
0
0
0
0
0
0
0
0
0
0
0
0
0
0
0
0
0
0
0
0
0
0
0
0
0
0
0
0
0
0
0
0
0
0
0
0
0
0
0
0
0
0
0
0
0
0
0
0
0
0
0
0
0
0
0
0
0
0
0
0
0
0
0
0
0
0
0
0
0
0
0
0
0
0
0
0
0
0
0
0
0
0
0
0
0
0
0
0
0
0
0
0
0
0
0
0
0
0
0
0
0
0
0
0
0
0
0
0
0
0
0
0
0
0
0
0
0
0
0
0
0
0
0
0
0
0
0
0
0
0
0
0
0
0
0
0
0
0
0
0
0
0
0
0
0
0
0
0
0
0
0
0
0
0
0
0
0
0
0
0
0
0
0
0
0
0
0
0
0
0
0
0
0
0
0
0
0
0
0
0
0
0
0
0
0
0
0
0
0
0
0
0
0
0
0
0
0
0
0
0
0
0
0
0
0
0
0
0
0
0
0
0
0
0
0
0
0
0
0
0
0
0
0
0
0
0
0
0
0
0
0
0
0
0
0
0
0
0
0
0
0
0
0
0
0
0
0
0
0
0
0
0
0
0
0
0
0
0
0
0
0
0
0
0
0
0
0
0
0
0
0
0
0
0
0
0
0
0
0
0
0
0
0
0
0
0
0
0
0
0
0
0
0
0
0
0
0
0
0
0
0
0
0
0
0
0
0
0
0
0
0
0
0
0
0
0
0
0
0
0
0
0
0
0
0
0
0
0
0
0
0
0
0
0
0
0
0
0
0
0
0
0
0
0
0
0
0
0
0
0
0
0
0
0
0
0
0
0
0
0
0
0
0
0
0
0
0
0
0
0
0
0
0
0
0
0
0
0
0
0
0
0
0
0
0
0
0
0
0
0
0
0
0
0
0
0
0
0
0
0
0
0
0
0
0
0
0
0
0
0
0
0
0
0
0
0
0
0
0
0
0
0
0
0
0
0
0
0
0
0
0
0
0
0
0
0
0
0
0
0
0
0
0
0
0
0
0
0
0
0
0
0
0
0
0
0
0
0
0
0
0
0
0
0
0
0
0
0
0
0
0
0
0
0
0
0
0
0
0
0
0
0
0
0
0
0
0
0
0
0
0
0
0
0
0
0
0
0
0
0
0
0
0
0
0
0
0
0
0
0
0
0
0
0
0
0
0
0
0
0
0
0
0
0
0
0
0
0
0
0
0
0
0
0
0
0
0
0
0
0
0
0
0
0
0
0
0
0
0
0
0
0
0
0
0
0
0
0
0
0
0
0
0
0
0
0
0
0
0
0
0
0
0
0
0
0
0
0
0
0
0
0
0
0
0
0
0
0
0
0
0
0
0
0
0
0
0
0
0
0
0
0
0
0
0
0
0
0
0
0
0
0
0
0
0
0
0
0
0
0
0
0
0
0
0
0
0
0
0
0
0
0
0
0
0
0
0
0
0
0
0
0
0
0
0
0
0
0
0
0
0
0
0
0
0
0
0
0
0
0
0
0
0
0
0
0
0
0
0
0
0
0
0
0
0
0
0
0
0
0
0
0
0
0
0
0
0
0
0
0
0
0
0
0
0
0
0
0
0
0
0
0
0
0
0
0
0
0
0
0
0
0
0
0
0
0
0
0
0
0
0
0
0
0
0
0
0
0
0
0
0
0
0
0
0
0
0
0
0
0
0
0
0
0
0
0
0
0
0
0
0
0
0
0
0
0
0
0
0
0
0
0
0
0
0
0
0
0
0
0
0
0
0
0
0
0
0
0
0
0
0
0
0
0
0
0
0
0
0
0
0
0
0
0
0
0
0
0
0
0
0
0
0
0
0
0
0
0
0
0
0
0
0
0
0
0
0
0
0
0
0
0
0
0
0
0
0
0
0
0
0
0
0
0
0
0
0
0
0
0
0
0
0
0
0
0
0
0
0
0
0
0
0
0
0
0
0
0
0
0
0
0
0
0
0
0
0
0
0
0
0
0
0
0
0
0
0
0
0
0
0
0
0
0
0
0
0
0
0
0
0
0
0
0
0
0
0
0
0
0
0
0
0
0
0
0
0
0
0
0
0
0
0
0
0
0
0
0
0
0
0
0
0
0
0
0
0
0
0
0
0
0
0
0
0
0
0
0
0
0
0
0
0
0
0
0
0
0
0
0
0
0
0
0
0
0
0
0
0
0
0
0
0
0
0
0
0
0
0
0
0
0
0
0
0
0
0
0
0
0
0
0
0
0
0
0
0
0
0
0
0
0
0
0
0
0
0
0
0
0
0
0
0
0
0
0
0
0
0
0
0
0
0
0
0
0
0
0
0
0
0
0
0
0
0
0
0
0
0
0
0
0
0
0
0
0
0
0
0
0
0
0
0
0
0
0
0
0
0
0
0
0
0
0
0
0
0
0
0
0
0
0
0
0
0
0
0
0
0
0
0
0
0
0
0
0
0
0
0
0
0
0
0
0
0
0
0
0
0
0
0
0
0
0
0
0
0
0
0
0
0
0
0
0
0
0
0
0
0
0
0
0
0
0
0
0
0
0
0
0
0
0
0
0
0
0
0
0
0
0
0
0
0
0
0
0
0
0
0
0
0
0
0
0
0
0
0
0
0
0
0
0
0
0
0
0
0
0
0
0
0
0
0
0
0
0
0
0
0
0
0
0
0
0
0
0
0
0
0
0
0
0
0
0
0
0
0
0
0
0
0
0
0
0
0
0
0
0
0
0
0
0
0
0
0
0
0
0
0
0
0
0
0
0
0
0
0
0
0
0
0
0
0
0
0
0
0
0
0
0
0
0
0
0
0
0
0
0
0
0
0
0
0
0
0
0
0
0
0
0
0
0
0
0
0
0
0
0
0
0
0
0
0
0
0
0
0
0
0
0
0
0
0
0
0
0
0
0
0
0
0
0
0
0
0
0
0
0
0
0
0
0
0
0
0
0
0
0
0
0
0
0
0
0
0
0
0
0
0
0
0
0
0
0
0
0
0
0
0
0
0
0
0
0
0
0
0
0
0
0
0
0
0
0
0
0
0
0
0
0
0
0
0
0
0
0
0
0
0
0
0
0
0
0
0
0
0
0
0
0
0
0
0
0
0
0
0
0
0
0
0
0
0
0
0
0
0
0
0
0
0
0
0
0
0
0
0
0
0
0
0
0
0
0
0
0
0
0
0
0
0
0
0
0
0
0
0
0
0
0
0
0
0
0
0
0
0
0
0
0
0
0
0
0
0
0
0
0
0
0
0
0
0
0
0
0
0
0
0
0
0
0
0
0
0
0
0
0
0
0
0
0
0
0
0
0
0
0
0
0
0
0
0
0
0
0
0
0
0
0
0
0
0
0
0
0
0
0
0
0
0
0
0
0
0
0
0
0
0
0
0
0
0
0
0
0
0
0
0
0
0
0
0
0
0
0
0
0
0
0
0
0
0
0
0
0
0
0
0
0
0
0
0
0
0
0
0
0
0
0
0
0
0
0
0
0
0
0
0
0
0
0
0
0
0
0
0
0
0
0
0
0
0
0
0
0
0
0
0
0
0
0
0
0
0
0
0
0
0
0
0
0
0
0
0
0
0
0
0
0
0
0
0
0
0
0
0
0
0
0
0
0
0
0
0
0
0
0
0
0
0
0
0
0
0
0
0
0
0
0
0
0
0
0
0
0
0
0
0
0
0
0
0
0
0
0
0
0
0
0
0
0
0
0
0
0
0
0
0
0
0
0
0
0
0
0
0
0
0
0
0
0
0
0
0
0
0
0
0
0
0
0
0
0
0
0
0
0
0
0
0
0
0
0
0
0
0
0
0
0
0
0
0
0
0
0
0
0
0
0
0
0
0
0
0
0
0
0
0
0
0
0
0
0
0
0
0
0
0
0
0
0
0
0
0
0
0
0
0
0
0
0
0
0
0
0
0
0
0
0
0
0
0
0
0
0
0
0
0
0
0
0
0
0
0
0
0
0
0
0
0
0
0
0
0
0
0
0
0
0
0
0
0
0
0
0
0
0
0
0
0
0
0
0
0
0
0
0
0
0
0
0
0
0
0
0
0
0
0
0
0
0
0
0
0
0
0
0
0
0
0
0
0
0
0
0
0
0
0
0
0
0
0
0
0
0
0
0
0
0
0
0
0
0
0
0
0
0
0
0
0
0
0
0
0
0
0
0
0
0
0
0
0
0
0
0
0
0
0
0
0
0
0
0
0
0
0
0
0
0
0
0
0
0
0
0
0
0
0
0
0
0
0
0
0
0
0
0
0
0
0
0
0
0
0
0
0
0
0
0
0
0
0
0
0
0
0
0
0
0
0
0
0
0
0
0
0
0
0
0
0
0
0
0
0
0
0
0
0
0
0
0
0
0
0
0
0
0
0
0
0
0
0
0
0
0
0
0
0
0
0
0
0
0
0
0
0
0
0
0
0
0
0
0
0
0
0
0
0
0
0
0
0
0
0
0
0
0
0
0
0
0
0
0
0
0
0
0
0
0
0
0
0
0
0
0
0
0
0
0
0
0
0
0
0
0
0
0
0
0
0
0
0
0
0
0
0
0
0
0
0
0
0
0
0
0
0
0
0
0
0
0
0
0
0
0
0
0
0
0
0
0
0
0
0
0
0
0
0
0
0
0
0
0
0
0
0
0
0
0
0
0
0
0
0
0
0
0
0
0
0
0
0
0
0
0
0
0
0
0
0
0
0
0
0
0
0
0
0
0
0
0
0
0
0
0
0
0
0
0
0
0
0
0
0
0
0
0
0
0
0
0
0
0
0
0
0
0
0
0
0
0
0
0
0
0
0
0
0
0
0
0
0
0
0
0
0
0
0
0
0
0
0
0
0
0
0
0
0
0
0
0
0
0
0
0
0
0
0
0
0
0
0
0
0
0
0
0
0
0
0
0
0
0
0
0
0
0
0
0
0
0
0
0
0
0
0
0
0
0
0
0
0
0
0
0
0
0
0
0
0
0
0
0
0
0
0
0
0
0
0
0
0
0
0
0
0
0
0
0
0
0
0
0
0
0
0
0
0
0
0
0
0
0
0
0
0
0
0
0
0
0
0
0
0
0
0
0
0
0
0
0
0
0
0
0
0
0
0
0
0
0
0
0
0
0
0
0
0
0
0
0
0
0
0
0
0
0
0
0
0
0
0
0
0
0
0
0
0
0
0
0
0
0
0
0
0
0
0
0
0
0
0
0
0
0
0
0
0
0
0
0
0
0
0
0
0
0
0
0
0
0
0
0
0
0
0
0
0
0
0
0
0
0
0
0
0
0
0
0
0
0
0
0
0
0
0
0
0
0
0
0
0
0
0
0
0
0
0
0
0
0
0
0
0
0
0
0
0
0
0
0
0
0
0
0
0
0
0
0
0
0
0
0
0
0
0
0
0
0
0
0
0
0
0
0
0
0
0
0
0
0
0
0
0
0
0
0
0
0
0
0
0
0
0
0
0
0
0
0
0
0
0
0
0
0
0
0
0
0
0
0
0
0
0
0
0
0
0
0
0
0
0
0
0
0
0
0
0
0
0
0
0
0
0
0
0
0
0
0
0
0
0
0
0
0
0
0
0
0
0
0
0
0
0
0
0
0
0
0
0
0
0
0
0
0
0
0
0
0
0
0
0
0
0
0
0
0
0
0
0
0
0
0
0
0
0
0
0
0
0
0
0
0
0
0
0
0
0
0
0
0
0
0
0
0
0
0
0
0
0
0
0
0
0
0
0
0
0
0
0
0
0
0
0
0
0
0
0
0
0
0
0
0
0
0
0
0
0
0
0
0
0
0
0
0
0
0
0
0
0
0
0
0
0
0
0
0
0
0
0
0
0
0
0
0
0
0
0
0
0
0
0
0
0
0
0
0
0
0
0
0
0
0
0
0
0
0
0
0
0
0
0
0
0
0
0
0
0
0
0
0
0
0
0
0
0
0
0
0
0
0
0
0
0
0
0
0
0
0
0
0
0
0
0
0
0
0
0
0
0
0
0
0
0
0
0
0
0
0
0
0
0
0
0
0
0
0
0
0
0
0
0
0
0
0
0
0
0
0
0
0
0
0
0
0
0
0
0
0
0
0
0
0
0
0
0
0
0
0
0
0
0
0
0
0
0
0
0
0
0
0
0
0
0
0
0
0
0
0
0
0
0
0
0
0
0
0
0
0
0
0
0
0
0
0
0
0
0
0
0
0
0
0
0
0
0
0
0
0
0
0
0
0
0
0
0
0
0
0
0
0
0
0
0
0
0
0
0
0
0
0
0
0
0
0
0
0
0
0
0
0
0
0
0
0
0
0
0
0
0
0
0
0
0
0
0
0
0
0
0
0
0
0
0
0
0
0
0
0
0
0
0
0
0
0
0
0
0
0
0
0
0
0
0
0
0
0
0
0
0
0
0
0
0
0
0
0
0
0
0
0
0
0
0
0
0
0
0
0
0
0
0
0
0
0
0
0
0
0
0
0
0
0
0
0
0
0
0
0
0
0
0
0
0
0
0
0
0
0
0
0
0
0
0
0
0
0
0
0
0
0
0
0
0
0
0
0
0
0
0
0
0
0
0
0
0
0
0
0
0
0
0
0
0
0
0
0
0
0
0
0
0
0
0
0
0
0
0
0
0
0
0
0
0
0
0
0
0
0
0
0
0
0
0
0
0
0
0
0
0
0
0
0
0
0
0
0
0
0
0
0
0
0
0
0
0
0
0
0
0
0
0
0
0
0
0
0
0
0
0
0
0
0
0
0
0
0
0
0
0
0
0
0
0
0
0
0
0
0
0
0
0
0
0
0
0
0
0
0
0
0
0
0
0
0
0
0
0
0
0
0
0
0
0
0
0
0
0
0
0
0
0
0
0
0
0
0
0
0
0
0
0
0
0
0
0
0
0
0
0
0
0
0
0
0
0
0
0
0
0
0
0
0
0
0
0
0
0
0
0
0
0
0
0
0
0
0
0
0
0
0
0
0
0
0
0
0
0
0
0
0
0
0
0
0
0
0
0
0
0
0
0
0
0
0
0
0
0
0
0
0
0
0
0
0
0
0
0
0
0
0
0
0
0
0
0
0
0
0
0
0
0
0
0
0
0
0
0
0
0
0
0
0
0
0
0
0
0
0
0
0
0
0
0
0
0
0
0
0
0
0
0
0
0
0
0
0
0
0
0
0
0
0
0
0
0
0
0
0
0
0
0
0
0
0
0
0
0
0
0
0
0
0
0
0
0
0
0
0
0
0
0
0
0
0
0
0
0
0
0
0
0
0
0
0
0
0
0
0
0
0
0
0
0
0
0
0
0
0
0
0
0
0
0
0
0
0
0
0
0
0
0
0
0
0
0
0
0
0
0
0
0
0
0
0
0
0
0
0
0
0
0
0
0
0
0
0
0
0
0
0
0
0
0
0
0
0
0
0
0
0
0
0
0
0
0
0
0
0
0
0
0
0
0
0
0
0
0
0
0
0
0
0
0
0
0
0
0
0
0
0
0
0
0
0
0
0
0
0
0
0
0
0
0
0
0
0
0
0
0
0
0
0
0
0
0
0
0
0
0
0
0
0
0
0
0
0
0
0
0
0
0
0
0
0
0
0
0
0
0
0
0
0
0
0
0
0
0
0
0
0
0
0
0
0
0
0
0
0
0
0
0
0
0
0
0
0
0
0
0
0
0
0
0
0
0
0
0
0
0
0
0
0
0
0
0
0
0
0
0
0
0
0
0
0
0
0
0
0
0
0
0
0
0
0
0
0
0
0
0
0
0
0
0
0
0
0
0
0
0
0
0
0
0
0
0
0
0
0
0
0
0
0
0
0
0
0
0
0
0
0
0
0
0
0
0
0
0
0
0
0
0
0
0
0
0
0
0
0
0
0
0
0
0
0
0
0
0
0
0
0
0
0
0
0
0
0
0
0
0
0
0
0
0
0
0
0
0
0
0
0
0
0
0
0
0
0
0
0
0
0
0
0
0
0
0
0
0
0
0
0
0
0
0
0
0
0
0
0
0
0
0
0
0
0
0
0
0
0
0
0
0
0
0
0
0
0
0
0
0
0
0
0
0
0
0
0
0
0
0
0
0
0
0
0
0
0
0
0
0
0
0
0
0
0
0
0
0
0
0
0
0
0
0
0
0
0
0
0
0
0
0
0
0
0
0
0
0
0
0
0
0
0
0
0
0
0
0
0
0
0
0
0
0
0
0
0
0
0
0
0
0
0
0
0
0
0
0
0
0
0
0
0
0
0
0
0
0
0
0
0
0
0
0
0
0
0
0
0
0
0
0
0
0
0
0
0
0
0
0
0
0
0
0
0
0
0
0
0
0
0
0
0
0
0
0
0
0
0
0
0
0
0
0
0
0
0
0
0
0
0
0
0
0
0
0
0
0
0
0
0
0
0
0
0
0
0
0
0
0
0
0
0
0
0
0
0
0
0
0
0
0
0
0
0
0
0
0
0
0
0
0
0
0
0
0
0
0
0
0
0
0
0
0
0
0
0
0
0
0
0
0
0
0
0
0
0
0
0
0
0
0
0
0
0
0
0
0
0
0
0
0
0
0
0
0
0
0
0
0
0
0
0
0
0
0
0
0
0
0
0
0
0
0
0
0
0
0
0
0
0
0
0
0
0
0
0
0
0
0
0
0
0
0
0
0
0
0
0
0
0
0
0
0
0
0
0
0
0
0
0
0
0
0
0
0
0
0
0
0
0
0
0
0
0
0
0
0
0
0
0
0
0
0
0
0
0
0
0
0
0
0
0
0
0
0
0
0
0
0
0
0
0
0
0
0
0
0
0
0
0
0
0
0
0
0
0
0
0
0
0
0
0
0
0
0
0
0
0
0
0
0
0
0
0
0
0
0
0
0
0
0
0
0
0
0
0
0
0
0
0
0
0
0
0
0
0
0
0
0
0
0
0
0
0
0
0
0
0
0
0
0
0
0
0
0
0
0
0
0
0
0
0
0
0
0
0
0
0
0
0
0
0
0
0
0
0
0
0
0
0
0
0
0
0
0
0
0
0
0
0
0
0
0
0
0
0
0
0
0
0
0
0
0
0
0
0
0
0
0
0
0
0
0
0
0
0
0
0
0
0
0
0
0
0
0
0
0
0
0
0
0
0
0
0
0
0
0
0
0
0
0
0
0
0
0
0
0
0
0
0
0
0
0
0
0
0
0
0
0
0
0
0
0
0
0
0
0
0
0
0
0
0
0
0
0
0
0
0
0
0
0
0
0
0
0
0
0
0
0
0
0
0
0
0
0
0
0
0
0
0
0
0
0
0
0
0
0
0
0
0
0
0
0
0
0
0
0
0
0
0
0
0
0
0
0
0
0
0
0
0
0
0
0
0
0
0
0
0
0
0
0
0
0
0
0
0
0
0
0
0
0
0
0
0
0
0
0
0
0
0
0
0
0
0
0
0
0
0
0
0
0
0
0
0
0
0
0
0
0
0
0
0
0
0
0
0
0
0
0
0
0
0
0
0
0
0
0
0
0
0
0
0
0
0
0
0
0
0
0
0
0
0
0
0
0
0
0
0
0
0
0
0
0
0
0
0
0
0
0
0
0
0
0
0
0
0
0
0
0
0
0
0
0
0
0
0
0
0
0
0
0
0
0
0
0
0
0
0
0
0
0
0
0
0
0
0
0
0
0
0
0
0
0
0
0
0
0
0
0
0
0
0
0
0
0
0
0
0
0
0
0
0
0
0
0
0
0
0
0
0
0
0
0
0
0
0
0
0
0
0
0
0
0
0
0
0
0
0
0
0
0
0
0
0
0
0
0
0
0
0
0
0
0
0
0
0
0
0
0
0
0
0
0
0
0
0
0
0
0
0
0
0
0
0
0
0
0
0
0
0
0
0
0
0
0
0
0
0
0
0
0
0
0
0
0
0
0
0
0
0
0
0
0
0
0
0
0
0
0
0
0
0
0
0
0
0
0
0
0
0
0
0
0
0
0
0
0
0
0
0
0
0
0
0
0
0
0
0
0
0
0
0
0
0
0
0
0
0
0
0
0
0
0
0
0
0
0
0
0
0
0
0
0
0
0
0
0
0
0
0
0
0
0
0
0
0
0
0
0
0
0
0
0
0
0
0
0
0
0
0
0
0
0
0
0
0
0
0
0
0
0
0
0
0
0
0
0
0
0
0
0
0
0
0
0
0
0
0
0
0
0
0
0
0
0
0
0
0
0
0
0
0
0
0
0
0
0
0
0
0
0
0
0
0
0
0
0
0
0
0
0
0
0
0
0
0
0
0
0
0
0
0
0
0
0
0
0
0
0
0
0
0
0
0
0
0
0
0
0
0
0
0
0
0
0
0
0
0
0
0
0
0
0
0
0
0
0
0
0
0
0
0
0
0
0
0
0
0
0
0
0
0
0
0
0
0
0
0
0
0
0
0
0
0
0
0
0
0
0
0
0
0
0
0
0
0
0
0
0
0
0
0
0
0
0
0
0
0
0
0
0
0
0
0
0
0
0
0
0
0
0
0
0
0
0
0
0
0
0
0
0
0
0
0
0
0
0
0
0
0
0
0
0
0
0
0
0
0
0
0
0
0
0
0
0
0
0
0
0
0
0
0
0
0
0
0
0
0
0
0
0
0
0
0
0
0
0
0
0
0
0
0
0
0
0
0
0
0
0
0
0
0
0
0
0
0
0
0
0
0
0
0
0
0
0
0
0
0
0
0
0
0
0
0
0
0
0
0
0
0
0
0
0
0
0
0
0
0
0
0
0
0
0
0
0
0
0
0
0
0
0
0
0
0
0
0
0
0
0
0
0
0
0
0
0
0
0
0
0
0
0
0
0
0
0
0
0
0
0
0
0
0
0
0
0
0
0
0
0
0
0
0
0
0
0
0
0
0
0
0
0
0
0
0
0
0
0
0
0
0
0
0
0
0
0
0
0
0
0
0
0
0
0
0
0
0
0
0
0
0
0
0
0
0
0
0
0
0
0
0
0
0
0
0
0
0
0
0
0
0
0
0
0
0
0
0
0
0
0
0
0
0
0
0
0
0
0
0
0
0
0
0
0
0
0
0
0
0
0
0
0
0
0
0
0
0
0
0
0
0
0
0
0
0
0
0
0
0
0
0
0
0
0
0
0
0
0
0
0
0
0
0
0
0
0
0
0
0
0
0
0
0
0
0
0
0
0
0
0
0
0
0
0
0
0
0
0
0
0
0
0
0
0
0
0
0
0
0
0
0
0
0
0
0
0
0
0
0
0
0
0
0
0
0
0
0
0
0
0
0
0
0
0
0
0
0
0
0
0
0
0
0
0
0
0
0
0
0
0
0
0
0
0
0
0
0
0
0
0
0
0
0
0
0
0
0
0
0
0
0
0
0
0
0
0
0
0
0
0
0
0
0
0
0
0
0
0
0
0
0
0
0
0
0
0
0
0
0
0
0
0
0
0
0
0
0
0
0
0
0
0
0
0
0
0
0
0
0
0
0
0
0
0
0
0
0
0
0
0
0
0
0
0
0
0
0
0
0
0
0
0
0
0
0
0
0
0
0
0
0
0
0
0
0
0
0
0
0
0
0
0
0
0
0
0
0
0
0
0
0
0
0
0
0
0
0
0
0
0
0
0
0
0
0
0
0
0
0
0
0
0
0
0
0
0
0
0
0
0
0
0
0
0
0
0
0
0
0
0
0
0
0
0
0
0
0
0
0
0
0
0
0
0
0
0
0
0
0
0
0
0
0
0
0
0
0
0
0
0
0
0
0
0
0
0
0
0
0
0
0
0
0
0
0
0
0
0
0
0
0
0
0
0
0
0
0
0
0
0
0
0
0
0
0
0
0
0
0
0
0
0
0
0
0
0
0
0
0
0
0
0
0
0
0
0
0
0
0
0
0
0
0
0
0
0
0
0
0
0
0
0
0
0
0
0
0
0
0
0
0
0
0
0
0
0
0
0
0
0
0
0
0
0
0
0
0
0
0
0
0
0
0
0
0
0
0
0
0
0
0
0
0
0
0
0
0
0
0
0
0
0
0
0
0
0
0
0
0
0
0
0
0
0
0
0
0
0
0
0
0
0
0
0
0
0
0
0
0
0
0
0
0
0
0
0
0
0
0
0
0
0
0
0
0
0
0
0
0
0
0
0
0
0
0
0
0
0
0
0
0
0
0
0
0
0
0
0
0
0
0
0
0
0
0
0
0
0
0
0
0
0
0
0
0
0
0
0
0
0
0
0
0
0
0
0
0
0
0
0
0
0
0
0
0
0
0
0
0
0
0
0
0
0
0
0
0
0
0
0
0
0
0
0
0
0
0
0
0
0
0
0
0
0
0
0
0
0
0
0
0
0
0
0
0
0
0
0
0
0
0
0
0
0
0
0
0
0
0
0
0
0
0
0
0
0
0
0
0
0
0
0
0
0
0
0
0
0
0
0
0
0
0
0
0
0
0
0
0
0
0
0
0
0
0
0
0
0
0
0
0
0
0
0
0
0
0
0
0
0
0
0
0
0
0
0
0
0
0
0
0
0
0
0
0
0
0
0
0
0
0
0
0
0
0
0
0
0
0
0
0
0
0
0
0
0
0
0
0
0
0
0
0
0
0
0
0
0
0
0
0
0
0
0
0
0
0
0
0
0
0
0
0
0
0
0
0
0
0
0
0
0
0
0
0
0
0
0
0
0
0
0
0
0
0
0
0
0
0
0
0
0
0
0
0
0
0
0
0
0
0
0
0
0
0
0
0
0
0
0
0
0
0
0
0
0
0
0
0
0
0
0
0
0
0
0
0
0
0
0
0
0
0
0
0
0
0
0
0
0
0
0
0
0
0
0
0
0
0
0
0
0
0
0
0
0
0
0
0
0
0
0
0
0
0
0
0
0
0
0
0
0
0
0
0
0
0
0
0
0
0
0
0
0
0
0
0
0
0
0
0
0
0
0
0
0
0
0
0
0
0
0
0
0
0
0
0
0
0
0
0
0
0
0
0
0
0
0
0
0
0
0
0
0
0
0
0
0
0
0
0
0
0
0
0
0
0
0
0
0
0
0
0
0
0
0
0
0
0
0
0
0
0
0
0
0
0
0
0
0
0
0
0
0
0
0
0
0
0
0
0
0
0
0
0
0
0
0
0
0
0
0
0
0
0
0
0
0
0
0
0
0
0
0
0
0
0
0
0
0
0
0
0
0
0
0
0
0
0
0
0
0
0
0
0
0
0
0
0
0
0
0
0
0
0
0
0
0
0
0
0
0
0
0
0
0
0
0
0
0
0
0
0
0
0
0
0
0
0
0
0
0
0
0
0
0
0
0
0
0
0
0
0
0
0
0
0
0
0
0
0
0
0
0
0
0
0
0
0
0
0
0
0
0
0
0
0
0
0
0
0
0
0
0
0
0
0
0
0
0
0
0
0
0
0
0
0
0
0
0
0
0
0
0
0
0
0
0
0
0
0
0
0
0
0
0
0
0
0
0
0
0
0
0
0
0
0
0
0
0
0
0
0
0
0
0
0
0
0
0
0
0
0
0
0
0
0
0
0
0
0
0
0
0
0
0
0
0
0
0
0
0
0
0
0
0
0
0
0
0
0
0
0
0
0
0
0
0
0
0
0
0
0
0
0
0
0
0
      </DataArray> 
      <DataArray type="Float64" NumberOfComponents="1" Name="NormalFibers" format="ascii">
0
0
0
0
0
0
0
0
0
0
0
0
0
0
0
0
0
0
0
0
0
0
0
0
0
0
0
0
0
0
0
0
0
0
0
0
0
0
0
0
0
0
0
0
0
0
0
0
0
0
0
0
0
0
0
0
0
0
0
0
0
0
0
0
0
0
0
0
0
0
0
0
0
0
0
0
0
0
0
0
0
0
0
0
0
0
0
0
0
0
0
0
0
0
0
0
0
0
0
0
0
0
0
0
0
0
0
0
0
0
0
0
0
0
0
0
0
0
0
0
0
0
0
0
0
0
0
0
0
0
0
0
0
0
0
0
0
0
0
0
0
0
0
0
0
0
0
0
0
0
0
0
0
0
0
0
0
0
0
0
0
0
0
0
0
0
0
0
0
0
0
0
0
0
0
0
0
0
0
0
0
0
0
0
0
0
0
0
0
0
0
0
0
0
0
0
0
0
0
0
0
0
0
0
0
0
0
0
0
0
0
0
0
0
0
0
0
0
0
0
0
0
0
0
0
0
0
0
0
0
0
0
0
0
0
0
0
0
0
0
0
0
0
0
0
0
0
0
0
0
0
0
0
0
0
0
0
0
0
0
0
0
0
0
0
0
0
0
0
0
0
0
0
0
0
0
0
0
0
0
0
0
0
0
0
0
0
0
0
0
0
0
0
0
0
0
0
0
0
0
0
0
0
0
0
0
0
0
0
0
0
0
0
0
0
0
0
0
0
0
0
0
0
0
0
0
0
0
0
0
0
0
0
0
0
0
0
0
0
0
0
0
0
0
0
0
0
0
0
0
0
0
0
0
0
0
0
0
0
0
0
0
0
0
0
0
0
0
0
0
0
0
0
0
0
0
0
0
0
0
0
0
0
0
0
0
0
0
0
0
0
0
0
0
0
0
0
0
0
0
0
0
0
0
0
0
0
0
0
0
0
0
0
0
0
0
0
0
0
0
0
0
0
0
0
0
0
0
0
0
0
0
0
0
0
0
0
0
0
0
0
0
0
0
0
0
0
0
0
0
0
0
0
0
0
0
0
0
0
0
0
0
0
0
0
0
0
0
0
0
0
0
0
0
0
0
0
0
0
0
0
0
0
0
0
0
0
0
0
0
0
0
0
0
0
0
0
0
0
0
0
0
0
0
0
0
0
0
0
0
0
0
0
0
0
0
0
0
0
0
0
0
0
0
0
0
0
0
0
0
0
0
0
0
0
0
0
0
0
0
0
0
0
0
0
0
0
0
0
0
0
0
0
0
0
0
0
0
0
0
0
0
0
0
0
0
0
0
0
0
0
0
0
0
0
0
0
0
0
0
0
0
0
0
0
0
0
0
0
0
0
0
0
0
0
0
0
0
0
0
0
0
0
0
0
0
0
0
0
0
0
0
0
0
0
0
0
0
0
0
0
0
0
0
0
0
0
0
0
0
0
0
0
0
0
0
0
0
0
0
0
0
0
0
0
0
0
0
0
0
0
0
0
0
0
0
0
0
0
0
0
0
0
0
0
0
0
0
0
0
0
0
0
0
0
0
0
0
0
0
0
0
0
0
0
0
0
0
0
0
0
0
0
0
0
0
0
0
0
0
0
0
0
0
0
0
0
0
0
0
0
0
0
0
0
0
0
0
0
0
0
0
0
0
0
0
0
0
0
0
0
0
0
0
0
0
0
0
0
0
0
0
0
0
0
0
0
0
0
0
0
0
0
0
0
0
0
0
0
0
0
0
0
0
0
0
0
0
0
0
0
0
0
0
0
0
0
0
0
0
0
0
0
0
0
0
0
0
0
0
0
0
0
0
0
0
0
0
0
0
0
0
0
0
0
0
0
0
0
0
0
0
0
0
0
0
0
0
0
0
0
0
0
0
0
0
0
0
0
0
0
0
0
0
0
0
0
0
0
0
0
0
0
0
0
0
0
0
0
0
0
0
0
0
0
0
0
0
0
0
0
0
0
0
0
0
0
0
0
0
0
0
0
0
0
0
0
0
0
0
0
0
0
0
0
0
0
0
0
0
0
0
0
0
0
0
0
0
0
0
0
0
0
0
0
0
0
0
0
0
0
0
0
0
0
0
0
0
0
0
0
0
0
0
0
0
0
0
0
0
0
0
0
0
0
0
0
0
0
0
0
0
0
0
0
0
0
0
0
0
0
0
0
0
0
0
0
0
0
0
0
0
0
0
0
0
0
0
0
0
0
0
0
0
0
0
0
0
0
0
0
0
0
0
0
0
0
0
0
0
0
0
0
0
0
0
0
0
0
0
0
0
0
0
0
0
0
0
0
0
0
0
0
0
0
0
0
0
0
0
0
0
0
0
0
0
0
0
0
0
0
0
0
0
0
0
0
0
0
0
0
0
0
0
0
0
0
0
0
0
0
0
0
0
0
0
0
0
0
0
0
0
0
0
0
0
0
0
0
0
0
0
0
0
0
0
0
0
0
0
0
0
0
0
0
0
0
0
0
0
0
0
0
0
0
0
0
0
0
0
0
0
0
0
0
0
0
0
0
0
0
0
0
0
0
0
0
0
0
0
0
0
0
0
0
0
0
0
0
0
0
0
0
0
0
0
0
0
0
0
0
0
0
0
0
0
0
0
0
0
0
0
0
0
0
0
0
0
0
0
0
0
0
0
0
0
0
0
0
0
0
0
0
0
0
0
0
0
0
0
0
0
0
0
0
0
0
0
0
0
0
0
0
0
0
0
0
0
0
0
0
0
0
0
0
0
0
0
0
0
0
0
0
0
0
0
0
0
0
0
0
0
0
0
0
0
0
0
0
0
0
0
0
0
0
0
0
0
0
0
0
0
0
0
0
0
0
0
0
0
0
0
0
0
0
0
0
0
0
0
0
0
0
0
0
0
0
0
0
0
0
0
0
0
0
0
0
0
0
0
0
0
0
0
0
0
0
0
0
0
0
0
0
0
0
0
0
0
0
0
0
0
0
0
0
0
0
0
0
0
0
0
0
0
0
0
0
0
0
0
0
0
0
0
0
0
0
0
0
0
0
0
0
0
0
0
0
0
0
0
0
0
0
0
0
0
0
0
0
0
0
0
0
0
0
0
0
0
0
0
0
0
0
0
0
0
0
0
0
0
0
0
0
0
0
0
0
0
0
0
0
0
0
0
0
0
0
0
0
0
0
0
0
0
0
0
0
0
0
0
0
0
0
0
0
0
0
0
0
0
0
0
0
0
0
0
0
0
0
0
0
0
0
0
0
0
0
0
0
0
0
0
0
0
0
0
0
0
0
0
0
0
0
0
0
0
0
0
0
0
0
0
0
0
0
0
0
0
0
0
0
0
0
0
0
0
0
0
0
0
0
0
0
0
0
0
0
0
0
0
0
0
0
0
0
0
0
0
0
0
0
0
0
0
0
0
0
0
0
0
0
0
0
0
0
0
0
0
0
0
0
0
0
0
0
0
0
0
0
0
0
0
0
0
0
0
0
0
0
0
0
0
0
0
0
0
0
0
0
0
0
0
0
0
0
0
0
0
0
0
0
0
0
0
0
0
0
0
0
0
0
0
0
0
0
0
0
0
0
0
0
0
0
0
0
0
0
0
0
0
0
0
0
0
0
0
0
0
0
0
0
0
0
0
0
0
0
0
0
0
0
0
0
0
0
0
0
0
0
0
0
0
0
0
0
0
0
0
0
0
0
0
0
0
0
0
0
0
0
0
0
0
0
0
0
0
0
0
0
0
0
0
0
0
0
0
0
0
0
0
0
0
0
0
0
0
0
0
0
0
0
0
0
0
0
0
0
0
0
0
0
0
0
0
0
0
0
0
0
0
0
0
0
0
0
0
0
0
0
0
0
0
0
0
0
0
0
0
0
0
0
0
0
0
0
0
0
0
0
0
0
0
0
0
0
0
0
0
0
0
0
0
0
0
0
0
0
0
0
0
0
0
0
0
0
0
0
0
0
0
0
0
0
0
0
0
0
0
0
0
0
0
0
0
0
0
0
0
0
0
0
0
0
0
0
0
0
0
0
0
0
0
0
0
0
0
0
0
0
0
0
0
0
0
0
0
0
0
0
0
0
0
0
0
0
0
0
0
0
0
0
0
0
0
0
0
0
0
0
0
0
0
0
0
0
0
0
0
0
0
0
0
0
0
0
0
0
0
0
0
0
0
0
0
0
0
0
0
0
0
0
0
0
0
0
0
0
0
0
0
0
0
0
0
0
0
0
0
0
0
0
0
0
0
0
0
0
0
0
0
0
0
0
0
0
0
0
0
0
0
0
0
0
0
0
0
0
0
0
0
0
0
0
0
0
0
0
0
0
0
0
0
0
0
0
0
0
0
0
0
0
0
0
0
0
0
0
0
0
0
0
0
0
0
0
0
0
0
0
0
0
0
0
0
0
0
0
0
0
0
0
0
0
0
0
0
0
0
0
0
0
0
0
0
0
0
0
0
0
0
0
0
0
0
0
0
0
0
0
0
0
0
0
0
0
0
0
0
0
0
0
0
0
0
0
0
0
0
0
0
0
0
0
0
0
0
0
0
0
0
0
0
0
0
0
0
0
0
0
0
0
0
0
0
0
0
0
0
0
0
0
0
0
0
0
0
0
0
0
0
0
0
0
0
0
0
0
0
0
0
0
0
0
0
0
0
0
0
0
0
0
0
0
0
0
0
0
0
0
0
0
0
0
0
0
0
0
0
0
0
0
0
0
0
0
0
0
0
0
0
0
0
0
0
0
0
0
0
0
0
0
0
0
0
0
0
0
0
0
0
0
0
0
0
0
0
0
0
0
0
0
0
0
0
0
0
0
0
0
0
0
0
0
0
0
0
0
0
0
0
0
0
0
0
0
0
0
0
0
0
0
0
0
0
0
0
0
0
0
0
0
0
0
0
0
0
0
0
0
0
0
0
0
0
0
0
0
0
0
0
0
0
0
0
0
0
0
0
0
0
0
0
0
0
0
0
0
0
0
0
0
0
0
0
0
0
0
0
0
0
0
0
0
0
0
0
0
0
0
0
0
0
0
0
0
0
0
0
0
0
0
0
0
0
0
0
0
0
0
0
0
0
0
0
0
0
0
0
0
0
0
0
0
0
0
0
0
0
0
0
0
0
0
0
0
0
0
0
0
0
0
0
0
0
0
0
0
0
0
0
0
0
0
0
0
0
0
0
0
0
0
0
0
0
0
0
0
0
0
0
0
0
0
0
0
0
0
0
0
0
0
0
0
0
0
0
0
0
0
0
0
0
0
0
0
0
0
0
0
0
0
0
0
0
0
0
0
0
0
0
0
0
0
0
0
0
0
0
0
0
0
0
0
0
0
0
0
0
0
0
0
0
0
0
0
0
0
0
0
0
0
0
0
0
0
0
0
0
0
0
0
0
0
0
0
0
0
0
0
0
0
0
0
0
0
0
0
0
0
0
0
0
0
0
0
0
0
0
0
0
0
0
0
0
0
0
0
0
0
0
0
0
0
0
0
0
0
0
0
0
0
0
0
0
0
0
0
0
0
0
0
0
0
0
0
0
0
0
0
0
0
0
0
0
0
0
0
0
0
0
0
0
0
0
0
0
0
0
0
0
0
0
0
0
0
0
0
0
0
0
0
0
0
0
0
0
0
0
0
0
0
0
0
0
0
0
0
0
0
0
0
0
0
0
0
0
0
0
0
0
0
0
0
0
0
0
0
0
0
0
0
0
0
0
0
0
0
0
0
0
0
0
0
0
0
0
0
0
0
0
0
0
0
0
0
0
0
0
0
0
0
0
0
0
0
0
0
0
0
0
0
0
0
0
0
0
0
0
0
0
0
0
0
0
0
0
0
0
0
0
0
0
0
0
0
0
0
0
0
0
0
0
0
0
0
0
0
0
0
0
0
0
0
0
0
0
0
0
0
0
0
0
0
0
0
0
0
0
0
0
0
0
0
0
0
0
0
0
0
0
0
0
0
0
0
0
0
0
0
0
0
0
0
0
0
0
0
0
0
0
0
0
0
0
0
0
0
0
0
0
0
0
0
0
0
0
0
0
0
0
0
0
0
0
0
0
0
0
0
0
0
0
0
0
0
0
0
0
0
0
0
0
0
0
0
0
0
0
0
0
0
0
0
0
0
0
0
0
0
0
0
0
0
0
0
0
0
0
0
0
0
0
0
0
0
0
0
0
0
0
0
0
0
0
0
0
0
0
0
0
0
0
0
0
0
0
0
0
0
0
0
0
0
0
0
0
0
0
0
0
0
0
0
0
0
0
0
0
0
0
0
0
0
0
0
0
0
0
0
0
0
0
0
0
0
0
0
0
0
0
0
0
0
0
0
0
0
0
0
0
0
0
0
0
0
0
0
0
0
0
0
0
0
0
0
0
0
0
0
0
0
0
0
0
0
0
0
0
0
0
0
0
0
0
0
0
0
0
0
0
0
0
0
0
0
0
0
0
0
0
0
0
0
0
0
0
0
0
0
0
0
0
0
0
0
0
0
0
0
0
0
0
0
0
0
0
0
0
0
0
0
0
0
0
0
0
0
0
0
0
0
0
0
0
0
0
0
0
0
0
0
0
0
0
0
0
0
0
0
0
0
0
0
0
0
0
0
0
0
0
0
0
0
0
0
0
0
0
0
0
0
0
0
0
0
0
0
0
0
0
0
0
0
0
0
0
0
0
0
0
0
0
0
0
0
0
0
0
0
0
0
0
0
0
0
0
0
0
0
0
0
0
0
0
0
0
0
0
0
0
0
0
0
0
0
0
0
0
0
0
0
0
0
0
0
0
0
0
0
0
0
0
0
0
0
0
0
0
0
0
0
0
0
0
0
0
0
0
0
0
0
0
0
0
0
0
0
0
0
0
0
0
0
0
0
0
0
0
0
0
0
0
0
0
0
0
0
0
0
0
0
0
0
0
0
0
0
0
0
0
0
0
0
0
0
0
0
0
0
0
0
0
0
0
0
0
0
0
0
0
0
0
0
0
0
0
0
0
0
0
0
0
0
0
0
0
0
0
0
0
0
0
0
0
0
0
0
0
0
0
0
0
0
0
0
0
0
0
0
0
0
0
0
0
0
0
0
0
0
0
0
0
0
0
0
0
0
0
0
0
0
0
0
0
0
0
0
0
0
0
0
0
0
0
0
0
0
0
0
0
0
0
0
0
0
0
0
0
0
0
0
0
0
0
0
0
0
0
0
0
0
0
0
0
0
0
0
0
0
0
0
0
0
0
0
0
0
0
0
0
0
0
0
0
0
0
0
0
0
0
0
0
0
0
0
0
0
0
0
0
0
0
0
0
0
0
0
0
0
0
0
0
0
0
0
0
0
0
0
0
0
0
0
0
0
0
0
0
0
0
0
0
0
0
0
0
0
0
0
0
0
0
0
0
0
0
0
0
0
0
0
0
0
0
0
0
0
0
0
0
0
0
0
0
0
0
0
0
0
0
0
0
0
0
0
0
0
0
0
0
0
0
0
0
0
0
0
0
0
0
0
0
0
0
0
0
0
0
0
0
0
0
0
0
0
0
0
0
0
0
0
0
0
0
0
0
0
0
0
0
0
0
0
0
0
0
0
0
0
0
0
0
0
0
0
0
0
0
0
0
0
0
0
0
0
0
0
0
0
0
0
0
0
0
0
0
0
0
0
0
0
0
0
0
0
0
0
0
0
0
0
0
0
0
0
0
0
0
0
0
0
0
0
0
0
0
0
0
0
0
0
0
0
0
0
0
0
0
0
0
0
0
0
0
0
0
0
0
0
0
0
0
0
0
0
0
0
0
0
0
0
0
0
0
0
0
0
0
0
0
0
0
0
0
0
0
0
0
0
0
0
0
0
0
0
0
0
0
0
0
0
0
0
0
0
0
0
0
0
0
0
0
0
0
0
0
0
0
0
0
0
0
0
0
0
0
0
0
0
0
0
0
0
0
0
0
0
0
0
0
0
0
0
0
0
0
0
0
0
0
0
0
0
0
0
0
0
0
0
0
0
0
0
0
0
0
0
0
0
0
0
0
0
0
0
0
0
0
0
0
0
0
0
0
0
0
0
0
0
0
0
0
0
0
0
0
0
0
0
0
0
0
0
0
0
0
0
0
0
0
0
0
0
0
0
0
0
0
0
0
0
0
0
0
0
0
0
0
0
0
0
0
0
0
0
0
0
0
0
0
0
0
0
0
0
0
0
0
0
0
0
0
0
0
0
0
0
0
0
0
0
0
0
0
0
0
0
-0.0018058
-0.0018058
-5.51876e-05
-5.51876e-05
0.000510803
0.000510803
0.00238095
0.00238095
-0.00072143
-0.00072143
0.000145026
0.000145026
5.10916e-05
5.10916e-05
0.000536084
0.000536084
-0.000488694
-0.000488694
-0.00013925
-0.00013925
0.000213806
0.000213806
-0.000259949
-0.000259949
2.77435e-05
2.77435e-05
0.000645788
0.000645788
9.94169e-05
9.94169e-05
-0.0014346
-0.0014346
-0.000787718
-0.000787718
0.000487022
0.000487022
-0.000650583
-0.000650583
0.00013663
0.00013663
3.3431e-05
3.3431e-05
-0.00013742
-0.00013742
0.00105153
0.00105153
-0.00137198
-0.00137198
0.000850412
0.000850412
-0.000415043
-0.000415043
0.00194354
0.00194354
0.00159475
0.00159475
0.000864789
0.000864789
-9.79825e-05
-9.79825e-05
-0.000165925
-0.000165925
-8.96833e-05
-8.96833e-05
0.000398947
0.000398947
-0.00174188
-0.00174188
-0.00372124
-0.00372124
-0.00014576
-0.00014576
0.000501079
0.000501079
0.000450393
0.000450393
-0.000309862
-0.000309862
-0.00146643
-0.00146643
-0.000365687
-0.000365687
-0.000486621
-0.000486621
-0.000108018
-0.000108018
9.0089e-05
9.0089e-05
4.4749e-05
4.4749e-05
-0.000157119
-0.000157119
0.000291737
0.000291737
-0.000846321
-0.000846321
-0.000201273
-0.000201273
0.00164873
0.00164873
-0.000250057
-0.000250057
-0.00018406
-0.00018406
0.00166471
0.00166471
-0.000102106
-0.000102106
0.000471876
0.000471876
-4.00188e-06
-4.00188e-06
-0.000183002
-0.000183002
0.000316528
0.000316528
0.00014021
0.00014021
0.000312679
0.000312679
-0.000145796
-0.000145796
0.000124909
0.000124909
-0.00158945
-0.00158945
0.000330039
0.000330039
-4.39496e-05
-4.39496e-05
-0.000722339
-0.000722339
-1.54018e-05
-1.54018e-05
-7.62776e-05
-7.62776e-05
0.00109364
0.00109364
-0.00022802
-0.00022802
-0.00242564
-0.00242564
0.000505064
0.000505064
4.23636e-05
4.23636e-05
0.000152371
0.000152371
-0.000794829
-0.000794829
0.00194171
0.00194171
-0.00152555
-0.00152555
0.000134734
0.000134734
0.000967388
0.000967388
5.16343e-05
5.16343e-05
0.000136767
0.000136767
-0.000125763
-0.000125763
0.000137882
0.000137882
-0.000109193
-0.000109193
-0.000294931
-0.000294931
-0.000326924
-0.000326924
-0.000431542
-0.000431542
-0.000817264
-0.000817264
8.37883e-05
8.37883e-05
0.00107747
0.00107747
5.25952e-05
5.25952e-05
0.000747262
0.000747262
5.54436e-05
5.54436e-05
0.00104352
0.00104352
0.000431774
0.000431774
-0.000115808
-0.000115808
-0.00139908
-0.00139908
-0.000224013
-0.000224013
0.000965883
0.000965883
0.00132144
0.00132144
0.00155108
0.00155108
0.000247673
0.000247673
-0.00137494
-0.00137494
0.000204215
0.000204215
0.000374984
0.000374984
-5.98287e-05
-5.98287e-05
0.000169562
0.000169562
0.000130702
0.000130702
-0.00219694
-0.00219694
0.000151968
0.000151968
-8.17898e-05
-8.17898e-05
0.000147007
0.000147007
-0.00013748
-0.00013748
-0.00141279
-0.00141279
0.000272903
0.000272903
-0.000530063
-0.000530063
0.00057293
0.00057293
0.000188801
0.000188801
-0.000453317
-0.000453317
-0.000162386
-0.000162386
-5.37192e-06
-5.37192e-06
-0.00011983
-0.00011983
-0.00017516
-0.00017516
-4.64698e-05
-4.64698e-05
-6.97994e-05
-6.97994e-05
0.00015005
0.00015005
6.91333e-05
6.91333e-05
0.000150803
0.000150803
0.00111815
0.00111815
-0.00247863
-0.00247863
-4.26261e-05
-4.26261e-05
-2.18158e-05
-2.18158e-05
-7.94233e-05
-7.94233e-05
-0.000599466
-0.000599466
-6.39265e-05
-6.39265e-05
-0.000272941
-0.000272941
0.000318182
0.000318182
6.93681e-05
6.93681e-05
4.84069e-05
4.84069e-05
0.000160569
0.000160569
-0.000490824
-0.000490824
-0.000105982
-0.000105982
0.0028837
0.0028837
-0.000496695
-0.000496695
-0.000521422
-0.000521422
-0.000669208
-0.000669208
-9.7495e-05
-9.7495e-05
-2.67391e-05
-2.67391e-05
0.000550216
0.000550216
0.000222846
0.000222846
-0.0011073
-0.0011073
-0.000125253
-0.000125253
-0.000354534
-0.000354534
0.000326683
0.000326683
-2.20919e-05
-2.20919e-05
0.000124691
0.000124691
2.88886e-05
2.88886e-05
-0.000186294
-0.000186294
-7.29176e-05
-7.29176e-05
7.03341e-05
7.03341e-05
3.81203e-05
3.81203e-05
0.00014518
0.00014518
8.21798e-05
8.21798e-05
-3.46301e-05
-3.46301e-05
0.00040311
0.00040311
-0.000111954
-0.000111954
0.000120229
0.000120229
-0.00116094
-0.00116094
-0.000391063
-0.000391063
0.00015494
0.00015494
-0.000483699
-0.000483699
-0.000103974
-0.000103974
0.000470351
0.000470351
-0.000111566
-0.000111566
-0.000939665
-0.000939665
0.000793451
0.000793451
-1.77145e-06
-1.77145e-06
0.00023949
0.00023949
-0.000387321
-0.000387321
0.000428389
0.000428389
0.000108363
0.000108363
0.000494179
0.000494179
-0.00025857
-0.00025857
0.00259617
0.00259617
-0.00011369
-0.00011369
-2.20897e-05
-2.20897e-05
0.000212875
0.000212875
0.0004836
0.0004836
0.00038123
0.00038123
-0.000189115
-0.000189115
-0.00069702
-0.00069702
-0.000143793
-0.000143793
0.000644453
0.000644453
0.000191243
0.000191243
-0.000113396
-0.000113396
-0.000361039
-0.000361039
0.000120767
0.000120767
-3.94337e-05
-3.94337e-05
-0.001582
-0.001582
-4.89322e-05
-4.89322e-05
-0.000518035
-0.000518035
-0.000462367
-0.000462367
-0.000708191
-0.000708191
0.00247453
0.00247453
0.00012498
0.00012498
-0.000672786
-0.000672786
-0.00135396
-0.00135396
9.50879e-05
9.50879e-05
-0.000246601
-0.000246601
0.000546871
0.000546871
0.00170343
0.00170343
-0.00103651
-0.00103651
0.000339235
0.000339235
0.00029005
0.00029005
0.00194983
0.00194983
-0.0015357
-0.0015357
-0.000307027
-0.000307027
0.000325607
0.000325607
0.000972541
0.000972541
-0.000380803
-0.000380803
-7.10703e-05
-7.10703e-05
-0.000388569
-0.000388569
2.83114e-05
2.83114e-05
-9.18481e-05
-9.18481e-05
-3.4377e-05
-3.4377e-05
-0.000596944
-0.000596944
-0.000292475
-0.000292475
0.000125485
0.000125485
0.000184742
0.000184742
-0.000264528
-0.000264528
-0.000162078
-0.000162078
-9.27193e-05
-9.27193e-05
-0.000786031
-0.000786031
-0.000885586
-0.000885586
0.000153375
0.000153375
6.55698e-05
6.55698e-05
-0.000290857
-0.000290857
-0.00014088
-0.00014088
0.000196797
0.000196797
-0.000131183
-0.000131183
0.000190783
0.000190783
1.17451e-05
1.17451e-05
-7.80845e-05
-7.80845e-05
0.000149964
0.000149964
0.000304823
0.000304823
-0.000307069
-0.000307069
-0.000941918
-0.000941918
0.000122165
0.000122165
0.00261172
0.00261172
-0.00317328
-0.00317328
0.00110288
0.00110288
-0.000105365
-0.000105365
0.000215508
0.000215508
5.89573e-05
5.89573e-05
0.000267543
0.000267543
0.000413196
0.000413196
9.16085e-05
9.16085e-05
-0.000267257
-0.000267257
0.000223878
0.000223878
0.000311983
0.000311983
0.000134326
0.000134326
0.000189776
0.000189776
-0.00125179
-0.00125179
-0.000283079
-0.000283079
-0.00217748
-0.00217748
4.52498e-05
4.52498e-05
-0.00226586
-0.00226586
2.55123e-06
2.55123e-06
-0.000192365
-0.000192365
-0.000189334
-0.000189334
0.000391578
0.000391578
0.000354409
0.000354409
-0.000807551
-0.000807551
5.11985e-05
5.11985e-05
-5.08185e-05
-5.08185e-05
-0.000498802
-0.000498802
-0.000347014
-0.000347014
0.000258884
0.000258884
-0.000276464
-0.000276464
3.4359e-06
3.4359e-06
-0.000114326
-0.000114326
6.21164e-05
6.21164e-05
0.000124561
0.000124561
-0.000269617
-0.000269617
-0.00183411
-0.00183411
0.000835494
0.000835494
-0.000122847
-0.000122847
-8.72071e-05
-8.72071e-05
0.000256028
0.000256028
0.000324541
0.000324541
-0.000481597
-0.000481597
0.000156879
0.000156879
0.000124072
0.000124072
0.000118853
0.000118853
-0.000230712
-0.000230712
-8.53679e-05
-8.53679e-05
0.000162969
0.000162969
2.4687e-05
2.4687e-05
0.000107588
0.000107588
-0.000104685
-0.000104685
-0.000903179
-0.000903179
-6.70061e-05
-6.70061e-05
0.000630293
0.000630293
0.00194702
0.00194702
0.000182287
0.000182287
-0.000423571
-0.000423571
0.000203534
0.000203534
-0.000209568
-0.000209568
-0.000373537
-0.000373537
-0.00160296
-0.00160296
-0.000122031
-0.000122031
0.00054115
0.00054115
-0.000445182
-0.000445182
-0.000271148
-0.000271148
0.000481493
0.000481493
0.000485006
0.000485006
0.00123502
0.00123502
-0.000283153
-0.000283153
3.08773e-06
3.08773e-06
0.000256026
0.000256026
0.000511568
0.000511568
0.000570173
0.000570173
-0.00332665
-0.00332665
0.00100282
0.00100282
0.000654637
0.000654637
0.000128056
0.000128056
0.000899485
0.000899485
-0.00037311
-0.00037311
0.000123413
0.000123413
-0.000210853
-0.000210853
-5.30971e-05
-5.30971e-05
-0.000896148
-0.000896148
0.000307429
0.000307429
9.48773e-05
9.48773e-05
-0.00113094
-0.00113094
0.000287018
0.000287018
-0.000326652
-0.000326652
-0.000644662
-0.000644662
-0.000124077
-0.000124077
0.00145423
0.00145423
0.000684214
0.000684214
0.000343324
0.000343324
0.000305236
0.000305236
0.00359734
0.00359734
-7.23638e-05
-7.23638e-05
7.94089e-05
7.94089e-05
0.00115601
0.00115601
-0.000203853
-0.000203853
3.38922e-05
3.38922e-05
0.00090961
0.00090961
-8.45425e-05
-8.45425e-05
3.89953e-05
3.89953e-05
-2.91839e-05
-2.91839e-05
0.000190685
0.000190685
-0.000477641
-0.000477641
-0.000255737
-0.000255737
0.00309475
0.00309475
-0.000297781
-0.000297781
-0.00201571
-0.00201571
0.00018735
0.00018735
0.000841533
0.000841533
3.93806e-05
3.93806e-05
-0.000115343
-0.000115343
0.00154621
0.00154621
0.00029078
0.00029078
-0.000140017
-0.000140017
-0.000658222
-0.000658222
-0.000204944
-0.000204944
0.000169725
0.000169725
-0.000121382
-0.000121382
-0.000129748
-0.000129748
-1.36513e-05
-1.36513e-05
-0.000346166
-0.000346166
6.17881e-05
6.17881e-05
0.00097158
0.00097158
-0.000502172
-0.000502172
0.00138722
0.00138722
-0.000591487
-0.000591487
-0.000210684
-0.000210684
0.00268539
0.00268539
5.7786e-06
5.7786e-06
0.000655694
0.000655694
0.00163637
0.00163637
-0.00208067
-0.00208067
0.000497803
0.000497803
-7.01694e-05
-7.01694e-05
0.000396105
0.000396105
0.000207393
0.000207393
0.000987774
0.000987774
-7.99861e-05
-7.99861e-05
-0.000620869
-0.000620869
-0.000368177
-0.000368177
0.000184825
0.000184825
0.00050349
0.00050349
0.000160202
0.000160202
7.55297e-05
7.55297e-05
-0.000692396
-0.000692396
-0.000651731
-0.000651731
0.00150135
0.00150135
3.25494e-05
3.25494e-05
-0.00198675
-0.00198675
-0.00126347
-0.00126347
0.000333967
0.000333967
0.000107115
0.000107115
0.000138263
0.000138263
0.000691137
0.000691137
0.00015401
0.00015401
8.93431e-05
8.93431e-05
0.00234681
0.00234681
6.35291e-05
6.35291e-05
-1.25728e-05
-1.25728e-05
0.000784107
0.000784107
0.000178158
0.000178158
-2.51002e-05
-2.51002e-05
-0.000377076
-0.000377076
0.00255971
0.00255971
0.000152036
0.000152036
0.000329886
0.000329886
-3.91326e-05
-3.91326e-05
-0.000117945
-0.000117945
2.89888e-05
2.89888e-05
6.68781e-05
6.68781e-05
-0.00133932
-0.00133932
-5.23489e-07
-5.23489e-07
0.000231163
0.000231163
0.000673676
0.000673676
0.000106782
0.000106782
-0.000231838
-0.000231838
-0.000405281
-0.000405281
-0.000175111
-0.000175111
-0.000163648
-0.000163648
-9.2623e-05
-9.2623e-05
-0.000121079
-0.000121079
7.57111e-05
7.57111e-05
0.000312625
0.000312625
-0.000898731
-0.000898731
0.000298474
0.000298474
0.000100335
0.000100335
-3.52315e-05
-3.52315e-05
0.00276692
0.00276692
0.00017075
0.00017075
0.000257004
0.000257004
-0.000128448
-0.000128448
0.00016122
0.00016122
-6.91394e-05
-6.91394e-05
-0.000343921
-0.000343921
0.00102142
0.00102142
0.000968502
0.000968502
-0.000250186
-0.000250186
-0.00106058
-0.00106058
-0.00108576
-0.00108576
0.00153083
0.00153083
0.00256929
0.00256929
-0.00263699
-0.00263699
-0.00152066
-0.00152066
3.43324e-06
3.43324e-06
-0.000227875
-0.000227875
-0.000103899
-0.000103899
0.000111431
0.000111431
-4.83623e-05
-4.83623e-05
-0.000790714
-0.000790714
2.25414e-05
2.25414e-05
-0.000110679
-0.000110679
6.5719e-05
6.5719e-05
-6.90691e-05
-6.90691e-05
0.00119772
0.00119772
-0.000174587
-0.000174587
0.00148332
0.00148332
9.13606e-05
9.13606e-05
0.000113376
0.000113376
0.000487871
0.000487871
0.000246488
0.000246488
6.60353e-05
6.60353e-05
0.000741015
0.000741015
0.00215969
0.00215969
-0.00115708
-0.00115708
6.70773e-05
6.70773e-05
-3.97462e-05
-3.97462e-05
0.000251851
0.000251851
-2.93552e-05
-2.93552e-05
-0.000160757
-0.000160757
0.000106414
0.000106414
-0.000673265
-0.000673265
-0.000486448
-0.000486448
0.000383261
0.000383261
-5.46999e-05
-5.46999e-05
0.000601393
0.000601393
0.00108035
0.00108035
0.00235008
0.00235008
0.000316625
0.000316625
0.000169242
0.000169242
0.000273294
0.000273294
-0.000217686
-0.000217686
-0.0010748
-0.0010748
7.47726e-05
7.47726e-05
-0.000548111
-0.000548111
-0.000112596
-0.000112596
3.71783e-05
3.71783e-05
-0.000399408
-0.000399408
-0.000160776
-0.000160776
0.00286648
0.00286648
0.00259179
0.00259179
0.00014467
0.00014467
-0.00071841
-0.00071841
-0.000343169
-0.000343169
-0.00261844
-0.00261844
-0.000609946
-0.000609946
-0.0015415
-0.0015415
-0.000322199
-0.000322199
-0.000111427
-0.000111427
-0.000218204
-0.000218204
0.000350901
0.000350901
-0.000194903
-0.000194903
-0.00119856
-0.00119856
0.000185453
0.000185453
0.000274918
0.000274918
-9.11135e-05
-9.11135e-05
0.000142637
0.000142637
-0.001285
-0.001285
0.000306073
0.000306073
-2.54244e-05
-2.54244e-05
0.00100565
0.00100565
-0.00107613
-0.00107613
4.58089e-05
4.58089e-05
-8.35649e-05
-8.35649e-05
-8.08213e-05
-8.08213e-05
-0.000518114
-0.000518114
0.000172764
0.000172764
0.000110226
0.000110226
0.000665656
0.000665656
-0.000160354
-0.000160354
0.000468592
0.000468592
0.00122042
0.00122042
-0.000698426
-0.000698426
0.00039232
0.00039232
-0.000139355
-0.000139355
-7.36173e-05
-7.36173e-05
-0.000138018
-0.000138018
-3.87541e-05
-3.87541e-05
-0.00012988
-0.00012988
-0.000655455
-0.000655455
0.000849824
0.000849824
-0.000149602
-0.000149602
-8.17703e-05
-8.17703e-05
0.00109502
0.00109502
0.000288158
0.000288158
0.000138452
0.000138452
0.000172049
0.000172049
-5.02168e-05
-5.02168e-05
0.00052312
0.00052312
-0.0007971
-0.0007971
0.000253051
0.000253051
-0.000367638
-0.000367638
-0.000583721
-0.000583721
-0.000204141
-0.000204141
0.00195401
0.00195401
-0.000285085
-0.000285085
-0.000212037
-0.000212037
0.000701503
0.000701503
-0.000827789
-0.000827789
4.19951e-05
4.19951e-05
-5.55193e-05
-5.55193e-05
-0.000138375
-0.000138375
0.000275799
0.000275799
-0.00363433
-0.00363433
0.00014099
0.00014099
0.000190197
0.000190197
-0.000277906
-0.000277906
0.000270683
0.000270683
0.000104735
0.000104735
0.000767155
0.000767155
0.000618212
0.000618212
0.000220168
0.000220168
-0.000116473
-0.000116473
0.000620336
0.000620336
-0.00104458
-0.00104458
0.000260546
0.000260546
0.000408619
0.000408619
0.000192118
0.000192118
0.000111425
0.000111425
0.000169022
0.000169022
0.000505379
0.000505379
0.000539639
0.000539639
0.000460017
0.000460017
-2.4331e-05
-2.4331e-05
0.000117003
0.000117003
0.000205626
0.000205626
2.96649e-05
2.96649e-05
7.07079e-05
7.07079e-05
-5.79308e-05
-5.79308e-05
8.63572e-05
8.63572e-05
0.00100737
0.00100737
-0.000309219
-0.000309219
-0.000762128
-0.000762128
-0.000164617
-0.000164617
-0.00035271
-0.00035271
0.000325872
0.000325872
0.000165258
0.000165258
0.000344568
0.000344568
0.00135553
0.00135553
-0.00205
-0.00205
0.000611502
0.000611502
2.46714e-05
2.46714e-05
0.0015055
0.0015055
-0.00138891
-0.00138891
0.000310549
0.000310549
-5.98164e-05
-5.98164e-05
-0.00166461
-0.00166461
0.00242405
0.00242405
-0.000154593
-0.000154593
-0.000541171
-0.000541171
-0.000929672
-0.000929672
-0.000727198
-0.000727198
0.000357932
0.000357932
-9.63685e-05
-9.63685e-05
-0.000625101
-0.000625101
0.000558926
0.000558926
8.38966e-05
8.38966e-05
-0.000324043
-0.000324043
0.000112126
0.000112126
0.000480688
0.000480688
-0.000115182
-0.000115182
0.00135416
0.00135416
0.00288723
0.00288723
0.000766226
0.000766226
0.000140976
0.000140976
3.49818e-05
3.49818e-05
1.52605e-05
1.52605e-05
-0.00031898
-0.00031898
0.000121045
0.000121045
-3.73398e-05
-3.73398e-05
-9.46255e-06
-9.46255e-06
-9.07663e-05
-9.07663e-05
-9.53579e-05
-9.53579e-05
-4.75443e-05
-4.75443e-05
7.20365e-05
7.20365e-05
0.000120672
0.000120672
0.00140351
0.00140351
-5.86905e-05
-5.86905e-05
-0.000222731
-0.000222731
-9.31327e-05
-9.31327e-05
-0.000131376
-0.000131376
0.000222006
0.000222006
0.00114538
0.00114538
-0.000135165
-0.000135165
-0.00104346
-0.00104346
0.000134772
0.000134772
-9.97809e-05
-9.97809e-05
0.000789917
0.000789917
6.78108e-05
6.78108e-05
9.07522e-05
9.07522e-05
-0.0016386
-0.0016386
0.00018768
0.00018768
-0.000966472
-0.000966472
0.000694844
0.000694844
0.000245144
0.000245144
-6.69482e-05
-6.69482e-05
-0.00135738
-0.00135738
9.32367e-05
9.32367e-05
0.00025466
0.00025466
-0.000418869
-0.000418869
-0.00043833
-0.00043833
-0.00023264
-0.00023264
0.000377781
0.000377781
0.000283816
0.000283816
0.000263475
0.000263475
0.00220136
0.00220136
0.000449423
0.000449423
-5.01021e-05
-5.01021e-05
0.000266541
0.000266541
-0.000346517
-0.000346517
-0.000220903
-0.000220903
0.000951388
0.000951388
0.000509032
0.000509032
0.000887379
0.000887379
-0.000289363
-0.000289363
-0.000317012
-0.000317012
8.07323e-05
8.07323e-05
0.00163559
0.00163559
-6.04254e-05
-6.04254e-05
-0.000715914
-0.000715914
-0.000320632
-0.000320632
0.000300923
0.000300923
0.00174718
0.00174718
-0.00147124
-0.00147124
-0.000470622
-0.000470622
-0.000360144
-0.000360144
0.000270846
0.000270846
-9.11808e-05
-9.11808e-05
5.29655e-05
5.29655e-05
-1.22362e-05
-1.22362e-05
-0.000158915
-0.000158915
0.000730194
0.000730194
0.00108364
0.00108364
-0.000971878
-0.000971878
-0.000320363
-0.000320363
0.000304736
0.000304736
-0.000222411
-0.000222411
-0.000342509
-0.000342509
-0.000211628
-0.000211628
0.000503008
0.000503008
-0.000127703
-0.000127703
-7.80878e-05
-7.80878e-05
-1.28394e-05
-1.28394e-05
-0.00118931
-0.00118931
-3.24333e-05
-3.24333e-05
0.00172215
0.00172215
-0.00111038
-0.00111038
-6.48706e-05
-6.48706e-05
-0.000578014
-0.000578014
0.000428645
0.000428645
-0.000808649
-0.000808649
4.44581e-05
4.44581e-05
-0.000246994
-0.000246994
-0.000162177
-0.000162177
-0.00046754
-0.00046754
0.000319923
0.000319923
0.000426288
0.000426288
0.000362387
0.000362387
-0.000430957
-0.000430957
-3.50244e-05
-3.50244e-05
-3.35539e-05
-3.35539e-05
0.000107179
0.000107179
-0.00039352
-0.00039352
-1.99331e-05
-1.99331e-05
0.000254165
0.000254165
3.95563e-05
3.95563e-05
0.000146826
0.000146826
0.000411455
0.000411455
0.00289508
0.00289508
9.25806e-05
9.25806e-05
0.000307203
0.000307203
-0.000466927
-0.000466927
2.90175e-05
2.90175e-05
-0.00208426
-0.00208426
0.000737613
0.000737613
0.00037107
0.00037107
-0.000215289
-0.000215289
-3.67118e-05
-3.67118e-05
-0.000203506
-0.000203506
0.00127874
0.00127874
-0.000116855
-0.000116855
0.000446318
0.000446318
-0.000428812
-0.000428812
-0.000299925
-0.000299925
-0.000160882
-0.000160882
-0.000179566
-0.000179566
-0.000723815
-0.000723815
-8.0719e-05
-8.0719e-05
-0.000153454
-0.000153454
-0.000210032
-0.000210032
0.000306485
0.000306485
-6.3637e-05
-6.3637e-05
0.0004741
0.0004741
-0.000696023
-0.000696023
-0.00016793
-0.00016793
0.000398891
0.000398891
-7.135e-05
-7.135e-05
0.000141174
0.000141174
0.000965304
0.000965304
-0.00140024
-0.00140024
0.00039193
0.00039193
0.000391965
0.000391965
-0.000350304
-0.000350304
6.25532e-06
6.25532e-06
0.000213488
0.000213488
0.00202117
0.00202117
-0.000116754
-0.000116754
-0.000286149
-0.000286149
-0.000955127
-0.000955127
-3.03352e-05
-3.03352e-05
-0.000121813
-0.000121813
0.00127978
0.00127978
-0.000104562
-0.000104562
-0.00108074
-0.00108074
1.91663e-05
1.91663e-05
-0.000513716
-0.000513716
0.000830848
0.000830848
-5.45152e-05
-5.45152e-05
-0.000112381
-0.000112381
-5.21308e-05
-5.21308e-05
0.000128295
0.000128295
-0.000516777
-0.000516777
0.000124741
0.000124741
-1.16141e-05
-1.16141e-05
0.000304594
0.000304594
-0.000407007
-0.000407007
-0.000197059
-0.000197059
-0.00038669
-0.00038669
-9.11659e-05
-9.11659e-05
-0.000450579
-0.000450579
-0.00105873
-0.00105873
0.000138659
0.000138659
8.32265e-05
8.32265e-05
3.74777e-05
3.74777e-05
-0.000142501
-0.000142501
0.000345194
0.000345194
-0.000181873
-0.000181873
-0.000598142
-0.000598142
5.87373e-05
5.87373e-05
0.000140767
0.000140767
0.000126211
0.000126211
-4.71274e-06
-4.71274e-06
-0.000906499
-0.000906499
5.05054e-05
5.05054e-05
-0.000172574
-0.000172574
0.00170705
0.00170705
-0.00210086
-0.00210086
0.000736726
0.000736726
0.00109669
0.00109669
-0.000770192
-0.000770192
3.53621e-05
3.53621e-05
0.000799164
0.000799164
-6.57978e-05
-6.57978e-05
-0.000165537
-0.000165537
0.0034618
0.0034618
-3.61312e-05
-3.61312e-05
0.000441089
0.000441089
0.000756734
0.000756734
0.000760736
0.000760736
-0.000158719
-0.000158719
-0.000118823
-0.000118823
-0.000133781
-0.000133781
-0.000218756
-0.000218756
0.00107823
0.00107823
0.00217004
0.00217004
-0.00017225
-0.00017225
-0.0013988
-0.0013988
-0.000102193
-0.000102193
0.000127592
0.000127592
0.000130088
0.000130088
0.000150205
0.000150205
-0.00028088
-0.00028088
0.000541966
0.000541966
0.000115334
0.000115334
-0.000923303
-0.000923303
-0.00276133
-0.00276133
0.000211584
0.000211584
-0.00056531
-0.00056531
-0.000285519
-0.000285519
0.000161653
0.000161653
-0.000149861
-0.000149861
0.000196913
0.000196913
0.00296093
0.00296093
0.00143139
0.00143139
-0.00058404
-0.00058404
4.20545e-05
4.20545e-05
0.000235339
0.000235339
-0.000780216
-0.000780216
-0.000438605
-0.000438605
0.000324828
0.000324828
0.00146235
0.00146235
0.000642993
0.000642993
0.000240526
0.000240526
6.53203e-05
6.53203e-05
-0.000500978
-0.000500978
0.000202601
0.000202601
-0.000174242
-0.000174242
0.000615913
0.000615913
-0.000278107
-0.000278107
-0.000547266
-0.000547266
-0.00260891
-0.00260891
0.000102861
0.000102861
0.000137892
0.000137892
4.82411e-05
4.82411e-05
0.000636757
0.000636757
0.000308992
0.000308992
4.40567e-05
4.40567e-05
-0.000596004
-0.000596004
0.00134358
0.00134358
-0.000462794
-0.000462794
-0.000298008
-0.000298008
0.000744682
0.000744682
0.000364452
0.000364452
0.00115587
0.00115587
-0.000478252
-0.000478252
0.000134903
0.000134903
0.000683193
0.000683193
-5.93906e-05
-5.93906e-05
-0.000346783
-0.000346783
-0.00044263
-0.00044263
-0.000201113
-0.000201113
-0.000198747
-0.000198747
0.000682223
0.000682223
-0.00196023
-0.00196023
-0.000338182
-0.000338182
-0.0012627
-0.0012627
0.00130646
0.00130646
1.64745e-05
1.64745e-05
-0.00021759
-0.00021759
-7.80016e-05
-7.80016e-05
0.000183731
0.000183731
9.03475e-06
9.03475e-06
-0.000856735
-0.000856735
-0.00061222
-0.00061222
-0.000111836
-0.000111836
-0.000336598
-0.000336598
2.17472e-05
2.17472e-05
-5.2613e-05
-5.2613e-05
0.000129733
0.000129733
-0.000155077
-0.000155077
0.000570797
0.000570797
0.000158345
0.000158345
0.00166809
0.00166809
-0.000281882
-0.000281882
0.000833453
0.000833453
0.000155252
0.000155252
2.74688e-06
2.74688e-06
5.76135e-06
5.76135e-06
0.000220018
0.000220018
0.000559465
0.000559465
-0.000138532
-0.000138532
0.000203442
0.000203442
-0.00026547
-0.00026547
-5.3584e-05
-5.3584e-05
0.000887415
0.000887415
4.2798e-05
4.2798e-05
0.00114718
0.00114718
2.92665e-05
2.92665e-05
0.000435328
0.000435328
0.000225048
0.000225048
-0.000551414
-0.000551414
0.000119665
0.000119665
-0.000111718
-0.000111718
0.000616041
0.000616041
-0.000157912
-0.000157912
-0.000102983
-0.000102983
0.000680581
0.000680581
-0.000784343
-0.000784343
0.00055267
0.00055267
0.000204479
0.000204479
0.00082546
0.00082546
2.63042e-05
2.63042e-05
0.000196015
0.000196015
-3.32794e-05
-3.32794e-05
0.00122055
0.00122055
3.58027e-05
3.58027e-05
-7.69856e-05
-7.69856e-05
0.00107557
0.00107557
0.000260985
0.000260985
0.00116786
0.00116786
-0.000304372
-0.000304372
-0.000588815
-0.000588815
-0.000352733
-0.000352733
-0.000234207
-0.000234207
0.000107237
0.000107237
-0.000575543
-0.000575543
-9.44442e-05
-9.44442e-05
-0.000108697
-0.000108697
0.000527681
0.000527681
0.00157343
0.00157343
-0.00121637
-0.00121637
0.000305226
0.000305226
0.000363135
0.000363135
-1.88856e-05
-1.88856e-05
0.000692252
0.000692252
0.000644361
0.000644361
-0.000383498
-0.000383498
7.02175e-05
7.02175e-05
-0.000864339
-0.000864339
-0.000141591
-0.000141591
0.000410229
0.000410229
0.000791916
0.000791916
-0.00100225
-0.00100225
-1.71204e-05
-1.71204e-05
0.000101304
0.000101304
-0.000240071
-0.000240071
0.000249479
0.000249479
-0.000258672
-0.000258672
-0.000219564
-0.000219564
-0.000182235
-0.000182235
0.0010932
0.0010932
-5.12844e-05
-5.12844e-05
-0.000276475
-0.000276475
0.000863342
0.000863342
-0.000427554
-0.000427554
1.72103e-05
1.72103e-05
-0.000175335
-0.000175335
-0.000164077
-0.000164077
-0.000602631
-0.000602631
6.88345e-05
6.88345e-05
0.000215156
0.000215156
0.00150109
0.00150109
4.48766e-05
4.48766e-05
0.000265747
0.000265747
0.00012785
0.00012785
-9.3889e-06
-9.3889e-06
-8.61344e-05
-8.61344e-05
-5.06105e-05
-5.06105e-05
0.0013876
0.0013876
0.000963851
0.000963851
0.000559846
0.000559846
0.0002984
0.0002984
0.00010863
0.00010863
-0.00151867
-0.00151867
-5.98799e-05
-5.98799e-05
0.000320608
0.000320608
0.000829592
0.000829592
0.00020384
0.00020384
-0.00299746
-0.00299746
-0.000144341
-0.000144341
0.000357452
0.000357452
0.000106506
0.000106506
-0.000146476
-0.000146476
-0.000479381
-0.000479381
-0.000590778
-0.000590778
-0.000219749
-0.000219749
-0.00115662
-0.00115662
-1.99656e-05
-1.99656e-05
-8.19382e-05
-8.19382e-05
0.000311865
0.000311865
0.000509871
0.000509871
0.000215624
0.000215624
4.71695e-05
4.71695e-05
-9.41406e-05
-9.41406e-05
0.00095278
0.00095278
-0.000101489
-0.000101489
0.000113414
0.000113414
-0.000363183
-0.000363183
-0.00159286
-0.00159286
-0.000108256
-0.000108256
-0.000455142
-0.000455142
-0.00303272
-0.00303272
3.58051e-05
3.58051e-05
-0.000298184
-0.000298184
-5.27895e-06
-5.27895e-06
-4.63419e-06
-4.63419e-06
-3.96474e-05
-3.96474e-05
-3.35877e-05
-3.35877e-05
-5.80989e-05
-5.80989e-05
0.000720194
0.000720194
0.00299607
0.00299607
-0.000766725
-0.000766725
0.000146878
0.000146878
7.84988e-05
7.84988e-05
0.000730661
0.000730661
-0.000298866
-0.000298866
-0.000574248
-0.000574248
-0.000306681
-0.000306681
2.3817e-05
2.3817e-05
-0.000651449
-0.000651449
7.73255e-05
7.73255e-05
-0.00041619
-0.00041619
0.000501575
0.000501575
0.000372411
0.000372411
-5.10155e-05
-5.10155e-05
-0.00016216
-0.00016216
-0.000194372
-0.000194372
-0.00277427
-0.00277427
0.000608708
0.000608708
-0.000249197
-0.000249197
0.000239791
0.000239791
0.000291742
0.000291742
-0.00103476
-0.00103476
-0.00157012
-0.00157012
-2.58237e-05
-2.58237e-05
-0.000926969
-0.000926969
5.02106e-05
5.02106e-05
-0.000390229
-0.000390229
0.000928777
0.000928777
0.000664394
0.000664394
0.000164173
0.000164173
-0.000292724
-0.000292724
-0.000497862
-0.000497862
0.0015015
0.0015015
-1.3038e-05
-1.3038e-05
-4.76563e-06
-4.76563e-06
-0.000772723
-0.000772723
0.000228192
0.000228192
6.44909e-05
6.44909e-05
0.000474497
0.000474497
-0.000181641
-0.000181641
0.00120659
0.00120659
-0.000111153
-0.000111153
0.00041734
0.00041734
0.000128273
0.000128273
-0.000272603
-0.000272603
-0.00219195
-0.00219195
0.000157319
0.000157319
-4.96778e-05
-4.96778e-05
0.00205943
0.00205943
0.000124876
0.000124876
-0.00039522
-0.00039522
0.000289771
0.000289771
0.00048692
0.00048692
0.000181813
0.000181813
0.000145842
0.000145842
0.0002667
0.0002667
0.000179714
0.000179714
0.00030768
0.00030768
7.55403e-05
7.55403e-05
-0.00182831
-0.00182831
-0.00019145
-0.00019145
-0.000260107
-0.000260107
0.0021856
0.0021856
0.00044759
0.00044759
-0.000549
-0.000549
-0.000184426
-0.000184426
-0.0010726
-0.0010726
-0.000683127
-0.000683127
0.000768535
0.000768535
4.84078e-05
4.84078e-05
-0.000165755
-0.000165755
-0.00209965
-0.00209965
-0.000128729
-0.000128729
-0.000674882
-0.000674882
-0.0003634
-0.0003634
-0.00207649
-0.00207649
0.000233683
0.000233683
1.46632e-05
1.46632e-05
-0.00109749
-0.00109749
8.04125e-05
8.04125e-05
0.000137587
0.000137587
0.000145872
0.000145872
0.000610182
0.000610182
-0.000534069
-0.000534069
5.66716e-05
5.66716e-05
0.000198493
0.000198493
-0.000124935
-0.000124935
0.000207436
0.000207436
0.000338567
0.000338567
0.000111838
0.000111838
-0.000717109
-0.000717109
-0.00127949
-0.00127949
3.09245e-05
3.09245e-05
-6.24542e-05
-6.24542e-05
2.19085e-05
2.19085e-05
-0.000115617
-0.000115617
-0.000195588
-0.000195588
0.0026688
0.0026688
0.00210224
0.00210224
5.03887e-05
5.03887e-05
0.000183838
0.000183838
0.000499544
0.000499544
0.000399937
0.000399937
-0.000453353
-0.000453353
-5.7947e-05
-5.7947e-05
-0.000332275
-0.000332275
-0.000388953
-0.000388953
-0.00011418
-0.00011418
-6.72884e-06
-6.72884e-06
-0.000113538
-0.000113538
0.00018551
0.00018551
-0.000182573
-0.000182573
-0.000710001
-0.000710001
-3.052e-05
-3.052e-05
0.000135578
0.000135578
-0.000481666
-0.000481666
0.000141327
0.000141327
0.000801893
0.000801893
-0.000410361
-0.000410361
0.000203276
0.000203276
0.000253533
0.000253533
-0.00081176
-0.00081176
-5.57802e-05
-5.57802e-05
0.00049425
0.00049425
-0.000950528
-0.000950528
-0.000433411
-0.000433411
9.25365e-06
9.25365e-06
-2.20717e-05
-2.20717e-05
9.48969e-06
9.48969e-06
0.00286971
0.00286971
-0.000684099
-0.000684099
-0.00023674
-0.00023674
0.00195218
0.00195218
3.33396e-05
3.33396e-05
0.000316394
0.000316394
0.000296065
0.000296065
-0.000469902
-0.000469902
-0.000859101
-0.000859101
0.000541549
0.000541549
8.6274e-05
8.6274e-05
0.000100794
0.000100794
-7.60821e-05
-7.60821e-05
-0.000836536
-0.000836536
4.44034e-05
4.44034e-05
0.00191565
0.00191565
-0.000181215
-0.000181215
0.000975446
0.000975446
0.00014522
0.00014522
0.00243843
0.00243843
0.000272894
0.000272894
-0.000136079
-0.000136079
-0.000174684
-0.000174684
0.000638375
0.000638375
0.0014031
0.0014031
8.01363e-05
8.01363e-05
-0.000615409
-0.000615409
0.000152088
0.000152088
-0.000214635
-0.000214635
-3.1176e-05
-3.1176e-05
-0.000505173
-0.000505173
-0.000482825
-0.000482825
-0.00193762
-0.00193762
-7.34833e-05
-7.34833e-05
-0.00135475
-0.00135475
-0.00362852
-0.00362852
-0.000325191
-0.000325191
0.00105222
0.00105222
-0.00018579
-0.00018579
2.80521e-05
2.80521e-05
0.000864388
0.000864388
-0.000294496
-0.000294496
0.000583858
0.000583858
-0.000898391
-0.000898391
-0.000171366
-0.000171366
0.000279349
0.000279349
0.000125397
0.000125397
0.00120444
0.00120444
-0.00044765
-0.00044765
0.000113788
0.000113788
0.00253966
0.00253966
0.000282837
0.000282837
-0.000200019
-0.000200019
-0.00267272
-0.00267272
0.000498676
0.000498676
-0.000192711
-0.000192711
1.93837e-05
1.93837e-05
0.00028443
0.00028443
0.000224751
0.000224751
-0.00180162
-0.00180162
-0.0025756
-0.0025756
0.000114962
0.000114962
0.000200133
0.000200133
0.00016468
0.00016468
0.000108706
0.000108706
0.000436212
0.000436212
-0.00016192
-0.00016192
0.000238614
0.000238614
3.85936e-05
3.85936e-05
-0.000318872
-0.000318872
0.000216348
0.000216348
0.000277644
0.000277644
7.94804e-05
7.94804e-05
-0.000186175
-0.000186175
0.000768555
0.000768555
0.000528885
0.000528885
-8.77267e-05
-8.77267e-05
-0.00039494
-0.00039494
-8.68028e-06
-8.68028e-06
-3.46472e-05
-3.46472e-05
-0.00020317
-0.00020317
-0.00273997
-0.00273997
-9.71215e-05
-9.71215e-05
-0.000240777
-0.000240777
0.000201396
0.000201396
-0.000146896
-0.000146896
0.00186489
0.00186489
0.000656248
0.000656248
-0.000507728
-0.000507728
0.000347531
0.000347531
-0.000435502
-0.000435502
0.00161068
0.00161068
-0.00110834
-0.00110834
-0.000198764
-0.000198764
7.2318e-05
7.2318e-05
0.000530201
0.000530201
-7.04504e-05
-7.04504e-05
0.000102011
0.000102011
0.00160164
0.00160164
-0.000360835
-0.000360835
-0.000254995
-0.000254995
0.00032223
0.00032223
-0.000251115
-0.000251115
0.000263297
0.000263297
-0.000289131
-0.000289131
-0.00241415
-0.00241415
0.00171285
0.00171285
5.11472e-05
5.11472e-05
-0.000198643
-0.000198643
7.41475e-05
7.41475e-05
0.000615895
0.000615895
-0.000105438
-0.000105438
-0.000107098
-0.000107098
0.000646598
0.000646598
-0.000272875
-0.000272875
0.000684928
0.000684928
0.00171908
0.00171908
0.000146505
0.000146505
-3.72083e-05
-3.72083e-05
-0.000124115
-0.000124115
-0.000126191
-0.000126191
-0.000575127
-0.000575127
-0.000489055
-0.000489055
0.000298241
0.000298241
0.000180691
0.000180691
-0.000553759
-0.000553759
-6.19771e-05
-6.19771e-05
-0.000131196
-0.000131196
0.000953556
0.000953556
1.59243e-05
1.59243e-05
0.000671591
0.000671591
-0.00212045
-0.00212045
0.000330164
0.000330164
-0.000758239
-0.000758239
-0.000264257
-0.000264257
-0.00130995
-0.00130995
-0.000261286
-0.000261286
-2.17101e-05
-2.17101e-05
0.000288387
0.000288387
-0.000110186
-0.000110186
-8.704e-05
-8.704e-05
-0.000151983
-0.000151983
0.000167238
0.000167238
-0.00124636
-0.00124636
-0.000470551
-0.000470551
0.00165454
0.00165454
-0.000509078
-0.000509078
0.000345418
0.000345418
-0.00109603
-0.00109603
0.00321535
0.00321535
-0.00234969
-0.00234969
0.000365879
0.000365879
0.00303916
0.00303916
0.000841152
0.000841152
7.9901e-06
7.9901e-06
-4.24286e-05
-4.24286e-05
0.000125144
0.000125144
-2.33549e-05
-2.33549e-05
0.000834036
0.000834036
-4.1976e-05
-4.1976e-05
0.000783702
0.000783702
-6.97845e-05
-6.97845e-05
0.000191885
0.000191885
-0.00316092
-0.00316092
-0.000283154
-0.000283154
9.45795e-05
9.45795e-05
0.000493938
0.000493938
-0.000171614
-0.000171614
-0.00257063
-0.00257063
-0.00141011
-0.00141011
-0.000102662
-0.000102662
0.000367897
0.000367897
-0.00055853
-0.00055853
0.0015239
0.0015239
0.000299938
0.000299938
-1.62849e-05
-1.62849e-05
-0.000603452
-0.000603452
-0.000613672
-0.000613672
-0.00051617
-0.00051617
-0.000150151
-0.000150151
0.000145031
0.000145031
-8.93683e-06
-8.93683e-06
-0.000176746
-0.000176746
0.000172372
0.000172372
-0.000165565
-0.000165565
-5.66032e-05
-5.66032e-05
1.43645e-05
1.43645e-05
4.08657e-05
4.08657e-05
-0.00068365
-0.00068365
-0.000794971
-0.000794971
2.37752e-05
2.37752e-05
-0.00100729
-0.00100729
-0.00151511
-0.00151511
-7.84703e-05
-7.84703e-05
1.6816e-05
1.6816e-05
-0.000688925
-0.000688925
0.00157708
0.00157708
-0.00130621
-0.00130621
-0.000158611
-0.000158611
0.000668918
0.000668918
0.000345432
0.000345432
0.000101318
0.000101318
-0.000206245
-0.000206245
-5.06338e-05
-5.06338e-05
-6.81694e-05
-6.81694e-05
1.44923e-05
1.44923e-05
0.000153451
0.000153451
-0.000918486
-0.000918486
-0.00114805
-0.00114805
4.09803e-05
4.09803e-05
-0.000473025
-0.000473025
-0.000391478
-0.000391478
0.00139342
0.00139342
0.00026435
0.00026435
0.00106064
0.00106064
0.000106842
0.000106842
0.000141099
0.000141099
0.00012276
0.00012276
0.000320285
0.000320285
-0.00258962
-0.00258962
-0.000183536
-0.000183536
5.44336e-05
5.44336e-05
-0.000130433
-0.000130433
0.00154976
0.00154976
-0.000375595
-0.000375595
-0.00014694
-0.00014694
9.23329e-05
9.23329e-05
7.4228e-05
7.4228e-05
-4.30065e-05
-4.30065e-05
-0.000174055
-0.000174055
0.000243365
0.000243365
0.000313131
0.000313131
0.000232255
0.000232255
0.000124759
0.000124759
0.000131099
0.000131099
-0.00276336
-0.00276336
-0.000575272
-0.000575272
-0.000147147
-0.000147147
-7.55398e-06
-7.55398e-06
0.000262794
0.000262794
-0.00153096
-0.00153096
0.000224049
0.000224049
0.000288828
0.000288828
-8.20402e-05
-8.20402e-05
-0.000206089
-0.000206089
-8.58243e-05
-8.58243e-05
0.00139619
0.00139619
0.00118154
0.00118154
-0.000195114
-0.000195114
0.000261932
0.000261932
-0.000711605
-0.000711605
-6.44382e-05
-6.44382e-05
-0.0010234
-0.0010234
-0.000332533
-0.000332533
0.00229737
0.00229737
0.00264978
0.00264978
0.000140063
0.000140063
-0.00219341
-0.00219341
-0.000145439
-0.000145439
0.000233599
0.000233599
-0.00132131
-0.00132131
8.77591e-05
8.77591e-05
-5.95647e-05
-5.95647e-05
-0.000144252
-0.000144252
-0.000574909
-0.000574909
-6.04094e-06
-6.04094e-06
-0.000389333
-0.000389333
6.53033e-05
6.53033e-05
-0.000556512
-0.000556512
-0.00122083
-0.00122083
-0.000310671
-0.000310671
0.000748754
0.000748754
1.0955e-05
1.0955e-05
-0.00200044
-0.00200044
-0.000294005
-0.000294005
-0.000159851
-0.000159851
-4.16603e-05
-4.16603e-05
0.000314744
0.000314744
-4.66941e-05
-4.66941e-05
-0.000840469
-0.000840469
-0.000149407
-0.000149407
-0.002003
-0.002003
0.0002532
0.0002532
8.53673e-05
8.53673e-05
0.000105588
0.000105588
0.000106174
0.000106174
-0.000283316
-0.000283316
-7.649e-05
-7.649e-05
0.00106206
0.00106206
0.000411022
0.000411022
-8.17139e-05
-8.17139e-05
-0.000180034
-0.000180034
0.000292512
0.000292512
0.000174165
0.000174165
-0.000956829
-0.000956829
1.45346e-05
1.45346e-05
-0.000154108
-0.000154108
6.0144e-05
6.0144e-05
1.09917e-05
1.09917e-05
-0.000984815
-0.000984815
1.53968e-05
1.53968e-05
0.000265227
0.000265227
0.0013258
0.0013258
-0.000120418
-0.000120418
-0.000841687
-0.000841687
-0.000203009
-0.000203009
-0.00103225
-0.00103225
9.76316e-05
9.76316e-05
0.000145874
0.000145874
-0.000398062
-0.000398062
0.000120488
0.000120488
8.94962e-05
8.94962e-05
0.0014275
0.0014275
0.000355695
0.000355695
-0.00255419
-0.00255419
-0.000748971
-0.000748971
-0.000209019
-0.000209019
-0.000508552
-0.000508552
-7.69593e-05
-7.69593e-05
-0.00209305
-0.00209305
0.000134745
0.000134745
3.46895e-05
3.46895e-05
0.000190548
0.000190548
0.000261804
0.000261804
-0.000120828
-0.000120828
-0.00113323
-0.00113323
-0.00049765
-0.00049765
0.00137312
0.00137312
-0.000104661
-0.000104661
0.000333406
0.000333406
0.00110691
0.00110691
-0.000313913
-0.000313913
-0.000199451
-0.000199451
0.000846799
0.000846799
0.00183614
0.00183614
-9.35728e-05
-9.35728e-05
-0.000258584
-0.000258584
0.000202505
0.000202505
-0.00165622
-0.00165622
0.000593216
0.000593216
0.000147176
0.000147176
-0.000131288
-0.000131288
-0.000106691
-0.000106691
-0.00011073
-0.00011073
6.80214e-05
6.80214e-05
0.000267875
0.000267875
0.000295511
0.000295511
-0.000879847
-0.000879847
-0.000283865
-0.000283865
0.00015633
0.00015633
-0.000821334
-0.000821334
0.000131103
0.000131103
3.04682e-05
3.04682e-05
-7.20523e-05
-7.20523e-05
-0.000111613
-0.000111613
0.00104938
0.00104938
0.00155007
0.00155007
3.15567e-05
3.15567e-05
8.62738e-05
8.62738e-05
0.000286522
0.000286522
2.12692e-05
2.12692e-05
0.000239725
0.000239725
1.11703e-05
1.11703e-05
1.58462e-05
1.58462e-05
1.06005e-05
1.06005e-05
0.000150644
0.000150644
2.51357e-05
2.51357e-05
-3.49955e-05
-3.49955e-05
-0.000912317
-0.000912317
0.000167904
0.000167904
-0.00178186
-0.00178186
-0.00296961
-0.00296961
0.000952533
0.000952533
-0.00143234
-0.00143234
6.83192e-05
6.83192e-05
-0.000160661
-0.000160661
0.00130033
0.00130033
0.000445839
0.000445839
-0.000144824
-0.000144824
2.91841e-06
2.91841e-06
-0.000610245
-0.000610245
-0.00243162
-0.00243162
-0.000487148
-0.000487148
9.43631e-05
9.43631e-05
-0.00148118
-0.00148118
-0.000697912
-0.000697912
0.00222806
0.00222806
-1.94839e-06
-1.94839e-06
0.000190902
0.000190902
-0.00136454
-0.00136454
-0.000332033
-0.000332033
-4.31597e-05
-4.31597e-05
0.000107356
0.000107356
-0.00033725
-0.00033725
0.000171656
0.000171656
-0.000178916
-0.000178916
-0.000109943
-0.000109943
-0.00284414
-0.00284414
-6.6705e-05
-6.6705e-05
-4.12941e-05
-4.12941e-05
-0.00182202
-0.00182202
-1.81412e-05
-1.81412e-05
-2.01388e-05
-2.01388e-05
0.000132585
0.000132585
-0.000139649
-0.000139649
0.00217545
0.00217545
0.000160409
0.000160409
-0.000369866
-0.000369866
0.00124271
0.00124271
8.28213e-05
8.28213e-05
-0.000167021
-0.000167021
0.000386986
0.000386986
-0.000899634
-0.000899634
5.89288e-05
5.89288e-05
-0.000669318
-0.000669318
-0.000363989
-0.000363989
-0.00014138
-0.00014138
4.22219e-05
4.22219e-05
-0.00106202
-0.00106202
-0.00014083
-0.00014083
0.00112901
0.00112901
6.20495e-05
6.20495e-05
-0.000719831
-0.000719831
-0.000133647
-0.000133647
-0.000136909
-0.000136909
0.000143345
0.000143345
0.000359672
0.000359672
-0.000110722
-0.000110722
0.00053915
0.00053915
0.000153912
0.000153912
-0.00211656
-0.00211656
-0.000194411
-0.000194411
-0.000123036
-0.000123036
-0.00056843
-0.00056843
2.80141e-06
2.80141e-06
0.000333611
0.000333611
0.000178953
0.000178953
-0.000330106
-0.000330106
-1.27702e-05
-1.27702e-05
8.25402e-05
8.25402e-05
-0.00218782
-0.00218782
0.00121565
0.00121565
7.26565e-05
7.26565e-05
0.000284484
0.000284484
3.42455e-05
3.42455e-05
0.000139309
0.000139309
0.00149913
0.00149913
0.000162203
0.000162203
0.0012647
0.0012647
-0.000804656
-0.000804656
0.00226675
0.00226675
0.000106678
0.000106678
8.0473e-05
8.0473e-05
-0.000174695
-0.000174695
0.00157453
0.00157453
-0.000591331
-0.000591331
0.000774404
0.000774404
0.000858626
0.000858626
0.00088578
0.00088578
-0.000523404
-0.000523404
0.000141222
0.000141222
-0.000755202
-0.000755202
-0.000138617
-0.000138617
4.29194e-05
4.29194e-05
0.00187859
0.00187859
-0.00191462
-0.00191462
-0.000430851
-0.000430851
-0.00167496
-0.00167496
-0.000612601
-0.000612601
0.0016438
0.0016438
-0.000459682
-0.000459682
-0.000249811
-0.000249811
-8.60398e-05
-8.60398e-05
-8.88984e-05
-8.88984e-05
0.000481322
0.000481322
-1.82483e-05
-1.82483e-05
-1.97611e-05
-1.97611e-05
-3.91537e-05
-3.91537e-05
-0.000792222
-0.000792222
-0.000416143
-0.000416143
-0.000342556
-0.000342556
0.000385145
0.000385145
-0.000492098
-0.000492098
-0.000233038
-0.000233038
-0.000657376
-0.000657376
-0.000420736
-0.000420736
0.00264396
0.00264396
-0.000327049
-0.000327049
-0.00126599
-0.00126599
0.00186738
0.00186738
0.000210147
0.000210147
-0.0026776
-0.0026776
0.000213293
0.000213293
9.67333e-05
9.67333e-05
2.43099e-05
2.43099e-05
0.00016832
0.00016832
-0.000366644
-0.000366644
0.000138395
0.000138395
0.000280321
0.000280321
0.00309016
0.00309016
2.56913e-05
2.56913e-05
0.00155113
0.00155113
8.92335e-05
8.92335e-05
-2.44101e-05
-2.44101e-05
0.00258897
0.00258897
0.000967883
0.000967883
-0.000524895
-0.000524895
0.000401158
0.000401158
0.000143603
0.000143603
0.000393217
0.000393217
0.000750212
0.000750212
-7.60334e-05
-7.60334e-05
-0.000265488
-0.000265488
-0.000192055
-0.000192055
0.00012397
0.00012397
-0.00171894
-0.00171894
-0.000208208
-0.000208208
-0.000146776
-0.000146776
1.42281e-05
1.42281e-05
0.000998398
0.000998398
0.000416224
0.000416224
-4.99284e-05
-4.99284e-05
0.000648113
0.000648113
0.00325452
0.00325452
0.00029774
0.00029774
-0.00189731
-0.00189731
-0.000214639
-0.000214639
7.31595e-05
7.31595e-05
-3.31263e-05
-3.31263e-05
0.00308785
0.00308785
-2.92048e-05
-2.92048e-05
-0.000173712
-0.000173712
-0.000268264
-0.000268264
-0.00040713
-0.00040713
-0.00139264
-0.00139264
-0.000314933
-0.000314933
0.000185905
0.000185905
-0.000297337
-0.000297337
-5.81755e-05
-5.81755e-05
0.000766186
0.000766186
0.000177602
0.000177602
-0.000453214
-0.000453214
-0.0024742
-0.0024742
-0.00010449
-0.00010449
-7.72345e-05
-7.72345e-05
-0.00202459
-0.00202459
0.00102636
0.00102636
-5.83158e-05
-5.83158e-05
9.08684e-05
9.08684e-05
0.0006172
0.0006172
0.000804763
0.000804763
-0.000104203
-0.000104203
0.000450683
0.000450683
0.000112769
0.000112769
-0.00122962
-0.00122962
-0.000181991
-0.000181991
0.000242043
0.000242043
0.00104738
0.00104738
0.000424559
0.000424559
0.000167094
0.000167094
-0.00129667
-0.00129667
0.000349199
0.000349199
0.000260391
0.000260391
-0.00169528
-0.00169528
-0.00035308
-0.00035308
0.00027198
0.00027198
-0.000380212
-0.000380212
0.00140184
0.00140184
-6.33792e-05
-6.33792e-05
-6.31168e-05
-6.31168e-05
-0.000144728
-0.000144728
0.000803381
0.000803381
0.000333776
0.000333776
0.000798844
0.000798844
-0.000116721
-0.000116721
-0.000810039
-0.000810039
-0.000589019
-0.000589019
0.000222515
0.000222515
-0.00019436
-0.00019436
-9.02588e-05
-9.02588e-05
0.000241606
0.000241606
0.00207421
0.00207421
-0.00112814
-0.00112814
-0.000283033
-0.000283033
0.000249504
0.000249504
-0.000154929
-0.000154929
0.000154812
0.000154812
-7.20837e-05
-7.20837e-05
0.00106527
0.00106527
0.000407378
0.000407378
0.000455102
0.000455102
-0.000363501
-0.000363501
-0.000534126
-0.000534126
-0.000324672
-0.000324672
0.000213263
0.000213263
0.00130589
0.00130589
-6.36043e-05
-6.36043e-05
9.25786e-06
9.25786e-06
-4.47758e-05
-4.47758e-05
0.00375873
0.00375873
-0.000158571
-0.000158571
9.9764e-05
9.9764e-05
-0.000191199
-0.000191199
-0.000141696
-0.000141696
0.000169662
0.000169662
-0.000150366
-0.000150366
-3.66938e-05
-3.66938e-05
0.00178455
0.00178455
-0.00015138
-0.00015138
0.00138752
0.00138752
-9.58583e-05
-9.58583e-05
-0.000152353
-0.000152353
0.000319093
0.000319093
-0.000612197
-0.000612197
-7.52356e-05
-7.52356e-05
0.000591811
0.000591811
0.000299829
0.000299829
0.000379791
0.000379791
-0.000594279
-0.000594279
2.86295e-05
2.86295e-05
0.00109439
0.00109439
-9.47844e-05
-9.47844e-05
0.00037916
0.00037916
4.34847e-05
4.34847e-05
0.000211353
0.000211353
-0.000174178
-0.000174178
-0.00138545
-0.00138545
4.08892e-05
4.08892e-05
-0.000668145
-0.000668145
-0.000597145
-0.000597145
0.000176915
0.000176915
-2.68986e-05
-2.68986e-05
9.88061e-05
9.88061e-05
-0.000230757
-0.000230757
0.000127615
0.000127615
0.000118026
0.000118026
9.15639e-05
9.15639e-05
-0.000843295
-0.000843295
0.00182156
0.00182156
3.93139e-05
3.93139e-05
-0.000487261
-0.000487261
0.000470819
0.000470819
-0.00088282
-0.00088282
-0.000498404
-0.000498404
-6.59777e-05
-6.59777e-05
-0.000124228
-0.000124228
0.000256837
0.000256837
-0.000163427
-0.000163427
-0.00025544
-0.00025544
-0.000217269
-0.000217269
-0.000148944
-0.000148944
0.00274817
0.00274817
0.00047336
0.00047336
0.000595214
0.000595214
-0.000182035
-0.000182035
-0.000170946
-0.000170946
-0.000988108
-0.000988108
0.000388491
0.000388491
0.000734345
0.000734345
0.000357776
0.000357776
5.73913e-05
5.73913e-05
0.000315117
0.000315117
-0.000341657
-0.000341657
-6.91672e-05
-6.91672e-05
0.000292533
0.000292533
0.000185036
0.000185036
0.000150451
0.000150451
-0.000571353
-0.000571353
-0.000126351
-0.000126351
0.000116919
0.000116919
-0.000347207
-0.000347207
-0.00170769
-0.00170769
0.000107489
0.000107489
-9.19585e-05
-9.19585e-05
0.00171215
0.00171215
0.000152419
0.000152419
3.38519e-05
3.38519e-05
-0.000583213
-0.000583213
-0.000225494
-0.000225494
5.25719e-05
5.25719e-05
0.000308398
0.000308398
0.000304765
0.000304765
-5.84396e-06
-5.84396e-06
-0.00224474
-0.00224474
-9.04868e-05
-9.04868e-05
0.000424364
0.000424364
-0.00240595
-0.00240595
0.000201298
0.000201298
0.000598618
0.000598618
0.000728668
0.000728668
-0.000299715
-0.000299715
0.00147572
0.00147572
0.000289513
0.000289513
0.000344265
0.000344265
-9.66463e-05
-9.66463e-05
3.15523e-05
3.15523e-05
0.00123137
0.00123137
0.00206664
0.00206664
9.97357e-05
9.97357e-05
-0.000139937
-0.000139937
-0.00020061
-0.00020061
0.000102878
0.000102878
-0.00200303
-0.00200303
-0.000295488
-0.000295488
0.00115419
0.00115419
3.68117e-05
3.68117e-05
0.000210626
0.000210626
0.000725463
0.000725463
0.000780393
0.000780393
0.000139259
0.000139259
-0.000180267
-0.000180267
0.00161482
0.00161482
-0.000274948
-0.000274948
-0.000164418
-0.000164418
6.72652e-05
6.72652e-05
-0.00132723
-0.00132723
-0.000113013
-0.000113013
-6.0498e-05
-6.0498e-05
0.000203969
0.000203969
1.51866e-05
1.51866e-05
0.00128621
0.00128621
0.000491426
0.000491426
-0.0029338
-0.0029338
9.84272e-05
9.84272e-05
-0.00126032
-0.00126032
0.000641177
0.000641177
0.000301602
0.000301602
-0.000231727
-0.000231727
0.000648549
0.000648549
-0.000156155
-0.000156155
1.17191e-07
1.17191e-07
2.79016e-05
2.79016e-05
0.000559941
0.000559941
-0.000324079
-0.000324079
-4.19962e-05
-4.19962e-05
0.000115754
0.000115754
-0.000426291
-0.000426291
0.00240724
0.00240724
0.00216956
0.00216956
0.00098689
0.00098689
0.00121814
0.00121814
-0.000266543
-0.000266543
-1.60831e-05
-1.60831e-05
0.000112865
0.000112865
-0.000975873
-0.000975873
-0.00193751
-0.00193751
8.66073e-06
8.66073e-06
0.000733001
0.000733001
-6.46738e-05
-6.46738e-05
-0.000365082
-0.000365082
4.22814e-07
4.22814e-07
0.00178713
0.00178713
-0.000598967
-0.000598967
0.000311772
0.000311772
0.000368913
0.000368913
-9.10234e-05
-9.10234e-05
8.30966e-05
8.30966e-05
0.000216984
0.000216984
-4.08972e-05
-4.08972e-05
-0.000125755
-0.000125755
0.000473711
0.000473711
0.000196487
0.000196487
0.0011112
0.0011112
-0.00276739
-0.00276739
-0.000118553
-0.000118553
0.000236254
0.000236254
-0.00113821
-0.00113821
-0.000173332
-0.000173332
0.000103429
0.000103429
0.000517266
0.000517266
-5.13735e-05
-5.13735e-05
0.000925851
0.000925851
9.02916e-05
9.02916e-05
0.000168043
0.000168043
-0.0014964
-0.0014964
0.00019035
0.00019035
-0.00159289
-0.00159289
0.00178677
0.00178677
0.000201513
0.000201513
0.000367372
0.000367372
-0.00025332
-0.00025332
-0.000271831
-0.000271831
0.000623813
0.000623813
-0.000262378
-0.000262378
0.000268341
0.000268341
0.000461208
0.000461208
-0.000863132
-0.000863132
-0.000598459
-0.000598459
-0.000361845
-0.000361845
-0.000356443
-0.000356443
0.000255242
0.000255242
0.00134915
0.00134915
7.91871e-05
7.91871e-05
0.000263454
0.000263454
0.000278062
0.000278062
-0.000133247
-0.000133247
0.000293134
0.000293134
2.22428e-05
2.22428e-05
0.000463332
0.000463332
0.000113931
0.000113931
-0.000268462
-0.000268462
3.65265e-05
3.65265e-05
0.000287226
0.000287226
0.000116477
0.000116477
-0.000596578
-0.000596578
0.000935638
0.000935638
-0.00274817
-0.00274817
-0.000135692
-0.000135692
-0.0001456
-0.0001456
0.00171742
0.00171742
0.000238594
0.000238594
-0.000734108
-0.000734108
-0.000892483
-0.000892483
-1.0863e-05
-1.0863e-05
0.00100381
0.00100381
-0.000113394
-0.000113394
0.000113087
0.000113087
-0.000464914
-0.000464914
6.54154e-05
6.54154e-05
-0.000160349
-0.000160349
-0.000122744
-0.000122744
-0.000451541
-0.000451541
-0.000812588
-0.000812588
-0.000158388
-0.000158388
-1.94121e-05
-1.94121e-05
-1.87559e-05
-1.87559e-05
-0.000796172
-0.000796172
5.97721e-05
5.97721e-05
7.74851e-05
7.74851e-05
-0.000261787
-0.000261787
-0.000876348
-0.000876348
0.000615004
0.000615004
4.76608e-05
4.76608e-05
-0.000206506
-0.000206506
0.00134785
0.00134785
-9.99854e-05
-9.99854e-05
-0.000215843
-0.000215843
-0.000673613
-0.000673613
9.81068e-05
9.81068e-05
-0.000190612
-0.000190612
0.000510733
0.000510733
-0.000312808
-0.000312808
-0.000358131
-0.000358131
-8.54204e-05
-8.54204e-05
0.000123927
0.000123927
-0.000204054
-0.000204054
-0.00196606
-0.00196606
-0.000588887
-0.000588887
0.00222807
0.00222807
0.000126435
0.000126435
-0.000249234
-0.000249234
-0.000970342
-0.000970342
0.00067749
0.00067749
-0.000183651
-0.000183651
0.00082263
0.00082263
-0.000953455
-0.000953455
-0.000198614
-0.000198614
-1.68218e-05
-1.68218e-05
0.000390817
0.000390817
-0.00126114
-0.00126114
0.000104372
0.000104372
-0.000161924
-0.000161924
-0.000136889
-0.000136889
0.000302316
0.000302316
-0.000394758
-0.000394758
4.11693e-05
4.11693e-05
-0.00050376
-0.00050376
0.000694539
0.000694539
-0.000310219
-0.000310219
0.00132461
0.00132461
-8.67401e-05
-8.67401e-05
-0.0002774
-0.0002774
-0.00157961
-0.00157961
-0.00264425
-0.00264425
-0.00148581
-0.00148581
-0.000240266
-0.000240266
-0.000229914
-0.000229914
-0.000113232
-0.000113232
-0.00113385
-0.00113385
0.000988464
0.000988464
-0.000209821
-0.000209821
-5.39637e-06
-5.39637e-06
-0.000574926
-0.000574926
-9.15258e-05
-9.15258e-05
-0.00115122
-0.00115122
0.000139246
0.000139246
-0.000832326
-0.000832326
1.7753e-05
1.7753e-05
0.000231861
0.000231861
0.00159915
0.00159915
-0.000180555
-0.000180555
-0.000154724
-0.000154724
-0.00151562
-0.00151562
-1.49312e-05
-1.49312e-05
-0.000453719
-0.000453719
-0.000436244
-0.000436244
0.000497451
0.000497451
-0.000137477
-0.000137477
0.00042729
0.00042729
0.000825713
0.000825713
-0.000152537
-0.000152537
-9.3298e-06
-9.3298e-06
9.91507e-05
9.91507e-05
-0.000417247
-0.000417247
-5.13113e-05
-5.13113e-05
-0.00260184
-0.00260184
-0.000115334
-0.000115334
0.000387523
0.000387523
-6.47707e-05
-6.47707e-05
-0.000195012
-0.000195012
-0.000203914
-0.000203914
-0.00155817
-0.00155817
0.000291472
0.000291472
0.000374038
0.000374038
-0.000160343
-0.000160343
-0.000937602
-0.000937602
0.00197705
0.00197705
-0.000118951
-0.000118951
-0.000255938
-0.000255938
6.15648e-05
6.15648e-05
0.000271003
0.000271003
0.000151543
0.000151543
-3.55717e-05
-3.55717e-05
0.00020816
0.00020816
-7.75879e-05
-7.75879e-05
-0.00081549
-0.00081549
0.000889833
0.000889833
0.00189744
0.00189744
9.37842e-05
9.37842e-05
-0.000651834
-0.000651834
-0.00102342
-0.00102342
0.000222561
0.000222561
-0.0013893
-0.0013893
0.000416043
0.000416043
-0.00128915
-0.00128915
0.0014774
0.0014774
-0.000212124
-0.000212124
-2.15056e-05
-2.15056e-05
0.000159055
0.000159055
-0.000153759
-0.000153759
-0.000413514
-0.000413514
-0.000126308
-0.000126308
-0.000122019
-0.000122019
-0.000103287
-0.000103287
0.00160817
0.00160817
0.000192845
0.000192845
-0.000263351
-0.000263351
-0.000235409
-0.000235409
-0.000477412
-0.000477412
0.00174005
0.00174005
-0.000102661
-0.000102661
0.000301277
0.000301277
0.000106074
0.000106074
0.000144378
0.000144378
-0.000143612
-0.000143612
0.000333183
0.000333183
0.000650075
0.000650075
-0.0013401
-0.0013401
-1.30364e-05
-1.30364e-05
8.7939e-05
8.7939e-05
0.000136639
0.000136639
2.80601e-05
2.80601e-05
-0.00102069
-0.00102069
0.00297861
0.00297861
0.000305395
0.000305395
0.00118968
0.00118968
-2.42691e-05
-2.42691e-05
3.43003e-05
3.43003e-05
-0.000626379
-0.000626379
0.000695897
0.000695897
-0.000490091
-0.000490091
-0.000471531
-0.000471531
9.584e-06
9.584e-06
5.0298e-05
5.0298e-05
-0.00067486
-0.00067486
-0.000233955
-0.000233955
0.000267697
0.000267697
-0.000374845
-0.000374845
-0.000103474
-0.000103474
-9.39896e-05
-9.39896e-05
0.000253735
0.000253735
-0.000181859
-0.000181859
0.00113952
0.00113952
-8.41417e-05
-8.41417e-05
0.000168192
0.000168192
-0.000337728
-0.000337728
0.000307368
0.000307368
0.000707089
0.000707089
0.00141131
0.00141131
-0.000226098
-0.000226098
0.000856756
0.000856756
7.76068e-05
7.76068e-05
0.000267143
0.000267143
-5.74849e-05
-5.74849e-05
0.000425667
0.000425667
-0.000318751
-0.000318751
-0.000442652
-0.000442652
-0.000101758
-0.000101758
-9.08647e-05
-9.08647e-05
-0.0010352
-0.0010352
0.000128363
0.000128363
0.000419687
0.000419687
7.66933e-05
7.66933e-05
0.000220988
0.000220988
0.000819925
0.000819925
-0.000824648
-0.000824648
0.00135294
0.00135294
0.000525863
0.000525863
-0.00345919
-0.00345919
0.000140487
0.000140487
0.000803327
0.000803327
0.000514029
0.000514029
-0.000107701
-0.000107701
-0.000217392
-0.000217392
-0.00158415
-0.00158415
-0.000142571
-0.000142571
0.00168179
0.00168179
-0.000129226
-0.000129226
-0.000318542
-0.000318542
-0.00139514
-0.00139514
-0.000661425
-0.000661425
0.000150469
0.000150469
0.000143156
0.000143156
7.6916e-05
7.6916e-05
0.000350057
0.000350057
-0.000738705
-0.000738705
-4.67167e-05
-4.67167e-05
-1.84144e-05
-1.84144e-05
0.000101795
0.000101795
-0.000427806
-0.000427806
-0.000432517
-0.000432517
-1.79808e-05
-1.79808e-05
-0.000180003
-0.000180003
-0.000238955
-0.000238955
4.71694e-05
4.71694e-05
-0.000147185
-0.000147185
0.000107113
0.000107113
0.000423137
0.000423137
7.92321e-05
7.92321e-05
-0.000158538
-0.000158538
0.000219776
0.000219776
5.33452e-05
5.33452e-05
0.000205091
0.000205091
0.000241018
0.000241018
8.45057e-05
8.45057e-05
-0.000293453
-0.000293453
-6.28596e-05
-6.28596e-05
0.000127204
0.000127204
0.000466658
0.000466658
-0.00184802
-0.00184802
-0.00187671
-0.00187671
9.46665e-05
9.46665e-05
0.000448474
0.000448474
0.0011944
0.0011944
-0.000184973
-0.000184973
-0.000219104
-0.000219104
2.12085e-05
2.12085e-05
-5.23328e-06
-5.23328e-06
-0.00161452
-0.00161452
0.000774706
0.000774706
0.000554859
0.000554859
-0.000261882
-0.000261882
-0.00250514
-0.00250514
-0.000621364
-0.000621364
-0.000486624
-0.000486624
-0.000199446
-0.000199446
-0.000215548
-0.000215548
-0.00209758
-0.00209758
0.00217953
0.00217953
0.000156462
0.000156462
0.000153076
0.000153076
0.000299261
0.000299261
-6.35693e-05
-6.35693e-05
-0.00126558
-0.00126558
-8.78063e-06
-8.78063e-06
0.000885584
0.000885584
0.000264255
0.000264255
-0.00192047
-0.00192047
-9.60937e-06
-9.60937e-06
-0.000555599
-0.000555599
0.000417038
0.000417038
0.000539286
0.000539286
-0.00188749
-0.00188749
6.96492e-05
6.96492e-05
4.94424e-05
4.94424e-05
4.8853e-05
4.8853e-05
0.000313311
0.000313311
-0.00111058
-0.00111058
-0.000344216
-0.000344216
0.000246317
0.000246317
0.00011932
0.00011932
-0.000508435
-0.000508435
3.27393e-05
3.27393e-05
9.8116e-05
9.8116e-05
-0.00104891
-0.00104891
0.000128313
0.000128313
-0.000130342
-0.000130342
-6.08897e-05
-6.08897e-05
0.00018856
0.00018856
-5.16853e-05
-5.16853e-05
0.000994646
0.000994646
0.000999374
0.000999374
9.73312e-05
9.73312e-05
0.000123448
0.000123448
-0.000212603
-0.000212603
0.000746516
0.000746516
-0.000280214
-0.000280214
0.000160491
0.000160491
-0.000245951
-0.000245951
-0.000196197
-0.000196197
-0.00242001
-0.00242001
0.000113671
0.000113671
-0.000760081
-0.000760081
5.10069e-05
5.10069e-05
-0.000571894
-0.000571894
-0.000444472
-0.000444472
-0.000739911
-0.000739911
0.000788525
0.000788525
-0.000390592
-0.000390592
0.000712277
0.000712277
-0.000605164
-0.000605164
0.000107196
0.000107196
-0.000137279
-0.000137279
0.000241762
0.000241762
-0.000111786
-0.000111786
-0.000183007
-0.000183007
-0.000757278
-0.000757278
-0.000179762
-0.000179762
-0.000211139
-0.000211139
-0.000501106
-0.000501106
2.28696e-05
2.28696e-05
6.09326e-05
6.09326e-05
-0.000141486
-0.000141486
-0.000632943
-0.000632943
0.000590937
0.000590937
-3.14882e-05
-3.14882e-05
2.47542e-05
2.47542e-05
-0.00200404
-0.00200404
-0.00261809
-0.00261809
0.000308335
0.000308335
-0.000121561
-0.000121561
-0.000713412
-0.000713412
9.67739e-05
9.67739e-05
7.27105e-05
7.27105e-05
0.000563277
0.000563277
-0.000120874
-0.000120874
0.00135293
0.00135293
-9.73788e-05
-9.73788e-05
-7.61539e-05
-7.61539e-05
-0.000657231
-0.000657231
-0.000433672
-0.000433672
-0.000353219
-0.000353219
0.000725445
0.000725445
3.86946e-05
3.86946e-05
-2.65601e-05
-2.65601e-05
0.00120908
0.00120908
-7.11512e-05
-7.11512e-05
6.73273e-05
6.73273e-05
0.000149437
0.000149437
9.68333e-05
9.68333e-05
0.000136151
0.000136151
0.000534971
0.000534971
0.000493669
0.000493669
0.000142847
0.000142847
-0.000754636
-0.000754636
-0.000150649
-0.000150649
0.000455506
0.000455506
0.000156892
0.000156892
-0.000261735
-0.000261735
-0.000621579
-0.000621579
-0.000643216
-0.000643216
-0.000531511
-0.000531511
-0.000207785
-0.000207785
0.000286795
0.000286795
-0.00103302
-0.00103302
-0.000180456
-0.000180456
0.000139829
0.000139829
0.000542131
0.000542131
4.82131e-05
4.82131e-05
0.000558593
0.000558593
-9.67239e-05
-9.67239e-05
-0.00118711
-0.00118711
0.00289361
0.00289361
0.00124262
0.00124262
-0.000572681
-0.000572681
-0.00244006
-0.00244006
-0.000327796
-0.000327796
6.86269e-05
6.86269e-05
-0.000542889
-0.000542889
-2.4625e-05
-2.4625e-05
-2.48053e-05
-2.48053e-05
-0.00153951
-0.00153951
0.000137842
0.000137842
-0.000167045
-0.000167045
-1.06634e-05
-1.06634e-05
-0.000339051
-0.000339051
0.00106655
0.00106655
-0.00254164
-0.00254164
0.000115786
0.000115786
-0.000665711
-0.000665711
0.000257337
0.000257337
-0.00077092
-0.00077092
0.000225955
0.000225955
0.000827125
0.000827125
3.87848e-05
3.87848e-05
0.000677833
0.000677833
-0.000273334
-0.000273334
3.97378e-05
3.97378e-05
-6.6294e-05
-6.6294e-05
0.0017333
0.0017333
0.000259754
0.000259754
4.27319e-05
4.27319e-05
0.00015692
0.00015692
-0.000158873
-0.000158873
0.000316554
0.000316554
0.00089455
0.00089455
0.000634983
0.000634983
-5.89649e-05
-5.89649e-05
-8.35755e-05
-8.35755e-05
-0.000158911
-0.000158911
-0.000420526
-0.000420526
0.000281075
0.000281075
-4.35588e-05
-4.35588e-05
0.000499693
0.000499693
0.000588133
0.000588133
-6.25989e-05
-6.25989e-05
-2.56592e-07
-2.56592e-07
0.000281743
0.000281743
-0.00129602
-0.00129602
-0.000973419
-0.000973419
-9.49674e-05
-9.49674e-05
0.000547336
0.000547336
8.64726e-05
8.64726e-05
-0.000155738
-0.000155738
-6.08161e-05
-6.08161e-05
2.99586e-06
2.99586e-06
0.000412023
0.000412023
-3.58139e-05
-3.58139e-05
-0.000283116
-0.000283116
-0.000260454
-0.000260454
0.000166016
0.000166016
0.000166584
0.000166584
-0.00034803
-0.00034803
0.000465204
0.000465204
-0.000100173
-0.000100173
5.39963e-06
5.39963e-06
-0.000142694
-0.000142694
-0.00268628
-0.00268628
0.000118987
0.000118987
-0.000279134
-0.000279134
0.000889168
0.000889168
0.00270365
0.00270365
-0.00166428
-0.00166428
1.42206e-05
1.42206e-05
0.00164109
0.00164109
0.000453246
0.000453246
-0.00175427
-0.00175427
7.25962e-06
7.25962e-06
-6.93905e-05
-6.93905e-05
-0.00100736
-0.00100736
-9.96424e-06
-9.96424e-06
-0.000319016
-0.000319016
-0.000182825
-0.000182825
-2.73619e-05
-2.73619e-05
8.81525e-05
8.81525e-05
-0.00240041
-0.00240041
-0.00179511
-0.00179511
-0.000494092
-0.000494092
-0.000452137
-0.000452137
0.000799974
0.000799974
-0.000772188
-0.000772188
0.00128176
0.00128176
0.00093784
0.00093784
3.51736e-05
3.51736e-05
0.00272985
0.00272985
0.00148971
0.00148971
-0.000269337
-0.000269337
-6.67249e-05
-6.67249e-05
0.000142781
0.000142781
0.000153965
0.000153965
-0.000706682
-0.000706682
-0.000189186
-0.000189186
0.000571593
0.000571593
0.000360999
0.000360999
-8.51622e-05
-8.51622e-05
0.000610327
0.000610327
5.96043e-05
5.96043e-05
-0.00104854
-0.00104854
-0.000179775
-0.000179775
-9.14337e-05
-9.14337e-05
-0.000101436
-0.000101436
4.35031e-05
4.35031e-05
-0.00166644
-0.00166644
-0.00019631
-0.00019631
-0.000204882
-0.000204882
-0.00015198
-0.00015198
0.000159594
0.000159594
-0.000990174
-0.000990174
-0.000100593
-0.000100593
-0.000214271
-0.000214271
5.33864e-05
5.33864e-05
9.01004e-05
9.01004e-05
-0.00138154
-0.00138154
3.24403e-05
3.24403e-05
-0.000403164
-0.000403164
-0.000201993
-0.000201993
-0.000169879
-0.000169879
-0.000480688
-0.000480688
-0.000130576
-0.000130576
8.08068e-05
8.08068e-05
-7.48196e-06
-7.48196e-06
0.000541575
0.000541575
0.00188047
0.00188047
-0.000142289
-0.000142289
0.000456959
0.000456959
-0.000103234
-0.000103234
0.000772498
0.000772498
3.43082e-05
3.43082e-05
-0.000580006
-0.000580006
0.000859531
0.000859531
-0.000326796
-0.000326796
-0.000114686
-0.000114686
0.000388799
0.000388799
1.81492e-05
1.81492e-05
-0.0021427
-0.0021427
0.000530287
0.000530287
-0.000236472
-0.000236472
0.000192161
0.000192161
0.000238573
0.000238573
0.00185311
0.00185311
-0.000125605
-0.000125605
-8.9427e-05
-8.9427e-05
0.001748
0.001748
9.34962e-05
9.34962e-05
-0.00123262
-0.00123262
-0.000782491
-0.000782491
-0.00057939
-0.00057939
-0.000193319
-0.000193319
-2.24302e-05
-2.24302e-05
-0.000113239
-0.000113239
-0.000562768
-0.000562768
-0.00144149
-0.00144149
0.000206034
0.000206034
0.000452421
0.000452421
0.00010766
0.00010766
-4.59538e-05
-4.59538e-05
0.00032902
0.00032902
-0.000134756
-0.000134756
0.000138637
0.000138637
0.00052853
0.00052853
-0.000447068
-0.000447068
-3.36546e-05
-3.36546e-05
-0.000677273
-0.000677273
-2.58561e-05
-2.58561e-05
0.000247442
0.000247442
-0.000113663
-0.000113663
-5.03958e-05
-5.03958e-05
7.50239e-05
7.50239e-05
2.14789e-05
2.14789e-05
6.57998e-05
6.57998e-05
-0.000167087
-0.000167087
0.0001381
0.0001381
-0.000157726
-0.000157726
-0.000309744
-0.000309744
-0.000100132
-0.000100132
8.96274e-05
8.96274e-05
-0.00107472
-0.00107472
0.00114101
0.00114101
0.000146418
0.000146418
0.000623553
0.000623553
0.000795913
0.000795913
0.000809284
0.000809284
-0.000458552
-0.000458552
0.00333473
0.00333473
0.000313046
0.000313046
-0.000289451
-0.000289451
0.000347138
0.000347138
0.00176358
0.00176358
-0.000410424
-0.000410424
-9.47124e-05
-9.47124e-05
-0.0019284
-0.0019284
-0.00145605
-0.00145605
0.00164511
0.00164511
0.00133366
0.00133366
0.00064177
0.00064177
-0.000611239
-0.000611239
1.06418e-05
1.06418e-05
-0.000125068
-0.000125068
0.000428566
0.000428566
0.000444033
0.000444033
3.84941e-05
3.84941e-05
0.000134003
0.000134003
5.2946e-05
5.2946e-05
0.000108144
0.000108144
0.000856057
0.000856057
7.76073e-05
7.76073e-05
-0.000100221
-0.000100221
-0.000117303
-0.000117303
5.32793e-06
5.32793e-06
0.00095095
0.00095095
-0.000454511
-0.000454511
0.000116809
0.000116809
-0.00174749
-0.00174749
0.000298766
0.000298766
-0.000120794
-0.000120794
0.00101891
0.00101891
-0.000161887
-0.000161887
-0.000328746
-0.000328746
0.000467701
0.000467701
0.000178532
0.000178532
-7.29081e-05
-7.29081e-05
0.000327386
0.000327386
0.000245645
0.000245645
0.000108244
0.000108244
-0.000132835
-0.000132835
5.24701e-05
5.24701e-05
-0.0019873
-0.0019873
-0.000175611
-0.000175611
0.00290876
0.00290876
0.000454356
0.000454356
0.00094648
0.00094648
0.000302286
0.000302286
0.000136671
0.000136671
-0.000251228
-0.000251228
0.000176151
0.000176151
0.000676707
0.000676707
-0.00229783
-0.00229783
0.00124579
0.00124579
-7.48777e-05
-7.48777e-05
0.000134
0.000134
-0.00117792
-0.00117792
-7.13302e-05
-7.13302e-05
0.00147493
0.00147493
-0.000166429
-0.000166429
0.000994768
0.000994768
-0.000856028
-0.000856028
-0.00135851
-0.00135851
0.000763588
0.000763588
-8.87372e-05
-8.87372e-05
0.000122385
0.000122385
-2.38014e-05
-2.38014e-05
-0.000146082
-0.000146082
-0.000251271
-0.000251271
0.00166373
0.00166373
0.00119979
0.00119979
0.00030591
0.00030591
0.00111116
0.00111116
-0.000348477
-0.000348477
-0.00028341
-0.00028341
-7.15276e-05
-7.15276e-05
0.000202326
0.000202326
0.00127945
0.00127945
0.00037896
0.00037896
8.96417e-05
8.96417e-05
-0.000113154
-0.000113154
0.00104404
0.00104404
-0.000148454
-0.000148454
0.000626213
0.000626213
-0.000453196
-0.000453196
-1.32677e-05
-1.32677e-05
0.001133
0.001133
0.000502329
0.000502329
-0.00195681
-0.00195681
0.00145412
0.00145412
2.98282e-05
2.98282e-05
0.000215317
0.000215317
-0.00190499
-0.00190499
-0.000530372
-0.000530372
0.00194482
0.00194482
-0.000665927
-0.000665927
-0.00030134
-0.00030134
0.00037598
0.00037598
-0.000131622
-0.000131622
0.000716795
0.000716795
-0.000849831
-0.000849831
-0.000581654
-0.000581654
-3.63326e-05
-3.63326e-05
-6.9149e-05
-6.9149e-05
0.000192447
0.000192447
-0.000157741
-0.000157741
-0.000183556
-0.000183556
0.00108754
0.00108754
-0.00050742
-0.00050742
0.000166502
0.000166502
0.000285099
0.000285099
4.06159e-05
4.06159e-05
-0.000127085
-0.000127085
0.000225535
0.000225535
0.000114385
0.000114385
4.9689e-05
4.9689e-05
0.000174302
0.000174302
0.000319476
0.000319476
0.00311213
0.00311213
-0.000381775
-0.000381775
4.65412e-05
4.65412e-05
5.39697e-05
5.39697e-05
0.000357526
0.000357526
-0.00235546
-0.00235546
0.000293422
0.000293422
-6.70462e-05
-6.70462e-05
-0.00112356
-0.00112356
-0.000140114
-0.000140114
0.000482825
0.000482825
0.000110395
0.000110395
-0.000902198
-0.000902198
-0.000143602
-0.000143602
-0.000236931
-0.000236931
0.000781238
0.000781238
0.000305864
0.000305864
0.000130586
0.000130586
0.000145232
0.000145232
-0.000146389
-0.000146389
0.000798605
0.000798605
0.000255211
0.000255211
0.00022475
0.00022475
8.76269e-05
8.76269e-05
-2.00402e-05
-2.00402e-05
0.000970728
0.000970728
2.80853e-05
2.80853e-05
0.000252058
0.000252058
0.00074938
0.00074938
-0.000589822
-0.000589822
-0.000394244
-0.000394244
-0.00256323
-0.00256323
0.000768051
0.000768051
-0.000207209
-0.000207209
-0.000214534
-0.000214534
-0.00023517
-0.00023517
-0.000188835
-0.000188835
-0.00032078
-0.00032078
0.000465028
0.000465028
0.00150918
0.00150918
-9.45514e-05
-9.45514e-05
-4.37677e-05
-4.37677e-05
-0.000272049
-0.000272049
-0.00122037
-0.00122037
0.00012833
0.00012833
0.000523075
0.000523075
0.000119474
0.000119474
-0.00025779
-0.00025779
6.38713e-05
6.38713e-05
-0.000543396
-0.000543396
-0.000227289
-0.000227289
-0.000494209
-0.000494209
0.000846887
0.000846887
-0.00109187
-0.00109187
0.000692517
0.000692517
-0.000128619
-0.000128619
0.000176
0.000176
-0.000478311
-0.000478311
0.00173238
0.00173238
0.00042368
0.00042368
0.00053288
0.00053288
0.000241292
0.000241292
9.19352e-05
9.19352e-05
-5.31835e-05
-5.31835e-05
5.0922e-05
5.0922e-05
0.000330411
0.000330411
0.00139065
0.00139065
-0.000195548
-0.000195548
-1.78301e-05
-1.78301e-05
-0.000427857
-0.000427857
8.92972e-05
8.92972e-05
-9.03284e-05
-9.03284e-05
-0.000106958
-0.000106958
0.000108832
0.000108832
7.65364e-05
7.65364e-05
0.000850895
0.000850895
-4.00812e-05
-4.00812e-05
4.2261e-05
4.2261e-05
-0.000277572
-0.000277572
0.000105566
0.000105566
0.000479502
0.000479502
-0.000106441
-0.000106441
0.000103042
0.000103042
0.000294624
0.000294624
-0.00114603
-0.00114603
0.00228671
0.00228671
-0.000134081
-0.000134081
-0.000254154
-0.000254154
0.000375469
0.000375469
0.000978813
0.000978813
0.000169486
0.000169486
0.000145365
0.000145365
-0.00021633
-0.00021633
2.5701e-05
2.5701e-05
-0.00097564
-0.00097564
0.000197401
0.000197401
0.000267415
0.000267415
0.000104277
0.000104277
-6.34867e-05
-6.34867e-05
0.00216741
0.00216741
0.000146896
0.000146896
0.000949042
0.000949042
-0.000227121
-0.000227121
0.00157985
0.00157985
0.00033375
0.00033375
-0.000302421
-0.000302421
-0.000614174
-0.000614174
-0.000346235
-0.000346235
0.000284121
0.000284121
-0.00130318
-0.00130318
-0.00039225
-0.00039225
-0.000289879
-0.000289879
8.2512e-07
8.2512e-07
0.000316156
0.000316156
-0.000143509
-0.000143509
0.000233149
0.000233149
0.00174031
0.00174031
-0.000151924
-0.000151924
0.00148264
0.00148264
-0.000439901
-0.000439901
-0.000144062
-0.000144062
0.000392016
0.000392016
-0.000328717
-0.000328717
-0.000607775
-0.000607775
0.000767333
0.000767333
-0.000252134
-0.000252134
6.7346e-07
6.7346e-07
9.92152e-05
9.92152e-05
-9.26199e-05
-9.26199e-05
-0.00156037
-0.00156037
0.000295776
0.000295776
-8.25087e-05
-8.25087e-05
-0.000176436
-0.000176436
0.00117646
0.00117646
0.00109009
0.00109009
0.00073071
0.00073071
-2.91511e-05
-2.91511e-05
0.000157781
0.000157781
0.000124664
0.000124664
0.000113466
0.000113466
4.27235e-05
4.27235e-05
0.000337008
0.000337008
-0.000179064
-0.000179064
0.00036079
0.00036079
-0.00026627
-0.00026627
8.04632e-05
8.04632e-05
-7.8857e-05
-7.8857e-05
5.61741e-05
5.61741e-05
0.000306141
0.000306141
-0.000852519
-0.000852519
-5.24518e-05
-5.24518e-05
-4.39636e-07
-4.39636e-07
0.000160505
0.000160505
0.00192046
0.00192046
0.000255524
0.000255524
0.000432269
0.000432269
-0.000159789
-0.000159789
1.73595e-05
1.73595e-05
0.00101401
0.00101401
-0.0008942
-0.0008942
-0.000284821
-0.000284821
-0.000559382
-0.000559382
0.000129317
0.000129317
-0.000164775
-0.000164775
0.000108445
0.000108445
-0.000487517
-0.000487517
-7.69879e-05
-7.69879e-05
-7.70593e-05
-7.70593e-05
-0.000107451
-0.000107451
-0.000402885
-0.000402885
0.000487727
0.000487727
0.000176569
0.000176569
-0.000653477
-0.000653477
0.000159687
0.000159687
0.000436284
0.000436284
0.000148332
0.000148332
-0.000325095
-0.000325095
-0.000310566
-0.000310566
-8.29605e-05
-8.29605e-05
6.99626e-05
6.99626e-05
0.000194954
0.000194954
-0.00187179
-0.00187179
0.000627009
0.000627009
0.000114823
0.000114823
0.000138832
0.000138832
2.66608e-05
2.66608e-05
-0.000137188
-0.000137188
0.000257614
0.000257614
0.000281341
0.000281341
-7.43097e-05
-7.43097e-05
0.00010417
0.00010417
-8.58057e-05
-8.58057e-05
-0.00131834
-0.00131834
-0.000836436
-0.000836436
-0.000149119
-0.000149119
-5.95828e-06
-5.95828e-06
2.7925e-05
2.7925e-05
0.000253356
0.000253356
0.00301889
0.00301889
0.000439995
0.000439995
0.000104204
0.000104204
0.000430956
0.000430956
-0.00041032
-0.00041032
0.000186986
0.000186986
-0.000460117
-0.000460117
0.000432213
0.000432213
0.00018691
0.00018691
4.79673e-05
4.79673e-05
-0.000367881
-0.000367881
0.000220287
0.000220287
-0.000642132
-0.000642132
0.000137189
0.000137189
0.000298968
0.000298968
6.76528e-05
6.76528e-05
0.000902154
0.000902154
0.00208119
0.00208119
-0.000692027
-0.000692027
0.000381513
0.000381513
-0.000145614
-0.000145614
-5.18688e-05
-5.18688e-05
0.00140508
0.00140508
0.00244139
0.00244139
0.000209359
0.000209359
0.000158154
0.000158154
-9.2929e-05
-9.2929e-05
-1.48738e-06
-1.48738e-06
-0.00012676
-0.00012676
7.76461e-05
7.76461e-05
-0.000454286
-0.000454286
-0.0011734
-0.0011734
-0.000234473
-0.000234473
0.000662326
0.000662326
-4.48844e-05
-4.48844e-05
-0.000139732
-0.000139732
0.00211489
0.00211489
0.000135955
0.000135955
0.000135902
0.000135902
-0.000132319
-0.000132319
0.000301767
0.000301767
0.000864642
0.000864642
-0.000185119
-0.000185119
0.000248318
0.000248318
5.71305e-05
5.71305e-05
-0.000560965
-0.000560965
-2.2978e-05
-2.2978e-05
-3.53046e-05
-3.53046e-05
8.0334e-05
8.0334e-05
5.06918e-05
5.06918e-05
-0.000109737
-0.000109737
9.98314e-05
9.98314e-05
-0.000132014
-0.000132014
0.00253962
0.00253962
0.000316491
0.000316491
-1.63e-05
-1.63e-05
0.00328808
0.00328808
0.0015525
0.0015525
-0.000154441
-0.000154441
0.000327394
0.000327394
-0.000353771
-0.000353771
-0.00080447
-0.00080447
0.000121424
0.000121424
0.00139755
0.00139755
-0.00158711
-0.00158711
-3.50937e-05
-3.50937e-05
-6.44638e-05
-6.44638e-05
0.000140961
0.000140961
-9.00051e-05
-9.00051e-05
0.000397601
0.000397601
-0.000803166
-0.000803166
0.000374094
0.000374094
-0.000394638
-0.000394638
-5.28457e-05
-5.28457e-05
6.26012e-05
6.26012e-05
0.000114695
0.000114695
-6.764e-05
-6.764e-05
0.000245652
0.000245652
0.000464302
0.000464302
-0.000602161
-0.000602161
-0.000112315
-0.000112315
0.000161764
0.000161764
0.00035678
0.00035678
-9.99789e-05
-9.99789e-05
-0.00241303
-0.00241303
-0.000586455
-0.000586455
6.36894e-05
6.36894e-05
0.000510268
0.000510268
-0.000233482
-0.000233482
-1.35151e-05
-1.35151e-05
-8.74162e-06
-8.74162e-06
-7.43043e-05
-7.43043e-05
-0.000476238
-0.000476238
-0.00118229
-0.00118229
0.000383634
0.000383634
0.00028343
0.00028343
0.00010006
0.00010006
0.00109008
0.00109008
-6.47719e-05
-6.47719e-05
9.16782e-05
9.16782e-05
6.23274e-05
6.23274e-05
-7.92313e-05
-7.92313e-05
-0.00162729
-0.00162729
0.000405938
0.000405938
-0.000109376
-0.000109376
-0.00079008
-0.00079008
-3.51353e-05
-3.51353e-05
0.0015429
0.0015429
0.000798858
0.000798858
-5.56442e-05
-5.56442e-05
0.000240774
0.000240774
-0.000637457
-0.000637457
0.000136333
0.000136333
-0.00036359
-0.00036359
0.0026818
0.0026818
-0.00100283
-0.00100283
0.000108076
0.000108076
0.000457349
0.000457349
-0.000106094
-0.000106094
-1.11593e-05
-1.11593e-05
0.000108824
0.000108824
-7.51211e-05
-7.51211e-05
-0.000225644
-0.000225644
-0.000451434
-0.000451434
-4.41812e-05
-4.41812e-05
0.00144194
0.00144194
-0.000615289
-0.000615289
-0.000356525
-0.000356525
-0.000311886
-0.000311886
-0.000489482
-0.000489482
0.000148611
0.000148611
-0.000134886
-0.000134886
-0.000260653
-0.000260653
-7.18949e-05
-7.18949e-05
8.75946e-05
8.75946e-05
0.000112517
0.000112517
-8.68984e-05
-8.68984e-05
-0.000334575
-0.000334575
-0.000434477
-0.000434477
0.000336492
0.000336492
0.00033191
0.00033191
4.82244e-05
4.82244e-05
0.0012402
0.0012402
0.00155204
0.00155204
-0.000396427
-0.000396427
0.00256585
0.00256585
-0.00021358
-0.00021358
0.000864782
0.000864782
0.00014097
0.00014097
0.00013222
0.00013222
0.000141457
0.000141457
-0.00011589
-0.00011589
-0.000168662
-0.000168662
0.000132651
0.000132651
-5.76829e-05
-5.76829e-05
-0.00019974
-0.00019974
-4.99211e-05
-4.99211e-05
-4.54221e-05
-4.54221e-05
0.000422964
0.000422964
0.00101731
0.00101731
0.000208974
0.000208974
0.000112061
0.000112061
-5.78213e-05
-5.78213e-05
0.000208681
0.000208681
-0.000713992
-0.000713992
0.000728472
0.000728472
-0.00127445
-0.00127445
-0.000169478
-0.000169478
0.0007351
0.0007351
0.000285076
0.000285076
3.39021e-05
3.39021e-05
-0.0001298
-0.0001298
-0.00188493
-0.00188493
0.000696766
0.000696766
0.000134957
0.000134957
-0.00145538
-0.00145538
-0.000686859
-0.000686859
-0.00070412
-0.00070412
-0.000134028
-0.000134028
-4.19512e-05
-4.19512e-05
0.000125268
0.000125268
3.03737e-05
3.03737e-05
8.99848e-05
8.99848e-05
-0.000482161
-0.000482161
-0.00188217
-0.00188217
-0.000942366
-0.000942366
-0.000125109
-0.000125109
-0.000252515
-0.000252515
-0.000156093
-0.000156093
-9.9995e-05
-9.9995e-05
0.000312263
0.000312263
-0.000325438
-0.000325438
0.000825292
0.000825292
-0.00020404
-0.00020404
-0.00194429
-0.00194429
0.000326423
0.000326423
-0.000170521
-0.000170521
-3.59274e-05
-3.59274e-05
-0.00189227
-0.00189227
0.000136049
0.000136049
0.00126476
0.00126476
-1.38067e-05
-1.38067e-05
0.00049219
0.00049219
0.000148825
0.000148825
0.000250602
0.000250602
0.0017462
0.0017462
-0.00329578
-0.00329578
-0.000133144
-0.000133144
0.000175697
0.000175697
-0.000143594
-0.000143594
0.00135485
0.00135485
0.000523351
0.000523351
0.000281284
0.000281284
0.000138638
0.000138638
0.00102912
0.00102912
0.000282584
0.000282584
0.000157374
0.000157374
0.000113849
0.000113849
0.000250492
0.000250492
0.000175071
0.000175071
-7.99114e-05
-7.99114e-05
0.000976879
0.000976879
0.00087211
0.00087211
-0.000302968
-0.000302968
-6.41139e-05
-6.41139e-05
4.26616e-05
4.26616e-05
0.000500067
0.000500067
0.00256613
0.00256613
0.000174439
0.000174439
0.000149456
0.000149456
0.000769649
0.000769649
0.000811627
0.000811627
0.000390954
0.000390954
-0.000173914
-0.000173914
-0.000203949
-0.000203949
0.000158067
0.000158067
0.000235924
0.000235924
-0.000155062
-0.000155062
-8.99137e-05
-8.99137e-05
9.31383e-05
9.31383e-05
0.000635564
0.000635564
5.38105e-06
5.38105e-06
-0.00121202
-0.00121202
3.77257e-05
3.77257e-05
0.000499274
0.000499274
-0.000802011
-0.000802011
0.000231272
0.000231272
0.000900461
0.000900461
0.000126697
0.000126697
-2.17092e-05
-2.17092e-05
7.5664e-05
7.5664e-05
0.00183757
0.00183757
0.002322
0.002322
-0.000915957
-0.000915957
-0.000248079
-0.000248079
0.00011779
0.00011779
-2.21105e-05
-2.21105e-05
-0.000113792
-0.000113792
-0.000192837
-0.000192837
-0.00052169
-0.00052169
-0.00265293
-0.00265293
0.000121088
0.000121088
0.000232975
0.000232975
0.00227927
0.00227927
0.00299533
0.00299533
0.000473249
0.000473249
-0.00045629
-0.00045629
-0.00202058
-0.00202058
0.000295834
0.000295834
0.000180401
0.000180401
-0.000184024
-0.000184024
-2.97734e-05
-2.97734e-05
-0.000200264
-0.000200264
0.00021875
0.00021875
2.82794e-05
2.82794e-05
-0.00100451
-0.00100451
0.00172073
0.00172073
-0.000190498
-0.000190498
-0.00014177
-0.00014177
0.000293504
0.000293504
0.000159467
0.000159467
-9.11936e-05
-9.11936e-05
-0.000954172
-0.000954172
-0.000253798
-0.000253798
4.19798e-05
4.19798e-05
-0.00168434
-0.00168434
0.000144797
0.000144797
-0.000406322
-0.000406322
-0.00117227
-0.00117227
1.02129e-05
1.02129e-05
0.00015956
0.00015956
-2.37297e-06
-2.37297e-06
0.000231861
0.000231861
-0.000356467
-0.000356467
0.000122117
0.000122117
0.0025812
0.0025812
-0.000158693
-0.000158693
0.00150469
0.00150469
0.00078796
0.00078796
9.17944e-05
9.17944e-05
-0.000227791
-0.000227791
0.000331957
0.000331957
0.000121262
0.000121262
0.00270897
0.00270897
0.000814678
0.000814678
0.000162417
0.000162417
-0.00015666
-0.00015666
-0.000339785
-0.000339785
-0.00227637
-0.00227637
1.8423e-06
1.8423e-06
-0.00010091
-0.00010091
0.000389923
0.000389923
-0.000994206
-0.000994206
0.000838154
0.000838154
-0.000590756
-0.000590756
-0.000598173
-0.000598173
-0.000412055
-0.000412055
-6.65413e-05
-6.65413e-05
0.000496487
0.000496487
-3.11639e-05
-3.11639e-05
1.853e-05
1.853e-05
0.00021983
0.00021983
-0.000228312
-0.000228312
1.12472e-05
1.12472e-05
-1.91749e-05
-1.91749e-05
0.000442406
0.000442406
-0.000679456
-0.000679456
0.000534159
0.000534159
0.00234044
0.00234044
-2.77573e-05
-2.77573e-05
0.000620711
0.000620711
0.00211958
0.00211958
0.000818375
0.000818375
0.00113224
0.00113224
4.05795e-05
4.05795e-05
1.92982e-05
1.92982e-05
-0.000533841
-0.000533841
-0.00277456
-0.00277456
-9.90078e-05
-9.90078e-05
-0.000863982
-0.000863982
0.00024209
0.00024209
0.00148708
0.00148708
5.64391e-05
5.64391e-05
0.000207209
0.000207209
-0.00236962
-0.00236962
0.000297026
0.000297026
0.000102083
0.000102083
0.000541636
0.000541636
-0.000158389
-0.000158389
-0.00180725
-0.00180725
0.000151786
0.000151786
-0.00145726
-0.00145726
-5.2555e-05
-5.2555e-05
0.00022388
0.00022388
0.000144409
0.000144409
0.000285925
0.000285925
0.000178377
0.000178377
0.000320561
0.000320561
-0.000237741
-0.000237741
0.000342988
0.000342988
-0.000145035
-0.000145035
-0.000136427
-0.000136427
0.00194865
0.00194865
0.000130739
0.000130739
0.00122947
0.00122947
1.1624e-05
1.1624e-05
6.46042e-05
6.46042e-05
-0.000108604
-0.000108604
-0.000538004
-0.000538004
0.000275695
0.000275695
-0.000662135
-0.000662135
-0.00184564
-0.00184564
0.000374757
0.000374757
0.000878517
0.000878517
0.0008949
0.0008949
0.00022446
0.00022446
0.000832603
0.000832603
-0.000596948
-0.000596948
4.71113e-05
4.71113e-05
0.000255522
0.000255522
-0.000745361
-0.000745361
0.000182394
0.000182394
8.00774e-05
8.00774e-05
-0.00117041
-0.00117041
-7.36165e-05
-7.36165e-05
0.000368629
0.000368629
-0.00185439
-0.00185439
-0.00202281
-0.00202281
0.000166916
0.000166916
0.000769147
0.000769147
-0.000178583
-0.000178583
7.39334e-05
7.39334e-05
-0.000760008
-0.000760008
-0.000114924
-0.000114924
-0.0013442
-0.0013442
0.000127167
0.000127167
-0.000329223
-0.000329223
0.000176017
0.000176017
0.000294732
0.000294732
0.000125569
0.000125569
4.48971e-05
4.48971e-05
0.000505783
0.000505783
0.000280203
0.000280203
-0.00325092
-0.00325092
0.000455602
0.000455602
0.00119736
0.00119736
0.00104578
0.00104578
-9.44729e-05
-9.44729e-05
-6.71163e-06
-6.71163e-06
-0.00108096
-0.00108096
-0.000744107
-0.000744107
-0.000276316
-0.000276316
-0.000792497
-0.000792497
-0.00123645
-0.00123645
0.000238085
0.000238085
-2.6384e-05
-2.6384e-05
-5.39794e-05
-5.39794e-05
0.000153808
0.000153808
-0.000204897
-0.000204897
-1.58571e-05
-1.58571e-05
2.93983e-05
2.93983e-05
-7.36881e-05
-7.36881e-05
0.000154845
0.000154845
0.00107276
0.00107276
0.00099425
0.00099425
8.00538e-05
8.00538e-05
-0.000370064
-0.000370064
-0.000806958
-0.000806958
-0.000278182
-0.000278182
-0.000125467
-0.000125467
1.23105e-05
1.23105e-05
-0.00072552
-0.00072552
-0.000129508
-0.000129508
0.000179822
0.000179822
-0.00047933
-0.00047933
0.000253549
0.000253549
-0.00117047
-0.00117047
-0.000225821
-0.000225821
-0.000727172
-0.000727172
0.000338515
0.000338515
-0.000165646
-0.000165646
2.27156e-05
2.27156e-05
-0.000518425
-0.000518425
-0.000163963
-0.000163963
-0.000136413
-0.000136413
-0.000264786
-0.000264786
0.00191456
0.00191456
0.00012618
0.00012618
0.000350361
0.000350361
-0.00108262
-0.00108262
-0.000197836
-0.000197836
0.000116016
0.000116016
-8.95518e-05
-8.95518e-05
-0.000182268
-0.000182268
-0.000343777
-0.000343777
0.00127143
0.00127143
-1.69971e-05
-1.69971e-05
-0.000103894
-0.000103894
0.000143688
0.000143688
-6.47123e-05
-6.47123e-05
-1.38786e-05
-1.38786e-05
0.000123386
0.000123386
-0.000550618
-0.000550618
0.00043536
0.00043536
-0.000116498
-0.000116498
0.000211626
0.000211626
0.000419501
0.000419501
7.33288e-05
7.33288e-05
0.00115403
0.00115403
-0.000108928
-0.000108928
0.00340515
0.00340515
-0.00027648
-0.00027648
0.000777154
0.000777154
7.41203e-05
7.41203e-05
0.00153036
0.00153036
-0.000289701
-0.000289701
0.00010126
0.00010126
0.000771757
0.000771757
-3.01078e-05
-3.01078e-05
-0.000318443
-0.000318443
-0.000363441
-0.000363441
6.74718e-05
6.74718e-05
-0.000375397
-0.000375397
3.16511e-05
3.16511e-05
7.15269e-05
7.15269e-05
-0.00155559
-0.00155559
-0.000248215
-0.000248215
0.000939084
0.000939084
7.1008e-05
7.1008e-05
0.000195116
0.000195116
-6.39554e-05
-6.39554e-05
0.000347273
0.000347273
-0.000646408
-0.000646408
0.000299226
0.000299226
0.00106229
0.00106229
0.000611423
0.000611423
-0.000935811
-0.000935811
-0.00233053
-0.00233053
6.58634e-05
6.58634e-05
0.000195853
0.000195853
-0.000363294
-0.000363294
-0.000279136
-0.000279136
-0.000486324
-0.000486324
0.000204944
0.000204944
0.000750048
0.000750048
-0.00019568
-0.00019568
4.7935e-05
4.7935e-05
-0.00328161
-0.00328161
0.00124021
0.00124021
1.67882e-05
1.67882e-05
0.00113338
0.00113338
-0.000172431
-0.000172431
0.000114751
0.000114751
0.000136985
0.000136985
-0.000137101
-0.000137101
-0.000446223
-0.000446223
0.000666427
0.000666427
-5.13373e-05
-5.13373e-05
0.000213497
0.000213497
-0.000297659
-0.000297659
0.000440886
0.000440886
-0.000114562
-0.000114562
0.000206449
0.000206449
5.14547e-05
5.14547e-05
-0.000236257
-0.000236257
-0.000149606
-0.000149606
-0.000700118
-0.000700118
0.000150531
0.000150531
0.000361026
0.000361026
6.2241e-05
6.2241e-05
0.000565541
0.000565541
0.00011997
0.00011997
-0.000280114
-0.000280114
-4.01661e-05
-4.01661e-05
0.000169653
0.000169653
-0.0026588
-0.0026588
8.58205e-05
8.58205e-05
9.59279e-05
9.59279e-05
-5.08278e-05
-5.08278e-05
-0.000125017
-0.000125017
-0.00258093
-0.00258093
9.548e-05
9.548e-05
0.000162922
0.000162922
0.00110364
0.00110364
-0.00286016
-0.00286016
7.37445e-05
7.37445e-05
-0.000617301
-0.000617301
0.000501979
0.000501979
5.21821e-05
5.21821e-05
0.000147219
0.000147219
-0.00186908
-0.00186908
0.00270345
0.00270345
-0.000776699
-0.000776699
-9.34143e-05
-9.34143e-05
-0.000147034
-0.000147034
0.000290699
0.000290699
-0.00115245
-0.00115245
1.06812e-05
1.06812e-05
-0.000905211
-0.000905211
0.000151166
0.000151166
-0.00130514
-0.00130514
0.000795102
0.000795102
-0.000163322
-0.000163322
0.000462288
0.000462288
-0.000356858
-0.000356858
-0.001302
-0.001302
-1.25796e-05
-1.25796e-05
0.000237361
0.000237361
5.41037e-06
5.41037e-06
-8.32197e-06
-8.32197e-06
7.55395e-05
7.55395e-05
6.16134e-05
6.16134e-05
-0.000109885
-0.000109885
-0.000108406
-0.000108406
0.000834396
0.000834396
-0.000156384
-0.000156384
-0.00011383
-0.00011383
-0.00222297
-0.00222297
-0.00161878
-0.00161878
0.0016031
0.0016031
0.00147708
0.00147708
-0.000727723
-0.000727723
-0.000311993
-0.000311993
-0.00348359
-0.00348359
0.000805217
0.000805217
0.000567877
0.000567877
-1.89782e-05
-1.89782e-05
0.000140954
0.000140954
6.6111e-06
6.6111e-06
-9.56871e-05
-9.56871e-05
-0.000583254
-0.000583254
0.000605976
0.000605976
-8.86005e-05
-8.86005e-05
-0.00142259
-0.00142259
0.00091758
0.00091758
-0.00101083
-0.00101083
0.000433746
0.000433746
0.00016881
0.00016881
0.00123014
0.00123014
0.000266458
0.000266458
7.01796e-05
7.01796e-05
-0.000460328
-0.000460328
4.65152e-05
4.65152e-05
6.00418e-05
6.00418e-05
0.000888955
0.000888955
8.04506e-05
8.04506e-05
4.42878e-07
4.42878e-07
-0.000147895
-0.000147895
-0.000120968
-0.000120968
-0.000316979
-0.000316979
-0.000127212
-0.000127212
0.000189221
0.000189221
-9.21437e-05
-9.21437e-05
-0.0010162
-0.0010162
0.00114018
0.00114018
-0.000247634
-0.000247634
4.25786e-05
4.25786e-05
0.00134924
0.00134924
0.000178935
0.000178935
-0.000129401
-0.000129401
0.000175591
0.000175591
-0.00102952
-0.00102952
0.000334314
0.000334314
-0.000257823
-0.000257823
0.000229736
0.000229736
0.00136996
0.00136996
0.000261
0.000261
-0.00138023
-0.00138023
-0.00116967
-0.00116967
-0.00130682
-0.00130682
-0.000849412
-0.000849412
4.48543e-05
4.48543e-05
-0.000194625
-0.000194625
0.000343277
0.000343277
-0.000289219
-0.000289219
-0.000382501
-0.000382501
0.000212827
0.000212827
-0.000157199
-0.000157199
0.000240662
0.000240662
0.000391803
0.000391803
0.000489976
0.000489976
0.000684233
0.000684233
-0.000656572
-0.000656572
0.00099021
0.00099021
0.000247691
0.000247691
2.07446e-05
2.07446e-05
-0.00214249
-0.00214249
-0.000204074
-0.000204074
-0.00344414
-0.00344414
0.00015149
0.00015149
0.000159586
0.000159586
0.000547922
0.000547922
0.00167052
0.00167052
-0.00265866
-0.00265866
-1.31501e-05
-1.31501e-05
-0.000560551
-0.000560551
-0.000151985
-0.000151985
-0.00217717
-0.00217717
0.000157998
0.000157998
0.000604597
0.000604597
0.000456706
0.000456706
0.000702141
0.000702141
-0.000676247
-0.000676247
-0.00100754
-0.00100754
2.78109e-05
2.78109e-05
0.000721781
0.000721781
-0.000138599
-0.000138599
-0.000119944
-0.000119944
0.00141225
0.00141225
-0.000558992
-0.000558992
0.0027778
0.0027778
0.000199236
0.000199236
0.00340928
0.00340928
-0.0020819
-0.0020819
0.000627312
0.000627312
0.00229155
0.00229155
-0.00033571
-0.00033571
-5.91404e-05
-5.91404e-05
-0.000106304
-0.000106304
-0.000106344
-0.000106344
-0.00133387
-0.00133387
-0.00218282
-0.00218282
0.00130345
0.00130345
0.00068322
0.00068322
0.00170577
0.00170577
-0.000134192
-0.000134192
0.000914329
0.000914329
-9.44407e-05
-9.44407e-05
-0.00109845
-0.00109845
0.000638298
0.000638298
0.000960959
0.000960959
-0.000623024
-0.000623024
0.000193168
0.000193168
0.000118495
0.000118495
-0.000162855
-0.000162855
0.000391496
0.000391496
-0.00162695
-0.00162695
2.39489e-05
2.39489e-05
-6.05637e-05
-6.05637e-05
0.00043569
0.00043569
8.14728e-05
8.14728e-05
-0.000282538
-0.000282538
-3.71309e-05
-3.71309e-05
0.000616199
0.000616199
-0.000215227
-0.000215227
0.000196961
0.000196961
0.000107712
0.000107712
-0.000694789
-0.000694789
-6.91168e-05
-6.91168e-05
-0.000285907
-0.000285907
-0.00175616
-0.00175616
-0.000107455
-0.000107455
0.000227191
0.000227191
0.000132529
0.000132529
0.00014653
0.00014653
0.000563771
0.000563771
-0.00133729
-0.00133729
-0.00184119
-0.00184119
-0.000146946
-0.000146946
0.000165659
0.000165659
-0.000344516
-0.000344516
-0.000158598
-0.000158598
-0.00121473
-0.00121473
-4.31053e-05
-4.31053e-05
8.54079e-05
8.54079e-05
3.97053e-05
3.97053e-05
-0.00188557
-0.00188557
-5.38261e-05
-5.38261e-05
-0.00188443
-0.00188443
-0.000244584
-0.000244584
0.000151488
0.000151488
0.000335636
0.000335636
9.37423e-06
9.37423e-06
0.000131434
0.000131434
0.000306007
0.000306007
0.000159582
0.000159582
0.00122269
0.00122269
0.000547284
0.000547284
8.06239e-05
8.06239e-05
-8.90065e-05
-8.90065e-05
-0.00196232
-0.00196232
-8.72453e-05
-8.72453e-05
6.35907e-05
6.35907e-05
0.00213749
0.00213749
0.000992509
0.000992509
-0.00059816
-0.00059816
-3.20658e-05
-3.20658e-05
-5.835e-05
-5.835e-05
0.00145703
0.00145703
0.00183321
0.00183321
2.15647e-05
2.15647e-05
0.00178841
0.00178841
0.000218687
0.000218687
0.00281706
0.00281706
0.000109245
0.000109245
-0.00121669
-0.00121669
-4.36584e-06
-4.36584e-06
-0.000157056
-0.000157056
-0.000638202
-0.000638202
-0.000119412
-0.000119412
0.00123762
0.00123762
-0.000793125
-0.000793125
0.000250472
0.000250472
0.000696731
0.000696731
-6.80033e-05
-6.80033e-05
-3.61159e-05
-3.61159e-05
-0.000257454
-0.000257454
-5.59279e-05
-5.59279e-05
-0.000590133
-0.000590133
7.33377e-05
7.33377e-05
0.000109837
0.000109837
-0.00128059
-0.00128059
-0.000277021
-0.000277021
0.00097562
0.00097562
-0.000172345
-0.000172345
-0.000206172
-0.000206172
0.000190884
0.000190884
-0.00128747
-0.00128747
0.00302654
0.00302654
0.00189657
0.00189657
0.000687849
0.000687849
9.74695e-05
9.74695e-05
-0.000905981
-0.000905981
0.000106757
0.000106757
0.00216577
0.00216577
-7.07589e-05
-7.07589e-05
3.48842e-05
3.48842e-05
0.000430388
0.000430388
0.000109131
0.000109131
-0.000317949
-0.000317949
0.0027106
0.0027106
0.000896927
0.000896927
-0.000147022
-0.000147022
0.000335065
0.000335065
0.000345883
0.000345883
-0.000100065
-0.000100065
0.000144514
0.000144514
-0.00023943
-0.00023943
-0.000130706
-0.000130706
-0.000141764
-0.000141764
-5.50909e-05
-5.50909e-05
1.31774e-06
1.31774e-06
-0.000242326
-0.000242326
0.000457484
0.000457484
-0.000774894
-0.000774894
9.14852e-05
9.14852e-05
0.000873216
0.000873216
0.00145795
0.00145795
0.000129189
0.000129189
0.000203979
0.000203979
3.7926e-05
3.7926e-05
-0.000125223
-0.000125223
-0.000763856
-0.000763856
0.000205799
0.000205799
0.000283758
0.000283758
-1.64448e-05
-1.64448e-05
-0.000882505
-0.000882505
-3.27405e-05
-3.27405e-05
-0.000102228
-0.000102228
0.000239682
0.000239682
-0.000380774
-0.000380774
0.000140623
0.000140623
0.000747525
0.000747525
0.0020757
0.0020757
-0.000203057
-0.000203057
0.000385427
0.000385427
-0.00245487
-0.00245487
0.000996408
0.000996408
0.000184293
0.000184293
0.000507924
0.000507924
-0.000569587
-0.000569587
-0.00178434
-0.00178434
0.000190087
0.000190087
-0.000185115
-0.000185115
4.94512e-05
4.94512e-05
0.000126981
0.000126981
-0.000524945
-0.000524945
-7.51879e-05
-7.51879e-05
0.000650619
0.000650619
-0.00056616
-0.00056616
-0.000135958
-0.000135958
0.000240411
0.000240411
-0.000255671
-0.000255671
-0.00153607
-0.00153607
0.000232056
0.000232056
-0.00112161
-0.00112161
-0.000930399
-0.000930399
0.000213227
0.000213227
8.71071e-05
8.71071e-05
-0.000158607
-0.000158607
-0.00080345
-0.00080345
-0.000232247
-0.000232247
0.000392708
0.000392708
4.68175e-05
4.68175e-05
-0.00076106
-0.00076106
-0.000650368
-0.000650368
0.00156555
0.00156555
-0.000981392
-0.000981392
0.000515212
0.000515212
0.000695674
0.000695674
0.0009758
0.0009758
-0.000590062
-0.000590062
-0.000240052
-0.000240052
-0.000354116
-0.000354116
-0.000446345
-0.000446345
-0.000575957
-0.000575957
-0.000228405
-0.000228405
-0.000114401
-0.000114401
0.000614959
0.000614959
4.5617e-05
4.5617e-05
-0.000573658
-0.000573658
0.000177525
0.000177525
-0.000195891
-0.000195891
0.00216181
0.00216181
0.00023546
0.00023546
1.18719e-05
1.18719e-05
-0.00183825
-0.00183825
-0.000110983
-0.000110983
0.000123909
0.000123909
0.000117428
0.000117428
-0.0005965
-0.0005965
0.000228527
0.000228527
-0.000649144
-0.000649144
-9.01727e-06
-9.01727e-06
-0.000924442
-0.000924442
0.000138019
0.000138019
-0.00013002
-0.00013002
0.00102541
0.00102541
0.00171121
0.00171121
6.76648e-05
6.76648e-05
-0.000165481
-0.000165481
0.000355892
0.000355892
5.51521e-05
5.51521e-05
0.000427405
0.000427405
-0.000292196
-0.000292196
-0.00151561
-0.00151561
0.000969258
0.000969258
0.00113224
0.00113224
-8.72117e-06
-8.72117e-06
-0.000110659
-0.000110659
0.00141591
0.00141591
-0.00064862
-0.00064862
-0.000105471
-0.000105471
0.00140873
0.00140873
0.000206667
0.000206667
0.000887469
0.000887469
0.000257224
0.000257224
0.000978435
0.000978435
0.000620065
0.000620065
-5.0838e-05
-5.0838e-05
-0.000218745
-0.000218745
8.39161e-05
8.39161e-05
0.000143162
0.000143162
-0.00146231
-0.00146231
0.00186632
0.00186632
0.000174172
0.000174172
-0.00054353
-0.00054353
0.00101507
0.00101507
0.000582188
0.000582188
0.000487013
0.000487013
0.00171376
0.00171376
0.00319786
0.00319786
0.000199618
0.000199618
8.6514e-05
8.6514e-05
-0.00191045
-0.00191045
-0.0018428
-0.0018428
2.23874e-05
2.23874e-05
-0.000245959
-0.000245959
0.000509199
0.000509199
8.44315e-05
8.44315e-05
0.000245206
0.000245206
8.82689e-05
8.82689e-05
0.00109424
0.00109424
-0.000116632
-0.000116632
5.93493e-05
5.93493e-05
0.00131774
0.00131774
0.000415679
0.000415679
0.000653053
0.000653053
0.000205659
0.000205659
-0.00166031
-0.00166031
9.1521e-05
9.1521e-05
-0.000877506
-0.000877506
-3.67134e-05
-3.67134e-05
-0.000212116
-0.000212116
0.00100298
0.00100298
-0.00100663
-0.00100663
-0.000317413
-0.000317413
-0.000182573
-0.000182573
0.000783611
0.000783611
8.42874e-05
8.42874e-05
-0.00119669
-0.00119669
-0.00168775
-0.00168775
-0.000489756
-0.000489756
4.56637e-05
4.56637e-05
0.000189917
0.000189917
-0.000160323
-0.000160323
0.000174013
0.000174013
0.000279421
0.000279421
0.000878989
0.000878989
-0.00067506
-0.00067506
0.00036057
0.00036057
-0.000905603
-0.000905603
0.000271344
0.000271344
-0.000153817
-0.000153817
0.000638069
0.000638069
-0.000168438
-0.000168438
0.000791893
0.000791893
0.000347322
0.000347322
0.000471731
0.000471731
9.73482e-05
9.73482e-05
0.000281678
0.000281678
5.37563e-05
5.37563e-05
0.000359362
0.000359362
-0.000772416
-0.000772416
-0.00038465
-0.00038465
-0.000116502
-0.000116502
1.78501e-05
1.78501e-05
0.00129732
0.00129732
-0.000676172
-0.000676172
0.000414565
0.000414565
-1.61581e-05
-1.61581e-05
3.24817e-05
3.24817e-05
0.000186417
0.000186417
0.00120391
0.00120391
0.000677216
0.000677216
0.000874103
0.000874103
0.00118287
0.00118287
-0.000105464
-0.000105464
-0.000189233
-0.000189233
-0.000191973
-0.000191973
0.00224548
0.00224548
2.83026e-05
2.83026e-05
-0.000169872
-0.000169872
-0.000756915
-0.000756915
-0.000258715
-0.000258715
0.00220694
0.00220694
-0.00219118
-0.00219118
-0.000201052
-0.000201052
-0.00107427
-0.00107427
1.15572e-05
1.15572e-05
-0.00183586
-0.00183586
-1.25663e-07
-1.25663e-07
-0.000123916
-0.000123916
0.00247121
0.00247121
-0.000218038
-0.000218038
0.000192943
0.000192943
2.24891e-05
2.24891e-05
-0.00033613
-0.00033613
-7.56747e-05
-7.56747e-05
-0.000472827
-0.000472827
-9.52786e-05
-9.52786e-05
7.48675e-05
7.48675e-05
0.000203982
0.000203982
-0.000198877
-0.000198877
-0.000136894
-0.000136894
-0.000906249
-0.000906249
0.000185961
0.000185961
0.00218872
0.00218872
-0.000380954
-0.000380954
0.00126707
0.00126707
-0.00107286
-0.00107286
0.000206056
0.000206056
0.000379821
0.000379821
0.000743285
0.000743285
4.81381e-05
4.81381e-05
-7.45585e-05
-7.45585e-05
0.000485572
0.000485572
1.98804e-05
1.98804e-05
-0.000142994
-0.000142994
-1.44919e-05
-1.44919e-05
-0.00258797
-0.00258797
0.000321612
0.000321612
0.00032581
0.00032581
-0.000363114
-0.000363114
-0.00307346
-0.00307346
0.000268519
0.000268519
0.000285463
0.000285463
-0.00105791
-0.00105791
-0.0013002
-0.0013002
-0.000773379
-0.000773379
0.00170354
0.00170354
-0.000350704
-0.000350704
-1.74043e-05
-1.74043e-05
0.000140759
0.000140759
0.000153307
0.000153307
-0.000377422
-0.000377422
-0.000541077
-0.000541077
4.69678e-05
4.69678e-05
0.00016506
0.00016506
0.000191733
0.000191733
0.000381844
0.000381844
-0.000616806
-0.000616806
0.000178176
0.000178176
-8.94698e-06
-8.94698e-06
-0.000413726
-0.000413726
-0.000311934
-0.000311934
0.00113564
0.00113564
-7.9882e-05
-7.9882e-05
-0.00127839
-0.00127839
-0.000263547
-0.000263547
8.4537e-05
8.4537e-05
-0.00264088
-0.00264088
0.000287011
0.000287011
2.73807e-05
2.73807e-05
-0.000409815
-0.000409815
-0.00322263
-0.00322263
-0.000148051
-0.000148051
0.000296047
0.000296047
-0.000446909
-0.000446909
-0.000185154
-0.000185154
-6.53181e-05
-6.53181e-05
-1.81073e-05
-1.81073e-05
-0.000556839
-0.000556839
-0.000205023
-0.000205023
0.0017069
0.0017069
0.00167991
0.00167991
0.000140982
0.000140982
-0.000775344
-0.000775344
-0.000144501
-0.000144501
2.87671e-05
2.87671e-05
0.00041855
0.00041855
-3.3303e-05
-3.3303e-05
-3.43351e-05
-3.43351e-05
0.000174343
0.000174343
2.56287e-05
2.56287e-05
-0.00118279
-0.00118279
0.000124336
0.000124336
-0.000195272
-0.000195272
3.80791e-05
3.80791e-05
-0.000476576
-0.000476576
-0.00223745
-0.00223745
0.000573322
0.000573322
-0.00116278
-0.00116278
-3.93545e-05
-3.93545e-05
0.000281667
0.000281667
0.000121272
0.000121272
-7.27631e-05
-7.27631e-05
0.000136677
0.000136677
0.00101888
0.00101888
7.37291e-05
7.37291e-05
0.000225696
0.000225696
0.000128508
0.000128508
-8.94453e-06
-8.94453e-06
0.000374458
0.000374458
-0.000545371
-0.000545371
0.000327703
0.000327703
0.000523009
0.000523009
0.00181883
0.00181883
-1.50103e-05
-1.50103e-05
-9.30915e-06
-9.30915e-06
0.000166786
0.000166786
-8.44307e-07
-8.44307e-07
2.31102e-05
2.31102e-05
0.00144132
0.00144132
0.00127689
0.00127689
0.000915097
0.000915097
0.000100627
0.000100627
-0.000937198
-0.000937198
0.00214395
0.00214395
-0.000361981
-0.000361981
-7.72685e-05
-7.72685e-05
-0.000261614
-0.000261614
0.000279621
0.000279621
0.000332181
0.000332181
0.00101973
0.00101973
0.000822608
0.000822608
0.000249225
0.000249225
-0.000515557
-0.000515557
-0.00367938
-0.00367938
0.000377753
0.000377753
2.91002e-05
2.91002e-05
-3.55265e-05
-3.55265e-05
-0.00024172
-0.00024172
3.36154e-05
3.36154e-05
-0.000956107
-0.000956107
-0.00169095
-0.00169095
0.000488403
0.000488403
-0.00102162
-0.00102162
-2.32295e-05
-2.32295e-05
8.85302e-05
8.85302e-05
-0.000326714
-0.000326714
-0.000122067
-0.000122067
-0.00185849
-0.00185849
-0.00193391
-0.00193391
0.000469977
0.000469977
0.000111439
0.000111439
0.00234903
0.00234903
1.07857e-06
1.07857e-06
0.00162646
0.00162646
0.000408399
0.000408399
0.00153404
0.00153404
-0.00108476
-0.00108476
0.00173565
0.00173565
0.000412297
0.000412297
-0.000225619
-0.000225619
-0.00131714
-0.00131714
0.00020662
0.00020662
7.24594e-05
7.24594e-05
-0.000403518
-0.000403518
-0.00197209
-0.00197209
-8.73757e-05
-8.73757e-05
0.00267136
0.00267136
-0.000156178
-0.000156178
8.49319e-05
8.49319e-05
0.000739367
0.000739367
0.000167865
0.000167865
-0.000239721
-0.000239721
-6.65518e-05
-6.65518e-05
0.000519273
0.000519273
0.000138567
0.000138567
-0.000715605
-0.000715605
-0.00126596
-0.00126596
-0.000181426
-0.000181426
-0.00132659
-0.00132659
-0.00110738
-0.00110738
1.15446e-05
1.15446e-05
-0.000172066
-0.000172066
0.000447082
0.000447082
0.0013081
0.0013081
7.8571e-07
7.8571e-07
0.000215923
0.000215923
-0.000254015
-0.000254015
-0.0001473
-0.0001473
0.000143638
0.000143638
-0.000339532
-0.000339532
0.000191083
0.000191083
0.000152734
0.000152734
-0.00110978
-0.00110978
0.000213303
0.000213303
-0.000162528
-0.000162528
-4.22413e-05
-4.22413e-05
0.000101939
0.000101939
0.000347174
0.000347174
-4.64244e-05
-4.64244e-05
0.000243972
0.000243972
0.000531408
0.000531408
-0.00136894
-0.00136894
-0.000236763
-0.000236763
-0.000183699
-0.000183699
-4.26933e-05
-4.26933e-05
-0.000126677
-0.000126677
6.93866e-05
6.93866e-05
0.000564633
0.000564633
0.000108636
0.000108636
5.24906e-05
5.24906e-05
0.00141804
0.00141804
-0.00121438
-0.00121438
7.03874e-05
7.03874e-05
-0.000252587
-0.000252587
0.00111838
0.00111838
-0.00102889
-0.00102889
0.000278025
0.000278025
0.00128032
0.00128032
-0.000298958
-0.000298958
0.000420358
0.000420358
0.000183114
0.000183114
0.000267435
0.000267435
0.00186684
0.00186684
-0.000588301
-0.000588301
0.000382054
0.000382054
-0.000236344
-0.000236344
0.000499026
0.000499026
0.00209878
0.00209878
0.000103722
0.000103722
0.000527757
0.000527757
0.000255083
0.000255083
-0.000483014
-0.000483014
-0.00013288
-0.00013288
2.3877e-05
2.3877e-05
-0.00168768
-0.00168768
-0.00310965
-0.00310965
0.000292233
0.000292233
-0.000320809
-0.000320809
-0.00119883
-0.00119883
0.000293097
0.000293097
0.000165181
0.000165181
-0.000461137
-0.000461137
-0.00019692
-0.00019692
-7.63472e-05
-7.63472e-05
0.000591489
0.000591489
0.000141241
0.000141241
0.000564946
0.000564946
0.00020194
0.00020194
0.00115419
0.00115419
0.000141969
0.000141969
-0.000142166
-0.000142166
0.00133439
0.00133439
5.78057e-05
5.78057e-05
-0.000865728
-0.000865728
0.000855224
0.000855224
-0.0002044
-0.0002044
-0.00367313
-0.00367313
0.000341959
0.000341959
0.000652167
0.000652167
-0.000240033
-0.000240033
0.000223306
0.000223306
0.000354619
0.000354619
-0.000475884
-0.000475884
-0.00162898
-0.00162898
-0.000180981
-0.000180981
0.000110885
0.000110885
-0.000410807
-0.000410807
0.00111588
0.00111588
0.000239048
0.000239048
0.000104004
0.000104004
0.000290879
0.000290879
6.15763e-05
6.15763e-05
-0.00200339
-0.00200339
4.49611e-05
4.49611e-05
-0.000614854
-0.000614854
0.000741606
0.000741606
0.000533694
0.000533694
-0.00224053
-0.00224053
6.63792e-05
6.63792e-05
7.17352e-05
7.17352e-05
6.4619e-05
6.4619e-05
0.00110758
0.00110758
0.000155066
0.000155066
1.21508e-06
1.21508e-06
-0.0001153
-0.0001153
-9.72913e-06
-9.72913e-06
-1.31003e-05
-1.31003e-05
0.000245259
0.000245259
-0.0020081
-0.0020081
0.00139041
0.00139041
9.05815e-05
9.05815e-05
-0.000847735
-0.000847735
0.00257844
0.00257844
-0.00197588
-0.00197588
-0.000113566
-0.000113566
-0.00169291
-0.00169291
-8.45854e-05
-8.45854e-05
-4.55287e-05
-4.55287e-05
-7.77092e-06
-7.77092e-06
0.00088594
0.00088594
-6.06464e-05
-6.06464e-05
0.000244944
0.000244944
-0.000893578
-0.000893578
0.000240112
0.000240112
-5.1146e-05
-5.1146e-05
-0.00101759
-0.00101759
0.00157792
0.00157792
-2.35561e-05
-2.35561e-05
-0.00239602
-0.00239602
-0.000126144
-0.000126144
-0.0001627
-0.0001627
-0.000716084
-0.000716084
-0.00129218
-0.00129218
-0.000365954
-0.000365954
6.12358e-05
6.12358e-05
-0.00141925
-0.00141925
-0.000145673
-0.000145673
6.64996e-05
6.64996e-05
0.000479265
0.000479265
-0.000789673
-0.000789673
0.00194551
0.00194551
0.000419142
0.000419142
-0.000334501
-0.000334501
0.000286724
0.000286724
-0.000105592
-0.000105592
0.00114263
0.00114263
-4.65159e-05
-4.65159e-05
0.000657867
0.000657867
0.000244049
0.000244049
-0.000608735
-0.000608735
0.000365473
0.000365473
0.000135357
0.000135357
0.00155221
0.00155221
-3.76347e-05
-3.76347e-05
-0.000448973
-0.000448973
0.00245564
0.00245564
6.94089e-05
6.94089e-05
-0.000976217
-0.000976217
-2.97668e-05
-2.97668e-05
9.00352e-05
9.00352e-05
-0.00189349
-0.00189349
0.000201833
0.000201833
0.000147268
0.000147268
-5.64883e-05
-5.64883e-05
-0.000695596
-0.000695596
-0.000176088
-0.000176088
0.00232382
0.00232382
-0.00279533
-0.00279533
9.72969e-05
9.72969e-05
4.28536e-05
4.28536e-05
0.0001239
0.0001239
-0.00113401
-0.00113401
-0.000131339
-0.000131339
-0.00080029
-0.00080029
-0.000144748
-0.000144748
-6.83161e-05
-6.83161e-05
0.000493348
0.000493348
-0.00243479
-0.00243479
7.14643e-05
7.14643e-05
0.000966974
0.000966974
0.00180886
0.00180886
0.00102099
0.00102099
-0.000140198
-0.000140198
2.6695e-05
2.6695e-05
-4.91529e-05
-4.91529e-05
-0.000296269
-0.000296269
0.000101535
0.000101535
0.0002241
0.0002241
0.000982674
0.000982674
8.38594e-05
8.38594e-05
4.40434e-05
4.40434e-05
-9.52854e-05
-9.52854e-05
-0.000142751
-0.000142751
-6.63749e-05
-6.63749e-05
-0.000117532
-0.000117532
9.97326e-05
9.97326e-05
0.000116757
0.000116757
-0.000372578
-0.000372578
-0.000990146
-0.000990146
-0.00201836
-0.00201836
0.000484213
0.000484213
-0.000265735
-0.000265735
-8.9823e-05
-8.9823e-05
-0.000266314
-0.000266314
0.000115713
0.000115713
-0.000570443
-0.000570443
1.54057e-06
1.54057e-06
0.000781798
0.000781798
-4.27608e-05
-4.27608e-05
-7.87956e-05
-7.87956e-05
-0.0001014
-0.0001014
0.000126792
0.000126792
0.000210618
0.000210618
0.000239292
0.000239292
-6.0523e-05
-6.0523e-05
-0.00132805
-0.00132805
0.000999157
0.000999157
-3.91307e-05
-3.91307e-05
0.000117095
0.000117095
9.74977e-05
9.74977e-05
0.000121463
0.000121463
-0.000511323
-0.000511323
0.000745078
0.000745078
0.00123807
0.00123807
-0.000797017
-0.000797017
0.00116306
0.00116306
0.00100489
0.00100489
-0.000757231
-0.000757231
0.000254421
0.000254421
-3.12886e-05
-3.12886e-05
-5.82482e-05
-5.82482e-05
0.00353397
0.00353397
1.91316e-05
1.91316e-05
0.000134011
0.000134011
-0.000315978
-0.000315978
-0.000187787
-0.000187787
-0.00044156
-0.00044156
-0.00106578
-0.00106578
0.00127901
0.00127901
0.000243132
0.000243132
-0.000480331
-0.000480331
0.000254936
0.000254936
0.000544287
0.000544287
0.000102473
0.000102473
4.04204e-05
4.04204e-05
-6.93252e-05
-6.93252e-05
-4.69661e-05
-4.69661e-05
0.000174024
0.000174024
-0.000458845
-0.000458845
-0.000129106
-0.000129106
0.000349694
0.000349694
0.00155291
0.00155291
0.00102641
0.00102641
-0.000251169
-0.000251169
8.10558e-05
8.10558e-05
-1.56566e-05
-1.56566e-05
-0.000162124
-0.000162124
0.000739262
0.000739262
2.10911e-05
2.10911e-05
8.85989e-05
8.85989e-05
-0.000472204
-0.000472204
0.000187327
0.000187327
-0.00157721
-0.00157721
-0.000887409
-0.000887409
-0.000151263
-0.000151263
-0.000397759
-0.000397759
0.000857308
0.000857308
-0.000506177
-0.000506177
-0.00227264
-0.00227264
2.75294e-05
2.75294e-05
0.000933061
0.000933061
6.01685e-05
6.01685e-05
0.000362021
0.000362021
0.000667985
0.000667985
0.000161239
0.000161239
6.00463e-05
6.00463e-05
-0.000466777
-0.000466777
-9.15524e-05
-9.15524e-05
-0.000328962
-0.000328962
-7.22016e-05
-7.22016e-05
-0.000163724
-0.000163724
1.02651e-05
1.02651e-05
6.44641e-06
6.44641e-06
0.000190795
0.000190795
-0.00107913
-0.00107913
6.10917e-05
6.10917e-05
-0.000544664
-0.000544664
-0.000115323
-0.000115323
0.000159064
0.000159064
0.0001808
0.0001808
0.000129638
0.000129638
-0.000147356
-0.000147356
0.000757572
0.000757572
-0.000147926
-0.000147926
-0.000507689
-0.000507689
0.000646241
0.000646241
0.000699365
0.000699365
0.000732195
0.000732195
-9.25567e-05
-9.25567e-05
4.97513e-05
4.97513e-05
0.000117556
0.000117556
0.000119487
0.000119487
0.000107778
0.000107778
0.000114888
0.000114888
-0.000175455
-0.000175455
-0.000159115
-0.000159115
3.63393e-05
3.63393e-05
-6.26848e-05
-6.26848e-05
-5.78217e-05
-5.78217e-05
0.000289411
0.000289411
-0.000144834
-0.000144834
-7.06648e-05
-7.06648e-05
-0.000364912
-0.000364912
-0.000105549
-0.000105549
0.000574225
0.000574225
-3.06352e-06
-3.06352e-06
-0.000459514
-0.000459514
-0.000792098
-0.000792098
4.48073e-05
4.48073e-05
-3.90592e-05
-3.90592e-05
-0.000126951
-0.000126951
3.26562e-05
3.26562e-05
-0.000127906
-0.000127906
0.000140733
0.000140733
-1.64648e-05
-1.64648e-05
2.40394e-05
2.40394e-05
-0.000502301
-0.000502301
0.000379198
0.000379198
2.06988e-05
2.06988e-05
-2.06822e-05
-2.06822e-05
0.00241897
0.00241897
0.00223351
0.00223351
-0.000237835
-0.000237835
0.00106708
0.00106708
-0.000359059
-0.000359059
-0.00144275
-0.00144275
0.00049211
0.00049211
-0.00016834
-0.00016834
0.000596709
0.000596709
0.000116805
0.000116805
5.71282e-05
5.71282e-05
7.02217e-05
7.02217e-05
0.000268978
0.000268978
6.13258e-05
6.13258e-05
-0.000354995
-0.000354995
-0.000573634
-0.000573634
-0.000309155
-0.000309155
-0.000882448
-0.000882448
0.00112248
0.00112248
-0.000259835
-0.000259835
0.000397196
0.000397196
-0.00138333
-0.00138333
2.66311e-05
2.66311e-05
0.000167887
0.000167887
0.00143199
0.00143199
0.000169419
0.000169419
-0.000269832
-0.000269832
2.24414e-05
2.24414e-05
-0.000816464
-0.000816464
-0.000163319
-0.000163319
0.000287531
0.000287531
0.000449896
0.000449896
0.000574682
0.000574682
0.00026921
0.00026921
-0.00134691
-0.00134691
0.000238947
0.000238947
-0.00152019
-0.00152019
-0.000270235
-0.000270235
0.000178402
0.000178402
-0.000367271
-0.000367271
0.000574381
0.000574381
0.000160679
0.000160679
-0.000487509
-0.000487509
-0.000181952
-0.000181952
-0.000213449
-0.000213449
-0.000467477
-0.000467477
-0.000175233
-0.000175233
-0.00116194
-0.00116194
0.000551565
0.000551565
-0.000800463
-0.000800463
0.000484506
0.000484506
7.53393e-06
7.53393e-06
-0.000120801
-0.000120801
-0.000117383
-0.000117383
-0.000142758
-0.000142758
-0.000125416
-0.000125416
0.00155027
0.00155027
0.000402999
0.000402999
-0.000113544
-0.000113544
0.000860972
0.000860972
0.00171743
0.00171743
8.03599e-05
8.03599e-05
-0.00107134
-0.00107134
-0.00291476
-0.00291476
0.000107215
0.000107215
-0.000201185
-0.000201185
-0.000902
-0.000902
0.000432643
0.000432643
2.01799e-05
2.01799e-05
8.97345e-05
8.97345e-05
0.000280803
0.000280803
0.00023204
0.00023204
0.000548296
0.000548296
-0.000492731
-0.000492731
0.000840055
0.000840055
0.000198095
0.000198095
0.000124425
0.000124425
-7.30734e-05
-7.30734e-05
0.00263054
0.00263054
-0.000439286
-0.000439286
0.000445597
0.000445597
-0.000138576
-0.000138576
5.26658e-05
5.26658e-05
1.24039e-05
1.24039e-05
0.00090446
0.00090446
-0.00024097
-0.00024097
0.000330918
0.000330918
-0.000112739
-0.000112739
1.51968e-05
1.51968e-05
-0.000295968
-0.000295968
0.000432608
0.000432608
-0.00081031
-0.00081031
-0.0014657
-0.0014657
-0.000621278
-0.000621278
0.00116322
0.00116322
-0.000223261
-0.000223261
-0.000255049
-0.000255049
4.52626e-05
4.52626e-05
-0.00131585
-0.00131585
-2.63381e-05
-2.63381e-05
9.81222e-05
9.81222e-05
0.000683515
0.000683515
0.000331403
0.000331403
-0.000175944
-0.000175944
-5.63627e-05
-5.63627e-05
4.84189e-05
4.84189e-05
1.74287e-05
1.74287e-05
0.00023512
0.00023512
-0.000311824
-0.000311824
9.33277e-05
9.33277e-05
0.000129772
0.000129772
-0.000199865
-0.000199865
-0.000242
-0.000242
0.000158259
0.000158259
0.000678382
0.000678382
0.000190612
0.000190612
3.98127e-06
3.98127e-06
-9.07252e-05
-9.07252e-05
-1.59631e-05
-1.59631e-05
-8.18568e-05
-8.18568e-05
-5.94298e-05
-5.94298e-05
-9.64441e-05
-9.64441e-05
-0.00122417
-0.00122417
0.000738129
0.000738129
-0.000216203
-0.000216203
-0.00152235
-0.00152235
-0.000525493
-0.000525493
0.000965974
0.000965974
0.000443433
0.000443433
0.00059089
0.00059089
0.00164305
0.00164305
0.000798725
0.000798725
-8.07916e-05
-8.07916e-05
-0.000223462
-0.000223462
-0.000282983
-0.000282983
-0.0017405
-0.0017405
-0.000495643
-0.000495643
2.33672e-05
2.33672e-05
-0.000735532
-0.000735532
1.93508e-05
1.93508e-05
-0.000126196
-0.000126196
-0.00149138
-0.00149138
0.00104324
0.00104324
0.000375693
0.000375693
0.000106727
0.000106727
-0.000424216
-0.000424216
-0.00124129
-0.00124129
-0.000283175
-0.000283175
-0.000352175
-0.000352175
-0.000745172
-0.000745172
1.86932e-05
1.86932e-05
-0.00024198
-0.00024198
0.000202328
0.000202328
0.000117401
0.000117401
8.53984e-05
8.53984e-05
-0.00040024
-0.00040024
0.000761019
0.000761019
-0.000205046
-0.000205046
-0.000358322
-0.000358322
0.00137698
0.00137698
0.000181326
0.000181326
0.00043901
0.00043901
-3.60598e-05
-3.60598e-05
0.000880765
0.000880765
0.000325767
0.000325767
7.42365e-05
7.42365e-05
0.00198026
0.00198026
0.00198427
0.00198427
0.000370027
0.000370027
0.000160103
0.000160103
0.000818386
0.000818386
-0.000110123
-0.000110123
0.00170141
0.00170141
0.000336039
0.000336039
5.2674e-05
5.2674e-05
-0.000163562
-0.000163562
-0.000399413
-0.000399413
0.00026589
0.00026589
0.000213414
0.000213414
-0.00214918
-0.00214918
0.00175358
0.00175358
0.00078137
0.00078137
-0.000253254
-0.000253254
9.6248e-05
9.6248e-05
-0.00010849
-0.00010849
-6.62792e-05
-6.62792e-05
0.000238637
0.000238637
0.000145147
0.000145147
-0.000261247
-0.000261247
6.52658e-05
6.52658e-05
0.000353327
0.000353327
8.79392e-06
8.79392e-06
0.000238864
0.000238864
0.000236373
0.000236373
-0.00286399
-0.00286399
0.000531793
0.000531793
-0.000270684
-0.000270684
-3.32777e-05
-3.32777e-05
0.000467353
0.000467353
0.000201288
0.000201288
-0.00028875
-0.00028875
0.000162908
0.000162908
-0.00068697
-0.00068697
0.00140565
0.00140565
0.000145726
0.000145726
-0.000371133
-0.000371133
0.00124365
0.00124365
0.000616733
0.000616733
0.0029298
0.0029298
-0.000133447
-0.000133447
0.000202874
0.000202874
0.000378136
0.000378136
0.000270911
0.000270911
0.000190473
0.000190473
-0.0011436
-0.0011436
0.000740769
0.000740769
0.000143389
0.000143389
-9.3796e-05
-9.3796e-05
-0.000357552
-0.000357552
0.000320599
0.000320599
-0.000333889
-0.000333889
9.99246e-05
9.99246e-05
4.47396e-05
4.47396e-05
-0.00144273
-0.00144273
-0.000103324
-0.000103324
-0.000365112
-0.000365112
0.00240209
0.00240209
-0.00147429
-0.00147429
-0.000229409
-0.000229409
0.00034854
0.00034854
0.000108017
0.000108017
0.00039767
0.00039767
6.60626e-05
6.60626e-05
0.0005166
0.0005166
-0.000263855
-0.000263855
-0.000269115
-0.000269115
-0.000149417
-0.000149417
9.86443e-05
9.86443e-05
0.00013048
0.00013048
0.000240812
0.000240812
0.000156593
0.000156593
-0.000918912
-0.000918912
-0.000139597
-0.000139597
0.000836101
0.000836101
0.00136846
0.00136846
-0.000324657
-0.000324657
4.93587e-05
4.93587e-05
0.000464998
0.000464998
-0.000327126
-0.000327126
-0.000363085
-0.000363085
0.000179036
0.000179036
0.000810576
0.000810576
-5.19522e-05
-5.19522e-05
9.11473e-05
9.11473e-05
-0.000159511
-0.000159511
-0.000163087
-0.000163087
-0.000139748
-0.000139748
-0.00070287
-0.00070287
-0.000153069
-0.000153069
7.42677e-06
7.42677e-06
-0.000543235
-0.000543235
-0.000163918
-0.000163918
0.00178329
0.00178329
-0.000141174
-0.000141174
-0.000206118
-0.000206118
-8.35408e-06
-8.35408e-06
0.000367071
0.000367071
-0.000106538
-0.000106538
-0.000674395
-0.000674395
6.12707e-05
6.12707e-05
0.00101066
0.00101066
-0.000445645
-0.000445645
-0.000198763
-0.000198763
0.00347057
0.00347057
-0.000905544
-0.000905544
-0.00114169
-0.00114169
-9.76639e-05
-9.76639e-05
-0.000467168
-0.000467168
0.00183601
0.00183601
-0.000171836
-0.000171836
-0.000502986
-0.000502986
-8.12219e-05
-8.12219e-05
0.000121374
0.000121374
0.00125221
0.00125221
-0.000272204
-0.000272204
-0.000390104
-0.000390104
-0.00043564
-0.00043564
0.000149947
0.000149947
0.000106062
0.000106062
0.000330791
0.000330791
-0.000397467
-0.000397467
0.000238494
0.000238494
-0.00148764
-0.00148764
-0.000389902
-0.000389902
-7.57407e-05
-7.57407e-05
-1.37011e-05
-1.37011e-05
0.00014006
0.00014006
-0.000141565
-0.000141565
-0.000385564
-0.000385564
0.00136491
0.00136491
0.000366768
0.000366768
3.72976e-07
3.72976e-07
0.000961929
0.000961929
0.000172441
0.000172441
0.000458525
0.000458525
-0.000155225
-0.000155225
-0.000331211
-0.000331211
5.1195e-06
5.1195e-06
6.69946e-05
6.69946e-05
-0.000131401
-0.000131401
0.000123141
0.000123141
0.000343623
0.000343623
-0.000977913
-0.000977913
9.04649e-05
9.04649e-05
0.000502773
0.000502773
0.000103459
0.000103459
-5.08138e-05
-5.08138e-05
0.000210075
0.000210075
-9.89499e-05
-9.89499e-05
0.000311572
0.000311572
0.000278795
0.000278795
0.000823593
0.000823593
-0.000149439
-0.000149439
-0.00015279
-0.00015279
-0.00049753
-0.00049753
0.00122607
0.00122607
-2.8341e-05
-2.8341e-05
0.00111368
0.00111368
-1.30235e-05
-1.30235e-05
-0.000126782
-0.000126782
0.000155394
0.000155394
-0.00062156
-0.00062156
0.000675685
0.000675685
0.000366981
0.000366981
0.000966548
0.000966548
-5.53755e-05
-5.53755e-05
-0.000696663
-0.000696663
0.000276664
0.000276664
2.77657e-05
2.77657e-05
-0.000182951
-0.000182951
1.83221e-05
1.83221e-05
0.000191488
0.000191488
0.000208807
0.000208807
-0.000296624
-0.000296624
-0.00076201
-0.00076201
-0.000539115
-0.000539115
-0.000100829
-0.000100829
0.000619456
0.000619456
-0.000133075
-0.000133075
-0.000568336
-0.000568336
0.000997769
0.000997769
-0.000104737
-0.000104737
0.00019352
0.00019352
-0.00262053
-0.00262053
-5.88528e-05
-5.88528e-05
0.000272633
0.000272633
-0.000173302
-0.000173302
-0.000284286
-0.000284286
5.41662e-06
5.41662e-06
0.000104755
0.000104755
0.000332443
0.000332443
-4.67693e-05
-4.67693e-05
-0.000159288
-0.000159288
-0.00154623
-0.00154623
1.53634e-05
1.53634e-05
0.000552288
0.000552288
-8.5334e-05
-8.5334e-05
7.78877e-05
7.78877e-05
-0.000631688
-0.000631688
0.000291226
0.000291226
0.000767435
0.000767435
-1.84069e-05
-1.84069e-05
0.000410266
0.000410266
8.50522e-05
8.50522e-05
-0.00026032
-0.00026032
-0.000397335
-0.000397335
0.000462667
0.000462667
-0.000689534
-0.000689534
0.000123689
0.000123689
6.15471e-05
6.15471e-05
0.000503253
0.000503253
-1.06111e-05
-1.06111e-05
-2.34391e-05
-2.34391e-05
0.000135755
0.000135755
-0.000261984
-0.000261984
-0.000364125
-0.000364125
-1.38654e-05
-1.38654e-05
-0.00011613
-0.00011613
-0.00376437
-0.00376437
0.00177917
0.00177917
0.00184112
0.00184112
0.000414354
0.000414354
0.000543727
0.000543727
0.000572154
0.000572154
-1.861e-05
-1.861e-05
0.00288952
0.00288952
-6.06544e-05
-6.06544e-05
5.65028e-05
5.65028e-05
-0.00179589
-0.00179589
0.000332633
0.000332633
0.00062078
0.00062078
0.000154242
0.000154242
-0.000167467
-0.000167467
7.70263e-05
7.70263e-05
0.000854359
0.000854359
-0.00113158
-0.00113158
0.000220281
0.000220281
1.94397e-05
1.94397e-05
0.000245414
0.000245414
5.63596e-05
5.63596e-05
0.00031674
0.00031674
-0.000246323
-0.000246323
0.00102855
0.00102855
3.3669e-05
3.3669e-05
0.000118697
0.000118697
-0.00174515
-0.00174515
1.07809e-05
1.07809e-05
0.000173884
0.000173884
-0.00028743
-0.00028743
-0.000974433
-0.000974433
9.66328e-05
9.66328e-05
0.000523973
0.000523973
0.00352657
0.00352657
6.68353e-05
6.68353e-05
-0.000141126
-0.000141126
9.22258e-05
9.22258e-05
0.000192565
0.000192565
0.00033941
0.00033941
1.19055e-05
1.19055e-05
-0.00205464
-0.00205464
-0.00100551
-0.00100551
0.00049503
0.00049503
0.000133659
0.000133659
0.000133855
0.000133855
-0.000277051
-0.000277051
-0.000108061
-0.000108061
0.000486254
0.000486254
-0.000136992
-0.000136992
-0.00258437
-0.00258437
-2.98255e-05
-2.98255e-05
-5.12557e-05
-5.12557e-05
-0.00046937
-0.00046937
0.00036175
0.00036175
8.3889e-05
8.3889e-05
-8.80645e-05
-8.80645e-05
0.000144484
0.000144484
-7.30644e-05
-7.30644e-05
-6.84452e-05
-6.84452e-05
0.000120218
0.000120218
3.36601e-05
3.36601e-05
-0.000458456
-0.000458456
0.000295416
0.000295416
0.000280032
0.000280032
-0.000229318
-0.000229318
-0.000972136
-0.000972136
0.000268999
0.000268999
0.00183712
0.00183712
-0.000420812
-0.000420812
-0.000123653
-0.000123653
0.000102807
0.000102807
-0.000803449
-0.000803449
-0.000528216
-0.000528216
8.84626e-05
8.84626e-05
-0.00086979
-0.00086979
6.71749e-05
6.71749e-05
-5.71368e-05
-5.71368e-05
0.00130044
0.00130044
0.000118993
0.000118993
-8.68587e-05
-8.68587e-05
0.000161821
0.000161821
-0.000669441
-0.000669441
0.00291653
0.00291653
-0.000148037
-0.000148037
-9.72264e-05
-9.72264e-05
-0.00086034
-0.00086034
0.000843055
0.000843055
-0.000547515
-0.000547515
0.000515222
0.000515222
-0.00297226
-0.00297226
-3.06524e-05
-3.06524e-05
-8.0132e-05
-8.0132e-05
2.83381e-05
2.83381e-05
8.13279e-05
8.13279e-05
-2.65976e-06
-2.65976e-06
-0.000115106
-0.000115106
-1.17291e-05
-1.17291e-05
7.37148e-05
7.37148e-05
0.00033698
0.00033698
0.00152648
0.00152648
0.00153681
0.00153681
-0.000129049
-0.000129049
0.00016056
0.00016056
-0.000234187
-0.000234187
0.000207103
0.000207103
1.60859e-05
1.60859e-05
-0.00190188
-0.00190188
5.42516e-05
5.42516e-05
-0.000115694
-0.000115694
0.000559209
0.000559209
-0.000104491
-0.000104491
-0.000560478
-0.000560478
-0.000153213
-0.000153213
-0.000208387
-0.000208387
-0.000846914
-0.000846914
0.00254561
0.00254561
2.38187e-05
2.38187e-05
0.00170226
0.00170226
-7.7749e-05
-7.7749e-05
0.000395555
0.000395555
-0.000172562
-0.000172562
-8.07023e-05
-8.07023e-05
-0.000105212
-0.000105212
-1.99524e-05
-1.99524e-05
0.000643965
0.000643965
0.000258068
0.000258068
0.000743235
0.000743235
0.000358835
0.000358835
-0.000159933
-0.000159933
0.00046832
0.00046832
0.00107504
0.00107504
0.000496286
0.000496286
-7.66805e-05
-7.66805e-05
-0.00066366
-0.00066366
0.000693033
0.000693033
-4.33995e-05
-4.33995e-05
2.72286e-05
2.72286e-05
0.000149597
0.000149597
-0.000242362
-0.000242362
-0.0002011
-0.0002011
-0.000452688
-0.000452688
4.99607e-05
4.99607e-05
-0.000324585
-0.000324585
-0.000254385
-0.000254385
0.000196081
0.000196081
0.000139399
0.000139399
0.000136367
0.000136367
7.92888e-05
7.92888e-05
8.65284e-05
8.65284e-05
0.000556621
0.000556621
0.00083179
0.00083179
-8.17021e-05
-8.17021e-05
-1.95203e-05
-1.95203e-05
-0.00146885
-0.00146885
-1.28945e-06
-1.28945e-06
-0.000602977
-0.000602977
0.000187926
0.000187926
1.83819e-05
1.83819e-05
-5.83245e-06
-5.83245e-06
0.00105562
0.00105562
-0.000120876
-0.000120876
-0.00164779
-0.00164779
-0.000171441
-0.000171441
-4.61391e-05
-4.61391e-05
0.000204494
0.000204494
8.12966e-05
8.12966e-05
0.000209669
0.000209669
0.000337852
0.000337852
-6.01958e-05
-6.01958e-05
-5.39674e-05
-5.39674e-05
-0.000178547
-0.000178547
-0.00254292
-0.00254292
0.000145041
0.000145041
0.000122889
0.000122889
-0.000694468
-0.000694468
6.4865e-06
6.4865e-06
-0.000331768
-0.000331768
-0.00140313
-0.00140313
-0.00160229
-0.00160229
0.000174508
0.000174508
7.21916e-05
7.21916e-05
0.000580892
0.000580892
0.00158518
0.00158518
-0.000323953
-0.000323953
-0.000114566
-0.000114566
-0.000178145
-0.000178145
0.000863626
0.000863626
0.000244124
0.000244124
-1.33423e-05
-1.33423e-05
-0.000701641
-0.000701641
0.00118957
0.00118957
0.000142132
0.000142132
-5.85582e-05
-5.85582e-05
0.00217467
0.00217467
0.00129209
0.00129209
0.000246944
0.000246944
-0.000421435
-0.000421435
-0.00072043
-0.00072043
-0.00286861
-0.00286861
-8.31913e-05
-8.31913e-05
6.95551e-05
6.95551e-05
3.38606e-06
3.38606e-06
0.000298897
0.000298897
-0.00180716
-0.00180716
-8.98794e-05
-8.98794e-05
-0.00125467
-0.00125467
-0.00165013
-0.00165013
-0.000215564
-0.000215564
-0.000538672
-0.000538672
-0.000201779
-0.000201779
6.89885e-05
6.89885e-05
-0.00256869
-0.00256869
-6.40447e-05
-6.40447e-05
0.000780813
0.000780813
0.000116686
0.000116686
0.000807995
0.000807995
-0.00148643
-0.00148643
0.000184875
0.000184875
5.39571e-06
5.39571e-06
0.000273399
0.000273399
-0.000137565
-0.000137565
-0.00112488
-0.00112488
-3.19737e-05
-3.19737e-05
-0.000374025
-0.000374025
0.000359316
0.000359316
-0.000231211
-0.000231211
0.000149912
0.000149912
-0.000612329
-0.000612329
5.80784e-05
5.80784e-05
0.00204832
0.00204832
-0.00241987
-0.00241987
3.85018e-05
3.85018e-05
0.000299781
0.000299781
0.000164051
0.000164051
-0.000163105
-0.000163105
-0.0018565
-0.0018565
0.000225902
0.000225902
0.000543969
0.000543969
-0.000239367
-0.000239367
3.89328e-05
3.89328e-05
0.00152736
0.00152736
0.00022159
0.00022159
6.15071e-05
6.15071e-05
-0.00292156
-0.00292156
-3.59862e-05
-3.59862e-05
-0.00142093
-0.00142093
0.000208039
0.000208039
-2.8455e-05
-2.8455e-05
0.000120438
0.000120438
-0.000107945
-0.000107945
-2.54527e-06
-2.54527e-06
-0.00075836
-0.00075836
3.92377e-05
3.92377e-05
-0.00011797
-0.00011797
-0.000403549
-0.000403549
-0.000211288
-0.000211288
0.000211227
0.000211227
0.00014421
0.00014421
-0.00108771
-0.00108771
-0.00028101
-0.00028101
-0.000287432
-0.000287432
-0.000357926
-0.000357926
-0.00117621
-0.00117621
-0.00021719
-0.00021719
9.20076e-05
9.20076e-05
0.000397718
0.000397718
4.24865e-05
4.24865e-05
0.000384834
0.000384834
-0.000111502
-0.000111502
-0.000198391
-0.000198391
-8.0429e-05
-8.0429e-05
0.00165484
0.00165484
0.00137685
0.00137685
-0.000191505
-0.000191505
-1.53748e-05
-1.53748e-05
0.000342447
0.000342447
0.000180946
0.000180946
-0.00123216
-0.00123216
9.38044e-05
9.38044e-05
0.000457367
0.000457367
0.000183088
0.000183088
0.000346427
0.000346427
-0.00022707
-0.00022707
-0.000767229
-0.000767229
-3.67784e-05
-3.67784e-05
-0.000189671
-0.000189671
-0.000110302
-0.000110302
-0.000300937
-0.000300937
0.00032306
0.00032306
-0.000284576
-0.000284576
0.00101441
0.00101441
0.000564436
0.000564436
0.000243479
0.000243479
5.67254e-05
5.67254e-05
-0.00151912
-0.00151912
4.93836e-05
4.93836e-05
-2.67557e-06
-2.67557e-06
-0.000183398
-0.000183398
0.00216776
0.00216776
-3.08518e-05
-3.08518e-05
-0.000214278
-0.000214278
0.00138076
0.00138076
0.000167769
0.000167769
0.000246487
0.000246487
0.000100178
0.000100178
-7.02897e-05
-7.02897e-05
-0.000331642
-0.000331642
-0.00108479
-0.00108479
-0.000919334
-0.000919334
-0.00107862
-0.00107862
-0.0002914
-0.0002914
0.000737294
0.000737294
-1.96462e-05
-1.96462e-05
0.000435966
0.000435966
9.48456e-05
9.48456e-05
-0.000141141
-0.000141141
-0.0015008
-0.0015008
-6.15972e-05
-6.15972e-05
-0.00101792
-0.00101792
-7.78061e-05
-7.78061e-05
0.000146734
0.000146734
-0.000111701
-0.000111701
0.000171634
0.000171634
-0.00131187
-0.00131187
0.00040379
0.00040379
-0.00114573
-0.00114573
0.000535434
0.000535434
-0.000459205
-0.000459205
-0.000135572
-0.000135572
-0.000376196
-0.000376196
-3.17155e-05
-3.17155e-05
0.000127529
0.000127529
-0.00274159
-0.00274159
-0.000650812
-0.000650812
0.000430654
0.000430654
5.84162e-05
5.84162e-05
0.000344133
0.000344133
0.00148319
0.00148319
-8.24221e-05
-8.24221e-05
0.000232413
0.000232413
0.000382753
0.000382753
0.00016392
0.00016392
0.00167921
0.00167921
-0.000123622
-0.000123622
0.000128331
0.000128331
-0.000213199
-0.000213199
0.000221097
0.000221097
0.000132847
0.000132847
-0.000172652
-0.000172652
0.00108793
0.00108793
0.000196206
0.000196206
0.000181483
0.000181483
-0.0023469
-0.0023469
-0.000275341
-0.000275341
-0.000261202
-0.000261202
0.000182717
0.000182717
0.00148625
0.00148625
-0.00296182
-0.00296182
0.000300196
0.000300196
-0.000362186
-0.000362186
6.61914e-05
6.61914e-05
-0.00222526
-0.00222526
-1.22061e-05
-1.22061e-05
-0.00117668
-0.00117668
-6.11076e-05
-6.11076e-05
0.000477972
0.000477972
-7.04638e-05
-7.04638e-05
0.000113531
0.000113531
-4.05661e-05
-4.05661e-05
-3.9786e-05
-3.9786e-05
-1.63171e-05
-1.63171e-05
-0.000173675
-0.000173675
0.000287413
0.000287413
-0.000104554
-0.000104554
0.00159324
0.00159324
0.00015229
0.00015229
0.00129341
0.00129341
0.000243015
0.000243015
-2.83831e-05
-2.83831e-05
6.86541e-05
6.86541e-05
8.01495e-05
8.01495e-05
9.33339e-05
9.33339e-05
-0.000205311
-0.000205311
0.000153299
0.000153299
0.000144219
0.000144219
-3.00353e-05
-3.00353e-05
0.000717216
0.000717216
-1.66723e-05
-1.66723e-05
5.76028e-05
5.76028e-05
-6.38001e-05
-6.38001e-05
0.000417696
0.000417696
0.000137558
0.000137558
8.01018e-05
8.01018e-05
7.01111e-05
7.01111e-05
-0.000171738
-0.000171738
-0.000116581
-0.000116581
-0.000130899
-0.000130899
0.000658852
0.000658852
-0.000308636
-0.000308636
0.00034497
0.00034497
0.000100519
0.000100519
7.92073e-05
7.92073e-05
0.000588654
0.000588654
9.54279e-05
9.54279e-05
-0.000884413
-0.000884413
-1.48128e-05
-1.48128e-05
0.000216943
0.000216943
0.000484914
0.000484914
-0.00023573
-0.00023573
-0.00105077
-0.00105077
0.000461373
0.000461373
-0.000294513
-0.000294513
0.000171159
0.000171159
-0.00015956
-0.00015956
0.00119471
0.00119471
-2.06307e-05
-2.06307e-05
0.00011145
0.00011145
-0.00174286
-0.00174286
0.000682348
0.000682348
0.000389261
0.000389261
-0.00351249
-0.00351249
0.000266175
0.000266175
-6.43305e-05
-6.43305e-05
0.000106127
0.000106127
-0.00142218
-0.00142218
-0.00023197
-0.00023197
0.000371503
0.000371503
-5.15934e-05
-5.15934e-05
0.00342908
0.00342908
6.22687e-05
6.22687e-05
-0.000643665
-0.000643665
0.001323
0.001323
0.000535847
0.000535847
9.3205e-05
9.3205e-05
0.000122116
0.000122116
-0.000758521
-0.000758521
-0.000200004
-0.000200004
-1.00947e-05
-1.00947e-05
0.000143611
0.000143611
0.00064468
0.00064468
0.000267605
0.000267605
-0.000130825
-0.000130825
-3.76348e-05
-3.76348e-05
0.00210614
0.00210614
-3.21601e-05
-3.21601e-05
-0.000389329
-0.000389329
-0.000170371
-0.000170371
0.000746509
0.000746509
-0.000124115
-0.000124115
-0.000230914
-0.000230914
-0.000147474
-0.000147474
8.37032e-05
8.37032e-05
0.000146782
0.000146782
0.00136564
0.00136564
0.000488218
0.000488218
0.000312591
0.000312591
0.000553426
0.000553426
-0.000302403
-0.000302403
-8.63457e-05
-8.63457e-05
0.0005917
0.0005917
2.0564e-05
2.0564e-05
-0.000927749
-0.000927749
0.000126812
0.000126812
0.000248897
0.000248897
0.000127459
0.000127459
0.000394663
0.000394663
0.000212763
0.000212763
-0.000942549
-0.000942549
0.000362461
0.000362461
0.000116667
0.000116667
0.000154891
0.000154891
-8.23607e-05
-8.23607e-05
-0.0016151
-0.0016151
-0.000710633
-0.000710633
0.000141207
0.000141207
0.000744003
0.000744003
0.00215638
0.00215638
-0.000212727
-0.000212727
0.000288238
0.000288238
-0.000369684
-0.000369684
0.00052805
0.00052805
-0.00133068
-0.00133068
-0.000192462
-0.000192462
-0.00054366
-0.00054366
-0.000269007
-0.000269007
8.52315e-05
8.52315e-05
0.000231691
0.000231691
-0.000463719
-0.000463719
3.7346e-05
3.7346e-05
0.000172919
0.000172919
-0.000575855
-0.000575855
0.000372109
0.000372109
-4.15907e-05
-4.15907e-05
-5.38496e-05
-5.38496e-05
-0.000119434
-0.000119434
0.00113428
0.00113428
0.00140671
0.00140671
-0.000735213
-0.000735213
-7.49052e-05
-7.49052e-05
-0.0008122
-0.0008122
-3.24997e-05
-3.24997e-05
3.92137e-05
3.92137e-05
-0.000666955
-0.000666955
1.00336e-05
1.00336e-05
-0.000168214
-0.000168214
0.00074619
0.00074619
0.000538572
0.000538572
-0.000128389
-0.000128389
-0.00233556
-0.00233556
0.00116397
0.00116397
-0.0012167
-0.0012167
0.000700909
0.000700909
0.000257617
0.000257617
-0.000183072
-0.000183072
-0.00192242
-0.00192242
-0.000503167
-0.000503167
5.49042e-06
5.49042e-06
-6.18043e-05
-6.18043e-05
-0.00011395
-0.00011395
2.43282e-05
2.43282e-05
0.000416166
0.000416166
0.000504928
0.000504928
0.00190486
0.00190486
-0.00133188
-0.00133188
0.000100919
0.000100919
-0.000654486
-0.000654486
3.86959e-05
3.86959e-05
0.00011338
0.00011338
-0.00200581
-0.00200581
0.000227276
0.000227276
1.41495e-05
1.41495e-05
-0.000213781
-0.000213781
-0.000287769
-0.000287769
0.000119825
0.000119825
-0.000160894
-0.000160894
2.70743e-05
2.70743e-05
0.000454579
0.000454579
2.72592e-05
2.72592e-05
-1.65908e-06
-1.65908e-06
0.000368957
0.000368957
0.00278299
0.00278299
0.000491898
0.000491898
2.66315e-05
2.66315e-05
-0.00160682
-0.00160682
2.82685e-05
2.82685e-05
0.000572767
0.000572767
0.000395652
0.000395652
-0.00020611
-0.00020611
-5.39546e-05
-5.39546e-05
-0.000373637
-0.000373637
-0.000911184
-0.000911184
0.00116868
0.00116868
0.0003264
0.0003264
0.000181135
0.000181135
-9.52463e-05
-9.52463e-05
-0.000199812
-0.000199812
0.000145416
0.000145416
0.000735771
0.000735771
3.51964e-05
3.51964e-05
-0.00336188
-0.00336188
-0.000226016
-0.000226016
9.05433e-05
9.05433e-05
-0.000511512
-0.000511512
-0.00025565
-0.00025565
-0.000412147
-0.000412147
-8.88999e-05
-8.88999e-05
-3.58487e-05
-3.58487e-05
1.98719e-05
1.98719e-05
-0.000409935
-0.000409935
0.00306128
0.00306128
-7.66015e-05
-7.66015e-05
-0.00228972
-0.00228972
1.77718e-05
1.77718e-05
0.000175132
0.000175132
0.00124353
0.00124353
-0.000257211
-0.000257211
-0.000123228
-0.000123228
-6.37439e-05
-6.37439e-05
0.000990724
0.000990724
-0.000364098
-0.000364098
8.46765e-05
8.46765e-05
0.000562564
0.000562564
0.00017611
0.00017611
0.00168471
0.00168471
0.000235945
0.000235945
-0.00162713
-0.00162713
-1.65972e-05
-1.65972e-05
3.05047e-05
3.05047e-05
-0.000849376
-0.000849376
-0.00012117
-0.00012117
-0.000869358
-0.000869358
-0.00104469
-0.00104469
-0.000267326
-0.000267326
0.00166371
0.00166371
0.000443595
0.000443595
-2.34692e-05
-2.34692e-05
0.000374598
0.000374598
-0.000719187
-0.000719187
-8.08809e-05
-8.08809e-05
-0.000203177
-0.000203177
-0.000178787
-0.000178787
0.000477595
0.000477595
-0.000489592
-0.000489592
-0.00189628
-0.00189628
2.59524e-05
2.59524e-05
-5.91852e-06
-5.91852e-06
-0.000277013
-0.000277013
-0.000108869
-0.000108869
0.000362918
0.000362918
-0.0013901
-0.0013901
0.000292132
0.000292132
-0.000570355
-0.000570355
-0.000557794
-0.000557794
-0.00075133
-0.00075133
-7.55687e-05
-7.55687e-05
-6.89069e-05
-6.89069e-05
5.16643e-05
5.16643e-05
0.000222556
0.000222556
0.000343757
0.000343757
-5.69114e-05
-5.69114e-05
7.37937e-05
7.37937e-05
2.74911e-05
2.74911e-05
0.000354275
0.000354275
0.000612255
0.000612255
-0.000684861
-0.000684861
0.000130593
0.000130593
0.000400611
0.000400611
0.000128288
0.000128288
0.00116164
0.00116164
0.000201008
0.000201008
-0.000206456
-0.000206456
0.000195779
0.000195779
-0.00134977
-0.00134977
-0.00132879
-0.00132879
-0.000136632
-0.000136632
8.78711e-05
8.78711e-05
-3.6891e-05
-3.6891e-05
-0.000135946
-0.000135946
7.31445e-05
7.31445e-05
0.00257619
0.00257619
0.000806453
0.000806453
0.000432076
0.000432076
0.000235583
0.000235583
-0.000914244
-0.000914244
0.000584052
0.000584052
-0.000115444
-0.000115444
-3.03388e-05
-3.03388e-05
0.000289964
0.000289964
-0.00021033
-0.00021033
-0.000142899
-0.000142899
-3.08685e-05
-3.08685e-05
0.000442255
0.000442255
0.000159961
0.000159961
-0.000305835
-0.000305835
-0.000805058
-0.000805058
-8.93917e-05
-8.93917e-05
-0.0013537
-0.0013537
-0.000477275
-0.000477275
-0.0010341
-0.0010341
-0.00178713
-0.00178713
-0.00105046
-0.00105046
-0.000197286
-0.000197286
-0.000186527
-0.000186527
-0.000442632
-0.000442632
-0.00045742
-0.00045742
0.000322765
0.000322765
-0.000998536
-0.000998536
-1.17817e-05
-1.17817e-05
-0.00096136
-0.00096136
3.09229e-05
3.09229e-05
-0.000218207
-0.000218207
-0.000884134
-0.000884134
0.000290473
0.000290473
0.000167108
0.000167108
-0.000191358
-0.000191358
0.000209122
0.000209122
-0.00024789
-0.00024789
4.89646e-05
4.89646e-05
0.000138851
0.000138851
-0.00111195
-0.00111195
6.49003e-06
6.49003e-06
-0.00016367
-0.00016367
0.00014069
0.00014069
0.000423704
0.000423704
-0.000171273
-0.000171273
0.00111257
0.00111257
-0.00101331
-0.00101331
7.98701e-05
7.98701e-05
-0.00037164
-0.00037164
0.000237438
0.000237438
-0.000131235
-0.000131235
-8.97805e-05
-8.97805e-05
0.000294613
0.000294613
0.000741706
0.000741706
8.39899e-05
8.39899e-05
-0.00157337
-0.00157337
-0.000662327
-0.000662327
0.000492375
0.000492375
-0.000214601
-0.000214601
0.00178477
0.00178477
0.000156112
0.000156112
0.000209278
0.000209278
0.00110381
0.00110381
-0.00024478
-0.00024478
-0.00015562
-0.00015562
0.000333521
0.000333521
-0.000127313
-0.000127313
0.000115229
0.000115229
-7.77435e-05
-7.77435e-05
0.0010657
0.0010657
0.00104577
0.00104577
-0.00067883
-0.00067883
0.000531763
0.000531763
0.000564099
0.000564099
0.000200541
0.000200541
0.000152835
0.000152835
-0.000381927
-0.000381927
-0.000225251
-0.000225251
-0.000212927
-0.000212927
0.000682593
0.000682593
-2.10275e-05
-2.10275e-05
-7.81071e-05
-7.81071e-05
-0.000173239
-0.000173239
-2.87499e-05
-2.87499e-05
-0.000165494
-0.000165494
0.000319203
0.000319203
5.43145e-05
5.43145e-05
2.47672e-07
2.47672e-07
-0.000329902
-0.000329902
-0.000213366
-0.000213366
-0.000997516
-0.000997516
-0.0010227
-0.0010227
0.00164379
0.00164379
-8.99313e-06
-8.99313e-06
0.000185671
0.000185671
0.000132062
0.000132062
-5.91625e-05
-5.91625e-05
5.08884e-05
5.08884e-05
-1.36317e-05
-1.36317e-05
-0.000173766
-0.000173766
-0.000310212
-0.000310212
0.000158653
0.000158653
0.00119616
0.00119616
-0.000538077
-0.000538077
-6.71823e-05
-6.71823e-05
2.51179e-05
2.51179e-05
0.00229394
0.00229394
-0.000914539
-0.000914539
0.000654283
0.000654283
-0.000603346
-0.000603346
-0.000295785
-0.000295785
-5.69747e-05
-5.69747e-05
-4.31254e-05
-4.31254e-05
-0.000488114
-0.000488114
-0.000124562
-0.000124562
-1.73997e-05
-1.73997e-05
0.000219776
0.000219776
0.00071797
0.00071797
-4.89809e-05
-4.89809e-05
-0.00236637
-0.00236637
-0.000231317
-0.000231317
0.000183806
0.000183806
-0.000128905
-0.000128905
-0.000447419
-0.000447419
-2.47895e-05
-2.47895e-05
0.000161552
0.000161552
-0.000128194
-0.000128194
8.44208e-05
8.44208e-05
-0.00011995
-0.00011995
-0.000515523
-0.000515523
-0.000186452
-0.000186452
5.56235e-06
5.56235e-06
0.00183844
0.00183844
0.000374594
0.000374594
0.000201034
0.000201034
3.44653e-06
3.44653e-06
0.000212065
0.000212065
-3.75319e-05
-3.75319e-05
3.86414e-05
3.86414e-05
0.000210123
0.000210123
0.000155846
0.000155846
-0.000785823
-0.000785823
-0.000182285
-0.000182285
-7.95981e-05
-7.95981e-05
-0.000208157
-0.000208157
-0.0001456
-0.0001456
-0.000811097
-0.000811097
0.000223891
0.000223891
-0.000226537
-0.000226537
-7.01645e-05
-7.01645e-05
0.000285381
0.000285381
0.000449202
0.000449202
-0.000174147
-0.000174147
-0.000336179
-0.000336179
-0.000533296
-0.000533296
3.66442e-05
3.66442e-05
0.000276462
0.000276462
-0.000364972
-0.000364972
-7.84435e-05
-7.84435e-05
0.000665868
0.000665868
2.94738e-05
2.94738e-05
-7.36581e-05
-7.36581e-05
-0.000119172
-0.000119172
-0.00079702
-0.00079702
3.5671e-05
3.5671e-05
-0.000197297
-0.000197297
-0.000337783
-0.000337783
9.4958e-05
9.4958e-05
-0.000320698
-0.000320698
3.23704e-05
3.23704e-05
-1.41206e-05
-1.41206e-05
-6.18741e-05
-6.18741e-05
-0.000987121
-0.000987121
0.000103919
0.000103919
0.000908655
0.000908655
6.57086e-05
6.57086e-05
-0.000158072
-0.000158072
-0.00144256
-0.00144256
-0.000181952
-0.000181952
5.7204e-05
5.7204e-05
0.000734969
0.000734969
0.000120185
0.000120185
0.000106129
0.000106129
-0.00293714
-0.00293714
0.000122747
0.000122747
-0.000410522
-0.000410522
0.000921662
0.000921662
-0.00119305
-0.00119305
-0.00100297
-0.00100297
-0.000118064
-0.000118064
-0.000217459
-0.000217459
0.000624951
0.000624951
-1.66566e-05
-1.66566e-05
-0.00215401
-0.00215401
0.000399881
0.000399881
0.000175132
0.000175132
0.00168255
0.00168255
-0.00277602
-0.00277602
0.000409141
0.000409141
-0.00031297
-0.00031297
-0.000523031
-0.000523031
0.000712659
0.000712659
-0.000544158
-0.000544158
0.000127393
0.000127393
0.000503629
0.000503629
3.09748e-05
3.09748e-05
-0.00104735
-0.00104735
-0.000609337
-0.000609337
4.54516e-05
4.54516e-05
-3.16042e-05
-3.16042e-05
0.000174399
0.000174399
-0.000476011
-0.000476011
0.00227715
0.00227715
-0.000128907
-0.000128907
0.00045407
0.00045407
-0.000459728
-0.000459728
-0.000106731
-0.000106731
0.000163864
0.000163864
-2.63298e-05
-2.63298e-05
0.000756325
0.000756325
0.000432479
0.000432479
-0.000841544
-0.000841544
-0.00108164
-0.00108164
-0.000200156
-0.000200156
-0.000152477
-0.000152477
-0.000461576
-0.000461576
-0.000124273
-0.000124273
0.000278396
0.000278396
-0.000826045
-0.000826045
-0.00153408
-0.00153408
0.000273539
0.000273539
-0.000589221
-0.000589221
-8.53934e-05
-8.53934e-05
5.73633e-05
5.73633e-05
0.00197377
0.00197377
0.000523625
0.000523625
-0.000437963
-0.000437963
-0.000229464
-0.000229464
0.000373951
0.000373951
1.90295e-05
1.90295e-05
0.000401311
0.000401311
5.38982e-05
5.38982e-05
0.000423057
0.000423057
0.00055887
0.00055887
2.04301e-05
2.04301e-05
4.10368e-05
4.10368e-05
0.000138746
0.000138746
-0.00169675
-0.00169675
0.00153122
0.00153122
-0.000190701
-0.000190701
-0.000706025
-0.000706025
0.000152507
0.000152507
-0.000232305
-0.000232305
0.000838968
0.000838968
-0.00262204
-0.00262204
-0.000255377
-0.000255377
-0.000230737
-0.000230737
-0.000152982
-0.000152982
0.00273135
0.00273135
-0.00303436
-0.00303436
-0.000171127
-0.000171127
3.64659e-05
3.64659e-05
-0.000146709
-0.000146709
0.000415414
0.000415414
0.000189611
0.000189611
0.00119746
0.00119746
-0.000124816
-0.000124816
-0.000509694
-0.000509694
-0.000510025
-0.000510025
-0.000377858
-0.000377858
-9.57069e-05
-9.57069e-05
-0.00162239
-0.00162239
-2.39433e-08
-2.39433e-08
0.000300052
0.000300052
-0.000168405
-0.000168405
0.000206404
0.000206404
0.00021393
0.00021393
-0.000397263
-0.000397263
0.000269805
0.000269805
-0.000238267
-0.000238267
-0.000763096
-0.000763096
0.000336729
0.000336729
9.73112e-05
9.73112e-05
0.000358831
0.000358831
-0.000502316
-0.000502316
-0.000142751
-0.000142751
-0.000139769
-0.000139769
-0.000831935
-0.000831935
-0.000185556
-0.000185556
0.000575025
0.000575025
-0.00108152
-0.00108152
9.28032e-05
9.28032e-05
-0.000191319
-0.000191319
-0.00221668
-0.00221668
0.000243038
0.000243038
-0.000294432
-0.000294432
-7.07613e-05
-7.07613e-05
0.000459039
0.000459039
-0.000109426
-0.000109426
0.000671452
0.000671452
4.81252e-05
4.81252e-05
-0.000314859
-0.000314859
-0.000245885
-0.000245885
-0.000284317
-0.000284317
0.00176753
0.00176753
-0.0018372
-0.0018372
-0.000131715
-0.000131715
0.00169826
0.00169826
0.000111199
0.000111199
0.000565279
0.000565279
-0.000397071
-0.000397071
0.000201544
0.000201544
-0.000150473
-0.000150473
-0.00121211
-0.00121211
-3.74692e-05
-3.74692e-05
0.000185804
0.000185804
-0.000101024
-0.000101024
0.000143537
0.000143537
0.000256955
0.000256955
-6.51575e-05
-6.51575e-05
0.000246163
0.000246163
0.00040848
0.00040848
0.000230393
0.000230393
0.000148061
0.000148061
-0.000442671
-0.000442671
0.000999014
0.000999014
-0.00126257
-0.00126257
-0.000208204
-0.000208204
0.000144338
0.000144338
0.000253696
0.000253696
-0.000307744
-0.000307744
-4.20707e-05
-4.20707e-05
-5.97982e-05
-5.97982e-05
0.00232714
0.00232714
0.00156882
0.00156882
0.000927686
0.000927686
-0.00027172
-0.00027172
-8.76893e-05
-8.76893e-05
1.21919e-05
1.21919e-05
0.00057873
0.00057873
-0.000353699
-0.000353699
0.000489633
0.000489633
-7.0299e-05
-7.0299e-05
0.000127479
0.000127479
-0.00113818
-0.00113818
-0.000174126
-0.000174126
0.00295099
0.00295099
-0.000797218
-0.000797218
0.000315423
0.000315423
-0.00158789
-0.00158789
0.000753948
0.000753948
0.000229289
0.000229289
0.000190649
0.000190649
-5.17877e-05
-5.17877e-05
-0.000207104
-0.000207104
-0.00101222
-0.00101222
0.000144917
0.000144917
0.00043628
0.00043628
-8.61247e-05
-8.61247e-05
0.000725963
0.000725963
0.00334831
0.00334831
-0.00286906
-0.00286906
0.000392733
0.000392733
-4.19507e-05
-4.19507e-05
0.0011985
0.0011985
-0.000874402
-0.000874402
-0.000219638
-0.000219638
-0.000107096
-0.000107096
6.30795e-05
6.30795e-05
0.000453281
0.000453281
-0.000414418
-0.000414418
-0.000104296
-0.000104296
0.000137558
0.000137558
-0.000698716
-0.000698716
0.00010751
0.00010751
0.00016895
0.00016895
8.08073e-05
8.08073e-05
-0.000216819
-0.000216819
-0.000153327
-0.000153327
-0.000248422
-0.000248422
0.000239318
0.000239318
7.12161e-05
7.12161e-05
0.000209087
0.000209087
0.000338106
0.000338106
-0.000768402
-0.000768402
-5.22537e-05
-5.22537e-05
0.00229342
0.00229342
4.37867e-07
4.37867e-07
-0.000573233
-0.000573233
0.000102916
0.000102916
-0.000111256
-0.000111256
-0.00032653
-0.00032653
-0.00165984
-0.00165984
0.000137964
0.000137964
-0.00017296
-0.00017296
2.3876e-06
2.3876e-06
-0.0015063
-0.0015063
-0.000146137
-0.000146137
0.00194057
0.00194057
0.000483079
0.000483079
0.00126365
0.00126365
-4.01707e-05
-4.01707e-05
6.35319e-05
6.35319e-05
5.93529e-05
5.93529e-05
-0.000806118
-0.000806118
0.000566659
0.000566659
-0.000101708
-0.000101708
0.000135774
0.000135774
0.000685236
0.000685236
1.89628e-05
1.89628e-05
-0.000508428
-0.000508428
-0.000538169
-0.000538169
0.000225887
0.000225887
-0.00021295
-0.00021295
-0.000155747
-0.000155747
0.00221908
0.00221908
-0.00217647
-0.00217647
-0.000932761
-0.000932761
0.000571466
0.000571466
-0.000384163
-0.000384163
0.000588262
0.000588262
-8.17569e-05
-8.17569e-05
4.0422e-06
4.0422e-06
7.71378e-05
7.71378e-05
0.000107374
0.000107374
1.15347e-05
1.15347e-05
0.000389884
0.000389884
-0.000495653
-0.000495653
9.96725e-05
9.96725e-05
0.000109513
0.000109513
-0.000362515
-0.000362515
0.000121216
0.000121216
-0.000241572
-0.000241572
0.00141476
0.00141476
-0.000312002
-0.000312002
-3.42939e-05
-3.42939e-05
3.27709e-05
3.27709e-05
-0.000752663
-0.000752663
-0.000202796
-0.000202796
0.000116118
0.000116118
1.7667e-05
1.7667e-05
0.000166295
0.000166295
-0.000138146
-0.000138146
-2.55897e-05
-2.55897e-05
0.000128153
0.000128153
-0.000456714
-0.000456714
0.000163795
0.000163795
0.000856305
0.000856305
-0.000179207
-0.000179207
-0.000209044
-0.000209044
-3.50462e-05
-3.50462e-05
-0.00107297
-0.00107297
0.00108797
0.00108797
-0.000331351
-0.000331351
-0.000140807
-0.000140807
0.0005809
0.0005809
0.000977734
0.000977734
0.000277972
0.000277972
-0.000372238
-0.000372238
0.000383238
0.000383238
0.00162611
0.00162611
-0.00113732
-0.00113732
-0.000343798
-0.000343798
-0.000540282
-0.000540282
8.84215e-05
8.84215e-05
-0.000102409
-0.000102409
0.00150177
0.00150177
-0.00169474
-0.00169474
-0.000475903
-0.000475903
-0.00028035
-0.00028035
0.000125268
0.000125268
-0.000991959
-0.000991959
-0.000182587
-0.000182587
-0.000685828
-0.000685828
-0.000513598
-0.000513598
-0.0019078
-0.0019078
0.000108929
0.000108929
0.00029337
0.00029337
-0.000316011
-0.000316011
-0.00229887
-0.00229887
-0.000125289
-0.000125289
-0.000218115
-0.000218115
-3.87312e-05
-3.87312e-05
0.00106528
0.00106528
-0.000202192
-0.000202192
0.000167064
0.000167064
0.00122217
0.00122217
0.00102485
0.00102485
-0.000146859
-0.000146859
0.00197092
0.00197092
-0.000372942
-0.000372942
-0.000114376
-0.000114376
0.00010319
0.00010319
-0.000225576
-0.000225576
-0.00110415
-0.00110415
9.13376e-05
9.13376e-05
-0.00041763
-0.00041763
0.00226503
0.00226503
7.55728e-05
7.55728e-05
-5.32883e-05
-5.32883e-05
0.000102726
0.000102726
0.000468087
0.000468087
0.000150774
0.000150774
-0.000492814
-0.000492814
1.63299e-05
1.63299e-05
0.000533259
0.000533259
0.00204566
0.00204566
-9.05003e-06
-9.05003e-06
9.51323e-05
9.51323e-05
-0.000347955
-0.000347955
0.000865108
0.000865108
2.70644e-05
2.70644e-05
-0.000385411
-0.000385411
-0.000181987
-0.000181987
-0.00139825
-0.00139825
0.000284564
0.000284564
-0.000868011
-0.000868011
-0.000321729
-0.000321729
0.00111636
0.00111636
0.000287934
0.000287934
0.000258055
0.000258055
-3.89283e-05
-3.89283e-05
0.00021273
0.00021273
-0.000345345
-0.000345345
0.00262029
0.00262029
0.000921506
0.000921506
0.0012294
0.0012294
-0.00179848
-0.00179848
-0.000245324
-0.000245324
0.000738575
0.000738575
0.000762625
0.000762625
6.69777e-05
6.69777e-05
0.000352393
0.000352393
7.22402e-05
7.22402e-05
0.000487436
0.000487436
0.000296668
0.000296668
0.000200129
0.000200129
-5.32032e-05
-5.32032e-05
-0.000361988
-0.000361988
0.0020115
0.0020115
3.9041e-05
3.9041e-05
0.000135949
0.000135949
0.000164204
0.000164204
-0.000953187
-0.000953187
-0.00135746
-0.00135746
-0.000271477
-0.000271477
-0.0011815
-0.0011815
0.000168685
0.000168685
0.000167339
0.000167339
-0.000314866
-0.000314866
0.000199591
0.000199591
-0.00010224
-0.00010224
0.000543641
0.000543641
0.000212071
0.000212071
-4.52946e-05
-4.52946e-05
0.00105308
0.00105308
-0.000389073
-0.000389073
-0.00103207
-0.00103207
-9.98651e-05
-9.98651e-05
-0.000290443
-0.000290443
0.000134122
0.000134122
8.23552e-05
8.23552e-05
0.000156892
0.000156892
2.12167e-05
2.12167e-05
0.000237278
0.000237278
0.00123678
0.00123678
2.81994e-05
2.81994e-05
0.00138482
0.00138482
0.00029473
0.00029473
-9.07387e-06
-9.07387e-06
0.000345989
0.000345989
-0.000120519
-0.000120519
0.000318419
0.000318419
-5.03072e-05
-5.03072e-05
0.000573608
0.000573608
0.000945882
0.000945882
0.00027881
0.00027881
-0.000311492
-0.000311492
3.20645e-05
3.20645e-05
0.000149366
0.000149366
-5.72393e-05
-5.72393e-05
0.00034314
0.00034314
0.000389163
0.000389163
-7.92432e-05
-7.92432e-05
-0.00112609
-0.00112609
-0.000640012
-0.000640012
8.23534e-05
8.23534e-05
-0.000173835
-0.000173835
-0.000794635
-0.000794635
-0.000148369
-0.000148369
-7.67001e-05
-7.67001e-05
0.00072347
0.00072347
-0.00072764
-0.00072764
0.000162198
0.000162198
0.00151412
0.00151412
0.000666185
0.000666185
3.48203e-05
3.48203e-05
-0.000835322
-0.000835322
-0.00110035
-0.00110035
2.97711e-05
2.97711e-05
0.00189172
0.00189172
-0.00294636
-0.00294636
-5.67376e-05
-5.67376e-05
-0.000161087
-0.000161087
0.000135445
0.000135445
-0.00200539
-0.00200539
-0.00033812
-0.00033812
-4.99175e-05
-4.99175e-05
-0.000153738
-0.000153738
0.000149414
0.000149414
-0.000150919
-0.000150919
0.0025567
0.0025567
0.000338351
0.000338351
-0.00135174
-0.00135174
0.000763714
0.000763714
-0.000647858
-0.000647858
0.000303338
0.000303338
-0.00036393
-0.00036393
-0.00159095
-0.00159095
8.82467e-05
8.82467e-05
-0.000598175
-0.000598175
0.000137539
0.000137539
0.000160441
0.000160441
-7.22216e-05
-7.22216e-05
-7.69444e-05
-7.69444e-05
0.00174129
0.00174129
-0.00108306
-0.00108306
-0.000127751
-0.000127751
6.25872e-05
6.25872e-05
-9.81676e-05
-9.81676e-05
1.95587e-05
1.95587e-05
-4.43904e-05
-4.43904e-05
0.000185203
0.000185203
-5.88457e-06
-5.88457e-06
0.000252416
0.000252416
0.00012847
0.00012847
0.00144718
0.00144718
-0.000108634
-0.000108634
0.00014668
0.00014668
0.00133088
0.00133088
0.000431141
0.000431141
-0.00119792
-0.00119792
0.000303446
0.000303446
4.24592e-05
4.24592e-05
0.00079932
0.00079932
0.000104599
0.000104599
2.37131e-05
2.37131e-05
0.000289234
0.000289234
-7.01412e-05
-7.01412e-05
0.00132666
0.00132666
0.00023814
0.00023814
-0.00153393
-0.00153393
0.000274681
0.000274681
0.000836429
0.000836429
-6.89586e-05
-6.89586e-05
0.00125926
0.00125926
0.00325373
0.00325373
-0.00013037
-0.00013037
5.42898e-05
5.42898e-05
-0.000131979
-0.000131979
-0.00126024
-0.00126024
-0.00121675
-0.00121675
0.000252453
0.000252453
-4.66337e-05
-4.66337e-05
0.000156117
0.000156117
-8.811e-05
-8.811e-05
0.000308472
0.000308472
-0.00185837
-0.00185837
0.0024499
0.0024499
-0.000603307
-0.000603307
-0.000177718
-0.000177718
8.25581e-05
8.25581e-05
0.000683579
0.000683579
-0.000134619
-0.000134619
0.000204303
0.000204303
-0.000256198
-0.000256198
0.000126004
0.000126004
0.000316681
0.000316681
-0.000135262
-0.000135262
0.000359358
0.000359358
-0.00158825
-0.00158825
8.33813e-05
8.33813e-05
-0.000347932
-0.000347932
-0.000125319
-0.000125319
2.45766e-06
2.45766e-06
7.44811e-05
7.44811e-05
-4.28041e-05
-4.28041e-05
-3.76415e-05
-3.76415e-05
-0.000108427
-0.000108427
-0.000189282
-0.000189282
-0.000702192
-0.000702192
-0.000329638
-0.000329638
-4.71974e-05
-4.71974e-05
-0.000365192
-0.000365192
-0.00062252
-0.00062252
-0.00300666
-0.00300666
-0.000901401
-0.000901401
-0.000206188
-0.000206188
0.00017831
0.00017831
-0.000174259
-0.000174259
0.00012137
0.00012137
0.00120758
0.00120758
-0.000690533
-0.000690533
0.00308065
0.00308065
4.93494e-06
4.93494e-06
-0.00115609
-0.00115609
0.000200926
0.000200926
0.00314299
0.00314299
0.000263882
0.000263882
7.15746e-05
7.15746e-05
-0.000562326
-0.000562326
0.000147575
0.000147575
-0.00138954
-0.00138954
-0.000397655
-0.000397655
0.000650987
0.000650987
4.11126e-05
4.11126e-05
-0.000434197
-0.000434197
0.000316919
0.000316919
-0.00118684
-0.00118684
0.000700824
0.000700824
0.00014364
0.00014364
-0.000251132
-0.000251132
-0.000200184
-0.000200184
-0.00211949
-0.00211949
-0.000252582
-0.000252582
0.000750249
0.000750249
0.000187789
0.000187789
0.000277353
0.000277353
-8.4739e-05
-8.4739e-05
-0.00100463
-0.00100463
0.000993258
0.000993258
-0.000233438
-0.000233438
7.23716e-05
7.23716e-05
-0.000117981
-0.000117981
-0.000176731
-0.000176731
0.000110364
0.000110364
-0.00020755
-0.00020755
-4.82198e-05
-4.82198e-05
-0.00306777
-0.00306777
-0.00281817
-0.00281817
1.63255e-06
1.63255e-06
1.68177e-05
1.68177e-05
-7.93416e-05
-7.93416e-05
-2.30438e-05
-2.30438e-05
0.000162586
0.000162586
-0.000456587
-0.000456587
-0.00179224
-0.00179224
0.000978766
0.000978766
-0.000183367
-0.000183367
8.97841e-05
8.97841e-05
-0.000200311
-0.000200311
-0.000131506
-0.000131506
-0.00306895
-0.00306895
0.00159817
0.00159817
-6.3529e-05
-6.3529e-05
-0.000866282
-0.000866282
-0.00145721
-0.00145721
-0.00044664
-0.00044664
7.46451e-05
7.46451e-05
-0.000769212
-0.000769212
0.000153848
0.000153848
0.00021842
0.00021842
6.39044e-05
6.39044e-05
-0.000412286
-0.000412286
-0.000127013
-0.000127013
0.000207695
0.000207695
0.00036569
0.00036569
0.000116011
0.000116011
8.53383e-06
8.53383e-06
0.00019629
0.00019629
-0.000143846
-0.000143846
0.0015194
0.0015194
-0.000924622
-0.000924622
0.000370135
0.000370135
-0.000260335
-0.000260335
3.22034e-05
3.22034e-05
-4.48823e-05
-4.48823e-05
5.978e-05
5.978e-05
-0.000357344
-0.000357344
2.67805e-05
2.67805e-05
-2.02991e-05
-2.02991e-05
-0.000382918
-0.000382918
-0.00120633
-0.00120633
0.00018171
0.00018171
-1.26358e-05
-1.26358e-05
-7.97835e-05
-7.97835e-05
-0.00248796
-0.00248796
-2.33755e-05
-2.33755e-05
-0.000261782
-0.000261782
6.61412e-05
6.61412e-05
0.000208698
0.000208698
0.000780085
0.000780085
-0.00016225
-0.00016225
0.00190631
0.00190631
-3.86692e-05
-3.86692e-05
0.00269067
0.00269067
-0.000797256
-0.000797256
0.000360032
0.000360032
0.00139232
0.00139232
-0.000525515
-0.000525515
-0.000174484
-0.000174484
3.79517e-05
3.79517e-05
0.000274302
0.000274302
-2.37945e-06
-2.37945e-06
-0.000152508
-0.000152508
-1.69371e-05
-1.69371e-05
0.000870711
0.000870711
0.000706767
0.000706767
-0.00281581
-0.00281581
0.000186179
0.000186179
1.16787e-05
1.16787e-05
-0.000146052
-0.000146052
0.000109747
0.000109747
0.00153084
0.00153084
2.56665e-05
2.56665e-05
-6.01613e-05
-6.01613e-05
-0.00024666
-0.00024666
-0.000345748
-0.000345748
0.000174148
0.000174148
-0.000107557
-0.000107557
0.00110679
0.00110679
7.25277e-05
7.25277e-05
-0.000576301
-0.000576301
-8.73504e-05
-8.73504e-05
0.000355998
0.000355998
-3.82083e-05
-3.82083e-05
-0.000525483
-0.000525483
-0.000478636
-0.000478636
-0.000227691
-0.000227691
-0.000246412
-0.000246412
-0.000586479
-0.000586479
0.000930366
0.000930366
0.000291753
0.000291753
-0.000716012
-0.000716012
-0.000233867
-0.000233867
-0.00351229
-0.00351229
0.000243703
0.000243703
-0.000661323
-0.000661323
-5.30911e-05
-5.30911e-05
0.000337267
0.000337267
2.69354e-05
2.69354e-05
-6.28528e-06
-6.28528e-06
0.000162623
0.000162623
-0.000480681
-0.000480681
0.00274853
0.00274853
-0.000467179
-0.000467179
0.000138593
0.000138593
0.000496271
0.000496271
-0.000507597
-0.000507597
-0.000172524
-0.000172524
-0.000619332
-0.000619332
-0.000619693
-0.000619693
-0.000316966
-0.000316966
-0.000158222
-0.000158222
7.96257e-05
7.96257e-05
-0.000266426
-0.000266426
-0.000328178
-0.000328178
1.88977e-05
1.88977e-05
-0.000341408
-0.000341408
0.00015436
0.00015436
-0.00207581
-0.00207581
0.000127606
0.000127606
-0.000629019
-0.000629019
-2.73274e-05
-2.73274e-05
-0.000513416
-0.000513416
0.000502296
0.000502296
-0.000108449
-0.000108449
2.70004e-06
2.70004e-06
-0.000240786
-0.000240786
-0.000249771
-0.000249771
-0.000391032
-0.000391032
0.000668967
0.000668967
0.000157255
0.000157255
9.70375e-05
9.70375e-05
0.00044223
0.00044223
-0.00026917
-0.00026917
-0.000782697
-0.000782697
9.49209e-05
9.49209e-05
-0.000574656
-0.000574656
-0.000177547
-0.000177547
0.000423788
0.000423788
-0.000255485
-0.000255485
0.000522566
0.000522566
-4.97641e-05
-4.97641e-05
0.000107628
0.000107628
1.24531e-05
1.24531e-05
-0.000285728
-0.000285728
-8.15415e-05
-8.15415e-05
-8.17353e-05
-8.17353e-05
-8.30551e-05
-8.30551e-05
-4.69475e-05
-4.69475e-05
-0.000101353
-0.000101353
-0.00122367
-0.00122367
-0.000225628
-0.000225628
-1.3215e-06
-1.3215e-06
-0.000211868
-0.000211868
-0.000167256
-0.000167256
-0.000190463
-0.000190463
0.000135411
0.000135411
0.00032766
0.00032766
-0.000300192
-0.000300192
4.81033e-05
4.81033e-05
-0.000248079
-0.000248079
-0.00152851
-0.00152851
-0.000255645
-0.000255645
-0.000517573
-0.000517573
-0.000258227
-0.000258227
-0.000449651
-0.000449651
-0.000476399
-0.000476399
-0.00162671
-0.00162671
0.00011445
0.00011445
-0.000124385
-0.000124385
-0.00059372
-0.00059372
3.55597e-06
3.55597e-06
-0.000341766
-0.000341766
-0.000244429
-0.000244429
-3.11595e-06
-3.11595e-06
-0.000843335
-0.000843335
-0.000144343
-0.000144343
0.00029987
0.00029987
-0.000119941
-0.000119941
2.44077e-05
2.44077e-05
-3.43621e-05
-3.43621e-05
-0.000689841
-0.000689841
0.00215375
0.00215375
0.00021733
0.00021733
9.60571e-05
9.60571e-05
0.000191007
0.000191007
0.00174468
0.00174468
7.60968e-05
7.60968e-05
-0.000409788
-0.000409788
0.00038425
0.00038425
0.000163849
0.000163849
-0.0025833
-0.0025833
-0.000417651
-0.000417651
-0.00010432
-0.00010432
5.52017e-05
5.52017e-05
-0.00031226
-0.00031226
0.000332119
0.000332119
0.000708723
0.000708723
-0.000444131
-0.000444131
0.000987432
0.000987432
-0.000681874
-0.000681874
0.000160625
0.000160625
0.000126215
0.000126215
0.000170597
0.000170597
-0.000610722
-0.000610722
-0.000150134
-0.000150134
-0.000683187
-0.000683187
-0.00015072
-0.00015072
-3.75603e-05
-3.75603e-05
0.00355863
0.00355863
0.000136597
0.000136597
0.000421127
0.000421127
0.00017565
0.00017565
0.00111294
0.00111294
-0.00293951
-0.00293951
-0.000121018
-0.000121018
0.00126638
0.00126638
-0.000159278
-0.000159278
0.000164016
0.000164016
-0.000731275
-0.000731275
5.04816e-05
5.04816e-05
-0.000254814
-0.000254814
0.00132627
0.00132627
-0.000624778
-0.000624778
1.7022e-05
1.7022e-05
-0.000280503
-0.000280503
-0.000473079
-0.000473079
-9.04709e-05
-9.04709e-05
-0.000649944
-0.000649944
-0.00186061
-0.00186061
-0.000703028
-0.000703028
0.000118934
0.000118934
7.55228e-05
7.55228e-05
-0.000661226
-0.000661226
0.000167748
0.000167748
-0.0015782
-0.0015782
-0.000131052
-0.000131052
-0.00194845
-0.00194845
-0.00121544
-0.00121544
0.000117964
0.000117964
-0.000113325
-0.000113325
0.000402004
0.000402004
0.00017059
0.00017059
0.000616871
0.000616871
-0.000737755
-0.000737755
0.000417732
0.000417732
-0.000167828
-0.000167828
0.000115132
0.000115132
0.0036767
0.0036767
-0.000364738
-0.000364738
-0.000208061
-0.000208061
0.00167174
0.00167174
-0.00045371
-0.00045371
0.00016159
0.00016159
0.000154657
0.000154657
0.00011928
0.00011928
-0.00318399
-0.00318399
0.00103186
0.00103186
-0.000161664
-0.000161664
-6.43249e-05
-6.43249e-05
0.00176755
0.00176755
0.000286296
0.000286296
-0.00113955
-0.00113955
0.000752063
0.000752063
-0.000941841
-0.000941841
-8.05357e-06
-8.05357e-06
0.000896881
0.000896881
0.00014247
0.00014247
-0.00028741
-0.00028741
-0.00029513
-0.00029513
-0.000132581
-0.000132581
-0.000144469
-0.000144469
-0.000201077
-0.000201077
-0.00213554
-0.00213554
-0.000212336
-0.000212336
0.00140288
0.00140288
-0.000598199
-0.000598199
0.00231096
0.00231096
2.30225e-05
2.30225e-05
-0.000173935
-0.000173935
-0.00155565
-0.00155565
0.00279377
0.00279377
0.000564994
0.000564994
-0.001951
-0.001951
0.00167242
0.00167242
0.00016332
0.00016332
8.36843e-05
8.36843e-05
0.000591195
0.000591195
0.000295962
0.000295962
-0.000315401
-0.000315401
0.000197426
0.000197426
-0.000890959
-0.000890959
0.00142343
0.00142343
0.00155659
0.00155659
0.000380774
0.000380774
-0.000110407
-0.000110407
0.00240436
0.00240436
-0.00359708
-0.00359708
9.36238e-05
9.36238e-05
0.000266536
0.000266536
-0.000692916
-0.000692916
-9.39099e-05
-9.39099e-05
8.27046e-05
8.27046e-05
-0.000151189
-0.000151189
0.000154951
0.000154951
0.000303604
0.000303604
-0.000101614
-0.000101614
0.000787763
0.000787763
-0.000386451
-0.000386451
-0.00032259
-0.00032259
0.000274856
0.000274856
-0.000328265
-0.000328265
-0.000601804
-0.000601804
-0.00179296
-0.00179296
-0.000131053
-0.000131053
-0.000995821
-0.000995821
0.000891945
0.000891945
-0.000406688
-0.000406688
-1.42093e-05
-1.42093e-05
-0.000331928
-0.000331928
-0.000482469
-0.000482469
-0.000382607
-0.000382607
5.03428e-05
5.03428e-05
0.00039826
0.00039826
0.00115543
0.00115543
8.53048e-05
8.53048e-05
-0.0016994
-0.0016994
-0.000322531
-0.000322531
1.44038e-05
1.44038e-05
0.000121035
0.000121035
-0.000161326
-0.000161326
7.52621e-05
7.52621e-05
9.03338e-05
9.03338e-05
7.29757e-05
7.29757e-05
7.62758e-05
7.62758e-05
0.000107151
0.000107151
0.00013957
0.00013957
-0.000378812
-0.000378812
0.000228937
0.000228937
0.000215755
0.000215755
-0.000549377
-0.000549377
0.000168032
0.000168032
0.000220141
0.000220141
-0.000739311
-0.000739311
-0.000818919
-0.000818919
8.81768e-05
8.81768e-05
2.73157e-05
2.73157e-05
7.49199e-05
7.49199e-05
-0.000589655
-0.000589655
-0.000498961
-0.000498961
0.00262111
0.00262111
-0.000983111
-0.000983111
-0.000406334
-0.000406334
0.000303685
0.000303685
-0.00208197
-0.00208197
-0.0031669
-0.0031669
0.00139075
0.00139075
-0.00211587
-0.00211587
-0.00186015
-0.00186015
0.000157887
0.000157887
0.000119829
0.000119829
-4.29658e-05
-4.29658e-05
0.00108542
0.00108542
-0.000119853
-0.000119853
0.000151216
0.000151216
-4.7953e-05
-4.7953e-05
0.000130173
0.000130173
-0.00123129
-0.00123129
-0.000711374
-0.000711374
0.000167138
0.000167138
-0.000197639
-0.000197639
0.000308656
0.000308656
-0.000212175
-0.000212175
-0.000234813
-0.000234813
-0.00109884
-0.00109884
0.00105734
0.00105734
0.000266937
0.000266937
-0.000194864
-0.000194864
0.000664847
0.000664847
-0.000596586
-0.000596586
0.000616571
0.000616571
-0.00145984
-0.00145984
0.00103099
0.00103099
-0.000206934
-0.000206934
1.66401e-05
1.66401e-05
0.000588002
0.000588002
-0.00196921
-0.00196921
-0.00013134
-0.00013134
-0.000641118
-0.000641118
0.000316259
0.000316259
-0.000656868
-0.000656868
-0.00144941
-0.00144941
-0.000264957
-0.000264957
-0.000340108
-0.000340108
-0.000319821
-0.000319821
9.69788e-05
9.69788e-05
-0.00313768
-0.00313768
-0.00354758
-0.00354758
0.00179071
0.00179071
0.000413965
0.000413965
0.000467829
0.000467829
-0.00026613
-0.00026613
-0.000196106
-0.000196106
0.000510576
0.000510576
0.00013828
0.00013828
-0.000401522
-0.000401522
-0.000933542
-0.000933542
-1.58126e-05
-1.58126e-05
0.00101941
0.00101941
-0.000193177
-0.000193177
-0.000356301
-0.000356301
0.000312045
0.000312045
0.000197155
0.000197155
-0.000494255
-0.000494255
1.44377e-05
1.44377e-05
-0.000741606
-0.000741606
-0.000391277
-0.000391277
0.000127884
0.000127884
-0.000137346
-0.000137346
-0.000182876
-0.000182876
2.47789e-05
2.47789e-05
-0.000142241
-0.000142241
-0.000171286
-0.000171286
6.50734e-05
6.50734e-05
0.000400782
0.000400782
-0.000351716
-0.000351716
-5.20878e-05
-5.20878e-05
0.00027774
0.00027774
-0.000106943
-0.000106943
-0.000623235
-0.000623235
-0.001198
-0.001198
0.00282687
0.00282687
0.000231846
0.000231846
0.000247826
0.000247826
-5.88239e-05
-5.88239e-05
0.000556807
0.000556807
-5.58407e-05
-5.58407e-05
-0.000301421
-0.000301421
-0.000161549
-0.000161549
0.00016961
0.00016961
0.00104574
0.00104574
-2.7427e-05
-2.7427e-05
-0.000352738
-0.000352738
0.00238033
0.00238033
0.000136618
0.000136618
-0.000841687
-0.000841687
0.000455672
0.000455672
-3.89747e-05
-3.89747e-05
0.00287062
0.00287062
0.000358143
0.000358143
-0.000614619
-0.000614619
0.00159461
0.00159461
0.000107598
0.000107598
0.000347873
0.000347873
-9.49505e-06
-9.49505e-06
-0.000897017
-0.000897017
0.00101572
0.00101572
-0.00114459
-0.00114459
-0.000125518
-0.000125518
-8.72607e-05
-8.72607e-05
0.000114667
0.000114667
9.20236e-05
9.20236e-05
0.00211416
0.00211416
0.000117234
0.000117234
0.00138509
0.00138509
0.00045536
0.00045536
0.000706871
0.000706871
0.00137672
0.00137672
6.561e-05
6.561e-05
0.000119249
0.000119249
-0.000475974
-0.000475974
0.00283932
0.00283932
-8.9691e-05
-8.9691e-05
0.000135957
0.000135957
-0.00243547
-0.00243547
0.00022544
0.00022544
0.00152879
0.00152879
0.000372307
0.000372307
-2.97866e-05
-2.97866e-05
0.000474302
0.000474302
2.52581e-05
2.52581e-05
-0.000183501
-0.000183501
-3.34371e-05
-3.34371e-05
-0.000521209
-0.000521209
0.000184812
0.000184812
0.000130717
0.000130717
-0.0020545
-0.0020545
-0.0015396
-0.0015396
-8.49813e-06
-8.49813e-06
-0.000253373
-0.000253373
0.000572227
0.000572227
-0.000280937
-0.000280937
2.56806e-05
2.56806e-05
0.000600578
0.000600578
-0.000703979
-0.000703979
0.000753645
0.000753645
0.000159562
0.000159562
-8.34022e-05
-8.34022e-05
9.62845e-05
9.62845e-05
0.00161923
0.00161923
-0.000556046
-0.000556046
-0.000305201
-0.000305201
-0.000121587
-0.000121587
-2.43894e-06
-2.43894e-06
-8.74317e-05
-8.74317e-05
0.00158824
0.00158824
0.000127556
0.000127556
2.19152e-05
2.19152e-05
0.000312743
0.000312743
-1.71403e-05
-1.71403e-05
-0.000134517
-0.000134517
-0.00301266
-0.00301266
8.4319e-05
8.4319e-05
-0.000508053
-0.000508053
8.79188e-05
8.79188e-05
-0.00139745
-0.00139745
-0.000468899
-0.000468899
0.000205721
0.000205721
-0.000113998
-0.000113998
0.000621055
0.000621055
-0.000260044
-0.000260044
0.00024609
0.00024609
0.00143312
0.00143312
0.00111815
0.00111815
-8.99397e-06
-8.99397e-06
0.000519258
0.000519258
0.000385018
0.000385018
-1.02074e-05
-1.02074e-05
-0.000188998
-0.000188998
0.000666545
0.000666545
3.37512e-05
3.37512e-05
0.000220899
0.000220899
-0.000135125
-0.000135125
0.000205906
0.000205906
0.000372416
0.000372416
-7.98231e-05
-7.98231e-05
0.000748474
0.000748474
-0.000197611
-0.000197611
-0.000179819
-0.000179819
-0.00255149
-0.00255149
0.000116193
0.000116193
8.77055e-05
8.77055e-05
0.000406313
0.000406313
0.000256505
0.000256505
-0.000245369
-0.000245369
-0.000267016
-0.000267016
-0.000159435
-0.000159435
0.000366791
0.000366791
-0.00103328
-0.00103328
-0.00100436
-0.00100436
0.000144107
0.000144107
-0.00110708
-0.00110708
-0.000469015
-0.000469015
-0.000240233
-0.000240233
-0.00057356
-0.00057356
0.000176632
0.000176632
-0.000202275
-0.000202275
-9.37762e-05
-9.37762e-05
0.000278836
0.000278836
-0.000511323
-0.000511323
-0.000158075
-0.000158075
-0.00114625
-0.00114625
0.000870245
0.000870245
0.000445943
0.000445943
0.000141129
0.000141129
-0.000239696
-0.000239696
0.000786002
0.000786002
0.000181345
0.000181345
0.000211077
0.000211077
-0.000162962
-0.000162962
-0.00010567
-0.00010567
4.45197e-05
4.45197e-05
-0.00162419
-0.00162419
0.00257064
0.00257064
-0.000573518
-0.000573518
-0.00032435
-0.00032435
-0.000328074
-0.000328074
-5.28003e-05
-5.28003e-05
0.000679757
0.000679757
8.24624e-05
8.24624e-05
0.00053267
0.00053267
0.000845462
0.000845462
-0.000371239
-0.000371239
0.000126759
0.000126759
0.000186834
0.000186834
-2.76198e-05
-2.76198e-05
7.62328e-05
7.62328e-05
-0.000159242
-0.000159242
-0.000112428
-0.000112428
8.98661e-05
8.98661e-05
-0.00176004
-0.00176004
2.17404e-05
2.17404e-05
-0.00182154
-0.00182154
-0.00035125
-0.00035125
0.000143469
0.000143469
0.000193751
0.000193751
0.00033588
0.00033588
0.000368382
0.000368382
0.000103158
0.000103158
5.74352e-05
5.74352e-05
0.00253708
0.00253708
-0.000421383
-0.000421383
8.81707e-05
8.81707e-05
-1.58353e-05
-1.58353e-05
0.00189304
0.00189304
0.000381011
0.000381011
-0.00023233
-0.00023233
0.000330132
0.000330132
0.00172958
0.00172958
-1.29178e-05
-1.29178e-05
0.00319907
0.00319907
-0.000183317
-0.000183317
0.00127385
0.00127385
-0.000261196
-0.000261196
-0.00111497
-0.00111497
-0.000188384
-0.000188384
-0.000157102
-0.000157102
-0.000829873
-0.000829873
0.000311891
0.000311891
0.000189465
0.000189465
0.000151956
0.000151956
-0.000160549
-0.000160549
-0.00148513
-0.00148513
0.00169833
0.00169833
-0.00180286
-0.00180286
3.89165e-05
3.89165e-05
-5.73209e-05
-5.73209e-05
-0.000293076
-0.000293076
0.00143487
0.00143487
-0.000631073
-0.000631073
-0.000225099
-0.000225099
0.00109607
0.00109607
0.00030609
0.00030609
-0.001543
-0.001543
5.21961e-05
5.21961e-05
2.335e-05
2.335e-05
0.000159464
0.000159464
0.000935598
0.000935598
0.000198686
0.000198686
-0.000100484
-0.000100484
-0.000110849
-0.000110849
-9.27649e-05
-9.27649e-05
-9.15773e-05
-9.15773e-05
0.001256
0.001256
0.000157041
0.000157041
0.000938897
0.000938897
0.000827358
0.000827358
0.000183777
0.000183777
-0.000556565
-0.000556565
0.000423508
0.000423508
8.71674e-05
8.71674e-05
0.000673068
0.000673068
9.94237e-05
9.94237e-05
-0.000231861
-0.000231861
0.000444621
0.000444621
-0.000113866
-0.000113866
-0.000611074
-0.000611074
9.52205e-05
9.52205e-05
5.11699e-05
5.11699e-05
0.000621712
0.000621712
-0.00233954
-0.00233954
-0.00118967
-0.00118967
0.000183227
0.000183227
0.00269303
0.00269303
-0.00181628
-0.00181628
0.000813192
0.000813192
0.00025059
0.00025059
-0.000360574
-0.000360574
-0.000311054
-0.000311054
0.0001111
0.0001111
0.00106625
0.00106625
-0.00129808
-0.00129808
-0.0023754
-0.0023754
7.92937e-05
7.92937e-05
-5.88464e-05
-5.88464e-05
-0.000120104
-0.000120104
-3.43495e-05
-3.43495e-05
0.000122054
0.000122054
0.000437094
0.000437094
4.26414e-06
4.26414e-06
0.000144876
0.000144876
0.00041504
0.00041504
0.00022197
0.00022197
-0.000117241
-0.000117241
-0.000664932
-0.000664932
-0.000791115
-0.000791115
-0.000142956
-0.000142956
-0.000200743
-0.000200743
0.000257473
0.000257473
0.00103663
0.00103663
0.000917667
0.000917667
0.000660769
0.000660769
0.000198807
0.000198807
-1.27708e-05
-1.27708e-05
-0.000658915
-0.000658915
0.00209833
0.00209833
0.000336744
0.000336744
5.51618e-05
5.51618e-05
-0.000391184
-0.000391184
0.000518787
0.000518787
-0.000280212
-0.000280212
-1.8626e-05
-1.8626e-05
-0.000195175
-0.000195175
-0.000180436
-0.000180436
-0.000275817
-0.000275817
8.0537e-05
8.0537e-05
-3.46368e-05
-3.46368e-05
0.00103924
0.00103924
0.000105428
0.000105428
-0.000178446
-0.000178446
2.40522e-07
2.40522e-07
8.18126e-05
8.18126e-05
0.000434831
0.000434831
5.03097e-05
5.03097e-05
0.000723768
0.000723768
-0.000158586
-0.000158586
0.000163246
0.000163246
0.000266933
0.000266933
-7.99681e-05
-7.99681e-05
0.00066858
0.00066858
4.9116e-05
4.9116e-05
0.000161694
0.000161694
-0.000307122
-0.000307122
-0.000309628
-0.000309628
0.000207414
0.000207414
-0.00054698
-0.00054698
-0.000136985
-0.000136985
0.000911257
0.000911257
-4.38608e-06
-4.38608e-06
-0.000756662
-0.000756662
0.000129665
0.000129665
-3.75552e-05
-3.75552e-05
0.000920753
0.000920753
0.000133452
0.000133452
-0.000176304
-0.000176304
0.000241527
0.000241527
0.000109321
0.000109321
-0.000172153
-0.000172153
0.00013135
0.00013135
-0.000302284
-0.000302284
0.000989458
0.000989458
4.0838e-05
4.0838e-05
-0.000240882
-0.000240882
-0.00107808
-0.00107808
0.000282395
0.000282395
0.000627185
0.000627185
-5.75578e-05
-5.75578e-05
0.000744579
0.000744579
-0.0022945
-0.0022945
0.000490884
0.000490884
0.000147929
0.000147929
-0.0003022
-0.0003022
-0.00101663
-0.00101663
0.000338582
0.000338582
-6.52578e-05
-6.52578e-05
0.000282496
0.000282496
-0.000463956
-0.000463956
-0.000475094
-0.000475094
-0.000903747
-0.000903747
0.000704348
0.000704348
0.000587151
0.000587151
0.00171748
0.00171748
-0.000219837
-0.000219837
-4.94225e-05
-4.94225e-05
-6.94348e-07
-6.94348e-07
-0.000147232
-0.000147232
-5.25748e-05
-5.25748e-05
-0.000592821
-0.000592821
0.000579657
0.000579657
-0.000131111
-0.000131111
0.00323606
0.00323606
9.97535e-05
9.97535e-05
-6.99721e-06
-6.99721e-06
-0.000740929
-0.000740929
5.33152e-05
5.33152e-05
-0.000423644
-0.000423644
2.06309e-05
2.06309e-05
0.000351682
0.000351682
0.00119603
0.00119603
-0.000123265
-0.000123265
1.49024e-05
1.49024e-05
-5.87662e-05
-5.87662e-05
-8.63466e-05
-8.63466e-05
0.00167141
0.00167141
-0.00154646
-0.00154646
-0.000124415
-0.000124415
8.63002e-06
8.63002e-06
-0.00352473
-0.00352473
-0.000210645
-0.000210645
0.000134329
0.000134329
-0.000120334
-0.000120334
-0.000274512
-0.000274512
-0.000526855
-0.000526855
6.81729e-05
6.81729e-05
-0.000115234
-0.000115234
0.00126035
0.00126035
-0.000989034
-0.000989034
0.00202459
0.00202459
-9.36313e-05
-9.36313e-05
-0.000128789
-0.000128789
-0.000831767
-0.000831767
-9.14648e-05
-9.14648e-05
-0.00108073
-0.00108073
-0.000412013
-0.000412013
0.000106311
0.000106311
-0.000139859
-0.000139859
0.0023668
0.0023668
-0.000286788
-0.000286788
-0.000959147
-0.000959147
0.000455557
0.000455557
4.99625e-05
4.99625e-05
-0.000124939
-0.000124939
0.000170419
0.000170419
-0.000288545
-0.000288545
-0.000129114
-0.000129114
-0.000286404
-0.000286404
0.00101024
0.00101024
-0.000106262
-0.000106262
-0.00120259
-0.00120259
-8.57865e-05
-8.57865e-05
0.000105324
0.000105324
2.92375e-05
2.92375e-05
-6.81575e-06
-6.81575e-06
-0.0014831
-0.0014831
0.000364793
0.000364793
2.57585e-07
2.57585e-07
-8.20001e-05
-8.20001e-05
-0.00024827
-0.00024827
-8.65615e-05
-8.65615e-05
-3.50789e-05
-3.50789e-05
0.000877782
0.000877782
-0.000388888
-0.000388888
0.000136408
0.000136408
-0.000278184
-0.000278184
0.0011622
0.0011622
-0.000194124
-0.000194124
3.09029e-05
3.09029e-05
-3.41542e-05
-3.41542e-05
5.26328e-05
5.26328e-05
0.000294523
0.000294523
-7.43893e-05
-7.43893e-05
0.00061576
0.00061576
0.000224246
0.000224246
0.000215198
0.000215198
4.43632e-05
4.43632e-05
0.000469523
0.000469523
-0.000133886
-0.000133886
0.00112756
0.00112756
-0.000147983
-0.000147983
0.000346101
0.000346101
0.000103758
0.000103758
-0.000333464
-0.000333464
0.000474026
0.000474026
0.000245326
0.000245326
-0.000317499
-0.000317499
3.24013e-05
3.24013e-05
3.48815e-05
3.48815e-05
-0.00192517
-0.00192517
-0.00120303
-0.00120303
-0.000166165
-0.000166165
0.000532825
0.000532825
0.000145872
0.000145872
7.64697e-05
7.64697e-05
0.00011589
0.00011589
-0.000170383
-0.000170383
-0.00105806
-0.00105806
-0.000222799
-0.000222799
-0.000121229
-0.000121229
0.00119495
0.00119495
0.000307856
0.000307856
-0.0014842
-0.0014842
8.5453e-05
8.5453e-05
-0.00022781
-0.00022781
0.00050124
0.00050124
-3.69605e-07
-3.69605e-07
-0.000504442
-0.000504442
-0.000875862
-0.000875862
-0.000358578
-0.000358578
0.000732978
0.000732978
-0.00287431
-0.00287431
0.00153444
0.00153444
2.03338e-05
2.03338e-05
0.000228489
0.000228489
7.83467e-05
7.83467e-05
-0.000795701
-0.000795701
-0.00115529
-0.00115529
0.000146625
0.000146625
-3.87435e-05
-3.87435e-05
0.00010137
0.00010137
-0.000845349
-0.000845349
-0.00100511
-0.00100511
0.000509346
0.000509346
-0.000459987
-0.000459987
0.000160936
0.000160936
-0.000681068
-0.000681068
3.19614e-05
3.19614e-05
8.38649e-06
8.38649e-06
5.45437e-06
5.45437e-06
-0.000515302
-0.000515302
-6.21264e-05
-6.21264e-05
-0.000276719
-0.000276719
-2.86512e-05
-2.86512e-05
0.000155001
0.000155001
0.000211343
0.000211343
-0.000134851
-0.000134851
-1.67072e-05
-1.67072e-05
0.000784713
0.000784713
-0.00124836
-0.00124836
0.00265654
0.00265654
-0.000990144
-0.000990144
-8.40841e-05
-8.40841e-05
-5.38499e-05
-5.38499e-05
-0.00035663
-0.00035663
-0.00270543
-0.00270543
-0.000267797
-0.000267797
-0.000390874
-0.000390874
-0.000204372
-0.000204372
-8.7105e-05
-8.7105e-05
-5.74697e-05
-5.74697e-05
-0.00066367
-0.00066367
-5.84234e-06
-5.84234e-06
0.000510342
0.000510342
-5.75194e-05
-5.75194e-05
-5.43506e-05
-5.43506e-05
0.000585884
0.000585884
0.00142222
0.00142222
8.53146e-05
8.53146e-05
-0.00180319
-0.00180319
9.1435e-05
9.1435e-05
-0.00238343
-0.00238343
0.000516109
0.000516109
0.0005992
0.0005992
-0.000668621
-0.000668621
2.76125e-05
2.76125e-05
0.000152097
0.000152097
0.00143887
0.00143887
-0.000330935
-0.000330935
-9.68287e-06
-9.68287e-06
-0.000272721
-0.000272721
0.000234501
0.000234501
-0.000157587
-0.000157587
0.000230308
0.000230308
-0.000459458
-0.000459458
0.000132978
0.000132978
0.000659011
0.000659011
0.000357192
0.000357192
0.00154609
0.00154609
-0.000109059
-0.000109059
-0.000877088
-0.000877088
0.00019815
0.00019815
-0.000993656
-0.000993656
0.000158691
0.000158691
3.76204e-05
3.76204e-05
0.000497133
0.000497133
0.000435807
0.000435807
0.00123739
0.00123739
0.000202462
0.000202462
0.00022544
0.00022544
-0.00154355
-0.00154355
0.000301425
0.000301425
0.00142272
0.00142272
-8.65348e-05
-8.65348e-05
-0.000844727
-0.000844727
0.000171066
0.000171066
-0.000867074
-0.000867074
0.000158088
0.000158088
-0.000676679
-0.000676679
0.000283524
0.000283524
0.00055895
0.00055895
0.000500978
0.000500978
0.00143337
0.00143337
0.00238528
0.00238528
0.000171001
0.000171001
0.000304082
0.000304082
-9.66753e-06
-9.66753e-06
3.85143e-05
3.85143e-05
-3.63812e-05
-3.63812e-05
-0.000141378
-0.000141378
0.000385416
0.000385416
1.81276e-06
1.81276e-06
0.000385278
0.000385278
0.000102008
0.000102008
-0.000160731
-0.000160731
0.000203927
0.000203927
2.26126e-05
2.26126e-05
-0.000149244
-0.000149244
-0.000730291
-0.000730291
-5.53265e-05
-5.53265e-05
-0.00145629
-0.00145629
0.000555804
0.000555804
0.000217676
0.000217676
0.00014
0.00014
0.000444329
0.000444329
-0.000121037
-0.000121037
0.000879842
0.000879842
-0.000788941
-0.000788941
-0.00011511
-0.00011511
-0.00107162
-0.00107162
0.000218773
0.000218773
-6.46189e-05
-6.46189e-05
0.000253824
0.000253824
0.00030168
0.00030168
-0.000175825
-0.000175825
-0.000716364
-0.000716364
6.76222e-05
6.76222e-05
-0.000165401
-0.000165401
-0.000315354
-0.000315354
-6.48255e-05
-6.48255e-05
-0.0010253
-0.0010253
0.000134008
0.000134008
0.000328566
0.000328566
-0.00103208
-0.00103208
-7.70545e-05
-7.70545e-05
-0.000186734
-0.000186734
0.000799469
0.000799469
-0.000523955
-0.000523955
-0.0010179
-0.0010179
-6.30507e-05
-6.30507e-05
4.77115e-05
4.77115e-05
9.60809e-05
9.60809e-05
-0.00017915
-0.00017915
3.5485e-05
3.5485e-05
0.000196259
0.000196259
0.0014134
0.0014134
-0.000536684
-0.000536684
9.24081e-05
9.24081e-05
0.00137174
0.00137174
0.000768676
0.000768676
-0.000202111
-0.000202111
1.41421e-05
1.41421e-05
0.000246741
0.000246741
7.38248e-05
7.38248e-05
5.43457e-05
5.43457e-05
0.000562601
0.000562601
6.64877e-05
6.64877e-05
2.65581e-05
2.65581e-05
-0.000204464
-0.000204464
-0.000463864
-0.000463864
0.000137412
0.000137412
-0.000335458
-0.000335458
0.000651045
0.000651045
9.2394e-06
9.2394e-06
-0.000473777
-0.000473777
-0.00103127
-0.00103127
-7.14949e-06
-7.14949e-06
-0.000159952
-0.000159952
0.000165988
0.000165988
-1.76432e-05
-1.76432e-05
-5.76829e-05
-5.76829e-05
-4.38298e-06
-4.38298e-06
-0.000368648
-0.000368648
-8.59055e-05
-8.59055e-05
-8.88127e-05
-8.88127e-05
-0.000224733
-0.000224733
-0.000265495
-0.000265495
0.00189898
0.00189898
0.000164041
0.000164041
0.000117656
0.000117656
6.25329e-06
6.25329e-06
-0.000833837
-0.000833837
-0.000157722
-0.000157722
-0.000362397
-0.000362397
0.000317622
0.000317622
0.000111968
0.000111968
0.000482216
0.000482216
0.00140609
0.00140609
-0.000344428
-0.000344428
0.00270663
0.00270663
-0.000493603
-0.000493603
0.000149489
0.000149489
0.000148863
0.000148863
-0.000157998
-0.000157998
-0.00232884
-0.00232884
0.000332362
0.000332362
-0.000752775
-0.000752775
1.5534e-05
1.5534e-05
-4.0869e-05
-4.0869e-05
0.000217683
0.000217683
-0.000584234
-0.000584234
0.000108047
0.000108047
0.000397798
0.000397798
0.000234997
0.000234997
2.40465e-05
2.40465e-05
6.80454e-05
6.80454e-05
0.000282931
0.000282931
0.00145456
0.00145456
0.000129843
0.000129843
-0.000430067
-0.000430067
-4.5888e-05
-4.5888e-05
-1.96082e-05
-1.96082e-05
-0.000382058
-0.000382058
-0.000185927
-0.000185927
6.68665e-05
6.68665e-05
-0.000829209
-0.000829209
0.000196789
0.000196789
-0.000309895
-0.000309895
0.000999186
0.000999186
0.00169532
0.00169532
-0.000158667
-0.000158667
0.000117504
0.000117504
0.000181314
0.000181314
8.11908e-05
8.11908e-05
-0.000222856
-0.000222856
-7.19386e-05
-7.19386e-05
0.000394408
0.000394408
0.000253495
0.000253495
-0.00183339
-0.00183339
-0.000356203
-0.000356203
2.99693e-05
2.99693e-05
0.000738713
0.000738713
-2.61745e-05
-2.61745e-05
-7.12136e-05
-7.12136e-05
-8.6642e-05
-8.6642e-05
-0.000545442
-0.000545442
-0.00102292
-0.00102292
-0.00031156
-0.00031156
0.000171651
0.000171651
-0.000225663
-0.000225663
0.000280925
0.000280925
0.000328008
0.000328008
-0.000162212
-0.000162212
-4.48355e-06
-4.48355e-06
0.00151224
0.00151224
0.000139168
0.000139168
0.000304594
0.000304594
-5.30084e-05
-5.30084e-05
-0.000273389
-0.000273389
-0.000396511
-0.000396511
0.000177987
0.000177987
0.000455927
0.000455927
-0.000133885
-0.000133885
-0.000309964
-0.000309964
0.00200438
0.00200438
0.000314435
0.000314435
-0.00131998
-0.00131998
0.000571311
0.000571311
0.00244915
0.00244915
0.000270643
0.000270643
-0.00018322
-0.00018322
0.000123643
0.000123643
-5.45335e-05
-5.45335e-05
-0.000117856
-0.000117856
-0.00105539
-0.00105539
-0.000231044
-0.000231044
-7.1861e-05
-7.1861e-05
0.0014471
0.0014471
0.000102303
0.000102303
-0.000429901
-0.000429901
-0.000157976
-0.000157976
0.000709139
0.000709139
-5.6674e-05
-5.6674e-05
7.21604e-05
7.21604e-05
-7.51102e-05
-7.51102e-05
0.000373319
0.000373319
-3.18128e-06
-3.18128e-06
0.000187843
0.000187843
-8.87149e-05
-8.87149e-05
0.00164532
0.00164532
-0.000703852
-0.000703852
-5.88459e-05
-5.88459e-05
0.000252382
0.000252382
0.000106609
0.000106609
-0.00191884
-0.00191884
0.000104094
0.000104094
0.000537495
0.000537495
0.000112982
0.000112982
-0.000178028
-0.000178028
-0.000220153
-0.000220153
-0.000392243
-0.000392243
0.000141757
0.000141757
-0.000559129
-0.000559129
0.000104719
0.000104719
0.000726743
0.000726743
0.000190926
0.000190926
5.83787e-05
5.83787e-05
0.000485281
0.000485281
0.00326964
0.00326964
1.12854e-05
1.12854e-05
-0.000527477
-0.000527477
0.000116501
0.000116501
-0.000455508
-0.000455508
-0.000163393
-0.000163393
-0.000326914
-0.000326914
-0.00118553
-0.00118553
-0.000538518
-0.000538518
-0.000601092
-0.000601092
-0.000121926
-0.000121926
0.000256507
0.000256507
8.81861e-05
8.81861e-05
-0.000217529
-0.000217529
-0.00011295
-0.00011295
0.00145272
0.00145272
-0.000140374
-0.000140374
-0.0017501
-0.0017501
-3.26191e-06
-3.26191e-06
-0.000234397
-0.000234397
-0.000787895
-0.000787895
-0.00028358
-0.00028358
-0.000971338
-0.000971338
0.00147559
0.00147559
0.000101442
0.000101442
0.000740065
0.000740065
-0.00260934
-0.00260934
-0.000278693
-0.000278693
-0.000127615
-0.000127615
-0.00174823
-0.00174823
-0.00233955
-0.00233955
0.000151743
0.000151743
-0.000200703
-0.000200703
-0.00242148
-0.00242148
7.16117e-05
7.16117e-05
0.000574436
0.000574436
0.000103942
0.000103942
0.000387421
0.000387421
1.03277e-05
1.03277e-05
-0.000868908
-0.000868908
4.32127e-05
4.32127e-05
-5.17909e-05
-5.17909e-05
0.000419765
0.000419765
-0.000149675
-0.000149675
2.31582e-05
2.31582e-05
-3.60382e-06
-3.60382e-06
0.000292535
0.000292535
-0.000435812
-0.000435812
-0.000160947
-0.000160947
-0.00131005
-0.00131005
-0.000460887
-0.000460887
4.3513e-06
4.3513e-06
0.000191388
0.000191388
0.000111878
0.000111878
0.000535896
0.000535896
0.000208976
0.000208976
2.86485e-05
2.86485e-05
-0.00135483
-0.00135483
0.00112496
0.00112496
5.75267e-05
5.75267e-05
-3.1715e-05
-3.1715e-05
-0.000307216
-0.000307216
6.92927e-05
6.92927e-05
-0.000135189
-0.000135189
0.000295465
0.000295465
1.48452e-05
1.48452e-05
-0.000702815
-0.000702815
-0.000676181
-0.000676181
0.000792796
0.000792796
0.000255402
0.000255402
0.00034566
0.00034566
0.000673944
0.000673944
0.000425528
0.000425528
-0.00112063
-0.00112063
0.00028554
0.00028554
-5.0612e-05
-5.0612e-05
-8.65588e-05
-8.65588e-05
-9.19779e-05
-9.19779e-05
0.000167684
0.000167684
0.000703988
0.000703988
-6.6692e-05
-6.6692e-05
5.53811e-05
5.53811e-05
-2.4102e-05
-2.4102e-05
0.000995814
0.000995814
-0.000356993
-0.000356993
-0.000130123
-0.000130123
-0.000407546
-0.000407546
-0.000229916
-0.000229916
0.00170674
0.00170674
-9.77392e-05
-9.77392e-05
-9.83297e-05
-9.83297e-05
-0.00186
-0.00186
0.00078966
0.00078966
-0.000315931
-0.000315931
-0.00103801
-0.00103801
-0.00021522
-0.00021522
-0.00014449
-0.00014449
-0.00305945
-0.00305945
-0.000603955
-0.000603955
0.00213123
0.00213123
-0.000149668
-0.000149668
-0.00100992
-0.00100992
-0.000675993
-0.000675993
-0.000245221
-0.000245221
9.46717e-05
9.46717e-05
-0.000713817
-0.000713817
-0.000168019
-0.000168019
-0.000443917
-0.000443917
-0.00196989
-0.00196989
-0.000125628
-0.000125628
0.00170324
0.00170324
0.000279181
0.000279181
0.000329087
0.000329087
0.000385056
0.000385056
0.00296565
0.00296565
-0.000221492
-0.000221492
-0.00031294
-0.00031294
0.000553
0.000553
-3.97541e-05
-3.97541e-05
0.0016787
0.0016787
5.7089e-05
5.7089e-05
0.00119224
0.00119224
0.000366707
0.000366707
0.000397857
0.000397857
-8.6604e-05
-8.6604e-05
-0.000642308
-0.000642308
-0.00039741
-0.00039741
0.00120036
0.00120036
1.14098e-05
1.14098e-05
-4.8724e-05
-4.8724e-05
0.000342861
0.000342861
-0.000415522
-0.000415522
0.00104812
0.00104812
0.000158807
0.000158807
8.36405e-05
8.36405e-05
-0.000360377
-0.000360377
-0.000347371
-0.000347371
-0.00070395
-0.00070395
-0.00116578
-0.00116578
0.00138525
0.00138525
0.0012269
0.0012269
0.000115087
0.000115087
0.00323191
0.00323191
0.000515188
0.000515188
0.00125018
0.00125018
6.90212e-05
6.90212e-05
-0.000123294
-0.000123294
-0.000133419
-0.000133419
-3.20557e-05
-3.20557e-05
-0.000238471
-0.000238471
-0.000194384
-0.000194384
-0.000394555
-0.000394555
-0.000185869
-0.000185869
0.000412832
0.000412832
-0.0025489
-0.0025489
0.000621495
0.000621495
-0.000263253
-0.000263253
-0.000135954
-0.000135954
8.58158e-05
8.58158e-05
0.000847119
0.000847119
-0.00012993
-0.00012993
-0.00140068
-0.00140068
7.01927e-05
7.01927e-05
-0.000391514
-0.000391514
0.000106344
0.000106344
-0.000109608
-0.000109608
-0.000400309
-0.000400309
0.000928611
0.000928611
0.00015116
0.00015116
8.40783e-05
8.40783e-05
0.000304468
0.000304468
0.000178529
0.000178529
-2.14235e-06
-2.14235e-06
-0.00130797
-0.00130797
-0.00184495
-0.00184495
0.000416024
0.000416024
-0.00122486
-0.00122486
-0.00028385
-0.00028385
-0.00149662
-0.00149662
0.000457344
0.000457344
-0.000154803
-0.000154803
-0.000665681
-0.000665681
0.00108055
0.00108055
9.80297e-05
9.80297e-05
-0.00160603
-0.00160603
-0.000923934
-0.000923934
-0.000799967
-0.000799967
0.000168819
0.000168819
-6.50451e-05
-6.50451e-05
-0.00177876
-0.00177876
-0.000129332
-0.000129332
-1.88299e-05
-1.88299e-05
0.000319182
0.000319182
-0.00140188
-0.00140188
0.000943591
0.000943591
0.000179489
0.000179489
5.88661e-05
5.88661e-05
-3.54391e-05
-3.54391e-05
-0.000908657
-0.000908657
0.000116707
0.000116707
9.16778e-05
9.16778e-05
0.000271078
0.000271078
0.000651002
0.000651002
-0.000159671
-0.000159671
0.000469146
0.000469146
-9.29033e-05
-9.29033e-05
-0.000774709
-0.000774709
-0.000275373
-0.000275373
-0.000324279
-0.000324279
0.000213716
0.000213716
-0.000168403
-0.000168403
0.0021504
0.0021504
-0.000187469
-0.000187469
-0.000126545
-0.000126545
-0.000164272
-0.000164272
-3.29154e-05
-3.29154e-05
0.000105396
0.000105396
0.00121203
0.00121203
-0.000779358
-0.000779358
0.00088364
0.00088364
0.00028281
0.00028281
2.09557e-05
2.09557e-05
-0.000134671
-0.000134671
0.000499709
0.000499709
0.000605957
0.000605957
0.000203828
0.000203828
0.00020548
0.00020548
-6.38418e-05
-6.38418e-05
-0.000209857
-0.000209857
-0.00013241
-0.00013241
-0.00120616
-0.00120616
-0.00038675
-0.00038675
0.00164646
0.00164646
-0.000423603
-0.000423603
0.00030636
0.00030636
0.00178788
0.00178788
-0.000499941
-0.000499941
-0.0017323
-0.0017323
2.55485e-05
2.55485e-05
0.00324544
0.00324544
-0.000154614
-0.000154614
0.000481894
0.000481894
-6.2708e-05
-6.2708e-05
-0.00266852
-0.00266852
0.000144123
0.000144123
0.000102044
0.000102044
0.003119
0.003119
7.90393e-05
7.90393e-05
-4.94336e-05
-4.94336e-05
2.59999e-05
2.59999e-05
0.00107465
0.00107465
-0.000354047
-0.000354047
-0.000211008
-0.000211008
-0.000847628
-0.000847628
3.4344e-05
3.4344e-05
0.00341713
0.00341713
0.000134994
0.000134994
9.88154e-05
9.88154e-05
0.000224589
0.000224589
0.000407099
0.000407099
0.00054128
0.00054128
2.42213e-05
2.42213e-05
0.00114407
0.00114407
9.3593e-05
9.3593e-05
-0.00102827
-0.00102827
0.00052573
0.00052573
-1.53545e-05
-1.53545e-05
0.00072668
0.00072668
-0.000629037
-0.000629037
0.000260733
0.000260733
0.000100619
0.000100619
0.000469635
0.000469635
0.000583942
0.000583942
2.1818e-05
2.1818e-05
0.000161333
0.000161333
0.000252678
0.000252678
-0.000214736
-0.000214736
8.10381e-05
8.10381e-05
-0.000239166
-0.000239166
-0.00026157
-0.00026157
3.40819e-05
3.40819e-05
-7.7081e-06
-7.7081e-06
-0.000439933
-0.000439933
6.13899e-05
6.13899e-05
-0.000475111
-0.000475111
4.37728e-05
4.37728e-05
0.000785565
0.000785565
-6.77996e-05
-6.77996e-05
0.000384942
0.000384942
0.00236128
0.00236128
0.00171991
0.00171991
0.000813291
0.000813291
-3.92745e-05
-3.92745e-05
0.00108554
0.00108554
-9.07055e-05
-9.07055e-05
-5.97567e-05
-5.97567e-05
0.00141651
0.00141651
-0.00147788
-0.00147788
-0.00248253
-0.00248253
2.61347e-05
2.61347e-05
-0.000185835
-0.000185835
4.14403e-05
4.14403e-05
0.00151675
0.00151675
-0.000653151
-0.000653151
8.15386e-05
8.15386e-05
0.000105045
0.000105045
-0.000157413
-0.000157413
0.000592111
0.000592111
0.00145234
0.00145234
0.000586696
0.000586696
0.000168665
0.000168665
-0.000120426
-0.000120426
-0.000148448
-0.000148448
5.96627e-05
5.96627e-05
0.000291719
0.000291719
0.000304513
0.000304513
-5.9827e-05
-5.9827e-05
0.000515419
0.000515419
1.40011e-05
1.40011e-05
0.000115431
0.000115431
0.00330316
0.00330316
-0.000457278
-0.000457278
-0.000492633
-0.000492633
-0.000271735
-0.000271735
-0.000298952
-0.000298952
-7.9009e-05
-7.9009e-05
-0.00126058
-0.00126058
0.00213411
0.00213411
6.45148e-05
6.45148e-05
-0.000435773
-0.000435773
-0.000405439
-0.000405439
0.00011684
0.00011684
-0.000237506
-0.000237506
0.000258315
0.000258315
-0.000647204
-0.000647204
0.000215345
0.000215345
0.000359646
0.000359646
-5.99002e-05
-5.99002e-05
-0.000202111
-0.000202111
-0.000252814
-0.000252814
-1.28391e-05
-1.28391e-05
-0.000158731
-0.000158731
0.000330272
0.000330272
0.000570266
0.000570266
0.00017914
0.00017914
-0.00173758
-0.00173758
0.000935445
0.000935445
0.000155855
0.000155855
0.000376601
0.000376601
0.000397253
0.000397253
4.23877e-05
4.23877e-05
0.000105952
0.000105952
9.56664e-05
9.56664e-05
0.000148772
0.000148772
0.00130687
0.00130687
-0.000135161
-0.000135161
-0.000235753
-0.000235753
0.000303981
0.000303981
0.00237128
0.00237128
-0.000246904
-0.000246904
0.000107868
0.000107868
0.000455576
0.000455576
0.000537975
0.000537975
-5.90031e-06
-5.90031e-06
0.000862315
0.000862315
8.23849e-05
8.23849e-05
-0.000132779
-0.000132779
0.000798245
0.000798245
-9.50879e-05
-9.50879e-05
0.000308433
0.000308433
-0.000607405
-0.000607405
-0.000209891
-0.000209891
0.00152697
0.00152697
-0.000147252
-0.000147252
-0.00166816
-0.00166816
-0.00028497
-0.00028497
-0.0004473
-0.0004473
-0.000187377
-0.000187377
0.00116953
0.00116953
9.71145e-06
9.71145e-06
0.0011403
0.0011403
-0.000340525
-0.000340525
-0.000145691
-0.000145691
0.000282747
0.000282747
-0.000329376
-0.000329376
-0.000627104
-0.000627104
0.000561664
0.000561664
0.00011251
0.00011251
0.000180683
0.000180683
-0.00132068
-0.00132068
-0.000135163
-0.000135163
-5.97256e-05
-5.97256e-05
-0.000548146
-0.000548146
-0.000116564
-0.000116564
-8.4283e-05
-8.4283e-05
0.000204181
0.000204181
-4.29126e-05
-4.29126e-05
-0.000648223
-0.000648223
1.4026e-05
1.4026e-05
-0.000180794
-0.000180794
-0.00109711
-0.00109711
-0.000121856
-0.000121856
-0.00174611
-0.00174611
-0.000491747
-0.000491747
0.000219491
0.000219491
-0.000419979
-0.000419979
0.000433563
0.000433563
0.000214947
0.000214947
-1.26889e-05
-1.26889e-05
0.000197507
0.000197507
-0.00160942
-0.00160942
0.000587412
0.000587412
-0.000401665
-0.000401665
-9.4999e-05
-9.4999e-05
0.00273336
0.00273336
-0.000182641
-0.000182641
-0.00153387
-0.00153387
7.93747e-05
7.93747e-05
-0.000206533
-0.000206533
-2.17405e-05
-2.17405e-05
0.000387012
0.000387012
-0.000416422
-0.000416422
-0.000444323
-0.000444323
-2.09703e-06
-2.09703e-06
6.08368e-05
6.08368e-05
-0.000114507
-0.000114507
-0.000187576
-0.000187576
-0.000465858
-0.000465858
-0.000335988
-0.000335988
0.00011296
0.00011296
-0.000767719
-0.000767719
4.07638e-05
4.07638e-05
0.00175585
0.00175585
-0.000233378
-0.000233378
0.000219122
0.000219122
-0.000228753
-0.000228753
-0.0005102
-0.0005102
-0.000528503
-0.000528503
-0.000132053
-0.000132053
8.04348e-05
8.04348e-05
-0.00203867
-0.00203867
0.00232843
0.00232843
-0.000541724
-0.000541724
-0.000659966
-0.000659966
0.000574259
0.000574259
-0.00023271
-0.00023271
0.000389586
0.000389586
2.53784e-05
2.53784e-05
-0.000140278
-0.000140278
0.00360772
0.00360772
-0.000155727
-0.000155727
0.000395238
0.000395238
-0.00182542
-0.00182542
0.000146681
0.000146681
-0.000153442
-0.000153442
0.000710987
0.000710987
-0.000169635
-0.000169635
-0.000643321
-0.000643321
-0.000137063
-0.000137063
0.000407538
0.000407538
0.000369429
0.000369429
-0.000184404
-0.000184404
-0.00023243
-0.00023243
-0.000189281
-0.000189281
-0.000164744
-0.000164744
7.2379e-05
7.2379e-05
0.0010502
0.0010502
0.00187601
0.00187601
-4.74013e-05
-4.74013e-05
0.000223425
0.000223425
0.000737971
0.000737971
0.00219318
0.00219318
0.000640019
0.000640019
-3.86759e-05
-3.86759e-05
-0.00197618
-0.00197618
-0.000650011
-0.000650011
-0.000265283
-0.000265283
-0.00170503
-0.00170503
0.000104943
0.000104943
-0.000153254
-0.000153254
0.000324922
0.000324922
-0.000239192
-0.000239192
-0.000174997
-0.000174997
0.000327547
0.000327547
-0.00111676
-0.00111676
-0.000905839
-0.000905839
-0.00339199
-0.00339199
-0.000588055
-0.000588055
0.000190689
0.000190689
-0.000119138
-0.000119138
-4.12237e-05
-4.12237e-05
0.000269525
0.000269525
0.000747607
0.000747607
-0.00163409
-0.00163409
-0.000333386
-0.000333386
0.000730593
0.000730593
0.000806912
0.000806912
0.00330221
0.00330221
-1.34464e-05
-1.34464e-05
-0.000230369
-0.000230369
0.000104196
0.000104196
-0.000892841
-0.000892841
-0.000105888
-0.000105888
-0.00288764
-0.00288764
-0.000768221
-0.000768221
0.00110525
0.00110525
0.00121773
0.00121773
-0.000692381
-0.000692381
0.000970935
0.000970935
0.000184189
0.000184189
-8.85327e-05
-8.85327e-05
-4.09499e-05
-4.09499e-05
-6.29703e-05
-6.29703e-05
1.46897e-05
1.46897e-05
0.000165688
0.000165688
-0.00225326
-0.00225326
0.00118661
0.00118661
0.00102808
0.00102808
0.00100117
0.00100117
2.55782e-05
2.55782e-05
-0.000539006
-0.000539006
0.00197608
0.00197608
-0.000105125
-0.000105125
-0.000106182
-0.000106182
-5.35816e-05
-5.35816e-05
0.00146704
0.00146704
-9.09194e-05
-9.09194e-05
-0.000107059
-0.000107059
-0.000629049
-0.000629049
-0.000261276
-0.000261276
-0.000205597
-0.000205597
0.000126438
0.000126438
0.000894054
0.000894054
0.000544849
0.000544849
0.000591036
0.000591036
0.000134081
0.000134081
-0.000119212
-0.000119212
-0.000701919
-0.000701919
-0.00042652
-0.00042652
-0.000116275
-0.000116275
-0.000266505
-0.000266505
-0.000223063
-0.000223063
-0.000109849
-0.000109849
0.000264521
0.000264521
0.000479783
0.000479783
0.00257919
0.00257919
0.000435995
0.000435995
0.00011538
0.00011538
-0.00150981
-0.00150981
3.72271e-05
3.72271e-05
4.289e-06
4.289e-06
0.000264698
0.000264698
-0.0017798
-0.0017798
0.000507789
0.000507789
0.000200949
0.000200949
0.000230887
0.000230887
0.00018016
0.00018016
0.00304176
0.00304176
-0.00327672
-0.00327672
-0.000206397
-0.000206397
0.000843352
0.000843352
-8.62279e-05
-8.62279e-05
-0.000130219
-0.000130219
-0.000104534
-0.000104534
-0.000703672
-0.000703672
-1.32657e-05
-1.32657e-05
-0.000639524
-0.000639524
0.000102416
0.000102416
-0.00014672
-0.00014672
-0.000914087
-0.000914087
-0.000254423
-0.000254423
-0.000334046
-0.000334046
0.00114524
0.00114524
0.000247303
0.000247303
0.000496428
0.000496428
0.000225795
0.000225795
-0.000143439
-0.000143439
-0.000460095
-0.000460095
-9.7541e-05
-9.7541e-05
-0.0020191
-0.0020191
0.000328313
0.000328313
-0.000755994
-0.000755994
0.00025347
0.00025347
0.000133789
0.000133789
0.000218297
0.000218297
-0.000534179
-0.000534179
-0.000172514
-0.000172514
0.000377804
0.000377804
-0.000439801
-0.000439801
-0.000550358
-0.000550358
0.000500409
0.000500409
-0.000107371
-0.000107371
0.00151998
0.00151998
0.000378899
0.000378899
0.000119737
0.000119737
0.000196165
0.000196165
0.000459205
0.000459205
-7.58896e-05
-7.58896e-05
-5.68136e-05
-5.68136e-05
-6.65378e-05
-6.65378e-05
-0.00131264
-0.00131264
2.77296e-05
2.77296e-05
0.000133422
0.000133422
-6.79839e-05
-6.79839e-05
0.000284176
0.000284176
-0.000185742
-0.000185742
0.000571302
0.000571302
-0.00160788
-0.00160788
9.08582e-05
9.08582e-05
0.00153465
0.00153465
-0.000103678
-0.000103678
-0.000237909
-0.000237909
7.64702e-05
7.64702e-05
0.000177418
0.000177418
-0.000789859
-0.000789859
-1.82232e-05
-1.82232e-05
-0.000512403
-0.000512403
-0.000574609
-0.000574609
0.000745308
0.000745308
0.000568965
0.000568965
-5.06982e-05
-5.06982e-05
-0.000654843
-0.000654843
-0.000465983
-0.000465983
-0.000635116
-0.000635116
0.000493528
0.000493528
6.02247e-05
6.02247e-05
-0.00220664
-0.00220664
0.000403897
0.000403897
0.000130677
0.000130677
0.00021057
0.00021057
-0.000278494
-0.000278494
0.000129662
0.000129662
-3.41656e-05
-3.41656e-05
0.00105326
0.00105326
7.04051e-05
7.04051e-05
-0.000785844
-0.000785844
0.00106488
0.00106488
0.00010432
0.00010432
-0.00012293
-0.00012293
-0.00111772
-0.00111772
-0.000289067
-0.000289067
0.000275343
0.000275343
-0.000324488
-0.000324488
-0.000373373
-0.000373373
-0.000432841
-0.000432841
-0.000197515
-0.000197515
-0.000799507
-0.000799507
0.00074753
0.00074753
-0.00298738
-0.00298738
0.000573415
0.000573415
-0.000134214
-0.000134214
-7.31689e-05
-7.31689e-05
-0.00152163
-0.00152163
0.000202463
0.000202463
-0.00227514
-0.00227514
-0.000484472
-0.000484472
-8.74501e-05
-8.74501e-05
0.000305129
0.000305129
0.00038903
0.00038903
-9.19611e-05
-9.19611e-05
-8.39959e-05
-8.39959e-05
-0.000397764
-0.000397764
-0.000723947
-0.000723947
-1.69762e-05
-1.69762e-05
1.21584e-05
1.21584e-05
0.00254564
0.00254564
0.00036214
0.00036214
-0.00012294
-0.00012294
0.00104107
0.00104107
9.77954e-05
9.77954e-05
0.00122816
0.00122816
-0.000211308
-0.000211308
-7.51347e-05
-7.51347e-05
-0.000428288
-0.000428288
0.00138037
0.00138037
5.21398e-05
5.21398e-05
-3.72797e-05
-3.72797e-05
-2.60461e-06
-2.60461e-06
-0.000256078
-0.000256078
-0.000898477
-0.000898477
0.000150696
0.000150696
0.000681697
0.000681697
0.000211352
0.000211352
0.000170042
0.000170042
0.000152002
0.000152002
-0.000223072
-0.000223072
-3.44928e-05
-3.44928e-05
0.00015841
0.00015841
-0.000351905
-0.000351905
6.586e-05
6.586e-05
0.000581199
0.000581199
4.39935e-06
4.39935e-06
-0.00155563
-0.00155563
-0.000142288
-0.000142288
-0.000244197
-0.000244197
-0.0006154
-0.0006154
-1.81576e-05
-1.81576e-05
3.09528e-07
3.09528e-07
0.000131158
0.000131158
0.000730647
0.000730647
0.00150196
0.00150196
-0.00104652
-0.00104652
0.000410126
0.000410126
1.62367e-05
1.62367e-05
0.000169688
0.000169688
-0.000342402
-0.000342402
-0.000181533
-0.000181533
-0.000405345
-0.000405345
8.34814e-05
8.34814e-05
0.000199982
0.000199982
0.00172239
0.00172239
0.00036326
0.00036326
-3.50751e-05
-3.50751e-05
-8.9131e-05
-8.9131e-05
-0.00167346
-0.00167346
-0.000126399
-0.000126399
-0.000218178
-0.000218178
-0.000703694
-0.000703694
0.000432749
0.000432749
-0.00011559
-0.00011559
7.62367e-05
7.62367e-05
-0.000425497
-0.000425497
-2.88216e-05
-2.88216e-05
-9.62894e-05
-9.62894e-05
0.00266839
0.00266839
-0.00105128
-0.00105128
-0.000883026
-0.000883026
0.000100514
0.000100514
0.000443994
0.000443994
-0.000407618
-0.000407618
-0.000591177
-0.000591177
-0.000164784
-0.000164784
-0.000349915
-0.000349915
0.000290741
0.000290741
-0.00186686
-0.00186686
0.000370217
0.000370217
5.98052e-05
5.98052e-05
-0.000599561
-0.000599561
-0.00022756
-0.00022756
-0.00091388
-0.00091388
0.000217766
0.000217766
-0.000273833
-0.000273833
-0.000121507
-0.000121507
5.10717e-05
5.10717e-05
-0.000132372
-0.000132372
-9.18107e-05
-9.18107e-05
-7.36059e-05
-7.36059e-05
0.000522662
0.000522662
0.000122251
0.000122251
0.000587493
0.000587493
-7.07248e-05
-7.07248e-05
-0.000172943
-0.000172943
-0.00129645
-0.00129645
-0.000550379
-0.000550379
-0.000342394
-0.000342394
0.000212623
0.000212623
5.73511e-05
5.73511e-05
-0.00191603
-0.00191603
0.000299453
0.000299453
-0.000509525
-0.000509525
0.00205511
0.00205511
0.00091999
0.00091999
-0.000227281
-0.000227281
-0.000142557
-0.000142557
0.000128388
0.000128388
0.000212034
0.000212034
2.52862e-05
2.52862e-05
-0.00201484
-0.00201484
-0.00093709
-0.00093709
2.02032e-05
2.02032e-05
-0.000355192
-0.000355192
-0.00067561
-0.00067561
0.00120395
0.00120395
0.000137453
0.000137453
7.08905e-06
7.08905e-06
0.00108746
0.00108746
-0.000509376
-0.000509376
0.000650532
0.000650532
0.000553473
0.000553473
-6.43986e-05
-6.43986e-05
0.000626498
0.000626498
-7.58594e-05
-7.58594e-05
-0.00133026
-0.00133026
0.00167064
0.00167064
0.000362181
0.000362181
-0.000269646
-0.000269646
0.00130535
0.00130535
-0.00280055
-0.00280055
-0.000355285
-0.000355285
-0.00018664
-0.00018664
-0.00023082
-0.00023082
0.00151164
0.00151164
-0.000141465
-0.000141465
-0.000396498
-0.000396498
0.00187219
0.00187219
5.83078e-05
5.83078e-05
-3.93282e-06
-3.93282e-06
-0.000910817
-0.000910817
0.00130442
0.00130442
0.000727876
0.000727876
-0.000508245
-0.000508245
-7.17785e-05
-7.17785e-05
0.000627149
0.000627149
0.000703724
0.000703724
-0.000150483
-0.000150483
-6.69546e-05
-6.69546e-05
-0.00100626
-0.00100626
-0.000167647
-0.000167647
8.34142e-05
8.34142e-05
0.000681972
0.000681972
-0.00119075
-0.00119075
-9.44502e-05
-9.44502e-05
0.00199018
0.00199018
-5.79227e-05
-5.79227e-05
-0.00198241
-0.00198241
-0.000184036
-0.000184036
3.53721e-06
3.53721e-06
-0.00029444
-0.00029444
0.000604372
0.000604372
0.000166179
0.000166179
-0.00150788
-0.00150788
0.00061055
0.00061055
-9.73216e-05
-9.73216e-05
0.000180747
0.000180747
0.000884259
0.000884259
-0.000526303
-0.000526303
-0.000101498
-0.000101498
-0.00138431
-0.00138431
-0.000384292
-0.000384292
-0.00039636
-0.00039636
-0.000273967
-0.000273967
-0.000136382
-0.000136382
0.001604
0.001604
-0.0001953
-0.0001953
-3.55155e-05
-3.55155e-05
-0.00165067
-0.00165067
0.000165116
0.000165116
0.00049013
0.00049013
-0.00152876
-0.00152876
-2.34813e-05
-2.34813e-05
-0.000440683
-0.000440683
0.000239009
0.000239009
-0.000289878
-0.000289878
0.000221211
0.000221211
0.000289942
0.000289942
-0.000705222
-0.000705222
-0.000171155
-0.000171155
0.000128682
0.000128682
0.000543252
0.000543252
-0.000980568
-0.000980568
-0.000323483
-0.000323483
-6.04493e-05
-6.04493e-05
-0.000337864
-0.000337864
-5.06116e-05
-5.06116e-05
-0.000433385
-0.000433385
-0.000187623
-0.000187623
0.000134161
0.000134161
0.000237258
0.000237258
-0.000145093
-0.000145093
4.26969e-05
4.26969e-05
0.000243204
0.000243204
0.000350532
0.000350532
-0.000347687
-0.000347687
-0.000248536
-0.000248536
-0.000172468
-0.000172468
0.00032674
0.00032674
-0.000176027
-0.000176027
7.96204e-05
7.96204e-05
0.000112014
0.000112014
-0.000197872
-0.000197872
-0.000338969
-0.000338969
-0.000149802
-0.000149802
0.000200645
0.000200645
-0.00058108
-0.00058108
9.08652e-05
9.08652e-05
-4.63632e-05
-4.63632e-05
0.00332868
0.00332868
-0.00178706
-0.00178706
-5.77932e-05
-5.77932e-05
0.00058893
0.00058893
-9.5037e-05
-9.5037e-05
-0.00030529
-0.00030529
0.000163935
0.000163935
-0.00036393
-0.00036393
4.51938e-06
4.51938e-06
0.000397833
0.000397833
0.00242446
0.00242446
-2.72828e-05
-2.72828e-05
6.50539e-05
6.50539e-05
-2.97099e-05
-2.97099e-05
0.000500558
0.000500558
-0.000595696
-0.000595696
-0.000602389
-0.000602389
0.000909212
0.000909212
0.000471641
0.000471641
-6.693e-05
-6.693e-05
0.000512763
0.000512763
-0.000146704
-0.000146704
-0.000666078
-0.000666078
-0.000627761
-0.000627761
-0.000236601
-0.000236601
0.000267761
0.000267761
-0.000251085
-0.000251085
0.000250352
0.000250352
0.000386088
0.000386088
-4.73912e-05
-4.73912e-05
-0.000862904
-0.000862904
7.09327e-05
7.09327e-05
-2.33549e-05
-2.33549e-05
-0.000108566
-0.000108566
0.000546181
0.000546181
0.00075456
0.00075456
0.000244411
0.000244411
-8.45152e-05
-8.45152e-05
0.000239241
0.000239241
-0.000672693
-0.000672693
1.92473e-05
1.92473e-05
0.000824407
0.000824407
-0.00156273
-0.00156273
1.98462e-05
1.98462e-05
0.000897014
0.000897014
-3.43696e-05
-3.43696e-05
-0.00234953
-0.00234953
-0.000990113
-0.000990113
-0.000510529
-0.000510529
-0.000429462
-0.000429462
-0.00056998
-0.00056998
0.000495075
0.000495075
4.64351e-05
4.64351e-05
0.000119683
0.000119683
-3.51036e-05
-3.51036e-05
-0.000134309
-0.000134309
-0.000681366
-0.000681366
0.00347934
0.00347934
-0.000266243
-0.000266243
1.49512e-05
1.49512e-05
0.000304926
0.000304926
5.94565e-05
5.94565e-05
-0.00059602
-0.00059602
-0.00101507
-0.00101507
0.000441134
0.000441134
0.0007201
0.0007201
0.000563399
0.000563399
-0.000459787
-0.000459787
-0.000554125
-0.000554125
0.00026011
0.00026011
0.000289825
0.000289825
0.00015981
0.00015981
-0.00039059
-0.00039059
0.00240362
0.00240362
0.000197611
0.000197611
0.000142262
0.000142262
0.000515721
0.000515721
-0.000380782
-0.000380782
-8.90547e-05
-8.90547e-05
-0.000136014
-0.000136014
0.000561611
0.000561611
0.000127165
0.000127165
0.00017286
0.00017286
-0.000823505
-0.000823505
0.000179931
0.000179931
0.000146719
0.000146719
-0.000405381
-0.000405381
0.000331828
0.000331828
-9.52976e-05
-9.52976e-05
-2.22701e-05
-2.22701e-05
-0.000147071
-0.000147071
-0.000505982
-0.000505982
-0.00017765
-0.00017765
0.00149603
0.00149603
0.000684994
0.000684994
-0.000399364
-0.000399364
-0.000196662
-0.000196662
0.00343664
0.00343664
-0.000902394
-0.000902394
9.30264e-05
9.30264e-05
-0.00303107
-0.00303107
-0.00047399
-0.00047399
-0.000540457
-0.000540457
0.000710283
0.000710283
0.000707768
0.000707768
0.00119203
0.00119203
-0.000544199
-0.000544199
0.000164105
0.000164105
-9.37845e-05
-9.37845e-05
-0.000404616
-0.000404616
0.000971349
0.000971349
0.000128198
0.000128198
-0.000154917
-0.000154917
0.000405666
0.000405666
0.00203632
0.00203632
-0.000134122
-0.000134122
-0.000196695
-0.000196695
-0.000842007
-0.000842007
0.000282256
0.000282256
-0.00123371
-0.00123371
0.000126309
0.000126309
0.000335516
0.000335516
0.00011339
0.00011339
-0.000231258
-0.000231258
0.000997255
0.000997255
0.000133253
0.000133253
-6.97718e-05
-6.97718e-05
-0.000600533
-0.000600533
-0.000168499
-0.000168499
0.000152143
0.000152143
0.000165066
0.000165066
0.000661942
0.000661942
0.00096761
0.00096761
-0.000847163
-0.000847163
0.000145395
0.000145395
0.000987348
0.000987348
-0.000118586
-0.000118586
0.00021329
0.00021329
0.000521076
0.000521076
-5.76596e-05
-5.76596e-05
-2.29607e-05
-2.29607e-05
-0.00124229
-0.00124229
0.000697335
0.000697335
0.0011008
0.0011008
-0.000261326
-0.000261326
-0.000166889
-0.000166889
0.000754941
0.000754941
-0.000164319
-0.000164319
-0.000807225
-0.000807225
-0.000341666
-0.000341666
-0.000485556
-0.000485556
-0.000779787
-0.000779787
-0.000144096
-0.000144096
0.000172272
0.000172272
-0.000164361
-0.000164361
-5.22996e-05
-5.22996e-05
0.000335787
0.000335787
0.000822188
0.000822188
-0.00137171
-0.00137171
0.00345109
0.00345109
-0.000555798
-0.000555798
-0.00208386
-0.00208386
0.000742748
0.000742748
-0.000276901
-0.000276901
-0.000146539
-0.000146539
0.000257213
0.000257213
-0.00138976
-0.00138976
3.81735e-05
3.81735e-05
-0.00113013
-0.00113013
-1.54444e-05
-1.54444e-05
-0.000127972
-0.000127972
-0.000745659
-0.000745659
0.000211181
0.000211181
-1.95046e-05
-1.95046e-05
0.000698901
0.000698901
-6.2634e-05
-6.2634e-05
0.000347114
0.000347114
-0.00070117
-0.00070117
-0.000943772
-0.000943772
-0.000516658
-0.000516658
0.00011615
0.00011615
-0.000367857
-0.000367857
0.000427698
0.000427698
0.000545266
0.000545266
-0.000599706
-0.000599706
-0.000832797
-0.000832797
-3.16657e-05
-3.16657e-05
4.52413e-06
4.52413e-06
-0.000393206
-0.000393206
-0.000116292
-0.000116292
-0.000131231
-0.000131231
-0.00107394
-0.00107394
-3.88592e-05
-3.88592e-05
-0.00191992
-0.00191992
1.64351e-06
1.64351e-06
-0.0011186
-0.0011186
-1.92204e-05
-1.92204e-05
-0.000366377
-0.000366377
-6.8779e-05
-6.8779e-05
2.28937e-05
2.28937e-05
-7.85878e-05
-7.85878e-05
5.40649e-05
5.40649e-05
0.00157217
0.00157217
-0.00181589
-0.00181589
-0.00041793
-0.00041793
0.000126709
0.000126709
-0.000295483
-0.000295483
0.000453807
0.000453807
0.000591394
0.000591394
-5.36248e-05
-5.36248e-05
0.000266117
0.000266117
-0.000392961
-0.000392961
0.00114833
0.00114833
0.000266
0.000266
0.000155305
0.000155305
0.000304126
0.000304126
-0.000703273
-0.000703273
0.000335285
0.000335285
-0.000201546
-0.000201546
-0.000319765
-0.000319765
0.000245486
0.000245486
-7.3855e-06
-7.3855e-06
0.00118862
0.00118862
-6.19175e-05
-6.19175e-05
-0.000898477
-0.000898477
0.000643035
0.000643035
-0.000197176
-0.000197176
-0.00114709
-0.00114709
0.00155138
0.00155138
0.000306522
0.000306522
0.000134671
0.000134671
0.00152134
0.00152134
0.000492973
0.000492973
-0.000282268
-0.000282268
3.46757e-05
3.46757e-05
-5.92897e-05
-5.92897e-05
-0.00133032
-0.00133032
0.000238934
0.000238934
-0.000523538
-0.000523538
-5.96597e-05
-5.96597e-05
0.000163171
0.000163171
0.000376618
0.000376618
-0.000422668
-0.000422668
0.000393558
0.000393558
-0.000101348
-0.000101348
-0.000274445
-0.000274445
2.20047e-05
2.20047e-05
-0.000235381
-0.000235381
0.00198746
0.00198746
9.02174e-05
9.02174e-05
-0.000141039
-0.000141039
-0.000325737
-0.000325737
-7.95004e-05
-7.95004e-05
-0.000350769
-0.000350769
0.000407613
0.000407613
0.00146955
0.00146955
0.00177854
0.00177854
0.000231143
0.000231143
-0.000255631
-0.000255631
-0.000133662
-0.000133662
-0.00127372
-0.00127372
-0.000370426
-0.000370426
-7.20064e-05
-7.20064e-05
-7.18444e-05
-7.18444e-05
-1.17078e-07
-1.17078e-07
-0.000395106
-0.000395106
5.87995e-06
5.87995e-06
-0.00275377
-0.00275377
-0.00274766
-0.00274766
0.000105618
0.000105618
0.000339421
0.000339421
-0.000435575
-0.000435575
0.00102703
0.00102703
0.0006683
0.0006683
-0.00115635
-0.00115635
0.000170322
0.000170322
-4.72059e-05
-4.72059e-05
-0.000132771
-0.000132771
0.000434838
0.000434838
-3.72431e-05
-3.72431e-05
-5.84617e-05
-5.84617e-05
-1.60131e-05
-1.60131e-05
-0.000139389
-0.000139389
0.000291718
0.000291718
0.000115382
0.000115382
-0.000475336
-0.000475336
-0.000226748
-0.000226748
0.000284055
0.000284055
-2.72777e-05
-2.72777e-05
-0.00139973
-0.00139973
0.00216422
0.00216422
0.000209754
0.000209754
-0.000134526
-0.000134526
3.97051e-05
3.97051e-05
0.000415516
0.000415516
-0.00269162
-0.00269162
0.00113346
0.00113346
-0.000281542
-0.000281542
9.73718e-06
9.73718e-06
-0.00101155
-0.00101155
-7.74437e-05
-7.74437e-05
0.000356409
0.000356409
0.000522649
0.000522649
-1.16642e-05
-1.16642e-05
0.00130601
0.00130601
-6.53584e-05
-6.53584e-05
-0.000453303
-0.000453303
-0.000538037
-0.000538037
-8.25295e-05
-8.25295e-05
-4.71768e-05
-4.71768e-05
0.000162365
0.000162365
-0.000838211
-0.000838211
0.00094045
0.00094045
2.05267e-05
2.05267e-05
0.0016613
0.0016613
0.000511911
0.000511911
0.000543416
0.000543416
-0.00129622
-0.00129622
0.00205364
0.00205364
-0.000454977
-0.000454977
9.47303e-05
9.47303e-05
0.000126284
0.000126284
0.00011433
0.00011433
0.000402208
0.000402208
-0.000570423
-0.000570423
0.000113836
0.000113836
0.00233656
0.00233656
-0.000158268
-0.000158268
5.77897e-05
5.77897e-05
0.000115226
0.000115226
-0.000490189
-0.000490189
-0.000222858
-0.000222858
0.000824494
0.000824494
9.74569e-05
9.74569e-05
0.00254777
0.00254777
0.000552067
0.000552067
-1.68366e-05
-1.68366e-05
0.00196909
0.00196909
0.000275652
0.000275652
0.000152698
0.000152698
3.72627e-06
3.72627e-06
2.61603e-05
2.61603e-05
0.00333889
0.00333889
3.79273e-05
3.79273e-05
0.002259
0.002259
-0.000415531
-0.000415531
0.00100814
0.00100814
-0.00043713
-0.00043713
-0.000124661
-0.000124661
0.000320875
0.000320875
-0.000153853
-0.000153853
9.52006e-06
9.52006e-06
-0.00110036
-0.00110036
-0.000508677
-0.000508677
-0.000224445
-0.000224445
-0.00366089
-0.00366089
0.000184791
0.000184791
0.000759347
0.000759347
-7.56905e-05
-7.56905e-05
0.000573776
0.000573776
-0.000135324
-0.000135324
0.000700845
0.000700845
0.000887631
0.000887631
-0.000482649
-0.000482649
0.0010319
0.0010319
-5.45073e-05
-5.45073e-05
-0.000181814
-0.000181814
0.000128373
0.000128373
4.27389e-05
4.27389e-05
0.000627776
0.000627776
0.000700968
0.000700968
6.21999e-05
6.21999e-05
0.000823054
0.000823054
-0.000157134
-0.000157134
-0.000595853
-0.000595853
2.43552e-05
2.43552e-05
0.00206965
0.00206965
-1.95254e-05
-1.95254e-05
-0.000305496
-0.000305496
0.00138208
0.00138208
0.000364613
0.000364613
-0.00026466
-0.00026466
0.000169846
0.000169846
0.000331284
0.000331284
-0.000514185
-0.000514185
0.000209506
0.000209506
0.000104731
0.000104731
-2.61648e-05
-2.61648e-05
-4.32459e-05
-4.32459e-05
0.000201046
0.000201046
0.000220511
0.000220511
0.00162119
0.00162119
0.000192925
0.000192925
0.000128944
0.000128944
0.00190221
0.00190221
0.00121206
0.00121206
-0.00140007
-0.00140007
6.12189e-05
6.12189e-05
-0.000397354
-0.000397354
-1.60133e-05
-1.60133e-05
-0.000223603
-0.000223603
-0.000188993
-0.000188993
-0.000456962
-0.000456962
-2.18394e-06
-2.18394e-06
0.000447452
0.000447452
-0.000909902
-0.000909902
0.000108569
0.000108569
-0.000361404
-0.000361404
0.000375388
0.000375388
0.000466907
0.000466907
-0.000240361
-0.000240361
0.00022172
0.00022172
-0.000299998
-0.000299998
0.000515233
0.000515233
-0.000353261
-0.000353261
-0.00208382
-0.00208382
0.000134336
0.000134336
4.02183e-05
4.02183e-05
-6.99303e-05
-6.99303e-05
-0.000125367
-0.000125367
-0.000151887
-0.000151887
-0.00065727
-0.00065727
-0.000248678
-0.000248678
-0.0003739
-0.0003739
-7.95595e-05
-7.95595e-05
0.000137071
0.000137071
-0.000504601
-0.000504601
0.00133481
0.00133481
0.000592396
0.000592396
0.00011966
0.00011966
-0.00103431
-0.00103431
1.72077e-06
1.72077e-06
0.00104257
0.00104257
0.000866857
0.000866857
-0.000210888
-0.000210888
0.000368871
0.000368871
0.000265024
0.000265024
0.000178062
0.000178062
0.000669913
0.000669913
-7.18981e-05
-7.18981e-05
-2.19239e-05
-2.19239e-05
-0.000139825
-0.000139825
1.68758e-05
1.68758e-05
-0.000156716
-0.000156716
-0.00100495
-0.00100495
-8.38159e-05
-8.38159e-05
7.11378e-05
7.11378e-05
0.000200499
0.000200499
0.000179108
0.000179108
-0.000194913
-0.000194913
0.0010231
0.0010231
1.63805e-05
1.63805e-05
-0.000211901
-0.000211901
0.00232974
0.00232974
0.000301794
0.000301794
-3.99339e-05
-3.99339e-05
-0.000140292
-0.000140292
8.70999e-05
8.70999e-05
6.05739e-05
6.05739e-05
0.000120557
0.000120557
5.18758e-05
5.18758e-05
1.17036e-05
1.17036e-05
-0.000143629
-0.000143629
9.90959e-05
9.90959e-05
0.000734717
0.000734717
0.000431552
0.000431552
-0.000349675
-0.000349675
0.000212557
0.000212557
-0.00088567
-0.00088567
-0.000140411
-0.000140411
-0.000306832
-0.000306832
0.000925997
0.000925997
-0.000656493
-0.000656493
-0.00015077
-0.00015077
-0.00233448
-0.00233448
0.000422493
0.000422493
0.000169182
0.000169182
6.58011e-05
6.58011e-05
-5.16229e-05
-5.16229e-05
-0.000113989
-0.000113989
0.00346032
0.00346032
0.00219879
0.00219879
-2.10668e-05
-2.10668e-05
0.000163073
0.000163073
-0.000115261
-0.000115261
-0.000232842
-0.000232842
0.00155974
0.00155974
5.00945e-05
5.00945e-05
0.00167622
0.00167622
-0.000133193
-0.000133193
0.000841757
0.000841757
0.00189346
0.00189346
0.000311243
0.000311243
0.000784447
0.000784447
0.000237672
0.000237672
-0.000153803
-0.000153803
0.00253162
0.00253162
-0.000682074
-0.000682074
0.00107928
0.00107928
0.000314088
0.000314088
-0.000194072
-0.000194072
0.000197275
0.000197275
0.000388175
0.000388175
-0.000206695
-0.000206695
0.000262546
0.000262546
0.000308212
0.000308212
-2.40248e-05
-2.40248e-05
4.24198e-05
4.24198e-05
0.00188979
0.00188979
6.39735e-06
6.39735e-06
0.000370515
0.000370515
-0.000319066
-0.000319066
0.00123551
0.00123551
0.000225962
0.000225962
0.000119021
0.000119021
7.98506e-05
7.98506e-05
0.00153174
0.00153174
-6.14784e-05
-6.14784e-05
-0.000121215
-0.000121215
0.00184374
0.00184374
-7.74438e-05
-7.74438e-05
-0.000732633
-0.000732633
0.000126472
0.000126472
-0.00113309
-0.00113309
-0.000693186
-0.000693186
7.9907e-05
7.9907e-05
0.000749627
0.000749627
0.00237429
0.00237429
0.000118668
0.000118668
-4.91368e-06
-4.91368e-06
2.60839e-05
2.60839e-05
-7.26598e-05
-7.26598e-05
1.64286e-06
1.64286e-06
0.000120768
0.000120768
-8.90577e-05
-8.90577e-05
-0.000460715
-0.000460715
9.27635e-05
9.27635e-05
0.000100726
0.000100726
-0.000634825
-0.000634825
-0.000261903
-0.000261903
0.000276972
0.000276972
0.000489745
0.000489745
-2.64865e-05
-2.64865e-05
0.00152679
0.00152679
-3.87077e-05
-3.87077e-05
0.00148129
0.00148129
3.81984e-05
3.81984e-05
-0.000973881
-0.000973881
8.32897e-05
8.32897e-05
0.000651659
0.000651659
-3.94288e-05
-3.94288e-05
0.000124911
0.000124911
0.000525813
0.000525813
0.000109178
0.000109178
0.00257048
0.00257048
-0.000407367
-0.000407367
0.000123222
0.000123222
0.00172507
0.00172507
-0.000198741
-0.000198741
-0.000961364
-0.000961364
-0.000285627
-0.000285627
-0.000157881
-0.000157881
0.00270743
0.00270743
-0.00173834
-0.00173834
-0.00068019
-0.00068019
8.55684e-05
8.55684e-05
-0.000495619
-0.000495619
-0.000742748
-0.000742748
-5.34832e-05
-5.34832e-05
-0.000446227
-0.000446227
0.00190512
0.00190512
-9.56905e-05
-9.56905e-05
-0.000224102
-0.000224102
-4.92203e-05
-4.92203e-05
-2.98142e-05
-2.98142e-05
-0.000612524
-0.000612524
-0.000473906
-0.000473906
-0.000848419
-0.000848419
-3.58955e-05
-3.58955e-05
0.000121083
0.000121083
0.00108353
0.00108353
0.00225844
0.00225844
0.000242988
0.000242988
-0.00121661
-0.00121661
0.000237351
0.000237351
0.000148397
0.000148397
0.000861891
0.000861891
-0.000178473
-0.000178473
-1.8661e-05
-1.8661e-05
5.99156e-05
5.99156e-05
0.000927808
0.000927808
-0.000151325
-0.000151325
-0.00037307
-0.00037307
0.000363634
0.000363634
-0.000508827
-0.000508827
0.00256272
0.00256272
4.01955e-06
4.01955e-06
0.000397366
0.000397366
9.26703e-05
9.26703e-05
-0.000137549
-0.000137549
-0.00117699
-0.00117699
-9.66262e-05
-9.66262e-05
0.00124723
0.00124723
8.47403e-05
8.47403e-05
0.000297411
0.000297411
0.000333866
0.000333866
-0.000833252
-0.000833252
0.00158536
0.00158536
-0.00139881
-0.00139881
-0.000676347
-0.000676347
-0.000259821
-0.000259821
-0.000708828
-0.000708828
-0.000131489
-0.000131489
-0.00027499
-0.00027499
0.000513501
0.000513501
0.00376163
0.00376163
-0.00018425
-0.00018425
-0.00013322
-0.00013322
-2.68693e-05
-2.68693e-05
0.000168311
0.000168311
0.00114171
0.00114171
0.000137146
0.000137146
-6.24784e-05
-6.24784e-05
0.000307826
0.000307826
-2.26564e-05
-2.26564e-05
3.72625e-05
3.72625e-05
-0.000787185
-0.000787185
0.000225236
0.000225236
-0.00150437
-0.00150437
0.000162811
0.000162811
-0.000849989
-0.000849989
-0.00104471
-0.00104471
-0.000224244
-0.000224244
-0.00016805
-0.00016805
-0.00022591
-0.00022591
0.000475277
0.000475277
-8.8408e-05
-8.8408e-05
-0.00143458
-0.00143458
0.0002994
0.0002994
0.000101521
0.000101521
0.000698094
0.000698094
-2.70491e-05
-2.70491e-05
0.000272852
0.000272852
-0.000189823
-0.000189823
0.000604666
0.000604666
-0.000124512
-0.000124512
-0.00120593
-0.00120593
0.00143825
0.00143825
-0.000526296
-0.000526296
-0.000374268
-0.000374268
0.000139052
0.000139052
0.000196851
0.000196851
0.000442644
0.000442644
1.254e-05
1.254e-05
0.000989187
0.000989187
0.000344944
0.000344944
-0.000534396
-0.000534396
0.000100054
0.000100054
0.00032251
0.00032251
0.000272229
0.000272229
0.000101774
0.000101774
-0.00277988
-0.00277988
-6.36981e-05
-6.36981e-05
-0.000462344
-0.000462344
-0.00120637
-0.00120637
0.000260173
0.000260173
9.17503e-05
9.17503e-05
-0.000428971
-0.000428971
-6.92342e-05
-6.92342e-05
0.000170017
0.000170017
1.80807e-05
1.80807e-05
2.87829e-05
2.87829e-05
0.00016048
0.00016048
0.00115735
0.00115735
-0.00147603
-0.00147603
-0.000164008
-0.000164008
-2.13547e-05
-2.13547e-05
0.000646016
0.000646016
-0.00047097
-0.00047097
-0.00105594
-0.00105594
-0.000233987
-0.000233987
-9.05659e-06
-9.05659e-06
-2.67822e-05
-2.67822e-05
0.000265527
0.000265527
-9.06908e-05
-9.06908e-05
-5.29312e-05
-5.29312e-05
0.00291722
0.00291722
-0.000163694
-0.000163694
0.000727799
0.000727799
0.000442464
0.000442464
0.000499176
0.000499176
0.000705152
0.000705152
0.00160156
0.00160156
0.000197243
0.000197243
-0.000382944
-0.000382944
0.000757172
0.000757172
-0.00140067
-0.00140067
-0.000117666
-0.000117666
0.00098257
0.00098257
-0.000272791
-0.000272791
-2.63208e-05
-2.63208e-05
-0.000135368
-0.000135368
0.000400749
0.000400749
-0.000213709
-0.000213709
-7.1421e-05
-7.1421e-05
0.00219431
0.00219431
-0.000230728
-0.000230728
9.4241e-05
9.4241e-05
-0.000325291
-0.000325291
-3.89561e-05
-3.89561e-05
-0.000559754
-0.000559754
1.10782e-05
1.10782e-05
-0.000103355
-0.000103355
-2.4152e-05
-2.4152e-05
3.34211e-06
3.34211e-06
0.00107055
0.00107055
-0.00062786
-0.00062786
0.000398574
0.000398574
0.000628337
0.000628337
0.000190651
0.000190651
0.000121913
0.000121913
0.00155149
0.00155149
0.000128375
0.000128375
4.17637e-05
4.17637e-05
4.86129e-05
4.86129e-05
0.00164148
0.00164148
-0.000375875
-0.000375875
-6.2144e-05
-6.2144e-05
0.000820645
0.000820645
-0.000580296
-0.000580296
0.00120845
0.00120845
0.00331256
0.00331256
-0.000145233
-0.000145233
0.00106775
0.00106775
0.000868714
0.000868714
0.000122354
0.000122354
-0.000101256
-0.000101256
-2.6092e-05
-2.6092e-05
-2.58239e-05
-2.58239e-05
0.000520834
0.000520834
0.000159837
0.000159837
0.00011858
0.00011858
-0.00171708
-0.00171708
-0.00014193
-0.00014193
0.000616261
0.000616261
0.000371322
0.000371322
0.000115105
0.000115105
-0.000239191
-0.000239191
-0.000481679
-0.000481679
-0.000152514
-0.000152514
7.08146e-05
7.08146e-05
3.14046e-05
3.14046e-05
8.91652e-05
8.91652e-05
-6.72024e-05
-6.72024e-05
0.00169635
0.00169635
-0.00280288
-0.00280288
0.000160514
0.000160514
0.000248929
0.000248929
-0.00134704
-0.00134704
-0.000161153
-0.000161153
0.000495529
0.000495529
-0.000254543
-0.000254543
0.000167695
0.000167695
0.000108321
0.000108321
0.000201381
0.000201381
0.000351579
0.000351579
0.00120393
0.00120393
4.28211e-06
4.28211e-06
-0.00126562
-0.00126562
0.00050429
0.00050429
-0.000122116
-0.000122116
0.000802534
0.000802534
-0.000157875
-0.000157875
-9.46706e-06
-9.46706e-06
0.000903776
0.000903776
7.68297e-05
7.68297e-05
-0.00268177
-0.00268177
-5.55432e-05
-5.55432e-05
-0.000437713
-0.000437713
0.000219163
0.000219163
-0.000183204
-0.000183204
0.00115669
0.00115669
-0.00011572
-0.00011572
-0.000332449
-0.000332449
0.000273133
0.000273133
0.000642228
0.000642228
-0.000194652
-0.000194652
0.000320564
0.000320564
0.0013724
0.0013724
-0.000458918
-0.000458918
-1.62741e-05
-1.62741e-05
0.000508229
0.000508229
-0.000136274
-0.000136274
-8.63998e-05
-8.63998e-05
-0.000951299
-0.000951299
0.00193929
0.00193929
0.00109418
0.00109418
-0.000478556
-0.000478556
0.000318615
0.000318615
-1.87788e-05
-1.87788e-05
0.000723359
0.000723359
-0.000306092
-0.000306092
0.00211165
0.00211165
-0.00123587
-0.00123587
0.000150595
0.000150595
-0.000132066
-0.000132066
0.00154272
0.00154272
5.6894e-05
5.6894e-05
-8.44558e-05
-8.44558e-05
-1.84577e-05
-1.84577e-05
0.000323883
0.000323883
-0.000420184
-0.000420184
0.000205839
0.000205839
-0.00133166
-0.00133166
-0.000562826
-0.000562826
-0.00129913
-0.00129913
-0.00138932
-0.00138932
0.000127259
0.000127259
8.7921e-05
8.7921e-05
0.000155086
0.000155086
7.94904e-05
7.94904e-05
-0.000206548
-0.000206548
0.000167692
0.000167692
-1.66387e-05
-1.66387e-05
0.000296167
0.000296167
0.00225669
0.00225669
-1.61741e-05
-1.61741e-05
-0.000150641
-0.000150641
-0.000265073
-0.000265073
-0.00091913
-0.00091913
-1.92678e-05
-1.92678e-05
0.000234272
0.000234272
-0.000211935
-0.000211935
0.00168744
0.00168744
3.50654e-05
3.50654e-05
-2.38765e-05
-2.38765e-05
-0.00107953
-0.00107953
0.000275203
0.000275203
-0.000138414
-0.000138414
0.00299048
0.00299048
0.000144591
0.000144591
0.000195127
0.000195127
-0.00105246
-0.00105246
-0.000127528
-0.000127528
0.000752734
0.000752734
0.000141401
0.000141401
-7.27961e-05
-7.27961e-05
-0.0020276
-0.0020276
-0.000468995
-0.000468995
-0.00034921
-0.00034921
-0.000294607
-0.000294607
-0.000116441
-0.000116441
0.000283274
0.000283274
1.21126e-05
1.21126e-05
0.00015264
0.00015264
-0.000192358
-0.000192358
0.00242416
0.00242416
-0.00117935
-0.00117935
-0.000645322
-0.000645322
0.000274891
0.000274891
-0.000345464
-0.000345464
-0.000373359
-0.000373359
0.000216371
0.000216371
2.79305e-05
2.79305e-05
-0.000240698
-0.000240698
0.000291814
0.000291814
-0.000448558
-0.000448558
-1.67749e-05
-1.67749e-05
8.69493e-05
8.69493e-05
0.000451473
0.000451473
0.000210782
0.000210782
0.000201269
0.000201269
0.000277872
0.000277872
5.08101e-05
5.08101e-05
-0.000487512
-0.000487512
-4.31376e-05
-4.31376e-05
0.000401902
0.000401902
0.000206691
0.000206691
0.000977083
0.000977083
6.11612e-05
6.11612e-05
0.000109786
0.000109786
0.000156739
0.000156739
0.000609782
0.000609782
-0.000106874
-0.000106874
-0.00103589
-0.00103589
0.00219849
0.00219849
-0.000203412
-0.000203412
-0.00109763
-0.00109763
-3.88322e-05
-3.88322e-05
-7.74318e-05
-7.74318e-05
0.000429221
0.000429221
0.000799218
0.000799218
-0.000624957
-0.000624957
0.00015896
0.00015896
0.000132839
0.000132839
0.00151147
0.00151147
-0.000391929
-0.000391929
0.000345943
0.000345943
3.28795e-05
3.28795e-05
0.000461632
0.000461632
-0.000953042
-0.000953042
-6.11654e-05
-6.11654e-05
9.67004e-05
9.67004e-05
-0.000130627
-0.000130627
-9.55378e-05
-9.55378e-05
0.000245799
0.000245799
0.000273256
0.000273256
-0.000330049
-0.000330049
0.000433705
0.000433705
0.000238741
0.000238741
0.000303006
0.000303006
-5.76391e-05
-5.76391e-05
0.00059023
0.00059023
-0.000512712
-0.000512712
-0.00055076
-0.00055076
0.000156406
0.000156406
6.78319e-05
6.78319e-05
-0.000153929
-0.000153929
0.000196186
0.000196186
-0.000684635
-0.000684635
-4.35187e-05
-4.35187e-05
0.000964511
0.000964511
0.000520479
0.000520479
-0.000590531
-0.000590531
7.5546e-05
7.5546e-05
0.000402646
0.000402646
-0.00092755
-0.00092755
9.88751e-05
9.88751e-05
9.03545e-05
9.03545e-05
0.000146565
0.000146565
0.000854618
0.000854618
-0.000148573
-0.000148573
-4.60506e-05
-4.60506e-05
-0.000855664
-0.000855664
-7.8858e-05
-7.8858e-05
0.00102913
0.00102913
0.000319072
0.000319072
0.000134445
0.000134445
-0.000386694
-0.000386694
0.000592353
0.000592353
-0.000146102
-0.000146102
0.00140013
0.00140013
-0.00108893
-0.00108893
-0.000769353
-0.000769353
-0.000301784
-0.000301784
0.000538342
0.000538342
-0.00126435
-0.00126435
0.000404065
0.000404065
1.12868e-05
1.12868e-05
0.000387625
0.000387625
-9.15193e-05
-9.15193e-05
-0.000926133
-0.000926133
-0.000531978
-0.000531978
-0.00016518
-0.00016518
0.00114706
0.00114706
0.00102148
0.00102148
0.00055135
0.00055135
0.000833789
0.000833789
-0.000105235
-0.000105235
0.000760862
0.000760862
-0.000176035
-0.000176035
0.00046913
0.00046913
0.000158881
0.000158881
-0.00205176
-0.00205176
0.00121382
0.00121382
0.000676941
0.000676941
-5.53925e-05
-5.53925e-05
-0.000485769
-0.000485769
-0.00049351
-0.00049351
0.000136476
0.000136476
-0.00011043
-0.00011043
-0.00109739
-0.00109739
-0.000237585
-0.000237585
-0.00099752
-0.00099752
0.000508724
0.000508724
0.000219008
0.000219008
-0.000331925
-0.000331925
7.72418e-05
7.72418e-05
-0.000148219
-0.000148219
0.000295015
0.000295015
-0.000594352
-0.000594352
0.000649869
0.000649869
7.13704e-05
7.13704e-05
1.47466e-05
1.47466e-05
-0.00115374
-0.00115374
-0.00141225
-0.00141225
-0.00368702
-0.00368702
-0.00131506
-0.00131506
0.000467013
0.000467013
8.86334e-05
8.86334e-05
-0.000135147
-0.000135147
-0.00100462
-0.00100462
-9.42522e-05
-9.42522e-05
0.00162108
0.00162108
-0.00114794
-0.00114794
-5.29128e-05
-5.29128e-05
-0.00134007
-0.00134007
-0.00107414
-0.00107414
-0.000163995
-0.000163995
0.000199569
0.000199569
0.000263533
0.000263533
0.000621499
0.000621499
-0.000136587
-0.000136587
-0.00169688
-0.00169688
-0.000646865
-0.000646865
-0.000466341
-0.000466341
-0.000439986
-0.000439986
1.98372e-05
1.98372e-05
0.000337522
0.000337522
-0.000654214
-0.000654214
0.00111225
0.00111225
0.000321529
0.000321529
0.000680008
0.000680008
0.000554985
0.000554985
-0.000696989
-0.000696989
0.000227731
0.000227731
0.000151666
0.000151666
-0.00129117
-0.00129117
2.29605e-05
2.29605e-05
0.000538499
0.000538499
-0.000231959
-0.000231959
-0.00217878
-0.00217878
0.000141469
0.000141469
0.00122923
0.00122923
0.000221217
0.000221217
0.000819135
0.000819135
-0.00021666
-0.00021666
-9.18371e-05
-9.18371e-05
0.000476269
0.000476269
0.000523054
0.000523054
-0.0001117
-0.0001117
0.000158639
0.000158639
-0.000850206
-0.000850206
-0.000989877
-0.000989877
-0.000288361
-0.000288361
-0.000244228
-0.000244228
-0.000143388
-0.000143388
-0.000880413
-0.000880413
1.75962e-05
1.75962e-05
-0.000201337
-0.000201337
0.000155639
0.000155639
0.000635468
0.000635468
7.72047e-05
7.72047e-05
5.17524e-05
5.17524e-05
-0.000638375
-0.000638375
5.25973e-05
5.25973e-05
0.000186679
0.000186679
0.000923351
0.000923351
-2.88325e-05
-2.88325e-05
8.26599e-05
8.26599e-05
-0.000128894
-0.000128894
-0.000494864
-0.000494864
-0.000478827
-0.000478827
-0.000133467
-0.000133467
0.0001861
0.0001861
0.00134104
0.00134104
0.000827268
0.000827268
-0.000789053
-0.000789053
-0.000205651
-0.000205651
-8.42899e-05
-8.42899e-05
-0.00141376
-0.00141376
-4.40397e-05
-4.40397e-05
0.000113764
0.000113764
0.000118134
0.000118134
0.000423802
0.000423802
-9.80035e-05
-9.80035e-05
4.90299e-06
4.90299e-06
-0.000739251
-0.000739251
0.000134647
0.000134647
0.000356214
0.000356214
-0.000117546
-0.000117546
0.000683586
0.000683586
0.00226816
0.00226816
-0.00109209
-0.00109209
-0.00068181
-0.00068181
-0.000613
-0.000613
0.000187878
0.000187878
-0.000429669
-0.000429669
0.000527113
0.000527113
0.000630513
0.000630513
-8.25569e-05
-8.25569e-05
0.00110369
0.00110369
-0.000468077
-0.000468077
7.71018e-05
7.71018e-05
-0.00165293
-0.00165293
0.000198263
0.000198263
0.00096619
0.00096619
-0.000144089
-0.000144089
-0.000197972
-0.000197972
0.000892775
0.000892775
0.000303921
0.000303921
-0.000191934
-0.000191934
0.00153523
0.00153523
0.000204438
0.000204438
-0.000186167
-0.000186167
-0.000145767
-0.000145767
-0.00019856
-0.00019856
-0.000328738
-0.000328738
0.0022774
0.0022774
0.000572569
0.000572569
-0.000105988
-0.000105988
-0.000392425
-0.000392425
0.000134497
0.000134497
-0.00149226
-0.00149226
5.56029e-05
5.56029e-05
0.000127442
0.000127442
0.000188008
0.000188008
0.000115913
0.000115913
-0.00107565
-0.00107565
0.000139469
0.000139469
0.000155098
0.000155098
-0.000200626
-0.000200626
0.000154119
0.000154119
-1.31885e-05
-1.31885e-05
0.000237079
0.000237079
-0.00183118
-0.00183118
-0.000244215
-0.000244215
-6.9129e-05
-6.9129e-05
-0.000146577
-0.000146577
-4.56682e-05
-4.56682e-05
7.41398e-05
7.41398e-05
0.000113413
0.000113413
0.000379505
0.000379505
-0.000254446
-0.000254446
-0.000819454
-0.000819454
-0.000111466
-0.000111466
0.0034402
0.0034402
-0.000132817
-0.000132817
-0.000581179
-0.000581179
0.000598469
0.000598469
-0.00292606
-0.00292606
-0.000520651
-0.000520651
-0.000949451
-0.000949451
0.00202179
0.00202179
-1.25211e-05
-1.25211e-05
0.000139966
0.000139966
-0.000397419
-0.000397419
-0.000249532
-0.000249532
0.000159702
0.000159702
-0.000711407
-0.000711407
-0.00185753
-0.00185753
-0.000508738
-0.000508738
-4.0413e-05
-4.0413e-05
5.89796e-05
5.89796e-05
-5.56468e-05
-5.56468e-05
-0.00024054
-0.00024054
-0.00159647
-0.00159647
-0.000136447
-0.000136447
-0.00171701
-0.00171701
0.000119097
0.000119097
-0.00034685
-0.00034685
0.0001981
0.0001981
-0.000431589
-0.000431589
-0.00036806
-0.00036806
-0.00027319
-0.00027319
-0.000467419
-0.000467419
-0.00167224
-0.00167224
0.00021886
0.00021886
-0.000115284
-0.000115284
0.000459653
0.000459653
-4.79358e-05
-4.79358e-05
0.000386017
0.000386017
-0.00010285
-0.00010285
0.000428745
0.000428745
-0.00115228
-0.00115228
-0.000247745
-0.000247745
0.00140966
0.00140966
1.00249e-06
1.00249e-06
-0.000303781
-0.000303781
0.00038152
0.00038152
0.000237915
0.000237915
-0.000443265
-0.000443265
0.000136737
0.000136737
0.00190042
0.00190042
-7.01544e-05
-7.01544e-05
-0.000146653
-0.000146653
0.000383971
0.000383971
-0.00044829
-0.00044829
-7.76687e-05
-7.76687e-05
0.000143298
0.000143298
-6.61419e-05
-6.61419e-05
0.00126249
0.00126249
0.000184393
0.000184393
2.275e-05
2.275e-05
-5.59872e-05
-5.59872e-05
-0.000125622
-0.000125622
0.000250177
0.000250177
0.000209855
0.000209855
-0.000184251
-0.000184251
-0.00126451
-0.00126451
0.000335002
0.000335002
-4.26105e-05
-4.26105e-05
1.76597e-05
1.76597e-05
2.32204e-05
2.32204e-05
-0.00120339
-0.00120339
0.000141978
0.000141978
0.000478374
0.000478374
-0.000401126
-0.000401126
-3.86892e-05
-3.86892e-05
-0.000789383
-0.000789383
0.000199036
0.000199036
4.28432e-05
4.28432e-05
-2.9244e-05
-2.9244e-05
0.000106219
0.000106219
0.00292917
0.00292917
0.00108774
0.00108774
0.000880014
0.000880014
-5.25094e-05
-5.25094e-05
-0.000351455
-0.000351455
-0.000123353
-0.000123353
0.000607539
0.000607539
-0.000437112
-0.000437112
0.0001172
0.0001172
-0.000147154
-0.000147154
-0.000393005
-0.000393005
-0.00200243
-0.00200243
-8.66715e-05
-8.66715e-05
-0.000200184
-0.000200184
-0.000259443
-0.000259443
0.000118157
0.000118157
-0.00112422
-0.00112422
-0.000109117
-0.000109117
0.000251302
0.000251302
-0.000259672
-0.000259672
-0.000206695
-0.000206695
0.000144582
0.000144582
-0.00334813
-0.00334813
4.6904e-05
4.6904e-05
-4.76934e-05
-4.76934e-05
-0.000758183
-0.000758183
2.17794e-05
2.17794e-05
-0.000282411
-0.000282411
0.000129487
0.000129487
-0.000264128
-0.000264128
-9.41832e-05
-9.41832e-05
0.000137019
0.000137019
0.000143617
0.000143617
0.000110271
0.000110271
0.000835366
0.000835366
-0.000562175
-0.000562175
0.000947806
0.000947806
-0.000291236
-0.000291236
0.0011712
0.0011712
-0.000180853
-0.000180853
-0.000241589
-0.000241589
-0.000297925
-0.000297925
7.70954e-05
7.70954e-05
-0.000148742
-0.000148742
-0.000134507
-0.000134507
8.94878e-05
8.94878e-05
-0.000243358
-0.000243358
2.52455e-05
2.52455e-05
-0.000130064
-0.000130064
0.00179369
0.00179369
0.000121381
0.000121381
-0.000169468
-0.000169468
-0.00035439
-0.00035439
7.06686e-05
7.06686e-05
0.000622934
0.000622934
-0.000651433
-0.000651433
-0.000154016
-0.000154016
-0.000150778
-0.000150778
-2.87024e-05
-2.87024e-05
-0.0015542
-0.0015542
-5.71935e-05
-5.71935e-05
0.00192969
0.00192969
-0.000286201
-0.000286201
-6.37968e-05
-6.37968e-05
0.00028421
0.00028421
-0.000315068
-0.000315068
0.00165554
0.00165554
-0.000511894
-0.000511894
-0.000117508
-0.000117508
-0.000189232
-0.000189232
-0.000200087
-0.000200087
0.000103367
0.000103367
0.00028413
0.00028413
0.00013341
0.00013341
-5.81341e-05
-5.81341e-05
-0.000937765
-0.000937765
-0.000140525
-0.000140525
5.4117e-05
5.4117e-05
6.80247e-05
6.80247e-05
-0.000832538
-0.000832538
0.0013547
0.0013547
7.22242e-05
7.22242e-05
0.000958891
0.000958891
0.000338735
0.000338735
0.000904946
0.000904946
-7.75016e-05
-7.75016e-05
-0.00019561
-0.00019561
0.000210916
0.000210916
-0.000277563
-0.000277563
0.00189731
0.00189731
-0.000142989
-0.000142989
0.000859756
0.000859756
0.00034964
0.00034964
-0.00332788
-0.00332788
0.00179728
0.00179728
-7.1775e-05
-7.1775e-05
-0.00012815
-0.00012815
0.00255842
0.00255842
0.000311537
0.000311537
5.27765e-05
5.27765e-05
0.00168319
0.00168319
0.000120527
0.000120527
0.000904639
0.000904639
0.000229442
0.000229442
-1.70159e-05
-1.70159e-05
-0.000298162
-0.000298162
0.000246455
0.000246455
-0.000283485
-0.000283485
-0.00203954
-0.00203954
0.000288954
0.000288954
8.89225e-05
8.89225e-05
-0.00243246
-0.00243246
-3.08042e-05
-3.08042e-05
-0.000991396
-0.000991396
0.000146927
0.000146927
-0.000129077
-0.000129077
0.000189574
0.000189574
0.000193953
0.000193953
-0.000132941
-0.000132941
1.8819e-05
1.8819e-05
-0.000299775
-0.000299775
-7.4515e-05
-7.4515e-05
0.000906128
0.000906128
-5.1394e-05
-5.1394e-05
0.000103
0.000103
5.73171e-05
5.73171e-05
0.000650865
0.000650865
-0.000265465
-0.000265465
-2.86984e-05
-2.86984e-05
0.000120099
0.000120099
-0.00246018
-0.00246018
0.000159655
0.000159655
-7.59643e-05
-7.59643e-05
0.00030196
0.00030196
-2.57903e-05
-2.57903e-05
5.14773e-05
5.14773e-05
-0.000101626
-0.000101626
3.33795e-05
3.33795e-05
-8.23572e-05
-8.23572e-05
0.00065509
0.00065509
-0.000185579
-0.000185579
0.000900925
0.000900925
-0.000817964
-0.000817964
-0.00092613
-0.00092613
0.00209588
0.00209588
4.42836e-06
4.42836e-06
0.00281156
0.00281156
0.00186273
0.00186273
-6.9339e-05
-6.9339e-05
-0.00190912
-0.00190912
-0.000189086
-0.000189086
0.000827412
0.000827412
0.00025446
0.00025446
-0.000969917
-0.000969917
1.45474e-05
1.45474e-05
-5.77496e-05
-5.77496e-05
0.000387052
0.000387052
-0.00314598
-0.00314598
-7.82716e-05
-7.82716e-05
0.00239474
0.00239474
6.63123e-05
6.63123e-05
0.000122451
0.000122451
0.00162753
0.00162753
-0.000191953
-0.000191953
7.46697e-05
7.46697e-05
-0.000537639
-0.000537639
0.00222363
0.00222363
-0.00253032
-0.00253032
0.00065596
0.00065596
-0.00129933
-0.00129933
-0.000430892
-0.000430892
-0.00074319
-0.00074319
0.00034036
0.00034036
8.44798e-05
8.44798e-05
-0.000255561
-0.000255561
0.000783799
0.000783799
-0.000905895
-0.000905895
-4.26965e-05
-4.26965e-05
0.00319044
0.00319044
0.00050206
0.00050206
0.000136008
0.000136008
-0.00129619
-0.00129619
-0.000385905
-0.000385905
0.000298805
0.000298805
-0.000560419
-0.000560419
0.000245703
0.000245703
-0.000110096
-0.000110096
0.00016868
0.00016868
0.00174598
0.00174598
0.000264951
0.000264951
-0.00116274
-0.00116274
0.000454133
0.000454133
-5.55892e-05
-5.55892e-05
-0.000501947
-0.000501947
0.00103457
0.00103457
-0.000384913
-0.000384913
0.00154355
0.00154355
-0.000139581
-0.000139581
0.000891795
0.000891795
-0.00244437
-0.00244437
-0.000217765
-0.000217765
-0.000355879
-0.000355879
-0.000371722
-0.000371722
-0.000158646
-0.000158646
0.000166979
0.000166979
0.00186737
0.00186737
0.000162453
0.000162453
-0.000553864
-0.000553864
-0.000115289
-0.000115289
-9.12235e-05
-9.12235e-05
3.53719e-05
3.53719e-05
-0.00164957
-0.00164957
-6.09218e-05
-6.09218e-05
-0.000854014
-0.000854014
-4.06659e-05
-4.06659e-05
1.29655e-06
1.29655e-06
-0.000294552
-0.000294552
-0.000412321
-0.000412321
-0.000812219
-0.000812219
-0.00192254
-0.00192254
-0.000229285
-0.000229285
0.000683514
0.000683514
0.000375569
0.000375569
4.89462e-05
4.89462e-05
4.8834e-05
4.8834e-05
0.000209244
0.000209244
4.04659e-05
4.04659e-05
-9.82764e-05
-9.82764e-05
-2.11267e-05
-2.11267e-05
0.000319087
0.000319087
-0.000126428
-0.000126428
5.00362e-05
5.00362e-05
4.52358e-05
4.52358e-05
4.62995e-06
4.62995e-06
0.000981759
0.000981759
-0.000515742
-0.000515742
2.24099e-06
2.24099e-06
-0.000706791
-0.000706791
0.000780269
0.000780269
-1.71712e-06
-1.71712e-06
7.27185e-05
7.27185e-05
-3.57877e-05
-3.57877e-05
-0.000213131
-0.000213131
1.30276e-05
1.30276e-05
-0.000332234
-0.000332234
0.000297125
0.000297125
-6.49405e-05
-6.49405e-05
0.00024825
0.00024825
2.77254e-06
2.77254e-06
0.000129148
0.000129148
0.00122583
0.00122583
0.00011932
0.00011932
0.000517201
0.000517201
2.37135e-05
2.37135e-05
-0.000143537
-0.000143537
2.58876e-05
2.58876e-05
0.0008186
0.0008186
0.000197687
0.000197687
-0.000472732
-0.000472732
-9.33859e-05
-9.33859e-05
-0.00116318
-0.00116318
3.74405e-05
3.74405e-05
0.00087885
0.00087885
-0.000672569
-0.000672569
0.000276194
0.000276194
-7.14576e-05
-7.14576e-05
-0.000605163
-0.000605163
-0.000192098
-0.000192098
-0.00127855
-0.00127855
0.000423374
0.000423374
-2.9808e-05
-2.9808e-05
-0.000721414
-0.000721414
-3.76412e-05
-3.76412e-05
0.00175611
0.00175611
-0.000141208
-0.000141208
0.000196995
0.000196995
0.000217559
0.000217559
-0.00205899
-0.00205899
0.000193047
0.000193047
-8.80142e-05
-8.80142e-05
0.000293665
0.000293665
-0.000347403
-0.000347403
-0.000147028
-0.000147028
-0.00017076
-0.00017076
0.00141314
0.00141314
-0.000372924
-0.000372924
0.00161206
0.00161206
-0.000804004
-0.000804004
1.54503e-06
1.54503e-06
-7.4817e-06
-7.4817e-06
0.00115284
0.00115284
0.000349635
0.000349635
9.31512e-05
9.31512e-05
-0.000313237
-0.000313237
-9.24325e-05
-9.24325e-05
0.00173581
0.00173581
-3.53965e-05
-3.53965e-05
0.000697787
0.000697787
-0.000198526
-0.000198526
-0.00026404
-0.00026404
8.37072e-05
8.37072e-05
0.00120096
0.00120096
1.26018e-05
1.26018e-05
0.000394925
0.000394925
0.000118318
0.000118318
-0.000673687
-0.000673687
0.000307338
0.000307338
-0.00207885
-0.00207885
-0.000105127
-0.000105127
0.000265098
0.000265098
-0.000845246
-0.000845246
0.00104545
0.00104545
0.000146304
0.000146304
-0.000285047
-0.000285047
-0.000108919
-0.000108919
-0.000759835
-0.000759835
0.00097374
0.00097374
-0.000121636
-0.000121636
0.000429986
0.000429986
-0.000304601
-0.000304601
-7.84782e-05
-7.84782e-05
-0.000217994
-0.000217994
0.000156894
0.000156894
-0.000774428
-0.000774428
-0.000202582
-0.000202582
-0.000149728
-0.000149728
3.40008e-06
3.40008e-06
0.000115975
0.000115975
-8.66942e-05
-8.66942e-05
-8.40278e-05
-8.40278e-05
-0.000186237
-0.000186237
-0.000212572
-0.000212572
-0.000300525
-0.000300525
-0.00062591
-0.00062591
-0.000915103
-0.000915103
4.14054e-05
4.14054e-05
0.000136808
0.000136808
0.000242689
0.000242689
0.00278313
0.00278313
0.000267129
0.000267129
-0.000146862
-0.000146862
0.000294281
0.000294281
-0.000329745
-0.000329745
-0.000123085
-0.000123085
-4.82307e-05
-4.82307e-05
0.00019952
0.00019952
0.000105703
0.000105703
-5.2791e-06
-5.2791e-06
-0.000511488
-0.000511488
-0.000497513
-0.000497513
-0.000432821
-0.000432821
0.000183979
0.000183979
-0.00132249
-0.00132249
0.000257315
0.000257315
0.000259443
0.000259443
0.000127256
0.000127256
-0.000186729
-0.000186729
0.000322663
0.000322663
0.000806534
0.000806534
-0.000342628
-0.000342628
-0.00188843
-0.00188843
0.0011431
0.0011431
0.0014931
0.0014931
0.000512551
0.000512551
0.000185714
0.000185714
0.000354086
0.000354086
-0.000659619
-0.000659619
9.72765e-05
9.72765e-05
-0.000436687
-0.000436687
-0.000875104
-0.000875104
0.00239146
0.00239146
-0.000557621
-0.000557621
0.000224996
0.000224996
-3.21567e-05
-3.21567e-05
0.000590439
0.000590439
5.11042e-06
5.11042e-06
-4.28863e-05
-4.28863e-05
-7.33723e-05
-7.33723e-05
-0.00086052
-0.00086052
0.000144278
0.000144278
7.23832e-05
7.23832e-05
-5.38854e-05
-5.38854e-05
-5.95446e-05
-5.95446e-05
-8.46939e-05
-8.46939e-05
-0.000233616
-0.000233616
-0.000460432
-0.000460432
0.000622447
0.000622447
0.000641487
0.000641487
-0.000149144
-0.000149144
-0.000210297
-0.000210297
0.00025465
0.00025465
-0.00132671
-0.00132671
0.000832453
0.000832453
0.000826085
0.000826085
0.00114045
0.00114045
-0.000849445
-0.000849445
0.000663511
0.000663511
-0.000224238
-0.000224238
0.000163364
0.000163364
-0.000120903
-0.000120903
0.00011389
0.00011389
-0.00120975
-0.00120975
-0.000223148
-0.000223148
0.00188219
0.00188219
0.000256465
0.000256465
-0.000362383
-0.000362383
-0.000303291
-0.000303291
8.12354e-05
8.12354e-05
7.52904e-05
7.52904e-05
-0.000323283
-0.000323283
-1.65377e-05
-1.65377e-05
0.000515704
0.000515704
0.000539257
0.000539257
-0.000362796
-0.000362796
0.000508883
0.000508883
-0.00075826
-0.00075826
-0.000237385
-0.000237385
-0.000395373
-0.000395373
-0.00114122
-0.00114122
-0.000368895
-0.000368895
-0.000169232
-0.000169232
-3.76874e-05
-3.76874e-05
-0.00218689
-0.00218689
-4.08432e-05
-4.08432e-05
0.000351646
0.000351646
-0.000171146
-0.000171146
0.00203184
0.00203184
-0.000102
-0.000102
0.00017249
0.00017249
-0.000200143
-0.000200143
0.000263208
0.000263208
-0.000336818
-0.000336818
0.000103245
0.000103245
-0.000253451
-0.000253451
-0.000283662
-0.000283662
0.000584261
0.000584261
-0.000194176
-0.000194176
0.00182186
0.00182186
-0.000539929
-0.000539929
0.00021515
0.00021515
4.67896e-05
4.67896e-05
-0.000135473
-0.000135473
-0.00047077
-0.00047077
-4.57621e-05
-4.57621e-05
-0.000276356
-0.000276356
-0.000209068
-0.000209068
0.000451415
0.000451415
0.000147027
0.000147027
8.73216e-05
8.73216e-05
-0.00289767
-0.00289767
-6.6996e-05
-6.6996e-05
-0.00272364
-0.00272364
-0.000349599
-0.000349599
0.000315573
0.000315573
-0.000602787
-0.000602787
-0.000322432
-0.000322432
-0.000233398
-0.000233398
7.69187e-06
7.69187e-06
-3.0186e-05
-3.0186e-05
-0.000336939
-0.000336939
0.00131892
0.00131892
0.000229167
0.000229167
0.000252485
0.000252485
-0.000588871
-0.000588871
0.00172305
0.00172305
-9.53491e-05
-9.53491e-05
2.44558e-05
2.44558e-05
-3.80291e-05
-3.80291e-05
-0.000346506
-0.000346506
0.000499558
0.000499558
-0.00029129
-0.00029129
0.000390626
0.000390626
-0.000129459
-0.000129459
-0.000148895
-0.000148895
0.000974183
0.000974183
-0.000127496
-0.000127496
-0.00257789
-0.00257789
0.000338777
0.000338777
0.000100749
0.000100749
1.2409e-05
1.2409e-05
-0.00157721
-0.00157721
0.000439144
0.000439144
0.00152583
0.00152583
-5.13355e-05
-5.13355e-05
-0.000173481
-0.000173481
0.000414721
0.000414721
-0.000305074
-0.000305074
-0.00104733
-0.00104733
-0.000125701
-0.000125701
0.000746758
0.000746758
0.00182747
0.00182747
0.000353905
0.000353905
-0.00131828
-0.00131828
-0.000221501
-0.000221501
-0.00144951
-0.00144951
0.000840637
0.000840637
-0.000404252
-0.000404252
0.000205303
0.000205303
-0.000199213
-0.000199213
0.00028078
0.00028078
0.000682149
0.000682149
4.81714e-05
4.81714e-05
0.000516112
0.000516112
-0.00277863
-0.00277863
3.62582e-05
3.62582e-05
0.000122868
0.000122868
0.000432205
0.000432205
3.03249e-05
3.03249e-05
-0.000669864
-0.000669864
6.32963e-05
6.32963e-05
2.5445e-05
2.5445e-05
-0.0013772
-0.0013772
0.000137611
0.000137611
3.14532e-05
3.14532e-05
6.09023e-05
6.09023e-05
6.5102e-05
6.5102e-05
-0.00050437
-0.00050437
0.000182303
0.000182303
-0.000450498
-0.000450498
0.000169601
0.000169601
-7.11215e-05
-7.11215e-05
0.000174294
0.000174294
1.30462e-05
1.30462e-05
0.000699365
0.000699365
-0.00148742
-0.00148742
0.0010157
0.0010157
0.000258198
0.000258198
-0.00054758
-0.00054758
-0.000122663
-0.000122663
0.000586315
0.000586315
-7.69785e-05
-7.69785e-05
-0.000183818
-0.000183818
0.000131095
0.000131095
-0.00189743
-0.00189743
0.00350501
0.00350501
-0.00103079
-0.00103079
0.00102348
0.00102348
-9.31665e-05
-9.31665e-05
-0.000299009
-0.000299009
5.71307e-05
5.71307e-05
-0.0014578
-0.0014578
-0.000102106
-0.000102106
-9.01245e-05
-9.01245e-05
-0.000837041
-0.000837041
-0.00221679
-0.00221679
-0.000644161
-0.000644161
-0.000162157
-0.000162157
-0.00127272
-0.00127272
0.000234458
0.000234458
0.000605288
0.000605288
0.00161742
0.00161742
0.00209459
0.00209459
0.00312127
0.00312127
6.27025e-05
6.27025e-05
-0.00103013
-0.00103013
-0.000144127
-0.000144127
6.9382e-06
6.9382e-06
0.000986424
0.000986424
0.000286262
0.000286262
1.6041e-05
1.6041e-05
-0.000195935
-0.000195935
-0.000249483
-0.000249483
0.00114966
0.00114966
-0.000242618
-0.000242618
7.64398e-05
7.64398e-05
-0.000272286
-0.000272286
-0.0016831
-0.0016831
-0.000453277
-0.000453277
0.00015606
0.00015606
0.0026109
0.0026109
-4.18533e-05
-4.18533e-05
0.000283908
0.000283908
-0.000292316
-0.000292316
-0.00148928
-0.00148928
2.81456e-07
2.81456e-07
0.000646553
0.000646553
-0.000938596
-0.000938596
0.00063882
0.00063882
-0.000128465
-0.000128465
0.0026632
0.0026632
-0.000203446
-0.000203446
0.0016541
0.0016541
-3.8157e-05
-3.8157e-05
-0.000150072
-0.000150072
-2.57336e-05
-2.57336e-05
0.000227613
0.000227613
-5.58488e-05
-5.58488e-05
-8.4295e-05
-8.4295e-05
-0.000971653
-0.000971653
-3.41642e-05
-3.41642e-05
0.000160161
0.000160161
-0.0003006
-0.0003006
0.000130341
0.000130341
0.0001094
0.0001094
-1.74197e-05
-1.74197e-05
-0.000851044
-0.000851044
-0.000865039
-0.000865039
-0.000606258
-0.000606258
0.00290934
0.00290934
-0.000174613
-0.000174613
-0.000101035
-0.000101035
-0.000189382
-0.000189382
0.000231679
0.000231679
0.00022476
0.00022476
0.00124516
0.00124516
-3.59441e-05
-3.59441e-05
0.000723837
0.000723837
-0.000121308
-0.000121308
-0.000334737
-0.000334737
-0.000138116
-0.000138116
-1.63942e-05
-1.63942e-05
0.00041295
0.00041295
-0.000460851
-0.000460851
-0.00195335
-0.00195335
0.00143332
0.00143332
0.00192281
0.00192281
0.000101412
0.000101412
-0.000585046
-0.000585046
0.000365334
0.000365334
0.000121042
0.000121042
0.000526121
0.000526121
0.000345357
0.000345357
1.40953e-05
1.40953e-05
-3.79078e-05
-3.79078e-05
-0.000125496
-0.000125496
0.00165624
0.00165624
-0.000379708
-0.000379708
0.000203462
0.000203462
0.00123208
0.00123208
0.00188934
0.00188934
-0.000138033
-0.000138033
0.000312349
0.000312349
0.000459803
0.000459803
0.00147171
0.00147171
9.36507e-05
9.36507e-05
-2.39693e-05
-2.39693e-05
2.454e-05
2.454e-05
-0.00147211
-0.00147211
0.00302472
0.00302472
-0.000369646
-0.000369646
6.90819e-05
6.90819e-05
0.000259681
0.000259681
0.000695693
0.000695693
0.00117225
0.00117225
8.13318e-05
8.13318e-05
0.00122057
0.00122057
-0.00139931
-0.00139931
0.000442769
0.000442769
0.000940027
0.000940027
-0.000313353
-0.000313353
0.000238268
0.000238268
-0.000261982
-0.000261982
-0.00105001
-0.00105001
-0.000131558
-0.000131558
-0.000454373
-0.000454373
-0.00207253
-0.00207253
0.000816615
0.000816615
0.000200971
0.000200971
0.000325627
0.000325627
-3.1392e-05
-3.1392e-05
-5.22415e-05
-5.22415e-05
-0.000106968
-0.000106968
0.000569988
0.000569988
0.00118916
0.00118916
-0.00045631
-0.00045631
-0.0018795
-0.0018795
0.000411795
0.000411795
0.001562
0.001562
-1.09837e-05
-1.09837e-05
0.000593435
0.000593435
5.85871e-05
5.85871e-05
-6.96355e-05
-6.96355e-05
0.000631372
0.000631372
-0.000344046
-0.000344046
0.000332099
0.000332099
-1.8349e-05
-1.8349e-05
0.000881295
0.000881295
-0.000789516
-0.000789516
8.86116e-06
8.86116e-06
-0.000291801
-0.000291801
-5.02911e-06
-5.02911e-06
-0.00112631
-0.00112631
0.00292968
0.00292968
-0.00210764
-0.00210764
-0.00125236
-0.00125236
0.000742446
0.000742446
0.000730126
0.000730126
0.00274726
0.00274726
0.000907759
0.000907759
7.66816e-05
7.66816e-05
-8.51761e-05
-8.51761e-05
-0.000213212
-0.000213212
-0.000288232
-0.000288232
-0.000120327
-0.000120327
0.00243825
0.00243825
0.00209437
0.00209437
-0.0011577
-0.0011577
-2.92329e-05
-2.92329e-05
-0.00025558
-0.00025558
-0.000129276
-0.000129276
-0.000921659
-0.000921659
-9.81765e-05
-9.81765e-05
7.9484e-05
7.9484e-05
0.000531994
0.000531994
0.000275884
0.000275884
0.000245231
0.000245231
0.000960696
0.000960696
2.17324e-06
2.17324e-06
0.00309935
0.00309935
-3.13729e-05
-3.13729e-05
0.00031316
0.00031316
-0.000128886
-0.000128886
-0.000828573
-0.000828573
-0.000782822
-0.000782822
-0.0013687
-0.0013687
0.000165385
0.000165385
0.000112481
0.000112481
-0.000530146
-0.000530146
0.000153188
0.000153188
0.0021735
0.0021735
0.000463137
0.000463137
-0.000507272
-0.000507272
7.17725e-05
7.17725e-05
0.000199733
0.000199733
0.000484814
0.000484814
0.00256945
0.00256945
0.00129354
0.00129354
-0.00152151
-0.00152151
0.00147767
0.00147767
0.000292918
0.000292918
-0.000382901
-0.000382901
-7.72953e-05
-7.72953e-05
0.000668003
0.000668003
-0.000506808
-0.000506808
-8.02026e-05
-8.02026e-05
-1.576e-06
-1.576e-06
0.000234983
0.000234983
0.00184449
0.00184449
-0.00148552
-0.00148552
0.000163144
0.000163144
0.000963117
0.000963117
0.000756494
0.000756494
7.58711e-05
7.58711e-05
0.000293463
0.000293463
-0.00014875
-0.00014875
-0.00021535
-0.00021535
-0.000668608
-0.000668608
-8.86402e-05
-8.86402e-05
-6.94653e-05
-6.94653e-05
-0.00018446
-0.00018446
0.000163623
0.000163623
0.000405048
0.000405048
0.000392853
0.000392853
0.000148008
0.000148008
-0.000484398
-0.000484398
0.00140459
0.00140459
-0.00128701
-0.00128701
-0.00102631
-0.00102631
0.000581657
0.000581657
0.000700307
0.000700307
-9.18348e-05
-9.18348e-05
0.000899331
0.000899331
-0.000175736
-0.000175736
-0.00233637
-0.00233637
-0.000152347
-0.000152347
0.00010996
0.00010996
-0.000360774
-0.000360774
-0.00217156
-0.00217156
0.00100378
0.00100378
-0.000268889
-0.000268889
2.63301e-05
2.63301e-05
-0.000222764
-0.000222764
0.000253115
0.000253115
-9.72285e-05
-9.72285e-05
0.000119308
0.000119308
-0.00223233
-0.00223233
0.000765866
0.000765866
0.000131955
0.000131955
-0.00313048
-0.00313048
0.000205875
0.000205875
4.17338e-06
4.17338e-06
-0.00135
-0.00135
8.79069e-05
8.79069e-05
-0.0018146
-0.0018146
0.000714098
0.000714098
-0.000122403
-0.000122403
0.000189054
0.000189054
0.000393894
0.000393894
0.00154217
0.00154217
-0.000216412
-0.000216412
-0.000144417
-0.000144417
-0.000306159
-0.000306159
7.21683e-07
7.21683e-07
0.000107234
0.000107234
0.00288526
0.00288526
2.27567e-05
2.27567e-05
0.000573874
0.000573874
0.000475099
0.000475099
0.00274773
0.00274773
-0.000413845
-0.000413845
-0.000100656
-0.000100656
-0.000184881
-0.000184881
-7.63265e-05
-7.63265e-05
-1.21555e-05
-1.21555e-05
-0.000143686
-0.000143686
0.000247275
0.000247275
0.000208236
0.000208236
-0.0001879
-0.0001879
-0.000113617
-0.000113617
-0.000311769
-0.000311769
0.00235291
0.00235291
-0.000548196
-0.000548196
2.90025e-05
2.90025e-05
0.000235352
0.000235352
-0.000470943
-0.000470943
-6.68236e-05
-6.68236e-05
0.000218565
0.000218565
0.000143462
0.000143462
-6.56667e-05
-6.56667e-05
7.62029e-05
7.62029e-05
0.000251103
0.000251103
5.76669e-05
5.76669e-05
0.000303172
0.000303172
0.000278439
0.000278439
-0.000169161
-0.000169161
0.000468477
0.000468477
-0.000400403
-0.000400403
-0.000387062
-0.000387062
-0.00204518
-0.00204518
0.000166011
0.000166011
-0.000186726
-0.000186726
0.000817131
0.000817131
-0.000622565
-0.000622565
0.00105424
0.00105424
-8.11817e-05
-8.11817e-05
-0.000190144
-0.000190144
0.000444647
0.000444647
2.51135e-05
2.51135e-05
0.000308411
0.000308411
0.00016252
0.00016252
-4.86157e-05
-4.86157e-05
-4.36628e-05
-4.36628e-05
-0.00088347
-0.00088347
-0.000195335
-0.000195335
0.000756414
0.000756414
0.000214402
0.000214402
-0.000133075
-0.000133075
-0.000154491
-0.000154491
-6.35466e-06
-6.35466e-06
-0.00143528
-0.00143528
0.000293246
0.000293246
0.000203962
0.000203962
-0.000312119
-0.000312119
0.000422703
0.000422703
0.000100413
0.000100413
-0.000163042
-0.000163042
-0.000180148
-0.000180148
-8.03947e-05
-8.03947e-05
-0.000214082
-0.000214082
-0.000161581
-0.000161581
-0.000730936
-0.000730936
-0.00141597
-0.00141597
0.000432591
0.000432591
-5.20655e-05
-5.20655e-05
-0.000522649
-0.000522649
-0.000721275
-0.000721275
-0.00117292
-0.00117292
-0.000299536
-0.000299536
0.000156929
0.000156929
0.00119484
0.00119484
0.00052864
0.00052864
-0.000335558
-0.000335558
-0.00014515
-0.00014515
-0.000247092
-0.000247092
-0.000101102
-0.000101102
0.000209108
0.000209108
9.63372e-05
9.63372e-05
0.000250502
0.000250502
-0.000236512
-0.000236512
-0.000520116
-0.000520116
-0.00177343
-0.00177343
-0.000201164
-0.000201164
0.000320493
0.000320493
-0.00045693
-0.00045693
-3.59218e-05
-3.59218e-05
0.00154913
0.00154913
-0.00030499
-0.00030499
-0.00043651
-0.00043651
0.000561385
0.000561385
-0.000827731
-0.000827731
-1.66975e-05
-1.66975e-05
0.000881204
0.000881204
0.000160756
0.000160756
0.000331338
0.000331338
0.000400756
0.000400756
-5.18763e-05
-5.18763e-05
5.41533e-05
5.41533e-05
-0.000318736
-0.000318736
-0.000204132
-0.000204132
-0.000195686
-0.000195686
5.51445e-05
5.51445e-05
0.000756425
0.000756425
0.000147402
0.000147402
-8.63379e-05
-8.63379e-05
0.000202925
0.000202925
0.00217422
0.00217422
0.000951959
0.000951959
0.00134583
0.00134583
-5.92798e-05
-5.92798e-05
-1.6681e-05
-1.6681e-05
0.000953482
0.000953482
-5.84852e-05
-5.84852e-05
0.000778482
0.000778482
0.00023903
0.00023903
0.000185499
0.000185499
0.000128805
0.000128805
-0.00312367
-0.00312367
-0.000421995
-0.000421995
-0.000871639
-0.000871639
-0.000168552
-0.000168552
-0.000147479
-0.000147479
2.78497e-05
2.78497e-05
1.65795e-05
1.65795e-05
2.67741e-05
2.67741e-05
-0.000147602
-0.000147602
5.73634e-05
5.73634e-05
-0.00105538
-0.00105538
-0.0009474
-0.0009474
0.000223553
0.000223553
0.00010119
0.00010119
0.0012599
0.0012599
-6.75313e-05
-6.75313e-05
-0.000175678
-0.000175678
0.000586455
0.000586455
0.000112206
0.000112206
0.00196806
0.00196806
-0.00037871
-0.00037871
0.000724433
0.000724433
0.000111491
0.000111491
-0.00186941
-0.00186941
0.000349688
0.000349688
-6.37101e-05
-6.37101e-05
0.00298374
0.00298374
-0.000164229
-0.000164229
-0.000128401
-0.000128401
-0.00132192
-0.00132192
-0.000986444
-0.000986444
0.000193243
0.000193243
0.000237475
0.000237475
-0.00209483
-0.00209483
-5.53448e-05
-5.53448e-05
0.00103699
0.00103699
0.000146084
0.000146084
-0.001488
-0.001488
-2.6348e-05
-2.6348e-05
0.000203887
0.000203887
0.00145655
0.00145655
-1.76078e-05
-1.76078e-05
-5.25139e-06
-5.25139e-06
0.000347141
0.000347141
-0.00107702
-0.00107702
0.000133413
0.000133413
-0.00178294
-0.00178294
-0.000217887
-0.000217887
3.81427e-05
3.81427e-05
-0.000326467
-0.000326467
-0.00113709
-0.00113709
0.00038201
0.00038201
0.000128319
0.000128319
0.000132602
0.000132602
-0.000342166
-0.000342166
-3.60854e-05
-3.60854e-05
0.000242491
0.000242491
-1.20441e-05
-1.20441e-05
0.000328973
0.000328973
6.65102e-05
6.65102e-05
-0.000492204
-0.000492204
0.000498118
0.000498118
0.000338064
0.000338064
-0.00188308
-0.00188308
-0.000980273
-0.000980273
-0.000158075
-0.000158075
-0.000415103
-0.000415103
6.51102e-05
6.51102e-05
-6.37138e-05
-6.37138e-05
0.000117662
0.000117662
0.000161152
0.000161152
0.000500094
0.000500094
0.000648023
0.000648023
-0.000178251
-0.000178251
0.000253553
0.000253553
0.000153026
0.000153026
0.00107087
0.00107087
0.000968526
0.000968526
0.000217332
0.000217332
0.000209403
0.000209403
0.00105302
0.00105302
-0.000813955
-0.000813955
5.51003e-05
5.51003e-05
0.000660396
0.000660396
-0.00207618
-0.00207618
-0.00217185
-0.00217185
-0.000133418
-0.000133418
0.000843535
0.000843535
-0.00010143
-0.00010143
9.77217e-05
9.77217e-05
-7.26682e-05
-7.26682e-05
-0.000892571
-0.000892571
-0.000211908
-0.000211908
-0.000356537
-0.000356537
-0.000570857
-0.000570857
0.00137331
0.00137331
-0.000961187
-0.000961187
-0.000224864
-0.000224864
0.000250361
0.000250361
-0.000392261
-0.000392261
0.000149696
0.000149696
-0.00136458
-0.00136458
-2.89874e-05
-2.89874e-05
-0.000103024
-0.000103024
0.000172584
0.000172584
0.000120239
0.000120239
0.000163643
0.000163643
-2.16525e-05
-2.16525e-05
0.000323699
0.000323699
0.000187822
0.000187822
-0.00016524
-0.00016524
0.00151683
0.00151683
0.000554851
0.000554851
0.000177174
0.000177174
0.000148146
0.000148146
-0.00121425
-0.00121425
7.20237e-06
7.20237e-06
-0.00244301
-0.00244301
0.000468504
0.000468504
-0.000176453
-0.000176453
0.000947357
0.000947357
0.000455313
0.000455313
0.00185685
0.00185685
0.000285971
0.000285971
0.000375913
0.000375913
-2.46392e-05
-2.46392e-05
1.07417e-05
1.07417e-05
0.00148785
0.00148785
-1.61142e-05
-1.61142e-05
7.64307e-05
7.64307e-05
0.000556345
0.000556345
0.00130465
0.00130465
-0.000701817
-0.000701817
1.12444e-06
1.12444e-06
0.00121941
0.00121941
0.000315127
0.000315127
0.000805078
0.000805078
-0.000344983
-0.000344983
1.19019e-05
1.19019e-05
-0.00423067
-0.00423067
0.000155896
0.000155896
1.88599e-05
1.88599e-05
-0.00169657
-0.00169657
5.02309e-05
5.02309e-05
-0.000274835
-0.000274835
0.000690031
0.000690031
-0.000168525
-0.000168525
0.000707093
0.000707093
5.31741e-06
5.31741e-06
0.000825252
0.000825252
-0.000304127
-0.000304127
0.000266789
0.000266789
0.000595468
0.000595468
-0.000453284
-0.000453284
-6.37286e-06
-6.37286e-06
0.000166922
0.000166922
-0.000195634
-0.000195634
0.000586395
0.000586395
0.000285953
0.000285953
-0.000714516
-0.000714516
5.93855e-05
5.93855e-05
-0.0021232
-0.0021232
0.000177405
0.000177405
0.00336089
0.00336089
-0.0016448
-0.0016448
0.000387506
0.000387506
-0.00014011
-0.00014011
0.00121552
0.00121552
-0.000238521
-0.000238521
-1.14877e-06
-1.14877e-06
0.00013249
0.00013249
-0.00017694
-0.00017694
0.000423903
0.000423903
-0.000114834
-0.000114834
-6.10025e-05
-6.10025e-05
2.42617e-05
2.42617e-05
-0.00159626
-0.00159626
0.000138911
0.000138911
-0.000368756
-0.000368756
2.83269e-05
2.83269e-05
0.000555726
0.000555726
0.000147903
0.000147903
0.000147469
0.000147469
0.000313785
0.000313785
0.00233048
0.00233048
4.85307e-05
4.85307e-05
0.000147978
0.000147978
0.00212099
0.00212099
-0.000645942
-0.000645942
0.000729941
0.000729941
2.78298e-05
2.78298e-05
-3.41757e-05
-3.41757e-05
0.00075535
0.00075535
-0.000184244
-0.000184244
-0.000600657
-0.000600657
0.000300912
0.000300912
-8.721e-05
-8.721e-05
7.46618e-06
7.46618e-06
0.00058755
0.00058755
3.41882e-06
3.41882e-06
0.000227229
0.000227229
-7.15411e-05
-7.15411e-05
-6.48063e-05
-6.48063e-05
-8.75249e-05
-8.75249e-05
-7.29037e-05
-7.29037e-05
-0.000276515
-0.000276515
-0.000223788
-0.000223788
0.00103299
0.00103299
0.000111111
0.000111111
-0.000457992
-0.000457992
0.000140048
0.000140048
7.3182e-05
7.3182e-05
0.000493383
0.000493383
0.00013678
0.00013678
3.83217e-05
3.83217e-05
-8.95928e-05
-8.95928e-05
-8.7292e-05
-8.7292e-05
-9.67469e-05
-9.67469e-05
0.000390811
0.000390811
-0.000169315
-0.000169315
-0.000390009
-0.000390009
-0.000288303
-0.000288303
7.78935e-05
7.78935e-05
0.000247438
0.000247438
-0.00246974
-0.00246974
0.000121864
0.000121864
0.000138691
0.000138691
-0.000345065
-0.000345065
0.000467732
0.000467732
-0.00089632
-0.00089632
1.60456e-05
1.60456e-05
0.000286897
0.000286897
0.000132049
0.000132049
-0.000229065
-0.000229065
0.000350289
0.000350289
0.000901001
0.000901001
-0.000377809
-0.000377809
-5.79941e-05
-5.79941e-05
-0.000137678
-0.000137678
5.14296e-05
5.14296e-05
-9.68839e-05
-9.68839e-05
-0.000634446
-0.000634446
0.000298751
0.000298751
-0.00180133
-0.00180133
0.00112022
0.00112022
0.000192348
0.000192348
-0.000109651
-0.000109651
-0.000486548
-0.000486548
-0.000176186
-0.000176186
0.000859455
0.000859455
-0.000482259
-0.000482259
2.82236e-05
2.82236e-05
0.00138991
0.00138991
0.001002
0.001002
-0.00151977
-0.00151977
-0.000141505
-0.000141505
0.000241292
0.000241292
-7.7916e-05
-7.7916e-05
-0.000193297
-0.000193297
4.16126e-05
4.16126e-05
-5.06931e-05
-5.06931e-05
0.000143251
0.000143251
1.02073e-05
1.02073e-05
-6.68841e-05
-6.68841e-05
0.00128073
0.00128073
2.83798e-05
2.83798e-05
0.000505037
0.000505037
-8.82385e-05
-8.82385e-05
-9.63099e-06
-9.63099e-06
0.000384062
0.000384062
0.00054912
0.00054912
-0.00165996
-0.00165996
0.000930474
0.000930474
5.13753e-05
5.13753e-05
-0.000262405
-0.000262405
-6.71637e-05
-6.71637e-05
-3.06274e-05
-3.06274e-05
0.000732306
0.000732306
5.16521e-05
5.16521e-05
-0.00128421
-0.00128421
0.000141122
0.000141122
0.000759562
0.000759562
0.000171004
0.000171004
-0.000120232
-0.000120232
-0.000199834
-0.000199834
0.000308989
0.000308989
-1.07648e-05
-1.07648e-05
0.000142292
0.000142292
0.00012454
0.00012454
-0.0016626
-0.0016626
0.00028927
0.00028927
-0.000103525
-0.000103525
4.32556e-05
4.32556e-05
-9.66164e-06
-9.66164e-06
-0.000165217
-0.000165217
0.00221013
0.00221013
-0.00171655
-0.00171655
0.00255664
0.00255664
0.00042137
0.00042137
-0.000281145
-0.000281145
-2.90368e-05
-2.90368e-05
0.000305015
0.000305015
0.000159743
0.000159743
-2.39906e-05
-2.39906e-05
0.000360787
0.000360787
0.00159858
0.00159858
0.000462698
0.000462698
0.00155661
0.00155661
0.000308285
0.000308285
-0.000103645
-0.000103645
-0.000229753
-0.000229753
0.00151309
0.00151309
0.000577156
0.000577156
-0.000556767
-0.000556767
-0.000584338
-0.000584338
-0.000103534
-0.000103534
0.00012569
0.00012569
-0.00013339
-0.00013339
-0.00018094
-0.00018094
0.000946823
0.000946823
-0.000264654
-0.000264654
0.000238681
0.000238681
-0.000119492
-0.000119492
-0.000116574
-0.000116574
0.000956929
0.000956929
-8.69455e-05
-8.69455e-05
0.000585223
0.000585223
-0.00049202
-0.00049202
-3.68145e-05
-3.68145e-05
0.00025626
0.00025626
-1.95634e-06
-1.95634e-06
-0.000238948
-0.000238948
-0.00193789
-0.00193789
-0.00137253
-0.00137253
-0.000166622
-0.000166622
-4.80056e-05
-4.80056e-05
-0.000643961
-0.000643961
-8.84097e-05
-8.84097e-05
-0.000588188
-0.000588188
-0.000260352
-0.000260352
0.000306959
0.000306959
-0.000864874
-0.000864874
6.13974e-05
6.13974e-05
0.00214783
0.00214783
0.000119529
0.000119529
-0.000629909
-0.000629909
-0.000233329
-0.000233329
-0.000232353
-0.000232353
-0.000664985
-0.000664985
-6.72857e-05
-6.72857e-05
0.00241298
0.00241298
0.000216381
0.000216381
6.91522e-05
6.91522e-05
0.00111669
0.00111669
0.000515375
0.000515375
-0.000639254
-0.000639254
0.00295215
0.00295215
-1.59083e-05
-1.59083e-05
-0.00281549
-0.00281549
0.000298103
0.000298103
-0.000380163
-0.000380163
-3.83065e-05
-3.83065e-05
-8.73289e-05
-8.73289e-05
0.000681554
0.000681554
0.000247574
0.000247574
-1.30567e-05
-1.30567e-05
0.000321226
0.000321226
-0.00073973
-0.00073973
0.000985742
0.000985742
0.00130087
0.00130087
-0.00034054
-0.00034054
0.000206867
0.000206867
-0.000460543
-0.000460543
-1.89169e-05
-1.89169e-05
-0.000129809
-0.000129809
-0.000142551
-0.000142551
-0.000514803
-0.000514803
-0.000292224
-0.000292224
0.000128918
0.000128918
0.000277118
0.000277118
9.25486e-05
9.25486e-05
0.00193496
0.00193496
0.00033906
0.00033906
0.00100283
0.00100283
-0.000869291
-0.000869291
-0.000593878
-0.000593878
-0.00015235
-0.00015235
-9.38985e-05
-9.38985e-05
6.90397e-05
6.90397e-05
-0.00179648
-0.00179648
0.00274597
0.00274597
-0.000351227
-0.000351227
-0.00182611
-0.00182611
0.00127623
0.00127623
-0.00162086
-0.00162086
-0.000467325
-0.000467325
0.000588848
0.000588848
0.00161045
0.00161045
0.000223575
0.000223575
-0.00281188
-0.00281188
-6.50957e-05
-6.50957e-05
3.81573e-05
3.81573e-05
0.000173141
0.000173141
-9.08633e-05
-9.08633e-05
-0.000128312
-0.000128312
0.000220094
0.000220094
0.0010514
0.0010514
0.000165578
0.000165578
0.00192333
0.00192333
0.000601332
0.000601332
0.00213396
0.00213396
-0.000115862
-0.000115862
-3.97267e-05
-3.97267e-05
0.000320571
0.000320571
0.000115637
0.000115637
4.80731e-05
4.80731e-05
-0.000263209
-0.000263209
-0.00121918
-0.00121918
-0.000169383
-0.000169383
0.000198614
0.000198614
1.8215e-05
1.8215e-05
0.00106854
0.00106854
-0.000700884
-0.000700884
-8.86396e-06
-8.86396e-06
0.00106256
0.00106256
-5.1695e-05
-5.1695e-05
-7.12993e-05
-7.12993e-05
0.000315277
0.000315277
0.00013014
0.00013014
0.00146455
0.00146455
-0.000419779
-0.000419779
-9.17854e-05
-9.17854e-05
3.12827e-05
3.12827e-05
-0.00188897
-0.00188897
5.50337e-06
5.50337e-06
0.000439189
0.000439189
0.000295616
0.000295616
-6.43804e-05
-6.43804e-05
-0.000142545
-0.000142545
-5.25022e-05
-5.25022e-05
0.00244078
0.00244078
-8.77078e-05
-8.77078e-05
0.00126066
0.00126066
0.000748549
0.000748549
-8.01299e-05
-8.01299e-05
-0.000268589
-0.000268589
0.000306835
0.000306835
2.74953e-05
2.74953e-05
-7.34672e-05
-7.34672e-05
0.000512102
0.000512102
0.00241311
0.00241311
3.15773e-06
3.15773e-06
-0.000142579
-0.000142579
0.00176145
0.00176145
8.25196e-05
8.25196e-05
-0.000502051
-0.000502051
0.00108487
0.00108487
0.000129249
0.000129249
-0.000287827
-0.000287827
-7.41755e-05
-7.41755e-05
2.11205e-05
2.11205e-05
4.85811e-05
4.85811e-05
0.000143485
0.000143485
-0.00158037
-0.00158037
0.00169074
0.00169074
-0.000202678
-0.000202678
-0.000371319
-0.000371319
0.00114098
0.00114098
0.000138339
0.000138339
-0.00194875
-0.00194875
0.000113937
0.000113937
-0.000332894
-0.000332894
0.00110799
0.00110799
-0.000254744
-0.000254744
9.12869e-05
9.12869e-05
-0.0017955
-0.0017955
0.000218079
0.000218079
0.000462848
0.000462848
-0.00122514
-0.00122514
0.000363348
0.000363348
0.000341518
0.000341518
0.000747931
0.000747931
-0.001245
-0.001245
7.25409e-05
7.25409e-05
-0.000243276
-0.000243276
-0.000181696
-0.000181696
-0.000104101
-0.000104101
-0.000208975
-0.000208975
-0.000167966
-0.000167966
0.000257346
0.000257346
-0.000212266
-0.000212266
0.000434076
0.000434076
-0.000202234
-0.000202234
0.000276422
0.000276422
-7.66191e-05
-7.66191e-05
-2.53839e-05
-2.53839e-05
-0.00166748
-0.00166748
-9.43275e-05
-9.43275e-05
-0.000338048
-0.000338048
0.000111002
0.000111002
-0.00036971
-0.00036971
0.000219253
0.000219253
-0.000106361
-0.000106361
0.000584919
0.000584919
-0.000812732
-0.000812732
2.86684e-05
2.86684e-05
0.000255844
0.000255844
0.000151827
0.000151827
-7.81025e-05
-7.81025e-05
-0.000115506
-0.000115506
9.02187e-05
9.02187e-05
0.000104938
0.000104938
-0.00047072
-0.00047072
8.87983e-05
8.87983e-05
0.000609631
0.000609631
-0.00135257
-0.00135257
0.000138224
0.000138224
-0.000134966
-0.000134966
0.0004783
0.0004783
-0.000231888
-0.000231888
0.000261753
0.000261753
-6.34311e-05
-6.34311e-05
-6.50247e-05
-6.50247e-05
0.0015969
0.0015969
0.00041118
0.00041118
6.92928e-05
6.92928e-05
0.00109381
0.00109381
0.000585814
0.000585814
-0.00120426
-0.00120426
7.41217e-05
7.41217e-05
-4.49954e-05
-4.49954e-05
-0.000779702
-0.000779702
-0.000222888
-0.000222888
-0.00128582
-0.00128582
0.000591817
0.000591817
4.45607e-05
4.45607e-05
-0.000528809
-0.000528809
0.000425385
0.000425385
0.000242527
0.000242527
-3.56094e-05
-3.56094e-05
0.000124732
0.000124732
-0.000159698
-0.000159698
3.17241e-05
3.17241e-05
-0.000171532
-0.000171532
0.000209202
0.000209202
0.000791688
0.000791688
-7.11729e-05
-7.11729e-05
0.000630486
0.000630486
0.00140922
0.00140922
-6.81627e-05
-6.81627e-05
0.000112905
0.000112905
6.53774e-05
6.53774e-05
-0.000162373
-0.000162373
0.000301624
0.000301624
-0.000274915
-0.000274915
-0.000683983
-0.000683983
-0.000182457
-0.000182457
-0.00197868
-0.00197868
0.000503858
0.000503858
-0.000973108
-0.000973108
-0.000521551
-0.000521551
0.000418697
0.000418697
-0.00182145
-0.00182145
0.000161889
0.000161889
1.24937e-06
1.24937e-06
-0.00102466
-0.00102466
0.000149577
0.000149577
-0.000242897
-0.000242897
0.00128933
0.00128933
-0.000534637
-0.000534637
-1.37255e-05
-1.37255e-05
-0.00012001
-0.00012001
-0.000766621
-0.000766621
0.000463907
0.000463907
0.00027307
0.00027307
0.00023947
0.00023947
0.000243522
0.000243522
0.000148317
0.000148317
0.000604979
0.000604979
0.0010925
0.0010925
-0.000241087
-0.000241087
-0.000759148
-0.000759148
-0.00167754
-0.00167754
-0.000207711
-0.000207711
0.000132223
0.000132223
-0.000303619
-0.000303619
-1.5013e-06
-1.5013e-06
-1.10753e-05
-1.10753e-05
-0.0017309
-0.0017309
-4.00315e-05
-4.00315e-05
0.000102793
0.000102793
-2.44481e-05
-2.44481e-05
-0.00034821
-0.00034821
-0.000121359
-0.000121359
-0.000788404
-0.000788404
-6.90655e-05
-6.90655e-05
-0.000110328
-0.000110328
0.000156499
0.000156499
7.21554e-05
7.21554e-05
0.000724234
0.000724234
-0.000531749
-0.000531749
-9.508e-05
-9.508e-05
3.25034e-05
3.25034e-05
0.000209204
0.000209204
-0.000764688
-0.000764688
-0.00220131
-0.00220131
-7.77761e-05
-7.77761e-05
0.00252114
0.00252114
0.000304151
0.000304151
-0.000294256
-0.000294256
-0.000369867
-0.000369867
0.00268814
0.00268814
5.89546e-05
5.89546e-05
-0.000312503
-0.000312503
0.00015883
0.00015883
-0.000640607
-0.000640607
-0.00058126
-0.00058126
-0.00262457
-0.00262457
0.000955816
0.000955816
-0.00109758
-0.00109758
0.000309847
0.000309847
2.50636e-05
2.50636e-05
0.000143838
0.000143838
4.32317e-05
4.32317e-05
-0.000164688
-0.000164688
0.000789085
0.000789085
-0.00136707
-0.00136707
-0.000129268
-0.000129268
9.27865e-07
9.27865e-07
-0.000314523
-0.000314523
-0.000231371
-0.000231371
0.000148045
0.000148045
-0.000281488
-0.000281488
0.000278192
0.000278192
-0.000985463
-0.000985463
0.000647357
0.000647357
0.000822188
0.000822188
0.000153945
0.000153945
5.9357e-06
5.9357e-06
0.000677355
0.000677355
-0.00101136
-0.00101136
0.000166067
0.000166067
0.000990673
0.000990673
-0.000111804
-0.000111804
-0.000207741
-0.000207741
0.000173973
0.000173973
0.000541047
0.000541047
0.000494983
0.000494983
0.000244303
0.000244303
0.00109134
0.00109134
-0.000152973
-0.000152973
0.000223058
0.000223058
0.000316146
0.000316146
-0.000101891
-0.000101891
-0.000230171
-0.000230171
-0.000133528
-0.000133528
0.00028077
0.00028077
-2.20733e-05
-2.20733e-05
0.000417274
0.000417274
-0.000223099
-0.000223099
0.000550587
0.000550587
7.13357e-05
7.13357e-05
0.000155865
0.000155865
-0.000206469
-0.000206469
-0.00205175
-0.00205175
-5.90923e-05
-5.90923e-05
-0.000423115
-0.000423115
0.000153033
0.000153033
0.00204647
0.00204647
-0.000127264
-0.000127264
2.90963e-05
2.90963e-05
0.000740194
0.000740194
-0.000383251
-0.000383251
0.000133089
0.000133089
4.8793e-06
4.8793e-06
-2.80395e-05
-2.80395e-05
4.37723e-05
4.37723e-05
-0.000133399
-0.000133399
-0.00193784
-0.00193784
-6.76402e-05
-6.76402e-05
0.00108811
0.00108811
-0.000331916
-0.000331916
-0.000279249
-0.000279249
-2.71348e-06
-2.71348e-06
-0.00036144
-0.00036144
0.000820162
0.000820162
-9.36238e-05
-9.36238e-05
0.000230652
0.000230652
-0.000337498
-0.000337498
-0.000130756
-0.000130756
-0.00178257
-0.00178257
0.000172636
0.000172636
-0.00330059
-0.00330059
-0.00140929
-0.00140929
5.42192e-05
5.42192e-05
-0.000812185
-0.000812185
0.000409168
0.000409168
-0.000306342
-0.000306342
-0.000585501
-0.000585501
0.000818921
0.000818921
0.000343387
0.000343387
0.000233253
0.000233253
0.000155971
0.000155971
-0.000134695
-0.000134695
5.17406e-05
5.17406e-05
0.000233272
0.000233272
-0.000674887
-0.000674887
0.000325249
0.000325249
2.12911e-05
2.12911e-05
8.89541e-05
8.89541e-05
-0.00191535
-0.00191535
-0.000104407
-0.000104407
0.0002382
0.0002382
-0.000135667
-0.000135667
6.47609e-05
6.47609e-05
-0.000447641
-0.000447641
0.000282209
0.000282209
3.64904e-05
3.64904e-05
-0.000326042
-0.000326042
-3.13517e-05
-3.13517e-05
-0.000148791
-0.000148791
0.000509648
0.000509648
-0.000151356
-0.000151356
0.000223964
0.000223964
9.49435e-05
9.49435e-05
0.00274257
0.00274257
-0.0013725
-0.0013725
-0.000135884
-0.000135884
-0.00202676
-0.00202676
-4.92121e-05
-4.92121e-05
0.000772699
0.000772699
0.000496236
0.000496236
-0.000415627
-0.000415627
0.000130073
0.000130073
-0.000210274
-0.000210274
0.00033611
0.00033611
0.000132794
0.000132794
-5.04893e-05
-5.04893e-05
0.000119323
0.000119323
-0.00125289
-0.00125289
0.000202146
0.000202146
-0.000996749
-0.000996749
0.000591104
0.000591104
-0.000104426
-0.000104426
-0.000771258
-0.000771258
3.66738e-05
3.66738e-05
-0.000631959
-0.000631959
-0.000106777
-0.000106777
0.00059022
0.00059022
-0.000268278
-0.000268278
0.00043497
0.00043497
-0.000344323
-0.000344323
0.000141128
0.000141128
0.00130402
0.00130402
0.00031295
0.00031295
5.72249e-06
5.72249e-06
-2.56546e-05
-2.56546e-05
-0.00027119
-0.00027119
0.000232871
0.000232871
-8.81505e-05
-8.81505e-05
0.000155048
0.000155048
-3.30835e-05
-3.30835e-05
5.48841e-05
5.48841e-05
5.60758e-05
5.60758e-05
0.00010266
0.00010266
0.000324692
0.000324692
-9.61023e-05
-9.61023e-05
0.0005759
0.0005759
0.000389117
0.000389117
-0.000195311
-0.000195311
-0.00133511
-0.00133511
0.00040828
0.00040828
-0.00027063
-0.00027063
-0.000132024
-0.000132024
3.10615e-05
3.10615e-05
-0.000285572
-0.000285572
-0.000596863
-0.000596863
7.10347e-05
7.10347e-05
-0.00073558
-0.00073558
-0.00165537
-0.00165537
-0.000247909
-0.000247909
0.000127081
0.000127081
0.000724432
0.000724432
0.000208779
0.000208779
0.000363944
0.000363944
0.000245667
0.000245667
8.61814e-05
8.61814e-05
0.000743568
0.000743568
4.88229e-05
4.88229e-05
0.000666301
0.000666301
5.57811e-05
5.57811e-05
-0.000282819
-0.000282819
-0.000430358
-0.000430358
-2.01957e-06
-2.01957e-06
-0.000426814
-0.000426814
4.23918e-05
4.23918e-05
-0.000491623
-0.000491623
0.000333865
0.000333865
0.000539801
0.000539801
-5.08524e-06
-5.08524e-06
-0.000195503
-0.000195503
0.000263933
0.000263933
-0.00238969
-0.00238969
0.00272227
0.00272227
-0.000572879
-0.000572879
0.000519627
0.000519627
0.000917676
0.000917676
9.32118e-05
9.32118e-05
-1.67052e-06
-1.67052e-06
-0.000730265
-0.000730265
0.000114905
0.000114905
0.000893527
0.000893527
0.000101351
0.000101351
7.59077e-06
7.59077e-06
0.000139787
0.000139787
0.00109104
0.00109104
-0.000262146
-0.000262146
-0.000580149
-0.000580149
-0.000503255
-0.000503255
-0.000358151
-0.000358151
-0.000270599
-0.000270599
-0.000440474
-0.000440474
0.000507283
0.000507283
0.000265828
0.000265828
8.86045e-05
8.86045e-05
-0.00231284
-0.00231284
-7.82238e-05
-7.82238e-05
-0.000124745
-0.000124745
0.00250169
0.00250169
8.45225e-05
8.45225e-05
-6.63569e-07
-6.63569e-07
-0.000307157
-0.000307157
0.00227821
0.00227821
5.28755e-05
5.28755e-05
-0.000148994
-0.000148994
0.000728844
0.000728844
-0.0001879
-0.0001879
-0.00323008
-0.00323008
8.98966e-05
8.98966e-05
-0.000426818
-0.000426818
0.000394787
0.000394787
-0.00109518
-0.00109518
-0.000346388
-0.000346388
-0.00052254
-0.00052254
-0.000627703
-0.000627703
-0.000691404
-0.000691404
-0.000679467
-0.000679467
0.000136047
0.000136047
-6.88168e-05
-6.88168e-05
-0.000167683
-0.000167683
0.00164647
0.00164647
0.000427263
0.000427263
9.26258e-05
9.26258e-05
0.00187772
0.00187772
-0.000189519
-0.000189519
5.67952e-05
5.67952e-05
-0.000222729
-0.000222729
0.000208909
0.000208909
0.0017606
0.0017606
-0.000269543
-0.000269543
0.000760836
0.000760836
-0.000691559
-0.000691559
-0.00172996
-0.00172996
-6.75763e-05
-6.75763e-05
-0.000437509
-0.000437509
-0.000266777
-0.000266777
-0.00251558
-0.00251558
0.000197169
0.000197169
0.00014531
0.00014531
0.000268644
0.000268644
0.00024229
0.00024229
0.000628545
0.000628545
7.74643e-05
7.74643e-05
3.51976e-05
3.51976e-05
9.62012e-05
9.62012e-05
5.69827e-06
5.69827e-06
0.000166151
0.000166151
-4.90271e-05
-4.90271e-05
0.000284601
0.000284601
6.70487e-05
6.70487e-05
-0.000385638
-0.000385638
0.000311402
0.000311402
-0.00104383
-0.00104383
0.000212902
0.000212902
-0.000220809
-0.000220809
0.000139976
0.000139976
0.000306582
0.000306582
6.92819e-05
6.92819e-05
0.000313799
0.000313799
-4.79927e-05
-4.79927e-05
-0.000607458
-0.000607458
-0.000491903
-0.000491903
0.000116942
0.000116942
0.00045815
0.00045815
4.54759e-05
4.54759e-05
0.000129413
0.000129413
0.00112055
0.00112055
-1.65181e-05
-1.65181e-05
0.000209711
0.000209711
7.15165e-05
7.15165e-05
-0.00264924
-0.00264924
0.000264946
0.000264946
8.33582e-05
8.33582e-05
0.000202607
0.000202607
0.000148901
0.000148901
-4.4748e-05
-4.4748e-05
-0.00150245
-0.00150245
0.000349625
0.000349625
6.35116e-05
6.35116e-05
-0.000685487
-0.000685487
-0.000346723
-0.000346723
0.00018058
0.00018058
-0.000183766
-0.000183766
0.00380396
0.00380396
-0.000396452
-0.000396452
0.000159001
0.000159001
0.000481347
0.000481347
-0.00106019
-0.00106019
-4.57823e-05
-4.57823e-05
-3.28457e-05
-3.28457e-05
-0.00105382
-0.00105382
4.93318e-06
4.93318e-06
-0.000422112
-0.000422112
0.000457027
0.000457027
0.000118066
0.000118066
0.000402067
0.000402067
-0.00141695
-0.00141695
0.000702736
0.000702736
-6.09203e-05
-6.09203e-05
0.000141512
0.000141512
7.49111e-05
7.49111e-05
-8.95258e-05
-8.95258e-05
0.000588725
0.000588725
-0.00118051
-0.00118051
0.000189698
0.000189698
-0.000146092
-0.000146092
0.000115241
0.000115241
-8.55194e-05
-8.55194e-05
0.000179965
0.000179965
0.000214576
0.000214576
-0.000360709
-0.000360709
-7.93042e-05
-7.93042e-05
-0.00089571
-0.00089571
-0.0011311
-0.0011311
0.000721309
0.000721309
-0.000177637
-0.000177637
0.00201233
0.00201233
1.87985e-05
1.87985e-05
-0.000114353
-0.000114353
0.00124426
0.00124426
-7.39423e-05
-7.39423e-05
-0.000456169
-0.000456169
-0.000105949
-0.000105949
-0.000217333
-0.000217333
0.000272843
0.000272843
-0.000551306
-0.000551306
-0.00120507
-0.00120507
0.000276014
0.000276014
0.000156811
0.000156811
0.000679134
0.000679134
0.000793967
0.000793967
0.000664486
0.000664486
0.00250215
0.00250215
0.00050335
0.00050335
-0.000457856
-0.000457856
0.00201748
0.00201748
-0.000673222
-0.000673222
0.000172484
0.000172484
0.000126071
0.000126071
-2.00003e-06
-2.00003e-06
0.000283847
0.000283847
-0.0002275
-0.0002275
-0.00107633
-0.00107633
0.000154889
0.000154889
-5.03024e-06
-5.03024e-06
-0.000983761
-0.000983761
8.9893e-05
8.9893e-05
0.000535041
0.000535041
-0.00300523
-0.00300523
0.000623889
0.000623889
-0.000118818
-0.000118818
9.94203e-05
9.94203e-05
0.000237722
0.000237722
0.000142839
0.000142839
-0.000519374
-0.000519374
2.9255e-05
2.9255e-05
5.86951e-05
5.86951e-05
0.000948066
0.000948066
0.000922125
0.000922125
-2.6379e-05
-2.6379e-05
0.0013706
0.0013706
-0.00036946
-0.00036946
0.000198958
0.000198958
-0.000237878
-0.000237878
0.000137345
0.000137345
0.00188428
0.00188428
0.000258792
0.000258792
-0.000197767
-0.000197767
1.56156e-05
1.56156e-05
0.000580748
0.000580748
-0.000349326
-0.000349326
-0.000332972
-0.000332972
0.000195704
0.000195704
-0.0011213
-0.0011213
-9.6196e-05
-9.6196e-05
0.000110242
0.000110242
-0.000139332
-0.000139332
-0.00150013
-0.00150013
0.000969612
0.000969612
0.000124121
0.000124121
8.51627e-05
8.51627e-05
6.37589e-05
6.37589e-05
0.000504613
0.000504613
0.00163186
0.00163186
-1.36494e-05
-1.36494e-05
0.000317612
0.000317612
-0.000281508
-0.000281508
0.00118615
0.00118615
-0.000155628
-0.000155628
0.000132086
0.000132086
-0.00153327
-0.00153327
-0.00167196
-0.00167196
-0.0011025
-0.0011025
-0.000558854
-0.000558854
-0.00159605
-0.00159605
-0.00037341
-0.00037341
7.80821e-05
7.80821e-05
7.30079e-05
7.30079e-05
0.000516623
0.000516623
-0.00188768
-0.00188768
-0.00195137
-0.00195137
0.00239306
0.00239306
2.27148e-05
2.27148e-05
-0.00044135
-0.00044135
-0.000577596
-0.000577596
0.00133786
0.00133786
0.000180143
0.000180143
-0.000734412
-0.000734412
0.00052546
0.00052546
4.41821e-05
4.41821e-05
0.00124288
0.00124288
0.00138405
0.00138405
0.000537278
0.000537278
-3.80372e-05
-3.80372e-05
-0.000893804
-0.000893804
-0.000534976
-0.000534976
0.000621474
0.000621474
0.000696375
0.000696375
-0.000890896
-0.000890896
0.000344081
0.000344081
-0.000857648
-0.000857648
0.00115816
0.00115816
-0.000981663
-0.000981663
7.11728e-05
7.11728e-05
4.68373e-05
4.68373e-05
-9.61505e-05
-9.61505e-05
0.000456434
0.000456434
-0.00216474
-0.00216474
7.47867e-05
7.47867e-05
-0.000197822
-0.000197822
-7.08991e-05
-7.08991e-05
0.00163197
0.00163197
-0.000201172
-0.000201172
-0.000811497
-0.000811497
-3.14157e-05
-3.14157e-05
0.00117948
0.00117948
0.000940082
0.000940082
0.000277159
0.000277159
-0.000506396
-0.000506396
-0.00207263
-0.00207263
0.000253559
0.000253559
-0.000383355
-0.000383355
-0.0003245
-0.0003245
-0.000718405
-0.000718405
0.000193968
0.000193968
-0.000535711
-0.000535711
0.00016388
0.00016388
0.00110344
0.00110344
-0.000354409
-0.000354409
0.00101209
0.00101209
0.000236991
0.000236991
4.57544e-05
4.57544e-05
-5.51706e-05
-5.51706e-05
-0.000159669
-0.000159669
0.000148315
0.000148315
0.000270891
0.000270891
0.00231921
0.00231921
0.00271184
0.00271184
-0.000840181
-0.000840181
-7.86297e-05
-7.86297e-05
-8.1739e-05
-8.1739e-05
1.23598e-05
1.23598e-05
-0.000544026
-0.000544026
-0.000140276
-0.000140276
-0.000180545
-0.000180545
-0.000745658
-0.000745658
0.000188722
0.000188722
0.000695215
0.000695215
0.000149999
0.000149999
0.000143483
0.000143483
-3.32919e-05
-3.32919e-05
0.000230111
0.000230111
0.0010995
0.0010995
5.18382e-05
5.18382e-05
0.00242681
0.00242681
-0.000116496
-0.000116496
0.000341207
0.000341207
-3.78488e-05
-3.78488e-05
-3.31044e-05
-3.31044e-05
0.000149945
0.000149945
-0.000168694
-0.000168694
-5.04323e-06
-5.04323e-06
8.61516e-06
8.61516e-06
-0.000654757
-0.000654757
-0.000174416
-0.000174416
0.000274285
0.000274285
-8.09189e-05
-8.09189e-05
-0.00030231
-0.00030231
-2.28455e-05
-2.28455e-05
0.00117123
0.00117123
0.000181429
0.000181429
-0.000434861
-0.000434861
-9.4962e-05
-9.4962e-05
-0.000149018
-0.000149018
-0.000238472
-0.000238472
-0.000333385
-0.000333385
0.000125327
0.000125327
-0.000306016
-0.000306016
0.00110411
0.00110411
-5.87784e-05
-5.87784e-05
-0.000240634
-0.000240634
6.35551e-05
6.35551e-05
0.00157529
0.00157529
-0.000118612
-0.000118612
0.000430635
0.000430635
-0.000232601
-0.000232601
-6.88744e-05
-6.88744e-05
0.000138856
0.000138856
0.000283228
0.000283228
-0.000173131
-0.000173131
0.000217343
0.000217343
1.18439e-05
1.18439e-05
0.00206462
0.00206462
0.000524705
0.000524705
0.000280592
0.000280592
1.39533e-05
1.39533e-05
0.000863107
0.000863107
0.000901879
0.000901879
-0.000618294
-0.000618294
-0.0018241
-0.0018241
8.26155e-05
8.26155e-05
-0.000186743
-0.000186743
0.000162646
0.000162646
-0.000339562
-0.000339562
-5.52353e-05
-5.52353e-05
9.44746e-05
9.44746e-05
0.00203919
0.00203919
-0.000251668
-0.000251668
-0.000480212
-0.000480212
6.58801e-05
6.58801e-05
-0.000301805
-0.000301805
-0.000477442
-0.000477442
2.31388e-05
2.31388e-05
0.000941399
0.000941399
0.000200783
0.000200783
-8.36444e-05
-8.36444e-05
-7.23448e-05
-7.23448e-05
-0.000137177
-0.000137177
-0.000165564
-0.000165564
0.000143716
0.000143716
0.00245339
0.00245339
-9.44069e-05
-9.44069e-05
-0.000145571
-0.000145571
-0.000375046
-0.000375046
0.000338584
0.000338584
0.000104082
0.000104082
0.000205366
0.000205366
-0.000748277
-0.000748277
-3.87394e-05
-3.87394e-05
-0.000112198
-0.000112198
-0.000255729
-0.000255729
0.00125717
0.00125717
0.000447954
0.000447954
-5.94298e-05
-5.94298e-05
0.000847681
0.000847681
-0.00010208
-0.00010208
0.000162654
0.000162654
-0.000195265
-0.000195265
-1.81787e-05
-1.81787e-05
-0.000281762
-0.000281762
0.000185371
0.000185371
2.32736e-05
2.32736e-05
0.00174935
0.00174935
0.000729641
0.000729641
0.000132214
0.000132214
1.20989e-05
1.20989e-05
-0.000255406
-0.000255406
-0.000526184
-0.000526184
0.000543349
0.000543349
0.000133332
0.000133332
0.000123758
0.000123758
-0.000380614
-0.000380614
-0.000197348
-0.000197348
0.000617168
0.000617168
-0.000317293
-0.000317293
4.10552e-05
4.10552e-05
0.000143672
0.000143672
-7.14126e-05
-7.14126e-05
0.000627606
0.000627606
-0.000210642
-0.000210642
-0.000173897
-0.000173897
2.99032e-06
2.99032e-06
0.000672679
0.000672679
-1.44117e-05
-1.44117e-05
-0.00114579
-0.00114579
-0.000232856
-0.000232856
-0.00144096
-0.00144096
-0.000311261
-0.000311261
2.04879e-05
2.04879e-05
0.000241639
0.000241639
-0.000229784
-0.000229784
0.00171067
0.00171067
-0.000539318
-0.000539318
-0.00147051
-0.00147051
-0.000259279
-0.000259279
0.00030583
0.00030583
0.0002965
0.0002965
-0.000867009
-0.000867009
0.000235675
0.000235675
0.000509957
0.000509957
0.000231936
0.000231936
0.000183462
0.000183462
-0.000805391
-0.000805391
-8.92195e-05
-8.92195e-05
-4.13004e-05
-4.13004e-05
6.19164e-05
6.19164e-05
-1.59003e-06
-1.59003e-06
-0.000123062
-0.000123062
0.000791868
0.000791868
0.00298911
0.00298911
0.000434225
0.000434225
-0.000361093
-0.000361093
0.000354501
0.000354501
-0.000101965
-0.000101965
0.00180331
0.00180331
0.000490028
0.000490028
0.000202616
0.000202616
-0.000384325
-0.000384325
4.89034e-05
4.89034e-05
0.000490752
0.000490752
0.000148856
0.000148856
0.000258341
0.000258341
-0.000231046
-0.000231046
0.000305473
0.000305473
2.47627e-05
2.47627e-05
0.00021668
0.00021668
-0.000186621
-0.000186621
0.000707711
0.000707711
0.000587337
0.000587337
-0.000133781
-0.000133781
-0.000251209
-0.000251209
-2.11337e-05
-2.11337e-05
-0.000397606
-0.000397606
0.000639669
0.000639669
-9.57834e-05
-9.57834e-05
-0.000140524
-0.000140524
0.000206812
0.000206812
-0.000134103
-0.000134103
5.47138e-05
5.47138e-05
-0.000114651
-0.000114651
3.58181e-05
3.58181e-05
-0.00108551
-0.00108551
4.24e-05
4.24e-05
-0.000341404
-0.000341404
-0.000437987
-0.000437987
-0.000148145
-0.000148145
-0.000359509
-0.000359509
8.98368e-05
8.98368e-05
0.00265584
0.00265584
-0.000134117
-0.000134117
0.00138846
0.00138846
0.00127781
0.00127781
-0.000207393
-0.000207393
1.81617e-07
1.81617e-07
0.00072507
0.00072507
-0.000304386
-0.000304386
0.00107398
0.00107398
-0.000413561
-0.000413561
-0.000882142
-0.000882142
-0.000222661
-0.000222661
-0.000141883
-0.000141883
8.7123e-05
8.7123e-05
0.000114954
0.000114954
0.00148921
0.00148921
0.000692523
0.000692523
-6.97721e-05
-6.97721e-05
-0.00113087
-0.00113087
-2.56218e-05
-2.56218e-05
-0.000105675
-0.000105675
-4.68873e-05
-4.68873e-05
0.00314526
0.00314526
-0.00033438
-0.00033438
0.000130474
0.000130474
-0.000702321
-0.000702321
0.000579871
0.000579871
0.00259089
0.00259089
-0.00017422
-0.00017422
-0.000116304
-0.000116304
-3.3926e-05
-3.3926e-05
-0.000131372
-0.000131372
0.00052983
0.00052983
0.00225476
0.00225476
-0.000429144
-0.000429144
3.68454e-05
3.68454e-05
0.000544696
0.000544696
0.000311286
0.000311286
-9.60442e-05
-9.60442e-05
-0.00140781
-0.00140781
-0.000972609
-0.000972609
2.27211e-05
2.27211e-05
-0.00058732
-0.00058732
0.000105054
0.000105054
0.000316067
0.000316067
0.000129334
0.000129334
0.000202145
0.000202145
7.29788e-05
7.29788e-05
0.00101682
0.00101682
-0.000106366
-0.000106366
-0.000305978
-0.000305978
0.000409029
0.000409029
0.000204779
0.000204779
-4.57508e-05
-4.57508e-05
0.000222919
0.000222919
0.000282317
0.000282317
0.00177672
0.00177672
-0.00013924
-0.00013924
-0.000608683
-0.000608683
-0.000113986
-0.000113986
0.000197236
0.000197236
-0.000284212
-0.000284212
0.00038671
0.00038671
-0.0013781
-0.0013781
-0.000809827
-0.000809827
0.00319565
0.00319565
0.00011136
0.00011136
0.000224497
0.000224497
8.51069e-05
8.51069e-05
-2.82079e-05
-2.82079e-05
0.00107407
0.00107407
1.74128e-05
1.74128e-05
-0.00160091
-0.00160091
0.000179338
0.000179338
-0.00017779
-0.00017779
-6.46043e-05
-6.46043e-05
0.00162046
0.00162046
7.81108e-06
7.81108e-06
0.000277632
0.000277632
-0.000239254
-0.000239254
-0.000208494
-0.000208494
6.70295e-05
6.70295e-05
-0.000225292
-0.000225292
0.00041791
0.00041791
0.00059311
0.00059311
0.000218729
0.000218729
0.000181856
0.000181856
0.000122339
0.000122339
0.000110885
0.000110885
8.07979e-05
8.07979e-05
-0.000287586
-0.000287586
-0.000513358
-0.000513358
-0.000560648
-0.000560648
2.24832e-05
2.24832e-05
-3.97653e-05
-3.97653e-05
0.000233258
0.000233258
-0.000652193
-0.000652193
-0.000175514
-0.000175514
-1.26901e-05
-1.26901e-05
-0.00159104
-0.00159104
0.00120566
0.00120566
6.6841e-05
6.6841e-05
0.000434754
0.000434754
0.000883899
0.000883899
-0.000826283
-0.000826283
-0.000136278
-0.000136278
0.000152637
0.000152637
0.000137076
0.000137076
-7.43128e-05
-7.43128e-05
0.000316148
0.000316148
-0.000256311
-0.000256311
-4.41922e-05
-4.41922e-05
-0.000107561
-0.000107561
-5.60867e-05
-5.60867e-05
0.000456648
0.000456648
-0.0020918
-0.0020918
0.000423919
0.000423919
-0.00110709
-0.00110709
0.00126183
0.00126183
-0.000175497
-0.000175497
-0.00249652
-0.00249652
-5.43681e-05
-5.43681e-05
-0.000228756
-0.000228756
-1.31817e-05
-1.31817e-05
-0.000708179
-0.000708179
0.000458511
0.000458511
-0.000224744
-0.000224744
7.54161e-05
7.54161e-05
0.000816574
0.000816574
-0.000350015
-0.000350015
0.00090531
0.00090531
9.54672e-05
9.54672e-05
-0.000267633
-0.000267633
8.28807e-05
8.28807e-05
0.00021376
0.00021376
0.000233924
0.000233924
-7.44868e-05
-7.44868e-05
-0.000283217
-0.000283217
-0.000410125
-0.000410125
-0.000198744
-0.000198744
-0.00193582
-0.00193582
-0.00113186
-0.00113186
0.000177435
0.000177435
3.82324e-05
3.82324e-05
0.000149202
0.000149202
0.000166426
0.000166426
0.000254464
0.000254464
-0.000194695
-0.000194695
-0.000264056
-0.000264056
-6.26993e-05
-6.26993e-05
-0.00152158
-0.00152158
6.22776e-05
6.22776e-05
-0.000556138
-0.000556138
0.000119855
0.000119855
-0.000317236
-0.000317236
-0.000174747
-0.000174747
0.000503755
0.000503755
-0.00162337
-0.00162337
0.00217381
0.00217381
0.000153154
0.000153154
0.000248077
0.000248077
-0.000148792
-0.000148792
-0.00193051
-0.00193051
9.79492e-05
9.79492e-05
-0.00152557
-0.00152557
0.000256118
0.000256118
-3.1358e-05
-3.1358e-05
0.000134179
0.000134179
0.00101653
0.00101653
0.000232955
0.000232955
-0.000919941
-0.000919941
5.53263e-05
5.53263e-05
-3.11179e-05
-3.11179e-05
0.00165244
0.00165244
0.000737852
0.000737852
0.000143255
0.000143255
-3.29176e-05
-3.29176e-05
0.000390881
0.000390881
-0.000139018
-0.000139018
0.000256039
0.000256039
3.85953e-05
3.85953e-05
8.09945e-06
8.09945e-06
7.59834e-05
7.59834e-05
0.00021408
0.00021408
0.00131622
0.00131622
-9.24605e-05
-9.24605e-05
-0.00125252
-0.00125252
-0.000159048
-0.000159048
-0.000374274
-0.000374274
-0.000195828
-0.000195828
-0.000616433
-0.000616433
7.44982e-05
7.44982e-05
-0.000236955
-0.000236955
0.000637602
0.000637602
0.000167808
0.000167808
0.000336331
0.000336331
-0.000598233
-0.000598233
-0.000681912
-0.000681912
-0.000680509
-0.000680509
0.00110986
0.00110986
-0.000230281
-0.000230281
-0.00162329
-0.00162329
-0.000553385
-0.000553385
-7.2936e-05
-7.2936e-05
0.000243917
0.000243917
-0.000339674
-0.000339674
-4.763e-05
-4.763e-05
-0.000250038
-0.000250038
0.000888893
0.000888893
-0.000407398
-0.000407398
-3.49423e-05
-3.49423e-05
-0.00061629
-0.00061629
0.000331171
0.000331171
-0.000195358
-0.000195358
-2.76367e-05
-2.76367e-05
0.000238745
0.000238745
0.000220955
0.000220955
-0.0022213
-0.0022213
-0.00309334
-0.00309334
8.59545e-05
8.59545e-05
-0.000636685
-0.000636685
0.000421897
0.000421897
-0.000226681
-0.000226681
0.00193807
0.00193807
0.00218772
0.00218772
0.000120295
0.000120295
-0.000375505
-0.000375505
0.000130334
0.000130334
9.00737e-05
9.00737e-05
-6.15981e-05
-6.15981e-05
0.000221505
0.000221505
-0.00017414
-0.00017414
-0.000353036
-0.000353036
-9.49705e-05
-9.49705e-05
-0.000100389
-0.000100389
8.29137e-05
8.29137e-05
0.000149143
0.000149143
0.000107009
0.000107009
-0.000212368
-0.000212368
-0.000538802
-0.000538802
0.000240113
0.000240113
-4.39586e-05
-4.39586e-05
0.00016437
0.00016437
-0.000742853
-0.000742853
-0.000103208
-0.000103208
-0.000415582
-0.000415582
0.000287766
0.000287766
0.00361862
0.00361862
0.000657729
0.000657729
0.00026563
0.00026563
0.000233284
0.000233284
-8.3641e-05
-8.3641e-05
-0.000121926
-0.000121926
0.000282458
0.000282458
-7.89382e-05
-7.89382e-05
0.00034887
0.00034887
0.000134292
0.000134292
-0.0001383
-0.0001383
0.000164675
0.000164675
0.000497419
0.000497419
-4.22304e-05
-4.22304e-05
-0.000194403
-0.000194403
-0.000194377
-0.000194377
0.00106772
0.00106772
0.000110522
0.000110522
0.000140599
0.000140599
-3.65462e-05
-3.65462e-05
0.00016935
0.00016935
-0.000583584
-0.000583584
-0.000173776
-0.000173776
-9.28953e-05
-9.28953e-05
0.00150134
0.00150134
-0.000322092
-0.000322092
0.000452011
0.000452011
-0.000128414
-0.000128414
0.000144609
0.000144609
-0.000321618
-0.000321618
-0.000116964
-0.000116964
-0.000126044
-0.000126044
-0.00121053
-0.00121053
2.38909e-05
2.38909e-05
-6.54844e-05
-6.54844e-05
-0.000323242
-0.000323242
-0.000121088
-0.000121088
0.000386881
0.000386881
0.000599777
0.000599777
-0.00101055
-0.00101055
-9.25107e-05
-9.25107e-05
-0.000168176
-0.000168176
-0.00280571
-0.00280571
-8.05267e-05
-8.05267e-05
-0.002949
-0.002949
0.000198832
0.000198832
3.84746e-05
3.84746e-05
-7.80305e-05
-7.80305e-05
-3.26818e-05
-3.26818e-05
0.00194927
0.00194927
-2.70612e-06
-2.70612e-06
-0.000142759
-0.000142759
0.000133749
0.000133749
0.00140253
0.00140253
0.000121547
0.000121547
-0.000732269
-0.000732269
0.00160335
0.00160335
7.44867e-05
7.44867e-05
-0.00011439
-0.00011439
-0.00070947
-0.00070947
0.000587253
0.000587253
-0.0015152
-0.0015152
0.000568097
0.000568097
0.00204056
0.00204056
-0.000106852
-0.000106852
-0.000538934
-0.000538934
-0.000897685
-0.000897685
-0.00116815
-0.00116815
0.000989667
0.000989667
0.000117658
0.000117658
8.47571e-05
8.47571e-05
0.000230736
0.000230736
0.00018039
0.00018039
0.000611304
0.000611304
-9.43485e-05
-9.43485e-05
-0.000149356
-0.000149356
0.000513216
0.000513216
-3.48995e-05
-3.48995e-05
-3.65136e-05
-3.65136e-05
-0.000182329
-0.000182329
-0.000472942
-0.000472942
-0.00198137
-0.00198137
0.000755908
0.000755908
-0.000191162
-0.000191162
0.000144721
0.000144721
0.000116196
0.000116196
-9.38255e-05
-9.38255e-05
0.00121511
0.00121511
-0.000192121
-0.000192121
0.000121853
0.000121853
0.00020331
0.00020331
-2.36591e-05
-2.36591e-05
0.000307852
0.000307852
-0.000439974
-0.000439974
-0.000234351
-0.000234351
-0.000255929
-0.000255929
-8.60512e-05
-8.60512e-05
0.000134437
0.000134437
0.000909641
0.000909641
-0.000462654
-0.000462654
1.7208e-05
1.7208e-05
1.87593e-06
1.87593e-06
0.00174281
0.00174281
0.00054199
0.00054199
0.00027708
0.00027708
5.92186e-05
5.92186e-05
-0.000208439
-0.000208439
-9.2582e-05
-9.2582e-05
-2.41666e-05
-2.41666e-05
0.00149313
0.00149313
-0.000293487
-0.000293487
0.000116701
0.000116701
0.000185451
0.000185451
0.000152534
0.000152534
7.0611e-05
7.0611e-05
0.00101297
0.00101297
-0.000386771
-0.000386771
-0.000332282
-0.000332282
0.000538403
0.000538403
3.23767e-05
3.23767e-05
-0.0001726
-0.0001726
0.000218006
0.000218006
0.000208359
0.000208359
0.000184612
0.000184612
0.000126335
0.000126335
0.000521322
0.000521322
0.00202083
0.00202083
0.000103604
0.000103604
-0.000248777
-0.000248777
-0.000382086
-0.000382086
-0.000144023
-0.000144023
0.000257072
0.000257072
0.000135894
0.000135894
-0.000440664
-0.000440664
0.00177275
0.00177275
0.000646069
0.000646069
0.000240079
0.000240079
0.000306322
0.000306322
-0.000106847
-0.000106847
2.9693e-05
2.9693e-05
-5.27903e-05
-5.27903e-05
-7.53056e-05
-7.53056e-05
-3.66141e-05
-3.66141e-05
0.000352147
0.000352147
0.000114811
0.000114811
-0.000100922
-0.000100922
-0.000201956
-0.000201956
0.000460244
0.000460244
-0.000168919
-0.000168919
0.000130714
0.000130714
-0.000127325
-0.000127325
7.52645e-05
7.52645e-05
0.000156596
0.000156596
9.7146e-05
9.7146e-05
5.55269e-05
5.55269e-05
-0.000582037
-0.000582037
0.0001747
0.0001747
-0.000715345
-0.000715345
-0.000901178
-0.000901178
0.000136155
0.000136155
-0.000144442
-0.000144442
-0.000259417
-0.000259417
-0.00106209
-0.00106209
-0.00237502
-0.00237502
-0.00106986
-0.00106986
-4.27604e-05
-4.27604e-05
-0.0011635
-0.0011635
2.36035e-05
2.36035e-05
0.000417096
0.000417096
-0.00253971
-0.00253971
-0.000382526
-0.000382526
0.000374121
0.000374121
-0.00150863
-0.00150863
0.000127642
0.000127642
4.93568e-05
4.93568e-05
2.34625e-05
2.34625e-05
-0.000423218
-0.000423218
-0.000203183
-0.000203183
5.36803e-05
5.36803e-05
0.00052239
0.00052239
0.000191675
0.000191675
-0.000784638
-0.000784638
-0.00033536
-0.00033536
-0.000635795
-0.000635795
-0.000151801
-0.000151801
-0.000170941
-0.000170941
0.000509001
0.000509001
-0.00200854
-0.00200854
-0.000178164
-0.000178164
-7.14138e-05
-7.14138e-05
-0.0026039
-0.0026039
-0.00134544
-0.00134544
-7.39656e-05
-7.39656e-05
-0.000111735
-0.000111735
0.00114626
0.00114626
-0.000470733
-0.000470733
0.000936257
0.000936257
2.89857e-05
2.89857e-05
-0.000379758
-0.000379758
-6.49714e-05
-6.49714e-05
0.000326433
0.000326433
0.000104743
0.000104743
-0.000116106
-0.000116106
-0.000172988
-0.000172988
-7.61333e-05
-7.61333e-05
3.42835e-05
3.42835e-05
4.02689e-06
4.02689e-06
0.000160213
0.000160213
8.62192e-05
8.62192e-05
0.000181464
0.000181464
0.000610453
0.000610453
-9.11161e-05
-9.11161e-05
-0.00125815
-0.00125815
-0.0007277
-0.0007277
-0.00125436
-0.00125436
0.000744562
0.000744562
-0.000444997
-0.000444997
0.000100304
0.000100304
-0.000124355
-0.000124355
-0.000710726
-0.000710726
-0.0004121
-0.0004121
-3.081e-05
-3.081e-05
0.000933869
0.000933869
0.000224226
0.000224226
-0.00097098
-0.00097098
-0.000222492
-0.000222492
-0.00014346
-0.00014346
-0.00275175
-0.00275175
-0.000211804
-0.000211804
5.44761e-05
5.44761e-05
0.000979493
0.000979493
-0.000115868
-0.000115868
0.000327848
0.000327848
-9.49125e-06
-9.49125e-06
-0.00258838
-0.00258838
0.000788167
0.000788167
0.000328375
0.000328375
-0.00010937
-0.00010937
-0.000142952
-0.000142952
-0.000300774
-0.000300774
-0.00139966
-0.00139966
0.00042249
0.00042249
-0.00129036
-0.00129036
0.000185669
0.000185669
-0.000175949
-0.000175949
-0.00134412
-0.00134412
-0.00100951
-0.00100951
-0.000131911
-0.000131911
9.29827e-05
9.29827e-05
0.000311179
0.000311179
0.00234959
0.00234959
-1.14813e-05
-1.14813e-05
0.000443707
0.000443707
-0.000531884
-0.000531884
0.00153772
0.00153772
-0.000519843
-0.000519843
0.000951503
0.000951503
0.00384856
0.00384856
0.00021854
0.00021854
0.000235
0.000235
0.000169305
0.000169305
-0.000330217
-0.000330217
-0.00011867
-0.00011867
0.000106861
0.000106861
-8.72338e-05
-8.72338e-05
0.000947003
0.000947003
-0.00010812
-0.00010812
-0.00018836
-0.00018836
-3.19351e-05
-3.19351e-05
0.000837659
0.000837659
0.00112278
0.00112278
0.000376385
0.000376385
0.000742777
0.000742777
0.00185324
0.00185324
-0.0007909
-0.0007909
-0.000623367
-0.000623367
0.000273791
0.000273791
-0.000122125
-0.000122125
-0.000444361
-0.000444361
-0.00221391
-0.00221391
0.000156996
0.000156996
0.000238752
0.000238752
0.000740111
0.000740111
-0.00164583
-0.00164583
-5.29328e-05
-5.29328e-05
0.00106099
0.00106099
0.000486774
0.000486774
-0.00102262
-0.00102262
0.000725364
0.000725364
-0.000264653
-0.000264653
0.000195766
0.000195766
0.000489159
0.000489159
-0.00101658
-0.00101658
-0.000526943
-0.000526943
-0.000159077
-0.000159077
8.55038e-05
8.55038e-05
-0.000177236
-0.000177236
0.000116594
0.000116594
-0.00259859
-0.00259859
0.000239069
0.000239069
-0.00222305
-0.00222305
-0.000664465
-0.000664465
-0.000738466
-0.000738466
-0.000815514
-0.000815514
0.00137122
0.00137122
-0.000164898
-0.000164898
0.000314478
0.000314478
0.000119511
0.000119511
0.000144845
0.000144845
-0.000423565
-0.000423565
0.000454313
0.000454313
-0.000119007
-0.000119007
-0.00189207
-0.00189207
0.00236326
0.00236326
-0.000390413
-0.000390413
-0.000235101
-0.000235101
-0.000777474
-0.000777474
-0.000265085
-0.000265085
0.000198107
0.000198107
-0.000770251
-0.000770251
0.000211843
0.000211843
7.19079e-05
7.19079e-05
-7.07823e-06
-7.07823e-06
1.32102e-05
1.32102e-05
0.000246862
0.000246862
-0.00193104
-0.00193104
-0.000598099
-0.000598099
-1.10964e-05
-1.10964e-05
-0.000246798
-0.000246798
-0.00127547
-0.00127547
0.000220101
0.000220101
-0.000222546
-0.000222546
4.36114e-05
4.36114e-05
-0.000391047
-0.000391047
-2.2562e-05
-2.2562e-05
-0.000283953
-0.000283953
0.000143063
0.000143063
0.000439094
0.000439094
0.000195606
0.000195606
8.7799e-05
8.7799e-05
-0.00144083
-0.00144083
-0.000528367
-0.000528367
-0.000259833
-0.000259833
-1.03105e-05
-1.03105e-05
-0.000365205
-0.000365205
9.81714e-05
9.81714e-05
-0.0010359
-0.0010359
0.000239532
0.000239532
-0.000609292
-0.000609292
0.00135198
0.00135198
-0.000155982
-0.000155982
-6.11986e-05
-6.11986e-05
0.000812595
0.000812595
0.000719949
0.000719949
0.00110255
0.00110255
0.00010564
0.00010564
-9.90288e-06
-9.90288e-06
0.00130875
0.00130875
0.000117491
0.000117491
-9.11311e-05
-9.11311e-05
0.000815494
0.000815494
0.000153974
0.000153974
0.000494314
0.000494314
0.000645374
0.000645374
-0.000734035
-0.000734035
-0.000300899
-0.000300899
3.66556e-05
3.66556e-05
-0.00125223
-0.00125223
-0.000118768
-0.000118768
7.75569e-05
7.75569e-05
-0.000140802
-0.000140802
7.17738e-05
7.17738e-05
-2.9605e-05
-2.9605e-05
0.00259796
0.00259796
0.000113762
0.000113762
-0.000488134
-0.000488134
0.000169018
0.000169018
0.000218712
0.000218712
-0.000926763
-0.000926763
0.00017626
0.00017626
0.000716664
0.000716664
-0.000266013
-0.000266013
-0.000166982
-0.000166982
-0.00014626
-0.00014626
-0.00109458
-0.00109458
0.000450599
0.000450599
0.0019117
0.0019117
0.000151396
0.000151396
3.17972e-05
3.17972e-05
-0.000115273
-0.000115273
-0.000799124
-0.000799124
-0.000202633
-0.000202633
9.37725e-05
9.37725e-05
0.000883277
0.000883277
-0.000621991
-0.000621991
0.00234462
0.00234462
5.78531e-05
5.78531e-05
0.000513355
0.000513355
-0.000699827
-0.000699827
1.65671e-05
1.65671e-05
0.000176029
0.000176029
-0.000770656
-0.000770656
-4.70281e-05
-4.70281e-05
-0.000378366
-0.000378366
-0.000264298
-0.000264298
-0.000678102
-0.000678102
-0.00175277
-0.00175277
0.000458292
0.000458292
-0.000206771
-0.000206771
0.000127986
0.000127986
9.81373e-05
9.81373e-05
-8.71814e-05
-8.71814e-05
-0.000498555
-0.000498555
0.00171715
0.00171715
0.00239077
0.00239077
-0.000159511
-0.000159511
0.00231865
0.00231865
-0.000816076
-0.000816076
0.000251981
0.000251981
-0.000358047
-0.000358047
0.000164721
0.000164721
0.000480982
0.000480982
4.41302e-05
4.41302e-05
-0.00018929
-0.00018929
0.00231567
0.00231567
-5.67797e-05
-5.67797e-05
-3.23078e-05
-3.23078e-05
-5.21339e-05
-5.21339e-05
-0.000473353
-0.000473353
0.000166563
0.000166563
4.5591e-05
4.5591e-05
8.31769e-05
8.31769e-05
-8.04728e-05
-8.04728e-05
-0.000392784
-0.000392784
-0.000623991
-0.000623991
0.00174661
0.00174661
-0.000407465
-0.000407465
-0.000346714
-0.000346714
0.000103241
0.000103241
-4.8247e-05
-4.8247e-05
-0.000518787
-0.000518787
-0.00270273
-0.00270273
-0.00260961
-0.00260961
0.000446022
0.000446022
-0.000141172
-0.000141172
7.12763e-05
7.12763e-05
0.000307132
0.000307132
2.17149e-05
2.17149e-05
-0.000102622
-0.000102622
6.34903e-05
6.34903e-05
-9.37142e-05
-9.37142e-05
-0.00267625
-0.00267625
-0.000475665
-0.000475665
3.2395e-05
3.2395e-05
-0.00154036
-0.00154036
-1.94312e-05
-1.94312e-05
0.00122168
0.00122168
-4.88078e-05
-4.88078e-05
0.000449422
0.000449422
-0.00087876
-0.00087876
6.95176e-05
6.95176e-05
7.70683e-05
7.70683e-05
0.000303225
0.000303225
-0.000125071
-0.000125071
-7.06888e-05
-7.06888e-05
0.000266263
0.000266263
0.000130946
0.000130946
-0.00136529
-0.00136529
0.00102522
0.00102522
-0.000106394
-0.000106394
0.000461612
0.000461612
0.00194474
0.00194474
0.000166511
0.000166511
-2.53073e-05
-2.53073e-05
-0.000475449
-0.000475449
0.00042545
0.00042545
0.000485742
0.000485742
0.0021298
0.0021298
-2.04732e-05
-2.04732e-05
0.0006654
0.0006654
-0.00208637
-0.00208637
0.00221009
0.00221009
-2.84276e-05
-2.84276e-05
-0.000545879
-0.000545879
-0.000749525
-0.000749525
0.000290882
0.000290882
0.000145571
0.000145571
8.14733e-06
8.14733e-06
-0.000566073
-0.000566073
0.00027462
0.00027462
-0.000203838
-0.000203838
-1.47086e-05
-1.47086e-05
-4.75505e-05
-4.75505e-05
-0.000531206
-0.000531206
0.000188479
0.000188479
0.000130264
0.000130264
0.000134417
0.000134417
-5.95618e-06
-5.95618e-06
-0.00167205
-0.00167205
-2.68342e-05
-2.68342e-05
0.00244135
0.00244135
0.00104631
0.00104631
-0.000658783
-0.000658783
0.000221673
0.000221673
0.000256138
0.000256138
0.00209694
0.00209694
0.000108772
0.000108772
-0.00251266
-0.00251266
0.00146626
0.00146626
0.000139518
0.000139518
9.30224e-05
9.30224e-05
-0.000965094
-0.000965094
-0.000289637
-0.000289637
0.00310302
0.00310302
-3.86501e-05
-3.86501e-05
0.000239635
0.000239635
0.000205485
0.000205485
-4.47204e-05
-4.47204e-05
0.000485134
0.000485134
-0.000301167
-0.000301167
-0.00114048
-0.00114048
-0.000212
-0.000212
-0.000276384
-0.000276384
-2.52711e-05
-2.52711e-05
0.00058222
0.00058222
-0.00134664
-0.00134664
-0.000415228
-0.000415228
-3.86316e-05
-3.86316e-05
-0.000171454
-0.000171454
-0.00164725
-0.00164725
1.59788e-05
1.59788e-05
-7.5957e-05
-7.5957e-05
3.61974e-05
3.61974e-05
0.0019878
0.0019878
-0.000565552
-0.000565552
0.000319292
0.000319292
0.000338543
0.000338543
0.00172032
0.00172032
-0.000285598
-0.000285598
-0.00034619
-0.00034619
-0.000130034
-0.000130034
-0.00139915
-0.00139915
-0.000830394
-0.000830394
-9.41546e-05
-9.41546e-05
0.00259719
0.00259719
0.000365685
0.000365685
0.000457326
0.000457326
0.000119997
0.000119997
-4.43373e-05
-4.43373e-05
8.73628e-05
8.73628e-05
-0.000141663
-0.000141663
0.00255779
0.00255779
-8.06008e-05
-8.06008e-05
-0.00100523
-0.00100523
0.000601653
0.000601653
0.00024698
0.00024698
5.12887e-05
5.12887e-05
0.00252092
0.00252092
0.000229046
0.000229046
-0.000303931
-0.000303931
-0.000626192
-0.000626192
0.000193759
0.000193759
0.000124885
0.000124885
0.000136555
0.000136555
2.79635e-05
2.79635e-05
0.000119252
0.000119252
0.000277472
0.000277472
1.15456e-05
1.15456e-05
0.000291091
0.000291091
0.000357583
0.000357583
0.000262351
0.000262351
0.000480489
0.000480489
0.000957548
0.000957548
-0.00015453
-0.00015453
-0.000591246
-0.000591246
-0.000230235
-0.000230235
-5.82205e-05
-5.82205e-05
0.000386677
0.000386677
-0.000420415
-0.000420415
0.000199578
0.000199578
0.000183737
0.000183737
-9.96215e-05
-9.96215e-05
0.000465235
0.000465235
0.00306945
0.00306945
-0.000364382
-0.000364382
8.85004e-05
8.85004e-05
0.000649818
0.000649818
0.000179825
0.000179825
9.82405e-06
9.82405e-06
-0.000208228
-0.000208228
0.000279957
0.000279957
2.62874e-05
2.62874e-05
-0.00054537
-0.00054537
0.000847032
0.000847032
0.00166535
0.00166535
5.76687e-06
5.76687e-06
0.00234975
0.00234975
-0.000298868
-0.000298868
-0.000130295
-0.000130295
0.000291675
0.000291675
0.000935986
0.000935986
0.000703824
0.000703824
0.00113172
0.00113172
-0.00148495
-0.00148495
-7.43079e-05
-7.43079e-05
-0.000181815
-0.000181815
0.000330063
0.000330063
0.00115115
0.00115115
-0.000208842
-0.000208842
-0.000382006
-0.000382006
-0.000142787
-0.000142787
-0.000135127
-0.000135127
0.00108147
0.00108147
-0.00025471
-0.00025471
0.000105965
0.000105965
3.73488e-05
3.73488e-05
5.10193e-05
5.10193e-05
-0.000363581
-0.000363581
0.000266794
0.000266794
-0.000340911
-0.000340911
7.05862e-05
7.05862e-05
-6.88397e-05
-6.88397e-05
-0.000176472
-0.000176472
0.0002375
0.0002375
0.000519049
0.000519049
2.52335e-05
2.52335e-05
0.000721988
0.000721988
0.000649726
0.000649726
-0.000237973
-0.000237973
-0.000369724
-0.000369724
-0.00010622
-0.00010622
0.00126383
0.00126383
0.000440274
0.000440274
-6.27161e-05
-6.27161e-05
-5.17038e-05
-5.17038e-05
0.000569934
0.000569934
0.000278248
0.000278248
0.00193555
0.00193555
0.000759958
0.000759958
-0.000111278
-0.000111278
0.000210572
0.000210572
8.46037e-05
8.46037e-05
-0.00199417
-0.00199417
-0.0005243
-0.0005243
0.000480703
0.000480703
8.01331e-06
8.01331e-06
0.00183253
0.00183253
-0.000133619
-0.000133619
-0.000720656
-0.000720656
3.94206e-06
3.94206e-06
-0.00147729
-0.00147729
0.00116118
0.00116118
-0.000517944
-0.000517944
9.32444e-05
9.32444e-05
-0.0012366
-0.0012366
0.000119035
0.000119035
3.73708e-05
3.73708e-05
-9.92118e-05
-9.92118e-05
0.000911429
0.000911429
0.000341178
0.000341178
-0.000188414
-0.000188414
-0.000146576
-0.000146576
-0.00179948
-0.00179948
0.00127904
0.00127904
0.000316474
0.000316474
0.000418357
0.000418357
0.000144722
0.000144722
0.000922334
0.000922334
0.000260289
0.000260289
0.000164285
0.000164285
0.000259099
0.000259099
0.000360681
0.000360681
-0.000254118
-0.000254118
-0.00278388
-0.00278388
0.000535645
0.000535645
-0.000407684
-0.000407684
-0.00225015
-0.00225015
-0.00135408
-0.00135408
0.000245406
0.000245406
-0.000190597
-0.000190597
-0.000219752
-0.000219752
0.000268959
0.000268959
-0.000121756
-0.000121756
0.000365982
0.000365982
-0.00091634
-0.00091634
-8.01134e-05
-8.01134e-05
0.000257628
0.000257628
9.83201e-05
9.83201e-05
-0.000503458
-0.000503458
-0.000288632
-0.000288632
0.000370183
0.000370183
0.00028378
0.00028378
0.00401691
0.00401691
-0.000311363
-0.000311363
-4.21483e-06
-4.21483e-06
-0.00016346
-0.00016346
-7.31107e-05
-7.31107e-05
0.000161305
0.000161305
-0.000228063
-0.000228063
-0.000171611
-0.000171611
-0.000165152
-0.000165152
0.000125627
0.000125627
-1.43559e-05
-1.43559e-05
-0.00102481
-0.00102481
3.7073e-05
3.7073e-05
-0.000190632
-0.000190632
0.000113668
0.000113668
0.00022757
0.00022757
-3.92158e-05
-3.92158e-05
-0.000289943
-0.000289943
-0.000110844
-0.000110844
0.00102667
0.00102667
0.00115955
0.00115955
-0.000397106
-0.000397106
7.69018e-06
7.69018e-06
4.72862e-05
4.72862e-05
0.000828976
0.000828976
0.000142569
0.000142569
-0.000323307
-0.000323307
3.6113e-05
3.6113e-05
0.000285256
0.000285256
0.000730728
0.000730728
-0.00180893
-0.00180893
1.41293e-05
1.41293e-05
-0.000260251
-0.000260251
-0.00155724
-0.00155724
-0.000221378
-0.000221378
0.000339293
0.000339293
7.16669e-05
7.16669e-05
0.000607353
0.000607353
-0.000470455
-0.000470455
0.000138118
0.000138118
-0.000543773
-0.000543773
-0.00133104
-0.00133104
-6.15715e-05
-6.15715e-05
6.73017e-05
6.73017e-05
-6.78467e-05
-6.78467e-05
0.00154888
0.00154888
-0.000438928
-0.000438928
0.00177653
0.00177653
-0.000511884
-0.000511884
-0.000342852
-0.000342852
0.00186858
0.00186858
-3.00044e-05
-3.00044e-05
0.000238636
0.000238636
9.19911e-05
9.19911e-05
-0.000851488
-0.000851488
0.000467637
0.000467637
-0.000607349
-0.000607349
0.000905304
0.000905304
9.22174e-05
9.22174e-05
-0.00012866
-0.00012866
7.19986e-05
7.19986e-05
-0.000360859
-0.000360859
-0.000890776
-0.000890776
-0.000508929
-0.000508929
-0.000201123
-0.000201123
4.82635e-05
4.82635e-05
0.00295309
0.00295309
0.000107689
0.000107689
-0.000657855
-0.000657855
0.00195431
0.00195431
0.000200887
0.000200887
-5.58929e-05
-5.58929e-05
-0.00162279
-0.00162279
0.000205513
0.000205513
6.80783e-05
6.80783e-05
0.00146139
0.00146139
-0.000651736
-0.000651736
0.000336977
0.000336977
-8.93778e-05
-8.93778e-05
0.000204956
0.000204956
-2.72586e-05
-2.72586e-05
0.000639296
0.000639296
0.000364888
0.000364888
-0.000282204
-0.000282204
0.00013889
0.00013889
6.76992e-05
6.76992e-05
0.00013692
0.00013692
-0.000376198
-0.000376198
0.000821015
0.000821015
-0.000784438
-0.000784438
0.000326018
0.000326018
0.00123174
0.00123174
0.000110097
0.000110097
-0.000877586
-0.000877586
-0.000298365
-0.000298365
-0.00228799
-0.00228799
-0.000210771
-0.000210771
0.000139416
0.000139416
-0.00021932
-0.00021932
0.000120241
0.000120241
-0.00311666
-0.00311666
0.000319803
0.000319803
0.000800629
0.000800629
-0.00056025
-0.00056025
-0.000427116
-0.000427116
-4.5748e-05
-4.5748e-05
0.000414807
0.000414807
-7.10654e-05
-7.10654e-05
-0.000546846
-0.000546846
-0.000416728
-0.000416728
0.00202252
0.00202252
0.00014086
0.00014086
0.000183019
0.000183019
-0.000602325
-0.000602325
-0.000486505
-0.000486505
-9.77598e-05
-9.77598e-05
3.09886e-05
3.09886e-05
-0.00143033
-0.00143033
0.00139902
0.00139902
0.000510963
0.000510963
-1.847e-05
-1.847e-05
-3.97687e-05
-3.97687e-05
0.000631915
0.000631915
-0.000157334
-0.000157334
-2.30169e-05
-2.30169e-05
0.000640001
0.000640001
0.000334971
0.000334971
0.000137747
0.000137747
4.42685e-05
4.42685e-05
8.3808e-05
8.3808e-05
-0.00110866
-0.00110866
-0.000289515
-0.000289515
0.000677532
0.000677532
0.000968346
0.000968346
2.11013e-05
2.11013e-05
-0.000780491
-0.000780491
-0.000155749
-0.000155749
0.000269199
0.000269199
0.000975725
0.000975725
0.000202024
0.000202024
0.000800238
0.000800238
-0.000352117
-0.000352117
-0.00232411
-0.00232411
0.000114921
0.000114921
0.000584608
0.000584608
-7.95725e-05
-7.95725e-05
0.000178456
0.000178456
-0.000830241
-0.000830241
0.000218101
0.000218101
-0.000271626
-0.000271626
-0.000295025
-0.000295025
-0.000438989
-0.000438989
0.000140084
0.000140084
0.000182943
0.000182943
0.000488491
0.000488491
-0.000699295
-0.000699295
8.79642e-05
8.79642e-05
0.000131792
0.000131792
-1.49628e-05
-1.49628e-05
-0.00134614
-0.00134614
0.000202922
0.000202922
-0.000169183
-0.000169183
6.25238e-05
6.25238e-05
-0.000154852
-0.000154852
0.000738781
0.000738781
-0.000568747
-0.000568747
0.000303244
0.000303244
-3.55064e-05
-3.55064e-05
0.00112552
0.00112552
6.86476e-05
6.86476e-05
0.000130423
0.000130423
-0.000274618
-0.000274618
-0.000400211
-0.000400211
0.0001719
0.0001719
-0.000166027
-0.000166027
0.00234857
0.00234857
0.000597259
0.000597259
-0.000116748
-0.000116748
-0.000125257
-0.000125257
-0.000168569
-0.000168569
-0.000392311
-0.000392311
-0.000294449
-0.000294449
-0.0015313
-0.0015313
1.54405e-05
1.54405e-05
-0.000221668
-0.000221668
0.00131597
0.00131597
0.000886094
0.000886094
-0.000100929
-0.000100929
-0.00245693
-0.00245693
0.00110992
0.00110992
0.00141266
0.00141266
-0.001489
-0.001489
0.0002025
0.0002025
0.000383573
0.000383573
0.000401877
0.000401877
0.000450727
0.000450727
0.00141609
0.00141609
-0.000124366
-0.000124366
0.000142321
0.000142321
-0.000466308
-0.000466308
-0.000827814
-0.000827814
0.000853051
0.000853051
7.40825e-05
7.40825e-05
6.04387e-05
6.04387e-05
1.34843e-05
1.34843e-05
-0.000207745
-0.000207745
-9.37886e-07
-9.37886e-07
-4.22304e-05
-4.22304e-05
0.000506654
0.000506654
6.86406e-06
6.86406e-06
0.000664879
0.000664879
-0.000137008
-0.000137008
0.000500641
0.000500641
-0.00018326
-0.00018326
-0.000298115
-0.000298115
-0.00091935
-0.00091935
0.000298903
0.000298903
0.000981982
0.000981982
0.0013944
0.0013944
-0.000182287
-0.000182287
-0.000519622
-0.000519622
0.000374956
0.000374956
-0.00178274
-0.00178274
-4.40106e-05
-4.40106e-05
-0.0011145
-0.0011145
-0.000243293
-0.000243293
-0.00183019
-0.00183019
0.000110172
0.000110172
0.000156038
0.000156038
-8.79389e-05
-8.79389e-05
6.70963e-05
6.70963e-05
0.00343465
0.00343465
-1.23353e-05
-1.23353e-05
0.00156648
0.00156648
6.50038e-05
6.50038e-05
0.000560186
0.000560186
0.000127808
0.000127808
-0.00089357
-0.00089357
0.00035571
0.00035571
0.000195045
0.000195045
-0.000185534
-0.000185534
-5.46993e-05
-5.46993e-05
-0.00123806
-0.00123806
0.000213158
0.000213158
-0.00122543
-0.00122543
0.000212714
0.000212714
-0.000110724
-0.000110724
0.000497631
0.000497631
4.05223e-05
4.05223e-05
0.000246541
0.000246541
-0.000381767
-0.000381767
0.000260139
0.000260139
-0.000163168
-0.000163168
-6.95033e-05
-6.95033e-05
0.000119188
0.000119188
0.000354756
0.000354756
-1.96755e-05
-1.96755e-05
-0.00074492
-0.00074492
3.156e-05
3.156e-05
-0.00264658
-0.00264658
0.000331472
0.000331472
-6.21406e-05
-6.21406e-05
-4.86981e-05
-4.86981e-05
0.000265088
0.000265088
-0.000304314
-0.000304314
0.0012465
0.0012465
-5.958e-06
-5.958e-06
0.000214283
0.000214283
-0.000604216
-0.000604216
-0.000150435
-0.000150435
-0.00013869
-0.00013869
0.00110057
0.00110057
-0.000194766
-0.000194766
1.59073e-05
1.59073e-05
-7.79859e-05
-7.79859e-05
-0.000132503
-0.000132503
-0.00093149
-0.00093149
-5.27257e-05
-5.27257e-05
0.000101827
0.000101827
-0.00210697
-0.00210697
-6.23373e-05
-6.23373e-05
3.57429e-05
3.57429e-05
-3.28056e-05
-3.28056e-05
-0.000257887
-0.000257887
-0.00168195
-0.00168195
-0.000104241
-0.000104241
0.000307742
0.000307742
0.000349214
0.000349214
0.0020872
0.0020872
-0.000131046
-0.000131046
-0.000452649
-0.000452649
3.71985e-05
3.71985e-05
-7.74541e-05
-7.74541e-05
0.000185788
0.000185788
-4.1239e-05
-4.1239e-05
-2.95811e-05
-2.95811e-05
0.000116496
0.000116496
-0.000130042
-0.000130042
0.000347072
0.000347072
-0.000156474
-0.000156474
-0.00112484
-0.00112484
-1.85578e-06
-1.85578e-06
0.00023083
0.00023083
-0.000111098
-0.000111098
0.000101047
0.000101047
0.0011248
0.0011248
0.000674108
0.000674108
0.000387008
0.000387008
0.000244635
0.000244635
-0.000244672
-0.000244672
0.000539071
0.000539071
-5.83374e-05
-5.83374e-05
0.00058037
0.00058037
-0.00249548
-0.00249548
-0.000141829
-0.000141829
-0.00211889
-0.00211889
0.000628383
0.000628383
-0.000245572
-0.000245572
0.00263049
0.00263049
0.00145601
0.00145601
0.000403554
0.000403554
-0.000236066
-0.000236066
0.000197463
0.000197463
0.00152318
0.00152318
0.00034779
0.00034779
-0.000541413
-0.000541413
-0.00232081
-0.00232081
-0.000253422
-0.000253422
0.00165844
0.00165844
-0.00242714
-0.00242714
-0.000557154
-0.000557154
-0.00126987
-0.00126987
-0.000202172
-0.000202172
-7.90217e-05
-7.90217e-05
-6.47546e-05
-6.47546e-05
0.000185782
0.000185782
-7.05635e-05
-7.05635e-05
0.00186875
0.00186875
-0.000642771
-0.000642771
-0.00119856
-0.00119856
-8.06079e-05
-8.06079e-05
0.000104168
0.000104168
-6.68549e-05
-6.68549e-05
0.000241173
0.000241173
0.000445976
0.000445976
-0.00161053
-0.00161053
0.000821728
0.000821728
-0.000162819
-0.000162819
-0.000837694
-0.000837694
-0.000794267
-0.000794267
5.08614e-05
5.08614e-05
-5.44768e-05
-5.44768e-05
-0.000522964
-0.000522964
5.52366e-05
5.52366e-05
-0.000159761
-0.000159761
-3.48111e-05
-3.48111e-05
0.000132506
0.000132506
0.000132985
0.000132985
-0.000193511
-0.000193511
4.39653e-05
4.39653e-05
-0.000279846
-0.000279846
-0.000618032
-0.000618032
0.000315006
0.000315006
-0.000776297
-0.000776297
0.000148568
0.000148568
-0.00129241
-0.00129241
0.000551449
0.000551449
-0.00183207
-0.00183207
4.03154e-06
4.03154e-06
0.000104731
0.000104731
-0.000836898
-0.000836898
-0.000197203
-0.000197203
-0.000614986
-0.000614986
-0.000405248
-0.000405248
-0.000462898
-0.000462898
-9.00126e-06
-9.00126e-06
-0.000100614
-0.000100614
0.000163383
0.000163383
-0.000477618
-0.000477618
8.15517e-05
8.15517e-05
-0.000150602
-0.000150602
0.000104084
0.000104084
-7.42243e-05
-7.42243e-05
-0.00107164
-0.00107164
-0.000222265
-0.000222265
0.00173176
0.00173176
-0.000352245
-0.000352245
-0.000117833
-0.000117833
0.000829907
0.000829907
0.000169879
0.000169879
0.00206795
0.00206795
2.84091e-06
2.84091e-06
-1.13523e-05
-1.13523e-05
0.000294376
0.000294376
0.000681571
0.000681571
0.000163241
0.000163241
-8.18874e-05
-8.18874e-05
-0.00135284
-0.00135284
-0.000180468
-0.000180468
-0.000173218
-0.000173218
0.000200888
0.000200888
0.000515131
0.000515131
0.000546192
0.000546192
-0.000112083
-0.000112083
0.000538722
0.000538722
0.000235418
0.000235418
-0.000202727
-0.000202727
-0.000280651
-0.000280651
-7.14e-05
-7.14e-05
0.00139991
0.00139991
0.00173642
0.00173642
-1.52969e-05
-1.52969e-05
-0.00158421
-0.00158421
0.000505218
0.000505218
-0.000110099
-0.000110099
-8.71234e-05
-8.71234e-05
0.000195232
0.000195232
-0.000760362
-0.000760362
7.98044e-05
7.98044e-05
-0.000187582
-0.000187582
0.00116534
0.00116534
-9.74149e-05
-9.74149e-05
-4.15217e-05
-4.15217e-05
0.000246673
0.000246673
0.000154075
0.000154075
-4.38105e-05
-4.38105e-05
0.000229812
0.000229812
-0.000952192
-0.000952192
0.00201936
0.00201936
0.000351797
0.000351797
-0.00019492
-0.00019492
-0.000208331
-0.000208331
-0.000102892
-0.000102892
-3.96999e-05
-3.96999e-05
0.000368142
0.000368142
-0.000131217
-0.000131217
0.000160227
0.000160227
0.00109773
0.00109773
-1.83948e-05
-1.83948e-05
-0.00194145
-0.00194145
0.00111111
0.00111111
-3.98646e-05
-3.98646e-05
0.000341296
0.000341296
0.00222219
0.00222219
6.02002e-05
6.02002e-05
-0.00110127
-0.00110127
2.05154e-07
2.05154e-07
-0.000463294
-0.000463294
-3.89335e-07
-3.89335e-07
-0.000213462
-0.000213462
1.02473e-05
1.02473e-05
-0.000161662
-0.000161662
-8.6617e-05
-8.6617e-05
0.00046202
0.00046202
-0.000416327
-0.000416327
-7.52963e-05
-7.52963e-05
0.000179222
0.000179222
-0.000210095
-0.000210095
-0.000477952
-0.000477952
0.000177197
0.000177197
0.00151168
0.00151168
6.41928e-05
6.41928e-05
0.00162024
0.00162024
0.00173253
0.00173253
0.000720184
0.000720184
-0.000406107
-0.000406107
-8.64863e-06
-8.64863e-06
6.2807e-05
6.2807e-05
-0.000231346
-0.000231346
-0.000485079
-0.000485079
0.000271777
0.000271777
0.000179319
0.000179319
9.25317e-05
9.25317e-05
-0.000132868
-0.000132868
-0.000738424
-0.000738424
-0.000541909
-0.000541909
0.000249833
0.000249833
-0.000245202
-0.000245202
0.000399238
0.000399238
0.00145064
0.00145064
7.78462e-05
7.78462e-05
-0.000688339
-0.000688339
0.000754664
0.000754664
-0.0024477
-0.0024477
-0.00010389
-0.00010389
0.000241175
0.000241175
0.000556652
0.000556652
-3.14858e-05
-3.14858e-05
0.000672632
0.000672632
0.000532941
0.000532941
0.000420953
0.000420953
8.75303e-05
8.75303e-05
0.000169922
0.000169922
0.00041018
0.00041018
0.000380396
0.000380396
0.000317126
0.000317126
-9.63722e-05
-9.63722e-05
-0.000181424
-0.000181424
-0.000270766
-0.000270766
-0.000245923
-0.000245923
-0.00091602
-0.00091602
0.000136695
0.000136695
-0.00085913
-0.00085913
-0.000709391
-0.000709391
0.000732323
0.000732323
0.000916527
0.000916527
-0.000201719
-0.000201719
0.00147317
0.00147317
0.000549295
0.000549295
-2.73031e-05
-2.73031e-05
-0.000711444
-0.000711444
1.83494e-05
1.83494e-05
0.000163266
0.000163266
-1.08946e-05
-1.08946e-05
0.00267157
0.00267157
4.91582e-05
4.91582e-05
-0.00215066
-0.00215066
-0.000124167
-0.000124167
-0.000343806
-0.000343806
0.00154364
0.00154364
-0.00121293
-0.00121293
0.000434162
0.000434162
-0.00020526
-0.00020526
0.000215206
0.000215206
-0.000131354
-0.000131354
-5.33911e-05
-5.33911e-05
0.000297918
0.000297918
0.000160544
0.000160544
0.000115879
0.000115879
-0.000233183
-0.000233183
-0.00016776
-0.00016776
-0.000924037
-0.000924037
-9.50983e-05
-9.50983e-05
0.000201241
0.000201241
0.000313371
0.000313371
2.89591e-05
2.89591e-05
-0.000315803
-0.000315803
1.40172e-05
1.40172e-05
0.00120675
0.00120675
0.00335745
0.00335745
5.03868e-05
5.03868e-05
-5.56159e-05
-5.56159e-05
0.000167295
0.000167295
-0.000486347
-0.000486347
-0.000113736
-0.000113736
0.000317976
0.000317976
8.58024e-05
8.58024e-05
-0.000614223
-0.000614223
-0.000591428
-0.000591428
0.00152126
0.00152126
0.00136687
0.00136687
-5.12031e-05
-5.12031e-05
-0.00198431
-0.00198431
-0.00037228
-0.00037228
0.00191519
0.00191519
0.000290003
0.000290003
-0.000425372
-0.000425372
0.000160578
0.000160578
-0.0005266
-0.0005266
-0.000188713
-0.000188713
0.000389634
0.000389634
-0.000169405
-0.000169405
5.07715e-05
5.07715e-05
4.9586e-05
4.9586e-05
-0.000108003
-0.000108003
0.000605498
0.000605498
-0.00110014
-0.00110014
-0.000413656
-0.000413656
-0.000444796
-0.000444796
0.0010886
0.0010886
-0.000433256
-0.000433256
-0.000268302
-0.000268302
-0.00199948
-0.00199948
0.000424249
0.000424249
-0.00012651
-0.00012651
-0.000848731
-0.000848731
-0.000150486
-0.000150486
-0.000118086
-0.000118086
0.00012471
0.00012471
-0.00012421
-0.00012421
0.000341996
0.000341996
0.000380992
0.000380992
0.000228321
0.000228321
-0.000527161
-0.000527161
-0.00118266
-0.00118266
-0.00043465
-0.00043465
-0.000881549
-0.000881549
-9.30484e-05
-9.30484e-05
-3.14814e-05
-3.14814e-05
-6.0204e-05
-6.0204e-05
7.16568e-05
7.16568e-05
-0.000343837
-0.000343837
0.00101037
0.00101037
-0.00024578
-0.00024578
5.45637e-05
5.45637e-05
0.00333369
0.00333369
-0.00165032
-0.00165032
0.000139598
0.000139598
-0.000420721
-0.000420721
-5.63098e-05
-5.63098e-05
0.000135174
0.000135174
0.000904567
0.000904567
-0.000230259
-0.000230259
-3.70079e-05
-3.70079e-05
-0.00298569
-0.00298569
0.000751477
0.000751477
0.00033246
0.00033246
-0.000118659
-0.000118659
-0.000388298
-0.000388298
-0.000131755
-0.000131755
0.000123767
0.000123767
-0.00014724
-0.00014724
0.00130009
0.00130009
-4.5064e-05
-4.5064e-05
-0.000181083
-0.000181083
-1.12435e-05
-1.12435e-05
0.000306066
0.000306066
0.000497495
0.000497495
0.000320569
0.000320569
0.00063299
0.00063299
0.000140684
0.000140684
8.46914e-05
8.46914e-05
0.000150672
0.000150672
0.000191656
0.000191656
0.000188993
0.000188993
0.000292601
0.000292601
6.40276e-05
6.40276e-05
-0.00262562
-0.00262562
-0.000154205
-0.000154205
-0.000687213
-0.000687213
0.000331077
0.000331077
0.000486823
0.000486823
0.000258736
0.000258736
0.00111967
0.00111967
-0.000232182
-0.000232182
-7.85094e-05
-7.85094e-05
0.000261945
0.000261945
-0.00154326
-0.00154326
-0.00166629
-0.00166629
0.000140108
0.000140108
-0.000277313
-0.000277313
0.000153128
0.000153128
-0.000771516
-0.000771516
0.00115758
0.00115758
-0.000880511
-0.000880511
-0.00234032
-0.00234032
-0.00175258
-0.00175258
0.000579659
0.000579659
-0.00113559
-0.00113559
-0.00255272
-0.00255272
0.00179999
0.00179999
-0.000334429
-0.000334429
0.000254089
0.000254089
4.90098e-05
4.90098e-05
-0.00057516
-0.00057516
-0.000149503
-0.000149503
0.000111946
0.000111946
-0.000766653
-0.000766653
0.00345453
0.00345453
-0.000386036
-0.000386036
-3.50962e-05
-3.50962e-05
0.000648264
0.000648264
-0.000712853
-0.000712853
-8.75824e-05
-8.75824e-05
0.000136049
0.000136049
6.48897e-05
6.48897e-05
0.000486255
0.000486255
8.08304e-05
8.08304e-05
0.000377411
0.000377411
-0.000413799
-0.000413799
6.08664e-05
6.08664e-05
-0.000417441
-0.000417441
-2.70314e-05
-2.70314e-05
1.60815e-06
1.60815e-06
-0.00106903
-0.00106903
0.000189203
0.000189203
-0.000489341
-0.000489341
-2.0262e-05
-2.0262e-05
-0.000460911
-0.000460911
0.000167457
0.000167457
-0.00132785
-0.00132785
0.00141048
0.00141048
-0.00159289
-0.00159289
6.72209e-05
6.72209e-05
-0.000417932
-0.000417932
-0.00177806
-0.00177806
-0.00035095
-0.00035095
0.000113033
0.000113033
3.84128e-05
3.84128e-05
-0.000271292
-0.000271292
-0.000365965
-0.000365965
0.000283972
0.000283972
0.000100668
0.000100668
-0.0017165
-0.0017165
-5.1099e-05
-5.1099e-05
2.16063e-05
2.16063e-05
-0.00143447
-0.00143447
7.89296e-05
7.89296e-05
-0.000265663
-0.000265663
0.000243077
0.000243077
0.000794185
0.000794185
0.000823763
0.000823763
-0.000171842
-0.000171842
-0.0002637
-0.0002637
0.000180131
0.000180131
-0.000618033
-0.000618033
2.04152e-05
2.04152e-05
0.000384205
0.000384205
-0.000843041
-0.000843041
0.000127957
0.000127957
0.000151886
0.000151886
0.000134379
0.000134379
0.000424273
0.000424273
5.47048e-07
5.47048e-07
0.000630943
0.000630943
0.000374286
0.000374286
0.000135707
0.000135707
-9.54809e-06
-9.54809e-06
0.00013487
0.00013487
-0.00077616
-0.00077616
-0.0001891
-0.0001891
0.000684056
0.000684056
0.000667986
0.000667986
6.1194e-05
6.1194e-05
0.000196162
0.000196162
-0.000301838
-0.000301838
0.00110605
0.00110605
0.000687785
0.000687785
0.000148878
0.000148878
-0.0001419
-0.0001419
-0.000173965
-0.000173965
0.000202742
0.000202742
2.07642e-05
2.07642e-05
0.00096466
0.00096466
0.000256472
0.000256472
-0.000134518
-0.000134518
-0.000156473
-0.000156473
9.34695e-05
9.34695e-05
0.000474437
0.000474437
0.000270848
0.000270848
0.000195194
0.000195194
5.19982e-05
5.19982e-05
0.000376281
0.000376281
0.000535046
0.000535046
-0.000101714
-0.000101714
-0.000851517
-0.000851517
0.000775496
0.000775496
0.000359909
0.000359909
-0.000136208
-0.000136208
-0.000173539
-0.000173539
0.000515269
0.000515269
-0.000136063
-0.000136063
-4.22242e-05
-4.22242e-05
0.000134069
0.000134069
0.000325213
0.000325213
-8.95197e-05
-8.95197e-05
-0.000136948
-0.000136948
-9.21934e-05
-9.21934e-05
0.000893881
0.000893881
0.000628226
0.000628226
0.00027379
0.00027379
0.000429673
0.000429673
0.000324362
0.000324362
-0.000266951
-0.000266951
-0.000272596
-0.000272596
0.00031101
0.00031101
-0.000536921
-0.000536921
-0.000603608
-0.000603608
-0.000523637
-0.000523637
-0.000160838
-0.000160838
-0.00016866
-0.00016866
-0.00027365
-0.00027365
-0.000124693
-0.000124693
0.000230411
0.000230411
0.000999498
0.000999498
0.000108154
0.000108154
-0.000163434
-0.000163434
-7.37633e-05
-7.37633e-05
4.90639e-05
4.90639e-05
-0.000307015
-0.000307015
-0.000151979
-0.000151979
0.000107634
0.000107634
2.97747e-05
2.97747e-05
-0.000790936
-0.000790936
-0.000470773
-0.000470773
-0.00177108
-0.00177108
-0.000396116
-0.000396116
0.000117624
0.000117624
-0.000371533
-0.000371533
-0.000411067
-0.000411067
0.00324384
0.00324384
-0.00253856
-0.00253856
-3.07559e-05
-3.07559e-05
-0.00108578
-0.00108578
0.000253743
0.000253743
-0.00192581
-0.00192581
0.000650603
0.000650603
-0.000848524
-0.000848524
-0.000126827
-0.000126827
-6.36244e-05
-6.36244e-05
-0.00128778
-0.00128778
-0.000390922
-0.000390922
-0.000182141
-0.000182141
-5.31254e-05
-5.31254e-05
-0.00014378
-0.00014378
-0.00121118
-0.00121118
-0.000153722
-0.000153722
-0.000107767
-0.000107767
-0.00148149
-0.00148149
-7.87605e-05
-7.87605e-05
-0.00098167
-0.00098167
-0.0001832
-0.0001832
-9.6186e-06
-9.6186e-06
-0.000148677
-0.000148677
0.00011895
0.00011895
0.000101305
0.000101305
-5.97307e-05
-5.97307e-05
0.000251501
0.000251501
-0.00016835
-0.00016835
-0.00153112
-0.00153112
-0.00140394
-0.00140394
-0.00236601
-0.00236601
-0.000257929
-0.000257929
-0.00111611
-0.00111611
-1.10253e-05
-1.10253e-05
0.000973121
0.000973121
-0.000226101
-0.000226101
0.00208819
0.00208819
0.000450082
0.000450082
0.000101735
0.000101735
8.10566e-06
8.10566e-06
0.00101741
0.00101741
-0.000279815
-0.000279815
-0.000157293
-0.000157293
-5.14624e-05
-5.14624e-05
0.00025383
0.00025383
-0.00148199
-0.00148199
1.4229e-05
1.4229e-05
0.000412921
0.000412921
-0.000195469
-0.000195469
0.000167232
0.000167232
-1.80581e-05
-1.80581e-05
-7.4556e-06
-7.4556e-06
0.000350436
0.000350436
-0.000223583
-0.000223583
-0.00308267
-0.00308267
0.000474358
0.000474358
0.000178578
0.000178578
-0.000524818
-0.000524818
1.60648e-05
1.60648e-05
-0.000536037
-0.000536037
-0.00192225
-0.00192225
-0.000335449
-0.000335449
-0.000145397
-0.000145397
0.000304632
0.000304632
0.000166058
0.000166058
-0.00110032
-0.00110032
0.000128783
0.000128783
-0.00229557
-0.00229557
-0.000148477
-0.000148477
0.000212031
0.000212031
-0.0002033
-0.0002033
0.000630878
0.000630878
-0.000415094
-0.000415094
-0.000787559
-0.000787559
0.000767558
0.000767558
-0.000448321
-0.000448321
-0.000864547
-0.000864547
-0.000145555
-0.000145555
0.00167416
0.00167416
0.000130391
0.000130391
4.05547e-05
4.05547e-05
0.000193338
0.000193338
0.001605
0.001605
0.00039237
0.00039237
-0.000257501
-0.000257501
0.000286945
0.000286945
-0.000114763
-0.000114763
-0.000133981
-0.000133981
-0.000702284
-0.000702284
0.000376423
0.000376423
-0.000927864
-0.000927864
-0.0013873
-0.0013873
0.000197458
0.000197458
-6.4072e-05
-6.4072e-05
-0.000256228
-0.000256228
0.000263986
0.000263986
0.00127452
0.00127452
0.000994354
0.000994354
0.00191711
0.00191711
-0.000165174
-0.000165174
6.62264e-05
6.62264e-05
0.000289045
0.000289045
-0.00049527
-0.00049527
-0.000329994
-0.000329994
-0.000157202
-0.000157202
0.000312868
0.000312868
0.000178481
0.000178481
3.488e-05
3.488e-05
4.97963e-06
4.97963e-06
-0.00039211
-0.00039211
9.79728e-05
9.79728e-05
-0.000358486
-0.000358486
-0.000142964
-0.000142964
-0.000499793
-0.000499793
-0.000318934
-0.000318934
-0.000203519
-0.000203519
-5.17711e-05
-5.17711e-05
0.000291583
0.000291583
-0.000330165
-0.000330165
-0.000140125
-0.000140125
2.27247e-05
2.27247e-05
-0.000398988
-0.000398988
0.000219406
0.000219406
-0.000303813
-0.000303813
0.000147474
0.000147474
0.000152214
0.000152214
-9.16033e-05
-9.16033e-05
-0.000123315
-0.000123315
0.00013351
0.00013351
0.000923609
0.000923609
-0.0016395
-0.0016395
-0.000161646
-0.000161646
-0.000959273
-0.000959273
-0.000428629
-0.000428629
0.000759529
0.000759529
-0.000327329
-0.000327329
-0.000660472
-0.000660472
-4.50968e-05
-4.50968e-05
5.87291e-05
5.87291e-05
2.13291e-05
2.13291e-05
0.000647272
0.000647272
3.17351e-06
3.17351e-06
0.000563414
0.000563414
0.000348996
0.000348996
-0.00155251
-0.00155251
-0.00158979
-0.00158979
-0.000448381
-0.000448381
0.00023347
0.00023347
0.000182191
0.000182191
5.93838e-05
5.93838e-05
0.00012066
0.00012066
-8.55574e-05
-8.55574e-05
-6.13619e-05
-6.13619e-05
0.000228264
0.000228264
0.0011704
0.0011704
0.000559005
0.000559005
-0.000137673
-0.000137673
-0.00041236
-0.00041236
0.000125058
0.000125058
-0.00149432
-0.00149432
-0.00148549
-0.00148549
-0.000255235
-0.000255235
0.000457392
0.000457392
0.000456254
0.000456254
-0.000283448
-0.000283448
-8.05789e-05
-8.05789e-05
-4.31518e-05
-4.31518e-05
-0.00329109
-0.00329109
0.00181851
0.00181851
5.35479e-05
5.35479e-05
-0.000727974
-0.000727974
5.83848e-05
5.83848e-05
-0.00183972
-0.00183972
-0.000385015
-0.000385015
-8.27174e-05
-8.27174e-05
-0.0003568
-0.0003568
0.000228651
0.000228651
-0.00142186
-0.00142186
7.00927e-05
7.00927e-05
-0.00222821
-0.00222821
0.000115492
0.000115492
-0.00107589
-0.00107589
-0.00251472
-0.00251472
-0.000320839
-0.000320839
-0.000632557
-0.000632557
-0.000472453
-0.000472453
-7.50225e-05
-7.50225e-05
4.23359e-05
4.23359e-05
0.000193664
0.000193664
6.07465e-05
6.07465e-05
0.000344487
0.000344487
0.000164005
0.000164005
0.000379994
0.000379994
-0.000308977
-0.000308977
-0.0010295
-0.0010295
-0.000309937
-0.000309937
-0.000295239
-0.000295239
0.000153151
0.000153151
-0.00138442
-0.00138442
-0.00174448
-0.00174448
-0.00020536
-0.00020536
0.00015386
0.00015386
0.000202099
0.000202099
0.000696386
0.000696386
-0.00146363
-0.00146363
0.000182491
0.000182491
-0.0013531
-0.0013531
-0.000221216
-0.000221216
-9.58932e-05
-9.58932e-05
0.000908051
0.000908051
-0.000226313
-0.000226313
0.000157515
0.000157515
-9.17853e-05
-9.17853e-05
0.000464065
0.000464065
0.000773741
0.000773741
-0.000148571
-0.000148571
0.000146029
0.000146029
-0.00138256
-0.00138256
9.46395e-05
9.46395e-05
7.96827e-06
7.96827e-06
0.000196277
0.000196277
0.000184742
0.000184742
-0.00190612
-0.00190612
0.000473102
0.000473102
-0.000428434
-0.000428434
0.000119879
0.000119879
0.000890813
0.000890813
-0.000282799
-0.000282799
0.00217937
0.00217937
0.000137599
0.000137599
0.0024139
0.0024139
-8.40679e-05
-8.40679e-05
7.5332e-05
7.5332e-05
0.0020833
0.0020833
-5.86294e-05
-5.86294e-05
-0.000272655
-0.000272655
3.7069e-05
3.7069e-05
-0.000656206
-0.000656206
-8.79828e-05
-8.79828e-05
0.00010318
0.00010318
-0.000316695
-0.000316695
0.000716512
0.000716512
-0.000819373
-0.000819373
0.000517242
0.000517242
-0.00161243
-0.00161243
-0.000213791
-0.000213791
-0.00076621
-0.00076621
0.000239197
0.000239197
-2.91731e-05
-2.91731e-05
1.03873e-05
1.03873e-05
-0.000143729
-0.000143729
-0.000532736
-0.000532736
0.000118432
0.000118432
0.000126915
0.000126915
-0.000744397
-0.000744397
-0.000235511
-0.000235511
-0.00110799
-0.00110799
-0.00116723
-0.00116723
0.000546251
0.000546251
-0.000580083
-0.000580083
2.43216e-05
2.43216e-05
0.000365406
0.000365406
-0.00192849
-0.00192849
-0.000897483
-0.000897483
-0.000193919
-0.000193919
-0.000289762
-0.000289762
0.000172553
0.000172553
0.000746914
0.000746914
0.000257266
0.000257266
-0.000393407
-0.000393407
5.01308e-05
5.01308e-05
0.000234589
0.000234589
7.31415e-05
7.31415e-05
0.000755078
0.000755078
-1.62884e-05
-1.62884e-05
-0.000259704
-0.000259704
7.65828e-05
7.65828e-05
8.65305e-05
8.65305e-05
-8.00666e-05
-8.00666e-05
4.649e-05
4.649e-05
0.00100385
0.00100385
0.00221168
0.00221168
-0.00120052
-0.00120052
0.000199921
0.000199921
-0.000742688
-0.000742688
0.000728507
0.000728507
-0.000143388
-0.000143388
-0.000126341
-0.000126341
-0.000160436
-0.000160436
-0.00219168
-0.00219168
6.14367e-05
6.14367e-05
0.000236927
0.000236927
0.00167642
0.00167642
-0.000775926
-0.000775926
0.000194791
0.000194791
-0.00010694
-0.00010694
-0.000196819
-0.000196819
-7.54015e-05
-7.54015e-05
0.000185456
0.000185456
-0.000658461
-0.000658461
0.000643436
0.000643436
-0.000582658
-0.000582658
-0.000372074
-0.000372074
0.000211972
0.000211972
-0.00117235
-0.00117235
-0.000379249
-0.000379249
-6.16694e-05
-6.16694e-05
0.000163863
0.000163863
0.000841585
0.000841585
-0.000281049
-0.000281049
-0.000210224
-0.000210224
0.000821865
0.000821865
-0.0007022
-0.0007022
-0.00011377
-0.00011377
-0.0013787
-0.0013787
-4.40482e-05
-4.40482e-05
0.000143616
0.000143616
-2.71443e-05
-2.71443e-05
3.9933e-05
3.9933e-05
0.000159995
0.000159995
-0.00060776
-0.00060776
-2.57043e-05
-2.57043e-05
0.0020344
0.0020344
0.000172661
0.000172661
1.36712e-05
1.36712e-05
-0.000389727
-0.000389727
7.65553e-05
7.65553e-05
-0.00383322
-0.00383322
0.000236269
0.000236269
0.0005817
0.0005817
-3.86541e-05
-3.86541e-05
-0.000346767
-0.000346767
1.45021e-05
1.45021e-05
-0.000502181
-0.000502181
-0.000355022
-0.000355022
-0.00218648
-0.00218648
0.000717869
0.000717869
0.000322481
0.000322481
-8.69116e-05
-8.69116e-05
-7.44551e-05
-7.44551e-05
-0.00044137
-0.00044137
-0.000820194
-0.000820194
0.00018233
0.00018233
0.000279343
0.000279343
-0.000214021
-0.000214021
-0.00182143
-0.00182143
0.00176732
0.00176732
0.000445585
0.000445585
-0.000208443
-0.000208443
2.35524e-05
2.35524e-05
-0.000477702
-0.000477702
-0.000437108
-0.000437108
0.00118356
0.00118356
0.000165368
0.000165368
-0.000522608
-0.000522608
-0.000326234
-0.000326234
6.77662e-05
6.77662e-05
0.000114104
0.000114104
0.000953648
0.000953648
-7.38774e-05
-7.38774e-05
0.00098235
0.00098235
5.99568e-05
5.99568e-05
0.00114998
0.00114998
0.000404813
0.000404813
0.000860868
0.000860868
0.00246003
0.00246003
-7.18172e-05
-7.18172e-05
0.000114673
0.000114673
0.00024964
0.00024964
-0.000270948
-0.000270948
-0.000140772
-0.000140772
0.000922998
0.000922998
-0.000777248
-0.000777248
-0.000640906
-0.000640906
0.000102143
0.000102143
-0.000800022
-0.000800022
0.000378285
0.000378285
-0.000240472
-0.000240472
-0.000104631
-0.000104631
0.000382507
0.000382507
2.83933e-05
2.83933e-05
-0.000355416
-0.000355416
0.000405031
0.000405031
0.000591023
0.000591023
0.000150681
0.000150681
-0.000343995
-0.000343995
5.43374e-05
5.43374e-05
0.000180759
0.000180759
0.000379437
0.000379437
-0.00175073
-0.00175073
0.000821896
0.000821896
0.000570183
0.000570183
0.000492031
0.000492031
-0.000281024
-0.000281024
-0.000273789
-0.000273789
-0.000114849
-0.000114849
-0.000864718
-0.000864718
0.000401469
0.000401469
0.000299157
0.000299157
-0.000167753
-0.000167753
0.000481619
0.000481619
0.000173238
0.000173238
-0.00018609
-0.00018609
0.000114783
0.000114783
0.00185189
0.00185189
0.000649105
0.000649105
0.000329997
0.000329997
0.000388588
0.000388588
-6.75234e-06
-6.75234e-06
-0.000129729
-0.000129729
-2.52697e-05
-2.52697e-05
-0.0013702
-0.0013702
4.4769e-05
4.4769e-05
-0.000333212
-0.000333212
-8.14057e-05
-8.14057e-05
0.000342475
0.000342475
-8.74486e-05
-8.74486e-05
0.000316781
0.000316781
0.00020807
0.00020807
-8.96699e-05
-8.96699e-05
0.000587369
0.000587369
0.00113991
0.00113991
-0.000624501
-0.000624501
0.000103427
0.000103427
0.000273462
0.000273462
0.000168912
0.000168912
8.77075e-05
8.77075e-05
0.000309946
0.000309946
0.000772751
0.000772751
-2.63373e-05
-2.63373e-05
-7.66689e-05
-7.66689e-05
-0.000183585
-0.000183585
-0.000307325
-0.000307325
0.000479118
0.000479118
-0.000295499
-0.000295499
-2.58747e-05
-2.58747e-05
0.000112446
0.000112446
0.00092256
0.00092256
0.000755262
0.000755262
0.000701632
0.000701632
-8.35564e-05
-8.35564e-05
-0.000458808
-0.000458808
0.000133935
0.000133935
0.00045561
0.00045561
-0.00082203
-0.00082203
-0.000256386
-0.000256386
0.000152358
0.000152358
0.000178325
0.000178325
0.00172304
0.00172304
-0.000950635
-0.000950635
0.000603582
0.000603582
-0.00030535
-0.00030535
-0.00106169
-0.00106169
-0.00130612
-0.00130612
-6.20282e-05
-6.20282e-05
0.000157289
0.000157289
-0.0015231
-0.0015231
0.000684815
0.000684815
0.0015427
0.0015427
0.00016458
0.00016458
0.000717974
0.000717974
-0.00115164
-0.00115164
0.00256715
0.00256715
-0.000945833
-0.000945833
0.000833216
0.000833216
-0.0011251
-0.0011251
0.00100478
0.00100478
-0.000344229
-0.000344229
0.000160272
0.000160272
-0.00112
-0.00112
0.00141536
0.00141536
0.00153118
0.00153118
0.000659591
0.000659591
0.00107092
0.00107092
-0.000191749
-0.000191749
0.000970979
0.000970979
0.000379594
0.000379594
5.41261e-05
5.41261e-05
-7.59313e-05
-7.59313e-05
0.00181802
0.00181802
-0.000398619
-0.000398619
-0.000607006
-0.000607006
0.000205412
0.000205412
-0.000306155
-0.000306155
0.000167619
0.000167619
-6.98914e-05
-6.98914e-05
0.000481312
0.000481312
-0.000242552
-0.000242552
-0.00078167
-0.00078167
0.000623679
0.000623679
-0.00033295
-0.00033295
0.00051937
0.00051937
0.000343043
0.000343043
0.000101892
0.000101892
-0.00028982
-0.00028982
0.00103347
0.00103347
0.00202547
0.00202547
-0.000492589
-0.000492589
-9.30896e-05
-9.30896e-05
0.000101984
0.000101984
9.44716e-05
9.44716e-05
-0.000132947
-0.000132947
-0.000377415
-0.000377415
-0.00106493
-0.00106493
-4.36835e-05
-4.36835e-05
-0.000863265
-0.000863265
0.000352468
0.000352468
0.000146223
0.000146223
0.000168044
0.000168044
-0.00012997
-0.00012997
0.000240256
0.000240256
-0.000211645
-0.000211645
0.00245387
0.00245387
-0.00018597
-0.00018597
-0.00017699
-0.00017699
0.000275108
0.000275108
0.00110451
0.00110451
-0.000101582
-0.000101582
0.002002
0.002002
0.00229989
0.00229989
-0.000363148
-0.000363148
-0.000299581
-0.000299581
0.000560238
0.000560238
-0.000792802
-0.000792802
-0.000288859
-0.000288859
-8.75021e-05
-8.75021e-05
-0.000227321
-0.000227321
-0.00139068
-0.00139068
0.000109378
0.000109378
0.000190133
0.000190133
0.000810568
0.000810568
5.43829e-05
5.43829e-05
-0.000556594
-0.000556594
-0.000423602
-0.000423602
-0.000553985
-0.000553985
7.37543e-05
7.37543e-05
2.43378e-05
2.43378e-05
-4.67561e-05
-4.67561e-05
-0.00152051
-0.00152051
0.000215988
0.000215988
0.000106844
0.000106844
1.54521e-05
1.54521e-05
9.76776e-05
9.76776e-05
0.000256835
0.000256835
-2.10062e-05
-2.10062e-05
-0.000118061
-0.000118061
0.000479761
0.000479761
0.000193257
0.000193257
8.90682e-06
8.90682e-06
0.000376612
0.000376612
0.000424996
0.000424996
0.00017684
0.00017684
-0.00015203
-0.00015203
-9.34452e-05
-9.34452e-05
-0.000266734
-0.000266734
0.000124807
0.000124807
0.000121582
0.000121582
-0.000190138
-0.000190138
3.49217e-05
3.49217e-05
0.000196224
0.000196224
-0.000400857
-0.000400857
-7.385e-05
-7.385e-05
0.0024394
0.0024394
0.000352128
0.000352128
0.000326063
0.000326063
0.0033995
0.0033995
-0.000320121
-0.000320121
-0.000214119
-0.000214119
-0.000230317
-0.000230317
-5.42423e-05
-5.42423e-05
-0.000135515
-0.000135515
-2.23519e-05
-2.23519e-05
0.000490108
0.000490108
-0.000114474
-0.000114474
4.07923e-05
4.07923e-05
-0.000325982
-0.000325982
-0.000183074
-0.000183074
-9.28389e-05
-9.28389e-05
-0.000139977
-0.000139977
-0.000463161
-0.000463161
-0.000455355
-0.000455355
-0.00239296
-0.00239296
-9.13689e-05
-9.13689e-05
-0.000219033
-0.000219033
0.00192871
0.00192871
0.000135629
0.000135629
1.22448e-05
1.22448e-05
0.000203659
0.000203659
0.00248804
0.00248804
0.000341743
0.000341743
-8.84868e-05
-8.84868e-05
-0.00138622
-0.00138622
0.000365451
0.000365451
0.000118341
0.000118341
-0.00061406
-0.00061406
0.0017678
0.0017678
0.000251178
0.000251178
7.18762e-05
7.18762e-05
-0.000100513
-0.000100513
-0.00163489
-0.00163489
-9.62321e-05
-9.62321e-05
0.000246573
0.000246573
0.00020707
0.00020707
6.93162e-05
6.93162e-05
0.000473032
0.000473032
-0.000143681
-0.000143681
0.000369671
0.000369671
0.000105038
0.000105038
0.000145913
0.000145913
-0.000333237
-0.000333237
-8.4032e-05
-8.4032e-05
0.000189594
0.000189594
0.000747033
0.000747033
9.20839e-06
9.20839e-06
-0.000705915
-0.000705915
-0.000188369
-0.000188369
-0.00116162
-0.00116162
0.000105165
0.000105165
0.000247556
0.000247556
0.000129624
0.000129624
-0.000302716
-0.000302716
0.000331083
0.000331083
0.0017758
0.0017758
1.04159e-05
1.04159e-05
0.000174538
0.000174538
0.000123791
0.000123791
0.000136027
0.000136027
-0.000239828
-0.000239828
8.46217e-05
8.46217e-05
-0.000725717
-0.000725717
0.000140653
0.000140653
-0.00108688
-0.00108688
0.000130822
0.000130822
-0.00258531
-0.00258531
-1.73334e-05
-1.73334e-05
-6.67353e-05
-6.67353e-05
-0.000289816
-0.000289816
-0.00084562
-0.00084562
0.000766696
0.000766696
0.000518776
0.000518776
-0.000985906
-0.000985906
-2.74896e-05
-2.74896e-05
-0.000941851
-0.000941851
-0.000110314
-0.000110314
-0.000193514
-0.000193514
0.0025976
0.0025976
-0.000127975
-0.000127975
0.000926728
0.000926728
0.000147987
0.000147987
-0.000148268
-0.000148268
-0.00248051
-0.00248051
0.00153409
0.00153409
0.0003772
0.0003772
0.000539172
0.000539172
0.000277023
0.000277023
-0.000735177
-0.000735177
-6.43818e-05
-6.43818e-05
0.00216826
0.00216826
-0.000543252
-0.000543252
-0.000728696
-0.000728696
-0.00100362
-0.00100362
0.0002718
0.0002718
0.000249803
0.000249803
0.00223109
0.00223109
8.30402e-05
8.30402e-05
-0.000246701
-0.000246701
-0.000180039
-0.000180039
-0.000146103
-0.000146103
-0.000844262
-0.000844262
-0.00045385
-0.00045385
0.000160568
0.000160568
0.000121984
0.000121984
-0.00174388
-0.00174388
6.99624e-05
6.99624e-05
-0.00258326
-0.00258326
-0.000219124
-0.000219124
-0.000354358
-0.000354358
-0.000537174
-0.000537174
5.55404e-05
5.55404e-05
0.000153831
0.000153831
-0.000140944
-0.000140944
-0.000271259
-0.000271259
-0.00030656
-0.00030656
0.000413227
0.000413227
-0.000385075
-0.000385075
-0.000421192
-0.000421192
0.000448497
0.000448497
0.000157113
0.000157113
0.00061765
0.00061765
-0.000607
-0.000607
-9.44833e-05
-9.44833e-05
0.000433835
0.000433835
0.00230051
0.00230051
-0.000926619
-0.000926619
-0.000771199
-0.000771199
0.000173968
0.000173968
0.000112226
0.000112226
2.43056e-05
2.43056e-05
0.000333006
0.000333006
-0.000160251
-0.000160251
-0.000251275
-0.000251275
0.000456912
0.000456912
-0.000953184
-0.000953184
7.93366e-05
7.93366e-05
-6.74225e-05
-6.74225e-05
-0.000272796
-0.000272796
-0.00283926
-0.00283926
6.14508e-05
6.14508e-05
-5.85035e-05
-5.85035e-05
-0.00110036
-0.00110036
0.000305125
0.000305125
0.000308445
0.000308445
-0.000189564
-0.000189564
0.0017465
0.0017465
-0.00129313
-0.00129313
0.000117822
0.000117822
-0.000281064
-0.000281064
0.00100294
0.00100294
2.26202e-05
2.26202e-05
-0.000206268
-0.000206268
-0.00219494
-0.00219494
-0.000447513
-0.000447513
0.00117153
0.00117153
-9.24483e-05
-9.24483e-05
-9.4117e-05
-9.4117e-05
-0.000690219
-0.000690219
0.000138797
0.000138797
-6.43047e-05
-6.43047e-05
0.000232013
0.000232013
0.000705448
0.000705448
-0.000228202
-0.000228202
-5.91447e-05
-5.91447e-05
-7.0806e-05
-7.0806e-05
3.84158e-05
3.84158e-05
0.00199759
0.00199759
0.000242032
0.000242032
-0.000737357
-0.000737357
-0.000201388
-0.000201388
0.00138624
0.00138624
9.71412e-06
9.71412e-06
0.000270992
0.000270992
0.00140394
0.00140394
-0.00111841
-0.00111841
-0.001177
-0.001177
-1.74541e-06
-1.74541e-06
0.00034667
0.00034667
0.00102761
0.00102761
-0.000421409
-0.000421409
0.000115542
0.000115542
-6.99333e-05
-6.99333e-05
2.42014e-05
2.42014e-05
0.000838862
0.000838862
0.000428137
0.000428137
0.000103911
0.000103911
-0.000106964
-0.000106964
0.000835228
0.000835228
-0.000123024
-0.000123024
-9.68723e-05
-9.68723e-05
-0.000526083
-0.000526083
-0.000686265
-0.000686265
-0.00178039
-0.00178039
-0.000276111
-0.000276111
2.97685e-05
2.97685e-05
5.2585e-05
5.2585e-05
8.83321e-05
8.83321e-05
-0.00155673
-0.00155673
-7.5601e-05
-7.5601e-05
-0.000133673
-0.000133673
-0.00124289
-0.00124289
0.000522254
0.000522254
0.000625035
0.000625035
0.000149377
0.000149377
0.000549286
0.000549286
-0.000134113
-0.000134113
-0.000235885
-0.000235885
-0.000308455
-0.000308455
-3.8234e-05
-3.8234e-05
-0.00105856
-0.00105856
0.00075868
0.00075868
-0.000405955
-0.000405955
-0.000219616
-0.000219616
0.000232858
0.000232858
0.000992993
0.000992993
-0.000550195
-0.000550195
0.000134526
0.000134526
-0.000490842
-0.000490842
-5.97838e-05
-5.97838e-05
-0.000205288
-0.000205288
0.000187985
0.000187985
-7.79987e-06
-7.79987e-06
6.8017e-05
6.8017e-05
-0.000409521
-0.000409521
0.000169366
0.000169366
-4.01676e-06
-4.01676e-06
-0.000165853
-0.000165853
0.000152932
0.000152932
-0.000212925
-0.000212925
-6.38258e-05
-6.38258e-05
0.000309441
0.000309441
      </DataArray> 
    </PointData>
    <CellData>
    </CellData>
  </Piece>
  </UnstructuredGrid>
</VTKFile>
