<?xml version="1.0"?>
<VTKFile type="UnstructuredGrid">
  <UnstructuredGrid>
  <Piece NumberOfPoints="31839"  NumberOfCells="15790">
    <Points>
      <DataArray type="Float64" NumberOfComponents="3" format="ascii">
500 30 0
500 0 0
0 0 0
0 30 0
500 60 0
0 60 0
110 30 0
100 40 0
90 30 0
100 20 0
210 30 0
200 40 0
190 30 0
200 20 0
310 30 0
300 40 0
290 30 0
300 20 0
410 30 0
400 40 0
390 30 0
400 20 0
500 26.6092 0
500 23.2185 0
500 20.9037 0
500 18.589 0
500 16.0761 0
500 13.5631 0
500 10.1723 0
500 6.78155 0
500 3.39077 0
496.609 0 0
493.218 0 0
489.828 0 0
486.437 0 0
483.013 0 0
479.589 0 0
476.027 0 0
472.466 0 0
469.041 0 0
465.617 0 0
462.192 0 0
458.767 0 0
455.343 0 0
451.918 0 0
448.493 0 0
445.069 0 0
441.644 0 0
438.219 0 0
434.795 0 0
431.37 0 0
427.945 0 0
424.521 0 0
421.096 0 0
417.671 0 0
414.247 0 0
410.822 0 0
407.397 0 0
403.973 0 0
400.548 0 0
397.123 0 0
393.699 0 0
390.274 0 0
386.849 0 0
383.425 0 0
380 0 0
376.575 0 0
373.151 0 0
369.726 0 0
366.301 0 0
362.877 0 0
359.452 0 0
356.028 0 0
352.603 0 0
349.178 0 0
345.754 0 0
342.329 0 0
338.904 0 0
335.48 0 0
332.055 0 0
328.63 0 0
325.206 0 0
321.781 0 0
318.356 0 0
314.932 0 0
311.507 0 0
308.082 0 0
304.658 0 0
301.233 0 0
297.808 0 0
294.384 0 0
290.959 0 0
287.534 0 0
284.11 0 0
280.685 0 0
277.26 0 0
273.836 0 0
270.411 0 0
266.986 0 0
263.562 0 0
260.137 0 0
256.712 0 0
253.288 0 0
249.863 0 0
246.438 0 0
243.014 0 0
239.589 0 0
236.164 0 0
232.74 0 0
229.315 0 0
225.891 0 0
222.466 0 0
219.041 0 0
215.617 0 0
212.192 0 0
208.767 0 0
205.343 0 0
201.918 0 0
198.493 0 0
195.069 0 0
191.644 0 0
188.219 0 0
184.795 0 0
181.37 0 0
177.945 0 0
174.521 0 0
171.096 0 0
167.671 0 0
164.247 0 0
160.822 0 0
157.397 0 0
153.973 0 0
150.548 0 0
147.123 0 0
143.699 0 0
140.274 0 0
136.849 0 0
133.425 0 0
130 0 0
126.575 0 0
123.151 0 0
119.726 0 0
116.301 0 0
112.877 0 0
109.452 0 0
106.028 0 0
102.603 0 0
99.1782 0 0
95.7535 0 0
92.3289 0 0
88.9042 0 0
85.4796 0 0
82.0549 0 0
78.6302 0 0
75.2056 0 0
71.7809 0 0
68.3563 0 0
64.9316 0 0
61.507 0 0
58.0823 0 0
54.6576 0 0
51.233 0 0
47.8083 0 0
44.3837 0 0
40.959 0 0
37.5344 0 0
34.1097 0 0
30.685 0 0
27.2604 0 0
23.8357 0 0
20.4111 0 0
16.9871 0 0
13.5631 0 0
10.1723 0 0
6.78155 0 0
3.39077 0 0
0 3.39077 0
0 6.78155 0
0 9.09626 0
0 11.411 0
0 13.9239 0
0 16.4369 0
0 19.8277 0
0 23.2185 0
0 26.6092 0
500 33.3908 0
500 36.7815 0
500 39.0963 0
500 41.411 0
500 43.9239 0
500 46.4369 0
500 49.8277 0
500 53.2185 0
500 56.6092 0
496.609 60 0
493.218 60 0
489.828 60 0
486.437 60 0
483.013 60 0
479.589 60 0
476.027 60 0
472.466 60 0
469.041 60 0
465.617 60 0
462.192 60 0
458.767 60 0
455.343 60 0
451.918 60 0
448.493 60 0
445.069 60 0
441.644 60 0
438.219 60 0
434.795 60 0
431.37 60 0
427.945 60 0
424.521 60 0
421.096 60 0
417.671 60 0
414.247 60 0
410.822 60 0
407.397 60 0
403.973 60 0
400.548 60 0
397.123 60 0
393.699 60 0
390.274 60 0
386.849 60 0
383.425 60 0
380 60 0
376.575 60 0
373.151 60 0
369.726 60 0
366.301 60 0
362.877 60 0
359.452 60 0
356.028 60 0
352.603 60 0
349.178 60 0
345.754 60 0
342.329 60 0
338.904 60 0
335.48 60 0
332.055 60 0
328.63 60 0
325.206 60 0
321.781 60 0
318.356 60 0
314.932 60 0
311.507 60 0
308.082 60 0
304.658 60 0
301.233 60 0
297.808 60 0
294.384 60 0
290.959 60 0
287.534 60 0
284.11 60 0
280.685 60 0
277.26 60 0
273.836 60 0
270.411 60 0
266.986 60 0
263.562 60 0
260.137 60 0
256.712 60 0
253.288 60 0
249.863 60 0
246.438 60 0
243.014 60 0
239.589 60 0
236.164 60 0
232.74 60 0
229.315 60 0
225.891 60 0
222.466 60 0
219.041 60 0
215.617 60 0
212.192 60 0
208.767 60 0
205.343 60 0
201.918 60 0
198.493 60 0
195.069 60 0
191.644 60 0
188.219 60 0
184.795 60 0
181.37 60 0
177.945 60 0
174.521 60 0
171.096 60 0
167.671 60 0
164.247 60 0
160.822 60 0
157.397 60 0
153.973 60 0
150.548 60 0
147.123 60 0
143.699 60 0
140.274 60 0
136.849 60 0
133.425 60 0
130 60 0
126.575 60 0
123.151 60 0
119.726 60 0
116.301 60 0
112.877 60 0
109.452 60 0
106.028 60 0
102.603 60 0
99.1782 60 0
95.7535 60 0
92.3289 60 0
88.9042 60 0
85.4796 60 0
82.0549 60 0
78.6302 60 0
75.2056 60 0
71.7809 60 0
68.3563 60 0
64.9316 60 0
61.507 60 0
58.0823 60 0
54.6576 60 0
51.233 60 0
47.8083 60 0
44.3837 60 0
40.959 60 0
37.5344 60 0
34.1097 60 0
30.685 60 0
27.2604 60 0
23.8357 60 0
20.4111 60 0
16.9871 60 0
13.5631 60 0
10.1723 60 0
6.78155 60 0
3.39077 60 0
0 56.6092 0
0 53.2185 0
0 50.9037 0
0 48.589 0
0 46.0761 0
0 43.5631 0
0 40.1723 0
0 36.7815 0
0 33.3908 0
109.918 31.2793 0
109.673 32.5376 0
109.269 33.7542 0
108.712 34.909 0
108.013 35.9832 0
107.181 36.9591 0
106.232 37.8206 0
105.18 38.5536 0
104.043 39.1461 0
102.84 39.5882 0
101.435 39.8965 0
98.7207 39.9178 0
97.4624 39.6727 0
96.2458 39.2686 0
95.091 38.7121 0
94.0168 38.0125 0
93.0409 37.1813 0
92.1794 36.232 0
91.4464 35.1803 0
90.8539 34.0434 0
90.4118 32.8402 0
90.1035 31.4349 0
90.1035 28.5651 0
90.4118 27.1598 0
90.8539 25.9566 0
91.4464 24.8197 0
92.1794 23.768 0
93.0409 22.8187 0
94.0168 21.9875 0
95.091 21.2879 0
96.2458 20.7314 0
97.4624 20.3273 0
98.7207 20.0822 0
101.435 20.1035 0
102.84 20.4118 0
104.043 20.8539 0
105.18 21.4464 0
106.232 22.1794 0
107.181 23.0409 0
108.013 24.0168 0
108.712 25.091 0
109.269 26.2458 0
109.673 27.4624 0
109.918 28.7207 0
209.918 31.2793 0
209.673 32.5376 0
209.269 33.7542 0
208.712 34.909 0
208.013 35.9832 0
207.181 36.9591 0
206.232 37.8206 0
205.18 38.5536 0
204.043 39.1461 0
202.84 39.5882 0
201.435 39.8965 0
198.565 39.8965 0
197.16 39.5882 0
195.957 39.1461 0
194.82 38.5536 0
193.768 37.8206 0
192.819 36.9591 0
191.987 35.9832 0
191.288 34.909 0
190.731 33.7542 0
190.327 32.5376 0
190.082 31.2793 0
190.103 28.5651 0
190.412 27.1598 0
190.854 25.9566 0
191.446 24.8197 0
192.179 23.768 0
193.041 22.8187 0
194.017 21.9875 0
195.091 21.2879 0
196.246 20.7314 0
197.462 20.3273 0
198.721 20.0822 0
201.435 20.1035 0
202.84 20.4118 0
204.043 20.8539 0
205.18 21.4464 0
206.232 22.1794 0
207.181 23.0409 0
208.013 24.0168 0
208.712 25.091 0
209.269 26.2458 0
209.673 27.4624 0
209.918 28.7207 0
309.918 31.2793 0
309.673 32.5376 0
309.269 33.7542 0
308.712 34.909 0
308.013 35.9832 0
307.181 36.9591 0
306.232 37.8206 0
305.18 38.5536 0
304.043 39.1461 0
302.84 39.5882 0
301.435 39.8965 0
298.565 39.8965 0
297.16 39.5882 0
295.957 39.1461 0
294.82 38.5536 0
293.768 37.8206 0
292.819 36.9591 0
291.987 35.9832 0
291.288 34.909 0
290.731 33.7542 0
290.327 32.5376 0
290.082 31.2793 0
290.103 28.5651 0
290.412 27.1598 0
290.854 25.9566 0
291.446 24.8197 0
292.179 23.768 0
293.041 22.8187 0
294.017 21.9875 0
295.091 21.2879 0
296.246 20.7314 0
297.462 20.3273 0
298.721 20.0822 0
301.435 20.1035 0
302.84 20.4118 0
304.043 20.8539 0
305.18 21.4464 0
306.232 22.1794 0
307.181 23.0409 0
308.013 24.0168 0
308.712 25.091 0
309.269 26.2458 0
309.673 27.4624 0
309.918 28.7207 0
409.897 31.4349 0
409.588 32.8402 0
409.146 34.0434 0
408.554 35.1803 0
407.821 36.232 0
406.959 37.1813 0
405.983 38.0125 0
404.909 38.7121 0
403.754 39.2686 0
402.538 39.6727 0
401.279 39.9178 0
398.565 39.8965 0
397.16 39.5882 0
395.957 39.1461 0
394.82 38.5536 0
393.768 37.8206 0
392.819 36.9591 0
391.987 35.9832 0
391.288 34.909 0
390.731 33.7542 0
390.327 32.5376 0
390.082 31.2793 0
390.103 28.5651 0
390.412 27.1598 0
390.854 25.9566 0
391.446 24.8197 0
392.179 23.768 0
393.041 22.8187 0
394.017 21.9875 0
395.091 21.2879 0
396.246 20.7314 0
397.462 20.3273 0
398.721 20.0822 0
401.279 20.0822 0
402.538 20.3273 0
403.754 20.7314 0
404.909 21.2879 0
405.983 21.9875 0
406.959 22.8187 0
407.821 23.768 0
408.554 24.8197 0
409.146 25.9566 0
409.588 27.1598 0
409.897 28.5651 0
496.609 30 0
493.218 30 0
489.828 30 0
486.437 30 0
482.978 30 0
479.52 30 0
476.062 30 0
472.604 30 0
469.146 30 0
465.688 30 0
462.226 30 0
458.765 30 0
455.303 30 0
451.842 30 0
448.38 30 0
444.919 30 0
441.457 30 0
437.995 30 0
434.534 30 0
431.073 30 0
427.635 30 0
424.197 30 0
421.24 30 0
418.283 30 0
415.998 30 0
413.714 30 0
411.857 30 0
3.39077 30 0
6.78155 30 0
10.1723 30 0
13.5631 30 0
17.0217 30 0
20.4804 30 0
23.9384 30 0
27.3963 30 0
30.8543 30 0
34.3123 30 0
37.7738 30 0
41.2353 30 0
44.6969 30 0
48.1584 30 0
51.6199 30 0
55.0815 30 0
58.543 30 0
62.0046 30 0
65.466 30 0
68.9274 30 0
72.365 30 0
75.8026 30 0
78.76 30 0
81.7174 30 0
84.0019 30 0
86.2864 30 0
88.1432 30 0
111.791 30 0
113.582 30 0
115.797 30 0
118.012 30 0
120.943 30 0
123.873 30 0
127.449 30 0
131.025 30 0
134.66 30 0
138.295 30 0
142.727 30 0
147.16 30 0
150.796 30 0
154.432 30 0
158.069 30 0
161.705 30 0
165.34 30 0
168.975 30 0
172.551 30 0
176.127 30 0
179.057 30 0
181.988 30 0
184.203 30 0
186.418 30 0
188.209 30 0
211.791 30 0
213.582 30 0
215.797 30 0
218.012 30 0
220.943 30 0
223.873 30 0
227.449 30 0
231.025 30 0
234.66 30 0
238.295 30 0
242.727 30 0
247.16 30 0
250.796 30 0
254.432 30 0
258.069 30 0
261.705 30 0
265.34 30 0
268.975 30 0
272.551 30 0
276.127 30 0
279.057 30 0
281.988 30 0
284.203 30 0
286.418 30 0
288.209 30 0
311.791 30 0
313.582 30 0
315.797 30 0
318.012 30 0
320.943 30 0
323.873 30 0
327.449 30 0
331.025 30 0
334.66 30 0
338.295 30 0
342.727 30 0
347.16 30 0
350.796 30 0
354.432 30 0
358.069 30 0
361.705 30 0
365.34 30 0
368.975 30 0
372.551 30 0
376.127 30 0
379.057 30 0
381.988 30 0
384.203 30 0
386.418 30 0
388.209 30 0
401.481 12.5423 0
22.4871 14.1118 0
388.885 10.7025 0
413.021 18.7913 0
415.911 23.7284 0
212.739 24.5992 0
313.196 24.3634 0
202.753 12.4357 0
306.799 6.41273 0
298.733 12.4673 0
83.8145 27.8372 0
184.196 27.2058 0
284.167 27.2281 0
384.129 27.4816 0
388.96 27.817 0
411.585 28.454 0
288.898 27.7294 0
188.916 27.7321 0
88.8801 27.855 0
290.796 8.50382 0
294.257 13.0978 0
338.807 23.6917 0
417.339 9.72891 0
314.935 9.97256 0
281.996 16.6459 0
495.162 6.86079 0
4.83986 23.0925 0
115.872 10.2545 0
117.201 23.7603 0
493.238 25.4857 0
6.80197 4.51761 0
399.068 3.23137 0
296.095 2.83381 0
194.808 2.82786 0
100.947 2.63902 0
105.094 8.34784 0
98.5199 7.91514 0
108.184 9.86726 0
116.426 13.5419 0
197.521 8.34968 0
296.477 8.24868 0
315.937 13.13 0
399.907 8.95107 0
292.494 11.0477 0
402.587 10.054 0
113.532 27.3345 0
214.19 26.2494 0
314.609 26.1287 0
311.758 25.6564 0
313.047 28.303 0
311.092 27.0342 0
311.256 28.303 0
211.477 25.8048 0
212.914 28.3693 0
210.959 27.1005 0
211.123 28.3693 0
111.914 26.5975 0
112.838 28.932 0
110.884 27.6632 0
111.047 28.932 0
7.13792 25.2049 0
5.59149 27.845 0
2.20072 24.4542 0
2.20072 27.845 0
495.375 23.5601 0
497.93 24.5435 0
494.539 27.9343 0
497.93 27.9343 0
492.828 4.73062 0
494.409 2.14031 0
497.8 5.53109 0
497.8 2.14031 0
4.63896 6.42326 0
2.09192 5.44177 0
5.4827 2.05099 0
2.09192 2.05099 0
337.611 20.9113 0
155.898 21.7782 0
149.771 20.6689 0
147.101 24.9376 0
144.169 20.758 0
334.819 18.926 0
429.872 16.1458 0
331.647 22.1172 0
271.001 11.7834 0
271.794 14.7087 0
268.934 14.1281 0
265.217 12.7195 0
14.9426 11.7048 0
440.812 15.43 0
433.558 17.327 0
137.679 21.975 0
162.967 22.2387 0
261.578 22.1658 0
275.421 15.5084 0
276.646 13.1442 0
278.863 10.6239 0
278.207 16.2885 0
281.751 13.128 0
76.5786 15.8622 0
178.771 15.0281 0
139.796 25.8203 0
144.228 25.8203 0
149.83 25.7312 0
153.466 25.7312 0
156.864 26.0469 0
160.5 26.0469 0
240.367 25.9041 0
259.818 25.9836 0
333.108 26.5931 0
336.743 26.5931 0
340.359 27.0986 0
344.791 27.0986 0
345.44 24.3155 0
347.808 27.2169 0
351.444 27.2169 0
360.391 25.6987 0
356.755 25.6987 0
353.416 24.6155 0
350.428 21.8324 0
347.129 21.5413 0
344.113 21.423 0
341.227 21.4168 0
256.182 25.9836 0
252.387 26.002 0
248.75 26.002 0
244.8 25.9041 0
362.744 22.0646 0
355.739 20.3142 0
349.102 18.94 0
342.917 18.6426 0
254.137 21.9856 0
246.391 21.9061 0
238.736 21.937 0
59.9902 17.9361 0
484.478 15.3056 0
371.014 14.0925 0
361.544 17.6389 0
357.619 17.3893 0
354.281 16.3062 0
350.787 15.9764 0
347.488 15.6853 0
344.066 15.6609 0
341.181 15.6547 0
337.239 16.6511 0
260.112 18.1017 0
255.932 18.0813 0
252.137 18.0997 0
248.246 18.0288 0
244.295 17.9309 0
240.152 17.8019 0
231.311 13.8415 0
161.55 18.3177 0
157.993 18.1349 0
154.596 17.8192 0
151.343 17.6061 0
148.614 16.8125 0
145.464 16.8615 0
142.591 17.7442 0
139.262 18.0787 0
72.7949 15.438 0
69.111 15.2129 0
65.5599 15.0903 0
62.0882 14.9875 0
58.643 14.8843 0
476.57 14.9037 0
480.212 15.1059 0
469.524 14.7632 0
473.019 14.8885 0
462.758 14.4474 0
466.204 14.7116 0
459.884 14.2578 0
15.5784 15.3148 0
19.1037 15.7152 0
49.0617 14.3714 0
51.9252 14.5689 0
55.3426 14.8193 0
225.072 15.2757 0
228.429 14.3744 0
426.757 15.9393 0
330.281 14.1724 0
331.275 17.8569 0
483.023 12.0635 0
475.205 11.8486 0
468.335 11.7818 0
462.142 11.5407 0
456.28 13.1554 0
432.927 14.3693 0
425.648 12.9391 0
374.211 11.5887 0
367.313 12.4438 0
360.085 13.6308 0
352.667 13.0515 0
345.752 12.6973 0
338.389 13.6694 0
258.113 14.2158 0
250.042 14.1244 0
242.008 13.9245 0
234.952 12.3182 0
229.157 11.3737 0
222.675 12.5207 0
181.391 12.6718 0
175.108 13.3827 0
160.248 14.3587 0
153.438 13.9628 0
147.036 13.7987 0
140.557 14.1822 0
79.0964 13.0796 0
71.3682 12.3662 0
64.2126 12.0384 0
57.4406 11.8707 0
51.2767 11.6082 0
45.4839 13.2183 0
485.21 18.9326 0
478.025 18.1458 0
470.888 17.8183 0
463.947 17.4287 0
449.151 15.1347 0
456.896 16.0621 0
427.387 18.897 0
16.0607 18.3736 0
22.9694 17.1706 0
30.3249 15.485 0
38.4258 15.2143 0
46.1324 16.1789 0
53.1276 17.5824 0
66.9866 18.162 0
74.3214 18.709 0
127.341 15.6457 0
133.77 14.8854 0
135.644 18.4131 0
165.221 18.4625 0
167.889 14.6629 0
175.637 16.4297 0
227.226 17.7435 0
234.224 15.3188 0
236.449 17.9307 0
263.758 18.3003 0
266.009 15.6448 0
273.354 17.8531 0
365.21 18.3061 0
367.71 15.5292 0
125.014 12.3535 0
125.29 19.3374 0
375.169 18.1893 0
374.608 14.6741 0
423.163 15.6903 0
327.109 17.3635 0
329.564 25.524 0
488.02 15.8901 0
11.8996 14.3631 0
490.776 14.0125 0
491.006 10.852 0
488.672 8.72186 0
485.151 9.06497 0
480.885 8.86535 0
477.249 8.88456 0
473.698 8.86929 0
470.217 8.87029 0
466.898 8.81876 0
463.603 8.85248 0
460.73 8.66287 0
457.305 9.13851 0
454.317 10.9429 0
450.945 11.4154 0
446.805 11.5902 0
443.226 11.4023 0
439.028 11.5228 0
435.329 11.3145 0
431.644 10.1333 0
428.046 9.87667 0
424.453 9.62762 0
420.872 9.60821 0
379.407 9.01996 0
375.679 9.02014 0
372.085 8.43858 0
368.459 8.47201 0
365.155 9.90867 0
361.836 10.2336 0
357.912 9.98404 0
354.4 9.9257 0
350.906 9.5959 0
347.439 9.56786 0
344.017 9.54352 0
340.457 9.71584 0
336.516 10.7123 0
332.834 10.7935 0
328.668 10.3001 0
325.061 10.1767 0
321.538 9.84053 0
318.067 9.84913 0
281.183 9.82753 0
276.078 9.84375 0
272.347 9.2648 0
269.487 8.68417 0
266.066 8.69876 0
263.142 10.2155 0
259.752 10.5019 0
255.572 10.4815 0
251.915 10.4615 0
248.024 10.3906 0
244.388 10.3214 0
240.245 10.1924 0
236.899 9.91392 0
233.985 8.4366 0
230.646 8.35034 0
227.764 8.88324 0
224.402 9.04004 0
220.801 9.65409 0
217.345 9.53585 0
213.72 8.73396 0
182.883 9.95509 0
179.734 9.26437 0
176.335 9.4632 0
173.201 10.8648 0
169.806 11 0
165.722 10.8786 0
162.183 10.7687 0
158.627 10.5859 0
155.241 10.4756 0
151.988 10.2625 0
148.649 10.2342 0
145.499 10.2832 0
142.13 10.3977 0
138.801 10.7322 0
135.314 10.9905 0
131.855 11.3591 0
127.985 11.9617 0
122.592 11.1417 0
118.973 10.3265 0
81.0277 10.0058 0
76.9835 9.51735 0
73.3519 9.35584 0
69.668 9.1308 0
66.1863 9.06189 0
62.7146 8.95917 0
59.3136 8.93527 0
56.0132 8.87031 0
52.6866 8.86872 0
49.8231 8.67118 0
46.4205 9.18437 0
43.4912 10.9919 0
40.1492 11.5158 0
36.0204 11.7043 0
32.4325 11.5639 0
28.4604 11.6461 0
24.7944 11.2709 0
20.9287 9.81554 0
17.3537 9.27132 0
13.6749 8.31971 0
10.342 7.8432 0
9.12241 16.1426 0
8.90685 19.2342 0
486.307 21.9664 0
489.684 22.3099 0
479.316 21.2163 0
482.764 21.3818 0
472.16 20.9115 0
475.673 21.0141 0
465.191 20.6694 0
468.665 20.7862 0
458.239 20.1292 0
461.744 20.4051 0
443.172 19.1127 0
446.854 19.0195 0
450.995 18.8446 0
454.635 19.0269 0
435.574 19.7023 0
438.974 19.2331 0
428.927 21.7435 0
432.518 21.4788 0
425.812 21.5371 0
11.2049 21.3465 0
14.611 21.067 0
18.1363 21.4674 0
21.6601 21.1433 0
25.0434 19.5399 0
28.5144 19.2543 0
32.4866 19.1722 0
36.1681 19.1007 0
40.2969 18.9122 0
43.9271 19.1199 0
47.5049 20.273 0
50.9812 20.5534 0
54.3986 20.8037 0
57.8851 20.897 0
61.3304 21.0003 0
64.7728 21.0633 0
68.3239 21.1859 0
71.9709 21.3862 0
128.261 18.9456 0
132.186 18.7817 0
136.178 26.1547 0
164.172 26.1918 0
169.306 18.5839 0
173.021 19.1146 0
225.745 21.1984 0
229.102 20.2971 0
232.808 19.454 0
236.664 26.0329 0
263.464 26.1822 0
267.475 19.7089 0
271.415 20.5763 0
364.058 26.3659 0
368.911 19.9549 0
372.578 20.5443 0
96.2975 6.39995 0
97.5225 2.63902 0
108.625 3.84063 0
110.223 7.22152 0
195.53 6.88504 0
198.233 2.82786 0
210.428 8.51515 0
294.779 5.70475 0
322.592 13.3428 0
322.979 16.7182 0
381.747 11.1599 0
383.348 8.00962 0
121.948 14.8257 0
122.235 17.8828 0
221.471 15.8898 0
378.366 15.6855 0
380.985 14.0216 0
75.7546 21.8105 0
176.685 20.76 0
275.043 21.376 0
376.336 21.5557 0
402.493 3.23137 0
80.6229 16.3506 0
181.92 15.7188 0
411.09 9.72816 0
414.128 9.76215 0
418.523 12.8107 0
419.56 15.5993 0
420.668 18.5996 0
421.865 21.6747 0
123.155 21.1828 0
221.054 19.5993 0
222.598 21.7499 0
323.973 20.4028 0
325.254 23.2364 0
491.822 20.3843 0
491.508 17.6395 0
8.17896 9.74885 0
8.48662 12.5326 0
494.494 12.6015 0
492.39 7.31079 0
486.534 5.52372 0
479.377 5.88604 0
472.261 5.90625 0
465.486 5.94098 0
458.767 6.45034 0
451.971 7.39842 0
445.021 7.68302 0
437.744 7.28682 0
430.448 6.82185 0
423.27 6.54582 0
416.477 6.55964 0
410.009 7.06649 0
384.497 5.72839 0
377.281 5.86988 0
369.927 5.90349 0
362.982 6.26188 0
356.151 6.52849 0
349.172 6.44211 0
342.144 6.5864 0
334.903 6.83997 0
327.614 6.79785 0
320.536 6.68309 0
313.505 6.89261 0
299.52 2.83381 0
288.56 5.93333 0
281.833 6.72411 0
274.564 6.7445 0
267.412 6.18014 0
260.601 6.48113 0
253.554 6.74759 0
246.262 6.65846 0
239.279 6.31082 0
232.593 5.9461 0
225.891 6.01665 0
219.073 6.05522 0
212.324 5.71818 0
184.409 6.64203 0
177.827 6.74649 0
171.033 7.08057 0
164.101 7.10587 0
157.176 6.88556 0
150.451 6.74697 0
143.743 6.83317 0
136.887 7.20597 0
129.529 8.06692 0
122.038 7.85429 0
115.533 6.90042 0
82.4674 6.53739 0
75.2833 6.28198 0
68.17 6.05155 0
61.2873 5.95874 0
54.5596 5.93326 0
47.8304 6.44487 0
41.0858 7.48189 0
34.1559 7.86537 0
26.902 7.34985 0
19.661 6.43047 0
12.753 5.40974 0
7.25709 6.83889 0
5.49385 17.4036 0
7.57634 22.6075 0
492.753 23.1772 0
487.238 24.7592 0
480.412 24.2501 0
473.45 23.982 0
466.462 23.7625 0
459.483 23.3698 0
445.016 22.8226 0
452.338 22.9117 0
437.934 23.385 0
430.943 24.1189 0
423.405 24.5212 0
13.2805 24.4403 0
20.2104 23.8367 0
27.2051 23.2271 0
34.3577 22.8701 0
41.6694 23.0063 0
48.7759 23.4944 0
55.7387 23.8679 0
62.6677 24.0242 0
69.7571 24.2874 0
77.3733 25.0811 0
122.934 23.9598 0
130.136 22.4734 0
132.543 26.1547 0
167.807 26.1918 0
170.354 22.9142 0
178.021 23.9283 0
224.474 24.3035 0
231.326 22.9089 0
233.029 26.0329 0
267.099 26.1822 0
269.164 23.2318 0
277.51 24.2777 0
367.693 26.3659 0
370.078 23.3212 0
377.793 24.437 0
100.841 7.14624 0
101.621 4.92888 0
105.874 6.13049 0
106.323 9.68915 0
199.674 7.93256 0
200.517 5.45714 0
206.046 5.37896 0
207.633 7.83659 0
298.914 8.02172 0
300.73 5.69978 0
317.228 15.201 0
319.456 16.382 0
384.927 13.0113 0
89.6617 7.07657 0
190.339 7.42538 0
215.449 12.3328 0
387.161 12.2347 0
386.837 7.86831 0
391.28 5.69693 0
397.794 6.13476 0
84.5803 10.0996 0
87.9104 9.44279 0
117.68 15.5851 0
119.813 16.671 0
186.065 10.0495 0
188.922 9.56515 0
216.781 14.9486 0
218.656 16.8443 0
284.72 9.22819 0
287.606 8.69526 0
381.546 17.5369 0
79.7238 22.4038 0
81.5296 19.8277 0
180.637 21.2434 0
182.293 19.1625 0
279.449 21.5544 0
280.772 19.0101 0
284.316 15.8495 0
380.384 22.082 0
382.104 20.0764 0
403.882 7.00143 0
84.0474 17.0451 0
184.912 16.8062 0
407.832 10.2018 0
411.951 12.8974 0
416.027 15.72 0
418.261 21.5837 0
416.314 25.7834 0
119.879 22.5052 0
217.187 23.157 0
219.783 22.7044 0
318.274 22.7044 0
321.124 22.591 0
494.577 18.5068 0
5.40174 11.5283 0
497.132 17.1755 0
497.132 14.6625 0
497.362 11.502 0
497.362 8.11126 0
491.637 2.5903 0
488.246 2.5903 0
484.725 2.93341 0
481.301 2.93341 0
477.665 2.95262 0
474.104 2.95262 0
470.623 2.95363 0
467.199 2.95363 0
463.904 2.98735 0
460.48 2.98735 0
457.055 3.46299 0
453.63 3.46299 0
450.259 3.93544 0
446.834 3.93544 0
443.255 3.74759 0
439.831 3.74759 0
436.132 3.53923 0
432.708 3.53923 0
429.111 3.28262 0
425.686 3.28262 0
422.105 3.2632 0
418.68 3.2632 0
415.469 3.29643 0
412.044 3.29643 0
408.787 3.77006 0
405.362 3.77006 0
395.849 2.90339 0
392.424 2.90339 0
389.13 2.79354 0
385.705 2.79354 0
382.216 2.93485 0
378.792 2.93485 0
375.064 2.93503 0
371.64 2.93503 0
368.014 2.96846 0
364.589 2.96846 0
361.27 3.29342 0
357.845 3.29342 0
354.334 3.23507 0
350.909 3.23507 0
347.441 3.20704 0
344.017 3.20704 0
340.457 3.37936 0
337.032 3.37936 0
333.35 3.46061 0
329.926 3.46061 0
326.319 3.33724 0
322.894 3.33724 0
319.423 3.34585 0
315.999 3.34585 0
312.438 3.54676 0
309.014 3.54676 0
305.868 2.86597 0
302.443 2.86597 0
293.067 2.87094 0
289.642 2.87094 0
286.452 3.06238 0
283.028 3.06238 0
279.49 3.66173 0
276.065 3.66173 0
272.334 3.08277 0
268.91 3.08277 0
265.489 3.09736 0
262.064 3.09736 0
258.674 3.38377 0
255.249 3.38377 0
251.592 3.36382 0
248.168 3.36382 0
244.532 3.29464 0
241.108 3.29464 0
237.761 3.01618 0
234.336 3.01618 0
230.996 2.92992 0
227.572 2.92992 0
224.21 3.08673 0
220.785 3.08673 0
217.329 2.96849 0
213.904 2.96849 0
210.612 2.74968 0
207.187 2.74968 0
204.202 2.62928 0
200.777 2.62928 0
192.366 4.05717 0
189.618 3.3682 0
186.193 3.3682 0
183.011 3.27383 0
179.586 3.27383 0
176.187 3.47266 0
172.762 3.47266 0
169.367 3.60791 0
165.943 3.60791 0
162.404 3.49796 0
158.98 3.49796 0
155.594 3.3876 0
152.169 3.3876 0
148.83 3.35936 0
145.405 3.35936 0
142.037 3.47381 0
138.612 3.47381 0
135.124 3.73215 0
131.7 3.73215 0
127.829 4.33476 0
124.404 4.33476 0
120.785 3.51953 0
117.36 3.51953 0
114.475 3.38089 0
111.05 3.38089 0
106.701 2.28986 0
103.277 2.28986 0
94.5286 3.76093 0
91.1039 3.76093 0
87.462 3.31564 0
84.0374 3.31564 0
80.4849 3.22175 0
77.0602 3.22175 0
73.4287 3.06023 0
70.004 3.06023 0
66.5223 2.99132 0
63.0976 2.99132 0
59.6966 2.96742 0
56.272 2.96742 0
52.9453 2.96584 0
49.5207 2.96584 0
46.1181 3.47903 0
42.6934 3.47903 0
39.3514 4.00286 0
35.9268 4.00286 0
32.3389 3.86251 0
28.9142 3.86251 0
25.2482 3.48735 0
21.8236 3.48735 0
18.2485 2.94312 0
14.8245 2.94312 0
11.4916 2.46662 0
8.10082 2.46662 0
2.8547 12.8615 0
2.8547 15.3745 0
2.63914 18.466 0
2.63914 21.8568 0
488.526 27.5514 0
491.917 27.5514 0
481.69 27.2078 0
485.149 27.2078 0
474.784 27.0423 0
478.242 27.0423 0
467.812 26.9397 0
471.27 26.9397 0
460.876 26.8228 0
464.338 26.8228 0
453.91 26.547 0
457.372 26.547 0
446.809 26.3647 0
450.27 26.3647 0
439.665 26.4579 0
443.126 26.4579 0
432.803 26.9271 0
436.265 26.9271 0
425.775 27.1918 0
429.212 27.1918 0
418.87 27.3294 0
421.827 27.3294 0
8.32797 27.3599 0
11.7187 27.3599 0
15.1249 27.0804 0
18.5835 27.0804 0
22.1072 26.7563 0
25.5652 26.7563 0
29.0362 26.4708 0
32.4942 26.4708 0
36.1757 26.3993 0
39.6373 26.3993 0
43.2675 26.607 0
46.729 26.607 0
50.2053 26.8873 0
53.6668 26.8873 0
57.1534 26.9806 0
60.6149 26.9806 0
64.0573 27.0436 0
67.5188 27.0436 0
71.1657 27.2438 0
74.6034 27.2438 0
78.5726 27.8372 0
81.5299 27.8372 0
121.766 27.6411 0
125.042 26.3187 0
128.618 26.3187 0
171.522 26.7224 0
175.098 26.7224 0
179.05 27.2058 0
181.981 27.2058 0
222.6 27.4275 0
225.747 26.876 0
229.323 26.876 0
271.04 27.0496 0
274.615 27.0496 0
279.021 27.2281 0
281.952 27.2281 0
323.139 27.7123 0
326.715 27.7123 0
371.36 26.9553 0
374.936 26.9553 0
378.984 27.4816 0
381.914 27.4816 0
103.17 6.79707 0
202.219 7.73398 0
204.648 7.71619 0
301.838 8.05388 0
304.172 8.36938 0
317.615 18.5764 0
316.862 20.9391 0
386.4 15.0964 0
91.5523 9.88808 0
103.619 10.3557 0
102.912 12.8022 0
191.67 10.2541 0
203.806 10.1916 0
209.03 10.8524 0
213.156 14.1467 0
302.357 10.6913 0
303.039 12.7334 0
307.318 9.05018 0
314.634 19.7581 0
390.033 8.42128 0
393.328 8.53113 0
396.688 8.62309 0
86.0962 15.4836 0
86.4708 12.9112 0
117.967 18.6422 0
117.421 20.9833 0
186.897 15.2879 0
187.397 12.8782 0
216.363 18.6581 0
215.735 21.5068 0
286.572 14.5084 0
286.956 11.7987 0
384.723 18.4124 0
386.478 17.0299 0
388.713 16.2533 0
84.5514 25.6922 0
83.1483 23.0983 0
184.902 24.938 0
183.629 22.3307 0
284.856 24.9575 0
283.239 21.9118 0
286.817 18.0263 0
384.88 25.2986 0
383.561 22.9576 0
114.856 24.5217 0
214.684 24.11 0
315.293 23.8861 0
91.904 12.4168 0
93.6553 10.0505 0
95.526 9.03705 0
95.8777 11.5657 0
100.069 9.78334 0
101.683 11.4609 0
104.825 13.5629 0
106.709 11.8752 0
110.61 9.40753 0
112.987 10.1159 0
110.948 12.7616 0
114.58 15.5132 0
192.105 12.5513 0
193.522 10.4115 0
195.079 9.57899 0
195.513 11.8761 0
199.223 10.6265 0
200.583 12.336 0
205.182 12.4179 0
207.126 11.9979 0
209.921 12.6764 0
211.133 13.5845 0
209.229 14.73 0
212.465 16.2002 0
293.449 8.28581 0
297.584 10.6028 0
300.704 12.4179 0
304.851 13.1191 0
306.473 11.9127 0
309.099 9.95607 0
311.375 10.1735 0
310.529 13.036 0
314.096 15.3244 0
313.433 18.056 0
390.475 15.2619 0
390.358 12.7876 0
395.441 11.3474 0
405.456 10.5926 0
87.0029 18.9608 0
89.4264 14.8268 0
91.3599 14.1117 0
102.89 14.6681 0
113.8 18.1508 0
115.288 19.8973 0
187.27 18.7316 0
189.754 14.8036 0
191.601 14.1659 0
201.96 14.5623 0
212.49 17.9208 0
213.86 19.6111 0
289.457 13.9755 0
291.604 13.3158 0
303.198 14.8457 0
387.036 19.5694 0
390.554 17.1954 0
406.537 13.2543 0
86.3572 23.1161 0
87.4174 21.1578 0
113.238 23.7847 0
186.558 22.857 0
187.596 20.9814 0
211.97 23.6654 0
286.179 22.4131 0
287.159 20.4219 0
289.414 19.0808 0
312.442 23.4138 0
386.601 23.293 0
387.571 21.4567 0
407.058 15.1556 0
408.946 15.9687 0
411.984 16.0027 0
414.714 20.6533 0
113.351 26.0681 0
117.314 26.0436 0
118.835 27.6411 0
218.731 25.3076 0
219.67 27.4275 0
319.555 25.538 0
320.208 27.7123 0
93.4629 14.2741 0
95.2984 13.7495 0
97.1691 12.736 0
99.3622 12.2298 0
106.687 13.741 0
108.539 14.278 0
110.916 14.9864 0
112.545 16.1076 0
193.452 14.3233 0
195.112 13.8795 0
196.668 13.047 0
198.43 12.7531 0
206.073 14.242 0
207.778 15.4153 0
208.99 16.3234 0
210.467 17.3586 0
296.296 12.6943 0
306.632 14.0249 0
308.348 14.6484 0
310.623 14.8658 0
312.142 15.9851 0
392.199 13.7298 0
394.246 13.2573 0
397.606 13.3493 0
399.353 13.2903 0
89.4662 19.5962 0
90.8278 18.5131 0
90.9852 16.6841 0
92.7613 17.798 0
101.461 15.857 0
103.375 16.6177 0
113.254 20.4918 0
112.543 22.3407 0
111.054 20.5941 0
189.581 19.4632 0
190.936 18.3824 0
191.101 16.5757 0
192.782 17.7447 0
200.72 16.0632 0
202.889 16.1629 0
211.862 20.7695 0
211.448 22.4753 0
210.079 20.7849 0
290.886 18.0226 0
291.22 16.0255 0
293.033 17.363 0
301.767 16.1403 0
303.58 16.526 0
312.68 20.4187 0
312.062 22.1875 0
310.861 20.4855 0
389.326 20.0742 0
390.642 18.9986 0
392.404 18.0072 0
404.682 15.5465 0
88.8204 23.7516 0
111.038 23.8871 0
188.87 23.5886 0
210.186 23.6808 0
288.776 23.4677 0
291.227 20.4183 0
310.623 23.4805 0
388.891 23.7978 0
407.091 18.2609 0
410.671 20.936 0
412.767 24.853 0
497.445 22.235 0
497.445 19.9203 0
2.54704 7.76304 0
2.54704 10.0778 0
413.442 28.454 0
415.726 28.454 0
87.0233 27.855 0
114.276 28.4025 0
116.49 28.4025 0
187.125 27.7321 0
214.859 27.8801 0
217.074 27.8801 0
287.107 27.7294 0
315.144 27.8257 0
317.359 27.8257 0
387.169 27.817 0
94.2188 17.1736 0
94.7542 15.4444 0
98.7829 14.4136 0
99.7741 15.8709 0
104.999 17.0337 0
106.655 15.9657 0
110.136 17.624 0
109.876 19.4555 0
194.202 17.1376 0
194.607 15.4942 0
198.029 14.7565 0
199.105 16.0736 0
204.46 16.6389 0
205.834 15.8354 0
209.015 18.044 0
208.983 19.6797 0
294.597 16.7863 0
295.406 14.9624 0
299.416 14.5094 0
300.188 16.0646 0
305.123 16.9316 0
306.726 15.8547 0
309.961 17.5974 0
309.689 19.4367 0
393.866 17.3362 0
394.364 15.7316 0
398.158 15.2002 0
402.033 14.3932 0
402.931 15.5438 0
96.0543 16.649 0
97.581 16.3771 0
106.85 17.5707 0
108.247 18.3342 0
195.862 16.6938 0
197.343 16.3675 0
206.165 17.8122 0
207.507 18.6445 0
296.636 16.3828 0
298.218 16.114 0
306.838 17.555 0
308.17 18.3174 0
395.914 16.8637 0
397.446 16.5241 0
399.193 16.4652 0
400.803 16.2919 0
91.2423 20.7101 0
94.0614 19.0027 0
97.0455 18.1063 0
100.259 17.8205 0
103.571 18.2226 0
106.591 19.4021 0
109.165 21.3043 0
191.262 20.6322 0
194.037 18.9443 0
196.938 18.011 0
200.035 17.6742 0
203.22 18.1397 0
206.133 19.448 0
208.57 21.3855 0
294.262 18.7834 0
297.409 17.938 0
300.57 17.7449 0
303.692 18.2263 0
306.567 19.3943 0
309.071 21.2054 0
391.176 20.886 0
393.954 19.1393 0
396.949 18.1287 0
400.091 17.6158 0
403.452 17.4451 0
89.086 26.4349 0
89.6033 25.2648 0
90.6635 23.3065 0
91.4607 22.306 0
92.8224 21.2229 0
93.8475 20.4575 0
95.3049 19.8331 0
96.4906 19.3528 0
98.0174 19.0809 0
99.2861 18.9172 0
100.973 18.9033 0
102.393 19.1092 0
104.017 19.5252 0
105.187 20.0425 0
106.583 20.806 0
107.584 21.6033 0
108.762 22.742 0
109.527 23.767 0
110.223 25.211 0
110.703 26.3968 0
189.122 26.312 0
189.639 25.142 0
190.677 23.2664 0
191.474 22.2659 0
192.829 21.1851 0
193.854 20.4196 0
195.274 19.8126 0
196.46 19.3323 0
197.941 19.006 0
199.21 18.8423 0
200.825 18.8319 0
202.245 19.0378 0
203.816 19.5137 0
204.986 20.031 0
206.328 20.8633 0
207.328 21.6606 0
208.423 22.7658 0
209.189 23.7909 0
209.71 24.981 0
210.19 26.1667 0
289.104 26.3093 0
289.621 25.1393 0
290.601 23.1481 0
291.398 22.1476 0
292.869 21.0894 0
293.895 20.324 0
295.459 19.7473 0
296.644 19.2671 0
298.227 18.9982 0
299.495 18.8346 0
301.074 18.9103 0
302.494 19.1162 0
304.037 19.5218 0
305.207 20.0391 0
306.539 20.8015 0
307.54 21.5988 0
308.712 22.6476 0
309.477 23.6726 0
309.858 24.8989 0
310.338 26.0846 0
389.166 26.3969 0
389.683 25.2269 0
390.654 23.3906 0
391.451 22.3901 0
392.766 21.3146 0
393.791 20.5491 0
395.254 19.8781 0
396.439 19.3978 0
397.972 19.0582 0
399.24 18.8945 0
400.85 18.7212 0
402.119 18.8849 0
403.87 18.8876 0
405.056 19.3678 0
406.944 20.1809 0
407.969 20.9464 0
409.661 22.8084 0
410.459 23.8089 0
410.862 25.8639 0
411.379 27.0339 0
413.169 26.908 0
412.364 22.798 0
408.979 19.074 0
405.203 17.4478 0
401.701 17.4425 0
398.481 17.7891 0
395.416 18.4683 0
392.492 19.8104 0
389.861 21.9615 0
387.92 25.634 0
311.004 24.7069 0
310.243 22.2542 0
307.899 20.1567 0
305.235 18.6319 0
302.149 17.8207 0
298.991 17.6691 0
295.826 18.2068 0
292.698 19.3601 0
289.755 21.4765 0
287.797 25.4588 0
210.708 24.8709 0
209.665 22.4907 0
207.475 20.2803 0
204.791 18.6157 0
201.65 17.6638 0
198.42 17.6847 0
195.457 18.3373 0
192.617 19.5514 0
189.908 21.713 0
187.832 25.4642 0
111.733 25.3311 0
110.343 22.443 0
107.987 20.1657 0
105.195 18.6386 0
101.946 17.8066 0
98.5723 17.8344 0
95.5188 18.3783 0
92.6039 19.627 0
89.8806 21.7932 0
87.7603 25.7099 0
399.905 15.1413 0
396.411 15.2592 0
308.441 16.4782 0
297.445 14.5588 0
207.539 17.0088 0
196.267 15.0503 0
108.506 16.5028 0
96.5897 14.9198 0
404.161 13.6452 0
392.316 16.2041 0
311.48 18.7167 0
305.01 15.2313 0
301.386 14.46 0
293.367 15.3659 0
210.492 19.0791 0
204.129 14.6621 0
199.791 14.4626 0
192.948 15.938 0
111.765 18.7453 0
104.803 15.4287 0
100.976 13.9074 0
92.9187 15.969 0
316.706 25.6515 0
216.135 25.7602 0
114.969 26.805 0
5.09408 8.74454 0
494.891 21.2516 0
388.792 18.1868 0
313.88 22.1208 0
289.073 16.6852 0
213.232 22.4598 0
189.255 17.2134 0
114.742 22.2384 0
89.0517 17.3992 0
398.801 11.4394 0
392.081 11.2555 0
312.805 13.2534 0
308.254 12.8186 0
295.147 10.8297 0
210.441 15.638 0
208.017 13.8219 0
197.07 11.0436 0
193.956 12.7086 0
113.325 13.47 0
108.571 12.0533 0
97.7484 10.5522 0
94.007 12.5792 0
322.405 25.4246 0
221.327 24.855 0
119.659 25.2822 0
417.064 18.5086 0
414.99 12.9314 0
408.913 12.8635 0
385.281 20.9519 0
284.562 19.3674 0
185.285 20.2498 0
84.9541 20.5223 0
289.842 11.2657 0
214.488 16.7625 0
190.254 12.3939 0
115.834 17.5563 0
89.801 12.2543 0
406.752 7.54012 0
388.634 14.3198 0
315.387 17.3954 0
309.945 7.09353 0
304.692 11.0068 0
300.022 10.3758 0
291.75 5.74189 0
211.824 11.5309 0
206.235 10.1738 0
201.376 10.2094 0
193.087 8.11435 0
112.648 6.76178 0
104.848 11.697 0
102.39 9.01443 0
93.3036 7.52186 0
381.84 24.9633 0
281.916 24.4562 0
181.973 24.4117 0
81.3425 25.6744 0
384.165 15.873 0
284.071 12.3316 0
218.238 20.5538 0
184.54 13.3625 0
120.099 19.7282 0
83.1406 13.568 0
394.574 5.80678 0
387.985 5.58708 0
319.843 19.7574 0
303.653 5.73193 0
203.061 5.25856 0
103.95 4.57972 0
373.745 23.9107 0
273.104 24.0992 0
227.62 23.7519 0
174.069 23.4449 0
126.21 22.6373 0
73.4041 24.4877 0
66.1101 24.0871 0
59.2253 23.9612 0
52.2521 23.7747 0
45.2996 23.214 0
38.0392 22.7986 0
30.6761 22.9415 0
23.7341 23.5126 0
16.6866 24.1608 0
9.8744 24.7198 0
419.458 24.6588 0
427.352 24.3836 0
434.534 23.8542 0
441.334 22.9158 0
448.699 22.7294 0
455.978 23.0939 0
462.988 23.6457 0
469.936 23.8794 0
476.964 24.0846 0
483.861 24.4157 0
490.616 25.1028 0
5.27829 20.4952 0
5.70941 14.3121 0
9.42009 4.93324 0
16.0859 5.88625 0
23.236 6.97469 0
30.568 7.72501 0
37.7438 8.00572 0
44.4279 6.95806 0
51.233 5.93168 0
57.8863 5.93484 0
64.6882 5.98264 0
71.6517 6.12046 0
78.9148 6.4435 0
86.0199 6.63128 0
118.419 7.03906 0
125.658 8.66953 0
133.399 7.46431 0
140.375 6.94763 0
147.111 6.71872 0
153.79 6.77521 0
160.562 6.99592 0
167.639 7.21582 0
174.428 6.94532 0
181.227 6.54766 0
187.591 6.7364 0
209.031 5.49937 0
215.617 5.93698 0
222.529 6.17346 0
229.253 5.85984 0
235.932 6.03236 0
242.626 6.58927 0
249.897 6.72765 0
257.211 6.76753 0
263.991 6.19473 0
270.833 6.16554 0
278.295 7.32345 0
285.37 6.12477 0
317.066 6.6917 0
324.007 6.67448 0
331.221 6.92122 0
338.584 6.75872 0
345.704 6.41408 0
352.64 6.47015 0
359.663 6.58683 0
366.301 5.93692 0
373.553 5.87006 0
381.008 5.8697 0
413.266 6.59287 0
419.688 6.5264 0
426.851 6.56523 0
434.045 7.07847 0
441.442 7.49517 0
448.599 7.87087 0
455.342 6.92598 0
462.192 5.9747 0
468.781 5.90726 0
475.741 5.90525 0
483.013 5.86683 0
490.056 5.18061 0
494.724 9.44097 0
494.264 15.762 0
401.013 6.46274 0
378.927 19.2008 0
276.982 18.6527 0
179.301 18.0751 0
78.1051 19.1332 0
219.074 13.1347 0
119.527 13.6139 0
385.689 10.1495 0
319.069 13.0066 0
297.807 5.66762 0
197.973 5.65573 0
107.797 7.68125 0
99.2915 5.27804 0
366.41 22.7318 0
265.224 22.3644 0
235.032 22.0658 0
166.638 22.3835 0
134.061 22.3094 0
11.2638 10.7532 0
488.752 19.5171 0
328.103 21.0481 0
223.869 18.6448 0
424.272 18.6906 0
422.055 12.69 0
377.805 12.1702 0
124.37 16.0374 0
326.115 13.6789 0
371.411 17.1779 0
269.726 17.0534 0
230.583 16.8422 0
171.974 14.7843 0
130.311 15.254 0
70.5376 18.2847 0
63.4355 18.0394 0
56.545 17.8328 0
49.7103 17.3321 0
42.5546 15.0258 0
34.297 15.4028 0
26.3527 15.5671 0
19.586 18.774 0
12.5354 17.9731 0
430.502 19.1035 0
436.613 15.5505 0
453.292 14.9598 0
445.01 15.3095 0
460.5 17.1645 0
467.394 17.693 0
474.383 17.9436 0
481.668 18.348 0
18.6214 12.6564 0
48.4132 11.4107 0
54.1402 11.8058 0
60.741 11.9357 0
67.6843 12.1411 0
75.0521 12.5912 0
137.228 14.5168 0
143.886 13.8477 0
150.186 13.7498 0
156.691 14.1759 0
163.804 14.5414 0
178.242 11.9811 0
226.275 11.9066 0
232.039 10.8408 0
237.865 13.7955 0
246.151 14.0535 0
253.933 14.1954 0
262.292 14.2362 0
268.141 11.2028 0
273.861 12.3641 0
334.447 14.6658 0
342.33 12.673 0
349.173 12.7217 0
356.161 13.3813 0
364.009 13.8804 0
370.616 11.0071 0
429.242 13.1881 0
459.268 11.351 0
465.015 11.7303 0
471.654 11.8333 0
478.757 11.8639 0
487.288 12.2631 0
141.297 21.6407 0
147.042 19.8752 0
152.5 21.4625 0
159.295 22.0939 0
242.44 21.8082 0
250.341 22.004 0
257.932 21.9671 0
340.031 18.6364 0
345.802 18.6489 0
352.401 19.2311 0
359.078 21.3974 0
342.423 24.1972 0
348.456 24.4338 0
335.19 23.1863 0
279.431 13.9244 0
4.18385 4.10199 0
495.6 4.28062 0
495.86 25.8685 0
4.40144 25.6899 0
112.095 27.8639 0
212.246 26.7386 0
312.512 26.6059 0
412.997 41.4367 0
310.345 37.4199 0
338.589 37.1775 0
22.487 45.8886 0
323.975 48.3099 0
188.796 48.6605 0
208.212 50.076 0
399.767 48.2187 0
284.499 36.4377 0
415.347 36.8302 0
212.744 35.4 0
312.789 35.3887 0
103.102 52.1029 0
315.318 40.8659 0
100.886 57.122 0
83.814 32.1629 0
184.053 32.4269 0
384.217 32.5205 0
388.914 32.0831 0
411.488 31.5486 0
288.501 31.4516 0
188.864 32.0825 0
88.8767 32.146 0
165.221 41.5387 0
417.36 50.5104 0
280.251 50.063 0
121.741 49.0568 0
389.297 51.451 0
495.162 53.1392 0
301.119 56.4919 0
4.83982 36.9075 0
117.023 36.1803 0
317.214 37.0405 0
493.238 34.5143 0
6.80197 55.4824 0
113.033 56.9127 0
388.029 48.9728 0
109.4 50.9687 0
114.921 45.4833 0
98.1619 51.5091 0
307.365 50.0612 0
312.287 46.2555 0
113.504 32.6653 0
214.195 33.7497 0
314.255 33.824 0
311.408 34.6266 0
312.923 31.6983 0
310.969 32.9671 0
311.132 31.6983 0
211.482 34.1981 0
212.915 31.6308 0
210.961 32.8996 0
211.124 31.6308 0
111.92 33.4039 0
112.839 31.0679 0
110.884 32.3367 0
111.048 31.0679 0
7.13789 34.7952 0
5.59148 32.1551 0
2.20071 35.5458 0
2.20071 32.1551 0
4.63895 53.5767 0
2.09192 54.5582 0
5.4827 57.949 0
2.09192 57.949 0
492.828 55.2694 0
494.409 57.8597 0
497.8 54.4689 0
497.8 57.8597 0
495.375 36.4399 0
497.93 35.4565 0
494.539 32.0657 0
497.93 32.0657 0
330.23 39.378 0
337.478 40.3871 0
155.899 38.2222 0
149.776 39.3387 0
147.104 35.0691 0
144.167 39.2767 0
429.851 43.9078 0
335.316 42.8881 0
331.152 42.7595 0
331.902 46.8987 0
271.328 48.2913 0
268.926 45.6606 0
265.268 47.2284 0
168.023 45.2183 0
14.9425 48.2954 0
440.813 44.5848 0
433.543 42.7068 0
137.656 38.1865 0
162.964 37.7102 0
261.612 37.7782 0
76.5773 44.1385 0
139.79 34.2076 0
144.222 34.2076 0
149.831 34.2696 0
153.467 34.2696 0
156.864 33.9526 0
160.501 33.9526 0
240.334 34.1433 0
259.836 33.9687 0
332.795 34.3744 0
336.43 34.3744 0
340.454 32.8031 0
344.886 32.8031 0
345.568 35.4817 0
347.841 32.6786 0
351.477 32.6786 0
360.384 34.208 0
356.748 34.208 0
353.332 34.9353 0
350.377 37.614 0
347.257 38.3011 0
344.302 38.4255 0
341.501 38.8158 0
256.2 33.9687 0
252.381 34.0033 0
248.744 34.0033 0
244.766 34.1433 0
362.749 37.784 0
355.647 39.1433 0
349.112 40.5578 0
343.191 41.6351 0
254.148 37.972 0
246.351 38.1466 0
238.6 37.9729 0
59.9902 42.0648 0
324.603 45.5567 0
326.816 43.3886 0
328.46 35.0035 0
484.478 44.6944 0
370.776 45.6524 0
361.601 42.1403 0
357.619 42.3906 0
354.203 43.1179 0
350.752 43.4783 0
347.632 44.1654 0
344.352 44.3724 0
341.551 44.7626 0
338.228 44.5264 0
260.142 41.8103 0
255.95 41.8651 0
252.131 41.8998 0
248.232 41.9713 0
244.254 42.1112 0
240.097 42.2157 0
231.28 46.0243 0
161.553 41.7337 0
157.996 41.8602 0
154.599 42.1771 0
151.346 42.4029 0
148.62 43.2024 0
145.472 43.1783 0
142.59 42.3167 0
139.26 42.0617 0
72.7945 44.5628 0
69.1109 44.7879 0
65.5598 44.9105 0
62.0882 45.0132 0
58.6429 45.1164 0
476.57 45.0961 0
480.212 44.894 0
469.523 45.2363 0
473.018 45.1114 0
462.758 45.5527 0
466.204 45.2878 0
459.887 45.7445 0
15.5783 44.6854 0
19.1036 44.285 0
49.0617 45.6293 0
51.9251 45.4318 0
55.3425 45.1814 0
225.095 44.5007 0
228.414 45.4337 0
323.681 42.1751 0
322.038 39.9184 0
324.008 37.4541 0
426.697 44.1002 0
483.023 47.9365 0
475.205 48.1514 0
468.335 48.2182 0
462.145 48.4615 0
456.298 46.8577 0
432.921 45.6753 0
425.576 47.1011 0
374.016 47.9706 0
367.334 47.2796 0
360.157 46.1149 0
352.723 46.7255 0
345.992 47.2929 0
339.39 47.2636 0
258.125 45.7381 0
250.034 45.8644 0
241.978 46.0404 0
234.923 47.6084 0
229.159 48.4815 0
222.754 47.106 0
160.253 45.6886 0
153.444 46.0409 0
147.043 46.2425 0
140.565 45.9633 0
79.1024 46.8992 0
71.3678 47.6344 0
64.2126 47.9621 0
57.4405 48.1298 0
51.2766 48.3923 0
45.4838 46.7822 0
485.21 41.0674 0
478.025 41.854 0
470.888 42.181 0
463.946 42.5708 0
449.167 44.8786 0
456.911 43.9488 0
427.319 41.1318 0
16.0606 41.6266 0
22.9693 42.8298 0
30.3248 44.5155 0
38.4257 44.7861 0
46.1324 43.8217 0
53.1276 42.4184 0
66.9865 41.839 0
74.3204 41.292 0
126.732 45.5561 0
133.696 45.5726 0
135.631 41.833 0
227.216 42.0435 0
234.178 44.5607 0
236.324 41.902 0
263.787 41.6511 0
265.974 44.1154 0
365.287 41.5084 0
367.581 44.2374 0
304.507 51.0008 0
175.732 42.9073 0
175.983 46.2437 0
273.502 41.9965 0
272.035 45.1783 0
125.025 49.1794 0
124.595 41.7099 0
374.968 41.5791 0
374.263 44.9283 0
320.84 47.0964 0
318.574 45.0808 0
319.825 42.0864 0
320.152 37.3654 0
423.044 44.3252 0
488.02 44.1099 0
11.8996 45.637 0
490.776 45.9875 0
491.006 49.148 0
488.672 51.2781 0
485.151 50.935 0
480.885 51.1346 0
477.249 51.1154 0
473.698 51.1307 0
470.217 51.1297 0
466.898 51.1812 0
463.603 51.1475 0
460.733 51.3393 0
457.308 50.8637 0
454.332 49.068 0
450.961 48.5957 0
446.806 48.4123 0
443.228 48.6009 0
439.028 48.4905 0
435.332 48.7079 0
431.639 49.9089 0
428.043 50.1822 0
424.39 50.4072 0
420.845 50.4528 0
386.104 51.8655 0
382.686 51.7581 0
379.019 50.6877 0
375.528 50.5848 0
372.041 51.3089 0
368.512 51.2061 0
365.317 49.7911 0
361.928 49.5911 0
357.946 49.8414 0
354.434 49.9451 0
350.982 50.3054 0
347.569 50.3868 0
344.29 50.5938 0
340.881 50.574 0
337.558 50.3377 0
334.006 50.3177 0
329.841 50.1891 0
326.291 50.5124 0
322.528 52.0521 0
319.587 52.6041 0
276.151 50.7001 0
272.666 50.8851 0
269.557 51.3674 0
266.115 51.2859 0
263.163 49.7407 0
259.767 49.4551 0
255.575 49.5099 0
251.915 49.5371 0
248.015 49.6086 0
244.377 49.6775 0
240.22 49.782 0
236.875 50.0528 0
233.977 51.5165 0
230.641 51.5991 0
227.775 51.0085 0
224.402 50.7434 0
220.863 49.9585 0
217.451 49.9051 0
214.207 50.7015 0
210.582 50.5084 0
205.945 51.0046 0
202.453 51.5993 0
180.829 50.7914 0
177.36 50.4183 0
173.613 49.0491 0
169.802 48.937 0
165.589 49.2808 0
162.188 49.2781 0
158.632 49.4045 0
155.245 49.5214 0
151.992 49.7472 0
148.656 49.7841 0
145.509 49.76 0
142.154 49.6718 0
138.824 49.4167 0
135.413 49.2336 0
131.874 49.098 0
128.449 49.0603 0
118.754 49.1231 0
81.0338 49.9729 0
76.9828 50.483 0
73.3515 50.6445 0
69.6679 50.8696 0
66.1862 50.9385 0
62.7146 51.0412 0
59.3136 51.0651 0
56.0132 51.1301 0
52.6865 51.1315 0
49.8231 51.329 0
46.4205 50.816 0
43.4912 49.0084 0
40.1491 48.4847 0
36.0203 48.2962 0
32.4324 48.4365 0
28.4603 48.3543 0
24.7943 48.7294 0
20.9286 50.1847 0
17.3536 50.7288 0
13.6748 51.6804 0
10.3419 52.1568 0
9.12234 43.8575 0
8.90677 40.7659 0
486.307 38.0336 0
489.684 37.6901 0
479.316 38.7836 0
482.764 38.6181 0
472.159 39.0879 0
475.673 38.9856 0
465.188 39.3274 0
468.664 39.2128 0
458.226 39.8545 0
461.742 39.5923 0
443.174 40.8919 0
446.844 40.9695 0
451 41.1529 0
454.637 40.9676 0
435.574 40.3101 0
438.974 40.7815 0
428.88 38.3172 0
432.503 38.5426 0
425.726 38.5096 0
11.2048 38.6536 0
14.6109 38.9332 0
18.1363 38.5328 0
21.66 38.857 0
25.0433 40.4605 0
28.5144 40.7461 0
32.4865 40.8282 0
36.168 40.8997 0
40.2968 41.0882 0
43.927 40.8805 0
47.5049 39.7276 0
50.9811 39.4474 0
54.3985 39.197 0
57.8851 39.1037 0
61.3304 39.0005 0
64.7728 38.9377 0
68.3239 38.8151 0
71.9711 38.6148 0
128.02 41.5907 0
132.092 41.6974 0
136.161 33.9789 0
164.168 33.7576 0
169.434 41.1948 0
173.065 40.5712 0
225.738 38.6234 0
229.057 39.5564 0
232.681 40.3178 0
236.561 33.8296 0
263.481 33.8095 0
267.445 40.0833 0
271.356 39.3332 0
275.226 38.7821 0
364.07 33.5761 0
368.729 39.8811 0
372.397 39.2604 0
183.825 51.3884 0
303.421 53.2068 0
302.091 50.7778 0
96.2355 53.3636 0
97.4615 57.122 0
109.608 56.9127 0
111.933 52.2941 0
182.727 48.21 0
381.17 48.317 0
179.479 44.2766 0
182.08 45.695 0
275.904 44.6272 0
278.537 47.1718 0
120.319 45.7416 0
121.301 43.0629 0
221.556 43.7158 0
378.208 43.8974 0
380.733 45.4543 0
75.7539 38.1905 0
176.561 38.6041 0
376.342 38.2294 0
316.623 51.2689 0
317.947 47.8341 0
80.6283 43.6283 0
316.931 42.8241 0
315.747 38.6052 0
279.241 38.3791 0
420.259 41.2218 0
421.652 38.5052 0
418.439 47.3837 0
419.138 44.2226 0
410.835 50.7297 0
414.007 50.595 0
122.589 39.0975 0
221.076 40.2758 0
222.61 38.091 0
491.822 39.6157 0
491.508 42.3605 0
8.17892 50.2512 0
8.48657 47.4674 0
494.494 47.3985 0
492.39 52.6892 0
486.534 54.4763 0
479.377 54.114 0
472.261 54.0938 0
465.486 54.059 0
458.767 53.5497 0
451.971 52.6017 0
445.022 52.318 0
437.747 52.7241 0
430.454 53.2149 0
423.312 53.5339 0
416.413 53.6641 0
409.795 53.7546 0
390.621 54.2938 0
383.954 54.2363 0
377.044 54.026 0
370.023 53.8203 0
363.105 53.5176 0
356.205 53.4213 0
349.28 53.6063 0
342.458 53.668 0
335.496 53.6281 0
328.394 53.9314 0
321.902 54.8066 0
315.997 54.0234 0
309.435 53.059 0
281.286 53.6667 0
274.38 53.7762 0
267.453 53.8797 0
260.614 53.5126 0
253.557 53.2541 0
246.258 53.3502 0
239.274 53.69 0
232.593 54.0435 0
225.884 53.8611 0
219.099 53.5425 0
212.062 53.2959 0
204.945 53.6975 0
185.199 54.1141 0
178.459 53.5968 0
171.179 53.1115 0
163.967 52.9967 0
157.179 53.1108 0
150.457 53.2646 0
143.767 53.2135 0
137.002 52.9422 0
130.167 52.7213 0
123.459 52.5609 0
117.138 51.6006 0
82.4664 53.444 0
75.2829 53.7183 0
68.1699 53.9487 0
61.2872 54.0415 0
54.5596 54.0668 0
47.8304 53.5553 0
41.0858 52.5185 0
34.1558 52.135 0
26.902 52.6504 0
19.6609 53.5697 0
12.753 54.5903 0
7.25707 53.1611 0
5.49379 42.5964 0
7.57629 37.3925 0
492.753 36.8228 0
487.238 35.2408 0
480.412 35.7498 0
473.45 36.0175 0
466.46 36.2343 0
459.468 36.6111 0
445.006 37.1662 0
452.315 37.0586 0
437.935 36.6172 0
430.911 35.9204 0
423.213 35.6906 0
13.2805 35.5598 0
20.2103 36.1635 0
27.2051 36.7732 0
34.3576 37.1302 0
41.6693 36.994 0
48.7758 36.5062 0
55.7387 36.1327 0
62.6677 35.9766 0
69.7574 35.7136 0
77.3731 34.9196 0
122.673 36.2601 0
129.955 37.8511 0
132.526 33.9789 0
167.803 33.7576 0
170.263 36.8915 0
177.791 35.5609 0
224.451 35.6039 0
231.203 36.8977 0
232.926 33.8296 0
267.116 33.8095 0
269.169 36.8689 0
277.095 35.7158 0
367.705 33.5761 0
370.103 36.5314 0
377.894 35.4759 0
187.097 51.5327 0
191.727 54.318 0
198.219 54.3349 0
199.735 51.8292 0
287.832 53.9996 0
293.767 54.1879 0
298.791 53.5511 0
299.776 51.0621 0
100.426 51.9928 0
101.845 54.3541 0
107.142 54.1448 0
107.668 51.9484 0
185.077 46.2919 0
187.024 46.9551 0
283.672 50.1384 0
286.693 51.1148 0
384.399 46.5247 0
386.479 47.342 0
181.829 42.3586 0
280.363 41.0435 0
280.004 43.9901 0
115.716 48.2854 0
89.6601 52.9072 0
215.971 47.1175 0
116.13 43.8446 0
118.313 43.1293 0
84.5859 49.8601 0
87.9008 50.4448 0
216.771 44.6738 0
218.735 42.8811 0
381.438 42.1051 0
79.7224 37.5968 0
81.5244 40.1737 0
180.458 37.897 0
182.199 39.8792 0
380.465 37.7946 0
382.058 39.6832 0
314.357 49.2534 0
84.0494 42.9344 0
314.068 43.8604 0
407.571 50.7356 0
284.057 34.1079 0
282.232 37.9771 0
417.745 38.4027 0
416.057 34.3917 0
415.654 44.2803 0
411.783 47.576 0
119.378 37.6132 0
217.198 36.8395 0
219.788 37.2563 0
494.577 41.4932 0
5.40171 48.4717 0
497.132 42.8245 0
497.132 45.3375 0
497.362 48.498 0
497.362 51.8887 0
491.637 57.4097 0
488.246 57.4097 0
484.725 57.0666 0
481.301 57.0666 0
477.665 57.0474 0
474.104 57.0474 0
470.623 57.0464 0
467.199 57.0464 0
463.904 57.0127 0
460.48 57.0127 0
457.055 56.537 0
453.63 56.537 0
450.259 56.0647 0
446.834 56.0647 0
443.256 56.2533 0
439.831 56.2533 0
436.135 56.4708 0
432.71 56.4708 0
429.114 56.7442 0
425.689 56.7442 0
422.144 56.7898 0
418.719 56.7898 0
415.365 56.8743 0
411.941 56.8743 0
408.676 56.8803 0
405.252 56.8803 0
402.09 56.837 0
398.665 56.837 0
395.497 57.122 0
392.072 57.122 0
388.824 57.1718 0
385.399 57.1718 0
381.98 57.0644 0
378.555 57.0644 0
375.064 56.9616 0
371.639 56.9616 0
368.11 56.8588 0
364.685 56.8588 0
361.297 56.6588 0
357.872 56.6588 0
354.36 56.7625 0
350.935 56.7625 0
347.523 56.8439 0
344.098 56.8439 0
340.689 56.8241 0
337.264 56.8241 0
333.712 56.804 0
330.287 56.804 0
326.737 57.1273 0
323.312 57.1273 0
320.371 57.6792 0
316.946 57.6792 0
313.982 56.3441 0
310.558 56.3441 0
306.96 56.7149 0
303.535 56.7149 0
298.905 57.0593 0
295.48 57.0593 0
292.671 57.1286 0
289.246 57.1286 0
286.12 56.871 0
282.696 56.871 0
279.275 56.7956 0
275.85 56.7956 0
272.366 56.9806 0
268.941 56.9806 0
265.498 56.8991 0
262.074 56.8991 0
258.677 56.6134 0
255.253 56.6134 0
251.592 56.6406 0
248.167 56.6406 0
244.529 56.7096 0
241.104 56.7096 0
237.759 56.9804 0
234.334 56.9804 0
230.998 57.0631 0
227.574 57.0631 0
224.201 56.798 0
220.776 56.798 0
217.364 56.7445 0
213.939 56.7445 0
210.314 56.5514 0
206.89 56.5514 0
203.398 57.1461 0
199.974 57.1461 0
196.738 57.1888 0
193.314 57.1888 0
190.057 57.1292 0
186.632 57.1292 0
183.361 56.985 0
179.936 56.985 0
176.468 56.6118 0
173.043 56.6118 0
169.232 56.4997 0
165.807 56.4997 0
162.407 56.497 0
158.982 56.497 0
155.595 56.6138 0
152.17 56.6138 0
148.835 56.6508 0
145.41 56.6508 0
142.056 56.5626 0
138.631 56.5626 0
135.22 56.3795 0
131.796 56.3795 0
128.371 56.3418 0
124.947 56.3418 0
121.663 56.2191 0
118.239 56.2191 0
115.201 55.3814 0
106.987 57.2321 0
103.562 57.2321 0
94.5276 56.2416 0
91.1029 56.2416 0
87.4614 56.6656 0
84.0367 56.6656 0
80.4846 56.7784 0
77.0599 56.7784 0
73.4286 56.9399 0
70.0039 56.9399 0
66.5222 57.0088 0
63.0976 57.0088 0
59.6966 57.0327 0
56.2719 57.0327 0
52.9453 57.0342 0
49.5207 57.0342 0
46.1181 56.5211 0
42.6934 56.5211 0
39.3514 55.9974 0
35.9267 55.9974 0
32.3388 56.1376 0
28.9142 56.1376 0
25.2482 56.5127 0
21.8235 56.5127 0
18.2485 57.0569 0
14.8245 57.0569 0
11.4916 57.5334 0
8.10082 57.5334 0
2.85468 47.1385 0
2.85468 44.6255 0
2.63911 41.534 0
2.63911 38.1432 0
488.526 32.4486 0
491.917 32.4486 0
481.69 32.7922 0
485.149 32.7922 0
474.784 32.9576 0
478.242 32.9576 0
467.812 33.0599 0
471.27 33.0599 0
460.874 33.1744 0
464.336 33.1744 0
453.897 33.4367 0
457.359 33.4367 0
446.798 33.6219 0
450.259 33.6219 0
439.666 33.5443 0
443.127 33.5443 0
432.803 33.0729 0
436.265 33.0729 0
425.743 32.8475 0
429.18 32.8475 0
418.71 32.8431 0
421.668 32.8431 0
8.32795 32.6401 0
11.7187 32.6401 0
15.1248 32.9197 0
18.5835 32.9197 0
22.1072 33.2438 0
25.5652 33.2438 0
29.0362 33.5294 0
32.4942 33.5294 0
36.1757 33.6008 0
39.6372 33.6008 0
43.2674 33.3932 0
46.729 33.3932 0
50.2052 33.113 0
53.6668 33.113 0
57.1534 33.0197 0
60.6149 33.0197 0
64.0574 32.9569 0
67.5188 32.9569 0
71.166 32.7567 0
74.6036 32.7567 0
78.5721 32.1629 0
81.5295 32.1629 0
121.668 32.3879 0
124.879 33.8722 0
128.455 33.8722 0
171.435 33.134 0
175.011 33.134 0
178.907 32.4269 0
181.838 32.4269 0
222.598 32.5358 0
225.727 33.0681 0
229.302 33.0681 0
271.027 33.0594 0
274.603 33.0594 0
278.619 32.6563 0
281.549 32.6563 0
322.998 32.4506 0
326.574 32.4506 0
371.373 32.9553 0
374.949 32.9553 0
379.071 32.5205 0
382.002 32.5205 0
190.169 51.3863 0
193.426 51.4459 0
196.5 51.8719 0
289.819 51.3724 0
292.413 51.7262 0
295.223 51.6569 0
297.562 51.6295 0
105.047 52.2678 0
186.377 44.4401 0
190.097 46.8087 0
194.942 48.9402 0
200.734 49.1363 0
285.658 47.5111 0
291.274 48.8414 0
296.208 49.1679 0
300.862 48.8562 0
403.369 53.7173 0
404.523 50.6549 0
397.038 53.959 0
386.042 44.4793 0
184.8 41.2976 0
186.46 42.6197 0
282.995 43.5881 0
285.19 44.7323 0
103.628 49.9065 0
91.5424 50.0208 0
103.017 47.7608 0
201.895 47.1009 0
213.526 45.4702 0
301.799 46.8669 0
117.112 41.166 0
116.939 39.0177 0
86.1622 44.4359 0
86.4682 46.9737 0
216.29 41.2338 0
215.747 38.4898 0
188.408 43.2829 0
190.133 44.3357 0
191.906 46.0411 0
193.913 46.7532 0
196.987 47.1793 0
199.176 47.3308 0
288.211 45.7087 0
290.448 46.4595 0
293.043 46.8134 0
295.113 47.175 0
297.452 47.1477 0
299.483 47.1513 0
401.36 50.6116 0
389.672 46.9274 0
392.545 51.4012 0
395.445 51.5661 0
394.121 48.7232 0
398.613 51.281 0
384.583 41.2402 0
386.237 42.571 0
388.316 43.3882 0
389.961 44.4121 0
84.5475 34.3089 0
83.1435 36.9028 0
184.708 34.5094 0
183.428 36.8361 0
186.83 40.1404 0
285.548 41.7857 0
384.922 34.6036 0
383.61 36.9297 0
114.748 35.3898 0
214.69 35.8882 0
314.779 35.8161 0
104.962 47.9257 0
107.304 49.0917 0
111.569 49.4374 0
113.306 47.9607 0
110.774 46.6353 0
113.72 43.52 0
91.8302 47.3665 0
93.5895 49.8289 0
95.228 50.6288 0
95.5158 47.9745 0
99.4188 49.258 0
100.743 47.6315 0
203.932 46.7287 0
205.72 47.9778 0
210.357 47.4816 0
211.707 46.1638 0
209.337 45.7314 0
212.506 43.72 0
303.844 46.3823 0
306.035 47.6322 0
310.963 49.6904 0
310.674 44.2974 0
113.151 41.3844 0
114.756 39.7331 0
102.077 45.6506 0
87.0583 40.9812 0
89.4771 45.0206 0
91.2926 45.5239 0
212.434 41.9582 0
213.783 40.2825 0
202.374 44.9231 0
190.217 42.5153 0
193.95 44.2802 0
198.147 45.1438 0
312.884 39.6415 0
302.466 44.6774 0
289.979 43.6807 0
294.287 44.7931 0
298.389 45.1585 0
405.563 47.63 0
400.692 46.2766 0
391.511 46.043 0
393.309 46.6535 0
396.208 46.8183 0
397.945 46.9461 0
386.857 40.1491 0
390.155 42.5038 0
113.164 36.1285 0
86.3494 36.8858 0
87.3936 38.8488 0
211.977 36.3366 0
189.023 39.6296 0
190.305 40.7118 0
186.449 36.4916 0
187.362 38.3075 0
311.932 36.6187 0
287.815 40.2463 0
289.745 41.5521 0
285.621 39.1021 0
413.954 39.5467 0
412.297 44.5977 0
406.763 45.1486 0
409.126 44.7324 0
386.515 36.4922 0
387.422 38.2803 0
113.328 33.9334 0
117.187 33.9853 0
118.737 32.3879 0
218.732 34.6547 0
219.667 32.5358 0
319.184 34.5762 0
320.067 32.4506 0
106.694 46.9459 0
108.666 45.8061 0
110.403 44.3295 0
111.942 43.0231 0
93.3398 45.3321 0
95.0527 45.9614 0
96.6911 46.7613 0
98.4786 47.1479 0
206.199 45.8001 0
207.853 45.0286 0
209.203 43.7108 0
210.614 42.6518 0
306.702 45.4427 0
308.473 44.3403 0
310.254 41.9451 0
311.297 40.4427 0
112.978 39.2362 0
112.395 37.5497 0
110.79 39.201 0
103.017 44.074 0
100.743 43.9447 0
89.5065 40.3503 0
90.8682 41.3522 0
90.9867 42.9861 0
92.6837 41.8556 0
211.891 39.2143 0
211.46 37.5295 0
210.111 39.2053 0
203.127 43.3348 0
199.324 43.7141 0
201.09 43.707 0
192.031 41.7646 0
193.515 42.4972 0
195.522 43.2093 0
197.134 43.5626 0
311.727 38.182 0
309.479 38.099 0
303.176 43.1131 0
299.426 43.6916 0
301.131 43.5978 0
291.982 42.3029 0
293.65 43.0203 0
295.72 43.382 0
297.395 43.688 0
401.867 45.0271 0
403.714 45.0678 0
400.044 43.7545 0
393.598 44.1381 0
397.133 44.8763 0
398.395 43.6063 0
395.141 43.077 0
396.659 43.4786 0
389.075 39.611 0
390.317 40.7051 0
391.961 41.729 0
393.343 42.4666 0
110.976 36.0933 0
88.7976 36.2549 0
210.197 36.3276 0
190.837 38.8789 0
188.641 35.9809 0
309.684 36.5358 0
289.818 38.8685 0
287.445 35.2329 0
412.266 35.5357 0
410.598 39.8641 0
407.277 42.1703 0
388.734 35.9542 0
497.445 37.765 0
497.445 40.0797 0
2.54703 52.237 0
2.54703 49.9223 0
413.345 31.5486 0
415.629 31.5486 0
87.0199 32.146 0
114.248 31.5974 0
116.463 31.5974 0
187.073 32.0825 0
214.862 32.1189 0
217.077 32.1189 0
284.495 31.4516 0
286.71 31.4516 0
314.914 32.1257 0
317.129 32.1257 0
387.123 32.0831 0
104.665 43.6562 0
106.323 44.6401 0
109.834 42.1939 0
109.6 40.3387 0
94.1077 42.4808 0
94.5151 44.1189 0
98.0155 45.1348 0
99.1049 43.8798 0
204.685 42.9016 0
206.065 43.7795 0
209.131 41.949 0
209.07 40.2814 0
304.743 42.5724 0
306.282 43.0904 0
309.097 40.4856 0
308.767 39.0503 0
106.637 42.5164 0
108.061 41.645 0
95.8206 43.1102 0
97.3174 43.4932 0
206.339 42.1302 0
207.658 41.3404 0
306.513 41.4701 0
307.724 40.5527 0
109.017 38.6522 0
106.402 40.6612 0
103.33 41.9503 0
100.045 42.3031 0
96.9101 41.8552 0
91.2035 39.2197 0
93.9893 40.8469 0
208.638 38.5967 0
206.278 40.4626 0
203.401 41.6855 0
200.077 42.1258 0
193.603 40.6937 0
196.699 41.7796 0
308.107 38.1661 0
306.184 40.0347 0
303.407 41.4928 0
300.136 42.1273 0
293.415 40.8917 0
296.757 41.9151 0
403.067 42.5457 0
399.57 42.3568 0
396.404 41.807 0
390.881 38.8363 0
393.504 40.6679 0
110.228 34.7906 0
110.708 33.6048 0
108.694 37.2368 0
109.46 36.2118 0
106.503 39.1717 0
107.504 38.3745 0
103.909 40.5604 0
105.079 40.0431 0
100.841 41.184 0
102.261 40.9781 0
97.9346 40.9554 0
99.2034 41.1191 0
95.2522 40.0921 0
96.4379 40.5724 0
92.8031 38.7014 0
93.8281 39.4669 0
90.6441 36.6991 0
91.4413 37.6996 0
89.0826 33.5661 0
89.5999 34.7361 0
209.714 35.0218 0
210.194 33.8361 0
208.43 37.2398 0
209.196 36.2148 0
206.389 39.1132 0
207.389 38.316 0
203.899 40.4202 0
205.069 39.903 0
200.922 41.0593 0
202.342 40.8534 0
197.736 40.8606 0
199.156 41.0665 0
194.954 39.99 0
196.124 40.5073 0
192.469 38.4601 0
193.469 39.2574 0
190.421 36.3529 0
191.187 37.3779 0
189.028 33.3513 0
189.508 34.537 0
309.631 35.3828 0
310.111 34.1971 0
308 37.087 0
308.765 36.062 0
306.287 38.8355 0
307.288 38.0382 0
303.907 40.2701 0
305.077 39.7529 0
300.921 41.0167 0
302.341 40.8108 0
297.796 40.9047 0
299.216 41.1106 0
294.951 40.0814 0
296.121 40.5987 0
292.283 38.5667 0
293.284 39.364 0
289.588 36.2358 0
290.353 37.2609 0
288.665 32.7204 0
289.145 33.9061 0
410.765 34.1388 0
411.282 32.9687 0
409.257 37.5777 0
410.054 36.5772 0
407.275 40.2331 0
408.3 39.4677 0
403.726 41.1296 0
404.912 40.6493 0
400.609 41.2525 0
401.878 41.0888 0
397.541 40.8984 0
398.961 41.1043 0
394.853 39.9795 0
396.023 40.4968 0
392.471 38.4448 0
393.471 39.242 0
390.464 36.3256 0
391.229 37.3507 0
389.077 33.3518 0
389.558 34.5376 0
387.827 34.1661 0
389.64 37.7423 0
392.123 39.9304 0
394.886 41.4054 0
397.922 42.2085 0
401.219 42.505 0
404.914 42.5864 0
409.64 41.7541 0
411.555 37.9741 0
412.976 33.0972 0
287.003 32.9031 0
287.888 37.5626 0
291.748 40.1743 0
295.083 41.6091 0
298.432 42.2212 0
301.841 42.0335 0
304.974 40.9521 0
307.395 39.1173 0
308.819 37.2149 0
310.55 35.8566 0
187.728 34.165 0
189.555 37.7967 0
192.119 39.9611 0
195.087 41.4263 0
198.312 42.1329 0
201.843 42.1187 0
204.959 41.2523 0
207.597 39.6728 0
209.68 37.5205 0
210.715 35.1346 0
87.7533 34.292 0
89.8418 38.2179 0
92.5653 40.2216 0
95.4133 41.4722 0
98.4069 42.2382 0
101.682 42.3681 0
104.978 41.5325 0
107.826 39.7898 0
110.208 37.5145 0
111.744 34.6721 0
308.053 41.988 0
207.719 43.008 0
96.2279 44.7482 0
108.295 43.5003 0
310.14 38.9832 0
304.511 44.1928 0
210.542 40.89 0
204.411 44.5509 0
99.803 45.5213 0
92.8022 43.4895 0
111.373 40.8875 0
104.351 45.7799 0
316.246 34.2514 0
216.141 34.2379 0
114.913 33.1948 0
5.09405 51.2555 0
494.891 38.7484 0
391.8 43.5277 0
388.511 41.4798 0
395.396 44.7486 0
398.869 45.004 0
402.514 47.5493 0
296.357 45.1548 0
292.216 44.4315 0
300.42 45.1621 0
313.313 37.3808 0
195.957 44.9923 0
191.943 43.5681 0
200.337 45.2953 0
213.24 37.5385 0
89.1711 42.4827 0
114.583 37.5848 0
312.455 41.9022 0
308.893 46.6925 0
210.687 44.4136 0
207.988 47.0492 0
97.1543 48.7744 0
93.8774 47.1747 0
112.511 45.1586 0
109.037 48.112 0
322.122 34.9011 0
221.322 35.0716 0
119.462 34.7758 0
385.203 38.8183 0
408.611 47.7107 0
414.954 47.4413 0
416.353 41.1192 0
283.354 40.6415 0
287.742 42.9299 0
185.169 38.8183 0
188.491 41.4625 0
84.9455 39.4797 0
397.02 48.8881 0
391.221 48.5583 0
214.326 43.0264 0
89.7831 47.5584 0
114.929 41.8813 0
313.033 52.6882 0
303.177 48.5718 0
212.727 47.914 0
203.452 48.9065 0
101.683 49.7416 0
93.3017 52.4832 0
114.101 50.7628 0
105.572 50.0715 0
382.016 35.0411 0
181.687 34.8539 0
81.3416 34.3259 0
388.122 45.2965 0
383.962 43.6621 0
400.207 53.674 0
393.87 54.244 0
298.546 49.1405 0
293.869 49.1953 0
288.679 48.4875 0
198.016 49.3662 0
191.869 48.5141 0
188.324 45.1032 0
218.255 39.4411 0
83.1533 46.389 0
119.294 40.4506 0
282.637 46.5347 0
184.43 43.7769 0
406.531 53.7605 0
104.521 54.4642 0
296.577 54.1185 0
290.958 54.2572 0
194.984 54.3776 0
188.47 54.2584 0
373.771 35.9107 0
281.111 35.3127 0
273.08 36.1189 0
227.58 36.1363 0
173.895 36.2679 0
125.884 37.7445 0
73.4045 35.5133 0
66.1102 35.9138 0
59.2253 36.0394 0
52.2521 36.226 0
45.2995 36.7864 0
38.0392 37.2017 0
30.6761 37.0588 0
23.734 36.4877 0
16.6866 35.8394 0
9.87436 35.2802 0
419.138 35.6862 0
427.288 35.695 0
434.534 36.1458 0
441.336 37.0886 0
448.677 37.2438 0
455.953 36.8733 0
462.984 36.3489 0
469.936 36.1197 0
476.964 35.9153 0
483.861 35.5843 0
490.616 34.8972 0
5.27823 39.5049 0
5.70936 45.688 0
9.42008 55.0668 0
16.0859 54.1138 0
23.236 53.0255 0
30.568 52.2753 0
37.7437 51.9947 0
44.4278 53.0422 0
51.233 54.0683 0
57.8863 54.0653 0
64.6882 54.0176 0
71.6516 53.8797 0
78.9143 53.5568 0
86.0186 53.3312 0
120.176 52.4383 0
126.742 52.6836 0
133.591 52.759 0
140.413 53.1253 0
147.122 53.3016 0
153.793 53.2277 0
160.566 52.994 0
167.368 52.9994 0
174.99 53.2236 0
181.928 53.9699 0
201.454 54.2922 0
208.437 53.1028 0
215.687 53.489 0
222.511 53.596 0
229.257 54.1261 0
235.929 53.9608 0
242.619 53.4192 0
249.896 53.2813 0
257.217 53.2269 0
264.01 53.7983 0
270.895 53.9612 0
277.865 53.5913 0
284.706 53.742 0
305.837 53.4298 0
318.96 55.3585 0
324.844 54.2546 0
331.944 53.6081 0
339.049 53.6482 0
345.867 53.6877 0
352.692 53.525 0
359.717 53.3176 0
366.494 53.7176 0
373.552 53.9231 0
380.535 54.1288 0
387.373 54.3437 0
413.059 53.7487 0
419.766 53.5796 0
426.857 53.4883 0
434.05 52.9415 0
441.444 52.5066 0
448.599 52.1294 0
455.342 53.074 0
462.192 54.0253 0
468.781 54.0927 0
475.741 54.0948 0
483.013 54.1332 0
490.056 54.8194 0
494.724 50.559 0
494.264 44.238 0
315.681 45.8185 0
378.913 40.5481 0
179.228 40.9402 0
78.1032 40.8676 0
219.215 46.3211 0
117.332 45.8079 0
277.371 41.4454 0
384.836 49.3874 0
185.723 48.8069 0
109.764 53.8253 0
99.1694 54.2439 0
301.005 52.9837 0
366.435 37.1521 0
265.257 37.619 0
234.827 37.6592 0
166.632 37.5152 0
134.027 37.9578 0
11.2638 49.2469 0
488.752 40.4829 0
223.897 41.1104 0
421.923 47.326 0
424.165 41.3243 0
318.182 39.8296 0
320.213 49.8497 0
377.503 47.2466 0
123.307 45.6752 0
274.437 47.809 0
179.731 47.613 0
371.024 42.6101 0
269.633 42.5476 0
230.534 42.9765 0
172.236 44.8745 0
130.156 45.437 0
70.5376 41.7164 0
63.4355 41.9616 0
56.5449 42.168 0
49.7102 42.6688 0
42.5545 44.9746 0
34.2969 44.5976 0
26.3526 44.4334 0
19.586 41.2263 0
12.5353 42.027 0
430.473 40.9393 0
436.613 44.4744 0
453.322 45.062 0
445.012 44.6952 0
460.5 42.8357 0
467.393 42.306 0
474.383 42.056 0
481.667 41.6519 0
18.6213 47.3438 0
48.4131 48.5898 0
54.1401 48.1948 0
60.7409 48.0648 0
67.6842 47.8594 0
75.0514 47.4093 0
137.235 45.7082 0
143.895 46.2184 0
150.191 46.2667 0
156.697 45.8151 0
163.81 45.5622 0
226.293 47.8909 0
232.025 49.0721 0
237.821 46.1448 0
246.135 45.9359 0
253.933 45.7929 0
262.316 45.6832 0
268.219 48.7736 0
327.738 46.7702 0
336.067 47.0273 0
342.712 47.4999 0
349.272 47.0859 0
356.175 46.3652 0
364.139 45.8646 0
370.529 48.6947 0
429.229 46.8762 0
459.274 48.6533 0
465.015 48.2697 0
471.654 48.1667 0
478.757 48.1361 0
487.288 47.7369 0
321.467 44.3431 0
325.895 40.0071 0
141.284 38.4151 0
147.049 40.1382 0
152.502 38.5392 0
159.296 37.9053 0
242.373 38.2866 0
250.329 38.0066 0
257.968 37.9373 0
340.39 42.0254 0
345.991 41.2449 0
352.232 39.8707 0
359.063 38.416 0
342.613 35.6061 0
348.523 35.3572 0
334.566 38.7489 0
495.86 34.1315 0
495.6 55.7194 0
4.18385 55.898 0
4.40142 34.3101 0
112.095 32.1358 0
212.249 33.2615 0
312.265 33.3966 0
120.732 12.3658 0
115.772 12.9916 0
311.278 28.0212 0
313.304 32.592 0
338.583 40.9947 0
333.69 42.0227 0
109.49 51.9435 0
114.489 52.0419 0
272.264 14.1221 0
276.762 16.3071 0
459.666 31.6714 0
455.635 34.6292 0
449.025 49.6557 0
444.602 47.324 0
249.96 58.1974 0
253.232 54.4162 0
421.526 6.4869 0
416.695 5.19774 0
21.7727 59.3142 0
23.8088 54.7476 0
260.049 35.4514 0
264.803 36.9985 0
254.549 43.5162 0
254.665 48.5149 0
470.815 57.1902 0
472.749 52.5791 0
317.41 43.6496 0
322.386 44.1458 0
452.326 10.6967 0
453.506 5.8378 0
225.95 6.59311 0
221.25 8.29893 0
200.481 9.4201 0
196.318 12.1883 0
335.803 39.98 0
331.107 41.6963 0
308.556 17.3966 0
304.529 14.4329 0
246.938 24.7353 0
244.671 29.1921 0
472 25.7505 0
472.209 20.7548 0
394.117 51.8561 0
394.709 46.8913 0
300.512 50.4823 0
295.971 52.5745 0
80.5459 16.7728 0
85.5338 17.12 0
59.1676 39.4027 0
63.5835 37.0574 0
273.345 2.4841 0
276.581 6.29543 0
159.568 51.1311 0
164.563 50.8938 0
173.025 51.7284 0
177.717 49.9996 0
22.4119 54.8676 0
25.6285 51.0396 0
334.994 36.5317 0
334.924 41.5313 0
229.635 30.2981 0
226.917 26.1015 0
21.5583 38.081 0
19.0607 33.7494 0
28.1956 45.3477 0
25.4265 49.5109 0
257.096 3.27622 0
252.147 3.9851 0
4.06321 2.87435 0
9.05497 3.16133 0
173.931 29.4295 0
168.988 28.6766 0
114.151 41.8663 0
117.931 45.1388 0
210.313 6.66419 0
209.493 11.5966 0
272.538 16.1101 0
268.471 19.0182 0
42.9931 9.27732 0
47.0273 6.32347 0
174.242 24.9345 0
177.905 28.3372 0
329.707 10.9328 0
333.83 8.10327 0
76.299 10.7433 0
73.7607 6.43548 0
136.505 25.0505 0
136.21 30.0418 0
104.29 15.2457 0
106.626 10.825 0
461.903 16.7986 0
458.771 12.9007 0
354.289 45.7876 0
357.7 42.1321 0
343.667 7.14885 0
339.139 5.02811 0
220.197 19.5488 0
217.564 15.298 0
201.244 53.0942 0
205.987 51.5111 0
116.111 41.6034 0
115.177 36.6914 0
213.444 38.2757 0
215.303 42.9171 0
9.92444 42.3537 0
4.94896 42.8483 0
376.769 48.4495 0
375.543 43.6021 0
398.079 50.0063 0
393.101 49.537 0
440.455 40.8039 0
435.795 38.9909 0
445.886 25.2995 0
450.605 26.9522 0
48.0099 21.4359 0
47.1865 16.5042 0
142.59 22.2615 0
142.78 27.2578 0
49.2395 45.5827 0
52.1905 49.619 0
347.803 30.7956 0
350.427 35.0516 0
466.045 42.1406 0
468.436 37.7493 0
22.5241 2.22648 0
26.3372 5.46073 0
52.6604 18.8147 0
52.0629 23.7789 0
430.985 1.94263 0
433.524 6.25045 0
325.418 16.9913 0
320.477 16.2243 0
393.726 41.5934 0
389.088 39.726 0
481.176 47.234 0
476.434 45.6475 0
222.343 43.6647 0
217.381 44.2812 0
325.407 27.0865 0
329.724 29.6102 0
74.3752 9.2286 0
69.3855 9.54885 0
169.567 9.68441 0
168.581 4.78259 0
386.753 6.70796 0
384.143 10.9729 0
435.728 46.5752 0
440.592 47.7341 0
141.134 17.416 0
136.583 19.4873 0
63.5207 51.5607 0
58.9483 49.5374 0
115.161 9.99119 0
119.534 7.56726 0
17.8085 31.0303 0
22.656 32.2556 0
63.8015 41.0505 0
68.2863 43.2611 0
478.199 3.23196 0
476.845 8.04491 0
354.944 13.7811 0
355.31 18.7677 0
441.519 29.4035 0
443.497 33.9957 0
340.443 17.3583 0
342.559 12.828 0
154.582 8.1897 0
157.055 12.535 0
88.5677 22.8202 0
93.3267 21.2866 0
186.456 19.9411 0
182.833 16.4944 0
225.893 56.277 0
226.16 51.2841 0
221.104 7.94716 0
224.949 11.144 0
415.466 19.4636 0
412.212 23.2595 0
37.6712 38.7786 0
42.5741 39.7589 0
484.775 48.3518 0
480.342 50.6639 0
317.06 44.4205 0
312.299 45.9487 0
436.522 36.2189 0
437.513 31.3183 0
303.224 51.3262 0
308.113 50.2781 0
226.746 11.9963 0
227.678 7.08392 0
436.052 37.4153 0
431.892 34.6425 0
7.21347 18.1269 0
2.25145 18.742 0
379.271 24.0211 0
381.776 28.3482 0
105.818 48.1369 0
101.806 45.1529 0
69.9374 47.5335 0
65.9241 50.5158 0
59.8604 51.7757 0
55.6328 49.106 0
150.929 8.03212 0
152.936 3.4526 0
242.382 11.2438 0
237.415 10.6685 0
428.841 33.5589 0
425.379 37.167 0
147.075 14.76 0
146.916 19.7574 0
116.949 15.9784 0
114.629 11.5491 0
490.644 27.8224 0
487.548 31.7485 0
452.239 30.3073 0
454.412 25.8045 0
179.555 5.9623 0
174.556 6.06679 0
401.923 10.1285 0
401.923 5.12851 0
388.23 30.0597 0
383.273 29.4003 0
267.29 30.0397 0
271.438 27.2488 0
277.142 19.5004 0
274.568 15.2138 0
131.358 15.4617 0
136.27 16.3961 0
429.462 44.0574 0
424.542 44.9528 0
158.046 11.8631 0
161.495 8.2427 0
146.675 53.7877 0
143.353 50.0512 0
66.2376 26.2239 0
66.2426 21.2239 0
150.822 4.17279 0
147.848 0.153487 0
322.407 25.7023 0
317.453 26.3761 0
384.784 39.3454 0
379.944 38.09 0
159.021 27.9987 0
154.054 28.5784 0
28.4611 31.7989 0
30.089 36.5264 0
453.371 52.0832 0
453.163 47.0875 0
345.165 12.2003 0
347.413 16.6666 0
345.348 21.9938 0
345.608 17.0006 0
165.115 21.6538 0
162.158 25.6851 0
381.671 11.293 0
382.302 16.253 0
65.9751 45.008 0
70.1422 47.7712 0
52.5951 10.2584 0
47.6142 9.82157 0
65.618 38.164 0
68.0991 42.505 0
457.264 38.6224 0
462.201 39.4138 0
387.387 22.1819 0
392.153 23.6941 0
339.829 16.1968 0
344.637 17.5705 0
483.636 53.5311 0
480.441 49.6857 0
246.063 48.0785 0
245.217 53.0063 0
387.852 44.0838 0
392.85 44.2126 0
315.691 18.3105 0
312.615 22.2523 0
475.777 5.03827 0
476.945 0.17652 0
449.031 31.1708 0
445.475 34.686 0
2.1432 25.9329 0
6.43642 23.37 0
130.456 28.1499 0
132.175 32.8454 0
8.02587 58.153 0
3.45463 56.1272 0
191.156 49.3419 0
192.11 54.2501 0
317.038 22.9151 0
312.46 20.9065 0
173.278 3.73215 0
169.875 7.39613 0
472.877 44.6052 0
475.896 48.5907 0
216.731 47.2496 0
214.182 42.9481 0
113.211 11.6714 0
112.242 6.76614 0
124.509 24.3248 0
124.268 19.3307 0
196.335 8.39066 0
200.279 11.4649 0
111.154 22.37 0
114.851 19.0029 0
293.911 40.2093 0
294.402 45.1851 0
162.732 37.7521 0
166.841 40.6015 0
158.957 33.0442 0
162.458 36.6141 0
122.99 30.564 0
120.698 35.0078 0
207.288 6.9948 0
205.072 2.51316 0
182.037 7.8828 0
184.809 12.0437 0
429.13 40.3185 0
429.3 45.3156 0
491.287 22.7214 0
492.164 17.799 0
324.857 33.365 0
323.545 38.1899 0
41.3961 34.3289 0
43.7172 29.9002 0
346.713 30.9782 0
351.457 29.3993 0
462.919 47.3802 0
463.239 52.37 0
357.426 39.641 0
352.689 41.2397 0
489.377 50.1437 0
485.025 47.6823 0
415.012 41.1696 0
417.06 36.6086 0
307.514 4.21609 0
302.912 2.26242 0
178.653 13.4264 0
175.094 16.938 0
86.4441 20.1022 0
87.8568 24.8985 0
294.93 19.157 0
289.984 19.8842 0
470.971 4.37927 0
475.302 1.88118 0
181.464 10.4711 0
181.657 15.4674 0
354.419 28.153 0
356.083 32.8678 0
38.7073 3.88457 0
35.2623 7.50837 0
239.419 45.5135 0
243.766 43.0432 0
3.1549 44.8869 0
4.93742 49.5584 0
158.092 17.9952 0
158.278 22.9917 0
394.351 9.69407 0
398.958 7.75065 0
294.178 13.1513 0
293.59 18.1167 0
323.525 53.687 0
320.648 49.5976 0
24.0929 11.1379 0
22.6929 15.9378 0
27.9265 40.2056 0
27.9893 35.206 0
114.145 57.0055 0
109.386 58.5407 0
474.983 39.9845 0
479.721 41.5815 0
273.922 16.0259 0
271.741 11.5269 0
331.689 46.8115 0
335.249 50.3225 0
188.684 19.9969 0
189.037 15.0094 0
307.435 39.8859 0
310.174 35.7031 0
466.456 31.4749 0
462.825 28.0368 0
273.962 16.159 0
269.636 13.6527 0
454.51 16.2892 0
457.261 20.4643 0
99.873 49.308 0
96.955 53.3682 0
334.855 37.323 0
337.806 33.2868 0
160.032 56.8855 0
161.965 52.2743 0
208.388 47.6211 0
208.879 52.5969 0
107.427 41.6397 0
105.389 46.2054 0
480.902 50.2526 0
476.093 48.887 0
143.982 8.64756 0
139.362 10.5592 0
239.285 35.1786 0
238.297 40.0801 0
35.3042 50.1838 0
34.3758 45.2708 0
243.135 21.9898 0
247.444 24.5258 0
324.927 3.9086 0
320.941 0.888833 0
130.657 54.5901 0
125.673 54.1979 0
371.583 9.72688 0
370.087 4.95578 0
285.445 3.68798 0
289.103 0.279196 0
212.188 13.4555 0
217.155 14.0294 0
432.638 37.4585 0
427.643 37.2283 0
218.192 25.0673 0
222.835 23.2126 0
298.122 49.8139 0
302.329 52.5166 0
75.5274 45.8096 0
70.7948 47.4228 0
304.067 10.6426 0
308.981 11.567 0
240.372 8.00524 0
241.214 12.9338 0
232.526 39.7146 0
236.481 42.7737 0
107.416 55.6609 0
111.742 58.1681 0
251.827 8.04133 0
246.83 7.86629 0
343.928 17.8077 0
339.325 19.7587 0
407.737 39.5392 0
409.613 34.9044 0
104.209 53.019 0
100.438 49.7355 0
391.662 39.0987 0
390.18 34.3231 0
481.825 38.5337 0
476.84 38.1479 0
365.981 16.4333 0
362.064 13.3257 0
452.18 11.4783 0
451.036 6.61094 0
463.625 19.1949 0
461.529 14.6553 0
96.1511 42.1003 0
93.5552 37.8269 0
311.945 22.1758 0
307.743 19.4663 0
284.466 25.427 0
280.213 22.7987 0
266.556 25.8025 0
266.936 20.817 0
319.028 10.9955 0
317.182 15.6422 0
384.712 20.015 0
380.239 17.782 0
134.359 32.7436 0
135.13 37.6837 0
276.899 30.7792 0
277.787 35.6996 0
31.5677 23.9112 0
36.5577 24.2261 0
209.6 21.0364 0
204.61 20.7258 0
429.023 27.9273 0
431.11 23.3837 0
315.258 6.89219 0
317.21 11.4954 0
201.302 17.6188 0
204.684 13.9362 0
265.419 23.1941 0
269.535 20.3561 0
443.295 46.266 0
448.106 44.9033 0
143.037 31.3806 0
145.28 35.8495 0
20.1862 21.5469 0
18.797 16.7438 0
497.961 45.9319 0
496.274 50.6386 0
70.6913 8.40724 0
68.2117 4.06539 0
104.434 45.9321 0
106.455 41.3587 0
89.1136 47.1459 0
85.9562 43.269 0
175.938 21.5462 0
172.892 17.5812 0
356.615 5.92274 0
361.611 6.11477 0
438.228 10.4441 0
436.641 15.1853 0
93.095 54.3465 0
88.1944 53.3544 0
28.2329 4.51257 0
23.378 3.31692 0
25.4285 44.6085 0
29.4716 47.5501 0
339.114 35.6831 0
335.43 32.3024 0
127.112 21.0472 0
126.493 26.0087 0
325.65 29.6874 0
324.546 34.5639 0
181.941 28.677 0
186.38 26.3745 0
168.761 39.6324 0
172.158 35.9637 0
86.8148 39.4818 0
90.2934 35.8902 0
443.607 17.6065 0
439.44 14.8428 0
146.539 25.5456 0
147.517 20.6422 0
365.223 53.3848 0
368.845 56.8315 0
335.676 49.0786 0
333.095 53.3609 0
71.2221 38.6521 0
73.3772 34.1404 0
306.819 2.38536 0
311.634 3.73285 0
25.9856 57.9543 0
27.7743 53.2852 0
60.0802 11.8144 0
65.0552 11.3159 0
363.867 32.3913 0
368.867 32.3827 0
116.267 7.07257 0
121.098 5.78172 0
378.441 25.6791 0
383.419 25.2093 0
267.236 32.5915 0
263.675 29.081 0
279.843 42.0186 0
279.983 47.0167 0
139.349 8.09528 0
137.782 12.8432 0
72.719 41.5943 0
68.9699 38.2861 0
239.481 19.6852 0
234.531 18.9829 0
459.326 29.2002 0
459.79 24.2218 0
477.518 24.4591 0
476.501 19.5636 0
378.175 7.53096 0
374.108 4.62288 0
284.149 10.1624 0
287.518 13.8561 0
382.032 29.0892 0
377.88 31.8749 0
127.647 27.8051 0
124.26 24.1272 0
401.996 52.9858 0
400.405 57.7263 0
221.828 30.9272 0
224.79 34.9554 0
153.242 30.3556 0
151.762 35.1316 0
49.271 30.2457 0
50.095 25.314 0
87.5271 42.0326 0
86.4096 37.1591 0
170.67 6.97397 0
166.037 5.09365 0
155.869 45.9977 0
159.917 48.932 0
230.274 10.3762 0
232.774 14.7061 0
325.061 26.7419 0
326.445 31.5464 0
399.289 46.3469 0
401.835 42.0435 0
56.7244 37.5469 0
59.783 33.5915 0
130.528 53.8586 0
129.388 58.7269 0
224.109 23.6883 0
226.332 19.2098 0
63.9693 7.97695 0
61.7855 3.47905 0
447.113 41.1016 0
444.541 45.3898 0
229.224 8.24272 0
232.003 12.3988 0
485.396 18.0015 0
480.426 17.4533 0
219.336 29.9022 0
216.366 33.9241 0
254.44 21.5431 0
252.805 16.8181 0
172.445 35.7772 0
170.597 40.4233 0
483.181 5.0757 0
487.794 7.00536 0
354.845 2.55479 0
359.468 0.650975 0
409.387 24.8139 0
409.446 19.8142 0
153.33 3.65042 0
153.935 8.61363 0
191.938 57.7579 0
196.516 59.7685 0
440.376 39.5862 0
436.826 43.1072 0
198.487 51.3809 0
197.949 56.3519 0
168.937 24.5845 0
169.861 19.6706 0
179.276 39.5159 0
179.346 44.5154 0
275.206 5.51503 0
278.381 1.65259 0
34.3233 15.133 0
29.8859 12.8289 0
462.976 23.507 0
457.983 23.2343 0
99.253 9.85458 0
98.4431 14.7886 0
354.565 4.05836 0
350.654 7.17372 0
342.097 26.8944 0
337.347 25.3331 0
73.2314 3.97931 0
71.6455 8.72116 0
252.604 37.542 0
257.573 36.9858 0
128.832 42.6171 0
124.218 44.5438 0
118.289 55.6843 0
119.873 50.942 0
25.1704 28.2486 0
23.7092 23.4669 0
414.978 48.4688 0
411.289 51.8432 0
110.889 13.1755 0
110.689 18.1715 0
385.076 51.9446 0
389.923 53.1716 0
24.4412 3.85879 0
29.4078 4.43543 0
47.9278 38.0504 0
52.9251 38.2152 0
336.78 44.9509 0
331.788 45.2384 0
409.956 32.9668 0
410.266 37.9572 0
181.655 51.3908 0
185.428 54.6717 0
231.171 51.3563 0
230.439 56.3023 0
475.483 38.3806 0
471.244 41.0308 0
228.653 38.6972 0
228.684 43.6971 0
20.8845 46.3587 0
22.75 41.7197 0
61.2909 13.8117 0
65.0894 17.0631 0
56.3354 23.7414 0
56.3496 18.7414 0
483.34 26.3357 0
478.816 28.465 0
18.0509 20.4534 0
22.8164 18.9402 0
206.823 20.3883 0
207.458 15.4287 0
367.201 15.6903 0
363.588 12.2339 0
166.464 22.249 0
171.46 22.0514 0
388.747 55.8361 0
386.944 51.1726 0
305.213 58.969 0
300.252 59.5996 0
157.411 45.7578 0
161.095 42.3768 0
97.4366 9.3008 0
95.3148 13.8283 0
375.941 42.8014 0
370.947 42.563 0
26.5051 59.7731 0
21.6346 58.6428 0
304.065 45.3943 0
303.886 40.3975 0
407.202 15.2197 0
407.62 10.2372 0
203.641 47.832 0
208.107 45.5836 0
276.311 17.1992 0
279.209 21.2737 0
433.992 36.679 0
432.83 41.5423 0
93.5729 1.74403 0
93.5468 6.74397 0
255.448 41.1444 0
254.209 45.9884 0
179.801 52.355 0
177.397 47.9709 0
362.32 8.35884 0
359.452 12.4548 0
417.569 31.0708 0
421.615 28.1329 0
198.565 17.8817 0
194.623 20.9584 0
290.008 40.813 0
289.016 45.7135 0
28.5348 56.3152 0
33.3691 55.0387 0
262.636 13.8412 0
266.089 10.225 0
67.9516 3.17035 0
72.0822 0.352873 0
362.142 11.1239 0
361.586 16.0928 0
349.978 52.481 0
344.999 52.0223 0
164.299 40.558 0
161.128 36.6924 0
484.323 47.0206 0
488.53 49.723 0
149.489 49.044 0
145.002 51.2503 0
325.462 13.9034 0
325.735 8.91093 0
265.323 37.7153 0
263.767 32.9635 0
313.242 16.8729 0
317.787 18.9573 0
343.456 25.3325 0
348.444 24.981 0
445.386 46.2612 0
440.387 46.169 0
222.651 30.0061 0
226.085 33.6404 0
473.53 25.6027 0
471.277 21.139 0
367.956 42.5075 0
371 46.4747 0
110.877 2.83032 0
113.72 6.94343 0
432.9 29.9855 0
433.411 25.0116 0
39.5981 53.4534 0
42.9892 49.779 0
377.926 14.8604 0
373.121 13.4797 0
31.0277 40.5718 0
36.0271 40.6508 0
127.331 53.6385 0
126.602 58.585 0
379.309 30.6037 0
383.994 32.3494 0
100.321 53.5631 0
95.3551 54.1463 0
449.269 36.6987 0
448.858 41.6818 0
77.9092 12.9396 0
78.4989 7.97452 0
99.1702 46.0134 0
103.814 44.1607 0
139.733 8.65298 0
144.686 7.97296 0
234.819 37.1285 0
239.699 36.0368 0
492.927 51.2934 0
497.927 51.3368 0
113.973 35.4249 0
109.032 36.187 0
424.893 29.2711 0
421.204 32.6466 0
331.743 57.3491 0
327.017 55.717 0
496.792 45.5801 0
497.652 50.5056 0
9.2684 50.1858 0
8.75327 55.1592 0
114.251 23.5291 0
118.163 26.6432 0
318.158 19.3854 0
316.781 24.1922 0
46.2842 18.3132 0
47.1433 13.3875 0
480.273 26.7787 0
477.139 30.6752 0
476.983 9.18084 0
474.719 13.6389 0
51.311 5.54978 0
48.209 1.62835 0
223.481 22.084 0
219.079 19.713 0
95.0697 45.0837 0
99.5324 42.8289 0
380.426 21.7182 0
376 24.0449 0
161.635 2.45732 0
157.046 4.44297 0
213.321 14.6808 0
218.3 15.1367 0
113.451 17.0117 0
111.683 21.6887 0
70.2282 14.3229 0
71.9964 18.9998 0
470.394 31.3658 0
468.067 35.7916 0
245.643 41.0338 0
250.412 39.5327 0
321.248 16.5369 0
320.117 11.6664 0
466.179 11.0512 0
464.849 15.8709 0
36.0936 50.4787 0
31.25 49.2382 0
274.345 25.0049 0
274.059 20.0131 0
491.777 38.042 0
491.413 33.0552 0
233.338 47.5099 0
237.574 50.1673 0
63.5507 21.4159 0
63.717 26.4132 0
408.314 21.7121 0
408.07 16.7181 0
69.2803 47.9872 0
69.8148 43.0159 0
23.0082 50.8822 0
27.8775 49.7464 0
437.384 42.0082 0
434.283 45.9305 0
128.003 38.6816 0
125.1 42.7527 0
450.716 50.2845 0
453.463 54.4626 0
367.327 42.1178 0
368.261 47.0297 0
471.479 44.8687 0
476.451 44.3399 0
3.78756 30.6552 0
0.723394 26.7041 0
148.331 14.9223 0
143.406 15.7876 0
351.655 27.3134 0
356.148 25.1198 0
212.934 33.6212 0
210.543 38.0129 0
32.7007 53.7384 0
35.744 57.7056 0
465.478 57.9495 0
460.868 56.013 0
36.5933 36.5402 0
38.2341 41.2633 0
118.399 10.7505 0
115.449 6.71345 0
450.858 8.08643 0
446.274 10.0818 0
181.11 37.1598 0
178.038 33.2144 0
17.2752 37.0555 0
17.9884 32.1067 0
138.22 28.3227 0
140.176 32.9245 0
460.427 47.047 0
458.154 51.5003 0
258.335 14.1729 0
259.481 9.30597 0
361.184 4.50502 0
366.011 3.1999 0
348.38 1.91536 0
348.881 6.89026 0
239.009 45.0629 0
236.715 49.5055 0
184.78 24.7821 0
183.036 20.096 0
130.232 56.9925 0
125.256 57.4789 0
90.8829 24.2302 0
86.17 25.9 0
16.9273 59.948 0
19.4454 55.6284 0
174.256 36.8058 0
174.064 41.8021 0
171.288 4.00428 0
169.176 8.53646 0
485.007 47.7628 0
489.996 48.1018 0
237.313 58.4851 0
236.1 53.6345 0
303.812 48.5147 0
298.908 49.4912 0
153.675 52.5503 0
150.086 56.0324 0
414.182 17.2847 0
409.503 19.0475 0
72.7683 1.00643 0
76.2259 4.61826 0
131.78 16.1001 0
136.281 18.2782 0
230.507 50.6664 0
225.51 50.8362 0
114.754 55.0218 0
109.801 54.3349 0
120.992 3.19711 0
125.904 4.12787 0
103.073 16.8314 0
107.827 18.3803 0
499.432 5.88698 0
497.268 1.37964 0
337.847 50.5225 0
337.504 55.5108 0
439.171 45.8736 0
436.757 41.4947 0
464.553 34.4013 0
466.252 29.6988 0
484.627 6.45929 0
489.324 4.74541 0
325.714 9.67653 0
330.361 7.83051 0
138.256 39.3759 0
136.334 43.9916 0
234.646 19.2905 0
237.937 15.5265 0
460.931 15.5976 0
457.217 18.9451 0
232.506 29.3105 0
237.504 29.4152 0
231.78 51.7817 0
236.286 49.6136 0
184.155 44.0645 0
185.405 39.2232 0
107.888 43.5266 0
112.793 44.4995 0
152.78 31.8384 0
150.891 36.4677 0
449.829 24.4675 0
445.952 27.6246 0
332.119 48.8388 0
336.073 45.7795 0
22.4115 29.9361 0
17.8938 32.0786 0
329.905 41.7604 0
331.781 37.1256 0
272.864 44.0733 0
277.831 44.6413 0
81.1565 48.5843 0
76.1807 49.0755 0
8.57188 9.11381 0
4.66861 12.2386 0
245.206 31.3175 0
245.846 26.3586 0
364.12 57.0519 0
361.934 52.5554 0
137.441 40.3662 0
140.219 36.2088 0
375.93 28.0377 0
380.93 27.9944 0
485.748 17.9571 0
489.518 21.2415 0
126.809 27.4071 0
124.916 32.0348 0
109.293 53.0511 0
109.211 58.0504 0
100.53 4.95704 0
103.408 9.04624 0
246.111 50.5131 0
242.582 46.9711 0
458.511 38.691 0
453.696 37.3423 0
335.595 57.4366 0
331.542 54.5078 0
243.244 50.4241 0
238.952 52.9879 0
107.334 54.4153 0
102.494 53.1598 0
215.268 49.6381 0
212.429 53.7539 0
67.1071 30.3061 0
70.89 27.0366 0
259.145 13.7424 0
258.601 18.7127 0
322.644 30.2723 0
319.113 26.7318 0
90.2013 17.0954 0
85.5113 18.8287 0
1.80631 7.65866 0
0.713704 12.5378 0
321.864 4.17738 0
325.625 7.47192 0
164.416 11.1492 0
161.57 15.2605 0
413.397 38.5584 0
417.556 41.3343 0
219.795 23.5153 0
224.575 22.0507 0
128.833 30.2742 0
126.057 26.1155 0
137.855 59.827 0
142.814 59.1889 0
124.392 57.1603 0
129.274 56.08 0
341.307 38.6536 0
343.75 34.2908 0
48.973 50.5909 0
49.2608 55.5826 0
225.684 51.8453 0
226.06 46.8594 0
97.0904 5.1555 0
92.1811 6.10376 0
244.816 22.6276 0
239.983 21.3432 0
67.5058 12.022 0
71.881 9.60172 0
335.354 16.0706 0
339.548 13.3472 0
123.793 35.7205 0
122.818 30.8164 0
390.36 50.8157 0
389.657 45.8654 0
180.65 37.1617 0
185.521 36.0335 0
328.292 31.5685 0
324.593 28.2045 0
123.037 16.7728 0
127.754 18.432 0
300.818 9.56118 0
301.249 14.5426 0
372.438 40.432 0
377.252 39.0817 0
387.377 40.3928 0
386.9 35.4155 0
418.344 15.4669 0
417.668 20.421 0
77.5567 13.2359 0
73.4055 10.4488 0
19.4137 54.739 0
22.0251 59.0029 0
242.853 31.5782 0
237.986 30.4355 0
221.913 45.8207 0
217.094 44.4862 0
36.4713 16.2727 0
40.6371 19.0379 0
439.007 50.9184 0
442.639 54.3548 0
347.57 24.7399 0
345.582 20.1522 0
478.214 4.90057 0
481.353 8.7925 0
275.295 8.68722 0
271.486 11.9254 0
26.216 11.7057 0
28.4486 7.23185 0
230.044 22.1488 0
230.215 27.1459 0
17.9383 43.9634 0
21.2975 40.2599 0
457.484 30.8986 0
452.882 28.9451 0
401.482 55.2104 0
406.336 56.4116 0
129.572 53.5025 0
133.437 56.6745 0
71.9324 18.2548 0
75.9276 15.2483 0
398.13 44.5747 0
402.07 41.4967 0
463.319 28.3287 0
465.656 32.7489 0
413.594 20.1376 0
417.668 17.2391 0
408.58 23.0765 0
413.378 21.6707 0
368.905 4.61811 0
366.401 0.289981 0
305.125 43.2813 0
305.971 48.2093 0
307.078 16.614 0
311.807 14.9902 0
314.955 47.568 0
310.234 49.2137 0
270.091 18.5055 0
266.221 21.6706 0
266.794 18.6288 0
263.209 22.1133 0
88.8748 42.6115 0
84.0641 41.2488 0
240.041 12.7032 0
241.652 7.96968 0
363.501 23.7152 0
361.198 28.1533 0
155.525 44.4246 0
152.344 40.567 0
441.968 50.1609 0
444.288 54.5896 0
26.6484 35.1628 0
31.0322 32.7582 0
62.5597 22.8589 0
67.5362 22.3751 0
192.99 2.88862 0
190.86 7.41228 0
194.697 9.16052 0
198.049 5.45009 0
98.4252 50.4714 0
98.1032 55.461 0
348.596 53.7146 0
348.591 48.7146 0
223.834 56.4736 0
218.894 57.2443 0
412.482 22.7229 0
415.814 26.4505 0
464.156 22.4066 0
459.816 19.9223 0
326.132 44.3245 0
321.165 44.8993 0
127.81 21.6841 0
132.743 22.4978 0
222.237 29.6843 0
221.997 24.6901 0
451.607 40.9985 0
456.03 43.3306 0
317.349 14.9631 0
313.752 18.436 0
210.436 33.5265 0
207.769 37.7558 0
17.2822 2.37686 0
12.2898 2.65146 0
360.065 30.4462 0
362.284 25.9655 0
339.534 35.5812 0
344.522 35.9222 0
164.377 25.9042 0
167.873 29.4788 0
348.046 39.7686 0
351.661 36.3142 0
449.426 46.8906 0
454.375 47.6021 0
250.512 52.5603 0
246.81 55.9215 0
396.036 55.7516 0
400.782 54.1774 0
325.911 34.6545 0
330.89 34.1901 0
326.461 42.9076 0
326.651 37.9112 0
341.822 45.7806 0
337.27 47.8497 0
181.028 13.858 0
176.707 11.3428 0
339.069 38.54 0
334.152 37.6312 0
180.379 32.4954 0
176.305 35.3939 0
424.806 59.5543 0
428.524 56.2105 0
178.253 27.5079 0
178.945 22.5559 0
313.242 41.6822 0
316.917 45.0732 0
80.6859 52.5596 0
83.7092 48.5771 0
253.4 49.5238 0
256.942 45.9945 0
206.358 4.88199 0
206.991 9.84177 0
410.865 12.1168 0
413.824 8.08649 0
453.747 47.5011 0
448.775 46.9707 0
267.043 12.8923 0
265.479 17.6412 0
273.353 50.1501 0
275.757 54.5338 0
223.722 52.5344 0
221.106 48.2734 0
437.092 38.497 0
432.58 36.3428 0
439.178 14.2914 0
436.18 18.293 0
258.788 50.9397 0
263.258 53.1802 0
406.554 1.76302 0
402.481 4.66337 0
268.522 14.7687 0
273.114 16.7479 0
117.726 20.6386 0
115.326 16.2524 0
277.229 51.748 0
277.727 56.7232 0
396.48 49.4601 0
393.071 53.1175 0
146.256 14.4178 0
147.725 19.1973 0
58.7187 37.112 0
61.8933 33.2491 0
89.2849 48.7573 0
93.4068 45.9272 0
25.246 14.3777 0
30.2271 13.9426 0
79.4722 35.9568 0
75.4089 38.8704 0
49.4975 28.227 0
52.964 24.6238 0
25.2671 42.4905 0
20.3532 41.5667 0
212.122 7.88142 0
207.463 9.69673 0
48.0853 12.1878 0
49.5039 16.9823 0
373.027 25.1749 0
377.966 24.3995 0
194.827 10.9086 0
199.827 10.9207 0
64.4464 57.5036 0
68.7889 59.982 0
377.487 22.1372 0
374.871 17.8758 0
29.2441 49.1628 0
29.4644 44.1676 0
8.14299 12.1902 0
11.7914 8.77134 0
283.997 16.7151 0
288.986 17.0445 0
21.7412 40.8741 0
18.9875 45.0475 0
396.724 45.9833 0
396.018 50.9332 0
295.23 15.8679 0
290.477 17.4199 0
9.8899 38.2936 0
13.6754 35.0271 0
424.063 13.4477 0
424.641 18.4142 0
286.552 21.3412 0
282.23 18.8274 0
446.855 21.5051 0
448.168 16.6805 0
157.977 14.1988 0
157.575 9.21498 0
490.909 27.804 0
486.013 26.79 0
219.865 48.3105 0
214.905 47.6774 0
52.2863 53.6314 0
47.3094 53.1516 0
50.9917 40.5195 0
55.1297 43.3262 0
498.488 6.10417 0
496.689 10.769 0
480.323 14.5246 0
480.7 9.53888 0
379.177 38.9058 0
379.231 33.9061 0
246.218 52.5352 0
246.584 47.5486 0
417.672 22.0255 0
420.503 17.9046 0
424.085 38.0722 0
423.642 43.0526 0
269.316 33.9947 0
269.354 28.9949 0
487.289 23.8742 0
492.204 24.7945 0
426.066 50.3164 0
424.751 45.4923 0
370.326 49.1913 0
367.912 44.8129 0
427.462 33.5396 0
422.465 33.7134 0
453.019 38.9953 0
448.149 40.1287 0
159.316 53.7125 0
154.985 51.2156 0
147.411 28.1708 0
145.599 23.5109 0
137.379 23.0255 0
133.143 25.6807 0
312.996 39.5055 0
311.193 34.842 0
483.511 9.08316 0
478.926 7.08786 0
60.7561 37.6305 0
56.8017 34.5706 0
297.189 56.8348 0
292.853 59.3245 0
299.337 47.8693 0
298.404 52.7814 0
190.728 18.0758 0
195.686 17.426 0
321.14 16.4672 0
318.704 20.834 0
494.266 22.4524 0
496.368 26.9893 0
115.813 0.720425 0
115.126 5.67301 0
324.453 27.7861 0
328.41 24.7306 0
487.849 17.6729 0
492.204 15.2156 0
232.348 5.41483 0
227.648 3.71007 0
216.518 14.7647 0
218.62 10.2283 0
296.387 11.9713 0
292.052 9.47908 0
303.55 47.9089 0
307.707 45.1305 0
326.363 32.5605 0
321.674 34.2971 0
483.11 6.88169 0
485.666 11.179 0
219.348 5.988 0
223.767 3.64855 0
436.69 10.2561 0
438.611 5.63986 0
235.166 59.6039 0
232.375 55.4555 0
209.27 18.8677 0
206.244 14.8872 0
91.2883 44.2355 0
90.0742 49.0858 0
168.236 28.5808 0
171.78 32.1087 0
346.739 40.1516 0
351.331 38.1741 0
4.62754 32.2128 0
8.7154 35.0919 0
388.252 43.7577 0
383.263 43.4263 0
185.904 54.8552 0
180.914 54.5478 0
160.733 45.6856 0
164.151 49.3349 0
62.5086 29.4801 0
67.5078 29.3876 0
352.459 47.442 0
349.318 51.3317 0
125.677 56.6521 0
127.1 51.8588 0
163.561 30.6336 0
159.345 27.945 0
141.972 39.9905 0
146.914 39.2293 0
347.755 55.5183 0
344.014 58.8359 0
25.6763 50.9879 0
29.0433 47.2915 0
365.413 21.0248 0
369.215 24.2713 0
72.5521 24.9252 0
77.1806 23.0339 0
37.3623 25.0061 0
34.2215 28.8965 0
151.57 48.1276 0
156.482 47.1965 0
435.769 53.6735 0
433.639 49.1498 0
257.679 19.2026 0
252.682 19.3599 0
244.328 25.3648 0
249.308 24.9229 0
299.774 46.7545 0
302.212 42.3891 0
99.9638 58.8454 0
104.003 55.8989 0
48.4381 11.2959 0
44.3978 8.35043 0
248.804 23.0117 0
253.785 22.5784 0
321.862 13.2506 0
325.763 10.1221 0
36.6345 25.256 0
37.9962 20.4449 0
127.305 32.4942 0
129.947 36.7387 0
489.313 7.58474 0
485.786 11.1294 0
367.07 19.7759 0
363.143 22.8705 0
83.8001 52.2564 0
85.8705 56.8076 0
73.2014 44.5611 0
69.7705 48.1983 0
60.7986 39.299 0
65.788 39.6243 0
125.562 2.87447 0
129.11 6.39801 0
374.434 16.286 0
378.601 19.0481 0
388.036 30.6515 0
390.209 26.1482 0
461.016 11.6476 0
465.53 13.7982 0
364.763 7.78139 0
368.486 4.44347 0
456.357 1.22419 0
451.978 3.63756 0
348.631 44.6524 0
353.574 45.411 0
356.896 27.0342 0
354.656 22.5639 0
439.449 0.259101 0
436.304 4.14616 0
10.0275 14.4412 0
7.63501 18.8317 0
202.734 3.84253 0
198.822 0.729398 0
71.224 30.3469 0
76.1146 31.387 0
217.051 53.6943 0
212.121 52.8593 0
92.8769 6.9269 0
96.6625 3.66049 0
222.705 41.2117 0
223.721 36.316 0
67.8202 53.0209 0
67.3061 48.0474 0
405.63 56.7337 0
410.368 58.3284 0
105.889 13.7587 0
101.943 16.8288 0
77.5125 29.0418 0
72.5665 29.7748 0
42.528 27.9055 0
47.4626 27.0996 0
369.152 48.8563 0
369.83 53.81 0
156.311 47.5104 0
156.514 52.5062 0
20.9265 21.4928 0
22.5609 16.7674 0
350.26 44.3827 0
355.048 45.8227 0
73.2207 15.5738 0
72.6555 20.5417 0
248.407 8.1635 0
245.232 4.30097 0
68.9766 37.6137 0
69.7202 32.6693 0
484.379 12.5169 0
479.479 13.5107 0
447.047 9.79484 0
447.433 4.80983 0
190.879 37.0579 0
192.239 41.8693 0
223.366 32.0491 0
218.628 30.4503 0
386.451 2.8251 0
385.555 7.74419 0
177.062 19.6587 0
177.993 24.5714 0
177.875 16.13 0
178.969 21.0088 0
387.137 47.5636 0
391.767 45.6778 0
123.259 59.455 0
128.19 58.6266 0
377.254 52.5967 0
374.184 48.6506 0
218.929 40.6374 0
214.653 38.0452 0
411.694 7.08693 0
416.52 5.77914 0
258.923 32.9415 0
263.394 35.1792 0
114.799 0.636154 0
119.184 3.03884 0
298.031 52.764 0
294.307 56.0996 0
299.141 50.1744 0
295.086 47.2494 0
461.47 6.78003 0
466.454 6.38281 0
182.832 35.6704 0
182.135 40.6217 0
240.027 43.5524 0
238.773 38.7122 0
58.9346 48.9647 0
55.1272 52.2056 0
240.316 42.4057 0
242.459 46.9231 0
18.2925 5.99335 0
19.8744 10.7365 0
232.38 25.951 0
227.859 23.8167 0
185.187 20.6985 0
188.993 17.4563 0
378.07 33.7093 0
380.351 38.1585 0
471.164 25.803 0
467.978 21.95 0
63.8017 54.045 0
63.108 58.9966 0
179.188 19.3485 0
182.105 15.287 0
175.807 13.3739 0
178.621 9.24057 0
153.283 50.4719 0
155.136 55.1159 0
308.369 42.9772 0
312.335 46.0229 0
155.746 15.1865 0
158.495 11.0096 0
199.782 3.7836 0
198.425 8.59598 0
325.348 9.29591 0
329.646 11.8514 0
367.698 48.7245 0
367.929 53.7192 0
272.469 10.2423 0
272.034 5.2613 0
372.144 34.835 0
372.895 39.7784 0
178.011 27.0898 0
179.091 22.208 0
166.393 49.0841 0
162.162 46.42 0
21.6174 14.812 0
17.5192 11.9476 0
150.584 34.6684 0
155.483 35.6695 0
90.8195 48.1375 0
93.7037 44.0532 0
192.597 50.2307 0
193.511 45.3151 0
283.753 39.0275 0
279.509 36.3845 0
288.46 6.67263 0
290.469 2.09381 0
56.0118 48.1852 0
51.1269 47.1187 0
204.819 7.18341 0
207.197 11.5817 0
188.759 41.0294 0
190.608 45.6753 0
153.575 0.226424 0
157.109 3.76384 0
408.69 12.5441 0
405.414 16.3219 0
348.98 32.0019 0
347.009 27.407 0
129.374 42.0862 0
124.409 42.6702 0
383.846 43.3031 0
385.833 47.8912 0
280.34 8.05417 0
284.878 5.9551 0
273.994 40.9753 0
276.858 45.074 0
413.122 7.76569 0
418.099 8.24601 0
101.102 42.1681 0
97.8246 45.9443 0
498.154 7.34579 0
494.961 3.49842 0
282.387 38.4065 0
284.235 43.0526 0
247.198 17.9018 0
250.206 13.908 0
462.721 56.5916 0
458.606 59.4312 0
63.0805 45.7061 0
62.8212 50.6994 0
43.309 30.7549 0
46.9233 27.2999 0
146.727 33.7335 0
142.54 30.9992 0
419.361 49.4323 0
423.859 47.2488 0
85.2237 26.9987 0
87.4707 31.4654 0
415.732 3.29005 0
419.178 6.91259 0
39.4834 26.0051 0
34.553 26.8363 0
452.286 40.7456 0
448.018 38.1421 0
175.555 50.3696 0
174.846 55.319 0
164.876 15.8501 0
169.537 14.0389 0
294.576 53.1038 0
291.372 49.2653 0
467.264 13.7914 0
468.722 9.00885 0
483.521 36.9351 0
483.215 41.9257 0
326.434 14.3378 0
329.801 10.6415 0
234.015 54.8755 0
236.932 50.815 0
335.589 42.8952 0
336.488 47.8137 0
249.623 18.9837 0
254.302 17.221 0
271.452 13.7511 0
268.987 18.1011 0
417.36 29.7394 0
421.717 27.2874 0
280.344 47.0945 0
277.771 51.3815 0
487.43 9.83494 0
486.42 4.93791 0
93.1231 20.0486 0
88.4348 18.3107 0
449.869 51.0721 0
447.583 55.5192 0
397.132 54.4358 0
398.163 59.3283 0
193.579 55.8097 0
198.073 53.6176 0
165.331 5.26464 0
170.111 3.79622 0
141.404 44.5307 0
137.839 48.0371 0
200.841 46.7419 0
205.486 48.5927 0
268.483 7.44106 0
264.641 4.24041 0
115.413 31.0799 0
110.611 29.6884 0
309.133 46.0332 0
304.598 48.138 0
238.539 24.4625 0
240.197 29.1794 0
403.316 18.6559 0
401.609 13.9564 0
30.0545 56.646 0
25.1032 57.342 0
416.017 58.886 0
417.635 54.1548 0
230.775 42.0593 0
234.384 38.5995 0
216.897 54.9962 0
220.462 58.5023 0
384.378 59.3404 0
379.731 57.4931 0
160.911 24.0439 0
158.455 19.6887 0
482.91 18.1481 0
485.037 22.6733 0
272.421 37.9465 0
271.026 33.1449 0
441.505 24.0118 0
445.691 26.7459 0
163.373 44.2837 0
158.54 43.0019 0
41.6414 48.044 0
36.7029 47.2623 0
140.325 38.1048 0
139.094 33.2587 0
174.514 0.519591 0
170.505 3.50699 0
448.712 42.9496 0
447.014 38.2468 0
246.149 27.0691 0
248.625 22.7255 0
339.64 25.0352 0
340.097 20.0561 0
443.676 33.2141 0
447.633 30.1576 0
458.38 7.51038 0
453.393 7.15012 0
112.748 55.6629 0
115.75 51.6649 0
334.051 47.9087 0
336.458 43.5265 0
113.886 20.9055 0
118.886 20.9262 0
4.89096 3.37088 0
9.35428 5.62448 0
86.5643 47.6683 0
83.6703 43.591 0
79.3662 24.2257 0
75.3773 21.2111 0
313.366 14.4662 0
316.432 18.4159 0
215.943 15.3257 0
214.303 10.602 0
485.911 16.772 0
489.965 19.6988 0
407.393 40.0261 0
412.237 41.2639 0
63.1971 55.6872 0
58.2769 54.7975 0
199.005 55.6459 0
194.53 53.4141 0
146.876 58.1177 0
147.365 53.1417 0
435.424 29.7034 0
434.751 34.6578 0
329.206 10.2183 0
329.604 15.2025 0
147.121 8.97595 0
143.309 12.2121 0
427.417 7.38627 0
432.415 7.51682 0
25.6392 43.4855 0
22.9695 47.713 0
271.161 54.9853 0
266.241 54.0967 0
118.218 12.787 0
118.652 7.80581 0
331.585 10.574 0
330.405 15.4328 0
401.414 16.4512 0
401.306 11.4524 0
371.401 13.1574 0
366.521 14.2441 0
249.112 13.5686 0
247.692 8.77456 0
83.4342 50.1944 0
81.5068 54.808 0
237.004 40.191 0
232.082 39.3142 0
186.721 33.0685 0
189.121 37.4547 0
53.205 13.7555 0
49.6178 17.2386 0
68.2384 5.8017 0
72.9737 4.19632 0
467.104 47.871 0
471.825 46.2257 0
175.79 11.1107 0
173.753 6.54454 0
480.151 54.4156 0
484.42 51.8135 0
255.227 40.1267 0
260.223 39.9191 0
294.607 17.0326 0
292.624 21.6227 0
188.449 20.1413 0
185.332 24.0506 0
312.827 13.8853 0
316.927 16.7477 0
146.217 53.9404 0
150.249 56.8975 0
329.849 10.3194 0
326.213 6.88646 0
350.647 24.6212 0
346.836 21.3847 0
162.897 47.8613 0
166.653 51.1615 0
224.832 7.06069 0
223.442 11.8637 0
198.686 46.731 0
194.57 49.5698 0
140.518 18.0303 0
144.31 14.7723 0
449.933 29.1753 0
452.27 24.7553 0
382.054 55.0502 0
386.856 53.657 0
453.143 50.0731 0
452.484 45.1168 0
280.465 55.6852 0
280.079 50.7001 0
72.9793 18.0199 0
76.2672 21.7869 0
154.883 41.1304 0
153.47 36.3342 0
347.298 22.0941 0
351.891 20.1166 0
192.863 0.550325 0
193.298 5.53136 0
56.5744 11.8541 0
51.7176 13.0423 0
171.039 25.0616 0
176.013 24.5529 0
75.8619 14.2374 0
71.2845 16.2491 0
45.1038 41.0409 0
40.5698 43.1486 0
435.775 11.3941 0
438.803 7.41498 0
462.118 2.75557 0
457.765 0.294776 0
364.37 7.23808 0
361.786 2.95769 0
38.9727 34.0636 0
41.6655 29.8507 0
84.3006 26.5057 0
89.3006 26.494 0
229.415 17.4431 0
224.483 18.2655 0
141.858 5.78282 0
138.695 1.91033 0
473.685 19.4087 0
478.657 19.94 0
142.883 46.4284 0
142.934 41.4287 0
363.37 18.1899 0
364.247 23.1124 0
243.46 25.5477 0
239.006 27.8194 0
144.182 15.6213 0
145.702 20.3848 0
449.286 26.5588 0
451.954 30.7878 0
244.229 58.0037 0
247.541 54.2584 0
116.654 9.90738 0
114.592 5.35249 0
229.025 52.4907 0
224.026 52.5903 0
342.676 24.8654 0
347.381 26.5587 0
159.038 41.0911 0
163.604 39.0546 0
421.559 53.7874 0
417.643 50.679 0
450.309 46.6244 0
449.258 51.5128 0
493.516 6.12569 0
492.306 1.2745 0
294.346 6.97516 0
296.4 2.41661 0
332.099 44.0131 0
337.043 44.7594 0
228.226 27.3404 0
230.55 31.7671 0
448.478 51.5807 0
453.413 50.7779 0
327.556 8.5869 0
330.654 12.5115 0
172.559 22.1924 0
175.759 18.3505 0
45.8256 36.5769 0
40.844 37.0056 0
409.39 15.5163 0
406.759 19.7686 0
6.92371 38.8438 0
1.98111 39.5992 0
127.413 35.4554 0
125.665 40.1397 0
387.464 49.8908 0
392.197 51.5038 0
64.4291 26.2663 0
65.1145 21.3135 0
89.3517 44.8472 0
89.7897 39.8665 0
275.175 27.0202 0
279.09 23.9104 0
320.847 33.1639 0
321.615 38.1045 0
325.497 42.0359 0
320.572 42.902 0
393.82 49.8549 0
393.344 54.8322 0
49.5289 22.83 0
45.8899 26.2589 0
366.285 53.5356 0
361.471 52.1829 0
129.496 21.3876 0
134.323 20.0806 0
174.883 35.43 0
170.212 37.2125 0
318.543 41.6935 0
315.808 45.8796 0
308.178 48.9195 0
312.819 47.0581 0
127.597 55.8888 0
129.799 51.3998 0
140.364 37.8194 0
143.874 41.3806 0
359.289 26.6954 0
354.45 27.9546 0
191.942 45.4267 0
196.626 43.678 0
435.658 37.6107 0
434.431 42.4578 0
47.2619 22.9096 0
45.0124 18.4442 0
174.77 46.3423 0
179.36 44.36 0
201.268 14.8197 0
200.054 19.6702 0
82.1631 41.1832 0
77.2218 41.9474 0
435.379 17.7221 0
431.047 15.2248 0
334.313 5.52538 0
338.256 8.60014 0
188.77 52.6192 0
187.449 57.4416 0
24.5029 0.988554 0
21.8303 5.21429 0
189.157 23.8203 0
192.935 20.5452 0
149.937 23.598 0
145.871 20.6876 0
147.482 27.4199 0
142.655 28.7238 0
279.348 55.7826 0
277.427 51.1662 0
139.509 8.11599 0
138.571 13.0271 0
239.507 52.0213 0
234.528 52.4819 0
291.514 8.97366 0
296.475 8.34934 0
322.478 38.0756 0
319.11 41.7708 0
55.288 38.2971 0
52.3865 42.3691 0
434.861 27.1456 0
429.938 28.0185 0
363.515 57.4289 0
367.892 59.8446 0
279.829 55.9304 0
276.302 59.4742 0
145.727 48.7107 0
145.868 43.7127 0
266.417 24.4616 0
262.651 27.7501 0
34.6011 22.7951 0
39.4618 23.9668 0
362.123 28.6692 0
364.14 33.2443 0
37.2911 35.1037 0
41.2406 32.0375 0
311.638 45.4699 0
306.643 45.2578 0
325.406 8.44509 0
330.352 7.71346 0
449.344 21.2313 0
453.934 19.2478 0
19.1264 21.4947 0
16.635 25.8297 0
220.371 46.113 0
220.721 41.1253 0
313.763 39.7005 0
316.635 35.6081 0
423.174 28.8094 0
419.341 25.5994 0
20.8303 35.282 0
22.4669 40.0065 0
133.88 29.0008 0
131.067 24.8674 0
275.862 50.9398 0
280.576 52.6064 0
458.234 12.5317 0
456.166 7.97963 0
39.7827 16.7687 0
42.8907 12.8521 0
160.983 42.7206 0
156.255 41.0926 0
235.41 56.4323 0
235.118 51.4409 0
311.524 24.0131 0
310.396 28.8841 0
325.104 29.1995 0
328.648 32.7274 0
474.607 29.9125 0
479.282 31.6862 0
331.13 19.0432 0
326.21 18.1511 0
210.715 26.3837 0
211.037 21.3941 0
186.932 16.561 0
185.256 21.2717 0
77.1364 44.6865 0
72.5059 46.5731 0
469.842 31.5371 0
474.657 30.193 0
321.52 47.9087 0
318.474 51.8731 0
225.3 52.5475 0
227.915 56.8091 0
16.859 45.5287 0
18.767 40.9071 0
410.029 23.0272 0
409.174 18.1009 0
184.73 27.3119 0
189.685 27.978 0
81.9866 50.6998 0
77.792 47.9786 0
341.033 54.4955 0
336.077 53.8306 0
103.257 52.4019 0
99.9392 48.6616 0
167.12 20.6047 0
167.349 15.6099 0
315.961 27.3206 0
314.04 31.937 0
2.89302 4.64387 0
0.160644 0.456495 0
420.791 6.88382 0
417.591 10.7256 0
54.5301 31.4366 0
51.0414 35.0183 0
11.4761 36.7017 0
16.3061 35.4091 0
325.222 21.1429 0
326.603 16.3375 0
67.8206 5.08804 0
62.872 4.37341 0
221.379 28.9587 0
224.884 32.5245 0
237.837 10.0729 0
236.738 5.19509 0
428.418 41.6146 0
423.609 40.2452 0
211.147 26.4734 0
216.134 26.1099 0
175.339 54.6642 0
175.626 49.6724 0
212.456 18.9159 0
208.91 15.3912 0
489.81 31.9243 0
493.747 35.0064 0
124.478 18.3842 0
129.397 19.2772 0
12.6281 50.4571 0
14.5802 45.8539 0
375.647 47.0696 0
375.456 42.0733 0
183.807 26.9915 0
179.72 29.8723 0
158.145 13.8933 0
158.665 8.92044 0
147.037 21.6221 0
148.911 16.9864 0
29.913 29.5813 0
33.7491 26.3744 0
241.607 38.3859 0
241.721 33.3872 0
81.6401 41.4425 0
86.4888 40.222 0
8.167 31.724 0
8.96071 36.6606 0
6.00808 31.711 0
9.21745 35.545 0
182.403 18.8777 0
186.426 21.8481 0
224.896 6.32621 0
220.233 4.52194 0
484.743 30.9847 0
489.706 31.5917 0
405.576 12.4858 0
410.563 12.1149 0
93.6351 3.17178 0
98.6258 3.47658 0
479.226 59.3447 0
474.818 56.9857 0
110.432 12.8341 0
113.198 16.9993 0
410.365 48.9044 0
410.557 43.9081 0
231.417 22.3782 0
229.598 17.7208 0
317.37 34.0077 0
321.174 37.2527 0
127.219 28.6052 0
122.312 29.565 0
269.369 13.5099 0
266.998 9.10794 0
12.4183 10.4466 0
11.6441 5.50694 0
87.7932 56.257 0
92.7412 55.5379 0
209.734 19.0102 0
214.057 21.522 0
336.108 32.2651 0
340.722 30.3403 0
213.793 31.0886 0
217.817 28.1205 0
214.877 59.0564 0
211.388 55.4753 0
410.145 22.4758 0
415.139 22.7139 0
130.194 21.9373 0
126.465 18.6064 0
450.572 2.26072 0
446.069 0.086507 0
464.616 8.8727 0
461.094 12.4221 0
361.617 11.9432 0
366.502 13.0064 0
256.804 30.8176 0
251.821 31.2294 0
42.3855 20.1998 0
45.6764 23.9642 0
37.0556 14.2676 0
36.2793 19.207 0
354.321 52.7498 0
350.292 49.7884 0
12.1037 31.7452 0
14.7634 35.9791 0
452.547 30.4882 0
455.471 34.5445 0
461.802 25.1129 0
466.127 27.6221 0
96.5712 4.72527 0
91.7556 3.38 0
48.8815 51.4701 0
51.9683 55.4035 0
63.6585 4.2456 0
60.8951 8.41254 0
138.082 21.4489 0
139.854 16.7735 0
151.33 11.382 0
152.536 16.2343 0
8.17143 19.9978 0
3.36937 21.3907 0
258.807 3.55011 0
263.621 4.90118 0
57.3931 51.2088 0
59.6458 55.6726 0
283.404 6.94149 0
287.655 4.30925 0
452.17 56.9088 0
454.591 52.534 0
56.7052 26.6611 0
61.7041 26.5542 0
312.388 56.5623 0
316.873 54.3518 0
137.644 39.0876 0
141.977 36.592 0
402.3 56.4273 0
404.879 52.1438 0
415.733 27.1073 0
412.194 23.5748 0
24.3346 3.58873 0
27.2574 7.64544 0
60.5222 42.8011 0
55.5357 42.4329 0
495.936 28.2191 0
495.354 23.2531 0
296.053 56.5928 0
297.922 51.9551 0
283.214 12.7892 0
278.53 14.5392 0
128.903 30.1185 0
125.228 33.5086 0
440.961 2.29691 0
442.238 7.13117 0
349.795 43.3515 0
354.511 41.692 0
364.365 29.5545 0
367.198 33.674 0
262.277 56.3264 0
257.785 54.1295 0
253.968 24.6186 0
258.038 21.7139 0
124.542 44.0106 0
120.815 40.6766 0
230.09 31.7291 0
235.053 31.1229 0
133.671 24.6505 0
130.685 20.6396 0
219.546 1.47448 0
214.561 1.08626 0
309.232 7.64949 0
307.386 12.2961 0
322.465 8.08351 0
319.614 12.1913 0
98.8912 48.0168 0
93.8958 47.8023 0
457.861 36.1811 0
459.976 31.6506 0
256.967 23.6655 0
251.981 24.045 0
169.194 9.02625 0
167.533 13.7424 0
354.355 51.8512 0
358.58 54.5237 0
135.486 47.0924 0
138.283 51.2371 0
343.757 21.4352 0
345.771 16.8584 0
47.2895 17.9682 0
49.2408 13.3647 0
155.945 39.3459 0
158.387 34.9828 0
116.806 46.4297 0
119.506 42.2216 0
228.346 2.22216 0
226.036 6.65637 0
18.3211 8.95383 0
22.6194 11.5083 0
173.592 34.8125 0
171.066 30.4977 0
389.923 4.95332 0
393.058 8.84849 0
52.7767 59.4326 0
48.5889 56.701 0
337.095 55.5237 0
333.243 52.3362 0
82.7473 17.4879 0
86.7745 20.4514 0
78.7281 35.7818 0
77.116 31.0488 0
290.353 12.285 0
285.36 12.5385 0
121.74 14.6562 0
117.663 17.5504 0
297.436 45.0979 0
292.473 44.4912 0
191.208 51.9586 0
193.803 56.2329 0
226.478 54.4016 0
228.067 49.6609 0
174.339 4.1951 0
179.152 5.54975 0
485.06 31.6198 0
483.105 27.018 0
306.409 18.265 0
311.315 17.2987 0
424.658 8.93436 0
419.893 10.4483 0
104.966 10.4209 0
109.882 11.3304 0
370.382 33.4809 0
374.082 30.1184 0
429.314 48.4817 0
432.592 52.2575 0
84.6838 18.8801 0
89.6834 18.9449 0
432.631 55.7454 0
429.721 59.8116 0
387.112 34.5445 0
389.757 30.3011 0
324.213 44.8043 0
320.504 41.4514 0
65.2551 4.27375 0
63.9549 9.10174 0
122.452 24.6821 0
127.443 24.9802 0
491.962 47.6179 0
488.637 51.352 0
167.33 31.0833 0
171.57 28.4323 0
357.986 39.8932 0
359.75 44.5716 0
300.028 45.3708 0
297.799 49.8462 0
271.215 12.7378 0
271.973 7.79556 0
175.104 24.8435 0
177.717 20.5807 0
380.436 9.33342 0
375.461 8.83401 0
71.6449 17.1119 0
76.3959 15.5539 0
160.032 19.0642 0
162.646 14.802 0
342.443 19.8496 0
338.471 22.8862 0
219.025 30.5933 0
224.002 31.0728 0
378.807 26.4009 0
383.713 27.3659 0
137.356 27.2418 0
134.584 23.0804 0
30.0615 51.9513 0
34.9486 50.8946 0
84.0021 48.1419 0
79.0261 48.6312 0
479.327 56.0288 0
482.59 52.2405 0
316.287 46.7747 0
319.574 50.5422 0
130.614 8.2133 0
129.31 3.38629 0
70.9352 32.2258 0
67.4126 35.7742 0
83.3253 21.5579 0
79.6953 18.1195 0
491.457 24.352 0
492.472 29.2481 0
376.466 20.9875 0
371.656 19.6229 0
184.141 27.6421 0
186.821 31.8636 0
432.104 40.05 0
428.523 36.5603 0
494.429 34.9835 0
489.582 36.2108 0
213.285 41.2934 0
210.643 37.048 0
334.878 35.7478 0
339.816 36.5298 0
314.479 15.1982 0
311.758 11.0035 0
380.722 6.6588 0
385.472 5.0971 0
341.743 45.1468 0
342.958 40.2968 0
144.787 30.9732 0
147.001 26.4903 0
297.096 2.72353 0
300.342 6.52677 0
484.924 30.4001 0
480.881 33.3429 0
268.939 45.0593 0
273.816 46.1592 0
238.419 15.4508 0
241.813 19.122 0
446.552 46.1645 0
441.638 47.088 0
181.084 37.3676 0
183.306 32.8884 0
326.893 7.27767 0
331.36 9.52402 0
157.912 44.3713 0
159.436 39.6091 0
195.874 13.4043 0
194.867 18.3018 0
160.207 20.3886 0
155.272 19.5815 0
248.425 22.2124 0
253.182 20.6711 0
335.818 7.7884 0
333.135 12.0077 0
2.0597 57.0849 0
0.316491 52.3986 0
130.792 28.0121 0
134.418 24.57 0
108.008 57.2915 0
112.998 56.973 0
389.075 8.49499 0
384.112 9.10001 0
322.436 15.0579 0
326.138 11.6965 0
102.798 50.5531 0
97.9662 49.2665 0
487.663 54.3999 0
488.966 49.5727 0
247.194 33.4164 0
243.397 36.6702 0
167.963 13.6408 0
166.664 18.4691 0
175.528 10.5335 0
172.345 6.67758 0
173.559 7.81211 0
169.695 10.9857 0
149.424 41.9812 0
153.037 38.5248 0
19.456 7.58903 0
21.6188 12.097 0
81.5629 23.4301 0
83.8346 18.976 0
452.871 23.584 0
451.159 18.8861 0
108.356 20.4879 0
104.769 17.0052 0
312.77 35.0078 0
313.063 30.0164 0
106.014 47.1583 0
101.175 48.4179 0
472.978 18.9294 0
469.316 15.5258 0
269.535 47.2298 0
264.882 49.061 0
364.654 1.06258 0
362.842 5.72308 0
113.585 52.8688 0
118.578 53.1493 0
414.234 46.7806 0
409.35 45.7097 0
316.477 15.2353 0
318.944 19.5842 0
446.959 8.52045 0
451.429 6.27857 0
75.2887 47.3348 0
71.6984 43.8549 0
40.3911 40.7025 0
35.3932 40.8477 0
143.052 29.8115 0
141.377 34.5227 0
159.201 16.4717 0
162.962 19.766 0
219.454 29.8566 0
216.715 34.0394 0
465.996 17.8572 0
461.437 15.8039 0
420.823 35.4499 0
416.159 33.6483 0
47.1531 25.6747 0
52.0241 26.8034 0
336.042 19.7293 0
340.818 21.2077 0
94.3593 12.1281 0
99.2686 11.1802 0
52.022 44.5149 0
53.6905 39.8015 0
308.03 2.29126 0
303.091 3.07304 0
60.1673 0.365682 0
65.1673 0.366752 0
212.538 24.606 0
217.044 26.7732 0
72.2283 48.4777 0
68.2015 45.5139 0
443.719 15.4004 0
438.823 16.4175 0
479.086 41.1912 0
483.911 39.8809 0
370.044 58.3253 0
374.907 57.1606 0
183.896 46.6828 0
183.005 41.7628 0
35.8424 13.8717 0
34.9238 8.9568 0
35.0361 18.3222 0
39.2099 15.5691 0
371.293 26.8943 0
368.903 22.5023 0
116.948 50.637 0
119.738 54.7862 0
362.227 10.563 0
363.074 15.4908 0
10.6682 38.849 0
5.82075 40.0746 0
167.769 48.618 0
167.417 53.6056 0
484.575 17.8135 0
480.636 20.894 0
33.6046 50.3217 0
38.551 49.5919 0
157.803 34.5646 0
152.907 33.5488 0
430.797 16.5067 0
434.027 20.3233 0
134.453 3.12321 0
139.411 2.47853 0
49.7499 18.8984 0
50.366 13.9365 0
145.459 11.3713 0
142.837 7.11392 0
421.718 51.8966 0
423.626 47.2748 0
225.074 53.6579 0
222.302 57.8186 0
425.107 38.9757 0
429.721 37.0488 0
113.762 13.4516 0
108.959 12.0628 0
72.6224 8.47968 0
67.623 8.39959 0
489.438 24.7549 0
493.922 22.5431 0
21.5832 23.0739 0
20.287 27.9029 0
367.679 32.6499 0
365.357 37.0783 0
351.62 54.8213 0
354.392 58.9828 0
273.331 43.5917 0
277.523 46.3162 0
365.543 18.8723 0
362.831 14.6715 0
228.819 45.4944 0
225.315 41.928 0
445.895 26.8487 0
441.182 28.5187 0
175.918 28.353 0
180.065 31.1457 0
381.139 37.6823 0
383.477 33.2627 0
123.586 23.7804 0
124.469 18.859 0
74.4759 41.5659 0
77.0846 45.8314 0
353.163 21.2275 0
356 25.3443 0
396.649 57.6631 0
391.651 57.5251 0
161.181 41.4513 0
164.84 38.0441 0
6.01308 35.3491 0
7.24428 40.1952 0
317.996 23.1338 0
322.581 25.1291 0
117.445 17.2144 0
120.213 13.0505 0
283.349 40.682 0
283.679 35.693 0
436.459 19.8776 0
441.459 19.8556 0
18.7379 3.629 0
23.2571 1.48984 0
251.789 10.3049 0
248.83 14.3352 0
123.044 25.8011 0
118.205 27.059 0
412.652 32.2603 0
416.809 29.4828 0
166.736 33.4945 0
167.406 38.4494 0
221.488 54.9261 0
216.496 54.6424 0
282.625 43.5695 0
278.052 45.5916 0
344.458 18.6285 0
339.459 18.7192 0
184.756 29.3537 0
187.484 25.163 0
427.925 8.90513 0
423.136 7.46583 0
267.205 56.142 0
262.239 55.5647 0
122.612 14.3887 0
118.044 16.4225 0
348.65 22.2991 0
351.641 26.306 0
346.037 30.2199 0
341.149 31.2707 0
278.095 42.077 0
282.927 40.7918 0
475.991 46.2984 0
474.378 41.5658 0
468.126 31.8968 0
463.595 34.0095 0
115.123 44.9377 0
120.11 44.5699 0
321.883 14.724 0
318.492 11.0492 0
89.5631 19.1849 0
85.8566 22.5407 0
218.531 12.2049 0
219.161 17.1649 0
313.534 8.1322 0
310.156 11.8182 0
280.437 29.5963 0
276.021 31.9416 0
54.7628 59.5149 0
56.5479 54.8444 0
103.776 5.9203 0
108.634 7.10082 0
150.878 52.6796 0
146.47 55.0378 0
344.18 25.1004 0
343.943 30.0948 0
376.95 25.7831 0
372.046 24.8097 0
98.2766 4.34658 0
100.305 8.91677 0
250.596 48.9687 0
246.463 46.154 0
256.491 31.2068 0
260.219 34.5378 0
377.809 50.261 0
379.377 55.009 0
382.408 53.5938 0
387.251 52.35 0
293.878 6.52493 0
291.04 2.40815 0
121.327 46.2714 0
117.998 50.0023 0
68.5544 44.4995 0
63.5569 44.6576 0
489.578 33.352 0
491.794 28.8698 0
327.755 40.4078 0
330.637 44.4937 0
487.799 44.8609 0
492.644 46.0974 0
458.943 21.6452 0
463.941 21.7964 0
346.558 13.2673 0
342.365 10.5449 0
285.732 19.4206 0
290.565 18.1394 0
135.339 15.6031 0
137.135 10.9368 0
183.06 36.5975 0
178.199 35.4261 0
259.39 18.2056 0
263.596 20.9091 0
207.845 23.2813 0
211.889 20.3407 0
247.079 28.9481 0
251.86 30.4109 0
350.2 56.383 0
355.129 55.5406 0
425.91 52.0162 0
428.703 56.1638 0
30.4653 13.3327 0
31.3976 8.42034 0
148.689 7.61423 0
143.72 8.16502 0
242.716 8.50303 0
241.374 13.3196 0
227.645 4.67512 0
224.084 1.1648 0
62.5204 38.6988 0
62.0028 43.6719 0
95.8863 7.35939 0
99.8967 4.37323 0
73.0626 29.6589 0
68.3613 27.9566 0
146.965 16.3162 0
149.031 20.8697 0
326.144 39.7897 0
322.866 43.5652 0
72.1107 26.6574 0
70.2271 22.0258 0
49.614 34.6847 0
49.3318 29.6926 0
464.28 4.57298 0
468.043 7.86608 0
338.941 39.9326 0
341.598 35.6966 0
209.547 5.37956 0
205.432 2.53871 0
110.81 16.4344 0
107.749 12.4808 0
145 47.1502 0
149.994 47.3896 0
144.395 22.7798 0
148.933 20.6812 0
180.258 38.0885 0
175.439 36.7556 0
214.679 13.614 0
209.917 15.1403 0
16.0445 54.0511 0
21.0409 53.8599 0
175.241 2.49574 0
170.455 1.04899 0
73.2614 15.2457 0
72.5124 20.1892 0
71.5682 56.2001 0
76.4459 57.2991 0
363.678 55.2041 0
368.647 54.6453 0
445.56 41.816 0
450.267 43.5033 0
433.528 54.8605 0
432.051 59.6373 0
454.128 30.1886 0
458.106 27.1598 0
261.07 23.2612 0
257.094 26.2928 0
279.057 45.8642 0
284.034 45.3793 0
268.09 12.3408 0
265.744 7.92493 0
277.375 56.5464 0
273.651 59.8839 0
491.834 55.3532 0
487.401 53.0401 0
120.935 31.01 0
116.176 32.545 0
38.2548 2.64929 0
33.4038 3.86097 0
185.662 40.0598 0
185.013 45.0175 0
325.247 11.4921 0
323.445 6.82807 0
139.899 11.14 0
139.692 16.1357 0
170.848 40.7746 0
170.15 35.8236 0
42.3856 3.7439 0
46.9766 5.72457 0
159.533 9.54405 0
155.249 6.96524 0
458.993 10.3715 0
463.506 8.21946 0
87.2296 45.5267 0
84.2687 49.5558 0
96.4658 6.30809 0
93.5298 2.2609 0
146.49 45.5417 0
141.49 45.607 0
397.126 43.657 0
402.124 43.8048 0
63.0047 35.5965 0
63.721 30.6481 0
404.097 8.77872 0
399.496 6.82278 0
57.8683 6.36831 0
54.6122 10.1627 0
74.7037 56.2359 0
75.8584 51.371 0
379.873 30.8423 0
378.41 26.0612 0
439.578 45.4767 0
442.58 41.4787 0
73.0172 29.5542 0
78.0101 29.2872 0
32.9656 38.0201 0
31.0956 33.383 0
344.107 39.8512 0
348.472 42.2892 0
397.809 48.7745 0
399.857 53.3361 0
482.606 51.6978 0
486.738 54.5134 0
343.958 50.6831 0
341.882 55.2319 0
478.483 9.28731 0
474.837 12.7088 0
25.5315 23.6888 0
30.1309 25.6497 0
28.7131 51.6987 0
28.6459 56.6982 0
361.928 32.1105 0
366.923 32.3186 0
335.251 7.24955 0
330.287 7.84608 0
258.442 4.27359 0
253.784 2.45686 0
324.567 32.8577 0
324.757 37.8541 0
489.115 54.9159 0
484.642 57.1505 0
250.165 9.55477 0
253.99 12.7752 0
226.067 55.9334 0
230.747 54.1741 0
328.255 2.42739 0
323.271 2.02981 0
475.91 11.4497 0
480.099 14.1805 0
134.196 35.7898 0
129.48 37.45 0
310.985 45.7914 0
306.902 42.9043 0
28.8035 37.5299 0
30.8851 32.9838 0
422.915 19.4947 0
425.98 23.445 0
214.162 30.6674 0
217.654 34.2461 0
488.624 4.59928 0
493.566 5.36097 0
413.128 59.6049 0
410.597 55.293 0
495.528 26.4952 0
498.119 22.2186 0
109.617 9.04918 0
105.811 12.2921 0
198.803 3.23408 0
194.672 6.05225 0
396.259 53.3221 0
397.946 48.6151 0
425.116 8.01749 0
420.21 7.04956 0
129.276 48.4606 0
130.596 53.2831 0
247.204 55.808 0
242.756 58.0912 0
230.469 51.213 0
227.307 47.3403 0
57.2705 41.0882 0
61.8438 43.1092 0
467.356 49.7017 0
472.043 47.959 0
271.851 18.0573 0
270.752 13.1796 0
472.117 35.9027 0
469.984 40.4251 0
347.71 39.1529 0
351.941 36.4893 0
108.425 5.04943 0
113.331 4.08153 0
50.9331 56.0328 0
52.8019 51.3952 0
267.655 8.75704 0
269.967 4.3235 0
173.542 21.2607 0
176.91 17.5656 0
204.305 54.0631 0
199.578 52.4317 0
115.843 51.9769 0
114.436 47.1788 0
260.504 34.5467 0
261.916 39.3434 0
489.768 12.3453 0
487.803 16.9428 0
281.619 18.6579 0
282.131 23.6316 0
111.131 27.4096 0
110.005 22.5382 0
420.361 33.7175 0
416.387 30.6827 0
33.4482 36.0056 0
36.3254 31.9164 0
255.614 13.9815 0
254.92 9.02988 0
284.291 55.8514 0
287.094 51.711 0
179.209 34.1092 0
180.116 29.1922 0
468.144 46.5792 0
471.98 43.372 0
55.635 6.44394 0
50.6976 7.23241 0
405.304 0.68645 0
410.089 2.13659 0
372.564 31.7962 0
370.776 27.1269 0
447.924 40.1889 0
447.493 45.1704 0
412.395 47.126 0
407.535 45.9543 0
152.603 7.80169 0
156.994 5.41009 0
224.071 33.0813 0
228.264 30.3572 0
188.534 14.7535 0
186.875 10.0365 0
347.472 26.4396 0
352.235 24.9175 0
75.0476 25.6496 0
79.6923 23.7985 0
372.538 43.7895 0
372.237 48.7804 0
119.943 49.2054 0
124.266 51.717 0
23.5265 39.9102 0
19.1752 42.3732 0
174.359 13.3594 0
177.258 9.28527 0
373.906 34.5654 0
369.554 37.0264 0
71.3807 22.5382 0
76.1263 24.1129 0
264.211 37.9686 0
266.898 42.1854 0
0.0581379 18.4795 0
4.15055 15.6069 0
20.3598 42.1953 0
20.2079 37.1976 0
159.893 57.7305 0
164.611 59.3851 0
16.6347 50.1391 0
21.5607 50.9962 0
417.822 8.75452 0
417.644 13.7513 0
212.984 1.31867 0
217.953 0.761298 0
55.3879 34.829 0
53.6268 30.1494 0
337.414 43.2302 0
341.491 46.124 0
175.944 14.894 0
170.95 14.6548 0
426.159 43.8906 0
428.315 39.3794 0
143.447 58.7424 0
145.529 54.1969 0
269.531 32.2029 0
273.061 35.7438 0
255.717 20.1632 0
250.786 20.9893 0
339.497 36.8414 0
338.329 41.7032 0
361.481 16.7004 0
357.621 13.5231 0
266.239 25.9772 0
269.667 22.3375 0
355.126 17.3373 0
350.405 15.6928 0
10.9995 15.1878 0
15.119 18.0216 0
191.83 5.27065 0
194.554 9.46362 0
334.883 46.9866 0
330.045 48.2482 0
466.492 55.6282 0
467.678 50.7711 0
140.837 3.68252 0
145.319 1.46492 0
19.9822 52.123 0
21.5365 47.3707 0
465.138 22.1279 0
467.936 26.2722 0
482.579 36.1669 0
477.582 36.3344 0
285.843 27.8511 0
289.012 23.9838 0
317.835 26.0734 0
322.261 23.7457 0
354.212 5.08995 0
349.689 2.95774 0
130.362 52.896 0
128.311 48.3358 0
152.086 2.3636 0
147.522 4.40646 0
354.216 5.77334 0
353.389 10.7043 0
459.615 42.8789 0
461.273 38.1619 0
461.68 27.872 0
465.817 25.0632 0
460.558 22.8181 0
456.661 25.9514 0
271.53 50.064 0
272.512 54.9667 0
216.345 41.9222 0
217.22 36.9993 0
5.69604 51.1718 0
9.21743 54.7215 0
119.278 34.3187 0
124.26 33.8897 0
365.196 36.043 0
364.284 31.127 0
387.897 54.0148 0
387.159 58.9601 0
356.628 39.3755 0
360.57 36.299 0
381.79 45.321 0
385.882 48.1942 0
204.253 16.4342 0
208.848 14.4624 0
135.853 33.3026 0
131.456 30.9207 0
315.099 28.6961 0
312.93 24.1907 0
187.119 38.2794 0
190.269 34.3961 0
366.256 9.07681 0
363.581 13.3011 0
219.568 17.3985 0
224.556 17.0529 0
76.0815 50.5344 0
73.7653 46.1032 0
271.815 33.0637 0
275.141 29.3298 0
8.79153 39.9381 0
3.82892 40.5485 0
336.23 31.1566 0
337.753 35.9188 0
186.286 18.6715 0
181.287 18.6112 0
465.93 10.3375 0
470.663 11.9509 0
306.113 6.36451 0
301.329 7.81728 0
28.572 31.1386 0
29.354 26.2001 0
247.42 43.5446 0
249.81 39.153 0
274.668 20.4928 0
279.45 19.035 0
72.8426 35.1964 0
76.6237 38.4679 0
311.252 16.151 0
309.871 11.3455 0
23.317 40.6546 0
28.3145 40.4971 0
187.747 12.1203 0
186.258 7.34737 0
7.38387 8.70248 0
2.4559 9.54815 0
209.92 3.75001 0
206.434 0.165728 0
482.663 28.2196 0
486.702 31.1674 0
147.214 50.1574 0
146.72 55.133 0
430.68 48.8794 0
428.272 44.4978 0
163.004 6.84948 0
158.155 5.63343 0
440.226 30.476 0
437.96 34.9333 0
140.982 25.6876 0
141.253 30.6803 0
271.718 28.0875 0
267.663 31.0115 0
345.437 51.8535 0
341.745 48.4819 0
24.1898 47.7756 0
22.0135 43.2741 0
308.735 6.46403 0
304.051 4.71432 0
68.5896 24.8507 0
73.5422 24.164 0
33.2046 43.5349 0
37.744 41.4386 0
480.831 3.70245 0
485.639 2.33044 0
223.013 7.33263 0
224.162 12.1987 0
303.419 50.8332 0
298.422 51.0233 0
129.052 42.3983 0
130.356 47.2251 0
248.586 27.3858 0
252.156 30.8863 0
19.1184 41.1277 0
23.0765 38.0726 0
36.6672 44.5163 0
31.6827 44.1227 0
467.98 7.68085 0
472.475 5.49259 0
119.2 26.2716 0
114.207 26.5357 0
228.841 16.3049 0
230.833 11.7188 0
138.647 11.4997 0
143.456 12.8695 0
328.058 44.8466 0
332.943 45.9138 0
456.404 29.1368 0
452.678 32.4705 0
346.362 41.4908 0
345.3 36.6048 0
45.6215 27.4446 0
47.3652 32.1306 0
480.808 13.0904 0
475.817 12.7917 0
75.2751 21.7628 0
75.7549 26.7397 0
17.3788 14.2334 0
15.6738 9.53302 0
350.314 47.9385 0
353.648 44.2128 0
75.0924 21.8389 0
70.5703 19.7058 0
153.337 42.5817 0
154.662 47.4027 0
468.807 37.1128 0
472.267 33.5033 0
278.353 15.1435 0
283.318 15.7307 0
483.7 36.4159 0
481.406 40.8588 0
456.384 21.4551 0
460.747 19.0128 0
337.56 35.2492 0
337.365 40.2454 0
49.2768 46.0105 0
50.9209 41.2885 0
157.612 57.5688 0
153.893 54.2266 0
71.416 44.7111 0
66.493 43.8371 0
237.907 23.819 0
238.593 28.7717 0
243.415 22.8383 0
243.626 27.8339 0
133.438 51.652 0
130.476 47.6239 0
1.8184 5.66951 0
0.277687 10.4262 0
379.477 35.6602 0
376.2 39.4371 0
262.416 31.7383 0
261.614 36.6735 0
487.193 6.44879 0
486.335 1.5229 0
468.801 39.6923 0
468.6 44.6882 0
145.358 32.5831 0
149.949 34.5634 0
446.663 24.1609 0
451.17 21.9958 0
459.264 16.7881 0
463.83 14.7509 0
259.102 12.6646 0
254.793 10.1296 0
391.588 11.8448 0
392.709 16.7176 0
102.424 15.0981 0
97.6345 13.6638 0
100.664 1.62077 0
105.582 0.720859 0
60.9001 40.6809 0
65.3963 42.868 0
122.548 10.0928 0
126.888 7.60909 0
438.994 13.0347 0
439.3 18.0253 0
462.105 33.5706 0
466.272 36.3346 0
114.665 44.5768 0
109.884 43.1143 0
138.966 36.3687 0
143.126 33.5948 0
341.606 57.1837 0
342.89 52.3515 0
437.607 32.9687 0
437.262 37.9568 0
75.8892 24.684 0
71.7407 21.893 0
87.6844 9.46657 0
82.6845 9.45709 0
303.137 11.6359 0
306.516 15.3212 0
16.7486 40.9541 0
13.8431 36.8849 0
303.68 1.61956 0
298.782 0.618102 0
355.534 11.1307 0
360.354 12.4587 0
159.811 57.0559 0
164.608 55.6448 0
270.567 31.6414 0
270.423 26.6435 0
1.17609 32.9638 0
5.85939 31.2126 0
142.889 16.0075 0
138.129 14.4766 0
32.3413 37.179 0
32.5072 42.1762 0
1.63348 40.7222 0
2.31305 45.6758 0
369.543 7.90447 0
367.806 3.21596 0
220.152 12.6791 0
223.192 16.6489 0
381.91 40.0556 0
385.948 37.1066 0
416.9 30.9788 0
420.559 34.3861 0
143.583 4.4675 0
146.08 8.79971 0
49.9213 6.73861 0
44.9446 7.22042 0
428.003 44.5571 0
430.629 48.8118 0
66.8836 38.8246 0
67.8844 33.9258 0
46.8054 12.3014 0
51.4244 10.387 0
212.438 31.2151 0
211.831 26.2521 0
175.613 11.6457 0
177.926 16.0783 0
471.162 29.5814 0
469.051 34.1136 0
50.6994 14.7672 0
48.2068 10.4328 0
119.306 55.1743 0
114.607 53.4659 0
248.941 32.7459 0
251.712 28.5845 0
158.117 51.5552 0
157.019 46.6771 0
149.152 43.3056 0
154.123 43.8478 0
115.232 23.7414 0
114.106 18.8698 0
65.1015 18.9255 0
62.5893 14.6024 0
250.073 13.3368 0
249.901 8.3398 0
302.388 11.6498 0
306.967 13.6577 0
494.976 43.249 0
497.833 39.1451 0
65.8279 49.9704 0
65.858 54.9703 0
283.757 18.4239 0
288.227 20.6651 0
249.242 12.9521 0
252.253 8.96079 0
139.861 29.3272 0
139.187 24.3729 0
232.775 14.2598 0
237.566 15.6908 0
339.541 52.4825 0
341.219 57.1926 0
294.364 54.3208 0
298.917 52.2559 0
46.6056 26.1688 0
42.9485 29.5785 0
16.8966 22.4897 0
13.108 19.2269 0
71.3633 30.2427 0
75.739 32.662 0
422.65 19.751 0
427.292 17.8935 0
368.108 27.849 0
371.548 24.2203 0
30.0268 31.4986 0
26.3171 34.8509 0
422.239 6.63231 0
418.734 10.1982 0
180.174 39.9943 0
184.826 38.1631 0
410.566 41.2835 0
415.136 43.3128 0
31.9132 3.91284 0
36.0812 1.15103 0
206.068 39.7925 0
207.391 44.6145 0
311.203 20.1045 0
312.863 24.821 0
35.4014 22.6691 0
39.6388 20.0149 0
445.825 13.8639 0
446.865 18.7544 0
289.224 24.8378 0
293.002 21.5627 0
340.205 20.9872 0
340.701 16.0119 0
28.8373 25.2678 0
32.5174 28.6526 0
115.947 33.315 0
113.776 28.8109 0
426.26 37.0288 0
427.732 32.2502 0
86.9835 0.0965562 0
91.2164 2.75778 0
212.261 54.5907 0
216.511 51.9566 0
21.9614 31.9871 0
22.8706 27.0705 0
277.775 33.912 0
274.829 37.9515 0
217.388 25.5621 0
217.198 30.5585 0
494.704 18.3254 0
498.325 14.8771 0
91.5751 52.7588 0
95.5307 49.7005 0
170.824 45.7442 0
167.769 41.7865 0
140.511 52.673 0
136.314 49.9546 0
267.13 17.7912 0
262.158 17.269 0
104.834 57.6953 0
100.26 55.676 0
396.729 8.03276 0
397.536 12.9672 0
468.243 12.3642 0
465.12 16.269 0
350.163 13.1359 0
353.689 9.59088 0
229.264 52.1006 0
234.236 51.5766 0
227.576 3.43852 0
230.958 7.12148 0
11.4382 11.5996 0
11.9565 6.62654 0
287.047 53.9959 0
291.212 56.7627 0
211.359 44.3319 0
215.915 46.3907 0
407.411 12.9571 0
402.499 12.0219 0
465.78 29.2548 0
463.339 33.6185 0
231.203 7.54386 0
234.969 10.8329 0
365.757 44.8201 0
366.298 49.7909 0
218.101 32.0232 0
218.739 27.0642 0
149.535 50.3493 0
144.577 49.7026 0
61.062 6.7496 0
56.8502 4.05516 0
341.293 9.53181 0
345.272 6.50434 0
163.95 11.8898 0
159.058 10.8549 0
392.543 12.6337 0
397.388 13.8664 0
9.44897 42.2667 0
4.46787 42.701 0
129.342 53.9155 0
130.122 48.9767 0
14.3373 45.4541 0
12.9122 50.2467 0
365.77 42.9314 0
365.387 47.9166 0
344.835 32.5366 0
343.443 27.7341 0
411.049 58.2361 0
406.27 59.7075 0
464.401 59.932 0
462.188 55.4485 0
264.694 33.4838 0
268.828 36.2964 0
433.21 8.68425 0
435.321 13.2171 0
344.446 7.45938 0
340.017 5.13826 0
412.5 15.2022 0
417.067 17.2377 0
308.323 12.596 0
311.986 9.19288 0
69.5367 14.1916 0
68.4594 19.0742 0
430.946 3.32223 0
425.959 3.68156 0
114.771 15.1543 0
112.095 10.9306 0
168.011 0.55608 0
164.736 4.33355 0
68.3351 52.7654 0
69.4443 47.89 0
172.332 58.6574 0
167.351 59.0901 0
272.063 56.3081 0
271.299 51.3668 0
256.604 9.18686 0
261.433 10.4838 0
143.952 49.6099 0
148.92 49.0427 0
305.91 41.5995 0
309.621 44.9501 0
151.182 1.92248 0
156.172 2.22632 0
219.747 19.3009 0
219.205 24.2713 0
330.446 21.9533 0
327.254 25.8014 0
422.113 27.5133 0
421.707 22.5299 0
284.787 41.7834 0
288.387 45.253 0
67.6644 28.0837 0
62.8444 26.7543 0
300.486 12.5905 0
297.937 16.8921 0
284.417 25.7951 0
281.758 30.0293 0
100.441 59.5545 0
95.5264 58.6331 0
50.6831 35.5837 0
47.0705 32.1269 0
105.797 43.0031 0
110.782 42.6109 0
289.409 19.3975 0
291.819 23.7784 0
176.952 24.5368 0
172.549 26.9069 0
145.473 56.3715 0
140.474 56.3182 0
323.198 58.612 0
318.65 56.5344 0
379.909 10.3956 0
384.501 12.3744 0
203.741 1.18845 0
202.174 5.9367 0
274.626 22.0005 0
273.149 26.7772 0
119.06 14.04 0
119.515 19.0193 0
260.331 44.739 0
256.137 47.4624 0
498.324 37.507 0
497.802 32.5344 0
447.465 1.24422 0
443.053 3.59725 0
264.25 40.5828 0
265.23 45.4858 0
382.186 37.8841 0
380.016 42.3884 0
57.3037 13.9484 0
62.0995 15.3624 0
495.49 39.0443 0
499.152 42.4484 0
466.361 15.462 0
463.23 11.564 0
440.179 29.9752 0
440.04 24.9771 0
112.934 41.8986 0
108.961 44.9343 0
271.994 41.7588 0
276.439 44.0476 0
409.606 35.1611 0
412.871 38.9475 0
307.18 47.9494 0
311.664 50.1604 0
22.5491 57.4053 0
27.3846 56.1333 0
136.492 37.716 0
140.314 40.9396 0
97.8315 13.2896 0
93.187 11.4377 0
54.5627 30.7312 0
50.5108 27.8017 0
269.341 1.49084 0
271.533 5.98462 0
415.875 35.107 0
415.999 40.1055 0
27.8801 54.4926 0
22.9355 53.7503 0
463.674 25.6048 0
468.612 24.8215 0
435.421 18.4641 0
438.369 22.5021 0
387.085 6.07947 0
390.383 9.83746 0
371.389 11.6982 0
375.524 14.5099 0
235.677 6.39744 0
231.201 4.16936 0
372.65 8.71221 0
369.165 5.1271 0
448.901 40.448 0
444.753 43.2398 0
313.257 17.3706 0
317.255 14.3684 0
493.59 6.1093 0
488.602 5.76191 0
126.098 43.1088 0
121.687 40.7545 0
75.8276 33.6393 0
73.8686 38.2395 0
415.021 10.5951 0
410.067 11.2746 0
177.606 3.01863 0
182.598 3.30652 0
389.506 14.8569 0
385.537 17.8983 0
437.542 46.1784 0
434.416 42.2763 0
181.054 1.04127 0
176.499 3.1027 0
344.421 57.4209 0
349.306 58.4885 0
469.877 46.8658 0
471.5 51.5951 0
358.478 26.3174 0
361.903 22.6747 0
263.729 42.4489 0
259.67 45.3678 0
67.4904 42.9817 0
63.9031 46.4647 0
438.716 25.9319 0
440.462 30.6169 0
285.34 47.7242 0
289.153 44.4904 0
287.672 20.6094 0
284.622 24.5716 0
290.691 8.36842 0
285.767 9.2388 0
197.005 15.9728 0
194.631 11.5725 0
148.141 38.5641 0
151.732 42.0432 0
227.005 47.9939 0
231.589 49.9903 0
91.2001 5.77419 0
92.6864 10.5482 0
60.4847 20.0776 0
61.2724 25.0152 0
210.068 15.4467 0
205.068 15.4685 0
341.29 46.516 0
344.879 43.0343 0
42.6176 33.079 0
46.4323 29.8466 0
184.556 10.9441 0
179.556 10.9484 0
164.37 24.9736 0
168.313 28.0481 0
235.672 18.0741 0
235.08 13.1093 0
342.855 15.9901 0
338.248 17.9339 0
83.2987 43.6271 0
78.5466 45.182 0
445.999 52.2688 0
445.643 47.2815 0
268.453 18.7402 0
264.916 22.2746 0
172.659 33.5327 0
168.653 30.5403 0
240.069 44.1164 0
244.614 42.0322 0
308.513 54.0015 0
304.962 50.4815 0
344.758 55.1741 0
349.351 53.1987 0
149.751 43.5082 0
147.545 39.021 0
367.776 5.25511 0
363.148 3.36238 0
411.56 4.31954 0
406.56 4.38124 0
309.244 45.1897 0
312.714 48.7893 0
485.903 35.2478 0
481.48 32.9155 0
438.426 44.5383 0
439.693 49.3752 0
80.8099 19.5354 0
82.5178 14.8361 0
160.181 58.2151 0
155.57 56.2814 0
315.035 8.33613 0
310.102 7.51819 0
71.8124 53.0428 0
73.3711 48.292 0
124.984 12.5305 0
127.017 7.96254 0
238.602 12.4427 0
235.999 8.1734 0
151.605 40.756 0
153.953 36.3417 0
176.626 34.0392 0
176.672 39.039 0
116.068 44.6792 0
120.297 42.0123 0
229.717 14.2048 0
230.458 9.26002 0
42.4377 44.8237 0
45.6466 48.658 0
152.622 49.0169 0
152.949 44.0276 0
173.47 24.9789 0
168.813 23.1581 0
291.039 41.0373 0
290.411 36.077 0
4.28973 6.86217 0
2.95096 2.04473 0
48.0165 56.0655 0
44.3008 52.7198 0
441.578 23.1681 0
446.433 21.9757 0
433.425 48.0911 0
436.84 51.7439 0
441.207 48.4835 0
440.659 53.4535 0
16.3233 59.0101 0
11.3959 59.8594 0
180.581 49.5476 0
182.251 44.8349 0
335.497 26.2258 0
331.536 29.2772 0
378.313 53.2643 0
377.812 58.2391 0
399.746 57.9069 0
399.911 52.9097 0
488.498 28.4561 0
485.239 32.2487 0
228.326 25.047 0
232.524 22.3305 0
441.965 44.8997 0
437.941 41.9318 0
66.4035 56.4794 0
62.2981 53.6254 0
458.89 38.7434 0
455.643 34.9416 0
31.4573 58.3659 0
35.0438 54.8821 0
432.91 13.0105 0
436.938 10.0489 0
145.863 44.6097 0
144.326 49.3675 0
8.02019 46.9714 0
10.8235 51.1116 0
125.598 23.2812 0
130.44 22.0317 0
465.886 50.2434 0
463.926 45.6434 0
7.17534 34.7001 0
2.18454 34.3969 0
331.869 38.8673 0
336.72 40.079 0
299.946 2.92616 0
298.89 7.81349 0
407.456 22.9925 0
404.216 19.1846 0
241.246 39.6422 0
244.258 43.6333 0
197.204 46.8589 0
193.184 49.8333 0
251.342 28.6836 0
256.334 28.4189 0
48.0675 36.74 0
45.0403 40.7194 0
445.052 52.0578 0
442.75 56.4966 0
143.304 32.1809 0
148.293 31.8518 0
189.06 12.9891 0
192.211 9.10662 0
200.772 19.2834 0
205.759 19.6384 0
49.7093 34.6786 0
45.7824 31.5835 0
253.996 9.65653 0
249.889 12.5077 0
140.525 19.7879 0
135.986 21.8843 0
391.603 0.359439 0
392.821 5.2088 0
495.666 57.6429 0
495.139 52.6708 0
492.766 34.2375 0
491.154 38.9704 0
426.374 30.4688 0
422.482 27.3304 0
386.946 36.2861 0
383.954 40.2924 0
478.049 43.0149 0
481.978 39.923 0
126.308 25.6958 0
123.25 29.6518 0
61.0359 21.234 0
65.6244 23.2204 0
205.079 53.207 0
210.068 52.881 0
415.898 38.3704 0
416.72 33.4385 0
41.8642 6.7808 0
44.8219 10.8122 0
221.171 12.668 0
221.667 7.69267 0
14.2797 4.17117 0
10.9066 7.862 0
208.116 22.546 0
212.774 24.3649 0
349.922 13.5321 0
352.086 18.0391 0
386.797 20.8533 0
391.677 19.761 0
277.893 29.8431 0
275.323 34.1316 0
459.775 12.0082 0
464.729 11.3247 0
131.472 54.173 0
133.281 58.8342 0
421.475 26.8792 0
424.582 30.796 0
63.9898 43.898 0
61.9649 39.3264 0
44.8073 55.0964 0
40.0235 53.642 0
124.654 12.1589 0
123.554 7.28127 0
336.63 45.0368 0
341.604 45.5462 0
473.265 1.2031 0
478.261 1.01287 0
253.624 36.4844 0
254.668 41.3741 0
302.174 11.975 0
307.045 13.1031 0
422.649 54.04 0
417.663 53.666 0
263.512 42.9573 0
268.466 43.6357 0
173.659 31.5594 0
169.404 34.1863 0
433.649 37.8763 0
428.705 37.131 0
11.3621 42.4274 0
8.18345 38.5678 0
210.24 47.1264 0
211.057 52.0591 0
167.188 29.0635 0
172.186 28.926 0
257.176 0.651965 0
255.489 5.35848 0
411.798 32.5502 0
414.628 28.4282 0
323.902 27.0223 0
320.223 30.408 0
153.67 23.6325 0
158.487 24.9762 0
2.0292 23.2432 0
3.97502 18.6374 0
281.299 31.5608 0
282.169 26.6371 0
414.691 23.8977 0
410.924 20.6107 0
116.943 14.3019 0
112.134 12.933 0
312.517 16.9742 0
311.249 12.1378 0
252.348 31.0215 0
247.554 29.6025 0
192.548 50.4691 0
197.44 49.4328 0
61.8587 27.0653 0
64.1771 22.6353 0
474.279 20.4018 0
474.038 25.396 0
66.1376 57.0552 0
67.1313 52.155 0
465.619 11.6243 0
460.745 10.5068 0
249.044 23.1378 0
247.696 18.3229 0
230.923 13.1525 0
231.212 18.1441 0
85.9004 35.0331 0
88.549 30.7922 0
216.898 27.9217 0
216.992 32.9209 0
174.468 5.12144 0
169.493 5.6229 0
324.399 8.00499 0
326.91 12.3285 0
306.184 41.1223 0
310.724 43.2166 0
26.8157 10.1438 0
31.6926 11.2465 0
436.144 44.0162 0
441.053 43.0653 0
140.736 37.1668 0
145.33 35.1933 0
32.6227 8.95639 0
32.5686 13.9561 0
279.724 27.1111 0
275.083 25.2501 0
263.073 54.0108 0
268 54.8599 0
174.558 33.8362 0
169.558 33.8928 0
420.374 48.1246 0
415.67 49.8202 0
93.7997 15.7587 0
96.8914 11.8292 0
460.594 20.182 0
464.92 17.674 0
220.419 49.1166 0
225.103 47.367 0
47.3151 47.2461 0
42.3608 46.5718 0
357.445 38.4771 0
359.256 33.8165 0
343.567 31.5751 0
346.078 35.899 0
421.03 10.0094 0
417.597 6.37376 0
152.452 51.471 0
149.814 47.2238 0
194.045 2.06663 0
198.723 3.83209 0
446.612 9.09861 0
442.252 6.65131 0
142.111 56.3382 0
138.26 53.1484 0
460.257 51.9402 0
461.752 47.1689 0
81.6187 18.7185 0
80.3668 23.5593 0
296.496 43.3771 0
301.475 43.835 0
154.399 41.029 0
158.793 38.6437 0
327.401 23.9101 0
325.94 28.6921 0
340.126 52.8579 0
340.677 47.8884 0
76.7501 59.5445 0
72.9387 56.3083 0
59.0224 11.0354 0
56.002 15.02 0
474.125 32.6247 0
471.389 28.4393 0
378.504 56.3204 0
375.799 52.1154 0
205.468 11.0623 0
201.06 8.70107 0
340.349 58.5577 0
338.521 53.9038 0
97.4756 14.2255 0
95.382 9.68488 0
237.013 33.9918 0
241.839 35.3013 0
466.544 53.6361 0
470.534 56.6501 0
299.489 54.9309 0
304.474 54.5436 0
338.342 59.5295 0
334.637 56.1726 0
102.827 1.63562 0
107.736 0.686708 0
474.765 17.9163 0
477.059 13.4735 0
44.2235 19.5168 0
49.1501 20.3707 0
150.771 47.9 0
147.486 51.6693 0
273.764 32.3197 0
270.262 35.8887 0
432.167 0.183425 0
428.306 3.3604 0
151.44 54.5195 0
154.666 50.6998 0
464.894 16.0134 0
469.878 16.4204 0
458.554 28.678 0
458.19 23.6913 0
478.279 55.0961 0
483.268 54.763 0
118.634 51.3371 0
121.74 47.419 0
441.013 10.326 0
445.993 10.7784 0
60.8357 59.1738 0
62.9906 54.662 0
169.469 45.2992 0
171.684 40.8165 0
58.2582 25.108 0
62.8613 23.1556 0
154.408 56.9387 0
159.261 58.142 0
42.6537 50.7601 0
37.9229 49.1416 0
335.545 55.2222 0
340.431 54.1632 0
265.583 54.6902 0
270.176 52.7138 0
431.896 25.0102 0
427.719 22.2606 0
359.06 24.7368 0
354.519 26.8295 0
434.163 47.7685 0
436.842 43.5469 0
349.015 1.82738 0
353.73 3.49241 0
138.178 1.47802 0
133.77 3.83918 0
114.097 30.9206 0
111.218 26.833 0
177.579 40.4625 0
182.575 40.6568 0
39.8983 37.2113 0
40.8556 32.3038 0
78.6554 21.2465 0
82.4151 17.9504 0
300.359 5.25669 0
302.25 9.88561 0
38.3547 43.9534 0
43.3486 44.1993 0
37.4798 56.2866 0
36.3517 51.4155 0
294.9 20.7657 0
290.929 23.8037 0
349.528 41.0681 0
344.556 40.5369 0
493.106 56.3281 0
497.516 58.6849 0
172.738 21.0712 0
173.109 26.0574 0
353.988 3.6028 0
352.566 8.39641 0
223.047 32.932 0
222.493 27.9628 0
156.164 50.1594 0
154.083 45.6134 0
357.924 47.196 0
353.117 45.8219 0
368.53 12.1804 0
368.129 7.19646 0
176.353 49.067 0
180.723 46.6384 0
18.9046 2.81344 0
23.4962 4.79268 0
490.107 30.7947 0
485.17 30.0024 0
28.8934 32.9447 0
32.434 29.4142 0
163.528 14.9921 0
168.188 13.1798 0
369.908 35.3013 0
367.207 31.0932 0
422.835 41.8015 0
427.46 43.703 0
145.686 4.92034 0
146.708 9.81462 0
443.115 20.1122 0
438.427 21.8497 0
267.56 47.7204 0
272.3 49.3099 0
471.639 59.0346 0
476.578 58.2572 0
328.62 28.1082 0
324.934 31.4864 0
273.662 3.69292 0
268.976 1.94842 0
235.942 34.2078 0
233.261 38.4284 0
206.9 9.32031 0
211.785 10.3867 0
192.201 56.9726 0
187.844 59.4262 0
254.647 17.4504 0
253.656 12.5497 0
245.129 51.4063 0
242.157 55.4278 0
163.663 40.6 0
164.81 45.4666 0
439.671 15.0726 0
444.659 15.4186 0
165.588 42.3088 0
162.009 45.7998 0
159.14 8.18806 0
162.025 4.10449 0
72.766 32.5033 0
77.7447 32.0424 0
125.654 17.9817 0
125.774 12.9831 0
375.322 4.81064 0
380.26 5.59443 0
137.323 18.264 0
132.98 20.743 0
174.172 14.5623 0
171.104 10.6147 0
420.005 18.5023 0
424.674 20.2904 0
379.341 3.10697 0
378.809 8.07867 0
275.713 59.4086 0
280.215 57.2331 0
15.0041 44.2284 0
12.8934 48.761 0
435.165 50.2127 0
440.129 49.6103 0
211.361 34.2202 0
208.918 38.5826 0
239.918 29.2498 0
242.044 33.7751 0
269.088 35.1276 0
273.992 34.1517 0
382.686 42.281 0
386.296 45.7403 0
313.121 46.1788 0
316.884 42.887 0
479.569 19.567 0
482.981 15.9116 0
456.777 5.63627 0
461.602 6.94766 0
497.774 48.6206 0
495.03 52.7999 0
433.409 51.4576 0
438.36 50.7609 0
427.022 21.3466 0
429.949 17.2926 0
288.318 7.39976 0
291.944 10.8426 0
245.356 44.6921 0
240.813 46.78 0
75.6876 6.87323 0
70.6913 7.06384 0
135.296 28.7708 0
140.223 29.6244 0
33.2514 39.7216 0
31.7544 44.4922 0
233.757 56.0266 0
228.879 54.9293 0
327.506 18.1923 0
328.269 13.2509 0
48.5783 51.0759 0
48.441 56.074 0
300.034 15.5986 0
295.036 15.7287 0
415.874 50.1265 0
413.179 45.9151 0
291.818 59.8072 0
287.682 56.9989 0
288.559 18.573 0
292.116 15.0594 0
471.814 48.583 0
475.744 45.4918 0
109.01 50.043 0
108.701 45.0526 0
166.545 28.8732 0
170.739 26.1521 0
226.657 52.7876 0
224.742 48.1688 0
216.186 38.729 0
218.479 43.1723 0
61.4987 24.5372 0
65.6094 27.3837 0
216.389 5.56305 0
212.75 2.1343 0
479.399 11.6705 0
474.854 9.58849 0
468.541 57.6546 0
468.847 52.664 0
469.653 59.0241 0
470.113 54.0453 0
331.926 3.07853 0
336.204 5.66611 0
455.754 17.8433 0
455.804 12.8436 0
225.445 30.6586 0
230.223 29.1845 0
450.76 7.33957 0
455.694 6.528 0
291.501 15.3947 0
286.503 15.5323 0
342.122 46.5523 0
347.067 47.2926 0
137.201 29.0289 0
140.901 25.6658 0
251.933 41.0006 0
253.238 45.8272 0
213.479 46.1656 0
208.537 46.9254 0
342.744 33.5238 0
346.186 37.1499 0
416.367 25.5555 0
421.302 26.363 0
226.257 9.99971 0
229.961 13.3585 0
124.933 3.20739 0
122.621 7.6406 0
263.469 45.215 0
263.166 40.2242 0
212.811 11.2743 0
212.82 6.27435 0
367.344 19.2665 0
362.415 20.1026 0
310.994 19.8876 0
315.479 17.679 0
431.291 37.9352 0
430.425 33.011 0
278.483 36.0851 0
273.583 35.0899 0
163.793 31.5714 0
160.113 28.1864 0
83.0607 12.5696 0
88.0197 13.2091 0
358.356 15.1704 0
353.356 15.2455 0
11.9915 48.39 0
7.42967 50.437 0
432.145 20.0451 0
432.972 15.114 0
344.162 24.9277 0
339.163 24.8907 0
27.5057 6.85413 0
30.9702 10.4593 0
341.866 51.835 0
337.605 54.4513 0
407.006 0.303106 0
410.251 4.10736 0
57.6805 4.95261 0
57.4338 9.94652 0
362.191 2.65269 0
367.048 3.84095 0
16.7917 34.5346 0
18.3926 39.2713 0
213.423 27.3544 0
214.108 32.3073 0
6.96653 10.3805 0
8.7492 5.70908 0
88.9736 8.22412 0
92.8289 11.4079 0
23.6571 26.0111 0
26.2561 21.7397 0
463.147 16.3203 0
458.147 16.3531 0
458.932 36.4281 0
456.555 32.0293 0
168.785 35.0053 0
172.041 31.2108 0
356.621 13.0301 0
352.952 9.63418 0
23.4099 26.8227 0
19.373 29.7728 0
411.243 12.0794 0
406.301 11.3219 0
318.594 48.4303 0
323.219 50.3297 0
141.543 50.7765 0
140.057 46.0021 0
277.768 53.0654 0
272.824 52.3211 0
475.371 4.0353 0
479.65 1.44818 0
169.433 50.5305 0
168.082 45.7166 0
95.0404 16.0645 0
90.4304 14.1285 0
162.463 1.80954 0
167.461 1.93816 0
6.26753 4.45925 0
2.29345 7.4935 0
232.242 59.2504 0
233.776 54.4915 0
343.526 20.8402 0
346.709 24.6961 0
162.451 47.1366 0
163.898 42.3506 0
206.335 19.1152 0
201.872 16.8597 0
285.183 57.2576 0
289.338 54.476 0
28.2447 25.0405 0
23.841 27.4085 0
413.781 45.3049 0
412.901 50.2269 0
154.627 8.20606 0
157.954 4.47422 0
231.263 20.6233 0
233.409 25.1393 0
242.502 12.8069 0
237.846 10.9824 0
477.725 25.6387 0
475.497 30.1149 0
116.686 17.817 0
121.031 15.3429 0
453.212 6.87762 0
454.442 11.7239 0
408.542 48.5049 0
413.103 50.5542 0
241.781 58.8423 0
246.414 56.9614 0
394.702 53.6463 0
394.483 58.6415 0
479.665 11.6146 0
474.925 10.0246 0
97.4971 15.464 0
102 17.6379 0
414.028 28.2765 0
418.967 27.4939 0
208.202 8.08194 0
205.125 4.14101 0
58.3818 47.5467 0
59.6738 52.3769 0
14.5405 35.4092 0
18.7365 32.6902 0
245.466 29.9966 0
247.751 34.4436 0
257.522 47.6722 0
261.157 51.1058 0
285.73 45.2384 0
290.72 45.5634 0
360.982 28.3067 0
365.803 29.6306 0
465.325 31.5091 0
460.343 31.9419 0
2.51849 51.5659 0
1.31664 56.4193 0
74.0096 25.2317 0
79.0096 25.2229 0
474.111 54.35 0
471.437 50.1252 0
163.69 2.15402 0
168.664 1.64525 0
396.773 50.3337 0
396.142 55.2936 0
387.019 54.4583 0
383.278 57.7764 0
280.712 39.7718 0
283.06 44.1859 0
331.354 26.9484 0
336.303 27.6573 0
420.445 33.0089 0
416.726 29.6667 0
238.306 8.5301 0
233.403 7.55124 0
49.4636 24.7338 0
50.5007 19.8425 0
7.59693 32.6807 0
12.5969 32.7047 0
162.893 29.0111 0
167.46 31.0483 0
100.799 13.0751 0
97.3759 9.43035 0
35.6852 51.0778 0
40.0653 53.4893 0
494.362 53.786 0
498.614 56.4166 0
334.913 12.1416 0
338.55 8.70999 0
226.447 30.5744 0
226.731 25.5824 0
436.696 56.681 0
432.35 59.1516 0
416.14 29.0597 0
417.782 24.337 0
462.172 52.9451 0
461.898 47.9526 0
87.8755 23.2015 0
90.043 18.6957 0
429.175 33.388 0
424.375 31.9885 0
353.03 10.7603 0
348.046 10.3528 0
247.413 43.3181 0
242.766 45.1635 0
117.14 50.639 0
121.838 52.3511 0
385.51 15.4666 0
388.11 11.1958 0
309.958 10.9577 0
305.497 13.2165 0
216.545 16.6856 0
221.401 17.8744 0
9.44291 23.6575 0
10.4231 18.7545 0
215.473 10.8695 0
220.287 12.2218 0
410.822 51.9457 0
405.827 51.7152 0
196.208 18.3865 0
201.098 19.4316 0
192.002 48.5456 0
196.733 46.9262 0
39.1892 38.3034 0
37.9118 33.4693 0
486.577 16.1314 0
481.613 16.7351 0
457.082 56.3621 0
461.955 57.4818 0
247.28 40.1618 0
246.573 45.1116 0
134.056 25.9062 0
139.056 25.8759 0
62.3111 33.2764 0
64.699 37.6693 0
285.15 45.2965 0
283.508 50.0192 0
441.054 41.2026 0
443.794 45.3851 0
249.577 54.5962 0
254.524 55.32 0
140.728 25.1653 0
140.415 20.1751 0
406.06 16.2518 0
401.453 18.1956 0
267.364 14.4546 0
264.482 10.3694 0
318.866 20.0531 0
313.918 20.7742 0
142.952 51.5932 0
147.61 49.7754 0
449.027 39.4269 0
444.793 36.7677 0
77.1074 14.6439 0
78.0357 19.557 0
148.56 19.5695 0
146.055 23.8968 0
498.662 23.8074 0
499.653 18.9066 0
353.784 52.4143 0
352.21 47.6683 0
250.171 14.525 0
249.662 9.55086 0
398.528 58.1009 0
403.528 58.105 0
212.332 4.27538 0
216.591 1.65554 0
345.736 11.0921 0
348.49 6.91912 0
250.756 23.7873 0
247.585 27.6533 0
461.968 44.3516 0
466.426 42.087 0
338.631 58.2341 0
336.168 53.8831 0
34.9224 14.904 0
31.1996 11.5661 0
3.45777 53.3937 0
8.28946 52.1073 0
242.913 17.9548 0
242.813 12.9558 0
110.33 51.7549 0
106.309 48.7823 0
273.167 29.9667 0
278.166 30.0784 0
451.443 34.1928 0
451.882 29.2122 0
380.459 11.4822 0
375.531 10.6355 0
27.3545 3.84579 0
26.0785 8.68025 0
169.337 21.3607 0
173.827 19.1604 0
224.805 59.9193 0
224.158 54.9613 0
459.253 44.9803 0
464.088 46.2548 0
336.799 30.9486 0
335.611 35.8054 0
268.999 7.57118 0
272.858 10.7497 0
210.45 54.3793 0
211.778 49.5589 0
327.504 10.7333 0
326.952 15.7028 0
368.921 12.3614 0
365.179 9.04545 0
129.526 35.3434 0
128.909 30.3816 0
395.43 6.80469 0
397.565 11.3257 0
319.288 12.2747 0
319.241 17.2745 0
268.259 29.8092 0
270.77 34.133 0
106.92 57.183 0
103.226 53.8127 0
417.044 42.6773 0
418.336 47.5074 0
385.779 1.00613 0
387.208 5.79749 0
282.488 24.1373 0
278.358 21.3177 0
155.342 16.8357 0
154.697 21.7939 0
152.44 39.1271 0
156.972 37.0157 0
202.023 47.4731 0
197.423 49.4321 0
392.052 38.6133 0
396.019 41.6564 0
353.381 54.5785 0
358.282 55.5644 0
476.519 27.7955 0
471.914 29.7448 0
56.6097 41.5785 0
54.0138 45.8518 0
451.003 28.4724 0
451.983 33.3753 0
113.574 6.91483 0
114.949 11.722 0
298.619 9.37218 0
301.3 13.5931 0
14.2077 44.054 0
15.2985 48.9336 0
216.624 22.998 0
212.273 25.4629 0
220.843 27.1864 0
222.457 31.9188 0
245.822 14.2104 0
250.72 13.2031 0
406.708 41.5013 0
405.584 46.3733 0
259.305 37.6913 0
254.332 37.1696 0
342.068 48.2328 0
344.239 43.7287 0
432.674 49.3807 0
437.572 50.3874 0
62.6919 58.7803 0
59.5138 54.9202 0
318.084 9.90064 0
322.72 8.02862 0
255.178 58.8895 0
259.619 56.5925 0
82.7313 4.10884 0
81.1881 8.86472 0
71.5669 1.17591 0
66.5819 1.56303 0
333.717 27.806 0
331.475 32.2752 0
114.225 58.1155 0
110.926 54.3586 0
305.771 39.5728 0
308.615 35.4599 0
202.496 10.6915 0
199.493 14.6896 0
189.248 55.1739 0
190.847 50.4366 0
61.6037 11.5381 0
57.3782 8.86503 0
147.994 34.0805 0
147.807 39.077 0
74.0989 44.6052 0
69.1938 45.5748 0
402.746 54.612 0
403.98 59.4572 0
174.601 26.9408 0
171.444 23.0634 0
27.4627 7.70005 0
31.2932 4.48645 0
31.1398 25.3953 0
26.1638 24.906 0
263.532 6.4739 0
265.279 11.159 0
426.046 40.2618 0
421.115 39.4367 0
211.381 32.039 0
216.37 31.702 0
228.312 37.6003 0
223.547 36.0852 0
313.347 16.4476 0
318.147 17.8475 0
68.8261 34.0505 0
67.8781 38.9598 0
60.1432 16.5976 0
62.209 21.1509 0
469.376 59.4999 0
474.166 58.0669 0
272.697 19.4818 0
269.014 16.1004 0
44.821 25.8079 0
41.2518 22.3064 0
231.126 58.9804 0
228.879 54.5139 0
460.599 29.848 0
464.003 33.5101 0
19.7625 42.7042 0
21.6184 47.347 0
461.555 31.4609 0
460.897 36.4174 0
157.576 25.25 0
155.159 20.8726 0
222.119 41.9192 0
218.657 38.3115 0
407.485 52.7767 0
412.193 51.0943 0
352.156 34.5785 0
347.215 33.8111 0
116.677 39.6994 0
114.829 35.0536 0
414.467 46.2179 0
417.935 42.6162 0
473.191 55.8059 0
475.784 51.5309 0
431.997 40.3716 0
427.041 41.0342 0
373.78 1.90541 0
374.594 6.83872 0
454.962 40.6996 0
459.909 39.975 0
284.626 24.0851 0
279.921 22.3926 0
476.002 4.52711 0
471.747 7.15303 0
268.437 36.9023 0
272.695 39.524 0
391.355 47.6075 0
386.355 47.606 0
46.0477 10.1726 0
50.5557 12.3353 0
200.653 4.00529 0
195.831 5.32958 0
428.283 51.5615 0
424.407 48.4028 0
417.638 57.5475 0
412.66 57.0817 0
206.68 54.7642 0
202.696 57.7861 0
481.121 32.1395 0
478.092 28.1615 0
93.1481 38.6932 0
95.367 43.1739 0
486.671 3.74507 0
483.727 7.78697 0
13.871 29.8695 0
18.8329 29.2537 0
244.374 7.594 0
239.38 7.35451 0
56.7604 38.1857 0
51.9214 36.927 0
132.053 8.782 0
131.354 13.733 0
60.9095 44.0614 0
59.5969 48.886 0
76.5569 7.08451 0
81.4405 8.15701 0
162.936 22.8067 0
167.93 22.5529 0
55.1199 44.7034 0
55.9097 49.6407 0
466.621 14.5201 0
471.068 16.8068 0
380.093 30.0794 0
377.809 25.6318 0
192.117 4.46162 0
197.008 3.424 0
103.7 49.28 0
98.7828 50.1887 0
456.336 45.2006 0
460.791 42.9303 0
482.777 26.779 0
479.02 30.0777 0
439.422 55.9754 0
444.416 55.7245 0
468.386 30.7592 0
467.215 25.8983 0
78.7208 17.8204 0
83.7188 17.6805 0
119.598 7.90124 0
117.025 12.1885 0
315.704 49.1195 0
320.612 48.1614 0
94.268 8.3318 0
96.4858 3.85054 0
104.724 9.42551 0
99.9172 10.8012 0
70.8452 59.5354 0
73.0623 55.0538 0
362.323 15.9212 0
357.327 15.7259 0
165.177 34.1127 0
160.209 34.6711 0
234.662 7.53171 0
234.392 2.539 0
219.553 3.43576 0
214.767 1.99041 0
228.504 30.3723 0
226.971 35.1315 0
277.811 24.7542 0
281.619 21.5147 0
64.0487 51.6548 0
66.2516 47.1663 0
362.878 41.0352 0
357.902 40.5519 0
217.701 13.9362 0
222.457 12.3945 0
9.42139 46.5652 0
9.05798 41.5784 0
46.9131 14.124 0
44.9092 18.7048 0
18.0592 29.5566 0
18.3842 24.5671 0
320.101 12.74 0
316.338 9.44776 0
57.9259 13.697 0
55.7226 9.20864 0
253.846 0.982722 0
251.615 5.45765 0
291.135 11.1203 0
296.036 10.1306 0
468.043 33.5193 0
463.732 36.051 0
181.35 37.4896 0
183.063 42.187 0
251.663 30.081 0
251.976 35.0713 0
237.795 32.597 0
242.71 31.678 0
164.645 31.4391 0
164.374 36.4318 0
163.786 42.4826 0
168.614 43.7827 0
101.143 44.1857 0
105.276 47.0001 0
443.984 42.1609 0
445.989 37.5807 0
307.974 17.121 0
307.483 22.0967 0
444.839 10.8999 0
448.499 14.3066 0
361.475 58.5308 0
365.979 56.3585 0
199.39 43.4104 0
200.092 48.3608 0
331.967 27.5615 0
329.141 31.6864 0
420.643 19.2726 0
425.569 18.4179 0
130.587 34.6903 0
131.803 39.5401 0
74.2404 8.44859 0
69.4197 7.12181 0
349.538 16.9226 0
351.783 12.4549 0
157.702 11.1033 0
161.436 7.77856 0
116.299 31.7671 0
111.396 30.7858 0
398.515 6.7145 0
402.861 9.18617 0
57.87 25.8489 0
62.5524 27.6025 0
88.8465 19.4012 0
93.6131 20.9112 0
228.802 40.6266 0
223.802 40.6321 0
233.792 16.6769 0
229.672 19.5107 0
143.455 43.0748 0
139.073 40.6662 0
280.441 6.72335 0
276.597 9.92174 0
334.148 29.6987 0
332.351 34.3649 0
152.073 30.7706 0
154.319 35.2375 0
142.496 23.3621 0
144.02 18.5998 0
477.956 10.1511 0
480.91 14.1851 0
137.055 40.9413 0
135.326 36.2495 0
145.338 21.9058 0
150.284 21.1709 0
339.821 11.0876 0
343.173 7.37789 0
165.705 24.9672 0
168.356 29.2066 0
391.475 8.62927 0
387.447 5.66731 0
15.0895 8.85088 0
17.5181 4.48031 0
466.023 53.5141 0
470.816 54.9361 0
133.641 28.6005 0
138.637 28.4135 0
157.569 16.2834 0
153.324 18.924 0
143.82 42.171 0
147.531 38.8197 0
447.083 49.1401 0
447.32 44.1457 0
43.6322 0.224357 0
45.9839 4.63679 0
131.579 5.01506 0
136.114 2.90809 0
101.756 5.04924 0
96.8179 5.83504 0
223.475 49.6917 0
220.629 53.8026 0
230.332 39.2123 0
228.003 34.788 0
63.3423 51.1407 0
63.382 56.1405 0
450.443 33.0614 0
448.762 37.7702 0
258.852 24.8685 0
255.189 28.2721 0
237.246 38.3747 0
232.254 38.091 0
472.299 41.1854 0
475.252 45.2204 0
258.997 51.2615 0
263.996 51.3519 0
244.044 36.842 0
243.654 31.8573 0
428.775 16.3216 0
424.474 18.8703 0
139.38 54.0674 0
139.581 59.0634 0
353.477 18.2086 0
358.415 17.4256 0
287.351 52.6455 0
287.145 47.6497 0
118.781 8.80888 0
118.313 3.8308 0
115.897 28.7206 0
114.062 33.3719 0
482.568 45.7517 0
483.532 50.6579 0
160.823 42.7589 0
155.946 43.8591 0
15.3901 35.1723 0
15.6889 30.1812 0
268.333 33.3055 0
266.981 38.1192 0
457.928 39.6857 0
454.747 43.5432 0
150.824 28.8074 0
150.744 23.808 0
271.312 26.316 0
267.378 29.4026 0
344.782 47.3024 0
339.991 45.8724 0
202.019 48.9207 0
198.217 45.6742 0
427.274 17.3464 0
428.217 12.4361 0
168.477 18.2242 0
172.984 16.0592 0
306.061 54.1525 0
304.639 58.946 0
64.0555 37.3403 0
60.8607 41.1865 0
273.814 23.0568 0
271.796 27.6314 0
420.381 28.4235 0
416.008 25.9997 0
199.506 19.7376 0
195.923 16.2494 0
384.751 9.76955 0
380.028 8.12884 0
340.976 17.6345 0
345.7 19.274 0
242.505 26.4783 0
247.36 25.283 0
323.997 6.3916 0
324.558 11.36 0
47.3365 21.0613 0
42.3715 21.6522 0
478.623 28.7465 0
474.117 26.5788 0
409.289 47.2083 0
411.312 42.6356 0
402.273 50.7511 0
397.655 52.6688 0
484.342 12.4428 0
485.483 7.57493 0
181.259 42.499 0
177.565 45.8684 0
390.883 23.7576 0
386.446 21.4541 0
176.996 15.2628 0
181.957 15.8898 0
55.9633 53.6918 0
51.0496 54.6169 0
192.935 52.7171 0
188.97 55.763 0
359.836 13.7898 0
354.896 14.5626 0
138.011 5.43206 0
142.993 5.01012 0
95.8498 12.3068 0
98.37 16.6252 0
468.529 8.6183 0
467.866 13.5741 0
352.751 14.6607 0
357.314 16.7057 0
245.518 30.3101 0
250.458 31.0824 0
163.439 51.8885 0
165.441 47.3069 0
142.524 12.734 0
137.912 10.8027 0
86.136 37.1151 0
88.2914 32.6036 0
446.069 12.4924 0
449.201 16.3901 0
482.102 35.0722 0
481.728 30.0862 0
280.796 28.3064 0
284.989 31.0303 0
66.0185 41.9887 0
61.9131 44.8428 0
40.6063 8.0082 0
35.7297 9.11191 0
382.779 41.2955 0
377.885 40.2703 0
50.5555 59.4411 0
51.5502 54.541 0
108.138 38.0161 0
110.771 33.7655 0
120.608 19.7956 0
124.946 22.2812 0
227.583 42.9885 0
230.961 46.6752 0
228.063 40.5362 0
223.096 41.1139 0
492.394 55.1019 0
495.112 50.9052 0
118.419 6.78591 0
118.12 11.777 0
115.676 43.1895 0
114.101 38.444 0
130.506 33.0529 0
125.96 30.9721 0
444.505 29.0756 0
439.506 28.9645 0
84.6657 56.3066 0
80.7629 59.4319 0
67.8013 32.888 0
65.137 37.119 0
432.865 39.0334 0
428.02 37.7992 0
248.423 43.5674 0
244.896 40.0225 0
365.853 19.425 0
368.344 23.7603 0
75.3723 20.7136 0
74.9784 15.7291 0
194.215 45.1926 0
198.237 42.2214 0
242.596 40.7309 0
247.184 38.7432 0
263.461 5.63497 0
260.974 1.29735 0
384.924 29.7416 0
385.739 34.6748 0
495.094 48.573 0
499.074 51.5994 0
62.8239 24.2051 0
67.2363 21.8532 0
243.614 49.5147 0
240.254 45.8117 0
430.072 41.6425 0
430.163 36.6433 0
358.089 56.9486 0
354.024 54.0376 0
220.302 42.6009 0
224.241 39.5213 0
84.7292 32.0332 0
89.728 32.14 0
335.699 12.6393 0
338.458 8.46925 0
383.479 28.9017 0
386.905 25.2603 0
209.697 13.0692 0
205.09 11.1272 0
365.621 2.22506 0
370.454 0.942869 0
154.855 9.77896 0
152.074 13.934 0
225.432 52.7536 0
221.844 49.2707 0
460.349 0.156684 0
460.242 5.15555 0
265.504 29.7091 0
263.233 25.2544 0
493.17 28.0952 0
488.173 27.9175 0
244.485 41.6285 0
247.242 45.7996 0
88.2533 39.9358 0
92.7673 37.7854 0
369.457 38.9849 0
365.275 36.2445 0
21.398 43.3969 0
19.8848 38.6313 0
329.814 51.8535 0
330.378 56.8215 0
83.8311 26.8598 0
88.5996 25.3559 0
370.268 27.5485 0
367.981 31.9953 0
383.728 10.1293 0
387.643 13.2388 0
139.42 14.2635 0
138.689 9.31713 0
483.373 2.27388 0
488.018 0.423062 0
109.893 9.50553 0
112.334 5.14216 0
383.354 44.6006 0
383.826 49.5782 0
123.168 3.97918 0
128.144 3.48577 0
466.968 28.8852 0
471.054 26.0034 0
248.547 23.5419 0
252.063 27.0977 0
123.647 52.5012 0
127.183 56.0365 0
126.027 56.7718 0
121.12 57.7359 0
209.403 5.03395 0
214.053 3.19562 0
361.81 58.5984 0
363.996 54.102 0
96.7793 41.5166 0
101.765 41.8982 0
271.163 3.73581 0
271.182 8.73577 0
155.267 10.4416 0
160.144 9.33888 0
290.042 7.18937 0
292.207 11.6966 0
455.6 40.27 0
456.662 45.1558 0
10.1485 22.2409 0
15.0992 21.5402 0
233.943 34.0969 0
237.466 37.6443 0
436.493 8.5035 0
432.227 5.89608 0
124.654 26.8168 0
127.928 30.5953 0
487.416 30.5986 0
482.434 31.0177 0
347.48 25.9261 0
346.423 30.8132 0
11.7904 5.56118 0
16.2595 7.80333 0
284.196 1.74489 0
289.188 1.46772 0
196.715 16.4313 0
193.605 12.5164 0
75.9168 27.8936 0
71.524 25.5053 0
293.447 50.2563 0
298.014 52.2918 0
42.7483 21.8341 0
47.2683 19.6963 0
228.957 48.3647 0
233.882 49.2308 0
153.348 42.8901 0
157.915 44.9247 0
495.05 46.5253 0
490.947 49.3823 0
95.2998 57.3108 0
100.054 58.8597 0
34.0851 44.0714 0
29.3072 42.5977 0
453.246 14.3884 0
448.706 12.2941 0
371.242 33.2926 0
370.448 28.356 0
436.732 29.4196 0
440.321 25.9387 0
445.821 28.2211 0
442.345 31.8153 0
239.421 2.70743 0
235.744 6.09636 0
26.4149 38.5328 0
24.6091 33.8703 0
281.758 43.5371 0
286.412 45.3666 0
330.331 47.3234 0
334.327 50.3291 0
117.649 28.1028 0
121.936 25.5299 0
360.197 54.6781 0
364.543 52.205 0
431.423 4.6049 0
432.807 9.40937 0
305.682 8.49703 0
310.542 7.32147 0
241.543 41.0846 0
240.856 46.0372 0
240.862 33.8706 0
243.686 37.9964 0
371.46 2.84549 0
368.583 6.93453 0
392.903 42.7031 0
397.33 45.026 0
41.2677 6.86984 0
45.3093 3.92606 0
68.8262 27.1879 0
66.395 22.8188 0
426.674 14.6211 0
423.287 10.9427 0
384.28 56.9263 0
383.035 52.0839 0
484.885 26.5275 0
487.941 22.5697 0
208.173 17.8609 0
212.849 19.6297 0
379.681 43.2957 0
381.115 48.0854 0
273.133 32.3201 0
269.163 29.2806 0
483.26 43.7682 0
487.762 41.5921 0
428.117 18.5115 0
427.761 13.5241 0
67.0694 18.2947 0
62.0718 18.1402 0
232.915 36.1588 0
236.331 39.8094 0
179.033 51.1325 0
178.737 46.1413 0
256.644 42.1199 0
256.265 47.1055 0
468.083 23.4896 0
471.035 27.5254 0
114.119 24.3918 0
110.724 20.7215 0
286.493 38.5429 0
285.189 33.716 0
466.767 51.3676 0
469.155 46.9747 0
482.715 44.6201 0
487.609 43.5939 0
42.1067 38.4586 0
45.8204 35.1107 0
125.022 48.9539 0
129.937 49.8741 0
323.99 32.2928 0
321.895 27.753 0
286.142 45.5689 0
290.237 42.7002 0
352.769 21.2165 0
354.84 25.7675 0
111.746 3.56385 0
111.773 8.56378 0
57.7272 18.8906 0
55.6903 14.3243 0
175.872 58.217 0
175.663 53.2214 0
239.979 43.2178 0
235.018 42.5991 0
272.107 22.0816 0
276.93 20.7622 0
270.633 26.7012 0
271.995 31.5123 0
118.062 38.7893 0
115.144 42.8496 0
309.939 28.7929 0
311.492 33.5455 0
49.8904 9.16813 0
45.3753 7.02017 0
141.356 9.03934 0
141.637 14.0314 0
312.884 23.5794 0
310.435 19.2202 0
413.432 55.1983 0
410.03 58.8625 0
53.3678 17.8113 0
54.3152 22.7207 0
196.384 58.9856 0
191.828 56.9269 0
397.228 19.4699 0
401.368 16.6654 0
141.465 52.6033 0
143.335 47.966 0
95.3106 56.9328 0
91.1189 54.2071 0
275.756 7.34302 0
273.58 11.8445 0
12.7238 9.56506 0
8.74154 12.5886 0
85.4229 10.9986 0
81.7067 14.3438 0
188.229 5.43822 0
191.557 1.70657 0
158.378 53.1582 0
160.269 57.7871 0
282.718 22.7138 0
280.877 18.0649 0
494.993 21.7248 0
490.386 19.7817 0
371.409 6.91391 0
375.702 4.35063 0
296.484 0.794712 0
301.275 2.22278 0
363.166 34.052 0
358.319 35.2793 0
89.2321 40.1334 0
84.8485 37.7283 0
73.8304 26.4295 0
73.0193 31.3633 0
447.659 30.9955 0
448.333 35.95 0
270.46 11.6271 0
269.655 6.6924 0
239.197 31.8987 0
240.665 36.6783 0
338.37 59.883 0
335.596 55.723 0
73.836 45.916 0
70.7659 49.8624 0
427.783 8.36878 0
422.949 7.09095 0
157.694 2.0924 0
155.193 6.42221 0
320.622 5.52881 0
324.691 8.43439 0
471.21 37.6147 0
471.763 42.5841 0
415.557 49.6808 0
420.095 51.7811 0
454.333 17.4127 0
451.831 13.0838 0
146.907 44.6578 0
148.545 39.9338 0
485.565 32.5472 0
480.932 34.4278 0
497.498 45.2347 0
499.856 40.8259 0
337.044 44.4974 0
339.03 39.9087 0
399.454 47.9077 0
401.029 52.6531 0
441.398 26.035 0
444.133 21.8498 0
141.845 33.8852 0
143.666 38.542 0
281.54 30.5382 0
285.835 33.0979 0
488.66 50.6943 0
484.222 48.3924 0
2.48979 14.7495 0
3.13277 19.7079 0
327.213 2.69376 0
322.625 0.707522 0
24.3386 37.9272 0
19.3844 38.6024 0
365.982 5.47468 0
367.766 0.803582 0
66.8868 14.2314 0
66.7068 9.23469 0
179.351 49.49 0
175.717 52.9232 0
145.203 38.0658 0
140.207 38.2852 0
131.861 20.5221 0
135.493 23.9583 0
36.3155 55.6479 0
31.3171 55.774 0
206.776 58.0944 0
203.859 54.0339 0
322.897 6.53785 0
319.756 2.64742 0
411.468 47.2401 0
416.462 47.0089 0
54.5335 48.2666 0
59.046 50.42 0
421.457 2.07474 0
416.923 4.18215 0
413.999 26.6277 0
415.249 31.4688 0
14.9066 3.31525 0
10.9507 0.2574 0
181.486 6.04018 0
177.075 8.3933 0
150.478 47.9709 0
155.411 47.1559 0
250.456 54.2907 0
245.974 56.5082 0
221.521 38.7947 0
226.4 37.7009 0
175.665 13.981 0
172.128 10.4472 0
8.58728 29.2893 0
6.94564 34.0121 0
310.876 44.1256 0
309.467 39.3282 0
60.6001 50.2505 0
63.5122 54.315 0
360.099 46.9421 0
355.31 45.5043 0
139.369 17.622 0
141.141 22.2976 0
81.8485 11.1381 0
84.1269 6.68736 0
469.732 8.43755 0
469.511 13.4327 0
379.07 49.8693 0
376.388 54.0891 0
347.97 56.3986 0
343.451 58.5391 0
493.305 10.3012 0
489.158 13.0944 0
430.516 40.9982 0
426.958 37.4853 0
86.4553 25.7327 0
84.0742 21.3361 0
261.408 35.911 0
264.964 39.4255 0
76.6785 5.73305 0
76.3368 0.744739 0
116.835 50.6466 0
117.362 45.6745 0
4.62263 44.0962 0
2.98955 48.822 0
16.3648 16.8226 0
11.6029 15.2979 0
120.98 42.7854 0
117.337 39.3606 0
14.2786 48.073 0
12.1952 43.5278 0
243.127 54.5205 0
247.232 57.376 0
421.225 24.807 0
423.503 29.2582 0
443.892 8.47473 0
448.848 9.13447 0
56.0742 51.4054 0
58.9995 55.4603 0
328.329 52.9679 0
331.084 48.7957 0
144.255 36.303 0
144.534 31.3108 0
82.4762 30.8642 0
84.6446 26.3589 0
435.757 50.4766 0
431.515 53.1225 0
430.155 47.5423 0
432.791 43.2933 0
469.94 39.9016 0
467.459 35.5603 0
88.0712 11.2607 0
90.4446 15.6615 0
28.9016 4.2694 0
33.0973 6.98888 0
219.196 18.8025 0
221.706 23.127 0
122.905 58.0881 0
117.911 57.8447 0
156.353 41.9021 0
153.189 45.7733 0
30.7079 46.2199 0
26.7154 43.2099 0
446.395 57.9593 0
441.409 57.5891 0
80.0156 24.9759 0
79.8183 19.9798 0
279.907 11.4256 0
283.125 7.59934 0
21.4684 11.6343 0
19.2351 16.1078 0
14.252 34.3121 0
9.39333 35.4923 0
114.097 5.82224 0
118.844 4.25057 0
241.39 49.001 0
236.693 50.716 0
415.917 30.0722 0
420.847 30.9051 0
331.898 16.2497 0
329.572 20.676 0
92.535 10.6555 0
88.3191 13.3437 0
476.827 27.0485 0
471.829 26.9188 0
299.815 59.3813 0
304.799 58.983 0
278.715 28.9976 0
280.204 33.7709 0
112.986 38.3605 0
108.135 39.5716 0
229.555 16.8875 0
225.226 14.3859 0
133.053 13.2352 0
128.304 14.8004 0
90.2938 52.0233 0
87.1555 55.9157 0
366.979 40.7621 0
367.11 45.7604 0
143.037 25.6438 0
141.689 30.4589 0
224.449 28.6621 0
229.006 26.6036 0
369.219 54.7863 0
369.855 49.8269 0
268.943 27.7426 0
273.045 30.6008 0
63.5028 45.4445 0
58.6051 44.4381 0
9.9133 42.7459 0
14.2389 40.2381 0
49.5781 19.6315 0
49.1465 24.6129 0
262.923 47.226 0
257.961 47.8459 0
361.487 13.8673 0
365.227 17.1861 0
269.979 21.8368 0
265.232 23.4075 0
371.589 35.3242 0
372.299 40.2735 0
449.882 56.4708 0
454.691 57.8422 0
174.93 45.9212 0
179.878 45.2051 0
40.3719 44.9082 0
37.6196 49.0826 0
270.269 45.7148 0
267.988 50.1646 0
488.616 46.5241 0
483.823 45.0998 0
116.803 51.9204 0
120.514 55.2713 0
376.87 34.9519 0
381.137 37.5573 0
207.382 42.573 0
203.969 46.2265 0
313.226 20.5011 0
317.292 23.4108 0
226.338 57.1415 0
224.053 52.6941 0
83.6327 44.8884 0
79.4732 47.663 0
79.9364 48.3109 0
76.9232 52.301 0
59.4087 11.2028 0
64.0892 9.44405 0
141.894 48.0775 0
137.132 46.555 0
346.045 40.5612 0
347.398 35.7479 0
278.275 0.88692 0
276.422 5.5309 0
236.363 3.38403 0
231.46 2.4036 0
335.048 17.5809 0
330.099 18.2936 0
5.60806 47.3538 0
0.763505 46.1168 0
70.822 2.04687 0
67.6792 5.93566 0
306.051 12.0769 0
309.597 8.55134 0
187.383 26.4387 0
191.797 24.0898 0
459.073 23.9841 0
461.382 28.4193 0
351.423 49.6904 0
356.377 49.012 0
259.036 7.56517 0
263.116 10.4559 0
342.789 3.64749 0
346.717 6.7416 0
482.919 48.6309 0
487.916 48.4441 0
394.807 4.53797 0
397.819 0.547032 0
437.205 44.6682 0
440.973 41.3819 0
66.4206 28.0751 0
71.3381 27.1707 0
477.632 27.2645 0
473.157 25.0344 0
48.5908 57.0193 0
45.1107 53.4291 0
426.585 2.4761 0
431.574 2.13675 0
276.361 39.8828 0
278.427 35.3297 0
176.801 30.3783 0
172.227 32.3971 0
484.58 44.379 0
489.119 42.2811 0
354.774 35.7006 0
356.295 40.4635 0
346.248 15.5752 0
346.536 10.5835 0
377.944 12.4991 0
376.234 17.1975 0
444.775 39.5882 0
439.812 38.978 0
168.383 15.1826 0
170.395 10.6051 0
298.217 44.6473 0
302.35 47.4618 0
86.4807 56.5978 0
81.5758 57.5682 0
143.616 43.6077 0
143.438 48.6045 0
178.428 32.7259 0
183.411 33.1373 0
69.9911 25.6186 0
66.0573 28.7048 0
393.881 45.8777 0
397.878 42.874 0
86.5026 7.83414 0
91.2924 6.39955 0
221.667 13.7735 0
222.145 18.7506 0
482.455 22.671 0
487.441 23.0352 0
175.322 15.6032 0
170.73 13.6251 0
152.092 53.9121 0
150.053 49.3467 0
180.422 12.5716 0
179.626 7.63539 0
154.308 32.015 0
149.346 31.3998 0
144.981 14.3299 0
141.146 11.1219 0
474.214 42.6839 0
470.648 39.18 0
449.145 13.0157 0
454.145 13.004 0
288.64 49.3126 0
292.914 46.7173 0
287.265 27.2626 0
282.874 29.655 0
168.543 25.8735 0
171.072 21.5604 0
378.683 9.0915 0
379.59 14.0084 0
475.293 9.68769 0
470.294 9.78669 0
299.005 43.8724 0
294.008 44.0315 0
345.562 36.3787 0
350.49 35.5327 0
354.015 14.3069 0
354.59 9.34009 0
183.879 49.523 0
186.474 53.7969 0
463.513 24.5745 0
468.406 23.5468 0
54.6519 5.60546 0
54.2791 0.619369 0
490.606 4.85892 0
491.834 0.0120306 0
383.42 4.91501 0
383.109 9.90531 0
270.678 54.2856 0
266.66 51.3094 0
230.524 4.07174 0
233.921 7.73998 0
396.122 15.9773 0
392.356 12.6886 0
44.2841 9.73189 0
39.2855 9.84904 0
198.629 44.6648 0
194.082 42.5851 0
362.725 56.7506 0
362.728 51.7506 0
207.334 6.23857 0
204.649 2.0207 0
208.289 41.4614 0
209.509 46.3102 0
487.271 38.1649 0
491.762 40.3631 0
291.48 54.7462 0
290.221 49.9074 0
235.55 50.823 0
232.396 54.7024 0
74.7284 54.5975 0
70.9221 57.8398 0
80.6613 42.1323 0
82.7606 46.6703 0
386.642 14.6835 0
389.541 18.7575 0
107.249 51.452 0
105.693 56.2039 0
239.54 12.9416 0
234.748 11.5126 0
465.122 19.9487 0
462.655 24.2975 0
126.988 39.0406 0
123.575 42.6946 0
53.2302 30.4309 0
51.1762 34.9896 0
283.352 29.6989 0
281.113 25.2283 0
410.953 39.0247 0
415.142 41.7546 0
129.344 17.2711 0
126.025 13.5316 0
153.35 42.4931 0
152.06 37.6621 0
154.393 3.8714 0
151.194 7.7139 0
300.39 40.587 0
305.388 40.718 0
332.646 2.0703 0
337.401 3.61627 0
139.411 44.8194 0
143.111 41.4558 0
375.552 35.5969 0
377.762 40.0816 0
450.744 52.4017 0
455.736 52.6906 0
17.4792 25.0627 0
21.9791 22.8831 0
249.485 57.35 0
244.69 58.7657 0
146.389 18.1625 0
146.607 13.1672 0
324.379 39.7586 0
319.544 41.0327 0
283.907 30.5003 0
288.624 28.8432 0
488.722 19.3547 0
490.324 14.6183 0
221.715 24.9155 0
223.12 29.714 0
329.444 13.4182 0
331.009 18.1672 0
365.804 39.493 0
361.825 42.5206 0
33.4823 40.1914 0
28.5033 40.6487 0
182.618 22.9357 0
184.525 27.5575 0
336.772 16.231 0
334.743 11.6614 0
169.275 23.2315 0
173.238 26.2805 0
316.445 7.90898 0
314.189 12.3709 0
420.015 46.9313 0
420.405 51.9161 0
499.15 24.4096 0
495.17 21.3823 0
260.007 29.3094 0
263.775 26.023 0
470.605 21.5995 0
474.82 18.9103 0
93.655 0.129489 0
94.3468 5.0814 0
456.815 39.3724 0
451.992 38.0527 0
262.391 31.298 0
267.381 31.6141 0
378.668 12.8397 0
382.491 16.0628 0
46.7453 33.5962 0
50.3689 37.0413 0
361.125 50.9618 0
365.484 53.4108 0
462.573 38.7109 0
460.761 34.0508 0
474.675 21.2043 0
473.172 25.9733 0
158.794 45.8412 0
161.894 49.7642 0
316.38 8.0187 0
311.386 7.76781 0
139.008 53.4098 0
143.976 53.9812 0
443.918 38.3144 0
440.079 35.11 0
384.348 10.3094 0
388.198 7.11877 0
171.719 38.8831 0
175.902 41.6221 0
299.309 46.8797 0
294.629 48.6422 0
449.405 54.1162 0
444.654 52.5587 0
425.567 34.3095 0
420.619 35.0288 0
49.5 23.9509 0
45.2874 26.6441 0
488.676 23.9899 0
483.766 24.9336 0
320.956 5.79285 0
325.618 7.59774 0
364.914 30.3264 0
361.7 34.1572 0
31.29 42.1193 0
33.9505 37.8859 0
226.689 27.4572 0
226.546 22.4592 0
382.242 45.1961 0
381.033 50.0477 0
152.977 52.7912 0
147.982 52.5635 0
52.0831 19.2205 0
53.3136 24.0667 0
244.371 44.3752 0
239.755 46.2956 0
391.51 42.4415 0
391.663 47.4392 0
0.0681071 42.8313 0
4.93229 43.9887 0
177.349 32.4749 0
172.525 33.7881 0
195.206 52.4957 0
196.95 57.1817 0
105.444 51.9419 0
105.949 56.9164 0
336.548 11.6834 0
339.984 15.3162 0
189.869 2.27442 0
191.597 6.96613 0
227.834 11.3844 0
232.7 10.2356 0
326.467 14.8039 0
322.952 11.2484 0
314.12 4.96865 0
311.02 1.04588 0
302.998 14.6474 0
300.171 18.7718 0
288.728 9.00004 0
287.114 13.7325 0
262.471 0.602028 0
259.74 4.79034 0
131.169 31.4236 0
126.253 32.3362 0
35.5461 46.9879 0
30.8382 45.3039 0
478.895 15.7483 0
475.314 12.259 0
189.216 53.8885 0
193.615 56.2653 0
345.389 4.22426 0
349.002 7.68049 0
340.87 22.48 0
336.245 24.3806 0
320.835 0.650836 0
320.834 5.65084 0
197.544 42.1144 0
197.944 47.0983 0
265.292 17.2229 0
269.899 15.2794 0
241.621 42.94 0
246.413 44.3666 0
183.273 29.5842 0
185.088 34.2434 0
256.867 2.9833 0
254.385 7.32333 0
440.208 24.1063 0
441.034 19.175 0
383.524 43.7464 0
381.277 39.2796 0
50.8077 9.45363 0
46.7827 6.48736 0
384.756 27.7894 0
381.673 31.7258 0
13.2636 35.2925 0
11.0042 30.8321 0
474.29 16.249 0
478.722 18.564 0
256.306 50.6965 0
251.762 52.7812 0
105.251 43.9912 0
100.855 41.6086 0
54.1832 42.2161 0
57.9209 38.8949 0
274.186 30.2518 0
279.18 30.5021 0
48.8368 27.8751 0
46.1563 32.0959 0
423.197 56.5252 0
426.374 52.664 0
339.175 31.268 0
343.727 29.198 0
478.75 34.0614 0
478.345 39.045 0
290.728 11.6733 0
291.629 16.5915 0
456.171 30.4487 0
459.868 33.8158 0
360.624 44.8248 0
364.595 41.7873 0
313.039 26.6928 0
308.729 24.1596 0
2.15709 35.1906 0
5.28783 31.2921 0
323.89 13.2338 0
326.937 9.26931 0
450.092 59.1125 0
446.762 55.3829 0
30.7617 24.2523 0
30.5028 19.259 0
21.6575 14.0308 0
25.2709 17.4867 0
62.7635 34.6812 0
61.5743 39.5377 0
26.6315 20.9633 0
28.4516 25.6203 0
12.5806 35.4365 0
8.78898 32.1771 0
87.9808 54.1941 0
92.2758 51.6343 0
393.901 14.829 0
395.955 10.2703 0
210.199 45.5151 0
213.734 49.0514 0
464.995 35.3553 0
468.489 38.9323 0
446.985 41.7414 0
442.179 40.3615 0
226.12 49.5233 0
221.983 52.3318 0
258.925 3.72485 0
262.82 0.589808 0
57.5055 25.0719 0
60.832 28.8048 0
369.276 2.64521 0
373.363 5.52543 0
443.543 56.9491 0
446.938 53.2782 0
410.624 1.35031 0
407.132 4.92898 0
220.012 26.7173 0
216.884 30.6183 0
214.198 54.8273 0
214.764 59.7951 0
491.409 5.79352 0
495.526 8.63088 0
277.464 28.7693 0
278.17 33.7192 0
225.425 22.55 0
223.149 18.0979 0
82.5446 28.3705 0
87.05 30.5388 0
129.423 7.99968 0
130.929 3.23201 0
7.13291 40.3475 0
5.05359 44.8947 0
246.214 20.538 0
241.836 18.1235 0
19.8013 12.7678 0
21.6195 17.4255 0
73.696 12.7803 0
72.3244 7.97209 0
411.592 1.81348 0
412.085 6.78905 0
43.4092 26.975 0
48.0192 28.9111 0
323.203 10.6613 0
319.986 6.83409 0
426.249 10.6162 0
429.796 7.09187 0
149.578 36.0201 0
145.617 32.9693 0
303.595 47.066 0
299.876 43.724 0
62.1618 7.01035 0
66.5363 9.43179 0
93.3877 19.7248 0
92.9388 14.745 0
122.518 39.1771 0
124.654 34.6561 0
422.617 15.1404 0
422.749 10.1422 0
481.993 58.6194 0
486.762 57.1153 0
331.954 11.0635 0
335.124 7.1962 0
13.2584 16.817 0
14.1398 21.7387 0
124.788 14.2169 0
126.719 9.6051 0
480.988 18.0052 0
475.988 18.0484 0
420.084 24.0791 0
420.291 19.0834 0
212.945 28.4228 0
217.842 29.4358 0
53.9587 13.959 0
58.2546 11.4007 0
219.554 18.5288 0
224.306 20.0845 0
455.852 33.5605 0
458.678 37.6853 0
266.994 51.2217 0
264.894 55.7591 0
491.339 6.55338 0
493.458 2.02444 0
426.132 38.391 0
421.868 41.0024 0
71.231 58.4796 0
66.4446 57.0339 0
10.5545 33.5729 0
15.2421 35.3127 0
245.807 20.9416 0
243.151 25.1778 0
185.954 38.7022 0
180.978 38.2127 0
62.5046 20.9391 0
65.8136 24.6874 0
345.65 37.7906 0
342.854 41.9356 0
164.602 4.38415 0
161.432 8.25071 0
416.189 55.8979 0
411.227 55.2833 0
231.951 51.6739 0
229.374 55.9585 0
346.704 38.046 0
345.008 42.7495 0
367.605 5.17843 0
371.244 8.60796 0
157.531 33.0977 0
160.881 29.3861 0
70.5198 22.5008 0
66.6949 19.2806 0
452.725 43.1906 0
457.537 41.831 0
376.409 45.3514 0
372.698 48.703 0
437.054 59.6436 0
433.941 55.7308 0
336.561 52.255 0
331.599 51.6406 0
125.985 53.0303 0
121.171 51.6781 0
345.733 11.6653 0
341.286 9.37974 0
323.479 46.057 0
319.168 43.5244 0
338.316 28.0723 0
343.248 28.8962 0
448.081 51.5262 0
447.937 46.5283 0
1.12659 41.6008 0
6.0883 40.9832 0
51.8398 49.3296 0
46.8669 49.8501 0
32.6492 27.5221 0
34.1809 22.7625 0
62.8474 22.1847 0
62.9699 27.1832 0
493.167 30.772 0
498.162 30.9846 0
468.501 25.0543 0
463.634 26.2013 0
433.032 20.4419 0
437.874 19.1976 0
435.72 24.926 0
434.949 29.8662 0
126.07 51.9786 0
125.12 47.0698 0
98.4515 17.9356 0
102.964 15.7813 0
381.074 35.3632 0
377.183 32.2224 0
201.342 56.5195 0
197.771 53.0193 0
74.8489 50.0152 0
72.6566 45.5214 0
371.887 53.4101 0
370.698 58.2668 0
73.8805 50.7409 0
69.0816 49.3371 0
449.464 33.3922 0
453.659 30.6705 0
365.832 16.8142 0
364.663 21.6755 0
249.008 29.9122 0
252.777 33.1982 0
161.111 34.9846 0
156.227 33.9128 0
89.408 3.49352 0
88.847 8.46194 0
245.786 3.29809 0
242.9 7.38115 0
207.937 40.6266 0
205.611 45.0523 0
354.921 51.6202 0
357.058 47.1001 0
244.353 22.2207 0
249.317 22.8143 0
144.501 35.9596 0
143.001 40.7292 0
419.601 31.6053 0
414.652 30.8956 0
470.918 44.1883 0
466.03 45.242 0
234.822 31.0725 0
233.411 35.8692 0
390.26 46.2486 0
387.462 42.1045 0
457.489 10.0033 0
455.75 14.6912 0
310.752 41.8487 0
312.304 46.6018 0
124.418 54.6998 0
129.409 55.0099 0
278.494 44.7309 0
275.293 48.5715 0
51.7564 19.4753 0
54.4714 15.2767 0
25.3939 55.4139 0
30.3767 54.9995 0
68.4454 44.4766 0
73.3405 43.4577 0
240.552 35.1987 0
242.291 39.8865 0
95.3279 10.6628 0
97.4423 6.13188 0
287.167 33.7145 0
291.446 36.3011 0
384.652 5.73209 0
379.846 4.35491 0
357.525 22.7242 0
356.13 27.5258 0
24.1469 52.2396 0
27.9104 55.5314 0
151.548 8.05509 0
156.012 5.80346 0
459.438 51.2453 0
459.282 56.2428 0
350.061 33.5352 0
345.458 31.5838 0
440.148 27.6101 0
436.202 30.6797 0
220.372 36.0771 0
219.631 31.1324 0
343.102 38.6933 0
338.765 41.1803 0
179.613 1.21331 0
176.154 4.82304 0
148.937 37.4576 0
153.101 40.2261 0
51.1154 54.3968 0
49.5597 49.6449 0
186.292 24.0735 0
191.256 23.4718 0
328.151 33.7988 0
329.21 28.9122 0
438.789 37.4767 0
433.808 37.915 0
317.051 45.3458 0
318.076 40.4521 0
431.66 55.5622 0
427.555 58.4161 0
275.446 1.104 0
274.702 6.04835 0
350.424 16.8976 0
345.554 15.7681 0
427.957 38.9457 0
424.2 35.6462 0
354.381 32.2695 0
349.558 33.5872 0
333.185 36.1685 0
328.853 38.6659 0
443.071 37.7444 0
447.099 40.7069 0
22.4557 9.00499 0
17.6476 10.3771 0
99.6442 54.958 0
99.6071 49.9582 0
309.242 22.8864 0
309.052 17.8901 0
275.44 0.0957297 0
274.942 5.07087 0
114.418 1.55147 0
111.685 5.73858 0
493.395 43.1168 0
498.039 41.2624 0
358.258 51.0406 0
356.319 55.6491 0
472.865 35.645 0
474.232 40.4546 0
78.8115 44.0922 0
78.9426 49.0905 0
208.277 10.0421 0
212.683 12.4061 0
217.924 9.47435 0
218.604 14.4279 0
192.076 7.36825 0
194.144 2.81616 0
380.043 44.8799 0
375.852 42.1528 0
8.06891 58.7063 0
4.69391 55.0172 0
261.153 28.5744 0
261.868 33.523 0
132.864 16.3789 0
130.947 11.7611 0
48.4293 41.7519 0
51.0762 45.9937 0
74.7392 21.465 0
77.7061 17.4404 0
60.723 15.5025 0
55.7778 16.2413 0
145.85 18.3862 0
145.758 13.3871 0
324.183 23.8797 0
328.502 21.3605 0
130.978 4.1357 0
134.341 0.435456 0
221.346 43.6756 0
222.83 38.9009 0
14.8334 41.9745 0
19.7075 43.0895 0
91.1999 5.68332 0
90.4394 10.6252 0
281.257 33.5239 0
286.231 34.0349 0
48.4011 41.4791 0
45.0242 37.7917 0
88.0848 57.5497 0
88.9211 52.6202 0
458.871 22.7382 0
456.217 26.9754 0
50.2599 54.9542 0
48.6133 50.2331 0
17.2042 50.2833 0
22.1754 49.7476 0
113.462 10.8898 0
109.764 7.52526 0
454.757 17.5155 0
456.522 12.8374 0
400.193 48.0789 0
404.753 46.027 0
389.872 44.2447 0
391.418 39.4897 0
348.164 54.1658 0
350.042 49.532 0
422.638 31.6527 0
420.934 36.3535 0
489.684 11.9338 0
494.547 13.0965 0
106.748 47.505 0
105.246 42.7361 0
203.563 13.3577 0
199.8 16.6493 0
99.9064 9.87703 0
97.0825 14.0032 0
102.953 42.6297 0
107.797 43.8681 0
55.749 52.5922 0
55.6712 47.5929 0
113.885 45.6186 0
112.843 50.5087 0
382.585 3.68021 0
379.19 0.00945845 0
146.845 59.4558 0
147.927 54.5744 0
460.351 45.9256 0
456.673 49.3119 0
340.87 24.6024 0
338.452 20.2257 0
243.429 25.0563 0
247.083 28.4689 0
356.579 28.9134 0
361.578 28.978 0
69.4753 39.1596 0
72.3262 43.2672 0
356.81 14.0584 0
354.561 18.524 0
190.961 51.9748 0
189.024 56.5843 0
340.546 23.1673 0
345.067 25.3014 0
213.622 23.9167 0
218.612 24.2329 0
272.537 35.7335 0
276.482 32.6624 0
2.9477 31.8949 0
7.60898 33.7039 0
435.823 56.7092 0
432.622 52.8676 0
207.962 45.3586 0
212.918 46.0267 0
230.349 52.7489 0
235.25 51.7604 0
358.05 18.9761 0
363.021 18.4405 0
80.7297 51.7872 0
85.7064 52.27 0
170.507 6.75612 0
173.261 2.58302 0
386.52 58.3845 0
381.579 57.6212 0
276.785 19.3806 0
275.107 24.0906 0
361.145 21.6113 0
361.642 16.6361 0
182.099 39.0743 0
183.927 34.4203 0
235.787 31.2187 0
233.78 26.6388 0
459.21 11.7387 0
464.162 11.0461 0
424.347 18.9515 0
426.531 14.4536 0
489.862 36.8944 0
484.873 37.2214 0
256.937 54.6553 0
255.266 49.9428 0
9.10222 39.3884 0
7.67637 44.1807 0
482.003 2.87963 0
484.78 7.03722 0
148.035 53.0446 0
144.891 49.1561 0
220.439 54.4697 0
224.41 57.5075 0
29.5558 27.253 0
29.6071 22.2533 0
477.309 24.9038 0
473.074 27.5618 0
363.68 21.4548 0
367.678 18.4527 0
381.157 8.22583 0
381.213 13.2255 0
131.773 22.8966 0
136.767 22.6465 0
158.924 52.9074 0
162.346 49.2612 0
187.662 13.7496 0
192.41 15.3156 0
469.804 23.0964 0
472.732 27.1495 0
63.5896 4.51351 0
62.7144 9.43633 0
263.845 32.0555 0
259.417 34.3782 0
473.938 28.9836 0
478.767 27.6869 0
435.177 24.4991 0
440.176 24.4256 0
208.104 5.51394 0
213.051 6.23828 0
225.357 49.6309 0
221.294 46.7173 0
451.481 55.1773 0
447.834 58.5971 0
162.62 14.5192 0
157.622 14.3559 0
268.349 6.25453 0
272.085 2.93185 0
34.8983 24.9066 0
30.5487 22.4406 0
455.171 29.2924 0
450.314 28.105 0
35.3103 45.4817 0
33.3033 50.0612 0
237.806 59.4687 0
235.252 55.1697 0
30.729 54.5398 0
32.9372 50.0539 0
450.754 49.2081 0
453.096 44.7907 0
199.642 52.8521 0
199.316 57.8414 0
218.873 3.70111 0
214.078 2.28372 0
387.212 1.7929 0
392.168 1.1276 0
224.178 36.6548 0
221.897 32.2054 0
213.85 47.4728 0
212.463 42.6691 0
168.251 32.7787 0
170.356 37.3139 0
306.823 44.6453 0
305.256 39.8974 0
346.833 37.8228 0
351.512 36.0605 0
75.4662 27.7789 0
78.518 31.7396 0
129.096 5.02335 0
128.729 0.0368407 0
362.746 57.8179 0
363.165 52.8354 0
87.6609 13.762 0
92.6598 13.8701 0
79.6241 29.646 0
83.5819 26.5906 0
313.222 25.9293 0
316.043 30.0573 0
417.85 17.0359 0
413.99 20.2133 0
226.935 4.16785 0
231.906 4.70494 0
237.196 31.4816 0
234.89 35.9177 0
99.6493 41.2388 0
95.4101 43.8902 0
273.62 39.4084 0
276.491 43.5016 0
70.1999 15.6171 0
69.4659 10.6713 0
301.791 50.9218 0
303.804 46.345 0
384.314 41.1036 0
379.819 43.2926 0
228.978 53.6406 0
224.015 54.2511 0
68.0659 2.55633 0
73.0205 1.88388 0
368.479 19.7327 0
370.664 24.2303 0
151.05 30.6015 0
146.183 31.7481 0
416.642 10.1631 0
412.837 13.4073 0
146.56 44.2831 0
151.538 44.7447 0
341.153 44.4184 0
336.21 43.6645 0
184.496 28.7311 0
186.921 24.3583 0
63.779 25.8803 0
60.723 29.8377 0
44.0708 51.982 0
47.5903 48.4305 0
71.3267 29.3909 0
68.1654 33.2648 0
483.169 25.8553 0
480.447 30.0496 0
443.366 9.1055 0
442.587 14.0445 0
371.275 33.773 0
367.764 37.3328 0
365.321 47.1557 0
368.976 50.568 0
284.596 8.51394 0
287.383 4.36255 0
107.111 55.4833 0
110.55 59.1124 0
359.187 55.0106 0
364.176 54.6846 0
277.661 27.3837 0
274.321 23.6634 0
484.226 43.0394 0
489.225 42.9203 0
402.876 14.7646 0
402.839 19.7645 0
107.031 13.5017 0
108.087 8.6146 0
143.5 57.5279 0
148.434 56.7151 0
291.017 38.9328 0
287.242 42.211 0
441.825 41.0485 0
446.704 39.9546 0
167.879 44.262 0
172.056 47.0088 0
64.8916 51.6678 0
68.1913 55.4243 0
244.747 34.1311 0
240.102 35.982 0
367.546 33.5091 0
363.606 30.4315 0
431.261 26.3682 0
434.661 30.0343 0
459.391 45.8144 0
455.502 48.9567 0
51.0313 38.4637 0
53.6932 34.2311 0
366.133 32.0797 0
369.978 35.2763 0
214.103 53.1401 0
216.17 57.6925 0
450.667 27.6762 0
449.325 32.4927 0
92.5969 12.4819 0
91.3269 17.3179 0
228.132 34.4661 0
228.719 29.5007 0
308.46 1.12018 0
303.74 2.76779 0
248.45 38.552 0
251.648 42.3959 0
376.003 48.8227 0
380.902 49.825 0
115.122 15.3345 0
118.907 18.6016 0
190.544 21.4867 0
188.452 16.9453 0
245.161 55.032 0
249.102 51.9554 0
447.361 18.8706 0
445.41 23.4744 0
112.469 26.0453 0
114.104 30.7706 0
476.606 52.9512 0
480.541 49.8666 0
52.1226 54.1789 0
47.8551 51.5734 0
92.724 49.3786 0
87.7594 49.9725 0
307.436 1.82969 0
311.719 4.4108 0
80.5197 25.725 0
75.5476 26.2522 0
474.659 40.6588 0
472.175 44.9978 0
327.743 33.5601 0
327.046 38.5113 0
238.239 36.3591 0
235.474 32.1929 0
358.132 58.9168 0
357.01 54.0442 0
406.349 7.26099 0
401.407 8.02031 0
36.7831 6.32217 0
41.5005 4.66497 0
254.678 36.6459 0
256.751 32.0956 0
380.653 5.49948 0
380.914 10.4926 0
110.701 50.66 0
105.703 50.8191 0
112.44 58.3934 0
107.441 58.2733 0
20.2444 33.4275 0
16.5208 36.7644 0
292.23 19.9785 0
287.233 19.826 0
253.484 0.732078 0
248.484 0.686185 0
405.96 45.5129 0
410.935 46.0084 0
253.627 32.1259 0
257.303 28.7368 0
440.065 29.2176 0
444.118 32.1457 0
496.584 4.08637 0
493.381 0.246758 0
33.4158 28.1868 0
38.235 26.8542 0
18.3037 26.3943 0
18.2619 21.3945 0
324.387 6.84068 0
321.856 11.1529 0
333.363 5.99616 0
338.209 4.76631 0
5.29681 47.7202 0
9.67111 45.2983 0
322.392 28.3501 0
326.642 30.9846 0
13.6192 42.3016 0
15.6685 46.8623 0
384.745 0.223967 0
384.421 5.21347 0
170.139 30.5957 0
168.161 35.188 0
447.516 42.2536 0
450.767 46.0529 0
139.312 21.107 0
134.42 20.0759 0
131.564 43.9172 0
133.244 48.6265 0
115.007 47.178 0
117.072 42.6242 0
134.003 13.2612 0
138.999 13.4633 0
409.434 7.16095 0
409.006 2.17929 0
29.3913 15.5913 0
25.9208 19.1907 0
103.85 1.818 0
107.499 5.23638 0
430.192 47.9288 0
428.404 52.598 0
457.646 38.8927 0
461.307 35.4865 0
4.65729 20.0114 0
6.66213 15.4309 0
385.728 52.1997 0
389.405 55.5874 0
229.35 53.6201 0
228.288 58.506 0
74.4112 26.3405 0
74.2148 21.3443 0
81.2161 51.9606 0
76.2679 52.678 0
34.0461 47.491 0
35.6827 42.7665 0
184.371 50.5357 0
189.056 48.7877 0
81.76 39.9314 0
77.6003 42.7057 0
480.742 16.2028 0
483.856 12.291 0
123.656 44.517 0
124.432 39.5776 0
89.4226 10.9529 0
87.3742 15.5141 0
431.545 37.9691 0
426.546 37.8811 0
52.7635 53.8612 0
48.0368 55.4917 0
132.476 5.77439 0
132.674 0.778302 0
60.6693 31.5713 0
62.9731 27.1336 0
317.502 37.9721 0
318.519 42.8676 0
289.636 47.9933 0
288.935 43.0428 0
138.236 7.5052 0
133.275 6.88428 0
366.331 29.5488 0
371.299 28.9786 0
217.253 31.1376 0
213.374 27.9826 0
85.1194 55.5084 0
82.4231 59.7191 0
56.7464 8.51639 0
52.981 11.8061 0
192.754 56.9901 0
196.161 53.3304 0
115.614 23.1876 0
120.497 22.1119 0
396.548 2.32778 0
401.135 0.338451 0
144.295 19.2268 0
140.158 22.0356 0
35.5211 53.3761 0
37.5483 48.8055 0
316 37.7932 0
311.542 40.0585 0
80.5524 55.4466 0
78.3565 59.9386 0
376.539 34.3902 0
376.322 39.3855 0
156.845 38.5721 0
154.259 42.8512 0
458.914 1.42499 0
463.394 3.64528 0
451.295 15.5685 0
451.995 20.5193 0
411.789 7.23701 0
414.507 3.03985 0
341.839 41.3717 0
346.574 39.7679 0
331.631 15.1509 0
326.661 15.6966 0
251.484 42.5274 0
246.854 40.6397 0
69.8554 49.4932 0
64.8612 49.7348 0
140.814 50.8911 0
138.451 46.4847 0
81.8221 50.7751 0
78.7312 54.7053 0
124.269 49.9905 0
119.289 50.4342 0
196.043 49.9137 0
191.839 47.2069 0
115.516 40.2052 0
110.524 40.4936 0
359.829 40.3452 0
363.601 43.6278 0
404.304 46.2858 0
403.627 51.2398 0
333.182 18.6637 0
328.191 18.9687 0
128.211 1.66471 0
123.362 0.445961 0
428.008 59.2966 0
427.557 54.317 0
14.2006 22.0136 0
9.32238 23.1102 0
299.191 14.4785 0
297.813 19.2848 0
172.522 50.243 0
177.1 52.2547 0
339.41 53.0744 0
342.028 57.334 0
90.0922 32.9377 0
85.6052 35.1437 0
19.5014 8.40983 0
24.1086 6.46733 0
344.924 39.9308 0
348.736 36.6957 0
307.994 6.95133 0
310.145 2.43753 0
113.192 12.1916 0
112.918 17.1841 0
35.8946 18.637 0
38.8832 14.6284 0
200.678 5.39727 0
205.459 6.85998 0
499.716 19.8523 0
498.297 24.6468 0
85.6265 16.8652 0
90.6186 17.1463 0
452.926 36.504 0
453.609 41.4572 0
341.241 35.2324 0
338.053 39.0846 0
266.649 25.3519 0
267.324 20.3976 0
260.08 12.5492 0
261.515 7.75957 0
110.563 17.4479 0
107.894 21.6758 0
413.309 51.685 0
418.05 53.2745 0
391.261 17.2368 0
386.494 18.7446 0
223.732 4.14732 0
222.156 8.89254 0
285.438 55.5331 0
287.096 50.8161 0
362.242 42.8367 0
363.101 47.7623 0
63.6614 47.4995 0
68.5585 46.4903 0
292.848 40.6728 0
288.327 38.5362 0
260.489 54.7128 0
256.105 57.1162 0
281.711 5.18279 0
279.348 0.776342 0
457.733 5.32654 0
456.742 0.425678 0
388.54 12.9089 0
392.285 9.59652 0
137.15 21.0926 0
141.134 24.1135 0
47.3615 35.699 0
51.1642 38.9454 0
233.388 16.2926 0
228.801 18.2816 0
175.396 6.57975 0
170.608 8.01889 0
238.343 15.4989 0
238.919 10.5322 0
197.769 50.8008 0
194.265 54.3675 0
168.802 40.953 0
173.762 40.323 0
281.269 31.2826 0
286.003 29.6747 0
17.0402 11.3443 0
16.8756 6.347 0
170.664 20.3563 0
175.243 18.348 0
471.215 56.7965 0
475.529 59.3235 0
182.907 42.0194 0
186.358 38.4018 0
376.374 4.99413 0
380.996 3.08871 0
253.085 32.1878 0
256.818 28.8617 0
74.3321 39.8211 0
71.0281 36.0683 0
80.4611 6.64564 0
76.8242 3.21452 0
275.987 27.8373 0
274.852 22.9677 0
43.9016 11.8354 0
45.1877 16.6672 0
14.0983 14.179 0
18.8416 15.7607 0
54.5184 3.73231 0
50.3999 0.897101 0
213.509 49.4604 0
211.011 53.7917 0
53.2501 40.8583 0
49.6367 44.3143 0
172.472 45.0934 0
170.88 40.3534 0
275.282 25.3899 0
278.926 21.9664 0
305.762 10.125 0
309.998 12.7807 0
287.213 22.5182 0
282.305 23.4705 0
163.022 12.6961 0
167.689 10.9001 0
261.405 29.3256 0
262.733 24.5052 0
119.146 16.5854 0
115.424 19.9233 0
309.573 34.645 0
313.304 31.316 0
46.3178 52.3974 0
49.0016 56.6161 0
408.95 5.3594 0
409.064 10.3581 0
313.695 28.3928 0
314.06 23.4062 0
64.0209 48.649 0
61.1066 52.7119 0
421.188 41.0015 0
416.915 43.5975 0
45.0504 2.84908 0
40.2056 1.61276 0
354.277 45.0328 0
359.137 46.2103 0
280.627 59.3059 0
276.297 56.8062 0
354 58.5872 0
358.998 58.4284 0
160.399 21.7036 0
158.139 17.2436 0
113.023 24.5468 0
113.188 29.5441 0
198.538 19.6811 0
203.192 17.8553 0
33.0745 23.8897 0
37.9684 22.865 0
439.969 20.7083 0
435.384 18.7143 0
72.4855 18.1292 0
76.6223 20.9375 0
103.778 13.298 0
99.8706 10.1784 0
373.929 34.8458 0
370.828 38.7679 0
234.849 33.3912 0
230.403 31.1053 0
494.569 52.6776 0
493.686 47.7561 0
436.734 39.4764 0
441.611 38.3767 0
42.557 30.3039 0
39.4662 26.3737 0
353.871 10.884 0
351.68 6.38997 0
380.808 45.2068 0
377.125 41.8243 0
376.173 53.6401 0
378.034 58.2806 0
459.535 41.0697 0
462.888 37.3608 0
224.756 50.2088 0
220.207 48.1348 0
290.74 58.8853 0
294.842 56.0274 0
284.305 34.349 0
279.307 34.4635 0
433.521 4.30769 0
438.09 6.33842 0
220.54 11.5155 0
216.259 14.0985 0
386.548 32.2518 0
383.83 28.0545 0
222.263 24.7825 0
217.695 26.8156 0
444.653 43.7779 0
445.395 38.8333 0
41.8186 50.4783 0
41.65 55.4755 0
299.499 3.25154 0
296.436 7.20342 0
385.785 20.367 0
386.894 15.4917 0
26.4256 41.5592 0
26.8524 46.541 0
270.993 34.6221 0
275.932 33.8471 0
290.784 11.0922 0
285.785 11.1574 0
133.885 29.9727 0
130.268 26.5204 0
239.963 0.314917 0
243.509 3.83924 0
418.319 52.8878 0
422.948 50.9981 0
483.558 29.5923 0
480.912 25.3503 0
344.738 36.0927 0
345.542 31.1578 0
303.055 17.0351 0
307.478 14.7046 0
112.049 26.1446 0
116.621 24.1211 0
347.536 25.0494 0
345.115 20.6747 0
45.5302 41.1853 0
45.6675 36.1872 0
79.6814 46.8339 0
74.6815 46.8083 0
465.68 35.5128 0
469.976 32.9543 0
282.432 31.4246 0
286.536 28.5678 0
320.542 7.22414 0
325.479 8.01446 0
144.524 30.743 0
140.439 27.8597 0
444.623 16.6327 0
446.193 11.8857 0
476.782 23.5341 0
471.788 23.3031 0
493.123 27.1893 0
488.91 24.4978 0
81.4304 30.3816 0
85.8003 32.8114 0
272.552 51.1039 0
267.661 52.1385 0
405.583 45.6963 0
408.623 49.6655 0
346.383 43.2705 0
346.393 38.2705 0
23.3447 31.0842 0
27.5664 28.4052 0
326.815 32.1998 0
322.062 30.6477 0
312.428 51.8574 0
310.445 56.447 0
221.004 24.4558 0
219.484 29.2194 0
286.98 14.2903 0
283.059 11.1878 0
41.8836 16.356 0
41.565 21.3458 0
425.351 43.7086 0
423.171 39.2089 0
139.213 32.4507 0
144.137 33.3202 0
370.503 46.1021 0
375.127 44.2002 0
456.79 7.08597 0
454.438 11.4987 0
70.1315 39.7575 0
65.1543 40.2348 0
494.314 58.766 0
499.279 59.3516 0
34.2313 56.7728 0
39.1833 57.4642 0
274.35 2.03756 0
277.325 6.05675 0
271.787 49.311 0
267.283 47.1398 0
134.075 17.1595 0
131.492 21.4412 0
258.394 53.5469 0
253.473 54.4324 0
358.374 5.72413 0
355.129 1.92066 0
424.121 44.8896 0
428.438 47.4131 0
313.3 46.8885 0
318.063 45.367 0
41.3863 33.0153 0
41.1822 28.0194 0
421.57 20.181 0
426.461 21.2214 0
187.482 29.3782 0
184.188 25.6166 0
283.1 24.8948 0
287.295 22.1739 0
279.046 21.0844 0
283.977 21.9165 0
483.355 41.9512 0
483.563 36.9555 0
313.941 23.0828 0
313.246 18.1314 0
175.329 10.7112 0
170.648 8.95151 0
255.208 26.8732 0
260.052 28.1137 0
44.5863 47.0313 0
41.1167 50.6316 0
311.636 31.0607 0
316.424 29.6225 0
333.8 42.1801 0
329.498 39.6324 0
495.825 7.69876 0
492.196 4.25823 0
263.143 9.2553 0
263.043 14.2543 0
143.076 20.6807 0
147.551 18.4501 0
191.189 6.43694 0
189.462 1.7449 0
142.703 40.5123 0
137.711 40.7993 0
192.049 9.32622 0
191.609 14.3069 0
250.379 17.1668 0
245.414 16.5726 0
119.5 6.63626 0
114.693 5.26234 0
472.59 49.2542 0
467.599 49.5649 0
173.607 19.1826 0
172.269 24.0002 0
288.819 29.5295 0
290.533 34.2269 0
76.0317 48.3429 0
77.235 43.4898 0
70.4942 24.2638 0
66.9677 20.7192 0
374.66 7.10953 0
374.068 12.0743 0
278.313 56.5121 0
274.64 59.9046 0
417.882 32.4911 0
414.114 29.2045 0
242.093 51.2333 0
239.856 55.7049 0
46.1977 3.8641 0
41.2411 3.20668 0
172.893 48.3187 0
177.357 50.5718 0
463.357 8.20988 0
459.857 11.7806 0
236.66 46.3034 0
241.633 45.785 0
473.321 2.25775 0
478.18 3.43931 0
453.553 51.7794 0
458.362 53.1467 0
220.841 16.0066 0
218.414 20.3783 0
452.034 8.08794 0
456.365 5.59059 0
243.834 24.9291 0
239.546 22.3576 0
176.841 57.0933 0
180.122 53.3201 0
64.7344 36.0071 0
63.4099 40.8285 0
443.318 52.9877 0
439.194 55.8153 0
272.166 14.5324 0
275.38 18.3623 0
11.4252 39.5504 0
7.63773 36.2861 0
484.571 11.0376 0
487.789 14.8648 0
109.015 18.4236 0
109.299 23.4155 0
178.022 21.6464 0
174.657 25.3442 0
161.895 38.5436 0
162.933 43.4347 0
178.682 34.6704 0
177.393 29.8394 0
317.147 15.5892 0
322.028 14.5074 0
17.732 37.724 0
15.4535 42.1746 0
93.4334 40.0352 0
89.0579 37.6155 0
451.154 53.9062 0
447.038 51.0679 0
395.122 54.5615 0
399.607 52.3511 0
439.844 7.51125 0
438.593 12.3522 0
71.8027 54.9699 0
73.4687 50.2556 0
385.893 37.5618 0
385.477 32.5792 0
156.285 21.711 0
156.02 26.7039 0
188.789 1.10106 0
183.79 1.22199 0
130.675 35.2067 0
134.108 38.8418 0
123.57 19.6621 0
120.973 23.9345 0
471.983 40.325 0
476.951 40.8896 0
460.899 38.0918 0
465.031 40.9071 0
26.298 2.94396 0
21.9219 0.525311 0
440.939 9.29676 0
438.723 13.7791 0
390.93 43.3484 0
386.112 42.0099 0
47.6451 39.0463 0
52.5976 38.3585 0
35.7974 3.04707 0
40.4063 1.10846 0
344.081 29.7678 0
348.516 27.4586 0
335.915 18.1637 0
331.021 17.14 0
23.7458 14.337 0
22.8659 19.259 0
230.852 55.1412 0
228.54 59.5746 0
142.937 47.0222 0
140.547 51.4141 0
10.6221 13.7065 0
6.17087 11.4291 0
78.4021 52.8196 0
73.4039 52.6845 0
237.123 8.95396 0
233.387 5.63175 0
453.199 16.524 0
450.881 12.094 0
426.321 5.03479 0
423.074 1.23305 0
131.883 21.9747 0
133.231 17.1598 0
215.021 12.4662 0
210.285 14.0696 0
117.788 26.7106 0
121.015 22.8911 0
300.967 19.0712 0
305.959 18.784 0
430.205 26.8751 0
432.275 22.3239 0
44.6467 12.9062 0
48.8049 10.1296 0
3.24003 46.7581 0
0.3996 50.8729 0
45.0433 34.1534 0
47.0088 38.7509 0
10.0301 8.11449 0
8.55235 12.8911 0
289.129 49.3662 0
289.944 54.2993 0
104.796 9.06421 0
100.957 5.86054 0
31.7694 30.0679 0
36.3608 32.0478 0
10.998 15.0809 0
13.0262 10.5107 0
384.237 33.4803 0
379.243 33.723 0
470.178 50.9443 0
474.672 53.1375 0
20.7425 50.8444 0
23.1488 55.2273 0
72.9022 44.544 0
70.6962 49.031 0
355.88 32.3751 0
351.283 30.4083 0
448.95 38.7969 0
444.697 36.1682 0
393.753 58.1523 0
388.754 58.04 0
366.705 0.00881735 0
369.612 4.07683 0
366.247 39.1625 0
367.514 43.9994 0
3.02773 11.694 0
7.90271 10.5829 0
195.998 11.9742 0
191 12.0991 0
6.23974 42.6861 0
1.38684 43.89 0
18.9932 47.7745 0
14.6402 45.3145 0
24.0181 12.3471 0
27.3936 16.0358 0
66.4851 25.7122 0
71.0963 23.7792 0
58.3604 1.63394 0
63.3596 1.54838 0
57.1603 10.3629 0
57.4504 5.37128 0
75.1878 0.363006 0
73.6183 5.11029 0
461.429 40.8572 0
461.551 45.8556 0
329.451 3.40464 0
327.45 7.98711 0
320.649 55.1883 0
322.77 50.6604 0
328.643 20.734 0
326.366 16.2828 0
47.8851 13.4 0
44.2829 16.8677 0
254.134 39.6457 0
259.027 38.6195 0
62.077 35.392 0
64.5478 39.7388 0
214.713 11.6703 0
209.962 10.1103 0
307.095 48.5792 0
312.079 48.9746 0
289.607 6.94145 0
285.39 4.25503 0
59.8187 41.5564 0
63.2661 45.1779 0
62.0401 27.6699 0
58.4546 31.1548 0
278.992 51.1382 0
283.987 50.9163 0
167.767 14.5715 0
169.476 9.87267 0
340.898 34.0007 0
342.117 29.1516 0
426.347 3.07684 0
431.16 4.43044 0
496.141 30.9519 0
491.441 32.656 0
422.731 35.6236 0
417.798 34.8082 0
80.3882 40.808 0
75.5349 39.6056 0
319.591 37.0681 0
317.714 41.7023 0
498.474 32.4821 0
498.14 27.4932 0
230.743 32.4533 0
228.179 28.161 0
459.019 33.4103 0
463.713 35.1335 0
244.643 53.8998 0
245.29 48.9419 0
184.207 35.3007 0
186.08 39.9366 0
290.829 19.6521 0
288.088 23.8335 0
412.1 57.4369 0
412.38 52.4448 0
193.479 7.07233 0
189.78 3.70825 0
6.83905 49.0233 0
10.4327 45.5468 0
360.579 13.8472 0
363.788 17.6813 0
355.571 44.2093 0
357.201 39.4825 0
248.061 50.0878 0
243.068 49.8204 0
262.837 28.0601 0
259.363 31.656 0
86.8959 39.2858 0
84.6981 34.7948 0
344.528 37.2086 0
339.634 36.1858 0
30.4339 15.3094 0
34.4207 18.327 0
322.749 34.6076 0
318.643 37.4618 0
433.423 24.9889 0
429.37 22.0617 0
402.086 49.233 0
397.368 47.5786 0
181.747 46.677 0
176.76 46.3254 0
377.822 32.6419 0
380.689 28.5456 0
56.0694 18.6431 0
51.3202 17.0795 0
274.707 9.037 0
269.85 10.2236 0
207.731 15.591 0
202.872 14.4115 0
331.998 3.65054 0
327.728 1.04856 0
422.268 44.3842 0
420.269 48.9674 0
412.451 14.2214 0
415.388 18.2676 0
146.322 20.1282 0
146.095 15.1333 0
51.2436 27.5318 0
56.2182 27.029 0
357.588 9.20252 0
361.254 12.6024 0
163.232 53.5269 0
160.463 49.3636 0
282.229 9.98401 0
279.148 13.9219 0
22.1251 30.1751 0
18.9557 34.0422 0
263.699 48.5059 0
267.195 52.0803 0
20.0353 36.7197 0
23.8159 33.4474 0
296.043 39.6257 0
300.999 40.2939 0
100.228 10.6687 0
103.713 7.08389 0
274.618 47.4972 0
279.618 47.5113 0
400.312 56.2312 0
403.327 52.2428 0
372.791 35.21 0
373.031 30.2157 0
64.1818 9.51578 0
68.9722 10.9483 0
222.279 44.0589 0
222.513 39.0644 0
40.655 2.63532 0
35.6701 3.02311 0
393.412 39.6334 0
389.02 42.0221 0
391.843 56.5895 0
388.421 52.9446 0
121.926 11.9113 0
123.071 7.04402 0
187.734 57.7406 0
192.068 55.2463 0
147.886 2.31174 0
142.912 2.81743 0
141.765 29.7244 0
146.665 28.7283 0
142.519 11.7964 0
145.85 15.5257 0
421.899 22.4278 0
419.326 18.1409 0
92.9746 6.78769 0
88.5397 4.47872 0
220.638 18.52 0
218.312 22.9457 0
30.7404 2.46687 0
29.2063 7.22573 0
288.179 10.3783 0
288.736 5.40934 0
113.636 7.51941 0
112.816 2.58708 0
236.489 5.39626 0
240.072 8.88306 0
227.261 17.6388 0
222.318 16.882 0
497.642 52.0066 0
494.078 55.5128 0
216.032 40.2154 0
220.94 41.1684 0
444.067 13.1055 0
446.848 17.2605 0
182.848 24.0095 0
187.316 21.7651 0
254.748 54.6019 0
259.468 56.251 0
397.96 13.6928 0
402.405 15.9821 0
12.1798 50.1782 0
7.1827 50.3491 0
172.93 23.2328 0
174.324 18.431 0
36.4174 58.0732 0
31.5914 59.3807 0
124.984 1.00343 0
129.408 3.33315 0
400.987 59.6921 0
405.987 59.6883 0
89.3308 50.3107 0
94.2333 49.3281 0
20.7655 28.6682 0
17.0543 25.3176 0
469.362 32.5863 0
468.304 27.6996 0
118.999 30.6122 0
115.085 27.5 0
13.7602 20.8206 0
16.6813 16.7627 0
211.908 14.3162 0
206.914 14.5789 0
133.699 8.16677 0
138.671 7.63552 0
281.697 53.2108 0
276.77 52.3574 0
40.1594 46.5802 0
37.0052 50.4598 0
131.04 46.4433 0
126.046 46.6936 0
330.648 32.6603 0
328.644 28.0796 0
353.892 53.9693 0
348.901 54.2695 0
307.104 48.9203 0
307.616 43.9467 0
13.9668 20.2068 0
9.08177 21.273 0
190.731 41.5242 0
195.402 39.7407 0
326.533 56.5988 0
331.132 58.5607 0
375.752 8.98283 0
370.936 10.3259 0
445.914 50.4753 0
450.913 50.4348 0
369.763 30.9401 0
368.199 35.6892 0
143.357 22.3191 0
146.837 18.7285 0
35.1313 37.6936 0
32.1425 41.702 0
276.946 4.29464 0
281.937 4.60003 0
305.4 55.3465 0
307.323 50.7309 0
286.884 14.2257 0
283.788 18.1519 0
374.026 46.9842 0
378.815 45.5476 0
419.413 15.535 0
418.506 10.6181 0
140.655 39.0695 0
140.625 44.0694 0
272.133 24.1799 0
267.682 26.4572 0
272.254 42.8534 0
267.342 41.9202 0
364.367 53.6403 0
364.038 58.6295 0
409.966 37.9847 0
410.98 33.0885 0
215.34 33.4463 0
219.801 35.7038 0
76.151 58.6843 0
76.9211 53.7439 0
418.679 44.2529 0
420.778 48.791 0
396.249 15.9869 0
391.465 17.441 0
12.9322 5.99193 0
16.9723 8.9378 0
472.388 3.20728 0
476.669 0.625464 0
162.659 24.3315 0
163.57 19.415 0
358.997 25.4483 0
361.064 20.8959 0
332.208 27.5764 0
334.14 22.9646 0
124.871 14.8572 0
125.127 9.86372 0
215.759 10.3455 0
220.463 12.0396 0
163.902 4.11487 0
159.488 1.76711 0
151.252 53.19 0
149.366 57.8204 0
322.094 47.6476 0
318.615 44.0564 0
443.797 3.93857 0
448.527 5.5591 0
400.504 8.92487 0
396.331 11.6789 0
206.938 16.4362 0
201.965 16.9529 0
313.973 32.1095 0
318.192 34.7935 0
440.818 9.49485 0
441.038 14.49 0
412.464 37.2312 0
416.824 39.6787 0
13.2168 14.5997 0
18.0381 15.9243 0
421.076 47.6329 0
423.233 52.1438 0
63.7519 14.4377 0
58.8213 13.6074 0
72.2244 46.9808 0
70.6519 51.7271 0
491.32 29.7007 0
488.925 34.0899 0
332.659 52.5856 0
336.181 56.1353 0
375.869 37.1473 0
380.725 38.34 0
445.673 36.2834 0
443.162 40.6071 0
144.292 14.1688 0
145.093 19.1042 0
376.638 45.5635 0
372.329 43.0264 0
33.8227 38.7645 0
28.8897 39.5799 0
178.432 40.9298 0
182.73 43.4849 0
144.625 30.3919 0
144.945 25.4021 0
277.404 22.1575 0
281.246 18.9571 0
135.596 10.7739 0
130.661 9.97022 0
431.544 19.779 0
433.43 24.41 0
378.856 19.8714 0
378.176 14.9178 0
73.5475 54.16 0
69.0156 52.0475 0
322.867 52.0268 0
327.866 52.1144 0
102.51 16.3579 0
106.101 12.8788 0
427.425 41.1704 0
423.298 38.3473 0
436.435 14.0796 0
438.344 18.7008 0
241.107 58.523 0
245.595 56.3204 0
52.8147 50.1278 0
57.2123 52.5072 0
410.178 7.62389 0
407.536 11.8691 0
291.542 59.4579 0
286.542 59.4163 0
235.316 30.8791 0
232.003 34.6237 0
83.5362 58.3293 0
78.8446 56.6003 0
413.273 13.3545 0
414.806 8.59532 0
331.212 4.09382 0
326.212 4.07982 0
478.115 37.1513 0
483.061 36.4232 0
238.046 31.8898 0
234.07 28.8575 0
363.887 4.42129 0
359.743 1.62315 0
401.923 54.567 0
401.344 59.5333 0
110.286 41.22 0
115.285 41.169 0
325.302 11.0111 0
330.063 9.48235 0
323.528 13.0417 0
324.854 8.2208 0
168.721 7.11365 0
169.012 2.12215 0
465.918 20.8905 0
470.882 20.2928 0
118.47 33.0124 0
115.221 29.2119 0
169.674 53.6633 0
171.376 58.3645 0
490.272 34.4224 0
495.251 33.9724 0
324.444 10.2985 0
320.045 12.6747 0
461.945 52.4993 0
459.072 56.5917 0
383.36 39.6544 0
384.843 34.8795 0
129.907 12.4241 0
134.32 10.072 0
329.658 27.2276 0
325.933 23.8921 0
54.2145 53.4839 0
50.6486 49.9791 0
379.858 49.9715 0
379.904 54.9713 0
434.698 13.732 0
429.958 15.323 0
44.5823 44.3287 0
42.1498 48.6971 0
245.804 5.4251 0
250.31 7.59214 0
20.511 58.7838 0
15.8857 56.8848 0
3.64615 44.4706 0
8.64336 44.6374 0
213.404 41.4023 0
217.665 38.785 0
311.258 54.5332 0
308.475 50.3791 0
104.97 11.0795 0
108.625 14.4915 0
115.48 44.1616 0
117.593 39.6299 0
81.32 55.2226 0
85.6519 57.7195 0
434.355 40.9163 0
434.655 45.9074 0
333.207 6.50157 0
335.602 2.11225 0
139.272 12.1727 0
139.628 17.1599 0
409.53 8.92193 0
411.179 4.20175 0
261.321 23.4555 0
256.42 24.4452 0
129.157 58.2881 0
124.345 59.6455 0
113.958 46.3027 0
109.802 43.5231 0
282.353 16.034 0
285.485 19.9311 0
199.1 17.6385 0
199.573 12.661 0
425.036 53.2769 0
429.939 52.2973 0
261.168 32.1466 0
264.768 35.6165 0
46.3996 12.0052 0
44.1089 16.4497 0
314.833 28.1881 0
311.383 24.5696 0
272.121 37.3668 0
272.767 42.3248 0
253.963 41.5131 0
251.999 36.915 0
344.009 38.1967 0
347.114 42.1161 0
362.543 34.7411 0
362.716 29.7441 0
147.887 40.379 0
147.207 45.3325 0
396.86 46.2173 0
401.439 44.2087 0
214.058 17.9933 0
218.428 20.4234 0
470.025 43.7805 0
467.817 48.2667 0
124.227 46.7002 0
128.145 49.807 0
202.306 51.9184 0
197.524 50.4568 0
228.103 39.8744 0
231.466 43.5743 0
400.4 49.7695 0
397.8 54.0402 0
457.897 5.36964 0
458.809 10.2857 0
440.279 21.9147 0
445.244 21.3228 0
43.6644 12.3311 0
39.9181 15.6425 0
244.766 23.7244 0
245.248 18.7477 0
169.549 32.6426 0
174.059 30.4842 0
283.484 19.6654 0
281.178 15.2292 0
163.68 0.52531 0
167.175 4.10139 0
234.87 26.4066 0
230.32 28.4792 0
157.748 38.1353 0
155.183 33.8435 0
78.082 31.9711 0
73.0938 32.3141 0
120.86 48.2554 0
119.728 43.3851 0
169.25 29.8681 0
173.532 27.2867 0
4.19762 37.7119 0
8.39188 40.4337 0
98.3965 53.5169 0
94.0597 56.0055 0
267.229 24.2733 0
262.394 25.547 0
328.813 41.9177 0
333.481 43.7101 0
169.832 2.3695 0
174.768 3.16753 0
208.296 37.5361 0
203.742 39.6024 0
450.184 41.0066 0
445.928 43.6292 0
191.867 14.9506 0
192.414 19.9206 0
22.0587 14.3011 0
18.4632 17.7756 0
81.8773 12.3932 0
77.0237 13.5943 0
308.358 19.6905 0
309.628 14.8543 0
358.228 28.8462 0
362.359 31.6628 0
458.883 32.9534 0
459.467 27.9877 0
112.269 7.64693 0
114.323 12.2055 0
411.739 3.87901 0
416.569 5.17064 0
274.91 34.8643 0
275.248 39.8529 0
359.736 55.3411 0
355.508 58.0097 0
393.814 11.9686 0
398.813 11.8395 0
463.061 39.5911 0
460.484 35.3067 0
377.989 37.1408 0
374.629 40.8442 0
377.661 25.9824 0
381.881 28.6648 0
19.5995 17.275 0
24.4081 18.645 0
11.9185 39.2876 0
14.5239 35.0201 0
211.621 16.587 0
216.55 17.4282 0
191.955 3.37896 0
195.535 6.86992 0
268.218 10.2632 0
266.649 5.51572 0
241.965 37.2846 0
237.851 34.4425 0
389.888 49.001 0
387.858 44.4312 0
88.3011 58.9524 0
88.2563 53.9526 0
396.728 12.7142 0
399.287 17.0097 0
398.969 46.7736 0
403.958 46.4333 0
469.553 52.7729 0
467.051 57.1022 0
236.868 17.1923 0
232.035 18.4737 0
331.17 5.69421 0
326.909 8.3105 0
87.916 44.8989 0
82.9725 44.1497 0
344.101 4.10064 0
348.878 2.62332 0
251.536 38.2264 0
256.316 36.758 0
352.466 50.6277 0
357.249 49.1703 0
158.501 53.3516 0
162.244 50.0368 0
359.444 14.9857 0
354.824 13.075 0
159.398 25.815 0
162.635 29.6254 0
235.145 52.8702 0
236.281 57.7394 0
197.378 53.4419 0
196.439 48.5308 0
166.639 52.8005 0
166.834 57.7967 0
209.055 13.1004 0
206.396 8.86624 0
151.272 41.8171 0
149.017 37.3543 0
199.481 59.5924 0
202.636 55.7127 0
358.666 32.4601 0
359.243 27.4935 0
376.948 11.9812 0
381.887 12.7568 0
431.055 49.7446 0
435.629 51.7641 0
421.894 26.9002 0
426.676 28.3597 0
21.1186 56.4857 0
16.8731 53.8445 0
41.4433 15.5415 0
42.8275 20.3461 0
53.1415 19.6683 0
50.2807 23.7691 0
53.6112 15.0854 0
48.6121 15.1788 0
261.646 1.21397 0
264.245 5.48524 0
318.053 20.4429 0
315.22 24.5624 0
361.692 47.902 0
358.057 44.4691 0
235.484 8.46258 0
231.652 11.6751 0
150.272 32.5094 0
155.27 32.6237 0
401.428 3.14374 0
406.406 2.68402 0
370.09 45.217 0
370.94 40.2899 0
318.612 8.47795 0
314.067 6.39198 0
40.5577 36.9301 0
36.83 33.5978 0
224.964 31.6873 0
227.259 36.1297 0
183.172 48.5654 0
187.477 46.0218 0
22.9293 42.7477 0
27.9289 42.807 0
432.363 52.5782 0
434.797 48.211 0
387.156 5.32161 0
383.754 8.98525 0
323.669 44.8508 0
327.234 41.3453 0
362.309 23.4511 0
365.704 19.781 0
404.282 54.7898 0
409.12 56.0539 0
254.565 58.6658 0
255.763 53.8114 0
61.2428 15.672 0
56.7097 13.5623 0
83.5481 0.569182 0
83.214 5.55801 0
228.076 45.5453 0
233.075 45.6385 0
492.382 39.2067 0
492.104 34.2145 0
460.418 7.46176 0
464.757 4.97748 0
54.4858 56.5856 0
58.2168 53.257 0
112.357 11.9649 0
115.732 15.6538 0
220.617 38.3741 0
222.976 42.7826 0
184.775 57.3554 0
180.629 54.5607 0
184.273 55.408 0
181.705 59.698 0
163.162 43.9964 0
159.172 47.0095 0
38.1867 51.2659 0
35.3988 47.1153 0
53.8185 1.17942 0
53.7605 6.17908 0
166.041 39.6165 0
161.239 38.2225 0
494.428 24.0886 0
493.068 19.2771 0
493.73 34.0985 0
497.546 37.3293 0
469.647 52.0425 0
474.529 50.9595 0
318.973 44.7202 0
322.304 48.4491 0
45.5516 13.2301 0
41.3983 10.4462 0
200.393 57.989 0
205.029 59.8618 0
96.4406 40.0468 0
92.4163 37.0795 0
287.728 9.20037 0
283.735 12.2092 0
114.083 47.3602 0
109.891 44.6357 0
209.533 53.1423 0
212.904 56.8354 0
370.578 53.1795 0
374.809 50.5152 0
177.449 53.2766 0
182.01 55.3256 0
59.1292 57.5709 0
54.3043 58.8824 0
347.734 12.5576 0
347.45 17.5496 0
18.4994 24.7324 0
15.6787 28.8608 0
121.69 5.9431 0
117.101 7.92654 0
98.0887 8.61294 0
93.8418 5.97399 0
430.098 55.604 0
432.209 51.0714 0
350.283 27.2933 0
346.639 23.8698 0
192.794 10.3841 0
193.304 15.3581 0
345.093 27.7678 0
348.776 24.3867 0
316.057 45.3629 0
318.986 41.3101 0
489.322 21.6324 0
484.71 23.564 0
129.264 48.7082 0
124.986 46.1195 0
454.918 39.7615 0
457.615 43.9719 0
160.939 51.2548 0
163.362 55.6286 0
127.226 42.3136 0
122.276 43.0185 0
43.5039 41.009 0
46.9323 44.6485 0
343.652 45.4055 0
338.724 46.2482 0
356.079 39.3327 0
359.069 35.3251 0
101.074 13.3375 0
105.757 15.0913 0
457.531 5.56766 0
457.684 0.570002 0
126.26 14.9516 0
121.892 17.3833 0
176.129 26.8139 0
176.512 31.7992 0
15.4975 39.856 0
14.1571 35.039 0
43.6613 5.75686 0
43.957 0.76561 0
150.731 7.80743 0
146.72 10.7927 0
278.586 19.5755 0
282.849 16.9628 0
370.058 27.0315 0
372.37 31.4647 0
22.7056 6.38906 0
21.5577 1.52262 0
275.822 44.5176 0
273.545 48.9692 0
182.31 13.5563 0
186.921 11.6237 0
47.0941 1.32389 0
43.1704 4.42303 0
35.6794 24.9984 0
30.7793 25.9928 0
455.358 42.0566 0
454.04 46.8796 0
304.255 11.6847 0
303.496 16.6267 0
287.903 57.1305 0
289.488 52.3883 0
289.668 41.352 0
293.6 44.4396 0
319.476 9.55434 0
318.546 4.64168 0
360.927 55.8649 0
365.89 55.2533 0
328.897 1.49803 0
332.87 4.53309 0
239.023 48.4074 0
236.037 52.4181 0
238.796 10.7308 0
243.022 13.4026 0
20.0293 37.406 0
16.0974 34.3173 0
174.786 27.5357 0
179.784 27.6685 0
343.686 50.5562 0
338.962 48.9179 0
165.885 18.957 0
162.279 22.4203 0
85.4015 9.41992 0
84.762 4.46098 0
386.114 44.433 0
381.169 45.1689 0
157.719 4.47231 0
156.354 9.28224 0
385.037 18.2557 0
382.33 22.46 0
260.963 45.5521 0
257.192 42.2691 0
414.71 9.02459 0
416.893 4.52628 0
334.361 40.4752 0
339.212 41.6856 0
397.698 5.46596 0
392.712 5.0886 0
143.306 20.0613 0
147.12 16.8281 0
480.502 45.8734 0
477.693 41.7374 0
485.494 18.6842 0
485.356 23.6823 0
106.828 41.2495 0
111.814 41.6178 0
308.666 18.2857 0
313.621 17.6138 0
44.4531 7.65224 0
42.7114 12.3391 0
432.584 46.0042 0
433.375 41.0672 0
328.062 40.6257 0
326.217 45.2725 0
345.039 38.4949 0
347.913 34.4035 0
107.246 56.772 0
110.942 53.4037 0
93.6381 53.8301 0
90.2135 50.187 0
199.921 48.7961 0
203.648 45.4629 0
8.72014 45.7549 0
12.66 42.6764 0
245.876 22.1654 0
249.464 18.6827 0
472.742 27.828 0
468.351 25.4375 0
243.056 47.1148 0
241.396 42.3982 0
114.872 51.67 0
110.03 52.9181 0
356.996 43.9827 0
360.158 47.8565 0
460.204 14.7804 0
455.217 15.1439 0
285.27 4.23416 0
289.098 7.45124 0
260.457 11.79 0
263.687 7.97408 0
46.2492 50.5568 0
50.9116 52.3628 0
107.139 10.4567 0
102.176 9.84686 0
375.904 14.2614 0
372.739 10.3907 0
161.415 13.3601 0
165.789 15.7821 0
391.366 18.526 0
395.247 15.3727 0
127.828 2.9092 0
123.627 0.197733 0
497.868 32.4347 0
497.468 27.4506 0
323.912 36.6861 0
320.853 32.731 0
54.9238 53.1018 0
59.6887 51.5865 0
366.762 58.8262 0
366.952 53.8298 0
414.786 42.0946 0
417.792 38.0994 0
265.816 35.6262 0
264.538 40.4601 0
216.995 53.9579 0
218.32 58.7791 0
384.887 39.6884 0
388.21 43.425 0
66.351 51.3375 0
65.4063 46.4275 0
426.321 52.4524 0
425.764 47.4836 0
292.12 1.69568 0
294.13 6.27386 0
49.0223 29.8762 0
44.3612 31.6857 0
384.626 24.4713 0
380.854 21.1887 0
340.991 39.4448 0
342.81 44.1024 0
145.284 6.61961 0
141.762 3.07139 0
356.462 34.936 0
359.509 30.9716 0
188.365 55.5795 0
193.307 56.3412 0
254.339 24.5466 0
259.12 26.0109 0
19.9311 41.331 0
15.0992 40.0455 0
288.872 12.5991 0
283.874 12.4436 0
251.24 36.6707 0
255.556 39.1951 0
306.487 0.0779819 0
307.055 5.04567 0
271.431 43.9207 0
276.357 43.0624 0
473.366 55.0333 0
478.336 55.5809 0
294.61 46.3057 0
296.125 41.5409 0
238.248 38.6365 0
234.437 41.8721 0
361.655 31.337 0
361.065 36.302 0
481.91 22.1155 0
479.281 17.8627 0
211.773 26.8606 0
212.783 31.7576 0
87.9367 5.17497 0
92.6927 3.63237 0
260.974 53.8736 0
257.747 50.0551 0
410.192 44.9424 0
415.184 44.657 0
450.389 0.344812 0
455.38 0.639671 0
117.912 0.21235 0
112.936 0.701448 0
327.726 10.5727 0
327.331 15.5571 0
334.699 42.5848 0
339.022 45.0973 0
30.1082 21.8647 0
35.1033 22.0866 0
320.359 1.92185 0
315.423 2.71803 0
7.00346 57.991 0
6.54357 53.0122 0
289.065 59.2688 0
284.137 58.4261 0
431.298 0.827186 0
426.91 3.22432 0
119.861 36.3903 0
122.695 40.5091 0
363.877 26.9369 0
360.04 30.1426 0
217.688 19.6796 0
215.274 24.0583 0
214.361 8.53666 0
211.027 12.2626 0
73.3645 46.7429 0
73.6761 51.7332 0
115.668 32.1849 0
111.323 29.7118 0
357.648 2.32769 0
359.112 7.10856 0
177.553 29.1971 0
179.467 24.578 0
320.4 46.9617 0
316.973 50.603 0
341.285 16.1745 0
346.233 16.8967 0
47.2795 20.2802 0
45.1535 24.8057 0
316.041 31.948 0
320.709 33.7393 0
360.571 7.98017 0
356.429 10.7808 0
56.4127 12.879 0
59.2185 17.0175 0
27.8249 46.9145 0
24.1569 50.3124 0
369.951 47.939 0
370.252 42.948 0
264.079 0.974768 0
268.449 3.40478 0
54.9871 36.6792 0
54.8537 41.6775 0
446.503 49.5821 0
448.814 45.1483 0
183.728 0.984196 0
188.674 0.254853 0
58.4919 33.0458 0
63.2403 34.6122 0
455.246 7.94144 0
456.18 12.8534 0
431.956 10.8436 0
427.011 10.1059 0
86.6346 2.14349 0
91.5586 1.27509 0
362.219 56.6879 0
363.21 51.7871 0
123.693 17.7219 0
123.698 22.7219 0
39.1683 46.0723 0
38.7501 41.0899 0
174.058 34.3965 0
172.091 29.7999 0
344.305 36.4823 0
347.573 40.2668 0
53.3929 16.1267 0
56.0034 11.8623 0
218.178 22.2323 0
223.112 21.4222 0
275.973 19.6493 0
278.688 23.848 0
65.0024 54.6838 0
61.064 57.7643 0
195.411 48.9627 0
190.541 50.0961 0
350.921 33.4849 0
355.843 32.606 0
63.325 58.0952 0
63.1728 53.0975 0
239.046 29.4138 0
241.783 33.5983 0
225.24 46.5152 0
222.457 42.3608 0
207.171 59.5274 0
210.12 55.4897 0
10.6071 36.9852 0
11.7692 32.1221 0
442.112 10.5777 0
443.918 15.24 0
357.864 31.2315 0
355.037 35.3562 0
111.504 18.2639 0
114.275 14.1014 0
259.289 10.8147 0
264.158 9.67701 0
382.123 9.65679 0
383.423 14.4847 0
335.088 49.5619 0
334.21 44.6396 0
232.426 4.75145 0
229.987 9.11588 0
94.0407 57.8786 0
92.5082 53.1192 0
152.224 4.4814 0
147.488 2.878 0
69.1863 11.941 0
68.1767 7.044 0
238.842 5.73912 0
234.677 2.97185 0
438.562 7.81506 0
435.053 11.3767 0
335.168 7.09443 0
335.236 12.094 0
69.4954 52.5506 0
66.993 48.2219 0
172.58 34.412 0
172.281 39.4031 0
368.269 47.6167 0
364.46 44.3775 0
248.637 45.3901 0
253.634 45.2161 0
260.459 5.89378 0
262.495 10.4605 0
338.365 53.3641 0
334.96 49.7025 0
346.514 26.8262 0
349.056 22.5205 0
427.99 9.04862 0
425.804 4.55212 0
140.355 17.0894 0
139.585 12.1491 0
210.604 22.5116 0
215.412 23.8824 0
144.226 19.5711 0
145.543 14.7476 0
157.473 37.0958 0
153.741 40.4224 0
67.2117 45.7739 0
72.2054 45.5224 0
455.732 1.40848 0
457.94 5.89436 0
205.44 43.91 0
203.966 48.6878 0
139.177 21.9338 0
137.21 26.5306 0
413.916 37.5904 0
409.537 35.1755 0
484.179 57.7529 0
486.025 53.106 0
124.941 51.496 0
120.553 49.0988 0
189.297 52.1684 0
184.867 49.8492 0
278.251 47.5914 0
273.324 46.7406 0
237.323 25.6684 0
233.892 29.3061 0
274.775 14.7076 0
269.783 14.4288 0
122.828 52.2074 0
118.088 53.7985 0
9.46863 14.2572 0
6.95823 9.93313 0
461.687 49.9167 0
458.699 45.9082 0
276.327 23.4704 0
281.326 23.3539 0
52.5849 30.6256 0
47.9159 32.4146 0
409.502 40.5576 0
414.095 38.5819 0
12.1236 37.5502 0
7.47957 39.4029 0
274.447 45.1682 0
269.465 44.7451 0
385.16 33.3893 0
387.253 28.8485 0
403.313 12.9901 0
399.215 10.1256 0
11.282 2.3515 0
16.282 2.34274 0
387.88 45.7324 0
392.662 44.2712 0
279.985 22.9274 0
275.75 25.5859 0
392.773 47.0582 0
389.22 43.5402 0
251.461 56.1172 0
249.92 51.3604 0
118.109 42.4039 0
116.075 46.9715 0
341.828 1.6933 0
346.426 3.65761 0
148.474 10.8239 0
143.817 9.00524 0
310.02 53.4528 0
313.732 56.802 0
182.519 7.1424 0
186.472 10.2033 0
208.942 49.9056 0
211.208 54.3627 0
379.26 44.3721 0
381.285 39.8003 0
365.827 9.83856 0
362.363 6.23291 0
333.728 50.4694 0
331.803 45.8548 0
20.9139 15.4882 0
15.9454 16.0486 0
156.161 9.38944 0
161.134 8.87737 0
331.217 54.5893 0
327.65 58.0933 0
447.314 6.47799 0
447.367 1.47827 0
28.1471 47.4975 0
23.1931 48.1739 0
368.528 42.5288 0
369.226 37.5778 0
41.8636 53.0521 0
45.9063 50.1099 0
55.3688 13.0587 0
56.2514 17.9801 0
227.125 53.5749 0
231.92 52.1555 0
287.331 11.4738 0
282.361 12.0144 0
52.0809 44.2623 0
47.0926 43.9211 0
185.865 28.7978 0
181.901 31.8463 0
204.761 45.4955 0
204.245 50.4688 0
216.002 14.4301 0
211.003 14.3559 0
315.809 3.15412 0
317.308 7.92422 0
431.226 44.5334 0
433.184 39.9327 0
417.94 5.55709 0
413.311 7.44642 0
151.217 8.63913 0
156.154 9.42609 0
317.324 19.0517 0
320.83 15.4868 0
155.371 59.1124 0
150.425 58.3791 0
382.613 12.1057 0
379.569 8.1384 0
331.803 44.6402 0
328.253 41.1195 0
248.305 40.1675 0
243.45 41.3639 0
432.922 27.8782 0
429.203 31.2205 0
392.346 43.7193 0
394.262 48.3379 0
303.474 12.1948 0
306.384 8.12901 0
282.884 42.0099 0
287.868 41.6189 0
249.967 23.0239 0
248.987 27.927 0
208.095 13.341 0
203.94 16.1229 0
258.517 10.6982 0
263.505 11.054 0
78.0814 32.6423 0
80.0031 37.2582 0
199.302 16.2948 0
194.313 15.9738 0
203.299 11.1665 0
198.667 13.0491 0
426.455 54.5025 0
423.612 50.3894 0
314.955 25.0129 0
317.458 29.3412 0
163.548 50.9242 0
166.649 54.847 0
59.3899 41.6162 0
54.8538 43.7195 0
467.614 30.896 0
472.561 30.1659 0
350.705 0.564662 0
352.039 5.38343 0
267.453 49.7925 0
266.483 54.6974 0
214.794 24.8086 0
209.872 25.688 0
362.184 53.764 0
358.952 49.9491 0
280.764 29.0303 0
284.917 31.8147 0
276.811 35.593 0
281.803 35.3079 0
456.607 39.9967 0
459.7 36.0685 0
74.8109 18.874 0
69.8566 19.5484 0
88.5858 49.756 0
86.0545 54.068 0
260.085 59.6983 0
258.259 55.0437 0
69.4414 44.4613 0
67.0708 40.059 0
463.323 45.4327 0
465.477 40.9207 0
326.864 35.9959 0
322.847 38.9726 0
332.707 46.2569 0
331.079 50.9845 0
394.843 42.0943 0
399.843 42.1432 0
275.846 50.676 0
272.339 54.2396 0
17.7213 19.5657 0
22.6704 18.8543 0
430.71 21.5389 0
434.376 24.9389 0
291.377 19.0722 0
287.074 21.6193 0
406.613 21.811 0
406.438 16.8141 0
382.724 17.1663 0
386.129 20.8274 0
415.994 36.6938 0
420.748 38.243 0
213.833 40.7891 0
209.089 39.209 0
447.015 54.3234 0
450.04 50.3423 0
480.684 44.5834 0
481.371 39.6308 0
141.018 55.3929 0
136.855 52.623 0
148.766 12.2228 0
153.158 9.83202 0
423.734 46.2903 0
427.625 49.4297 0
361.894 9.63133 0
358.724 5.76518 0
16.5619 51.2936 0
12.8175 47.9801 0
120.201 19.8159 0
125.139 20.6019 0
369.365 35.1284 0
365.268 37.9937 0
115.017 46.0045 0
110.392 44.1038 0
171.25 27.1901 0
175.82 29.2178 0
300.053 46.4837 0
297.081 50.5049 0
214.661 42.7873 0
217.9 46.5972 0
269.214 9.96088 0
270.758 5.20509 0
170.823 59.44 0
175.221 57.0623 0
185.768 52.9324 0
185.771 57.9324 0
380.61 51.8556 0
376.755 55.0396 0
249.444 25.558 0
244.507 26.3457 0
122.875 43.571 0
118.938 40.4889 0
30.5732 45.8521 0
25.6819 46.8888 0
438.103 8.93808 0
438.088 13.9381 0
178.983 41.0682 0
183.202 38.3849 0
428.863 58.3521 0
433.052 55.6224 0
383.957 14.6591 0
388.957 14.6023 0
157.18 38.2942 0
157.075 33.2953 0
352.979 11.9417 0
351.023 7.34018 0
290.002 1.18357 0
294.91 0.22855 0
25.2815 5.7647 0
30.2251 5.01573 0
106.1 16.5149 0
105.004 11.6364 0
286.132 49.9384 0
285.478 54.8955 0
262.912 10.3607 0
267.808 11.375 0
129.316 41.499 0
132.675 45.2031 0
445.497 53.3072 0
441.767 56.6375 0
334.077 3.41736 0
330.31 6.70522 0
159.26 35.5217 0
159.9 40.4806 0
425.303 42.4246 0
425.019 37.4327 0
21.9849 16.9714 0
21.662 11.9819 0
485.16 39.3966 0
488.323 35.5242 0
247.98 37.874 0
243.001 38.33 0
187.313 24.0926 0
183.233 26.9837 0
266.287 58.7961 0
262.008 56.2096 0
412.648 5.51754 0
412.166 10.4942 0
433.498 32.5823 0
431.4 28.044 0
143.988 43.9337 0
148.965 43.4585 0
461.392 11.5466 0
464.132 7.36419 0
205.621 16.1529 0
201.751 12.9866 0
153.179 54.6294 0
149.791 58.307 0
452.25 20.9502 0
457.037 22.3967 0
11.7304 0.0737789 0
6.83972 1.11354 0
335.803 6.7342 0
335.531 1.74156 0
204.175 49.2215 0
200.936 53.0304 0
170.085 21.2926 0
173.827 17.9764 0
13.6543 5.67096 0
11.5595 1.13095 0
222.085 53.5571 0
225.029 49.5161 0
125.031 24.8541 0
120.037 25.0957 0
70.8162 8.38139 0
66.4663 10.8468 0
33.0547 25.3094 0
36.7649 21.9577 0
411.984 47.1112 0
415.828 50.3085 0
145.524 6.74063 0
148.502 10.7573 0
264.118 49.6601 0
268.962 48.4222 0
259.55 37.0488 0
262.584 33.0744 0
375.905 23.3478 0
377.239 18.5291 0
284.357 32.913 0
281.42 36.9595 0
12.0524 30.4051 0
16.9799 29.5568 0
110.694 0.835314 0
115.025 3.33522 0
405.229 14.1633 0
404.869 9.17622 0
295.421 4.62903 0
298.898 8.22202 0
195.755 52.1203 0
191.814 49.0426 0
112.221 0.314667 0
113.703 5.09021 0
46.8692 6.99259 0
51.46 8.97366 0
49.7302 31.1867 0
44.7719 30.5426 0
156.378 32.9016 0
160.527 35.6912 0
346.584 36.1123 0
344.854 40.8035 0
258.801 49.6656 0
254.269 51.7771 0
463.418 59.9839 0
468.385 59.4115 0
466.431 28.511 0
466.131 23.5201 0
66.6929 56.6434 0
64.6106 52.0977 0
362.877 40.7619 0
366.216 44.4839 0
248.125 59.6788 0
250.282 55.1678 0
125.368 32.8989 0
129.711 30.421 0
94.2277 0.797157 0
89.9904 3.4515 0
29.2966 39.9624 0
24.3579 40.7429 0
222.412 54.6388 0
220.016 59.0277 0
392.936 3.41223 0
387.963 3.93297 0
163.206 58.7008 0
158.329 59.8037 0
89.5186 5.27351 0
85.0636 7.5435 0
112.484 13.0084 0
115.24 8.83663 0
138.116 13.4997 0
133.162 12.8163 0
496.59 17.1598 0
493.663 13.1061 0
48.7809 26.3201 0
44.4991 28.9019 0
473.218 29.7714 0
473.516 34.7625 0
182.557 50.2698 0
178.826 53.5976 0
228.093 41.0396 0
225.363 36.8506 0
429.876 52.2625 0
425.179 50.55 0
364.46 4.48128 0
359.572 5.53175 0
233.537 16.9673 0
232.176 21.7786 0
43.0137 0.498332 0
40.5301 4.83784 0
145.777 20.0892 0
140.799 19.6276 0
119.187 45.4002 0
124.133 46.1321 0
453.043 53.4637 0
453.575 48.4921 0
6.59608 11.4893 0
1.66513 10.6612 0
61.6969 28.0922 0
66.3544 26.2736 0
250.73 36.3316 0
251.156 41.3135 0
32.5556 6.38983 0
35.7545 10.2326 0
161.983 0.588345 0
165.876 3.72548 0
435.089 9.55655 0
439.965 10.663 0
359.836 36.5515 0
361.011 31.6914 0
116.294 9.09795 0
111.93 11.5393 0
472.675 39.565 0
476.527 42.7519 0
484.533 45.3296 0
482.846 50.0364 0
70.7097 16.0549 0
71.6872 11.1514 0
236.206 18.4434 0
231.245 19.0672 0
187.751 52.1637 0
182.755 51.9559 0
383.125 46.2036 0
378.131 46.4629 0
76.6225 24.7348 0
79.3908 28.8985 0
411.32 35.4218 0
408.821 39.7521 0
0.129473 31.0788 0
4.48915 28.6307 0
43.7733 45.9101 0
47.8108 48.8594 0
131.546 35.6399 0
130.19 40.4526 0
115.995 35.9136 0
111.485 38.0734 0
366.202 56.7855 0
362.803 53.1183 0
364.215 14.6028 0
359.373 13.3578 0
40.7497 14.6873 0
42.5437 10.0202 0
217.682 32.5242 0
222.575 33.5563 0
166.39 48.3643 0
171.255 49.5195 0
495.006 56.6157 0
490.012 56.8671 0
311.849 20.463 0
308.378 16.8644 0
18.0962 50.8934 0
13.5001 52.8621 0
356.628 26.3069 0
360.311 22.9251 0
240.657 8.51477 0
244.901 5.8724 0
423.122 43.99 0
419.585 40.4553 0
445.062 21.3118 0
444.19 26.2352 0
81.389 13.4516 0
76.4226 12.8726 0
162.472 31.7718 0
167.081 29.8342 0
72.0101 21.7262 0
71.9839 26.7262 0
4.47921 21.6524 0
6.64724 17.1469 0
325.693 17.3712 0
320.719 16.8657 0
214.318 18.9934 0
211.818 14.6633 0
19.6177 47.9842 0
14.8471 49.4815 0
66.8808 3.52437 0
71.6727 4.95163 0
417.846 16.5922 0
417.993 21.59 0
411.676 52.09 0
413.329 47.3712 0
370.847 5.81016 0
369.019 10.464 0
32.5191 20.8766 0
37.4341 19.9589 0
291.226 43.3669 0
293.169 38.76 0
24.1754 21.8676 0
28.5998 24.1967 0
379.317 39.7131 0
376.27 35.7484 0
95.3086 54.9701 0
97.1606 50.3257 0
407.644 37.1607 0
404.293 40.8723 0
96.652 6.278 0
92.0149 4.40783 0
461.941 43.0156 0
463.31 38.2066 0
338.738 54.633 0
333.97 56.1389 0
83.4275 52.1799 0
87.7228 54.7393 0
121.383 40.9062 0
116.427 40.2445 0
252.987 29.1001 0
255.183 33.5924 0
321.005 43.2436 0
317.691 39.4994 0
391.588 10.7983 0
393.865 15.2497 0
354.067 16.448 0
357.55 20.0353 0
487.703 42.9524 0
491.214 39.393 0
212.685 16.0574 0
210.585 20.5951 0
331.633 53.1916 0
336.624 53.4931 0
498.251 30.8354 0
499.376 25.9636 0
464.362 11.0112 0
467.341 6.99584 0
479.695 45.9444 0
477.485 41.4593 0
410.849 28.6728 0
415.209 31.1221 0
344.538 40.7845 0
347.23 44.9978 0
332.247 34.9724 0
332.809 39.9407 0
206.842 44.4393 0
209.544 48.6461 0
441.379 14.8579 0
442.911 10.0984 0
145.487 20.9559 0
148.9 24.6103 0
257.344 13.226 0
262.144 11.8232 0
164.406 7.42369 0
169.302 6.4099 0
317.616 59.5355 0
314.044 56.0369 0
135.538 43.7642 0
134.329 38.9127 0
479.314 2.42471 0
483.116 5.67198 0
455.489 7.32425 0
460.254 8.8395 0
63.6673 27.6472 0
62.179 32.4206 0
2.75363 53.0751 0
3.14657 58.0596 0
260.632 52.2092 0
258.499 56.7312 0
50.1609 47.7674 0
46.9033 51.5606 0
183.51 43.2803 0
185.492 38.69 0
496.24 57.5168 0
491.755 55.3079 0
489.18 10.837 0
492.361 14.6944 0
317.67 19.8982 0
320.103 15.5301 0
272.872 6.90017 0
274.712 2.25095 0
373.757 39.3965 0
378.549 37.9662 0
132.362 28.0518 0
136.53 25.2899 0
151.84 13.4832 0
147.399 11.1851 0
125.338 54.1016 0
121.581 50.8025 0
423.498 45.6704 0
420.287 41.8377 0
334.476 39.6073 0
336.678 35.1187 0
54.2327 26.6553 0
53.1869 31.5447 0
471.546 25.6069 0
469.709 30.2572 0
149.986 7.02563 0
146.633 10.7342 0
231.128 45.0846 0
226.53 43.1191 0
144.351 53.6645 0
148.282 56.7547 0
235.941 19.724 0
230.95 19.42 0
114.197 41.9375 0
109.903 44.4995 0
141.46 48.7681 0
137.245 46.0783 0
120.441 10.1303 0
123.951 13.6919 0
6.15754 17.1058 0
5.57763 12.1396 0
313.01 50.1607 0
314.621 45.4276 0
459.006 8.42711 0
456.519 4.08955 0
62.6659 58.697 0
57.669 58.8737 0
317.565 41.6217 0
318.933 36.8124 0
453.055 22.2067 0
450.647 26.5887 0
355.495 18.9474 0
360.199 17.2526 0
486.496 38.7915 0
490.841 41.2657 0
217.289 22.1289 0
213.905 18.4481 0
306.132 5.9102 0
310.841 4.22715 0
110.417 48.0181 0
106.04 45.5999 0
239.029 7.43117 0
237.339 2.72549 0
250.598 23.1328 0
255.594 23.3332 0
238.447 16.7992 0
237.841 21.7624 0
23.9718 8.95775 0
25.0838 13.8325 0
3.89674 22.3274 0
4.68992 17.3908 0
332.226 8.72248 0
330.132 4.18216 0
339.208 36.0261 0
342.471 39.8143 0
447.807 43.5446 0
443.551 40.921 0
77.6171 21.6601 0
75.4694 26.1753 0
428.737 3.92538 0
423.844 4.95328 0
280.684 39.067 0
282.123 43.8554 0
252.278 35.7082 0
256.777 33.5271 0
122.022 58.9443 0
125.995 55.9094 0
10.529 45.6303 0
14.2696 42.3126 0
138.406 29.3651 0
133.83 27.3511 0
478.958 46.3131 0
480.478 41.5498 0
221.662 21.169 0
223.187 25.9306 0
250.842 45.1385 0
249.665 49.998 0
198.805 49.4355 0
202.733 52.5297 0
456.587 4.48907 0
453.693 8.56645 0
382.08 17.8439 0
381.509 22.8111 0
159.824 53.0421 0
159.723 48.0431 0
310.242 2.20242 0
311.837 6.94136 0
103.95 15.4567 0
99.0438 16.421 0
229.906 13.029 0
225.314 15.0086 0
477.943 6.1654 0
473.512 3.84859 0
88.2576 29.9364 0
85.2225 25.9629 0
338.51 51.3656 0
343.47 50.7345 0
411.026 7.17816 0
415.863 8.44283 0
191.098 3.87547 0
196.077 4.32705 0
475.196 44.4002 0
474.589 49.3632 0
196.751 54.924 0
200.338 51.4408 0
498.241 15.1123 0
497.775 10.134 0
54.7551 13.4177 0
53.2259 8.65732 0
141.684 52.3324 0
145.015 56.0621 0
443.934 54.1062 0
448.404 56.3462 0
459.873 40.1789 0
460.913 35.2882 0
58.6977 21.6595 0
62.6614 18.6116 0
485.867 13.3307 0
483.098 9.16703 0
89.4326 13.4253 0
86.5221 9.35966 0
497.153 8.4956 0
493.348 5.25198 0
317.938 41.838 0
319.408 46.617 0
487.27 58.7208 0
488.036 53.7798 0
209.849 32.6948 0
212.305 28.3392 0
405.927 56.016 0
409.637 59.3691 0
300.533 13.0464 0
295.638 12.0287 0
383.43 17.6953 0
386.151 13.5004 0
395.412 3.84385 0
390.845 5.87902 0
434.221 41.6607 0
431.019 37.8205 0
448.204 58.8748 0
452.14 55.7912 0
434.309 40.9128 0
437.73 37.2662 0
446.777 44.2925 0
443.848 48.345 0
182.678 33.4117 0
184.487 38.0732 0
151.456 58.0488 0
154.74 54.2784 0
28.0058 53.0452 0
25.9178 48.5021 0
416.428 3.47077 0
421.292 2.31349 0
314.606 44.2413 0
309.692 43.3189 0
61.213 7.86952 0
60.8832 12.8586 0
339.319 52.8848 0
343.829 50.7276 0
19.6934 14.1285 0
22.3815 9.91251 0
125.933 46.998 0
128.459 51.3126 0
143.64 28.5984 0
146.322 24.3782 0
465.327 55.9925 0
470.317 55.6824 0
432.303 57.6759 0
435.393 53.7452 0
423.336 39.069 0
428.252 39.98 0
149.117 31.5873 0
145.446 28.1918 0
140.271 40.9897 0
138.324 36.3844 0
263.853 0.290949 0
266.144 4.73505 0
63.5275 18.6854 0
65.6048 23.2335 0
435.514 37.1839 0
439.972 39.4488 0
330.819 40.1208 0
326.04 38.6506 0
364.031 31.7389 0
366.184 36.2514 0
483.417 24.9141 0
478.422 24.6897 0
230.14 54.5098 0
229.247 49.5902 0
492.892 13.2637 0
489.145 9.95256 0
36.1608 8.44585 0
34.7382 3.6525 0
433.355 48.423 0
429.754 44.954 0
191.575 38.002 0
188.951 33.7459 0
172.173 9.45444 0
168.278 12.5895 0
132.82 39.2702 0
135.665 43.3826 0
399.581 45.4478 0
395.461 42.6152 0
482.8 43.4139 0
486.102 47.169 0
162.598 21.4844 0
163.733 26.3538 0
378.416 35.9935 0
376.915 31.2242 0
277.53 25.3232 0
279.378 20.6772 0
142.828 21.463 0
144.562 26.1528 0
367.655 19.0646 0
364.082 22.5622 0
175.429 21.0934 0
179.625 23.8117 0
144.624 33.1946 0
139.673 33.8908 0
162.03 28.1782 0
157.275 29.7262 0
282.984 24.1985 0
283.159 29.1954 0
100.247 53.1096 0
95.3154 52.286 0
136.991 52.7195 0
141.96 53.2688 0
20.1233 49.9339 0
18.2306 45.3059 0
338.958 55.6296 0
333.961 55.4587 0
415.659 16.3422 0
420.62 15.7198 0
17.7218 19.0354 0
12.7258 19.2358 0
156.266 0.512934 0
154.776 5.28567 0
86.3723 30.0808 0
87.3343 34.9874 0
50.9527 33.9321 0
46.5992 36.3913 0
52.0636 32.9538 0
47.3589 31.2608 0
251.714 23.8107 0
254.646 19.7604 0
436.876 19.0663 0
433.124 22.3713 0
320.68 36.0721 0
315.685 35.8421 0
254.458 13.1033 0
252.488 8.50771 0
16.1153 40.2056 0
17.2471 45.0758 0
131.476 16.2452 0
135.026 19.7658 0
223.444 46.788 0
222.734 51.7374 0
113.14 0.993886 0
116.543 4.65666 0
175.242 51.6844 0
179.236 54.6918 0
286.518 41.8663 0
286.251 46.8591 0
411.108 51.3185 0
406.739 53.7491 0
275.309 7.56813 0
280.286 8.0416 0
381.34 15.8782 0
384.125 11.7253 0
403.951 8.81719 0
404.237 3.82537 0
115.341 56.6085 0
119.178 59.814 0
319.567 7.91733 0
321.43 3.27748 0
170.534 53.7405 0
171.9 48.9308 0
311.119 10.8543 0
308.579 15.161 0
383.257 5.31183 0
388.181 4.43969 0
378.283 54.3936 0
378.298 49.3936 0
290.213 15.3665 0
291.529 20.1902 0
190.356 8.05586 0
191.987 3.32942 0
281.304 48.0743 0
285.405 45.2133 0
376.957 34.5372 0
380.244 30.7699 0
31.1002 6.45539 0
27.2003 9.58436 0
265.211 42.0949 0
268.915 45.4538 0
240.519 1.84387 0
245.069 3.91731 0
252.903 45.5035 0
252.525 50.4892 0
235.218 24.7332 0
235.295 19.7338 0
274.763 24.9807 0
269.88 23.9044 0
192.073 18.3189 0
192.667 13.3542 0
235.629 34.2464 0
240.169 36.3404 0
156.198 55.696 0
155.355 50.7675 0
49.9277 7.05205 0
47.3494 2.76811 0
53.0988 26.4159 0
56.208 30.3317 0
397.097 8.8864 0
400.833 12.21 0
134.749 35.5819 0
136.505 40.2635 0
305.429 4.20668 0
310.166 5.80596 0
78.941 39.6204 0
82.9424 36.6223 0
328.116 11.9818 0
332.91 13.4031 0
65.8514 6.92407 0
64.3806 11.7028 0
105.048 41.3767 0
107.484 45.7432 0
320.798 14.5368 0
317.264 18.0739 0
332.853 31.4535 0
330.991 26.8131 0
469.767 30.5749 0
474.538 32.0714 0
347.941 26.4655 0
342.972 27.025 0
114.779 48.417 0
110.124 46.5917 0
211.433 11.4585 0
210.536 6.53978 0
115.988 25.109 0
118.413 29.4818 0
174.632 49.0242 0
170.912 52.3647 0
201.066 50.7226 0
196.257 52.0915 0
352.347 45.4688 0
348.713 42.0347 0
77.7951 9.53883 0
73.8765 12.6444 0
13.7031 4.06791 0
9.11694 2.07604 0
447.623 25.5498 0
446.109 30.3153 0
368.786 14.9953 0
364.58 17.6978 0
298.729 14.7346 0
303.727 14.5944 0
271.041 7.10824 0
271.894 2.18145 0
391.065 4.43907 0
393.599 0.129149 0
413.038 23.8296 0
410.232 27.9678 0
331.313 13.1925 0
331.347 8.1926 0
384.046 2.60073 0
384.842 7.53701 0
72.6348 34.4695 0
68.783 37.6576 0
420.647 6.08417 0
425.625 6.54719 0
305.839 45.5848 0
301.255 47.5812 0
225.707 33.302 0
220.718 32.9756 0
367.915 22.4054 0
364.895 26.3908 0
445.329 53.5006 0
445.818 58.4767 0
151.8 57.2895 0
146.8 57.2201 0
178.398 21.3314 0
182.551 24.116 0
116.18 43.9655 0
113.224 47.9986 0
258.841 33.8214 0
260.909 38.3741 0
345.337 46.578 0
342.016 42.8403 0
257.498 40.0657 0
258.812 35.2416 0
15.9937 9.87031 0
16.1461 4.87263 0
138.603 26.9558 0
133.635 27.5176 0
187.214 40.9401 0
182.895 38.4217 0
327.85 26.7742 0
329.622 31.4498 0
330.18 23.5275 0
330.834 28.4846 0
49.9767 48.9675 0
51.2337 44.1281 0
135.379 14.699 0
136.677 9.87053 0
167.68 18.4585 0
172.332 16.6274 0
235.472 10.521 0
230.497 10.019 0
399.79 7.71871 0
404.727 8.50846 0
181.058 48.9758 0
185.375 51.4975 0
299.204 44.0121 0
299.8 48.9766 0
243.392 25.2191 0
240.28 21.3056 0
478.198 1.11004 0
478.157 6.10987 0
70.3561 13.8667 0
74.6798 11.3555 0
418.696 16.8219 0
416.79 12.1995 0
251.845 33.484 0
253.468 28.7549 0
53.7677 56.3974 0
50.6387 52.4975 0
215.802 10.5377 0
214.346 15.3209 0
338.143 52.9861 0
336.748 48.1844 0
497.638 4.16155 0
493.124 2.01176 0
462.584 39.5936 0
463.361 34.6544 0
488.451 46.4952 0
488.141 51.4856 0
142.261 35.4272 0
145.355 31.4998 0
281.776 32.7588 0
278.29 29.1746 0
199.953 45.7592 0
202.779 49.8844 0
178.166 27.5441 0
179.125 22.6371 0
231.856 42.1498 0
231.075 47.0885 0
28.0486 1.22301 0
25.3601 5.43869 0
248.815 20.8182 0
246.866 25.4226 0
378.112 54.6062 0
382.921 53.2397 0
364.316 29.5719 0
361.092 33.3936 0
494.314 9.39347 0
499.254 8.62014 0
493.107 54.0832 0
497.999 55.1139 0
481.045 19.8089 0
486.012 19.2381 0
340.675 19.7393 0
336.633 22.6828 0
486.032 51.0352 0
481.217 49.6876 0
491.719 15.6623 0
488.92 11.5188 0
244.585 12.3505 0
239.601 12.7554 0
211.975 49.6107 0
207.961 46.6299 0
471.963 3.7455 0
466.999 3.14486 0
58.6762 17.7631 0
53.7702 16.7985 0
74.7087 15.5034 0
78.137 19.1431 0
139.137 40.4972 0
134.171 39.9211 0
382.1 47.3937 0
387.06 46.7576 0
173.715 39.5075 0
178.44 41.1434 0
0.68914 49.9881 0
4.78079 47.1144 0
58.2346 8.15853 0
59.0622 3.22749 0
229.036 35.1359 0
225.549 31.5526 0
388.697 30.6621 0
389.72 35.5565 0
265.287 24.8899 0
260.304 25.3008 0
162.838 4.08341 0
158.339 6.26479 0
72.0817 24.9607 0
77.0672 25.341 0
194.074 46.9965 0
196.077 42.4148 0
240.014 13.6999 0
244.128 16.5414 0
11.2838 31.7631 0
6.84808 29.4556 0
220.62 33.2821 0
222.782 37.7906 0
150.263 7.92908 0
154.615 5.4673 0
156.706 44.9812 0
161.147 42.684 0
150.922 33.8464 0
145.924 33.9602 0
389.565 14.4714 0
386.797 18.6348 0
260.902 23.6298 0
256.964 20.549 0
105.529 15.6657 0
109.988 13.4054 0
145.765 49.5435 0
144.232 44.7843 0
364.593 20.8512 0
360.591 17.8542 0
350.649 8.3304 0
346.215 6.0186 0
343.374 28.4756 0
343.01 33.4622 0
137.851 19.1339 0
140.673 23.2614 0
456.789 55.0711 0
451.79 55.0228 0
233.516 31.0454 0
235.115 26.308 0
441.208 5.7423 0
442.867 1.02565 0
430.766 6.35477 0
425.898 7.49831 0
187.092 53.5645 0
183.402 50.1908 0
61.7975 40.1042 0
60.2413 35.3525 0
54.683 39.2114 0
55.2522 44.1789 0
33.9233 51.3075 0
30.2078 54.6534 0
237.5 42.5369 0
240.063 38.2437 0
410.541 52.9769 0
405.545 52.7824 0
465.604 8.12611 0
467.351 12.8112 0
238.702 55.0057 0
234.962 58.3244 0
393.56 47.9638 0
389.912 51.3836 0
133.086 22.9573 0
130.19 27.0327 0
32.4064 45.3846 0
37.389 44.9679 0
61.6968 50.9888 0
66.2832 48.9976 0
128.549 44.0611 0
131.873 47.7964 0
178.176 35.3301 0
182.991 36.6773 0
354.283 51.6353 0
349.375 52.5875 0
221.201 19.011 0
217.541 22.4172 0
79.7158 56.7046 0
75.6811 53.7515 0
137.625 50.9713 0
134.906 55.1678 0
10.7955 46.879 0
8.42675 42.4757 0
490.736 24.87 0
495.163 27.1937 0
351.238 4.73525 0
347.411 7.95344 0
274.975 32.3519 0
270.245 33.9715 0
156.474 7.62444 0
154.433 12.1891 0
125.589 2.15332 0
130.122 4.26201 0
123.772 59.9345 0
127.877 57.079 0
53.3417 55.5101 0
50.0753 51.7246 0
393.304 41.6597 0
395.602 46.1005 0
456.204 21.5432 0
455.019 26.4008 0
481.716 5.0453 0
486.075 7.49539 0
14.4093 24.8388 0
16.1225 29.5362 0
424.373 45.8848 0
420.437 48.9677 0
256.156 42.2325 0
258.492 37.8115 0
321.709 54.766 0
321.567 49.768 0
285.287 27.9877 0
284.894 32.9723 0
387.101 47.7183 0
383.014 50.5992 0
464.127 8.62522 0
465.096 13.5305 0
257.343 54.0209 0
254.621 58.2147 0
130.749 53.5047 0
133.416 57.7337 0
77.8185 5.09719 0
72.9499 3.95862 0
40.2121 40.1139 0
43.9411 43.4447 0
151.956 54.7879 0
150.285 59.5003 0
475.521 36.183 0
470.521 36.1625 0
164.166 39.5537 0
160.825 43.2732 0
438.788 44.168 0
443.566 42.6956 0
448.752 14.8316 0
444.033 13.1789 0
382.713 41.2235 0
387.653 40.4538 0
284.714 16.732 0
279.73 17.1235 0
24.4925 47.7703 0
28.5769 50.6543 0
459.481 30.4817 0
462.846 26.7834 0
351.784 11.9184 0
347.49 14.4794 0
252.097 49.4995 0
257.045 50.2214 0
318.584 55.4408 0
322.5 58.5504 0
25.1937 54.2239 0
20.4463 55.7928 0
489.778 17.3404 0
492.954 21.2019 0
323.102 29.9648 0
319.827 33.7432 0
411.232 45.811 0
406.607 47.712 0
158.492 54.433 0
155.856 58.682 0
76.3649 27.7422 0
79.0962 23.5541 0
282.076 10.1986 0
277.302 8.71124 0
266.516 43.8994 0
271.272 42.3547 0
16.5777 14.9945 0
14.3288 19.4602 0
12.7203 40.312 0
10.7251 35.7273 0
350.919 18.7944 0
347.22 15.4296 0
431.551 51.3414 0
426.772 52.8119 0
113.991 41.7105 0
113.35 46.6692 0
15.2658 36.4626 0
11.8184 32.8411 0
235.791 25.7782 0
239.018 21.9587 0
292.284 4.38888 0
287.564 2.73927 0
490.426 51.5347 0
494.401 54.5681 0
39.1697 40.1199 0
40.2808 44.9949 0
44.8908 50.3725 0
49.7815 49.3326 0
170.576 9.36575 0
175.077 7.18955 0
310.627 54.3674 0
309.784 49.4389 0
148.88 38.9155 0
152.148 35.1312 0
309.043 24.9635 0
310.56 20.1993 0
187.576 17.6585 0
189.083 12.8911 0
445.881 23.5278 0
445.283 28.492 0
220.583 55.3923 0
223.786 59.2318 0
348.35 54.8063 0
348.603 59.7999 0
116.818 47.5097 0
115.053 42.8313 0
139.522 31.6155 0
135.469 28.6871 0
343.557 25.095 0
343.539 20.0951 0
447.213 25.5352 0
445.112 30.0726 0
32.0033 19.1779 0
34.0497 14.6159 0
14.5227 40.572 0
12.2856 45.0436 0
293.044 10.9577 0
297.359 13.4839 0
78.2834 32.2667 0
82.5124 34.9341 0
229.286 41.4618 0
224.715 43.4867 0
163.321 45.0052 0
158.497 46.3177 0
184.652 45.9355 0
184.736 40.9362 0
175.924 34.1893 0
180.446 36.3235 0
62.9021 34.4903 0
67.4106 32.3287 0
121.424 57.8683 0
119.77 53.1497 0
280.194 51.8184 0
280.611 56.8011 0
440.077 41.2445 0
436.576 44.8144 0
264.555 43.8938 0
269.505 43.1868 0
378.56 20.8798 0
376.73 16.2268 0
416.536 10.7161 0
415.442 5.83719 0
72.3777 40.3105 0
70.4557 35.6947 0
298.244 50.4313 0
300.303 54.9877 0
394.226 10.7438 0
390.199 13.7075 0
176.055 20.008 0
180.955 19.0111 0
382.016 39.622 0
378.82 35.7767 0
46.5137 28.1883 0
50.0683 24.6719 0
10.7057 54.2219 0
12.1477 59.0095 0
123.504 39.7686 0
123.621 34.77 0
91.7526 44.706 0
96.7521 44.6322 0
140.26 36.0484 0
138.839 31.2546 0
452.475 15.2657 0
457.471 15.4649 0
470.385 52.5494 0
469.706 57.503 0
288.187 3.79976 0
289.147 8.7067 0
486.004 17.5041 0
490.78 18.9832 0
182.924 10.3438 0
186.562 6.91352 0
454.659 38.4411 0
453.308 43.2552 0
222.924 53.0133 0
226.996 55.9141 0
19.9322 45.1495 0
18.9874 50.0594 0
60.5801 31.4807 0
56.9814 28.0095 0
77.7732 58.5834 0
82.7579 58.9752 0
129.821 14.6971 0
133.966 11.9012 0
341.303 4.29097 0
336.338 3.69869 0
457.577 15.5759 0
462.385 14.2029 0
218.546 17.3336 0
222.555 14.3453 0
27.2819 48.4851 0
31.7883 46.319 0
467.282 34.0986 0
471.075 37.3566 0
32.4475 46.9813 0
31.5334 51.897 0
18.5892 33.8751 0
18.1696 28.8927 0
250.583 31.8056 0
255.548 31.2156 0
32.4518 39.6856 0
37.431 39.2292 0
125.188 44.1608 0
125.525 39.1722 0
408.309 6.37437 0
412.816 4.20855 0
206.887 51.7171 0
206.586 56.708 0
329.758 32.4587 0
334.526 30.9551 0
449.563 42.7925 0
447.099 47.1427 0
437.607 57.1295 0
432.861 58.7018 0
144.983 10.6146 0
142.034 6.57675 0
150.168 19.5748 0
149.863 24.5655 0
118.496 16.5814 0
113.497 16.4623 0
143.217 44.2285 0
144.018 49.164 0
377.564 26.8634 0
378.324 31.8053 0
169.045 30.7797 0
173.945 31.7748 0
414.892 39.1475 0
419.69 40.5576 0
18.4951 28.803 0
20.8646 33.2059 0
184.252 48.2262 0
184.034 43.2309 0
220.752 48.1109 0
215.769 47.7004 0
118.701 37.0982 0
115.754 41.1378 0
456.647 36.6044 0
451.654 36.3399 0
108.608 51.6629 0
105.151 55.2753 0
253.693 54.7452 0
256.249 50.4481 0
202.217 5.57793 0
201.171 10.4673 0
348.681 32.9728 0
344.787 29.8358 0
119.925 23.1933 0
115.27 25.0175 0
389.372 45.8163 0
387.21 50.3244 0
128.259 28.3511 0
131.441 24.4937 0
64.2827 28.5315 0
65.725 33.319 0
187.033 50.2908 0
184.233 46.1484 0
23.7918 19.097 0
22.9494 24.0255 0
84.3819 18.8772 0
79.458 19.7461 0
240.981 30.9327 0
245.774 29.5087 0
329.786 41.5781 0
334.786 41.5838 0
364.303 48.8176 0
361.843 53.1707 0
429.057 19.3315 0
433.368 16.7982 0
354.694 34.7834 0
359.319 32.8852 0
442.762 35.316 0
444.184 40.1095 0
242.957 5.81745 0
244.629 1.10558 0
142.276 33.3146 0
139.143 37.2107 0
169.32 57.359 0
165.832 53.7763 0
479.052 33.8766 0
481.598 38.1803 0
477.921 38.2917 0
475.219 34.0846 0
384.118 6.76644 0
388.279 9.5395 0
277.821 53.5271 0
273.026 52.1101 0
68.6812 34.1941 0
68.8029 29.1955 0
7.66864 42.3238 0
11.9079 44.9749 0
51.971 22.7384 0
53.6159 27.4601 0
254.362 13.9499 0
251.107 17.7457 0
475.087 28.6737 0
472.262 32.7992 0
182.801 19.4644 0
187.284 17.2504 0
80.3039 37.9819 0
76.2546 40.9151 0
383.873 45.5057 0
388.87 45.6837 0
355.118 57.4251 0
360.067 56.7179 0
228.978 7.98238 0
226.543 3.61541 0
40.699 58.3635 0
39.7584 53.4527 0
355.966 2.81363 0
356.398 7.79494 0
275.366 45.5408 0
277.116 40.8572 0
474.083 30.0079 0
478.541 32.2717 0
494.017 54.4304 0
492.11 59.0526 0
356.524 1.23365 0
357.915 6.03618 0
137.915 24.346 0
137.491 19.364 0
277.846 29.9288 0
274.449 26.2593 0
130.681 19.4739 0
134.999 21.9949 0
156.32 50.837 0
156.119 55.8329 0
439.133 36.7371 0
437.738 31.9358 0
340.411 47.0492 0
335.496 46.1299 0
237.048 23.1953 0
239.416 27.5991 0
397.18 19.1812 0
402.151 19.7193 0
115.018 56.3241 0
118.453 59.9572 0
172.649 24.3595 0
176.615 21.3148 0
51.3488 21.6874 0
51.5637 26.6827 0
77.5401 5.15353 0
72.8489 3.42349 0
384.4 12.8319 0
381.007 16.5042 0
322.276 35.6279 0
327.262 35.2481 0
414.912 30.5781 0
410.812 27.7173 0
396.92 11.2181 0
393.863 7.26152 0
467.861 34.3162 0
472.826 33.7254 0
468.066 20.7701 0
466.564 25.5392 0
372.472 48.0736 0
376.408 44.99 0
424.615 34.052 0
429.345 35.6711 0
318.526 28.9908 0
313.709 27.6526 0
246.1 3.20649 0
241.391 4.88786 0
350.844 33.2636 0
351.111 28.2708 0
297.64 44.5572 0
302.316 46.3273 0
237.678 33.7924 0
237.305 38.7786 0
421.799 47.3921 0
424.084 42.9448 0
296.043 19.3145 0
291.201 18.0669 0
124.023 0.688915 0
125.935 5.30923 0
375.804 57.9315 0
371.239 59.9714 0
180.336 29.5912 0
180.107 24.5964 0
130.668 13.8014 0
130.823 18.799 0
469.218 47.487 0
471.142 42.8722 0
440.693 10.8806 0
444.74 13.8161 0
116.306 56.3862 0
114.864 51.5988 0
126.855 45.0813 0
130.004 41.1975 0
382.24 5.75761 0
386.88 7.61908 0
490.912 16.8989 0
493.72 12.7618 0
496.135 24.8758 0
496.392 19.8824 0
134.922 14.8505 0
135.771 9.92321 0
495.072 3.74396 0
496.72 8.46453 0
230.658 42.0205 0
227.791 37.9239 0
462.854 55.8654 0
467.425 53.8396 0
292.429 21.137 0
296.994 19.0965 0
101.597 48.172 0
102.942 52.9878 0
489.125 19.8592 0
488.588 14.8881 0
69.4949 42.3303 0
71.5463 46.8901 0
11.5448 0.958704 0
6.58226 1.56988 0
258.73 57.4364 0
253.793 58.2226 0
157.405 58.0375 0
161.813 55.6782 0
248.29 40.4437 0
244.862 44.083 0
116.548 45.6293 0
120.032 49.2156 0
205.226 40.5577 0
202.182 44.525 0
178.158 26.5027 0
182.959 25.1058 0
78.6396 56.5497 0
73.7908 55.3293 0
424.425 13.7898 0
426.525 18.3275 0
352.725 21.9066 0
352.895 26.9038 0
125.19 12.2877 0
120.217 12.8021 0
329.019 9.34099 0
329.374 4.35363 0
348.315 46.4831 0
343.323 46.214 0
67.6077 20.9209 0
65.3434 25.3789 0
235.829 19.5252 0
231.967 22.7012 0
485.873 46.1214 0
487.364 41.3489 0
225.326 50.692 0
229.352 53.6567 0
106.377 9.64213 0
110.274 6.50944 0
339.597 40.909 0
343.956 43.3579 0
467.492 41.6784 0
466.988 46.653 0
372.762 44.5066 0
377.257 46.6959 0
411.023 48.6851 0
412.386 43.8744 0
334.307 4.9382 0
334.071 9.93264 0
53.1719 29.609 0
48.517 27.7839 0
175.246 47.6683 0
179.622 45.25 0
342.45 44.413 0
345.52 48.3599 0
160.903 33.0057 0
162.593 28.2999 0
224.189 6.97672 0
229.188 7.07644 0
346.257 40.0636 0
347.353 35.1853 0
418.148 40.2324 0
413.265 39.1561 0
138.401 43.8357 0
138.26 38.8377 0
194.579 11.5633 0
198.929 9.09811 0
348.431 37.4657 0
350.277 32.8187 0
244.097 43.6657 0
247.915 40.4372 0
24.511 56.8989 0
29.5102 56.8098 0
363.738 31.4764 0
358.764 31.9859 0
319.227 32.1233 0
315.118 29.2747 0
464.323 54.3906 0
467.493 50.5235 0
229.171 47.9042 0
232.137 51.9294 0
297.559 14.9879 0
298.451 10.0681 0
360.527 34.8276 0
365.182 36.6531 0
190.895 4.27283 0
186.22 2.49952 0
300.623 14.5456 0
295.9 12.9058 0
54.3916 17.3218 0
55.3964 12.4238 0
87.3713 25.1551 0
82.7016 26.942 0
81.5753 36.7784 0
77.1215 34.5061 0
166.515 43.2747 0
165.887 48.235 0
423.264 40.5597 0
420.03 36.7466 0
47.9728 34.2454 0
42.9878 33.8585 0
480.786 23.0424 0
482.966 27.5422 0
7.15724 8.65151 0
2.21497 9.40915 0
488.011 2.96876 0
483.952 5.88861 0
439.843 52.5317 0
437.294 48.2306 0
339.363 18.5238 0
343.85 20.7296 0
209.177 42.6454 0
206.353 46.7711 0
476.975 51.6804 0
480.117 47.7912 0
317.976 23.7478 0
319.597 28.4779 0
276.777 18.0171 0
275.198 22.7612 0
299.328 41.586 0
301.814 45.9242 0
125.669 36.5012 0
126.065 31.5169 0
54.9674 29.7153 0
58.0228 25.7574 0
475.028 52.9177 0
480.026 52.7868 0
38.6313 25.6373 0
43.3316 23.9324 0
301.527 8.06827 0
300.611 12.9837 0
167.635 39.5964 0
170.417 35.4413 0
455.828 16.5282 0
460.294 18.7762 0
288.063 13.8674 0
283.064 13.7877 0
8.83919 33.1694 0
4.13467 31.476 0
13.2179 43.514 0
8.37128 44.7431 0
315.183 14.2617 0
311.692 10.6818 0
273.614 38.2576 0
273.91 43.2488 0
362.623 56.1437 0
365.161 51.8358 0
314.04 14.0737 0
318.935 13.0564 0
362.611 15.6365 0
367.594 16.0416 0
165.381 43.5392 0
162.351 39.562 0
153.12 16.4106 0
148.533 18.4012 0
442.949 54.4792 0
440.186 58.6463 0
471.617 53.0818 0
469.705 48.4621 0
202.876 44.4583 0
198.127 46.0229 0
496.73 30.9005 0
494.171 35.1958 0
495.583 52.8464 0
493.988 48.1079 0
247.61 37.6067 0
245.146 41.9576 0
218.302 21.2821 0
223.292 20.9703 0
117.69 58.8388 0
122.649 58.1976 0
287.756 36.2053 0
283.108 34.3614 0
497.413 33.5274 0
492.42 33.2585 0
274.446 9.91671 0
278.855 12.2737 0
38.8422 6.96631 0
37.9916 2.03919 0
169.521 52.1161 0
169.869 57.104 0
240.095 3.63466 0
240.118 8.63461 0
79.6607 5.23431 0
84.6594 5.12153 0
310.998 18.7024 0
309.213 14.0321 0
202.069 47.3294 0
199.892 42.8281 0
441.69 31.7008 0
441.116 36.6677 0
485.33 42.4773 0
483.642 47.1838 0
442.077 7.15837 0
438.85 10.9775 0
369.545 53.9294 0
368.109 58.7187 0
213.771 31.9352 0
210.452 28.1957 0
468.877 42.283 0
470.11 37.4375 0
332.013 3.61911 0
331.788 8.61406 0
195.17 56.2125 0
190.705 53.9629 0
124.784 47.8685 0
120.007 46.3921 0
452.678 31.5057 0
450.496 27.0066 0
331.74 23.7133 0
332.235 18.7378 0
375.247 10.2291 0
371.402 13.4259 0
76.2849 26.8954 0
72.4212 30.0691 0
482.33 32.3917 0
477.427 33.3691 0
222.245 5.44716 0
217.245 5.47429 0
73.7224 41.1444 0
76.2885 45.4357 0
344.973 39.4502 0
344.029 34.5401 0
301.938 57.9381 0
298.142 54.6838 0
342.177 9.20215 0
339.591 4.92267 0
405.562 4.63959 0
410.326 6.15781 0
344.852 31.1572 0
342.308 26.8532 0
258.36 59.4359 0
256.681 54.7261 0
334.951 11.222 0
330.219 9.60594 0
25.2013 49.2288 0
30.1995 49.3632 0
183.69 24.6142 0
179.025 26.4117 0
102.48 52.6418 0
106.789 50.106 0
460.51 0.360283 0
463.613 4.28134 0
372.028 45.6453 0
367.098 44.8138 0
246.213 35.9703 0
247.301 40.8505 0
393.44 6.9619 0
396.768 3.23013 0
492.73 41.917 0
490.931 37.2519 0
443.226 55.5799 0
444.409 50.7218 0
383.699 57.2546 0
379.361 59.7394 0
261.767 38.9722 0
264.767 34.9729 0
130.309 8.0125 0
130.074 3.01801 0
219.11 9.41485 0
217.754 14.2277 0
298.125 57.5947 0
296.118 53.0154 0
192.008 47.3085 0
195.675 50.7072 0
128.92 44.9539 0
124.872 47.8895 0
113.109 16.3851 0
114.226 11.5115 0
423.307 19.3527 0
421.124 14.8546 0
343.895 9.05605 0
339.256 10.9204 0
187.025 2.66844 0
187.256 7.6631 0
415.767 44.4535 0
413.125 40.2084 0
487.667 51.0382 0
488.235 46.0706 0
239.192 21.4341 0
237.045 25.95 0
209.43 49.7841 0
208.176 54.6242 0
441.992 22.6304 0
445.418 26.2717 0
173.637 18.9 0
170.254 15.2185 0
412.509 19.7161 0
412.236 24.7086 0
132.085 40.1199 0
132.78 45.0714 0
245.226 42.0083 0
245.418 47.0046 0
39.7935 43.1783 0
36.6894 39.2585 0
128.236 29.2945 0
123.714 31.4269 0
433.806 22.966 0
430.363 26.5921 0
51.1292 19.2614 0
49.2078 14.6454 0
472.217 15.8799 0
475.065 11.7699 0
17.9453 35.9128 0
13.1648 34.4477 0
52.0301 5.99803 0
53.014 1.0958 0
353.262 43.5317 0
355.594 47.955 0
450.462 51.8432 0
453.329 55.9392 0
153.889 14.357 0
148.899 14.6832 0
431.545 49.9936 0
434.5 54.0266 0
203.745 2.44778 0
200.272 6.0449 0
248.947 18.4906 0
247.258 23.1966 0
26.6326 48.8937 0
24.4495 53.3919 0
366.614 45.7746 0
367.678 40.8892 0
278.56 50.5854 0
283.264 52.2781 0
418.024 27.7259 0
423.008 28.1218 0
244.57 6.73605 0
239.574 6.93705 0
330.737 46.953 0
330.663 41.9535 0
19.7199 33.5044 0
19.6526 28.5048 0
246.955 9.99373 0
245.027 14.607 0
486.867 28.2264 0
491.556 26.4907 0
53.6376 21.6912 0
51.9601 26.4014 0
142.318 35.702 0
146.064 32.3898 0
452.563 31.2211 0
447.577 30.8435 0
310.902 47.0239 0
311.946 42.134 0
349.36 24.1158 0
352.196 28.2337 0
74.6743 8.46167 0
79.6735 8.5509 0
464.624 44.4442 0
468.128 40.877 0
401.009 57.943 0
403.461 53.5857 0
2.92066 54.1806 0
3.68128 59.1224 0
462.311 51.8449 0
463.068 46.9025 0
146.498 13.0712 0
149.432 17.1194 0
222.012 8.32278 0
217.253 9.85696 0
35.1174 15.0921 0
30.3116 16.4723 0
282.842 13.3799 0
281.148 8.67552 0
467.382 0.0205193 0
466.874 4.99467 0
267.532 46.0258 0
271.537 43.0327 0
78.1688 56.9069 0
74.2404 53.8138 0
444.602 8.5963 0
440.093 6.43564 0
431.255 26.5166 0
429.222 21.9484 0
488.368 36.4006 0
485.545 32.2741 0
248.827 43.1189 0
253.826 43.0132 0
167.088 33.05 0
170.17 29.1126 0
422.845 14.6995 0
419.199 18.1215 0
21.7336 54.0682 0
22.0563 49.0786 0
153.119 47.0489 0
148.939 49.7919 0
425.963 9.20113 0
424.809 14.0661 0
254.871 36.7132 0
253.926 41.623 0
156.443 55.4985 0
151.735 57.1819 0
301.748 56.6673 0
306.681 57.4855 0
325.135 35.0012 0
330.081 34.2698 0
334.022 11.2302 0
329.807 13.9186 0
238.217 17.568 0
242.685 19.8137 0
21.1055 6.52906 0
25.9872 7.61057 0
126.598 47.8326 0
128.324 43.1401 0
81.3592 23.0217 0
77.6648 26.3909 0
116.861 26.4711 0
117.058 31.4672 0
278.403 29.8593 0
275.114 33.6253 0
54.3491 11.4877 0
49.9396 9.13064 0
416.014 34.0703 0
414.808 29.218 0
319.105 3.94931 0
324.097 4.23371 0
146.977 4.70589 0
151.246 2.10349 0
367.705 28.3063 0
363.03 26.5328 0
154.393 50.4928 0
154.268 55.4913 0
180.945 28.6895 0
185.811 29.8368 0
495.7 22.299 0
495.002 27.2499 0
182.193 2.13999 0
177.235 1.49006 0
132.064 25.9596 0
133.599 30.7181 0
189.544 54.1145 0
193.113 57.6158 0
386.149 58.6711 0
383.252 54.5961 0
249.528 46.0505 0
254.08 48.1184 0
98.7753 16.6062 0
93.8542 17.4907 0
175.432 25.1026 0
173.529 29.7264 0
425.976 20.0761 0
429.928 17.013 0
238.264 7.13816 0
239.559 11.9676 0
441.468 35.8256 0
444.225 39.9967 0
181.901 16.4338 0
176.909 16.148 0
424.036 35.5067 0
423.884 30.509 0
180.818 10.2446 0
177.771 6.28043 0
169.052 47.3557 0
172.015 43.3282 0
14.7084 59.0522 0
12.7592 54.4478 0
373.638 38.1048 0
371.371 42.5612 0
290.004 4.78831 0
286.131 7.95102 0
433.338 5.82439 0
430.935 10.2092 0
214.245 58.6177 0
219.112 59.7631 0
77.2569 5.18169 0
81.9458 6.91794 0
400.349 54.2177 0
401.785 49.4284 0
263.279 11.159 0
263.336 16.1586 0
27.1434 31.3028 0
32.0436 32.297 0
215.472 46.0261 0
213.451 41.4527 0
120.76 0.0532691 0
116.555 2.75845 0
183.116 15.28 0
184.465 20.0945 0
357.984 55.079 0
353.67 52.5514 0
65.8625 36.5409 0
67.0068 41.4082 0
102.133 49.5264 0
100.147 54.1151 0
298.727 57.2972 0
293.739 57.6396 0
434.112 41.8139 0
430.089 44.7836 0
171.101 32.841 0
175.772 34.6247 0
19.273 2.65953 0
14.601 4.44065 0
188.098 50.7066 0
190.228 46.1833 0
84.6139 11.9545 0
80.4067 9.25286 0
367.457 32.3354 0
371 28.8066 0
449.77 54.6642 0
446.917 50.558 0
467.429 45.5163 0
464.243 49.3698 0
217.998 54.5234 0
215.94 49.9665 0
145.94 27.1252 0
146.166 32.1201 0
96.1127 18.1756 0
91.6714 20.4723 0
440.39 49.4128 0
442.087 44.7099 0
233.465 28.2565 0
238.414 27.5451 0
291.531 17.9321 0
295.848 20.4551 0
446.533 6.04732 0
450.307 9.32665 0
241.344 46.1303 0
243.999 41.8932 0
155.056 29.4852 0
156.627 24.7386 0
161.374 3.54134 0
165.177 6.78744 0
246.059 50.9343 0
247.426 55.7438 0
458.126 3.25145 0
453.434 1.52483 0
434.698 8.24598 0
439.362 10.0478 0
16.1701 19.2559 0
11.3271 20.499 0
143.015 39.1581 0
142.318 44.1092 0
435.251 10.8702 0
435.475 15.8652 0
205.698 50.3056 0
202.29 46.6473 0
332.448 17.8472 0
333.624 22.7071 0
76.0546 16.1879 0
74.8959 11.324 0
114.665 48.0721 0
112.766 52.6975 0
183.686 32.7891 0
185.925 37.2595 0
217.359 26.6224 0
212.505 27.8215 0
147.874 47.4522 0
152.857 47.0392 0
64.8846 46.4404 0
69.2085 48.9512 0
263.12 28.8154 0
267.291 31.5733 0
125.108 29.2116 0
124.716 34.1962 0
139.674 40.9648 0
136.782 45.0434 0
254.27 32.366 0
257.629 28.6625 0
285.962 7.8552 0
290.739 9.33061 0
485.792 44.2928 0
482.546 48.0957 0
44.5192 33.6402 0
49.4807 33.0208 0
331.542 5.02131 0
329.873 0.308167 0
430.19 56.0313 0
425.296 55.0072 0
455.453 14.2118 0
460.36 15.1709 0
51.8386 21.0572 0
56.26 18.7224 0
433.931 14.6239 0
435.608 19.3346 0
430.378 31.2232 0
427.52 27.12 0
330.191 47.0061 0
331.004 42.0726 0
20.4402 26.9667 0
25.0329 24.9902 0
255.194 5.88637 0
256.771 1.14141 0
268.971 26.0243 0
272.82 29.2163 0
234.297 55.912 0
238.251 58.9728 0
108.664 56.4764 0
111.666 52.478 0
64.8287 31.8091 0
62.1134 36.0075 0
278.755 56.4409 0
276.309 52.0798 0
141.259 5.18562 0
145.488 7.85454 0
281.703 23.5037 0
284.923 19.6789 0
244.287 34.5522 0
247.834 38.0762 0
321.317 19.021 0
325.231 15.9102 0
92.2255 59.8605 0
87.9763 57.2253 0
426.364 30.3723 0
431.364 30.4416 0
35.9525 41.6391 0
34.1585 36.9721 0
243.509 54.248 0
238.78 52.6235 0
417.774 50.0129 0
414.539 53.8258 0
183.268 35.7944 0
178.275 35.5321 0
122.407 25.1485 0
121.361 30.038 0
378.145 12.0877 0
374.843 15.842 0
413.334 24.5002 0
408.55 23.0461 0
59.7448 6.05142 0
56.2573 2.46852 0
303.099 7.78377 0
307.699 5.82557 0
364.563 1.39907 0
369.563 1.43143 0
255.223 7.61576 0
258.334 3.70135 0
17.1176 39.1444 0
13.5435 42.641 0
485.007 24.6995 0
490.001 24.4445 0
266.195 42.0618 0
269.979 38.7936 0
270.051 33.0065 0
268.542 37.7735 0
139.936 31.5351 0
141.78 36.1826 0
296.632 1.72017 0
301.543 0.780302 0
403.417 51.2855 0
405.94 55.6025 0
224.789 14.3 0
220.412 11.884 0
266.698 44.2802 0
264.304 39.8902 0
467.226 58.4061 0
462.476 59.9694 0
409.547 17.5681 0
410.973 22.3604 0
293.422 41.5548 0
290.359 45.5067 0
237.363 10.5104 0
232.445 11.4123 0
74.9028 19.2046 0
75.4725 14.2372 0
297.88 11.9563 0
293.054 10.649 0
190.631 42.0271 0
194.816 44.7641 0
157.81 22.2311 0
161.743 25.319 0
321.837 24.3337 0
323.992 28.8455 0
291.561 52.2646 0
292.224 57.2205 0
284.7 41.5067 0
281.529 37.6411 0
469.065 54.3955 0
464.131 55.1996 0
38.4087 1.5437 0
42.9667 3.59902 0
371.757 7.94294 0
376.388 6.05782 0
272.542 3.30166 0
271.855 8.25417 0
482.298 13.0931 0
486.009 9.74287 0
32.5363 32.854 0
27.5444 32.5697 0
233.672 50.8496 0
238.672 50.9047 0
248.294 50.2374 0
249.896 45.501 0
56.6356 21.3473 0
56.2591 26.3331 0
263.142 5.90964 0
264.433 1.07925 0
427.448 34.1591 0
430.006 29.863 0
84.0347 45.0514 0
79.0442 45.3587 0
451.858 35.3771 0
449.827 30.8083 0
379.224 9.11028 0
377.653 4.36352 0
444.521 23.7379 0
448.508 26.7546 0
53.7447 29.9472 0
49.1269 31.8645 0
150.28 52.6383 0
152.822 56.944 0
340.107 28.8987 0
343.588 32.4878 0
51.1975 51.1308 0
54.841 47.7066 0
271.871 14.5382 0
272.019 19.5361 0
128.271 35.2778 0
123.829 32.981 0
117.141 7.69836 0
122.128 8.05259 0
86.7493 26.5166 0
89.983 30.3301 0
184.86 2.74122 0
181.988 6.83391 0
230.969 34.4548 0
235.527 36.5096 0
4.2678 48.4293 0
8.3747 51.2812 0
10.9463 2.27225 0
15.5011 0.209865 0
340.402 58.4196 0
337.081 54.6815 0
247.462 17.4357 0
250.833 21.1282 0
185.528 31.0144 0
185.064 35.9927 0
22.093 12.9074 0
27.0626 13.4578 0
483.599 4.38958 0
486.759 0.514662 0
233.469 13.899 0
238.458 13.56 0
142.049 33.8557 0
141.602 28.8757 0
137.196 37.9694 0
132.546 36.1303 0
59.6623 32.0818 0
58.5795 27.2005 0
345.709 5.74777 0
347.767 1.19128 0
278.604 12.25 0
281.263 8.01538 0
427.514 21.1894 0
425.829 16.4819 0
319.916 41.8898 0
322.734 46.0201 0
462.014 22.9576 0
466.8 24.4064 0
213.144 17.1661 0
211.841 21.9934 0
427.302 47.107 0
425.628 42.3956 0
96.9513 47.3115 0
101.371 44.973 0
164.441 49.8022 0
167.066 54.0574 0
37.2956 44.4268 0
33.237 47.347 0
403.575 42.6019 0
401.294 47.0512 0
200.277 3.60919 0
197.588 7.82414 0
422.893 10.0317 0
421.431 5.25006 0
491.365 35.0495 0
492.372 30.1519 0
442.778 50.3029 0
445.302 45.9869 0
240.298 43.2087 0
239.197 38.3313 0
271.939 6.97129 0
273.673 11.661 0
344.199 32.9176 0
346.69 28.5823 0
397.716 44.2727 0
396.659 49.1596 0
35.5319 36.2265 0
40.317 37.6766 0
211.128 8.38395 0
208.569 12.6794 0
44.8773 16.6991 0
47.3589 12.3584 0
113.284 23.2663 0
114.7 28.0616 0
11.0698 16.9162 0
10.4181 11.9588 0
159.251 30.6293 0
163.288 27.679 0
446.336 33.7618 0
447.511 28.9019 0
421.951 38.9391 0
420.063 43.5689 0
496.415 48.4471 0
499.661 52.2505 0
427.762 43.8583 0
426.248 39.0929 0
211.386 26.0648 0
216.152 24.554 0
22.4354 6.79442 0
23.4322 11.694 0
78.5035 41.8527 0
79.6542 46.7185 0
110.746 7.45339 0
109.003 12.1397 0
211.428 53.2344 0
213.765 48.8139 0
428.083 23.3963 0
428.039 18.3965 0
141.068 57.4626 0
137.908 53.5874 0
497.27 31.0426 0
495.156 35.5736 0
319.895 12.1673 0
324.858 11.5619 0
443.718 32.3421 0
448.718 32.3271 0
74.3727 26.11 0
71.9782 30.4993 0
405.62 56.2359 0
410.582 56.8521 0
374.169 30.4732 0
377.912 33.7879 0
333.843 0.735752 0
329.215 2.6286 0
205.682 41.9979 0
209.534 45.1859 0
309.445 23.2706 0
312.856 26.9264 0
415.216 41.2123 0
417.917 37.0046 0
371.353 25.2201 0
376.335 25.6416 0
258.41 51.8603 0
263.115 50.1682 0
49.0617 12.5018 0
51.3003 16.9727 0
323.307 44.4634 0
319.709 40.9915 0
102.585 8.80798 0
97.9406 10.6594 0
46.9443 9.09186 0
47.108 14.0892 0
40.6073 6.37149 0
42.2445 11.0959 0
49.6928 0.0639165 0
54.609 0.975799 0
407.144 41.2538 0
402.302 40.0055 0
254.319 54.2053 0
256.163 49.5577 0
465.286 46.0614 0
467.593 41.6251 0
282.405 7.2517 0
287.401 7.06635 0
441.84 15.2558 0
446.832 14.9729 0
432.65 58.4988 0
427.861 59.937 0
234.6 44.2729 0
232.866 48.9626 0
39.0023 57.322 0
34.0939 58.2747 0
495.757 29.2467 0
494.925 34.1769 0
13.5281 47.6005 0
13.9367 52.5838 0
169.419 55.0675 0
173.554 52.257 0
143.947 35.9159 0
148.88 36.7343 0
426.267 36.3484 0
427.815 31.594 0
247.421 47.6883 0
244.353 43.7402 0
306.861 18.0653 0
301.953 19.021 0
270.141 25.1227 0
275.066 24.2581 0
468.98 8.89414 0
467.268 4.19638 0
342.324 20.8355 0
341.126 25.6898 0
273.05 45.2539 0
277.489 42.952 0
271.412 56.92 0
268.457 52.8861 0
345.232 44.3248 0
343.315 39.7071 0
207.629 3.84271 0
209.993 8.24835 0
123.286 49.8086 0
118.32 50.3876 0
117.623 36.1481 0
117.927 31.1573 0
114.478 45.699 0
113.643 40.7692 0
497.597 35.9346 0
492.75 34.7079 0
237.904 54.2772 0
241.594 57.6519 0
219.681 7.954 0
217.086 3.68023 0
167.9 14.8681 0
165.156 10.6884 0
463.737 31.3333 0
461.22 27.0129 0
422.827 17.8183 0
419.518 21.5672 0
497.074 13.0536 0
499.142 8.50146 0
164.539 48.8236 0
169.151 46.8925 0
106.989 50.2959 0
103.783 46.4597 0
239.846 18.6633 0
240.388 13.6928 0
278.188 55.9336 0
281.701 52.3764 0
261.858 27.7754 0
257.226 25.8925 0
22.6808 41.1796 0
24.132 36.3949 0
330.661 42.7924 0
325.666 43.004 0
436.654 29.274 0
441.513 28.0956 0
306.961 2.57329 0
302.548 4.92376 0
423.76 4.12144 0
424.433 9.07603 0
86.2803 26.8195 0
88.4237 22.3022 0
111.251 18.9076 0
109.571 14.1981 0
77.076 37.4946 0
81.2718 40.214 0
217.684 41.5282 0
213.782 38.4019 0
231.965 12.5783 0
236.447 10.3622 0
354.752 41.4101 0
359.728 41.9028 0
427.112 52.9614 0
430.768 56.3723 0
73.6873 23.3902 0
72.83 18.4642 0
109.698 35.715 0
109.196 40.6897 0
183.454 10.9545 0
178.494 11.5889 0
136.004 20.8033 0
140.444 23.1024 0
329.341 47.7052 0
332.535 51.5518 0
149.208 36.9521 0
144.325 38.0241 0
94.4675 49.7696 0
89.5317 48.9707 0
286.913 43.8907 0
286.488 38.9088 0
133.371 31.312 0
128.703 33.1016 0
3.2537 25.6193 0
7.97692 27.2598 0
406.442 38.9342 0
401.962 41.1536 0
130.711 13.8661 0
135.331 11.9539 0
445.657 9.62668 0
450.284 7.73081 0
236.699 12.966 0
232.614 15.849 0
216.441 26.1581 0
220.99 28.2341 0
365.636 36.5923 0
363.972 41.3073 0
412.149 50.978 0
415.688 47.4468 0
328.089 12.7339 0
324.4 9.35964 0
362.16 17.252 0
358.994 21.1222 0
424.258 47.2158 0
419.683 45.1989 0
358.199 2.38839 0
354.087 5.23238 0
363.759 45.1842 0
368.499 46.7763 0
461.79 58.8707 0
460.246 54.1153 0
459.701 24.2772 0
458.38 19.455 0
459.713 15.0508 0
462.182 19.3989 0
289.003 49.4381 0
284.013 49.7475 0
145.245 44.0087 0
140.3 44.7445 0
84.6116 51.6701 0
84.3588 56.6637 0
413.704 22.4695 0
408.97 24.0785 0
325.165 11.3825 0
329.995 10.0888 0
345.699 34.5291 0
341.135 32.4876 0
43.8381 26.064 0
44.0353 31.0601 0
130.013 16.694 0
133.988 13.6617 0
452.564 23.7069 0
457.193 21.8168 0
453.444 27.5541 0
456.411 31.5781 0
213.836 38.6391 0
209.532 41.1826 0
399.822 50.2788 0
395.356 52.5263 0
376.212 24.7309 0
377.63 29.5258 0
139.539 3.41759 0
144.343 4.80524 0
194.722 49.5502 0
199.218 51.7384 0
280 9.30997 0
284.925 10.173 0
355.631 58.1593 0
359.974 55.6828 0
246.833 13.4504 0
248.522 8.74463 0
447.587 27.9048 0
442.924 26.1003 0
269.961 0.417638 0
264.973 0.767649 0
193.647 50.3047 0
193.127 45.3319 0
68.7544 23.4516 0
65.2077 26.976 0
473.174 6.73573 0
477.417 4.09013 0
58.6935 25.623 0
54.3155 28.0382 0
151.877 34.2831 0
150.274 39.0194 0
1.33048 41.5579 0
4.53457 37.7194 0
138.751 34.1354 0
133.878 35.2586 0
96.3701 46.509 0
101.369 46.5918 0
183.178 8.99242 0
187.547 6.56115 0
230.281 53.0953 0
232.633 48.6829 0
161.894 23.8938 0
157.159 22.2871 0
54.566 37.0128 0
56.1442 32.2684 0
447.747 17.6877 0
449.772 13.1161 0
247.859 1.01938 0
252.855 0.826926 0
273.707 44.2679 0
277.117 47.9247 0
364.393 21.3974 0
363.213 16.5386 0
177.876 25.452 0
182.876 25.5032 0
352.565 23.8518 0
347.568 23.6832 0
439.893 14.1796 0
440.854 9.27292 0
472.079 12.6441 0
468.356 9.30743 0
491.953 57.1383 0
493.851 52.5124 0
280.892 43.028 0
285.365 40.7937 0
288.215 23.677 0
285.877 19.2571 0
455.151 31.0487 0
450.175 31.5328 0
139.241 32.2923 0
135.109 35.1068 0
19.9524 52.7945 0
24.8087 51.6046 0
372.39 50.1041 0
367.626 48.5846 0
26.952 26.7894 0
30.0564 22.8699 0
281.375 0.080644 0
286.082 1.76733 0
380.006 18.4231 0
382.917 14.3579 0
51.5012 45.0189 0
48.4366 48.9697 0
158.351 34.3338 0
163.261 33.3906 0
203.362 47.517 0
202.44 52.4312 0
460.14 49.5288 0
459.346 44.5923 0
113.063 11.3873 0
115.986 15.4437 0
91.9428 20.6525 0
96.7156 19.1624 0
246.4 50.2532 0
241.596 48.8688 0
218.824 35.0407 0
215.588 38.8526 0
459.429 54.153 0
454.433 54.3481 0
264.723 30.8682 0
265.512 35.8055 0
236.413 26.2476 0
239.633 30.073 0
41.101 27.6333 0
37.5568 31.1602 0
163.326 43.1026 0
159.569 46.4022 0
2.20152 30.502 0
3.3756 35.3622 0
35.8656 3.65452 0
40.8503 3.26283 0
266.576 30.8843 0
263.003 27.3864 0
336.041 23.6403 0
332.558 27.2282 0
419.463 3.35334 0
414.663 1.95165 0
436.458 16.9125 0
431.466 17.1909 0
232.455 56.406 0
231.817 51.4469 0
36.9639 28.0114 0
41.0302 25.1019 0
431.358 2.60103 0
433.797 6.96533 0
489.23 24.0436 0
489.115 29.0423 0
194.333 43.1301 0
195.764 47.921 0
10.9537 52.6838 0
15.9385 52.2949 0
209.112 35.1657 0
212.329 38.9938 0
37.6113 9.02542 0
33.0304 7.02171 0
69.1739 19.9074 0
67.1899 15.3178 0
152.869 19.0357 0
151.454 14.2402 0
46.8802 42.4097 0
51.4559 40.3939 0
159.127 54.8986 0
157.43 59.6017 0
253.448 30.4865 0
254.947 35.2566 0
227.632 23.1771 0
223.62 26.1604 0
210.328 41.1261 0
205.815 43.2787 0
235.575 19.1445 0
239.021 22.7677 0
488.057 46.1086 0
490.131 41.559 0
387.464 50.4491 0
392.459 50.6614 0
380.434 26.6063 0
384.799 24.1678 0
195.918 50.0603 0
200.914 49.8461 0
433.957 45.8122 0
438.754 44.4 0
159.338 11.3926 0
164.194 10.2017 0
342.845 29.0995 0
337.877 29.6658 0
467.903 5.45556 0
468.603 10.4062 0
325.693 11.6187 0
321.051 9.76095 0
368.928 34.4598 0
370.567 39.1835 0
77.399 20.6116 0
82.3397 19.8441 0
174.185 11.6875 0
178.514 14.1891 0
156.77 27.2625 0
153.595 23.4001 0
207.465 58.178 0
202.892 56.1554 0
179.67 49.063 0
176.25 45.4153 0
246.406 29.7177 0
251.39 29.3192 0
291.582 5.5787 0
292.27 10.5312 0
256.998 3.40246 0
253.207 6.66223 0
144.304 38.8605 0
142.861 43.6479 0
340.072 58.537 0
341.045 53.6326 0
470.759 8.46422 0
475.467 10.1476 0
230.641 11.4987 0
230.734 6.4996 0
422.406 8.16702 0
417.407 8.0712 0
155.101 5.81284 0
150.383 7.46828 0
352.444 40.6816 0
355.956 44.2407 0
486.067 5.70721 0
486.997 10.62 0
429.348 19.108 0
433.47 21.9368 0
383.78 9.87704 0
387.024 6.07228 0
298.744 7.41902 0
297.948 12.3554 0
100.376 17.4415 0
95.5548 18.7659 0
268.799 35.3077 0
272.398 31.8367 0
127.774 24.4729 0
122.775 24.3406 0
341.054 6.6979 0
345.128 3.79977 0
250.129 17.3934 0
254.768 19.2588 0
65.3461 26.0884 0
69.0811 22.7642 0
131.586 25.5832 0
133.259 30.2951 0
472.158 4.14174 0
469.926 8.61563 0
425.164 43.0131 0
429.011 39.8197 0
362.254 54.29 0
365.774 50.7388 0
304.787 9.77167 0
307.577 5.62242 0
447.897 31.087 0
446.703 35.9423 0
427.578 44.2661 0
431.517 47.3463 0
380.9 47.595 0
385.481 49.5982 0
232.14 40.589 0
236.85 42.2659 0
347.515 11.7721 0
352.37 10.5773 0
450.69 45.2268 0
447.658 49.2026 0
69.7701 9.92919 0
71.4868 5.23316 0
281.234 34.4478 0
276.235 34.4229 0
258.82 50.0219 0
263.642 48.6984 0
291.398 19.1484 0
294.043 14.9054 0
261.661 45.5639 0
260.928 40.6179 0
280.652 27.1528 0
283.806 23.2735 0
164.62 14.0252 0
169.472 12.8177 0
182.39 7.33905 0
178.006 9.74392 0
389.528 34.7815 0
384.546 34.3619 0
497.407 18.721 0
492.813 20.6954 0
485.551 37.2356 0
480.566 37.6176 0
216.691 54.0938 0
218.41 49.3985 0
450.324 35.771 0
455.211 34.7148 0
67.0386 58.9756 0
71.5313 56.781 0
222.067 43.4446 0
217.268 42.0439 0
167.641 43.7429 0
163.717 40.6438 0
30.7849 43.4042 0
28.2653 47.723 0
73.8168 20.6498 0
78.7625 19.9152 0
33.1906 1.9338 0
31.6037 6.6753 0
314.219 40.2624 0
316.253 44.8301 0
326.739 21.3879 0
328.184 26.1743 0
47.3325 32.5251 0
44.2594 36.4692 0
319.169 59.4059 0
320.378 54.5543 0
458.589 28.9642 0
463.357 30.4691 0
487.712 51.3538 0
489.383 56.0661 0
83.4309 29.1275 0
79.4984 32.2155 0
78.4446 43.4267 0
75.4255 39.4411 0
380.5 17.1217 0
385.186 18.8642 0
295.939 15.7121 0
300.875 14.913 0
453.432 7.97092 0
449.266 10.7361 0
268.613 3.63932 0
273.242 5.52966 0
195.921 56.1509 0
194.911 51.2539 0
326.997 8.63775 0
322.108 7.59326 0
132.166 11.3311 0
137.045 10.2374 0
102.021 5.34508 0
98.554 1.74208 0
482.551 36.2663 0
478.849 32.9059 0
332.172 48.0376 0
331.15 43.1432 0
42.9238 46.9031 0
43.1609 41.9087 0
66.183 22.826 0
70.427 20.1825 0
35.8329 24.6061 0
36.5726 19.6611 0
217.766 17.1546 0
222.669 18.1391 0
57.2404 16.7266 0
59.2956 21.2847 0
134.993 8.6082 0
138.773 5.3354 0
492.704 42.7276 0
496.95 40.0878 0
460.618 13.7215 0
464.963 16.1969 0
117.849 2.97493 0
114.342 6.53859 0
157.326 21.5656 0
158.402 16.6828 0
66.3011 14.3715 0
68.442 9.85302 0
337.926 21.1317 0
342.268 18.6521 0
177.302 17.3965 0
179.056 12.714 0
162.503 43.6594 0
162.138 38.6728 0
146.675 35.911 0
148.175 31.1411 0
365.844 19.5694 0
367.27 14.7771 0
178.695 14.7827 0
173.842 15.9851 0
89.8318 30.6688 0
84.8371 30.8979 0
452.814 21.4693 0
449.849 17.4433 0
458.574 55.317 0
462.656 52.4293 0
60.8784 7.22559 0
59.2196 11.9424 0
464.847 13.123 0
468.319 16.7215 0
162.371 45.3248 0
158.095 47.9163 0
312.615 7.17139 0
308.039 5.15593 0
154.747 35.2908 0
158.283 38.8259 0
31.6402 44.4462 0
30.5938 39.557 0
160.494 53.1348 0
157.903 57.4113 0
457.713 18.0875 0
462.7 17.7278 0
428.356 2.7763 0
425.115 6.58343 0
274.873 7.67781 0
276.382 2.91111 0
170.739 39.6154 0
175.717 40.0825 0
299.305 19.0657 0
301.733 14.695 0
207.114 6.15782 0
211.733 4.2438 0
106.433 12.8675 0
109.943 9.30578 0
57.6105 2.90454 0
59.1891 7.64882 0
178.754 28.4614 0
173.826 27.6166 0
51.3363 52.7037 0
55.4859 55.4931 0
465.678 37.6599 0
469.063 33.9801 0
166.607 24.5279 0
167.21 19.5644 0
340.447 56.4453 0
335.459 56.7913 0
251.954 28.2321 0
248.554 24.5661 0
451.442 37.3595 0
448.102 33.6381 0
180.364 31.5598 0
175.773 33.5401 0
52.1094 29.7841 0
55.0731 33.811 0
116.974 28.0641 0
118.484 23.2975 0
331.841 28.1876 0
336.799 27.5431 0
335.192 54.6933 0
330.204 55.0333 0
188.176 47.296 0
192.524 44.8262 0
36.6172 4.36812 0
39.7387 8.27407 0
63.4386 34.2499 0
59.5656 37.4122 0
55.1707 10.8434 0
55.6271 15.8225 0
88.1361 31.899 0
85.9576 36.3994 0
458.474 33.3789 0
454.474 36.3792 0
351.492 10.5477 0
355.129 13.9783 0
385.207 18.5865 0
389.91 20.286 0
65.3087 3.50362 0
67.9535 7.74684 0
74.6064 44.4223 0
78.2091 47.8894 0
178.393 49.9602 0
180.488 45.4205 0
376.127 45.5425 0
375.601 40.5702 0
111.836 39.6983 0
110.728 44.5742 0
453.246 33.8782 0
453.601 38.8655 0
312.744 7.9321 0
315.481 12.1165 0
3.63594 32.269 0
7.79703 35.0412 0
471.457 44.608 0
476.336 43.5146 0
121.877 20.4289 0
118.759 24.3373 0
286.805 48.9782 0
287.745 53.8891 0
380.307 30.0315 0
382.474 34.5375 0
309.873 11.3379 0
304.884 11.6654 0
282.755 5.10089 0
286.994 2.45071 0
259.572 56.9041 0
254.77 58.2972 0
325.621 59.8325 0
323.373 55.3664 0
420.669 35.3174 0
425.467 33.9104 0
496.801 13.8809 0
495.02 18.5528 0
74.2697 36.6118 0
73.1368 41.4817 0
211.167 20.6887 0
211.448 25.6808 0
467.299 1.37444 0
469.444 5.89115 0
313.812 27.2053 0
309.137 25.4323 0
346.716 25.8692 0
342.065 24.0338 0
254.089 31.0905 0
251.604 35.4293 0
263.746 53.9337 0
259.085 52.1245 0
299.452 16.7314 0
294.785 18.526 0
482.471 24.468 0
481.28 19.6119 0
181.028 31.0849 0
180.838 36.0813 0
23.0699 48.9645 0
18.1924 47.8646 0
150.712 12.5366 0
154.749 9.58777 0
239.814 39.6327 0
235.451 42.0751 0
130.691 58.0788 0
131.242 53.1092 0
385.794 16.081 0
390.366 14.058 0
496.19 4.07908 0
491.269 3.19017 0
424.433 24.2872 0
419.629 25.6745 0
51.061 51.7699 0
51.8814 46.8377 0
447.174 28.0991 0
449.224 32.6592 0
496.788 6.85292 0
495.041 2.16819 0
241.099 23.4665 0
241.948 18.5392 0
149.631 49.9112 0
153.182 53.4309 0
363.204 28.3152 0
363.839 33.2747 0
77.9011 9.08751 0
82.7758 7.97528 0
220.631 28.3248 0
215.882 26.7611 0
136.723 41.8357 0
139.209 37.4977 0
250.293 2.85012 0
252.893 7.12135 0
55.5333 25.4889 0
50.5814 26.1809 0
420.249 21.5884 0
415.809 23.8881 0
264.882 32.846 0
269.872 32.536 0
473.48 12.231 0
468.491 12.5744 0
224.88 5.02657 0
227.151 0.572373 0
161.304 29.9132 0
165.502 32.63 0
402.378 4.0971 0
397.66 5.75168 0
470.899 23.2813 0
467.438 19.6728 0
141.921 32.9023 0
140.529 37.7048 0
168.99 53.837 0
173.729 52.2423 0
336.163 40.8194 0
332.377 44.0845 0
425.93 47.0096 0
422.271 50.4169 0
120.955 8.72493 0
123.433 4.38229 0
268.872 33.1738 0
263.89 33.603 0
469.703 1.09462 0
466.338 4.79288 0
349.18 35.2894 0
353.687 37.454 0
26.9865 22.1779 0
25.2368 26.8618 0
220.86 41.5358 0
223.224 37.1303 0
271.261 15.4276 0
276.086 14.1145 0
480.728 23.8035 0
477.296 20.1668 0
309.14 38.757 0
309.288 43.7548 0
19.3721 43.365 0
17.5349 38.7148 0
428.934 20.6428 0
433.794 19.4685 0
142.232 4.43572 0
138.651 7.92598 0
245.044 18.2238 0
246.762 13.528 0
35.9141 59.4043 0
33.9602 54.8019 0
477.872 48.9031 0
475.963 44.2817 0
45.898 17.9762 0
44.2697 22.7037 0
230.525 11.6951 0
230.159 6.70851 0
147.982 10.505 0
150.564 14.7868 0
131.184 28.2122 0
126.585 26.2485 0
149.009 53.4019 0
149.921 58.318 0
273.817 54.418 0
271.384 50.0496 0
229.56 13.1101 0
230.196 18.0694 0
220.816 46.0144 0
220.996 51.0112 0
304.059 8.70419 0
306.108 13.2652 0
136.589 53.2965 0
139.832 49.4908 0
34.6613 22.2885 0
36.1814 27.0519 0
417.782 36.2153 0
417.08 31.2648 0
495.199 29.9323 0
493.213 25.3435 0
361.02 2.61985 0
356.444 4.63316 0
417.288 36.3865 0
416.227 41.2727 0
212.993 22.4497 0
215.423 26.8192 0
153.47 8.64953 0
150.294 12.5119 0
394.616 15.6755 0
393.26 10.863 0
276.81 21.8524 0
281.745 21.0502 0
422.592 5.08137 0
424.848 0.61887 0
277.173 25.7304 0
277.378 30.7262 0
456.902 52.5493 0
455.914 47.6478 0
5.24757 9.76971 0
1.54167 13.1262 0
53.3782 45.7219 0
55.5973 41.2413 0
197.825 53.2966 0
201.425 49.8272 0
388.73 42.4629 0
392.195 38.8589 0
437.824 32.1725 0
433.317 30.0083 0
161.351 13.7019 0
166.266 12.7824 0
275.941 36.105 0
273.496 31.7434 0
446.102 13.3629 0
448.99 9.28153 0
252.541 46.9598 0
248.007 44.8533 0
454.258 21.8424 0
450.802 25.4559 0
424.452 32.1311 0
429.257 30.7503 0
29.8472 5.63129 0
24.9515 6.64707 0
464.928 22.7459 0
461.274 26.1594 0
257.282 54.5548 0
256.741 59.5255 0
358.124 57.3257 0
363.033 56.3767 0
17.6348 15.3038 0
21.7673 18.1185 0
229.546 6.97688 0
233.656 4.12867 0
358.082 53.2652 0
356.669 58.0613 0
486.601 29.5848 0
490.511 32.7019 0
196.619 6.55169 0
197.413 1.61516 0
123 22.7086 0
121.09 18.0878 0
82.4393 10.9785 0
77.5584 9.89379 0
267.512 51.5795 0
270.75 47.7689 0
389.83 22.8294 0
394.651 21.504 0
145.035 47.0098 0
140.119 47.9195 0
90.3423 5.46453 0
85.3894 6.14939 0
85.2651 11.8946 0
83.6194 7.17315 0
114.037 14.2185 0
116.832 18.364 0
393.801 15.1961 0
388.818 14.7922 0
274.394 49.3306 0
270.448 52.4022 0
204.201 0.85518 0
200.887 4.59941 0
167.459 47.6708 0
164.629 43.5491 0
211.255 46.4536 0
214.578 42.7174 0
384.959 19.4932 0
380.96 22.4943 0
268.068 13.1049 0
273.068 13.026 0
304.113 20.8761 0
309.081 20.3182 0
353.339 25.5903 0
352.813 20.618 0
53.7505 38.2574 0
52.0259 42.9505 0
337.581 38.9815 0
334.885 43.1928 0
404.314 11.5034 0
409.306 11.2291 0
179.805 58.1891 0
184.501 59.9071 0
350.989 33.4527 0
348.99 28.8699 0
167.968 5.6948 0
169.058 10.5746 0
418.406 10.0026 0
423.331 10.8655 0
375.561 41.5723 0
373.876 36.8646 0
272.652 24.2437 0
270.362 28.6884 0
49.0443 19.6517 0
51.7933 15.4752 0
203.956 51.3284 0
207.716 54.6235 0
395.255 49.3823 0
390.335 48.4893 0
228.389 5.28426 0
232.174 2.01795 0
208.204 13.5114 0
203.509 15.2332 0
266.774 41.5349 0
267.483 46.4844 0
187.366 20.6275 0
191.341 23.6605 0
417.265 10.4224 0
422.188 11.2938 0
317.989 15.0545 0
315.424 10.7626 0
418.881 52.4494 0
414.258 50.5442 0
8.36571 23.6077 0
13.3656 23.6436 0
17.2014 16.1038 0
12.3916 17.4698 0
185.281 16.2203 0
184.263 21.1156 0
168.514 59.4481 0
168.984 54.4701 0
326.132 3.71142 0
328.697 8.00319 0
415.867 7.46169 0
413.626 11.9312 0
75.2245 47.002 0
70.2811 47.7522 0
115.35 40.7396 0
112.208 44.6294 0
428.229 5.87561 0
433.192 5.26902 0
147.958 41.3722 0
147.047 46.2886 0
314.787 49.7052 0
310.911 46.5465 0
117.181 44.9362 0
114.372 40.8002 0
313.444 38.4608 0
318.421 38.9474 0
234.804 23.0272 0
231.486 26.7672 0
141.264 34.0501 0
136.27 34.2981 0
124.655 45.8013 0
120.849 42.5589 0
443.256 17.8235 0
447.122 14.6529 0
322.791 58.6843 0
320.346 54.323 0
404.165 9.98795 0
405.804 5.26436 0
168.156 11.5639 0
163.156 11.5294 0
247.084 52.215 0
242.134 52.9214 0
461.938 28.0831 0
465.879 31.1612 0
209.626 19.7485 0
214.391 18.2327 0
131.143 32.3929 0
135.725 34.3923 0
362.147 18.1144 0
365.301 21.9946 0
115.855 6.24035 0
115.816 1.2405 0
139.823 3.90196 0
134.851 3.37944 0
297.343 14.9941 0
301.232 11.8518 0
13.4347 51.9449 0
11.635 56.6098 0
346.081 22.7564 0
341.374 24.4433 0
16.9875 50.3796 0
21.9603 50.9004 0
13.9261 2.48067 0
9.22193 4.17508 0
408.541 5.56226 0
405.505 1.58935 0
209.331 41.751 0
205.868 38.1452 0
344.116 28.0681 0
346.544 32.4392 0
100.486 48.3777 0
97.0932 44.7049 0
441.548 40.7669 0
436.735 42.1213 0
230.898 47.7803 0
235.775 48.8821 0
345.912 43.6446 0
343.855 39.087 0
187.59 53.4616 0
187.872 48.4696 0
233.029 14.7677 0
228.86 17.527 0
142.747 16.8112 0
145.896 20.6951 0
434.326 46.1782 0
433.349 41.2746 0
153.999 10.2452 0
158.744 11.8222 0
385.402 9.28199 0
387.709 13.7179 0
14.1556 32.1117 0
19.1548 32.0215 0
262.026 29.3657 0
266.186 32.1384 0
249.209 17.3689 0
247.662 22.1236 0
406.759 45.0658 0
411.478 46.7177 0
425.303 11.8065 0
430.162 12.9875 0
152.867 20.3303 0
154.427 15.5801 0
174.198 17.7661 0
177.467 13.9829 0
160.388 18.1561 0
155.715 19.9336 0
105.166 13.6362 0
103.979 8.77912 0
474.985 57.1228 0
470.115 58.2518 0
385.561 48.9051 0
380.885 47.1339 0
311.652 21.1728 0
306.656 21.3683 0
44.1088 29.7474 0
39.1926 28.836 0
342.253 47.6814 0
341.321 52.5938 0
321.649 10.5599 0
316.845 11.9449 0
118.71 35.4886 0
118.834 40.487 0
254.836 48.3432 0
258.53 44.9735 0
202.661 13.7443 0
207.031 16.1732 0
407.916 47.4405 0
406.239 52.1509 0
457.907 9.12148 0
461.693 12.3874 0
14.1399 2.70382 0
18.3763 5.35952 0
198.671 9.13772 0
200.763 4.59634 0
316.749 14.2224 0
319.907 18.0989 0
173.349 33.699 0
176.941 37.177 0
128.429 8.13045 0
127 3.33886 0
254.19 41.4648 0
251.845 37.0485 0
89.8961 14.1181 0
90.1809 19.1099 0
453.36 13.7087 0
456.535 9.84641 0
215.446 12.2113 0
211.974 15.8092 0
364.201 15.9704 0
368.364 13.2022 0
325.125 19.9631 0
328.469 23.68 0
148.126 54.7264 0
143.576 52.6536 0
113.542 7.94716 0
108.92 9.85395 0
15.9401 40.9163 0
18.0511 45.4489 0
8.74068 44.5644 0
13.4571 42.9044 0
313.857 30.0774 0
312.331 34.839 0
192.855 41.6883 0
188.221 39.8096 0
410.915 10.3432 0
406.091 11.6571 0
328.931 33.5237 0
332.559 30.0839 0
263.806 28.4811 0
258.822 28.0914 0
155.842 10.6985 0
160.121 8.11142 0
464.782 42.0107 0
459.955 40.7071 0
437.959 38.5619 0
433.18 40.0327 0
494.149 19.6939 0
498.724 21.7121 0
280.108 20.5853 0
279.439 15.6302 0
80.6237 37.4009 0
77.9327 41.615 0
388.087 31.1791 0
388.211 36.1775 0
377.583 36.56 0
381.798 33.8718 0
84.5374 17.7473 0
83.2358 12.9197 0
426.173 41.759 0
421.174 41.8184 0
369.58 35.4213 0
374.539 34.7823 0
232.591 58.0774 0
232.033 53.1087 0
292.586 56.1379 0
296.905 58.6558 0
111.457 18.5311 0
116.445 18.8869 0
466.509 7.84591 0
461.515 8.08517 0
268.375 35.3122 0
263.527 34.0883 0
228.003 38.5091 0
231.989 41.5282 0
106.882 44.8764 0
106.785 39.8774 0
439.645 59.9255 0
440.99 55.11 0
4.97741 37.4746 0
4.51737 32.4958 0
113.197 52.5997 0
108.363 53.8749 0
27.7358 45.4908 0
23.4752 48.1075 0
7.25211 42.9679 0
11.1522 39.8391 0
432.968 14.9199 0
437.943 14.4232 0
45.9217 33.0254 0
44.8119 28.1501 0
332.587 24.2478 0
336.281 20.8778 0
164.032 39.3502 0
168.139 36.499 0
266.17 50.8693 0
265.958 55.8648 0
385.833 51.344 0
381.508 53.8529 0
437.4 37.1528 0
441.783 39.5597 0
50.1995 23.8948 0
47.6775 28.2121 0
89.9304 19.4761 0
94.8562 18.6181 0
243.118 30.9025 0
238.788 28.4023 0
93.6413 55.0859 0
88.6428 55.2096 0
39.425 19.9416 0
34.8637 21.9897 0
20.2441 19.4443 0
19.06 14.5865 0
267.53 1.3325 0
262.793 2.93355 0
264.517 43.2543 0
260.083 45.5653 0
337.487 10.8263 0
337.538 15.826 0
73.3968 32.5259 0
78.3708 33.0354 0
74.2663 32.4416 0
78.3565 35.3174 0
352.214 25.702 0
357.201 26.0605 0
329.119 8.056 0
324.307 6.69825 0
269.223 31.1744 0
264.298 32.0376 0
65.2506 11.9836 0
66.0541 16.9187 0
486.663 25.6269 0
487.998 30.4455 0
118.03 10.1741 0
118.042 5.17407 0
7.50668 54.4385 0
12.4958 54.7679 0
5.70352 7.1617 0
0.714296 7.48975 0
368.447 44.0665 0
363.47 43.5889 0
7.0867 28.4276 0
5.0613 23.8562 0
80.8212 45.6102 0
85.3085 43.4047 0
211.714 18.8437 0
216.458 20.4212 0
461.937 17.5678 0
457.147 16.1352 0
155.767 34.1077 0
154.616 29.2418 0
41.0877 7.19865 0
43.2888 11.6881 0
333.421 47.585 0
328.955 45.3375 0
413.067 12.3944 0
417.977 11.4506 0
466.035 34.6971 0
467.855 39.3544 0
454.519 35.8551 0
456.967 31.495 0
279.401 16.8991 0
284.394 17.1613 0
246.147 26.1955 0
248.848 21.9876 0
364.211 15.157 0
365.486 10.3222 0
451.546 26.223 0
450.505 31.1135 0
86.2519 35.4408 0
84.7897 30.6594 0
356.298 48.9166 0
355.961 43.9279 0
244.733 27.5717 0
239.775 26.9248 0
436.146 42.7577 0
431.483 44.5635 0
473.778 40.7571 0
478.485 39.0684 0
245.477 12.0763 0
246.561 16.9575 0
63.2665 31.435 0
59.7593 34.9987 0
307.014 17.2562 0
311.75 18.8609 0
486.672 50.4279 0
485.039 45.702 0
0.967337 49.1344 0
5.80291 50.4061 0
429.407 13.0757 0
432.642 9.26352 0
398.734 4.01101 0
394.003 5.62991 0
467.334 42.4568 0
462.521 43.8095 0
476.467 43.5463 0
480.922 45.8152 0
362.357 22.1206 0
367.082 23.7566 0
211.098 8.79583 0
206.267 7.50813 0
173.278 30.0499 0
171.719 34.8006 0
489.733 23.4885 0
485.94 20.2304 0
130.803 30.2283 0
129.876 35.1416 0
263.666 5.62958 0
258.883 4.17395 0
159.427 49.242 0
157.675 53.9249 0
74.3017 47.7898 0
69.3654 46.9948 0
302.347 42.6791 0
297.874 40.4433 0
264.985 51.2059 0
269.924 50.4295 0
289.344 26.1135 0
286.685 21.8792 0
431.962 10.4529 0
434.333 6.05111 0
482.467 46.4981 0
477.879 48.4863 0
333.162 10.6022 0
337.911 12.1645 0
5.78029 6.27819 0
5.07115 11.2276 0
395.683 46.9032 0
396.438 41.9605 0
219.352 42.9041 0
221.617 38.4465 0
76.2724 9.77128 0
77.2356 4.86492 0
485.062 12.9606 0
485.108 7.96077 0
257.842 22.5462 0
253.65 19.8213 0
124.132 55.6032 0
123.272 50.6778 0
224.643 9.74475 0
222.7 14.3515 0
428.593 27.6073 0
432.58 30.625 0
426.942 26.7169 0
431.879 27.5035 0
73.2046 55.3404 0
77.5447 57.823 0
42.9355 10.9816 0
38.262 9.20427 0
227.492 16.6767 0
232.28 18.1179 0
114.977 8.8764 0
114.049 13.7895 0
306.5 14.9375 0
302.38 17.7697 0
304.467 42.114 0
309.285 43.4507 0
390.256 21.6837 0
385.256 21.7805 0
27.4636 27.1438 0
25.8314 22.4177 0
412.11 17.7857 0
409.436 22.0105 0
412.919 16.8366 0
411.092 21.4909 0
409.737 51.5795 0
408.158 56.3237 0
143.146 33.1059 0
139.232 36.2172 0
396.912 5.53529 0
401.535 3.62919 0
107.656 43.1361 0
105.574 47.6824 0
114.873 18.3341 0
111.992 22.4206 0
188.935 18.5203 0
184.768 21.2841 0
367.911 26.3778 0
369.375 21.5971 0
409.803 9.52724 0
413.878 6.63103 0
131.506 46.6336 0
136.178 44.8529 0
282.165 50.3667 0
281.474 55.3188 0
405.697 42.1478 0
408.072 46.5478 0
417.505 12.1124 0
414.673 16.2327 0
184.951 19.6588 0
180.148 18.2691 0
315.802 18.388 0
318.459 22.6234 0
430.596 32.8629 0
428.6 37.4472 0
478.532 48.8509 0
478.74 43.8553 0
148.216 22.3034 0
146.31 26.926 0
185.087 49.4035 0
183.043 44.8405 0
148.809 16.4785 0
145.915 20.5562 0
343.851 22.715 0
341.213 26.962 0
346.542 15.3579 0
351.17 13.4656 0
432.421 53.6945 0
435.917 50.1199 0
316.194 48.2379 0
321.162 48.8008 0
464.501 26.2052 0
469.037 28.3101 0
474.605 1.08621 0
469.624 0.651281 0
480.359 50.9726 0
482.261 55.5967 0
216.515 14.8045 0
221.209 16.526 0
23.8958 41.6522 0
28.2267 39.1535 0
136.196 19.4523 0
139.805 15.9925 0
166.045 27.5974 0
170.921 26.4907 0
167.21 39.8324 0
171.286 36.9355 0
171.767 49.6707 0
175.724 52.7279 0
134.94 20.7306 0
136.537 15.9924 0
5.04264 18.3221 0
2.04496 22.3239 0
69.6491 11.7639 0
70.7131 16.6494 0
207.948 50.926 0
212.902 51.5986 0
96.5394 17.4061 0
91.7959 18.9868 0
29.8743 42.331 0
29.1956 37.3773 0
250.689 11.801 0
254.305 15.254 0
463.569 30.9307 0
462.249 35.7532 0
220.986 19.0581 0
218.654 14.635 0
95.5968 43.3511 0
100.484 44.4065 0
149.408 9.86883 0
154.132 8.23141 0
68.4026 25.5541 0
73.3127 26.4983 0
382.392 33.4552 0
379.301 29.5249 0
470.137 55.5788 0
465.2 56.3669 0
308.494 10.1028 0
303.555 10.8777 0
188.421 39.9965 0
186.586 44.6474 0
295.209 16.3438 0
300.019 14.9778 0
361.538 2.68745 0
365.442 5.8116 0
110.562 13.4741 0
105.604 12.8252 0
451.095 16.5874 0
452.577 11.812 0
27.2273 25.39 0
27.4763 20.3962 0
421.949 14.4818 0
426.835 13.4197 0
55.7734 5.87995 0
60.3653 7.85842 0
342.003 15.0785 0
339.443 10.7838 0
290.144 9.16445 0
293.46 5.42163 0
332.006 45.1004 0
334.545 49.4078 0
8.54649 52.9707 0
4.93568 49.5121 0
362.983 56.5921 0
362.384 51.6281 0
329.443 43.6868 0
326.766 47.9099 0
48.083 49.349 0
51.9428 52.5274 0
32.0083 37.9422 0
36.9754 37.3696 0
33.9218 12.8326 0
31.4031 8.51328 0
35.4158 50.1865 0
39.9332 48.0434 0
254.187 59.2031 0
253.229 54.2957 0
343.95 36.7961 0
342.61 31.9789 0
348.558 37.9078 0
346.421 42.4281 0
353.199 26.5196 0
357.5 29.0684 0
348.498 3.12659 0
353.496 3.25778 0
405.414 43.3682 0
409.569 46.1499 0
186.88 43.657 0
187.753 48.5801 0
83.0088 49.5033 0
78.0614 50.2268 0
390.471 8.60334 0
388.72 3.9197 0
346.334 47.137 0
347.459 42.2652 0
439.428 50.7233 0
435.066 48.2799 0
356.437 53.4625 0
360.485 56.3977 0
436.737 51.932 0
440.082 48.216 0
127.135 54.8716 0
127.891 49.9291 0
249.361 42.7049 0
252.116 46.8769 0
310.083 43.7239 0
306.325 47.022 0
73.0736 51.8484 0
68.4236 50.0107 0
496.368 50.716 0
495.728 55.6749 0
455.495 1.33387 0
455.326 6.331 0
330.371 7.9233 0
326.612 11.2197 0
275.988 54.658 0
272.053 57.7419 0
485.779 27.4935 0
486.018 22.4992 0
304.813 6.32684 0
308.305 2.74798 0
356.557 13.4304 0
353.702 9.32582 0
191.92 13.8659 0
187.179 12.2749 0
321.866 9.41166 0
323.04 4.55153 0
91.6366 35.6008 0
89.4919 31.0842 0
163.099 26.5138 0
168.049 27.2225 0
350.24 58.5218 0
345.243 58.7175 0
371.191 46.844 0
374.843 43.4282 0
304.583 55.966 0
301.272 52.2193 0
367.543 32.4709 0
372.429 33.5325 0
168.129 13.5941 0
170.048 8.97695 0
215.972 25.0638 0
220.604 26.948 0
127.867 55.7574 0
132.853 56.1273 0
20.65 37.1552 0
25.5447 38.1758 0
142.636 42.0372 0
137.681 42.7044 0
85.0141 11.0099 0
80.5094 8.84012 0
206.356 50.7757 0
205.122 55.6209 0
18.4943 39.5475 0
14.042 37.2721 0
25.6595 7.88919 0
25.1471 12.8629 0
38.5658 33.2022 0
34.0962 30.9611 0
39.9753 34.1209 0
43.9917 31.143 0
467.027 15.8296 0
470.332 12.0777 0
329.609 40.1048 0
325.176 42.4182 0
187.688 37.6117 0
182.692 37.4201 0
66.2253 31.3641 0
71.0449 30.0332 0
494.925 9.01316 0
497.452 13.3279 0
133.59 24.3645 0
138.001 22.01 0
18.4837 53.4782 0
22.647 56.2472 0
480.667 54.9291 0
482.391 50.2357 0
336.78 25.8879 0
334.7 30.4349 0
230.231 21.2665 0
228.243 25.8543 0
231.022 5.89331 0
235.021 8.89577 0
261.903 3.93994 0
266.426 1.80864 0
426.828 20.802 0
431.743 21.7172 0
286.13 11.0212 0
291.126 11.2361 0
148.165 31.9449 0
151.429 28.1566 0
73.9641 28.501 0
77.4139 24.8817 0
207.227 16.8753 0
209.848 21.1333 0
447.641 54.4337 0
451.964 51.9215 0
418.408 0.183024 0
421.411 4.18074 0
273.572 38.953 0
268.686 40.0169 0
217.503 15.7695 0
215.442 20.3246 0
63.5979 46.1319 0
61.6127 50.7209 0
353.32 57.5977 0
348.349 58.1323 0
75.4962 52.7728 0
73.9479 57.527 0
197.33 18.432 0
192.809 16.2955 0
180.763 41.2104 0
178.567 36.7183 0
271.152 55.5426 0
271.953 50.6073 0
273.393 29.0533 0
268.691 30.7525 0
354.618 18.7642 0
354.892 23.7567 0
472.488 32.4299 0
475.425 28.3835 0
397.731 1.69234 0
394.977 5.86572 0
372.218 4.73094 0
372.391 9.72793 0
209.201 56.7026 0
213.358 53.9238 0
334.713 5.33189 0
332.478 0.859484 0
32.7457 40.0564 0
27.8613 41.1254 0
345.496 47.8925 0
349.395 51.0228 0
417.624 22.1242 0
418.403 27.0631 0
66.4279 13.7615 0
64.9674 18.5435 0
379.702 14.2186 0
382.632 18.2702 0
31.4452 6.35557 0
33.2472 11.0196 0
499.702 31.4813 0
499.363 36.4698 0
114.302 13.9652 0
113.763 8.99426 0
251.53 45.4097 0
256.439 46.3624 0
251.751 36.9736 0
256.3 39.0485 0
279.195 29.3858 0
275.378 26.1556 0
498.1 40.3529 0
494.013 43.2338 0
458.36 42.2014 0
455.015 45.9174 0
381.107 42.2968 0
380.38 37.3499 0
89.0398 30.7166 0
84.6911 33.1842 0
189.695 24.401 0
186.212 27.9885 0
256.291 7.63801 0
258.721 12.0077 0
338.577 4.09989 0
343.559 3.67686 0
143.703 23.4416 0
148.699 23.2434 0
69.0364 34.2108 0
70.1969 29.3473 0
19.7525 45.5001 0
21.7939 50.0644 0
339.294 13.1916 0
334.315 12.7276 0
433.034 16.3773 0
435.766 20.5648 0
424.33 50.2474 0
422.362 45.6509 0
321.394 56.2805 0
317.356 59.2292 0
332.032 12.1065 0
336.839 10.7304 0
491.002 32.3912 0
494.302 28.6352 0
69.6348 43.7269 0
74.6037 43.1699 0
269.638 49.9221 0
265.401 47.2679 0
464.618 10.1953 0
461.07 13.7189 0
281.715 5.38118 0
277.585 8.19929 0
20.1848 11.9908 0
23.9804 15.2456 0
402.901 5.15665 0
405.412 0.832632 0
60.1227 50.4914 0
64.6589 48.3884 0
82.2383 4.76428 0
77.3325 3.79841 0
287.158 36.1487 0
292.157 36.2483 0
304.667 8.78707 0
307.734 4.83856 0
55.7878 26.2739 0
54.1058 30.9825 0
110.242 11.3733 0
105.415 10.0718 0
16.692 26.9159 0
21.3958 25.2206 0
29.0595 25.9453 0
30.4244 30.7554 0
477.109 18.8076 0
479.895 22.9595 0
480.254 34.4868 0
484.091 31.2813 0
355.469 42.7072 0
356.258 47.6447 0
32.9783 52.9421 0
28.3826 54.9119 0
295.089 14.2519 0
296.838 9.56771 0
64.3315 17.2852 0
69.1476 15.9417 0
239.068 53.3967 0
235.099 50.3558 0
338.699 15.5636 0
343.699 15.5491 0
354.433 58.2529 0
357.687 54.4571 0
132.842 50.0899 0
134.308 54.8703 0
50.9387 1.2011 0
54.7712 4.41232 0
113.121 24.0434 0
112.159 19.1367 0
223.079 11.4752 0
226.684 14.9396 0
355.981 28.8209 0
353.759 33.3002 0
155.877 31.2006 0
159.106 27.3833 0
224.838 27.8094 0
229.386 25.732 0
155.24 52.1059 0
153.036 47.6176 0
139.616 47.7078 0
144.616 47.6745 0
115.465 9.18799 0
111.725 5.86908 0
110.481 33.3418 0
112.053 38.0882 0
312.665 33.8309 0
313.495 28.9002 0
192.887 40.6643 0
195.734 44.7745 0
446.5 32.2906 0
441.518 32.723 0
329.869 21.7084 0
325.767 24.5678 0
423.652 25.3891 0
420.925 29.58 0
240.536 9.78609 0
243.101 5.49392 0
408.975 44.4208 0
413.845 45.5537 0
131.201 31.452 0
133.44 26.9815 0
210.874 57.0712 0
206.44 54.762 0
487.894 27.4345 0
492.815 28.3192 0
161.292 30.9953 0
165.851 28.9429 0
52.1444 42.7391 0
47.7869 45.1911 0
57.1803 31.9957 0
52.8244 34.4505 0
120.983 6.72989 0
124.849 3.55844 0
214.508 17.1793 0
216.095 12.4378 0
448.805 49.7988 0
446.75 54.3567 0
102.021 49.5177 0
98.8652 53.3959 0
346.03 38.1435 0
348.017 33.5554 0
437.472 56.5319 0
434.455 52.545 0
429.267 45.9339 0
424.317 46.6343 0
203.798 6.2184 0
201.042 10.3899 0
79.7018 43.5185 0
74.7783 42.647 0
431.415 55.2992 0
426.927 53.095 0
71.0112 16.9129 0
66.0764 16.1077 0
88.2582 52.277 0
90.8851 48.0227 0
125.287 38.4045 0
130.235 37.6858 0
273.261 26.3407 0
271.829 21.5502 0
203.718 50.4249 0
208.163 48.1345 0
6.02305 54.9415 0
10.9177 53.9206 0
451.871 9.87718 0
447.358 12.0307 0
400.747 50.3926 0
404.42 53.7853 0
25.206 52.5673 0
27.301 57.1072 0
207.188 20.1425 0
202.312 19.0356 0
52.5999 5.61622 0
56.2315 2.17937 0
174.794 49.0344 0
177.56 44.8692 0
333.195 26.2029 0
337.64 23.913 0
489.29 33.3984 0
492.864 29.9023 0
483.661 40.494 0
488.655 40.75 0
71.9033 13.7231 0
70.3581 18.4784 0
21.5197 4.12631 0
25.4952 1.09384 0
128.693 53.906 0
123.749 54.6481 0
411.617 1.9956 0
406.685 1.17561 0
161.074 47.3614 0
159.506 52.1093 0
460.493 37.7877 0
465.308 36.4413 0
118.355 37.4687 0
123.235 38.5575 0
8.28415 39.6398 0
7.42218 34.7146 0
437.793 51.2703 0
433.001 49.8424 0
276.104 22.6543 0
280.975 21.5275 0
445.451 55.4314 0
449.486 58.3851 0
218.19 13.4581 0
218.587 18.4423 0
63.0312 32.2308 0
65.4714 36.5948 0
177.267 35.7851 0
180.409 31.8964 0
162.117 7.333 0
166.651 9.44202 0
467.435 12.7352 0
464.33 16.6542 0
76.5106 30.2065 0
73.0454 26.602 0
421.084 30.5638 0
419.4 25.8558 0
448.645 32.0238 0
443.654 32.3235 0
348.425 22.3151 0
347.694 17.3689 0
247.979 33.119 0
251.58 36.5881 0
3.41938 56.9266 0
1.39841 52.3532 0
221.456 32.9481 0
219.526 28.3356 0
71.9023 30.9081 0
74.7214 35.0376 0
110.234 15.5412 0
106.818 11.8901 0
117.001 26.9907 0
113.043 23.9353 0
347.222 32.3844 0
351.767 34.4686 0
172.016 48.405 0
173.089 53.2885 0
20.3852 52.7034 0
19.6054 47.7646 0
44.8178 0.287724 0
49.4762 2.10413 0
205.643 13.662 0
201.795 10.4691 0
227.992 37.3949 0
228.92 42.308 0
324.663 11.8692 0
322.753 16.4897 0
250.05 45.5898 0
251.832 50.2614 0
464.971 33.2551 0
466.856 28.6242 0
97.9945 58.5668 0
101.534 55.0349 0
99.9252 11.3477 0
103.492 7.84349 0
122.712 59.9486 0
117.725 59.5842 0
485.285 52.508 0
485.046 57.5023 0
253.634 12.9549 0
248.639 13.1865 0
319.827 40.5195 0
322.584 36.3485 0
5.80696 58.2298 0
1.07992 56.6004 0
394.259 16.1911 0
396.361 11.6543 0
486.483 14.3325 0
490.679 11.6147 0
152.537 10.3816 0
149.331 6.5449 0
416.975 46.9606 0
419.863 42.8789 0
186.568 8.68947 0
190.99 11.0228 0
409.096 18.723 0
414.096 18.7731 0
40.2783 7.75009 0
41.0606 12.6885 0
310.916 18.7239 0
307.533 22.4058 0
270.741 22.263 0
275.692 22.9641 0
230.566 8.17896 0
229.109 3.39598 0
254.875 12.2348 0
250.081 10.8135 0
53.4035 4.4219 0
54.3558 9.33038 0
437.659 21.0567 0
435.201 25.4105 0
181.366 31.7011 0
184.08 35.9003 0
74.7164 27.4073 0
79.7163 27.3788 0
169.988 2.10547 0
174.551 0.0615683 0
326.62 23.5097 0
330.044 27.1534 0
28.9243 34.7573 0
24.0654 35.9369 0
303.865 8.00813 0
305.774 3.38681 0
418.167 39.301 0
414.116 42.2309 0
239.924 24.4935 0
237.79 19.9718 0
33.8002 21.9725 0
38.7379 21.1857 0
53.9087 44.3899 0
57.939 47.349 0
361.337 14.5553 0
365.263 11.4589 0
428.271 40.2508 0
433.052 41.7162 0
45.334 53.8771 0
43.3021 58.4456 0
277.602 8.03342 0
280.457 12.1379 0
23.77 30.2959 0
27.2247 26.6814 0
291.462 20.957 0
286.599 22.1169 0
45.5137 49.1019 0
47.4622 44.4972 0
81.0715 2.54819 0
85.9597 3.59974 0
85.7525 5.79498 0
90.7076 5.12622 0
268.492 46.3894 0
265.795 42.179 0
460.521 22.1108 0
455.884 23.9818 0
409.932 10.499 0
407.686 6.03174 0
308.399 45.7129 0
305.951 41.353 0
258.56 25.7735 0
259.565 20.8755 0
173.066 57.809 0
172.033 52.9169 0
110.437 13.2831 0
115.344 12.3228 0
52.2989 39.4289 0
56.9518 37.5983 0
324.316 7.79764 0
327.403 3.86483 0
385.924 36.1054 0
386.772 31.1779 0
342.869 27.5879 0
346.985 30.4258 0
352.029 45.023 0
351.521 49.9971 0
46.2451 5.58625 0
41.2484 5.76755 0
135.008 48.7516 0
139.691 50.5036 0
344.139 39.3833 0
340.732 35.7239 0
89.0685 17.7496 0
84.5079 19.7991 0
120.462 16.4728 0
115.462 16.5065 0
47.2983 24.9069 0
51.547 27.5428 0
271.016 25.3017 0
270.425 30.2666 0
122.488 7.66486 0
118.845 11.089 0
450.754 28.7398 0
447.439 32.4827 0
228.647 33.7826 0
233.533 34.8463 0
461.253 34.433 0
456.38 35.5498 0
25.2381 44.4505 0
24.6926 39.4803 0
354.153 31.6971 0
358.018 34.8691 0
405.147 41.6536 0
409.941 43.0736 0
180.894 38.2638 0
184.794 35.1344 0
436.174 13.5117 0
435.579 18.4761 0
36.7021 13.5211 0
38.8675 18.0278 0
30.9856 53.9375 0
28.5364 58.2965 0
317.108 41.9334 0
315.869 37.0894 0
203.473 50.7427 0
198.564 49.7971 0
298.801 14.4474 0
303.801 14.4715 0
60.6361 33.9544 0
57.4232 37.7855 0
439.477 22.3939 0
435.241 19.7373 0
459.582 55.4049 0
461.428 50.7583 0
221.079 50.7963 0
218.734 46.3805 0
373.644 34.5299 0
372.755 39.4503 0
216.039 52.5205 0
216.54 47.5458 0
339.076 25.346 0
338.129 20.4365 0
363.878 24.6821 0
362.717 19.8187 0
278.381 21.0786 0
283.38 20.9649 0
81.7042 15.4088 0
86.0656 12.9637 0
221.189 33.6662 0
224.251 29.7131 0
359.209 4.83863 0
356.828 0.441819 0
319.359 19.8544 0
322.941 16.3662 0
6.38875 2.87969 0
1.87135 5.02284 0
491.391 2.16883 0
487.437 5.22897 0
86.2695 49.2071 0
88.231 53.8063 0
211.705 33.588 0
213.943 29.1167 0
76.1283 24.8905 0
73.4969 29.1421 0
133.069 56.0175 0
136.34 59.7988 0
335.867 27.9438 0
338.582 32.1421 0
0.711245 46.3296 0
5.57199 45.1578 0
64.2094 31.5311 0
59.4555 29.9819 0
79.8092 58.0844 0
84.4347 56.1857 0
28.26 9.70892 0
24.6872 13.2068 0
146.453 20.3685 0
147.053 15.4045 0
74.6861 47.9051 0
79.0763 45.5121 0
288.785 5.85533 0
292.205 9.50329 0
98.6802 4.19842 0
95.8271 8.3045 0
464.487 33.2303 0
459.575 34.1607 0
372.931 6.11048 0
372.452 1.13341 0
441.341 8.5327 0
444.346 4.53673 0
465.18 14.746 0
470.177 14.9171 0
96.6488 7.96478 0
98.6648 12.5403 0
196.032 42.9013 0
191.197 41.6287 0
294.173 47.2614 0
290.201 50.2993 0
134.739 2.02903 0
139.739 1.99332 0
78.5308 18.4982 0
76.8014 23.1896 0
285.908 36.3156 0
290.901 36.0599 0
177.767 36.6751 0
176.46 31.849 0
322.769 21.2046 0
321.89 16.2824 0
37.5995 42.1711 0
42.5477 42.8886 0
329.549 0.708731 0
327.166 5.10409 0
474.507 29.3716 0
479.507 29.4272 0
7.51691 50.4019 0
6.08417 45.6115 0
425.199 20.9674 0
420.52 19.2053 0
359.358 13.1377 0
358.802 18.1066 0
400.35 58.2233 0
400.969 53.2617 0
57.0379 42.374 0
61.4836 44.6621 0
264.067 23.7433 0
266.936 19.6479 0
355.425 3.59791 0
359.453 6.56102 0
3.2487 10.5606 0
1.89485 5.74734 0
333.155 38.2443 0
338.13 37.7494 0
360.896 48.6215 0
362.075 43.7626 0
265.951 21.7446 0
260.951 21.7086 0
72.0863 23.1922 0
76.6232 21.0906 0
336.889 7.64929 0
339.871 11.6626 0
459.61 1.47603 0
464.292 3.23188 0
383.77 10.6791 0
388.637 9.53172 0
45.418 2.89825 0
45.4185 7.89825 0
56.5229 9.66466 0
54.6605 5.02445 0
292.049 13.3032 0
287.398 15.1396 0
162.593 18.0049 0
165.331 22.1881 0
23.7462 2.97544 0
28.7422 3.17597 0
372.997 46.5217 0
377.126 49.3419 0
330.995 7.46528 0
335.163 10.2271 0
330.959 35.3047 0
330.659 30.3137 0
112.386 10.0275 0
110.7 5.32012 0
164.101 9.90646 0
166.24 14.426 0
460.552 48.9685 0
460.865 43.9783 0
428.225 28.6229 0
430.765 24.3165 0
431.613 3.66371 0
426.631 4.08674 0
83.8348 54.7746 0
88.6691 56.0513 0
19.6545 14.4058 0
16.7274 10.3522 0
459.052 49.6637 0
454.053 49.7311 0
247.39 2.09144 0
246.65 7.0364 0
101.872 53.7009 0
101.935 48.7012 0
330.16 57.9741 0
328.65 53.2073 0
143.594 20.6046 0
148.002 18.2448 0
229.91 6.86284 0
226.17 10.182 0
385.946 11.0433 0
390.134 8.31273 0
4.8587 45.0291 0
4.10719 49.9723 0
410.123 37.5567 0
409.78 42.5449 0
434.858 8.47625 0
430.933 5.37825 0
69.1314 26.8832 0
66.0187 22.9703 0
46.2408 29.834 0
45.29 24.9252 0
214.555 22.6875 0
211.634 18.6298 0
56.5095 54.003 0
58.9006 49.6118 0
90.8527 12.7159 0
95.852 12.7985 0
489.396 39.5772 0
492.156 35.4081 0
319.476 17.0851 0
315.19 14.5109 0
48.436 23.4767 0
46.3777 18.9201 0
308.765 7.11194 0
312.536 3.82855 0
137.603 38.2516 0
141.557 35.1907 0
236.757 25.8877 0
232.062 27.6075 0
304.577 41.2169 0
303.888 46.1692 0
430.081 21.2318 0
433.774 24.6033 0
271.462 8.15306 0
274.441 12.1686 0
364.811 5.38421 0
360.901 8.5004 0
72.2544 5.78068 0
71.3657 10.701 0
498.282 22.1891 0
494.871 25.8452 0
490.771 15.0961 0
494.933 12.325 0
295.095 1.53909 0
294.207 6.45969 0
192.291 43.4539 0
190.178 38.9227 0
286.846 5.69809 0
282.716 8.51625 0
463.715 38.8549 0
461.86 43.498 0
67.3076 17.9356 0
70.8548 21.4595 0
29.6735 25.7453 0
32.3601 29.9622 0
273.181 44.6341 0
269.748 48.2686 0
28.5924 53.3064 0
30.499 57.9287 0
32.5915 14.4671 0
31.5078 9.58597 0
365.315 19.5665 0
363.411 14.9434 0
365.252 51.1552 0
367.69 46.7897 0
489.602 14.7375 0
484.725 15.8419 0
422.641 22.9085 0
426.947 25.4503 0
250.379 33.6047 0
249.363 28.709 0
344.458 10.0738 0
341.972 5.73589 0
339.798 5.93733 0
342.578 1.7818 0
47.1624 22.5896 0
44.9984 18.0822 0
351.34 24.0625 0
349.19 19.5482 0
281.206 7.3157 0
285.966 8.84759 0
378.991 20.4426 0
383.026 23.3959 0
414.383 36.0766 0
414.225 31.0791 0
281.017 30.6646 0
283.035 35.2391 0
449.972 5.99967 0
453.419 9.62191 0
366.211 56.3756 0
365.519 51.4236 0
247.993 31.6016 0
250.229 27.1296 0
357.021 37.0572 0
352.296 38.6931 0
313.885 5.55552 0
317.12 1.74265 0
465.462 55.9676 0
467.757 51.5253 0
221.512 1.04191 0
224.325 5.1757 0
98.5831 16.6328 0
93.6335 17.3409 0
289.545 37.9766 0
287.198 33.5614 0
136.471 54.4071 0
135.776 49.4556 0
423.039 26.3921 0
418.255 24.9386 0
358.706 15.0413 0
363.416 13.3631 0
213.578 22.9435 0
218.516 22.1564 0
291.452 2.49093 0
296.443 2.79454 0
225.807 37.9498 0
227.935 33.4249 0
126.636 30.9965 0
128.756 35.5247 0
359.711 13.2594 0
364.481 14.7579 0
410.231 54.2969 0
408.377 58.9404 0
431.199 17.008 0
426.648 14.9385 0
364.583 27.9913 0
360.137 25.7043 0
493.902 28.5824 0
494.131 33.5771 0
310.556 7.15319 0
314.937 9.5628 0
23.5858 29.1835 0
26.144 33.4795 0
288.834 54.1397 0
285.52 50.3959 0
290.156 34.794 0
285.189 34.222 0
332.637 57.7501 0
330.189 53.3904 0
443.342 50.4745 0
443.764 45.4924 0
308.201 6.77639 0
303.907 9.33839 0
34.7718 51.278 0
39.2771 53.4466 0
50.9364 32.9954 0
54.2211 29.2258 0
260.741 21.3505 0
260.906 26.3477 0
66.3113 25.1212 0
65.9231 20.1363 0
239.061 57.1005 0
243.93 55.9639 0
39.5318 29.7634 0
37.8586 34.4752 0
129.888 48.3476 0
129.797 43.3485 0
430.038 55.9153 0
425.075 56.5194 0
126.178 45.8144 0
128.572 41.4249 0
137.337 1.59173 0
132.589 0.022764 0
25.529 18.8743 0
28.6851 22.7524 0
481.454 30.9166 0
486.415 31.54 0
347.557 11.0895 0
349.111 15.8418 0
341.385 5.14459 0
338.164 1.32003 0
261.866 4.08121 0
260.475 8.88361 0
70.6318 38.8578 0
74.8876 36.2334 0
327.933 19.5256 0
332.226 22.0897 0
306.73 48.6018 0
301.776 49.2757 0
400.434 6.34527 0
395.435 6.44018 0
380.175 27.6876 0
378.678 32.4582 0
240.975 37.3076 0
238.686 41.753 0
370.521 28.7475 0
373.528 24.7528 0
179.248 9.02301 0
182.776 12.5658 0
481.081 13.5624 0
477 10.6729 0
231.913 20.1964 0
236.667 21.7452 0
189.306 24.3626 0
184.327 23.9081 0
11.6343 29.5646 0
16.1178 27.3515 0
45.9235 58.2695 0
50.9188 58.486 0
253.125 26.8773 0
255.429 22.4396 0
429.961 58.8904 0
424.962 58.9616 0
421.124 23.1386 0
418.114 27.1313 0
27.8931 48.5036 0
31.637 51.8177 0
48.4714 4.73332 0
53.3051 3.45478 0
226.13 32.6793 0
226.621 37.6551 0
237.128 48.3373 0
242.104 48.8341 0
52.41 33.1965 0
52.2292 38.1932 0
443.644 35.4988 0
440.503 39.3887 0
140.006 18.6172 0
136.184 15.3932 0
431.486 6.69404 0
428.951 11.0033 0
231.327 26.7316 0
236.327 26.7571 0
6.2518 54.9093 0
2.47807 51.6292 0
229.004 3.97483 0
232.45 7.59714 0
494.311 55.7309 0
495.636 50.9099 0
67.1805 38.4261 0
67.1324 43.4258 0
144.533 25.7042 0
140.444 22.8265 0
350.031 35.4608 0
348.973 30.5741 0
208.211 7.32574 0
204.49 10.6658 0
123.493 3.3367 0
127.859 5.77459 0
168.954 18.297 0
164.283 20.0818 0
120.722 29.2857 0
122.217 24.5142 0
357.674 43.2612 0
359.505 38.6088 0
210.943 8.52654 0
207.493 4.90701 0
320.263 36.4204 0
322.771 32.0948 0
94.7555 17.738 0
99.7427 17.3805 0
359.743 41.4699 0
360.356 46.4321 0
2.43132 14.3493 0
7.41214 14.7868 0
152.163 15.4692 0
147.691 13.2339 0
33.0946 20.1156 0
35.493 15.7284 0
460.054 26.5707 0
465.015 27.1894 0
67.2342 11.6096 0
65.6987 6.85119 0
331.858 44.3606 0
327.922 41.276 0
49.4266 35.8629 0
45.586 39.0644 0
313.997 17.8723 0
308.997 17.8836 0
174.209 44.498 0
177.484 40.7195 0
337.671 33.0067 0
334.531 29.1153 0
323.99 16.0669 0
324.835 20.995 0
31.8445 58.4586 0
36.8268 58.8794 0
293.576 6.39081 0
296.532 10.4233 0
325.185 27.3315 0
329.938 28.8825 0
45.6158 53.1974 0
41.4292 50.4639 0
115.988 49.653 0
116.335 44.665 0
332.285 24.85 0
333.347 19.964 0
465.924 38.95 0
469.272 35.2366 0
443.63 30.4412 0
445.404 25.7665 0
32.0945 1.84424 0
27.403 0.115197 0
150.016 46.2853 0
145.505 44.1274 0
365.253 35.3591 0
362.479 31.1987 0
362.829 22.2769 0
360.992 17.6267 0
35.5884 46.3928 0
30.8047 44.938 0
215.279 43.8136 0
218.698 47.4621 0
168.87 9.96573 0
173.132 12.5807 0
288.728 49.8937 0
284.703 52.8605 0
73.4866 9.06752 0
77.1697 12.4491 0
375.087 41.3819 0
378.452 45.0805 0
232.092 41.7192 0
227.13 42.333 0
420.874 35.9135 0
425.861 35.5538 0
103.606 45.1384 0
104.871 49.9758 0
439.245 7.81161 0
444.056 6.44923 0
285.114 11.7337 0
281.963 15.6157 0
499.655 50.0729 0
496.967 45.8567 0
434.716 7.57831 0
438.211 11.1531 0
47.3625 12.097 0
52.2579 11.0797 0
453.502 15.1813 0
449.769 11.8555 0
3.22038 42.1467 0
7.88716 43.9414 0
381.214 0.346717 0
385.326 3.19202 0
7.93293 55.7808 0
3.87823 58.7064 0
357.419 41.3807 0
358.59 36.5198 0
352.829 25.964 0
350.087 21.7826 0
15.4356 18.5657 0
10.6125 17.2476 0
107.333 55.6753 0
102.335 55.8134 0
195.598 8.3431 0
195.034 13.3112 0
90.2701 13.9051 0
95.2632 14.1672 0
64.3979 48.4793 0
59.773 46.5792 0
133.793 21.2733 0
135.993 16.7834 0
244.948 28.779 0
248.482 25.2411 0
307.119 59.9996 0
310.791 56.606 0
293.831 43.0342 0
290.581 46.8341 0
365.229 21.511 0
369.469 24.1611 0
401.286 0.875702 0
401.391 5.87461 0
10.6949 19.2933 0
6.9441 15.9869 0
168.497 52.1689 0
164.27 54.8392 0
241.442 55.6125 0
246.219 54.136 0
237.779 15.4688 0
238.126 10.4809 0
446.736 42.5295 0
444.837 37.9042 0
70.1718 53.1497 0
74.9561 51.6972 0
55.5264 0.997421 0
50.5272 1.08316 0
245.358 50.8962 0
242.562 46.7512 0
276.787 7.61651 0
275.228 2.86568 0
51.9434 18.8789 0
55.9294 15.8603 0
1.89755 20.8783 0
3.64759 16.1946 0
127.35 29.2751 0
122.587 30.796 0
328.757 37.0291 0
329.688 41.9417 0
477.581 35.9812 0
481.191 32.5214 0
396.822 46.4241 0
391.927 45.4029 0
4.50976 22.8618 0
2.53155 27.4538 0
105.375 2.02951 0
104.904 7.00733 0
146.773 18.6216 0
142.757 21.6011 0
331.829 21.3004 0
326.946 22.376 0
304.507 39.7085 0
308.76 42.3368 0
358.335 15.0365 0
362.644 12.5004 0
19.0781 6.73585 0
16.0739 2.73907 0
33.5132 9.16045 0
29.0726 11.4585 0
51.5258 38.8153 0
52.1956 33.8604 0
90.8452 6.94514 0
87.0523 10.2031 0
125.763 51.5224 0
129.352 48.0418 0
170.048 2.07281 0
167.031 6.06007 0
5.57952 41.9805 0
7.00165 37.187 0
39.6263 58.1304 0
37.8506 53.4563 0
18.0157 23.6479 0
21.9183 26.7735 0
396.39 17.4797 0
401.331 16.7111 0
29.2838 30.6332 0
29.016 25.6404 0
36.3531 31.5121 0
32.1287 34.1869 0
308.976 55.2536 0
313.887 54.3132 0
495.715 35.1973 0
493.75 39.7952 0
41.052 13.6349 0
36.2841 15.1405 0
412.027 7.13476 0
415.971 10.2076 0
348.138 14.952 0
350.957 10.8219 0
456.315 26.8829 0
454.409 31.5055 0
248.147 10.2245 0
245.508 5.97762 0
238.156 19.0683 0
240.72 14.776 0
377.062 53.2782 0
374.058 49.2813 0
205.347 8.33398 0
207.182 12.9848 0
371.976 37.0766 0
376.916 37.846 0
312.593 33.9643 0
314.283 29.2587 0
424.046 8.83617 0
422.76 13.6679 0
98.1966 8.0028 0
100.828 12.2544 0
135.916 21.2014 0
134.944 16.2968 0
262.31 29.6475 0
258.635 33.0381 0
56.4627 55.6831 0
57.4591 50.7834 0
440.766 57.0065 0
444.785 59.9812 0
367.048 33.6993 0
371.088 30.753 0
331.378 5.87893 0
335.654 8.47004 0
20.278 57.0237 0
20.3341 52.024 0
34.6515 33.6314 0
36.3119 28.9151 0
422.235 28.0523 0
421.924 23.062 0
489.822 41.1081 0
490.936 36.2339 0
184.387 21.5286 0
179.477 20.5852 0
71.0227 3.72302 0
68.0026 7.70789 0
69.2177 52.091 0
64.2285 51.7632 0
27.5141 4.19043 0
30.8489 0.465004 0
86.2505 58.0066 0
87.7531 53.2377 0
355.241 40.7286 0
350.307 39.9195 0
96.9442 10.6858 0
101.801 11.8719 0
71.4681 1.87697 0
76.3612 2.90551 0
131.942 45.2014 0
136.753 43.8402 0
182.214 5.98334 0
177.337 4.88498 0
195.233 7.48287 0
200.124 8.52189 0
440.129 28.0354 0
437.215 32.0988 0
391.709 51.8341 0
389.097 56.0979 0
234.561 34.5497 0
237.734 38.414 0
262.748 55.1425 0
267.094 52.6693 0
351.524 35.4628 0
349.851 30.7511 0
345.834 14.3505 0
346.132 19.3416 0
464.685 40.2366 0
459.834 39.0236 0
404.108 1.68393 0
404.92 6.61758 0
223.542 14.9127 0
218.568 14.4079 0
269.377 15.3651 0
265.177 12.6526 0
367.915 48.5018 0
364.076 45.2986 0
462.555 24.337 0
466.349 27.5938 0
152.335 15.7692 0
153.996 11.0531 0
358.077 24.0913 0
361.267 27.9419 0
112.455 35.9585 0
113.271 40.8915 0
223.9 1.27035 0
227.881 4.29595 0
0.183922 57.4844 0
2.71903 53.1747 0
270.112 46.9927 0
267.235 51.0817 0
334.013 31.2812 0
330.096 28.1726 0
184.581 3.91221 0
184.261 8.90193 0
90.9331 44.7917 0
90.7606 39.7946 0
166.842 9.99122 0
166.8 4.9914 0
6.76382 3.86986 0
2.84475 6.97484 0
203.151 45.429 0
199.116 48.3827 0
262.207 53.4837 0
260.7 58.2512 0
486.776 20.4436 0
486.862 15.4444 0
107.291 38.5767 0
111.227 35.4928 0
116.623 2.26478 0
121.002 4.67744 0
469.474 24.0678 0
474.391 24.9708 0
349.473 11.1918 0
344.672 12.5889 0
282.4 13.3625 0
281.519 8.44062 0
75.9945 24.3376 0
71.6746 21.8201 0
293.813 0.263215 0
298.52 1.94946 0
373.381 7.64497 0
376.859 4.05289 0
292.181 46.5798 0
291.986 51.576 0
80.1625 28.4202 0
82.355 32.9138 0
486.576 25.665 0
485.358 30.5143 0
42.9196 5.30346 0
37.9528 4.72825 0
19.4513 2.82743 0
14.4663 3.21521 0
267.185 58.3682 0
272.177 58.6508 0
88.1112 0.1788 0
89.8964 4.84922 0
134.932 53.2528 0
131.757 49.3898 0
443.855 11.4221 0
448.837 11.0026 0
427.404 16.7941 0
422.648 18.3356 0
322.429 39.4491 0
317.939 41.6497 0
458.676 25.5937 0
456.186 29.9292 0
386.793 10.0291 0
390.771 13.0585 0
77.5938 19.3766 0
82.4498 20.568 0
493.913 12.9453 0
498.905 12.6642 0
212.265 44.8485 0
217 46.4526 0
84.1442 35.7993 0
82.6161 31.0385 0
288.905 21.1665 0
284.016 20.1187 0
110.103 18.7262 0
109.187 23.6415 0
63.5625 20.3485 0
61.6391 24.9637 0
146.697 14.6194 0
150.03 18.3466 0
19.2309 18.6075 0
21.8435 14.3444 0
68.5249 23.0192 0
73.5241 23.1089 0
34.2462 46.3394 0
34.864 41.3778 0
161.721 21.1214 0
162.093 26.1075 0
477.268 3.01382 0
472.484 4.46982 0
264.33 25.3864 0
261.738 21.1106 0
400.654 39.9833 0
399.727 44.8966 0
255.779 52.9186 0
253.859 48.3022 0
467.996 13.3277 0
471.571 16.8229 0
140.181 38.9373 0
136.825 35.2311 0
129.248 16.9119 0
128.507 11.967 0
163.42 45.9093 0
162.781 50.8684 0
345.419 33.8431 0
344.789 28.883 0
434.87 53.87 0
430.451 56.2092 0
498.559 31.9477 0
496.375 27.4497 0
119.403 51.4035 0
119.796 56.388 0
106.725 13.9033 0
102.743 10.8797 0
63.1911 58.6932 0
67.8433 56.8611 0
308.747 10.7874 0
308.117 15.7476 0
351.175 3.09156 0
352.007 8.02175 0
24.4171 34.4197 0
24.5905 29.4227 0
64.8184 5.61097 0
63.4579 10.4223 0
38.2217 35.3039 0
35.0434 31.4441 0
367.115 13.4306 0
363.665 9.81235 0
53.974 27.6412 0
58.4146 25.3431 0
352.785 17.4411 0
354.335 12.6876 0
304.308 49.227 0
299.4 50.1798 0
162.724 17.7633 0
159.729 21.767 0
185.401 32.3989 0
182.886 28.0779 0
17.0355 54.3535 0
21.5079 52.118 0
139.363 21.9832 0
139.719 26.9705 0
34.342 11.9772 0
37.8768 15.5134 0
130.34 44.3887 0
126.582 41.0904 0
472.113 6.34104 0
475.922 3.10239 0
15.5632 56.6675 0
10.913 54.8303 0
197.801 48.5451 0
201.179 52.2309 0
15.5945 16.8879 0
19.1753 13.3982 0
210.732 54.5311 0
215.431 52.8216 0
244.339 24.66 0
246.93 20.3837 0
252.807 8.03104 0
254.236 3.23964 0
269.066 26.3962 0
273.402 23.906 0
136.798 21.672 0
131.842 21.0055 0
286.96 54.9402 0
282.503 52.6744 0
111.176 19.4035 0
116.176 19.4075 0
355.043 8.33035 0
357.677 12.5806 0
420.22 44.694 0
421.838 49.4247 0
250.164 5.0272 0
252.354 0.532418 0
254.977 27.7172 0
250.666 30.2507 0
118.41 50.9654 0
113.62 52.4006 0
440.745 18.2851 0
441.772 13.3918 0
201.008 50.1973 0
205.605 48.2301 0
347.854 49.0118 0
343.35 46.8405 0
144.894 8.5852 0
144.955 3.58556 0
182.348 47.0307 0
187.284 46.2322 0
338.276 14.1721 0
336.593 9.4637 0
363.439 28.4449 0
358.998 30.7429 0
355.261 16.8987 0
359.829 18.9334 0
27.4949 51.8209 0
32.4639 52.3766 0
377.977 47.8752 0
376.911 52.7602 0
422.647 18.8514 0
419.811 22.9688 0
170.644 1.532 0
175.518 2.64991 0
78.0187 18.4833 0
76.5278 13.7107 0
24.331 41.0643 0
19.3378 41.3253 0
122.049 36.7538 0
125.744 33.3857 0
137.528 39.0401 0
138.828 34.2121 0
118.169 14.5848 0
117.27 9.6662 0
14.7154 20.9306 0
17.3142 16.659 0
26.5294 20.8482 0
22.9881 24.3779 0
333.999 32.7439 0
338.413 35.0944 0
391.804 6.14342 0
396.377 4.12236 0
132.4 19.7748 0
134.531 15.2514 0
453.421 24.8125 0
451.247 29.3152 0
242.188 0.814831 0
247.169 0.377389 0
204.652 7.58129 0
209.335 5.82749 0
263.106 28.2458 0
263.119 33.2458 0
230.411 23.8002 0
225.693 25.4542 0
4.74457 53.0807 0
2.49965 57.5483 0
319.86 11.9602 0
316.087 15.2415 0
491.91 51.6319 0
493.065 46.7671 0
212.917 53.9684 0
209.384 50.4312 0
264.355 18.3476 0
269.255 19.347 0
337.48 48.4269 0
342.462 48.0012 0
392.095 9.01977 0
393.113 13.915 0
438.259 53.1751 0
437.518 48.2303 0
318.51 35.7247 0
313.767 34.1426 0
204.829 50.6349 0
199.846 50.218 0
327.215 18.7685 0
332.011 20.1823 0
104.747 10.307 0
107.442 14.5183 0
291.321 43.8629 0
289.557 48.5418 0
217.116 38.531 0
220.088 42.552 0
300.798 45.6832 0
301.005 40.6875 0
97.4805 42.3812 0
102.434 43.0645 0
430.024 42.822 0
434.894 43.9552 0
381.902 40.705 0
377.256 38.857 0
435.648 54.6311 0
430.694 53.9573 0
135.291 17.9895 0
133.134 13.4787 0
404.657 59.6097 0
403.683 54.7053 0
89.2345 4.28777 0
94.2327 4.15386 0
403.722 17.69 0
405.241 12.9263 0
35.9477 12.1458 0
39.1504 8.30609 0
316.637 37.1431 0
320.678 40.0881 0
132.216 15.677 0
137.141 16.5403 0
209.796 18.4559 0
213.08 22.2266 0
72.4191 25.8771 0
73.0788 20.9208 0
414.666 33.2042 0
416.547 37.837 0
11.1267 56.1884 0
8.1019 52.2071 0
273.32 26.8567 0
277.992 28.6356 0
363.391 47.0329 0
367.37 50.0605 0
123.369 58.2698 0
127.267 55.138 0
284.97 53.2289 0
280.499 55.4669 0
179.522 41.7208 0
180.727 36.868 0
32.2047 35.5591 0
36.4647 32.9414 0
150.749 8.58 0
151.874 13.4517 0
87.0237 43.0207 0
84.6278 47.4093 0
367.438 23.4887 0
372.427 23.1529 0
311.991 46.8661 0
316.625 48.7434 0
6.61749 22.5838 0
7.72966 27.4585 0
253.253 34.1665 0
250.369 38.2504 0
295.359 45.1806 0
296.468 40.3052 0
401.742 50.6621 0
406.125 53.0677 0
304.512 41.2757 0
301.809 45.4821 0
271.103 3.36189 0
273.657 7.66068 0
159.772 40.9958 0
164.13 38.5457 0
487.975 29.618 0
484.626 25.9052 0
22.0395 30.7303 0
17.6458 28.3438 0
71.729 6.58308 0
66.8598 7.71923 0
428.921 35.1666 0
423.934 35.5196 0
476.847 22.1326 0
475.666 26.9912 0
210.849 40.973 0
214.876 43.9363 0
448.179 59.2486 0
443.43 57.6847 0
188.727 37.0413 0
190.698 41.6364 0
308.001 20.1434 0
309.934 24.7547 0
177.254 30.7081 0
178.71 35.4914 0
418.025 58.7787 0
413.394 56.8934 0
46.518 20.6129 0
51.2906 19.1223 0
244.966 7.41077 0
240.911 4.48438 0
281.556 39.0587 0
283.248 34.3537 0
314.74 4.53204 0
319.512 6.02292 0
410.386 6.80728 0
406.017 4.37561 0
420.841 9.50295 0
425.033 6.77838 0
181.969 57.6151 0
182.123 52.6175 0
68.6921 24.5359 0
66.6991 29.1216 0
447.372 24.864 0
451.807 27.174 0
401.3 40.8895 0
402.805 45.6577 0
9.10982 48.6763 0
6.83766 53.1302 0
200.608 8.86703 0
196.856 12.1715 0
182.932 39.919 0
181.801 44.7896 0
75.0649 19.6706 0
70.0753 19.3483 0
21.0107 8.69238 0
20.3681 3.73384 0
43.4262 50.9878 0
40.3563 47.0412 0
85.4742 10.5852 0
83.2971 6.08402 0
444.668 17.1074 0
440.828 13.9054 0
153.007 0.05785 0
153.204 5.05398 0
391.829 6.50218 0
389.689 11.0211 0
440.362 51.9772 0
445.257 52.9978 0
121.982 33.5117 0
122.946 38.4179 0
431.377 27.0573 0
426.377 27.0131 0
452.513 20.2502 0
448.263 22.8837 0
134.376 5.7893 0
138.643 3.18265 0
94.5609 52.7704 0
99.5531 53.0494 0
37.519 47.5684 0
36.871 52.5262 0
434.196 11.674 0
439.188 11.3889 0
313.367 20.2047 0
316.646 23.9792 0
373.981 39.1284 0
377.442 42.7365 0
333.566 55.7175 0
337.739 52.9631 0
239.201 45.1837 0
236.115 41.2496 0
397.82 48.315 0
393.245 50.333 0
150.371 39.8278 0
155.139 38.3237 0
86.6121 53.4716 0
88.0867 48.694 0
349.339 32.0591 0
344.417 32.9397 0
437.819 43.9087 0
442.757 43.1233 0
174.332 27.6291 0
174.576 32.6231 0
37.9304 21.0877 0
36.0601 16.4506 0
403.582 14.0946 0
399.188 16.4816 0
370.533 50.3279 0
370.725 45.3315 0
444.691 1.47292 0
443.12 6.21973 0
64.5832 4.16276 0
60.424 6.93775 0
211.657 33.2453 0
215.745 36.1243 0
214.62 3.93955 0
209.786 5.21884 0
25.5859 26.5318 0
30.2081 24.6251 0
152.86 29.3795 0
154.257 24.5786 0
274.134 1.27346 0
276.008 5.90916 0
256.626 38.2992 0
261.182 40.3589 0
411.118 35.7291 0
407.746 39.4211 0
336.274 22.4538 0
335.827 27.4337 0
441.389 38.6592 0
446.381 38.9409 0
184.417 58.0241 0
179.467 58.7295 0
266.495 21.6436 0
270.664 24.4035 0
168.959 24.093 0
171.631 19.8668 0
243.402 7.38445 0
245.934 3.07317 0
74.5348 46.7094 0
79.4928 47.3564 0
186.07 27.6643 0
190.098 24.7023 0
133.023 28.5261 0
128.085 27.737 0
105.733 46.1617 0
108.682 50.1997 0
97.4267 57.5693 0
93.2691 54.7918 0
225.533 20.8401 0
227.123 25.5804 0
63.3785 56.2291 0
58.4172 56.8499 0
450.622 30.341 0
446.28 27.8625 0
249.914 48.6712 0
244.999 49.5858 0
130.137 29.0485 0
125.491 27.2006 0
56.265 8.92076 0
60.026 12.2154 0
37.6816 7.96169 0
40.2592 12.2461 0
475.482 23.3189 0
480.227 24.8954 0
263.112 10.2482 0
267.359 12.8873 0
156.212 38.863 0
160.014 42.1105 0
174.819 33.5643 0
172.712 38.099 0
431.919 25.4941 0
429.715 29.9824 0
496.067 31.9626 0
491.285 30.5041 0
64.4433 3.45347 0
60.7028 0.135513 0
54.8579 43.9238 0
59.8576 43.9827 0
149.262 11.7741 0
144.271 11.4769 0
364.883 43.8494 0
368.156 47.6287 0
272.911 22.1606 0
276.507 18.6858 0
53.1866 43.0533 0
51.9566 38.2069 0
293.563 58.2017 0
298.382 56.8679 0
349.088 4.86683 0
353.228 7.66935 0
9.10198 19.9282 0
5.99456 23.8453 0
320.349 56.9639 0
315.524 55.6516 0
75.0438 32.8027 0
77.7479 28.597 0
109.592 14.5069 0
105.069 12.3748 0
443.499 16.5618 0
443.652 21.5595 0
261.108 5.03358 0
258.799 0.598776 0
15.0076 36.2901 0
17.423 31.9122 0
6.10148 37.4885 0
11.0347 36.6741 0
244.867 36.4435 0
240.212 34.6174 0
275.941 23.6004 0
280.342 21.2264 0
37.5814 31.8111 0
33.3294 29.1805 0
247.12 47.2351 0
249.275 51.7464 0
65.1218 39.7887 0
66.0034 34.8671 0
144.131 43.8517 0
148.994 42.6919 0
267.708 25.2072 0
265.024 29.4261 0
316.624 52.9845 0
321.362 54.5833 0
33.9132 50.3083 0
37.2671 54.0165 0
260.349 30.2491 0
255.769 32.2551 0
38.788 1.46714 0
41.7496 5.49566 0
380.172 50.3425 0
376.068 53.1991 0
371.907 36.1663 0
372.947 31.2755 0
64.2858 55.055 0
61.1144 51.1895 0
281.892 36.8722 0
282.628 31.9267 0
423.281 31.2019 0
419.753 27.6581 0
158.586 49.8498 0
155.641 53.89 0
156.102 29.6096 0
160.402 32.1611 0
374.23 11.677 0
379.227 11.8618 0
442.256 2.30007 0
442.955 7.25106 0
480.793 50.2536 0
475.993 51.6538 0
211.799 41.0145 0
215.828 38.0541 0
117.679 7.95133 0
122.679 8.01119 0
133.824 16.9966 0
129.324 14.8172 0
62.5658 23.2754 0
61.5861 28.1784 0
120.086 55.899 0
125.086 55.838 0
117.202 9.48341 0
112.691 7.327 0
46.5529 53.131 0
49.7962 49.3256 0
187.943 19.7486 0
188.419 24.726 0
368.659 18.1097 0
364.734 15.0128 0
375.425 22.8235 0
371.098 20.3189 0
413.396 52.5202 0
410.684 56.7205 0
228.145 44.1829 0
223.348 45.5928 0
334.319 0.231451 0
329.388 1.05464 0
91.4603 6.70483 0
96.1892 8.329 0
123.113 24.6431 0
122.999 29.6418 0
489.433 1.55895 0
485.091 4.03871 0
442.209 42.4681 0
439.315 38.3909 0
469.106 15.3589 0
473.808 13.6585 0
470.547 48.2155 0
466.454 51.0862 0
288.966 5.13449 0
288.097 10.0583 0
46.8504 21.2523 0
43.8348 25.2404 0
470.001 31.3022 0
472.49 26.9657 0
309.306 49.0548 0
305.252 46.1275 0
420.319 45.8738 0
425.111 47.299 0
114.48 12.463 0
111.534 16.5027 0
287.879 8.75713 0
283.704 11.5093 0
193.168 18.3128 0
188.833 15.822 0
478.467 26.8105 0
483.278 28.1711 0
326.148 14.28 0
328.996 18.3899 0
448.958 55.8149 0
443.968 55.4843 0
21.2179 38.2204 0
26.0753 37.0349 0
42.8244 52.6996 0
46.1908 49.0026 0
322.984 49.0744 0
327.529 51.1575 0
346.116 48.1536 0
343.28 52.2718 0
164.247 17.1686 0
166.123 21.8031 0
48.25 52.8196 0
49.2256 57.7235 0
176.768 58.1134 0
181.443 56.338 0
31.9587 37.7687 0
35.545 41.2527 0
169.01 29.5459 0
168.074 34.4574 0
271.858 17.0588 0
275.514 20.4695 0
215.578 4.19993 0
216.119 9.17056 0
321.148 15.7728 0
324.309 19.6476 0
315.413 26.814 0
315.844 31.7954 0
364.584 57.7649 0
365.1 52.7916 0
141.378 6.4122 0
144.102 2.21943 0
291.659 44.7016 0
289.862 40.0357 0
397.12 48.2884 0
401.217 51.1536 0
486.85 54.1032 0
490.011 57.9773 0
157.452 47.7089 0
161.626 44.9568 0
495.775 29.9958 0
494.056 34.6908 0
160.719 29.1607 0
158.129 24.8841 0
446.888 42.5671 0
451.51 44.475 0
460.222 6.95272 0
459.693 11.9246 0
33.1658 14.4055 0
33.8711 19.3555 0
467.412 1.79515 0
465.439 6.38915 0
149.494 42.0112 0
153.768 44.6064 0
372.371 28.5929 0
367.487 27.5205 0
239.71 45.5188 0
236.382 41.7875 0
419.432 40.6832 0
423.84 38.3238 0
382.242 44.7742 0
379.924 40.3442 0
320.665 48.6816 0
316.453 51.3759 0
371.799 18.6306 0
374.49 14.4163 0
347.859 54.0042 0
344.64 50.1776 0
31.323 48.7087 0
33.0984 53.3829 0
429.506 17.9766 0
434.221 19.6391 0
328.314 42.8996 0
332.209 46.0346 0
17.391 11.9189 0
20.5952 8.08056 0
187.525 39.3767 0
188.331 34.4421 0
349.271 57.9043 0
344.531 56.3123 0
339.851 18.9541 0
336.297 22.4701 0
178.436 0.739668 0
175.047 4.41579 0
388.189 40.8933 0
393.051 39.7239 0
53.8475 30.5724 0
53.1797 35.5276 0
22.4872 44.183 0
18.9606 47.7274 0
487.306 31.2435 0
489.165 26.6019 0
464.502 17.1559 0
459.524 16.6902 0
416.668 37.9699 0
413.227 41.5971 0
471.979 46.9375 0
467.349 48.825 0
135.04 57.3692 0
133.062 52.7774 0
416.45 37.5255 0
411.538 36.5892 0
139.707 9.89723 0
136.916 5.74837 0
153.422 45.6168 0
157.737 48.1422 0
461.672 9.02889 0
458.415 12.8224 0
48.676 35.222 0
49.8962 40.0708 0
138.966 0.546018 0
142.587 3.99396 0
322.876 49.8068 0
326.019 45.9175 0
298.608 58.0884 0
294.751 54.9057 0
479.399 6.77983 0
481.662 11.2385 0
160.284 47.7776 0
163.974 44.4037 0
31.5716 11.4245 0
36.498 12.2787 0
112.476 3.28216 0
113.907 8.07288 0
384.13 21.4649 0
381.746 25.8597 0
254.153 9.26837 0
257.153 13.269 0
135.102 11.2083 0
139.118 8.23057 0
45.7632 22.1179 0
47.0975 17.2992 0
56.2415 29.9728 0
60.5098 32.577 0
172.116 46.2019 0
168.79 42.4688 0
311.949 9.68347 0
315.75 6.43487 0
17.4314 9.56929 0
14.5476 5.48475 0
25.8202 59.951 0
25.8555 54.9511 0
274.193 45.6135 0
269.988 48.3188 0
185.219 11.9208 0
185.84 6.95953 0
106.542 45.457 0
111.471 46.3004 0
28.3073 29.9929 0
23.6742 28.113 0
485.172 22.2351 0
480.172 22.2711 0
443.51 15.3648 0
439.471 18.3125 0
353.512 46.1132 0
352.482 41.2203 0
469.899 41.5071 0
465.035 40.3483 0
343.938 15.9462 0
338.958 16.3856 0
80.4479 40.9034 0
76.0465 38.5312 0
348.522 53.3735 0
347.122 58.1736 0
37.3939 55.4605 0
42.3863 55.1852 0
348.689 21.1906 0
348.362 26.1799 0
353.809 8.28813 0
355.875 12.8413 0
86.1197 51.2436 0
86.384 56.2366 0
227.318 51.8539 0
224.711 47.5873 0
147.482 54.1728 0
146.348 49.303 0
220.071 25.4728 0
218.837 20.6274 0
371.971 42.6187 0
366.971 42.6283 0
198.631 44.021 0
193.643 43.6787 0
450.04 29.3692 0
452.061 33.9425 0
485.615 34.1658 0
485.604 29.1658 0
475.761 43.1397 0
474.555 38.2872 0
33.8248 29.3828 0
38.322 31.5681 0
86.6966 48.5156 0
82.3068 50.9094 0
288.034 5.49217 0
283.044 5.17455 0
454.973 35.8732 0
452.894 31.3258 0
275.391 0.663313 0
272.999 5.05386 0
57.8081 0.863737 0
52.8792 0.0236668 0
2.41415 53.6292 0
2.03748 48.6434 0
351.132 20.1528 0
348.963 24.6579 0
429.691 26.7909 0
427.626 22.2376 0
397.094 13.3161 0
392.466 15.2095 0
260.739 9.39182 0
256.876 12.5652 0
479.885 20.7422 0
480.95 15.857 0
150.657 32.7795 0
150.556 37.7784 0
300.177 54.0549 0
295.193 53.654 0
251.794 9.58315 0
247.231 11.6282 0
160.037 52.9645 0
164.906 54.1018 0
333.121 36.9952 0
332.42 32.0446 0
328.784 30.8669 0
326.743 26.3026 0
33.651 59.5269 0
34.1317 54.55 0
365.768 33.2552 0
364.577 28.3991 0
299.539 9.43503 0
304.301 10.9604 0
353.314 5.03759 0
349.426 8.18071 0
413.677 22.3852 0
410.43 26.1879 0
328.074 39.0516 0
326.747 34.2309 0
122.7 52.6657 0
117.704 52.4624 0
132.073 43.4862 0
131.852 38.4911 0
39.2163 13.1399 0
35.6457 9.63979 0
349.646 44.531 0
345.603 47.472 0
397.902 14.5002 0
396.816 9.61956 0
419.205 34.3341 0
420.642 39.1231 0
452.403 48.7837 0
448.527 51.9427 0
425.483 25.7828 0
421.207 23.1922 0
147.391 29.8624 0
150.415 33.8443 0
179.527 32.3437 0
175.558 29.303 0
164.087 55.954 0
160.526 59.4639 0
364.557 13.6666 0
366.945 18.0598 0
122.327 18.3862 0
117.697 16.4999 0
435.946 53.2326 0
435.307 48.2736 0
379.55 22.6824 0
381.757 18.1957 0
71.9904 20.8254 0
68.9713 24.811 0
245.469 53.0316 0
243.341 57.5561 0
21.5443 19.3359 0
16.6578 18.2764 0
246.5 15.3441 0
246.982 10.3675 0
390.359 5.8632 0
392.402 10.4268 0
145.268 30.2229 0
145.523 35.2164 0
127.439 23.186 0
123.111 25.6904 0
491.139 11.4111 0
487.842 7.65238 0
167.803 21.8354 0
164.212 25.3148 0
249.692 50.3619 0
253.943 52.9951 0
362.07 22.1025 0
357.466 20.1533 0
204.555 54.5191 0
202.173 58.9155 0
394.791 45.5367 0
393.186 40.8013 0
94.2626 42.3151 0
98.7677 40.1462 0
345.099 11.3239 0
341.418 14.7075 0
373.69 28.4528 0
368.776 29.3762 0
81.8236 30.0537 0
86.8206 30.2259 0
372.4 28.6848 0
367.53 29.8192 0
359.814 2.17321 0
359.806 7.1732 0
454.182 38.428 0
453.048 33.5584 0
331.756 43.3306 0
326.767 43.6503 0
435.039 44.6995 0
439.509 42.46 0
426.925 54.8321 0
423.073 58.0197 0
448.858 19.1342 0
444.759 21.9964 0
140.878 4.57339 0
139.413 9.35371 0
444.41 29.1015 0
439.53 28.0127 0
80.8703 41.4634 0
85.7688 42.466 0
62.8956 42.4992 0
64.9089 47.0759 0
180.393 13.5294 0
179.923 18.5073 0
391.677 47.2688 0
395.741 50.1824 0
309.427 21.8779 0
312.524 25.8031 0
156.405 35.1983 0
161.391 34.8269 0
263.89 13.7911 0
265.431 9.03466 0
271.602 21.2961 0
266.829 22.7871 0
119.736 13.3106 0
122.265 8.99742 0
442.533 13.5008 0
445.692 9.62456 0
75.9286 13.3902 0
70.9377 13.0888 0
331.255 3.51761 0
336.24 3.12831 0
252.454 38.8409 0
254.128 43.5521 0
207.799 59.6082 0
204.605 55.7619 0
145.925 24.5828 0
144.052 29.219 0
478.252 52.535 0
473.779 54.7698 0
470.63 33.8797 0
474.993 31.4378 0
167.202 54.5086 0
169.123 59.1251 0
284.881 10.7196 0
289.656 12.2036 0
347.848 28.0568 0
344.427 24.4103 0
491.407 47.9722 0
488.597 43.8367 0
294.01 54.7804 0
289.532 57.0047 0
43.1498 9.85019 0
45.1515 5.26832 0
145.643 13.3335 0
150.466 12.0155 0
272.162 16.6726 0
273.052 21.5927 0
360.676 26.7366 0
355.793 25.661 0
305.469 42.2426 0
308.822 38.5337 0
459.145 34.7549 0
454.145 34.8163 0
401.512 13.6244 0
405.83 16.1453 0
315.457 8.14974 0
320.003 10.2303 0
344.471 22.5858 0
349.266 24.0025 0
305.52 52.5789 0
301.007 50.4263 0
53.4415 2.63397 0
58.1851 4.21462 0
235.33 56.948 0
230.679 55.1135 0
258.719 10.6642 0
261.2 6.32315 0
419.419 56.5836 0
423.303 53.4345 0
15.8885 11.2808 0
13.4925 15.6693 0
114.969 15.4578 0
111.379 11.9782 0
167.606 13.7162 0
172.214 15.6557 0
83.4625 34.6832 0
88.4071 33.9411 0
285.92 14.6455 0
282.919 18.6445 0
335.057 29.7148 0
339.112 26.7897 0
345.53 3.24803 0
350.033 5.42106 0
302.735 11.8775 0
307.676 12.6413 0
73.7481 11.8645 0
73.7369 16.8645 0
156.433 14.7519 0
152.644 18.0146 0
307.825 6.37323 0
306.152 1.66157 0
389.469 10.2239 0
384.551 9.3177 0
244.024 8.1463 0
241.497 12.4603 0
346.135 21.5797 0
342.303 24.7917 0
459.632 28.6012 0
459.705 33.6007 0
346.58 13.8215 0
351.211 11.9366 0
444.546 58.229 0
443.099 53.4431 0
312.817 56.4048 0
312.676 51.4068 0
466.758 54.8743 0
466.537 49.8792 0
422.73 34.0283 0
420.246 38.3676 0
306.051 53.4985 0
309.09 57.4685 0
185.488 10.5184 0
188.352 6.42019 0
382.046 21.9037 0
386.361 19.3764 0
156.133 39.4118 0
161.001 40.5511 0
270.068 10.583 0
265.129 9.80449 0
177.006 59.459 0
181.98 58.9481 0
211.996 16.5195 0
207.673 14.0068 0
187.305 39.6855 0
185.182 44.2123 0
329.934 23.6106 0
328.076 18.9687 0
41.0362 58.1047 0
39.3062 53.4136 0
177.894 0.979955 0
172.918 0.493432 0
254.692 26.2845 0
258.962 28.8856 0
348.712 15.7932 0
345.03 12.4104 0
369.125 27.5215 0
371.861 31.7063 0
150.053 40.6376 0
151.079 35.744 0
362.599 51.712 0
364.698 56.2499 0
101.638 54.5193 0
101.086 59.4887 0
126.468 30.5574 0
125.596 25.6341 0
227.092 9.29013 0
226.723 4.30379 0
127.262 29.9418 0
127.243 34.9418 0
443.54 44.4466 0
447.028 48.0291 0
311.705 44.665 0
306.946 43.1308 0
149.508 48.5076 0
145.139 50.9397 0
364.223 17.6918 0
361.467 21.8635 0
107.113 14.7211 0
102.114 14.6094 0
495.711 9.81684 0
496.734 4.92265 0
31.4911 11.5765 0
26.5964 10.5555 0
105.659 9.28168 0
105.943 14.2736 0
75.2938 4.5395 0
74.0302 9.3772 0
164.251 20.9625 0
168.779 23.0842 0
475.001 38.4484 0
479.89 37.3967 0
460.587 57.8843 0
465.458 59.011 0
225.386 53.9387 0
230.028 52.0804 0
339.839 22.1009 0
336.166 18.7078 0
494.552 28.6106 0
499.514 28.0029 0
238.105 58.2091 0
239.44 53.3905 0
212.554 36.1881 0
215.734 32.3302 0
376.625 34.8363 0
372.262 32.3937 0
440.003 49.1645 0
444.923 48.2689 0
7.99275 49.5228 0
7.19122 54.4581 0
176.477 19.3984 0
176.556 24.3978 0
78.1589 7.04115 0
78.8858 11.988 0
97.3695 19.7227 0
98.5956 14.8753 0
90.5321 44.1509 0
85.7348 45.5601 0
147.502 32.206 0
150.113 36.4701 0
371.247 5.41034 0
376.229 5.83235 0
376.632 9.09439 0
377.836 4.24157 0
190.114 16.9405 0
185.184 17.7764 0
396.581 8.41978 0
398.771 3.92518 0
217.491 14.3409 0
219.316 18.9961 0
54.6927 43.8242 0
57.8331 39.9334 0
157.175 33.3253 0
152.439 34.9279 0
139.907 53.5023 0
135.799 50.6515 0
271.486 30.2671 0
274.41 26.2114 0
388.859 22.8927 0
389.619 17.9508 0
121.425 12.1619 0
126.069 14.0128 0
296.366 44.2305 0
293.488 48.3195 0
215.267 48.3496 0
210.287 47.9088 0
496.679 1.85253 0
491.835 0.615444 0
72.8498 20.3474 0
77.4954 22.1964 0
442.25 38.102 0
446.491 35.4545 0
112.668 19.6962 0
117.359 17.9658 0
437.151 26.4882 0
433.947 30.3269 0
406.43 2.0396 0
401.431 2.15663 0
355.151 50.3653 0
358.416 46.5781 0
372.022 57.597 0
376.229 54.8946 0
332.015 42.2868 0
336.7 40.5402 0
96.6187 44.1658 0
91.7568 42.9988 0
165.77 56.8174 0
170.721 56.117 0
375.774 30.9655 0
371.109 32.7638 0
231.644 34.7617 0
236.596 35.4515 0
390.997 36.1605 0
388.543 40.5166 0
316.28 2.22914 0
313.941 6.64853 0
374.697 48.7628 0
375.73 43.8707 0
470.16 4.79644 0
474.896 3.19239 0
75.1168 31.6168 0
70.4037 33.2862 0
368.763 35.2874 0
363.949 33.937 0
79.0179 31.5892 0
83.3872 29.1583 0
367.224 9.66823 0
365.583 4.94524 0
406.085 5.78858 0
409.621 2.25322 0
279.514 33.8502 0
281.135 29.1204 0
442.207 31.8199 0
437.231 32.3052 0
456.181 14.9471 0
459.073 19.026 0
251.131 4.15498 0
247.543 0.672194 0
131.676 29.7027 0
136.455 31.1699 0
156.997 3.35432 0
161.143 6.15004 0
225.994 8.1734 0
226.231 3.17904 0
259.799 36.4862 0
262.688 32.4057 0
474.462 37.7263 0
476.788 33.2999 0
316.156 50.8445 0
319.761 47.3802 0
497.269 53.112 0
492.558 51.4355 0
49.7316 54.4107 0
52.9797 58.2121 0
21.8131 57.1325 0
21.3148 52.1574 0
169.397 16.3605 0
172.263 12.2633 0
313.498 7.6319 0
318.369 6.50256 0
421.955 37.4888 0
425.515 33.9773 0
11.6195 27.6849 0
12.646 32.5784 0
37.1681 48.222 0
39.7182 43.9212 0
187.255 43.7254 0
184.12 47.6201 0
216.992 45.0597 0
217.711 40.1117 0
91.7459 51.6343 0
91.4881 56.6276 0
304.321 9.60381 0
305.58 14.4428 0
446.18 35.4482 0
442.602 31.9557 0
166.037 17.2599 0
162.253 20.5281 0
388.598 35.04 0
388.646 30.0403 0
144.366 20.1904 0
139.488 19.0901 0
492.295 21.6497 0
494.603 17.2145 0
355.974 50.0386 0
352.602 53.7309 0
274.804 13.3337 0
269.812 13.0546 0
494.695 1.12331 0
499.695 1.05668 0
428.58 20.0603 0
431.534 24.0941 0
117.929 38.8992 0
122.624 37.1802 0
286.585 6.93199 0
282.797 10.1951 0
185.602 9.33463 0
189.652 12.2668 0
374.316 9.3285 0
376.785 13.6763 0
483.899 52.8946 0
479.738 55.668 0
380.946 10.553 0
378.892 15.1118 0
305.403 50.9134 0
304.858 45.9432 0
145.076 33.0735 0
145.794 28.1254 0
245.435 19.6112 0
244.643 24.548 0
190.626 52.4857 0
195.095 54.7293 0
287.301 19.0364 0
292.135 17.7599 0
65.9206 45.2238 0
63.6666 49.687 0
37.773 51.7655 0
41.64 48.596 0
285.937 44.4732 0
290.922 44.855 0
360.315 59.8151 0
361.134 54.8827 0
452.242 23.8443 0
452.413 28.8414 0
201.659 53.8027 0
204.104 49.441 0
438.49 24.6104 0
437.765 29.5577 0
441.845 9.01152 0
440.599 4.16947 0
315.368 40.8535 0
310.37 40.7064 0
187.477 39.3427 0
190.638 43.2168 0
359.83 19.7288 0
356.274 23.2438 0
433.724 30.1051 0
429.416 27.5671 0
218.131 20.956 0
213.333 22.3636 0
68.0099 22.7247 0
70.2656 18.2624 0
222.216 27.3031 0
218.149 24.3946 0
379.142 56.9825 0
383.543 59.3556 0
447.963 22.5515 0
448.304 27.54 0
410.93 21.3232 0
406.041 20.2729 0
216.773 15.0549 0
221.524 13.4966 0
312.546 34.2656 0
311.27 29.4311 0
288.374 45.786 0
290.071 41.0827 0
359.533 35.0477 0
362.101 30.758 0
409.92 20.3596 0
409.112 25.2939 0
345.244 37.6391 0
341.448 34.3849 0
409.854 46.8961 0
409.198 51.8528 0
58.5804 15.0683 0
61.5311 19.1048 0
240.187 43.2588 0
237.754 38.8906 0
71.7528 32.4644 0
75.2205 36.0664 0
260.302 47.2741 0
261.712 52.0712 0
331.48 59.5093 0
330.709 54.5692 0
201.543 53.4015 0
196.71 54.683 0
410.686 1.52077 0
410.683 6.52077 0
74.4231 31.4692 0
72.9498 36.2472 0
342.713 44.1456 0
345.647 48.1944 0
61.5018 13.2552 0
57.5597 16.3309 0
343.635 43.0006 0
345.03 47.8021 0
163.978 44.9935 0
163.657 49.9832 0
325.454 5.99734 0
324.877 10.964 0
421.791 14.2105 0
421.917 19.2089 0
250.944 36.655 0
246.698 39.296 0
60.6264 51.7449 0
64.5217 54.8797 0
441.766 9.53356 0
437.154 7.60353 0
48.9137 52.0592 0
43.9383 51.5632 0
66.5331 24.9685 0
71.4536 24.0805 0
443.731 30.6261 0
446.904 26.7618 0
428.615 22.9924 0
430.424 18.3309 0
475.663 35.8921 0
478.683 39.8771 0
174.919 4.58577 0
179.883 3.98621 0
232.817 16.2705 0
233.966 11.4044 0
75.1866 6.92161 0
71.9395 3.11946 0
407.857 39.7402 0
408.4 44.7106 0
430.877 50.9547 0
429.636 55.7981 0
452.419 56.8112 0
457.386 56.2455 0
100.798 50.0772 0
101.039 55.0714 0
446.18 23.5651 0
449.598 19.9161 0
50.7221 33.2016 0
55.722 33.208 0
260.666 35.3104 0
263.862 31.4657 0
252.171 50.5609 0
250.016 55.0728 0
407.625 7.29477 0
409.797 2.79151 0
133.742 33.217 0
138.208 30.9684 0
53.769 41.8772 0
49.0389 43.4976 0
219.4 31.8768 0
217.274 36.4022 0
209.41 19.9587 0
213.645 17.3015 0
436.468 58.0787 0
434.544 53.4635 0
34.9866 33.8422 0
35.3571 28.8559 0
439.634 5.85216 0
444.602 6.41275 0
89.9079 25.2152 0
85.9553 22.1531 0
469.151 35.7523 0
473.92 34.2517 0
321.411 12.1749 0
326.198 13.6211 0
452.061 57.2765 0
456.626 55.2364 0
220.943 53.4406 0
219.673 48.6046 0
24.9429 2.18968 0
24.8662 7.18909 0
32.5374 51.7014 0
28.2713 49.0936 0
454.913 22.8892 0
459.847 23.7 0
307.219 47.3648 0
304.053 43.4953 0
138.44 26.1722 0
138.353 21.173 0
129.803 30.4213 0
134.025 27.7421 0
322.275 28.8984 0
319.13 25.0112 0
125.004 30.8702 0
123.336 26.1568 0
3.99955 42.4693 0
1.18927 38.3338 0
114.532 7.33054 0
112.516 11.9061 0
236.905 5.17722 0
231.912 4.91127 0
112.206 44.0166 0
111.741 39.0383 0
484.848 57.4582 0
487.633 53.3057 0
217.634 42.8969 0
212.894 41.3061 0
135.803 29.2787 0
130.823 29.7153 0
389.304 31.9281 0
387.9 27.1292 0
481.976 2.96719 0
477.432 5.05453 0
407.734 5.51185 0
412.695 4.8874 0
186.931 17.7039 0
191.926 17.9202 0
438.819 12.5488 0
443.79 13.0858 0
449.674 38.4461 0
446.082 41.9251 0
44.1865 20.4577 0
46.9165 24.6466 0
395.355 15.9407 0
393.668 20.6476 0
19.3357 13.075 0
17.6571 8.36515 0
55.2676 51.8506 0
57.0386 47.1747 0
344.795 37.8744 0
345.464 32.9193 0
252.725 57.0989 0
257.437 55.4277 0
269.002 29.4239 0
267.199 34.0873 0
232.743 19.3159 0
233.598 14.3897 0
277.863 22.9188 0
281.747 19.7693 0
379.386 30.5683 0
375.59 27.3141 0
16.2263 27.8522 0
11.4025 26.5367 0
185.643 37.5158 0
189.861 34.8317 0
335.637 56.2546 0
339.259 59.7014 0
173.12 26.8997 0
171.173 22.2942 0
169.108 26.5248 0
173.993 27.5939 0
51.2233 46.3371 0
56.1967 46.8528 0
122.235 33.5097 0
117.235 33.4979 0
254.112 2.33161 0
249.647 4.58378 0
190.664 8.07186 0
191.111 13.0518 0
95.3819 55.183 0
100.097 56.8475 0
334.891 40.0778 0
338.368 36.4851 0
252.32 22.9927 0
247.842 25.2165 0
441.47 33.9574 0
439.23 38.4277 0
369.263 42.374 0
365.926 38.65 0
286.353 42.9418 0
287.712 38.1301 0
161.499 16.58 0
156.636 17.7435 0
33.0736 38.5135 0
32.2987 33.574 0
394.204 39.3138 0
392.53 44.0253 0
191.535 50.0197 0
196.261 51.6499 0
431.715 17.8758 0
428.501 21.7062 0
411.755 22.184 0
406.889 21.033 0
444.171 26.3395 0
449.012 27.5914 0
331.154 53.8938 0
327.001 56.6776 0
267.932 31.1459 0
267.033 26.2273 0
461.259 35.4896 0
460.004 40.3295 0
498.54 10.9879 0
494.994 7.46226 0
167.983 34.3021 0
172.766 32.8454 0
288.743 11.7642 0
291.167 16.1369 0
159.738 33.6486 0
157.243 37.9816 0
19.8398 29.3709 0
20.1257 34.3627 0
109.196 57.543 0
105.078 54.7069 0
71.8567 21.6415 0
76.5271 19.8563 0
469.383 29.2326 0
470.41 34.126 0
160.204 45.3296 0
156.885 41.5908 0
223.262 31.6446 0
218.262 31.6192 0
213.628 5.53177 0
208.639 5.86556 0
204.509 45.5559 0
206.199 40.8504 0
71.8894 2.6617 0
70.3588 7.42168 0
225.725 39.8547 0
229.023 43.6125 0
446.515 32.4951 0
442.376 29.691 0
348.355 58.9063 0
347.37 54.0044 0
283.829 52.7863 0
283.723 57.7852 0
499.739 24.5895 0
497.507 29.0634 0
43.9122 45.9588 0
43.5666 50.9468 0
455.487 26.037 0
453.978 30.8037 0
104.87 42.2166 0
101.678 46.0652 0
315.739 17.8854 0
315.036 22.8358 0
45.17 1.78567 0
42.8033 6.19002 0
84.1708 12.5907 0
83.2062 17.4968 0
28.7271 54.9908 0
23.7317 54.7768 0
334.38 37.6922 0
332.925 42.476 0
83.721 44.209 0
84.2287 49.1831 0
71.707 25.5162 0
70.9202 30.4539 0
223.46 22.0974 0
228.117 20.2775 0
84.1989 15.7563 0
87.1043 11.6871 0
257.159 55.2006 0
256.232 50.2872 0
209.429 18.2105 0
204.527 17.2218 0
281.921 17.8428 0
277.024 18.8521 0
126.846 55.9743 0
126.999 50.9766 0
480.023 5.99548 0
484.485 8.2523 0
367.946 37.8753 0
362.97 38.3598 0
89.9774 5.73833 0
92.3799 1.35335 0
278.083 46.058 0
279.229 50.9249 0
60.1674 47.8975 0
62.2764 52.431 0
133.279 59.2926 0
129.348 56.2031 0
63.639 34.0509 0
65.8394 38.5407 0
68.0306 7.04676 0
72.337 9.58733 0
477.947 18.1265 0
477.484 13.148 0
410.996 20.0963 0
415.749 18.5467 0
78.3229 6.92968 0
81.7526 10.568 0
449.823 12.972 0
444.861 12.3564 0
330.494 1.17841 0
325.983 3.33541 0
152.709 49.5788 0
157.295 47.5874 0
395.563 51.7627 0
399.261 55.128 0
163.941 39.8088 0
159.833 42.6587 0
78.5063 7.91975 0
73.5494 7.26477 0
315.572 22.7597 0
312.655 18.6987 0
451.146 15.6453 0
448.391 11.4728 0
199.652 8.77249 0
204.643 8.47164 0
131.803 0.785143 0
136.426 2.69084 0
485.128 27.6697 0
487.647 23.351 0
494.967 35.9387 0
490.372 33.9662 0
128.407 6.05123 0
133.39 6.46474 0
142.277 32.749 0
146.292 35.7285 0
187.348 54.5526 0
184.254 58.4801 0
361.794 24.7952 0
364.749 20.762 0
287.139 40.2281 0
292.118 40.6827 0
418.164 36.2871 0
417.363 41.2224 0
271.467 9.22631 0
275.714 6.58708 0
469.523 6.44201 0
471.606 1.89666 0
173.735 14.3977 0
171.356 10.0001 0
63.9192 33.1001 0
58.9351 33.4996 0
261.554 23.6977 0
263.865 28.1317 0
86.6389 37.7597 0
87.926 32.9282 0
476.223 23.3512 0
471.331 24.3849 0
311.341 7.13454 0
311.577 12.1289 0
182.456 7.25385 0
185.623 11.1229 0
443.901 35.1959 0
441.023 31.1077 0
77.0128 17.7907 0
72.2507 16.2666 0
332.742 4.75167 0
328.907 7.95943 0
449.427 36.2085 0
454.42 36.4785 0
360.796 39.4922 0
365.571 40.9747 0
475.269 35.3822 0
470.832 37.6882 0
121.993 12.0257 0
121.086 7.10845 0
265.079 37.6326 0
269.452 40.0584 0
470.984 53.167 0
468.893 57.7091 0
35.7628 9.80127 0
39.7533 12.8138 0
151.507 42.0264 0
156.504 42.2006 0
352.03 17.541 0
349.016 21.531 0
464.44 47.8263 0
464.02 42.844 0
352.441 25.4763 0
347.704 23.8765 0
470.032 53.0039 0
465.098 52.1972 0
261.746 25.378 0
259.443 20.9398 0
401.729 44.9579 0
398.849 49.0449 0
370.341 23.0409 0
370.489 28.0387 0
252.584 20.0678 0
247.586 19.9488 0
203.194 19.244 0
207.562 16.8103 0
171.183 41.4734 0
175.792 39.5343 0
340.87 55.159 0
337.848 59.1428 0
181.186 33.3305 0
183.643 28.9764 0
153.254 59.7006 0
150.059 55.8551 0
392.894 49.3213 0
388.014 48.2308 0
282.847 6.23951 0
278.25 8.20637 0
358.219 7.72615 0
358.019 2.73012 0
182.741 5.37465 0
185.265 1.05825 0
355.122 34.9386 0
358.644 38.4884 0
447.701 40.7909 0
449.203 45.5598 0
147.319 55.4624 0
144.85 59.8103 0
272.107 44.7977 0
276.836 46.4218 0
20.4232 37.24 0
17.7371 33.0228 0
412.164 16.2754 0
409.445 20.4719 0
475.74 6.35195 0
479.42 2.96656 0
151.28 42.1328 0
156.042 43.6564 0
63.7976 5.72448 0
66.6245 1.60032 0
356.441 45.5144 0
354.739 40.8127 0
360.705 15.5848 0
356.833 12.4207 0
44.6984 42.2457 0
43.0096 37.5396 0
92.3073 45.0577 0
97.2351 45.9039 0
235.558 36.4099 0
232.56 32.4083 0
444.489 32.0305 0
449.303 33.3832 0
67.3605 8.40307 0
71.85 10.604 0
301.883 43.9363 0
306.872 43.6121 0
389.455 34.8095 0
386.552 30.7389 0
309.38 5.4235 0
304.899 3.20561 0
198.377 46.2388 0
200.312 50.849 0
324.083 36.1817 0
321.526 31.8851 0
22.8338 4.51984 0
17.9675 5.66859 0
320.733 8.13387 0
316.502 10.7979 0
111.709 50.7331 0
116.623 49.8097 0
453.041 21.4021 0
455.69 25.643 0
281.513 6.18289 0
277.076 8.4868 0
328.565 13.1845 0
323.747 14.5194 0
342.73 52.7718 0
343.357 57.7323 0
382.196 17.2892 0
381.703 22.2648 0
265.609 4.73979 0
269.308 1.37555 0
372.418 58.2504 0
371.33 53.3702 0
20.0628 41.4506 0
20.8925 46.3813 0
14.4683 8.27132 0
10.0063 10.5276 0
53.5005 11.3827 0
50.7039 15.5275 0
18.6968 44.2507 0
14.1915 46.419 0
384.459 43.4199 0
380.258 46.132 0
381.837 45.0006 0
377.647 47.7296 0
86.9682 21.2361 0
88.2451 16.4019 0
95.4553 56.7298 0
90.6133 57.9769 0
460.98 5.85598 0
456.703 3.26706 0
314.06 21.3868 0
311.03 17.4095 0
162.479 40.9984 0
157.997 38.7809 0
452.48 4.96752 0
455.616 1.07299 0
193.555 49.5139 0
198.539 49.1163 0
423.653 9.86883 0
424.889 14.7136 0
254.024 50.7645 0
258.776 52.3211 0
57.7529 16.2099 0
56.5975 21.0746 0
56.2521 34.3084 0
60.8952 36.1636 0
483.172 19.2834 0
484.665 24.0553 0
326.738 15.6451 0
322.384 13.1872 0
30.2186 28.2828 0
26.1246 25.4124 0
291 57.8608 0
286.476 55.7321 0
312.536 41.1297 0
313.335 36.1939 0
324.961 40.6047 0
327.72 44.7746 0
413.757 47.3187 0
408.757 47.2547 0
179.396 26.6195 0
174.819 24.6067 0
37.0248 42.5131 0
41.24 39.8237 0
385.569 14.0667 0
386.312 19.0113 0
5.36687 13.3357 0
4.07019 8.50677 0
56.1328 40.7591 0
55.72 45.742 0
259.306 51.1524 0
260.086 56.0911 0
142.184 22.8104 0
147.147 23.4174 0
306.15 5.0598 0
301.546 3.10926 0
279.807 57.5601 0
284.349 59.651 0
258.612 51.5972 0
254.032 53.6025 0
484.203 44.2401 0
487.32 40.3303 0
43.1093 55.5486 0
48.1093 55.5395 0
59.0916 11.4631 0
59.6505 16.4317 0
131.216 55.3271 0
135.01 58.5845 0
379.186 25.5748 0
384.019 24.2936 0
10.6585 32.0128 0
12.0708 36.8092 0
492.183 18.206 0
488.184 15.2043 0
154.395 2.11044 0
156.798 6.49493 0
23.0555 43.6738 0
21.2851 38.9978 0
395.707 46.9089 0
395.617 41.9097 0
385.557 14.2442 0
390.073 16.3896 0
230.427 30.5901 0
227.349 26.6498 0
402.497 42.94 0
397.691 44.32 0
83.118 7.02527 0
87.9591 5.77501 0
375.142 51.9177 0
380.03 50.8629 0
433.007 18.416 0
437.981 18.9239 0
426.176 22.738 0
431.099 21.8626 0
471.198 56.8533 0
476.148 56.1485 0
309.6 46.2512 0
304.601 46.3328 0
48.6213 10.8845 0
51.3 6.66254 0
227.559 10.2063 0
222.637 11.0838 0
496.273 15.2962 0
496.364 10.2971 0
37.143 47.9195 0
35.8304 52.7441 0
462.475 53.4672 0
465.789 49.7225 0
72.2838 36.2869 0
69.2071 32.3456 0
197.693 56.8636 0
198.436 51.9191 0
130.613 47.2461 0
134.515 44.12 0
453.012 41.1333 0
449.806 44.9708 0
239.908 33.02 0
241.299 28.2173 0
83.6047 4.38055 0
85.5147 9.00138 0
413.998 47.648 0
417.077 43.7087 0
450.637 48.578 0
449.509 53.4491 0
189.676 6.50787 0
193.817 9.30912 0
69.4443 13.9326 0
74.4181 13.4216 0
290.064 45.4791 0
286.494 48.9798 0
65.6736 18.3788 0
70.5095 17.1086 0
155.941 25.6563 0
159.66 28.9984 0
20.9201 18.0554 0
25.7868 16.9087 0
298.108 41.8274 0
293.233 40.7161 0
244.465 39.0406 0
243.246 34.1914 0
335.737 3.03721 0
339.779 5.98017 0
282.157 51.5616 0
277.601 53.6195 0
250.235 29.2629 0
253.807 25.764 0
58.0327 10.4081 0
62.3919 12.857 0
344.882 4.04816 0
349.574 5.77667 0
100.208 15.9196 0
103.411 19.759 0
170.415 22.932 0
168.869 27.6873 0
466.677 42.0064 0
467.981 46.8332 0
201.469 3.96854 0
196.96 1.80777 0
26.4604 30.4248 0
24.269 25.9306 0
418.166 52.7228 0
420.415 57.1884 0
122.055 39.1579 0
125.725 42.5535 0
282.478 4.97806 0
277.795 3.22747 0
18.8692 37.3851 0
14.5448 39.8949 0
383.817 17.8966 0
384.753 12.985 0
265.346 35.8186 0
263.749 40.5567 0
415.793 47.3547 0
418.106 51.788 0
245.372 4.09699 0
249.257 0.949436 0
309.293 44.2749 0
311.124 39.622 0
6.39472 38.8376 0
8.50163 34.3032 0
339.08 33.9497 0
335.111 36.991 0
296.737 56.3153 0
300.545 59.5561 0
322.066 48.721 0
320.937 53.5919 0
380.148 54.5513 0
375.817 52.0522 0
459.824 47.9417 0
457.522 43.5032 0
75.7563 21.4395 0
80.6665 22.3827 0
201.087 14.5276 0
197.56 18.0712 0
369.695 10.5503 0
373.588 7.41338 0
404.18 41.6799 0
402.235 46.2861 0
459.123 23.281 0
456.104 19.2952 0
41.8555 55.4763 0
46.1777 52.9626 0
306.556 4.60679 0
309.507 0.571019 0
248.663 34.4495 0
248.886 39.4445 0
457.455 12.694 0
460.68 16.5152 0
394.285 51.018 0
390.982 47.2646 0
343.138 40.091 0
340.891 44.5578 0
288.671 52.3757 0
293.503 51.0885 0
299.648 19.6177 0
304.423 18.1336 0
82.4383 5.19749 0
81.6404 0.261555 0
171.188 32.2017 0
174.997 28.9626 0
385.723 23.7434 0
390.723 23.7556 0
322.932 36.57 0
323.355 41.5521 0
266.016 53.4405 0
262.391 49.9963 0
397.806 52.1236 0
392.82 52.4954 0
138.26 21.2336 0
136.787 26.0115 0
383.962 42.4506 0
388.782 41.1209 0
453.979 35.616 0
452.961 30.7208 0
325.399 23.6806 0
322.558 19.5661 0
377.426 34.9405 0
379.481 39.4988 0
237.102 6.92734 0
232.551 8.99723 0
42.9443 11.5511 0
45.8429 15.6251 0
110.957 51.4754 0
106.47 49.2693 0
180.572 20.731 0
184.823 18.0982 0
294.229 49.3604 0
290.373 46.1777 0
109.319 47.9522 0
114.091 49.446 0
71.3099 7.71077 0
68.3214 3.7022 0
297.721 0.500464 0
292.728 0.251313 0
425.719 50.1118 0
422.322 46.4434 0
88.2769 57.5979 0
83.3589 58.4995 0
401.892 48.1375 0
399.721 43.6333 0
170.314 8.23457 0
169.637 13.1885 0
483.171 51.4059 0
487.513 53.886 0
137.924 3.15658 0
142.906 2.73293 0
423.048 6.4849 0
423.936 1.56437 0
342.839 54.2644 0
340.314 58.5796 0
36.9177 55.5723 0
32.0947 56.8909 0
47.4741 36.7367 0
45.392 41.2826 0
495.021 3.39279 0
490.102 4.29186 0
211.99 52.8614 0
214.336 57.2764 0
99.6951 42.2314 0
104.05 44.6884 0
55.5904 51.0817 0
54.0592 46.3219 0
217.745 24.9568 0
220.888 28.8456 0
316.675 2.9332 0
320.956 5.51615 0
450.553 3.33639 0
448.002 7.63687 0
58.6714 57.8232 0
63.671 57.8858 0
146.85 33.7138 0
150.952 36.5731 0
218.387 25.8451 0
215.856 30.1571 0
148.519 43.5541 0
151.12 39.2843 0
122.406 35.9105 0
119.095 39.6571 0
144.032 9.06965 0
144.077 14.0695 0
312.341 19.6036 0
313.006 24.559 0
177.756 58.3465 0
181.544 55.0829 0
348.977 4.85233 0
351.097 0.323824 0
300.181 11.8367 0
305.115 12.6474 0
372.744 48.5291 0
377.689 47.788 0
360.429 32.3652 0
365.32 33.4061 0
234.38 46.1146 0
229.893 43.9096 0
149.708 54.0802 0
149.457 59.0739 0
216.912 35.0405 0
211.919 34.7934 0
419.221 4.24569 0
417.537 8.95379 0
201.894 51.1106 0
205.235 54.8306 0
49.9617 41.4005 0
53.4537 37.822 0
259.809 8.42343 0
257.28 12.7367 0
53.5134 38.0215 0
49.8645 34.603 0
249.705 19.3795 0
250.984 14.5458 0
265.471 27.8014 0
270.153 29.5542 0
438.195 54.8826 0
441.629 58.5169 0
106.827 41.3789 0
106.1 46.3257 0
285.308 33.8631 0
283.147 29.3542 0
497.398 7.67303 0
496.821 2.70654 0
399.214 50.6754 0
402.513 54.4325 0
280.392 18.4999 0
285.007 20.4225 0
313.31 19.7205 0
312.027 14.8879 0
65.1532 13.9467 0
61.6447 17.509 0
416.867 20.1896 0
413.081 23.4557 0
144.505 49.309 0
148.176 52.7038 0
85.2366 43.8148 0
83.0409 48.3069 0
287.571 46.827 0
283.527 43.8859 0
165.665 59.3736 0
170.44 57.89 0
177.202 59.7923 0
181.461 57.1731 0
134.522 45.8595 0
130.319 43.1515 0
391.276 48.1641 0
389.546 52.8551 0
1.54169 38.9971 0
6.20715 40.7953 0
431.891 51.3296 0
432.351 56.3085 0
138.408 27.5509 0
139.377 32.4561 0
113.077 54.995 0
116.977 58.1241 0
39.7628 16.8671 0
44.5237 15.3393 0
46.4794 9.39133 0
41.5245 10.061 0
33.2728 32.4829 0
28.7083 30.442 0
421.08 34.7068 0
418.337 30.5263 0
189.471 53.4559 0
187.227 57.9238 0
3.83144 42.0978 0
8.68684 43.2915 0
355.438 8.62849 0
359.908 10.8687 0
323.391 29.029 0
327.6 26.3309 0
413.632 2.30999 0
414.834 7.16343 0
369.013 54.0674 0
370.291 58.9013 0
401.496 58.543 0
406.444 57.821 0
281.749 56.5407 0
286.583 55.263 0
93.9663 55.596 0
91.0915 59.6869 0
460.314 58.3234 0
465.259 57.584 0
462.388 21.7542 0
467.383 21.9873 0
383.501 37.7885 0
379.109 35.3983 0
406.337 12.0618 0
405.85 17.0381 0
410.26 31.9662 0
408.915 36.782 0
377.98 40.2211 0
373.3 41.9823 0
321.277 38.3537 0
324.163 42.4372 0
346.543 47.4138 0
350.856 44.8836 0
324.676 9.04812 0
326.731 13.6062 0
380.845 20.4439 0
382.456 15.7103 0
42.7165 56.0599 0
47.7151 56.1782 0
73.6328 45.2176 0
74.3244 50.1696 0
334.741 14.0716 0
339.215 11.8385 0
365.517 25.149 0
360.653 23.9893 0
77.0226 29.7591 0
72.4041 27.8434 0
372.091 39.777 0
372.581 44.7529 0
200.048 16.6644 0
195.049 16.7661 0
101.329 49.7578 0
106.279 50.4633 0
423.755 22.8609 0
419.536 25.543 0
327.291 9.12705 0
330.909 12.5781 0
191.329 6.17977 0
188.397 2.12967 0
435.131 40.2954 0
437.375 35.8273 0
378.235 32.9144 0
375.427 28.7773 0
241.624 19.8448 0
242.908 15.0124 0
145.592 22.4524 0
150.409 21.1134 0
422.577 42.6626 0
418.962 46.1173 0
354.077 55.5698 0
350.305 52.2879 0
457.519 27.9976 0
458.581 32.8836 0
450.296 20.1412 0
455.183 21.1976 0
235.555 14.212 0
232.717 10.0956 0
217.119 49.4221 0
214.641 45.0794 0
484.275 24.3294 0
486.772 28.6613 0
304.832 43.8052 0
308.791 46.8589 0
360.309 50.3372 0
355.529 48.8725 0
447.023 51.7082 0
451.977 52.3881 0
219.908 1.21994 0
215.281 3.11566 0
290.377 53.44 0
294.804 55.763 0
297.654 59.4941 0
300.151 55.162 0
411.86 51.5624 0
416.821 52.1862 0
353.522 39.1589 0
349.003 41.2992 0
453.194 46.495 0
457.95 48.038 0
343.917 8.20365 0
345.386 12.9829 0
334.028 31.4567 0
335.253 26.6092 0
133.65 24.6728 0
135.894 20.2045 0
70.4556 46.2544 0
65.9231 44.1432 0
380.108 22.4461 0
385.04 23.267 0
132.823 17.4329 0
130.124 13.2244 0
385.807 29.7056 0
382.392 33.3571 0
57.1855 49.5601 0
62.1788 49.3015 0
269.963 24.3595 0
272.93 28.384 0
337.773 31.0426 0
332.87 32.0259 0
265.9 40.5941 0
270.576 42.3653 0
281.535 52.8903 0
278.075 56.4994 0
442.062 40.7458 0
446.688 42.6439 0
338.654 52.282 0
343.569 53.198 0
478.422 10.6714 0
476.218 15.1591 0
356.014 39.5759 0
356.951 44.4873 0
117.713 37.9274 0
112.721 38.2146 0
473.857 37.9975 0
475.722 42.6367 0
244.866 13.4846 0
244.415 18.4642 0
260.551 19.7782 0
265.253 21.4799 0
52.4882 40.6597 0
52.9215 35.6785 0
108.103 48.5833 0
112.523 50.9205 0
446.477 34.9398 0
449.785 38.6888 0
104.323 10.8703 0
108.874 12.9414 0
145.927 38.8118 0
146.375 43.7916 0
135.135 23.6234 0
130.314 24.948 0
283.142 34.1706 0
286.96 37.3994 0
255.712 48.025 0
250.895 49.367 0
360.512 47.4021 0
358.656 52.0446 0
17.2024 44.4686 0
12.8642 41.9826 0
292.596 46.078 0
293.895 50.9065 0
476.606 28.0584 0
478.912 32.495 0
263.119 40.7257 0
266.176 36.7686 0
357.649 3.62576 0
354.036 7.08196 0
265.575 17.2284 0
260.772 18.6167 0
377.863 58.1524 0
382.09 55.4812 0
389.859 46.4611 0
393.917 49.3817 0
385.004 8.85494 0
386.668 4.13994 0
49.7727 4.06528 0
53.4136 0.638297 0
278.244 9.25326 0
275.537 5.04923 0
341.711 3.67901 0
338.93 7.83448 0
120.919 25.2657 0
116.411 23.1014 0
370.04 43.3347 0
370.768 48.2814 0
170.342 18.9274 0
168.041 14.4883 0
28.7623 43.9439 0
31.2372 39.5994 0
480.588 7.04729 0
484.973 4.64478 0
400.543 6.55727 0
395.558 6.93474 0
488.862 28.7001 0
483.945 29.6081 0
290.485 43.1931 0
292.198 38.4956 0
305.045 3.82917 0
300.342 5.52878 0
450.073 29.7404 0
447.954 25.212 0
90.3148 3.3093 0
86.1383 6.05825 0
428.246 2.13825 0
433.191 2.87197 0
166.629 10.5101 0
168.133 15.2787 0
399.414 9.90375 0
402.935 13.4535 0
239.661 6.53495 0
238.89 11.4752 0
55.8572 18.1308 0
56.8465 23.0319 0
492.289 36.023 0
492.582 41.0144 0
386.385 32.2766 0
387.853 27.4967 0
215.384 4.80183 0
210.836 2.72474 0
232.256 43.2894 0
236.238 40.265 0
419.9 14.3351 0
415.38 12.1976 0
429.59 57.2652 0
429.189 52.2812 0
34.0281 59.1058 0
29.547 56.8877 0
282.034 53.2488 0
283.745 57.9468 0
192.116 9.49286 0
187.319 10.9025 0
310.108 3.79745 0
307.867 8.26693 0
228.379 42.3106 0
227.432 37.4011 0
428.875 46.7151 0
431.928 50.6744 0
290.32 14.8881 0
290.657 19.8768 0
435.926 5.06624 0
440.916 5.38554 0
84.8801 29.8893 0
81.6105 26.1065 0
435.199 11.607 0
433.345 6.9634 0
467.302 12.8741 0
467.614 7.88389 0
15.4337 35.7319 0
14.2866 40.5985 0
386.314 17.467 0
390.49 20.2164 0
8.14926 19.0297 0
5.29333 14.9256 0
389.077 9.60426 0
384.775 12.152 0
345.531 32.7703 0
350.477 32.0344 0
54.984 58.2027 0
54.5141 53.2249 0
483.669 44.5329 0
482.913 49.4753 0
154.468 49.8685 0
149.749 51.5226 0
141.389 29.7867 0
136.947 27.492 0
444.79 57.9998 0
449.169 55.5868 0
222.533 43.5973 0
224.096 48.3469 0
74.0102 54.1537 0
74.9695 49.2466 0
54.1614 50.5627 0
53.4825 45.609 0
337.881 25.0255 0
335.504 20.6267 0
203.615 44.655 0
200.885 40.4661 0
13.9665 13.5563 0
18.8121 14.7893 0
12.5029 47.7051 0
7.7273 49.1862 0
138.919 54.2343 0
138.698 49.2392 0
310.77 7.59297 0
306.906 4.41952 0
252.31 40.151 0
257.172 41.3173 0
429.125 29.3251 0
425.13 26.3178 0
325.453 51.1448 0
329.157 54.5033 0
157.252 18.7566 0
154.393 22.8584 0
156.033 48.8776 0
157.539 44.1099 0
19.1258 57.9053 0
14.2153 58.8471 0
373.283 54.2996 0
372.485 49.3638 0
205.613 9.47712 0
206.951 4.65948 0
48.6741 15.267 0
53.6698 15.0604 0
471.843 32.6009 0
467.933 35.7173 0
363.16 28.8632 0
367.897 30.4644 0
148.974 38.2099 0
144.009 37.613 0
31.8775 18.7735 0
34.4077 23.0861 0
399.917 6.02271 0
404.775 7.20777 0
374.897 34.3577 0
376.963 38.9111 0
194.676 44.5103 0
191.677 48.5107 0
220.088 9.92685 0
218.858 5.08068 0
390.47 33.3289 0
388.617 28.6846 0
447.861 8.78352 0
452.682 7.4574 0
439.742 12.6764 0
444.434 10.9482 0
407.192 19.5581 0
405.505 14.8514 0
329.998 41.3008 0
326.106 38.1623 0
307.129 53.745 0
311.911 52.2864 0
159.554 49.8525 0
154.558 50.0545 0
270.062 29.5019 0
275.061 29.6302 0
372.658 3.56562 0
371.668 8.46658 0
279.039 48.0827 0
283.512 45.8496 0
34.2813 55.878 0
29.9328 53.4101 0
245.514 40.0417 0
250.476 40.6612 0
488.863 3.94835 0
484.436 6.27407 0
190.123 2.60192 0
185.633 0.403388 0
47.8988 12.3142 0
44.2859 15.7707 0
193.102 39.581 0
189.769 35.8538 0
216.882 7.76159 0
221.848 8.34055 0
445.927 29.2399 0
450.129 26.5299 0
346.468 28.1638 0
351.311 29.4061 0
295.421 52.0149 0
298.938 55.5691 0
387.271 11.9179 0
390.79 15.4695 0
138.414 49.8809 0
136.683 54.5715 0
360.75 53.6872 0
364.383 57.1222 0
306.985 4.51 0
302.204 5.97539 0
26.3672 20.2018 0
21.6731 21.9237 0
54.4412 0.655196 0
59.3466 1.62309 0
172.565 24.1328 0
167.749 22.7879 0
462.066 57.2328 0
457.112 57.9061 0
467.578 40.2066 0
471.834 42.8309 0
159.933 33.2688 0
159.06 38.192 0
6.16181 56.4915 0
3.51196 52.2515 0
264.104 58.7794 0
267.775 55.3844 0
105.578 11.0686 0
110.091 8.91586 0
122.567 19.5917 0
125.658 23.5217 0
72.2835 6.26772 0
73.4353 1.40219 0
88.6197 12.1766 0
88.5479 7.17709 0
13.1147 54.5473 0
8.12984 54.159 0
242.585 11.9761 0
244.695 16.5094 0
212.855 17.6342 0
210.174 13.414 0
146.912 15.8587 0
144.486 20.2312 0
259.918 15.0653 0
264.723 16.4492 0
268.848 29.1428 0
269.974 34.0143 0
135.789 1.19974 0
140.778 0.866848 0
50.9505 24.4468 0
46.3289 22.5385 0
264.292 50.4942 0
269.007 52.157 0
179.459 45.3072 0
184.339 46.3939 0
24.1607 23.9946 0
28.9255 22.4789 0
241.423 45.845 0
236.529 44.8201 0
423.52 25.2913 0
420.874 29.5338 0
332.52 21.893 0
328.2 24.4092 0
269.442 28.4226 0
264.476 29.0014 0
6.79657 35.3674 0
6.85227 30.3677 0
448.169 33.8644 0
447.755 38.8473 0
237.368 16.0523 0
238.284 20.9678 0
198.136 2.65783 0
203.135 2.69159 0
257.48 52.3492 0
253.034 54.6384 0
204.751 45.5168 0
200.663 48.3953 0
21.9708 37.5083 0
26.9415 36.9671 0
237.134 43.6506 0
235.128 48.2304 0
129.713 49.8538 0
130.388 54.8081 0
125.528 53.3279 0
121.025 55.5007 0
390.431 38.8679 0
395.293 40.0342 0
67.5613 1.47 0
65.0173 5.77442 0
161.295 51.0451 0
163.488 55.5388 0
231.008 51.2055 0
226.062 50.4686 0
316.05 29.0026 0
320.996 29.7344 0
370.246 46.2913 0
368.632 41.5589 0
190.213 7.35399 0
193.761 3.8305 0
104.126 46.9667 0
103.23 42.0476 0
245.501 11.1029 0
242.768 6.9158 0
10.507 29.453 0
6.23577 32.0523 0
53.6653 43.0981 0
49.3336 40.6008 0
240.295 39.2047 0
236.304 42.2176 0
156.507 11.4235 0
156.373 6.4253 0
267.356 29.9096 0
271.629 27.3124 0
242.13 24.6289 0
244.326 29.1211 0
112.023 20.4837 0
116.589 18.4466 0
145.063 51.6669 0
145.54 46.6896 0
366.737 41.7169 0
368.099 46.5277 0
232.327 26.7819 0
229.039 23.0151 0
56.8881 40.2701 0
56.9352 35.2703 0
467.664 1.18255 0
463.623 4.12755 0
365.078 47.3474 0
369.112 50.3014 0
64.7538 13.1765 0
64.8223 18.176 0
85.89 57.3557 0
90.3986 59.5174 0
400.726 45.149 0
395.802 46.0195 0
432.898 11.3712 0
430.804 15.9114 0
271.676 5.76505 0
266.812 4.60518 0
214.552 26.0358 0
217.987 22.4024 0
496.009 48.4597 0
497.24 43.6137 0
235.794 46.3411 0
239.056 50.1307 0
190.945 6.35617 0
186.161 7.80884 0
336.904 47.7028 0
341.381 49.9286 0
181.516 17.4033 0
181.655 22.4013 0
301.812 5.94077 0
302.542 10.8872 0
440.993 51.2772 0
444.748 47.9754 0
26.2312 56.3592 0
21.4331 54.9526 0
79.6848 2.83703 0
84.6843 2.90911 0
436.843 30.4272 0
433.026 27.1983 0
336.459 55.743 0
341.024 53.7024 0
456.279 31.6064 0
461.209 32.4408 0
355.513 44.6321 0
354.84 39.6775 0
467.388 9.10294 0
462.708 10.8613 0
361.347 11.4459 0
356.357 11.7651 0
489.412 35.2889 0
489.841 40.2704 0
287.056 13.2126 0
283.037 10.238 0
284.738 37.1969 0
285.739 32.2981 0
253.622 38.5988 0
252.056 33.8505 0
256.962 7.16015 0
252.983 4.13305 0
154.103 25.1176 0
157.44 28.8406 0
375.985 20.5587 0
371.073 19.624 0
233.796 46.2976 0
228.81 45.921 0
241.004 33.7345 0
245.233 31.0677 0
11.0365 1.91562 0
9.24341 6.58305 0
451.367 57.186 0
456.287 56.2934 0
363.975 32.3687 0
366.162 36.8649 0
194.177 47.8509 0
193.899 52.8431 0
253.435 15.2904 0
250.179 19.0849 0
206.227 2.36162 0
211.061 1.08523 0
287.147 19.6344 0
287.337 14.638 0
324.705 8.06692 0
320.481 5.39142 0
199.322 3.54455 0
197.214 8.07825 0
124.067 41.1781 0
120.725 37.4589 0
172.636 22.4889 0
172.725 17.4897 0
197.568 8.92703 0
194.527 4.95817 0
148.547 31.323 0
145.582 27.2969 0
260.954 1.11197 0
262.18 5.95936 0
260.058 17.7973 0
256.556 14.228 0
157.25 51.9785 0
157.785 56.9498 0
220.588 5.71396 0
220.908 10.7037 0
158.088 28.1452 0
153.123 28.7293 0
202.349 57.0502 0
206.706 59.5041 0
405.34 57.7523 0
409.515 55.0006 0
439.497 7.65197 0
438.916 12.6181 0
131.07 17.2799 0
132.091 22.1745 0
331.853 44.5771 0
336.465 46.5074 0
6.33102 33.1137 0
7.47528 37.981 0
32.4964 30.6522 0
31.8662 35.6123 0
465.96 4.77662 0
461.947 7.75936 0
108.627 4.60205 0
112.536 7.71988 0
456.221 42.4626 0
451.293 41.6178 0
292.112 51.0779 0
295.179 55.0262 0
401.207 12.2702 0
402.343 17.1394 0
335.573 41.9924 0
339.979 44.3548 0
491.409 29.2831 0
494.286 33.3724 0
287.455 43.198 0
283.019 45.505 0
170.653 12.1582 0
165.655 12.2731 0
278.144 49.5928 0
275.338 45.4547 0
131.402 47.6897 0
126.915 49.8942 0
125.696 32.5174 0
122.037 29.109 0
169.801 28.7564 0
173.244 32.3824 0
370.29 52.0853 0
367.245 48.12 0
403.748 7.79972 0
403.982 2.80521 0
310.045 8.75604 0
305.905 5.95282 0
339.758 46.5054 0
336.872 42.4225 0
335.619 19.0104 0
331.314 16.468 0
360.881 12.2346 0
356.031 13.4479 0
32.9486 12.4523 0
32.5204 7.47064 0
146.829 8.12865 0
146.558 13.1213 0
331.934 18.6317 0
329.816 14.1026 0
319.23 19.6474 0
314.406 18.3319 0
68.4765 47.8345 0
67.5416 52.7463 0
239.751 19.8226 0
244.562 18.4629 0
78.0797 48.4129 0
81.2496 44.5462 0
481.951 47.9194 0
486.278 45.4132 0
23.1051 13.3653 0
28.1013 13.1693 0
318.177 38.7067 0
313.19 38.3559 0
269.552 0.712513 0
267.447 5.24769 0
423.27 33.2111 0
420.03 37.0202 0
284.862 13.8046 0
288.356 17.3817 0
397.722 46.5714 0
393.176 44.4882 0
430.662 38.975 0
434.932 41.5776 0
237.912 45.2652 0
232.924 44.92 0
215.87 24.3896 0
214.895 29.2936 0
377.122 5.96295 0
372.229 6.99133 0
296.685 50.9944 0
292.198 53.2012 0
315.868 36.9115 0
320.037 39.6725 0
457.666 39.5922 0
460.872 43.4291 0
80.1736 18.7897 0
85.1315 18.1422 0
199.074 4.01506 0
201.744 8.24298 0
8.45734 17.2655 0
10.0763 12.5348 0
360.63 11.445 0
357.204 7.80339 0
71.544 47.0167 0
70.8557 42.0643 0
119.928 23.425 0
116.609 19.6846 0
154.964 30.4269 0
151.914 26.4652 0
320.16 15.9769 0
315.31 14.7599 0
296.107 48.9766 0
300.087 45.9493 0
26.6175 6.85121 0
31.6052 7.20135 0
266.468 56.2367 0
269.869 59.9016 0
471.889 43.4954 0
468.488 39.8306 0
421.171 18.1397 0
425.282 15.2932 0
217.81 8.39719 0
222.623 9.75212 0
333.576 15.5115 0
332.867 20.461 0
179.585 4.73654 0
184.525 3.96365 0
346.087 17.0409 0
341.17 17.9478 0
421.624 15.8872 0
425.584 12.8343 0
82.8264 32.3318 0
87.5464 30.682 0
348.093 46.4902 0
343.524 44.4602 0
346.819 53.6932 0
348.745 58.3073 0
436.846 48.6298 0
438.051 53.4824 0
222.88 25.477 0
219.025 22.2934 0
208.709 4.71986 0
212.261 8.23896 0
439.955 55.3373 0
441.266 50.5124 0
331.101 57.3172 0
333.267 52.8108 0
42.6326 50.1379 0
47.6311 50.013 0
164.549 34.0634 0
169.191 32.2059 0
89.2982 39.7099 0
86.9336 44.1154 0
12.1268 54.4294 0
8.62854 50.857 0
181.312 23.2618 0
180.433 18.3396 0
171.58 59.7855 0
175.383 56.54 0
381.061 34.2869 0
378.802 29.8266 0
490.429 38.9506 0
489.131 34.122 0
433.056 4.51086 0
438.021 3.9168 0
169.329 48.0611 0
164.507 46.7392 0
130.561 31.466 0
134.935 33.8869 0
349.855 25.4344 0
345.192 27.2389 0
423.113 12.4789 0
419.764 16.1912 0
150.416 9.73162 0
147.683 5.5446 0
325.237 7.14094 0
320.518 8.79332 0
150.475 7.61056 0
152.676 3.12115 0
293.033 42.8602 0
288.045 43.2021 0
243.477 36.7782 0
238.847 34.891 0
380.64 0.490451 0
379.032 5.22472 0
318.844 47.7028 0
315.459 44.0226 0
223.41 25.2246 0
226.672 29.0141 0
479.141 20.5029 0
474.184 21.1605 0
273.764 20.4356 0
275.377 15.7029 0
70.2495 26.5431 0
75.2434 26.7888 0
104.241 47.7261 0
106.137 43.0995 0
386.865 55.1335 0
391.441 57.1474 0
497.113 43.9972 0
498.486 39.1892 0
209.437 8.24963 0
214.191 6.70138 0
101.248 49.2163 0
99.6664 53.9596 0
238.543 45.4868 0
238.162 40.5014 0
390.8 12.4767 0
395.754 13.1467 0
247.473 38.9972 0
250.322 43.1057 0
463.127 43.6721 0
468.059 44.4923 0
443.521 22.1209 0
440.318 25.9598 0
42.873 48.4916 0
39.289 45.0053 0
137.949 48.8852 0
142.524 50.9022 0
155.151 8.25814 0
159.088 11.3409 0
328.496 47.6143 0
332.202 44.2575 0
469.586 27.408 0
464.724 28.5759 0
242.574 32.7971 0
247.57 33.0089 0
206.632 18.1999 0
210.281 14.7815 0
498.938 29.5596 0
494.655 26.9791 0
136.77 20.6087 0
132.481 23.1776 0
233.74 14.4046 0
236.16 10.0293 0
366.454 47.9368 0
362.425 44.9758 0
25.2448 44.4264 0
20.3538 43.3879 0
303.35 44.1721 0
300.61 48.3547 0
73.0564 11.9075 0
70.4854 16.1958 0
485.376 38.3237 0
483.837 33.5664 0
174.279 4.7568 0
178.775 6.9442 0
250.119 13.2459 0
253.106 9.23584 0
325.794 24.3498 0
328.931 28.2439 0
24.5678 55.8203 0
25.1929 50.8595 0
226.801 9.84792 0
227.923 4.97533 0
249.049 29.9099 0
253.269 32.5905 0
277.754 15.2034 0
275.402 19.6156 0
252.394 23.1509 0
248.567 19.9326 0
410.72 24.638 0
410.608 19.6393 0
474.506 39.2718 0
469.689 37.93 0
29.6082 50.0404 0
24.6151 50.3031 0
162.094 11.4822 0
158.125 8.44127 0
29.1974 21.1319 0
24.4001 22.5413 0
453.869 8.65045 0
452.233 13.3752 0
272.787 2.19173 0
273.48 7.1436 0
193.864 43.4416 0
193.515 38.4538 0
28.0136 26.5647 0
23.3118 24.8638 0
318.639 44.7252 0
318.24 39.7412 0
286.56 49.184 0
286.336 54.1789 0
159.36 21.2522 0
159.239 16.2536 0
154.521 8.51983 0
159.323 7.12557 0
289.809 47.3451 0
286.521 51.1117 0
366.159 45.9427 0
369.319 49.818 0
351 15.4716 0
355.991 15.7696 0
343.722 24.8988 0
348.716 24.6541 0
317.503 11.3806 0
322.424 10.4966 0
300.58 5.21965 0
302.448 0.581933 0
203.021 55.3344 0
201.419 50.598 0
370.635 54.2247 0
369.158 49.4479 0
393.574 21.3604 0
388.685 22.4058 0
248.076 31.0383 0
243.465 29.1051 0
220.874 59.9522 0
222.876 55.3706 0
342.322 27.8876 0
337.349 28.3995 0
325.987 47.9894 0
322.104 51.139 0
363.336 15.8212 0
361.278 20.3782 0
138.915 36.4598 0
143.82 37.4289 0
434.113 54.1413 0
434.377 49.1482 0
370.563 18.654 0
374.883 16.136 0
62.0004 9.74471 0
57.8502 12.5331 0
96.5656 47.0044 0
96.5369 52.0043 0
270.872 55.9139 0
271.185 50.9238 0
253.329 22.8053 0
254.318 17.9041 0
451.99 3.15413 0
449.787 7.64257 0
63.8893 14.1301 0
58.8905 14.0212 0
288.152 15.2548 0
287.143 20.1518 0
330.55 17.2663 0
326.493 14.3444 0
101.469 47.506 0
96.5313 48.2908 0
289.336 46.2464 0
294.332 46.4408 0
173.311 45.9558 0
172.039 50.7915 0
466.177 0.348738 0
462.009 3.11185 0
158.934 36.6214 0
156.731 41.1101 0
125.31 44.3551 0
127.838 40.0413 0
448.397 30.9946 0
447.982 35.9773 0
88.9626 5.84716 0
93.3456 8.2532 0
241.55 16.0762 0
246.396 17.3066 0
481.091 26.017 0
485.996 25.0482 0
152.615 54.0092 0
153.714 49.1315 0
82.2178 9.57392 0
85.554 5.84969 0
250.785 48.8512 0
255.716 48.024 0
342.078 24.0476 0
339.888 28.5428 0
411.291 38.931 0
411.446 43.9286 0
255.576 57.8311 0
259.731 55.0495 0
92.7155 15.5434 0
89.5321 11.6877 0
62.5367 9.11399 0
62.2781 14.1073 0
179.447 40.792 0
183.874 38.4672 0
344.496 33.1287 0
348.605 35.9773 0
22.8996 2.449 0
21.398 7.21821 0
402.471 2.056 0
404.811 6.47426 0
239.313 7.91929 0
243.985 6.13845 0
163.21 49.6226 0
158.294 48.7134 0
68.0082 33.2979 0
72.2269 30.6141 0
448.337 9.4448 0
444.131 6.74063 0
202.793 46.0388 0
198.232 48.0876 0
135.141 1.46267 0
140.071 0.626809 0
169.622 25.6813 0
173.78 28.4591 0
352.62 31.4396 0
349.208 27.7853 0
83.1412 42.8529 0
83.6359 37.8774 0
148.17 49.8768 0
152.714 51.9629 0
488.561 16.8127 0
492.124 20.3203 0
328.715 11.8596 0
332.292 15.3524 0
92.6394 53.4322 0
88.1505 51.2299 0
475.595 45.9214 0
476.592 41.0219 0
486.405 50.543 0
486.005 45.5591 0
277.906 12.8128 0
282.642 11.2077 0
101.852 45.0786 0
106.113 42.4624 0
214.506 38.5748 0
210.211 41.1344 0
207.363 10.6208 0
210.834 7.02176 0
461.105 46.1777 0
464.483 49.8637 0
385.72 51.5208 0
380.836 52.5909 0
84.4732 8.03628 0
85.0576 13.002 0
187.544 26.838 0
185.101 22.4757 0
188.452 28.1448 0
183.486 27.5604 0
181.087 6.55396 0
184.891 3.30904 0
349.451 45.1888 0
350.616 50.0513 0
469.69 49.7051 0
471.885 45.2124 0
262.272 41.9118 0
267.238 42.4897 0
56.8534 20.6398 0
52.0086 19.4037 0
484.409 15.2878 0
481.935 10.9427 0
72.2301 51.2977 0
67.8036 53.6228 0
413.127 34.9712 0
417.025 38.1028 0
92.6533 4.40185 0
96.9439 6.96917 0
123.503 40.7485 0
122.332 45.6094 0
271.224 30.09 0
266.226 30.2111 0
11.2388 44.3792 0
10.1849 49.2669 0
321 56.7192 0
324.831 59.9324 0
447.735 45.2003 0
452.588 43.9961 0
203.8 4.59383 0
208.246 2.30676 0
190.216 44.1508 0
194.315 47.0145 0
177.773 29.8305 0
182.728 30.4985 0
164.779 53.8027 0
167.287 49.4775 0
53.7349 45.5667 0
57.5116 48.8435 0
172.532 18.9015 0
176.415 22.0509 0
470.163 34.9808 0
471.965 39.6448 0
238.18 10.1767 0
243.118 10.9576 0
212.258 48.7801 0
211.871 53.7651 0
234 49.9086 0
234.501 54.8835 0
167.212 52.3545 0
165.712 47.5845 0
326.293 47.958 0
324.431 43.3176 0
76.596 44.0846 0
71.6244 44.6163 0
345.331 51.2299 0
344.876 46.2507 0
389.926 21.8907 0
386.771 18.0114 0
167.619 10.4506 0
162.712 11.4074 0
258.386 20.277 0
260.331 15.6707 0
292.775 41.1641 0
297.657 42.2434 0
60.2224 15.4247 0
64.9562 13.815 0
252.602 38.7128 0
255.464 42.8133 0
379.39 13.8537 0
374.493 14.8634 0
368.592 49.4064 0
371.816 45.5845 0
181.062 41.5049 0
181.404 46.4932 0
299.893 13.2227 0
299.331 8.25436 0
219.064 42.8889 0
222.598 46.4259 0
94.5736 56.1671 0
94.3383 51.1727 0
486.219 25.4591 0
488.919 29.6672 0
265.603 35.7046 0
263.514 40.2474 0
66.0594 42.3233 0
62.0946 39.2768 0
385.491 1.69219 0
390.49 1.82379 0
412.889 2.12964 0
408.725 4.897 0
154.34 8.71519 0
151.659 12.936 0
118.842 42.5423 0
118.168 47.4966 0
473.262 49.3492 0
477.374 52.195 0
405.283 8.17214 0
400.464 9.50556 0
457.927 28.7882 0
461.729 32.0358 0
381.131 4.70579 0
382.962 0.0529118 0
86.2211 35.2861 0
89.3885 31.4172 0
438.866 34.2743 0
442.577 37.6248 0
475.214 20.345 0
475.618 15.3614 0
379.515 9.89189 0
379.814 4.9008 0
296.631 11.8647 0
294.916 16.5611 0
236.33 26.6541 0
232.384 23.5831 0
265.241 8.47628 0
262.009 12.2913 0
292.031 57.7065 0
293.473 52.9187 0
324.872 37.836 0
328.993 35.0042 0
402.937 4.62038 0
406.473 1.08545 0
11.0369 13.7633 0
8.80927 18.2396 0
491.421 15.8482 0
493.662 11.3788 0
416.532 22.352 0
413.747 18.1995 0
437.848 5.46133 0
442.638 4.02761 0
460.633 35.343 0
456.29 32.8648 0
342.218 42.2234 0
339.373 46.335 0
94.2818 14.3176 0
97.4384 18.1951 0
463.844 9.03475 0
462.195 13.7549 0
308.444 3.81854 0
305.747 8.02856 0
45.416 56.6028 0
50.3878 57.1334 0
111.268 4.46023 0
107.075 1.7366 0
426.007 14.7114 0
423.694 10.2786 0
245.971 53.064 0
249.449 49.472 0
318.899 34.997 0
317.707 30.1413 0
191.365 40.0845 0
193.428 44.6389 0
31.1109 5.35313 0
33.2059 9.89309 0
441.846 3.67824 0
446.737 2.63925 0
432.788 39.389 0
431.799 44.2903 0
163.985 39.383 0
168.02 42.3357 0
19.7499 53.5723 0
15.3461 55.94 0
377.488 19.1984 0
373.323 21.966 0
416.411 33.8391 0
417.204 28.9025 0
376.244 20.6132 0
376.944 25.564 0
259.798 37.0588 0
254.867 37.8913 0
244.525 15.745 0
248.771 13.1054 0
275.367 19.7736 0
270.38 19.4135 0
282.642 46.6107 0
277.642 46.5805 0
318.992 58.4379 0
315.39 54.9707 0
348.057 26.6871 0
349.242 31.5444 0
205.999 45.2872 0
202.114 42.1401 0
369.809 11.9875 0
373.143 8.26146 0
284.164 16.956 0
288.96 15.5393 0
22.2143 8.2244 0
18.9124 11.9791 0
145.57 13.4105 0
142.868 9.20298 0
225.252 20.7392 0
225.103 15.7414 0
164.847 25.8197 0
161.967 21.7326 0
195.407 12.2423 0
193.958 7.45706 0
20.3074 6.71666 0
18.4431 2.07723 0
380.946 40.3462 0
380.718 45.341 0
348.648 10.2076 0
343.666 9.77761 0
189.671 40.5063 0
192.915 44.3109 0
492.897 46.9023 0
493.145 51.8961 0
383.663 50.2709 0
384.509 45.343 0
220.835 4.17227 0
220.916 9.17161 0
315.615 49.181 0
320.273 51.0001 0
423.324 48.8647 0
419.356 51.9073 0
433.378 20.5236 0
438.06 18.769 0
358.695 35.6654 0
362.95 33.0395 0
13.2039 48.1877 0
13.3146 53.1865 0
185.985 26.2787 0
185.905 31.278 0
41.0345 5.85816 0
40.7543 10.8503 0
173.123 12.2618 0
178.122 12.195 0
312.654 34.8376 0
312.349 29.8469 0
1.1013 49.584 0
4.24843 45.6987 0
160.601 44.9379 0
162.936 49.3591 0
17.1257 5.36157 0
12.8068 2.84219 0
331.43 4.08317 0
336.081 2.24631 0
62.4706 19.2307 0
58.3475 22.0592 0
247.617 23.6648 0
252.598 23.2295 0
288.703 17.8476 0
293.376 16.0694 0
390.667 55.5627 0
386.632 58.5153 0
33.4919 24.5099 0
30.2178 28.2889 0
184.302 38.9567 0
186.473 34.4523 0
487.954 51.4447 0
482.96 51.2097 0
340.312 32.6537 0
342.962 36.8937 0
182.815 16.4364 0
178.327 18.6401 0
70.1043 58.7781 0
75.0724 59.3421 0
369.797 11.6919 0
366.473 7.95659 0
380.787 49.0689 0
382.763 44.476 0
61.6676 34.9941 0
58.8148 39.1004 0
249.96 16.5711 0
252.492 12.2594 0
75.8469 21.2348 0
80.2258 18.8212 0
283.656 2.98084 0
287.828 5.73617 0
248.789 5.00153 0
249.227 9.98227 0
182.181 47.1303 0
186.017 50.3372 0
61.6544 34.8673 0
66.593 34.0863 0
49.7725 19.525 0
53.4195 16.1045 0
24.8176 24.791 0
29.4708 22.9614 0
165.864 30.2461 0
161.51 32.704 0
397.502 46.3182 0
400.501 42.318 0
482.945 27.2225 0
486.41 23.6173 0
365.063 21.015 0
360.142 20.1305 0
121.985 53.9232 0
117.038 53.2027 0
116.657 55.2948 0
114.144 59.6177 0
346.657 39.0837 0
344.189 43.4318 0
94.3957 39.1086 0
90.3136 41.996 0
333.133 18.0512 0
336.992 21.2299 0
43.7107 14.5767 0
46.4194 10.3739 0
493.905 25.7615 0
498.491 27.7535 0
133.246 38.2447 0
129.607 41.674 0
446.551 23.0122 0
448.767 18.5302 0
435.925 35.5656 0
439.273 31.8521 0
66.3963 17.0651 0
70.4277 14.1073 0
231.986 14.8007 0
230.469 10.0364 0
419.68 53.1466 0
422.892 49.315 0
108.387 45.1847 0
109.359 50.0893 0
313.596 9.37809 0
313.212 4.39288 0
262.233 29.7684 0
257.27 29.158 0
112.236 28.5337 0
108.913 24.7977 0
462.406 38.652 0
458.451 35.594 0
436.679 0.441675 0
431.685 0.689795 0
475.56 37.3975 0
471.63 34.3066 0
180.599 52.0708 0
175.987 50.1395 0
333.465 49.9342 0
329.151 52.4615 0
147.497 49.9289 0
147.785 44.9372 0
491.809 30.4189 0
496.232 32.7514 0
48.1297 58.3575 0
43.2541 59.4662 0
5.58931 20.8988 0
10.0092 18.5612 0
468.02 57.514 0
472.126 54.661 0
118.579 1.07872 0
123.574 0.852771 0
274.482 9.48017 0
278.075 12.9574 0
102.563 15.034 0
99.6855 10.9448 0
90.1322 17.0366 0
90.8383 12.0867 0
271.983 53.7113 0
268.289 57.0806 0
198.606 56.7566 0
202.585 59.7838 0
413.707 4.3555 0
408.758 5.06762 0
274.994 4.75284 0
276.835 9.40171 0
369.532 29.0173 0
370.653 33.8899 0
226.737 22.7867 0
231.387 20.9511 0
240.308 44.4349 0
245.236 43.5917 0
371.83 20.2875 0
369.839 24.8742 0
327.291 5.22693 0
330.21 1.1676 0
326.784 54.2551 0
330.338 57.7728 0
12.5227 51.6635 0
8.03686 49.455 0
14.4436 33.7405 0
16.4443 38.3228 0
470.786 9.67523 0
465.83 9.01447 0
167.205 10.8841 0
163.133 13.7853 0
171.625 49.1221 0
174.502 53.2111 0
22.3959 16.1254 0
26.7028 13.5854 0
391.085 23.4894 0
389.469 18.758 0
420.802 56.4541 0
425.422 58.3648 0
318.393 22.5129 0
317.759 27.4725 0
396.698 13.7441 0
401.247 11.67 0
75.835 40.8419 0
70.9367 39.8386 0
146.888 29.0798 0
147.594 24.1298 0
23.9935 27.4914 0
27.7498 24.1913 0
136.829 15.9947 0
133.434 12.3248 0
372.856 31.009 0
370.768 26.466 0
490.371 20.2216 0
487.321 24.1831 0
237.721 55.8404 0
240.248 51.5259 0
81.5096 38.4191 0
86.3943 39.4868 0
334.434 53.3966 0
339.41 52.9087 0
384.205 5.45138 0
379.215 5.76176 0
381.078 16.9827 0
382.551 12.2047 0
229.352 48.5058 0
233.808 50.774 0
36.0146 32.6253 0
32.311 29.2663 0
452.156 56.04 0
457.139 55.6325 0
8.47651 38.046 0
4.36915 35.1947 0
373.341 44.8972 0
373.268 39.8977 0
275.337 37.3731 0
278.631 41.1349 0
327.802 1.5122 0
332.709 2.47042 0
155.401 41.5028 0
159.731 44.0032 0
318.435 56.826 0
323.263 55.5266 0
272.412 27.4369 0
276.915 29.61 0
224.298 39.0412 0
223.676 44.0024 0
240.185 59.8315 0
236.607 56.3394 0
464.577 1.98162 0
468.673 4.84953 0
71.6927 22.1345 0
67.4335 19.5156 0
306.465 19.3656 0
303.785 15.1442 0
148.022 25.0065 0
153.006 25.4097 0
346.061 7.63629 0
341.635 5.31054 0
260.221 30.4669 0
263.813 33.9447 0
439.883 31.7455 0
436.486 35.4144 0
247.622 44.0182 0
245.846 39.3445 0
461.183 14.6076 0
465.75 12.5716 0
206.049 42.1504 0
208.312 37.6919 0
256.783 48.1459 0
252.194 46.1617 0
144.614 11.2478 0
140.34 8.65346 0
66.7899 58.3759 0
71.7899 58.3633 0
163.93 23.0242 0
159.987 19.9498 0
184.909 6.55161 0
189.868 5.91368 0
17.5774 37.7195 0
13.8134 41.0107 0
368.154 20.4838 0
373.124 19.9449 0
429.679 31.7012 0
431.777 36.2401 0
418.879 33.3407 0
414.592 35.9141 0
85.9094 5.90548 0
81.8963 8.88795 0
433.563 28.3133 0
428.726 29.5791 0
117.584 12.7951 0
113.639 9.72262 0
251.372 23.0005 0
254.659 19.2325 0
111.966 19.5415 0
108.047 22.6464 0
365.257 9.25273 0
360.295 9.86765 0
356.101 38.9067 0
351.201 37.9097 0
323.606 32.828 0
318.817 31.3913 0
128.868 36.1369 0
123.994 37.2534 0
465.759 8.44673 0
469.95 5.71873 0
254.163 6.58272 0
252.829 1.76379 0
159.942 21.8818 0
164.893 21.1838 0
326.796 2.5229 0
322.276 4.66025 0
339.623 17.6397 0
344.569 16.9036 0
460.863 16.2844 0
458.418 20.6454 0
89.0174 11.1894 0
92.2031 7.33565 0
159.911 35.2887 0
164.853 36.0507 0
232.189 59.1317 0
228.91 55.3572 0
18.1017 46.4641 0
18.796 51.4157 0
299.8 18.9059 0
294.9 17.9115 0
447.115 43.544 0
447.036 38.5446 0
51.7729 29.9738 0
56.7672 29.7341 0
404.494 14.8089 0
408.058 18.316 0
304.554 47.2778 0
303.685 42.3539 0
132.365 6.19508 0
129.621 10.3744 0
151.002 7.90758 0
146.91 10.7801 0
312.746 14.4655 0
310.58 9.95874 0
32.6212 6.33202 0
36.7974 3.58253 0
358.027 43.4435 0
354.551 39.8501 0
47.5791 19.5133 0
52.2976 17.8594 0
392.754 18.6952 0
396.837 15.8093 0
6.88699 20.7288 0
4.11833 16.5653 0
437.937 54.9007 0
439.209 59.7362 0
477.487 39.1696 0
482.36 38.0521 0
179.5 28.9577 0
174.502 28.8261 0
495.064 8.00962 0
494.956 13.0085 0
41.9309 45.6762 0
46.4685 47.7764 0
104.711 6.35875 0
100.187 8.48762 0
33.2596 25.1829 0
37.6778 22.842 0
322.289 51.915 0
324.836 47.6122 0
322.569 23.8141 0
317.586 24.2297 0
237.975 35.0574 0
233.457 37.1979 0
272.534 49.0578 0
276.452 45.9522 0
53.2889 29.4738 0
58.2766 29.1238 0
439.853 53.164 0
444.735 52.0847 0
307.555 5.10175 0
310.983 1.46141 0
122.809 41.9624 0
127.653 40.7214 0
176.607 39.6994 0
180.293 43.0772 0
271.847 6.72241 0
273.86 2.14582 0
280.088 51.4154 0
283.234 47.5296 0
80.3107 19.4486 0
75.6503 21.2598 0
239.939 36.8288 0
243.828 33.687 0
42.6244 16.1928 0
45.2335 20.4581 0
76.9206 40.4946 0
77.4598 45.4654 0
85.8752 49.9282 0
83.0173 45.8254 0
493.081 26.2103 0
492.694 21.2252 0
245.011 47.7114 0
249.992 47.2754 0
487.955 16.6496 0
486.316 11.9257 0
306.745 19.6641 0
302.113 17.7803 0
126.695 6.86565 0
126.79 11.8647 0
471.727 28.4237 0
475.47 31.7384 0
141.657 18.1095 0
137.008 16.2675 0
106.796 45.1213 0
101.938 43.9371 0
113.868 34.3271 0
111.1 38.4912 0
467.239 46.5736 0
463.398 49.7753 0
270.249 58.2749 0
275.006 56.7339 0
199.009 51.1016 0
201.876 47.0046 0
12.6184 19.1334 0
15.8032 15.2789 0
429.932 25.7454 0
429.769 30.7427 0
495.276 46.285 0
490.298 46.757 0
106.492 9.49738 0
102.195 12.0543 0
379.836 49.0454 0
376.476 52.7485 0
74.9749 51.0541 0
74.8162 46.0566 0
439.806 16.2478 0
437.747 11.6914 0
412.311 1.02624 0
412.488 6.0231 0
302.385 3.44123 0
301.99 8.42562 0
214.223 24.721 0
210.785 21.0905 0
260.56 53.8292 0
257.513 57.7936 0
61.9342 32.7308 0
61.478 37.7099 0
379.831 32.151 0
376.185 28.7301 0
471.149 46.8992 0
466.175 46.398 0
321.205 46.9833 0
321.395 51.9797 0
60.0708 47.7989 0
64.9447 46.6832 0
472.611 11.496 0
470.66 16.0993 0
24.7077 31.8157 0
24.5648 36.8137 0
251.117 22.452 0
255.608 20.2542 0
453.905 40.6316 0
449.469 38.3256 0
406.785 9.52851 0
410.578 12.7862 0
429.993 59.2488 0
425.046 58.5205 0
139.901 45.6318 0
134.938 45.0226 0
8.72291 43.6663 0
3.72378 43.5728 0
379.799 34.21 0
381.909 29.6769 0
240.157 49.9097 0
240.781 44.9488 0
19.2549 25.7791 0
22.8479 22.302 0
38.4085 14.256 0
33.9607 16.54 0
170.547 53.9182 0
169.186 58.7294 0
375.883 27.9969 0
370.883 27.9584 0
155.407 18.4795 0
152.209 22.3235 0
219.469 31.1526 0
224.012 33.2414 0
419.773 8.92351 0
414.994 10.3925 0
92.5759 40.8633 0
95.5211 44.9038 0
78.6008 5.30457 0
73.6983 6.28733 0
63.2651 3.79614 0
58.4887 5.27472 0
267.008 10.0359 0
264.806 14.5248 0
309.146 8.13077 0
308.718 3.14911 0
331.876 13.151 0
335.654 16.426 0
44.121 38.3939 0
39.6673 40.6665 0
270.337 49.5666 0
274.367 46.6061 0
47.5314 8.30636 0
51.276 11.6196 0
103.46 48.6913 0
105.628 44.1856 0
320.467 59.9487 0
318.369 55.4102 0
379.81 6.04585 0
376.651 9.92112 0
8.93207 6.67653 0
7.32261 11.4104 0
477.886 45.2083 0
472.939 44.483 0
129.455 23.8064 0
125.663 27.0655 0
353.975 43.4004 0
352.519 48.1838 0
437.268 39.3021 0
434.894 34.9018 0
412.389 47.9238 0
416.486 45.0577 0
160.157 52.7876 0
162.507 48.3743 0
64.1336 17.0254 0
61.0273 13.1073 0
138.654 35.8589 0
139.286 40.8188 0
413.553 47.8841 0
418.369 49.2275 0
465.842 32.9709 0
470.84 32.8139 0
208.5 10.2355 0
213.218 11.8886 0
92.7311 56.4609 0
88.2501 54.2426 0
421.623 34.11 0
425.744 31.2787 0
242.539 29.8703 0
244.669 34.3935 0
413.707 42.3425 0
409.834 39.1809 0
31.8087 33.3406 0
36.6446 32.0699 0
116.177 4.9129 0
111.179 4.76942 0
266.276 47.9852 0
261.289 48.3487 0
133.522 13.6118 0
130.194 17.3433 0
133.206 14.2104 0
131.015 9.71611 0
321.353 9.85174 0
316.494 8.6698 0
41.3124 19.635 0
44.1821 15.5405 0
21.0056 35.3967 0
24.5343 31.8543 0
119.632 39.9442 0
115.129 37.771 0
309.375 26.5033 0
313.998 24.5985 0
189.499 45.7441 0
184.688 47.1076 0
342.247 39.0232 0
338.81 35.3917 0
216.813 51.6933 0
217.242 56.6748 0
279.716 8.22799 0
275.891 11.4487 0
493.652 54.5762 0
496.806 58.4557 0
417.084 45.3208 0
417.232 40.323 0
421.622 25.4673 0
423.297 20.7562 0
71.8199 11.0785 0
75.471 14.4945 0
260.053 45.185 0
255.38 46.9627 0
492.037 30.8752 0
496.873 29.6047 0
11.5877 43.7955 0
16.3236 45.3989 0
88.4858 46.0572 0
91.8972 42.4018 0
90.5986 24.2757 0
87.9025 28.4865 0
56.2575 13.9327 0
52.1988 11.0126 0
23.0911 51.7414 0
18.846 54.3832 0
100.465 8.64701 0
103.258 12.7939 0
115.266 33.4004 0
118.047 29.2452 0
298.51 6.19799 0
296.73 1.52541 0
486.932 25.4455 0
491.407 23.2161 0
336.869 48.0228 0
341.006 50.8313 0
343.615 11.7376 0
347.884 14.341 0
408.078 41.5535 0
412.354 44.1448 0
52.3659 51.1027 0
57.1118 52.6763 0
168.926 32.2288 0
170.515 36.9698 0
17.4524 26.3553 0
16.9981 31.3346 0
482.523 30.7137 0
478.159 33.1537 0
40.3474 22.5126 0
44.4064 19.5929 0
58.6771 29.777 0
55.6464 25.8001 0
158.495 39.5518 0
163.445 40.2549 0
469.496 27.6575 0
473.829 25.1621 0
118.873 57.6403 0
114.074 56.2344 0
17.2757 12.193 0
16.0725 7.33997 0
333.627 43.27 0
331.991 47.9946 0
156.141 54.563 0
160.791 56.3997 0
161.552 33.6567 0
156.568 33.2474 0
350.162 33.3972 0
355.003 32.1469 0
15.1306 29.5905 0
14.1044 24.6969 0
6.39081 41.1315 0
4.53071 36.4904 0
3.43598 56.0024 0
8.25846 54.6819 0
491.76 49.5003 0
495.723 46.4516 0
12.4351 46.5526 0
17.435 46.5853 0
418.6 14.6868 0
414.023 12.6747 0
51.7154 45.6902 0
55.6345 48.7952 0
397.207 2.51598 0
401.003 5.77046 0
152.133 28.5273 0
153.944 33.1878 0
204.446 47.268 0
207.054 43.0021 0
252.037 22.0777 0
247.799 24.7309 0
63.3596 23.8756 0
64.4003 28.7661 0
269.547 12.1186 0
274.54 12.3825 0
430.663 2.91196 0
425.693 2.35981 0
368.184 12.135 0
364.211 15.17 0
34.9832 0.918779 0
39.9276 0.175433 0
374.57 10.0852 0
373.623 5.17566 0
0.432557 39.2402 0
4.14856 42.5855 0
432.597 58.6727 0
431.324 53.8374 0
254.939 50.5613 0
258.654 53.9071 0
187.877 30.6983 0
188.318 35.6788 0
108.004 57.3756 0
111.151 53.4903 0
47.6099 45.7838 0
43.5926 42.807 0
17.4254 10.8176 0
20.3877 14.8456 0
103.887 49.6686 0
99.8357 46.7382 0
242.817 18.0659 0
239.506 21.8123 0
308.197 12.5914 0
305.647 8.29048 0
459.666 40.3698 0
462.053 35.976 0
478.032 36.5926 0
477.57 41.5712 0
369.793 50.7956 0
365.164 52.6867 0
385.652 57.5771 0
390.311 55.7641 0
313.132 30.4507 0
317.935 29.0606 0
256.11 48.9097 0
260.352 46.2616 0
36.0032 24.4452 0
39.4954 20.8668 0
216.219 13.5704 0
220.092 10.4091 0
52.4577 14.3932 0
50.2523 9.90589 0
152.114 52.2087 0
157.063 52.917 0
467.37 7.43188 0
463.472 10.5637 0
232.74 58.8628 0
234.016 54.0284 0
61.3073 42.582 0
66.1671 41.406 0
5.26891 32.4133 0
10.1613 33.445 0
129.537 5.23908 0
132.265 9.42945 0
169.013 22.4808 0
167.185 27.1345 0
89.8396 51.0868 0
92.5344 46.8751 0
313.506 0.475495 0
317.098 3.95447 0
295.542 6.07075 0
293.265 10.5223 0
461.015 29.5774 0
459.412 34.3135 0
480.295 46.8363 0
481.273 51.7398 0
478.589 31.0099 0
483.586 30.824 0
271.658 14.9829 0
271.517 19.9809 0
383.405 41.5527 0
378.412 41.8181 0
44.2759 52.2739 0
40.0696 49.5707 0
354.099 46.1534 0
356.914 42.0212 0
82.7773 50.6975 0
80.2017 46.4119 0
67.7769 50.8038 0
63.1602 48.884 0
68.2509 50.4479 0
64.5444 53.8037 0
168.418 9.97404 0
172.999 11.9795 0
459.571 14.4268 0
459.57 9.42676 0
350.121 16.5866 0
354.128 19.5775 0
381.069 53.1703 0
383.326 57.6316 0
82.4751 32.2523 0
87.1126 34.1214 0
58.6418 17.5114 0
55.3829 21.3035 0
359.871 9.73964 0
364.066 7.01947 0
8.35531 26.5068 0
8.56981 31.5022 0
73.6299 13.0458 0
73.8599 18.0405 0
305.227 7.54142 0
309.789 5.49362 0
189.34 21.7454 0
186.864 17.4016 0
187.319 49.6427 0
188.392 44.7591 0
346.202 56.2228 0
349.643 52.5949 0
191.341 17.7171 0
190.936 22.7006 0
424.516 27.5638 0
419.833 25.813 0
425.536 56.8768 0
421.382 54.094 0
445.351 10.8029 0
450.151 12.2024 0
133.725 41.8953 0
137.536 45.1316 0
374.082 5.86541 0
370.534 2.34289 0
230.037 1.9121 0
225.087 1.20889 0
221.566 14.7821 0
219.173 19.1724 0
484.905 31.8223 0
480.09 33.1731 0
488.873 3.06061 0
493.166 5.62452 0
157.229 31.2122 0
152.664 29.1741 0
490.899 45.1989 0
494.681 48.4687 0
53.0438 12.3294 0
56.3848 16.0493 0
422.137 9.96943 0
426.437 7.41644 0
155.147 51.2219 0
154.066 46.3402 0
450.661 42.0436 0
451.884 46.8916 0
205.907 16.0212 0
206.437 20.993 0
34.3505 48.4232 0
34.613 43.4301 0
116.292 52.3707 0
112.396 55.5043 0
232.571 0.641452 0
232.713 5.63946 0
471.06 22.6415 0
469.201 27.2832 0
51.313 17.5966 0
55.6246 20.1285 0
69.4249 30.0671 0
64.4255 29.9898 0
110.574 45.5355 0
106.242 43.0392 0
285.141 47.9824 0
289.848 46.2964 0
263.342 42.2054 0
264.333 47.1063 0
390.222 48.3548 0
385.42 46.9603 0
258.148 6.85802 0
259.886 2.16986 0
315.951 17.457 0
315.12 12.5266 0
166.159 49.8559 0
162.414 46.5429 0
324.646 23.9687 0
326.201 28.7208 0
120.582 26.6079 0
121.367 31.5458 0
171.445 8.34158 0
168.839 4.07438 0
267.22 11.7647 0
264.617 16.0336 0
464.254 34.1431 0
461.544 29.941 0
0.0954344 5.83281 0
2.89632 9.97467 0
432.455 31.9399 0
427.566 30.8908 0
144.887 23.4705 0
147.561 19.2455 0
25.8715 23.2922 0
24.4373 28.0821 0
381.189 5.01638 0
382.317 9.88741 0
328.234 15.199 0
325.385 11.0897 0
200.979 49.1588 0
205.026 46.222 0
176.768 38.2526 0
175.19 42.9973 0
457.417 15.8531 0
462.298 16.9409 0
172.365 55.5827 0
177.35 55.9714 0
389.706 25.5732 0
385.576 28.392 0
494.412 43.5974 0
489.511 44.5869 0
415.035 33.1023 0
417.879 37.2144 0
340.637 47.9991 0
338.287 52.4123 0
315.176 5.9371 0
317.19 10.5135 0
357.278 31.5197 0
361.909 29.6354 0
105.521 46.6378 0
103.135 42.2442 0
124.695 26.0927 0
127.877 22.2356 0
163.882 35.8701 0
163.604 40.8624 0
13.1629 35.8253 0
16.1647 39.824 0
269.828 44.5967 0
265.522 47.1375 0
119.18 18.081 0
120.329 13.2147 0
334.455 24.09 0
330.495 21.0369 0
272.415 46.3974 0
268.888 42.8528 0
76.4297 17.4014 0
72.4943 14.3172 0
322.693 21.9847 0
326.845 19.1975 0
187.269 53.906 0
188.635 49.0964 0
301.787 48.5203 0
306.777 48.8395 0
105.843 18.6478 0
102.663 14.7897 0
274.359 23.6429 0
278.954 21.6717 0
148.057 5.94659 0
153.057 5.91396 0
399.38 47.2104 0
394.38 47.1609 0
460.104 53.965 0
455.661 56.2594 0
24.4201 33.8389 0
20.1943 31.1663 0
332.304 48.5022 0
334.599 52.944 0
135.892 29.7481 0
139.275 33.4296 0
17.5579 56.0718 0
12.6147 56.823 0
55.748 47.5498 0
50.7603 47.9011 0
6.65085 50.3404 0
8.89676 54.8076 0
435.66 53.9244 0
439.842 56.6649 0
360.585 28.3854 0
365.547 29.0022 0
418.796 22.6421 0
413.807 22.9746 0
291.581 57.8365 0
296.531 58.5378 0
116.386 34.1831 0
114.951 38.9729 0
230.17 55.4208 0
235.017 54.1953 0
461.488 1.69098 0
457.405 4.57735 0
69.3928 37.7685 0
64.3996 37.5075 0
125.156 50.8147 0
120.325 49.5255 0
268.453 34.9877 0
273.114 33.1789 0
96.5463 51.1937 0
92.8039 47.8779 0
445.754 55.0025 0
450.494 53.4102 0
257.028 29.4928 0
259.565 33.8012 0
27.7151 48.8637 0
22.7397 49.3592 0
242.011 15.3938 0
246.16 18.184 0
267.216 53.3386 0
262.923 55.9014 0
114.779 33.9874 0
119.701 33.1086 0
453.125 4.62042 0
456.959 7.83024 0
248.282 29.5733 0
244.457 32.7935 0
183.802 38.9983 0
178.963 37.7397 0
457.808 8.40744 0
462.744 7.60852 0
415.967 52.3433 0
419.971 49.3485 0
351.874 58.611 0
348.468 54.9505 0
362.043 8.47637 0
359.716 4.05087 0
111.575 30.1675 0
115.282 33.523 0
223.532 56.7416 0
218.695 58.0069 0
332.029 20.9685 0
330.4 16.2414 0
55.053 21.7813 0
56.0114 16.874 0
155.218 51.3142 0
153.843 56.1213 0
10.4625 46.8007 0
6.85185 50.2595 0
350.744 35.2006 0
347.49 38.9971 0
383.627 39.3531 0
381.015 43.6165 0
243.911 26.3368 0
243.06 31.2638 0
79.508 52.246 0
83.5107 55.2425 0
341.678 30.7653 0
346.491 32.1193 0
340.417 55.038 0
338.803 59.7705 0
161.462 55.4181 0
157.037 57.7466 0
116.47 19.2501 0
112.931 22.7824 0
310.101 19.4039 0
305.673 17.0816 0
141.874 55.4227 0
139.308 51.1318 0
126.41 8.35917 0
130.341 11.4493 0
275.189 10.3006 0
279.224 7.34705 0
441.379 9.8016 0
441.66 14.7937 0
391.472 56.1642 0
386.676 57.5789 0
80.6792 52.6253 0
85.4939 51.277 0
413.109 33.0556 0
414.467 28.2434 0
286.867 29.0197 0
286.494 24.0337 0
471.9 21.4559 0
476.587 19.7139 0
418.97 43.4827 0
419.033 48.4823 0
480.758 11.6255 0
485.268 9.46599 0
226.038 44.4433 0
223.676 48.8506 0
363.788 3.58886 0
366.415 7.84321 0
185.236 50.9905 0
184.88 46.0032 0
311.048 47.1851 0
313.103 42.6268 0
176.638 34.9643 0
171.911 33.3357 0
294.58 8.73397 0
298.139 12.2461 0
252.15 25.7668 0
256.039 28.9098 0
362.2 51.4607 0
365.845 54.8839 0
371.856 55.2861 0
367.587 52.6836 0
494.807 12.3026 0
489.808 12.3972 0
227.661 57.7626 0
232.188 55.6402 0
466.653 56.4694 0
466.003 51.5119 0
16.816 45.7549 0
21.1563 43.2725 0
482.492 12.4139 0
481.97 17.3866 0
145.978 20.3327 0
140.982 20.1388 0
287.802 37.9908 0
292.763 37.364 0
319.769 42.4533 0
314.784 42.8401 0
409.488 9.0504 0
407.423 4.49688 0
232.652 24.2788 0
231.668 29.1811 0
121.466 5.29963 0
120.119 10.1149 0
79.7593 37.6522 0
75.6896 34.7475 0
141.426 57.1724 0
136.575 58.3865 0
360.801 4.41314 0
356.928 7.57554 0
224.425 37.2124 0
228.091 40.6131 0
18.4266 43.8939 0
13.8427 45.8907 0
208.014 40.4867 0
207.811 45.4825 0
304.735 9.078 0
299.88 10.2763 0
217.96 3.61062 0
214.965 7.61445 0
354.107 33.9804 0
350.772 30.2547 0
123.688 55.8517 0
118.695 56.1197 0
35.2965 15.2145 0
40.1111 13.8656 0
341.153 15.3373 0
336.155 15.1928 0
152.336 47.5875 0
154.923 51.8661 0
364.898 10.8683 0
369.347 8.58583 0
8.11093 21.3646 0
3.55046 23.4146 0
417.355 1.41412 0
420.025 5.64209 0
63.7092 27.4283 0
59.608 24.5683 0
120.646 47.5343 0
115.682 48.1355 0
155.631 37.4046 0
155.806 32.4077 0
453.937 5.17755 0
449.868 2.27283 0
215.604 34.1861 0
213.741 29.5461 0
472.972 30.3868 0
473.583 35.3493 0
75.1464 52.4144 0
74.2113 57.3262 0
225.944 24.2147 0
220.952 23.934 0
292.303 4.2993 0
296.213 7.41594 0
225.989 16.0345 0
222.895 19.962 0
450.263 52.7799 0
454.859 54.7485 0
242.11 50.3945 0
246.611 48.2166 0
106.045 57.5257 0
101.463 55.5226 0
421.124 32.3315 0
417.054 35.2365 0
176.802 7.27228 0
181.01 9.97274 0
189.497 41.752 0
193.054 45.2654 0
353.432 23.1728 0
354.755 18.3509 0
290.839 57.6643 0
294.766 54.5684 0
33.3173 47.3593 0
31.5283 52.0283 0
475.253 27.9783 0
474.741 23.0046 0
110.288 19.438 0
113.075 15.287 0
142.433 40.1806 0
137.464 39.619 0
159.795 43.7134 0
158.373 48.5068 0
161.521 4.25045 0
158.472 8.2128 0
228.558 37.6045 0
232.379 34.3786 0
394.44 8.67105 0
390.454 5.65287 0
101.179 53.7242 0
96.366 55.079 0
234.35 15.4569 0
236.258 20.0784 0
225.899 33.8761 0
221.21 35.6106 0
441.636 42.6795 0
446.596 43.3078 0
401.787 7.64147 0
399.307 3.29985 0
224.8 10.3883 0
229.351 12.4576 0
266.186 39.0609 0
268.457 43.5155 0
92.3138 50.4837 0
88.1399 47.7308 0
279.027 27.5319 0
279.724 22.5806 0
76.7053 33.8793 0
81.7009 33.6684 0
362.735 40.251 0
367.624 39.2029 0
179.617 19.7281 0
174.703 18.8047 0
162.722 48.5372 0
158.027 50.2575 0
201.663 5.28329 0
197.142 7.41764 0
396.69 4.5321 0
401.641 3.83094 0
360.025 21.6365 0
356.706 17.8971 0
217.846 21.1432 0
213.607 18.4924 0
35.7606 34.284 0
34.4097 29.47 0
396.405 3.51351 0
392.456 6.58075 0
78.0624 58.2077 0
75.1856 54.1182 0
11.9925 59.2722 0
16.9473 58.6014 0
238.796 27.913 0
243.727 28.7436 0
251.015 34.4618 0
247.959 30.5046 0
446.282 28.2928 0
446.79 33.2669 0
249.919 26.0498 0
250.934 21.1539 0
105.489 53.0939 0
109.208 56.4349 0
435.7 29.4147 0
439.471 26.131 0
215.173 37.6099 0
212.139 33.6357 0
316.637 35.715 0
321.169 33.6022 0
352.208 16.6208 0
353.87 21.3364 0
445.823 50.4317 0
447.459 45.7071 0
64.261 16.4387 0
60.0495 19.1337 0
103.209 41.0773 0
106.154 45.1178 0
277.6 6.45645 0
272.619 6.02489 0
284.607 28.9893 0
283.507 33.8669 0
299.399 18.4836 0
304.353 17.8077 0
55.3282 7.36048 0
58.9429 10.815 0
174.163 32.8587 0
170.546 29.4067 0
189.548 22.4778 0
194.373 21.1657 0
252.038 44.2733 0
251.418 49.2347 0
22.1425 33.4822 0
17.1428 33.4263 0
491.848 47.9676 0
486.888 47.3381 0
151.622 9.58941 0
147.035 11.5798 0
394.199 16.9908 0
392.678 21.7538 0
34.1695 10.9414 0
32.0025 6.43536 0
324.789 45.3263 0
329.787 45.1951 0
264 13.9153 0
261.095 17.985 0
424.918 52.3219 0
429.612 54.0441 0
451.394 27.8108 0
446.833 25.7628 0
314.093 41.1448 0
309.093 41.1532 0
434.986 37.2634 0
433.258 32.5717 0
287.769 5.88588 0
292.423 4.05918 0
282.174 59.4997 0
286.784 57.564 0
420.755 5.5 0
415.789 4.91887 0
235.986 14.6054 0
239.232 18.4086 0
447.287 24.1862 0
444.117 28.0525 0
125.069 24.4044 0
126.933 19.765 0
172.906 45.3186 0
169.12 42.0518 0
254.379 46.1471 0
256.945 50.4385 0
210.885 40.1826 0
206.166 41.8347 0
273.727 7.01592 0
272.897 11.9465 0
105.16 54.2239 0
104.757 49.2401 0
451.005 28.978 0
446.533 31.2138 0
14.5337 57.6966 0
17.123 53.4192 0
347.741 44.8608 0
344.562 48.7199 0
384.48 25.861 0
385.552 20.977 0
29.792 4.83081 0
25.1725 2.91761 0
126.459 35.7521 0
125.224 40.5971 0
159.952 47.7821 0
160.282 52.7712 0
59.6891 13.834 0
63.8998 16.5303 0
332.858 38.4044 0
336.393 34.8687 0
458.901 6.6064 0
457.524 11.413 0
7.62517 19.0058 0
10.9714 15.2906 0
292.105 13.3397 0
295.406 9.58436 0
247.779 10.6758 0
249.193 15.4716 0
487.53 29.2501 0
492.441 28.3117 0
393.819 10.5618 0
397.055 6.7507 0
380.36 45.085 0
375.911 42.8039 0
218.768 46.27 0
223.635 47.4144 0
98.8163 18.1273 0
93.8339 18.5461 0
313 43.8384 0
312.753 48.8323 0
148.244 35.7038 0
148.951 30.7541 0
146.803 56.7424 0
149.962 52.8668 0
34.6771 51.8574 0
33.3913 47.0255 0
336.427 5.71748 0
341.382 6.38768 0
460.732 8.58114 0
465.512 10.048 0
455.284 5.48255 0
451.958 9.21582 0
49.281 7.04668 0
46.7411 11.3536 0
127.243 14.2421 0
125.677 9.49393 0
289.079 28.4908 0
284.186 27.4624 0
370.497 56.9235 0
372.255 52.2428 0
23.6312 54.3154 0
28.4045 55.8036 0
257.945 29.2117 0
260.775 33.3339 0
159.11 38.3897 0
164.087 38.8711 0
347.102 50.2961 0
351.262 53.0695 0
404.208 53.0072 0
399.214 52.7649 0
89.1404 17.4107 0
89.5352 12.4264 0
282.156 56.4126 0
287.146 56.7362 0
228.031 30.9983 0
223.253 32.4714 0
355.676 7.68032 0
352.169 4.116 0
57.4089 11.0826 0
57.0621 6.0946 0
105.532 5.83557 0
109.545 8.81894 0
225.821 39.5796 0
223.481 35.1611 0
99.1238 54.9537 0
95.413 51.6026 0
126.792 29.0247 0
122.372 26.6872 0
268.574 33.8422 0
272.759 36.5777 0
337.512 34.0801 0
339.506 38.6653 0
177.209 16.5464 0
177.585 11.5605 0
118.036 48.1761 0
116.386 52.8961 0
63.4168 32.5808 0
62.5494 27.6566 0
62.0871 52.919 0
57.4407 51.0721 0
362.945 23.9874 0
357.947 24.0976 0
351.072 42.9546 0
348.846 47.4313 0
290.431 38.2247 0
288.236 33.7325 0
448.321 52.5982 0
450.536 57.0804 0
188.37 51.5848 0
188.851 56.5617 0
451.735 25.7369 0
451.851 30.7356 0
218.159 31.7051 0
220.68 36.0228 0
453.217 24.9482 0
458.077 23.7741 0
445.52 31.5196 0
445.346 26.5226 0
180.492 46.2341 0
184.972 48.4547 0
172.21 23.5687 0
167.361 22.3504 0
366.333 55.6195 0
362.73 59.0861 0
146.323 44.032 0
142.173 41.2424 0
135.291 17.3445 0
136.324 22.2367 0
474.266 41.8023 0
476.432 37.2959 0
88.9807 43.2592 0
93.9594 43.7196 0
428.612 51.6116 0
425.419 55.4599 0
497.541 1.64923 0
494.011 5.19019 0
471.757 6.26766 0
471.26 1.29246 0
208.468 59.6435 0
212.943 57.4131 0
86.0139 1.75369 0
88.8136 5.89639 0
213.153 37.3999 0
212.256 42.3188 0
157.18 52.6001 0
160.737 49.0869 0
391.829 5.56348 0
396.029 8.2753 0
277.596 51.6737 0
282.441 52.9089 0
11.2857 54.4232 0
16.284 54.2929 0
489.104 35.2806 0
494.036 36.105 0
250.441 46.7358 0
255.362 45.851 0
71.2794 39.1433 0
76.0929 40.4961 0
424.547 8.4264 0
425.904 3.61414 0
304.702 41.0975 0
305.497 46.0338 0
428.097 34.4623 0
427.881 29.467 0
449.948 32.7297 0
449.411 27.7586 0
69.2624 4.56164 0
67.7763 9.33567 0
451.707 53.221 0
447.859 56.4143 0
440.224 18.1046 0
441.267 13.2145 0
189.858 11.147 0
184.866 10.8734 0
264.271 35.6574 0
261.409 31.5572 0
165.4 5.11901 0
165.216 10.1156 0
117.502 21.4012 0
118.208 16.4513 0
344.711 35.1126 0
339.771 34.3449 0
20.5271 38.9579 0
20.0265 33.983 0
178.128 21.8678 0
173.204 22.7356 0
182.168 28.5679 0
177.204 27.9717 0
347.702 8.07146 0
349.37 12.7851 0
1.15457 25.9972 0
0.873769 21.0051 0
46.015 26.3362 0
45.2744 31.2811 0
287.358 6.15243 0
284.86 1.82088 0
232.912 53.7842 0
237.908 53.9626 0
142.832 1.13966 0
147.787 0.469087 0
422.484 0.281513 0
422.039 5.26167 0
259.745 19.3997 0
259.833 14.4005 0
24.2606 18.6614 0
29.0458 17.2115 0
188.817 22.033 0
185.283 18.4958 0
269.506 37.3142 0
265.017 39.517 0
402.483 13.7953 0
404.806 18.2232 0
440.593 48.9458 0
437.036 52.4598 0
454.254 46.8129 0
459.254 46.8141 0
277.155 26.2558 0
274.941 30.7387 0
342.678 42.9836 0
339.089 46.4655 0
71.4349 44.0007 0
75.8756 46.2986 0
439.047 16.346 0
440.019 21.2507 0
65.7107 12.5641 0
69.9336 15.2413 0
77.1724 17.1027 0
77.4759 12.112 0
127.23 30.9386 0
124.909 26.5102 0
245.994 42.3161 0
241.008 41.9442 0
169.126 32.7642 0
170.619 37.5362 0
147.088 22.5277 0
150.058 18.5057 0
167.832 43.6052 0
163.1 41.9901 0
445.642 39.2297 0
450.637 39.0187 0
93.6107 1.50124 0
98.2851 3.27609 0
425.952 8.2255 0
423.354 3.95392 0
384.91 9.14851 0
389.263 6.68782 0
366.301 48.4421 0
363.268 52.4169 0
434.402 31.6256 0
430.051 29.1624 0
249.995 55.5883 0
245.833 58.3582 0
250.84 55.3509 0
248.945 59.9781 0
134.052 26.221 0
138.891 24.9602 0
252.673 39.4699 0
248.225 37.1859 0
348.718 45.8773 0
343.879 47.1381 0
487.924 37.9108 0
483.547 35.495 0
420.074 50.7935 0
424.692 48.8773 0
26.0636 52.0904 0
22.1188 49.0182 0
436.333 0.944179 0
441.293 1.57097 0
497.984 52.4014 0
493.304 54.1634 0
315.335 41.7017 0
310.43 40.7317 0
253.84 32.8846 0
255.979 37.4036 0
490.804 9.37195 0
485.98 8.05616 0
246.511 15.6299 0
241.937 13.6104 0
139.659 55.9622 0
135.288 58.3896 0
20.7496 41.1591 0
25.1685 43.4985 0
72.1849 26.9384 0
68.1881 23.9342 0
259.755 51.5586 0
256.843 55.6236 0
382.114 58.9179 0
384.196 54.3718 0
165.226 53.1009 0
161.632 49.624 0
288.826 35.1733 0
291.284 39.5271 0
177.037 53.3473 0
172.043 53.5834 0
40.6505 18.6801 0
45.3679 17.0231 0
423.224 5.65222 0
423.952 0.705506 0
283.545 24.8419 0
284.638 29.721 0
206.042 49.1514 0
211.042 49.1846 0
24.8966 54.0082 0
22.4922 49.6243 0
336.182 29.2873 0
337.221 34.178 0
327.464 22.3572 0
325.757 17.6578 0
277.244 33.5064 0
281.103 30.3265 0
253.338 9.6917 0
249.673 13.0932 0
427.44 50.5712 0
431.984 52.6583 0
181.258 9.22827 0
185.623 6.79029 0
340.038 14.8342 0
344.501 17.0873 0
295.188 4.86304 0
300.04 3.65441 0
279.175 7.97545 0
274.203 7.44807 0
365.295 20.3105 0
363.012 24.759 0
458.24 47.7458 0
453.287 47.0653 0
439.244 26.5835 0
436.365 30.6718 0
365.274 12.8248 0
366.213 17.7358 0
450.051 17.2709 0
445.051 17.2714 0
29.6008 27.8437 0
26.5592 31.8121 0
465.222 59.9242 0
466.317 55.0456 0
174.288 32.1734 0
178.78 29.977 0
95.6738 48.8246 0
90.6863 49.1775 0
319.293 45.7153 0
316.495 41.5719 0
80.1694 26.9666 0
85.1635 27.2096 0
139.582 19.5945 0
136.773 15.4581 0
116.966 20.9298 0
121.963 20.7492 0
284.455 24.859 0
289.45 25.0693 0
381.071 34.1575 0
383.122 29.5977 0
302.744 12.0747 0
300.302 7.71163 0
229.07 53.0685 0
224.075 52.8507 0
150.711 26.3342 0
150.675 31.3341 0
423.474 24.175 0
422.192 19.342 0
167.775 3.79037 0
171.485 0.438595 0
216.904 9.15651 0
215.279 4.42763 0
226.871 29.7313 0
229.405 34.0416 0
106.367 58.2373 0
111.355 58.5828 0
179.853 49.8277 0
177.124 45.6384 0
315.654 7.06645 0
316.946 11.8965 0
140.486 20.0124 0
135.611 18.9006 0
327.951 29.1538 0
332.736 30.606 0
99.0327 52.6651 0
95.4172 49.2114 0
468.208 38.1318 0
464.039 40.8924 0
274.064 23.0104 0
275.226 27.8735 0
90.6153 11.9609 0
95.4618 13.1903 0
283.905 10.751 0
279.996 13.8696 0
413.736 8.86594 0
409.739 5.86111 0
420.896 14.2776 0
417.005 11.1372 0
446.409 27.9138 0
451.348 28.6913 0
28.6884 42.8833 0
31.7082 46.8683 0
458.575 34.4781 0
458.647 29.4786 0
393.344 41.463 0
398.303 42.1056 0
125.658 24.4273 0
121.239 26.7655 0
141.5 54.4186 0
136.539 55.042 0
48.1998 20.6466 0
43.5021 18.9344 0
232.592 3.94398 0
228.965 7.38572 0
200.811 10.5108 0
201.258 15.4907 0
426.149 9.72208 0
421.881 7.11683 0
78.8074 23.3137 0
74.0025 24.697 0
415.779 54.6073 0
419.465 51.2291 0
338.816 25.4948 0
342.603 22.2289 0
379.578 23.9772 0
383.689 26.8224 0
168.876 9.86922 0
167.205 5.15676 0
329.862 20.5983 0
334.851 20.2637 0
462.226 10.0463 0
465.983 6.74636 0
250.773 31.1956 0
245.779 31.4336 0
213.678 41.5176 0
210.49 45.3695 0
45.4523 31.0797 0
40.4813 31.6181 0
407.422 57.2776 0
403.472 54.212 0
382.911 41.9293 0
378.571 44.4136 0
4.92013 27.959 0
5.29613 22.9732 0
192.54 54.423 0
191.526 49.527 0
5.5428 29.2989 0
5.68718 34.2968 0
128.647 33.1913 0
124.689 36.2465 0
89.3278 19.3672 0
87.2555 23.9175 0
145.553 45.8077 0
149.792 48.4586 0
320.773 40.6726 0
316.942 37.4603 0
255.898 35.9883 0
253.795 40.5245 0
341.663 36.0239 0
346.533 37.1556 0
123.028 35.5013 0
118.12 36.4546 0
167.202 29.2141 0
172.146 29.9654 0
166.497 17.3352 0
161.995 15.1592 0
205.446 58.2537 0
200.464 57.8289 0
388.232 32.3533 0
386.262 27.7578 0
298.503 13.0373 0
293.567 12.2444 0
248.282 29.6896 0
248.343 34.6893 0
482.206 37.2816 0
480.869 32.4637 0
50.867 19.4668 0
50.3446 14.4942 0
135.088 39.2633 0
130.91 42.0095 0
21.0013 49.3432 0
21.9489 54.2526 0
139.855 35.0319 0
142.366 30.7081 0
384.073 48.8139 0
387.161 44.8815 0
91.5599 46.1125 0
86.8102 44.5503 0
181.795 24.1849 0
176.813 23.7674 0
153.264 40.1829 0
156.963 43.5464 0
455.881 11.0273 0
456.453 15.9945 0
191.584 49.7779 0
195.044 53.3877 0
112.414 18.477 0
116.77 20.9321 0
450.899 56.4068 0
449.346 51.6539 0
405.4 15.0003 0
406.394 10.1002 0
479.023 19.0683 0
476.345 14.8463 0
55.4953 29.8208 0
59.3948 32.9503 0
442.138 53.1847 0
447.138 53.2328 0
77.1816 9.42531 0
78.9637 14.0969 0
278.691 14.2715 0
275.401 10.5064 0
78.5891 3.23368 0
80.2998 7.93193 0
431.832 46.5386 0
426.847 46.1569 0
221.172 48.4756 0
217.783 44.8001 0
469.426 4.48813 0
471.93 8.81583 0
317.192 43.3493 0
321.798 41.4026 0
115.522 25.1036 0
111.525 22.0994 0
402.22 16.9734 0
406.985 18.4875 0
443.657 33.5849 0
447.441 30.3158 0
352.409 24.8941 0
352.062 19.9061 0
76.2824 4.21745 0
73.6644 8.47732 0
19.3692 17.8804 0
20.5987 22.7269 0
53.4629 15.7793 0
50.0995 12.0796 0
176.31 25.2501 0
171.731 27.2599 0
221.493 52.0691 0
217.256 49.4153 0
348.621 54.3138 0
352.665 57.2544 0
107.613 50.4443 0
107.494 55.4429 0
486.38 14.4541 0
488.366 9.86527 0
234.505 34.1594 0
230.167 36.6463 0
189.946 17.8036 0
184.972 18.3183 0
319.063 15.4925 0
316.45 19.7554 0
471.318 26.0176 0
475.693 23.5974 0
342.632 40.3133 0
338.181 38.0352 0
325.123 48.36 0
320.123 48.3327 0
260.424 24.4994 0
264.751 21.9945 0
485.13 47.9842 0
480.148 47.5591 0
225.786 11.307 0
229.979 8.58301 0
481.802 21.8947 0
486.774 22.417 0
187.597 52.3131 0
183.823 55.5932 0
333.06 8.95723 0
333.689 3.99695 0
172.367 20.6368 0
172.301 25.6363 0
208.564 7.86713 0
205.587 3.84971 0
97.4783 51.6932 0
93.9842 48.1168 0
269.03 37.0388 0
270.263 41.8843 0
268.302 57.6354 0
263.646 55.8113 0
76.8158 19.9858 0
71.8277 19.6408 0
299.552 0.0476173 0
303.415 3.22257 0
443.073 16.2317 0
438.304 14.7273 0
67.1345 41.0209 0
70.5711 37.3891 0
207.137 20.2346 0
202.189 19.5201 0
388.655 48.8547 0
393.436 50.3169 0
427.587 13.8132 0
425.855 9.12276 0
164.088 55.6062 0
166.935 59.7163 0
282.599 55.7001 0
280.573 51.1291 0
23.8374 7.53835 0
20.2667 11.0383 0
401.181 17.45 0
404.62 21.079 0
272.319 48.0326 0
271.015 52.8596 0
149.656 49.8407 0
145.739 52.9489 0
137.476 42.6706 0
142.054 40.6603 0
261.604 44.3639 0
257.916 47.74 0
157.597 43.0393 0
161.99 45.4275 0
459.367 27.8566 0
464.326 28.4957 0
17.7937 8.01207 0
17.3033 12.988 0
455.82 14.429 0
459.113 18.1909 0
2.60026 35.4835 0
7.19691 33.5161 0
25.5354 36.6248 0
28.7851 40.4247 0
60.8232 11.9397 0
56.0785 10.3624 0
102.33 50.735 0
98.6893 54.1626 0
363.343 51.353 0
368.264 52.241 0
399.907 8.72032 0
397.93 4.12758 0
333.994 18.0586 0
338.859 16.9037 0
416.898 10.806 0
411.951 10.0792 0
153.936 10.6313 0
151.934 6.04985 0
439.706 6.50731 0
442.529 10.6343 0
295.469 11.3898 0
300.319 12.6052 0
243.568 7.93034 0
246.376 12.0673 0
246.533 10.8795 0
241.885 12.7224 0
28.057 13.6146 0
27.0483 18.5118 0
336.026 51.8662 0
332.558 48.2649 0
234.69 19.164 0
238.633 16.0898 0
58.3888 32.8537 0
56.5502 37.5034 0
271.028 53.9112 0
269.288 58.5989 0
299.838 6.85132 0
301.423 2.10923 0
75.0092 53.6312 0
75.4099 48.6472 0
218.929 43.3057 0
223.25 45.8212 0
171.259 28.0347 0
171.146 23.036 0
476.828 8.26175 0
480.083 4.46645 0
221.334 13.6674 0
216.444 14.7109 0
284.561 6.4381 0
279.61 7.13305 0
20.7843 1.33023 0
15.851 0.516227 0
305.915 2.11109 0
310.796 3.19341 0
157.986 10.0141 0
156.852 5.14424 0
119.472 22.2945 0
119.965 27.2701 0
486.091 40.0348 0
483.727 35.6287 0
228.245 13.4317 0
223.932 10.9023 0
491.284 12.9861 0
494.107 17.1127 0
114.004 47.1675 0
118.729 48.8039 0
305.767 9.10264 0
300.768 9.0463 0
466.561 49.099 0
465.543 44.2037 0
153.539 16.3358 0
148.548 16.0478 0
149.948 13.2102 0
145.436 15.365 0
141.074 27.7681 0
136.101 28.2897 0
415.84 34.5424 0
418.548 30.339 0
254.445 0.168984 0
256.151 4.86893 0
253.843 40.4416 0
249.616 43.1118 0
400.903 46.3232 0
403.008 50.8585 0
39.1499 9.85761 0
34.71 12.1569 0
36.7968 23.7071 0
41.4347 21.8391 0
273.837 4.88233 0
277.237 8.54788 0
3.07746 51.0242 0
3.81854 55.969 0
211.296 31.3676 0
213.312 26.7924 0
394.289 49.48 0
390.694 52.956 0
386.093 7.87301 0
381.238 9.06902 0
212.968 51.8051 0
208.574 49.4187 0
205.943 41.4615 0
207.815 36.8252 0
12.7657 5.73389 0
14.2366 0.955149 0
165.071 2.58202 0
163.94 7.45241 0
91.9032 6.87996 0
95.278 3.19068 0
374.351 57.0141 0
371.018 53.2869 0
152.11 52.1744 0
149.678 56.5432 0
68.3292 18.3201 0
73.3023 17.8021 0
426.244 43.6712 0
430.169 46.769 0
397.615 50.56 0
392.615 50.5423 0
225.522 56.7156 0
223.859 52 0
104.912 8.82184 0
99.9812 9.64861 0
263.403 28.4917 0
266.194 24.3432 0
27.7513 39.972 0
22.795 39.3122 0
251.175 30.3294 0
247.215 33.3816 0
285.709 46.096 0
280.744 45.5046 0
362.84 23.1245 0
359.807 19.1499 0
376.84 10.7323 0
379.872 6.75627 0
45.9455 54.3736 0
48.7818 58.4913 0
209.646 4.93287 0
209.306 9.92132 0
474.005 35.7179 0
478.879 36.8368 0
459.528 56.2866 0
454.663 55.1329 0
159.182 19.6341 0
154.254 20.4787 0
180.538 15.2306 0
185.247 16.9113 0
172.297 22.2859 0
176.438 19.4851 0
135.024 39.5359 0
136.505 44.3117 0
15.5248 35.7898 0
14.4194 30.9135 0
304.13 8.93769 0
299.986 6.14006 0
384.186 24.4469 0
389.183 24.5965 0
464.264 2.45745 0
459.59 4.23186 0
331.3 31.3144 0
334.127 27.1899 0
35.8455 37.5935 0
31.17 35.8215 0
184.287 31.3377 0
179.292 31.5474 0
463.747 55.2945 0
466.01 50.8361 0
394.73 8.03157 0
399.72 7.72326 0
477.744 41.8536 0
482.467 40.2136 0
351.787 16.8967 0
353.105 12.0736 0
269.284 48.6289 0
273.945 46.8177 0
465.815 54.5567 0
465.398 59.5393 0
168.405 28.7896 0
172.561 26.0098 0
23.4597 32.9616 0
21.674 28.2913 0
315.194 16.2506 0
311.454 12.9325 0
331.45 20.04 0
336.158 21.7249 0
281.758 50.3624 0
283.651 54.9899 0
68.0406 14.5199 0
69.5181 19.2965 0
160.271 53.4548 0
164.464 50.7316 0
88.0783 11.4136 0
88.3248 6.41967 0
82.6948 59.5643 0
83.1409 54.5843 0
21.0416 43.9673 0
23.0067 48.5649 0
317.781 53.3391 0
319.75 57.9349 0
40.6003 17.7218 0
45.4088 16.3514 0
283.747 13.2149 0
280.85 17.2907 0
268.364 22.337 0
270.686 17.9089 0
125.82 31.0701 0
127.817 26.4864 0
59.5804 19.0184 0
60.639 14.1318 0
292.467 54.6158 0
294.073 49.8806 0
315.112 7.96369 0
312.836 3.5117 0
90.5254 51.3553 0
90.5637 56.3551 0
454.923 36.4155 0
459.306 34.0099 0
160.745 4.97028 0
162.533 0.301137 0
339.891 13.4828 0
336.338 17.0006 0
26.1304 41.1607 0
29.7947 37.7588 0
183.957 55.3762 0
178.963 55.1286 0
312.853 9.79587 0
307.859 9.53849 0
28.8388 13.7576 0
25.1218 17.1018 0
401.751 4.2262 0
406.51 5.75839 0
190.866 10.8472 0
188.46 15.2299 0
307.357 18.3778 0
311.736 15.9651 0
137.667 14.6323 0
137.488 9.63553 0
40.0318 11.6833 0
41.2375 6.83087 0
108.871 35.6312 0
112.125 39.4275 0
227.783 45.4785 0
232.746 46.0874 0
121.049 17.7781 0
116.954 20.6475 0
289.039 39.6432 0
284.521 37.5005 0
194.29 11.6921 0
189.465 10.3826 0
50.2156 24.8025 0
52.1943 20.2107 0
215.849 42.4138 0
220.835 42.0283 0
421.575 38.8592 0
419.49 34.3149 0
449.862 25.543 0
453.678 28.7733 0
199.994 51.8582 0
196.477 55.4124 0
65.2073 35.901 0
69.2559 38.8351 0
287.5 24.6559 0
282.714 23.2067 0
155.727 53.8167 0
160.083 51.3622 0
402.099 54.1331 0
404.717 49.8734 0
495.061 27.8338 0
499.111 30.7665 0
238.794 28.8549 0
236.328 24.5055 0
126.068 34.7784 0
126.544 39.7557 0
440.954 9.57902 0
445.949 9.79796 0
61.6615 55.6341 0
66.0173 58.0892 0
59.7064 34.7942 0
55.7826 37.8932 0
452.28 37.5162 0
450.58 32.814 0
84.9586 0.0435674 0
87.7693 4.17877 0
429.776 23.2102 0
426.157 26.6604 0
220.928 1.31092 0
225.326 3.68983 0
304.574 39.5671 0
307.886 43.3127 0
429.641 5.09121 0
428.772 0.167314 0
339.166 45.4272 0
342.841 48.8178 0
334.163 28.3328 0
335.098 23.421 0
148.367 19.4098 0
143.39 18.9354 0
343.933 26.8324 0
341.527 31.2158 0
378.37 11.1173 0
377.212 6.25329 0
22.6553 23.9428 0
25.3467 28.1566 0
249.121 17.8258 0
247.005 22.3559 0
450.805 28.5424 0
455.739 27.7302 0
180.52 37.3823 0
184.858 39.8692 0
136.261 9.82735 0
131.382 10.921 0
64.9068 41.1502 0
63.8232 36.2691 0
486.489 49.4037 0
491.474 49.7827 0
69.2153 38.9095 0
69.2146 33.9095 0
66.6023 35.205 0
69.3757 39.3654 0
320.926 31.3309 0
321.699 26.3911 0
449.181 17.7884 0
451.098 13.1706 0
185.292 32.5019 0
181.291 35.5009 0
387.822 30.6091 0
384.948 26.5176 0
251.09 18.0423 0
246.488 16.0864 0
14.601 29.9604 0
17.1242 34.277 0
24.9006 58.5288 0
29.6933 59.9535 0
153.893 27.7979 0
155.942 32.3584 0
178.172 58.085 0
178.265 53.0859 0
128.44 8.39643 0
128.134 13.3871 0
73.9012 0.902226 0
69.195 2.59083 0
228.142 17.6265 0
224.585 14.1126 0
330.477 7.1308 0
325.856 5.22239 0
160.141 52.1526 0
165.095 52.827 0
488.601 35.904 0
488.191 30.9209 0
133.439 28.1837 0
130.923 32.5042 0
21.4142 51.0128 0
23.0451 55.7394 0
379.256 13.3137 0
375.796 9.70334 0
85.0527 25.1562 0
87.007 20.5539 0
85.193 50.4785 0
84.9755 55.4737 0
157.538 6.90704 0
152.765 8.39736 0
352.236 16.9179 0
356.94 18.6142 0
469.407 43.866 0
474.28 44.9889 0
73.6134 5.54864 0
75.9019 9.99415 0
485.435 5.59785 0
482.177 1.80547 0
453.597 10.8467 0
448.618 11.3128 0
63.1353 16.1671 0
68.0932 15.5196 0
377.74 15.9276 0
381.459 12.5851 0
104.606 13.8938 0
99.9868 11.9808 0
49.582 29.8945 0
47.5246 34.4515 0
194.223 56.6005 0
192.589 51.875 0
317.323 42.2647 0
321.108 45.5314 0
102.978 46.5082 0
103.241 51.5013 0
94.3205 58.1083 0
95.7542 53.3182 0
26.1295 5.00059 0
23.4531 0.777249 0
212.867 23.3797 0
217.657 24.8125 0
1.64229 5.83266 0
5.6888 2.8957 0
225.732 12.7883 0
223.796 17.3982 0
310.722 20.1393 0
314.412 16.7663 0
372.71 44.7034 0
367.985 46.3385 0
482.87 22.4345 0
487.869 22.5343 0
163.915 34.3398 0
168.787 33.2183 0
495.449 44.785 0
497.072 49.5143 0
113.784 1.48332 0
115.441 6.20073 0
75.7864 19.7291 0
70.9054 18.6448 0
330.402 25.2278 0
335.402 25.2282 0
77.1271 54.7631 0
80.8527 58.0977 0
479.973 48.1283 0
484.914 47.3643 0
286.449 43.6539 0
286.927 48.631 0
272.709 37.7812 0
277.649 37.0078 0
110.454 43.272 0
112.841 38.8786 0
331.348 16.3706 0
335.347 19.3727 0
229.592 33.7407 0
234.121 35.859 0
143.541 50.0671 0
148.496 49.4026 0
30.4033 30.5983 0
28.7915 25.8652 0
84.9652 33.9807 0
89.5285 36.0243 0
251.392 6.10219 0
250.316 10.985 0
13.8718 25.1674 0
9.02256 26.386 0
436.358 38.9452 0
440.284 42.0416 0
457.001 25.6837 0
454.107 29.7612 0
450.596 54.4669 0
448.835 49.7874 0
132.129 49.7299 0
127.741 47.3313 0
251.049 16.3604 0
253.013 11.7621 0
488.271 7.98203 0
492.009 4.66166 0
474.091 46.3431 0
478.863 47.8342 0
20.7536 32.8086 0
18.9478 28.1461 0
143.338 9.24169 0
144.908 13.9887 0
458.089 56.1044 0
453.223 57.2528 0
17.0458 39.4431 0
15.8 44.2854 0
169.238 15.2907 0
174.222 15.689 0
248.768 33.0957 0
244.44 35.5991 0
110.552 35.68 0
110.146 30.6965 0
404.315 47.4512 0
404.287 42.4513 0
485.893 37.7732 0
485.813 42.7725 0
215.711 13.0495 0
211.196 10.8998 0
479.473 26.9696 0
477.267 31.4563 0
214.794 3.70247 0
213.776 8.59772 0
19.4403 16.3184 0
16.5837 12.2147 0
487.814 46.9436 0
489.077 51.7814 0
306.49 12.1967 0
301.685 13.5804 0
89.5615 27.2688 0
84.6568 28.2406 0
462.994 2.80206 0
463.912 7.71714 0
475.282 50.2075 0
476.289 55.105 0
380.628 16.9019 0
379.04 21.643 0
39.6675 54.9852 0
34.923 56.5631 0
41.6693 44.5036 0
37.3056 42.0626 0
74.524 51.9192 0
70.9675 48.4047 0
478.308 34.1529 0
477.382 29.2394 0
145.343 47.5053 0
144.486 42.5793 0
276.966 37.8871 0
278.015 42.7757 0
101.522 7.53827 0
102.819 2.70961 0
87.4079 31.1951 0
83.0081 28.8198 0
387.465 39.6848 0
384.099 43.3819 0
324.228 24.6408 0
326.551 29.0681 0
28.0971 28.5184 0
23.7029 26.1328 0
178.926 6.27456 0
183.815 7.32062 0
368.693 30.5509 0
373.599 31.5144 0
390.138 40.7372 0
387.267 36.6437 0
366.394 21.7437 0
361.418 22.2347 0
336.133 31.0671 0
340.565 28.7513 0
161.216 17.5263 0
166.203 17.8807 0
34.8132 24.2905 0
37.0055 28.7842 0
284.096 19.8703 0
284.546 14.8906 0
261.21 26.0109 0
265.007 29.2643 0
259.172 13.9058 0
255.68 17.4845 0
360.088 14.8199 0
359.87 19.8151 0
79.5506 1.19552 0
74.6118 1.9754 0
393.847 15.385 0
395.621 20.0598 0
490.43 55.3163 0
485.645 53.8628 0
160.231 20.865 0
164.985 22.4132 0
311.34 36.588 0
310.222 31.7146 0
216.372 57.4787 0
217.749 52.6718 0
127.316 33.0032 0
129.66 28.5867 0
82.6694 31.5549 0
81.0171 26.8358 0
167.841 42.6249 0
165.541 38.1856 0
475.616 30.9708 0
477.742 26.4453 0
362.595 29.6553 0
366.307 26.3053 0
374.877 22.2763 0
376.695 17.6186 0
306.942 52.9633 0
302.298 51.1109 0
321.429 17.8274 0
317.287 15.0263 0
12.4145 47.7546 0
9.15383 51.5451 0
277.099 26.2396 0
273.911 22.3875 0
262.877 55.8715 0
258.394 53.6564 0
374.907 17.7399 0
379.158 15.1076 0
260.267 43.5386 0
261.116 48.4661 0
252.456 27.8394 0
247.788 26.0497 0
439.136 40.4251 0
444.107 40.9641 0
424.703 38.9711 0
422.4 34.5328 0
423.786 36.5984 0
426.346 40.8936 0
480.179 47.3721 0
484.112 44.2849 0
428.864 11.8974 0
425.161 8.53765 0
464.547 50.5639 0
462.931 55.2956 0
398.091 50.2603 0
397.812 55.2524 0
109.192 50.0406 0
113.829 48.1717 0
135.75 41.5599 0
132.51 37.7518 0
351.717 31.3615 0
347.42 28.8041 0
233.75 7.92046 0
230.374 11.6091 0
462.461 13.5362 0
465.257 9.39132 0
342.677 44.681 0
337.705 45.2061 0
333.131 8.09235 0
337.443 5.56195 0
130.559 31.8279 0
127.12 28.1981 0
478.457 42.0275 0
475.229 38.2088 0
451.771 40.7679 0
447.041 39.1462 0
127.688 12.4921 0
123.175 10.3395 0
381.263 23.9233 0
381.785 28.896 0
32.1178 52.4094 0
27.9847 55.2232 0
173.842 14.5662 0
176.988 10.68 0
457.764 52.7321 0
455.341 48.3586 0
348.16 54.8336 0
351.331 50.9676 0
341.264 2.03857 0
344.506 5.84465 0
25.8523 42.3616 0
21.064 43.8011 0
54.0282 17.2205 0
50.1839 20.4176 0
485.915 16.1105 0
481.104 14.7485 0
337.45 45.1296 0
337.47 50.1295 0
288.108 48.4514 0
286.742 53.2612 0
419.791 52.2628 0
416.123 48.8641 0
342.21 3.92534 0
342.701 8.90112 0
115.332 42.5895 0
117.451 38.061 0
368.573 43.0624 0
368.508 38.0628 0
255.137 16.2261 0
250.403 14.6176 0
60.8457 22.8206 0
58.4441 18.4352 0
471.465 54.5011 0
473.697 50.0267 0
468.987 55.0303 0
464.229 53.4925 0
3.18107 22.2227 0
8.03452 23.4244 0
199.438 46.2602 0
204.352 45.3359 0
214.578 39.2652 0
217.822 43.0707 0
0.188463 53.5586 0
2.98877 49.4164 0
55.7231 32.9866 0
60.6624 33.7635 0
151.577 39.6913 0
146.58 39.5189 0
11.4283 27.6772 0
6.82855 29.6372 0
455.178 10.9185 0
460.121 10.1624 0
317.879 44.749 0
321.455 48.2435 0
216.608 19.9465 0
213.795 15.8127 0
82.3916 46.9756 0
77.4009 46.6705 0
481.136 30.1366 0
483.355 34.6172 0
192.081 40.7681 0
197.063 41.1995 0
289.838 21.1323 0
291.085 16.2905 0
6.12187 4.89358 0
1.44112 3.13557 0
196.796 52.3654 0
201.705 51.4119 0
61.3216 53.6886 0
59.136 49.1917 0
230.163 31.4161 0
232.714 35.7161 0
74.4517 54.7779 0
79.096 56.63 0
277.184 42.4299 0
281.181 45.4342 0
352.788 48.5967 0
350.613 53.0989 0
106.726 50.3687 0
111.213 48.162 0
130.116 34.8739 0
125.77 32.4018 0
284.565 47.4761 0
279.617 46.7533 0
67.7374 28.4638 0
64.0374 31.8269 0
5.5505 31.7603 0
4.04145 36.5271 0
390.166 17.7495 0
394.994 16.4497 0
373.415 35.5949 0
377.742 33.0899 0
306.201 52.171 0
306.254 57.1707 0
85.9382 12.441 0
80.9391 12.3482 0
144.445 13.054 0
142.734 17.7522 0
207.079 43.4715 0
208.655 38.7264 0
67.397 3.48186 0
62.8224 5.50021 0
116.333 28.6202 0
115.134 23.7661 0
226.1 12.3381 0
230.515 14.6842 0
461.746 31.1725 0
459.022 35.3655 0
435.072 21.163 0
430.163 22.1136 0
427.128 32.9799 0
424.071 36.9368 0
371.023 28.0373 0
367.33 31.4087 0
492.835 51.037 0
496.937 53.896 0
331.7 25.219 0
331.965 30.212 0
448.47 3.64139 0
453.265 2.2242 0
177.791 43.167 0
179.914 47.6937 0
200.563 46.7172 0
204.465 43.591 0
216.64 27.5152 0
211.726 28.4414 0
379.464 31.3766 0
374.561 32.3577 0
414.301 49.0184 0
410.784 45.4638 0
56.1967 14.4372 0
56.5973 9.45324 0
217.118 26.3821 0
212.185 25.5669 0
11.7311 32.9491 0
11.7047 27.9492 0
442.575 45.2114 0
447.53 45.8785 0
69.1605 9.2692 0
74.1605 9.25172 0
242.872 26.6146 0
243.607 21.669 0
150.595 28.3058 0
155.123 26.1856 0
184.282 14.6718 0
183.157 19.5436 0
340.502 1.75083 0
337.906 6.02428 0
47.5705 37.2427 0
44.2057 33.5444 0
364.894 42.4118 0
364.84 47.4115 0
460.971 59.331 0
463.459 54.9944 0
342.409 26.0898 0
340.495 21.4704 0
203.025 43.1172 0
199.766 46.9097 0
85.0612 26.9991 0
89.8192 28.5358 0
31.5448 51.605 0
28.301 55.41 0
63.0378 3.99566 0
66.3438 7.74678 0
104.743 21.1538 0
109.288 23.2366 0
77.1558 48.7566 0
82.1195 48.1558 0
458.361 54.5497 0
459.489 49.6786 0
3.80786 51.069 0
8.78676 51.5279 0
56.2571 46.0422 0
61.1429 47.1047 0
221.524 31.6828 0
225.053 35.2255 0
69.7869 9.06427 0
74.2391 6.78885 0
449.652 21.4043 0
452.942 25.1692 0
323.779 47.5085 0
318.779 47.4995 0
293.81 38.6641 0
289.357 40.9381 0
246.515 15.9407 0
251.502 15.588 0
488.838 53.0339 0
487.968 57.9577 0
477.764 4.68325 0
480.38 8.94438 0
12.1774 56.1028 0
14.8191 51.8577 0
7.83715 6.39588 0
12.7913 7.0716 0
315.591 23.5529 0
319.703 20.708 0
122.579 54.492 0
127.438 55.6713 0
455.809 48.2614 0
453.566 52.7303 0
238.073 43.8021 0
234.733 40.081 0
185.819 56.9279 0
181.431 54.531 0
473.521 24.7392 0
476.991 28.3395 0
152.265 30.7464 0
157.244 30.2907 0
192.446 10.3815 0
195.608 14.2544 0
192.264 56.1945 0
187.302 55.581 0
50.2252 9.59952 0
55.2251 9.56367 0
195.013 5.43786 0
195.793 0.499068 0
248.304 8.28709 0
253.038 9.89653 0
151.307 26.409 0
147.217 23.5325 0
238.472 12.568 0
242.51 15.5176 0
211.662 19.5519 0
212.695 14.6598 0
401.455 18.2485 0
401.849 13.2641 0
415.334 5.41285 0
411.656 2.02666 0
374.763 55.6992 0
369.844 54.8053 0
211.333 7.91073 0
207.545 4.64795 0
222.916 23.4369 0
224.42 28.2052 0
1.29923 56.5614 0
5.92605 54.666 0
340.463 43.3063 0
345.144 41.5477 0
209.708 34.31 0
214.213 32.1394 0
18.6223 19.7125 0
23.5056 20.7865 0
434.645 0.341525 0
439.221 2.35746 0
375.977 53.8029 0
379.559 50.3137 0
117.207 24.4475 0
112.333 23.336 0
226.466 34.3514 0
230.171 30.9934 0
151.119 30.4256 0
149.106 25.8484 0
491.573 28.8808 0
494.855 25.1089 0
105.824 48.5768 0
110.502 46.8117 0
360.478 5.99569 0
359.675 1.06047 0
18.1566 20.6794 0
13.6996 18.4133 0
145.356 54.0355 0
148.335 58.0514 0
414.339 44.6032 0
413.363 39.6996 0
115.598 51.2435 0
115.887 46.2519 0
40.4608 38.1339 0
45.4511 37.8217 0
47.4739 23.2928 0
43.0102 25.5457 0
79.8854 53.9437 0
75.8008 51.06 0
491.66 42.1277 0
494.407 46.3052 0
332.679 54.4526 0
328.135 56.5388 0
17.0353 9.67786 0
21.7994 8.16009 0
494.153 33.301 0
497.87 36.6459 0
224.892 22.5385 0
229.348 20.2699 0
328.923 8.32864 0
332.567 4.90602 0
343.843 17.9448 0
339.683 20.7184 0
272.478 25.9508 0
268.955 29.4992 0
2.4447 55.0612 0
6.46438 58.0348 0
184.465 30.0445 0
185.563 25.1666 0
13.849 20.4708 0
9.68046 23.2318 0
322.193 34.4819 0
322.699 39.4562 0
416.155 37.2635 0
419.024 41.3588 0
472.541 8.54138 0
472.632 13.5406 0
162.443 7.37996 0
157.791 9.21488 0
460.142 53.132 0
458.893 48.2904 0
350.872 5.14395 0
346.355 3.00012 0
244.583 15.4553 0
241.525 19.4111 0
314.2 33.9582 0
318.349 36.7493 0
446.542 14.3995 0
441.996 12.3161 0
23.3484 24.3909 0
27.5276 21.646 0
253.019 11.1376 0
248.572 13.423 0
62.2266 11.8492 0
57.622 9.90022 0
283.492 51.1887 0
284.5 46.2914 0
257.583 58.4104 0
253.962 54.9627 0
387.413 28.3845 0
391.031 24.934 0
451.638 8.76267 0
450.55 3.88238 0
353.177 29.7678 0
348.278 30.7702 0
338.267 14.2193 0
337.639 9.25885 0
450.29 50.1518 0
454.443 52.9363 0
459.084 21.9435 0
464.076 21.6598 0
470.183 20.8435 0
469.336 15.9158 0
239.339 39.65 0
242.69 35.9386 0
59.0733 24.6105 0
61.2068 29.1324 0
325.878 32.1066 0
324.575 36.9338 0
462.985 53.9052 0
460.428 58.2022 0
366.734 15.8537 0
368.019 20.6857 0
109.708 53.7375 0
113.225 57.2917 0
55.2673 49.6744 0
55.3702 44.6754 0
253.209 31.8481 0
257.783 33.8665 0
305.655 19.977 0
310.127 22.2139 0
70.0632 4.58062 0
70.5379 9.55803 0
160.935 26.3358 0
164.483 22.8135 0
365.75 50.6922 0
362.595 46.8126 0
346.008 3.58894 0
343.304 7.79478 0
355.206 26.6613 0
358.92 30.0084 0
182.728 24.1277 0
186.02 20.3647 0
406.568 11.2818 0
401.812 12.8232 0
286.806 31.7219 0
282.632 34.4751 0
233.439 35.0687 0
229.747 31.6969 0
216.26 18.1127 0
215.623 23.0719 0
317.61 42.1336 0
314.331 38.3591 0
136.296 30.0169 0
137.594 25.1882 0
221.062 48.1795 0
225.848 49.6267 0
380.765 20.0495 0
381.227 15.0709 0
73.5853 35.5003 0
77.8477 32.8864 0
7.12524 22.7063 0
5.53189 27.4456 0
159.199 10.7639 0
161.961 6.59619 0
252.901 31.8937 0
247.964 31.1032 0
251.483 44.3476 0
256.282 45.7506 0
284.848 50.315 0
287.747 46.2414 0
273.403 20.4504 0
278.024 22.3591 0
283.709 15.1093 0
281.015 10.8971 0
162.374 16.7877 0
167.327 16.1043 0
13.5429 23.4068 0
10.8892 27.6444 0
105.337 42.3215 0
109.018 38.9376 0
67.8248 55.4637 0
67.4939 50.4747 0
79.6506 26.3895 0
76.266 30.0698 0
467.018 46.3109 0
470.886 49.4785 0
96.4815 48.3949 0
96.7849 53.3857 0
229.234 30.989 0
225.713 27.439 0
215.861 11.5453 0
220.577 13.2077 0
193.069 39.4994 0
188.965 42.3567 0
413.797 22.1228 0
409.281 24.2682 0
307.953 17.0241 0
312.519 19.0626 0
469.297 26.7685 0
470.063 31.7095 0
100.849 46.3555 0
105.68 45.0679 0
109.976 51.2957 0
108.089 55.9259 0
361.05 11.3243 0
360.312 6.37901 0
372.321 33.8072 0
375.025 29.6016 0
120.183 7.06553 0
124.919 8.66708 0
311.889 36.573 0
316.581 38.3017 0
456.233 46.4887 0
452.788 42.865 0
118.867 47.5285 0
116.196 51.7551 0
138.204 22.7073 0
142.269 19.7951 0
66.9139 29.9533 0
70.7823 33.1212 0
360.503 28.1062 0
365.232 29.7322 0
240.304 51.9146 0
245.155 53.1238 0
155.784 54.1191 0
154.49 49.2896 0
114.635 46.1643 0
119.469 44.8858 0
270.687 15.7955 0
275.589 16.779 0
229.454 7.03008 0
227.126 2.60494 0
99.4022 50.2163 0
101.02 45.4852 0
121.251 59.6473 0
117.647 56.1821 0
255.493 13.3065 0
256.478 8.40449 0
349.846 24.2829 0
348.985 29.2081 0
230.265 4.27386 0
227.35 0.21166 0
437.231 41.2836 0
440.303 45.2285 0
216.627 52.3218 0
211.627 52.3186 0
370.763 26.1851 0
369.824 21.2741 0
243.61 45.6661 0
247.943 48.1617 0
470.618 7.38111 0
465.621 7.23296 0
163.374 28.546 0
160.123 24.7469 0
125.738 27.7197 0
125.077 22.7636 0
116.563 42.9347 0
112.258 45.4783 0
160.563 24.1163 0
163.632 20.169 0
350.643 43.837 0
355.404 45.3629 0
151.733 27.9617 0
154.381 23.7205 0
288.128 6.65774 0
284.079 9.59075 0
209.571 1.45704 0
211.22 6.17744 0
124.406 5.39058 0
129.068 7.19829 0
476.154 13.2531 0
473.32 9.13352 0
77.4665 27.3672 0
75.028 31.7323 0
371.248 7.1945 0
366.253 6.96607 0
300.315 48.1397 0
295.363 48.8297 0
156.837 29.5745 0
159.065 25.0982 0
273.769 11.061 0
270.295 14.6564 0
188.017 38.8758 0
189.816 34.2107 0
122.741 14.3484 0
126.63 11.2052 0
160.342 40.929 0
165.342 40.9308 0
475.92 44.3825 0
473.179 40.2004 0
301.019 52.6705 0
297.936 56.6069 0
43.7557 41.5569 0
43.3516 36.5732 0
83.563 37.8497 0
81.9902 42.5959 0
391.003 52.1842 0
390.1 47.2663 0
54.2441 35.9199 0
56.5551 31.4861 0
170.566 11.0489 0
166.569 14.052 0
316.168 25.386 0
311.168 25.3918 0
254.473 23.6618 0
251.99 19.3221 0
406.296 52.388 0
406.985 47.4357 0
480.621 16.0301 0
477.519 19.9519 0
457.212 28.0347 0
455.563 23.3144 0
494.303 40.2734 0
492.984 35.4503 0
247.457 37.4074 0
248.61 42.2729 0
483.929 30.2701 0
487.62 33.6434 0
144.604 26.6479 0
149.123 28.7873 0
92.626 42.8528 0
92.5901 47.8527 0
376.001 3.0236 0
380.834 1.73967 0
46.5523 30.4876 0
51.3323 31.9546 0
420.056 13.1497 0
418.319 17.8384 0
280.925 39.5874 0
284.121 35.7417 0
126.427 58.0274 0
131.387 57.3919 0
60.3296 6.36737 0
62.1836 11.0109 0
118.051 29.3239 0
113.795 26.6993 0
319.084 14.1787 0
319.128 9.17889 0
166.381 55.2619 0
164.961 50.4679 0
218.667 29.037 0
221.346 33.2584 0
446.873 47.8068 0
446.761 52.8055 0
366.223 10.211 0
367.443 5.36236 0
448.826 39.8222 0
453.743 38.9155 0
233.513 39.2103 0
230.228 35.4407 0
78.9283 50.7524 0
78.3994 45.7804 0
56.3624 25.0829 0
61.1426 23.6167 0
91.1572 45.77 0
92.8854 50.4618 0
59.6912 9.65923 0
61.5704 14.2926 0
223.025 13.7422 0
218.047 13.2773 0
142.521 23.7123 0
142.524 18.7123 0
316.366 59.4883 0
319.354 55.4794 0
332.9 32.0523 0
334.848 27.4476 0
489.739 25.6443 0
485.823 22.5354 0
121.627 5.96986 0
119.745 10.6023 0
223.861 47.5966 0
227.943 44.7097 0
287.359 30.2354 0
283.936 26.5908 0
176.864 9.05689 0
181.855 8.74338 0
119.027 56.41 0
122.615 59.8922 0
37.5362 47.4425 0
41.8271 44.8758 0
149.536 44.9305 0
152.867 41.2009 0
428.612 33.5095 0
432.315 30.15 0
293.954 17.0846 0
293.211 22.0291 0
396.72 7.96781 0
401.667 8.68931 0
464.979 54.2625 0
469.957 54.7343 0
92.8591 48.1426 0
91.7364 53.0149 0
229.216 16.9568 0
233.923 18.641 0
46.9997 48.7311 0
42.041 49.3727 0
126.854 25.4002 0
122.037 24.0597 0
144.865 36.3737 0
147.764 32.2999 0
271.081 38.0232 0
274.073 42.0291 0
55.4438 46.5062 0
52.3894 50.4648 0
22.1083 30.686 0
17.1616 29.9579 0
223.383 54.1607 0
221.288 58.7006 0
413.691 48.5494 0
413.776 53.5487 0
339.732 6.30566 0
344.37 8.17449 0
445.472 31.8313 0
448.058 27.5521 0
5.95204 10.3093 0
3.99902 14.9121 0
366.295 47.2366 0
368.525 51.7116 0
344.599 27.8517 0
343.057 23.0954 0
450.705 23.2552 0
445.744 23.8708 0
295.184 40.0631 0
291.262 36.9616 0
287.292 16.7253 0
291.649 19.1769 0
306.519 49.2617 0
310.841 51.7761 0
254.043 52.1786 0
250.107 49.0955 0
10.0912 47.838 0
8.28395 43.176 0
466.434 8.40419 0
461.434 8.4759 0
56.6689 20.2683 0
55.2958 25.0761 0
133.788 11.0598 0
138.151 13.5019 0
269.627 43.7156 0
264.829 45.1214 0
281.618 45.5145 0
286.599 45.9467 0
179.627 55.6785 0
183.4 58.9595 0
355.904 9.2005 0
351.008 8.18673 0
317.51 55.1114 0
321.565 52.1865 0
249.804 45.1923 0
248.952 40.2654 0
427.477 34.0927 0
424.77 38.2964 0
319.019 48.9335 0
320.858 53.5827 0
438.952 30.8557 0
443.299 28.3856 0
197.268 10.1762 0
193.239 7.21463 0
16.0476 11.553 0
13.1275 15.6117 0
157.48 52.9404 0
162.189 54.6202 0
203.834 18.4034 0
204.8 13.4977 0
211.822 16.9802 0
207.788 19.9351 0
352.44 21.2843 0
347.502 22.0651 0
477.466 11.6914 0
474.351 15.6023 0
329.894 36.7856 0
334.096 39.4952 0
198.894 49.741 0
198.77 44.7426 0
451.078 27.8043 0
446.138 28.578 0
66.4637 33.9449 0
62.6062 37.126 0
175.645 38.1355 0
180.307 36.3302 0
286.893 15.0988 0
282.783 17.9466 0
167.97 13.2889 0
167.911 8.28926 0
184.045 19.8142 0
179.135 18.8706 0
264.386 49.2058 0
263.466 44.2913 0
184.459 17.6326 0
188.497 20.58 0
222.213 15.0015 0
217.239 15.511 0
182.737 4.62465 0
185.694 0.592744 0
479.855 36.3877 0
484.401 38.4708 0
484.049 35.7341 0
479.058 36.0284 0
48.7349 12.2972 0
43.865 11.1641 0
380.951 14.2543 0
378.52 9.88519 0
179.913 30.9448 0
175.57 33.4229 0
444.848 19.4932 0
447.818 23.5161 0
212.478 57.7073 0
217.386 58.6604 0
426.502 34.159 0
421.906 32.1909 0
208.475 50.4011 0
206.046 54.771 0
105.819 21.4813 0
109.643 18.2602 0
147.162 49.045 0
144.091 45.099 0
284.775 26.968 0
287.986 30.8004 0
307.053 52.324 0
304.088 48.2977 0
409.453 14.6326 0
413.856 12.2632 0
378.904 22.4514 0
374.678 19.7783 0
350.408 46.4347 0
355.39 46.8569 0
479.779 26.1444 0
476.203 22.65 0
21.6002 51.4524 0
17.2575 48.9743 0
155.234 58.4603 0
155.959 53.5131 0
444.478 44.4287 0
440.036 46.7238 0
449.499 48.4589 0
447.503 53.0432 0
232.255 35.7954 0
230.178 31.247 0
302.182 13.5314 0
299.043 9.63896 0
479.928 55.0694 0
477.34 50.7913 0
380.733 25.8435 0
384.45 29.1879 0
339.247 47.7728 0
339.173 52.7723 0
285.169 3.07873 0
285.694 8.05112 0
415.278 23.8375 0
413.328 28.4414 0
427.083 25.9523 0
426.199 30.8736 0
1.0416 7.61681 0
6.03388 7.89464 0
491.156 11.1778 0
488.456 6.96976 0
19.7056 6.13517 0
24.3881 4.38204 0
153.633 19.4211 0
157.33 16.0539 0
252.075 11.261 0
251.072 16.1593 0
207.692 6.8089 0
211.087 10.4794 0
314.341 20.6486 0
318.882 18.5563 0
460.493 15.5859 0
456.149 13.1097 0
86.7751 39.8749 0
83.7403 35.9013 0
58.5923 39.2031 0
56.8401 43.8861 0
176.886 28.4725 0
172.291 26.5017 0
104.777 48.1982 0
100.329 45.9132 0
76.0565 44.5327 0
78.6806 40.2767 0
40.9063 32.4601 0
45.1559 29.8255 0
221.229 16.6898 0
225.089 19.8681 0
151.411 55.6845 0
146.951 53.4231 0
438.609 41.8189 0
441.45 45.9332 0
480.54 23.1001 0
485.412 21.978 0
406.161 46.9876 0
408.787 51.2426 0
163.515 26.1888 0
168.479 26.7859 0
130.118 10.7058 0
129.317 15.6411 0
154.26 24.9851 0
151.165 21.058 0
234.95 15.1679 0
235.423 10.1903 0
31.2205 18.8611 0
33.6301 23.2422 0
373.683 17.783 0
377.748 14.8717 0
234.638 42.9823 0
229.767 44.1083 0
453.212 40.4076 0
450.831 36.0105 0
78.6767 6.78633 0
83.5809 7.7604 0
131.547 35.4156 0
126.753 33.9936 0
417.555 12.2348 0
418.01 17.214 0
36.0934 18.4029 0
38.7166 14.1463 0
283.698 2.8427 0
278.834 3.9993 0
393.454 46.1837 0
398.416 45.5729 0
33.2697 42.1632 0
38.1849 43.0804 0
322.841 10.863 0
320.422 6.48682 0
381.57 55.4503 0
380.965 50.487 0
129.494 37.7301 0
133.62 40.555 0
426.652 16.5811 0
430.866 19.2713 0
344.175 3.97584 0
339.265 4.92365 0
290.684 26.2939 0
286.663 23.3214 0
132.36 47.1401 0
135.975 43.6856 0
172.718 52.8458 0
177.544 51.5372 0
338.551 5.87945 0
338.811 0.886199 0
115.508 12.1814 0
119.854 9.70958 0
256.429 41.1075 0
257.278 46.0349 0
306.859 2.07121 0
301.86 2.14133 0
224.111 42.9296 0
219.216 41.9146 0
328.863 15.4703 0
324.368 17.6585 0
59.3283 36.4733 0
61.8469 32.154 0
489.213 26.5984 0
492.737 30.1454 0
26.4202 25.578 0
26.5653 20.5801 0
45.2358 7.61057 0
44.3573 12.5328 0
344.149 43.6438 0
342.153 48.2279 0
36.0178 37.3355 0
39.8266 34.0962 0
100.68 3.17053 0
95.771 4.12215 0
340.16 8.33431 0
342.042 12.9664 0
380.898 19.0949 0
382.52 14.3653 0
325.211 39.2988 0
321.133 42.1918 0
459.079 6.8844 0
461.63 2.58418 0
300.829 5.34384 0
296.623 8.04756 0
115.532 34.5521 0
111.257 31.9592 0
1.99086 28.834 0
6.65809 30.6276 0
7.70988 16.2172 0
2.99255 17.8746 0
147.742 29.2635 0
150.049 24.8279 0
252.472 27.4129 0
252.091 32.3984 0
381.116 3.89846 0
378.89 8.37518 0
380.265 35.272 0
385.184 34.3764 0
278.572 20.7605 0
273.591 20.3272 0
450.51 40.6823 0
446.356 43.4646 0
209.809 7.68813 0
206.403 11.3488 0
432.324 53.2205 0
436.52 55.9394 0
269.386 39.216 0
268.549 44.1454 0
258.337 42.7058 0
254.594 39.3905 0
480.851 54.1215 0
479.227 58.8507 0
255.82 59.4176 0
252.235 55.9327 0
89.5667 11.0849 0
85.082 13.2956 0
134.867 47.6584 0
138.939 50.5595 0
287.717 22.923 0
288.062 17.9349 0
44.9793 10.6 0
48.1741 6.75383 0
479.625 31.0311 0
477.682 26.424 0
31.5499 5.17927 0
30.0844 9.95967 0
419.304 50.6696 0
419.316 45.6696 0
278.185 51.2551 0
276.689 56.026 0
232.318 33.2588 0
230.052 37.7159 0
16.0712 9.7063 0
20.4061 7.21462 0
58.92 58.4259 0
53.9219 58.2905 0
136.351 19.5672 0
141.316 20.1633 0
237.805 59.892 0
233.894 56.7762 0
364.095 40.2003 0
366.479 44.5956 0
288.732 48.064 0
289.319 43.0986 0
372.778 20.8274 0
372.478 25.8184 0
74.2374 8.87285 0
78.4427 11.5775 0
371.363 44.8769 0
372.935 49.6234 0
100.046 13.1038 0
97.9376 8.57019 0
378.151 5.34371 0
383.053 4.35733 0
173.253 5.73698 0
168.315 4.95275 0
317.198 10.5851 0
321.355 13.3627 0
267.069 50.316 0
265.573 55.087 0
235.685 8.94126 0
230.924 10.4705 0
439.862 46.2763 0
434.923 47.0586 0
57.2908 54.1667 0
60.2782 58.1762 0
58.6361 44.9213 0
63.4059 46.4211 0
54.3025 47.1693 0
59.2813 47.6298 0
9.37556 54.4009 0
4.66905 56.0887 0
51.4684 39.809 0
48.4042 35.858 0
261.626 8.71251 0
257.354 6.11454 0
147.27 37.3559 0
146.728 32.3854 0
439.572 18.5295 0
440.329 23.4718 0
250.552 54.0224 0
246.56 57.0323 0
278.683 38.2655 0
283.682 38.35 0
245.904 27.3537 0
244.803 22.4764 0
279.242 31.3432 0
281.397 35.8553 0
309.462 56.6292 0
308.532 51.7164 0
32.36 38.4723 0
27.3635 38.6595 0
139.364 58.8732 0
141.092 54.1812 0
133.311 19.6607 0
134.7 24.464 0
86.1246 50.2638 0
87.8186 45.5595 0
85.7651 12.2294 0
90.4155 14.0661 0
171.403 17.3908 0
174.904 20.9612 0
323.179 33.1981 0
328.159 32.7493 0
16.8111 52.2351 0
21.5816 50.7376 0
16.0721 26.5996 0
11.8681 29.3063 0
392.194 13.9013 0
390.642 18.6544 0
276.113 48.436 0
275.775 53.4246 0
164.191 13.3786 0
169.154 12.7655 0
370.567 11.1344 0
373.148 6.85256 0
73.5588 6.43075 0
74.3784 11.3631 0
121.952 6.6283 0
118.186 9.91705 0
133.838 11.615 0
133.904 6.61546 0
219.062 10.3435 0
216.077 14.3546 0
1.36576 54.8861 0
5.95326 56.8747 0
249.572 25.1337 0
252.631 29.0886 0
155.48 50.7396 0
160.14 52.5509 0
433.557 10.827 0
435.517 15.4271 0
491.76 46.0679 0
495.995 48.7245 0
119.39 52.3197 0
117.049 47.9017 0
204.469 20.7305 0
204.674 15.7347 0
337.296 23.3978 0
341.304 20.4083 0
457.658 29.4278 0
456.09 24.6799 0
81.0207 16.6638 0
85.2144 13.9412 0
478.165 41.1393 0
483.16 40.935 0
396.215 14.2015 0
396.63 19.1842 0
280.726 18.1774 0
277.343 14.4955 0
33.6671 2.59201 0
35.861 7.08501 0
440.348 35.7297 0
445.169 34.406 0
453.252 25.8711 0
448.364 26.927 0
329.485 7.39908 0
325.063 5.06659 0
256.095 12.571 0
260.595 10.3911 0
104.145 52.2581 0
104.787 57.2167 0
56.4736 54.8729 0
61.3393 56.0238 0
343.244 20.8943 0
345.98 25.0788 0
240.937 34.3665 0
243.577 38.6131 0
244.163 24.7821 0
241.442 20.5876 0
34.7551 21.4873 0
34.7948 26.4872 0
267.066 14.7268 0
266.045 19.6215 0
174.976 47.9137 0
179.5 50.0414 0
329.027 13.2815 0
331.943 9.21972 0
341.309 56.1384 0
337.139 58.8971 0
109.951 53.2774 0
112.003 57.837 0
115.289 22.3348 0
112.503 18.1827 0
249.89 23.0645 0
245.56 25.5654 0
360.892 34.638 0
365.414 36.7708 0
160.204 38.9745 0
157.004 42.8164 0
397.863 15.0187 0
394.011 11.8299 0
219.956 5.01105 0
214.959 4.8385 0
110.589 48.2668 0
114.967 45.8526 0
89.3042 50.6748 0
93.8997 52.6448 0
497.569 22.4582 0
496.444 27.3301 0
77.6276 52.397 0
78.6801 57.285 0
181.548 12.911 0
182.081 17.8825 0
462.981 25.2992 0
459.074 28.4197 0
117.824 56.6005 0
114.775 52.6381 0
257.976 39.2596 0
261.526 35.7393 0
223.117 17.3202 0
220.102 21.3084 0
375.323 54.4956 0
373.166 49.9847 0
257.077 38.1076 0
256.283 33.1711 0
252.675 57.3722 0
247.948 59.0026 0
114.751 46.134 0
114.858 41.1351 0
435.645 43.7459 0
440.534 42.6994 0
146.5 47.2581 0
150.949 49.5395 0
147.937 51.9085 0
152.701 53.4281 0
122.802 55.7088 0
120.741 51.1531 0
284.263 27.5889 0
281.653 31.8533 0
271.077 39.1752 0
276.076 39.0402 0
249.949 52.3061 0
244.969 51.867 0
244.817 54.1435 0
247.343 58.4584 0
417.769 38.7884 0
417.955 33.7918 0
456.088 14.1268 0
452.161 17.2222 0
37.1487 10.2214 0
33.2003 7.15372 0
95.426 59.2711 0
90.596 57.9782 0
130.883 11.1082 0
133.83 15.1475 0
257.648 14.6557 0
255.097 18.9563 0
262.839 46.6888 0
259.234 43.2244 0
233.64 40.7089 0
228.685 40.0412 0
37.4039 45.7977 0
41.4631 48.7172 0
461.803 12.0084 0
462.505 7.05795 0
75.7994 53.0568 0
72.1744 56.5006 0
198.257 14.2789 0
203.238 14.7121 0
242.831 4.54779 0
243.443 9.51015 0
378.647 58.7473 0
373.656 58.4445 0
189.63 18.3434 0
186.166 14.7376 0
183.741 28.573 0
185.875 24.0514 0
140.886 41.2438 0
140.141 46.188 0
258.729 9.42819 0
254.403 6.92038 0
413.511 24.5291 0
415.152 29.2519 0
192.161 9.37724 0
188.564 12.8505 0
84.3561 8.69181 0
89.029 10.4704 0
149.971 38.8143 0
144.976 38.5715 0
394.601 1.4958 0
395.294 6.44765 0
436.939 55.4982 0
431.961 55.026 0
141.328 32.2438 0
140.716 27.2813 0
319.158 34.2003 0
318.611 29.2303 0
279.363 36.841 0
280.208 41.7692 0
235.762 38.4707 0
240.558 37.0585 0
189.011 43.7235 0
194.011 43.7612 0
320.326 20.5671 0
324.693 23.0027 0
280.582 0.520983 0
285.562 0.958418 0
25.5164 5.88668 0
23.6943 10.5428 0
285.441 59.2485 0
290.224 57.7904 0
479.706 51.2286 0
479.223 46.252 0
253.437 50.6597 0
249.971 54.2631 0
435.951 29.0874 0
440.606 27.2619 0
317.183 30.6639 0
317.9 35.6123 0
23.2786 15.2541 0
22.7394 10.2833 0
393.685 4.52993 0
390.234 0.911946 0
121.761 9.27742 0
119.938 13.9331 0
468.053 2.74965 0
470.093 7.31473 0
327.735 52.3316 0
332.541 53.7116 0
342.118 10.8885 0
347.057 10.108 0
348.008 20.3144 0
344.349 23.7214 0
317.4 9.13888 0
320.562 13.0117 0
242.298 21.1557 0
240.419 16.5223 0
269.966 3.98411 0
265.756 1.28727 0
18.9663 51.8588 0
23.9662 51.8915 0
80.9761 11.6454 0
85.9645 11.9861 0
14.2318 20.9413 0
9.30714 20.0769 0
316.531 46.7674 0
312.052 48.9899 0
31.2717 3.56677 0
32.3413 8.45103 0
48.3279 51.6772 0
43.3284 51.7432 0
316.39 48.0812 0
311.476 49.0041 0
217.342 18.0191 0
215.595 13.3343 0
80.8284 18.8762 0
83.1298 23.3151 0
315.994 28.781 0
312.92 24.8382 0
304.059 52.3828 0
304.761 57.3333 0
21.1294 34.5466 0
20.3595 29.6062 0
184.64 57.0572 0
179.646 56.8077 0
184.295 53.4454 0
179.295 53.4179 0
254.132 3.54802 0
249.983 0.757432 0
257.657 29.5678 0
252.66 29.7321 0
422.567 25.8864 0
417.711 24.6941 0
430.222 31.549 0
425.457 30.0337 0
310.837 12.1862 0
305.885 12.8747 0
270.913 41.3925 0
270.815 36.3934 0
54.1082 28.2327 0
49.6146 30.4253 0
25.8042 3.86472 0
24.1651 8.5884 0
124.504 40.7597 0
121.831 44.9854 0
1.07196 30.4928 0
4.96296 33.6329 0
241.904 54.6666 0
245.908 57.6614 0
376.709 36.6187 0
381.63 37.5045 0
57.0947 56.0908 0
52.2322 57.2552 0
378.396 37.0091 0
377.922 32.0316 0
199.984 12.5833 0
198.585 17.3837 0
349.998 19.4867 0
353.948 16.4223 0
173.085 19.7581 0
168.606 17.5345 0
365.078 8.22856 0
360.123 8.90166 0
172.148 14.1714 0
177.148 14.2223 0
79.5521 24.059 0
78.2775 28.8938 0
434.05 42.2936 0
429.157 41.264 0
67.0731 11.664 0
70.2619 15.5152 0
354.136 47.7722 0
356.721 43.4926 0
16.4132 53.4528 0
20.6917 56.0402 0
173.84 45.7478 0
170.676 49.6201 0
188.445 21.3578 0
183.728 19.6994 0
241.35 32.8585 0
245.875 34.9848 0
117.273 0.536227 0
115.148 5.06215 0
274.854 43.8984 0
278.944 41.0226 0
51.68 59.2099 0
47.2435 56.904 0
133.507 49.8266 0
129.089 47.4854 0
184.362 5.3738 0
179.923 7.6739 0
189.485 57.0737 0
185.208 54.4834 0
9.24935 15.3882 0
9.70661 20.3673 0
407.114 2.97076 0
411.396 0.389151 0
359.577 37.0914 0
355.647 34.0002 0
16.9559 4.46868 0
15.6195 9.28678 0
340.972 5.36606 0
344.753 8.63762 0
58.7314 33.7832 0
57.7847 38.6928 0
332.284 34.3035 0
336.528 36.9477 0
179.318 16.6405 0
178.746 21.6076 0
170.981 53.2393 0
175.668 54.9798 0
18.3631 18.7408 0
13.3668 18.9338 0
182.135 20.5533 0
184.02 15.9221 0
288.838 48.3619 0
284.191 50.208 0
305.094 52.8965 0
309.438 55.3724 0
413.053 9.65985 0
415.023 5.06401 0
339.265 36.8845 0
334.269 37.0806 0
228.654 32.7471 0
225.933 28.5523 0
36.0343 26.561 0
39.2777 30.3663 0
354.709 12.3375 0
349.755 13.0136 0
441.727 28.22 0
436.732 27.9856 0
415.182 42.0335 0
416.048 46.9579 0
389.687 40.8552 0
386.865 36.7272 0
450.886 45.0154 0
455.601 43.3513 0
139.84 54.9717 0
136.823 50.9844 0
6.6599 51.9077 0
9.09559 47.5411 0
45.3531 31.9996 0
47.8104 27.645 0
195.496 20.2617 0
191.531 17.2158 0
163.722 51.136 0
168.088 53.573 0
336.342 1.48723 0
331.38 0.873518 0
47.1497 15.2953 0
51.2151 12.3846 0
105.852 45.179 0
102.254 41.7071 0
88.4522 29.1151 0
91.1571 24.9099 0
139.522 28.5304 0
140.705 33.3885 0
280.274 50.6868 0
284.693 53.0255 0
483.785 25.0739 0
480.696 21.1422 0
83.9282 9.67969 0
88.8844 10.3404 0
438.463 33.635 0
441.381 37.6955 0
457.596 38.2375 0
459.474 33.6037 0
428.999 11.695 0
433.995 11.4995 0
59.8782 12.0898 0
54.8804 12.2366 0
164.837 58.9776 0
161.225 55.5197 0
50.0279 28.8359 0
46.7114 25.0942 0
357.261 29.321 0
352.345 30.2356 0
133.965 39.7296 0
133.155 44.6636 0
291.064 40.1981 0
287.22 43.3956 0
339.382 25.5683 0
341.149 30.2454 0
461.153 17.899 0
459.069 22.4443 0
23.0791 13.5062 0
18.0817 13.3471 0
348.646 49.1272 0
343.702 49.8689 0
357.564 37.3482 0
355.273 41.7921 0
30.606 2.85319 0
25.8875 1.19924 0
398.743 16.2222 0
400.083 11.4053 0
273.203 28.35 0
272.766 23.3691 0
200.495 2.66412 0
196.197 5.21842 0
373.512 44.4205 0
375.295 39.7493 0
15.0179 3.43661 0
19.0184 6.43604 0
7.92276 41.0299 0
11.6866 44.3213 0
364.301 47.9545 0
362.732 43.2069 0
422.291 42.7461 0
427.207 43.6574 0
126.616 34.1958 0
131.544 35.0402 0
45.5674 42.4977 0
50.5245 43.1511 0
109.974 42.7966 0
110.418 37.8163 0
184.911 12.7819 0
187.849 8.73641 0
105.63 40.8929 0
105.79 45.8904 0
397.654 17.1798 0
401.474 13.9532 0
481.484 25.4727 0
483.117 20.7469 0
46.0989 53.465 0
41.2267 54.5879 0
167.186 20.4509 0
165.36 15.7964 0
63.8286 9.17219 0
62.8903 14.0834 0
306.873 47.4198 0
310.974 50.2815 0
28.5951 57.2805 0
33.1673 55.2568 0
428.65 7.24826 0
433.461 8.61178 0
35.9772 33.0795 0
38.4985 37.3972 0
319.641 17.1501 0
323.338 13.7841 0
368.15 40.6303 0
368.129 45.6303 0
496.382 57.3065 0
491.835 59.3857 0
53.4161 29.3168 0
55.8369 33.6917 0
24.0715 34.1465 0
27.237 30.2762 0
375.928 26.6822 0
372.96 30.7055 0
442.953 25.9493 0
438.116 24.6812 0
463.687 10.5752 0
466.396 14.7776 0
59.515 42.8613 0
59.0103 37.8868 0
15.0103 56.3483 0
10.8189 59.0745 0
335.246 19.8433 0
330.545 18.1396 0
6.78088 29.5555 0
6.23737 24.5851 0
246.211 22.0821 0
247.154 17.1719 0
324.791 21.1136 0
329.569 22.5862 0
241.333 14.6299 0
238.997 10.2092 0
443.6 44.2665 0
438.972 46.1578 0
153.64 27.72 0
153.853 22.7245 0
436.382 48.3666 0
433.496 44.2841 0
363.539 16.8561 0
362.393 11.9891 0
323.201 49.8029 0
319.604 46.3293 0
151.87 12.7318 0
149.756 8.20061 0
304.837 47.2887 0
308.493 50.6995 0
428.644 48.6241 0
424.259 51.0268 0
472.688 6.28638 0
477.525 7.54926 0
26.3368 5.29656 0
28.1528 0.638016 0
338.394 21.5236 0
333.395 21.6315 0
214.815 23.3186 0
218.905 26.1945 0
215.918 3.33441 0
210.981 2.54363 0
398.489 51.4273 0
400.664 46.9249 0
112.445 51.2997 0
114.098 46.5808 0
231.032 46.6639 0
235.394 49.1075 0
75.6658 23.1273 0
80.5878 24.0067 0
304.495 57.6468 0
309.023 59.7664 0
332.027 35.4492 0
331.839 40.4457 0
336.77 49.71 0
335.769 44.8113 0
68.3445 46.3752 0
71.4348 50.3058 0
153.352 30.0055 0
152.78 25.0382 0
74.5007 2.62118 0
72.5479 7.22408 0
212.339 51.784 0
209.843 56.1163 0
465.845 39.0978 0
460.944 38.1061 0
151.046 38.9711 0
152.148 34.094 0
321.063 13.0344 0
316.266 11.6232 0
333.595 31.4462 0
329.981 27.9911 0
46.9268 37.8178 0
51.4804 39.8829 0
338.927 16.1597 0
340.22 11.3298 0
430.029 36.2252 0
432.144 40.7558 0
485.41 33.0767 0
483.065 28.6606 0
488.227 23.4646 0
487.952 18.4722 0
111.458 6.88277 0
115.59 9.69818 0
422.952 43.0258 0
418.468 45.2377 0
269.825 32.7954 0
274.642 31.4548 0
245.942 18.4488 0
249.168 22.2683 0
331.687 47.6119 0
335.465 44.3366 0
484.377 16.5052 0
487.727 12.7928 0
381.246 38.2501 0
377.36 35.1039 0
487.079 23.5358 0
483.204 20.3762 0
468.889 46.3302 0
472.42 49.8704 0
357.958 26.5497 0
353.009 25.8346 0
344.814 42.2683 0
345.23 47.2509 0
260.871 14.9628 0
256.162 16.6413 0
69.837 10.5668 0
74.1025 13.1756 0
396.066 51.3822 0
400.953 52.4362 0
46.5278 30.2683 0
44.9987 25.5078 0
392.352 9.33549 0
387.567 10.786 0
150.018 17.9408 0
145.48 20.0397 0
197.922 14.4685 0
202.741 13.1378 0
130.429 17.898 0
133.381 21.9338 0
485.65 30.4654 0
489.516 27.295 0
169.991 45.9751 0
174.744 44.422 0
59.3234 10.8466 0
59.9418 15.8082 0
117.239 25.4095 0
121.933 23.6886 0
327.289 12.6634 0
330.553 8.87592 0
416.485 17.419 0
413.097 13.742 0
295.808 52.5925 0
298.074 57.0494 0
271.416 19.9922 0
271.977 15.0238 0
473.024 38.4096 0
471.327 43.1129 0
391.942 52.8378 0
388.747 56.6835 0
388.099 8.62894 0
384.195 11.7537 0
298.401 19.5637 0
302.717 17.0402 0
10.14 4.84605 0
14.0744 1.76051 0
241.844 57.4631 0
240.097 52.7784 0
310.151 38.7769 0
307.421 42.9662 0
423.996 7.53617 0
428.996 7.54159 0
445.057 20.0756 0
449.606 18.0001 0
243.584 58.7053 0
248.182 56.7406 0
122.311 3.2104 0
119.426 7.29439 0
51.3246 26.2385 0
56.2684 25.4913 0
350.192 55.5204 0
345.948 52.8765 0
265.191 10.6324 0
260.705 12.8398 0
488.349 36.4843 0
487.878 31.5065 0
369.566 56.9265 0
374.552 56.5537 0
387.462 6.70467 0
389.305 2.05673 0
300.613 49.0742 0
303.251 44.8266 0
354.651 41.5081 0
359.33 39.7442 0
55.1406 33.0782 0
54.6476 28.1026 0
228.443 29.916 0
228.366 24.9166 0
174.316 21.4622 0
177.378 25.415 0
428.037 32.993 0
424.423 29.5371 0
460.019 16.9361 0
463.648 20.3762 0
378.868 22.6294 0
378.266 27.5931 0
351.295 52.7766 0
346.443 51.5697 0
272.442 7.36604 0
270.461 11.957 0
123.92 34.5503 0
121.065 30.4456 0
452.562 55.0718 0
457.41 53.8481 0
89.607 49.9535 0
84.6902 49.0453 0
195.618 51.0497 0
191.993 54.4936 0
85.1904 43.9196 0
80.2863 42.9451 0
488.808 52.9421 0
493.804 53.1297 0
115.173 28.1539 0
116.037 33.0786 0
113.589 52.4055 0
117.193 48.9393 0
176.088 36.8555 0
178.707 41.1148 0
247.139 47.4495 0
251.323 44.7127 0
23.6113 21.3881 0
22.0871 26.1501 0
4.12991 44.497 0
6.2331 39.9609 0
466.338 47.4582 0
470.565 44.7883 0
103.878 0.510267 0
108.862 0.114404 0
293.873 12.2066 0
290.656 8.37885 0
2.22339 21.7639 0
6.651 19.4409 0
380.05 38.7261 0
376.857 34.8783 0
484.388 15.0292 0
488.226 18.2336 0
381.605 34.3234 0
381.442 39.3208 0
436.567 37.1213 0
435.682 42.0424 0
434.449 39.1383 0
429.64 37.7709 0
346.847 30.8443 0
350.133 34.6127 0
354.414 24.6446 0
353.928 19.6682 0
326.553 1.84435 0
321.908 3.6952 0
282.799 13.0584 0
278.061 11.4596 0
287.288 11.0391 0
289.345 6.48158 0
461.887 53.5981 0
458.427 57.208 0
178.513 49.6262 0
174.233 52.2095 0
481.306 4.41224 0
485.655 1.94444 0
89.5821 42.3475 0
92.0219 37.9831 0
239.368 48.5163 0
242.999 45.0791 0
445.792 5.44349 0
444.77 10.338 0
170.987 53.9877 0
175.84 52.7806 0
265.646 52.4701 0
266.122 57.4474 0
343.838 47.3513 0
338.876 47.9647 0
405.999 7.00611 0
404.017 11.5964 0
86.3565 10.7623 0
81.594 12.2849 0
326.789 7.27471 0
326.431 2.2876 0
426.117 45.3771 0
423.041 41.4353 0
36.7839 53.3064 0
41.7687 53.6967 0
167.937 51.1364 0
166.067 46.4992 0
462.357 30.5946 0
460.153 26.1063 0
74.3937 16.8989 0
69.4698 17.7682 0
81.3626 17.5814 0
85.7157 15.1216 0
224.779 35.9959 0
222.195 40.2763 0
437.805 49.0091 0
442.404 47.0486 0
109.115 10.1377 0
114.01 9.11736 0
341.324 35.9186 0
337.195 33.0985 0
244.401 47.6998 0
249.141 49.2907 0
368.577 23.8792 0
365.761 28.0106 0
274.41 2.2997 0
269.826 0.303762 0
406.768 19.9094 0
406.388 14.9239 0
237.721 22.8919 0
239.341 18.1617 0
236.709 51.0127 0
231.733 50.5261 0
5.5076 17.181 0
7.1762 21.8944 0
272.239 30.5939 0
271.965 25.6014 0
424.47 52.6803 0
429.411 51.9101 0
24.092 17.5461 0
28.3429 20.1785 0
351.573 41.896 0
355.548 44.9296 0
58.3377 12.2961 0
62.9619 10.3945 0
380.01 19.5982 0
384.97 18.9644 0
25.8156 20.2026 0
27.5291 24.8999 0
316.495 15.1402 0
319.777 18.9125 0
229.671 9.4261 0
234.126 11.6958 0
333.607 39.0975 0
328.61 38.9278 0
351.64 27.6375 0
354.326 23.4207 0
455.872 48.0034 0
458.975 44.0824 0
396.843 12.9052 0
399.938 16.832 0
465.288 33.5952 0
470.287 33.6393 0
329.347 14.9329 0
330.569 10.0843 0
438.01 30.698 0
437.556 25.7187 0
370.587 41.147 0
366.653 44.2337 0
470.901 50.8318 0
472.789 46.2023 0
363.139 7.52979 0
358.824 10.0546 0
245.337 56.4561 0
248.555 52.6291 0
412.593 35.4751 0
408.74 38.6619 0
74.9174 7.38022 0
79.3801 9.63503 0
250.305 15.4536 0
245.32 15.8402 0
442.503 20.243 0
447.491 19.9003 0
64.8583 23.2494 0
61.633 19.4287 0
35.2487 43.4788 0
33.0614 47.975 0
42.4646 25.2045 0
38.464 28.2037 0
372.638 23.2545 0
374.614 18.6618 0
499.087 20.0323 0
496.083 24.0293 0
389.598 48.1042 0
394.571 47.5836 0
333.686 44.6637 0
329.002 46.414 0
482.045 23.7313 0
478.719 19.9983 0
337.54 33.1116 0
333.656 36.2603 0
132.303 22.1965 0
134.548 17.7288 0
11.5613 37.8113 0
6.57352 38.1608 0
222.616 52.0422 0
226.701 49.1597 0
90.395 2.74201 0
92.3668 7.3368 0
274.792 46.9002 0
277.588 42.7553 0
130.827 43.2331 0
126.053 41.7439 0
270.291 13.0883 0
274.832 10.9972 0
447.679 54.474 0
449.936 50.0126 0
124.223 37.645 0
128.844 35.7355 0
39.0383 12.7309 0
34.2992 11.1368 0
82.7038 10.904 0
87.6626 11.5446 0
450.415 33.2051 0
454.865 35.485 0
36.1501 1.75922 0
37.0432 6.67881 0
108.671 24.5909 0
112.704 27.5468 0
470.211 14.674 0
467.069 18.5629 0
498.425 7.99543 0
494.508 4.8886 0
160.671 20.0019 0
165.627 20.6665 0
290.107 48.9881 0
288.141 44.3909 0
128.157 42.0197 0
129.068 46.9361 0
182.405 14.9991 0
186.391 18.0173 0
3.9662 44.4661 0
8.37132 42.1007 0
121.766 21.2272 0
116.815 20.528 0
113.581 12.4986 0
116.512 8.44777 0
323.252 7.91284 0
324.701 3.12742 0
248.097 23.7492 0
243.127 24.2938 0
368.908 30.4158 0
366.889 34.9899 0
68.0543 11.8209 0
72.3497 14.3801 0
206.064 9.22409 0
208.61 4.92065 0
411.041 3.49009 0
413.818 7.64775 0
108.161 14.5778 0
109.616 19.3616 0
353.66 28.9388 0
355.207 24.1842 0
454.396 47.6023 0
458.329 44.5157 0
400.051 13.6235 0
398.727 8.80206 0
339.974 55.3515 0
343.339 59.049 0
173.016 32.2744 0
170.89 36.8002 0
471.229 26.2141 0
475.909 27.9749 0
83.9219 50.0863 0
88.1161 52.8081 0
380.735 54.7907 0
385.106 57.2173 0
300.963 46.9606 0
302.812 42.3151 0
450.648 54.4819 0
455.279 56.3663 0
280.578 4.88012 0
275.978 6.84085 0
173.333 31.4188 0
178.242 32.3667 0
15.5381 11.6615 0
10.6925 10.4284 0
190.249 12.7024 0
191.177 17.6155 0
411.331 26.5991 0
416.212 27.6839 0
41.4219 2.27973 0
41.0632 7.26685 0
215.394 38.4488 0
219.404 35.4627 0
110.215 46.0164 0
105.228 46.3783 0
80.0768 26.4578 0
77.5154 30.7519 0
325.666 37.9267 0
330.62 37.2486 0
317.63 32.6974 0
317.253 27.7117 0
210.635 31.508 0
212.575 26.8999 0
148.598 56.4198 0
152.723 53.5945 0
463.73 42.3031 0
463.812 47.3024 0
173.211 31.3722 0
178.21 31.4652 0
346.109 44.7389 0
351.109 44.7301 0
273.099 55.5599 0
277.675 57.5732 0
20.3563 49.3345 0
19.9702 54.3196 0
258.147 46.451 0
259.878 41.7603 0
178.874 48.2953 0
183.329 50.5647 0
288.57 40.0588 0
283.594 39.5702 0
270.794 47.3436 0
275.36 45.3068 0
366.231 22.1465 0
361.297 21.3364 0
279.437 26.4598 0
279.092 21.4717 0
1.28667 0.844296 0
6.275 1.1857 0
458.156 51.3624 0
462.506 48.8971 0
434.037 15.3444 0
437.447 11.6877 0
179.496 8.80163 0
184.321 10.1141 0
266.371 31.0535 0
266.721 26.0658 0
280.296 30.5656 0
283.11 34.6987 0
44.1192 54.9228 0
40.9352 51.0677 0
224.652 27.3061 0
229.533 26.2237 0
136.255 37.3716 0
141.219 37.9676 0
287.161 15.0559 0
284.277 19.1399 0
28.2545 11.5061 0
28.1541 6.50706 0
423.027 11.2697 0
419.03 8.26634 0
161.914 45.7421 0
164.612 41.5324 0
30.5296 3.38144 0
29.0092 8.14466 0
28.4472 18.6242 0
31.955 15.0611 0
454.644 8.06718 0
451.083 11.5771 0
265.715 30.2631 0
268.336 26.0048 0
233.925 37.3996 0
235.135 42.2509 0
156.132 49.9551 0
159.415 46.1838 0
85.0051 30.6522 0
83.2323 35.3274 0
31.1038 21.4339 0
35.3996 18.8754 0
293.713 39.7136 0
290.838 43.8047 0
52.6328 10.9694 0
57.4161 9.51337 0
416.521 47.1505 0
420.866 49.6253 0
18.476 55.1396 0
13.4815 54.9059 0
46.4203 13.9002 0
42.0034 11.5568 0
55.9555 34.8613 0
52.7527 38.7009 0
404.365 16.7182 0
400.412 19.7807 0
24.1658 49.336 0
27.9728 46.0946 0
367.083 28.9981 0
363.06 26.0293 0
62.7316 27.3228 0
66.3497 23.8718 0
411.312 5.86193 0
410.359 10.7702 0
350.887 15.9461 0
353.649 20.1138 0
275.912 8.772 0
275.359 3.80272 0
378.314 48.9764 0
379.765 53.7613 0
322.614 18.9279 0
326.029 15.2756 0
438.817 13.9304 0
437.511 9.10389 0
45.1895 11.5133 0
41.022 8.75068 0
276.195 25.2648 0
277.655 20.4825 0
127.487 52.0245 0
129.006 56.7882 0
425.528 53.4261 0
422.441 49.4931 0
205.135 8.54778 0
205.364 3.55301 0
135.934 21.1834 0
136.448 26.1569 0
28.8624 21.8591 0
26.5121 26.2723 0
434.802 54.7596 0
439.8 54.6136 0
89.3915 57.1945 0
93.8386 54.9091 0
431.135 49.1452 0
433.13 44.5604 0
269.667 25.6126 0
271.709 21.0486 0
101.047 51.099 0
96.1525 50.0758 0
211.552 4.9407 0
207.97 8.42943 0
103.225 42.3898 0
105.924 38.1807 0
339.8 49.1301 0
341.722 44.5143 0
374.831 26.821 0
375.241 31.8042 0
243.207 40.3159 0
238.243 40.919 0
388.352 43.5643 0
390.128 48.2383 0
134.869 23.0275 0
139.643 21.5416 0
386.962 44.8361 0
391.826 45.9921 0
449.817 32.4053 0
454.689 33.529 0
494.959 39.7387 0
495.26 34.7478 0
354.656 48.1516 0
359.347 46.4226 0
444.796 16.6215 0
440.652 19.4193 0
311.779 9.4312 0
310.572 4.57928 0
392.125 51.399 0
393.48 46.5862 0
440.738 21.3229 0
435.95 22.7635 0
479.734 49.1259 0
477.162 44.838 0
219.87 5.33418 0
217.204 9.56387 0
339.133 18.9481 0
342.517 22.6285 0
71.6582 56.0793 0
73.4815 51.4236 0
295.855 49.2154 0
291.296 51.2692 0
417.933 14.2283 0
417.402 9.25663 0
175.612 19.2254 0
179.649 16.2749 0
472.566 40.2765 0
468.78 43.5419 0
465.969 44.5563 0
460.981 44.9055 0
192.839 41.6819 0
188.323 39.5351 0
253.152 24.6231 0
250.798 29.0343 0
408.451 8.45976 0
406.966 3.68549 0
369.959 13.1306 0
366.444 16.686 0
292.256 15.8427 0
288.712 19.3696 0
343.533 28.4349 0
348.533 28.4862 0
18.9758 32.0191 0
15.2187 35.3182 0
343.909 7.26555 0
341.083 3.14054 0
107.181 51.8328 0
106.096 46.952 0
441.003 13.3953 0
436.788 10.7062 0
188.297 32.8504 0
188.791 27.8749 0
408.244 44.0146 0
405.523 48.2097 0
95.963 4.1831 0
91.4247 2.08452 0
494.732 33.8243 0
497.239 29.498 0
225.908 50.4457 0
223.438 54.7927 0
151.632 20.4041 0
155.421 17.1423 0
41.6272 11.2039 0
40.2053 15.9975 0
144.767 18.089 0
139.998 19.5907 0
495.466 57.7614 0
499.2 54.4367 0
433.36 47.9726 0
428.637 49.6141 0
439.284 0.637983 0
438.765 5.61101 0
30.4816 27.3553 0
34.272 30.6161 0
11.9501 37.0807 0
15.5142 40.5875 0
79.289 53.0907 0
75.7751 49.5337 0
346.535 21.8753 0
341.536 21.7823 0
482.811 10.9859 0
480.485 6.55974 0
367.068 50.8425 0
368.458 55.6454 0
5.76226 25.5263 0
4.73465 20.633 0
0.711051 29.8304 0
2.07575 25.0203 0
220.645 15.1882 0
224.776 12.3708 0
178.834 31.1582 0
174.144 32.8918 0
10.7252 15.8326 0
15.618 16.8623 0
58.0932 40.9468 0
62.7728 39.1857 0
184.265 36.8261 0
189.114 35.6062 0
458.974 2.71355 0
462.206 6.52897 0
59.246 45.8645 0
60.1517 50.7818 0
477.07 16.9061 0
472.519 14.836 0
66.3262 48.2365 0
62.931 51.907 0
174.304 58.1565 0
175.216 53.2404 0
311.559 32.0289 0
316.445 33.0929 0
214.733 50.0207 0
219.507 51.5059 0
156.457 42.7016 0
152.15 45.241 0
198.873 4.38929 0
203.245 6.81577 0
290.662 49.8387 0
288.331 45.4153 0
123.279 24.4248 0
123.373 19.4257 0
298.258 53.743 0
296.533 58.4361 0
338.338 49.4952 0
337.745 44.5305 0
185.838 25.1663 0
185.615 30.1613 0
338.958 33.2974 0
334.301 31.4786 0
150.599 14.979 0
152.088 19.7521 0
485.752 15.1418 0
490.643 14.104 0
79.4237 57.4095 0
81.557 52.8874 0
282.761 59.3333 0
287.196 57.0249 0
429.185 28.7806 0
424.28 29.7494 0
261.41 48.4093 0
264.971 44.8998 0
390.543 13.7309 0
387.881 9.49837 0
470.43 40.1189 0
475.429 40.0298 0
153.964 48.7708 0
150.636 45.0392 0
349.504 44.9839 0
354.503 44.9666 0
233.48 3.96006 0
238.252 5.45527 0
58.0018 55.35 0
61.2686 59.1352 0
430.48 37.1459 0
431.525 32.2565 0
335.324 16.4675 0
332.208 12.557 0
483.254 19.4337 0
484.431 24.2933 0
491.152 58.6117 0
487.333 55.3845 0
245.686 40.7795 0
240.686 40.7439 0
488.984 19.8799 0
484.193 21.3101 0
275.736 8.98022 0
280.716 9.42915 0
181.684 21.2078 0
183.655 16.6126 0
241.606 42.3691 0
236.677 41.5261 0
70.3187 31.2866 0
65.3216 31.4559 0
424.243 43.1049 0
422.613 38.378 0
471.643 7.7121 0
466.994 5.87094 0
111.744 34.1532 0
107.591 36.9377 0
483.422 54.8852 0
488.422 54.8921 0
320.452 14.281 0
321.343 19.201 0
368.68 18.1065 0
370.382 13.4051 0
281.699 3.25596 0
276.737 3.86792 0
350.269 37.6818 0
354.589 35.1633 0
497.477 26.297 0
492.714 24.7783 0
271.542 26.3714 0
271.138 21.3877 0
496.175 20.6879 0
491.176 20.7974 0
469.006 11.4832 0
472.652 14.9046 0
115.985 51.5159 0
120.931 50.7857 0
205.765 8.87803 0
200.923 7.6311 0
14.9232 54.5841 0
10.3198 52.6327 0
2.55994 3.26634 0
2.6924 8.26458 0
45.3189 20.524 0
42.5271 16.376 0
371.127 19.3766 0
374.653 15.8314 0
18.3279 32.7967 0
13.3693 32.155 0
368.032 46.3105 0
371.724 49.6827 0
473.313 23.2879 0
472.588 18.3406 0
279.273 56.2795 0
282.386 52.3667 0
218.367 53.7581 0
223.167 52.3592 0
332.255 48.9677 0
328.55 52.3252 0
62.509 42.8958 0
57.6891 44.226 0
360.455 40.9071 0
355.494 40.286 0
483.473 44.7416 0
488.357 45.8157 0
259.579 50.7205 0
258.244 45.9023 0
212.061 53.5386 0
216.735 51.7628 0
340.496 52.2861 0
344.768 54.8843 0
249.089 17.7114 0
244.46 19.6026 0
45.8052 46.3568 0
45.6166 51.3533 0
379.238 41.5672 0
377.397 36.9184 0
338.963 13.969 0
339.761 18.9049 0
486.219 19.5151 0
483.416 15.3741 0
53.9884 32.7378 0
54.4549 37.7159 0
45.7243 40.2349 0
50.1272 37.8655 0
68.5481 23.7712 0
65.7975 19.5957 0
222.732 35.5269 0
226.02 31.7602 0
60.9334 29.7783 0
64.8125 32.933 0
386.564 57.7903 0
387.885 52.9679 0
6.98596 6.9976 0
7.21278 2.00275 0
115.873 29.2721 0
113.887 24.6836 0
130.249 0.303043 0
128.887 5.11399 0
427.791 5.2297 0
422.844 4.50207 0
217.696 31.3843 0
216.797 26.4658 0
349.277 53.6596 0
352.359 49.7229 0
329.72 30.7169 0
334.717 30.8974 0
394.21 44.4831 0
391.618 40.2078 0
132.199 7.52316 0
136.922 9.16581 0
7.41369 19.0802 0
12.3094 18.0641 0
28.9052 49.9517 0
30.6485 45.2654 0
314.917 36.892 0
311.248 33.495 0
90.8056 42.5687 0
91.1239 47.5586 0
389.246 46.9823 0
386.473 42.822 0
292.112 15.3854 0
287.48 17.2694 0
324.042 23.6811 0
327.516 27.2771 0
48.4294 32.4471 0
45.2534 36.3088 0
377.959 5.25263 0
373.079 4.16394 0
448.176 47.7356 0
446.003 52.2387 0
55.0964 47.9007 0
60.0374 48.6665 0
486.473 30.6206 0
488.086 25.8879 0
165.638 19.6009 0
169.819 22.3429 0
228.705 44.5902 0
227.623 39.7086 0
80.4308 20.5113 0
76.4508 23.5377 0
326.651 14.5714 0
322.304 12.1007 0
129.695 35.5922 0
129.837 30.5942 0
172.599 56.3776 0
177.597 56.5025 0
436.619 45.1826 0
432.615 48.177 0
481.158 17.7438 0
485.532 15.321 0
247.903 48.0538 0
252.734 46.7651 0
245.657 52.4277 0
242.001 49.0164 0
107.544 53.9424 0
108.227 58.8955 0
62.0784 56.3305 0
57.2074 55.2018 0
262.397 15.8811 0
259.399 19.8825 0
103.527 0.724463 0
108.366 1.98422 0
258.726 36.16 0
253.778 35.4405 0
308.815 25.1931 0
306.782 20.6249 0
213.892 44.7402 0
216.295 49.1249 0
153.517 32.4066 0
149.231 29.8314 0
369.511 55.2927 0
374.094 57.2902 0
221.648 33.0675 0
218.565 37.0038 0
116.442 30.0017 0
111.634 28.6304 0
79.4416 37.1665 0
74.7839 35.3482 0
150.553 19.0841 0
154.848 21.6451 0
282.747 49.4333 0
277.878 48.2992 0
222.946 48.1431 0
217.999 47.4171 0
277.719 21.1385 0
281.693 24.1726 0
306.716 40.045 0
310.683 43.088 0
90.6572 19.4503 0
86.4037 22.0786 0
386.48 36.1406 0
386.298 31.1439 0
462.353 21.6703 0
459.849 17.3423 0
476.951 11.4317 0
481.716 12.9489 0
238.145 0.554446 0
241.39 4.35846 0
413.402 19.642 0
416.909 23.2057 0
87.0806 38.7765 0
83.0645 35.798 0
209.306 15.4931 0
209.424 20.4917 0
364.622 36.192 0
362.886 40.8809 0
55.5703 49.3418 0
60.1442 51.3617 0
224.614 17.4582 0
224.337 12.4659 0
171.603 45.2041 0
166.894 43.5246 0
39.4289 14.9958 0
43.1929 18.2871 0
135.685 14.6741 0
131.729 17.732 0
368.098 51.9915 0
367.643 47.0122 0
374.668 49.196 0
376.338 53.9091 0
471.867 15.283 0
475.273 11.6221 0
240.502 3.91696 0
245.453 4.61691 0
7.29322 55.3457 0
3.0062 57.9189 0
209.122 19.4833 0
206.312 15.348 0
106.637 14.5091 0
101.709 13.6651 0
120.415 49.0698 0
116.022 46.6821 0
140.232 14.1339 0
135.282 13.4265 0
222.242 15.0317 0
226.047 11.7878 0
325.521 53.8163 0
321.671 57.0065 0
279.227 58.2801 0
284.102 57.1718 0
411.425 46.0883 0
408.374 50.0491 0
93.1948 2.63612 0
97.9797 1.18522 0
9.10378 28.7968 0
9.98983 33.7177 0
458.465 9.09715 0
459.018 14.0665 0
69.5884 15.8097 0
70.935 20.6249 0
450.718 30.5559 0
449.104 25.8236 0
315.683 30.0966 0
311.321 27.6514 0
399.635 11.6264 0
397.546 16.1692 0
164.953 42.8652 0
169.835 43.9449 0
441.096 34.7117 0
444.764 31.3138 0
44.449 54.9121 0
48.641 52.1869 0
163.601 3.62811 0
162.779 8.56002 0
158.728 53.024 0
163.706 53.489 0
495.081 51.9387 0
490.432 50.0989 0
433.901 50.6839 0
432.751 55.5498 0
404.769 56.2179 0
409.072 58.7655 0
493.037 22.4411 0
488.572 24.6918 0
120.435 36.1783 0
118.672 40.8573 0
87.915 25.0492 0
84.0379 21.8921 0
273.112 8.68747 0
268.425 6.9467 0
70.9703 32.5313 0
73.0859 37.0617 0
167.737 33.6576 0
170.103 29.2525 0
374.702 33.1023 0
369.709 32.835 0
178.008 53.5766 0
181.819 56.8135 0
354.409 12.177 0
359.403 11.937 0
462.386 28.6967 0
461.916 23.7189 0
159.832 43.5845 0
164.523 41.8545 0
205.279 1.81209 0
202.685 6.08672 0
495.519 3.37283 0
499.757 6.02526 0
228.528 34.4825 0
233.11 32.4828 0
132.619 31.0323 0
134.851 26.5581 0
243.628 57.124 0
239.009 55.2088 0
89.0736 12.1518 0
92.3704 8.39259 0
466.034 5.79976 0
462.861 1.93585 0
50.0333 20.5915 0
51.6996 25.3057 0
95.2733 14.2059 0
100.245 14.7337 0
6.42514 31.8997 0
7.89118 27.1194 0
251.253 51.1071 0
254.657 54.7694 0
296.151 52.0738 0
298.795 47.8299 0
85.3953 41.0444 0
83.0708 36.6176 0
482.782 14.8854 0
478.095 13.1437 0
372.259 36.434 0
367.688 34.4061 0
55.1514 49.9849 0
60.1281 50.4672 0
463.917 9.96982 0
461.179 5.786 0
238.687 49.5113 0
234.041 51.3594 0
359.928 59.0973 0
364.39 56.8401 0
473.506 47.0957 0
477.22 50.4427 0
103.292 51.0922 0
101.759 46.3331 0
314.538 34.8693 0
309.747 36.2975 0
477.79 5.06568 0
476.632 0.201615 0
446.286 13.1533 0
450.502 10.4653 0
326.569 49.955 0
322.254 47.4282 0
15.6905 55.7739 0
11.2531 53.4698 0
449.523 11.323 0
450.679 16.1877 0
470.149 12.7259 0
475.142 12.9989 0
67.6809 53.6438 0
71.9169 50.9874 0
461.604 1.68038 0
461.308 6.67157 0
348.326 16.0764 0
344.181 13.2793 0
10.1618 42.7796 0
5.72703 40.4704 0
469.337 33.3585 0
471.353 28.7827 0
424.813 22.3234 0
420.962 19.1342 0
359.563 13.8029 0
356.086 17.3958 0
4.54579 35.8483 0
3.17921 31.0387 0
180.565 25.483 0
184.572 22.4928 0
418.412 15.0458 0
418.916 10.0712 0
290.503 2.63348 0
295.421 1.73499 0
168.264 54.379 0
163.891 56.8039 0
321.722 48.6519 0
320.881 43.723 0
390.875 35.6448 0
388.21 31.4143 0
66.1054 39.25 0
61.2929 40.6065 0
484.664 21.6364 0
480.801 24.8099 0
100.408 11.6485 0
105.277 12.7861 0
13.7775 4.0554 0
11.4617 8.48678 0
374.653 13.8293 0
370.079 15.8475 0
231.352 55.4658 0
235.505 52.6817 0
416.755 26.0343 0
421.279 28.1632 0
143.164 49.6008 0
140.867 54.0423 0
15.5317 0.301609 0
11.6477 3.45025 0
129.565 18.3968 0
131.603 13.8309 0
336.534 57.4938 0
332.782 54.1893 0
304.255 3.75532 0
299.418 5.02526 0
228.638 8.93461 0
227.394 13.7775 0
277.959 48.7511 0
274.299 45.3447 0
295.893 46.0225 0
291.011 44.9468 0
289.576 7.14912 0
294.418 5.90175 0
286.07 34.8886 0
281.077 35.1564 0
230.232 27.5253 0
227.04 23.6769 0
484.751 30.1044 0
487.554 34.2448 0
347.762 43.804 0
345.384 39.4057 0
484.147 33.0154 0
480.196 29.9523 0
123.295 26.8808 0
127.62 24.3723 0
416.673 35.45 0
411.885 36.8909 0
303.429 14.9345 0
306.897 11.3327 0
274.777 39.777 0
279.247 37.5369 0
311.462 6.74475 0
314.5 2.77371 0
226.09 32.6243 0
222.626 36.2303 0
338.492 28.0782 0
343.442 27.3761 0
455.103 47.4205 0
455.104 42.4205 0
213.028 9.42161 0
208.032 9.60776 0
311.444 35.2847 0
312.83 40.0887 0
341.273 8.42352 0
344.93 5.01311 0
324.616 12.3888 0
325.928 17.2135 0
163.726 53.1489 0
165.132 57.9473 0
170.721 30.661 0
173.935 26.8302 0
441.696 26.0399 0
446.695 26.1363 0
46.3681 39.2079 0
41.9955 36.7831 0
230.268 13.7205 0
225.717 15.7902 0
135.952 28.9638 0
135.036 33.8791 0
48.6851 26.0613 0
49.1411 21.0821 0
287.197 22.089 0
286.155 26.9794 0
484.591 30.0935 0
485.841 34.9349 0
497.188 21.529 0
493.531 18.1191 0
467.536 57.8634 0
471.53 54.8551 0
208.211 7.65217 0
210.439 3.1762 0
20.3048 57.1603 0
18.7914 52.3948 0
273.73 36.2088 0
269.023 34.5215 0
61.992 6.74029 0
60.6023 1.93731 0
280.307 6.52409 0
285.172 7.6783 0
432.324 34.1787 0
434.507 29.6804 0
337.435 38.2138 0
335.679 33.5325 0
2.08452 43.1217 0
4.99244 47.1892 0
55.018 47.9838 0
53.3651 52.7027 0
387.289 9.68039 0
388.134 4.75239 0
312.026 50.7145 0
313.434 45.9169 0
484.41 22.237 0
479.413 22.0725 0
1.98579 44.4325 0
6.60155 46.3546 0
389.537 48.5158 0
384.66 47.4138 0
377.339 18.1588 0
379.727 13.7659 0
50.6984 51.1307 0
46.8728 47.9112 0
69.5225 14.164 0
70.2397 9.21573 0
74.4895 7.87323 0
78.3849 11.0078 0
353.203 37.5739 0
351.37 42.2258 0
87.7037 50.8699 0
85.5748 55.3941 0
256.26 9.61013 0
252.398 6.43532 0
268.855 54.7396 0
270.014 49.8759 0
295.037 9.55286 0
290.087 8.8508 0
282.789 50.6895 0
278.716 47.7895 0
415.791 29.6682 0
420.69 28.6704 0
87.6727 43.9343 0
86.9128 48.8762 0
75.5996 18.425 0
76.2647 13.4695 0
250.011 45.5998 0
247.278 49.7867 0
65.9561 34.781 0
62.2051 31.475 0
183.112 40.3229 0
185.538 35.951 0
372.038 31.2753 0
370.036 26.6938 0
306.667 45.0986 0
309.316 49.3393 0
351.923 44.762 0
352.519 49.7264 0
363.022 34.4649 0
367.51 32.2611 0
19.139 12.6059 0
19.0689 7.60637 0
474.736 31.9802 0
479.728 32.2611 0
44.9753 15.504 0
45.522 10.534 0
289.91 56.3149 0
285.229 58.0706 0
406.928 52.1823 0
408.941 56.7595 0
465.302 20.8328 0
463.605 25.5361 0
349.928 16.2841 0
350.862 21.1961 0
268.369 35.2616 0
265.911 30.9077 0
374.26 48.9958 0
370.728 52.5354 0
359.316 10.2819 0
363.001 6.90186 0
12.3972 20.3183 0
16.267 23.4845 0
228.603 40.8194 0
230.361 45.5001 0
262.129 0.505776 0
257.135 0.265919 0
248.931 39.0852 0
244.005 38.2248 0
212.506 18.3828 0
217.491 18.7781 0
409.865 10.809 0
404.89 10.3083 0
238.074 7.12882 0
236.981 2.2497 0
91.4869 9.27889 0
86.8569 11.1665 0
138.144 23.5799 0
136.625 28.3435 0
428.064 34.1417 0
428.168 29.1428 0
175.953 13.4016 0
171.767 10.668 0
221.019 32.2392 0
226.017 32.3813 0
344.263 25.8546 0
348.531 28.4591 0
209.722 44.8192 0
204.77 45.5083 0
188.592 54.4724 0
188.084 49.4983 0
480.519 45.7241 0
481.111 50.689 0
278.156 25.4242 0
276.32 20.7737 0
49.3516 22.1097 0
44.5003 23.32 0
392.353 21.1045 0
390.747 25.8393 0
393.027 17.5786 0
395.167 13.0595 0
2.97825 32.3395 0
6.31407 36.0641 0
273.476 30.0522 0
269.182 32.6125 0
368.09 27.5066 0
370.834 23.3268 0
122.885 56.3912 0
125.956 52.4454 0
121.535 49.6118 0
117.776 52.9086 0
264.747 26.2747 0
261.723 22.2928 0
19.8038 53.126 0
19.0865 58.0742 0
217.925 8.38992 0
212.948 8.87195 0
319.189 26.8098 0
322.521 30.5381 0
382.802 11.6171 0
381.047 16.299 0
284.574 28.0253 0
288.794 30.708 0
424.93 18.6296 0
420.854 21.5251 0
497.677 18.2789 0
496.081 13.5406 0
41.8048 6.81641 0
37.7955 3.82881 0
8.60921 52.007 0
6.47194 47.4868 0
412.011 22.6717 0
414.758 18.4938 0
416.278 50.8285 0
414.842 55.618 0
438.669 7.52527 0
443.367 9.23695 0
281.57 28.1873 0
286.494 29.055 0
381.978 5.33109 0
377.098 6.41917 0
495.496 0.575614 0
499.77 3.17066 0
49.5305 52.7794 0
47.5092 57.3527 0
78.0495 26.8407 0
78.8002 21.8974 0
420.281 7.70184 0
418.692 2.96084 0
357.507 49.5477 0
352.52 49.9003 0
41.8848 26.9319 0
37.287 24.9671 0
490.74 38.1534 0
495.738 38.0159 0
482.122 7.64434 0
484.415 3.20097 0
434.46 51.2291 0
438.419 48.1748 0
42.2416 51.4845 0
42.3907 56.4823 0
69.1379 0.945026 0
64.8575 3.52931 0
59.861 36.1488 0
60.1655 31.1581 0
129.198 55.5963 0
134.113 56.5131 0
172.151 40.8082 0
175.753 44.2752 0
138.286 50.5027 0
139.954 55.2162 0
131.935 11.3596 0
135.09 7.48019 0
87.3569 52.8591 0
92.355 52.7216 0
449.685 40.5262 0
444.702 40.1224 0
146.858 46.6663 0
147.218 41.6793 0
45.9378 40.3684 0
42.6527 36.5991 0
109.952 9.39212 0
113.287 5.66691 0
84.0483 56.1323 0
82.972 51.2495 0
178.733 1.24403 0
183.708 1.74469 0
157.778 45.3717 0
153.235 43.2839 0
40.787 18.1641 0
45.2413 15.8927 0
14.0577 14.6246 0
12.4295 19.352 0
451.971 35.6556 0
446.971 35.7314 0
336.75 25.4336 0
337.623 20.5104 0
484.783 14.5164 0
489.36 12.5032 0
272.812 10.5679 0
275.727 6.50515 0
260.684 47.4249 0
256.61 50.3233 0
241.794 11.1048 0
236.794 11.1396 0
424.217 20.7917 0
428.954 19.1891 0
477.803 10.0805 0
476.679 5.20837 0
130.015 44.7704 0
129.188 39.8393 0
443.456 15.4745 0
439.721 12.1503 0
36.61 35.2429 0
34.2879 39.671 0
101.343 18.8956 0
99.051 14.4517 0
381.284 1.63132 0
380.926 6.61853 0
8.02218 21.8808 0
3.02591 22.0738 0
203.603 49.6298 0
199.628 46.596 0
225.839 55.235 0
221.983 52.0521 0
328.606 5.12834 0
326.801 0.465529 0
108.496 49.6227 0
106.181 45.1911 0
314.161 45.5168 0
309.287 44.4015 0
311.06 10.8948 0
316.02 11.5235 0
46.1985 18.1518 0
43.9719 22.6287 0
152.788 55.9409 0
156.416 52.5005 0
121.741 29.7971 0
116.899 28.5487 0
398.449 19.5448 0
393.479 20.0987 0
223.068 32.4441 0
228.066 32.2883 0
244.034 38.2588 0
248.855 36.936 0
376.538 55.7006 0
380.723 52.9656 0
294.743 1.30418 0
292.826 5.92228 0
242.076 45.3279 0
237.206 46.4605 0
66.3748 32.9909 0
66.6177 37.985 0
131.633 49.7878 0
129.097 54.0971 0
201.195 50.0747 0
203.679 45.7353 0
482.588 8.94537 0
485.721 12.8416 0
362.119 23.1042 0
358.976 19.2149 0
458.94 16.6949 0
456.137 12.5549 0
43.5458 32.5997 0
48.3102 34.1165 0
463.182 46.1657 0
458.549 44.2848 0
24.7245 6.02826 0
22.9146 10.6892 0
406.728 1.81678 0
410.067 5.53835 0
151.799 10.0873 0
152.833 5.1954 0
480.966 51.9168 0
483.555 47.6392 0
64.3165 4.46712 0
66.4351 8.99606 0
356.504 51.2232 0
357.226 56.1709 0
37.6088 12.1884 0
42.3898 10.7247 0
413.237 49.5699 0
411.974 44.7322 0
376.464 6.56439 0
380.376 3.45002 0
185.13 10.7589 0
187.415 6.31157 0
70.7702 54.5327 0
75.0304 57.1502 0
68.6815 32.1372 0
64.372 29.6017 0
35.3527 26.1868 0
35.6433 31.1784 0
350.256 48.9221 0
345.398 50.1063 0
161.923 27.0532 0
157.053 25.9205 0
324.965 28.9892 0
322.934 33.5581 0
418.916 17.9272 0
417.363 13.1744 0
483.52 18.3071 0
482.734 13.3694 0
408.527 44.0947 0
408.362 39.0974 0
493.898 47.4181 0
491.121 43.2602 0
5.20798 14.4633 0
10.1227 15.3829 0
497.054 43.0386 0
496.471 38.0728 0
53.9955 50.6602 0
57.6732 47.2729 0
4.5341 54.5807 0
3.33784 49.7259 0
275.623 30.5398 0
271.83 27.2826 0
300.178 52.8563 0
297.314 48.7577 0
134.892 52.0335 0
133.535 56.8458 0
78.5966 53.4467 0
75.3785 57.2733 0
215.938 34.6641 0
215.892 39.6638 0
11.3106 31.4292 0
6.31666 31.6758 0
221.568 44.6201 0
222.072 49.5946 0
458.318 30.5054 0
463.101 31.963 0
260.579 1.75457 0
265.45 0.625581 0
165.423 56.4767 0
162.818 52.2089 0
82.095 2.43792 0
77.1054 2.75929 0
231.185 4.13263 0
235.678 6.32608 0
350.71 32.3933 0
349.411 37.2218 0
313.58 13.9904 0
308.665 14.909 0
284.72 39.9113 0
279.729 40.2136 0
384.735 30.7409 0
387.784 34.7037 0
81.0645 54.5736 0
80.2349 49.6429 0
338.844 53.0969 0
334.325 55.2362 0
20.8129 44.1748 0
23.5696 40.0034 0
378.397 27.9409 0
374.518 31.0967 0
314.832 31.7577 0
317.936 27.8381 0
221.281 46.5198 0
223.312 51.0884 0
464.273 38.4871 0
469.189 37.5756 0
310.944 10.8225 0
309.94 5.92439 0
274.259 11.0158 0
278.391 13.8303 0
408.473 44.1746 0
403.475 44.317 0
438.622 44.0407 0
437.168 48.8247 0
368.77 23.6942 0
364.892 26.8503 0
131.708 3.626 0
127.213 5.81598 0
139.334 39.3279 0
141.597 43.7863 0
226.968 33.1509 0
231.884 32.2421 0
380.773 12.0394 0
384.174 8.37478 0
337.85 14.5055 0
335.104 18.6838 0
402.846 5.91812 0
406.883 8.86806 0
420.04 56.3712 0
424.358 58.8916 0
497.11 38.3597 0
499.054 33.753 0
159.955 8.11865 0
156.825 12.0183 0
177.844 37.4249 0
176.714 42.2954 0
162.792 41.2132 0
164.73 45.822 0
197.785 43.0381 0
201.782 46.0419 0
297.609 43.4904 0
300.033 47.8633 0
411.539 45.9143 0
408.479 49.8687 0
430.919 6.28175 0
429.684 1.43652 0
44.4122 55.9833 0
49.0217 57.9205 0
282.403 5.32823 0
277.579 6.64147 0
365.175 49.5293 0
364.831 44.5412 0
6.5637 10.0197 0
11.0578 7.8281 0
152.511 33.0767 0
151.967 28.1064 0
315.228 48.7244 0
310.412 47.38 0
288.918 29.8777 0
290.889 25.2825 0
236.997 52.2307 0
236.574 57.2128 0
40.5321 33.7173 0
42.6958 29.2097 0
216.593 27.2098 0
221.508 28.1265 0
294.693 13.3695 0
294.126 8.40167 0
96.1626 16.1036 0
94.3932 11.4272 0
424.83 23.3194 0
420.074 24.8619 0
225.39 32.913 0
230.07 34.6721 0
93.2544 19.7715 0
98.2256 19.2358 0
47.8054 31.757 0
52.2321 29.4323 0
146.843 7.43916 0
143.19 4.02547 0
79.1067 6.01131 0
77.9169 10.8677 0
450.029 4.63739 0
453.665 1.20555 0
132.746 13.3631 0
136.482 16.6861 0
76.4146 33.5109 0
75.3537 38.397 0
319.248 14.396 0
323.895 12.5513 0
466.049 41.9836 0
470.092 44.9263 0
291.352 54.9897 0
295.06 58.3446 0
265.071 28.6531 0
261.407 25.2511 0
141.749 5.97858 0
140.19 1.22783 0
36.7427 28.0676 0
31.8095 27.253 0
261.242 23.9569 0
258.888 28.3683 0
104.968 41.0958 0
109.908 41.8632 0
111.99 16.9342 0
109.984 21.5142 0
111.667 33.025 0
114.664 29.0227 0
291.793 45.7012 0
294.8 49.6959 0
456.178 6.41933 0
461.139 7.04897 0
437.858 44.8621 0
432.932 45.7197 0
321.831 56.4115 0
323.559 51.7193 0
150.559 28.2894 0
151.402 23.361 0
429.265 9.31743 0
431.342 13.866 0
309.325 10.009 0
311.655 5.58524 0
263.992 52.274 0
266.194 47.7852 0
445.723 48.6975 0
448.254 44.385 0
164.676 40.9159 0
160.642 37.9607 0
416.958 40.0956 0
414.275 35.8758 0
132.39 45.0829 0
128.482 41.963 0
364.284 59.1258 0
367.872 55.6437 0
184.956 23.2848 0
189.956 23.2758 0
142.149 16.4137 0
147.145 16.6144 0
30.5191 47.4381 0
27.3358 43.5824 0
244.522 47.8877 0
243.798 42.9403 0
362.929 49.3495 0
362.868 44.3499 0
130.004 35.1892 0
126.126 32.0329 0
135.807 44.1699 0
134.77 39.2786 0
399.192 2.70411 0
403.933 1.11517 0
330.367 2.41791 0
328.101 6.87505 0
217.273 20.5575 0
212.276 20.7135 0
271.279 4.37523 0
276.269 4.0686 0
260.349 26.0914 0
264.003 29.5038 0
361.769 5.89951 0
363.168 10.6998 0
302.812 40.2247 0
298.687 43.0495 0
179.336 33.4235 0
174.336 33.4222 0
104.77 45.3602 0
107.342 41.0721 0
125.275 32.6185 0
129.949 30.8426 0
487.188 43.877 0
484.837 48.2899 0
260.153 49.4175 0
264.226 46.5169 0
435.941 44.6944 0
440.348 47.0564 0
335.091 55.6988 0
330.791 53.1469 0
410.859 50.0512 0
414.077 53.8778 0
89.7419 29.0702 0
85.498 26.4265 0
371.138 13.0957 0
367.102 10.1445 0
387.908 30.1166 0
387.725 35.1133 0
328.234 18.6717 0
332.957 17.029 0
396.538 46.4238 0
400.673 49.236 0
415.986 8.44523 0
420.986 8.44183 0
260.623 12.8634 0
259.976 7.90546 0
90.0117 18.5672 0
91.5116 13.7975 0
491.605 30.8737 0
491.851 35.8676 0
297.64 49.0919 0
295.238 44.7063 0
97.326 17.8022 0
99.3496 13.23 0
155.071 4.96234 0
150.079 5.23647 0
101.144 54.0429 0
96.1554 54.3798 0
1.85473 25.095 0
6.85265 25.2391 0
238.657 43.5316 0
242.803 46.3271 0
348.281 55.2984 0
353.185 54.3245 0
137.542 29.0742 0
132.841 30.7796 0
473.412 5.89413 0
474.607 10.7494 0
194.375 8.1819 0
190.433 11.2569 0
464.916 27.5646 0
460.729 30.2968 0
50.1612 40.9605 0
45.578 38.962 0
158.324 29.1942 0
161.752 25.5545 0
36.2036 26.7959 0
34.5249 22.0861 0
59.3508 28.4497 0
61.8766 24.1346 0
69.1578 51.5766 0
65.6224 55.1122 0
114.68 45.2425 0
115.433 40.2994 0
264.013 15.7385 0
268.103 18.6143 0
172.696 22.2467 0
177.537 20.9956 0
364.058 22.9274 0
359.618 20.6293 0
436.622 17.109 0
441.578 17.7711 0
352.184 19.6282 0
357.04 20.8157 0
300.412 48.0707 0
304.672 50.6891 0
447.914 56.1306 0
443.178 57.7344 0
267.425 25.8408 0
270.608 21.9843 0
8.12492 12.2658 0
13.0559 11.4382 0
494.666 25.9128 0
493.024 21.1903 0
231.909 44.2191 0
229.748 39.7105 0
126.419 56.6701 0
121.676 58.2503 0
359.272 35.8724 0
357.521 40.5557 0
467.013 13.4948 0
467.715 18.4453 0
194.835 6.62812 0
197.479 10.8717 0
121.996 53.3927 0
117.093 52.4105 0
494.73 41.9295 0
496.365 37.2044 0
479.201 37.0163 0
482.052 41.1233 0
326.7 54.0487 0
322.247 51.7761 0
73.4953 43.0874 0
75.2684 47.7625 0
1.27637 5.34689 0
6.24855 4.82019 0
9.75842 34.0421 0
12.764 38.0379 0
138.855 51.2377 0
140.128 56.073 0
62.6703 20.2803 0
63.5787 15.3635 0
349.852 4.06252 0
344.878 3.54883 0
101.882 49.82 0
101.971 44.8208 0
4.21413 17.7623 0
0.954903 21.554 0
182.673 14.215 0
179.008 10.8142 0
70.4497 54.7263 0
69.5688 59.6481 0
14.2495 48.5984 0
14.733 53.5749 0
200.392 8.77061 0
202.69 4.33005 0
451.357 49.0299 0
452.894 53.7879 0
237.261 40.4067 0
239.08 45.0641 0
206.902 52.2218 0
202.207 53.94 0
384.762 56.1336 0
388.701 53.0536 0
434.158 14.657 0
431.24 18.717 0
192.001 56.0057 0
187.499 58.1806 0
274.926 11.0914 0
271.71 14.9199 0
365.902 42.4758 0
364.062 47.1249 0
18.1353 27.9662 0
22.8872 26.4105 0
289.581 31.3032 0
285.398 34.0431 0
228.892 57.3478 0
224.215 59.1155 0
375.649 26.5675 0
371.274 24.1463 0
388.513 56.6384 0
393.45 55.8462 0
297.3 18.8396 0
292.309 18.5346 0
101.403 17.0109 0
96.4742 16.1692 0
55.2776 36.6207 0
55.9083 31.6606 0
233.412 52.8361 0
233.96 57.806 0
460.319 1.02446 0
465.225 0.055524 0
83.1072 7.48476 0
87.9636 6.2948 0
109.811 34.3983 0
114.807 34.5861 0
258.232 27.1316 0
254.753 30.7227 0
147.768 47.2374 0
144.576 43.3884 0
173.645 38.1369 0
171.03 42.3982 0
11.2151 34.3144 0
6.25534 34.9475 0
39.2369 32.2075 0
34.4567 30.7412 0
490.602 21.6707 0
490.259 26.6589 0
472.163 50.965 0
468.506 54.3744 0
111.583 28.9811 0
111.56 23.9811 0
432.148 32.872 0
435.03 28.7866 0
394.794 43.3509 0
390.597 40.6337 0
276.526 35.2694 0
281.237 33.5927 0
496.807 32.1294 0
495.323 36.9044 0
189.852 8.08107 0
193.107 4.28555 0
188.501 36.8765 0
183.671 38.1727 0
285.646 12.3295 0
280.807 11.0718 0
4.79465 16.6204 0
4.28571 11.6464 0
412.834 11.5047 0
416.921 8.62436 0
427.614 12.8361 0
425.934 17.5455 0
137.46 33.7602 0
132.488 33.2252 0
366.584 50.4703 0
369.42 54.5884 0
434.706 54.7224 0
439.67 54.1226 0
261.052 38.9666 0
261.549 33.9914 0
281.212 5.19179 0
284.878 8.59148 0
45.6637 52.9476 0
44.3227 57.7644 0
309.282 12.913 0
307.885 8.11217 0
49.3628 18.936 0
48.8821 13.9592 0
150.337 17.8144 0
152.018 22.5233 0
474.726 27.1481 0
476.836 22.6155 0
224.582 51.0737 0
228.972 53.4682 0
156.937 29.2235 0
161.655 27.57 0
455.01 52.4136 0
450.147 53.5762 0
437.552 31.6656 0
442.338 30.2189 0
105.869 4.33033 0
101.045 3.01283 0
233.999 34.5001 0
229.021 34.0263 0
413.903 35.582 0
412.808 40.4606 0
5.51298 33.067 0
9.77103 30.4461 0
464.147 59.7166 0
469.125 59.2503 0
451.845 18.3622 0
453.158 23.1867 0
163.243 7.11824 0
158.742 9.29555 0
417.961 50.7038 0
422.944 51.1156 0
310.632 51.2655 0
313.245 55.5284 0
4.59816 18.9802 0
8.42982 22.1924 0
393.746 18.917 0
388.944 17.5238 0
21.6131 33.9435 0
17.0933 31.8054 0
464.321 20.6162 0
469.054 22.2281 0
32.0372 59.8237 0
37.0215 59.4278 0
228.19 55.4245 0
227.457 50.4786 0
276.138 34.5371 0
274.206 39.1487 0
385.141 59.4261 0
389.094 56.3638 0
176.611 15.3727 0
171.761 16.5906 0
481.842 55.1139 0
479.223 50.8549 0
12.3247 23.7124 0
15.1498 19.587 0
183.333 7.27563 0
187.325 10.2859 0
409.034 12.7797 0
406.123 16.845 0
188.007 31.3931 0
183.903 28.5364 0
374.898 51.921 0
370.378 49.7834 0
440.345 53.9559 0
437.122 57.7783 0
318.378 42.4227 0
313.699 40.6612 0
146.391 4.12673 0
142.432 1.07227 0
55.6701 40.8652 0
59.6746 43.8592 0
375.031 50.5898 0
376.995 55.188 0
406.056 44.7213 0
401.419 42.8516 0
449.909 27.2664 0
450.631 22.3187 0
253.196 48.3204 0
254.611 43.5248 0
140.867 37.3594 0
145.367 35.1791 0
152.98 15.249 0
148.153 16.5507 0
259.202 48.393 0
256.602 52.664 0
316.892 40.0312 0
318.599 44.7308 0
287.959 29.544 0
287.004 34.4521 0
209.415 36.8518 0
209.146 41.8446 0
263.497 15.3949 0
261.732 20.0729 0
235.868 31.3816 0
232.729 35.2733 0
80.8606 23.817 0
85.8493 23.4816 0
438.04 47.6276 0
438.535 52.603 0
267.736 14.5248 0
272.61 15.6414 0
219.779 16.4972 0
214.954 15.1853 0
82.3148 8.30646 0
83.4001 3.42567 0
265.363 29.1066 0
269.817 31.3786 0
218.823 56.9213 0
223.823 56.9298 0
481.519 40.0968 0
481.479 45.0966 0
460.312 2.43543 0
463.649 6.15896 0
6.53588 40.6531 0
11.2102 42.4282 0
412.225 33.062 0
414.204 37.6537 0
222.655 23.7159 0
227.291 25.5877 0
455.551 36.4669 0
457.398 41.1129 0
95.5234 49.4495 0
93.9622 54.1995 0
75.6124 44.7765 0
78.3462 40.59 0
403.037 7.46364 0
408.022 7.08377 0
137.387 0.625057 0
133.619 3.91207 0
242.56 36.6472 0
246.041 33.0578 0
12.8548 44.8682 0
15.106 40.4037 0
396.771 54.0788 0
391.856 54.9986 0
66.6798 4.14919 0
66.0786 9.11292 0
247.435 50.1469 0
243.335 47.2848 0
34.297 49.534 0
29.3112 49.1578 0
309.877 41.7841 0
305.067 40.4202 0
321.425 17.3811 0
325.423 20.3829 0
37.9147 51.3426 0
42.3911 49.1151 0
18.219 54.5712 0
18.8169 49.6071 0
318.586 32.0418 0
321.609 28.0591 0
144.976 26.4887 0
143.137 31.1381 0
439.32 14.3252 0
437.742 9.58091 0
265.521 39.5813 0
268.613 35.652 0
316.06 53.2834 0
315.22 48.3545 0
200.606 17.3116 0
204.593 20.3295 0
304.096 43.1899 0
307.439 46.9072 0
479.026 38.8469 0
479.379 43.8344 0
126.305 5.1762 0
122.784 1.62675 0
66.6343 55.2542 0
68.9605 50.8283 0
39.5486 36.3845 0
43.6588 33.5373 0
115.877 1.12623 0
110.894 1.52962 0
46.8514 34.9815 0
51.8508 35.0582 0
251.197 35.7981 0
248.291 31.7293 0
496.465 17.8812 0
492.012 20.1545 0
349.454 1.96182 0
348.086 6.77106 0
235.519 28.2325 0
236.561 23.3422 0
46.5776 50.1807 0
45.7773 45.2451 0
471.841 8.32455 0
470.996 3.39655 0
424.965 26.7964 0
420.281 28.5463 0
221.782 51.2815 0
217.857 54.3796 0
125.444 39.9561 0
121.135 42.4926 0
324.391 31.8188 0
324.037 36.8062 0
77.8532 50.8586 0
81.7903 53.9406 0
67.433 52.8996 0
65.9719 48.1179 0
47.6707 46.205 0
44.7471 42.1488 0
13.7831 50.2111 0
12.0721 54.9092 0
171.65 0.285582 0
169.467 4.78385 0
162.523 53.604 0
167.196 55.3835 0
422.986 57.933 0
427.116 55.1147 0
300.065 9.34473 0
297.558 5.01905 0
490.535 23.1164 0
495.508 22.6053 0
310.835 41.8101 0
315.396 39.7597 0
292.445 54.2159 0
292.622 49.2191 0
162.641 17.3172 0
158.829 20.5524 0
21.2556 46.3254 0
18.3908 42.2275 0
70.2561 17.372 0
74.8621 19.3173 0
29.5395 17.2095 0
26.545 21.2136 0
474.391 47.2169 0
470.579 50.4526 0
482.398 44.7918 0
478.28 41.9559 0
233.885 7.08211 0
229.234 5.24524 0
212.332 46.7961 0
216.767 49.106 0
436.612 3.95207 0
436.639 8.952 0
324.01 30.7728 0
328.79 29.3079 0
353.85 54.3488 0
356.474 58.6044 0
279.499 55.4703 0
276.2 59.227 0
250.516 57.0688 0
255.35 55.7921 0
128.95 29.3855 0
123.971 29.8414 0
356.402 37.0126 0
352.307 39.8825 0
157.939 50.1063 0
158.936 45.2067 0
171.182 46.3426 0
175.811 48.2324 0
274.17 27.6139 0
279.124 28.2913 0
399.954 13.7366 0
402.482 9.42236 0
33.5863 11.0391 0
37.8262 13.6892 0
67.1579 6.54806 0
71.3634 9.25248 0
79.7619 9.54874 0
83.6782 12.6571 0
78.4953 52.5371 0
77.3712 57.4091 0
180.268 4.5731 0
184.678 6.92956 0
269.005 20.437 0
264.258 22.0054 0
480.371 32.1586 0
475.719 33.9908 0
476.009 19.7054 0
480.291 17.1224 0
397.677 50.2339 0
402.522 48.9989 0
15.5861 12.8756 0
10.8104 14.3565 0
40.0502 14.1554 0
35.0773 14.675 0
11.3177 50.9265 0
6.52924 49.4875 0
497.285 47.8056 0
499.554 43.35 0
178.273 48.3746 0
178.829 53.3436 0
38.7402 26.3779 0
33.8825 25.1938 0
40.888 41.2089 0
36.3505 43.3092 0
90.6019 38.4321 0
86.1252 36.2053 0
10.9716 13.1958 0
14.263 16.9596 0
187.095 7.98487 0
188.433 3.16734 0
238.804 23.1806 0
241.751 19.1415 0
22.7256 38.8128 0
17.7414 39.2103 0
232.192 52.0351 0
227.374 50.6988 0
397.555 56.2303 0
393.321 58.8898 0
223.007 29.9502 0
227.943 30.7479 0
17.5621 7.84885 0
14.0115 11.3693 0
105.374 54.7798 0
104.296 59.662 0
11.2509 37.073 0
6.64213 35.1342 0
43.1137 14.0529 0
43.5111 9.0687 0
233.968 14.0204 0
238.521 11.9545 0
260.354 39.1429 0
255.631 37.5027 0
250.673 16.3574 0
255.551 15.2613 0
249.838 50.7695 0
254.495 48.949 0
245.538 3.4656 0
249.484 0.394442 0
454.889 5.61787 0
452.669 10.0979 0
479.328 44.0703 0
474.486 45.317 0
74.3482 26.9273 0
78.9965 25.0851 0
205.336 43.183 0
201.453 40.0329 0
195.779 3.53464 0
200.719 4.30865 0
469.716 24.9847 0
470.614 20.0659 0
466.675 13.9531 0
471.246 15.9801 0
41.7689 31.6111 0
40.3728 26.8099 0
221.531 52.3593 0
226.492 51.7351 0
491.439 36.8243 0
495.042 40.2913 0
5.81422 9.10692 0
3.09623 4.91019 0
341.89 31.831 0
336.972 30.929 0
252.504 48.7488 0
257.434 49.5789 0
25.6171 7.05346 0
25.0507 2.08564 0
240.801 34.1355 0
245.798 33.96 0
275.423 21.9124 0
270.94 19.6967 0
70.8077 11.445 0
75.674 10.2969 0
424.278 38.5364 0
420.173 41.3896 0
172.608 49.5989 0
171.641 54.5045 0
228.929 52.3109 0
227.887 47.4206 0
89.2994 53.8887 0
90.1156 58.8216 0
174.688 41.2582 0
170.948 37.9392 0
421.758 4.378 0
416.767 4.08454 0
424.822 25.4506 0
427.126 21.013 0
78.0006 40.1715 0
73.1992 41.5668 0
112.349 17.3152 0
109.488 13.2149 0
352.413 56.6125 0
347.417 56.4061 0
323.529 8.99253 0
325.042 4.2271 0
210.047 54.5167 0
212.25 50.0284 0
439.966 27.3614 0
444.945 26.9025 0
354.229 49.4882 0
353.06 44.6269 0
453.173 50.2439 0
449.554 53.6946 0
367.598 43.0379 0
372.348 44.5996 0
52.3077 50.2311 0
57.1819 49.1165 0
52.9075 53.4901 0
57.7974 52.4464 0
261.236 15.4488 0
266.066 14.154 0
248.959 22.4844 0
250.883 27.0993 0
442.6 22.1776 0
447.476 21.0717 0
9.26236 26.2228 0
7.81105 21.438 0
207.078 14.2447 0
210.464 17.9239 0
266.449 42.2733 0
266.098 37.2857 0
270.414 47.8301 0
270.754 42.8417 0
40.4816 57.6938 0
39.8057 52.7397 0
363.44 36.6091 0
368.433 36.3456 0
77.0023 56.6636 0
73.8829 52.7559 0
64.0056 27.2956 0
66.4069 22.91 0
350.112 24.6537 0
351.685 19.9078 0
442.398 45.6039 0
445.971 49.1012 0
111.684 45.5532 0
109.154 49.8661 0
275.803 50.2086 0
280.696 49.1799 0
464.021 38.2249 0
464.781 33.2831 0
67.461 50.3806 0
72.451 50.6958 0
479.333 6.17733 0
484.331 6.31508 0
340.915 57.496 0
344.208 53.7336 0
439.924 43.5644 0
435.798 40.7407 0
405.129 47.2054 0
404.965 52.2027 0
400.044 5.57656 0
397.672 9.97811 0
366.032 30.2254 0
368.511 34.5676 0
25.0568 30.3613 0
20.0783 29.898 0
277.157 41.884 0
273.84 38.1425 0
139.084 58.8113 0
139.038 53.8115 0
35.3219 24.304 0
37.9428 28.5621 0
339.772 0.20991 0
340.87 5.08798 0
492.736 22.2094 0
497.556 23.5406 0
433.879 11.4893 0
429.738 8.6867 0
281.172 6.66879 0
278.6 10.9563 0
223.136 46.8821 0
228.001 48.0368 0
354.885 32.422 0
350.131 33.9716 0
385.374 12.0261 0
380.647 13.6556 0
332.969 30.2867 0
337.649 32.0463 0
473.567 11.8864 0
478.466 12.8892 0
195.159 50.6672 0
197.148 55.2544 0
104.137 13.8753 0
100.947 17.7251 0
442.957 15.8296 0
440.929 20.3997 0
282.178 26.7954 0
286.407 29.4621 0
30.6877 39.7566 0
35.3996 41.4294 0
433.753 51.7783 0
434.15 46.7941 0
384.26 14.1479 0
388.145 17.2952 0
478.253 54.4893 0
481.839 51.0052 0
58.8355 48.731 0
54.6991 51.5399 0
262.72 35.8498 0
265.07 40.2631 0
35.8369 15.6413 0
34.6007 10.7966 0
85.5101 30.6741 0
87.0115 35.4434 0
333.925 23.7195 0
335.525 28.4569 0
350.352 35.8068 0
347.969 40.2022 0
118.536 33.6013 0
115.51 37.5815 0
464.602 35.4949 0
461.104 31.9215 0
329.693 38.3097 0
332.799 34.3914 0
483.84 49.6352 0
483.565 54.6277 0
57.0168 49.9354 0
61.6568 51.7982 0
27.9095 13.5674 0
27.01 18.4858 0
423.126 40.421 0
418.649 42.6472 0
492.862 43.2596 0
497.276 40.9113 0
340.682 54.947 0
335.908 53.46 0
319.714 49.9753 0
324.643 49.1362 0
238.34 7.82626 0
234.504 11.033 0
105.609 6.81561 0
101.052 8.87443 0
471.419 57.233 0
476.419 57.1753 0
470.795 18.141 0
474.471 21.5308 0
336.428 19.4804 0
335.256 24.3412 0
418.538 17.384 0
414.483 14.4591 0
493.708 13.6699 0
491.56 9.15458 0
132.942 22.7553 0
131.455 17.9813 0
177.636 58.8261 0
182.218 56.8231 0
211.096 44.4167 0
212.495 49.2172 0
12.246 24.5446 0
16.5652 22.0258 0
437.177 41.5918 0
432.335 40.3414 0
78.0761 28.3847 0
75.4506 24.1295 0
390.478 14.9624 0
395.081 16.9159 0
327.266 31.5061 0
326.338 36.4192 0
55.283 38.8302 0
60.05 40.3388 0
255.224 50.5713 0
252.599 54.8266 0
484.932 2.69021 0
489.432 0.510123 0
464.053 50.2501 0
462.348 45.5499 0
463.402 39.4783 0
459.331 36.5751 0
386.322 10.7736 0
389.987 7.37252 0
261.36 24.3972 0
259.195 28.9044 0
37.1769 54.8892 0
32.5838 52.9135 0
454.958 47.0213 0
451.966 43.0155 0
38.564 33.6753 0
40.6974 38.1973 0
247.877 55.5239 0
248.175 50.5328 0
340.333 42.9757 0
335.634 41.267 0
426.438 28.6121 0
427.32 23.6905 0
426.398 30.1776 0
422.581 33.4074 0
26.6641 9.38218 0
23.4588 5.54474 0
423.75 42.0926 0
427.117 45.7889 0
310.394 20.455 0
308.444 15.8508 0
445.984 10.3188 0
450.934 9.6087 0
192.107 47.099 0
196.634 44.9762 0
123.163 44.3344 0
126.289 40.4323 0
271.631 29.1679 0
270.578 24.2801 0
354.958 55.9619 0
359.732 57.4457 0
429.011 38.3522 0
432.369 42.0566 0
63.3271 13.0031 0
65.0529 17.6957 0
384.952 14.5079 0
388.659 17.8637 0
378.571 23.448 0
373.771 24.8487 0
268.68 25.8337 0
263.684 25.6133 0
359.807 32.2848 0
356.911 36.3607 0
387.072 39.4793 0
388.853 34.8071 0
0.1268 47.4492 0
4.59342 49.6963 0
277.486 46.2731 0
282.143 44.4521 0
21.5571 26.0807 0
18.9567 30.3514 0
462.14 29.6713 0
462.087 34.671 0
271.002 25.9021 0
275.941 26.6778 0
324.812 18.6898 0
329.357 20.7727 0
13.7616 33.932 0
8.76176 33.9674 0
224.45 26.2647 0
222.017 30.6332 0
460.476 32.2827 0
462.441 27.6851 0
9.48019 26.3464 0
4.53213 27.0652 0
490.098 38.4773 0
485.715 36.0708 0
134.869 36.6743 0
139.667 35.2676 0
437.875 1.93541 0
442.212 4.42268 0
166.847 8.95691 0
164.431 13.3343 0
376.181 35.243 0
377.592 30.4462 0
273.614 46.316 0
271.393 41.8365 0
91.3161 20.0225 0
90.6758 15.0637 0
458.017 25.0477 0
453.619 22.6682 0
219.777 23.7074 0
222.384 27.9738 0
176.35 21.4304 0
174.555 16.764 0
282.335 46.0954 0
278.095 48.7448 0
211.335 9.07436 0
213.839 4.74627 0
41.0081 21.0422 0
36.3516 19.2208 0
182.189 45.5005 0
183.851 50.2164 0
18.4541 1.61948 0
14.7542 4.98256 0
425.529 23.5903 0
420.919 21.6551 0
478.506 24.2701 0
473.662 25.5096 0
287.154 45.198 0
290.766 48.6545 0
178.805 24.1372 0
176.113 19.9233 0
131.388 47.7302 0
136.292 48.7057 0
138.817 6.35015 0
141.961 10.2382 0
44.6929 18.0901 0
49.6714 18.5535 0
219.797 41.348 0
219.612 46.3446 0
95.793 10.5477 0
97.9366 6.03052 0
72.3905 53.3758 0
69.7731 57.6361 0
47.7351 13.9318 0
43.7273 16.9213 0
38.9812 24.8408 0
40.7433 20.1616 0
292.255 51.0088 0
288.193 48.0934 0
345.027 32.3527 0
340.916 35.1979 0
34.2778 23.5161 0
32.4857 28.1839 0
149.442 20.9416 0
154.247 22.324 0
422.153 46.8041 0
421.692 41.8253 0
64.8401 32.3861 0
64.3099 27.4143 0
226.459 44.2303 0
229.25 48.3787 0
363.183 40.9521 0
361.946 45.7968 0
423.09 21.58 0
420.676 17.2016 0
32.488 41.3267 0
36.4898 44.3244 0
42.2449 57.5483 0
46.9897 55.9713 0
408.626 48.3668 0
403.846 49.8326 0
119.149 59.0222 0
120.676 54.2612 0
273.259 46.2368 0
270.08 50.0955 0
478.764 9.03295 0
483.763 9.07997 0
189.49 52.7113 0
184.825 54.5121 0
285.967 41.4653 0
290.828 42.6352 0
313.294 43.9366 0
310.67 48.1926 0
226.717 18.8949 0
230.738 15.9232 0
320.153 50.9813 0
322.337 46.4833 0
190.245 54.6071 0
193.401 58.4856 0
174.147 20.1709 0
173.906 25.165 0
430.295 45.8411 0
425.994 48.3908 0
318.456 51.5106 0
318.246 46.515 0
285.853 13.1941 0
287.433 8.45013 0
188.951 36.8597 0
193.285 39.3524 0
8.27546 23.0881 0
8.18533 18.0889 0
447.894 25.6564 0
452.513 27.5696 0
344.118 52.1583 0
348.672 50.0953 0
146.205 12.5128 0
146.466 7.51958 0
58.5134 22.9852 0
61.8082 19.2243 0
51.1672 36.6465 0
52.5426 41.4536 0
465.324 1.1459 0
462.225 5.07025 0
238.075 54.8128 0
237.91 49.8155 0
344.024 50.5826 0
348.493 48.3392 0
280.643 32.1138 0
285.58 32.905 0
481.299 12.015 0
485.269 15.0547 0
397.883 13.6921 0
397.313 18.6596 0
242.988 35.3478 0
240.628 30.9395 0
477.053 39.9192 0
476.216 44.8487 0
137.501 23.1969 0
133.581 26.3008 0
488.403 19.8054 0
493.294 18.7685 0
241.948 11.0194 0
246.568 9.10707 0
465.937 36.0031 0
470.835 35.0001 0
156.15 15.0835 0
152.562 18.5658 0
421.758 2.53345 0
426.384 4.4306 0
310.115 41.5573 0
311.09 46.4613 0
293.622 54.5918 0
292.766 49.6656 0
418.96 25.6966 0
414.539 28.0315 0
19.3328 50.5082 0
24.2796 49.7809 0
96.7731 45.8726 0
99.0944 50.3011 0
140.117 44.2103 0
135.357 45.7405 0
96.1847 50.1979 0
99.9975 46.9634 0
457.195 25.8068 0
452.817 23.3919 0
346.778 1.67555 0
349.067 6.12062 0
219.161 42.2174 0
214.356 40.8346 0
16.7807 40.8316 0
15.8827 45.7503 0
54.9813 53.7384 0
58.4493 57.3402 0
429.4 6.24763 0
434.326 5.39268 0
361.941 7.49131 0
356.941 7.41841 0
430.477 23.4126 0
435.347 24.5418 0
348.071 31.613 0
350.895 35.7396 0
217.526 51.7048 0
214.865 47.472 0
328.344 39.689 0
330.521 35.1879 0
53.0902 50.9212 0
57.1757 48.0388 0
257.628 45.7372 0
262.046 48.0781 0
78.5552 19.4979 0
80.4326 24.1321 0
299.788 11.5828 0
294.803 11.2014 0
476.673 37.3307 0
476.09 32.3649 0
473.455 43.3224 0
468.989 41.0729 0
257.46 29.2361 0
262.442 28.8137 0
59.8014 55.5572 0
54.8352 56.1376 0
188.761 20.2153 0
193.357 22.1845 0
487.004 21.6591 0
489.597 17.3841 0
205.526 17.3334 0
201.213 19.8627 0
340.333 51.0732 0
344.718 53.4753 0
56.1766 56.9911 0
51.7341 59.2855 0
75.2239 34.9111 0
75.937 39.86 0
395.531 3.2225 0
392.122 6.88063 0
269.768 45.5283 0
272.073 49.9652 0
386.136 12.0668 0
382.416 15.4071 0
107.853 14.4504 0
108.659 9.51578 0
51.1773 51.9552 0
55.8522 50.1816 0
278.263 21.3708 0
274.223 18.4256 0
455.752 47.6267 0
456.938 42.7692 0
200.776 4.98791 0
199.841 0.0761725 0
3.06588 35.3807 0
6.15288 39.314 0
427.167 58.6483 0
427.369 53.6524 0
248.197 9.10344 0
253.142 8.36537 0
283.515 8.96439 0
288.003 6.76022 0
337.902 29.3792 0
342.647 27.8018 0
163.561 52.9896 0
163.494 57.9891 0
438.885 19.7875 0
439.476 14.8226 0
230.455 32.3311 0
226.22 34.9879 0
389.481 56.6951 0
392.127 52.4523 0
324.392 20.5064 0
324.512 15.5079 0
462.185 49.7444 0
467.159 50.2508 0
89.0374 47.8113 0
84.9506 44.9307 0
7.95157 26.5781 0
11.0934 22.6885 0
383.839 29.5044 0
386.904 33.4551 0
254.41 49.3871 0
257.632 45.5633 0
260.3 29.8874 0
257.111 33.7383 0
5.63864 2.71667 0
7.78252 7.23372 0
130.679 44.8798 0
133.659 48.8951 0
253.901 5.40935 0
255.211 10.2345 0
171.835 55.3865 0
167.426 57.7447 0
349.91 45.9326 0
348.27 41.2092 0
147.314 13.2898 0
143.424 16.4317 0
54.3089 34.1825 0
56.6652 38.5925 0
434.419 46.2551 0
430.681 49.5766 0
264.238 55.0475 0
265.057 50.115 0
238.738 34.9141 0
233.765 35.4297 0
263.405 5.55283 0
268.16 7.10018 0
7.88651 11.6875 0
11.381 8.11142 0
12.7914 58.8351 0
8.10002 57.1056 0
327.115 23.3976 0
326.643 18.4199 0
180.457 33.096 0
175.474 33.5021 0
476.9 18.8361 0
472.737 21.6056 0
360.997 20.5698 0
364.612 17.1164 0
41.5462 37.7388 0
36.6751 38.8665 0
457.845 34.2198 0
457.512 39.2087 0
253.322 5.71083 0
258.25 4.86704 0
154.946 7.1295 0
152.811 11.6506 0
13.7193 27.7244 0
18.0026 25.1449 0
416.577 44.3343 0
418.558 48.9249 0
28.649 47.7482 0
24.1366 45.5944 0
382.301 47.4672 0
379.19 43.5524 0
223.686 41.2221 0
226.657 37.2002 0
431.135 23.028 0
435.898 24.5498 0
466.481 13.9157 0
461.589 12.8847 0
406.068 20.168 0
408.392 15.7411 0
392.378 52.2579 0
391.44 47.3467 0
235.313 5.8405 0
236.008 10.792 0
373.857 54.9456 0
378.255 57.3248 0
25.5338 54.468 0
28.0144 50.1267 0
153.395 29.1919 0
149.135 31.8097 0
305.746 7.85103 0
303.621 12.377 0
456.265 43.6092 0
451.279 43.9815 0
432.135 39.5031 0
430.088 44.0653 0
189.422 53.8102 0
191.165 58.4966 0
4.53223 50.1932 0
5.1197 55.1585 0
389.83 8.83351 0
394.622 7.40852 0
439.394 31.1447 0
438.925 36.1227 0
376.76 39.935 0
376.604 44.9326 0
367.669 54.0991 0
370.97 57.8548 0
311.597 8.21999 0
315.713 5.3809 0
452.68 32.0941 0
448.417 29.4813 0
432.942 14.3993 0
431.123 9.74194 0
282.752 3.80059 0
287.693 4.56604 0
262.838 56.5171 0
267.273 54.2074 0
445.263 34.4104 0
450.158 33.3939 0
371.481 55.7917 0
367.407 52.8938 0
33.2469 58.8867 0
36.3965 55.0034 0
128.564 13.9325 0
132.411 17.1266 0
26.9837 35.1458 0
24.5979 30.7517 0
419.504 5.19875 0
419.003 10.1735 0
251.733 31.406 0
256.304 29.3796 0
141.161 13.8819 0
143.467 18.3182 0
265.79 37.8424 0
262.59 41.6848 0
444.452 18.7088 0
440.358 15.8391 0
353.96 16.8515 0
351.876 12.3064 0
79.523 29.243 0
80.2702 34.1868 0
366.413 51.466 0
364.741 56.178 0
111.815 56.5333 0
108.873 52.4904 0
162.086 7.35943 0
167.076 7.68409 0
385.506 48.2796 0
390.14 46.4011 0
221.863 3.14948 0
217.927 0.0657736 0
251.927 58.9538 0
247.601 56.4462 0
413.958 11.8962 0
416.97 15.8872 0
105.76 6.82621 0
100.775 7.20495 0
159.201 37.4281 0
156.124 33.4865 0
264.357 28.8175 0
261.214 24.9289 0
245.275 41.9197 0
242.307 37.896 0
154.223 22.6301 0
149.83 20.2416 0
260.654 49.638 0
264.037 45.9558 0
253.72 23.5978 0
256.799 27.5379 0
407.678 15.369 0
406.198 20.1448 0
110.704 56.6559 0
107.336 52.9598 0
105.354 10.3083 0
102.627 6.1171 0
323.34 59.7932 0
327.72 57.3819 0
309.126 8.66986 0
311.293 4.16396 0
162.506 14.0593 0
159.709 9.91459 0
457.325 14.7407 0
454.048 18.5167 0
71.5372 30.2574 0
75.2134 26.8684 0
346.859 35.5704 0
350.926 32.662 0
217.273 31.3754 0
215.575 26.6722 0
66.6918 5.27536 0
69.4269 1.08975 0
344.301 20.8 0
349.3 20.8795 0
476.218 23.4691 0
480.058 26.6723 0
212.678 5.68635 0
207.712 5.1029 0
331.328 4.02256 0
336.246 4.92198 0
53.9549 28.5815 0
55.4494 23.8101 0
227.85 30.3001 0
232.752 29.3172 0
331.304 31.2641 0
335.295 28.2531 0
218.886 37.2081 0
214.454 34.8929 0
126.058 33.2716 0
123.073 37.283 0
298.223 57.5926 0
299.339 52.7186 0
80.9891 10.8278 0
83.8495 6.72683 0
213.443 31.5958 0
216.002 35.8914 0
54.3915 17.1961 0
59.3571 17.7811 0
186.799 39.211 0
189.909 43.1259 0
312.086 18.3838 0
316.88 16.9623 0
285.154 14.5497 0
282.987 19.0558 0
143.598 25.824 0
148.291 24.0989 0
447.126 30.5275 0
450.623 34.1016 0
111.542 36.6192 0
116.461 37.5159 0
109.384 16.9015 0
104.386 16.7426 0
125.39 58.2318 0
129.912 56.098 0
278.055 42.8942 0
280.484 38.5239 0
386.741 7.62466 0
386.879 12.6228 0
289.22 34.298 0
288.651 39.2655 0
101.264 5.59719 0
96.7037 7.64739 0
243.137 34.8364 0
241.075 39.3915 0
119.811 15.2178 0
124.769 14.571 0
94.0035 53.4729 0
91.0581 49.4325 0
314.414 0.433371 0
316.878 4.78442 0
375.362 12.8393 0
375.085 17.8316 0
9.57923 52.4964 0
5.99668 49.0085 0
397.725 7.37155 0
398.585 2.44595 0
349.052 7.13975 0
353.999 7.86105 0
51.0405 52.5859 0
53.4067 56.9905 0
278.97 16.722 0
275.831 20.6138 0
260.486 55.9061 0
265.468 56.3285 0
65.5135 55.8738 0
68.6574 51.9858 0
351.758 45.6897 0
347.867 42.5499 0
480.952 49.6631 0
479.903 44.7745 0
295.05 6.5539 0
294.315 1.60816 0
328.439 11.8934 0
331.054 16.1549 0
404.95 48.4424 0
402.1 52.5502 0
482.158 52.8977 0
477.249 53.8461 0
443.975 41.4208 0
448.677 43.1201 0
370.855 48.8273 0
372.991 44.3065 0
456.392 58.007 0
451.472 57.1209 0
235.218 50.7261 0
230.616 52.6808 0
426.581 32.1047 0
425.317 27.2671 0
39.8457 17.3374 0
35.0977 18.9045 0
155.53 40.3659 0
153.632 35.7405 0
204.324 6.6965 0
207.454 2.79697 0
218.402 16.9478 0
221.746 13.2305 0
224.849 9.40851 0
220.978 12.5734 0
168.413 36.2232 0
166.626 40.893 0
410.964 16.0092 0
406.436 18.1312 0
223.181 40.5145 0
227.625 38.2221 0
485.563 29.9215 0
488.95 26.2428 0
354.567 52.7076 0
358.266 56.0713 0
248.3 7.99941 0
244.838 4.3917 0
146.529 14.0974 0
142.462 17.0051 0
259.61 3.70495 0
263.202 0.227707 0
275.289 53.2429 0
270.63 51.4283 0
160.166 40.8016 0
159.507 45.758 0
39.3253 3.61373 0
43.2477 6.71449 0
365.987 14.1829 0
370.984 14.0205 0
408.379 56.4754 0
406.391 51.8876 0
441.179 54.3137 0
445.731 52.246 0
443.271 7.66465 0
448.251 8.10795 0
221.105 25.6949 0
219.39 20.9982 0
250.84 29.0741 0
246.374 26.8264 0
248.068 44.5167 0
243.13 43.7273 0
17.2688 46.0115 0
17.6297 41.0246 0
80.5546 19.0315 0
77.5431 23.0229 0
32.6416 24.7252 0
37.4329 26.1547 0
227.557 16.6612 0
227.068 11.6851 0
344.522 12.1037 0
347.386 16.2023 0
322.081 34.1618 0
317.559 32.0281 0
333.844 10.1954 0
332.661 15.0537 0
263.348 30.0489 0
259.976 33.7413 0
67.8863 9.32212 0
72.7386 10.5283 0
87.5061 1.93708 0
92.3372 0.648568 0
143.898 22.0685 0
144.748 26.9957 0
73.3738 22.3083 0
77.7987 24.6363 0
89.6525 25.4863 0
90.0231 20.5001 0
410.14 18.898 0
412.612 23.2443 0
91.0967 50.2812 0
86.3568 48.6897 0
197.426 56.0154 0
192.434 55.7295 0
423.934 55.395 0
427.344 59.052 0
308.816 19.841 0
311.853 23.8128 0
394.563 12.0651 0
397.41 7.95534 0
184.781 36.7318 0
182.546 41.2041 0
328.346 53.8925 0
326.438 58.5143 0
181.855 42.4099 0
179.031 46.5363 0
278.541 30.8303 0
276.897 26.1085 0
373.738 7.12804 0
370.16 3.6361 0
443.804 13.9075 0
448.182 11.4925 0
449.831 23.447 0
451.687 28.0897 0
426.08 48.7683 0
428.521 44.4047 0
218.979 27.4119 0
220.639 22.6955 0
321.595 23.4422 0
324.449 19.3364 0
293.974 43.5316 0
296.414 47.896 0
368.579 14.8056 0
363.979 12.8464 0
437.793 46.4451 0
432.82 46.9641 0
407.981 22.4778 0
412.211 19.8115 0
43.1022 37.8367 0
39.4508 34.4209 0
335.094 13.632 0
330.112 14.0488 0
244.948 50.1135 0
246.465 45.3492 0
77.5238 22.6485 0
74.2581 18.8624 0
198.581 49.243 0
200.911 44.8194 0
7.76417 57.7589 0
2.83867 56.899 0
237.799 38.7711 0
232.82 39.235 0
79.0153 16.9258 0
77.8782 21.7948 0
73.5656 34.8151 0
68.8071 33.2801 0
469.793 49.1393 0
466.301 45.5607 0
415.117 24.4882 0
410.157 25.1213 0
51.1384 32.1089 0
46.1397 32.2208 0
192.249 22.6707 0
187.31 23.4465 0
98.5003 40.9043 0
95.8875 45.1673 0
419.797 50.6974 0
423.607 53.9349 0
223.962 8.82585 0
221.008 12.8598 0
415.337 35.9215 0
413.063 40.3744 0
279.799 45.932 0
283.86 48.8491 0
347.653 30.2338 0
346.617 25.3424 0
118.353 23.2946 0
122.101 19.9848 0
387.61 15.9157 0
391.463 19.1023 0
318.064 59.1413 0
313.418 57.2913 0
364.359 53.9095 0
361.275 49.9743 0
35.5978 21.6984 0
36.474 26.621 0
281.975 50.8072 0
284.228 55.2709 0
385.255 54.9787 0
388.244 50.9705 0
81.8916 17.9067 0
85.6057 14.5592 0
430.763 31.1734 0
433.753 35.1808 0
447.254 40.0002 0
443.026 37.3309 0
296.014 56.0671 0
291.044 56.617 0
87.9459 30.2898 0
89.2088 35.1276 0
182.84 7.23958 0
181.63 12.091 0
299.482 49.397 0
296.882 45.1263 0
109.761 26.9368 0
111.43 22.2234 0
255.183 50.3002 0
254.51 55.2548 0
471.735 19.996 0
476.708 20.5244 0
188.595 44.9404 0
191.016 49.3153 0
57.2307 19.5844 0
52.6384 17.607 0
272.443 16.9991 0
274.995 12.6989 0
139.386 8.76587 0
141.755 13.1695 0
322.73 4.83355 0
319.282 8.45497 0
232.656 28.0052 0
234.594 32.6141 0
366.853 40.4122 0
362.101 41.9668 0
33.9549 0.625681 0
32.359 5.36418 0
296.039 13.0125 0
301.039 13.0316 0
486.472 47.1307 0
484.236 42.6586 0
469.272 17.0625 0
465.849 13.4181 0
15.5465 7.99791 0
10.6122 8.80586 0
12.4194 45.2311 0
10.3204 40.693 0
15.8687 7.1543 0
10.9196 7.86621 0
340.185 44.7169 0
343.03 40.6051 0
463.898 46.991 0
464.878 42.088 0
166.537 26.5959 0
167.648 31.471 0
118.556 29.62 0
117.248 24.7942 0
88.2467 52.6257 0
83.6923 50.5625 0
332.352 18.4815 0
333.844 23.2535 0
262.672 33.9462 0
259.126 30.4204 0
430.173 6.29302 0
430.077 11.2921 0
223.268 52.6915 0
227.936 50.9013 0
442.95 21.7573 0
445.566 17.4966 0
299.634 19.3411 0
294.634 19.3932 0
260.076 55.6902 0
265.039 55.0782 0
466.575 29.2592 0
467.47 24.34 0
193.503 44.3889 0
190.737 40.2242 0
317.479 0.332229 0
313.506 3.36787 0
351.927 46.7564 0
356.75 45.4367 0
255.86 5.3919 0
260.714 6.59267 0
388.96 50.6919 0
393.959 50.7747 0
187.22 54.2996 0
192.118 55.3049 0
442.139 35.7769 0
440.55 31.0362 0
8.31004 53.9931 0
8.84013 49.0212 0
122.769 10.572 0
119.182 7.08789 0
60.5424 17.0944 0
65.0553 19.2472 0
136.519 40.0399 0
141.515 40.2198 0
478.601 28.4658 0
474.296 31.0081 0
250.182 47.0613 0
247.189 43.0564 0
47.5253 31.8363 0
52.4203 30.8171 0
204.032 14.1174 0
202.339 18.8219 0
223.313 5.0296 0
222.943 0.0433496 0
269.177 59.934 0
271.129 55.331 0
344.452 53.1179 0
346.049 57.856 0
358.275 48.0421 0
354.113 50.8129 0
492.782 58.599 0
490.195 54.3199 0
240.111 30.6513 0
235.152 30.0094 0
357.028 25.7555 0
359.904 29.8456 0
55.0247 50.8903 0
56.402 55.6969 0
123.712 4.15642 0
119.172 6.25139 0
199.463 46.9532 0
202.959 43.3783 0
472.686 25.4275 0
469.178 21.8646 0
332.46 25.1924 0
334.748 20.7469 0
304.352 5.57056 0
302.496 0.927742 0
158.556 58.8734 0
160.577 54.2998 0
30.6083 49.6545 0
34.4151 46.4128 0
175.525 30.1328 0
180.125 32.0925 0
320.574 53.771 0
317.679 49.6942 0
73.5073 45.275 0
76.2222 49.4737 0
489.297 54.5078 0
488.249 49.6188 0
137.878 2.62049 0
135.958 7.2371 0
357.078 18.7477 0
362.077 18.8787 0
276.525 28.4499 0
273.928 24.1774 0
55.3256 36.6365 0
56.5872 41.4748 0
484.853 7.23322 0
479.891 7.84935 0
332.358 48.4988 0
335.496 52.392 0
136.844 40.6971 0
132.592 43.3293 0
253.703 18.8875 0
250.105 15.4161 0
492.781 54.8677 0
489.398 58.5497 0
274.086 15.8127 0
275.778 20.5177 0
234.413 56.3567 0
239.243 57.6464 0
162.889 37.0441 0
157.932 36.3876 0
322.891 35.2923 0
327.277 32.8911 0
468.392 23.1893 0
467.772 28.1507 0
89.3941 35.953 0
93.9593 37.9923 0
337.689 37.5388 0
334.297 33.8649 0
435.579 9.67031 0
438.805 5.85051 0
163.167 47.691 0
158.511 49.5135 0
11.1043 25.5736 0
14.8521 28.8833 0
430.003 4.69523 0
428.514 9.46845 0
69.2074 22.5615 0
67.2894 27.179 0
461.055 46.6723 0
457.161 49.8084 0
360.576 22.8435 0
360.229 27.8315 0
306.947 54.8409 0
311.618 56.6229 0
133.625 44.545 0
133.122 49.5196 0
16.0402 27.4423 0
21.0399 27.4885 0
179.852 12.6434 0
180.254 7.65958 0
316.242 38.5492 0
317.273 33.6565 0
69.6522 36.3277 0
67.9683 31.6198 0
125.757 33.6409 0
129.236 30.0495 0
248.711 38.2135 0
252.722 41.1986 0
410.505 38.0347 0
415.453 38.7541 0
142.78 36.4084 0
146.246 40.0123 0
389.473 49.6281 0
394.201 48.0019 0
129.346 49.9742 0
124.358 49.6405 0
40.8813 46.7542 0
43.128 42.2875 0
284.944 6.6634 0
287.914 10.686 0
293.475 7.6827 0
296.472 11.6852 0
11.5215 46.9561 0
12.968 42.1699 0
383.554 43.2217 0
378.56 42.9708 0
444.436 26.2947 0
447.361 22.2396 0
51.56 50.3313 0
50.3609 45.4772 0
159.919 54.4067 0
164.403 56.6188 0
356.059 49.028 0
360.928 47.888 0
446.643 55.4747 0
451.468 54.1655 0
184.112 40.6884 0
188.158 37.7509 0
410.355 8.64382 0
407.782 4.35711 0
191.185 15.961 0
188.819 11.556 0
450.806 26.9825 0
449.567 22.1385 0
380.741 47.3894 0
382.734 51.9747 0
456.419 33.3248 0
461.413 33.5753 0
335.637 38.5007 0
340.182 36.4173 0
469.895 16.2145 0
467.283 20.4783 0
263.927 43.8389 0
262.635 48.6692 0
253.461 0.524097 0
250.623 4.64088 0
304.269 54.1583 0
307.564 50.397 0
487.073 21.2394 0
483.233 18.0377 0
386.173 31.2177 0
387.082 26.3011 0
289.073 32.5591 0
284.099 32.0469 0
255.569 27.6417 0
259.007 24.0112 0
380.542 6.61344 0
379.002 1.8564 0
374.88 19.1031 0
371.998 23.1887 0
371.713 55.4375 0
374.068 51.027 0
187.304 13.2273 0
191.084 9.95409 0
352.529 32.7189 0
356.624 29.8501 0
336.311 13.5538 0
341.142 14.8436 0
77.4698 18.8075 0
82.143 20.5855 0
474.584 28.8891 0
478.524 25.8115 0
367.399 22.4009 0
372.152 20.8495 0
3.96813 26.7434 0
7.48327 23.1876 0
108 16.4572 0
104.058 13.3819 0
99.6804 2.8525 0
95.2274 0.578543 0
266.23 10.5727 0
261.713 8.42842 0
127.868 30.4332 0
122.932 29.6328 0
297.133 6.67561 0
301.783 8.51375 0
259.313 5.29573 0
256.851 9.64809 0
275.392 42.3874 0
270.73 40.5803 0
102.481 5.63004 0
107.402 6.51726 0
380.923 9.8454 0
376.589 12.3378 0
88.7125 37.4688 0
84.5951 40.3055 0
273.099 6.25452 0
278.075 5.77171 0
410.686 0.974065 0
409.271 5.7697 0
327.023 30.4188 0
331.902 29.3256 0
112.574 8.80963 0
114.804 13.2847 0
422.961 11.4854 0
417.978 11.9068 0
110.91 35.0504 0
112.613 39.7515 0
311.942 29.3062 0
313.132 24.4501 0
43.4033 35.8755 0
38.5903 34.5207 0
287.696 26.5893 0
282.911 28.0399 0
109.441 17.9032 0
105.86 14.4135 0
291.197 55.2382 0
291.655 50.2593 0
230.788 16.6418 0
235.134 14.17 0
52.1934 38.9014 0
50.135 34.3448 0
431.18 8.44598 0
434.412 12.2607 0
106.605 5.06529 0
105.102 0.296558 0
202.61 4.68489 0
207.571 4.05623 0
356.383 50.5948 0
357.536 55.46 0
497.801 18.054 0
495.062 13.8709 0
95.0341 6.74408 0
99.9984 7.34108 0
288.962 7.99841 0
293.938 8.48162 0
364.87 54.7944 0
366.302 50.0039 0
493.585 19.1521 0
490.619 15.127 0
214.513 57.5655 0
210.431 54.6783 0
118.414 46.7295 0
119.336 51.6438 0
252.925 43.5823 0
247.992 44.3927 0
66.5396 34.1265 0
65.0303 38.8933 0
18.9095 26.1344 0
23.2349 28.6425 0
217.274 37.9734 0
216.158 42.8474 0
212.177 42.6034 0
215.018 38.4893 0
357.401 24.9345 0
356.13 29.7702 0
74.1168 9.80797 0
76.6657 14.1095 0
126.928 34.6521 0
126.881 39.6519 0
442.498 43.2702 0
438.689 40.0314 0
434.369 16.8148 0
435 21.7748 0
433.887 32.185 0
428.887 32.1474 0
413.936 29.4171 0
416.065 24.893 0
29.765 23.8539 0
30.4332 28.8091 0
174.69 23.4316 0
174.787 18.4325 0
95.9485 54.9734 0
92.6323 51.2314 0
265.239 41.5788 0
264.144 46.4575 0
309.251 6.15592 0
304.307 5.41104 0
246.995 1.95344 0
243.301 5.32245 0
333.681 1.50967 0
328.737 2.25887 0
236.126 45.0035 0
231.491 43.1295 0
374.336 15.2692 0
369.981 12.8115 0
258.155 44.4111 0
260.302 39.8957 0
343.932 35.6349 0
340.495 32.003 0
118.009 59.993 0
117.692 55.0031 0
168.548 56.7323 0
167.379 51.8709 0
493.825 44.5476 0
498.651 43.2408 0
143.617 42.9579 0
148.107 45.1573 0
201.785 10.0935 0
199.826 14.6936 0
187.301 11.4605 0
183.334 8.41709 0
422.372 30.6933 0
418.102 28.0926 0
270.365 26.3157 0
275.311 25.5846 0
156.497 1.14116 0
151.503 1.40401 0
217.584 4.92866 0
214.827 0.757189 0
481.994 46.5129 0
477.316 48.2773 0
260.778 49.5517 0
256.464 52.0792 0
447.292 17.351 0
449.621 21.7754 0
430.038 59.0226 0
434.68 57.1639 0
127.821 41.2929 0
130.387 45.584 0
23.0511 10.8448 0
18.0608 10.5326 0
39.0941 39.3537 0
35.3446 42.6614 0
247.861 6.94334 0
248.829 11.8487 0
249.551 37.9667 0
251.85 42.4071 0
26.5289 29.5191 0
28.9391 33.8998 0
341.002 10.5621 0
344.27 14.3462 0
179.786 13.2269 0
174.812 13.7302 0
82.0669 14.8197 0
82.0367 19.8196 0
208.073 12.1985 0
212.808 10.5909 0
224.23 32.3129 0
228.245 29.333 0
482.959 34.8396 0
478.39 32.8088 0
258.623 8.0878 0
253.925 6.37517 0
216.582 6.58545 0
212.422 9.35947 0
14.9466 33.004 0
16.9876 37.5685 0
468.437 11.1237 0
466.522 15.7426 0
6.61417 33.8148 0
10.9755 31.3697 0
83.6067 57.3572 0
79.1374 55.1155 0
491.783 38.1013 0
492.054 43.0939 0
279.258 43.0163 0
283.553 40.4555 0
50.0779 26.8286 0
45.4399 24.9607 0
105.637 43.0799 0
110.576 42.3061 0
146.52 49.1468 0
146.911 54.1315 0
312.181 52.5579 0
307.642 54.6529 0
28.0926 59.4837 0
23.0973 59.2668 0
31.4513 48.1262 0
28.6058 44.0149 0
62.0217 39.0972 0
59.4904 43.4091 0
242.459 13.7589 0
240.374 18.3031 0
420.993 18.5998 0
425.316 21.1106 0
175.825 36.2773 0
172.366 32.6676 0
452.726 49.2602 0
449.769 53.2922 0
328.636 41.1986 0
328.916 36.2065 0
47.2073 5.23823 0
47.9009 0.286577 0
466.887 5.85664 0
471.27 3.45005 0
452.223 25.4501 0
448.954 21.6666 0
359.48 21.8413 0
360.65 26.7025 0
335.379 49.4842 0
330.527 50.6913 0
345.832 58.4887 0
340.909 59.3657 0
81.4453 42.2729 0
84.6966 46.0714 0
168.378 50.2618 0
164.554 47.0412 0
277.799 59.7112 0
272.806 59.4472 0
317.167 15.2961 0
322.167 15.3786 0
41.5996 9.75975 0
38.1875 13.4145 0
381.445 43.9648 0
386.199 42.4155 0
210.281 45.3256 0
208.151 40.802 0
239.265 17.8881 0
235.842 14.244 0
137.74 3.75026 0
132.996 5.32993 0
45.0946 36.1921 0
41.1355 33.1384 0
220.276 13.981 0
221.146 18.9046 0
191.831 42.1703 0
187.575 44.7956 0
295.232 2.61804 0
290.232 2.66084 0
445.256 24.8342 0
450.169 23.9067 0
279.299 54.2748 0
283.648 56.7427 0
373.405 46.1534 0
368.413 46.4385 0
163.305 18.888 0
158.305 18.867 0
189.077 42.2184 0
193.545 44.4624 0
288.472 46.7571 0
287.265 41.905 0
366.334 31.8362 0
369.964 28.3977 0
238.605 41.0799 0
242.543 37.9986 0
51.0967 16.0436 0
46.6964 18.4178 0
143.06 23.301 0
139.251 20.0614 0
357.578 27.6188 0
360.059 31.9603 0
188.345 8.17439 0
185.853 12.5094 0
483.115 38.188 0
486.759 41.6121 0
289.503 34.152 0
284.799 35.8482 0
132.12 4.54254 0
127.166 3.86531 0
208.497 19.0479 0
207.84 14.0913 0
213.746 1.09981 0
218.746 1.12084 0
11.0429 23.2375 0
7.15276 20.0964 0
188.499 16.7352 0
184.363 13.9255 0
314.12 15.7337 0
309.431 13.9975 0
30.7201 42.2229 0
26.3471 44.6472 0
321.115 46.1518 0
319.639 41.3746 0
261.989 33.4991 0
257.166 34.819 0
498.489 19.2624 0
499.207 14.3143 0
473.05 38.1051 0
469.795 41.9005 0
66.083 42.5597 0
66.2749 47.556 0
299.41 52.0413 0
295.348 49.1264 0
154.51 49.8708 0
156.157 45.1499 0
5.19392 14.6578 0
10.0899 15.6724 0
190.069 59.7737 0
194.902 58.4933 0
220.742 53.0077 0
220.89 48.0099 0
4.26529 59.1333 0
5.90363 54.4094 0
344.195 12.3175 0
339.42 10.8345 0
92.8787 40.4522 0
90.1885 36.2376 0
288.511 38.9365 0
284.8 42.2872 0
355.666 11.6072 0
350.734 10.785 0
173.171 35.625 0
177.74 37.6544 0
465.038 21.3571 0
460.79 23.9944 0
486.3 57.719 0
481.769 55.6046 0
66.3008 24.299 0
67.1142 29.2324 0
47.4467 19.8241 0
45.7839 24.5395 0
115.299 2.2343 0
119.646 4.70461 0
289.026 18.9147 0
294.005 18.4559 0
479.643 57.0949 0
479.303 52.1065 0
281.373 24.0785 0
283.724 28.4915 0
223.82 14.1428 0
218.925 13.1279 0
180.722 31.0928 0
175.855 32.2408 0
45.6611 28.0829 0
50.4321 29.5788 0
408.472 36.1221 0
413.106 38.0013 0
217.911 47.3948 0
218.205 52.3861 0
285.24 53.2796 0
287.35 48.7466 0
313.792 19.1921 0
317.989 16.4757 0
342.553 21.7109 0
340.894 26.4278 0
377.554 48.6389 0
382.271 50.2982 0
434.381 38.9893 0
438.573 36.2648 0
467.951 50.1478 0
462.951 50.143 0
14.9838 16.7471 0
10.7022 14.165 0
46.5431 23.2214 0
43.0086 19.6848 0
146.794 51.7633 0
148.101 46.9371 0
239.463 6.61151 0
241.72 11.0733 0
127.542 26.1754 0
132.475 25.3624 0
337.538 33.0239 0
335.605 37.6353 0
109.462 19.4091 0
114.301 18.1495 0
110.568 51.8434 0
107.81 47.6724 0
345.065 13.7956 0
340.736 11.2932 0
211.822 52.4607 0
207.195 50.5667 0
499.94 40.9402 0
498.57 36.1316 0
262.155 29.8616 0
257.166 29.5298 0
272.943 47.5592 0
268.665 50.1474 0
92.065 45.9155 0
95.8649 49.1652 0
178.174 44.0631 0
173.497 45.83 0
248.397 41.2666 0
250.534 36.746 0
65.4856 43.6447 0
63.5008 48.2338 0
65.7256 40.8196 0
60.7374 41.1628 0
137.377 10.2672 0
139.675 5.82623 0
377.113 44.0604 0
374.889 39.5822 0
277.653 46.0009 0
272.711 45.2418 0
146.549 27.7085 0
143.436 31.6209 0
289.976 52.7566 0
286.141 49.5486 0
349.342 48.8183 0
344.426 47.9042 0
170.785 20.4479 0
166.534 17.8157 0
153.927 48.4251 0
155.465 53.1827 0
495.679 47.5487 0
498.166 43.2115 0
123.296 14.6598 0
127.832 16.7636 0
472.473 38.5373 0
474.901 42.9084 0
401.2 51.3048 0
397.13 48.4004 0
75.7944 35.3453 0
72.403 31.6714 0
338.844 29.774 0
339.319 24.7967 0
444.508 29.1147 0
439.521 29.477 0
144.5 56.9411 0
149.492 56.6571 0
42.9963 17.4244 0
44.6497 22.1431 0
312.479 23.0614 0
307.59 22.0181 0
141.135 25.3443 0
140.623 20.3705 0
419.219 46.9017 0
423.885 48.6978 0
298.428 10.6166 0
303.253 9.30561 0
359.502 30.5196 0
355.164 33.0069 0
334.927 46.8691 0
330.222 48.5629 0
301.418 14.2119 0
303.716 18.6524 0
374.963 50.6953 0
374.601 55.6822 0
6.32171 14.6019 0
8.42596 19.1375 0
371.136 0.256327 0
376.127 0.550873 0
409.977 54.8905 0
414.942 54.3059 0
168.468 51.289 0
173.45 51.7127 0
480.426 26.4309 0
477.911 30.752 0
480.319 17.679 0
475.661 19.4969 0
265.158 51.081 0
266.578 46.2868 0
260.541 18.078 0
255.859 16.322 0
281.531 46.3288 0
282.962 51.1196 0
60.8468 35.3923 0
58.8308 39.9678 0
90.6371 55.6225 0
93.8642 51.8034 0
58.5552 19.0509 0
62.2754 22.3915 0
40.3242 48.5568 0
35.3362 48.2114 0
477.663 38.539 0
482.38 36.8804 0
334.522 43.8503 0
339.058 41.7467 0
188.707 11.0235 0
185.181 7.47834 0
118.562 1.10289 0
120.917 5.5137 0
387.006 15.047 0
389.105 10.5087 0
244.16 4.40558 0
240.283 7.56312 0
145.067 41.0728 0
143.343 45.7663 0
168.148 50.186 0
167.997 45.1883 0
426.785 25.8869 0
423.021 22.5948 0
203.677 16.1987 0
207.129 19.8158 0
157.164 8.76529 0
152.561 6.81353 0
144.761 55.8008 0
141.897 59.8994 0
334.443 17.6446 0
337.348 21.7137 0
441.532 22.0899 0
443.514 17.4995 0
367.905 10.4218 0
369.923 5.84732 0
316.606 37.0192 0
319.304 41.2288 0
93.2823 54.427 0
91.7843 49.6567 0
128.652 49.3538 0
133.4 47.7872 0
126.344 57.0611 0
121.583 55.535 0
319.23 52.011 0
317.657 47.2651 0
139.892 57.5335 0
135.148 55.9541 0
74.7949 8.97063 0
78.3343 12.5023 0
12.6548 19.0186 0
11.5806 23.9018 0
34.6605 2.97499 0
31.8077 7.0813 0
457.791 52.5551 0
453.628 55.3247 0
343.324 51.5851 0
347.212 48.4408 0
387.619 11.5978 0
389.743 16.1243 0
419.472 24.7824 0
424.469 24.9728 0
34.7276 53.7322 0
30.1512 51.7182 0
495.223 5.1591 0
498.471 8.96085 0
426.809 52.388 0
428.986 56.8894 0
464.52 31.0701 0
463.506 26.174 0
10.7804 24.4045 0
6.07777 26.103 0
384.496 41.5386 0
389.405 40.5867 0
417.519 51.3312 0
415.226 55.7747 0
347.309 30.4409 0
345.783 35.2024 0
358.257 51.5557 0
356.113 47.0387 0
427.513 12.6233 0
422.874 10.7575 0
12.3991 23.5695 0
8.61456 20.302 0
138.37 49.5342 0
143.158 50.9721 0
164.326 26.0426 0
160.531 22.7877 0
419.976 22.4021 0
415.779 19.685 0
461.174 18.5808 0
462.815 13.8578 0
351.88 35.9785 0
351.59 30.9869 0
308.317 4.10061 0
311.908 7.57949 0
21.4434 9.49862 0
16.4562 9.85613 0
45.7679 8.44412 0
40.9305 7.1795 0
58.4962 40.8799 0
55.5051 44.8865 0
473.84 21.2461 0
471.157 17.0271 0
345.228 25.0861 0
348.529 21.3306 0
295.949 19.5671 0
297.221 14.7317 0
481.578 33.1768 0
486.452 32.0592 0
377.1 50.5175 0
377.461 45.5305 0
288.43 19.6228 0
285.238 23.472 0
429.286 4.24193 0
432.107 8.36983 0
112.789 3.6372 0
117.672 2.56053 0
186.406 55.7614 0
187.158 50.8182 0
390.488 43.9512 0
388.019 48.2993 0
225.149 8.99485 0
230.087 9.78062 0
463.389 30.831 0
463.786 35.8152 0
198.355 43.016 0
193.589 44.5273 0
218.875 28.6303 0
217.499 23.8232 0
230.002 45.0718 0
233.423 41.4257 0
39.4673 17.0361 0
43.4207 20.0973 0
431.394 4.21018 0
432.686 9.04029 0
314.693 7.47691 0
312.408 11.9242 0
384.75 28.4184 0
381.512 32.2281 0
0.656551 31.1555 0
4.61945 28.1066 0
399.782 53.5741 0
400.284 48.5993 0
364.828 8.72981 0
365.058 3.73514 0
427.94 20.7163 0
428.638 15.7654 0
79.2734 5.70373 0
83.1957 8.80472 0
149.204 45.2574 0
144.604 43.2986 0
404.239 10.2633 0
400.214 13.2296 0
179.953 40.6556 0
184.058 43.5094 0
20.7069 55.9525 0
24.7973 53.0769 0
270.693 25.4182 0
268.35 29.8356 0
20.4269 34.0544 0
18.9315 38.8255 0
131.315 2.04521 0
128.238 5.98601 0
158.042 34.9203 0
163.029 35.2732 0
305.725 39.5699 0
310.641 40.4836 0
35.6084 48.6966 0
31.0132 50.6674 0
491.788 33.1844 0
492.247 38.1632 0
216.413 54.7414 0
219.887 51.1458 0
98.3957 2.78824 0
102.768 5.21314 0
124.635 54.775 0
120.019 56.6955 0
290.65 22.0029 0
294.705 19.0773 0
167.99 56.848 0
168.185 51.8518 0
0.509274 4.05088 0
2.79415 8.49828 0
37.1277 49.2656 0
34.2091 45.2058 0
239.916 24.9384 0
242.13 20.4552 0
261.674 28.5684 0
266.273 26.6064 0
68.2238 47.1109 0
68.4305 52.1067 0
290.058 52.7685 0
293.283 56.5894 0
183.205 38.751 0
182.957 43.7449 0
473.975 53.5767 0
473.725 48.5829 0
489.346 9.91282 0
494.331 10.2939 0
382.666 10.2939 0
377.885 11.7559 0
136.908 11.7155 0
138.526 16.4464 0
471.397 45.4958 0
474.691 41.7344 0
277.787 23.3764 0
279.495 18.6768 0
497.104 24.5264 0
496.002 19.6494 0
193.433 5.33901 0
188.771 7.14514 0
321.551 41.0421 0
318.273 37.2667 0
108.456 53.7034 0
113.387 52.8735 0
212.235 51.7701 0
216.389 48.9868 0
173.337 22.9342 0
168.764 20.9107 0
432.352 40.9765 0
427.435 41.8857 0
392.637 4.51102 0
392.592 9.51082 0
110.297 49.687 0
115.23 50.5058 0
440.884 27.836 0
442.21 23.0149 0
40.3114 2.79013 0
35.9534 0.339129 0
106.857 51.5235 0
102.876 54.5488 0
177.62 48.3437 0
180.248 52.5977 0
84.8029 7.99128 0
87.0584 12.4537 0
360.835 3.33299 0
365.702 2.18827 0
259.752 50.0226 0
260.887 54.8919 0
57.4109 57.1288 0
62.3011 56.0867 0
31.3737 31.4018 0
34.7174 35.1192 0
441.599 46.8176 0
436.995 48.7669 0
14.7551 31.9759 0
18.9732 29.2911 0
411.888 26.1241 0
416.699 24.7627 0
180.602 37.9182 0
175.613 37.5934 0
423.782 12.204 0
419.061 13.8525 0
118.478 6.23139 0
114.554 9.33039 0
375.566 32.2211 0
379.657 35.0965 0
379.785 30.7755 0
383.063 34.5514 0
466.001 57.3693 0
463.328 53.1436 0
138.854 36.0555 0
143.78 35.199 0
100.84 7.52081 0
96.5955 10.1635 0
306.535 22.3175 0
309.665 26.2167 0
343.191 50.5922 0
344.734 45.8363 0
369.13 26.4466 0
364.146 26.038 0
172.1 9.93243 0
176.969 11.0688 0
176.712 35.9657 0
177.058 30.9777 0
457.829 13.0836 0
462.353 10.9544 0
480.704 30.3061 0
485.549 29.0725 0
120.951 49.4155 0
125.901 50.1271 0
149.008 23.6127 0
153.906 22.6095 0
28.2691 33.101 0
32.5544 30.5249 0
35.5981 6.26065 0
33.6748 1.64538 0
67.783 45.6135 0
63.1018 47.3702 0
73.7948 39.1004 0
74.2553 44.0791 0
57.9962 23.9759 0
53.4297 26.0123 0
323.605 54.9044 0
325.013 50.1067 0
130.503 15.1982 0
125.566 15.9878 0
31.5973 23.621 0
26.5977 23.685 0
474.308 31.0439 0
479.271 31.6454 0
79.0995 52.9686 0
83.9591 54.1453 0
225.114 48.1665 0
222.131 52.1795 0
243.897 41.1326 0
247.732 37.9253 0
469.567 23.7424 0
471.674 19.208 0
262.538 23.2459 0
260.711 18.5918 0
338.928 8.53165 0
336.571 12.9413 0
150.477 34.5373 0
150.179 39.5285 0
152.973 57.1015 0
157.968 56.8738 0
486.822 3.89391 0
491.79 3.3294 0
56.8962 21.523 0
61.8891 21.7879 0
111.942 1.59095 0
110.655 6.42245 0
372.89 40.9289 0
377.885 40.6987 0
346.643 55.5335 0
344.275 59.9372 0
108.189 52.999 0
103.208 53.4325 0
261.321 14.7403 0
260.043 19.5742 0
65.0945 38.4339 0
65.3771 43.4259 0
221.859 21.3475 0
216.874 21.7355 0
28.1761 29.9291 0
25.4403 34.1143 0
169.83 41.4369 0
172.796 45.4625 0
269.89 25.8811 0
270.742 20.9542 0
495.299 52.7979 0
491.918 56.4807 0
368.006 10.2187 0
366.523 5.44377 0
342.859 37.1001 0
347.841 36.6687 0
342.534 29.7015 0
347.408 28.5879 0
126.657 19.6887 0
128.33 14.9769 0
289.73 26.6355 0
286.907 30.7626 0
370.543 1.43305 0
371.179 6.39252 0
111.196 16.2522 0
112.389 11.3965 0
154.978 40.4932 0
149.985 40.2342 0
372.955 27.2786 0
367.999 26.6156 0
333.708 8.28615 0
329.796 5.17234 0
347.459 26.781 0
344.117 23.0618 0
368.722 53.995 0
370.202 49.2189 0
309.696 41.8229 0
305.095 39.866 0
113.55 20.4328 0
110.583 16.4086 0
165.06 3.88796 0
163 8.44414 0
139.697 32.6454 0
137.087 36.9103 0
420.827 40.2554 0
423.086 44.7161 0
193.067 18.3969 0
194.642 13.6517 0
81.7621 56.9694 0
86.6133 58.1801 0
286.302 55.369 0
286.456 50.3714 0
385.918 11.0891 0
384.138 6.41668 0
150.373 2.68216 0
151.059 7.6348 0
440.402 50.2491 0
444.119 46.9045 0
416.593 5.00087 0
414.024 9.29034 0
250.938 26.084 0
254.188 29.8835 0
390.996 43.4924 0
386.746 46.1271 0
438.292 33.6708 0
443.286 33.4301 0
4.29757 25.2294 0
8.80519 23.0658 0
37.1649 50.1216 0
40.5381 46.4309 0
99.6903 42.4558 0
104.427 40.8538 0
215.725 27.5833 0
219.644 24.4786 0
59.4826 53.4527 0
64.1548 51.6721 0
286.43 16.9085 0
290.424 19.9166 0
302.801 47.3979 0
302.168 42.4382 0
270.647 34.4446 0
274.34 31.074 0
256.578 45.9492 0
252.071 48.1136 0
102.045 57.2153 0
98.7625 53.4434 0
343.609 59.1325 0
348.588 58.674 0
230.237 8.6553 0
225.323 9.58215 0
357.514 18.4794 0
359.415 23.104 0
458.299 25.219 0
461.597 28.977 0
377.764 53.7992 0
381.498 50.4732 0
284.835 56.2679 0
289.289 53.9959 0
158.43 37.6822 0
158.239 42.6785 0
420.546 18.69 0
416.061 16.4806 0
266.699 38.3656 0
264.705 33.78 0
282.33 26.9975 0
277.345 26.6048 0
80.3791 45.5267 0
76.3997 48.5541 0
321.505 17.4303 0
325.488 14.409 0
409.161 40.0893 0
408.179 44.9919 0
430.551 54.9034 0
433.394 59.0165 0
277.085 20.7641 0
277.214 25.7624 0
198.496 8.64873 0
201.177 12.8691 0
364.312 34.8613 0
359.781 36.9754 0
407.341 11.7414 0
403.862 8.15076 0
471.72 56.0145 0
476.716 56.2113 0
272.842 30.7866 0
271.939 25.8689 0
454.486 28.4076 0
457.708 32.2315 0
282.097 14.2997 0
281.763 19.2886 0
110.762 44.2641 0
114.262 47.8348 0
9.22269 32.7061 0
10.5571 27.8875 0
329.945 53.2055 0
334.316 50.7779 0
228.543 38.7373 0
223.543 38.7935 0
408.583 6.66144 0
404.413 9.41944 0
243.737 16.4973 0
240.552 12.6427 0
316.063 20.6465 0
317.993 25.259 0
260.857 49.3898 0
255.893 49.9827 0
300.524 5.09662 0
300.5 0.0966809 0
408.168 53.7437 0
405.926 49.2746 0
402.154 19.8879 0
401.082 15.0042 0
317.48 43.7193 0
313.346 46.5307 0
381.6 59.1588 0
384.938 55.4359 0
172.659 52.2797 0
177.559 53.2774 0
315.729 45.1265 0
310.733 44.9158 0
84.3007 17.4353 0
81.3069 21.4399 0
335.919 33.1457 0
332.746 37.0094 0
378.679 25.4265 0
374.051 27.3177 0
75.042 8.16612 0
79.4969 5.89593 0
82.2676 5.29675 0
79.1551 9.20983 0
208.722 9.74153 0
208.142 4.77533 0
486.757 15.9955 0
486.816 20.9952 0
150.263 55.6365 0
145.919 58.111 0
384.592 26.3553 0
379.753 25.0957 0
10.6548 58.1089 0
9.70963 53.199 0
316.932 28.0033 0
316.873 33.0029 0
158.421 4.80342 0
162.57 2.01213 0
61.9827 40.2047 0
57.0023 39.7627 0
133.714 25.3496 0
129.521 22.6255 0
462.85 38.376 0
458.006 39.6174 0
159.117 16.1667 0
154.144 16.686 0
319.425 33.9549 0
321.259 29.3035 0
476.204 54.7427 0
477.849 50.021 0
499.383 19.7036 0
494.785 17.7398 0
317.44 51.5078 0
322.234 50.0882 0
391.981 44.1994 0
396.981 44.1782 0
473.293 21.2576 0
469.584 17.9044 0
239.326 28.7304 0
241.922 33.004 0
131.295 1.08852 0
127.04 3.71434 0
47.0461 41.1305 0
51.8741 42.4307 0
359.109 42.6036 0
363.9 44.032 0
10.6889 12.7484 0
11.1873 17.7235 0
265.466 27.6223 0
267.957 23.2875 0
276.293 49.1938 0
280.896 51.1457 0
362.538 40.0495 0
357.583 39.3798 0
240.435 20.9628 0
238.533 25.5869 0
89.5362 21.1892 0
87.5428 25.7746 0
370.63 48.4888 0
366.895 51.8131 0
52.6204 27.234 0
56.6591 30.1817 0
88.6667 4.38233 0
93.5033 3.11478 0
140.634 50.7922 0
137.609 54.7733 0
47.9029 19.73 0
43.9684 22.8154 0
127.442 2.91241 0
132.098 4.73369 0
324.063 0.986607 0
329.056 1.25335 0
122.989 46.0164 0
125.582 41.7413 0
447.197 25.9702 0
443.941 22.1749 0
129.3 18.6697 0
125.693 22.1322 0
134.057 24.1102 0
134.905 19.1827 0
336.538 16.4667 0
340.063 12.9205 0
415.819 49.4884 0
410.821 49.3505 0
359.742 6.42514 0
354.866 5.31839 0
460.315 36.8984 0
465.107 38.3253 0
276.788 47.9946 0
273.291 44.4208 0
313.148 20.0376 0
312.951 25.0337 0
332.975 5.17667 0
329.021 8.23727 0
282.433 25.2251 0
285.074 29.4707 0
249.142 8.30714 0
249.56 13.2896 0
160.584 16.4775 0
159.427 21.3419 0
3.49669 59.7329 0
8.49077 59.9761 0
59.887 38.1456 0
60.0587 43.1426 0
248.857 31.303 0
253.544 33.0437 0
29.1137 24.3592 0
32.6055 20.7804 0
332.796 35.1351 0
332.133 30.1792 0
446.152 30.6016 0
442.487 34.0035 0
412.507 28.5052 0
410.003 24.1769 0
240.25 35.8056 0
240.868 40.7672 0
324.23 32.6337 0
320.367 29.4596 0
259.243 26.992 0
255.456 30.2564 0
370.014 13.4189 0
371.733 18.1137 0
299.969 13.448 0
294.972 13.2563 0
194.156 41.9103 0
191.796 46.3185 0
209.107 19.186 0
212.594 15.6032 0
131.19 29.6937 0
129.095 34.2336 0
344.792 36.4454 0
348.392 32.9763 0
469.429 34.6619 0
464.433 34.4598 0
193.572 8.41891 0
190.227 12.1356 0
451.486 41.7249 0
449.544 37.1177 0
280.005 53.8317 0
275.495 51.6731 0
197.588 59.6508 0
201.408 56.425 0
35.2058 55.0913 0
33.5992 50.3564 0
407.85 15.0731 0
404.755 18.9997 0
213.681 30.6667 0
218.502 29.3429 0
195.784 41.3921 0
200.426 43.251 0
25.5286 37.775 0
27.8123 33.327 0
68.9573 40.48 0
68.7037 45.4736 0
497.974 25.8275 0
497.8 30.8245 0
427.858 43.7041 0
423.048 45.0713 0
118.507 4.21381 0
118.013 9.18931 0
149.568 10.9646 0
144.586 11.3878 0
467.796 8.70381 0
466.499 3.87492 0
231.637 7.86353 0
234.483 11.975 0
7.33422 6.01116 0
11.1046 9.29507 0
197.746 15.5723 0
201.138 11.8986 0
409.59 49.4384 0
414.523 50.2548 0
4.3402 31.647 0
1.63059 27.4448 0
130.004 38.2928 0
134.293 35.7229 0
265.706 7.60221 0
262.393 3.85737 0
319.078 55.0065 0
321.698 50.748 0
358.788 12.328 0
354.601 9.59469 0
296.19 4.16183 0
300.964 5.6491 0
410.082 54.0907 0
410.212 49.0923 0
467.639 2.19994 0
466.268 7.00844 0
317.721 51.0886 0
315.935 55.7586 0
290.243 56.3927 0
285.346 57.4038 0
394.75 6.07211 0
399.21 3.81239 0
155.143 52.3605 0
159.848 50.6694 0
343.385 16.4432 0
348.239 15.2473 0
257.712 49.1487 0
257.602 54.1474 0
104.711 52.173 0
109.197 54.382 0
424.226 39.1666 0
423.584 44.1253 0
89.1991 17.4657 0
87.1117 12.9223 0
482.026 19.3682 0
483.844 14.7104 0
23.9017 22.8502 0
19.7089 20.1261 0
329.199 54.8959 0
332.844 51.4735 0
17.8401 45.6461 0
18.1508 50.6364 0
151.403 39.1916 0
146.749 41.0197 0
410.784 47.4732 0
414.479 50.8412 0
332.732 39.1495 0
331.69 34.2591 0
414.206 21.7754 0
414.034 16.7784 0
252.744 51.3841 0
253.545 56.3194 0
206.981 18.6686 0
202.228 20.2203 0
151.356 48.9087 0
151.328 53.9086 0
274.054 21.1677 0
278.181 18.3459 0
424.882 22.513 0
424.223 17.5566 0
35.9322 53.7723 0
31.0843 54.9962 0
378.789 19.0157 0
376.269 23.3343 0
19.8036 21.9386 0
16.2135 18.4585 0
107.928 56.391 0
112.216 58.9636 0
399.505 9.77531 0
397.159 14.1906 0
32.2386 26.9192 0
27.7446 29.1109 0
138.821 10.862 0
134.016 12.2445 0
272.58 18.575 0
273.812 13.7292 0
369.093 34.5836 0
367.902 39.4395 0
111.012 48.7674 0
115.367 51.2235 0
280.458 2.74194 0
276.772 6.12095 0
49.6013 19.3072 0
51.2281 14.5792 0
285.109 39.3142 0
284.288 34.3822 0
247.014 33.0243 0
250.849 29.8161 0
167.119 19.495 0
163.926 23.342 0
46.5839 6.70463 0
45.4281 11.5692 0
146.794 45.2298 0
143.943 49.3378 0
327.354 22.6395 0
322.45 23.6125 0
141.174 29.4579 0
136.523 31.291 0
467.572 46.3292 0
465.59 50.9194 0
22.5484 15.4623 0
20.5779 10.8669 0
267.002 9.46171 0
263.829 5.59683 0
252.577 50.3221 0
248.674 53.447 0
59.9343 3.25443 0
56.6293 7.00636 0
241.028 38.1961 0
236.343 36.4494 0
284.001 51.6847 0
279.03 51.1493 0
84.6145 22.3053 0
84.0911 27.2779 0
130.919 15.4033 0
127.113 12.1615 0
21.3518 41.5907 0
20.2443 36.7149 0
52.5868 1.3579 0
48.2573 3.859 0
444.022 2.92921 0
439.82 5.63817 0
18.9661 19.0787 0
16.6865 23.5287 0
110.479 48.2153 0
108.664 43.5564 0
246.839 38.3293 0
249.012 33.8262 0
67.6807 1.93753 0
72.4623 0.47596 0
379.575 45.4373 0
384.374 46.8425 0
314.762 47.6042 0
309.836 46.7436 0
144.232 24.1361 0
149.125 25.165 0
416.77 17.4799 0
412.091 15.7174 0
442.472 50.6361 0
439.451 46.652 0
418.931 53.4161 0
413.968 54.0187 0
444.511 3.46738 0
441.063 7.08835 0
84.2481 8.67818 0
87.4486 12.5197 0
120.782 26.1002 0
116.892 22.9582 0
4.37856 45.4711 0
9.36387 45.0882 0
419.624 6.87423 0
419.763 11.8723 0
350.317 35.0797 0
355.298 34.6437 0
383.743 9.56357 0
388.445 11.2655 0
372.198 13.7129 0
377.046 12.4914 0
468.714 11.4461 0
473.565 10.2356 0
471.474 55.308 0
466.976 53.1253 0
159.047 1.5163 0
154.974 4.41666 0
125.68 44.6898 0
130.538 45.8742 0
49.9729 3.54261 0
48.3279 8.26425 0
451.236 52.6944 0
449.997 57.5385 0
428.509 53.8568 0
430.478 58.4525 0
41.1175 51.5923 0
44.178 47.6383 0
64.7016 34.5887 0
62.819 29.9567 0
465.781 38.3715 0
460.806 37.8746 0
292.983 22.8398 0
289.532 26.4578 0
393.49 43.5626 0
388.521 44.1216 0
459.894 31.625 0
462.27 27.2259 0
480.985 55.4516 0
483.305 51.0224 0
115.795 19.0617 0
116.946 23.9276 0
256.497 9.83863 0
252.064 7.52637 0
390.442 13.0088 0
385.976 15.2587 0
332.778 50.1539 0
337.259 47.9343 0
86.1047 44.0176 0
90.5026 41.6388 0
466.682 37.0916 0
461.695 37.453 0
315.894 12.5503 0
320.636 10.9627 0
42.4464 39.4113 0
40.3826 34.8571 0
378.636 36.6492 0
382.157 33.0991 0
119.678 39.6383 0
124.651 39.1143 0
385.832 41.7959 0
380.834 41.9214 0
259.762 43.0495 0
264.753 42.7578 0
423.154 15.8514 0
418.869 13.2747 0
113.216 8.9015 0
108.219 8.75088 0
495.36 28.5977 0
493.702 33.3148 0
327.25 45.554 0
322.408 44.3095 0
436.539 52.2292 0
436.172 47.2427 0
147.234 7.52066 0
145.218 2.94521 0
29.6151 22.5691 0
34.3395 20.9321 0
381.378 44.2101 0
377.925 47.8263 0
187.272 30.049 0
188.819 34.8036 0
116.792 26.3771 0
113.687 22.4576 0
423.239 11.0034 0
418.243 11.2159 0
231.615 57.2116 0
228.977 52.9639 0
317.035 8.66748 0
315.463 3.92117 0
263.471 41.6697 0
268.014 43.7582 0
270.811 19.2248 0
265.936 18.116 0
19.1125 16.8163 0
20.8659 21.4988 0
384.973 23.7054 0
387.661 19.4895 0
370.792 42.4222 0
367.072 39.0812 0
71.9994 13.9085 0
67.3905 15.8472 0
236.479 58.8327 0
233.756 54.6393 0
471.285 5.21843 0
476.281 5.01168 0
344.762 45.5798 0
346.726 40.9817 0
5.13893 23.2273 0
2.77581 18.8209 0
170.708 51.0611 0
166.95 47.7629 0
310.303 18.4704 0
315.101 17.0657 0
386.371 28.6774 0
382.426 31.7502 0
34.457 10.9598 0
37.0031 6.65666 0
63.461 53.5872 0
59.9909 57.187 0
146.38 14.057 0
148.238 18.6992 0
230.134 31.7011 0
235.073 30.9224 0
352.274 27.0137 0
348.101 24.2595 0
444.036 4.13095 0
439.04 4.33823 0
118.995 43.3205 0
121.34 38.9044 0
444.919 27.8577 0
449.555 29.7304 0
121.503 52.26 0
116.504 52.1755 0
110.005 55.6103 0
107.014 59.6167 0
240.305 39.8647 0
237.951 35.4536 0
377.338 39.0929 0
373.623 35.7467 0
422.981 4.68397 0
426.295 8.42802 0
220.772 58.4376 0
221.713 53.5269 0
305.707 52.77 0
305.736 57.7699 0
291.709 4.84478 0
286.717 5.12596 0
474.64 33.1833 0
479.555 32.2644 0
113.983 41.1679 0
112.875 46.0437 0
51.461 41.8041 0
56.2665 40.423 0
3.7792 39.8588 0
7.89822 42.6932 0
201.923 19.3874 0
204.905 15.3744 0
104.584 7.98252 0
99.6285 7.31755 0
304.805 50.9876 0
299.942 52.147 0
206.914 52.5537 0
202.56 55.0124 0
47.6983 14.0008 0
52.1617 11.7472 0
117.918 31.4943 0
114.69 35.3123 0
167.72 48.0252 0
170.715 44.0217 0
172.696 5.24343 0
171.258 10.0322 0
152.515 59.9421 0
155.388 55.8496 0
164.467 55.9276 0
168.624 53.1499 0
137.958 33.7238 0
134.998 29.6936 0
410.097 35.5257 0
415.094 35.7056 0
242.788 14.6796 0
246.321 18.2171 0
19.6311 58.0449 0
19.984 53.0574 0
292.411 55.7444 0
296.53 58.5794 0
372.516 45.7294 0
370.307 50.2148 0
316.372 27.5499 0
311.889 29.7645 0
457.107 24.1945 0
461.787 22.4342 0
182.567 16.3253 0
185.696 12.4253 0
447.908 18.847 0
443.514 21.2343 0
232.601 4.65626 0
230.154 0.295723 0
391.766 49.3691 0
396.765 49.4846 0
366.451 24.4233 0
370.659 21.7238 0
275.071 50.7617 0
271.298 54.0423 0
358.06 33.1478 0
360.376 37.5789 0
238.307 9.60422 0
238.473 4.60698 0
373.316 33.1553 0
371.031 28.708 0
152.134 20.6349 0
148.033 23.4948 0
156.886 8.17634 0
160.664 11.4512 0
58.889 45.8548 0
55.7461 41.9661 0
356.213 57.4545 0
361.184 57.9868 0
265.372 53.8396 0
260.47 52.8557 0
229.465 41.0682 0
228.126 36.2508 0
297.252 8.27446 0
301.21 5.21897 0
255.788 37.7057 0
259.796 34.7167 0
95.0272 14.4796 0
99.8473 15.8086 0
156.385 33.9401 0
152.37 30.9609 0
18.6842 19.3735 0
13.886 20.7797 0
35.9839 26.2899 0
33.1356 22.1804 0
6.43672 4.92931 0
2.1909 7.56994 0
335.746 31.6522 0
340.517 30.1578 0
377.82 33.0958 0
382.574 31.5466 0
491.855 9.01603 0
487.609 6.37571 0
362.345 30.3187 0
357.436 31.2635 0
2.50228 55.0719 0
7.47824 54.5821 0
441.208 20.8433 0
440.018 15.9871 0
29.963 42.5392 0
25.0017 41.9186 0
459.431 24.0264 0
463.73 21.4739 0
173.55 52.0499 0
176.84 48.2847 0
446.637 44.0846 0
441.642 43.8557 0
63.8957 22.1763 0
59.4671 19.8553 0
306.049 5.49718 0
307.014 0.591084 0
417.034 37.8343 0
422.033 37.7041 0
381.231 34.3982 0
385.921 36.1293 0
368.885 51.8002 0
367.178 56.4997 0
60.6945 14.9564 0
56.6045 12.0803 0
245.612 18.0026 0
244.678 13.0907 0
165.001 16.6223 0
160.192 15.2515 0
57.6334 19.6826 0
58.2421 24.6454 0
64.2083 50.5555 0
62.1006 46.0214 0
290.543 51.3168 0
287.174 55.0111 0
362.766 30.3231 0
363.028 25.33 0
324.207 13.2315 0
323.39 18.1642 0
97.9075 44.4168 0
97.5159 49.4014 0
382.37 6.12665 0
383.185 1.19359 0
455.352 9.36285 0
451.898 5.74843 0
348.048 34.1976 0
348.16 39.1964 0
491.185 20.8972 0
493.18 16.3129 0
355.098 38.9196 0
350.139 39.5573 0
467.721 44.07 0
472.648 44.9239 0
26.4535 54.9323 0
26.274 49.9355 0
422.017 1.0291 0
424.065 5.59045 0
80.9594 7.08558 0
75.9904 7.64142 0
188.42 8.60748 0
189.939 13.3712 0
430.803 41.0775 0
430.756 46.0773 0
362.28 39.1036 0
362.176 34.1047 0
289.961 21.0985 0
292.103 16.5808 0
263.953 25.1 0
267.958 28.0937 0
282.703 52.4727 0
277.778 51.6117 0
343.634 33.0507 0
343.563 28.0512 0
84.1041 22.4073 0
85.6608 17.6559 0
189.92 59.3785 0
190.003 54.3792 0
285.118 32.5876 0
286.542 37.3806 0
449.642 22.3317 0
447.051 18.0553 0
323.97 55.7061 0
328.884 56.6298 0
82.5 15.4259 0
79.4379 19.3786 0
232.705 30.2197 0
231.834 35.1432 0
461.634 43.3926 0
457.272 40.948 0
351.359 33.1435 0
353.47 37.6761 0
11.3998 18.6127 0
6.92145 20.8363 0
432.691 33.7449 0
437.517 35.0549 0
401.018 17.5876 0
403.474 13.2324 0
206.223 0.85357 0
211.109 1.91352 0
305.297 41.6664 0
305.128 46.6636 0
5.8341 35.761 0
7.97634 40.2788 0
14.669 26.3149 0
15.5997 31.2276 0
186.458 53.5054 0
188.25 58.1733 0
206.004 9.27107 0
210.984 8.81415 0
415.357 29.5184 0
410.496 28.3471 0
177.334 35.982 0
182.325 36.2858 0
322.726 48.1831 0
319.402 51.9176 0
220.146 58.4222 0
225.132 58.0566 0
457.627 22.8434 0
455.151 18.4995 0
338.058 1.26087 0
334.403 4.67268 0
43.509 25.8272 0
43.8556 30.8152 0
472.766 5.09608 0
476.952 2.36054 0
148.242 39.7539 0
145.765 44.0973 0
413.162 42.6081 0
410.821 38.1901 0
272.881 46.2127 0
275.158 50.6639 0
236.789 12.205 0
234.447 16.6225 0
378.785 36.3651 0
374.321 34.1111 0
243.383 38.7098 0
247.005 35.263 0
333.971 16.842 0
337.653 13.4589 0
36.131 20.1077 0
31.2111 20.999 0
212.265 32.0291 0
211.031 27.1837 0
368.452 37.6242 0
365.329 41.5294 0
313.31 15.7762 0
309.789 19.3264 0
332.229 36.6335 0
336.633 39.0025 0
185.854 51.5328 0
181.581 48.9367 0
399.037 56.3298 0
394.263 57.8172 0
412.462 59.4057 0
407.878 57.4082 0
249.64 45.5192 0
252.961 49.2571 0
275.957 21.1808 0
271.274 22.9319 0
336.215 41.6168 0
331.272 42.3738 0
327.316 43.5527 0
329.801 47.8916 0
346.19 51.9229 0
350.571 54.3326 0
191.436 1.71456 0
186.467 2.26607 0
338.514 56.1175 0
339.772 51.2784 0
239.958 0.04038 0
234.988 0.588022 0
8.70423 41.7807 0
12.2662 45.2896 0
157.54 29.7339 0
154.003 26.1997 0
63.0825 54.1474 0
67.8198 55.7467 0
278.041 55.5916 0
273.264 57.0683 0
317.468 42.443 0
312.795 40.6648 0
348.728 28.7752 0
344.657 25.8722 0
113.829 20.7697 0
111.93 25.3948 0
15.2114 41.8771 0
20.1008 40.8312 0
185.933 39.782 0
182.323 43.2409 0
410.34 5.00167 0
415.234 6.02615 0
110.879 7.10549 0
115.726 5.8778 0
244.489 20.5052 0
248.401 17.3905 0
120.685 53.9412 0
116.307 51.5253 0
106.841 3.42247 0
102.23 1.49056 0
399.735 11.002 0
404.251 13.1492 0
20.6125 19.1967 0
25.3727 20.7267 0
392.507 54.6498 0
393.184 59.6038 0
443.932 14.491 0
439.486 16.7776 0
440.322 27.9745 0
441.363 32.8649 0
332.71 35.47 0
337.666 36.1322 0
435.904 53.1325 0
437.282 57.939 0
8.51038 47.6719 0
13.0154 49.841 0
120.925 22.781 0
125.618 24.5069 0
34.565 18.349 0
39.1568 20.3276 0
377.892 31.3045 0
372.949 30.5525 0
439.182 4.64196 0
439.549 9.62847 0
234.841 55.4841 0
236.76 50.8672 0
140.747 47.9647 0
143.345 43.6927 0
8.12766 5.12849 0
6.42031 0.429023 0
181.195 8.12589 0
176.476 9.77745 0
278.468 44.9237 0
273.472 45.1158 0
151.837 27.8729 0
149.284 23.5737 0
316.551 12.8604 0
321.44 11.8143 0
299.541 17.6809 0
294.549 17.9489 0
469.986 27.693 0
474.69 25.9978 0
107.359 22.418 0
111.013 19.0049 0
325.158 21.7978 0
320.359 20.3922 0
461.337 56.3737 0
465.078 59.6909 0
297.752 16.4318 0
301.42 13.0339 0
465.636 47.3827 0
466.123 52.359 0
484.279 29.4371 0
486.202 24.8219 0
333.119 29.4754 0
334.863 24.7893 0
323.743 17.6627 0
320.94 13.5223 0
377.948 41.7598 0
378.727 36.8209 0
385.795 32.0085 0
390.325 34.1235 0
68.9958 22.1865 0
65.2831 18.8376 0
33.1372 13.2702 0
31.2803 17.9126 0
48.3929 59.9051 0
49.0696 54.9511 0
369.188 12.2952 0
368.188 7.39618 0
299.354 8.28992 0
294.365 7.96396 0
147.706 9.143 0
148.855 4.27688 0
164.835 6.56108 0
160.083 8.11806 0
151.231 31.0718 0
146.292 30.2949 0
368.058 31.0182 0
372.852 29.5982 0
129.001 21.5867 0
133.936 22.3879 0
467.537 24.8458 0
471.417 27.9996 0
211.363 7.50624 0
207.704 10.9135 0
183.575 50.5823 0
184.139 45.6142 0
77.7547 7.79045 0
74.6445 11.7054 0
495.273 47.6741 0
495.859 42.7086 0
327.693 24.5543 0
329.534 29.2029 0
447.188 44.3617 0
450.615 40.7206 0
273.454 15.8559 0
277.433 18.8834 0
322.247 28.6002 0
317.552 30.3201 0
491.3 24.1402 0
488.393 20.0722 0
400.033 13.1231 0
399.669 8.13633 0
392.612 22.8095 0
387.751 21.6413 0
62.6173 21.5128 0
57.7192 20.5085 0
223.153 53.7405 0
224.859 58.4403 0
58.6175 45.1916 0
53.6734 44.4458 0
377.653 1.58385 0
374.056 5.0572 0
398.097 13.8308 0
399.919 18.4871 0
104.825 48.9067 0
108.3 45.3116 0
48.8403 31.834 0
51.994 27.954 0
213.059 59.7035 0
208.191 58.5611 0
242.855 24.2151 0
243.773 29.13 0
483.49 6.91665 0
484.477 11.8182 0
229.637 40.011 0
232.798 36.137 0
15.2023 51.2257 0
18.3136 55.1398 0
487.512 30.7751 0
484.593 34.8348 0
489.309 6.2466 0
493.64 8.74639 0
250.473 9.82971 0
255.432 10.4693 0
316.808 52.48 0
315.554 57.32 0
483.16 22.8689 0
478.714 20.5815 0
220.874 25.0699 0
221.715 20.1411 0
372.869 53.636 0
368.379 51.4371 0
166.838 12.2091 0
166.795 7.20932 0
37.1462 28.8692 0
38.3568 33.7204 0
348.82 47.4246 0
343.993 46.1218 0
444.377 59.4109 0
439.89 57.2041 0
5.2953 41.0125 0
6.03713 45.9572 0
440.714 7.95479 0
445.51 6.53989 0
174.779 47.6325 0
172.848 52.2446 0
199.637 52.6609 0
204.042 50.2947 0
19.683 42.4779 0
14.6982 42.8685 0
483.641 47.5523 0
478.643 47.7206 0
187.213 12.1679 0
182.213 12.1416 0
20.314 46.0436 0
16.9248 42.3675 0
441.667 22.6821 0
446.631 22.0815 0
375.064 11.8575 0
372.446 7.59764 0
228.303 40.3832 0
230.945 36.1382 0
258.294 18.0412 0
263.19 19.0544 0
287.106 17.5783 0
289.566 21.9315 0
484.13 35.6272 0
479.685 33.3364 0
83.8583 44.2641 0
88.1972 46.7487 0
449.442 34.8302 0
447.907 30.0715 0
43.0469 26.519 0
46.4535 22.8591 0
298.921 11.2464 0
298.14 6.30791 0
457.2 43.6687 0
461.552 41.2084 0
379.402 37.5066 0
384.106 39.2017 0
333.719 38.0942 0
330.668 42.056 0
336.673 9.74548 0
331.7 9.22494 0
24.6181 46.6482 0
29.4587 45.3956 0
318.139 6.50401 0
318.91 1.56371 0
52.0261 33.7346 0
53.5384 38.5004 0
457.359 20.4436 0
452.502 19.2574 0
308.805 42.8554 0
306.999 38.193 0
174.577 23.5568 0
172.859 18.8613 0
230.306 44.8399 0
233.493 40.9876 0
492.123 39.5572 0
489.99 35.0348 0
343.469 15.9933 0
341.645 20.6487 0
214.681 46.5268 0
209.888 45.105 0
451.215 47.2429 0
455.104 50.3851 0
134.049 7.52394 0
138.784 9.12995 0
312.355 55.0387 0
317.246 54.0021 0
408.289 5.66844 0
411.135 1.55768 0
59.4853 50.7017 0
62.2703 54.8543 0
66.6712 49.9362 0
71.4953 51.251 0
362.757 21.6044 0
365.78 17.6215 0
201.836 19.3796 0
206.75 18.4568 0
3.37497 31.126 0
4.46174 36.0065 0
209.796 17.661 0
213.742 14.5897 0
491.08 33.5268 0
486.188 34.5626 0
160.569 30.8298 0
156.543 27.8645 0
69.8493 40.9985 0
67.0317 36.868 0
427.139 16.2124 0
424.114 12.2317 0
422.264 53.9358 0
421.052 49.085 0
234.707 5.13027 0
233.594 0.255785 0
253.663 23.9406 0
258.445 25.4 0
211.264 34.7399 0
211.478 39.7353 0
345.456 18.777 0
346.945 14.0038 0
155.174 36.7867 0
155.206 41.7866 0
396.598 39.5174 0
392.337 36.9015 0
334.417 20.249 0
334.376 15.2492 0
7.01576 52.3646 0
10.8553 55.5674 0
464.935 14.0315 0
464.454 19.0083 0
155.541 47.4103 0
160.541 47.3272 0
136.787 56.6976 0
132.449 54.2116 0
335.765 46.8768 0
331.03 48.4818 0
42.5319 44.6648 0
41.5705 49.5715 0
397.868 16.0816 0
401.725 12.9001 0
15.6004 29.1517 0
18.7839 25.2961 0
250.551 19.235 0
253.454 23.3056 0
171.926 2.22074 0
168.806 6.12797 0
321.246 9.06109 0
321.621 14.0471 0
294.612 58.8456 0
291.734 54.7574 0
421.693 16.9704 0
418.631 20.9231 0
444.451 2.39527 0
447.692 6.2028 0
9.55769 21.4312 0
4.96442 23.4065 0
18.5705 16.8645 0
21.828 20.6577 0
358.199 37.0667 0
363.123 36.1987 0
439.031 21.2228 0
443.565 23.3312 0
264.636 6.70636 0
264.43 11.7021 0
196.378 48.8973 0
191.91 51.1397 0
384.986 49.8295 0
382.412 54.1165 0
263.589 18.8313 0
268.521 19.6524 0
183.595 51.7489 0
179.837 48.4503 0
140.397 4.81249 0
135.43 5.38566 0
487.671 9.02431 0
491.65 12.0515 0
52.2198 23.2038 0
51.3567 18.2789 0
26.0239 47.2396 0
22.6261 43.5715 0
182.974 37.7377 0
178.992 34.7141 0
279.025 46.549 0
283.444 48.8898 0
42.3788 50.6743 0
45.3319 46.6395 0
309.7 37.719 0
306.662 41.6907 0
232.273 36.4258 0
235.936 39.8292 0
312.688 24.3591 0
314.42 19.6685 0
184.003 30.555 0
187.15 26.6693 0
248.536 34.7983 0
244.551 37.8179 0
192.706 13.6039 0
190.537 18.1088 0
477.816 48.9962 0
474.736 45.0574 0
33.4211 4.5995 0
30.7289 8.81284 0
77.6087 17.6992 0
74.091 21.2524 0
47.4072 29.4873 0
42.6871 27.8379 0
160.617 18.3188 0
165.294 20.0871 0
76.3801 28.3504 0
77.0954 23.4018 0
216.602 11.9465 0
220.778 9.19675 0
247.12 11.0648 0
243.372 7.75541 0
50.015 47.3984 0
46.3301 44.0188 0
53.4375 42.7079 0
49.7172 46.0485 0
202.024 10.8162 0
205.021 6.81392 0
53.999 43.7129 0
58.7545 42.1686 0
80.793 7.24836 0
82.342 2.49436 0
61.478 28.5941 0
56.5735 29.5671 0
174.312 9.54131 0
177.878 6.03599 0
456.766 51.4225 0
452.548 48.7373 0
459.538 56.158 0
464.466 55.3138 0
131.751 32.0189 0
127.077 30.2434 0
104.14 54.8865 0
99.2601 55.977 0
417.565 48.2036 0
415.452 52.7354 0
172.651 3.15235 0
167.994 1.33247 0
481.756 16.1058 0
476.848 15.1547 0
178.841 29.4236 0
182.419 32.917 0
37.7381 46.2453 0
42.1638 48.572 0
165.113 13.4593 0
169.7 11.4681 0
282.965 41.5753 0
278.96 44.5681 0
235.667 1.63166 0
232.814 5.73792 0
337.19 12.4328 0
337.114 17.4322 0
442.287 10.9282 0
437.885 13.3009 0
464.842 49.1513 0
467.943 53.0735 0
384.804 43.6151 0
379.811 43.874 0
296.481 40.1191 0
291.628 38.9155 0
139.729 29.3902 0
142.571 25.2766 0
363.228 23.7478 0
358.23 23.9153 0
472.188 4.28433 0
477.176 3.94386 0
300.542 8.78051 0
295.775 10.288 0
245.909 51.126 0
248.003 55.6664 0
64.667 33.1016 0
62.248 37.4775 0
14.5786 15.8182 0
13.0595 20.5819 0
117.217 45.322 0
115.088 49.8463 0
122.771 3.5311 0
125.569 7.67484 0
379.954 21.9962 0
375.406 24.0715 0
26.2675 39.1169 0
21.2709 38.9316 0
49.4195 57.236 0
54.3734 57.9134 0
278.125 22.5725 0
277.914 27.568 0
472.774 50.1302 0
471.353 45.3363 0
401.062 9.40592 0
398.624 13.7713 0
21.5675 25.0077 0
16.6841 26.0813 0
39.7552 45.1984 0
41.9298 49.7007 0
89.5076 21.1843 0
88.3054 26.0376 0
420.889 49.9363 0
423.409 45.6175 0
234.547 22.3832 0
229.564 21.9803 0
69.4343 25.61 0
65.1752 22.9909 0
161.059 47.4366 0
165.985 46.5754 0
10.0003 42.7784 0
5.23649 41.2598 0
358.64 22.7688 0
356.901 18.081 0
111.785 12.4448 0
106.785 12.4654 0
197.27 50.1951 0
197.241 45.1952 0
40.8469 44.6177 0
35.9102 45.4106 0
410.883 32.6933 0
409.044 37.3429 0
185.792 5.93451 0
182.554 9.74469 0
54.5035 39.6846 0
56.8262 35.2568 0
266.466 15.9499 0
270.445 18.9784 0
476.717 29.9396 0
479.91 33.7878 0
378.543 53.1038 0
374.749 56.3598 0
88.1892 3.94284 0
85.4465 8.12342 0
402.852 57.0748 0
399.57 53.3031 0
365.768 25.6876 0
365.326 30.668 0
205.158 40.7062 0
204.631 45.6784 0
58.0099 10.1355 0
59.2975 5.30415 0
333.778 5.74985 0
328.796 6.17288 0
378.216 10.5497 0
382.477 7.93365 0
76.9849 54.7682 0
75.6797 49.9415 0
208.467 42.9683 0
213.416 42.2607 0
389.693 14.998 0
385.244 12.7156 0
71.497 30.211 0
68.5178 26.1955 0
40.7195 6.29092 0
45.0654 8.7634 0
253.962 11.5309 0
253.93 6.531 0
128.205 18.8136 0
125.782 14.4403 0
262.812 7.74624 0
258.87 4.66952 0
112.917 21.8557 0
114.987 26.407 0
429.667 28.05 0
431.331 32.7649 0
341.034 40.9089 0
344.97 43.9932 0
484.829 13.4511 0
480.043 12.0059 0
268.311 47.066 0
271.49 43.207 0
262.784 37.6712 0
267.698 38.5985 0
409.346 40.0786 0
411.215 35.4409 0
23.0383 54.6951 0
21.7442 49.8655 0
78.365 16.22 0
83.054 17.9559 0
166.086 48.2899 0
165.657 53.2715 0
236.055 16.9437 0
231.11 17.6881 0
180.005 33.0661 0
179.297 28.1164 0
85.85 28.218 0
85.2271 23.257 0
72.653 56.1452 0
74.774 51.6174 0
399.812 9.35383 0
398.688 4.48194 0
175.645 11.6622 0
172.32 15.3966 0
46.1743 38.2478 0
51.1275 38.9299 0
326.065 5.53834 0
329.099 9.51259 0
393.993 40.1814 0
398.99 39.9909 0
9.59895 54.7477 0
14.5812 54.3269 0
114.951 11.1245 0
119.571 13.0379 0
488.048 21.9295 0
490.95 17.8585 0
430.845 0.263368 0
435.483 2.13005 0
423.83 52.8346 0
422.568 57.6727 0
124.786 28.4253 0
121.993 32.5732 0
308.619 47.4389 0
303.858 48.9665 0
77.6209 44.9338 0
76.2442 40.1271 0
137.797 29.9136 0
142.635 31.1781 0
125.874 1.04353 0
130.867 0.79059 0
294.287 47.7538 0
298.389 44.8955 0
266.317 37.3035 0
261.375 36.5472 0
386.403 20.9512 0
391.285 19.87 0
418.469 21.104 0
413.857 19.1716 0
131.424 23.8933 0
133.809 28.2875 0
173.378 40.0204 0
175.213 35.3695 0
187.66 37.7939 0
184.121 34.2611 0
166.334 56.7304 0
170.336 53.7332 0
349.854 18.2729 0
351.599 22.9585 0
293.494 14.7659 0
290.766 10.5757 0
162.435 37.2119 0
158.998 33.5807 0
226.068 13.9227 0
224.856 18.7737 0
398.592 58.1212 0
402.897 55.5789 0
139.638 52.394 0
142.479 56.5087 0
140.942 3.05395 0
141.738 7.99019 0
134.873 24.5466 0
132.816 29.104 0
442.927 42.3181 0
437.991 41.5215 0
390.876 17.3848 0
388.066 21.5199 0
226.049 9.56647 0
228.093 5.00364 0
23.8413 20.4373 0
24.6819 25.3661 0
295.499 43.8869 0
291.151 41.4179 0
368.573 30.0568 0
367.683 34.9771 0
33.9667 8.95574 0
38.8876 8.06967 0
392.753 43.8713 0
395.839 47.806 0
396.841 7.52194 0
391.847 7.78546 0
173.592 0.356077 0
175.393 5.02042 0
169.579 35.9419 0
165.815 39.233 0
438.994 52.0683 0
443.785 50.6367 0
222.487 52.8303 0
226.755 50.2261 0
390.529 38.9286 0
393.423 43.0056 0
391.536 46.0225 0
394.763 49.8415 0
262.204 13.8178 0
261.837 18.8043 0
153.302 14.2762 0
148.358 13.5282 0
273.797 2.14406 0
269.011 0.696511 0
483.733 22.6096 0
486.81 18.6681 0
344.823 7.24755 0
341.185 10.6781 0
41.7914 24.6837 0
39.6907 29.221 0
311.079 11.6922 0
315.529 13.9718 0
16.2082 47.8893 0
19.9962 44.6257 0
354.533 7.11471 0
359.477 6.36487 0
102.58 7.21768 0
97.878 5.51851 0
156.636 11.8158 0
151.692 11.0758 0
323.837 55.9826 0
319.839 52.9791 0
10.7886 18.0642 0
15.1586 20.4938 0
167.374 0.551067 0
172.262 1.60548 0
234.384 56.7299 0
239.252 57.8721 0
45.8544 44.0367 0
46.2091 39.0493 0
340.951 35.5749 0
337.503 39.196 0
212.157 22.0326 0
211.974 27.0293 0
180.303 14.4021 0
176.281 17.3721 0
50.5128 31.8493 0
48.0095 27.521 0
450.417 17.4499 0
452.159 12.7632 0
389.696 7.01512 0
384.701 7.25387 0
51.5269 58.7971 0
46.5878 58.0187 0
201.953 48.7336 0
202.392 53.7143 0
283.077 30.1531 0
283.498 35.1352 0
328.909 58.1251 0
332.888 55.0971 0
298.601 7.649 0
294.199 10.0195 0
464.893 49.1205 0
462.187 44.9163 0
241.201 25.7747 0
238.912 30.2199 0
21.8094 31.7334 0
22.453 26.775 0
264.54 7.45665 0
264.852 2.46643 0
457.335 22.691 0
461.275 19.6118 0
82.2665 51.7187 0
85.1013 55.8374 0
125.805 59.3674 0
127.192 54.5636 0
361.496 13.4966 0
363.897 9.11118 0
144.859 49.6403 0
144.361 44.6651 0
342.384 23.9841 0
346.335 20.9191 0
410.199 49.1257 0
412.96 53.2937 0
299.176 3.93936 0
303.581 6.30502 0
163.619 18.2498 0
164.088 23.2278 0
67.0061 51.4061 0
67.6028 46.4418 0
272.575 37.9708 0
268.671 34.8479 0
71.9315 19.518 0
75.3195 23.1951 0
131.537 26.5798 0
131.413 21.5813 0
141.416 9.37969 0
145.673 6.75775 0
251.719 54.0271 0
256.505 52.5778 0
19.4974 14.9244 0
24.0526 12.8626 0
369.617 32.3703 0
370.381 27.4289 0
123.342 49.6397 0
122.376 44.7339 0
212.684 6.60781 0
207.852 5.32105 0
178.541 49.255 0
179.785 54.0976 0
126.4 29.3011 0
129.075 25.0771 0
323.379 13.669 0
325.048 18.3822 0
230.945 21.0431 0
227.98 17.0167 0
105.568 47.3535 0
104.733 52.2833 0
389.755 47.1428 0
385.061 45.4205 0
88.0092 43.0877 0
90.8795 47.1817 0
215.173 7.59006 0
220.105 6.76598 0
411.105 11.0902 0
407.823 14.8622 0
379.65 8.81751 0
382.105 4.46143 0
208.357 4.36264 0
203.863 6.55356 0
15.4835 22.4722 0
13.0039 26.8141 0
253.935 6.73059 0
256.962 2.75066 0
219.226 34.9433 0
214.274 34.2549 0
72.2273 50.9664 0
75.6486 47.3202 0
341.54 52.5036 0
346.391 53.7146 0
358.079 46.4992 0
358.643 51.4673 0
121.215 43.2611 0
122.918 47.962 0
439.607 38.455 0
443.812 35.7501 0
227.002 20.9795 0
231.88 19.8782 0
438.835 35.3627 0
439.22 30.3775 0
104.983 16.7477 0
104.52 11.7692 0
77.1642 22.2005 0
72.5535 20.2664 0
422.862 47.9949 0
425.736 43.9036 0
151.078 22.2427 0
150.983 27.2418 0
35.5483 31.0507 0
37.2919 26.3646 0
214.624 3.67712 0
213.351 8.5122 0
131.423 47.3939 0
128.89 43.0832 0
370.842 49.7272 0
365.842 49.7699 0
282.578 8.88183 0
282.545 13.8817 0
241.236 38.8425 0
243.548 34.4088 0
130.78 24.8396 0
128.971 20.1782 0
305.67 11.556 0
307.685 6.97997 0
283.717 8.60123 0
287.854 11.4095 0
108.497 37.7332 0
110.945 42.0928 0
307.627 47.3047 0
302.852 45.8226 0
203.723 43.1175 0
207.043 39.3784 0
99.5665 55.7032 0
101.66 51.1625 0
358.789 34.8592 0
363.608 33.5265 0
437.968 3.91849 0
442.451 1.70547 0
23.5792 39.3782 0
18.6649 38.4566 0
65.893 11.375 0
66.6429 6.43158 0
323.856 39.632 0
326.286 35.2625 0
130.555 45.9096 0
128.453 41.3728 0
495.253 49.671 0
498.997 52.9848 0
217.678 30.996 0
213.863 34.2276 0
463.979 3.67148 0
465.234 8.51162 0
54.2471 51.7316 0
50.5876 48.3244 0
429.523 41.8697 0
425.136 44.269 0
367.585 13.7995 0
371.02 10.1659 0
366.94 49.9585 0
366.385 54.9276 0
196.817 51.0795 0
193.812 47.0835 0
251.781 45.2312 0
247.566 42.5423 0
444.325 59.865 0
439.686 58.0006 0
208.68 23.9301 0
209.604 19.0162 0
242.55 24.1714 0
241.276 19.3366 0
18.0141 35.3113 0
22.0613 38.2473 0
169.427 41.1814 0
165.964 44.7885 0
334.773 20.1589 0
336.925 24.6721 0
302.55 5.61085 0
298.566 2.59005 0
359.87 53.7057 0
354.963 52.7432 0
276.393 43.7731 0
280.003 40.3138 0
364.263 30.8236 0
368.739 33.053 0
139.812 28.3878 0
144.596 29.8413 0
269.927 50.4189 0
266.502 54.0617 0
88.3028 26.5746 0
85.5893 22.375 0
4.89157 41.6433 0
6.06853 36.7838 0
222.337 32.4657 0
224.67 28.0429 0
247.806 12.3589 0
247.338 17.3368 0
80.5121 32.7084 0
79.9257 27.7429 0
251.556 31.8875 0
253.427 36.5244 0
384.746 41.604 0
387.26 45.9258 0
261.849 52.6858 0
257.51 50.2011 0
145.48 38.4357 0
140.636 37.196 0
377.368 32.8772 0
380.656 29.1104 0
89.6075 46.6568 0
86.6533 50.6908 0
309.907 40.9628 0
314.225 43.4845 0
451.445 11.5833 0
446.445 11.5871 0
410.321 14.3609 0
407.039 10.589 0
211.116 46.3537 0
213.925 42.2171 0
160.125 16.0332 0
163.891 12.7448 0
344.433 3.63101 0
340.283 6.4201 0
8.60076 58.0669 0
9.85107 53.2258 0
468.301 25.4315 0
465.465 21.3138 0
440.565 22.4955 0
437.655 18.4295 0
126.12 54.8698 0
124.402 59.5657 0
491.813 17.9322 0
488.478 14.2068 0
354.91 34.4016 0
350.069 35.6525 0
146.734 48.6221 0
150.715 45.5978 0
459.799 34.1545 0
464.3 31.9781 0
481.637 23.7777 0
478.712 19.7227 0
161.235 48.2922 0
158.991 43.824 0
473.042 47.3202 0
477.937 46.298 0
165.907 28.4235 0
161.194 26.7525 0
291.575 22.9774 0
287.481 20.1079 0
128.577 17.5141 0
126.755 12.8578 0
5.1931 37.9349 0
7.01069 33.277 0
336.73 11.7984 0
331.771 12.4379 0
12.404 1.8055 0
9.47153 5.85526 0
19.1011 1.76442 0
15.1659 4.849 0
9.90148 26.8981 0
14.8582 26.2415 0
301.171 6.36181 0
298.694 10.7051 0
191.454 36.0608 0
194.293 40.1767 0
434.839 9.20363 0
429.919 8.31578 0
24.4687 55.2992 0
19.5096 54.661 0
144.122 4.1151 0
149.122 4.12719 0
473.07 38.9026 0
478.069 38.9244 0
144.892 18.6426 0
139.902 18.9619 0
423.86 36.108 0
419.569 38.6742 0
0.569825 13.3158 0
5.40639 12.0479 0
265.519 46.6688 0
269.792 49.2666 0
292.366 16.696 0
297.366 16.7629 0
378.358 39.3074 0
374.665 35.9367 0
428.134 29.4441 0
426.939 24.589 0
210.007 14.0229 0
214.89 15.1005 0
435.319 9.95635 0
430.324 9.74577 0
342.139 53.4947 0
342.707 48.527 0
352.095 30.7622 0
352.498 35.7459 0
187.347 39.5021 0
187.517 34.505 0
315.053 5.54288 0
320.043 5.86517 0
440.243 33.493 0
437.777 29.1434 0
378.082 35.8365 0
376.83 30.9955 0
277.561 2.62548 0
272.957 0.676749 0
444.374 22.3326 0
445.973 27.0702 0
197.877 13.2915 0
202.373 11.1045 0
310.893 56.4792 0
311.998 51.6029 0
291.075 48.3872 0
289.006 52.9392 0
362.227 32.7087 0
364.975 36.8858 0
213.566 40.9879 0
215.461 36.3612 0
479.657 44.8524 0
476.686 48.8738 0
487.213 38.989 0
482.215 39.1236 0
337.004 36.4622 0
333.7 40.2151 0
244.54 26.6497 0
249.291 25.0912 0
103.966 17.1755 0
108.831 18.3267 0
90.8396 14.9754 0
95.4609 13.0666 0
63.084 3.79384 0
58.6988 1.39178 0
386.838 36.8916 0
383.233 33.4266 0
261.132 4.49768 0
265.465 6.99327 0
302.534 52.7132 0
300.687 57.3598 0
70.0394 43.1894 0
66.1667 46.3519 0
462.139 7.55623 0
466.816 9.32372 0
115.507 56.3896 0
111.116 58.7809 0
244.369 40.915 0
248.713 43.392 0
356.177 12.8269 0
353.861 17.2583 0
84.6847 18.9597 0
87.271 23.2389 0
41.5074 56.5964 0
44.8479 52.8761 0
263.822 9.08469 0
266.96 5.19228 0
381.066 36.0198 0
384.482 39.6706 0
62.7393 27.5 0
63.394 32.457 0
251.213 15.6682 0
250.825 20.6531 0
51.1367 3.19768 0
47.258 6.35304 0
289.774 20.5868 0
287.014 16.4177 0
111.415 37.4928 0
108.662 41.6667 0
456.549 25.5089 0
460.341 28.7683 0
430.534 32.2299 0
427.772 36.3977 0
461.014 7.80571 0
462.57 12.5573 0
471.996 41.9226 0
476.995 41.8209 0
359.909 54.5388 0
356.042 51.3694 0
176.716 21.0735 0
172.436 23.6595 0
7.72515 6.35519 0
12.6371 7.28928 0
119.39 40.1794 0
116.275 44.0903 0
239.232 25.8438 0
240.617 21.0393 0
297.452 8.89531 0
301.464 5.91132 0
475.988 3.73282 0
476.939 8.64148 0
144.965 50.7175 0
145.597 55.6774 0
135.617 10.6871 0
130.759 9.50404 0
32.6145 26.4011 0
29.3996 22.5718 0
258 41.2373 0
256.12 36.6041 0
268.114 34.6966 0
272.49 32.2789 0
252.777 32.0515 0
257.461 30.3033 0
222.315 16.5361 0
217.505 15.1701 0
439.456 0.587572 0
439.617 5.58499 0
26.207 6.15848 0
30.6213 3.81028 0
440.815 17.6422 0
443.528 21.8422 0
41.575 18.2771 0
39.5413 22.8448 0
53.4187 47.5418 0
55.3662 52.1469 0
331.124 53.6159 0
335.255 50.7994 0
149.725 9.10791 0
152.871 5.22181 0
238.62 19.1036 0
243.573 19.7862 0
152.369 5.61056 0
152.12 0.616741 0
233.298 19.0085 0
229.835 15.4018 0
217.169 18.6865 0
221.995 19.994 0
217.405 27.4993 0
222.299 26.4738 0
96.0256 42.0073 0
101.001 41.5137 0
467.98 46.421 0
471.959 43.3934 0
206.763 54.9149 0
208.897 50.3935 0
120.085 19.3658 0
118.059 23.9368 0
129.562 58.416 0
125.466 55.5482 0
9.45005 39.8225 0
12.7494 43.5794 0
23.6585 21.8501 0
20.9533 17.6451 0
445.974 55.7311 0
440.975 55.8482 0
253.962 7.26038 0
251.392 2.97137 0
244.426 49.7124 0
242.407 45.1381 0
27.5887 54.104 0
27.1534 49.123 0
31.7671 32.8687 0
36.7277 32.2419 0
269.332 11.6867 0
264.955 9.26968 0
150.651 15.4617 0
155.644 15.7161 0
223.113 14.5639 0
224.136 19.4581 0
214.321 55.8202 0
212.174 51.3046 0
171.084 50.8656 0
169.629 46.0818 0
136.996 45.6402 0
139.674 41.4181 0
279.189 51.6299 0
284.186 51.7936 0
38.4516 6.59462 0
38.523 1.59513 0
28.8198 44.2801 0
23.8204 44.3616 0
317.303 50.9981 0
318.115 46.0645 0
394.534 14.5957 0
393.028 9.82764 0
206.976 40.7666 0
210.62 44.1899 0
296.894 16.6207 0
301.386 14.4231 0
192.455 4.45405 0
195.454 0.453249 0
242.985 36.1483 0
243.138 41.146 0
41.1156 58.957 0
43.6996 54.6765 0
442.13 49.74 0
447.066 50.5375 0
464.275 25.3334 0
468.952 23.563 0
77.0892 34.8345 0
75.9965 39.7137 0
42.8323 7.74985 0
45.7523 3.6911 0
471.15 25.386 0
466.841 27.9225 0
35.2202 23.6729 0
32.1387 19.7354 0
417.585 34.1303 0
419.813 38.6067 0
5.42345 54.8674 0
4.71156 49.9184 0
358.089 14.1326 0
354.664 10.4906 0
38.506 27.1281 0
41.8378 30.8563 0
210.788 32.1422 0
212.686 36.7678 0
229.079 13.0981 0
229.595 18.0715 0
268.47 24.5189 0
272.568 27.3832 0
491.931 20.2624 0
487.661 17.6614 0
218.959 33.3356 0
217.774 38.1931 0
154.025 55.3569 0
152.759 50.5199 0
455.063 55.6921 0
450.335 57.3214 0
5.55058 27.5472 0
10.0568 25.3806 0
330.103 29.951 0
332.587 25.612 0
474.793 37.2416 0
478.455 33.8363 0
419.19 42.2574 0
418.337 37.3307 0
427.087 12.0102 0
431.037 8.94501 0
78.8755 22.6797 0
75.8712 26.6765 0
191.119 47.8012 0
186.73 45.4062 0
278.759 2.75647 0
273.855 3.73246 0
20.8544 27.913 0
15.9127 28.6745 0
62.4871 14.3431 0
58.2888 17.0586 0
167.738 15.4125 0
164.577 11.539 0
278.794 43.8994 0
273.813 44.3303 0
390.953 13.44 0
386.344 15.3766 0
17.0844 54.6818 0
17.7549 49.7269 0
497.105 7.0837 0
494.202 3.01267 0
432.098 42.3925 0
436.706 44.3327 0
433.935 28.7218 0
429.032 29.7012 0
336.16 45.7447 0
331.584 47.7614 0
479.232 21.7261 0
484.147 20.808 0
223.046 36.5344 0
218.189 37.7224 0
407.517 39.314 0
412.235 37.6568 0
66.675 10.4678 0
71.0446 12.8981 0
166.399 12.3228 0
161.412 12.6908 0
143.043 51.1463 0
142.452 46.1814 0
90.5808 21.5571 0
88.244 17.1367 0
75.4481 20.8354 0
74.9813 25.8136 0
364.951 10.7354 0
363.13 6.07895 0
463.454 45.2743 0
460.41 49.2415 0
174.633 26.1216 0
175.565 31.034 0
262.456 33.3537 0
258.003 31.0787 0
390.324 44.5029 0
395.064 46.0954 0
212.629 55.2999 0
208.393 52.6435 0
383.822 55.5402 0
379.601 58.2208 0
250.75 32.2058 0
252.507 36.8872 0
236.649 7.55463 0
239.943 3.79309 0
366.28 15.8429 0
364.369 20.4634 0
294.586 5.57931 0
289.636 4.87104 0
91.7935 13.1605 0
87.1351 14.9768 0
48.6005 11.44 0
45.93 7.21294 0
195.794 50.4652 0
192.93 54.5635 0
139.703 43.1596 0
142.978 39.3812 0
324.363 53.2193 0
324.8 58.2002 0
60.6034 47.4306 0
58.3712 42.9565 0
462.786 54.2669 0
463.487 59.2175 0
68.8529 2.235 0
63.8849 2.80033 0
168.041 51.8623 0
163.332 53.5433 0
330.255 40.0315 0
326.271 37.0104 0
33.8326 18.437 0
29.5775 21.0626 0
458.96 9.55261 0
455.949 13.5437 0
179.389 2.98923 0
183.916 5.11151 0
288.236 5.10087 0
284.768 8.70277 0
221.277 38.7411 0
221.606 33.7519 0
165.397 27.4811 0
160.58 26.1418 0
421.512 36.3575 0
425.495 33.3351 0
251.631 4.37253 0
256.217 2.37879 0
323.225 55.2738 0
325.751 59.589 0
37.3697 8.22788 0
41.9308 6.17931 0
493.784 34.153 0
491.576 38.6393 0
225.781 14.6168 0
220.863 15.517 0
79.1207 6.34646 0
74.2815 7.60415 0
421.492 6.43028 0
417.414 3.53733 0
400.967 11.6775 0
396.13 10.4101 0
236.852 18.9451 0
233.302 15.4238 0
468.207 35.8736 0
473.145 36.6583 0
373.702 19.55 0
372.768 14.6381 0
176.193 21.0919 0
177.771 16.3475 0
352.088 32.0413 0
347.09 32.1662 0
350.682 37.047 0
346.25 39.3609 0
60.4545 24.4634 0
58.543 29.0836 0
216.949 37.7099 0
220.754 34.4665 0
426.406 13.219 0
430.57 15.9872 0
152.132 6.92713 0
155.969 10.1339 0
108.815 24.1969 0
113.755 23.4243 0
388.429 31.6019 0
384.674 28.3009 0
469.12 30.6547 0
466.2 34.7134 0
39.182 14.8604 0
43.5901 12.5008 0
80.1386 14.5844 0
85.1143 14.0921 0
64.2678 29.8893 0
61.5637 25.6836 0
498.754 23.3 0
494.991 26.5918 0
323.311 10.1142 0
321.594 14.8101 0
354.716 57.1931 0
350.509 59.8964 0
104.978 15.6394 0
100.17 17.011 0
176.788 24.1441 0
173.961 28.2675 0
273.88 8.21842 0
278.833 7.5376 0
346.451 20.1339 0
341.828 22.0395 0
469.501 9.02315 0
472.124 13.2803 0
378.58 58.1463 0
383.578 57.9924 0
411.392 24.2981 0
416.387 24.509 0
419.179 7.50669 0
419.067 2.50795 0
326.277 52.7282 0
328.233 57.3298 0
141.49 3.03828 0
142.862 7.84617 0
290.213 47.3402 0
294.912 49.0472 0
183.228 36.359 0
181.85 31.5527 0
380.544 18.3557 0
381.243 13.4048 0
247.678 5.72251 0
242.96 7.37567 0
35.493 23.8418 0
32.6682 27.9674 0
444.493 23.7647 0
449.063 21.7347 0
218.566 15.2952 0
217.053 10.5293 0
321.717 19.599 0
320.416 24.4267 0
70.8015 5.74248 0
75.16 8.19265 0
98.3818 42.5752 0
94.9679 38.9221 0
173.679 48.0058 0
174.2 52.9786 0
464.004 40.5885 0
461.468 44.8974 0
230.387 42.0004 0
225.708 43.7625 0
103.224 47.0175 0
104.725 51.7866 0
5.33394 59.078 0
1.1676 56.3137 0
409.605 3.383 0
409.965 8.37001 0
156.77 55.4135 0
151.804 56.0023 0
282.131 38.1092 0
281.733 43.0933 0
12.6446 33.2797 0
10.6698 37.8731 0
107.016 52.1698 0
111.76 50.5907 0
4.80908 29.1498 0
1.02649 25.8799 0
148.251 16.7323 0
145.454 12.5878 0
412.748 39.2231 0
412.94 34.2268 0
83.9774 3.82099 0
87.1189 7.71087 0
417.317 30.4949 0
422.177 31.668 0
345.521 24.7877 0
342.003 28.34 0
426.106 4.84718 0
422.011 1.97741 0
224.008 41.885 0
228.698 43.6193 0
337.732 9.41786 0
342.472 11.0083 0
396.456 50.4105 0
401.425 49.8548 0
191.216 9.60076 0
196.05 8.31984 0
72.8707 46.5365 0
71.2069 41.8214 0
187.19 2.18622 0
190.59 5.85226 0
36.3116 44.78 0
33.2364 40.8375 0
273.969 11.8097 0
276.551 7.52783 0
1.71505 14.3137 0
3.3816 9.59961 0
465.927 27.9301 0
463.433 23.5963 0
354.48 3.24861 0
350.427 6.17665 0
484.046 15.8606 0
481.25 20.0058 0
463.211 19.3414 0
460.609 23.6112 0
228.558 3.16783 0
224.855 6.52737 0
321.773 53.4062 0
320.993 48.4674 0
153.955 16.1716 0
158.66 14.4789 0
187.239 8.48149 0
191.451 5.78783 0
188.028 51.1516 0
184.475 47.6329 0
42.0907 51.0144 0
42.2804 46.018 0
119.008 2.20195 0
121.338 6.6256 0
281.006 41.3623 0
277.396 44.8214 0
216.456 4.43989 0
221.42 5.03923 0
253.868 16.6385 0
258.852 17.0319 0
320.419 55.09 0
319.078 59.9069 0
135.944 25.2971 0
139.679 28.6219 0
167.701 25.7152 0
168.115 20.7323 0
393.631 55.4022 0
388.66 55.9434 0
94.5713 49.6147 0
91.4128 45.7387 0
91.0664 9.07507 0
94.221 5.19582 0
370.009 34.3964 0
365.038 33.8566 0
348.138 35.7258 0
344.846 39.489 0
422.676 19.505 0
425.854 15.6451 0
246.345 41.8553 0
241.368 41.3727 0
75.821 26.7728 0
80.1442 24.2608 0
382.193 27.0766 0
378.549 23.6524 0
227.054 20.4291 0
228.01 25.3368 0
285.713 22.0366 0
285.304 27.0198 0
471.21 26.9075 0
466.213 26.7421 0
127.994 36.0837 0
131.12 39.9861 0
67.8935 50.2746 0
71.4747 53.764 0
1.38956 50.727 0
5.99637 52.6705 0
119.556 5.88182 0
115.589 8.92421 0
40.0316 16.4231 0
41.464 21.2136 0
271.589 17.0049 0
266.611 17.4713 0
71.0134 8.34107 0
70.0834 3.42833 0
458.525 21.3768 0
463.508 21.7918 0
150.189 46.952 0
151.646 42.1692 0
151.31 33.7197 0
151.616 38.7103 0
103.832 10.377 0
98.8325 10.4276 0
264.553 17.5126 0
265.694 22.3805 0
337.364 16.0064 0
337.571 11.0107 0
244.404 54.6885 0
239.423 54.254 0
301.803 5.02811 0
305.971 2.26613 0
170.352 30.2928 0
172.874 25.9753 0
439.071 40.7205 0
441.687 44.9819 0
17.9441 37.6426 0
16.8715 32.759 0
481.116 49.4344 0
485.4 52.012 0
437.342 38.2905 0
441.265 35.1904 0
342.671 14.5902 0
347.544 15.7069 0
208.341 49.2348 0
204.996 52.9519 0
405.447 20.9059 0
409.7 23.5348 0
321.314 23.1815 0
325.738 25.5114 0
392.267 49.925 0
388.002 47.3156 0
147.232 6.83954 0
143.407 3.61855 0
6.92006 49.9026 0
6.86461 44.9029 0
446.973 35.1966 0
446.042 30.2841 0
406.6 43.6236 0
407.71 38.7483 0
206.18 39.7442 0
202.471 43.0971 0
161.146 44.963 0
160.655 39.9872 0
59.7013 22.198 0
62.3345 26.4485 0
321.365 47.8972 0
326.357 48.1669 0
249.559 17.9929 0
244.677 19.076 0
474.316 32.3863 0
476.22 37.0096 0
76.2222 6.48027 0
72.4148 3.23939 0
345.802 32.5948 0
345.092 27.6456 0
356.767 22.1673 0
358.467 17.4651 0
308.197 45.4108 0
310.516 49.8402 0
305.935 14.2172 0
306.881 19.1269 0
329.555 44.9949 0
325.753 41.748 0
213.415 7.47506 0
216.906 3.89577 0
466.316 48.3997 0
470.72 50.767 0
41.4173 53.1019 0
45.7964 50.6887 0
446.056 36.4026 0
442.573 39.9898 0
481.937 5.88687 0
484.617 1.66549 0
120.388 26.002 0
125.388 25.9493 0
341.351 10.9915 0
339.565 6.32169 0
8.16866 0.649259 0
13.1587 0.964553 0
375.103 55.1801 0
371.941 59.0536 0
383.315 51.6809 0
378.678 53.5521 0
487.276 6.80015 0
484.55 2.60814 0
133.859 57.9921 0
132.27 53.2514 0
256.468 48.2339 0
258.362 43.6068 0
70.2292 45.9566 0
69.8868 50.9448 0
30.6767 43.9111 0
31.016 38.9227 0
89.6323 9.35687 0
94.453 8.02992 0
143.282 36.4757 0
138.491 37.9061 0
343.511 2.58683 0
343.539 7.58676 0
346.954 39.6901 0
343.843 35.7755 0
179.416 28.7644 0
184.41 29.0064 0
39.1502 27.2981 0
34.2249 26.437 0
258.401 16.3877 0
253.955 14.1003 0
399.109 10.0237 0
400.984 5.38835 0
310.502 36.1038 0
308.267 40.5763 0
386.104 54.5411 0
385.924 59.5378 0
104.732 14.3182 0
109.732 14.376 0
158.879 51.2514 0
163.692 49.8951 0
296.975 6.98063 0
297.128 1.98298 0
221.474 37.8777 0
221.759 42.8696 0
350.445 26.2263 0
350.388 31.226 0
397.867 6.47482 0
393.185 8.23092 0
84.7082 26.0843 0
80.3081 23.7096 0
202.775 47.0101 0
207.494 48.6635 0
227.384 18.8524 0
226.127 14.0132 0
182.263 50.8236 0
181.922 55.8119 0
226.979 44.6624 0
227.035 49.6621 0
431.548 46.8298 0
433.616 42.2774 0
96.9704 44.2205 0
93.8555 40.3093 0
307.137 57.7689 0
311.543 55.4044 0
455.673 27.8494 0
450.673 27.8118 0
206.131 52.6748 0
210.074 49.5992 0
476.561 48.1344 0
481.224 46.3299 0
164.846 49.1655 0
169.075 51.8327 0
367.793 49.3859 0
371.873 46.4954 0
338.578 57.7703 0
343.092 55.6204 0
47.2262 54.9997 0
42.7909 57.308 0
260.043 38.2752 0
256.917 34.3733 0
245.555 27.1285 0
241.748 30.3697 0
327.323 38.9487 0
322.546 37.4731 0
334.896 27.9412 0
330.567 25.4395 0
247.099 29.0757 0
244.692 24.6932 0
174.706 42.8276 0
179.532 41.5208 0
1.49867 23.5141 0
6.10395 21.567 0
265.168 17.7735 0
269.939 16.2758 0
367.42 53.0038 0
369.908 48.6664 0
49.0552 53.0321 0
49.2003 58.03 0
284.237 49.7141 0
287.683 46.0911 0
425.107 25.5219 0
429.06 28.5834 0
453.908 15.6043 0
456.163 20.0671 0
165.398 32.3838 0
161.153 35.0257 0
471.903 46.9408 0
476.89 46.5838 0
228.192 25.613 0
223.195 25.4617 0
193.088 43.6469 0
189.063 40.6812 0
394.944 51.4618 0
390.296 53.3053 0
52.3364 41.0204 0
54.6428 36.5841 0
374.991 10.0358 0
378.854 13.2112 0
226.803 29.7331 0
225.545 34.5723 0
304.761 51.1307 0
307.85 55.0619 0
368.823 51.6453 0
372.685 48.4694 0
188.792 3.39459 0
193.232 1.09402 0
148.024 46.649 0
151.963 49.729 0
210.776 52.2712 0
207.555 56.0955 0
245.83 4.14759 0
245.5 9.13669 0
341.144 22.9187 0
344.967 26.1415 0
313.607 59.7181 0
312.739 54.7941 0
353.856 7.34549 0
356.46 11.6141 0
165.552 4.23377 0
161.89 7.63806 0
164.777 34.5798 0
169.706 33.7424 0
430.52 55.4419 0
426.092 57.7637 0
28.7624 26.8655 0
24.0072 28.4107 0
270.055 37.7986 0
265.843 40.4924 0
410.838 33.3141 0
410.106 38.2601 0
473.274 5.25514 0
468.28 5.48276 0
443.281 24.3005 0
446.653 20.608 0
285.692 59.6669 0
280.692 59.6137 0
161.304 45.6338 0
164.945 42.2071 0
233.566 34.6522 0
230.029 38.1869 0
293.096 13.2244 0
291.577 17.988 0
177.339 24.1558 0
177.681 29.1441 0
365.433 33.6711 0
369.117 37.0519 0
343.057 30.5883 0
348.041 30.9938 0
265.209 8.96313 0
260.213 9.15869 0
138.961 50.0305 0
136.75 54.5152 0
30.4938 43.5232 0
29.2819 38.6723 0
415.687 40.5897 0
416.951 45.4274 0
210.493 48.2738 0
213.668 52.1359 0
212.691 20.0817 0
214.388 24.7846 0
285.2 29.9383 0
287.7 25.6079 0
109.713 15.3282 0
110.968 20.1683 0
464.015 2.63031 0
460.093 5.73147 0
214.387 36.5195 0
209.717 38.3072 0
141.732 42.0604 0
137.128 44.0098 0
85.4796 52.3555 0
85.9127 47.3742 0
255.92 32.8379 0
257.486 28.0894 0
435.353 51.5469 0
440.164 50.1833 0
416.888 27.4355 0
418.753 22.7962 0
359.494 43.257 0
357.335 47.767 0
133.938 34.4559 0
138.492 36.52 0
23.3715 55.5751 0
20.3444 59.5547 0
443.285 46.3202 0
446.871 49.8045 0
468.85 41.9951 0
470.526 46.7058 0
450.045 30.4269 0
445.717 27.9235 0
283.898 25.0349 0
279.582 22.5108 0
393.223 47.613 0
397.847 45.7103 0
140.306 28.7974 0
135.73 26.7818 0
434.803 27.5766 0
433.892 22.6603 0
445.469 8.60461 0
445.813 3.61647 0
312.417 47.8694 0
307.444 48.3821 0
253.632 52.5335 0
249.933 55.8969 0
392.209 55.7209 0
387.523 57.4639 0
232.58 24.1008 0
234.461 28.7334 0
130.425 21.3922 0
134.546 18.5597 0
13.3622 27.1523 0
12.9919 22.1661 0
260.736 39.6806 0
265.472 41.2819 0
398.61 2.90022 0
393.63 2.44622 0
297.761 49.0608 0
297.524 44.0664 0
269.986 21.3864 0
269.68 16.3958 0
312.925 50.6518 0
310.281 54.8958 0
7.48154 46.0759 0
12.0414 44.0247 0
13.1254 20.9201 0
9.03493 18.0447 0
277.097 48.797 0
273.331 52.0857 0
328.827 15.2327 0
324.597 17.8991 0
295.585 10.3345 0
300.212 12.2307 0
94.488 18.6027 0
99.283 17.1855 0
486.59 51.5877 0
491.558 52.1498 0
321.129 28.9351 0
316.858 31.5351 0
304.079 0.500989 0
299.108 1.04588 0
109.393 9.17647 0
110.138 4.23242 0
39.5618 41.6197 0
34.5755 41.9897 0
9.55345 42.4681 0
11.8004 38.0014 0
150.533 5.98141 0
151.206 1.02687 0
91.5102 10.7852 0
95.3176 14.0261 0
86.6086 54.1775 0
91.3835 55.6609 0
272.241 13.7359 0
277.165 12.8694 0
146.533 43.8428 0
150.764 46.5078 0
122.467 16.1381 0
118.274 13.4141 0
158.973 42.2925 0
154.054 41.3948 0
69.0889 49.5341 0
67.7589 44.7142 0
338.982 47.3855 0
335.318 43.9838 0
45.6172 20.1367 0
41.1877 17.8173 0
264.17 52.3783 0
259.173 52.2061 0
238.674 54.7219 0
234.039 56.5963 0
267.88 50.9471 0
271.758 54.1022 0
70.0861 51.6611 0
66.2985 48.3971 0
488.6 29.162 0
491.563 33.1896 0
215.114 43.5318 0
210.203 42.5926 0
228.471 7.04967 0
227.191 11.8831 0
98.3117 8.91731 0
100.104 13.5849 0
189.2 19.4608 0
192.675 23.0555 0
155.931 55.5032 0
151.564 57.9383 0
417.794 16.0091 0
422.564 17.5079 0
67.6754 57.0004 0
68.5801 52.0829 0
259.959 37.2237 0
264.287 39.7279 0
85.269 32.9114 0
89.7964 35.0334 0
282.213 15.8263 0
280.797 20.6217 0
54.796 32.1476 0
50.4379 29.6967 0
361.23 46.9605 0
365.719 44.7579 0
271.127 28.7944 0
266.416 27.1204 0
19.7417 21.146 0
15.9816 17.8503 0
341.756 47.1288 0
346.473 45.4706 0
6.86023 22.2378 0
10.1789 25.9776 0
385.768 51.225 0
381.313 53.4959 0
278.9 9.71907 0
277.851 4.8303 0
336.852 53.1618 0
339.626 57.3218 0
289.509 36.6651 0
291 41.4377 0
46.2507 49.2464 0
49.9138 45.8432 0
206.744 55.3118 0
201.755 55.6495 0
139.242 24.7141 0
135.333 21.5964 0
210.763 11.872 0
213.503 7.68911 0
464.333 50.9258 0
467.198 46.8277 0
431.338 31.8203 0
432.526 26.9635 0
210.555 42.2978 0
212.634 46.8452 0
71.6732 16.6188 0
74.7269 20.578 0
260.608 13.2457 0
255.634 13.7568 0
108.867 19.754 0
111.933 15.8038 0
361.575 5.14167 0
366.411 6.41273 0
425.83 53.9426 0
420.898 53.1252 0
388.212 30.1567 0
383.418 31.5794 0
492.629 25.6945 0
489.172 29.3074 0
180.233 37.9776 0
179.783 42.9573 0
368.667 46.8166 0
371.9 43.0022 0
284.805 36.6093 0
282.42 32.2147 0
107.022 54.4035 0
102.267 55.9481 0
379.092 4.84977 0
376.054 0.878675 0
341.158 20.8176 0
338.414 16.6378 0
363.969 38.2995 0
368.825 37.1086 0
184.989 56.5815 0
188.792 53.3355 0
485.204 7.75259 0
489.641 10.0578 0
144.117 57.1999 0
148.645 55.0798 0
9.81378 59.1255 0
13.9626 56.3349 0
115.91 41.1412 0
117.006 46.0196 0
437.313 13.9772 0
441.799 16.1856 0
258.775 39.1554 0
263.76 38.7763 0
396.033 1.47711 0
401.022 1.14657 0
207.745 6.79423 0
210.58 10.9129 0
478.177 8.8859 0
480.765 13.1638 0
174.676 44.8316 0
174.238 39.8508 0
257.721 3.34047 0
253.274 1.05424 0
260.275 30.7599 0
261.528 25.9192 0
10.5453 14.2109 0
12.6939 9.69613 0
153.118 50.2293 0
156.746 46.789 0
466.772 3.66644 0
467.07 8.65754 0
110.53 53.9982 0
110.056 49.0207 0
318.493 1.21548 0
321.923 4.85377 0
24.7881 18.2621 0
20.8353 21.3239 0
338.047 41.5211 0
339.945 36.8952 0
464.332 7.09959 0
465.137 12.0344 0
471.951 25.2169 0
470.924 20.3237 0
29.1801 9.87489 0
33.2582 6.98206 0
349.289 32.263 0
345.715 35.7596 0
65.0367 27.5389 0
67.9662 23.487 0
124.087 13.5299 0
126.145 18.0864 0
451.039 8.08393 0
452.217 3.2245 0
220.954 34.1125 0
215.956 33.9442 0
480.376 53.9391 0
475.827 51.8632 0
493.345 52.8716 0
497.781 55.1799 0
378.132 51.9034 0
382.545 54.2536 0
63.5802 20.0733 0
61.6106 24.6691 0
343.722 39.8681 0
339.843 36.713 0
144.165 18.8219 0
145.188 13.9275 0
138.812 34.3794 0
143.812 34.4092 0
370.282 44.5845 0
365.878 42.2175 0
194.262 45.2358 0
192.674 49.9771 0
427.723 56.6594 0
427.724 51.6594 0
10.8513 12.1891 0
13.3618 16.5131 0
119.055 34.1464 0
121.527 29.8 0
451.292 24.391 0
454.521 20.5733 0
370.999 27.1964 0
368.382 22.9358 0
39.6856 25.2211 0
40.3659 30.1746 0
347.841 12.8877 0
347.535 17.8782 0
322.899 19.9843 0
326.901 22.9806 0
436.339 48.4756 0
438.197 53.1176 0
100.173 57.9186 0
95.5324 56.0564 0
173.127 38.6093 0
168.539 36.6202 0
414.127 44.793 0
419.022 43.7724 0
75.718 58.8005 0
70.8101 59.7558 0
339.654 16.5807 0
343.167 20.1389 0
459.196 11.2327 0
463.327 14.0494 0
347.075 53.0018 0
346.599 57.9791 0
365.144 42.3084 0
364.39 47.2512 0
267.881 30.2195 0
272.434 32.2865 0
386.62 31.4854 0
381.62 31.571 0
129.807 34.9225 0
134.807 34.9654 0
225.129 34.6152 0
224.91 39.6104 0
328.497 27.3754 0
323.861 29.2467 0
447.11 5.68139 0
451.931 7.00748 0
360.928 6.65745 0
357.554 10.3476 0
487.649 14.1329 0
492.432 15.589 0
66.3834 34.5258 0
65.9817 39.5096 0
132.993 17.4024 0
129.814 13.5437 0
207.176 20.0766 0
204.297 15.9886 0
196.375 1.12535 0
201.361 0.754994 0
483.082 9.9965 0
478.088 10.2286 0
59.8667 51.9972 0
57.9772 47.3679 0
17.1606 51.7764 0
21.371 54.4732 0
373.047 10.6146 0
371.518 15.3749 0
470.437 55.9637 0
466.365 53.0627 0
161.393 20.8327 0
160.343 25.7213 0
41.1349 54.3608 0
45.6742 56.4572 0
31.4454 43.0558 0
34.5618 46.9658 0
235.35 27.4366 0
233.331 22.8625 0
163.884 9.21101 0
159.331 11.2776 0
345.217 42.6428 0
349.212 39.636 0
448.442 56.5696 0
444.291 53.7831 0
106.446 51.4269 0
106.29 56.4244 0
44.2644 43.6538 0
39.2692 43.8722 0
351.658 46.1064 0
348.576 50.0436 0
466.257 32.594 0
470.956 30.8849 0
429.192 16.2601 0
424.779 18.61 0
132.307 12.9278 0
137.192 11.8611 0
224.587 35.5674 0
221.487 31.6442 0
174.108 12.9474 0
175.904 8.28113 0
364.552 56.3393 0
361.254 52.5814 0
176.876 48.0091 0
179.347 52.3556 0
11.9453 34.5045 0
16.4141 36.7472 0
320.101 19.2097 0
315.958 22.0082 0
242.853 9.67472 0
243.06 14.6704 0
452.773 29.4723 0
456.998 26.7982 0
18.6837 32.6378 0
21.1381 28.2817 0
10.125 46.2641 0
9.40692 41.3159 0
315.272 46.5876 0
316.251 41.6845 0
277.59 24.7327 0
274.398 28.581 0
56.2891 37.8144 0
60.8982 39.7526 0
334.728 22.7298 0
333.288 17.9415 0
162.574 4.90598 0
159.269 1.15433 0
87.2554 40.5791 0
85.8105 35.7924 0
293.968 7.39778 0
289.131 8.66191 0
447.537 26.4724 0
443.333 29.1791 0
179.915 8.7702 0
178.039 4.13522 0
91.2926 12.9991 0
88.723 17.2883 0
413.609 7.95726 0
417.86 5.3252 0
313.606 5.20387 0
313.803 10.2 0
252.873 57.2308 0
257.834 57.8595 0
4.08123 39.6738 0
5.67202 34.9336 0
187.028 29.2909 0
182.117 30.228 0
374.062 26.3193 0
369.722 28.8015 0
181.533 17.0658 0
179.66 12.43 0
231.947 28.4694 0
227.105 27.2212 0
283.524 36.677 0
288.511 36.3116 0
301.458 20.0739 0
297.379 17.1825 0
61.7405 47.7224 0
64.3085 52.0125 0
321.652 2.77905 0
326.351 4.48603 0
169.852 24.0927 0
166.859 28.098 0
127.988 3.07159 0
132.831 1.82797 0
496.335 47.1256 0
491.551 48.5777 0
497.092 52.4215 0
497.789 57.3727 0
103.081 0.87971 0
100.248 4.99986 0
47.1039 23.1555 0
52.1003 23.3466 0
63.9231 49.7246 0
67.2716 53.4378 0
111.024 8.13477 0
112.457 3.34461 0
261.833 9.71898 0
266.291 7.45644 0
350.768 40.2076 0
353.912 44.0949 0
23.6341 18.9585 0
27.8462 21.6525 0
307.209 22.295 0
306.147 17.4091 0
223.803 27.9149 0
228.261 30.18 0
161.632 58.3277 0
166.577 59.0662 0
401.89 4.49774 0
399.16 0.308917 0
353.505 55.6127 0
358.483 55.1383 0
335.891 21.0513 0
333.757 25.5732 0
141.227 31.727 0
142.571 36.5429 0
82.9305 0.672339 0
87.3675 2.97725 0
126.311 47.5093 0
121.497 46.1597 0
137.868 34.9088 0
142.558 36.6413 0
135.654 9.71732 0
135.647 14.7173 0
256.49 37.7734 0
259.781 34.0086 0
90.3387 7.09942 0
86.8014 10.6332 0
40.4756 19.3524 0
37.4035 23.2973 0
125.01 57.7278 0
120.454 55.6696 0
178.027 23.7904 0
173.145 22.7117 0
267.867 17.8991 0
262.878 18.2178 0
224.311 7.89989 0
228.451 5.09631 0
343.74 11.4289 0
344.43 6.47677 0
77.1539 35.2271 0
79.105 30.6235 0
7.18034 50.0655 0
2.38004 48.6665 0
487.655 17.9087 0
483.17 20.1191 0
284.504 31.6211 0
279.859 29.7713 0
328.48 23.4454 0
331.215 27.6308 0
54.1977 28.9409 0
56.5584 33.3485 0
262.698 3.67255 0
266.53 0.460653 0
232.98 18.9626 0
236.735 22.2639 0
173.671 38.1144 0
175.541 33.4769 0
386.09 18.5305 0
384.973 23.404 0
0.512856 14.1462 0
5.23485 12.5022 0
279.305 17.2545 0
281.645 12.8356 0
31.9821 10.0297 0
36.9813 9.94069 0
255.764 16.0148 0
252.979 11.862 0
289.01 11.8273 0
285.187 15.05 0
262.292 21.712 0
258.048 19.0691 0
428.814 29.1843 0
423.948 30.3337 0
461.76 50.0149 0
456.862 51.0214 0
249.523 34.2857 0
246.989 29.9754 0
252.007 28.3793 0
247.367 26.5182 0
13.8419 24.8857 0
10.9235 20.8258 0
108.086 11.1377 0
109.656 6.39046 0
184.569 21.5874 0
189.524 22.2566 0
235.488 24.8569 0
230.496 24.5623 0
353.162 53.9083 0
349.034 51.0869 0
171.657 22.8016 0
170.535 27.674 0
45.6622 40.2056 0
49.3516 36.8309 0
118.318 21.1759 0
113.496 22.4964 0
479.278 46.1418 0
483.862 48.1367 0
125.177 59.0802 0
127.996 54.9504 0
144.104 53.2125 0
139.108 53.4052 0
83.0642 14.0458 0
87.1943 16.864 0
247.736 18.8358 0
242.741 19.0689 0
154.592 20.0529 0
154.961 25.0392 0
273.013 32.0919 0
274.136 27.2196 0
386.365 21.944 0
384.527 17.2943 0
130.29 0.83612 0
128.392 5.46174 0
177.503 48.348 0
178.931 43.5564 0
363.727 27.9442 0
359.753 24.9101 0
325.252 51.4252 0
321.2 48.4955 0
128.867 19.1472 0
133.616 17.5812 0
318.22 19.9679 0
316.949 15.1321 0
418.484 49.3519 0
417.808 54.306 0
454.329 7.80437 0
459.285 8.46459 0
147.561 1.20415 0
142.568 0.944388 0
57.2664 28.0588 0
52.7452 30.1939 0
51.3013 38.11 0
52.3963 33.2314 0
255.852 6.79856 0
260.219 4.36375 0
416.198 43.2247 0
421.033 41.949 0
112.038 23.6015 0
112.764 18.6545 0
320.395 45.3258 0
319.938 50.3049 0
208.722 52.6463 0
203.879 53.891 0
254.693 9.19673 0
259.545 10.4023 0
360.523 17.2713 0
362.581 12.7144 0
84.9756 24.6612 0
81.7919 20.8058 0
64.9871 39.2683 0
69.8657 38.1735 0
308.79 6.09836 0
310.822 10.667 0
467.239 19.7363 0
462.671 17.7032 0
54.6364 7.34607 0
50.1906 5.0581 0
118.639 20.9336 0
122.709 18.0293 0
107.044 58.843 0
103.402 55.4183 0
474.432 13.4314 0
479.424 13.1558 0
239.386 21.9906 0
242.884 18.4179 0
135.986 5.95957 0
132.482 9.52665 0
419.758 55.2064 0
422.974 51.3777 0
465.805 13.4174 0
467.542 18.106 0
183.822 15.5903 0
182.377 20.3769 0
253.365 58.5697 0
249.734 55.1315 0
214.406 38.1906 0
215.237 43.1212 0
324.943 9.88583 0
322.482 5.53338 0
363.23 24.0693 0
364.546 28.8929 0
2.67433 16.8667 0
4.26944 12.1279 0
157.89 51.4309 0
152.991 52.432 0
363.707 5.90573 0
363.489 10.901 0
118.782 11.5207 0
122.414 8.08379 0
249.739 43.3826 0
248.872 38.4583 0
153.829 48.3637 0
149.104 46.7276 0
307.792 51.1543 0
309.455 46.4389 0
420.193 35.7329 0
415.735 37.9971 0
168.808 47.7074 0
173.637 46.4119 0
104.459 0.412909 0
108.038 3.90449 0
234.607 13.5647 0
239.57 12.9606 0
449.102 33.8203 0
454.101 33.7632 0
414.402 44.091 0
409.543 45.2674 0
88.5511 44.2601 0
84.0803 42.0214 0
380.797 16.5692 0
375.848 15.8589 0
180.267 51.9139 0
182.762 47.581 0
356.988 33.0685 0
355.992 28.1686 0
346.63 29.2449 0
346.328 24.254 0
347.871 59.0636 0
343.353 56.9205 0
225.466 37.098 0
230.265 38.5012 0
369.618 10.0976 0
368.017 5.36073 0
484.777 9.87057 0
488.031 13.6668 0
303.511 58.3881 0
307.605 55.5167 0
485.232 1.47377 0
480.345 2.53399 0
309.751 42.7968 0
308.952 37.8611 0
238.352 24.2155 0
233.601 22.658 0
128.063 19.6789 0
124.305 16.3802 0
192.697 7.35402 0
197.537 6.09996 0
115.938 6.02261 0
113.186 1.848 0
426.824 29.9304 0
426.818 24.9304 0
351.434 8.10419 0
349.432 3.52258 0
137.377 39.7997 0
135.21 44.3061 0
236.174 2.49442 0
231.714 0.234274 0
121.771 35.1022 0
121.266 30.1277 0
442.642 21.3592 0
445.027 25.7543 0
168.734 15.5486 0
164.025 13.8676 0
39.1726 15.5596 0
40.4298 10.7202 0
365.405 52.6895 0
361.029 55.1077 0
465.224 42.5209 0
461.134 45.3968 0
155.163 7.2515 0
154.469 12.2032 0
366.984 27.6249 0
371.936 28.3137 0
394.579 42.7581 0
391.329 38.9583 0
143.908 19.3396 0
147.472 15.8329 0
386.958 15.8538 0
389.961 19.8516 0
124.274 15.0239 0
120.256 12.0485 0
77.7325 0.27629 0
78.9001 5.13803 0
429.264 4.1096 0
433.919 5.93671 0
214.846 47.6126 0
216.517 52.3248 0
313.509 59.1821 0
316.412 55.1111 0
333.108 53.3623 0
328.123 52.9767 0
403.149 12.7325 0
398.84 10.1952 0
415.843 20.9895 0
418.038 16.4973 0
415.219 8.83414 0
420.175 9.49307 0
463.315 46.9874 0
464.638 51.809 0
210.095 21.0273 0
213.965 17.8614 0
389.292 18.4902 0
389.864 23.4572 0
465.753 57.9907 0
462.756 53.9881 0
463.556 20.4962 0
467.576 17.5227 0
337.056 20.3591 0
342.001 19.6214 0
446.632 53.3578 0
451.382 54.9195 0
52.9405 24.8624 0
49.2578 28.2444 0
486.255 41.0045 0
481.753 38.8284 0
367.335 25.8837 0
364.997 30.3035 0
323.721 26.6243 0
327.097 30.3117 0
490.158 37.9722 0
495.124 37.3826 0
310.878 0.985708 0
309.691 5.84264 0
      </DataArray>
    </Points>
    <Cells>
      <DataArray type="Int32" Name="connectivity" format="ascii">
1891 2037 1865 695 697 653 
1891 1865 1857 653 1694 1609 
2075 2076 2086 874 826 654 
2075 2086 1980 654 1000 999 
1892 1920 2044 1541 1213 655 
1892 2044 1945 655 1214 1478 
1819 1908 1907 1576 1242 656 
1819 1907 1818 656 1577 1649 
1818 1907 1965 1577 1243 657 
1818 1965 1817 657 1244 1650 
2138 1837 1887 705 1567 658 
2138 1887 1880 658 1504 699 
2139 1827 1885 701 1571 659 
2139 1885 1879 659 1505 700 
1872 1873 1928 1553 1523 660 
1872 1928 1927 660 1471 1524 
1922 1923 1947 1476 1463 661 
1922 1947 86 661 1308 1307 
1860 1895 1924 1601 1531 662 
1860 1924 1869 662 1532 1685 
576 574 1937 575 1438 663 
576 1937 1856 663 1494 1657 
601 599 1936 600 1445 664 
601 1936 1846 664 1496 1660 
626 624 1935 625 1452 665 
626 1935 1836 665 1498 1663 
651 649 1934 650 1458 666 
651 1934 1826 666 1501 1666 
1826 503 20 1797 502 667 
1826 20 651 667 652 1666 
1817 549 18 1655 550 668 
1817 18 522 668 523 1816 
1836 459 16 1777 458 669 
1836 16 626 669 627 1663 
1846 415 12 1757 414 670 
1846 12 601 670 602 1660 
1856 371 8 1737 370 671 
1856 8 576 671 577 1657 
1914 2012 1925 1226 1124 672 
1914 1925 1895 672 1530 696 
1895 1860 1870 1601 1684 673 
1895 1870 1914 673 1557 696 
2129 637 2131 764 763 674 
2129 2131 2125 674 729 775 
2024 2060 1908 925 1085 675 
2024 1908 2023 675 1084 1110 
1893 1922 2013 1536 1122 676 
1893 2013 2045 676 943 694 
1911 2039 2132 1233 750 677 
1911 2132 1939 677 751 1234 
2134 29 2035 723 1255 678 
2134 2035 2034 678 1099 721 
2136 183 1976 715 1394 679 
2136 1976 1964 679 1160 713 
1900 1930 1990 1515 1146 680 
1900 1990 2043 680 982 691 
1906 1881 1889 1579 1503 681 
1906 1889 1942 681 1484 1245 
2135 525 1975 719 1396 682 
2135 1975 1883 682 1161 717 
2133 174 1978 727 1390 683 
2133 1978 1882 683 1158 725 
60 58 2037 59 1080 684 
60 2037 1944 684 1216 1282 
90 88 2046 89 1123 685 
90 2046 1925 685 1066 1310 
120 118 2047 119 1064 686 
120 2047 1929 686 1063 1338 
146 1949 2049 1364 1198 687 
146 2049 148 687 1060 147 
1932 1949 2048 1459 1199 688 
1932 2048 1931 688 1200 1468 
1902 1933 2049 1508 1059 689 
1902 2049 1932 689 1197 1510 
1901 1931 2048 1513 1200 690 
1901 2048 1930 690 1062 1514 
1900 2043 1917 691 1219 1517 
1898 1929 2047 1520 1063 692 
1898 2047 1928 692 1201 1522 
1895 1925 2046 1530 1066 693 
1895 2046 1924 693 1205 1531 
1893 2045 1921 694 1207 1538 
1891 1944 2037 1480 1216 695 
1865 2037 1919 697 1237 1543 
2137 1847 1881 709 1578 698 
2137 1881 579 698 1658 710 
2138 1880 604 699 1661 706 
2139 1879 629 700 1664 702 
478 1827 2139 1796 701 703 
2139 629 14 702 628 704 
478 2139 14 703 704 479 
434 1837 2138 1776 705 707 
2138 604 10 706 603 708 
434 2138 10 707 708 435 
390 1847 2137 1756 709 711 
2137 579 6 710 578 712 
390 2137 6 711 712 391 
1964 552 2136 1417 714 713 
2136 552 3 714 551 716 
183 2136 3 715 716 184 
1883 23 2135 1651 718 717 
2135 23 0 718 22 720 
525 2135 0 719 720 524 
2034 32 2134 1256 722 721 
2134 32 1 722 31 724 
29 2134 1 723 724 30 
1882 177 2133 1653 726 725 
2133 177 2 726 176 728 
174 2133 2 727 728 175 
2127 641 2130 771 768 772 
2125 2131 2106 729 734 797 
2121 591 2120 758 757 730 
2095 2121 2120 806 730 807 
2120 589 2119 756 732 731 
2094 2120 2119 808 731 809 
2119 589 2118 732 755 733 
2093 2119 2118 810 733 811 
2106 2131 2057 734 736 834 
2112 2079 2078 840 743 735 
2059 2112 2078 832 735 872 
2069 2091 2041 813 752 880 
2092 2118 2054 812 744 883 
2067 2097 2040 855 753 886 
2051 2124 2103 746 798 890 
2057 2131 635 736 762 901 
2056 2085 2117 866 788 902 
2055 2086 2077 741 825 903 
2015 2106 2063 939 833 940 
2104 2010 2105 947 946 737 
2105 2039 2065 747 892 738 
2104 2105 2065 737 738 739 
2104 2065 2103 739 891 740 
2009 2104 2103 948 740 949 
1997 2067 2096 968 885 969 
1992 2092 2068 978 882 979 
1979 2086 2055 1001 741 1002 
2079 2027 2081 920 919 742 
2079 2081 1968 742 1016 1021 
2078 2079 1967 743 1020 1023 
2054 2118 587 744 754 1045 
2121 2096 2053 805 884 745 
593 2121 2053 759 745 1046 
2052 2122 612 786 760 1052 
618 2124 2051 761 746 1053 
643 2128 2050 769 780 1056 
2105 2011 2132 945 749 748 
2039 2105 2132 747 748 750 
2132 2011 1939 749 944 751 
2041 2091 1943 752 860 1081 
2040 2097 1941 753 854 1082 
587 2118 589 754 755 588 
589 2120 591 756 757 590 
591 2121 593 758 759 592 
612 2122 614 760 779 613 
614 2123 616 778 777 615 
616 2124 618 776 761 617 
635 2131 637 762 763 636 
639 637 2129 638 764 765 
2129 2126 2130 774 773 766 
639 2129 2130 765 766 767 
639 2130 641 767 768 640 
641 2128 643 770 769 642 
2128 641 2127 770 771 781 
2127 2130 2126 772 773 782 
2126 2129 2125 774 775 783 
2124 616 2123 776 777 784 
2123 614 2122 778 779 785 
2070 1957 2071 1039 1038 787 
2111 2061 2064 842 898 789 
2110 2050 2128 893 780 790 
2109 2128 2127 791 781 792 
2108 2127 2126 793 782 794 
2126 2125 2107 783 796 795 
2102 2124 2123 799 784 800 
2101 2123 2122 801 785 802 
2122 2052 2100 786 889 803 
2069 2070 2090 879 815 814 
2070 2071 2089 787 817 816 
2117 2085 2116 788 819 835 
2116 2084 2115 818 821 836 
2115 2083 2114 820 823 837 
2114 2082 2113 822 824 838 
2111 2064 2110 789 894 843 
2110 2128 2109 790 791 844 
2109 2127 2108 792 793 845 
2108 2126 2107 794 795 846 
2107 2125 2106 796 797 847 
2103 2124 2102 798 799 848 
2102 2123 2101 800 801 849 
2101 2122 2100 802 803 850 
2100 2066 2099 888 804 851 
2099 2066 2098 804 831 852 
2098 2058 2042 830 1073 853 
2096 2121 2095 805 806 856 
2095 2120 2094 807 808 857 
2094 2119 2093 809 810 858 
2093 2118 2092 811 812 859 
2091 2069 2090 813 814 861 
2090 2070 2089 815 816 862 
2089 2071 2088 817 829 863 
2088 2072 2087 828 827 864 
2084 2116 2085 818 819 867 
2083 2115 2084 820 821 868 
2082 2114 2083 822 823 869 
2081 2028 2080 918 917 870 
2080 2113 2082 839 824 871 
2077 2086 2076 825 826 873 
2075 1981 2074 998 997 875 
2074 1982 2073 996 995 876 
2073 2087 2072 865 827 877 
2072 2088 2071 828 829 878 
2062 1991 2068 895 980 881 
2058 2098 2066 830 831 887 
2060 2112 2059 841 832 899 
2063 2106 2057 833 834 900 
2033 2117 2116 907 835 908 
2032 2116 2115 909 836 910 
2031 2115 2114 911 837 912 
2030 2114 2113 913 838 914 
2113 2080 2029 839 916 915 
2026 2079 2112 921 840 922 
2112 2060 2025 841 924 923 
2021 2061 2111 927 842 928 
2020 2111 2110 929 843 930 
2019 2110 2109 931 844 932 
2018 2109 2108 933 845 934 
2017 2108 2107 935 846 936 
2107 2106 2016 847 938 937 
2008 2103 2102 950 848 951 
2007 2102 2101 952 849 953 
2006 2101 2100 954 850 955 
2005 2100 2099 956 851 957 
2004 2099 2098 958 852 959 
2098 2042 2003 853 961 960 
2002 2042 1926 962 1212 963 
1999 1941 2097 964 854 965 
2097 2067 1998 855 967 966 
1996 2096 2095 970 856 971 
1995 2095 2094 972 857 973 
1994 2094 2093 974 858 975 
2093 2092 1993 859 977 976 
1988 1943 2091 983 860 984 
1987 2091 2090 985 861 986 
1986 2090 2089 987 862 988 
1985 2089 2088 989 863 990 
1984 2088 2087 991 864 992 
2087 2073 1983 865 994 993 
2085 2056 1974 866 1006 1009 
2084 2085 1973 867 1008 1011 
2083 2084 1972 868 1010 1013 
2082 2083 1971 869 1012 1015 
1969 2081 2080 1017 870 1018 
2080 2082 1970 871 1014 1019 
2059 2078 1966 872 1022 1024 
1963 2077 2076 1026 873 1027 
1962 2076 2075 1028 874 1029 
1961 2075 2074 1030 875 1031 
1960 2074 2073 1032 876 1033 
1959 2073 2072 1034 877 1035 
2072 2071 1958 878 1037 1036 
1956 2070 2069 1040 879 1041 
2069 2041 1955 880 1076 1042 
1954 2062 2068 896 881 1043 
2068 2092 2054 882 883 1044 
2053 2096 2067 884 885 1047 
2067 2040 1953 886 1077 1048 
1952 2058 2066 1049 887 1050 
2066 2100 2052 888 889 1051 
2051 2103 2065 890 891 1054 
2065 2039 1951 892 1078 1055 
2050 2110 2064 893 894 1057 
2064 2038 1950 897 1079 1058 
2049 1933 148 1059 1365 1060 
2045 2014 2063 942 941 1067 
2044 2061 2022 1069 926 1070 
2043 1991 2062 981 895 1071 
2062 1954 1942 896 1089 1072 
2038 2064 2061 897 898 1074 
1907 2060 2059 1086 899 1087 
1946 2063 2057 1068 900 1092 
2057 635 1904 901 1454 1093 
2056 2117 2036 902 904 1095 
2055 2077 1977 903 1004 1097 
2036 2117 2035 904 905 1098 
2035 2117 2034 905 906 1099 
2034 2117 2033 906 907 1100 
2033 2116 2032 908 909 1101 
2032 2115 2031 910 911 1102 
2031 2114 2030 912 913 1103 
2030 2113 2029 914 915 1104 
2029 2080 2028 916 917 1105 
2028 2081 2027 918 919 1106 
2027 2079 2026 920 921 1107 
2026 2112 2025 922 923 1108 
2025 2060 2024 924 925 1109 
2022 2061 2021 926 927 1113 
2021 2111 2020 928 929 1114 
2020 2110 2019 930 931 1115 
2019 2109 2018 932 933 1116 
2018 2108 2017 934 935 1117 
2017 2107 2016 936 937 1118 
2016 2106 2015 938 939 1119 
2015 2063 2014 940 941 1120 
2014 2045 2013 942 943 1121 
2012 1939 2011 1225 944 1125 
2011 2105 2010 945 946 1126 
2010 2104 2009 947 948 1127 
2009 2103 2008 949 950 1128 
2008 2102 2007 951 952 1129 
2007 2101 2006 953 954 1130 
2006 2100 2005 955 956 1131 
2005 2099 2004 957 958 1132 
2004 2098 2003 959 960 1133 
2003 2042 2002 961 962 1134 
2002 1926 2001 963 1065 1135 
2000 1941 1999 1221 964 1136 
1999 2097 1998 965 966 1137 
1998 2067 1997 967 968 1138 
1997 2096 1996 969 970 1139 
1996 2095 1995 971 972 1140 
1995 2094 1994 973 974 1141 
1994 2093 1993 975 976 1142 
1993 2092 1992 977 978 1143 
1992 2068 1991 979 980 1144 
1991 2043 1990 981 982 1145 
1989 1943 1988 1217 983 1147 
1988 2091 1987 984 985 1148 
1987 2090 1986 986 987 1149 
1986 2089 1985 988 989 1150 
1985 2088 1984 990 991 1151 
1984 2087 1983 992 993 1152 
1983 2073 1982 994 995 1153 
1982 2074 1981 996 997 1154 
1981 2075 1980 998 999 1155 
1980 2086 1979 1000 1001 1156 
1979 2055 1978 1002 1003 1157 
1978 2055 1882 1003 1096 1158 
1977 2077 1976 1004 1005 1159 
1976 2077 1964 1005 1025 1160 
1975 2056 1883 1007 1094 1161 
1974 2056 1975 1006 1007 1162 
1973 2085 1974 1008 1009 1163 
1972 2084 1973 1010 1011 1164 
1971 2083 1972 1012 1013 1165 
1970 2082 1971 1014 1015 1166 
1968 2081 1969 1016 1017 1167 
1969 2080 1970 1018 1019 1168 
1967 2079 1968 1020 1021 1169 
1966 2078 1967 1022 1023 1170 
1965 2059 1966 1088 1024 1171 
1964 2077 1963 1025 1026 1172 
1963 2076 1962 1027 1028 1173 
1962 2075 1961 1029 1030 1174 
1961 2074 1960 1031 1032 1175 
1960 2073 1959 1033 1034 1176 
1959 2072 1958 1035 1036 1177 
1958 2071 1957 1037 1038 1178 
1957 2070 1956 1039 1040 1179 
1956 2069 1955 1041 1042 1180 
1954 2068 2054 1043 1044 1183 
2054 587 585 1045 586 1184 
595 593 2053 594 1046 1185 
2053 2067 1953 1047 1048 1186 
1905 2058 1952 1091 1049 1188 
1952 2066 2052 1050 1051 1189 
2052 612 610 1052 611 1190 
620 618 2051 619 1053 1191 
2051 2065 1951 1054 1055 1192 
645 643 2050 644 1056 1194 
2050 2064 1950 1057 1058 1195 
1949 144 2048 1363 1061 1199 
2048 144 1930 1061 1362 1062 
2047 118 1948 1064 1337 1202 
2001 1926 1927 1065 1472 1204 
2045 2063 1946 1067 1068 1208 
1938 2061 2044 1075 1069 1209 
2044 2022 1945 1070 1112 1214 
1945 62 1944 1284 1283 1215 
2043 2062 1942 1071 1072 1220 
2042 2058 1940 1073 1090 1224 
2038 2061 1938 1074 1075 1227 
1937 1955 2041 1181 1076 1228 
1936 1953 2040 1187 1077 1230 
1935 1951 2039 1193 1078 1232 
1934 1950 2038 1196 1079 1235 
2037 58 1919 1080 1281 1237 
1913 2041 1943 1229 1081 1238 
1912 2040 1941 1231 1082 1239 
1919 2023 1909 1111 1083 1240 
1909 2023 1908 1083 1084 1241 
1908 2060 1907 1085 1086 1242 
1907 2059 1965 1087 1088 1243 
1942 1954 1906 1089 1182 1245 
1940 2058 1905 1090 1091 1247 
1946 2057 1904 1092 1093 1249 
1883 2056 2036 1094 1095 1250 
1882 2055 1977 1096 1097 1251 
27 2036 2035 1253 1098 1254 
34 2034 2033 1257 1100 1258 
36 2033 2032 1259 1101 1260 
38 2032 2031 1261 1102 1262 
40 2031 2030 1263 1103 1264 
42 2030 2029 1265 1104 1266 
44 2029 2028 1267 1105 1268 
46 2028 2027 1269 1106 1270 
48 2027 2026 1271 1107 1272 
50 2026 2025 1273 1108 1274 
52 2025 2024 1275 1109 1276 
54 2024 2023 1277 1110 1278 
2023 1919 56 1111 1280 1279 
64 1945 2022 1285 1112 1286 
66 2022 2021 1287 1113 1288 
68 2021 2020 1289 1114 1290 
70 2020 2019 1291 1115 1292 
72 2019 2018 1293 1116 1294 
74 2018 2017 1295 1117 1296 
76 2017 2016 1297 1118 1298 
78 2016 2015 1299 1119 1300 
80 2015 2014 1301 1120 1302 
82 2014 2013 1303 1121 1304 
2013 1922 84 1122 1306 1305 
1947 2046 88 1206 1123 1309 
92 1925 2012 1311 1124 1312 
94 2012 2011 1313 1125 1314 
96 2011 2010 1315 1126 1316 
98 2010 2009 1317 1127 1318 
100 2009 2008 1319 1128 1320 
102 2008 2007 1321 1129 1322 
104 2007 2006 1323 1130 1324 
106 2006 2005 1325 1131 1326 
108 2005 2004 1327 1132 1328 
110 2004 2003 1329 1133 1330 
112 2003 2002 1331 1134 1332 
114 2002 2001 1333 1135 1334 
116 2001 1948 1335 1203 1336 
120 1929 2000 1338 1211 1339 
122 2000 1999 1340 1136 1341 
124 1999 1998 1342 1137 1343 
126 1998 1997 1344 1138 1345 
128 1997 1996 1346 1139 1347 
130 1996 1995 1348 1140 1349 
132 1995 1994 1350 1141 1351 
134 1994 1993 1352 1142 1353 
136 1993 1992 1354 1143 1355 
138 1992 1991 1356 1144 1357 
140 1991 1990 1358 1145 1359 
1990 1930 142 1146 1361 1360 
150 1933 1989 1366 1210 1367 
152 1989 1988 1368 1147 1369 
154 1988 1987 1370 1148 1371 
156 1987 1986 1372 1149 1373 
158 1986 1985 1374 1150 1375 
160 1985 1984 1376 1151 1377 
162 1984 1983 1378 1152 1379 
164 1983 1982 1380 1153 1381 
166 1982 1981 1382 1154 1383 
168 1981 1980 1384 1155 1385 
170 1980 1979 1386 1156 1387 
172 1979 1978 1388 1157 1389 
181 1977 1976 1392 1159 1393 
1974 1975 527 1162 1395 1398 
1973 1974 529 1163 1397 1400 
1972 1973 531 1164 1399 1402 
1971 1972 533 1165 1401 1404 
1970 1971 535 1166 1403 1406 
539 1968 1969 1410 1167 1407 
1969 1970 537 1168 1405 1408 
1967 1968 541 1169 1409 1412 
1966 1967 543 1170 1411 1414 
547 1817 1965 1656 1244 1415 
1965 1966 545 1171 1413 1416 
554 1964 1963 1418 1172 1419 
556 1963 1962 1420 1173 1421 
558 1962 1961 1422 1174 1423 
560 1961 1960 1424 1175 1425 
562 1960 1959 1426 1176 1427 
564 1959 1958 1428 1177 1429 
566 1958 1957 1430 1178 1431 
568 1957 1956 1432 1179 1433 
570 1956 1955 1434 1180 1435 
1955 1937 572 1181 1437 1436 
583 1906 1954 1439 1182 1440 
1954 2054 585 1183 1184 1441 
595 2053 1953 1185 1186 1442 
1953 1936 597 1187 1444 1443 
608 1905 1952 1446 1188 1447 
1952 2052 610 1189 1190 1448 
620 2051 1951 1191 1192 1449 
1951 1935 622 1193 1451 1450 
645 2050 1950 1194 1195 1455 
1950 1934 647 1196 1457 1456 
1932 2049 1949 1197 1198 1459 
1928 2047 1948 1201 1202 1460 
1948 2001 1927 1203 1204 1461 
1924 2046 1947 1205 1206 1462 
1921 2045 1946 1207 1208 1464 
1938 2044 1920 1209 1213 1466 
1918 1989 1933 1218 1210 1467 
1916 2000 1929 1222 1211 1470 
1926 2042 1915 1212 1223 1473 
1892 1945 1944 1478 1215 1479 
1943 1989 1918 1217 1218 1482 
1917 2043 1942 1219 1220 1483 
1941 2000 1916 1221 1222 1486 
1915 2042 1940 1223 1224 1487 
1939 2012 1914 1225 1226 1490 
1910 2038 1938 1236 1227 1491 
1937 2041 1913 1228 1229 1495 
1936 2040 1912 1230 1231 1497 
1935 2039 1911 1232 1233 1499 
1911 1939 1886 1234 1489 1500 
1934 2038 1910 1235 1236 1502 
1887 1940 1880 1488 1246 1504 
1885 1946 1879 1465 1248 1505 
1913 1943 1890 1238 1481 1544 
1912 1941 1888 1239 1485 1550 
1865 1919 1909 1543 1240 1561 
1819 1909 1908 1575 1241 1576 
1880 1940 1905 1246 1247 1581 
1879 1946 1904 1248 1249 1583 
1883 2036 25 1250 1252 1652 
1882 1977 179 1251 1391 1654 
25 2036 27 1252 1253 26 
27 2035 29 1254 1255 28 
32 2034 34 1256 1257 33 
34 2033 36 1258 1259 35 
36 2032 38 1260 1261 37 
38 2031 40 1262 1263 39 
40 2030 42 1264 1265 41 
42 2029 44 1266 1267 43 
44 2028 46 1268 1269 45 
46 2027 48 1270 1271 47 
48 2026 50 1272 1273 49 
50 2025 52 1274 1275 51 
52 2024 54 1276 1277 53 
54 2023 56 1278 1279 55 
56 1919 58 1280 1281 57 
60 1944 62 1282 1283 61 
62 1945 64 1284 1285 63 
64 2022 66 1286 1287 65 
66 2021 68 1288 1289 67 
68 2020 70 1290 1291 69 
70 2019 72 1292 1293 71 
72 2018 74 1294 1295 73 
74 2017 76 1296 1297 75 
76 2016 78 1298 1299 77 
78 2015 80 1300 1301 79 
80 2014 82 1302 1303 81 
82 2013 84 1304 1305 83 
84 1922 86 1306 1307 85 
86 1947 88 1308 1309 87 
90 1925 92 1310 1311 91 
92 2012 94 1312 1313 93 
94 2011 96 1314 1315 95 
96 2010 98 1316 1317 97 
98 2009 100 1318 1319 99 
100 2008 102 1320 1321 101 
102 2007 104 1322 1323 103 
104 2006 106 1324 1325 105 
106 2005 108 1326 1327 107 
108 2004 110 1328 1329 109 
110 2003 112 1330 1331 111 
112 2002 114 1332 1333 113 
114 2001 116 1334 1335 115 
116 1948 118 1336 1337 117 
120 2000 122 1339 1340 121 
122 1999 124 1341 1342 123 
124 1998 126 1343 1344 125 
126 1997 128 1345 1346 127 
128 1996 130 1347 1348 129 
130 1995 132 1349 1350 131 
132 1994 134 1351 1352 133 
134 1993 136 1353 1354 135 
136 1992 138 1355 1356 137 
138 1991 140 1357 1358 139 
140 1990 142 1359 1360 141 
142 1930 144 1361 1362 143 
144 1949 146 1363 1364 145 
148 1933 150 1365 1366 149 
150 1989 152 1367 1368 151 
152 1988 154 1369 1370 153 
154 1987 156 1371 1372 155 
156 1986 158 1373 1374 157 
158 1985 160 1375 1376 159 
160 1984 162 1377 1378 161 
162 1983 164 1379 1380 163 
164 1982 166 1381 1382 165 
166 1981 168 1383 1384 167 
168 1980 170 1385 1386 169 
170 1979 172 1387 1388 171 
172 1978 174 1389 1390 173 
179 1977 181 1391 1392 180 
181 1976 183 1393 1394 182 
527 1975 525 1395 1396 526 
529 1974 527 1397 1398 528 
531 1973 529 1399 1400 530 
533 1972 531 1401 1402 532 
535 1971 533 1403 1404 534 
537 1970 535 1405 1406 536 
539 1969 537 1407 1408 538 
541 1968 539 1409 1410 540 
543 1967 541 1411 1412 542 
545 1966 543 1413 1414 544 
547 1965 545 1415 1416 546 
552 1964 554 1417 1418 553 
554 1963 556 1419 1420 555 
556 1962 558 1421 1422 557 
558 1961 560 1423 1424 559 
560 1960 562 1425 1426 561 
562 1959 564 1427 1428 563 
564 1958 566 1429 1430 565 
566 1957 568 1431 1432 567 
568 1956 570 1433 1434 569 
570 1955 572 1435 1436 571 
572 1937 574 1437 1438 573 
581 1906 583 1580 1439 582 
583 1954 585 1440 1441 584 
595 1953 597 1442 1443 596 
597 1936 599 1444 1445 598 
606 1905 608 1582 1446 607 
608 1952 610 1447 1448 609 
620 1951 622 1449 1450 621 
622 1935 624 1451 1452 623 
631 1904 633 1584 1453 632 
633 1904 635 1453 1454 634 
645 1950 647 1455 1456 646 
647 1934 649 1457 1458 648 
1928 1948 1927 1460 1461 1471 
1924 1947 1923 1462 1463 1474 
1921 1946 1885 1464 1465 1477 
1884 1938 1920 1492 1466 1493 
1903 1918 1933 1506 1467 1507 
1932 1931 1877 1468 1469 1511 
1876 1877 1931 1547 1469 1512 
1899 1916 1929 1518 1470 1519 
1927 1926 1897 1472 1526 1525 
1896 1926 1915 1527 1473 1529 
1924 1923 1869 1474 1475 1532 
1868 1869 1923 1558 1475 1533 
1923 1922 1894 1476 1535 1534 
1921 1885 1867 1477 1633 1539 
1892 1944 1891 1479 1480 1542 
1890 1943 1918 1481 1482 1545 
1917 1942 1889 1483 1484 1549 
1888 1941 1916 1485 1486 1551 
1915 1940 1887 1487 1488 1555 
1886 1939 1914 1489 1490 1556 
1910 1938 1884 1491 1492 1559 
1884 1920 1866 1493 1540 1560 
1856 1937 1913 1494 1495 1562 
1846 1936 1912 1496 1497 1565 
1836 1935 1911 1498 1499 1568 
1835 1911 1886 1569 1500 1570 
1826 1934 1910 1501 1502 1572 
1847 1889 1881 1564 1503 1578 
1878 1918 1903 1546 1506 1585 
1903 1933 1902 1507 1508 1509 
1864 1903 1902 1586 1509 1587 
1902 1932 1877 1510 1511 1588 
1876 1931 1901 1512 1513 1589 
1901 1930 1900 1514 1515 1516 
1863 1901 1900 1590 1516 1591 
1900 1917 1875 1517 1548 1592 
1874 1916 1899 1552 1518 1593 
1899 1929 1898 1519 1520 1521 
1862 1899 1898 1594 1521 1595 
1898 1928 1873 1522 1523 1596 
1872 1927 1897 1524 1525 1597 
1897 1926 1896 1526 1527 1528 
1861 1897 1896 1598 1528 1599 
1896 1915 1871 1529 1554 1600 
1868 1923 1894 1533 1534 1602 
1894 1922 1893 1535 1536 1537 
1859 1894 1893 1603 1537 1604 
1893 1921 1867 1538 1539 1605 
1866 1920 1892 1540 1541 1606 
1858 1892 1891 1607 1542 1608 
1855 1913 1890 1563 1544 1610 
1890 1918 1878 1545 1546 1612 
1851 1877 1876 1614 1547 1615 
1875 1917 1889 1548 1549 1616 
1845 1912 1888 1566 1550 1619 
1888 1916 1874 1551 1552 1621 
1841 1873 1872 1623 1553 1624 
1871 1915 1887 1554 1555 1625 
1886 1914 1870 1556 1557 1629 
1831 1869 1868 1631 1558 1632 
1825 1910 1884 1573 1559 1636 
1824 1884 1866 1637 1560 1638 
1865 1909 1820 1561 1574 1639 
1856 1913 1855 1562 1563 1640 
1848 1889 1847 1617 1564 1641 
1846 1912 1845 1565 1566 1642 
1838 1887 1837 1626 1567 1643 
1836 1911 1835 1568 1569 1644 
1835 1886 1834 1570 1628 1645 
1828 1885 1827 1634 1571 1646 
1826 1910 1825 1572 1573 1647 
1820 1909 1819 1574 1575 1648 
1881 1906 581 1579 1580 1659 
1880 1905 606 1581 1582 1662 
1879 1904 631 1583 1584 1665 
1878 1903 1864 1585 1586 1668 
1864 1902 1877 1587 1588 1669 
1876 1901 1863 1589 1590 1672 
1863 1900 1875 1591 1592 1673 
1874 1899 1862 1593 1594 1676 
1862 1898 1873 1595 1596 1677 
1872 1897 1861 1597 1598 1680 
1861 1896 1871 1599 1600 1681 
1868 1894 1859 1602 1603 1688 
1859 1893 1867 1604 1605 1689 
1866 1892 1858 1606 1607 1692 
1858 1891 1857 1608 1609 1693 
1855 1890 1854 1610 1611 1712 
1854 1890 1878 1611 1612 1613 
1854 1878 1853 1613 1667 1713 
1852 1877 1851 1670 1614 1715 
1851 1876 1850 1615 1671 1716 
1875 1889 1848 1616 1617 1618 
1849 1875 1848 1674 1618 1718 
1845 1888 1844 1619 1620 1719 
1844 1888 1874 1620 1621 1622 
1844 1874 1843 1622 1675 1720 
1842 1873 1841 1678 1623 1722 
1841 1872 1840 1624 1679 1723 
1871 1887 1838 1625 1626 1627 
1839 1871 1838 1682 1627 1725 
1834 1886 1870 1628 1629 1630 
1834 1870 1833 1630 1683 1726 
1832 1869 1831 1686 1631 1728 
1831 1868 1830 1632 1687 1729 
1867 1885 1828 1633 1634 1635 
1829 1867 1828 1690 1635 1731 
1825 1884 1824 1636 1637 1732 
1824 1866 1823 1638 1691 1733 
1821 1865 1820 1695 1639 1736 
373 1856 1855 1738 1640 1739 
388 1848 1847 1754 1641 1755 
417 1846 1845 1758 1642 1759 
432 1838 1837 1774 1643 1775 
461 1836 1835 1778 1644 1779 
463 1835 1834 1780 1645 1781 
476 1828 1827 1794 1646 1795 
505 1826 1825 1798 1647 1799 
516 1820 1819 1810 1648 1811 
518 1819 1818 1812 1649 1813 
520 1818 1817 1814 1650 1815 
23 1883 25 1651 1652 24 
177 1882 179 1653 1654 178 
549 1817 547 1655 1656 548 
579 1881 581 1658 1659 580 
604 1880 606 1661 1662 605 
629 1879 631 1664 1665 630 
1853 1878 1864 1667 1668 1696 
1864 1877 1852 1669 1670 1697 
1850 1876 1863 1671 1672 1698 
1863 1875 1849 1673 1674 1699 
1843 1874 1862 1675 1676 1700 
1862 1873 1842 1677 1678 1701 
1840 1872 1861 1679 1680 1702 
1861 1871 1839 1681 1682 1703 
1833 1870 1860 1683 1684 1704 
1860 1869 1832 1685 1686 1705 
1830 1868 1859 1687 1688 1706 
1859 1867 1829 1689 1690 1707 
1823 1866 1858 1691 1692 1708 
1822 1858 1857 1709 1693 1710 
1857 1865 1821 1694 1695 1711 
1853 1864 1852 1696 1697 1714 
1850 1863 1849 1698 1699 1717 
1843 1862 1842 1700 1701 1721 
1840 1861 1839 1702 1703 1724 
1833 1860 1832 1704 1705 1727 
1830 1859 1829 1706 1707 1730 
1823 1858 1822 1708 1709 1734 
1822 1857 1821 1710 1711 1735 
375 1855 1854 1740 1712 1741 
377 1854 1853 1742 1713 1743 
379 1853 1852 1744 1714 1745 
9 1852 1851 1746 1715 1747 
382 1851 1850 1748 1716 1749 
384 1850 1849 1750 1717 1751 
1849 1848 386 1718 1753 1752 
419 1845 1844 1760 1719 1761 
421 1844 1843 1762 1720 1763 
423 1843 1842 1764 1721 1765 
13 1842 1841 1766 1722 1767 
426 1841 1840 1768 1723 1769 
428 1840 1839 1770 1724 1771 
1839 1838 430 1725 1773 1772 
465 1834 1833 1782 1726 1783 
467 1833 1832 1784 1727 1785 
17 1832 1831 1786 1728 1787 
470 1831 1830 1788 1729 1789 
472 1830 1829 1790 1730 1791 
1829 1828 474 1731 1793 1792 
507 1825 1824 1800 1732 1801 
509 1824 1823 1802 1733 1803 
511 1823 1822 1804 1734 1805 
21 1822 1821 1806 1735 1807 
1821 1820 514 1736 1809 1808 
371 1856 373 1737 1738 372 
373 1855 375 1739 1740 374 
375 1854 377 1741 1742 376 
377 1853 379 1743 1744 378 
379 1852 9 1745 1746 380 
9 1851 382 1747 1748 381 
382 1850 384 1749 1750 383 
384 1849 386 1751 1752 385 
386 1848 388 1753 1754 387 
388 1847 390 1755 1756 389 
415 1846 417 1757 1758 416 
417 1845 419 1759 1760 418 
419 1844 421 1761 1762 420 
421 1843 423 1763 1764 422 
423 1842 13 1765 1766 424 
13 1841 426 1767 1768 425 
426 1840 428 1769 1770 427 
428 1839 430 1771 1772 429 
430 1838 432 1773 1774 431 
432 1837 434 1775 1776 433 
459 1836 461 1777 1778 460 
461 1835 463 1779 1780 462 
463 1834 465 1781 1782 464 
465 1833 467 1783 1784 466 
467 1832 17 1785 1786 468 
17 1831 470 1787 1788 469 
470 1830 472 1789 1790 471 
472 1829 474 1791 1792 473 
474 1828 476 1793 1794 475 
476 1827 478 1795 1796 477 
503 1826 505 1797 1798 504 
505 1825 507 1799 1800 506 
507 1824 509 1801 1802 508 
509 1823 511 1803 1804 510 
511 1822 21 1805 1806 512 
21 1821 514 1807 1808 513 
514 1820 516 1809 1810 515 
516 1819 518 1811 1812 517 
518 1818 520 1813 1814 519 
520 1817 522 1815 1816 521 
3390 3389 3311 2732 3079 2140 
3312 3390 3311 3078 2140 3156 
3323 3369 3348 3074 3126 2141 
3322 3323 3348 3152 2141 3127 
3619 637 3617 2243 2244 2142 
3613 3619 3617 2214 2142 2255 
3573 3563 3562 2309 2356 2143 
3464 3573 3562 2487 2143 2486 
3591 3499 3546 2428 2429 2144 
3604 3591 3546 2268 2144 2382 
3531 3421 3420 2700 2959 2145 
3432 3531 3420 2687 2145 2950 
3485 3404 3379 2451 3032 2146 
3403 3485 3379 2450 2146 3033 
3365 3414 3396 2998 3003 2147 
3364 3365 3396 3059 2147 3063 
3434 3314 3315 2728 3154 2148 
3391 3434 3315 2729 2148 3077 
3449 3390 3312 2730 3078 2149 
3313 3449 3312 2731 2149 3155 
3373 3333 3625 3069 2189 2150 
3357 3373 3625 3017 2150 2183 
3369 3323 3626 3074 2185 2151 
3356 3369 3626 3018 2151 2184 
3405 3408 3428 2974 2957 2152 
3533 3405 3428 2695 2152 2696 
3545 3523 3376 2571 2726 2153 
3369 3545 3376 2572 2153 3053 
3533 3428 309 2696 2855 2154 
311 3533 309 2551 2154 310 
3411 574 576 2929 575 2155 
3334 3411 576 3008 2155 3165 
3410 599 601 2936 600 2156 
3324 3410 601 3010 2156 3168 
3409 649 651 2949 650 2157 
3304 3409 651 3014 2157 3175 
20 500 3304 501 3302 2158 
651 20 3304 652 2158 3175 
18 549 3313 550 3163 2159 
481 18 3313 480 2159 3285 
16 456 3314 457 3282 2160 
626 16 3314 627 2160 3172 
12 412 3324 413 3262 2161 
601 12 3324 602 2161 3168 
8 368 3334 369 3242 2162 
576 8 3334 577 2162 3165 
3583 3609 3538 2288 2231 2163 
3554 3583 3538 2226 2163 2534 
3389 3543 3510 2576 2410 2164 
3509 3389 3510 2579 2164 2599 
3425 3496 3495 2701 2614 2165 
3549 3425 3495 2559 2165 2431 
3548 3475 3474 2378 2635 2166 
3528 3548 3474 2560 2166 2469 
3508 3530 3397 2411 2176 2167 
3415 3508 3397 2601 2167 3000 
3521 192 3621 2742 2207 2168 
3520 3521 3621 2588 2168 2205 
3534 3497 251 2548 2798 2169 
3429 3534 251 2693 2169 2799 
3460 346 3623 2885 2199 2170 
3448 3460 3623 2650 2170 2197 
3375 3358 3386 3016 3085 2171 
3424 3375 3386 2981 2171 2734 
3545 3369 3356 2572 3018 2172 
3384 3545 3356 2385 2172 3089 
3459 525 3620 2887 2211 2173 
3360 3459 3620 2651 2173 2209 
3462 337 3622 2881 2203 2174 
3359 3462 3622 2648 2174 2201 
3532 3407 305 2553 2853 2175 
307 3532 305 2552 2175 306 
3530 3412 3397 2704 2999 2176 
3532 3408 3383 2698 3020 2177 
3407 3532 3383 2553 2177 3021 
3528 3407 3382 2708 3022 2178 
3400 3528 3382 2711 2178 3024 
3533 3406 3380 2550 3027 2179 
3405 3533 3380 2695 2179 3029 
3497 3402 3377 2373 3038 2180 
3401 3497 3377 2613 2180 3039 
3523 3401 3377 2724 3039 2181 
3376 3523 3377 2726 2181 3040 
3358 3343 3624 3084 2193 2182 
579 3358 3624 3166 2182 2194 
604 3357 3625 3169 2183 2190 
629 3356 3626 3173 2184 2186 
3626 3323 437 2185 3265 2187 
14 629 3626 628 2186 2188 
14 3626 437 2188 2187 436 
3625 3333 393 2189 3245 2191 
10 604 3625 603 2190 2192 
10 3625 393 2192 2191 392 
3624 3343 349 2193 3225 2195 
6 579 3624 578 2194 2196 
6 3624 349 2196 2195 348 
3623 552 3448 2198 2908 2197 
3 552 3623 551 2198 2200 
3 3623 346 2200 2199 347 
3622 340 3359 2202 3161 2201 
5 340 3622 339 2202 2204 
5 3622 337 2204 2203 338 
3621 195 3520 2206 2743 2205 
4 195 3621 194 2206 2208 
4 3621 192 2208 2207 193 
3620 186 3360 2210 3159 2209 
0 186 3620 185 2210 2212 
0 3620 525 2212 2211 524 
3618 641 3615 2248 2251 2252 
3605 3619 3591 2213 2221 2269 
635 3619 3605 2242 2213 2270 
3592 3619 3613 2220 2214 2280 
3608 591 3609 2237 2238 2215 
3608 3609 3582 2215 2289 2290 
3607 589 3608 2217 2236 2216 
3607 3608 3581 2216 2291 2292 
3606 589 3607 2235 2217 2218 
3606 3607 3580 2218 2293 2294 
3565 3566 3598 2229 2324 2219 
3565 3598 3544 2219 2318 2354 
3526 3578 3556 2233 2296 2362 
3539 3606 3579 2230 2295 2365 
3589 3612 3536 2281 2232 2369 
3603 3572 3541 2271 2348 2387 
3564 3573 3540 2308 2227 2388 
3591 3619 3592 2221 2220 2222 
3591 3592 3500 2222 2426 2427 
3590 3549 3494 2223 2432 2433 
3552 3549 3590 2377 2223 2224 
3589 3552 3590 2370 2224 2225 
3589 3590 3493 2225 2434 2435 
3554 3550 3482 2375 2454 2455 
3583 3554 3481 2226 2456 2457 
3555 3579 3476 2364 2466 2467 
3540 3573 3463 2227 2488 2489 
3568 3513 3566 2404 2405 2228 
3452 3568 3566 2503 2228 2508 
3451 3566 3565 2507 2229 2510 
587 3606 3539 2234 2230 2532 
3609 593 3538 2239 2533 2231 
612 3610 3537 2240 2266 2539 
3536 3612 618 2232 2241 2540 
3535 3616 643 2260 2249 2544 
3525 3554 3437 2374 2535 2566 
3423 3578 3526 2342 2233 2570 
3528 3474 3407 2469 2636 2708 
3414 223 3415 2770 2771 2968 
589 3606 587 2235 2234 588 
591 3608 589 2237 2236 590 
593 3609 591 2239 2238 592 
614 3610 612 2259 2240 613 
616 3611 614 2257 2258 615 
618 3612 616 2241 2256 617 
637 3619 635 2243 2242 636 
3617 637 639 2244 638 2245 
3618 3614 3617 2253 2254 2246 
3618 3617 639 2246 2245 2247 
641 3618 639 2248 2247 640 
643 3616 641 2249 2250 642 
3615 641 3616 2251 2250 2261 
3614 3618 3615 2253 2252 2262 
3613 3617 3614 2255 2254 2263 
3611 616 3612 2257 2256 2264 
3610 614 3611 2259 2258 2265 
3558 3441 3557 2525 2526 2267 
3551 3547 3597 2381 2326 2272 
3616 3535 3596 2260 2371 2273 
3615 3616 3595 2261 2274 2275 
3614 3615 3594 2262 2276 2277 
3593 3613 3614 2279 2263 2278 
3611 3612 3588 2264 2282 2283 
3610 3611 3587 2265 2284 2285 
3586 3537 3610 2368 2266 2286 
3577 3557 3556 2298 2361 2297 
3576 3558 3557 2300 2267 2299 
3605 3591 3604 2269 2268 2315 
3384 635 3605 2945 2270 2317 
3602 3572 3603 2302 2271 2319 
3601 3571 3602 2304 2301 2320 
3600 3570 3601 2306 2303 2321 
3599 3569 3600 2307 2305 2322 
3596 3551 3597 2372 2272 2327 
3595 3616 3596 2274 2273 2328 
3594 3615 3595 2276 2275 2329 
3593 3614 3594 2278 2277 2330 
3592 3613 3593 2280 2279 2331 
3588 3612 3589 2282 2281 2332 
3587 3611 3588 2284 2283 2333 
3586 3610 3587 2286 2285 2334 
3585 3553 3586 2287 2367 2335 
3584 3553 3585 2314 2287 2336 
3527 3542 3584 2562 2313 2337 
3582 3609 3583 2289 2288 2338 
3581 3608 3582 2291 2290 2339 
3580 3607 3581 2293 2292 2340 
3579 3606 3580 2295 2294 2341 
3577 3556 3578 2297 2296 2343 
3576 3557 3577 2299 2298 2344 
3575 3558 3576 2312 2300 2345 
3574 3559 3575 2310 2311 2346 
3572 3602 3571 2302 2301 2349 
3571 3601 3570 2304 2303 2350 
3570 3600 3569 2306 2305 2351 
3567 3514 3568 2402 2403 2352 
3569 3599 3567 2307 2323 2353 
3563 3573 3564 2309 2308 2355 
3561 3465 3562 2484 2485 2357 
3560 3466 3561 2482 2483 2358 
3559 3574 3560 2310 2347 2359 
3558 3575 3559 2312 2311 2360 
3555 3475 3548 2468 2378 2363 
3553 3584 3542 2314 2313 2366 
3545 3605 3604 2316 2315 2384 
3384 3605 3545 2317 2316 2385 
3544 3598 3543 2318 2325 2386 
3602 3603 3519 2319 2392 2393 
3601 3602 3518 2320 2394 2395 
3600 3601 3517 2321 2396 2397 
3599 3600 3516 2322 2398 2399 
3515 3567 3599 2401 2323 2400 
3598 3566 3512 2324 2406 2407 
3511 3543 3598 2409 2325 2408 
3507 3547 3530 2413 2555 2412 
3597 3547 3506 2326 2414 2415 
3596 3597 3505 2327 2416 2417 
3595 3596 3504 2328 2418 2419 
3594 3595 3503 2329 2420 2421 
3593 3594 3502 2330 2422 2423 
3501 3592 3593 2425 2331 2424 
3588 3589 3492 2332 2436 2437 
3587 3588 3491 2333 2438 2439 
3586 3587 3490 2334 2440 2441 
3585 3586 3489 2335 2442 2443 
3584 3585 3488 2336 2444 2445 
3487 3527 3584 2447 2337 2446 
3403 3527 3486 2710 2448 2449 
3484 3419 3404 2690 2961 2452 
3582 3583 3480 2338 2458 2459 
3581 3582 3479 2339 2460 2461 
3580 3581 3478 2340 2462 2463 
3477 3579 3580 2465 2341 2464 
3578 3423 3472 2342 2470 2471 
3577 3578 3471 2343 2472 2473 
3576 3577 3470 2344 2474 2475 
3575 3576 3469 2345 2476 2477 
3574 3575 3468 2346 2478 2479 
3467 3560 3574 2481 2347 2480 
3458 3541 3572 2493 2348 2496 
3457 3572 3571 2495 2349 2498 
3456 3571 3570 2497 2350 2500 
3455 3570 3569 2499 2351 2502 
3567 3568 3453 2352 2504 2505 
3454 3569 3567 2501 2353 2506 
3450 3565 3544 2509 2354 2511 
3563 3564 3447 2355 2513 2514 
3562 3563 3446 2356 2515 2516 
3561 3562 3445 2357 2517 2518 
3560 3561 3444 2358 2519 2520 
3559 3560 3443 2359 2521 2522 
3442 3558 3559 2524 2360 2523 
3556 3557 3440 2361 2527 2528 
3439 3526 3556 2565 2362 2529 
3555 3548 3438 2363 2379 2530 
3539 3579 3555 2365 2364 2531 
3553 3542 3436 2366 2536 2537 
3537 3586 3553 2368 2367 2538 
3552 3589 3536 2370 2369 2541 
3435 3529 3552 2543 2376 2542 
3551 3596 3535 2372 2371 2545 
3433 3524 3551 2567 2380 2546 
3483 3550 3531 2453 2554 2547 
3402 3497 3534 2373 2548 2549 
311 3406 3533 2856 2550 2551 
3550 3554 3525 2375 2374 2556 
3549 3552 3529 2377 2376 2558 
3424 3438 3548 2580 2379 2561 
3547 3551 3524 2381 2380 2563 
3546 3498 3401 2430 2612 2568 
3523 3604 3546 2383 2382 2569 
3545 3604 3523 2384 2383 2571 
3390 3544 3543 2574 2386 2577 
3522 3603 3541 2389 2387 2584 
3461 3564 3540 2491 2388 2586 
3521 3603 3522 2390 2389 2587 
3520 3603 3521 2391 2390 2588 
3519 3603 3520 2392 2391 2589 
3518 3602 3519 2394 2393 2590 
3517 3601 3518 2396 2395 2591 
3516 3600 3517 2398 2397 2592 
3515 3599 3516 2400 2399 2593 
3514 3567 3515 2402 2401 2594 
3513 3568 3514 2404 2403 2595 
3512 3566 3513 2406 2405 2596 
3511 3598 3512 2408 2407 2597 
3510 3543 3511 2410 2409 2598 
3507 3530 3508 2412 2411 2602 
3506 3547 3507 2414 2413 2603 
3505 3597 3506 2416 2415 2604 
3504 3596 3505 2418 2417 2605 
3503 3595 3504 2420 2419 2606 
3502 3594 3503 2422 2421 2607 
3501 3593 3502 2424 2423 2608 
3500 3592 3501 2426 2425 2609 
3499 3591 3500 2428 2427 2610 
3498 3546 3499 2430 2429 2611 
3494 3549 3495 2432 2431 2615 
3493 3590 3494 2434 2433 2616 
3492 3589 3493 2436 2435 2617 
3491 3588 3492 2438 2437 2618 
3490 3587 3491 2440 2439 2619 
3489 3586 3490 2442 2441 2620 
3488 3585 3489 2444 2443 2621 
3487 3584 3488 2446 2445 2622 
3486 3527 3487 2448 2447 2623 
3485 3403 3486 2450 2449 2624 
3484 3404 3485 2452 2451 2625 
3482 3550 3483 2454 2453 2627 
3481 3554 3482 2456 2455 2628 
3480 3583 3481 2458 2457 2629 
3479 3582 3480 2460 2459 2630 
3478 3581 3479 2462 2461 2631 
3477 3580 3478 2464 2463 2632 
3476 3579 3477 2466 2465 2633 
3475 3555 3476 2468 2467 2634 
3472 3423 3473 2470 2713 2637 
3471 3578 3472 2472 2471 2638 
3470 3577 3471 2474 2473 2639 
3469 3576 3470 2476 2475 2640 
3468 3575 3469 2478 2477 2641 
3467 3574 3468 2480 2479 2642 
3466 3560 3467 2482 2481 2643 
3465 3561 3466 2484 2483 2644 
3464 3562 3465 2486 2485 2645 
3463 3573 3464 2488 2487 2646 
3462 3540 3463 2490 2489 2647 
3359 3540 3462 2585 2490 2648 
3460 3564 3461 2492 2491 2649 
3448 3564 3460 2512 2492 2650 
3360 3541 3459 2583 2494 2651 
3459 3541 3458 2494 2493 2652 
3458 3572 3457 2496 2495 2653 
3457 3571 3456 2498 2497 2654 
3456 3570 3455 2500 2499 2655 
3455 3569 3454 2502 2501 2656 
3453 3568 3452 2504 2503 2657 
3454 3567 3453 2506 2505 2658 
3452 3566 3451 2508 2507 2659 
3451 3565 3450 2510 2509 2660 
3450 3544 3449 2511 2575 2661 
3447 3564 3448 2513 2512 2662 
3446 3563 3447 2515 2514 2663 
3445 3562 3446 2517 2516 2664 
3444 3561 3445 2519 2518 2665 
3443 3560 3444 2521 2520 2666 
3442 3559 3443 2523 2522 2667 
3441 3558 3442 2525 2524 2668 
3440 3557 3441 2527 2526 2669 
3439 3556 3440 2529 2528 2670 
3539 3555 3438 2531 2530 2673 
585 587 3539 586 2532 2674 
3538 593 595 2533 594 2675 
3437 3554 3538 2535 2534 2676 
3436 3542 3385 2536 2582 2678 
3537 3553 3436 2538 2537 2679 
610 612 3537 611 2539 2680 
3536 618 620 2540 619 2681 
3435 3552 3536 2542 2541 2682 
3434 3529 3435 2573 2543 2683 
3535 643 645 2544 644 2684 
3433 3551 3535 2546 2545 2685 
3432 3483 3531 2626 2547 2687 
3431 283 3432 2830 2831 2688 
3429 253 3430 2800 2801 2692 
3416 3402 3534 2965 2549 2694 
3532 307 3428 2552 2854 2697 
3531 3550 3426 2554 2557 2699 
3530 3547 3413 2555 2564 2703 
3426 3550 3525 2557 2556 2705 
3425 3549 3529 2559 2558 2707 
3424 3548 3528 2561 2560 2712 
3422 3542 3527 2581 2562 2716 
3413 3547 3524 2564 2563 2717 
3526 3439 3411 2565 2671 2718 
3525 3437 3410 2566 2677 2720 
3524 3433 3409 2567 2686 2722 
3523 3546 3401 2569 2568 2724 
3423 3526 3395 2570 2719 2725 
3388 3509 3427 2578 2600 2727 
3391 3529 3434 2706 2573 2729 
3449 3544 3390 2575 2574 2730 
3390 3543 3389 2577 2576 2732 
3389 3509 3388 2579 2578 2733 
3386 3438 3424 2672 2580 2734 
3385 3542 3422 2582 2581 2736 
3522 3541 3360 2584 2583 2737 
3461 3540 3359 2586 2585 2738 
3521 3522 190 2587 2740 2741 
3519 3520 197 2589 2744 2745 
3518 3519 199 2590 2746 2747 
3517 3518 201 2591 2748 2749 
3516 3517 203 2592 2750 2751 
3515 3516 205 2593 2752 2753 
3514 3515 207 2594 2754 2755 
3513 3514 209 2595 2756 2757 
3512 3513 211 2596 2758 2759 
3511 3512 213 2597 2760 2761 
3510 3511 215 2598 2762 2763 
3509 3510 217 2599 2764 2765 
219 3427 3509 2767 2600 2766 
3508 3415 225 2601 2772 2773 
3507 3508 227 2602 2774 2775 
3506 3507 229 2603 2776 2777 
3505 3506 231 2604 2778 2779 
3504 3505 233 2605 2780 2781 
3503 3504 235 2606 2782 2783 
3502 3503 237 2607 2784 2785 
3501 3502 239 2608 2786 2787 
3500 3501 241 2609 2788 2789 
3499 3500 243 2610 2790 2791 
3498 3499 245 2611 2792 2793 
247 3401 3498 2795 2612 2794 
3497 3401 249 2613 2796 2797 
3496 3430 255 2691 2802 2803 
3495 3496 257 2614 2804 2805 
3494 3495 259 2615 2806 2807 
3493 3494 261 2616 2808 2809 
3492 3493 263 2617 2810 2811 
3491 3492 265 2618 2812 2813 
3490 3491 267 2619 2814 2815 
3489 3490 269 2620 2816 2817 
3488 3489 271 2621 2818 2819 
3487 3488 273 2622 2820 2821 
3486 3487 275 2623 2822 2823 
3485 3486 277 2624 2824 2825 
3484 3485 279 2625 2826 2827 
281 3431 3484 2829 2689 2828 
3483 3432 285 2626 2832 2833 
3482 3483 287 2627 2834 2835 
3481 3482 289 2628 2836 2837 
3480 3481 291 2629 2838 2839 
3479 3480 293 2630 2840 2841 
3478 3479 295 2631 2842 2843 
3477 3478 297 2632 2844 2845 
3476 3477 299 2633 2846 2847 
3475 3476 301 2634 2848 2849 
3474 3475 303 2635 2850 2851 
305 3407 3474 2853 2636 2852 
3473 3406 313 2709 2857 2858 
3472 3473 315 2637 2859 2860 
3471 3472 317 2638 2861 2862 
3470 3471 319 2639 2863 2864 
3469 3470 321 2640 2865 2866 
3468 3469 323 2641 2867 2868 
3467 3468 325 2642 2869 2870 
3466 3467 327 2643 2871 2872 
3465 3466 329 2644 2873 2874 
3464 3465 331 2645 2875 2876 
3463 3464 333 2646 2877 2878 
3462 3463 335 2647 2879 2880 
3460 3461 344 2649 2883 2884 
527 3459 3458 2886 2652 2889 
529 3458 3457 2888 2653 2891 
531 3457 3456 2890 2654 2893 
533 3456 3455 2892 2655 2895 
535 3455 3454 2894 2656 2897 
3453 3452 539 2657 2901 2898 
537 3454 3453 2896 2658 2899 
541 3452 3451 2900 2659 2903 
543 3451 3450 2902 2660 2905 
3449 3313 547 2731 3164 2906 
545 3450 3449 2904 2661 2907 
3447 3448 554 2662 2909 2910 
3446 3447 556 2663 2911 2912 
3445 3446 558 2664 2913 2914 
3444 3445 560 2665 2915 2916 
3443 3444 562 2666 2917 2918 
3442 3443 564 2667 2919 2920 
3441 3442 566 2668 2921 2922 
3440 3441 568 2669 2923 2924 
3439 3440 570 2670 2925 2926 
572 3411 3439 2928 2671 2927 
3438 3386 583 2672 2930 2931 
585 3539 3438 2674 2673 2932 
3437 3538 595 2676 2675 2933 
597 3410 3437 2935 2677 2934 
3436 3385 608 2678 2937 2938 
610 3537 3436 2680 2679 2939 
3435 3536 620 2682 2681 2940 
3434 3435 622 2683 2941 2942 
624 3314 3434 3171 2728 2943 
3433 3535 645 2685 2684 2946 
647 3409 3433 2948 2686 2947 
3431 3432 3420 2688 2950 2951 
3419 3484 3431 2690 2689 2952 
3430 3496 3418 2691 2702 2953 
3429 3430 3417 2692 2954 2955 
3416 3534 3429 2694 2693 2956 
3408 3532 3428 2698 2697 2957 
3421 3531 3426 2700 2699 2958 
3418 3496 3425 2702 2701 2962 
3427 221 3414 2768 2769 2966 
3412 3530 3413 2704 2703 2969 
3426 3525 3393 2705 2721 2970 
3425 3529 3391 2707 2706 2972 
3406 3473 3399 2709 2714 2975 
3398 3527 3403 2715 2710 2978 
3424 3528 3400 2712 2711 2980 
3399 3473 3423 2714 2713 2983 
3422 3527 3398 2716 2715 2984 
3413 3524 3387 2717 2723 3004 
3395 3526 3411 2719 2718 3009 
3393 3525 3410 2721 2720 3011 
3387 3524 3409 2723 2722 3015 
3357 3422 3373 2735 2985 3017 
3374 3423 3395 2982 2725 3044 
3388 3427 3365 2727 2967 3058 
3311 3389 3388 3079 2733 3081 
3385 3422 3357 2736 2735 3087 
188 3522 3360 2739 2737 3160 
342 3461 3359 2882 2738 3162 
190 3522 188 2740 2739 189 
192 3521 190 2742 2741 191 
197 3520 195 2744 2743 196 
199 3519 197 2746 2745 198 
201 3518 199 2748 2747 200 
203 3517 201 2750 2749 202 
205 3516 203 2752 2751 204 
207 3515 205 2754 2753 206 
209 3514 207 2756 2755 208 
211 3513 209 2758 2757 210 
213 3512 211 2760 2759 212 
215 3511 213 2762 2761 214 
217 3510 215 2764 2763 216 
219 3509 217 2766 2765 218 
221 3427 219 2768 2767 220 
223 3414 221 2770 2769 222 
225 3415 223 2772 2771 224 
227 3508 225 2774 2773 226 
229 3507 227 2776 2775 228 
231 3506 229 2778 2777 230 
233 3505 231 2780 2779 232 
235 3504 233 2782 2781 234 
237 3503 235 2784 2783 236 
239 3502 237 2786 2785 238 
241 3501 239 2788 2787 240 
243 3500 241 2790 2789 242 
245 3499 243 2792 2791 244 
247 3498 245 2794 2793 246 
249 3401 247 2796 2795 248 
251 3497 249 2798 2797 250 
253 3429 251 2800 2799 252 
255 3430 253 2802 2801 254 
257 3496 255 2804 2803 256 
259 3495 257 2806 2805 258 
261 3494 259 2808 2807 260 
263 3493 261 2810 2809 262 
265 3492 263 2812 2811 264 
267 3491 265 2814 2813 266 
269 3490 267 2816 2815 268 
271 3489 269 2818 2817 270 
273 3488 271 2820 2819 272 
275 3487 273 2822 2821 274 
277 3486 275 2824 2823 276 
279 3485 277 2826 2825 278 
281 3484 279 2828 2827 280 
283 3431 281 2830 2829 282 
285 3432 283 2832 2831 284 
287 3483 285 2834 2833 286 
289 3482 287 2836 2835 288 
291 3481 289 2838 2837 290 
293 3480 291 2840 2839 292 
295 3479 293 2842 2841 294 
297 3478 295 2844 2843 296 
299 3477 297 2846 2845 298 
301 3476 299 2848 2847 300 
303 3475 301 2850 2849 302 
305 3474 303 2852 2851 304 
309 3428 307 2855 2854 308 
313 3406 311 2857 2856 312 
315 3473 313 2859 2858 314 
317 3472 315 2861 2860 316 
319 3471 317 2863 2862 318 
321 3470 319 2865 2864 320 
323 3469 321 2867 2866 322 
325 3468 323 2869 2868 324 
327 3467 325 2871 2870 326 
329 3466 327 2873 2872 328 
331 3465 329 2875 2874 330 
333 3464 331 2877 2876 332 
335 3463 333 2879 2878 334 
337 3462 335 2881 2880 336 
344 3461 342 2883 2882 343 
346 3460 344 2885 2884 345 
525 3459 527 2887 2886 526 
527 3458 529 2889 2888 528 
529 3457 531 2891 2890 530 
531 3456 533 2893 2892 532 
533 3455 535 2895 2894 534 
535 3454 537 2897 2896 536 
537 3453 539 2899 2898 538 
539 3452 541 2901 2900 540 
541 3451 543 2903 2902 542 
543 3450 545 2905 2904 544 
545 3449 547 2907 2906 546 
554 3448 552 2909 2908 553 
556 3447 554 2911 2910 555 
558 3446 556 2913 2912 557 
560 3445 558 2915 2914 559 
562 3444 560 2917 2916 561 
564 3443 562 2919 2918 563 
566 3442 564 2921 2920 565 
568 3441 566 2923 2922 567 
570 3440 568 2925 2924 569 
572 3439 570 2927 2926 571 
574 3411 572 2929 2928 573 
583 3386 581 2930 3086 582 
585 3438 583 2932 2931 584 
597 3437 595 2934 2933 596 
599 3410 597 2936 2935 598 
608 3385 606 2937 3088 607 
610 3436 608 2939 2938 609 
622 3435 620 2941 2940 621 
624 3434 622 2943 2942 623 
633 3384 631 2944 3090 632 
635 3384 633 2945 2944 634 
647 3433 645 2947 2946 646 
649 3409 647 2949 2948 648 
3419 3431 3420 2952 2951 2960 
3417 3430 3418 2954 2953 2963 
3416 3429 3417 2956 2955 2964 
3421 3426 3394 2958 2971 2986 
3420 3421 3371 2959 2987 2988 
3419 3420 3370 2960 2989 2990 
3372 3404 3419 2977 2961 2991 
3418 3425 3392 2962 2973 2992 
3417 3418 3367 2963 2993 2994 
3416 3417 3366 2964 2995 2996 
3368 3402 3416 2979 2965 2997 
3365 3427 3414 2967 2966 2998 
3414 3415 3396 2968 3001 3003 
3412 3413 3362 2969 3005 3006 
3394 3426 3393 2971 2970 3012 
3392 3425 3391 2973 2972 3013 
3408 3405 3355 2974 2976 3019 
3406 3399 3381 2975 3025 3026 
3352 3355 3405 3043 2976 3030 
3404 3372 3351 2977 3049 3031 
3398 3403 3378 2978 3034 3036 
3402 3368 3349 2979 3054 3037 
3375 3424 3400 2981 2980 3042 
3399 3423 3374 2983 2982 3045 
3373 3422 3398 2985 2984 3048 
3371 3421 3394 2987 2986 3050 
3370 3420 3371 2989 2988 3051 
3372 3419 3370 2991 2990 3052 
3367 3418 3392 2993 2992 3055 
3366 3417 3367 2995 2994 3056 
3368 3416 3366 2997 2996 3057 
3397 3412 3361 2999 3007 3060 
3396 3415 3397 3001 3000 3002 
3396 3397 3363 3002 3061 3062 
3362 3413 3387 3005 3004 3064 
3361 3412 3362 3007 3006 3065 
3395 3411 3334 3009 3008 3067 
3393 3410 3324 3011 3010 3072 
3325 3394 3393 3070 3012 3073 
3392 3391 3315 3013 3077 3075 
3387 3409 3304 3015 3014 3082 
3358 3375 3343 3016 3066 3084 
3383 3408 3355 3020 3019 3091 
3382 3407 3383 3022 3021 3023 
3382 3383 3347 3023 3092 3093 
3354 3400 3382 3041 3024 3094 
3381 3399 3353 3025 3046 3095 
3380 3406 3381 3027 3026 3028 
3380 3381 3346 3028 3096 3097 
3352 3405 3380 3030 3029 3098 
3379 3404 3351 3032 3031 3099 
3378 3403 3379 3034 3033 3035 
3378 3379 3345 3035 3100 3101 
3350 3398 3378 3047 3036 3102 
3377 3402 3349 3038 3037 3103 
3376 3377 3344 3040 3104 3105 
3375 3400 3354 3042 3041 3107 
3339 3355 3352 3110 3043 3111 
3374 3395 3335 3044 3068 3112 
3353 3399 3374 3046 3045 3114 
3373 3398 3350 3048 3047 3116 
3329 3351 3372 3119 3049 3121 
3371 3394 3326 3050 3071 3122 
3370 3371 3327 3051 3123 3124 
3328 3372 3370 3120 3052 3125 
3369 3376 3348 3053 3106 3126 
3319 3349 3368 3128 3054 3130 
3367 3392 3316 3055 3076 3131 
3366 3367 3317 3056 3132 3133 
3318 3368 3366 3129 3057 3134 
3310 3388 3365 3080 3058 3136 
3309 3365 3364 3135 3059 3137 
3363 3397 3361 3061 3060 3138 
3364 3396 3363 3063 3062 3139 
3362 3387 3305 3064 3083 3143 
3361 3362 3306 3065 3144 3145 
3343 3375 3342 3066 3108 3147 
3335 3395 3334 3068 3067 3148 
3333 3373 3332 3069 3117 3149 
3326 3394 3325 3071 3070 3150 
3325 3393 3324 3073 3072 3151 
3316 3392 3315 3076 3075 3153 
3311 3388 3310 3081 3080 3157 
3305 3387 3304 3083 3082 3158 
581 3386 3358 3086 3085 3167 
606 3385 3357 3088 3087 3170 
631 3384 3356 3090 3089 3174 
3347 3383 3355 3092 3091 3177 
3354 3382 3347 3094 3093 3178 
3346 3381 3353 3096 3095 3181 
3352 3380 3346 3098 3097 3182 
3345 3379 3351 3100 3099 3185 
3350 3378 3345 3102 3101 3186 
3344 3377 3349 3104 3103 3189 
3348 3376 3344 3106 3105 3190 
3342 3375 3354 3108 3107 3109 
3342 3354 3341 3109 3179 3200 
3340 3355 3339 3176 3110 3202 
3339 3352 3338 3111 3183 3203 
3336 3374 3335 3113 3112 3205 
3353 3374 3336 3114 3113 3115 
3337 3353 3336 3180 3115 3206 
3332 3373 3350 3117 3116 3118 
3332 3350 3331 3118 3187 3207 
3330 3351 3329 3184 3119 3209 
3329 3372 3328 3121 3120 3210 
3327 3371 3326 3123 3122 3211 
3328 3370 3327 3125 3124 3212 
3322 3348 3321 3127 3191 3213 
3320 3349 3319 3188 3128 3215 
3319 3368 3318 3130 3129 3216 
3317 3367 3316 3132 3131 3217 
3318 3366 3317 3134 3133 3218 
3310 3365 3309 3136 3135 3219 
3309 3364 3308 3137 3140 3220 
3363 3361 3307 3138 3146 3141 
3308 3364 3363 3140 3139 3142 
3308 3363 3307 3142 3141 3221 
3306 3362 3305 3144 3143 3222 
3307 3361 3306 3146 3145 3223 
351 3343 3342 3224 3147 3227 
366 3335 3334 3240 3148 3243 
395 3333 3332 3244 3149 3247 
408 3326 3325 3258 3150 3261 
410 3325 3324 3260 3151 3263 
439 3323 3322 3264 3152 3267 
452 3316 3315 3278 3153 3281 
454 3315 3314 3280 3154 3283 
483 3313 3312 3284 3155 3287 
485 3312 3311 3286 3156 3289 
487 3311 3310 3288 3157 3291 
498 3305 3304 3300 3158 3303 
188 3360 186 3160 3159 187 
342 3359 340 3162 3161 341 
547 3313 549 3164 3163 548 
581 3358 579 3167 3166 580 
606 3357 604 3170 3169 605 
626 3314 624 3172 3171 625 
631 3356 629 3174 3173 630 
3347 3355 3340 3177 3176 3192 
3341 3354 3347 3179 3178 3193 
3346 3353 3337 3181 3180 3194 
3338 3352 3346 3183 3182 3195 
3345 3351 3330 3185 3184 3196 
3331 3350 3345 3187 3186 3197 
3344 3349 3320 3189 3188 3198 
3321 3348 3344 3191 3190 3199 
3341 3347 3340 3193 3192 3201 
3338 3346 3337 3195 3194 3204 
3331 3345 3330 3197 3196 3208 
3321 3344 3320 3199 3198 3214 
353 3342 3341 3226 3200 3229 
355 3341 3340 3228 3201 3231 
357 3340 3339 3230 3202 3233 
7 3339 3338 3232 3203 3235 
360 3338 3337 3234 3204 3237 
3336 3335 364 3205 3241 3238 
362 3337 3336 3236 3206 3239 
397 3332 3331 3246 3207 3249 
399 3331 3330 3248 3208 3251 
401 3330 3329 3250 3209 3253 
11 3329 3328 3252 3210 3255 
3327 3326 406 3211 3259 3256 
404 3328 3327 3254 3212 3257 
441 3322 3321 3266 3213 3269 
443 3321 3320 3268 3214 3271 
445 3320 3319 3270 3215 3273 
15 3319 3318 3272 3216 3275 
3317 3316 450 3217 3279 3276 
448 3318 3317 3274 3218 3277 
489 3310 3309 3290 3219 3293 
19 3309 3308 3292 3220 3295 
492 3308 3307 3294 3221 3297 
3306 3305 496 3222 3301 3298 
494 3307 3306 3296 3223 3299 
349 3343 351 3225 3224 350 
351 3342 353 3227 3226 352 
353 3341 355 3229 3228 354 
355 3340 357 3231 3230 356 
357 3339 7 3233 3232 358 
7 3338 360 3235 3234 359 
360 3337 362 3237 3236 361 
362 3336 364 3239 3238 363 
364 3335 366 3241 3240 365 
366 3334 368 3243 3242 367 
393 3333 395 3245 3244 394 
395 3332 397 3247 3246 396 
397 3331 399 3249 3248 398 
399 3330 401 3251 3250 400 
401 3329 11 3253 3252 402 
11 3328 404 3255 3254 403 
404 3327 406 3257 3256 405 
406 3326 408 3259 3258 407 
408 3325 410 3261 3260 409 
410 3324 412 3263 3262 411 
437 3323 439 3265 3264 438 
439 3322 441 3267 3266 440 
441 3321 443 3269 3268 442 
443 3320 445 3271 3270 444 
445 3319 15 3273 3272 446 
15 3318 448 3275 3274 447 
448 3317 450 3277 3276 449 
450 3316 452 3279 3278 451 
452 3315 454 3281 3280 453 
454 3314 456 3283 3282 455 
481 3313 483 3285 3284 482 
483 3312 485 3287 3286 484 
485 3311 487 3289 3288 486 
487 3310 489 3291 3290 488 
489 3309 19 3293 3292 490 
19 3308 492 3295 3294 491 
492 3307 494 3297 3296 493 
494 3306 496 3299 3298 495 
496 3305 498 3301 3300 497 
498 3304 500 3303 3302 499 
3627 3628
3629 3630
3631 3632
3633 3634
3635 3636
3637 3638
3639 3640
3641 3642
3643 3644
3645 3646
3647 3648
3649 3650
3651 3652
3653 3654
3655 3656
3657 3658
3659 3660
3661 3662
3663 3664
3665 3666
3667 3668
3669 3670
3671 3672
3673 3674
3675 3676
3677 3678
3679 3680
3681 3682
3683 3684
3685 3686
3687 3688
3689 3690
3691 3692
3693 3694
3695 3696
3697 3698
3699 3700
3701 3702
3703 3704
3705 3706
3707 3708
3709 3710
3711 3712
3713 3714
3715 3716
3717 3718
3719 3720
3721 3722
3723 3724
3725 3726
3727 3728
3729 3730
3731 3732
3733 3734
3735 3736
3737 3738
3739 3740
3741 3742
3743 3744
3745 3746
3747 3748
3749 3750
3751 3752
3753 3754
3755 3756
3757 3758
3759 3760
3761 3762
3763 3764
3765 3766
3767 3768
3769 3770
3771 3772
3773 3774
3775 3776
3777 3778
3779 3780
3781 3782
3783 3784
3785 3786
3787 3788
3789 3790
3791 3792
3793 3794
3795 3796
3797 3798
3799 3800
3801 3802
3803 3804
3805 3806
3807 3808
3809 3810
3811 3812
3813 3814
3815 3816
3817 3818
3819 3820
3821 3822
3823 3824
3825 3826
3827 3828
3829 3830
3831 3832
3833 3834
3835 3836
3837 3838
3839 3840
3841 3842
3843 3844
3845 3846
3847 3848
3849 3850
3851 3852
3853 3854
3855 3856
3857 3858
3859 3860
3861 3862
3863 3864
3865 3866
3867 3868
3869 3870
3871 3872
3873 3874
3875 3876
3877 3878
3879 3880
3881 3882
3883 3884
3885 3886
3887 3888
3889 3890
3891 3892
3893 3894
3895 3896
3897 3898
3899 3900
3901 3902
3903 3904
3905 3906
3907 3908
3909 3910
3911 3912
3913 3914
3915 3916
3917 3918
3919 3920
3921 3922
3923 3924
3925 3926
3927 3928
3929 3930
3931 3932
3933 3934
3935 3936
3937 3938
3939 3940
3941 3942
3943 3944
3945 3946
3947 3948
3949 3950
3951 3952
3953 3954
3955 3956
3957 3958
3959 3960
3961 3962
3963 3964
3965 3966
3967 3968
3969 3970
3971 3972
3973 3974
3975 3976
3977 3978
3979 3980
3981 3982
3983 3984
3985 3986
3987 3988
3989 3990
3991 3992
3993 3994
3995 3996
3997 3998
3999 4000
4001 4002
4003 4004
4005 4006
4007 4008
4009 4010
4011 4012
4013 4014
4015 4016
4017 4018
4019 4020
4021 4022
4023 4024
4025 4026
4027 4028
4029 4030
4031 4032
4033 4034
4035 4036
4037 4038
4039 4040
4041 4042
4043 4044
4045 4046
4047 4048
4049 4050
4051 4052
4053 4054
4055 4056
4057 4058
4059 4060
4061 4062
4063 4064
4065 4066
4067 4068
4069 4070
4071 4072
4073 4074
4075 4076
4077 4078
4079 4080
4081 4082
4083 4084
4085 4086
4087 4088
4089 4090
4091 4092
4093 4094
4095 4096
4097 4098
4099 4100
4101 4102
4103 4104
4105 4106
4107 4108
4109 4110
4111 4112
4113 4114
4115 4116
4117 4118
4119 4120
4121 4122
4123 4124
4125 4126
4127 4128
4129 4130
4131 4132
4133 4134
4135 4136
4137 4138
4139 4140
4141 4142
4143 4144
4145 4146
4147 4148
4149 4150
4151 4152
4153 4154
4155 4156
4157 4158
4159 4160
4161 4162
4163 4164
4165 4166
4167 4168
4169 4170
4171 4172
4173 4174
4175 4176
4177 4178
4179 4180
4181 4182
4183 4184
4185 4186
4187 4188
4189 4190
4191 4192
4193 4194
4195 4196
4197 4198
4199 4200
4201 4202
4203 4204
4205 4206
4207 4208
4209 4210
4211 4212
4213 4214
4215 4216
4217 4218
4219 4220
4221 4222
4223 4224
4225 4226
4227 4228
4229 4230
4231 4232
4233 4234
4235 4236
4237 4238
4239 4240
4241 4242
4243 4244
4245 4246
4247 4248
4249 4250
4251 4252
4253 4254
4255 4256
4257 4258
4259 4260
4261 4262
4263 4264
4265 4266
4267 4268
4269 4270
4271 4272
4273 4274
4275 4276
4277 4278
4279 4280
4281 4282
4283 4284
4285 4286
4287 4288
4289 4290
4291 4292
4293 4294
4295 4296
4297 4298
4299 4300
4301 4302
4303 4304
4305 4306
4307 4308
4309 4310
4311 4312
4313 4314
4315 4316
4317 4318
4319 4320
4321 4322
4323 4324
4325 4326
4327 4328
4329 4330
4331 4332
4333 4334
4335 4336
4337 4338
4339 4340
4341 4342
4343 4344
4345 4346
4347 4348
4349 4350
4351 4352
4353 4354
4355 4356
4357 4358
4359 4360
4361 4362
4363 4364
4365 4366
4367 4368
4369 4370
4371 4372
4373 4374
4375 4376
4377 4378
4379 4380
4381 4382
4383 4384
4385 4386
4387 4388
4389 4390
4391 4392
4393 4394
4395 4396
4397 4398
4399 4400
4401 4402
4403 4404
4405 4406
4407 4408
4409 4410
4411 4412
4413 4414
4415 4416
4417 4418
4419 4420
4421 4422
4423 4424
4425 4426
4427 4428
4429 4430
4431 4432
4433 4434
4435 4436
4437 4438
4439 4440
4441 4442
4443 4444
4445 4446
4447 4448
4449 4450
4451 4452
4453 4454
4455 4456
4457 4458
4459 4460
4461 4462
4463 4464
4465 4466
4467 4468
4469 4470
4471 4472
4473 4474
4475 4476
4477 4478
4479 4480
4481 4482
4483 4484
4485 4486
4487 4488
4489 4490
4491 4492
4493 4494
4495 4496
4497 4498
4499 4500
4501 4502
4503 4504
4505 4506
4507 4508
4509 4510
4511 4512
4513 4514
4515 4516
4517 4518
4519 4520
4521 4522
4523 4524
4525 4526
4527 4528
4529 4530
4531 4532
4533 4534
4535 4536
4537 4538
4539 4540
4541 4542
4543 4544
4545 4546
4547 4548
4549 4550
4551 4552
4553 4554
4555 4556
4557 4558
4559 4560
4561 4562
4563 4564
4565 4566
4567 4568
4569 4570
4571 4572
4573 4574
4575 4576
4577 4578
4579 4580
4581 4582
4583 4584
4585 4586
4587 4588
4589 4590
4591 4592
4593 4594
4595 4596
4597 4598
4599 4600
4601 4602
4603 4604
4605 4606
4607 4608
4609 4610
4611 4612
4613 4614
4615 4616
4617 4618
4619 4620
4621 4622
4623 4624
4625 4626
4627 4628
4629 4630
4631 4632
4633 4634
4635 4636
4637 4638
4639 4640
4641 4642
4643 4644
4645 4646
4647 4648
4649 4650
4651 4652
4653 4654
4655 4656
4657 4658
4659 4660
4661 4662
4663 4664
4665 4666
4667 4668
4669 4670
4671 4672
4673 4674
4675 4676
4677 4678
4679 4680
4681 4682
4683 4684
4685 4686
4687 4688
4689 4690
4691 4692
4693 4694
4695 4696
4697 4698
4699 4700
4701 4702
4703 4704
4705 4706
4707 4708
4709 4710
4711 4712
4713 4714
4715 4716
4717 4718
4719 4720
4721 4722
4723 4724
4725 4726
4727 4728
4729 4730
4731 4732
4733 4734
4735 4736
4737 4738
4739 4740
4741 4742
4743 4744
4745 4746
4747 4748
4749 4750
4751 4752
4753 4754
4755 4756
4757 4758
4759 4760
4761 4762
4763 4764
4765 4766
4767 4768
4769 4770
4771 4772
4773 4774
4775 4776
4777 4778
4779 4780
4781 4782
4783 4784
4785 4786
4787 4788
4789 4790
4791 4792
4793 4794
4795 4796
4797 4798
4799 4800
4801 4802
4803 4804
4805 4806
4807 4808
4809 4810
4811 4812
4813 4814
4815 4816
4817 4818
4819 4820
4821 4822
4823 4824
4825 4826
4827 4828
4829 4830
4831 4832
4833 4834
4835 4836
4837 4838
4839 4840
4841 4842
4843 4844
4845 4846
4847 4848
4849 4850
4851 4852
4853 4854
4855 4856
4857 4858
4859 4860
4861 4862
4863 4864
4865 4866
4867 4868
4869 4870
4871 4872
4873 4874
4875 4876
4877 4878
4879 4880
4881 4882
4883 4884
4885 4886
4887 4888
4889 4890
4891 4892
4893 4894
4895 4896
4897 4898
4899 4900
4901 4902
4903 4904
4905 4906
4907 4908
4909 4910
4911 4912
4913 4914
4915 4916
4917 4918
4919 4920
4921 4922
4923 4924
4925 4926
4927 4928
4929 4930
4931 4932
4933 4934
4935 4936
4937 4938
4939 4940
4941 4942
4943 4944
4945 4946
4947 4948
4949 4950
4951 4952
4953 4954
4955 4956
4957 4958
4959 4960
4961 4962
4963 4964
4965 4966
4967 4968
4969 4970
4971 4972
4973 4974
4975 4976
4977 4978
4979 4980
4981 4982
4983 4984
4985 4986
4987 4988
4989 4990
4991 4992
4993 4994
4995 4996
4997 4998
4999 5000
5001 5002
5003 5004
5005 5006
5007 5008
5009 5010
5011 5012
5013 5014
5015 5016
5017 5018
5019 5020
5021 5022
5023 5024
5025 5026
5027 5028
5029 5030
5031 5032
5033 5034
5035 5036
5037 5038
5039 5040
5041 5042
5043 5044
5045 5046
5047 5048
5049 5050
5051 5052
5053 5054
5055 5056
5057 5058
5059 5060
5061 5062
5063 5064
5065 5066
5067 5068
5069 5070
5071 5072
5073 5074
5075 5076
5077 5078
5079 5080
5081 5082
5083 5084
5085 5086
5087 5088
5089 5090
5091 5092
5093 5094
5095 5096
5097 5098
5099 5100
5101 5102
5103 5104
5105 5106
5107 5108
5109 5110
5111 5112
5113 5114
5115 5116
5117 5118
5119 5120
5121 5122
5123 5124
5125 5126
5127 5128
5129 5130
5131 5132
5133 5134
5135 5136
5137 5138
5139 5140
5141 5142
5143 5144
5145 5146
5147 5148
5149 5150
5151 5152
5153 5154
5155 5156
5157 5158
5159 5160
5161 5162
5163 5164
5165 5166
5167 5168
5169 5170
5171 5172
5173 5174
5175 5176
5177 5178
5179 5180
5181 5182
5183 5184
5185 5186
5187 5188
5189 5190
5191 5192
5193 5194
5195 5196
5197 5198
5199 5200
5201 5202
5203 5204
5205 5206
5207 5208
5209 5210
5211 5212
5213 5214
5215 5216
5217 5218
5219 5220
5221 5222
5223 5224
5225 5226
5227 5228
5229 5230
5231 5232
5233 5234
5235 5236
5237 5238
5239 5240
5241 5242
5243 5244
5245 5246
5247 5248
5249 5250
5251 5252
5253 5254
5255 5256
5257 5258
5259 5260
5261 5262
5263 5264
5265 5266
5267 5268
5269 5270
5271 5272
5273 5274
5275 5276
5277 5278
5279 5280
5281 5282
5283 5284
5285 5286
5287 5288
5289 5290
5291 5292
5293 5294
5295 5296
5297 5298
5299 5300
5301 5302
5303 5304
5305 5306
5307 5308
5309 5310
5311 5312
5313 5314
5315 5316
5317 5318
5319 5320
5321 5322
5323 5324
5325 5326
5327 5328
5329 5330
5331 5332
5333 5334
5335 5336
5337 5338
5339 5340
5341 5342
5343 5344
5345 5346
5347 5348
5349 5350
5351 5352
5353 5354
5355 5356
5357 5358
5359 5360
5361 5362
5363 5364
5365 5366
5367 5368
5369 5370
5371 5372
5373 5374
5375 5376
5377 5378
5379 5380
5381 5382
5383 5384
5385 5386
5387 5388
5389 5390
5391 5392
5393 5394
5395 5396
5397 5398
5399 5400
5401 5402
5403 5404
5405 5406
5407 5408
5409 5410
5411 5412
5413 5414
5415 5416
5417 5418
5419 5420
5421 5422
5423 5424
5425 5426
5427 5428
5429 5430
5431 5432
5433 5434
5435 5436
5437 5438
5439 5440
5441 5442
5443 5444
5445 5446
5447 5448
5449 5450
5451 5452
5453 5454
5455 5456
5457 5458
5459 5460
5461 5462
5463 5464
5465 5466
5467 5468
5469 5470
5471 5472
5473 5474
5475 5476
5477 5478
5479 5480
5481 5482
5483 5484
5485 5486
5487 5488
5489 5490
5491 5492
5493 5494
5495 5496
5497 5498
5499 5500
5501 5502
5503 5504
5505 5506
5507 5508
5509 5510
5511 5512
5513 5514
5515 5516
5517 5518
5519 5520
5521 5522
5523 5524
5525 5526
5527 5528
5529 5530
5531 5532
5533 5534
5535 5536
5537 5538
5539 5540
5541 5542
5543 5544
5545 5546
5547 5548
5549 5550
5551 5552
5553 5554
5555 5556
5557 5558
5559 5560
5561 5562
5563 5564
5565 5566
5567 5568
5569 5570
5571 5572
5573 5574
5575 5576
5577 5578
5579 5580
5581 5582
5583 5584
5585 5586
5587 5588
5589 5590
5591 5592
5593 5594
5595 5596
5597 5598
5599 5600
5601 5602
5603 5604
5605 5606
5607 5608
5609 5610
5611 5612
5613 5614
5615 5616
5617 5618
5619 5620
5621 5622
5623 5624
5625 5626
5627 5628
5629 5630
5631 5632
5633 5634
5635 5636
5637 5638
5639 5640
5641 5642
5643 5644
5645 5646
5647 5648
5649 5650
5651 5652
5653 5654
5655 5656
5657 5658
5659 5660
5661 5662
5663 5664
5665 5666
5667 5668
5669 5670
5671 5672
5673 5674
5675 5676
5677 5678
5679 5680
5681 5682
5683 5684
5685 5686
5687 5688
5689 5690
5691 5692
5693 5694
5695 5696
5697 5698
5699 5700
5701 5702
5703 5704
5705 5706
5707 5708
5709 5710
5711 5712
5713 5714
5715 5716
5717 5718
5719 5720
5721 5722
5723 5724
5725 5726
5727 5728
5729 5730
5731 5732
5733 5734
5735 5736
5737 5738
5739 5740
5741 5742
5743 5744
5745 5746
5747 5748
5749 5750
5751 5752
5753 5754
5755 5756
5757 5758
5759 5760
5761 5762
5763 5764
5765 5766
5767 5768
5769 5770
5771 5772
5773 5774
5775 5776
5777 5778
5779 5780
5781 5782
5783 5784
5785 5786
5787 5788
5789 5790
5791 5792
5793 5794
5795 5796
5797 5798
5799 5800
5801 5802
5803 5804
5805 5806
5807 5808
5809 5810
5811 5812
5813 5814
5815 5816
5817 5818
5819 5820
5821 5822
5823 5824
5825 5826
5827 5828
5829 5830
5831 5832
5833 5834
5835 5836
5837 5838
5839 5840
5841 5842
5843 5844
5845 5846
5847 5848
5849 5850
5851 5852
5853 5854
5855 5856
5857 5858
5859 5860
5861 5862
5863 5864
5865 5866
5867 5868
5869 5870
5871 5872
5873 5874
5875 5876
5877 5878
5879 5880
5881 5882
5883 5884
5885 5886
5887 5888
5889 5890
5891 5892
5893 5894
5895 5896
5897 5898
5899 5900
5901 5902
5903 5904
5905 5906
5907 5908
5909 5910
5911 5912
5913 5914
5915 5916
5917 5918
5919 5920
5921 5922
5923 5924
5925 5926
5927 5928
5929 5930
5931 5932
5933 5934
5935 5936
5937 5938
5939 5940
5941 5942
5943 5944
5945 5946
5947 5948
5949 5950
5951 5952
5953 5954
5955 5956
5957 5958
5959 5960
5961 5962
5963 5964
5965 5966
5967 5968
5969 5970
5971 5972
5973 5974
5975 5976
5977 5978
5979 5980
5981 5982
5983 5984
5985 5986
5987 5988
5989 5990
5991 5992
5993 5994
5995 5996
5997 5998
5999 6000
6001 6002
6003 6004
6005 6006
6007 6008
6009 6010
6011 6012
6013 6014
6015 6016
6017 6018
6019 6020
6021 6022
6023 6024
6025 6026
6027 6028
6029 6030
6031 6032
6033 6034
6035 6036
6037 6038
6039 6040
6041 6042
6043 6044
6045 6046
6047 6048
6049 6050
6051 6052
6053 6054
6055 6056
6057 6058
6059 6060
6061 6062
6063 6064
6065 6066
6067 6068
6069 6070
6071 6072
6073 6074
6075 6076
6077 6078
6079 6080
6081 6082
6083 6084
6085 6086
6087 6088
6089 6090
6091 6092
6093 6094
6095 6096
6097 6098
6099 6100
6101 6102
6103 6104
6105 6106
6107 6108
6109 6110
6111 6112
6113 6114
6115 6116
6117 6118
6119 6120
6121 6122
6123 6124
6125 6126
6127 6128
6129 6130
6131 6132
6133 6134
6135 6136
6137 6138
6139 6140
6141 6142
6143 6144
6145 6146
6147 6148
6149 6150
6151 6152
6153 6154
6155 6156
6157 6158
6159 6160
6161 6162
6163 6164
6165 6166
6167 6168
6169 6170
6171 6172
6173 6174
6175 6176
6177 6178
6179 6180
6181 6182
6183 6184
6185 6186
6187 6188
6189 6190
6191 6192
6193 6194
6195 6196
6197 6198
6199 6200
6201 6202
6203 6204
6205 6206
6207 6208
6209 6210
6211 6212
6213 6214
6215 6216
6217 6218
6219 6220
6221 6222
6223 6224
6225 6226
6227 6228
6229 6230
6231 6232
6233 6234
6235 6236
6237 6238
6239 6240
6241 6242
6243 6244
6245 6246
6247 6248
6249 6250
6251 6252
6253 6254
6255 6256
6257 6258
6259 6260
6261 6262
6263 6264
6265 6266
6267 6268
6269 6270
6271 6272
6273 6274
6275 6276
6277 6278
6279 6280
6281 6282
6283 6284
6285 6286
6287 6288
6289 6290
6291 6292
6293 6294
6295 6296
6297 6298
6299 6300
6301 6302
6303 6304
6305 6306
6307 6308
6309 6310
6311 6312
6313 6314
6315 6316
6317 6318
6319 6320
6321 6322
6323 6324
6325 6326
6327 6328
6329 6330
6331 6332
6333 6334
6335 6336
6337 6338
6339 6340
6341 6342
6343 6344
6345 6346
6347 6348
6349 6350
6351 6352
6353 6354
6355 6356
6357 6358
6359 6360
6361 6362
6363 6364
6365 6366
6367 6368
6369 6370
6371 6372
6373 6374
6375 6376
6377 6378
6379 6380
6381 6382
6383 6384
6385 6386
6387 6388
6389 6390
6391 6392
6393 6394
6395 6396
6397 6398
6399 6400
6401 6402
6403 6404
6405 6406
6407 6408
6409 6410
6411 6412
6413 6414
6415 6416
6417 6418
6419 6420
6421 6422
6423 6424
6425 6426
6427 6428
6429 6430
6431 6432
6433 6434
6435 6436
6437 6438
6439 6440
6441 6442
6443 6444
6445 6446
6447 6448
6449 6450
6451 6452
6453 6454
6455 6456
6457 6458
6459 6460
6461 6462
6463 6464
6465 6466
6467 6468
6469 6470
6471 6472
6473 6474
6475 6476
6477 6478
6479 6480
6481 6482
6483 6484
6485 6486
6487 6488
6489 6490
6491 6492
6493 6494
6495 6496
6497 6498
6499 6500
6501 6502
6503 6504
6505 6506
6507 6508
6509 6510
6511 6512
6513 6514
6515 6516
6517 6518
6519 6520
6521 6522
6523 6524
6525 6526
6527 6528
6529 6530
6531 6532
6533 6534
6535 6536
6537 6538
6539 6540
6541 6542
6543 6544
6545 6546
6547 6548
6549 6550
6551 6552
6553 6554
6555 6556
6557 6558
6559 6560
6561 6562
6563 6564
6565 6566
6567 6568
6569 6570
6571 6572
6573 6574
6575 6576
6577 6578
6579 6580
6581 6582
6583 6584
6585 6586
6587 6588
6589 6590
6591 6592
6593 6594
6595 6596
6597 6598
6599 6600
6601 6602
6603 6604
6605 6606
6607 6608
6609 6610
6611 6612
6613 6614
6615 6616
6617 6618
6619 6620
6621 6622
6623 6624
6625 6626
6627 6628
6629 6630
6631 6632
6633 6634
6635 6636
6637 6638
6639 6640
6641 6642
6643 6644
6645 6646
6647 6648
6649 6650
6651 6652
6653 6654
6655 6656
6657 6658
6659 6660
6661 6662
6663 6664
6665 6666
6667 6668
6669 6670
6671 6672
6673 6674
6675 6676
6677 6678
6679 6680
6681 6682
6683 6684
6685 6686
6687 6688
6689 6690
6691 6692
6693 6694
6695 6696
6697 6698
6699 6700
6701 6702
6703 6704
6705 6706
6707 6708
6709 6710
6711 6712
6713 6714
6715 6716
6717 6718
6719 6720
6721 6722
6723 6724
6725 6726
6727 6728
6729 6730
6731 6732
6733 6734
6735 6736
6737 6738
6739 6740
6741 6742
6743 6744
6745 6746
6747 6748
6749 6750
6751 6752
6753 6754
6755 6756
6757 6758
6759 6760
6761 6762
6763 6764
6765 6766
6767 6768
6769 6770
6771 6772
6773 6774
6775 6776
6777 6778
6779 6780
6781 6782
6783 6784
6785 6786
6787 6788
6789 6790
6791 6792
6793 6794
6795 6796
6797 6798
6799 6800
6801 6802
6803 6804
6805 6806
6807 6808
6809 6810
6811 6812
6813 6814
6815 6816
6817 6818
6819 6820
6821 6822
6823 6824
6825 6826
6827 6828
6829 6830
6831 6832
6833 6834
6835 6836
6837 6838
6839 6840
6841 6842
6843 6844
6845 6846
6847 6848
6849 6850
6851 6852
6853 6854
6855 6856
6857 6858
6859 6860
6861 6862
6863 6864
6865 6866
6867 6868
6869 6870
6871 6872
6873 6874
6875 6876
6877 6878
6879 6880
6881 6882
6883 6884
6885 6886
6887 6888
6889 6890
6891 6892
6893 6894
6895 6896
6897 6898
6899 6900
6901 6902
6903 6904
6905 6906
6907 6908
6909 6910
6911 6912
6913 6914
6915 6916
6917 6918
6919 6920
6921 6922
6923 6924
6925 6926
6927 6928
6929 6930
6931 6932
6933 6934
6935 6936
6937 6938
6939 6940
6941 6942
6943 6944
6945 6946
6947 6948
6949 6950
6951 6952
6953 6954
6955 6956
6957 6958
6959 6960
6961 6962
6963 6964
6965 6966
6967 6968
6969 6970
6971 6972
6973 6974
6975 6976
6977 6978
6979 6980
6981 6982
6983 6984
6985 6986
6987 6988
6989 6990
6991 6992
6993 6994
6995 6996
6997 6998
6999 7000
7001 7002
7003 7004
7005 7006
7007 7008
7009 7010
7011 7012
7013 7014
7015 7016
7017 7018
7019 7020
7021 7022
7023 7024
7025 7026
7027 7028
7029 7030
7031 7032
7033 7034
7035 7036
7037 7038
7039 7040
7041 7042
7043 7044
7045 7046
7047 7048
7049 7050
7051 7052
7053 7054
7055 7056
7057 7058
7059 7060
7061 7062
7063 7064
7065 7066
7067 7068
7069 7070
7071 7072
7073 7074
7075 7076
7077 7078
7079 7080
7081 7082
7083 7084
7085 7086
7087 7088
7089 7090
7091 7092
7093 7094
7095 7096
7097 7098
7099 7100
7101 7102
7103 7104
7105 7106
7107 7108
7109 7110
7111 7112
7113 7114
7115 7116
7117 7118
7119 7120
7121 7122
7123 7124
7125 7126
7127 7128
7129 7130
7131 7132
7133 7134
7135 7136
7137 7138
7139 7140
7141 7142
7143 7144
7145 7146
7147 7148
7149 7150
7151 7152
7153 7154
7155 7156
7157 7158
7159 7160
7161 7162
7163 7164
7165 7166
7167 7168
7169 7170
7171 7172
7173 7174
7175 7176
7177 7178
7179 7180
7181 7182
7183 7184
7185 7186
7187 7188
7189 7190
7191 7192
7193 7194
7195 7196
7197 7198
7199 7200
7201 7202
7203 7204
7205 7206
7207 7208
7209 7210
7211 7212
7213 7214
7215 7216
7217 7218
7219 7220
7221 7222
7223 7224
7225 7226
7227 7228
7229 7230
7231 7232
7233 7234
7235 7236
7237 7238
7239 7240
7241 7242
7243 7244
7245 7246
7247 7248
7249 7250
7251 7252
7253 7254
7255 7256
7257 7258
7259 7260
7261 7262
7263 7264
7265 7266
7267 7268
7269 7270
7271 7272
7273 7274
7275 7276
7277 7278
7279 7280
7281 7282
7283 7284
7285 7286
7287 7288
7289 7290
7291 7292
7293 7294
7295 7296
7297 7298
7299 7300
7301 7302
7303 7304
7305 7306
7307 7308
7309 7310
7311 7312
7313 7314
7315 7316
7317 7318
7319 7320
7321 7322
7323 7324
7325 7326
7327 7328
7329 7330
7331 7332
7333 7334
7335 7336
7337 7338
7339 7340
7341 7342
7343 7344
7345 7346
7347 7348
7349 7350
7351 7352
7353 7354
7355 7356
7357 7358
7359 7360
7361 7362
7363 7364
7365 7366
7367 7368
7369 7370
7371 7372
7373 7374
7375 7376
7377 7378
7379 7380
7381 7382
7383 7384
7385 7386
7387 7388
7389 7390
7391 7392
7393 7394
7395 7396
7397 7398
7399 7400
7401 7402
7403 7404
7405 7406
7407 7408
7409 7410
7411 7412
7413 7414
7415 7416
7417 7418
7419 7420
7421 7422
7423 7424
7425 7426
7427 7428
7429 7430
7431 7432
7433 7434
7435 7436
7437 7438
7439 7440
7441 7442
7443 7444
7445 7446
7447 7448
7449 7450
7451 7452
7453 7454
7455 7456
7457 7458
7459 7460
7461 7462
7463 7464
7465 7466
7467 7468
7469 7470
7471 7472
7473 7474
7475 7476
7477 7478
7479 7480
7481 7482
7483 7484
7485 7486
7487 7488
7489 7490
7491 7492
7493 7494
7495 7496
7497 7498
7499 7500
7501 7502
7503 7504
7505 7506
7507 7508
7509 7510
7511 7512
7513 7514
7515 7516
7517 7518
7519 7520
7521 7522
7523 7524
7525 7526
7527 7528
7529 7530
7531 7532
7533 7534
7535 7536
7537 7538
7539 7540
7541 7542
7543 7544
7545 7546
7547 7548
7549 7550
7551 7552
7553 7554
7555 7556
7557 7558
7559 7560
7561 7562
7563 7564
7565 7566
7567 7568
7569 7570
7571 7572
7573 7574
7575 7576
7577 7578
7579 7580
7581 7582
7583 7584
7585 7586
7587 7588
7589 7590
7591 7592
7593 7594
7595 7596
7597 7598
7599 7600
7601 7602
7603 7604
7605 7606
7607 7608
7609 7610
7611 7612
7613 7614
7615 7616
7617 7618
7619 7620
7621 7622
7623 7624
7625 7626
7627 7628
7629 7630
7631 7632
7633 7634
7635 7636
7637 7638
7639 7640
7641 7642
7643 7644
7645 7646
7647 7648
7649 7650
7651 7652
7653 7654
7655 7656
7657 7658
7659 7660
7661 7662
7663 7664
7665 7666
7667 7668
7669 7670
7671 7672
7673 7674
7675 7676
7677 7678
7679 7680
7681 7682
7683 7684
7685 7686
7687 7688
7689 7690
7691 7692
7693 7694
7695 7696
7697 7698
7699 7700
7701 7702
7703 7704
7705 7706
7707 7708
7709 7710
7711 7712
7713 7714
7715 7716
7717 7718
7719 7720
7721 7722
7723 7724
7725 7726
7727 7728
7729 7730
7731 7732
7733 7734
7735 7736
7737 7738
7739 7740
7741 7742
7743 7744
7745 7746
7747 7748
7749 7750
7751 7752
7753 7754
7755 7756
7757 7758
7759 7760
7761 7762
7763 7764
7765 7766
7767 7768
7769 7770
7771 7772
7773 7774
7775 7776
7777 7778
7779 7780
7781 7782
7783 7784
7785 7786
7787 7788
7789 7790
7791 7792
7793 7794
7795 7796
7797 7798
7799 7800
7801 7802
7803 7804
7805 7806
7807 7808
7809 7810
7811 7812
7813 7814
7815 7816
7817 7818
7819 7820
7821 7822
7823 7824
7825 7826
7827 7828
7829 7830
7831 7832
7833 7834
7835 7836
7837 7838
7839 7840
7841 7842
7843 7844
7845 7846
7847 7848
7849 7850
7851 7852
7853 7854
7855 7856
7857 7858
7859 7860
7861 7862
7863 7864
7865 7866
7867 7868
7869 7870
7871 7872
7873 7874
7875 7876
7877 7878
7879 7880
7881 7882
7883 7884
7885 7886
7887 7888
7889 7890
7891 7892
7893 7894
7895 7896
7897 7898
7899 7900
7901 7902
7903 7904
7905 7906
7907 7908
7909 7910
7911 7912
7913 7914
7915 7916
7917 7918
7919 7920
7921 7922
7923 7924
7925 7926
7927 7928
7929 7930
7931 7932
7933 7934
7935 7936
7937 7938
7939 7940
7941 7942
7943 7944
7945 7946
7947 7948
7949 7950
7951 7952
7953 7954
7955 7956
7957 7958
7959 7960
7961 7962
7963 7964
7965 7966
7967 7968
7969 7970
7971 7972
7973 7974
7975 7976
7977 7978
7979 7980
7981 7982
7983 7984
7985 7986
7987 7988
7989 7990
7991 7992
7993 7994
7995 7996
7997 7998
7999 8000
8001 8002
8003 8004
8005 8006
8007 8008
8009 8010
8011 8012
8013 8014
8015 8016
8017 8018
8019 8020
8021 8022
8023 8024
8025 8026
8027 8028
8029 8030
8031 8032
8033 8034
8035 8036
8037 8038
8039 8040
8041 8042
8043 8044
8045 8046
8047 8048
8049 8050
8051 8052
8053 8054
8055 8056
8057 8058
8059 8060
8061 8062
8063 8064
8065 8066
8067 8068
8069 8070
8071 8072
8073 8074
8075 8076
8077 8078
8079 8080
8081 8082
8083 8084
8085 8086
8087 8088
8089 8090
8091 8092
8093 8094
8095 8096
8097 8098
8099 8100
8101 8102
8103 8104
8105 8106
8107 8108
8109 8110
8111 8112
8113 8114
8115 8116
8117 8118
8119 8120
8121 8122
8123 8124
8125 8126
8127 8128
8129 8130
8131 8132
8133 8134
8135 8136
8137 8138
8139 8140
8141 8142
8143 8144
8145 8146
8147 8148
8149 8150
8151 8152
8153 8154
8155 8156
8157 8158
8159 8160
8161 8162
8163 8164
8165 8166
8167 8168
8169 8170
8171 8172
8173 8174
8175 8176
8177 8178
8179 8180
8181 8182
8183 8184
8185 8186
8187 8188
8189 8190
8191 8192
8193 8194
8195 8196
8197 8198
8199 8200
8201 8202
8203 8204
8205 8206
8207 8208
8209 8210
8211 8212
8213 8214
8215 8216
8217 8218
8219 8220
8221 8222
8223 8224
8225 8226
8227 8228
8229 8230
8231 8232
8233 8234
8235 8236
8237 8238
8239 8240
8241 8242
8243 8244
8245 8246
8247 8248
8249 8250
8251 8252
8253 8254
8255 8256
8257 8258
8259 8260
8261 8262
8263 8264
8265 8266
8267 8268
8269 8270
8271 8272
8273 8274
8275 8276
8277 8278
8279 8280
8281 8282
8283 8284
8285 8286
8287 8288
8289 8290
8291 8292
8293 8294
8295 8296
8297 8298
8299 8300
8301 8302
8303 8304
8305 8306
8307 8308
8309 8310
8311 8312
8313 8314
8315 8316
8317 8318
8319 8320
8321 8322
8323 8324
8325 8326
8327 8328
8329 8330
8331 8332
8333 8334
8335 8336
8337 8338
8339 8340
8341 8342
8343 8344
8345 8346
8347 8348
8349 8350
8351 8352
8353 8354
8355 8356
8357 8358
8359 8360
8361 8362
8363 8364
8365 8366
8367 8368
8369 8370
8371 8372
8373 8374
8375 8376
8377 8378
8379 8380
8381 8382
8383 8384
8385 8386
8387 8388
8389 8390
8391 8392
8393 8394
8395 8396
8397 8398
8399 8400
8401 8402
8403 8404
8405 8406
8407 8408
8409 8410
8411 8412
8413 8414
8415 8416
8417 8418
8419 8420
8421 8422
8423 8424
8425 8426
8427 8428
8429 8430
8431 8432
8433 8434
8435 8436
8437 8438
8439 8440
8441 8442
8443 8444
8445 8446
8447 8448
8449 8450
8451 8452
8453 8454
8455 8456
8457 8458
8459 8460
8461 8462
8463 8464
8465 8466
8467 8468
8469 8470
8471 8472
8473 8474
8475 8476
8477 8478
8479 8480
8481 8482
8483 8484
8485 8486
8487 8488
8489 8490
8491 8492
8493 8494
8495 8496
8497 8498
8499 8500
8501 8502
8503 8504
8505 8506
8507 8508
8509 8510
8511 8512
8513 8514
8515 8516
8517 8518
8519 8520
8521 8522
8523 8524
8525 8526
8527 8528
8529 8530
8531 8532
8533 8534
8535 8536
8537 8538
8539 8540
8541 8542
8543 8544
8545 8546
8547 8548
8549 8550
8551 8552
8553 8554
8555 8556
8557 8558
8559 8560
8561 8562
8563 8564
8565 8566
8567 8568
8569 8570
8571 8572
8573 8574
8575 8576
8577 8578
8579 8580
8581 8582
8583 8584
8585 8586
8587 8588
8589 8590
8591 8592
8593 8594
8595 8596
8597 8598
8599 8600
8601 8602
8603 8604
8605 8606
8607 8608
8609 8610
8611 8612
8613 8614
8615 8616
8617 8618
8619 8620
8621 8622
8623 8624
8625 8626
8627 8628
8629 8630
8631 8632
8633 8634
8635 8636
8637 8638
8639 8640
8641 8642
8643 8644
8645 8646
8647 8648
8649 8650
8651 8652
8653 8654
8655 8656
8657 8658
8659 8660
8661 8662
8663 8664
8665 8666
8667 8668
8669 8670
8671 8672
8673 8674
8675 8676
8677 8678
8679 8680
8681 8682
8683 8684
8685 8686
8687 8688
8689 8690
8691 8692
8693 8694
8695 8696
8697 8698
8699 8700
8701 8702
8703 8704
8705 8706
8707 8708
8709 8710
8711 8712
8713 8714
8715 8716
8717 8718
8719 8720
8721 8722
8723 8724
8725 8726
8727 8728
8729 8730
8731 8732
8733 8734
8735 8736
8737 8738
8739 8740
8741 8742
8743 8744
8745 8746
8747 8748
8749 8750
8751 8752
8753 8754
8755 8756
8757 8758
8759 8760
8761 8762
8763 8764
8765 8766
8767 8768
8769 8770
8771 8772
8773 8774
8775 8776
8777 8778
8779 8780
8781 8782
8783 8784
8785 8786
8787 8788
8789 8790
8791 8792
8793 8794
8795 8796
8797 8798
8799 8800
8801 8802
8803 8804
8805 8806
8807 8808
8809 8810
8811 8812
8813 8814
8815 8816
8817 8818
8819 8820
8821 8822
8823 8824
8825 8826
8827 8828
8829 8830
8831 8832
8833 8834
8835 8836
8837 8838
8839 8840
8841 8842
8843 8844
8845 8846
8847 8848
8849 8850
8851 8852
8853 8854
8855 8856
8857 8858
8859 8860
8861 8862
8863 8864
8865 8866
8867 8868
8869 8870
8871 8872
8873 8874
8875 8876
8877 8878
8879 8880
8881 8882
8883 8884
8885 8886
8887 8888
8889 8890
8891 8892
8893 8894
8895 8896
8897 8898
8899 8900
8901 8902
8903 8904
8905 8906
8907 8908
8909 8910
8911 8912
8913 8914
8915 8916
8917 8918
8919 8920
8921 8922
8923 8924
8925 8926
8927 8928
8929 8930
8931 8932
8933 8934
8935 8936
8937 8938
8939 8940
8941 8942
8943 8944
8945 8946
8947 8948
8949 8950
8951 8952
8953 8954
8955 8956
8957 8958
8959 8960
8961 8962
8963 8964
8965 8966
8967 8968
8969 8970
8971 8972
8973 8974
8975 8976
8977 8978
8979 8980
8981 8982
8983 8984
8985 8986
8987 8988
8989 8990
8991 8992
8993 8994
8995 8996
8997 8998
8999 9000
9001 9002
9003 9004
9005 9006
9007 9008
9009 9010
9011 9012
9013 9014
9015 9016
9017 9018
9019 9020
9021 9022
9023 9024
9025 9026
9027 9028
9029 9030
9031 9032
9033 9034
9035 9036
9037 9038
9039 9040
9041 9042
9043 9044
9045 9046
9047 9048
9049 9050
9051 9052
9053 9054
9055 9056
9057 9058
9059 9060
9061 9062
9063 9064
9065 9066
9067 9068
9069 9070
9071 9072
9073 9074
9075 9076
9077 9078
9079 9080
9081 9082
9083 9084
9085 9086
9087 9088
9089 9090
9091 9092
9093 9094
9095 9096
9097 9098
9099 9100
9101 9102
9103 9104
9105 9106
9107 9108
9109 9110
9111 9112
9113 9114
9115 9116
9117 9118
9119 9120
9121 9122
9123 9124
9125 9126
9127 9128
9129 9130
9131 9132
9133 9134
9135 9136
9137 9138
9139 9140
9141 9142
9143 9144
9145 9146
9147 9148
9149 9150
9151 9152
9153 9154
9155 9156
9157 9158
9159 9160
9161 9162
9163 9164
9165 9166
9167 9168
9169 9170
9171 9172
9173 9174
9175 9176
9177 9178
9179 9180
9181 9182
9183 9184
9185 9186
9187 9188
9189 9190
9191 9192
9193 9194
9195 9196
9197 9198
9199 9200
9201 9202
9203 9204
9205 9206
9207 9208
9209 9210
9211 9212
9213 9214
9215 9216
9217 9218
9219 9220
9221 9222
9223 9224
9225 9226
9227 9228
9229 9230
9231 9232
9233 9234
9235 9236
9237 9238
9239 9240
9241 9242
9243 9244
9245 9246
9247 9248
9249 9250
9251 9252
9253 9254
9255 9256
9257 9258
9259 9260
9261 9262
9263 9264
9265 9266
9267 9268
9269 9270
9271 9272
9273 9274
9275 9276
9277 9278
9279 9280
9281 9282
9283 9284
9285 9286
9287 9288
9289 9290
9291 9292
9293 9294
9295 9296
9297 9298
9299 9300
9301 9302
9303 9304
9305 9306
9307 9308
9309 9310
9311 9312
9313 9314
9315 9316
9317 9318
9319 9320
9321 9322
9323 9324
9325 9326
9327 9328
9329 9330
9331 9332
9333 9334
9335 9336
9337 9338
9339 9340
9341 9342
9343 9344
9345 9346
9347 9348
9349 9350
9351 9352
9353 9354
9355 9356
9357 9358
9359 9360
9361 9362
9363 9364
9365 9366
9367 9368
9369 9370
9371 9372
9373 9374
9375 9376
9377 9378
9379 9380
9381 9382
9383 9384
9385 9386
9387 9388
9389 9390
9391 9392
9393 9394
9395 9396
9397 9398
9399 9400
9401 9402
9403 9404
9405 9406
9407 9408
9409 9410
9411 9412
9413 9414
9415 9416
9417 9418
9419 9420
9421 9422
9423 9424
9425 9426
9427 9428
9429 9430
9431 9432
9433 9434
9435 9436
9437 9438
9439 9440
9441 9442
9443 9444
9445 9446
9447 9448
9449 9450
9451 9452
9453 9454
9455 9456
9457 9458
9459 9460
9461 9462
9463 9464
9465 9466
9467 9468
9469 9470
9471 9472
9473 9474
9475 9476
9477 9478
9479 9480
9481 9482
9483 9484
9485 9486
9487 9488
9489 9490
9491 9492
9493 9494
9495 9496
9497 9498
9499 9500
9501 9502
9503 9504
9505 9506
9507 9508
9509 9510
9511 9512
9513 9514
9515 9516
9517 9518
9519 9520
9521 9522
9523 9524
9525 9526
9527 9528
9529 9530
9531 9532
9533 9534
9535 9536
9537 9538
9539 9540
9541 9542
9543 9544
9545 9546
9547 9548
9549 9550
9551 9552
9553 9554
9555 9556
9557 9558
9559 9560
9561 9562
9563 9564
9565 9566
9567 9568
9569 9570
9571 9572
9573 9574
9575 9576
9577 9578
9579 9580
9581 9582
9583 9584
9585 9586
9587 9588
9589 9590
9591 9592
9593 9594
9595 9596
9597 9598
9599 9600
9601 9602
9603 9604
9605 9606
9607 9608
9609 9610
9611 9612
9613 9614
9615 9616
9617 9618
9619 9620
9621 9622
9623 9624
9625 9626
9627 9628
9629 9630
9631 9632
9633 9634
9635 9636
9637 9638
9639 9640
9641 9642
9643 9644
9645 9646
9647 9648
9649 9650
9651 9652
9653 9654
9655 9656
9657 9658
9659 9660
9661 9662
9663 9664
9665 9666
9667 9668
9669 9670
9671 9672
9673 9674
9675 9676
9677 9678
9679 9680
9681 9682
9683 9684
9685 9686
9687 9688
9689 9690
9691 9692
9693 9694
9695 9696
9697 9698
9699 9700
9701 9702
9703 9704
9705 9706
9707 9708
9709 9710
9711 9712
9713 9714
9715 9716
9717 9718
9719 9720
9721 9722
9723 9724
9725 9726
9727 9728
9729 9730
9731 9732
9733 9734
9735 9736
9737 9738
9739 9740
9741 9742
9743 9744
9745 9746
9747 9748
9749 9750
9751 9752
9753 9754
9755 9756
9757 9758
9759 9760
9761 9762
9763 9764
9765 9766
9767 9768
9769 9770
9771 9772
9773 9774
9775 9776
9777 9778
9779 9780
9781 9782
9783 9784
9785 9786
9787 9788
9789 9790
9791 9792
9793 9794
9795 9796
9797 9798
9799 9800
9801 9802
9803 9804
9805 9806
9807 9808
9809 9810
9811 9812
9813 9814
9815 9816
9817 9818
9819 9820
9821 9822
9823 9824
9825 9826
9827 9828
9829 9830
9831 9832
9833 9834
9835 9836
9837 9838
9839 9840
9841 9842
9843 9844
9845 9846
9847 9848
9849 9850
9851 9852
9853 9854
9855 9856
9857 9858
9859 9860
9861 9862
9863 9864
9865 9866
9867 9868
9869 9870
9871 9872
9873 9874
9875 9876
9877 9878
9879 9880
9881 9882
9883 9884
9885 9886
9887 9888
9889 9890
9891 9892
9893 9894
9895 9896
9897 9898
9899 9900
9901 9902
9903 9904
9905 9906
9907 9908
9909 9910
9911 9912
9913 9914
9915 9916
9917 9918
9919 9920
9921 9922
9923 9924
9925 9926
9927 9928
9929 9930
9931 9932
9933 9934
9935 9936
9937 9938
9939 9940
9941 9942
9943 9944
9945 9946
9947 9948
9949 9950
9951 9952
9953 9954
9955 9956
9957 9958
9959 9960
9961 9962
9963 9964
9965 9966
9967 9968
9969 9970
9971 9972
9973 9974
9975 9976
9977 9978
9979 9980
9981 9982
9983 9984
9985 9986
9987 9988
9989 9990
9991 9992
9993 9994
9995 9996
9997 9998
9999 10000
10001 10002
10003 10004
10005 10006
10007 10008
10009 10010
10011 10012
10013 10014
10015 10016
10017 10018
10019 10020
10021 10022
10023 10024
10025 10026
10027 10028
10029 10030
10031 10032
10033 10034
10035 10036
10037 10038
10039 10040
10041 10042
10043 10044
10045 10046
10047 10048
10049 10050
10051 10052
10053 10054
10055 10056
10057 10058
10059 10060
10061 10062
10063 10064
10065 10066
10067 10068
10069 10070
10071 10072
10073 10074
10075 10076
10077 10078
10079 10080
10081 10082
10083 10084
10085 10086
10087 10088
10089 10090
10091 10092
10093 10094
10095 10096
10097 10098
10099 10100
10101 10102
10103 10104
10105 10106
10107 10108
10109 10110
10111 10112
10113 10114
10115 10116
10117 10118
10119 10120
10121 10122
10123 10124
10125 10126
10127 10128
10129 10130
10131 10132
10133 10134
10135 10136
10137 10138
10139 10140
10141 10142
10143 10144
10145 10146
10147 10148
10149 10150
10151 10152
10153 10154
10155 10156
10157 10158
10159 10160
10161 10162
10163 10164
10165 10166
10167 10168
10169 10170
10171 10172
10173 10174
10175 10176
10177 10178
10179 10180
10181 10182
10183 10184
10185 10186
10187 10188
10189 10190
10191 10192
10193 10194
10195 10196
10197 10198
10199 10200
10201 10202
10203 10204
10205 10206
10207 10208
10209 10210
10211 10212
10213 10214
10215 10216
10217 10218
10219 10220
10221 10222
10223 10224
10225 10226
10227 10228
10229 10230
10231 10232
10233 10234
10235 10236
10237 10238
10239 10240
10241 10242
10243 10244
10245 10246
10247 10248
10249 10250
10251 10252
10253 10254
10255 10256
10257 10258
10259 10260
10261 10262
10263 10264
10265 10266
10267 10268
10269 10270
10271 10272
10273 10274
10275 10276
10277 10278
10279 10280
10281 10282
10283 10284
10285 10286
10287 10288
10289 10290
10291 10292
10293 10294
10295 10296
10297 10298
10299 10300
10301 10302
10303 10304
10305 10306
10307 10308
10309 10310
10311 10312
10313 10314
10315 10316
10317 10318
10319 10320
10321 10322
10323 10324
10325 10326
10327 10328
10329 10330
10331 10332
10333 10334
10335 10336
10337 10338
10339 10340
10341 10342
10343 10344
10345 10346
10347 10348
10349 10350
10351 10352
10353 10354
10355 10356
10357 10358
10359 10360
10361 10362
10363 10364
10365 10366
10367 10368
10369 10370
10371 10372
10373 10374
10375 10376
10377 10378
10379 10380
10381 10382
10383 10384
10385 10386
10387 10388
10389 10390
10391 10392
10393 10394
10395 10396
10397 10398
10399 10400
10401 10402
10403 10404
10405 10406
10407 10408
10409 10410
10411 10412
10413 10414
10415 10416
10417 10418
10419 10420
10421 10422
10423 10424
10425 10426
10427 10428
10429 10430
10431 10432
10433 10434
10435 10436
10437 10438
10439 10440
10441 10442
10443 10444
10445 10446
10447 10448
10449 10450
10451 10452
10453 10454
10455 10456
10457 10458
10459 10460
10461 10462
10463 10464
10465 10466
10467 10468
10469 10470
10471 10472
10473 10474
10475 10476
10477 10478
10479 10480
10481 10482
10483 10484
10485 10486
10487 10488
10489 10490
10491 10492
10493 10494
10495 10496
10497 10498
10499 10500
10501 10502
10503 10504
10505 10506
10507 10508
10509 10510
10511 10512
10513 10514
10515 10516
10517 10518
10519 10520
10521 10522
10523 10524
10525 10526
10527 10528
10529 10530
10531 10532
10533 10534
10535 10536
10537 10538
10539 10540
10541 10542
10543 10544
10545 10546
10547 10548
10549 10550
10551 10552
10553 10554
10555 10556
10557 10558
10559 10560
10561 10562
10563 10564
10565 10566
10567 10568
10569 10570
10571 10572
10573 10574
10575 10576
10577 10578
10579 10580
10581 10582
10583 10584
10585 10586
10587 10588
10589 10590
10591 10592
10593 10594
10595 10596
10597 10598
10599 10600
10601 10602
10603 10604
10605 10606
10607 10608
10609 10610
10611 10612
10613 10614
10615 10616
10617 10618
10619 10620
10621 10622
10623 10624
10625 10626
10627 10628
10629 10630
10631 10632
10633 10634
10635 10636
10637 10638
10639 10640
10641 10642
10643 10644
10645 10646
10647 10648
10649 10650
10651 10652
10653 10654
10655 10656
10657 10658
10659 10660
10661 10662
10663 10664
10665 10666
10667 10668
10669 10670
10671 10672
10673 10674
10675 10676
10677 10678
10679 10680
10681 10682
10683 10684
10685 10686
10687 10688
10689 10690
10691 10692
10693 10694
10695 10696
10697 10698
10699 10700
10701 10702
10703 10704
10705 10706
10707 10708
10709 10710
10711 10712
10713 10714
10715 10716
10717 10718
10719 10720
10721 10722
10723 10724
10725 10726
10727 10728
10729 10730
10731 10732
10733 10734
10735 10736
10737 10738
10739 10740
10741 10742
10743 10744
10745 10746
10747 10748
10749 10750
10751 10752
10753 10754
10755 10756
10757 10758
10759 10760
10761 10762
10763 10764
10765 10766
10767 10768
10769 10770
10771 10772
10773 10774
10775 10776
10777 10778
10779 10780
10781 10782
10783 10784
10785 10786
10787 10788
10789 10790
10791 10792
10793 10794
10795 10796
10797 10798
10799 10800
10801 10802
10803 10804
10805 10806
10807 10808
10809 10810
10811 10812
10813 10814
10815 10816
10817 10818
10819 10820
10821 10822
10823 10824
10825 10826
10827 10828
10829 10830
10831 10832
10833 10834
10835 10836
10837 10838
10839 10840
10841 10842
10843 10844
10845 10846
10847 10848
10849 10850
10851 10852
10853 10854
10855 10856
10857 10858
10859 10860
10861 10862
10863 10864
10865 10866
10867 10868
10869 10870
10871 10872
10873 10874
10875 10876
10877 10878
10879 10880
10881 10882
10883 10884
10885 10886
10887 10888
10889 10890
10891 10892
10893 10894
10895 10896
10897 10898
10899 10900
10901 10902
10903 10904
10905 10906
10907 10908
10909 10910
10911 10912
10913 10914
10915 10916
10917 10918
10919 10920
10921 10922
10923 10924
10925 10926
10927 10928
10929 10930
10931 10932
10933 10934
10935 10936
10937 10938
10939 10940
10941 10942
10943 10944
10945 10946
10947 10948
10949 10950
10951 10952
10953 10954
10955 10956
10957 10958
10959 10960
10961 10962
10963 10964
10965 10966
10967 10968
10969 10970
10971 10972
10973 10974
10975 10976
10977 10978
10979 10980
10981 10982
10983 10984
10985 10986
10987 10988
10989 10990
10991 10992
10993 10994
10995 10996
10997 10998
10999 11000
11001 11002
11003 11004
11005 11006
11007 11008
11009 11010
11011 11012
11013 11014
11015 11016
11017 11018
11019 11020
11021 11022
11023 11024
11025 11026
11027 11028
11029 11030
11031 11032
11033 11034
11035 11036
11037 11038
11039 11040
11041 11042
11043 11044
11045 11046
11047 11048
11049 11050
11051 11052
11053 11054
11055 11056
11057 11058
11059 11060
11061 11062
11063 11064
11065 11066
11067 11068
11069 11070
11071 11072
11073 11074
11075 11076
11077 11078
11079 11080
11081 11082
11083 11084
11085 11086
11087 11088
11089 11090
11091 11092
11093 11094
11095 11096
11097 11098
11099 11100
11101 11102
11103 11104
11105 11106
11107 11108
11109 11110
11111 11112
11113 11114
11115 11116
11117 11118
11119 11120
11121 11122
11123 11124
11125 11126
11127 11128
11129 11130
11131 11132
11133 11134
11135 11136
11137 11138
11139 11140
11141 11142
11143 11144
11145 11146
11147 11148
11149 11150
11151 11152
11153 11154
11155 11156
11157 11158
11159 11160
11161 11162
11163 11164
11165 11166
11167 11168
11169 11170
11171 11172
11173 11174
11175 11176
11177 11178
11179 11180
11181 11182
11183 11184
11185 11186
11187 11188
11189 11190
11191 11192
11193 11194
11195 11196
11197 11198
11199 11200
11201 11202
11203 11204
11205 11206
11207 11208
11209 11210
11211 11212
11213 11214
11215 11216
11217 11218
11219 11220
11221 11222
11223 11224
11225 11226
11227 11228
11229 11230
11231 11232
11233 11234
11235 11236
11237 11238
11239 11240
11241 11242
11243 11244
11245 11246
11247 11248
11249 11250
11251 11252
11253 11254
11255 11256
11257 11258
11259 11260
11261 11262
11263 11264
11265 11266
11267 11268
11269 11270
11271 11272
11273 11274
11275 11276
11277 11278
11279 11280
11281 11282
11283 11284
11285 11286
11287 11288
11289 11290
11291 11292
11293 11294
11295 11296
11297 11298
11299 11300
11301 11302
11303 11304
11305 11306
11307 11308
11309 11310
11311 11312
11313 11314
11315 11316
11317 11318
11319 11320
11321 11322
11323 11324
11325 11326
11327 11328
11329 11330
11331 11332
11333 11334
11335 11336
11337 11338
11339 11340
11341 11342
11343 11344
11345 11346
11347 11348
11349 11350
11351 11352
11353 11354
11355 11356
11357 11358
11359 11360
11361 11362
11363 11364
11365 11366
11367 11368
11369 11370
11371 11372
11373 11374
11375 11376
11377 11378
11379 11380
11381 11382
11383 11384
11385 11386
11387 11388
11389 11390
11391 11392
11393 11394
11395 11396
11397 11398
11399 11400
11401 11402
11403 11404
11405 11406
11407 11408
11409 11410
11411 11412
11413 11414
11415 11416
11417 11418
11419 11420
11421 11422
11423 11424
11425 11426
11427 11428
11429 11430
11431 11432
11433 11434
11435 11436
11437 11438
11439 11440
11441 11442
11443 11444
11445 11446
11447 11448
11449 11450
11451 11452
11453 11454
11455 11456
11457 11458
11459 11460
11461 11462
11463 11464
11465 11466
11467 11468
11469 11470
11471 11472
11473 11474
11475 11476
11477 11478
11479 11480
11481 11482
11483 11484
11485 11486
11487 11488
11489 11490
11491 11492
11493 11494
11495 11496
11497 11498
11499 11500
11501 11502
11503 11504
11505 11506
11507 11508
11509 11510
11511 11512
11513 11514
11515 11516
11517 11518
11519 11520
11521 11522
11523 11524
11525 11526
11527 11528
11529 11530
11531 11532
11533 11534
11535 11536
11537 11538
11539 11540
11541 11542
11543 11544
11545 11546
11547 11548
11549 11550
11551 11552
11553 11554
11555 11556
11557 11558
11559 11560
11561 11562
11563 11564
11565 11566
11567 11568
11569 11570
11571 11572
11573 11574
11575 11576
11577 11578
11579 11580
11581 11582
11583 11584
11585 11586
11587 11588
11589 11590
11591 11592
11593 11594
11595 11596
11597 11598
11599 11600
11601 11602
11603 11604
11605 11606
11607 11608
11609 11610
11611 11612
11613 11614
11615 11616
11617 11618
11619 11620
11621 11622
11623 11624
11625 11626
11627 11628
11629 11630
11631 11632
11633 11634
11635 11636
11637 11638
11639 11640
11641 11642
11643 11644
11645 11646
11647 11648
11649 11650
11651 11652
11653 11654
11655 11656
11657 11658
11659 11660
11661 11662
11663 11664
11665 11666
11667 11668
11669 11670
11671 11672
11673 11674
11675 11676
11677 11678
11679 11680
11681 11682
11683 11684
11685 11686
11687 11688
11689 11690
11691 11692
11693 11694
11695 11696
11697 11698
11699 11700
11701 11702
11703 11704
11705 11706
11707 11708
11709 11710
11711 11712
11713 11714
11715 11716
11717 11718
11719 11720
11721 11722
11723 11724
11725 11726
11727 11728
11729 11730
11731 11732
11733 11734
11735 11736
11737 11738
11739 11740
11741 11742
11743 11744
11745 11746
11747 11748
11749 11750
11751 11752
11753 11754
11755 11756
11757 11758
11759 11760
11761 11762
11763 11764
11765 11766
11767 11768
11769 11770
11771 11772
11773 11774
11775 11776
11777 11778
11779 11780
11781 11782
11783 11784
11785 11786
11787 11788
11789 11790
11791 11792
11793 11794
11795 11796
11797 11798
11799 11800
11801 11802
11803 11804
11805 11806
11807 11808
11809 11810
11811 11812
11813 11814
11815 11816
11817 11818
11819 11820
11821 11822
11823 11824
11825 11826
11827 11828
11829 11830
11831 11832
11833 11834
11835 11836
11837 11838
11839 11840
11841 11842
11843 11844
11845 11846
11847 11848
11849 11850
11851 11852
11853 11854
11855 11856
11857 11858
11859 11860
11861 11862
11863 11864
11865 11866
11867 11868
11869 11870
11871 11872
11873 11874
11875 11876
11877 11878
11879 11880
11881 11882
11883 11884
11885 11886
11887 11888
11889 11890
11891 11892
11893 11894
11895 11896
11897 11898
11899 11900
11901 11902
11903 11904
11905 11906
11907 11908
11909 11910
11911 11912
11913 11914
11915 11916
11917 11918
11919 11920
11921 11922
11923 11924
11925 11926
11927 11928
11929 11930
11931 11932
11933 11934
11935 11936
11937 11938
11939 11940
11941 11942
11943 11944
11945 11946
11947 11948
11949 11950
11951 11952
11953 11954
11955 11956
11957 11958
11959 11960
11961 11962
11963 11964
11965 11966
11967 11968
11969 11970
11971 11972
11973 11974
11975 11976
11977 11978
11979 11980
11981 11982
11983 11984
11985 11986
11987 11988
11989 11990
11991 11992
11993 11994
11995 11996
11997 11998
11999 12000
12001 12002
12003 12004
12005 12006
12007 12008
12009 12010
12011 12012
12013 12014
12015 12016
12017 12018
12019 12020
12021 12022
12023 12024
12025 12026
12027 12028
12029 12030
12031 12032
12033 12034
12035 12036
12037 12038
12039 12040
12041 12042
12043 12044
12045 12046
12047 12048
12049 12050
12051 12052
12053 12054
12055 12056
12057 12058
12059 12060
12061 12062
12063 12064
12065 12066
12067 12068
12069 12070
12071 12072
12073 12074
12075 12076
12077 12078
12079 12080
12081 12082
12083 12084
12085 12086
12087 12088
12089 12090
12091 12092
12093 12094
12095 12096
12097 12098
12099 12100
12101 12102
12103 12104
12105 12106
12107 12108
12109 12110
12111 12112
12113 12114
12115 12116
12117 12118
12119 12120
12121 12122
12123 12124
12125 12126
12127 12128
12129 12130
12131 12132
12133 12134
12135 12136
12137 12138
12139 12140
12141 12142
12143 12144
12145 12146
12147 12148
12149 12150
12151 12152
12153 12154
12155 12156
12157 12158
12159 12160
12161 12162
12163 12164
12165 12166
12167 12168
12169 12170
12171 12172
12173 12174
12175 12176
12177 12178
12179 12180
12181 12182
12183 12184
12185 12186
12187 12188
12189 12190
12191 12192
12193 12194
12195 12196
12197 12198
12199 12200
12201 12202
12203 12204
12205 12206
12207 12208
12209 12210
12211 12212
12213 12214
12215 12216
12217 12218
12219 12220
12221 12222
12223 12224
12225 12226
12227 12228
12229 12230
12231 12232
12233 12234
12235 12236
12237 12238
12239 12240
12241 12242
12243 12244
12245 12246
12247 12248
12249 12250
12251 12252
12253 12254
12255 12256
12257 12258
12259 12260
12261 12262
12263 12264
12265 12266
12267 12268
12269 12270
12271 12272
12273 12274
12275 12276
12277 12278
12279 12280
12281 12282
12283 12284
12285 12286
12287 12288
12289 12290
12291 12292
12293 12294
12295 12296
12297 12298
12299 12300
12301 12302
12303 12304
12305 12306
12307 12308
12309 12310
12311 12312
12313 12314
12315 12316
12317 12318
12319 12320
12321 12322
12323 12324
12325 12326
12327 12328
12329 12330
12331 12332
12333 12334
12335 12336
12337 12338
12339 12340
12341 12342
12343 12344
12345 12346
12347 12348
12349 12350
12351 12352
12353 12354
12355 12356
12357 12358
12359 12360
12361 12362
12363 12364
12365 12366
12367 12368
12369 12370
12371 12372
12373 12374
12375 12376
12377 12378
12379 12380
12381 12382
12383 12384
12385 12386
12387 12388
12389 12390
12391 12392
12393 12394
12395 12396
12397 12398
12399 12400
12401 12402
12403 12404
12405 12406
12407 12408
12409 12410
12411 12412
12413 12414
12415 12416
12417 12418
12419 12420
12421 12422
12423 12424
12425 12426
12427 12428
12429 12430
12431 12432
12433 12434
12435 12436
12437 12438
12439 12440
12441 12442
12443 12444
12445 12446
12447 12448
12449 12450
12451 12452
12453 12454
12455 12456
12457 12458
12459 12460
12461 12462
12463 12464
12465 12466
12467 12468
12469 12470
12471 12472
12473 12474
12475 12476
12477 12478
12479 12480
12481 12482
12483 12484
12485 12486
12487 12488
12489 12490
12491 12492
12493 12494
12495 12496
12497 12498
12499 12500
12501 12502
12503 12504
12505 12506
12507 12508
12509 12510
12511 12512
12513 12514
12515 12516
12517 12518
12519 12520
12521 12522
12523 12524
12525 12526
12527 12528
12529 12530
12531 12532
12533 12534
12535 12536
12537 12538
12539 12540
12541 12542
12543 12544
12545 12546
12547 12548
12549 12550
12551 12552
12553 12554
12555 12556
12557 12558
12559 12560
12561 12562
12563 12564
12565 12566
12567 12568
12569 12570
12571 12572
12573 12574
12575 12576
12577 12578
12579 12580
12581 12582
12583 12584
12585 12586
12587 12588
12589 12590
12591 12592
12593 12594
12595 12596
12597 12598
12599 12600
12601 12602
12603 12604
12605 12606
12607 12608
12609 12610
12611 12612
12613 12614
12615 12616
12617 12618
12619 12620
12621 12622
12623 12624
12625 12626
12627 12628
12629 12630
12631 12632
12633 12634
12635 12636
12637 12638
12639 12640
12641 12642
12643 12644
12645 12646
12647 12648
12649 12650
12651 12652
12653 12654
12655 12656
12657 12658
12659 12660
12661 12662
12663 12664
12665 12666
12667 12668
12669 12670
12671 12672
12673 12674
12675 12676
12677 12678
12679 12680
12681 12682
12683 12684
12685 12686
12687 12688
12689 12690
12691 12692
12693 12694
12695 12696
12697 12698
12699 12700
12701 12702
12703 12704
12705 12706
12707 12708
12709 12710
12711 12712
12713 12714
12715 12716
12717 12718
12719 12720
12721 12722
12723 12724
12725 12726
12727 12728
12729 12730
12731 12732
12733 12734
12735 12736
12737 12738
12739 12740
12741 12742
12743 12744
12745 12746
12747 12748
12749 12750
12751 12752
12753 12754
12755 12756
12757 12758
12759 12760
12761 12762
12763 12764
12765 12766
12767 12768
12769 12770
12771 12772
12773 12774
12775 12776
12777 12778
12779 12780
12781 12782
12783 12784
12785 12786
12787 12788
12789 12790
12791 12792
12793 12794
12795 12796
12797 12798
12799 12800
12801 12802
12803 12804
12805 12806
12807 12808
12809 12810
12811 12812
12813 12814
12815 12816
12817 12818
12819 12820
12821 12822
12823 12824
12825 12826
12827 12828
12829 12830
12831 12832
12833 12834
12835 12836
12837 12838
12839 12840
12841 12842
12843 12844
12845 12846
12847 12848
12849 12850
12851 12852
12853 12854
12855 12856
12857 12858
12859 12860
12861 12862
12863 12864
12865 12866
12867 12868
12869 12870
12871 12872
12873 12874
12875 12876
12877 12878
12879 12880
12881 12882
12883 12884
12885 12886
12887 12888
12889 12890
12891 12892
12893 12894
12895 12896
12897 12898
12899 12900
12901 12902
12903 12904
12905 12906
12907 12908
12909 12910
12911 12912
12913 12914
12915 12916
12917 12918
12919 12920
12921 12922
12923 12924
12925 12926
12927 12928
12929 12930
12931 12932
12933 12934
12935 12936
12937 12938
12939 12940
12941 12942
12943 12944
12945 12946
12947 12948
12949 12950
12951 12952
12953 12954
12955 12956
12957 12958
12959 12960
12961 12962
12963 12964
12965 12966
12967 12968
12969 12970
12971 12972
12973 12974
12975 12976
12977 12978
12979 12980
12981 12982
12983 12984
12985 12986
12987 12988
12989 12990
12991 12992
12993 12994
12995 12996
12997 12998
12999 13000
13001 13002
13003 13004
13005 13006
13007 13008
13009 13010
13011 13012
13013 13014
13015 13016
13017 13018
13019 13020
13021 13022
13023 13024
13025 13026
13027 13028
13029 13030
13031 13032
13033 13034
13035 13036
13037 13038
13039 13040
13041 13042
13043 13044
13045 13046
13047 13048
13049 13050
13051 13052
13053 13054
13055 13056
13057 13058
13059 13060
13061 13062
13063 13064
13065 13066
13067 13068
13069 13070
13071 13072
13073 13074
13075 13076
13077 13078
13079 13080
13081 13082
13083 13084
13085 13086
13087 13088
13089 13090
13091 13092
13093 13094
13095 13096
13097 13098
13099 13100
13101 13102
13103 13104
13105 13106
13107 13108
13109 13110
13111 13112
13113 13114
13115 13116
13117 13118
13119 13120
13121 13122
13123 13124
13125 13126
13127 13128
13129 13130
13131 13132
13133 13134
13135 13136
13137 13138
13139 13140
13141 13142
13143 13144
13145 13146
13147 13148
13149 13150
13151 13152
13153 13154
13155 13156
13157 13158
13159 13160
13161 13162
13163 13164
13165 13166
13167 13168
13169 13170
13171 13172
13173 13174
13175 13176
13177 13178
13179 13180
13181 13182
13183 13184
13185 13186
13187 13188
13189 13190
13191 13192
13193 13194
13195 13196
13197 13198
13199 13200
13201 13202
13203 13204
13205 13206
13207 13208
13209 13210
13211 13212
13213 13214
13215 13216
13217 13218
13219 13220
13221 13222
13223 13224
13225 13226
13227 13228
13229 13230
13231 13232
13233 13234
13235 13236
13237 13238
13239 13240
13241 13242
13243 13244
13245 13246
13247 13248
13249 13250
13251 13252
13253 13254
13255 13256
13257 13258
13259 13260
13261 13262
13263 13264
13265 13266
13267 13268
13269 13270
13271 13272
13273 13274
13275 13276
13277 13278
13279 13280
13281 13282
13283 13284
13285 13286
13287 13288
13289 13290
13291 13292
13293 13294
13295 13296
13297 13298
13299 13300
13301 13302
13303 13304
13305 13306
13307 13308
13309 13310
13311 13312
13313 13314
13315 13316
13317 13318
13319 13320
13321 13322
13323 13324
13325 13326
13327 13328
13329 13330
13331 13332
13333 13334
13335 13336
13337 13338
13339 13340
13341 13342
13343 13344
13345 13346
13347 13348
13349 13350
13351 13352
13353 13354
13355 13356
13357 13358
13359 13360
13361 13362
13363 13364
13365 13366
13367 13368
13369 13370
13371 13372
13373 13374
13375 13376
13377 13378
13379 13380
13381 13382
13383 13384
13385 13386
13387 13388
13389 13390
13391 13392
13393 13394
13395 13396
13397 13398
13399 13400
13401 13402
13403 13404
13405 13406
13407 13408
13409 13410
13411 13412
13413 13414
13415 13416
13417 13418
13419 13420
13421 13422
13423 13424
13425 13426
13427 13428
13429 13430
13431 13432
13433 13434
13435 13436
13437 13438
13439 13440
13441 13442
13443 13444
13445 13446
13447 13448
13449 13450
13451 13452
13453 13454
13455 13456
13457 13458
13459 13460
13461 13462
13463 13464
13465 13466
13467 13468
13469 13470
13471 13472
13473 13474
13475 13476
13477 13478
13479 13480
13481 13482
13483 13484
13485 13486
13487 13488
13489 13490
13491 13492
13493 13494
13495 13496
13497 13498
13499 13500
13501 13502
13503 13504
13505 13506
13507 13508
13509 13510
13511 13512
13513 13514
13515 13516
13517 13518
13519 13520
13521 13522
13523 13524
13525 13526
13527 13528
13529 13530
13531 13532
13533 13534
13535 13536
13537 13538
13539 13540
13541 13542
13543 13544
13545 13546
13547 13548
13549 13550
13551 13552
13553 13554
13555 13556
13557 13558
13559 13560
13561 13562
13563 13564
13565 13566
13567 13568
13569 13570
13571 13572
13573 13574
13575 13576
13577 13578
13579 13580
13581 13582
13583 13584
13585 13586
13587 13588
13589 13590
13591 13592
13593 13594
13595 13596
13597 13598
13599 13600
13601 13602
13603 13604
13605 13606
13607 13608
13609 13610
13611 13612
13613 13614
13615 13616
13617 13618
13619 13620
13621 13622
13623 13624
13625 13626
13627 13628
13629 13630
13631 13632
13633 13634
13635 13636
13637 13638
13639 13640
13641 13642
13643 13644
13645 13646
13647 13648
13649 13650
13651 13652
13653 13654
13655 13656
13657 13658
13659 13660
13661 13662
13663 13664
13665 13666
13667 13668
13669 13670
13671 13672
13673 13674
13675 13676
13677 13678
13679 13680
13681 13682
13683 13684
13685 13686
13687 13688
13689 13690
13691 13692
13693 13694
13695 13696
13697 13698
13699 13700
13701 13702
13703 13704
13705 13706
13707 13708
13709 13710
13711 13712
13713 13714
13715 13716
13717 13718
13719 13720
13721 13722
13723 13724
13725 13726
13727 13728
13729 13730
13731 13732
13733 13734
13735 13736
13737 13738
13739 13740
13741 13742
13743 13744
13745 13746
13747 13748
13749 13750
13751 13752
13753 13754
13755 13756
13757 13758
13759 13760
13761 13762
13763 13764
13765 13766
13767 13768
13769 13770
13771 13772
13773 13774
13775 13776
13777 13778
13779 13780
13781 13782
13783 13784
13785 13786
13787 13788
13789 13790
13791 13792
13793 13794
13795 13796
13797 13798
13799 13800
13801 13802
13803 13804
13805 13806
13807 13808
13809 13810
13811 13812
13813 13814
13815 13816
13817 13818
13819 13820
13821 13822
13823 13824
13825 13826
13827 13828
13829 13830
13831 13832
13833 13834
13835 13836
13837 13838
13839 13840
13841 13842
13843 13844
13845 13846
13847 13848
13849 13850
13851 13852
13853 13854
13855 13856
13857 13858
13859 13860
13861 13862
13863 13864
13865 13866
13867 13868
13869 13870
13871 13872
13873 13874
13875 13876
13877 13878
13879 13880
13881 13882
13883 13884
13885 13886
13887 13888
13889 13890
13891 13892
13893 13894
13895 13896
13897 13898
13899 13900
13901 13902
13903 13904
13905 13906
13907 13908
13909 13910
13911 13912
13913 13914
13915 13916
13917 13918
13919 13920
13921 13922
13923 13924
13925 13926
13927 13928
13929 13930
13931 13932
13933 13934
13935 13936
13937 13938
13939 13940
13941 13942
13943 13944
13945 13946
13947 13948
13949 13950
13951 13952
13953 13954
13955 13956
13957 13958
13959 13960
13961 13962
13963 13964
13965 13966
13967 13968
13969 13970
13971 13972
13973 13974
13975 13976
13977 13978
13979 13980
13981 13982
13983 13984
13985 13986
13987 13988
13989 13990
13991 13992
13993 13994
13995 13996
13997 13998
13999 14000
14001 14002
14003 14004
14005 14006
14007 14008
14009 14010
14011 14012
14013 14014
14015 14016
14017 14018
14019 14020
14021 14022
14023 14024
14025 14026
14027 14028
14029 14030
14031 14032
14033 14034
14035 14036
14037 14038
14039 14040
14041 14042
14043 14044
14045 14046
14047 14048
14049 14050
14051 14052
14053 14054
14055 14056
14057 14058
14059 14060
14061 14062
14063 14064
14065 14066
14067 14068
14069 14070
14071 14072
14073 14074
14075 14076
14077 14078
14079 14080
14081 14082
14083 14084
14085 14086
14087 14088
14089 14090
14091 14092
14093 14094
14095 14096
14097 14098
14099 14100
14101 14102
14103 14104
14105 14106
14107 14108
14109 14110
14111 14112
14113 14114
14115 14116
14117 14118
14119 14120
14121 14122
14123 14124
14125 14126
14127 14128
14129 14130
14131 14132
14133 14134
14135 14136
14137 14138
14139 14140
14141 14142
14143 14144
14145 14146
14147 14148
14149 14150
14151 14152
14153 14154
14155 14156
14157 14158
14159 14160
14161 14162
14163 14164
14165 14166
14167 14168
14169 14170
14171 14172
14173 14174
14175 14176
14177 14178
14179 14180
14181 14182
14183 14184
14185 14186
14187 14188
14189 14190
14191 14192
14193 14194
14195 14196
14197 14198
14199 14200
14201 14202
14203 14204
14205 14206
14207 14208
14209 14210
14211 14212
14213 14214
14215 14216
14217 14218
14219 14220
14221 14222
14223 14224
14225 14226
14227 14228
14229 14230
14231 14232
14233 14234
14235 14236
14237 14238
14239 14240
14241 14242
14243 14244
14245 14246
14247 14248
14249 14250
14251 14252
14253 14254
14255 14256
14257 14258
14259 14260
14261 14262
14263 14264
14265 14266
14267 14268
14269 14270
14271 14272
14273 14274
14275 14276
14277 14278
14279 14280
14281 14282
14283 14284
14285 14286
14287 14288
14289 14290
14291 14292
14293 14294
14295 14296
14297 14298
14299 14300
14301 14302
14303 14304
14305 14306
14307 14308
14309 14310
14311 14312
14313 14314
14315 14316
14317 14318
14319 14320
14321 14322
14323 14324
14325 14326
14327 14328
14329 14330
14331 14332
14333 14334
14335 14336
14337 14338
14339 14340
14341 14342
14343 14344
14345 14346
14347 14348
14349 14350
14351 14352
14353 14354
14355 14356
14357 14358
14359 14360
14361 14362
14363 14364
14365 14366
14367 14368
14369 14370
14371 14372
14373 14374
14375 14376
14377 14378
14379 14380
14381 14382
14383 14384
14385 14386
14387 14388
14389 14390
14391 14392
14393 14394
14395 14396
14397 14398
14399 14400
14401 14402
14403 14404
14405 14406
14407 14408
14409 14410
14411 14412
14413 14414
14415 14416
14417 14418
14419 14420
14421 14422
14423 14424
14425 14426
14427 14428
14429 14430
14431 14432
14433 14434
14435 14436
14437 14438
14439 14440
14441 14442
14443 14444
14445 14446
14447 14448
14449 14450
14451 14452
14453 14454
14455 14456
14457 14458
14459 14460
14461 14462
14463 14464
14465 14466
14467 14468
14469 14470
14471 14472
14473 14474
14475 14476
14477 14478
14479 14480
14481 14482
14483 14484
14485 14486
14487 14488
14489 14490
14491 14492
14493 14494
14495 14496
14497 14498
14499 14500
14501 14502
14503 14504
14505 14506
14507 14508
14509 14510
14511 14512
14513 14514
14515 14516
14517 14518
14519 14520
14521 14522
14523 14524
14525 14526
14527 14528
14529 14530
14531 14532
14533 14534
14535 14536
14537 14538
14539 14540
14541 14542
14543 14544
14545 14546
14547 14548
14549 14550
14551 14552
14553 14554
14555 14556
14557 14558
14559 14560
14561 14562
14563 14564
14565 14566
14567 14568
14569 14570
14571 14572
14573 14574
14575 14576
14577 14578
14579 14580
14581 14582
14583 14584
14585 14586
14587 14588
14589 14590
14591 14592
14593 14594
14595 14596
14597 14598
14599 14600
14601 14602
14603 14604
14605 14606
14607 14608
14609 14610
14611 14612
14613 14614
14615 14616
14617 14618
14619 14620
14621 14622
14623 14624
14625 14626
14627 14628
14629 14630
14631 14632
14633 14634
14635 14636
14637 14638
14639 14640
14641 14642
14643 14644
14645 14646
14647 14648
14649 14650
14651 14652
14653 14654
14655 14656
14657 14658
14659 14660
14661 14662
14663 14664
14665 14666
14667 14668
14669 14670
14671 14672
14673 14674
14675 14676
14677 14678
14679 14680
14681 14682
14683 14684
14685 14686
14687 14688
14689 14690
14691 14692
14693 14694
14695 14696
14697 14698
14699 14700
14701 14702
14703 14704
14705 14706
14707 14708
14709 14710
14711 14712
14713 14714
14715 14716
14717 14718
14719 14720
14721 14722
14723 14724
14725 14726
14727 14728
14729 14730
14731 14732
14733 14734
14735 14736
14737 14738
14739 14740
14741 14742
14743 14744
14745 14746
14747 14748
14749 14750
14751 14752
14753 14754
14755 14756
14757 14758
14759 14760
14761 14762
14763 14764
14765 14766
14767 14768
14769 14770
14771 14772
14773 14774
14775 14776
14777 14778
14779 14780
14781 14782
14783 14784
14785 14786
14787 14788
14789 14790
14791 14792
14793 14794
14795 14796
14797 14798
14799 14800
14801 14802
14803 14804
14805 14806
14807 14808
14809 14810
14811 14812
14813 14814
14815 14816
14817 14818
14819 14820
14821 14822
14823 14824
14825 14826
14827 14828
14829 14830
14831 14832
14833 14834
14835 14836
14837 14838
14839 14840
14841 14842
14843 14844
14845 14846
14847 14848
14849 14850
14851 14852
14853 14854
14855 14856
14857 14858
14859 14860
14861 14862
14863 14864
14865 14866
14867 14868
14869 14870
14871 14872
14873 14874
14875 14876
14877 14878
14879 14880
14881 14882
14883 14884
14885 14886
14887 14888
14889 14890
14891 14892
14893 14894
14895 14896
14897 14898
14899 14900
14901 14902
14903 14904
14905 14906
14907 14908
14909 14910
14911 14912
14913 14914
14915 14916
14917 14918
14919 14920
14921 14922
14923 14924
14925 14926
14927 14928
14929 14930
14931 14932
14933 14934
14935 14936
14937 14938
14939 14940
14941 14942
14943 14944
14945 14946
14947 14948
14949 14950
14951 14952
14953 14954
14955 14956
14957 14958
14959 14960
14961 14962
14963 14964
14965 14966
14967 14968
14969 14970
14971 14972
14973 14974
14975 14976
14977 14978
14979 14980
14981 14982
14983 14984
14985 14986
14987 14988
14989 14990
14991 14992
14993 14994
14995 14996
14997 14998
14999 15000
15001 15002
15003 15004
15005 15006
15007 15008
15009 15010
15011 15012
15013 15014
15015 15016
15017 15018
15019 15020
15021 15022
15023 15024
15025 15026
15027 15028
15029 15030
15031 15032
15033 15034
15035 15036
15037 15038
15039 15040
15041 15042
15043 15044
15045 15046
15047 15048
15049 15050
15051 15052
15053 15054
15055 15056
15057 15058
15059 15060
15061 15062
15063 15064
15065 15066
15067 15068
15069 15070
15071 15072
15073 15074
15075 15076
15077 15078
15079 15080
15081 15082
15083 15084
15085 15086
15087 15088
15089 15090
15091 15092
15093 15094
15095 15096
15097 15098
15099 15100
15101 15102
15103 15104
15105 15106
15107 15108
15109 15110
15111 15112
15113 15114
15115 15116
15117 15118
15119 15120
15121 15122
15123 15124
15125 15126
15127 15128
15129 15130
15131 15132
15133 15134
15135 15136
15137 15138
15139 15140
15141 15142
15143 15144
15145 15146
15147 15148
15149 15150
15151 15152
15153 15154
15155 15156
15157 15158
15159 15160
15161 15162
15163 15164
15165 15166
15167 15168
15169 15170
15171 15172
15173 15174
15175 15176
15177 15178
15179 15180
15181 15182
15183 15184
15185 15186
15187 15188
15189 15190
15191 15192
15193 15194
15195 15196
15197 15198
15199 15200
15201 15202
15203 15204
15205 15206
15207 15208
15209 15210
15211 15212
15213 15214
15215 15216
15217 15218
15219 15220
15221 15222
15223 15224
15225 15226
15227 15228
15229 15230
15231 15232
15233 15234
15235 15236
15237 15238
15239 15240
15241 15242
15243 15244
15245 15246
15247 15248
15249 15250
15251 15252
15253 15254
15255 15256
15257 15258
15259 15260
15261 15262
15263 15264
15265 15266
15267 15268
15269 15270
15271 15272
15273 15274
15275 15276
15277 15278
15279 15280
15281 15282
15283 15284
15285 15286
15287 15288
15289 15290
15291 15292
15293 15294
15295 15296
15297 15298
15299 15300
15301 15302
15303 15304
15305 15306
15307 15308
15309 15310
15311 15312
15313 15314
15315 15316
15317 15318
15319 15320
15321 15322
15323 15324
15325 15326
15327 15328
15329 15330
15331 15332
15333 15334
15335 15336
15337 15338
15339 15340
15341 15342
15343 15344
15345 15346
15347 15348
15349 15350
15351 15352
15353 15354
15355 15356
15357 15358
15359 15360
15361 15362
15363 15364
15365 15366
15367 15368
15369 15370
15371 15372
15373 15374
15375 15376
15377 15378
15379 15380
15381 15382
15383 15384
15385 15386
15387 15388
15389 15390
15391 15392
15393 15394
15395 15396
15397 15398
15399 15400
15401 15402
15403 15404
15405 15406
15407 15408
15409 15410
15411 15412
15413 15414
15415 15416
15417 15418
15419 15420
15421 15422
15423 15424
15425 15426
15427 15428
15429 15430
15431 15432
15433 15434
15435 15436
15437 15438
15439 15440
15441 15442
15443 15444
15445 15446
15447 15448
15449 15450
15451 15452
15453 15454
15455 15456
15457 15458
15459 15460
15461 15462
15463 15464
15465 15466
15467 15468
15469 15470
15471 15472
15473 15474
15475 15476
15477 15478
15479 15480
15481 15482
15483 15484
15485 15486
15487 15488
15489 15490
15491 15492
15493 15494
15495 15496
15497 15498
15499 15500
15501 15502
15503 15504
15505 15506
15507 15508
15509 15510
15511 15512
15513 15514
15515 15516
15517 15518
15519 15520
15521 15522
15523 15524
15525 15526
15527 15528
15529 15530
15531 15532
15533 15534
15535 15536
15537 15538
15539 15540
15541 15542
15543 15544
15545 15546
15547 15548
15549 15550
15551 15552
15553 15554
15555 15556
15557 15558
15559 15560
15561 15562
15563 15564
15565 15566
15567 15568
15569 15570
15571 15572
15573 15574
15575 15576
15577 15578
15579 15580
15581 15582
15583 15584
15585 15586
15587 15588
15589 15590
15591 15592
15593 15594
15595 15596
15597 15598
15599 15600
15601 15602
15603 15604
15605 15606
15607 15608
15609 15610
15611 15612
15613 15614
15615 15616
15617 15618
15619 15620
15621 15622
15623 15624
15625 15626
15627 15628
15629 15630
15631 15632
15633 15634
15635 15636
15637 15638
15639 15640
15641 15642
15643 15644
15645 15646
15647 15648
15649 15650
15651 15652
15653 15654
15655 15656
15657 15658
15659 15660
15661 15662
15663 15664
15665 15666
15667 15668
15669 15670
15671 15672
15673 15674
15675 15676
15677 15678
15679 15680
15681 15682
15683 15684
15685 15686
15687 15688
15689 15690
15691 15692
15693 15694
15695 15696
15697 15698
15699 15700
15701 15702
15703 15704
15705 15706
15707 15708
15709 15710
15711 15712
15713 15714
15715 15716
15717 15718
15719 15720
15721 15722
15723 15724
15725 15726
15727 15728
15729 15730
15731 15732
15733 15734
15735 15736
15737 15738
15739 15740
15741 15742
15743 15744
15745 15746
15747 15748
15749 15750
15751 15752
15753 15754
15755 15756
15757 15758
15759 15760
15761 15762
15763 15764
15765 15766
15767 15768
15769 15770
15771 15772
15773 15774
15775 15776
15777 15778
15779 15780
15781 15782
15783 15784
15785 15786
15787 15788
15789 15790
15791 15792
15793 15794
15795 15796
15797 15798
15799 15800
15801 15802
15803 15804
15805 15806
15807 15808
15809 15810
15811 15812
15813 15814
15815 15816
15817 15818
15819 15820
15821 15822
15823 15824
15825 15826
15827 15828
15829 15830
15831 15832
15833 15834
15835 15836
15837 15838
15839 15840
15841 15842
15843 15844
15845 15846
15847 15848
15849 15850
15851 15852
15853 15854
15855 15856
15857 15858
15859 15860
15861 15862
15863 15864
15865 15866
15867 15868
15869 15870
15871 15872
15873 15874
15875 15876
15877 15878
15879 15880
15881 15882
15883 15884
15885 15886
15887 15888
15889 15890
15891 15892
15893 15894
15895 15896
15897 15898
15899 15900
15901 15902
15903 15904
15905 15906
15907 15908
15909 15910
15911 15912
15913 15914
15915 15916
15917 15918
15919 15920
15921 15922
15923 15924
15925 15926
15927 15928
15929 15930
15931 15932
15933 15934
15935 15936
15937 15938
15939 15940
15941 15942
15943 15944
15945 15946
15947 15948
15949 15950
15951 15952
15953 15954
15955 15956
15957 15958
15959 15960
15961 15962
15963 15964
15965 15966
15967 15968
15969 15970
15971 15972
15973 15974
15975 15976
15977 15978
15979 15980
15981 15982
15983 15984
15985 15986
15987 15988
15989 15990
15991 15992
15993 15994
15995 15996
15997 15998
15999 16000
16001 16002
16003 16004
16005 16006
16007 16008
16009 16010
16011 16012
16013 16014
16015 16016
16017 16018
16019 16020
16021 16022
16023 16024
16025 16026
16027 16028
16029 16030
16031 16032
16033 16034
16035 16036
16037 16038
16039 16040
16041 16042
16043 16044
16045 16046
16047 16048
16049 16050
16051 16052
16053 16054
16055 16056
16057 16058
16059 16060
16061 16062
16063 16064
16065 16066
16067 16068
16069 16070
16071 16072
16073 16074
16075 16076
16077 16078
16079 16080
16081 16082
16083 16084
16085 16086
16087 16088
16089 16090
16091 16092
16093 16094
16095 16096
16097 16098
16099 16100
16101 16102
16103 16104
16105 16106
16107 16108
16109 16110
16111 16112
16113 16114
16115 16116
16117 16118
16119 16120
16121 16122
16123 16124
16125 16126
16127 16128
16129 16130
16131 16132
16133 16134
16135 16136
16137 16138
16139 16140
16141 16142
16143 16144
16145 16146
16147 16148
16149 16150
16151 16152
16153 16154
16155 16156
16157 16158
16159 16160
16161 16162
16163 16164
16165 16166
16167 16168
16169 16170
16171 16172
16173 16174
16175 16176
16177 16178
16179 16180
16181 16182
16183 16184
16185 16186
16187 16188
16189 16190
16191 16192
16193 16194
16195 16196
16197 16198
16199 16200
16201 16202
16203 16204
16205 16206
16207 16208
16209 16210
16211 16212
16213 16214
16215 16216
16217 16218
16219 16220
16221 16222
16223 16224
16225 16226
16227 16228
16229 16230
16231 16232
16233 16234
16235 16236
16237 16238
16239 16240
16241 16242
16243 16244
16245 16246
16247 16248
16249 16250
16251 16252
16253 16254
16255 16256
16257 16258
16259 16260
16261 16262
16263 16264
16265 16266
16267 16268
16269 16270
16271 16272
16273 16274
16275 16276
16277 16278
16279 16280
16281 16282
16283 16284
16285 16286
16287 16288
16289 16290
16291 16292
16293 16294
16295 16296
16297 16298
16299 16300
16301 16302
16303 16304
16305 16306
16307 16308
16309 16310
16311 16312
16313 16314
16315 16316
16317 16318
16319 16320
16321 16322
16323 16324
16325 16326
16327 16328
16329 16330
16331 16332
16333 16334
16335 16336
16337 16338
16339 16340
16341 16342
16343 16344
16345 16346
16347 16348
16349 16350
16351 16352
16353 16354
16355 16356
16357 16358
16359 16360
16361 16362
16363 16364
16365 16366
16367 16368
16369 16370
16371 16372
16373 16374
16375 16376
16377 16378
16379 16380
16381 16382
16383 16384
16385 16386
16387 16388
16389 16390
16391 16392
16393 16394
16395 16396
16397 16398
16399 16400
16401 16402
16403 16404
16405 16406
16407 16408
16409 16410
16411 16412
16413 16414
16415 16416
16417 16418
16419 16420
16421 16422
16423 16424
16425 16426
16427 16428
16429 16430
16431 16432
16433 16434
16435 16436
16437 16438
16439 16440
16441 16442
16443 16444
16445 16446
16447 16448
16449 16450
16451 16452
16453 16454
16455 16456
16457 16458
16459 16460
16461 16462
16463 16464
16465 16466
16467 16468
16469 16470
16471 16472
16473 16474
16475 16476
16477 16478
16479 16480
16481 16482
16483 16484
16485 16486
16487 16488
16489 16490
16491 16492
16493 16494
16495 16496
16497 16498
16499 16500
16501 16502
16503 16504
16505 16506
16507 16508
16509 16510
16511 16512
16513 16514
16515 16516
16517 16518
16519 16520
16521 16522
16523 16524
16525 16526
16527 16528
16529 16530
16531 16532
16533 16534
16535 16536
16537 16538
16539 16540
16541 16542
16543 16544
16545 16546
16547 16548
16549 16550
16551 16552
16553 16554
16555 16556
16557 16558
16559 16560
16561 16562
16563 16564
16565 16566
16567 16568
16569 16570
16571 16572
16573 16574
16575 16576
16577 16578
16579 16580
16581 16582
16583 16584
16585 16586
16587 16588
16589 16590
16591 16592
16593 16594
16595 16596
16597 16598
16599 16600
16601 16602
16603 16604
16605 16606
16607 16608
16609 16610
16611 16612
16613 16614
16615 16616
16617 16618
16619 16620
16621 16622
16623 16624
16625 16626
16627 16628
16629 16630
16631 16632
16633 16634
16635 16636
16637 16638
16639 16640
16641 16642
16643 16644
16645 16646
16647 16648
16649 16650
16651 16652
16653 16654
16655 16656
16657 16658
16659 16660
16661 16662
16663 16664
16665 16666
16667 16668
16669 16670
16671 16672
16673 16674
16675 16676
16677 16678
16679 16680
16681 16682
16683 16684
16685 16686
16687 16688
16689 16690
16691 16692
16693 16694
16695 16696
16697 16698
16699 16700
16701 16702
16703 16704
16705 16706
16707 16708
16709 16710
16711 16712
16713 16714
16715 16716
16717 16718
16719 16720
16721 16722
16723 16724
16725 16726
16727 16728
16729 16730
16731 16732
16733 16734
16735 16736
16737 16738
16739 16740
16741 16742
16743 16744
16745 16746
16747 16748
16749 16750
16751 16752
16753 16754
16755 16756
16757 16758
16759 16760
16761 16762
16763 16764
16765 16766
16767 16768
16769 16770
16771 16772
16773 16774
16775 16776
16777 16778
16779 16780
16781 16782
16783 16784
16785 16786
16787 16788
16789 16790
16791 16792
16793 16794
16795 16796
16797 16798
16799 16800
16801 16802
16803 16804
16805 16806
16807 16808
16809 16810
16811 16812
16813 16814
16815 16816
16817 16818
16819 16820
16821 16822
16823 16824
16825 16826
16827 16828
16829 16830
16831 16832
16833 16834
16835 16836
16837 16838
16839 16840
16841 16842
16843 16844
16845 16846
16847 16848
16849 16850
16851 16852
16853 16854
16855 16856
16857 16858
16859 16860
16861 16862
16863 16864
16865 16866
16867 16868
16869 16870
16871 16872
16873 16874
16875 16876
16877 16878
16879 16880
16881 16882
16883 16884
16885 16886
16887 16888
16889 16890
16891 16892
16893 16894
16895 16896
16897 16898
16899 16900
16901 16902
16903 16904
16905 16906
16907 16908
16909 16910
16911 16912
16913 16914
16915 16916
16917 16918
16919 16920
16921 16922
16923 16924
16925 16926
16927 16928
16929 16930
16931 16932
16933 16934
16935 16936
16937 16938
16939 16940
16941 16942
16943 16944
16945 16946
16947 16948
16949 16950
16951 16952
16953 16954
16955 16956
16957 16958
16959 16960
16961 16962
16963 16964
16965 16966
16967 16968
16969 16970
16971 16972
16973 16974
16975 16976
16977 16978
16979 16980
16981 16982
16983 16984
16985 16986
16987 16988
16989 16990
16991 16992
16993 16994
16995 16996
16997 16998
16999 17000
17001 17002
17003 17004
17005 17006
17007 17008
17009 17010
17011 17012
17013 17014
17015 17016
17017 17018
17019 17020
17021 17022
17023 17024
17025 17026
17027 17028
17029 17030
17031 17032
17033 17034
17035 17036
17037 17038
17039 17040
17041 17042
17043 17044
17045 17046
17047 17048
17049 17050
17051 17052
17053 17054
17055 17056
17057 17058
17059 17060
17061 17062
17063 17064
17065 17066
17067 17068
17069 17070
17071 17072
17073 17074
17075 17076
17077 17078
17079 17080
17081 17082
17083 17084
17085 17086
17087 17088
17089 17090
17091 17092
17093 17094
17095 17096
17097 17098
17099 17100
17101 17102
17103 17104
17105 17106
17107 17108
17109 17110
17111 17112
17113 17114
17115 17116
17117 17118
17119 17120
17121 17122
17123 17124
17125 17126
17127 17128
17129 17130
17131 17132
17133 17134
17135 17136
17137 17138
17139 17140
17141 17142
17143 17144
17145 17146
17147 17148
17149 17150
17151 17152
17153 17154
17155 17156
17157 17158
17159 17160
17161 17162
17163 17164
17165 17166
17167 17168
17169 17170
17171 17172
17173 17174
17175 17176
17177 17178
17179 17180
17181 17182
17183 17184
17185 17186
17187 17188
17189 17190
17191 17192
17193 17194
17195 17196
17197 17198
17199 17200
17201 17202
17203 17204
17205 17206
17207 17208
17209 17210
17211 17212
17213 17214
17215 17216
17217 17218
17219 17220
17221 17222
17223 17224
17225 17226
17227 17228
17229 17230
17231 17232
17233 17234
17235 17236
17237 17238
17239 17240
17241 17242
17243 17244
17245 17246
17247 17248
17249 17250
17251 17252
17253 17254
17255 17256
17257 17258
17259 17260
17261 17262
17263 17264
17265 17266
17267 17268
17269 17270
17271 17272
17273 17274
17275 17276
17277 17278
17279 17280
17281 17282
17283 17284
17285 17286
17287 17288
17289 17290
17291 17292
17293 17294
17295 17296
17297 17298
17299 17300
17301 17302
17303 17304
17305 17306
17307 17308
17309 17310
17311 17312
17313 17314
17315 17316
17317 17318
17319 17320
17321 17322
17323 17324
17325 17326
17327 17328
17329 17330
17331 17332
17333 17334
17335 17336
17337 17338
17339 17340
17341 17342
17343 17344
17345 17346
17347 17348
17349 17350
17351 17352
17353 17354
17355 17356
17357 17358
17359 17360
17361 17362
17363 17364
17365 17366
17367 17368
17369 17370
17371 17372
17373 17374
17375 17376
17377 17378
17379 17380
17381 17382
17383 17384
17385 17386
17387 17388
17389 17390
17391 17392
17393 17394
17395 17396
17397 17398
17399 17400
17401 17402
17403 17404
17405 17406
17407 17408
17409 17410
17411 17412
17413 17414
17415 17416
17417 17418
17419 17420
17421 17422
17423 17424
17425 17426
17427 17428
17429 17430
17431 17432
17433 17434
17435 17436
17437 17438
17439 17440
17441 17442
17443 17444
17445 17446
17447 17448
17449 17450
17451 17452
17453 17454
17455 17456
17457 17458
17459 17460
17461 17462
17463 17464
17465 17466
17467 17468
17469 17470
17471 17472
17473 17474
17475 17476
17477 17478
17479 17480
17481 17482
17483 17484
17485 17486
17487 17488
17489 17490
17491 17492
17493 17494
17495 17496
17497 17498
17499 17500
17501 17502
17503 17504
17505 17506
17507 17508
17509 17510
17511 17512
17513 17514
17515 17516
17517 17518
17519 17520
17521 17522
17523 17524
17525 17526
17527 17528
17529 17530
17531 17532
17533 17534
17535 17536
17537 17538
17539 17540
17541 17542
17543 17544
17545 17546
17547 17548
17549 17550
17551 17552
17553 17554
17555 17556
17557 17558
17559 17560
17561 17562
17563 17564
17565 17566
17567 17568
17569 17570
17571 17572
17573 17574
17575 17576
17577 17578
17579 17580
17581 17582
17583 17584
17585 17586
17587 17588
17589 17590
17591 17592
17593 17594
17595 17596
17597 17598
17599 17600
17601 17602
17603 17604
17605 17606
17607 17608
17609 17610
17611 17612
17613 17614
17615 17616
17617 17618
17619 17620
17621 17622
17623 17624
17625 17626
17627 17628
17629 17630
17631 17632
17633 17634
17635 17636
17637 17638
17639 17640
17641 17642
17643 17644
17645 17646
17647 17648
17649 17650
17651 17652
17653 17654
17655 17656
17657 17658
17659 17660
17661 17662
17663 17664
17665 17666
17667 17668
17669 17670
17671 17672
17673 17674
17675 17676
17677 17678
17679 17680
17681 17682
17683 17684
17685 17686
17687 17688
17689 17690
17691 17692
17693 17694
17695 17696
17697 17698
17699 17700
17701 17702
17703 17704
17705 17706
17707 17708
17709 17710
17711 17712
17713 17714
17715 17716
17717 17718
17719 17720
17721 17722
17723 17724
17725 17726
17727 17728
17729 17730
17731 17732
17733 17734
17735 17736
17737 17738
17739 17740
17741 17742
17743 17744
17745 17746
17747 17748
17749 17750
17751 17752
17753 17754
17755 17756
17757 17758
17759 17760
17761 17762
17763 17764
17765 17766
17767 17768
17769 17770
17771 17772
17773 17774
17775 17776
17777 17778
17779 17780
17781 17782
17783 17784
17785 17786
17787 17788
17789 17790
17791 17792
17793 17794
17795 17796
17797 17798
17799 17800
17801 17802
17803 17804
17805 17806
17807 17808
17809 17810
17811 17812
17813 17814
17815 17816
17817 17818
17819 17820
17821 17822
17823 17824
17825 17826
17827 17828
17829 17830
17831 17832
17833 17834
17835 17836
17837 17838
17839 17840
17841 17842
17843 17844
17845 17846
17847 17848
17849 17850
17851 17852
17853 17854
17855 17856
17857 17858
17859 17860
17861 17862
17863 17864
17865 17866
17867 17868
17869 17870
17871 17872
17873 17874
17875 17876
17877 17878
17879 17880
17881 17882
17883 17884
17885 17886
17887 17888
17889 17890
17891 17892
17893 17894
17895 17896
17897 17898
17899 17900
17901 17902
17903 17904
17905 17906
17907 17908
17909 17910
17911 17912
17913 17914
17915 17916
17917 17918
17919 17920
17921 17922
17923 17924
17925 17926
17927 17928
17929 17930
17931 17932
17933 17934
17935 17936
17937 17938
17939 17940
17941 17942
17943 17944
17945 17946
17947 17948
17949 17950
17951 17952
17953 17954
17955 17956
17957 17958
17959 17960
17961 17962
17963 17964
17965 17966
17967 17968
17969 17970
17971 17972
17973 17974
17975 17976
17977 17978
17979 17980
17981 17982
17983 17984
17985 17986
17987 17988
17989 17990
17991 17992
17993 17994
17995 17996
17997 17998
17999 18000
18001 18002
18003 18004
18005 18006
18007 18008
18009 18010
18011 18012
18013 18014
18015 18016
18017 18018
18019 18020
18021 18022
18023 18024
18025 18026
18027 18028
18029 18030
18031 18032
18033 18034
18035 18036
18037 18038
18039 18040
18041 18042
18043 18044
18045 18046
18047 18048
18049 18050
18051 18052
18053 18054
18055 18056
18057 18058
18059 18060
18061 18062
18063 18064
18065 18066
18067 18068
18069 18070
18071 18072
18073 18074
18075 18076
18077 18078
18079 18080
18081 18082
18083 18084
18085 18086
18087 18088
18089 18090
18091 18092
18093 18094
18095 18096
18097 18098
18099 18100
18101 18102
18103 18104
18105 18106
18107 18108
18109 18110
18111 18112
18113 18114
18115 18116
18117 18118
18119 18120
18121 18122
18123 18124
18125 18126
18127 18128
18129 18130
18131 18132
18133 18134
18135 18136
18137 18138
18139 18140
18141 18142
18143 18144
18145 18146
18147 18148
18149 18150
18151 18152
18153 18154
18155 18156
18157 18158
18159 18160
18161 18162
18163 18164
18165 18166
18167 18168
18169 18170
18171 18172
18173 18174
18175 18176
18177 18178
18179 18180
18181 18182
18183 18184
18185 18186
18187 18188
18189 18190
18191 18192
18193 18194
18195 18196
18197 18198
18199 18200
18201 18202
18203 18204
18205 18206
18207 18208
18209 18210
18211 18212
18213 18214
18215 18216
18217 18218
18219 18220
18221 18222
18223 18224
18225 18226
18227 18228
18229 18230
18231 18232
18233 18234
18235 18236
18237 18238
18239 18240
18241 18242
18243 18244
18245 18246
18247 18248
18249 18250
18251 18252
18253 18254
18255 18256
18257 18258
18259 18260
18261 18262
18263 18264
18265 18266
18267 18268
18269 18270
18271 18272
18273 18274
18275 18276
18277 18278
18279 18280
18281 18282
18283 18284
18285 18286
18287 18288
18289 18290
18291 18292
18293 18294
18295 18296
18297 18298
18299 18300
18301 18302
18303 18304
18305 18306
18307 18308
18309 18310
18311 18312
18313 18314
18315 18316
18317 18318
18319 18320
18321 18322
18323 18324
18325 18326
18327 18328
18329 18330
18331 18332
18333 18334
18335 18336
18337 18338
18339 18340
18341 18342
18343 18344
18345 18346
18347 18348
18349 18350
18351 18352
18353 18354
18355 18356
18357 18358
18359 18360
18361 18362
18363 18364
18365 18366
18367 18368
18369 18370
18371 18372
18373 18374
18375 18376
18377 18378
18379 18380
18381 18382
18383 18384
18385 18386
18387 18388
18389 18390
18391 18392
18393 18394
18395 18396
18397 18398
18399 18400
18401 18402
18403 18404
18405 18406
18407 18408
18409 18410
18411 18412
18413 18414
18415 18416
18417 18418
18419 18420
18421 18422
18423 18424
18425 18426
18427 18428
18429 18430
18431 18432
18433 18434
18435 18436
18437 18438
18439 18440
18441 18442
18443 18444
18445 18446
18447 18448
18449 18450
18451 18452
18453 18454
18455 18456
18457 18458
18459 18460
18461 18462
18463 18464
18465 18466
18467 18468
18469 18470
18471 18472
18473 18474
18475 18476
18477 18478
18479 18480
18481 18482
18483 18484
18485 18486
18487 18488
18489 18490
18491 18492
18493 18494
18495 18496
18497 18498
18499 18500
18501 18502
18503 18504
18505 18506
18507 18508
18509 18510
18511 18512
18513 18514
18515 18516
18517 18518
18519 18520
18521 18522
18523 18524
18525 18526
18527 18528
18529 18530
18531 18532
18533 18534
18535 18536
18537 18538
18539 18540
18541 18542
18543 18544
18545 18546
18547 18548
18549 18550
18551 18552
18553 18554
18555 18556
18557 18558
18559 18560
18561 18562
18563 18564
18565 18566
18567 18568
18569 18570
18571 18572
18573 18574
18575 18576
18577 18578
18579 18580
18581 18582
18583 18584
18585 18586
18587 18588
18589 18590
18591 18592
18593 18594
18595 18596
18597 18598
18599 18600
18601 18602
18603 18604
18605 18606
18607 18608
18609 18610
18611 18612
18613 18614
18615 18616
18617 18618
18619 18620
18621 18622
18623 18624
18625 18626
18627 18628
18629 18630
18631 18632
18633 18634
18635 18636
18637 18638
18639 18640
18641 18642
18643 18644
18645 18646
18647 18648
18649 18650
18651 18652
18653 18654
18655 18656
18657 18658
18659 18660
18661 18662
18663 18664
18665 18666
18667 18668
18669 18670
18671 18672
18673 18674
18675 18676
18677 18678
18679 18680
18681 18682
18683 18684
18685 18686
18687 18688
18689 18690
18691 18692
18693 18694
18695 18696
18697 18698
18699 18700
18701 18702
18703 18704
18705 18706
18707 18708
18709 18710
18711 18712
18713 18714
18715 18716
18717 18718
18719 18720
18721 18722
18723 18724
18725 18726
18727 18728
18729 18730
18731 18732
18733 18734
18735 18736
18737 18738
18739 18740
18741 18742
18743 18744
18745 18746
18747 18748
18749 18750
18751 18752
18753 18754
18755 18756
18757 18758
18759 18760
18761 18762
18763 18764
18765 18766
18767 18768
18769 18770
18771 18772
18773 18774
18775 18776
18777 18778
18779 18780
18781 18782
18783 18784
18785 18786
18787 18788
18789 18790
18791 18792
18793 18794
18795 18796
18797 18798
18799 18800
18801 18802
18803 18804
18805 18806
18807 18808
18809 18810
18811 18812
18813 18814
18815 18816
18817 18818
18819 18820
18821 18822
18823 18824
18825 18826
18827 18828
18829 18830
18831 18832
18833 18834
18835 18836
18837 18838
18839 18840
18841 18842
18843 18844
18845 18846
18847 18848
18849 18850
18851 18852
18853 18854
18855 18856
18857 18858
18859 18860
18861 18862
18863 18864
18865 18866
18867 18868
18869 18870
18871 18872
18873 18874
18875 18876
18877 18878
18879 18880
18881 18882
18883 18884
18885 18886
18887 18888
18889 18890
18891 18892
18893 18894
18895 18896
18897 18898
18899 18900
18901 18902
18903 18904
18905 18906
18907 18908
18909 18910
18911 18912
18913 18914
18915 18916
18917 18918
18919 18920
18921 18922
18923 18924
18925 18926
18927 18928
18929 18930
18931 18932
18933 18934
18935 18936
18937 18938
18939 18940
18941 18942
18943 18944
18945 18946
18947 18948
18949 18950
18951 18952
18953 18954
18955 18956
18957 18958
18959 18960
18961 18962
18963 18964
18965 18966
18967 18968
18969 18970
18971 18972
18973 18974
18975 18976
18977 18978
18979 18980
18981 18982
18983 18984
18985 18986
18987 18988
18989 18990
18991 18992
18993 18994
18995 18996
18997 18998
18999 19000
19001 19002
19003 19004
19005 19006
19007 19008
19009 19010
19011 19012
19013 19014
19015 19016
19017 19018
19019 19020
19021 19022
19023 19024
19025 19026
19027 19028
19029 19030
19031 19032
19033 19034
19035 19036
19037 19038
19039 19040
19041 19042
19043 19044
19045 19046
19047 19048
19049 19050
19051 19052
19053 19054
19055 19056
19057 19058
19059 19060
19061 19062
19063 19064
19065 19066
19067 19068
19069 19070
19071 19072
19073 19074
19075 19076
19077 19078
19079 19080
19081 19082
19083 19084
19085 19086
19087 19088
19089 19090
19091 19092
19093 19094
19095 19096
19097 19098
19099 19100
19101 19102
19103 19104
19105 19106
19107 19108
19109 19110
19111 19112
19113 19114
19115 19116
19117 19118
19119 19120
19121 19122
19123 19124
19125 19126
19127 19128
19129 19130
19131 19132
19133 19134
19135 19136
19137 19138
19139 19140
19141 19142
19143 19144
19145 19146
19147 19148
19149 19150
19151 19152
19153 19154
19155 19156
19157 19158
19159 19160
19161 19162
19163 19164
19165 19166
19167 19168
19169 19170
19171 19172
19173 19174
19175 19176
19177 19178
19179 19180
19181 19182
19183 19184
19185 19186
19187 19188
19189 19190
19191 19192
19193 19194
19195 19196
19197 19198
19199 19200
19201 19202
19203 19204
19205 19206
19207 19208
19209 19210
19211 19212
19213 19214
19215 19216
19217 19218
19219 19220
19221 19222
19223 19224
19225 19226
19227 19228
19229 19230
19231 19232
19233 19234
19235 19236
19237 19238
19239 19240
19241 19242
19243 19244
19245 19246
19247 19248
19249 19250
19251 19252
19253 19254
19255 19256
19257 19258
19259 19260
19261 19262
19263 19264
19265 19266
19267 19268
19269 19270
19271 19272
19273 19274
19275 19276
19277 19278
19279 19280
19281 19282
19283 19284
19285 19286
19287 19288
19289 19290
19291 19292
19293 19294
19295 19296
19297 19298
19299 19300
19301 19302
19303 19304
19305 19306
19307 19308
19309 19310
19311 19312
19313 19314
19315 19316
19317 19318
19319 19320
19321 19322
19323 19324
19325 19326
19327 19328
19329 19330
19331 19332
19333 19334
19335 19336
19337 19338
19339 19340
19341 19342
19343 19344
19345 19346
19347 19348
19349 19350
19351 19352
19353 19354
19355 19356
19357 19358
19359 19360
19361 19362
19363 19364
19365 19366
19367 19368
19369 19370
19371 19372
19373 19374
19375 19376
19377 19378
19379 19380
19381 19382
19383 19384
19385 19386
19387 19388
19389 19390
19391 19392
19393 19394
19395 19396
19397 19398
19399 19400
19401 19402
19403 19404
19405 19406
19407 19408
19409 19410
19411 19412
19413 19414
19415 19416
19417 19418
19419 19420
19421 19422
19423 19424
19425 19426
19427 19428
19429 19430
19431 19432
19433 19434
19435 19436
19437 19438
19439 19440
19441 19442
19443 19444
19445 19446
19447 19448
19449 19450
19451 19452
19453 19454
19455 19456
19457 19458
19459 19460
19461 19462
19463 19464
19465 19466
19467 19468
19469 19470
19471 19472
19473 19474
19475 19476
19477 19478
19479 19480
19481 19482
19483 19484
19485 19486
19487 19488
19489 19490
19491 19492
19493 19494
19495 19496
19497 19498
19499 19500
19501 19502
19503 19504
19505 19506
19507 19508
19509 19510
19511 19512
19513 19514
19515 19516
19517 19518
19519 19520
19521 19522
19523 19524
19525 19526
19527 19528
19529 19530
19531 19532
19533 19534
19535 19536
19537 19538
19539 19540
19541 19542
19543 19544
19545 19546
19547 19548
19549 19550
19551 19552
19553 19554
19555 19556
19557 19558
19559 19560
19561 19562
19563 19564
19565 19566
19567 19568
19569 19570
19571 19572
19573 19574
19575 19576
19577 19578
19579 19580
19581 19582
19583 19584
19585 19586
19587 19588
19589 19590
19591 19592
19593 19594
19595 19596
19597 19598
19599 19600
19601 19602
19603 19604
19605 19606
19607 19608
19609 19610
19611 19612
19613 19614
19615 19616
19617 19618
19619 19620
19621 19622
19623 19624
19625 19626
19627 19628
19629 19630
19631 19632
19633 19634
19635 19636
19637 19638
19639 19640
19641 19642
19643 19644
19645 19646
19647 19648
19649 19650
19651 19652
19653 19654
19655 19656
19657 19658
19659 19660
19661 19662
19663 19664
19665 19666
19667 19668
19669 19670
19671 19672
19673 19674
19675 19676
19677 19678
19679 19680
19681 19682
19683 19684
19685 19686
19687 19688
19689 19690
19691 19692
19693 19694
19695 19696
19697 19698
19699 19700
19701 19702
19703 19704
19705 19706
19707 19708
19709 19710
19711 19712
19713 19714
19715 19716
19717 19718
19719 19720
19721 19722
19723 19724
19725 19726
19727 19728
19729 19730
19731 19732
19733 19734
19735 19736
19737 19738
19739 19740
19741 19742
19743 19744
19745 19746
19747 19748
19749 19750
19751 19752
19753 19754
19755 19756
19757 19758
19759 19760
19761 19762
19763 19764
19765 19766
19767 19768
19769 19770
19771 19772
19773 19774
19775 19776
19777 19778
19779 19780
19781 19782
19783 19784
19785 19786
19787 19788
19789 19790
19791 19792
19793 19794
19795 19796
19797 19798
19799 19800
19801 19802
19803 19804
19805 19806
19807 19808
19809 19810
19811 19812
19813 19814
19815 19816
19817 19818
19819 19820
19821 19822
19823 19824
19825 19826
19827 19828
19829 19830
19831 19832
19833 19834
19835 19836
19837 19838
19839 19840
19841 19842
19843 19844
19845 19846
19847 19848
19849 19850
19851 19852
19853 19854
19855 19856
19857 19858
19859 19860
19861 19862
19863 19864
19865 19866
19867 19868
19869 19870
19871 19872
19873 19874
19875 19876
19877 19878
19879 19880
19881 19882
19883 19884
19885 19886
19887 19888
19889 19890
19891 19892
19893 19894
19895 19896
19897 19898
19899 19900
19901 19902
19903 19904
19905 19906
19907 19908
19909 19910
19911 19912
19913 19914
19915 19916
19917 19918
19919 19920
19921 19922
19923 19924
19925 19926
19927 19928
19929 19930
19931 19932
19933 19934
19935 19936
19937 19938
19939 19940
19941 19942
19943 19944
19945 19946
19947 19948
19949 19950
19951 19952
19953 19954
19955 19956
19957 19958
19959 19960
19961 19962
19963 19964
19965 19966
19967 19968
19969 19970
19971 19972
19973 19974
19975 19976
19977 19978
19979 19980
19981 19982
19983 19984
19985 19986
19987 19988
19989 19990
19991 19992
19993 19994
19995 19996
19997 19998
19999 20000
20001 20002
20003 20004
20005 20006
20007 20008
20009 20010
20011 20012
20013 20014
20015 20016
20017 20018
20019 20020
20021 20022
20023 20024
20025 20026
20027 20028
20029 20030
20031 20032
20033 20034
20035 20036
20037 20038
20039 20040
20041 20042
20043 20044
20045 20046
20047 20048
20049 20050
20051 20052
20053 20054
20055 20056
20057 20058
20059 20060
20061 20062
20063 20064
20065 20066
20067 20068
20069 20070
20071 20072
20073 20074
20075 20076
20077 20078
20079 20080
20081 20082
20083 20084
20085 20086
20087 20088
20089 20090
20091 20092
20093 20094
20095 20096
20097 20098
20099 20100
20101 20102
20103 20104
20105 20106
20107 20108
20109 20110
20111 20112
20113 20114
20115 20116
20117 20118
20119 20120
20121 20122
20123 20124
20125 20126
20127 20128
20129 20130
20131 20132
20133 20134
20135 20136
20137 20138
20139 20140
20141 20142
20143 20144
20145 20146
20147 20148
20149 20150
20151 20152
20153 20154
20155 20156
20157 20158
20159 20160
20161 20162
20163 20164
20165 20166
20167 20168
20169 20170
20171 20172
20173 20174
20175 20176
20177 20178
20179 20180
20181 20182
20183 20184
20185 20186
20187 20188
20189 20190
20191 20192
20193 20194
20195 20196
20197 20198
20199 20200
20201 20202
20203 20204
20205 20206
20207 20208
20209 20210
20211 20212
20213 20214
20215 20216
20217 20218
20219 20220
20221 20222
20223 20224
20225 20226
20227 20228
20229 20230
20231 20232
20233 20234
20235 20236
20237 20238
20239 20240
20241 20242
20243 20244
20245 20246
20247 20248
20249 20250
20251 20252
20253 20254
20255 20256
20257 20258
20259 20260
20261 20262
20263 20264
20265 20266
20267 20268
20269 20270
20271 20272
20273 20274
20275 20276
20277 20278
20279 20280
20281 20282
20283 20284
20285 20286
20287 20288
20289 20290
20291 20292
20293 20294
20295 20296
20297 20298
20299 20300
20301 20302
20303 20304
20305 20306
20307 20308
20309 20310
20311 20312
20313 20314
20315 20316
20317 20318
20319 20320
20321 20322
20323 20324
20325 20326
20327 20328
20329 20330
20331 20332
20333 20334
20335 20336
20337 20338
20339 20340
20341 20342
20343 20344
20345 20346
20347 20348
20349 20350
20351 20352
20353 20354
20355 20356
20357 20358
20359 20360
20361 20362
20363 20364
20365 20366
20367 20368
20369 20370
20371 20372
20373 20374
20375 20376
20377 20378
20379 20380
20381 20382
20383 20384
20385 20386
20387 20388
20389 20390
20391 20392
20393 20394
20395 20396
20397 20398
20399 20400
20401 20402
20403 20404
20405 20406
20407 20408
20409 20410
20411 20412
20413 20414
20415 20416
20417 20418
20419 20420
20421 20422
20423 20424
20425 20426
20427 20428
20429 20430
20431 20432
20433 20434
20435 20436
20437 20438
20439 20440
20441 20442
20443 20444
20445 20446
20447 20448
20449 20450
20451 20452
20453 20454
20455 20456
20457 20458
20459 20460
20461 20462
20463 20464
20465 20466
20467 20468
20469 20470
20471 20472
20473 20474
20475 20476
20477 20478
20479 20480
20481 20482
20483 20484
20485 20486
20487 20488
20489 20490
20491 20492
20493 20494
20495 20496
20497 20498
20499 20500
20501 20502
20503 20504
20505 20506
20507 20508
20509 20510
20511 20512
20513 20514
20515 20516
20517 20518
20519 20520
20521 20522
20523 20524
20525 20526
20527 20528
20529 20530
20531 20532
20533 20534
20535 20536
20537 20538
20539 20540
20541 20542
20543 20544
20545 20546
20547 20548
20549 20550
20551 20552
20553 20554
20555 20556
20557 20558
20559 20560
20561 20562
20563 20564
20565 20566
20567 20568
20569 20570
20571 20572
20573 20574
20575 20576
20577 20578
20579 20580
20581 20582
20583 20584
20585 20586
20587 20588
20589 20590
20591 20592
20593 20594
20595 20596
20597 20598
20599 20600
20601 20602
20603 20604
20605 20606
20607 20608
20609 20610
20611 20612
20613 20614
20615 20616
20617 20618
20619 20620
20621 20622
20623 20624
20625 20626
20627 20628
20629 20630
20631 20632
20633 20634
20635 20636
20637 20638
20639 20640
20641 20642
20643 20644
20645 20646
20647 20648
20649 20650
20651 20652
20653 20654
20655 20656
20657 20658
20659 20660
20661 20662
20663 20664
20665 20666
20667 20668
20669 20670
20671 20672
20673 20674
20675 20676
20677 20678
20679 20680
20681 20682
20683 20684
20685 20686
20687 20688
20689 20690
20691 20692
20693 20694
20695 20696
20697 20698
20699 20700
20701 20702
20703 20704
20705 20706
20707 20708
20709 20710
20711 20712
20713 20714
20715 20716
20717 20718
20719 20720
20721 20722
20723 20724
20725 20726
20727 20728
20729 20730
20731 20732
20733 20734
20735 20736
20737 20738
20739 20740
20741 20742
20743 20744
20745 20746
20747 20748
20749 20750
20751 20752
20753 20754
20755 20756
20757 20758
20759 20760
20761 20762
20763 20764
20765 20766
20767 20768
20769 20770
20771 20772
20773 20774
20775 20776
20777 20778
20779 20780
20781 20782
20783 20784
20785 20786
20787 20788
20789 20790
20791 20792
20793 20794
20795 20796
20797 20798
20799 20800
20801 20802
20803 20804
20805 20806
20807 20808
20809 20810
20811 20812
20813 20814
20815 20816
20817 20818
20819 20820
20821 20822
20823 20824
20825 20826
20827 20828
20829 20830
20831 20832
20833 20834
20835 20836
20837 20838
20839 20840
20841 20842
20843 20844
20845 20846
20847 20848
20849 20850
20851 20852
20853 20854
20855 20856
20857 20858
20859 20860
20861 20862
20863 20864
20865 20866
20867 20868
20869 20870
20871 20872
20873 20874
20875 20876
20877 20878
20879 20880
20881 20882
20883 20884
20885 20886
20887 20888
20889 20890
20891 20892
20893 20894
20895 20896
20897 20898
20899 20900
20901 20902
20903 20904
20905 20906
20907 20908
20909 20910
20911 20912
20913 20914
20915 20916
20917 20918
20919 20920
20921 20922
20923 20924
20925 20926
20927 20928
20929 20930
20931 20932
20933 20934
20935 20936
20937 20938
20939 20940
20941 20942
20943 20944
20945 20946
20947 20948
20949 20950
20951 20952
20953 20954
20955 20956
20957 20958
20959 20960
20961 20962
20963 20964
20965 20966
20967 20968
20969 20970
20971 20972
20973 20974
20975 20976
20977 20978
20979 20980
20981 20982
20983 20984
20985 20986
20987 20988
20989 20990
20991 20992
20993 20994
20995 20996
20997 20998
20999 21000
21001 21002
21003 21004
21005 21006
21007 21008
21009 21010
21011 21012
21013 21014
21015 21016
21017 21018
21019 21020
21021 21022
21023 21024
21025 21026
21027 21028
21029 21030
21031 21032
21033 21034
21035 21036
21037 21038
21039 21040
21041 21042
21043 21044
21045 21046
21047 21048
21049 21050
21051 21052
21053 21054
21055 21056
21057 21058
21059 21060
21061 21062
21063 21064
21065 21066
21067 21068
21069 21070
21071 21072
21073 21074
21075 21076
21077 21078
21079 21080
21081 21082
21083 21084
21085 21086
21087 21088
21089 21090
21091 21092
21093 21094
21095 21096
21097 21098
21099 21100
21101 21102
21103 21104
21105 21106
21107 21108
21109 21110
21111 21112
21113 21114
21115 21116
21117 21118
21119 21120
21121 21122
21123 21124
21125 21126
21127 21128
21129 21130
21131 21132
21133 21134
21135 21136
21137 21138
21139 21140
21141 21142
21143 21144
21145 21146
21147 21148
21149 21150
21151 21152
21153 21154
21155 21156
21157 21158
21159 21160
21161 21162
21163 21164
21165 21166
21167 21168
21169 21170
21171 21172
21173 21174
21175 21176
21177 21178
21179 21180
21181 21182
21183 21184
21185 21186
21187 21188
21189 21190
21191 21192
21193 21194
21195 21196
21197 21198
21199 21200
21201 21202
21203 21204
21205 21206
21207 21208
21209 21210
21211 21212
21213 21214
21215 21216
21217 21218
21219 21220
21221 21222
21223 21224
21225 21226
21227 21228
21229 21230
21231 21232
21233 21234
21235 21236
21237 21238
21239 21240
21241 21242
21243 21244
21245 21246
21247 21248
21249 21250
21251 21252
21253 21254
21255 21256
21257 21258
21259 21260
21261 21262
21263 21264
21265 21266
21267 21268
21269 21270
21271 21272
21273 21274
21275 21276
21277 21278
21279 21280
21281 21282
21283 21284
21285 21286
21287 21288
21289 21290
21291 21292
21293 21294
21295 21296
21297 21298
21299 21300
21301 21302
21303 21304
21305 21306
21307 21308
21309 21310
21311 21312
21313 21314
21315 21316
21317 21318
21319 21320
21321 21322
21323 21324
21325 21326
21327 21328
21329 21330
21331 21332
21333 21334
21335 21336
21337 21338
21339 21340
21341 21342
21343 21344
21345 21346
21347 21348
21349 21350
21351 21352
21353 21354
21355 21356
21357 21358
21359 21360
21361 21362
21363 21364
21365 21366
21367 21368
21369 21370
21371 21372
21373 21374
21375 21376
21377 21378
21379 21380
21381 21382
21383 21384
21385 21386
21387 21388
21389 21390
21391 21392
21393 21394
21395 21396
21397 21398
21399 21400
21401 21402
21403 21404
21405 21406
21407 21408
21409 21410
21411 21412
21413 21414
21415 21416
21417 21418
21419 21420
21421 21422
21423 21424
21425 21426
21427 21428
21429 21430
21431 21432
21433 21434
21435 21436
21437 21438
21439 21440
21441 21442
21443 21444
21445 21446
21447 21448
21449 21450
21451 21452
21453 21454
21455 21456
21457 21458
21459 21460
21461 21462
21463 21464
21465 21466
21467 21468
21469 21470
21471 21472
21473 21474
21475 21476
21477 21478
21479 21480
21481 21482
21483 21484
21485 21486
21487 21488
21489 21490
21491 21492
21493 21494
21495 21496
21497 21498
21499 21500
21501 21502
21503 21504
21505 21506
21507 21508
21509 21510
21511 21512
21513 21514
21515 21516
21517 21518
21519 21520
21521 21522
21523 21524
21525 21526
21527 21528
21529 21530
21531 21532
21533 21534
21535 21536
21537 21538
21539 21540
21541 21542
21543 21544
21545 21546
21547 21548
21549 21550
21551 21552
21553 21554
21555 21556
21557 21558
21559 21560
21561 21562
21563 21564
21565 21566
21567 21568
21569 21570
21571 21572
21573 21574
21575 21576
21577 21578
21579 21580
21581 21582
21583 21584
21585 21586
21587 21588
21589 21590
21591 21592
21593 21594
21595 21596
21597 21598
21599 21600
21601 21602
21603 21604
21605 21606
21607 21608
21609 21610
21611 21612
21613 21614
21615 21616
21617 21618
21619 21620
21621 21622
21623 21624
21625 21626
21627 21628
21629 21630
21631 21632
21633 21634
21635 21636
21637 21638
21639 21640
21641 21642
21643 21644
21645 21646
21647 21648
21649 21650
21651 21652
21653 21654
21655 21656
21657 21658
21659 21660
21661 21662
21663 21664
21665 21666
21667 21668
21669 21670
21671 21672
21673 21674
21675 21676
21677 21678
21679 21680
21681 21682
21683 21684
21685 21686
21687 21688
21689 21690
21691 21692
21693 21694
21695 21696
21697 21698
21699 21700
21701 21702
21703 21704
21705 21706
21707 21708
21709 21710
21711 21712
21713 21714
21715 21716
21717 21718
21719 21720
21721 21722
21723 21724
21725 21726
21727 21728
21729 21730
21731 21732
21733 21734
21735 21736
21737 21738
21739 21740
21741 21742
21743 21744
21745 21746
21747 21748
21749 21750
21751 21752
21753 21754
21755 21756
21757 21758
21759 21760
21761 21762
21763 21764
21765 21766
21767 21768
21769 21770
21771 21772
21773 21774
21775 21776
21777 21778
21779 21780
21781 21782
21783 21784
21785 21786
21787 21788
21789 21790
21791 21792
21793 21794
21795 21796
21797 21798
21799 21800
21801 21802
21803 21804
21805 21806
21807 21808
21809 21810
21811 21812
21813 21814
21815 21816
21817 21818
21819 21820
21821 21822
21823 21824
21825 21826
21827 21828
21829 21830
21831 21832
21833 21834
21835 21836
21837 21838
21839 21840
21841 21842
21843 21844
21845 21846
21847 21848
21849 21850
21851 21852
21853 21854
21855 21856
21857 21858
21859 21860
21861 21862
21863 21864
21865 21866
21867 21868
21869 21870
21871 21872
21873 21874
21875 21876
21877 21878
21879 21880
21881 21882
21883 21884
21885 21886
21887 21888
21889 21890
21891 21892
21893 21894
21895 21896
21897 21898
21899 21900
21901 21902
21903 21904
21905 21906
21907 21908
21909 21910
21911 21912
21913 21914
21915 21916
21917 21918
21919 21920
21921 21922
21923 21924
21925 21926
21927 21928
21929 21930
21931 21932
21933 21934
21935 21936
21937 21938
21939 21940
21941 21942
21943 21944
21945 21946
21947 21948
21949 21950
21951 21952
21953 21954
21955 21956
21957 21958
21959 21960
21961 21962
21963 21964
21965 21966
21967 21968
21969 21970
21971 21972
21973 21974
21975 21976
21977 21978
21979 21980
21981 21982
21983 21984
21985 21986
21987 21988
21989 21990
21991 21992
21993 21994
21995 21996
21997 21998
21999 22000
22001 22002
22003 22004
22005 22006
22007 22008
22009 22010
22011 22012
22013 22014
22015 22016
22017 22018
22019 22020
22021 22022
22023 22024
22025 22026
22027 22028
22029 22030
22031 22032
22033 22034
22035 22036
22037 22038
22039 22040
22041 22042
22043 22044
22045 22046
22047 22048
22049 22050
22051 22052
22053 22054
22055 22056
22057 22058
22059 22060
22061 22062
22063 22064
22065 22066
22067 22068
22069 22070
22071 22072
22073 22074
22075 22076
22077 22078
22079 22080
22081 22082
22083 22084
22085 22086
22087 22088
22089 22090
22091 22092
22093 22094
22095 22096
22097 22098
22099 22100
22101 22102
22103 22104
22105 22106
22107 22108
22109 22110
22111 22112
22113 22114
22115 22116
22117 22118
22119 22120
22121 22122
22123 22124
22125 22126
22127 22128
22129 22130
22131 22132
22133 22134
22135 22136
22137 22138
22139 22140
22141 22142
22143 22144
22145 22146
22147 22148
22149 22150
22151 22152
22153 22154
22155 22156
22157 22158
22159 22160
22161 22162
22163 22164
22165 22166
22167 22168
22169 22170
22171 22172
22173 22174
22175 22176
22177 22178
22179 22180
22181 22182
22183 22184
22185 22186
22187 22188
22189 22190
22191 22192
22193 22194
22195 22196
22197 22198
22199 22200
22201 22202
22203 22204
22205 22206
22207 22208
22209 22210
22211 22212
22213 22214
22215 22216
22217 22218
22219 22220
22221 22222
22223 22224
22225 22226
22227 22228
22229 22230
22231 22232
22233 22234
22235 22236
22237 22238
22239 22240
22241 22242
22243 22244
22245 22246
22247 22248
22249 22250
22251 22252
22253 22254
22255 22256
22257 22258
22259 22260
22261 22262
22263 22264
22265 22266
22267 22268
22269 22270
22271 22272
22273 22274
22275 22276
22277 22278
22279 22280
22281 22282
22283 22284
22285 22286
22287 22288
22289 22290
22291 22292
22293 22294
22295 22296
22297 22298
22299 22300
22301 22302
22303 22304
22305 22306
22307 22308
22309 22310
22311 22312
22313 22314
22315 22316
22317 22318
22319 22320
22321 22322
22323 22324
22325 22326
22327 22328
22329 22330
22331 22332
22333 22334
22335 22336
22337 22338
22339 22340
22341 22342
22343 22344
22345 22346
22347 22348
22349 22350
22351 22352
22353 22354
22355 22356
22357 22358
22359 22360
22361 22362
22363 22364
22365 22366
22367 22368
22369 22370
22371 22372
22373 22374
22375 22376
22377 22378
22379 22380
22381 22382
22383 22384
22385 22386
22387 22388
22389 22390
22391 22392
22393 22394
22395 22396
22397 22398
22399 22400
22401 22402
22403 22404
22405 22406
22407 22408
22409 22410
22411 22412
22413 22414
22415 22416
22417 22418
22419 22420
22421 22422
22423 22424
22425 22426
22427 22428
22429 22430
22431 22432
22433 22434
22435 22436
22437 22438
22439 22440
22441 22442
22443 22444
22445 22446
22447 22448
22449 22450
22451 22452
22453 22454
22455 22456
22457 22458
22459 22460
22461 22462
22463 22464
22465 22466
22467 22468
22469 22470
22471 22472
22473 22474
22475 22476
22477 22478
22479 22480
22481 22482
22483 22484
22485 22486
22487 22488
22489 22490
22491 22492
22493 22494
22495 22496
22497 22498
22499 22500
22501 22502
22503 22504
22505 22506
22507 22508
22509 22510
22511 22512
22513 22514
22515 22516
22517 22518
22519 22520
22521 22522
22523 22524
22525 22526
22527 22528
22529 22530
22531 22532
22533 22534
22535 22536
22537 22538
22539 22540
22541 22542
22543 22544
22545 22546
22547 22548
22549 22550
22551 22552
22553 22554
22555 22556
22557 22558
22559 22560
22561 22562
22563 22564
22565 22566
22567 22568
22569 22570
22571 22572
22573 22574
22575 22576
22577 22578
22579 22580
22581 22582
22583 22584
22585 22586
22587 22588
22589 22590
22591 22592
22593 22594
22595 22596
22597 22598
22599 22600
22601 22602
22603 22604
22605 22606
22607 22608
22609 22610
22611 22612
22613 22614
22615 22616
22617 22618
22619 22620
22621 22622
22623 22624
22625 22626
22627 22628
22629 22630
22631 22632
22633 22634
22635 22636
22637 22638
22639 22640
22641 22642
22643 22644
22645 22646
22647 22648
22649 22650
22651 22652
22653 22654
22655 22656
22657 22658
22659 22660
22661 22662
22663 22664
22665 22666
22667 22668
22669 22670
22671 22672
22673 22674
22675 22676
22677 22678
22679 22680
22681 22682
22683 22684
22685 22686
22687 22688
22689 22690
22691 22692
22693 22694
22695 22696
22697 22698
22699 22700
22701 22702
22703 22704
22705 22706
22707 22708
22709 22710
22711 22712
22713 22714
22715 22716
22717 22718
22719 22720
22721 22722
22723 22724
22725 22726
22727 22728
22729 22730
22731 22732
22733 22734
22735 22736
22737 22738
22739 22740
22741 22742
22743 22744
22745 22746
22747 22748
22749 22750
22751 22752
22753 22754
22755 22756
22757 22758
22759 22760
22761 22762
22763 22764
22765 22766
22767 22768
22769 22770
22771 22772
22773 22774
22775 22776
22777 22778
22779 22780
22781 22782
22783 22784
22785 22786
22787 22788
22789 22790
22791 22792
22793 22794
22795 22796
22797 22798
22799 22800
22801 22802
22803 22804
22805 22806
22807 22808
22809 22810
22811 22812
22813 22814
22815 22816
22817 22818
22819 22820
22821 22822
22823 22824
22825 22826
22827 22828
22829 22830
22831 22832
22833 22834
22835 22836
22837 22838
22839 22840
22841 22842
22843 22844
22845 22846
22847 22848
22849 22850
22851 22852
22853 22854
22855 22856
22857 22858
22859 22860
22861 22862
22863 22864
22865 22866
22867 22868
22869 22870
22871 22872
22873 22874
22875 22876
22877 22878
22879 22880
22881 22882
22883 22884
22885 22886
22887 22888
22889 22890
22891 22892
22893 22894
22895 22896
22897 22898
22899 22900
22901 22902
22903 22904
22905 22906
22907 22908
22909 22910
22911 22912
22913 22914
22915 22916
22917 22918
22919 22920
22921 22922
22923 22924
22925 22926
22927 22928
22929 22930
22931 22932
22933 22934
22935 22936
22937 22938
22939 22940
22941 22942
22943 22944
22945 22946
22947 22948
22949 22950
22951 22952
22953 22954
22955 22956
22957 22958
22959 22960
22961 22962
22963 22964
22965 22966
22967 22968
22969 22970
22971 22972
22973 22974
22975 22976
22977 22978
22979 22980
22981 22982
22983 22984
22985 22986
22987 22988
22989 22990
22991 22992
22993 22994
22995 22996
22997 22998
22999 23000
23001 23002
23003 23004
23005 23006
23007 23008
23009 23010
23011 23012
23013 23014
23015 23016
23017 23018
23019 23020
23021 23022
23023 23024
23025 23026
23027 23028
23029 23030
23031 23032
23033 23034
23035 23036
23037 23038
23039 23040
23041 23042
23043 23044
23045 23046
23047 23048
23049 23050
23051 23052
23053 23054
23055 23056
23057 23058
23059 23060
23061 23062
23063 23064
23065 23066
23067 23068
23069 23070
23071 23072
23073 23074
23075 23076
23077 23078
23079 23080
23081 23082
23083 23084
23085 23086
23087 23088
23089 23090
23091 23092
23093 23094
23095 23096
23097 23098
23099 23100
23101 23102
23103 23104
23105 23106
23107 23108
23109 23110
23111 23112
23113 23114
23115 23116
23117 23118
23119 23120
23121 23122
23123 23124
23125 23126
23127 23128
23129 23130
23131 23132
23133 23134
23135 23136
23137 23138
23139 23140
23141 23142
23143 23144
23145 23146
23147 23148
23149 23150
23151 23152
23153 23154
23155 23156
23157 23158
23159 23160
23161 23162
23163 23164
23165 23166
23167 23168
23169 23170
23171 23172
23173 23174
23175 23176
23177 23178
23179 23180
23181 23182
23183 23184
23185 23186
23187 23188
23189 23190
23191 23192
23193 23194
23195 23196
23197 23198
23199 23200
23201 23202
23203 23204
23205 23206
23207 23208
23209 23210
23211 23212
23213 23214
23215 23216
23217 23218
23219 23220
23221 23222
23223 23224
23225 23226
23227 23228
23229 23230
23231 23232
23233 23234
23235 23236
23237 23238
23239 23240
23241 23242
23243 23244
23245 23246
23247 23248
23249 23250
23251 23252
23253 23254
23255 23256
23257 23258
23259 23260
23261 23262
23263 23264
23265 23266
23267 23268
23269 23270
23271 23272
23273 23274
23275 23276
23277 23278
23279 23280
23281 23282
23283 23284
23285 23286
23287 23288
23289 23290
23291 23292
23293 23294
23295 23296
23297 23298
23299 23300
23301 23302
23303 23304
23305 23306
23307 23308
23309 23310
23311 23312
23313 23314
23315 23316
23317 23318
23319 23320
23321 23322
23323 23324
23325 23326
23327 23328
23329 23330
23331 23332
23333 23334
23335 23336
23337 23338
23339 23340
23341 23342
23343 23344
23345 23346
23347 23348
23349 23350
23351 23352
23353 23354
23355 23356
23357 23358
23359 23360
23361 23362
23363 23364
23365 23366
23367 23368
23369 23370
23371 23372
23373 23374
23375 23376
23377 23378
23379 23380
23381 23382
23383 23384
23385 23386
23387 23388
23389 23390
23391 23392
23393 23394
23395 23396
23397 23398
23399 23400
23401 23402
23403 23404
23405 23406
23407 23408
23409 23410
23411 23412
23413 23414
23415 23416
23417 23418
23419 23420
23421 23422
23423 23424
23425 23426
23427 23428
23429 23430
23431 23432
23433 23434
23435 23436
23437 23438
23439 23440
23441 23442
23443 23444
23445 23446
23447 23448
23449 23450
23451 23452
23453 23454
23455 23456
23457 23458
23459 23460
23461 23462
23463 23464
23465 23466
23467 23468
23469 23470
23471 23472
23473 23474
23475 23476
23477 23478
23479 23480
23481 23482
23483 23484
23485 23486
23487 23488
23489 23490
23491 23492
23493 23494
23495 23496
23497 23498
23499 23500
23501 23502
23503 23504
23505 23506
23507 23508
23509 23510
23511 23512
23513 23514
23515 23516
23517 23518
23519 23520
23521 23522
23523 23524
23525 23526
23527 23528
23529 23530
23531 23532
23533 23534
23535 23536
23537 23538
23539 23540
23541 23542
23543 23544
23545 23546
23547 23548
23549 23550
23551 23552
23553 23554
23555 23556
23557 23558
23559 23560
23561 23562
23563 23564
23565 23566
23567 23568
23569 23570
23571 23572
23573 23574
23575 23576
23577 23578
23579 23580
23581 23582
23583 23584
23585 23586
23587 23588
23589 23590
23591 23592
23593 23594
23595 23596
23597 23598
23599 23600
23601 23602
23603 23604
23605 23606
23607 23608
23609 23610
23611 23612
23613 23614
23615 23616
23617 23618
23619 23620
23621 23622
23623 23624
23625 23626
23627 23628
23629 23630
23631 23632
23633 23634
23635 23636
23637 23638
23639 23640
23641 23642
23643 23644
23645 23646
23647 23648
23649 23650
23651 23652
23653 23654
23655 23656
23657 23658
23659 23660
23661 23662
23663 23664
23665 23666
23667 23668
23669 23670
23671 23672
23673 23674
23675 23676
23677 23678
23679 23680
23681 23682
23683 23684
23685 23686
23687 23688
23689 23690
23691 23692
23693 23694
23695 23696
23697 23698
23699 23700
23701 23702
23703 23704
23705 23706
23707 23708
23709 23710
23711 23712
23713 23714
23715 23716
23717 23718
23719 23720
23721 23722
23723 23724
23725 23726
23727 23728
23729 23730
23731 23732
23733 23734
23735 23736
23737 23738
23739 23740
23741 23742
23743 23744
23745 23746
23747 23748
23749 23750
23751 23752
23753 23754
23755 23756
23757 23758
23759 23760
23761 23762
23763 23764
23765 23766
23767 23768
23769 23770
23771 23772
23773 23774
23775 23776
23777 23778
23779 23780
23781 23782
23783 23784
23785 23786
23787 23788
23789 23790
23791 23792
23793 23794
23795 23796
23797 23798
23799 23800
23801 23802
23803 23804
23805 23806
23807 23808
23809 23810
23811 23812
23813 23814
23815 23816
23817 23818
23819 23820
23821 23822
23823 23824
23825 23826
23827 23828
23829 23830
23831 23832
23833 23834
23835 23836
23837 23838
23839 23840
23841 23842
23843 23844
23845 23846
23847 23848
23849 23850
23851 23852
23853 23854
23855 23856
23857 23858
23859 23860
23861 23862
23863 23864
23865 23866
23867 23868
23869 23870
23871 23872
23873 23874
23875 23876
23877 23878
23879 23880
23881 23882
23883 23884
23885 23886
23887 23888
23889 23890
23891 23892
23893 23894
23895 23896
23897 23898
23899 23900
23901 23902
23903 23904
23905 23906
23907 23908
23909 23910
23911 23912
23913 23914
23915 23916
23917 23918
23919 23920
23921 23922
23923 23924
23925 23926
23927 23928
23929 23930
23931 23932
23933 23934
23935 23936
23937 23938
23939 23940
23941 23942
23943 23944
23945 23946
23947 23948
23949 23950
23951 23952
23953 23954
23955 23956
23957 23958
23959 23960
23961 23962
23963 23964
23965 23966
23967 23968
23969 23970
23971 23972
23973 23974
23975 23976
23977 23978
23979 23980
23981 23982
23983 23984
23985 23986
23987 23988
23989 23990
23991 23992
23993 23994
23995 23996
23997 23998
23999 24000
24001 24002
24003 24004
24005 24006
24007 24008
24009 24010
24011 24012
24013 24014
24015 24016
24017 24018
24019 24020
24021 24022
24023 24024
24025 24026
24027 24028
24029 24030
24031 24032
24033 24034
24035 24036
24037 24038
24039 24040
24041 24042
24043 24044
24045 24046
24047 24048
24049 24050
24051 24052
24053 24054
24055 24056
24057 24058
24059 24060
24061 24062
24063 24064
24065 24066
24067 24068
24069 24070
24071 24072
24073 24074
24075 24076
24077 24078
24079 24080
24081 24082
24083 24084
24085 24086
24087 24088
24089 24090
24091 24092
24093 24094
24095 24096
24097 24098
24099 24100
24101 24102
24103 24104
24105 24106
24107 24108
24109 24110
24111 24112
24113 24114
24115 24116
24117 24118
24119 24120
24121 24122
24123 24124
24125 24126
24127 24128
24129 24130
24131 24132
24133 24134
24135 24136
24137 24138
24139 24140
24141 24142
24143 24144
24145 24146
24147 24148
24149 24150
24151 24152
24153 24154
24155 24156
24157 24158
24159 24160
24161 24162
24163 24164
24165 24166
24167 24168
24169 24170
24171 24172
24173 24174
24175 24176
24177 24178
24179 24180
24181 24182
24183 24184
24185 24186
24187 24188
24189 24190
24191 24192
24193 24194
24195 24196
24197 24198
24199 24200
24201 24202
24203 24204
24205 24206
24207 24208
24209 24210
24211 24212
24213 24214
24215 24216
24217 24218
24219 24220
24221 24222
24223 24224
24225 24226
24227 24228
24229 24230
24231 24232
24233 24234
24235 24236
24237 24238
24239 24240
24241 24242
24243 24244
24245 24246
24247 24248
24249 24250
24251 24252
24253 24254
24255 24256
24257 24258
24259 24260
24261 24262
24263 24264
24265 24266
24267 24268
24269 24270
24271 24272
24273 24274
24275 24276
24277 24278
24279 24280
24281 24282
24283 24284
24285 24286
24287 24288
24289 24290
24291 24292
24293 24294
24295 24296
24297 24298
24299 24300
24301 24302
24303 24304
24305 24306
24307 24308
24309 24310
24311 24312
24313 24314
24315 24316
24317 24318
24319 24320
24321 24322
24323 24324
24325 24326
24327 24328
24329 24330
24331 24332
24333 24334
24335 24336
24337 24338
24339 24340
24341 24342
24343 24344
24345 24346
24347 24348
24349 24350
24351 24352
24353 24354
24355 24356
24357 24358
24359 24360
24361 24362
24363 24364
24365 24366
24367 24368
24369 24370
24371 24372
24373 24374
24375 24376
24377 24378
24379 24380
24381 24382
24383 24384
24385 24386
24387 24388
24389 24390
24391 24392
24393 24394
24395 24396
24397 24398
24399 24400
24401 24402
24403 24404
24405 24406
24407 24408
24409 24410
24411 24412
24413 24414
24415 24416
24417 24418
24419 24420
24421 24422
24423 24424
24425 24426
24427 24428
24429 24430
24431 24432
24433 24434
24435 24436
24437 24438
24439 24440
24441 24442
24443 24444
24445 24446
24447 24448
24449 24450
24451 24452
24453 24454
24455 24456
24457 24458
24459 24460
24461 24462
24463 24464
24465 24466
24467 24468
24469 24470
24471 24472
24473 24474
24475 24476
24477 24478
24479 24480
24481 24482
24483 24484
24485 24486
24487 24488
24489 24490
24491 24492
24493 24494
24495 24496
24497 24498
24499 24500
24501 24502
24503 24504
24505 24506
24507 24508
24509 24510
24511 24512
24513 24514
24515 24516
24517 24518
24519 24520
24521 24522
24523 24524
24525 24526
24527 24528
24529 24530
24531 24532
24533 24534
24535 24536
24537 24538
24539 24540
24541 24542
24543 24544
24545 24546
24547 24548
24549 24550
24551 24552
24553 24554
24555 24556
24557 24558
24559 24560
24561 24562
24563 24564
24565 24566
24567 24568
24569 24570
24571 24572
24573 24574
24575 24576
24577 24578
24579 24580
24581 24582
24583 24584
24585 24586
24587 24588
24589 24590
24591 24592
24593 24594
24595 24596
24597 24598
24599 24600
24601 24602
24603 24604
24605 24606
24607 24608
24609 24610
24611 24612
24613 24614
24615 24616
24617 24618
24619 24620
24621 24622
24623 24624
24625 24626
24627 24628
24629 24630
24631 24632
24633 24634
24635 24636
24637 24638
24639 24640
24641 24642
24643 24644
24645 24646
24647 24648
24649 24650
24651 24652
24653 24654
24655 24656
24657 24658
24659 24660
24661 24662
24663 24664
24665 24666
24667 24668
24669 24670
24671 24672
24673 24674
24675 24676
24677 24678
24679 24680
24681 24682
24683 24684
24685 24686
24687 24688
24689 24690
24691 24692
24693 24694
24695 24696
24697 24698
24699 24700
24701 24702
24703 24704
24705 24706
24707 24708
24709 24710
24711 24712
24713 24714
24715 24716
24717 24718
24719 24720
24721 24722
24723 24724
24725 24726
24727 24728
24729 24730
24731 24732
24733 24734
24735 24736
24737 24738
24739 24740
24741 24742
24743 24744
24745 24746
24747 24748
24749 24750
24751 24752
24753 24754
24755 24756
24757 24758
24759 24760
24761 24762
24763 24764
24765 24766
24767 24768
24769 24770
24771 24772
24773 24774
24775 24776
24777 24778
24779 24780
24781 24782
24783 24784
24785 24786
24787 24788
24789 24790
24791 24792
24793 24794
24795 24796
24797 24798
24799 24800
24801 24802
24803 24804
24805 24806
24807 24808
24809 24810
24811 24812
24813 24814
24815 24816
24817 24818
24819 24820
24821 24822
24823 24824
24825 24826
24827 24828
24829 24830
24831 24832
24833 24834
24835 24836
24837 24838
24839 24840
24841 24842
24843 24844
24845 24846
24847 24848
24849 24850
24851 24852
24853 24854
24855 24856
24857 24858
24859 24860
24861 24862
24863 24864
24865 24866
24867 24868
24869 24870
24871 24872
24873 24874
24875 24876
24877 24878
24879 24880
24881 24882
24883 24884
24885 24886
24887 24888
24889 24890
24891 24892
24893 24894
24895 24896
24897 24898
24899 24900
24901 24902
24903 24904
24905 24906
24907 24908
24909 24910
24911 24912
24913 24914
24915 24916
24917 24918
24919 24920
24921 24922
24923 24924
24925 24926
24927 24928
24929 24930
24931 24932
24933 24934
24935 24936
24937 24938
24939 24940
24941 24942
24943 24944
24945 24946
24947 24948
24949 24950
24951 24952
24953 24954
24955 24956
24957 24958
24959 24960
24961 24962
24963 24964
24965 24966
24967 24968
24969 24970
24971 24972
24973 24974
24975 24976
24977 24978
24979 24980
24981 24982
24983 24984
24985 24986
24987 24988
24989 24990
24991 24992
24993 24994
24995 24996
24997 24998
24999 25000
25001 25002
25003 25004
25005 25006
25007 25008
25009 25010
25011 25012
25013 25014
25015 25016
25017 25018
25019 25020
25021 25022
25023 25024
25025 25026
25027 25028
25029 25030
25031 25032
25033 25034
25035 25036
25037 25038
25039 25040
25041 25042
25043 25044
25045 25046
25047 25048
25049 25050
25051 25052
25053 25054
25055 25056
25057 25058
25059 25060
25061 25062
25063 25064
25065 25066
25067 25068
25069 25070
25071 25072
25073 25074
25075 25076
25077 25078
25079 25080
25081 25082
25083 25084
25085 25086
25087 25088
25089 25090
25091 25092
25093 25094
25095 25096
25097 25098
25099 25100
25101 25102
25103 25104
25105 25106
25107 25108
25109 25110
25111 25112
25113 25114
25115 25116
25117 25118
25119 25120
25121 25122
25123 25124
25125 25126
25127 25128
25129 25130
25131 25132
25133 25134
25135 25136
25137 25138
25139 25140
25141 25142
25143 25144
25145 25146
25147 25148
25149 25150
25151 25152
25153 25154
25155 25156
25157 25158
25159 25160
25161 25162
25163 25164
25165 25166
25167 25168
25169 25170
25171 25172
25173 25174
25175 25176
25177 25178
25179 25180
25181 25182
25183 25184
25185 25186
25187 25188
25189 25190
25191 25192
25193 25194
25195 25196
25197 25198
25199 25200
25201 25202
25203 25204
25205 25206
25207 25208
25209 25210
25211 25212
25213 25214
25215 25216
25217 25218
25219 25220
25221 25222
25223 25224
25225 25226
25227 25228
25229 25230
25231 25232
25233 25234
25235 25236
25237 25238
25239 25240
25241 25242
25243 25244
25245 25246
25247 25248
25249 25250
25251 25252
25253 25254
25255 25256
25257 25258
25259 25260
25261 25262
25263 25264
25265 25266
25267 25268
25269 25270
25271 25272
25273 25274
25275 25276
25277 25278
25279 25280
25281 25282
25283 25284
25285 25286
25287 25288
25289 25290
25291 25292
25293 25294
25295 25296
25297 25298
25299 25300
25301 25302
25303 25304
25305 25306
25307 25308
25309 25310
25311 25312
25313 25314
25315 25316
25317 25318
25319 25320
25321 25322
25323 25324
25325 25326
25327 25328
25329 25330
25331 25332
25333 25334
25335 25336
25337 25338
25339 25340
25341 25342
25343 25344
25345 25346
25347 25348
25349 25350
25351 25352
25353 25354
25355 25356
25357 25358
25359 25360
25361 25362
25363 25364
25365 25366
25367 25368
25369 25370
25371 25372
25373 25374
25375 25376
25377 25378
25379 25380
25381 25382
25383 25384
25385 25386
25387 25388
25389 25390
25391 25392
25393 25394
25395 25396
25397 25398
25399 25400
25401 25402
25403 25404
25405 25406
25407 25408
25409 25410
25411 25412
25413 25414
25415 25416
25417 25418
25419 25420
25421 25422
25423 25424
25425 25426
25427 25428
25429 25430
25431 25432
25433 25434
25435 25436
25437 25438
25439 25440
25441 25442
25443 25444
25445 25446
25447 25448
25449 25450
25451 25452
25453 25454
25455 25456
25457 25458
25459 25460
25461 25462
25463 25464
25465 25466
25467 25468
25469 25470
25471 25472
25473 25474
25475 25476
25477 25478
25479 25480
25481 25482
25483 25484
25485 25486
25487 25488
25489 25490
25491 25492
25493 25494
25495 25496
25497 25498
25499 25500
25501 25502
25503 25504
25505 25506
25507 25508
25509 25510
25511 25512
25513 25514
25515 25516
25517 25518
25519 25520
25521 25522
25523 25524
25525 25526
25527 25528
25529 25530
25531 25532
25533 25534
25535 25536
25537 25538
25539 25540
25541 25542
25543 25544
25545 25546
25547 25548
25549 25550
25551 25552
25553 25554
25555 25556
25557 25558
25559 25560
25561 25562
25563 25564
25565 25566
25567 25568
25569 25570
25571 25572
25573 25574
25575 25576
25577 25578
25579 25580
25581 25582
25583 25584
25585 25586
25587 25588
25589 25590
25591 25592
25593 25594
25595 25596
25597 25598
25599 25600
25601 25602
25603 25604
25605 25606
25607 25608
25609 25610
25611 25612
25613 25614
25615 25616
25617 25618
25619 25620
25621 25622
25623 25624
25625 25626
25627 25628
25629 25630
25631 25632
25633 25634
25635 25636
25637 25638
25639 25640
25641 25642
25643 25644
25645 25646
25647 25648
25649 25650
25651 25652
25653 25654
25655 25656
25657 25658
25659 25660
25661 25662
25663 25664
25665 25666
25667 25668
25669 25670
25671 25672
25673 25674
25675 25676
25677 25678
25679 25680
25681 25682
25683 25684
25685 25686
25687 25688
25689 25690
25691 25692
25693 25694
25695 25696
25697 25698
25699 25700
25701 25702
25703 25704
25705 25706
25707 25708
25709 25710
25711 25712
25713 25714
25715 25716
25717 25718
25719 25720
25721 25722
25723 25724
25725 25726
25727 25728
25729 25730
25731 25732
25733 25734
25735 25736
25737 25738
25739 25740
25741 25742
25743 25744
25745 25746
25747 25748
25749 25750
25751 25752
25753 25754
25755 25756
25757 25758
25759 25760
25761 25762
25763 25764
25765 25766
25767 25768
25769 25770
25771 25772
25773 25774
25775 25776
25777 25778
25779 25780
25781 25782
25783 25784
25785 25786
25787 25788
25789 25790
25791 25792
25793 25794
25795 25796
25797 25798
25799 25800
25801 25802
25803 25804
25805 25806
25807 25808
25809 25810
25811 25812
25813 25814
25815 25816
25817 25818
25819 25820
25821 25822
25823 25824
25825 25826
25827 25828
25829 25830
25831 25832
25833 25834
25835 25836
25837 25838
25839 25840
25841 25842
25843 25844
25845 25846
25847 25848
25849 25850
25851 25852
25853 25854
25855 25856
25857 25858
25859 25860
25861 25862
25863 25864
25865 25866
25867 25868
25869 25870
25871 25872
25873 25874
25875 25876
25877 25878
25879 25880
25881 25882
25883 25884
25885 25886
25887 25888
25889 25890
25891 25892
25893 25894
25895 25896
25897 25898
25899 25900
25901 25902
25903 25904
25905 25906
25907 25908
25909 25910
25911 25912
25913 25914
25915 25916
25917 25918
25919 25920
25921 25922
25923 25924
25925 25926
25927 25928
25929 25930
25931 25932
25933 25934
25935 25936
25937 25938
25939 25940
25941 25942
25943 25944
25945 25946
25947 25948
25949 25950
25951 25952
25953 25954
25955 25956
25957 25958
25959 25960
25961 25962
25963 25964
25965 25966
25967 25968
25969 25970
25971 25972
25973 25974
25975 25976
25977 25978
25979 25980
25981 25982
25983 25984
25985 25986
25987 25988
25989 25990
25991 25992
25993 25994
25995 25996
25997 25998
25999 26000
26001 26002
26003 26004
26005 26006
26007 26008
26009 26010
26011 26012
26013 26014
26015 26016
26017 26018
26019 26020
26021 26022
26023 26024
26025 26026
26027 26028
26029 26030
26031 26032
26033 26034
26035 26036
26037 26038
26039 26040
26041 26042
26043 26044
26045 26046
26047 26048
26049 26050
26051 26052
26053 26054
26055 26056
26057 26058
26059 26060
26061 26062
26063 26064
26065 26066
26067 26068
26069 26070
26071 26072
26073 26074
26075 26076
26077 26078
26079 26080
26081 26082
26083 26084
26085 26086
26087 26088
26089 26090
26091 26092
26093 26094
26095 26096
26097 26098
26099 26100
26101 26102
26103 26104
26105 26106
26107 26108
26109 26110
26111 26112
26113 26114
26115 26116
26117 26118
26119 26120
26121 26122
26123 26124
26125 26126
26127 26128
26129 26130
26131 26132
26133 26134
26135 26136
26137 26138
26139 26140
26141 26142
26143 26144
26145 26146
26147 26148
26149 26150
26151 26152
26153 26154
26155 26156
26157 26158
26159 26160
26161 26162
26163 26164
26165 26166
26167 26168
26169 26170
26171 26172
26173 26174
26175 26176
26177 26178
26179 26180
26181 26182
26183 26184
26185 26186
26187 26188
26189 26190
26191 26192
26193 26194
26195 26196
26197 26198
26199 26200
26201 26202
26203 26204
26205 26206
26207 26208
26209 26210
26211 26212
26213 26214
26215 26216
26217 26218
26219 26220
26221 26222
26223 26224
26225 26226
26227 26228
26229 26230
26231 26232
26233 26234
26235 26236
26237 26238
26239 26240
26241 26242
26243 26244
26245 26246
26247 26248
26249 26250
26251 26252
26253 26254
26255 26256
26257 26258
26259 26260
26261 26262
26263 26264
26265 26266
26267 26268
26269 26270
26271 26272
26273 26274
26275 26276
26277 26278
26279 26280
26281 26282
26283 26284
26285 26286
26287 26288
26289 26290
26291 26292
26293 26294
26295 26296
26297 26298
26299 26300
26301 26302
26303 26304
26305 26306
26307 26308
26309 26310
26311 26312
26313 26314
26315 26316
26317 26318
26319 26320
26321 26322
26323 26324
26325 26326
26327 26328
26329 26330
26331 26332
26333 26334
26335 26336
26337 26338
26339 26340
26341 26342
26343 26344
26345 26346
26347 26348
26349 26350
26351 26352
26353 26354
26355 26356
26357 26358
26359 26360
26361 26362
26363 26364
26365 26366
26367 26368
26369 26370
26371 26372
26373 26374
26375 26376
26377 26378
26379 26380
26381 26382
26383 26384
26385 26386
26387 26388
26389 26390
26391 26392
26393 26394
26395 26396
26397 26398
26399 26400
26401 26402
26403 26404
26405 26406
26407 26408
26409 26410
26411 26412
26413 26414
26415 26416
26417 26418
26419 26420
26421 26422
26423 26424
26425 26426
26427 26428
26429 26430
26431 26432
26433 26434
26435 26436
26437 26438
26439 26440
26441 26442
26443 26444
26445 26446
26447 26448
26449 26450
26451 26452
26453 26454
26455 26456
26457 26458
26459 26460
26461 26462
26463 26464
26465 26466
26467 26468
26469 26470
26471 26472
26473 26474
26475 26476
26477 26478
26479 26480
26481 26482
26483 26484
26485 26486
26487 26488
26489 26490
26491 26492
26493 26494
26495 26496
26497 26498
26499 26500
26501 26502
26503 26504
26505 26506
26507 26508
26509 26510
26511 26512
26513 26514
26515 26516
26517 26518
26519 26520
26521 26522
26523 26524
26525 26526
26527 26528
26529 26530
26531 26532
26533 26534
26535 26536
26537 26538
26539 26540
26541 26542
26543 26544
26545 26546
26547 26548
26549 26550
26551 26552
26553 26554
26555 26556
26557 26558
26559 26560
26561 26562
26563 26564
26565 26566
26567 26568
26569 26570
26571 26572
26573 26574
26575 26576
26577 26578
26579 26580
26581 26582
26583 26584
26585 26586
26587 26588
26589 26590
26591 26592
26593 26594
26595 26596
26597 26598
26599 26600
26601 26602
26603 26604
26605 26606
26607 26608
26609 26610
26611 26612
26613 26614
26615 26616
26617 26618
26619 26620
26621 26622
26623 26624
26625 26626
26627 26628
26629 26630
26631 26632
26633 26634
26635 26636
26637 26638
26639 26640
26641 26642
26643 26644
26645 26646
26647 26648
26649 26650
26651 26652
26653 26654
26655 26656
26657 26658
26659 26660
26661 26662
26663 26664
26665 26666
26667 26668
26669 26670
26671 26672
26673 26674
26675 26676
26677 26678
26679 26680
26681 26682
26683 26684
26685 26686
26687 26688
26689 26690
26691 26692
26693 26694
26695 26696
26697 26698
26699 26700
26701 26702
26703 26704
26705 26706
26707 26708
26709 26710
26711 26712
26713 26714
26715 26716
26717 26718
26719 26720
26721 26722
26723 26724
26725 26726
26727 26728
26729 26730
26731 26732
26733 26734
26735 26736
26737 26738
26739 26740
26741 26742
26743 26744
26745 26746
26747 26748
26749 26750
26751 26752
26753 26754
26755 26756
26757 26758
26759 26760
26761 26762
26763 26764
26765 26766
26767 26768
26769 26770
26771 26772
26773 26774
26775 26776
26777 26778
26779 26780
26781 26782
26783 26784
26785 26786
26787 26788
26789 26790
26791 26792
26793 26794
26795 26796
26797 26798
26799 26800
26801 26802
26803 26804
26805 26806
26807 26808
26809 26810
26811 26812
26813 26814
26815 26816
26817 26818
26819 26820
26821 26822
26823 26824
26825 26826
26827 26828
26829 26830
26831 26832
26833 26834
26835 26836
26837 26838
26839 26840
26841 26842
26843 26844
26845 26846
26847 26848
26849 26850
26851 26852
26853 26854
26855 26856
26857 26858
26859 26860
26861 26862
26863 26864
26865 26866
26867 26868
26869 26870
26871 26872
26873 26874
26875 26876
26877 26878
26879 26880
26881 26882
26883 26884
26885 26886
26887 26888
26889 26890
26891 26892
26893 26894
26895 26896
26897 26898
26899 26900
26901 26902
26903 26904
26905 26906
26907 26908
26909 26910
26911 26912
26913 26914
26915 26916
26917 26918
26919 26920
26921 26922
26923 26924
26925 26926
26927 26928
26929 26930
26931 26932
26933 26934
26935 26936
26937 26938
26939 26940
26941 26942
26943 26944
26945 26946
26947 26948
26949 26950
26951 26952
26953 26954
26955 26956
26957 26958
26959 26960
26961 26962
26963 26964
26965 26966
26967 26968
26969 26970
26971 26972
26973 26974
26975 26976
26977 26978
26979 26980
26981 26982
26983 26984
26985 26986
26987 26988
26989 26990
26991 26992
26993 26994
26995 26996
26997 26998
26999 27000
27001 27002
27003 27004
27005 27006
27007 27008
27009 27010
27011 27012
27013 27014
27015 27016
27017 27018
27019 27020
27021 27022
27023 27024
27025 27026
27027 27028
27029 27030
27031 27032
27033 27034
27035 27036
27037 27038
27039 27040
27041 27042
27043 27044
27045 27046
27047 27048
27049 27050
27051 27052
27053 27054
27055 27056
27057 27058
27059 27060
27061 27062
27063 27064
27065 27066
27067 27068
27069 27070
27071 27072
27073 27074
27075 27076
27077 27078
27079 27080
27081 27082
27083 27084
27085 27086
27087 27088
27089 27090
27091 27092
27093 27094
27095 27096
27097 27098
27099 27100
27101 27102
27103 27104
27105 27106
27107 27108
27109 27110
27111 27112
27113 27114
27115 27116
27117 27118
27119 27120
27121 27122
27123 27124
27125 27126
27127 27128
27129 27130
27131 27132
27133 27134
27135 27136
27137 27138
27139 27140
27141 27142
27143 27144
27145 27146
27147 27148
27149 27150
27151 27152
27153 27154
27155 27156
27157 27158
27159 27160
27161 27162
27163 27164
27165 27166
27167 27168
27169 27170
27171 27172
27173 27174
27175 27176
27177 27178
27179 27180
27181 27182
27183 27184
27185 27186
27187 27188
27189 27190
27191 27192
27193 27194
27195 27196
27197 27198
27199 27200
27201 27202
27203 27204
27205 27206
27207 27208
27209 27210
27211 27212
27213 27214
27215 27216
27217 27218
27219 27220
27221 27222
27223 27224
27225 27226
27227 27228
27229 27230
27231 27232
27233 27234
27235 27236
27237 27238
27239 27240
27241 27242
27243 27244
27245 27246
27247 27248
27249 27250
27251 27252
27253 27254
27255 27256
27257 27258
27259 27260
27261 27262
27263 27264
27265 27266
27267 27268
27269 27270
27271 27272
27273 27274
27275 27276
27277 27278
27279 27280
27281 27282
27283 27284
27285 27286
27287 27288
27289 27290
27291 27292
27293 27294
27295 27296
27297 27298
27299 27300
27301 27302
27303 27304
27305 27306
27307 27308
27309 27310
27311 27312
27313 27314
27315 27316
27317 27318
27319 27320
27321 27322
27323 27324
27325 27326
27327 27328
27329 27330
27331 27332
27333 27334
27335 27336
27337 27338
27339 27340
27341 27342
27343 27344
27345 27346
27347 27348
27349 27350
27351 27352
27353 27354
27355 27356
27357 27358
27359 27360
27361 27362
27363 27364
27365 27366
27367 27368
27369 27370
27371 27372
27373 27374
27375 27376
27377 27378
27379 27380
27381 27382
27383 27384
27385 27386
27387 27388
27389 27390
27391 27392
27393 27394
27395 27396
27397 27398
27399 27400
27401 27402
27403 27404
27405 27406
27407 27408
27409 27410
27411 27412
27413 27414
27415 27416
27417 27418
27419 27420
27421 27422
27423 27424
27425 27426
27427 27428
27429 27430
27431 27432
27433 27434
27435 27436
27437 27438
27439 27440
27441 27442
27443 27444
27445 27446
27447 27448
27449 27450
27451 27452
27453 27454
27455 27456
27457 27458
27459 27460
27461 27462
27463 27464
27465 27466
27467 27468
27469 27470
27471 27472
27473 27474
27475 27476
27477 27478
27479 27480
27481 27482
27483 27484
27485 27486
27487 27488
27489 27490
27491 27492
27493 27494
27495 27496
27497 27498
27499 27500
27501 27502
27503 27504
27505 27506
27507 27508
27509 27510
27511 27512
27513 27514
27515 27516
27517 27518
27519 27520
27521 27522
27523 27524
27525 27526
27527 27528
27529 27530
27531 27532
27533 27534
27535 27536
27537 27538
27539 27540
27541 27542
27543 27544
27545 27546
27547 27548
27549 27550
27551 27552
27553 27554
27555 27556
27557 27558
27559 27560
27561 27562
27563 27564
27565 27566
27567 27568
27569 27570
27571 27572
27573 27574
27575 27576
27577 27578
27579 27580
27581 27582
27583 27584
27585 27586
27587 27588
27589 27590
27591 27592
27593 27594
27595 27596
27597 27598
27599 27600
27601 27602
27603 27604
27605 27606
27607 27608
27609 27610
27611 27612
27613 27614
27615 27616
27617 27618
27619 27620
27621 27622
27623 27624
27625 27626
27627 27628
27629 27630
27631 27632
27633 27634
27635 27636
27637 27638
27639 27640
27641 27642
27643 27644
27645 27646
27647 27648
27649 27650
27651 27652
27653 27654
27655 27656
27657 27658
27659 27660
27661 27662
27663 27664
27665 27666
27667 27668
27669 27670
27671 27672
27673 27674
27675 27676
27677 27678
27679 27680
27681 27682
27683 27684
27685 27686
27687 27688
27689 27690
27691 27692
27693 27694
27695 27696
27697 27698
27699 27700
27701 27702
27703 27704
27705 27706
27707 27708
27709 27710
27711 27712
27713 27714
27715 27716
27717 27718
27719 27720
27721 27722
27723 27724
27725 27726
27727 27728
27729 27730
27731 27732
27733 27734
27735 27736
27737 27738
27739 27740
27741 27742
27743 27744
27745 27746
27747 27748
27749 27750
27751 27752
27753 27754
27755 27756
27757 27758
27759 27760
27761 27762
27763 27764
27765 27766
27767 27768
27769 27770
27771 27772
27773 27774
27775 27776
27777 27778
27779 27780
27781 27782
27783 27784
27785 27786
27787 27788
27789 27790
27791 27792
27793 27794
27795 27796
27797 27798
27799 27800
27801 27802
27803 27804
27805 27806
27807 27808
27809 27810
27811 27812
27813 27814
27815 27816
27817 27818
27819 27820
27821 27822
27823 27824
27825 27826
27827 27828
27829 27830
27831 27832
27833 27834
27835 27836
27837 27838
27839 27840
27841 27842
27843 27844
27845 27846
27847 27848
27849 27850
27851 27852
27853 27854
27855 27856
27857 27858
27859 27860
27861 27862
27863 27864
27865 27866
27867 27868
27869 27870
27871 27872
27873 27874
27875 27876
27877 27878
27879 27880
27881 27882
27883 27884
27885 27886
27887 27888
27889 27890
27891 27892
27893 27894
27895 27896
27897 27898
27899 27900
27901 27902
27903 27904
27905 27906
27907 27908
27909 27910
27911 27912
27913 27914
27915 27916
27917 27918
27919 27920
27921 27922
27923 27924
27925 27926
27927 27928
27929 27930
27931 27932
27933 27934
27935 27936
27937 27938
27939 27940
27941 27942
27943 27944
27945 27946
27947 27948
27949 27950
27951 27952
27953 27954
27955 27956
27957 27958
27959 27960
27961 27962
27963 27964
27965 27966
27967 27968
27969 27970
27971 27972
27973 27974
27975 27976
27977 27978
27979 27980
27981 27982
27983 27984
27985 27986
27987 27988
27989 27990
27991 27992
27993 27994
27995 27996
27997 27998
27999 28000
28001 28002
28003 28004
28005 28006
28007 28008
28009 28010
28011 28012
28013 28014
28015 28016
28017 28018
28019 28020
28021 28022
28023 28024
28025 28026
28027 28028
28029 28030
28031 28032
28033 28034
28035 28036
28037 28038
28039 28040
28041 28042
28043 28044
28045 28046
28047 28048
28049 28050
28051 28052
28053 28054
28055 28056
28057 28058
28059 28060
28061 28062
28063 28064
28065 28066
28067 28068
28069 28070
28071 28072
28073 28074
28075 28076
28077 28078
28079 28080
28081 28082
28083 28084
28085 28086
28087 28088
28089 28090
28091 28092
28093 28094
28095 28096
28097 28098
28099 28100
28101 28102
28103 28104
28105 28106
28107 28108
28109 28110
28111 28112
28113 28114
28115 28116
28117 28118
28119 28120
28121 28122
28123 28124
28125 28126
28127 28128
28129 28130
28131 28132
28133 28134
28135 28136
28137 28138
28139 28140
28141 28142
28143 28144
28145 28146
28147 28148
28149 28150
28151 28152
28153 28154
28155 28156
28157 28158
28159 28160
28161 28162
28163 28164
28165 28166
28167 28168
28169 28170
28171 28172
28173 28174
28175 28176
28177 28178
28179 28180
28181 28182
28183 28184
28185 28186
28187 28188
28189 28190
28191 28192
28193 28194
28195 28196
28197 28198
28199 28200
28201 28202
28203 28204
28205 28206
28207 28208
28209 28210
28211 28212
28213 28214
28215 28216
28217 28218
28219 28220
28221 28222
28223 28224
28225 28226
28227 28228
28229 28230
28231 28232
28233 28234
28235 28236
28237 28238
28239 28240
28241 28242
28243 28244
28245 28246
28247 28248
28249 28250
28251 28252
28253 28254
28255 28256
28257 28258
28259 28260
28261 28262
28263 28264
28265 28266
28267 28268
28269 28270
28271 28272
28273 28274
28275 28276
28277 28278
28279 28280
28281 28282
28283 28284
28285 28286
28287 28288
28289 28290
28291 28292
28293 28294
28295 28296
28297 28298
28299 28300
28301 28302
28303 28304
28305 28306
28307 28308
28309 28310
28311 28312
28313 28314
28315 28316
28317 28318
28319 28320
28321 28322
28323 28324
28325 28326
28327 28328
28329 28330
28331 28332
28333 28334
28335 28336
28337 28338
28339 28340
28341 28342
28343 28344
28345 28346
28347 28348
28349 28350
28351 28352
28353 28354
28355 28356
28357 28358
28359 28360
28361 28362
28363 28364
28365 28366
28367 28368
28369 28370
28371 28372
28373 28374
28375 28376
28377 28378
28379 28380
28381 28382
28383 28384
28385 28386
28387 28388
28389 28390
28391 28392
28393 28394
28395 28396
28397 28398
28399 28400
28401 28402
28403 28404
28405 28406
28407 28408
28409 28410
28411 28412
28413 28414
28415 28416
28417 28418
28419 28420
28421 28422
28423 28424
28425 28426
28427 28428
28429 28430
28431 28432
28433 28434
28435 28436
28437 28438
28439 28440
28441 28442
28443 28444
28445 28446
28447 28448
28449 28450
28451 28452
28453 28454
28455 28456
28457 28458
28459 28460
28461 28462
28463 28464
28465 28466
28467 28468
28469 28470
28471 28472
28473 28474
28475 28476
28477 28478
28479 28480
28481 28482
28483 28484
28485 28486
28487 28488
28489 28490
28491 28492
28493 28494
28495 28496
28497 28498
28499 28500
28501 28502
28503 28504
28505 28506
28507 28508
28509 28510
28511 28512
28513 28514
28515 28516
28517 28518
28519 28520
28521 28522
28523 28524
28525 28526
28527 28528
28529 28530
28531 28532
28533 28534
28535 28536
28537 28538
28539 28540
28541 28542
28543 28544
28545 28546
28547 28548
28549 28550
28551 28552
28553 28554
28555 28556
28557 28558
28559 28560
28561 28562
28563 28564
28565 28566
28567 28568
28569 28570
28571 28572
28573 28574
28575 28576
28577 28578
28579 28580
28581 28582
28583 28584
28585 28586
28587 28588
28589 28590
28591 28592
28593 28594
28595 28596
28597 28598
28599 28600
28601 28602
28603 28604
28605 28606
28607 28608
28609 28610
28611 28612
28613 28614
28615 28616
28617 28618
28619 28620
28621 28622
28623 28624
28625 28626
28627 28628
28629 28630
28631 28632
28633 28634
28635 28636
28637 28638
28639 28640
28641 28642
28643 28644
28645 28646
28647 28648
28649 28650
28651 28652
28653 28654
28655 28656
28657 28658
28659 28660
28661 28662
28663 28664
28665 28666
28667 28668
28669 28670
28671 28672
28673 28674
28675 28676
28677 28678
28679 28680
28681 28682
28683 28684
28685 28686
28687 28688
28689 28690
28691 28692
28693 28694
28695 28696
28697 28698
28699 28700
28701 28702
28703 28704
28705 28706
28707 28708
28709 28710
28711 28712
28713 28714
28715 28716
28717 28718
28719 28720
28721 28722
28723 28724
28725 28726
28727 28728
28729 28730
28731 28732
28733 28734
28735 28736
28737 28738
28739 28740
28741 28742
28743 28744
28745 28746
28747 28748
28749 28750
28751 28752
28753 28754
28755 28756
28757 28758
28759 28760
28761 28762
28763 28764
28765 28766
28767 28768
28769 28770
28771 28772
28773 28774
28775 28776
28777 28778
28779 28780
28781 28782
28783 28784
28785 28786
28787 28788
28789 28790
28791 28792
28793 28794
28795 28796
28797 28798
28799 28800
28801 28802
28803 28804
28805 28806
28807 28808
28809 28810
28811 28812
28813 28814
28815 28816
28817 28818
28819 28820
28821 28822
28823 28824
28825 28826
28827 28828
28829 28830
28831 28832
28833 28834
28835 28836
28837 28838
28839 28840
28841 28842
28843 28844
28845 28846
28847 28848
28849 28850
28851 28852
28853 28854
28855 28856
28857 28858
28859 28860
28861 28862
28863 28864
28865 28866
28867 28868
28869 28870
28871 28872
28873 28874
28875 28876
28877 28878
28879 28880
28881 28882
28883 28884
28885 28886
28887 28888
28889 28890
28891 28892
28893 28894
28895 28896
28897 28898
28899 28900
28901 28902
28903 28904
28905 28906
28907 28908
28909 28910
28911 28912
28913 28914
28915 28916
28917 28918
28919 28920
28921 28922
28923 28924
28925 28926
28927 28928
28929 28930
28931 28932
28933 28934
28935 28936
28937 28938
28939 28940
28941 28942
28943 28944
28945 28946
28947 28948
28949 28950
28951 28952
28953 28954
28955 28956
28957 28958
28959 28960
28961 28962
28963 28964
28965 28966
28967 28968
28969 28970
28971 28972
28973 28974
28975 28976
28977 28978
28979 28980
28981 28982
28983 28984
28985 28986
28987 28988
28989 28990
28991 28992
28993 28994
28995 28996
28997 28998
28999 29000
29001 29002
29003 29004
29005 29006
29007 29008
29009 29010
29011 29012
29013 29014
29015 29016
29017 29018
29019 29020
29021 29022
29023 29024
29025 29026
29027 29028
29029 29030
29031 29032
29033 29034
29035 29036
29037 29038
29039 29040
29041 29042
29043 29044
29045 29046
29047 29048
29049 29050
29051 29052
29053 29054
29055 29056
29057 29058
29059 29060
29061 29062
29063 29064
29065 29066
29067 29068
29069 29070
29071 29072
29073 29074
29075 29076
29077 29078
29079 29080
29081 29082
29083 29084
29085 29086
29087 29088
29089 29090
29091 29092
29093 29094
29095 29096
29097 29098
29099 29100
29101 29102
29103 29104
29105 29106
29107 29108
29109 29110
29111 29112
29113 29114
29115 29116
29117 29118
29119 29120
29121 29122
29123 29124
29125 29126
29127 29128
29129 29130
29131 29132
29133 29134
29135 29136
29137 29138
29139 29140
29141 29142
29143 29144
29145 29146
29147 29148
29149 29150
29151 29152
29153 29154
29155 29156
29157 29158
29159 29160
29161 29162
29163 29164
29165 29166
29167 29168
29169 29170
29171 29172
29173 29174
29175 29176
29177 29178
29179 29180
29181 29182
29183 29184
29185 29186
29187 29188
29189 29190
29191 29192
29193 29194
29195 29196
29197 29198
29199 29200
29201 29202
29203 29204
29205 29206
29207 29208
29209 29210
29211 29212
29213 29214
29215 29216
29217 29218
29219 29220
29221 29222
29223 29224
29225 29226
29227 29228
29229 29230
29231 29232
29233 29234
29235 29236
29237 29238
29239 29240
29241 29242
29243 29244
29245 29246
29247 29248
29249 29250
29251 29252
29253 29254
29255 29256
29257 29258
29259 29260
29261 29262
29263 29264
29265 29266
29267 29268
29269 29270
29271 29272
29273 29274
29275 29276
29277 29278
29279 29280
29281 29282
29283 29284
29285 29286
29287 29288
29289 29290
29291 29292
29293 29294
29295 29296
29297 29298
29299 29300
29301 29302
29303 29304
29305 29306
29307 29308
29309 29310
29311 29312
29313 29314
29315 29316
29317 29318
29319 29320
29321 29322
29323 29324
29325 29326
29327 29328
29329 29330
29331 29332
29333 29334
29335 29336
29337 29338
29339 29340
29341 29342
29343 29344
29345 29346
29347 29348
29349 29350
29351 29352
29353 29354
29355 29356
29357 29358
29359 29360
29361 29362
29363 29364
29365 29366
29367 29368
29369 29370
29371 29372
29373 29374
29375 29376
29377 29378
29379 29380
29381 29382
29383 29384
29385 29386
29387 29388
29389 29390
29391 29392
29393 29394
29395 29396
29397 29398
29399 29400
29401 29402
29403 29404
29405 29406
29407 29408
29409 29410
29411 29412
29413 29414
29415 29416
29417 29418
29419 29420
29421 29422
29423 29424
29425 29426
29427 29428
29429 29430
29431 29432
29433 29434
29435 29436
29437 29438
29439 29440
29441 29442
29443 29444
29445 29446
29447 29448
29449 29450
29451 29452
29453 29454
29455 29456
29457 29458
29459 29460
29461 29462
29463 29464
29465 29466
29467 29468
29469 29470
29471 29472
29473 29474
29475 29476
29477 29478
29479 29480
29481 29482
29483 29484
29485 29486
29487 29488
29489 29490
29491 29492
29493 29494
29495 29496
29497 29498
29499 29500
29501 29502
29503 29504
29505 29506
29507 29508
29509 29510
29511 29512
29513 29514
29515 29516
29517 29518
29519 29520
29521 29522
29523 29524
29525 29526
29527 29528
29529 29530
29531 29532
29533 29534
29535 29536
29537 29538
29539 29540
29541 29542
29543 29544
29545 29546
29547 29548
29549 29550
29551 29552
29553 29554
29555 29556
29557 29558
29559 29560
29561 29562
29563 29564
29565 29566
29567 29568
29569 29570
29571 29572
29573 29574
29575 29576
29577 29578
29579 29580
29581 29582
29583 29584
29585 29586
29587 29588
29589 29590
29591 29592
29593 29594
29595 29596
29597 29598
29599 29600
29601 29602
29603 29604
29605 29606
29607 29608
29609 29610
29611 29612
29613 29614
29615 29616
29617 29618
29619 29620
29621 29622
29623 29624
29625 29626
29627 29628
29629 29630
29631 29632
29633 29634
29635 29636
29637 29638
29639 29640
29641 29642
29643 29644
29645 29646
29647 29648
29649 29650
29651 29652
29653 29654
29655 29656
29657 29658
29659 29660
29661 29662
29663 29664
29665 29666
29667 29668
29669 29670
29671 29672
29673 29674
29675 29676
29677 29678
29679 29680
29681 29682
29683 29684
29685 29686
29687 29688
29689 29690
29691 29692
29693 29694
29695 29696
29697 29698
29699 29700
29701 29702
29703 29704
29705 29706
29707 29708
29709 29710
29711 29712
29713 29714
29715 29716
29717 29718
29719 29720
29721 29722
29723 29724
29725 29726
29727 29728
29729 29730
29731 29732
29733 29734
29735 29736
29737 29738
29739 29740
29741 29742
29743 29744
29745 29746
29747 29748
29749 29750
29751 29752
29753 29754
29755 29756
29757 29758
29759 29760
29761 29762
29763 29764
29765 29766
29767 29768
29769 29770
29771 29772
29773 29774
29775 29776
29777 29778
29779 29780
29781 29782
29783 29784
29785 29786
29787 29788
29789 29790
29791 29792
29793 29794
29795 29796
29797 29798
29799 29800
29801 29802
29803 29804
29805 29806
29807 29808
29809 29810
29811 29812
29813 29814
29815 29816
29817 29818
29819 29820
29821 29822
29823 29824
29825 29826
29827 29828
29829 29830
29831 29832
29833 29834
29835 29836
29837 29838
29839 29840
29841 29842
29843 29844
29845 29846
29847 29848
29849 29850
29851 29852
29853 29854
29855 29856
29857 29858
29859 29860
29861 29862
29863 29864
29865 29866
29867 29868
29869 29870
29871 29872
29873 29874
29875 29876
29877 29878
29879 29880
29881 29882
29883 29884
29885 29886
29887 29888
29889 29890
29891 29892
29893 29894
29895 29896
29897 29898
29899 29900
29901 29902
29903 29904
29905 29906
29907 29908
29909 29910
29911 29912
29913 29914
29915 29916
29917 29918
29919 29920
29921 29922
29923 29924
29925 29926
29927 29928
29929 29930
29931 29932
29933 29934
29935 29936
29937 29938
29939 29940
29941 29942
29943 29944
29945 29946
29947 29948
29949 29950
29951 29952
29953 29954
29955 29956
29957 29958
29959 29960
29961 29962
29963 29964
29965 29966
29967 29968
29969 29970
29971 29972
29973 29974
29975 29976
29977 29978
29979 29980
29981 29982
29983 29984
29985 29986
29987 29988
29989 29990
29991 29992
29993 29994
29995 29996
29997 29998
29999 30000
30001 30002
30003 30004
30005 30006
30007 30008
30009 30010
30011 30012
30013 30014
30015 30016
30017 30018
30019 30020
30021 30022
30023 30024
30025 30026
30027 30028
30029 30030
30031 30032
30033 30034
30035 30036
30037 30038
30039 30040
30041 30042
30043 30044
30045 30046
30047 30048
30049 30050
30051 30052
30053 30054
30055 30056
30057 30058
30059 30060
30061 30062
30063 30064
30065 30066
30067 30068
30069 30070
30071 30072
30073 30074
30075 30076
30077 30078
30079 30080
30081 30082
30083 30084
30085 30086
30087 30088
30089 30090
30091 30092
30093 30094
30095 30096
30097 30098
30099 30100
30101 30102
30103 30104
30105 30106
30107 30108
30109 30110
30111 30112
30113 30114
30115 30116
30117 30118
30119 30120
30121 30122
30123 30124
30125 30126
30127 30128
30129 30130
30131 30132
30133 30134
30135 30136
30137 30138
30139 30140
30141 30142
30143 30144
30145 30146
30147 30148
30149 30150
30151 30152
30153 30154
30155 30156
30157 30158
30159 30160
30161 30162
30163 30164
30165 30166
30167 30168
30169 30170
30171 30172
30173 30174
30175 30176
30177 30178
30179 30180
30181 30182
30183 30184
30185 30186
30187 30188
30189 30190
30191 30192
30193 30194
30195 30196
30197 30198
30199 30200
30201 30202
30203 30204
30205 30206
30207 30208
30209 30210
30211 30212
30213 30214
30215 30216
30217 30218
30219 30220
30221 30222
30223 30224
30225 30226
30227 30228
30229 30230
30231 30232
30233 30234
30235 30236
30237 30238
30239 30240
30241 30242
30243 30244
30245 30246
30247 30248
30249 30250
30251 30252
30253 30254
30255 30256
30257 30258
30259 30260
30261 30262
30263 30264
30265 30266
30267 30268
30269 30270
30271 30272
30273 30274
30275 30276
30277 30278
30279 30280
30281 30282
30283 30284
30285 30286
30287 30288
30289 30290
30291 30292
30293 30294
30295 30296
30297 30298
30299 30300
30301 30302
30303 30304
30305 30306
30307 30308
30309 30310
30311 30312
30313 30314
30315 30316
30317 30318
30319 30320
30321 30322
30323 30324
30325 30326
30327 30328
30329 30330
30331 30332
30333 30334
30335 30336
30337 30338
30339 30340
30341 30342
30343 30344
30345 30346
30347 30348
30349 30350
30351 30352
30353 30354
30355 30356
30357 30358
30359 30360
30361 30362
30363 30364
30365 30366
30367 30368
30369 30370
30371 30372
30373 30374
30375 30376
30377 30378
30379 30380
30381 30382
30383 30384
30385 30386
30387 30388
30389 30390
30391 30392
30393 30394
30395 30396
30397 30398
30399 30400
30401 30402
30403 30404
30405 30406
30407 30408
30409 30410
30411 30412
30413 30414
30415 30416
30417 30418
30419 30420
30421 30422
30423 30424
30425 30426
30427 30428
30429 30430
30431 30432
30433 30434
30435 30436
30437 30438
30439 30440
30441 30442
30443 30444
30445 30446
30447 30448
30449 30450
30451 30452
30453 30454
30455 30456
30457 30458
30459 30460
30461 30462
30463 30464
30465 30466
30467 30468
30469 30470
30471 30472
30473 30474
30475 30476
30477 30478
30479 30480
30481 30482
30483 30484
30485 30486
30487 30488
30489 30490
30491 30492
30493 30494
30495 30496
30497 30498
30499 30500
30501 30502
30503 30504
30505 30506
30507 30508
30509 30510
30511 30512
30513 30514
30515 30516
30517 30518
30519 30520
30521 30522
30523 30524
30525 30526
30527 30528
30529 30530
30531 30532
30533 30534
30535 30536
30537 30538
30539 30540
30541 30542
30543 30544
30545 30546
30547 30548
30549 30550
30551 30552
30553 30554
30555 30556
30557 30558
30559 30560
30561 30562
30563 30564
30565 30566
30567 30568
30569 30570
30571 30572
30573 30574
30575 30576
30577 30578
30579 30580
30581 30582
30583 30584
30585 30586
30587 30588
30589 30590
30591 30592
30593 30594
30595 30596
30597 30598
30599 30600
30601 30602
30603 30604
30605 30606
30607 30608
30609 30610
30611 30612
30613 30614
30615 30616
30617 30618
30619 30620
30621 30622
30623 30624
30625 30626
30627 30628
30629 30630
30631 30632
30633 30634
30635 30636
30637 30638
30639 30640
30641 30642
30643 30644
30645 30646
30647 30648
30649 30650
30651 30652
30653 30654
30655 30656
30657 30658
30659 30660
30661 30662
30663 30664
30665 30666
30667 30668
30669 30670
30671 30672
30673 30674
30675 30676
30677 30678
30679 30680
30681 30682
30683 30684
30685 30686
30687 30688
30689 30690
30691 30692
30693 30694
30695 30696
30697 30698
30699 30700
30701 30702
30703 30704
30705 30706
30707 30708
30709 30710
30711 30712
30713 30714
30715 30716
30717 30718
30719 30720
30721 30722
30723 30724
30725 30726
30727 30728
30729 30730
30731 30732
30733 30734
30735 30736
30737 30738
30739 30740
30741 30742
30743 30744
30745 30746
30747 30748
30749 30750
30751 30752
30753 30754
30755 30756
30757 30758
30759 30760
30761 30762
30763 30764
30765 30766
30767 30768
30769 30770
30771 30772
30773 30774
30775 30776
30777 30778
30779 30780
30781 30782
30783 30784
30785 30786
30787 30788
30789 30790
30791 30792
30793 30794
30795 30796
30797 30798
30799 30800
30801 30802
30803 30804
30805 30806
30807 30808
30809 30810
30811 30812
30813 30814
30815 30816
30817 30818
30819 30820
30821 30822
30823 30824
30825 30826
30827 30828
30829 30830
30831 30832
30833 30834
30835 30836
30837 30838
30839 30840
30841 30842
30843 30844
30845 30846
30847 30848
30849 30850
30851 30852
30853 30854
30855 30856
30857 30858
30859 30860
30861 30862
30863 30864
30865 30866
30867 30868
30869 30870
30871 30872
30873 30874
30875 30876
30877 30878
30879 30880
30881 30882
30883 30884
30885 30886
30887 30888
30889 30890
30891 30892
30893 30894
30895 30896
30897 30898
30899 30900
30901 30902
30903 30904
30905 30906
30907 30908
30909 30910
30911 30912
30913 30914
30915 30916
30917 30918
30919 30920
30921 30922
30923 30924
30925 30926
30927 30928
30929 30930
30931 30932
30933 30934
30935 30936
30937 30938
30939 30940
30941 30942
30943 30944
30945 30946
30947 30948
30949 30950
30951 30952
30953 30954
30955 30956
30957 30958
30959 30960
30961 30962
30963 30964
30965 30966
30967 30968
30969 30970
30971 30972
30973 30974
30975 30976
30977 30978
30979 30980
30981 30982
30983 30984
30985 30986
30987 30988
30989 30990
30991 30992
30993 30994
30995 30996
30997 30998
30999 31000
31001 31002
31003 31004
31005 31006
31007 31008
31009 31010
31011 31012
31013 31014
31015 31016
31017 31018
31019 31020
31021 31022
31023 31024
31025 31026
31027 31028
31029 31030
31031 31032
31033 31034
31035 31036
31037 31038
31039 31040
31041 31042
31043 31044
31045 31046
31047 31048
31049 31050
31051 31052
31053 31054
31055 31056
31057 31058
31059 31060
31061 31062
31063 31064
31065 31066
31067 31068
31069 31070
31071 31072
31073 31074
31075 31076
31077 31078
31079 31080
31081 31082
31083 31084
31085 31086
31087 31088
31089 31090
31091 31092
31093 31094
31095 31096
31097 31098
31099 31100
31101 31102
31103 31104
31105 31106
31107 31108
31109 31110
31111 31112
31113 31114
31115 31116
31117 31118
31119 31120
31121 31122
31123 31124
31125 31126
31127 31128
31129 31130
31131 31132
31133 31134
31135 31136
31137 31138
31139 31140
31141 31142
31143 31144
31145 31146
31147 31148
31149 31150
31151 31152
31153 31154
31155 31156
31157 31158
31159 31160
31161 31162
31163 31164
31165 31166
31167 31168
31169 31170
31171 31172
31173 31174
31175 31176
31177 31178
31179 31180
31181 31182
31183 31184
31185 31186
31187 31188
31189 31190
31191 31192
31193 31194
31195 31196
31197 31198
31199 31200
31201 31202
31203 31204
31205 31206
31207 31208
31209 31210
31211 31212
31213 31214
31215 31216
31217 31218
31219 31220
31221 31222
31223 31224
31225 31226
31227 31228
31229 31230
31231 31232
31233 31234
31235 31236
31237 31238
31239 31240
31241 31242
31243 31244
31245 31246
31247 31248
31249 31250
31251 31252
31253 31254
31255 31256
31257 31258
31259 31260
31261 31262
31263 31264
31265 31266
31267 31268
31269 31270
31271 31272
31273 31274
31275 31276
31277 31278
31279 31280
31281 31282
31283 31284
31285 31286
31287 31288
31289 31290
31291 31292
31293 31294
31295 31296
31297 31298
31299 31300
31301 31302
31303 31304
31305 31306
31307 31308
31309 31310
31311 31312
31313 31314
31315 31316
31317 31318
31319 31320
31321 31322
31323 31324
31325 31326
31327 31328
31329 31330
31331 31332
31333 31334
31335 31336
31337 31338
31339 31340
31341 31342
31343 31344
31345 31346
31347 31348
31349 31350
31351 31352
31353 31354
31355 31356
31357 31358
31359 31360
31361 31362
31363 31364
31365 31366
31367 31368
31369 31370
31371 31372
31373 31374
31375 31376
31377 31378
31379 31380
31381 31382
31383 31384
31385 31386
31387 31388
31389 31390
31391 31392
31393 31394
31395 31396
31397 31398
31399 31400
31401 31402
31403 31404
31405 31406
31407 31408
31409 31410
31411 31412
31413 31414
31415 31416
31417 31418
31419 31420
31421 31422
31423 31424
31425 31426
31427 31428
31429 31430
31431 31432
31433 31434
31435 31436
31437 31438
31439 31440
31441 31442
31443 31444
31445 31446
31447 31448
31449 31450
31451 31452
31453 31454
31455 31456
31457 31458
31459 31460
31461 31462
31463 31464
31465 31466
31467 31468
31469 31470
31471 31472
31473 31474
31475 31476
31477 31478
31479 31480
31481 31482
31483 31484
31485 31486
31487 31488
31489 31490
31491 31492
31493 31494
31495 31496
31497 31498
31499 31500
31501 31502
31503 31504
31505 31506
31507 31508
31509 31510
31511 31512
31513 31514
31515 31516
31517 31518
31519 31520
31521 31522
31523 31524
31525 31526
31527 31528
31529 31530
31531 31532
31533 31534
31535 31536
31537 31538
31539 31540
31541 31542
31543 31544
31545 31546
31547 31548
31549 31550
31551 31552
31553 31554
31555 31556
31557 31558
31559 31560
31561 31562
31563 31564
31565 31566
31567 31568
31569 31570
31571 31572
31573 31574
31575 31576
31577 31578
31579 31580
31581 31582
31583 31584
31585 31586
31587 31588
31589 31590
31591 31592
31593 31594
31595 31596
31597 31598
31599 31600
31601 31602
31603 31604
31605 31606
31607 31608
31609 31610
31611 31612
31613 31614
31615 31616
31617 31618
31619 31620
31621 31622
31623 31624
31625 31626
31627 31628
31629 31630
31631 31632
31633 31634
31635 31636
31637 31638
31639 31640
31641 31642
31643 31644
31645 31646
31647 31648
31649 31650
31651 31652
31653 31654
31655 31656
31657 31658
31659 31660
31661 31662
31663 31664
31665 31666
31667 31668
31669 31670
31671 31672
31673 31674
31675 31676
31677 31678
31679 31680
31681 31682
31683 31684
31685 31686
31687 31688
31689 31690
31691 31692
31693 31694
31695 31696
31697 31698
31699 31700
31701 31702
31703 31704
31705 31706
31707 31708
31709 31710
31711 31712
31713 31714
31715 31716
31717 31718
31719 31720
31721 31722
31723 31724
31725 31726
31727 31728
31729 31730
31731 31732
31733 31734
31735 31736
31737 31738
31739 31740
31741 31742
31743 31744
31745 31746
31747 31748
31749 31750
31751 31752
31753 31754
31755 31756
31757 31758
31759 31760
31761 31762
31763 31764
31765 31766
31767 31768
31769 31770
31771 31772
31773 31774
31775 31776
31777 31778
31779 31780
31781 31782
31783 31784
31785 31786
31787 31788
31789 31790
31791 31792
31793 31794
31795 31796
31797 31798
31799 31800
31801 31802
31803 31804
31805 31806
31807 31808
31809 31810
31811 31812
31813 31814
31815 31816
31817 31818
31819 31820
31821 31822
31823 31824
31825 31826
31827 31828
31829 31830
31831 31832
31833 31834
31835 31836
31837 31838
      </DataArray>
      <DataArray type="Int32" Name="offsets" format="ascii">
6
12
18
24
30
36
42
48
54
60
66
72
78
84
90
96
102
108
114
120
126
132
138
144
150
156
162
168
174
180
186
192
198
204
210
216
222
228
234
240
246
252
258
264
270
276
282
288
294
300
306
312
318
324
330
336
342
348
354
360
366
372
378
384
390
396
402
408
414
420
426
432
438
444
450
456
462
468
474
480
486
492
498
504
510
516
522
528
534
540
546
552
558
564
570
576
582
588
594
600
606
612
618
624
630
636
642
648
654
660
666
672
678
684
690
696
702
708
714
720
726
732
738
744
750
756
762
768
774
780
786
792
798
804
810
816
822
828
834
840
846
852
858
864
870
876
882
888
894
900
906
912
918
924
930
936
942
948
954
960
966
972
978
984
990
996
1002
1008
1014
1020
1026
1032
1038
1044
1050
1056
1062
1068
1074
1080
1086
1092
1098
1104
1110
1116
1122
1128
1134
1140
1146
1152
1158
1164
1170
1176
1182
1188
1194
1200
1206
1212
1218
1224
1230
1236
1242
1248
1254
1260
1266
1272
1278
1284
1290
1296
1302
1308
1314
1320
1326
1332
1338
1344
1350
1356
1362
1368
1374
1380
1386
1392
1398
1404
1410
1416
1422
1428
1434
1440
1446
1452
1458
1464
1470
1476
1482
1488
1494
1500
1506
1512
1518
1524
1530
1536
1542
1548
1554
1560
1566
1572
1578
1584
1590
1596
1602
1608
1614
1620
1626
1632
1638
1644
1650
1656
1662
1668
1674
1680
1686
1692
1698
1704
1710
1716
1722
1728
1734
1740
1746
1752
1758
1764
1770
1776
1782
1788
1794
1800
1806
1812
1818
1824
1830
1836
1842
1848
1854
1860
1866
1872
1878
1884
1890
1896
1902
1908
1914
1920
1926
1932
1938
1944
1950
1956
1962
1968
1974
1980
1986
1992
1998
2004
2010
2016
2022
2028
2034
2040
2046
2052
2058
2064
2070
2076
2082
2088
2094
2100
2106
2112
2118
2124
2130
2136
2142
2148
2154
2160
2166
2172
2178
2184
2190
2196
2202
2208
2214
2220
2226
2232
2238
2244
2250
2256
2262
2268
2274
2280
2286
2292
2298
2304
2310
2316
2322
2328
2334
2340
2346
2352
2358
2364
2370
2376
2382
2388
2394
2400
2406
2412
2418
2424
2430
2436
2442
2448
2454
2460
2466
2472
2478
2484
2490
2496
2502
2508
2514
2520
2526
2532
2538
2544
2550
2556
2562
2568
2574
2580
2586
2592
2598
2604
2610
2616
2622
2628
2634
2640
2646
2652
2658
2664
2670
2676
2682
2688
2694
2700
2706
2712
2718
2724
2730
2736
2742
2748
2754
2760
2766
2772
2778
2784
2790
2796
2802
2808
2814
2820
2826
2832
2838
2844
2850
2856
2862
2868
2874
2880
2886
2892
2898
2904
2910
2916
2922
2928
2934
2940
2946
2952
2958
2964
2970
2976
2982
2988
2994
3000
3006
3012
3018
3024
3030
3036
3042
3048
3054
3060
3066
3072
3078
3084
3090
3096
3102
3108
3114
3120
3126
3132
3138
3144
3150
3156
3162
3168
3174
3180
3186
3192
3198
3204
3210
3216
3222
3228
3234
3240
3246
3252
3258
3264
3270
3276
3282
3288
3294
3300
3306
3312
3318
3324
3330
3336
3342
3348
3354
3360
3366
3372
3378
3384
3390
3396
3402
3408
3414
3420
3426
3432
3438
3444
3450
3456
3462
3468
3474
3480
3486
3492
3498
3504
3510
3516
3522
3528
3534
3540
3546
3552
3558
3564
3570
3576
3582
3588
3594
3600
3606
3612
3618
3624
3630
3636
3642
3648
3654
3660
3666
3672
3678
3684
3690
3696
3702
3708
3714
3720
3726
3732
3738
3744
3750
3756
3762
3768
3774
3780
3786
3792
3798
3804
3810
3816
3822
3828
3834
3840
3846
3852
3858
3864
3870
3876
3882
3888
3894
3900
3906
3912
3918
3924
3930
3936
3942
3948
3954
3960
3966
3972
3978
3984
3990
3996
4002
4008
4014
4020
4026
4032
4038
4044
4050
4056
4062
4068
4074
4080
4086
4092
4098
4104
4110
4116
4122
4128
4134
4140
4146
4152
4158
4164
4170
4176
4182
4188
4194
4200
4206
4212
4218
4224
4230
4236
4242
4248
4254
4260
4266
4272
4278
4284
4290
4296
4302
4308
4314
4320
4326
4332
4338
4344
4350
4356
4362
4368
4374
4380
4386
4392
4398
4404
4410
4416
4422
4428
4434
4440
4446
4452
4458
4464
4470
4476
4482
4488
4494
4500
4506
4512
4518
4524
4530
4536
4542
4548
4554
4560
4566
4572
4578
4584
4590
4596
4602
4608
4614
4620
4626
4632
4638
4644
4650
4656
4662
4668
4674
4680
4686
4692
4698
4704
4710
4716
4722
4728
4734
4740
4746
4752
4758
4764
4770
4776
4782
4788
4794
4800
4806
4812
4818
4824
4830
4836
4842
4848
4854
4860
4866
4872
4878
4884
4890
4896
4902
4908
4914
4920
4926
4932
4938
4944
4950
4956
4962
4968
4974
4980
4986
4992
4998
5004
5010
5016
5022
5028
5034
5040
5046
5052
5058
5064
5070
5076
5082
5088
5094
5100
5106
5112
5118
5124
5130
5136
5142
5148
5154
5160
5166
5172
5178
5184
5190
5196
5202
5208
5214
5220
5226
5232
5238
5244
5250
5256
5262
5268
5274
5280
5286
5292
5298
5304
5310
5316
5322
5328
5334
5340
5346
5352
5358
5364
5370
5376
5382
5388
5394
5400
5406
5412
5418
5424
5430
5436
5442
5448
5454
5460
5466
5472
5478
5484
5490
5496
5502
5508
5514
5520
5526
5532
5538
5544
5550
5556
5562
5568
5574
5580
5586
5592
5598
5604
5610
5616
5622
5628
5634
5640
5646
5652
5658
5664
5670
5676
5682
5688
5694
5700
5706
5712
5718
5724
5730
5736
5742
5748
5754
5760
5766
5772
5778
5784
5790
5796
5802
5808
5814
5820
5826
5832
5838
5844
5850
5856
5862
5868
5874
5880
5886
5892
5898
5904
5910
5916
5922
5928
5934
5940
5946
5952
5958
5964
5970
5976
5982
5988
5994
6000
6006
6012
6018
6024
6030
6036
6042
6048
6054
6060
6066
6072
6078
6084
6090
6096
6102
6108
6114
6120
6126
6132
6138
6144
6150
6156
6162
6168
6174
6180
6186
6192
6198
6204
6210
6216
6222
6228
6234
6240
6246
6252
6258
6264
6270
6276
6282
6288
6294
6300
6306
6312
6318
6324
6330
6336
6342
6348
6354
6360
6366
6372
6378
6384
6390
6396
6402
6408
6414
6420
6426
6432
6438
6444
6450
6456
6462
6468
6474
6480
6486
6492
6498
6504
6510
6516
6522
6528
6534
6540
6546
6552
6558
6564
6570
6576
6582
6588
6594
6600
6606
6612
6618
6624
6630
6636
6642
6648
6654
6660
6666
6672
6678
6684
6690
6696
6702
6708
6714
6720
6726
6732
6738
6744
6750
6756
6762
6768
6774
6780
6786
6792
6798
6804
6810
6816
6822
6828
6834
6840
6846
6852
6858
6864
6870
6876
6882
6888
6894
6900
6906
6912
6918
6924
6930
6936
6942
6948
6954
6960
6966
6972
6978
6984
6990
6996
7002
7008
7014
7020
7026
7032
7038
7044
7050
7056
7062
7068
7074
7080
7086
7092
7098
7104
7110
7116
7122
7128
7134
7140
7146
7152
7158
7164
7170
7176
7182
7188
7194
7200
7206
7212
7218
7224
7230
7236
7242
7248
7254
7260
7266
7272
7278
7284
7290
7296
7302
7308
7314
7320
7326
7332
7338
7344
7350
7356
7362
7368
7374
7380
7386
7392
7398
7404
7410
7416
7422
7428
7434
7440
7446
7452
7458
7464
7470
7476
7482
7488
7494
7500
7506
7512
7518
7524
7530
7536
7542
7548
7554
7560
7566
7572
7578
7584
7590
7596
7602
7608
7614
7620
7626
7632
7638
7644
7650
7656
7662
7668
7674
7680
7686
7692
7698
7704
7710
7716
7722
7728
7734
7740
7746
7752
7758
7764
7770
7776
7782
7788
7794
7800
7806
7812
7818
7824
7830
7836
7842
7848
7854
7860
7866
7872
7878
7884
7890
7896
7902
7908
7914
7920
7926
7932
7938
7944
7950
7956
7962
7968
7974
7980
7986
7992
7998
8004
8010
8016
8022
8028
8034
8040
8046
8052
8058
8064
8070
8076
8082
8088
8094
8100
8106
8112
8118
8124
8130
8136
8142
8148
8154
8160
8166
8172
8178
8184
8190
8196
8202
8208
8214
8220
8226
8232
8238
8244
8250
8256
8262
8268
8274
8280
8286
8292
8298
8304
8310
8316
8322
8328
8334
8340
8346
8352
8358
8364
8370
8376
8382
8388
8394
8400
8406
8412
8418
8424
8430
8436
8442
8448
8454
8460
8466
8472
8478
8484
8490
8496
8502
8508
8514
8520
8526
8532
8538
8544
8550
8556
8562
8568
8574
8580
8586
8592
8598
8604
8610
8616
8622
8628
8634
8640
8646
8652
8658
8664
8670
8676
8682
8688
8694
8700
8706
8712
8718
8724
8730
8736
8742
8748
8754
8760
8766
8772
8778
8784
8790
8796
8802
8808
8814
8820
8826
8832
8838
8844
8850
8856
8862
8868
8874
8880
8886
8892
8898
8904
8910
8916
8922
8928
8934
8940
8946
8952
8958
8964
8970
8976
8982
8988
8994
9000
9006
9012
9018
9024
9030
9036
9042
9048
9054
9060
9066
9072
9078
9084
9090
9096
9102
9108
9114
9120
9126
9132
9138
9144
9150
9156
9162
9168
9174
9180
9186
9192
9198
9204
9210
9216
9222
9228
9234
9240
9246
9252
9258
9264
9270
9276
9282
9288
9294
9300
9306
9312
9318
9324
9330
9336
9342
9348
9354
9360
9366
9372
9378
9384
9390
9396
9402
9408
9414
9420
9426
9432
9438
9444
9450
9456
9462
9468
9474
9480
9486
9492
9498
9504
9510
9516
9522
9528
9534
9540
9546
9552
9558
9564
9570
9576
9582
9588
9594
9600
9606
9612
9618
9624
9630
9636
9642
9648
9654
9660
9666
9672
9678
9684
9690
9696
9702
9708
9714
9720
9726
9732
9738
9744
9750
9756
9762
9768
9774
9780
9786
9792
9798
9804
9810
9816
9822
9828
9834
9840
9846
9852
9858
9864
9870
9876
9882
9888
9894
9900
9906
9912
9918
9924
9930
9936
9942
9948
9954
9960
9966
9972
9978
9984
9990
9996
10002
10008
10014
10020
10026
10032
10038
10044
10050
10056
10062
10068
10074
10080
10086
10092
10098
10104
10106
10108
10110
10112
10114
10116
10118
10120
10122
10124
10126
10128
10130
10132
10134
10136
10138
10140
10142
10144
10146
10148
10150
10152
10154
10156
10158
10160
10162
10164
10166
10168
10170
10172
10174
10176
10178
10180
10182
10184
10186
10188
10190
10192
10194
10196
10198
10200
10202
10204
10206
10208
10210
10212
10214
10216
10218
10220
10222
10224
10226
10228
10230
10232
10234
10236
10238
10240
10242
10244
10246
10248
10250
10252
10254
10256
10258
10260
10262
10264
10266
10268
10270
10272
10274
10276
10278
10280
10282
10284
10286
10288
10290
10292
10294
10296
10298
10300
10302
10304
10306
10308
10310
10312
10314
10316
10318
10320
10322
10324
10326
10328
10330
10332
10334
10336
10338
10340
10342
10344
10346
10348
10350
10352
10354
10356
10358
10360
10362
10364
10366
10368
10370
10372
10374
10376
10378
10380
10382
10384
10386
10388
10390
10392
10394
10396
10398
10400
10402
10404
10406
10408
10410
10412
10414
10416
10418
10420
10422
10424
10426
10428
10430
10432
10434
10436
10438
10440
10442
10444
10446
10448
10450
10452
10454
10456
10458
10460
10462
10464
10466
10468
10470
10472
10474
10476
10478
10480
10482
10484
10486
10488
10490
10492
10494
10496
10498
10500
10502
10504
10506
10508
10510
10512
10514
10516
10518
10520
10522
10524
10526
10528
10530
10532
10534
10536
10538
10540
10542
10544
10546
10548
10550
10552
10554
10556
10558
10560
10562
10564
10566
10568
10570
10572
10574
10576
10578
10580
10582
10584
10586
10588
10590
10592
10594
10596
10598
10600
10602
10604
10606
10608
10610
10612
10614
10616
10618
10620
10622
10624
10626
10628
10630
10632
10634
10636
10638
10640
10642
10644
10646
10648
10650
10652
10654
10656
10658
10660
10662
10664
10666
10668
10670
10672
10674
10676
10678
10680
10682
10684
10686
10688
10690
10692
10694
10696
10698
10700
10702
10704
10706
10708
10710
10712
10714
10716
10718
10720
10722
10724
10726
10728
10730
10732
10734
10736
10738
10740
10742
10744
10746
10748
10750
10752
10754
10756
10758
10760
10762
10764
10766
10768
10770
10772
10774
10776
10778
10780
10782
10784
10786
10788
10790
10792
10794
10796
10798
10800
10802
10804
10806
10808
10810
10812
10814
10816
10818
10820
10822
10824
10826
10828
10830
10832
10834
10836
10838
10840
10842
10844
10846
10848
10850
10852
10854
10856
10858
10860
10862
10864
10866
10868
10870
10872
10874
10876
10878
10880
10882
10884
10886
10888
10890
10892
10894
10896
10898
10900
10902
10904
10906
10908
10910
10912
10914
10916
10918
10920
10922
10924
10926
10928
10930
10932
10934
10936
10938
10940
10942
10944
10946
10948
10950
10952
10954
10956
10958
10960
10962
10964
10966
10968
10970
10972
10974
10976
10978
10980
10982
10984
10986
10988
10990
10992
10994
10996
10998
11000
11002
11004
11006
11008
11010
11012
11014
11016
11018
11020
11022
11024
11026
11028
11030
11032
11034
11036
11038
11040
11042
11044
11046
11048
11050
11052
11054
11056
11058
11060
11062
11064
11066
11068
11070
11072
11074
11076
11078
11080
11082
11084
11086
11088
11090
11092
11094
11096
11098
11100
11102
11104
11106
11108
11110
11112
11114
11116
11118
11120
11122
11124
11126
11128
11130
11132
11134
11136
11138
11140
11142
11144
11146
11148
11150
11152
11154
11156
11158
11160
11162
11164
11166
11168
11170
11172
11174
11176
11178
11180
11182
11184
11186
11188
11190
11192
11194
11196
11198
11200
11202
11204
11206
11208
11210
11212
11214
11216
11218
11220
11222
11224
11226
11228
11230
11232
11234
11236
11238
11240
11242
11244
11246
11248
11250
11252
11254
11256
11258
11260
11262
11264
11266
11268
11270
11272
11274
11276
11278
11280
11282
11284
11286
11288
11290
11292
11294
11296
11298
11300
11302
11304
11306
11308
11310
11312
11314
11316
11318
11320
11322
11324
11326
11328
11330
11332
11334
11336
11338
11340
11342
11344
11346
11348
11350
11352
11354
11356
11358
11360
11362
11364
11366
11368
11370
11372
11374
11376
11378
11380
11382
11384
11386
11388
11390
11392
11394
11396
11398
11400
11402
11404
11406
11408
11410
11412
11414
11416
11418
11420
11422
11424
11426
11428
11430
11432
11434
11436
11438
11440
11442
11444
11446
11448
11450
11452
11454
11456
11458
11460
11462
11464
11466
11468
11470
11472
11474
11476
11478
11480
11482
11484
11486
11488
11490
11492
11494
11496
11498
11500
11502
11504
11506
11508
11510
11512
11514
11516
11518
11520
11522
11524
11526
11528
11530
11532
11534
11536
11538
11540
11542
11544
11546
11548
11550
11552
11554
11556
11558
11560
11562
11564
11566
11568
11570
11572
11574
11576
11578
11580
11582
11584
11586
11588
11590
11592
11594
11596
11598
11600
11602
11604
11606
11608
11610
11612
11614
11616
11618
11620
11622
11624
11626
11628
11630
11632
11634
11636
11638
11640
11642
11644
11646
11648
11650
11652
11654
11656
11658
11660
11662
11664
11666
11668
11670
11672
11674
11676
11678
11680
11682
11684
11686
11688
11690
11692
11694
11696
11698
11700
11702
11704
11706
11708
11710
11712
11714
11716
11718
11720
11722
11724
11726
11728
11730
11732
11734
11736
11738
11740
11742
11744
11746
11748
11750
11752
11754
11756
11758
11760
11762
11764
11766
11768
11770
11772
11774
11776
11778
11780
11782
11784
11786
11788
11790
11792
11794
11796
11798
11800
11802
11804
11806
11808
11810
11812
11814
11816
11818
11820
11822
11824
11826
11828
11830
11832
11834
11836
11838
11840
11842
11844
11846
11848
11850
11852
11854
11856
11858
11860
11862
11864
11866
11868
11870
11872
11874
11876
11878
11880
11882
11884
11886
11888
11890
11892
11894
11896
11898
11900
11902
11904
11906
11908
11910
11912
11914
11916
11918
11920
11922
11924
11926
11928
11930
11932
11934
11936
11938
11940
11942
11944
11946
11948
11950
11952
11954
11956
11958
11960
11962
11964
11966
11968
11970
11972
11974
11976
11978
11980
11982
11984
11986
11988
11990
11992
11994
11996
11998
12000
12002
12004
12006
12008
12010
12012
12014
12016
12018
12020
12022
12024
12026
12028
12030
12032
12034
12036
12038
12040
12042
12044
12046
12048
12050
12052
12054
12056
12058
12060
12062
12064
12066
12068
12070
12072
12074
12076
12078
12080
12082
12084
12086
12088
12090
12092
12094
12096
12098
12100
12102
12104
12106
12108
12110
12112
12114
12116
12118
12120
12122
12124
12126
12128
12130
12132
12134
12136
12138
12140
12142
12144
12146
12148
12150
12152
12154
12156
12158
12160
12162
12164
12166
12168
12170
12172
12174
12176
12178
12180
12182
12184
12186
12188
12190
12192
12194
12196
12198
12200
12202
12204
12206
12208
12210
12212
12214
12216
12218
12220
12222
12224
12226
12228
12230
12232
12234
12236
12238
12240
12242
12244
12246
12248
12250
12252
12254
12256
12258
12260
12262
12264
12266
12268
12270
12272
12274
12276
12278
12280
12282
12284
12286
12288
12290
12292
12294
12296
12298
12300
12302
12304
12306
12308
12310
12312
12314
12316
12318
12320
12322
12324
12326
12328
12330
12332
12334
12336
12338
12340
12342
12344
12346
12348
12350
12352
12354
12356
12358
12360
12362
12364
12366
12368
12370
12372
12374
12376
12378
12380
12382
12384
12386
12388
12390
12392
12394
12396
12398
12400
12402
12404
12406
12408
12410
12412
12414
12416
12418
12420
12422
12424
12426
12428
12430
12432
12434
12436
12438
12440
12442
12444
12446
12448
12450
12452
12454
12456
12458
12460
12462
12464
12466
12468
12470
12472
12474
12476
12478
12480
12482
12484
12486
12488
12490
12492
12494
12496
12498
12500
12502
12504
12506
12508
12510
12512
12514
12516
12518
12520
12522
12524
12526
12528
12530
12532
12534
12536
12538
12540
12542
12544
12546
12548
12550
12552
12554
12556
12558
12560
12562
12564
12566
12568
12570
12572
12574
12576
12578
12580
12582
12584
12586
12588
12590
12592
12594
12596
12598
12600
12602
12604
12606
12608
12610
12612
12614
12616
12618
12620
12622
12624
12626
12628
12630
12632
12634
12636
12638
12640
12642
12644
12646
12648
12650
12652
12654
12656
12658
12660
12662
12664
12666
12668
12670
12672
12674
12676
12678
12680
12682
12684
12686
12688
12690
12692
12694
12696
12698
12700
12702
12704
12706
12708
12710
12712
12714
12716
12718
12720
12722
12724
12726
12728
12730
12732
12734
12736
12738
12740
12742
12744
12746
12748
12750
12752
12754
12756
12758
12760
12762
12764
12766
12768
12770
12772
12774
12776
12778
12780
12782
12784
12786
12788
12790
12792
12794
12796
12798
12800
12802
12804
12806
12808
12810
12812
12814
12816
12818
12820
12822
12824
12826
12828
12830
12832
12834
12836
12838
12840
12842
12844
12846
12848
12850
12852
12854
12856
12858
12860
12862
12864
12866
12868
12870
12872
12874
12876
12878
12880
12882
12884
12886
12888
12890
12892
12894
12896
12898
12900
12902
12904
12906
12908
12910
12912
12914
12916
12918
12920
12922
12924
12926
12928
12930
12932
12934
12936
12938
12940
12942
12944
12946
12948
12950
12952
12954
12956
12958
12960
12962
12964
12966
12968
12970
12972
12974
12976
12978
12980
12982
12984
12986
12988
12990
12992
12994
12996
12998
13000
13002
13004
13006
13008
13010
13012
13014
13016
13018
13020
13022
13024
13026
13028
13030
13032
13034
13036
13038
13040
13042
13044
13046
13048
13050
13052
13054
13056
13058
13060
13062
13064
13066
13068
13070
13072
13074
13076
13078
13080
13082
13084
13086
13088
13090
13092
13094
13096
13098
13100
13102
13104
13106
13108
13110
13112
13114
13116
13118
13120
13122
13124
13126
13128
13130
13132
13134
13136
13138
13140
13142
13144
13146
13148
13150
13152
13154
13156
13158
13160
13162
13164
13166
13168
13170
13172
13174
13176
13178
13180
13182
13184
13186
13188
13190
13192
13194
13196
13198
13200
13202
13204
13206
13208
13210
13212
13214
13216
13218
13220
13222
13224
13226
13228
13230
13232
13234
13236
13238
13240
13242
13244
13246
13248
13250
13252
13254
13256
13258
13260
13262
13264
13266
13268
13270
13272
13274
13276
13278
13280
13282
13284
13286
13288
13290
13292
13294
13296
13298
13300
13302
13304
13306
13308
13310
13312
13314
13316
13318
13320
13322
13324
13326
13328
13330
13332
13334
13336
13338
13340
13342
13344
13346
13348
13350
13352
13354
13356
13358
13360
13362
13364
13366
13368
13370
13372
13374
13376
13378
13380
13382
13384
13386
13388
13390
13392
13394
13396
13398
13400
13402
13404
13406
13408
13410
13412
13414
13416
13418
13420
13422
13424
13426
13428
13430
13432
13434
13436
13438
13440
13442
13444
13446
13448
13450
13452
13454
13456
13458
13460
13462
13464
13466
13468
13470
13472
13474
13476
13478
13480
13482
13484
13486
13488
13490
13492
13494
13496
13498
13500
13502
13504
13506
13508
13510
13512
13514
13516
13518
13520
13522
13524
13526
13528
13530
13532
13534
13536
13538
13540
13542
13544
13546
13548
13550
13552
13554
13556
13558
13560
13562
13564
13566
13568
13570
13572
13574
13576
13578
13580
13582
13584
13586
13588
13590
13592
13594
13596
13598
13600
13602
13604
13606
13608
13610
13612
13614
13616
13618
13620
13622
13624
13626
13628
13630
13632
13634
13636
13638
13640
13642
13644
13646
13648
13650
13652
13654
13656
13658
13660
13662
13664
13666
13668
13670
13672
13674
13676
13678
13680
13682
13684
13686
13688
13690
13692
13694
13696
13698
13700
13702
13704
13706
13708
13710
13712
13714
13716
13718
13720
13722
13724
13726
13728
13730
13732
13734
13736
13738
13740
13742
13744
13746
13748
13750
13752
13754
13756
13758
13760
13762
13764
13766
13768
13770
13772
13774
13776
13778
13780
13782
13784
13786
13788
13790
13792
13794
13796
13798
13800
13802
13804
13806
13808
13810
13812
13814
13816
13818
13820
13822
13824
13826
13828
13830
13832
13834
13836
13838
13840
13842
13844
13846
13848
13850
13852
13854
13856
13858
13860
13862
13864
13866
13868
13870
13872
13874
13876
13878
13880
13882
13884
13886
13888
13890
13892
13894
13896
13898
13900
13902
13904
13906
13908
13910
13912
13914
13916
13918
13920
13922
13924
13926
13928
13930
13932
13934
13936
13938
13940
13942
13944
13946
13948
13950
13952
13954
13956
13958
13960
13962
13964
13966
13968
13970
13972
13974
13976
13978
13980
13982
13984
13986
13988
13990
13992
13994
13996
13998
14000
14002
14004
14006
14008
14010
14012
14014
14016
14018
14020
14022
14024
14026
14028
14030
14032
14034
14036
14038
14040
14042
14044
14046
14048
14050
14052
14054
14056
14058
14060
14062
14064
14066
14068
14070
14072
14074
14076
14078
14080
14082
14084
14086
14088
14090
14092
14094
14096
14098
14100
14102
14104
14106
14108
14110
14112
14114
14116
14118
14120
14122
14124
14126
14128
14130
14132
14134
14136
14138
14140
14142
14144
14146
14148
14150
14152
14154
14156
14158
14160
14162
14164
14166
14168
14170
14172
14174
14176
14178
14180
14182
14184
14186
14188
14190
14192
14194
14196
14198
14200
14202
14204
14206
14208
14210
14212
14214
14216
14218
14220
14222
14224
14226
14228
14230
14232
14234
14236
14238
14240
14242
14244
14246
14248
14250
14252
14254
14256
14258
14260
14262
14264
14266
14268
14270
14272
14274
14276
14278
14280
14282
14284
14286
14288
14290
14292
14294
14296
14298
14300
14302
14304
14306
14308
14310
14312
14314
14316
14318
14320
14322
14324
14326
14328
14330
14332
14334
14336
14338
14340
14342
14344
14346
14348
14350
14352
14354
14356
14358
14360
14362
14364
14366
14368
14370
14372
14374
14376
14378
14380
14382
14384
14386
14388
14390
14392
14394
14396
14398
14400
14402
14404
14406
14408
14410
14412
14414
14416
14418
14420
14422
14424
14426
14428
14430
14432
14434
14436
14438
14440
14442
14444
14446
14448
14450
14452
14454
14456
14458
14460
14462
14464
14466
14468
14470
14472
14474
14476
14478
14480
14482
14484
14486
14488
14490
14492
14494
14496
14498
14500
14502
14504
14506
14508
14510
14512
14514
14516
14518
14520
14522
14524
14526
14528
14530
14532
14534
14536
14538
14540
14542
14544
14546
14548
14550
14552
14554
14556
14558
14560
14562
14564
14566
14568
14570
14572
14574
14576
14578
14580
14582
14584
14586
14588
14590
14592
14594
14596
14598
14600
14602
14604
14606
14608
14610
14612
14614
14616
14618
14620
14622
14624
14626
14628
14630
14632
14634
14636
14638
14640
14642
14644
14646
14648
14650
14652
14654
14656
14658
14660
14662
14664
14666
14668
14670
14672
14674
14676
14678
14680
14682
14684
14686
14688
14690
14692
14694
14696
14698
14700
14702
14704
14706
14708
14710
14712
14714
14716
14718
14720
14722
14724
14726
14728
14730
14732
14734
14736
14738
14740
14742
14744
14746
14748
14750
14752
14754
14756
14758
14760
14762
14764
14766
14768
14770
14772
14774
14776
14778
14780
14782
14784
14786
14788
14790
14792
14794
14796
14798
14800
14802
14804
14806
14808
14810
14812
14814
14816
14818
14820
14822
14824
14826
14828
14830
14832
14834
14836
14838
14840
14842
14844
14846
14848
14850
14852
14854
14856
14858
14860
14862
14864
14866
14868
14870
14872
14874
14876
14878
14880
14882
14884
14886
14888
14890
14892
14894
14896
14898
14900
14902
14904
14906
14908
14910
14912
14914
14916
14918
14920
14922
14924
14926
14928
14930
14932
14934
14936
14938
14940
14942
14944
14946
14948
14950
14952
14954
14956
14958
14960
14962
14964
14966
14968
14970
14972
14974
14976
14978
14980
14982
14984
14986
14988
14990
14992
14994
14996
14998
15000
15002
15004
15006
15008
15010
15012
15014
15016
15018
15020
15022
15024
15026
15028
15030
15032
15034
15036
15038
15040
15042
15044
15046
15048
15050
15052
15054
15056
15058
15060
15062
15064
15066
15068
15070
15072
15074
15076
15078
15080
15082
15084
15086
15088
15090
15092
15094
15096
15098
15100
15102
15104
15106
15108
15110
15112
15114
15116
15118
15120
15122
15124
15126
15128
15130
15132
15134
15136
15138
15140
15142
15144
15146
15148
15150
15152
15154
15156
15158
15160
15162
15164
15166
15168
15170
15172
15174
15176
15178
15180
15182
15184
15186
15188
15190
15192
15194
15196
15198
15200
15202
15204
15206
15208
15210
15212
15214
15216
15218
15220
15222
15224
15226
15228
15230
15232
15234
15236
15238
15240
15242
15244
15246
15248
15250
15252
15254
15256
15258
15260
15262
15264
15266
15268
15270
15272
15274
15276
15278
15280
15282
15284
15286
15288
15290
15292
15294
15296
15298
15300
15302
15304
15306
15308
15310
15312
15314
15316
15318
15320
15322
15324
15326
15328
15330
15332
15334
15336
15338
15340
15342
15344
15346
15348
15350
15352
15354
15356
15358
15360
15362
15364
15366
15368
15370
15372
15374
15376
15378
15380
15382
15384
15386
15388
15390
15392
15394
15396
15398
15400
15402
15404
15406
15408
15410
15412
15414
15416
15418
15420
15422
15424
15426
15428
15430
15432
15434
15436
15438
15440
15442
15444
15446
15448
15450
15452
15454
15456
15458
15460
15462
15464
15466
15468
15470
15472
15474
15476
15478
15480
15482
15484
15486
15488
15490
15492
15494
15496
15498
15500
15502
15504
15506
15508
15510
15512
15514
15516
15518
15520
15522
15524
15526
15528
15530
15532
15534
15536
15538
15540
15542
15544
15546
15548
15550
15552
15554
15556
15558
15560
15562
15564
15566
15568
15570
15572
15574
15576
15578
15580
15582
15584
15586
15588
15590
15592
15594
15596
15598
15600
15602
15604
15606
15608
15610
15612
15614
15616
15618
15620
15622
15624
15626
15628
15630
15632
15634
15636
15638
15640
15642
15644
15646
15648
15650
15652
15654
15656
15658
15660
15662
15664
15666
15668
15670
15672
15674
15676
15678
15680
15682
15684
15686
15688
15690
15692
15694
15696
15698
15700
15702
15704
15706
15708
15710
15712
15714
15716
15718
15720
15722
15724
15726
15728
15730
15732
15734
15736
15738
15740
15742
15744
15746
15748
15750
15752
15754
15756
15758
15760
15762
15764
15766
15768
15770
15772
15774
15776
15778
15780
15782
15784
15786
15788
15790
15792
15794
15796
15798
15800
15802
15804
15806
15808
15810
15812
15814
15816
15818
15820
15822
15824
15826
15828
15830
15832
15834
15836
15838
15840
15842
15844
15846
15848
15850
15852
15854
15856
15858
15860
15862
15864
15866
15868
15870
15872
15874
15876
15878
15880
15882
15884
15886
15888
15890
15892
15894
15896
15898
15900
15902
15904
15906
15908
15910
15912
15914
15916
15918
15920
15922
15924
15926
15928
15930
15932
15934
15936
15938
15940
15942
15944
15946
15948
15950
15952
15954
15956
15958
15960
15962
15964
15966
15968
15970
15972
15974
15976
15978
15980
15982
15984
15986
15988
15990
15992
15994
15996
15998
16000
16002
16004
16006
16008
16010
16012
16014
16016
16018
16020
16022
16024
16026
16028
16030
16032
16034
16036
16038
16040
16042
16044
16046
16048
16050
16052
16054
16056
16058
16060
16062
16064
16066
16068
16070
16072
16074
16076
16078
16080
16082
16084
16086
16088
16090
16092
16094
16096
16098
16100
16102
16104
16106
16108
16110
16112
16114
16116
16118
16120
16122
16124
16126
16128
16130
16132
16134
16136
16138
16140
16142
16144
16146
16148
16150
16152
16154
16156
16158
16160
16162
16164
16166
16168
16170
16172
16174
16176
16178
16180
16182
16184
16186
16188
16190
16192
16194
16196
16198
16200
16202
16204
16206
16208
16210
16212
16214
16216
16218
16220
16222
16224
16226
16228
16230
16232
16234
16236
16238
16240
16242
16244
16246
16248
16250
16252
16254
16256
16258
16260
16262
16264
16266
16268
16270
16272
16274
16276
16278
16280
16282
16284
16286
16288
16290
16292
16294
16296
16298
16300
16302
16304
16306
16308
16310
16312
16314
16316
16318
16320
16322
16324
16326
16328
16330
16332
16334
16336
16338
16340
16342
16344
16346
16348
16350
16352
16354
16356
16358
16360
16362
16364
16366
16368
16370
16372
16374
16376
16378
16380
16382
16384
16386
16388
16390
16392
16394
16396
16398
16400
16402
16404
16406
16408
16410
16412
16414
16416
16418
16420
16422
16424
16426
16428
16430
16432
16434
16436
16438
16440
16442
16444
16446
16448
16450
16452
16454
16456
16458
16460
16462
16464
16466
16468
16470
16472
16474
16476
16478
16480
16482
16484
16486
16488
16490
16492
16494
16496
16498
16500
16502
16504
16506
16508
16510
16512
16514
16516
16518
16520
16522
16524
16526
16528
16530
16532
16534
16536
16538
16540
16542
16544
16546
16548
16550
16552
16554
16556
16558
16560
16562
16564
16566
16568
16570
16572
16574
16576
16578
16580
16582
16584
16586
16588
16590
16592
16594
16596
16598
16600
16602
16604
16606
16608
16610
16612
16614
16616
16618
16620
16622
16624
16626
16628
16630
16632
16634
16636
16638
16640
16642
16644
16646
16648
16650
16652
16654
16656
16658
16660
16662
16664
16666
16668
16670
16672
16674
16676
16678
16680
16682
16684
16686
16688
16690
16692
16694
16696
16698
16700
16702
16704
16706
16708
16710
16712
16714
16716
16718
16720
16722
16724
16726
16728
16730
16732
16734
16736
16738
16740
16742
16744
16746
16748
16750
16752
16754
16756
16758
16760
16762
16764
16766
16768
16770
16772
16774
16776
16778
16780
16782
16784
16786
16788
16790
16792
16794
16796
16798
16800
16802
16804
16806
16808
16810
16812
16814
16816
16818
16820
16822
16824
16826
16828
16830
16832
16834
16836
16838
16840
16842
16844
16846
16848
16850
16852
16854
16856
16858
16860
16862
16864
16866
16868
16870
16872
16874
16876
16878
16880
16882
16884
16886
16888
16890
16892
16894
16896
16898
16900
16902
16904
16906
16908
16910
16912
16914
16916
16918
16920
16922
16924
16926
16928
16930
16932
16934
16936
16938
16940
16942
16944
16946
16948
16950
16952
16954
16956
16958
16960
16962
16964
16966
16968
16970
16972
16974
16976
16978
16980
16982
16984
16986
16988
16990
16992
16994
16996
16998
17000
17002
17004
17006
17008
17010
17012
17014
17016
17018
17020
17022
17024
17026
17028
17030
17032
17034
17036
17038
17040
17042
17044
17046
17048
17050
17052
17054
17056
17058
17060
17062
17064
17066
17068
17070
17072
17074
17076
17078
17080
17082
17084
17086
17088
17090
17092
17094
17096
17098
17100
17102
17104
17106
17108
17110
17112
17114
17116
17118
17120
17122
17124
17126
17128
17130
17132
17134
17136
17138
17140
17142
17144
17146
17148
17150
17152
17154
17156
17158
17160
17162
17164
17166
17168
17170
17172
17174
17176
17178
17180
17182
17184
17186
17188
17190
17192
17194
17196
17198
17200
17202
17204
17206
17208
17210
17212
17214
17216
17218
17220
17222
17224
17226
17228
17230
17232
17234
17236
17238
17240
17242
17244
17246
17248
17250
17252
17254
17256
17258
17260
17262
17264
17266
17268
17270
17272
17274
17276
17278
17280
17282
17284
17286
17288
17290
17292
17294
17296
17298
17300
17302
17304
17306
17308
17310
17312
17314
17316
17318
17320
17322
17324
17326
17328
17330
17332
17334
17336
17338
17340
17342
17344
17346
17348
17350
17352
17354
17356
17358
17360
17362
17364
17366
17368
17370
17372
17374
17376
17378
17380
17382
17384
17386
17388
17390
17392
17394
17396
17398
17400
17402
17404
17406
17408
17410
17412
17414
17416
17418
17420
17422
17424
17426
17428
17430
17432
17434
17436
17438
17440
17442
17444
17446
17448
17450
17452
17454
17456
17458
17460
17462
17464
17466
17468
17470
17472
17474
17476
17478
17480
17482
17484
17486
17488
17490
17492
17494
17496
17498
17500
17502
17504
17506
17508
17510
17512
17514
17516
17518
17520
17522
17524
17526
17528
17530
17532
17534
17536
17538
17540
17542
17544
17546
17548
17550
17552
17554
17556
17558
17560
17562
17564
17566
17568
17570
17572
17574
17576
17578
17580
17582
17584
17586
17588
17590
17592
17594
17596
17598
17600
17602
17604
17606
17608
17610
17612
17614
17616
17618
17620
17622
17624
17626
17628
17630
17632
17634
17636
17638
17640
17642
17644
17646
17648
17650
17652
17654
17656
17658
17660
17662
17664
17666
17668
17670
17672
17674
17676
17678
17680
17682
17684
17686
17688
17690
17692
17694
17696
17698
17700
17702
17704
17706
17708
17710
17712
17714
17716
17718
17720
17722
17724
17726
17728
17730
17732
17734
17736
17738
17740
17742
17744
17746
17748
17750
17752
17754
17756
17758
17760
17762
17764
17766
17768
17770
17772
17774
17776
17778
17780
17782
17784
17786
17788
17790
17792
17794
17796
17798
17800
17802
17804
17806
17808
17810
17812
17814
17816
17818
17820
17822
17824
17826
17828
17830
17832
17834
17836
17838
17840
17842
17844
17846
17848
17850
17852
17854
17856
17858
17860
17862
17864
17866
17868
17870
17872
17874
17876
17878
17880
17882
17884
17886
17888
17890
17892
17894
17896
17898
17900
17902
17904
17906
17908
17910
17912
17914
17916
17918
17920
17922
17924
17926
17928
17930
17932
17934
17936
17938
17940
17942
17944
17946
17948
17950
17952
17954
17956
17958
17960
17962
17964
17966
17968
17970
17972
17974
17976
17978
17980
17982
17984
17986
17988
17990
17992
17994
17996
17998
18000
18002
18004
18006
18008
18010
18012
18014
18016
18018
18020
18022
18024
18026
18028
18030
18032
18034
18036
18038
18040
18042
18044
18046
18048
18050
18052
18054
18056
18058
18060
18062
18064
18066
18068
18070
18072
18074
18076
18078
18080
18082
18084
18086
18088
18090
18092
18094
18096
18098
18100
18102
18104
18106
18108
18110
18112
18114
18116
18118
18120
18122
18124
18126
18128
18130
18132
18134
18136
18138
18140
18142
18144
18146
18148
18150
18152
18154
18156
18158
18160
18162
18164
18166
18168
18170
18172
18174
18176
18178
18180
18182
18184
18186
18188
18190
18192
18194
18196
18198
18200
18202
18204
18206
18208
18210
18212
18214
18216
18218
18220
18222
18224
18226
18228
18230
18232
18234
18236
18238
18240
18242
18244
18246
18248
18250
18252
18254
18256
18258
18260
18262
18264
18266
18268
18270
18272
18274
18276
18278
18280
18282
18284
18286
18288
18290
18292
18294
18296
18298
18300
18302
18304
18306
18308
18310
18312
18314
18316
18318
18320
18322
18324
18326
18328
18330
18332
18334
18336
18338
18340
18342
18344
18346
18348
18350
18352
18354
18356
18358
18360
18362
18364
18366
18368
18370
18372
18374
18376
18378
18380
18382
18384
18386
18388
18390
18392
18394
18396
18398
18400
18402
18404
18406
18408
18410
18412
18414
18416
18418
18420
18422
18424
18426
18428
18430
18432
18434
18436
18438
18440
18442
18444
18446
18448
18450
18452
18454
18456
18458
18460
18462
18464
18466
18468
18470
18472
18474
18476
18478
18480
18482
18484
18486
18488
18490
18492
18494
18496
18498
18500
18502
18504
18506
18508
18510
18512
18514
18516
18518
18520
18522
18524
18526
18528
18530
18532
18534
18536
18538
18540
18542
18544
18546
18548
18550
18552
18554
18556
18558
18560
18562
18564
18566
18568
18570
18572
18574
18576
18578
18580
18582
18584
18586
18588
18590
18592
18594
18596
18598
18600
18602
18604
18606
18608
18610
18612
18614
18616
18618
18620
18622
18624
18626
18628
18630
18632
18634
18636
18638
18640
18642
18644
18646
18648
18650
18652
18654
18656
18658
18660
18662
18664
18666
18668
18670
18672
18674
18676
18678
18680
18682
18684
18686
18688
18690
18692
18694
18696
18698
18700
18702
18704
18706
18708
18710
18712
18714
18716
18718
18720
18722
18724
18726
18728
18730
18732
18734
18736
18738
18740
18742
18744
18746
18748
18750
18752
18754
18756
18758
18760
18762
18764
18766
18768
18770
18772
18774
18776
18778
18780
18782
18784
18786
18788
18790
18792
18794
18796
18798
18800
18802
18804
18806
18808
18810
18812
18814
18816
18818
18820
18822
18824
18826
18828
18830
18832
18834
18836
18838
18840
18842
18844
18846
18848
18850
18852
18854
18856
18858
18860
18862
18864
18866
18868
18870
18872
18874
18876
18878
18880
18882
18884
18886
18888
18890
18892
18894
18896
18898
18900
18902
18904
18906
18908
18910
18912
18914
18916
18918
18920
18922
18924
18926
18928
18930
18932
18934
18936
18938
18940
18942
18944
18946
18948
18950
18952
18954
18956
18958
18960
18962
18964
18966
18968
18970
18972
18974
18976
18978
18980
18982
18984
18986
18988
18990
18992
18994
18996
18998
19000
19002
19004
19006
19008
19010
19012
19014
19016
19018
19020
19022
19024
19026
19028
19030
19032
19034
19036
19038
19040
19042
19044
19046
19048
19050
19052
19054
19056
19058
19060
19062
19064
19066
19068
19070
19072
19074
19076
19078
19080
19082
19084
19086
19088
19090
19092
19094
19096
19098
19100
19102
19104
19106
19108
19110
19112
19114
19116
19118
19120
19122
19124
19126
19128
19130
19132
19134
19136
19138
19140
19142
19144
19146
19148
19150
19152
19154
19156
19158
19160
19162
19164
19166
19168
19170
19172
19174
19176
19178
19180
19182
19184
19186
19188
19190
19192
19194
19196
19198
19200
19202
19204
19206
19208
19210
19212
19214
19216
19218
19220
19222
19224
19226
19228
19230
19232
19234
19236
19238
19240
19242
19244
19246
19248
19250
19252
19254
19256
19258
19260
19262
19264
19266
19268
19270
19272
19274
19276
19278
19280
19282
19284
19286
19288
19290
19292
19294
19296
19298
19300
19302
19304
19306
19308
19310
19312
19314
19316
19318
19320
19322
19324
19326
19328
19330
19332
19334
19336
19338
19340
19342
19344
19346
19348
19350
19352
19354
19356
19358
19360
19362
19364
19366
19368
19370
19372
19374
19376
19378
19380
19382
19384
19386
19388
19390
19392
19394
19396
19398
19400
19402
19404
19406
19408
19410
19412
19414
19416
19418
19420
19422
19424
19426
19428
19430
19432
19434
19436
19438
19440
19442
19444
19446
19448
19450
19452
19454
19456
19458
19460
19462
19464
19466
19468
19470
19472
19474
19476
19478
19480
19482
19484
19486
19488
19490
19492
19494
19496
19498
19500
19502
19504
19506
19508
19510
19512
19514
19516
19518
19520
19522
19524
19526
19528
19530
19532
19534
19536
19538
19540
19542
19544
19546
19548
19550
19552
19554
19556
19558
19560
19562
19564
19566
19568
19570
19572
19574
19576
19578
19580
19582
19584
19586
19588
19590
19592
19594
19596
19598
19600
19602
19604
19606
19608
19610
19612
19614
19616
19618
19620
19622
19624
19626
19628
19630
19632
19634
19636
19638
19640
19642
19644
19646
19648
19650
19652
19654
19656
19658
19660
19662
19664
19666
19668
19670
19672
19674
19676
19678
19680
19682
19684
19686
19688
19690
19692
19694
19696
19698
19700
19702
19704
19706
19708
19710
19712
19714
19716
19718
19720
19722
19724
19726
19728
19730
19732
19734
19736
19738
19740
19742
19744
19746
19748
19750
19752
19754
19756
19758
19760
19762
19764
19766
19768
19770
19772
19774
19776
19778
19780
19782
19784
19786
19788
19790
19792
19794
19796
19798
19800
19802
19804
19806
19808
19810
19812
19814
19816
19818
19820
19822
19824
19826
19828
19830
19832
19834
19836
19838
19840
19842
19844
19846
19848
19850
19852
19854
19856
19858
19860
19862
19864
19866
19868
19870
19872
19874
19876
19878
19880
19882
19884
19886
19888
19890
19892
19894
19896
19898
19900
19902
19904
19906
19908
19910
19912
19914
19916
19918
19920
19922
19924
19926
19928
19930
19932
19934
19936
19938
19940
19942
19944
19946
19948
19950
19952
19954
19956
19958
19960
19962
19964
19966
19968
19970
19972
19974
19976
19978
19980
19982
19984
19986
19988
19990
19992
19994
19996
19998
20000
20002
20004
20006
20008
20010
20012
20014
20016
20018
20020
20022
20024
20026
20028
20030
20032
20034
20036
20038
20040
20042
20044
20046
20048
20050
20052
20054
20056
20058
20060
20062
20064
20066
20068
20070
20072
20074
20076
20078
20080
20082
20084
20086
20088
20090
20092
20094
20096
20098
20100
20102
20104
20106
20108
20110
20112
20114
20116
20118
20120
20122
20124
20126
20128
20130
20132
20134
20136
20138
20140
20142
20144
20146
20148
20150
20152
20154
20156
20158
20160
20162
20164
20166
20168
20170
20172
20174
20176
20178
20180
20182
20184
20186
20188
20190
20192
20194
20196
20198
20200
20202
20204
20206
20208
20210
20212
20214
20216
20218
20220
20222
20224
20226
20228
20230
20232
20234
20236
20238
20240
20242
20244
20246
20248
20250
20252
20254
20256
20258
20260
20262
20264
20266
20268
20270
20272
20274
20276
20278
20280
20282
20284
20286
20288
20290
20292
20294
20296
20298
20300
20302
20304
20306
20308
20310
20312
20314
20316
20318
20320
20322
20324
20326
20328
20330
20332
20334
20336
20338
20340
20342
20344
20346
20348
20350
20352
20354
20356
20358
20360
20362
20364
20366
20368
20370
20372
20374
20376
20378
20380
20382
20384
20386
20388
20390
20392
20394
20396
20398
20400
20402
20404
20406
20408
20410
20412
20414
20416
20418
20420
20422
20424
20426
20428
20430
20432
20434
20436
20438
20440
20442
20444
20446
20448
20450
20452
20454
20456
20458
20460
20462
20464
20466
20468
20470
20472
20474
20476
20478
20480
20482
20484
20486
20488
20490
20492
20494
20496
20498
20500
20502
20504
20506
20508
20510
20512
20514
20516
20518
20520
20522
20524
20526
20528
20530
20532
20534
20536
20538
20540
20542
20544
20546
20548
20550
20552
20554
20556
20558
20560
20562
20564
20566
20568
20570
20572
20574
20576
20578
20580
20582
20584
20586
20588
20590
20592
20594
20596
20598
20600
20602
20604
20606
20608
20610
20612
20614
20616
20618
20620
20622
20624
20626
20628
20630
20632
20634
20636
20638
20640
20642
20644
20646
20648
20650
20652
20654
20656
20658
20660
20662
20664
20666
20668
20670
20672
20674
20676
20678
20680
20682
20684
20686
20688
20690
20692
20694
20696
20698
20700
20702
20704
20706
20708
20710
20712
20714
20716
20718
20720
20722
20724
20726
20728
20730
20732
20734
20736
20738
20740
20742
20744
20746
20748
20750
20752
20754
20756
20758
20760
20762
20764
20766
20768
20770
20772
20774
20776
20778
20780
20782
20784
20786
20788
20790
20792
20794
20796
20798
20800
20802
20804
20806
20808
20810
20812
20814
20816
20818
20820
20822
20824
20826
20828
20830
20832
20834
20836
20838
20840
20842
20844
20846
20848
20850
20852
20854
20856
20858
20860
20862
20864
20866
20868
20870
20872
20874
20876
20878
20880
20882
20884
20886
20888
20890
20892
20894
20896
20898
20900
20902
20904
20906
20908
20910
20912
20914
20916
20918
20920
20922
20924
20926
20928
20930
20932
20934
20936
20938
20940
20942
20944
20946
20948
20950
20952
20954
20956
20958
20960
20962
20964
20966
20968
20970
20972
20974
20976
20978
20980
20982
20984
20986
20988
20990
20992
20994
20996
20998
21000
21002
21004
21006
21008
21010
21012
21014
21016
21018
21020
21022
21024
21026
21028
21030
21032
21034
21036
21038
21040
21042
21044
21046
21048
21050
21052
21054
21056
21058
21060
21062
21064
21066
21068
21070
21072
21074
21076
21078
21080
21082
21084
21086
21088
21090
21092
21094
21096
21098
21100
21102
21104
21106
21108
21110
21112
21114
21116
21118
21120
21122
21124
21126
21128
21130
21132
21134
21136
21138
21140
21142
21144
21146
21148
21150
21152
21154
21156
21158
21160
21162
21164
21166
21168
21170
21172
21174
21176
21178
21180
21182
21184
21186
21188
21190
21192
21194
21196
21198
21200
21202
21204
21206
21208
21210
21212
21214
21216
21218
21220
21222
21224
21226
21228
21230
21232
21234
21236
21238
21240
21242
21244
21246
21248
21250
21252
21254
21256
21258
21260
21262
21264
21266
21268
21270
21272
21274
21276
21278
21280
21282
21284
21286
21288
21290
21292
21294
21296
21298
21300
21302
21304
21306
21308
21310
21312
21314
21316
21318
21320
21322
21324
21326
21328
21330
21332
21334
21336
21338
21340
21342
21344
21346
21348
21350
21352
21354
21356
21358
21360
21362
21364
21366
21368
21370
21372
21374
21376
21378
21380
21382
21384
21386
21388
21390
21392
21394
21396
21398
21400
21402
21404
21406
21408
21410
21412
21414
21416
21418
21420
21422
21424
21426
21428
21430
21432
21434
21436
21438
21440
21442
21444
21446
21448
21450
21452
21454
21456
21458
21460
21462
21464
21466
21468
21470
21472
21474
21476
21478
21480
21482
21484
21486
21488
21490
21492
21494
21496
21498
21500
21502
21504
21506
21508
21510
21512
21514
21516
21518
21520
21522
21524
21526
21528
21530
21532
21534
21536
21538
21540
21542
21544
21546
21548
21550
21552
21554
21556
21558
21560
21562
21564
21566
21568
21570
21572
21574
21576
21578
21580
21582
21584
21586
21588
21590
21592
21594
21596
21598
21600
21602
21604
21606
21608
21610
21612
21614
21616
21618
21620
21622
21624
21626
21628
21630
21632
21634
21636
21638
21640
21642
21644
21646
21648
21650
21652
21654
21656
21658
21660
21662
21664
21666
21668
21670
21672
21674
21676
21678
21680
21682
21684
21686
21688
21690
21692
21694
21696
21698
21700
21702
21704
21706
21708
21710
21712
21714
21716
21718
21720
21722
21724
21726
21728
21730
21732
21734
21736
21738
21740
21742
21744
21746
21748
21750
21752
21754
21756
21758
21760
21762
21764
21766
21768
21770
21772
21774
21776
21778
21780
21782
21784
21786
21788
21790
21792
21794
21796
21798
21800
21802
21804
21806
21808
21810
21812
21814
21816
21818
21820
21822
21824
21826
21828
21830
21832
21834
21836
21838
21840
21842
21844
21846
21848
21850
21852
21854
21856
21858
21860
21862
21864
21866
21868
21870
21872
21874
21876
21878
21880
21882
21884
21886
21888
21890
21892
21894
21896
21898
21900
21902
21904
21906
21908
21910
21912
21914
21916
21918
21920
21922
21924
21926
21928
21930
21932
21934
21936
21938
21940
21942
21944
21946
21948
21950
21952
21954
21956
21958
21960
21962
21964
21966
21968
21970
21972
21974
21976
21978
21980
21982
21984
21986
21988
21990
21992
21994
21996
21998
22000
22002
22004
22006
22008
22010
22012
22014
22016
22018
22020
22022
22024
22026
22028
22030
22032
22034
22036
22038
22040
22042
22044
22046
22048
22050
22052
22054
22056
22058
22060
22062
22064
22066
22068
22070
22072
22074
22076
22078
22080
22082
22084
22086
22088
22090
22092
22094
22096
22098
22100
22102
22104
22106
22108
22110
22112
22114
22116
22118
22120
22122
22124
22126
22128
22130
22132
22134
22136
22138
22140
22142
22144
22146
22148
22150
22152
22154
22156
22158
22160
22162
22164
22166
22168
22170
22172
22174
22176
22178
22180
22182
22184
22186
22188
22190
22192
22194
22196
22198
22200
22202
22204
22206
22208
22210
22212
22214
22216
22218
22220
22222
22224
22226
22228
22230
22232
22234
22236
22238
22240
22242
22244
22246
22248
22250
22252
22254
22256
22258
22260
22262
22264
22266
22268
22270
22272
22274
22276
22278
22280
22282
22284
22286
22288
22290
22292
22294
22296
22298
22300
22302
22304
22306
22308
22310
22312
22314
22316
22318
22320
22322
22324
22326
22328
22330
22332
22334
22336
22338
22340
22342
22344
22346
22348
22350
22352
22354
22356
22358
22360
22362
22364
22366
22368
22370
22372
22374
22376
22378
22380
22382
22384
22386
22388
22390
22392
22394
22396
22398
22400
22402
22404
22406
22408
22410
22412
22414
22416
22418
22420
22422
22424
22426
22428
22430
22432
22434
22436
22438
22440
22442
22444
22446
22448
22450
22452
22454
22456
22458
22460
22462
22464
22466
22468
22470
22472
22474
22476
22478
22480
22482
22484
22486
22488
22490
22492
22494
22496
22498
22500
22502
22504
22506
22508
22510
22512
22514
22516
22518
22520
22522
22524
22526
22528
22530
22532
22534
22536
22538
22540
22542
22544
22546
22548
22550
22552
22554
22556
22558
22560
22562
22564
22566
22568
22570
22572
22574
22576
22578
22580
22582
22584
22586
22588
22590
22592
22594
22596
22598
22600
22602
22604
22606
22608
22610
22612
22614
22616
22618
22620
22622
22624
22626
22628
22630
22632
22634
22636
22638
22640
22642
22644
22646
22648
22650
22652
22654
22656
22658
22660
22662
22664
22666
22668
22670
22672
22674
22676
22678
22680
22682
22684
22686
22688
22690
22692
22694
22696
22698
22700
22702
22704
22706
22708
22710
22712
22714
22716
22718
22720
22722
22724
22726
22728
22730
22732
22734
22736
22738
22740
22742
22744
22746
22748
22750
22752
22754
22756
22758
22760
22762
22764
22766
22768
22770
22772
22774
22776
22778
22780
22782
22784
22786
22788
22790
22792
22794
22796
22798
22800
22802
22804
22806
22808
22810
22812
22814
22816
22818
22820
22822
22824
22826
22828
22830
22832
22834
22836
22838
22840
22842
22844
22846
22848
22850
22852
22854
22856
22858
22860
22862
22864
22866
22868
22870
22872
22874
22876
22878
22880
22882
22884
22886
22888
22890
22892
22894
22896
22898
22900
22902
22904
22906
22908
22910
22912
22914
22916
22918
22920
22922
22924
22926
22928
22930
22932
22934
22936
22938
22940
22942
22944
22946
22948
22950
22952
22954
22956
22958
22960
22962
22964
22966
22968
22970
22972
22974
22976
22978
22980
22982
22984
22986
22988
22990
22992
22994
22996
22998
23000
23002
23004
23006
23008
23010
23012
23014
23016
23018
23020
23022
23024
23026
23028
23030
23032
23034
23036
23038
23040
23042
23044
23046
23048
23050
23052
23054
23056
23058
23060
23062
23064
23066
23068
23070
23072
23074
23076
23078
23080
23082
23084
23086
23088
23090
23092
23094
23096
23098
23100
23102
23104
23106
23108
23110
23112
23114
23116
23118
23120
23122
23124
23126
23128
23130
23132
23134
23136
23138
23140
23142
23144
23146
23148
23150
23152
23154
23156
23158
23160
23162
23164
23166
23168
23170
23172
23174
23176
23178
23180
23182
23184
23186
23188
23190
23192
23194
23196
23198
23200
23202
23204
23206
23208
23210
23212
23214
23216
23218
23220
23222
23224
23226
23228
23230
23232
23234
23236
23238
23240
23242
23244
23246
23248
23250
23252
23254
23256
23258
23260
23262
23264
23266
23268
23270
23272
23274
23276
23278
23280
23282
23284
23286
23288
23290
23292
23294
23296
23298
23300
23302
23304
23306
23308
23310
23312
23314
23316
23318
23320
23322
23324
23326
23328
23330
23332
23334
23336
23338
23340
23342
23344
23346
23348
23350
23352
23354
23356
23358
23360
23362
23364
23366
23368
23370
23372
23374
23376
23378
23380
23382
23384
23386
23388
23390
23392
23394
23396
23398
23400
23402
23404
23406
23408
23410
23412
23414
23416
23418
23420
23422
23424
23426
23428
23430
23432
23434
23436
23438
23440
23442
23444
23446
23448
23450
23452
23454
23456
23458
23460
23462
23464
23466
23468
23470
23472
23474
23476
23478
23480
23482
23484
23486
23488
23490
23492
23494
23496
23498
23500
23502
23504
23506
23508
23510
23512
23514
23516
23518
23520
23522
23524
23526
23528
23530
23532
23534
23536
23538
23540
23542
23544
23546
23548
23550
23552
23554
23556
23558
23560
23562
23564
23566
23568
23570
23572
23574
23576
23578
23580
23582
23584
23586
23588
23590
23592
23594
23596
23598
23600
23602
23604
23606
23608
23610
23612
23614
23616
23618
23620
23622
23624
23626
23628
23630
23632
23634
23636
23638
23640
23642
23644
23646
23648
23650
23652
23654
23656
23658
23660
23662
23664
23666
23668
23670
23672
23674
23676
23678
23680
23682
23684
23686
23688
23690
23692
23694
23696
23698
23700
23702
23704
23706
23708
23710
23712
23714
23716
23718
23720
23722
23724
23726
23728
23730
23732
23734
23736
23738
23740
23742
23744
23746
23748
23750
23752
23754
23756
23758
23760
23762
23764
23766
23768
23770
23772
23774
23776
23778
23780
23782
23784
23786
23788
23790
23792
23794
23796
23798
23800
23802
23804
23806
23808
23810
23812
23814
23816
23818
23820
23822
23824
23826
23828
23830
23832
23834
23836
23838
23840
23842
23844
23846
23848
23850
23852
23854
23856
23858
23860
23862
23864
23866
23868
23870
23872
23874
23876
23878
23880
23882
23884
23886
23888
23890
23892
23894
23896
23898
23900
23902
23904
23906
23908
23910
23912
23914
23916
23918
23920
23922
23924
23926
23928
23930
23932
23934
23936
23938
23940
23942
23944
23946
23948
23950
23952
23954
23956
23958
23960
23962
23964
23966
23968
23970
23972
23974
23976
23978
23980
23982
23984
23986
23988
23990
23992
23994
23996
23998
24000
24002
24004
24006
24008
24010
24012
24014
24016
24018
24020
24022
24024
24026
24028
24030
24032
24034
24036
24038
24040
24042
24044
24046
24048
24050
24052
24054
24056
24058
24060
24062
24064
24066
24068
24070
24072
24074
24076
24078
24080
24082
24084
24086
24088
24090
24092
24094
24096
24098
24100
24102
24104
24106
24108
24110
24112
24114
24116
24118
24120
24122
24124
24126
24128
24130
24132
24134
24136
24138
24140
24142
24144
24146
24148
24150
24152
24154
24156
24158
24160
24162
24164
24166
24168
24170
24172
24174
24176
24178
24180
24182
24184
24186
24188
24190
24192
24194
24196
24198
24200
24202
24204
24206
24208
24210
24212
24214
24216
24218
24220
24222
24224
24226
24228
24230
24232
24234
24236
24238
24240
24242
24244
24246
24248
24250
24252
24254
24256
24258
24260
24262
24264
24266
24268
24270
24272
24274
24276
24278
24280
24282
24284
24286
24288
24290
24292
24294
24296
24298
24300
24302
24304
24306
24308
24310
24312
24314
24316
24318
24320
24322
24324
24326
24328
24330
24332
24334
24336
24338
24340
24342
24344
24346
24348
24350
24352
24354
24356
24358
24360
24362
24364
24366
24368
24370
24372
24374
24376
24378
24380
24382
24384
24386
24388
24390
24392
24394
24396
24398
24400
24402
24404
24406
24408
24410
24412
24414
24416
24418
24420
24422
24424
24426
24428
24430
24432
24434
24436
24438
24440
24442
24444
24446
24448
24450
24452
24454
24456
24458
24460
24462
24464
24466
24468
24470
24472
24474
24476
24478
24480
24482
24484
24486
24488
24490
24492
24494
24496
24498
24500
24502
24504
24506
24508
24510
24512
24514
24516
24518
24520
24522
24524
24526
24528
24530
24532
24534
24536
24538
24540
24542
24544
24546
24548
24550
24552
24554
24556
24558
24560
24562
24564
24566
24568
24570
24572
24574
24576
24578
24580
24582
24584
24586
24588
24590
24592
24594
24596
24598
24600
24602
24604
24606
24608
24610
24612
24614
24616
24618
24620
24622
24624
24626
24628
24630
24632
24634
24636
24638
24640
24642
24644
24646
24648
24650
24652
24654
24656
24658
24660
24662
24664
24666
24668
24670
24672
24674
24676
24678
24680
24682
24684
24686
24688
24690
24692
24694
24696
24698
24700
24702
24704
24706
24708
24710
24712
24714
24716
24718
24720
24722
24724
24726
24728
24730
24732
24734
24736
24738
24740
24742
24744
24746
24748
24750
24752
24754
24756
24758
24760
24762
24764
24766
24768
24770
24772
24774
24776
24778
24780
24782
24784
24786
24788
24790
24792
24794
24796
24798
24800
24802
24804
24806
24808
24810
24812
24814
24816
24818
24820
24822
24824
24826
24828
24830
24832
24834
24836
24838
24840
24842
24844
24846
24848
24850
24852
24854
24856
24858
24860
24862
24864
24866
24868
24870
24872
24874
24876
24878
24880
24882
24884
24886
24888
24890
24892
24894
24896
24898
24900
24902
24904
24906
24908
24910
24912
24914
24916
24918
24920
24922
24924
24926
24928
24930
24932
24934
24936
24938
24940
24942
24944
24946
24948
24950
24952
24954
24956
24958
24960
24962
24964
24966
24968
24970
24972
24974
24976
24978
24980
24982
24984
24986
24988
24990
24992
24994
24996
24998
25000
25002
25004
25006
25008
25010
25012
25014
25016
25018
25020
25022
25024
25026
25028
25030
25032
25034
25036
25038
25040
25042
25044
25046
25048
25050
25052
25054
25056
25058
25060
25062
25064
25066
25068
25070
25072
25074
25076
25078
25080
25082
25084
25086
25088
25090
25092
25094
25096
25098
25100
25102
25104
25106
25108
25110
25112
25114
25116
25118
25120
25122
25124
25126
25128
25130
25132
25134
25136
25138
25140
25142
25144
25146
25148
25150
25152
25154
25156
25158
25160
25162
25164
25166
25168
25170
25172
25174
25176
25178
25180
25182
25184
25186
25188
25190
25192
25194
25196
25198
25200
25202
25204
25206
25208
25210
25212
25214
25216
25218
25220
25222
25224
25226
25228
25230
25232
25234
25236
25238
25240
25242
25244
25246
25248
25250
25252
25254
25256
25258
25260
25262
25264
25266
25268
25270
25272
25274
25276
25278
25280
25282
25284
25286
25288
25290
25292
25294
25296
25298
25300
25302
25304
25306
25308
25310
25312
25314
25316
25318
25320
25322
25324
25326
25328
25330
25332
25334
25336
25338
25340
25342
25344
25346
25348
25350
25352
25354
25356
25358
25360
25362
25364
25366
25368
25370
25372
25374
25376
25378
25380
25382
25384
25386
25388
25390
25392
25394
25396
25398
25400
25402
25404
25406
25408
25410
25412
25414
25416
25418
25420
25422
25424
25426
25428
25430
25432
25434
25436
25438
25440
25442
25444
25446
25448
25450
25452
25454
25456
25458
25460
25462
25464
25466
25468
25470
25472
25474
25476
25478
25480
25482
25484
25486
25488
25490
25492
25494
25496
25498
25500
25502
25504
25506
25508
25510
25512
25514
25516
25518
25520
25522
25524
25526
25528
25530
25532
25534
25536
25538
25540
25542
25544
25546
25548
25550
25552
25554
25556
25558
25560
25562
25564
25566
25568
25570
25572
25574
25576
25578
25580
25582
25584
25586
25588
25590
25592
25594
25596
25598
25600
25602
25604
25606
25608
25610
25612
25614
25616
25618
25620
25622
25624
25626
25628
25630
25632
25634
25636
25638
25640
25642
25644
25646
25648
25650
25652
25654
25656
25658
25660
25662
25664
25666
25668
25670
25672
25674
25676
25678
25680
25682
25684
25686
25688
25690
25692
25694
25696
25698
25700
25702
25704
25706
25708
25710
25712
25714
25716
25718
25720
25722
25724
25726
25728
25730
25732
25734
25736
25738
25740
25742
25744
25746
25748
25750
25752
25754
25756
25758
25760
25762
25764
25766
25768
25770
25772
25774
25776
25778
25780
25782
25784
25786
25788
25790
25792
25794
25796
25798
25800
25802
25804
25806
25808
25810
25812
25814
25816
25818
25820
25822
25824
25826
25828
25830
25832
25834
25836
25838
25840
25842
25844
25846
25848
25850
25852
25854
25856
25858
25860
25862
25864
25866
25868
25870
25872
25874
25876
25878
25880
25882
25884
25886
25888
25890
25892
25894
25896
25898
25900
25902
25904
25906
25908
25910
25912
25914
25916
25918
25920
25922
25924
25926
25928
25930
25932
25934
25936
25938
25940
25942
25944
25946
25948
25950
25952
25954
25956
25958
25960
25962
25964
25966
25968
25970
25972
25974
25976
25978
25980
25982
25984
25986
25988
25990
25992
25994
25996
25998
26000
26002
26004
26006
26008
26010
26012
26014
26016
26018
26020
26022
26024
26026
26028
26030
26032
26034
26036
26038
26040
26042
26044
26046
26048
26050
26052
26054
26056
26058
26060
26062
26064
26066
26068
26070
26072
26074
26076
26078
26080
26082
26084
26086
26088
26090
26092
26094
26096
26098
26100
26102
26104
26106
26108
26110
26112
26114
26116
26118
26120
26122
26124
26126
26128
26130
26132
26134
26136
26138
26140
26142
26144
26146
26148
26150
26152
26154
26156
26158
26160
26162
26164
26166
26168
26170
26172
26174
26176
26178
26180
26182
26184
26186
26188
26190
26192
26194
26196
26198
26200
26202
26204
26206
26208
26210
26212
26214
26216
26218
26220
26222
26224
26226
26228
26230
26232
26234
26236
26238
26240
26242
26244
26246
26248
26250
26252
26254
26256
26258
26260
26262
26264
26266
26268
26270
26272
26274
26276
26278
26280
26282
26284
26286
26288
26290
26292
26294
26296
26298
26300
26302
26304
26306
26308
26310
26312
26314
26316
26318
26320
26322
26324
26326
26328
26330
26332
26334
26336
26338
26340
26342
26344
26346
26348
26350
26352
26354
26356
26358
26360
26362
26364
26366
26368
26370
26372
26374
26376
26378
26380
26382
26384
26386
26388
26390
26392
26394
26396
26398
26400
26402
26404
26406
26408
26410
26412
26414
26416
26418
26420
26422
26424
26426
26428
26430
26432
26434
26436
26438
26440
26442
26444
26446
26448
26450
26452
26454
26456
26458
26460
26462
26464
26466
26468
26470
26472
26474
26476
26478
26480
26482
26484
26486
26488
26490
26492
26494
26496
26498
26500
26502
26504
26506
26508
26510
26512
26514
26516
26518
26520
26522
26524
26526
26528
26530
26532
26534
26536
26538
26540
26542
26544
26546
26548
26550
26552
26554
26556
26558
26560
26562
26564
26566
26568
26570
26572
26574
26576
26578
26580
26582
26584
26586
26588
26590
26592
26594
26596
26598
26600
26602
26604
26606
26608
26610
26612
26614
26616
26618
26620
26622
26624
26626
26628
26630
26632
26634
26636
26638
26640
26642
26644
26646
26648
26650
26652
26654
26656
26658
26660
26662
26664
26666
26668
26670
26672
26674
26676
26678
26680
26682
26684
26686
26688
26690
26692
26694
26696
26698
26700
26702
26704
26706
26708
26710
26712
26714
26716
26718
26720
26722
26724
26726
26728
26730
26732
26734
26736
26738
26740
26742
26744
26746
26748
26750
26752
26754
26756
26758
26760
26762
26764
26766
26768
26770
26772
26774
26776
26778
26780
26782
26784
26786
26788
26790
26792
26794
26796
26798
26800
26802
26804
26806
26808
26810
26812
26814
26816
26818
26820
26822
26824
26826
26828
26830
26832
26834
26836
26838
26840
26842
26844
26846
26848
26850
26852
26854
26856
26858
26860
26862
26864
26866
26868
26870
26872
26874
26876
26878
26880
26882
26884
26886
26888
26890
26892
26894
26896
26898
26900
26902
26904
26906
26908
26910
26912
26914
26916
26918
26920
26922
26924
26926
26928
26930
26932
26934
26936
26938
26940
26942
26944
26946
26948
26950
26952
26954
26956
26958
26960
26962
26964
26966
26968
26970
26972
26974
26976
26978
26980
26982
26984
26986
26988
26990
26992
26994
26996
26998
27000
27002
27004
27006
27008
27010
27012
27014
27016
27018
27020
27022
27024
27026
27028
27030
27032
27034
27036
27038
27040
27042
27044
27046
27048
27050
27052
27054
27056
27058
27060
27062
27064
27066
27068
27070
27072
27074
27076
27078
27080
27082
27084
27086
27088
27090
27092
27094
27096
27098
27100
27102
27104
27106
27108
27110
27112
27114
27116
27118
27120
27122
27124
27126
27128
27130
27132
27134
27136
27138
27140
27142
27144
27146
27148
27150
27152
27154
27156
27158
27160
27162
27164
27166
27168
27170
27172
27174
27176
27178
27180
27182
27184
27186
27188
27190
27192
27194
27196
27198
27200
27202
27204
27206
27208
27210
27212
27214
27216
27218
27220
27222
27224
27226
27228
27230
27232
27234
27236
27238
27240
27242
27244
27246
27248
27250
27252
27254
27256
27258
27260
27262
27264
27266
27268
27270
27272
27274
27276
27278
27280
27282
27284
27286
27288
27290
27292
27294
27296
27298
27300
27302
27304
27306
27308
27310
27312
27314
27316
27318
27320
27322
27324
27326
27328
27330
27332
27334
27336
27338
27340
27342
27344
27346
27348
27350
27352
27354
27356
27358
27360
27362
27364
27366
27368
27370
27372
27374
27376
27378
27380
27382
27384
27386
27388
27390
27392
27394
27396
27398
27400
27402
27404
27406
27408
27410
27412
27414
27416
27418
27420
27422
27424
27426
27428
27430
27432
27434
27436
27438
27440
27442
27444
27446
27448
27450
27452
27454
27456
27458
27460
27462
27464
27466
27468
27470
27472
27474
27476
27478
27480
27482
27484
27486
27488
27490
27492
27494
27496
27498
27500
27502
27504
27506
27508
27510
27512
27514
27516
27518
27520
27522
27524
27526
27528
27530
27532
27534
27536
27538
27540
27542
27544
27546
27548
27550
27552
27554
27556
27558
27560
27562
27564
27566
27568
27570
27572
27574
27576
27578
27580
27582
27584
27586
27588
27590
27592
27594
27596
27598
27600
27602
27604
27606
27608
27610
27612
27614
27616
27618
27620
27622
27624
27626
27628
27630
27632
27634
27636
27638
27640
27642
27644
27646
27648
27650
27652
27654
27656
27658
27660
27662
27664
27666
27668
27670
27672
27674
27676
27678
27680
27682
27684
27686
27688
27690
27692
27694
27696
27698
27700
27702
27704
27706
27708
27710
27712
27714
27716
27718
27720
27722
27724
27726
27728
27730
27732
27734
27736
27738
27740
27742
27744
27746
27748
27750
27752
27754
27756
27758
27760
27762
27764
27766
27768
27770
27772
27774
27776
27778
27780
27782
27784
27786
27788
27790
27792
27794
27796
27798
27800
27802
27804
27806
27808
27810
27812
27814
27816
27818
27820
27822
27824
27826
27828
27830
27832
27834
27836
27838
27840
27842
27844
27846
27848
27850
27852
27854
27856
27858
27860
27862
27864
27866
27868
27870
27872
27874
27876
27878
27880
27882
27884
27886
27888
27890
27892
27894
27896
27898
27900
27902
27904
27906
27908
27910
27912
27914
27916
27918
27920
27922
27924
27926
27928
27930
27932
27934
27936
27938
27940
27942
27944
27946
27948
27950
27952
27954
27956
27958
27960
27962
27964
27966
27968
27970
27972
27974
27976
27978
27980
27982
27984
27986
27988
27990
27992
27994
27996
27998
28000
28002
28004
28006
28008
28010
28012
28014
28016
28018
28020
28022
28024
28026
28028
28030
28032
28034
28036
28038
28040
28042
28044
28046
28048
28050
28052
28054
28056
28058
28060
28062
28064
28066
28068
28070
28072
28074
28076
28078
28080
28082
28084
28086
28088
28090
28092
28094
28096
28098
28100
28102
28104
28106
28108
28110
28112
28114
28116
28118
28120
28122
28124
28126
28128
28130
28132
28134
28136
28138
28140
28142
28144
28146
28148
28150
28152
28154
28156
28158
28160
28162
28164
28166
28168
28170
28172
28174
28176
28178
28180
28182
28184
28186
28188
28190
28192
28194
28196
28198
28200
28202
28204
28206
28208
28210
28212
28214
28216
28218
28220
28222
28224
28226
28228
28230
28232
28234
28236
28238
28240
28242
28244
28246
28248
28250
28252
28254
28256
28258
28260
28262
28264
28266
28268
28270
28272
28274
28276
28278
28280
28282
28284
28286
28288
28290
28292
28294
28296
28298
28300
28302
28304
28306
28308
28310
28312
28314
28316
28318
28320
28322
28324
28326
28328
28330
28332
28334
28336
28338
28340
28342
28344
28346
28348
28350
28352
28354
28356
28358
28360
28362
28364
28366
28368
28370
28372
28374
28376
28378
28380
28382
28384
28386
28388
28390
28392
28394
28396
28398
28400
28402
28404
28406
28408
28410
28412
28414
28416
28418
28420
28422
28424
28426
28428
28430
28432
28434
28436
28438
28440
28442
28444
28446
28448
28450
28452
28454
28456
28458
28460
28462
28464
28466
28468
28470
28472
28474
28476
28478
28480
28482
28484
28486
28488
28490
28492
28494
28496
28498
28500
28502
28504
28506
28508
28510
28512
28514
28516
28518
28520
28522
28524
28526
28528
28530
28532
28534
28536
28538
28540
28542
28544
28546
28548
28550
28552
28554
28556
28558
28560
28562
28564
28566
28568
28570
28572
28574
28576
28578
28580
28582
28584
28586
28588
28590
28592
28594
28596
28598
28600
28602
28604
28606
28608
28610
28612
28614
28616
28618
28620
28622
28624
28626
28628
28630
28632
28634
28636
28638
28640
28642
28644
28646
28648
28650
28652
28654
28656
28658
28660
28662
28664
28666
28668
28670
28672
28674
28676
28678
28680
28682
28684
28686
28688
28690
28692
28694
28696
28698
28700
28702
28704
28706
28708
28710
28712
28714
28716
28718
28720
28722
28724
28726
28728
28730
28732
28734
28736
28738
28740
28742
28744
28746
28748
28750
28752
28754
28756
28758
28760
28762
28764
28766
28768
28770
28772
28774
28776
28778
28780
28782
28784
28786
28788
28790
28792
28794
28796
28798
28800
28802
28804
28806
28808
28810
28812
28814
28816
28818
28820
28822
28824
28826
28828
28830
28832
28834
28836
28838
28840
28842
28844
28846
28848
28850
28852
28854
28856
28858
28860
28862
28864
28866
28868
28870
28872
28874
28876
28878
28880
28882
28884
28886
28888
28890
28892
28894
28896
28898
28900
28902
28904
28906
28908
28910
28912
28914
28916
28918
28920
28922
28924
28926
28928
28930
28932
28934
28936
28938
28940
28942
28944
28946
28948
28950
28952
28954
28956
28958
28960
28962
28964
28966
28968
28970
28972
28974
28976
28978
28980
28982
28984
28986
28988
28990
28992
28994
28996
28998
29000
29002
29004
29006
29008
29010
29012
29014
29016
29018
29020
29022
29024
29026
29028
29030
29032
29034
29036
29038
29040
29042
29044
29046
29048
29050
29052
29054
29056
29058
29060
29062
29064
29066
29068
29070
29072
29074
29076
29078
29080
29082
29084
29086
29088
29090
29092
29094
29096
29098
29100
29102
29104
29106
29108
29110
29112
29114
29116
29118
29120
29122
29124
29126
29128
29130
29132
29134
29136
29138
29140
29142
29144
29146
29148
29150
29152
29154
29156
29158
29160
29162
29164
29166
29168
29170
29172
29174
29176
29178
29180
29182
29184
29186
29188
29190
29192
29194
29196
29198
29200
29202
29204
29206
29208
29210
29212
29214
29216
29218
29220
29222
29224
29226
29228
29230
29232
29234
29236
29238
29240
29242
29244
29246
29248
29250
29252
29254
29256
29258
29260
29262
29264
29266
29268
29270
29272
29274
29276
29278
29280
29282
29284
29286
29288
29290
29292
29294
29296
29298
29300
29302
29304
29306
29308
29310
29312
29314
29316
29318
29320
29322
29324
29326
29328
29330
29332
29334
29336
29338
29340
29342
29344
29346
29348
29350
29352
29354
29356
29358
29360
29362
29364
29366
29368
29370
29372
29374
29376
29378
29380
29382
29384
29386
29388
29390
29392
29394
29396
29398
29400
29402
29404
29406
29408
29410
29412
29414
29416
29418
29420
29422
29424
29426
29428
29430
29432
29434
29436
29438
29440
29442
29444
29446
29448
29450
29452
29454
29456
29458
29460
29462
29464
29466
29468
29470
29472
29474
29476
29478
29480
29482
29484
29486
29488
29490
29492
29494
29496
29498
29500
29502
29504
29506
29508
29510
29512
29514
29516
29518
29520
29522
29524
29526
29528
29530
29532
29534
29536
29538
29540
29542
29544
29546
29548
29550
29552
29554
29556
29558
29560
29562
29564
29566
29568
29570
29572
29574
29576
29578
29580
29582
29584
29586
29588
29590
29592
29594
29596
29598
29600
29602
29604
29606
29608
29610
29612
29614
29616
29618
29620
29622
29624
29626
29628
29630
29632
29634
29636
29638
29640
29642
29644
29646
29648
29650
29652
29654
29656
29658
29660
29662
29664
29666
29668
29670
29672
29674
29676
29678
29680
29682
29684
29686
29688
29690
29692
29694
29696
29698
29700
29702
29704
29706
29708
29710
29712
29714
29716
29718
29720
29722
29724
29726
29728
29730
29732
29734
29736
29738
29740
29742
29744
29746
29748
29750
29752
29754
29756
29758
29760
29762
29764
29766
29768
29770
29772
29774
29776
29778
29780
29782
29784
29786
29788
29790
29792
29794
29796
29798
29800
29802
29804
29806
29808
29810
29812
29814
29816
29818
29820
29822
29824
29826
29828
29830
29832
29834
29836
29838
29840
29842
29844
29846
29848
29850
29852
29854
29856
29858
29860
29862
29864
29866
29868
29870
29872
29874
29876
29878
29880
29882
29884
29886
29888
29890
29892
29894
29896
29898
29900
29902
29904
29906
29908
29910
29912
29914
29916
29918
29920
29922
29924
29926
29928
29930
29932
29934
29936
29938
29940
29942
29944
29946
29948
29950
29952
29954
29956
29958
29960
29962
29964
29966
29968
29970
29972
29974
29976
29978
29980
29982
29984
29986
29988
29990
29992
29994
29996
29998
30000
30002
30004
30006
30008
30010
30012
30014
30016
30018
30020
30022
30024
30026
30028
30030
30032
30034
30036
30038
30040
30042
30044
30046
30048
30050
30052
30054
30056
30058
30060
30062
30064
30066
30068
30070
30072
30074
30076
30078
30080
30082
30084
30086
30088
30090
30092
30094
30096
30098
30100
30102
30104
30106
30108
30110
30112
30114
30116
30118
30120
30122
30124
30126
30128
30130
30132
30134
30136
30138
30140
30142
30144
30146
30148
30150
30152
30154
30156
30158
30160
30162
30164
30166
30168
30170
30172
30174
30176
30178
30180
30182
30184
30186
30188
30190
30192
30194
30196
30198
30200
30202
30204
30206
30208
30210
30212
30214
30216
30218
30220
30222
30224
30226
30228
30230
30232
30234
30236
30238
30240
30242
30244
30246
30248
30250
30252
30254
30256
30258
30260
30262
30264
30266
30268
30270
30272
30274
30276
30278
30280
30282
30284
30286
30288
30290
30292
30294
30296
30298
30300
30302
30304
30306
30308
30310
30312
30314
30316
30318
30320
30322
30324
30326
30328
30330
30332
30334
30336
30338
30340
30342
30344
30346
30348
30350
30352
30354
30356
30358
30360
30362
30364
30366
30368
30370
30372
30374
30376
30378
30380
30382
30384
30386
30388
30390
30392
30394
30396
30398
30400
30402
30404
30406
30408
30410
30412
30414
30416
30418
30420
30422
30424
30426
30428
30430
30432
30434
30436
30438
30440
30442
30444
30446
30448
30450
30452
30454
30456
30458
30460
30462
30464
30466
30468
30470
30472
30474
30476
30478
30480
30482
30484
30486
30488
30490
30492
30494
30496
30498
30500
30502
30504
30506
30508
30510
30512
30514
30516
30518
30520
30522
30524
30526
30528
30530
30532
30534
30536
30538
30540
30542
30544
30546
30548
30550
30552
30554
30556
30558
30560
30562
30564
30566
30568
30570
30572
30574
30576
30578
30580
30582
30584
30586
30588
30590
30592
30594
30596
30598
30600
30602
30604
30606
30608
30610
30612
30614
30616
30618
30620
30622
30624
30626
30628
30630
30632
30634
30636
30638
30640
30642
30644
30646
30648
30650
30652
30654
30656
30658
30660
30662
30664
30666
30668
30670
30672
30674
30676
30678
30680
30682
30684
30686
30688
30690
30692
30694
30696
30698
30700
30702
30704
30706
30708
30710
30712
30714
30716
30718
30720
30722
30724
30726
30728
30730
30732
30734
30736
30738
30740
30742
30744
30746
30748
30750
30752
30754
30756
30758
30760
30762
30764
30766
30768
30770
30772
30774
30776
30778
30780
30782
30784
30786
30788
30790
30792
30794
30796
30798
30800
30802
30804
30806
30808
30810
30812
30814
30816
30818
30820
30822
30824
30826
30828
30830
30832
30834
30836
30838
30840
30842
30844
30846
30848
30850
30852
30854
30856
30858
30860
30862
30864
30866
30868
30870
30872
30874
30876
30878
30880
30882
30884
30886
30888
30890
30892
30894
30896
30898
30900
30902
30904
30906
30908
30910
30912
30914
30916
30918
30920
30922
30924
30926
30928
30930
30932
30934
30936
30938
30940
30942
30944
30946
30948
30950
30952
30954
30956
30958
30960
30962
30964
30966
30968
30970
30972
30974
30976
30978
30980
30982
30984
30986
30988
30990
30992
30994
30996
30998
31000
31002
31004
31006
31008
31010
31012
31014
31016
31018
31020
31022
31024
31026
31028
31030
31032
31034
31036
31038
31040
31042
31044
31046
31048
31050
31052
31054
31056
31058
31060
31062
31064
31066
31068
31070
31072
31074
31076
31078
31080
31082
31084
31086
31088
31090
31092
31094
31096
31098
31100
31102
31104
31106
31108
31110
31112
31114
31116
31118
31120
31122
31124
31126
31128
31130
31132
31134
31136
31138
31140
31142
31144
31146
31148
31150
31152
31154
31156
31158
31160
31162
31164
31166
31168
31170
31172
31174
31176
31178
31180
31182
31184
31186
31188
31190
31192
31194
31196
31198
31200
31202
31204
31206
31208
31210
31212
31214
31216
31218
31220
31222
31224
31226
31228
31230
31232
31234
31236
31238
31240
31242
31244
31246
31248
31250
31252
31254
31256
31258
31260
31262
31264
31266
31268
31270
31272
31274
31276
31278
31280
31282
31284
31286
31288
31290
31292
31294
31296
31298
31300
31302
31304
31306
31308
31310
31312
31314
31316
31318
31320
31322
31324
31326
31328
31330
31332
31334
31336
31338
31340
31342
31344
31346
31348
31350
31352
31354
31356
31358
31360
31362
31364
31366
31368
31370
31372
31374
31376
31378
31380
31382
31384
31386
31388
31390
31392
31394
31396
31398
31400
31402
31404
31406
31408
31410
31412
31414
31416
31418
31420
31422
31424
31426
31428
31430
31432
31434
31436
31438
31440
31442
31444
31446
31448
31450
31452
31454
31456
31458
31460
31462
31464
31466
31468
31470
31472
31474
31476
31478
31480
31482
31484
31486
31488
31490
31492
31494
31496
31498
31500
31502
31504
31506
31508
31510
31512
31514
31516
31518
31520
31522
31524
31526
31528
31530
31532
31534
31536
31538
31540
31542
31544
31546
31548
31550
31552
31554
31556
31558
31560
31562
31564
31566
31568
31570
31572
31574
31576
31578
31580
31582
31584
31586
31588
31590
31592
31594
31596
31598
31600
31602
31604
31606
31608
31610
31612
31614
31616
31618
31620
31622
31624
31626
31628
31630
31632
31634
31636
31638
31640
31642
31644
31646
31648
31650
31652
31654
31656
31658
31660
31662
31664
31666
31668
31670
31672
31674
31676
31678
31680
31682
31684
31686
31688
31690
31692
31694
31696
31698
31700
31702
31704
31706
31708
31710
31712
31714
31716
31718
31720
31722
31724
31726
31728
31730
31732
31734
31736
31738
31740
31742
31744
31746
31748
31750
31752
31754
31756
31758
31760
31762
31764
31766
31768
31770
31772
31774
31776
31778
31780
31782
31784
31786
31788
31790
31792
31794
31796
31798
31800
31802
31804
31806
31808
31810
31812
31814
31816
31818
31820
31822
31824
31826
31828
31830
31832
31834
31836
31838
31840
31842
31844
31846
31848
31850
31852
31854
31856
31858
31860
31862
31864
31866
31868
31870
31872
31874
31876
31878
31880
31882
31884
31886
31888
31890
31892
31894
31896
31898
31900
31902
31904
31906
31908
31910
31912
31914
31916
31918
31920
31922
31924
31926
31928
31930
31932
31934
31936
31938
31940
31942
31944
31946
31948
31950
31952
31954
31956
31958
31960
31962
31964
31966
31968
31970
31972
31974
31976
31978
31980
31982
31984
31986
31988
31990
31992
31994
31996
31998
32000
32002
32004
32006
32008
32010
32012
32014
32016
32018
32020
32022
32024
32026
32028
32030
32032
32034
32036
32038
32040
32042
32044
32046
32048
32050
32052
32054
32056
32058
32060
32062
32064
32066
32068
32070
32072
32074
32076
32078
32080
32082
32084
32086
32088
32090
32092
32094
32096
32098
32100
32102
32104
32106
32108
32110
32112
32114
32116
32118
32120
32122
32124
32126
32128
32130
32132
32134
32136
32138
32140
32142
32144
32146
32148
32150
32152
32154
32156
32158
32160
32162
32164
32166
32168
32170
32172
32174
32176
32178
32180
32182
32184
32186
32188
32190
32192
32194
32196
32198
32200
32202
32204
32206
32208
32210
32212
32214
32216
32218
32220
32222
32224
32226
32228
32230
32232
32234
32236
32238
32240
32242
32244
32246
32248
32250
32252
32254
32256
32258
32260
32262
32264
32266
32268
32270
32272
32274
32276
32278
32280
32282
32284
32286
32288
32290
32292
32294
32296
32298
32300
32302
32304
32306
32308
32310
32312
32314
32316
32318
32320
32322
32324
32326
32328
32330
32332
32334
32336
32338
32340
32342
32344
32346
32348
32350
32352
32354
32356
32358
32360
32362
32364
32366
32368
32370
32372
32374
32376
32378
32380
32382
32384
32386
32388
32390
32392
32394
32396
32398
32400
32402
32404
32406
32408
32410
32412
32414
32416
32418
32420
32422
32424
32426
32428
32430
32432
32434
32436
32438
32440
32442
32444
32446
32448
32450
32452
32454
32456
32458
32460
32462
32464
32466
32468
32470
32472
32474
32476
32478
32480
32482
32484
32486
32488
32490
32492
32494
32496
32498
32500
32502
32504
32506
32508
32510
32512
32514
32516
32518
32520
32522
32524
32526
32528
32530
32532
32534
32536
32538
32540
32542
32544
32546
32548
32550
32552
32554
32556
32558
32560
32562
32564
32566
32568
32570
32572
32574
32576
32578
32580
32582
32584
32586
32588
32590
32592
32594
32596
32598
32600
32602
32604
32606
32608
32610
32612
32614
32616
32618
32620
32622
32624
32626
32628
32630
32632
32634
32636
32638
32640
32642
32644
32646
32648
32650
32652
32654
32656
32658
32660
32662
32664
32666
32668
32670
32672
32674
32676
32678
32680
32682
32684
32686
32688
32690
32692
32694
32696
32698
32700
32702
32704
32706
32708
32710
32712
32714
32716
32718
32720
32722
32724
32726
32728
32730
32732
32734
32736
32738
32740
32742
32744
32746
32748
32750
32752
32754
32756
32758
32760
32762
32764
32766
32768
32770
32772
32774
32776
32778
32780
32782
32784
32786
32788
32790
32792
32794
32796
32798
32800
32802
32804
32806
32808
32810
32812
32814
32816
32818
32820
32822
32824
32826
32828
32830
32832
32834
32836
32838
32840
32842
32844
32846
32848
32850
32852
32854
32856
32858
32860
32862
32864
32866
32868
32870
32872
32874
32876
32878
32880
32882
32884
32886
32888
32890
32892
32894
32896
32898
32900
32902
32904
32906
32908
32910
32912
32914
32916
32918
32920
32922
32924
32926
32928
32930
32932
32934
32936
32938
32940
32942
32944
32946
32948
32950
32952
32954
32956
32958
32960
32962
32964
32966
32968
32970
32972
32974
32976
32978
32980
32982
32984
32986
32988
32990
32992
32994
32996
32998
33000
33002
33004
33006
33008
33010
33012
33014
33016
33018
33020
33022
33024
33026
33028
33030
33032
33034
33036
33038
33040
33042
33044
33046
33048
33050
33052
33054
33056
33058
33060
33062
33064
33066
33068
33070
33072
33074
33076
33078
33080
33082
33084
33086
33088
33090
33092
33094
33096
33098
33100
33102
33104
33106
33108
33110
33112
33114
33116
33118
33120
33122
33124
33126
33128
33130
33132
33134
33136
33138
33140
33142
33144
33146
33148
33150
33152
33154
33156
33158
33160
33162
33164
33166
33168
33170
33172
33174
33176
33178
33180
33182
33184
33186
33188
33190
33192
33194
33196
33198
33200
33202
33204
33206
33208
33210
33212
33214
33216
33218
33220
33222
33224
33226
33228
33230
33232
33234
33236
33238
33240
33242
33244
33246
33248
33250
33252
33254
33256
33258
33260
33262
33264
33266
33268
33270
33272
33274
33276
33278
33280
33282
33284
33286
33288
33290
33292
33294
33296
33298
33300
33302
33304
33306
33308
33310
33312
33314
33316
33318
33320
33322
33324
33326
33328
33330
33332
33334
33336
33338
33340
33342
33344
33346
33348
33350
33352
33354
33356
33358
33360
33362
33364
33366
33368
33370
33372
33374
33376
33378
33380
33382
33384
33386
33388
33390
33392
33394
33396
33398
33400
33402
33404
33406
33408
33410
33412
33414
33416
33418
33420
33422
33424
33426
33428
33430
33432
33434
33436
33438
33440
33442
33444
33446
33448
33450
33452
33454
33456
33458
33460
33462
33464
33466
33468
33470
33472
33474
33476
33478
33480
33482
33484
33486
33488
33490
33492
33494
33496
33498
33500
33502
33504
33506
33508
33510
33512
33514
33516
33518
33520
33522
33524
33526
33528
33530
33532
33534
33536
33538
33540
33542
33544
33546
33548
33550
33552
33554
33556
33558
33560
33562
33564
33566
33568
33570
33572
33574
33576
33578
33580
33582
33584
33586
33588
33590
33592
33594
33596
33598
33600
33602
33604
33606
33608
33610
33612
33614
33616
33618
33620
33622
33624
33626
33628
33630
33632
33634
33636
33638
33640
33642
33644
33646
33648
33650
33652
33654
33656
33658
33660
33662
33664
33666
33668
33670
33672
33674
33676
33678
33680
33682
33684
33686
33688
33690
33692
33694
33696
33698
33700
33702
33704
33706
33708
33710
33712
33714
33716
33718
33720
33722
33724
33726
33728
33730
33732
33734
33736
33738
33740
33742
33744
33746
33748
33750
33752
33754
33756
33758
33760
33762
33764
33766
33768
33770
33772
33774
33776
33778
33780
33782
33784
33786
33788
33790
33792
33794
33796
33798
33800
33802
33804
33806
33808
33810
33812
33814
33816
33818
33820
33822
33824
33826
33828
33830
33832
33834
33836
33838
33840
33842
33844
33846
33848
33850
33852
33854
33856
33858
33860
33862
33864
33866
33868
33870
33872
33874
33876
33878
33880
33882
33884
33886
33888
33890
33892
33894
33896
33898
33900
33902
33904
33906
33908
33910
33912
33914
33916
33918
33920
33922
33924
33926
33928
33930
33932
33934
33936
33938
33940
33942
33944
33946
33948
33950
33952
33954
33956
33958
33960
33962
33964
33966
33968
33970
33972
33974
33976
33978
33980
33982
33984
33986
33988
33990
33992
33994
33996
33998
34000
34002
34004
34006
34008
34010
34012
34014
34016
34018
34020
34022
34024
34026
34028
34030
34032
34034
34036
34038
34040
34042
34044
34046
34048
34050
34052
34054
34056
34058
34060
34062
34064
34066
34068
34070
34072
34074
34076
34078
34080
34082
34084
34086
34088
34090
34092
34094
34096
34098
34100
34102
34104
34106
34108
34110
34112
34114
34116
34118
34120
34122
34124
34126
34128
34130
34132
34134
34136
34138
34140
34142
34144
34146
34148
34150
34152
34154
34156
34158
34160
34162
34164
34166
34168
34170
34172
34174
34176
34178
34180
34182
34184
34186
34188
34190
34192
34194
34196
34198
34200
34202
34204
34206
34208
34210
34212
34214
34216
34218
34220
34222
34224
34226
34228
34230
34232
34234
34236
34238
34240
34242
34244
34246
34248
34250
34252
34254
34256
34258
34260
34262
34264
34266
34268
34270
34272
34274
34276
34278
34280
34282
34284
34286
34288
34290
34292
34294
34296
34298
34300
34302
34304
34306
34308
34310
34312
34314
34316
34318
34320
34322
34324
34326
34328
34330
34332
34334
34336
34338
34340
34342
34344
34346
34348
34350
34352
34354
34356
34358
34360
34362
34364
34366
34368
34370
34372
34374
34376
34378
34380
34382
34384
34386
34388
34390
34392
34394
34396
34398
34400
34402
34404
34406
34408
34410
34412
34414
34416
34418
34420
34422
34424
34426
34428
34430
34432
34434
34436
34438
34440
34442
34444
34446
34448
34450
34452
34454
34456
34458
34460
34462
34464
34466
34468
34470
34472
34474
34476
34478
34480
34482
34484
34486
34488
34490
34492
34494
34496
34498
34500
34502
34504
34506
34508
34510
34512
34514
34516
34518
34520
34522
34524
34526
34528
34530
34532
34534
34536
34538
34540
34542
34544
34546
34548
34550
34552
34554
34556
34558
34560
34562
34564
34566
34568
34570
34572
34574
34576
34578
34580
34582
34584
34586
34588
34590
34592
34594
34596
34598
34600
34602
34604
34606
34608
34610
34612
34614
34616
34618
34620
34622
34624
34626
34628
34630
34632
34634
34636
34638
34640
34642
34644
34646
34648
34650
34652
34654
34656
34658
34660
34662
34664
34666
34668
34670
34672
34674
34676
34678
34680
34682
34684
34686
34688
34690
34692
34694
34696
34698
34700
34702
34704
34706
34708
34710
34712
34714
34716
34718
34720
34722
34724
34726
34728
34730
34732
34734
34736
34738
34740
34742
34744
34746
34748
34750
34752
34754
34756
34758
34760
34762
34764
34766
34768
34770
34772
34774
34776
34778
34780
34782
34784
34786
34788
34790
34792
34794
34796
34798
34800
34802
34804
34806
34808
34810
34812
34814
34816
34818
34820
34822
34824
34826
34828
34830
34832
34834
34836
34838
34840
34842
34844
34846
34848
34850
34852
34854
34856
34858
34860
34862
34864
34866
34868
34870
34872
34874
34876
34878
34880
34882
34884
34886
34888
34890
34892
34894
34896
34898
34900
34902
34904
34906
34908
34910
34912
34914
34916
34918
34920
34922
34924
34926
34928
34930
34932
34934
34936
34938
34940
34942
34944
34946
34948
34950
34952
34954
34956
34958
34960
34962
34964
34966
34968
34970
34972
34974
34976
34978
34980
34982
34984
34986
34988
34990
34992
34994
34996
34998
35000
35002
35004
35006
35008
35010
35012
35014
35016
35018
35020
35022
35024
35026
35028
35030
35032
35034
35036
35038
35040
35042
35044
35046
35048
35050
35052
35054
35056
35058
35060
35062
35064
35066
35068
35070
35072
35074
35076
35078
35080
35082
35084
35086
35088
35090
35092
35094
35096
35098
35100
35102
35104
35106
35108
35110
35112
35114
35116
35118
35120
35122
35124
35126
35128
35130
35132
35134
35136
35138
35140
35142
35144
35146
35148
35150
35152
35154
35156
35158
35160
35162
35164
35166
35168
35170
35172
35174
35176
35178
35180
35182
35184
35186
35188
35190
35192
35194
35196
35198
35200
35202
35204
35206
35208
35210
35212
35214
35216
35218
35220
35222
35224
35226
35228
35230
35232
35234
35236
35238
35240
35242
35244
35246
35248
35250
35252
35254
35256
35258
35260
35262
35264
35266
35268
35270
35272
35274
35276
35278
35280
35282
35284
35286
35288
35290
35292
35294
35296
35298
35300
35302
35304
35306
35308
35310
35312
35314
35316
35318
35320
35322
35324
35326
35328
35330
35332
35334
35336
35338
35340
35342
35344
35346
35348
35350
35352
35354
35356
35358
35360
35362
35364
35366
35368
35370
35372
35374
35376
35378
35380
35382
35384
35386
35388
35390
35392
35394
35396
35398
35400
35402
35404
35406
35408
35410
35412
35414
35416
35418
35420
35422
35424
35426
35428
35430
35432
35434
35436
35438
35440
35442
35444
35446
35448
35450
35452
35454
35456
35458
35460
35462
35464
35466
35468
35470
35472
35474
35476
35478
35480
35482
35484
35486
35488
35490
35492
35494
35496
35498
35500
35502
35504
35506
35508
35510
35512
35514
35516
35518
35520
35522
35524
35526
35528
35530
35532
35534
35536
35538
35540
35542
35544
35546
35548
35550
35552
35554
35556
35558
35560
35562
35564
35566
35568
35570
35572
35574
35576
35578
35580
35582
35584
35586
35588
35590
35592
35594
35596
35598
35600
35602
35604
35606
35608
35610
35612
35614
35616
35618
35620
35622
35624
35626
35628
35630
35632
35634
35636
35638
35640
35642
35644
35646
35648
35650
35652
35654
35656
35658
35660
35662
35664
35666
35668
35670
35672
35674
35676
35678
35680
35682
35684
35686
35688
35690
35692
35694
35696
35698
35700
35702
35704
35706
35708
35710
35712
35714
35716
35718
35720
35722
35724
35726
35728
35730
35732
35734
35736
35738
35740
35742
35744
35746
35748
35750
35752
35754
35756
35758
35760
35762
35764
35766
35768
35770
35772
35774
35776
35778
35780
35782
35784
35786
35788
35790
35792
35794
35796
35798
35800
35802
35804
35806
35808
35810
35812
35814
35816
35818
35820
35822
35824
35826
35828
35830
35832
35834
35836
35838
35840
35842
35844
35846
35848
35850
35852
35854
35856
35858
35860
35862
35864
35866
35868
35870
35872
35874
35876
35878
35880
35882
35884
35886
35888
35890
35892
35894
35896
35898
35900
35902
35904
35906
35908
35910
35912
35914
35916
35918
35920
35922
35924
35926
35928
35930
35932
35934
35936
35938
35940
35942
35944
35946
35948
35950
35952
35954
35956
35958
35960
35962
35964
35966
35968
35970
35972
35974
35976
35978
35980
35982
35984
35986
35988
35990
35992
35994
35996
35998
36000
36002
36004
36006
36008
36010
36012
36014
36016
36018
36020
36022
36024
36026
36028
36030
36032
36034
36036
36038
36040
36042
36044
36046
36048
36050
36052
36054
36056
36058
36060
36062
36064
36066
36068
36070
36072
36074
36076
36078
36080
36082
36084
36086
36088
36090
36092
36094
36096
36098
36100
36102
36104
36106
36108
36110
36112
36114
36116
36118
36120
36122
36124
36126
36128
36130
36132
36134
36136
36138
36140
36142
36144
36146
36148
36150
36152
36154
36156
36158
36160
36162
36164
36166
36168
36170
36172
36174
36176
36178
36180
36182
36184
36186
36188
36190
36192
36194
36196
36198
36200
36202
36204
36206
36208
36210
36212
36214
36216
36218
36220
36222
36224
36226
36228
36230
36232
36234
36236
36238
36240
36242
36244
36246
36248
36250
36252
36254
36256
36258
36260
36262
36264
36266
36268
36270
36272
36274
36276
36278
36280
36282
36284
36286
36288
36290
36292
36294
36296
36298
36300
36302
36304
36306
36308
36310
36312
36314
36316
36318
36320
36322
36324
36326
36328
36330
36332
36334
36336
36338
36340
36342
36344
36346
36348
36350
36352
36354
36356
36358
36360
36362
36364
36366
36368
36370
36372
36374
36376
36378
36380
36382
36384
36386
36388
36390
36392
36394
36396
36398
36400
36402
36404
36406
36408
36410
36412
36414
36416
36418
36420
36422
36424
36426
36428
36430
36432
36434
36436
36438
36440
36442
36444
36446
36448
36450
36452
36454
36456
36458
36460
36462
36464
36466
36468
36470
36472
36474
36476
36478
36480
36482
36484
36486
36488
36490
36492
36494
36496
36498
36500
36502
36504
36506
36508
36510
36512
36514
36516
36518
36520
36522
36524
36526
36528
36530
36532
36534
36536
36538
36540
36542
36544
36546
36548
36550
36552
36554
36556
36558
36560
36562
36564
36566
36568
36570
36572
36574
36576
36578
36580
36582
36584
36586
36588
36590
36592
36594
36596
36598
36600
36602
36604
36606
36608
36610
36612
36614
36616
36618
36620
36622
36624
36626
36628
36630
36632
36634
36636
36638
36640
36642
36644
36646
36648
36650
36652
36654
36656
36658
36660
36662
36664
36666
36668
36670
36672
36674
36676
36678
36680
36682
36684
36686
36688
36690
36692
36694
36696
36698
36700
36702
36704
36706
36708
36710
36712
36714
36716
36718
36720
36722
36724
36726
36728
36730
36732
36734
36736
36738
36740
36742
36744
36746
36748
36750
36752
36754
36756
36758
36760
36762
36764
36766
36768
36770
36772
36774
36776
36778
36780
36782
36784
36786
36788
36790
36792
36794
36796
36798
36800
36802
36804
36806
36808
36810
36812
36814
36816
36818
36820
36822
36824
36826
36828
36830
36832
36834
36836
36838
36840
36842
36844
36846
36848
36850
36852
36854
36856
36858
36860
36862
36864
36866
36868
36870
36872
36874
36876
36878
36880
36882
36884
36886
36888
36890
36892
36894
36896
36898
36900
36902
36904
36906
36908
36910
36912
36914
36916
36918
36920
36922
36924
36926
36928
36930
36932
36934
36936
36938
36940
36942
36944
36946
36948
36950
36952
36954
36956
36958
36960
36962
36964
36966
36968
36970
36972
36974
36976
36978
36980
36982
36984
36986
36988
36990
36992
36994
36996
36998
37000
37002
37004
37006
37008
37010
37012
37014
37016
37018
37020
37022
37024
37026
37028
37030
37032
37034
37036
37038
37040
37042
37044
37046
37048
37050
37052
37054
37056
37058
37060
37062
37064
37066
37068
37070
37072
37074
37076
37078
37080
37082
37084
37086
37088
37090
37092
37094
37096
37098
37100
37102
37104
37106
37108
37110
37112
37114
37116
37118
37120
37122
37124
37126
37128
37130
37132
37134
37136
37138
37140
37142
37144
37146
37148
37150
37152
37154
37156
37158
37160
37162
37164
37166
37168
37170
37172
37174
37176
37178
37180
37182
37184
37186
37188
37190
37192
37194
37196
37198
37200
37202
37204
37206
37208
37210
37212
37214
37216
37218
37220
37222
37224
37226
37228
37230
37232
37234
37236
37238
37240
37242
37244
37246
37248
37250
37252
37254
37256
37258
37260
37262
37264
37266
37268
37270
37272
37274
37276
37278
37280
37282
37284
37286
37288
37290
37292
37294
37296
37298
37300
37302
37304
37306
37308
37310
37312
37314
37316
37318
37320
37322
37324
37326
37328
37330
37332
37334
37336
37338
37340
37342
37344
37346
37348
37350
37352
37354
37356
37358
37360
37362
37364
37366
37368
37370
37372
37374
37376
37378
37380
37382
37384
37386
37388
37390
37392
37394
37396
37398
37400
37402
37404
37406
37408
37410
37412
37414
37416
37418
37420
37422
37424
37426
37428
37430
37432
37434
37436
37438
37440
37442
37444
37446
37448
37450
37452
37454
37456
37458
37460
37462
37464
37466
37468
37470
37472
37474
37476
37478
37480
37482
37484
37486
37488
37490
37492
37494
37496
37498
37500
37502
37504
37506
37508
37510
37512
37514
37516
37518
37520
37522
37524
37526
37528
37530
37532
37534
37536
37538
37540
37542
37544
37546
37548
37550
37552
37554
37556
37558
37560
37562
37564
37566
37568
37570
37572
37574
37576
37578
37580
37582
37584
37586
37588
37590
37592
37594
37596
37598
37600
37602
37604
37606
37608
37610
37612
37614
37616
37618
37620
37622
37624
37626
37628
37630
37632
37634
37636
37638
37640
37642
37644
37646
37648
37650
37652
37654
37656
37658
37660
37662
37664
37666
37668
37670
37672
37674
37676
37678
37680
37682
37684
37686
37688
37690
37692
37694
37696
37698
37700
37702
37704
37706
37708
37710
37712
37714
37716
37718
37720
37722
37724
37726
37728
37730
37732
37734
37736
37738
37740
37742
37744
37746
37748
37750
37752
37754
37756
37758
37760
37762
37764
37766
37768
37770
37772
37774
37776
37778
37780
37782
37784
37786
37788
37790
37792
37794
37796
37798
37800
37802
37804
37806
37808
37810
37812
37814
37816
37818
37820
37822
37824
37826
37828
37830
37832
37834
37836
37838
37840
37842
37844
37846
37848
37850
37852
37854
37856
37858
37860
37862
37864
37866
37868
37870
37872
37874
37876
37878
37880
37882
37884
37886
37888
37890
37892
37894
37896
37898
37900
37902
37904
37906
37908
37910
37912
37914
37916
37918
37920
37922
37924
37926
37928
37930
37932
37934
37936
37938
37940
37942
37944
37946
37948
37950
37952
37954
37956
37958
37960
37962
37964
37966
37968
37970
37972
37974
37976
37978
37980
37982
37984
37986
37988
37990
37992
37994
37996
37998
38000
38002
38004
38006
38008
38010
38012
38014
38016
38018
38020
38022
38024
38026
38028
38030
38032
38034
38036
38038
38040
38042
38044
38046
38048
38050
38052
38054
38056
38058
38060
38062
38064
38066
38068
38070
38072
38074
38076
38078
38080
38082
38084
38086
38088
38090
38092
38094
38096
38098
38100
38102
38104
38106
38108
38110
38112
38114
38116
38118
38120
38122
38124
38126
38128
38130
38132
38134
38136
38138
38140
38142
38144
38146
38148
38150
38152
38154
38156
38158
38160
38162
38164
38166
38168
38170
38172
38174
38176
38178
38180
38182
38184
38186
38188
38190
38192
38194
38196
38198
38200
38202
38204
38206
38208
38210
38212
38214
38216
38218
38220
38222
38224
38226
38228
38230
38232
38234
38236
38238
38240
38242
38244
38246
38248
38250
38252
38254
38256
38258
38260
38262
38264
38266
38268
38270
38272
38274
38276
38278
38280
38282
38284
38286
38288
38290
38292
38294
38296
38298
38300
38302
38304
38306
38308
38310
38312
38314
38316
      </DataArray>
      <DataArray type="UInt8" Name="types" format="ascii">
69
69
69
69
69
69
69
69
69
69
69
69
69
69
69
69
69
69
69
69
69
69
69
69
69
69
69
69
69
69
69
69
69
69
69
69
69
69
69
69
69
69
69
69
69
69
69
69
69
69
69
69
69
69
69
69
69
69
69
69
69
69
69
69
69
69
69
69
69
69
69
69
69
69
69
69
69
69
69
69
69
69
69
69
69
69
69
69
69
69
69
69
69
69
69
69
69
69
69
69
69
69
69
69
69
69
69
69
69
69
69
69
69
69
69
69
69
69
69
69
69
69
69
69
69
69
69
69
69
69
69
69
69
69
69
69
69
69
69
69
69
69
69
69
69
69
69
69
69
69
69
69
69
69
69
69
69
69
69
69
69
69
69
69
69
69
69
69
69
69
69
69
69
69
69
69
69
69
69
69
69
69
69
69
69
69
69
69
69
69
69
69
69
69
69
69
69
69
69
69
69
69
69
69
69
69
69
69
69
69
69
69
69
69
69
69
69
69
69
69
69
69
69
69
69
69
69
69
69
69
69
69
69
69
69
69
69
69
69
69
69
69
69
69
69
69
69
69
69
69
69
69
69
69
69
69
69
69
69
69
69
69
69
69
69
69
69
69
69
69
69
69
69
69
69
69
69
69
69
69
69
69
69
69
69
69
69
69
69
69
69
69
69
69
69
69
69
69
69
69
69
69
69
69
69
69
69
69
69
69
69
69
69
69
69
69
69
69
69
69
69
69
69
69
69
69
69
69
69
69
69
69
69
69
69
69
69
69
69
69
69
69
69
69
69
69
69
69
69
69
69
69
69
69
69
69
69
69
69
69
69
69
69
69
69
69
69
69
69
69
69
69
69
69
69
69
69
69
69
69
69
69
69
69
69
69
69
69
69
69
69
69
69
69
69
69
69
69
69
69
69
69
69
69
69
69
69
69
69
69
69
69
69
69
69
69
69
69
69
69
69
69
69
69
69
69
69
69
69
69
69
69
69
69
69
69
69
69
69
69
69
69
69
69
69
69
69
69
69
69
69
69
69
69
69
69
69
69
69
69
69
69
69
69
69
69
69
69
69
69
69
69
69
69
69
69
69
69
69
69
69
69
69
69
69
69
69
69
69
69
69
69
69
69
69
69
69
69
69
69
69
69
69
69
69
69
69
69
69
69
69
69
69
69
69
69
69
69
69
69
69
69
69
69
69
69
69
69
69
69
69
69
69
69
69
69
69
69
69
69
69
69
69
69
69
69
69
69
69
69
69
69
69
69
69
69
69
69
69
69
69
69
69
69
69
69
69
69
69
69
69
69
69
69
69
69
69
69
69
69
69
69
69
69
69
69
69
69
69
69
69
69
69
69
69
69
69
69
69
69
69
69
69
69
69
69
69
69
69
69
69
69
69
69
69
69
69
69
69
69
69
69
69
69
69
69
69
69
69
69
69
69
69
69
69
69
69
69
69
69
69
69
69
69
69
69
69
69
69
69
69
69
69
69
69
69
69
69
69
69
69
69
69
69
69
69
69
69
69
69
69
69
69
69
69
69
69
69
69
69
69
69
69
69
69
69
69
69
69
69
69
69
69
69
69
69
69
69
69
69
69
69
69
69
69
69
69
69
69
69
69
69
69
69
69
69
69
69
69
69
69
69
69
69
69
69
69
69
69
69
69
69
69
69
69
69
69
69
69
69
69
69
69
69
69
69
69
69
69
69
69
69
69
69
69
69
69
69
69
69
69
69
69
69
69
69
69
69
69
69
69
69
69
69
69
69
69
69
69
69
69
69
69
69
69
69
69
69
69
69
69
69
69
69
69
69
69
69
69
69
69
69
69
69
69
69
69
69
69
69
69
69
69
69
69
69
69
69
69
69
69
69
69
69
69
69
69
69
69
69
69
69
69
69
69
69
69
69
69
69
69
69
69
69
69
69
69
69
69
69
69
69
69
69
69
69
69
69
69
69
69
69
69
69
69
69
69
69
69
69
69
69
69
69
69
69
69
69
69
69
69
69
69
69
69
69
69
69
69
69
69
69
69
69
69
69
69
69
69
69
69
69
69
69
69
69
69
69
69
69
69
69
69
69
69
69
69
69
69
69
69
69
69
69
69
69
69
69
69
69
69
69
69
69
69
69
69
69
69
69
69
69
69
69
69
69
69
69
69
69
69
69
69
69
69
69
69
69
69
69
69
69
69
69
69
69
69
69
69
69
69
69
69
69
69
69
69
69
69
69
69
69
69
69
69
69
69
69
69
69
69
69
69
69
69
69
69
69
69
69
69
69
69
69
69
69
69
69
69
69
69
69
69
69
69
69
69
69
69
69
69
69
69
69
69
69
69
69
69
69
69
69
69
69
69
69
69
69
69
69
69
69
69
69
69
69
69
69
69
69
69
69
69
69
69
69
69
69
69
69
69
69
69
69
69
69
69
69
69
69
69
69
69
69
69
69
69
69
69
69
69
69
69
69
69
69
69
69
69
69
69
69
69
69
69
69
69
69
69
69
69
69
69
69
69
69
69
69
69
69
69
69
69
69
69
69
69
69
69
69
69
69
69
69
69
69
69
69
69
69
69
69
69
69
69
69
69
69
69
69
69
69
69
69
69
69
69
69
69
69
69
69
69
69
69
69
69
69
69
69
69
69
69
69
69
69
69
69
69
69
69
69
69
69
69
69
69
69
69
69
69
69
69
69
69
69
69
69
69
69
69
69
69
69
69
69
69
69
69
69
69
69
69
69
69
69
69
69
69
69
69
69
69
69
69
69
69
69
69
69
69
69
69
69
69
69
69
69
69
69
69
69
69
69
69
69
69
69
69
69
69
69
69
69
69
69
69
69
69
69
69
69
69
69
69
69
69
69
69
69
69
69
69
69
69
69
69
69
69
69
69
69
69
69
69
69
69
69
69
69
69
69
69
69
69
69
69
69
69
69
69
69
69
69
69
69
69
69
69
69
69
69
69
69
69
69
69
69
69
69
69
69
69
69
69
69
69
69
69
69
69
69
69
69
69
69
69
69
69
69
69
69
69
69
69
69
69
69
69
69
69
69
69
69
69
69
69
69
69
69
69
69
69
69
69
69
69
69
69
69
69
69
69
69
69
69
69
69
69
69
69
69
69
69
69
69
69
69
69
69
69
69
69
69
69
69
69
69
69
69
69
69
69
69
69
69
69
69
69
69
69
69
69
69
69
69
69
69
69
69
69
69
69
69
69
69
69
69
69
69
69
69
69
69
69
69
69
69
69
69
69
69
69
69
69
69
69
69
69
69
69
69
69
69
69
69
69
69
69
69
69
69
69
69
69
69
69
69
69
69
69
69
69
69
69
69
69
69
69
69
69
69
69
69
69
69
69
69
69
69
69
69
69
69
69
69
69
69
69
69
69
69
69
69
69
69
69
69
69
69
69
69
69
69
69
69
69
69
69
69
69
69
69
69
69
69
69
69
69
69
69
69
69
69
69
69
69
69
69
69
69
69
69
69
69
69
69
69
69
69
69
69
69
69
69
69
69
69
69
69
69
69
69
69
69
69
69
69
69
69
69
69
69
69
69
69
69
69
69
69
69
69
69
69
69
69
69
69
69
69
69
69
69
69
69
69
69
69
69
69
69
69
69
69
69
69
69
69
69
69
69
69
69
69
69
69
69
69
69
69
69
69
69
69
69
69
69
69
69
69
69
69
69
69
69
69
69
69
69
69
69
69
69
69
69
69
69
69
69
69
69
69
69
69
69
69
69
69
69
69
69
69
69
69
69
69
69
69
69
69
69
69
69
69
69
69
69
69
69
69
69
69
69
69
69
69
69
69
69
69
69
69
69
69
3
3
3
3
3
3
3
3
3
3
3
3
3
3
3
3
3
3
3
3
3
3
3
3
3
3
3
3
3
3
3
3
3
3
3
3
3
3
3
3
3
3
3
3
3
3
3
3
3
3
3
3
3
3
3
3
3
3
3
3
3
3
3
3
3
3
3
3
3
3
3
3
3
3
3
3
3
3
3
3
3
3
3
3
3
3
3
3
3
3
3
3
3
3
3
3
3
3
3
3
3
3
3
3
3
3
3
3
3
3
3
3
3
3
3
3
3
3
3
3
3
3
3
3
3
3
3
3
3
3
3
3
3
3
3
3
3
3
3
3
3
3
3
3
3
3
3
3
3
3
3
3
3
3
3
3
3
3
3
3
3
3
3
3
3
3
3
3
3
3
3
3
3
3
3
3
3
3
3
3
3
3
3
3
3
3
3
3
3
3
3
3
3
3
3
3
3
3
3
3
3
3
3
3
3
3
3
3
3
3
3
3
3
3
3
3
3
3
3
3
3
3
3
3
3
3
3
3
3
3
3
3
3
3
3
3
3
3
3
3
3
3
3
3
3
3
3
3
3
3
3
3
3
3
3
3
3
3
3
3
3
3
3
3
3
3
3
3
3
3
3
3
3
3
3
3
3
3
3
3
3
3
3
3
3
3
3
3
3
3
3
3
3
3
3
3
3
3
3
3
3
3
3
3
3
3
3
3
3
3
3
3
3
3
3
3
3
3
3
3
3
3
3
3
3
3
3
3
3
3
3
3
3
3
3
3
3
3
3
3
3
3
3
3
3
3
3
3
3
3
3
3
3
3
3
3
3
3
3
3
3
3
3
3
3
3
3
3
3
3
3
3
3
3
3
3
3
3
3
3
3
3
3
3
3
3
3
3
3
3
3
3
3
3
3
3
3
3
3
3
3
3
3
3
3
3
3
3
3
3
3
3
3
3
3
3
3
3
3
3
3
3
3
3
3
3
3
3
3
3
3
3
3
3
3
3
3
3
3
3
3
3
3
3
3
3
3
3
3
3
3
3
3
3
3
3
3
3
3
3
3
3
3
3
3
3
3
3
3
3
3
3
3
3
3
3
3
3
3
3
3
3
3
3
3
3
3
3
3
3
3
3
3
3
3
3
3
3
3
3
3
3
3
3
3
3
3
3
3
3
3
3
3
3
3
3
3
3
3
3
3
3
3
3
3
3
3
3
3
3
3
3
3
3
3
3
3
3
3
3
3
3
3
3
3
3
3
3
3
3
3
3
3
3
3
3
3
3
3
3
3
3
3
3
3
3
3
3
3
3
3
3
3
3
3
3
3
3
3
3
3
3
3
3
3
3
3
3
3
3
3
3
3
3
3
3
3
3
3
3
3
3
3
3
3
3
3
3
3
3
3
3
3
3
3
3
3
3
3
3
3
3
3
3
3
3
3
3
3
3
3
3
3
3
3
3
3
3
3
3
3
3
3
3
3
3
3
3
3
3
3
3
3
3
3
3
3
3
3
3
3
3
3
3
3
3
3
3
3
3
3
3
3
3
3
3
3
3
3
3
3
3
3
3
3
3
3
3
3
3
3
3
3
3
3
3
3
3
3
3
3
3
3
3
3
3
3
3
3
3
3
3
3
3
3
3
3
3
3
3
3
3
3
3
3
3
3
3
3
3
3
3
3
3
3
3
3
3
3
3
3
3
3
3
3
3
3
3
3
3
3
3
3
3
3
3
3
3
3
3
3
3
3
3
3
3
3
3
3
3
3
3
3
3
3
3
3
3
3
3
3
3
3
3
3
3
3
3
3
3
3
3
3
3
3
3
3
3
3
3
3
3
3
3
3
3
3
3
3
3
3
3
3
3
3
3
3
3
3
3
3
3
3
3
3
3
3
3
3
3
3
3
3
3
3
3
3
3
3
3
3
3
3
3
3
3
3
3
3
3
3
3
3
3
3
3
3
3
3
3
3
3
3
3
3
3
3
3
3
3
3
3
3
3
3
3
3
3
3
3
3
3
3
3
3
3
3
3
3
3
3
3
3
3
3
3
3
3
3
3
3
3
3
3
3
3
3
3
3
3
3
3
3
3
3
3
3
3
3
3
3
3
3
3
3
3
3
3
3
3
3
3
3
3
3
3
3
3
3
3
3
3
3
3
3
3
3
3
3
3
3
3
3
3
3
3
3
3
3
3
3
3
3
3
3
3
3
3
3
3
3
3
3
3
3
3
3
3
3
3
3
3
3
3
3
3
3
3
3
3
3
3
3
3
3
3
3
3
3
3
3
3
3
3
3
3
3
3
3
3
3
3
3
3
3
3
3
3
3
3
3
3
3
3
3
3
3
3
3
3
3
3
3
3
3
3
3
3
3
3
3
3
3
3
3
3
3
3
3
3
3
3
3
3
3
3
3
3
3
3
3
3
3
3
3
3
3
3
3
3
3
3
3
3
3
3
3
3
3
3
3
3
3
3
3
3
3
3
3
3
3
3
3
3
3
3
3
3
3
3
3
3
3
3
3
3
3
3
3
3
3
3
3
3
3
3
3
3
3
3
3
3
3
3
3
3
3
3
3
3
3
3
3
3
3
3
3
3
3
3
3
3
3
3
3
3
3
3
3
3
3
3
3
3
3
3
3
3
3
3
3
3
3
3
3
3
3
3
3
3
3
3
3
3
3
3
3
3
3
3
3
3
3
3
3
3
3
3
3
3
3
3
3
3
3
3
3
3
3
3
3
3
3
3
3
3
3
3
3
3
3
3
3
3
3
3
3
3
3
3
3
3
3
3
3
3
3
3
3
3
3
3
3
3
3
3
3
3
3
3
3
3
3
3
3
3
3
3
3
3
3
3
3
3
3
3
3
3
3
3
3
3
3
3
3
3
3
3
3
3
3
3
3
3
3
3
3
3
3
3
3
3
3
3
3
3
3
3
3
3
3
3
3
3
3
3
3
3
3
3
3
3
3
3
3
3
3
3
3
3
3
3
3
3
3
3
3
3
3
3
3
3
3
3
3
3
3
3
3
3
3
3
3
3
3
3
3
3
3
3
3
3
3
3
3
3
3
3
3
3
3
3
3
3
3
3
3
3
3
3
3
3
3
3
3
3
3
3
3
3
3
3
3
3
3
3
3
3
3
3
3
3
3
3
3
3
3
3
3
3
3
3
3
3
3
3
3
3
3
3
3
3
3
3
3
3
3
3
3
3
3
3
3
3
3
3
3
3
3
3
3
3
3
3
3
3
3
3
3
3
3
3
3
3
3
3
3
3
3
3
3
3
3
3
3
3
3
3
3
3
3
3
3
3
3
3
3
3
3
3
3
3
3
3
3
3
3
3
3
3
3
3
3
3
3
3
3
3
3
3
3
3
3
3
3
3
3
3
3
3
3
3
3
3
3
3
3
3
3
3
3
3
3
3
3
3
3
3
3
3
3
3
3
3
3
3
3
3
3
3
3
3
3
3
3
3
3
3
3
3
3
3
3
3
3
3
3
3
3
3
3
3
3
3
3
3
3
3
3
3
3
3
3
3
3
3
3
3
3
3
3
3
3
3
3
3
3
3
3
3
3
3
3
3
3
3
3
3
3
3
3
3
3
3
3
3
3
3
3
3
3
3
3
3
3
3
3
3
3
3
3
3
3
3
3
3
3
3
3
3
3
3
3
3
3
3
3
3
3
3
3
3
3
3
3
3
3
3
3
3
3
3
3
3
3
3
3
3
3
3
3
3
3
3
3
3
3
3
3
3
3
3
3
3
3
3
3
3
3
3
3
3
3
3
3
3
3
3
3
3
3
3
3
3
3
3
3
3
3
3
3
3
3
3
3
3
3
3
3
3
3
3
3
3
3
3
3
3
3
3
3
3
3
3
3
3
3
3
3
3
3
3
3
3
3
3
3
3
3
3
3
3
3
3
3
3
3
3
3
3
3
3
3
3
3
3
3
3
3
3
3
3
3
3
3
3
3
3
3
3
3
3
3
3
3
3
3
3
3
3
3
3
3
3
3
3
3
3
3
3
3
3
3
3
3
3
3
3
3
3
3
3
3
3
3
3
3
3
3
3
3
3
3
3
3
3
3
3
3
3
3
3
3
3
3
3
3
3
3
3
3
3
3
3
3
3
3
3
3
3
3
3
3
3
3
3
3
3
3
3
3
3
3
3
3
3
3
3
3
3
3
3
3
3
3
3
3
3
3
3
3
3
3
3
3
3
3
3
3
3
3
3
3
3
3
3
3
3
3
3
3
3
3
3
3
3
3
3
3
3
3
3
3
3
3
3
3
3
3
3
3
3
3
3
3
3
3
3
3
3
3
3
3
3
3
3
3
3
3
3
3
3
3
3
3
3
3
3
3
3
3
3
3
3
3
3
3
3
3
3
3
3
3
3
3
3
3
3
3
3
3
3
3
3
3
3
3
3
3
3
3
3
3
3
3
3
3
3
3
3
3
3
3
3
3
3
3
3
3
3
3
3
3
3
3
3
3
3
3
3
3
3
3
3
3
3
3
3
3
3
3
3
3
3
3
3
3
3
3
3
3
3
3
3
3
3
3
3
3
3
3
3
3
3
3
3
3
3
3
3
3
3
3
3
3
3
3
3
3
3
3
3
3
3
3
3
3
3
3
3
3
3
3
3
3
3
3
3
3
3
3
3
3
3
3
3
3
3
3
3
3
3
3
3
3
3
3
3
3
3
3
3
3
3
3
3
3
3
3
3
3
3
3
3
3
3
3
3
3
3
3
3
3
3
3
3
3
3
3
3
3
3
3
3
3
3
3
3
3
3
3
3
3
3
3
3
3
3
3
3
3
3
3
3
3
3
3
3
3
3
3
3
3
3
3
3
3
3
3
3
3
3
3
3
3
3
3
3
3
3
3
3
3
3
3
3
3
3
3
3
3
3
3
3
3
3
3
3
3
3
3
3
3
3
3
3
3
3
3
3
3
3
3
3
3
3
3
3
3
3
3
3
3
3
3
3
3
3
3
3
3
3
3
3
3
3
3
3
3
3
3
3
3
3
3
3
3
3
3
3
3
3
3
3
3
3
3
3
3
3
3
3
3
3
3
3
3
3
3
3
3
3
3
3
3
3
3
3
3
3
3
3
3
3
3
3
3
3
3
3
3
3
3
3
3
3
3
3
3
3
3
3
3
3
3
3
3
3
3
3
3
3
3
3
3
3
3
3
3
3
3
3
3
3
3
3
3
3
3
3
3
3
3
3
3
3
3
3
3
3
3
3
3
3
3
3
3
3
3
3
3
3
3
3
3
3
3
3
3
3
3
3
3
3
3
3
3
3
3
3
3
3
3
3
3
3
3
3
3
3
3
3
3
3
3
3
3
3
3
3
3
3
3
3
3
3
3
3
3
3
3
3
3
3
3
3
3
3
3
3
3
3
3
3
3
3
3
3
3
3
3
3
3
3
3
3
3
3
3
3
3
3
3
3
3
3
3
3
3
3
3
3
3
3
3
3
3
3
3
3
3
3
3
3
3
3
3
3
3
3
3
3
3
3
3
3
3
3
3
3
3
3
3
3
3
3
3
3
3
3
3
3
3
3
3
3
3
3
3
3
3
3
3
3
3
3
3
3
3
3
3
3
3
3
3
3
3
3
3
3
3
3
3
3
3
3
3
3
3
3
3
3
3
3
3
3
3
3
3
3
3
3
3
3
3
3
3
3
3
3
3
3
3
3
3
3
3
3
3
3
3
3
3
3
3
3
3
3
3
3
3
3
3
3
3
3
3
3
3
3
3
3
3
3
3
3
3
3
3
3
3
3
3
3
3
3
3
3
3
3
3
3
3
3
3
3
3
3
3
3
3
3
3
3
3
3
3
3
3
3
3
3
3
3
3
3
3
3
3
3
3
3
3
3
3
3
3
3
3
3
3
3
3
3
3
3
3
3
3
3
3
3
3
3
3
3
3
3
3
3
3
3
3
3
3
3
3
3
3
3
3
3
3
3
3
3
3
3
3
3
3
3
3
3
3
3
3
3
3
3
3
3
3
3
3
3
3
3
3
3
3
3
3
3
3
3
3
3
3
3
3
3
3
3
3
3
3
3
3
3
3
3
3
3
3
3
3
3
3
3
3
3
3
3
3
3
3
3
3
3
3
3
3
3
3
3
3
3
3
3
3
3
3
3
3
3
3
3
3
3
3
3
3
3
3
3
3
3
3
3
3
3
3
3
3
3
3
3
3
3
3
3
3
3
3
3
3
3
3
3
3
3
3
3
3
3
3
3
3
3
3
3
3
3
3
3
3
3
3
3
3
3
3
3
3
3
3
3
3
3
3
3
3
3
3
3
3
3
3
3
3
3
3
3
3
3
3
3
3
3
3
3
3
3
3
3
3
3
3
3
3
3
3
3
3
3
3
3
3
3
3
3
3
3
3
3
3
3
3
3
3
3
3
3
3
3
3
3
3
3
3
3
3
3
3
3
3
3
3
3
3
3
3
3
3
3
3
3
3
3
3
3
3
3
3
3
3
3
3
3
3
3
3
3
3
3
3
3
3
3
3
3
3
3
3
3
3
3
3
3
3
3
3
3
3
3
3
3
3
3
3
3
3
3
3
3
3
3
3
3
3
3
3
3
3
3
3
3
3
3
3
3
3
3
3
3
3
3
3
3
3
3
3
3
3
3
3
3
3
3
3
3
3
3
3
3
3
3
3
3
3
3
3
3
3
3
3
3
3
3
3
3
3
3
3
3
3
3
3
3
3
3
3
3
3
3
3
3
3
3
3
3
3
3
3
3
3
3
3
3
3
3
3
3
3
3
3
3
3
3
3
3
3
3
3
3
3
3
3
3
3
3
3
3
3
3
3
3
3
3
3
3
3
3
3
3
3
3
3
3
3
3
3
3
3
3
3
3
3
3
3
3
3
3
3
3
3
3
3
3
3
3
3
3
3
3
3
3
3
3
3
3
3
3
3
3
3
3
3
3
3
3
3
3
3
3
3
3
3
3
3
3
3
3
3
3
3
3
3
3
3
3
3
3
3
3
3
3
3
3
3
3
3
3
3
3
3
3
3
3
3
3
3
3
3
3
3
3
3
3
3
3
3
3
3
3
3
3
3
3
3
3
3
3
3
3
3
3
3
3
3
3
3
3
3
3
3
3
3
3
3
3
3
3
3
3
3
3
3
3
3
3
3
3
3
3
3
3
3
3
3
3
3
3
3
3
3
3
3
3
3
3
3
3
3
3
3
3
3
3
3
3
3
3
3
3
3
3
3
3
3
3
3
3
3
3
3
3
3
3
3
3
3
3
3
3
3
3
3
3
3
3
3
3
3
3
3
3
3
3
3
3
3
3
3
3
3
3
3
3
3
3
3
3
3
3
3
3
3
3
3
3
3
3
3
3
3
3
3
3
3
3
3
3
3
3
3
3
3
3
3
3
3
3
3
3
3
3
3
3
3
3
3
3
3
3
3
3
3
3
3
3
3
3
3
3
3
3
3
3
3
3
3
3
3
3
3
3
3
3
3
3
3
3
3
3
3
3
3
3
3
3
3
3
3
3
3
3
3
3
3
3
3
3
3
3
3
3
3
3
3
3
3
3
3
3
3
3
3
3
3
3
3
3
3
3
3
3
3
3
3
3
3
3
3
3
3
3
3
3
3
3
3
3
3
3
3
3
3
3
3
3
3
3
3
3
3
3
3
3
3
3
3
3
3
3
3
3
3
3
3
3
3
3
3
3
3
3
3
3
3
3
3
3
3
3
3
3
3
3
3
3
3
3
3
3
3
3
3
3
3
3
3
3
3
3
3
3
3
3
3
3
3
3
3
3
3
3
3
3
3
3
3
3
3
3
3
3
3
3
3
3
3
3
3
3
3
3
3
3
3
3
3
3
3
3
3
3
3
3
3
3
3
3
3
3
3
3
3
3
3
3
3
3
3
3
3
3
3
3
3
3
3
3
3
3
3
3
3
3
3
3
3
3
3
3
3
3
3
3
3
3
3
3
3
3
3
3
3
3
3
3
3
3
3
3
3
3
3
3
3
3
3
3
3
3
3
3
3
3
3
3
3
3
3
3
3
3
3
3
3
3
3
3
3
3
3
3
3
3
3
3
3
3
3
3
3
3
3
3
3
3
3
3
3
3
3
3
3
3
3
3
3
3
3
3
3
3
3
3
3
3
3
3
3
3
3
3
3
3
3
3
3
3
3
3
3
3
3
3
3
3
3
3
3
3
3
3
3
3
3
3
3
3
3
3
3
3
3
3
3
3
3
3
3
3
3
3
3
3
3
3
3
3
3
3
3
3
3
3
3
3
3
3
3
3
3
3
3
3
3
3
3
3
3
3
3
3
3
3
3
3
3
3
3
3
3
3
3
3
3
3
3
3
3
3
3
3
3
3
3
3
3
3
3
3
3
3
3
3
3
3
3
3
3
3
3
3
3
3
3
3
3
3
3
3
3
3
3
3
3
3
3
3
3
3
3
3
3
3
3
3
3
3
3
3
3
3
3
3
3
3
3
3
3
3
3
3
3
3
3
3
3
3
3
3
3
3
3
3
3
3
3
3
3
3
3
3
3
3
3
3
3
3
3
3
3
3
3
3
3
3
3
3
3
3
3
3
3
3
3
3
3
3
3
3
3
3
3
3
3
3
3
3
3
3
3
3
3
3
3
3
3
3
3
3
3
3
3
3
3
3
3
3
3
3
3
3
3
3
3
3
3
3
3
3
3
3
3
3
3
3
3
3
3
3
3
3
3
3
3
3
3
3
3
3
3
3
3
3
3
3
3
3
3
3
3
3
3
3
3
3
3
3
3
3
3
3
3
3
3
3
3
3
3
3
3
3
3
3
3
3
3
3
3
3
3
3
3
3
3
3
3
3
3
3
3
3
3
3
3
3
3
3
3
3
3
3
3
3
3
3
3
3
3
3
3
3
3
3
3
3
3
3
3
3
3
3
3
3
3
3
3
3
3
3
3
3
3
3
3
3
3
3
3
3
3
3
3
3
3
3
3
3
3
3
3
3
3
3
3
3
3
3
3
3
3
3
3
3
3
3
3
3
3
3
3
3
3
3
3
3
3
3
3
3
3
3
3
3
3
3
3
3
3
3
3
3
3
3
3
3
3
3
3
3
3
3
3
3
3
3
3
3
3
3
3
3
3
3
3
3
3
3
3
3
3
3
3
3
3
3
3
3
3
3
3
3
3
3
3
3
3
3
3
3
3
3
3
3
3
3
3
3
3
3
3
3
3
3
3
3
3
3
3
3
3
3
3
3
3
3
3
3
3
3
3
3
3
3
3
3
3
3
3
3
3
3
3
3
3
3
3
3
3
3
3
3
3
3
3
3
3
3
3
3
3
3
3
3
3
3
3
3
3
3
3
3
3
3
3
3
3
3
3
3
3
3
3
3
3
3
3
3
3
3
3
3
3
3
3
3
3
3
3
3
3
3
3
3
3
3
3
3
3
3
3
3
3
3
3
3
3
3
3
3
3
3
3
3
3
3
3
3
3
3
3
3
3
3
3
3
3
3
3
3
3
3
3
3
3
3
3
3
3
3
3
3
3
3
3
3
3
3
3
3
3
3
3
3
3
3
3
3
3
3
3
3
3
3
3
3
3
3
3
3
3
3
3
3
3
3
3
3
3
3
3
3
3
3
3
3
3
3
3
3
3
3
3
3
3
3
3
3
3
3
3
3
3
3
3
3
3
3
3
3
3
3
3
3
3
3
3
3
3
3
3
3
3
3
3
3
3
3
3
3
3
3
3
3
3
3
3
3
3
3
3
3
3
3
3
3
3
3
3
3
3
3
3
3
3
3
3
3
3
3
3
3
3
3
3
3
3
3
3
3
3
3
3
3
3
3
3
3
3
3
3
3
3
3
3
3
3
3
3
3
3
3
3
3
3
3
3
3
3
3
3
3
3
3
3
3
3
3
3
3
3
3
3
3
3
3
3
3
3
3
3
3
3
3
3
3
3
3
3
3
3
3
3
3
3
3
3
3
3
3
3
3
3
3
3
3
3
3
3
3
3
3
3
3
3
3
3
3
3
3
3
3
3
3
3
3
3
3
3
3
3
3
3
3
3
3
3
3
3
3
3
3
3
3
3
3
3
3
3
3
3
3
3
3
3
3
3
3
3
3
3
3
3
3
3
3
3
3
3
3
3
3
3
3
3
3
3
3
3
3
3
3
3
3
3
3
3
3
3
3
3
3
3
3
3
3
3
3
3
3
3
3
3
3
3
3
3
3
3
3
3
3
3
3
3
3
3
3
3
3
3
3
3
3
3
3
3
3
3
3
3
3
3
3
3
3
3
3
3
3
3
3
3
3
3
3
3
3
3
3
3
3
3
3
3
3
3
3
3
3
3
3
3
3
3
3
3
3
3
3
3
3
3
3
3
3
3
3
3
3
3
3
3
3
3
3
3
3
3
3
3
3
3
3
3
3
3
3
3
3
3
3
3
3
3
3
3
3
3
3
3
3
3
3
3
3
3
3
3
3
3
3
3
3
3
3
3
3
3
3
3
3
3
3
3
3
3
3
3
3
3
3
3
3
3
3
3
3
3
3
3
3
3
3
3
3
3
3
3
3
3
3
3
3
3
3
3
3
3
3
3
3
3
3
3
3
3
3
3
3
3
3
3
3
3
3
3
3
3
3
3
3
3
3
3
3
3
3
3
3
3
3
3
3
3
3
3
3
3
3
3
3
3
3
3
3
3
3
3
3
3
3
3
3
3
3
3
3
3
3
3
3
3
3
3
3
3
3
3
3
3
3
3
3
3
3
3
3
3
3
3
3
3
3
3
3
3
3
3
3
3
3
3
3
3
3
3
3
3
3
3
3
3
3
3
3
3
3
3
3
3
3
3
3
3
3
3
3
3
3
3
3
3
3
3
3
3
3
3
3
3
3
3
3
3
3
3
3
3
3
3
3
3
3
3
3
3
3
3
3
3
3
3
3
3
3
3
3
3
3
3
3
3
3
3
3
3
3
3
3
3
3
3
3
3
3
3
3
3
3
3
3
3
3
3
3
3
3
3
3
3
3
3
3
3
3
3
3
3
3
3
3
3
3
3
3
3
3
3
3
3
3
3
3
3
3
3
3
3
3
3
3
3
3
3
3
3
3
3
3
3
3
3
3
3
3
3
3
3
3
3
3
3
3
3
3
3
3
3
3
3
3
3
3
3
3
3
3
3
3
3
3
3
3
3
3
3
3
3
3
3
3
3
3
3
3
3
3
3
3
3
3
3
3
3
3
3
3
3
3
3
3
3
3
3
3
3
3
3
3
3
3
3
3
3
3
3
3
3
3
3
3
3
3
3
3
3
3
3
3
3
3
3
3
3
3
3
3
3
3
3
3
3
3
3
3
3
3
3
3
3
3
3
3
3
3
3
3
3
3
3
3
3
3
3
3
3
3
3
3
3
3
3
3
3
3
3
3
3
3
3
3
3
3
3
3
3
3
3
3
3
3
3
3
3
3
3
3
3
3
3
3
3
3
3
3
3
3
3
3
3
3
3
3
3
3
3
3
3
3
3
3
3
3
3
3
3
3
3
3
3
3
3
3
3
3
3
3
3
3
3
3
3
3
3
3
3
3
3
3
3
3
3
3
3
3
3
3
3
3
3
3
3
3
3
3
3
3
3
3
3
3
3
3
3
3
3
3
3
3
3
3
3
3
3
3
3
3
3
3
3
3
3
3
3
3
3
3
3
3
3
3
3
3
3
3
3
3
3
3
3
3
3
3
3
3
3
3
3
3
3
3
3
3
3
3
3
3
3
3
3
3
3
3
3
3
3
3
3
3
3
3
3
3
3
3
3
3
3
3
3
3
3
3
3
3
3
3
3
3
3
3
3
3
3
3
3
3
3
3
3
3
3
3
3
3
3
3
3
3
3
3
3
3
3
3
3
3
3
3
3
3
3
3
3
3
3
3
3
3
3
3
3
3
3
3
3
3
3
3
3
3
3
3
3
3
3
3
3
3
3
3
3
3
3
3
3
3
3
3
3
3
3
3
3
3
3
3
3
3
3
3
3
3
3
3
3
3
3
3
3
3
3
3
3
3
3
3
3
3
3
3
3
3
3
3
3
3
3
3
3
3
3
3
3
3
3
3
3
3
3
3
3
3
3
3
3
3
3
3
3
3
3
3
3
3
3
3
3
3
3
3
3
3
3
3
3
3
3
3
3
3
3
3
3
3
3
3
3
3
3
3
3
3
3
3
3
3
3
3
3
3
3
3
3
3
3
3
3
3
3
3
3
3
3
3
3
3
3
3
3
3
3
3
3
3
3
3
3
3
3
3
3
3
3
3
3
3
3
3
3
3
3
3
3
3
3
3
3
3
3
3
3
3
3
3
3
3
3
3
3
3
3
3
3
3
3
3
3
3
3
3
3
3
3
3
3
3
3
3
3
3
3
3
3
3
3
3
3
3
3
3
3
3
3
3
3
3
3
3
3
3
3
3
3
3
3
3
3
3
3
3
3
3
3
3
3
3
3
3
3
3
3
3
3
3
3
3
3
3
3
3
3
3
3
3
3
3
3
3
3
3
3
3
3
3
3
3
3
3
3
3
3
3
3
3
3
3
3
3
3
3
3
3
3
3
3
3
3
3
3
3
3
3
3
3
3
3
3
3
3
3
3
3
3
3
3
3
3
3
3
3
3
3
3
3
3
3
3
3
3
3
3
3
3
3
3
3
3
3
3
3
3
3
3
3
3
3
3
3
3
3
3
3
3
3
3
3
3
3
3
3
3
3
3
3
3
3
3
3
3
3
3
3
3
3
3
3
3
3
3
3
3
3
3
3
3
3
3
3
3
3
3
3
3
3
3
3
3
3
3
3
3
3
3
3
3
3
3
3
3
3
3
3
3
3
3
3
3
3
3
3
3
3
3
3
3
3
3
3
3
3
3
3
3
3
3
3
3
3
3
3
3
3
3
3
3
3
3
3
3
3
3
3
3
3
3
3
3
3
3
3
3
3
3
3
3
3
3
3
3
3
3
3
3
3
3
3
3
3
3
3
3
3
3
3
3
3
3
3
3
3
3
3
3
3
3
3
3
3
3
3
3
3
3
3
3
3
3
3
3
3
3
3
3
3
3
3
3
3
3
3
3
3
3
3
3
3
3
3
3
3
3
3
3
3
3
3
3
3
3
3
3
3
3
3
3
3
3
3
3
3
3
3
3
3
3
3
3
3
3
3
3
3
3
3
3
3
3
3
3
3
3
3
3
3
3
3
3
3
3
3
3
3
3
3
3
3
3
3
3
3
3
3
3
3
3
3
3
3
3
3
3
3
3
3
3
3
3
3
3
3
3
3
3
3
3
3
3
3
3
3
3
3
3
3
3
3
3
3
3
3
3
3
3
3
3
3
3
3
3
3
3
3
3
3
3
3
3
3
3
3
3
3
3
3
3
3
3
3
3
3
3
3
3
3
3
3
3
3
3
3
3
3
3
3
3
3
3
3
3
3
3
3
3
3
3
3
3
3
3
3
3
3
3
3
3
3
3
3
3
3
3
3
3
3
3
3
3
3
3
3
3
3
3
3
3
3
3
3
3
3
3
3
3
3
3
3
3
3
3
3
3
3
3
3
3
3
3
3
3
3
3
3
3
3
3
3
3
3
3
3
3
3
3
3
3
3
3
3
3
3
3
3
3
3
3
3
3
3
3
3
3
3
3
3
3
3
3
3
3
3
3
3
3
3
3
3
3
3
3
3
3
3
3
3
3
3
3
3
3
3
3
3
3
3
3
3
3
3
3
3
3
3
3
3
3
3
3
3
3
3
3
3
3
3
3
3
3
3
3
3
3
3
3
3
3
3
3
3
3
3
3
3
3
3
3
3
3
3
3
3
3
3
3
3
3
3
3
3
3
3
3
3
3
3
3
3
3
3
3
3
3
3
3
3
3
3
3
3
3
3
3
3
3
3
3
3
3
3
3
3
3
3
3
3
3
3
3
3
3
3
3
3
3
3
3
3
3
3
3
3
3
3
3
3
3
3
3
3
3
3
3
3
3
3
3
3
3
3
3
3
3
3
3
3
3
3
3
3
3
3
3
3
3
3
3
3
3
3
3
3
3
3
3
3
3
3
3
3
3
3
3
3
3
3
3
3
3
3
3
3
3
3
3
3
3
3
3
3
3
3
3
3
3
3
3
3
3
3
3
3
3
3
3
3
3
3
3
3
3
3
3
3
3
3
3
3
3
3
3
3
3
3
3
3
3
3
3
3
3
3
3
3
3
3
3
3
3
3
3
3
3
3
3
3
3
3
3
3
3
3
3
3
3
3
3
3
3
3
3
3
3
3
3
3
3
3
3
3
3
3
3
3
3
3
3
3
3
3
3
3
3
3
3
3
3
3
3
3
3
3
3
3
3
3
3
3
3
3
3
3
3
3
3
3
3
3
3
3
3
3
3
3
3
3
3
3
3
3
3
3
3
3
3
3
3
3
3
3
3
3
3
3
3
3
3
3
3
3
3
3
3
3
3
3
3
3
3
3
3
3
3
3
3
3
3
3
3
3
3
3
3
3
3
3
3
3
3
3
3
3
3
3
3
3
3
3
3
3
3
3
3
3
3
3
3
3
3
3
3
3
3
3
3
3
3
3
3
3
3
3
3
3
3
3
3
3
3
3
3
3
3
3
3
3
3
3
3
3
3
3
3
3
3
3
3
3
3
3
3
3
3
3
3
3
3
3
3
3
3
3
3
3
3
3
3
3
3
3
3
3
3
3
3
3
3
3
3
3
3
3
3
3
3
3
3
3
3
3
3
3
3
3
3
3
3
3
3
3
3
3
3
3
3
3
3
3
3
3
3
3
3
3
3
3
3
3
3
3
3
3
3
3
3
3
3
3
3
3
3
3
3
3
3
3
3
3
3
3
3
3
3
3
3
3
3
3
3
3
3
3
3
3
3
3
3
3
3
3
3
3
3
3
3
3
3
3
3
3
3
3
3
3
3
3
3
3
3
3
3
3
3
3
3
3
3
3
3
3
3
3
3
3
3
3
3
3
3
3
3
3
3
3
3
3
3
3
3
3
3
3
3
3
3
3
3
3
3
3
3
3
3
3
3
3
3
3
3
3
3
3
3
3
3
3
3
3
3
3
3
3
3
3
3
3
3
3
3
3
3
3
3
3
3
3
3
3
3
3
3
3
3
3
3
3
3
3
3
3
3
3
3
3
3
3
3
3
3
3
3
3
3
3
3
3
3
3
3
3
3
3
3
3
3
3
3
3
3
3
3
3
3
3
3
3
3
3
3
3
3
3
3
3
3
3
3
3
3
3
3
3
3
3
3
3
3
3
3
3
3
3
3
3
3
3
3
3
3
3
3
3
3
3
3
3
3
3
3
3
3
3
3
3
3
3
3
3
3
3
3
3
3
3
3
3
3
3
3
3
3
3
3
3
3
3
3
3
3
3
3
3
3
3
3
3
3
3
3
3
3
3
3
3
3
3
3
3
3
3
3
3
3
3
3
3
3
3
3
3
3
3
3
3
3
3
3
3
3
3
3
3
3
3
3
3
3
3
3
3
3
3
3
3
3
3
3
3
3
3
3
3
3
3
3
3
3
3
3
3
3
3
3
3
3
3
3
3
3
3
3
3
3
3
3
3
3
3
3
3
3
3
3
3
3
3
3
3
3
3
3
3
3
3
3
3
3
3
3
3
3
3
3
3
3
3
3
3
3
3
3
3
3
3
3
3
3
3
3
3
3
3
3
3
3
3
3
3
3
3
3
3
3
3
3
3
3
3
3
3
3
3
3
3
3
3
3
3
3
3
3
3
3
3
3
3
3
3
3
3
3
3
3
3
3
3
3
3
3
3
3
3
3
3
3
3
3
3
3
3
3
3
3
3
3
3
3
3
3
3
3
3
3
3
3
3
3
3
3
3
3
3
3
3
3
3
3
3
3
3
3
3
3
3
3
3
3
3
3
3
3
3
3
3
3
3
3
3
3
3
3
3
3
3
3
3
3
3
3
3
3
3
3
3
3
3
3
3
3
3
3
3
3
3
3
3
3
3
3
3
3
3
3
3
3
3
3
3
3
3
3
3
3
3
3
3
3
3
3
3
3
3
3
3
3
3
3
3
3
3
3
3
3
3
3
3
3
3
3
3
3
3
3
3
3
3
3
3
3
3
3
3
3
3
3
3
3
3
3
3
3
3
3
3
3
3
3
3
3
3
3
3
3
3
3
3
3
3
3
3
3
3
3
3
3
3
3
3
3
3
3
3
3
3
3
3
3
3
3
3
3
3
3
3
3
3
3
3
3
3
3
3
3
3
3
3
3
3
3
3
3
3
3
3
3
3
3
3
3
3
3
3
3
3
3
3
3
3
3
3
3
3
3
3
3
3
3
3
3
3
3
3
3
3
3
3
3
3
3
3
3
3
3
3
3
3
3
3
3
3
3
3
3
3
3
3
3
3
3
3
3
3
3
3
3
3
3
3
3
3
3
3
3
3
3
3
3
3
3
3
3
3
3
3
3
3
3
3
3
3
3
3
3
3
3
3
3
3
3
3
3
3
3
3
3
3
3
3
3
3
3
3
3
3
3
3
3
3
3
3
3
3
3
3
3
3
3
3
3
3
3
3
3
3
3
3
3
3
3
3
3
3
3
3
3
3
3
3
3
3
3
3
3
3
3
3
3
3
3
3
3
3
3
3
3
3
3
3
3
3
3
3
3
3
3
3
3
3
3
3
3
3
3
3
3
3
3
3
3
3
3
3
3
3
3
3
3
3
3
3
3
3
3
3
3
3
3
3
3
3
3
3
3
3
3
3
3
3
3
3
3
3
3
3
3
3
3
3
3
3
3
3
3
3
3
3
3
3
3
3
3
3
3
3
3
3
3
3
3
3
3
3
3
3
3
3
3
3
3
3
3
3
3
3
3
3
3
3
3
3
3
3
3
3
3
3
3
3
3
3
3
3
3
3
3
3
3
3
3
3
3
3
3
3
3
3
3
3
3
3
3
3
3
3
3
3
3
3
3
3
3
3
3
3
3
3
3
3
3
3
3
3
3
3
3
3
3
3
3
3
3
3
3
3
3
3
3
3
3
3
3
3
3
3
3
3
3
3
3
3
3
3
3
3
3
3
3
3
3
3
3
3
3
3
3
3
3
3
3
3
3
3
3
3
3
3
3
3
3
3
3
3
3
3
3
3
3
3
3
3
3
3
3
3
3
3
3
3
3
3
3
3
3
3
3
3
3
3
3
3
3
3
3
3
3
3
3
3
3
3
3
3
3
3
3
3
3
3
3
3
3
3
3
3
3
3
3
3
3
3
3
3
3
3
3
3
3
3
3
3
3
3
3
3
3
3
3
3
3
3
3
3
3
3
3
3
3
3
3
3
3
3
3
3
3
3
3
3
3
3
3
3
3
3
3
3
3
3
3
3
3
3
3
3
3
3
3
3
3
3
3
3
3
3
3
3
3
3
3
3
3
3
3
3
3
3
3
3
3
3
3
3
3
3
3
3
3
3
3
3
3
3
3
3
3
3
3
3
3
3
3
3
3
3
3
3
3
3
3
3
3
3
3
3
3
3
3
3
3
3
3
3
3
3
3
3
3
3
3
3
3
3
3
3
3
3
3
3
3
3
3
3
3
3
3
3
3
3
3
3
3
3
3
3
3
3
3
3
3
3
3
3
3
3
3
3
3
3
3
3
3
3
3
3
3
3
3
3
3
3
3
3
3
3
3
3
3
3
3
3
3
3
3
3
3
3
3
3
3
3
3
3
3
3
3
3
3
3
3
3
3
3
3
3
3
3
3
3
3
3
3
3
3
3
3
3
3
3
3
3
3
3
3
3
3
3
3
3
3
3
3
3
3
3
3
3
3
3
3
3
3
3
3
3
3
3
3
3
3
3
3
3
3
3
3
3
3
3
3
3
3
3
3
3
3
3
3
3
3
3
3
3
3
3
3
3
3
3
3
3
3
3
3
3
3
3
3
3
3
3
3
3
3
3
3
3
3
3
3
3
3
3
3
3
3
3
3
3
3
3
3
3
3
3
3
3
3
3
3
3
3
3
3
3
3
3
3
3
3
3
3
3
3
3
3
3
3
3
3
3
3
3
3
3
3
3
3
3
3
3
3
3
3
3
3
3
3
3
3
3
3
3
3
3
3
3
3
3
3
3
3
3
3
3
3
3
3
3
3
3
3
3
3
3
3
3
3
3
3
3
3
3
3
3
3
3
3
3
3
3
3
3
3
3
3
3
3
3
3
3
3
3
3
3
3
3
3
3
3
3
3
3
3
3
3
3
3
3
3
3
3
3
3
3
3
3
3
3
3
3
3
3
3
3
3
3
3
3
3
3
3
3
3
3
3
3
3
3
3
3
3
3
3
3
3
3
3
3
3
3
3
3
3
3
3
3
3
3
3
3
3
3
3
3
3
3
3
3
3
3
3
3
3
3
3
3
3
3
3
3
3
3
3
3
3
3
3
3
3
3
3
3
3
3
3
3
3
3
3
3
3
3
3
3
3
3
3
3
3
3
3
3
3
3
3
3
3
3
3
3
3
3
3
3
3
3
3
3
3
3
3
3
3
3
3
3
3
3
3
3
3
3
3
3
3
3
3
3
3
3
3
3
3
3
3
3
3
3
3
3
3
3
3
3
3
3
3
3
3
3
3
3
3
3
3
3
3
3
3
3
3
3
3
3
3
3
3
3
3
3
3
3
3
3
3
3
3
3
3
3
3
3
3
3
3
3
3
3
3
3
3
3
3
3
3
3
3
3
3
3
3
3
3
3
3
3
3
3
3
3
3
3
3
3
3
3
3
3
3
3
3
3
3
3
3
3
3
3
3
3
3
3
3
3
3
3
3
3
3
3
3
3
3
3
3
3
3
3
3
3
3
3
3
3
3
3
3
3
3
3
3
3
3
3
3
3
3
3
3
3
3
3
3
3
3
3
3
3
3
3
3
3
3
3
3
3
3
3
3
3
3
3
3
3
3
3
3
3
3
3
3
3
3
3
3
3
3
3
3
3
3
3
3
3
3
3
3
3
3
3
3
3
3
3
3
3
3
3
3
3
3
3
3
3
3
3
3
3
3
3
3
3
3
3
3
3
3
3
3
3
3
3
3
3
3
3
3
3
3
3
3
3
3
3
3
3
3
3
3
3
3
3
3
3
3
3
3
3
3
3
3
3
3
3
3
3
3
3
3
3
3
3
3
3
3
3
3
3
3
3
3
3
3
3
3
3
3
3
3
3
3
3
3
3
3
3
3
3
3
3
3
3
3
3
3
3
3
3
3
3
3
3
3
3
3
3
3
3
3
3
3
3
3
3
3
3
3
3
3
3
3
3
3
3
3
3
3
3
3
3
3
3
3
3
3
3
3
3
3
3
3
3
3
3
3
3
3
3
3
3
3
3
3
3
3
3
3
3
3
3
3
3
3
3
3
3
3
3
3
3
3
3
3
3
3
3
3
3
3
3
3
3
3
3
3
3
3
3
3
3
3
3
3
3
3
3
3
3
3
3
3
3
3
3
3
3
3
3
3
3
3
3
3
3
3
3
3
3
3
3
3
3
3
3
3
3
3
3
3
3
3
3
3
3
3
3
3
3
3
3
3
3
3
3
3
3
3
3
3
3
3
3
3
3
3
3
3
3
3
3
3
3
3
3
3
3
3
3
3
3
3
3
3
3
3
3
3
3
3
3
3
3
3
3
3
3
3
3
3
3
3
3
3
3
3
3
3
3
3
3
3
3
3
3
3
3
3
3
3
3
3
3
3
3
3
3
3
3
3
3
3
3
3
3
3
3
3
3
3
3
3
3
3
3
3
3
3
3
3
3
3
3
3
3
3
3
3
3
3
3
3
3
3
3
3
3
3
3
3
3
3
3
3
3
3
3
3
3
3
3
3
3
3
3
3
3
3
3
3
3
3
3
3
3
3
3
3
3
3
3
3
3
3
3
3
3
3
3
3
3
3
3
3
3
3
3
3
3
3
3
3
3
3
3
3
3
3
3
3
3
3
3
3
3
3
3
3
3
3
3
3
3
3
3
3
3
3
3
3
3
3
3
3
3
3
3
3
3
3
3
3
3
3
3
3
3
3
3
3
3
3
3
3
3
3
3
3
3
3
3
3
3
3
3
3
3
3
3
3
3
3
3
3
3
3
3
3
3
3
3
3
3
3
3
3
3
3
3
3
3
3
3
3
3
3
3
3
3
3
3
3
3
3
3
3
3
3
3
3
3
3
3
3
3
3
3
3
3
3
3
3
3
3
3
3
3
3
3
3
3
3
3
3
3
3
3
3
3
3
3
3
3
3
3
3
3
3
3
3
3
3
3
3
3
3
3
3
3
3
3
3
3
3
3
3
3
3
3
3
3
3
3
3
3
3
3
3
3
3
3
3
3
3
3
3
3
3
3
3
3
3
3
3
3
3
3
3
3
3
3
3
3
3
3
3
3
3
3
3
3
3
3
3
3
3
3
3
3
3
3
3
3
3
3
3
3
3
3
3
3
3
3
3
3
3
3
3
3
3
3
3
3
3
3
3
3
3
3
3
3
3
3
3
3
3
3
3
3
3
3
3
3
3
3
3
3
3
3
3
3
3
3
3
3
3
3
3
3
3
3
3
3
3
3
3
3
3
3
3
3
3
3
3
3
3
3
3
3
3
3
3
3
3
3
3
3
3
3
3
3
3
3
3
3
3
3
3
3
3
3
3
3
3
3
3
3
3
3
3
3
3
3
3
3
3
3
3
3
3
3
3
3
3
3
3
3
3
3
3
3
3
3
3
3
3
3
3
3
3
3
3
3
3
3
3
3
3
3
3
3
3
3
3
3
3
3
3
3
3
3
3
3
3
3
3
3
3
3
3
3
3
3
3
3
3
3
3
3
3
3
3
3
3
3
3
3
3
3
3
3
3
3
3
3
3
3
3
3
3
3
3
3
3
3
3
3
3
3
3
3
3
3
3
3
3
3
3
3
3
3
3
3
3
3
3
3
3
3
3
3
3
3
3
3
3
3
3
3
3
3
3
3
3
3
3
3
3
3
3
3
3
3
3
3
3
3
3
3
3
3
3
3
3
3
3
3
3
3
3
3
3
3
3
3
3
3
3
3
3
3
3
3
3
3
3
3
3
3
3
3
3
3
3
3
3
3
3
3
3
3
3
3
3
3
3
3
3
3
3
3
3
3
3
3
3
3
3
3
3
3
3
3
3
3
3
3
3
3
3
3
3
3
3
3
3
3
3
3
3
3
3
3
3
3
3
3
3
3
3
3
3
3
3
3
3
3
3
3
3
3
3
3
3
3
3
3
3
3
3
3
3
3
3
3
3
3
3
3
3
3
3
3
3
3
3
3
3
3
3
3
3
3
3
3
3
3
3
3
3
3
3
3
3
3
3
3
3
3
3
3
3
3
3
3
3
3
3
3
3
3
3
3
3
3
3
3
3
3
3
3
3
3
3
3
3
3
3
3
3
3
3
3
3
3
3
3
3
3
3
3
3
3
3
3
3
3
3
3
3
3
3
3
3
3
3
3
3
3
3
3
3
3
3
3
3
3
3
3
3
3
3
3
3
3
3
3
3
3
3
3
3
3
3
3
3
3
3
3
3
3
3
3
3
3
3
3
3
3
3
3
3
3
3
3
3
3
3
3
3
3
3
3
3
3
3
3
3
3
3
3
3
3
3
3
3
3
3
3
3
3
3
3
3
3
3
3
3
3
3
3
3
3
3
3
3
3
3
3
3
3
3
3
3
3
3
3
3
3
3
3
3
3
3
3
3
3
3
3
3
3
3
3
3
3
3
3
3
3
3
3
3
3
3
3
3
3
3
3
3
3
3
3
3
3
3
3
3
3
3
3
3
3
3
3
3
3
3
3
3
3
3
3
3
3
3
3
3
3
3
3
3
3
3
3
3
3
3
3
3
3
3
3
3
3
3
3
3
3
3
3
3
3
3
3
3
3
3
3
3
3
3
3
3
3
3
3
3
3
3
3
3
3
3
3
3
3
3
3
3
3
3
3
3
3
3
3
3
3
3
3
3
3
3
3
3
3
3
3
3
3
3
3
3
3
3
3
3
3
3
3
3
3
3
3
3
3
3
3
3
3
3
3
3
3
3
3
3
3
3
3
3
3
3
3
3
3
3
3
3
3
3
3
3
3
3
3
3
3
3
3
3
3
3
3
3
3
3
3
3
3
3
3
3
3
3
3
3
3
3
3
3
3
3
3
3
3
3
3
3
3
3
3
3
3
3
3
3
3
3
3
3
3
3
3
3
3
3
3
3
3
3
3
3
3
3
3
3
3
3
3
3
3
3
3
3
3
3
3
3
3
3
3
3
3
3
3
3
3
3
3
3
3
3
3
3
3
3
3
3
3
3
3
3
3
3
3
3
3
3
3
3
3
3
3
3
3
3
3
3
3
3
3
3
3
3
3
3
3
3
3
3
3
3
3
3
3
3
3
3
3
3
3
3
3
3
3
3
3
3
3
3
3
3
3
3
3
3
3
3
3
3
3
3
3
3
3
3
3
3
3
3
3
3
3
3
3
3
3
3
3
3
3
3
3
3
3
3
3
3
3
3
3
3
3
3
3
3
3
3
3
3
3
3
3
3
3
3
3
3
3
3
3
3
3
3
3
3
3
3
3
3
3
3
3
3
3
3
3
3
3
3
3
3
3
3
3
3
3
3
3
3
3
3
3
3
3
3
3
3
3
3
3
3
3
3
3
3
3
3
3
3
3
3
3
3
3
3
3
3
3
3
3
3
3
3
3
3
3
3
3
3
3
3
3
3
3
3
3
3
3
3
3
3
3
3
3
3
3
3
3
3
3
3
3
3
3
3
3
3
3
3
3
3
3
3
3
3
3
3
3
3
3
3
3
3
3
3
3
3
3
3
3
3
3
3
3
3
3
3
3
3
3
3
3
3
3
3
3
3
3
3
3
3
3
3
3
3
3
3
3
3
3
3
3
3
3
3
3
3
3
3
3
3
3
3
3
3
3
3
3
3
3
3
3
3
3
3
3
3
3
3
3
3
3
3
3
3
3
3
3
3
3
3
3
3
3
3
3
3
3
3
3
3
3
3
3
3
3
3
3
3
3
3
3
3
3
3
3
3
3
3
3
3
3
3
3
3
3
3
3
3
3
3
3
3
3
3
3
3
3
3
3
3
3
3
3
3
3
3
3
3
3
3
3
3
3
3
3
3
3
3
3
3
3
3
3
3
3
3
3
3
3
3
3
3
3
3
3
3
3
3
3
3
3
3
3
3
3
3
3
3
3
3
3
3
3
3
3
3
3
3
3
3
3
3
3
3
3
3
3
3
3
3
3
3
3
3
3
3
3
3
3
3
3
3
3
3
3
3
3
3
3
3
3
3
3
3
3
3
3
3
3
3
3
3
3
3
3
3
3
3
3
3
3
3
3
3
3
3
3
3
3
3
3
3
3
3
3
3
3
3
3
3
3
3
3
3
3
3
3
3
3
3
3
3
3
3
3
3
3
3
3
3
3
3
3
3
3
3
3
3
3
3
3
3
3
3
3
3
3
3
3
3
3
3
3
3
3
3
3
3
3
3
3
3
3
3
3
3
3
3
3
3
3
3
3
3
3
3
3
3
3
3
3
3
3
3
3
3
3
3
3
3
3
3
3
3
3
3
3
3
3
3
3
3
3
3
3
3
3
3
3
3
3
3
3
3
3
3
3
3
3
3
3
3
3
3
3
3
3
3
3
3
3
3
3
3
3
3
3
3
3
3
3
3
3
3
3
3
3
3
3
3
3
3
3
3
3
3
3
3
3
3
3
3
3
3
3
3
3
3
3
3
3
3
3
3
3
3
3
3
3
3
3
3
3
3
3
3
3
3
3
3
3
3
3
3
3
3
3
3
3
3
3
3
3
3
3
3
3
3
3
3
3
3
3
3
3
3
3
3
3
3
3
3
3
3
3
3
3
3
3
3
3
3
3
3
3
3
3
3
3
3
3
3
3
3
3
3
3
3
3
3
3
3
3
3
3
3
3
3
3
3
3
3
3
3
3
3
3
3
3
3
3
3
3
3
3
3
3
3
3
3
3
3
3
3
3
3
3
3
3
3
3
3
3
3
3
3
3
3
3
3
3
3
3
3
3
3
3
3
3
3
3
3
3
3
3
3
3
3
3
3
3
3
3
3
3
3
3
3
3
3
3
3
3
3
3
3
3
3
3
3
3
3
3
3
3
3
3
3
3
3
3
3
3
3
3
3
3
3
3
3
3
3
3
3
3
3
3
3
3
3
3
3
3
3
3
3
3
3
3
3
3
3
3
3
3
3
3
3
3
3
3
3
3
3
3
3
3
3
3
3
3
3
3
3
3
3
3
3
3
3
3
3
3
3
3
3
3
3
3
3
3
3
3
3
3
3
3
3
3
3
3
3
3
3
3
3
3
3
3
3
3
3
3
3
3
3
3
3
3
3
3
3
3
3
3
3
3
3
3
3
3
3
3
3
3
3
3
3
3
3
3
3
3
3
3
3
3
3
3
3
3
3
3
3
3
3
3
3
3
3
3
3
3
3
3
3
3
3
3
3
3
3
3
3
3
3
3
3
3
3
3
3
3
3
3
3
3
3
3
3
3
3
3
3
3
3
3
3
3
3
3
3
3
3
3
3
3
3
3
3
3
3
3
3
3
3
3
3
3
3
3
3
3
3
3
3
3
3
3
3
3
3
3
3
3
3
3
3
3
3
3
3
3
3
3
3
3
3
3
3
3
3
3
3
3
3
3
3
3
3
3
3
3
3
3
3
3
3
3
3
3
3
3
3
3
3
3
3
3
3
3
3
3
3
3
3
3
3
3
3
3
3
3
3
3
3
3
3
3
3
3
3
3
3
3
3
3
3
3
3
3
3
3
3
3
3
3
3
3
3
3
3
3
3
3
3
3
3
3
3
3
3
3
3
3
3
3
3
3
3
3
3
3
3
3
3
3
3
3
3
3
3
3
3
3
3
3
3
3
3
3
3
3
3
3
3
3
3
3
3
3
3
3
3
3
3
3
3
3
3
3
3
3
3
3
3
3
3
3
3
3
3
3
3
3
3
3
3
3
3
3
3
3
3
3
3
3
3
3
3
3
3
3
3
3
3
3
3
3
3
3
3
3
3
3
3
3
3
3
3
3
3
3
3
3
3
3
3
3
3
3
3
3
3
3
3
3
3
3
3
3
3
3
3
3
3
3
3
3
3
3
3
3
3
3
3
3
3
3
3
3
3
3
3
3
3
3
3
3
3
3
3
3
3
3
3
3
3
3
3
3
3
3
3
3
3
3
3
3
3
3
3
3
3
3
3
3
3
3
3
3
3
3
3
3
3
3
3
3
3
3
3
3
3
3
3
3
3
3
3
3
3
3
3
3
3
3
3
3
3
3
3
3
3
3
3
3
3
3
3
3
3
3
3
3
3
3
3
3
3
3
3
3
3
3
3
3
3
3
3
3
3
3
3
3
3
3
3
3
3
3
3
3
3
3
3
3
3
3
3
3
3
3
3
3
3
3
3
3
3
3
3
3
3
3
3
3
3
3
3
3
3
3
3
3
3
3
3
3
3
3
3
3
3
3
3
3
3
3
3
3
3
3
3
3
3
3
3
3
3
3
3
3
3
3
3
3
3
3
3
3
3
3
3
3
3
3
3
3
3
3
3
3
3
3
3
3
3
3
3
3
3
3
3
3
3
3
3
3
3
3
3
3
3
3
3
3
3
3
3
3
3
3
3
3
3
3
3
3
3
3
3
3
3
3
3
3
3
3
3
3
3
3
3
3
3
3
3
3
3
3
3
3
3
3
3
3
3
3
3
3
3
3
3
3
3
3
3
3
3
3
3
3
3
3
3
3
3
3
3
3
3
3
3
3
3
3
3
3
3
3
3
3
3
3
3
3
3
3
3
3
3
3
3
3
3
3
3
3
3
3
3
3
3
3
3
3
3
3
3
3
3
3
3
3
3
3
3
3
3
3
3
3
3
3
3
3
3
3
3
3
3
3
3
3
3
3
3
3
3
3
3
3
3
3
3
3
3
3
3
3
3
3
3
3
3
3
3
3
3
3
3
3
3
3
3
3
3
3
3
3
3
3
3
3
3
3
3
3
3
3
3
3
3
3
3
3
3
3
3
3
3
3
3
3
3
3
3
3
3
3
3
3
3
3
3
3
3
3
3
3
3
3
3
3
3
3
3
3
3
3
3
3
3
3
3
3
3
3
3
3
3
3
3
3
3
3
3
3
3
3
3
3
3
3
3
3
3
3
3
3
3
3
3
3
3
3
3
3
3
3
3
3
3
3
3
3
3
3
3
3
3
3
3
3
3
3
3
3
3
3
3
3
3
3
3
3
3
3
3
3
3
3
3
3
3
3
3
3
3
3
3
3
3
3
3
3
3
3
3
3
3
3
3
3
3
3
3
3
3
3
3
3
3
3
3
3
3
3
3
3
3
3
3
3
3
3
3
3
3
3
3
3
3
3
3
3
3
3
3
3
3
3
3
3
3
3
3
3
3
3
3
3
3
3
3
3
3
3
3
3
3
3
3
3
3
3
3
3
3
3
3
3
3
3
3
3
3
3
3
3
3
3
3
3
3
3
3
3
3
3
3
3
3
3
3
3
3
3
3
3
3
3
3
3
3
3
3
3
3
3
3
3
3
3
3
3
3
3
3
3
3
3
3
3
3
3
3
3
3
3
3
3
3
3
3
3
3
3
3
3
3
3
3
3
3
3
3
3
3
3
3
3
3
3
3
3
3
3
3
3
3
3
3
3
3
3
3
3
3
3
3
3
3
3
3
3
3
3
3
3
3
3
3
3
3
3
3
3
3
3
3
3
3
3
3
3
3
3
3
3
3
3
3
3
3
3
3
3
3
3
3
3
3
3
3
3
3
3
3
3
3
3
3
3
3
3
3
3
3
3
3
3
3
3
3
3
3
3
3
3
3
3
3
3
3
3
3
3
3
3
3
3
3
3
3
3
3
3
3
3
3
3
3
3
3
3
3
3
3
3
3
3
3
3
3
3
3
3
3
3
3
3
3
3
3
3
3
3
3
3
3
3
3
3
3
3
3
3
3
3
3
3
3
3
3
3
3
3
3
3
3
3
3
3
3
3
3
3
3
3
3
3
3
3
3
3
3
3
3
3
3
3
3
3
3
3
3
3
3
3
3
3
3
3
3
3
3
3
3
3
3
3
3
3
3
3
3
3
3
3
3
3
3
3
3
3
3
3
3
3
3
3
3
3
3
3
3
3
3
3
3
3
3
3
3
3
3
3
3
3
3
3
3
3
3
3
3
3
3
3
3
3
3
3
3
3
3
3
3
3
3
3
3
3
3
3
3
3
3
3
3
3
3
3
3
3
3
3
3
3
3
3
3
3
3
3
3
3
3
3
3
3
3
3
3
3
3
3
3
3
3
3
3
3
3
3
3
3
3
3
3
3
3
3
3
3
3
3
3
3
3
3
3
3
3
3
3
3
3
3
3
3
3
3
3
3
3
3
3
3
3
3
3
3
3
3
3
3
3
3
3
3
3
3
3
3
3
3
3
3
3
3
3
3
3
3
3
3
3
3
3
3
3
3
3
3
3
3
3
3
3
3
3
3
3
3
3
3
3
3
3
3
3
3
3
3
3
3
3
3
3
3
3
3
3
3
3
3
3
3
3
3
3
3
3
3
3
3
3
3
3
3
3
3
3
3
3
3
3
3
3
3
3
3
3
3
3
3
3
3
3
3
3
3
3
3
3
3
3
3
3
3
3
3
3
3
3
3
3
3
3
3
3
3
3
3
3
3
3
3
3
3
3
3
3
3
3
3
3
3
3
3
3
3
3
3
3
3
3
3
3
3
3
3
3
3
3
3
3
3
3
3
3
3
3
3
3
3
3
3
3
3
3
3
3
3
3
3
3
3
3
3
3
3
3
3
3
3
3
3
3
3
3
3
3
3
3
3
3
3
3
3
3
3
3
3
3
3
3
3
3
3
3
3
3
3
3
3
3
3
3
3
3
3
3
3
3
3
3
3
3
3
3
3
3
3
3
3
3
3
3
3
3
3
3
3
3
3
3
3
3
3
3
3
3
3
3
3
3
3
3
3
3
3
3
3
3
3
3
3
3
3
3
3
3
3
3
3
3
3
3
3
3
3
3
3
3
3
3
3
3
3
3
3
3
3
3
3
3
3
3
3
3
3
3
3
3
3
3
3
3
3
3
3
3
3
3
3
3
3
3
3
3
3
3
3
3
3
3
3
3
3
3
3
3
3
3
3
3
3
3
3
3
3
3
3
3
3
3
3
3
3
3
3
3
3
3
3
3
3
3
3
3
3
3
3
3
3
3
3
3
3
3
3
3
3
3
3
3
3
3
3
3
3
3
3
3
3
3
3
3
3
3
3
3
3
3
3
3
3
3
3
3
3
3
3
3
3
3
3
3
3
3
3
3
3
3
3
3
3
3
3
3
3
3
3
3
3
3
3
3
3
3
3
3
3
3
3
3
3
3
3
3
3
3
3
3
3
3
3
3
3
3
3
3
3
3
3
3
3
3
3
3
3
3
3
3
3
3
3
3
3
3
3
3
3
3
3
3
3
3
3
3
3
3
3
3
3
3
3
3
3
3
3
3
3
3
3
3
3
3
3
3
3
3
3
3
3
3
3
3
3
3
3
3
3
3
3
3
3
3
3
3
3
3
3
3
3
3
3
3
3
3
3
3
3
3
3
3
3
3
3
3
3
3
3
3
3
3
3
3
3
3
3
3
3
3
3
3
3
3
3
3
3
3
3
3
3
3
3
3
3
3
3
3
3
3
3
3
3
3
3
3
3
3
3
3
3
3
3
3
3
3
3
3
3
3
3
3
3
3
3
3
3
3
3
3
3
3
3
3
3
3
3
3
3
3
3
3
3
3
3
3
3
3
3
3
3
3
3
3
3
3
3
3
3
3
3
3
3
3
3
3
3
3
3
3
3
3
3
3
3
3
3
3
3
3
3
3
3
3
3
3
3
3
3
3
3
3
3
3
3
3
3
3
3
3
3
3
3
3
3
3
3
3
3
3
3
3
3
3
3
3
3
3
3
3
3
3
3
3
3
3
3
3
3
3
3
3
3
3
3
3
3
3
3
3
3
3
3
3
3
3
3
3
3
3
3
3
3
3
3
3
3
3
3
3
3
3
3
3
3
3
3
3
3
3
3
3
3
3
3
3
3
3
3
3
3
3
3
3
3
3
3
3
3
3
3
3
3
3
3
3
3
3
3
3
3
3
3
3
3
3
3
3
3
3
3
3
3
3
3
3
3
3
3
3
3
3
3
3
3
3
3
3
3
3
3
3
3
3
3
3
3
3
3
3
3
3
3
3
3
3
3
3
3
3
3
3
3
3
3
3
3
3
3
3
3
3
3
3
3
3
3
3
3
3
3
3
3
3
3
3
3
3
3
3
3
3
3
3
3
3
3
3
3
3
3
3
3
3
3
3
3
3
3
3
3
3
3
3
3
3
3
3
3
3
3
3
3
3
3
3
3
3
3
3
3
3
3
3
3
3
3
3
3
3
3
3
3
3
3
3
3
3
3
3
3
3
3
3
3
3
3
3
3
3
3
3
3
3
3
3
3
3
3
3
3
3
3
3
3
3
3
3
3
3
3
3
3
3
3
3
3
3
3
3
3
3
3
3
3
3
3
3
3
3
3
3
3
3
3
3
3
3
3
3
3
3
3
3
3
3
3
3
3
3
3
3
3
3
3
3
3
3
3
3
3
3
3
3
3
3
3
3
3
3
3
3
3
3
3
3
3
3
3
3
3
3
3
3
3
3
3
3
3
3
3
3
3
3
3
3
3
3
3
3
3
3
3
3
3
3
3
3
3
3
3
3
3
3
3
3
3
3
3
3
3
3
3
3
3
3
3
3
3
3
3
3
3
3
3
3
3
3
3
3
3
3
3
3
3
3
3
3
3
3
3
3
3
3
3
3
3
3
3
3
3
3
3
3
3
3
3
3
3
3
3
3
3
3
3
3
3
3
3
3
3
3
3
3
3
3
3
3
3
3
3
3
3
3
3
3
3
3
3
3
3
3
3
3
3
3
3
3
3
3
3
3
3
3
3
3
3
3
3
3
3
3
3
3
3
3
3
3
3
3
3
3
3
3
3
3
3
3
3
3
3
3
3
3
3
3
3
3
3
3
3
3
3
3
3
3
3
3
3
3
3
3
3
3
3
3
3
3
3
3
3
3
3
3
3
3
3
3
3
3
3
3
3
3
3
3
3
3
3
3
3
3
3
3
3
3
3
3
3
3
3
3
3
3
3
3
3
3
3
3
3
3
3
3
3
3
3
3
3
3
3
3
3
3
3
3
3
3
3
3
3
3
3
3
3
3
3
3
3
3
3
3
3
3
3
3
3
3
3
3
3
3
3
3
3
3
3
3
3
3
3
3
3
3
3
3
3
3
3
3
3
3
3
3
3
3
3
3
3
3
3
3
3
3
3
3
3
3
3
3
3
3
3
3
3
3
3
3
3
3
3
3
3
3
3
3
3
3
3
3
3
3
3
3
3
3
3
3
3
3
3
3
3
3
3
3
3
3
3
3
3
3
3
3
3
3
3
3
3
3
3
3
3
3
3
3
3
3
3
3
3
3
3
3
3
3
3
3
3
3
3
3
3
3
3
3
3
3
3
3
3
3
3
3
3
3
3
3
3
3
3
3
3
3
3
3
3
3
3
3
3
3
3
3
3
3
3
3
3
3
3
3
3
3
3
3
3
3
3
3
3
3
3
3
3
3
3
3
3
3
3
3
3
3
3
3
3
3
3
3
3
3
3
3
3
3
3
3
3
3
3
3
3
3
3
3
3
3
3
3
3
3
3
3
3
3
3
3
3
3
3
3
3
3
3
3
3
3
3
3
3
3
3
3
3
3
3
3
3
3
3
3
3
3
3
3
3
3
3
3
3
3
3
3
3
3
3
3
3
3
3
3
3
3
3
3
3
3
3
3
3
3
3
3
3
3
3
3
3
3
3
3
3
3
3
3
3
3
3
3
3
3
3
3
3
3
3
3
3
3
3
3
3
3
3
3
3
3
3
3
3
3
3
3
3
3
3
3
3
3
3
3
3
3
3
3
3
3
3
3
3
3
3
3
3
3
3
3
3
3
3
3
3
3
3
3
3
3
3
3
3
3
3
3
3
3
3
3
3
3
3
3
3
3
3
3
3
3
3
3
3
3
3
3
3
3
3
3
3
3
3
3
3
3
3
3
3
3
3
3
3
3
3
3
3
3
3
3
3
3
3
3
3
3
3
3
3
3
3
3
3
3
3
3
3
3
3
3
3
3
3
3
3
3
3
3
3
3
3
3
3
3
3
3
3
3
3
3
3
3
3
3
3
3
3
3
3
3
3
3
3
3
3
3
3
3
3
3
3
3
3
3
3
3
3
3
3
3
3
3
3
3
3
3
3
3
3
3
3
3
3
3
3
3
3
3
3
3
3
3
3
3
3
3
3
3
3
3
3
3
3
3
3
3
3
3
3
3
3
3
3
3
3
3
3
3
3
3
3
3
3
3
3
3
3
3
3
3
3
3
3
3
3
3
3
3
3
3
3
3
3
3
3
3
3
3
3
3
3
3
3
3
3
3
3
3
3
3
3
3
3
3
3
3
3
3
3
3
3
3
3
3
3
3
3
3
3
3
3
3
3
3
3
3
3
3
3
3
3
3
3
3
3
3
3
3
3
3
3
3
3
3
3
3
3
3
3
3
3
3
3
3
3
3
3
3
3
3
3
3
3
3
3
3
3
3
3
3
3
3
3
3
3
3
3
3
3
3
3
      </DataArray>
    </Cells>
    <PointData>
      <DataArray type="Float64" NumberOfComponents="2" Name="Displacement" format="ascii">
0 0
0 0
0 0
0 0
0 0
0 0
0 0
0 0
0 0
0 0
0 0
0 0
0 0
0 0
0 0
0 0
0 0
0 0
0 0
0 0
0 0
0 0
0 0
0 0
0 0
0 0
0 0
0 0
0 0
0 0
0 0
0 0
0 0
0 0
0 0
0 0
0 0
0 0
0 0
0 0
0 0
0 0
0 0
0 0
0 0
0 0
0 0
0 0
0 0
0 0
0 0
0 0
0 0
0 0
0 0
0 0
0 0
0 0
0 0
0 0
0 0
0 0
0 0
0 0
0 0
0 0
0 0
0 0
0 0
0 0
0 0
0 0
0 0
0 0
0 0
0 0
0 0
0 0
0 0
0 0
0 0
0 0
0 0
0 0
0 0
0 0
0 0
0 0
0 0
0 0
0 0
0 0
0 0
0 0
0 0
0 0
0 0
0 0
0 0
0 0
0 0
0 0
0 0
0 0
0 0
0 0
0 0
0 0
0 0
0 0
0 0
0 0
0 0
0 0
0 0
0 0
0 0
0 0
0 0
0 0
0 0
0 0
0 0
0 0
0 0
0 0
0 0
0 0
0 0
0 0
0 0
0 0
0 0
0 0
0 0
0 0
0 0
0 0
0 0
0 0
0 0
0 0
0 0
0 0
0 0
0 0
0 0
0 0
0 0
0 0
0 0
0 0
0 0
0 0
0 0
0 0
0 0
0 0
0 0
0 0
0 0
0 0
0 0
0 0
0 0
0 0
0 0
0 0
0 0
0 0
0 0
0 0
0 0
0 0
0 0
0 0
0 0
0 0
0 0
0 0
0 0
0 0
0 0
0 0
0 0
0 0
0 0
0 0
0 0
0 0
0 0
0 0
0 0
0 0
0 0
0 0
0 0
0 0
0 0
0 0
0 0
0 0
0 0
0 0
0 0
0 0
0 0
0 0
0 0
0 0
0 0
0 0
0 0
0 0
0 0
0 0
0 0
0 0
0 0
0 0
0 0
0 0
0 0
0 0
0 0
0 0
0 0
0 0
0 0
0 0
0 0
0 0
0 0
0 0
0 0
0 0
0 0
0 0
0 0
0 0
0 0
0 0
0 0
0 0
0 0
0 0
0 0
0 0
0 0
0 0
0 0
0 0
0 0
0 0
0 0
0 0
0 0
0 0
0 0
0 0
0 0
0 0
0 0
0 0
0 0
0 0
0 0
0 0
0 0
0 0
0 0
0 0
0 0
0 0
0 0
0 0
0 0
0 0
0 0
0 0
0 0
0 0
0 0
0 0
0 0
0 0
0 0
0 0
0 0
0 0
0 0
0 0
0 0
0 0
0 0
0 0
0 0
0 0
0 0
0 0
0 0
0 0
0 0
0 0
0 0
0 0
0 0
0 0
0 0
0 0
0 0
0 0
0 0
0 0
0 0
0 0
0 0
0 0
0 0
0 0
0 0
0 0
0 0
0 0
0 0
0 0
0 0
0 0
0 0
0 0
0 0
0 0
0 0
0 0
0 0
0 0
0 0
0 0
0 0
0 0
0 0
0 0
0 0
0 0
0 0
0 0
0 0
0 0
0 0
0 0
0 0
0 0
0 0
0 0
0 0
0 0
0 0
0 0
0 0
0 0
0 0
0 0
0 0
0 0
0 0
0 0
0 0
0 0
0 0
0 0
0 0
0 0
0 0
0 0
0 0
0 0
0 0
0 0
0 0
0 0
0 0
0 0
0 0
0 0
0 0
0 0
0 0
0 0
0 0
0 0
0 0
0 0
0 0
0 0
0 0
0 0
0 0
0 0
0 0
0 0
0 0
0 0
0 0
0 0
0 0
0 0
0 0
0 0
0 0
0 0
0 0
0 0
0 0
0 0
0 0
0 0
0 0
0 0
0 0
0 0
0 0
0 0
0 0
0 0
0 0
0 0
0 0
0 0
0 0
0 0
0 0
0 0
0 0
0 0
0 0
0 0
0 0
0 0
0 0
0 0
0 0
0 0
0 0
0 0
0 0
0 0
0 0
0 0
0 0
0 0
0 0
0 0
0 0
0 0
0 0
0 0
0 0
0 0
0 0
0 0
0 0
0 0
0 0
0 0
0 0
0 0
0 0
0 0
0 0
0 0
0 0
0 0
0 0
0 0
0 0
0 0
0 0
0 0
0 0
0 0
0 0
0 0
0 0
0 0
0 0
0 0
0 0
0 0
0 0
0 0
0 0
0 0
0 0
0 0
0 0
0 0
0 0
0 0
0 0
0 0
0 0
0 0
0 0
0 0
0 0
0 0
0 0
0 0
0 0
0 0
0 0
0 0
0 0
0 0
0 0
0 0
0 0
0 0
0 0
0 0
0 0
0 0
0 0
0 0
0 0
0 0
0 0
0 0
0 0
0 0
0 0
0 0
0 0
0 0
0 0
0 0
0 0
0 0
0 0
0 0
0 0
0 0
0 0
0 0
0 0
0 0
0 0
0 0
0 0
0 0
0 0
0 0
0 0
0 0
0 0
0 0
0 0
0 0
0 0
0 0
0 0
0 0
0 0
0 0
0 0
0 0
0 0
0 0
0 0
0 0
0 0
0 0
0 0
0 0
0 0
0 0
0 0
0 0
0 0
0 0
0 0
0 0
0 0
0 0
0 0
0 0
0 0
0 0
0 0
0 0
0 0
0 0
0 0
0 0
0 0
0 0
0 0
0 0
0 0
0 0
0 0
0 0
0 0
0 0
0 0
0 0
0 0
0 0
0 0
0 0
0 0
0 0
0 0
0 0
0 0
0 0
0 0
0 0
0 0
0 0
0 0
0 0
0 0
0 0
0 0
0 0
0 0
0 0
0 0
0 0
0 0
0 0
0 0
0 0
0 0
0 0
0 0
0 0
0 0
0 0
0 0
0 0
0 0
0 0
0 0
0 0
0 0
0 0
0 0
0 0
0 0
0 0
0 0
0 0
0 0
0 0
0 0
0 0
0 0
0 0
0 0
0 0
0 0
0 0
0 0
0 0
0 0
0 0
0 0
0 0
0 0
0 0
0 0
0 0
0 0
0 0
0 0
0 0
0 0
0 0
0 0
0 0
0 0
0 0
0 0
0 0
0 0
0 0
0 0
0 0
0 0
0 0
0 0
0 0
0 0
0 0
0 0
0 0
0 0
0 0
0 0
0 0
0 0
0 0
0 0
0 0
0 0
0 0
0 0
0 0
0 0
0 0
0 0
0 0
0 0
0 0
0 0
0 0
0 0
0 0
0 0
0 0
0 0
0 0
0 0
0 0
0 0
0 0
0 0
0 0
0 0
0 0
0 0
0 0
0 0
0 0
0 0
0 0
0 0
0 0
0 0
0 0
0 0
0 0
0 0
0 0
0 0
0 0
0 0
0 0
0 0
0 0
0 0
0 0
0 0
0 0
0 0
0 0
0 0
0 0
0 0
0 0
0 0
0 0
0 0
0 0
0 0
0 0
0 0
0 0
0 0
0 0
0 0
0 0
0 0
0 0
0 0
0 0
0 0
0 0
0 0
0 0
0 0
0 0
0 0
0 0
0 0
0 0
0 0
0 0
0 0
0 0
0 0
0 0
0 0
0 0
0 0
0 0
0 0
0 0
0 0
0 0
0 0
0 0
0 0
0 0
0 0
0 0
0 0
0 0
0 0
0 0
0 0
0 0
0 0
0 0
0 0
0 0
0 0
0 0
0 0
0 0
0 0
0 0
0 0
0 0
0 0
0 0
0 0
0 0
0 0
0 0
0 0
0 0
0 0
0 0
0 0
0 0
0 0
0 0
0 0
0 0
0 0
0 0
0 0
0 0
0 0
0 0
0 0
0 0
0 0
0 0
0 0
0 0
0 0
0 0
0 0
0 0
0 0
0 0
0 0
0 0
0 0
0 0
0 0
0 0
0 0
0 0
0 0
0 0
0 0
0 0
0 0
0 0
0 0
0 0
0 0
0 0
0 0
0 0
0 0
0 0
0 0
0 0
0 0
0 0
0 0
0 0
0 0
0 0
0 0
0 0
0 0
0 0
0 0
0 0
0 0
0 0
0 0
0 0
0 0
0 0
0 0
0 0
0 0
0 0
0 0
0 0
0 0
0 0
0 0
0 0
0 0
0 0
0 0
0 0
0 0
0 0
0 0
0 0
0 0
0 0
0 0
0 0
0 0
0 0
0 0
0 0
0 0
0 0
0 0
0 0
0 0
0 0
0 0
0 0
0 0
0 0
0 0
0 0
0 0
0 0
0 0
0 0
0 0
0 0
0 0
0 0
0 0
0 0
0 0
0 0
0 0
0 0
0 0
0 0
0 0
0 0
0 0
0 0
0 0
0 0
0 0
0 0
0 0
0 0
0 0
0 0
0 0
0 0
0 0
0 0
0 0
0 0
0 0
0 0
0 0
0 0
0 0
0 0
0 0
0 0
0 0
0 0
0 0
0 0
0 0
0 0
0 0
0 0
0 0
0 0
0 0
0 0
0 0
0 0
0 0
0 0
0 0
0 0
0 0
0 0
0 0
0 0
0 0
0 0
0 0
0 0
0 0
0 0
0 0
0 0
0 0
0 0
0 0
0 0
0 0
0 0
0 0
0 0
0 0
0 0
0 0
0 0
0 0
0 0
0 0
0 0
0 0
0 0
0 0
0 0
0 0
0 0
0 0
0 0
0 0
0 0
0 0
0 0
0 0
0 0
0 0
0 0
0 0
0 0
0 0
0 0
0 0
0 0
0 0
0 0
0 0
0 0
0 0
0 0
0 0
0 0
0 0
0 0
0 0
0 0
0 0
0 0
0 0
0 0
0 0
0 0
0 0
0 0
0 0
0 0
0 0
0 0
0 0
0 0
0 0
0 0
0 0
0 0
0 0
0 0
0 0
0 0
0 0
0 0
0 0
0 0
0 0
0 0
0 0
0 0
0 0
0 0
0 0
0 0
0 0
0 0
0 0
0 0
0 0
0 0
0 0
0 0
0 0
0 0
0 0
0 0
0 0
0 0
0 0
0 0
0 0
0 0
0 0
0 0
0 0
0 0
0 0
0 0
0 0
0 0
0 0
0 0
0 0
0 0
0 0
0 0
0 0
0 0
0 0
0 0
0 0
0 0
0 0
0 0
0 0
0 0
0 0
0 0
0 0
0 0
0 0
0 0
0 0
0 0
0 0
0 0
0 0
0 0
0 0
0 0
0 0
0 0
0 0
0 0
0 0
0 0
0 0
0 0
0 0
0 0
0 0
0 0
0 0
0 0
0 0
0 0
0 0
0 0
0 0
0 0
0 0
0 0
0 0
0 0
0 0
0 0
0 0
0 0
0 0
0 0
0 0
0 0
0 0
0 0
0 0
0 0
0 0
0 0
0 0
0 0
0 0
0 0
0 0
0 0
0 0
0 0
0 0
0 0
0 0
0 0
0 0
0 0
0 0
0 0
0 0
0 0
0 0
0 0
0 0
0 0
0 0
0 0
0 0
0 0
0 0
0 0
0 0
0 0
0 0
0 0
0 0
0 0
0 0
0 0
0 0
0 0
0 0
0 0
0 0
0 0
0 0
0 0
0 0
0 0
0 0
0 0
0 0
0 0
0 0
0 0
0 0
0 0
0 0
0 0
0 0
0 0
0 0
0 0
0 0
0 0
0 0
0 0
0 0
0 0
0 0
0 0
0 0
0 0
0 0
0 0
0 0
0 0
0 0
0 0
0 0
0 0
0 0
0 0
0 0
0 0
0 0
0 0
0 0
0 0
0 0
0 0
0 0
0 0
0 0
0 0
0 0
0 0
0 0
0 0
0 0
0 0
0 0
0 0
0 0
0 0
0 0
0 0
0 0
0 0
0 0
0 0
0 0
0 0
0 0
0 0
0 0
0 0
0 0
0 0
0 0
0 0
0 0
0 0
0 0
0 0
0 0
0 0
0 0
0 0
0 0
0 0
0 0
0 0
0 0
0 0
0 0
0 0
0 0
0 0
0 0
0 0
0 0
0 0
0 0
0 0
0 0
0 0
0 0
0 0
0 0
0 0
0 0
0 0
0 0
0 0
0 0
0 0
0 0
0 0
0 0
0 0
0 0
0 0
0 0
0 0
0 0
0 0
0 0
0 0
0 0
0 0
0 0
0 0
0 0
0 0
0 0
0 0
0 0
0 0
0 0
0 0
0 0
0 0
0 0
0 0
0 0
0 0
0 0
0 0
0 0
0 0
0 0
0 0
0 0
0 0
0 0
0 0
0 0
0 0
0 0
0 0
0 0
0 0
0 0
0 0
0 0
0 0
0 0
0 0
0 0
0 0
0 0
0 0
0 0
0 0
0 0
0 0
0 0
0 0
0 0
0 0
0 0
0 0
0 0
0 0
0 0
0 0
0 0
0 0
0 0
0 0
0 0
0 0
0 0
0 0
0 0
0 0
0 0
0 0
0 0
0 0
0 0
0 0
0 0
0 0
0 0
0 0
0 0
0 0
0 0
0 0
0 0
0 0
0 0
0 0
0 0
0 0
0 0
0 0
0 0
0 0
0 0
0 0
0 0
0 0
0 0
0 0
0 0
0 0
0 0
0 0
0 0
0 0
0 0
0 0
0 0
0 0
0 0
0 0
0 0
0 0
0 0
0 0
0 0
0 0
0 0
0 0
0 0
0 0
0 0
0 0
0 0
0 0
0 0
0 0
0 0
0 0
0 0
0 0
0 0
0 0
0 0
0 0
0 0
0 0
0 0
0 0
0 0
0 0
0 0
0 0
0 0
0 0
0 0
0 0
0 0
0 0
0 0
0 0
0 0
0 0
0 0
0 0
0 0
0 0
0 0
0 0
0 0
0 0
0 0
0 0
0 0
0 0
0 0
0 0
0 0
0 0
0 0
0 0
0 0
0 0
0 0
0 0
0 0
0 0
0 0
0 0
0 0
0 0
0 0
0 0
0 0
0 0
0 0
0 0
0 0
0 0
0 0
0 0
0 0
0 0
0 0
0 0
0 0
0 0
0 0
0 0
0 0
0 0
0 0
0 0
0 0
0 0
0 0
0 0
0 0
0 0
0 0
0 0
0 0
0 0
0 0
0 0
0 0
0 0
0 0
0 0
0 0
0 0
0 0
0 0
0 0
0 0
0 0
0 0
0 0
0 0
0 0
0 0
0 0
0 0
0 0
0 0
0 0
0 0
0 0
0 0
0 0
0 0
0 0
0 0
0 0
0 0
0 0
0 0
0 0
0 0
0 0
0 0
0 0
0 0
0 0
0 0
0 0
0 0
0 0
0 0
0 0
0 0
0 0
0 0
0 0
0 0
0 0
0 0
0 0
0 0
0 0
0 0
0 0
0 0
0 0
0 0
0 0
0 0
0 0
0 0
0 0
0 0
0 0
0 0
0 0
0 0
0 0
0 0
0 0
0 0
0 0
0 0
0 0
0 0
0 0
0 0
0 0
0 0
0 0
0 0
0 0
0 0
0 0
0 0
0 0
0 0
0 0
0 0
0 0
0 0
0 0
0 0
0 0
0 0
0 0
0 0
0 0
0 0
0 0
0 0
0 0
0 0
0 0
0 0
0 0
0 0
0 0
0 0
0 0
0 0
0 0
0 0
0 0
0 0
0 0
0 0
0 0
0 0
0 0
0 0
0 0
0 0
0 0
0 0
0 0
0 0
0 0
0 0
0 0
0 0
0 0
0 0
0 0
0 0
0 0
0 0
0 0
0 0
0 0
0 0
0 0
0 0
0 0
0 0
0 0
0 0
0 0
0 0
0 0
0 0
0 0
0 0
0 0
0 0
0 0
0 0
0 0
0 0
0 0
0 0
0 0
0 0
0 0
0 0
0 0
0 0
0 0
0 0
0 0
0 0
0 0
0 0
0 0
0 0
0 0
0 0
0 0
0 0
0 0
0 0
0 0
0 0
0 0
0 0
0 0
0 0
0 0
0 0
0 0
0 0
0 0
0 0
0 0
0 0
0 0
0 0
0 0
0 0
0 0
0 0
0 0
0 0
0 0
0 0
0 0
0 0
0 0
0 0
0 0
0 0
0 0
0 0
0 0
0 0
0 0
0 0
0 0
0 0
0 0
0 0
0 0
0 0
0 0
0 0
0 0
0 0
0 0
0 0
0 0
0 0
0 0
0 0
0 0
0 0
0 0
0 0
0 0
0 0
0 0
0 0
0 0
0 0
0 0
0 0
0 0
0 0
0 0
0 0
0 0
0 0
0 0
0 0
0 0
0 0
0 0
0 0
0 0
0 0
0 0
0 0
0 0
0 0
0 0
0 0
0 0
0 0
0 0
0 0
0 0
0 0
0 0
0 0
0 0
0 0
0 0
0 0
0 0
0 0
0 0
0 0
0 0
0 0
0 0
0 0
0 0
0 0
0 0
0 0
0 0
0 0
0 0
0 0
0 0
0 0
0 0
0 0
0 0
0 0
0 0
0 0
0 0
0 0
0 0
0 0
0 0
0 0
0 0
0 0
0 0
0 0
0 0
0 0
0 0
0 0
0 0
0 0
0 0
0 0
0 0
0 0
0 0
0 0
0 0
0 0
0 0
0 0
0 0
0 0
0 0
0 0
0 0
0 0
0 0
0 0
0 0
0 0
0 0
0 0
0 0
0 0
0 0
0 0
0 0
0 0
0 0
0 0
0 0
0 0
0 0
0 0
0 0
0 0
0 0
0 0
0 0
0 0
0 0
0 0
0 0
0 0
0 0
0 0
0 0
0 0
0 0
0 0
0 0
0 0
0 0
0 0
0 0
0 0
0 0
0 0
0 0
0 0
0 0
0 0
0 0
0 0
0 0
0 0
0 0
0 0
0 0
0 0
0 0
0 0
0 0
0 0
0 0
0 0
0 0
0 0
0 0
0 0
0 0
0 0
0 0
0 0
0 0
0 0
0 0
0 0
0 0
0 0
0 0
0 0
0 0
0 0
0 0
0 0
0 0
0 0
0 0
0 0
0 0
0 0
0 0
0 0
0 0
0 0
0 0
0 0
0 0
0 0
0 0
0 0
0 0
0 0
0 0
0 0
0 0
0 0
0 0
0 0
0 0
0 0
0 0
0 0
0 0
0 0
0 0
0 0
0 0
0 0
0 0
0 0
0 0
0 0
0 0
0 0
0 0
0 0
0 0
0 0
0 0
0 0
0 0
0 0
0 0
0 0
0 0
0 0
0 0
0 0
0 0
0 0
0 0
0 0
0 0
0 0
0 0
0 0
0 0
0 0
0 0
0 0
0 0
0 0
0 0
0 0
0 0
0 0
0 0
0 0
0 0
0 0
0 0
0 0
0 0
0 0
0 0
0 0
0 0
0 0
0 0
0 0
0 0
0 0
0 0
0 0
0 0
0 0
0 0
0 0
0 0
0 0
0 0
0 0
0 0
0 0
0 0
0 0
0 0
0 0
0 0
0 0
0 0
0 0
0 0
0 0
0 0
0 0
0 0
0 0
0 0
0 0
0 0
0 0
0 0
0 0
0 0
0 0
0 0
0 0
0 0
0 0
0 0
0 0
0 0
0 0
0 0
0 0
0 0
0 0
0 0
0 0
0 0
0 0
0 0
0 0
0 0
0 0
0 0
0 0
0 0
0 0
0 0
0 0
0 0
0 0
0 0
0 0
0 0
0 0
0 0
0 0
0 0
0 0
0 0
0 0
0 0
0 0
0 0
0 0
0 0
0 0
0 0
0 0
0 0
0 0
0 0
0 0
0 0
0 0
0 0
0 0
0 0
0 0
0 0
0 0
0 0
0 0
0 0
0 0
0 0
0 0
0 0
0 0
0 0
0 0
0 0
0 0
0 0
0 0
0 0
0 0
0 0
0 0
0 0
0 0
0 0
0 0
0 0
0 0
0 0
0 0
0 0
0 0
0 0
0 0
0 0
0 0
0 0
0 0
0 0
0 0
0 0
0 0
0 0
0 0
0 0
0 0
0 0
0 0
0 0
0 0
0 0
0 0
0 0
0 0
0 0
0 0
0 0
0 0
0 0
0 0
0 0
0 0
0 0
0 0
0 0
0 0
0 0
0 0
0 0
0 0
0 0
0 0
0 0
0 0
0 0
0 0
0 0
0 0
0 0
0 0
0 0
0 0
0 0
0 0
0 0
0 0
0 0
0 0
0 0
0 0
0 0
0 0
0 0
0 0
0 0
0 0
0 0
0 0
0 0
0 0
0 0
0 0
0 0
0 0
0 0
0 0
0 0
0 0
0 0
0 0
0 0
0 0
0 0
0 0
0 0
0 0
0 0
0 0
0 0
0 0
0 0
0 0
0 0
0 0
0 0
0 0
0 0
0 0
0 0
0 0
0 0
0 0
0 0
0 0
0 0
0 0
0 0
0 0
0 0
0 0
0 0
0 0
0 0
0 0
0 0
0 0
0 0
0 0
0 0
0 0
0 0
0 0
0 0
0 0
0 0
0 0
0 0
0 0
0 0
0 0
0 0
0 0
0 0
0 0
0 0
0 0
0 0
0 0
0 0
0 0
0 0
0 0
0 0
0 0
0 0
0 0
0 0
0 0
0 0
0 0
0 0
0 0
0 0
0 0
0 0
0 0
0 0
0 0
0 0
0 0
0 0
0 0
0 0
0 0
0 0
0 0
0 0
0 0
0 0
0 0
0 0
0 0
0 0
0 0
0 0
0 0
0 0
0 0
0 0
0 0
0 0
0 0
0 0
0 0
0 0
0 0
0 0
0 0
0 0
0 0
0 0
0 0
0 0
0 0
0 0
0 0
0 0
0 0
0 0
0 0
0 0
0 0
0 0
0 0
0 0
0 0
0 0
0 0
0 0
0 0
0 0
0 0
0 0
0 0
0 0
0 0
0 0
0 0
0 0
0 0
0 0
0 0
0 0
0 0
0 0
0 0
0 0
0 0
0 0
0 0
0 0
0 0
0 0
0 0
0 0
0 0
0 0
0 0
0 0
0 0
0 0
0 0
0 0
0 0
0 0
0 0
0 0
0 0
0 0
0 0
0 0
0 0
0 0
0 0
0 0
0 0
0 0
0 0
0 0
0 0
0 0
0 0
0 0
0 0
0 0
0 0
0 0
0 0
0 0
0 0
0 0
0 0
0 0
0 0
0 0
0 0
0 0
0 0
0 0
0 0
0 0
0 0
0 0
0 0
0 0
0 0
0 0
0 0
0 0
0 0
0 0
0 0
0 0
0 0
0 0
0 0
0 0
0 0
0 0
0 0
0 0
0 0
0 0
0 0
0 0
0 0
0 0
0 0
0 0
0 0
0 0
0 0
0 0
0 0
0 0
0 0
0 0
0 0
0 0
0 0
0 0
0 0
0 0
0 0
0 0
0 0
0 0
0 0
0 0
0 0
0 0
0 0
0 0
0 0
0 0
0 0
0 0
0 0
0 0
0 0
0 0
0 0
0 0
0 0
0 0
0 0
0 0
0 0
0 0
0 0
0 0
0 0
0 0
0 0
0 0
0 0
0 0
0 0
0 0
0 0
0 0
0 0
0 0
0 0
0 0
0 0
0 0
0 0
0 0
0 0
0 0
0 0
0 0
0 0
0 0
0 0
0 0
0 0
0 0
0 0
0 0
0 0
0 0
0 0
0 0
0 0
0 0
0 0
0 0
0 0
0 0
0 0
0 0
0 0
0 0
0 0
0 0
0 0
0 0
0 0
0 0
0 0
0 0
0 0
0 0
0 0
0 0
0 0
0 0
0 0
0 0
0 0
0 0
0 0
0 0
0 0
0 0
0 0
0 0
0 0
0 0
0 0
0 0
0 0
0 0
0 0
0 0
0 0
0 0
0 0
0 0
0 0
0 0
0 0
0 0
0 0
0 0
0 0
0 0
0 0
0 0
0 0
0 0
0 0
0 0
0 0
0 0
0 0
0 0
0 0
0 0
0 0
0 0
0 0
0 0
0 0
0 0
0 0
0 0
0 0
0 0
0 0
0 0
0 0
0 0
0 0
0 0
0 0
0 0
0 0
0 0
0 0
0 0
0 0
0 0
0 0
0 0
0 0
0 0
0 0
0 0
0 0
0 0
0 0
0 0
0 0
0 0
0 0
0 0
0 0
0 0
0 0
0 0
0 0
0 0
0 0
0 0
0 0
0 0
0 0
0 0
0 0
0 0
0 0
0 0
0 0
0 0
0 0
0 0
0 0
0 0
0 0
0 0
0 0
0 0
0 0
0 0
0 0
0 0
0 0
0 0
0 0
0 0
0 0
0 0
0 0
0 0
0 0
0 0
0 0
0 0
0 0
0 0
0 0
0 0
0 0
0 0
0 0
0 0
0 0
0 0
0 0
0 0
0 0
0 0
0 0
0 0
0 0
0 0
0 0
0 0
0 0
0 0
0 0
0 0
0 0
0 0
0 0
0 0
0 0
0 0
0 0
0 0
0 0
0 0
0 0
0 0
0 0
0 0
0 0
0 0
0 0
0 0
0 0
0 0
0 0
0 0
0 0
0 0
0 0
0 0
0 0
0 0
0 0
0 0
0 0
0 0
0 0
0 0
0 0
0 0
0 0
0 0
0 0
0 0
0 0
0 0
0 0
0 0
0 0
0 0
0 0
0 0
0 0
0 0
0 0
0 0
0 0
0 0
0 0
0 0
0 0
0 0
0 0
0 0
0 0
0 0
0 0
0 0
0 0
0 0
0 0
0 0
0 0
0 0
0 0
0 0
0 0
0 0
0 0
0 0
0 0
0 0
0 0
0 0
0 0
0 0
0 0
0 0
0 0
0 0
0 0
0 0
0 0
0 0
0 0
0 0
0 0
0 0
0 0
0 0
0 0
0 0
0 0
0 0
0 0
0 0
0 0
0 0
0 0
0 0
0 0
0 0
0 0
0 0
0 0
0 0
0 0
0 0
0 0
0 0
0 0
0 0
0 0
0 0
0 0
0 0
0 0
0 0
0 0
0 0
0 0
0 0
0 0
0 0
0 0
0 0
0 0
0 0
0 0
0 0
0 0
0 0
0 0
0 0
0 0
0 0
0 0
0 0
0 0
0 0
0 0
0 0
0 0
0 0
0 0
0 0
0 0
0 0
0 0
0 0
0 0
0 0
0 0
0 0
0 0
0 0
0 0
0 0
0 0
0 0
0 0
0 0
0 0
0 0
0 0
0 0
0 0
0 0
0 0
0 0
0 0
0 0
0 0
0 0
0 0
0 0
0 0
0 0
0 0
0 0
0 0
0 0
0 0
0 0
0 0
0 0
0 0
0 0
0 0
0 0
0 0
0 0
0 0
0 0
0 0
0 0
0 0
0 0
0 0
0 0
0 0
0 0
0 0
0 0
0 0
0 0
0 0
0 0
0 0
0 0
0 0
0 0
0 0
0 0
0 0
0 0
0 0
0 0
0 0
0 0
0 0
0 0
0 0
0 0
0 0
0 0
0 0
0 0
0 0
0 0
0 0
0 0
0 0
0 0
0 0
0 0
0 0
0 0
0 0
0 0
0 0
0 0
0 0
0 0
0 0
0 0
0 0
0 0
0 0
0 0
0 0
0 0
0 0
0 0
0 0
0 0
0 0
0 0
0 0
0 0
0 0
0 0
0 0
0 0
0 0
0 0
0 0
0 0
0 0
0 0
0 0
0 0
0 0
0 0
0 0
0 0
0 0
0 0
0 0
0 0
0 0
0 0
0 0
0 0
0 0
0 0
0 0
0 0
0 0
0 0
0 0
0 0
0 0
0 0
0 0
0 0
0 0
0 0
0 0
0 0
0 0
0 0
0 0
0 0
0 0
0 0
0 0
0 0
0 0
0 0
0 0
0 0
0 0
0 0
0 0
0 0
0 0
0 0
0 0
0 0
0 0
0 0
0 0
0 0
0 0
0 0
0 0
0 0
0 0
0 0
0 0
0 0
0 0
0 0
0 0
0 0
0 0
0 0
0 0
0 0
0 0
0 0
0 0
0 0
0 0
0 0
0 0
0 0
0 0
0 0
0 0
0 0
0 0
0 0
0 0
0 0
0 0
0 0
0 0
0 0
0 0
0 0
0 0
0 0
0 0
0 0
0 0
0 0
0 0
0 0
0 0
0 0
0 0
0 0
0 0
0 0
0 0
0 0
0 0
0 0
0 0
0 0
0 0
0 0
0 0
0 0
0 0
0 0
0 0
0 0
0 0
0 0
0 0
0 0
0 0
0 0
0 0
0 0
0 0
0 0
0 0
0 0
0 0
0 0
0 0
0 0
0 0
0 0
0 0
0 0
0 0
0 0
0 0
0 0
0 0
0 0
0 0
0 0
0 0
0 0
0 0
0 0
0 0
0 0
0 0
0 0
0 0
0 0
0 0
0 0
0 0
0 0
0 0
0 0
0 0
0 0
0 0
0 0
0 0
0 0
0 0
0 0
0 0
0 0
0 0
0 0
0 0
0 0
0 0
0 0
0 0
0 0
0 0
0 0
0 0
0 0
0 0
0 0
0 0
0 0
0 0
0 0
0 0
0 0
0 0
0 0
0 0
0 0
0 0
0 0
0 0
0 0
0 0
0 0
0 0
0 0
0 0
0 0
0 0
0 0
0 0
0 0
0 0
0 0
0 0
0 0
0 0
0 0
0 0
0 0
0 0
0 0
0 0
0 0
0 0
0 0
0 0
0 0
0 0
0 0
0 0
0 0
0 0
0 0
0 0
0 0
0 0
0 0
0 0
0 0
0 0
0 0
0 0
0 0
0 0
0 0
0 0
0 0
0 0
0 0
0 0
0 0
0 0
0 0
0 0
0 0
0 0
0 0
0 0
0 0
0 0
0 0
0 0
0 0
0 0
0 0
0 0
0 0
0 0
0 0
0 0
0 0
0 0
0 0
0 0
0 0
0 0
0 0
0 0
0 0
0 0
0 0
0 0
0 0
0 0
0 0
0 0
0 0
0 0
0 0
0 0
0 0
0 0
0 0
0 0
0 0
0 0
0 0
0 0
0 0
0 0
0 0
0 0
0 0
0 0
0 0
0 0
0 0
0 0
0 0
0 0
0 0
0 0
0 0
0 0
0 0
0 0
0 0
0 0
0 0
0 0
0 0
0 0
0 0
0 0
0 0
0 0
0 0
0 0
0 0
0 0
0 0
0 0
0 0
0 0
0 0
0 0
0 0
0 0
0 0
0 0
0 0
0 0
0 0
0 0
0 0
0 0
0 0
0 0
0 0
0 0
0 0
0 0
0 0
0 0
0 0
0 0
0 0
0 0
0 0
0 0
0 0
0 0
0 0
0 0
0 0
0 0
0 0
0 0
0 0
0 0
0 0
0 0
0 0
0 0
0 0
0 0
0 0
0 0
0 0
0 0
0 0
0 0
0 0
0 0
0 0
0 0
0 0
0 0
0 0
0 0
0 0
0 0
0 0
0 0
0 0
0 0
0 0
0 0
0 0
0 0
0 0
0 0
0 0
0 0
0 0
0 0
0 0
0 0
0 0
0 0
0 0
0 0
0 0
0 0
0 0
0 0
0 0
0 0
0 0
0 0
0 0
0 0
0 0
0 0
0 0
0 0
0 0
0 0
0 0
0 0
0 0
0 0
0 0
0 0
0 0
0 0
0 0
0 0
0 0
0 0
0 0
0 0
0 0
0 0
0 0
0 0
0 0
0 0
0 0
0 0
0 0
0 0
0 0
0 0
0 0
0 0
0 0
0 0
0 0
0 0
0 0
0 0
0 0
0 0
0 0
0 0
0 0
0 0
0 0
0 0
0 0
0 0
0 0
0 0
0 0
0 0
0 0
0 0
0 0
0 0
0 0
0 0
0 0
0 0
0 0
0 0
0 0
0 0
0 0
0 0
0 0
0 0
0 0
0 0
0 0
0 0
0 0
0 0
0 0
0 0
0 0
0 0
0 0
0 0
0 0
0 0
0 0
0 0
0 0
0 0
0 0
0 0
0 0
0 0
0 0
0 0
0 0
0 0
0 0
0 0
0 0
0 0
0 0
0 0
0 0
0 0
0 0
0 0
0 0
0 0
0 0
0 0
0 0
0 0
0 0
0 0
0 0
0 0
0 0
0 0
0 0
0 0
0 0
0 0
0 0
0 0
0 0
0 0
0 0
0 0
0 0
0 0
0 0
0 0
0 0
0 0
0 0
0 0
0 0
0 0
0 0
0 0
0 0
0 0
0 0
0 0
0 0
0 0
0 0
0 0
0 0
0 0
0 0
0 0
0 0
0 0
0 0
0 0
0 0
0 0
0 0
0 0
0 0
0 0
0 0
0 0
0 0
0 0
0 0
0 0
0 0
0 0
0 0
0 0
0 0
0 0
0 0
0 0
0 0
0 0
0 0
0 0
0 0
0 0
0 0
0 0
0 0
0 0
0 0
0 0
0 0
0 0
0 0
0 0
0 0
0 0
0 0
0 0
0 0
0 0
0 0
0 0
0 0
0 0
0 0
0 0
0 0
0 0
0 0
0 0
0 0
0 0
0 0
0 0
0 0
0 0
0 0
0 0
0 0
0 0
0 0
0 0
0 0
0 0
0 0
0 0
0 0
0 0
0 0
0 0
0 0
0 0
0 0
0 0
0 0
0 0
0 0
0 0
0 0
0 0
0 0
0 0
0 0
0 0
0 0
0 0
0 0
0 0
0 0
0 0
0 0
0 0
0 0
0 0
0 0
0 0
0 0
0 0
0 0
0 0
0 0
0 0
0 0
0 0
0 0
0 0
0 0
0 0
0 0
0 0
0 0
0 0
0 0
0 0
0 0
0 0
0 0
0 0
0 0
0 0
0 0
0 0
0 0
0 0
0 0
0 0
0 0
0 0
0 0
0 0
0 0
0 0
0 0
0 0
0 0
0 0
0 0
0 0
0 0
0 0
0 0
0 0
0 0
0 0
0 0
0 0
0 0
0 0
0 0
0 0
0 0
0 0
0 0
0 0
0 0
0 0
0 0
0 0
0 0
0 0
0 0
0 0
0 0
0 0
0 0
0 0
0 0
0 0
0 0
0 0
0 0
0 0
0 0
0 0
0 0
0 0
0 0
0 0
0 0
0 0
0 0
0 0
0 0
0 0
0 0
0 0
0 0
0 0
0 0
0 0
0 0
0 0
0 0
0 0
0 0
0 0
0 0
0 0
0 0
0 0
0 0
0 0
0 0
0 0
0 0
0 0
0 0
0 0
0 0
0 0
0 0
0 0
0 0
0 0
0 0
0 0
0 0
0 0
0 0
0 0
0 0
0 0
0 0
0 0
0 0
0 0
0 0
0 0
0 0
0 0
0 0
0 0
0 0
0 0
0 0
0 0
0 0
0 0
0 0
0 0
0 0
0 0
0 0
0 0
0 0
0 0
0 0
0 0
0 0
0 0
0 0
0 0
0 0
0 0
0 0
0 0
0 0
0 0
0 0
0 0
0 0
0 0
0 0
0 0
0 0
0 0
0 0
0 0
0 0
0 0
0 0
0 0
0 0
0 0
0 0
0 0
0 0
0 0
0 0
0 0
0 0
0 0
0 0
0 0
0 0
0 0
0 0
0 0
0 0
0 0
0 0
0 0
0 0
0 0
0 0
0 0
0 0
0 0
0 0
0 0
0 0
0 0
0 0
0 0
0 0
0 0
0 0
0 0
0 0
0 0
0 0
0 0
0 0
0 0
0 0
0 0
0 0
0 0
0 0
0 0
0 0
0 0
0 0
0 0
0 0
0 0
0 0
0 0
0 0
0 0
0 0
0 0
0 0
0 0
0 0
0 0
0 0
0 0
0 0
0 0
0 0
0 0
0 0
0 0
0 0
0 0
0 0
0 0
0 0
0 0
0 0
0 0
0 0
0 0
0 0
0 0
0 0
0 0
0 0
0 0
0 0
0 0
0 0
0 0
0 0
0 0
0 0
0 0
0 0
0 0
0 0
0 0
0 0
0 0
0 0
0 0
0 0
0 0
0 0
0 0
0 0
0 0
0 0
0 0
0 0
0 0
0 0
0 0
0 0
0 0
0 0
0 0
0 0
0 0
0 0
0 0
0 0
0 0
0 0
0 0
0 0
0 0
0 0
0 0
0 0
0 0
0 0
0 0
0 0
0 0
0 0
0 0
0 0
0 0
0 0
0 0
0 0
0 0
0 0
0 0
0 0
0 0
0 0
0 0
0 0
0 0
0 0
0 0
0 0
0 0
0 0
0 0
0 0
0 0
0 0
0 0
0 0
0 0
0 0
0 0
0 0
0 0
0 0
0 0
0 0
0 0
0 0
0 0
0 0
0 0
0 0
0 0
0 0
0 0
0 0
0 0
0 0
0 0
0 0
0 0
0 0
0 0
0 0
0 0
0 0
0 0
0 0
0 0
0 0
0 0
0 0
0 0
0 0
0 0
0 0
0 0
0 0
0 0
0 0
0 0
0 0
0 0
0 0
0 0
0 0
0 0
0 0
0 0
0 0
0 0
0 0
0 0
0 0
0 0
0 0
0 0
0 0
0 0
0 0
0 0
0 0
0 0
0 0
0 0
0 0
0 0
0 0
0 0
0 0
0 0
0 0
0 0
0 0
0 0
0 0
0 0
0 0
0 0
0 0
0 0
0 0
0 0
0 0
0 0
0 0
0 0
0 0
0 0
0 0
0 0
0 0
0 0
0 0
0 0
0 0
0 0
0 0
0 0
0 0
0 0
0 0
0 0
0 0
0 0
0 0
0 0
0 0
0 0
0 0
0 0
0 0
0 0
0 0
0 0
0 0
0 0
0 0
0 0
0 0
0 0
0 0
0 0
0 0
0 0
0 0
0 0
0 0
0 0
0 0
0 0
0 0
0 0
0 0
0 0
0 0
0 0
0 0
0 0
0 0
0 0
0 0
0 0
0 0
0 0
0 0
0 0
0 0
0 0
0 0
0 0
0 0
0 0
0 0
0 0
0 0
0 0
0 0
0 0
0 0
0 0
0 0
0 0
0 0
0 0
0 0
0 0
0 0
0 0
0 0
0 0
0 0
0 0
0 0
0 0
0 0
0 0
0 0
0 0
0 0
0 0
0 0
0 0
0 0
0 0
0 0
0 0
0 0
0 0
0 0
0 0
0 0
0 0
0 0
0 0
0 0
0 0
0 0
0 0
0 0
0 0
0 0
0 0
0 0
0 0
0 0
0 0
0 0
0 0
0 0
0 0
0 0
0 0
0 0
0 0
0 0
0 0
0 0
0 0
0 0
0 0
0 0
0 0
0 0
0 0
0 0
0 0
0 0
0 0
0 0
0 0
0 0
0 0
0 0
0 0
0 0
0 0
0 0
0 0
0 0
0 0
0 0
0 0
0 0
0 0
0 0
0 0
0 0
0 0
0 0
0 0
0 0
0 0
0 0
0 0
0 0
0 0
0 0
0 0
0 0
0 0
0 0
0 0
0 0
0 0
0 0
0 0
0 0
0 0
0 0
0 0
0 0
0 0
0 0
0 0
0 0
0 0
0 0
0 0
0 0
0 0
0 0
0 0
0 0
0 0
0 0
0 0
0 0
0 0
0 0
0 0
0 0
0 0
0 0
0 0
0 0
0 0
0 0
0 0
0 0
0 0
0 0
0 0
0 0
0 0
0 0
0 0
0 0
0 0
0 0
0 0
0 0
0 0
0 0
0 0
0 0
0 0
0 0
0 0
0 0
0 0
0 0
0 0
0 0
0 0
0 0
0 0
0 0
0 0
0 0
0 0
0 0
0 0
0 0
0 0
0 0
0 0
0 0
0 0
0 0
0 0
0 0
0 0
0 0
0 0
0 0
0 0
0 0
0 0
0 0
0 0
0 0
0 0
0 0
0 0
0 0
0 0
0 0
0 0
0 0
0 0
0 0
0 0
0 0
0 0
0 0
0 0
0 0
0 0
0 0
0 0
0 0
0 0
0 0
0 0
0 0
0 0
0 0
0 0
0 0
0 0
0 0
0 0
0 0
0 0
0 0
0 0
0 0
0 0
0 0
0 0
0 0
0 0
0 0
0 0
0 0
0 0
0 0
0 0
0 0
0 0
0 0
0 0
0 0
0 0
0 0
0 0
0 0
0 0
0 0
0 0
0 0
0 0
0 0
0 0
0 0
0 0
0 0
0 0
0 0
0 0
0 0
0 0
0 0
0 0
0 0
0 0
0 0
0 0
0 0
0 0
0 0
0 0
0 0
0 0
0 0
0 0
0 0
0 0
0 0
0 0
0 0
0 0
0 0
0 0
0 0
0 0
0 0
0 0
0 0
0 0
0 0
0 0
0 0
0 0
0 0
0 0
0 0
0 0
0 0
0 0
0 0
0 0
0 0
0 0
0 0
0 0
0 0
0 0
0 0
0 0
0 0
0 0
0 0
0 0
0 0
0 0
0 0
0 0
0 0
0 0
0 0
0 0
0 0
0 0
0 0
0 0
0 0
0 0
0 0
0 0
0 0
0 0
0 0
0 0
0 0
0 0
0 0
0 0
0 0
0 0
0 0
0 0
0 0
0 0
0 0
0 0
0 0
0 0
0 0
0 0
0 0
0 0
0 0
0 0
0 0
0 0
0 0
0 0
0 0
0 0
0 0
0 0
0 0
0 0
0 0
0 0
0 0
0 0
0 0
0 0
0 0
0 0
0 0
0 0
0 0
0 0
0 0
0 0
0 0
0 0
0 0
0 0
0 0
0 0
0 0
0 0
0 0
0 0
0 0
0 0
0 0
0 0
0 0
0 0
0 0
0 0
0 0
0 0
0 0
0 0
0 0
0 0
0 0
0 0
0 0
0 0
0 0
0 0
0 0
0 0
0 0
0 0
0 0
0 0
0 0
0 0
0 0
0 0
0 0
0 0
0 0
0 0
0 0
0 0
0 0
0 0
0 0
0 0
0 0
0 0
0 0
0 0
0 0
0 0
0 0
0 0
0 0
0 0
0 0
0 0
0 0
0 0
0 0
0 0
0 0
0 0
0 0
0 0
0 0
0 0
0 0
0 0
0 0
0 0
0 0
0 0
0 0
0 0
0 0
0 0
0 0
0 0
0 0
0 0
0 0
0 0
0 0
0 0
0 0
0 0
0 0
0 0
0 0
0 0
0 0
0 0
0 0
0 0
0 0
0 0
0 0
0 0
0 0
0 0
0 0
0 0
0 0
0 0
0 0
0 0
0 0
0 0
0 0
0 0
0 0
0 0
0 0
0 0
0 0
0 0
0 0
0 0
0 0
0 0
0 0
0 0
0 0
0 0
0 0
0 0
0 0
0 0
0 0
0 0
0 0
0 0
0 0
0 0
0 0
0 0
0 0
0 0
0 0
0 0
0 0
0 0
0 0
0 0
0 0
0 0
0 0
0 0
0 0
0 0
0 0
0 0
0 0
0 0
0 0
0 0
0 0
0 0
0 0
0 0
0 0
0 0
0 0
0 0
0 0
0 0
0 0
0 0
0 0
0 0
0 0
0 0
0 0
0 0
0 0
0 0
0 0
0 0
0 0
0 0
0 0
0 0
0 0
0 0
0 0
0 0
0 0
0 0
0 0
0 0
0 0
0 0
0 0
0 0
0 0
0 0
0 0
0 0
0 0
0 0
0 0
0 0
0 0
0 0
0 0
0 0
0 0
0 0
0 0
0 0
0 0
0 0
0 0
0 0
0 0
0 0
0 0
0 0
0 0
0 0
0 0
0 0
0 0
0 0
0 0
0 0
0 0
0 0
0 0
0 0
0 0
0 0
0 0
0 0
0 0
0 0
0 0
0 0
0 0
0 0
0 0
0 0
0 0
0 0
0 0
0 0
0 0
0 0
0 0
0 0
0 0
0 0
0 0
0 0
0 0
0 0
0 0
0 0
0 0
0 0
0 0
0 0
0 0
0 0
0 0
0 0
0 0
0 0
0 0
0 0
0 0
0 0
0 0
0 0
0 0
0 0
0 0
0 0
0 0
0 0
0 0
0 0
0 0
0 0
0 0
0 0
0 0
0 0
0 0
0 0
0 0
0 0
0 0
0 0
0 0
0 0
0 0
0 0
0 0
0 0
0 0
0 0
0 0
0 0
0 0
0 0
0 0
0 0
0 0
0 0
0 0
0 0
0 0
0 0
0 0
0 0
0 0
0 0
0 0
0 0
0 0
0 0
0 0
0 0
0 0
0 0
0 0
0 0
0 0
0 0
0 0
0 0
0 0
0 0
0 0
0 0
0 0
0 0
0 0
0 0
0 0
0 0
0 0
0 0
0 0
0 0
0 0
0 0
0 0
0 0
0 0
0 0
0 0
0 0
0 0
0 0
0 0
0 0
0 0
0 0
0 0
0 0
0 0
0 0
0 0
0 0
0 0
0 0
0 0
0 0
0 0
0 0
0 0
0 0
0 0
0 0
0 0
0 0
0 0
0 0
0 0
0 0
0 0
0 0
0 0
0 0
0 0
0 0
0 0
0 0
0 0
0 0
0 0
0 0
0 0
0 0
0 0
0 0
0 0
0 0
0 0
0 0
0 0
0 0
0 0
0 0
0 0
0 0
0 0
0 0
0 0
0 0
0 0
0 0
0 0
0 0
0 0
0 0
0 0
0 0
0 0
0 0
0 0
0 0
0 0
0 0
0 0
0 0
0 0
0 0
0 0
0 0
0 0
0 0
0 0
0 0
0 0
0 0
0 0
0 0
0 0
0 0
0 0
0 0
0 0
0 0
0 0
0 0
0 0
0 0
0 0
0 0
0 0
0 0
0 0
0 0
0 0
0 0
0 0
0 0
0 0
0 0
0 0
0 0
0 0
0 0
0 0
0 0
0 0
0 0
0 0
0 0
0 0
0 0
0 0
0 0
0 0
0 0
0 0
0 0
0 0
0 0
0 0
0 0
0 0
0 0
0 0
0 0
0 0
0 0
0 0
0 0
0 0
0 0
0 0
0 0
0 0
0 0
0 0
0 0
0 0
0 0
0 0
0 0
0 0
0 0
0 0
0 0
0 0
0 0
0 0
0 0
0 0
0 0
0 0
0 0
0 0
0 0
0 0
0 0
0 0
0 0
0 0
0 0
0 0
0 0
0 0
0 0
0 0
0 0
0 0
0 0
0 0
0 0
0 0
0 0
0 0
0 0
0 0
0 0
0 0
0 0
0 0
0 0
0 0
0 0
0 0
0 0
0 0
0 0
0 0
0 0
0 0
0 0
0 0
0 0
0 0
0 0
0 0
0 0
0 0
0 0
0 0
0 0
0 0
0 0
0 0
0 0
0 0
0 0
0 0
0 0
0 0
0 0
0 0
0 0
0 0
0 0
0 0
0 0
0 0
0 0
0 0
0 0
0 0
0 0
0 0
0 0
0 0
0 0
0 0
0 0
0 0
0 0
0 0
0 0
0 0
0 0
0 0
0 0
0 0
0 0
0 0
0 0
0 0
0 0
0 0
0 0
0 0
0 0
0 0
0 0
0 0
0 0
0 0
0 0
0 0
0 0
0 0
0 0
0 0
0 0
0 0
0 0
0 0
0 0
0 0
0 0
0 0
0 0
0 0
0 0
0 0
0 0
0 0
0 0
0 0
0 0
0 0
0 0
0 0
0 0
0 0
0 0
0 0
0 0
0 0
0 0
0 0
0 0
0 0
0 0
0 0
0 0
0 0
0 0
0 0
0 0
0 0
0 0
0 0
0 0
0 0
0 0
0 0
0 0
0 0
0 0
0 0
0 0
0 0
0 0
0 0
0 0
0 0
0 0
0 0
0 0
0 0
0 0
0 0
0 0
0 0
0 0
0 0
0 0
0 0
0 0
0 0
0 0
0 0
0 0
0 0
0 0
0 0
0 0
0 0
0 0
0 0
0 0
0 0
0 0
0 0
0 0
0 0
0 0
0 0
0 0
0 0
0 0
0 0
0 0
0 0
0 0
0 0
0 0
0 0
0 0
0 0
0 0
0 0
0 0
0 0
0 0
0 0
0 0
0 0
0 0
0 0
0 0
0 0
0 0
0 0
0 0
0 0
0 0
0 0
0 0
0 0
0 0
0 0
0 0
0 0
0 0
0 0
0 0
0 0
0 0
0 0
0 0
0 0
0 0
0 0
0 0
0 0
0 0
0 0
0 0
0 0
0 0
0 0
0 0
0 0
0 0
0 0
0 0
0 0
0 0
0 0
0 0
0 0
0 0
0 0
0 0
0 0
0 0
0 0
0 0
0 0
0 0
0 0
0 0
0 0
0 0
0 0
0 0
0 0
0 0
0 0
0 0
0 0
0 0
0 0
0 0
0 0
0 0
0 0
0 0
0 0
0 0
0 0
0 0
0 0
0 0
0 0
0 0
0 0
0 0
0 0
0 0
0 0
0 0
0 0
0 0
0 0
0 0
0 0
0 0
0 0
0 0
0 0
0 0
0 0
0 0
0 0
0 0
0 0
0 0
0 0
0 0
0 0
0 0
0 0
0 0
0 0
0 0
0 0
0 0
0 0
0 0
0 0
0 0
0 0
0 0
0 0
0 0
0 0
0 0
0 0
0 0
0 0
0 0
0 0
0 0
0 0
0 0
0 0
0 0
0 0
0 0
0 0
0 0
0 0
0 0
0 0
0 0
0 0
0 0
0 0
0 0
0 0
0 0
0 0
0 0
0 0
0 0
0 0
0 0
0 0
0 0
0 0
0 0
0 0
0 0
0 0
0 0
0 0
0 0
0 0
0 0
0 0
0 0
0 0
0 0
0 0
0 0
0 0
0 0
0 0
0 0
0 0
0 0
0 0
0 0
0 0
0 0
0 0
0 0
0 0
0 0
0 0
0 0
0 0
0 0
0 0
0 0
0 0
0 0
0 0
0 0
0 0
0 0
0 0
0 0
0 0
0 0
0 0
0 0
0 0
0 0
0 0
0 0
0 0
0 0
0 0
0 0
0 0
0 0
0 0
0 0
0 0
0 0
0 0
0 0
0 0
0 0
0 0
0 0
0 0
0 0
0 0
0 0
0 0
0 0
0 0
0 0
0 0
0 0
0 0
0 0
0 0
0 0
0 0
0 0
0 0
0 0
0 0
0 0
0 0
0 0
0 0
0 0
0 0
0 0
0 0
0 0
0 0
0 0
0 0
0 0
0 0
0 0
0 0
0 0
0 0
0 0
0 0
0 0
0 0
0 0
0 0
0 0
0 0
0 0
0 0
0 0
0 0
0 0
0 0
0 0
0 0
0 0
0 0
0 0
0 0
0 0
0 0
0 0
0 0
0 0
0 0
0 0
0 0
0 0
0 0
0 0
0 0
0 0
0 0
0 0
0 0
0 0
0 0
0 0
0 0
0 0
0 0
0 0
0 0
0 0
0 0
0 0
0 0
0 0
0 0
0 0
0 0
0 0
0 0
0 0
0 0
0 0
0 0
0 0
0 0
0 0
0 0
0 0
0 0
0 0
0 0
0 0
0 0
0 0
0 0
0 0
0 0
0 0
0 0
0 0
0 0
0 0
0 0
0 0
0 0
0 0
0 0
0 0
0 0
0 0
0 0
0 0
0 0
0 0
0 0
0 0
0 0
0 0
0 0
0 0
0 0
0 0
0 0
0 0
0 0
0 0
0 0
0 0
0 0
0 0
0 0
0 0
0 0
0 0
0 0
0 0
0 0
0 0
0 0
0 0
0 0
0 0
0 0
0 0
0 0
0 0
0 0
0 0
0 0
0 0
0 0
0 0
0 0
0 0
0 0
0 0
0 0
0 0
0 0
0 0
0 0
0 0
0 0
0 0
0 0
0 0
0 0
0 0
0 0
0 0
0 0
0 0
0 0
0 0
0 0
0 0
0 0
0 0
0 0
0 0
0 0
0 0
0 0
0 0
0 0
0 0
0 0
0 0
0 0
0 0
0 0
0 0
0 0
0 0
0 0
0 0
0 0
0 0
0 0
0 0
0 0
0 0
0 0
0 0
0 0
0 0
0 0
0 0
0 0
0 0
0 0
0 0
0 0
0 0
0 0
0 0
0 0
0 0
0 0
0 0
0 0
0 0
0 0
0 0
0 0
0 0
0 0
0 0
0 0
0 0
0 0
0 0
0 0
0 0
0 0
0 0
0 0
0 0
0 0
0 0
0 0
0 0
0 0
0 0
0 0
0 0
0 0
0 0
0 0
0 0
0 0
0 0
0 0
0 0
0 0
0 0
0 0
0 0
0 0
0 0
0 0
0 0
0 0
0 0
0 0
0 0
0 0
0 0
0 0
0 0
0 0
0 0
0 0
0 0
0 0
0 0
0 0
0 0
0 0
0 0
0 0
0 0
0 0
0 0
0 0
0 0
0 0
0 0
0 0
0 0
0 0
0 0
0 0
0 0
0 0
0 0
0 0
0 0
0 0
0 0
0 0
0 0
0 0
0 0
0 0
0 0
0 0
0 0
0 0
0 0
0 0
0 0
0 0
0 0
0 0
0 0
0 0
0 0
0 0
0 0
0 0
0 0
0 0
0 0
0 0
0 0
0 0
0 0
0 0
0 0
0 0
0 0
0 0
0 0
0 0
0 0
0 0
0 0
0 0
0 0
0 0
0 0
0 0
0 0
0 0
0 0
0 0
0 0
0 0
0 0
0 0
0 0
0 0
0 0
0 0
0 0
0 0
0 0
0 0
0 0
0 0
0 0
0 0
0 0
0 0
0 0
0 0
0 0
0 0
0 0
0 0
0 0
0 0
0 0
0 0
0 0
0 0
0 0
0 0
0 0
0 0
0 0
0 0
0 0
0 0
0 0
0 0
0 0
0 0
0 0
0 0
0 0
0 0
0 0
0 0
0 0
0 0
0 0
0 0
0 0
0 0
0 0
0 0
0 0
0 0
0 0
0 0
0 0
0 0
0 0
0 0
0 0
0 0
0 0
0 0
0 0
0 0
0 0
0 0
0 0
0 0
0 0
0 0
0 0
0 0
0 0
0 0
0 0
0 0
0 0
0 0
0 0
0 0
0 0
0 0
0 0
0 0
0 0
0 0
0 0
0 0
0 0
0 0
0 0
0 0
0 0
0 0
0 0
0 0
0 0
0 0
0 0
0 0
0 0
0 0
0 0
0 0
0 0
0 0
0 0
0 0
0 0
0 0
0 0
0 0
0 0
0 0
0 0
0 0
0 0
0 0
0 0
0 0
0 0
0 0
0 0
0 0
0 0
0 0
0 0
0 0
0 0
0 0
0 0
0 0
0 0
0 0
0 0
0 0
0 0
0 0
0 0
0 0
0 0
0 0
0 0
0 0
0 0
0 0
0 0
0 0
0 0
0 0
0 0
0 0
0 0
0 0
0 0
0 0
0 0
0 0
0 0
0 0
0 0
0 0
0 0
0 0
0 0
0 0
0 0
0 0
0 0
0 0
0 0
0 0
0 0
0 0
0 0
0 0
0 0
0 0
0 0
0 0
0 0
0 0
0 0
0 0
0 0
0 0
0 0
0 0
0 0
0 0
0 0
0 0
0 0
0 0
0 0
0 0
0 0
0 0
0 0
0 0
0 0
0 0
0 0
0 0
0 0
0 0
0 0
0 0
0 0
0 0
0 0
0 0
0 0
0 0
0 0
0 0
0 0
0 0
0 0
0 0
0 0
0 0
0 0
0 0
0 0
0 0
0 0
0 0
0 0
0 0
0 0
0 0
0 0
0 0
0 0
0 0
0 0
0 0
0 0
0 0
0 0
0 0
0 0
0 0
0 0
0 0
0 0
0 0
0 0
0 0
0 0
0 0
0 0
0 0
0 0
0 0
0 0
0 0
0 0
0 0
0 0
0 0
0 0
0 0
0 0
0 0
0 0
0 0
0 0
0 0
0 0
0 0
0 0
0 0
0 0
0 0
0 0
0 0
0 0
0 0
0 0
0 0
0 0
0 0
0 0
0 0
0 0
0 0
0 0
0 0
0 0
0 0
0 0
0 0
0 0
0 0
0 0
0 0
0 0
0 0
0 0
0 0
0 0
0 0
0 0
0 0
0 0
0 0
0 0
0 0
0 0
0 0
0 0
0 0
0 0
0 0
0 0
0 0
0 0
0 0
0 0
0 0
0 0
0 0
0 0
0 0
0 0
0 0
0 0
0 0
0 0
0 0
0 0
0 0
0 0
0 0
0 0
0 0
0 0
0 0
0 0
0 0
0 0
0 0
0 0
0 0
0 0
0 0
0 0
0 0
0 0
0 0
0 0
0 0
0 0
0 0
0 0
0 0
0 0
0 0
0 0
0 0
0 0
0 0
0 0
0 0
0 0
0 0
0 0
0 0
0 0
0 0
0 0
0 0
0 0
0 0
0 0
0 0
0 0
0 0
0 0
0 0
0 0
0 0
0 0
0 0
0 0
0 0
0 0
0 0
0 0
0 0
0 0
0 0
0 0
0 0
0 0
0 0
0 0
0 0
0 0
0 0
0 0
0 0
0 0
0 0
0 0
0 0
0 0
0 0
0 0
0 0
0 0
0 0
0 0
0 0
0 0
0 0
0 0
0 0
0 0
0 0
0 0
0 0
0 0
0 0
0 0
0 0
0 0
0 0
0 0
0 0
0 0
0 0
0 0
0 0
0 0
0 0
0 0
0 0
0 0
0 0
0 0
0 0
0 0
0 0
0 0
0 0
0 0
0 0
0 0
0 0
0 0
0 0
0 0
0 0
0 0
0 0
0 0
0 0
0 0
0 0
0 0
0 0
0 0
0 0
0 0
0 0
0 0
0 0
0 0
0 0
0 0
0 0
0 0
0 0
0 0
0 0
0 0
0 0
0 0
0 0
0 0
0 0
0 0
0 0
0 0
0 0
0 0
0 0
0 0
0 0
0 0
0 0
0 0
0 0
0 0
0 0
0 0
0 0
0 0
0 0
0 0
0 0
0 0
0 0
0 0
0 0
0 0
0 0
0 0
0 0
0 0
0 0
0 0
0 0
0 0
0 0
0 0
0 0
0 0
0 0
0 0
0 0
0 0
0 0
0 0
0 0
0 0
0 0
0 0
0 0
0 0
0 0
0 0
0 0
0 0
0 0
0 0
0 0
0 0
0 0
0 0
0 0
0 0
0 0
0 0
0 0
0 0
0 0
0 0
0 0
0 0
0 0
0 0
0 0
0 0
0 0
0 0
0 0
0 0
0 0
0 0
0 0
0 0
0 0
0 0
0 0
0 0
0 0
0 0
0 0
0 0
0 0
0 0
0 0
0 0
0 0
0 0
0 0
0 0
0 0
0 0
0 0
0 0
0 0
0 0
0 0
0 0
0 0
0 0
0 0
0 0
0 0
0 0
0 0
0 0
0 0
0 0
0 0
0 0
0 0
0 0
0 0
0 0
0 0
0 0
0 0
0 0
0 0
0 0
0 0
0 0
0 0
0 0
0 0
0 0
0 0
0 0
0 0
0 0
0 0
0 0
0 0
0 0
0 0
0 0
0 0
0 0
0 0
0 0
0 0
0 0
0 0
0 0
0 0
0 0
0 0
0 0
0 0
0 0
0 0
0 0
0 0
0 0
0 0
0 0
0 0
0 0
0 0
0 0
0 0
0 0
0 0
0 0
0 0
0 0
0 0
0 0
0 0
0 0
0 0
0 0
0 0
0 0
0 0
0 0
0 0
0 0
0 0
0 0
0 0
0 0
0 0
0 0
0 0
0 0
0 0
0 0
0 0
0 0
0 0
0 0
0 0
0 0
0 0
0 0
0 0
0 0
0 0
0 0
0 0
0 0
0 0
0 0
0 0
0 0
0 0
0 0
0 0
0 0
0 0
0 0
0 0
0 0
0 0
0 0
0 0
0 0
0 0
0 0
0 0
0 0
0 0
0 0
0 0
0 0
0 0
0 0
0 0
0 0
0 0
0 0
0 0
0 0
0 0
0 0
0 0
0 0
0 0
0 0
0 0
0 0
0 0
0 0
0 0
0 0
0 0
0 0
0 0
0 0
0 0
0 0
0 0
0 0
0 0
0 0
0 0
0 0
0 0
0 0
0 0
0 0
0 0
0 0
0 0
0 0
0 0
0 0
0 0
0 0
0 0
0 0
0 0
0 0
0 0
0 0
0 0
0 0
0 0
0 0
0 0
0 0
0 0
0 0
0 0
0 0
0 0
0 0
0 0
0 0
0 0
0 0
0 0
0 0
0 0
0 0
0 0
0 0
0 0
0 0
0 0
0 0
0 0
0 0
0 0
0 0
0 0
0 0
0 0
0 0
0 0
0 0
0 0
0 0
0 0
0 0
0 0
0 0
0 0
0 0
0 0
0 0
0 0
0 0
0 0
0 0
0 0
0 0
0 0
0 0
0 0
0 0
0 0
0 0
0 0
0 0
0 0
0 0
0 0
0 0
0 0
0 0
0 0
0 0
0 0
0 0
0 0
0 0
0 0
0 0
0 0
0 0
0 0
0 0
0 0
0 0
0 0
0 0
0 0
0 0
0 0
0 0
0 0
0 0
0 0
0 0
0 0
0 0
0 0
0 0
0 0
0 0
0 0
0 0
0 0
0 0
0 0
0 0
0 0
0 0
0 0
0 0
0 0
0 0
0 0
0 0
0 0
0 0
0 0
0 0
0 0
0 0
0 0
0 0
0 0
0 0
0 0
0 0
0 0
0 0
0 0
0 0
0 0
0 0
0 0
0 0
0 0
0 0
0 0
0 0
0 0
0 0
0 0
0 0
0 0
0 0
0 0
0 0
0 0
0 0
0 0
0 0
0 0
0 0
0 0
0 0
0 0
0 0
0 0
0 0
0 0
0 0
0 0
0 0
0 0
0 0
0 0
0 0
0 0
0 0
0 0
0 0
0 0
0 0
0 0
0 0
0 0
0 0
0 0
0 0
0 0
0 0
0 0
0 0
0 0
0 0
0 0
0 0
0 0
0 0
0 0
0 0
0 0
0 0
0 0
0 0
0 0
0 0
0 0
0 0
0 0
0 0
0 0
0 0
0 0
0 0
0 0
0 0
0 0
0 0
0 0
0 0
0 0
0 0
0 0
0 0
0 0
0 0
0 0
0 0
0 0
0 0
0 0
0 0
0 0
0 0
0 0
0 0
0 0
0 0
0 0
0 0
0 0
0 0
0 0
0 0
0 0
0 0
0 0
0 0
0 0
0 0
0 0
0 0
0 0
0 0
0 0
0 0
0 0
0 0
0 0
0 0
0 0
0 0
0 0
0 0
0 0
0 0
0 0
0 0
0 0
0 0
0 0
0 0
0 0
0 0
0 0
0 0
0 0
0 0
0 0
0 0
0 0
0 0
0 0
0 0
0 0
0 0
0 0
0 0
0 0
0 0
0 0
0 0
0 0
0 0
0 0
0 0
0 0
0 0
0 0
0 0
0 0
0 0
0 0
0 0
0 0
0 0
0 0
0 0
0 0
0 0
0 0
0 0
0 0
0 0
0 0
0 0
0 0
0 0
0 0
0 0
0 0
0 0
0 0
0 0
0 0
0 0
0 0
0 0
0 0
0 0
0 0
0 0
0 0
0 0
0 0
0 0
0 0
0 0
0 0
0 0
0 0
0 0
0 0
0 0
0 0
0 0
0 0
0 0
0 0
0 0
0 0
0 0
0 0
0 0
0 0
0 0
0 0
0 0
0 0
0 0
0 0
0 0
0 0
0 0
0 0
0 0
0 0
0 0
0 0
0 0
0 0
0 0
0 0
0 0
0 0
0 0
0 0
0 0
0 0
0 0
0 0
0 0
0 0
0 0
0 0
0 0
0 0
0 0
0 0
0 0
0 0
0 0
0 0
0 0
0 0
0 0
0 0
0 0
0 0
0 0
0 0
0 0
0 0
0 0
0 0
0 0
0 0
0 0
0 0
0 0
0 0
0 0
0 0
0 0
0 0
0 0
0 0
0 0
0 0
0 0
0 0
0 0
0 0
0 0
0 0
0 0
0 0
0 0
0 0
0 0
0 0
0 0
0 0
0 0
0 0
0 0
0 0
0 0
0 0
0 0
0 0
0 0
0 0
0 0
0 0
0 0
0 0
0 0
0 0
0 0
0 0
0 0
0 0
0 0
0 0
0 0
0 0
0 0
0 0
0 0
0 0
0 0
0 0
0 0
0 0
0 0
0 0
0 0
0 0
0 0
0 0
0 0
0 0
0 0
0 0
0 0
0 0
0 0
0 0
0 0
0 0
0 0
0 0
0 0
0 0
0 0
0 0
0 0
0 0
0 0
0 0
0 0
0 0
0 0
0 0
0 0
0 0
0 0
0 0
0 0
0 0
0 0
0 0
0 0
0 0
0 0
0 0
0 0
0 0
0 0
0 0
0 0
0 0
0 0
0 0
0 0
0 0
0 0
0 0
0 0
0 0
0 0
0 0
0 0
0 0
0 0
0 0
0 0
0 0
0 0
0 0
0 0
0 0
0 0
0 0
0 0
0 0
0 0
0 0
0 0
0 0
0 0
0 0
0 0
0 0
0 0
0 0
0 0
0 0
0 0
0 0
0 0
0 0
0 0
0 0
0 0
0 0
0 0
0 0
0 0
0 0
0 0
0 0
0 0
0 0
0 0
0 0
0 0
0 0
0 0
0 0
0 0
0 0
0 0
0 0
0 0
0 0
0 0
0 0
0 0
0 0
0 0
0 0
0 0
0 0
0 0
0 0
0 0
0 0
0 0
0 0
0 0
0 0
0 0
0 0
0 0
0 0
0 0
0 0
0 0
0 0
0 0
0 0
0 0
0 0
0 0
0 0
0 0
0 0
0 0
0 0
0 0
0 0
0 0
0 0
0 0
0 0
0 0
0 0
0 0
0 0
0 0
0 0
0 0
0 0
0 0
0 0
0 0
0 0
0 0
0 0
0 0
0 0
0 0
0 0
0 0
0 0
0 0
0 0
0 0
0 0
0 0
0 0
0 0
0 0
0 0
0 0
0 0
0 0
0 0
0 0
0 0
0 0
0 0
0 0
0 0
0 0
0 0
0 0
0 0
0 0
0 0
0 0
0 0
0 0
0 0
0 0
0 0
0 0
0 0
0 0
0 0
0 0
0 0
0 0
0 0
0 0
0 0
0 0
0 0
0 0
0 0
0 0
0 0
0 0
0 0
0 0
0 0
0 0
0 0
0 0
0 0
0 0
0 0
0 0
0 0
0 0
0 0
0 0
0 0
0 0
0 0
0 0
0 0
0 0
0 0
0 0
0 0
0 0
0 0
0 0
0 0
0 0
0 0
0 0
0 0
0 0
0 0
0 0
0 0
0 0
0 0
0 0
0 0
0 0
0 0
0 0
0 0
0 0
0 0
0 0
0 0
0 0
0 0
0 0
0 0
0 0
0 0
0 0
0 0
0 0
0 0
0 0
0 0
0 0
0 0
0 0
0 0
0 0
0 0
0 0
0 0
0 0
0 0
0 0
0 0
0 0
0 0
0 0
0 0
0 0
0 0
0 0
0 0
0 0
0 0
0 0
0 0
0 0
0 0
0 0
0 0
0 0
0 0
0 0
0 0
0 0
0 0
0 0
0 0
0 0
0 0
0 0
0 0
0 0
0 0
0 0
0 0
0 0
0 0
0 0
0 0
0 0
0 0
0 0
0 0
0 0
0 0
0 0
0 0
0 0
0 0
0 0
0 0
0 0
0 0
0 0
0 0
0 0
0 0
0 0
0 0
0 0
0 0
0 0
0 0
0 0
0 0
0 0
0 0
0 0
0 0
0 0
0 0
0 0
0 0
0 0
0 0
0 0
0 0
0 0
0 0
0 0
0 0
0 0
0 0
0 0
0 0
0 0
0 0
0 0
0 0
0 0
0 0
0 0
0 0
0 0
0 0
0 0
0 0
0 0
0 0
0 0
0 0
0 0
0 0
0 0
0 0
0 0
0 0
0 0
0 0
0 0
0 0
0 0
0 0
0 0
0 0
0 0
0 0
0 0
0 0
0 0
0 0
0 0
0 0
0 0
0 0
0 0
0 0
0 0
0 0
0 0
0 0
0 0
0 0
0 0
0 0
0 0
0 0
0 0
0 0
0 0
0 0
0 0
0 0
0 0
0 0
0 0
0 0
0 0
0 0
0 0
0 0
0 0
0 0
0 0
0 0
0 0
0 0
0 0
0 0
0 0
0 0
0 0
0 0
0 0
0 0
0 0
0 0
0 0
0 0
0 0
0 0
0 0
0 0
0 0
0 0
0 0
0 0
0 0
0 0
0 0
0 0
0 0
0 0
0 0
0 0
0 0
0 0
0 0
0 0
0 0
0 0
0 0
0 0
0 0
0 0
0 0
0 0
0 0
0 0
0 0
0 0
0 0
0 0
0 0
0 0
0 0
0 0
0 0
0 0
0 0
0 0
0 0
0 0
0 0
0 0
0 0
0 0
0 0
0 0
0 0
0 0
0 0
0 0
0 0
0 0
0 0
0 0
0 0
0 0
0 0
0 0
0 0
0 0
0 0
0 0
0 0
0 0
0 0
0 0
0 0
0 0
0 0
0 0
0 0
0 0
0 0
0 0
0 0
0 0
0 0
0 0
0 0
0 0
0 0
0 0
0 0
0 0
0 0
0 0
0 0
0 0
0 0
0 0
0 0
0 0
0 0
0 0
0 0
0 0
0 0
0 0
0 0
0 0
0 0
0 0
0 0
0 0
0 0
0 0
0 0
0 0
0 0
0 0
0 0
0 0
0 0
0 0
0 0
0 0
0 0
0 0
0 0
0 0
0 0
0 0
0 0
0 0
0 0
0 0
0 0
0 0
0 0
0 0
0 0
0 0
0 0
0 0
0 0
0 0
0 0
0 0
0 0
0 0
0 0
0 0
0 0
0 0
0 0
0 0
0 0
0 0
0 0
0 0
0 0
0 0
0 0
0 0
0 0
0 0
0 0
0 0
0 0
0 0
0 0
0 0
0 0
0 0
0 0
0 0
0 0
0 0
0 0
0 0
0 0
0 0
0 0
0 0
0 0
0 0
0 0
0 0
0 0
0 0
0 0
0 0
0 0
0 0
0 0
0 0
0 0
0 0
0 0
0 0
0 0
0 0
0 0
0 0
0 0
0 0
0 0
0 0
0 0
0 0
0 0
0 0
0 0
0 0
0 0
0 0
0 0
0 0
0 0
0 0
0 0
0 0
0 0
0 0
0 0
0 0
0 0
0 0
0 0
0 0
0 0
0 0
0 0
0 0
0 0
0 0
0 0
0 0
0 0
0 0
0 0
0 0
0 0
0 0
0 0
0 0
0 0
0 0
0 0
0 0
0 0
0 0
0 0
0 0
0 0
0 0
0 0
0 0
0 0
0 0
0 0
0 0
0 0
0 0
0 0
0 0
0 0
0 0
0 0
0 0
0 0
0 0
0 0
0 0
0 0
0 0
0 0
0 0
0 0
0 0
0 0
0 0
0 0
0 0
0 0
0 0
0 0
0 0
0 0
0 0
0 0
0 0
0 0
0 0
0 0
0 0
0 0
0 0
0 0
0 0
0 0
0 0
0 0
0 0
0 0
0 0
0 0
0 0
0 0
0 0
0 0
0 0
0 0
0 0
0 0
0 0
0 0
0 0
0 0
0 0
0 0
0 0
0 0
0 0
0 0
0 0
0 0
0 0
0 0
0 0
0 0
0 0
0 0
0 0
0 0
0 0
0 0
0 0
0 0
0 0
0 0
0 0
0 0
0 0
0 0
0 0
0 0
0 0
0 0
0 0
0 0
0 0
0 0
0 0
0 0
0 0
0 0
0 0
0 0
0 0
0 0
0 0
0 0
0 0
0 0
0 0
0 0
0 0
0 0
0 0
0 0
0 0
0 0
0 0
0 0
0 0
0 0
0 0
0 0
0 0
0 0
0 0
0 0
0 0
0 0
0 0
0 0
0 0
0 0
0 0
0 0
0 0
0 0
0 0
0 0
0 0
0 0
0 0
0 0
0 0
0 0
0 0
0 0
0 0
0 0
0 0
0 0
0 0
0 0
0 0
0 0
0 0
0 0
0 0
0 0
0 0
0 0
0 0
0 0
0 0
0 0
0 0
0 0
0 0
0 0
0 0
0 0
0 0
0 0
0 0
0 0
0 0
0 0
0 0
0 0
0 0
0 0
0 0
0 0
0 0
0 0
0 0
0 0
0 0
0 0
0 0
0 0
0 0
0 0
0 0
0 0
0 0
0 0
0 0
0 0
0 0
0 0
0 0
0 0
0 0
0 0
0 0
0 0
0 0
0 0
0 0
0 0
0 0
0 0
0 0
0 0
0 0
0 0
0 0
0 0
0 0
0 0
0 0
0 0
0 0
0 0
0 0
0 0
0 0
0 0
0 0
0 0
0 0
0 0
0 0
0 0
0 0
0 0
0 0
0 0
0 0
0 0
0 0
0 0
0 0
0 0
0 0
0 0
0 0
0 0
0 0
0 0
0 0
0 0
0 0
0 0
0 0
0 0
0 0
0 0
0 0
0 0
0 0
0 0
0 0
0 0
0 0
0 0
0 0
0 0
0 0
0 0
0 0
0 0
0 0
0 0
0 0
0 0
0 0
0 0
0 0
0 0
0 0
0 0
0 0
0 0
0 0
0 0
0 0
0 0
0 0
0 0
0 0
0 0
0 0
0 0
0 0
0 0
0 0
0 0
0 0
0 0
0 0
0 0
0 0
0 0
0 0
0 0
0 0
0 0
0 0
0 0
0 0
0 0
0 0
0 0
0 0
0 0
0 0
0 0
0 0
0 0
0 0
0 0
0 0
0 0
0 0
0 0
0 0
0 0
0 0
0 0
0 0
0 0
0 0
0 0
0 0
0 0
0 0
0 0
0 0
0 0
0 0
0 0
0 0
0 0
0 0
0 0
0 0
0 0
0 0
0 0
0 0
0 0
0 0
0 0
0 0
0 0
0 0
0 0
0 0
0 0
0 0
0 0
0 0
0 0
0 0
0 0
0 0
0 0
0 0
0 0
0 0
0 0
0 0
0 0
0 0
0 0
0 0
0 0
0 0
0 0
0 0
0 0
0 0
0 0
0 0
0 0
0 0
0 0
0 0
0 0
0 0
0 0
0 0
0 0
0 0
0 0
0 0
0 0
0 0
0 0
0 0
0 0
0 0
0 0
0 0
0 0
0 0
0 0
0 0
0 0
0 0
0 0
0 0
0 0
0 0
0 0
0 0
0 0
0 0
0 0
0 0
0 0
0 0
0 0
0 0
0 0
0 0
0 0
0 0
0 0
0 0
0 0
0 0
0 0
0 0
0 0
0 0
0 0
0 0
0 0
0 0
0 0
0 0
0 0
0 0
0 0
0 0
0 0
0 0
0 0
0 0
0 0
0 0
0 0
0 0
0 0
0 0
0 0
0 0
0 0
0 0
0 0
0 0
0 0
0 0
0 0
0 0
0 0
0 0
0 0
0 0
0 0
0 0
0 0
0 0
0 0
0 0
0 0
0 0
0 0
0 0
0 0
0 0
0 0
0 0
0 0
0 0
0 0
0 0
0 0
0 0
0 0
0 0
0 0
0 0
0 0
0 0
0 0
0 0
0 0
0 0
0 0
0 0
0 0
0 0
0 0
0 0
0 0
0 0
0 0
0 0
0 0
0 0
0 0
0 0
0 0
0 0
0 0
0 0
0 0
0 0
0 0
0 0
0 0
0 0
0 0
0 0
0 0
0 0
0 0
0 0
0 0
0 0
0 0
0 0
0 0
0 0
0 0
0 0
0 0
0 0
0 0
0 0
0 0
0 0
0 0
0 0
0 0
0 0
0 0
0 0
0 0
0 0
0 0
0 0
0 0
0 0
0 0
0 0
0 0
0 0
0 0
0 0
0 0
0 0
0 0
0 0
0 0
0 0
0 0
0 0
0 0
0 0
0 0
0 0
0 0
0 0
0 0
0 0
0 0
0 0
0 0
0 0
0 0
0 0
0 0
0 0
0 0
0 0
0 0
0 0
0 0
0 0
0 0
0 0
0 0
0 0
0 0
0 0
0 0
0 0
0 0
0 0
0 0
0 0
0 0
0 0
0 0
0 0
0 0
0 0
0 0
0 0
0 0
0 0
0 0
0 0
0 0
0 0
0 0
0 0
0 0
0 0
0 0
0 0
0 0
0 0
0 0
0 0
0 0
0 0
0 0
0 0
0 0
0 0
0 0
0 0
0 0
0 0
0 0
0 0
0 0
0 0
0 0
0 0
0 0
0 0
0 0
0 0
0 0
0 0
0 0
0 0
0 0
0 0
0 0
0 0
0 0
0 0
0 0
0 0
0 0
0 0
0 0
0 0
0 0
0 0
0 0
0 0
0 0
0 0
0 0
0 0
0 0
0 0
0 0
0 0
0 0
0 0
0 0
0 0
0 0
0 0
0 0
0 0
0 0
0 0
0 0
0 0
0 0
0 0
0 0
0 0
0 0
0 0
0 0
0 0
0 0
0 0
0 0
0 0
0 0
0 0
0 0
0 0
0 0
0 0
0 0
0 0
0 0
0 0
0 0
0 0
0 0
0 0
0 0
0 0
0 0
0 0
0 0
0 0
0 0
0 0
0 0
0 0
0 0
0 0
0 0
0 0
0 0
0 0
0 0
0 0
0 0
0 0
0 0
0 0
0 0
0 0
0 0
0 0
0 0
0 0
0 0
0 0
0 0
0 0
0 0
0 0
0 0
0 0
0 0
0 0
0 0
0 0
0 0
0 0
0 0
0 0
0 0
0 0
0 0
0 0
0 0
0 0
0 0
0 0
0 0
0 0
0 0
0 0
0 0
0 0
0 0
0 0
0 0
0 0
0 0
0 0
0 0
0 0
0 0
0 0
0 0
0 0
0 0
0 0
0 0
0 0
0 0
0 0
0 0
0 0
0 0
0 0
0 0
0 0
0 0
0 0
0 0
0 0
0 0
0 0
0 0
0 0
0 0
0 0
0 0
0 0
0 0
0 0
0 0
0 0
0 0
0 0
0 0
0 0
0 0
0 0
0 0
0 0
0 0
0 0
0 0
0 0
0 0
0 0
0 0
0 0
0 0
0 0
0 0
0 0
0 0
0 0
0 0
0 0
0 0
0 0
0 0
0 0
0 0
0 0
0 0
0 0
0 0
0 0
0 0
0 0
0 0
0 0
0 0
0 0
0 0
0 0
0 0
0 0
0 0
0 0
0 0
0 0
0 0
0 0
0 0
0 0
0 0
0 0
0 0
0 0
0 0
0 0
0 0
0 0
0 0
0 0
0 0
0 0
0 0
0 0
0 0
0 0
0 0
0 0
0 0
0 0
0 0
0 0
0 0
0 0
0 0
0 0
0 0
0 0
0 0
0 0
0 0
0 0
0 0
0 0
0 0
0 0
0 0
0 0
0 0
0 0
0 0
0 0
0 0
0 0
0 0
0 0
0 0
0 0
0 0
0 0
0 0
0 0
0 0
0 0
0 0
0 0
0 0
0 0
0 0
0 0
0 0
0 0
0 0
0 0
0 0
0 0
0 0
0 0
0 0
0 0
0 0
0 0
0 0
0 0
0 0
0 0
0 0
0 0
0 0
0 0
0 0
0 0
0 0
0 0
0 0
0 0
0 0
0 0
0 0
0 0
0 0
0 0
0 0
0 0
0 0
0 0
0 0
0 0
0 0
0 0
0 0
0 0
0 0
0 0
0 0
0 0
0 0
0 0
0 0
0 0
0 0
0 0
0 0
0 0
0 0
0 0
0 0
0 0
0 0
0 0
0 0
0 0
0 0
0 0
0 0
0 0
0 0
0 0
0 0
0 0
0 0
0 0
0 0
0 0
0 0
0 0
0 0
0 0
0 0
0 0
0 0
0 0
0 0
0 0
0 0
0 0
0 0
0 0
0 0
0 0
0 0
0 0
0 0
0 0
0 0
0 0
0 0
0 0
0 0
0 0
0 0
0 0
0 0
0 0
0 0
0 0
0 0
0 0
0 0
0 0
0 0
0 0
0 0
0 0
0 0
0 0
0 0
0 0
0 0
0 0
0 0
0 0
0 0
0 0
0 0
0 0
0 0
0 0
0 0
0 0
0 0
0 0
0 0
0 0
0 0
0 0
0 0
0 0
0 0
0 0
0 0
0 0
0 0
0 0
0 0
0 0
0 0
0 0
0 0
0 0
0 0
0 0
0 0
0 0
0 0
0 0
0 0
0 0
0 0
0 0
0 0
0 0
0 0
0 0
0 0
0 0
0 0
0 0
0 0
0 0
0 0
0 0
0 0
0 0
0 0
0 0
0 0
0 0
0 0
0 0
0 0
0 0
0 0
0 0
0 0
0 0
0 0
0 0
0 0
0 0
0 0
0 0
0 0
0 0
0 0
0 0
0 0
0 0
0 0
0 0
0 0
0 0
0 0
0 0
0 0
0 0
0 0
0 0
0 0
0 0
0 0
0 0
0 0
0 0
0 0
0 0
0 0
0 0
0 0
0 0
0 0
0 0
0 0
0 0
0 0
0 0
0 0
0 0
0 0
0 0
0 0
0 0
0 0
0 0
0 0
0 0
0 0
0 0
0 0
0 0
0 0
0 0
0 0
0 0
0 0
0 0
0 0
0 0
0 0
0 0
0 0
0 0
0 0
0 0
0 0
0 0
0 0
0 0
0 0
0 0
0 0
0 0
0 0
0 0
0 0
0 0
0 0
0 0
0 0
0 0
0 0
0 0
0 0
0 0
0 0
0 0
0 0
0 0
0 0
0 0
0 0
0 0
0 0
0 0
0 0
0 0
0 0
0 0
0 0
0 0
0 0
0 0
0 0
0 0
0 0
0 0
0 0
0 0
0 0
0 0
0 0
0 0
0 0
0 0
0 0
0 0
0 0
0 0
0 0
0 0
0 0
0 0
0 0
0 0
0 0
0 0
0 0
0 0
0 0
0 0
0 0
0 0
0 0
0 0
0 0
0 0
0 0
0 0
0 0
0 0
0 0
0 0
0 0
0 0
0 0
0 0
0 0
0 0
0 0
0 0
0 0
0 0
0 0
0 0
0 0
0 0
0 0
0 0
0 0
0 0
0 0
0 0
0 0
0 0
0 0
0 0
0 0
0 0
0 0
0 0
0 0
0 0
0 0
0 0
0 0
0 0
0 0
0 0
0 0
0 0
0 0
0 0
0 0
0 0
0 0
0 0
0 0
0 0
0 0
0 0
0 0
0 0
0 0
0 0
0 0
0 0
0 0
0 0
0 0
0 0
0 0
0 0
0 0
0 0
0 0
0 0
0 0
0 0
0 0
0 0
0 0
0 0
0 0
0 0
0 0
0 0
0 0
0 0
0 0
0 0
0 0
0 0
0 0
0 0
0 0
0 0
0 0
0 0
0 0
0 0
0 0
0 0
0 0
0 0
0 0
0 0
0 0
0 0
0 0
0 0
0 0
0 0
0 0
0 0
0 0
0 0
0 0
0 0
0 0
0 0
0 0
0 0
0 0
0 0
0 0
0 0
0 0
0 0
0 0
0 0
0 0
0 0
0 0
0 0
0 0
0 0
0 0
0 0
0 0
0 0
0 0
0 0
0 0
0 0
0 0
0 0
0 0
0 0
0 0
0 0
0 0
0 0
0 0
0 0
0 0
0 0
0 0
0 0
0 0
0 0
0 0
0 0
0 0
0 0
0 0
0 0
0 0
0 0
0 0
0 0
0 0
0 0
0 0
0 0
0 0
0 0
0 0
0 0
0 0
0 0
0 0
0 0
0 0
0 0
0 0
0 0
0 0
0 0
0 0
0 0
0 0
0 0
0 0
0 0
0 0
0 0
0 0
0 0
0 0
0 0
0 0
0 0
0 0
0 0
0 0
0 0
0 0
0 0
0 0
0 0
0 0
0 0
0 0
0 0
0 0
0 0
0 0
0 0
0 0
0 0
0 0
0 0
0 0
0 0
0 0
0 0
0 0
0 0
0 0
0 0
0 0
0 0
0 0
0 0
0 0
0 0
0 0
0 0
0 0
0 0
0 0
0 0
0 0
0 0
0 0
0 0
0 0
0 0
0 0
0 0
0 0
0 0
0 0
0 0
0 0
0 0
0 0
0 0
0 0
0 0
0 0
0 0
0 0
0 0
0 0
0 0
0 0
0 0
0 0
0 0
0 0
0 0
0 0
0 0
0 0
0 0
0 0
0 0
0 0
0 0
0 0
0 0
0 0
0 0
0 0
0 0
0 0
0 0
0 0
0 0
0 0
0 0
0 0
0 0
0 0
0 0
0 0
0 0
0 0
0 0
0 0
0 0
0 0
0 0
0 0
0 0
0 0
0 0
0 0
0 0
0 0
0 0
0 0
0 0
0 0
0 0
0 0
0 0
0 0
0 0
0 0
0 0
0 0
0 0
0 0
0 0
0 0
0 0
0 0
0 0
0 0
0 0
0 0
0 0
0 0
0 0
0 0
0 0
0 0
0 0
0 0
0 0
0 0
0 0
0 0
0 0
0 0
0 0
0 0
0 0
0 0
0 0
0 0
0 0
0 0
0 0
0 0
0 0
0 0
0 0
0 0
0 0
0 0
0 0
0 0
0 0
0 0
0 0
0 0
0 0
0 0
0 0
0 0
0 0
0 0
0 0
0 0
0 0
0 0
0 0
0 0
0 0
0 0
0 0
0 0
0 0
0 0
0 0
0 0
0 0
0 0
0 0
0 0
0 0
0 0
0 0
0 0
0 0
0 0
0 0
0 0
0 0
0 0
0 0
0 0
0 0
0 0
0 0
0 0
0 0
0 0
0 0
0 0
0 0
0 0
0 0
0 0
0 0
0 0
0 0
0 0
0 0
0 0
0 0
0 0
0 0
0 0
0 0
0 0
0 0
0 0
0 0
0 0
0 0
0 0
0 0
0 0
0 0
0 0
0 0
0 0
0 0
0 0
0 0
0 0
0 0
0 0
0 0
0 0
0 0
0 0
0 0
0 0
0 0
0 0
0 0
0 0
0 0
0 0
0 0
0 0
0 0
0 0
0 0
0 0
0 0
0 0
0 0
0 0
0 0
0 0
0 0
0 0
0 0
0 0
0 0
0 0
0 0
0 0
0 0
0 0
0 0
0 0
0 0
0 0
0 0
0 0
0 0
0 0
0 0
0 0
0 0
0 0
0 0
0 0
0 0
0 0
0 0
0 0
0 0
0 0
0 0
0 0
0 0
0 0
0 0
0 0
0 0
0 0
0 0
0 0
0 0
0 0
0 0
0 0
0 0
0 0
0 0
0 0
0 0
0 0
0 0
0 0
0 0
0 0
0 0
0 0
0 0
0 0
0 0
0 0
0 0
0 0
0 0
0 0
0 0
0 0
0 0
0 0
0 0
0 0
0 0
0 0
0 0
0 0
0 0
0 0
0 0
0 0
0 0
0 0
0 0
0 0
0 0
0 0
0 0
0 0
0 0
0 0
0 0
0 0
0 0
0 0
0 0
0 0
0 0
0 0
0 0
0 0
0 0
0 0
0 0
0 0
0 0
0 0
0 0
0 0
0 0
0 0
0 0
0 0
0 0
0 0
0 0
0 0
0 0
0 0
0 0
0 0
0 0
0 0
0 0
0 0
0 0
0 0
0 0
0 0
0 0
0 0
0 0
0 0
0 0
0 0
0 0
0 0
0 0
0 0
0 0
0 0
0 0
0 0
0 0
0 0
0 0
0 0
0 0
0 0
0 0
0 0
0 0
0 0
0 0
0 0
0 0
0 0
0 0
0 0
0 0
0 0
0 0
0 0
0 0
0 0
0 0
0 0
0 0
0 0
0 0
0 0
0 0
0 0
0 0
0 0
0 0
0 0
0 0
0 0
0 0
0 0
0 0
0 0
0 0
0 0
0 0
0 0
0 0
0 0
0 0
0 0
0 0
0 0
0 0
0 0
0 0
0 0
0 0
0 0
0 0
0 0
0 0
0 0
0 0
0 0
0 0
0 0
0 0
0 0
0 0
0 0
0 0
0 0
0 0
0 0
0 0
0 0
0 0
0 0
0 0
0 0
0 0
0 0
0 0
0 0
0 0
0 0
0 0
0 0
0 0
0 0
0 0
0 0
0 0
0 0
0 0
0 0
0 0
0 0
0 0
0 0
0 0
0 0
0 0
0 0
0 0
0 0
0 0
0 0
0 0
0 0
0 0
0 0
0 0
0 0
0 0
0 0
0 0
0 0
0 0
0 0
0 0
0 0
0 0
0 0
0 0
0 0
0 0
0 0
0 0
0 0
0 0
0 0
0 0
0 0
0 0
0 0
0 0
0 0
0 0
0 0
0 0
0 0
0 0
0 0
0 0
0 0
0 0
0 0
0 0
0 0
0 0
0 0
0 0
0 0
0 0
0 0
0 0
0 0
0 0
0 0
0 0
0 0
0 0
0 0
0 0
0 0
0 0
0 0
0 0
0 0
0 0
0 0
0 0
0 0
0 0
0 0
0 0
0 0
0 0
0 0
0 0
0 0
0 0
0 0
0 0
0 0
0 0
0 0
0 0
0 0
0 0
0 0
0 0
0 0
0 0
0 0
0 0
0 0
0 0
0 0
0 0
0 0
0 0
0 0
0 0
0 0
0 0
0 0
0 0
0 0
0 0
0 0
0 0
0 0
0 0
0 0
0 0
0 0
0 0
0 0
0 0
0 0
0 0
0 0
0 0
0 0
0 0
0 0
0 0
0 0
0 0
0 0
0 0
0 0
0 0
0 0
0 0
0 0
0 0
0 0
0 0
0 0
0 0
0 0
0 0
0 0
0 0
0 0
0 0
0 0
0 0
0 0
0 0
0 0
0 0
0 0
0 0
0 0
0 0
0 0
0 0
0 0
0 0
0 0
0 0
0 0
0 0
0 0
0 0
0 0
0 0
0 0
0 0
0 0
0 0
0 0
0 0
0 0
0 0
0 0
0 0
0 0
0 0
0 0
0 0
0 0
0 0
0 0
0 0
0 0
0 0
0 0
0 0
0 0
0 0
0 0
0 0
0 0
0 0
0 0
0 0
0 0
0 0
0 0
0 0
0 0
0 0
0 0
0 0
0 0
0 0
0 0
0 0
0 0
0 0
0 0
0 0
0 0
0 0
0 0
0 0
0 0
0 0
0 0
0 0
0 0
0 0
0 0
0 0
0 0
0 0
0 0
0 0
0 0
0 0
0 0
0 0
0 0
0 0
0 0
0 0
0 0
0 0
0 0
0 0
0 0
0 0
0 0
0 0
0 0
0 0
0 0
0 0
0 0
0 0
0 0
0 0
0 0
0 0
0 0
0 0
0 0
0 0
0 0
0 0
0 0
0 0
0 0
0 0
0 0
0 0
0 0
0 0
0 0
0 0
0 0
0 0
0 0
0 0
0 0
0 0
0 0
0 0
0 0
0 0
0 0
0 0
0 0
0 0
0 0
0 0
0 0
0 0
0 0
0 0
0 0
0 0
0 0
0 0
0 0
0 0
0 0
0 0
0 0
0 0
0 0
0 0
0 0
0 0
0 0
0 0
0 0
0 0
0 0
0 0
0 0
0 0
0 0
0 0
0 0
0 0
0 0
0 0
0 0
0 0
0 0
0 0
0 0
0 0
0 0
0 0
0 0
0 0
0 0
0 0
0 0
0 0
0 0
0 0
0 0
0 0
0 0
0 0
0 0
0 0
0 0
0 0
0 0
0 0
0 0
0 0
0 0
0 0
0 0
0 0
0 0
0 0
0 0
0 0
0 0
0 0
0 0
0 0
0 0
0 0
0 0
0 0
0 0
0 0
0 0
0 0
0 0
0 0
0 0
0 0
0 0
0 0
0 0
0 0
0 0
0 0
0 0
0 0
0 0
0 0
0 0
0 0
0 0
0 0
0 0
0 0
0 0
0 0
0 0
0 0
0 0
0 0
0 0
0 0
0 0
0 0
0 0
0 0
0 0
0 0
0 0
0 0
0 0
0 0
0 0
0 0
0 0
0 0
0 0
0 0
0 0
0 0
0 0
0 0
0 0
0 0
0 0
0 0
0 0
0 0
0 0
0 0
0 0
0 0
0 0
0 0
0 0
0 0
0 0
0 0
0 0
0 0
0 0
0 0
0 0
0 0
0 0
0 0
0 0
0 0
0 0
0 0
0 0
0 0
0 0
0 0
0 0
0 0
0 0
0 0
0 0
0 0
0 0
0 0
0 0
0 0
0 0
0 0
0 0
0 0
0 0
0 0
0 0
0 0
0 0
0 0
0 0
0 0
0 0
0 0
0 0
0 0
0 0
0 0
0 0
0 0
0 0
0 0
0 0
0 0
0 0
0 0
0 0
0 0
0 0
0 0
0 0
0 0
0 0
0 0
0 0
0 0
0 0
0 0
0 0
0 0
0 0
0 0
0 0
0 0
0 0
0 0
0 0
0 0
0 0
0 0
0 0
0 0
0 0
0 0
0 0
0 0
0 0
0 0
0 0
0 0
0 0
0 0
0 0
0 0
0 0
0 0
0 0
0 0
0 0
0 0
0 0
0 0
0 0
0 0
0 0
0 0
0 0
0 0
0 0
0 0
0 0
0 0
0 0
0 0
0 0
0 0
0 0
0 0
0 0
0 0
0 0
0 0
0 0
0 0
0 0
0 0
0 0
0 0
0 0
0 0
0 0
0 0
0 0
0 0
0 0
0 0
0 0
0 0
0 0
0 0
0 0
0 0
0 0
0 0
0 0
0 0
0 0
0 0
0 0
0 0
0 0
0 0
0 0
0 0
0 0
0 0
0 0
0 0
0 0
0 0
0 0
0 0
0 0
0 0
0 0
0 0
0 0
0 0
0 0
0 0
0 0
0 0
0 0
0 0
0 0
0 0
0 0
0 0
0 0
0 0
0 0
0 0
0 0
0 0
0 0
0 0
0 0
0 0
0 0
0 0
0 0
0 0
0 0
0 0
0 0
0 0
0 0
0 0
0 0
0 0
0 0
0 0
0 0
0 0
0 0
0 0
0 0
0 0
0 0
0 0
0 0
0 0
0 0
0 0
0 0
0 0
0 0
0 0
0 0
0 0
0 0
0 0
0 0
0 0
0 0
0 0
0 0
0 0
0 0
0 0
0 0
0 0
0 0
0 0
0 0
0 0
0 0
0 0
0 0
0 0
0 0
0 0
0 0
0 0
0 0
0 0
0 0
0 0
0 0
0 0
0 0
0 0
0 0
0 0
0 0
0 0
0 0
0 0
0 0
0 0
0 0
0 0
0 0
0 0
0 0
0 0
0 0
0 0
0 0
0 0
0 0
0 0
0 0
0 0
0 0
0 0
0 0
0 0
0 0
0 0
0 0
0 0
0 0
0 0
0 0
0 0
0 0
0 0
0 0
0 0
0 0
0 0
0 0
0 0
0 0
0 0
0 0
0 0
0 0
0 0
0 0
0 0
0 0
0 0
0 0
0 0
0 0
0 0
0 0
0 0
0 0
0 0
0 0
0 0
0 0
0 0
0 0
0 0
0 0
0 0
0 0
0 0
0 0
0 0
0 0
0 0
0 0
0 0
0 0
0 0
0 0
0 0
0 0
0 0
0 0
0 0
0 0
0 0
0 0
0 0
0 0
0 0
0 0
0 0
0 0
0 0
0 0
0 0
0 0
0 0
0 0
0 0
0 0
0 0
0 0
0 0
0 0
0 0
0 0
0 0
0 0
0 0
0 0
0 0
0 0
0 0
0 0
0 0
0 0
0 0
0 0
0 0
0 0
0 0
0 0
0 0
0 0
0 0
0 0
0 0
0 0
0 0
0 0
0 0
0 0
0 0
0 0
0 0
0 0
0 0
0 0
0 0
0 0
0 0
0 0
0 0
0 0
0 0
0 0
0 0
0 0
0 0
0 0
0 0
0 0
0 0
0 0
0 0
0 0
0 0
0 0
0 0
0 0
0 0
0 0
0 0
0 0
0 0
0 0
0 0
0 0
0 0
0 0
0 0
0 0
0 0
0 0
0 0
0 0
0 0
0 0
0 0
0 0
0 0
0 0
0 0
0 0
0 0
0 0
0 0
0 0
0 0
0 0
0 0
0 0
0 0
0 0
0 0
0 0
0 0
0 0
0 0
0 0
0 0
0 0
0 0
0 0
0 0
0 0
0 0
0 0
0 0
0 0
0 0
0 0
0 0
0 0
0 0
0 0
0 0
0 0
0 0
0 0
0 0
0 0
0 0
0 0
0 0
0 0
0 0
0 0
0 0
0 0
0 0
0 0
0 0
0 0
0 0
0 0
0 0
0 0
0 0
0 0
0 0
0 0
0 0
0 0
0 0
0 0
0 0
0 0
0 0
0 0
0 0
0 0
0 0
0 0
0 0
0 0
0 0
0 0
0 0
0 0
0 0
0 0
0 0
0 0
0 0
0 0
0 0
0 0
0 0
0 0
0 0
0 0
0 0
0 0
0 0
0 0
0 0
0 0
0 0
0 0
0 0
0 0
0 0
0 0
0 0
0 0
0 0
0 0
0 0
0 0
0 0
0 0
0 0
0 0
0 0
0 0
0 0
0 0
0 0
0 0
0 0
0 0
0 0
0 0
0 0
0 0
0 0
0 0
0 0
0 0
0 0
0 0
0 0
0 0
0 0
0 0
0 0
0 0
0 0
0 0
0 0
0 0
0 0
0 0
0 0
0 0
0 0
0 0
0 0
0 0
0 0
0 0
0 0
0 0
0 0
0 0
0 0
0 0
0 0
0 0
0 0
0 0
0 0
0 0
0 0
0 0
0 0
0 0
0 0
0 0
0 0
0 0
0 0
0 0
0 0
0 0
0 0
0 0
0 0
0 0
0 0
0 0
0 0
0 0
0 0
0 0
0 0
0 0
0 0
0 0
0 0
0 0
0 0
0 0
0 0
0 0
0 0
0 0
0 0
0 0
0 0
0 0
0 0
0 0
0 0
0 0
0 0
0 0
0 0
0 0
0 0
0 0
0 0
0 0
0 0
0 0
0 0
0 0
0 0
0 0
0 0
0 0
0 0
0 0
0 0
0 0
0 0
0 0
0 0
0 0
0 0
0 0
0 0
0 0
0 0
0 0
0 0
0 0
0 0
0 0
0 0
0 0
0 0
0 0
0 0
0 0
0 0
0 0
0 0
0 0
0 0
0 0
0 0
0 0
0 0
0 0
0 0
0 0
0 0
0 0
0 0
0 0
0 0
0 0
0 0
0 0
0 0
0 0
0 0
0 0
0 0
0 0
0 0
0 0
0 0
0 0
0 0
0 0
0 0
0 0
0 0
0 0
0 0
0 0
0 0
0 0
0 0
0 0
0 0
0 0
0 0
0 0
0 0
0 0
0 0
0 0
0 0
0 0
0 0
0 0
0 0
0 0
0 0
0 0
0 0
0 0
0 0
0 0
0 0
0 0
0 0
0 0
0 0
0 0
0 0
0 0
0 0
0 0
0 0
0 0
0 0
0 0
0 0
0 0
0 0
0 0
0 0
0 0
0 0
0 0
0 0
0 0
0 0
0 0
0 0
0 0
0 0
0 0
0 0
0 0
0 0
0 0
0 0
0 0
0 0
0 0
0 0
0 0
0 0
0 0
0 0
0 0
0 0
0 0
0 0
0 0
0 0
0 0
0 0
0 0
0 0
0 0
0 0
0 0
0 0
0 0
0 0
0 0
0 0
0 0
0 0
0 0
0 0
0 0
0 0
0 0
0 0
0 0
0 0
0 0
0 0
0 0
0 0
0 0
0 0
0 0
0 0
0 0
0 0
0 0
0 0
0 0
0 0
0 0
0 0
0 0
0 0
0 0
0 0
0 0
0 0
0 0
0 0
0 0
0 0
0 0
0 0
0 0
0 0
0 0
0 0
0 0
0 0
0 0
0 0
0 0
0 0
0 0
0 0
0 0
0 0
0 0
0 0
0 0
0 0
0 0
0 0
0 0
0 0
0 0
0 0
0 0
0 0
0 0
0 0
0 0
0 0
0 0
0 0
0 0
0 0
0 0
0 0
0 0
0 0
0 0
0 0
0 0
0 0
0 0
0 0
0 0
0 0
0 0
0 0
0 0
0 0
0 0
0 0
0 0
0 0
0 0
0 0
0 0
0 0
0 0
0 0
0 0
0 0
0 0
0 0
0 0
0 0
0 0
0 0
0 0
0 0
0 0
0 0
0 0
0 0
0 0
0 0
0 0
0 0
0 0
0 0
0 0
0 0
0 0
0 0
0 0
0 0
0 0
0 0
0 0
0 0
0 0
0 0
0 0
0 0
0 0
0 0
0 0
0 0
0 0
0 0
0 0
0 0
0 0
0 0
0 0
0 0
0 0
0 0
0 0
0 0
0 0
0 0
0 0
0 0
0 0
0 0
0 0
0 0
0 0
0 0
0 0
0 0
0 0
0 0
0 0
0 0
0 0
0 0
0 0
0 0
0 0
0 0
0 0
0 0
0 0
0 0
0 0
0 0
0 0
0 0
0 0
0 0
0 0
0 0
0 0
0 0
0 0
0 0
0 0
0 0
0 0
0 0
0 0
0 0
0 0
0 0
0 0
0 0
0 0
0 0
0 0
0 0
0 0
0 0
0 0
0 0
0 0
0 0
0 0
0 0
0 0
0 0
0 0
0 0
0 0
0 0
0 0
0 0
0 0
0 0
0 0
0 0
0 0
0 0
0 0
0 0
0 0
0 0
0 0
0 0
0 0
0 0
0 0
0 0
0 0
0 0
0 0
0 0
0 0
0 0
0 0
0 0
0 0
0 0
0 0
0 0
0 0
0 0
0 0
0 0
0 0
0 0
0 0
0 0
0 0
0 0
0 0
0 0
0 0
0 0
0 0
0 0
0 0
0 0
0 0
0 0
0 0
0 0
0 0
0 0
0 0
0 0
0 0
0 0
0 0
0 0
0 0
0 0
0 0
0 0
0 0
0 0
0 0
0 0
0 0
0 0
0 0
0 0
0 0
0 0
0 0
0 0
0 0
0 0
0 0
0 0
0 0
0 0
0 0
0 0
0 0
0 0
0 0
0 0
0 0
0 0
0 0
0 0
0 0
0 0
0 0
0 0
0 0
0 0
0 0
0 0
0 0
0 0
0 0
0 0
0 0
0 0
0 0
0 0
0 0
0 0
0 0
0 0
0 0
0 0
0 0
0 0
0 0
0 0
0 0
0 0
0 0
0 0
0 0
0 0
0 0
0 0
0 0
0 0
0 0
0 0
0 0
0 0
0 0
0 0
0 0
0 0
0 0
0 0
0 0
0 0
0 0
0 0
0 0
0 0
0 0
0 0
0 0
0 0
0 0
0 0
0 0
0 0
0 0
0 0
0 0
0 0
0 0
0 0
0 0
0 0
0 0
0 0
0 0
0 0
0 0
0 0
0 0
0 0
0 0
0 0
0 0
0 0
0 0
0 0
0 0
0 0
0 0
0 0
0 0
0 0
0 0
0 0
0 0
0 0
0 0
0 0
0 0
0 0
0 0
0 0
0 0
0 0
0 0
0 0
0 0
0 0
0 0
0 0
0 0
0 0
0 0
0 0
0 0
0 0
0 0
0 0
0 0
0 0
0 0
0 0
0 0
0 0
0 0
0 0
0 0
0 0
0 0
0 0
0 0
0 0
0 0
0 0
0 0
0 0
0 0
0 0
0 0
0 0
0 0
0 0
0 0
0 0
0 0
0 0
0 0
0 0
0 0
0 0
0 0
0 0
0 0
0 0
0 0
0 0
0 0
0 0
0 0
0 0
0 0
0 0
0 0
0 0
0 0
0 0
0 0
0 0
0 0
0 0
0 0
0 0
0 0
0 0
0 0
0 0
0 0
0 0
0 0
0 0
0 0
0 0
0 0
0 0
0 0
0 0
0 0
0 0
0 0
0 0
0 0
0 0
0 0
0 0
0 0
0 0
0 0
0 0
0 0
0 0
0 0
0 0
0 0
0 0
0 0
0 0
0 0
0 0
0 0
0 0
0 0
0 0
0 0
0 0
0 0
0 0
0 0
0 0
0 0
0 0
0 0
0 0
0 0
0 0
0 0
0 0
0 0
0 0
0 0
0 0
0 0
0 0
0 0
0 0
0 0
0 0
0 0
0 0
0 0
0 0
0 0
0 0
0 0
0 0
0 0
0 0
0 0
0 0
0 0
0 0
0 0
0 0
0 0
0 0
0 0
0 0
0 0
0 0
0 0
0 0
0 0
0 0
0 0
0 0
0 0
0 0
0 0
0 0
0 0
0 0
0 0
0 0
0 0
0 0
0 0
0 0
0 0
0 0
0 0
0 0
0 0
0 0
0 0
0 0
0 0
0 0
0 0
0 0
0 0
0 0
0 0
0 0
0 0
0 0
0 0
0 0
0 0
0 0
0 0
0 0
0 0
0 0
0 0
0 0
0 0
0 0
0 0
0 0
0 0
0 0
0 0
0 0
0 0
0 0
0 0
0 0
0 0
0 0
0 0
0 0
0 0
0 0
0 0
0 0
0 0
0 0
0 0
0 0
0 0
0 0
0 0
0 0
0 0
0 0
0 0
0 0
0 0
0 0
0 0
0 0
0 0
0 0
0 0
0 0
0 0
0 0
0 0
0 0
0 0
0 0
0 0
0 0
0 0
0 0
0 0
0 0
0 0
0 0
0 0
0 0
0 0
0 0
0 0
0 0
0 0
0 0
0 0
0 0
0 0
0 0
0 0
0 0
0 0
0 0
0 0
0 0
0 0
0 0
0 0
0 0
0 0
0 0
0 0
0 0
0 0
0 0
0 0
0 0
0 0
0 0
0 0
0 0
0 0
0 0
0 0
0 0
0 0
0 0
0 0
0 0
0 0
0 0
0 0
0 0
0 0
0 0
0 0
0 0
0 0
0 0
0 0
0 0
0 0
0 0
0 0
0 0
0 0
0 0
0 0
0 0
0 0
0 0
0 0
0 0
0 0
0 0
0 0
0 0
0 0
0 0
0 0
0 0
0 0
0 0
0 0
0 0
0 0
0 0
0 0
0 0
0 0
0 0
0 0
0 0
0 0
0 0
0 0
0 0
0 0
0 0
0 0
0 0
0 0
0 0
0 0
0 0
0 0
0 0
0 0
0 0
0 0
0 0
0 0
0 0
0 0
0 0
0 0
0 0
0 0
0 0
0 0
0 0
0 0
0 0
0 0
0 0
0 0
0 0
0 0
0 0
0 0
0 0
0 0
0 0
0 0
0 0
0 0
0 0
0 0
0 0
0 0
0 0
0 0
0 0
0 0
0 0
0 0
0 0
0 0
0 0
0 0
0 0
0 0
0 0
0 0
0 0
0 0
0 0
0 0
0 0
0 0
0 0
0 0
0 0
0 0
0 0
0 0
0 0
0 0
0 0
0 0
0 0
0 0
0 0
0 0
0 0
0 0
0 0
0 0
0 0
0 0
0 0
0 0
0 0
0 0
0 0
0 0
0 0
0 0
0 0
0 0
0 0
0 0
0 0
0 0
0 0
0 0
0 0
0 0
0 0
0 0
0 0
0 0
0 0
0 0
0 0
0 0
0 0
0 0
0 0
0 0
0 0
0 0
0 0
0 0
0 0
0 0
0 0
0 0
0 0
0 0
0 0
0 0
0 0
0 0
0 0
0 0
0 0
0 0
0 0
0 0
0 0
0 0
0 0
0 0
0 0
0 0
0 0
0 0
0 0
0 0
0 0
0 0
0 0
0 0
0 0
0 0
0 0
0 0
0 0
0 0
0 0
0 0
0 0
0 0
0 0
0 0
0 0
0 0
0 0
0 0
0 0
0 0
0 0
0 0
0 0
0 0
0 0
0 0
0 0
0 0
0 0
0 0
0 0
0 0
0 0
0 0
0 0
0 0
0 0
0 0
0 0
0 0
0 0
0 0
0 0
0 0
0 0
0 0
0 0
0 0
0 0
0 0
0 0
0 0
0 0
0 0
0 0
0 0
0 0
0 0
0 0
0 0
0 0
0 0
0 0
0 0
0 0
0 0
0 0
0 0
0 0
0 0
0 0
0 0
0 0
0 0
0 0
0 0
0 0
0 0
0 0
0 0
0 0
0 0
0 0
0 0
0 0
0 0
0 0
0 0
0 0
0 0
0 0
0 0
0 0
0 0
0 0
0 0
0 0
0 0
0 0
0 0
0 0
0 0
0 0
0 0
0 0
0 0
0 0
0 0
0 0
0 0
0 0
0 0
0 0
0 0
0 0
0 0
0 0
0 0
0 0
0 0
0 0
0 0
0 0
0 0
0 0
0 0
0 0
0 0
0 0
0 0
0 0
0 0
0 0
0 0
0 0
0 0
0 0
0 0
0 0
0 0
0 0
0 0
0 0
0 0
0 0
0 0
0 0
0 0
0 0
0 0
0 0
0 0
0 0
0 0
0 0
0 0
0 0
0 0
0 0
0 0
0 0
0 0
0 0
0 0
0 0
0 0
0 0
0 0
0 0
0 0
0 0
0 0
0 0
0 0
0 0
0 0
0 0
0 0
0 0
0 0
0 0
0 0
0 0
0 0
0 0
0 0
0 0
0 0
0 0
0 0
0 0
0 0
0 0
0 0
0 0
0 0
0 0
0 0
0 0
0 0
0 0
0 0
0 0
0 0
0 0
0 0
0 0
0 0
0 0
0 0
0 0
0 0
0 0
0 0
0 0
0 0
0 0
0 0
0 0
0 0
0 0
0 0
0 0
0 0
0 0
0 0
0 0
0 0
0 0
0 0
0 0
0 0
0 0
0 0
0 0
0 0
0 0
0 0
0 0
0 0
0 0
0 0
0 0
0 0
0 0
0 0
0 0
0 0
0 0
0 0
0 0
0 0
0 0
0 0
0 0
0 0
0 0
0 0
0 0
0 0
0 0
0 0
0 0
0 0
0 0
0 0
0 0
0 0
0 0
0 0
0 0
0 0
0 0
0 0
0 0
0 0
0 0
0 0
0 0
0 0
0 0
0 0
0 0
0 0
0 0
0 0
0 0
0 0
0 0
0 0
0 0
0 0
0 0
0 0
0 0
0 0
0 0
0 0
0 0
0 0
0 0
0 0
0 0
0 0
0 0
0 0
0 0
0 0
0 0
0 0
0 0
0 0
0 0
0 0
0 0
0 0
0 0
0 0
0 0
0 0
0 0
0 0
0 0
0 0
0 0
0 0
0 0
0 0
0 0
0 0
0 0
0 0
0 0
0 0
0 0
0 0
0 0
0 0
0 0
0 0
0 0
0 0
0 0
0 0
0 0
0 0
0 0
0 0
0 0
0 0
0 0
0 0
0 0
0 0
0 0
0 0
0 0
0 0
0 0
0 0
0 0
0 0
0 0
0 0
0 0
0 0
0 0
0 0
0 0
0 0
0 0
0 0
0 0
0 0
0 0
0 0
0 0
0 0
0 0
0 0
0 0
0 0
0 0
0 0
0 0
0 0
0 0
0 0
0 0
0 0
0 0
0 0
0 0
0 0
0 0
0 0
0 0
0 0
0 0
0 0
0 0
0 0
0 0
0 0
0 0
0 0
0 0
0 0
0 0
0 0
0 0
0 0
0 0
0 0
0 0
0 0
0 0
0 0
0 0
0 0
0 0
0 0
0 0
0 0
0 0
0 0
0 0
0 0
0 0
0 0
0 0
0 0
0 0
0 0
0 0
0 0
0 0
0 0
0 0
0 0
0 0
0 0
0 0
0 0
0 0
0 0
0 0
0 0
0 0
0 0
0 0
0 0
0 0
0 0
0 0
0 0
0 0
0 0
0 0
0 0
0 0
0 0
0 0
0 0
0 0
0 0
0 0
0 0
0 0
0 0
0 0
0 0
0 0
0 0
0 0
0 0
0 0
0 0
0 0
0 0
0 0
0 0
0 0
0 0
0 0
0 0
0 0
0 0
0 0
0 0
0 0
0 0
0 0
0 0
0 0
0 0
0 0
0 0
0 0
0 0
0 0
0 0
0 0
0 0
0 0
0 0
0 0
0 0
0 0
0 0
0 0
0 0
0 0
0 0
0 0
0 0
0 0
0 0
0 0
0 0
0 0
0 0
0 0
0 0
0 0
0 0
0 0
0 0
0 0
0 0
0 0
0 0
0 0
0 0
0 0
0 0
0 0
0 0
0 0
0 0
0 0
0 0
0 0
0 0
0 0
0 0
0 0
0 0
0 0
0 0
0 0
0 0
0 0
0 0
0 0
0 0
0 0
0 0
0 0
0 0
0 0
0 0
0 0
0 0
0 0
0 0
0 0
0 0
0 0
0 0
0 0
0 0
0 0
0 0
0 0
0 0
0 0
0 0
0 0
0 0
0 0
0 0
0 0
0 0
0 0
0 0
0 0
0 0
0 0
0 0
0 0
0 0
0 0
0 0
0 0
0 0
0 0
0 0
0 0
0 0
0 0
0 0
0 0
0 0
0 0
0 0
0 0
0 0
0 0
0 0
0 0
0 0
0 0
0 0
0 0
0 0
0 0
0 0
0 0
0 0
0 0
0 0
0 0
0 0
0 0
0 0
0 0
0 0
0 0
0 0
0 0
0 0
0 0
0 0
0 0
0 0
0 0
0 0
0 0
0 0
0 0
0 0
0 0
0 0
0 0
0 0
0 0
0 0
0 0
0 0
0 0
0 0
0 0
0 0
0 0
0 0
0 0
0 0
0 0
0 0
0 0
0 0
0 0
0 0
0 0
0 0
0 0
0 0
0 0
0 0
0 0
0 0
0 0
0 0
0 0
0 0
0 0
0 0
0 0
0 0
0 0
0 0
0 0
0 0
0 0
0 0
0 0
0 0
0 0
0 0
0 0
0 0
0 0
0 0
0 0
0 0
0 0
0 0
0 0
0 0
0 0
0 0
0 0
0 0
0 0
0 0
0 0
0 0
0 0
0 0
0 0
0 0
0 0
0 0
0 0
0 0
0 0
0 0
0 0
0 0
0 0
0 0
0 0
0 0
0 0
0 0
0 0
0 0
0 0
0 0
0 0
0 0
0 0
0 0
0 0
0 0
0 0
0 0
0 0
0 0
0 0
0 0
0 0
0 0
0 0
0 0
0 0
0 0
0 0
0 0
0 0
0 0
0 0
0 0
0 0
0 0
0 0
0 0
0 0
0 0
0 0
0 0
0 0
0 0
0 0
0 0
0 0
0 0
0 0
0 0
0 0
0 0
0 0
0 0
0 0
0 0
0 0
0 0
0 0
0 0
0 0
0 0
0 0
0 0
0 0
0 0
0 0
0 0
0 0
0 0
0 0
0 0
0 0
0 0
0 0
0 0
0 0
0 0
0 0
0 0
0 0
0 0
0 0
0 0
0 0
0 0
0 0
0 0
0 0
0 0
0 0
0 0
0 0
0 0
0 0
0 0
0 0
0 0
0 0
0 0
0 0
0 0
0 0
0 0
0 0
0 0
0 0
0 0
0 0
0 0
0 0
0 0
0 0
0 0
0 0
0 0
0 0
0 0
0 0
0 0
0 0
0 0
0 0
0 0
0 0
0 0
0 0
0 0
0 0
0 0
0 0
0 0
0 0
0 0
0 0
0 0
0 0
0 0
0 0
0 0
0 0
0 0
0 0
0 0
0 0
0 0
0 0
0 0
0 0
0 0
0 0
0 0
0 0
0 0
0 0
0 0
0 0
0 0
0 0
0 0
0 0
0 0
0 0
0 0
0 0
0 0
0 0
0 0
0 0
0 0
0 0
0 0
0 0
0 0
0 0
0 0
0 0
0 0
0 0
0 0
0 0
0 0
0 0
0 0
0 0
0 0
0 0
0 0
0 0
0 0
0 0
0 0
0 0
0 0
0 0
0 0
0 0
0 0
0 0
0 0
0 0
0 0
0 0
0 0
0 0
0 0
0 0
0 0
0 0
0 0
0 0
0 0
0 0
0 0
0 0
0 0
0 0
0 0
0 0
0 0
0 0
0 0
0 0
0 0
0 0
0 0
0 0
0 0
0 0
0 0
0 0
0 0
0 0
0 0
0 0
0 0
0 0
0 0
0 0
0 0
0 0
0 0
0 0
0 0
0 0
0 0
0 0
0 0
0 0
0 0
0 0
0 0
0 0
0 0
0 0
0 0
0 0
0 0
0 0
0 0
0 0
0 0
0 0
0 0
0 0
0 0
0 0
0 0
0 0
0 0
0 0
0 0
0 0
0 0
0 0
0 0
0 0
0 0
0 0
0 0
0 0
0 0
0 0
0 0
0 0
0 0
0 0
0 0
0 0
0 0
0 0
0 0
0 0
0 0
0 0
0 0
0 0
0 0
0 0
0 0
0 0
0 0
0 0
0 0
0 0
0 0
0 0
0 0
0 0
0 0
0 0
0 0
0 0
0 0
0 0
0 0
0 0
0 0
0 0
0 0
0 0
0 0
0 0
0 0
0 0
0 0
0 0
0 0
0 0
0 0
0 0
0 0
0 0
0 0
0 0
0 0
0 0
0 0
0 0
0 0
0 0
0 0
0 0
0 0
0 0
0 0
0 0
0 0
0 0
0 0
0 0
0 0
0 0
0 0
0 0
0 0
0 0
0 0
0 0
0 0
0 0
0 0
0 0
0 0
0 0
0 0
0 0
0 0
0 0
0 0
0 0
0 0
0 0
0 0
0 0
0 0
0 0
0 0
0 0
0 0
0 0
0 0
0 0
0 0
0 0
0 0
0 0
0 0
0 0
0 0
0 0
0 0
0 0
0 0
0 0
0 0
0 0
0 0
0 0
0 0
0 0
0 0
0 0
0 0
0 0
0 0
0 0
0 0
0 0
0 0
0 0
0 0
0 0
0 0
0 0
0 0
0 0
0 0
0 0
0 0
0 0
0 0
0 0
0 0
0 0
0 0
0 0
0 0
0 0
0 0
0 0
0 0
0 0
0 0
0 0
0 0
0 0
0 0
0 0
0 0
0 0
0 0
0 0
0 0
0 0
0 0
0 0
0 0
0 0
0 0
0 0
0 0
0 0
0 0
0 0
0 0
0 0
0 0
0 0
0 0
0 0
0 0
0 0
0 0
0 0
0 0
0 0
0 0
0 0
0 0
0 0
0 0
0 0
0 0
0 0
0 0
0 0
0 0
0 0
0 0
0 0
0 0
0 0
0 0
0 0
0 0
0 0
0 0
0 0
0 0
0 0
0 0
0 0
0 0
0 0
0 0
0 0
0 0
0 0
0 0
0 0
0 0
0 0
0 0
0 0
0 0
0 0
0 0
0 0
0 0
0 0
0 0
0 0
0 0
0 0
0 0
0 0
0 0
0 0
0 0
0 0
0 0
0 0
0 0
0 0
0 0
0 0
0 0
0 0
0 0
0 0
0 0
0 0
0 0
0 0
0 0
0 0
0 0
0 0
0 0
0 0
0 0
0 0
0 0
0 0
0 0
0 0
0 0
0 0
0 0
0 0
0 0
0 0
0 0
0 0
0 0
0 0
0 0
0 0
0 0
0 0
0 0
0 0
0 0
0 0
0 0
0 0
0 0
0 0
0 0
0 0
0 0
0 0
0 0
0 0
0 0
0 0
0 0
0 0
0 0
0 0
0 0
0 0
0 0
0 0
0 0
0 0
0 0
0 0
0 0
0 0
0 0
0 0
0 0
0 0
0 0
0 0
0 0
0 0
0 0
0 0
0 0
0 0
0 0
0 0
0 0
0 0
0 0
0 0
0 0
0 0
0 0
0 0
0 0
0 0
0 0
0 0
0 0
0 0
0 0
0 0
0 0
0 0
0 0
0 0
0 0
0 0
0 0
0 0
0 0
0 0
0 0
0 0
0 0
0 0
0 0
0 0
0 0
0 0
0 0
0 0
0 0
0 0
0 0
0 0
0 0
0 0
0 0
0 0
0 0
0 0
0 0
0 0
0 0
0 0
0 0
0 0
0 0
0 0
0 0
0 0
0 0
0 0
0 0
0 0
0 0
0 0
0 0
0 0
0 0
0 0
0 0
0 0
0 0
0 0
0 0
0 0
0 0
0 0
0 0
0 0
0 0
0 0
0 0
0 0
0 0
0 0
0 0
0 0
0 0
0 0
0 0
0 0
0 0
0 0
0 0
0 0
0 0
0 0
0 0
0 0
0 0
0 0
0 0
0 0
0 0
0 0
0 0
0 0
0 0
0 0
0 0
0 0
0 0
0 0
0 0
0 0
0 0
0 0
0 0
0 0
0 0
0 0
0 0
0 0
0 0
0 0
0 0
0 0
0 0
0 0
0 0
0 0
0 0
0 0
0 0
0 0
0 0
0 0
0 0
0 0
0 0
0 0
0 0
0 0
0 0
0 0
0 0
0 0
0 0
0 0
0 0
0 0
0 0
0 0
0 0
0 0
0 0
0 0
0 0
0 0
0 0
0 0
0 0
0 0
0 0
0 0
0 0
0 0
0 0
0 0
0 0
0 0
0 0
0 0
0 0
0 0
0 0
0 0
0 0
0 0
0 0
0 0
0 0
0 0
0 0
0 0
0 0
0 0
0 0
0 0
0 0
0 0
0 0
0 0
0 0
0 0
0 0
0 0
0 0
0 0
0 0
0 0
0 0
0 0
0 0
0 0
0 0
0 0
0 0
0 0
0 0
0 0
0 0
0 0
0 0
0 0
0 0
0 0
0 0
0 0
0 0
0 0
0 0
0 0
0 0
0 0
0 0
0 0
0 0
0 0
0 0
0 0
0 0
0 0
0 0
0 0
0 0
0 0
0 0
0 0
0 0
0 0
0 0
0 0
0 0
0 0
0 0
0 0
0 0
0 0
0 0
0 0
0 0
0 0
0 0
0 0
0 0
0 0
0 0
0 0
0 0
0 0
0 0
0 0
0 0
0 0
0 0
0 0
0 0
0 0
0 0
0 0
0 0
0 0
0 0
0 0
0 0
0 0
0 0
0 0
0 0
0 0
0 0
0 0
0 0
0 0
0 0
0 0
0 0
0 0
0 0
0 0
0 0
0 0
0 0
0 0
0 0
0 0
0 0
0 0
0 0
0 0
0 0
0 0
0 0
0 0
0 0
0 0
0 0
0 0
0 0
0 0
0 0
0 0
0 0
0 0
0 0
0 0
0 0
0 0
0 0
0 0
0 0
0 0
0 0
0 0
0 0
0 0
0 0
0 0
0 0
0 0
0 0
0 0
0 0
0 0
0 0
0 0
0 0
0 0
0 0
0 0
0 0
0 0
0 0
0 0
0 0
0 0
0 0
0 0
0 0
0 0
0 0
0 0
0 0
0 0
0 0
0 0
0 0
0 0
0 0
0 0
0 0
0 0
0 0
0 0
0 0
0 0
0 0
0 0
0 0
0 0
0 0
0 0
0 0
0 0
0 0
0 0
0 0
0 0
0 0
0 0
0 0
0 0
0 0
0 0
0 0
0 0
0 0
0 0
0 0
0 0
0 0
0 0
0 0
0 0
0 0
0 0
0 0
0 0
0 0
0 0
0 0
0 0
0 0
0 0
0 0
0 0
0 0
0 0
0 0
0 0
0 0
0 0
0 0
0 0
0 0
0 0
0 0
0 0
0 0
0 0
0 0
0 0
0 0
0 0
0 0
0 0
0 0
0 0
0 0
0 0
0 0
0 0
0 0
0 0
0 0
0 0
0 0
0 0
0 0
0 0
0 0
0 0
0 0
0 0
0 0
0 0
0 0
0 0
0 0
0 0
0 0
0 0
0 0
0 0
0 0
0 0
0 0
0 0
0 0
0 0
0 0
0 0
0 0
0 0
0 0
0 0
0 0
0 0
0 0
0 0
0 0
0 0
0 0
0 0
0 0
0 0
0 0
0 0
0 0
0 0
0 0
0 0
0 0
0 0
0 0
0 0
0 0
0 0
0 0
0 0
0 0
0 0
0 0
0 0
0 0
0 0
0 0
0 0
0 0
0 0
0 0
0 0
0 0
0 0
0 0
0 0
0 0
0 0
0 0
0 0
0 0
0 0
0 0
0 0
0 0
0 0
0 0
0 0
0 0
0 0
0 0
0 0
0 0
0 0
0 0
0 0
0 0
0 0
0 0
0 0
0 0
0 0
0 0
0 0
0 0
0 0
0 0
0 0
0 0
0 0
0 0
0 0
0 0
0 0
0 0
0 0
0 0
0 0
0 0
0 0
0 0
0 0
0 0
0 0
0 0
0 0
0 0
0 0
0 0
0 0
0 0
0 0
0 0
0 0
0 0
0 0
0 0
0 0
0 0
0 0
0 0
0 0
0 0
0 0
0 0
0 0
0 0
0 0
0 0
0 0
0 0
0 0
0 0
0 0
0 0
0 0
0 0
0 0
0 0
0 0
0 0
0 0
0 0
0 0
0 0
0 0
0 0
0 0
0 0
0 0
0 0
0 0
0 0
0 0
0 0
0 0
0 0
0 0
0 0
0 0
0 0
0 0
0 0
0 0
0 0
0 0
0 0
0 0
0 0
0 0
0 0
0 0
0 0
0 0
0 0
0 0
0 0
0 0
0 0
0 0
0 0
0 0
0 0
0 0
0 0
0 0
0 0
0 0
0 0
0 0
0 0
0 0
0 0
0 0
0 0
0 0
0 0
0 0
0 0
0 0
0 0
0 0
0 0
0 0
0 0
0 0
0 0
0 0
0 0
0 0
0 0
0 0
0 0
0 0
0 0
0 0
0 0
0 0
0 0
0 0
0 0
0 0
0 0
0 0
0 0
0 0
0 0
0 0
0 0
0 0
0 0
0 0
0 0
0 0
0 0
0 0
0 0
0 0
0 0
0 0
0 0
0 0
0 0
0 0
0 0
0 0
0 0
0 0
0 0
0 0
0 0
0 0
0 0
0 0
0 0
0 0
0 0
0 0
0 0
0 0
0 0
0 0
0 0
0 0
0 0
0 0
0 0
0 0
0 0
0 0
0 0
0 0
0 0
0 0
0 0
0 0
0 0
0 0
0 0
0 0
0 0
0 0
0 0
0 0
0 0
0 0
0 0
0 0
0 0
0 0
0 0
0 0
0 0
0 0
0 0
0 0
0 0
0 0
0 0
0 0
0 0
0 0
0 0
0 0
0 0
0 0
0 0
0 0
0 0
0 0
0 0
0 0
0 0
0 0
0 0
0 0
0 0
0 0
0 0
0 0
0 0
0 0
0 0
0 0
0 0
0 0
0 0
0 0
0 0
0 0
0 0
0 0
0 0
0 0
0 0
0 0
0 0
0 0
0 0
0 0
0 0
0 0
0 0
0 0
0 0
0 0
0 0
0 0
0 0
0 0
0 0
0 0
0 0
0 0
0 0
0 0
0 0
0 0
0 0
0 0
0 0
0 0
0 0
0 0
0 0
0 0
0 0
0 0
0 0
0 0
0 0
0 0
0 0
0 0
0 0
0 0
0 0
0 0
0 0
0 0
0 0
0 0
0 0
0 0
0 0
0 0
0 0
0 0
0 0
0 0
0 0
0 0
0 0
0 0
0 0
0 0
0 0
0 0
0 0
0 0
0 0
0 0
0 0
0 0
0 0
0 0
0 0
0 0
0 0
0 0
0 0
0 0
0 0
0 0
0 0
0 0
0 0
0 0
0 0
0 0
0 0
0 0
0 0
0 0
0 0
0 0
0 0
0 0
0 0
0 0
0 0
0 0
0 0
0 0
0 0
0 0
0 0
0 0
0 0
0 0
0 0
0 0
0 0
0 0
0 0
0 0
0 0
0 0
0 0
0 0
0 0
0 0
0 0
0 0
0 0
0 0
0 0
0 0
0 0
0 0
0 0
0 0
0 0
0 0
0 0
0 0
0 0
0 0
0 0
0 0
0 0
0 0
0 0
0 0
0 0
0 0
0 0
0 0
0 0
0 0
0 0
0 0
0 0
0 0
0 0
0 0
0 0
0 0
0 0
0 0
0 0
0 0
0 0
0 0
0 0
0 0
0 0
0 0
0 0
0 0
0 0
0 0
0 0
0 0
0 0
0 0
0 0
0 0
0 0
0 0
0 0
0 0
0 0
0 0
0 0
0 0
0 0
0 0
0 0
0 0
0 0
0 0
0 0
0 0
0 0
0 0
0 0
0 0
0 0
0 0
0 0
0 0
0 0
0 0
0 0
0 0
0 0
0 0
0 0
0 0
0 0
0 0
0 0
0 0
0 0
0 0
0 0
0 0
0 0
0 0
0 0
0 0
0 0
0 0
0 0
0 0
0 0
0 0
0 0
0 0
0 0
0 0
0 0
0 0
0 0
0 0
0 0
0 0
0 0
0 0
0 0
0 0
0 0
0 0
0 0
0 0
0 0
0 0
0 0
0 0
0 0
0 0
0 0
0 0
0 0
0 0
0 0
0 0
0 0
0 0
0 0
0 0
0 0
0 0
0 0
0 0
0 0
0 0
0 0
0 0
0 0
0 0
0 0
0 0
0 0
0 0
0 0
0 0
0 0
0 0
0 0
0 0
0 0
0 0
0 0
0 0
0 0
0 0
0 0
0 0
0 0
0 0
0 0
0 0
0 0
0 0
0 0
0 0
0 0
0 0
0 0
0 0
0 0
0 0
0 0
0 0
0 0
0 0
0 0
0 0
0 0
0 0
0 0
0 0
0 0
0 0
0 0
0 0
0 0
0 0
0 0
0 0
0 0
0 0
0 0
0 0
0 0
0 0
0 0
0 0
0 0
0 0
0 0
0 0
0 0
0 0
0 0
0 0
0 0
0 0
0 0
0 0
0 0
0 0
0 0
0 0
0 0
0 0
0 0
0 0
0 0
0 0
0 0
0 0
0 0
0 0
0 0
0 0
0 0
0 0
0 0
0 0
0 0
0 0
0 0
0 0
0 0
0 0
0 0
0 0
0 0
0 0
0 0
0 0
0 0
0 0
0 0
0 0
0 0
0 0
0 0
0 0
0 0
0 0
0 0
0 0
0 0
0 0
0 0
0 0
0 0
0 0
0 0
0 0
0 0
0 0
0 0
0 0
0 0
0 0
0 0
0 0
0 0
0 0
0 0
0 0
0 0
0 0
0 0
0 0
0 0
0 0
0 0
0 0
0 0
0 0
0 0
0 0
0 0
0 0
0 0
0 0
0 0
0 0
0 0
0 0
0 0
0 0
0 0
0 0
0 0
0 0
0 0
0 0
0 0
0 0
0 0
0 0
0 0
0 0
0 0
0 0
0 0
0 0
0 0
0 0
0 0
0 0
0 0
0 0
0 0
0 0
0 0
0 0
0 0
0 0
0 0
0 0
0 0
0 0
0 0
0 0
0 0
0 0
0 0
0 0
0 0
0 0
0 0
0 0
0 0
0 0
0 0
0 0
0 0
0 0
0 0
0 0
0 0
0 0
0 0
0 0
0 0
0 0
0 0
0 0
0 0
0 0
0 0
0 0
0 0
0 0
0 0
0 0
0 0
0 0
0 0
0 0
0 0
0 0
0 0
0 0
0 0
0 0
0 0
0 0
0 0
0 0
0 0
0 0
0 0
0 0
0 0
0 0
0 0
0 0
0 0
0 0
0 0
0 0
0 0
0 0
0 0
0 0
0 0
0 0
0 0
0 0
0 0
0 0
0 0
0 0
0 0
0 0
0 0
0 0
0 0
0 0
0 0
0 0
0 0
0 0
0 0
0 0
0 0
0 0
0 0
0 0
0 0
0 0
0 0
0 0
0 0
0 0
0 0
0 0
0 0
0 0
0 0
0 0
0 0
0 0
0 0
0 0
0 0
0 0
0 0
0 0
0 0
0 0
0 0
0 0
0 0
0 0
0 0
0 0
0 0
0 0
0 0
0 0
0 0
0 0
0 0
0 0
0 0
0 0
0 0
0 0
0 0
0 0
0 0
0 0
0 0
0 0
0 0
0 0
0 0
0 0
0 0
0 0
0 0
0 0
0 0
0 0
0 0
0 0
0 0
0 0
0 0
0 0
0 0
0 0
0 0
0 0
0 0
0 0
0 0
0 0
0 0
0 0
0 0
0 0
0 0
0 0
0 0
0 0
0 0
0 0
0 0
0 0
0 0
0 0
0 0
0 0
0 0
0 0
0 0
0 0
0 0
0 0
0 0
0 0
0 0
0 0
0 0
0 0
0 0
0 0
0 0
0 0
0 0
0 0
0 0
0 0
0 0
0 0
0 0
0 0
0 0
0 0
0 0
0 0
0 0
0 0
0 0
0 0
0 0
0 0
0 0
0 0
0 0
0 0
0 0
0 0
0 0
0 0
0 0
0 0
0 0
0 0
0 0
0 0
0 0
0 0
0 0
0 0
0 0
0 0
0 0
0 0
0 0
0 0
0 0
0 0
0 0
0 0
0 0
0 0
0 0
0 0
0 0
0 0
0 0
0 0
0 0
0 0
0 0
0 0
0 0
0 0
0 0
0 0
0 0
0 0
0 0
0 0
0 0
0 0
0 0
0 0
0 0
0 0
0 0
0 0
0 0
0 0
0 0
0 0
0 0
0 0
0 0
0 0
0 0
0 0
0 0
0 0
0 0
0 0
0 0
0 0
0 0
0 0
0 0
0 0
0 0
0 0
0 0
0 0
0 0
0 0
0 0
0 0
0 0
0 0
0 0
0 0
0 0
0 0
0 0
0 0
0 0
0 0
0 0
0 0
0 0
0 0
0 0
0 0
0 0
0 0
0 0
0 0
0 0
0 0
0 0
0 0
0 0
0 0
0 0
0 0
0 0
0 0
0 0
0 0
0 0
0 0
0 0
0 0
0 0
0 0
0 0
0 0
0 0
0 0
0 0
0 0
0 0
0 0
0 0
0 0
0 0
0 0
0 0
0 0
0 0
0 0
0 0
0 0
0 0
0 0
0 0
0 0
0 0
0 0
0 0
0 0
0 0
0 0
0 0
0 0
0 0
0 0
0 0
0 0
0 0
0 0
0 0
0 0
0 0
0 0
0 0
0 0
0 0
0 0
0 0
0 0
0 0
0 0
0 0
0 0
0 0
0 0
0 0
0 0
0 0
0 0
0 0
0 0
0 0
0 0
0 0
0 0
0 0
0 0
0 0
0 0
0 0
0 0
0 0
0 0
0 0
0 0
0 0
0 0
0 0
0 0
0 0
0 0
0 0
0 0
0 0
0 0
0 0
0 0
0 0
0 0
0 0
0 0
0 0
0 0
0 0
0 0
0 0
0 0
0 0
0 0
0 0
0 0
0 0
0 0
0 0
0 0
0 0
0 0
0 0
0 0
0 0
0 0
0 0
0 0
0 0
0 0
0 0
0 0
0 0
0 0
0 0
0 0
0 0
0 0
0 0
0 0
0 0
0 0
0 0
0 0
0 0
0 0
0 0
0 0
0 0
0 0
0 0
0 0
0 0
0 0
0 0
0 0
0 0
0 0
0 0
0 0
0 0
0 0
0 0
0 0
0 0
0 0
0 0
0 0
0 0
0 0
0 0
0 0
0 0
0 0
0 0
0 0
0 0
0 0
0 0
0 0
0 0
0 0
0 0
0 0
0 0
0 0
0 0
0 0
0 0
0 0
0 0
0 0
0 0
0 0
0 0
0 0
0 0
0 0
0 0
0 0
0 0
0 0
0 0
0 0
0 0
0 0
0 0
0 0
0 0
0 0
0 0
0 0
0 0
0 0
0 0
0 0
0 0
0 0
0 0
0 0
0 0
0 0
0 0
0 0
0 0
0 0
0 0
0 0
0 0
0 0
0 0
0 0
0 0
0 0
0 0
0 0
0 0
0 0
0 0
0 0
0 0
0 0
0 0
0 0
0 0
0 0
0 0
0 0
0 0
0 0
0 0
0 0
0 0
0 0
0 0
0 0
0 0
0 0
0 0
0 0
0 0
0 0
0 0
0 0
0 0
0 0
0 0
0 0
0 0
0 0
0 0
0 0
0 0
0 0
0 0
0 0
0 0
0 0
0 0
0 0
0 0
0 0
0 0
0 0
0 0
0 0
0 0
0 0
0 0
0 0
0 0
0 0
0 0
0 0
0 0
0 0
0 0
0 0
0 0
0 0
0 0
0 0
0 0
0 0
0 0
0 0
0 0
0 0
0 0
0 0
0 0
0 0
0 0
0 0
0 0
0 0
0 0
0 0
0 0
0 0
0 0
0 0
0 0
0 0
0 0
0 0
0 0
0 0
0 0
0 0
0 0
0 0
0 0
0 0
0 0
0 0
0 0
0 0
0 0
0 0
0 0
0 0
0 0
0 0
0 0
0 0
0 0
0 0
0 0
0 0
0 0
0 0
0 0
0 0
0 0
0 0
0 0
0 0
0 0
0 0
0 0
0 0
0 0
0 0
0 0
0 0
0 0
0 0
0 0
0 0
0 0
0 0
0 0
0 0
0 0
0 0
0 0
0 0
0 0
0 0
0 0
0 0
0 0
0 0
0 0
0 0
0 0
0 0
0 0
0 0
0 0
0 0
0 0
0 0
0 0
0 0
0 0
0 0
0 0
0 0
0 0
0 0
0 0
0 0
0 0
0 0
0 0
0 0
0 0
0 0
0 0
0 0
0 0
0 0
0 0
0 0
0 0
0 0
0 0
0 0
0 0
0 0
0 0
0 0
0 0
0 0
0 0
0 0
0 0
0 0
0 0
0 0
0 0
0 0
0 0
0 0
0 0
0 0
0 0
0 0
0 0
0 0
0 0
0 0
0 0
0 0
0 0
0 0
0 0
0 0
0 0
0 0
0 0
0 0
0 0
0 0
0 0
0 0
0 0
0 0
0 0
0 0
0 0
0 0
0 0
0 0
0 0
0 0
0 0
0 0
0 0
0 0
0 0
0 0
0 0
0 0
0 0
0 0
0 0
0 0
0 0
0 0
0 0
0 0
0 0
0 0
0 0
0 0
0 0
0 0
0 0
0 0
0 0
0 0
0 0
0 0
0 0
0 0
0 0
0 0
0 0
0 0
0 0
0 0
0 0
0 0
0 0
0 0
0 0
0 0
0 0
0 0
0 0
0 0
0 0
0 0
0 0
0 0
0 0
0 0
0 0
0 0
0 0
0 0
0 0
0 0
0 0
0 0
0 0
0 0
0 0
0 0
0 0
0 0
0 0
0 0
0 0
0 0
0 0
0 0
0 0
0 0
0 0
0 0
0 0
0 0
0 0
0 0
0 0
0 0
0 0
0 0
0 0
0 0
0 0
0 0
0 0
0 0
0 0
0 0
0 0
0 0
0 0
0 0
0 0
0 0
0 0
0 0
0 0
0 0
0 0
0 0
0 0
0 0
0 0
0 0
0 0
0 0
0 0
0 0
0 0
0 0
0 0
0 0
0 0
0 0
0 0
0 0
0 0
0 0
0 0
0 0
0 0
0 0
0 0
0 0
0 0
0 0
0 0
0 0
0 0
0 0
0 0
0 0
0 0
0 0
0 0
0 0
0 0
0 0
0 0
0 0
0 0
0 0
0 0
0 0
0 0
0 0
0 0
0 0
0 0
0 0
0 0
0 0
0 0
0 0
0 0
0 0
0 0
0 0
0 0
0 0
0 0
0 0
0 0
0 0
0 0
0 0
0 0
0 0
0 0
0 0
0 0
0 0
0 0
0 0
0 0
0 0
0 0
0 0
0 0
0 0
0 0
0 0
0 0
0 0
0 0
0 0
0 0
0 0
0 0
0 0
0 0
0 0
0 0
0 0
0 0
0 0
0 0
0 0
0 0
0 0
0 0
0 0
0 0
0 0
0 0
0 0
0 0
0 0
0 0
0 0
0 0
0 0
0 0
0 0
0 0
0 0
0 0
0 0
0 0
0 0
0 0
0 0
0 0
0 0
0 0
0 0
0 0
0 0
0 0
0 0
0 0
0 0
0 0
0 0
0 0
0 0
0 0
0 0
0 0
0 0
0 0
0 0
0 0
0 0
0 0
0 0
0 0
0 0
0 0
0 0
0 0
0 0
0 0
0 0
0 0
0 0
0 0
0 0
0 0
0 0
0 0
0 0
0 0
0 0
0 0
0 0
0 0
0 0
0 0
0 0
0 0
0 0
0 0
0 0
0 0
0 0
0 0
0 0
0 0
0 0
0 0
0 0
0 0
0 0
0 0
0 0
0 0
0 0
0 0
0 0
0 0
0 0
0 0
0 0
0 0
0 0
0 0
0 0
0 0
0 0
0 0
0 0
0 0
0 0
0 0
0 0
0 0
0 0
0 0
0 0
0 0
0 0
0 0
0 0
0 0
0 0
0 0
0 0
0 0
0 0
0 0
0 0
0 0
0 0
0 0
0 0
0 0
0 0
0 0
0 0
0 0
0 0
0 0
0 0
0 0
0 0
0 0
0 0
0 0
0 0
0 0
0 0
0 0
0 0
0 0
0 0
0 0
0 0
0 0
0 0
0 0
0 0
0 0
0 0
0 0
0 0
0 0
0 0
0 0
0 0
0 0
0 0
0 0
0 0
0 0
0 0
0 0
0 0
0 0
0 0
0 0
0 0
0 0
0 0
0 0
0 0
0 0
0 0
0 0
0 0
0 0
0 0
0 0
0 0
0 0
0 0
0 0
0 0
0 0
0 0
0 0
0 0
0 0
0 0
0 0
0 0
0 0
0 0
0 0
0 0
0 0
0 0
0 0
0 0
0 0
0 0
0 0
0 0
0 0
0 0
0 0
0 0
0 0
0 0
0 0
0 0
0 0
0 0
0 0
0 0
0 0
0 0
0 0
0 0
0 0
0 0
0 0
0 0
0 0
0 0
0 0
0 0
0 0
0 0
0 0
0 0
0 0
0 0
0 0
0 0
0 0
0 0
0 0
0 0
0 0
0 0
0 0
0 0
0 0
0 0
0 0
0 0
0 0
0 0
0 0
0 0
0 0
0 0
0 0
0 0
0 0
0 0
0 0
0 0
0 0
0 0
0 0
0 0
0 0
0 0
0 0
0 0
0 0
0 0
0 0
0 0
0 0
0 0
0 0
0 0
0 0
0 0
0 0
0 0
0 0
0 0
0 0
0 0
0 0
0 0
0 0
0 0
0 0
0 0
0 0
0 0
0 0
0 0
0 0
0 0
0 0
0 0
0 0
0 0
0 0
0 0
0 0
0 0
0 0
0 0
0 0
0 0
0 0
0 0
0 0
0 0
0 0
0 0
0 0
0 0
0 0
0 0
0 0
0 0
0 0
0 0
0 0
0 0
0 0
0 0
0 0
0 0
0 0
0 0
0 0
0 0
0 0
0 0
0 0
0 0
0 0
0 0
0 0
0 0
0 0
0 0
0 0
0 0
0 0
0 0
0 0
0 0
0 0
0 0
0 0
0 0
0 0
0 0
0 0
0 0
0 0
0 0
0 0
0 0
0 0
0 0
0 0
0 0
0 0
0 0
0 0
0 0
0 0
0 0
0 0
0 0
0 0
0 0
0 0
0 0
0 0
0 0
0 0
0 0
0 0
0 0
0 0
0 0
0 0
0 0
0 0
0 0
0 0
0 0
0 0
0 0
0 0
0 0
0 0
0 0
0 0
0 0
0 0
0 0
0 0
0 0
0 0
0 0
0 0
0 0
0 0
0 0
0 0
0 0
0 0
0 0
0 0
0 0
0 0
0 0
0 0
0 0
0 0
0 0
0 0
0 0
0 0
0 0
0 0
0 0
0 0
0 0
0 0
0 0
0 0
0 0
0 0
0 0
0 0
0 0
0 0
0 0
0 0
0 0
0 0
0 0
0 0
0 0
0 0
0 0
0 0
0 0
0 0
0 0
0 0
0 0
0 0
0 0
0 0
0 0
0 0
0 0
0 0
0 0
0 0
0 0
0 0
0 0
0 0
0 0
0 0
0 0
0 0
0 0
0 0
0 0
0 0
0 0
0 0
0 0
0 0
0 0
0 0
0 0
0 0
0 0
0 0
0 0
0 0
0 0
0 0
0 0
0 0
0 0
0 0
0 0
0 0
0 0
0 0
0 0
0 0
0 0
0 0
0 0
0 0
0 0
0 0
0 0
0 0
0 0
0 0
0 0
0 0
0 0
0 0
0 0
0 0
0 0
0 0
0 0
0 0
0 0
0 0
0 0
0 0
0 0
0 0
0 0
0 0
0 0
0 0
0 0
0 0
0 0
0 0
0 0
0 0
0 0
0 0
0 0
0 0
0 0
0 0
0 0
0 0
0 0
0 0
0 0
0 0
0 0
0 0
0 0
0 0
0 0
0 0
0 0
0 0
0 0
0 0
0 0
0 0
0 0
0 0
0 0
0 0
0 0
0 0
0 0
0 0
0 0
0 0
0 0
0 0
0 0
0 0
0 0
0 0
0 0
0 0
0 0
0 0
0 0
0 0
0 0
0 0
0 0
0 0
0 0
0 0
0 0
0 0
0 0
0 0
0 0
0 0
0 0
0 0
0 0
0 0
0 0
0 0
0 0
0 0
0 0
0 0
0 0
0 0
0 0
0 0
0 0
0 0
0 0
0 0
0 0
0 0
0 0
0 0
0 0
0 0
0 0
0 0
0 0
0 0
0 0
0 0
0 0
0 0
0 0
0 0
0 0
0 0
0 0
0 0
0 0
0 0
0 0
0 0
0 0
0 0
0 0
0 0
0 0
0 0
0 0
0 0
0 0
0 0
0 0
0 0
0 0
0 0
0 0
0 0
0 0
0 0
0 0
0 0
0 0
0 0
0 0
0 0
0 0
0 0
0 0
0 0
0 0
0 0
0 0
0 0
0 0
0 0
0 0
0 0
0 0
0 0
0 0
0 0
0 0
0 0
0 0
0 0
0 0
0 0
0 0
0 0
0 0
0 0
0 0
0 0
0 0
0 0
0 0
0 0
0 0
0 0
0 0
0 0
0 0
0 0
0 0
0 0
0 0
0 0
0 0
0 0
0 0
0 0
0 0
0 0
0 0
0 0
0 0
0 0
0 0
0 0
0 0
0 0
0 0
0 0
0 0
0 0
0 0
0 0
0 0
0 0
0 0
0 0
0 0
0 0
0 0
0 0
0 0
0 0
0 0
0 0
0 0
0 0
0 0
0 0
0 0
0 0
0 0
0 0
0 0
0 0
0 0
0 0
0 0
0 0
0 0
0 0
0 0
0 0
0 0
0 0
0 0
0 0
0 0
0 0
0 0
0 0
0 0
0 0
0 0
0 0
0 0
0 0
0 0
0 0
0 0
0 0
0 0
0 0
0 0
0 0
0 0
0 0
0 0
0 0
0 0
0 0
0 0
0 0
0 0
0 0
0 0
0 0
0 0
0 0
0 0
0 0
0 0
0 0
0 0
0 0
0 0
0 0
0 0
0 0
0 0
0 0
0 0
0 0
0 0
0 0
0 0
0 0
0 0
0 0
0 0
0 0
0 0
0 0
0 0
0 0
0 0
0 0
0 0
0 0
0 0
0 0
0 0
0 0
0 0
0 0
0 0
0 0
0 0
0 0
0 0
0 0
0 0
0 0
0 0
0 0
0 0
0 0
0 0
0 0
0 0
0 0
0 0
0 0
0 0
0 0
0 0
0 0
0 0
0 0
0 0
0 0
0 0
0 0
0 0
0 0
0 0
0 0
0 0
0 0
0 0
0 0
0 0
0 0
0 0
0 0
0 0
0 0
0 0
0 0
0 0
0 0
0 0
0 0
0 0
0 0
0 0
0 0
0 0
0 0
0 0
0 0
0 0
0 0
0 0
0 0
0 0
0 0
0 0
0 0
0 0
0 0
0 0
0 0
0 0
0 0
0 0
0 0
0 0
0 0
0 0
0 0
0 0
0 0
0 0
0 0
0 0
0 0
0 0
0 0
0 0
0 0
0 0
0 0
0 0
0 0
0 0
0 0
0 0
0 0
0 0
0 0
0 0
0 0
0 0
0 0
0 0
0 0
0 0
0 0
0 0
0 0
0 0
0 0
0 0
0 0
0 0
0 0
0 0
0 0
0 0
0 0
0 0
0 0
0 0
0 0
0 0
0 0
0 0
0 0
0 0
0 0
0 0
0 0
0 0
0 0
0 0
0 0
0 0
0 0
0 0
0 0
0 0
0 0
0 0
0 0
0 0
0 0
0 0
0 0
0 0
0 0
0 0
0 0
0 0
0 0
0 0
0 0
0 0
0 0
0 0
0 0
0 0
0 0
0 0
0 0
0 0
0 0
0 0
0 0
0 0
0 0
0 0
0 0
0 0
0 0
0 0
0 0
0 0
0 0
0 0
0 0
0 0
0 0
0 0
0 0
0 0
0 0
0 0
0 0
0 0
0 0
0 0
0 0
0 0
0 0
0 0
0 0
0 0
0 0
0 0
0 0
0 0
0 0
0 0
0 0
0 0
0 0
0 0
0 0
0 0
0 0
0 0
0 0
0 0
0 0
0 0
0 0
0 0
0 0
0 0
0 0
0 0
0 0
0 0
0 0
0 0
0 0
0 0
0 0
0 0
0 0
0 0
0 0
0 0
0 0
0 0
0 0
0 0
0 0
0 0
0 0
0 0
0 0
0 0
0 0
0 0
0 0
0 0
0 0
0 0
0 0
0 0
0 0
0 0
0 0
0 0
0 0
0 0
0 0
0 0
0 0
0 0
0 0
0 0
0 0
0 0
0 0
0 0
0 0
0 0
0 0
0 0
0 0
0 0
0 0
0 0
0 0
0 0
0 0
0 0
0 0
0 0
0 0
0 0
0 0
0 0
0 0
0 0
0 0
0 0
0 0
0 0
0 0
0 0
0 0
0 0
0 0
0 0
0 0
0 0
0 0
0 0
0 0
0 0
0 0
0 0
0 0
0 0
0 0
0 0
0 0
0 0
0 0
0 0
0 0
0 0
0 0
0 0
0 0
0 0
0 0
0 0
0 0
0 0
0 0
0 0
0 0
0 0
0 0
0 0
0 0
0 0
0 0
0 0
0 0
0 0
0 0
0 0
0 0
0 0
0 0
0 0
0 0
0 0
0 0
0 0
0 0
0 0
0 0
0 0
0 0
0 0
0 0
0 0
0 0
0 0
0 0
0 0
0 0
0 0
0 0
0 0
0 0
0 0
0 0
0 0
0 0
0 0
0 0
0 0
0 0
0 0
0 0
0 0
0 0
0 0
0 0
0 0
0 0
0 0
0 0
0 0
0 0
0 0
0 0
0 0
0 0
0 0
0 0
0 0
0 0
0 0
0 0
0 0
0 0
0 0
0 0
0 0
0 0
0 0
0 0
0 0
0 0
0 0
0 0
0 0
0 0
0 0
0 0
0 0
0 0
0 0
0 0
0 0
0 0
0 0
0 0
0 0
0 0
0 0
0 0
0 0
0 0
0 0
0 0
0 0
0 0
0 0
0 0
0 0
0 0
0 0
0 0
0 0
0 0
0 0
0 0
0 0
0 0
0 0
0 0
0 0
0 0
0 0
0 0
0 0
0 0
0 0
0 0
0 0
0 0
0 0
0 0
0 0
0 0
0 0
0 0
0 0
0 0
0 0
0 0
0 0
0 0
0 0
0 0
0 0
0 0
0 0
0 0
0 0
0 0
0 0
0 0
0 0
0 0
0 0
0 0
0 0
0 0
0 0
0 0
0 0
0 0
0 0
0 0
0 0
0 0
0 0
0 0
0 0
0 0
0 0
0 0
0 0
0 0
0 0
0 0
0 0
0 0
0 0
0 0
0 0
0 0
0 0
0 0
0 0
0 0
0 0
0 0
0 0
0 0
0 0
0 0
0 0
0 0
0 0
0 0
0 0
0 0
0 0
0 0
0 0
0 0
0 0
0 0
0 0
0 0
0 0
0 0
0 0
0 0
0 0
0 0
0 0
0 0
0 0
0 0
0 0
0 0
0 0
0 0
0 0
0 0
0 0
0 0
0 0
0 0
0 0
0 0
0 0
0 0
0 0
0 0
0 0
0 0
0 0
0 0
0 0
0 0
0 0
0 0
0 0
0 0
0 0
0 0
0 0
0 0
0 0
0 0
0 0
0 0
0 0
0 0
0 0
0 0
0 0
0 0
0 0
0 0
0 0
0 0
0 0
0 0
0 0
0 0
0 0
0 0
0 0
0 0
0 0
0 0
0 0
0 0
0 0
0 0
0 0
0 0
0 0
0 0
0 0
0 0
0 0
0 0
0 0
0 0
0 0
0 0
0 0
0 0
0 0
0 0
0 0
0 0
0 0
0 0
0 0
0 0
0 0
0 0
0 0
0 0
0 0
0 0
0 0
0 0
0 0
0 0
0 0
0 0
0 0
0 0
0 0
0 0
0 0
0 0
0 0
0 0
0 0
0 0
0 0
0 0
0 0
0 0
0 0
0 0
0 0
0 0
0 0
0 0
0 0
0 0
0 0
0 0
0 0
0 0
0 0
0 0
0 0
0 0
0 0
0 0
0 0
0 0
0 0
0 0
0 0
0 0
0 0
0 0
0 0
0 0
0 0
0 0
0 0
0 0
0 0
0 0
0 0
0 0
0 0
0 0
0 0
0 0
0 0
0 0
0 0
0 0
0 0
0 0
0 0
0 0
0 0
0 0
0 0
0 0
0 0
0 0
0 0
0 0
0 0
0 0
0 0
0 0
0 0
0 0
0 0
0 0
0 0
0 0
0 0
0 0
0 0
0 0
0 0
0 0
0 0
0 0
0 0
0 0
0 0
0 0
0 0
0 0
0 0
0 0
0 0
0 0
0 0
0 0
0 0
0 0
0 0
0 0
0 0
0 0
0 0
0 0
0 0
0 0
0 0
0 0
0 0
0 0
0 0
0 0
0 0
0 0
0 0
0 0
0 0
0 0
0 0
0 0
0 0
0 0
0 0
0 0
0 0
0 0
0 0
0 0
0 0
0 0
0 0
0 0
0 0
0 0
0 0
0 0
0 0
0 0
0 0
0 0
0 0
0 0
0 0
0 0
0 0
0 0
0 0
0 0
0 0
0 0
0 0
0 0
0 0
0 0
0 0
0 0
0 0
0 0
0 0
0 0
0 0
0 0
0 0
0 0
0 0
0 0
0 0
0 0
0 0
0 0
0 0
0 0
0 0
0 0
0 0
0 0
0 0
0 0
0 0
0 0
0 0
0 0
0 0
0 0
0 0
0 0
0 0
0 0
0 0
0 0
0 0
0 0
0 0
0 0
0 0
0 0
0 0
0 0
0 0
0 0
0 0
0 0
0 0
0 0
0 0
0 0
0 0
0 0
0 0
0 0
0 0
0 0
0 0
0 0
0 0
0 0
0 0
0 0
0 0
0 0
0 0
0 0
0 0
0 0
0 0
0 0
0 0
0 0
0 0
0 0
0 0
0 0
0 0
0 0
0 0
0 0
0 0
0 0
0 0
0 0
0 0
0 0
0 0
0 0
0 0
0 0
0 0
0 0
0 0
0 0
0 0
0 0
0 0
0 0
0 0
0 0
0 0
0 0
0 0
0 0
0 0
0 0
0 0
0 0
0 0
0 0
0 0
0 0
0 0
0 0
0 0
0 0
0 0
0 0
0 0
0 0
0 0
0 0
0 0
0 0
0 0
0 0
0 0
0 0
0 0
0 0
0 0
0 0
0 0
0 0
0 0
0 0
0 0
0 0
0 0
0 0
0 0
0 0
0 0
0 0
0 0
0 0
0 0
0 0
0 0
0 0
0 0
0 0
0 0
0 0
0 0
0 0
0 0
0 0
0 0
0 0
0 0
0 0
0 0
0 0
0 0
0 0
0 0
0 0
0 0
0 0
0 0
0 0
0 0
0 0
0 0
0 0
0 0
0 0
0 0
0 0
0 0
0 0
0 0
0 0
0 0
0 0
0 0
0 0
0 0
0 0
0 0
0 0
0 0
0 0
0 0
0 0
0 0
0 0
0 0
0 0
0 0
0 0
0 0
0 0
0 0
0 0
0 0
0 0
0 0
0 0
0 0
0 0
0 0
0 0
0 0
0 0
0 0
0 0
0 0
0 0
0 0
0 0
0 0
0 0
0 0
0 0
0 0
0 0
0 0
0 0
0 0
0 0
0 0
0 0
0 0
0 0
0 0
0 0
0 0
0 0
0 0
0 0
0 0
0 0
0 0
0 0
0 0
0 0
0 0
0 0
0 0
0 0
0 0
0 0
0 0
0 0
0 0
0 0
0 0
0 0
0 0
0 0
0 0
0 0
0 0
0 0
0 0
0 0
0 0
0 0
0 0
0 0
0 0
0 0
0 0
0 0
0 0
0 0
0 0
0 0
0 0
0 0
0 0
0 0
0 0
0 0
0 0
0 0
0 0
0 0
0 0
0 0
0 0
0 0
0 0
0 0
0 0
0 0
0 0
0 0
0 0
0 0
0 0
0 0
0 0
0 0
0 0
0 0
0 0
0 0
0 0
0 0
0 0
0 0
0 0
0 0
0 0
0 0
0 0
0 0
0 0
0 0
0 0
0 0
0 0
0 0
0 0
0 0
0 0
0 0
0 0
0 0
0 0
0 0
0 0
0 0
0 0
0 0
0 0
0 0
0 0
0 0
0 0
0 0
0 0
0 0
0 0
0 0
0 0
0 0
0 0
0 0
0 0
0 0
0 0
0 0
0 0
0 0
0 0
0 0
0 0
0 0
0 0
0 0
0 0
0 0
0 0
0 0
0 0
0 0
0 0
0 0
0 0
0 0
0 0
0 0
0 0
0 0
0 0
0 0
0 0
0 0
0 0
0 0
0 0
0 0
0 0
0 0
0 0
0 0
0 0
0 0
0 0
0 0
0 0
0 0
0 0
0 0
0 0
0 0
0 0
0 0
0 0
0 0
0 0
0 0
0 0
0 0
0 0
0 0
0 0
0 0
0 0
0 0
0 0
0 0
0 0
0 0
0 0
0 0
0 0
0 0
0 0
0 0
0 0
0 0
0 0
0 0
0 0
0 0
0 0
0 0
0 0
0 0
0 0
0 0
0 0
0 0
0 0
0 0
0 0
0 0
0 0
0 0
0 0
0 0
0 0
0 0
0 0
0 0
0 0
0 0
0 0
0 0
0 0
0 0
0 0
0 0
0 0
0 0
0 0
0 0
0 0
0 0
0 0
0 0
0 0
0 0
0 0
0 0
0 0
0 0
0 0
0 0
0 0
0 0
0 0
0 0
0 0
0 0
0 0
0 0
0 0
0 0
0 0
0 0
0 0
0 0
0 0
0 0
0 0
0 0
0 0
0 0
0 0
0 0
0 0
0 0
0 0
0 0
0 0
0 0
0 0
0 0
0 0
0 0
0 0
0 0
0 0
0 0
0 0
0 0
0 0
0 0
0 0
0 0
0 0
0 0
0 0
0 0
0 0
0 0
0 0
0 0
0 0
0 0
0 0
0 0
0 0
0 0
0 0
0 0
0 0
0 0
0 0
0 0
0 0
0 0
0 0
0 0
0 0
0 0
0 0
0 0
0 0
0 0
0 0
0 0
0 0
0 0
0 0
0 0
0 0
0 0
0 0
0 0
0 0
0 0
0 0
0 0
0 0
0 0
0 0
0 0
0 0
0 0
0 0
0 0
0 0
0 0
0 0
0 0
0 0
0 0
0 0
0 0
0 0
0 0
0 0
0 0
0 0
0 0
0 0
0 0
0 0
0 0
0 0
0 0
0 0
0 0
0 0
0 0
0 0
0 0
0 0
0 0
0 0
0 0
0 0
0 0
0 0
0 0
0 0
0 0
0 0
0 0
0 0
0 0
0 0
0 0
0 0
0 0
0 0
0 0
0 0
0 0
0 0
0 0
0 0
0 0
0 0
0 0
0 0
0 0
0 0
0 0
0 0
0 0
0 0
0 0
0 0
0 0
0 0
0 0
0 0
0 0
0 0
0 0
0 0
0 0
0 0
0 0
0 0
0 0
0 0
0 0
0 0
0 0
0 0
0 0
0 0
0 0
0 0
0 0
0 0
0 0
0 0
0 0
0 0
0 0
0 0
0 0
0 0
0 0
0 0
0 0
0 0
0 0
0 0
0 0
0 0
0 0
0 0
0 0
0 0
0 0
0 0
0 0
0 0
0 0
0 0
0 0
0 0
0 0
0 0
0 0
0 0
0 0
0 0
0 0
0 0
0 0
0 0
0 0
0 0
0 0
0 0
0 0
0 0
0 0
0 0
0 0
0 0
0 0
0 0
0 0
0 0
0 0
0 0
0 0
0 0
0 0
0 0
0 0
0 0
0 0
0 0
0 0
0 0
0 0
0 0
0 0
0 0
0 0
0 0
0 0
0 0
0 0
0 0
0 0
0 0
0 0
0 0
0 0
0 0
0 0
0 0
0 0
0 0
0 0
0 0
0 0
0 0
0 0
0 0
0 0
0 0
0 0
0 0
0 0
0 0
0 0
0 0
0 0
0 0
0 0
0 0
0 0
0 0
0 0
0 0
0 0
0 0
0 0
0 0
0 0
0 0
0 0
0 0
0 0
0 0
0 0
0 0
0 0
0 0
0 0
0 0
0 0
0 0
0 0
0 0
0 0
0 0
0 0
0 0
0 0
0 0
0 0
0 0
0 0
0 0
0 0
0 0
0 0
0 0
0 0
0 0
0 0
0 0
0 0
0 0
0 0
0 0
0 0
0 0
0 0
0 0
0 0
0 0
0 0
0 0
0 0
0 0
0 0
0 0
0 0
0 0
0 0
0 0
0 0
0 0
0 0
0 0
0 0
0 0
0 0
0 0
0 0
0 0
0 0
0 0
0 0
0 0
0 0
0 0
0 0
0 0
0 0
0 0
0 0
0 0
0 0
0 0
0 0
0 0
0 0
0 0
0 0
0 0
0 0
0 0
0 0
0 0
0 0
0 0
0 0
0 0
0 0
0 0
0 0
0 0
0 0
0 0
0 0
0 0
0 0
0 0
0 0
0 0
0 0
0 0
0 0
0 0
0 0
0 0
0 0
0 0
0 0
0 0
0 0
0 0
0 0
0 0
0 0
0 0
0 0
0 0
0 0
0 0
0 0
0 0
0 0
0 0
0 0
0 0
0 0
0 0
0 0
0 0
0 0
0 0
0 0
0 0
0 0
0 0
0 0
0 0
0 0
0 0
0 0
0 0
0 0
0 0
0 0
0 0
0 0
0 0
0 0
0 0
0 0
0 0
0 0
0 0
0 0
0 0
0 0
0 0
0 0
0 0
0 0
0 0
0 0
0 0
0 0
0 0
0 0
0 0
0 0
0 0
0 0
0 0
0 0
0 0
0 0
0 0
0 0
0 0
0 0
0 0
0 0
0 0
0 0
0 0
0 0
0 0
0 0
0 0
0 0
0 0
0 0
0 0
0 0
0 0
0 0
0 0
0 0
0 0
0 0
0 0
0 0
0 0
0 0
0 0
0 0
0 0
0 0
0 0
0 0
0 0
0 0
0 0
0 0
0 0
0 0
0 0
0 0
0 0
0 0
0 0
0 0
0 0
0 0
0 0
0 0
0 0
0 0
0 0
0 0
0 0
0 0
0 0
0 0
0 0
0 0
0 0
0 0
0 0
0 0
0 0
0 0
0 0
0 0
0 0
0 0
0 0
0 0
0 0
0 0
0 0
0 0
0 0
0 0
0 0
0 0
0 0
0 0
0 0
0 0
0 0
0 0
0 0
0 0
0 0
0 0
0 0
0 0
0 0
0 0
0 0
0 0
0 0
0 0
0 0
0 0
0 0
0 0
0 0
0 0
0 0
0 0
0 0
0 0
0 0
0 0
0 0
0 0
0 0
0 0
0 0
0 0
0 0
0 0
0 0
0 0
0 0
0 0
0 0
0 0
0 0
0 0
0 0
0 0
0 0
0 0
0 0
0 0
0 0
0 0
0 0
0 0
0 0
0 0
0 0
0 0
0 0
0 0
0 0
0 0
0 0
0 0
0 0
0 0
0 0
0 0
0 0
0 0
0 0
0 0
0 0
0 0
0 0
0 0
0 0
0 0
0 0
0 0
0 0
0 0
0 0
0 0
0 0
0 0
0 0
0 0
0 0
0 0
0 0
0 0
0 0
0 0
0 0
0 0
0 0
0 0
0 0
0 0
0 0
0 0
0 0
0 0
0 0
0 0
0 0
0 0
0 0
0 0
0 0
0 0
0 0
0 0
0 0
0 0
0 0
0 0
0 0
0 0
0 0
0 0
0 0
0 0
0 0
0 0
0 0
0 0
0 0
0 0
0 0
0 0
0 0
0 0
0 0
0 0
0 0
0 0
0 0
0 0
0 0
0 0
0 0
0 0
0 0
0 0
0 0
0 0
0 0
0 0
0 0
0 0
0 0
0 0
0 0
0 0
0 0
0 0
0 0
0 0
0 0
0 0
0 0
0 0
0 0
0 0
0 0
0 0
0 0
0 0
0 0
0 0
0 0
0 0
0 0
0 0
0 0
0 0
0 0
0 0
0 0
0 0
0 0
0 0
0 0
0 0
0 0
0 0
0 0
0 0
0 0
0 0
0 0
0 0
0 0
0 0
0 0
0 0
0 0
0 0
0 0
0 0
0 0
0 0
0 0
0 0
0 0
0 0
0 0
0 0
0 0
0 0
0 0
0 0
0 0
0 0
0 0
0 0
0 0
0 0
0 0
0 0
0 0
0 0
0 0
0 0
0 0
0 0
0 0
0 0
0 0
0 0
0 0
0 0
0 0
0 0
0 0
0 0
0 0
0 0
0 0
0 0
0 0
0 0
0 0
0 0
0 0
0 0
0 0
0 0
0 0
0 0
0 0
0 0
0 0
0 0
0 0
0 0
0 0
0 0
0 0
0 0
0 0
0 0
0 0
0 0
0 0
0 0
0 0
0 0
0 0
0 0
0 0
0 0
0 0
0 0
0 0
0 0
0 0
0 0
0 0
0 0
0 0
0 0
0 0
0 0
0 0
0 0
0 0
0 0
0 0
0 0
0 0
0 0
0 0
0 0
0 0
0 0
0 0
0 0
0 0
0 0
0 0
0 0
0 0
0 0
0 0
0 0
0 0
0 0
0 0
0 0
0 0
0 0
0 0
0 0
0 0
0 0
0 0
0 0
0 0
0 0
0 0
0 0
0 0
0 0
0 0
0 0
0 0
0 0
0 0
0 0
0 0
0 0
0 0
0 0
0 0
0 0
0 0
0 0
0 0
0 0
0 0
0 0
0 0
0 0
0 0
0 0
0 0
0 0
0 0
0 0
0 0
0 0
0 0
0 0
0 0
0 0
0 0
0 0
0 0
0 0
0 0
0 0
0 0
0 0
0 0
0 0
0 0
0 0
0 0
0 0
0 0
0 0
0 0
0 0
0 0
0 0
0 0
0 0
0 0
0 0
0 0
0 0
0 0
0 0
0 0
0 0
0 0
0 0
0 0
0 0
0 0
0 0
0 0
0 0
0 0
0 0
0 0
0 0
0 0
0 0
0 0
0 0
0 0
0 0
0 0
0 0
0 0
0 0
0 0
0 0
0 0
0 0
0 0
0 0
0 0
0 0
0 0
0 0
0 0
0 0
0 0
0 0
0 0
0 0
0 0
0 0
0 0
0 0
0 0
0 0
0 0
0 0
0 0
0 0
0 0
0 0
0 0
0 0
0 0
0 0
0 0
0 0
0 0
0 0
0 0
0 0
0 0
0 0
0 0
0 0
0 0
0 0
0 0
0 0
0 0
0 0
0 0
0 0
0 0
0 0
0 0
0 0
0 0
0 0
0 0
0 0
0 0
0 0
0 0
0 0
0 0
0 0
0 0
0 0
0 0
0 0
0 0
0 0
0 0
0 0
0 0
0 0
0 0
0 0
0 0
0 0
0 0
0 0
0 0
0 0
0 0
0 0
0 0
0 0
0 0
0 0
0 0
0 0
0 0
0 0
0 0
0 0
0 0
0 0
0 0
0 0
0 0
0 0
0 0
0 0
0 0
0 0
0 0
0 0
0 0
0 0
0 0
0 0
0 0
0 0
0 0
0 0
0 0
0 0
0 0
0 0
0 0
0 0
0 0
0 0
0 0
0 0
0 0
0 0
0 0
0 0
0 0
0 0
0 0
0 0
0 0
0 0
0 0
0 0
0 0
0 0
0 0
0 0
0 0
0 0
0 0
0 0
0 0
0 0
0 0
0 0
0 0
0 0
0 0
0 0
0 0
0 0
0 0
0 0
0 0
0 0
0 0
0 0
0 0
0 0
0 0
0 0
0 0
0 0
0 0
0 0
0 0
0 0
0 0
0 0
0 0
0 0
0 0
0 0
0 0
0 0
0 0
0 0
0 0
0 0
0 0
0 0
0 0
0 0
0 0
0 0
0 0
0 0
0 0
0 0
0 0
0 0
0 0
0 0
0 0
0 0
0 0
0 0
0 0
0 0
0 0
0 0
0 0
0 0
0 0
0 0
0 0
0 0
0 0
0 0
0 0
0 0
0 0
0 0
0 0
0 0
0 0
0 0
0 0
0 0
0 0
0 0
0 0
0 0
0 0
0 0
0 0
0 0
0 0
0 0
0 0
0 0
0 0
0 0
0 0
0 0
0 0
0 0
0 0
0 0
0 0
0 0
0 0
0 0
0 0
0 0
0 0
0 0
0 0
0 0
0 0
0 0
0 0
0 0
0 0
0 0
0 0
0 0
0 0
0 0
0 0
0 0
0 0
0 0
0 0
0 0
0 0
0 0
0 0
0 0
0 0
0 0
0 0
0 0
0 0
0 0
0 0
0 0
0 0
0 0
0 0
0 0
0 0
0 0
0 0
0 0
0 0
0 0
0 0
0 0
0 0
0 0
0 0
0 0
0 0
0 0
0 0
0 0
0 0
0 0
0 0
0 0
0 0
0 0
0 0
0 0
0 0
0 0
0 0
0 0
0 0
0 0
0 0
0 0
0 0
0 0
0 0
0 0
0 0
0 0
0 0
0 0
0 0
0 0
0 0
0 0
0 0
0 0
0 0
0 0
0 0
0 0
0 0
0 0
0 0
0 0
0 0
0 0
0 0
0 0
0 0
0 0
0 0
0 0
0 0
0 0
0 0
0 0
0 0
0 0
0 0
0 0
0 0
0 0
0 0
0 0
0 0
0 0
0 0
0 0
0 0
0 0
0 0
0 0
0 0
0 0
0 0
0 0
0 0
0 0
0 0
0 0
0 0
0 0
0 0
0 0
0 0
0 0
0 0
0 0
0 0
0 0
0 0
0 0
0 0
0 0
0 0
0 0
0 0
0 0
0 0
0 0
0 0
0 0
0 0
0 0
0 0
0 0
0 0
0 0
0 0
0 0
0 0
0 0
0 0
0 0
0 0
0 0
0 0
0 0
0 0
0 0
0 0
0 0
0 0
0 0
0 0
0 0
0 0
0 0
0 0
0 0
0 0
0 0
0 0
0 0
0 0
0 0
0 0
0 0
0 0
0 0
0 0
0 0
0 0
0 0
0 0
0 0
0 0
0 0
0 0
0 0
0 0
0 0
0 0
0 0
0 0
0 0
0 0
0 0
0 0
0 0
0 0
0 0
0 0
0 0
0 0
0 0
0 0
0 0
0 0
0 0
0 0
0 0
0 0
0 0
0 0
0 0
0 0
0 0
0 0
0 0
0 0
0 0
0 0
0 0
0 0
0 0
0 0
0 0
0 0
0 0
0 0
0 0
0 0
0 0
0 0
0 0
0 0
0 0
0 0
0 0
0 0
0 0
0 0
0 0
0 0
0 0
0 0
0 0
0 0
0 0
0 0
0 0
0 0
0 0
0 0
0 0
0 0
0 0
0 0
0 0
0 0
0 0
0 0
0 0
0 0
0 0
0 0
0 0
0 0
0 0
0 0
0 0
0 0
0 0
0 0
0 0
0 0
0 0
0 0
0 0
0 0
0 0
0 0
0 0
0 0
0 0
0 0
0 0
0 0
0 0
0 0
0 0
0 0
0 0
0 0
0 0
0 0
0 0
0 0
0 0
0 0
0 0
0 0
0 0
0 0
0 0
0 0
0 0
0 0
0 0
0 0
0 0
0 0
0 0
0 0
0 0
0 0
0 0
0 0
0 0
0 0
0 0
0 0
0 0
0 0
0 0
0 0
0 0
0 0
0 0
0 0
0 0
0 0
0 0
0 0
0 0
0 0
0 0
0 0
0 0
0 0
0 0
0 0
0 0
0 0
0 0
0 0
0 0
0 0
0 0
0 0
0 0
0 0
0 0
0 0
0 0
0 0
0 0
0 0
0 0
0 0
0 0
0 0
0 0
0 0
0 0
0 0
0 0
0 0
0 0
0 0
0 0
0 0
0 0
0 0
0 0
0 0
0 0
0 0
0 0
0 0
0 0
0 0
0 0
0 0
0 0
0 0
0 0
0 0
0 0
0 0
0 0
0 0
0 0
0 0
0 0
0 0
0 0
0 0
0 0
0 0
0 0
0 0
0 0
0 0
0 0
0 0
0 0
0 0
0 0
0 0
0 0
0 0
0 0
0 0
0 0
0 0
0 0
0 0
0 0
0 0
0 0
0 0
0 0
0 0
0 0
0 0
0 0
0 0
0 0
0 0
0 0
0 0
0 0
0 0
0 0
0 0
0 0
0 0
0 0
0 0
0 0
0 0
0 0
0 0
0 0
0 0
0 0
0 0
0 0
0 0
0 0
0 0
0 0
0 0
0 0
0 0
0 0
0 0
0 0
0 0
0 0
0 0
0 0
0 0
0 0
0 0
0 0
0 0
0 0
0 0
0 0
0 0
0 0
0 0
0 0
0 0
0 0
0 0
0 0
0 0
0 0
0 0
0 0
0 0
0 0
0 0
0 0
0 0
0 0
0 0
0 0
0 0
0 0
0 0
0 0
0 0
0 0
0 0
0 0
0 0
0 0
0 0
0 0
0 0
0 0
0 0
0 0
0 0
0 0
0 0
0 0
0 0
0 0
0 0
0 0
0 0
0 0
0 0
0 0
0 0
0 0
0 0
0 0
0 0
0 0
0 0
0 0
0 0
0 0
0 0
0 0
0 0
0 0
0 0
0 0
0 0
0 0
0 0
0 0
0 0
0 0
0 0
0 0
0 0
0 0
0 0
0 0
0 0
0 0
0 0
0 0
0 0
0 0
0 0
0 0
0 0
0 0
0 0
0 0
0 0
0 0
0 0
0 0
0 0
0 0
0 0
0 0
0 0
0 0
0 0
0 0
0 0
0 0
0 0
0 0
0 0
0 0
0 0
0 0
0 0
0 0
0 0
0 0
0 0
0 0
0 0
0 0
0 0
0 0
0 0
0 0
0 0
0 0
0 0
0 0
0 0
0 0
0 0
0 0
0 0
0 0
0 0
0 0
0 0
0 0
0 0
0 0
0 0
0 0
0 0
0 0
0 0
0 0
0 0
0 0
0 0
0 0
0 0
0 0
0 0
0 0
0 0
0 0
0 0
0 0
0 0
0 0
0 0
0 0
0 0
0 0
0 0
0 0
0 0
0 0
0 0
0 0
0 0
0 0
0 0
0 0
0 0
0 0
0 0
0 0
0 0
0 0
0 0
0 0
0 0
0 0
0 0
0 0
0 0
0 0
0 0
0 0
0 0
0 0
0 0
0 0
0 0
0 0
0 0
0 0
0 0
0 0
0 0
0 0
0 0
0 0
0 0
0 0
0 0
0 0
0 0
0 0
0 0
0 0
0 0
0 0
0 0
0 0
0 0
0 0
0 0
0 0
0 0
0 0
0 0
0 0
0 0
0 0
0 0
0 0
0 0
0 0
0 0
0 0
0 0
0 0
0 0
0 0
0 0
0 0
0 0
0 0
0 0
0 0
0 0
0 0
0 0
0 0
0 0
0 0
0 0
0 0
0 0
0 0
0 0
0 0
0 0
0 0
0 0
0 0
0 0
0 0
0 0
0 0
0 0
0 0
0 0
0 0
0 0
0 0
0 0
0 0
0 0
0 0
0 0
0 0
0 0
0 0
0 0
0 0
0 0
0 0
0 0
0 0
0 0
0 0
0 0
0 0
0 0
0 0
0 0
0 0
0 0
0 0
0 0
0 0
0 0
0 0
0 0
0 0
0 0
0 0
0 0
0 0
0 0
0 0
0 0
0 0
0 0
0 0
0 0
0 0
0 0
0 0
0 0
0 0
0 0
0 0
0 0
0 0
0 0
0 0
0 0
0 0
0 0
0 0
0 0
0 0
0 0
0 0
0 0
0 0
0 0
0 0
0 0
0 0
0 0
0 0
0 0
0 0
0 0
0 0
0 0
0 0
0 0
0 0
0 0
0 0
0 0
0 0
0 0
0 0
0 0
0 0
0 0
0 0
0 0
0 0
0 0
0 0
0 0
0 0
0 0
0 0
0 0
0 0
0 0
0 0
0 0
0 0
0 0
0 0
0 0
0 0
0 0
0 0
0 0
0 0
0 0
0 0
0 0
0 0
0 0
0 0
0 0
0 0
0 0
0 0
0 0
0 0
0 0
0 0
0 0
0 0
0 0
0 0
0 0
0 0
0 0
0 0
0 0
0 0
0 0
0 0
0 0
0 0
0 0
0 0
0 0
0 0
0 0
0 0
0 0
0 0
0 0
0 0
0 0
0 0
0 0
0 0
0 0
0 0
0 0
0 0
0 0
0 0
0 0
0 0
0 0
0 0
0 0
0 0
0 0
0 0
0 0
0 0
0 0
0 0
0 0
0 0
0 0
0 0
0 0
0 0
0 0
0 0
0 0
0 0
0 0
0 0
0 0
0 0
0 0
0 0
0 0
0 0
0 0
0 0
0 0
0 0
0 0
0 0
0 0
0 0
0 0
0 0
0 0
0 0
0 0
0 0
0 0
0 0
0 0
0 0
0 0
0 0
0 0
0 0
0 0
0 0
0 0
0 0
0 0
0 0
0 0
0 0
0 0
0 0
0 0
0 0
0 0
0 0
0 0
0 0
0 0
0 0
0 0
0 0
0 0
0 0
0 0
0 0
0 0
0 0
0 0
0 0
0 0
0 0
0 0
0 0
0 0
0 0
0 0
0 0
0 0
0 0
0 0
0 0
0 0
0 0
0 0
0 0
0 0
0 0
0 0
0 0
0 0
0 0
0 0
0 0
0 0
0 0
0 0
0 0
0 0
0 0
0 0
0 0
0 0
0 0
0 0
0 0
0 0
0 0
0 0
0 0
0 0
0 0
0 0
0 0
0 0
0 0
0 0
0 0
0 0
0 0
0 0
0 0
0 0
0 0
0 0
0 0
0 0
0 0
0 0
0 0
0 0
0 0
0 0
0 0
0 0
0 0
0 0
0 0
0 0
0 0
0 0
0 0
0 0
0 0
0 0
0 0
0 0
0 0
0 0
0 0
0 0
0 0
0 0
0 0
0 0
0 0
0 0
0 0
0 0
0 0
0 0
0 0
0 0
0 0
0 0
0 0
0 0
0 0
0 0
0 0
0 0
0 0
0 0
0 0
0 0
0 0
0 0
0 0
0 0
0 0
0 0
0 0
0 0
0 0
0 0
0 0
0 0
0 0
0 0
0 0
0 0
0 0
0 0
0 0
0 0
0 0
0 0
0 0
0 0
0 0
0 0
0 0
0 0
0 0
0 0
0 0
0 0
0 0
0 0
0 0
0 0
0 0
0 0
0 0
0 0
0 0
0 0
0 0
0 0
0 0
0 0
0 0
0 0
0 0
0 0
0 0
0 0
0 0
0 0
0 0
0 0
0 0
0 0
0 0
0 0
0 0
0 0
0 0
0 0
0 0
0 0
0 0
0 0
0 0
0 0
0 0
0 0
0 0
0 0
0 0
0 0
0 0
0 0
0 0
0 0
0 0
0 0
0 0
0 0
0 0
0 0
0 0
0 0
0 0
0 0
0 0
0 0
0 0
0 0
0 0
0 0
0 0
0 0
0 0
0 0
0 0
0 0
0 0
0 0
0 0
0 0
0 0
0 0
0 0
0 0
0 0
0 0
0 0
0 0
0 0
0 0
0 0
0 0
0 0
0 0
0 0
0 0
0 0
0 0
0 0
0 0
0 0
0 0
0 0
0 0
0 0
0 0
0 0
0 0
0 0
0 0
0 0
0 0
0 0
0 0
0 0
0 0
0 0
0 0
0 0
0 0
0 0
0 0
0 0
0 0
0 0
0 0
0 0
0 0
0 0
0 0
0 0
0 0
0 0
0 0
0 0
0 0
0 0
0 0
0 0
0 0
0 0
0 0
0 0
0 0
0 0
0 0
0 0
0 0
0 0
0 0
0 0
0 0
0 0
0 0
0 0
0 0
0 0
0 0
0 0
0 0
0 0
0 0
0 0
0 0
0 0
0 0
0 0
0 0
0 0
0 0
0 0
0 0
0 0
0 0
0 0
0 0
0 0
0 0
0 0
0 0
0 0
0 0
0 0
0 0
0 0
0 0
0 0
0 0
0 0
0 0
0 0
0 0
0 0
0 0
0 0
0 0
0 0
0 0
0 0
0 0
0 0
0 0
0 0
0 0
0 0
0 0
0 0
0 0
0 0
0 0
0 0
0 0
0 0
0 0
0 0
0 0
0 0
0 0
0 0
0 0
0 0
0 0
0 0
0 0
0 0
0 0
0 0
0 0
0 0
0 0
0 0
0 0
0 0
0 0
0 0
0 0
0 0
0 0
0 0
0 0
0 0
0 0
0 0
0 0
0 0
0 0
0 0
0 0
0 0
0 0
0 0
0 0
0 0
0 0
0 0
0 0
0 0
0 0
0 0
0 0
0 0
0 0
0 0
0 0
0 0
0 0
0 0
0 0
0 0
0 0
0 0
0 0
0 0
0 0
0 0
0 0
0 0
0 0
0 0
0 0
0 0
0 0
0 0
0 0
0 0
0 0
0 0
0 0
0 0
0 0
0 0
0 0
0 0
0 0
0 0
0 0
0 0
0 0
0 0
0 0
0 0
0 0
0 0
0 0
0 0
0 0
0 0
0 0
0 0
0 0
0 0
0 0
0 0
0 0
0 0
0 0
0 0
0 0
0 0
0 0
0 0
0 0
0 0
0 0
0 0
0 0
0 0
0 0
0 0
0 0
0 0
0 0
0 0
0 0
0 0
0 0
0 0
0 0
0 0
0 0
0 0
0 0
0 0
0 0
0 0
0 0
0 0
0 0
0 0
0 0
0 0
0 0
0 0
0 0
0 0
0 0
0 0
0 0
0 0
0 0
0 0
0 0
0 0
0 0
0 0
0 0
0 0
0 0
0 0
0 0
0 0
0 0
0 0
0 0
0 0
0 0
0 0
0 0
0 0
0 0
0 0
0 0
0 0
0 0
0 0
0 0
0 0
0 0
0 0
0 0
0 0
0 0
0 0
0 0
0 0
0 0
0 0
0 0
0 0
0 0
0 0
0 0
0 0
0 0
0 0
0 0
0 0
0 0
0 0
0 0
0 0
0 0
0 0
0 0
0 0
0 0
0 0
0 0
0 0
0 0
0 0
0 0
0 0
0 0
0 0
0 0
0 0
0 0
0 0
0 0
0 0
0 0
0 0
0 0
0 0
0 0
0 0
0 0
0 0
0 0
0 0
0 0
0 0
0 0
0 0
0 0
0 0
0 0
0 0
0 0
0 0
0 0
0 0
0 0
0 0
0 0
0 0
0 0
0 0
0 0
0 0
0 0
0 0
0 0
0 0
0 0
0 0
0 0
0 0
0 0
0 0
0 0
0 0
0 0
0 0
0 0
0 0
0 0
0 0
0 0
0 0
0 0
0 0
0 0
0 0
0 0
0 0
0 0
0 0
0 0
0 0
0 0
0 0
0 0
0 0
0 0
0 0
0 0
0 0
0 0
0 0
0 0
0 0
0 0
0 0
0 0
0 0
0 0
0 0
0 0
0 0
0 0
0 0
0 0
0 0
0 0
0 0
0 0
0 0
0 0
0 0
0 0
0 0
0 0
0 0
0 0
0 0
0 0
0 0
0 0
0 0
0 0
0 0
0 0
0 0
0 0
0 0
0 0
0 0
0 0
0 0
0 0
0 0
0 0
0 0
0 0
0 0
0 0
0 0
0 0
0 0
0 0
0 0
0 0
0 0
0 0
0 0
0 0
0 0
0 0
0 0
0 0
0 0
0 0
0 0
0 0
0 0
0 0
0 0
0 0
0 0
0 0
0 0
0 0
0 0
0 0
0 0
0 0
0 0
0 0
0 0
0 0
0 0
0 0
0 0
0 0
0 0
0 0
0 0
0 0
0 0
0 0
0 0
0 0
0 0
0 0
0 0
0 0
0 0
0 0
0 0
0 0
0 0
0 0
0 0
0 0
0 0
0 0
0 0
0 0
0 0
0 0
0 0
0 0
0 0
0 0
0 0
0 0
0 0
0 0
0 0
0 0
0 0
0 0
0 0
0 0
0 0
0 0
0 0
0 0
0 0
0 0
0 0
0 0
0 0
0 0
0 0
0 0
0 0
0 0
0 0
0 0
0 0
0 0
0 0
0 0
0 0
0 0
0 0
0 0
0 0
0 0
0 0
0 0
0 0
0 0
0 0
0 0
0 0
0 0
0 0
0 0
0 0
0 0
0 0
0 0
0 0
0 0
0 0
0 0
0 0
0 0
0 0
0 0
0 0
0 0
0 0
0 0
0 0
0 0
0 0
0 0
0 0
0 0
0 0
0 0
0 0
0 0
0 0
0 0
0 0
0 0
0 0
0 0
0 0
0 0
0 0
0 0
0 0
0 0
0 0
0 0
0 0
0 0
0 0
0 0
0 0
0 0
0 0
0 0
0 0
0 0
0 0
0 0
0 0
0 0
0 0
0 0
0 0
0 0
0 0
0 0
0 0
0 0
0 0
0 0
0 0
0 0
0 0
0 0
0 0
0 0
0 0
0 0
0 0
0 0
0 0
0 0
0 0
0 0
0 0
0 0
0 0
0 0
0 0
0 0
0 0
0 0
0 0
0 0
0 0
0 0
0 0
0 0
0 0
0 0
0 0
0 0
0 0
0 0
0 0
0 0
0 0
0 0
0 0
0 0
0 0
0 0
0 0
0 0
0 0
0 0
0 0
0 0
0 0
0 0
0 0
0 0
0 0
0 0
0 0
0 0
0 0
0 0
0 0
0 0
0 0
0 0
0 0
0 0
0 0
0 0
0 0
0 0
0 0
0 0
0 0
0 0
0 0
0 0
0 0
0 0
0 0
0 0
0 0
0 0
0 0
0 0
0 0
0 0
0 0
0 0
0 0
0 0
0 0
0 0
0 0
0 0
0 0
0 0
0 0
0 0
0 0
0 0
0 0
0 0
0 0
0 0
0 0
0 0
0 0
0 0
0 0
0 0
0 0
0 0
0 0
0 0
0 0
0 0
0 0
0 0
0 0
0 0
0 0
0 0
0 0
0 0
0 0
0 0
0 0
0 0
0 0
0 0
0 0
0 0
0 0
0 0
0 0
0 0
0 0
0 0
0 0
0 0
0 0
0 0
0 0
0 0
0 0
0 0
0 0
0 0
0 0
0 0
0 0
0 0
0 0
0 0
0 0
0 0
0 0
0 0
0 0
0 0
0 0
0 0
0 0
0 0
0 0
0 0
0 0
0 0
0 0
0 0
0 0
0 0
0 0
0 0
0 0
0 0
0 0
0 0
0 0
0 0
0 0
0 0
0 0
0 0
0 0
0 0
0 0
0 0
0 0
0 0
0 0
0 0
0 0
0 0
0 0
0 0
0 0
0 0
0 0
0 0
0 0
0 0
0 0
0 0
0 0
0 0
0 0
0 0
0 0
0 0
0 0
0 0
0 0
0 0
0 0
0 0
0 0
0 0
0 0
0 0
0 0
0 0
0 0
0 0
0 0
0 0
0 0
0 0
0 0
0 0
0 0
0 0
0 0
0 0
0 0
0 0
0 0
0 0
0 0
0 0
0 0
0 0
0 0
0 0
0 0
0 0
0 0
0 0
0 0
0 0
0 0
0 0
0 0
0 0
0 0
0 0
0 0
0 0
0 0
0 0
0 0
0 0
0 0
0 0
0 0
0 0
0 0
0 0
0 0
0 0
0 0
0 0
0 0
0 0
0 0
0 0
0 0
0 0
0 0
0 0
0 0
0 0
0 0
0 0
0 0
0 0
0 0
0 0
0 0
0 0
0 0
0 0
0 0
0 0
0 0
0 0
0 0
0 0
0 0
0 0
0 0
0 0
0 0
0 0
0 0
0 0
0 0
0 0
0 0
0 0
0 0
0 0
0 0
0 0
0 0
0 0
0 0
0 0
0 0
0 0
0 0
0 0
0 0
0 0
0 0
0 0
0 0
0 0
0 0
0 0
0 0
0 0
0 0
0 0
0 0
0 0
0 0
0 0
0 0
0 0
0 0
0 0
0 0
0 0
0 0
0 0
0 0
0 0
0 0
0 0
0 0
0 0
0 0
0 0
0 0
0 0
0 0
0 0
0 0
0 0
0 0
0 0
0 0
0 0
0 0
0 0
0 0
0 0
0 0
0 0
0 0
0 0
0 0
0 0
0 0
0 0
0 0
0 0
0 0
0 0
0 0
0 0
0 0
0 0
0 0
0 0
0 0
0 0
0 0
0 0
0 0
0 0
0 0
0 0
0 0
0 0
0 0
0 0
0 0
0 0
0 0
0 0
0 0
0 0
0 0
0 0
0 0
0 0
0 0
0 0
0 0
0 0
0 0
0 0
0 0
0 0
0 0
0 0
0 0
0 0
0 0
0 0
0 0
0 0
0 0
0 0
0 0
0 0
0 0
0 0
0 0
0 0
0 0
0 0
0 0
0 0
0 0
0 0
0 0
0 0
0 0
0 0
0 0
0 0
0 0
0 0
0 0
0 0
0 0
0 0
0 0
0 0
0 0
0 0
0 0
0 0
0 0
0 0
0 0
0 0
0 0
0 0
0 0
0 0
0 0
0 0
0 0
0 0
0 0
0 0
0 0
0 0
0 0
0 0
0 0
0 0
0 0
0 0
0 0
0 0
0 0
0 0
0 0
0 0
0 0
0 0
0 0
0 0
0 0
0 0
0 0
0 0
0 0
0 0
0 0
0 0
0 0
0 0
0 0
0 0
0 0
0 0
0 0
0 0
0 0
0 0
0 0
0 0
0 0
0 0
0 0
0 0
0 0
0 0
0 0
0 0
0 0
0 0
0 0
0 0
0 0
0 0
0 0
0 0
0 0
0 0
0 0
0 0
0 0
0 0
0 0
0 0
0 0
0 0
0 0
0 0
0 0
0 0
0 0
0 0
0 0
0 0
0 0
0 0
0 0
0 0
0 0
0 0
0 0
0 0
0 0
0 0
0 0
0 0
0 0
0 0
0 0
0 0
0 0
0 0
0 0
0 0
0 0
0 0
0 0
0 0
0 0
0 0
0 0
0 0
0 0
0 0
0 0
0 0
0 0
0 0
0 0
0 0
0 0
0 0
0 0
0 0
0 0
0 0
0 0
0 0
0 0
0 0
0 0
0 0
0 0
0 0
0 0
0 0
0 0
0 0
0 0
0 0
0 0
0 0
0 0
0 0
0 0
0 0
0 0
0 0
0 0
0 0
0 0
0 0
0 0
0 0
0 0
0 0
0 0
0 0
0 0
0 0
0 0
0 0
0 0
0 0
0 0
0 0
0 0
0 0
0 0
0 0
0 0
0 0
0 0
0 0
0 0
0 0
0 0
0 0
0 0
0 0
0 0
0 0
0 0
0 0
0 0
0 0
0 0
0 0
0 0
0 0
0 0
0 0
0 0
0 0
0 0
0 0
0 0
0 0
0 0
0 0
0 0
0 0
0 0
0 0
0 0
0 0
0 0
0 0
0 0
0 0
0 0
0 0
0 0
0 0
0 0
0 0
0 0
0 0
0 0
0 0
0 0
0 0
0 0
0 0
0 0
0 0
0 0
0 0
0 0
0 0
0 0
0 0
0 0
0 0
0 0
0 0
0 0
0 0
0 0
0 0
0 0
0 0
0 0
0 0
0 0
0 0
0 0
0 0
0 0
0 0
0 0
0 0
0 0
0 0
0 0
0 0
0 0
0 0
0 0
0 0
0 0
0 0
0 0
0 0
0 0
0 0
0 0
0 0
0 0
0 0
0 0
0 0
0 0
0 0
0 0
0 0
0 0
0 0
0 0
0 0
0 0
0 0
0 0
0 0
0 0
0 0
0 0
0 0
0 0
0 0
0 0
0 0
0 0
0 0
0 0
0 0
0 0
0 0
0 0
0 0
0 0
0 0
0 0
0 0
0 0
0 0
0 0
0 0
0 0
0 0
0 0
0 0
0 0
0 0
0 0
0 0
0 0
0 0
0 0
0 0
0 0
0 0
0 0
0 0
0 0
0 0
0 0
0 0
0 0
0 0
0 0
0 0
0 0
0 0
0 0
0 0
0 0
0 0
0 0
0 0
0 0
0 0
0 0
0 0
0 0
0 0
0 0
0 0
0 0
0 0
0 0
0 0
0 0
0 0
0 0
0 0
0 0
0 0
0 0
0 0
0 0
0 0
0 0
0 0
0 0
0 0
0 0
0 0
0 0
0 0
0 0
0 0
0 0
0 0
0 0
0 0
0 0
0 0
0 0
0 0
0 0
0 0
0 0
0 0
0 0
0 0
0 0
0 0
0 0
0 0
0 0
0 0
0 0
0 0
0 0
0 0
0 0
0 0
0 0
0 0
0 0
0 0
0 0
0 0
0 0
0 0
0 0
0 0
0 0
0 0
0 0
0 0
0 0
0 0
0 0
0 0
0 0
0 0
0 0
0 0
0 0
0 0
0 0
0 0
0 0
0 0
0 0
0 0
0 0
0 0
0 0
0 0
0 0
0 0
0 0
0 0
0 0
0 0
0 0
0 0
0 0
0 0
0 0
0 0
0 0
0 0
0 0
0 0
0 0
0 0
0 0
0 0
0 0
0 0
0 0
0 0
0 0
0 0
0 0
0 0
0 0
0 0
0 0
0 0
0 0
0 0
0 0
0 0
0 0
0 0
0 0
0 0
0 0
0 0
0 0
0 0
0 0
0 0
0 0
0 0
0 0
0 0
0 0
0 0
0 0
0 0
0 0
0 0
0 0
0 0
0 0
0 0
0 0
0 0
0 0
0 0
0 0
0 0
0 0
0 0
0 0
0 0
0 0
0 0
0 0
0 0
0 0
0 0
0 0
0 0
0 0
0 0
0 0
0 0
0 0
0 0
0 0
0 0
0 0
0 0
0 0
0 0
0 0
0 0
0 0
0 0
0 0
0 0
0 0
0 0
0 0
0 0
0 0
0 0
0 0
0 0
0 0
0 0
0 0
0 0
0 0
0 0
0 0
0 0
0 0
0 0
0 0
0 0
0 0
0 0
0 0
0 0
0 0
0 0
0 0
0 0
0 0
0 0
0 0
0 0
0 0
0 0
0 0
0 0
0 0
0 0
0 0
0 0
0 0
0 0
0 0
0 0
0 0
0 0
0 0
0 0
0 0
0 0
0 0
0 0
0 0
0 0
0 0
0 0
0 0
0 0
0 0
0 0
0 0
0 0
0 0
0 0
0 0
0 0
0 0
0 0
0 0
0 0
0 0
0 0
0 0
0 0
0 0
0 0
0 0
0 0
0 0
0 0
0 0
0 0
0 0
0 0
0 0
0 0
0 0
0 0
0 0
0 0
0 0
0 0
0 0
0 0
0 0
0 0
0 0
0 0
0 0
0 0
0 0
0 0
0 0
0 0
0 0
0 0
0 0
0 0
0 0
0 0
0 0
0 0
0 0
0 0
0 0
0 0
0 0
0 0
0 0
0 0
0 0
0 0
0 0
0 0
0 0
0 0
0 0
0 0
0 0
0 0
0 0
0 0
0 0
0 0
0 0
0 0
0 0
0 0
0 0
0 0
0 0
0 0
0 0
0 0
0 0
0 0
0 0
0 0
0 0
0 0
0 0
0 0
0 0
0 0
0 0
0 0
0 0
0 0
0 0
0 0
0 0
0 0
0 0
0 0
0 0
0 0
0 0
0 0
0 0
0 0
0 0
0 0
0 0
0 0
0 0
0 0
0 0
0 0
0 0
0 0
0 0
0 0
0 0
0 0
0 0
0 0
0 0
0 0
0 0
0 0
0 0
0 0
0 0
0 0
0 0
0 0
0 0
0 0
0 0
0 0
0 0
0 0
0 0
0 0
0 0
0 0
0 0
0 0
0 0
0 0
0 0
0 0
0 0
0 0
0 0
0 0
0 0
0 0
0 0
0 0
0 0
0 0
0 0
0 0
0 0
0 0
0 0
0 0
0 0
0 0
0 0
0 0
0 0
0 0
0 0
0 0
0 0
0 0
0 0
0 0
0 0
0 0
0 0
0 0
0 0
0 0
0 0
0 0
0 0
0 0
0 0
0 0
0 0
0 0
0 0
0 0
0 0
0 0
0 0
0 0
0 0
0 0
0 0
0 0
0 0
0 0
0 0
0 0
0 0
0 0
0 0
0 0
0 0
0 0
0 0
0 0
0 0
0 0
0 0
0 0
0 0
0 0
0 0
0 0
0 0
0 0
0 0
0 0
0 0
0 0
0 0
0 0
0 0
0 0
0 0
0 0
0 0
0 0
0 0
0 0
0 0
0 0
0 0
0 0
0 0
0 0
0 0
0 0
0 0
0 0
0 0
0 0
0 0
0 0
0 0
0 0
0 0
0 0
0 0
0 0
0 0
0 0
0 0
0 0
0 0
0 0
0 0
0 0
0 0
0 0
0 0
0 0
0 0
0 0
0 0
0 0
0 0
0 0
0 0
0 0
0 0
0 0
0 0
0 0
0 0
0 0
0 0
0 0
0 0
0 0
0 0
0 0
0 0
0 0
0 0
0 0
0 0
0 0
0 0
0 0
0 0
0 0
0 0
0 0
0 0
0 0
0 0
0 0
0 0
0 0
0 0
0 0
0 0
0 0
0 0
0 0
0 0
0 0
0 0
0 0
0 0
0 0
0 0
0 0
0 0
0 0
0 0
0 0
0 0
0 0
0 0
0 0
0 0
0 0
0 0
0 0
0 0
0 0
0 0
0 0
0 0
0 0
0 0
0 0
0 0
0 0
0 0
0 0
0 0
0 0
0 0
0 0
0 0
0 0
0 0
0 0
0 0
0 0
0 0
0 0
0 0
0 0
0 0
0 0
0 0
0 0
0 0
0 0
0 0
0 0
0 0
0 0
0 0
0 0
0 0
0 0
0 0
0 0
0 0
0 0
0 0
0 0
0 0
0 0
0 0
0 0
0 0
0 0
0 0
0 0
0 0
0 0
0 0
0 0
0 0
0 0
0 0
0 0
0 0
0 0
0 0
0 0
0 0
0 0
0 0
0 0
0 0
0 0
0 0
0 0
0 0
0 0
0 0
0 0
0 0
0 0
0 0
0 0
0 0
0 0
0 0
0 0
0 0
0 0
0 0
0 0
0 0
0 0
0 0
0 0
0 0
0 0
0 0
0 0
0 0
0 0
0 0
0 0
0 0
0 0
0 0
0 0
0 0
0 0
0 0
0 0
0 0
0 0
0 0
0 0
0 0
0 0
0 0
0 0
0 0
0 0
0 0
0 0
0 0
0 0
0 0
0 0
0 0
0 0
0 0
0 0
0 0
0 0
0 0
0 0
0 0
0 0
0 0
0 0
0 0
0 0
0 0
0 0
0 0
0 0
0 0
0 0
0 0
0 0
0 0
0 0
0 0
0 0
0 0
0 0
0 0
0 0
0 0
0 0
0 0
0 0
0 0
0 0
0 0
0 0
0 0
0 0
0 0
0 0
0 0
0 0
0 0
0 0
0 0
0 0
0 0
0 0
0 0
0 0
0 0
0 0
0 0
0 0
0 0
0 0
0 0
0 0
0 0
0 0
0 0
0 0
0 0
0 0
0 0
0 0
0 0
0 0
0 0
0 0
0 0
0 0
0 0
0 0
0 0
0 0
0 0
0 0
0 0
0 0
0 0
0 0
0 0
0 0
0 0
0 0
0 0
0 0
0 0
0 0
0 0
0 0
0 0
0 0
0 0
0 0
0 0
0 0
0 0
0 0
0 0
0 0
0 0
0 0
0 0
0 0
0 0
0 0
0 0
0 0
0 0
0 0
0 0
0 0
0 0
0 0
0 0
0 0
0 0
0 0
0 0
0 0
0 0
0 0
0 0
0 0
0 0
0 0
0 0
0 0
0 0
0 0
0 0
0 0
0 0
0 0
0 0
0 0
0 0
0 0
0 0
0 0
0 0
0 0
0 0
0 0
0 0
0 0
0 0
0 0
0 0
0 0
0 0
0 0
0 0
0 0
0 0
0 0
0 0
0 0
0 0
0 0
0 0
0 0
0 0
0 0
0 0
0 0
0 0
0 0
0 0
0 0
0 0
0 0
0 0
0 0
0 0
0 0
0 0
0 0
0 0
0 0
0 0
0 0
0 0
0 0
0 0
0 0
0 0
0 0
0 0
0 0
0 0
0 0
0 0
0 0
0 0
0 0
0 0
0 0
0 0
0 0
0 0
0 0
0 0
0 0
0 0
0 0
0 0
0 0
0 0
0 0
0 0
0 0
0 0
0 0
0 0
0 0
0 0
0 0
0 0
0 0
0 0
0 0
0 0
0 0
0 0
0 0
0 0
0 0
0 0
0 0
0 0
0 0
0 0
0 0
0 0
0 0
0 0
0 0
0 0
0 0
0 0
0 0
0 0
0 0
0 0
0 0
0 0
0 0
0 0
0 0
0 0
0 0
0 0
0 0
0 0
0 0
0 0
0 0
0 0
0 0
0 0
0 0
0 0
0 0
0 0
0 0
0 0
0 0
0 0
0 0
0 0
0 0
0 0
0 0
0 0
0 0
0 0
0 0
0 0
0 0
0 0
0 0
0 0
0 0
0 0
0 0
0 0
0 0
0 0
0 0
0 0
0 0
0 0
0 0
0 0
0 0
0 0
0 0
0 0
0 0
0 0
0 0
0 0
0 0
0 0
0 0
0 0
0 0
0 0
0 0
0 0
0 0
0 0
0 0
0 0
0 0
0 0
0 0
0 0
0 0
0 0
0 0
0 0
0 0
0 0
0 0
0 0
0 0
0 0
0 0
0 0
0 0
0 0
0 0
0 0
0 0
0 0
0 0
0 0
0 0
0 0
0 0
0 0
0 0
0 0
0 0
0 0
0 0
0 0
0 0
0 0
0 0
0 0
0 0
0 0
0 0
0 0
0 0
0 0
0 0
0 0
0 0
0 0
0 0
0 0
0 0
0 0
0 0
0 0
0 0
0 0
0 0
0 0
0 0
0 0
0 0
0 0
0 0
0 0
0 0
0 0
0 0
0 0
0 0
0 0
0 0
0 0
0 0
0 0
0 0
0 0
0 0
0 0
0 0
0 0
0 0
0 0
0 0
0 0
0 0
0 0
0 0
0 0
0 0
0 0
0 0
0 0
0 0
0 0
0 0
0 0
0 0
0 0
0 0
0 0
0 0
0 0
0 0
0 0
0 0
0 0
0 0
0 0
0 0
0 0
0 0
0 0
0 0
0 0
0 0
0 0
0 0
0 0
0 0
0 0
0 0
0 0
0 0
0 0
0 0
0 0
0 0
0 0
0 0
0 0
0 0
0 0
0 0
0 0
0 0
0 0
0 0
0 0
0 0
0 0
0 0
0 0
0 0
0 0
0 0
0 0
0 0
0 0
0 0
0 0
0 0
0 0
0 0
0 0
0 0
0 0
0 0
0 0
0 0
0 0
0 0
0 0
0 0
0 0
0 0
0 0
0 0
0 0
0 0
0 0
0 0
0 0
0 0
0 0
0 0
0 0
0 0
0 0
0 0
0 0
0 0
0 0
0 0
0 0
0 0
0 0
0 0
0 0
0 0
0 0
0 0
0 0
0 0
0 0
0 0
0 0
0 0
0 0
0 0
0 0
0 0
0 0
0 0
0 0
0 0
0 0
0 0
0 0
0 0
0 0
0 0
0 0
0 0
0 0
0 0
0 0
0 0
0 0
0 0
0 0
0 0
0 0
0 0
0 0
0 0
0 0
0 0
0 0
0 0
0 0
0 0
0 0
0 0
0 0
0 0
0 0
0 0
0 0
0 0
0 0
0 0
0 0
0 0
0 0
0 0
0 0
0 0
0 0
0 0
0 0
0 0
0 0
0 0
0 0
0 0
0 0
0 0
0 0
0 0
0 0
0 0
0 0
0 0
0 0
0 0
0 0
0 0
0 0
0 0
0 0
0 0
0 0
0 0
0 0
0 0
0 0
0 0
0 0
0 0
0 0
0 0
0 0
0 0
0 0
0 0
0 0
0 0
0 0
0 0
0 0
0 0
0 0
0 0
0 0
0 0
0 0
0 0
0 0
0 0
0 0
0 0
0 0
0 0
0 0
0 0
0 0
0 0
0 0
0 0
0 0
0 0
0 0
0 0
0 0
0 0
0 0
0 0
0 0
0 0
0 0
0 0
0 0
0 0
0 0
0 0
0 0
0 0
0 0
0 0
0 0
0 0
0 0
0 0
0 0
0 0
0 0
0 0
0 0
0 0
0 0
0 0
0 0
0 0
0 0
0 0
0 0
0 0
0 0
0 0
0 0
0 0
0 0
0 0
0 0
0 0
0 0
0 0
0 0
0 0
0 0
0 0
0 0
0 0
0 0
0 0
0 0
0 0
0 0
0 0
0 0
0 0
0 0
0 0
0 0
0 0
0 0
0 0
0 0
0 0
0 0
0 0
0 0
0 0
0 0
0 0
0 0
0 0
0 0
0 0
0 0
0 0
0 0
0 0
0 0
0 0
0 0
0 0
0 0
0 0
0 0
0 0
0 0
0 0
0 0
0 0
0 0
0 0
0 0
0 0
0 0
0 0
0 0
0 0
0 0
0 0
0 0
0 0
0 0
0 0
0 0
0 0
0 0
0 0
0 0
0 0
0 0
0 0
0 0
0 0
0 0
0 0
0 0
0 0
0 0
0 0
0 0
0 0
0 0
0 0
0 0
0 0
0 0
0 0
0 0
0 0
0 0
0 0
0 0
0 0
0 0
0 0
0 0
0 0
0 0
0 0
0 0
0 0
0 0
0 0
0 0
0 0
0 0
0 0
0 0
0 0
0 0
0 0
0 0
0 0
0 0
0 0
0 0
0 0
0 0
0 0
0 0
0 0
0 0
0 0
0 0
0 0
0 0
0 0
0 0
0 0
0 0
0 0
0 0
0 0
0 0
0 0
0 0
0 0
0 0
0 0
0 0
0 0
0 0
0 0
0 0
0 0
0 0
0 0
0 0
0 0
0 0
0 0
0 0
0 0
0 0
0 0
0 0
0 0
0 0
0 0
0 0
0 0
0 0
0 0
0 0
0 0
0 0
0 0
0 0
0 0
0 0
0 0
0 0
0 0
0 0
0 0
0 0
0 0
0 0
0 0
0 0
0 0
0 0
0 0
0 0
0 0
0 0
0 0
0 0
0 0
0 0
0 0
0 0
0 0
0 0
0 0
0 0
0 0
0 0
0 0
0 0
0 0
0 0
0 0
0 0
0 0
0 0
0 0
0 0
0 0
0 0
0 0
0 0
0 0
0 0
0 0
0 0
0 0
0 0
0 0
0 0
0 0
0 0
0 0
0 0
0 0
0 0
0 0
0 0
0 0
0 0
0 0
0 0
0 0
0 0
0 0
0 0
0 0
0 0
0 0
0 0
0 0
0 0
0 0
0 0
0 0
0 0
0 0
0 0
0 0
0 0
0 0
0 0
0 0
0 0
0 0
0 0
0 0
0 0
0 0
0 0
0 0
0 0
0 0
0 0
0 0
0 0
0 0
0 0
0 0
0 0
0 0
0 0
0 0
0 0
0 0
0 0
0 0
0 0
0 0
0 0
0 0
0 0
0 0
0 0
0 0
0 0
0 0
0 0
0 0
0 0
0 0
0 0
0 0
0 0
0 0
0 0
0 0
0 0
0 0
0 0
0 0
0 0
0 0
0 0
0 0
0 0
0 0
0 0
0 0
0 0
0 0
0 0
0 0
0 0
0 0
0 0
0 0
0 0
0 0
0 0
0 0
0 0
0 0
0 0
0 0
0 0
0 0
0 0
0 0
0 0
0 0
0 0
0 0
0 0
0 0
0 0
0 0
0 0
0 0
0 0
0 0
0 0
0 0
0 0
0 0
0 0
0 0
0 0
0 0
0 0
0 0
0 0
0 0
0 0
0 0
0 0
0 0
0 0
0 0
0 0
0 0
0 0
0 0
0 0
0 0
0 0
0 0
0 0
0 0
0 0
0 0
0 0
0 0
0 0
0 0
0 0
0 0
0 0
0 0
0 0
0 0
0 0
0 0
0 0
0 0
0 0
0 0
0 0
0 0
0 0
0 0
0 0
0 0
0 0
0 0
0 0
0 0
0 0
0 0
0 0
0 0
0 0
0 0
0 0
0 0
0 0
0 0
0 0
0 0
0 0
0 0
0 0
0 0
0 0
0 0
0 0
0 0
0 0
0 0
0 0
0 0
0 0
0 0
0 0
0 0
0 0
0 0
0 0
0 0
0 0
0 0
0 0
0 0
0 0
0 0
0 0
0 0
0 0
0 0
0 0
0 0
0 0
0 0
0 0
0 0
0 0
0 0
0 0
0 0
0 0
0 0
0 0
0 0
0 0
0 0
0 0
0 0
0 0
0 0
0 0
0 0
0 0
0 0
0 0
0 0
0 0
0 0
0 0
0 0
0 0
0 0
0 0
0 0
0 0
0 0
0 0
0 0
0 0
0 0
0 0
0 0
0 0
0 0
0 0
0 0
0 0
0 0
0 0
0 0
0 0
0 0
0 0
0 0
0 0
0 0
0 0
0 0
0 0
0 0
0 0
0 0
0 0
0 0
0 0
0 0
0 0
0 0
0 0
0 0
0 0
0 0
0 0
0 0
0 0
0 0
0 0
0 0
0 0
0 0
0 0
0 0
0 0
0 0
0 0
0 0
0 0
0 0
0 0
0 0
0 0
0 0
0 0
0 0
0 0
0 0
0 0
0 0
0 0
0 0
0 0
0 0
0 0
0 0
0 0
0 0
0 0
0 0
0 0
0 0
0 0
0 0
0 0
0 0
0 0
0 0
0 0
0 0
0 0
0 0
0 0
0 0
0 0
0 0
0 0
0 0
0 0
0 0
0 0
0 0
0 0
0 0
0 0
0 0
0 0
0 0
0 0
0 0
0 0
0 0
0 0
0 0
0 0
0 0
0 0
0 0
0 0
0 0
0 0
0 0
0 0
0 0
0 0
0 0
0 0
0 0
0 0
0 0
0 0
0 0
0 0
0 0
0 0
0 0
0 0
0 0
0 0
0 0
0 0
0 0
0 0
0 0
0 0
0 0
0 0
0 0
0 0
0 0
0 0
0 0
0 0
0 0
0 0
0 0
0 0
0 0
0 0
0 0
0 0
0 0
0 0
0 0
0 0
0 0
0 0
0 0
0 0
0 0
0 0
0 0
0 0
0 0
0 0
0 0
0 0
0 0
0 0
0 0
0 0
0 0
0 0
0 0
0 0
0 0
0 0
0 0
0 0
0 0
0 0
0 0
0 0
0 0
0 0
0 0
0 0
0 0
0 0
0 0
0 0
0 0
0 0
0 0
0 0
0 0
0 0
0 0
0 0
0 0
0 0
0 0
0 0
0 0
0 0
0 0
0 0
0 0
0 0
0 0
0 0
0 0
0 0
0 0
0 0
0 0
0 0
0 0
0 0
0 0
0 0
0 0
0 0
0 0
0 0
0 0
0 0
0 0
0 0
0 0
0 0
0 0
0 0
0 0
0 0
0 0
0 0
0 0
0 0
0 0
0 0
0 0
0 0
0 0
0 0
0 0
0 0
0 0
0 0
0 0
0 0
0 0
0 0
0 0
0 0
0 0
0 0
0 0
0 0
0 0
0 0
0 0
0 0
0 0
0 0
0 0
0 0
0 0
0 0
0 0
0 0
0 0
0 0
0 0
0 0
0 0
0 0
0 0
0 0
0 0
0 0
0 0
0 0
0 0
0 0
0 0
0 0
0 0
0 0
0 0
0 0
0 0
0 0
0 0
0 0
0 0
0 0
0 0
0 0
0 0
0 0
0 0
0 0
0 0
0 0
0 0
0 0
0 0
0 0
0 0
0 0
0 0
0 0
0 0
0 0
0 0
0 0
0 0
0 0
0 0
0 0
0 0
0 0
0 0
0 0
0 0
0 0
0 0
0 0
0 0
0 0
0 0
0 0
0 0
0 0
0 0
0 0
0 0
0 0
0 0
0 0
0 0
0 0
0 0
0 0
0 0
0 0
0 0
0 0
0 0
0 0
0 0
0 0
0 0
0 0
0 0
0 0
0 0
0 0
0 0
0 0
0 0
0 0
0 0
0 0
0 0
0 0
0 0
0 0
0 0
0 0
0 0
0 0
0 0
0 0
0 0
0 0
0 0
0 0
0 0
0 0
0 0
0 0
0 0
0 0
0 0
0 0
0 0
0 0
0 0
0 0
0 0
0 0
0 0
0 0
0 0
0 0
0 0
0 0
0 0
0 0
0 0
0 0
0 0
0 0
0 0
0 0
0 0
0 0
0 0
0 0
0 0
0 0
0 0
0 0
0 0
0 0
0 0
0 0
0 0
0 0
0 0
0 0
0 0
0 0
0 0
0 0
0 0
0 0
0 0
0 0
0 0
0 0
0 0
0 0
0 0
0 0
0 0
0 0
0 0
0 0
0 0
0 0
0 0
0 0
0 0
0 0
0 0
0 0
0 0
0 0
0 0
0 0
0 0
0 0
0 0
0 0
0 0
0 0
0 0
0 0
0 0
0 0
0 0
0 0
0 0
0 0
0 0
0 0
0 0
0 0
0 0
0 0
0 0
0 0
0 0
0 0
0 0
0 0
0 0
0 0
0 0
0 0
0 0
0 0
0 0
0 0
0 0
0 0
0 0
0 0
0 0
0 0
0 0
0 0
0 0
0 0
0 0
0 0
0 0
0 0
0 0
0 0
0 0
0 0
0 0
0 0
0 0
0 0
0 0
0 0
0 0
0 0
0 0
0 0
0 0
0 0
0 0
0 0
0 0
0 0
0 0
0 0
0 0
0 0
0 0
0 0
0 0
0 0
0 0
0 0
0 0
0 0
0 0
0 0
0 0
0 0
0 0
0 0
0 0
0 0
0 0
0 0
0 0
0 0
0 0
0 0
0 0
0 0
0 0
0 0
0 0
0 0
0 0
0 0
0 0
0 0
0 0
0 0
0 0
0 0
0 0
0 0
0 0
0 0
0 0
0 0
0 0
0 0
0 0
0 0
0 0
0 0
0 0
0 0
0 0
0 0
0 0
0 0
0 0
0 0
0 0
0 0
0 0
0 0
0 0
0 0
0 0
0 0
0 0
0 0
0 0
0 0
0 0
0 0
0 0
0 0
0 0
0 0
0 0
0 0
0 0
0 0
0 0
0 0
0 0
0 0
0 0
0 0
0 0
0 0
0 0
0 0
0 0
0 0
0 0
0 0
0 0
0 0
0 0
0 0
0 0
0 0
0 0
0 0
0 0
0 0
0 0
0 0
0 0
0 0
0 0
0 0
0 0
0 0
0 0
0 0
0 0
0 0
0 0
0 0
0 0
0 0
0 0
0 0
0 0
0 0
0 0
0 0
0 0
0 0
0 0
0 0
0 0
0 0
0 0
0 0
0 0
0 0
0 0
0 0
0 0
0 0
0 0
0 0
0 0
0 0
0 0
0 0
0 0
0 0
0 0
0 0
0 0
0 0
0 0
0 0
0 0
0 0
0 0
0 0
0 0
0 0
0 0
0 0
0 0
0 0
0 0
0 0
0 0
0 0
0 0
0 0
0 0
0 0
0 0
0 0
0 0
0 0
0 0
0 0
0 0
0 0
0 0
0 0
0 0
0 0
0 0
0 0
0 0
0 0
0 0
0 0
0 0
0 0
0 0
0 0
0 0
0 0
0 0
0 0
0 0
0 0
0 0
0 0
0 0
0 0
0 0
0 0
0 0
0 0
0 0
0 0
0 0
0 0
0 0
0 0
0 0
0 0
0 0
0 0
0 0
0 0
0 0
0 0
0 0
0 0
0 0
0 0
0 0
0 0
0 0
0 0
0 0
0 0
0 0
0 0
0 0
0 0
0 0
0 0
0 0
0 0
0 0
0 0
0 0
0 0
0 0
0 0
0 0
0 0
0 0
0 0
0 0
0 0
0 0
0 0
0 0
0 0
0 0
0 0
0 0
0 0
0 0
0 0
0 0
0 0
0 0
0 0
0 0
0 0
0 0
0 0
0 0
0 0
0 0
0 0
0 0
0 0
0 0
0 0
0 0
0 0
0 0
0 0
0 0
0 0
0 0
0 0
0 0
0 0
0 0
0 0
0 0
0 0
0 0
0 0
0 0
0 0
0 0
0 0
0 0
0 0
0 0
0 0
0 0
0 0
0 0
0 0
0 0
0 0
0 0
0 0
0 0
0 0
0 0
0 0
0 0
0 0
0 0
0 0
0 0
0 0
0 0
0 0
0 0
0 0
0 0
0 0
0 0
0 0
0 0
0 0
0 0
0 0
0 0
0 0
0 0
0 0
0 0
0 0
0 0
0 0
0 0
0 0
0 0
0 0
0 0
0 0
0 0
0 0
0 0
0 0
0 0
0 0
0 0
0 0
0 0
0 0
0 0
0 0
0 0
0 0
0 0
0 0
0 0
0 0
0 0
0 0
0 0
0 0
0 0
0 0
0 0
0 0
0 0
0 0
0 0
0 0
0 0
0 0
0 0
0 0
0 0
0 0
0 0
0 0
0 0
0 0
0 0
0 0
0 0
0 0
0 0
0 0
0 0
0 0
0 0
0 0
0 0
0 0
0 0
0 0
0 0
0 0
0 0
0 0
0 0
0 0
0 0
0 0
0 0
0 0
0 0
0 0
0 0
0 0
0 0
0 0
0 0
0 0
0 0
0 0
0 0
0 0
0 0
0 0
0 0
0 0
0 0
0 0
0 0
0 0
0 0
0 0
0 0
0 0
0 0
0 0
0 0
0 0
0 0
0 0
0 0
0 0
0 0
0 0
0 0
0 0
0 0
0 0
0 0
0 0
0 0
0 0
0 0
0 0
0 0
0 0
0 0
0 0
0 0
0 0
0 0
0 0
0 0
0 0
0 0
0 0
0 0
0 0
0 0
0 0
0 0
0 0
0 0
0 0
0 0
0 0
0 0
0 0
0 0
0 0
0 0
0 0
0 0
0 0
0 0
0 0
0 0
0 0
0 0
0 0
0 0
0 0
0 0
0 0
0 0
0 0
0 0
0 0
0 0
0 0
0 0
0 0
0 0
0 0
0 0
0 0
0 0
0 0
0 0
0 0
0 0
0 0
0 0
0 0
0 0
0 0
0 0
0 0
0 0
0 0
0 0
0 0
0 0
0 0
0 0
0 0
0 0
0 0
0 0
0 0
0 0
0 0
0 0
0 0
0 0
0 0
0 0
0 0
0 0
0 0
0 0
0 0
0 0
0 0
0 0
0 0
0 0
0 0
0 0
0 0
0 0
0 0
0 0
0 0
0 0
0 0
0 0
0 0
0 0
0 0
0 0
0 0
0 0
0 0
0 0
0 0
0 0
0 0
0 0
0 0
0 0
0 0
0 0
0 0
0 0
0 0
0 0
0 0
0 0
0 0
0 0
0 0
0 0
0 0
0 0
0 0
0 0
0 0
0 0
0 0
0 0
0 0
0 0
0 0
0 0
0 0
0 0
0 0
0 0
0 0
0 0
0 0
0 0
0 0
0 0
0 0
0 0
0 0
0 0
0 0
0 0
0 0
0 0
0 0
0 0
0 0
0 0
0 0
0 0
0 0
0 0
0 0
0 0
0 0
0 0
0 0
0 0
0 0
0 0
0 0
0 0
0 0
0 0
0 0
0 0
0 0
0 0
0 0
0 0
0 0
0 0
0 0
0 0
0 0
0 0
0 0
0 0
0 0
0 0
0 0
0 0
0 0
0 0
0 0
0 0
0 0
0 0
0 0
0 0
0 0
0 0
0 0
0 0
0 0
0 0
0 0
0 0
0 0
0 0
0 0
0 0
0 0
0 0
0 0
0 0
0 0
0 0
0 0
0 0
0 0
0 0
0 0
0 0
0 0
0 0
0 0
0 0
0 0
0 0
0 0
0 0
0 0
0 0
0 0
0 0
0 0
0 0
0 0
0 0
0 0
0 0
0 0
0 0
0 0
0 0
0 0
0 0
0 0
0 0
0 0
0 0
0 0
0 0
0 0
0 0
0 0
0 0
0 0
0 0
0 0
0 0
0 0
0 0
0 0
0 0
0 0
0 0
0 0
0 0
0 0
0 0
0 0
0 0
0 0
0 0
0 0
0 0
0 0
0 0
0 0
0 0
0 0
0 0
0 0
0 0
0 0
0 0
0 0
0 0
0 0
0 0
0 0
0 0
0 0
0 0
0 0
0 0
0 0
0 0
0 0
0 0
0 0
0 0
0 0
0 0
0 0
0 0
0 0
0 0
0 0
0 0
0 0
0 0
0 0
0 0
0 0
0 0
0 0
0 0
0 0
0 0
0 0
0 0
0 0
0 0
0 0
0 0
0 0
0 0
0 0
0 0
0 0
0 0
0 0
0 0
0 0
0 0
0 0
0 0
0 0
0 0
0 0
0 0
0 0
0 0
0 0
0 0
0 0
0 0
0 0
0 0
0 0
0 0
0 0
0 0
0 0
0 0
0 0
0 0
0 0
0 0
0 0
0 0
0 0
0 0
0 0
0 0
0 0
0 0
0 0
0 0
0 0
0 0
0 0
0 0
0 0
0 0
0 0
0 0
0 0
0 0
0 0
0 0
0 0
0 0
0 0
0 0
0 0
0 0
0 0
0 0
0 0
0 0
0 0
0 0
0 0
0 0
0 0
0 0
0 0
0 0
0 0
0 0
0 0
0 0
0 0
0 0
0 0
0 0
0 0
0 0
0 0
0 0
0 0
0 0
0 0
0 0
0 0
0 0
0 0
0 0
0 0
0 0
0 0
0 0
0 0
0 0
0 0
0 0
0 0
0 0
0 0
0 0
0 0
0 0
0 0
0 0
0 0
0 0
0 0
0 0
0 0
0 0
0 0
0 0
0 0
0 0
0 0
0 0
0 0
0 0
0 0
0 0
0 0
0 0
0 0
0 0
0 0
0 0
0 0
0 0
0 0
0 0
0 0
0 0
0 0
0 0
0 0
0 0
0 0
0 0
0 0
0 0
0 0
0 0
0 0
0 0
0 0
0 0
0 0
0 0
0 0
0 0
0 0
0 0
0 0
0 0
0 0
0 0
0 0
0 0
0 0
0 0
0 0
0 0
0 0
0 0
0 0
0 0
0 0
0 0
0 0
0 0
0 0
0 0
0 0
0 0
0 0
0 0
0 0
0 0
0 0
0 0
0 0
0 0
0 0
0 0
0 0
0 0
0 0
0 0
0 0
0 0
0 0
0 0
0 0
0 0
0 0
0 0
0 0
0 0
0 0
0 0
0 0
0 0
0 0
0 0
0 0
0 0
0 0
0 0
0 0
0 0
0 0
0 0
0 0
0 0
0 0
0 0
0 0
0 0
0 0
0 0
0 0
0 0
0 0
0 0
0 0
0 0
0 0
0 0
0 0
0 0
0 0
0 0
0 0
0 0
0 0
0 0
0 0
0 0
0 0
0 0
0 0
0 0
0 0
0 0
0 0
0 0
0 0
0 0
0 0
0 0
0 0
0 0
0 0
0 0
0 0
0 0
0 0
0 0
0 0
0 0
0 0
0 0
0 0
0 0
0 0
0 0
0 0
0 0
0 0
0 0
0 0
0 0
0 0
0 0
0 0
0 0
0 0
0 0
0 0
0 0
0 0
0 0
0 0
0 0
0 0
0 0
0 0
0 0
0 0
0 0
0 0
0 0
0 0
0 0
0 0
0 0
0 0
0 0
0 0
0 0
0 0
0 0
0 0
0 0
0 0
0 0
0 0
0 0
0 0
0 0
0 0
0 0
0 0
0 0
0 0
0 0
0 0
0 0
0 0
0 0
0 0
0 0
0 0
0 0
0 0
0 0
0 0
0 0
0 0
0 0
0 0
0 0
0 0
0 0
0 0
0 0
0 0
0 0
0 0
0 0
0 0
0 0
0 0
0 0
0 0
0 0
0 0
0 0
0 0
0 0
0 0
0 0
0 0
0 0
0 0
0 0
0 0
0 0
0 0
0 0
0 0
0 0
0 0
0 0
0 0
0 0
0 0
0 0
0 0
0 0
0 0
0 0
0 0
0 0
0 0
0 0
0 0
0 0
0 0
0 0
0 0
0 0
0 0
0 0
0 0
0 0
0 0
0 0
0 0
0 0
0 0
0 0
0 0
0 0
0 0
0 0
0 0
0 0
0 0
0 0
0 0
0 0
0 0
0 0
0 0
0 0
0 0
0 0
0 0
0 0
0 0
0 0
0 0
0 0
0 0
0 0
0 0
0 0
0 0
0 0
0 0
0 0
0 0
0 0
0 0
0 0
0 0
0 0
0 0
0 0
0 0
0 0
0 0
0 0
0 0
0 0
0 0
0 0
0 0
0 0
0 0
0 0
0 0
0 0
0 0
0 0
0 0
0 0
0 0
0 0
0 0
0 0
0 0
0 0
0 0
0 0
0 0
0 0
0 0
0 0
0 0
0 0
0 0
0 0
0 0
0 0
0 0
0 0
0 0
0 0
0 0
0 0
0 0
0 0
0 0
0 0
0 0
0 0
0 0
0 0
0 0
0 0
0 0
0 0
0 0
0 0
0 0
0 0
0 0
0 0
0 0
0 0
0 0
0 0
0 0
0 0
0 0
0 0
0 0
0 0
0 0
0 0
0 0
0 0
0 0
0 0
0 0
0 0
0 0
0 0
0 0
0 0
0 0
0 0
0 0
0 0
0 0
0 0
0 0
0 0
0 0
0 0
0 0
0 0
0 0
0 0
0 0
0 0
0 0
0 0
0 0
0 0
0 0
0 0
0 0
0 0
0 0
0 0
0 0
0 0
0 0
0 0
0 0
0 0
0 0
0 0
0 0
0 0
0 0
0 0
0 0
0 0
0 0
0 0
0 0
0 0
0 0
0 0
0 0
0 0
0 0
0 0
0 0
0 0
0 0
0 0
0 0
0 0
0 0
0 0
0 0
0 0
0 0
0 0
0 0
0 0
0 0
0 0
0 0
0 0
0 0
0 0
0 0
0 0
0 0
0 0
0 0
0 0
0 0
0 0
0 0
0 0
0 0
0 0
0 0
0 0
0 0
0 0
0 0
0 0
0 0
0 0
0 0
0 0
0 0
0 0
0 0
0 0
0 0
0 0
0 0
0 0
0 0
0 0
0 0
0 0
0 0
0 0
0 0
0 0
0 0
0 0
0 0
0 0
0 0
0 0
0 0
0 0
0 0
0 0
0 0
0 0
0 0
0 0
0 0
0 0
0 0
0 0
0 0
0 0
0 0
0 0
0 0
0 0
0 0
0 0
0 0
0 0
0 0
0 0
0 0
0 0
0 0
0 0
0 0
0 0
0 0
0 0
0 0
0 0
0 0
0 0
0 0
0 0
0 0
0 0
0 0
0 0
0 0
0 0
0 0
0 0
0 0
0 0
0 0
0 0
0 0
0 0
0 0
0 0
0 0
0 0
0 0
0 0
0 0
0 0
0 0
0 0
0 0
0 0
0 0
0 0
0 0
0 0
0 0
0 0
0 0
0 0
0 0
0 0
0 0
0 0
0 0
0 0
0 0
0 0
0 0
0 0
0 0
0 0
0 0
0 0
0 0
0 0
0 0
0 0
0 0
0 0
0 0
0 0
0 0
0 0
0 0
0 0
0 0
0 0
0 0
0 0
0 0
0 0
0 0
0 0
0 0
0 0
0 0
0 0
0 0
0 0
0 0
0 0
0 0
0 0
0 0
0 0
0 0
0 0
0 0
0 0
0 0
0 0
0 0
0 0
0 0
0 0
0 0
0 0
0 0
0 0
0 0
0 0
0 0
0 0
0 0
0 0
0 0
0 0
0 0
0 0
0 0
0 0
0 0
0 0
0 0
0 0
0 0
0 0
0 0
0 0
0 0
0 0
0 0
0 0
0 0
0 0
0 0
0 0
0 0
0 0
0 0
0 0
0 0
0 0
0 0
0 0
0 0
0 0
0 0
0 0
0 0
0 0
0 0
0 0
0 0
0 0
0 0
0 0
0 0
0 0
0 0
0 0
0 0
0 0
0 0
0 0
0 0
0 0
0 0
0 0
0 0
0 0
0 0
0 0
0 0
0 0
0 0
0 0
0 0
0 0
0 0
0 0
0 0
0 0
0 0
0 0
0 0
0 0
0 0
0 0
0 0
0 0
0 0
0 0
0 0
0 0
0 0
0 0
0 0
0 0
0 0
0 0
0 0
0 0
0 0
0 0
0 0
0 0
0 0
0 0
0 0
0 0
0 0
0 0
0 0
0 0
0 0
0 0
0 0
0 0
0 0
0 0
0 0
0 0
0 0
0 0
0 0
0 0
0 0
0 0
0 0
0 0
0 0
0 0
0 0
0 0
0 0
0 0
0 0
0 0
0 0
0 0
0 0
0 0
0 0
0 0
0 0
0 0
0 0
0 0
0 0
0 0
0 0
0 0
0 0
0 0
0 0
0 0
0 0
0 0
0 0
0 0
0 0
0 0
0 0
0 0
0 0
0 0
0 0
0 0
0 0
0 0
0 0
0 0
0 0
0 0
0 0
0 0
0 0
0 0
0 0
0 0
0 0
0 0
0 0
0 0
0 0
0 0
0 0
0 0
0 0
0 0
0 0
0 0
0 0
0 0
0 0
0 0
0 0
0 0
0 0
0 0
0 0
0 0
0 0
0 0
0 0
0 0
0 0
0 0
0 0
0 0
0 0
0 0
0 0
0 0
0 0
0 0
0 0
0 0
0 0
0 0
0 0
0 0
0 0
0 0
0 0
0 0
0 0
0 0
0 0
0 0
0 0
0 0
0 0
0 0
0 0
0 0
0 0
0 0
0 0
0 0
0 0
0 0
0 0
0 0
0 0
0 0
0 0
0 0
0 0
0 0
0 0
0 0
0 0
0 0
0 0
0 0
0 0
0 0
0 0
0 0
0 0
0 0
0 0
0 0
0 0
0 0
0 0
0 0
0 0
0 0
0 0
0 0
0 0
0 0
0 0
0 0
0 0
0 0
0 0
0 0
0 0
0 0
0 0
0 0
0 0
0 0
0 0
0 0
0 0
0 0
0 0
0 0
0 0
0 0
0 0
0 0
0 0
0 0
0 0
0 0
0 0
0 0
0 0
0 0
0 0
0 0
0 0
0 0
0 0
0 0
0 0
0 0
0 0
0 0
0 0
0 0
0 0
0 0
0 0
0 0
0 0
0 0
0 0
0 0
0 0
0 0
0 0
0 0
0 0
0 0
0 0
0 0
0 0
0 0
0 0
0 0
0 0
0 0
0 0
0 0
0 0
0 0
0 0
0 0
0 0
0 0
0 0
0 0
0 0
0 0
0 0
0 0
0 0
0 0
0 0
0 0
0 0
0 0
0 0
0 0
0 0
0 0
0 0
0 0
0 0
0 0
0 0
0 0
0 0
0 0
0 0
0 0
0 0
0 0
0 0
0 0
0 0
0 0
0 0
0 0
0 0
0 0
0 0
0 0
0 0
0 0
0 0
0 0
0 0
0 0
0 0
0 0
0 0
0 0
0 0
0 0
0 0
0 0
0 0
0 0
0 0
0 0
0 0
0 0
0 0
0 0
0 0
0 0
0 0
0 0
0 0
0 0
0 0
0 0
0 0
0 0
0 0
0 0
0 0
0 0
0 0
0 0
0 0
0 0
0 0
0 0
0 0
0 0
0 0
0 0
0 0
0 0
0 0
0 0
0 0
0 0
0 0
0 0
0 0
0 0
0 0
0 0
0 0
0 0
0 0
0 0
0 0
0 0
0 0
0 0
0 0
0 0
0 0
0 0
0 0
0 0
0 0
0 0
0 0
0 0
0 0
0 0
0 0
0 0
0 0
0 0
0 0
0 0
0 0
0 0
0 0
0 0
0 0
0 0
0 0
0 0
0 0
0 0
0 0
0 0
0 0
0 0
0 0
0 0
0 0
0 0
0 0
0 0
0 0
0 0
0 0
0 0
0 0
0 0
0 0
0 0
0 0
0 0
0 0
0 0
0 0
0 0
0 0
0 0
0 0
0 0
0 0
0 0
0 0
0 0
0 0
0 0
0 0
0 0
0 0
0 0
0 0
0 0
0 0
0 0
0 0
0 0
0 0
0 0
0 0
0 0
0 0
0 0
0 0
0 0
0 0
0 0
0 0
0 0
0 0
0 0
0 0
0 0
0 0
0 0
0 0
0 0
0 0
0 0
0 0
0 0
0 0
0 0
0 0
0 0
0 0
0 0
0 0
0 0
0 0
0 0
0 0
0 0
0 0
0 0
0 0
0 0
0 0
0 0
0 0
0 0
0 0
0 0
0 0
0 0
0 0
0 0
0 0
0 0
0 0
0 0
0 0
0 0
0 0
0 0
0 0
0 0
0 0
0 0
0 0
0 0
0 0
0 0
0 0
0 0
0 0
0 0
0 0
0 0
0 0
0 0
0 0
0 0
0 0
0 0
0 0
0 0
0 0
0 0
0 0
0 0
0 0
0 0
0 0
0 0
0 0
0 0
0 0
0 0
0 0
0 0
0 0
0 0
0 0
0 0
0 0
0 0
0 0
0 0
0 0
0 0
0 0
0 0
0 0
0 0
0 0
0 0
0 0
0 0
0 0
0 0
0 0
0 0
0 0
0 0
0 0
0 0
0 0
0 0
0 0
0 0
0 0
0 0
0 0
0 0
0 0
0 0
0 0
0 0
0 0
0 0
0 0
0 0
0 0
0 0
0 0
0 0
0 0
0 0
0 0
0 0
0 0
0 0
0 0
0 0
0 0
0 0
0 0
0 0
0 0
0 0
0 0
0 0
0 0
0 0
0 0
0 0
0 0
0 0
0 0
0 0
0 0
0 0
0 0
0 0
0 0
0 0
0 0
0 0
0 0
0 0
0 0
0 0
0 0
0 0
0 0
0 0
0 0
0 0
0 0
0 0
0 0
0 0
0 0
0 0
0 0
0 0
0 0
0 0
0 0
0 0
0 0
0 0
0 0
0 0
0 0
0 0
0 0
0 0
0 0
0 0
0 0
0 0
0 0
0 0
0 0
0 0
0 0
0 0
0 0
0 0
0 0
0 0
0 0
0 0
0 0
0 0
0 0
0 0
0 0
0 0
0 0
0 0
0 0
0 0
0 0
0 0
0 0
0 0
0 0
0 0
0 0
0 0
0 0
0 0
0 0
0 0
0 0
0 0
0 0
0 0
0 0
0 0
0 0
0 0
0 0
0 0
0 0
0 0
0 0
0 0
0 0
0 0
0 0
0 0
0 0
0 0
0 0
0 0
0 0
0 0
0 0
0 0
0 0
0 0
0 0
0 0
0 0
0 0
0 0
0 0
0 0
0 0
0 0
0 0
0 0
0 0
0 0
0 0
0 0
0 0
0 0
0 0
0 0
0 0
0 0
0 0
0 0
0 0
0 0
0 0
0 0
0 0
0 0
0 0
0 0
0 0
0 0
0 0
0 0
0 0
0 0
0 0
0 0
0 0
0 0
0 0
0 0
0 0
0 0
0 0
0 0
0 0
0 0
0 0
0 0
0 0
0 0
0 0
0 0
0 0
0 0
0 0
0 0
0 0
0 0
0 0
0 0
0 0
0 0
0 0
0 0
0 0
0 0
0 0
0 0
0 0
0 0
0 0
0 0
0 0
0 0
0 0
0 0
0 0
0 0
0 0
0 0
0 0
0 0
0 0
0 0
0 0
0 0
0 0
0 0
0 0
0 0
0 0
0 0
0 0
0 0
0 0
0 0
0 0
0 0
0 0
0 0
0 0
0 0
0 0
0 0
0 0
0 0
0 0
0 0
0 0
0 0
0 0
0 0
0 0
0 0
0 0
0 0
0 0
0 0
0 0
0 0
0 0
0 0
0 0
0 0
0 0
0 0
0 0
0 0
0 0
0 0
0 0
0 0
0 0
0 0
0 0
0 0
0 0
0 0
0 0
0 0
0 0
0 0
0 0
0 0
0 0
0 0
0 0
0 0
0 0
0 0
0 0
0 0
0 0
0 0
0 0
0 0
0 0
0 0
0 0
0 0
0 0
0 0
0 0
0 0
0 0
0 0
0 0
0 0
0 0
0 0
0 0
0 0
0 0
0 0
0 0
0 0
0 0
0 0
0 0
0 0
0 0
0 0
0 0
0 0
0 0
0 0
0 0
0 0
0 0
0 0
0 0
0 0
0 0
0 0
0 0
0 0
0 0
0 0
0 0
0 0
0 0
0 0
0 0
0 0
0 0
0 0
0 0
0 0
0 0
0 0
0 0
0 0
0 0
0 0
0 0
0 0
0 0
0 0
0 0
0 0
0 0
0 0
0 0
0 0
0 0
0 0
0 0
0 0
0 0
0 0
0 0
0 0
0 0
0 0
0 0
0 0
0 0
0 0
0 0
0 0
0 0
0 0
0 0
0 0
0 0
0 0
0 0
0 0
0 0
0 0
0 0
0 0
0 0
0 0
0 0
0 0
0 0
0 0
0 0
0 0
0 0
0 0
0 0
0 0
0 0
0 0
0 0
0 0
0 0
0 0
0 0
0 0
0 0
0 0
0 0
0 0
0 0
0 0
0 0
0 0
0 0
0 0
0 0
0 0
0 0
0 0
0 0
0 0
0 0
0 0
0 0
0 0
0 0
0 0
0 0
0 0
0 0
0 0
0 0
0 0
0 0
0 0
0 0
0 0
0 0
0 0
0 0
0 0
0 0
0 0
0 0
0 0
0 0
0 0
0 0
0 0
0 0
0 0
0 0
0 0
0 0
0 0
0 0
0 0
0 0
0 0
0 0
0 0
0 0
0 0
0 0
0 0
0 0
0 0
0 0
0 0
0 0
0 0
0 0
0 0
0 0
0 0
0 0
0 0
0 0
0 0
0 0
0 0
0 0
0 0
0 0
0 0
0 0
0 0
0 0
0 0
0 0
0 0
0 0
0 0
0 0
0 0
0 0
0 0
0 0
0 0
0 0
0 0
0 0
0 0
0 0
0 0
0 0
0 0
0 0
0 0
0 0
0 0
0 0
0 0
0 0
0 0
0 0
0 0
0 0
0 0
0 0
0 0
0 0
0 0
0 0
0 0
0 0
0 0
0 0
0 0
0 0
0 0
0 0
0 0
0 0
0 0
0 0
0 0
0 0
0 0
0 0
0 0
0 0
0 0
0 0
0 0
0 0
0 0
0 0
0 0
0 0
0 0
0 0
0 0
0 0
0 0
0 0
0 0
0 0
0 0
0 0
0 0
0 0
0 0
0 0
0 0
0 0
0 0
0 0
0 0
0 0
0 0
0 0
0 0
0 0
0 0
0 0
0 0
0 0
0 0
0 0
0 0
0 0
0 0
0 0
0 0
0 0
0 0
0 0
0 0
0 0
0 0
0 0
0 0
0 0
0 0
0 0
0 0
0 0
0 0
0 0
0 0
0 0
0 0
0 0
0 0
0 0
0 0
0 0
0 0
0 0
0 0
0 0
0 0
0 0
0 0
0 0
0 0
0 0
0 0
0 0
0 0
0 0
0 0
0 0
0 0
0 0
0 0
0 0
0 0
0 0
0 0
0 0
0 0
0 0
0 0
0 0
0 0
0 0
0 0
0 0
0 0
0 0
0 0
0 0
0 0
0 0
0 0
0 0
0 0
0 0
0 0
0 0
0 0
0 0
0 0
0 0
0 0
0 0
0 0
0 0
0 0
0 0
0 0
0 0
0 0
0 0
0 0
0 0
0 0
0 0
0 0
0 0
0 0
0 0
0 0
0 0
0 0
0 0
0 0
0 0
0 0
0 0
0 0
0 0
0 0
0 0
0 0
0 0
0 0
0 0
0 0
0 0
0 0
0 0
0 0
0 0
0 0
0 0
0 0
0 0
0 0
0 0
0 0
0 0
0 0
0 0
0 0
0 0
0 0
0 0
0 0
0 0
0 0
0 0
0 0
0 0
0 0
0 0
0 0
0 0
0 0
0 0
0 0
0 0
0 0
0 0
0 0
0 0
0 0
0 0
0 0
0 0
0 0
0 0
0 0
0 0
0 0
0 0
0 0
0 0
0 0
0 0
0 0
0 0
0 0
0 0
0 0
0 0
0 0
0 0
0 0
0 0
0 0
0 0
0 0
0 0
0 0
0 0
0 0
0 0
0 0
0 0
0 0
0 0
0 0
0 0
0 0
0 0
0 0
0 0
0 0
0 0
0 0
0 0
0 0
0 0
0 0
0 0
0 0
0 0
0 0
0 0
0 0
0 0
0 0
0 0
0 0
0 0
0 0
0 0
0 0
0 0
0 0
0 0
0 0
0 0
0 0
0 0
0 0
0 0
0 0
0 0
0 0
0 0
0 0
0 0
0 0
0 0
0 0
0 0
0 0
0 0
0 0
0 0
0 0
0 0
0 0
0 0
0 0
0 0
0 0
0 0
0 0
0 0
0 0
0 0
0 0
0 0
0 0
0 0
0 0
0 0
0 0
0 0
0 0
0 0
0 0
0 0
0 0
0 0
0 0
0 0
0 0
0 0
0 0
0 0
0 0
0 0
0 0
0 0
0 0
0 0
0 0
0 0
0 0
0 0
0 0
0 0
0 0
0 0
0 0
0 0
0 0
0 0
0 0
0 0
0 0
0 0
0 0
0 0
0 0
0 0
0 0
0 0
0 0
0 0
0 0
0 0
0 0
0 0
0 0
0 0
0 0
0 0
0 0
0 0
0 0
0 0
0 0
0 0
0 0
0 0
0 0
0 0
0 0
0 0
0 0
0 0
0 0
0 0
0 0
0 0
0 0
0 0
0 0
0 0
0 0
0 0
0 0
0 0
0 0
0 0
0 0
0 0
0 0
0 0
0 0
0 0
0 0
0 0
0 0
0 0
0 0
0 0
0 0
0 0
0 0
0 0
0 0
0 0
0 0
0 0
0 0
0 0
0 0
0 0
0 0
0 0
0 0
0 0
0 0
0 0
0 0
0 0
0 0
0 0
0 0
0 0
0 0
0 0
0 0
0 0
0 0
0 0
0 0
0 0
0 0
0 0
0 0
0 0
0 0
0 0
0 0
0 0
0 0
0 0
0 0
0 0
0 0
0 0
0 0
0 0
0 0
0 0
0 0
0 0
0 0
0 0
0 0
0 0
0 0
0 0
0 0
0 0
0 0
0 0
0 0
0 0
0 0
0 0
0 0
0 0
0 0
0 0
0 0
0 0
0 0
0 0
0 0
0 0
0 0
0 0
0 0
0 0
0 0
0 0
0 0
0 0
0 0
0 0
0 0
0 0
0 0
0 0
0 0
0 0
0 0
0 0
0 0
0 0
0 0
0 0
0 0
0 0
0 0
0 0
0 0
0 0
0 0
0 0
0 0
0 0
0 0
0 0
0 0
0 0
0 0
0 0
0 0
0 0
0 0
0 0
0 0
0 0
0 0
0 0
0 0
0 0
0 0
0 0
0 0
0 0
0 0
0 0
0 0
0 0
0 0
0 0
0 0
0 0
0 0
0 0
0 0
0 0
0 0
0 0
0 0
0 0
0 0
0 0
0 0
0 0
0 0
0 0
0 0
0 0
0 0
0 0
0 0
0 0
0 0
0 0
0 0
0 0
0 0
0 0
0 0
0 0
0 0
0 0
0 0
0 0
0 0
0 0
0 0
0 0
0 0
0 0
0 0
0 0
0 0
0 0
0 0
0 0
0 0
0 0
0 0
0 0
0 0
0 0
0 0
0 0
0 0
0 0
0 0
0 0
0 0
0 0
0 0
0 0
0 0
0 0
0 0
0 0
0 0
0 0
0 0
0 0
0 0
0 0
0 0
0 0
0 0
0 0
0 0
0 0
0 0
0 0
0 0
0 0
0 0
0 0
0 0
0 0
0 0
0 0
0 0
0 0
0 0
0 0
0 0
0 0
0 0
0 0
0 0
0 0
0 0
0 0
0 0
0 0
0 0
0 0
0 0
0 0
0 0
0 0
0 0
0 0
0 0
0 0
0 0
0 0
0 0
0 0
0 0
0 0
0 0
0 0
0 0
0 0
0 0
0 0
0 0
0 0
0 0
0 0
0 0
0 0
0 0
0 0
0 0
0 0
0 0
0 0
0 0
0 0
0 0
0 0
0 0
0 0
0 0
0 0
0 0
0 0
0 0
0 0
0 0
0 0
0 0
0 0
0 0
0 0
0 0
0 0
0 0
0 0
0 0
0 0
0 0
0 0
0 0
0 0
0 0
0 0
0 0
0 0
0 0
0 0
0 0
0 0
0 0
0 0
0 0
0 0
0 0
0 0
0 0
0 0
0 0
0 0
0 0
0 0
0 0
0 0
0 0
0 0
0 0
0 0
0 0
0 0
0 0
0 0
0 0
0 0
0 0
0 0
0 0
0 0
0 0
0 0
0 0
0 0
0 0
0 0
0 0
0 0
0 0
0 0
0 0
0 0
0 0
0 0
0 0
0 0
0 0
0 0
0 0
0 0
0 0
0 0
0 0
0 0
0 0
0 0
0 0
0 0
0 0
0 0
0 0
0 0
0 0
0 0
0 0
0 0
0 0
0 0
0 0
0 0
0 0
0 0
0 0
0 0
0 0
0 0
0 0
0 0
0 0
0 0
0 0
0 0
0 0
0 0
0 0
0 0
0 0
0 0
0 0
0 0
0 0
0 0
0 0
0 0
0 0
0 0
0 0
0 0
0 0
0 0
0 0
0 0
0 0
0 0
0 0
0 0
0 0
0 0
0 0
0 0
0 0
0 0
0 0
0 0
0 0
0 0
0 0
0 0
0 0
0 0
0 0
0 0
0 0
0 0
0 0
0 0
0 0
0 0
0 0
0 0
0 0
0 0
0 0
0 0
0 0
0 0
0 0
0 0
0 0
0 0
0 0
0 0
0 0
0 0
0 0
0 0
0 0
0 0
0 0
0 0
0 0
0 0
0 0
0 0
0 0
0 0
0 0
0 0
0 0
0 0
0 0
0 0
0 0
0 0
0 0
0 0
0 0
0 0
0 0
0 0
0 0
0 0
0 0
0 0
0 0
0 0
0 0
0 0
0 0
0 0
0 0
0 0
0 0
0 0
0 0
0 0
0 0
0 0
0 0
0 0
0 0
0 0
0 0
0 0
0 0
0 0
0 0
0 0
0 0
0 0
0 0
0 0
0 0
0 0
0 0
0 0
0 0
0 0
0 0
0 0
0 0
0 0
0 0
0 0
0 0
0 0
0 0
0 0
0 0
0 0
0 0
0 0
0 0
0 0
0 0
0 0
0 0
0 0
0 0
0 0
0 0
0 0
0 0
0 0
0 0
0 0
0 0
0 0
0 0
0 0
0 0
0 0
0 0
0 0
0 0
0 0
0 0
0 0
0 0
0 0
0 0
0 0
0 0
0 0
0 0
0 0
0 0
0 0
0 0
0 0
0 0
0 0
0 0
0 0
0 0
0 0
0 0
0 0
0 0
0 0
0 0
0 0
0 0
0 0
0 0
0 0
0 0
0 0
0 0
0 0
0 0
0 0
0 0
0 0
0 0
0 0
0 0
0 0
0 0
0 0
0 0
0 0
0 0
0 0
0 0
0 0
0 0
0 0
0 0
0 0
0 0
0 0
0 0
0 0
0 0
0 0
0 0
0 0
0 0
0 0
0 0
0 0
0 0
0 0
0 0
0 0
0 0
0 0
0 0
0 0
0 0
0 0
0 0
0 0
0 0
0 0
0 0
0 0
0 0
0 0
0 0
0 0
0 0
0 0
0 0
0 0
0 0
0 0
0 0
0 0
0 0
0 0
0 0
0 0
0 0
0 0
0 0
0 0
0 0
0 0
0 0
0 0
0 0
0 0
0 0
0 0
0 0
0 0
0 0
0 0
0 0
0 0
0 0
0 0
0 0
0 0
0 0
0 0
0 0
0 0
0 0
0 0
0 0
0 0
0 0
0 0
0 0
0 0
0 0
0 0
0 0
0 0
0 0
0 0
0 0
0 0
0 0
0 0
0 0
0 0
0 0
0 0
0 0
0 0
0 0
0 0
0 0
0 0
0 0
0 0
0 0
0 0
0 0
0 0
0 0
0 0
0 0
0 0
0 0
0 0
0 0
0 0
0 0
0 0
0 0
0 0
0 0
0 0
0 0
0 0
0 0
0 0
0 0
0 0
0 0
0 0
0 0
0 0
0 0
0 0
0 0
0 0
0 0
0 0
0 0
0 0
0 0
0 0
0 0
0 0
0 0
0 0
0 0
0 0
0 0
0 0
0 0
0 0
0 0
0 0
0 0
0 0
0 0
0 0
0 0
0 0
0 0
0 0
0 0
0 0
0 0
0 0
0 0
0 0
0 0
0 0
0 0
0 0
0 0
0 0
0 0
0 0
0 0
0 0
0 0
0 0
0 0
0 0
0 0
0 0
0 0
0 0
0 0
0 0
0 0
0 0
0 0
0 0
0 0
0 0
0 0
0 0
0 0
0 0
0 0
0 0
0 0
0 0
0 0
0 0
0 0
0 0
0 0
0 0
0 0
0 0
0 0
0 0
0 0
0 0
0 0
0 0
0 0
0 0
0 0
0 0
0 0
0 0
0 0
0 0
0 0
0 0
0 0
0 0
0 0
0 0
0 0
0 0
0 0
0 0
0 0
0 0
0 0
0 0
0 0
0 0
0 0
0 0
0 0
0 0
0 0
0 0
0 0
0 0
0 0
0 0
0 0
0 0
0 0
0 0
0 0
0 0
0 0
0 0
0 0
0 0
0 0
0 0
0 0
0 0
0 0
0 0
0 0
0 0
0 0
0 0
0 0
0 0
0 0
0 0
0 0
0 0
0 0
0 0
0 0
0 0
0 0
0 0
0 0
0 0
0 0
0 0
0 0
0 0
0 0
0 0
0 0
0 0
0 0
0 0
0 0
0 0
0 0
0 0
0 0
0 0
0 0
0 0
0 0
0 0
0 0
0 0
0 0
0 0
0 0
0 0
0 0
0 0
0 0
0 0
0 0
0 0
0 0
0 0
0 0
0 0
0 0
0 0
0 0
0 0
0 0
0 0
0 0
0 0
0 0
0 0
0 0
0 0
0 0
0 0
0 0
0 0
0 0
0 0
0 0
0 0
0 0
0 0
0 0
0 0
0 0
0 0
0 0
0 0
0 0
0 0
0 0
0 0
0 0
0 0
0 0
0 0
0 0
0 0
0 0
0 0
0 0
0 0
0 0
0 0
0 0
0 0
0 0
0 0
0 0
0 0
0 0
0 0
0 0
0 0
0 0
0 0
0 0
0 0
0 0
0 0
0 0
0 0
0 0
0 0
0 0
0 0
0 0
0 0
0 0
0 0
0 0
0 0
0 0
0 0
0 0
0 0
0 0
0 0
0 0
0 0
0 0
0 0
0 0
0 0
0 0
0 0
0 0
0 0
0 0
0 0
0 0
0 0
0 0
0 0
0 0
0 0
0 0
0 0
0 0
0 0
0 0
0 0
0 0
0 0
0 0
0 0
0 0
0 0
0 0
0 0
0 0
0 0
0 0
0 0
0 0
0 0
0 0
0 0
0 0
0 0
0 0
0 0
0 0
0 0
0 0
0 0
0 0
0 0
0 0
0 0
0 0
0 0
0 0
0 0
0 0
0 0
0 0
0 0
0 0
0 0
0 0
0 0
0 0
0 0
0 0
0 0
0 0
0 0
0 0
0 0
0 0
0 0
0 0
0 0
0 0
0 0
0 0
0 0
0 0
0 0
0 0
0 0
0 0
0 0
0 0
0 0
0 0
0 0
0 0
0 0
0 0
0 0
0 0
0 0
0 0
0 0
0 0
0 0
0 0
0 0
0 0
0 0
0 0
0 0
0 0
0 0
0 0
0 0
0 0
0 0
0 0
0 0
0 0
0 0
0 0
0 0
0 0
0 0
0 0
0 0
0 0
0 0
0 0
0 0
0 0
0 0
0 0
0 0
0 0
0 0
0 0
0 0
0 0
0 0
0 0
0 0
0 0
0 0
0 0
0 0
0 0
0 0
0 0
0 0
0 0
0 0
0 0
0 0
0 0
0 0
0 0
0 0
0 0
0 0
0 0
0 0
0 0
0 0
0 0
0 0
0 0
0 0
0 0
0 0
0 0
0 0
0 0
0 0
0 0
0 0
0 0
0 0
0 0
0 0
0 0
0 0
0 0
0 0
0 0
0 0
0 0
0 0
0 0
0 0
0 0
0 0
0 0
0 0
0 0
0 0
0 0
0 0
0 0
0 0
0 0
0 0
0 0
0 0
0 0
0 0
0 0
0 0
0 0
0 0
0 0
0 0
0 0
0 0
0 0
0 0
0 0
0 0
0 0
0 0
0 0
0 0
0 0
0 0
0 0
0 0
0 0
0 0
0 0
0 0
0 0
0 0
0 0
0 0
0 0
0 0
0 0
0 0
0 0
0 0
0 0
0 0
0 0
0 0
0 0
0 0
0 0
0 0
0 0
0 0
0 0
0 0
0 0
0 0
0 0
0 0
0 0
0 0
0 0
0 0
0 0
0 0
0 0
0 0
0 0
0 0
0 0
0 0
0 0
0 0
0 0
0 0
0 0
0 0
0 0
0 0
0 0
0 0
0 0
0 0
0 0
0 0
0 0
0 0
0 0
0 0
0 0
0 0
0 0
0 0
0 0
0 0
0 0
0 0
0 0
0 0
0 0
0 0
0 0
0 0
0 0
0 0
0 0
0 0
0 0
0 0
0 0
0 0
0 0
0 0
0 0
0 0
0 0
0 0
0 0
0 0
0 0
0 0
0 0
0 0
0 0
0 0
0 0
0 0
0 0
0 0
0 0
0 0
0 0
0 0
0 0
0 0
0 0
0 0
0 0
0 0
0 0
0 0
0 0
0 0
0 0
0 0
0 0
0 0
0 0
0 0
0 0
0 0
0 0
0 0
0 0
0 0
0 0
0 0
0 0
0 0
0 0
0 0
0 0
0 0
0 0
0 0
0 0
0 0
0 0
0 0
0 0
0 0
0 0
0 0
0 0
0 0
0 0
0 0
0 0
0 0
0 0
0 0
0 0
0 0
0 0
0 0
0 0
0 0
0 0
0 0
0 0
0 0
0 0
0 0
0 0
0 0
0 0
0 0
0 0
0 0
0 0
0 0
0 0
0 0
0 0
0 0
0 0
0 0
0 0
0 0
0 0
0 0
0 0
0 0
0 0
0 0
0 0
0 0
0 0
0 0
0 0
0 0
0 0
0 0
0 0
0 0
0 0
0 0
0 0
0 0
0 0
0 0
0 0
0 0
0 0
0 0
0 0
0 0
0 0
0 0
0 0
0 0
0 0
0 0
0 0
0 0
0 0
0 0
0 0
0 0
0 0
0 0
0 0
0 0
0 0
0 0
0 0
0 0
0 0
0 0
0 0
0 0
0 0
0 0
0 0
0 0
0 0
0 0
0 0
0 0
0 0
0 0
0 0
0 0
0 0
0 0
0 0
0 0
0 0
0 0
0 0
0 0
0 0
0 0
0 0
0 0
0 0
0 0
0 0
0 0
0 0
0 0
0 0
0 0
0 0
0 0
0 0
0 0
0 0
0 0
0 0
0 0
0 0
0 0
0 0
0 0
0 0
0 0
0 0
0 0
0 0
0 0
0 0
0 0
0 0
0 0
0 0
0 0
0 0
0 0
0 0
0 0
0 0
0 0
0 0
0 0
0 0
0 0
0 0
0 0
0 0
0 0
0 0
0 0
0 0
0 0
0 0
0 0
0 0
0 0
0 0
0 0
0 0
0 0
0 0
0 0
0 0
0 0
0 0
0 0
0 0
0 0
0 0
0 0
0 0
0 0
0 0
0 0
0 0
0 0
0 0
0 0
0 0
0 0
0 0
0 0
0 0
0 0
0 0
0 0
0 0
0 0
0 0
0 0
0 0
0 0
0 0
0 0
0 0
0 0
0 0
0 0
0 0
0 0
0 0
0 0
0 0
0 0
0 0
0 0
0 0
0 0
0 0
0 0
0 0
0 0
0 0
0 0
0 0
0 0
0 0
0 0
0 0
0 0
0 0
0 0
0 0
0 0
0 0
0 0
0 0
0 0
0 0
0 0
0 0
0 0
0 0
0 0
0 0
0 0
0 0
0 0
0 0
0 0
0 0
0 0
0 0
0 0
0 0
0 0
0 0
0 0
0 0
0 0
0 0
0 0
0 0
0 0
0 0
0 0
0 0
0 0
0 0
0 0
0 0
0 0
0 0
0 0
0 0
0 0
0 0
0 0
0 0
0 0
0 0
0 0
0 0
0 0
0 0
0 0
0 0
0 0
0 0
0 0
0 0
0 0
0 0
0 0
0 0
0 0
0 0
0 0
0 0
0 0
0 0
0 0
0 0
0 0
0 0
0 0
0 0
0 0
0 0
0 0
0 0
0 0
0 0
0 0
0 0
0 0
0 0
0 0
0 0
0 0
0 0
0 0
0 0
0 0
0 0
0 0
0 0
0 0
0 0
0 0
0 0
0 0
0 0
0 0
0 0
0 0
0 0
0 0
0 0
0 0
0 0
0 0
0 0
0 0
0 0
0 0
0 0
0 0
0 0
0 0
0 0
0 0
0 0
0 0
0 0
0 0
0 0
0 0
0 0
0 0
0 0
0 0
0 0
0 0
0 0
0 0
0 0
0 0
0 0
0 0
0 0
0 0
0 0
0 0
0 0
0 0
0 0
0 0
0 0
0 0
0 0
0 0
0 0
0 0
0 0
0 0
0 0
0 0
0 0
0 0
0 0
0 0
0 0
0 0
0 0
0 0
0 0
0 0
0 0
0 0
0 0
0 0
0 0
0 0
0 0
0 0
0 0
0 0
0 0
0 0
0 0
0 0
0 0
0 0
0 0
0 0
0 0
0 0
0 0
0 0
0 0
0 0
0 0
0 0
0 0
0 0
0 0
0 0
0 0
0 0
0 0
0 0
0 0
0 0
0 0
0 0
0 0
0 0
0 0
0 0
0 0
0 0
0 0
0 0
0 0
0 0
0 0
0 0
0 0
0 0
0 0
0 0
0 0
0 0
0 0
0 0
0 0
0 0
0 0
0 0
0 0
0 0
0 0
0 0
0 0
0 0
0 0
0 0
0 0
0 0
0 0
0 0
0 0
0 0
0 0
0 0
0 0
0 0
0 0
0 0
0 0
0 0
0 0
0 0
0 0
0 0
0 0
0 0
0 0
0 0
0 0
0 0
0 0
0 0
0 0
0 0
0 0
0 0
0 0
0 0
0 0
0 0
0 0
0 0
0 0
0 0
0 0
0 0
0 0
0 0
0 0
0 0
0 0
0 0
0 0
0 0
0 0
0 0
0 0
0 0
0 0
0 0
0 0
0 0
0 0
0 0
0 0
0 0
0 0
0 0
0 0
0 0
0 0
0 0
0 0
0 0
0 0
0 0
0 0
0 0
0 0
0 0
0 0
0 0
0 0
0 0
0 0
0 0
0 0
0 0
0 0
0 0
0 0
0 0
0 0
0 0
0 0
0 0
0 0
0 0
0 0
0 0
0 0
0 0
0 0
0 0
0 0
0 0
0 0
0 0
0 0
0 0
0 0
0 0
0 0
0 0
0 0
0 0
0 0
0 0
0 0
0 0
0 0
0 0
0 0
0 0
0 0
0 0
0 0
0 0
0 0
0 0
0 0
0 0
0 0
0 0
0 0
0 0
0 0
0 0
0 0
0 0
0 0
0 0
0 0
0 0
0 0
0 0
0 0
0 0
0 0
0 0
0 0
0 0
0 0
0 0
0 0
0 0
0 0
0 0
0 0
0 0
0 0
0 0
0 0
0 0
0 0
0 0
0 0
0 0
0 0
0 0
0 0
0 0
0 0
0 0
0 0
0 0
0 0
0 0
0 0
0 0
0 0
0 0
0 0
0 0
0 0
0 0
0 0
0 0
0 0
0 0
0 0
0 0
0 0
0 0
0 0
0 0
0 0
0 0
0 0
0 0
0 0
0 0
0 0
0 0
0 0
0 0
0 0
0 0
0 0
0 0
0 0
0 0
0 0
0 0
0 0
0 0
0 0
0 0
0 0
0 0
0 0
0 0
0 0
0 0
0 0
0 0
0 0
0 0
0 0
0 0
0 0
0 0
0 0
0 0
0 0
0 0
0 0
0 0
0 0
0 0
0 0
0 0
0 0
0 0
0 0
0 0
0 0
0 0
0 0
0 0
0 0
0 0
0 0
0 0
0 0
0 0
0 0
0 0
0 0
0 0
0 0
0 0
0 0
0 0
0 0
0 0
0 0
0 0
0 0
0 0
0 0
0 0
0 0
0 0
0 0
0 0
0 0
0 0
0 0
0 0
0 0
0 0
0 0
0 0
0 0
0 0
0 0
0 0
0 0
0 0
0 0
0 0
0 0
0 0
0 0
0 0
0 0
0 0
0 0
0 0
0 0
0 0
0 0
0 0
0 0
0 0
0 0
0 0
0 0
0 0
0 0
0 0
0 0
0 0
0 0
0 0
0 0
0 0
0 0
0 0
0 0
0 0
0 0
0 0
0 0
0 0
0 0
0 0
0 0
0 0
0 0
0 0
0 0
0 0
0 0
0 0
0 0
0 0
0 0
0 0
0 0
0 0
0 0
0 0
0 0
0 0
0 0
0 0
0 0
0 0
0 0
0 0
0 0
0 0
0 0
0 0
0 0
0 0
0 0
0 0
0 0
0 0
0 0
0 0
0 0
0 0
0 0
0 0
0 0
0 0
0 0
0 0
0 0
0 0
0 0
0 0
0 0
0 0
0 0
0 0
0 0
0 0
0 0
0 0
0 0
0 0
0 0
0 0
0 0
0 0
0 0
0 0
0 0
0 0
0 0
0 0
0 0
0 0
0 0
0 0
0 0
0 0
0 0
0 0
0 0
0 0
0 0
0 0
0 0
0 0
0 0
0 0
0 0
0 0
0 0
0 0
0 0
0 0
0 0
0 0
0 0
0 0
0 0
0 0
0 0
0 0
0 0
0 0
0 0
0 0
0 0
0 0
0 0
0 0
0 0
0 0
0 0
0 0
0 0
0 0
0 0
0 0
0 0
0 0
0 0
0 0
0 0
0 0
0 0
0 0
0 0
0 0
0 0
0 0
0 0
0 0
0 0
0 0
0 0
0 0
0 0
0 0
0 0
0 0
0 0
0 0
0 0
0 0
0 0
0 0
0 0
0 0
0 0
0 0
0 0
0 0
0 0
0 0
0 0
0 0
0 0
0 0
0 0
0 0
0 0
0 0
0 0
0 0
0 0
0 0
0 0
0 0
0 0
0 0
0 0
0 0
0 0
0 0
0 0
0 0
0 0
0 0
0 0
0 0
0 0
0 0
0 0
0 0
0 0
0 0
0 0
0 0
0 0
0 0
0 0
0 0
0 0
0 0
0 0
0 0
0 0
0 0
0 0
0 0
0 0
0 0
0 0
0 0
0 0
0 0
0 0
0 0
0 0
0 0
0 0
0 0
0 0
0 0
0 0
0 0
0 0
0 0
0 0
0 0
0 0
0 0
0 0
0 0
0 0
0 0
0 0
0 0
0 0
0 0
0 0
0 0
0 0
0 0
0 0
0 0
0 0
0 0
0 0
0 0
0 0
0 0
0 0
0 0
0 0
0 0
0 0
0 0
0 0
0 0
0 0
0 0
0 0
0 0
0 0
0 0
0 0
0 0
0 0
0 0
0 0
0 0
0 0
0 0
0 0
0 0
0 0
0 0
0 0
0 0
0 0
0 0
0 0
0 0
0 0
0 0
0 0
0 0
0 0
0 0
0 0
0 0
0 0
0 0
0 0
0 0
0 0
0 0
0 0
0 0
0 0
0 0
0 0
0 0
0 0
0 0
0 0
0 0
0 0
0 0
0 0
0 0
0 0
0 0
0 0
0 0
0 0
0 0
0 0
0 0
0 0
0 0
0 0
0 0
0 0
0 0
0 0
0 0
0 0
0 0
0 0
0 0
0 0
0 0
0 0
0 0
0 0
0 0
0 0
0 0
0 0
0 0
0 0
0 0
0 0
0 0
0 0
0 0
0 0
0 0
0 0
0 0
0 0
0 0
0 0
0 0
0 0
0 0
0 0
0 0
0 0
0 0
0 0
0 0
0 0
0 0
0 0
0 0
0 0
0 0
0 0
0 0
0 0
0 0
0 0
0 0
0 0
0 0
0 0
0 0
0 0
0 0
0 0
0 0
0 0
0 0
0 0
0 0
0 0
0 0
0 0
0 0
0 0
0 0
0 0
0 0
0 0
0 0
0 0
0 0
0 0
0 0
0 0
0 0
0 0
0 0
0 0
0 0
0 0
0 0
0 0
0 0
0 0
0 0
0 0
0 0
0 0
0 0
0 0
0 0
0 0
0 0
0 0
0 0
0 0
0 0
0 0
0 0
0 0
0 0
0 0
0 0
0 0
0 0
0 0
0 0
0 0
0 0
0 0
0 0
0 0
0 0
0 0
0 0
0 0
0 0
0 0
0 0
0 0
0 0
0 0
0 0
0 0
0 0
0 0
0 0
0 0
0 0
0 0
0 0
0 0
0 0
0 0
0 0
0 0
0 0
0 0
0 0
0 0
0 0
0 0
0 0
0 0
0 0
0 0
0 0
0 0
0 0
0 0
0 0
0 0
0 0
0 0
0 0
0 0
0 0
0 0
0 0
0 0
0 0
0 0
0 0
0 0
0 0
0 0
0 0
0 0
0 0
0 0
0 0
0 0
0 0
0 0
0 0
0 0
0 0
0 0
0 0
0 0
0 0
0 0
0 0
0 0
0 0
0 0
0 0
0 0
0 0
0 0
0 0
0 0
0 0
0 0
0 0
0 0
0 0
0 0
0 0
0 0
0 0
0 0
0 0
0 0
0 0
0 0
0 0
0 0
0 0
0 0
0 0
0 0
0 0
0 0
0 0
0 0
0 0
0 0
0 0
0 0
0 0
0 0
0 0
0 0
0 0
0 0
0 0
0 0
0 0
0 0
0 0
0 0
0 0
0 0
0 0
0 0
0 0
0 0
0 0
0 0
0 0
0 0
0 0
0 0
0 0
0 0
0 0
0 0
0 0
0 0
0 0
0 0
0 0
0 0
0 0
0 0
0 0
0 0
0 0
0 0
0 0
0 0
0 0
0 0
0 0
0 0
0 0
0 0
0 0
0 0
0 0
0 0
0 0
0 0
0 0
0 0
0 0
0 0
0 0
0 0
0 0
0 0
0 0
0 0
0 0
0 0
0 0
0 0
0 0
0 0
0 0
0 0
0 0
0 0
0 0
0 0
0 0
0 0
0 0
0 0
0 0
0 0
0 0
0 0
0 0
0 0
0 0
0 0
0 0
0 0
0 0
0 0
0 0
0 0
0 0
0 0
0 0
0 0
0 0
0 0
0 0
0 0
0 0
0 0
0 0
0 0
0 0
0 0
0 0
0 0
0 0
0 0
0 0
0 0
0 0
0 0
0 0
0 0
0 0
0 0
0 0
0 0
0 0
0 0
0 0
0 0
0 0
0 0
0 0
0 0
0 0
0 0
0 0
0 0
0 0
0 0
0 0
0 0
0 0
0 0
0 0
0 0
0 0
0 0
0 0
0 0
0 0
0 0
0 0
0 0
0 0
0 0
0 0
0 0
0 0
0 0
0 0
0 0
0 0
0 0
0 0
0 0
0 0
0 0
0 0
0 0
0 0
0 0
0 0
0 0
0 0
0 0
0 0
0 0
0 0
0 0
0 0
0 0
0 0
0 0
0 0
0 0
0 0
0 0
0 0
0 0
0 0
0 0
0 0
0 0
0 0
0 0
0 0
0 0
0 0
0 0
0 0
0 0
0 0
0 0
0 0
0 0
0 0
0 0
0 0
0 0
0 0
0 0
0 0
0 0
0 0
0 0
0 0
0 0
0 0
0 0
0 0
0 0
0 0
0 0
0 0
0 0
0 0
0 0
0 0
0 0
0 0
0 0
0 0
0 0
0 0
0 0
0 0
0 0
0 0
0 0
0 0
0 0
0 0
0 0
0 0
0 0
0 0
0 0
0 0
0 0
0 0
0 0
0 0
0 0
0 0
0 0
0 0
0 0
0 0
0 0
0 0
0 0
0 0
0 0
0 0
0 0
0 0
0 0
0 0
0 0
0 0
0 0
0 0
0 0
0 0
0 0
0 0
0 0
0 0
0 0
0 0
0 0
0 0
0 0
0 0
0 0
0 0
0 0
0 0
0 0
0 0
0 0
0 0
0 0
0 0
0 0
0 0
0 0
0 0
0 0
0 0
0 0
0 0
0 0
0 0
0 0
0 0
0 0
0 0
0 0
0 0
0 0
0 0
0 0
0 0
0 0
0 0
0 0
0 0
0 0
0 0
0 0
0 0
0 0
0 0
0 0
0 0
0 0
0 0
0 0
0 0
0 0
0 0
0 0
0 0
0 0
0 0
0 0
0 0
0 0
0 0
0 0
0 0
0 0
0 0
0 0
0 0
0 0
0 0
0 0
0 0
0 0
0 0
0 0
0 0
0 0
0 0
0 0
0 0
0 0
0 0
0 0
0 0
0 0
0 0
0 0
0 0
0 0
0 0
0 0
0 0
0 0
0 0
0 0
0 0
0 0
0 0
0 0
0 0
0 0
0 0
0 0
0 0
0 0
0 0
0 0
0 0
0 0
0 0
0 0
0 0
0 0
0 0
0 0
0 0
0 0
0 0
0 0
0 0
0 0
0 0
0 0
0 0
0 0
0 0
0 0
0 0
0 0
0 0
0 0
0 0
0 0
0 0
0 0
0 0
0 0
0 0
0 0
0 0
0 0
0 0
0 0
0 0
0 0
0 0
0 0
0 0
0 0
0 0
0 0
0 0
0 0
0 0
0 0
0 0
0 0
0 0
0 0
0 0
0 0
0 0
0 0
0 0
0 0
0 0
0 0
0 0
0 0
0 0
0 0
0 0
0 0
0 0
0 0
0 0
0 0
0 0
0 0
0 0
0 0
0 0
0 0
0 0
0 0
0 0
0 0
0 0
0 0
0 0
0 0
0 0
0 0
0 0
0 0
0 0
0 0
0 0
0 0
0 0
0 0
0 0
0 0
0 0
0 0
0 0
0 0
0 0
0 0
0 0
0 0
0 0
0 0
0 0
0 0
0 0
0 0
0 0
0 0
0 0
0 0
0 0
0 0
0 0
0 0
0 0
0 0
0 0
0 0
0 0
0 0
0 0
0 0
0 0
0 0
0 0
0 0
0 0
0 0
0 0
0 0
0 0
0 0
0 0
0 0
0 0
0 0
0 0
0 0
0 0
0 0
0 0
0 0
0 0
0 0
0 0
0 0
0 0
0 0
0 0
0 0
0 0
0 0
0 0
0 0
0 0
0 0
0 0
0 0
0 0
0 0
0 0
0 0
0 0
0 0
0 0
0 0
0 0
0 0
0 0
0 0
0 0
0 0
0 0
0 0
0 0
0 0
0 0
0 0
0 0
0 0
0 0
0 0
0 0
0 0
0 0
0 0
0 0
0 0
0 0
0 0
0 0
0 0
0 0
0 0
0 0
0 0
0 0
0 0
0 0
0 0
0 0
0 0
0 0
0 0
0 0
0 0
0 0
0 0
0 0
0 0
0 0
0 0
0 0
0 0
0 0
0 0
0 0
0 0
0 0
0 0
0 0
0 0
0 0
0 0
0 0
0 0
0 0
0 0
0 0
0 0
0 0
0 0
0 0
0 0
0 0
0 0
0 0
0 0
0 0
0 0
0 0
0 0
0 0
0 0
0 0
0 0
0 0
0 0
0 0
0 0
0 0
0 0
0 0
0 0
0 0
0 0
0 0
0 0
0 0
0 0
0 0
0 0
0 0
0 0
0 0
0 0
0 0
0 0
0 0
0 0
0 0
0 0
0 0
0 0
0 0
0 0
0 0
0 0
0 0
0 0
0 0
0 0
0 0
0 0
0 0
0 0
0 0
0 0
0 0
0 0
0 0
0 0
0 0
0 0
0 0
0 0
0 0
0 0
0 0
0 0
0 0
0 0
0 0
0 0
0 0
0 0
0 0
0 0
0 0
0 0
0 0
0 0
0 0
0 0
0 0
0 0
0 0
0 0
0 0
0 0
0 0
0 0
0 0
0 0
0 0
0 0
0 0
0 0
0 0
0 0
0 0
0 0
0 0
0 0
0 0
0 0
0 0
0 0
0 0
0 0
0 0
0 0
0 0
0 0
0 0
0 0
0 0
0 0
0 0
0 0
0 0
0 0
0 0
0 0
0 0
0 0
0 0
0 0
0 0
0 0
0 0
0 0
0 0
0 0
0 0
0 0
0 0
0 0
0 0
0 0
0 0
0 0
0 0
0 0
0 0
0 0
0 0
0 0
0 0
0 0
0 0
0 0
0 0
0 0
0 0
0 0
0 0
0 0
0 0
0 0
0 0
0 0
0 0
0 0
0 0
0 0
0 0
0 0
0 0
0 0
0 0
0 0
0 0
0 0
0 0
0 0
0 0
0 0
0 0
0 0
0 0
0 0
0 0
0 0
0 0
0 0
0 0
0 0
0 0
0 0
0 0
0 0
0 0
0 0
0 0
0 0
0 0
0 0
0 0
0 0
0 0
0 0
0 0
0 0
0 0
0 0
0 0
0 0
0 0
0 0
0 0
0 0
0 0
0 0
0 0
0 0
0 0
0 0
0 0
0 0
0 0
0 0
0 0
0 0
0 0
0 0
0 0
0 0
0 0
0 0
0 0
0 0
0 0
0 0
0 0
0 0
0 0
0 0
0 0
0 0
0 0
0 0
0 0
0 0
0 0
0 0
0 0
0 0
0 0
0 0
0 0
0 0
0 0
0 0
0 0
0 0
0 0
0 0
0 0
0 0
0 0
0 0
0 0
0 0
0 0
0 0
0 0
0 0
0 0
0 0
0 0
0 0
0 0
0 0
0 0
0 0
0 0
0 0
0 0
0 0
0 0
0 0
0 0
0 0
0 0
0 0
0 0
0 0
0 0
0 0
0 0
0 0
0 0
0 0
0 0
0 0
0 0
0 0
0 0
0 0
0 0
0 0
0 0
0 0
0 0
0 0
0 0
0 0
0 0
0 0
0 0
0 0
0 0
0 0
0 0
0 0
0 0
0 0
0 0
0 0
0 0
0 0
0 0
0 0
0 0
0 0
0 0
0 0
0 0
0 0
0 0
0 0
0 0
0 0
0 0
0 0
0 0
0 0
0 0
0 0
0 0
0 0
0 0
0 0
0 0
0 0
0 0
0 0
0 0
0 0
0 0
0 0
0 0
0 0
0 0
0 0
0 0
0 0
0 0
0 0
0 0
0 0
0 0
0 0
0 0
0 0
0 0
0 0
0 0
0 0
0 0
0 0
0 0
0 0
0 0
0 0
0 0
0 0
0 0
0 0
0 0
0 0
0 0
0 0
0 0
0 0
0 0
0 0
0 0
0 0
0 0
0 0
0 0
0 0
0 0
0 0
0 0
0 0
0 0
0 0
0 0
0 0
0 0
0 0
0 0
0 0
0 0
0 0
0 0
0 0
0 0
0 0
0 0
0 0
0 0
0 0
0 0
0 0
0 0
0 0
0 0
0 0
0 0
0 0
0 0
0 0
0 0
0 0
0 0
0 0
0 0
0 0
0 0
0 0
0 0
0 0
0 0
0 0
0 0
0 0
0 0
0 0
0 0
0 0
0 0
0 0
0 0
0 0
0 0
0 0
0 0
0 0
0 0
0 0
0 0
0 0
0 0
0 0
0 0
0 0
0 0
0 0
0 0
0 0
0 0
0 0
0 0
0 0
0 0
0 0
0 0
0 0
0 0
0 0
0 0
0 0
0 0
0 0
0 0
0 0
0 0
0 0
0 0
0 0
0 0
0 0
0 0
0 0
0 0
0 0
0 0
0 0
0 0
0 0
0 0
0 0
0 0
0 0
0 0
0 0
0 0
0 0
0 0
0 0
0 0
0 0
0 0
0 0
0 0
0 0
0 0
0 0
0 0
0 0
0 0
0 0
0 0
0 0
0 0
0 0
0 0
0 0
0 0
0 0
0 0
0 0
0 0
0 0
0 0
0 0
0 0
0 0
0 0
0 0
0 0
0 0
0 0
0 0
0 0
0 0
0 0
0 0
0 0
0 0
0 0
0 0
0 0
0 0
0 0
0 0
0 0
0 0
0 0
0 0
0 0
0 0
0 0
0 0
0 0
0 0
0 0
0 0
0 0
0 0
0 0
0 0
0 0
0 0
0 0
0 0
0 0
0 0
0 0
0 0
0 0
0 0
0 0
0 0
0 0
0 0
0 0
0 0
0 0
0 0
0 0
0 0
0 0
0 0
0 0
0 0
0 0
0 0
0 0
0 0
0 0
0 0
0 0
0 0
0 0
0 0
0 0
0 0
0 0
0 0
0 0
0 0
0 0
0 0
0 0
0 0
0 0
0 0
0 0
0 0
0 0
0 0
0 0
0 0
0 0
0 0
0 0
0 0
0 0
0 0
0 0
0 0
0 0
0 0
0 0
0 0
0 0
0 0
0 0
0 0
0 0
0 0
0 0
0 0
0 0
0 0
0 0
0 0
0 0
0 0
0 0
0 0
0 0
0 0
0 0
0 0
0 0
0 0
0 0
0 0
0 0
0 0
0 0
0 0
0 0
0 0
0 0
0 0
0 0
0 0
0 0
0 0
0 0
0 0
0 0
0 0
0 0
0 0
0 0
0 0
0 0
0 0
0 0
0 0
0 0
0 0
0 0
0 0
0 0
0 0
0 0
0 0
0 0
0 0
0 0
0 0
0 0
0 0
0 0
0 0
0 0
0 0
0 0
0 0
0 0
0 0
0 0
0 0
0 0
0 0
0 0
0 0
0 0
0 0
0 0
0 0
0 0
0 0
0 0
0 0
0 0
0 0
0 0
0 0
0 0
0 0
0 0
0 0
0 0
0 0
0 0
0 0
0 0
0 0
0 0
0 0
0 0
0 0
0 0
0 0
0 0
0 0
0 0
0 0
0 0
0 0
0 0
0 0
0 0
0 0
0 0
0 0
0 0
0 0
0 0
0 0
0 0
0 0
0 0
0 0
0 0
0 0
0 0
0 0
0 0
0 0
0 0
0 0
0 0
0 0
0 0
0 0
0 0
0 0
0 0
0 0
0 0
0 0
0 0
0 0
0 0
0 0
0 0
0 0
0 0
0 0
0 0
0 0
0 0
0 0
0 0
0 0
0 0
0 0
0 0
0 0
0 0
0 0
0 0
0 0
0 0
0 0
0 0
0 0
0 0
0 0
0 0
0 0
0 0
0 0
0 0
0 0
0 0
0 0
0 0
0 0
0 0
0 0
0 0
0 0
0 0
0 0
0 0
0 0
0 0
0 0
0 0
0 0
0 0
0 0
0 0
0 0
0 0
0 0
0 0
0 0
0 0
0 0
0 0
0 0
0 0
0 0
0 0
0 0
0 0
0 0
0 0
0 0
0 0
0 0
0 0
0 0
0 0
0 0
0 0
0 0
0 0
0 0
0 0
0 0
0 0
0 0
0 0
0 0
0 0
0 0
0 0
0 0
0 0
0 0
0 0
0 0
0 0
0 0
0 0
0 0
0 0
0 0
0 0
0 0
0 0
0 0
0 0
0 0
0 0
0 0
0 0
0 0
0 0
0 0
0 0
0 0
0 0
0 0
0 0
0 0
0 0
0 0
0 0
0 0
0 0
0 0
0 0
0 0
0 0
0 0
0 0
0 0
0 0
0 0
0 0
0 0
0 0
0 0
0 0
0 0
0 0
0 0
0 0
0 0
0 0
0 0
0 0
0 0
0 0
0 0
0 0
0 0
0 0
0 0
0 0
0 0
0 0
0 0
0 0
0 0
0 0
0 0
0 0
0 0
0 0
0 0
0 0
0 0
0 0
0 0
0 0
0 0
0 0
0 0
0 0
0 0
0 0
0 0
0 0
0 0
0 0
0 0
0 0
0 0
0 0
0 0
0 0
0 0
0 0
0 0
0 0
0 0
0 0
0 0
0 0
0 0
0 0
0 0
0 0
0 0
0 0
0 0
0 0
0 0
0 0
0 0
0 0
0 0
0 0
0 0
0 0
0 0
0 0
0 0
0 0
0 0
0 0
0 0
0 0
0 0
0 0
0 0
0 0
0 0
0 0
0 0
0 0
0 0
0 0
0 0
0 0
0 0
0 0
0 0
0 0
0 0
0 0
0 0
0 0
0 0
0 0
0 0
0 0
0 0
0 0
0 0
0 0
0 0
0 0
0 0
0 0
0 0
0 0
0 0
0 0
0 0
0 0
0 0
0 0
0 0
0 0
0 0
0 0
0 0
0 0
0 0
0 0
0 0
0 0
0 0
0 0
0 0
0 0
0 0
0 0
0 0
0 0
0 0
0 0
0 0
0 0
0 0
0 0
0 0
0 0
0 0
0 0
0 0
0 0
0 0
0 0
0 0
0 0
0 0
0 0
0 0
0 0
0 0
0 0
0 0
0 0
0 0
0 0
0 0
0 0
0 0
0 0
0 0
0 0
0 0
0 0
0 0
0 0
0 0
0 0
0 0
0 0
0 0
0 0
0 0
0 0
0 0
0 0
0 0
0 0
0 0
0 0
0 0
0 0
0 0
0 0
0 0
0 0
0 0
0 0
0 0
0 0
0 0
0 0
0 0
0 0
0 0
0 0
0 0
0 0
0 0
0 0
0 0
0 0
0 0
0 0
0 0
0 0
0 0
0 0
0 0
0 0
0 0
0 0
0 0
0 0
0 0
0 0
0 0
0 0
0 0
0 0
0 0
0 0
0 0
0 0
0 0
0 0
0 0
0 0
0 0
0 0
0 0
0 0
0 0
0 0
0 0
0 0
0 0
0 0
0 0
0 0
0 0
0 0
0 0
0 0
0 0
0 0
0 0
0 0
0 0
0 0
0 0
0 0
0 0
0 0
0 0
0 0
0 0
0 0
0 0
0 0
0 0
0 0
0 0
0 0
0 0
0 0
0 0
0 0
0 0
0 0
0 0
0 0
0 0
0 0
0 0
0 0
0 0
0 0
0 0
0 0
0 0
0 0
0 0
0 0
0 0
0 0
0 0
0 0
0 0
0 0
0 0
0 0
0 0
0 0
0 0
0 0
0 0
0 0
0 0
0 0
0 0
0 0
0 0
0 0
0 0
0 0
0 0
0 0
0 0
0 0
0 0
0 0
0 0
0 0
0 0
0 0
0 0
0 0
0 0
0 0
0 0
0 0
0 0
0 0
0 0
0 0
0 0
0 0
0 0
0 0
0 0
0 0
0 0
0 0
0 0
0 0
0 0
0 0
0 0
0 0
0 0
0 0
0 0
0 0
0 0
0 0
0 0
0 0
0 0
0 0
0 0
0 0
0 0
0 0
0 0
0 0
0 0
0 0
0 0
0 0
0 0
0 0
0 0
0 0
0 0
0 0
0 0
0 0
0 0
0 0
0 0
0 0
0 0
0 0
0 0
0 0
0 0
0 0
0 0
0 0
0 0
0 0
0 0
0 0
0 0
0 0
0 0
0 0
0 0
0 0
0 0
0 0
0 0
0 0
0 0
0 0
0 0
0 0
0 0
0 0
0 0
0 0
0 0
0 0
0 0
0 0
0 0
0 0
0 0
0 0
0 0
0 0
0 0
0 0
0 0
0 0
0 0
0 0
0 0
0 0
0 0
0 0
0 0
0 0
0 0
0 0
0 0
0 0
0 0
0 0
0 0
0 0
0 0
0 0
0 0
0 0
0 0
0 0
0 0
0 0
0 0
0 0
0 0
0 0
0 0
0 0
0 0
0 0
0 0
0 0
0 0
0 0
0 0
0 0
0 0
0 0
0 0
0 0
0 0
0 0
0 0
0 0
0 0
0 0
0 0
0 0
0 0
0 0
0 0
0 0
0 0
0 0
0 0
0 0
0 0
0 0
0 0
0 0
0 0
0 0
0 0
0 0
0 0
0 0
0 0
0 0
0 0
0 0
0 0
0 0
0 0
0 0
0 0
0 0
0 0
0 0
0 0
0 0
0 0
0 0
0 0
0 0
0 0
0 0
0 0
0 0
0 0
0 0
0 0
0 0
0 0
0 0
0 0
0 0
0 0
0 0
0 0
0 0
0 0
0 0
0 0
0 0
0 0
0 0
0 0
0 0
0 0
0 0
0 0
0 0
0 0
0 0
0 0
0 0
0 0
0 0
0 0
0 0
0 0
0 0
0 0
0 0
0 0
0 0
0 0
0 0
0 0
0 0
0 0
0 0
0 0
0 0
0 0
0 0
0 0
0 0
0 0
0 0
0 0
0 0
0 0
0 0
0 0
0 0
0 0
0 0
0 0
0 0
0 0
0 0
0 0
0 0
0 0
0 0
0 0
0 0
0 0
0 0
0 0
0 0
0 0
0 0
0 0
0 0
0 0
0 0
0 0
0 0
0 0
0 0
0 0
0 0
0 0
0 0
0 0
0 0
0 0
0 0
0 0
0 0
0 0
0 0
0 0
0 0
0 0
0 0
0 0
0 0
0 0
0 0
0 0
0 0
0 0
0 0
0 0
0 0
0 0
0 0
0 0
0 0
0 0
0 0
0 0
0 0
0 0
0 0
0 0
0 0
0 0
0 0
0 0
0 0
0 0
0 0
0 0
0 0
0 0
0 0
0 0
0 0
0 0
0 0
0 0
0 0
0 0
0 0
0 0
0 0
0 0
0 0
0 0
0 0
0 0
0 0
0 0
0 0
0 0
0 0
0 0
0 0
0 0
0 0
0 0
0 0
0 0
0 0
0 0
0 0
0 0
0 0
0 0
0 0
0 0
0 0
0 0
0 0
0 0
0 0
0 0
0 0
0 0
0 0
0 0
0 0
0 0
0 0
0 0
0 0
0 0
0 0
0 0
0 0
0 0
0 0
0 0
0 0
0 0
0 0
0 0
0 0
0 0
0 0
0 0
0 0
0 0
0 0
0 0
0 0
0 0
0 0
0 0
0 0
0 0
0 0
0 0
0 0
0 0
0 0
0 0
0 0
0 0
0 0
0 0
0 0
0 0
      </DataArray> 
      <DataArray type="Float64" NumberOfComponents="2" Name="Velocity" format="ascii">
0 0
0 0
0 0
0 0
0 0
0 0
0 0
0 0
0 0
0 0
0 0
0 0
0 0
0 0
0 0
0 0
0 0
0 0
0 0
0 0
0 0
0 0
0 0
0 0
0 0
0 0
0 0
0 0
0 0
0 0
0 0
0 0
0 0
0 0
0 0
0 0
0 0
0 0
0 0
0 0
0 0
0 0
0 0
0 0
0 0
0 0
0 0
0 0
0 0
0 0
0 0
0 0
0 0
0 0
0 0
0 0
0 0
0 0
0 0
0 0
0 0
0 0
0 0
0 0
0 0
0 0
0 0
0 0
0 0
0 0
0 0
0 0
0 0
0 0
0 0
0 0
0 0
0 0
0 0
0 0
0 0
0 0
0 0
0 0
0 0
0 0
0 0
0 0
0 0
0 0
0 0
0 0
0 0
0 0
0 0
0 0
0 0
0 0
0 0
0 0
0 0
0 0
0 0
0 0
0 0
0 0
0 0
0 0
0 0
0 0
0 0
0 0
0 0
0 0
0 0
0 0
0 0
0 0
0 0
0 0
0 0
0 0
0 0
0 0
0 0
0 0
0 0
0 0
0 0
0 0
0 0
0 0
0 0
0 0
0 0
0 0
0 0
0 0
0 0
0 0
0 0
0 0
0 0
0 0
0 0
0 0
0 0
0 0
0 0
0 0
0 0
0 0
0 0
0 0
0 0
0 0
0 0
0 0
0 0
0 0
0 0
0 0
0 0
0 0
0 0
0 0
0 0
0 0
0 0
0 0
0 0
0 0
0 0
0 0
0 0
0 0
0 0
0 0
0 0
0 0
0 0
0 0
0 0
0 0
0 0
0 0
0 0
0 0
0 0
0 0
0 0
0 0
0 0
0 0
0 0
0 0
0 0
0 0
0 0
0 0
0 0
0 0
0 0
0 0
0 0
0 0
0 0
0 0
0 0
0 0
0 0
0 0
0 0
0 0
0 0
0 0
0 0
0 0
0 0
0 0
0 0
0 0
0 0
0 0
0 0
0 0
0 0
0 0
0 0
0 0
0 0
0 0
0 0
0 0
0 0
0 0
0 0
0 0
0 0
0 0
0 0
0 0
0 0
0 0
0 0
0 0
0 0
0 0
0 0
0 0
0 0
0 0
0 0
0 0
0 0
0 0
0 0
0 0
0 0
0 0
0 0
0 0
0 0
0 0
0 0
0 0
0 0
0 0
0 0
0 0
0 0
0 0
0 0
0 0
0 0
0 0
0 0
0 0
0 0
0 0
0 0
0 0
0 0
0 0
0 0
0 0
0 0
0 0
0 0
0 0
0 0
0 0
0 0
0 0
0 0
0 0
0 0
0 0
0 0
0 0
0 0
0 0
0 0
0 0
0 0
0 0
0 0
0 0
0 0
0 0
0 0
0 0
0 0
0 0
0 0
0 0
0 0
0 0
0 0
0 0
0 0
0 0
0 0
0 0
0 0
0 0
0 0
0 0
0 0
0 0
0 0
0 0
0 0
0 0
0 0
0 0
0 0
0 0
0 0
0 0
0 0
0 0
0 0
0 0
0 0
0 0
0 0
0 0
0 0
0 0
0 0
0 0
0 0
0 0
0 0
0 0
0 0
0 0
0 0
0 0
0 0
0 0
0 0
0 0
0 0
0 0
0 0
0 0
0 0
0 0
0 0
0 0
0 0
0 0
0 0
0 0
0 0
0 0
0 0
0 0
0 0
0 0
0 0
0 0
0 0
0 0
0 0
0 0
0 0
0 0
0 0
0 0
0 0
0 0
0 0
0 0
0 0
0 0
0 0
0 0
0 0
0 0
0 0
0 0
0 0
0 0
0 0
0 0
0 0
0 0
0 0
0 0
0 0
0 0
0 0
0 0
0 0
0 0
0 0
0 0
0 0
0 0
0 0
0 0
0 0
0 0
0 0
0 0
0 0
0 0
0 0
0 0
0 0
0 0
0 0
0 0
0 0
0 0
0 0
0 0
0 0
0 0
0 0
0 0
0 0
0 0
0 0
0 0
0 0
0 0
0 0
0 0
0 0
0 0
0 0
0 0
0 0
0 0
0 0
0 0
0 0
0 0
0 0
0 0
0 0
0 0
0 0
0 0
0 0
0 0
0 0
0 0
0 0
0 0
0 0
0 0
0 0
0 0
0 0
0 0
0 0
0 0
0 0
0 0
0 0
0 0
0 0
0 0
0 0
0 0
0 0
0 0
0 0
0 0
0 0
0 0
0 0
0 0
0 0
0 0
0 0
0 0
0 0
0 0
0 0
0 0
0 0
0 0
0 0
0 0
0 0
0 0
0 0
0 0
0 0
0 0
0 0
0 0
0 0
0 0
0 0
0 0
0 0
0 0
0 0
0 0
0 0
0 0
0 0
0 0
0 0
0 0
0 0
0 0
0 0
0 0
0 0
0 0
0 0
0 0
0 0
0 0
0 0
0 0
0 0
0 0
0 0
0 0
0 0
0 0
0 0
0 0
0 0
0 0
0 0
0 0
0 0
0 0
0 0
0 0
0 0
0 0
0 0
0 0
0 0
0 0
0 0
0 0
0 0
0 0
0 0
0 0
0 0
0 0
0 0
0 0
0 0
0 0
0 0
0 0
0 0
0 0
0 0
0 0
0 0
0 0
0 0
0 0
0 0
0 0
0 0
0 0
0 0
0 0
0 0
0 0
0 0
0 0
0 0
0 0
0 0
0 0
0 0
0 0
0 0
0 0
0 0
0 0
0 0
0 0
0 0
0 0
0 0
0 0
0 0
0 0
0 0
0 0
0 0
0 0
0 0
0 0
0 0
0 0
0 0
0 0
0 0
0 0
0 0
0 0
0 0
0 0
0 0
0 0
0 0
0 0
0 0
0 0
0 0
0 0
0 0
0 0
0 0
0 0
0 0
0 0
0 0
0 0
0 0
0 0
0 0
0 0
0 0
0 0
0 0
0 0
0 0
0 0
0 0
0 0
0 0
0 0
0 0
0 0
0 0
0 0
0 0
0 0
0 0
0 0
0 0
0 0
0 0
0 0
0 0
0 0
0 0
0 0
0 0
0 0
0 0
0 0
0 0
0 0
0 0
0 0
0 0
0 0
0 0
0 0
0 0
0 0
0 0
0 0
0 0
0 0
0 0
0 0
0 0
0 0
0 0
0 0
0 0
0 0
0 0
0 0
0 0
0 0
0 0
0 0
0 0
0 0
0 0
0 0
0 0
0 0
0 0
0 0
0 0
0 0
0 0
0 0
0 0
0 0
0 0
0 0
0 0
0 0
0 0
0 0
0 0
0 0
0 0
0 0
0 0
0 0
0 0
0 0
0 0
0 0
0 0
0 0
0 0
0 0
0 0
0 0
0 0
0 0
0 0
0 0
0 0
0 0
0 0
0 0
0 0
0 0
0 0
0 0
0 0
0 0
0 0
0 0
0 0
0 0
0 0
0 0
0 0
0 0
0 0
0 0
0 0
0 0
0 0
0 0
0 0
0 0
0 0
0 0
0 0
0 0
0 0
0 0
0 0
0 0
0 0
0 0
0 0
0 0
0 0
0 0
0 0
0 0
0 0
0 0
0 0
0 0
0 0
0 0
0 0
0 0
0 0
0 0
0 0
0 0
0 0
0 0
0 0
0 0
0 0
0 0
0 0
0 0
0 0
0 0
0 0
0 0
0 0
0 0
0 0
0 0
0 0
0 0
0 0
0 0
0 0
0 0
0 0
0 0
0 0
0 0
0 0
0 0
0 0
0 0
0 0
0 0
0 0
0 0
0 0
0 0
0 0
0 0
0 0
0 0
0 0
0 0
0 0
0 0
0 0
0 0
0 0
0 0
0 0
0 0
0 0
0 0
0 0
0 0
0 0
0 0
0 0
0 0
0 0
0 0
0 0
0 0
0 0
0 0
0 0
0 0
0 0
0 0
0 0
0 0
0 0
0 0
0 0
0 0
0 0
0 0
0 0
0 0
0 0
0 0
0 0
0 0
0 0
0 0
0 0
0 0
0 0
0 0
0 0
0 0
0 0
0 0
0 0
0 0
0 0
0 0
0 0
0 0
0 0
0 0
0 0
0 0
0 0
0 0
0 0
0 0
0 0
0 0
0 0
0 0
0 0
0 0
0 0
0 0
0 0
0 0
0 0
0 0
0 0
0 0
0 0
0 0
0 0
0 0
0 0
0 0
0 0
0 0
0 0
0 0
0 0
0 0
0 0
0 0
0 0
0 0
0 0
0 0
0 0
0 0
0 0
0 0
0 0
0 0
0 0
0 0
0 0
0 0
0 0
0 0
0 0
0 0
0 0
0 0
0 0
0 0
0 0
0 0
0 0
0 0
0 0
0 0
0 0
0 0
0 0
0 0
0 0
0 0
0 0
0 0
0 0
0 0
0 0
0 0
0 0
0 0
0 0
0 0
0 0
0 0
0 0
0 0
0 0
0 0
0 0
0 0
0 0
0 0
0 0
0 0
0 0
0 0
0 0
0 0
0 0
0 0
0 0
0 0
0 0
0 0
0 0
0 0
0 0
0 0
0 0
0 0
0 0
0 0
0 0
0 0
0 0
0 0
0 0
0 0
0 0
0 0
0 0
0 0
0 0
0 0
0 0
0 0
0 0
0 0
0 0
0 0
0 0
0 0
0 0
0 0
0 0
0 0
0 0
0 0
0 0
0 0
0 0
0 0
0 0
0 0
0 0
0 0
0 0
0 0
0 0
0 0
0 0
0 0
0 0
0 0
0 0
0 0
0 0
0 0
0 0
0 0
0 0
0 0
0 0
0 0
0 0
0 0
0 0
0 0
0 0
0 0
0 0
0 0
0 0
0 0
0 0
0 0
0 0
0 0
0 0
0 0
0 0
0 0
0 0
0 0
0 0
0 0
0 0
0 0
0 0
0 0
0 0
0 0
0 0
0 0
0 0
0 0
0 0
0 0
0 0
0 0
0 0
0 0
0 0
0 0
0 0
0 0
0 0
0 0
0 0
0 0
0 0
0 0
0 0
0 0
0 0
0 0
0 0
0 0
0 0
0 0
0 0
0 0
0 0
0 0
0 0
0 0
0 0
0 0
0 0
0 0
0 0
0 0
0 0
0 0
0 0
0 0
0 0
0 0
0 0
0 0
0 0
0 0
0 0
0 0
0 0
0 0
0 0
0 0
0 0
0 0
0 0
0 0
0 0
0 0
0 0
0 0
0 0
0 0
0 0
0 0
0 0
0 0
0 0
0 0
0 0
0 0
0 0
0 0
0 0
0 0
0 0
0 0
0 0
0 0
0 0
0 0
0 0
0 0
0 0
0 0
0 0
0 0
0 0
0 0
0 0
0 0
0 0
0 0
0 0
0 0
0 0
0 0
0 0
0 0
0 0
0 0
0 0
0 0
0 0
0 0
0 0
0 0
0 0
0 0
0 0
0 0
0 0
0 0
0 0
0 0
0 0
0 0
0 0
0 0
0 0
0 0
0 0
0 0
0 0
0 0
0 0
0 0
0 0
0 0
0 0
0 0
0 0
0 0
0 0
0 0
0 0
0 0
0 0
0 0
0 0
0 0
0 0
0 0
0 0
0 0
0 0
0 0
0 0
0 0
0 0
0 0
0 0
0 0
0 0
0 0
0 0
0 0
0 0
0 0
0 0
0 0
0 0
0 0
0 0
0 0
0 0
0 0
0 0
0 0
0 0
0 0
0 0
0 0
0 0
0 0
0 0
0 0
0 0
0 0
0 0
0 0
0 0
0 0
0 0
0 0
0 0
0 0
0 0
0 0
0 0
0 0
0 0
0 0
0 0
0 0
0 0
0 0
0 0
0 0
0 0
0 0
0 0
0 0
0 0
0 0
0 0
0 0
0 0
0 0
0 0
0 0
0 0
0 0
0 0
0 0
0 0
0 0
0 0
0 0
0 0
0 0
0 0
0 0
0 0
0 0
0 0
0 0
0 0
0 0
0 0
0 0
0 0
0 0
0 0
0 0
0 0
0 0
0 0
0 0
0 0
0 0
0 0
0 0
0 0
0 0
0 0
0 0
0 0
0 0
0 0
0 0
0 0
0 0
0 0
0 0
0 0
0 0
0 0
0 0
0 0
0 0
0 0
0 0
0 0
0 0
0 0
0 0
0 0
0 0
0 0
0 0
0 0
0 0
0 0
0 0
0 0
0 0
0 0
0 0
0 0
0 0
0 0
0 0
0 0
0 0
0 0
0 0
0 0
0 0
0 0
0 0
0 0
0 0
0 0
0 0
0 0
0 0
0 0
0 0
0 0
0 0
0 0
0 0
0 0
0 0
0 0
0 0
0 0
0 0
0 0
0 0
0 0
0 0
0 0
0 0
0 0
0 0
0 0
0 0
0 0
0 0
0 0
0 0
0 0
0 0
0 0
0 0
0 0
0 0
0 0
0 0
0 0
0 0
0 0
0 0
0 0
0 0
0 0
0 0
0 0
0 0
0 0
0 0
0 0
0 0
0 0
0 0
0 0
0 0
0 0
0 0
0 0
0 0
0 0
0 0
0 0
0 0
0 0
0 0
0 0
0 0
0 0
0 0
0 0
0 0
0 0
0 0
0 0
0 0
0 0
0 0
0 0
0 0
0 0
0 0
0 0
0 0
0 0
0 0
0 0
0 0
0 0
0 0
0 0
0 0
0 0
0 0
0 0
0 0
0 0
0 0
0 0
0 0
0 0
0 0
0 0
0 0
0 0
0 0
0 0
0 0
0 0
0 0
0 0
0 0
0 0
0 0
0 0
0 0
0 0
0 0
0 0
0 0
0 0
0 0
0 0
0 0
0 0
0 0
0 0
0 0
0 0
0 0
0 0
0 0
0 0
0 0
0 0
0 0
0 0
0 0
0 0
0 0
0 0
0 0
0 0
0 0
0 0
0 0
0 0
0 0
0 0
0 0
0 0
0 0
0 0
0 0
0 0
0 0
0 0
0 0
0 0
0 0
0 0
0 0
0 0
0 0
0 0
0 0
0 0
0 0
0 0
0 0
0 0
0 0
0 0
0 0
0 0
0 0
0 0
0 0
0 0
0 0
0 0
0 0
0 0
0 0
0 0
0 0
0 0
0 0
0 0
0 0
0 0
0 0
0 0
0 0
0 0
0 0
0 0
0 0
0 0
0 0
0 0
0 0
0 0
0 0
0 0
0 0
0 0
0 0
0 0
0 0
0 0
0 0
0 0
0 0
0 0
0 0
0 0
0 0
0 0
0 0
0 0
0 0
0 0
0 0
0 0
0 0
0 0
0 0
0 0
0 0
0 0
0 0
0 0
0 0
0 0
0 0
0 0
0 0
0 0
0 0
0 0
0 0
0 0
0 0
0 0
0 0
0 0
0 0
0 0
0 0
0 0
0 0
0 0
0 0
0 0
0 0
0 0
0 0
0 0
0 0
0 0
0 0
0 0
0 0
0 0
0 0
0 0
0 0
0 0
0 0
0 0
0 0
0 0
0 0
0 0
0 0
0 0
0 0
0 0
0 0
0 0
0 0
0 0
0 0
0 0
0 0
0 0
0 0
0 0
0 0
0 0
0 0
0 0
0 0
0 0
0 0
0 0
0 0
0 0
0 0
0 0
0 0
0 0
0 0
0 0
0 0
0 0
0 0
0 0
0 0
0 0
0 0
0 0
0 0
0 0
0 0
0 0
0 0
0 0
0 0
0 0
0 0
0 0
0 0
0 0
0 0
0 0
0 0
0 0
0 0
0 0
0 0
0 0
0 0
0 0
0 0
0 0
0 0
0 0
0 0
0 0
0 0
0 0
0 0
0 0
0 0
0 0
0 0
0 0
0 0
0 0
0 0
0 0
0 0
0 0
0 0
0 0
0 0
0 0
0 0
0 0
0 0
0 0
0 0
0 0
0 0
0 0
0 0
0 0
0 0
0 0
0 0
0 0
0 0
0 0
0 0
0 0
0 0
0 0
0 0
0 0
0 0
0 0
0 0
0 0
0 0
0 0
0 0
0 0
0 0
0 0
0 0
0 0
0 0
0 0
0 0
0 0
0 0
0 0
0 0
0 0
0 0
0 0
0 0
0 0
0 0
0 0
0 0
0 0
0 0
0 0
0 0
0 0
0 0
0 0
0 0
0 0
0 0
0 0
0 0
0 0
0 0
0 0
0 0
0 0
0 0
0 0
0 0
0 0
0 0
0 0
0 0
0 0
0 0
0 0
0 0
0 0
0 0
0 0
0 0
0 0
0 0
0 0
0 0
0 0
0 0
0 0
0 0
0 0
0 0
0 0
0 0
0 0
0 0
0 0
0 0
0 0
0 0
0 0
0 0
0 0
0 0
0 0
0 0
0 0
0 0
0 0
0 0
0 0
0 0
0 0
0 0
0 0
0 0
0 0
0 0
0 0
0 0
0 0
0 0
0 0
0 0
0 0
0 0
0 0
0 0
0 0
0 0
0 0
0 0
0 0
0 0
0 0
0 0
0 0
0 0
0 0
0 0
0 0
0 0
0 0
0 0
0 0
0 0
0 0
0 0
0 0
0 0
0 0
0 0
0 0
0 0
0 0
0 0
0 0
0 0
0 0
0 0
0 0
0 0
0 0
0 0
0 0
0 0
0 0
0 0
0 0
0 0
0 0
0 0
0 0
0 0
0 0
0 0
0 0
0 0
0 0
0 0
0 0
0 0
0 0
0 0
0 0
0 0
0 0
0 0
0 0
0 0
0 0
0 0
0 0
0 0
0 0
0 0
0 0
0 0
0 0
0 0
0 0
0 0
0 0
0 0
0 0
0 0
0 0
0 0
0 0
0 0
0 0
0 0
0 0
0 0
0 0
0 0
0 0
0 0
0 0
0 0
0 0
0 0
0 0
0 0
0 0
0 0
0 0
0 0
0 0
0 0
0 0
0 0
0 0
0 0
0 0
0 0
0 0
0 0
0 0
0 0
0 0
0 0
0 0
0 0
0 0
0 0
0 0
0 0
0 0
0 0
0 0
0 0
0 0
0 0
0 0
0 0
0 0
0 0
0 0
0 0
0 0
0 0
0 0
0 0
0 0
0 0
0 0
0 0
0 0
0 0
0 0
0 0
0 0
0 0
0 0
0 0
0 0
0 0
0 0
0 0
0 0
0 0
0 0
0 0
0 0
0 0
0 0
0 0
0 0
0 0
0 0
0 0
0 0
0 0
0 0
0 0
0 0
0 0
0 0
0 0
0 0
0 0
0 0
0 0
0 0
0 0
0 0
0 0
0 0
0 0
0 0
0 0
0 0
0 0
0 0
0 0
0 0
0 0
0 0
0 0
0 0
0 0
0 0
0 0
0 0
0 0
0 0
0 0
0 0
0 0
0 0
0 0
0 0
0 0
0 0
0 0
0 0
0 0
0 0
0 0
0 0
0 0
0 0
0 0
0 0
0 0
0 0
0 0
0 0
0 0
0 0
0 0
0 0
0 0
0 0
0 0
0 0
0 0
0 0
0 0
0 0
0 0
0 0
0 0
0 0
0 0
0 0
0 0
0 0
0 0
0 0
0 0
0 0
0 0
0 0
0 0
0 0
0 0
0 0
0 0
0 0
0 0
0 0
0 0
0 0
0 0
0 0
0 0
0 0
0 0
0 0
0 0
0 0
0 0
0 0
0 0
0 0
0 0
0 0
0 0
0 0
0 0
0 0
0 0
0 0
0 0
0 0
0 0
0 0
0 0
0 0
0 0
0 0
0 0
0 0
0 0
0 0
0 0
0 0
0 0
0 0
0 0
0 0
0 0
0 0
0 0
0 0
0 0
0 0
0 0
0 0
0 0
0 0
0 0
0 0
0 0
0 0
0 0
0 0
0 0
0 0
0 0
0 0
0 0
0 0
0 0
0 0
0 0
0 0
0 0
0 0
0 0
0 0
0 0
0 0
0 0
0 0
0 0
0 0
0 0
0 0
0 0
0 0
0 0
0 0
0 0
0 0
0 0
0 0
0 0
0 0
0 0
0 0
0 0
0 0
0 0
0 0
0 0
0 0
0 0
0 0
0 0
0 0
0 0
0 0
0 0
0 0
0 0
0 0
0 0
0 0
0 0
0 0
0 0
0 0
0 0
0 0
0 0
0 0
0 0
0 0
0 0
0 0
0 0
0 0
0 0
0 0
0 0
0 0
0 0
0 0
0 0
0 0
0 0
0 0
0 0
0 0
0 0
0 0
0 0
0 0
0 0
0 0
0 0
0 0
0 0
0 0
0 0
0 0
0 0
0 0
0 0
0 0
0 0
0 0
0 0
0 0
0 0
0 0
0 0
0 0
0 0
0 0
0 0
0 0
0 0
0 0
0 0
0 0
0 0
0 0
0 0
0 0
0 0
0 0
0 0
0 0
0 0
0 0
0 0
0 0
0 0
0 0
0 0
0 0
0 0
0 0
0 0
0 0
0 0
0 0
0 0
0 0
0 0
0 0
0 0
0 0
0 0
0 0
0 0
0 0
0 0
0 0
0 0
0 0
0 0
0 0
0 0
0 0
0 0
0 0
0 0
0 0
0 0
0 0
0 0
0 0
0 0
0 0
0 0
0 0
0 0
0 0
0 0
0 0
0 0
0 0
0 0
0 0
0 0
0 0
0 0
0 0
0 0
0 0
0 0
0 0
0 0
0 0
0 0
0 0
0 0
0 0
0 0
0 0
0 0
0 0
0 0
0 0
0 0
0 0
0 0
0 0
0 0
0 0
0 0
0 0
0 0
0 0
0 0
0 0
0 0
0 0
0 0
0 0
0 0
0 0
0 0
0 0
0 0
0 0
0 0
0 0
0 0
0 0
0 0
0 0
0 0
0 0
0 0
0 0
0 0
0 0
0 0
0 0
0 0
0 0
0 0
0 0
0 0
0 0
0 0
0 0
0 0
0 0
0 0
0 0
0 0
0 0
0 0
0 0
0 0
0 0
0 0
0 0
0 0
0 0
0 0
0 0
0 0
0 0
0 0
0 0
0 0
0 0
0 0
0 0
0 0
0 0
0 0
0 0
0 0
0 0
0 0
0 0
0 0
0 0
0 0
0 0
0 0
0 0
0 0
0 0
0 0
0 0
0 0
0 0
0 0
0 0
0 0
0 0
0 0
0 0
0 0
0 0
0 0
0 0
0 0
0 0
0 0
0 0
0 0
0 0
0 0
0 0
0 0
0 0
0 0
0 0
0 0
0 0
0 0
0 0
0 0
0 0
0 0
0 0
0 0
0 0
0 0
0 0
0 0
0 0
0 0
0 0
0 0
0 0
0 0
0 0
0 0
0 0
0 0
0 0
0 0
0 0
0 0
0 0
0 0
0 0
0 0
0 0
0 0
0 0
0 0
0 0
0 0
0 0
0 0
0 0
0 0
0 0
0 0
0 0
0 0
0 0
0 0
0 0
0 0
0 0
0 0
0 0
0 0
0 0
0 0
0 0
0 0
0 0
0 0
0 0
0 0
0 0
0 0
0 0
0 0
0 0
0 0
0 0
0 0
0 0
0 0
0 0
0 0
0 0
0 0
0 0
0 0
0 0
0 0
0 0
0 0
0 0
0 0
0 0
0 0
0 0
0 0
0 0
0 0
0 0
0 0
0 0
0 0
0 0
0 0
0 0
0 0
0 0
0 0
0 0
0 0
0 0
0 0
0 0
0 0
0 0
0 0
0 0
0 0
0 0
0 0
0 0
0 0
0 0
0 0
0 0
0 0
0 0
0 0
0 0
0 0
0 0
0 0
0 0
0 0
0 0
0 0
0 0
0 0
0 0
0 0
0 0
0 0
0 0
0 0
0 0
0 0
0 0
0 0
0 0
0 0
0 0
0 0
0 0
0 0
0 0
0 0
0 0
0 0
0 0
0 0
0 0
0 0
0 0
0 0
0 0
0 0
0 0
0 0
0 0
0 0
0 0
0 0
0 0
0 0
0 0
0 0
0 0
0 0
0 0
0 0
0 0
0 0
0 0
0 0
0 0
0 0
0 0
0 0
0 0
0 0
0 0
0 0
0 0
0 0
0 0
0 0
0 0
0 0
0 0
0 0
0 0
0 0
0 0
0 0
0 0
0 0
0 0
0 0
0 0
0 0
0 0
0 0
0 0
0 0
0 0
0 0
0 0
0 0
0 0
0 0
0 0
0 0
0 0
0 0
0 0
0 0
0 0
0 0
0 0
0 0
0 0
0 0
0 0
0 0
0 0
0 0
0 0
0 0
0 0
0 0
0 0
0 0
0 0
0 0
0 0
0 0
0 0
0 0
0 0
0 0
0 0
0 0
0 0
0 0
0 0
0 0
0 0
0 0
0 0
0 0
0 0
0 0
0 0
0 0
0 0
0 0
0 0
0 0
0 0
0 0
0 0
0 0
0 0
0 0
0 0
0 0
0 0
0 0
0 0
0 0
0 0
0 0
0 0
0 0
0 0
0 0
0 0
0 0
0 0
0 0
0 0
0 0
0 0
0 0
0 0
0 0
0 0
0 0
0 0
0 0
0 0
0 0
0 0
0 0
0 0
0 0
0 0
0 0
0 0
0 0
0 0
0 0
0 0
0 0
0 0
0 0
0 0
0 0
0 0
0 0
0 0
0 0
0 0
0 0
0 0
0 0
0 0
0 0
0 0
0 0
0 0
0 0
0 0
0 0
0 0
0 0
0 0
0 0
0 0
0 0
0 0
0 0
0 0
0 0
0 0
0 0
0 0
0 0
0 0
0 0
0 0
0 0
0 0
0 0
0 0
0 0
0 0
0 0
0 0
0 0
0 0
0 0
0 0
0 0
0 0
0 0
0 0
0 0
0 0
0 0
0 0
0 0
0 0
0 0
0 0
0 0
0 0
0 0
0 0
0 0
0 0
0 0
0 0
0 0
0 0
0 0
0 0
0 0
0 0
0 0
0 0
0 0
0 0
0 0
0 0
0 0
0 0
0 0
0 0
0 0
0 0
0 0
0 0
0 0
0 0
0 0
0 0
0 0
0 0
0 0
0 0
0 0
0 0
0 0
0 0
0 0
0 0
0 0
0 0
0 0
0 0
0 0
0 0
0 0
0 0
0 0
0 0
0 0
0 0
0 0
0 0
0 0
0 0
0 0
0 0
0 0
0 0
0 0
0 0
0 0
0 0
0 0
0 0
0 0
0 0
0 0
0 0
0 0
0 0
0 0
0 0
0 0
0 0
0 0
0 0
0 0
0 0
0 0
0 0
0 0
0 0
0 0
0 0
0 0
0 0
0 0
0 0
0 0
0 0
0 0
0 0
0 0
0 0
0 0
0 0
0 0
0 0
0 0
0 0
0 0
0 0
0 0
0 0
0 0
0 0
0 0
0 0
0 0
0 0
0 0
0 0
0 0
0 0
0 0
0 0
0 0
0 0
0 0
0 0
0 0
0 0
0 0
0 0
0 0
0 0
0 0
0 0
0 0
0 0
0 0
0 0
0 0
0 0
0 0
0 0
0 0
0 0
0 0
0 0
0 0
0 0
0 0
0 0
0 0
0 0
0 0
0 0
0 0
0 0
0 0
0 0
0 0
0 0
0 0
0 0
0 0
0 0
0 0
0 0
0 0
0 0
0 0
0 0
0 0
0 0
0 0
0 0
0 0
0 0
0 0
0 0
0 0
0 0
0 0
0 0
0 0
0 0
0 0
0 0
0 0
0 0
0 0
0 0
0 0
0 0
0 0
0 0
0 0
0 0
0 0
0 0
0 0
0 0
0 0
0 0
0 0
0 0
0 0
0 0
0 0
0 0
0 0
0 0
0 0
0 0
0 0
0 0
0 0
0 0
0 0
0 0
0 0
0 0
0 0
0 0
0 0
0 0
0 0
0 0
0 0
0 0
0 0
0 0
0 0
0 0
0 0
0 0
0 0
0 0
0 0
0 0
0 0
0 0
0 0
0 0
0 0
0 0
0 0
0 0
0 0
0 0
0 0
0 0
0 0
0 0
0 0
0 0
0 0
0 0
0 0
0 0
0 0
0 0
0 0
0 0
0 0
0 0
0 0
0 0
0 0
0 0
0 0
0 0
0 0
0 0
0 0
0 0
0 0
0 0
0 0
0 0
0 0
0 0
0 0
0 0
0 0
0 0
0 0
0 0
0 0
0 0
0 0
0 0
0 0
0 0
0 0
0 0
0 0
0 0
0 0
0 0
0 0
0 0
0 0
0 0
0 0
0 0
0 0
0 0
0 0
0 0
0 0
0 0
0 0
0 0
0 0
0 0
0 0
0 0
0 0
0 0
0 0
0 0
0 0
0 0
0 0
0 0
0 0
0 0
0 0
0 0
0 0
0 0
0 0
0 0
0 0
0 0
0 0
0 0
0 0
0 0
0 0
0 0
0 0
0 0
0 0
0 0
0 0
0 0
0 0
0 0
0 0
0 0
0 0
0 0
0 0
0 0
0 0
0 0
0 0
0 0
0 0
0 0
0 0
0 0
0 0
0 0
0 0
0 0
0 0
0 0
0 0
0 0
0 0
0 0
0 0
0 0
0 0
0 0
0 0
0 0
0 0
0 0
0 0
0 0
0 0
0 0
0 0
0 0
0 0
0 0
0 0
0 0
0 0
0 0
0 0
0 0
0 0
0 0
0 0
0 0
0 0
0 0
0 0
0 0
0 0
0 0
0 0
0 0
0 0
0 0
0 0
0 0
0 0
0 0
0 0
0 0
0 0
0 0
0 0
0 0
0 0
0 0
0 0
0 0
0 0
0 0
0 0
0 0
0 0
0 0
0 0
0 0
0 0
0 0
0 0
0 0
0 0
0 0
0 0
0 0
0 0
0 0
0 0
0 0
0 0
0 0
0 0
0 0
0 0
0 0
0 0
0 0
0 0
0 0
0 0
0 0
0 0
0 0
0 0
0 0
0 0
0 0
0 0
0 0
0 0
0 0
0 0
0 0
0 0
0 0
0 0
0 0
0 0
0 0
0 0
0 0
0 0
0 0
0 0
0 0
0 0
0 0
0 0
0 0
0 0
0 0
0 0
0 0
0 0
0 0
0 0
0 0
0 0
0 0
0 0
0 0
0 0
0 0
0 0
0 0
0 0
0 0
0 0
0 0
0 0
0 0
0 0
0 0
0 0
0 0
0 0
0 0
0 0
0 0
0 0
0 0
0 0
0 0
0 0
0 0
0 0
0 0
0 0
0 0
0 0
0 0
0 0
0 0
0 0
0 0
0 0
0 0
0 0
0 0
0 0
0 0
0 0
0 0
0 0
0 0
0 0
0 0
0 0
0 0
0 0
0 0
0 0
0 0
0 0
0 0
0 0
0 0
0 0
0 0
0 0
0 0
0 0
0 0
0 0
0 0
0 0
0 0
0 0
0 0
0 0
0 0
0 0
0 0
0 0
0 0
0 0
0 0
0 0
0 0
0 0
0 0
0 0
0 0
0 0
0 0
0 0
0 0
0 0
0 0
0 0
0 0
0 0
0 0
0 0
0 0
0 0
0 0
0 0
0 0
0 0
0 0
0 0
0 0
0 0
0 0
0 0
0 0
0 0
0 0
0 0
0 0
0 0
0 0
0 0
0 0
0 0
0 0
0 0
0 0
0 0
0 0
0 0
0 0
0 0
0 0
0 0
0 0
0 0
0 0
0 0
0 0
0 0
0 0
0 0
0 0
0 0
0 0
0 0
0 0
0 0
0 0
0 0
0 0
0 0
0 0
0 0
0 0
0 0
0 0
0 0
0 0
0 0
0 0
0 0
0 0
0 0
0 0
0 0
0 0
0 0
0 0
0 0
0 0
0 0
0 0
0 0
0 0
0 0
0 0
0 0
0 0
0 0
0 0
0 0
0 0
0 0
0 0
0 0
0 0
0 0
0 0
0 0
0 0
0 0
0 0
0 0
0 0
0 0
0 0
0 0
0 0
0 0
0 0
0 0
0 0
0 0
0 0
0 0
0 0
0 0
0 0
0 0
0 0
0 0
0 0
0 0
0 0
0 0
0 0
0 0
0 0
0 0
0 0
0 0
0 0
0 0
0 0
0 0
0 0
0 0
0 0
0 0
0 0
0 0
0 0
0 0
0 0
0 0
0 0
0 0
0 0
0 0
0 0
0 0
0 0
0 0
0 0
0 0
0 0
0 0
0 0
0 0
0 0
0 0
0 0
0 0
0 0
0 0
0 0
0 0
0 0
0 0
0 0
0 0
0 0
0 0
0 0
0 0
0 0
0 0
0 0
0 0
0 0
0 0
0 0
0 0
0 0
0 0
0 0
0 0
0 0
0 0
0 0
0 0
0 0
0 0
0 0
0 0
0 0
0 0
0 0
0 0
0 0
0 0
0 0
0 0
0 0
0 0
0 0
0 0
0 0
0 0
0 0
0 0
0 0
0 0
0 0
0 0
0 0
0 0
0 0
0 0
0 0
0 0
0 0
0 0
0 0
0 0
0 0
0 0
0 0
0 0
0 0
0 0
0 0
0 0
0 0
0 0
0 0
0 0
0 0
0 0
0 0
0 0
0 0
0 0
0 0
0 0
0 0
0 0
0 0
0 0
0 0
0 0
0 0
0 0
0 0
0 0
0 0
0 0
0 0
0 0
0 0
0 0
0 0
0 0
0 0
0 0
0 0
0 0
0 0
0 0
0 0
0 0
0 0
0 0
0 0
0 0
0 0
0 0
0 0
0 0
0 0
0 0
0 0
0 0
0 0
0 0
0 0
0 0
0 0
0 0
0 0
0 0
0 0
0 0
0 0
0 0
0 0
0 0
0 0
0 0
0 0
0 0
0 0
0 0
0 0
0 0
0 0
0 0
0 0
0 0
0 0
0 0
0 0
0 0
0 0
0 0
0 0
0 0
0 0
0 0
0 0
0 0
0 0
0 0
0 0
0 0
0 0
0 0
0 0
0 0
0 0
0 0
0 0
0 0
0 0
0 0
0 0
0 0
0 0
0 0
0 0
0 0
0 0
0 0
0 0
0 0
0 0
0 0
0 0
0 0
0 0
0 0
0 0
0 0
0 0
0 0
0 0
0 0
0 0
0 0
0 0
0 0
0 0
0 0
0 0
0 0
0 0
0 0
0 0
0 0
0 0
0 0
0 0
0 0
0 0
0 0
0 0
0 0
0 0
0 0
0 0
0 0
0 0
0 0
0 0
0 0
0 0
0 0
0 0
0 0
0 0
0 0
0 0
0 0
0 0
0 0
0 0
0 0
0 0
0 0
0 0
0 0
0 0
0 0
0 0
0 0
0 0
0 0
0 0
0 0
0 0
0 0
0 0
0 0
0 0
0 0
0 0
0 0
0 0
0 0
0 0
0 0
0 0
0 0
0 0
0 0
0 0
0 0
0 0
0 0
0 0
0 0
0 0
0 0
0 0
0 0
0 0
0 0
0 0
0 0
0 0
0 0
0 0
0 0
0 0
0 0
0 0
0 0
0 0
0 0
0 0
0 0
0 0
0 0
0 0
0 0
0 0
0 0
0 0
0 0
0 0
0 0
0 0
0 0
0 0
0 0
0 0
0 0
0 0
0 0
0 0
0 0
0 0
0 0
0 0
0 0
0 0
0 0
0 0
0 0
0 0
0 0
0 0
0 0
0 0
0 0
0 0
0 0
0 0
0 0
0 0
0 0
0 0
0 0
0 0
0 0
0 0
0 0
0 0
0 0
0 0
0 0
0 0
0 0
0 0
0 0
0 0
0 0
0 0
0 0
0 0
0 0
0 0
0 0
0 0
0 0
0 0
0 0
0 0
0 0
0 0
0 0
0 0
0 0
0 0
0 0
0 0
0 0
0 0
0 0
0 0
0 0
0 0
0 0
0 0
0 0
0 0
0 0
0 0
0 0
0 0
0 0
0 0
0 0
0 0
0 0
0 0
0 0
0 0
0 0
0 0
0 0
0 0
0 0
0 0
0 0
0 0
0 0
0 0
0 0
0 0
0 0
0 0
0 0
0 0
0 0
0 0
0 0
0 0
0 0
0 0
0 0
0 0
0 0
0 0
0 0
0 0
0 0
0 0
0 0
0 0
0 0
0 0
0 0
0 0
0 0
0 0
0 0
0 0
0 0
0 0
0 0
0 0
0 0
0 0
0 0
0 0
0 0
0 0
0 0
0 0
0 0
0 0
0 0
0 0
0 0
0 0
0 0
0 0
0 0
0 0
0 0
0 0
0 0
0 0
0 0
0 0
0 0
0 0
0 0
0 0
0 0
0 0
0 0
0 0
0 0
0 0
0 0
0 0
0 0
0 0
0 0
0 0
0 0
0 0
0 0
0 0
0 0
0 0
0 0
0 0
0 0
0 0
0 0
0 0
0 0
0 0
0 0
0 0
0 0
0 0
0 0
0 0
0 0
0 0
0 0
0 0
0 0
0 0
0 0
0 0
0 0
0 0
0 0
0 0
0 0
0 0
0 0
0 0
0 0
0 0
0 0
0 0
0 0
0 0
0 0
0 0
0 0
0 0
0 0
0 0
0 0
0 0
0 0
0 0
0 0
0 0
0 0
0 0
0 0
0 0
0 0
0 0
0 0
0 0
0 0
0 0
0 0
0 0
0 0
0 0
0 0
0 0
0 0
0 0
0 0
0 0
0 0
0 0
0 0
0 0
0 0
0 0
0 0
0 0
0 0
0 0
0 0
0 0
0 0
0 0
0 0
0 0
0 0
0 0
0 0
0 0
0 0
0 0
0 0
0 0
0 0
0 0
0 0
0 0
0 0
0 0
0 0
0 0
0 0
0 0
0 0
0 0
0 0
0 0
0 0
0 0
0 0
0 0
0 0
0 0
0 0
0 0
0 0
0 0
0 0
0 0
0 0
0 0
0 0
0 0
0 0
0 0
0 0
0 0
0 0
0 0
0 0
0 0
0 0
0 0
0 0
0 0
0 0
0 0
0 0
0 0
0 0
0 0
0 0
0 0
0 0
0 0
0 0
0 0
0 0
0 0
0 0
0 0
0 0
0 0
0 0
0 0
0 0
0 0
0 0
0 0
0 0
0 0
0 0
0 0
0 0
0 0
0 0
0 0
0 0
0 0
0 0
0 0
0 0
0 0
0 0
0 0
0 0
0 0
0 0
0 0
0 0
0 0
0 0
0 0
0 0
0 0
0 0
0 0
0 0
0 0
0 0
0 0
0 0
0 0
0 0
0 0
0 0
0 0
0 0
0 0
0 0
0 0
0 0
0 0
0 0
0 0
0 0
0 0
0 0
0 0
0 0
0 0
0 0
0 0
0 0
0 0
0 0
0 0
0 0
0 0
0 0
0 0
0 0
0 0
0 0
0 0
0 0
0 0
0 0
0 0
0 0
0 0
0 0
0 0
0 0
0 0
0 0
0 0
0 0
0 0
0 0
0 0
0 0
0 0
0 0
0 0
0 0
0 0
0 0
0 0
0 0
0 0
0 0
0 0
0 0
0 0
0 0
0 0
0 0
0 0
0 0
0 0
0 0
0 0
0 0
0 0
0 0
0 0
0 0
0 0
0 0
0 0
0 0
0 0
0 0
0 0
0 0
0 0
0 0
0 0
0 0
0 0
0 0
0 0
0 0
0 0
0 0
0 0
0 0
0 0
0 0
0 0
0 0
0 0
0 0
0 0
0 0
0 0
0 0
0 0
0 0
0 0
0 0
0 0
0 0
0 0
0 0
0 0
0 0
0 0
0 0
0 0
0 0
0 0
0 0
0 0
0 0
0 0
0 0
0 0
0 0
0 0
0 0
0 0
0 0
0 0
0 0
0 0
0 0
0 0
0 0
0 0
0 0
0 0
0 0
0 0
0 0
0 0
0 0
0 0
0 0
0 0
0 0
0 0
0 0
0 0
0 0
0 0
0 0
0 0
0 0
0 0
0 0
0 0
0 0
0 0
0 0
0 0
0 0
0 0
0 0
0 0
0 0
0 0
0 0
0 0
0 0
0 0
0 0
0 0
0 0
0 0
0 0
0 0
0 0
0 0
0 0
0 0
0 0
0 0
0 0
0 0
0 0
0 0
0 0
0 0
0 0
0 0
0 0
0 0
0 0
0 0
0 0
0 0
0 0
0 0
0 0
0 0
0 0
0 0
0 0
0 0
0 0
0 0
0 0
0 0
0 0
0 0
0 0
0 0
0 0
0 0
0 0
0 0
0 0
0 0
0 0
0 0
0 0
0 0
0 0
0 0
0 0
0 0
0 0
0 0
0 0
0 0
0 0
0 0
0 0
0 0
0 0
0 0
0 0
0 0
0 0
0 0
0 0
0 0
0 0
0 0
0 0
0 0
0 0
0 0
0 0
0 0
0 0
0 0
0 0
0 0
0 0
0 0
0 0
0 0
0 0
0 0
0 0
0 0
0 0
0 0
0 0
0 0
0 0
0 0
0 0
0 0
0 0
0 0
0 0
0 0
0 0
0 0
0 0
0 0
0 0
0 0
0 0
0 0
0 0
0 0
0 0
0 0
0 0
0 0
0 0
0 0
0 0
0 0
0 0
0 0
0 0
0 0
0 0
0 0
0 0
0 0
0 0
0 0
0 0
0 0
0 0
0 0
0 0
0 0
0 0
0 0
0 0
0 0
0 0
0 0
0 0
0 0
0 0
0 0
0 0
0 0
0 0
0 0
0 0
0 0
0 0
0 0
0 0
0 0
0 0
0 0
0 0
0 0
0 0
0 0
0 0
0 0
0 0
0 0
0 0
0 0
0 0
0 0
0 0
0 0
0 0
0 0
0 0
0 0
0 0
0 0
0 0
0 0
0 0
0 0
0 0
0 0
0 0
0 0
0 0
0 0
0 0
0 0
0 0
0 0
0 0
0 0
0 0
0 0
0 0
0 0
0 0
0 0
0 0
0 0
0 0
0 0
0 0
0 0
0 0
0 0
0 0
0 0
0 0
0 0
0 0
0 0
0 0
0 0
0 0
0 0
0 0
0 0
0 0
0 0
0 0
0 0
0 0
0 0
0 0
0 0
0 0
0 0
0 0
0 0
0 0
0 0
0 0
0 0
0 0
0 0
0 0
0 0
0 0
0 0
0 0
0 0
0 0
0 0
0 0
0 0
0 0
0 0
0 0
0 0
0 0
0 0
0 0
0 0
0 0
0 0
0 0
0 0
0 0
0 0
0 0
0 0
0 0
0 0
0 0
0 0
0 0
0 0
0 0
0 0
0 0
0 0
0 0
0 0
0 0
0 0
0 0
0 0
0 0
0 0
0 0
0 0
0 0
0 0
0 0
0 0
0 0
0 0
0 0
0 0
0 0
0 0
0 0
0 0
0 0
0 0
0 0
0 0
0 0
0 0
0 0
0 0
0 0
0 0
0 0
0 0
0 0
0 0
0 0
0 0
0 0
0 0
0 0
0 0
0 0
0 0
0 0
0 0
0 0
0 0
0 0
0 0
0 0
0 0
0 0
0 0
0 0
0 0
0 0
0 0
0 0
0 0
0 0
0 0
0 0
0 0
0 0
0 0
0 0
0 0
0 0
0 0
0 0
0 0
0 0
0 0
0 0
0 0
0 0
0 0
0 0
0 0
0 0
0 0
0 0
0 0
0 0
0 0
0 0
0 0
0 0
0 0
0 0
0 0
0 0
0 0
0 0
0 0
0 0
0 0
0 0
0 0
0 0
0 0
0 0
0 0
0 0
0 0
0 0
0 0
0 0
0 0
0 0
0 0
0 0
0 0
0 0
0 0
0 0
0 0
0 0
0 0
0 0
0 0
0 0
0 0
0 0
0 0
0 0
0 0
0 0
0 0
0 0
0 0
0 0
0 0
0 0
0 0
0 0
0 0
0 0
0 0
0 0
0 0
0 0
0 0
0 0
0 0
0 0
0 0
0 0
0 0
0 0
0 0
0 0
0 0
0 0
0 0
0 0
0 0
0 0
0 0
0 0
0 0
0 0
0 0
0 0
0 0
0 0
0 0
0 0
0 0
0 0
0 0
0 0
0 0
0 0
0 0
0 0
0 0
0 0
0 0
0 0
0 0
0 0
0 0
0 0
0 0
0 0
0 0
0 0
0 0
0 0
0 0
0 0
0 0
0 0
0 0
0 0
0 0
0 0
0 0
0 0
0 0
0 0
0 0
0 0
0 0
0 0
0 0
0 0
0 0
0 0
0 0
0 0
0 0
0 0
0 0
0 0
0 0
0 0
0 0
0 0
0 0
0 0
0 0
0 0
0 0
0 0
0 0
0 0
0 0
0 0
0 0
0 0
0 0
0 0
0 0
0 0
0 0
0 0
0 0
0 0
0 0
0 0
0 0
0 0
0 0
0 0
0 0
0 0
0 0
0 0
0 0
0 0
0 0
0 0
0 0
0 0
0 0
0 0
0 0
0 0
0 0
0 0
0 0
0 0
0 0
0 0
0 0
0 0
0 0
0 0
0 0
0 0
0 0
0 0
0 0
0 0
0 0
0 0
0 0
0 0
0 0
0 0
0 0
0 0
0 0
0 0
0 0
0 0
0 0
0 0
0 0
0 0
0 0
0 0
0 0
0 0
0 0
0 0
0 0
0 0
0 0
0 0
0 0
0 0
0 0
0 0
0 0
0 0
0 0
0 0
0 0
0 0
0 0
0 0
0 0
0 0
0 0
0 0
0 0
0 0
0 0
0 0
0 0
0 0
0 0
0 0
0 0
0 0
0 0
0 0
0 0
0 0
0 0
0 0
0 0
0 0
0 0
0 0
0 0
0 0
0 0
0 0
0 0
0 0
0 0
0 0
0 0
0 0
0 0
0 0
0 0
0 0
0 0
0 0
0 0
0 0
0 0
0 0
0 0
0 0
0 0
0 0
0 0
0 0
0 0
0 0
0 0
0 0
0 0
0 0
0 0
0 0
0 0
0 0
0 0
0 0
0 0
0 0
0 0
0 0
0 0
0 0
0 0
0 0
0 0
0 0
0 0
0 0
0 0
0 0
0 0
0 0
0 0
0 0
0 0
0 0
0 0
0 0
0 0
0 0
0 0
0 0
0 0
0 0
0 0
0 0
0 0
0 0
0 0
0 0
0 0
0 0
0 0
0 0
0 0
0 0
0 0
0 0
0 0
0 0
0 0
0 0
0 0
0 0
0 0
0 0
0 0
0 0
0 0
0 0
0 0
0 0
0 0
0 0
0 0
0 0
0 0
0 0
0 0
0 0
0 0
0 0
0 0
0 0
0 0
0 0
0 0
0 0
0 0
0 0
0 0
0 0
0 0
0 0
0 0
0 0
0 0
0 0
0 0
0 0
0 0
0 0
0 0
0 0
0 0
0 0
0 0
0 0
0 0
0 0
0 0
0 0
0 0
0 0
0 0
0 0
0 0
0 0
0 0
0 0
0 0
0 0
0 0
0 0
0 0
0 0
0 0
0 0
0 0
0 0
0 0
0 0
0 0
0 0
0 0
0 0
0 0
0 0
0 0
0 0
0 0
0 0
0 0
0 0
0 0
0 0
0 0
0 0
0 0
0 0
0 0
0 0
0 0
0 0
0 0
0 0
0 0
0 0
0 0
0 0
0 0
0 0
0 0
0 0
0 0
0 0
0 0
0 0
0 0
0 0
0 0
0 0
0 0
0 0
0 0
0 0
0 0
0 0
0 0
0 0
0 0
0 0
0 0
0 0
0 0
0 0
0 0
0 0
0 0
0 0
0 0
0 0
0 0
0 0
0 0
0 0
0 0
0 0
0 0
0 0
0 0
0 0
0 0
0 0
0 0
0 0
0 0
0 0
0 0
0 0
0 0
0 0
0 0
0 0
0 0
0 0
0 0
0 0
0 0
0 0
0 0
0 0
0 0
0 0
0 0
0 0
0 0
0 0
0 0
0 0
0 0
0 0
0 0
0 0
0 0
0 0
0 0
0 0
0 0
0 0
0 0
0 0
0 0
0 0
0 0
0 0
0 0
0 0
0 0
0 0
0 0
0 0
0 0
0 0
0 0
0 0
0 0
0 0
0 0
0 0
0 0
0 0
0 0
0 0
0 0
0 0
0 0
0 0
0 0
0 0
0 0
0 0
0 0
0 0
0 0
0 0
0 0
0 0
0 0
0 0
0 0
0 0
0 0
0 0
0 0
0 0
0 0
0 0
0 0
0 0
0 0
0 0
0 0
0 0
0 0
0 0
0 0
0 0
0 0
0 0
0 0
0 0
0 0
0 0
0 0
0 0
0 0
0 0
0 0
0 0
0 0
0 0
0 0
0 0
0 0
0 0
0 0
0 0
0 0
0 0
0 0
0 0
0 0
0 0
0 0
0 0
0 0
0 0
0 0
0 0
0 0
0 0
0 0
0 0
0 0
0 0
0 0
0 0
0 0
0 0
0 0
0 0
0 0
0 0
0 0
0 0
0 0
0 0
0 0
0 0
0 0
0 0
0 0
0 0
0 0
0 0
0 0
0 0
0 0
0 0
0 0
0 0
0 0
0 0
0 0
0 0
0 0
0 0
0 0
0 0
0 0
0 0
0 0
0 0
0 0
0 0
0 0
0 0
0 0
0 0
0 0
0 0
0 0
0 0
0 0
0 0
0 0
0 0
0 0
0 0
0 0
0 0
0 0
0 0
0 0
0 0
0 0
0 0
0 0
0 0
0 0
0 0
0 0
0 0
0 0
0 0
0 0
0 0
0 0
0 0
0 0
0 0
0 0
0 0
0 0
0 0
0 0
0 0
0 0
0 0
0 0
0 0
0 0
0 0
0 0
0 0
0 0
0 0
0 0
0 0
0 0
0 0
0 0
0 0
0 0
0 0
0 0
0 0
0 0
0 0
0 0
0 0
0 0
0 0
0 0
0 0
0 0
0 0
0 0
0 0
0 0
0 0
0 0
0 0
0 0
0 0
0 0
0 0
0 0
0 0
0 0
0 0
0 0
0 0
0 0
0 0
0 0
0 0
0 0
0 0
0 0
0 0
0 0
0 0
0 0
0 0
0 0
0 0
0 0
0 0
0 0
0 0
0 0
0 0
0 0
0 0
0 0
0 0
0 0
0 0
0 0
0 0
0 0
0 0
0 0
0 0
0 0
0 0
0 0
0 0
0 0
0 0
0 0
0 0
0 0
0 0
0 0
0 0
0 0
0 0
0 0
0 0
0 0
0 0
0 0
0 0
0 0
0 0
0 0
0 0
0 0
0 0
0 0
0 0
0 0
0 0
0 0
0 0
0 0
0 0
0 0
0 0
0 0
0 0
0 0
0 0
0 0
0 0
0 0
0 0
0 0
0 0
0 0
0 0
0 0
0 0
0 0
0 0
0 0
0 0
0 0
0 0
0 0
0 0
0 0
0 0
0 0
0 0
0 0
0 0
0 0
0 0
0 0
0 0
0 0
0 0
0 0
0 0
0 0
0 0
0 0
0 0
0 0
0 0
0 0
0 0
0 0
0 0
0 0
0 0
0 0
0 0
0 0
0 0
0 0
0 0
0 0
0 0
0 0
0 0
0 0
0 0
0 0
0 0
0 0
0 0
0 0
0 0
0 0
0 0
0 0
0 0
0 0
0 0
0 0
0 0
0 0
0 0
0 0
0 0
0 0
0 0
0 0
0 0
0 0
0 0
0 0
0 0
0 0
0 0
0 0
0 0
0 0
0 0
0 0
0 0
0 0
0 0
0 0
0 0
0 0
0 0
0 0
0 0
0 0
0 0
0 0
0 0
0 0
0 0
0 0
0 0
0 0
0 0
0 0
0 0
0 0
0 0
0 0
0 0
0 0
0 0
0 0
0 0
0 0
0 0
0 0
0 0
0 0
0 0
0 0
0 0
0 0
0 0
0 0
0 0
0 0
0 0
0 0
0 0
0 0
0 0
0 0
0 0
0 0
0 0
0 0
0 0
0 0
0 0
0 0
0 0
0 0
0 0
0 0
0 0
0 0
0 0
0 0
0 0
0 0
0 0
0 0
0 0
0 0
0 0
0 0
0 0
0 0
0 0
0 0
0 0
0 0
0 0
0 0
0 0
0 0
0 0
0 0
0 0
0 0
0 0
0 0
0 0
0 0
0 0
0 0
0 0
0 0
0 0
0 0
0 0
0 0
0 0
0 0
0 0
0 0
0 0
0 0
0 0
0 0
0 0
0 0
0 0
0 0
0 0
0 0
0 0
0 0
0 0
0 0
0 0
0 0
0 0
0 0
0 0
0 0
0 0
0 0
0 0
0 0
0 0
0 0
0 0
0 0
0 0
0 0
0 0
0 0
0 0
0 0
0 0
0 0
0 0
0 0
0 0
0 0
0 0
0 0
0 0
0 0
0 0
0 0
0 0
0 0
0 0
0 0
0 0
0 0
0 0
0 0
0 0
0 0
0 0
0 0
0 0
0 0
0 0
0 0
0 0
0 0
0 0
0 0
0 0
0 0
0 0
0 0
0 0
0 0
0 0
0 0
0 0
0 0
0 0
0 0
0 0
0 0
0 0
0 0
0 0
0 0
0 0
0 0
0 0
0 0
0 0
0 0
0 0
0 0
0 0
0 0
0 0
0 0
0 0
0 0
0 0
0 0
0 0
0 0
0 0
0 0
0 0
0 0
0 0
0 0
0 0
0 0
0 0
0 0
0 0
0 0
0 0
0 0
0 0
0 0
0 0
0 0
0 0
0 0
0 0
0 0
0 0
0 0
0 0
0 0
0 0
0 0
0 0
0 0
0 0
0 0
0 0
0 0
0 0
0 0
0 0
0 0
0 0
0 0
0 0
0 0
0 0
0 0
0 0
0 0
0 0
0 0
0 0
0 0
0 0
0 0
0 0
0 0
0 0
0 0
0 0
0 0
0 0
0 0
0 0
0 0
0 0
0 0
0 0
0 0
0 0
0 0
0 0
0 0
0 0
0 0
0 0
0 0
0 0
0 0
0 0
0 0
0 0
0 0
0 0
0 0
0 0
0 0
0 0
0 0
0 0
0 0
0 0
0 0
0 0
0 0
0 0
0 0
0 0
0 0
0 0
0 0
0 0
0 0
0 0
0 0
0 0
0 0
0 0
0 0
0 0
0 0
0 0
0 0
0 0
0 0
0 0
0 0
0 0
0 0
0 0
0 0
0 0
0 0
0 0
0 0
0 0
0 0
0 0
0 0
0 0
0 0
0 0
0 0
0 0
0 0
0 0
0 0
0 0
0 0
0 0
0 0
0 0
0 0
0 0
0 0
0 0
0 0
0 0
0 0
0 0
0 0
0 0
0 0
0 0
0 0
0 0
0 0
0 0
0 0
0 0
0 0
0 0
0 0
0 0
0 0
0 0
0 0
0 0
0 0
0 0
0 0
0 0
0 0
0 0
0 0
0 0
0 0
0 0
0 0
0 0
0 0
0 0
0 0
0 0
0 0
0 0
0 0
0 0
0 0
0 0
0 0
0 0
0 0
0 0
0 0
0 0
0 0
0 0
0 0
0 0
0 0
0 0
0 0
0 0
0 0
0 0
0 0
0 0
0 0
0 0
0 0
0 0
0 0
0 0
0 0
0 0
0 0
0 0
0 0
0 0
0 0
0 0
0 0
0 0
0 0
0 0
0 0
0 0
0 0
0 0
0 0
0 0
0 0
0 0
0 0
0 0
0 0
0 0
0 0
0 0
0 0
0 0
0 0
0 0
0 0
0 0
0 0
0 0
0 0
0 0
0 0
0 0
0 0
0 0
0 0
0 0
0 0
0 0
0 0
0 0
0 0
0 0
0 0
0 0
0 0
0 0
0 0
0 0
0 0
0 0
0 0
0 0
0 0
0 0
0 0
0 0
0 0
0 0
0 0
0 0
0 0
0 0
0 0
0 0
0 0
0 0
0 0
0 0
0 0
0 0
0 0
0 0
0 0
0 0
0 0
0 0
0 0
0 0
0 0
0 0
0 0
0 0
0 0
0 0
0 0
0 0
0 0
0 0
0 0
0 0
0 0
0 0
0 0
0 0
0 0
0 0
0 0
0 0
0 0
0 0
0 0
0 0
0 0
0 0
0 0
0 0
0 0
0 0
0 0
0 0
0 0
0 0
0 0
0 0
0 0
0 0
0 0
0 0
0 0
0 0
0 0
0 0
0 0
0 0
0 0
0 0
0 0
0 0
0 0
0 0
0 0
0 0
0 0
0 0
0 0
0 0
0 0
0 0
0 0
0 0
0 0
0 0
0 0
0 0
0 0
0 0
0 0
0 0
0 0
0 0
0 0
0 0
0 0
0 0
0 0
0 0
0 0
0 0
0 0
0 0
0 0
0 0
0 0
0 0
0 0
0 0
0 0
0 0
0 0
0 0
0 0
0 0
0 0
0 0
0 0
0 0
0 0
0 0
0 0
0 0
0 0
0 0
0 0
0 0
0 0
0 0
0 0
0 0
0 0
0 0
0 0
0 0
0 0
0 0
0 0
0 0
0 0
0 0
0 0
0 0
0 0
0 0
0 0
0 0
0 0
0 0
0 0
0 0
0 0
0 0
0 0
0 0
0 0
0 0
0 0
0 0
0 0
0 0
0 0
0 0
0 0
0 0
0 0
0 0
0 0
0 0
0 0
0 0
0 0
0 0
0 0
0 0
0 0
0 0
0 0
0 0
0 0
0 0
0 0
0 0
0 0
0 0
0 0
0 0
0 0
0 0
0 0
0 0
0 0
0 0
0 0
0 0
0 0
0 0
0 0
0 0
0 0
0 0
0 0
0 0
0 0
0 0
0 0
0 0
0 0
0 0
0 0
0 0
0 0
0 0
0 0
0 0
0 0
0 0
0 0
0 0
0 0
0 0
0 0
0 0
0 0
0 0
0 0
0 0
0 0
0 0
0 0
0 0
0 0
0 0
0 0
0 0
0 0
0 0
0 0
0 0
0 0
0 0
0 0
0 0
0 0
0 0
0 0
0 0
0 0
0 0
0 0
0 0
0 0
0 0
0 0
0 0
0 0
0 0
0 0
0 0
0 0
0 0
0 0
0 0
0 0
0 0
0 0
0 0
0 0
0 0
0 0
0 0
0 0
0 0
0 0
0 0
0 0
0 0
0 0
0 0
0 0
0 0
0 0
0 0
0 0
0 0
0 0
0 0
0 0
0 0
0 0
0 0
0 0
0 0
0 0
0 0
0 0
0 0
0 0
0 0
0 0
0 0
0 0
0 0
0 0
0 0
0 0
0 0
0 0
0 0
0 0
0 0
0 0
0 0
0 0
0 0
0 0
0 0
0 0
0 0
0 0
0 0
0 0
0 0
0 0
0 0
0 0
0 0
0 0
0 0
0 0
0 0
0 0
0 0
0 0
0 0
0 0
0 0
0 0
0 0
0 0
0 0
0 0
0 0
0 0
0 0
0 0
0 0
0 0
0 0
0 0
0 0
0 0
0 0
0 0
0 0
0 0
0 0
0 0
0 0
0 0
0 0
0 0
0 0
0 0
0 0
0 0
0 0
0 0
0 0
0 0
0 0
0 0
0 0
0 0
0 0
0 0
0 0
0 0
0 0
0 0
0 0
0 0
0 0
0 0
0 0
0 0
0 0
0 0
0 0
0 0
0 0
0 0
0 0
0 0
0 0
0 0
0 0
0 0
0 0
0 0
0 0
0 0
0 0
0 0
0 0
0 0
0 0
0 0
0 0
0 0
0 0
0 0
0 0
0 0
0 0
0 0
0 0
0 0
0 0
0 0
0 0
0 0
0 0
0 0
0 0
0 0
0 0
0 0
0 0
0 0
0 0
0 0
0 0
0 0
0 0
0 0
0 0
0 0
0 0
0 0
0 0
0 0
0 0
0 0
0 0
0 0
0 0
0 0
0 0
0 0
0 0
0 0
0 0
0 0
0 0
0 0
0 0
0 0
0 0
0 0
0 0
0 0
0 0
0 0
0 0
0 0
0 0
0 0
0 0
0 0
0 0
0 0
0 0
0 0
0 0
0 0
0 0
0 0
0 0
0 0
0 0
0 0
0 0
0 0
0 0
0 0
0 0
0 0
0 0
0 0
0 0
0 0
0 0
0 0
0 0
0 0
0 0
0 0
0 0
0 0
0 0
0 0
0 0
0 0
0 0
0 0
0 0
0 0
0 0
0 0
0 0
0 0
0 0
0 0
0 0
0 0
0 0
0 0
0 0
0 0
0 0
0 0
0 0
0 0
0 0
0 0
0 0
0 0
0 0
0 0
0 0
0 0
0 0
0 0
0 0
0 0
0 0
0 0
0 0
0 0
0 0
0 0
0 0
0 0
0 0
0 0
0 0
0 0
0 0
0 0
0 0
0 0
0 0
0 0
0 0
0 0
0 0
0 0
0 0
0 0
0 0
0 0
0 0
0 0
0 0
0 0
0 0
0 0
0 0
0 0
0 0
0 0
0 0
0 0
0 0
0 0
0 0
0 0
0 0
0 0
0 0
0 0
0 0
0 0
0 0
0 0
0 0
0 0
0 0
0 0
0 0
0 0
0 0
0 0
0 0
0 0
0 0
0 0
0 0
0 0
0 0
0 0
0 0
0 0
0 0
0 0
0 0
0 0
0 0
0 0
0 0
0 0
0 0
0 0
0 0
0 0
0 0
0 0
0 0
0 0
0 0
0 0
0 0
0 0
0 0
0 0
0 0
0 0
0 0
0 0
0 0
0 0
0 0
0 0
0 0
0 0
0 0
0 0
0 0
0 0
0 0
0 0
0 0
0 0
0 0
0 0
0 0
0 0
0 0
0 0
0 0
0 0
0 0
0 0
0 0
0 0
0 0
0 0
0 0
0 0
0 0
0 0
0 0
0 0
0 0
0 0
0 0
0 0
0 0
0 0
0 0
0 0
0 0
0 0
0 0
0 0
0 0
0 0
0 0
0 0
0 0
0 0
0 0
0 0
0 0
0 0
0 0
0 0
0 0
0 0
0 0
0 0
0 0
0 0
0 0
0 0
0 0
0 0
0 0
0 0
0 0
0 0
0 0
0 0
0 0
0 0
0 0
0 0
0 0
0 0
0 0
0 0
0 0
0 0
0 0
0 0
0 0
0 0
0 0
0 0
0 0
0 0
0 0
0 0
0 0
0 0
0 0
0 0
0 0
0 0
0 0
0 0
0 0
0 0
0 0
0 0
0 0
0 0
0 0
0 0
0 0
0 0
0 0
0 0
0 0
0 0
0 0
0 0
0 0
0 0
0 0
0 0
0 0
0 0
0 0
0 0
0 0
0 0
0 0
0 0
0 0
0 0
0 0
0 0
0 0
0 0
0 0
0 0
0 0
0 0
0 0
0 0
0 0
0 0
0 0
0 0
0 0
0 0
0 0
0 0
0 0
0 0
0 0
0 0
0 0
0 0
0 0
0 0
0 0
0 0
0 0
0 0
0 0
0 0
0 0
0 0
0 0
0 0
0 0
0 0
0 0
0 0
0 0
0 0
0 0
0 0
0 0
0 0
0 0
0 0
0 0
0 0
0 0
0 0
0 0
0 0
0 0
0 0
0 0
0 0
0 0
0 0
0 0
0 0
0 0
0 0
0 0
0 0
0 0
0 0
0 0
0 0
0 0
0 0
0 0
0 0
0 0
0 0
0 0
0 0
0 0
0 0
0 0
0 0
0 0
0 0
0 0
0 0
0 0
0 0
0 0
0 0
0 0
0 0
0 0
0 0
0 0
0 0
0 0
0 0
0 0
0 0
0 0
0 0
0 0
0 0
0 0
0 0
0 0
0 0
0 0
0 0
0 0
0 0
0 0
0 0
0 0
0 0
0 0
0 0
0 0
0 0
0 0
0 0
0 0
0 0
0 0
0 0
0 0
0 0
0 0
0 0
0 0
0 0
0 0
0 0
0 0
0 0
0 0
0 0
0 0
0 0
0 0
0 0
0 0
0 0
0 0
0 0
0 0
0 0
0 0
0 0
0 0
0 0
0 0
0 0
0 0
0 0
0 0
0 0
0 0
0 0
0 0
0 0
0 0
0 0
0 0
0 0
0 0
0 0
0 0
0 0
0 0
0 0
0 0
0 0
0 0
0 0
0 0
0 0
0 0
0 0
0 0
0 0
0 0
0 0
0 0
0 0
0 0
0 0
0 0
0 0
0 0
0 0
0 0
0 0
0 0
0 0
0 0
0 0
0 0
0 0
0 0
0 0
0 0
0 0
0 0
0 0
0 0
0 0
0 0
0 0
0 0
0 0
0 0
0 0
0 0
0 0
0 0
0 0
0 0
0 0
0 0
0 0
0 0
0 0
0 0
0 0
0 0
0 0
0 0
0 0
0 0
0 0
0 0
0 0
0 0
0 0
0 0
0 0
0 0
0 0
0 0
0 0
0 0
0 0
0 0
0 0
0 0
0 0
0 0
0 0
0 0
0 0
0 0
0 0
0 0
0 0
0 0
0 0
0 0
0 0
0 0
0 0
0 0
0 0
0 0
0 0
0 0
0 0
0 0
0 0
0 0
0 0
0 0
0 0
0 0
0 0
0 0
0 0
0 0
0 0
0 0
0 0
0 0
0 0
0 0
0 0
0 0
0 0
0 0
0 0
0 0
0 0
0 0
0 0
0 0
0 0
0 0
0 0
0 0
0 0
0 0
0 0
0 0
0 0
0 0
0 0
0 0
0 0
0 0
0 0
0 0
0 0
0 0
0 0
0 0
0 0
0 0
0 0
0 0
0 0
0 0
0 0
0 0
0 0
0 0
0 0
0 0
0 0
0 0
0 0
0 0
0 0
0 0
0 0
0 0
0 0
0 0
0 0
0 0
0 0
0 0
0 0
0 0
0 0
0 0
0 0
0 0
0 0
0 0
0 0
0 0
0 0
0 0
0 0
0 0
0 0
0 0
0 0
0 0
0 0
0 0
0 0
0 0
0 0
0 0
0 0
0 0
0 0
0 0
0 0
0 0
0 0
0 0
0 0
0 0
0 0
0 0
0 0
0 0
0 0
0 0
0 0
0 0
0 0
0 0
0 0
0 0
0 0
0 0
0 0
0 0
0 0
0 0
0 0
0 0
0 0
0 0
0 0
0 0
0 0
0 0
0 0
0 0
0 0
0 0
0 0
0 0
0 0
0 0
0 0
0 0
0 0
0 0
0 0
0 0
0 0
0 0
0 0
0 0
0 0
0 0
0 0
0 0
0 0
0 0
0 0
0 0
0 0
0 0
0 0
0 0
0 0
0 0
0 0
0 0
0 0
0 0
0 0
0 0
0 0
0 0
0 0
0 0
0 0
0 0
0 0
0 0
0 0
0 0
0 0
0 0
0 0
0 0
0 0
0 0
0 0
0 0
0 0
0 0
0 0
0 0
0 0
0 0
0 0
0 0
0 0
0 0
0 0
0 0
0 0
0 0
0 0
0 0
0 0
0 0
0 0
0 0
0 0
0 0
0 0
0 0
0 0
0 0
0 0
0 0
0 0
0 0
0 0
0 0
0 0
0 0
0 0
0 0
0 0
0 0
0 0
0 0
0 0
0 0
0 0
0 0
0 0
0 0
0 0
0 0
0 0
0 0
0 0
0 0
0 0
0 0
0 0
0 0
0 0
0 0
0 0
0 0
0 0
0 0
0 0
0 0
0 0
0 0
0 0
0 0
0 0
0 0
0 0
0 0
0 0
0 0
0 0
0 0
0 0
0 0
0 0
0 0
0 0
0 0
0 0
0 0
0 0
0 0
0 0
0 0
0 0
0 0
0 0
0 0
0 0
0 0
0 0
0 0
0 0
0 0
0 0
0 0
0 0
0 0
0 0
0 0
0 0
0 0
0 0
0 0
0 0
0 0
0 0
0 0
0 0
0 0
0 0
0 0
0 0
0 0
0 0
0 0
0 0
0 0
0 0
0 0
0 0
0 0
0 0
0 0
0 0
0 0
0 0
0 0
0 0
0 0
0 0
0 0
0 0
0 0
0 0
0 0
0 0
0 0
0 0
0 0
0 0
0 0
0 0
0 0
0 0
0 0
0 0
0 0
0 0
0 0
0 0
0 0
0 0
0 0
0 0
0 0
0 0
0 0
0 0
0 0
0 0
0 0
0 0
0 0
0 0
0 0
0 0
0 0
0 0
0 0
0 0
0 0
0 0
0 0
0 0
0 0
0 0
0 0
0 0
0 0
0 0
0 0
0 0
0 0
0 0
0 0
0 0
0 0
0 0
0 0
0 0
0 0
0 0
0 0
0 0
0 0
0 0
0 0
0 0
0 0
0 0
0 0
0 0
0 0
0 0
0 0
0 0
0 0
0 0
0 0
0 0
0 0
0 0
0 0
0 0
0 0
0 0
0 0
0 0
0 0
0 0
0 0
0 0
0 0
0 0
0 0
0 0
0 0
0 0
0 0
0 0
0 0
0 0
0 0
0 0
0 0
0 0
0 0
0 0
0 0
0 0
0 0
0 0
0 0
0 0
0 0
0 0
0 0
0 0
0 0
0 0
0 0
0 0
0 0
0 0
0 0
0 0
0 0
0 0
0 0
0 0
0 0
0 0
0 0
0 0
0 0
0 0
0 0
0 0
0 0
0 0
0 0
0 0
0 0
0 0
0 0
0 0
0 0
0 0
0 0
0 0
0 0
0 0
0 0
0 0
0 0
0 0
0 0
0 0
0 0
0 0
0 0
0 0
0 0
0 0
0 0
0 0
0 0
0 0
0 0
0 0
0 0
0 0
0 0
0 0
0 0
0 0
0 0
0 0
0 0
0 0
0 0
0 0
0 0
0 0
0 0
0 0
0 0
0 0
0 0
0 0
0 0
0 0
0 0
0 0
0 0
0 0
0 0
0 0
0 0
0 0
0 0
0 0
0 0
0 0
0 0
0 0
0 0
0 0
0 0
0 0
0 0
0 0
0 0
0 0
0 0
0 0
0 0
0 0
0 0
0 0
0 0
0 0
0 0
0 0
0 0
0 0
0 0
0 0
0 0
0 0
0 0
0 0
0 0
0 0
0 0
0 0
0 0
0 0
0 0
0 0
0 0
0 0
0 0
0 0
0 0
0 0
0 0
0 0
0 0
0 0
0 0
0 0
0 0
0 0
0 0
0 0
0 0
0 0
0 0
0 0
0 0
0 0
0 0
0 0
0 0
0 0
0 0
0 0
0 0
0 0
0 0
0 0
0 0
0 0
0 0
0 0
0 0
0 0
0 0
0 0
0 0
0 0
0 0
0 0
0 0
0 0
0 0
0 0
0 0
0 0
0 0
0 0
0 0
0 0
0 0
0 0
0 0
0 0
0 0
0 0
0 0
0 0
0 0
0 0
0 0
0 0
0 0
0 0
0 0
0 0
0 0
0 0
0 0
0 0
0 0
0 0
0 0
0 0
0 0
0 0
0 0
0 0
0 0
0 0
0 0
0 0
0 0
0 0
0 0
0 0
0 0
0 0
0 0
0 0
0 0
0 0
0 0
0 0
0 0
0 0
0 0
0 0
0 0
0 0
0 0
0 0
0 0
0 0
0 0
0 0
0 0
0 0
0 0
0 0
0 0
0 0
0 0
0 0
0 0
0 0
0 0
0 0
0 0
0 0
0 0
0 0
0 0
0 0
0 0
0 0
0 0
0 0
0 0
0 0
0 0
0 0
0 0
0 0
0 0
0 0
0 0
0 0
0 0
0 0
0 0
0 0
0 0
0 0
0 0
0 0
0 0
0 0
0 0
0 0
0 0
0 0
0 0
0 0
0 0
0 0
0 0
0 0
0 0
0 0
0 0
0 0
0 0
0 0
0 0
0 0
0 0
0 0
0 0
0 0
0 0
0 0
0 0
0 0
0 0
0 0
0 0
0 0
0 0
0 0
0 0
0 0
0 0
0 0
0 0
0 0
0 0
0 0
0 0
0 0
0 0
0 0
0 0
0 0
0 0
0 0
0 0
0 0
0 0
0 0
0 0
0 0
0 0
0 0
0 0
0 0
0 0
0 0
0 0
0 0
0 0
0 0
0 0
0 0
0 0
0 0
0 0
0 0
0 0
0 0
0 0
0 0
0 0
0 0
0 0
0 0
0 0
0 0
0 0
0 0
0 0
0 0
0 0
0 0
0 0
0 0
0 0
0 0
0 0
0 0
0 0
0 0
0 0
0 0
0 0
0 0
0 0
0 0
0 0
0 0
0 0
0 0
0 0
0 0
0 0
0 0
0 0
0 0
0 0
0 0
0 0
0 0
0 0
0 0
0 0
0 0
0 0
0 0
0 0
0 0
0 0
0 0
0 0
0 0
0 0
0 0
0 0
0 0
0 0
0 0
0 0
0 0
0 0
0 0
0 0
0 0
0 0
0 0
0 0
0 0
0 0
0 0
0 0
0 0
0 0
0 0
0 0
0 0
0 0
0 0
0 0
0 0
0 0
0 0
0 0
0 0
0 0
0 0
0 0
0 0
0 0
0 0
0 0
0 0
0 0
0 0
0 0
0 0
0 0
0 0
0 0
0 0
0 0
0 0
0 0
0 0
0 0
0 0
0 0
0 0
0 0
0 0
0 0
0 0
0 0
0 0
0 0
0 0
0 0
0 0
0 0
0 0
0 0
0 0
0 0
0 0
0 0
0 0
0 0
0 0
0 0
0 0
0 0
0 0
0 0
0 0
0 0
0 0
0 0
0 0
0 0
0 0
0 0
0 0
0 0
0 0
0 0
0 0
0 0
0 0
0 0
0 0
0 0
0 0
0 0
0 0
0 0
0 0
0 0
0 0
0 0
0 0
0 0
0 0
0 0
0 0
0 0
0 0
0 0
0 0
0 0
0 0
0 0
0 0
0 0
0 0
0 0
0 0
0 0
0 0
0 0
0 0
0 0
0 0
0 0
0 0
0 0
0 0
0 0
0 0
0 0
0 0
0 0
0 0
0 0
0 0
0 0
0 0
0 0
0 0
0 0
0 0
0 0
0 0
0 0
0 0
0 0
0 0
0 0
0 0
0 0
0 0
0 0
0 0
0 0
0 0
0 0
0 0
0 0
0 0
0 0
0 0
0 0
0 0
0 0
0 0
0 0
0 0
0 0
0 0
0 0
0 0
0 0
0 0
0 0
0 0
0 0
0 0
0 0
0 0
0 0
0 0
0 0
0 0
0 0
0 0
0 0
0 0
0 0
0 0
0 0
0 0
0 0
0 0
0 0
0 0
0 0
0 0
0 0
0 0
0 0
0 0
0 0
0 0
0 0
0 0
0 0
0 0
0 0
0 0
0 0
0 0
0 0
0 0
0 0
0 0
0 0
0 0
0 0
0 0
0 0
0 0
0 0
0 0
0 0
0 0
0 0
0 0
0 0
0 0
0 0
0 0
0 0
0 0
0 0
0 0
0 0
0 0
0 0
0 0
0 0
0 0
0 0
0 0
0 0
0 0
0 0
0 0
0 0
0 0
0 0
0 0
0 0
0 0
0 0
0 0
0 0
0 0
0 0
0 0
0 0
0 0
0 0
0 0
0 0
0 0
0 0
0 0
0 0
0 0
0 0
0 0
0 0
0 0
0 0
0 0
0 0
0 0
0 0
0 0
0 0
0 0
0 0
0 0
0 0
0 0
0 0
0 0
0 0
0 0
0 0
0 0
0 0
0 0
0 0
0 0
0 0
0 0
0 0
0 0
0 0
0 0
0 0
0 0
0 0
0 0
0 0
0 0
0 0
0 0
0 0
0 0
0 0
0 0
0 0
0 0
0 0
0 0
0 0
0 0
0 0
0 0
0 0
0 0
0 0
0 0
0 0
0 0
0 0
0 0
0 0
0 0
0 0
0 0
0 0
0 0
0 0
0 0
0 0
0 0
0 0
0 0
0 0
0 0
0 0
0 0
0 0
0 0
0 0
0 0
0 0
0 0
0 0
0 0
0 0
0 0
0 0
0 0
0 0
0 0
0 0
0 0
0 0
0 0
0 0
0 0
0 0
0 0
0 0
0 0
0 0
0 0
0 0
0 0
0 0
0 0
0 0
0 0
0 0
0 0
0 0
0 0
0 0
0 0
0 0
0 0
0 0
0 0
0 0
0 0
0 0
0 0
0 0
0 0
0 0
0 0
0 0
0 0
0 0
0 0
0 0
0 0
0 0
0 0
0 0
0 0
0 0
0 0
0 0
0 0
0 0
0 0
0 0
0 0
0 0
0 0
0 0
0 0
0 0
0 0
0 0
0 0
0 0
0 0
0 0
0 0
0 0
0 0
0 0
0 0
0 0
0 0
0 0
0 0
0 0
0 0
0 0
0 0
0 0
0 0
0 0
0 0
0 0
0 0
0 0
0 0
0 0
0 0
0 0
0 0
0 0
0 0
0 0
0 0
0 0
0 0
0 0
0 0
0 0
0 0
0 0
0 0
0 0
0 0
0 0
0 0
0 0
0 0
0 0
0 0
0 0
0 0
0 0
0 0
0 0
0 0
0 0
0 0
0 0
0 0
0 0
0 0
0 0
0 0
0 0
0 0
0 0
0 0
0 0
0 0
0 0
0 0
0 0
0 0
0 0
0 0
0 0
0 0
0 0
0 0
0 0
0 0
0 0
0 0
0 0
0 0
0 0
0 0
0 0
0 0
0 0
0 0
0 0
0 0
0 0
0 0
0 0
0 0
0 0
0 0
0 0
0 0
0 0
0 0
0 0
0 0
0 0
0 0
0 0
0 0
0 0
0 0
0 0
0 0
0 0
0 0
0 0
0 0
0 0
0 0
0 0
0 0
0 0
0 0
0 0
0 0
0 0
0 0
0 0
0 0
0 0
0 0
0 0
0 0
0 0
0 0
0 0
0 0
0 0
0 0
0 0
0 0
0 0
0 0
0 0
0 0
0 0
0 0
0 0
0 0
0 0
0 0
0 0
0 0
0 0
0 0
0 0
0 0
0 0
0 0
0 0
0 0
0 0
0 0
0 0
0 0
0 0
0 0
0 0
0 0
0 0
0 0
0 0
0 0
0 0
0 0
0 0
0 0
0 0
0 0
0 0
0 0
0 0
0 0
0 0
0 0
0 0
0 0
0 0
0 0
0 0
0 0
0 0
0 0
0 0
0 0
0 0
0 0
0 0
0 0
0 0
0 0
0 0
0 0
0 0
0 0
0 0
0 0
0 0
0 0
0 0
0 0
0 0
0 0
0 0
0 0
0 0
0 0
0 0
0 0
0 0
0 0
0 0
0 0
0 0
0 0
0 0
0 0
0 0
0 0
0 0
0 0
0 0
0 0
0 0
0 0
0 0
0 0
0 0
0 0
0 0
0 0
0 0
0 0
0 0
0 0
0 0
0 0
0 0
0 0
0 0
0 0
0 0
0 0
0 0
0 0
0 0
0 0
0 0
0 0
0 0
0 0
0 0
0 0
0 0
0 0
0 0
0 0
0 0
0 0
0 0
0 0
0 0
0 0
0 0
0 0
0 0
0 0
0 0
0 0
0 0
0 0
0 0
0 0
0 0
0 0
0 0
0 0
0 0
0 0
0 0
0 0
0 0
0 0
0 0
0 0
0 0
0 0
0 0
0 0
0 0
0 0
0 0
0 0
0 0
0 0
0 0
0 0
0 0
0 0
0 0
0 0
0 0
0 0
0 0
0 0
0 0
0 0
0 0
0 0
0 0
0 0
0 0
0 0
0 0
0 0
0 0
0 0
0 0
0 0
0 0
0 0
0 0
0 0
0 0
0 0
0 0
0 0
0 0
0 0
0 0
0 0
0 0
0 0
0 0
0 0
0 0
0 0
0 0
0 0
0 0
0 0
0 0
0 0
0 0
0 0
0 0
0 0
0 0
0 0
0 0
0 0
0 0
0 0
0 0
0 0
0 0
0 0
0 0
0 0
0 0
0 0
0 0
0 0
0 0
0 0
0 0
0 0
0 0
0 0
0 0
0 0
0 0
0 0
0 0
0 0
0 0
0 0
0 0
0 0
0 0
0 0
0 0
0 0
0 0
0 0
0 0
0 0
0 0
0 0
0 0
0 0
0 0
0 0
0 0
0 0
0 0
0 0
0 0
0 0
0 0
0 0
0 0
0 0
0 0
0 0
0 0
0 0
0 0
0 0
0 0
0 0
0 0
0 0
0 0
0 0
0 0
0 0
0 0
0 0
0 0
0 0
0 0
0 0
0 0
0 0
0 0
0 0
0 0
0 0
0 0
0 0
0 0
0 0
0 0
0 0
0 0
0 0
0 0
0 0
0 0
0 0
0 0
0 0
0 0
0 0
0 0
0 0
0 0
0 0
0 0
0 0
0 0
0 0
0 0
0 0
0 0
0 0
0 0
0 0
0 0
0 0
0 0
0 0
0 0
0 0
0 0
0 0
0 0
0 0
0 0
0 0
0 0
0 0
0 0
0 0
0 0
0 0
0 0
0 0
0 0
0 0
0 0
0 0
0 0
0 0
0 0
0 0
0 0
0 0
0 0
0 0
0 0
0 0
0 0
0 0
0 0
0 0
0 0
0 0
0 0
0 0
0 0
0 0
0 0
0 0
0 0
0 0
0 0
0 0
0 0
0 0
0 0
0 0
0 0
0 0
0 0
0 0
0 0
0 0
0 0
0 0
0 0
0 0
0 0
0 0
0 0
0 0
0 0
0 0
0 0
0 0
0 0
0 0
0 0
0 0
0 0
0 0
0 0
0 0
0 0
0 0
0 0
0 0
0 0
0 0
0 0
0 0
0 0
0 0
0 0
0 0
0 0
0 0
0 0
0 0
0 0
0 0
0 0
0 0
0 0
0 0
0 0
0 0
0 0
0 0
0 0
0 0
0 0
0 0
0 0
0 0
0 0
0 0
0 0
0 0
0 0
0 0
0 0
0 0
0 0
0 0
0 0
0 0
0 0
0 0
0 0
0 0
0 0
0 0
0 0
0 0
0 0
0 0
0 0
0 0
0 0
0 0
0 0
0 0
0 0
0 0
0 0
0 0
0 0
0 0
0 0
0 0
0 0
0 0
0 0
0 0
0 0
0 0
0 0
0 0
0 0
0 0
0 0
0 0
0 0
0 0
0 0
0 0
0 0
0 0
0 0
0 0
0 0
0 0
0 0
0 0
0 0
0 0
0 0
0 0
0 0
0 0
0 0
0 0
0 0
0 0
0 0
0 0
0 0
0 0
0 0
0 0
0 0
0 0
0 0
0 0
0 0
0 0
0 0
0 0
0 0
0 0
0 0
0 0
0 0
0 0
0 0
0 0
0 0
0 0
0 0
0 0
0 0
0 0
0 0
0 0
0 0
0 0
0 0
0 0
0 0
0 0
0 0
0 0
0 0
0 0
0 0
0 0
0 0
0 0
0 0
0 0
0 0
0 0
0 0
0 0
0 0
0 0
0 0
0 0
0 0
0 0
0 0
0 0
0 0
0 0
0 0
0 0
0 0
0 0
0 0
0 0
0 0
0 0
0 0
0 0
0 0
0 0
0 0
0 0
0 0
0 0
0 0
0 0
0 0
0 0
0 0
0 0
0 0
0 0
0 0
0 0
0 0
0 0
0 0
0 0
0 0
0 0
0 0
0 0
0 0
0 0
0 0
0 0
0 0
0 0
0 0
0 0
0 0
0 0
0 0
0 0
0 0
0 0
0 0
0 0
0 0
0 0
0 0
0 0
0 0
0 0
0 0
0 0
0 0
0 0
0 0
0 0
0 0
0 0
0 0
0 0
0 0
0 0
0 0
0 0
0 0
0 0
0 0
0 0
0 0
0 0
0 0
0 0
0 0
0 0
0 0
0 0
0 0
0 0
0 0
0 0
0 0
0 0
0 0
0 0
0 0
0 0
0 0
0 0
0 0
0 0
0 0
0 0
0 0
0 0
0 0
0 0
0 0
0 0
0 0
0 0
0 0
0 0
0 0
0 0
0 0
0 0
0 0
0 0
0 0
0 0
0 0
0 0
0 0
0 0
0 0
0 0
0 0
0 0
0 0
0 0
0 0
0 0
0 0
0 0
0 0
0 0
0 0
0 0
0 0
0 0
0 0
0 0
0 0
0 0
0 0
0 0
0 0
0 0
0 0
0 0
0 0
0 0
0 0
0 0
0 0
0 0
0 0
0 0
0 0
0 0
0 0
0 0
0 0
0 0
0 0
0 0
0 0
0 0
0 0
0 0
0 0
0 0
0 0
0 0
0 0
0 0
0 0
0 0
0 0
0 0
0 0
0 0
0 0
0 0
0 0
0 0
0 0
0 0
0 0
0 0
0 0
0 0
0 0
0 0
0 0
0 0
0 0
0 0
0 0
0 0
0 0
0 0
0 0
0 0
0 0
0 0
0 0
0 0
0 0
0 0
0 0
0 0
0 0
0 0
0 0
0 0
0 0
0 0
0 0
0 0
0 0
0 0
0 0
0 0
0 0
0 0
0 0
0 0
0 0
0 0
0 0
0 0
0 0
0 0
0 0
0 0
0 0
0 0
0 0
0 0
0 0
0 0
0 0
0 0
0 0
0 0
0 0
0 0
0 0
0 0
0 0
0 0
0 0
0 0
0 0
0 0
0 0
0 0
0 0
0 0
0 0
0 0
0 0
0 0
0 0
0 0
0 0
0 0
0 0
0 0
0 0
0 0
0 0
0 0
0 0
0 0
0 0
0 0
0 0
0 0
0 0
0 0
0 0
0 0
0 0
0 0
0 0
0 0
0 0
0 0
0 0
0 0
0 0
0 0
0 0
0 0
0 0
0 0
0 0
0 0
0 0
0 0
0 0
0 0
0 0
0 0
0 0
0 0
0 0
0 0
0 0
0 0
0 0
0 0
0 0
0 0
0 0
0 0
0 0
0 0
0 0
0 0
0 0
0 0
0 0
0 0
0 0
0 0
0 0
0 0
0 0
0 0
0 0
0 0
0 0
0 0
0 0
0 0
0 0
0 0
0 0
0 0
0 0
0 0
0 0
0 0
0 0
0 0
0 0
0 0
0 0
0 0
0 0
0 0
0 0
0 0
0 0
0 0
0 0
0 0
0 0
0 0
0 0
0 0
0 0
0 0
0 0
0 0
0 0
0 0
0 0
0 0
0 0
0 0
0 0
0 0
0 0
0 0
0 0
0 0
0 0
0 0
0 0
0 0
0 0
0 0
0 0
0 0
0 0
0 0
0 0
0 0
0 0
0 0
0 0
0 0
0 0
0 0
0 0
0 0
0 0
0 0
0 0
0 0
0 0
0 0
0 0
0 0
0 0
0 0
0 0
0 0
0 0
0 0
0 0
0 0
0 0
0 0
0 0
0 0
0 0
0 0
0 0
0 0
0 0
0 0
0 0
0 0
0 0
0 0
0 0
0 0
0 0
0 0
0 0
0 0
0 0
0 0
0 0
0 0
0 0
0 0
0 0
0 0
0 0
0 0
0 0
0 0
0 0
0 0
0 0
0 0
0 0
0 0
0 0
0 0
0 0
0 0
0 0
0 0
0 0
0 0
0 0
0 0
0 0
0 0
0 0
0 0
0 0
0 0
0 0
0 0
0 0
0 0
0 0
0 0
0 0
0 0
0 0
0 0
0 0
0 0
0 0
0 0
0 0
0 0
0 0
0 0
0 0
0 0
0 0
0 0
0 0
0 0
0 0
0 0
0 0
0 0
0 0
0 0
0 0
0 0
0 0
0 0
0 0
0 0
0 0
0 0
0 0
0 0
0 0
0 0
0 0
0 0
0 0
0 0
0 0
0 0
0 0
0 0
0 0
0 0
0 0
0 0
0 0
0 0
0 0
0 0
0 0
0 0
0 0
0 0
0 0
0 0
0 0
0 0
0 0
0 0
0 0
0 0
0 0
0 0
0 0
0 0
0 0
0 0
0 0
0 0
0 0
0 0
0 0
0 0
0 0
0 0
0 0
0 0
0 0
0 0
0 0
0 0
0 0
0 0
0 0
0 0
0 0
0 0
0 0
0 0
0 0
0 0
0 0
0 0
0 0
0 0
0 0
0 0
0 0
0 0
0 0
0 0
0 0
0 0
0 0
0 0
0 0
0 0
0 0
0 0
0 0
0 0
0 0
0 0
0 0
0 0
0 0
0 0
0 0
0 0
0 0
0 0
0 0
0 0
0 0
0 0
0 0
0 0
0 0
0 0
0 0
0 0
0 0
0 0
0 0
0 0
0 0
0 0
0 0
0 0
0 0
0 0
0 0
0 0
0 0
0 0
0 0
0 0
0 0
0 0
0 0
0 0
0 0
0 0
0 0
0 0
0 0
0 0
0 0
0 0
0 0
0 0
0 0
0 0
0 0
0 0
0 0
0 0
0 0
0 0
0 0
0 0
0 0
0 0
0 0
0 0
0 0
0 0
0 0
0 0
0 0
0 0
0 0
0 0
0 0
0 0
0 0
0 0
0 0
0 0
0 0
0 0
0 0
0 0
0 0
0 0
0 0
0 0
0 0
0 0
0 0
0 0
0 0
0 0
0 0
0 0
0 0
0 0
0 0
0 0
0 0
0 0
0 0
0 0
0 0
0 0
0 0
0 0
0 0
0 0
0 0
0 0
0 0
0 0
0 0
0 0
0 0
0 0
0 0
0 0
0 0
0 0
0 0
0 0
0 0
0 0
0 0
0 0
0 0
0 0
0 0
0 0
0 0
0 0
0 0
0 0
0 0
0 0
0 0
0 0
0 0
0 0
0 0
0 0
0 0
0 0
0 0
0 0
0 0
0 0
0 0
0 0
0 0
0 0
0 0
0 0
0 0
0 0
0 0
0 0
0 0
0 0
0 0
0 0
0 0
0 0
0 0
0 0
0 0
0 0
0 0
0 0
0 0
0 0
0 0
0 0
0 0
0 0
0 0
0 0
0 0
0 0
0 0
0 0
0 0
0 0
0 0
0 0
0 0
0 0
0 0
0 0
0 0
0 0
0 0
0 0
0 0
0 0
0 0
0 0
0 0
0 0
0 0
0 0
0 0
0 0
0 0
0 0
0 0
0 0
0 0
0 0
0 0
0 0
0 0
0 0
0 0
0 0
0 0
0 0
0 0
0 0
0 0
0 0
0 0
0 0
0 0
0 0
0 0
0 0
0 0
0 0
0 0
0 0
0 0
0 0
0 0
0 0
0 0
0 0
0 0
0 0
0 0
0 0
0 0
0 0
0 0
0 0
0 0
0 0
0 0
0 0
0 0
0 0
0 0
0 0
0 0
0 0
0 0
0 0
0 0
0 0
0 0
0 0
0 0
0 0
0 0
0 0
0 0
0 0
0 0
0 0
0 0
0 0
0 0
0 0
0 0
0 0
0 0
0 0
0 0
0 0
0 0
0 0
0 0
0 0
0 0
0 0
0 0
0 0
0 0
0 0
0 0
0 0
0 0
0 0
0 0
0 0
0 0
0 0
0 0
0 0
0 0
0 0
0 0
0 0
0 0
0 0
0 0
0 0
0 0
0 0
0 0
0 0
0 0
0 0
0 0
0 0
0 0
0 0
0 0
0 0
0 0
0 0
0 0
0 0
0 0
0 0
0 0
0 0
0 0
0 0
0 0
0 0
0 0
0 0
0 0
0 0
0 0
0 0
0 0
0 0
0 0
0 0
0 0
0 0
0 0
0 0
0 0
0 0
0 0
0 0
0 0
0 0
0 0
0 0
0 0
0 0
0 0
0 0
0 0
0 0
0 0
0 0
0 0
0 0
0 0
0 0
0 0
0 0
0 0
0 0
0 0
0 0
0 0
0 0
0 0
0 0
0 0
0 0
0 0
0 0
0 0
0 0
0 0
0 0
0 0
0 0
0 0
0 0
0 0
0 0
0 0
0 0
0 0
0 0
0 0
0 0
0 0
0 0
0 0
0 0
0 0
0 0
0 0
0 0
0 0
0 0
0 0
0 0
0 0
0 0
0 0
0 0
0 0
0 0
0 0
0 0
0 0
0 0
0 0
0 0
0 0
0 0
0 0
0 0
0 0
0 0
0 0
0 0
0 0
0 0
0 0
0 0
0 0
0 0
0 0
0 0
0 0
0 0
0 0
0 0
0 0
0 0
0 0
0 0
0 0
0 0
0 0
0 0
0 0
0 0
0 0
0 0
0 0
0 0
0 0
0 0
0 0
0 0
0 0
0 0
0 0
0 0
0 0
0 0
0 0
0 0
0 0
0 0
0 0
0 0
0 0
0 0
0 0
0 0
0 0
0 0
0 0
0 0
0 0
0 0
0 0
0 0
0 0
0 0
0 0
0 0
0 0
0 0
0 0
0 0
0 0
0 0
0 0
0 0
0 0
0 0
0 0
0 0
0 0
0 0
0 0
0 0
0 0
0 0
0 0
0 0
0 0
0 0
0 0
0 0
0 0
0 0
0 0
0 0
0 0
0 0
0 0
0 0
0 0
0 0
0 0
0 0
0 0
0 0
0 0
0 0
0 0
0 0
0 0
0 0
0 0
0 0
0 0
0 0
0 0
0 0
0 0
0 0
0 0
0 0
0 0
0 0
0 0
0 0
0 0
0 0
0 0
0 0
0 0
0 0
0 0
0 0
0 0
0 0
0 0
0 0
0 0
0 0
0 0
0 0
0 0
0 0
0 0
0 0
0 0
0 0
0 0
0 0
0 0
0 0
0 0
0 0
0 0
0 0
0 0
0 0
0 0
0 0
0 0
0 0
0 0
0 0
0 0
0 0
0 0
0 0
0 0
0 0
0 0
0 0
0 0
0 0
0 0
0 0
0 0
0 0
0 0
0 0
0 0
0 0
0 0
0 0
0 0
0 0
0 0
0 0
0 0
0 0
0 0
0 0
0 0
0 0
0 0
0 0
0 0
0 0
0 0
0 0
0 0
0 0
0 0
0 0
0 0
0 0
0 0
0 0
0 0
0 0
0 0
0 0
0 0
0 0
0 0
0 0
0 0
0 0
0 0
0 0
0 0
0 0
0 0
0 0
0 0
0 0
0 0
0 0
0 0
0 0
0 0
0 0
0 0
0 0
0 0
0 0
0 0
0 0
0 0
0 0
0 0
0 0
0 0
0 0
0 0
0 0
0 0
0 0
0 0
0 0
0 0
0 0
0 0
0 0
0 0
0 0
0 0
0 0
0 0
0 0
0 0
0 0
0 0
0 0
0 0
0 0
0 0
0 0
0 0
0 0
0 0
0 0
0 0
0 0
0 0
0 0
0 0
0 0
0 0
0 0
0 0
0 0
0 0
0 0
0 0
0 0
0 0
0 0
0 0
0 0
0 0
0 0
0 0
0 0
0 0
0 0
0 0
0 0
0 0
0 0
0 0
0 0
0 0
0 0
0 0
0 0
0 0
0 0
0 0
0 0
0 0
0 0
0 0
0 0
0 0
0 0
0 0
0 0
0 0
0 0
0 0
0 0
0 0
0 0
0 0
0 0
0 0
0 0
0 0
0 0
0 0
0 0
0 0
0 0
0 0
0 0
0 0
0 0
0 0
0 0
0 0
0 0
0 0
0 0
0 0
0 0
0 0
0 0
0 0
0 0
0 0
0 0
0 0
0 0
0 0
0 0
0 0
0 0
0 0
0 0
0 0
0 0
0 0
0 0
0 0
0 0
0 0
0 0
0 0
0 0
0 0
0 0
0 0
0 0
0 0
0 0
0 0
0 0
0 0
0 0
0 0
0 0
0 0
0 0
0 0
0 0
0 0
0 0
0 0
0 0
0 0
0 0
0 0
0 0
0 0
0 0
0 0
0 0
0 0
0 0
0 0
0 0
0 0
0 0
0 0
0 0
0 0
0 0
0 0
0 0
0 0
0 0
0 0
0 0
0 0
0 0
0 0
0 0
0 0
0 0
0 0
0 0
0 0
0 0
0 0
0 0
0 0
0 0
0 0
0 0
0 0
0 0
0 0
0 0
0 0
0 0
0 0
0 0
0 0
0 0
0 0
0 0
0 0
0 0
0 0
0 0
0 0
0 0
0 0
0 0
0 0
0 0
0 0
0 0
0 0
0 0
0 0
0 0
0 0
0 0
0 0
0 0
0 0
0 0
0 0
0 0
0 0
0 0
0 0
0 0
0 0
0 0
0 0
0 0
0 0
0 0
0 0
0 0
0 0
0 0
0 0
0 0
0 0
0 0
0 0
0 0
0 0
0 0
0 0
0 0
0 0
0 0
0 0
0 0
0 0
0 0
0 0
0 0
0 0
0 0
0 0
0 0
0 0
0 0
0 0
0 0
0 0
0 0
0 0
0 0
0 0
0 0
0 0
0 0
0 0
0 0
0 0
0 0
0 0
0 0
0 0
0 0
0 0
0 0
0 0
0 0
0 0
0 0
0 0
0 0
0 0
0 0
0 0
0 0
0 0
0 0
0 0
0 0
0 0
0 0
0 0
0 0
0 0
0 0
0 0
0 0
0 0
0 0
0 0
0 0
0 0
0 0
0 0
0 0
0 0
0 0
0 0
0 0
0 0
0 0
0 0
0 0
0 0
0 0
0 0
0 0
0 0
0 0
0 0
0 0
0 0
0 0
0 0
0 0
0 0
0 0
0 0
0 0
0 0
0 0
0 0
0 0
0 0
0 0
0 0
0 0
0 0
0 0
0 0
0 0
0 0
0 0
0 0
0 0
0 0
0 0
0 0
0 0
0 0
0 0
0 0
0 0
0 0
0 0
0 0
0 0
0 0
0 0
0 0
0 0
0 0
0 0
0 0
0 0
0 0
0 0
0 0
0 0
0 0
0 0
0 0
0 0
0 0
0 0
0 0
0 0
0 0
0 0
0 0
0 0
0 0
0 0
0 0
0 0
0 0
0 0
0 0
0 0
0 0
0 0
0 0
0 0
0 0
0 0
0 0
0 0
0 0
0 0
0 0
0 0
0 0
0 0
0 0
0 0
0 0
0 0
0 0
0 0
0 0
0 0
0 0
0 0
0 0
0 0
0 0
0 0
0 0
0 0
0 0
0 0
0 0
0 0
0 0
0 0
0 0
0 0
0 0
0 0
0 0
0 0
0 0
0 0
0 0
0 0
0 0
0 0
0 0
0 0
0 0
0 0
0 0
0 0
0 0
0 0
0 0
0 0
0 0
0 0
0 0
0 0
0 0
0 0
0 0
0 0
0 0
0 0
0 0
0 0
0 0
0 0
0 0
0 0
0 0
0 0
0 0
0 0
0 0
0 0
0 0
0 0
0 0
0 0
0 0
0 0
0 0
0 0
0 0
0 0
0 0
0 0
0 0
0 0
0 0
0 0
0 0
0 0
0 0
0 0
0 0
0 0
0 0
0 0
0 0
0 0
0 0
0 0
0 0
0 0
0 0
0 0
0 0
0 0
0 0
0 0
0 0
0 0
0 0
0 0
0 0
0 0
0 0
0 0
0 0
0 0
0 0
0 0
0 0
0 0
0 0
0 0
0 0
0 0
0 0
0 0
0 0
0 0
0 0
0 0
0 0
0 0
0 0
0 0
0 0
0 0
0 0
0 0
0 0
0 0
0 0
0 0
0 0
0 0
0 0
0 0
0 0
0 0
0 0
0 0
0 0
0 0
0 0
0 0
0 0
0 0
0 0
0 0
0 0
0 0
0 0
0 0
0 0
0 0
0 0
0 0
0 0
0 0
0 0
0 0
0 0
0 0
0 0
0 0
0 0
0 0
0 0
0 0
0 0
0 0
0 0
0 0
0 0
0 0
0 0
0 0
0 0
0 0
0 0
0 0
0 0
0 0
0 0
0 0
0 0
0 0
0 0
0 0
0 0
0 0
0 0
0 0
0 0
0 0
0 0
0 0
0 0
0 0
0 0
0 0
0 0
0 0
0 0
0 0
0 0
0 0
0 0
0 0
0 0
0 0
0 0
0 0
0 0
0 0
0 0
0 0
0 0
0 0
0 0
0 0
0 0
0 0
0 0
0 0
0 0
0 0
0 0
0 0
0 0
0 0
0 0
0 0
0 0
0 0
0 0
0 0
0 0
0 0
0 0
0 0
0 0
0 0
0 0
0 0
0 0
0 0
0 0
0 0
0 0
0 0
0 0
0 0
0 0
0 0
0 0
0 0
0 0
0 0
0 0
0 0
0 0
0 0
0 0
0 0
0 0
0 0
0 0
0 0
0 0
0 0
0 0
0 0
0 0
0 0
0 0
0 0
0 0
0 0
0 0
0 0
0 0
0 0
0 0
0 0
0 0
0 0
0 0
0 0
0 0
0 0
0 0
0 0
0 0
0 0
0 0
0 0
0 0
0 0
0 0
0 0
0 0
0 0
0 0
0 0
0 0
0 0
0 0
0 0
0 0
0 0
0 0
0 0
0 0
0 0
0 0
0 0
0 0
0 0
0 0
0 0
0 0
0 0
0 0
0 0
0 0
0 0
0 0
0 0
0 0
0 0
0 0
0 0
0 0
0 0
0 0
0 0
0 0
0 0
0 0
0 0
0 0
0 0
0 0
0 0
0 0
0 0
0 0
0 0
0 0
0 0
0 0
0 0
0 0
0 0
0 0
0 0
0 0
0 0
0 0
0 0
0 0
0 0
0 0
0 0
0 0
0 0
0 0
0 0
0 0
0 0
0 0
0 0
0 0
0 0
0 0
0 0
0 0
0 0
0 0
0 0
0 0
0 0
0 0
0 0
0 0
0 0
0 0
0 0
0 0
0 0
0 0
0 0
0 0
0 0
0 0
0 0
0 0
0 0
0 0
0 0
0 0
0 0
0 0
0 0
0 0
0 0
0 0
0 0
0 0
0 0
0 0
0 0
0 0
0 0
0 0
0 0
0 0
0 0
0 0
0 0
0 0
0 0
0 0
0 0
0 0
0 0
0 0
0 0
0 0
0 0
0 0
0 0
0 0
0 0
0 0
0 0
0 0
0 0
0 0
0 0
0 0
0 0
0 0
0 0
0 0
0 0
0 0
0 0
0 0
0 0
0 0
0 0
0 0
0 0
0 0
0 0
0 0
0 0
0 0
0 0
0 0
0 0
0 0
0 0
0 0
0 0
0 0
0 0
0 0
0 0
0 0
0 0
0 0
0 0
0 0
0 0
0 0
0 0
0 0
0 0
0 0
0 0
0 0
0 0
0 0
0 0
0 0
0 0
0 0
0 0
0 0
0 0
0 0
0 0
0 0
0 0
0 0
0 0
0 0
0 0
0 0
0 0
0 0
0 0
0 0
0 0
0 0
0 0
0 0
0 0
0 0
0 0
0 0
0 0
0 0
0 0
0 0
0 0
0 0
0 0
0 0
0 0
0 0
0 0
0 0
0 0
0 0
0 0
0 0
0 0
0 0
0 0
0 0
0 0
0 0
0 0
0 0
0 0
0 0
0 0
0 0
0 0
0 0
0 0
0 0
0 0
0 0
0 0
0 0
0 0
0 0
0 0
0 0
0 0
0 0
0 0
0 0
0 0
0 0
0 0
0 0
0 0
0 0
0 0
0 0
0 0
0 0
0 0
0 0
0 0
0 0
0 0
0 0
0 0
0 0
0 0
0 0
0 0
0 0
0 0
0 0
0 0
0 0
0 0
0 0
0 0
0 0
0 0
0 0
0 0
0 0
0 0
0 0
0 0
0 0
0 0
0 0
0 0
0 0
0 0
0 0
0 0
0 0
0 0
0 0
0 0
0 0
0 0
0 0
0 0
0 0
0 0
0 0
0 0
0 0
0 0
0 0
0 0
0 0
0 0
0 0
0 0
0 0
0 0
0 0
0 0
0 0
0 0
0 0
0 0
0 0
0 0
0 0
0 0
0 0
0 0
0 0
0 0
0 0
0 0
0 0
0 0
0 0
0 0
0 0
0 0
0 0
0 0
0 0
0 0
0 0
0 0
0 0
0 0
0 0
0 0
0 0
0 0
0 0
0 0
0 0
0 0
0 0
0 0
0 0
0 0
0 0
0 0
0 0
0 0
0 0
0 0
0 0
0 0
0 0
0 0
0 0
0 0
0 0
0 0
0 0
0 0
0 0
0 0
0 0
0 0
0 0
0 0
0 0
0 0
0 0
0 0
0 0
0 0
0 0
0 0
0 0
0 0
0 0
0 0
0 0
0 0
0 0
0 0
0 0
0 0
0 0
0 0
0 0
0 0
0 0
0 0
0 0
0 0
0 0
0 0
0 0
0 0
0 0
0 0
0 0
0 0
0 0
0 0
0 0
0 0
0 0
0 0
0 0
0 0
0 0
0 0
0 0
0 0
0 0
0 0
0 0
0 0
0 0
0 0
0 0
0 0
0 0
0 0
0 0
0 0
0 0
0 0
0 0
0 0
0 0
0 0
0 0
0 0
0 0
0 0
0 0
0 0
0 0
0 0
0 0
0 0
0 0
0 0
0 0
0 0
0 0
0 0
0 0
0 0
0 0
0 0
0 0
0 0
0 0
0 0
0 0
0 0
0 0
0 0
0 0
0 0
0 0
0 0
0 0
0 0
0 0
0 0
0 0
0 0
0 0
0 0
0 0
0 0
0 0
0 0
0 0
0 0
0 0
0 0
0 0
0 0
0 0
0 0
0 0
0 0
0 0
0 0
0 0
0 0
0 0
0 0
0 0
0 0
0 0
0 0
0 0
0 0
0 0
0 0
0 0
0 0
0 0
0 0
0 0
0 0
0 0
0 0
0 0
0 0
0 0
0 0
0 0
0 0
0 0
0 0
0 0
0 0
0 0
0 0
0 0
0 0
0 0
0 0
0 0
0 0
0 0
0 0
0 0
0 0
0 0
0 0
0 0
0 0
0 0
0 0
0 0
0 0
0 0
0 0
0 0
0 0
0 0
0 0
0 0
0 0
0 0
0 0
0 0
0 0
0 0
0 0
0 0
0 0
0 0
0 0
0 0
0 0
0 0
0 0
0 0
0 0
0 0
0 0
0 0
0 0
0 0
0 0
0 0
0 0
0 0
0 0
0 0
0 0
0 0
0 0
0 0
0 0
0 0
0 0
0 0
0 0
0 0
0 0
0 0
0 0
0 0
0 0
0 0
0 0
0 0
0 0
0 0
0 0
0 0
0 0
0 0
0 0
0 0
0 0
0 0
0 0
0 0
0 0
0 0
0 0
0 0
0 0
0 0
0 0
0 0
0 0
0 0
0 0
0 0
0 0
0 0
0 0
0 0
0 0
0 0
0 0
0 0
0 0
0 0
0 0
0 0
0 0
0 0
0 0
0 0
0 0
0 0
0 0
0 0
0 0
0 0
0 0
0 0
0 0
0 0
0 0
0 0
0 0
0 0
0 0
0 0
0 0
0 0
0 0
0 0
0 0
0 0
0 0
0 0
0 0
0 0
0 0
0 0
0 0
0 0
0 0
0 0
0 0
0 0
0 0
0 0
0 0
0 0
0 0
0 0
0 0
0 0
0 0
0 0
0 0
0 0
0 0
0 0
0 0
0 0
0 0
0 0
0 0
0 0
0 0
0 0
0 0
0 0
0 0
0 0
0 0
0 0
0 0
0 0
0 0
0 0
0 0
0 0
0 0
0 0
0 0
0 0
0 0
0 0
0 0
0 0
0 0
0 0
0 0
0 0
0 0
0 0
0 0
0 0
0 0
0 0
0 0
0 0
0 0
0 0
0 0
0 0
0 0
0 0
0 0
0 0
0 0
0 0
0 0
0 0
0 0
0 0
0 0
0 0
0 0
0 0
0 0
0 0
0 0
0 0
0 0
0 0
0 0
0 0
0 0
0 0
0 0
0 0
0 0
0 0
0 0
0 0
0 0
0 0
0 0
0 0
0 0
0 0
0 0
0 0
0 0
0 0
0 0
0 0
0 0
0 0
0 0
0 0
0 0
0 0
0 0
0 0
0 0
0 0
0 0
0 0
0 0
0 0
0 0
0 0
0 0
0 0
0 0
0 0
0 0
0 0
0 0
0 0
0 0
0 0
0 0
0 0
0 0
0 0
0 0
0 0
0 0
0 0
0 0
0 0
0 0
0 0
0 0
0 0
0 0
0 0
0 0
0 0
0 0
0 0
0 0
0 0
0 0
0 0
0 0
0 0
0 0
0 0
0 0
0 0
0 0
0 0
0 0
0 0
0 0
0 0
0 0
0 0
0 0
0 0
0 0
0 0
0 0
0 0
0 0
0 0
0 0
0 0
0 0
0 0
0 0
0 0
0 0
0 0
0 0
0 0
0 0
0 0
0 0
0 0
0 0
0 0
0 0
0 0
0 0
0 0
0 0
0 0
0 0
0 0
0 0
0 0
0 0
0 0
0 0
0 0
0 0
0 0
0 0
0 0
0 0
0 0
0 0
0 0
0 0
0 0
0 0
0 0
0 0
0 0
0 0
0 0
0 0
0 0
0 0
0 0
0 0
0 0
0 0
0 0
0 0
0 0
0 0
0 0
0 0
0 0
0 0
0 0
0 0
0 0
0 0
0 0
0 0
0 0
0 0
0 0
0 0
0 0
0 0
0 0
0 0
0 0
0 0
0 0
0 0
0 0
0 0
0 0
0 0
0 0
0 0
0 0
0 0
0 0
0 0
0 0
0 0
0 0
0 0
0 0
0 0
0 0
0 0
0 0
0 0
0 0
0 0
0 0
0 0
0 0
0 0
0 0
0 0
0 0
0 0
0 0
0 0
0 0
0 0
0 0
0 0
0 0
0 0
0 0
0 0
0 0
0 0
0 0
0 0
0 0
0 0
0 0
0 0
0 0
0 0
0 0
0 0
0 0
0 0
0 0
0 0
0 0
0 0
0 0
0 0
0 0
0 0
0 0
0 0
0 0
0 0
0 0
0 0
0 0
0 0
0 0
0 0
0 0
0 0
0 0
0 0
0 0
0 0
0 0
0 0
0 0
0 0
0 0
0 0
0 0
0 0
0 0
0 0
0 0
0 0
0 0
0 0
0 0
0 0
0 0
0 0
0 0
0 0
0 0
0 0
0 0
0 0
0 0
0 0
0 0
0 0
0 0
0 0
0 0
0 0
0 0
0 0
0 0
0 0
0 0
0 0
0 0
0 0
0 0
0 0
0 0
0 0
0 0
0 0
0 0
0 0
0 0
0 0
0 0
0 0
0 0
0 0
0 0
0 0
0 0
0 0
0 0
0 0
0 0
0 0
0 0
0 0
0 0
0 0
0 0
0 0
0 0
0 0
0 0
0 0
0 0
0 0
0 0
0 0
0 0
0 0
0 0
0 0
0 0
0 0
0 0
0 0
0 0
0 0
0 0
0 0
0 0
0 0
0 0
0 0
0 0
0 0
0 0
0 0
0 0
0 0
0 0
0 0
0 0
0 0
0 0
0 0
0 0
0 0
0 0
0 0
0 0
0 0
0 0
0 0
0 0
0 0
0 0
0 0
0 0
0 0
0 0
0 0
0 0
0 0
0 0
0 0
0 0
0 0
0 0
0 0
0 0
0 0
0 0
0 0
0 0
0 0
0 0
0 0
0 0
0 0
0 0
0 0
0 0
0 0
0 0
0 0
0 0
0 0
0 0
0 0
0 0
0 0
0 0
0 0
0 0
0 0
0 0
0 0
0 0
0 0
0 0
0 0
0 0
0 0
0 0
0 0
0 0
0 0
0 0
0 0
0 0
0 0
0 0
0 0
0 0
0 0
0 0
0 0
0 0
0 0
0 0
0 0
0 0
0 0
0 0
0 0
0 0
0 0
0 0
0 0
0 0
0 0
0 0
0 0
0 0
0 0
0 0
0 0
0 0
0 0
0 0
0 0
0 0
0 0
0 0
0 0
0 0
0 0
0 0
0 0
0 0
0 0
0 0
0 0
0 0
0 0
0 0
0 0
0 0
0 0
0 0
0 0
0 0
0 0
0 0
0 0
0 0
0 0
0 0
0 0
0 0
0 0
0 0
0 0
0 0
0 0
0 0
0 0
0 0
0 0
0 0
0 0
0 0
0 0
0 0
0 0
0 0
0 0
0 0
0 0
0 0
0 0
0 0
0 0
0 0
0 0
0 0
0 0
0 0
0 0
0 0
0 0
0 0
0 0
0 0
0 0
0 0
0 0
0 0
0 0
0 0
0 0
0 0
0 0
0 0
0 0
0 0
0 0
0 0
0 0
0 0
0 0
0 0
0 0
0 0
0 0
0 0
0 0
0 0
0 0
0 0
0 0
0 0
0 0
0 0
0 0
0 0
0 0
0 0
0 0
0 0
0 0
0 0
0 0
0 0
0 0
0 0
0 0
0 0
0 0
0 0
0 0
0 0
0 0
0 0
0 0
0 0
0 0
0 0
0 0
0 0
0 0
0 0
0 0
0 0
0 0
0 0
0 0
0 0
0 0
0 0
0 0
0 0
0 0
0 0
0 0
0 0
0 0
0 0
0 0
0 0
0 0
0 0
0 0
0 0
0 0
0 0
0 0
0 0
0 0
0 0
0 0
0 0
0 0
0 0
0 0
0 0
0 0
0 0
0 0
0 0
0 0
0 0
0 0
0 0
0 0
0 0
0 0
0 0
0 0
0 0
0 0
0 0
0 0
0 0
0 0
0 0
0 0
0 0
0 0
0 0
0 0
0 0
0 0
0 0
0 0
0 0
0 0
0 0
0 0
0 0
0 0
0 0
0 0
0 0
0 0
0 0
0 0
0 0
0 0
0 0
0 0
0 0
0 0
0 0
0 0
0 0
0 0
0 0
0 0
0 0
0 0
0 0
0 0
0 0
0 0
0 0
0 0
0 0
0 0
0 0
0 0
0 0
0 0
0 0
0 0
0 0
0 0
0 0
0 0
0 0
0 0
0 0
0 0
0 0
0 0
0 0
0 0
0 0
0 0
0 0
0 0
0 0
0 0
0 0
0 0
0 0
0 0
0 0
0 0
0 0
0 0
0 0
0 0
0 0
0 0
0 0
0 0
0 0
0 0
0 0
0 0
0 0
0 0
0 0
0 0
0 0
0 0
0 0
0 0
0 0
0 0
0 0
0 0
0 0
0 0
0 0
0 0
0 0
0 0
0 0
0 0
0 0
0 0
0 0
0 0
0 0
0 0
0 0
0 0
0 0
0 0
0 0
0 0
0 0
0 0
0 0
0 0
0 0
0 0
0 0
0 0
0 0
0 0
0 0
0 0
0 0
0 0
0 0
0 0
0 0
0 0
0 0
0 0
0 0
0 0
0 0
0 0
0 0
0 0
0 0
0 0
0 0
0 0
0 0
0 0
0 0
0 0
0 0
0 0
0 0
0 0
0 0
0 0
0 0
0 0
0 0
0 0
0 0
0 0
0 0
0 0
0 0
0 0
0 0
0 0
0 0
0 0
0 0
0 0
0 0
0 0
0 0
0 0
0 0
0 0
0 0
0 0
0 0
0 0
0 0
0 0
0 0
0 0
0 0
0 0
0 0
0 0
0 0
0 0
0 0
0 0
0 0
0 0
0 0
0 0
0 0
0 0
0 0
0 0
0 0
0 0
0 0
0 0
0 0
0 0
0 0
0 0
0 0
0 0
0 0
0 0
0 0
0 0
0 0
0 0
0 0
0 0
0 0
0 0
0 0
0 0
0 0
0 0
0 0
0 0
0 0
0 0
0 0
0 0
0 0
0 0
0 0
0 0
0 0
0 0
0 0
0 0
0 0
0 0
0 0
0 0
0 0
0 0
0 0
0 0
0 0
0 0
0 0
0 0
0 0
0 0
0 0
0 0
0 0
0 0
0 0
0 0
0 0
0 0
0 0
0 0
0 0
0 0
0 0
0 0
0 0
0 0
0 0
0 0
0 0
0 0
0 0
0 0
0 0
0 0
0 0
0 0
0 0
0 0
0 0
0 0
0 0
0 0
0 0
0 0
0 0
0 0
0 0
0 0
0 0
0 0
0 0
0 0
0 0
0 0
0 0
0 0
0 0
0 0
0 0
0 0
0 0
0 0
0 0
0 0
0 0
0 0
0 0
0 0
0 0
0 0
0 0
0 0
0 0
0 0
0 0
0 0
0 0
0 0
0 0
0 0
0 0
0 0
0 0
0 0
0 0
0 0
0 0
0 0
0 0
0 0
0 0
0 0
0 0
0 0
0 0
0 0
0 0
0 0
0 0
0 0
0 0
0 0
0 0
0 0
0 0
0 0
0 0
0 0
0 0
0 0
0 0
0 0
0 0
0 0
0 0
0 0
0 0
0 0
0 0
0 0
0 0
0 0
0 0
0 0
0 0
0 0
0 0
0 0
0 0
0 0
0 0
0 0
0 0
0 0
0 0
0 0
0 0
0 0
0 0
0 0
0 0
0 0
0 0
0 0
0 0
0 0
0 0
0 0
0 0
0 0
0 0
0 0
0 0
0 0
0 0
0 0
0 0
0 0
0 0
0 0
0 0
0 0
0 0
0 0
0 0
0 0
0 0
0 0
0 0
0 0
0 0
0 0
0 0
0 0
0 0
0 0
0 0
0 0
0 0
0 0
0 0
0 0
0 0
0 0
0 0
0 0
0 0
0 0
0 0
0 0
0 0
0 0
0 0
0 0
0 0
0 0
0 0
0 0
0 0
0 0
0 0
0 0
0 0
0 0
0 0
0 0
0 0
0 0
0 0
0 0
0 0
0 0
0 0
0 0
0 0
0 0
0 0
0 0
0 0
0 0
0 0
0 0
0 0
0 0
0 0
0 0
0 0
0 0
0 0
0 0
0 0
0 0
0 0
0 0
0 0
0 0
0 0
0 0
0 0
0 0
0 0
0 0
0 0
0 0
0 0
0 0
0 0
0 0
0 0
0 0
0 0
0 0
0 0
0 0
0 0
0 0
0 0
0 0
0 0
0 0
0 0
0 0
0 0
0 0
0 0
0 0
0 0
0 0
0 0
0 0
0 0
0 0
0 0
0 0
0 0
0 0
0 0
0 0
0 0
0 0
0 0
0 0
0 0
0 0
0 0
0 0
0 0
0 0
0 0
0 0
0 0
0 0
0 0
0 0
0 0
0 0
0 0
0 0
0 0
0 0
0 0
0 0
0 0
0 0
0 0
0 0
0 0
0 0
0 0
0 0
0 0
0 0
0 0
0 0
0 0
0 0
0 0
0 0
0 0
0 0
0 0
0 0
0 0
0 0
0 0
0 0
0 0
0 0
0 0
0 0
0 0
0 0
0 0
0 0
0 0
0 0
0 0
0 0
0 0
0 0
0 0
0 0
0 0
0 0
0 0
0 0
0 0
0 0
0 0
0 0
0 0
0 0
0 0
0 0
0 0
0 0
0 0
0 0
0 0
0 0
0 0
0 0
0 0
0 0
0 0
0 0
0 0
0 0
0 0
0 0
0 0
0 0
0 0
0 0
0 0
0 0
0 0
0 0
0 0
0 0
0 0
0 0
0 0
0 0
0 0
0 0
0 0
0 0
0 0
0 0
0 0
0 0
0 0
0 0
0 0
0 0
0 0
0 0
0 0
0 0
0 0
0 0
0 0
0 0
0 0
0 0
0 0
0 0
0 0
0 0
0 0
0 0
0 0
0 0
0 0
0 0
0 0
0 0
0 0
0 0
0 0
0 0
0 0
0 0
0 0
0 0
0 0
0 0
0 0
0 0
0 0
0 0
0 0
0 0
0 0
0 0
0 0
0 0
0 0
0 0
0 0
0 0
0 0
0 0
0 0
0 0
0 0
0 0
0 0
0 0
0 0
0 0
0 0
0 0
0 0
0 0
0 0
0 0
0 0
0 0
0 0
0 0
0 0
0 0
0 0
0 0
0 0
0 0
0 0
0 0
0 0
0 0
0 0
0 0
0 0
0 0
0 0
0 0
0 0
0 0
0 0
0 0
0 0
0 0
0 0
0 0
0 0
0 0
0 0
0 0
0 0
0 0
0 0
0 0
0 0
0 0
0 0
0 0
0 0
0 0
0 0
0 0
0 0
0 0
0 0
0 0
0 0
0 0
0 0
0 0
0 0
0 0
0 0
0 0
0 0
0 0
0 0
0 0
0 0
0 0
0 0
0 0
0 0
0 0
0 0
0 0
0 0
0 0
0 0
0 0
0 0
0 0
0 0
0 0
0 0
0 0
0 0
0 0
0 0
0 0
0 0
0 0
0 0
0 0
0 0
0 0
0 0
0 0
0 0
0 0
0 0
0 0
0 0
0 0
0 0
0 0
0 0
0 0
0 0
0 0
0 0
0 0
0 0
0 0
0 0
0 0
0 0
0 0
0 0
0 0
0 0
0 0
0 0
0 0
0 0
0 0
0 0
0 0
0 0
0 0
0 0
0 0
0 0
0 0
0 0
0 0
0 0
0 0
0 0
0 0
0 0
0 0
0 0
0 0
0 0
0 0
0 0
0 0
0 0
0 0
0 0
0 0
0 0
0 0
0 0
0 0
0 0
0 0
0 0
0 0
0 0
0 0
0 0
0 0
0 0
0 0
0 0
0 0
0 0
0 0
0 0
0 0
0 0
0 0
0 0
0 0
0 0
0 0
0 0
0 0
0 0
0 0
0 0
0 0
0 0
0 0
0 0
0 0
0 0
0 0
0 0
0 0
0 0
0 0
0 0
0 0
0 0
0 0
0 0
0 0
0 0
0 0
0 0
0 0
0 0
0 0
0 0
0 0
0 0
0 0
0 0
0 0
0 0
0 0
0 0
0 0
0 0
0 0
0 0
0 0
0 0
0 0
0 0
0 0
0 0
0 0
0 0
0 0
0 0
0 0
0 0
0 0
0 0
0 0
0 0
0 0
0 0
0 0
0 0
0 0
0 0
0 0
0 0
0 0
0 0
0 0
0 0
0 0
0 0
0 0
0 0
0 0
0 0
0 0
0 0
0 0
0 0
0 0
0 0
0 0
0 0
0 0
0 0
0 0
0 0
0 0
0 0
0 0
0 0
0 0
0 0
0 0
0 0
0 0
0 0
0 0
0 0
0 0
0 0
0 0
0 0
0 0
0 0
0 0
0 0
0 0
0 0
0 0
0 0
0 0
0 0
0 0
0 0
0 0
0 0
0 0
0 0
0 0
0 0
0 0
0 0
0 0
0 0
0 0
0 0
0 0
0 0
0 0
0 0
0 0
0 0
0 0
0 0
0 0
0 0
0 0
0 0
0 0
0 0
0 0
0 0
0 0
0 0
0 0
0 0
0 0
0 0
0 0
0 0
0 0
0 0
0 0
0 0
0 0
0 0
0 0
0 0
0 0
0 0
0 0
0 0
0 0
0 0
0 0
0 0
0 0
0 0
0 0
0 0
0 0
0 0
0 0
0 0
0 0
0 0
0 0
0 0
0 0
0 0
0 0
0 0
0 0
0 0
0 0
0 0
0 0
0 0
0 0
0 0
0 0
0 0
0 0
0 0
0 0
0 0
0 0
0 0
0 0
0 0
0 0
0 0
0 0
0 0
0 0
0 0
0 0
0 0
0 0
0 0
0 0
0 0
0 0
0 0
0 0
0 0
0 0
0 0
0 0
0 0
0 0
0 0
0 0
0 0
0 0
0 0
0 0
0 0
0 0
0 0
0 0
0 0
0 0
0 0
0 0
0 0
0 0
0 0
0 0
0 0
0 0
0 0
0 0
0 0
0 0
0 0
0 0
0 0
0 0
0 0
0 0
0 0
0 0
0 0
0 0
0 0
0 0
0 0
0 0
0 0
0 0
0 0
0 0
0 0
0 0
0 0
0 0
0 0
0 0
0 0
0 0
0 0
0 0
0 0
0 0
0 0
0 0
0 0
0 0
0 0
0 0
0 0
0 0
0 0
0 0
0 0
0 0
0 0
0 0
0 0
0 0
0 0
0 0
0 0
0 0
0 0
0 0
0 0
0 0
0 0
0 0
0 0
0 0
0 0
0 0
0 0
0 0
0 0
0 0
0 0
0 0
0 0
0 0
0 0
0 0
0 0
0 0
0 0
0 0
0 0
0 0
0 0
0 0
0 0
0 0
0 0
0 0
0 0
0 0
0 0
0 0
0 0
0 0
0 0
0 0
0 0
0 0
0 0
0 0
0 0
0 0
0 0
0 0
0 0
0 0
0 0
0 0
0 0
0 0
0 0
0 0
0 0
0 0
0 0
0 0
0 0
0 0
0 0
0 0
0 0
0 0
0 0
0 0
0 0
0 0
0 0
0 0
0 0
0 0
0 0
0 0
0 0
0 0
0 0
0 0
0 0
0 0
0 0
0 0
0 0
0 0
0 0
0 0
0 0
0 0
0 0
0 0
0 0
0 0
0 0
0 0
0 0
0 0
0 0
0 0
0 0
0 0
0 0
0 0
0 0
0 0
0 0
0 0
0 0
0 0
0 0
0 0
0 0
0 0
0 0
0 0
0 0
0 0
0 0
0 0
0 0
0 0
0 0
0 0
0 0
0 0
0 0
0 0
0 0
0 0
0 0
0 0
0 0
0 0
0 0
0 0
0 0
0 0
0 0
0 0
0 0
0 0
0 0
0 0
0 0
0 0
0 0
0 0
0 0
0 0
0 0
0 0
0 0
0 0
0 0
0 0
0 0
0 0
0 0
0 0
0 0
0 0
0 0
0 0
0 0
0 0
0 0
0 0
0 0
0 0
0 0
0 0
0 0
0 0
0 0
0 0
0 0
0 0
0 0
0 0
0 0
0 0
0 0
0 0
0 0
0 0
0 0
0 0
0 0
0 0
0 0
0 0
0 0
0 0
0 0
0 0
0 0
0 0
0 0
0 0
0 0
0 0
0 0
0 0
0 0
0 0
0 0
0 0
0 0
0 0
0 0
0 0
0 0
0 0
0 0
0 0
0 0
0 0
0 0
0 0
0 0
0 0
0 0
0 0
0 0
0 0
0 0
0 0
0 0
0 0
0 0
0 0
0 0
0 0
0 0
0 0
0 0
0 0
0 0
0 0
0 0
0 0
0 0
0 0
0 0
0 0
0 0
0 0
0 0
0 0
0 0
0 0
0 0
0 0
0 0
0 0
0 0
0 0
0 0
0 0
0 0
0 0
0 0
0 0
0 0
0 0
0 0
0 0
0 0
0 0
0 0
0 0
0 0
0 0
0 0
0 0
0 0
0 0
0 0
0 0
0 0
0 0
0 0
0 0
0 0
0 0
0 0
0 0
0 0
0 0
0 0
0 0
0 0
0 0
0 0
0 0
0 0
0 0
0 0
0 0
0 0
0 0
0 0
0 0
0 0
0 0
0 0
0 0
0 0
0 0
0 0
0 0
0 0
0 0
0 0
0 0
0 0
0 0
0 0
0 0
0 0
0 0
0 0
0 0
0 0
0 0
0 0
0 0
0 0
0 0
0 0
0 0
0 0
0 0
0 0
0 0
0 0
0 0
0 0
0 0
0 0
0 0
0 0
0 0
0 0
0 0
0 0
0 0
0 0
0 0
0 0
0 0
0 0
0 0
0 0
0 0
0 0
0 0
0 0
0 0
0 0
0 0
0 0
0 0
0 0
0 0
0 0
0 0
0 0
0 0
0 0
0 0
0 0
0 0
0 0
0 0
0 0
0 0
0 0
0 0
0 0
0 0
0 0
0 0
0 0
0 0
0 0
0 0
0 0
0 0
0 0
0 0
0 0
0 0
0 0
0 0
0 0
0 0
0 0
0 0
0 0
0 0
0 0
0 0
0 0
0 0
0 0
0 0
0 0
0 0
0 0
0 0
0 0
0 0
0 0
0 0
0 0
0 0
0 0
0 0
0 0
0 0
0 0
0 0
0 0
0 0
0 0
0 0
0 0
0 0
0 0
0 0
0 0
0 0
0 0
0 0
0 0
0 0
0 0
0 0
0 0
0 0
0 0
0 0
0 0
0 0
0 0
0 0
0 0
0 0
0 0
0 0
0 0
0 0
0 0
0 0
0 0
0 0
0 0
0 0
0 0
0 0
0 0
0 0
0 0
0 0
0 0
0 0
0 0
0 0
0 0
0 0
0 0
0 0
0 0
0 0
0 0
0 0
0 0
0 0
0 0
0 0
0 0
0 0
0 0
0 0
0 0
0 0
0 0
0 0
0 0
0 0
0 0
0 0
0 0
0 0
0 0
0 0
0 0
0 0
0 0
0 0
0 0
0 0
0 0
0 0
0 0
0 0
0 0
0 0
0 0
0 0
0 0
0 0
0 0
0 0
0 0
0 0
0 0
0 0
0 0
0 0
0 0
0 0
0 0
0 0
0 0
0 0
0 0
0 0
0 0
0 0
0 0
0 0
0 0
0 0
0 0
0 0
0 0
0 0
0 0
0 0
0 0
0 0
0 0
0 0
0 0
0 0
0 0
0 0
0 0
0 0
0 0
0 0
0 0
0 0
0 0
0 0
0 0
0 0
0 0
0 0
0 0
0 0
0 0
0 0
0 0
0 0
0 0
0 0
0 0
0 0
0 0
0 0
0 0
0 0
0 0
0 0
0 0
0 0
0 0
0 0
0 0
0 0
0 0
0 0
0 0
0 0
0 0
0 0
0 0
0 0
0 0
0 0
0 0
0 0
0 0
0 0
0 0
0 0
0 0
0 0
0 0
0 0
0 0
0 0
0 0
0 0
0 0
0 0
0 0
0 0
0 0
0 0
0 0
0 0
0 0
0 0
0 0
0 0
0 0
0 0
0 0
0 0
0 0
0 0
0 0
0 0
0 0
0 0
0 0
0 0
0 0
0 0
0 0
0 0
0 0
0 0
0 0
0 0
0 0
0 0
0 0
0 0
0 0
0 0
0 0
0 0
0 0
0 0
0 0
0 0
0 0
0 0
0 0
0 0
0 0
0 0
0 0
0 0
0 0
0 0
0 0
0 0
0 0
0 0
0 0
0 0
0 0
0 0
0 0
0 0
0 0
0 0
0 0
0 0
0 0
0 0
0 0
0 0
0 0
0 0
0 0
0 0
0 0
0 0
0 0
0 0
0 0
0 0
0 0
0 0
0 0
0 0
0 0
0 0
0 0
0 0
0 0
0 0
0 0
0 0
0 0
0 0
0 0
0 0
0 0
0 0
0 0
0 0
0 0
0 0
0 0
0 0
0 0
0 0
0 0
0 0
0 0
0 0
0 0
0 0
0 0
0 0
0 0
0 0
0 0
0 0
0 0
0 0
0 0
0 0
0 0
0 0
0 0
0 0
0 0
0 0
0 0
0 0
0 0
0 0
0 0
0 0
0 0
0 0
0 0
0 0
0 0
0 0
0 0
0 0
0 0
0 0
0 0
0 0
0 0
0 0
0 0
0 0
0 0
0 0
0 0
0 0
0 0
0 0
0 0
0 0
0 0
0 0
0 0
0 0
0 0
0 0
0 0
0 0
0 0
0 0
0 0
0 0
0 0
0 0
0 0
0 0
0 0
0 0
0 0
0 0
0 0
0 0
0 0
0 0
0 0
0 0
0 0
0 0
0 0
0 0
0 0
0 0
0 0
0 0
0 0
0 0
0 0
0 0
0 0
0 0
0 0
0 0
0 0
0 0
0 0
0 0
0 0
0 0
0 0
0 0
0 0
0 0
0 0
0 0
0 0
0 0
0 0
0 0
0 0
0 0
0 0
0 0
0 0
0 0
0 0
0 0
0 0
0 0
0 0
0 0
0 0
0 0
0 0
0 0
0 0
0 0
0 0
0 0
0 0
0 0
0 0
0 0
0 0
0 0
0 0
0 0
0 0
0 0
0 0
0 0
0 0
0 0
0 0
0 0
0 0
0 0
0 0
0 0
0 0
0 0
0 0
0 0
0 0
0 0
0 0
0 0
0 0
0 0
0 0
0 0
0 0
0 0
0 0
0 0
0 0
0 0
0 0
0 0
0 0
0 0
0 0
0 0
0 0
0 0
0 0
0 0
0 0
0 0
0 0
0 0
0 0
0 0
0 0
0 0
0 0
0 0
0 0
0 0
0 0
0 0
0 0
0 0
0 0
0 0
0 0
0 0
0 0
0 0
0 0
0 0
0 0
0 0
0 0
0 0
0 0
0 0
0 0
0 0
0 0
0 0
0 0
0 0
0 0
0 0
0 0
0 0
0 0
0 0
0 0
0 0
0 0
0 0
0 0
0 0
0 0
0 0
0 0
0 0
0 0
0 0
0 0
0 0
0 0
0 0
0 0
0 0
0 0
0 0
0 0
0 0
0 0
0 0
0 0
0 0
0 0
0 0
0 0
0 0
0 0
0 0
0 0
0 0
0 0
0 0
0 0
0 0
0 0
0 0
0 0
0 0
0 0
0 0
0 0
0 0
0 0
0 0
0 0
0 0
0 0
0 0
0 0
0 0
0 0
0 0
0 0
0 0
0 0
0 0
0 0
0 0
0 0
0 0
0 0
0 0
0 0
0 0
0 0
0 0
0 0
0 0
0 0
0 0
0 0
0 0
0 0
0 0
0 0
0 0
0 0
0 0
0 0
0 0
0 0
0 0
0 0
0 0
0 0
0 0
0 0
0 0
0 0
0 0
0 0
0 0
0 0
0 0
0 0
0 0
0 0
0 0
0 0
0 0
0 0
0 0
0 0
0 0
0 0
0 0
0 0
0 0
0 0
0 0
0 0
0 0
0 0
0 0
0 0
0 0
0 0
0 0
0 0
0 0
0 0
0 0
0 0
0 0
0 0
0 0
0 0
0 0
0 0
0 0
0 0
0 0
0 0
0 0
0 0
0 0
0 0
0 0
0 0
0 0
0 0
0 0
0 0
0 0
0 0
0 0
0 0
0 0
0 0
0 0
0 0
0 0
0 0
0 0
0 0
0 0
0 0
0 0
0 0
0 0
0 0
0 0
0 0
0 0
0 0
0 0
0 0
0 0
0 0
0 0
0 0
0 0
0 0
0 0
0 0
0 0
0 0
0 0
0 0
0 0
0 0
0 0
0 0
0 0
0 0
0 0
0 0
0 0
0 0
0 0
0 0
0 0
0 0
0 0
0 0
0 0
0 0
0 0
0 0
0 0
0 0
0 0
0 0
0 0
0 0
0 0
0 0
0 0
0 0
0 0
0 0
0 0
0 0
0 0
0 0
0 0
0 0
0 0
0 0
0 0
0 0
0 0
0 0
0 0
0 0
0 0
0 0
0 0
0 0
0 0
0 0
0 0
0 0
0 0
0 0
0 0
0 0
0 0
0 0
0 0
0 0
0 0
0 0
0 0
0 0
0 0
0 0
0 0
0 0
0 0
0 0
0 0
0 0
0 0
0 0
0 0
0 0
0 0
0 0
0 0
0 0
0 0
0 0
0 0
0 0
0 0
0 0
0 0
0 0
0 0
0 0
0 0
0 0
0 0
0 0
0 0
0 0
0 0
0 0
0 0
0 0
0 0
0 0
0 0
0 0
0 0
0 0
0 0
0 0
0 0
0 0
0 0
0 0
0 0
0 0
0 0
0 0
0 0
0 0
0 0
0 0
0 0
0 0
0 0
0 0
0 0
0 0
0 0
0 0
0 0
0 0
0 0
0 0
0 0
0 0
0 0
0 0
0 0
0 0
0 0
0 0
0 0
0 0
0 0
0 0
0 0
0 0
0 0
0 0
0 0
0 0
0 0
0 0
0 0
0 0
0 0
0 0
0 0
0 0
0 0
0 0
0 0
0 0
0 0
0 0
0 0
0 0
0 0
0 0
0 0
0 0
0 0
0 0
0 0
0 0
0 0
0 0
0 0
0 0
0 0
0 0
0 0
0 0
0 0
0 0
0 0
0 0
0 0
0 0
0 0
0 0
0 0
0 0
0 0
0 0
0 0
0 0
0 0
0 0
0 0
0 0
0 0
0 0
0 0
0 0
0 0
0 0
0 0
0 0
0 0
0 0
0 0
0 0
0 0
0 0
0 0
0 0
0 0
0 0
0 0
0 0
0 0
0 0
0 0
0 0
0 0
0 0
0 0
0 0
0 0
0 0
0 0
0 0
0 0
0 0
0 0
0 0
0 0
0 0
0 0
0 0
0 0
0 0
0 0
0 0
0 0
0 0
0 0
0 0
0 0
0 0
0 0
0 0
0 0
0 0
0 0
0 0
0 0
0 0
0 0
0 0
0 0
0 0
0 0
0 0
0 0
0 0
0 0
0 0
0 0
0 0
0 0
0 0
0 0
0 0
0 0
0 0
0 0
0 0
0 0
0 0
0 0
0 0
0 0
0 0
0 0
0 0
0 0
0 0
0 0
0 0
0 0
0 0
0 0
0 0
0 0
0 0
0 0
0 0
0 0
0 0
0 0
0 0
0 0
0 0
0 0
0 0
0 0
0 0
0 0
0 0
0 0
0 0
0 0
0 0
0 0
0 0
0 0
0 0
0 0
0 0
0 0
0 0
0 0
0 0
0 0
0 0
0 0
0 0
0 0
0 0
0 0
0 0
0 0
0 0
0 0
0 0
0 0
0 0
0 0
0 0
0 0
0 0
0 0
0 0
0 0
0 0
0 0
0 0
0 0
0 0
0 0
0 0
0 0
0 0
0 0
0 0
0 0
0 0
0 0
0 0
0 0
0 0
0 0
0 0
0 0
0 0
0 0
0 0
0 0
0 0
0 0
0 0
0 0
0 0
0 0
0 0
0 0
0 0
0 0
0 0
0 0
0 0
0 0
0 0
0 0
0 0
0 0
0 0
0 0
0 0
0 0
0 0
0 0
0 0
0 0
0 0
0 0
0 0
0 0
0 0
0 0
0 0
0 0
0 0
0 0
0 0
0 0
0 0
0 0
0 0
0 0
0 0
0 0
0 0
0 0
0 0
0 0
0 0
0 0
0 0
0 0
0 0
0 0
0 0
0 0
0 0
0 0
0 0
0 0
0 0
0 0
0 0
0 0
0 0
0 0
0 0
0 0
0 0
0 0
0 0
0 0
0 0
0 0
0 0
0 0
0 0
0 0
0 0
0 0
0 0
0 0
0 0
0 0
0 0
0 0
0 0
0 0
0 0
0 0
0 0
0 0
0 0
0 0
0 0
0 0
0 0
0 0
0 0
0 0
0 0
0 0
0 0
0 0
0 0
0 0
0 0
0 0
0 0
0 0
0 0
0 0
0 0
0 0
0 0
0 0
0 0
0 0
0 0
0 0
0 0
0 0
0 0
0 0
0 0
0 0
0 0
0 0
0 0
0 0
0 0
0 0
0 0
0 0
0 0
0 0
0 0
0 0
0 0
0 0
0 0
0 0
0 0
0 0
0 0
0 0
0 0
0 0
0 0
0 0
0 0
0 0
0 0
0 0
0 0
0 0
0 0
0 0
0 0
0 0
0 0
0 0
0 0
0 0
0 0
0 0
0 0
0 0
0 0
0 0
0 0
0 0
0 0
0 0
0 0
0 0
0 0
0 0
0 0
0 0
0 0
0 0
0 0
0 0
0 0
0 0
0 0
0 0
0 0
0 0
0 0
0 0
0 0
0 0
0 0
0 0
0 0
0 0
0 0
0 0
0 0
0 0
0 0
0 0
0 0
0 0
0 0
0 0
0 0
0 0
0 0
0 0
0 0
0 0
0 0
0 0
0 0
0 0
0 0
0 0
0 0
0 0
0 0
0 0
0 0
0 0
0 0
0 0
0 0
0 0
0 0
0 0
0 0
0 0
0 0
0 0
0 0
0 0
0 0
0 0
0 0
0 0
0 0
0 0
0 0
0 0
0 0
0 0
0 0
0 0
0 0
0 0
0 0
0 0
0 0
0 0
0 0
0 0
0 0
0 0
0 0
0 0
0 0
0 0
0 0
0 0
0 0
0 0
0 0
0 0
0 0
0 0
0 0
0 0
0 0
0 0
0 0
0 0
0 0
0 0
0 0
0 0
0 0
0 0
0 0
0 0
0 0
0 0
0 0
0 0
0 0
0 0
0 0
0 0
0 0
0 0
0 0
0 0
0 0
0 0
0 0
0 0
0 0
0 0
0 0
0 0
0 0
0 0
0 0
0 0
0 0
0 0
0 0
0 0
0 0
0 0
0 0
0 0
0 0
0 0
0 0
0 0
0 0
0 0
0 0
0 0
0 0
0 0
0 0
0 0
0 0
0 0
0 0
0 0
0 0
0 0
0 0
0 0
0 0
0 0
0 0
0 0
0 0
0 0
0 0
0 0
0 0
0 0
0 0
0 0
0 0
0 0
0 0
0 0
0 0
0 0
0 0
0 0
0 0
0 0
0 0
0 0
0 0
0 0
0 0
0 0
0 0
0 0
0 0
0 0
0 0
0 0
0 0
0 0
0 0
0 0
0 0
0 0
0 0
0 0
0 0
0 0
0 0
0 0
0 0
0 0
0 0
0 0
0 0
0 0
0 0
0 0
0 0
0 0
0 0
0 0
0 0
0 0
0 0
0 0
0 0
0 0
0 0
0 0
0 0
0 0
0 0
0 0
0 0
0 0
0 0
0 0
0 0
0 0
0 0
0 0
0 0
0 0
0 0
0 0
0 0
0 0
0 0
0 0
0 0
0 0
0 0
0 0
0 0
0 0
0 0
0 0
0 0
0 0
0 0
0 0
0 0
0 0
0 0
0 0
0 0
0 0
0 0
0 0
0 0
0 0
0 0
0 0
0 0
0 0
0 0
0 0
0 0
0 0
0 0
0 0
0 0
0 0
0 0
0 0
0 0
0 0
0 0
0 0
0 0
0 0
0 0
0 0
0 0
0 0
0 0
0 0
0 0
0 0
0 0
0 0
0 0
0 0
0 0
0 0
0 0
0 0
0 0
0 0
0 0
0 0
0 0
0 0
0 0
0 0
0 0
0 0
0 0
0 0
0 0
0 0
0 0
0 0
0 0
0 0
0 0
0 0
0 0
0 0
0 0
0 0
0 0
0 0
0 0
0 0
0 0
0 0
0 0
0 0
0 0
0 0
0 0
0 0
0 0
0 0
0 0
0 0
0 0
0 0
0 0
0 0
0 0
0 0
0 0
0 0
0 0
0 0
0 0
0 0
0 0
0 0
0 0
0 0
0 0
0 0
0 0
0 0
0 0
0 0
0 0
0 0
0 0
0 0
0 0
0 0
0 0
0 0
0 0
0 0
0 0
0 0
0 0
0 0
0 0
0 0
0 0
0 0
0 0
0 0
0 0
0 0
0 0
0 0
0 0
0 0
0 0
0 0
0 0
0 0
0 0
0 0
0 0
0 0
0 0
0 0
0 0
0 0
0 0
0 0
0 0
0 0
0 0
0 0
0 0
0 0
0 0
0 0
0 0
0 0
0 0
0 0
0 0
0 0
0 0
0 0
0 0
0 0
0 0
0 0
0 0
0 0
0 0
0 0
0 0
0 0
0 0
0 0
0 0
0 0
0 0
0 0
0 0
0 0
0 0
0 0
0 0
0 0
0 0
0 0
0 0
0 0
0 0
0 0
0 0
0 0
0 0
0 0
0 0
0 0
0 0
0 0
0 0
0 0
0 0
0 0
0 0
0 0
0 0
0 0
0 0
0 0
0 0
0 0
0 0
0 0
0 0
0 0
0 0
0 0
0 0
0 0
0 0
0 0
0 0
0 0
0 0
0 0
0 0
0 0
0 0
0 0
0 0
0 0
0 0
0 0
0 0
0 0
0 0
0 0
0 0
0 0
0 0
0 0
0 0
0 0
0 0
0 0
0 0
0 0
0 0
0 0
0 0
0 0
0 0
0 0
0 0
0 0
0 0
0 0
0 0
0 0
0 0
0 0
0 0
0 0
0 0
0 0
0 0
0 0
0 0
0 0
0 0
0 0
0 0
0 0
0 0
0 0
0 0
0 0
0 0
0 0
0 0
0 0
0 0
0 0
0 0
0 0
0 0
0 0
0 0
0 0
0 0
0 0
0 0
0 0
0 0
0 0
0 0
0 0
0 0
0 0
0 0
0 0
0 0
0 0
0 0
0 0
0 0
0 0
0 0
0 0
0 0
0 0
0 0
0 0
0 0
0 0
0 0
0 0
0 0
0 0
0 0
0 0
0 0
0 0
0 0
0 0
0 0
0 0
0 0
0 0
0 0
0 0
0 0
0 0
0 0
0 0
0 0
0 0
0 0
0 0
0 0
0 0
0 0
0 0
0 0
0 0
0 0
0 0
0 0
0 0
0 0
0 0
0 0
0 0
0 0
0 0
0 0
0 0
0 0
0 0
0 0
0 0
0 0
0 0
0 0
0 0
0 0
0 0
0 0
0 0
0 0
0 0
0 0
0 0
0 0
0 0
0 0
0 0
0 0
0 0
0 0
0 0
0 0
0 0
0 0
0 0
0 0
0 0
0 0
0 0
0 0
0 0
0 0
0 0
0 0
0 0
0 0
0 0
0 0
0 0
0 0
0 0
0 0
0 0
0 0
0 0
0 0
0 0
0 0
0 0
0 0
0 0
0 0
0 0
0 0
0 0
0 0
0 0
0 0
0 0
0 0
0 0
0 0
0 0
0 0
0 0
0 0
0 0
0 0
0 0
0 0
0 0
0 0
0 0
0 0
0 0
0 0
0 0
0 0
0 0
0 0
0 0
0 0
0 0
0 0
0 0
0 0
0 0
0 0
0 0
0 0
0 0
0 0
0 0
0 0
0 0
0 0
0 0
0 0
0 0
0 0
0 0
0 0
0 0
0 0
0 0
0 0
0 0
0 0
0 0
0 0
0 0
0 0
0 0
0 0
0 0
0 0
0 0
0 0
0 0
0 0
0 0
0 0
0 0
0 0
0 0
0 0
0 0
0 0
0 0
0 0
0 0
0 0
0 0
0 0
0 0
0 0
0 0
0 0
0 0
0 0
0 0
0 0
0 0
0 0
0 0
0 0
0 0
0 0
0 0
0 0
0 0
0 0
0 0
0 0
0 0
0 0
0 0
0 0
0 0
0 0
0 0
0 0
0 0
0 0
0 0
0 0
0 0
0 0
0 0
0 0
0 0
0 0
0 0
0 0
0 0
0 0
0 0
0 0
0 0
0 0
0 0
0 0
0 0
0 0
0 0
0 0
0 0
0 0
0 0
0 0
0 0
0 0
0 0
0 0
0 0
0 0
0 0
0 0
0 0
0 0
0 0
0 0
0 0
0 0
0 0
0 0
0 0
0 0
0 0
0 0
0 0
0 0
0 0
0 0
0 0
0 0
0 0
0 0
0 0
0 0
0 0
0 0
0 0
0 0
0 0
0 0
0 0
0 0
0 0
0 0
0 0
0 0
0 0
0 0
0 0
0 0
0 0
0 0
0 0
0 0
0 0
0 0
0 0
0 0
0 0
0 0
0 0
0 0
0 0
0 0
0 0
0 0
0 0
0 0
0 0
0 0
0 0
0 0
0 0
0 0
0 0
0 0
0 0
0 0
0 0
0 0
0 0
0 0
0 0
0 0
0 0
0 0
0 0
0 0
0 0
0 0
0 0
0 0
0 0
0 0
0 0
0 0
0 0
0 0
0 0
0 0
0 0
0 0
0 0
0 0
0 0
0 0
0 0
0 0
0 0
0 0
0 0
0 0
0 0
0 0
0 0
0 0
0 0
0 0
0 0
0 0
0 0
0 0
0 0
0 0
0 0
0 0
0 0
0 0
0 0
0 0
0 0
0 0
0 0
0 0
0 0
0 0
0 0
0 0
0 0
0 0
0 0
0 0
0 0
0 0
0 0
0 0
0 0
0 0
0 0
0 0
0 0
0 0
0 0
0 0
0 0
0 0
0 0
0 0
0 0
0 0
0 0
0 0
0 0
0 0
0 0
0 0
0 0
0 0
0 0
0 0
0 0
0 0
0 0
0 0
0 0
0 0
0 0
0 0
0 0
0 0
0 0
0 0
0 0
0 0
0 0
0 0
0 0
0 0
0 0
0 0
0 0
0 0
0 0
0 0
0 0
0 0
0 0
0 0
0 0
0 0
0 0
0 0
0 0
0 0
0 0
0 0
0 0
0 0
0 0
0 0
0 0
0 0
0 0
0 0
0 0
0 0
0 0
0 0
0 0
0 0
0 0
0 0
0 0
0 0
0 0
0 0
0 0
0 0
0 0
0 0
0 0
0 0
0 0
0 0
0 0
0 0
0 0
0 0
0 0
0 0
0 0
0 0
0 0
0 0
0 0
0 0
0 0
0 0
0 0
0 0
0 0
0 0
0 0
0 0
0 0
0 0
0 0
0 0
0 0
0 0
0 0
0 0
0 0
0 0
0 0
0 0
0 0
0 0
0 0
0 0
0 0
0 0
0 0
0 0
0 0
0 0
0 0
0 0
0 0
0 0
0 0
0 0
0 0
0 0
0 0
0 0
0 0
0 0
0 0
0 0
0 0
0 0
0 0
0 0
0 0
0 0
0 0
0 0
0 0
0 0
0 0
0 0
0 0
0 0
0 0
0 0
0 0
0 0
0 0
0 0
0 0
0 0
0 0
0 0
0 0
0 0
0 0
0 0
0 0
0 0
0 0
0 0
0 0
0 0
0 0
0 0
0 0
0 0
0 0
0 0
0 0
0 0
0 0
0 0
0 0
0 0
0 0
0 0
0 0
0 0
0 0
0 0
0 0
0 0
0 0
0 0
0 0
0 0
0 0
0 0
0 0
0 0
0 0
0 0
0 0
0 0
0 0
0 0
0 0
0 0
0 0
0 0
0 0
0 0
0 0
0 0
0 0
0 0
0 0
0 0
0 0
0 0
0 0
0 0
0 0
0 0
0 0
0 0
0 0
0 0
0 0
0 0
0 0
0 0
0 0
0 0
0 0
0 0
0 0
0 0
0 0
0 0
0 0
0 0
0 0
0 0
0 0
0 0
0 0
0 0
0 0
0 0
0 0
0 0
0 0
0 0
0 0
0 0
0 0
0 0
0 0
0 0
0 0
0 0
0 0
0 0
0 0
0 0
0 0
0 0
0 0
0 0
0 0
0 0
0 0
0 0
0 0
0 0
0 0
0 0
0 0
0 0
0 0
0 0
0 0
0 0
0 0
0 0
0 0
0 0
0 0
0 0
0 0
0 0
0 0
0 0
0 0
0 0
0 0
0 0
0 0
0 0
0 0
0 0
0 0
0 0
0 0
0 0
0 0
0 0
0 0
0 0
0 0
0 0
0 0
0 0
0 0
0 0
0 0
0 0
0 0
0 0
0 0
0 0
0 0
0 0
0 0
0 0
0 0
0 0
0 0
0 0
0 0
0 0
0 0
0 0
0 0
0 0
0 0
0 0
0 0
0 0
0 0
0 0
0 0
0 0
0 0
0 0
0 0
0 0
0 0
0 0
0 0
0 0
0 0
0 0
0 0
0 0
0 0
0 0
0 0
0 0
0 0
0 0
0 0
0 0
0 0
0 0
0 0
0 0
0 0
0 0
0 0
0 0
0 0
0 0
0 0
0 0
0 0
0 0
0 0
0 0
0 0
0 0
0 0
0 0
0 0
0 0
0 0
0 0
0 0
0 0
0 0
0 0
0 0
0 0
0 0
0 0
0 0
0 0
0 0
0 0
0 0
0 0
0 0
0 0
0 0
0 0
0 0
0 0
0 0
0 0
0 0
0 0
0 0
0 0
0 0
0 0
0 0
0 0
0 0
0 0
0 0
0 0
0 0
0 0
0 0
0 0
0 0
0 0
0 0
0 0
0 0
0 0
0 0
0 0
0 0
0 0
0 0
0 0
0 0
0 0
0 0
0 0
0 0
0 0
0 0
0 0
0 0
0 0
0 0
0 0
0 0
0 0
0 0
0 0
0 0
0 0
0 0
0 0
0 0
0 0
0 0
0 0
0 0
0 0
0 0
0 0
0 0
0 0
0 0
0 0
0 0
0 0
0 0
0 0
0 0
0 0
0 0
0 0
0 0
0 0
0 0
0 0
0 0
0 0
0 0
0 0
0 0
0 0
0 0
0 0
0 0
0 0
0 0
0 0
0 0
0 0
0 0
0 0
0 0
0 0
0 0
0 0
0 0
0 0
0 0
0 0
0 0
0 0
0 0
0 0
0 0
0 0
0 0
0 0
0 0
0 0
0 0
0 0
0 0
0 0
0 0
0 0
0 0
0 0
0 0
0 0
0 0
0 0
0 0
0 0
0 0
0 0
0 0
0 0
0 0
0 0
0 0
0 0
0 0
0 0
0 0
0 0
0 0
0 0
0 0
0 0
0 0
0 0
0 0
0 0
0 0
0 0
0 0
0 0
0 0
0 0
0 0
0 0
0 0
0 0
0 0
0 0
0 0
0 0
0 0
0 0
0 0
0 0
0 0
0 0
0 0
0 0
0 0
0 0
0 0
0 0
0 0
0 0
0 0
0 0
0 0
0 0
0 0
0 0
0 0
0 0
0 0
0 0
0 0
0 0
0 0
0 0
0 0
0 0
0 0
0 0
0 0
0 0
0 0
0 0
0 0
0 0
0 0
0 0
0 0
0 0
0 0
0 0
0 0
0 0
0 0
0 0
0 0
0 0
0 0
0 0
0 0
0 0
0 0
0 0
0 0
0 0
0 0
0 0
0 0
0 0
0 0
0 0
0 0
0 0
0 0
0 0
0 0
0 0
0 0
0 0
0 0
0 0
0 0
0 0
0 0
0 0
0 0
0 0
0 0
0 0
0 0
0 0
0 0
0 0
0 0
0 0
0 0
0 0
0 0
0 0
0 0
0 0
0 0
0 0
0 0
0 0
0 0
0 0
0 0
0 0
0 0
0 0
0 0
0 0
0 0
0 0
0 0
0 0
0 0
0 0
0 0
0 0
0 0
0 0
0 0
0 0
0 0
0 0
0 0
0 0
0 0
0 0
0 0
0 0
0 0
0 0
0 0
0 0
0 0
0 0
0 0
0 0
0 0
0 0
0 0
0 0
0 0
0 0
0 0
0 0
0 0
0 0
0 0
0 0
0 0
0 0
0 0
0 0
0 0
0 0
0 0
0 0
0 0
0 0
0 0
0 0
0 0
0 0
0 0
0 0
0 0
0 0
0 0
0 0
0 0
0 0
0 0
0 0
0 0
0 0
0 0
0 0
0 0
0 0
0 0
0 0
0 0
0 0
0 0
0 0
0 0
0 0
0 0
0 0
0 0
0 0
0 0
0 0
0 0
0 0
0 0
0 0
0 0
0 0
0 0
0 0
0 0
0 0
0 0
0 0
0 0
0 0
0 0
0 0
0 0
0 0
0 0
0 0
0 0
0 0
0 0
0 0
0 0
0 0
0 0
0 0
0 0
0 0
0 0
0 0
0 0
0 0
0 0
0 0
0 0
0 0
0 0
0 0
0 0
0 0
0 0
0 0
0 0
0 0
0 0
0 0
0 0
0 0
0 0
0 0
0 0
0 0
0 0
0 0
0 0
0 0
0 0
0 0
0 0
0 0
0 0
0 0
0 0
0 0
0 0
0 0
0 0
0 0
0 0
0 0
0 0
0 0
0 0
0 0
0 0
0 0
0 0
0 0
0 0
0 0
0 0
0 0
0 0
0 0
0 0
0 0
0 0
0 0
0 0
0 0
0 0
0 0
0 0
0 0
0 0
0 0
0 0
0 0
0 0
0 0
0 0
0 0
0 0
0 0
0 0
0 0
0 0
0 0
0 0
0 0
0 0
0 0
0 0
0 0
0 0
0 0
0 0
0 0
0 0
0 0
0 0
0 0
0 0
0 0
0 0
0 0
0 0
0 0
0 0
0 0
0 0
0 0
0 0
0 0
0 0
0 0
0 0
0 0
0 0
0 0
0 0
0 0
0 0
0 0
0 0
0 0
0 0
0 0
0 0
0 0
0 0
0 0
0 0
0 0
0 0
0 0
0 0
0 0
0 0
0 0
0 0
0 0
0 0
0 0
0 0
0 0
0 0
0 0
0 0
0 0
0 0
0 0
0 0
0 0
0 0
0 0
0 0
0 0
0 0
0 0
0 0
0 0
0 0
0 0
0 0
0 0
0 0
0 0
0 0
0 0
0 0
0 0
0 0
0 0
0 0
0 0
0 0
0 0
0 0
0 0
0 0
0 0
0 0
0 0
0 0
0 0
0 0
0 0
0 0
0 0
0 0
0 0
0 0
0 0
0 0
0 0
0 0
0 0
0 0
0 0
0 0
0 0
0 0
0 0
0 0
0 0
0 0
0 0
0 0
0 0
0 0
0 0
0 0
0 0
0 0
0 0
0 0
0 0
0 0
0 0
0 0
0 0
0 0
0 0
0 0
0 0
0 0
0 0
0 0
0 0
0 0
0 0
0 0
0 0
0 0
0 0
0 0
0 0
0 0
0 0
0 0
0 0
0 0
0 0
0 0
0 0
0 0
0 0
0 0
0 0
0 0
0 0
0 0
0 0
0 0
0 0
0 0
0 0
0 0
0 0
0 0
0 0
0 0
0 0
0 0
0 0
0 0
0 0
0 0
0 0
0 0
0 0
0 0
0 0
0 0
0 0
0 0
0 0
0 0
0 0
0 0
0 0
0 0
0 0
0 0
0 0
0 0
0 0
0 0
0 0
0 0
0 0
0 0
0 0
0 0
0 0
0 0
0 0
0 0
0 0
0 0
0 0
0 0
0 0
0 0
0 0
0 0
0 0
0 0
0 0
0 0
0 0
0 0
0 0
0 0
0 0
0 0
0 0
0 0
0 0
0 0
0 0
0 0
0 0
0 0
0 0
0 0
0 0
0 0
0 0
0 0
0 0
0 0
0 0
0 0
0 0
0 0
0 0
0 0
0 0
0 0
0 0
0 0
0 0
0 0
0 0
0 0
0 0
0 0
0 0
0 0
0 0
0 0
0 0
0 0
0 0
0 0
0 0
0 0
0 0
0 0
0 0
0 0
0 0
0 0
0 0
0 0
0 0
0 0
0 0
0 0
0 0
0 0
0 0
0 0
0 0
0 0
0 0
0 0
0 0
0 0
0 0
0 0
0 0
0 0
0 0
0 0
0 0
0 0
0 0
0 0
0 0
0 0
0 0
0 0
0 0
0 0
0 0
0 0
0 0
0 0
0 0
0 0
0 0
0 0
0 0
0 0
0 0
0 0
0 0
0 0
0 0
0 0
0 0
0 0
0 0
0 0
0 0
0 0
0 0
0 0
0 0
0 0
0 0
0 0
0 0
0 0
0 0
0 0
0 0
0 0
0 0
0 0
0 0
0 0
0 0
0 0
0 0
0 0
0 0
0 0
0 0
0 0
0 0
0 0
0 0
0 0
0 0
0 0
0 0
0 0
0 0
0 0
0 0
0 0
0 0
0 0
0 0
0 0
0 0
0 0
0 0
0 0
0 0
0 0
0 0
0 0
0 0
0 0
0 0
0 0
0 0
0 0
0 0
0 0
0 0
0 0
0 0
0 0
0 0
0 0
0 0
0 0
0 0
0 0
0 0
0 0
0 0
0 0
0 0
0 0
0 0
0 0
0 0
0 0
0 0
0 0
0 0
0 0
0 0
0 0
0 0
0 0
0 0
0 0
0 0
0 0
0 0
0 0
0 0
0 0
0 0
0 0
0 0
0 0
0 0
0 0
0 0
0 0
0 0
0 0
0 0
0 0
0 0
0 0
0 0
0 0
0 0
0 0
0 0
0 0
0 0
0 0
0 0
0 0
0 0
0 0
0 0
0 0
0 0
0 0
0 0
0 0
0 0
0 0
0 0
0 0
0 0
0 0
0 0
0 0
0 0
0 0
0 0
0 0
0 0
0 0
0 0
0 0
0 0
0 0
0 0
0 0
0 0
0 0
0 0
0 0
0 0
0 0
0 0
0 0
0 0
0 0
0 0
0 0
0 0
0 0
0 0
0 0
0 0
0 0
0 0
0 0
0 0
0 0
0 0
0 0
0 0
0 0
0 0
0 0
0 0
0 0
0 0
0 0
0 0
0 0
0 0
0 0
0 0
0 0
0 0
0 0
0 0
0 0
0 0
0 0
0 0
0 0
0 0
0 0
0 0
0 0
0 0
0 0
0 0
0 0
0 0
0 0
0 0
0 0
0 0
0 0
0 0
0 0
0 0
0 0
0 0
0 0
0 0
0 0
0 0
0 0
0 0
0 0
0 0
0 0
0 0
0 0
0 0
0 0
0 0
0 0
0 0
0 0
0 0
0 0
0 0
0 0
0 0
0 0
0 0
0 0
0 0
0 0
0 0
0 0
0 0
0 0
0 0
0 0
0 0
0 0
0 0
0 0
0 0
0 0
0 0
0 0
0 0
0 0
0 0
0 0
0 0
0 0
0 0
0 0
0 0
0 0
0 0
0 0
0 0
0 0
0 0
0 0
0 0
0 0
0 0
0 0
0 0
0 0
0 0
0 0
0 0
0 0
0 0
0 0
0 0
0 0
0 0
0 0
0 0
0 0
0 0
0 0
0 0
0 0
0 0
0 0
0 0
0 0
0 0
0 0
0 0
0 0
0 0
0 0
0 0
0 0
0 0
0 0
0 0
0 0
0 0
0 0
0 0
0 0
0 0
0 0
0 0
0 0
0 0
0 0
0 0
0 0
0 0
0 0
0 0
0 0
0 0
0 0
0 0
0 0
0 0
0 0
0 0
0 0
0 0
0 0
0 0
0 0
0 0
0 0
0 0
0 0
0 0
0 0
0 0
0 0
0 0
0 0
0 0
0 0
0 0
0 0
0 0
0 0
0 0
0 0
0 0
0 0
0 0
0 0
0 0
0 0
0 0
0 0
0 0
0 0
0 0
0 0
0 0
0 0
0 0
0 0
0 0
0 0
0 0
0 0
0 0
0 0
0 0
0 0
0 0
0 0
0 0
0 0
0 0
0 0
0 0
0 0
0 0
0 0
0 0
0 0
0 0
0 0
0 0
0 0
0 0
0 0
0 0
0 0
0 0
0 0
0 0
0 0
0 0
0 0
0 0
0 0
0 0
0 0
0 0
0 0
0 0
0 0
0 0
0 0
0 0
0 0
0 0
0 0
0 0
0 0
0 0
0 0
0 0
0 0
0 0
0 0
0 0
0 0
0 0
0 0
0 0
0 0
0 0
0 0
0 0
0 0
0 0
0 0
0 0
0 0
0 0
0 0
0 0
0 0
0 0
0 0
0 0
0 0
0 0
0 0
0 0
0 0
0 0
0 0
0 0
0 0
0 0
0 0
0 0
0 0
0 0
0 0
0 0
0 0
0 0
0 0
0 0
0 0
0 0
0 0
0 0
0 0
0 0
0 0
0 0
0 0
0 0
0 0
0 0
0 0
0 0
0 0
0 0
0 0
0 0
0 0
0 0
0 0
0 0
0 0
0 0
0 0
0 0
0 0
0 0
0 0
0 0
0 0
0 0
0 0
0 0
0 0
0 0
0 0
0 0
0 0
0 0
0 0
0 0
0 0
0 0
0 0
0 0
0 0
0 0
0 0
0 0
0 0
0 0
0 0
0 0
0 0
0 0
0 0
0 0
0 0
0 0
0 0
0 0
0 0
0 0
0 0
0 0
0 0
0 0
0 0
0 0
0 0
0 0
0 0
0 0
0 0
0 0
0 0
0 0
0 0
0 0
0 0
0 0
0 0
0 0
0 0
0 0
0 0
0 0
0 0
0 0
0 0
0 0
0 0
0 0
0 0
0 0
0 0
0 0
0 0
0 0
0 0
0 0
0 0
0 0
0 0
0 0
0 0
0 0
0 0
0 0
0 0
0 0
0 0
0 0
0 0
0 0
0 0
0 0
0 0
0 0
0 0
0 0
0 0
0 0
0 0
0 0
0 0
0 0
0 0
0 0
0 0
0 0
0 0
0 0
0 0
0 0
0 0
0 0
0 0
0 0
0 0
0 0
0 0
0 0
0 0
0 0
0 0
0 0
0 0
0 0
0 0
0 0
0 0
0 0
0 0
0 0
0 0
0 0
0 0
0 0
0 0
0 0
0 0
0 0
0 0
0 0
0 0
0 0
0 0
0 0
0 0
0 0
0 0
0 0
0 0
0 0
0 0
0 0
0 0
0 0
0 0
0 0
0 0
0 0
0 0
0 0
0 0
0 0
0 0
0 0
0 0
0 0
0 0
0 0
0 0
0 0
0 0
0 0
0 0
0 0
0 0
0 0
0 0
0 0
0 0
0 0
0 0
0 0
0 0
0 0
0 0
0 0
0 0
0 0
0 0
0 0
0 0
0 0
0 0
0 0
0 0
0 0
0 0
0 0
0 0
0 0
0 0
0 0
0 0
0 0
0 0
0 0
0 0
0 0
0 0
0 0
0 0
0 0
0 0
0 0
0 0
0 0
0 0
0 0
0 0
0 0
0 0
0 0
0 0
0 0
0 0
0 0
0 0
0 0
0 0
0 0
0 0
0 0
0 0
0 0
0 0
0 0
0 0
0 0
0 0
0 0
0 0
0 0
0 0
0 0
0 0
0 0
0 0
0 0
0 0
0 0
0 0
0 0
0 0
0 0
0 0
0 0
0 0
0 0
0 0
0 0
0 0
0 0
0 0
0 0
0 0
0 0
0 0
0 0
0 0
0 0
0 0
0 0
0 0
0 0
0 0
0 0
0 0
0 0
0 0
0 0
0 0
0 0
0 0
0 0
0 0
0 0
0 0
0 0
0 0
0 0
0 0
0 0
0 0
0 0
0 0
0 0
0 0
0 0
0 0
0 0
0 0
0 0
0 0
0 0
0 0
0 0
0 0
0 0
0 0
0 0
0 0
0 0
0 0
0 0
0 0
0 0
0 0
0 0
0 0
0 0
0 0
0 0
0 0
0 0
0 0
0 0
0 0
0 0
0 0
0 0
0 0
0 0
0 0
0 0
0 0
0 0
0 0
0 0
0 0
0 0
0 0
0 0
0 0
0 0
0 0
0 0
0 0
0 0
0 0
0 0
0 0
0 0
0 0
0 0
0 0
0 0
0 0
0 0
0 0
0 0
0 0
0 0
0 0
0 0
0 0
0 0
0 0
0 0
0 0
0 0
0 0
0 0
0 0
0 0
0 0
0 0
0 0
0 0
0 0
0 0
0 0
0 0
0 0
0 0
0 0
0 0
0 0
0 0
0 0
0 0
0 0
0 0
0 0
0 0
0 0
0 0
0 0
0 0
0 0
0 0
0 0
0 0
0 0
0 0
0 0
0 0
0 0
0 0
0 0
0 0
0 0
0 0
0 0
0 0
0 0
0 0
0 0
0 0
0 0
0 0
0 0
0 0
0 0
0 0
0 0
0 0
0 0
0 0
0 0
0 0
0 0
0 0
0 0
0 0
0 0
0 0
0 0
0 0
0 0
0 0
0 0
0 0
0 0
0 0
0 0
0 0
0 0
0 0
0 0
0 0
0 0
0 0
0 0
0 0
0 0
0 0
0 0
0 0
0 0
0 0
0 0
0 0
0 0
0 0
0 0
0 0
0 0
0 0
0 0
0 0
0 0
0 0
0 0
0 0
0 0
0 0
0 0
0 0
0 0
0 0
0 0
0 0
0 0
0 0
0 0
0 0
0 0
0 0
0 0
0 0
0 0
0 0
0 0
0 0
0 0
0 0
0 0
0 0
0 0
0 0
0 0
0 0
0 0
0 0
0 0
0 0
0 0
0 0
0 0
0 0
0 0
0 0
0 0
0 0
0 0
0 0
0 0
0 0
0 0
0 0
0 0
0 0
0 0
0 0
0 0
0 0
0 0
0 0
0 0
0 0
0 0
0 0
0 0
0 0
0 0
0 0
0 0
0 0
0 0
0 0
0 0
0 0
0 0
0 0
0 0
0 0
0 0
0 0
0 0
0 0
0 0
0 0
0 0
0 0
0 0
0 0
0 0
0 0
0 0
0 0
0 0
0 0
0 0
0 0
0 0
0 0
0 0
0 0
0 0
0 0
0 0
0 0
0 0
0 0
0 0
0 0
0 0
0 0
0 0
0 0
0 0
0 0
0 0
0 0
0 0
0 0
0 0
0 0
0 0
0 0
0 0
0 0
0 0
0 0
0 0
0 0
0 0
0 0
0 0
0 0
0 0
0 0
0 0
0 0
0 0
0 0
0 0
0 0
0 0
0 0
0 0
0 0
0 0
0 0
0 0
0 0
0 0
0 0
0 0
0 0
0 0
0 0
0 0
0 0
0 0
0 0
0 0
0 0
0 0
0 0
0 0
0 0
0 0
0 0
0 0
0 0
0 0
0 0
0 0
0 0
0 0
0 0
0 0
0 0
0 0
0 0
0 0
0 0
0 0
0 0
0 0
0 0
0 0
0 0
0 0
0 0
0 0
0 0
0 0
0 0
0 0
0 0
0 0
0 0
0 0
0 0
0 0
0 0
0 0
0 0
0 0
0 0
0 0
0 0
0 0
0 0
0 0
0 0
0 0
0 0
0 0
0 0
0 0
0 0
0 0
0 0
0 0
0 0
0 0
0 0
0 0
0 0
0 0
0 0
0 0
0 0
0 0
0 0
0 0
0 0
0 0
0 0
0 0
0 0
0 0
0 0
0 0
0 0
0 0
0 0
0 0
0 0
0 0
0 0
0 0
0 0
0 0
0 0
0 0
0 0
0 0
0 0
0 0
0 0
0 0
0 0
0 0
0 0
0 0
0 0
0 0
0 0
0 0
0 0
0 0
0 0
0 0
0 0
0 0
0 0
0 0
0 0
0 0
0 0
0 0
0 0
0 0
0 0
0 0
0 0
0 0
0 0
0 0
0 0
0 0
0 0
0 0
0 0
0 0
0 0
0 0
0 0
0 0
0 0
0 0
0 0
0 0
0 0
0 0
0 0
0 0
0 0
0 0
0 0
0 0
0 0
0 0
0 0
0 0
0 0
0 0
0 0
0 0
0 0
0 0
0 0
0 0
0 0
0 0
0 0
0 0
0 0
0 0
0 0
0 0
0 0
0 0
0 0
0 0
0 0
0 0
0 0
0 0
0 0
0 0
0 0
0 0
0 0
0 0
0 0
0 0
0 0
0 0
0 0
0 0
0 0
0 0
0 0
0 0
0 0
0 0
0 0
0 0
0 0
0 0
0 0
0 0
0 0
0 0
0 0
0 0
0 0
0 0
0 0
0 0
0 0
0 0
0 0
0 0
0 0
0 0
0 0
0 0
0 0
0 0
0 0
0 0
0 0
0 0
0 0
0 0
0 0
0 0
0 0
0 0
0 0
0 0
0 0
0 0
0 0
0 0
0 0
0 0
0 0
0 0
0 0
0 0
0 0
0 0
0 0
0 0
0 0
0 0
0 0
0 0
0 0
0 0
0 0
0 0
0 0
0 0
0 0
0 0
0 0
0 0
0 0
0 0
0 0
0 0
0 0
0 0
0 0
0 0
0 0
0 0
0 0
0 0
0 0
0 0
0 0
0 0
0 0
0 0
0 0
0 0
0 0
0 0
0 0
0 0
0 0
0 0
0 0
0 0
0 0
0 0
0 0
0 0
0 0
0 0
0 0
0 0
0 0
0 0
0 0
0 0
0 0
0 0
0 0
0 0
0 0
0 0
0 0
0 0
0 0
0 0
0 0
0 0
0 0
0 0
0 0
0 0
0 0
0 0
0 0
0 0
0 0
0 0
0 0
0 0
0 0
0 0
0 0
0 0
0 0
0 0
0 0
0 0
0 0
0 0
0 0
0 0
0 0
0 0
0 0
0 0
0 0
0 0
0 0
0 0
0 0
0 0
0 0
0 0
0 0
0 0
0 0
0 0
0 0
0 0
0 0
0 0
0 0
0 0
0 0
0 0
0 0
0 0
0 0
0 0
0 0
0 0
0 0
0 0
0 0
0 0
0 0
0 0
0 0
0 0
0 0
0 0
0 0
0 0
0 0
0 0
0 0
0 0
0 0
0 0
0 0
0 0
0 0
0 0
0 0
0 0
0 0
0 0
0 0
0 0
0 0
0 0
0 0
0 0
0 0
0 0
0 0
0 0
0 0
0 0
0 0
0 0
0 0
0 0
0 0
0 0
0 0
0 0
0 0
0 0
0 0
0 0
0 0
0 0
0 0
0 0
0 0
0 0
0 0
0 0
0 0
0 0
0 0
0 0
0 0
0 0
0 0
0 0
0 0
0 0
0 0
0 0
0 0
0 0
0 0
0 0
0 0
0 0
0 0
0 0
0 0
0 0
0 0
0 0
0 0
0 0
0 0
0 0
0 0
0 0
0 0
0 0
0 0
0 0
0 0
0 0
0 0
0 0
0 0
0 0
0 0
0 0
0 0
0 0
0 0
0 0
0 0
0 0
0 0
0 0
0 0
0 0
0 0
0 0
0 0
0 0
0 0
0 0
0 0
0 0
0 0
0 0
0 0
0 0
0 0
0 0
0 0
0 0
0 0
0 0
0 0
0 0
0 0
0 0
0 0
0 0
0 0
0 0
0 0
0 0
0 0
0 0
0 0
0 0
0 0
0 0
0 0
0 0
0 0
0 0
0 0
0 0
0 0
0 0
0 0
0 0
0 0
0 0
0 0
0 0
0 0
0 0
0 0
0 0
0 0
0 0
0 0
0 0
0 0
0 0
0 0
0 0
0 0
0 0
0 0
0 0
0 0
0 0
0 0
0 0
0 0
0 0
0 0
0 0
0 0
0 0
0 0
0 0
0 0
0 0
0 0
0 0
0 0
0 0
0 0
0 0
0 0
0 0
0 0
0 0
0 0
0 0
0 0
0 0
0 0
0 0
0 0
0 0
0 0
0 0
0 0
0 0
0 0
0 0
0 0
0 0
0 0
0 0
0 0
0 0
0 0
0 0
0 0
0 0
0 0
0 0
0 0
0 0
0 0
0 0
0 0
0 0
0 0
0 0
0 0
0 0
0 0
0 0
0 0
0 0
0 0
0 0
0 0
0 0
0 0
0 0
0 0
0 0
0 0
0 0
0 0
0 0
0 0
0 0
0 0
0 0
0 0
0 0
0 0
0 0
0 0
0 0
0 0
0 0
0 0
0 0
0 0
0 0
0 0
0 0
0 0
0 0
0 0
0 0
0 0
0 0
0 0
0 0
0 0
0 0
0 0
0 0
0 0
0 0
0 0
0 0
0 0
0 0
0 0
0 0
0 0
0 0
0 0
0 0
0 0
0 0
0 0
0 0
0 0
0 0
0 0
0 0
0 0
0 0
0 0
0 0
0 0
0 0
0 0
0 0
0 0
0 0
0 0
0 0
0 0
0 0
0 0
0 0
0 0
0 0
0 0
0 0
0 0
0 0
0 0
0 0
0 0
0 0
0 0
0 0
0 0
0 0
0 0
0 0
0 0
0 0
0 0
0 0
0 0
0 0
0 0
0 0
0 0
0 0
0 0
0 0
0 0
0 0
0 0
0 0
0 0
0 0
0 0
0 0
0 0
0 0
0 0
0 0
0 0
0 0
0 0
0 0
0 0
0 0
0 0
0 0
0 0
0 0
0 0
0 0
0 0
0 0
0 0
0 0
0 0
0 0
0 0
0 0
0 0
0 0
0 0
0 0
0 0
0 0
0 0
0 0
0 0
0 0
0 0
0 0
0 0
0 0
0 0
0 0
0 0
0 0
0 0
0 0
0 0
0 0
0 0
0 0
0 0
0 0
0 0
0 0
0 0
0 0
0 0
0 0
0 0
0 0
0 0
0 0
0 0
0 0
0 0
0 0
0 0
0 0
0 0
0 0
0 0
0 0
0 0
0 0
0 0
0 0
0 0
0 0
0 0
0 0
0 0
0 0
0 0
0 0
0 0
0 0
0 0
0 0
0 0
0 0
0 0
0 0
0 0
0 0
0 0
0 0
0 0
0 0
0 0
0 0
0 0
0 0
0 0
0 0
0 0
0 0
0 0
0 0
0 0
0 0
0 0
0 0
0 0
0 0
0 0
0 0
0 0
0 0
0 0
0 0
0 0
0 0
0 0
0 0
0 0
0 0
0 0
0 0
0 0
0 0
0 0
0 0
0 0
0 0
0 0
0 0
0 0
0 0
0 0
0 0
0 0
0 0
0 0
0 0
0 0
0 0
0 0
0 0
0 0
0 0
0 0
0 0
0 0
0 0
0 0
0 0
0 0
0 0
0 0
0 0
0 0
0 0
0 0
0 0
0 0
0 0
0 0
0 0
0 0
0 0
0 0
0 0
0 0
0 0
0 0
0 0
0 0
0 0
0 0
0 0
0 0
0 0
0 0
0 0
0 0
0 0
0 0
0 0
0 0
0 0
0 0
0 0
0 0
0 0
0 0
0 0
0 0
0 0
0 0
0 0
0 0
0 0
0 0
0 0
0 0
0 0
0 0
0 0
0 0
0 0
0 0
0 0
0 0
0 0
0 0
0 0
0 0
0 0
0 0
0 0
0 0
0 0
0 0
0 0
0 0
0 0
0 0
0 0
0 0
0 0
0 0
0 0
0 0
0 0
0 0
0 0
0 0
0 0
0 0
0 0
0 0
0 0
0 0
0 0
0 0
0 0
0 0
0 0
0 0
0 0
0 0
0 0
0 0
0 0
0 0
0 0
0 0
0 0
0 0
0 0
0 0
0 0
0 0
0 0
0 0
0 0
0 0
0 0
0 0
0 0
0 0
0 0
0 0
0 0
0 0
0 0
0 0
0 0
0 0
0 0
0 0
0 0
0 0
0 0
0 0
0 0
0 0
0 0
0 0
0 0
0 0
0 0
0 0
0 0
0 0
0 0
0 0
0 0
0 0
0 0
0 0
0 0
0 0
0 0
0 0
0 0
0 0
0 0
0 0
0 0
0 0
0 0
0 0
0 0
0 0
0 0
0 0
0 0
0 0
0 0
0 0
0 0
0 0
0 0
0 0
0 0
0 0
0 0
0 0
0 0
0 0
0 0
0 0
0 0
0 0
0 0
0 0
0 0
0 0
0 0
0 0
0 0
0 0
0 0
0 0
0 0
0 0
0 0
0 0
0 0
0 0
0 0
0 0
0 0
0 0
0 0
0 0
0 0
0 0
0 0
0 0
0 0
0 0
0 0
0 0
0 0
0 0
0 0
0 0
0 0
0 0
0 0
0 0
0 0
0 0
0 0
0 0
0 0
0 0
0 0
0 0
0 0
0 0
0 0
0 0
0 0
0 0
0 0
0 0
0 0
0 0
0 0
0 0
0 0
0 0
0 0
0 0
0 0
0 0
0 0
0 0
0 0
0 0
0 0
0 0
0 0
0 0
0 0
0 0
0 0
0 0
0 0
0 0
0 0
0 0
0 0
0 0
0 0
0 0
0 0
0 0
0 0
0 0
0 0
0 0
0 0
0 0
0 0
0 0
0 0
0 0
0 0
0 0
0 0
0 0
0 0
0 0
0 0
0 0
0 0
0 0
0 0
0 0
0 0
0 0
0 0
0 0
0 0
0 0
0 0
0 0
0 0
0 0
0 0
0 0
0 0
0 0
0 0
0 0
0 0
0 0
0 0
0 0
0 0
0 0
0 0
0 0
0 0
0 0
0 0
0 0
0 0
0 0
0 0
0 0
0 0
0 0
0 0
0 0
0 0
0 0
0 0
0 0
0 0
0 0
0 0
0 0
0 0
0 0
0 0
0 0
0 0
0 0
0 0
0 0
0 0
0 0
0 0
0 0
0 0
0 0
0 0
0 0
0 0
0 0
0 0
0 0
0 0
0 0
0 0
0 0
0 0
0 0
0 0
0 0
0 0
0 0
0 0
0 0
0 0
0 0
0 0
0 0
0 0
0 0
0 0
0 0
0 0
0 0
0 0
0 0
0 0
0 0
0 0
0 0
0 0
0 0
0 0
0 0
0 0
0 0
0 0
0 0
0 0
0 0
0 0
0 0
0 0
0 0
0 0
0 0
0 0
0 0
0 0
0 0
0 0
0 0
0 0
0 0
0 0
0 0
0 0
0 0
0 0
0 0
0 0
0 0
0 0
0 0
0 0
0 0
0 0
0 0
0 0
0 0
0 0
0 0
0 0
0 0
0 0
0 0
0 0
0 0
0 0
0 0
0 0
0 0
0 0
0 0
0 0
0 0
0 0
0 0
0 0
0 0
0 0
0 0
0 0
0 0
0 0
0 0
0 0
0 0
0 0
0 0
0 0
0 0
0 0
0 0
0 0
0 0
0 0
0 0
0 0
0 0
0 0
0 0
0 0
0 0
0 0
0 0
0 0
0 0
0 0
0 0
0 0
0 0
0 0
0 0
0 0
0 0
0 0
0 0
0 0
0 0
0 0
0 0
0 0
0 0
0 0
0 0
0 0
0 0
0 0
0 0
0 0
0 0
0 0
0 0
0 0
0 0
0 0
0 0
0 0
0 0
0 0
0 0
0 0
0 0
0 0
0 0
0 0
0 0
0 0
0 0
0 0
0 0
0 0
0 0
0 0
0 0
0 0
0 0
0 0
0 0
0 0
0 0
0 0
0 0
0 0
0 0
0 0
0 0
0 0
0 0
0 0
0 0
0 0
0 0
0 0
0 0
0 0
0 0
0 0
0 0
0 0
0 0
0 0
0 0
0 0
0 0
0 0
0 0
0 0
0 0
0 0
0 0
0 0
0 0
0 0
0 0
0 0
0 0
0 0
0 0
0 0
0 0
0 0
0 0
0 0
0 0
0 0
0 0
0 0
0 0
0 0
0 0
0 0
0 0
0 0
0 0
0 0
0 0
0 0
0 0
0 0
0 0
0 0
0 0
0 0
0 0
0 0
0 0
0 0
0 0
0 0
0 0
0 0
0 0
0 0
0 0
0 0
0 0
0 0
0 0
0 0
0 0
0 0
0 0
0 0
0 0
0 0
0 0
0 0
0 0
0 0
0 0
0 0
0 0
0 0
0 0
0 0
0 0
0 0
0 0
0 0
0 0
0 0
0 0
0 0
0 0
0 0
0 0
0 0
0 0
0 0
0 0
0 0
0 0
0 0
0 0
0 0
0 0
0 0
0 0
0 0
0 0
0 0
0 0
0 0
0 0
0 0
0 0
0 0
0 0
0 0
0 0
0 0
0 0
0 0
0 0
0 0
0 0
0 0
0 0
0 0
0 0
0 0
0 0
0 0
0 0
0 0
0 0
0 0
0 0
0 0
0 0
0 0
0 0
0 0
0 0
0 0
0 0
0 0
0 0
0 0
0 0
0 0
0 0
0 0
0 0
0 0
0 0
0 0
0 0
0 0
0 0
0 0
0 0
0 0
0 0
0 0
0 0
0 0
0 0
0 0
0 0
0 0
0 0
0 0
0 0
0 0
0 0
0 0
0 0
0 0
0 0
0 0
0 0
0 0
0 0
0 0
0 0
0 0
0 0
0 0
0 0
0 0
0 0
0 0
0 0
0 0
0 0
0 0
0 0
0 0
0 0
0 0
0 0
0 0
0 0
0 0
0 0
0 0
0 0
0 0
0 0
0 0
0 0
0 0
0 0
0 0
0 0
0 0
0 0
0 0
0 0
0 0
0 0
0 0
0 0
0 0
0 0
0 0
0 0
0 0
0 0
0 0
0 0
0 0
0 0
0 0
0 0
0 0
0 0
0 0
0 0
0 0
0 0
0 0
0 0
0 0
0 0
0 0
0 0
0 0
0 0
0 0
0 0
0 0
0 0
0 0
0 0
0 0
0 0
0 0
0 0
0 0
0 0
0 0
0 0
0 0
0 0
0 0
0 0
0 0
0 0
0 0
0 0
0 0
0 0
0 0
0 0
0 0
0 0
0 0
0 0
0 0
0 0
0 0
0 0
0 0
0 0
0 0
0 0
0 0
0 0
0 0
0 0
0 0
0 0
0 0
0 0
0 0
0 0
0 0
0 0
0 0
0 0
0 0
0 0
0 0
0 0
0 0
0 0
0 0
0 0
0 0
0 0
0 0
0 0
0 0
0 0
0 0
0 0
0 0
0 0
0 0
0 0
0 0
0 0
0 0
0 0
0 0
0 0
0 0
0 0
0 0
0 0
0 0
0 0
0 0
0 0
0 0
0 0
0 0
0 0
0 0
0 0
0 0
0 0
0 0
0 0
0 0
0 0
0 0
0 0
0 0
0 0
0 0
0 0
0 0
0 0
0 0
0 0
0 0
0 0
0 0
0 0
0 0
0 0
0 0
0 0
0 0
0 0
0 0
0 0
0 0
0 0
0 0
0 0
0 0
0 0
0 0
0 0
0 0
0 0
0 0
0 0
0 0
0 0
0 0
0 0
0 0
0 0
0 0
0 0
0 0
0 0
0 0
0 0
0 0
0 0
0 0
0 0
0 0
0 0
0 0
0 0
0 0
0 0
0 0
0 0
0 0
0 0
0 0
0 0
0 0
0 0
0 0
0 0
0 0
0 0
0 0
0 0
0 0
0 0
0 0
0 0
0 0
0 0
0 0
0 0
0 0
0 0
0 0
0 0
0 0
0 0
0 0
0 0
0 0
0 0
0 0
0 0
0 0
0 0
0 0
0 0
0 0
0 0
0 0
0 0
0 0
0 0
0 0
0 0
0 0
0 0
0 0
0 0
0 0
0 0
0 0
0 0
0 0
0 0
0 0
0 0
0 0
0 0
0 0
0 0
0 0
0 0
0 0
0 0
0 0
0 0
0 0
0 0
0 0
0 0
0 0
0 0
0 0
0 0
0 0
0 0
0 0
0 0
0 0
0 0
0 0
0 0
0 0
0 0
0 0
0 0
0 0
0 0
0 0
0 0
0 0
0 0
0 0
0 0
0 0
0 0
0 0
0 0
0 0
0 0
0 0
0 0
0 0
0 0
0 0
0 0
0 0
0 0
0 0
0 0
0 0
0 0
0 0
0 0
0 0
0 0
0 0
0 0
0 0
0 0
0 0
0 0
0 0
0 0
0 0
0 0
0 0
0 0
0 0
0 0
0 0
0 0
0 0
0 0
0 0
0 0
0 0
0 0
0 0
0 0
0 0
0 0
0 0
0 0
0 0
0 0
0 0
0 0
0 0
0 0
0 0
0 0
0 0
0 0
0 0
0 0
0 0
0 0
0 0
0 0
0 0
0 0
0 0
0 0
0 0
0 0
0 0
0 0
0 0
0 0
0 0
0 0
0 0
0 0
0 0
0 0
0 0
0 0
0 0
0 0
0 0
0 0
0 0
0 0
0 0
0 0
0 0
0 0
0 0
0 0
0 0
0 0
0 0
0 0
0 0
0 0
0 0
0 0
0 0
0 0
0 0
0 0
0 0
0 0
0 0
0 0
0 0
0 0
0 0
0 0
0 0
0 0
0 0
0 0
0 0
0 0
0 0
0 0
0 0
0 0
0 0
0 0
0 0
0 0
0 0
0 0
0 0
0 0
0 0
0 0
0 0
0 0
0 0
0 0
0 0
0 0
0 0
0 0
0 0
0 0
0 0
0 0
0 0
0 0
0 0
0 0
0 0
0 0
0 0
0 0
0 0
0 0
0 0
0 0
0 0
0 0
0 0
0 0
0 0
0 0
0 0
0 0
0 0
0 0
0 0
0 0
0 0
0 0
0 0
0 0
0 0
0 0
0 0
0 0
0 0
0 0
0 0
0 0
0 0
0 0
0 0
0 0
0 0
0 0
0 0
0 0
0 0
0 0
0 0
0 0
0 0
0 0
0 0
0 0
0 0
0 0
0 0
0 0
0 0
0 0
0 0
0 0
0 0
0 0
0 0
0 0
0 0
0 0
0 0
0 0
0 0
0 0
0 0
0 0
0 0
0 0
0 0
0 0
0 0
0 0
0 0
0 0
0 0
0 0
0 0
0 0
0 0
0 0
0 0
0 0
0 0
0 0
0 0
0 0
0 0
0 0
0 0
0 0
0 0
0 0
0 0
0 0
0 0
0 0
0 0
0 0
0 0
0 0
0 0
0 0
0 0
0 0
0 0
0 0
0 0
0 0
0 0
0 0
0 0
0 0
0 0
0 0
0 0
0 0
0 0
0 0
0 0
0 0
0 0
0 0
0 0
0 0
0 0
0 0
0 0
0 0
0 0
0 0
0 0
0 0
0 0
0 0
0 0
0 0
0 0
0 0
0 0
0 0
0 0
0 0
0 0
0 0
0 0
0 0
0 0
0 0
0 0
0 0
0 0
0 0
0 0
0 0
0 0
0 0
0 0
0 0
0 0
0 0
0 0
0 0
0 0
0 0
0 0
0 0
0 0
0 0
0 0
0 0
0 0
0 0
0 0
0 0
0 0
0 0
0 0
0 0
0 0
0 0
0 0
0 0
0 0
0 0
0 0
0 0
0 0
0 0
0 0
0 0
0 0
0 0
0 0
0 0
0 0
0 0
0 0
0 0
0 0
0 0
0 0
0 0
0 0
0 0
0 0
0 0
0 0
0 0
0 0
0 0
0 0
0 0
0 0
0 0
0 0
0 0
0 0
0 0
0 0
0 0
0 0
0 0
0 0
0 0
0 0
0 0
0 0
0 0
0 0
0 0
0 0
0 0
0 0
0 0
0 0
0 0
0 0
0 0
0 0
0 0
0 0
0 0
0 0
0 0
0 0
0 0
0 0
0 0
0 0
0 0
0 0
0 0
0 0
0 0
0 0
0 0
0 0
0 0
0 0
0 0
0 0
0 0
0 0
0 0
0 0
0 0
0 0
0 0
0 0
0 0
0 0
0 0
0 0
0 0
0 0
0 0
0 0
0 0
0 0
0 0
0 0
0 0
0 0
0 0
0 0
0 0
0 0
0 0
0 0
0 0
0 0
0 0
0 0
0 0
0 0
0 0
0 0
0 0
0 0
0 0
0 0
0 0
0 0
0 0
0 0
0 0
0 0
0 0
0 0
0 0
0 0
0 0
0 0
0 0
0 0
0 0
0 0
0 0
0 0
0 0
0 0
0 0
0 0
0 0
0 0
0 0
0 0
0 0
0 0
0 0
0 0
0 0
0 0
0 0
0 0
0 0
0 0
0 0
0 0
0 0
0 0
0 0
0 0
0 0
0 0
0 0
0 0
0 0
0 0
0 0
0 0
0 0
0 0
0 0
0 0
0 0
0 0
0 0
0 0
0 0
0 0
0 0
0 0
0 0
0 0
0 0
0 0
0 0
0 0
0 0
0 0
0 0
0 0
0 0
0 0
0 0
0 0
0 0
0 0
0 0
0 0
0 0
0 0
0 0
0 0
0 0
0 0
0 0
0 0
0 0
0 0
0 0
0 0
0 0
0 0
0 0
0 0
0 0
0 0
0 0
0 0
0 0
0 0
0 0
0 0
0 0
0 0
0 0
0 0
0 0
0 0
0 0
0 0
0 0
0 0
0 0
0 0
0 0
0 0
0 0
0 0
0 0
0 0
0 0
0 0
0 0
0 0
0 0
0 0
0 0
0 0
0 0
0 0
0 0
0 0
0 0
0 0
0 0
0 0
0 0
0 0
0 0
0 0
0 0
0 0
0 0
0 0
0 0
0 0
0 0
0 0
0 0
0 0
0 0
0 0
0 0
0 0
0 0
0 0
0 0
0 0
0 0
0 0
0 0
0 0
0 0
0 0
0 0
0 0
0 0
0 0
0 0
0 0
0 0
0 0
0 0
0 0
0 0
0 0
0 0
0 0
0 0
0 0
0 0
0 0
0 0
0 0
0 0
0 0
0 0
0 0
0 0
0 0
0 0
0 0
0 0
0 0
0 0
0 0
0 0
0 0
0 0
0 0
0 0
0 0
0 0
0 0
0 0
0 0
0 0
0 0
0 0
0 0
0 0
0 0
0 0
0 0
0 0
0 0
0 0
0 0
0 0
0 0
0 0
0 0
0 0
0 0
0 0
0 0
0 0
0 0
0 0
0 0
0 0
0 0
0 0
0 0
0 0
0 0
0 0
0 0
0 0
0 0
0 0
0 0
0 0
0 0
0 0
0 0
0 0
0 0
0 0
0 0
0 0
0 0
0 0
0 0
0 0
0 0
0 0
0 0
0 0
0 0
0 0
0 0
0 0
0 0
0 0
0 0
0 0
0 0
0 0
0 0
0 0
0 0
0 0
0 0
0 0
0 0
0 0
0 0
0 0
0 0
0 0
0 0
0 0
0 0
0 0
0 0
0 0
0 0
0 0
0 0
0 0
0 0
0 0
0 0
0 0
0 0
0 0
0 0
0 0
0 0
0 0
0 0
0 0
0 0
0 0
0 0
0 0
0 0
0 0
0 0
0 0
0 0
0 0
0 0
0 0
0 0
0 0
0 0
0 0
0 0
0 0
0 0
0 0
0 0
0 0
0 0
0 0
0 0
0 0
0 0
0 0
0 0
0 0
0 0
0 0
0 0
0 0
0 0
0 0
0 0
0 0
0 0
0 0
0 0
0 0
0 0
0 0
0 0
0 0
0 0
0 0
0 0
0 0
0 0
0 0
0 0
0 0
0 0
0 0
0 0
0 0
0 0
0 0
0 0
0 0
0 0
0 0
0 0
0 0
0 0
0 0
0 0
0 0
0 0
0 0
0 0
0 0
0 0
0 0
0 0
0 0
0 0
0 0
0 0
0 0
0 0
0 0
0 0
0 0
0 0
0 0
0 0
0 0
0 0
0 0
0 0
0 0
0 0
0 0
0 0
0 0
0 0
0 0
0 0
0 0
0 0
0 0
0 0
0 0
0 0
0 0
0 0
0 0
0 0
0 0
0 0
0 0
0 0
0 0
0 0
0 0
0 0
0 0
0 0
0 0
0 0
0 0
0 0
0 0
0 0
0 0
0 0
0 0
0 0
0 0
0 0
0 0
0 0
0 0
0 0
0 0
0 0
0 0
0 0
0 0
0 0
0 0
0 0
0 0
0 0
0 0
0 0
0 0
0 0
0 0
0 0
0 0
0 0
0 0
0 0
0 0
0 0
0 0
0 0
0 0
0 0
0 0
0 0
0 0
0 0
0 0
0 0
0 0
0 0
0 0
0 0
0 0
0 0
0 0
0 0
0 0
0 0
0 0
0 0
0 0
0 0
0 0
0 0
0 0
0 0
0 0
0 0
0 0
0 0
0 0
0 0
0 0
0 0
0 0
0 0
0 0
0 0
0 0
0 0
0 0
0 0
0 0
0 0
0 0
0 0
0 0
0 0
0 0
0 0
0 0
0 0
0 0
0 0
0 0
0 0
0 0
0 0
0 0
0 0
0 0
0 0
0 0
0 0
0 0
0 0
0 0
0 0
0 0
0 0
0 0
0 0
0 0
0 0
0 0
0 0
0 0
0 0
0 0
0 0
0 0
0 0
0 0
0 0
0 0
0 0
0 0
0 0
0 0
0 0
0 0
0 0
0 0
0 0
0 0
0 0
0 0
0 0
0 0
0 0
0 0
0 0
0 0
0 0
0 0
0 0
0 0
0 0
0 0
0 0
0 0
0 0
0 0
0 0
0 0
0 0
0 0
0 0
0 0
0 0
0 0
0 0
0 0
0 0
0 0
0 0
0 0
0 0
0 0
0 0
0 0
0 0
0 0
0 0
0 0
0 0
0 0
0 0
0 0
0 0
0 0
0 0
0 0
0 0
0 0
0 0
0 0
0 0
0 0
0 0
0 0
0 0
0 0
0 0
0 0
0 0
0 0
0 0
0 0
0 0
0 0
0 0
0 0
0 0
0 0
0 0
0 0
0 0
0 0
0 0
0 0
0 0
0 0
0 0
0 0
0 0
0 0
0 0
0 0
0 0
0 0
0 0
0 0
0 0
0 0
0 0
0 0
0 0
0 0
0 0
0 0
0 0
0 0
0 0
0 0
0 0
0 0
0 0
0 0
0 0
0 0
0 0
0 0
0 0
0 0
0 0
0 0
0 0
0 0
0 0
0 0
0 0
0 0
0 0
0 0
0 0
0 0
0 0
0 0
0 0
0 0
0 0
0 0
0 0
0 0
0 0
0 0
0 0
0 0
0 0
0 0
0 0
0 0
0 0
0 0
0 0
0 0
0 0
0 0
0 0
0 0
0 0
0 0
0 0
0 0
0 0
0 0
0 0
0 0
0 0
0 0
0 0
0 0
0 0
0 0
0 0
0 0
0 0
0 0
0 0
0 0
0 0
0 0
0 0
0 0
0 0
0 0
0 0
0 0
0 0
0 0
0 0
0 0
0 0
0 0
0 0
0 0
0 0
0 0
0 0
0 0
0 0
0 0
0 0
0 0
0 0
0 0
0 0
0 0
0 0
0 0
0 0
0 0
0 0
0 0
0 0
0 0
0 0
0 0
0 0
0 0
0 0
0 0
0 0
0 0
0 0
0 0
0 0
0 0
0 0
0 0
0 0
0 0
0 0
0 0
0 0
0 0
0 0
0 0
0 0
0 0
0 0
0 0
0 0
0 0
0 0
0 0
0 0
0 0
0 0
0 0
0 0
0 0
0 0
0 0
0 0
0 0
0 0
0 0
0 0
0 0
0 0
0 0
0 0
0 0
0 0
0 0
0 0
0 0
0 0
0 0
0 0
0 0
0 0
0 0
0 0
0 0
0 0
0 0
0 0
0 0
0 0
0 0
0 0
0 0
0 0
0 0
0 0
0 0
0 0
0 0
0 0
0 0
0 0
0 0
0 0
0 0
0 0
0 0
0 0
0 0
0 0
0 0
0 0
0 0
0 0
0 0
0 0
0 0
0 0
0 0
0 0
0 0
0 0
0 0
0 0
0 0
0 0
0 0
0 0
0 0
0 0
0 0
0 0
0 0
0 0
0 0
0 0
0 0
0 0
0 0
0 0
0 0
0 0
0 0
0 0
0 0
0 0
0 0
0 0
0 0
0 0
0 0
0 0
0 0
0 0
0 0
0 0
0 0
0 0
0 0
0 0
0 0
0 0
0 0
0 0
0 0
0 0
0 0
0 0
0 0
0 0
0 0
0 0
0 0
0 0
0 0
0 0
0 0
0 0
0 0
0 0
0 0
0 0
0 0
0 0
0 0
0 0
0 0
0 0
0 0
0 0
0 0
0 0
0 0
0 0
0 0
0 0
0 0
0 0
0 0
0 0
0 0
0 0
0 0
0 0
0 0
0 0
0 0
0 0
0 0
0 0
0 0
0 0
0 0
0 0
0 0
0 0
0 0
0 0
0 0
0 0
0 0
0 0
0 0
0 0
0 0
0 0
0 0
0 0
0 0
0 0
0 0
0 0
0 0
0 0
0 0
0 0
0 0
0 0
0 0
0 0
0 0
0 0
0 0
0 0
0 0
0 0
0 0
0 0
0 0
0 0
0 0
0 0
0 0
0 0
0 0
0 0
0 0
0 0
0 0
0 0
0 0
0 0
0 0
0 0
0 0
0 0
0 0
0 0
0 0
0 0
0 0
0 0
0 0
0 0
0 0
0 0
0 0
0 0
0 0
0 0
0 0
0 0
0 0
0 0
0 0
0 0
0 0
0 0
0 0
0 0
0 0
0 0
0 0
0 0
0 0
0 0
0 0
0 0
0 0
0 0
0 0
0 0
0 0
0 0
0 0
0 0
0 0
0 0
0 0
0 0
0 0
0 0
0 0
0 0
0 0
0 0
0 0
0 0
0 0
0 0
0 0
0 0
0 0
0 0
0 0
0 0
0 0
0 0
0 0
0 0
0 0
0 0
0 0
0 0
0 0
0 0
0 0
0 0
0 0
0 0
0 0
0 0
0 0
0 0
0 0
0 0
0 0
0 0
0 0
0 0
0 0
0 0
0 0
0 0
0 0
0 0
0 0
0 0
0 0
0 0
0 0
0 0
0 0
0 0
0 0
0 0
0 0
0 0
0 0
0 0
0 0
0 0
0 0
0 0
0 0
0 0
0 0
0 0
0 0
0 0
0 0
0 0
0 0
0 0
0 0
0 0
0 0
0 0
0 0
0 0
0 0
0 0
0 0
0 0
0 0
0 0
0 0
0 0
0 0
0 0
0 0
0 0
0 0
0 0
0 0
0 0
0 0
0 0
0 0
0 0
0 0
0 0
0 0
0 0
0 0
0 0
0 0
0 0
0 0
0 0
0 0
0 0
0 0
0 0
0 0
0 0
0 0
0 0
0 0
0 0
0 0
0 0
0 0
0 0
0 0
0 0
0 0
0 0
0 0
0 0
0 0
0 0
0 0
0 0
0 0
0 0
0 0
0 0
0 0
0 0
0 0
0 0
0 0
0 0
0 0
0 0
0 0
0 0
0 0
0 0
0 0
0 0
0 0
0 0
0 0
0 0
0 0
0 0
0 0
0 0
0 0
0 0
0 0
0 0
0 0
0 0
0 0
0 0
0 0
0 0
0 0
0 0
0 0
0 0
0 0
0 0
0 0
0 0
0 0
0 0
0 0
0 0
0 0
0 0
0 0
0 0
0 0
0 0
0 0
0 0
0 0
0 0
0 0
0 0
0 0
0 0
0 0
0 0
0 0
0 0
0 0
0 0
0 0
0 0
0 0
0 0
0 0
0 0
0 0
0 0
0 0
0 0
0 0
0 0
0 0
0 0
0 0
0 0
0 0
0 0
0 0
0 0
0 0
0 0
0 0
0 0
0 0
0 0
0 0
0 0
0 0
0 0
0 0
0 0
0 0
0 0
0 0
0 0
0 0
0 0
0 0
0 0
0 0
0 0
0 0
0 0
0 0
0 0
0 0
0 0
0 0
0 0
0 0
0 0
0 0
0 0
0 0
0 0
0 0
0 0
0 0
0 0
0 0
0 0
0 0
0 0
0 0
0 0
0 0
0 0
0 0
0 0
0 0
0 0
0 0
0 0
0 0
0 0
0 0
0 0
0 0
0 0
0 0
0 0
0 0
0 0
0 0
0 0
0 0
0 0
0 0
0 0
0 0
0 0
0 0
0 0
0 0
0 0
0 0
0 0
0 0
0 0
0 0
0 0
0 0
0 0
0 0
0 0
0 0
0 0
0 0
0 0
0 0
0 0
0 0
0 0
0 0
0 0
0 0
0 0
0 0
0 0
0 0
0 0
0 0
0 0
0 0
0 0
0 0
0 0
0 0
0 0
0 0
0 0
0 0
0 0
0 0
0 0
0 0
0 0
0 0
0 0
0 0
0 0
0 0
0 0
0 0
0 0
0 0
0 0
0 0
0 0
0 0
0 0
0 0
0 0
0 0
0 0
0 0
0 0
0 0
0 0
0 0
0 0
0 0
0 0
0 0
0 0
0 0
0 0
0 0
0 0
0 0
0 0
0 0
0 0
0 0
0 0
0 0
0 0
0 0
0 0
0 0
0 0
0 0
0 0
0 0
0 0
0 0
0 0
0 0
0 0
0 0
0 0
0 0
0 0
0 0
0 0
0 0
0 0
0 0
0 0
0 0
0 0
0 0
0 0
0 0
0 0
0 0
0 0
0 0
0 0
0 0
0 0
0 0
0 0
0 0
0 0
0 0
0 0
0 0
0 0
0 0
0 0
0 0
0 0
0 0
0 0
0 0
0 0
0 0
0 0
0 0
0 0
0 0
0 0
0 0
0 0
0 0
0 0
0 0
0 0
0 0
0 0
0 0
0 0
0 0
0 0
0 0
0 0
0 0
0 0
0 0
0 0
0 0
0 0
0 0
0 0
0 0
0 0
0 0
0 0
0 0
0 0
0 0
0 0
0 0
0 0
0 0
0 0
0 0
0 0
0 0
0 0
0 0
0 0
0 0
0 0
0 0
0 0
0 0
0 0
0 0
0 0
0 0
0 0
0 0
0 0
0 0
0 0
0 0
0 0
0 0
0 0
0 0
0 0
0 0
0 0
0 0
0 0
0 0
0 0
0 0
0 0
0 0
0 0
0 0
0 0
0 0
0 0
0 0
0 0
0 0
0 0
0 0
0 0
0 0
0 0
0 0
0 0
0 0
0 0
0 0
0 0
0 0
0 0
0 0
0 0
0 0
0 0
0 0
0 0
0 0
0 0
0 0
0 0
0 0
0 0
0 0
0 0
0 0
0 0
0 0
0 0
0 0
0 0
0 0
0 0
0 0
0 0
0 0
0 0
0 0
0 0
0 0
0 0
0 0
0 0
0 0
0 0
0 0
0 0
0 0
0 0
0 0
0 0
0 0
0 0
0 0
0 0
0 0
0 0
0 0
0 0
0 0
0 0
0 0
0 0
0 0
0 0
0 0
0 0
0 0
0 0
0 0
0 0
0 0
0 0
0 0
0 0
0 0
0 0
0 0
0 0
0 0
0 0
0 0
0 0
0 0
0 0
0 0
0 0
0 0
0 0
0 0
0 0
0 0
0 0
0 0
0 0
0 0
0 0
0 0
0 0
0 0
0 0
0 0
0 0
0 0
0 0
0 0
0 0
0 0
0 0
0 0
0 0
0 0
0 0
0 0
0 0
0 0
0 0
0 0
0 0
0 0
0 0
0 0
0 0
0 0
0 0
0 0
0 0
0 0
0 0
0 0
0 0
0 0
0 0
0 0
0 0
0 0
0 0
0 0
0 0
0 0
0 0
0 0
0 0
0 0
0 0
0 0
0 0
0 0
0 0
0 0
0 0
0 0
0 0
0 0
0 0
0 0
0 0
0 0
0 0
0 0
0 0
0 0
0 0
0 0
0 0
0 0
0 0
0 0
0 0
0 0
0 0
0 0
0 0
0 0
0 0
0 0
0 0
0 0
0 0
0 0
0 0
0 0
0 0
0 0
0 0
0 0
0 0
0 0
0 0
0 0
0 0
0 0
0 0
0 0
0 0
0 0
0 0
0 0
0 0
0 0
0 0
0 0
0 0
0 0
0 0
0 0
0 0
0 0
0 0
0 0
0 0
0 0
0 0
0 0
0 0
0 0
0 0
0 0
0 0
0 0
0 0
0 0
0 0
0 0
0 0
0 0
0 0
0 0
0 0
0 0
0 0
0 0
0 0
0 0
0 0
0 0
0 0
0 0
0 0
0 0
0 0
0 0
0 0
0 0
0 0
0 0
0 0
0 0
0 0
0 0
0 0
0 0
0 0
0 0
0 0
0 0
0 0
0 0
0 0
0 0
0 0
0 0
0 0
0 0
0 0
0 0
0 0
0 0
0 0
0 0
0 0
0 0
0 0
0 0
0 0
0 0
0 0
0 0
0 0
0 0
0 0
0 0
0 0
0 0
0 0
0 0
0 0
0 0
0 0
0 0
0 0
0 0
0 0
0 0
0 0
0 0
0 0
0 0
0 0
0 0
0 0
0 0
0 0
0 0
0 0
0 0
0 0
0 0
0 0
0 0
0 0
0 0
0 0
0 0
0 0
0 0
0 0
0 0
0 0
0 0
0 0
0 0
0 0
0 0
0 0
0 0
0 0
0 0
0 0
0 0
0 0
0 0
0 0
0 0
0 0
0 0
0 0
0 0
0 0
0 0
0 0
0 0
0 0
0 0
0 0
0 0
0 0
0 0
0 0
0 0
0 0
0 0
0 0
0 0
0 0
0 0
0 0
0 0
0 0
0 0
0 0
0 0
0 0
0 0
0 0
0 0
0 0
0 0
0 0
0 0
0 0
0 0
0 0
0 0
0 0
0 0
0 0
0 0
0 0
0 0
0 0
0 0
0 0
0 0
0 0
0 0
0 0
0 0
0 0
0 0
0 0
0 0
0 0
0 0
0 0
0 0
0 0
0 0
0 0
0 0
0 0
0 0
0 0
0 0
0 0
0 0
0 0
0 0
0 0
0 0
0 0
0 0
0 0
0 0
0 0
0 0
0 0
0 0
0 0
0 0
0 0
0 0
0 0
0 0
0 0
0 0
0 0
0 0
0 0
0 0
0 0
0 0
0 0
0 0
0 0
0 0
0 0
0 0
0 0
0 0
0 0
0 0
0 0
0 0
0 0
0 0
0 0
0 0
0 0
0 0
0 0
0 0
0 0
0 0
0 0
0 0
0 0
0 0
0 0
0 0
0 0
0 0
0 0
0 0
0 0
0 0
0 0
0 0
0 0
0 0
0 0
0 0
0 0
0 0
0 0
0 0
0 0
0 0
0 0
0 0
0 0
0 0
0 0
0 0
0 0
0 0
0 0
0 0
0 0
0 0
0 0
0 0
0 0
0 0
0 0
0 0
0 0
0 0
0 0
0 0
0 0
0 0
0 0
0 0
0 0
0 0
0 0
0 0
0 0
0 0
0 0
0 0
0 0
0 0
0 0
0 0
0 0
0 0
0 0
0 0
0 0
0 0
0 0
0 0
0 0
0 0
0 0
0 0
0 0
0 0
0 0
0 0
0 0
0 0
0 0
0 0
0 0
0 0
0 0
0 0
0 0
0 0
0 0
0 0
0 0
0 0
0 0
0 0
0 0
0 0
0 0
0 0
0 0
0 0
0 0
0 0
0 0
0 0
0 0
0 0
0 0
0 0
0 0
0 0
0 0
0 0
0 0
0 0
0 0
0 0
0 0
0 0
0 0
0 0
0 0
0 0
0 0
0 0
0 0
0 0
0 0
0 0
0 0
0 0
0 0
0 0
0 0
0 0
0 0
0 0
0 0
0 0
0 0
0 0
0 0
0 0
0 0
0 0
0 0
0 0
0 0
0 0
0 0
0 0
0 0
0 0
0 0
0 0
0 0
0 0
0 0
0 0
0 0
0 0
0 0
0 0
0 0
0 0
0 0
0 0
0 0
0 0
0 0
0 0
0 0
0 0
0 0
0 0
0 0
0 0
0 0
0 0
0 0
0 0
0 0
0 0
0 0
0 0
0 0
0 0
0 0
0 0
0 0
0 0
0 0
0 0
0 0
0 0
0 0
0 0
0 0
0 0
0 0
0 0
0 0
0 0
0 0
0 0
0 0
0 0
0 0
0 0
0 0
0 0
0 0
0 0
0 0
0 0
0 0
0 0
0 0
0 0
0 0
0 0
0 0
0 0
0 0
0 0
0 0
0 0
0 0
0 0
0 0
0 0
0 0
0 0
0 0
0 0
0 0
0 0
0 0
0 0
0 0
0 0
0 0
0 0
0 0
0 0
0 0
0 0
0 0
0 0
0 0
0 0
0 0
0 0
0 0
0 0
0 0
0 0
0 0
0 0
0 0
0 0
0 0
0 0
0 0
0 0
0 0
0 0
0 0
0 0
0 0
0 0
0 0
0 0
0 0
0 0
0 0
0 0
0 0
0 0
0 0
0 0
0 0
0 0
0 0
0 0
0 0
0 0
0 0
0 0
0 0
0 0
0 0
0 0
0 0
0 0
0 0
0 0
0 0
0 0
0 0
0 0
0 0
0 0
0 0
0 0
0 0
0 0
0 0
0 0
0 0
0 0
0 0
0 0
0 0
0 0
0 0
0 0
0 0
0 0
0 0
0 0
0 0
0 0
0 0
0 0
0 0
0 0
0 0
0 0
0 0
0 0
0 0
0 0
0 0
0 0
0 0
0 0
0 0
0 0
0 0
0 0
0 0
0 0
0 0
0 0
0 0
0 0
0 0
0 0
0 0
0 0
0 0
0 0
0 0
0 0
0 0
0 0
0 0
0 0
0 0
0 0
0 0
0 0
0 0
0 0
0 0
0 0
0 0
0 0
0 0
0 0
0 0
0 0
0 0
0 0
0 0
0 0
0 0
0 0
0 0
0 0
0 0
0 0
0 0
0 0
0 0
0 0
0 0
0 0
0 0
0 0
0 0
0 0
0 0
0 0
0 0
0 0
0 0
0 0
0 0
0 0
0 0
0 0
0 0
0 0
0 0
0 0
0 0
0 0
0 0
0 0
0 0
0 0
0 0
0 0
0 0
0 0
0 0
0 0
0 0
0 0
0 0
0 0
0 0
0 0
0 0
0 0
0 0
0 0
0 0
0 0
0 0
0 0
0 0
0 0
0 0
0 0
0 0
0 0
0 0
0 0
0 0
0 0
0 0
0 0
0 0
0 0
0 0
0 0
0 0
0 0
0 0
0 0
0 0
0 0
0 0
0 0
0 0
0 0
0 0
0 0
0 0
0 0
0 0
0 0
0 0
0 0
0 0
0 0
0 0
0 0
0 0
0 0
0 0
0 0
0 0
0 0
0 0
0 0
0 0
0 0
0 0
0 0
0 0
0 0
0 0
0 0
0 0
0 0
0 0
0 0
0 0
0 0
0 0
0 0
0 0
0 0
0 0
0 0
0 0
0 0
0 0
0 0
0 0
0 0
0 0
0 0
0 0
0 0
0 0
0 0
0 0
0 0
0 0
0 0
0 0
0 0
0 0
0 0
0 0
0 0
0 0
0 0
0 0
0 0
0 0
0 0
0 0
0 0
0 0
0 0
0 0
0 0
0 0
0 0
0 0
0 0
0 0
0 0
0 0
0 0
0 0
0 0
0 0
0 0
0 0
0 0
0 0
0 0
0 0
0 0
0 0
0 0
0 0
0 0
0 0
0 0
0 0
0 0
0 0
0 0
0 0
0 0
0 0
0 0
0 0
0 0
0 0
0 0
0 0
0 0
0 0
0 0
0 0
0 0
0 0
0 0
0 0
0 0
0 0
0 0
0 0
0 0
0 0
0 0
0 0
0 0
0 0
0 0
0 0
0 0
0 0
0 0
0 0
0 0
0 0
0 0
0 0
0 0
0 0
0 0
0 0
0 0
0 0
0 0
0 0
0 0
0 0
0 0
0 0
0 0
0 0
0 0
0 0
0 0
0 0
0 0
0 0
0 0
0 0
0 0
0 0
0 0
0 0
0 0
0 0
0 0
0 0
0 0
0 0
0 0
0 0
0 0
0 0
0 0
0 0
0 0
0 0
0 0
0 0
0 0
0 0
0 0
0 0
0 0
0 0
0 0
0 0
0 0
0 0
0 0
0 0
0 0
0 0
0 0
0 0
0 0
0 0
0 0
0 0
0 0
0 0
0 0
0 0
0 0
0 0
0 0
0 0
0 0
0 0
0 0
0 0
0 0
0 0
0 0
0 0
0 0
0 0
0 0
0 0
0 0
0 0
0 0
0 0
0 0
0 0
0 0
0 0
0 0
0 0
0 0
0 0
0 0
0 0
0 0
0 0
0 0
0 0
0 0
0 0
0 0
0 0
0 0
0 0
0 0
0 0
0 0
0 0
0 0
0 0
0 0
0 0
0 0
0 0
0 0
0 0
0 0
0 0
0 0
0 0
0 0
0 0
0 0
0 0
0 0
0 0
0 0
0 0
0 0
0 0
0 0
0 0
0 0
0 0
0 0
0 0
0 0
0 0
0 0
0 0
0 0
0 0
0 0
0 0
0 0
0 0
0 0
0 0
0 0
0 0
0 0
0 0
0 0
0 0
0 0
0 0
0 0
0 0
0 0
0 0
0 0
0 0
0 0
0 0
0 0
0 0
0 0
0 0
0 0
0 0
0 0
0 0
0 0
0 0
0 0
0 0
0 0
0 0
0 0
0 0
0 0
0 0
0 0
0 0
0 0
0 0
0 0
0 0
0 0
0 0
0 0
0 0
0 0
0 0
0 0
0 0
0 0
0 0
0 0
0 0
0 0
0 0
0 0
0 0
0 0
0 0
0 0
0 0
0 0
0 0
0 0
0 0
0 0
0 0
0 0
0 0
0 0
0 0
0 0
0 0
0 0
0 0
0 0
0 0
0 0
0 0
0 0
0 0
0 0
0 0
0 0
0 0
0 0
0 0
0 0
0 0
0 0
0 0
0 0
0 0
0 0
0 0
0 0
0 0
0 0
0 0
0 0
0 0
0 0
0 0
0 0
0 0
0 0
0 0
0 0
0 0
0 0
0 0
0 0
0 0
0 0
0 0
0 0
0 0
0 0
0 0
0 0
0 0
0 0
0 0
0 0
0 0
0 0
0 0
0 0
0 0
0 0
0 0
0 0
0 0
0 0
0 0
0 0
0 0
0 0
0 0
0 0
0 0
0 0
0 0
0 0
0 0
0 0
0 0
0 0
0 0
0 0
0 0
0 0
0 0
0 0
0 0
0 0
0 0
0 0
0 0
0 0
0 0
0 0
0 0
0 0
0 0
0 0
0 0
0 0
0 0
0 0
0 0
0 0
0 0
0 0
0 0
0 0
0 0
0 0
0 0
0 0
0 0
0 0
0 0
0 0
0 0
0 0
0 0
0 0
0 0
0 0
0 0
0 0
0 0
0 0
0 0
0 0
0 0
0 0
0 0
0 0
0 0
0 0
0 0
0 0
0 0
0 0
0 0
0 0
0 0
0 0
0 0
0 0
0 0
0 0
0 0
0 0
0 0
0 0
0 0
0 0
0 0
0 0
0 0
0 0
0 0
0 0
0 0
0 0
0 0
0 0
0 0
0 0
0 0
0 0
0 0
0 0
0 0
0 0
0 0
0 0
0 0
0 0
0 0
0 0
0 0
0 0
0 0
0 0
0 0
0 0
0 0
0 0
0 0
0 0
0 0
0 0
0 0
0 0
0 0
0 0
0 0
0 0
0 0
0 0
0 0
0 0
0 0
0 0
0 0
0 0
0 0
0 0
0 0
0 0
0 0
0 0
0 0
0 0
0 0
0 0
0 0
0 0
0 0
0 0
0 0
0 0
0 0
0 0
0 0
0 0
0 0
0 0
0 0
0 0
0 0
0 0
0 0
0 0
0 0
0 0
0 0
0 0
0 0
0 0
0 0
0 0
0 0
0 0
0 0
0 0
0 0
0 0
0 0
0 0
0 0
0 0
0 0
0 0
0 0
0 0
0 0
0 0
0 0
0 0
0 0
0 0
0 0
0 0
0 0
0 0
0 0
0 0
0 0
0 0
0 0
0 0
0 0
0 0
0 0
0 0
0 0
0 0
0 0
0 0
0 0
0 0
0 0
0 0
0 0
0 0
0 0
0 0
0 0
0 0
0 0
0 0
0 0
0 0
0 0
0 0
0 0
0 0
0 0
0 0
0 0
0 0
0 0
0 0
0 0
0 0
0 0
0 0
0 0
0 0
0 0
0 0
0 0
0 0
0 0
0 0
0 0
0 0
0 0
0 0
0 0
0 0
0 0
0 0
0 0
0 0
0 0
0 0
0 0
0 0
0 0
0 0
0 0
0 0
0 0
0 0
0 0
0 0
0 0
0 0
0 0
0 0
0 0
0 0
0 0
0 0
0 0
0 0
0 0
0 0
0 0
0 0
0 0
0 0
0 0
0 0
0 0
0 0
0 0
0 0
0 0
0 0
0 0
0 0
0 0
0 0
0 0
0 0
0 0
0 0
0 0
0 0
0 0
0 0
0 0
0 0
0 0
0 0
0 0
0 0
0 0
0 0
0 0
0 0
0 0
0 0
0 0
0 0
0 0
0 0
0 0
0 0
0 0
0 0
0 0
0 0
0 0
0 0
0 0
0 0
0 0
0 0
0 0
0 0
0 0
0 0
0 0
0 0
0 0
0 0
0 0
0 0
0 0
0 0
0 0
0 0
0 0
0 0
0 0
0 0
0 0
0 0
0 0
0 0
0 0
0 0
0 0
0 0
0 0
0 0
0 0
0 0
0 0
0 0
0 0
0 0
0 0
0 0
0 0
0 0
0 0
0 0
0 0
0 0
0 0
0 0
0 0
0 0
0 0
0 0
0 0
0 0
0 0
0 0
0 0
0 0
0 0
0 0
0 0
0 0
0 0
0 0
0 0
0 0
0 0
0 0
0 0
0 0
0 0
0 0
0 0
0 0
0 0
0 0
0 0
0 0
0 0
0 0
0 0
0 0
0 0
0 0
0 0
0 0
0 0
0 0
0 0
0 0
0 0
0 0
0 0
0 0
0 0
0 0
0 0
0 0
0 0
0 0
0 0
0 0
0 0
0 0
0 0
0 0
0 0
0 0
0 0
0 0
0 0
0 0
0 0
0 0
0 0
0 0
0 0
0 0
0 0
0 0
0 0
0 0
0 0
0 0
0 0
0 0
0 0
0 0
0 0
0 0
0 0
0 0
0 0
0 0
0 0
0 0
0 0
0 0
0 0
0 0
0 0
0 0
0 0
0 0
0 0
0 0
0 0
0 0
0 0
0 0
0 0
0 0
0 0
0 0
0 0
0 0
0 0
0 0
0 0
0 0
0 0
0 0
0 0
0 0
0 0
0 0
0 0
0 0
0 0
0 0
0 0
0 0
0 0
0 0
0 0
0 0
0 0
0 0
0 0
0 0
0 0
0 0
0 0
0 0
0 0
0 0
0 0
0 0
0 0
0 0
0 0
0 0
0 0
0 0
0 0
0 0
0 0
0 0
0 0
0 0
0 0
0 0
0 0
0 0
0 0
0 0
0 0
0 0
0 0
0 0
0 0
0 0
0 0
0 0
0 0
0 0
0 0
0 0
0 0
0 0
0 0
0 0
0 0
0 0
0 0
0 0
0 0
0 0
0 0
0 0
0 0
0 0
0 0
0 0
0 0
0 0
0 0
0 0
0 0
0 0
0 0
0 0
0 0
0 0
0 0
0 0
0 0
0 0
0 0
0 0
0 0
0 0
0 0
0 0
0 0
0 0
0 0
0 0
0 0
0 0
0 0
0 0
0 0
0 0
0 0
0 0
0 0
0 0
0 0
0 0
0 0
0 0
0 0
0 0
0 0
0 0
0 0
0 0
0 0
0 0
0 0
0 0
0 0
0 0
0 0
0 0
0 0
0 0
0 0
0 0
0 0
0 0
0 0
0 0
0 0
0 0
0 0
0 0
0 0
0 0
0 0
0 0
0 0
0 0
0 0
0 0
0 0
0 0
0 0
0 0
0 0
0 0
0 0
0 0
0 0
0 0
0 0
0 0
0 0
0 0
0 0
0 0
0 0
0 0
0 0
0 0
0 0
0 0
0 0
0 0
0 0
0 0
0 0
0 0
0 0
0 0
0 0
0 0
0 0
0 0
0 0
0 0
0 0
0 0
0 0
0 0
0 0
0 0
0 0
0 0
0 0
0 0
0 0
0 0
0 0
0 0
0 0
0 0
0 0
0 0
0 0
0 0
0 0
0 0
0 0
0 0
0 0
0 0
0 0
0 0
0 0
0 0
0 0
0 0
0 0
0 0
0 0
0 0
0 0
0 0
0 0
0 0
0 0
0 0
0 0
0 0
0 0
0 0
0 0
0 0
0 0
0 0
0 0
0 0
0 0
0 0
0 0
0 0
0 0
0 0
0 0
0 0
0 0
0 0
0 0
0 0
0 0
0 0
0 0
0 0
0 0
0 0
0 0
0 0
0 0
0 0
0 0
0 0
0 0
0 0
0 0
0 0
0 0
0 0
0 0
0 0
0 0
0 0
0 0
0 0
0 0
0 0
0 0
0 0
0 0
0 0
0 0
0 0
0 0
0 0
0 0
0 0
0 0
0 0
0 0
0 0
0 0
0 0
0 0
0 0
0 0
0 0
0 0
0 0
0 0
0 0
0 0
0 0
0 0
0 0
0 0
0 0
0 0
0 0
0 0
0 0
0 0
0 0
0 0
0 0
0 0
0 0
0 0
0 0
0 0
0 0
0 0
0 0
0 0
0 0
0 0
0 0
0 0
0 0
0 0
0 0
0 0
0 0
0 0
0 0
0 0
0 0
0 0
0 0
0 0
0 0
0 0
0 0
0 0
0 0
0 0
0 0
0 0
0 0
0 0
0 0
0 0
0 0
0 0
0 0
0 0
0 0
0 0
0 0
0 0
0 0
0 0
0 0
0 0
0 0
0 0
0 0
0 0
0 0
0 0
0 0
0 0
0 0
0 0
0 0
0 0
0 0
0 0
0 0
0 0
0 0
0 0
0 0
0 0
0 0
0 0
0 0
0 0
0 0
0 0
0 0
0 0
0 0
0 0
0 0
0 0
0 0
0 0
0 0
0 0
0 0
0 0
0 0
0 0
0 0
0 0
0 0
0 0
0 0
0 0
0 0
0 0
0 0
0 0
0 0
0 0
0 0
0 0
0 0
0 0
0 0
0 0
0 0
0 0
0 0
0 0
0 0
0 0
0 0
0 0
0 0
0 0
0 0
0 0
0 0
0 0
0 0
0 0
0 0
0 0
0 0
0 0
0 0
0 0
0 0
0 0
0 0
0 0
0 0
0 0
0 0
0 0
0 0
0 0
0 0
0 0
0 0
0 0
0 0
0 0
0 0
0 0
0 0
0 0
0 0
0 0
0 0
0 0
0 0
0 0
0 0
0 0
0 0
0 0
0 0
0 0
0 0
0 0
0 0
0 0
0 0
0 0
0 0
0 0
0 0
0 0
0 0
0 0
0 0
0 0
0 0
0 0
0 0
0 0
0 0
0 0
0 0
0 0
0 0
0 0
0 0
0 0
0 0
0 0
0 0
0 0
0 0
0 0
0 0
0 0
0 0
0 0
0 0
0 0
0 0
0 0
0 0
0 0
0 0
0 0
0 0
0 0
0 0
0 0
0 0
0 0
0 0
0 0
0 0
0 0
0 0
0 0
0 0
0 0
0 0
0 0
0 0
0 0
0 0
0 0
0 0
0 0
0 0
0 0
0 0
0 0
0 0
0 0
0 0
0 0
0 0
0 0
0 0
0 0
0 0
0 0
0 0
0 0
0 0
0 0
0 0
0 0
0 0
0 0
0 0
0 0
0 0
0 0
0 0
0 0
0 0
0 0
0 0
0 0
0 0
0 0
0 0
0 0
0 0
0 0
0 0
0 0
0 0
0 0
0 0
0 0
0 0
0 0
0 0
0 0
0 0
0 0
0 0
0 0
0 0
0 0
0 0
0 0
0 0
0 0
0 0
0 0
0 0
0 0
0 0
0 0
0 0
0 0
0 0
0 0
0 0
0 0
0 0
0 0
0 0
0 0
0 0
0 0
0 0
0 0
0 0
0 0
0 0
0 0
0 0
0 0
0 0
0 0
0 0
0 0
0 0
0 0
0 0
0 0
0 0
0 0
0 0
0 0
0 0
0 0
0 0
0 0
0 0
0 0
0 0
0 0
0 0
0 0
0 0
0 0
0 0
0 0
0 0
0 0
0 0
0 0
0 0
0 0
0 0
0 0
0 0
0 0
0 0
0 0
0 0
0 0
0 0
0 0
0 0
0 0
0 0
0 0
0 0
0 0
0 0
0 0
0 0
0 0
0 0
0 0
0 0
0 0
0 0
0 0
0 0
0 0
0 0
0 0
0 0
0 0
0 0
0 0
0 0
0 0
0 0
0 0
0 0
0 0
0 0
0 0
0 0
0 0
0 0
0 0
0 0
0 0
0 0
0 0
0 0
0 0
0 0
0 0
0 0
0 0
0 0
0 0
0 0
0 0
0 0
0 0
0 0
0 0
0 0
0 0
0 0
0 0
0 0
0 0
0 0
0 0
0 0
0 0
0 0
0 0
0 0
0 0
0 0
0 0
0 0
0 0
0 0
0 0
0 0
0 0
0 0
0 0
0 0
0 0
0 0
0 0
0 0
0 0
0 0
0 0
0 0
0 0
0 0
0 0
0 0
0 0
0 0
0 0
0 0
0 0
0 0
0 0
0 0
0 0
0 0
0 0
0 0
0 0
0 0
0 0
0 0
0 0
0 0
0 0
0 0
0 0
0 0
0 0
0 0
0 0
0 0
0 0
0 0
0 0
0 0
0 0
0 0
0 0
0 0
0 0
0 0
0 0
0 0
0 0
0 0
0 0
0 0
0 0
0 0
0 0
0 0
0 0
0 0
0 0
0 0
0 0
0 0
0 0
0 0
0 0
0 0
0 0
0 0
0 0
0 0
0 0
0 0
0 0
0 0
0 0
0 0
0 0
0 0
0 0
0 0
0 0
0 0
0 0
0 0
0 0
0 0
0 0
0 0
0 0
0 0
0 0
0 0
0 0
0 0
0 0
0 0
0 0
0 0
0 0
0 0
0 0
0 0
0 0
0 0
0 0
0 0
0 0
0 0
0 0
0 0
0 0
0 0
0 0
0 0
0 0
0 0
0 0
0 0
0 0
0 0
0 0
0 0
0 0
0 0
0 0
0 0
0 0
0 0
0 0
0 0
0 0
0 0
0 0
0 0
0 0
0 0
0 0
0 0
0 0
0 0
0 0
0 0
0 0
0 0
0 0
0 0
0 0
0 0
0 0
0 0
0 0
0 0
0 0
0 0
0 0
0 0
0 0
0 0
0 0
0 0
0 0
0 0
0 0
0 0
0 0
0 0
0 0
0 0
0 0
0 0
0 0
0 0
0 0
0 0
0 0
0 0
0 0
0 0
0 0
0 0
0 0
0 0
0 0
0 0
0 0
0 0
0 0
0 0
0 0
0 0
0 0
0 0
0 0
0 0
0 0
0 0
0 0
0 0
0 0
0 0
0 0
0 0
0 0
0 0
0 0
0 0
0 0
0 0
0 0
0 0
0 0
0 0
0 0
0 0
0 0
0 0
0 0
0 0
0 0
0 0
0 0
0 0
0 0
0 0
0 0
0 0
0 0
0 0
0 0
0 0
0 0
0 0
0 0
0 0
0 0
0 0
0 0
0 0
0 0
0 0
0 0
0 0
0 0
0 0
0 0
0 0
0 0
0 0
0 0
0 0
0 0
0 0
0 0
0 0
0 0
0 0
0 0
0 0
0 0
0 0
0 0
0 0
0 0
0 0
0 0
0 0
0 0
0 0
0 0
0 0
0 0
0 0
0 0
0 0
0 0
0 0
0 0
0 0
0 0
0 0
0 0
0 0
0 0
0 0
0 0
0 0
0 0
0 0
0 0
0 0
0 0
0 0
0 0
0 0
0 0
0 0
0 0
0 0
0 0
0 0
0 0
0 0
0 0
0 0
0 0
0 0
0 0
0 0
0 0
0 0
0 0
0 0
0 0
0 0
0 0
0 0
0 0
0 0
0 0
0 0
0 0
0 0
0 0
0 0
0 0
0 0
0 0
0 0
0 0
0 0
0 0
0 0
0 0
0 0
0 0
0 0
0 0
0 0
0 0
0 0
0 0
0 0
0 0
0 0
0 0
0 0
0 0
0 0
0 0
0 0
0 0
0 0
0 0
0 0
0 0
0 0
0 0
0 0
0 0
0 0
0 0
0 0
0 0
0 0
0 0
0 0
0 0
0 0
0 0
0 0
0 0
0 0
0 0
0 0
0 0
0 0
0 0
0 0
0 0
0 0
0 0
0 0
0 0
0 0
0 0
0 0
0 0
0 0
0 0
0 0
0 0
0 0
0 0
0 0
0 0
0 0
0 0
0 0
0 0
0 0
0 0
0 0
0 0
0 0
0 0
0 0
0 0
0 0
0 0
0 0
0 0
0 0
0 0
0 0
0 0
0 0
0 0
0 0
0 0
0 0
0 0
0 0
0 0
0 0
0 0
0 0
0 0
0 0
0 0
0 0
0 0
0 0
0 0
0 0
0 0
0 0
0 0
0 0
0 0
0 0
0 0
0 0
0 0
0 0
0 0
0 0
0 0
0 0
0 0
0 0
0 0
0 0
0 0
0 0
0 0
0 0
0 0
0 0
0 0
0 0
0 0
0 0
0 0
0 0
0 0
0 0
0 0
0 0
0 0
0 0
0 0
0 0
0 0
0 0
0 0
0 0
0 0
0 0
0 0
0 0
0 0
0 0
0 0
0 0
0 0
0 0
0 0
0 0
0 0
0 0
0 0
0 0
0 0
0 0
0 0
0 0
0 0
0 0
0 0
0 0
0 0
0 0
0 0
0 0
0 0
0 0
0 0
0 0
0 0
0 0
0 0
0 0
0 0
0 0
0 0
0 0
0 0
0 0
0 0
0 0
0 0
0 0
0 0
0 0
0 0
0 0
0 0
0 0
0 0
0 0
0 0
0 0
0 0
0 0
0 0
0 0
0 0
0 0
0 0
0 0
0 0
0 0
0 0
0 0
0 0
0 0
0 0
0 0
0 0
0 0
0 0
0 0
0 0
0 0
0 0
0 0
0 0
0 0
0 0
0 0
0 0
0 0
0 0
0 0
0 0
0 0
0 0
0 0
0 0
0 0
0 0
0 0
0 0
0 0
0 0
0 0
0 0
0 0
0 0
0 0
0 0
0 0
0 0
0 0
0 0
0 0
0 0
0 0
0 0
0 0
0 0
0 0
0 0
0 0
0 0
0 0
0 0
0 0
0 0
0 0
0 0
0 0
0 0
0 0
0 0
0 0
0 0
0 0
0 0
0 0
0 0
0 0
0 0
0 0
0 0
0 0
0 0
0 0
0 0
0 0
0 0
0 0
0 0
0 0
0 0
0 0
0 0
0 0
0 0
0 0
0 0
0 0
0 0
0 0
0 0
0 0
0 0
0 0
0 0
0 0
0 0
0 0
0 0
0 0
0 0
0 0
0 0
0 0
0 0
0 0
0 0
0 0
0 0
0 0
0 0
0 0
0 0
0 0
0 0
0 0
0 0
0 0
0 0
0 0
0 0
0 0
0 0
0 0
0 0
0 0
0 0
0 0
0 0
0 0
0 0
0 0
0 0
0 0
0 0
0 0
0 0
0 0
0 0
0 0
0 0
0 0
0 0
0 0
0 0
0 0
0 0
0 0
0 0
0 0
0 0
0 0
0 0
0 0
0 0
0 0
0 0
0 0
0 0
0 0
0 0
0 0
0 0
0 0
0 0
0 0
0 0
0 0
0 0
0 0
0 0
0 0
0 0
0 0
0 0
0 0
0 0
0 0
0 0
0 0
0 0
0 0
0 0
0 0
0 0
0 0
0 0
0 0
0 0
0 0
0 0
0 0
0 0
0 0
0 0
0 0
0 0
0 0
0 0
0 0
0 0
0 0
0 0
0 0
0 0
0 0
0 0
0 0
0 0
0 0
0 0
0 0
0 0
0 0
0 0
0 0
0 0
0 0
0 0
0 0
0 0
0 0
0 0
0 0
0 0
0 0
0 0
0 0
0 0
0 0
0 0
0 0
0 0
0 0
0 0
0 0
0 0
0 0
0 0
0 0
0 0
0 0
0 0
0 0
0 0
0 0
0 0
0 0
0 0
0 0
0 0
0 0
0 0
0 0
0 0
0 0
0 0
0 0
0 0
0 0
0 0
0 0
0 0
0 0
0 0
0 0
0 0
0 0
0 0
0 0
0 0
0 0
0 0
0 0
0 0
0 0
0 0
0 0
0 0
0 0
0 0
0 0
0 0
0 0
0 0
0 0
0 0
0 0
0 0
0 0
0 0
0 0
0 0
0 0
0 0
0 0
0 0
0 0
0 0
0 0
0 0
0 0
0 0
0 0
0 0
0 0
0 0
0 0
0 0
0 0
0 0
0 0
0 0
0 0
0 0
0 0
0 0
0 0
0 0
0 0
0 0
0 0
0 0
0 0
0 0
0 0
0 0
0 0
0 0
0 0
0 0
0 0
0 0
0 0
0 0
0 0
0 0
0 0
0 0
0 0
0 0
0 0
0 0
0 0
0 0
0 0
0 0
0 0
0 0
0 0
0 0
0 0
0 0
0 0
0 0
0 0
0 0
0 0
0 0
0 0
0 0
0 0
0 0
0 0
0 0
0 0
0 0
0 0
0 0
0 0
0 0
0 0
0 0
0 0
0 0
0 0
0 0
0 0
0 0
0 0
0 0
0 0
0 0
0 0
0 0
0 0
0 0
0 0
0 0
0 0
0 0
0 0
0 0
0 0
0 0
0 0
0 0
0 0
0 0
0 0
0 0
0 0
0 0
0 0
0 0
0 0
0 0
0 0
0 0
0 0
0 0
0 0
0 0
0 0
0 0
0 0
0 0
0 0
0 0
0 0
0 0
0 0
0 0
0 0
0 0
0 0
0 0
0 0
0 0
0 0
0 0
0 0
0 0
0 0
0 0
0 0
0 0
0 0
0 0
0 0
0 0
0 0
0 0
0 0
0 0
0 0
0 0
0 0
0 0
0 0
0 0
0 0
0 0
0 0
0 0
0 0
0 0
0 0
0 0
0 0
0 0
0 0
0 0
0 0
0 0
0 0
0 0
0 0
0 0
0 0
0 0
0 0
0 0
0 0
0 0
0 0
0 0
0 0
0 0
0 0
0 0
0 0
0 0
0 0
0 0
0 0
0 0
0 0
0 0
0 0
0 0
0 0
0 0
0 0
0 0
0 0
0 0
0 0
0 0
0 0
0 0
0 0
0 0
0 0
0 0
0 0
0 0
0 0
0 0
0 0
0 0
0 0
0 0
0 0
0 0
0 0
0 0
0 0
0 0
0 0
0 0
0 0
0 0
0 0
0 0
0 0
0 0
0 0
0 0
0 0
0 0
0 0
0 0
0 0
0 0
0 0
0 0
0 0
0 0
0 0
0 0
0 0
0 0
0 0
0 0
0 0
0 0
0 0
0 0
0 0
0 0
0 0
0 0
0 0
0 0
0 0
0 0
0 0
0 0
0 0
0 0
0 0
0 0
0 0
0 0
0 0
0 0
0 0
0 0
0 0
0 0
0 0
0 0
0 0
0 0
0 0
0 0
0 0
0 0
0 0
0 0
0 0
0 0
0 0
0 0
0 0
0 0
0 0
0 0
0 0
0 0
0 0
0 0
0 0
0 0
0 0
0 0
0 0
0 0
0 0
0 0
0 0
0 0
0 0
0 0
0 0
0 0
0 0
0 0
0 0
0 0
0 0
0 0
0 0
0 0
0 0
0 0
0 0
0 0
0 0
0 0
0 0
0 0
0 0
0 0
0 0
0 0
0 0
0 0
0 0
0 0
0 0
0 0
0 0
0 0
0 0
0 0
0 0
0 0
0 0
0 0
0 0
0 0
0 0
0 0
0 0
0 0
0 0
0 0
0 0
0 0
0 0
0 0
0 0
0 0
0 0
0 0
0 0
0 0
0 0
0 0
0 0
0 0
0 0
0 0
0 0
0 0
0 0
0 0
0 0
0 0
0 0
0 0
0 0
0 0
0 0
0 0
0 0
0 0
0 0
0 0
0 0
0 0
0 0
0 0
0 0
0 0
0 0
0 0
0 0
0 0
0 0
0 0
0 0
0 0
0 0
0 0
0 0
0 0
0 0
0 0
0 0
0 0
0 0
0 0
0 0
0 0
0 0
0 0
0 0
0 0
0 0
0 0
0 0
0 0
0 0
0 0
0 0
0 0
0 0
0 0
0 0
0 0
0 0
0 0
0 0
0 0
0 0
0 0
0 0
0 0
0 0
0 0
0 0
0 0
0 0
0 0
0 0
0 0
0 0
0 0
0 0
0 0
0 0
0 0
0 0
0 0
0 0
0 0
0 0
0 0
0 0
0 0
0 0
0 0
0 0
0 0
0 0
0 0
0 0
0 0
0 0
0 0
0 0
0 0
0 0
0 0
0 0
0 0
0 0
0 0
0 0
0 0
0 0
0 0
0 0
0 0
0 0
0 0
0 0
0 0
0 0
0 0
0 0
0 0
0 0
0 0
0 0
0 0
0 0
0 0
0 0
0 0
0 0
0 0
0 0
0 0
0 0
0 0
0 0
0 0
0 0
0 0
0 0
0 0
0 0
0 0
0 0
0 0
0 0
0 0
0 0
0 0
0 0
0 0
0 0
0 0
0 0
0 0
0 0
0 0
0 0
0 0
0 0
0 0
0 0
0 0
0 0
0 0
0 0
0 0
0 0
0 0
0 0
0 0
0 0
0 0
0 0
0 0
0 0
0 0
0 0
0 0
0 0
0 0
0 0
0 0
0 0
0 0
0 0
0 0
0 0
0 0
0 0
0 0
0 0
0 0
0 0
0 0
0 0
0 0
0 0
0 0
0 0
0 0
0 0
0 0
0 0
0 0
0 0
0 0
0 0
0 0
0 0
0 0
0 0
0 0
0 0
0 0
0 0
0 0
0 0
0 0
0 0
0 0
0 0
0 0
0 0
0 0
0 0
0 0
0 0
0 0
0 0
0 0
0 0
0 0
0 0
0 0
0 0
0 0
0 0
0 0
0 0
0 0
0 0
0 0
0 0
0 0
0 0
0 0
0 0
0 0
0 0
0 0
0 0
0 0
0 0
0 0
0 0
0 0
0 0
0 0
0 0
0 0
0 0
0 0
0 0
0 0
0 0
0 0
0 0
0 0
0 0
0 0
0 0
0 0
0 0
0 0
0 0
0 0
0 0
0 0
0 0
0 0
0 0
0 0
0 0
0 0
0 0
0 0
0 0
0 0
0 0
0 0
0 0
0 0
0 0
0 0
0 0
0 0
0 0
0 0
0 0
0 0
0 0
0 0
0 0
0 0
0 0
0 0
0 0
0 0
0 0
0 0
0 0
0 0
0 0
0 0
0 0
0 0
0 0
0 0
0 0
0 0
0 0
0 0
0 0
0 0
0 0
0 0
0 0
0 0
0 0
0 0
0 0
0 0
0 0
0 0
0 0
0 0
0 0
0 0
0 0
0 0
0 0
0 0
0 0
0 0
0 0
0 0
0 0
0 0
0 0
0 0
0 0
0 0
0 0
0 0
0 0
0 0
0 0
0 0
0 0
0 0
0 0
0 0
0 0
0 0
0 0
0 0
0 0
0 0
0 0
0 0
0 0
0 0
0 0
0 0
0 0
0 0
0 0
0 0
0 0
0 0
0 0
0 0
0 0
0 0
0 0
0 0
0 0
0 0
0 0
0 0
0 0
0 0
0 0
0 0
0 0
0 0
0 0
0 0
0 0
0 0
0 0
0 0
0 0
0 0
0 0
0 0
0 0
0 0
0 0
0 0
0 0
0 0
0 0
0 0
0 0
0 0
0 0
0 0
0 0
0 0
0 0
0 0
0 0
0 0
0 0
0 0
0 0
0 0
0 0
0 0
0 0
0 0
0 0
0 0
0 0
0 0
0 0
0 0
0 0
0 0
0 0
0 0
0 0
0 0
0 0
0 0
0 0
0 0
0 0
0 0
0 0
0 0
0 0
0 0
0 0
0 0
0 0
0 0
0 0
0 0
0 0
0 0
0 0
0 0
0 0
0 0
0 0
0 0
0 0
0 0
0 0
0 0
0 0
0 0
0 0
0 0
0 0
0 0
0 0
0 0
0 0
0 0
0 0
0 0
0 0
0 0
0 0
0 0
0 0
0 0
0 0
0 0
0 0
0 0
0 0
0 0
0 0
0 0
0 0
0 0
0 0
0 0
0 0
0 0
0 0
0 0
0 0
0 0
0 0
0 0
0 0
0 0
0 0
0 0
0 0
0 0
0 0
0 0
0 0
0 0
0 0
0 0
0 0
0 0
0 0
0 0
0 0
0 0
0 0
0 0
0 0
0 0
0 0
0 0
0 0
0 0
0 0
0 0
0 0
0 0
0 0
0 0
0 0
0 0
0 0
0 0
0 0
0 0
0 0
0 0
0 0
0 0
0 0
0 0
0 0
0 0
0 0
0 0
0 0
0 0
0 0
0 0
0 0
0 0
0 0
0 0
0 0
0 0
0 0
0 0
0 0
0 0
0 0
0 0
0 0
0 0
0 0
0 0
0 0
0 0
0 0
0 0
0 0
0 0
0 0
0 0
0 0
0 0
0 0
0 0
0 0
0 0
0 0
0 0
0 0
0 0
0 0
0 0
0 0
0 0
0 0
0 0
0 0
0 0
0 0
0 0
0 0
0 0
0 0
0 0
0 0
0 0
0 0
0 0
0 0
0 0
0 0
0 0
0 0
0 0
0 0
0 0
0 0
0 0
0 0
0 0
0 0
0 0
0 0
0 0
0 0
0 0
0 0
0 0
0 0
0 0
0 0
0 0
0 0
0 0
0 0
0 0
0 0
0 0
0 0
0 0
0 0
0 0
0 0
0 0
0 0
0 0
0 0
0 0
0 0
0 0
0 0
0 0
0 0
0 0
0 0
0 0
0 0
0 0
0 0
0 0
0 0
0 0
0 0
0 0
0 0
0 0
0 0
0 0
0 0
0 0
0 0
0 0
0 0
0 0
0 0
0 0
0 0
0 0
0 0
0 0
0 0
0 0
0 0
0 0
0 0
0 0
0 0
0 0
0 0
0 0
0 0
0 0
0 0
0 0
0 0
0 0
0 0
0 0
0 0
0 0
0 0
0 0
0 0
0 0
0 0
0 0
0 0
0 0
0 0
0 0
0 0
0 0
0 0
0 0
0 0
0 0
0 0
0 0
0 0
0 0
0 0
0 0
0 0
0 0
0 0
0 0
0 0
0 0
0 0
0 0
0 0
0 0
0 0
0 0
0 0
0 0
0 0
0 0
0 0
0 0
0 0
0 0
0 0
0 0
0 0
0 0
0 0
0 0
0 0
0 0
0 0
0 0
0 0
0 0
0 0
0 0
0 0
0 0
0 0
0 0
0 0
0 0
0 0
0 0
0 0
0 0
0 0
0 0
0 0
0 0
0 0
0 0
0 0
0 0
0 0
0 0
0 0
0 0
0 0
0 0
0 0
0 0
0 0
0 0
0 0
0 0
0 0
0 0
0 0
0 0
0 0
0 0
0 0
0 0
0 0
0 0
0 0
0 0
0 0
0 0
0 0
0 0
0 0
0 0
0 0
0 0
0 0
0 0
0 0
0 0
0 0
0 0
0 0
0 0
0 0
0 0
0 0
0 0
0 0
0 0
0 0
0 0
0 0
0 0
0 0
0 0
0 0
0 0
0 0
0 0
0 0
0 0
0 0
0 0
0 0
0 0
0 0
0 0
0 0
0 0
0 0
0 0
0 0
0 0
0 0
0 0
0 0
0 0
0 0
0 0
0 0
0 0
0 0
0 0
0 0
0 0
0 0
0 0
0 0
0 0
0 0
0 0
0 0
0 0
0 0
0 0
0 0
0 0
0 0
0 0
0 0
0 0
0 0
0 0
0 0
0 0
0 0
0 0
0 0
0 0
0 0
0 0
0 0
0 0
0 0
0 0
0 0
0 0
0 0
0 0
0 0
0 0
0 0
0 0
0 0
0 0
0 0
0 0
0 0
0 0
0 0
0 0
0 0
0 0
0 0
0 0
0 0
0 0
0 0
0 0
0 0
0 0
0 0
0 0
0 0
0 0
0 0
0 0
0 0
0 0
0 0
0 0
0 0
0 0
0 0
0 0
0 0
0 0
0 0
0 0
0 0
0 0
0 0
0 0
0 0
0 0
0 0
0 0
0 0
0 0
0 0
0 0
0 0
0 0
0 0
0 0
0 0
0 0
0 0
0 0
0 0
0 0
0 0
0 0
0 0
0 0
0 0
0 0
0 0
0 0
0 0
0 0
0 0
0 0
0 0
0 0
0 0
0 0
0 0
0 0
0 0
0 0
0 0
0 0
0 0
0 0
0 0
0 0
0 0
0 0
0 0
0 0
0 0
0 0
0 0
0 0
0 0
0 0
0 0
0 0
0 0
0 0
0 0
0 0
0 0
0 0
0 0
0 0
0 0
0 0
0 0
0 0
0 0
0 0
0 0
0 0
0 0
0 0
0 0
0 0
0 0
0 0
0 0
0 0
0 0
0 0
0 0
0 0
0 0
0 0
0 0
0 0
0 0
0 0
0 0
0 0
0 0
0 0
0 0
0 0
0 0
0 0
0 0
0 0
0 0
0 0
0 0
0 0
0 0
0 0
0 0
0 0
0 0
0 0
0 0
0 0
0 0
0 0
0 0
0 0
0 0
0 0
0 0
0 0
0 0
0 0
0 0
0 0
0 0
0 0
0 0
0 0
0 0
0 0
0 0
0 0
0 0
0 0
0 0
0 0
0 0
0 0
0 0
0 0
0 0
0 0
0 0
0 0
0 0
0 0
0 0
0 0
0 0
0 0
0 0
0 0
0 0
0 0
0 0
0 0
0 0
0 0
0 0
0 0
0 0
0 0
0 0
0 0
0 0
0 0
0 0
0 0
0 0
0 0
0 0
0 0
0 0
0 0
0 0
0 0
0 0
0 0
0 0
0 0
0 0
0 0
0 0
0 0
0 0
0 0
0 0
0 0
0 0
0 0
0 0
0 0
0 0
0 0
0 0
0 0
0 0
0 0
0 0
0 0
0 0
0 0
0 0
0 0
0 0
0 0
0 0
0 0
0 0
0 0
0 0
0 0
0 0
0 0
0 0
0 0
0 0
0 0
0 0
0 0
0 0
0 0
0 0
0 0
0 0
0 0
0 0
0 0
0 0
0 0
0 0
0 0
0 0
0 0
0 0
0 0
0 0
0 0
0 0
0 0
0 0
0 0
0 0
0 0
0 0
0 0
0 0
0 0
0 0
0 0
0 0
0 0
0 0
0 0
0 0
0 0
0 0
0 0
0 0
0 0
0 0
0 0
0 0
0 0
0 0
0 0
0 0
0 0
0 0
0 0
0 0
0 0
0 0
0 0
0 0
0 0
0 0
0 0
0 0
0 0
0 0
0 0
0 0
0 0
0 0
0 0
0 0
0 0
0 0
0 0
0 0
0 0
0 0
0 0
0 0
0 0
0 0
0 0
0 0
0 0
0 0
0 0
0 0
0 0
0 0
0 0
0 0
0 0
0 0
0 0
0 0
0 0
0 0
0 0
0 0
0 0
0 0
0 0
0 0
0 0
0 0
0 0
0 0
0 0
0 0
0 0
0 0
0 0
0 0
0 0
0 0
0 0
0 0
0 0
0 0
0 0
0 0
0 0
0 0
0 0
0 0
0 0
0 0
0 0
0 0
0 0
0 0
0 0
0 0
0 0
0 0
0 0
0 0
0 0
0 0
0 0
0 0
0 0
0 0
0 0
0 0
0 0
0 0
0 0
0 0
0 0
0 0
0 0
0 0
0 0
0 0
0 0
0 0
0 0
0 0
0 0
0 0
0 0
0 0
0 0
0 0
0 0
0 0
0 0
0 0
0 0
0 0
0 0
0 0
0 0
0 0
0 0
0 0
0 0
0 0
0 0
0 0
0 0
0 0
0 0
0 0
0 0
0 0
0 0
0 0
0 0
0 0
0 0
0 0
0 0
0 0
0 0
0 0
0 0
0 0
0 0
0 0
0 0
0 0
0 0
0 0
0 0
0 0
0 0
0 0
0 0
0 0
0 0
0 0
0 0
0 0
0 0
0 0
0 0
0 0
0 0
0 0
0 0
0 0
0 0
0 0
0 0
0 0
0 0
0 0
0 0
0 0
0 0
0 0
0 0
0 0
0 0
0 0
0 0
0 0
0 0
0 0
0 0
0 0
0 0
0 0
0 0
0 0
0 0
0 0
0 0
0 0
0 0
0 0
0 0
0 0
0 0
0 0
0 0
0 0
0 0
0 0
0 0
0 0
0 0
0 0
0 0
0 0
0 0
0 0
0 0
0 0
0 0
0 0
0 0
0 0
0 0
0 0
0 0
0 0
0 0
0 0
0 0
0 0
0 0
0 0
0 0
0 0
0 0
0 0
0 0
0 0
0 0
0 0
0 0
0 0
0 0
0 0
0 0
0 0
0 0
0 0
0 0
0 0
0 0
0 0
0 0
0 0
0 0
0 0
0 0
0 0
0 0
0 0
0 0
0 0
0 0
0 0
0 0
0 0
0 0
0 0
0 0
0 0
0 0
0 0
0 0
0 0
0 0
0 0
0 0
0 0
0 0
0 0
0 0
0 0
0 0
0 0
0 0
0 0
0 0
0 0
0 0
0 0
0 0
0 0
0 0
0 0
0 0
0 0
0 0
0 0
0 0
0 0
0 0
0 0
0 0
0 0
0 0
0 0
0 0
0 0
0 0
0 0
0 0
0 0
0 0
0 0
0 0
0 0
0 0
0 0
0 0
0 0
0 0
0 0
0 0
0 0
0 0
0 0
0 0
0 0
0 0
0 0
0 0
0 0
0 0
0 0
0 0
0 0
0 0
0 0
0 0
0 0
0 0
0 0
0 0
0 0
0 0
0 0
0 0
0 0
0 0
0 0
0 0
0 0
0 0
0 0
0 0
0 0
0 0
0 0
0 0
0 0
0 0
0 0
0 0
0 0
0 0
0 0
0 0
0 0
0 0
0 0
0 0
0 0
0 0
0 0
0 0
0 0
0 0
0 0
0 0
0 0
0 0
0 0
0 0
0 0
0 0
0 0
0 0
0 0
0 0
0 0
0 0
0 0
0 0
0 0
0 0
0 0
0 0
0 0
0 0
0 0
0 0
0 0
0 0
0 0
0 0
0 0
0 0
0 0
0 0
0 0
0 0
0 0
0 0
0 0
0 0
0 0
0 0
0 0
0 0
0 0
0 0
0 0
0 0
0 0
0 0
0 0
0 0
0 0
0 0
0 0
0 0
0 0
0 0
0 0
0 0
0 0
0 0
0 0
0 0
0 0
0 0
0 0
0 0
0 0
0 0
0 0
0 0
0 0
0 0
0 0
0 0
0 0
0 0
0 0
0 0
0 0
0 0
0 0
0 0
0 0
0 0
0 0
0 0
0 0
0 0
0 0
0 0
0 0
0 0
0 0
0 0
0 0
0 0
0 0
0 0
0 0
0 0
0 0
0 0
0 0
0 0
0 0
0 0
0 0
0 0
0 0
0 0
0 0
0 0
0 0
0 0
0 0
0 0
0 0
0 0
0 0
0 0
0 0
0 0
0 0
0 0
0 0
0 0
0 0
0 0
0 0
0 0
0 0
0 0
0 0
0 0
0 0
0 0
0 0
0 0
0 0
0 0
0 0
0 0
0 0
0 0
0 0
0 0
0 0
0 0
0 0
0 0
0 0
0 0
0 0
0 0
0 0
0 0
0 0
0 0
0 0
0 0
0 0
0 0
0 0
0 0
0 0
0 0
0 0
0 0
0 0
0 0
0 0
0 0
0 0
0 0
0 0
0 0
0 0
0 0
0 0
0 0
0 0
0 0
0 0
0 0
0 0
0 0
0 0
0 0
0 0
0 0
0 0
0 0
0 0
0 0
0 0
0 0
0 0
0 0
0 0
0 0
0 0
0 0
0 0
0 0
0 0
0 0
0 0
0 0
0 0
0 0
0 0
0 0
0 0
0 0
0 0
0 0
0 0
0 0
0 0
0 0
0 0
0 0
0 0
0 0
0 0
0 0
0 0
0 0
0 0
0 0
0 0
0 0
0 0
0 0
0 0
0 0
0 0
0 0
0 0
0 0
0 0
0 0
0 0
0 0
0 0
0 0
0 0
0 0
0 0
0 0
0 0
0 0
0 0
0 0
0 0
0 0
0 0
0 0
0 0
0 0
0 0
0 0
0 0
0 0
0 0
0 0
0 0
0 0
0 0
0 0
0 0
0 0
0 0
0 0
0 0
0 0
0 0
0 0
0 0
0 0
0 0
0 0
0 0
0 0
0 0
0 0
0 0
0 0
0 0
0 0
0 0
0 0
0 0
0 0
0 0
0 0
0 0
0 0
0 0
0 0
0 0
0 0
0 0
0 0
0 0
0 0
0 0
0 0
0 0
0 0
0 0
0 0
0 0
0 0
0 0
0 0
0 0
0 0
0 0
0 0
0 0
0 0
0 0
0 0
0 0
0 0
0 0
0 0
0 0
0 0
0 0
0 0
0 0
0 0
0 0
0 0
0 0
0 0
0 0
0 0
0 0
0 0
0 0
0 0
0 0
0 0
0 0
0 0
0 0
0 0
0 0
0 0
0 0
0 0
0 0
0 0
0 0
0 0
0 0
0 0
0 0
0 0
0 0
0 0
0 0
0 0
0 0
0 0
0 0
0 0
0 0
0 0
0 0
0 0
0 0
0 0
0 0
0 0
0 0
0 0
0 0
0 0
0 0
0 0
0 0
0 0
0 0
0 0
0 0
0 0
0 0
0 0
0 0
0 0
0 0
0 0
0 0
0 0
0 0
0 0
0 0
0 0
0 0
0 0
0 0
0 0
0 0
0 0
0 0
0 0
0 0
0 0
0 0
0 0
0 0
0 0
0 0
0 0
0 0
0 0
0 0
0 0
0 0
0 0
0 0
0 0
0 0
0 0
0 0
0 0
0 0
0 0
0 0
0 0
0 0
0 0
0 0
0 0
0 0
0 0
0 0
0 0
0 0
0 0
0 0
0 0
0 0
0 0
0 0
0 0
0 0
0 0
0 0
0 0
0 0
0 0
0 0
0 0
0 0
0 0
0 0
0 0
0 0
0 0
0 0
0 0
0 0
0 0
0 0
0 0
0 0
0 0
0 0
0 0
0 0
0 0
0 0
0 0
0 0
0 0
0 0
0 0
0 0
0 0
0 0
0 0
0 0
0 0
0 0
0 0
0 0
0 0
0 0
0 0
0 0
0 0
0 0
0 0
0 0
0 0
0 0
0 0
0 0
0 0
0 0
0 0
0 0
0 0
0 0
0 0
0 0
0 0
0 0
0 0
0 0
0 0
0 0
0 0
0 0
0 0
0 0
0 0
0 0
0 0
0 0
0 0
0 0
0 0
0 0
0 0
0 0
0 0
0 0
0 0
0 0
0 0
0 0
0 0
0 0
0 0
0 0
0 0
0 0
0 0
0 0
0 0
0 0
0 0
0 0
0 0
0 0
0 0
0 0
0 0
0 0
0 0
0 0
0 0
0 0
0 0
0 0
0 0
0 0
0 0
0 0
0 0
0 0
0 0
0 0
0 0
0 0
0 0
0 0
0 0
0 0
0 0
0 0
0 0
0 0
0 0
0 0
0 0
0 0
0 0
0 0
0 0
0 0
0 0
0 0
0 0
0 0
0 0
0 0
0 0
0 0
0 0
0 0
0 0
0 0
0 0
0 0
0 0
0 0
0 0
0 0
0 0
0 0
0 0
0 0
0 0
0 0
0 0
0 0
0 0
0 0
0 0
0 0
0 0
0 0
0 0
0 0
0 0
0 0
0 0
0 0
0 0
0 0
0 0
0 0
0 0
0 0
0 0
0 0
0 0
0 0
0 0
0 0
0 0
0 0
0 0
0 0
0 0
0 0
0 0
0 0
0 0
0 0
0 0
0 0
0 0
0 0
0 0
0 0
0 0
0 0
0 0
0 0
0 0
0 0
0 0
0 0
0 0
0 0
0 0
0 0
0 0
0 0
0 0
0 0
0 0
0 0
0 0
0 0
0 0
0 0
0 0
0 0
0 0
0 0
0 0
0 0
0 0
0 0
0 0
0 0
0 0
0 0
0 0
0 0
0 0
0 0
0 0
0 0
0 0
0 0
0 0
0 0
0 0
0 0
0 0
0 0
0 0
0 0
0 0
0 0
0 0
0 0
0 0
0 0
0 0
0 0
0 0
0 0
0 0
0 0
0 0
0 0
0 0
0 0
0 0
0 0
0 0
0 0
0 0
0 0
0 0
0 0
0 0
0 0
0 0
0 0
0 0
0 0
0 0
0 0
0 0
0 0
0 0
0 0
0 0
0 0
0 0
0 0
0 0
0 0
0 0
0 0
0 0
0 0
0 0
0 0
0 0
0 0
0 0
0 0
0 0
0 0
0 0
0 0
0 0
0 0
0 0
0 0
0 0
0 0
0 0
0 0
0 0
0 0
0 0
0 0
0 0
0 0
0 0
0 0
0 0
0 0
0 0
0 0
0 0
0 0
0 0
0 0
0 0
0 0
0 0
0 0
0 0
0 0
0 0
0 0
0 0
0 0
0 0
0 0
0 0
0 0
0 0
0 0
0 0
0 0
0 0
0 0
0 0
0 0
0 0
0 0
0 0
0 0
0 0
0 0
0 0
0 0
0 0
0 0
0 0
0 0
0 0
0 0
0 0
0 0
0 0
0 0
0 0
0 0
0 0
0 0
0 0
0 0
0 0
0 0
0 0
0 0
0 0
0 0
0 0
0 0
0 0
0 0
0 0
0 0
0 0
0 0
0 0
0 0
0 0
0 0
0 0
0 0
0 0
0 0
0 0
0 0
0 0
0 0
0 0
0 0
0 0
0 0
0 0
0 0
0 0
0 0
0 0
0 0
0 0
0 0
0 0
0 0
0 0
0 0
0 0
0 0
0 0
0 0
0 0
0 0
0 0
0 0
0 0
0 0
0 0
0 0
0 0
0 0
0 0
0 0
0 0
0 0
0 0
0 0
0 0
0 0
0 0
0 0
0 0
0 0
0 0
0 0
0 0
0 0
0 0
0 0
0 0
0 0
0 0
0 0
0 0
0 0
0 0
0 0
0 0
0 0
0 0
0 0
0 0
0 0
0 0
0 0
0 0
0 0
0 0
0 0
0 0
0 0
0 0
0 0
0 0
0 0
0 0
0 0
0 0
0 0
0 0
0 0
0 0
0 0
0 0
0 0
0 0
0 0
0 0
0 0
0 0
0 0
0 0
0 0
0 0
0 0
0 0
0 0
0 0
0 0
0 0
0 0
0 0
0 0
0 0
0 0
0 0
0 0
0 0
0 0
0 0
0 0
0 0
0 0
0 0
0 0
0 0
0 0
0 0
0 0
0 0
0 0
0 0
0 0
0 0
0 0
0 0
0 0
0 0
0 0
0 0
0 0
0 0
0 0
0 0
0 0
0 0
0 0
0 0
0 0
0 0
0 0
0 0
0 0
0 0
0 0
0 0
0 0
0 0
0 0
0 0
0 0
0 0
0 0
0 0
0 0
0 0
0 0
0 0
0 0
0 0
0 0
0 0
0 0
0 0
0 0
0 0
0 0
0 0
0 0
0 0
0 0
0 0
0 0
0 0
0 0
0 0
0 0
0 0
0 0
0 0
0 0
0 0
0 0
0 0
0 0
0 0
0 0
0 0
0 0
0 0
0 0
0 0
0 0
0 0
0 0
0 0
0 0
0 0
0 0
0 0
0 0
0 0
0 0
0 0
0 0
0 0
0 0
0 0
0 0
0 0
0 0
0 0
0 0
0 0
0 0
0 0
0 0
0 0
0 0
0 0
0 0
0 0
0 0
0 0
0 0
0 0
0 0
0 0
0 0
0 0
0 0
0 0
0 0
0 0
0 0
0 0
0 0
0 0
0 0
0 0
0 0
0 0
0 0
0 0
0 0
0 0
0 0
0 0
0 0
0 0
0 0
0 0
0 0
0 0
0 0
0 0
0 0
0 0
0 0
0 0
0 0
0 0
0 0
0 0
0 0
0 0
0 0
0 0
0 0
0 0
0 0
0 0
0 0
0 0
0 0
0 0
0 0
0 0
0 0
0 0
0 0
0 0
0 0
0 0
0 0
0 0
0 0
0 0
0 0
0 0
0 0
0 0
0 0
0 0
0 0
0 0
0 0
0 0
0 0
0 0
0 0
0 0
0 0
0 0
0 0
0 0
0 0
0 0
0 0
0 0
0 0
0 0
0 0
0 0
0 0
0 0
0 0
0 0
0 0
0 0
0 0
0 0
0 0
0 0
0 0
0 0
0 0
0 0
0 0
0 0
0 0
0 0
0 0
0 0
0 0
0 0
0 0
0 0
0 0
0 0
0 0
0 0
0 0
0 0
0 0
0 0
0 0
0 0
0 0
0 0
0 0
0 0
0 0
0 0
0 0
0 0
0 0
0 0
0 0
0 0
0 0
0 0
0 0
0 0
0 0
0 0
0 0
0 0
0 0
0 0
0 0
0 0
0 0
0 0
0 0
0 0
0 0
0 0
0 0
0 0
0 0
0 0
0 0
0 0
0 0
0 0
0 0
0 0
0 0
0 0
0 0
0 0
0 0
0 0
0 0
0 0
0 0
0 0
0 0
0 0
0 0
0 0
0 0
0 0
0 0
0 0
0 0
0 0
0 0
0 0
0 0
0 0
0 0
0 0
0 0
0 0
0 0
0 0
0 0
0 0
0 0
0 0
0 0
0 0
0 0
0 0
0 0
0 0
0 0
0 0
0 0
0 0
0 0
0 0
0 0
0 0
0 0
0 0
0 0
0 0
0 0
0 0
0 0
0 0
0 0
0 0
0 0
0 0
0 0
0 0
0 0
0 0
0 0
0 0
0 0
0 0
0 0
0 0
0 0
0 0
0 0
0 0
0 0
0 0
0 0
0 0
0 0
0 0
0 0
0 0
0 0
0 0
0 0
0 0
0 0
0 0
0 0
0 0
0 0
0 0
0 0
0 0
0 0
0 0
0 0
0 0
0 0
0 0
0 0
0 0
0 0
0 0
0 0
0 0
0 0
0 0
0 0
0 0
0 0
0 0
0 0
0 0
0 0
0 0
0 0
0 0
0 0
0 0
0 0
0 0
0 0
0 0
0 0
0 0
0 0
0 0
0 0
0 0
0 0
0 0
0 0
0 0
0 0
0 0
0 0
0 0
0 0
0 0
0 0
0 0
0 0
0 0
0 0
0 0
0 0
0 0
0 0
0 0
0 0
0 0
0 0
0 0
0 0
0 0
0 0
0 0
0 0
0 0
0 0
0 0
0 0
0 0
0 0
0 0
0 0
0 0
0 0
0 0
0 0
0 0
0 0
0 0
0 0
0 0
0 0
0 0
0 0
0 0
0 0
0 0
0 0
0 0
0 0
0 0
0 0
0 0
0 0
0 0
0 0
0 0
0 0
0 0
0 0
0 0
0 0
0 0
0 0
0 0
0 0
0 0
0 0
0 0
0 0
0 0
0 0
0 0
0 0
0 0
0 0
0 0
0 0
0 0
0 0
0 0
0 0
0 0
0 0
0 0
0 0
0 0
0 0
0 0
0 0
0 0
0 0
0 0
0 0
0 0
0 0
0 0
0 0
0 0
0 0
0 0
0 0
0 0
0 0
0 0
0 0
0 0
0 0
0 0
0 0
0 0
0 0
0 0
0 0
0 0
0 0
0 0
0 0
0 0
0 0
0 0
0 0
0 0
0 0
0 0
0 0
0 0
0 0
0 0
0 0
0 0
0 0
0 0
0 0
0 0
0 0
0 0
0 0
0 0
0 0
0 0
0 0
0 0
0 0
0 0
0 0
0 0
0 0
0 0
0 0
0 0
0 0
0 0
0 0
0 0
0 0
0 0
0 0
0 0
0 0
0 0
0 0
0 0
0 0
0 0
0 0
0 0
0 0
0 0
0 0
0 0
0 0
0 0
0 0
0 0
0 0
0 0
0 0
0 0
0 0
0 0
0 0
0 0
0 0
0 0
0 0
0 0
0 0
0 0
0 0
0 0
0 0
0 0
0 0
0 0
0 0
0 0
0 0
0 0
0 0
0 0
0 0
0 0
0 0
0 0
0 0
0 0
0 0
0 0
0 0
0 0
0 0
0 0
0 0
0 0
0 0
0 0
0 0
0 0
0 0
0 0
0 0
0 0
0 0
0 0
0 0
0 0
0 0
0 0
0 0
0 0
0 0
0 0
0 0
0 0
0 0
0 0
0 0
0 0
0 0
0 0
0 0
0 0
0 0
0 0
0 0
0 0
0 0
0 0
0 0
0 0
0 0
0 0
0 0
0 0
0 0
0 0
0 0
0 0
0 0
0 0
0 0
0 0
0 0
0 0
0 0
0 0
0 0
0 0
0 0
0 0
0 0
0 0
0 0
0 0
0 0
0 0
0 0
0 0
0 0
0 0
0 0
0 0
0 0
0 0
0 0
0 0
0 0
0 0
0 0
0 0
0 0
0 0
0 0
0 0
0 0
0 0
0 0
0 0
0 0
0 0
0 0
0 0
0 0
0 0
0 0
0 0
0 0
0 0
0 0
0 0
0 0
0 0
0 0
0 0
0 0
0 0
0 0
0 0
0 0
0 0
0 0
0 0
0 0
0 0
0 0
0 0
0 0
0 0
0 0
0 0
0 0
0 0
0 0
0 0
0 0
0 0
0 0
0 0
0 0
0 0
0 0
0 0
0 0
0 0
0 0
0 0
0 0
0 0
0 0
0 0
0 0
0 0
0 0
0 0
0 0
0 0
0 0
0 0
0 0
0 0
0 0
0 0
0 0
0 0
0 0
0 0
0 0
0 0
0 0
0 0
0 0
0 0
0 0
0 0
0 0
0 0
0 0
0 0
0 0
0 0
0 0
0 0
0 0
0 0
0 0
0 0
0 0
0 0
0 0
0 0
0 0
0 0
0 0
0 0
0 0
0 0
0 0
0 0
0 0
0 0
0 0
0 0
0 0
0 0
0 0
0 0
0 0
0 0
0 0
0 0
0 0
0 0
0 0
0 0
0 0
0 0
0 0
0 0
0 0
0 0
0 0
0 0
0 0
0 0
0 0
0 0
0 0
0 0
0 0
0 0
0 0
0 0
0 0
0 0
0 0
0 0
0 0
0 0
0 0
0 0
0 0
0 0
0 0
0 0
0 0
0 0
0 0
0 0
0 0
0 0
0 0
0 0
0 0
0 0
0 0
0 0
0 0
0 0
0 0
0 0
0 0
0 0
0 0
0 0
0 0
0 0
0 0
0 0
0 0
0 0
0 0
0 0
0 0
0 0
0 0
0 0
0 0
0 0
0 0
0 0
0 0
0 0
0 0
0 0
0 0
0 0
0 0
0 0
0 0
0 0
0 0
0 0
0 0
0 0
0 0
0 0
0 0
0 0
0 0
0 0
0 0
0 0
0 0
0 0
0 0
0 0
0 0
0 0
0 0
0 0
0 0
0 0
0 0
0 0
0 0
0 0
0 0
0 0
0 0
0 0
0 0
0 0
0 0
0 0
0 0
0 0
0 0
0 0
0 0
0 0
0 0
0 0
0 0
0 0
0 0
0 0
0 0
0 0
0 0
0 0
0 0
0 0
0 0
0 0
0 0
0 0
0 0
0 0
0 0
0 0
0 0
0 0
0 0
0 0
0 0
0 0
0 0
0 0
0 0
0 0
0 0
0 0
0 0
0 0
0 0
0 0
0 0
0 0
0 0
0 0
0 0
0 0
0 0
0 0
0 0
0 0
0 0
0 0
0 0
0 0
0 0
0 0
0 0
0 0
0 0
0 0
0 0
0 0
0 0
0 0
0 0
0 0
0 0
0 0
0 0
0 0
0 0
0 0
0 0
0 0
0 0
0 0
0 0
0 0
0 0
0 0
0 0
0 0
0 0
0 0
0 0
0 0
0 0
0 0
0 0
0 0
0 0
0 0
0 0
0 0
0 0
0 0
0 0
0 0
0 0
0 0
0 0
0 0
0 0
0 0
0 0
0 0
0 0
0 0
0 0
0 0
0 0
0 0
0 0
0 0
0 0
0 0
0 0
0 0
0 0
0 0
0 0
0 0
0 0
0 0
0 0
0 0
0 0
0 0
0 0
0 0
0 0
0 0
0 0
0 0
0 0
0 0
0 0
0 0
0 0
0 0
0 0
0 0
0 0
0 0
0 0
0 0
0 0
0 0
0 0
0 0
0 0
0 0
0 0
0 0
0 0
0 0
0 0
0 0
0 0
0 0
0 0
0 0
0 0
0 0
0 0
0 0
0 0
0 0
0 0
0 0
0 0
0 0
0 0
0 0
0 0
0 0
0 0
0 0
0 0
0 0
0 0
0 0
0 0
0 0
0 0
0 0
0 0
0 0
0 0
0 0
0 0
0 0
0 0
0 0
0 0
0 0
0 0
0 0
0 0
0 0
0 0
0 0
0 0
0 0
0 0
0 0
0 0
0 0
0 0
0 0
0 0
0 0
0 0
0 0
0 0
0 0
0 0
0 0
0 0
0 0
0 0
0 0
0 0
0 0
0 0
0 0
0 0
0 0
0 0
0 0
0 0
0 0
0 0
0 0
0 0
0 0
0 0
0 0
0 0
0 0
0 0
0 0
0 0
0 0
0 0
0 0
0 0
0 0
0 0
0 0
0 0
0 0
0 0
0 0
0 0
0 0
0 0
0 0
0 0
0 0
0 0
0 0
0 0
0 0
0 0
0 0
0 0
0 0
0 0
0 0
0 0
0 0
0 0
0 0
0 0
0 0
0 0
0 0
0 0
0 0
0 0
0 0
0 0
0 0
0 0
0 0
0 0
0 0
0 0
0 0
0 0
0 0
0 0
0 0
0 0
0 0
0 0
0 0
0 0
0 0
0 0
0 0
0 0
0 0
0 0
0 0
0 0
0 0
0 0
0 0
0 0
0 0
0 0
0 0
0 0
0 0
0 0
0 0
0 0
0 0
0 0
0 0
0 0
0 0
0 0
0 0
0 0
0 0
0 0
0 0
0 0
0 0
0 0
0 0
0 0
0 0
0 0
0 0
0 0
0 0
0 0
0 0
0 0
0 0
0 0
0 0
0 0
0 0
0 0
0 0
0 0
0 0
0 0
0 0
0 0
0 0
0 0
0 0
0 0
0 0
0 0
0 0
0 0
0 0
0 0
0 0
0 0
0 0
0 0
0 0
0 0
0 0
0 0
0 0
0 0
0 0
0 0
0 0
0 0
0 0
0 0
0 0
0 0
0 0
0 0
0 0
0 0
0 0
0 0
0 0
0 0
0 0
0 0
0 0
0 0
0 0
0 0
0 0
0 0
0 0
0 0
0 0
0 0
0 0
0 0
0 0
0 0
0 0
0 0
0 0
0 0
0 0
0 0
0 0
0 0
0 0
0 0
0 0
0 0
0 0
0 0
0 0
0 0
0 0
0 0
0 0
0 0
0 0
0 0
0 0
0 0
0 0
0 0
0 0
0 0
0 0
0 0
0 0
0 0
0 0
0 0
0 0
0 0
0 0
0 0
0 0
0 0
0 0
0 0
0 0
0 0
0 0
0 0
0 0
0 0
0 0
0 0
0 0
0 0
0 0
0 0
0 0
0 0
0 0
0 0
0 0
0 0
0 0
0 0
0 0
0 0
0 0
0 0
0 0
0 0
0 0
0 0
0 0
0 0
0 0
0 0
0 0
0 0
0 0
0 0
0 0
0 0
0 0
0 0
0 0
0 0
0 0
0 0
0 0
0 0
0 0
0 0
0 0
0 0
0 0
0 0
0 0
0 0
0 0
0 0
0 0
0 0
0 0
0 0
0 0
0 0
0 0
0 0
0 0
0 0
0 0
0 0
0 0
0 0
0 0
0 0
0 0
0 0
0 0
0 0
0 0
0 0
0 0
0 0
0 0
0 0
0 0
0 0
0 0
0 0
0 0
0 0
0 0
0 0
0 0
0 0
0 0
0 0
0 0
0 0
0 0
0 0
0 0
0 0
0 0
0 0
0 0
0 0
0 0
0 0
0 0
0 0
0 0
0 0
0 0
0 0
0 0
0 0
0 0
0 0
0 0
0 0
0 0
0 0
0 0
0 0
0 0
0 0
0 0
0 0
0 0
0 0
0 0
0 0
0 0
0 0
0 0
0 0
0 0
0 0
0 0
0 0
0 0
0 0
0 0
0 0
0 0
0 0
0 0
0 0
0 0
0 0
0 0
0 0
0 0
0 0
0 0
0 0
0 0
0 0
0 0
0 0
0 0
0 0
0 0
0 0
0 0
0 0
0 0
0 0
0 0
0 0
0 0
0 0
0 0
0 0
0 0
0 0
0 0
0 0
0 0
0 0
0 0
0 0
0 0
0 0
0 0
0 0
0 0
0 0
0 0
0 0
0 0
0 0
0 0
0 0
0 0
0 0
0 0
0 0
0 0
0 0
0 0
0 0
0 0
0 0
0 0
0 0
0 0
0 0
0 0
0 0
0 0
0 0
0 0
0 0
0 0
0 0
0 0
0 0
0 0
0 0
0 0
0 0
0 0
0 0
0 0
0 0
0 0
0 0
0 0
0 0
0 0
0 0
0 0
0 0
0 0
0 0
0 0
0 0
0 0
0 0
0 0
0 0
0 0
0 0
0 0
0 0
0 0
0 0
0 0
0 0
0 0
0 0
0 0
0 0
0 0
0 0
0 0
0 0
0 0
0 0
0 0
0 0
0 0
0 0
0 0
0 0
0 0
0 0
0 0
0 0
0 0
0 0
0 0
0 0
0 0
0 0
0 0
0 0
0 0
0 0
0 0
0 0
0 0
0 0
0 0
0 0
0 0
0 0
0 0
0 0
0 0
0 0
0 0
0 0
0 0
0 0
0 0
0 0
0 0
0 0
0 0
0 0
0 0
0 0
0 0
0 0
0 0
0 0
0 0
0 0
0 0
0 0
0 0
0 0
0 0
0 0
0 0
0 0
0 0
0 0
0 0
0 0
0 0
0 0
0 0
0 0
0 0
0 0
0 0
0 0
0 0
0 0
0 0
0 0
0 0
0 0
0 0
0 0
0 0
0 0
0 0
0 0
0 0
0 0
0 0
0 0
0 0
0 0
0 0
0 0
0 0
0 0
0 0
0 0
0 0
0 0
0 0
0 0
0 0
0 0
0 0
0 0
0 0
0 0
0 0
0 0
0 0
0 0
0 0
0 0
0 0
0 0
0 0
0 0
0 0
0 0
0 0
0 0
0 0
0 0
0 0
0 0
0 0
0 0
0 0
0 0
0 0
0 0
0 0
0 0
0 0
0 0
0 0
0 0
0 0
0 0
0 0
0 0
0 0
0 0
0 0
0 0
0 0
0 0
0 0
0 0
0 0
0 0
0 0
0 0
0 0
0 0
0 0
0 0
0 0
0 0
0 0
0 0
0 0
0 0
0 0
0 0
0 0
0 0
0 0
0 0
0 0
0 0
0 0
0 0
0 0
0 0
0 0
0 0
0 0
0 0
0 0
0 0
0 0
0 0
0 0
0 0
0 0
0 0
0 0
0 0
0 0
0 0
0 0
0 0
0 0
0 0
0 0
0 0
0 0
0 0
0 0
0 0
0 0
0 0
0 0
0 0
0 0
0 0
0 0
0 0
0 0
0 0
0 0
0 0
0 0
0 0
0 0
0 0
0 0
0 0
0 0
0 0
0 0
0 0
0 0
0 0
0 0
0 0
0 0
0 0
0 0
0 0
0 0
0 0
0 0
0 0
0 0
0 0
0 0
0 0
0 0
0 0
0 0
0 0
0 0
0 0
0 0
0 0
0 0
0 0
0 0
0 0
0 0
0 0
0 0
0 0
0 0
0 0
0 0
0 0
0 0
0 0
0 0
0 0
0 0
0 0
0 0
0 0
0 0
0 0
0 0
0 0
0 0
0 0
0 0
0 0
0 0
0 0
0 0
0 0
0 0
0 0
0 0
0 0
0 0
0 0
0 0
0 0
0 0
0 0
0 0
0 0
0 0
0 0
0 0
0 0
0 0
0 0
0 0
0 0
0 0
0 0
0 0
0 0
0 0
0 0
0 0
0 0
0 0
0 0
0 0
0 0
0 0
0 0
0 0
0 0
0 0
0 0
0 0
0 0
0 0
0 0
0 0
0 0
0 0
0 0
0 0
0 0
0 0
0 0
0 0
0 0
0 0
0 0
0 0
0 0
0 0
0 0
0 0
0 0
0 0
0 0
0 0
0 0
0 0
0 0
0 0
0 0
0 0
0 0
0 0
0 0
0 0
0 0
0 0
0 0
0 0
0 0
0 0
0 0
0 0
0 0
0 0
0 0
0 0
0 0
0 0
0 0
0 0
0 0
0 0
0 0
0 0
0 0
0 0
0 0
0 0
0 0
0 0
0 0
0 0
0 0
0 0
0 0
0 0
0 0
0 0
0 0
0 0
0 0
0 0
0 0
0 0
0 0
0 0
0 0
0 0
0 0
0 0
0 0
0 0
0 0
0 0
0 0
0 0
0 0
0 0
0 0
0 0
0 0
0 0
0 0
0 0
0 0
0 0
0 0
0 0
0 0
0 0
0 0
0 0
0 0
0 0
0 0
0 0
0 0
0 0
0 0
0 0
0 0
0 0
0 0
0 0
0 0
0 0
0 0
0 0
0 0
0 0
0 0
0 0
0 0
0 0
0 0
0 0
0 0
0 0
0 0
0 0
0 0
0 0
0 0
0 0
0 0
0 0
0 0
0 0
0 0
0 0
0 0
0 0
0 0
0 0
0 0
0 0
0 0
0 0
0 0
0 0
0 0
0 0
0 0
0 0
0 0
0 0
0 0
0 0
0 0
0 0
0 0
0 0
0 0
0 0
0 0
0 0
0 0
0 0
0 0
0 0
0 0
0 0
0 0
0 0
0 0
0 0
0 0
0 0
0 0
0 0
0 0
0 0
0 0
0 0
0 0
0 0
0 0
0 0
0 0
0 0
0 0
0 0
0 0
0 0
0 0
0 0
0 0
0 0
0 0
0 0
0 0
0 0
0 0
0 0
0 0
0 0
0 0
0 0
0 0
0 0
0 0
0 0
0 0
0 0
0 0
0 0
0 0
0 0
0 0
0 0
0 0
0 0
0 0
0 0
0 0
0 0
0 0
0 0
0 0
0 0
0 0
0 0
0 0
0 0
0 0
0 0
0 0
0 0
0 0
0 0
0 0
0 0
0 0
0 0
0 0
0 0
0 0
0 0
0 0
0 0
0 0
0 0
0 0
0 0
0 0
0 0
0 0
0 0
0 0
0 0
0 0
0 0
0 0
0 0
0 0
0 0
0 0
0 0
0 0
0 0
0 0
0 0
0 0
0 0
0 0
0 0
0 0
0 0
0 0
0 0
0 0
0 0
0 0
0 0
0 0
0 0
0 0
0 0
0 0
0 0
0 0
0 0
0 0
0 0
0 0
0 0
0 0
0 0
0 0
0 0
0 0
0 0
0 0
0 0
0 0
0 0
0 0
0 0
0 0
0 0
0 0
0 0
0 0
0 0
0 0
0 0
0 0
0 0
0 0
0 0
0 0
0 0
0 0
0 0
0 0
0 0
0 0
0 0
0 0
0 0
0 0
0 0
0 0
0 0
0 0
0 0
0 0
0 0
0 0
0 0
0 0
0 0
0 0
0 0
0 0
0 0
0 0
0 0
0 0
0 0
0 0
0 0
0 0
0 0
0 0
0 0
0 0
0 0
0 0
0 0
0 0
0 0
0 0
0 0
0 0
0 0
0 0
0 0
0 0
0 0
0 0
0 0
0 0
0 0
0 0
0 0
0 0
0 0
0 0
0 0
0 0
0 0
0 0
0 0
0 0
0 0
0 0
0 0
0 0
0 0
0 0
0 0
0 0
0 0
0 0
0 0
0 0
0 0
0 0
0 0
0 0
0 0
0 0
0 0
0 0
0 0
0 0
0 0
0 0
0 0
0 0
0 0
0 0
0 0
0 0
0 0
0 0
0 0
0 0
0 0
0 0
0 0
0 0
0 0
0 0
0 0
0 0
0 0
0 0
0 0
0 0
0 0
0 0
0 0
0 0
0 0
0 0
0 0
0 0
0 0
0 0
0 0
0 0
0 0
0 0
0 0
0 0
0 0
0 0
0 0
0 0
0 0
0 0
0 0
0 0
0 0
0 0
0 0
0 0
0 0
0 0
0 0
0 0
0 0
0 0
0 0
0 0
0 0
0 0
0 0
0 0
0 0
0 0
0 0
0 0
0 0
0 0
0 0
0 0
0 0
0 0
0 0
0 0
0 0
0 0
0 0
0 0
0 0
0 0
0 0
0 0
0 0
0 0
0 0
0 0
0 0
0 0
0 0
0 0
0 0
0 0
0 0
0 0
0 0
0 0
0 0
0 0
0 0
0 0
0 0
0 0
0 0
0 0
0 0
0 0
0 0
0 0
0 0
0 0
0 0
0 0
0 0
0 0
0 0
0 0
0 0
0 0
0 0
0 0
0 0
0 0
0 0
0 0
0 0
0 0
0 0
0 0
0 0
0 0
0 0
0 0
0 0
0 0
0 0
0 0
0 0
0 0
0 0
0 0
0 0
0 0
0 0
0 0
0 0
0 0
0 0
0 0
0 0
0 0
0 0
0 0
0 0
0 0
0 0
0 0
0 0
0 0
0 0
0 0
0 0
0 0
0 0
0 0
0 0
0 0
0 0
0 0
0 0
0 0
0 0
0 0
0 0
0 0
0 0
0 0
0 0
0 0
0 0
0 0
0 0
0 0
0 0
0 0
0 0
0 0
0 0
0 0
0 0
0 0
0 0
0 0
0 0
0 0
0 0
0 0
0 0
0 0
0 0
0 0
0 0
0 0
0 0
0 0
0 0
0 0
0 0
0 0
0 0
0 0
0 0
0 0
0 0
0 0
0 0
0 0
0 0
0 0
0 0
0 0
0 0
0 0
0 0
0 0
0 0
0 0
0 0
0 0
0 0
0 0
0 0
0 0
0 0
0 0
0 0
0 0
0 0
0 0
0 0
0 0
0 0
0 0
0 0
0 0
0 0
0 0
0 0
0 0
0 0
0 0
0 0
0 0
0 0
0 0
0 0
0 0
0 0
0 0
0 0
0 0
0 0
0 0
0 0
0 0
0 0
0 0
0 0
0 0
0 0
0 0
0 0
0 0
0 0
0 0
0 0
0 0
0 0
0 0
0 0
0 0
0 0
0 0
0 0
0 0
0 0
0 0
0 0
0 0
0 0
0 0
0 0
0 0
0 0
0 0
0 0
0 0
0 0
0 0
0 0
0 0
0 0
0 0
0 0
0 0
0 0
0 0
0 0
0 0
0 0
0 0
0 0
0 0
0 0
0 0
0 0
0 0
0 0
0 0
0 0
0 0
0 0
0 0
0 0
0 0
0 0
0 0
0 0
0 0
0 0
0 0
0 0
0 0
0 0
0 0
0 0
0 0
0 0
0 0
0 0
0 0
0 0
0 0
0 0
0 0
0 0
0 0
0 0
0 0
0 0
0 0
0 0
0 0
0 0
0 0
0 0
0 0
0 0
0 0
0 0
0 0
0 0
0 0
0 0
0 0
0 0
0 0
0 0
0 0
0 0
0 0
0 0
0 0
0 0
0 0
0 0
0 0
0 0
0 0
0 0
0 0
0 0
0 0
0 0
0 0
0 0
0 0
0 0
0 0
0 0
0 0
0 0
0 0
0 0
0 0
0 0
0 0
0 0
0 0
0 0
0 0
0 0
0 0
0 0
0 0
0 0
0 0
0 0
0 0
0 0
0 0
0 0
0 0
0 0
0 0
0 0
0 0
0 0
0 0
0 0
0 0
0 0
0 0
0 0
0 0
0 0
0 0
0 0
0 0
0 0
0 0
0 0
0 0
0 0
0 0
0 0
0 0
0 0
0 0
0 0
0 0
0 0
0 0
0 0
0 0
0 0
0 0
0 0
0 0
0 0
0 0
0 0
0 0
0 0
0 0
0 0
0 0
0 0
0 0
0 0
0 0
0 0
0 0
0 0
0 0
0 0
0 0
0 0
0 0
0 0
0 0
0 0
0 0
0 0
0 0
0 0
0 0
0 0
0 0
0 0
0 0
0 0
0 0
0 0
0 0
0 0
0 0
0 0
0 0
0 0
0 0
0 0
0 0
0 0
0 0
0 0
0 0
0 0
0 0
0 0
0 0
0 0
0 0
0 0
0 0
0 0
0 0
0 0
0 0
0 0
0 0
0 0
0 0
0 0
0 0
0 0
0 0
0 0
0 0
0 0
0 0
0 0
0 0
0 0
0 0
0 0
0 0
0 0
0 0
0 0
0 0
0 0
0 0
0 0
0 0
0 0
0 0
0 0
0 0
0 0
0 0
0 0
0 0
0 0
0 0
0 0
0 0
0 0
0 0
0 0
0 0
0 0
0 0
0 0
0 0
0 0
0 0
0 0
0 0
0 0
0 0
0 0
0 0
0 0
0 0
0 0
0 0
0 0
0 0
0 0
0 0
0 0
0 0
0 0
0 0
0 0
0 0
0 0
0 0
0 0
0 0
0 0
0 0
0 0
0 0
0 0
0 0
0 0
0 0
0 0
      </DataArray> 
      <DataArray type="Float64" NumberOfComponents="2" Name="Acceleration" format="ascii">
0 0
0 0
0 0
0 0
0 0
0 0
0 0
0 0
0 0
0 0
0 0
0 0
0 0
0 0
0 0
0 0
0 0
0 0
0 0
0 0
0 0
0 0
0 0
0 0
0 0
0 0
0 0
0 0
0 0
0 0
0 0
0 0
0 0
0 0
0 0
0 0
0 0
0 0
0 0
0 0
0 0
0 0
0 0
0 0
0 0
0 0
0 0
0 0
0 0
0 0
0 0
0 0
0 0
0 0
0 0
0 0
0 0
0 0
0 0
0 0
0 0
0 0
0 0
0 0
0 0
0 0
0 0
0 0
0 0
0 0
0 0
0 0
0 0
0 0
0 0
0 0
0 0
0 0
0 0
0 0
0 0
0 0
0 0
0 0
0 0
0 0
0 0
0 0
0 0
0 0
0 0
0 0
0 0
0 0
0 0
0 0
0 0
0 0
0 0
0 0
0 0
0 0
0 0
0 0
0 0
0 0
0 0
0 0
0 0
0 0
0 0
0 0
0 0
0 0
0 0
0 0
0 0
0 0
0 0
0 0
0 0
0 0
0 0
0 0
0 0
0 0
0 0
0 0
0 0
0 0
0 0
0 0
0 0
0 0
0 0
0 0
0 0
0 0
0 0
0 0
0 0
0 0
0 0
0 0
0 0
0 0
0 0
0 0
0 0
0 0
0 0
0 0
0 0
0 0
0 0
0 0
0 0
0 0
0 0
0 0
0 0
0 0
0 0
0 0
0 0
0 0
0 0
0 0
0 0
0 0
0 0
0 0
0 0
0 0
0 0
0 0
0 0
0 0
0 0
0 0
0 0
0 0
0 0
0 0
0 0
0 0
0 0
0 0
0 0
0 0
0 0
0 0
0 0
0 0
0 0
0 0
0 0
0 0
0 0
0 0
0 0
0 0
0 0
0 0
0 0
0 0
0 0
0 0
0 0
0 0
0 0
0 0
0 0
0 0
0 0
0 0
0 0
0 0
0 0
0 0
0 0
0 0
0 0
0 0
0 0
0 0
0 0
0 0
0 0
0 0
0 0
0 0
0 0
0 0
0 0
0 0
0 0
0 0
0 0
0 0
0 0
0 0
0 0
0 0
0 0
0 0
0 0
0 0
0 0
0 0
0 0
0 0
0 0
0 0
0 0
0 0
0 0
0 0
0 0
0 0
0 0
0 0
0 0
0 0
0 0
0 0
0 0
0 0
0 0
0 0
0 0
0 0
0 0
0 0
0 0
0 0
0 0
0 0
0 0
0 0
0 0
0 0
0 0
0 0
0 0
0 0
0 0
0 0
0 0
0 0
0 0
0 0
0 0
0 0
0 0
0 0
0 0
0 0
0 0
0 0
0 0
0 0
0 0
0 0
0 0
0 0
0 0
0 0
0 0
0 0
0 0
0 0
0 0
0 0
0 0
0 0
0 0
0 0
0 0
0 0
0 0
0 0
0 0
0 0
0 0
0 0
0 0
0 0
0 0
0 0
0 0
0 0
0 0
0 0
0 0
0 0
0 0
0 0
0 0
0 0
0 0
0 0
0 0
0 0
0 0
0 0
0 0
0 0
0 0
0 0
0 0
0 0
0 0
0 0
0 0
0 0
0 0
0 0
0 0
0 0
0 0
0 0
0 0
0 0
0 0
0 0
0 0
0 0
0 0
0 0
0 0
0 0
0 0
0 0
0 0
0 0
0 0
0 0
0 0
0 0
0 0
0 0
0 0
0 0
0 0
0 0
0 0
0 0
0 0
0 0
0 0
0 0
0 0
0 0
0 0
0 0
0 0
0 0
0 0
0 0
0 0
0 0
0 0
0 0
0 0
0 0
0 0
0 0
0 0
0 0
0 0
0 0
0 0
0 0
0 0
0 0
0 0
0 0
0 0
0 0
0 0
0 0
0 0
0 0
0 0
0 0
0 0
0 0
0 0
0 0
0 0
0 0
0 0
0 0
0 0
0 0
0 0
0 0
0 0
0 0
0 0
0 0
0 0
0 0
0 0
0 0
0 0
0 0
0 0
0 0
0 0
0 0
0 0
0 0
0 0
0 0
0 0
0 0
0 0
0 0
0 0
0 0
0 0
0 0
0 0
0 0
0 0
0 0
0 0
0 0
0 0
0 0
0 0
0 0
0 0
0 0
0 0
0 0
0 0
0 0
0 0
0 0
0 0
0 0
0 0
0 0
0 0
0 0
0 0
0 0
0 0
0 0
0 0
0 0
0 0
0 0
0 0
0 0
0 0
0 0
0 0
0 0
0 0
0 0
0 0
0 0
0 0
0 0
0 0
0 0
0 0
0 0
0 0
0 0
0 0
0 0
0 0
0 0
0 0
0 0
0 0
0 0
0 0
0 0
0 0
0 0
0 0
0 0
0 0
0 0
0 0
0 0
0 0
0 0
0 0
0 0
0 0
0 0
0 0
0 0
0 0
0 0
0 0
0 0
0 0
0 0
0 0
0 0
0 0
0 0
0 0
0 0
0 0
0 0
0 0
0 0
0 0
0 0
0 0
0 0
0 0
0 0
0 0
0 0
0 0
0 0
0 0
0 0
0 0
0 0
0 0
0 0
0 0
0 0
0 0
0 0
0 0
0 0
0 0
0 0
0 0
0 0
0 0
0 0
0 0
0 0
0 0
0 0
0 0
0 0
0 0
0 0
0 0
0 0
0 0
0 0
0 0
0 0
0 0
0 0
0 0
0 0
0 0
0 0
0 0
0 0
0 0
0 0
0 0
0 0
0 0
0 0
0 0
0 0
0 0
0 0
0 0
0 0
0 0
0 0
0 0
0 0
0 0
0 0
0 0
0 0
0 0
0 0
0 0
0 0
0 0
0 0
0 0
0 0
0 0
0 0
0 0
0 0
0 0
0 0
0 0
0 0
0 0
0 0
0 0
0 0
0 0
0 0
0 0
0 0
0 0
0 0
0 0
0 0
0 0
0 0
0 0
0 0
0 0
0 0
0 0
0 0
0 0
0 0
0 0
0 0
0 0
0 0
0 0
0 0
0 0
0 0
0 0
0 0
0 0
0 0
0 0
0 0
0 0
0 0
0 0
0 0
0 0
0 0
0 0
0 0
0 0
0 0
0 0
0 0
0 0
0 0
0 0
0 0
0 0
0 0
0 0
0 0
0 0
0 0
0 0
0 0
0 0
0 0
0 0
0 0
0 0
0 0
0 0
0 0
0 0
0 0
0 0
0 0
0 0
0 0
0 0
0 0
0 0
0 0
0 0
0 0
0 0
0 0
0 0
0 0
0 0
0 0
0 0
0 0
0 0
0 0
0 0
0 0
0 0
0 0
0 0
0 0
0 0
0 0
0 0
0 0
0 0
0 0
0 0
0 0
0 0
0 0
0 0
0 0
0 0
0 0
0 0
0 0
0 0
0 0
0 0
0 0
0 0
0 0
0 0
0 0
0 0
0 0
0 0
0 0
0 0
0 0
0 0
0 0
0 0
0 0
0 0
0 0
0 0
0 0
0 0
0 0
0 0
0 0
0 0
0 0
0 0
0 0
0 0
0 0
0 0
0 0
0 0
0 0
0 0
0 0
0 0
0 0
0 0
0 0
0 0
0 0
0 0
0 0
0 0
0 0
0 0
0 0
0 0
0 0
0 0
0 0
0 0
0 0
0 0
0 0
0 0
0 0
0 0
0 0
0 0
0 0
0 0
0 0
0 0
0 0
0 0
0 0
0 0
0 0
0 0
0 0
0 0
0 0
0 0
0 0
0 0
0 0
0 0
0 0
0 0
0 0
0 0
0 0
0 0
0 0
0 0
0 0
0 0
0 0
0 0
0 0
0 0
0 0
0 0
0 0
0 0
0 0
0 0
0 0
0 0
0 0
0 0
0 0
0 0
0 0
0 0
0 0
0 0
0 0
0 0
0 0
0 0
0 0
0 0
0 0
0 0
0 0
0 0
0 0
0 0
0 0
0 0
0 0
0 0
0 0
0 0
0 0
0 0
0 0
0 0
0 0
0 0
0 0
0 0
0 0
0 0
0 0
0 0
0 0
0 0
0 0
0 0
0 0
0 0
0 0
0 0
0 0
0 0
0 0
0 0
0 0
0 0
0 0
0 0
0 0
0 0
0 0
0 0
0 0
0 0
0 0
0 0
0 0
0 0
0 0
0 0
0 0
0 0
0 0
0 0
0 0
0 0
0 0
0 0
0 0
0 0
0 0
0 0
0 0
0 0
0 0
0 0
0 0
0 0
0 0
0 0
0 0
0 0
0 0
0 0
0 0
0 0
0 0
0 0
0 0
0 0
0 0
0 0
0 0
0 0
0 0
0 0
0 0
0 0
0 0
0 0
0 0
0 0
0 0
0 0
0 0
0 0
0 0
0 0
0 0
0 0
0 0
0 0
0 0
0 0
0 0
0 0
0 0
0 0
0 0
0 0
0 0
0 0
0 0
0 0
0 0
0 0
0 0
0 0
0 0
0 0
0 0
0 0
0 0
0 0
0 0
0 0
0 0
0 0
0 0
0 0
0 0
0 0
0 0
0 0
0 0
0 0
0 0
0 0
0 0
0 0
0 0
0 0
0 0
0 0
0 0
0 0
0 0
0 0
0 0
0 0
0 0
0 0
0 0
0 0
0 0
0 0
0 0
0 0
0 0
0 0
0 0
0 0
0 0
0 0
0 0
0 0
0 0
0 0
0 0
0 0
0 0
0 0
0 0
0 0
0 0
0 0
0 0
0 0
0 0
0 0
0 0
0 0
0 0
0 0
0 0
0 0
0 0
0 0
0 0
0 0
0 0
0 0
0 0
0 0
0 0
0 0
0 0
0 0
0 0
0 0
0 0
0 0
0 0
0 0
0 0
0 0
0 0
0 0
0 0
0 0
0 0
0 0
0 0
0 0
0 0
0 0
0 0
0 0
0 0
0 0
0 0
0 0
0 0
0 0
0 0
0 0
0 0
0 0
0 0
0 0
0 0
0 0
0 0
0 0
0 0
0 0
0 0
0 0
0 0
0 0
0 0
0 0
0 0
0 0
0 0
0 0
0 0
0 0
0 0
0 0
0 0
0 0
0 0
0 0
0 0
0 0
0 0
0 0
0 0
0 0
0 0
0 0
0 0
0 0
0 0
0 0
0 0
0 0
0 0
0 0
0 0
0 0
0 0
0 0
0 0
0 0
0 0
0 0
0 0
0 0
0 0
0 0
0 0
0 0
0 0
0 0
0 0
0 0
0 0
0 0
0 0
0 0
0 0
0 0
0 0
0 0
0 0
0 0
0 0
0 0
0 0
0 0
0 0
0 0
0 0
0 0
0 0
0 0
0 0
0 0
0 0
0 0
0 0
0 0
0 0
0 0
0 0
0 0
0 0
0 0
0 0
0 0
0 0
0 0
0 0
0 0
0 0
0 0
0 0
0 0
0 0
0 0
0 0
0 0
0 0
0 0
0 0
0 0
0 0
0 0
0 0
0 0
0 0
0 0
0 0
0 0
0 0
0 0
0 0
0 0
0 0
0 0
0 0
0 0
0 0
0 0
0 0
0 0
0 0
0 0
0 0
0 0
0 0
0 0
0 0
0 0
0 0
0 0
0 0
0 0
0 0
0 0
0 0
0 0
0 0
0 0
0 0
0 0
0 0
0 0
0 0
0 0
0 0
0 0
0 0
0 0
0 0
0 0
0 0
0 0
0 0
0 0
0 0
0 0
0 0
0 0
0 0
0 0
0 0
0 0
0 0
0 0
0 0
0 0
0 0
0 0
0 0
0 0
0 0
0 0
0 0
0 0
0 0
0 0
0 0
0 0
0 0
0 0
0 0
0 0
0 0
0 0
0 0
0 0
0 0
0 0
0 0
0 0
0 0
0 0
0 0
0 0
0 0
0 0
0 0
0 0
0 0
0 0
0 0
0 0
0 0
0 0
0 0
0 0
0 0
0 0
0 0
0 0
0 0
0 0
0 0
0 0
0 0
0 0
0 0
0 0
0 0
0 0
0 0
0 0
0 0
0 0
0 0
0 0
0 0
0 0
0 0
0 0
0 0
0 0
0 0
0 0
0 0
0 0
0 0
0 0
0 0
0 0
0 0
0 0
0 0
0 0
0 0
0 0
0 0
0 0
0 0
0 0
0 0
0 0
0 0
0 0
0 0
0 0
0 0
0 0
0 0
0 0
0 0
0 0
0 0
0 0
0 0
0 0
0 0
0 0
0 0
0 0
0 0
0 0
0 0
0 0
0 0
0 0
0 0
0 0
0 0
0 0
0 0
0 0
0 0
0 0
0 0
0 0
0 0
0 0
0 0
0 0
0 0
0 0
0 0
0 0
0 0
0 0
0 0
0 0
0 0
0 0
0 0
0 0
0 0
0 0
0 0
0 0
0 0
0 0
0 0
0 0
0 0
0 0
0 0
0 0
0 0
0 0
0 0
0 0
0 0
0 0
0 0
0 0
0 0
0 0
0 0
0 0
0 0
0 0
0 0
0 0
0 0
0 0
0 0
0 0
0 0
0 0
0 0
0 0
0 0
0 0
0 0
0 0
0 0
0 0
0 0
0 0
0 0
0 0
0 0
0 0
0 0
0 0
0 0
0 0
0 0
0 0
0 0
0 0
0 0
0 0
0 0
0 0
0 0
0 0
0 0
0 0
0 0
0 0
0 0
0 0
0 0
0 0
0 0
0 0
0 0
0 0
0 0
0 0
0 0
0 0
0 0
0 0
0 0
0 0
0 0
0 0
0 0
0 0
0 0
0 0
0 0
0 0
0 0
0 0
0 0
0 0
0 0
0 0
0 0
0 0
0 0
0 0
0 0
0 0
0 0
0 0
0 0
0 0
0 0
0 0
0 0
0 0
0 0
0 0
0 0
0 0
0 0
0 0
0 0
0 0
0 0
0 0
0 0
0 0
0 0
0 0
0 0
0 0
0 0
0 0
0 0
0 0
0 0
0 0
0 0
0 0
0 0
0 0
0 0
0 0
0 0
0 0
0 0
0 0
0 0
0 0
0 0
0 0
0 0
0 0
0 0
0 0
0 0
0 0
0 0
0 0
0 0
0 0
0 0
0 0
0 0
0 0
0 0
0 0
0 0
0 0
0 0
0 0
0 0
0 0
0 0
0 0
0 0
0 0
0 0
0 0
0 0
0 0
0 0
0 0
0 0
0 0
0 0
0 0
0 0
0 0
0 0
0 0
0 0
0 0
0 0
0 0
0 0
0 0
0 0
0 0
0 0
0 0
0 0
0 0
0 0
0 0
0 0
0 0
0 0
0 0
0 0
0 0
0 0
0 0
0 0
0 0
0 0
0 0
0 0
0 0
0 0
0 0
0 0
0 0
0 0
0 0
0 0
0 0
0 0
0 0
0 0
0 0
0 0
0 0
0 0
0 0
0 0
0 0
0 0
0 0
0 0
0 0
0 0
0 0
0 0
0 0
0 0
0 0
0 0
0 0
0 0
0 0
0 0
0 0
0 0
0 0
0 0
0 0
0 0
0 0
0 0
0 0
0 0
0 0
0 0
0 0
0 0
0 0
0 0
0 0
0 0
0 0
0 0
0 0
0 0
0 0
0 0
0 0
0 0
0 0
0 0
0 0
0 0
0 0
0 0
0 0
0 0
0 0
0 0
0 0
0 0
0 0
0 0
0 0
0 0
0 0
0 0
0 0
0 0
0 0
0 0
0 0
0 0
0 0
0 0
0 0
0 0
0 0
0 0
0 0
0 0
0 0
0 0
0 0
0 0
0 0
0 0
0 0
0 0
0 0
0 0
0 0
0 0
0 0
0 0
0 0
0 0
0 0
0 0
0 0
0 0
0 0
0 0
0 0
0 0
0 0
0 0
0 0
0 0
0 0
0 0
0 0
0 0
0 0
0 0
0 0
0 0
0 0
0 0
0 0
0 0
0 0
0 0
0 0
0 0
0 0
0 0
0 0
0 0
0 0
0 0
0 0
0 0
0 0
0 0
0 0
0 0
0 0
0 0
0 0
0 0
0 0
0 0
0 0
0 0
0 0
0 0
0 0
0 0
0 0
0 0
0 0
0 0
0 0
0 0
0 0
0 0
0 0
0 0
0 0
0 0
0 0
0 0
0 0
0 0
0 0
0 0
0 0
0 0
0 0
0 0
0 0
0 0
0 0
0 0
0 0
0 0
0 0
0 0
0 0
0 0
0 0
0 0
0 0
0 0
0 0
0 0
0 0
0 0
0 0
0 0
0 0
0 0
0 0
0 0
0 0
0 0
0 0
0 0
0 0
0 0
0 0
0 0
0 0
0 0
0 0
0 0
0 0
0 0
0 0
0 0
0 0
0 0
0 0
0 0
0 0
0 0
0 0
0 0
0 0
0 0
0 0
0 0
0 0
0 0
0 0
0 0
0 0
0 0
0 0
0 0
0 0
0 0
0 0
0 0
0 0
0 0
0 0
0 0
0 0
0 0
0 0
0 0
0 0
0 0
0 0
0 0
0 0
0 0
0 0
0 0
0 0
0 0
0 0
0 0
0 0
0 0
0 0
0 0
0 0
0 0
0 0
0 0
0 0
0 0
0 0
0 0
0 0
0 0
0 0
0 0
0 0
0 0
0 0
0 0
0 0
0 0
0 0
0 0
0 0
0 0
0 0
0 0
0 0
0 0
0 0
0 0
0 0
0 0
0 0
0 0
0 0
0 0
0 0
0 0
0 0
0 0
0 0
0 0
0 0
0 0
0 0
0 0
0 0
0 0
0 0
0 0
0 0
0 0
0 0
0 0
0 0
0 0
0 0
0 0
0 0
0 0
0 0
0 0
0 0
0 0
0 0
0 0
0 0
0 0
0 0
0 0
0 0
0 0
0 0
0 0
0 0
0 0
0 0
0 0
0 0
0 0
0 0
0 0
0 0
0 0
0 0
0 0
0 0
0 0
0 0
0 0
0 0
0 0
0 0
0 0
0 0
0 0
0 0
0 0
0 0
0 0
0 0
0 0
0 0
0 0
0 0
0 0
0 0
0 0
0 0
0 0
0 0
0 0
0 0
0 0
0 0
0 0
0 0
0 0
0 0
0 0
0 0
0 0
0 0
0 0
0 0
0 0
0 0
0 0
0 0
0 0
0 0
0 0
0 0
0 0
0 0
0 0
0 0
0 0
0 0
0 0
0 0
0 0
0 0
0 0
0 0
0 0
0 0
0 0
0 0
0 0
0 0
0 0
0 0
0 0
0 0
0 0
0 0
0 0
0 0
0 0
0 0
0 0
0 0
0 0
0 0
0 0
0 0
0 0
0 0
0 0
0 0
0 0
0 0
0 0
0 0
0 0
0 0
0 0
0 0
0 0
0 0
0 0
0 0
0 0
0 0
0 0
0 0
0 0
0 0
0 0
0 0
0 0
0 0
0 0
0 0
0 0
0 0
0 0
0 0
0 0
0 0
0 0
0 0
0 0
0 0
0 0
0 0
0 0
0 0
0 0
0 0
0 0
0 0
0 0
0 0
0 0
0 0
0 0
0 0
0 0
0 0
0 0
0 0
0 0
0 0
0 0
0 0
0 0
0 0
0 0
0 0
0 0
0 0
0 0
0 0
0 0
0 0
0 0
0 0
0 0
0 0
0 0
0 0
0 0
0 0
0 0
0 0
0 0
0 0
0 0
0 0
0 0
0 0
0 0
0 0
0 0
0 0
0 0
0 0
0 0
0 0
0 0
0 0
0 0
0 0
0 0
0 0
0 0
0 0
0 0
0 0
0 0
0 0
0 0
0 0
0 0
0 0
0 0
0 0
0 0
0 0
0 0
0 0
0 0
0 0
0 0
0 0
0 0
0 0
0 0
0 0
0 0
0 0
0 0
0 0
0 0
0 0
0 0
0 0
0 0
0 0
0 0
0 0
0 0
0 0
0 0
0 0
0 0
0 0
0 0
0 0
0 0
0 0
0 0
0 0
0 0
0 0
0 0
0 0
0 0
0 0
0 0
0 0
0 0
0 0
0 0
0 0
0 0
0 0
0 0
0 0
0 0
0 0
0 0
0 0
0 0
0 0
0 0
0 0
0 0
0 0
0 0
0 0
0 0
0 0
0 0
0 0
0 0
0 0
0 0
0 0
0 0
0 0
0 0
0 0
0 0
0 0
0 0
0 0
0 0
0 0
0 0
0 0
0 0
0 0
0 0
0 0
0 0
0 0
0 0
0 0
0 0
0 0
0 0
0 0
0 0
0 0
0 0
0 0
0 0
0 0
0 0
0 0
0 0
0 0
0 0
0 0
0 0
0 0
0 0
0 0
0 0
0 0
0 0
0 0
0 0
0 0
0 0
0 0
0 0
0 0
0 0
0 0
0 0
0 0
0 0
0 0
0 0
0 0
0 0
0 0
0 0
0 0
0 0
0 0
0 0
0 0
0 0
0 0
0 0
0 0
0 0
0 0
0 0
0 0
0 0
0 0
0 0
0 0
0 0
0 0
0 0
0 0
0 0
0 0
0 0
0 0
0 0
0 0
0 0
0 0
0 0
0 0
0 0
0 0
0 0
0 0
0 0
0 0
0 0
0 0
0 0
0 0
0 0
0 0
0 0
0 0
0 0
0 0
0 0
0 0
0 0
0 0
0 0
0 0
0 0
0 0
0 0
0 0
0 0
0 0
0 0
0 0
0 0
0 0
0 0
0 0
0 0
0 0
0 0
0 0
0 0
0 0
0 0
0 0
0 0
0 0
0 0
0 0
0 0
0 0
0 0
0 0
0 0
0 0
0 0
0 0
0 0
0 0
0 0
0 0
0 0
0 0
0 0
0 0
0 0
0 0
0 0
0 0
0 0
0 0
0 0
0 0
0 0
0 0
0 0
0 0
0 0
0 0
0 0
0 0
0 0
0 0
0 0
0 0
0 0
0 0
0 0
0 0
0 0
0 0
0 0
0 0
0 0
0 0
0 0
0 0
0 0
0 0
0 0
0 0
0 0
0 0
0 0
0 0
0 0
0 0
0 0
0 0
0 0
0 0
0 0
0 0
0 0
0 0
0 0
0 0
0 0
0 0
0 0
0 0
0 0
0 0
0 0
0 0
0 0
0 0
0 0
0 0
0 0
0 0
0 0
0 0
0 0
0 0
0 0
0 0
0 0
0 0
0 0
0 0
0 0
0 0
0 0
0 0
0 0
0 0
0 0
0 0
0 0
0 0
0 0
0 0
0 0
0 0
0 0
0 0
0 0
0 0
0 0
0 0
0 0
0 0
0 0
0 0
0 0
0 0
0 0
0 0
0 0
0 0
0 0
0 0
0 0
0 0
0 0
0 0
0 0
0 0
0 0
0 0
0 0
0 0
0 0
0 0
0 0
0 0
0 0
0 0
0 0
0 0
0 0
0 0
0 0
0 0
0 0
0 0
0 0
0 0
0 0
0 0
0 0
0 0
0 0
0 0
0 0
0 0
0 0
0 0
0 0
0 0
0 0
0 0
0 0
0 0
0 0
0 0
0 0
0 0
0 0
0 0
0 0
0 0
0 0
0 0
0 0
0 0
0 0
0 0
0 0
0 0
0 0
0 0
0 0
0 0
0 0
0 0
0 0
0 0
0 0
0 0
0 0
0 0
0 0
0 0
0 0
0 0
0 0
0 0
0 0
0 0
0 0
0 0
0 0
0 0
0 0
0 0
0 0
0 0
0 0
0 0
0 0
0 0
0 0
0 0
0 0
0 0
0 0
0 0
0 0
0 0
0 0
0 0
0 0
0 0
0 0
0 0
0 0
0 0
0 0
0 0
0 0
0 0
0 0
0 0
0 0
0 0
0 0
0 0
0 0
0 0
0 0
0 0
0 0
0 0
0 0
0 0
0 0
0 0
0 0
0 0
0 0
0 0
0 0
0 0
0 0
0 0
0 0
0 0
0 0
0 0
0 0
0 0
0 0
0 0
0 0
0 0
0 0
0 0
0 0
0 0
0 0
0 0
0 0
0 0
0 0
0 0
0 0
0 0
0 0
0 0
0 0
0 0
0 0
0 0
0 0
0 0
0 0
0 0
0 0
0 0
0 0
0 0
0 0
0 0
0 0
0 0
0 0
0 0
0 0
0 0
0 0
0 0
0 0
0 0
0 0
0 0
0 0
0 0
0 0
0 0
0 0
0 0
0 0
0 0
0 0
0 0
0 0
0 0
0 0
0 0
0 0
0 0
0 0
0 0
0 0
0 0
0 0
0 0
0 0
0 0
0 0
0 0
0 0
0 0
0 0
0 0
0 0
0 0
0 0
0 0
0 0
0 0
0 0
0 0
0 0
0 0
0 0
0 0
0 0
0 0
0 0
0 0
0 0
0 0
0 0
0 0
0 0
0 0
0 0
0 0
0 0
0 0
0 0
0 0
0 0
0 0
0 0
0 0
0 0
0 0
0 0
0 0
0 0
0 0
0 0
0 0
0 0
0 0
0 0
0 0
0 0
0 0
0 0
0 0
0 0
0 0
0 0
0 0
0 0
0 0
0 0
0 0
0 0
0 0
0 0
0 0
0 0
0 0
0 0
0 0
0 0
0 0
0 0
0 0
0 0
0 0
0 0
0 0
0 0
0 0
0 0
0 0
0 0
0 0
0 0
0 0
0 0
0 0
0 0
0 0
0 0
0 0
0 0
0 0
0 0
0 0
0 0
0 0
0 0
0 0
0 0
0 0
0 0
0 0
0 0
0 0
0 0
0 0
0 0
0 0
0 0
0 0
0 0
0 0
0 0
0 0
0 0
0 0
0 0
0 0
0 0
0 0
0 0
0 0
0 0
0 0
0 0
0 0
0 0
0 0
0 0
0 0
0 0
0 0
0 0
0 0
0 0
0 0
0 0
0 0
0 0
0 0
0 0
0 0
0 0
0 0
0 0
0 0
0 0
0 0
0 0
0 0
0 0
0 0
0 0
0 0
0 0
0 0
0 0
0 0
0 0
0 0
0 0
0 0
0 0
0 0
0 0
0 0
0 0
0 0
0 0
0 0
0 0
0 0
0 0
0 0
0 0
0 0
0 0
0 0
0 0
0 0
0 0
0 0
0 0
0 0
0 0
0 0
0 0
0 0
0 0
0 0
0 0
0 0
0 0
0 0
0 0
0 0
0 0
0 0
0 0
0 0
0 0
0 0
0 0
0 0
0 0
0 0
0 0
0 0
0 0
0 0
0 0
0 0
0 0
0 0
0 0
0 0
0 0
0 0
0 0
0 0
0 0
0 0
0 0
0 0
0 0
0 0
0 0
0 0
0 0
0 0
0 0
0 0
0 0
0 0
0 0
0 0
0 0
0 0
0 0
0 0
0 0
0 0
0 0
0 0
0 0
0 0
0 0
0 0
0 0
0 0
0 0
0 0
0 0
0 0
0 0
0 0
0 0
0 0
0 0
0 0
0 0
0 0
0 0
0 0
0 0
0 0
0 0
0 0
0 0
0 0
0 0
0 0
0 0
0 0
0 0
0 0
0 0
0 0
0 0
0 0
0 0
0 0
0 0
0 0
0 0
0 0
0 0
0 0
0 0
0 0
0 0
0 0
0 0
0 0
0 0
0 0
0 0
0 0
0 0
0 0
0 0
0 0
0 0
0 0
0 0
0 0
0 0
0 0
0 0
0 0
0 0
0 0
0 0
0 0
0 0
0 0
0 0
0 0
0 0
0 0
0 0
0 0
0 0
0 0
0 0
0 0
0 0
0 0
0 0
0 0
0 0
0 0
0 0
0 0
0 0
0 0
0 0
0 0
0 0
0 0
0 0
0 0
0 0
0 0
0 0
0 0
0 0
0 0
0 0
0 0
0 0
0 0
0 0
0 0
0 0
0 0
0 0
0 0
0 0
0 0
0 0
0 0
0 0
0 0
0 0
0 0
0 0
0 0
0 0
0 0
0 0
0 0
0 0
0 0
0 0
0 0
0 0
0 0
0 0
0 0
0 0
0 0
0 0
0 0
0 0
0 0
0 0
0 0
0 0
0 0
0 0
0 0
0 0
0 0
0 0
0 0
0 0
0 0
0 0
0 0
0 0
0 0
0 0
0 0
0 0
0 0
0 0
0 0
0 0
0 0
0 0
0 0
0 0
0 0
0 0
0 0
0 0
0 0
0 0
0 0
0 0
0 0
0 0
0 0
0 0
0 0
0 0
0 0
0 0
0 0
0 0
0 0
0 0
0 0
0 0
0 0
0 0
0 0
0 0
0 0
0 0
0 0
0 0
0 0
0 0
0 0
0 0
0 0
0 0
0 0
0 0
0 0
0 0
0 0
0 0
0 0
0 0
0 0
0 0
0 0
0 0
0 0
0 0
0 0
0 0
0 0
0 0
0 0
0 0
0 0
0 0
0 0
0 0
0 0
0 0
0 0
0 0
0 0
0 0
0 0
0 0
0 0
0 0
0 0
0 0
0 0
0 0
0 0
0 0
0 0
0 0
0 0
0 0
0 0
0 0
0 0
0 0
0 0
0 0
0 0
0 0
0 0
0 0
0 0
0 0
0 0
0 0
0 0
0 0
0 0
0 0
0 0
0 0
0 0
0 0
0 0
0 0
0 0
0 0
0 0
0 0
0 0
0 0
0 0
0 0
0 0
0 0
0 0
0 0
0 0
0 0
0 0
0 0
0 0
0 0
0 0
0 0
0 0
0 0
0 0
0 0
0 0
0 0
0 0
0 0
0 0
0 0
0 0
0 0
0 0
0 0
0 0
0 0
0 0
0 0
0 0
0 0
0 0
0 0
0 0
0 0
0 0
0 0
0 0
0 0
0 0
0 0
0 0
0 0
0 0
0 0
0 0
0 0
0 0
0 0
0 0
0 0
0 0
0 0
0 0
0 0
0 0
0 0
0 0
0 0
0 0
0 0
0 0
0 0
0 0
0 0
0 0
0 0
0 0
0 0
0 0
0 0
0 0
0 0
0 0
0 0
0 0
0 0
0 0
0 0
0 0
0 0
0 0
0 0
0 0
0 0
0 0
0 0
0 0
0 0
0 0
0 0
0 0
0 0
0 0
0 0
0 0
0 0
0 0
0 0
0 0
0 0
0 0
0 0
0 0
0 0
0 0
0 0
0 0
0 0
0 0
0 0
0 0
0 0
0 0
0 0
0 0
0 0
0 0
0 0
0 0
0 0
0 0
0 0
0 0
0 0
0 0
0 0
0 0
0 0
0 0
0 0
0 0
0 0
0 0
0 0
0 0
0 0
0 0
0 0
0 0
0 0
0 0
0 0
0 0
0 0
0 0
0 0
0 0
0 0
0 0
0 0
0 0
0 0
0 0
0 0
0 0
0 0
0 0
0 0
0 0
0 0
0 0
0 0
0 0
0 0
0 0
0 0
0 0
0 0
0 0
0 0
0 0
0 0
0 0
0 0
0 0
0 0
0 0
0 0
0 0
0 0
0 0
0 0
0 0
0 0
0 0
0 0
0 0
0 0
0 0
0 0
0 0
0 0
0 0
0 0
0 0
0 0
0 0
0 0
0 0
0 0
0 0
0 0
0 0
0 0
0 0
0 0
0 0
0 0
0 0
0 0
0 0
0 0
0 0
0 0
0 0
0 0
0 0
0 0
0 0
0 0
0 0
0 0
0 0
0 0
0 0
0 0
0 0
0 0
0 0
0 0
0 0
0 0
0 0
0 0
0 0
0 0
0 0
0 0
0 0
0 0
0 0
0 0
0 0
0 0
0 0
0 0
0 0
0 0
0 0
0 0
0 0
0 0
0 0
0 0
0 0
0 0
0 0
0 0
0 0
0 0
0 0
0 0
0 0
0 0
0 0
0 0
0 0
0 0
0 0
0 0
0 0
0 0
0 0
0 0
0 0
0 0
0 0
0 0
0 0
0 0
0 0
0 0
0 0
0 0
0 0
0 0
0 0
0 0
0 0
0 0
0 0
0 0
0 0
0 0
0 0
0 0
0 0
0 0
0 0
0 0
0 0
0 0
0 0
0 0
0 0
0 0
0 0
0 0
0 0
0 0
0 0
0 0
0 0
0 0
0 0
0 0
0 0
0 0
0 0
0 0
0 0
0 0
0 0
0 0
0 0
0 0
0 0
0 0
0 0
0 0
0 0
0 0
0 0
0 0
0 0
0 0
0 0
0 0
0 0
0 0
0 0
0 0
0 0
0 0
0 0
0 0
0 0
0 0
0 0
0 0
0 0
0 0
0 0
0 0
0 0
0 0
0 0
0 0
0 0
0 0
0 0
0 0
0 0
0 0
0 0
0 0
0 0
0 0
0 0
0 0
0 0
0 0
0 0
0 0
0 0
0 0
0 0
0 0
0 0
0 0
0 0
0 0
0 0
0 0
0 0
0 0
0 0
0 0
0 0
0 0
0 0
0 0
0 0
0 0
0 0
0 0
0 0
0 0
0 0
0 0
0 0
0 0
0 0
0 0
0 0
0 0
0 0
0 0
0 0
0 0
0 0
0 0
0 0
0 0
0 0
0 0
0 0
0 0
0 0
0 0
0 0
0 0
0 0
0 0
0 0
0 0
0 0
0 0
0 0
0 0
0 0
0 0
0 0
0 0
0 0
0 0
0 0
0 0
0 0
0 0
0 0
0 0
0 0
0 0
0 0
0 0
0 0
0 0
0 0
0 0
0 0
0 0
0 0
0 0
0 0
0 0
0 0
0 0
0 0
0 0
0 0
0 0
0 0
0 0
0 0
0 0
0 0
0 0
0 0
0 0
0 0
0 0
0 0
0 0
0 0
0 0
0 0
0 0
0 0
0 0
0 0
0 0
0 0
0 0
0 0
0 0
0 0
0 0
0 0
0 0
0 0
0 0
0 0
0 0
0 0
0 0
0 0
0 0
0 0
0 0
0 0
0 0
0 0
0 0
0 0
0 0
0 0
0 0
0 0
0 0
0 0
0 0
0 0
0 0
0 0
0 0
0 0
0 0
0 0
0 0
0 0
0 0
0 0
0 0
0 0
0 0
0 0
0 0
0 0
0 0
0 0
0 0
0 0
0 0
0 0
0 0
0 0
0 0
0 0
0 0
0 0
0 0
0 0
0 0
0 0
0 0
0 0
0 0
0 0
0 0
0 0
0 0
0 0
0 0
0 0
0 0
0 0
0 0
0 0
0 0
0 0
0 0
0 0
0 0
0 0
0 0
0 0
0 0
0 0
0 0
0 0
0 0
0 0
0 0
0 0
0 0
0 0
0 0
0 0
0 0
0 0
0 0
0 0
0 0
0 0
0 0
0 0
0 0
0 0
0 0
0 0
0 0
0 0
0 0
0 0
0 0
0 0
0 0
0 0
0 0
0 0
0 0
0 0
0 0
0 0
0 0
0 0
0 0
0 0
0 0
0 0
0 0
0 0
0 0
0 0
0 0
0 0
0 0
0 0
0 0
0 0
0 0
0 0
0 0
0 0
0 0
0 0
0 0
0 0
0 0
0 0
0 0
0 0
0 0
0 0
0 0
0 0
0 0
0 0
0 0
0 0
0 0
0 0
0 0
0 0
0 0
0 0
0 0
0 0
0 0
0 0
0 0
0 0
0 0
0 0
0 0
0 0
0 0
0 0
0 0
0 0
0 0
0 0
0 0
0 0
0 0
0 0
0 0
0 0
0 0
0 0
0 0
0 0
0 0
0 0
0 0
0 0
0 0
0 0
0 0
0 0
0 0
0 0
0 0
0 0
0 0
0 0
0 0
0 0
0 0
0 0
0 0
0 0
0 0
0 0
0 0
0 0
0 0
0 0
0 0
0 0
0 0
0 0
0 0
0 0
0 0
0 0
0 0
0 0
0 0
0 0
0 0
0 0
0 0
0 0
0 0
0 0
0 0
0 0
0 0
0 0
0 0
0 0
0 0
0 0
0 0
0 0
0 0
0 0
0 0
0 0
0 0
0 0
0 0
0 0
0 0
0 0
0 0
0 0
0 0
0 0
0 0
0 0
0 0
0 0
0 0
0 0
0 0
0 0
0 0
0 0
0 0
0 0
0 0
0 0
0 0
0 0
0 0
0 0
0 0
0 0
0 0
0 0
0 0
0 0
0 0
0 0
0 0
0 0
0 0
0 0
0 0
0 0
0 0
0 0
0 0
0 0
0 0
0 0
0 0
0 0
0 0
0 0
0 0
0 0
0 0
0 0
0 0
0 0
0 0
0 0
0 0
0 0
0 0
0 0
0 0
0 0
0 0
0 0
0 0
0 0
0 0
0 0
0 0
0 0
0 0
0 0
0 0
0 0
0 0
0 0
0 0
0 0
0 0
0 0
0 0
0 0
0 0
0 0
0 0
0 0
0 0
0 0
0 0
0 0
0 0
0 0
0 0
0 0
0 0
0 0
0 0
0 0
0 0
0 0
0 0
0 0
0 0
0 0
0 0
0 0
0 0
0 0
0 0
0 0
0 0
0 0
0 0
0 0
0 0
0 0
0 0
0 0
0 0
0 0
0 0
0 0
0 0
0 0
0 0
0 0
0 0
0 0
0 0
0 0
0 0
0 0
0 0
0 0
0 0
0 0
0 0
0 0
0 0
0 0
0 0
0 0
0 0
0 0
0 0
0 0
0 0
0 0
0 0
0 0
0 0
0 0
0 0
0 0
0 0
0 0
0 0
0 0
0 0
0 0
0 0
0 0
0 0
0 0
0 0
0 0
0 0
0 0
0 0
0 0
0 0
0 0
0 0
0 0
0 0
0 0
0 0
0 0
0 0
0 0
0 0
0 0
0 0
0 0
0 0
0 0
0 0
0 0
0 0
0 0
0 0
0 0
0 0
0 0
0 0
0 0
0 0
0 0
0 0
0 0
0 0
0 0
0 0
0 0
0 0
0 0
0 0
0 0
0 0
0 0
0 0
0 0
0 0
0 0
0 0
0 0
0 0
0 0
0 0
0 0
0 0
0 0
0 0
0 0
0 0
0 0
0 0
0 0
0 0
0 0
0 0
0 0
0 0
0 0
0 0
0 0
0 0
0 0
0 0
0 0
0 0
0 0
0 0
0 0
0 0
0 0
0 0
0 0
0 0
0 0
0 0
0 0
0 0
0 0
0 0
0 0
0 0
0 0
0 0
0 0
0 0
0 0
0 0
0 0
0 0
0 0
0 0
0 0
0 0
0 0
0 0
0 0
0 0
0 0
0 0
0 0
0 0
0 0
0 0
0 0
0 0
0 0
0 0
0 0
0 0
0 0
0 0
0 0
0 0
0 0
0 0
0 0
0 0
0 0
0 0
0 0
0 0
0 0
0 0
0 0
0 0
0 0
0 0
0 0
0 0
0 0
0 0
0 0
0 0
0 0
0 0
0 0
0 0
0 0
0 0
0 0
0 0
0 0
0 0
0 0
0 0
0 0
0 0
0 0
0 0
0 0
0 0
0 0
0 0
0 0
0 0
0 0
0 0
0 0
0 0
0 0
0 0
0 0
0 0
0 0
0 0
0 0
0 0
0 0
0 0
0 0
0 0
0 0
0 0
0 0
0 0
0 0
0 0
0 0
0 0
0 0
0 0
0 0
0 0
0 0
0 0
0 0
0 0
0 0
0 0
0 0
0 0
0 0
0 0
0 0
0 0
0 0
0 0
0 0
0 0
0 0
0 0
0 0
0 0
0 0
0 0
0 0
0 0
0 0
0 0
0 0
0 0
0 0
0 0
0 0
0 0
0 0
0 0
0 0
0 0
0 0
0 0
0 0
0 0
0 0
0 0
0 0
0 0
0 0
0 0
0 0
0 0
0 0
0 0
0 0
0 0
0 0
0 0
0 0
0 0
0 0
0 0
0 0
0 0
0 0
0 0
0 0
0 0
0 0
0 0
0 0
0 0
0 0
0 0
0 0
0 0
0 0
0 0
0 0
0 0
0 0
0 0
0 0
0 0
0 0
0 0
0 0
0 0
0 0
0 0
0 0
0 0
0 0
0 0
0 0
0 0
0 0
0 0
0 0
0 0
0 0
0 0
0 0
0 0
0 0
0 0
0 0
0 0
0 0
0 0
0 0
0 0
0 0
0 0
0 0
0 0
0 0
0 0
0 0
0 0
0 0
0 0
0 0
0 0
0 0
0 0
0 0
0 0
0 0
0 0
0 0
0 0
0 0
0 0
0 0
0 0
0 0
0 0
0 0
0 0
0 0
0 0
0 0
0 0
0 0
0 0
0 0
0 0
0 0
0 0
0 0
0 0
0 0
0 0
0 0
0 0
0 0
0 0
0 0
0 0
0 0
0 0
0 0
0 0
0 0
0 0
0 0
0 0
0 0
0 0
0 0
0 0
0 0
0 0
0 0
0 0
0 0
0 0
0 0
0 0
0 0
0 0
0 0
0 0
0 0
0 0
0 0
0 0
0 0
0 0
0 0
0 0
0 0
0 0
0 0
0 0
0 0
0 0
0 0
0 0
0 0
0 0
0 0
0 0
0 0
0 0
0 0
0 0
0 0
0 0
0 0
0 0
0 0
0 0
0 0
0 0
0 0
0 0
0 0
0 0
0 0
0 0
0 0
0 0
0 0
0 0
0 0
0 0
0 0
0 0
0 0
0 0
0 0
0 0
0 0
0 0
0 0
0 0
0 0
0 0
0 0
0 0
0 0
0 0
0 0
0 0
0 0
0 0
0 0
0 0
0 0
0 0
0 0
0 0
0 0
0 0
0 0
0 0
0 0
0 0
0 0
0 0
0 0
0 0
0 0
0 0
0 0
0 0
0 0
0 0
0 0
0 0
0 0
0 0
0 0
0 0
0 0
0 0
0 0
0 0
0 0
0 0
0 0
0 0
0 0
0 0
0 0
0 0
0 0
0 0
0 0
0 0
0 0
0 0
0 0
0 0
0 0
0 0
0 0
0 0
0 0
0 0
0 0
0 0
0 0
0 0
0 0
0 0
0 0
0 0
0 0
0 0
0 0
0 0
0 0
0 0
0 0
0 0
0 0
0 0
0 0
0 0
0 0
0 0
0 0
0 0
0 0
0 0
0 0
0 0
0 0
0 0
0 0
0 0
0 0
0 0
0 0
0 0
0 0
0 0
0 0
0 0
0 0
0 0
0 0
0 0
0 0
0 0
0 0
0 0
0 0
0 0
0 0
0 0
0 0
0 0
0 0
0 0
0 0
0 0
0 0
0 0
0 0
0 0
0 0
0 0
0 0
0 0
0 0
0 0
0 0
0 0
0 0
0 0
0 0
0 0
0 0
0 0
0 0
0 0
0 0
0 0
0 0
0 0
0 0
0 0
0 0
0 0
0 0
0 0
0 0
0 0
0 0
0 0
0 0
0 0
0 0
0 0
0 0
0 0
0 0
0 0
0 0
0 0
0 0
0 0
0 0
0 0
0 0
0 0
0 0
0 0
0 0
0 0
0 0
0 0
0 0
0 0
0 0
0 0
0 0
0 0
0 0
0 0
0 0
0 0
0 0
0 0
0 0
0 0
0 0
0 0
0 0
0 0
0 0
0 0
0 0
0 0
0 0
0 0
0 0
0 0
0 0
0 0
0 0
0 0
0 0
0 0
0 0
0 0
0 0
0 0
0 0
0 0
0 0
0 0
0 0
0 0
0 0
0 0
0 0
0 0
0 0
0 0
0 0
0 0
0 0
0 0
0 0
0 0
0 0
0 0
0 0
0 0
0 0
0 0
0 0
0 0
0 0
0 0
0 0
0 0
0 0
0 0
0 0
0 0
0 0
0 0
0 0
0 0
0 0
0 0
0 0
0 0
0 0
0 0
0 0
0 0
0 0
0 0
0 0
0 0
0 0
0 0
0 0
0 0
0 0
0 0
0 0
0 0
0 0
0 0
0 0
0 0
0 0
0 0
0 0
0 0
0 0
0 0
0 0
0 0
0 0
0 0
0 0
0 0
0 0
0 0
0 0
0 0
0 0
0 0
0 0
0 0
0 0
0 0
0 0
0 0
0 0
0 0
0 0
0 0
0 0
0 0
0 0
0 0
0 0
0 0
0 0
0 0
0 0
0 0
0 0
0 0
0 0
0 0
0 0
0 0
0 0
0 0
0 0
0 0
0 0
0 0
0 0
0 0
0 0
0 0
0 0
0 0
0 0
0 0
0 0
0 0
0 0
0 0
0 0
0 0
0 0
0 0
0 0
0 0
0 0
0 0
0 0
0 0
0 0
0 0
0 0
0 0
0 0
0 0
0 0
0 0
0 0
0 0
0 0
0 0
0 0
0 0
0 0
0 0
0 0
0 0
0 0
0 0
0 0
0 0
0 0
0 0
0 0
0 0
0 0
0 0
0 0
0 0
0 0
0 0
0 0
0 0
0 0
0 0
0 0
0 0
0 0
0 0
0 0
0 0
0 0
0 0
0 0
0 0
0 0
0 0
0 0
0 0
0 0
0 0
0 0
0 0
0 0
0 0
0 0
0 0
0 0
0 0
0 0
0 0
0 0
0 0
0 0
0 0
0 0
0 0
0 0
0 0
0 0
0 0
0 0
0 0
0 0
0 0
0 0
0 0
0 0
0 0
0 0
0 0
0 0
0 0
0 0
0 0
0 0
0 0
0 0
0 0
0 0
0 0
0 0
0 0
0 0
0 0
0 0
0 0
0 0
0 0
0 0
0 0
0 0
0 0
0 0
0 0
0 0
0 0
0 0
0 0
0 0
0 0
0 0
0 0
0 0
0 0
0 0
0 0
0 0
0 0
0 0
0 0
0 0
0 0
0 0
0 0
0 0
0 0
0 0
0 0
0 0
0 0
0 0
0 0
0 0
0 0
0 0
0 0
0 0
0 0
0 0
0 0
0 0
0 0
0 0
0 0
0 0
0 0
0 0
0 0
0 0
0 0
0 0
0 0
0 0
0 0
0 0
0 0
0 0
0 0
0 0
0 0
0 0
0 0
0 0
0 0
0 0
0 0
0 0
0 0
0 0
0 0
0 0
0 0
0 0
0 0
0 0
0 0
0 0
0 0
0 0
0 0
0 0
0 0
0 0
0 0
0 0
0 0
0 0
0 0
0 0
0 0
0 0
0 0
0 0
0 0
0 0
0 0
0 0
0 0
0 0
0 0
0 0
0 0
0 0
0 0
0 0
0 0
0 0
0 0
0 0
0 0
0 0
0 0
0 0
0 0
0 0
0 0
0 0
0 0
0 0
0 0
0 0
0 0
0 0
0 0
0 0
0 0
0 0
0 0
0 0
0 0
0 0
0 0
0 0
0 0
0 0
0 0
0 0
0 0
0 0
0 0
0 0
0 0
0 0
0 0
0 0
0 0
0 0
0 0
0 0
0 0
0 0
0 0
0 0
0 0
0 0
0 0
0 0
0 0
0 0
0 0
0 0
0 0
0 0
0 0
0 0
0 0
0 0
0 0
0 0
0 0
0 0
0 0
0 0
0 0
0 0
0 0
0 0
0 0
0 0
0 0
0 0
0 0
0 0
0 0
0 0
0 0
0 0
0 0
0 0
0 0
0 0
0 0
0 0
0 0
0 0
0 0
0 0
0 0
0 0
0 0
0 0
0 0
0 0
0 0
0 0
0 0
0 0
0 0
0 0
0 0
0 0
0 0
0 0
0 0
0 0
0 0
0 0
0 0
0 0
0 0
0 0
0 0
0 0
0 0
0 0
0 0
0 0
0 0
0 0
0 0
0 0
0 0
0 0
0 0
0 0
0 0
0 0
0 0
0 0
0 0
0 0
0 0
0 0
0 0
0 0
0 0
0 0
0 0
0 0
0 0
0 0
0 0
0 0
0 0
0 0
0 0
0 0
0 0
0 0
0 0
0 0
0 0
0 0
0 0
0 0
0 0
0 0
0 0
0 0
0 0
0 0
0 0
0 0
0 0
0 0
0 0
0 0
0 0
0 0
0 0
0 0
0 0
0 0
0 0
0 0
0 0
0 0
0 0
0 0
0 0
0 0
0 0
0 0
0 0
0 0
0 0
0 0
0 0
0 0
0 0
0 0
0 0
0 0
0 0
0 0
0 0
0 0
0 0
0 0
0 0
0 0
0 0
0 0
0 0
0 0
0 0
0 0
0 0
0 0
0 0
0 0
0 0
0 0
0 0
0 0
0 0
0 0
0 0
0 0
0 0
0 0
0 0
0 0
0 0
0 0
0 0
0 0
0 0
0 0
0 0
0 0
0 0
0 0
0 0
0 0
0 0
0 0
0 0
0 0
0 0
0 0
0 0
0 0
0 0
0 0
0 0
0 0
0 0
0 0
0 0
0 0
0 0
0 0
0 0
0 0
0 0
0 0
0 0
0 0
0 0
0 0
0 0
0 0
0 0
0 0
0 0
0 0
0 0
0 0
0 0
0 0
0 0
0 0
0 0
0 0
0 0
0 0
0 0
0 0
0 0
0 0
0 0
0 0
0 0
0 0
0 0
0 0
0 0
0 0
0 0
0 0
0 0
0 0
0 0
0 0
0 0
0 0
0 0
0 0
0 0
0 0
0 0
0 0
0 0
0 0
0 0
0 0
0 0
0 0
0 0
0 0
0 0
0 0
0 0
0 0
0 0
0 0
0 0
0 0
0 0
0 0
0 0
0 0
0 0
0 0
0 0
0 0
0 0
0 0
0 0
0 0
0 0
0 0
0 0
0 0
0 0
0 0
0 0
0 0
0 0
0 0
0 0
0 0
0 0
0 0
0 0
0 0
0 0
0 0
0 0
0 0
0 0
0 0
0 0
0 0
0 0
0 0
0 0
0 0
0 0
0 0
0 0
0 0
0 0
0 0
0 0
0 0
0 0
0 0
0 0
0 0
0 0
0 0
0 0
0 0
0 0
0 0
0 0
0 0
0 0
0 0
0 0
0 0
0 0
0 0
0 0
0 0
0 0
0 0
0 0
0 0
0 0
0 0
0 0
0 0
0 0
0 0
0 0
0 0
0 0
0 0
0 0
0 0
0 0
0 0
0 0
0 0
0 0
0 0
0 0
0 0
0 0
0 0
0 0
0 0
0 0
0 0
0 0
0 0
0 0
0 0
0 0
0 0
0 0
0 0
0 0
0 0
0 0
0 0
0 0
0 0
0 0
0 0
0 0
0 0
0 0
0 0
0 0
0 0
0 0
0 0
0 0
0 0
0 0
0 0
0 0
0 0
0 0
0 0
0 0
0 0
0 0
0 0
0 0
0 0
0 0
0 0
0 0
0 0
0 0
0 0
0 0
0 0
0 0
0 0
0 0
0 0
0 0
0 0
0 0
0 0
0 0
0 0
0 0
0 0
0 0
0 0
0 0
0 0
0 0
0 0
0 0
0 0
0 0
0 0
0 0
0 0
0 0
0 0
0 0
0 0
0 0
0 0
0 0
0 0
0 0
0 0
0 0
0 0
0 0
0 0
0 0
0 0
0 0
0 0
0 0
0 0
0 0
0 0
0 0
0 0
0 0
0 0
0 0
0 0
0 0
0 0
0 0
0 0
0 0
0 0
0 0
0 0
0 0
0 0
0 0
0 0
0 0
0 0
0 0
0 0
0 0
0 0
0 0
0 0
0 0
0 0
0 0
0 0
0 0
0 0
0 0
0 0
0 0
0 0
0 0
0 0
0 0
0 0
0 0
0 0
0 0
0 0
0 0
0 0
0 0
0 0
0 0
0 0
0 0
0 0
0 0
0 0
0 0
0 0
0 0
0 0
0 0
0 0
0 0
0 0
0 0
0 0
0 0
0 0
0 0
0 0
0 0
0 0
0 0
0 0
0 0
0 0
0 0
0 0
0 0
0 0
0 0
0 0
0 0
0 0
0 0
0 0
0 0
0 0
0 0
0 0
0 0
0 0
0 0
0 0
0 0
0 0
0 0
0 0
0 0
0 0
0 0
0 0
0 0
0 0
0 0
0 0
0 0
0 0
0 0
0 0
0 0
0 0
0 0
0 0
0 0
0 0
0 0
0 0
0 0
0 0
0 0
0 0
0 0
0 0
0 0
0 0
0 0
0 0
0 0
0 0
0 0
0 0
0 0
0 0
0 0
0 0
0 0
0 0
0 0
0 0
0 0
0 0
0 0
0 0
0 0
0 0
0 0
0 0
0 0
0 0
0 0
0 0
0 0
0 0
0 0
0 0
0 0
0 0
0 0
0 0
0 0
0 0
0 0
0 0
0 0
0 0
0 0
0 0
0 0
0 0
0 0
0 0
0 0
0 0
0 0
0 0
0 0
0 0
0 0
0 0
0 0
0 0
0 0
0 0
0 0
0 0
0 0
0 0
0 0
0 0
0 0
0 0
0 0
0 0
0 0
0 0
0 0
0 0
0 0
0 0
0 0
0 0
0 0
0 0
0 0
0 0
0 0
0 0
0 0
0 0
0 0
0 0
0 0
0 0
0 0
0 0
0 0
0 0
0 0
0 0
0 0
0 0
0 0
0 0
0 0
0 0
0 0
0 0
0 0
0 0
0 0
0 0
0 0
0 0
0 0
0 0
0 0
0 0
0 0
0 0
0 0
0 0
0 0
0 0
0 0
0 0
0 0
0 0
0 0
0 0
0 0
0 0
0 0
0 0
0 0
0 0
0 0
0 0
0 0
0 0
0 0
0 0
0 0
0 0
0 0
0 0
0 0
0 0
0 0
0 0
0 0
0 0
0 0
0 0
0 0
0 0
0 0
0 0
0 0
0 0
0 0
0 0
0 0
0 0
0 0
0 0
0 0
0 0
0 0
0 0
0 0
0 0
0 0
0 0
0 0
0 0
0 0
0 0
0 0
0 0
0 0
0 0
0 0
0 0
0 0
0 0
0 0
0 0
0 0
0 0
0 0
0 0
0 0
0 0
0 0
0 0
0 0
0 0
0 0
0 0
0 0
0 0
0 0
0 0
0 0
0 0
0 0
0 0
0 0
0 0
0 0
0 0
0 0
0 0
0 0
0 0
0 0
0 0
0 0
0 0
0 0
0 0
0 0
0 0
0 0
0 0
0 0
0 0
0 0
0 0
0 0
0 0
0 0
0 0
0 0
0 0
0 0
0 0
0 0
0 0
0 0
0 0
0 0
0 0
0 0
0 0
0 0
0 0
0 0
0 0
0 0
0 0
0 0
0 0
0 0
0 0
0 0
0 0
0 0
0 0
0 0
0 0
0 0
0 0
0 0
0 0
0 0
0 0
0 0
0 0
0 0
0 0
0 0
0 0
0 0
0 0
0 0
0 0
0 0
0 0
0 0
0 0
0 0
0 0
0 0
0 0
0 0
0 0
0 0
0 0
0 0
0 0
0 0
0 0
0 0
0 0
0 0
0 0
0 0
0 0
0 0
0 0
0 0
0 0
0 0
0 0
0 0
0 0
0 0
0 0
0 0
0 0
0 0
0 0
0 0
0 0
0 0
0 0
0 0
0 0
0 0
0 0
0 0
0 0
0 0
0 0
0 0
0 0
0 0
0 0
0 0
0 0
0 0
0 0
0 0
0 0
0 0
0 0
0 0
0 0
0 0
0 0
0 0
0 0
0 0
0 0
0 0
0 0
0 0
0 0
0 0
0 0
0 0
0 0
0 0
0 0
0 0
0 0
0 0
0 0
0 0
0 0
0 0
0 0
0 0
0 0
0 0
0 0
0 0
0 0
0 0
0 0
0 0
0 0
0 0
0 0
0 0
0 0
0 0
0 0
0 0
0 0
0 0
0 0
0 0
0 0
0 0
0 0
0 0
0 0
0 0
0 0
0 0
0 0
0 0
0 0
0 0
0 0
0 0
0 0
0 0
0 0
0 0
0 0
0 0
0 0
0 0
0 0
0 0
0 0
0 0
0 0
0 0
0 0
0 0
0 0
0 0
0 0
0 0
0 0
0 0
0 0
0 0
0 0
0 0
0 0
0 0
0 0
0 0
0 0
0 0
0 0
0 0
0 0
0 0
0 0
0 0
0 0
0 0
0 0
0 0
0 0
0 0
0 0
0 0
0 0
0 0
0 0
0 0
0 0
0 0
0 0
0 0
0 0
0 0
0 0
0 0
0 0
0 0
0 0
0 0
0 0
0 0
0 0
0 0
0 0
0 0
0 0
0 0
0 0
0 0
0 0
0 0
0 0
0 0
0 0
0 0
0 0
0 0
0 0
0 0
0 0
0 0
0 0
0 0
0 0
0 0
0 0
0 0
0 0
0 0
0 0
0 0
0 0
0 0
0 0
0 0
0 0
0 0
0 0
0 0
0 0
0 0
0 0
0 0
0 0
0 0
0 0
0 0
0 0
0 0
0 0
0 0
0 0
0 0
0 0
0 0
0 0
0 0
0 0
0 0
0 0
0 0
0 0
0 0
0 0
0 0
0 0
0 0
0 0
0 0
0 0
0 0
0 0
0 0
0 0
0 0
0 0
0 0
0 0
0 0
0 0
0 0
0 0
0 0
0 0
0 0
0 0
0 0
0 0
0 0
0 0
0 0
0 0
0 0
0 0
0 0
0 0
0 0
0 0
0 0
0 0
0 0
0 0
0 0
0 0
0 0
0 0
0 0
0 0
0 0
0 0
0 0
0 0
0 0
0 0
0 0
0 0
0 0
0 0
0 0
0 0
0 0
0 0
0 0
0 0
0 0
0 0
0 0
0 0
0 0
0 0
0 0
0 0
0 0
0 0
0 0
0 0
0 0
0 0
0 0
0 0
0 0
0 0
0 0
0 0
0 0
0 0
0 0
0 0
0 0
0 0
0 0
0 0
0 0
0 0
0 0
0 0
0 0
0 0
0 0
0 0
0 0
0 0
0 0
0 0
0 0
0 0
0 0
0 0
0 0
0 0
0 0
0 0
0 0
0 0
0 0
0 0
0 0
0 0
0 0
0 0
0 0
0 0
0 0
0 0
0 0
0 0
0 0
0 0
0 0
0 0
0 0
0 0
0 0
0 0
0 0
0 0
0 0
0 0
0 0
0 0
0 0
0 0
0 0
0 0
0 0
0 0
0 0
0 0
0 0
0 0
0 0
0 0
0 0
0 0
0 0
0 0
0 0
0 0
0 0
0 0
0 0
0 0
0 0
0 0
0 0
0 0
0 0
0 0
0 0
0 0
0 0
0 0
0 0
0 0
0 0
0 0
0 0
0 0
0 0
0 0
0 0
0 0
0 0
0 0
0 0
0 0
0 0
0 0
0 0
0 0
0 0
0 0
0 0
0 0
0 0
0 0
0 0
0 0
0 0
0 0
0 0
0 0
0 0
0 0
0 0
0 0
0 0
0 0
0 0
0 0
0 0
0 0
0 0
0 0
0 0
0 0
0 0
0 0
0 0
0 0
0 0
0 0
0 0
0 0
0 0
0 0
0 0
0 0
0 0
0 0
0 0
0 0
0 0
0 0
0 0
0 0
0 0
0 0
0 0
0 0
0 0
0 0
0 0
0 0
0 0
0 0
0 0
0 0
0 0
0 0
0 0
0 0
0 0
0 0
0 0
0 0
0 0
0 0
0 0
0 0
0 0
0 0
0 0
0 0
0 0
0 0
0 0
0 0
0 0
0 0
0 0
0 0
0 0
0 0
0 0
0 0
0 0
0 0
0 0
0 0
0 0
0 0
0 0
0 0
0 0
0 0
0 0
0 0
0 0
0 0
0 0
0 0
0 0
0 0
0 0
0 0
0 0
0 0
0 0
0 0
0 0
0 0
0 0
0 0
0 0
0 0
0 0
0 0
0 0
0 0
0 0
0 0
0 0
0 0
0 0
0 0
0 0
0 0
0 0
0 0
0 0
0 0
0 0
0 0
0 0
0 0
0 0
0 0
0 0
0 0
0 0
0 0
0 0
0 0
0 0
0 0
0 0
0 0
0 0
0 0
0 0
0 0
0 0
0 0
0 0
0 0
0 0
0 0
0 0
0 0
0 0
0 0
0 0
0 0
0 0
0 0
0 0
0 0
0 0
0 0
0 0
0 0
0 0
0 0
0 0
0 0
0 0
0 0
0 0
0 0
0 0
0 0
0 0
0 0
0 0
0 0
0 0
0 0
0 0
0 0
0 0
0 0
0 0
0 0
0 0
0 0
0 0
0 0
0 0
0 0
0 0
0 0
0 0
0 0
0 0
0 0
0 0
0 0
0 0
0 0
0 0
0 0
0 0
0 0
0 0
0 0
0 0
0 0
0 0
0 0
0 0
0 0
0 0
0 0
0 0
0 0
0 0
0 0
0 0
0 0
0 0
0 0
0 0
0 0
0 0
0 0
0 0
0 0
0 0
0 0
0 0
0 0
0 0
0 0
0 0
0 0
0 0
0 0
0 0
0 0
0 0
0 0
0 0
0 0
0 0
0 0
0 0
0 0
0 0
0 0
0 0
0 0
0 0
0 0
0 0
0 0
0 0
0 0
0 0
0 0
0 0
0 0
0 0
0 0
0 0
0 0
0 0
0 0
0 0
0 0
0 0
0 0
0 0
0 0
0 0
0 0
0 0
0 0
0 0
0 0
0 0
0 0
0 0
0 0
0 0
0 0
0 0
0 0
0 0
0 0
0 0
0 0
0 0
0 0
0 0
0 0
0 0
0 0
0 0
0 0
0 0
0 0
0 0
0 0
0 0
0 0
0 0
0 0
0 0
0 0
0 0
0 0
0 0
0 0
0 0
0 0
0 0
0 0
0 0
0 0
0 0
0 0
0 0
0 0
0 0
0 0
0 0
0 0
0 0
0 0
0 0
0 0
0 0
0 0
0 0
0 0
0 0
0 0
0 0
0 0
0 0
0 0
0 0
0 0
0 0
0 0
0 0
0 0
0 0
0 0
0 0
0 0
0 0
0 0
0 0
0 0
0 0
0 0
0 0
0 0
0 0
0 0
0 0
0 0
0 0
0 0
0 0
0 0
0 0
0 0
0 0
0 0
0 0
0 0
0 0
0 0
0 0
0 0
0 0
0 0
0 0
0 0
0 0
0 0
0 0
0 0
0 0
0 0
0 0
0 0
0 0
0 0
0 0
0 0
0 0
0 0
0 0
0 0
0 0
0 0
0 0
0 0
0 0
0 0
0 0
0 0
0 0
0 0
0 0
0 0
0 0
0 0
0 0
0 0
0 0
0 0
0 0
0 0
0 0
0 0
0 0
0 0
0 0
0 0
0 0
0 0
0 0
0 0
0 0
0 0
0 0
0 0
0 0
0 0
0 0
0 0
0 0
0 0
0 0
0 0
0 0
0 0
0 0
0 0
0 0
0 0
0 0
0 0
0 0
0 0
0 0
0 0
0 0
0 0
0 0
0 0
0 0
0 0
0 0
0 0
0 0
0 0
0 0
0 0
0 0
0 0
0 0
0 0
0 0
0 0
0 0
0 0
0 0
0 0
0 0
0 0
0 0
0 0
0 0
0 0
0 0
0 0
0 0
0 0
0 0
0 0
0 0
0 0
0 0
0 0
0 0
0 0
0 0
0 0
0 0
0 0
0 0
0 0
0 0
0 0
0 0
0 0
0 0
0 0
0 0
0 0
0 0
0 0
0 0
0 0
0 0
0 0
0 0
0 0
0 0
0 0
0 0
0 0
0 0
0 0
0 0
0 0
0 0
0 0
0 0
0 0
0 0
0 0
0 0
0 0
0 0
0 0
0 0
0 0
0 0
0 0
0 0
0 0
0 0
0 0
0 0
0 0
0 0
0 0
0 0
0 0
0 0
0 0
0 0
0 0
0 0
0 0
0 0
0 0
0 0
0 0
0 0
0 0
0 0
0 0
0 0
0 0
0 0
0 0
0 0
0 0
0 0
0 0
0 0
0 0
0 0
0 0
0 0
0 0
0 0
0 0
0 0
0 0
0 0
0 0
0 0
0 0
0 0
0 0
0 0
0 0
0 0
0 0
0 0
0 0
0 0
0 0
0 0
0 0
0 0
0 0
0 0
0 0
0 0
0 0
0 0
0 0
0 0
0 0
0 0
0 0
0 0
0 0
0 0
0 0
0 0
0 0
0 0
0 0
0 0
0 0
0 0
0 0
0 0
0 0
0 0
0 0
0 0
0 0
0 0
0 0
0 0
0 0
0 0
0 0
0 0
0 0
0 0
0 0
0 0
0 0
0 0
0 0
0 0
0 0
0 0
0 0
0 0
0 0
0 0
0 0
0 0
0 0
0 0
0 0
0 0
0 0
0 0
0 0
0 0
0 0
0 0
0 0
0 0
0 0
0 0
0 0
0 0
0 0
0 0
0 0
0 0
0 0
0 0
0 0
0 0
0 0
0 0
0 0
0 0
0 0
0 0
0 0
0 0
0 0
0 0
0 0
0 0
0 0
0 0
0 0
0 0
0 0
0 0
0 0
0 0
0 0
0 0
0 0
0 0
0 0
0 0
0 0
0 0
0 0
0 0
0 0
0 0
0 0
0 0
0 0
0 0
0 0
0 0
0 0
0 0
0 0
0 0
0 0
0 0
0 0
0 0
0 0
0 0
0 0
0 0
0 0
0 0
0 0
0 0
0 0
0 0
0 0
0 0
0 0
0 0
0 0
0 0
0 0
0 0
0 0
0 0
0 0
0 0
0 0
0 0
0 0
0 0
0 0
0 0
0 0
0 0
0 0
0 0
0 0
0 0
0 0
0 0
0 0
0 0
0 0
0 0
0 0
0 0
0 0
0 0
0 0
0 0
0 0
0 0
0 0
0 0
0 0
0 0
0 0
0 0
0 0
0 0
0 0
0 0
0 0
0 0
0 0
0 0
0 0
0 0
0 0
0 0
0 0
0 0
0 0
0 0
0 0
0 0
0 0
0 0
0 0
0 0
0 0
0 0
0 0
0 0
0 0
0 0
0 0
0 0
0 0
0 0
0 0
0 0
0 0
0 0
0 0
0 0
0 0
0 0
0 0
0 0
0 0
0 0
0 0
0 0
0 0
0 0
0 0
0 0
0 0
0 0
0 0
0 0
0 0
0 0
0 0
0 0
0 0
0 0
0 0
0 0
0 0
0 0
0 0
0 0
0 0
0 0
0 0
0 0
0 0
0 0
0 0
0 0
0 0
0 0
0 0
0 0
0 0
0 0
0 0
0 0
0 0
0 0
0 0
0 0
0 0
0 0
0 0
0 0
0 0
0 0
0 0
0 0
0 0
0 0
0 0
0 0
0 0
0 0
0 0
0 0
0 0
0 0
0 0
0 0
0 0
0 0
0 0
0 0
0 0
0 0
0 0
0 0
0 0
0 0
0 0
0 0
0 0
0 0
0 0
0 0
0 0
0 0
0 0
0 0
0 0
0 0
0 0
0 0
0 0
0 0
0 0
0 0
0 0
0 0
0 0
0 0
0 0
0 0
0 0
0 0
0 0
0 0
0 0
0 0
0 0
0 0
0 0
0 0
0 0
0 0
0 0
0 0
0 0
0 0
0 0
0 0
0 0
0 0
0 0
0 0
0 0
0 0
0 0
0 0
0 0
0 0
0 0
0 0
0 0
0 0
0 0
0 0
0 0
0 0
0 0
0 0
0 0
0 0
0 0
0 0
0 0
0 0
0 0
0 0
0 0
0 0
0 0
0 0
0 0
0 0
0 0
0 0
0 0
0 0
0 0
0 0
0 0
0 0
0 0
0 0
0 0
0 0
0 0
0 0
0 0
0 0
0 0
0 0
0 0
0 0
0 0
0 0
0 0
0 0
0 0
0 0
0 0
0 0
0 0
0 0
0 0
0 0
0 0
0 0
0 0
0 0
0 0
0 0
0 0
0 0
0 0
0 0
0 0
0 0
0 0
0 0
0 0
0 0
0 0
0 0
0 0
0 0
0 0
0 0
0 0
0 0
0 0
0 0
0 0
0 0
0 0
0 0
0 0
0 0
0 0
0 0
0 0
0 0
0 0
0 0
0 0
0 0
0 0
0 0
0 0
0 0
0 0
0 0
0 0
0 0
0 0
0 0
0 0
0 0
0 0
0 0
0 0
0 0
0 0
0 0
0 0
0 0
0 0
0 0
0 0
0 0
0 0
0 0
0 0
0 0
0 0
0 0
0 0
0 0
0 0
0 0
0 0
0 0
0 0
0 0
0 0
0 0
0 0
0 0
0 0
0 0
0 0
0 0
0 0
0 0
0 0
0 0
0 0
0 0
0 0
0 0
0 0
0 0
0 0
0 0
0 0
0 0
0 0
0 0
0 0
0 0
0 0
0 0
0 0
0 0
0 0
0 0
0 0
0 0
0 0
0 0
0 0
0 0
0 0
0 0
0 0
0 0
0 0
0 0
0 0
0 0
0 0
0 0
0 0
0 0
0 0
0 0
0 0
0 0
0 0
0 0
0 0
0 0
0 0
0 0
0 0
0 0
0 0
0 0
0 0
0 0
0 0
0 0
0 0
0 0
0 0
0 0
0 0
0 0
0 0
0 0
0 0
0 0
0 0
0 0
0 0
0 0
0 0
0 0
0 0
0 0
0 0
0 0
0 0
0 0
0 0
0 0
0 0
0 0
0 0
0 0
0 0
0 0
0 0
0 0
0 0
0 0
0 0
0 0
0 0
0 0
0 0
0 0
0 0
0 0
0 0
0 0
0 0
0 0
0 0
0 0
0 0
0 0
0 0
0 0
0 0
0 0
0 0
0 0
0 0
0 0
0 0
0 0
0 0
0 0
0 0
0 0
0 0
0 0
0 0
0 0
0 0
0 0
0 0
0 0
0 0
0 0
0 0
0 0
0 0
0 0
0 0
0 0
0 0
0 0
0 0
0 0
0 0
0 0
0 0
0 0
0 0
0 0
0 0
0 0
0 0
0 0
0 0
0 0
0 0
0 0
0 0
0 0
0 0
0 0
0 0
0 0
0 0
0 0
0 0
0 0
0 0
0 0
0 0
0 0
0 0
0 0
0 0
0 0
0 0
0 0
0 0
0 0
0 0
0 0
0 0
0 0
0 0
0 0
0 0
0 0
0 0
0 0
0 0
0 0
0 0
0 0
0 0
0 0
0 0
0 0
0 0
0 0
0 0
0 0
0 0
0 0
0 0
0 0
0 0
0 0
0 0
0 0
0 0
0 0
0 0
0 0
0 0
0 0
0 0
0 0
0 0
0 0
0 0
0 0
0 0
0 0
0 0
0 0
0 0
0 0
0 0
0 0
0 0
0 0
0 0
0 0
0 0
0 0
0 0
0 0
0 0
0 0
0 0
0 0
0 0
0 0
0 0
0 0
0 0
0 0
0 0
0 0
0 0
0 0
0 0
0 0
0 0
0 0
0 0
0 0
0 0
0 0
0 0
0 0
0 0
0 0
0 0
0 0
0 0
0 0
0 0
0 0
0 0
0 0
0 0
0 0
0 0
0 0
0 0
0 0
0 0
0 0
0 0
0 0
0 0
0 0
0 0
0 0
0 0
0 0
0 0
0 0
0 0
0 0
0 0
0 0
0 0
0 0
0 0
0 0
0 0
0 0
0 0
0 0
0 0
0 0
0 0
0 0
0 0
0 0
0 0
0 0
0 0
0 0
0 0
0 0
0 0
0 0
0 0
0 0
0 0
0 0
0 0
0 0
0 0
0 0
0 0
0 0
0 0
0 0
0 0
0 0
0 0
0 0
0 0
0 0
0 0
0 0
0 0
0 0
0 0
0 0
0 0
0 0
0 0
0 0
0 0
0 0
0 0
0 0
0 0
0 0
0 0
0 0
0 0
0 0
0 0
0 0
0 0
0 0
0 0
0 0
0 0
0 0
0 0
0 0
0 0
0 0
0 0
0 0
0 0
0 0
0 0
0 0
0 0
0 0
0 0
0 0
0 0
0 0
0 0
0 0
0 0
0 0
0 0
0 0
0 0
0 0
0 0
0 0
0 0
0 0
0 0
0 0
0 0
0 0
0 0
0 0
0 0
0 0
0 0
0 0
0 0
0 0
0 0
0 0
0 0
0 0
0 0
0 0
0 0
0 0
0 0
0 0
0 0
0 0
0 0
0 0
0 0
0 0
0 0
0 0
0 0
0 0
0 0
0 0
0 0
0 0
0 0
0 0
0 0
0 0
0 0
0 0
0 0
0 0
0 0
0 0
0 0
0 0
0 0
0 0
0 0
0 0
0 0
0 0
0 0
0 0
0 0
0 0
0 0
0 0
0 0
0 0
0 0
0 0
0 0
0 0
0 0
0 0
0 0
0 0
0 0
0 0
0 0
0 0
0 0
0 0
0 0
0 0
0 0
0 0
0 0
0 0
0 0
0 0
0 0
0 0
0 0
0 0
0 0
0 0
0 0
0 0
0 0
0 0
0 0
0 0
0 0
0 0
0 0
0 0
0 0
0 0
0 0
0 0
0 0
0 0
0 0
0 0
0 0
0 0
0 0
0 0
0 0
0 0
0 0
0 0
0 0
0 0
0 0
0 0
0 0
0 0
0 0
0 0
0 0
0 0
0 0
0 0
0 0
0 0
0 0
0 0
0 0
0 0
0 0
0 0
0 0
0 0
0 0
0 0
0 0
0 0
0 0
0 0
0 0
0 0
0 0
0 0
0 0
0 0
0 0
0 0
0 0
0 0
0 0
0 0
0 0
0 0
0 0
0 0
0 0
0 0
0 0
0 0
0 0
0 0
0 0
0 0
0 0
0 0
0 0
0 0
0 0
0 0
0 0
0 0
0 0
0 0
0 0
0 0
0 0
0 0
0 0
0 0
0 0
0 0
0 0
0 0
0 0
0 0
0 0
0 0
0 0
0 0
0 0
0 0
0 0
0 0
0 0
0 0
0 0
0 0
0 0
0 0
0 0
0 0
0 0
0 0
0 0
0 0
0 0
0 0
0 0
0 0
0 0
0 0
0 0
0 0
0 0
0 0
0 0
0 0
0 0
0 0
0 0
0 0
0 0
0 0
0 0
0 0
0 0
0 0
0 0
0 0
0 0
0 0
0 0
0 0
0 0
0 0
0 0
0 0
0 0
0 0
0 0
0 0
0 0
0 0
0 0
0 0
0 0
0 0
0 0
0 0
0 0
0 0
0 0
0 0
0 0
0 0
0 0
0 0
0 0
0 0
0 0
0 0
0 0
0 0
0 0
0 0
0 0
0 0
0 0
0 0
0 0
0 0
0 0
0 0
0 0
0 0
0 0
0 0
0 0
0 0
0 0
0 0
0 0
0 0
0 0
0 0
0 0
0 0
0 0
0 0
0 0
0 0
0 0
0 0
0 0
0 0
0 0
0 0
0 0
0 0
0 0
0 0
0 0
0 0
0 0
0 0
0 0
0 0
0 0
0 0
0 0
0 0
0 0
0 0
0 0
0 0
0 0
0 0
0 0
0 0
0 0
0 0
0 0
0 0
0 0
0 0
0 0
0 0
0 0
0 0
0 0
0 0
0 0
0 0
0 0
0 0
0 0
0 0
0 0
0 0
0 0
0 0
0 0
0 0
0 0
0 0
0 0
0 0
0 0
0 0
0 0
0 0
0 0
0 0
0 0
0 0
0 0
0 0
0 0
0 0
0 0
0 0
0 0
0 0
0 0
0 0
0 0
0 0
0 0
0 0
0 0
0 0
0 0
0 0
0 0
0 0
0 0
0 0
0 0
0 0
0 0
0 0
0 0
0 0
0 0
0 0
0 0
0 0
0 0
0 0
0 0
0 0
0 0
0 0
0 0
0 0
0 0
0 0
0 0
0 0
0 0
0 0
0 0
0 0
0 0
0 0
0 0
0 0
0 0
0 0
0 0
0 0
0 0
0 0
0 0
0 0
0 0
0 0
0 0
0 0
0 0
0 0
0 0
0 0
0 0
0 0
0 0
0 0
0 0
0 0
0 0
0 0
0 0
0 0
0 0
0 0
0 0
0 0
0 0
0 0
0 0
0 0
0 0
0 0
0 0
0 0
0 0
0 0
0 0
0 0
0 0
0 0
0 0
0 0
0 0
0 0
0 0
0 0
0 0
0 0
0 0
0 0
0 0
0 0
0 0
0 0
0 0
0 0
0 0
0 0
0 0
0 0
0 0
0 0
0 0
0 0
0 0
0 0
0 0
0 0
0 0
0 0
0 0
0 0
0 0
0 0
0 0
0 0
0 0
0 0
0 0
0 0
0 0
0 0
0 0
0 0
0 0
0 0
0 0
0 0
0 0
0 0
0 0
0 0
0 0
0 0
0 0
0 0
0 0
0 0
0 0
0 0
0 0
0 0
0 0
0 0
0 0
0 0
0 0
0 0
0 0
0 0
0 0
0 0
0 0
0 0
0 0
0 0
0 0
0 0
0 0
0 0
0 0
0 0
0 0
0 0
0 0
0 0
0 0
0 0
0 0
0 0
0 0
0 0
0 0
0 0
0 0
0 0
0 0
0 0
0 0
0 0
0 0
0 0
0 0
0 0
0 0
0 0
0 0
0 0
0 0
0 0
0 0
0 0
0 0
0 0
0 0
0 0
0 0
0 0
0 0
0 0
0 0
0 0
0 0
0 0
0 0
0 0
0 0
0 0
0 0
0 0
0 0
0 0
0 0
0 0
0 0
0 0
0 0
0 0
0 0
0 0
0 0
0 0
0 0
0 0
0 0
0 0
0 0
0 0
0 0
0 0
0 0
0 0
0 0
0 0
0 0
0 0
0 0
0 0
0 0
0 0
0 0
0 0
0 0
0 0
0 0
0 0
0 0
0 0
0 0
0 0
0 0
0 0
0 0
0 0
0 0
0 0
0 0
0 0
0 0
0 0
0 0
0 0
0 0
0 0
0 0
0 0
0 0
0 0
0 0
0 0
0 0
0 0
0 0
0 0
0 0
0 0
0 0
0 0
0 0
0 0
0 0
0 0
0 0
0 0
0 0
0 0
0 0
0 0
0 0
0 0
0 0
0 0
0 0
0 0
0 0
0 0
0 0
0 0
0 0
0 0
0 0
0 0
0 0
0 0
0 0
0 0
0 0
0 0
0 0
0 0
0 0
0 0
0 0
0 0
0 0
0 0
0 0
0 0
0 0
0 0
0 0
0 0
0 0
0 0
0 0
0 0
0 0
0 0
0 0
0 0
0 0
0 0
0 0
0 0
0 0
0 0
0 0
0 0
0 0
0 0
0 0
0 0
0 0
0 0
0 0
0 0
0 0
0 0
0 0
0 0
0 0
0 0
0 0
0 0
0 0
0 0
0 0
0 0
0 0
0 0
0 0
0 0
0 0
0 0
0 0
0 0
0 0
0 0
0 0
0 0
0 0
0 0
0 0
0 0
0 0
0 0
0 0
0 0
0 0
0 0
0 0
0 0
0 0
0 0
0 0
0 0
0 0
0 0
0 0
0 0
0 0
0 0
0 0
0 0
0 0
0 0
0 0
0 0
0 0
0 0
0 0
0 0
0 0
0 0
0 0
0 0
0 0
0 0
0 0
0 0
0 0
0 0
0 0
0 0
0 0
0 0
0 0
0 0
0 0
0 0
0 0
0 0
0 0
0 0
0 0
0 0
0 0
0 0
0 0
0 0
0 0
0 0
0 0
0 0
0 0
0 0
0 0
0 0
0 0
0 0
0 0
0 0
0 0
0 0
0 0
0 0
0 0
0 0
0 0
0 0
0 0
0 0
0 0
0 0
0 0
0 0
0 0
0 0
0 0
0 0
0 0
0 0
0 0
0 0
0 0
0 0
0 0
0 0
0 0
0 0
0 0
0 0
0 0
0 0
0 0
0 0
0 0
0 0
0 0
0 0
0 0
0 0
0 0
0 0
0 0
0 0
0 0
0 0
0 0
0 0
0 0
0 0
0 0
0 0
0 0
0 0
0 0
0 0
0 0
0 0
0 0
0 0
0 0
0 0
0 0
0 0
0 0
0 0
0 0
0 0
0 0
0 0
0 0
0 0
0 0
0 0
0 0
0 0
0 0
0 0
0 0
0 0
0 0
0 0
0 0
0 0
0 0
0 0
0 0
0 0
0 0
0 0
0 0
0 0
0 0
0 0
0 0
0 0
0 0
0 0
0 0
0 0
0 0
0 0
0 0
0 0
0 0
0 0
0 0
0 0
0 0
0 0
0 0
0 0
0 0
0 0
0 0
0 0
0 0
0 0
0 0
0 0
0 0
0 0
0 0
0 0
0 0
0 0
0 0
0 0
0 0
0 0
0 0
0 0
0 0
0 0
0 0
0 0
0 0
0 0
0 0
0 0
0 0
0 0
0 0
0 0
0 0
0 0
0 0
0 0
0 0
0 0
0 0
0 0
0 0
0 0
0 0
0 0
0 0
0 0
0 0
0 0
0 0
0 0
0 0
0 0
0 0
0 0
0 0
0 0
0 0
0 0
0 0
0 0
0 0
0 0
0 0
0 0
0 0
0 0
0 0
0 0
0 0
0 0
0 0
0 0
0 0
0 0
0 0
0 0
0 0
0 0
0 0
0 0
0 0
0 0
0 0
0 0
0 0
0 0
0 0
0 0
0 0
0 0
0 0
0 0
0 0
0 0
0 0
0 0
0 0
0 0
0 0
0 0
0 0
0 0
0 0
0 0
0 0
0 0
0 0
0 0
0 0
0 0
0 0
0 0
0 0
0 0
0 0
0 0
0 0
0 0
0 0
0 0
0 0
0 0
0 0
0 0
0 0
0 0
0 0
0 0
0 0
0 0
0 0
0 0
0 0
0 0
0 0
0 0
0 0
0 0
0 0
0 0
0 0
0 0
0 0
0 0
0 0
0 0
0 0
0 0
0 0
0 0
0 0
0 0
0 0
0 0
0 0
0 0
0 0
0 0
0 0
0 0
0 0
0 0
0 0
0 0
0 0
0 0
0 0
0 0
0 0
0 0
0 0
0 0
0 0
0 0
0 0
0 0
0 0
0 0
0 0
0 0
0 0
0 0
0 0
0 0
0 0
0 0
0 0
0 0
0 0
0 0
0 0
0 0
0 0
0 0
0 0
0 0
0 0
0 0
0 0
0 0
0 0
0 0
0 0
0 0
0 0
0 0
0 0
0 0
0 0
0 0
0 0
0 0
0 0
0 0
0 0
0 0
0 0
0 0
0 0
0 0
0 0
0 0
0 0
0 0
0 0
0 0
0 0
0 0
0 0
0 0
0 0
0 0
0 0
0 0
0 0
0 0
0 0
0 0
0 0
0 0
0 0
0 0
0 0
0 0
0 0
0 0
0 0
0 0
0 0
0 0
0 0
0 0
0 0
0 0
0 0
0 0
0 0
0 0
0 0
0 0
0 0
0 0
0 0
0 0
0 0
0 0
0 0
0 0
0 0
0 0
0 0
0 0
0 0
0 0
0 0
0 0
0 0
0 0
0 0
0 0
0 0
0 0
0 0
0 0
0 0
0 0
0 0
0 0
0 0
0 0
0 0
0 0
0 0
0 0
0 0
0 0
0 0
0 0
0 0
0 0
0 0
0 0
0 0
0 0
0 0
0 0
0 0
0 0
0 0
0 0
0 0
0 0
0 0
0 0
0 0
0 0
0 0
0 0
0 0
0 0
0 0
0 0
0 0
0 0
0 0
0 0
0 0
0 0
0 0
0 0
0 0
0 0
0 0
0 0
0 0
0 0
0 0
0 0
0 0
0 0
0 0
0 0
0 0
0 0
0 0
0 0
0 0
0 0
0 0
0 0
0 0
0 0
0 0
0 0
0 0
0 0
0 0
0 0
0 0
0 0
0 0
0 0
0 0
0 0
0 0
0 0
0 0
0 0
0 0
0 0
0 0
0 0
0 0
0 0
0 0
0 0
0 0
0 0
0 0
0 0
0 0
0 0
0 0
0 0
0 0
0 0
0 0
0 0
0 0
0 0
0 0
0 0
0 0
0 0
0 0
0 0
0 0
0 0
0 0
0 0
0 0
0 0
0 0
0 0
0 0
0 0
0 0
0 0
0 0
0 0
0 0
0 0
0 0
0 0
0 0
0 0
0 0
0 0
0 0
0 0
0 0
0 0
0 0
0 0
0 0
0 0
0 0
0 0
0 0
0 0
0 0
0 0
0 0
0 0
0 0
0 0
0 0
0 0
0 0
0 0
0 0
0 0
0 0
0 0
0 0
0 0
0 0
0 0
0 0
0 0
0 0
0 0
0 0
0 0
0 0
0 0
0 0
0 0
0 0
0 0
0 0
0 0
0 0
0 0
0 0
0 0
0 0
0 0
0 0
0 0
0 0
0 0
0 0
0 0
0 0
0 0
0 0
0 0
0 0
0 0
0 0
0 0
0 0
0 0
0 0
0 0
0 0
0 0
0 0
0 0
0 0
0 0
0 0
0 0
0 0
0 0
0 0
0 0
0 0
0 0
0 0
0 0
0 0
0 0
0 0
0 0
0 0
0 0
0 0
0 0
0 0
0 0
0 0
0 0
0 0
0 0
0 0
0 0
0 0
0 0
0 0
0 0
0 0
0 0
0 0
0 0
0 0
0 0
0 0
0 0
0 0
0 0
0 0
0 0
0 0
0 0
0 0
0 0
0 0
0 0
0 0
0 0
0 0
0 0
0 0
0 0
0 0
0 0
0 0
0 0
0 0
0 0
0 0
0 0
0 0
0 0
0 0
0 0
0 0
0 0
0 0
0 0
0 0
0 0
0 0
0 0
0 0
0 0
0 0
0 0
0 0
0 0
0 0
0 0
0 0
0 0
0 0
0 0
0 0
0 0
0 0
0 0
0 0
0 0
0 0
0 0
0 0
0 0
0 0
0 0
0 0
0 0
0 0
0 0
0 0
0 0
0 0
0 0
0 0
0 0
0 0
0 0
0 0
0 0
0 0
0 0
0 0
0 0
0 0
0 0
0 0
0 0
0 0
0 0
0 0
0 0
0 0
0 0
0 0
0 0
0 0
0 0
0 0
0 0
0 0
0 0
0 0
0 0
0 0
0 0
0 0
0 0
0 0
0 0
0 0
0 0
0 0
0 0
0 0
0 0
0 0
0 0
0 0
0 0
0 0
0 0
0 0
0 0
0 0
0 0
0 0
0 0
0 0
0 0
0 0
0 0
0 0
0 0
0 0
0 0
0 0
0 0
0 0
0 0
0 0
0 0
0 0
0 0
0 0
0 0
0 0
0 0
0 0
0 0
0 0
0 0
0 0
0 0
0 0
0 0
0 0
0 0
0 0
0 0
0 0
0 0
0 0
0 0
0 0
0 0
0 0
0 0
0 0
0 0
0 0
0 0
0 0
0 0
0 0
0 0
0 0
0 0
0 0
0 0
0 0
0 0
0 0
0 0
0 0
0 0
0 0
0 0
0 0
0 0
0 0
0 0
0 0
0 0
0 0
0 0
0 0
0 0
0 0
0 0
0 0
0 0
0 0
0 0
0 0
0 0
0 0
0 0
0 0
0 0
0 0
0 0
0 0
0 0
0 0
0 0
0 0
0 0
0 0
0 0
0 0
0 0
0 0
0 0
0 0
0 0
0 0
0 0
0 0
0 0
0 0
0 0
0 0
0 0
0 0
0 0
0 0
0 0
0 0
0 0
0 0
0 0
0 0
0 0
0 0
0 0
0 0
0 0
0 0
0 0
0 0
0 0
0 0
0 0
0 0
0 0
0 0
0 0
0 0
0 0
0 0
0 0
0 0
0 0
0 0
0 0
0 0
0 0
0 0
0 0
0 0
0 0
0 0
0 0
0 0
0 0
0 0
0 0
0 0
0 0
0 0
0 0
0 0
0 0
0 0
0 0
0 0
0 0
0 0
0 0
0 0
0 0
0 0
0 0
0 0
0 0
0 0
0 0
0 0
0 0
0 0
0 0
0 0
0 0
0 0
0 0
0 0
0 0
0 0
0 0
0 0
0 0
0 0
0 0
0 0
0 0
0 0
0 0
0 0
0 0
0 0
0 0
0 0
0 0
0 0
0 0
0 0
0 0
0 0
0 0
0 0
0 0
0 0
0 0
0 0
0 0
0 0
0 0
0 0
0 0
0 0
0 0
0 0
0 0
0 0
0 0
0 0
0 0
0 0
0 0
0 0
0 0
0 0
0 0
0 0
0 0
0 0
0 0
0 0
0 0
0 0
0 0
0 0
0 0
0 0
0 0
0 0
0 0
0 0
0 0
0 0
0 0
0 0
0 0
0 0
0 0
0 0
0 0
0 0
0 0
0 0
0 0
0 0
0 0
0 0
0 0
0 0
0 0
0 0
0 0
0 0
0 0
0 0
0 0
0 0
0 0
0 0
0 0
0 0
0 0
0 0
0 0
0 0
0 0
0 0
0 0
0 0
0 0
0 0
0 0
0 0
0 0
0 0
0 0
0 0
0 0
0 0
0 0
0 0
0 0
0 0
0 0
0 0
0 0
0 0
0 0
0 0
0 0
0 0
0 0
0 0
0 0
0 0
0 0
0 0
0 0
0 0
0 0
0 0
0 0
0 0
0 0
0 0
0 0
0 0
0 0
0 0
0 0
0 0
0 0
0 0
0 0
0 0
0 0
0 0
0 0
0 0
0 0
0 0
0 0
0 0
0 0
0 0
0 0
0 0
0 0
0 0
0 0
0 0
0 0
0 0
0 0
0 0
0 0
0 0
0 0
0 0
0 0
0 0
0 0
0 0
0 0
0 0
0 0
0 0
0 0
0 0
0 0
0 0
0 0
0 0
0 0
0 0
0 0
0 0
0 0
0 0
0 0
0 0
0 0
0 0
0 0
0 0
0 0
0 0
0 0
0 0
0 0
0 0
0 0
0 0
0 0
0 0
0 0
0 0
0 0
0 0
0 0
0 0
0 0
0 0
0 0
0 0
0 0
0 0
0 0
0 0
0 0
0 0
0 0
0 0
0 0
0 0
0 0
0 0
0 0
0 0
0 0
0 0
0 0
0 0
0 0
0 0
0 0
0 0
0 0
0 0
0 0
0 0
0 0
0 0
0 0
0 0
0 0
0 0
0 0
0 0
0 0
0 0
0 0
0 0
0 0
0 0
0 0
0 0
0 0
0 0
0 0
0 0
0 0
0 0
0 0
0 0
0 0
0 0
0 0
0 0
0 0
0 0
0 0
0 0
0 0
0 0
0 0
0 0
0 0
0 0
0 0
0 0
0 0
0 0
0 0
0 0
0 0
0 0
0 0
0 0
0 0
0 0
0 0
0 0
0 0
0 0
0 0
0 0
0 0
0 0
0 0
0 0
0 0
0 0
0 0
0 0
0 0
0 0
0 0
0 0
0 0
0 0
0 0
0 0
0 0
0 0
0 0
0 0
0 0
0 0
0 0
0 0
0 0
0 0
0 0
0 0
0 0
0 0
0 0
0 0
0 0
0 0
0 0
0 0
0 0
0 0
0 0
0 0
0 0
0 0
0 0
0 0
0 0
0 0
0 0
0 0
0 0
0 0
0 0
0 0
0 0
0 0
0 0
0 0
0 0
0 0
0 0
0 0
0 0
0 0
0 0
0 0
0 0
0 0
0 0
0 0
0 0
0 0
0 0
0 0
0 0
0 0
0 0
0 0
0 0
0 0
0 0
0 0
0 0
0 0
0 0
0 0
0 0
0 0
0 0
0 0
0 0
0 0
0 0
0 0
0 0
0 0
0 0
0 0
0 0
0 0
0 0
0 0
0 0
0 0
0 0
0 0
0 0
0 0
0 0
0 0
0 0
0 0
0 0
0 0
0 0
0 0
0 0
0 0
0 0
0 0
0 0
0 0
0 0
0 0
0 0
0 0
0 0
0 0
0 0
0 0
0 0
0 0
0 0
0 0
0 0
0 0
0 0
0 0
0 0
0 0
0 0
0 0
0 0
0 0
0 0
0 0
0 0
0 0
0 0
0 0
0 0
0 0
0 0
0 0
0 0
0 0
0 0
0 0
0 0
0 0
0 0
0 0
0 0
0 0
0 0
0 0
0 0
0 0
0 0
0 0
0 0
0 0
0 0
0 0
0 0
0 0
0 0
0 0
0 0
0 0
0 0
0 0
0 0
0 0
0 0
0 0
0 0
0 0
0 0
0 0
0 0
0 0
0 0
0 0
0 0
0 0
0 0
0 0
0 0
0 0
0 0
0 0
0 0
0 0
0 0
0 0
0 0
0 0
0 0
0 0
0 0
0 0
0 0
0 0
0 0
0 0
0 0
0 0
0 0
0 0
0 0
0 0
0 0
0 0
0 0
0 0
0 0
0 0
0 0
0 0
0 0
0 0
0 0
0 0
0 0
0 0
0 0
0 0
0 0
0 0
0 0
0 0
0 0
0 0
0 0
0 0
0 0
0 0
0 0
0 0
0 0
0 0
0 0
0 0
0 0
0 0
0 0
0 0
0 0
0 0
0 0
0 0
0 0
0 0
0 0
0 0
0 0
0 0
0 0
0 0
0 0
0 0
0 0
0 0
0 0
0 0
0 0
0 0
0 0
0 0
0 0
0 0
0 0
0 0
0 0
0 0
0 0
0 0
0 0
0 0
0 0
0 0
0 0
0 0
0 0
0 0
0 0
0 0
0 0
0 0
0 0
0 0
0 0
0 0
0 0
0 0
0 0
0 0
0 0
0 0
0 0
0 0
0 0
0 0
0 0
0 0
0 0
0 0
0 0
0 0
0 0
0 0
0 0
0 0
0 0
0 0
0 0
0 0
0 0
0 0
0 0
0 0
0 0
0 0
0 0
0 0
0 0
0 0
0 0
0 0
0 0
0 0
0 0
0 0
0 0
0 0
0 0
0 0
0 0
0 0
0 0
0 0
0 0
0 0
0 0
0 0
0 0
0 0
0 0
0 0
0 0
0 0
0 0
0 0
0 0
0 0
0 0
0 0
0 0
0 0
0 0
0 0
0 0
0 0
0 0
0 0
0 0
0 0
0 0
0 0
0 0
0 0
0 0
0 0
0 0
0 0
0 0
0 0
0 0
0 0
0 0
0 0
0 0
0 0
0 0
0 0
0 0
0 0
0 0
0 0
0 0
0 0
0 0
0 0
0 0
0 0
0 0
0 0
0 0
0 0
0 0
0 0
0 0
0 0
0 0
0 0
0 0
0 0
0 0
0 0
0 0
0 0
0 0
0 0
0 0
0 0
0 0
0 0
0 0
0 0
0 0
0 0
0 0
0 0
0 0
0 0
0 0
0 0
0 0
0 0
0 0
0 0
0 0
0 0
0 0
0 0
0 0
0 0
0 0
0 0
0 0
0 0
0 0
0 0
0 0
0 0
0 0
0 0
0 0
0 0
0 0
0 0
0 0
0 0
0 0
0 0
0 0
0 0
0 0
0 0
0 0
0 0
0 0
0 0
0 0
0 0
0 0
0 0
0 0
0 0
0 0
0 0
0 0
0 0
0 0
0 0
0 0
0 0
0 0
0 0
0 0
0 0
0 0
0 0
0 0
0 0
0 0
0 0
0 0
0 0
0 0
0 0
0 0
0 0
0 0
0 0
0 0
0 0
0 0
0 0
0 0
0 0
0 0
0 0
0 0
0 0
0 0
0 0
0 0
0 0
0 0
0 0
0 0
0 0
0 0
0 0
0 0
0 0
0 0
0 0
0 0
0 0
0 0
0 0
0 0
0 0
0 0
0 0
0 0
0 0
0 0
0 0
0 0
0 0
0 0
0 0
0 0
0 0
0 0
0 0
0 0
0 0
0 0
0 0
0 0
0 0
0 0
0 0
0 0
0 0
0 0
0 0
0 0
0 0
0 0
0 0
0 0
0 0
0 0
0 0
0 0
0 0
0 0
0 0
0 0
0 0
0 0
0 0
0 0
0 0
0 0
0 0
0 0
0 0
0 0
0 0
0 0
0 0
0 0
0 0
0 0
0 0
0 0
0 0
0 0
0 0
0 0
0 0
0 0
0 0
0 0
0 0
0 0
0 0
0 0
0 0
0 0
0 0
0 0
0 0
0 0
0 0
0 0
0 0
0 0
0 0
0 0
0 0
0 0
0 0
0 0
0 0
0 0
0 0
0 0
0 0
0 0
0 0
0 0
0 0
0 0
0 0
0 0
0 0
0 0
0 0
0 0
0 0
0 0
0 0
0 0
0 0
0 0
0 0
0 0
0 0
0 0
0 0
0 0
0 0
0 0
0 0
0 0
0 0
0 0
0 0
0 0
0 0
0 0
0 0
0 0
0 0
0 0
0 0
0 0
0 0
0 0
0 0
0 0
0 0
0 0
0 0
0 0
0 0
0 0
0 0
0 0
0 0
0 0
0 0
0 0
0 0
0 0
0 0
0 0
0 0
0 0
0 0
0 0
0 0
0 0
0 0
0 0
0 0
0 0
0 0
0 0
0 0
0 0
0 0
0 0
0 0
0 0
0 0
0 0
0 0
0 0
0 0
0 0
0 0
0 0
0 0
0 0
0 0
0 0
0 0
0 0
0 0
0 0
0 0
0 0
0 0
0 0
0 0
0 0
0 0
0 0
0 0
0 0
0 0
0 0
0 0
0 0
0 0
0 0
0 0
0 0
0 0
0 0
0 0
0 0
0 0
0 0
0 0
0 0
0 0
0 0
0 0
0 0
0 0
0 0
0 0
0 0
0 0
0 0
0 0
0 0
0 0
0 0
0 0
0 0
0 0
0 0
0 0
0 0
0 0
0 0
0 0
0 0
0 0
0 0
0 0
0 0
0 0
0 0
0 0
0 0
0 0
0 0
0 0
0 0
0 0
0 0
0 0
0 0
0 0
0 0
0 0
0 0
0 0
0 0
0 0
0 0
0 0
0 0
0 0
0 0
0 0
0 0
0 0
0 0
0 0
0 0
0 0
0 0
0 0
0 0
0 0
0 0
0 0
0 0
0 0
0 0
0 0
0 0
0 0
0 0
0 0
0 0
0 0
0 0
0 0
0 0
0 0
0 0
0 0
0 0
0 0
0 0
0 0
0 0
0 0
0 0
0 0
0 0
0 0
0 0
0 0
0 0
0 0
0 0
0 0
0 0
0 0
0 0
0 0
0 0
0 0
0 0
0 0
0 0
0 0
0 0
0 0
0 0
0 0
0 0
0 0
0 0
0 0
0 0
0 0
0 0
0 0
0 0
0 0
0 0
0 0
0 0
0 0
0 0
0 0
0 0
0 0
0 0
0 0
0 0
0 0
0 0
0 0
0 0
0 0
0 0
0 0
0 0
0 0
0 0
0 0
0 0
0 0
0 0
0 0
0 0
0 0
0 0
0 0
0 0
0 0
0 0
0 0
0 0
0 0
0 0
0 0
0 0
0 0
0 0
0 0
0 0
0 0
0 0
0 0
0 0
0 0
0 0
0 0
0 0
0 0
0 0
0 0
0 0
0 0
0 0
0 0
0 0
0 0
0 0
0 0
0 0
0 0
0 0
0 0
0 0
0 0
0 0
0 0
0 0
0 0
0 0
0 0
0 0
0 0
0 0
0 0
0 0
0 0
0 0
0 0
0 0
0 0
0 0
0 0
0 0
0 0
0 0
0 0
0 0
0 0
0 0
0 0
0 0
0 0
0 0
0 0
0 0
0 0
0 0
0 0
0 0
0 0
0 0
0 0
0 0
0 0
0 0
0 0
0 0
0 0
0 0
0 0
0 0
0 0
0 0
0 0
0 0
0 0
0 0
0 0
0 0
0 0
0 0
0 0
0 0
0 0
0 0
0 0
0 0
0 0
0 0
0 0
0 0
0 0
0 0
0 0
0 0
0 0
0 0
0 0
0 0
0 0
0 0
0 0
0 0
0 0
0 0
0 0
0 0
0 0
0 0
0 0
0 0
0 0
0 0
0 0
0 0
0 0
0 0
0 0
0 0
0 0
0 0
0 0
0 0
0 0
0 0
0 0
0 0
0 0
0 0
0 0
0 0
0 0
0 0
0 0
0 0
0 0
0 0
0 0
0 0
0 0
0 0
0 0
0 0
0 0
0 0
0 0
0 0
0 0
0 0
0 0
0 0
0 0
0 0
0 0
0 0
0 0
0 0
0 0
0 0
0 0
0 0
0 0
0 0
0 0
0 0
0 0
0 0
0 0
0 0
0 0
0 0
0 0
0 0
0 0
0 0
0 0
0 0
0 0
0 0
0 0
0 0
0 0
0 0
0 0
0 0
0 0
0 0
0 0
0 0
0 0
0 0
0 0
0 0
0 0
0 0
0 0
0 0
0 0
0 0
0 0
0 0
0 0
0 0
0 0
0 0
0 0
0 0
0 0
0 0
0 0
0 0
0 0
0 0
0 0
0 0
0 0
0 0
0 0
0 0
0 0
0 0
0 0
0 0
0 0
0 0
0 0
0 0
0 0
0 0
0 0
0 0
0 0
0 0
0 0
0 0
0 0
0 0
0 0
0 0
0 0
0 0
0 0
0 0
0 0
0 0
0 0
0 0
0 0
0 0
0 0
0 0
0 0
0 0
0 0
0 0
0 0
0 0
0 0
0 0
0 0
0 0
0 0
0 0
0 0
0 0
0 0
0 0
0 0
0 0
0 0
0 0
0 0
0 0
0 0
0 0
0 0
0 0
0 0
0 0
0 0
0 0
0 0
0 0
0 0
0 0
0 0
0 0
0 0
0 0
0 0
0 0
0 0
0 0
0 0
0 0
0 0
0 0
0 0
0 0
0 0
0 0
0 0
0 0
0 0
0 0
0 0
0 0
0 0
0 0
0 0
0 0
0 0
0 0
0 0
0 0
0 0
0 0
0 0
0 0
0 0
0 0
0 0
0 0
0 0
0 0
0 0
0 0
0 0
0 0
0 0
0 0
0 0
0 0
0 0
0 0
0 0
0 0
0 0
0 0
0 0
0 0
0 0
0 0
0 0
0 0
0 0
0 0
0 0
0 0
0 0
0 0
0 0
0 0
0 0
0 0
0 0
0 0
0 0
0 0
0 0
0 0
0 0
0 0
0 0
0 0
0 0
0 0
0 0
0 0
0 0
0 0
0 0
0 0
0 0
0 0
0 0
0 0
0 0
0 0
0 0
0 0
0 0
0 0
0 0
0 0
0 0
0 0
0 0
0 0
0 0
0 0
0 0
0 0
0 0
0 0
0 0
0 0
0 0
0 0
0 0
0 0
0 0
0 0
0 0
0 0
0 0
0 0
0 0
0 0
0 0
0 0
0 0
0 0
0 0
0 0
0 0
0 0
0 0
0 0
0 0
0 0
0 0
0 0
0 0
0 0
0 0
0 0
0 0
0 0
0 0
0 0
0 0
0 0
0 0
0 0
0 0
0 0
0 0
0 0
0 0
0 0
0 0
0 0
0 0
0 0
0 0
0 0
0 0
0 0
0 0
0 0
0 0
0 0
0 0
0 0
0 0
0 0
0 0
0 0
0 0
0 0
0 0
0 0
0 0
0 0
0 0
0 0
0 0
0 0
0 0
0 0
0 0
0 0
0 0
0 0
0 0
0 0
0 0
0 0
0 0
0 0
0 0
0 0
0 0
0 0
0 0
0 0
0 0
0 0
0 0
0 0
0 0
0 0
0 0
0 0
0 0
0 0
0 0
0 0
0 0
0 0
0 0
0 0
0 0
0 0
0 0
0 0
0 0
0 0
0 0
0 0
0 0
0 0
0 0
0 0
0 0
0 0
0 0
0 0
0 0
0 0
0 0
0 0
0 0
0 0
0 0
0 0
0 0
0 0
0 0
0 0
0 0
0 0
0 0
0 0
0 0
0 0
0 0
0 0
0 0
0 0
0 0
0 0
0 0
0 0
0 0
0 0
0 0
0 0
0 0
0 0
0 0
0 0
0 0
0 0
0 0
0 0
0 0
0 0
0 0
0 0
0 0
0 0
0 0
0 0
0 0
0 0
0 0
0 0
0 0
0 0
0 0
0 0
0 0
0 0
0 0
0 0
0 0
0 0
0 0
0 0
0 0
0 0
0 0
0 0
0 0
0 0
0 0
0 0
0 0
0 0
0 0
0 0
0 0
0 0
0 0
0 0
0 0
0 0
0 0
0 0
0 0
0 0
0 0
0 0
0 0
0 0
0 0
0 0
0 0
0 0
0 0
0 0
0 0
0 0
0 0
0 0
0 0
0 0
0 0
0 0
0 0
0 0
0 0
0 0
0 0
0 0
0 0
0 0
0 0
0 0
0 0
0 0
0 0
0 0
0 0
0 0
0 0
0 0
0 0
0 0
0 0
0 0
0 0
0 0
0 0
0 0
0 0
0 0
0 0
0 0
0 0
0 0
0 0
0 0
0 0
0 0
0 0
0 0
0 0
0 0
0 0
0 0
0 0
0 0
0 0
0 0
0 0
0 0
0 0
0 0
0 0
0 0
0 0
0 0
0 0
0 0
0 0
0 0
0 0
0 0
0 0
0 0
0 0
0 0
0 0
0 0
0 0
0 0
0 0
0 0
0 0
0 0
0 0
0 0
0 0
0 0
0 0
0 0
0 0
0 0
0 0
0 0
0 0
0 0
0 0
0 0
0 0
0 0
0 0
0 0
0 0
0 0
0 0
0 0
0 0
0 0
0 0
0 0
0 0
0 0
0 0
0 0
0 0
0 0
0 0
0 0
0 0
0 0
0 0
0 0
0 0
0 0
0 0
0 0
0 0
0 0
0 0
0 0
0 0
0 0
0 0
0 0
0 0
0 0
0 0
0 0
0 0
0 0
0 0
0 0
0 0
0 0
0 0
0 0
0 0
0 0
0 0
0 0
0 0
0 0
0 0
0 0
0 0
0 0
0 0
0 0
0 0
0 0
0 0
0 0
0 0
0 0
0 0
0 0
0 0
0 0
0 0
0 0
0 0
0 0
0 0
0 0
0 0
0 0
0 0
0 0
0 0
0 0
0 0
0 0
0 0
0 0
0 0
0 0
0 0
0 0
0 0
0 0
0 0
0 0
0 0
0 0
0 0
0 0
0 0
0 0
0 0
0 0
0 0
0 0
0 0
0 0
0 0
0 0
0 0
0 0
0 0
0 0
0 0
0 0
0 0
0 0
0 0
0 0
0 0
0 0
0 0
0 0
0 0
0 0
0 0
0 0
0 0
0 0
0 0
0 0
0 0
0 0
0 0
0 0
0 0
0 0
0 0
0 0
0 0
0 0
0 0
0 0
0 0
0 0
0 0
0 0
0 0
0 0
0 0
0 0
0 0
0 0
0 0
0 0
0 0
0 0
0 0
0 0
0 0
0 0
0 0
0 0
0 0
0 0
0 0
0 0
0 0
0 0
0 0
0 0
0 0
0 0
0 0
0 0
0 0
0 0
0 0
0 0
0 0
0 0
0 0
0 0
0 0
0 0
0 0
0 0
0 0
0 0
0 0
0 0
0 0
0 0
0 0
0 0
0 0
0 0
0 0
0 0
0 0
0 0
0 0
0 0
0 0
0 0
0 0
0 0
0 0
0 0
0 0
0 0
0 0
0 0
0 0
0 0
0 0
0 0
0 0
0 0
0 0
0 0
0 0
0 0
0 0
0 0
0 0
0 0
0 0
0 0
0 0
0 0
0 0
0 0
0 0
0 0
0 0
0 0
0 0
0 0
0 0
0 0
0 0
0 0
0 0
0 0
0 0
0 0
0 0
0 0
0 0
0 0
0 0
0 0
0 0
0 0
0 0
0 0
0 0
0 0
0 0
0 0
0 0
0 0
0 0
0 0
0 0
0 0
0 0
0 0
0 0
0 0
0 0
0 0
0 0
0 0
0 0
0 0
0 0
0 0
0 0
0 0
0 0
0 0
0 0
0 0
0 0
0 0
0 0
0 0
0 0
0 0
0 0
0 0
0 0
0 0
0 0
0 0
0 0
0 0
0 0
0 0
0 0
0 0
0 0
0 0
0 0
0 0
0 0
0 0
0 0
0 0
0 0
0 0
0 0
0 0
0 0
0 0
0 0
0 0
0 0
0 0
0 0
0 0
0 0
0 0
0 0
0 0
0 0
0 0
0 0
0 0
0 0
0 0
0 0
0 0
0 0
0 0
0 0
0 0
0 0
0 0
0 0
0 0
0 0
0 0
0 0
0 0
0 0
0 0
0 0
0 0
0 0
0 0
0 0
0 0
0 0
0 0
0 0
0 0
0 0
0 0
0 0
0 0
0 0
0 0
0 0
0 0
0 0
0 0
0 0
0 0
0 0
0 0
0 0
0 0
0 0
0 0
0 0
0 0
0 0
0 0
0 0
0 0
0 0
0 0
0 0
0 0
0 0
0 0
0 0
0 0
0 0
0 0
0 0
0 0
0 0
0 0
0 0
0 0
0 0
0 0
0 0
0 0
0 0
0 0
0 0
0 0
0 0
0 0
0 0
0 0
0 0
0 0
0 0
0 0
0 0
0 0
0 0
0 0
0 0
0 0
0 0
0 0
0 0
0 0
0 0
0 0
0 0
0 0
0 0
0 0
0 0
0 0
0 0
0 0
0 0
0 0
0 0
0 0
0 0
0 0
0 0
0 0
0 0
0 0
0 0
0 0
0 0
0 0
0 0
0 0
0 0
0 0
0 0
0 0
0 0
0 0
0 0
0 0
0 0
0 0
0 0
0 0
0 0
0 0
0 0
0 0
0 0
0 0
0 0
0 0
0 0
0 0
0 0
0 0
0 0
0 0
0 0
0 0
0 0
0 0
0 0
0 0
0 0
0 0
0 0
0 0
0 0
0 0
0 0
0 0
0 0
0 0
0 0
0 0
0 0
0 0
0 0
0 0
0 0
0 0
0 0
0 0
0 0
0 0
0 0
0 0
0 0
0 0
0 0
0 0
0 0
0 0
0 0
0 0
0 0
0 0
0 0
0 0
0 0
0 0
0 0
0 0
0 0
0 0
0 0
0 0
0 0
0 0
0 0
0 0
0 0
0 0
0 0
0 0
0 0
0 0
0 0
0 0
0 0
0 0
0 0
0 0
0 0
0 0
0 0
0 0
0 0
0 0
0 0
0 0
0 0
0 0
0 0
0 0
0 0
0 0
0 0
0 0
0 0
0 0
0 0
0 0
0 0
0 0
0 0
0 0
0 0
0 0
0 0
0 0
0 0
0 0
0 0
0 0
0 0
0 0
0 0
0 0
0 0
0 0
0 0
0 0
0 0
0 0
0 0
0 0
0 0
0 0
0 0
0 0
0 0
0 0
0 0
0 0
0 0
0 0
0 0
0 0
0 0
0 0
0 0
0 0
0 0
0 0
0 0
0 0
0 0
0 0
0 0
0 0
0 0
0 0
0 0
0 0
0 0
0 0
0 0
0 0
0 0
0 0
0 0
0 0
0 0
0 0
0 0
0 0
0 0
0 0
0 0
0 0
0 0
0 0
0 0
0 0
0 0
0 0
0 0
0 0
0 0
0 0
0 0
0 0
0 0
0 0
0 0
0 0
0 0
0 0
0 0
0 0
0 0
0 0
0 0
0 0
0 0
0 0
0 0
0 0
0 0
0 0
0 0
0 0
0 0
0 0
0 0
0 0
0 0
0 0
0 0
0 0
0 0
0 0
0 0
0 0
0 0
0 0
0 0
0 0
0 0
0 0
0 0
0 0
0 0
0 0
0 0
0 0
0 0
0 0
0 0
0 0
0 0
0 0
0 0
0 0
0 0
0 0
0 0
0 0
0 0
0 0
0 0
0 0
0 0
0 0
0 0
0 0
0 0
0 0
0 0
0 0
0 0
0 0
0 0
0 0
0 0
0 0
0 0
0 0
0 0
0 0
0 0
0 0
0 0
0 0
0 0
0 0
0 0
0 0
0 0
0 0
0 0
0 0
0 0
0 0
0 0
0 0
0 0
0 0
0 0
0 0
0 0
0 0
0 0
0 0
0 0
0 0
0 0
0 0
0 0
0 0
0 0
0 0
0 0
0 0
0 0
0 0
0 0
0 0
0 0
0 0
0 0
0 0
0 0
0 0
0 0
0 0
0 0
0 0
0 0
0 0
0 0
0 0
0 0
0 0
0 0
0 0
0 0
0 0
0 0
0 0
0 0
0 0
0 0
0 0
0 0
0 0
0 0
0 0
0 0
0 0
0 0
0 0
0 0
0 0
0 0
0 0
0 0
0 0
0 0
0 0
0 0
0 0
0 0
0 0
0 0
0 0
0 0
0 0
0 0
0 0
0 0
0 0
0 0
0 0
0 0
0 0
0 0
0 0
0 0
0 0
0 0
0 0
0 0
0 0
0 0
0 0
0 0
0 0
0 0
0 0
0 0
0 0
0 0
0 0
0 0
0 0
0 0
0 0
0 0
0 0
0 0
0 0
0 0
0 0
0 0
0 0
0 0
0 0
0 0
0 0
0 0
0 0
0 0
0 0
0 0
0 0
0 0
0 0
0 0
0 0
0 0
0 0
0 0
0 0
0 0
0 0
0 0
0 0
0 0
0 0
0 0
0 0
0 0
0 0
0 0
0 0
0 0
0 0
0 0
0 0
0 0
0 0
0 0
0 0
0 0
0 0
0 0
0 0
0 0
0 0
0 0
0 0
0 0
0 0
0 0
0 0
0 0
0 0
0 0
0 0
0 0
0 0
0 0
0 0
0 0
0 0
0 0
0 0
0 0
0 0
0 0
0 0
0 0
0 0
0 0
0 0
0 0
0 0
0 0
0 0
0 0
0 0
0 0
0 0
0 0
0 0
0 0
0 0
0 0
0 0
0 0
0 0
0 0
0 0
0 0
0 0
0 0
0 0
0 0
0 0
0 0
0 0
0 0
0 0
0 0
0 0
0 0
0 0
0 0
0 0
0 0
0 0
0 0
0 0
0 0
0 0
0 0
0 0
0 0
0 0
0 0
0 0
0 0
0 0
0 0
0 0
0 0
0 0
0 0
0 0
0 0
0 0
0 0
0 0
0 0
0 0
0 0
0 0
0 0
0 0
0 0
0 0
0 0
0 0
0 0
0 0
0 0
0 0
0 0
0 0
0 0
0 0
0 0
0 0
0 0
0 0
0 0
0 0
0 0
0 0
0 0
0 0
0 0
0 0
0 0
0 0
0 0
0 0
0 0
0 0
0 0
0 0
0 0
0 0
0 0
0 0
0 0
0 0
0 0
0 0
0 0
0 0
0 0
0 0
0 0
0 0
0 0
0 0
0 0
0 0
0 0
0 0
0 0
0 0
0 0
0 0
0 0
0 0
0 0
0 0
0 0
0 0
0 0
0 0
0 0
0 0
0 0
0 0
0 0
0 0
0 0
0 0
0 0
0 0
0 0
0 0
0 0
0 0
0 0
0 0
0 0
0 0
0 0
0 0
0 0
0 0
0 0
0 0
0 0
0 0
0 0
0 0
0 0
0 0
0 0
0 0
0 0
0 0
0 0
0 0
0 0
0 0
0 0
0 0
0 0
0 0
0 0
0 0
0 0
0 0
0 0
0 0
0 0
0 0
0 0
0 0
0 0
0 0
0 0
0 0
0 0
0 0
0 0
0 0
0 0
0 0
0 0
0 0
0 0
0 0
0 0
0 0
0 0
0 0
0 0
0 0
0 0
0 0
0 0
0 0
0 0
0 0
0 0
0 0
0 0
0 0
0 0
0 0
0 0
0 0
0 0
0 0
0 0
0 0
0 0
0 0
0 0
0 0
0 0
0 0
0 0
0 0
0 0
0 0
0 0
0 0
0 0
0 0
0 0
0 0
0 0
0 0
0 0
0 0
0 0
0 0
0 0
0 0
0 0
0 0
0 0
0 0
0 0
0 0
0 0
0 0
0 0
0 0
0 0
0 0
0 0
0 0
0 0
0 0
0 0
0 0
0 0
0 0
0 0
0 0
0 0
0 0
0 0
0 0
0 0
0 0
0 0
0 0
0 0
0 0
0 0
0 0
0 0
0 0
0 0
0 0
0 0
0 0
0 0
0 0
0 0
0 0
0 0
0 0
0 0
0 0
0 0
0 0
0 0
0 0
0 0
0 0
0 0
0 0
0 0
0 0
0 0
0 0
0 0
0 0
0 0
0 0
0 0
0 0
0 0
0 0
0 0
0 0
0 0
0 0
0 0
0 0
0 0
0 0
0 0
0 0
0 0
0 0
0 0
0 0
0 0
0 0
0 0
0 0
0 0
0 0
0 0
0 0
0 0
0 0
0 0
0 0
0 0
0 0
0 0
0 0
0 0
0 0
0 0
0 0
0 0
0 0
0 0
0 0
0 0
0 0
0 0
0 0
0 0
0 0
0 0
0 0
0 0
0 0
0 0
0 0
0 0
0 0
0 0
0 0
0 0
0 0
0 0
0 0
0 0
0 0
0 0
0 0
0 0
0 0
0 0
0 0
0 0
0 0
0 0
0 0
0 0
0 0
0 0
0 0
0 0
0 0
0 0
0 0
0 0
0 0
0 0
0 0
0 0
0 0
0 0
0 0
0 0
0 0
0 0
0 0
0 0
0 0
0 0
0 0
0 0
0 0
0 0
0 0
0 0
0 0
0 0
0 0
0 0
0 0
0 0
0 0
0 0
0 0
0 0
0 0
0 0
0 0
0 0
0 0
0 0
0 0
0 0
0 0
0 0
0 0
0 0
0 0
0 0
0 0
0 0
0 0
0 0
0 0
0 0
0 0
0 0
0 0
0 0
0 0
0 0
0 0
0 0
0 0
0 0
0 0
0 0
0 0
0 0
0 0
0 0
0 0
0 0
0 0
0 0
0 0
0 0
0 0
0 0
0 0
0 0
0 0
0 0
0 0
0 0
0 0
0 0
0 0
0 0
0 0
0 0
0 0
0 0
0 0
0 0
0 0
0 0
0 0
0 0
0 0
0 0
0 0
0 0
0 0
0 0
0 0
0 0
0 0
0 0
0 0
0 0
0 0
0 0
0 0
0 0
0 0
0 0
0 0
0 0
0 0
0 0
0 0
0 0
0 0
0 0
0 0
0 0
0 0
0 0
0 0
0 0
0 0
0 0
0 0
0 0
0 0
0 0
0 0
0 0
0 0
0 0
0 0
0 0
0 0
0 0
0 0
0 0
0 0
0 0
0 0
0 0
0 0
0 0
0 0
0 0
0 0
0 0
0 0
0 0
0 0
0 0
0 0
0 0
0 0
0 0
0 0
0 0
0 0
0 0
0 0
0 0
0 0
0 0
0 0
0 0
0 0
0 0
0 0
0 0
0 0
0 0
0 0
0 0
0 0
0 0
0 0
0 0
0 0
0 0
0 0
0 0
0 0
0 0
0 0
0 0
0 0
0 0
0 0
0 0
0 0
0 0
0 0
0 0
0 0
0 0
0 0
0 0
0 0
0 0
0 0
0 0
0 0
0 0
0 0
0 0
0 0
0 0
0 0
0 0
0 0
0 0
0 0
0 0
0 0
0 0
0 0
0 0
0 0
0 0
0 0
0 0
0 0
0 0
0 0
0 0
0 0
0 0
0 0
0 0
0 0
0 0
0 0
0 0
0 0
0 0
0 0
0 0
0 0
0 0
0 0
0 0
0 0
0 0
0 0
0 0
0 0
0 0
0 0
0 0
0 0
0 0
0 0
0 0
0 0
0 0
0 0
0 0
0 0
0 0
0 0
0 0
0 0
0 0
0 0
0 0
0 0
0 0
0 0
0 0
0 0
0 0
0 0
0 0
0 0
0 0
0 0
0 0
0 0
0 0
0 0
0 0
0 0
0 0
0 0
0 0
0 0
0 0
0 0
0 0
0 0
0 0
0 0
0 0
0 0
0 0
0 0
0 0
0 0
0 0
0 0
0 0
0 0
0 0
0 0
0 0
0 0
0 0
0 0
0 0
0 0
0 0
0 0
0 0
0 0
0 0
0 0
0 0
0 0
0 0
0 0
0 0
0 0
0 0
0 0
0 0
0 0
0 0
0 0
0 0
0 0
0 0
0 0
0 0
0 0
0 0
0 0
0 0
0 0
0 0
0 0
0 0
0 0
0 0
0 0
0 0
0 0
0 0
0 0
0 0
0 0
0 0
0 0
0 0
0 0
0 0
0 0
0 0
0 0
0 0
0 0
0 0
0 0
0 0
0 0
0 0
0 0
0 0
0 0
0 0
0 0
0 0
0 0
0 0
0 0
0 0
0 0
0 0
0 0
0 0
0 0
0 0
0 0
0 0
0 0
0 0
0 0
0 0
0 0
0 0
0 0
0 0
0 0
0 0
0 0
0 0
0 0
0 0
0 0
0 0
0 0
0 0
0 0
0 0
0 0
0 0
0 0
0 0
0 0
0 0
0 0
0 0
0 0
0 0
0 0
0 0
0 0
0 0
0 0
0 0
0 0
0 0
0 0
0 0
0 0
0 0
0 0
0 0
0 0
0 0
0 0
0 0
0 0
0 0
0 0
0 0
0 0
0 0
0 0
0 0
0 0
0 0
0 0
0 0
0 0
0 0
0 0
0 0
0 0
0 0
0 0
0 0
0 0
0 0
0 0
0 0
0 0
0 0
0 0
0 0
0 0
0 0
0 0
0 0
0 0
0 0
0 0
0 0
0 0
0 0
0 0
0 0
0 0
0 0
0 0
0 0
0 0
0 0
0 0
0 0
0 0
0 0
0 0
0 0
0 0
0 0
0 0
0 0
0 0
0 0
0 0
0 0
0 0
0 0
0 0
0 0
0 0
0 0
0 0
0 0
0 0
0 0
0 0
0 0
0 0
0 0
0 0
0 0
0 0
0 0
0 0
0 0
0 0
0 0
0 0
0 0
0 0
0 0
0 0
0 0
0 0
0 0
0 0
0 0
0 0
0 0
0 0
0 0
0 0
0 0
0 0
0 0
0 0
0 0
0 0
0 0
0 0
0 0
0 0
0 0
0 0
0 0
0 0
0 0
0 0
0 0
0 0
0 0
0 0
0 0
0 0
0 0
0 0
0 0
0 0
0 0
0 0
0 0
0 0
0 0
0 0
0 0
0 0
0 0
0 0
0 0
0 0
0 0
0 0
0 0
0 0
0 0
0 0
0 0
0 0
0 0
0 0
0 0
0 0
0 0
0 0
0 0
0 0
0 0
0 0
0 0
0 0
0 0
0 0
0 0
0 0
0 0
0 0
0 0
0 0
0 0
0 0
0 0
0 0
0 0
0 0
0 0
0 0
0 0
0 0
0 0
0 0
0 0
0 0
0 0
0 0
0 0
0 0
0 0
0 0
0 0
0 0
0 0
0 0
0 0
0 0
0 0
0 0
0 0
0 0
0 0
0 0
0 0
0 0
0 0
0 0
0 0
0 0
0 0
0 0
0 0
0 0
0 0
0 0
0 0
0 0
0 0
0 0
0 0
0 0
0 0
0 0
0 0
0 0
0 0
0 0
0 0
0 0
0 0
0 0
0 0
0 0
0 0
0 0
0 0
0 0
0 0
0 0
0 0
0 0
0 0
0 0
0 0
0 0
0 0
0 0
0 0
0 0
0 0
0 0
0 0
0 0
0 0
0 0
0 0
0 0
0 0
0 0
0 0
0 0
0 0
0 0
0 0
0 0
0 0
0 0
0 0
0 0
0 0
0 0
0 0
0 0
0 0
0 0
0 0
0 0
0 0
0 0
0 0
0 0
0 0
0 0
0 0
0 0
0 0
0 0
0 0
0 0
0 0
0 0
0 0
0 0
0 0
0 0
0 0
0 0
0 0
0 0
0 0
0 0
0 0
0 0
0 0
0 0
0 0
0 0
0 0
0 0
0 0
0 0
0 0
0 0
0 0
0 0
0 0
0 0
0 0
0 0
0 0
0 0
0 0
0 0
0 0
0 0
0 0
0 0
0 0
0 0
0 0
0 0
0 0
0 0
0 0
0 0
0 0
0 0
0 0
0 0
0 0
0 0
0 0
0 0
0 0
0 0
0 0
0 0
0 0
0 0
0 0
0 0
0 0
0 0
0 0
0 0
0 0
0 0
0 0
0 0
0 0
0 0
0 0
0 0
0 0
0 0
0 0
0 0
0 0
0 0
0 0
0 0
0 0
0 0
0 0
0 0
0 0
0 0
0 0
0 0
0 0
0 0
0 0
0 0
0 0
0 0
0 0
0 0
0 0
0 0
0 0
0 0
0 0
0 0
0 0
0 0
0 0
0 0
0 0
0 0
0 0
0 0
0 0
0 0
0 0
0 0
0 0
0 0
0 0
0 0
0 0
0 0
0 0
0 0
0 0
0 0
0 0
0 0
0 0
0 0
0 0
0 0
0 0
0 0
0 0
0 0
0 0
0 0
0 0
0 0
0 0
0 0
0 0
0 0
0 0
0 0
0 0
0 0
0 0
0 0
0 0
0 0
0 0
0 0
0 0
0 0
0 0
0 0
0 0
0 0
0 0
0 0
0 0
0 0
0 0
0 0
0 0
0 0
0 0
0 0
0 0
0 0
0 0
0 0
0 0
0 0
0 0
0 0
0 0
0 0
0 0
0 0
0 0
0 0
0 0
0 0
0 0
0 0
0 0
0 0
0 0
0 0
0 0
0 0
0 0
0 0
0 0
0 0
0 0
0 0
0 0
0 0
0 0
0 0
0 0
0 0
0 0
0 0
0 0
0 0
0 0
0 0
0 0
0 0
0 0
0 0
0 0
0 0
0 0
0 0
0 0
0 0
0 0
0 0
0 0
0 0
0 0
0 0
0 0
0 0
0 0
0 0
0 0
0 0
0 0
0 0
0 0
0 0
0 0
0 0
0 0
0 0
0 0
0 0
0 0
0 0
0 0
0 0
0 0
0 0
0 0
0 0
0 0
0 0
0 0
0 0
0 0
0 0
0 0
0 0
0 0
0 0
0 0
0 0
0 0
0 0
0 0
0 0
0 0
0 0
0 0
0 0
0 0
0 0
0 0
0 0
0 0
0 0
0 0
0 0
0 0
0 0
0 0
0 0
0 0
0 0
0 0
0 0
0 0
0 0
0 0
0 0
0 0
0 0
0 0
0 0
0 0
0 0
0 0
0 0
0 0
0 0
0 0
0 0
0 0
0 0
0 0
0 0
0 0
0 0
0 0
0 0
0 0
0 0
0 0
0 0
0 0
0 0
0 0
0 0
0 0
0 0
0 0
0 0
0 0
0 0
0 0
0 0
0 0
0 0
0 0
0 0
0 0
0 0
0 0
0 0
0 0
0 0
0 0
0 0
0 0
0 0
0 0
0 0
0 0
0 0
0 0
0 0
0 0
0 0
0 0
0 0
0 0
0 0
0 0
0 0
0 0
0 0
0 0
0 0
0 0
0 0
0 0
0 0
0 0
0 0
0 0
0 0
0 0
0 0
0 0
0 0
0 0
0 0
0 0
0 0
0 0
0 0
0 0
0 0
0 0
0 0
0 0
0 0
0 0
0 0
0 0
0 0
0 0
0 0
0 0
0 0
0 0
0 0
0 0
0 0
0 0
0 0
0 0
0 0
0 0
0 0
0 0
0 0
0 0
0 0
0 0
0 0
0 0
0 0
0 0
0 0
0 0
0 0
0 0
0 0
0 0
0 0
0 0
0 0
0 0
0 0
0 0
0 0
0 0
0 0
0 0
0 0
0 0
0 0
0 0
0 0
0 0
0 0
0 0
0 0
0 0
0 0
0 0
0 0
0 0
0 0
0 0
0 0
0 0
0 0
0 0
0 0
0 0
0 0
0 0
0 0
0 0
0 0
0 0
0 0
0 0
0 0
0 0
0 0
0 0
0 0
0 0
0 0
0 0
0 0
0 0
0 0
0 0
0 0
0 0
0 0
0 0
0 0
0 0
0 0
0 0
0 0
0 0
0 0
0 0
0 0
0 0
0 0
0 0
0 0
0 0
0 0
0 0
0 0
0 0
0 0
0 0
0 0
0 0
0 0
0 0
0 0
0 0
0 0
0 0
0 0
0 0
0 0
0 0
0 0
0 0
0 0
0 0
0 0
0 0
0 0
0 0
0 0
0 0
0 0
0 0
0 0
0 0
0 0
0 0
0 0
0 0
0 0
0 0
0 0
0 0
0 0
0 0
0 0
0 0
0 0
0 0
0 0
0 0
0 0
0 0
0 0
0 0
0 0
0 0
0 0
0 0
0 0
0 0
0 0
0 0
0 0
0 0
0 0
0 0
0 0
0 0
0 0
0 0
0 0
0 0
0 0
0 0
0 0
0 0
0 0
0 0
0 0
0 0
0 0
0 0
0 0
0 0
0 0
0 0
0 0
0 0
0 0
0 0
0 0
0 0
0 0
0 0
0 0
0 0
0 0
0 0
0 0
0 0
0 0
0 0
0 0
0 0
0 0
0 0
0 0
0 0
0 0
0 0
0 0
0 0
0 0
0 0
0 0
0 0
0 0
0 0
0 0
0 0
0 0
0 0
0 0
0 0
0 0
0 0
0 0
0 0
0 0
0 0
0 0
0 0
0 0
0 0
0 0
0 0
0 0
0 0
0 0
0 0
0 0
0 0
0 0
0 0
0 0
0 0
0 0
0 0
0 0
0 0
0 0
0 0
0 0
0 0
0 0
0 0
0 0
0 0
0 0
0 0
0 0
0 0
0 0
0 0
0 0
0 0
0 0
0 0
0 0
0 0
0 0
0 0
0 0
0 0
0 0
0 0
0 0
0 0
0 0
0 0
0 0
0 0
0 0
0 0
0 0
0 0
0 0
0 0
0 0
0 0
0 0
0 0
0 0
0 0
0 0
0 0
0 0
0 0
0 0
0 0
0 0
0 0
0 0
0 0
0 0
0 0
0 0
0 0
0 0
0 0
0 0
0 0
0 0
0 0
0 0
0 0
0 0
0 0
0 0
0 0
0 0
0 0
0 0
0 0
0 0
0 0
0 0
0 0
0 0
0 0
0 0
0 0
0 0
0 0
0 0
0 0
0 0
0 0
0 0
0 0
0 0
0 0
0 0
0 0
0 0
0 0
0 0
0 0
0 0
0 0
0 0
0 0
0 0
0 0
0 0
0 0
0 0
0 0
0 0
0 0
0 0
0 0
0 0
0 0
0 0
0 0
0 0
0 0
0 0
0 0
0 0
0 0
0 0
0 0
0 0
0 0
0 0
0 0
0 0
0 0
0 0
0 0
0 0
0 0
0 0
0 0
0 0
0 0
0 0
0 0
0 0
0 0
0 0
0 0
0 0
0 0
0 0
0 0
0 0
0 0
0 0
0 0
0 0
0 0
0 0
0 0
0 0
0 0
0 0
0 0
0 0
0 0
0 0
0 0
0 0
0 0
0 0
0 0
0 0
0 0
0 0
0 0
0 0
0 0
0 0
0 0
0 0
0 0
0 0
0 0
0 0
0 0
0 0
0 0
0 0
0 0
0 0
0 0
0 0
0 0
0 0
0 0
0 0
0 0
0 0
0 0
0 0
0 0
0 0
0 0
0 0
0 0
0 0
0 0
0 0
0 0
0 0
0 0
0 0
0 0
0 0
0 0
0 0
0 0
0 0
0 0
0 0
0 0
0 0
0 0
0 0
0 0
0 0
0 0
0 0
0 0
0 0
0 0
0 0
0 0
0 0
0 0
0 0
0 0
0 0
0 0
0 0
0 0
0 0
0 0
0 0
0 0
0 0
0 0
0 0
0 0
0 0
0 0
0 0
0 0
0 0
0 0
0 0
0 0
0 0
0 0
0 0
0 0
0 0
0 0
0 0
0 0
0 0
0 0
0 0
0 0
0 0
0 0
0 0
0 0
0 0
0 0
0 0
0 0
0 0
0 0
0 0
0 0
0 0
0 0
0 0
0 0
0 0
0 0
0 0
0 0
0 0
0 0
0 0
0 0
0 0
0 0
0 0
0 0
0 0
0 0
0 0
0 0
0 0
0 0
0 0
0 0
0 0
0 0
0 0
0 0
0 0
0 0
0 0
0 0
0 0
0 0
0 0
0 0
0 0
0 0
0 0
0 0
0 0
0 0
0 0
0 0
0 0
0 0
0 0
0 0
0 0
0 0
0 0
0 0
0 0
0 0
0 0
0 0
0 0
0 0
0 0
0 0
0 0
0 0
0 0
0 0
0 0
0 0
0 0
0 0
0 0
0 0
0 0
0 0
0 0
0 0
0 0
0 0
0 0
0 0
0 0
0 0
0 0
0 0
0 0
0 0
0 0
0 0
0 0
0 0
0 0
0 0
0 0
0 0
0 0
0 0
0 0
0 0
0 0
0 0
0 0
0 0
0 0
0 0
0 0
0 0
0 0
0 0
0 0
0 0
0 0
0 0
0 0
0 0
0 0
0 0
0 0
0 0
0 0
0 0
0 0
0 0
0 0
0 0
0 0
0 0
0 0
0 0
0 0
0 0
0 0
0 0
0 0
0 0
0 0
0 0
0 0
0 0
0 0
0 0
0 0
0 0
0 0
0 0
0 0
0 0
0 0
0 0
0 0
0 0
0 0
0 0
0 0
0 0
0 0
0 0
0 0
0 0
0 0
0 0
0 0
0 0
0 0
0 0
0 0
0 0
0 0
0 0
0 0
0 0
0 0
0 0
0 0
0 0
0 0
0 0
0 0
0 0
0 0
0 0
0 0
0 0
0 0
0 0
0 0
0 0
0 0
0 0
0 0
0 0
0 0
0 0
0 0
0 0
0 0
0 0
0 0
0 0
0 0
0 0
0 0
0 0
0 0
0 0
0 0
0 0
0 0
0 0
0 0
0 0
0 0
0 0
0 0
0 0
0 0
0 0
0 0
0 0
0 0
0 0
0 0
0 0
0 0
0 0
0 0
0 0
0 0
0 0
0 0
0 0
0 0
0 0
0 0
0 0
0 0
0 0
0 0
0 0
0 0
0 0
0 0
0 0
0 0
0 0
0 0
0 0
0 0
0 0
0 0
0 0
0 0
0 0
0 0
0 0
0 0
0 0
0 0
0 0
0 0
0 0
0 0
0 0
0 0
0 0
0 0
0 0
0 0
0 0
0 0
0 0
0 0
0 0
0 0
0 0
0 0
0 0
0 0
0 0
0 0
0 0
0 0
0 0
0 0
0 0
0 0
0 0
0 0
0 0
0 0
0 0
0 0
0 0
0 0
0 0
0 0
0 0
0 0
0 0
0 0
0 0
0 0
0 0
0 0
0 0
0 0
0 0
0 0
0 0
0 0
0 0
0 0
0 0
0 0
0 0
0 0
0 0
0 0
0 0
0 0
0 0
0 0
0 0
0 0
0 0
0 0
0 0
0 0
0 0
0 0
0 0
0 0
0 0
0 0
0 0
0 0
0 0
0 0
0 0
0 0
0 0
0 0
0 0
0 0
0 0
0 0
0 0
0 0
0 0
0 0
0 0
0 0
0 0
0 0
0 0
0 0
0 0
0 0
0 0
0 0
0 0
0 0
0 0
0 0
0 0
0 0
0 0
0 0
0 0
0 0
0 0
0 0
0 0
0 0
0 0
0 0
0 0
0 0
0 0
0 0
0 0
0 0
0 0
0 0
0 0
0 0
0 0
0 0
0 0
0 0
0 0
0 0
0 0
0 0
0 0
0 0
0 0
0 0
0 0
0 0
0 0
0 0
0 0
0 0
0 0
0 0
0 0
0 0
0 0
0 0
0 0
0 0
0 0
0 0
0 0
0 0
0 0
0 0
0 0
0 0
0 0
0 0
0 0
0 0
0 0
0 0
0 0
0 0
0 0
0 0
0 0
0 0
0 0
0 0
0 0
0 0
0 0
0 0
0 0
0 0
0 0
0 0
0 0
0 0
0 0
0 0
0 0
0 0
0 0
0 0
0 0
0 0
0 0
0 0
0 0
0 0
0 0
0 0
0 0
0 0
0 0
0 0
0 0
0 0
0 0
0 0
0 0
0 0
0 0
0 0
0 0
0 0
0 0
0 0
0 0
0 0
0 0
0 0
0 0
0 0
0 0
0 0
0 0
0 0
0 0
0 0
0 0
0 0
0 0
0 0
0 0
0 0
0 0
0 0
0 0
0 0
0 0
0 0
0 0
0 0
0 0
0 0
0 0
0 0
0 0
0 0
0 0
0 0
0 0
0 0
0 0
0 0
0 0
0 0
0 0
0 0
0 0
0 0
0 0
0 0
0 0
0 0
0 0
0 0
0 0
0 0
0 0
0 0
0 0
0 0
0 0
0 0
0 0
0 0
0 0
0 0
0 0
0 0
0 0
0 0
0 0
0 0
0 0
0 0
0 0
0 0
0 0
0 0
0 0
0 0
0 0
0 0
0 0
0 0
0 0
0 0
0 0
0 0
0 0
0 0
0 0
0 0
0 0
0 0
0 0
0 0
0 0
0 0
0 0
0 0
0 0
0 0
0 0
0 0
0 0
0 0
0 0
0 0
0 0
0 0
0 0
0 0
0 0
0 0
0 0
0 0
0 0
0 0
0 0
0 0
0 0
0 0
0 0
0 0
0 0
0 0
0 0
0 0
0 0
0 0
0 0
0 0
0 0
0 0
0 0
0 0
0 0
0 0
0 0
0 0
0 0
0 0
0 0
0 0
0 0
0 0
0 0
0 0
0 0
0 0
0 0
0 0
0 0
0 0
0 0
0 0
0 0
0 0
0 0
0 0
0 0
0 0
0 0
0 0
0 0
0 0
0 0
0 0
0 0
0 0
0 0
0 0
0 0
0 0
0 0
0 0
0 0
0 0
0 0
0 0
0 0
0 0
0 0
0 0
0 0
0 0
0 0
0 0
0 0
0 0
0 0
0 0
0 0
0 0
0 0
0 0
0 0
0 0
0 0
0 0
0 0
0 0
0 0
0 0
0 0
0 0
0 0
0 0
0 0
0 0
0 0
0 0
0 0
0 0
0 0
0 0
0 0
0 0
0 0
0 0
0 0
0 0
0 0
0 0
0 0
0 0
0 0
0 0
0 0
0 0
0 0
0 0
0 0
0 0
0 0
0 0
0 0
0 0
0 0
0 0
0 0
0 0
0 0
0 0
0 0
0 0
0 0
0 0
0 0
0 0
0 0
0 0
0 0
0 0
0 0
0 0
0 0
0 0
0 0
0 0
0 0
0 0
0 0
0 0
0 0
0 0
0 0
0 0
0 0
0 0
0 0
0 0
0 0
0 0
0 0
0 0
0 0
0 0
0 0
0 0
0 0
0 0
0 0
0 0
0 0
0 0
0 0
0 0
0 0
0 0
0 0
0 0
0 0
0 0
0 0
0 0
0 0
0 0
0 0
0 0
0 0
0 0
0 0
0 0
0 0
0 0
0 0
0 0
0 0
0 0
0 0
0 0
0 0
0 0
0 0
0 0
0 0
0 0
0 0
0 0
0 0
0 0
0 0
0 0
0 0
0 0
0 0
0 0
0 0
0 0
0 0
0 0
0 0
0 0
0 0
0 0
0 0
0 0
0 0
0 0
0 0
0 0
0 0
0 0
0 0
0 0
0 0
0 0
0 0
0 0
0 0
0 0
0 0
0 0
0 0
0 0
0 0
0 0
0 0
0 0
0 0
0 0
0 0
0 0
0 0
0 0
0 0
0 0
0 0
0 0
0 0
0 0
0 0
0 0
0 0
0 0
0 0
0 0
0 0
0 0
0 0
0 0
0 0
0 0
0 0
0 0
0 0
0 0
0 0
0 0
0 0
0 0
0 0
0 0
0 0
0 0
0 0
0 0
0 0
0 0
0 0
0 0
0 0
0 0
0 0
0 0
0 0
0 0
0 0
0 0
0 0
0 0
0 0
0 0
0 0
0 0
0 0
0 0
0 0
0 0
0 0
0 0
0 0
0 0
0 0
0 0
0 0
0 0
0 0
0 0
0 0
0 0
0 0
0 0
0 0
0 0
0 0
0 0
0 0
0 0
0 0
0 0
0 0
0 0
0 0
0 0
0 0
0 0
0 0
0 0
0 0
0 0
0 0
0 0
0 0
0 0
0 0
0 0
0 0
0 0
0 0
0 0
0 0
0 0
0 0
0 0
0 0
0 0
0 0
0 0
0 0
0 0
0 0
0 0
0 0
0 0
0 0
0 0
0 0
0 0
0 0
0 0
0 0
0 0
0 0
0 0
0 0
0 0
0 0
0 0
0 0
0 0
0 0
0 0
0 0
0 0
0 0
0 0
0 0
0 0
0 0
0 0
0 0
0 0
0 0
0 0
0 0
0 0
0 0
0 0
0 0
0 0
0 0
0 0
0 0
0 0
0 0
0 0
0 0
0 0
0 0
0 0
0 0
0 0
0 0
0 0
0 0
0 0
0 0
0 0
0 0
0 0
0 0
0 0
0 0
0 0
0 0
0 0
0 0
0 0
0 0
0 0
0 0
0 0
0 0
0 0
0 0
0 0
0 0
0 0
0 0
0 0
0 0
0 0
0 0
0 0
0 0
0 0
0 0
0 0
0 0
0 0
0 0
0 0
0 0
0 0
0 0
0 0
0 0
0 0
0 0
0 0
0 0
0 0
0 0
0 0
0 0
0 0
0 0
0 0
0 0
0 0
0 0
0 0
0 0
0 0
0 0
0 0
0 0
0 0
0 0
0 0
0 0
0 0
0 0
0 0
0 0
0 0
0 0
0 0
0 0
0 0
0 0
0 0
0 0
0 0
0 0
0 0
0 0
0 0
0 0
0 0
0 0
0 0
0 0
0 0
0 0
0 0
0 0
0 0
0 0
0 0
0 0
0 0
0 0
0 0
0 0
0 0
0 0
0 0
0 0
0 0
0 0
0 0
0 0
0 0
0 0
0 0
0 0
0 0
0 0
0 0
0 0
0 0
0 0
0 0
0 0
0 0
0 0
0 0
0 0
0 0
0 0
0 0
0 0
0 0
0 0
0 0
0 0
0 0
0 0
0 0
0 0
0 0
0 0
0 0
0 0
0 0
0 0
0 0
0 0
0 0
0 0
0 0
0 0
0 0
0 0
0 0
0 0
0 0
0 0
0 0
0 0
0 0
0 0
0 0
0 0
0 0
0 0
0 0
0 0
0 0
0 0
0 0
0 0
0 0
0 0
0 0
0 0
0 0
0 0
0 0
0 0
0 0
0 0
0 0
0 0
0 0
0 0
0 0
0 0
0 0
0 0
0 0
0 0
0 0
0 0
0 0
0 0
0 0
0 0
0 0
0 0
0 0
0 0
0 0
0 0
0 0
0 0
0 0
0 0
0 0
0 0
0 0
0 0
0 0
0 0
0 0
0 0
0 0
0 0
0 0
0 0
0 0
0 0
0 0
0 0
0 0
0 0
0 0
0 0
0 0
0 0
0 0
0 0
0 0
0 0
0 0
0 0
0 0
0 0
0 0
0 0
0 0
0 0
0 0
0 0
0 0
0 0
0 0
0 0
0 0
0 0
0 0
0 0
0 0
0 0
0 0
0 0
0 0
0 0
0 0
0 0
0 0
0 0
0 0
0 0
0 0
0 0
0 0
0 0
0 0
0 0
0 0
0 0
0 0
0 0
0 0
0 0
0 0
0 0
0 0
0 0
0 0
0 0
0 0
0 0
0 0
0 0
0 0
0 0
0 0
0 0
0 0
0 0
0 0
0 0
0 0
0 0
0 0
0 0
0 0
0 0
0 0
0 0
0 0
0 0
0 0
0 0
0 0
0 0
0 0
0 0
0 0
0 0
0 0
0 0
0 0
0 0
0 0
0 0
0 0
0 0
0 0
0 0
0 0
0 0
0 0
0 0
0 0
0 0
0 0
0 0
0 0
0 0
0 0
0 0
0 0
0 0
0 0
0 0
0 0
0 0
0 0
0 0
0 0
0 0
0 0
0 0
0 0
0 0
0 0
0 0
0 0
0 0
0 0
0 0
0 0
0 0
0 0
0 0
0 0
0 0
0 0
0 0
0 0
0 0
0 0
0 0
0 0
0 0
0 0
0 0
0 0
0 0
0 0
0 0
0 0
0 0
0 0
0 0
0 0
0 0
0 0
0 0
0 0
0 0
0 0
0 0
0 0
0 0
0 0
0 0
0 0
0 0
0 0
0 0
0 0
0 0
0 0
0 0
0 0
0 0
0 0
0 0
0 0
0 0
0 0
0 0
0 0
0 0
0 0
0 0
0 0
0 0
0 0
0 0
0 0
0 0
0 0
0 0
0 0
0 0
0 0
0 0
0 0
0 0
0 0
0 0
0 0
0 0
0 0
0 0
0 0
0 0
0 0
0 0
0 0
0 0
0 0
0 0
0 0
0 0
0 0
0 0
0 0
0 0
0 0
0 0
0 0
0 0
0 0
0 0
0 0
0 0
0 0
0 0
0 0
0 0
0 0
0 0
0 0
0 0
0 0
0 0
0 0
0 0
0 0
0 0
0 0
0 0
0 0
0 0
0 0
0 0
0 0
0 0
0 0
0 0
0 0
0 0
0 0
0 0
0 0
0 0
0 0
0 0
0 0
0 0
0 0
0 0
0 0
0 0
0 0
0 0
0 0
0 0
0 0
0 0
0 0
0 0
0 0
0 0
0 0
0 0
0 0
0 0
0 0
0 0
0 0
0 0
0 0
0 0
0 0
0 0
0 0
0 0
0 0
0 0
0 0
0 0
0 0
0 0
0 0
0 0
0 0
0 0
0 0
0 0
0 0
0 0
0 0
0 0
0 0
0 0
0 0
0 0
0 0
0 0
0 0
0 0
0 0
0 0
0 0
0 0
0 0
0 0
0 0
0 0
0 0
0 0
0 0
0 0
0 0
0 0
0 0
0 0
0 0
0 0
0 0
0 0
0 0
0 0
0 0
0 0
0 0
0 0
0 0
0 0
0 0
0 0
0 0
0 0
0 0
0 0
0 0
0 0
0 0
0 0
0 0
0 0
0 0
0 0
0 0
0 0
0 0
0 0
0 0
0 0
0 0
0 0
0 0
0 0
0 0
0 0
0 0
0 0
0 0
0 0
0 0
0 0
0 0
0 0
0 0
0 0
0 0
0 0
0 0
0 0
0 0
0 0
0 0
0 0
0 0
0 0
0 0
0 0
0 0
0 0
0 0
0 0
0 0
0 0
0 0
0 0
0 0
0 0
0 0
0 0
0 0
0 0
0 0
0 0
0 0
0 0
0 0
0 0
0 0
0 0
0 0
0 0
0 0
0 0
0 0
0 0
0 0
0 0
0 0
0 0
0 0
0 0
0 0
0 0
0 0
0 0
0 0
0 0
0 0
0 0
0 0
0 0
0 0
0 0
0 0
0 0
0 0
0 0
0 0
0 0
0 0
0 0
0 0
0 0
0 0
0 0
0 0
0 0
0 0
0 0
0 0
0 0
0 0
0 0
0 0
0 0
0 0
0 0
0 0
0 0
0 0
0 0
0 0
0 0
0 0
0 0
0 0
0 0
0 0
0 0
0 0
0 0
0 0
0 0
0 0
0 0
0 0
0 0
0 0
0 0
0 0
0 0
0 0
0 0
0 0
0 0
0 0
0 0
0 0
0 0
0 0
0 0
0 0
0 0
0 0
0 0
0 0
0 0
0 0
0 0
0 0
0 0
0 0
0 0
0 0
0 0
0 0
0 0
0 0
0 0
0 0
0 0
0 0
0 0
0 0
0 0
0 0
0 0
0 0
0 0
0 0
0 0
0 0
0 0
0 0
0 0
0 0
0 0
0 0
0 0
0 0
0 0
0 0
0 0
0 0
0 0
0 0
0 0
0 0
0 0
0 0
0 0
0 0
0 0
0 0
0 0
0 0
0 0
0 0
0 0
0 0
0 0
0 0
0 0
0 0
0 0
0 0
0 0
0 0
0 0
0 0
0 0
0 0
0 0
0 0
0 0
0 0
0 0
0 0
0 0
0 0
0 0
0 0
0 0
0 0
0 0
0 0
0 0
0 0
0 0
0 0
0 0
0 0
0 0
0 0
0 0
0 0
0 0
0 0
0 0
0 0
0 0
0 0
0 0
0 0
0 0
0 0
0 0
0 0
0 0
0 0
0 0
0 0
0 0
0 0
0 0
0 0
0 0
0 0
0 0
0 0
0 0
0 0
0 0
0 0
0 0
0 0
0 0
0 0
0 0
0 0
0 0
0 0
0 0
0 0
0 0
0 0
0 0
0 0
0 0
0 0
0 0
0 0
0 0
0 0
0 0
0 0
0 0
0 0
0 0
0 0
0 0
0 0
0 0
0 0
0 0
0 0
0 0
0 0
0 0
0 0
0 0
0 0
0 0
0 0
0 0
0 0
0 0
0 0
0 0
0 0
0 0
0 0
0 0
0 0
0 0
0 0
0 0
0 0
0 0
0 0
0 0
0 0
0 0
0 0
0 0
0 0
0 0
0 0
0 0
0 0
0 0
0 0
0 0
0 0
0 0
0 0
0 0
0 0
0 0
0 0
0 0
0 0
0 0
0 0
0 0
0 0
0 0
0 0
0 0
0 0
0 0
0 0
0 0
0 0
0 0
0 0
0 0
0 0
0 0
0 0
0 0
0 0
0 0
0 0
0 0
0 0
0 0
0 0
0 0
0 0
0 0
0 0
0 0
0 0
0 0
0 0
0 0
0 0
0 0
0 0
0 0
0 0
0 0
0 0
0 0
0 0
0 0
0 0
0 0
0 0
0 0
0 0
0 0
0 0
0 0
0 0
0 0
0 0
0 0
0 0
0 0
0 0
0 0
0 0
0 0
0 0
0 0
0 0
0 0
0 0
0 0
0 0
0 0
0 0
0 0
0 0
0 0
0 0
0 0
0 0
0 0
0 0
0 0
0 0
0 0
0 0
0 0
0 0
0 0
0 0
0 0
0 0
0 0
0 0
0 0
0 0
0 0
0 0
0 0
0 0
0 0
0 0
0 0
0 0
0 0
0 0
0 0
0 0
0 0
0 0
0 0
0 0
0 0
0 0
0 0
0 0
0 0
0 0
0 0
0 0
0 0
0 0
0 0
0 0
0 0
0 0
0 0
0 0
0 0
0 0
0 0
0 0
0 0
0 0
0 0
0 0
0 0
0 0
0 0
0 0
0 0
0 0
0 0
0 0
0 0
0 0
0 0
0 0
0 0
0 0
0 0
0 0
0 0
0 0
0 0
0 0
0 0
0 0
0 0
0 0
0 0
0 0
0 0
0 0
0 0
0 0
0 0
0 0
0 0
0 0
0 0
0 0
0 0
0 0
0 0
0 0
0 0
0 0
0 0
0 0
0 0
0 0
0 0
0 0
0 0
0 0
0 0
0 0
0 0
0 0
0 0
0 0
0 0
0 0
0 0
0 0
0 0
0 0
0 0
0 0
0 0
0 0
0 0
0 0
0 0
0 0
0 0
0 0
0 0
0 0
0 0
0 0
0 0
0 0
0 0
0 0
0 0
0 0
0 0
0 0
0 0
0 0
0 0
0 0
0 0
0 0
0 0
0 0
0 0
0 0
0 0
0 0
0 0
0 0
0 0
0 0
0 0
0 0
0 0
0 0
0 0
0 0
0 0
0 0
0 0
0 0
0 0
0 0
0 0
0 0
0 0
0 0
0 0
0 0
0 0
0 0
0 0
0 0
0 0
0 0
0 0
0 0
0 0
0 0
0 0
0 0
0 0
0 0
0 0
0 0
0 0
0 0
0 0
0 0
0 0
0 0
0 0
0 0
0 0
0 0
0 0
0 0
0 0
0 0
0 0
0 0
0 0
0 0
0 0
0 0
0 0
0 0
0 0
0 0
0 0
0 0
0 0
0 0
0 0
0 0
0 0
0 0
0 0
0 0
0 0
0 0
0 0
0 0
0 0
0 0
0 0
0 0
0 0
0 0
0 0
0 0
0 0
0 0
0 0
0 0
0 0
0 0
0 0
0 0
0 0
0 0
0 0
0 0
0 0
0 0
0 0
0 0
0 0
0 0
0 0
0 0
0 0
0 0
0 0
0 0
0 0
0 0
0 0
0 0
0 0
0 0
0 0
0 0
0 0
0 0
0 0
0 0
0 0
0 0
0 0
0 0
0 0
0 0
0 0
0 0
0 0
0 0
0 0
0 0
0 0
0 0
0 0
0 0
0 0
0 0
0 0
0 0
0 0
0 0
0 0
0 0
0 0
0 0
0 0
0 0
0 0
0 0
0 0
0 0
0 0
0 0
0 0
0 0
0 0
0 0
0 0
0 0
0 0
0 0
0 0
0 0
0 0
0 0
0 0
0 0
0 0
0 0
0 0
0 0
0 0
0 0
0 0
0 0
0 0
0 0
0 0
0 0
0 0
0 0
0 0
0 0
0 0
0 0
0 0
0 0
0 0
0 0
0 0
0 0
0 0
0 0
0 0
0 0
0 0
0 0
0 0
0 0
0 0
0 0
0 0
0 0
0 0
0 0
0 0
0 0
0 0
0 0
0 0
0 0
0 0
0 0
0 0
0 0
0 0
0 0
0 0
0 0
0 0
0 0
0 0
0 0
0 0
0 0
0 0
0 0
0 0
0 0
0 0
0 0
0 0
0 0
0 0
0 0
0 0
0 0
0 0
0 0
0 0
0 0
0 0
0 0
0 0
0 0
0 0
0 0
0 0
0 0
0 0
0 0
0 0
0 0
0 0
0 0
0 0
0 0
0 0
0 0
0 0
0 0
0 0
0 0
0 0
0 0
0 0
0 0
0 0
0 0
0 0
0 0
0 0
0 0
0 0
0 0
0 0
0 0
0 0
0 0
0 0
0 0
0 0
0 0
0 0
0 0
0 0
0 0
0 0
0 0
0 0
0 0
0 0
0 0
0 0
0 0
0 0
0 0
0 0
0 0
0 0
0 0
0 0
0 0
0 0
0 0
0 0
0 0
0 0
0 0
0 0
0 0
0 0
0 0
0 0
0 0
0 0
0 0
0 0
0 0
0 0
0 0
0 0
0 0
0 0
0 0
0 0
0 0
0 0
0 0
0 0
0 0
0 0
0 0
0 0
0 0
0 0
0 0
0 0
0 0
0 0
0 0
0 0
0 0
0 0
0 0
0 0
0 0
0 0
0 0
0 0
0 0
0 0
0 0
0 0
0 0
0 0
0 0
0 0
0 0
0 0
0 0
0 0
0 0
0 0
0 0
0 0
0 0
0 0
0 0
0 0
0 0
0 0
0 0
0 0
0 0
0 0
0 0
0 0
0 0
0 0
0 0
0 0
0 0
0 0
0 0
0 0
0 0
0 0
0 0
0 0
0 0
0 0
0 0
0 0
0 0
0 0
0 0
0 0
0 0
0 0
0 0
0 0
0 0
0 0
0 0
0 0
0 0
0 0
0 0
0 0
0 0
0 0
0 0
0 0
0 0
0 0
0 0
0 0
0 0
0 0
0 0
0 0
0 0
0 0
0 0
0 0
0 0
0 0
0 0
0 0
0 0
0 0
0 0
0 0
0 0
0 0
0 0
0 0
0 0
0 0
0 0
0 0
0 0
0 0
0 0
0 0
0 0
0 0
0 0
0 0
0 0
0 0
0 0
0 0
0 0
0 0
0 0
0 0
0 0
0 0
0 0
0 0
0 0
0 0
0 0
0 0
0 0
0 0
0 0
0 0
0 0
0 0
0 0
0 0
0 0
0 0
0 0
0 0
0 0
0 0
0 0
0 0
0 0
0 0
0 0
0 0
0 0
0 0
0 0
0 0
0 0
0 0
0 0
0 0
0 0
0 0
0 0
0 0
0 0
0 0
0 0
0 0
0 0
0 0
0 0
0 0
0 0
0 0
0 0
0 0
0 0
0 0
0 0
0 0
0 0
0 0
0 0
0 0
0 0
0 0
0 0
0 0
0 0
0 0
0 0
0 0
0 0
0 0
0 0
0 0
0 0
0 0
0 0
0 0
0 0
0 0
0 0
0 0
0 0
0 0
0 0
0 0
0 0
0 0
0 0
0 0
0 0
0 0
0 0
0 0
0 0
0 0
0 0
0 0
0 0
0 0
0 0
0 0
0 0
0 0
0 0
0 0
0 0
0 0
0 0
0 0
0 0
0 0
0 0
0 0
0 0
0 0
0 0
0 0
0 0
0 0
0 0
0 0
0 0
0 0
0 0
0 0
0 0
0 0
0 0
0 0
0 0
0 0
0 0
0 0
0 0
0 0
0 0
0 0
0 0
0 0
0 0
0 0
0 0
0 0
0 0
0 0
0 0
0 0
0 0
0 0
0 0
0 0
0 0
0 0
0 0
0 0
0 0
0 0
0 0
0 0
0 0
0 0
0 0
0 0
0 0
0 0
0 0
0 0
0 0
0 0
0 0
0 0
0 0
0 0
0 0
0 0
0 0
0 0
0 0
0 0
0 0
0 0
0 0
0 0
0 0
0 0
0 0
0 0
0 0
0 0
0 0
0 0
0 0
0 0
0 0
0 0
0 0
0 0
0 0
0 0
0 0
0 0
0 0
0 0
0 0
0 0
0 0
0 0
0 0
0 0
0 0
0 0
0 0
0 0
0 0
0 0
0 0
0 0
0 0
0 0
0 0
0 0
0 0
0 0
0 0
0 0
0 0
0 0
0 0
0 0
0 0
0 0
0 0
0 0
0 0
0 0
0 0
0 0
0 0
0 0
0 0
0 0
0 0
0 0
0 0
0 0
0 0
0 0
0 0
0 0
0 0
0 0
0 0
0 0
0 0
0 0
0 0
0 0
0 0
0 0
0 0
0 0
0 0
0 0
0 0
0 0
0 0
0 0
0 0
0 0
0 0
0 0
0 0
0 0
0 0
0 0
0 0
0 0
0 0
0 0
0 0
0 0
0 0
0 0
0 0
0 0
0 0
0 0
0 0
0 0
0 0
0 0
0 0
0 0
0 0
0 0
0 0
0 0
0 0
0 0
0 0
0 0
0 0
0 0
0 0
0 0
0 0
0 0
0 0
0 0
0 0
0 0
0 0
0 0
0 0
0 0
0 0
0 0
0 0
0 0
0 0
0 0
0 0
0 0
0 0
0 0
0 0
0 0
0 0
0 0
0 0
0 0
0 0
0 0
0 0
0 0
0 0
0 0
0 0
0 0
0 0
0 0
0 0
0 0
0 0
0 0
0 0
0 0
0 0
0 0
0 0
0 0
0 0
0 0
0 0
0 0
0 0
0 0
0 0
0 0
0 0
0 0
0 0
0 0
0 0
0 0
0 0
0 0
0 0
0 0
0 0
0 0
0 0
0 0
0 0
0 0
0 0
0 0
0 0
0 0
0 0
0 0
0 0
0 0
0 0
0 0
0 0
0 0
0 0
0 0
0 0
0 0
0 0
0 0
0 0
0 0
0 0
0 0
0 0
0 0
0 0
0 0
0 0
0 0
0 0
0 0
0 0
0 0
0 0
0 0
0 0
0 0
0 0
0 0
0 0
0 0
0 0
0 0
0 0
0 0
0 0
0 0
0 0
0 0
0 0
0 0
0 0
0 0
0 0
0 0
0 0
0 0
0 0
0 0
0 0
0 0
0 0
0 0
0 0
0 0
0 0
0 0
0 0
0 0
0 0
0 0
0 0
0 0
0 0
0 0
0 0
0 0
0 0
0 0
0 0
0 0
0 0
0 0
0 0
0 0
0 0
0 0
0 0
0 0
0 0
0 0
0 0
0 0
0 0
0 0
0 0
0 0
0 0
0 0
0 0
0 0
0 0
0 0
0 0
0 0
0 0
0 0
0 0
0 0
0 0
0 0
0 0
0 0
0 0
0 0
0 0
0 0
0 0
0 0
0 0
0 0
0 0
0 0
0 0
0 0
0 0
0 0
0 0
0 0
0 0
0 0
0 0
0 0
0 0
0 0
0 0
0 0
0 0
0 0
0 0
0 0
0 0
0 0
0 0
0 0
0 0
0 0
0 0
0 0
0 0
0 0
0 0
0 0
0 0
0 0
0 0
0 0
0 0
0 0
0 0
0 0
0 0
0 0
0 0
0 0
0 0
0 0
0 0
0 0
0 0
0 0
0 0
0 0
0 0
0 0
0 0
0 0
0 0
0 0
0 0
0 0
0 0
0 0
0 0
0 0
0 0
0 0
0 0
0 0
0 0
0 0
0 0
0 0
0 0
0 0
0 0
0 0
0 0
0 0
0 0
0 0
0 0
0 0
0 0
0 0
0 0
0 0
0 0
0 0
0 0
0 0
0 0
0 0
0 0
0 0
0 0
0 0
0 0
0 0
0 0
0 0
0 0
0 0
0 0
0 0
0 0
0 0
0 0
0 0
0 0
0 0
0 0
0 0
0 0
0 0
0 0
0 0
0 0
0 0
0 0
0 0
0 0
0 0
0 0
0 0
0 0
0 0
0 0
0 0
0 0
0 0
0 0
0 0
0 0
0 0
0 0
0 0
0 0
0 0
0 0
0 0
0 0
0 0
0 0
0 0
0 0
0 0
0 0
0 0
0 0
0 0
0 0
0 0
0 0
0 0
0 0
0 0
0 0
0 0
0 0
0 0
0 0
0 0
0 0
0 0
0 0
0 0
0 0
0 0
0 0
0 0
0 0
0 0
0 0
0 0
0 0
0 0
0 0
0 0
0 0
0 0
0 0
0 0
0 0
0 0
0 0
0 0
0 0
0 0
0 0
0 0
0 0
0 0
0 0
0 0
0 0
0 0
0 0
0 0
0 0
0 0
0 0
0 0
0 0
0 0
0 0
0 0
0 0
0 0
0 0
0 0
0 0
0 0
0 0
0 0
0 0
0 0
0 0
0 0
0 0
0 0
0 0
0 0
0 0
0 0
0 0
0 0
0 0
0 0
0 0
0 0
0 0
0 0
0 0
0 0
0 0
0 0
0 0
0 0
0 0
0 0
0 0
0 0
0 0
0 0
0 0
0 0
0 0
0 0
0 0
0 0
0 0
0 0
0 0
0 0
0 0
0 0
0 0
0 0
0 0
0 0
0 0
0 0
0 0
0 0
0 0
0 0
0 0
0 0
0 0
0 0
0 0
0 0
0 0
0 0
0 0
0 0
0 0
0 0
0 0
0 0
0 0
0 0
0 0
0 0
0 0
0 0
0 0
0 0
0 0
0 0
0 0
0 0
0 0
0 0
0 0
0 0
0 0
0 0
0 0
0 0
0 0
0 0
0 0
0 0
0 0
0 0
0 0
0 0
0 0
0 0
0 0
0 0
0 0
0 0
0 0
0 0
0 0
0 0
0 0
0 0
0 0
0 0
0 0
0 0
0 0
0 0
0 0
0 0
0 0
0 0
0 0
0 0
0 0
0 0
0 0
0 0
0 0
0 0
0 0
0 0
0 0
0 0
0 0
0 0
0 0
0 0
0 0
0 0
0 0
0 0
0 0
0 0
0 0
0 0
0 0
0 0
0 0
0 0
0 0
0 0
0 0
0 0
0 0
0 0
0 0
0 0
0 0
0 0
0 0
0 0
0 0
0 0
0 0
0 0
0 0
0 0
0 0
0 0
0 0
0 0
0 0
0 0
0 0
0 0
0 0
0 0
0 0
0 0
0 0
0 0
0 0
0 0
0 0
0 0
0 0
0 0
0 0
0 0
0 0
0 0
0 0
0 0
0 0
0 0
0 0
0 0
0 0
0 0
0 0
0 0
0 0
0 0
0 0
0 0
0 0
0 0
0 0
0 0
0 0
0 0
0 0
0 0
0 0
0 0
0 0
0 0
0 0
0 0
0 0
0 0
0 0
0 0
0 0
0 0
0 0
0 0
0 0
0 0
0 0
0 0
0 0
0 0
0 0
0 0
0 0
0 0
0 0
0 0
0 0
0 0
0 0
0 0
0 0
0 0
0 0
0 0
0 0
0 0
0 0
0 0
0 0
0 0
0 0
0 0
0 0
0 0
0 0
0 0
0 0
0 0
0 0
0 0
0 0
0 0
0 0
0 0
0 0
0 0
0 0
0 0
0 0
0 0
0 0
0 0
0 0
0 0
0 0
0 0
0 0
0 0
0 0
0 0
0 0
0 0
0 0
0 0
0 0
0 0
0 0
0 0
0 0
0 0
0 0
0 0
0 0
0 0
0 0
0 0
0 0
0 0
0 0
0 0
0 0
0 0
0 0
0 0
0 0
0 0
0 0
0 0
0 0
0 0
0 0
0 0
0 0
0 0
0 0
0 0
0 0
0 0
0 0
0 0
0 0
0 0
0 0
0 0
0 0
0 0
0 0
0 0
0 0
0 0
0 0
0 0
0 0
0 0
0 0
0 0
0 0
0 0
0 0
0 0
0 0
0 0
0 0
0 0
0 0
0 0
0 0
0 0
0 0
0 0
0 0
0 0
0 0
0 0
0 0
0 0
0 0
0 0
0 0
0 0
0 0
0 0
0 0
0 0
0 0
0 0
0 0
0 0
0 0
0 0
0 0
0 0
0 0
0 0
0 0
0 0
0 0
0 0
0 0
0 0
0 0
0 0
0 0
0 0
0 0
0 0
0 0
0 0
0 0
0 0
0 0
0 0
0 0
0 0
0 0
0 0
0 0
0 0
0 0
0 0
0 0
0 0
0 0
0 0
0 0
0 0
0 0
0 0
0 0
0 0
0 0
0 0
0 0
0 0
0 0
0 0
0 0
0 0
0 0
0 0
0 0
0 0
0 0
0 0
0 0
0 0
0 0
0 0
0 0
0 0
0 0
0 0
0 0
0 0
0 0
0 0
0 0
0 0
0 0
0 0
0 0
0 0
0 0
0 0
0 0
0 0
0 0
0 0
0 0
0 0
0 0
0 0
0 0
0 0
0 0
0 0
0 0
0 0
0 0
0 0
0 0
0 0
0 0
0 0
0 0
0 0
0 0
0 0
0 0
0 0
0 0
0 0
0 0
0 0
0 0
0 0
0 0
0 0
0 0
0 0
0 0
0 0
0 0
0 0
0 0
0 0
0 0
0 0
0 0
0 0
0 0
0 0
0 0
0 0
0 0
0 0
0 0
0 0
0 0
0 0
0 0
0 0
0 0
0 0
0 0
0 0
0 0
0 0
0 0
0 0
0 0
0 0
0 0
0 0
0 0
0 0
0 0
0 0
0 0
0 0
0 0
0 0
0 0
0 0
0 0
0 0
0 0
0 0
0 0
0 0
0 0
0 0
0 0
0 0
0 0
0 0
0 0
0 0
0 0
0 0
0 0
0 0
0 0
0 0
0 0
0 0
0 0
0 0
0 0
0 0
0 0
0 0
0 0
0 0
0 0
0 0
0 0
0 0
0 0
0 0
0 0
0 0
0 0
0 0
0 0
0 0
0 0
0 0
0 0
0 0
0 0
0 0
0 0
0 0
0 0
0 0
0 0
0 0
0 0
0 0
0 0
0 0
0 0
0 0
0 0
0 0
0 0
0 0
0 0
0 0
0 0
0 0
0 0
0 0
0 0
0 0
0 0
0 0
0 0
0 0
0 0
0 0
0 0
0 0
0 0
0 0
0 0
0 0
0 0
0 0
0 0
0 0
0 0
0 0
0 0
0 0
0 0
0 0
0 0
0 0
0 0
0 0
0 0
0 0
0 0
0 0
0 0
0 0
0 0
0 0
0 0
0 0
0 0
0 0
0 0
0 0
0 0
0 0
0 0
0 0
0 0
0 0
0 0
0 0
0 0
0 0
0 0
0 0
0 0
0 0
0 0
0 0
0 0
0 0
0 0
0 0
0 0
0 0
0 0
0 0
0 0
0 0
0 0
0 0
0 0
0 0
0 0
0 0
0 0
0 0
0 0
0 0
0 0
0 0
0 0
0 0
0 0
0 0
0 0
0 0
0 0
0 0
0 0
0 0
0 0
0 0
0 0
0 0
0 0
0 0
0 0
0 0
0 0
0 0
0 0
0 0
0 0
0 0
0 0
0 0
0 0
0 0
0 0
0 0
0 0
0 0
0 0
0 0
0 0
0 0
0 0
0 0
0 0
0 0
0 0
0 0
0 0
0 0
0 0
0 0
0 0
0 0
0 0
0 0
0 0
0 0
0 0
0 0
0 0
0 0
0 0
0 0
0 0
0 0
0 0
0 0
0 0
0 0
0 0
0 0
0 0
0 0
0 0
0 0
0 0
0 0
0 0
0 0
0 0
0 0
0 0
0 0
0 0
0 0
0 0
0 0
0 0
0 0
0 0
0 0
0 0
0 0
0 0
0 0
0 0
0 0
0 0
0 0
0 0
0 0
0 0
0 0
0 0
0 0
0 0
0 0
0 0
0 0
0 0
0 0
0 0
0 0
0 0
0 0
0 0
0 0
0 0
0 0
0 0
0 0
0 0
0 0
0 0
0 0
0 0
0 0
0 0
0 0
0 0
0 0
0 0
0 0
0 0
0 0
0 0
0 0
0 0
0 0
0 0
0 0
0 0
0 0
0 0
0 0
0 0
0 0
0 0
0 0
0 0
0 0
0 0
0 0
0 0
0 0
0 0
0 0
0 0
0 0
0 0
0 0
0 0
0 0
0 0
0 0
0 0
0 0
0 0
0 0
0 0
0 0
0 0
0 0
0 0
0 0
0 0
0 0
0 0
0 0
0 0
0 0
0 0
0 0
0 0
0 0
0 0
0 0
0 0
0 0
0 0
0 0
0 0
0 0
0 0
0 0
0 0
0 0
0 0
0 0
0 0
0 0
0 0
0 0
0 0
0 0
0 0
0 0
0 0
0 0
0 0
0 0
0 0
0 0
0 0
0 0
0 0
0 0
0 0
0 0
0 0
0 0
0 0
0 0
0 0
0 0
0 0
0 0
0 0
0 0
0 0
0 0
0 0
0 0
0 0
0 0
0 0
0 0
0 0
0 0
0 0
0 0
0 0
0 0
0 0
0 0
0 0
0 0
0 0
0 0
0 0
0 0
0 0
0 0
0 0
0 0
0 0
0 0
0 0
0 0
0 0
0 0
0 0
0 0
0 0
0 0
0 0
0 0
0 0
0 0
0 0
0 0
0 0
0 0
0 0
0 0
0 0
0 0
0 0
0 0
0 0
0 0
0 0
0 0
0 0
0 0
0 0
0 0
0 0
0 0
0 0
0 0
0 0
0 0
0 0
0 0
0 0
0 0
0 0
0 0
0 0
0 0
0 0
0 0
0 0
0 0
0 0
0 0
0 0
0 0
0 0
0 0
0 0
0 0
0 0
0 0
0 0
0 0
0 0
0 0
0 0
0 0
0 0
0 0
0 0
0 0
0 0
0 0
0 0
0 0
0 0
0 0
0 0
0 0
0 0
0 0
0 0
0 0
0 0
0 0
0 0
0 0
0 0
0 0
0 0
0 0
0 0
0 0
0 0
0 0
0 0
0 0
0 0
0 0
0 0
0 0
0 0
0 0
0 0
0 0
0 0
0 0
0 0
0 0
0 0
0 0
0 0
0 0
0 0
0 0
0 0
0 0
0 0
0 0
0 0
0 0
0 0
0 0
0 0
0 0
0 0
0 0
0 0
0 0
0 0
0 0
0 0
0 0
0 0
0 0
0 0
0 0
0 0
0 0
0 0
0 0
0 0
0 0
0 0
0 0
0 0
0 0
0 0
0 0
0 0
0 0
0 0
0 0
0 0
0 0
0 0
0 0
0 0
0 0
0 0
0 0
0 0
0 0
0 0
0 0
0 0
0 0
0 0
0 0
0 0
0 0
0 0
0 0
0 0
0 0
0 0
0 0
0 0
0 0
0 0
0 0
0 0
0 0
0 0
0 0
0 0
0 0
0 0
0 0
0 0
0 0
0 0
0 0
0 0
0 0
0 0
0 0
0 0
0 0
0 0
0 0
0 0
0 0
0 0
0 0
0 0
0 0
0 0
0 0
0 0
0 0
0 0
0 0
0 0
0 0
0 0
0 0
0 0
0 0
0 0
0 0
0 0
0 0
0 0
0 0
0 0
0 0
0 0
0 0
0 0
0 0
0 0
0 0
0 0
0 0
0 0
0 0
0 0
0 0
0 0
0 0
0 0
0 0
0 0
0 0
0 0
0 0
0 0
0 0
0 0
0 0
0 0
0 0
0 0
0 0
0 0
0 0
0 0
0 0
0 0
0 0
0 0
0 0
0 0
0 0
0 0
0 0
0 0
0 0
0 0
0 0
0 0
0 0
0 0
0 0
0 0
0 0
0 0
0 0
0 0
0 0
0 0
0 0
0 0
0 0
0 0
0 0
0 0
0 0
0 0
0 0
0 0
0 0
0 0
0 0
0 0
0 0
0 0
0 0
0 0
0 0
0 0
0 0
0 0
0 0
0 0
0 0
0 0
0 0
0 0
0 0
0 0
0 0
0 0
0 0
0 0
0 0
0 0
0 0
0 0
0 0
0 0
0 0
0 0
0 0
0 0
0 0
0 0
0 0
0 0
0 0
0 0
0 0
0 0
0 0
0 0
0 0
0 0
0 0
0 0
0 0
0 0
0 0
0 0
0 0
0 0
0 0
0 0
0 0
0 0
0 0
0 0
0 0
0 0
0 0
0 0
0 0
0 0
0 0
0 0
0 0
0 0
0 0
0 0
0 0
0 0
0 0
0 0
0 0
0 0
0 0
0 0
0 0
0 0
0 0
0 0
0 0
0 0
0 0
0 0
0 0
0 0
0 0
0 0
0 0
0 0
0 0
0 0
0 0
0 0
0 0
0 0
0 0
0 0
0 0
0 0
0 0
0 0
0 0
0 0
0 0
0 0
0 0
0 0
0 0
0 0
0 0
0 0
0 0
0 0
0 0
0 0
0 0
0 0
0 0
0 0
0 0
0 0
0 0
0 0
0 0
0 0
0 0
0 0
0 0
0 0
0 0
0 0
0 0
0 0
0 0
0 0
0 0
0 0
0 0
0 0
0 0
0 0
0 0
0 0
0 0
0 0
0 0
0 0
0 0
0 0
0 0
0 0
0 0
0 0
0 0
0 0
0 0
0 0
0 0
0 0
0 0
0 0
0 0
0 0
0 0
0 0
0 0
0 0
0 0
0 0
0 0
0 0
0 0
0 0
0 0
0 0
0 0
0 0
0 0
0 0
0 0
0 0
0 0
0 0
0 0
0 0
0 0
0 0
0 0
0 0
0 0
0 0
0 0
0 0
0 0
0 0
0 0
0 0
0 0
0 0
0 0
0 0
0 0
0 0
0 0
0 0
0 0
0 0
0 0
0 0
0 0
0 0
0 0
0 0
0 0
0 0
0 0
0 0
0 0
0 0
0 0
0 0
0 0
0 0
0 0
0 0
0 0
0 0
0 0
0 0
0 0
0 0
0 0
0 0
0 0
0 0
0 0
0 0
0 0
0 0
0 0
0 0
0 0
0 0
0 0
0 0
0 0
0 0
0 0
0 0
0 0
0 0
0 0
0 0
0 0
0 0
0 0
0 0
0 0
0 0
0 0
0 0
0 0
0 0
0 0
0 0
0 0
0 0
0 0
0 0
0 0
0 0
0 0
0 0
0 0
0 0
0 0
0 0
0 0
0 0
0 0
0 0
0 0
0 0
0 0
0 0
0 0
0 0
0 0
0 0
0 0
0 0
0 0
0 0
0 0
0 0
0 0
0 0
0 0
0 0
0 0
0 0
0 0
0 0
0 0
0 0
0 0
0 0
0 0
0 0
0 0
0 0
0 0
0 0
0 0
0 0
0 0
0 0
0 0
0 0
0 0
0 0
0 0
0 0
0 0
0 0
0 0
0 0
0 0
0 0
0 0
0 0
0 0
0 0
0 0
0 0
0 0
0 0
0 0
0 0
0 0
0 0
0 0
0 0
0 0
0 0
0 0
0 0
0 0
0 0
0 0
0 0
0 0
0 0
0 0
0 0
0 0
0 0
0 0
0 0
0 0
0 0
0 0
0 0
0 0
0 0
0 0
0 0
0 0
0 0
0 0
0 0
0 0
0 0
0 0
0 0
0 0
0 0
0 0
0 0
0 0
0 0
0 0
0 0
0 0
0 0
0 0
0 0
0 0
0 0
0 0
0 0
0 0
0 0
0 0
0 0
0 0
0 0
0 0
0 0
0 0
0 0
0 0
0 0
0 0
0 0
0 0
0 0
0 0
0 0
0 0
0 0
0 0
0 0
0 0
0 0
0 0
0 0
0 0
0 0
0 0
0 0
0 0
0 0
0 0
0 0
0 0
0 0
0 0
0 0
0 0
0 0
0 0
0 0
0 0
0 0
0 0
0 0
0 0
0 0
0 0
0 0
0 0
0 0
0 0
0 0
0 0
0 0
0 0
0 0
0 0
0 0
0 0
0 0
0 0
0 0
0 0
0 0
0 0
0 0
0 0
0 0
0 0
0 0
0 0
0 0
0 0
0 0
0 0
0 0
0 0
0 0
0 0
0 0
0 0
0 0
0 0
0 0
0 0
0 0
0 0
0 0
0 0
0 0
0 0
0 0
0 0
0 0
0 0
0 0
0 0
0 0
0 0
0 0
0 0
0 0
0 0
0 0
0 0
0 0
0 0
0 0
0 0
0 0
0 0
0 0
0 0
0 0
0 0
0 0
0 0
0 0
0 0
0 0
0 0
0 0
0 0
0 0
0 0
0 0
0 0
0 0
0 0
0 0
0 0
0 0
0 0
0 0
0 0
0 0
0 0
0 0
0 0
0 0
0 0
0 0
0 0
0 0
0 0
0 0
0 0
0 0
0 0
0 0
0 0
0 0
0 0
0 0
0 0
0 0
0 0
0 0
0 0
0 0
0 0
0 0
0 0
0 0
0 0
0 0
0 0
0 0
0 0
0 0
0 0
0 0
0 0
0 0
0 0
0 0
0 0
0 0
0 0
0 0
0 0
0 0
0 0
0 0
0 0
0 0
0 0
0 0
0 0
0 0
0 0
0 0
0 0
0 0
0 0
0 0
0 0
0 0
0 0
0 0
0 0
0 0
0 0
0 0
0 0
0 0
0 0
0 0
0 0
0 0
0 0
0 0
0 0
0 0
0 0
0 0
0 0
0 0
0 0
0 0
0 0
0 0
0 0
0 0
0 0
0 0
0 0
0 0
0 0
0 0
0 0
0 0
0 0
0 0
0 0
0 0
0 0
0 0
0 0
0 0
0 0
0 0
0 0
0 0
0 0
0 0
0 0
0 0
0 0
0 0
0 0
0 0
0 0
0 0
0 0
0 0
0 0
0 0
0 0
0 0
0 0
0 0
0 0
0 0
0 0
0 0
0 0
0 0
0 0
0 0
0 0
0 0
0 0
0 0
0 0
0 0
0 0
0 0
0 0
0 0
0 0
0 0
0 0
0 0
0 0
0 0
0 0
0 0
0 0
0 0
0 0
0 0
0 0
0 0
0 0
0 0
0 0
0 0
0 0
0 0
0 0
0 0
0 0
0 0
0 0
0 0
0 0
0 0
0 0
0 0
0 0
0 0
0 0
0 0
0 0
0 0
0 0
0 0
0 0
0 0
0 0
0 0
0 0
0 0
0 0
0 0
0 0
0 0
0 0
0 0
0 0
0 0
0 0
0 0
0 0
0 0
0 0
0 0
0 0
0 0
0 0
0 0
0 0
0 0
0 0
0 0
0 0
0 0
0 0
0 0
0 0
0 0
0 0
0 0
0 0
0 0
0 0
0 0
0 0
0 0
0 0
0 0
0 0
0 0
0 0
0 0
0 0
0 0
0 0
0 0
0 0
0 0
0 0
0 0
0 0
0 0
0 0
0 0
0 0
0 0
0 0
0 0
0 0
0 0
0 0
0 0
0 0
0 0
0 0
0 0
0 0
0 0
0 0
0 0
0 0
0 0
0 0
0 0
0 0
0 0
0 0
0 0
0 0
0 0
0 0
0 0
0 0
0 0
0 0
0 0
0 0
0 0
0 0
0 0
0 0
0 0
0 0
0 0
0 0
0 0
0 0
0 0
0 0
0 0
0 0
0 0
0 0
0 0
0 0
0 0
0 0
0 0
0 0
0 0
0 0
0 0
0 0
0 0
0 0
0 0
0 0
0 0
0 0
0 0
0 0
0 0
0 0
0 0
0 0
0 0
0 0
0 0
0 0
0 0
0 0
0 0
0 0
0 0
0 0
0 0
0 0
0 0
0 0
0 0
0 0
0 0
0 0
0 0
0 0
0 0
0 0
0 0
0 0
0 0
0 0
0 0
0 0
0 0
0 0
0 0
0 0
0 0
0 0
0 0
0 0
0 0
0 0
0 0
0 0
0 0
0 0
0 0
0 0
0 0
0 0
0 0
0 0
0 0
0 0
0 0
0 0
0 0
0 0
0 0
0 0
0 0
0 0
0 0
0 0
0 0
0 0
0 0
0 0
0 0
0 0
0 0
0 0
0 0
0 0
0 0
0 0
0 0
0 0
0 0
0 0
0 0
0 0
0 0
0 0
0 0
0 0
0 0
0 0
0 0
0 0
0 0
0 0
0 0
0 0
0 0
0 0
0 0
0 0
0 0
0 0
0 0
0 0
0 0
0 0
0 0
0 0
0 0
0 0
0 0
0 0
0 0
0 0
0 0
0 0
0 0
0 0
0 0
0 0
0 0
0 0
0 0
0 0
0 0
0 0
0 0
0 0
0 0
0 0
0 0
0 0
0 0
0 0
0 0
0 0
0 0
0 0
0 0
0 0
0 0
0 0
0 0
0 0
0 0
0 0
0 0
0 0
0 0
0 0
0 0
0 0
0 0
0 0
0 0
0 0
0 0
0 0
0 0
0 0
0 0
0 0
0 0
0 0
0 0
0 0
0 0
0 0
0 0
0 0
0 0
0 0
0 0
0 0
0 0
0 0
0 0
0 0
0 0
0 0
0 0
0 0
0 0
0 0
0 0
0 0
0 0
0 0
0 0
0 0
0 0
0 0
0 0
0 0
0 0
0 0
0 0
0 0
0 0
0 0
0 0
0 0
0 0
0 0
0 0
0 0
0 0
0 0
0 0
0 0
0 0
0 0
0 0
0 0
0 0
0 0
0 0
0 0
0 0
0 0
0 0
0 0
0 0
0 0
0 0
0 0
0 0
0 0
0 0
0 0
0 0
0 0
0 0
0 0
0 0
0 0
0 0
0 0
0 0
0 0
0 0
0 0
0 0
0 0
0 0
0 0
0 0
0 0
0 0
0 0
0 0
0 0
0 0
0 0
0 0
0 0
0 0
0 0
0 0
0 0
0 0
0 0
0 0
0 0
0 0
0 0
0 0
0 0
0 0
0 0
0 0
0 0
0 0
0 0
0 0
0 0
0 0
0 0
0 0
0 0
0 0
0 0
0 0
0 0
0 0
0 0
0 0
0 0
0 0
0 0
0 0
0 0
0 0
0 0
0 0
0 0
0 0
0 0
0 0
0 0
0 0
0 0
0 0
0 0
0 0
0 0
0 0
0 0
0 0
0 0
0 0
0 0
0 0
0 0
0 0
0 0
0 0
0 0
0 0
0 0
0 0
0 0
0 0
0 0
0 0
0 0
0 0
0 0
0 0
0 0
0 0
0 0
0 0
0 0
0 0
0 0
0 0
0 0
0 0
0 0
0 0
0 0
0 0
0 0
0 0
0 0
0 0
0 0
0 0
0 0
0 0
0 0
0 0
0 0
0 0
0 0
0 0
0 0
0 0
0 0
0 0
0 0
0 0
0 0
0 0
0 0
0 0
0 0
0 0
0 0
0 0
0 0
0 0
0 0
0 0
0 0
0 0
0 0
0 0
0 0
0 0
0 0
0 0
0 0
0 0
0 0
0 0
0 0
0 0
0 0
0 0
0 0
0 0
0 0
0 0
0 0
0 0
0 0
0 0
0 0
0 0
0 0
0 0
0 0
0 0
0 0
0 0
0 0
0 0
0 0
0 0
0 0
0 0
0 0
0 0
0 0
0 0
0 0
0 0
0 0
0 0
0 0
0 0
0 0
0 0
0 0
0 0
0 0
0 0
0 0
0 0
0 0
0 0
0 0
0 0
0 0
0 0
0 0
0 0
0 0
0 0
0 0
0 0
0 0
0 0
0 0
0 0
0 0
0 0
0 0
0 0
0 0
0 0
0 0
0 0
0 0
0 0
0 0
0 0
0 0
0 0
0 0
0 0
0 0
0 0
0 0
0 0
0 0
0 0
0 0
0 0
0 0
0 0
0 0
0 0
0 0
0 0
0 0
0 0
0 0
0 0
0 0
0 0
0 0
0 0
0 0
0 0
0 0
0 0
0 0
0 0
0 0
0 0
0 0
0 0
0 0
0 0
0 0
0 0
0 0
0 0
0 0
0 0
0 0
0 0
0 0
0 0
0 0
0 0
0 0
0 0
0 0
0 0
0 0
0 0
0 0
0 0
0 0
0 0
0 0
0 0
0 0
0 0
0 0
0 0
0 0
0 0
0 0
0 0
0 0
0 0
0 0
0 0
0 0
0 0
0 0
0 0
0 0
0 0
0 0
0 0
0 0
0 0
0 0
0 0
0 0
0 0
0 0
0 0
0 0
0 0
0 0
0 0
0 0
0 0
0 0
0 0
0 0
0 0
0 0
0 0
0 0
0 0
0 0
0 0
0 0
0 0
0 0
0 0
0 0
0 0
0 0
0 0
0 0
0 0
0 0
0 0
0 0
0 0
0 0
0 0
0 0
0 0
0 0
0 0
0 0
0 0
0 0
0 0
0 0
0 0
0 0
0 0
0 0
0 0
0 0
0 0
0 0
0 0
0 0
0 0
0 0
0 0
0 0
0 0
0 0
0 0
0 0
0 0
0 0
0 0
0 0
0 0
0 0
0 0
0 0
0 0
0 0
0 0
0 0
0 0
0 0
0 0
0 0
0 0
0 0
0 0
0 0
0 0
0 0
0 0
0 0
0 0
0 0
0 0
0 0
0 0
0 0
0 0
0 0
0 0
0 0
0 0
0 0
0 0
0 0
0 0
0 0
0 0
0 0
0 0
0 0
0 0
0 0
0 0
0 0
0 0
0 0
0 0
0 0
0 0
0 0
0 0
0 0
0 0
0 0
0 0
0 0
0 0
0 0
0 0
0 0
0 0
0 0
0 0
0 0
0 0
0 0
0 0
0 0
0 0
0 0
0 0
0 0
0 0
0 0
0 0
0 0
0 0
0 0
0 0
0 0
0 0
0 0
0 0
0 0
0 0
0 0
0 0
0 0
0 0
0 0
0 0
0 0
0 0
0 0
0 0
0 0
0 0
0 0
0 0
0 0
0 0
0 0
0 0
0 0
0 0
0 0
0 0
0 0
0 0
0 0
0 0
0 0
0 0
0 0
0 0
0 0
0 0
0 0
0 0
0 0
0 0
0 0
0 0
0 0
0 0
0 0
0 0
0 0
0 0
0 0
0 0
0 0
0 0
0 0
0 0
0 0
0 0
0 0
0 0
0 0
0 0
0 0
0 0
0 0
0 0
0 0
0 0
0 0
0 0
0 0
0 0
0 0
0 0
0 0
0 0
0 0
0 0
0 0
0 0
0 0
0 0
0 0
0 0
0 0
0 0
0 0
0 0
0 0
0 0
0 0
0 0
0 0
0 0
0 0
0 0
0 0
0 0
0 0
0 0
0 0
0 0
0 0
0 0
0 0
0 0
0 0
0 0
0 0
0 0
0 0
0 0
0 0
0 0
0 0
0 0
0 0
0 0
0 0
0 0
0 0
0 0
0 0
0 0
0 0
0 0
0 0
0 0
0 0
0 0
0 0
0 0
0 0
0 0
0 0
0 0
0 0
0 0
0 0
0 0
0 0
0 0
0 0
0 0
0 0
0 0
0 0
0 0
0 0
0 0
0 0
0 0
0 0
0 0
0 0
0 0
0 0
0 0
0 0
0 0
0 0
0 0
0 0
0 0
0 0
0 0
0 0
0 0
0 0
0 0
0 0
0 0
0 0
0 0
0 0
0 0
0 0
0 0
0 0
0 0
0 0
0 0
0 0
0 0
0 0
0 0
0 0
0 0
0 0
0 0
0 0
0 0
0 0
0 0
0 0
0 0
0 0
0 0
0 0
0 0
0 0
0 0
0 0
0 0
0 0
0 0
0 0
0 0
0 0
0 0
0 0
0 0
0 0
0 0
0 0
0 0
0 0
0 0
0 0
0 0
0 0
0 0
0 0
0 0
0 0
0 0
0 0
0 0
0 0
0 0
0 0
0 0
0 0
0 0
0 0
0 0
0 0
0 0
0 0
0 0
0 0
0 0
0 0
0 0
0 0
0 0
0 0
0 0
0 0
0 0
0 0
0 0
0 0
0 0
0 0
0 0
0 0
0 0
0 0
0 0
0 0
0 0
0 0
0 0
0 0
0 0
0 0
0 0
0 0
0 0
0 0
0 0
0 0
0 0
0 0
0 0
0 0
0 0
0 0
0 0
0 0
0 0
0 0
0 0
0 0
0 0
0 0
0 0
0 0
0 0
0 0
0 0
0 0
0 0
0 0
0 0
0 0
0 0
0 0
0 0
0 0
0 0
0 0
0 0
0 0
0 0
0 0
0 0
0 0
0 0
0 0
0 0
0 0
0 0
0 0
0 0
0 0
0 0
0 0
0 0
0 0
0 0
0 0
0 0
0 0
0 0
0 0
0 0
0 0
0 0
0 0
0 0
0 0
0 0
0 0
0 0
0 0
0 0
0 0
0 0
0 0
0 0
0 0
0 0
0 0
0 0
0 0
0 0
0 0
0 0
0 0
0 0
0 0
0 0
0 0
0 0
0 0
0 0
0 0
0 0
0 0
0 0
0 0
0 0
0 0
0 0
0 0
0 0
0 0
0 0
0 0
0 0
0 0
0 0
0 0
0 0
0 0
0 0
0 0
0 0
0 0
0 0
0 0
0 0
0 0
0 0
0 0
0 0
0 0
0 0
0 0
0 0
0 0
0 0
0 0
0 0
0 0
0 0
0 0
0 0
0 0
0 0
0 0
0 0
0 0
0 0
0 0
0 0
0 0
0 0
0 0
0 0
0 0
0 0
0 0
0 0
0 0
0 0
0 0
0 0
0 0
0 0
0 0
0 0
0 0
0 0
0 0
0 0
0 0
0 0
0 0
0 0
0 0
0 0
0 0
0 0
0 0
0 0
0 0
0 0
0 0
0 0
0 0
0 0
0 0
0 0
0 0
0 0
0 0
0 0
0 0
0 0
0 0
0 0
0 0
0 0
0 0
0 0
0 0
0 0
0 0
0 0
0 0
0 0
0 0
0 0
0 0
0 0
0 0
0 0
0 0
0 0
0 0
0 0
0 0
0 0
0 0
0 0
0 0
0 0
0 0
0 0
0 0
0 0
0 0
0 0
0 0
0 0
0 0
0 0
0 0
0 0
0 0
0 0
0 0
0 0
0 0
0 0
0 0
0 0
0 0
0 0
0 0
0 0
0 0
0 0
0 0
0 0
0 0
0 0
0 0
0 0
0 0
0 0
0 0
0 0
0 0
0 0
0 0
0 0
0 0
0 0
0 0
0 0
0 0
0 0
0 0
0 0
0 0
0 0
0 0
0 0
0 0
0 0
0 0
0 0
0 0
0 0
0 0
0 0
0 0
0 0
0 0
0 0
0 0
0 0
0 0
0 0
0 0
0 0
0 0
0 0
0 0
0 0
0 0
0 0
0 0
0 0
0 0
0 0
0 0
0 0
0 0
0 0
0 0
0 0
0 0
0 0
0 0
0 0
0 0
0 0
0 0
0 0
0 0
0 0
0 0
0 0
0 0
0 0
0 0
0 0
0 0
0 0
0 0
0 0
0 0
0 0
0 0
0 0
0 0
0 0
0 0
0 0
0 0
0 0
0 0
0 0
0 0
0 0
0 0
0 0
0 0
0 0
0 0
0 0
0 0
0 0
0 0
0 0
0 0
0 0
0 0
0 0
0 0
0 0
0 0
0 0
0 0
0 0
0 0
0 0
0 0
0 0
0 0
0 0
0 0
0 0
0 0
0 0
0 0
0 0
0 0
0 0
0 0
0 0
0 0
0 0
0 0
0 0
0 0
0 0
0 0
0 0
0 0
0 0
0 0
0 0
0 0
0 0
0 0
0 0
0 0
0 0
0 0
0 0
0 0
0 0
0 0
0 0
0 0
0 0
0 0
0 0
0 0
0 0
0 0
0 0
0 0
0 0
0 0
0 0
0 0
0 0
0 0
0 0
0 0
0 0
0 0
0 0
0 0
0 0
0 0
0 0
0 0
0 0
0 0
0 0
0 0
0 0
0 0
0 0
0 0
0 0
0 0
0 0
0 0
0 0
0 0
0 0
0 0
0 0
0 0
0 0
0 0
0 0
0 0
0 0
0 0
0 0
0 0
0 0
0 0
0 0
0 0
0 0
0 0
0 0
0 0
0 0
0 0
0 0
0 0
0 0
0 0
0 0
0 0
0 0
0 0
0 0
0 0
0 0
0 0
0 0
0 0
0 0
0 0
0 0
0 0
0 0
0 0
0 0
0 0
0 0
0 0
0 0
0 0
0 0
0 0
0 0
0 0
0 0
0 0
0 0
0 0
0 0
0 0
0 0
0 0
0 0
0 0
0 0
0 0
0 0
0 0
0 0
0 0
0 0
0 0
0 0
0 0
0 0
0 0
0 0
0 0
0 0
0 0
0 0
0 0
0 0
0 0
0 0
0 0
0 0
0 0
0 0
0 0
0 0
0 0
0 0
0 0
0 0
0 0
0 0
0 0
0 0
0 0
0 0
0 0
0 0
0 0
0 0
0 0
0 0
0 0
0 0
0 0
0 0
0 0
0 0
0 0
0 0
0 0
0 0
0 0
0 0
0 0
0 0
0 0
0 0
0 0
0 0
0 0
0 0
0 0
0 0
0 0
0 0
0 0
0 0
0 0
0 0
0 0
0 0
0 0
0 0
0 0
0 0
0 0
0 0
0 0
0 0
0 0
0 0
0 0
0 0
0 0
0 0
0 0
0 0
0 0
0 0
0 0
0 0
0 0
0 0
0 0
0 0
0 0
0 0
0 0
0 0
0 0
0 0
0 0
0 0
0 0
0 0
0 0
0 0
0 0
0 0
0 0
0 0
0 0
0 0
0 0
0 0
0 0
0 0
0 0
0 0
0 0
0 0
0 0
0 0
0 0
0 0
0 0
0 0
0 0
0 0
0 0
0 0
0 0
0 0
0 0
0 0
0 0
0 0
0 0
0 0
0 0
0 0
0 0
0 0
0 0
0 0
0 0
0 0
0 0
0 0
0 0
0 0
0 0
0 0
0 0
0 0
0 0
0 0
0 0
0 0
0 0
0 0
0 0
0 0
0 0
0 0
0 0
0 0
0 0
0 0
0 0
0 0
0 0
0 0
0 0
0 0
0 0
0 0
0 0
0 0
0 0
0 0
0 0
0 0
0 0
0 0
0 0
0 0
0 0
0 0
0 0
0 0
0 0
0 0
0 0
0 0
0 0
0 0
0 0
0 0
0 0
0 0
0 0
0 0
0 0
0 0
0 0
0 0
0 0
0 0
0 0
0 0
0 0
0 0
0 0
0 0
0 0
0 0
0 0
0 0
0 0
0 0
0 0
0 0
0 0
0 0
0 0
0 0
0 0
0 0
0 0
0 0
0 0
0 0
0 0
0 0
0 0
0 0
0 0
0 0
0 0
0 0
0 0
0 0
0 0
0 0
0 0
0 0
0 0
0 0
0 0
0 0
0 0
0 0
0 0
0 0
0 0
0 0
0 0
0 0
0 0
0 0
0 0
0 0
0 0
0 0
0 0
0 0
0 0
0 0
0 0
0 0
0 0
0 0
0 0
0 0
0 0
0 0
0 0
0 0
0 0
0 0
0 0
0 0
0 0
0 0
0 0
0 0
0 0
0 0
0 0
0 0
0 0
0 0
0 0
0 0
0 0
0 0
0 0
0 0
0 0
0 0
0 0
0 0
0 0
0 0
0 0
0 0
0 0
0 0
0 0
0 0
0 0
0 0
0 0
0 0
0 0
0 0
0 0
0 0
0 0
0 0
0 0
0 0
0 0
0 0
0 0
0 0
0 0
0 0
0 0
0 0
0 0
0 0
0 0
0 0
0 0
0 0
0 0
0 0
0 0
0 0
0 0
0 0
0 0
0 0
0 0
0 0
0 0
0 0
0 0
0 0
0 0
0 0
0 0
0 0
0 0
0 0
0 0
0 0
0 0
0 0
0 0
0 0
0 0
0 0
0 0
0 0
0 0
0 0
0 0
0 0
0 0
0 0
0 0
0 0
0 0
0 0
0 0
0 0
0 0
0 0
0 0
0 0
0 0
0 0
0 0
0 0
0 0
0 0
0 0
0 0
0 0
0 0
0 0
0 0
0 0
0 0
0 0
0 0
0 0
0 0
0 0
0 0
0 0
0 0
0 0
0 0
0 0
0 0
0 0
0 0
0 0
0 0
0 0
0 0
0 0
0 0
0 0
0 0
0 0
0 0
0 0
0 0
0 0
0 0
0 0
0 0
0 0
0 0
0 0
0 0
0 0
0 0
0 0
0 0
0 0
0 0
0 0
0 0
0 0
0 0
0 0
0 0
0 0
0 0
0 0
0 0
0 0
0 0
0 0
0 0
0 0
0 0
0 0
0 0
0 0
0 0
0 0
0 0
0 0
0 0
0 0
0 0
0 0
0 0
0 0
0 0
0 0
0 0
0 0
0 0
0 0
0 0
0 0
0 0
0 0
0 0
0 0
0 0
0 0
0 0
0 0
0 0
0 0
0 0
0 0
0 0
0 0
0 0
0 0
0 0
0 0
0 0
0 0
0 0
0 0
0 0
0 0
0 0
0 0
0 0
0 0
0 0
0 0
0 0
0 0
0 0
0 0
0 0
0 0
0 0
0 0
0 0
0 0
0 0
0 0
0 0
0 0
0 0
0 0
0 0
0 0
0 0
0 0
0 0
0 0
0 0
0 0
0 0
0 0
0 0
0 0
0 0
0 0
0 0
0 0
0 0
0 0
0 0
0 0
0 0
0 0
0 0
0 0
0 0
0 0
0 0
0 0
0 0
0 0
0 0
0 0
0 0
0 0
0 0
0 0
0 0
0 0
0 0
0 0
0 0
0 0
0 0
0 0
0 0
0 0
0 0
0 0
0 0
0 0
0 0
0 0
0 0
0 0
0 0
0 0
0 0
0 0
0 0
0 0
0 0
0 0
0 0
0 0
0 0
0 0
0 0
0 0
0 0
0 0
0 0
0 0
0 0
0 0
0 0
0 0
0 0
0 0
0 0
0 0
0 0
0 0
0 0
0 0
0 0
0 0
0 0
0 0
0 0
0 0
0 0
0 0
0 0
0 0
0 0
0 0
0 0
0 0
0 0
0 0
0 0
0 0
0 0
0 0
0 0
0 0
0 0
0 0
0 0
0 0
0 0
0 0
0 0
0 0
0 0
0 0
0 0
0 0
0 0
0 0
0 0
0 0
0 0
0 0
0 0
0 0
0 0
0 0
0 0
0 0
0 0
0 0
0 0
0 0
0 0
0 0
0 0
0 0
0 0
0 0
0 0
0 0
0 0
0 0
0 0
0 0
0 0
0 0
0 0
0 0
0 0
0 0
0 0
0 0
0 0
0 0
0 0
0 0
0 0
0 0
0 0
0 0
0 0
0 0
0 0
0 0
0 0
0 0
0 0
0 0
0 0
0 0
0 0
0 0
0 0
0 0
0 0
0 0
0 0
0 0
0 0
0 0
0 0
0 0
0 0
0 0
0 0
0 0
0 0
0 0
0 0
0 0
0 0
0 0
0 0
0 0
0 0
0 0
0 0
0 0
0 0
0 0
0 0
0 0
0 0
0 0
0 0
0 0
0 0
0 0
0 0
0 0
0 0
0 0
0 0
0 0
0 0
0 0
0 0
0 0
0 0
0 0
0 0
0 0
0 0
0 0
0 0
0 0
0 0
0 0
0 0
0 0
0 0
0 0
0 0
0 0
0 0
0 0
0 0
0 0
0 0
0 0
0 0
0 0
0 0
0 0
0 0
0 0
0 0
0 0
0 0
0 0
0 0
0 0
0 0
0 0
0 0
0 0
0 0
0 0
0 0
0 0
0 0
0 0
0 0
0 0
0 0
0 0
0 0
0 0
0 0
0 0
0 0
0 0
0 0
0 0
0 0
0 0
0 0
0 0
0 0
0 0
0 0
0 0
0 0
0 0
0 0
0 0
0 0
0 0
0 0
0 0
0 0
0 0
0 0
0 0
0 0
0 0
0 0
0 0
0 0
0 0
0 0
0 0
0 0
0 0
0 0
0 0
0 0
0 0
0 0
0 0
0 0
0 0
0 0
0 0
0 0
0 0
0 0
0 0
0 0
0 0
0 0
0 0
0 0
0 0
0 0
0 0
0 0
0 0
0 0
0 0
0 0
0 0
0 0
0 0
0 0
0 0
0 0
0 0
0 0
0 0
0 0
0 0
0 0
0 0
0 0
0 0
0 0
0 0
0 0
0 0
0 0
0 0
0 0
0 0
0 0
0 0
0 0
0 0
0 0
0 0
0 0
0 0
0 0
0 0
0 0
0 0
0 0
0 0
0 0
0 0
0 0
0 0
0 0
0 0
0 0
0 0
0 0
0 0
0 0
0 0
0 0
0 0
0 0
0 0
0 0
0 0
0 0
0 0
0 0
0 0
0 0
0 0
0 0
0 0
0 0
0 0
0 0
0 0
0 0
0 0
0 0
0 0
0 0
0 0
0 0
0 0
0 0
0 0
0 0
0 0
0 0
0 0
0 0
0 0
0 0
0 0
0 0
0 0
0 0
0 0
0 0
0 0
0 0
0 0
0 0
0 0
0 0
0 0
0 0
0 0
0 0
0 0
0 0
0 0
0 0
0 0
0 0
0 0
0 0
0 0
0 0
0 0
0 0
0 0
0 0
0 0
0 0
0 0
0 0
0 0
0 0
0 0
0 0
0 0
0 0
0 0
0 0
0 0
0 0
0 0
0 0
0 0
0 0
0 0
0 0
0 0
0 0
0 0
0 0
0 0
0 0
0 0
0 0
0 0
0 0
0 0
0 0
0 0
0 0
0 0
0 0
0 0
0 0
0 0
0 0
0 0
0 0
0 0
0 0
0 0
0 0
0 0
0 0
0 0
0 0
0 0
0 0
0 0
0 0
0 0
0 0
0 0
0 0
0 0
0 0
0 0
0 0
0 0
0 0
0 0
0 0
0 0
0 0
0 0
0 0
0 0
0 0
0 0
0 0
0 0
0 0
0 0
0 0
0 0
0 0
0 0
0 0
0 0
0 0
0 0
0 0
0 0
0 0
0 0
0 0
0 0
0 0
0 0
0 0
0 0
0 0
0 0
0 0
0 0
0 0
0 0
0 0
0 0
0 0
0 0
0 0
0 0
0 0
0 0
0 0
0 0
0 0
0 0
0 0
0 0
0 0
0 0
0 0
0 0
0 0
0 0
0 0
0 0
0 0
0 0
0 0
0 0
0 0
0 0
0 0
0 0
0 0
0 0
0 0
0 0
0 0
0 0
0 0
0 0
0 0
0 0
0 0
0 0
0 0
0 0
0 0
0 0
0 0
0 0
0 0
0 0
0 0
0 0
0 0
0 0
0 0
0 0
0 0
0 0
0 0
0 0
0 0
0 0
0 0
0 0
0 0
0 0
0 0
0 0
0 0
0 0
0 0
0 0
0 0
0 0
0 0
0 0
0 0
0 0
0 0
0 0
0 0
0 0
0 0
0 0
0 0
0 0
0 0
0 0
0 0
0 0
0 0
0 0
0 0
0 0
0 0
0 0
0 0
0 0
0 0
0 0
0 0
0 0
0 0
0 0
0 0
0 0
0 0
0 0
0 0
0 0
0 0
0 0
0 0
0 0
0 0
0 0
0 0
0 0
0 0
0 0
0 0
0 0
0 0
0 0
0 0
0 0
0 0
0 0
0 0
0 0
0 0
0 0
0 0
0 0
0 0
0 0
0 0
0 0
0 0
0 0
0 0
0 0
0 0
0 0
0 0
0 0
0 0
0 0
0 0
0 0
0 0
0 0
0 0
0 0
0 0
0 0
0 0
0 0
0 0
0 0
0 0
0 0
0 0
0 0
0 0
0 0
0 0
0 0
0 0
0 0
0 0
0 0
0 0
0 0
0 0
0 0
0 0
0 0
0 0
0 0
0 0
0 0
0 0
0 0
0 0
0 0
0 0
0 0
0 0
0 0
0 0
0 0
0 0
0 0
0 0
0 0
0 0
0 0
0 0
0 0
0 0
0 0
0 0
0 0
0 0
0 0
0 0
0 0
0 0
0 0
0 0
0 0
0 0
0 0
0 0
0 0
0 0
0 0
0 0
0 0
0 0
0 0
0 0
0 0
0 0
0 0
0 0
0 0
0 0
0 0
0 0
0 0
0 0
0 0
0 0
0 0
0 0
0 0
0 0
0 0
0 0
0 0
0 0
0 0
0 0
0 0
0 0
0 0
0 0
0 0
0 0
0 0
0 0
0 0
0 0
0 0
0 0
0 0
0 0
0 0
0 0
0 0
0 0
0 0
0 0
0 0
0 0
0 0
0 0
0 0
0 0
0 0
0 0
0 0
0 0
0 0
0 0
0 0
0 0
0 0
0 0
0 0
0 0
0 0
0 0
0 0
0 0
0 0
0 0
0 0
0 0
0 0
0 0
0 0
0 0
0 0
0 0
0 0
0 0
0 0
0 0
0 0
0 0
0 0
0 0
0 0
0 0
0 0
0 0
0 0
0 0
0 0
0 0
0 0
0 0
0 0
0 0
0 0
0 0
0 0
0 0
0 0
0 0
0 0
0 0
0 0
0 0
0 0
0 0
0 0
0 0
0 0
0 0
0 0
0 0
0 0
0 0
0 0
0 0
0 0
0 0
0 0
0 0
0 0
0 0
0 0
0 0
0 0
0 0
0 0
0 0
0 0
0 0
0 0
0 0
0 0
0 0
0 0
0 0
0 0
0 0
0 0
0 0
0 0
0 0
0 0
0 0
0 0
0 0
0 0
0 0
0 0
0 0
0 0
0 0
0 0
0 0
0 0
0 0
0 0
0 0
0 0
0 0
0 0
0 0
0 0
0 0
0 0
0 0
0 0
0 0
0 0
0 0
0 0
0 0
0 0
0 0
0 0
0 0
0 0
0 0
0 0
0 0
0 0
0 0
0 0
0 0
0 0
0 0
0 0
0 0
0 0
0 0
0 0
0 0
0 0
0 0
0 0
0 0
0 0
0 0
0 0
0 0
0 0
0 0
0 0
0 0
0 0
0 0
0 0
0 0
0 0
0 0
0 0
0 0
0 0
0 0
0 0
0 0
0 0
0 0
0 0
0 0
0 0
0 0
0 0
0 0
0 0
0 0
0 0
0 0
0 0
0 0
0 0
0 0
0 0
0 0
0 0
0 0
0 0
0 0
0 0
0 0
0 0
0 0
0 0
0 0
0 0
0 0
0 0
0 0
0 0
0 0
0 0
0 0
0 0
0 0
0 0
0 0
0 0
0 0
0 0
0 0
0 0
0 0
0 0
0 0
0 0
0 0
0 0
0 0
0 0
0 0
0 0
0 0
0 0
0 0
0 0
0 0
0 0
0 0
0 0
0 0
0 0
0 0
0 0
0 0
0 0
0 0
0 0
0 0
0 0
0 0
0 0
0 0
0 0
0 0
0 0
0 0
0 0
0 0
0 0
0 0
0 0
0 0
0 0
0 0
0 0
0 0
0 0
0 0
0 0
0 0
0 0
0 0
0 0
0 0
0 0
0 0
0 0
0 0
0 0
0 0
0 0
0 0
0 0
0 0
0 0
0 0
0 0
0 0
0 0
0 0
0 0
0 0
0 0
0 0
0 0
0 0
0 0
0 0
0 0
0 0
0 0
0 0
0 0
0 0
0 0
0 0
0 0
0 0
0 0
0 0
0 0
0 0
0 0
0 0
0 0
0 0
0 0
0 0
0 0
0 0
0 0
0 0
0 0
0 0
0 0
0 0
0 0
0 0
0 0
0 0
0 0
0 0
0 0
0 0
0 0
0 0
0 0
0 0
0 0
0 0
0 0
0 0
0 0
0 0
0 0
0 0
0 0
0 0
0 0
0 0
0 0
0 0
0 0
0 0
0 0
0 0
0 0
0 0
0 0
0 0
0 0
0 0
0 0
0 0
0 0
0 0
0 0
0 0
0 0
0 0
0 0
0 0
0 0
0 0
0 0
0 0
0 0
0 0
0 0
0 0
0 0
0 0
0 0
0 0
0 0
0 0
0 0
0 0
0 0
0 0
0 0
0 0
0 0
0 0
0 0
0 0
0 0
0 0
0 0
0 0
0 0
0 0
0 0
0 0
0 0
0 0
0 0
0 0
0 0
0 0
0 0
0 0
0 0
0 0
0 0
0 0
0 0
0 0
0 0
0 0
0 0
0 0
0 0
0 0
0 0
0 0
0 0
0 0
0 0
0 0
0 0
0 0
0 0
0 0
0 0
0 0
0 0
0 0
0 0
0 0
0 0
0 0
0 0
0 0
0 0
0 0
0 0
0 0
0 0
0 0
0 0
0 0
0 0
0 0
0 0
0 0
0 0
0 0
0 0
0 0
0 0
0 0
0 0
0 0
0 0
0 0
0 0
0 0
0 0
0 0
0 0
0 0
0 0
0 0
0 0
0 0
0 0
0 0
0 0
0 0
0 0
0 0
0 0
0 0
0 0
0 0
0 0
0 0
0 0
0 0
0 0
0 0
0 0
0 0
0 0
0 0
0 0
0 0
0 0
0 0
0 0
0 0
0 0
0 0
0 0
0 0
0 0
0 0
0 0
0 0
0 0
0 0
0 0
0 0
0 0
0 0
0 0
0 0
0 0
0 0
0 0
0 0
0 0
0 0
0 0
0 0
0 0
0 0
0 0
0 0
0 0
0 0
0 0
0 0
0 0
0 0
0 0
0 0
0 0
0 0
0 0
0 0
0 0
0 0
0 0
0 0
0 0
0 0
0 0
0 0
0 0
0 0
0 0
0 0
0 0
0 0
0 0
0 0
0 0
0 0
0 0
0 0
0 0
0 0
0 0
0 0
0 0
0 0
0 0
0 0
0 0
0 0
0 0
0 0
0 0
0 0
0 0
0 0
0 0
0 0
0 0
0 0
0 0
0 0
0 0
0 0
0 0
0 0
0 0
0 0
0 0
0 0
0 0
0 0
0 0
0 0
0 0
0 0
0 0
0 0
0 0
0 0
0 0
0 0
0 0
0 0
0 0
0 0
0 0
0 0
0 0
0 0
0 0
0 0
0 0
0 0
0 0
0 0
0 0
0 0
0 0
0 0
0 0
0 0
0 0
0 0
0 0
0 0
0 0
0 0
0 0
0 0
0 0
0 0
0 0
0 0
0 0
0 0
0 0
0 0
0 0
0 0
0 0
0 0
0 0
0 0
0 0
0 0
0 0
0 0
0 0
0 0
0 0
0 0
0 0
0 0
0 0
0 0
0 0
0 0
0 0
0 0
0 0
0 0
0 0
0 0
0 0
0 0
0 0
0 0
0 0
0 0
0 0
0 0
0 0
0 0
0 0
0 0
0 0
0 0
0 0
0 0
0 0
0 0
0 0
0 0
0 0
0 0
0 0
0 0
0 0
0 0
0 0
0 0
0 0
0 0
0 0
0 0
0 0
0 0
0 0
0 0
0 0
0 0
0 0
0 0
0 0
0 0
0 0
0 0
0 0
0 0
0 0
0 0
0 0
0 0
0 0
0 0
0 0
0 0
0 0
0 0
0 0
0 0
0 0
0 0
0 0
0 0
0 0
0 0
0 0
0 0
0 0
0 0
0 0
0 0
0 0
0 0
0 0
0 0
0 0
0 0
0 0
0 0
0 0
0 0
0 0
0 0
0 0
0 0
0 0
0 0
0 0
0 0
0 0
0 0
0 0
0 0
0 0
0 0
0 0
0 0
0 0
0 0
0 0
0 0
0 0
0 0
0 0
0 0
0 0
0 0
0 0
0 0
0 0
0 0
0 0
0 0
0 0
0 0
0 0
0 0
0 0
0 0
0 0
0 0
0 0
0 0
0 0
0 0
0 0
0 0
0 0
0 0
0 0
0 0
0 0
0 0
0 0
0 0
0 0
0 0
0 0
0 0
0 0
0 0
0 0
0 0
0 0
0 0
0 0
0 0
0 0
0 0
0 0
0 0
0 0
0 0
0 0
0 0
0 0
0 0
0 0
0 0
0 0
0 0
0 0
0 0
0 0
0 0
0 0
0 0
0 0
0 0
0 0
0 0
0 0
0 0
0 0
0 0
0 0
0 0
0 0
0 0
0 0
0 0
0 0
0 0
0 0
0 0
0 0
0 0
0 0
0 0
0 0
0 0
0 0
0 0
0 0
0 0
0 0
0 0
0 0
0 0
0 0
0 0
0 0
0 0
0 0
0 0
0 0
0 0
0 0
0 0
0 0
0 0
0 0
0 0
0 0
0 0
0 0
0 0
0 0
0 0
0 0
0 0
0 0
0 0
0 0
0 0
0 0
0 0
0 0
0 0
0 0
0 0
0 0
0 0
0 0
0 0
0 0
0 0
0 0
0 0
0 0
0 0
0 0
0 0
0 0
0 0
0 0
0 0
0 0
0 0
0 0
0 0
0 0
0 0
0 0
0 0
0 0
0 0
0 0
0 0
0 0
0 0
0 0
0 0
0 0
0 0
0 0
0 0
0 0
0 0
0 0
0 0
0 0
0 0
0 0
0 0
0 0
0 0
0 0
0 0
0 0
0 0
0 0
0 0
0 0
0 0
0 0
0 0
0 0
0 0
0 0
0 0
0 0
0 0
0 0
0 0
0 0
0 0
0 0
0 0
0 0
0 0
0 0
0 0
0 0
0 0
0 0
0 0
0 0
0 0
0 0
0 0
0 0
0 0
0 0
0 0
0 0
0 0
0 0
0 0
0 0
0 0
0 0
0 0
0 0
0 0
0 0
0 0
0 0
0 0
0 0
0 0
0 0
0 0
0 0
0 0
0 0
0 0
0 0
0 0
0 0
0 0
0 0
0 0
0 0
0 0
0 0
0 0
0 0
0 0
0 0
0 0
0 0
0 0
0 0
0 0
0 0
0 0
0 0
0 0
0 0
0 0
0 0
0 0
0 0
0 0
0 0
0 0
0 0
0 0
0 0
0 0
0 0
0 0
0 0
0 0
0 0
0 0
0 0
0 0
0 0
0 0
0 0
0 0
0 0
0 0
0 0
0 0
0 0
0 0
0 0
0 0
0 0
0 0
0 0
0 0
0 0
0 0
0 0
0 0
0 0
0 0
0 0
0 0
0 0
0 0
0 0
0 0
0 0
0 0
0 0
0 0
0 0
0 0
0 0
0 0
0 0
0 0
0 0
0 0
0 0
0 0
0 0
0 0
0 0
0 0
0 0
0 0
0 0
0 0
0 0
0 0
0 0
0 0
0 0
0 0
0 0
0 0
0 0
0 0
0 0
0 0
0 0
0 0
0 0
0 0
0 0
0 0
0 0
0 0
0 0
0 0
0 0
0 0
0 0
0 0
0 0
0 0
0 0
0 0
0 0
0 0
0 0
0 0
0 0
0 0
0 0
0 0
0 0
0 0
0 0
0 0
0 0
0 0
0 0
0 0
0 0
0 0
0 0
0 0
0 0
0 0
0 0
0 0
0 0
0 0
0 0
0 0
0 0
0 0
0 0
0 0
0 0
0 0
0 0
0 0
0 0
0 0
0 0
0 0
0 0
0 0
0 0
0 0
0 0
0 0
0 0
0 0
0 0
0 0
0 0
0 0
0 0
0 0
0 0
0 0
0 0
0 0
0 0
0 0
0 0
0 0
0 0
0 0
0 0
0 0
0 0
0 0
0 0
0 0
0 0
0 0
0 0
0 0
0 0
0 0
0 0
0 0
0 0
0 0
0 0
0 0
0 0
0 0
0 0
0 0
0 0
0 0
0 0
0 0
0 0
0 0
0 0
0 0
0 0
0 0
0 0
0 0
0 0
0 0
0 0
0 0
0 0
0 0
0 0
0 0
0 0
0 0
0 0
0 0
0 0
0 0
0 0
0 0
0 0
0 0
0 0
0 0
0 0
0 0
0 0
0 0
0 0
0 0
0 0
0 0
0 0
0 0
0 0
0 0
0 0
0 0
0 0
0 0
0 0
0 0
0 0
0 0
0 0
0 0
0 0
0 0
0 0
0 0
0 0
0 0
0 0
0 0
0 0
0 0
0 0
0 0
0 0
0 0
0 0
0 0
0 0
0 0
0 0
0 0
0 0
0 0
0 0
0 0
0 0
0 0
0 0
0 0
0 0
0 0
0 0
0 0
0 0
0 0
0 0
0 0
0 0
0 0
0 0
0 0
0 0
0 0
0 0
0 0
0 0
0 0
0 0
0 0
0 0
0 0
0 0
0 0
0 0
0 0
0 0
0 0
0 0
0 0
0 0
0 0
0 0
0 0
0 0
0 0
0 0
0 0
0 0
0 0
0 0
0 0
0 0
0 0
0 0
0 0
0 0
0 0
0 0
0 0
0 0
0 0
0 0
0 0
0 0
0 0
0 0
0 0
0 0
0 0
0 0
0 0
0 0
0 0
0 0
0 0
0 0
0 0
0 0
0 0
0 0
0 0
0 0
0 0
0 0
0 0
0 0
0 0
0 0
0 0
0 0
0 0
0 0
0 0
0 0
0 0
0 0
0 0
0 0
0 0
0 0
0 0
0 0
0 0
0 0
0 0
0 0
0 0
0 0
0 0
0 0
0 0
0 0
0 0
0 0
0 0
0 0
0 0
0 0
0 0
0 0
0 0
0 0
0 0
0 0
0 0
0 0
0 0
0 0
0 0
0 0
0 0
0 0
0 0
0 0
0 0
0 0
0 0
0 0
0 0
0 0
0 0
0 0
0 0
0 0
0 0
0 0
0 0
0 0
0 0
0 0
0 0
0 0
0 0
0 0
0 0
0 0
0 0
0 0
0 0
0 0
0 0
0 0
0 0
0 0
0 0
0 0
0 0
0 0
0 0
0 0
0 0
0 0
0 0
0 0
0 0
0 0
0 0
0 0
0 0
0 0
0 0
0 0
0 0
0 0
0 0
0 0
0 0
0 0
0 0
0 0
0 0
0 0
0 0
0 0
0 0
0 0
0 0
0 0
0 0
0 0
0 0
0 0
0 0
0 0
0 0
0 0
0 0
0 0
0 0
0 0
0 0
0 0
0 0
0 0
0 0
0 0
0 0
0 0
0 0
0 0
0 0
0 0
0 0
0 0
0 0
0 0
0 0
0 0
0 0
0 0
0 0
0 0
0 0
0 0
0 0
0 0
0 0
0 0
0 0
0 0
0 0
0 0
0 0
0 0
0 0
0 0
0 0
0 0
0 0
0 0
0 0
0 0
0 0
0 0
0 0
0 0
0 0
0 0
0 0
0 0
0 0
0 0
0 0
0 0
0 0
0 0
0 0
0 0
0 0
0 0
0 0
0 0
0 0
0 0
0 0
0 0
0 0
0 0
0 0
0 0
0 0
0 0
0 0
0 0
0 0
0 0
0 0
0 0
0 0
0 0
0 0
0 0
0 0
0 0
0 0
0 0
0 0
0 0
0 0
0 0
0 0
0 0
0 0
0 0
0 0
0 0
0 0
0 0
0 0
0 0
0 0
0 0
0 0
0 0
0 0
0 0
0 0
0 0
0 0
0 0
0 0
0 0
0 0
0 0
0 0
0 0
0 0
0 0
0 0
0 0
0 0
0 0
0 0
0 0
0 0
0 0
0 0
0 0
0 0
0 0
0 0
0 0
0 0
0 0
0 0
0 0
0 0
0 0
0 0
0 0
0 0
0 0
0 0
0 0
0 0
0 0
0 0
0 0
0 0
0 0
0 0
0 0
0 0
0 0
0 0
0 0
0 0
0 0
0 0
0 0
0 0
0 0
0 0
0 0
0 0
0 0
0 0
0 0
0 0
0 0
0 0
0 0
0 0
0 0
0 0
0 0
0 0
0 0
0 0
0 0
0 0
0 0
0 0
0 0
0 0
0 0
0 0
0 0
0 0
0 0
0 0
0 0
0 0
0 0
0 0
0 0
0 0
0 0
0 0
0 0
0 0
0 0
0 0
0 0
0 0
0 0
0 0
0 0
0 0
0 0
0 0
0 0
0 0
0 0
0 0
0 0
0 0
0 0
0 0
0 0
0 0
0 0
0 0
0 0
0 0
0 0
0 0
0 0
0 0
0 0
0 0
0 0
0 0
0 0
0 0
0 0
0 0
0 0
0 0
0 0
0 0
0 0
0 0
0 0
0 0
0 0
0 0
0 0
0 0
0 0
0 0
0 0
0 0
0 0
0 0
0 0
0 0
0 0
0 0
0 0
0 0
0 0
0 0
0 0
0 0
0 0
0 0
0 0
0 0
0 0
0 0
0 0
0 0
0 0
0 0
0 0
0 0
0 0
0 0
0 0
0 0
0 0
0 0
0 0
0 0
0 0
0 0
0 0
0 0
0 0
0 0
0 0
0 0
0 0
0 0
0 0
0 0
0 0
0 0
0 0
0 0
0 0
0 0
0 0
0 0
0 0
0 0
0 0
0 0
0 0
0 0
0 0
0 0
0 0
0 0
0 0
0 0
0 0
0 0
0 0
0 0
0 0
0 0
0 0
0 0
0 0
0 0
0 0
0 0
0 0
0 0
0 0
0 0
0 0
0 0
0 0
0 0
0 0
0 0
0 0
0 0
0 0
0 0
0 0
0 0
0 0
0 0
0 0
0 0
0 0
0 0
0 0
0 0
0 0
0 0
0 0
0 0
0 0
0 0
0 0
0 0
0 0
0 0
0 0
0 0
0 0
0 0
0 0
0 0
0 0
0 0
0 0
0 0
0 0
0 0
0 0
0 0
0 0
0 0
0 0
0 0
0 0
0 0
0 0
0 0
0 0
0 0
0 0
0 0
0 0
0 0
0 0
0 0
0 0
0 0
0 0
0 0
0 0
0 0
0 0
0 0
0 0
0 0
0 0
0 0
0 0
0 0
0 0
0 0
0 0
0 0
0 0
0 0
0 0
0 0
0 0
0 0
0 0
0 0
0 0
0 0
0 0
0 0
0 0
0 0
0 0
0 0
0 0
0 0
0 0
0 0
0 0
0 0
0 0
0 0
0 0
0 0
0 0
0 0
0 0
0 0
0 0
0 0
0 0
0 0
0 0
0 0
0 0
0 0
0 0
0 0
0 0
0 0
0 0
0 0
0 0
0 0
0 0
0 0
0 0
0 0
0 0
0 0
0 0
0 0
0 0
0 0
0 0
0 0
0 0
0 0
0 0
0 0
0 0
0 0
0 0
0 0
0 0
0 0
0 0
0 0
0 0
0 0
0 0
0 0
0 0
0 0
0 0
0 0
0 0
0 0
0 0
0 0
0 0
0 0
0 0
0 0
0 0
0 0
0 0
0 0
0 0
0 0
0 0
0 0
0 0
0 0
0 0
0 0
0 0
0 0
0 0
0 0
0 0
0 0
0 0
0 0
0 0
0 0
0 0
0 0
0 0
0 0
0 0
0 0
0 0
0 0
0 0
0 0
0 0
0 0
0 0
0 0
0 0
0 0
0 0
0 0
0 0
0 0
0 0
0 0
0 0
0 0
0 0
0 0
0 0
0 0
0 0
0 0
0 0
0 0
0 0
0 0
0 0
0 0
0 0
0 0
0 0
0 0
0 0
0 0
0 0
0 0
0 0
0 0
0 0
0 0
0 0
0 0
0 0
0 0
0 0
0 0
0 0
0 0
0 0
0 0
0 0
0 0
0 0
0 0
0 0
0 0
0 0
0 0
0 0
0 0
0 0
0 0
0 0
0 0
0 0
0 0
0 0
0 0
0 0
0 0
0 0
0 0
0 0
0 0
0 0
0 0
0 0
0 0
0 0
0 0
0 0
0 0
0 0
0 0
0 0
0 0
0 0
0 0
0 0
0 0
0 0
0 0
0 0
0 0
0 0
0 0
0 0
0 0
0 0
0 0
0 0
0 0
0 0
0 0
0 0
0 0
0 0
0 0
0 0
0 0
0 0
0 0
0 0
0 0
0 0
0 0
0 0
0 0
0 0
0 0
0 0
0 0
0 0
0 0
0 0
0 0
0 0
0 0
0 0
0 0
0 0
0 0
0 0
0 0
0 0
0 0
0 0
0 0
0 0
0 0
0 0
0 0
0 0
0 0
0 0
0 0
0 0
0 0
0 0
0 0
0 0
0 0
0 0
0 0
0 0
0 0
0 0
0 0
0 0
0 0
0 0
0 0
0 0
0 0
0 0
0 0
0 0
0 0
0 0
0 0
0 0
0 0
0 0
0 0
0 0
0 0
0 0
0 0
0 0
0 0
0 0
0 0
0 0
0 0
0 0
0 0
0 0
0 0
0 0
0 0
0 0
0 0
0 0
0 0
0 0
0 0
0 0
0 0
0 0
0 0
0 0
0 0
0 0
0 0
0 0
0 0
0 0
0 0
0 0
0 0
0 0
0 0
0 0
0 0
0 0
0 0
0 0
0 0
0 0
0 0
0 0
0 0
0 0
0 0
0 0
0 0
0 0
0 0
0 0
0 0
0 0
0 0
0 0
0 0
0 0
0 0
0 0
0 0
0 0
0 0
0 0
0 0
0 0
0 0
0 0
0 0
0 0
0 0
0 0
0 0
0 0
0 0
0 0
0 0
0 0
0 0
0 0
0 0
0 0
0 0
0 0
0 0
0 0
0 0
0 0
0 0
0 0
0 0
0 0
0 0
0 0
0 0
0 0
0 0
0 0
0 0
0 0
0 0
0 0
0 0
0 0
0 0
0 0
0 0
0 0
0 0
0 0
0 0
0 0
0 0
0 0
0 0
0 0
0 0
0 0
0 0
0 0
0 0
0 0
0 0
0 0
0 0
0 0
0 0
0 0
0 0
0 0
0 0
0 0
0 0
0 0
0 0
0 0
0 0
0 0
0 0
0 0
0 0
0 0
0 0
0 0
0 0
0 0
0 0
0 0
0 0
0 0
0 0
0 0
0 0
0 0
0 0
0 0
0 0
0 0
0 0
0 0
0 0
0 0
0 0
0 0
0 0
0 0
0 0
0 0
0 0
0 0
0 0
0 0
0 0
0 0
0 0
0 0
0 0
0 0
0 0
0 0
0 0
0 0
0 0
0 0
0 0
0 0
0 0
0 0
0 0
0 0
0 0
0 0
0 0
0 0
0 0
0 0
0 0
0 0
0 0
0 0
0 0
0 0
0 0
0 0
0 0
0 0
0 0
0 0
0 0
0 0
0 0
0 0
0 0
0 0
0 0
0 0
0 0
0 0
0 0
0 0
0 0
0 0
0 0
0 0
0 0
0 0
0 0
0 0
0 0
0 0
0 0
0 0
0 0
0 0
0 0
0 0
0 0
0 0
0 0
0 0
0 0
0 0
0 0
0 0
0 0
0 0
0 0
0 0
0 0
0 0
0 0
0 0
0 0
0 0
0 0
0 0
0 0
0 0
0 0
0 0
0 0
0 0
0 0
0 0
0 0
0 0
0 0
0 0
0 0
0 0
0 0
0 0
0 0
0 0
0 0
0 0
0 0
0 0
0 0
0 0
0 0
0 0
0 0
0 0
0 0
0 0
0 0
0 0
0 0
0 0
0 0
0 0
0 0
0 0
0 0
0 0
0 0
0 0
0 0
0 0
0 0
0 0
0 0
0 0
0 0
0 0
0 0
0 0
0 0
0 0
0 0
0 0
0 0
0 0
0 0
0 0
0 0
0 0
0 0
0 0
0 0
0 0
0 0
0 0
0 0
0 0
0 0
0 0
0 0
0 0
0 0
0 0
0 0
0 0
0 0
0 0
0 0
0 0
0 0
0 0
0 0
0 0
0 0
0 0
0 0
0 0
0 0
0 0
0 0
0 0
0 0
0 0
0 0
0 0
0 0
0 0
0 0
0 0
0 0
0 0
0 0
0 0
0 0
0 0
0 0
0 0
0 0
0 0
0 0
0 0
0 0
0 0
0 0
0 0
0 0
0 0
0 0
0 0
0 0
0 0
0 0
0 0
0 0
0 0
0 0
0 0
0 0
0 0
0 0
0 0
0 0
0 0
0 0
0 0
0 0
0 0
0 0
0 0
0 0
0 0
0 0
0 0
0 0
0 0
0 0
0 0
0 0
0 0
0 0
0 0
0 0
0 0
0 0
0 0
0 0
0 0
0 0
0 0
0 0
0 0
0 0
0 0
0 0
0 0
0 0
0 0
0 0
0 0
0 0
0 0
0 0
0 0
0 0
0 0
0 0
0 0
0 0
0 0
0 0
0 0
0 0
0 0
0 0
0 0
0 0
0 0
0 0
0 0
0 0
0 0
0 0
0 0
0 0
0 0
0 0
0 0
0 0
0 0
0 0
0 0
0 0
0 0
0 0
0 0
0 0
0 0
0 0
0 0
0 0
0 0
0 0
0 0
0 0
0 0
0 0
0 0
0 0
0 0
0 0
0 0
0 0
0 0
0 0
0 0
0 0
0 0
0 0
0 0
0 0
0 0
0 0
0 0
0 0
0 0
0 0
0 0
0 0
0 0
0 0
0 0
0 0
0 0
0 0
0 0
0 0
0 0
0 0
0 0
0 0
0 0
0 0
0 0
0 0
0 0
0 0
0 0
0 0
0 0
0 0
0 0
0 0
0 0
0 0
0 0
0 0
0 0
0 0
0 0
0 0
0 0
0 0
0 0
0 0
0 0
0 0
0 0
0 0
0 0
0 0
0 0
0 0
0 0
0 0
0 0
0 0
0 0
0 0
0 0
0 0
0 0
0 0
0 0
0 0
0 0
0 0
0 0
0 0
0 0
0 0
0 0
0 0
0 0
0 0
0 0
0 0
0 0
0 0
0 0
0 0
0 0
0 0
0 0
0 0
0 0
0 0
0 0
0 0
0 0
0 0
0 0
0 0
0 0
0 0
0 0
0 0
0 0
0 0
0 0
0 0
0 0
0 0
0 0
0 0
0 0
0 0
0 0
0 0
0 0
0 0
0 0
0 0
0 0
0 0
0 0
0 0
0 0
0 0
0 0
0 0
0 0
0 0
0 0
0 0
0 0
0 0
0 0
0 0
0 0
0 0
0 0
0 0
0 0
0 0
0 0
0 0
0 0
0 0
0 0
0 0
0 0
0 0
0 0
0 0
0 0
0 0
0 0
0 0
0 0
0 0
0 0
0 0
0 0
0 0
0 0
0 0
0 0
0 0
0 0
0 0
0 0
0 0
0 0
0 0
0 0
0 0
0 0
0 0
0 0
0 0
0 0
0 0
0 0
0 0
0 0
0 0
0 0
0 0
0 0
0 0
0 0
0 0
0 0
0 0
0 0
0 0
0 0
0 0
0 0
0 0
0 0
0 0
0 0
0 0
0 0
0 0
0 0
0 0
0 0
0 0
0 0
0 0
0 0
0 0
0 0
0 0
0 0
0 0
0 0
0 0
0 0
0 0
0 0
0 0
0 0
0 0
0 0
0 0
0 0
0 0
0 0
0 0
0 0
0 0
0 0
0 0
0 0
0 0
0 0
0 0
0 0
0 0
0 0
0 0
0 0
0 0
0 0
0 0
0 0
0 0
0 0
0 0
0 0
0 0
0 0
0 0
0 0
0 0
0 0
0 0
0 0
0 0
0 0
0 0
0 0
0 0
0 0
0 0
0 0
0 0
0 0
0 0
0 0
0 0
0 0
0 0
0 0
0 0
0 0
0 0
0 0
0 0
0 0
0 0
0 0
0 0
0 0
0 0
0 0
0 0
0 0
0 0
0 0
0 0
0 0
0 0
0 0
0 0
0 0
0 0
0 0
0 0
0 0
0 0
0 0
0 0
0 0
0 0
0 0
0 0
0 0
0 0
0 0
0 0
0 0
0 0
0 0
0 0
0 0
0 0
0 0
0 0
0 0
0 0
0 0
0 0
0 0
0 0
0 0
0 0
0 0
0 0
0 0
0 0
0 0
0 0
0 0
0 0
0 0
0 0
0 0
0 0
0 0
0 0
0 0
0 0
0 0
0 0
0 0
0 0
0 0
0 0
0 0
0 0
0 0
0 0
0 0
0 0
0 0
0 0
0 0
0 0
0 0
0 0
0 0
0 0
0 0
0 0
0 0
0 0
0 0
0 0
0 0
0 0
0 0
0 0
0 0
0 0
0 0
0 0
0 0
0 0
0 0
0 0
0 0
0 0
0 0
0 0
0 0
0 0
0 0
0 0
0 0
0 0
0 0
0 0
0 0
0 0
0 0
0 0
0 0
0 0
0 0
0 0
0 0
0 0
0 0
0 0
0 0
0 0
0 0
0 0
0 0
0 0
0 0
0 0
0 0
0 0
0 0
0 0
0 0
0 0
0 0
0 0
0 0
0 0
0 0
0 0
0 0
0 0
0 0
0 0
0 0
0 0
0 0
0 0
0 0
0 0
0 0
0 0
0 0
0 0
0 0
0 0
0 0
0 0
0 0
0 0
0 0
0 0
0 0
0 0
0 0
0 0
0 0
0 0
0 0
0 0
0 0
0 0
0 0
0 0
0 0
0 0
0 0
0 0
0 0
0 0
0 0
0 0
0 0
0 0
0 0
0 0
0 0
0 0
0 0
0 0
0 0
0 0
0 0
0 0
0 0
0 0
0 0
0 0
0 0
0 0
0 0
0 0
0 0
0 0
0 0
0 0
0 0
0 0
0 0
0 0
0 0
0 0
0 0
0 0
0 0
0 0
0 0
0 0
0 0
0 0
0 0
0 0
0 0
0 0
0 0
0 0
0 0
0 0
0 0
0 0
0 0
0 0
0 0
0 0
0 0
0 0
0 0
0 0
0 0
0 0
0 0
0 0
0 0
0 0
0 0
0 0
0 0
0 0
0 0
0 0
0 0
0 0
0 0
0 0
0 0
0 0
0 0
0 0
0 0
0 0
0 0
0 0
0 0
0 0
0 0
0 0
0 0
0 0
0 0
0 0
0 0
0 0
0 0
0 0
0 0
0 0
0 0
0 0
0 0
0 0
0 0
0 0
0 0
0 0
0 0
0 0
0 0
0 0
0 0
0 0
0 0
0 0
0 0
0 0
0 0
0 0
0 0
0 0
0 0
0 0
0 0
0 0
0 0
0 0
0 0
0 0
0 0
0 0
0 0
0 0
0 0
0 0
0 0
0 0
0 0
0 0
0 0
0 0
0 0
0 0
0 0
0 0
0 0
0 0
0 0
0 0
0 0
0 0
0 0
0 0
0 0
0 0
0 0
0 0
0 0
0 0
0 0
0 0
0 0
0 0
0 0
0 0
0 0
0 0
0 0
0 0
0 0
0 0
0 0
0 0
0 0
0 0
0 0
0 0
0 0
0 0
0 0
0 0
0 0
0 0
0 0
0 0
0 0
0 0
0 0
0 0
0 0
0 0
0 0
0 0
0 0
0 0
0 0
0 0
0 0
0 0
0 0
0 0
0 0
0 0
0 0
0 0
0 0
0 0
0 0
0 0
0 0
0 0
0 0
0 0
0 0
0 0
0 0
0 0
0 0
0 0
0 0
0 0
0 0
0 0
0 0
0 0
0 0
0 0
0 0
0 0
0 0
0 0
0 0
0 0
0 0
0 0
0 0
0 0
0 0
0 0
0 0
0 0
0 0
0 0
0 0
0 0
0 0
0 0
0 0
0 0
0 0
0 0
0 0
0 0
0 0
0 0
0 0
0 0
0 0
0 0
0 0
0 0
0 0
0 0
0 0
0 0
0 0
0 0
0 0
0 0
0 0
0 0
0 0
0 0
0 0
0 0
0 0
0 0
0 0
0 0
0 0
0 0
0 0
0 0
0 0
0 0
0 0
0 0
0 0
0 0
0 0
0 0
0 0
0 0
0 0
0 0
0 0
0 0
0 0
0 0
0 0
0 0
0 0
0 0
0 0
0 0
0 0
0 0
0 0
0 0
0 0
0 0
0 0
0 0
0 0
0 0
0 0
0 0
0 0
0 0
0 0
0 0
0 0
0 0
0 0
0 0
0 0
0 0
0 0
0 0
0 0
0 0
0 0
0 0
0 0
0 0
0 0
0 0
0 0
0 0
0 0
0 0
0 0
0 0
0 0
0 0
0 0
0 0
0 0
0 0
0 0
0 0
0 0
0 0
0 0
0 0
0 0
0 0
0 0
0 0
0 0
0 0
0 0
0 0
0 0
0 0
0 0
0 0
0 0
0 0
0 0
0 0
0 0
0 0
0 0
0 0
0 0
0 0
0 0
0 0
0 0
0 0
0 0
0 0
0 0
0 0
0 0
0 0
0 0
0 0
0 0
0 0
0 0
0 0
0 0
0 0
0 0
0 0
0 0
0 0
0 0
0 0
0 0
0 0
0 0
0 0
0 0
0 0
0 0
0 0
0 0
0 0
0 0
0 0
0 0
0 0
0 0
0 0
0 0
0 0
0 0
0 0
0 0
0 0
0 0
0 0
0 0
0 0
0 0
0 0
0 0
0 0
0 0
0 0
0 0
0 0
0 0
0 0
0 0
0 0
0 0
0 0
0 0
0 0
0 0
0 0
0 0
0 0
0 0
0 0
0 0
0 0
0 0
0 0
0 0
0 0
0 0
0 0
0 0
0 0
0 0
0 0
0 0
0 0
0 0
0 0
0 0
0 0
0 0
0 0
0 0
0 0
0 0
0 0
0 0
0 0
0 0
0 0
0 0
0 0
0 0
0 0
0 0
0 0
0 0
0 0
0 0
0 0
0 0
0 0
0 0
0 0
0 0
0 0
0 0
0 0
0 0
0 0
0 0
0 0
0 0
0 0
0 0
0 0
0 0
0 0
0 0
0 0
0 0
0 0
0 0
0 0
0 0
0 0
0 0
0 0
0 0
0 0
0 0
0 0
0 0
0 0
0 0
0 0
0 0
0 0
0 0
0 0
0 0
0 0
0 0
0 0
0 0
0 0
0 0
0 0
0 0
0 0
0 0
0 0
0 0
0 0
0 0
0 0
0 0
0 0
0 0
0 0
0 0
0 0
0 0
0 0
0 0
0 0
0 0
0 0
0 0
0 0
0 0
0 0
0 0
0 0
0 0
0 0
0 0
0 0
0 0
0 0
0 0
0 0
0 0
0 0
0 0
0 0
0 0
0 0
0 0
0 0
0 0
0 0
0 0
0 0
0 0
0 0
0 0
0 0
0 0
0 0
0 0
0 0
0 0
0 0
0 0
0 0
0 0
0 0
0 0
0 0
0 0
0 0
0 0
0 0
0 0
0 0
0 0
0 0
0 0
0 0
0 0
0 0
0 0
0 0
0 0
0 0
0 0
0 0
0 0
0 0
0 0
0 0
0 0
0 0
0 0
0 0
0 0
0 0
0 0
0 0
0 0
0 0
0 0
0 0
0 0
0 0
0 0
0 0
0 0
0 0
0 0
0 0
0 0
0 0
0 0
0 0
0 0
0 0
0 0
0 0
0 0
0 0
0 0
0 0
0 0
0 0
0 0
0 0
0 0
0 0
0 0
0 0
0 0
0 0
0 0
0 0
0 0
0 0
0 0
0 0
0 0
0 0
0 0
0 0
0 0
0 0
0 0
0 0
0 0
0 0
0 0
0 0
0 0
0 0
0 0
0 0
0 0
0 0
0 0
0 0
0 0
0 0
0 0
0 0
0 0
0 0
0 0
0 0
0 0
0 0
0 0
0 0
0 0
0 0
0 0
0 0
0 0
0 0
0 0
0 0
0 0
0 0
0 0
0 0
0 0
0 0
0 0
0 0
0 0
0 0
0 0
0 0
0 0
0 0
0 0
0 0
0 0
0 0
0 0
0 0
0 0
0 0
0 0
0 0
0 0
0 0
0 0
0 0
0 0
0 0
0 0
0 0
0 0
0 0
0 0
0 0
0 0
0 0
0 0
0 0
0 0
0 0
0 0
0 0
0 0
0 0
0 0
0 0
0 0
0 0
0 0
0 0
0 0
0 0
0 0
0 0
0 0
0 0
0 0
0 0
0 0
0 0
0 0
0 0
0 0
0 0
0 0
0 0
0 0
0 0
0 0
0 0
0 0
0 0
0 0
0 0
0 0
0 0
0 0
0 0
0 0
0 0
0 0
0 0
0 0
0 0
0 0
0 0
0 0
0 0
0 0
0 0
0 0
0 0
0 0
0 0
0 0
0 0
0 0
0 0
0 0
0 0
0 0
0 0
0 0
0 0
0 0
0 0
0 0
0 0
0 0
0 0
0 0
0 0
0 0
0 0
0 0
0 0
0 0
0 0
0 0
0 0
0 0
0 0
0 0
0 0
0 0
0 0
0 0
0 0
0 0
0 0
0 0
0 0
0 0
0 0
0 0
0 0
0 0
0 0
0 0
0 0
0 0
0 0
0 0
0 0
0 0
0 0
0 0
0 0
0 0
0 0
0 0
0 0
0 0
0 0
0 0
0 0
0 0
0 0
0 0
0 0
0 0
0 0
0 0
0 0
0 0
0 0
0 0
0 0
0 0
0 0
0 0
0 0
0 0
0 0
0 0
0 0
0 0
0 0
0 0
0 0
0 0
0 0
0 0
0 0
0 0
0 0
0 0
0 0
0 0
0 0
0 0
0 0
0 0
0 0
0 0
0 0
0 0
0 0
0 0
0 0
0 0
0 0
0 0
0 0
0 0
0 0
0 0
0 0
0 0
0 0
0 0
0 0
0 0
0 0
0 0
0 0
0 0
0 0
0 0
0 0
0 0
0 0
0 0
0 0
0 0
0 0
0 0
0 0
0 0
0 0
0 0
0 0
0 0
0 0
0 0
0 0
0 0
0 0
0 0
0 0
0 0
0 0
0 0
0 0
0 0
0 0
0 0
0 0
0 0
0 0
0 0
0 0
0 0
0 0
0 0
0 0
0 0
0 0
0 0
0 0
0 0
0 0
0 0
0 0
0 0
0 0
0 0
0 0
0 0
0 0
0 0
0 0
0 0
0 0
0 0
0 0
0 0
0 0
0 0
0 0
0 0
0 0
0 0
0 0
0 0
0 0
0 0
0 0
0 0
0 0
0 0
0 0
0 0
0 0
0 0
0 0
0 0
0 0
0 0
0 0
0 0
0 0
0 0
0 0
0 0
0 0
0 0
0 0
0 0
0 0
0 0
0 0
0 0
0 0
0 0
0 0
0 0
0 0
0 0
0 0
0 0
0 0
0 0
0 0
0 0
0 0
0 0
0 0
0 0
0 0
0 0
0 0
0 0
0 0
0 0
0 0
0 0
0 0
0 0
0 0
0 0
0 0
0 0
0 0
0 0
0 0
0 0
0 0
0 0
0 0
0 0
0 0
0 0
0 0
0 0
0 0
0 0
0 0
0 0
0 0
0 0
0 0
0 0
0 0
0 0
0 0
0 0
0 0
0 0
0 0
0 0
0 0
0 0
0 0
0 0
0 0
0 0
0 0
0 0
0 0
0 0
0 0
0 0
0 0
0 0
0 0
0 0
0 0
0 0
0 0
0 0
0 0
0 0
0 0
0 0
0 0
0 0
0 0
0 0
0 0
0 0
0 0
0 0
0 0
0 0
0 0
0 0
0 0
0 0
0 0
0 0
0 0
0 0
0 0
0 0
0 0
0 0
0 0
0 0
0 0
0 0
0 0
0 0
0 0
0 0
0 0
0 0
0 0
0 0
0 0
0 0
0 0
0 0
0 0
0 0
0 0
0 0
0 0
0 0
0 0
0 0
0 0
0 0
0 0
0 0
0 0
0 0
0 0
0 0
0 0
0 0
0 0
0 0
0 0
0 0
0 0
0 0
0 0
0 0
0 0
0 0
0 0
0 0
0 0
0 0
0 0
0 0
0 0
0 0
0 0
0 0
0 0
0 0
0 0
0 0
0 0
0 0
0 0
0 0
0 0
0 0
0 0
0 0
0 0
0 0
0 0
0 0
0 0
0 0
0 0
0 0
0 0
0 0
0 0
0 0
0 0
0 0
0 0
0 0
0 0
0 0
0 0
0 0
0 0
0 0
0 0
0 0
0 0
0 0
0 0
0 0
0 0
0 0
0 0
0 0
0 0
0 0
0 0
0 0
0 0
0 0
0 0
0 0
0 0
0 0
0 0
0 0
0 0
0 0
0 0
0 0
0 0
0 0
0 0
0 0
0 0
0 0
0 0
0 0
0 0
0 0
0 0
0 0
0 0
0 0
0 0
0 0
0 0
0 0
0 0
0 0
0 0
0 0
0 0
0 0
0 0
0 0
0 0
0 0
0 0
0 0
0 0
0 0
0 0
0 0
0 0
0 0
0 0
0 0
0 0
0 0
0 0
0 0
0 0
0 0
0 0
0 0
0 0
0 0
0 0
0 0
0 0
0 0
0 0
0 0
0 0
0 0
0 0
0 0
0 0
0 0
0 0
0 0
0 0
0 0
0 0
0 0
0 0
0 0
0 0
0 0
0 0
0 0
0 0
0 0
0 0
0 0
0 0
0 0
0 0
0 0
0 0
0 0
0 0
0 0
0 0
0 0
0 0
0 0
0 0
0 0
0 0
0 0
0 0
0 0
0 0
0 0
0 0
0 0
0 0
0 0
0 0
0 0
0 0
0 0
0 0
0 0
0 0
0 0
0 0
0 0
0 0
0 0
0 0
0 0
0 0
0 0
0 0
0 0
0 0
0 0
0 0
0 0
0 0
0 0
0 0
0 0
0 0
0 0
0 0
0 0
0 0
0 0
0 0
0 0
0 0
0 0
0 0
0 0
0 0
0 0
0 0
0 0
0 0
0 0
0 0
0 0
0 0
0 0
0 0
0 0
0 0
0 0
0 0
0 0
0 0
0 0
0 0
0 0
0 0
0 0
0 0
0 0
0 0
0 0
0 0
0 0
0 0
0 0
0 0
0 0
0 0
0 0
0 0
0 0
0 0
0 0
0 0
0 0
0 0
0 0
0 0
0 0
0 0
0 0
0 0
0 0
0 0
0 0
0 0
0 0
0 0
0 0
0 0
0 0
0 0
0 0
0 0
0 0
0 0
0 0
0 0
0 0
0 0
0 0
0 0
0 0
0 0
0 0
0 0
0 0
0 0
0 0
0 0
0 0
0 0
0 0
0 0
0 0
0 0
0 0
0 0
0 0
0 0
0 0
0 0
0 0
0 0
0 0
0 0
0 0
0 0
0 0
0 0
0 0
0 0
0 0
0 0
0 0
0 0
0 0
0 0
0 0
0 0
0 0
0 0
0 0
0 0
0 0
0 0
0 0
0 0
0 0
0 0
0 0
0 0
0 0
0 0
0 0
0 0
0 0
0 0
0 0
0 0
0 0
0 0
0 0
0 0
0 0
0 0
0 0
0 0
0 0
0 0
0 0
0 0
0 0
0 0
0 0
0 0
0 0
0 0
0 0
0 0
0 0
0 0
0 0
0 0
0 0
0 0
0 0
0 0
0 0
0 0
0 0
0 0
0 0
0 0
0 0
0 0
0 0
0 0
0 0
0 0
0 0
0 0
0 0
0 0
0 0
0 0
0 0
0 0
0 0
0 0
0 0
0 0
0 0
0 0
0 0
0 0
0 0
0 0
0 0
0 0
0 0
0 0
0 0
0 0
0 0
0 0
0 0
0 0
0 0
0 0
0 0
0 0
0 0
0 0
0 0
0 0
0 0
0 0
0 0
0 0
0 0
0 0
0 0
0 0
0 0
0 0
0 0
0 0
0 0
0 0
0 0
0 0
0 0
0 0
0 0
0 0
0 0
0 0
0 0
0 0
0 0
0 0
0 0
0 0
0 0
0 0
0 0
0 0
0 0
0 0
0 0
0 0
0 0
0 0
0 0
0 0
0 0
0 0
0 0
0 0
0 0
0 0
0 0
0 0
0 0
0 0
0 0
0 0
0 0
0 0
0 0
0 0
0 0
0 0
0 0
0 0
0 0
0 0
0 0
0 0
0 0
0 0
0 0
0 0
0 0
0 0
0 0
0 0
0 0
0 0
0 0
0 0
0 0
0 0
0 0
0 0
0 0
0 0
0 0
0 0
0 0
0 0
0 0
0 0
0 0
0 0
0 0
0 0
0 0
0 0
0 0
0 0
0 0
0 0
0 0
0 0
0 0
0 0
0 0
0 0
0 0
0 0
0 0
0 0
0 0
0 0
0 0
0 0
0 0
0 0
0 0
0 0
0 0
0 0
0 0
0 0
0 0
0 0
0 0
0 0
0 0
0 0
0 0
0 0
0 0
0 0
0 0
0 0
0 0
0 0
0 0
0 0
0 0
0 0
0 0
0 0
0 0
0 0
0 0
0 0
0 0
0 0
0 0
0 0
0 0
0 0
0 0
0 0
0 0
0 0
0 0
0 0
0 0
0 0
0 0
0 0
0 0
0 0
0 0
0 0
0 0
0 0
0 0
0 0
0 0
0 0
0 0
0 0
0 0
0 0
0 0
0 0
0 0
0 0
0 0
0 0
0 0
0 0
0 0
0 0
0 0
0 0
0 0
0 0
0 0
0 0
0 0
0 0
0 0
0 0
0 0
0 0
0 0
0 0
0 0
0 0
0 0
0 0
0 0
0 0
0 0
0 0
0 0
0 0
0 0
0 0
0 0
0 0
0 0
0 0
0 0
0 0
0 0
0 0
0 0
0 0
0 0
0 0
0 0
0 0
0 0
0 0
0 0
0 0
0 0
0 0
0 0
0 0
0 0
0 0
0 0
0 0
0 0
0 0
0 0
0 0
0 0
0 0
0 0
0 0
0 0
0 0
0 0
0 0
0 0
0 0
0 0
0 0
0 0
0 0
0 0
0 0
0 0
0 0
0 0
0 0
0 0
0 0
0 0
0 0
0 0
0 0
0 0
0 0
0 0
0 0
0 0
0 0
0 0
0 0
0 0
0 0
0 0
0 0
0 0
0 0
0 0
0 0
0 0
0 0
0 0
0 0
0 0
0 0
0 0
0 0
0 0
0 0
0 0
0 0
0 0
0 0
0 0
0 0
0 0
0 0
0 0
0 0
0 0
0 0
0 0
0 0
0 0
0 0
0 0
0 0
0 0
0 0
0 0
0 0
0 0
0 0
0 0
0 0
0 0
0 0
0 0
0 0
0 0
0 0
0 0
0 0
0 0
0 0
0 0
0 0
0 0
0 0
0 0
0 0
0 0
0 0
0 0
0 0
0 0
0 0
0 0
0 0
0 0
0 0
0 0
0 0
0 0
0 0
0 0
0 0
0 0
0 0
0 0
0 0
0 0
0 0
0 0
0 0
0 0
0 0
0 0
0 0
0 0
0 0
0 0
0 0
0 0
0 0
0 0
0 0
0 0
0 0
0 0
0 0
0 0
0 0
0 0
0 0
0 0
0 0
0 0
0 0
0 0
0 0
0 0
0 0
0 0
0 0
0 0
0 0
0 0
0 0
0 0
0 0
0 0
0 0
0 0
0 0
0 0
0 0
0 0
0 0
0 0
0 0
0 0
0 0
0 0
0 0
0 0
0 0
0 0
0 0
0 0
0 0
0 0
0 0
0 0
0 0
0 0
0 0
0 0
0 0
0 0
0 0
0 0
0 0
0 0
0 0
0 0
0 0
0 0
0 0
0 0
0 0
0 0
0 0
0 0
0 0
0 0
0 0
0 0
0 0
0 0
0 0
0 0
0 0
0 0
0 0
0 0
0 0
0 0
0 0
0 0
0 0
0 0
0 0
0 0
0 0
0 0
0 0
0 0
0 0
0 0
0 0
0 0
0 0
0 0
0 0
0 0
0 0
0 0
0 0
0 0
0 0
0 0
0 0
0 0
0 0
0 0
0 0
0 0
0 0
0 0
0 0
0 0
0 0
0 0
0 0
0 0
0 0
0 0
0 0
0 0
0 0
0 0
0 0
0 0
0 0
0 0
0 0
0 0
0 0
0 0
0 0
0 0
0 0
0 0
0 0
0 0
0 0
0 0
0 0
0 0
0 0
0 0
0 0
0 0
0 0
0 0
0 0
0 0
0 0
0 0
0 0
0 0
0 0
0 0
0 0
0 0
0 0
0 0
0 0
0 0
0 0
0 0
0 0
0 0
0 0
0 0
0 0
0 0
0 0
0 0
0 0
0 0
0 0
0 0
0 0
0 0
0 0
0 0
0 0
0 0
0 0
0 0
0 0
0 0
0 0
0 0
0 0
0 0
0 0
0 0
0 0
0 0
0 0
0 0
0 0
0 0
0 0
0 0
0 0
0 0
0 0
0 0
0 0
0 0
0 0
0 0
0 0
0 0
0 0
0 0
0 0
0 0
0 0
0 0
0 0
0 0
0 0
0 0
0 0
0 0
0 0
0 0
0 0
0 0
0 0
0 0
0 0
0 0
0 0
0 0
0 0
0 0
0 0
0 0
0 0
0 0
0 0
0 0
0 0
0 0
0 0
0 0
0 0
0 0
0 0
0 0
0 0
0 0
0 0
0 0
0 0
0 0
0 0
0 0
0 0
0 0
0 0
0 0
0 0
0 0
0 0
0 0
0 0
0 0
0 0
0 0
0 0
0 0
0 0
0 0
0 0
0 0
0 0
0 0
0 0
0 0
0 0
0 0
0 0
0 0
0 0
0 0
0 0
0 0
0 0
0 0
0 0
0 0
0 0
0 0
0 0
0 0
0 0
0 0
0 0
0 0
0 0
0 0
0 0
0 0
0 0
0 0
0 0
0 0
0 0
0 0
0 0
0 0
0 0
0 0
0 0
0 0
0 0
0 0
0 0
0 0
0 0
0 0
0 0
0 0
0 0
0 0
0 0
0 0
0 0
0 0
0 0
0 0
0 0
0 0
0 0
0 0
0 0
0 0
0 0
0 0
0 0
0 0
0 0
0 0
0 0
0 0
0 0
0 0
0 0
0 0
0 0
0 0
0 0
0 0
0 0
0 0
0 0
0 0
0 0
0 0
0 0
0 0
0 0
0 0
0 0
0 0
0 0
0 0
0 0
0 0
0 0
0 0
0 0
0 0
0 0
0 0
0 0
0 0
0 0
0 0
0 0
0 0
0 0
0 0
0 0
0 0
0 0
0 0
0 0
0 0
0 0
0 0
0 0
0 0
0 0
0 0
0 0
0 0
0 0
0 0
0 0
0 0
0 0
0 0
0 0
0 0
0 0
0 0
0 0
0 0
0 0
0 0
0 0
0 0
0 0
0 0
0 0
0 0
0 0
0 0
0 0
0 0
0 0
0 0
0 0
0 0
0 0
0 0
0 0
0 0
0 0
0 0
0 0
0 0
0 0
0 0
0 0
0 0
0 0
0 0
0 0
0 0
0 0
0 0
0 0
0 0
0 0
0 0
0 0
0 0
0 0
0 0
0 0
0 0
0 0
0 0
0 0
0 0
0 0
0 0
0 0
0 0
0 0
0 0
0 0
0 0
0 0
0 0
0 0
0 0
0 0
0 0
0 0
0 0
0 0
0 0
0 0
0 0
0 0
0 0
0 0
0 0
0 0
0 0
0 0
0 0
0 0
0 0
0 0
0 0
0 0
0 0
0 0
0 0
0 0
0 0
0 0
0 0
0 0
0 0
0 0
0 0
0 0
0 0
0 0
0 0
0 0
0 0
0 0
0 0
0 0
0 0
0 0
0 0
0 0
0 0
0 0
0 0
0 0
0 0
0 0
0 0
0 0
0 0
0 0
0 0
0 0
0 0
0 0
0 0
0 0
0 0
0 0
0 0
0 0
0 0
0 0
0 0
0 0
0 0
0 0
0 0
0 0
0 0
0 0
0 0
0 0
0 0
0 0
0 0
0 0
0 0
0 0
0 0
0 0
0 0
0 0
0 0
0 0
0 0
0 0
0 0
0 0
0 0
0 0
0 0
0 0
0 0
0 0
0 0
0 0
0 0
0 0
0 0
0 0
0 0
0 0
0 0
0 0
0 0
0 0
0 0
0 0
0 0
0 0
0 0
0 0
0 0
0 0
0 0
0 0
0 0
0 0
0 0
0 0
0 0
0 0
0 0
0 0
0 0
0 0
0 0
0 0
0 0
0 0
0 0
0 0
0 0
0 0
0 0
0 0
0 0
0 0
0 0
0 0
0 0
0 0
0 0
0 0
0 0
0 0
0 0
0 0
0 0
0 0
0 0
0 0
0 0
0 0
0 0
0 0
0 0
0 0
0 0
0 0
0 0
0 0
0 0
0 0
0 0
0 0
0 0
0 0
0 0
0 0
0 0
0 0
0 0
0 0
0 0
0 0
0 0
0 0
0 0
0 0
0 0
0 0
0 0
0 0
0 0
0 0
0 0
0 0
0 0
0 0
0 0
0 0
0 0
0 0
0 0
0 0
0 0
0 0
0 0
0 0
0 0
0 0
0 0
0 0
0 0
0 0
0 0
0 0
0 0
0 0
0 0
0 0
0 0
0 0
0 0
0 0
0 0
0 0
0 0
0 0
0 0
0 0
0 0
0 0
0 0
0 0
0 0
0 0
0 0
0 0
0 0
0 0
0 0
0 0
0 0
0 0
0 0
0 0
0 0
0 0
0 0
0 0
0 0
0 0
0 0
0 0
0 0
0 0
0 0
0 0
0 0
0 0
0 0
0 0
0 0
0 0
0 0
0 0
0 0
0 0
0 0
0 0
0 0
0 0
0 0
0 0
0 0
0 0
0 0
0 0
0 0
0 0
0 0
0 0
0 0
0 0
0 0
0 0
0 0
0 0
0 0
0 0
0 0
0 0
0 0
0 0
0 0
0 0
0 0
0 0
0 0
0 0
0 0
0 0
0 0
0 0
0 0
0 0
0 0
0 0
0 0
0 0
0 0
0 0
0 0
0 0
0 0
0 0
0 0
0 0
0 0
0 0
0 0
0 0
0 0
0 0
0 0
0 0
0 0
0 0
0 0
0 0
0 0
0 0
0 0
0 0
0 0
0 0
0 0
0 0
0 0
0 0
0 0
0 0
0 0
0 0
0 0
0 0
0 0
0 0
0 0
0 0
0 0
0 0
0 0
0 0
0 0
0 0
0 0
0 0
0 0
0 0
0 0
0 0
0 0
0 0
0 0
0 0
0 0
0 0
0 0
0 0
0 0
0 0
0 0
0 0
0 0
0 0
0 0
0 0
0 0
0 0
0 0
0 0
0 0
0 0
0 0
0 0
0 0
0 0
0 0
0 0
0 0
0 0
0 0
0 0
0 0
0 0
0 0
0 0
0 0
0 0
0 0
0 0
0 0
0 0
0 0
0 0
0 0
0 0
0 0
0 0
0 0
0 0
0 0
0 0
0 0
0 0
0 0
0 0
0 0
0 0
0 0
0 0
0 0
0 0
0 0
0 0
0 0
0 0
0 0
0 0
0 0
0 0
0 0
0 0
0 0
0 0
0 0
0 0
0 0
0 0
0 0
0 0
0 0
0 0
0 0
0 0
0 0
0 0
0 0
0 0
0 0
0 0
0 0
0 0
0 0
0 0
0 0
0 0
0 0
0 0
0 0
0 0
0 0
0 0
0 0
0 0
0 0
0 0
0 0
0 0
0 0
0 0
0 0
0 0
0 0
0 0
0 0
0 0
0 0
0 0
0 0
0 0
0 0
0 0
0 0
0 0
0 0
0 0
0 0
0 0
0 0
0 0
0 0
0 0
0 0
0 0
0 0
0 0
0 0
0 0
0 0
0 0
0 0
0 0
0 0
0 0
0 0
0 0
0 0
0 0
0 0
0 0
0 0
0 0
0 0
0 0
0 0
0 0
0 0
0 0
0 0
0 0
0 0
0 0
0 0
0 0
0 0
0 0
0 0
0 0
0 0
0 0
0 0
0 0
0 0
0 0
0 0
0 0
0 0
0 0
0 0
0 0
0 0
0 0
0 0
0 0
0 0
0 0
0 0
0 0
0 0
0 0
0 0
0 0
0 0
0 0
0 0
0 0
0 0
0 0
0 0
0 0
0 0
0 0
0 0
0 0
0 0
0 0
0 0
0 0
0 0
0 0
0 0
0 0
0 0
0 0
0 0
0 0
0 0
0 0
0 0
0 0
0 0
0 0
0 0
0 0
0 0
0 0
0 0
0 0
0 0
0 0
0 0
0 0
0 0
0 0
0 0
0 0
0 0
0 0
0 0
0 0
0 0
0 0
0 0
0 0
0 0
0 0
0 0
0 0
0 0
0 0
0 0
0 0
0 0
0 0
0 0
0 0
0 0
0 0
0 0
0 0
0 0
0 0
0 0
0 0
0 0
0 0
0 0
0 0
0 0
0 0
0 0
0 0
0 0
0 0
0 0
0 0
0 0
0 0
0 0
0 0
0 0
0 0
0 0
0 0
0 0
0 0
0 0
0 0
0 0
0 0
0 0
0 0
0 0
0 0
0 0
0 0
0 0
0 0
0 0
0 0
0 0
0 0
0 0
0 0
0 0
0 0
0 0
0 0
0 0
0 0
0 0
0 0
0 0
0 0
0 0
0 0
0 0
0 0
0 0
0 0
0 0
0 0
0 0
0 0
0 0
0 0
0 0
0 0
0 0
0 0
0 0
0 0
0 0
0 0
0 0
0 0
0 0
0 0
0 0
0 0
0 0
0 0
0 0
0 0
0 0
0 0
0 0
0 0
0 0
0 0
0 0
0 0
0 0
0 0
0 0
0 0
0 0
0 0
0 0
0 0
0 0
0 0
0 0
0 0
0 0
0 0
0 0
0 0
0 0
0 0
0 0
0 0
0 0
0 0
0 0
0 0
0 0
0 0
0 0
0 0
0 0
0 0
0 0
0 0
0 0
0 0
0 0
0 0
0 0
0 0
0 0
0 0
0 0
0 0
0 0
0 0
0 0
0 0
0 0
0 0
0 0
0 0
0 0
0 0
0 0
0 0
0 0
0 0
0 0
0 0
0 0
0 0
0 0
0 0
0 0
0 0
0 0
0 0
0 0
0 0
0 0
0 0
0 0
0 0
0 0
0 0
0 0
0 0
0 0
0 0
0 0
0 0
0 0
0 0
0 0
0 0
0 0
0 0
0 0
0 0
0 0
0 0
0 0
0 0
0 0
0 0
0 0
0 0
0 0
0 0
0 0
0 0
0 0
0 0
0 0
0 0
0 0
0 0
0 0
0 0
0 0
0 0
0 0
0 0
0 0
0 0
0 0
0 0
0 0
0 0
0 0
0 0
0 0
0 0
0 0
0 0
0 0
0 0
0 0
0 0
0 0
0 0
0 0
0 0
0 0
0 0
0 0
0 0
0 0
0 0
0 0
0 0
0 0
0 0
0 0
0 0
0 0
0 0
0 0
0 0
0 0
0 0
0 0
0 0
0 0
0 0
0 0
0 0
0 0
0 0
0 0
0 0
0 0
0 0
0 0
0 0
0 0
0 0
0 0
0 0
0 0
0 0
0 0
0 0
0 0
0 0
0 0
0 0
0 0
0 0
0 0
0 0
0 0
0 0
0 0
0 0
0 0
0 0
0 0
0 0
0 0
0 0
0 0
0 0
0 0
0 0
0 0
0 0
0 0
0 0
0 0
0 0
0 0
0 0
0 0
0 0
0 0
0 0
0 0
0 0
0 0
0 0
0 0
0 0
0 0
0 0
0 0
0 0
0 0
0 0
0 0
0 0
0 0
0 0
0 0
0 0
0 0
0 0
0 0
0 0
0 0
0 0
0 0
0 0
0 0
0 0
0 0
0 0
0 0
0 0
0 0
0 0
0 0
0 0
0 0
0 0
0 0
0 0
0 0
0 0
0 0
0 0
0 0
0 0
0 0
0 0
0 0
0 0
0 0
0 0
0 0
0 0
0 0
0 0
0 0
0 0
0 0
0 0
0 0
0 0
0 0
0 0
0 0
0 0
0 0
0 0
0 0
0 0
0 0
0 0
0 0
0 0
0 0
0 0
0 0
0 0
0 0
0 0
0 0
0 0
0 0
0 0
0 0
0 0
0 0
0 0
0 0
0 0
0 0
0 0
0 0
0 0
0 0
0 0
0 0
0 0
0 0
0 0
0 0
0 0
0 0
0 0
0 0
0 0
0 0
0 0
0 0
0 0
0 0
0 0
0 0
0 0
0 0
0 0
0 0
0 0
0 0
0 0
0 0
0 0
0 0
0 0
0 0
0 0
0 0
0 0
0 0
0 0
0 0
0 0
0 0
0 0
0 0
0 0
0 0
0 0
0 0
0 0
0 0
0 0
0 0
0 0
0 0
0 0
0 0
0 0
0 0
0 0
0 0
0 0
0 0
0 0
0 0
0 0
0 0
0 0
0 0
0 0
0 0
0 0
0 0
0 0
0 0
0 0
0 0
0 0
0 0
0 0
0 0
0 0
0 0
0 0
0 0
0 0
0 0
0 0
0 0
0 0
0 0
0 0
0 0
0 0
0 0
0 0
0 0
0 0
0 0
0 0
0 0
0 0
0 0
0 0
0 0
0 0
0 0
0 0
0 0
0 0
0 0
0 0
0 0
0 0
0 0
0 0
0 0
0 0
0 0
0 0
0 0
0 0
0 0
0 0
0 0
0 0
0 0
0 0
0 0
0 0
0 0
0 0
0 0
0 0
0 0
0 0
0 0
0 0
0 0
0 0
0 0
0 0
0 0
0 0
0 0
0 0
0 0
0 0
0 0
0 0
0 0
0 0
0 0
0 0
0 0
0 0
0 0
0 0
0 0
0 0
0 0
0 0
0 0
0 0
0 0
0 0
0 0
0 0
0 0
0 0
0 0
0 0
0 0
0 0
0 0
0 0
0 0
0 0
0 0
0 0
0 0
0 0
0 0
0 0
0 0
0 0
0 0
0 0
0 0
0 0
0 0
0 0
0 0
0 0
0 0
0 0
0 0
0 0
0 0
0 0
0 0
0 0
0 0
0 0
0 0
0 0
0 0
0 0
0 0
0 0
0 0
0 0
0 0
0 0
0 0
0 0
0 0
0 0
0 0
0 0
0 0
0 0
0 0
0 0
0 0
0 0
0 0
0 0
0 0
0 0
0 0
0 0
0 0
0 0
0 0
0 0
0 0
0 0
0 0
0 0
0 0
0 0
0 0
0 0
0 0
0 0
0 0
0 0
0 0
0 0
0 0
0 0
0 0
0 0
0 0
0 0
0 0
0 0
0 0
0 0
0 0
0 0
0 0
0 0
0 0
0 0
0 0
0 0
0 0
0 0
0 0
0 0
0 0
0 0
0 0
0 0
0 0
0 0
0 0
0 0
0 0
0 0
0 0
0 0
0 0
0 0
0 0
0 0
0 0
0 0
0 0
0 0
0 0
0 0
0 0
0 0
0 0
0 0
0 0
0 0
0 0
0 0
0 0
0 0
0 0
0 0
0 0
0 0
0 0
0 0
0 0
0 0
0 0
0 0
0 0
0 0
0 0
0 0
0 0
0 0
0 0
0 0
0 0
0 0
0 0
0 0
0 0
0 0
0 0
0 0
0 0
0 0
0 0
0 0
0 0
0 0
0 0
0 0
0 0
0 0
0 0
0 0
0 0
0 0
0 0
0 0
0 0
0 0
0 0
0 0
0 0
0 0
0 0
0 0
0 0
0 0
0 0
0 0
0 0
0 0
0 0
0 0
0 0
0 0
0 0
0 0
0 0
0 0
0 0
0 0
0 0
0 0
0 0
0 0
0 0
0 0
0 0
0 0
0 0
0 0
0 0
0 0
0 0
0 0
0 0
0 0
0 0
0 0
0 0
0 0
0 0
0 0
0 0
0 0
0 0
0 0
0 0
0 0
0 0
0 0
0 0
0 0
0 0
0 0
0 0
0 0
0 0
0 0
0 0
0 0
0 0
0 0
0 0
0 0
0 0
0 0
0 0
0 0
0 0
0 0
0 0
0 0
0 0
0 0
0 0
0 0
0 0
0 0
0 0
0 0
0 0
0 0
0 0
0 0
0 0
0 0
0 0
0 0
0 0
0 0
0 0
0 0
0 0
0 0
0 0
0 0
0 0
0 0
0 0
0 0
0 0
0 0
0 0
0 0
0 0
0 0
0 0
0 0
0 0
0 0
0 0
0 0
0 0
0 0
0 0
0 0
0 0
0 0
0 0
0 0
0 0
0 0
0 0
0 0
0 0
0 0
0 0
0 0
0 0
0 0
0 0
0 0
0 0
0 0
0 0
0 0
0 0
0 0
0 0
0 0
0 0
0 0
0 0
0 0
0 0
0 0
0 0
0 0
0 0
0 0
0 0
0 0
0 0
0 0
0 0
0 0
0 0
0 0
0 0
0 0
0 0
0 0
0 0
0 0
0 0
0 0
0 0
0 0
0 0
0 0
0 0
0 0
0 0
0 0
0 0
0 0
0 0
0 0
0 0
0 0
0 0
0 0
0 0
0 0
0 0
0 0
0 0
0 0
0 0
0 0
0 0
0 0
0 0
0 0
0 0
0 0
0 0
0 0
0 0
0 0
0 0
0 0
0 0
0 0
0 0
0 0
0 0
0 0
0 0
0 0
0 0
0 0
0 0
0 0
0 0
0 0
0 0
0 0
0 0
0 0
0 0
0 0
0 0
0 0
0 0
0 0
0 0
0 0
0 0
0 0
0 0
0 0
0 0
0 0
0 0
0 0
0 0
0 0
0 0
0 0
0 0
0 0
0 0
0 0
0 0
0 0
0 0
0 0
0 0
0 0
0 0
0 0
0 0
0 0
0 0
0 0
0 0
0 0
0 0
0 0
0 0
0 0
0 0
0 0
0 0
0 0
0 0
0 0
0 0
0 0
0 0
0 0
0 0
0 0
0 0
0 0
0 0
0 0
0 0
0 0
0 0
0 0
0 0
0 0
0 0
0 0
0 0
0 0
0 0
0 0
0 0
0 0
0 0
0 0
0 0
0 0
0 0
0 0
0 0
0 0
0 0
0 0
0 0
0 0
0 0
0 0
0 0
0 0
0 0
0 0
0 0
0 0
0 0
0 0
0 0
0 0
0 0
0 0
0 0
0 0
0 0
0 0
0 0
0 0
0 0
0 0
0 0
0 0
0 0
0 0
0 0
0 0
0 0
0 0
0 0
0 0
0 0
0 0
0 0
0 0
0 0
0 0
0 0
0 0
0 0
0 0
0 0
0 0
0 0
0 0
0 0
0 0
0 0
0 0
0 0
0 0
0 0
0 0
0 0
0 0
0 0
0 0
0 0
0 0
0 0
0 0
0 0
0 0
0 0
0 0
0 0
0 0
0 0
0 0
0 0
0 0
0 0
0 0
0 0
0 0
0 0
0 0
0 0
0 0
0 0
0 0
0 0
0 0
0 0
0 0
0 0
0 0
0 0
0 0
0 0
0 0
0 0
0 0
0 0
0 0
0 0
0 0
0 0
0 0
0 0
0 0
0 0
0 0
0 0
0 0
0 0
0 0
0 0
0 0
0 0
0 0
0 0
0 0
0 0
0 0
0 0
0 0
0 0
0 0
0 0
0 0
0 0
0 0
0 0
0 0
0 0
0 0
0 0
0 0
0 0
0 0
0 0
0 0
0 0
0 0
0 0
0 0
0 0
0 0
0 0
0 0
0 0
0 0
0 0
0 0
0 0
0 0
0 0
0 0
0 0
0 0
0 0
0 0
0 0
0 0
0 0
0 0
0 0
0 0
0 0
0 0
0 0
0 0
0 0
0 0
0 0
0 0
0 0
0 0
0 0
0 0
0 0
0 0
0 0
0 0
0 0
0 0
0 0
0 0
0 0
0 0
0 0
0 0
0 0
0 0
0 0
0 0
0 0
0 0
0 0
0 0
0 0
0 0
0 0
0 0
0 0
0 0
0 0
0 0
0 0
0 0
0 0
0 0
0 0
0 0
0 0
0 0
0 0
0 0
0 0
0 0
0 0
0 0
0 0
0 0
0 0
0 0
0 0
0 0
0 0
0 0
0 0
0 0
0 0
0 0
0 0
0 0
0 0
0 0
0 0
0 0
0 0
0 0
0 0
0 0
0 0
0 0
0 0
0 0
0 0
0 0
0 0
0 0
0 0
0 0
0 0
0 0
0 0
0 0
0 0
0 0
0 0
0 0
0 0
0 0
0 0
0 0
0 0
0 0
0 0
0 0
0 0
0 0
0 0
0 0
0 0
0 0
0 0
0 0
0 0
0 0
0 0
0 0
0 0
0 0
0 0
0 0
0 0
0 0
0 0
0 0
0 0
0 0
0 0
0 0
0 0
0 0
0 0
0 0
0 0
0 0
0 0
0 0
0 0
0 0
0 0
0 0
0 0
0 0
0 0
0 0
0 0
0 0
0 0
0 0
0 0
0 0
0 0
0 0
0 0
0 0
0 0
0 0
0 0
0 0
0 0
0 0
0 0
0 0
0 0
0 0
0 0
0 0
0 0
0 0
0 0
0 0
0 0
0 0
0 0
0 0
0 0
0 0
0 0
0 0
0 0
0 0
0 0
0 0
0 0
0 0
0 0
0 0
0 0
0 0
0 0
0 0
0 0
0 0
0 0
0 0
0 0
0 0
0 0
0 0
0 0
0 0
0 0
0 0
0 0
0 0
0 0
0 0
0 0
0 0
0 0
0 0
0 0
0 0
0 0
0 0
0 0
0 0
0 0
0 0
0 0
0 0
0 0
0 0
0 0
0 0
0 0
0 0
0 0
0 0
0 0
0 0
0 0
0 0
0 0
0 0
0 0
0 0
0 0
0 0
0 0
0 0
0 0
0 0
0 0
0 0
0 0
0 0
0 0
0 0
0 0
0 0
0 0
0 0
0 0
0 0
0 0
0 0
0 0
0 0
0 0
0 0
0 0
0 0
0 0
0 0
0 0
0 0
0 0
0 0
0 0
0 0
0 0
0 0
0 0
0 0
0 0
0 0
0 0
0 0
0 0
0 0
0 0
0 0
0 0
0 0
0 0
0 0
0 0
0 0
0 0
0 0
0 0
0 0
0 0
0 0
0 0
0 0
0 0
0 0
0 0
0 0
0 0
0 0
0 0
0 0
0 0
0 0
0 0
0 0
0 0
0 0
0 0
0 0
0 0
0 0
0 0
0 0
0 0
0 0
0 0
0 0
0 0
0 0
0 0
0 0
0 0
0 0
0 0
0 0
0 0
0 0
0 0
0 0
0 0
0 0
0 0
0 0
0 0
0 0
0 0
0 0
0 0
0 0
0 0
0 0
0 0
0 0
0 0
0 0
0 0
0 0
0 0
0 0
0 0
0 0
0 0
0 0
0 0
0 0
0 0
0 0
0 0
0 0
0 0
0 0
0 0
0 0
0 0
0 0
0 0
0 0
0 0
0 0
0 0
0 0
0 0
0 0
0 0
0 0
0 0
0 0
0 0
0 0
0 0
0 0
0 0
0 0
0 0
0 0
0 0
0 0
0 0
0 0
0 0
0 0
0 0
0 0
0 0
0 0
0 0
0 0
0 0
0 0
0 0
0 0
0 0
0 0
0 0
0 0
0 0
0 0
0 0
0 0
0 0
0 0
0 0
0 0
0 0
0 0
0 0
0 0
0 0
0 0
0 0
0 0
0 0
0 0
0 0
0 0
0 0
0 0
0 0
0 0
0 0
0 0
0 0
0 0
0 0
0 0
0 0
0 0
0 0
0 0
0 0
0 0
0 0
0 0
0 0
0 0
0 0
0 0
0 0
0 0
0 0
0 0
0 0
0 0
0 0
0 0
0 0
0 0
0 0
0 0
0 0
0 0
0 0
0 0
0 0
0 0
0 0
0 0
0 0
0 0
0 0
0 0
0 0
0 0
0 0
0 0
0 0
0 0
0 0
0 0
0 0
0 0
0 0
0 0
0 0
0 0
0 0
0 0
0 0
0 0
0 0
0 0
0 0
0 0
0 0
0 0
0 0
0 0
0 0
0 0
0 0
0 0
0 0
0 0
0 0
0 0
0 0
0 0
0 0
0 0
0 0
0 0
0 0
0 0
0 0
0 0
0 0
0 0
0 0
0 0
0 0
0 0
0 0
0 0
0 0
0 0
0 0
0 0
0 0
0 0
0 0
0 0
0 0
0 0
0 0
0 0
0 0
0 0
0 0
0 0
0 0
0 0
0 0
0 0
0 0
0 0
0 0
0 0
0 0
0 0
0 0
0 0
0 0
0 0
0 0
0 0
0 0
0 0
0 0
0 0
0 0
0 0
0 0
0 0
0 0
0 0
0 0
0 0
0 0
0 0
0 0
0 0
0 0
0 0
0 0
0 0
0 0
0 0
0 0
0 0
0 0
0 0
0 0
0 0
0 0
0 0
0 0
0 0
0 0
0 0
0 0
0 0
0 0
0 0
0 0
0 0
0 0
0 0
0 0
0 0
0 0
0 0
0 0
0 0
0 0
0 0
0 0
0 0
0 0
0 0
0 0
0 0
0 0
0 0
0 0
0 0
0 0
0 0
0 0
0 0
0 0
0 0
0 0
0 0
0 0
0 0
0 0
0 0
0 0
0 0
0 0
0 0
0 0
0 0
0 0
0 0
0 0
0 0
0 0
0 0
0 0
0 0
0 0
0 0
0 0
0 0
0 0
0 0
0 0
0 0
0 0
0 0
0 0
0 0
0 0
0 0
0 0
0 0
0 0
0 0
0 0
0 0
0 0
0 0
0 0
0 0
0 0
0 0
0 0
0 0
0 0
0 0
0 0
0 0
0 0
0 0
0 0
0 0
0 0
0 0
0 0
0 0
0 0
0 0
0 0
0 0
0 0
0 0
0 0
0 0
0 0
0 0
0 0
0 0
0 0
0 0
0 0
0 0
0 0
0 0
0 0
0 0
0 0
0 0
0 0
0 0
0 0
0 0
0 0
0 0
0 0
0 0
0 0
0 0
0 0
0 0
0 0
0 0
0 0
0 0
0 0
0 0
0 0
0 0
0 0
0 0
0 0
0 0
0 0
0 0
0 0
0 0
0 0
0 0
0 0
0 0
0 0
0 0
0 0
0 0
0 0
0 0
0 0
0 0
0 0
0 0
0 0
0 0
0 0
0 0
0 0
0 0
0 0
0 0
0 0
0 0
0 0
0 0
0 0
0 0
0 0
0 0
0 0
0 0
0 0
0 0
0 0
0 0
0 0
0 0
0 0
0 0
0 0
0 0
0 0
0 0
0 0
0 0
0 0
0 0
0 0
0 0
0 0
0 0
0 0
0 0
0 0
0 0
0 0
0 0
0 0
0 0
0 0
0 0
0 0
0 0
0 0
0 0
0 0
0 0
0 0
0 0
0 0
0 0
0 0
0 0
0 0
0 0
0 0
0 0
0 0
0 0
0 0
0 0
0 0
0 0
0 0
0 0
0 0
0 0
0 0
0 0
0 0
0 0
0 0
0 0
0 0
0 0
0 0
0 0
0 0
0 0
0 0
0 0
0 0
0 0
0 0
0 0
0 0
0 0
0 0
0 0
0 0
0 0
0 0
0 0
0 0
0 0
0 0
0 0
0 0
0 0
0 0
0 0
0 0
0 0
0 0
0 0
0 0
0 0
0 0
0 0
0 0
0 0
0 0
0 0
0 0
0 0
0 0
0 0
0 0
0 0
0 0
0 0
0 0
0 0
0 0
0 0
0 0
0 0
0 0
0 0
0 0
0 0
0 0
0 0
0 0
0 0
0 0
0 0
0 0
0 0
0 0
0 0
0 0
0 0
0 0
0 0
0 0
0 0
0 0
0 0
0 0
0 0
0 0
0 0
0 0
0 0
0 0
0 0
0 0
0 0
0 0
0 0
0 0
0 0
0 0
0 0
0 0
0 0
0 0
0 0
0 0
0 0
0 0
0 0
0 0
0 0
0 0
0 0
0 0
0 0
0 0
0 0
0 0
0 0
0 0
0 0
0 0
0 0
0 0
0 0
0 0
0 0
0 0
0 0
0 0
0 0
0 0
0 0
0 0
0 0
0 0
0 0
0 0
0 0
0 0
0 0
0 0
0 0
0 0
0 0
0 0
0 0
0 0
0 0
0 0
0 0
0 0
0 0
0 0
0 0
0 0
0 0
0 0
0 0
0 0
0 0
0 0
0 0
0 0
0 0
0 0
0 0
0 0
0 0
0 0
0 0
0 0
0 0
0 0
0 0
0 0
0 0
0 0
0 0
0 0
0 0
0 0
0 0
0 0
0 0
0 0
0 0
0 0
0 0
0 0
0 0
0 0
0 0
0 0
0 0
0 0
0 0
0 0
0 0
0 0
0 0
0 0
0 0
0 0
0 0
0 0
0 0
0 0
0 0
0 0
0 0
0 0
0 0
0 0
0 0
0 0
0 0
0 0
0 0
0 0
0 0
0 0
0 0
0 0
0 0
0 0
0 0
0 0
0 0
0 0
0 0
0 0
0 0
0 0
0 0
0 0
0 0
0 0
0 0
0 0
0 0
0 0
0 0
0 0
0 0
0 0
0 0
0 0
0 0
0 0
0 0
0 0
0 0
0 0
0 0
0 0
0 0
0 0
0 0
0 0
0 0
0 0
0 0
0 0
0 0
0 0
0 0
0 0
0 0
0 0
0 0
0 0
0 0
0 0
0 0
0 0
0 0
0 0
0 0
0 0
0 0
0 0
0 0
0 0
0 0
0 0
0 0
0 0
0 0
0 0
0 0
0 0
0 0
0 0
0 0
0 0
0 0
0 0
0 0
0 0
0 0
0 0
0 0
0 0
0 0
0 0
0 0
0 0
0 0
0 0
0 0
0 0
0 0
0 0
0 0
0 0
0 0
0 0
0 0
0 0
0 0
0 0
0 0
0 0
0 0
0 0
0 0
0 0
0 0
0 0
0 0
0 0
0 0
0 0
0 0
0 0
0 0
0 0
0 0
0 0
0 0
0 0
0 0
0 0
0 0
0 0
0 0
0 0
0 0
0 0
0 0
0 0
0 0
0 0
0 0
0 0
0 0
0 0
0 0
0 0
0 0
0 0
0 0
0 0
0 0
0 0
0 0
0 0
0 0
0 0
0 0
0 0
0 0
0 0
0 0
0 0
0 0
0 0
0 0
0 0
0 0
0 0
0 0
0 0
0 0
0 0
0 0
0 0
0 0
0 0
0 0
0 0
0 0
0 0
0 0
0 0
0 0
0 0
0 0
0 0
0 0
0 0
0 0
0 0
0 0
0 0
0 0
0 0
0 0
0 0
0 0
0 0
0 0
0 0
0 0
0 0
0 0
0 0
0 0
0 0
0 0
0 0
0 0
0 0
0 0
0 0
0 0
0 0
0 0
0 0
0 0
0 0
0 0
0 0
0 0
0 0
0 0
0 0
0 0
0 0
0 0
0 0
0 0
0 0
0 0
0 0
0 0
0 0
0 0
0 0
0 0
0 0
0 0
0 0
0 0
0 0
0 0
0 0
0 0
0 0
0 0
0 0
0 0
0 0
0 0
0 0
0 0
0 0
0 0
0 0
0 0
0 0
0 0
0 0
0 0
0 0
0 0
0 0
0 0
0 0
0 0
0 0
0 0
0 0
0 0
0 0
0 0
0 0
0 0
0 0
0 0
0 0
0 0
0 0
0 0
0 0
0 0
0 0
0 0
0 0
0 0
0 0
0 0
0 0
0 0
0 0
0 0
0 0
0 0
0 0
0 0
0 0
0 0
0 0
0 0
0 0
0 0
0 0
0 0
0 0
0 0
0 0
0 0
0 0
0 0
0 0
0 0
0 0
0 0
0 0
0 0
0 0
0 0
0 0
0 0
0 0
0 0
0 0
0 0
0 0
0 0
0 0
0 0
0 0
0 0
0 0
0 0
0 0
0 0
0 0
0 0
0 0
0 0
0 0
0 0
0 0
0 0
0 0
0 0
0 0
0 0
0 0
0 0
0 0
0 0
0 0
0 0
0 0
0 0
0 0
0 0
0 0
0 0
0 0
0 0
0 0
0 0
0 0
0 0
0 0
0 0
0 0
0 0
0 0
0 0
0 0
0 0
0 0
0 0
0 0
0 0
0 0
0 0
0 0
0 0
0 0
0 0
0 0
0 0
0 0
0 0
0 0
0 0
0 0
0 0
0 0
0 0
0 0
0 0
0 0
0 0
0 0
0 0
0 0
0 0
0 0
0 0
0 0
0 0
0 0
0 0
0 0
0 0
0 0
0 0
0 0
0 0
0 0
0 0
0 0
0 0
0 0
0 0
0 0
0 0
0 0
0 0
0 0
0 0
0 0
0 0
0 0
0 0
0 0
0 0
0 0
0 0
0 0
0 0
0 0
0 0
0 0
0 0
0 0
0 0
0 0
0 0
0 0
0 0
0 0
0 0
0 0
0 0
0 0
0 0
0 0
0 0
0 0
0 0
0 0
0 0
0 0
0 0
0 0
0 0
0 0
0 0
0 0
0 0
0 0
0 0
0 0
0 0
0 0
0 0
0 0
0 0
0 0
0 0
0 0
0 0
0 0
0 0
0 0
0 0
0 0
0 0
0 0
0 0
0 0
0 0
0 0
0 0
0 0
0 0
0 0
0 0
0 0
0 0
0 0
0 0
0 0
0 0
0 0
0 0
0 0
0 0
0 0
0 0
0 0
0 0
0 0
0 0
0 0
0 0
0 0
0 0
0 0
0 0
0 0
0 0
0 0
0 0
0 0
0 0
0 0
0 0
0 0
0 0
0 0
0 0
0 0
0 0
0 0
0 0
0 0
0 0
0 0
0 0
0 0
0 0
0 0
0 0
0 0
0 0
0 0
0 0
0 0
0 0
0 0
0 0
0 0
0 0
0 0
0 0
0 0
0 0
0 0
0 0
0 0
0 0
0 0
0 0
0 0
0 0
0 0
0 0
0 0
0 0
0 0
0 0
0 0
0 0
0 0
0 0
0 0
0 0
0 0
0 0
0 0
0 0
0 0
0 0
0 0
0 0
0 0
0 0
0 0
0 0
0 0
0 0
0 0
0 0
0 0
0 0
0 0
0 0
0 0
0 0
0 0
0 0
0 0
0 0
0 0
0 0
0 0
0 0
0 0
0 0
0 0
0 0
0 0
0 0
0 0
0 0
0 0
0 0
0 0
0 0
0 0
0 0
0 0
0 0
0 0
0 0
0 0
0 0
0 0
0 0
0 0
0 0
0 0
0 0
0 0
0 0
0 0
0 0
0 0
0 0
0 0
0 0
0 0
0 0
0 0
0 0
0 0
0 0
0 0
0 0
0 0
0 0
0 0
0 0
0 0
0 0
0 0
0 0
0 0
0 0
0 0
0 0
0 0
0 0
0 0
0 0
0 0
0 0
0 0
0 0
0 0
0 0
0 0
0 0
0 0
0 0
0 0
0 0
0 0
0 0
0 0
0 0
0 0
0 0
0 0
0 0
0 0
0 0
0 0
0 0
0 0
0 0
0 0
0 0
0 0
0 0
0 0
0 0
0 0
0 0
0 0
0 0
0 0
0 0
0 0
0 0
0 0
0 0
0 0
0 0
0 0
0 0
0 0
0 0
0 0
0 0
0 0
0 0
0 0
0 0
0 0
0 0
0 0
0 0
0 0
0 0
0 0
      </DataArray> 
      <DataArray type="Float64" NumberOfComponents="2" Name="CauchyNormalStress" format="ascii">
0 0
0 0
0 0
0 0
0 0
0 0
0 0
0 0
0 0
0 0
0 0
0 0
0 0
0 0
0 0
0 0
0 0
0 0
0 0
0 0
0 0
0 0
0 0
0 0
0 0
0 0
0 0
0 0
0 0
0 0
0 0
0 0
0 0
0 0
0 0
0 0
0 0
0 0
0 0
0 0
0 0
0 0
0 0
0 0
0 0
0 0
0 0
0 0
0 0
0 0
0 0
0 0
0 0
0 0
0 0
0 0
0 0
0 0
0 0
0 0
0 0
0 0
0 0
0 0
0 0
0 0
0 0
0 0
0 0
0 0
0 0
0 0
0 0
0 0
0 0
0 0
0 0
0 0
0 0
0 0
0 0
0 0
0 0
0 0
0 0
0 0
0 0
0 0
0 0
0 0
0 0
0 0
0 0
0 0
0 0
0 0
0 0
0 0
0 0
0 0
0 0
0 0
0 0
0 0
0 0
0 0
0 0
0 0
0 0
0 0
0 0
0 0
0 0
0 0
0 0
0 0
0 0
0 0
0 0
0 0
0 0
0 0
0 0
0 0
0 0
0 0
0 0
0 0
0 0
0 0
0 0
0 0
0 0
0 0
0 0
0 0
0 0
0 0
0 0
0 0
0 0
0 0
0 0
0 0
0 0
0 0
0 0
0 0
0 0
0 0
0 0
0 0
0 0
0 0
0 0
0 0
0 0
0 0
0 0
0 0
0 0
0 0
0 0
0 0
0 0
0 0
0 0
0 0
0 0
0 0
0 0
0 0
0 0
0 0
0 0
0 0
0 0
0 0
0 0
0 0
0 0
0 0
0 0
0 0
0 0
0 0
0 0
0 0
0 0
0 0
0 0
0 0
0 0
0 0
0 0
0 0
0 0
0 0
0 0
0 0
0 0
0 0
0 0
0 0
0 0
0 0
0 0
0 0
0 0
0 0
0 0
0 0
0 0
0 0
0 0
0 0
0 0
0 0
0 0
0 0
0 0
0 0
0 0
0 0
0 0
0 0
0 0
0 0
0 0
0 0
0 0
0 0
0 0
0 0
0 0
0 0
0 0
0 0
0 0
0 0
0 0
0 0
0 0
0 0
0 0
0 0
0 0
0 0
0 0
0 0
0 0
0 0
0 0
0 0
0 0
0 0
0 0
0 0
0 0
0 0
0 0
0 0
0 0
0 0
0 0
0 0
0 0
0 0
0 0
0 0
0 0
0 0
0 0
0 0
0 0
0 0
0 0
0 0
0 0
0 0
0 0
0 0
0 0
0 0
0 0
0 0
0 0
0 0
0 0
0 0
0 0
0 0
0 0
0 0
0 0
0 0
0 0
0 0
0 0
0 0
0 0
0 0
0 0
0 0
0 0
0 0
0 0
0 0
0 0
0 0
0 0
0 0
0 0
0 0
0 0
0 0
0 0
0 0
0 0
0 0
0 0
0 0
0 0
0 0
0 0
0 0
0 0
0 0
0 0
0 0
0 0
0 0
0 0
0 0
0 0
0 0
0 0
0 0
0 0
0 0
0 0
0 0
0 0
0 0
0 0
0 0
0 0
0 0
0 0
0 0
0 0
0 0
0 0
0 0
0 0
0 0
0 0
0 0
0 0
0 0
0 0
0 0
0 0
0 0
0 0
0 0
0 0
0 0
0 0
0 0
0 0
0 0
0 0
0 0
0 0
0 0
0 0
0 0
0 0
0 0
0 0
0 0
0 0
0 0
0 0
0 0
0 0
0 0
0 0
0 0
0 0
0 0
0 0
0 0
0 0
0 0
0 0
0 0
0 0
0 0
0 0
0 0
0 0
0 0
0 0
0 0
0 0
0 0
0 0
0 0
0 0
0 0
0 0
0 0
0 0
0 0
0 0
0 0
0 0
0 0
0 0
0 0
0 0
0 0
0 0
0 0
0 0
0 0
0 0
0 0
0 0
0 0
0 0
0 0
0 0
0 0
0 0
0 0
0 0
0 0
0 0
0 0
0 0
0 0
0 0
0 0
0 0
0 0
0 0
0 0
0 0
0 0
0 0
0 0
0 0
0 0
0 0
0 0
0 0
0 0
0 0
0 0
0 0
0 0
0 0
0 0
0 0
0 0
0 0
0 0
0 0
0 0
0 0
0 0
0 0
0 0
0 0
0 0
0 0
0 0
0 0
0 0
0 0
0 0
0 0
0 0
0 0
0 0
0 0
0 0
0 0
0 0
0 0
0 0
0 0
0 0
0 0
0 0
0 0
0 0
0 0
0 0
0 0
0 0
0 0
0 0
0 0
0 0
0 0
0 0
0 0
0 0
0 0
0 0
0 0
0 0
0 0
0 0
0 0
0 0
0 0
0 0
0 0
0 0
0 0
0 0
0 0
0 0
0 0
0 0
0 0
0 0
0 0
0 0
0 0
0 0
0 0
0 0
0 0
0 0
0 0
0 0
0 0
0 0
0 0
0 0
0 0
0 0
0 0
0 0
0 0
0 0
0 0
0 0
0 0
0 0
0 0
0 0
0 0
0 0
0 0
0 0
0 0
0 0
0 0
0 0
0 0
0 0
0 0
0 0
0 0
0 0
0 0
0 0
0 0
0 0
0 0
0 0
0 0
0 0
0 0
0 0
0 0
0 0
0 0
0 0
0 0
0 0
0 0
0 0
0 0
0 0
0 0
0 0
0 0
0 0
0 0
0 0
0 0
0 0
0 0
0 0
0 0
0 0
0 0
0 0
0 0
0 0
0 0
0 0
0 0
0 0
0 0
0 0
0 0
0 0
0 0
0 0
0 0
0 0
0 0
0 0
0 0
0 0
0 0
0 0
0 0
0 0
0 0
0 0
0 0
0 0
0 0
0 0
0 0
0 0
0 0
0 0
0 0
0 0
0 0
0 0
0 0
0 0
0 0
0 0
0 0
0 0
0 0
0 0
0 0
0 0
0 0
0 0
0 0
0 0
0 0
0 0
0 0
0 0
0 0
0 0
0 0
0 0
0 0
0 0
0 0
0 0
0 0
0 0
0 0
0 0
0 0
0 0
0 0
0 0
0 0
0 0
0 0
0 0
0 0
0 0
0 0
0 0
0 0
0 0
0 0
0 0
0 0
0 0
0 0
0 0
0 0
0 0
0 0
0 0
0 0
0 0
0 0
0 0
0 0
0 0
0 0
0 0
0 0
0 0
0 0
0 0
0 0
0 0
0 0
0 0
0 0
0 0
0 0
0 0
0 0
0 0
0 0
0 0
0 0
0 0
0 0
0 0
0 0
0 0
0 0
0 0
0 0
0 0
0 0
0 0
0 0
0 0
0 0
0 0
0 0
0 0
0 0
0 0
0 0
0 0
0 0
0 0
0 0
0 0
0 0
0 0
0 0
0 0
0 0
0 0
0 0
0 0
0 0
0 0
0 0
0 0
0 0
0 0
0 0
0 0
0 0
0 0
0 0
0 0
0 0
0 0
0 0
0 0
0 0
0 0
0 0
0 0
0 0
0 0
0 0
0 0
0 0
0 0
0 0
0 0
0 0
0 0
0 0
0 0
0 0
0 0
0 0
0 0
0 0
0 0
0 0
0 0
0 0
0 0
0 0
0 0
0 0
0 0
0 0
0 0
0 0
0 0
0 0
0 0
0 0
0 0
0 0
0 0
0 0
0 0
0 0
0 0
0 0
0 0
0 0
0 0
0 0
0 0
0 0
0 0
0 0
0 0
0 0
0 0
0 0
0 0
0 0
0 0
0 0
0 0
0 0
0 0
0 0
0 0
0 0
0 0
0 0
0 0
0 0
0 0
0 0
0 0
0 0
0 0
0 0
0 0
0 0
0 0
0 0
0 0
0 0
0 0
0 0
0 0
0 0
0 0
0 0
0 0
0 0
0 0
0 0
0 0
0 0
0 0
0 0
0 0
0 0
0 0
0 0
0 0
0 0
0 0
0 0
0 0
0 0
0 0
0 0
0 0
0 0
0 0
0 0
0 0
0 0
0 0
0 0
0 0
0 0
0 0
0 0
0 0
0 0
0 0
0 0
0 0
0 0
0 0
0 0
0 0
0 0
0 0
0 0
0 0
0 0
0 0
0 0
0 0
0 0
0 0
0 0
0 0
0 0
0 0
0 0
0 0
0 0
0 0
0 0
0 0
0 0
0 0
0 0
0 0
0 0
0 0
0 0
0 0
0 0
0 0
0 0
0 0
0 0
0 0
0 0
0 0
0 0
0 0
0 0
0 0
0 0
0 0
0 0
0 0
0 0
0 0
0 0
0 0
0 0
0 0
0 0
0 0
0 0
0 0
0 0
0 0
0 0
0 0
0 0
0 0
0 0
0 0
0 0
0 0
0 0
0 0
0 0
0 0
0 0
0 0
0 0
0 0
0 0
0 0
0 0
0 0
0 0
0 0
0 0
0 0
0 0
0 0
0 0
0 0
0 0
0 0
0 0
0 0
0 0
0 0
0 0
0 0
0 0
0 0
0 0
0 0
0 0
0 0
0 0
0 0
0 0
0 0
0 0
0 0
0 0
0 0
0 0
0 0
0 0
0 0
0 0
0 0
0 0
0 0
0 0
0 0
0 0
0 0
0 0
0 0
0 0
0 0
0 0
0 0
0 0
0 0
0 0
0 0
0 0
0 0
0 0
0 0
0 0
0 0
0 0
0 0
0 0
0 0
0 0
0 0
0 0
0 0
0 0
0 0
0 0
0 0
0 0
0 0
0 0
0 0
0 0
0 0
0 0
0 0
0 0
0 0
0 0
0 0
0 0
0 0
0 0
0 0
0 0
0 0
0 0
0 0
0 0
0 0
0 0
0 0
0 0
0 0
0 0
0 0
0 0
0 0
0 0
0 0
0 0
0 0
0 0
0 0
0 0
0 0
0 0
0 0
0 0
0 0
0 0
0 0
0 0
0 0
0 0
0 0
0 0
0 0
0 0
0 0
0 0
0 0
0 0
0 0
0 0
0 0
0 0
0 0
0 0
0 0
0 0
0 0
0 0
0 0
0 0
0 0
0 0
0 0
0 0
0 0
0 0
0 0
0 0
0 0
0 0
0 0
0 0
0 0
0 0
0 0
0 0
0 0
0 0
0 0
0 0
0 0
0 0
0 0
0 0
0 0
0 0
0 0
0 0
0 0
0 0
0 0
0 0
0 0
0 0
0 0
0 0
0 0
0 0
0 0
0 0
0 0
0 0
0 0
0 0
0 0
0 0
0 0
0 0
0 0
0 0
0 0
0 0
0 0
0 0
0 0
0 0
0 0
0 0
0 0
0 0
0 0
0 0
0 0
0 0
0 0
0 0
0 0
0 0
0 0
0 0
0 0
0 0
0 0
0 0
0 0
0 0
0 0
0 0
0 0
0 0
0 0
0 0
0 0
0 0
0 0
0 0
0 0
0 0
0 0
0 0
0 0
0 0
0 0
0 0
0 0
0 0
0 0
0 0
0 0
0 0
0 0
0 0
0 0
0 0
0 0
0 0
0 0
0 0
0 0
0 0
0 0
0 0
0 0
0 0
0 0
0 0
0 0
0 0
0 0
0 0
0 0
0 0
0 0
0 0
0 0
0 0
0 0
0 0
0 0
0 0
0 0
0 0
0 0
0 0
0 0
0 0
0 0
0 0
0 0
0 0
0 0
0 0
0 0
0 0
0 0
0 0
0 0
0 0
0 0
0 0
0 0
0 0
0 0
0 0
0 0
0 0
0 0
0 0
0 0
0 0
0 0
0 0
0 0
0 0
0 0
0 0
0 0
0 0
0 0
0 0
0 0
0 0
0 0
0 0
0 0
0 0
0 0
0 0
0 0
0 0
0 0
0 0
0 0
0 0
0 0
0 0
0 0
0 0
0 0
0 0
0 0
0 0
0 0
0 0
0 0
0 0
0 0
0 0
0 0
0 0
0 0
0 0
0 0
0 0
0 0
0 0
0 0
0 0
0 0
0 0
0 0
0 0
0 0
0 0
0 0
0 0
0 0
0 0
0 0
0 0
0 0
0 0
0 0
0 0
0 0
0 0
0 0
0 0
0 0
0 0
0 0
0 0
0 0
0 0
0 0
0 0
0 0
0 0
0 0
0 0
0 0
0 0
0 0
0 0
0 0
0 0
0 0
0 0
0 0
0 0
0 0
0 0
0 0
0 0
0 0
0 0
0 0
0 0
0 0
0 0
0 0
0 0
0 0
0 0
0 0
0 0
0 0
0 0
0 0
0 0
0 0
0 0
0 0
0 0
0 0
0 0
0 0
0 0
0 0
0 0
0 0
0 0
0 0
0 0
0 0
0 0
0 0
0 0
0 0
0 0
0 0
0 0
0 0
0 0
0 0
0 0
0 0
0 0
0 0
0 0
0 0
0 0
0 0
0 0
0 0
0 0
0 0
0 0
0 0
0 0
0 0
0 0
0 0
0 0
0 0
0 0
0 0
0 0
0 0
0 0
0 0
0 0
0 0
0 0
0 0
0 0
0 0
0 0
0 0
0 0
0 0
0 0
0 0
0 0
0 0
0 0
0 0
0 0
0 0
0 0
0 0
0 0
0 0
0 0
0 0
0 0
0 0
0 0
0 0
0 0
0 0
0 0
0 0
0 0
0 0
0 0
0 0
0 0
0 0
0 0
0 0
0 0
0 0
0 0
0 0
0 0
0 0
0 0
0 0
0 0
0 0
0 0
0 0
0 0
0 0
0 0
0 0
0 0
0 0
0 0
0 0
0 0
0 0
0 0
0 0
0 0
0 0
0 0
0 0
0 0
0 0
0 0
0 0
0 0
0 0
0 0
0 0
0 0
0 0
0 0
0 0
0 0
0 0
0 0
0 0
0 0
0 0
0 0
0 0
0 0
0 0
0 0
0 0
0 0
0 0
0 0
0 0
0 0
0 0
0 0
0 0
0 0
0 0
0 0
0 0
0 0
0 0
0 0
0 0
0 0
0 0
0 0
0 0
0 0
0 0
0 0
0 0
0 0
0 0
0 0
0 0
0 0
0 0
0 0
0 0
0 0
0 0
0 0
0 0
0 0
0 0
0 0
0 0
0 0
0 0
0 0
0 0
0 0
0 0
0 0
0 0
0 0
0 0
0 0
0 0
0 0
0 0
0 0
0 0
0 0
0 0
0 0
0 0
0 0
0 0
0 0
0 0
0 0
0 0
0 0
0 0
0 0
0 0
0 0
0 0
0 0
0 0
0 0
0 0
0 0
0 0
0 0
0 0
0 0
0 0
0 0
0 0
0 0
0 0
0 0
0 0
0 0
0 0
0 0
0 0
0 0
0 0
0 0
0 0
0 0
0 0
0 0
0 0
0 0
0 0
0 0
0 0
0 0
0 0
0 0
0 0
0 0
0 0
0 0
0 0
0 0
0 0
0 0
0 0
0 0
0 0
0 0
0 0
0 0
0 0
0 0
0 0
0 0
0 0
0 0
0 0
0 0
0 0
0 0
0 0
0 0
0 0
0 0
0 0
0 0
0 0
0 0
0 0
0 0
0 0
0 0
0 0
0 0
0 0
0 0
0 0
0 0
0 0
0 0
0 0
0 0
0 0
0 0
0 0
0 0
0 0
0 0
0 0
0 0
0 0
0 0
0 0
0 0
0 0
0 0
0 0
0 0
0 0
0 0
0 0
0 0
0 0
0 0
0 0
0 0
0 0
0 0
0 0
0 0
0 0
0 0
0 0
0 0
0 0
0 0
0 0
0 0
0 0
0 0
0 0
0 0
0 0
0 0
0 0
0 0
0 0
0 0
0 0
0 0
0 0
0 0
0 0
0 0
0 0
0 0
0 0
0 0
0 0
0 0
0 0
0 0
0 0
0 0
0 0
0 0
0 0
0 0
0 0
0 0
0 0
0 0
0 0
0 0
0 0
0 0
0 0
0 0
0 0
0 0
0 0
0 0
0 0
0 0
0 0
0 0
0 0
0 0
0 0
0 0
0 0
0 0
0 0
0 0
0 0
0 0
0 0
0 0
0 0
0 0
0 0
0 0
0 0
0 0
0 0
0 0
0 0
0 0
0 0
0 0
0 0
0 0
0 0
0 0
0 0
0 0
0 0
0 0
0 0
0 0
0 0
0 0
0 0
0 0
0 0
0 0
0 0
0 0
0 0
0 0
0 0
0 0
0 0
0 0
0 0
0 0
0 0
0 0
0 0
0 0
0 0
0 0
0 0
0 0
0 0
0 0
0 0
0 0
0 0
0 0
0 0
0 0
0 0
0 0
0 0
0 0
0 0
0 0
0 0
0 0
0 0
0 0
0 0
0 0
0 0
0 0
0 0
0 0
0 0
0 0
0 0
0 0
0 0
0 0
0 0
0 0
0 0
0 0
0 0
0 0
0 0
0 0
0 0
0 0
0 0
0 0
0 0
0 0
0 0
0 0
0 0
0 0
0 0
0 0
0 0
0 0
0 0
0 0
0 0
0 0
0 0
0 0
0 0
0 0
0 0
0 0
0 0
0 0
0 0
0 0
0 0
0 0
0 0
0 0
0 0
0 0
0 0
0 0
0 0
0 0
0 0
0 0
0 0
0 0
0 0
0 0
0 0
0 0
0 0
0 0
0 0
0 0
0 0
0 0
0 0
0 0
0 0
0 0
0 0
0 0
0 0
0 0
0 0
0 0
0 0
0 0
0 0
0 0
0 0
0 0
0 0
0 0
0 0
0 0
0 0
0 0
0 0
0 0
0 0
0 0
0 0
0 0
0 0
0 0
0 0
0 0
0 0
0 0
0 0
0 0
0 0
0 0
0 0
0 0
0 0
0 0
0 0
0 0
0 0
0 0
0 0
0 0
0 0
0 0
0 0
0 0
0 0
0 0
0 0
0 0
0 0
0 0
0 0
0 0
0 0
0 0
0 0
0 0
0 0
0 0
0 0
0 0
0 0
0 0
0 0
0 0
0 0
0 0
0 0
0 0
0 0
0 0
0 0
0 0
0 0
0 0
0 0
0 0
0 0
0 0
0 0
0 0
0 0
0 0
0 0
0 0
0 0
0 0
0 0
0 0
0 0
0 0
0 0
0 0
0 0
0 0
0 0
0 0
0 0
0 0
0 0
0 0
0 0
0 0
0 0
0 0
0 0
0 0
0 0
0 0
0 0
0 0
0 0
0 0
0 0
0 0
0 0
0 0
0 0
0 0
0 0
0 0
0 0
0 0
0 0
0 0
0 0
0 0
0 0
0 0
0 0
0 0
0 0
0 0
0 0
0 0
0 0
0 0
0 0
0 0
0 0
0 0
0 0
0 0
0 0
0 0
0 0
0 0
0 0
0 0
0 0
0 0
0 0
0 0
0 0
0 0
0 0
0 0
0 0
0 0
0 0
0 0
0 0
0 0
0 0
0 0
0 0
0 0
0 0
0 0
0 0
0 0
0 0
0 0
0 0
0 0
0 0
0 0
0 0
0 0
0 0
0 0
0 0
0 0
0 0
0 0
0 0
0 0
0 0
0 0
0 0
0 0
0 0
0 0
0 0
0 0
0 0
0 0
0 0
0 0
0 0
0 0
0 0
0 0
0 0
0 0
0 0
0 0
0 0
0 0
0 0
0 0
0 0
0 0
0 0
0 0
0 0
0 0
0 0
0 0
0 0
0 0
0 0
0 0
0 0
0 0
0 0
0 0
0 0
0 0
0 0
0 0
0 0
0 0
0 0
0 0
0 0
0 0
0 0
0 0
0 0
0 0
0 0
0 0
0 0
0 0
0 0
0 0
0 0
0 0
0 0
0 0
0 0
0 0
0 0
0 0
0 0
0 0
0 0
0 0
0 0
0 0
0 0
0 0
0 0
0 0
0 0
0 0
0 0
0 0
0 0
0 0
0 0
0 0
0 0
0 0
0 0
0 0
0 0
0 0
0 0
0 0
0 0
0 0
0 0
0 0
0 0
0 0
0 0
0 0
0 0
0 0
0 0
0 0
0 0
0 0
0 0
0 0
0 0
0 0
0 0
0 0
0 0
0 0
0 0
0 0
0 0
0 0
0 0
0 0
0 0
0 0
0 0
0 0
0 0
0 0
0 0
0 0
0 0
0 0
0 0
0 0
0 0
0 0
0 0
0 0
0 0
0 0
0 0
0 0
0 0
0 0
0 0
0 0
0 0
0 0
0 0
0 0
0 0
0 0
0 0
0 0
0 0
0 0
0 0
0 0
0 0
0 0
0 0
0 0
0 0
0 0
0 0
0 0
0 0
0 0
0 0
0 0
0 0
0 0
0 0
0 0
0 0
0 0
0 0
0 0
0 0
0 0
0 0
0 0
0 0
0 0
0 0
0 0
0 0
0 0
0 0
0 0
0 0
0 0
0 0
0 0
0 0
0 0
0 0
0 0
0 0
0 0
0 0
0 0
0 0
0 0
0 0
0 0
0 0
0 0
0 0
0 0
0 0
0 0
0 0
0 0
0 0
0 0
0 0
0 0
0 0
0 0
0 0
0 0
0 0
0 0
0 0
0 0
0 0
0 0
0 0
0 0
0 0
0 0
0 0
0 0
0 0
0 0
0 0
0 0
0 0
0 0
0 0
0 0
0 0
0 0
0 0
0 0
0 0
0 0
0 0
0 0
0 0
0 0
0 0
0 0
0 0
0 0
0 0
0 0
0 0
0 0
0 0
0 0
0 0
0 0
0 0
0 0
0 0
0 0
0 0
0 0
0 0
0 0
0 0
0 0
0 0
0 0
0 0
0 0
0 0
0 0
0 0
0 0
0 0
0 0
0 0
0 0
0 0
0 0
0 0
0 0
0 0
0 0
0 0
0 0
0 0
0 0
0 0
0 0
0 0
0 0
0 0
0 0
0 0
0 0
0 0
0 0
0 0
0 0
0 0
0 0
0 0
0 0
0 0
0 0
0 0
0 0
0 0
0 0
0 0
0 0
0 0
0 0
0 0
0 0
0 0
0 0
0 0
0 0
0 0
0 0
0 0
0 0
0 0
0 0
0 0
0 0
0 0
0 0
0 0
0 0
0 0
0 0
0 0
0 0
0 0
0 0
0 0
0 0
0 0
0 0
0 0
0 0
0 0
0 0
0 0
0 0
0 0
0 0
0 0
0 0
0 0
0 0
0 0
0 0
0 0
0 0
0 0
0 0
0 0
0 0
0 0
0 0
0 0
0 0
0 0
0 0
0 0
0 0
0 0
0 0
0 0
0 0
0 0
0 0
0 0
0 0
0 0
0 0
0 0
0 0
0 0
0 0
0 0
0 0
0 0
0 0
0 0
0 0
0 0
0 0
0 0
0 0
0 0
0 0
0 0
0 0
0 0
0 0
0 0
0 0
0 0
0 0
0 0
0 0
0 0
0 0
0 0
0 0
0 0
0 0
0 0
0 0
0 0
0 0
0 0
0 0
0 0
0 0
0 0
0 0
0 0
0 0
0 0
0 0
0 0
0 0
0 0
0 0
0 0
0 0
0 0
0 0
0 0
0 0
0 0
0 0
0 0
0 0
0 0
0 0
0 0
0 0
0 0
0 0
0 0
0 0
0 0
0 0
0 0
0 0
0 0
0 0
0 0
0 0
0 0
0 0
0 0
0 0
0 0
0 0
0 0
0 0
0 0
0 0
0 0
0 0
0 0
0 0
0 0
0 0
0 0
0 0
0 0
0 0
0 0
0 0
0 0
0 0
0 0
0 0
0 0
0 0
0 0
0 0
0 0
0 0
0 0
0 0
0 0
0 0
0 0
0 0
0 0
0 0
0 0
0 0
0 0
0 0
0 0
0 0
0 0
0 0
0 0
0 0
0 0
0 0
0 0
0 0
0 0
0 0
0 0
0 0
0 0
0 0
0 0
0 0
0 0
0 0
0 0
0 0
0 0
0 0
0 0
0 0
0 0
0 0
0 0
0 0
0 0
0 0
0 0
0 0
0 0
0 0
0 0
0 0
0 0
0 0
0 0
0 0
0 0
0 0
0 0
0 0
0 0
0 0
0 0
0 0
0 0
0 0
0 0
0 0
0 0
0 0
0 0
0 0
0 0
0 0
0 0
0 0
0 0
0 0
0 0
0 0
0 0
0 0
0 0
0 0
0 0
0 0
0 0
0 0
0 0
0 0
0 0
0 0
0 0
0 0
0 0
0 0
0 0
0 0
0 0
0 0
0 0
0 0
0 0
0 0
0 0
0 0
0 0
0 0
0 0
0 0
0 0
0 0
0 0
0 0
0 0
0 0
0 0
0 0
0 0
0 0
0 0
0 0
0 0
0 0
0 0
0 0
0 0
0 0
0 0
0 0
0 0
0 0
0 0
0 0
0 0
0 0
0 0
0 0
0 0
0 0
0 0
0 0
0 0
0 0
0 0
0 0
0 0
0 0
0 0
0 0
0 0
0 0
0 0
0 0
0 0
0 0
0 0
0 0
0 0
0 0
0 0
0 0
0 0
0 0
0 0
0 0
0 0
0 0
0 0
0 0
0 0
0 0
0 0
0 0
0 0
0 0
0 0
0 0
0 0
0 0
0 0
0 0
0 0
0 0
0 0
0 0
0 0
0 0
0 0
0 0
0 0
0 0
0 0
0 0
0 0
0 0
0 0
0 0
0 0
0 0
0 0
0 0
0 0
0 0
0 0
0 0
0 0
0 0
0 0
0 0
0 0
0 0
0 0
0 0
0 0
0 0
0 0
0 0
0 0
0 0
0 0
0 0
0 0
0 0
0 0
0 0
0 0
0 0
0 0
0 0
0 0
0 0
0 0
0 0
0 0
0 0
0 0
0 0
0 0
0 0
0 0
0 0
0 0
0 0
0 0
0 0
0 0
0 0
0 0
0 0
0 0
0 0
0 0
0 0
0 0
0 0
0 0
0 0
0 0
0 0
0 0
0 0
0 0
0 0
0 0
0 0
0 0
0 0
0 0
0 0
0 0
0 0
0 0
0 0
0 0
0 0
0 0
0 0
0 0
0 0
0 0
0 0
0 0
0 0
0 0
0 0
0 0
0 0
0 0
0 0
0 0
0 0
0 0
0 0
0 0
0 0
0 0
0 0
0 0
0 0
0 0
0 0
0 0
0 0
0 0
0 0
0 0
0 0
0 0
0 0
0 0
0 0
0 0
0 0
0 0
0 0
0 0
0 0
0 0
0 0
0 0
0 0
0 0
0 0
0 0
0 0
0 0
0 0
0 0
0 0
0 0
0 0
0 0
0 0
0 0
0 0
0 0
0 0
0 0
0 0
0 0
0 0
0 0
0 0
0 0
0 0
0 0
0 0
0 0
0 0
0 0
0 0
0 0
0 0
0 0
0 0
0 0
0 0
0 0
0 0
0 0
0 0
0 0
0 0
0 0
0 0
0 0
0 0
0 0
0 0
0 0
0 0
0 0
0 0
0 0
0 0
0 0
0 0
0 0
0 0
0 0
0 0
0 0
0 0
0 0
0 0
0 0
0 0
0 0
0 0
0 0
0 0
0 0
0 0
0 0
0 0
0 0
0 0
0 0
0 0
0 0
0 0
0 0
0 0
0 0
0 0
0 0
0 0
0 0
0 0
0 0
0 0
0 0
0 0
0 0
0 0
0 0
0 0
0 0
0 0
0 0
0 0
0 0
0 0
0 0
0 0
0 0
0 0
0 0
0 0
0 0
0 0
0 0
0 0
0 0
0 0
0 0
0 0
0 0
0 0
0 0
0 0
0 0
0 0
0 0
0 0
0 0
0 0
0 0
0 0
0 0
0 0
0 0
0 0
0 0
0 0
0 0
0 0
0 0
0 0
0 0
0 0
0 0
0 0
0 0
0 0
0 0
0 0
0 0
0 0
0 0
0 0
0 0
0 0
0 0
0 0
0 0
0 0
0 0
0 0
0 0
0 0
0 0
0 0
0 0
0 0
0 0
0 0
0 0
0 0
0 0
0 0
0 0
0 0
0 0
0 0
0 0
0 0
0 0
0 0
0 0
0 0
0 0
0 0
0 0
0 0
0 0
0 0
0 0
0 0
0 0
0 0
0 0
0 0
0 0
0 0
0 0
0 0
0 0
0 0
0 0
0 0
0 0
0 0
0 0
0 0
0 0
0 0
0 0
0 0
0 0
0 0
0 0
0 0
0 0
0 0
0 0
0 0
0 0
0 0
0 0
0 0
0 0
0 0
0 0
0 0
0 0
0 0
0 0
0 0
0 0
0 0
0 0
0 0
0 0
0 0
0 0
0 0
0 0
0 0
0 0
0 0
0 0
0 0
0 0
0 0
0 0
0 0
0 0
0 0
0 0
0 0
0 0
0 0
0 0
0 0
0 0
0 0
0 0
0 0
0 0
0 0
0 0
0 0
0 0
0 0
0 0
0 0
0 0
0 0
0 0
0 0
0 0
0 0
0 0
0 0
0 0
0 0
0 0
0 0
0 0
0 0
0 0
0 0
0 0
0 0
0 0
0 0
0 0
0 0
0 0
0 0
0 0
0 0
0 0
0 0
0 0
0 0
0 0
0 0
0 0
0 0
0 0
0 0
0 0
0 0
0 0
0 0
0 0
0 0
0 0
0 0
0 0
0 0
0 0
0 0
0 0
0 0
0 0
0 0
0 0
0 0
0 0
0 0
0 0
0 0
0 0
0 0
0 0
0 0
0 0
0 0
0 0
0 0
0 0
0 0
0 0
0 0
0 0
0 0
0 0
0 0
0 0
0 0
0 0
0 0
0 0
0 0
0 0
0 0
0 0
0 0
0 0
0 0
0 0
0 0
0 0
0 0
0 0
0 0
0 0
0 0
0 0
0 0
0 0
0 0
0 0
0 0
0 0
0 0
0 0
0 0
0 0
0 0
0 0
0 0
0 0
0 0
0 0
0 0
0 0
0 0
0 0
0 0
0 0
0 0
0 0
0 0
0 0
0 0
0 0
0 0
0 0
0 0
0 0
0 0
0 0
0 0
0 0
0 0
0 0
0 0
0 0
0 0
0 0
0 0
0 0
0 0
0 0
0 0
0 0
0 0
0 0
0 0
0 0
0 0
0 0
0 0
0 0
0 0
0 0
0 0
0 0
0 0
0 0
0 0
0 0
0 0
0 0
0 0
0 0
0 0
0 0
0 0
0 0
0 0
0 0
0 0
0 0
0 0
0 0
0 0
0 0
0 0
0 0
0 0
0 0
0 0
0 0
0 0
0 0
0 0
0 0
0 0
0 0
0 0
0 0
0 0
0 0
0 0
0 0
0 0
0 0
0 0
0 0
0 0
0 0
0 0
0 0
0 0
0 0
0 0
0 0
0 0
0 0
0 0
0 0
0 0
0 0
0 0
0 0
0 0
0 0
0 0
0 0
0 0
0 0
0 0
0 0
0 0
0 0
0 0
0 0
0 0
0 0
0 0
0 0
0 0
0 0
0 0
0 0
0 0
0 0
0 0
0 0
0 0
0 0
0 0
0 0
0 0
0 0
0 0
0 0
0 0
0 0
0 0
0 0
0 0
0 0
0 0
0 0
0 0
0 0
0 0
0 0
0 0
0 0
0 0
0 0
0 0
0 0
0 0
0 0
0 0
0 0
0 0
0 0
0 0
0 0
0 0
0 0
0 0
0 0
0 0
0 0
0 0
0 0
0 0
0 0
0 0
0 0
0 0
0 0
0 0
0 0
0 0
0 0
0 0
0 0
0 0
0 0
0 0
0 0
0 0
0 0
0 0
0 0
0 0
0 0
0 0
0 0
0 0
0 0
0 0
0 0
0 0
0 0
0 0
0 0
0 0
0 0
0 0
0 0
0 0
0 0
0 0
0 0
0 0
0 0
0 0
0 0
0 0
0 0
0 0
0 0
0 0
0 0
0 0
0 0
0 0
0 0
0 0
0 0
0 0
0 0
0 0
0 0
0 0
0 0
0 0
0 0
0 0
0 0
0 0
0 0
0 0
0 0
0 0
0 0
0 0
0 0
0 0
0 0
0 0
0 0
0 0
0 0
0 0
0 0
0 0
0 0
0 0
0 0
0 0
0 0
0 0
0 0
0 0
0 0
0 0
0 0
0 0
0 0
0 0
0 0
0 0
0 0
0 0
0 0
0 0
0 0
0 0
0 0
0 0
0 0
0 0
0 0
0 0
0 0
0 0
0 0
0 0
0 0
0 0
0 0
0 0
0 0
0 0
0 0
0 0
0 0
0 0
0 0
0 0
0 0
0 0
0 0
0 0
0 0
0 0
0 0
0 0
0 0
0 0
0 0
0 0
0 0
0 0
0 0
0 0
0 0
0 0
0 0
0 0
0 0
0 0
0 0
0 0
0 0
0 0
0 0
0 0
0 0
0 0
0 0
0 0
0 0
0 0
0 0
0 0
0 0
0 0
0 0
0 0
0 0
0 0
0 0
0 0
0 0
0 0
0 0
0 0
0 0
0 0
0 0
0 0
0 0
0 0
0 0
0 0
0 0
0 0
0 0
0 0
0 0
0 0
0 0
0 0
0 0
0 0
0 0
0 0
0 0
0 0
0 0
0 0
0 0
0 0
0 0
0 0
0 0
0 0
0 0
0 0
0 0
0 0
0 0
0 0
0 0
0 0
0 0
0 0
0 0
0 0
0 0
0 0
0 0
0 0
0 0
0 0
0 0
0 0
0 0
0 0
0 0
0 0
0 0
0 0
0 0
0 0
0 0
0 0
0 0
0 0
0 0
0 0
0 0
0 0
0 0
0 0
0 0
0 0
0 0
0 0
0 0
0 0
0 0
0 0
0 0
0 0
0 0
0 0
0 0
0 0
0 0
0 0
0 0
0 0
0 0
0 0
0 0
0 0
0 0
0 0
0 0
0 0
0 0
0 0
0 0
0 0
0 0
0 0
0 0
0 0
0 0
0 0
0 0
0 0
0 0
0 0
0 0
0 0
0 0
0 0
0 0
0 0
0 0
0 0
0 0
0 0
0 0
0 0
0 0
0 0
0 0
0 0
0 0
0 0
0 0
0 0
0 0
0 0
0 0
0 0
0 0
0 0
0 0
0 0
0 0
0 0
0 0
0 0
0 0
0 0
0 0
0 0
0 0
0 0
0 0
0 0
0 0
0 0
0 0
0 0
0 0
0 0
0 0
0 0
0 0
0 0
0 0
0 0
0 0
0 0
0 0
0 0
0 0
0 0
0 0
0 0
0 0
0 0
0 0
0 0
0 0
0 0
0 0
0 0
0 0
0 0
0 0
0 0
0 0
0 0
0 0
0 0
0 0
0 0
0 0
0 0
0 0
0 0
0 0
0 0
0 0
0 0
0 0
0 0
0 0
0 0
0 0
0 0
0 0
0 0
0 0
0 0
0 0
0 0
0 0
0 0
0 0
0 0
0 0
0 0
0 0
0 0
0 0
0 0
0 0
0 0
0 0
0 0
0 0
0 0
0 0
0 0
0 0
0 0
0 0
0 0
0 0
0 0
0 0
0 0
0 0
0 0
0 0
0 0
0 0
0 0
0 0
0 0
0 0
0 0
0 0
0 0
0 0
0 0
0 0
0 0
0 0
0 0
0 0
0 0
0 0
0 0
0 0
0 0
0 0
0 0
0 0
0 0
0 0
0 0
0 0
0 0
0 0
0 0
0 0
0 0
0 0
0 0
0 0
0 0
0 0
0 0
0 0
0 0
0 0
0 0
0 0
0 0
0 0
0 0
0 0
0 0
0 0
0 0
0 0
0 0
0 0
0 0
0 0
0 0
0 0
0 0
0 0
0 0
0 0
0 0
0 0
0 0
0 0
0 0
0 0
0 0
0 0
0 0
0 0
0 0
0 0
0 0
0 0
0 0
0 0
0 0
0 0
0 0
0 0
0 0
0 0
0 0
0 0
0 0
0 0
0 0
0 0
0 0
0 0
0 0
0 0
0 0
0 0
0 0
0 0
0 0
0 0
0 0
0 0
0 0
0 0
0 0
0 0
0 0
0 0
0 0
0 0
0 0
0 0
0 0
0 0
0 0
0 0
0 0
0 0
0 0
0 0
0 0
0 0
0 0
0 0
0 0
0 0
0 0
0 0
0 0
0 0
0 0
0 0
0 0
0 0
0 0
0 0
0 0
0 0
0 0
0 0
0 0
0 0
0 0
0 0
0 0
0 0
0 0
0 0
0 0
0 0
0 0
0 0
0 0
0 0
0 0
0 0
0 0
0 0
0 0
0 0
0 0
0 0
0 0
0 0
0 0
0 0
0 0
0 0
0 0
0 0
0 0
0 0
0 0
0 0
0 0
0 0
0 0
0 0
0 0
0 0
0 0
0 0
0 0
0 0
0 0
0 0
0 0
0 0
0 0
0 0
0 0
0 0
0 0
0 0
0 0
0 0
0 0
0 0
0 0
0 0
0 0
0 0
0 0
0 0
0 0
0 0
0 0
0 0
0 0
0 0
0 0
0 0
0 0
0 0
0 0
0 0
0 0
0 0
0 0
0 0
0 0
0 0
0 0
0 0
0 0
0 0
0 0
0 0
0 0
0 0
0 0
0 0
0 0
0 0
0 0
0 0
0 0
0 0
0 0
0 0
0 0
0 0
0 0
0 0
0 0
0 0
0 0
0 0
0 0
0 0
0 0
0 0
0 0
0 0
0 0
0 0
0 0
0 0
0 0
0 0
0 0
0 0
0 0
0 0
0 0
0 0
0 0
0 0
0 0
0 0
0 0
0 0
0 0
0 0
0 0
0 0
0 0
0 0
0 0
0 0
0 0
0 0
0 0
0 0
0 0
0 0
0 0
0 0
0 0
0 0
0 0
0 0
0 0
0 0
0 0
0 0
0 0
0 0
0 0
0 0
0 0
0 0
0 0
0 0
0 0
0 0
0 0
0 0
0 0
0 0
0 0
0 0
0 0
0 0
0 0
0 0
0 0
0 0
0 0
0 0
0 0
0 0
0 0
0 0
0 0
0 0
0 0
0 0
0 0
0 0
0 0
0 0
0 0
0 0
0 0
0 0
0 0
0 0
0 0
0 0
0 0
0 0
0 0
0 0
0 0
0 0
0 0
0 0
0 0
0 0
0 0
0 0
0 0
0 0
0 0
0 0
0 0
0 0
0 0
0 0
0 0
0 0
0 0
0 0
0 0
0 0
0 0
0 0
0 0
0 0
0 0
0 0
0 0
0 0
0 0
0 0
0 0
0 0
0 0
0 0
0 0
0 0
0 0
0 0
0 0
0 0
0 0
0 0
0 0
0 0
0 0
0 0
0 0
0 0
0 0
0 0
0 0
0 0
0 0
0 0
0 0
0 0
0 0
0 0
0 0
0 0
0 0
0 0
0 0
0 0
0 0
0 0
0 0
0 0
0 0
0 0
0 0
0 0
0 0
0 0
0 0
0 0
0 0
0 0
0 0
0 0
0 0
0 0
0 0
0 0
0 0
0 0
0 0
0 0
0 0
0 0
0 0
0 0
0 0
0 0
0 0
0 0
0 0
0 0
0 0
0 0
0 0
0 0
0 0
0 0
0 0
0 0
0 0
0 0
0 0
0 0
0 0
0 0
0 0
0 0
0 0
0 0
0 0
0 0
0 0
0 0
0 0
0 0
0 0
0 0
0 0
0 0
0 0
0 0
0 0
0 0
0 0
0 0
0 0
0 0
0 0
0 0
0 0
0 0
0 0
0 0
0 0
0 0
0 0
0 0
0 0
0 0
0 0
0 0
0 0
0 0
0 0
0 0
0 0
0 0
0 0
0 0
0 0
0 0
0 0
0 0
0 0
0 0
0 0
0 0
0 0
0 0
0 0
0 0
0 0
0 0
0 0
0 0
0 0
0 0
0 0
0 0
0 0
0 0
0 0
0 0
0 0
0 0
0 0
0 0
0 0
0 0
0 0
0 0
0 0
0 0
0 0
0 0
0 0
0 0
0 0
0 0
0 0
0 0
0 0
0 0
0 0
0 0
0 0
0 0
0 0
0 0
0 0
0 0
0 0
0 0
0 0
0 0
0 0
0 0
0 0
0 0
0 0
0 0
0 0
0 0
0 0
0 0
0 0
0 0
0 0
0 0
0 0
0 0
0 0
0 0
0 0
0 0
0 0
0 0
0 0
0 0
0 0
0 0
0 0
0 0
0 0
0 0
0 0
0 0
0 0
0 0
0 0
0 0
0 0
0 0
0 0
0 0
0 0
0 0
0 0
0 0
0 0
0 0
0 0
0 0
0 0
0 0
0 0
0 0
0 0
0 0
0 0
0 0
0 0
0 0
0 0
0 0
0 0
0 0
0 0
0 0
0 0
0 0
0 0
0 0
0 0
0 0
0 0
0 0
0 0
0 0
0 0
0 0
0 0
0 0
0 0
0 0
0 0
0 0
0 0
0 0
0 0
0 0
0 0
0 0
0 0
0 0
0 0
0 0
0 0
0 0
0 0
0 0
0 0
0 0
0 0
0 0
0 0
0 0
0 0
0 0
0 0
0 0
0 0
0 0
0 0
0 0
0 0
0 0
0 0
0 0
0 0
0 0
0 0
0 0
0 0
0 0
0 0
0 0
0 0
0 0
0 0
0 0
0 0
0 0
0 0
0 0
0 0
0 0
0 0
0 0
0 0
0 0
0 0
0 0
0 0
0 0
0 0
0 0
0 0
0 0
0 0
0 0
0 0
0 0
0 0
0 0
0 0
0 0
0 0
0 0
0 0
0 0
0 0
0 0
0 0
0 0
0 0
0 0
0 0
0 0
0 0
0 0
0 0
0 0
0 0
0 0
0 0
0 0
0 0
0 0
0 0
0 0
0 0
0 0
0 0
0 0
0 0
0 0
0 0
0 0
0 0
0 0
0 0
0 0
0 0
0 0
0 0
0 0
0 0
0 0
0 0
0 0
0 0
0 0
0 0
0 0
0 0
0 0
0 0
0 0
0 0
0 0
0 0
0 0
0 0
0 0
0 0
0 0
0 0
0 0
0 0
0 0
0 0
0 0
0 0
0 0
0 0
0 0
0 0
0 0
0 0
0 0
0 0
0 0
0 0
0 0
0 0
0 0
0 0
0 0
0 0
0 0
0 0
0 0
0 0
0 0
0 0
0 0
0 0
0 0
0 0
0 0
0 0
0 0
0 0
0 0
0 0
0 0
0 0
0 0
0 0
0 0
0 0
0 0
0 0
0 0
0 0
0 0
0 0
0 0
0 0
0 0
0 0
0 0
0 0
0 0
0 0
0 0
0 0
0 0
0 0
0 0
0 0
0 0
0 0
0 0
0 0
0 0
0 0
0 0
0 0
0 0
0 0
0 0
0 0
0 0
0 0
0 0
0 0
0 0
0 0
0 0
0 0
0 0
0 0
0 0
0 0
0 0
0 0
0 0
0 0
0 0
0 0
0 0
0 0
0 0
0 0
0 0
0 0
0 0
0 0
0 0
0 0
0 0
0 0
0 0
0 0
0 0
0 0
0 0
0 0
0 0
0 0
0 0
0 0
0 0
0 0
0 0
0 0
0 0
0 0
0 0
0 0
0 0
0 0
0 0
0 0
0 0
0 0
0 0
0 0
0 0
0 0
0 0
0 0
0 0
0 0
0 0
0 0
0 0
0 0
0 0
0 0
0 0
0 0
0 0
0 0
0 0
0 0
0 0
0 0
0 0
0 0
0 0
0 0
0 0
0 0
0 0
0 0
0 0
0 0
0 0
0 0
0 0
0 0
0 0
0 0
0 0
0 0
0 0
0 0
0 0
0 0
0 0
0 0
0 0
0 0
0 0
0 0
0 0
0 0
0 0
0 0
0 0
0 0
0 0
0 0
0 0
0 0
0 0
0 0
0 0
0 0
0 0
0 0
0 0
0 0
0 0
0 0
0 0
0 0
0 0
0 0
0 0
0 0
0 0
0 0
0 0
0 0
0 0
0 0
0 0
0 0
0 0
0 0
0 0
0 0
0 0
0 0
0 0
0 0
0 0
0 0
0 0
0 0
0 0
0 0
0 0
0 0
0 0
0 0
0 0
0 0
0 0
0 0
0 0
0 0
0 0
0 0
0 0
0 0
0 0
0 0
0 0
0 0
0 0
0 0
0 0
0 0
0 0
0 0
0 0
0 0
0 0
0 0
0 0
0 0
0 0
0 0
0 0
0 0
0 0
0 0
0 0
0 0
0 0
0 0
0 0
0 0
0 0
0 0
0 0
0 0
0 0
0 0
0 0
0 0
0 0
0 0
0 0
0 0
0 0
0 0
0 0
0 0
0 0
0 0
0 0
0 0
0 0
0 0
0 0
0 0
0 0
0 0
0 0
0 0
0 0
0 0
0 0
0 0
0 0
0 0
0 0
0 0
0 0
0 0
0 0
0 0
0 0
0 0
0 0
0 0
0 0
0 0
0 0
0 0
0 0
0 0
0 0
0 0
0 0
0 0
0 0
0 0
0 0
0 0
0 0
0 0
0 0
0 0
0 0
0 0
0 0
0 0
0 0
0 0
0 0
0 0
0 0
0 0
0 0
0 0
0 0
0 0
0 0
0 0
0 0
0 0
0 0
0 0
0 0
0 0
0 0
0 0
0 0
0 0
0 0
0 0
0 0
0 0
0 0
0 0
0 0
0 0
0 0
0 0
0 0
0 0
0 0
0 0
0 0
0 0
0 0
0 0
0 0
0 0
0 0
0 0
0 0
0 0
0 0
0 0
0 0
0 0
0 0
0 0
0 0
0 0
0 0
0 0
0 0
0 0
0 0
0 0
0 0
0 0
0 0
0 0
0 0
0 0
0 0
0 0
0 0
0 0
0 0
0 0
0 0
0 0
0 0
0 0
0 0
0 0
0 0
0 0
0 0
0 0
0 0
0 0
0 0
0 0
0 0
0 0
0 0
0 0
0 0
0 0
0 0
0 0
0 0
0 0
0 0
0 0
0 0
0 0
0 0
0 0
0 0
0 0
0 0
0 0
0 0
0 0
0 0
0 0
0 0
0 0
0 0
0 0
0 0
0 0
0 0
0 0
0 0
0 0
0 0
0 0
0 0
0 0
0 0
0 0
0 0
0 0
0 0
0 0
0 0
0 0
0 0
0 0
0 0
0 0
0 0
0 0
0 0
0 0
0 0
0 0
0 0
0 0
0 0
0 0
0 0
0 0
0 0
0 0
0 0
0 0
0 0
0 0
0 0
0 0
0 0
0 0
0 0
0 0
0 0
0 0
0 0
0 0
0 0
0 0
0 0
0 0
0 0
0 0
0 0
0 0
0 0
0 0
0 0
0 0
0 0
0 0
0 0
0 0
0 0
0 0
0 0
0 0
0 0
0 0
0 0
0 0
0 0
0 0
0 0
0 0
0 0
0 0
0 0
0 0
0 0
0 0
0 0
0 0
0 0
0 0
0 0
0 0
0 0
0 0
0 0
0 0
0 0
0 0
0 0
0 0
0 0
0 0
0 0
0 0
0 0
0 0
0 0
0 0
0 0
0 0
0 0
0 0
0 0
0 0
0 0
0 0
0 0
0 0
0 0
0 0
0 0
0 0
0 0
0 0
0 0
0 0
0 0
0 0
0 0
0 0
0 0
0 0
0 0
0 0
0 0
0 0
0 0
0 0
0 0
0 0
0 0
0 0
0 0
0 0
0 0
0 0
0 0
0 0
0 0
0 0
0 0
0 0
0 0
0 0
0 0
0 0
0 0
0 0
0 0
0 0
0 0
0 0
0 0
0 0
0 0
0 0
0 0
0 0
0 0
0 0
0 0
0 0
0 0
0 0
0 0
0 0
0 0
0 0
0 0
0 0
0 0
0 0
0 0
0 0
0 0
0 0
0 0
0 0
0 0
0 0
0 0
0 0
0 0
0 0
0 0
0 0
0 0
0 0
0 0
0 0
0 0
0 0
0 0
0 0
0 0
0 0
0 0
0 0
0 0
0 0
0 0
0 0
0 0
0 0
0 0
0 0
0 0
0 0
0 0
0 0
0 0
0 0
0 0
0 0
0 0
0 0
0 0
0 0
0 0
0 0
0 0
0 0
0 0
0 0
0 0
0 0
0 0
0 0
0 0
0 0
0 0
0 0
0 0
0 0
0 0
0 0
0 0
0 0
0 0
0 0
0 0
0 0
0 0
0 0
0 0
0 0
0 0
0 0
0 0
0 0
0 0
0 0
0 0
0 0
0 0
0 0
0 0
0 0
0 0
0 0
0 0
0 0
0 0
0 0
0 0
0 0
0 0
0 0
0 0
0 0
0 0
0 0
0 0
0 0
0 0
0 0
0 0
0 0
0 0
0 0
0 0
0 0
0 0
0 0
0 0
0 0
0 0
0 0
0 0
0 0
0 0
0 0
0 0
0 0
0 0
0 0
0 0
0 0
0 0
0 0
0 0
0 0
0 0
0 0
0 0
0 0
0 0
0 0
0 0
0 0
0 0
0 0
0 0
0 0
0 0
0 0
0 0
0 0
0 0
0 0
0 0
0 0
0 0
0 0
0 0
0 0
0 0
0 0
0 0
0 0
0 0
0 0
0 0
0 0
0 0
0 0
0 0
0 0
0 0
0 0
0 0
0 0
0 0
0 0
0 0
0 0
0 0
0 0
0 0
0 0
0 0
0 0
0 0
0 0
0 0
0 0
0 0
0 0
0 0
0 0
0 0
0 0
0 0
0 0
0 0
0 0
0 0
0 0
0 0
0 0
0 0
0 0
0 0
0 0
0 0
0 0
0 0
0 0
0 0
0 0
0 0
0 0
0 0
0 0
0 0
0 0
0 0
0 0
0 0
0 0
0 0
0 0
0 0
0 0
0 0
0 0
0 0
0 0
0 0
0 0
0 0
0 0
0 0
0 0
0 0
0 0
0 0
0 0
0 0
0 0
0 0
0 0
0 0
0 0
0 0
0 0
0 0
0 0
0 0
0 0
0 0
0 0
0 0
0 0
0 0
0 0
0 0
0 0
0 0
0 0
0 0
0 0
0 0
0 0
0 0
0 0
0 0
0 0
0 0
0 0
0 0
0 0
0 0
0 0
0 0
0 0
0 0
0 0
0 0
0 0
0 0
0 0
0 0
0 0
0 0
0 0
0 0
0 0
0 0
0 0
0 0
0 0
0 0
0 0
0 0
0 0
0 0
0 0
0 0
0 0
0 0
0 0
0 0
0 0
0 0
0 0
0 0
0 0
0 0
0 0
0 0
0 0
0 0
0 0
0 0
0 0
0 0
0 0
0 0
0 0
0 0
0 0
0 0
0 0
0 0
0 0
0 0
0 0
0 0
0 0
0 0
0 0
0 0
0 0
0 0
0 0
0 0
0 0
0 0
0 0
0 0
0 0
0 0
0 0
0 0
0 0
0 0
0 0
0 0
0 0
0 0
0 0
0 0
0 0
0 0
0 0
0 0
0 0
0 0
0 0
0 0
0 0
0 0
0 0
0 0
0 0
0 0
0 0
0 0
0 0
0 0
0 0
0 0
0 0
0 0
0 0
0 0
0 0
0 0
0 0
0 0
0 0
0 0
0 0
0 0
0 0
0 0
0 0
0 0
0 0
0 0
0 0
0 0
0 0
0 0
0 0
0 0
0 0
0 0
0 0
0 0
0 0
0 0
0 0
0 0
0 0
0 0
0 0
0 0
0 0
0 0
0 0
0 0
0 0
0 0
0 0
0 0
0 0
0 0
0 0
0 0
0 0
0 0
0 0
0 0
0 0
0 0
0 0
0 0
0 0
0 0
0 0
0 0
0 0
0 0
0 0
0 0
0 0
0 0
0 0
0 0
0 0
0 0
0 0
0 0
0 0
0 0
0 0
0 0
0 0
0 0
0 0
0 0
0 0
0 0
0 0
0 0
0 0
0 0
0 0
0 0
0 0
0 0
0 0
0 0
0 0
0 0
0 0
0 0
0 0
0 0
0 0
0 0
0 0
0 0
0 0
0 0
0 0
0 0
0 0
0 0
0 0
0 0
0 0
0 0
0 0
0 0
0 0
0 0
0 0
0 0
0 0
0 0
0 0
0 0
0 0
0 0
0 0
0 0
0 0
0 0
0 0
0 0
0 0
0 0
0 0
0 0
0 0
0 0
0 0
0 0
0 0
0 0
0 0
0 0
0 0
0 0
0 0
0 0
0 0
0 0
0 0
0 0
0 0
0 0
0 0
0 0
0 0
0 0
0 0
0 0
0 0
0 0
0 0
0 0
0 0
0 0
0 0
0 0
0 0
0 0
0 0
0 0
0 0
0 0
0 0
0 0
0 0
0 0
0 0
0 0
0 0
0 0
0 0
0 0
0 0
0 0
0 0
0 0
0 0
0 0
0 0
0 0
0 0
0 0
0 0
0 0
0 0
0 0
0 0
0 0
0 0
0 0
0 0
0 0
0 0
0 0
0 0
0 0
0 0
0 0
0 0
0 0
0 0
0 0
0 0
0 0
0 0
0 0
0 0
0 0
0 0
0 0
0 0
0 0
0 0
0 0
0 0
0 0
0 0
0 0
0 0
0 0
0 0
0 0
0 0
0 0
0 0
0 0
0 0
0 0
0 0
0 0
0 0
0 0
0 0
0 0
0 0
0 0
0 0
0 0
0 0
0 0
0 0
0 0
0 0
0 0
0 0
0 0
0 0
0 0
0 0
0 0
0 0
0 0
0 0
0 0
0 0
0 0
0 0
0 0
0 0
0 0
0 0
0 0
0 0
0 0
0 0
0 0
0 0
0 0
0 0
0 0
0 0
0 0
0 0
0 0
0 0
0 0
0 0
0 0
0 0
0 0
0 0
0 0
0 0
0 0
0 0
0 0
0 0
0 0
0 0
0 0
0 0
0 0
0 0
0 0
0 0
0 0
0 0
0 0
0 0
0 0
0 0
0 0
0 0
0 0
0 0
0 0
0 0
0 0
0 0
0 0
0 0
0 0
0 0
0 0
0 0
0 0
0 0
0 0
0 0
0 0
0 0
0 0
0 0
0 0
0 0
0 0
0 0
0 0
0 0
0 0
0 0
0 0
0 0
0 0
0 0
0 0
0 0
0 0
0 0
0 0
0 0
0 0
0 0
0 0
0 0
0 0
0 0
0 0
0 0
0 0
0 0
0 0
0 0
0 0
0 0
0 0
0 0
0 0
0 0
0 0
0 0
0 0
0 0
0 0
0 0
0 0
0 0
0 0
0 0
0 0
0 0
0 0
0 0
0 0
0 0
0 0
0 0
0 0
0 0
0 0
0 0
0 0
0 0
0 0
0 0
0 0
0 0
0 0
0 0
0 0
0 0
0 0
0 0
0 0
0 0
0 0
0 0
0 0
0 0
0 0
0 0
0 0
0 0
0 0
0 0
0 0
0 0
0 0
0 0
0 0
0 0
0 0
0 0
0 0
0 0
0 0
0 0
0 0
0 0
0 0
0 0
0 0
0 0
0 0
0 0
0 0
0 0
0 0
0 0
0 0
0 0
0 0
0 0
0 0
0 0
0 0
0 0
0 0
0 0
0 0
0 0
0 0
0 0
0 0
0 0
0 0
0 0
0 0
0 0
0 0
0 0
0 0
0 0
0 0
0 0
0 0
0 0
0 0
0 0
0 0
0 0
0 0
0 0
0 0
0 0
0 0
0 0
0 0
0 0
0 0
0 0
0 0
0 0
0 0
0 0
0 0
0 0
0 0
0 0
0 0
0 0
0 0
0 0
0 0
0 0
0 0
0 0
0 0
0 0
0 0
0 0
0 0
0 0
0 0
0 0
0 0
0 0
0 0
0 0
0 0
0 0
0 0
0 0
0 0
0 0
0 0
0 0
0 0
0 0
0 0
0 0
0 0
0 0
0 0
0 0
0 0
0 0
0 0
0 0
0 0
0 0
0 0
0 0
0 0
0 0
0 0
0 0
0 0
0 0
0 0
0 0
0 0
0 0
0 0
0 0
0 0
0 0
0 0
0 0
0 0
0 0
0 0
0 0
0 0
0 0
0 0
0 0
0 0
0 0
0 0
0 0
0 0
0 0
0 0
0 0
0 0
0 0
0 0
0 0
0 0
0 0
0 0
0 0
0 0
0 0
0 0
0 0
0 0
0 0
0 0
0 0
0 0
0 0
0 0
0 0
0 0
0 0
0 0
0 0
0 0
0 0
0 0
0 0
0 0
0 0
0 0
0 0
0 0
0 0
0 0
0 0
0 0
0 0
0 0
0 0
0 0
0 0
0 0
0 0
0 0
0 0
0 0
0 0
0 0
0 0
0 0
0 0
0 0
0 0
0 0
0 0
0 0
0 0
0 0
0 0
0 0
0 0
0 0
0 0
0 0
0 0
0 0
0 0
0 0
0 0
0 0
0 0
0 0
0 0
0 0
0 0
0 0
0 0
0 0
0 0
0 0
0 0
0 0
0 0
0 0
0 0
0 0
0 0
0 0
0 0
0 0
0 0
0 0
0 0
0 0
0 0
0 0
0 0
0 0
0 0
0 0
0 0
0 0
0 0
0 0
0 0
0 0
0 0
0 0
0 0
0 0
0 0
0 0
0 0
0 0
0 0
0 0
0 0
0 0
0 0
0 0
0 0
0 0
0 0
0 0
0 0
0 0
0 0
0 0
0 0
0 0
0 0
0 0
0 0
0 0
0 0
0 0
0 0
0 0
0 0
0 0
0 0
0 0
0 0
0 0
0 0
0 0
0 0
0 0
0 0
0 0
0 0
0 0
0 0
0 0
0 0
0 0
0 0
0 0
0 0
0 0
0 0
0 0
0 0
0 0
0 0
0 0
0 0
0 0
0 0
0 0
0 0
0 0
0 0
0 0
0 0
0 0
0 0
0 0
0 0
0 0
0 0
0 0
0 0
0 0
0 0
0 0
0 0
0 0
0 0
0 0
0 0
0 0
0 0
0 0
0 0
0 0
0 0
0 0
0 0
0 0
0 0
0 0
0 0
0 0
0 0
0 0
0 0
0 0
0 0
0 0
0 0
0 0
0 0
0 0
0 0
0 0
0 0
0 0
0 0
0 0
0 0
0 0
0 0
0 0
0 0
0 0
0 0
0 0
0 0
0 0
0 0
0 0
0 0
0 0
0 0
0 0
0 0
0 0
0 0
0 0
0 0
0 0
0 0
0 0
0 0
0 0
0 0
0 0
0 0
0 0
0 0
0 0
0 0
0 0
0 0
0 0
0 0
0 0
0 0
0 0
0 0
0 0
0 0
0 0
0 0
0 0
0 0
0 0
0 0
0 0
0 0
0 0
0 0
0 0
0 0
0 0
0 0
0 0
0 0
0 0
0 0
0 0
0 0
0 0
0 0
0 0
0 0
0 0
0 0
0 0
0 0
0 0
0 0
0 0
0 0
0 0
0 0
0 0
0 0
0 0
0 0
0 0
0 0
0 0
0 0
0 0
0 0
0 0
0 0
0 0
0 0
0 0
0 0
0 0
0 0
0 0
0 0
0 0
0 0
0 0
0 0
0 0
0 0
0 0
0 0
0 0
0 0
0 0
0 0
0 0
0 0
0 0
0 0
0 0
0 0
0 0
0 0
0 0
0 0
0 0
0 0
0 0
0 0
0 0
0 0
0 0
0 0
0 0
0 0
0 0
0 0
0 0
0 0
0 0
0 0
0 0
0 0
0 0
0 0
0 0
0 0
0 0
0 0
0 0
0 0
0 0
0 0
0 0
0 0
0 0
0 0
0 0
0 0
0 0
0 0
0 0
0 0
0 0
0 0
0 0
0 0
0 0
0 0
0 0
0 0
0 0
0 0
0 0
0 0
0 0
0 0
0 0
0 0
0 0
0 0
0 0
0 0
0 0
0 0
0 0
0 0
0 0
0 0
0 0
0 0
0 0
0 0
0 0
0 0
0 0
0 0
0 0
0 0
0 0
0 0
0 0
0 0
0 0
0 0
0 0
0 0
0 0
0 0
0 0
0 0
0 0
0 0
0 0
0 0
0 0
0 0
0 0
0 0
0 0
0 0
0 0
0 0
0 0
0 0
0 0
0 0
0 0
0 0
0 0
0 0
0 0
0 0
0 0
0 0
0 0
0 0
0 0
0 0
0 0
0 0
0 0
0 0
0 0
0 0
0 0
0 0
0 0
0 0
0 0
0 0
0 0
0 0
0 0
0 0
0 0
0 0
0 0
0 0
0 0
0 0
0 0
0 0
0 0
0 0
0 0
0 0
0 0
0 0
0 0
0 0
0 0
0 0
0 0
0 0
0 0
0 0
0 0
0 0
0 0
0 0
0 0
0 0
0 0
0 0
0 0
0 0
0 0
0 0
0 0
0 0
0 0
0 0
0 0
0 0
0 0
0 0
0 0
0 0
0 0
0 0
0 0
0 0
0 0
0 0
0 0
0 0
0 0
0 0
0 0
0 0
0 0
0 0
0 0
0 0
0 0
0 0
0 0
0 0
0 0
0 0
0 0
0 0
0 0
0 0
0 0
0 0
0 0
0 0
0 0
0 0
0 0
0 0
0 0
0 0
0 0
0 0
0 0
0 0
0 0
0 0
0 0
0 0
0 0
0 0
0 0
0 0
0 0
0 0
0 0
0 0
0 0
0 0
0 0
0 0
0 0
0 0
0 0
0 0
0 0
0 0
0 0
0 0
0 0
0 0
0 0
0 0
0 0
0 0
0 0
0 0
0 0
0 0
0 0
0 0
0 0
0 0
0 0
0 0
0 0
0 0
0 0
0 0
0 0
0 0
0 0
0 0
0 0
0 0
0 0
0 0
0 0
0 0
0 0
0 0
0 0
0 0
0 0
0 0
0 0
0 0
0 0
0 0
0 0
0 0
0 0
0 0
0 0
0 0
0 0
0 0
0 0
0 0
0 0
0 0
0 0
0 0
0 0
0 0
0 0
0 0
0 0
0 0
0 0
0 0
0 0
0 0
0 0
0 0
0 0
0 0
0 0
0 0
0 0
0 0
0 0
0 0
0 0
0 0
0 0
0 0
0 0
0 0
0 0
0 0
0 0
0 0
0 0
0 0
0 0
0 0
0 0
0 0
0 0
0 0
0 0
0 0
0 0
0 0
0 0
0 0
0 0
0 0
0 0
0 0
0 0
0 0
0 0
0 0
0 0
0 0
0 0
0 0
0 0
0 0
0 0
0 0
0 0
0 0
0 0
0 0
0 0
0 0
0 0
0 0
0 0
0 0
0 0
0 0
0 0
0 0
0 0
0 0
0 0
0 0
0 0
0 0
0 0
0 0
0 0
0 0
0 0
0 0
0 0
0 0
0 0
0 0
0 0
0 0
0 0
0 0
0 0
0 0
0 0
0 0
0 0
0 0
0 0
0 0
0 0
0 0
0 0
0 0
0 0
0 0
0 0
0 0
0 0
0 0
0 0
0 0
0 0
0 0
0 0
0 0
0 0
0 0
0 0
0 0
0 0
0 0
0 0
0 0
0 0
0 0
0 0
0 0
0 0
0 0
0 0
0 0
0 0
0 0
0 0
0 0
0 0
0 0
0 0
0 0
0 0
0 0
0 0
0 0
0 0
0 0
0 0
0 0
0 0
0 0
0 0
0 0
0 0
0 0
0 0
0 0
0 0
0 0
0 0
0 0
0 0
0 0
0 0
0 0
0 0
0 0
0 0
0 0
0 0
0 0
0 0
0 0
0 0
0 0
0 0
0 0
0 0
0 0
0 0
0 0
0 0
0 0
0 0
0 0
0 0
0 0
0 0
0 0
0 0
0 0
0 0
0 0
0 0
0 0
0 0
0 0
0 0
0 0
0 0
0 0
0 0
0 0
0 0
0 0
0 0
0 0
0 0
0 0
0 0
0 0
0 0
0 0
0 0
0 0
0 0
0 0
0 0
0 0
0 0
0 0
0 0
0 0
0 0
0 0
0 0
0 0
0 0
0 0
0 0
0 0
0 0
0 0
0 0
0 0
0 0
0 0
0 0
0 0
0 0
0 0
0 0
0 0
0 0
0 0
0 0
0 0
0 0
0 0
0 0
0 0
0 0
0 0
0 0
0 0
0 0
0 0
0 0
0 0
0 0
0 0
0 0
0 0
0 0
0 0
0 0
0 0
0 0
0 0
0 0
0 0
0 0
0 0
0 0
0 0
0 0
0 0
0 0
0 0
0 0
0 0
0 0
0 0
0 0
0 0
0 0
0 0
0 0
0 0
0 0
0 0
0 0
0 0
0 0
0 0
0 0
0 0
0 0
0 0
0 0
0 0
0 0
0 0
0 0
0 0
0 0
0 0
0 0
0 0
0 0
0 0
0 0
0 0
0 0
0 0
0 0
0 0
0 0
0 0
0 0
0 0
0 0
0 0
0 0
0 0
0 0
0 0
0 0
0 0
0 0
0 0
0 0
0 0
0 0
0 0
0 0
0 0
0 0
0 0
0 0
0 0
0 0
0 0
0 0
0 0
0 0
0 0
0 0
0 0
0 0
0 0
0 0
0 0
0 0
0 0
0 0
0 0
0 0
0 0
0 0
0 0
0 0
0 0
0 0
0 0
0 0
0 0
0 0
0 0
0 0
0 0
0 0
0 0
0 0
0 0
0 0
0 0
0 0
0 0
0 0
0 0
0 0
0 0
0 0
0 0
0 0
0 0
0 0
0 0
0 0
0 0
0 0
0 0
0 0
0 0
0 0
0 0
0 0
0 0
0 0
0 0
0 0
0 0
0 0
0 0
0 0
0 0
0 0
0 0
0 0
0 0
0 0
0 0
0 0
0 0
0 0
0 0
0 0
0 0
0 0
0 0
0 0
0 0
0 0
0 0
0 0
0 0
0 0
0 0
0 0
0 0
0 0
0 0
0 0
0 0
0 0
0 0
0 0
0 0
0 0
0 0
0 0
0 0
0 0
0 0
0 0
0 0
0 0
0 0
0 0
0 0
0 0
0 0
0 0
0 0
0 0
0 0
0 0
0 0
0 0
0 0
0 0
0 0
0 0
0 0
0 0
0 0
0 0
0 0
0 0
0 0
0 0
0 0
0 0
0 0
0 0
0 0
0 0
0 0
0 0
0 0
0 0
0 0
0 0
0 0
0 0
0 0
0 0
0 0
0 0
0 0
0 0
0 0
0 0
0 0
0 0
0 0
0 0
0 0
0 0
0 0
0 0
0 0
0 0
0 0
0 0
0 0
0 0
0 0
0 0
0 0
0 0
0 0
0 0
0 0
0 0
0 0
0 0
0 0
0 0
0 0
0 0
0 0
0 0
0 0
0 0
0 0
0 0
0 0
0 0
0 0
0 0
0 0
0 0
0 0
0 0
0 0
0 0
0 0
0 0
0 0
0 0
0 0
0 0
0 0
0 0
0 0
0 0
0 0
0 0
0 0
0 0
0 0
0 0
0 0
0 0
0 0
0 0
0 0
0 0
0 0
0 0
0 0
0 0
0 0
0 0
0 0
0 0
0 0
0 0
0 0
0 0
0 0
0 0
0 0
0 0
0 0
0 0
0 0
0 0
0 0
0 0
0 0
0 0
0 0
0 0
0 0
0 0
0 0
0 0
0 0
0 0
0 0
0 0
0 0
0 0
0 0
0 0
0 0
0 0
0 0
0 0
0 0
0 0
0 0
0 0
0 0
0 0
0 0
0 0
0 0
0 0
0 0
0 0
0 0
0 0
0 0
0 0
0 0
0 0
0 0
0 0
0 0
0 0
0 0
0 0
0 0
0 0
0 0
0 0
0 0
0 0
0 0
0 0
0 0
0 0
0 0
0 0
0 0
0 0
0 0
0 0
0 0
0 0
0 0
0 0
0 0
0 0
0 0
0 0
0 0
0 0
0 0
0 0
0 0
0 0
0 0
0 0
0 0
0 0
0 0
0 0
0 0
0 0
0 0
0 0
0 0
0 0
0 0
0 0
0 0
0 0
0 0
0 0
0 0
0 0
0 0
0 0
0 0
0 0
0 0
0 0
0 0
0 0
0 0
0 0
0 0
0 0
0 0
0 0
0 0
0 0
0 0
0 0
0 0
0 0
0 0
0 0
0 0
0 0
0 0
0 0
0 0
0 0
0 0
0 0
0 0
0 0
0 0
0 0
0 0
0 0
0 0
0 0
0 0
0 0
0 0
0 0
0 0
0 0
0 0
0 0
0 0
0 0
0 0
0 0
0 0
0 0
0 0
0 0
0 0
0 0
0 0
0 0
0 0
0 0
0 0
0 0
0 0
0 0
0 0
0 0
0 0
0 0
0 0
0 0
0 0
0 0
0 0
0 0
0 0
0 0
0 0
0 0
0 0
0 0
0 0
0 0
0 0
0 0
0 0
0 0
0 0
0 0
0 0
0 0
0 0
0 0
0 0
0 0
0 0
0 0
0 0
0 0
0 0
0 0
0 0
0 0
0 0
0 0
0 0
0 0
0 0
0 0
0 0
0 0
0 0
0 0
0 0
0 0
0 0
0 0
0 0
0 0
0 0
0 0
0 0
0 0
0 0
0 0
0 0
0 0
0 0
0 0
0 0
0 0
0 0
0 0
0 0
0 0
0 0
0 0
0 0
0 0
0 0
0 0
0 0
0 0
0 0
0 0
0 0
0 0
0 0
0 0
0 0
0 0
0 0
0 0
0 0
0 0
0 0
0 0
0 0
0 0
0 0
0 0
0 0
0 0
0 0
0 0
0 0
0 0
0 0
0 0
0 0
0 0
0 0
0 0
0 0
0 0
0 0
0 0
0 0
0 0
0 0
0 0
0 0
0 0
0 0
0 0
0 0
0 0
0 0
0 0
0 0
0 0
0 0
0 0
0 0
0 0
0 0
0 0
0 0
0 0
0 0
0 0
0 0
0 0
0 0
0 0
0 0
0 0
0 0
0 0
0 0
0 0
0 0
0 0
0 0
0 0
0 0
0 0
0 0
0 0
0 0
0 0
0 0
0 0
0 0
0 0
0 0
0 0
0 0
0 0
0 0
0 0
0 0
0 0
0 0
0 0
0 0
0 0
0 0
0 0
0 0
0 0
0 0
0 0
0 0
0 0
0 0
0 0
0 0
0 0
0 0
0 0
0 0
0 0
0 0
0 0
0 0
0 0
0 0
0 0
0 0
0 0
0 0
0 0
0 0
0 0
0 0
0 0
0 0
0 0
0 0
0 0
0 0
0 0
0 0
0 0
0 0
0 0
0 0
0 0
0 0
0 0
0 0
0 0
0 0
0 0
0 0
0 0
0 0
0 0
0 0
0 0
0 0
0 0
0 0
0 0
0 0
0 0
0 0
0 0
0 0
0 0
0 0
0 0
0 0
0 0
0 0
0 0
0 0
0 0
0 0
0 0
0 0
0 0
0 0
0 0
0 0
0 0
0 0
0 0
0 0
0 0
0 0
0 0
0 0
0 0
0 0
0 0
0 0
0 0
0 0
0 0
0 0
0 0
0 0
0 0
0 0
0 0
0 0
0 0
0 0
0 0
0 0
0 0
0 0
0 0
0 0
0 0
0 0
0 0
0 0
0 0
0 0
0 0
0 0
0 0
0 0
0 0
0 0
0 0
0 0
0 0
0 0
0 0
0 0
0 0
0 0
0 0
0 0
0 0
0 0
0 0
0 0
0 0
0 0
0 0
0 0
0 0
0 0
0 0
0 0
0 0
0 0
0 0
0 0
0 0
0 0
0 0
0 0
0 0
0 0
0 0
0 0
0 0
0 0
0 0
0 0
0 0
0 0
0 0
0 0
0 0
0 0
0 0
0 0
0 0
0 0
0 0
0 0
0 0
0 0
0 0
0 0
0 0
0 0
0 0
0 0
0 0
0 0
0 0
0 0
0 0
0 0
0 0
0 0
0 0
0 0
0 0
0 0
0 0
0 0
0 0
0 0
0 0
0 0
0 0
0 0
0 0
0 0
0 0
0 0
0 0
0 0
0 0
0 0
0 0
0 0
0 0
0 0
0 0
0 0
0 0
0 0
0 0
0 0
0 0
0 0
0 0
0 0
0 0
0 0
0 0
0 0
0 0
0 0
0 0
0 0
0 0
0 0
0 0
0 0
0 0
0 0
0 0
0 0
0 0
0 0
0 0
0 0
0 0
0 0
0 0
0 0
0 0
0 0
0 0
0 0
0 0
0 0
0 0
0 0
0 0
0 0
0 0
0 0
0 0
0 0
0 0
0 0
0 0
0 0
0 0
0 0
0 0
0 0
0 0
0 0
0 0
0 0
0 0
0 0
0 0
0 0
0 0
0 0
0 0
0 0
0 0
0 0
0 0
0 0
0 0
0 0
0 0
0 0
0 0
0 0
0 0
0 0
0 0
0 0
0 0
0 0
0 0
0 0
0 0
0 0
0 0
0 0
0 0
0 0
0 0
0 0
0 0
0 0
0 0
0 0
0 0
0 0
0 0
0 0
0 0
0 0
0 0
0 0
0 0
0 0
0 0
0 0
0 0
0 0
0 0
0 0
0 0
0 0
0 0
0 0
0 0
0 0
0 0
0 0
0 0
0 0
0 0
0 0
0 0
0 0
0 0
0 0
0 0
0 0
0 0
0 0
0 0
0 0
0 0
0 0
0 0
0 0
0 0
0 0
0 0
0 0
0 0
0 0
0 0
0 0
0 0
0 0
0 0
0 0
0 0
0 0
0 0
0 0
0 0
0 0
0 0
0 0
0 0
0 0
0 0
0 0
0 0
0 0
0 0
0 0
0 0
0 0
0 0
0 0
0 0
0 0
0 0
0 0
0 0
0 0
0 0
0 0
0 0
0 0
0 0
0 0
0 0
0 0
0 0
0 0
0 0
0 0
0 0
0 0
0 0
0 0
0 0
0 0
0 0
0 0
0 0
0 0
0 0
0 0
0 0
0 0
0 0
0 0
0 0
0 0
0 0
0 0
0 0
0 0
0 0
0 0
0 0
0 0
0 0
0 0
0 0
0 0
0 0
0 0
0 0
0 0
0 0
0 0
0 0
0 0
0 0
0 0
0 0
0 0
0 0
0 0
0 0
0 0
0 0
0 0
0 0
0 0
0 0
0 0
0 0
0 0
0 0
0 0
0 0
0 0
0 0
0 0
0 0
0 0
0 0
0 0
0 0
0 0
0 0
0 0
0 0
0 0
0 0
0 0
0 0
0 0
0 0
0 0
0 0
0 0
0 0
0 0
0 0
0 0
0 0
0 0
0 0
0 0
0 0
0 0
0 0
0 0
0 0
0 0
0 0
0 0
0 0
0 0
0 0
0 0
0 0
0 0
0 0
0 0
0 0
0 0
0 0
0 0
0 0
0 0
0 0
0 0
0 0
0 0
0 0
0 0
0 0
0 0
0 0
0 0
0 0
0 0
0 0
0 0
0 0
0 0
0 0
0 0
0 0
0 0
0 0
0 0
0 0
0 0
0 0
0 0
0 0
0 0
0 0
0 0
0 0
0 0
0 0
0 0
0 0
0 0
0 0
0 0
0 0
0 0
0 0
0 0
0 0
0 0
0 0
0 0
0 0
0 0
0 0
0 0
0 0
0 0
0 0
0 0
0 0
0 0
0 0
0 0
0 0
0 0
0 0
0 0
0 0
0 0
0 0
0 0
0 0
0 0
0 0
0 0
0 0
0 0
0 0
0 0
0 0
0 0
0 0
0 0
0 0
0 0
0 0
0 0
0 0
0 0
0 0
0 0
0 0
0 0
0 0
0 0
0 0
0 0
0 0
0 0
0 0
0 0
0 0
0 0
0 0
0 0
0 0
0 0
0 0
0 0
0 0
0 0
0 0
0 0
0 0
0 0
0 0
0 0
0 0
0 0
0 0
0 0
0 0
0 0
0 0
0 0
0 0
0 0
0 0
0 0
0 0
0 0
0 0
0 0
0 0
0 0
0 0
0 0
0 0
0 0
0 0
0 0
0 0
0 0
0 0
0 0
0 0
0 0
0 0
0 0
0 0
0 0
0 0
0 0
0 0
0 0
0 0
0 0
0 0
0 0
0 0
0 0
0 0
0 0
0 0
0 0
0 0
0 0
0 0
0 0
0 0
0 0
0 0
0 0
0 0
0 0
0 0
0 0
0 0
0 0
0 0
0 0
0 0
0 0
0 0
0 0
0 0
0 0
0 0
0 0
0 0
0 0
0 0
0 0
0 0
0 0
0 0
0 0
0 0
0 0
0 0
0 0
0 0
0 0
0 0
0 0
0 0
0 0
0 0
0 0
0 0
0 0
0 0
0 0
0 0
0 0
0 0
0 0
0 0
0 0
0 0
0 0
0 0
0 0
0 0
0 0
0 0
0 0
0 0
0 0
0 0
0 0
0 0
0 0
0 0
0 0
0 0
0 0
0 0
0 0
0 0
0 0
0 0
0 0
0 0
0 0
0 0
0 0
0 0
0 0
0 0
0 0
0 0
0 0
0 0
0 0
0 0
0 0
0 0
0 0
0 0
0 0
0 0
0 0
0 0
0 0
0 0
0 0
0 0
0 0
0 0
0 0
0 0
0 0
0 0
0 0
0 0
0 0
0 0
0 0
0 0
0 0
0 0
0 0
0 0
0 0
0 0
0 0
0 0
0 0
0 0
0 0
0 0
0 0
0 0
0 0
0 0
0 0
0 0
0 0
0 0
0 0
0 0
0 0
0 0
0 0
0 0
0 0
0 0
0 0
0 0
0 0
0 0
0 0
0 0
0 0
0 0
0 0
0 0
0 0
0 0
0 0
0 0
0 0
0 0
0 0
0 0
0 0
0 0
0 0
0 0
0 0
0 0
0 0
0 0
0 0
0 0
0 0
0 0
0 0
0 0
0 0
0 0
0 0
0 0
0 0
0 0
0 0
0 0
0 0
0 0
0 0
0 0
0 0
0 0
0 0
0 0
0 0
0 0
0 0
0 0
0 0
0 0
0 0
0 0
0 0
0 0
0 0
0 0
0 0
0 0
0 0
0 0
0 0
0 0
0 0
0 0
0 0
0 0
0 0
0 0
0 0
0 0
0 0
0 0
0 0
0 0
0 0
0 0
0 0
0 0
0 0
0 0
0 0
0 0
0 0
0 0
0 0
0 0
0 0
0 0
0 0
0 0
0 0
0 0
0 0
0 0
0 0
0 0
0 0
0 0
0 0
0 0
0 0
0 0
0 0
0 0
0 0
0 0
0 0
0 0
0 0
0 0
0 0
0 0
0 0
0 0
0 0
0 0
0 0
0 0
0 0
0 0
0 0
0 0
0 0
0 0
0 0
0 0
0 0
0 0
0 0
0 0
0 0
0 0
0 0
0 0
0 0
0 0
0 0
0 0
0 0
0 0
0 0
0 0
0 0
0 0
0 0
0 0
0 0
0 0
0 0
0 0
0 0
0 0
0 0
0 0
0 0
0 0
0 0
0 0
0 0
0 0
0 0
0 0
0 0
0 0
0 0
0 0
0 0
0 0
0 0
0 0
0 0
0 0
0 0
0 0
0 0
0 0
0 0
0 0
0 0
0 0
0 0
0 0
0 0
0 0
0 0
0 0
0 0
0 0
0 0
0 0
0 0
0 0
0 0
0 0
0 0
0 0
0 0
0 0
0 0
0 0
0 0
0 0
0 0
0 0
0 0
0 0
0 0
0 0
0 0
0 0
0 0
0 0
0 0
0 0
0 0
0 0
0 0
0 0
0 0
0 0
0 0
0 0
0 0
0 0
0 0
0 0
0 0
0 0
0 0
0 0
0 0
0 0
0 0
0 0
0 0
0 0
0 0
0 0
0 0
0 0
0 0
0 0
0 0
0 0
0 0
0 0
0 0
0 0
0 0
0 0
0 0
0 0
0 0
0 0
0 0
0 0
0 0
0 0
0 0
0 0
0 0
0 0
0 0
0 0
0 0
0 0
0 0
0 0
0 0
0 0
0 0
0 0
0 0
0 0
0 0
0 0
0 0
0 0
0 0
0 0
0 0
0 0
0 0
0 0
0 0
0 0
0 0
0 0
0 0
0 0
0 0
0 0
0 0
0 0
0 0
0 0
0 0
0 0
0 0
0 0
0 0
0 0
0 0
0 0
0 0
0 0
0 0
0 0
0 0
0 0
0 0
0 0
0 0
0 0
0 0
0 0
0 0
0 0
0 0
0 0
0 0
0 0
0 0
0 0
0 0
0 0
0 0
0 0
0 0
0 0
0 0
0 0
0 0
0 0
0 0
0 0
0 0
0 0
0 0
0 0
0 0
0 0
0 0
0 0
0 0
0 0
0 0
0 0
0 0
0 0
0 0
0 0
0 0
0 0
0 0
0 0
0 0
0 0
0 0
0 0
0 0
0 0
0 0
0 0
0 0
0 0
0 0
0 0
0 0
0 0
0 0
0 0
0 0
0 0
0 0
0 0
0 0
0 0
0 0
0 0
0 0
0 0
0 0
0 0
0 0
0 0
0 0
0 0
0 0
0 0
0 0
0 0
0 0
0 0
0 0
0 0
0 0
0 0
0 0
0 0
0 0
0 0
0 0
0 0
0 0
0 0
0 0
0 0
0 0
0 0
0 0
0 0
0 0
0 0
0 0
0 0
0 0
0 0
0 0
0 0
0 0
0 0
0 0
0 0
0 0
0 0
0 0
0 0
0 0
0 0
0 0
0 0
0 0
0 0
0 0
0 0
0 0
0 0
0 0
0 0
0 0
0 0
0 0
0 0
0 0
0 0
0 0
0 0
0 0
0 0
0 0
0 0
0 0
0 0
0 0
0 0
0 0
0 0
0 0
0 0
0 0
0 0
0 0
0 0
0 0
0 0
0 0
0 0
0 0
0 0
0 0
0 0
0 0
0 0
0 0
0 0
0 0
0 0
0 0
0 0
0 0
0 0
0 0
0 0
0 0
0 0
0 0
0 0
0 0
0 0
0 0
0 0
0 0
0 0
0 0
0 0
0 0
0 0
0 0
0 0
0 0
0 0
0 0
0 0
0 0
0 0
0 0
0 0
0 0
0 0
0 0
0 0
0 0
0 0
0 0
0 0
0 0
0 0
0 0
0 0
0 0
0 0
0 0
0 0
0 0
0 0
0 0
0 0
0 0
0 0
0 0
0 0
0 0
0 0
0 0
0 0
0 0
0 0
0 0
0 0
0 0
0 0
0 0
0 0
0 0
0 0
0 0
0 0
0 0
0 0
0 0
0 0
0 0
0 0
0 0
0 0
0 0
0 0
0 0
0 0
0 0
0 0
0 0
0 0
0 0
0 0
0 0
0 0
0 0
0 0
0 0
0 0
0 0
0 0
0 0
0 0
0 0
0 0
0 0
0 0
0 0
0 0
0 0
0 0
0 0
0 0
0 0
0 0
0 0
0 0
0 0
0 0
0 0
0 0
0 0
0 0
0 0
0 0
0 0
0 0
0 0
0 0
0 0
0 0
0 0
0 0
0 0
0 0
0 0
0 0
0 0
0 0
0 0
0 0
0 0
0 0
0 0
0 0
0 0
0 0
0 0
0 0
0 0
0 0
0 0
0 0
0 0
0 0
0 0
0 0
0 0
0 0
0 0
0 0
0 0
0 0
0 0
0 0
0 0
0 0
0 0
0 0
0 0
0 0
0 0
0 0
0 0
0 0
0 0
0 0
0 0
0 0
0 0
0 0
0 0
0 0
0 0
0 0
0 0
0 0
0 0
0 0
0 0
0 0
0 0
0 0
0 0
0 0
0 0
0 0
0 0
0 0
0 0
0 0
0 0
0 0
0 0
0 0
0 0
0 0
0 0
0 0
0 0
0 0
0 0
0 0
0 0
0 0
0 0
0 0
0 0
0 0
0 0
0 0
0 0
0 0
0 0
0 0
0 0
0 0
0 0
0 0
0 0
0 0
0 0
0 0
0 0
0 0
0 0
0 0
0 0
0 0
0 0
0 0
0 0
0 0
0 0
0 0
0 0
0 0
0 0
0 0
0 0
0 0
0 0
0 0
0 0
0 0
0 0
0 0
0 0
0 0
0 0
0 0
0 0
0 0
0 0
0 0
0 0
0 0
0 0
0 0
0 0
0 0
0 0
0 0
0 0
0 0
0 0
0 0
0 0
0 0
0 0
0 0
0 0
0 0
0 0
0 0
0 0
0 0
0 0
0 0
0 0
0 0
0 0
0 0
0 0
0 0
0 0
0 0
0 0
0 0
0 0
0 0
0 0
0 0
0 0
0 0
0 0
0 0
0 0
0 0
0 0
0 0
0 0
0 0
0 0
0 0
0 0
0 0
0 0
0 0
0 0
0 0
0 0
0 0
0 0
0 0
0 0
0 0
0 0
0 0
0 0
0 0
0 0
0 0
0 0
0 0
0 0
0 0
0 0
0 0
0 0
0 0
0 0
0 0
0 0
0 0
0 0
0 0
0 0
0 0
0 0
0 0
0 0
0 0
0 0
0 0
0 0
0 0
0 0
0 0
0 0
0 0
0 0
0 0
0 0
0 0
0 0
0 0
0 0
0 0
0 0
0 0
0 0
0 0
0 0
0 0
0 0
0 0
0 0
0 0
0 0
0 0
0 0
0 0
0 0
0 0
0 0
0 0
0 0
0 0
0 0
0 0
0 0
0 0
0 0
0 0
0 0
0 0
0 0
0 0
0 0
0 0
0 0
0 0
0 0
0 0
0 0
0 0
0 0
0 0
0 0
0 0
0 0
0 0
0 0
0 0
0 0
0 0
0 0
0 0
0 0
0 0
0 0
0 0
0 0
0 0
0 0
0 0
0 0
0 0
0 0
0 0
0 0
0 0
0 0
0 0
0 0
0 0
0 0
0 0
0 0
0 0
0 0
0 0
0 0
0 0
0 0
0 0
0 0
0 0
0 0
0 0
0 0
0 0
0 0
0 0
0 0
0 0
0 0
0 0
0 0
0 0
0 0
0 0
0 0
0 0
0 0
0 0
0 0
0 0
0 0
0 0
0 0
0 0
0 0
0 0
0 0
0 0
0 0
0 0
0 0
0 0
0 0
0 0
0 0
0 0
0 0
0 0
0 0
0 0
0 0
0 0
0 0
0 0
0 0
0 0
0 0
0 0
0 0
0 0
0 0
0 0
0 0
0 0
0 0
0 0
0 0
0 0
0 0
0 0
0 0
0 0
0 0
0 0
0 0
0 0
0 0
0 0
0 0
0 0
0 0
0 0
0 0
0 0
0 0
0 0
0 0
0 0
0 0
0 0
0 0
0 0
0 0
0 0
0 0
0 0
0 0
0 0
0 0
0 0
0 0
0 0
0 0
0 0
0 0
0 0
0 0
0 0
0 0
0 0
0 0
0 0
0 0
0 0
0 0
0 0
0 0
0 0
0 0
0 0
0 0
0 0
0 0
0 0
0 0
0 0
0 0
0 0
0 0
0 0
0 0
0 0
0 0
0 0
0 0
0 0
0 0
0 0
0 0
0 0
0 0
0 0
0 0
0 0
0 0
0 0
0 0
0 0
0 0
0 0
0 0
0 0
0 0
0 0
0 0
0 0
0 0
0 0
0 0
0 0
0 0
0 0
0 0
0 0
0 0
0 0
0 0
0 0
0 0
0 0
0 0
0 0
0 0
0 0
0 0
0 0
0 0
0 0
0 0
0 0
0 0
0 0
0 0
0 0
0 0
0 0
0 0
0 0
0 0
0 0
0 0
0 0
0 0
0 0
0 0
0 0
0 0
0 0
0 0
0 0
0 0
0 0
0 0
0 0
0 0
0 0
0 0
0 0
0 0
0 0
0 0
0 0
0 0
0 0
0 0
0 0
0 0
0 0
0 0
0 0
0 0
0 0
0 0
0 0
0 0
0 0
0 0
0 0
0 0
0 0
0 0
0 0
0 0
0 0
0 0
0 0
0 0
0 0
0 0
0 0
0 0
0 0
0 0
0 0
0 0
0 0
0 0
0 0
0 0
0 0
0 0
0 0
0 0
0 0
0 0
0 0
0 0
0 0
0 0
0 0
0 0
0 0
0 0
0 0
0 0
0 0
0 0
0 0
0 0
0 0
0 0
0 0
0 0
0 0
0 0
0 0
0 0
0 0
0 0
0 0
0 0
0 0
0 0
0 0
0 0
0 0
0 0
0 0
0 0
0 0
0 0
0 0
0 0
0 0
0 0
0 0
0 0
0 0
0 0
0 0
0 0
0 0
0 0
0 0
0 0
0 0
0 0
0 0
0 0
0 0
0 0
0 0
0 0
0 0
0 0
0 0
0 0
0 0
0 0
0 0
0 0
0 0
0 0
0 0
0 0
0 0
0 0
0 0
0 0
0 0
0 0
0 0
0 0
0 0
0 0
0 0
0 0
0 0
0 0
0 0
0 0
0 0
0 0
0 0
0 0
0 0
0 0
0 0
0 0
0 0
0 0
0 0
0 0
0 0
0 0
0 0
0 0
0 0
0 0
0 0
0 0
0 0
0 0
0 0
0 0
0 0
0 0
0 0
0 0
0 0
0 0
0 0
0 0
0 0
0 0
0 0
0 0
0 0
0 0
0 0
0 0
0 0
0 0
0 0
0 0
0 0
0 0
0 0
0 0
0 0
0 0
0 0
0 0
0 0
0 0
0 0
0 0
0 0
0 0
0 0
0 0
0 0
0 0
0 0
0 0
0 0
0 0
0 0
0 0
0 0
0 0
0 0
0 0
0 0
0 0
0 0
0 0
0 0
0 0
0 0
0 0
0 0
0 0
0 0
0 0
0 0
0 0
0 0
0 0
0 0
0 0
0 0
0 0
0 0
0 0
0 0
0 0
0 0
0 0
0 0
0 0
0 0
0 0
0 0
0 0
0 0
0 0
0 0
0 0
0 0
0 0
0 0
0 0
0 0
0 0
0 0
0 0
0 0
0 0
0 0
0 0
0 0
0 0
0 0
0 0
0 0
0 0
0 0
0 0
0 0
0 0
0 0
0 0
0 0
0 0
0 0
0 0
0 0
0 0
0 0
0 0
0 0
0 0
0 0
0 0
0 0
0 0
0 0
0 0
0 0
0 0
0 0
0 0
0 0
0 0
0 0
0 0
0 0
0 0
0 0
0 0
0 0
0 0
0 0
0 0
0 0
0 0
0 0
0 0
0 0
0 0
0 0
0 0
0 0
0 0
0 0
0 0
0 0
0 0
0 0
0 0
0 0
0 0
0 0
0 0
0 0
0 0
0 0
0 0
0 0
0 0
0 0
0 0
0 0
0 0
0 0
0 0
0 0
0 0
0 0
0 0
0 0
0 0
0 0
0 0
0 0
0 0
0 0
0 0
0 0
0 0
0 0
0 0
0 0
0 0
0 0
0 0
0 0
0 0
0 0
0 0
0 0
0 0
0 0
0 0
0 0
0 0
0 0
0 0
0 0
0 0
0 0
0 0
0 0
0 0
0 0
0 0
0 0
0 0
0 0
0 0
0 0
0 0
0 0
0 0
0 0
0 0
0 0
0 0
0 0
0 0
0 0
0 0
0 0
0 0
0 0
0 0
0 0
0 0
0 0
0 0
0 0
0 0
0 0
0 0
0 0
0 0
0 0
0 0
0 0
0 0
0 0
0 0
0 0
0 0
0 0
0 0
0 0
0 0
0 0
0 0
0 0
0 0
0 0
0 0
0 0
0 0
0 0
0 0
0 0
0 0
0 0
0 0
0 0
0 0
0 0
0 0
0 0
0 0
0 0
0 0
0 0
0 0
0 0
0 0
0 0
0 0
0 0
0 0
0 0
0 0
0 0
0 0
0 0
0 0
0 0
0 0
0 0
0 0
0 0
0 0
0 0
0 0
0 0
0 0
0 0
0 0
0 0
0 0
0 0
0 0
0 0
0 0
0 0
0 0
0 0
0 0
0 0
0 0
0 0
0 0
0 0
0 0
0 0
0 0
0 0
0 0
0 0
0 0
0 0
0 0
0 0
0 0
0 0
0 0
0 0
0 0
0 0
0 0
0 0
0 0
0 0
0 0
0 0
0 0
0 0
0 0
0 0
0 0
0 0
0 0
0 0
0 0
0 0
0 0
0 0
0 0
0 0
0 0
0 0
0 0
0 0
0 0
0 0
0 0
0 0
0 0
0 0
0 0
0 0
0 0
0 0
0 0
0 0
0 0
0 0
0 0
0 0
0 0
0 0
0 0
0 0
0 0
0 0
0 0
0 0
0 0
0 0
0 0
0 0
0 0
0 0
0 0
0 0
0 0
0 0
0 0
0 0
0 0
0 0
0 0
0 0
0 0
0 0
0 0
0 0
0 0
0 0
0 0
0 0
0 0
0 0
0 0
0 0
0 0
0 0
0 0
0 0
0 0
0 0
0 0
0 0
0 0
0 0
0 0
0 0
0 0
0 0
0 0
0 0
0 0
0 0
0 0
0 0
0 0
0 0
0 0
0 0
0 0
0 0
0 0
0 0
0 0
0 0
0 0
0 0
0 0
0 0
0 0
0 0
0 0
0 0
0 0
0 0
0 0
0 0
0 0
0 0
0 0
0 0
0 0
0 0
0 0
0 0
0 0
0 0
0 0
0 0
0 0
0 0
0 0
0 0
0 0
0 0
0 0
0 0
0 0
0 0
0 0
0 0
0 0
0 0
0 0
0 0
0 0
0 0
0 0
0 0
0 0
0 0
0 0
0 0
0 0
0 0
0 0
0 0
0 0
0 0
0 0
0 0
0 0
0 0
0 0
0 0
0 0
0 0
0 0
0 0
0 0
0 0
0 0
0 0
0 0
0 0
0 0
0 0
0 0
0 0
0 0
0 0
0 0
0 0
0 0
0 0
0 0
0 0
0 0
0 0
0 0
0 0
0 0
0 0
0 0
0 0
0 0
0 0
0 0
0 0
0 0
0 0
0 0
0 0
0 0
0 0
0 0
0 0
0 0
0 0
0 0
0 0
0 0
0 0
0 0
0 0
0 0
0 0
0 0
0 0
0 0
0 0
0 0
0 0
0 0
0 0
0 0
0 0
0 0
0 0
0 0
0 0
0 0
0 0
0 0
0 0
0 0
0 0
0 0
0 0
0 0
0 0
0 0
0 0
0 0
0 0
0 0
0 0
0 0
0 0
0 0
0 0
0 0
0 0
0 0
0 0
0 0
0 0
0 0
0 0
0 0
0 0
0 0
0 0
0 0
0 0
0 0
0 0
0 0
0 0
0 0
0 0
0 0
0 0
0 0
0 0
0 0
0 0
0 0
0 0
0 0
0 0
0 0
0 0
0 0
0 0
0 0
0 0
0 0
0 0
0 0
0 0
0 0
0 0
0 0
0 0
0 0
0 0
0 0
0 0
0 0
0 0
0 0
0 0
0 0
0 0
0 0
0 0
0 0
0 0
0 0
0 0
0 0
0 0
0 0
0 0
0 0
0 0
0 0
0 0
0 0
0 0
0 0
0 0
0 0
0 0
0 0
0 0
0 0
0 0
0 0
0 0
0 0
0 0
0 0
0 0
0 0
0 0
0 0
0 0
0 0
0 0
0 0
0 0
0 0
0 0
0 0
0 0
0 0
0 0
0 0
0 0
0 0
0 0
0 0
0 0
0 0
0 0
0 0
0 0
0 0
0 0
0 0
0 0
0 0
0 0
0 0
0 0
0 0
0 0
0 0
0 0
0 0
0 0
0 0
0 0
0 0
0 0
0 0
0 0
0 0
0 0
0 0
0 0
0 0
0 0
0 0
0 0
0 0
0 0
0 0
0 0
0 0
0 0
0 0
0 0
0 0
0 0
0 0
0 0
0 0
0 0
0 0
0 0
0 0
0 0
0 0
0 0
0 0
0 0
0 0
0 0
0 0
0 0
0 0
0 0
0 0
0 0
0 0
0 0
0 0
0 0
0 0
0 0
0 0
0 0
0 0
0 0
0 0
0 0
0 0
0 0
0 0
0 0
0 0
0 0
0 0
0 0
0 0
0 0
0 0
0 0
0 0
0 0
0 0
0 0
0 0
0 0
0 0
0 0
0 0
0 0
0 0
0 0
0 0
0 0
0 0
0 0
0 0
0 0
0 0
0 0
0 0
0 0
0 0
0 0
0 0
0 0
0 0
0 0
0 0
0 0
0 0
0 0
0 0
0 0
0 0
0 0
0 0
0 0
0 0
0 0
0 0
0 0
0 0
0 0
0 0
0 0
0 0
0 0
0 0
0 0
0 0
0 0
0 0
0 0
0 0
0 0
0 0
0 0
0 0
0 0
0 0
0 0
0 0
0 0
0 0
0 0
0 0
0 0
0 0
0 0
0 0
0 0
0 0
0 0
0 0
0 0
0 0
0 0
0 0
0 0
0 0
0 0
0 0
0 0
0 0
0 0
0 0
0 0
0 0
0 0
0 0
0 0
0 0
0 0
0 0
0 0
0 0
0 0
0 0
0 0
0 0
0 0
0 0
0 0
0 0
0 0
0 0
0 0
0 0
0 0
0 0
0 0
0 0
0 0
0 0
0 0
0 0
0 0
0 0
0 0
0 0
0 0
0 0
0 0
0 0
0 0
0 0
0 0
0 0
0 0
0 0
0 0
0 0
0 0
0 0
0 0
0 0
0 0
0 0
0 0
0 0
0 0
0 0
0 0
0 0
0 0
0 0
0 0
0 0
0 0
0 0
0 0
0 0
0 0
0 0
0 0
0 0
0 0
0 0
0 0
0 0
0 0
0 0
0 0
0 0
0 0
0 0
0 0
0 0
0 0
0 0
0 0
0 0
0 0
0 0
0 0
0 0
0 0
0 0
0 0
0 0
0 0
0 0
0 0
0 0
0 0
0 0
0 0
0 0
0 0
0 0
0 0
0 0
0 0
0 0
0 0
0 0
0 0
0 0
0 0
0 0
0 0
0 0
0 0
0 0
0 0
0 0
0 0
0 0
0 0
0 0
0 0
0 0
0 0
0 0
0 0
0 0
0 0
0 0
0 0
0 0
0 0
0 0
0 0
0 0
0 0
0 0
0 0
0 0
0 0
0 0
0 0
0 0
0 0
0 0
0 0
0 0
0 0
0 0
0 0
0 0
0 0
0 0
0 0
0 0
0 0
0 0
0 0
0 0
0 0
0 0
0 0
0 0
0 0
0 0
0 0
0 0
0 0
0 0
0 0
0 0
0 0
0 0
0 0
0 0
0 0
0 0
0 0
0 0
0 0
0 0
0 0
0 0
0 0
0 0
0 0
0 0
0 0
0 0
0 0
0 0
0 0
0 0
0 0
0 0
0 0
0 0
0 0
0 0
0 0
0 0
0 0
0 0
0 0
0 0
0 0
0 0
0 0
0 0
0 0
0 0
0 0
0 0
0 0
0 0
0 0
0 0
0 0
0 0
0 0
0 0
0 0
0 0
0 0
0 0
0 0
0 0
0 0
0 0
0 0
0 0
0 0
0 0
0 0
0 0
0 0
0 0
0 0
0 0
0 0
0 0
0 0
0 0
0 0
0 0
0 0
0 0
0 0
0 0
0 0
0 0
0 0
0 0
0 0
0 0
0 0
0 0
0 0
0 0
0 0
0 0
0 0
0 0
0 0
0 0
0 0
0 0
0 0
0 0
0 0
0 0
0 0
0 0
0 0
0 0
0 0
0 0
0 0
0 0
0 0
0 0
0 0
0 0
0 0
0 0
0 0
0 0
0 0
0 0
0 0
0 0
0 0
0 0
0 0
0 0
0 0
0 0
0 0
0 0
0 0
0 0
0 0
0 0
0 0
0 0
0 0
0 0
0 0
0 0
0 0
0 0
0 0
0 0
0 0
0 0
0 0
0 0
0 0
0 0
0 0
0 0
0 0
0 0
0 0
0 0
0 0
0 0
0 0
0 0
0 0
0 0
0 0
0 0
0 0
0 0
0 0
0 0
0 0
0 0
0 0
0 0
0 0
0 0
0 0
0 0
0 0
0 0
0 0
0 0
0 0
0 0
0 0
0 0
0 0
0 0
0 0
0 0
0 0
0 0
0 0
0 0
0 0
0 0
0 0
0 0
0 0
0 0
0 0
0 0
0 0
0 0
0 0
0 0
0 0
0 0
0 0
0 0
0 0
0 0
0 0
0 0
0 0
0 0
0 0
0 0
0 0
0 0
0 0
0 0
0 0
0 0
0 0
0 0
0 0
0 0
0 0
0 0
0 0
0 0
0 0
0 0
0 0
0 0
0 0
0 0
0 0
0 0
0 0
0 0
0 0
0 0
0 0
0 0
0 0
0 0
0 0
0 0
0 0
0 0
0 0
0 0
0 0
0 0
0 0
0 0
0 0
0 0
0 0
0 0
0 0
0 0
0 0
0 0
0 0
0 0
0 0
0 0
0 0
0 0
0 0
0 0
0 0
0 0
0 0
0 0
0 0
0 0
0 0
0 0
0 0
0 0
0 0
0 0
0 0
0 0
0 0
0 0
0 0
0 0
0 0
0 0
0 0
0 0
0 0
0 0
0 0
0 0
0 0
0 0
0 0
0 0
0 0
0 0
0 0
0 0
0 0
0 0
0 0
0 0
0 0
0 0
0 0
0 0
0 0
0 0
0 0
0 0
0 0
0 0
0 0
0 0
0 0
0 0
0 0
0 0
0 0
0 0
0 0
0 0
0 0
0 0
0 0
0 0
0 0
0 0
0 0
0 0
0 0
0 0
0 0
0 0
0 0
0 0
0 0
0 0
0 0
0 0
0 0
0 0
0 0
0 0
0 0
0 0
0 0
0 0
0 0
0 0
0 0
0 0
0 0
0 0
0 0
0 0
0 0
0 0
0 0
0 0
0 0
0 0
0 0
0 0
0 0
0 0
0 0
0 0
0 0
0 0
0 0
0 0
0 0
0 0
0 0
0 0
0 0
0 0
0 0
0 0
0 0
0 0
0 0
0 0
0 0
0 0
0 0
0 0
0 0
0 0
0 0
0 0
0 0
0 0
0 0
0 0
0 0
0 0
0 0
0 0
0 0
0 0
0 0
0 0
0 0
0 0
0 0
0 0
0 0
0 0
0 0
0 0
0 0
0 0
0 0
0 0
0 0
0 0
0 0
0 0
0 0
0 0
0 0
0 0
0 0
0 0
0 0
0 0
0 0
0 0
0 0
0 0
0 0
0 0
0 0
0 0
0 0
0 0
0 0
0 0
0 0
0 0
0 0
0 0
0 0
0 0
0 0
0 0
0 0
0 0
0 0
0 0
0 0
0 0
0 0
0 0
0 0
0 0
0 0
0 0
0 0
0 0
0 0
0 0
0 0
0 0
0 0
0 0
0 0
0 0
0 0
0 0
0 0
0 0
0 0
0 0
0 0
0 0
0 0
0 0
0 0
0 0
0 0
0 0
0 0
0 0
0 0
0 0
0 0
0 0
0 0
0 0
0 0
0 0
0 0
0 0
0 0
0 0
0 0
0 0
0 0
0 0
0 0
0 0
0 0
0 0
0 0
0 0
0 0
0 0
0 0
0 0
0 0
0 0
0 0
0 0
0 0
0 0
0 0
0 0
0 0
0 0
0 0
0 0
0 0
0 0
0 0
0 0
0 0
0 0
0 0
0 0
0 0
0 0
0 0
0 0
0 0
0 0
0 0
0 0
0 0
0 0
0 0
0 0
0 0
0 0
0 0
0 0
0 0
0 0
0 0
0 0
0 0
0 0
0 0
0 0
0 0
0 0
0 0
0 0
0 0
0 0
0 0
0 0
0 0
0 0
0 0
0 0
0 0
0 0
0 0
0 0
0 0
0 0
0 0
0 0
0 0
0 0
0 0
0 0
0 0
0 0
0 0
0 0
0 0
0 0
0 0
0 0
0 0
0 0
0 0
0 0
0 0
0 0
0 0
0 0
0 0
0 0
0 0
0 0
0 0
0 0
0 0
0 0
0 0
0 0
0 0
0 0
0 0
0 0
0 0
0 0
0 0
0 0
0 0
0 0
0 0
0 0
0 0
0 0
0 0
0 0
0 0
0 0
0 0
0 0
0 0
0 0
0 0
0 0
0 0
0 0
0 0
0 0
0 0
0 0
0 0
0 0
0 0
0 0
0 0
0 0
0 0
0 0
0 0
0 0
0 0
0 0
0 0
0 0
0 0
0 0
0 0
0 0
0 0
0 0
0 0
0 0
0 0
0 0
0 0
0 0
0 0
0 0
0 0
0 0
0 0
0 0
0 0
0 0
0 0
0 0
0 0
0 0
0 0
0 0
0 0
0 0
0 0
0 0
0 0
0 0
0 0
0 0
0 0
0 0
0 0
0 0
0 0
0 0
0 0
0 0
0 0
0 0
0 0
0 0
0 0
0 0
0 0
0 0
0 0
0 0
0 0
0 0
0 0
0 0
0 0
0 0
0 0
0 0
0 0
0 0
0 0
0 0
0 0
0 0
0 0
0 0
0 0
0 0
0 0
0 0
0 0
0 0
0 0
0 0
0 0
0 0
0 0
0 0
0 0
0 0
0 0
0 0
0 0
0 0
0 0
0 0
0 0
0 0
0 0
0 0
0 0
0 0
0 0
0 0
0 0
0 0
0 0
0 0
0 0
0 0
0 0
0 0
0 0
0 0
0 0
0 0
0 0
0 0
0 0
0 0
0 0
0 0
0 0
0 0
0 0
0 0
0 0
0 0
0 0
0 0
0 0
0 0
0 0
0 0
0 0
0 0
0 0
0 0
0 0
0 0
0 0
0 0
0 0
0 0
0 0
0 0
0 0
0 0
0 0
0 0
0 0
0 0
0 0
0 0
0 0
0 0
0 0
0 0
0 0
0 0
0 0
0 0
0 0
0 0
0 0
0 0
0 0
0 0
0 0
0 0
0 0
0 0
0 0
0 0
0 0
0 0
0 0
0 0
0 0
0 0
0 0
0 0
0 0
0 0
0 0
0 0
0 0
0 0
0 0
0 0
0 0
0 0
0 0
0 0
0 0
0 0
0 0
0 0
0 0
0 0
0 0
0 0
0 0
0 0
0 0
0 0
0 0
0 0
0 0
0 0
0 0
0 0
0 0
0 0
0 0
0 0
0 0
0 0
0 0
0 0
0 0
0 0
0 0
0 0
0 0
0 0
0 0
0 0
0 0
0 0
0 0
0 0
0 0
0 0
0 0
0 0
0 0
0 0
0 0
0 0
0 0
0 0
0 0
0 0
0 0
0 0
0 0
0 0
0 0
0 0
0 0
0 0
0 0
0 0
0 0
0 0
0 0
0 0
0 0
0 0
0 0
0 0
0 0
0 0
0 0
0 0
0 0
0 0
0 0
0 0
0 0
0 0
0 0
0 0
0 0
0 0
0 0
0 0
0 0
0 0
0 0
0 0
0 0
0 0
0 0
0 0
0 0
0 0
0 0
0 0
0 0
0 0
0 0
0 0
0 0
0 0
0 0
0 0
0 0
0 0
0 0
0 0
0 0
0 0
0 0
0 0
0 0
0 0
0 0
0 0
0 0
0 0
0 0
0 0
0 0
0 0
0 0
0 0
0 0
0 0
0 0
0 0
0 0
0 0
0 0
0 0
0 0
0 0
0 0
0 0
0 0
0 0
0 0
0 0
0 0
0 0
0 0
0 0
0 0
0 0
0 0
0 0
0 0
0 0
0 0
0 0
0 0
0 0
0 0
0 0
0 0
0 0
0 0
0 0
0 0
0 0
0 0
0 0
0 0
0 0
0 0
0 0
0 0
0 0
0 0
0 0
0 0
0 0
0 0
0 0
0 0
0 0
0 0
0 0
0 0
0 0
0 0
0 0
0 0
0 0
0 0
0 0
0 0
0 0
0 0
0 0
0 0
0 0
0 0
0 0
0 0
0 0
0 0
0 0
0 0
0 0
0 0
0 0
0 0
0 0
0 0
0 0
0 0
0 0
0 0
0 0
0 0
0 0
0 0
0 0
0 0
0 0
0 0
0 0
0 0
0 0
0 0
0 0
0 0
0 0
0 0
0 0
0 0
0 0
0 0
0 0
0 0
0 0
0 0
0 0
0 0
0 0
0 0
0 0
0 0
0 0
0 0
0 0
0 0
0 0
0 0
0 0
0 0
0 0
0 0
0 0
0 0
0 0
0 0
0 0
0 0
0 0
0 0
0 0
0 0
0 0
0 0
0 0
0 0
0 0
0 0
0 0
0 0
0 0
0 0
0 0
0 0
0 0
0 0
0 0
0 0
0 0
0 0
0 0
0 0
0 0
0 0
0 0
0 0
0 0
0 0
0 0
0 0
0 0
0 0
0 0
0 0
0 0
0 0
0 0
0 0
0 0
0 0
0 0
0 0
0 0
0 0
0 0
0 0
0 0
0 0
0 0
0 0
0 0
0 0
0 0
0 0
0 0
0 0
0 0
0 0
0 0
0 0
0 0
0 0
0 0
0 0
0 0
0 0
0 0
0 0
0 0
0 0
0 0
0 0
0 0
0 0
0 0
0 0
0 0
0 0
0 0
0 0
0 0
0 0
0 0
0 0
0 0
0 0
0 0
0 0
0 0
0 0
0 0
0 0
0 0
0 0
0 0
0 0
0 0
0 0
0 0
0 0
0 0
0 0
0 0
0 0
0 0
0 0
0 0
0 0
0 0
0 0
0 0
0 0
0 0
0 0
0 0
0 0
0 0
0 0
0 0
0 0
0 0
0 0
0 0
0 0
0 0
0 0
0 0
0 0
0 0
0 0
0 0
0 0
0 0
0 0
0 0
0 0
0 0
0 0
0 0
0 0
0 0
0 0
0 0
0 0
0 0
0 0
0 0
0 0
0 0
0 0
0 0
0 0
0 0
0 0
0 0
0 0
0 0
0 0
0 0
0 0
0 0
0 0
0 0
0 0
0 0
0 0
0 0
0 0
0 0
0 0
0 0
0 0
0 0
0 0
0 0
0 0
0 0
0 0
0 0
0 0
0 0
0 0
0 0
0 0
0 0
0 0
0 0
0 0
0 0
0 0
0 0
0 0
0 0
0 0
0 0
0 0
0 0
0 0
0 0
0 0
0 0
0 0
0 0
0 0
0 0
0 0
0 0
0 0
0 0
0 0
0 0
0 0
0 0
0 0
0 0
0 0
0 0
0 0
0 0
0 0
0 0
0 0
0 0
0 0
0 0
0 0
0 0
0 0
0 0
0 0
0 0
0 0
0 0
0 0
0 0
0 0
0 0
0 0
0 0
0 0
0 0
0 0
0 0
0 0
0 0
0 0
0 0
0 0
0 0
0 0
0 0
0 0
0 0
0 0
0 0
0 0
0 0
0 0
0 0
0 0
0 0
0 0
0 0
0 0
0 0
0 0
0 0
0 0
0 0
0 0
0 0
0 0
0 0
0 0
0 0
0 0
0 0
0 0
0 0
0 0
0 0
0 0
0 0
0 0
0 0
0 0
0 0
0 0
0 0
0 0
0 0
0 0
0 0
0 0
0 0
0 0
0 0
0 0
0 0
0 0
0 0
0 0
0 0
0 0
0 0
0 0
0 0
0 0
0 0
0 0
0 0
0 0
0 0
0 0
0 0
0 0
0 0
0 0
0 0
0 0
0 0
0 0
0 0
0 0
0 0
0 0
0 0
0 0
0 0
0 0
0 0
0 0
0 0
0 0
0 0
0 0
0 0
0 0
0 0
0 0
0 0
0 0
0 0
0 0
0 0
0 0
0 0
0 0
0 0
0 0
0 0
0 0
0 0
0 0
0 0
0 0
0 0
0 0
0 0
0 0
0 0
0 0
0 0
0 0
0 0
0 0
0 0
0 0
0 0
0 0
0 0
0 0
0 0
0 0
0 0
0 0
0 0
0 0
0 0
0 0
0 0
0 0
0 0
0 0
0 0
0 0
0 0
0 0
0 0
0 0
0 0
0 0
0 0
0 0
0 0
0 0
0 0
0 0
0 0
0 0
0 0
0 0
0 0
0 0
0 0
0 0
0 0
0 0
0 0
0 0
0 0
0 0
0 0
0 0
0 0
0 0
0 0
0 0
0 0
0 0
0 0
0 0
0 0
0 0
0 0
0 0
0 0
0 0
0 0
0 0
0 0
0 0
0 0
0 0
0 0
0 0
0 0
0 0
0 0
0 0
0 0
0 0
0 0
0 0
0 0
0 0
0 0
0 0
0 0
0 0
0 0
0 0
0 0
0 0
0 0
0 0
0 0
0 0
0 0
0 0
0 0
0 0
0 0
0 0
0 0
0 0
0 0
0 0
0 0
0 0
0 0
0 0
0 0
0 0
0 0
0 0
0 0
0 0
0 0
0 0
0 0
0 0
0 0
0 0
0 0
0 0
0 0
0 0
0 0
0 0
0 0
0 0
0 0
0 0
0 0
0 0
0 0
0 0
0 0
0 0
0 0
0 0
0 0
0 0
0 0
0 0
0 0
0 0
0 0
0 0
0 0
0 0
0 0
0 0
0 0
0 0
0 0
0 0
0 0
0 0
0 0
0 0
0 0
0 0
0 0
0 0
0 0
0 0
0 0
0 0
0 0
0 0
0 0
0 0
0 0
0 0
0 0
0 0
0 0
0 0
0 0
0 0
0 0
0 0
0 0
0 0
0 0
0 0
0 0
0 0
0 0
0 0
0 0
0 0
0 0
0 0
0 0
0 0
0 0
0 0
0 0
0 0
0 0
0 0
0 0
0 0
0 0
0 0
0 0
0 0
0 0
0 0
0 0
0 0
0 0
0 0
0 0
0 0
0 0
0 0
0 0
0 0
0 0
0 0
0 0
0 0
0 0
0 0
0 0
0 0
0 0
0 0
0 0
0 0
0 0
0 0
0 0
0 0
0 0
0 0
0 0
0 0
0 0
0 0
0 0
0 0
0 0
0 0
0 0
0 0
0 0
0 0
0 0
0 0
0 0
0 0
0 0
0 0
0 0
0 0
0 0
0 0
0 0
0 0
0 0
0 0
0 0
0 0
0 0
0 0
0 0
0 0
0 0
0 0
0 0
0 0
0 0
0 0
0 0
0 0
0 0
0 0
0 0
0 0
0 0
0 0
0 0
0 0
0 0
0 0
0 0
0 0
0 0
0 0
0 0
0 0
0 0
0 0
0 0
0 0
0 0
0 0
0 0
0 0
0 0
0 0
0 0
0 0
0 0
0 0
0 0
0 0
0 0
0 0
0 0
0 0
0 0
0 0
0 0
0 0
0 0
0 0
0 0
0 0
0 0
0 0
0 0
0 0
0 0
0 0
0 0
0 0
0 0
0 0
0 0
0 0
0 0
0 0
0 0
0 0
0 0
0 0
0 0
0 0
0 0
0 0
0 0
0 0
0 0
0 0
0 0
0 0
0 0
0 0
0 0
0 0
0 0
0 0
0 0
0 0
0 0
0 0
0 0
0 0
0 0
0 0
0 0
0 0
0 0
0 0
0 0
0 0
0 0
0 0
0 0
0 0
0 0
0 0
0 0
0 0
0 0
0 0
0 0
0 0
0 0
0 0
0 0
0 0
0 0
0 0
0 0
0 0
0 0
0 0
0 0
0 0
0 0
0 0
0 0
0 0
0 0
0 0
0 0
0 0
0 0
0 0
0 0
0 0
0 0
0 0
0 0
0 0
0 0
0 0
0 0
0 0
0 0
0 0
0 0
0 0
0 0
0 0
0 0
0 0
0 0
0 0
0 0
0 0
0 0
0 0
0 0
0 0
0 0
0 0
0 0
0 0
0 0
0 0
0 0
0 0
0 0
0 0
0 0
0 0
0 0
0 0
0 0
0 0
0 0
0 0
0 0
0 0
0 0
0 0
0 0
0 0
0 0
0 0
0 0
0 0
0 0
0 0
0 0
0 0
0 0
0 0
0 0
0 0
0 0
0 0
0 0
0 0
0 0
0 0
0 0
0 0
0 0
0 0
0 0
0 0
0 0
0 0
0 0
0 0
0 0
0 0
0 0
0 0
0 0
0 0
0 0
0 0
0 0
0 0
0 0
0 0
0 0
0 0
0 0
0 0
0 0
0 0
0 0
0 0
0 0
0 0
0 0
0 0
0 0
0 0
0 0
0 0
0 0
0 0
0 0
0 0
0 0
0 0
0 0
0 0
0 0
0 0
0 0
0 0
0 0
0 0
0 0
0 0
0 0
0 0
0 0
0 0
0 0
0 0
0 0
0 0
0 0
0 0
0 0
0 0
0 0
0 0
0 0
0 0
0 0
0 0
0 0
0 0
0 0
0 0
0 0
0 0
0 0
0 0
0 0
0 0
0 0
0 0
0 0
0 0
0 0
0 0
0 0
0 0
0 0
0 0
0 0
0 0
0 0
0 0
0 0
0 0
0 0
0 0
0 0
0 0
0 0
0 0
0 0
0 0
0 0
0 0
0 0
0 0
0 0
0 0
0 0
0 0
0 0
0 0
0 0
0 0
0 0
0 0
0 0
0 0
0 0
0 0
0 0
0 0
0 0
0 0
0 0
0 0
0 0
0 0
0 0
0 0
0 0
0 0
0 0
0 0
0 0
0 0
0 0
0 0
0 0
0 0
0 0
0 0
0 0
0 0
0 0
0 0
0 0
0 0
0 0
0 0
0 0
0 0
0 0
0 0
0 0
0 0
0 0
0 0
0 0
0 0
0 0
0 0
0 0
0 0
0 0
0 0
0 0
0 0
0 0
0 0
0 0
0 0
0 0
0 0
0 0
0 0
0 0
0 0
0 0
0 0
0 0
0 0
0 0
0 0
0 0
0 0
0 0
0 0
0 0
0 0
0 0
0 0
0 0
0 0
0 0
0 0
0 0
0 0
0 0
0 0
0 0
0 0
0 0
0 0
0 0
0 0
0 0
0 0
0 0
0 0
0 0
0 0
0 0
0 0
0 0
0 0
0 0
0 0
0 0
0 0
0 0
0 0
0 0
0 0
0 0
0 0
0 0
0 0
0 0
0 0
0 0
0 0
0 0
0 0
0 0
0 0
0 0
0 0
0 0
0 0
0 0
0 0
0 0
0 0
0 0
0 0
0 0
0 0
0 0
0 0
0 0
0 0
0 0
0 0
0 0
0 0
0 0
0 0
0 0
0 0
0 0
0 0
0 0
0 0
0 0
0 0
0 0
0 0
0 0
0 0
0 0
0 0
0 0
0 0
0 0
0 0
0 0
0 0
0 0
0 0
0 0
0 0
0 0
0 0
0 0
0 0
0 0
0 0
0 0
0 0
0 0
0 0
0 0
0 0
0 0
0 0
0 0
0 0
0 0
0 0
0 0
0 0
0 0
0 0
0 0
0 0
0 0
0 0
0 0
0 0
0 0
0 0
0 0
0 0
0 0
0 0
0 0
0 0
0 0
0 0
0 0
0 0
0 0
0 0
0 0
0 0
0 0
0 0
0 0
0 0
0 0
0 0
0 0
0 0
0 0
0 0
0 0
0 0
0 0
0 0
0 0
0 0
0 0
0 0
0 0
0 0
0 0
0 0
0 0
0 0
0 0
0 0
0 0
0 0
0 0
0 0
0 0
0 0
0 0
0 0
0 0
0 0
0 0
0 0
0 0
0 0
0 0
0 0
0 0
0 0
0 0
0 0
0 0
0 0
0 0
0 0
0 0
0 0
0 0
0 0
0 0
0 0
0 0
0 0
0 0
0 0
0 0
0 0
0 0
0 0
0 0
0 0
0 0
0 0
0 0
0 0
0 0
0 0
0 0
0 0
0 0
0 0
0 0
0 0
0 0
0 0
0 0
0 0
0 0
0 0
0 0
0 0
0 0
0 0
0 0
0 0
0 0
0 0
0 0
0 0
0 0
0 0
0 0
0 0
0 0
0 0
0 0
0 0
0 0
0 0
0 0
0 0
0 0
0 0
0 0
0 0
0 0
0 0
0 0
0 0
0 0
0 0
0 0
0 0
0 0
0 0
0 0
0 0
0 0
0 0
0 0
0 0
0 0
0 0
0 0
0 0
0 0
0 0
0 0
0 0
0 0
0 0
0 0
0 0
0 0
0 0
0 0
0 0
0 0
0 0
0 0
0 0
0 0
0 0
0 0
0 0
0 0
0 0
0 0
0 0
0 0
0 0
0 0
0 0
0 0
0 0
0 0
0 0
0 0
0 0
0 0
0 0
0 0
0 0
0 0
0 0
0 0
0 0
0 0
0 0
0 0
0 0
0 0
0 0
0 0
0 0
0 0
0 0
0 0
0 0
0 0
0 0
0 0
0 0
0 0
0 0
0 0
0 0
0 0
0 0
0 0
0 0
0 0
0 0
0 0
0 0
0 0
0 0
0 0
0 0
0 0
0 0
0 0
0 0
0 0
0 0
0 0
0 0
0 0
0 0
0 0
0 0
0 0
0 0
0 0
0 0
0 0
0 0
0 0
0 0
0 0
0 0
0 0
0 0
0 0
0 0
0 0
0 0
0 0
0 0
0 0
0 0
0 0
0 0
0 0
0 0
0 0
0 0
0 0
0 0
0 0
0 0
0 0
0 0
0 0
0 0
0 0
0 0
0 0
0 0
0 0
0 0
0 0
0 0
0 0
0 0
0 0
0 0
0 0
0 0
0 0
0 0
0 0
0 0
0 0
0 0
0 0
0 0
0 0
0 0
0 0
0 0
0 0
0 0
0 0
0 0
0 0
0 0
0 0
0 0
0 0
0 0
0 0
0 0
0 0
0 0
0 0
0 0
0 0
0 0
0 0
0 0
0 0
0 0
0 0
0 0
0 0
0 0
0 0
0 0
0 0
0 0
0 0
0 0
0 0
0 0
0 0
0 0
0 0
0 0
0 0
0 0
0 0
0 0
0 0
0 0
0 0
0 0
0 0
0 0
0 0
0 0
0 0
0 0
0 0
0 0
0 0
0 0
0 0
0 0
0 0
0 0
0 0
0 0
0 0
0 0
0 0
0 0
0 0
0 0
0 0
0 0
0 0
0 0
0 0
0 0
0 0
0 0
0 0
0 0
0 0
0 0
0 0
0 0
0 0
0 0
0 0
0 0
0 0
0 0
0 0
0 0
0 0
0 0
0 0
0 0
0 0
0 0
0 0
0 0
0 0
0 0
0 0
0 0
0 0
0 0
0 0
0 0
0 0
0 0
0 0
0 0
0 0
0 0
0 0
0 0
0 0
0 0
0 0
0 0
0 0
0 0
0 0
0 0
0 0
0 0
0 0
0 0
0 0
0 0
0 0
0 0
0 0
0 0
0 0
0 0
0 0
0 0
0 0
0 0
0 0
0 0
0 0
0 0
0 0
0 0
0 0
0 0
0 0
0 0
0 0
0 0
0 0
0 0
0 0
0 0
0 0
0 0
0 0
0 0
0 0
0 0
0 0
0 0
0 0
0 0
0 0
0 0
0 0
0 0
0 0
0 0
0 0
0 0
0 0
0 0
0 0
0 0
0 0
0 0
0 0
0 0
0 0
0 0
0 0
0 0
0 0
0 0
0 0
0 0
0 0
0 0
0 0
0 0
0 0
0 0
0 0
0 0
0 0
0 0
0 0
0 0
0 0
0 0
0 0
0 0
0 0
0 0
0 0
0 0
0 0
0 0
0 0
0 0
0 0
0 0
0 0
0 0
0 0
0 0
0 0
0 0
0 0
0 0
0 0
0 0
0 0
0 0
0 0
0 0
0 0
0 0
0 0
0 0
0 0
0 0
0 0
0 0
0 0
0 0
0 0
0 0
0 0
0 0
0 0
0 0
0 0
0 0
0 0
0 0
0 0
0 0
0 0
0 0
0 0
0 0
0 0
0 0
0 0
0 0
0 0
0 0
0 0
0 0
0 0
0 0
0 0
0 0
0 0
0 0
0 0
0 0
0 0
0 0
0 0
0 0
0 0
0 0
0 0
0 0
0 0
0 0
0 0
0 0
0 0
0 0
0 0
0 0
0 0
0 0
0 0
0 0
0 0
0 0
0 0
0 0
0 0
0 0
0 0
0 0
0 0
0 0
0 0
0 0
0 0
0 0
0 0
0 0
0 0
0 0
0 0
0 0
0 0
0 0
0 0
0 0
0 0
0 0
0 0
0 0
0 0
0 0
0 0
0 0
0 0
0 0
0 0
0 0
0 0
0 0
0 0
0 0
0 0
0 0
0 0
0 0
0 0
0 0
0 0
0 0
0 0
0 0
0 0
0 0
0 0
0 0
0 0
0 0
0 0
0 0
0 0
0 0
0 0
0 0
0 0
0 0
0 0
0 0
0 0
0 0
0 0
0 0
0 0
0 0
0 0
0 0
0 0
0 0
0 0
0 0
0 0
0 0
0 0
0 0
0 0
0 0
0 0
0 0
0 0
0 0
0 0
0 0
0 0
0 0
0 0
0 0
0 0
0 0
0 0
0 0
0 0
0 0
0 0
0 0
0 0
0 0
0 0
0 0
0 0
0 0
0 0
0 0
0 0
0 0
0 0
0 0
0 0
0 0
0 0
0 0
0 0
0 0
0 0
0 0
0 0
0 0
0 0
0 0
0 0
0 0
0 0
0 0
0 0
0 0
0 0
0 0
0 0
0 0
0 0
0 0
0 0
0 0
0 0
0 0
0 0
0 0
0 0
0 0
0 0
0 0
0 0
0 0
0 0
0 0
0 0
0 0
0 0
0 0
0 0
0 0
0 0
0 0
0 0
0 0
0 0
0 0
0 0
0 0
0 0
0 0
0 0
0 0
0 0
0 0
0 0
0 0
0 0
0 0
0 0
0 0
0 0
0 0
0 0
0 0
0 0
0 0
0 0
0 0
0 0
0 0
0 0
0 0
0 0
0 0
0 0
0 0
0 0
0 0
0 0
0 0
0 0
0 0
0 0
0 0
0 0
0 0
0 0
0 0
0 0
0 0
0 0
0 0
0 0
0 0
0 0
0 0
0 0
0 0
0 0
0 0
0 0
0 0
0 0
0 0
0 0
0 0
0 0
0 0
0 0
0 0
0 0
0 0
0 0
0 0
0 0
0 0
0 0
0 0
0 0
0 0
0 0
0 0
0 0
0 0
0 0
0 0
0 0
0 0
0 0
0 0
0 0
0 0
0 0
0 0
0 0
0 0
0 0
0 0
0 0
0 0
0 0
0 0
0 0
0 0
0 0
0 0
0 0
0 0
0 0
0 0
0 0
0 0
0 0
0 0
0 0
0 0
0 0
0 0
0 0
0 0
0 0
0 0
0 0
0 0
0 0
0 0
0 0
0 0
0 0
0 0
0 0
0 0
0 0
0 0
0 0
0 0
0 0
0 0
0 0
0 0
0 0
0 0
0 0
0 0
0 0
0 0
0 0
0 0
0 0
0 0
0 0
0 0
0 0
0 0
0 0
0 0
0 0
0 0
0 0
0 0
0 0
0 0
0 0
0 0
0 0
0 0
0 0
0 0
0 0
0 0
0 0
0 0
0 0
0 0
0 0
0 0
0 0
0 0
0 0
0 0
0 0
0 0
0 0
0 0
0 0
0 0
0 0
0 0
0 0
0 0
0 0
0 0
0 0
0 0
0 0
0 0
0 0
0 0
0 0
0 0
0 0
0 0
0 0
0 0
0 0
0 0
0 0
0 0
0 0
0 0
0 0
0 0
0 0
0 0
0 0
0 0
0 0
0 0
0 0
0 0
0 0
0 0
0 0
0 0
0 0
0 0
0 0
0 0
0 0
0 0
0 0
0 0
0 0
0 0
0 0
0 0
0 0
0 0
0 0
0 0
0 0
0 0
0 0
0 0
0 0
0 0
0 0
0 0
0 0
0 0
0 0
0 0
0 0
0 0
0 0
0 0
0 0
0 0
0 0
0 0
0 0
0 0
0 0
0 0
0 0
0 0
0 0
0 0
0 0
0 0
0 0
0 0
0 0
0 0
0 0
0 0
0 0
0 0
0 0
0 0
0 0
0 0
0 0
0 0
0 0
0 0
0 0
0 0
0 0
0 0
0 0
0 0
0 0
0 0
0 0
0 0
0 0
0 0
0 0
0 0
0 0
0 0
0 0
0 0
0 0
0 0
0 0
0 0
0 0
0 0
0 0
0 0
0 0
0 0
0 0
0 0
0 0
0 0
0 0
0 0
0 0
0 0
0 0
0 0
0 0
0 0
0 0
0 0
0 0
0 0
0 0
0 0
0 0
0 0
0 0
0 0
0 0
0 0
0 0
0 0
0 0
0 0
0 0
0 0
0 0
0 0
0 0
0 0
0 0
0 0
0 0
0 0
0 0
0 0
0 0
0 0
0 0
0 0
0 0
0 0
0 0
0 0
0 0
0 0
0 0
0 0
0 0
0 0
0 0
0 0
0 0
0 0
0 0
0 0
0 0
0 0
0 0
0 0
0 0
0 0
0 0
0 0
0 0
0 0
0 0
0 0
0 0
0 0
0 0
0 0
0 0
0 0
0 0
0 0
0 0
0 0
0 0
0 0
0 0
0 0
0 0
0 0
0 0
0 0
0 0
0 0
0 0
0 0
0 0
0 0
0 0
0 0
0 0
0 0
0 0
0 0
0 0
0 0
0 0
0 0
0 0
0 0
0 0
0 0
0 0
0 0
0 0
0 0
0 0
0 0
0 0
0 0
0 0
0 0
0 0
0 0
0 0
0 0
0 0
0 0
0 0
0 0
0 0
0 0
0 0
0 0
0 0
0 0
0 0
0 0
0 0
0 0
0 0
0 0
0 0
0 0
0 0
0 0
0 0
0 0
0 0
0 0
0 0
0 0
0 0
0 0
0 0
0 0
0 0
0 0
0 0
0 0
0 0
0 0
0 0
0 0
0 0
0 0
0 0
0 0
0 0
0 0
0 0
0 0
0 0
0 0
0 0
0 0
0 0
0 0
0 0
0 0
0 0
0 0
0 0
0 0
0 0
0 0
0 0
0 0
0 0
0 0
0 0
0 0
0 0
0 0
0 0
0 0
0 0
0 0
0 0
0 0
0 0
0 0
0 0
0 0
0 0
0 0
0 0
0 0
0 0
0 0
0 0
0 0
0 0
0 0
0 0
0 0
0 0
0 0
0 0
0 0
0 0
0 0
0 0
0 0
0 0
0 0
0 0
0 0
0 0
0 0
0 0
0 0
0 0
0 0
0 0
0 0
0 0
0 0
0 0
0 0
0 0
0 0
0 0
0 0
0 0
0 0
0 0
0 0
0 0
0 0
0 0
0 0
0 0
0 0
0 0
0 0
0 0
0 0
0 0
0 0
0 0
0 0
0 0
0 0
0 0
0 0
0 0
0 0
0 0
0 0
0 0
0 0
0 0
0 0
0 0
0 0
0 0
0 0
0 0
0 0
0 0
0 0
0 0
0 0
0 0
0 0
0 0
0 0
0 0
0 0
0 0
0 0
0 0
0 0
0 0
0 0
0 0
0 0
0 0
0 0
0 0
0 0
0 0
0 0
0 0
0 0
0 0
0 0
0 0
0 0
0 0
0 0
0 0
0 0
0 0
0 0
0 0
0 0
0 0
0 0
0 0
0 0
0 0
0 0
0 0
0 0
0 0
0 0
0 0
0 0
0 0
0 0
0 0
0 0
0 0
0 0
0 0
0 0
0 0
0 0
0 0
0 0
0 0
0 0
0 0
0 0
0 0
0 0
0 0
0 0
0 0
0 0
0 0
0 0
0 0
0 0
0 0
0 0
0 0
0 0
0 0
0 0
0 0
0 0
0 0
0 0
0 0
0 0
0 0
0 0
0 0
0 0
0 0
0 0
0 0
0 0
0 0
0 0
0 0
0 0
0 0
0 0
0 0
0 0
0 0
0 0
0 0
0 0
0 0
0 0
0 0
0 0
0 0
0 0
0 0
0 0
0 0
0 0
0 0
0 0
0 0
0 0
0 0
0 0
0 0
0 0
0 0
0 0
0 0
0 0
0 0
0 0
0 0
0 0
0 0
0 0
0 0
0 0
0 0
0 0
0 0
0 0
0 0
0 0
0 0
0 0
0 0
0 0
0 0
0 0
0 0
0 0
0 0
0 0
0 0
0 0
0 0
0 0
0 0
0 0
0 0
0 0
0 0
0 0
0 0
0 0
0 0
0 0
0 0
0 0
0 0
0 0
0 0
0 0
0 0
0 0
0 0
0 0
0 0
0 0
0 0
0 0
0 0
0 0
0 0
0 0
0 0
0 0
0 0
0 0
0 0
0 0
0 0
0 0
0 0
0 0
0 0
0 0
0 0
0 0
0 0
0 0
0 0
0 0
0 0
0 0
0 0
0 0
0 0
0 0
0 0
0 0
0 0
0 0
0 0
0 0
0 0
0 0
0 0
0 0
0 0
0 0
0 0
0 0
0 0
0 0
0 0
0 0
0 0
0 0
0 0
0 0
0 0
0 0
0 0
0 0
0 0
0 0
0 0
0 0
0 0
0 0
0 0
0 0
0 0
0 0
0 0
0 0
0 0
0 0
0 0
0 0
0 0
0 0
0 0
0 0
0 0
0 0
0 0
0 0
0 0
0 0
0 0
0 0
0 0
0 0
0 0
0 0
0 0
0 0
0 0
0 0
0 0
0 0
0 0
0 0
0 0
0 0
0 0
0 0
0 0
0 0
0 0
0 0
0 0
0 0
0 0
0 0
0 0
0 0
0 0
0 0
0 0
0 0
0 0
0 0
0 0
0 0
0 0
0 0
0 0
0 0
0 0
0 0
0 0
0 0
0 0
0 0
0 0
0 0
0 0
0 0
0 0
0 0
0 0
0 0
0 0
0 0
0 0
0 0
0 0
0 0
0 0
0 0
0 0
0 0
0 0
0 0
0 0
0 0
0 0
0 0
0 0
0 0
0 0
0 0
0 0
0 0
0 0
0 0
0 0
0 0
0 0
0 0
0 0
0 0
0 0
0 0
0 0
0 0
0 0
0 0
0 0
0 0
0 0
0 0
0 0
0 0
0 0
0 0
0 0
0 0
0 0
0 0
0 0
0 0
0 0
0 0
0 0
0 0
0 0
0 0
0 0
0 0
0 0
0 0
0 0
0 0
0 0
0 0
0 0
0 0
0 0
0 0
0 0
0 0
0 0
0 0
0 0
0 0
0 0
0 0
0 0
0 0
0 0
0 0
0 0
0 0
0 0
0 0
0 0
0 0
0 0
0 0
0 0
0 0
0 0
0 0
0 0
0 0
0 0
0 0
0 0
0 0
0 0
0 0
0 0
0 0
0 0
0 0
0 0
0 0
0 0
0 0
0 0
0 0
0 0
0 0
0 0
0 0
0 0
0 0
0 0
0 0
0 0
0 0
0 0
0 0
0 0
0 0
0 0
0 0
0 0
0 0
0 0
0 0
0 0
0 0
0 0
0 0
0 0
0 0
0 0
0 0
0 0
0 0
0 0
0 0
0 0
0 0
0 0
0 0
0 0
0 0
0 0
0 0
0 0
0 0
0 0
0 0
0 0
0 0
0 0
0 0
0 0
0 0
0 0
0 0
0 0
0 0
0 0
0 0
0 0
0 0
0 0
0 0
0 0
0 0
0 0
0 0
0 0
0 0
0 0
0 0
0 0
0 0
0 0
0 0
0 0
0 0
0 0
0 0
0 0
0 0
0 0
0 0
0 0
0 0
0 0
0 0
0 0
0 0
0 0
0 0
0 0
0 0
0 0
0 0
0 0
0 0
0 0
0 0
0 0
0 0
0 0
0 0
0 0
0 0
0 0
0 0
0 0
0 0
0 0
0 0
0 0
0 0
0 0
0 0
0 0
0 0
0 0
0 0
0 0
0 0
0 0
0 0
0 0
0 0
0 0
0 0
0 0
0 0
0 0
0 0
0 0
0 0
0 0
0 0
0 0
0 0
0 0
0 0
0 0
0 0
0 0
0 0
0 0
0 0
0 0
0 0
0 0
0 0
0 0
0 0
0 0
0 0
0 0
0 0
0 0
0 0
0 0
0 0
0 0
0 0
0 0
0 0
0 0
0 0
0 0
0 0
0 0
0 0
0 0
0 0
0 0
0 0
0 0
0 0
0 0
0 0
0 0
0 0
0 0
0 0
0 0
0 0
0 0
0 0
0 0
0 0
0 0
0 0
0 0
0 0
0 0
0 0
0 0
0 0
0 0
0 0
0 0
0 0
0 0
0 0
0 0
0 0
0 0
0 0
0 0
0 0
0 0
0 0
0 0
0 0
0 0
0 0
0 0
0 0
0 0
0 0
0 0
0 0
0 0
0 0
0 0
0 0
0 0
0 0
0 0
0 0
0 0
0 0
0 0
0 0
0 0
0 0
0 0
0 0
0 0
0 0
0 0
0 0
0 0
0 0
0 0
0 0
0 0
0 0
0 0
0 0
0 0
0 0
0 0
0 0
0 0
0 0
0 0
0 0
0 0
0 0
0 0
0 0
0 0
0 0
0 0
0 0
0 0
0 0
0 0
0 0
0 0
0 0
0 0
0 0
0 0
0 0
0 0
0 0
0 0
0 0
0 0
0 0
0 0
0 0
0 0
0 0
0 0
0 0
0 0
0 0
0 0
0 0
0 0
0 0
0 0
0 0
0 0
0 0
0 0
0 0
0 0
0 0
0 0
0 0
0 0
0 0
0 0
0 0
0 0
0 0
0 0
0 0
0 0
0 0
0 0
0 0
0 0
0 0
0 0
0 0
0 0
0 0
0 0
0 0
0 0
0 0
0 0
0 0
0 0
0 0
0 0
0 0
0 0
0 0
0 0
0 0
0 0
0 0
0 0
0 0
0 0
0 0
0 0
0 0
0 0
0 0
0 0
0 0
0 0
0 0
0 0
0 0
0 0
0 0
0 0
0 0
0 0
0 0
0 0
0 0
0 0
0 0
0 0
0 0
0 0
0 0
0 0
0 0
0 0
0 0
0 0
0 0
0 0
0 0
0 0
0 0
0 0
0 0
0 0
0 0
0 0
0 0
0 0
0 0
0 0
0 0
0 0
0 0
0 0
0 0
0 0
0 0
0 0
0 0
0 0
0 0
0 0
0 0
0 0
0 0
0 0
0 0
0 0
0 0
0 0
0 0
0 0
0 0
0 0
0 0
0 0
0 0
0 0
0 0
0 0
0 0
0 0
0 0
0 0
0 0
0 0
0 0
0 0
0 0
0 0
0 0
0 0
0 0
0 0
0 0
0 0
0 0
0 0
0 0
0 0
0 0
0 0
0 0
0 0
0 0
0 0
0 0
0 0
0 0
0 0
0 0
0 0
0 0
0 0
0 0
0 0
0 0
0 0
0 0
0 0
0 0
0 0
0 0
0 0
0 0
0 0
0 0
0 0
0 0
0 0
0 0
0 0
0 0
0 0
0 0
0 0
0 0
0 0
0 0
0 0
0 0
0 0
0 0
0 0
0 0
0 0
0 0
0 0
0 0
0 0
0 0
0 0
0 0
0 0
0 0
0 0
0 0
0 0
0 0
0 0
0 0
0 0
0 0
0 0
0 0
0 0
0 0
0 0
0 0
0 0
0 0
0 0
0 0
0 0
0 0
0 0
0 0
0 0
0 0
0 0
0 0
0 0
0 0
0 0
0 0
0 0
0 0
0 0
0 0
0 0
0 0
0 0
0 0
0 0
0 0
0 0
0 0
0 0
0 0
0 0
0 0
0 0
0 0
0 0
0 0
0 0
0 0
0 0
0 0
0 0
0 0
0 0
0 0
0 0
0 0
0 0
0 0
0 0
0 0
0 0
0 0
0 0
0 0
0 0
0 0
0 0
0 0
0 0
0 0
0 0
0 0
0 0
0 0
0 0
0 0
0 0
0 0
0 0
0 0
0 0
0 0
0 0
0 0
0 0
0 0
0 0
0 0
0 0
0 0
0 0
0 0
0 0
0 0
0 0
0 0
0 0
0 0
0 0
0 0
0 0
0 0
0 0
0 0
0 0
0 0
0 0
0 0
0 0
0 0
0 0
0 0
0 0
0 0
0 0
0 0
0 0
0 0
0 0
0 0
0 0
0 0
0 0
0 0
0 0
0 0
0 0
0 0
0 0
0 0
0 0
0 0
0 0
0 0
0 0
0 0
0 0
0 0
0 0
0 0
0 0
0 0
0 0
0 0
0 0
0 0
0 0
0 0
0 0
0 0
0 0
0 0
0 0
0 0
0 0
0 0
0 0
0 0
0 0
0 0
0 0
0 0
0 0
0 0
0 0
0 0
0 0
0 0
0 0
0 0
0 0
0 0
0 0
0 0
0 0
0 0
0 0
0 0
0 0
0 0
0 0
0 0
0 0
0 0
0 0
0 0
0 0
0 0
0 0
0 0
0 0
0 0
0 0
0 0
0 0
0 0
0 0
0 0
0 0
0 0
0 0
0 0
0 0
0 0
0 0
0 0
0 0
0 0
0 0
0 0
0 0
0 0
0 0
0 0
0 0
0 0
0 0
0 0
0 0
0 0
0 0
0 0
0 0
0 0
0 0
0 0
0 0
0 0
0 0
0 0
0 0
0 0
0 0
0 0
0 0
0 0
0 0
0 0
0 0
0 0
0 0
0 0
0 0
0 0
0 0
0 0
0 0
0 0
0 0
0 0
0 0
0 0
0 0
0 0
0 0
0 0
0 0
0 0
0 0
0 0
0 0
0 0
0 0
0 0
0 0
0 0
0 0
0 0
0 0
0 0
0 0
0 0
0 0
0 0
0 0
0 0
0 0
0 0
0 0
0 0
0 0
0 0
0 0
0 0
0 0
0 0
0 0
0 0
0 0
0 0
0 0
0 0
0 0
0 0
0 0
0 0
0 0
0 0
0 0
0 0
0 0
0 0
0 0
0 0
0 0
0 0
0 0
0 0
0 0
0 0
0 0
0 0
0 0
0 0
0 0
0 0
0 0
0 0
0 0
0 0
0 0
0 0
0 0
0 0
0 0
0 0
0 0
0 0
0 0
0 0
0 0
0 0
0 0
0 0
0 0
0 0
0 0
0 0
0 0
0 0
0 0
0 0
0 0
0 0
0 0
0 0
0 0
0 0
0 0
0 0
0 0
0 0
0 0
0 0
0 0
0 0
0 0
0 0
0 0
0 0
0 0
0 0
0 0
0 0
0 0
0 0
0 0
0 0
0 0
0 0
0 0
0 0
0 0
0 0
0 0
0 0
0 0
0 0
0 0
0 0
0 0
0 0
0 0
0 0
0 0
0 0
0 0
0 0
0 0
0 0
0 0
0 0
0 0
0 0
0 0
0 0
0 0
0 0
0 0
0 0
0 0
0 0
0 0
0 0
0 0
0 0
0 0
0 0
0 0
0 0
0 0
0 0
0 0
0 0
0 0
0 0
0 0
0 0
0 0
0 0
0 0
0 0
0 0
0 0
0 0
0 0
0 0
0 0
0 0
0 0
0 0
0 0
0 0
0 0
0 0
0 0
0 0
0 0
0 0
0 0
0 0
0 0
0 0
0 0
0 0
0 0
0 0
0 0
0 0
0 0
0 0
0 0
0 0
0 0
0 0
0 0
0 0
0 0
0 0
0 0
0 0
0 0
0 0
0 0
0 0
0 0
0 0
0 0
0 0
0 0
0 0
0 0
0 0
0 0
0 0
0 0
0 0
0 0
0 0
0 0
0 0
0 0
0 0
0 0
0 0
0 0
0 0
0 0
0 0
0 0
0 0
0 0
0 0
0 0
0 0
0 0
0 0
0 0
0 0
0 0
0 0
0 0
0 0
0 0
0 0
0 0
0 0
0 0
0 0
0 0
0 0
0 0
0 0
0 0
0 0
0 0
0 0
0 0
0 0
0 0
0 0
0 0
0 0
0 0
0 0
0 0
0 0
0 0
0 0
0 0
0 0
0 0
0 0
0 0
0 0
0 0
0 0
0 0
0 0
0 0
0 0
0 0
0 0
0 0
0 0
0 0
0 0
0 0
0 0
0 0
0 0
0 0
0 0
0 0
0 0
0 0
0 0
0 0
0 0
0 0
0 0
0 0
0 0
0 0
0 0
0 0
0 0
0 0
0 0
0 0
0 0
0 0
0 0
0 0
0 0
0 0
0 0
0 0
0 0
0 0
0 0
0 0
0 0
0 0
0 0
0 0
0 0
0 0
0 0
0 0
0 0
0 0
0 0
0 0
0 0
0 0
0 0
0 0
0 0
0 0
0 0
0 0
0 0
0 0
0 0
0 0
0 0
0 0
0 0
0 0
0 0
0 0
0 0
0 0
0 0
0 0
0 0
0 0
0 0
0 0
0 0
0 0
0 0
0 0
0 0
0 0
0 0
0 0
0 0
0 0
0 0
0 0
0 0
0 0
0 0
0 0
0 0
0 0
0 0
0 0
0 0
0 0
0 0
0 0
0 0
0 0
0 0
0 0
0 0
0 0
0 0
0 0
0 0
0 0
0 0
0 0
0 0
0 0
0 0
0 0
0 0
0 0
0 0
0 0
0 0
0 0
0 0
0 0
0 0
0 0
0 0
0 0
0 0
0 0
0 0
0 0
0 0
0 0
0 0
0 0
0 0
0 0
0 0
0 0
0 0
0 0
0 0
0 0
0 0
0 0
0 0
0 0
0 0
0 0
0 0
0 0
0 0
0 0
0 0
0 0
0 0
0 0
0 0
0 0
0 0
0 0
0 0
0 0
0 0
0 0
0 0
0 0
0 0
0 0
0 0
0 0
0 0
0 0
0 0
0 0
0 0
0 0
0 0
0 0
0 0
0 0
0 0
0 0
0 0
0 0
0 0
0 0
0 0
0 0
0 0
0 0
0 0
0 0
0 0
0 0
0 0
0 0
0 0
0 0
0 0
0 0
0 0
0 0
0 0
0 0
0 0
0 0
0 0
0 0
0 0
0 0
0 0
0 0
0 0
0 0
0 0
0 0
0 0
0 0
0 0
0 0
0 0
0 0
0 0
0 0
0 0
0 0
0 0
0 0
0 0
0 0
0 0
0 0
0 0
0 0
0 0
0 0
0 0
0 0
0 0
0 0
0 0
0 0
0 0
0 0
0 0
0 0
0 0
0 0
0 0
0 0
0 0
0 0
0 0
0 0
0 0
0 0
0 0
0 0
0 0
0 0
0 0
0 0
0 0
0 0
0 0
0 0
0 0
0 0
0 0
0 0
0 0
0 0
0 0
0 0
0 0
0 0
0 0
0 0
0 0
0 0
0 0
0 0
0 0
0 0
0 0
0 0
0 0
0 0
0 0
0 0
0 0
0 0
0 0
0 0
0 0
0 0
0 0
0 0
0 0
0 0
0 0
0 0
0 0
0 0
0 0
0 0
0 0
0 0
0 0
0 0
0 0
0 0
0 0
0 0
0 0
0 0
0 0
0 0
0 0
0 0
0 0
0 0
0 0
0 0
0 0
0 0
0 0
0 0
0 0
0 0
0 0
0 0
0 0
0 0
0 0
0 0
0 0
0 0
0 0
0 0
0 0
0 0
0 0
0 0
0 0
0 0
0 0
0 0
0 0
0 0
0 0
0 0
0 0
0 0
0 0
0 0
0 0
0 0
0 0
0 0
0 0
0 0
0 0
0 0
0 0
0 0
0 0
0 0
0 0
0 0
0 0
0 0
0 0
0 0
0 0
0 0
0 0
0 0
0 0
0 0
0 0
0 0
0 0
0 0
0 0
0 0
0 0
0 0
0 0
0 0
0 0
0 0
0 0
0 0
0 0
0 0
0 0
0 0
0 0
0 0
0 0
0 0
0 0
0 0
0 0
0 0
0 0
0 0
0 0
0 0
0 0
0 0
0 0
0 0
0 0
0 0
0 0
0 0
0 0
0 0
0 0
0 0
0 0
0 0
0 0
0 0
0 0
0 0
0 0
0 0
0 0
0 0
0 0
0 0
0 0
0 0
0 0
0 0
0 0
0 0
0 0
0 0
0 0
0 0
0 0
0 0
0 0
0 0
0 0
0 0
0 0
0 0
0 0
0 0
0 0
0 0
0 0
0 0
0 0
0 0
0 0
0 0
0 0
0 0
0 0
0 0
0 0
0 0
0 0
0 0
0 0
0 0
0 0
0 0
0 0
0 0
0 0
0 0
0 0
0 0
0 0
0 0
0 0
0 0
0 0
0 0
0 0
0 0
0 0
0 0
0 0
0 0
0 0
0 0
0 0
0 0
0 0
0 0
0 0
0 0
0 0
0 0
0 0
0 0
0 0
0 0
0 0
0 0
0 0
0 0
0 0
0 0
0 0
0 0
0 0
0 0
0 0
0 0
0 0
0 0
0 0
0 0
0 0
0 0
0 0
0 0
0 0
0 0
0 0
0 0
0 0
0 0
0 0
0 0
0 0
0 0
0 0
0 0
0 0
0 0
0 0
0 0
0 0
0 0
0 0
0 0
0 0
0 0
0 0
0 0
0 0
0 0
0 0
0 0
0 0
0 0
0 0
0 0
0 0
0 0
0 0
0 0
0 0
0 0
0 0
0 0
0 0
0 0
0 0
0 0
0 0
0 0
0 0
0 0
0 0
0 0
0 0
0 0
0 0
0 0
0 0
0 0
0 0
0 0
0 0
0 0
0 0
0 0
0 0
0 0
0 0
0 0
0 0
0 0
0 0
0 0
0 0
0 0
0 0
0 0
0 0
0 0
0 0
0 0
0 0
0 0
0 0
0 0
0 0
0 0
0 0
0 0
0 0
0 0
0 0
0 0
0 0
0 0
0 0
0 0
0 0
0 0
0 0
0 0
0 0
0 0
0 0
0 0
0 0
0 0
0 0
0 0
0 0
0 0
0 0
0 0
0 0
0 0
0 0
0 0
0 0
0 0
0 0
0 0
0 0
0 0
0 0
0 0
0 0
0 0
0 0
0 0
0 0
0 0
0 0
0 0
0 0
0 0
0 0
0 0
0 0
0 0
0 0
0 0
0 0
0 0
0 0
0 0
0 0
0 0
0 0
0 0
0 0
0 0
0 0
0 0
0 0
0 0
0 0
0 0
0 0
0 0
0 0
0 0
0 0
0 0
0 0
0 0
0 0
0 0
0 0
0 0
0 0
0 0
0 0
0 0
0 0
0 0
0 0
0 0
0 0
0 0
0 0
0 0
0 0
0 0
0 0
0 0
0 0
0 0
0 0
0 0
0 0
0 0
0 0
0 0
0 0
0 0
0 0
0 0
0 0
0 0
0 0
0 0
0 0
0 0
0 0
0 0
0 0
0 0
0 0
0 0
0 0
0 0
0 0
0 0
0 0
0 0
0 0
0 0
0 0
0 0
0 0
0 0
0 0
0 0
0 0
0 0
0 0
0 0
0 0
0 0
0 0
0 0
0 0
0 0
0 0
0 0
0 0
0 0
0 0
0 0
0 0
0 0
0 0
0 0
0 0
0 0
0 0
0 0
0 0
0 0
0 0
0 0
0 0
0 0
0 0
0 0
0 0
0 0
0 0
0 0
0 0
0 0
0 0
0 0
0 0
0 0
0 0
0 0
0 0
0 0
0 0
0 0
0 0
0 0
0 0
0 0
0 0
0 0
0 0
0 0
0 0
0 0
0 0
0 0
0 0
0 0
0 0
0 0
0 0
0 0
0 0
0 0
0 0
0 0
0 0
0 0
0 0
0 0
0 0
0 0
0 0
0 0
0 0
0 0
0 0
0 0
0 0
0 0
0 0
0 0
0 0
0 0
0 0
0 0
0 0
0 0
0 0
0 0
0 0
0 0
0 0
0 0
0 0
0 0
0 0
0 0
0 0
0 0
0 0
0 0
0 0
0 0
0 0
0 0
0 0
0 0
0 0
0 0
0 0
0 0
0 0
0 0
0 0
0 0
0 0
0 0
0 0
0 0
0 0
0 0
0 0
0 0
0 0
0 0
0 0
0 0
0 0
0 0
0 0
0 0
0 0
0 0
0 0
0 0
0 0
0 0
0 0
0 0
0 0
0 0
0 0
0 0
0 0
0 0
0 0
0 0
0 0
0 0
0 0
0 0
0 0
0 0
0 0
0 0
0 0
0 0
0 0
0 0
0 0
0 0
0 0
0 0
0 0
0 0
0 0
0 0
0 0
0 0
0 0
0 0
0 0
0 0
0 0
0 0
0 0
0 0
0 0
0 0
0 0
0 0
0 0
0 0
0 0
0 0
0 0
0 0
0 0
0 0
0 0
0 0
0 0
0 0
0 0
0 0
0 0
0 0
0 0
0 0
0 0
0 0
0 0
0 0
0 0
0 0
0 0
0 0
0 0
0 0
0 0
0 0
0 0
0 0
0 0
0 0
0 0
0 0
0 0
0 0
0 0
0 0
0 0
0 0
0 0
0 0
0 0
0 0
0 0
0 0
0 0
0 0
0 0
0 0
0 0
0 0
0 0
0 0
0 0
0 0
0 0
0 0
0 0
0 0
0 0
0 0
0 0
0 0
0 0
0 0
0 0
0 0
0 0
0 0
0 0
0 0
0 0
0 0
0 0
0 0
0 0
0 0
0 0
0 0
0 0
0 0
0 0
0 0
0 0
0 0
0 0
0 0
0 0
0 0
0 0
0 0
0 0
0 0
0 0
0 0
0 0
0 0
0 0
0 0
0 0
0 0
0 0
0 0
0 0
0 0
0 0
0 0
0 0
0 0
0 0
0 0
0 0
0 0
0 0
0 0
0 0
0 0
0 0
0 0
0 0
0 0
0 0
0 0
0 0
0 0
0 0
0 0
0 0
0 0
0 0
0 0
0 0
0 0
0 0
0 0
0 0
0 0
0 0
0 0
0 0
0 0
0 0
0 0
0 0
0 0
0 0
0 0
0 0
0 0
0 0
0 0
0 0
0 0
0 0
0 0
0 0
0 0
0 0
0 0
0 0
0 0
0 0
0 0
0 0
0 0
0 0
0 0
0 0
0 0
0 0
0 0
0 0
0 0
0 0
0 0
0 0
0 0
0 0
0 0
0 0
0 0
0 0
0 0
0 0
0 0
0 0
0 0
0 0
0 0
0 0
0 0
0 0
0 0
0 0
0 0
0 0
0 0
0 0
0 0
0 0
0 0
0 0
0 0
0 0
0 0
0 0
0 0
0 0
0 0
0 0
0 0
0 0
0 0
0 0
0 0
0 0
0 0
0 0
0 0
0 0
0 0
0 0
0 0
0 0
0 0
0 0
0 0
0 0
0 0
0 0
0 0
0 0
0 0
0 0
0 0
0 0
0 0
0 0
0 0
0 0
0 0
0 0
0 0
0 0
0 0
0 0
0 0
0 0
0 0
0 0
0 0
0 0
0 0
0 0
0 0
0 0
0 0
0 0
0 0
0 0
0 0
0 0
0 0
0 0
0 0
0 0
0 0
0 0
0 0
0 0
0 0
0 0
0 0
0 0
0 0
0 0
0 0
0 0
0 0
0 0
0 0
0 0
0 0
0 0
0 0
0 0
0 0
0 0
0 0
0 0
0 0
0 0
0 0
0 0
0 0
0 0
0 0
0 0
0 0
0 0
0 0
0 0
0 0
0 0
0 0
0 0
0 0
0 0
0 0
0 0
0 0
0 0
0 0
0 0
0 0
0 0
0 0
0 0
0 0
0 0
0 0
0 0
0 0
0 0
0 0
0 0
0 0
0 0
0 0
0 0
0 0
0 0
0 0
0 0
0 0
0 0
0 0
0 0
0 0
0 0
0 0
0 0
0 0
0 0
0 0
0 0
0 0
0 0
0 0
0 0
0 0
0 0
0 0
0 0
0 0
0 0
0 0
0 0
0 0
0 0
0 0
0 0
0 0
0 0
0 0
0 0
0 0
0 0
0 0
0 0
0 0
0 0
0 0
0 0
0 0
0 0
0 0
0 0
0 0
0 0
0 0
0 0
0 0
0 0
0 0
0 0
0 0
0 0
0 0
0 0
0 0
0 0
0 0
0 0
0 0
0 0
0 0
0 0
0 0
0 0
0 0
0 0
0 0
0 0
0 0
0 0
0 0
0 0
0 0
0 0
0 0
0 0
0 0
0 0
0 0
0 0
0 0
0 0
0 0
0 0
0 0
0 0
0 0
0 0
0 0
0 0
0 0
0 0
0 0
0 0
0 0
0 0
0 0
0 0
0 0
0 0
0 0
0 0
0 0
0 0
0 0
0 0
0 0
0 0
0 0
0 0
0 0
0 0
0 0
0 0
0 0
0 0
0 0
0 0
0 0
0 0
0 0
0 0
0 0
0 0
0 0
0 0
0 0
0 0
0 0
0 0
0 0
0 0
0 0
0 0
0 0
0 0
0 0
0 0
0 0
0 0
0 0
0 0
0 0
0 0
0 0
0 0
0 0
0 0
0 0
0 0
0 0
0 0
0 0
0 0
0 0
0 0
0 0
0 0
0 0
0 0
0 0
0 0
0 0
0 0
0 0
0 0
0 0
0 0
0 0
0 0
0 0
0 0
0 0
0 0
0 0
0 0
0 0
0 0
0 0
0 0
0 0
0 0
0 0
0 0
0 0
0 0
0 0
0 0
0 0
0 0
0 0
0 0
0 0
0 0
0 0
0 0
0 0
0 0
0 0
0 0
0 0
0 0
0 0
0 0
0 0
0 0
0 0
0 0
0 0
0 0
0 0
0 0
0 0
0 0
0 0
0 0
0 0
0 0
0 0
0 0
0 0
0 0
0 0
0 0
0 0
0 0
0 0
0 0
0 0
0 0
0 0
0 0
0 0
0 0
0 0
0 0
0 0
0 0
0 0
0 0
0 0
0 0
0 0
0 0
0 0
0 0
0 0
0 0
0 0
0 0
0 0
0 0
0 0
0 0
0 0
0 0
0 0
0 0
0 0
0 0
0 0
0 0
0 0
0 0
0 0
0 0
0 0
0 0
0 0
0 0
0 0
0 0
0 0
0 0
0 0
0 0
0 0
0 0
0 0
0 0
0 0
0 0
0 0
0 0
0 0
0 0
0 0
0 0
0 0
0 0
0 0
0 0
0 0
0 0
0 0
0 0
0 0
0 0
0 0
0 0
0 0
0 0
0 0
0 0
0 0
0 0
0 0
0 0
0 0
0 0
0 0
0 0
0 0
0 0
0 0
0 0
0 0
0 0
0 0
0 0
0 0
0 0
0 0
0 0
0 0
0 0
0 0
0 0
0 0
0 0
0 0
0 0
0 0
0 0
0 0
0 0
0 0
0 0
0 0
0 0
0 0
0 0
0 0
0 0
0 0
0 0
0 0
0 0
0 0
0 0
0 0
0 0
0 0
0 0
0 0
0 0
0 0
0 0
0 0
0 0
0 0
0 0
0 0
0 0
0 0
0 0
0 0
0 0
0 0
0 0
0 0
0 0
0 0
0 0
0 0
0 0
0 0
0 0
0 0
0 0
0 0
0 0
0 0
0 0
0 0
0 0
0 0
0 0
0 0
0 0
0 0
0 0
0 0
0 0
0 0
0 0
0 0
0 0
0 0
0 0
0 0
0 0
0 0
0 0
0 0
0 0
0 0
0 0
0 0
0 0
0 0
0 0
0 0
0 0
0 0
0 0
0 0
0 0
0 0
0 0
0 0
0 0
0 0
0 0
0 0
0 0
0 0
0 0
0 0
0 0
0 0
0 0
0 0
0 0
0 0
0 0
0 0
0 0
0 0
0 0
0 0
0 0
0 0
0 0
0 0
0 0
0 0
0 0
0 0
0 0
0 0
0 0
0 0
0 0
0 0
0 0
0 0
0 0
0 0
0 0
0 0
0 0
0 0
0 0
0 0
0 0
0 0
0 0
0 0
0 0
0 0
0 0
0 0
0 0
0 0
0 0
0 0
0 0
0 0
0 0
0 0
0 0
0 0
0 0
0 0
0 0
0 0
0 0
0 0
0 0
0 0
0 0
0 0
0 0
0 0
0 0
0 0
0 0
0 0
0 0
0 0
0 0
0 0
0 0
0 0
0 0
0 0
0 0
0 0
0 0
0 0
0 0
0 0
0 0
0 0
0 0
0 0
0 0
0 0
0 0
0 0
0 0
0 0
0 0
0 0
0 0
0 0
0 0
0 0
0 0
0 0
0 0
0 0
0 0
0 0
0 0
0 0
0 0
0 0
0 0
0 0
0 0
0 0
0 0
0 0
0 0
0 0
0 0
0 0
0 0
0 0
0 0
0 0
0 0
0 0
0 0
0 0
0 0
0 0
0 0
0 0
0 0
0 0
0 0
0 0
0 0
0 0
0 0
0 0
0 0
0 0
0 0
0 0
0 0
0 0
0 0
0 0
0 0
0 0
0 0
0 0
0 0
0 0
0 0
0 0
0 0
0 0
0 0
0 0
0 0
0 0
0 0
0 0
0 0
0 0
0 0
0 0
0 0
0 0
0 0
0 0
0 0
0 0
0 0
0 0
0 0
0 0
0 0
0 0
0 0
0 0
0 0
0 0
0 0
0 0
0 0
0 0
0 0
0 0
0 0
0 0
0 0
0 0
0 0
0 0
0 0
0 0
0 0
0 0
0 0
0 0
0 0
0 0
0 0
0 0
0 0
0 0
0 0
0 0
0 0
0 0
0 0
0 0
0 0
0 0
0 0
0 0
0 0
0 0
0 0
0 0
0 0
0 0
0 0
0 0
0 0
0 0
0 0
0 0
0 0
0 0
0 0
0 0
0 0
0 0
0 0
0 0
0 0
0 0
0 0
0 0
0 0
0 0
0 0
0 0
0 0
0 0
0 0
0 0
0 0
0 0
0 0
0 0
0 0
0 0
0 0
0 0
0 0
0 0
0 0
0 0
0 0
0 0
0 0
0 0
0 0
0 0
0 0
0 0
0 0
0 0
0 0
0 0
0 0
0 0
0 0
0 0
0 0
0 0
0 0
0 0
0 0
0 0
0 0
0 0
0 0
0 0
0 0
0 0
0 0
0 0
0 0
0 0
0 0
0 0
0 0
0 0
0 0
0 0
0 0
0 0
0 0
0 0
0 0
0 0
0 0
0 0
0 0
0 0
0 0
0 0
0 0
0 0
0 0
0 0
0 0
0 0
0 0
0 0
0 0
0 0
0 0
0 0
0 0
0 0
0 0
0 0
0 0
0 0
0 0
0 0
0 0
0 0
0 0
0 0
0 0
0 0
0 0
0 0
0 0
0 0
0 0
0 0
0 0
0 0
0 0
0 0
0 0
0 0
0 0
0 0
0 0
0 0
0 0
0 0
0 0
0 0
0 0
0 0
0 0
0 0
0 0
0 0
0 0
0 0
0 0
0 0
0 0
0 0
0 0
0 0
0 0
0 0
0 0
0 0
0 0
0 0
0 0
0 0
0 0
0 0
0 0
0 0
0 0
0 0
0 0
0 0
0 0
0 0
0 0
0 0
0 0
0 0
0 0
0 0
0 0
0 0
0 0
0 0
0 0
0 0
0 0
0 0
0 0
0 0
0 0
0 0
0 0
0 0
0 0
0 0
0 0
0 0
0 0
0 0
0 0
0 0
0 0
0 0
0 0
0 0
0 0
0 0
0 0
0 0
0 0
0 0
0 0
0 0
0 0
0 0
0 0
0 0
0 0
0 0
0 0
0 0
0 0
0 0
0 0
0 0
0 0
0 0
0 0
0 0
0 0
0 0
0 0
0 0
0 0
0 0
0 0
0 0
0 0
0 0
0 0
0 0
0 0
0 0
0 0
0 0
0 0
0 0
0 0
0 0
0 0
0 0
0 0
0 0
0 0
0 0
0 0
0 0
0 0
0 0
0 0
0 0
0 0
0 0
0 0
0 0
0 0
0 0
0 0
0 0
0 0
0 0
0 0
0 0
0 0
0 0
0 0
0 0
0 0
0 0
0 0
0 0
0 0
0 0
0 0
0 0
0 0
0 0
0 0
0 0
0 0
0 0
0 0
0 0
0 0
0 0
0 0
0 0
0 0
0 0
0 0
0 0
0 0
0 0
0 0
0 0
0 0
0 0
0 0
0 0
0 0
0 0
0 0
0 0
0 0
0 0
0 0
0 0
0 0
0 0
0 0
0 0
0 0
0 0
0 0
0 0
0 0
0 0
0 0
0 0
0 0
0 0
0 0
0 0
0 0
0 0
0 0
0 0
0 0
0 0
0 0
0 0
0 0
0 0
0 0
0 0
0 0
0 0
0 0
0 0
0 0
0 0
0 0
0 0
0 0
0 0
0 0
0 0
0 0
0 0
0 0
0 0
0 0
0 0
0 0
0 0
0 0
0 0
0 0
0 0
0 0
0 0
0 0
0 0
0 0
0 0
0 0
0 0
0 0
0 0
0 0
0 0
0 0
0 0
0 0
0 0
0 0
0 0
0 0
0 0
0 0
0 0
0 0
0 0
0 0
0 0
0 0
0 0
0 0
0 0
0 0
0 0
0 0
0 0
0 0
0 0
0 0
0 0
0 0
0 0
0 0
0 0
0 0
0 0
0 0
0 0
0 0
0 0
0 0
0 0
0 0
0 0
0 0
0 0
0 0
0 0
0 0
0 0
0 0
0 0
0 0
0 0
0 0
0 0
0 0
0 0
0 0
0 0
0 0
0 0
0 0
0 0
0 0
0 0
0 0
0 0
0 0
0 0
0 0
0 0
0 0
0 0
0 0
0 0
0 0
0 0
0 0
0 0
0 0
0 0
0 0
0 0
0 0
0 0
0 0
0 0
0 0
0 0
0 0
0 0
0 0
0 0
0 0
0 0
0 0
0 0
0 0
0 0
0 0
0 0
0 0
0 0
0 0
0 0
0 0
0 0
0 0
0 0
0 0
0 0
0 0
0 0
0 0
0 0
0 0
0 0
0 0
0 0
0 0
0 0
0 0
0 0
0 0
0 0
0 0
0 0
0 0
0 0
0 0
0 0
0 0
0 0
0 0
0 0
0 0
0 0
0 0
0 0
0 0
0 0
0 0
0 0
0 0
0 0
0 0
0 0
0 0
0 0
0 0
0 0
0 0
0 0
0 0
0 0
0 0
0 0
0 0
0 0
0 0
0 0
0 0
0 0
0 0
0 0
0 0
0 0
0 0
0 0
0 0
0 0
0 0
0 0
0 0
0 0
0 0
0 0
0 0
0 0
0 0
0 0
0 0
0 0
0 0
0 0
0 0
0 0
0 0
0 0
0 0
0 0
0 0
0 0
0 0
0 0
0 0
0 0
0 0
0 0
0 0
0 0
0 0
0 0
0 0
0 0
0 0
0 0
0 0
0 0
0 0
0 0
0 0
0 0
0 0
0 0
0 0
0 0
0 0
0 0
0 0
0 0
0 0
0 0
0 0
0 0
0 0
0 0
0 0
0 0
0 0
0 0
0 0
0 0
0 0
0 0
0 0
0 0
0 0
0 0
0 0
0 0
0 0
0 0
0 0
0 0
0 0
0 0
0 0
0 0
0 0
0 0
0 0
0 0
0 0
0 0
0 0
0 0
0 0
0 0
0 0
0 0
0 0
0 0
0 0
0 0
0 0
0 0
0 0
0 0
0 0
0 0
0 0
0 0
0 0
0 0
0 0
0 0
0 0
0 0
0 0
0 0
0 0
0 0
0 0
0 0
0 0
0 0
0 0
0 0
0 0
0 0
0 0
0 0
0 0
0 0
0 0
0 0
0 0
0 0
0 0
0 0
0 0
0 0
0 0
0 0
0 0
0 0
0 0
0 0
0 0
0 0
0 0
0 0
0 0
0 0
0 0
0 0
0 0
0 0
0 0
0 0
0 0
0 0
0 0
0 0
0 0
0 0
0 0
0 0
0 0
0 0
0 0
0 0
0 0
0 0
0 0
0 0
0 0
0 0
0 0
0 0
0 0
0 0
0 0
0 0
0 0
0 0
0 0
0 0
0 0
0 0
0 0
0 0
0 0
0 0
0 0
0 0
0 0
0 0
0 0
0 0
0 0
0 0
0 0
0 0
0 0
0 0
0 0
0 0
0 0
0 0
0 0
0 0
0 0
0 0
0 0
0 0
0 0
0 0
0 0
0 0
0 0
0 0
0 0
0 0
0 0
0 0
0 0
0 0
0 0
0 0
0 0
0 0
0 0
0 0
0 0
0 0
0 0
0 0
0 0
0 0
0 0
0 0
0 0
0 0
0 0
0 0
0 0
0 0
0 0
0 0
0 0
0 0
0 0
0 0
0 0
0 0
0 0
0 0
0 0
0 0
0 0
0 0
0 0
0 0
0 0
0 0
0 0
0 0
0 0
0 0
0 0
0 0
0 0
0 0
0 0
0 0
0 0
0 0
0 0
0 0
0 0
0 0
0 0
0 0
0 0
0 0
0 0
0 0
0 0
0 0
0 0
0 0
0 0
0 0
0 0
0 0
0 0
0 0
0 0
0 0
0 0
0 0
0 0
0 0
0 0
0 0
0 0
0 0
0 0
0 0
0 0
0 0
0 0
0 0
0 0
0 0
0 0
0 0
0 0
0 0
0 0
0 0
0 0
0 0
0 0
0 0
0 0
0 0
0 0
0 0
0 0
0 0
0 0
0 0
0 0
0 0
0 0
0 0
0 0
0 0
0 0
0 0
0 0
0 0
0 0
0 0
0 0
0 0
0 0
0 0
0 0
0 0
0 0
0 0
0 0
0 0
0 0
0 0
0 0
0 0
0 0
0 0
0 0
0 0
0 0
0 0
0 0
0 0
0 0
0 0
0 0
0 0
0 0
0 0
0 0
0 0
0 0
0 0
0 0
0 0
0 0
0 0
0 0
0 0
0 0
0 0
0 0
0 0
0 0
0 0
0 0
0 0
0 0
0 0
0 0
0 0
0 0
0 0
0 0
0 0
0 0
0 0
0 0
0 0
0 0
0 0
0 0
0 0
0 0
0 0
0 0
0 0
0 0
0 0
0 0
0 0
0 0
0 0
0 0
0 0
0 0
0 0
0 0
0 0
0 0
0 0
0 0
0 0
0 0
0 0
0 0
0 0
0 0
0 0
0 0
0 0
0 0
0 0
0 0
0 0
0 0
0 0
0 0
0 0
0 0
0 0
0 0
0 0
0 0
0 0
0 0
0 0
0 0
0 0
0 0
0 0
0 0
0 0
0 0
0 0
0 0
0 0
0 0
0 0
0 0
0 0
0 0
0 0
0 0
0 0
0 0
0 0
0 0
0 0
0 0
0 0
0 0
0 0
0 0
0 0
0 0
0 0
0 0
0 0
0 0
0 0
0 0
0 0
0 0
0 0
0 0
0 0
0 0
0 0
0 0
0 0
0 0
0 0
0 0
0 0
0 0
0 0
0 0
0 0
0 0
0 0
0 0
0 0
0 0
0 0
0 0
0 0
0 0
0 0
0 0
0 0
0 0
0 0
0 0
0 0
0 0
0 0
0 0
0 0
0 0
0 0
0 0
0 0
0 0
0 0
0 0
0 0
0 0
0 0
0 0
0 0
0 0
0 0
0 0
0 0
0 0
0 0
0 0
0 0
0 0
0 0
0 0
0 0
0 0
0 0
0 0
0 0
0 0
0 0
0 0
0 0
0 0
0 0
0 0
0 0
0 0
0 0
0 0
0 0
0 0
0 0
0 0
0 0
0 0
0 0
0 0
0 0
0 0
0 0
0 0
0 0
0 0
0 0
0 0
0 0
0 0
0 0
0 0
0 0
0 0
0 0
0 0
0 0
0 0
0 0
0 0
0 0
0 0
0 0
0 0
0 0
0 0
0 0
0 0
0 0
0 0
0 0
0 0
0 0
0 0
0 0
0 0
0 0
0 0
0 0
0 0
0 0
0 0
0 0
0 0
0 0
0 0
0 0
0 0
0 0
0 0
0 0
0 0
0 0
0 0
0 0
0 0
0 0
0 0
0 0
0 0
0 0
0 0
0 0
0 0
0 0
0 0
0 0
0 0
0 0
0 0
0 0
0 0
0 0
0 0
0 0
0 0
0 0
0 0
0 0
0 0
0 0
0 0
0 0
0 0
0 0
0 0
0 0
0 0
0 0
0 0
0 0
0 0
0 0
0 0
0 0
0 0
0 0
0 0
0 0
0 0
0 0
0 0
0 0
0 0
0 0
0 0
0 0
0 0
0 0
0 0
0 0
0 0
0 0
0 0
0 0
0 0
0 0
0 0
0 0
0 0
0 0
0 0
0 0
0 0
0 0
0 0
0 0
0 0
0 0
0 0
0 0
0 0
0 0
0 0
0 0
0 0
0 0
0 0
0 0
0 0
0 0
0 0
0 0
0 0
0 0
0 0
0 0
0 0
0 0
0 0
0 0
0 0
0 0
0 0
0 0
0 0
0 0
0 0
0 0
0 0
0 0
0 0
0 0
0 0
0 0
0 0
0 0
0 0
0 0
0 0
0 0
0 0
0 0
0 0
0 0
0 0
0 0
0 0
0 0
0 0
0 0
0 0
0 0
0 0
0 0
0 0
0 0
0 0
0 0
0 0
0 0
0 0
0 0
0 0
0 0
0 0
0 0
0 0
0 0
0 0
0 0
0 0
0 0
0 0
0 0
0 0
0 0
0 0
0 0
0 0
0 0
0 0
0 0
0 0
0 0
0 0
0 0
0 0
0 0
0 0
0 0
0 0
0 0
0 0
0 0
0 0
0 0
0 0
0 0
0 0
0 0
0 0
0 0
0 0
0 0
0 0
0 0
0 0
0 0
0 0
0 0
0 0
0 0
0 0
0 0
0 0
0 0
0 0
0 0
0 0
0 0
0 0
0 0
0 0
0 0
0 0
0 0
0 0
0 0
0 0
0 0
0 0
0 0
0 0
0 0
0 0
0 0
0 0
0 0
0 0
0 0
0 0
0 0
0 0
0 0
0 0
0 0
0 0
0 0
0 0
0 0
0 0
0 0
0 0
0 0
0 0
0 0
0 0
0 0
0 0
0 0
0 0
0 0
0 0
0 0
0 0
0 0
0 0
0 0
0 0
0 0
0 0
0 0
0 0
0 0
0 0
0 0
0 0
0 0
0 0
0 0
0 0
0 0
0 0
0 0
0 0
0 0
0 0
0 0
0 0
0 0
0 0
0 0
0 0
0 0
0 0
0 0
0 0
0 0
0 0
0 0
0 0
0 0
0 0
0 0
0 0
0 0
0 0
0 0
0 0
0 0
0 0
0 0
0 0
0 0
0 0
0 0
0 0
0 0
0 0
0 0
0 0
0 0
0 0
0 0
0 0
0 0
0 0
0 0
0 0
0 0
0 0
0 0
0 0
0 0
0 0
0 0
0 0
0 0
0 0
0 0
0 0
0 0
0 0
0 0
0 0
0 0
0 0
0 0
0 0
0 0
0 0
0 0
0 0
0 0
0 0
0 0
0 0
0 0
0 0
0 0
0 0
0 0
0 0
0 0
0 0
0 0
0 0
0 0
0 0
0 0
0 0
0 0
0 0
0 0
0 0
0 0
0 0
0 0
0 0
0 0
0 0
0 0
0 0
0 0
0 0
0 0
0 0
0 0
0 0
0 0
0 0
0 0
0 0
0 0
0 0
0 0
0 0
0 0
0 0
0 0
0 0
0 0
0 0
0 0
0 0
0 0
0 0
0 0
0 0
0 0
0 0
0 0
0 0
0 0
0 0
0 0
0 0
0 0
0 0
0 0
0 0
0 0
0 0
0 0
0 0
0 0
0 0
0 0
0 0
0 0
0 0
0 0
0 0
0 0
0 0
0 0
0 0
0 0
0 0
0 0
0 0
0 0
0 0
0 0
0 0
0 0
0 0
0 0
0 0
0 0
0 0
0 0
0 0
0 0
0 0
0 0
0 0
0 0
0 0
0 0
0 0
0 0
0 0
0 0
0 0
0 0
0 0
0 0
0 0
0 0
0 0
0 0
0 0
0 0
0 0
0 0
0 0
0 0
0 0
0 0
0 0
0 0
0 0
0 0
0 0
0 0
0 0
0 0
0 0
0 0
0 0
0 0
0 0
0 0
0 0
0 0
0 0
0 0
0 0
0 0
0 0
0 0
0 0
0 0
0 0
0 0
0 0
0 0
0 0
0 0
0 0
0 0
0 0
0 0
0 0
0 0
0 0
0 0
0 0
0 0
0 0
0 0
0 0
0 0
0 0
0 0
0 0
0 0
0 0
0 0
0 0
0 0
0 0
0 0
0 0
0 0
0 0
0 0
0 0
0 0
0 0
0 0
0 0
0 0
0 0
0 0
0 0
0 0
0 0
0 0
0 0
0 0
0 0
0 0
0 0
0 0
0 0
0 0
0 0
0 0
0 0
0 0
0 0
0 0
0 0
0 0
0 0
0 0
0 0
0 0
0 0
0 0
0 0
0 0
0 0
0 0
0 0
0 0
0 0
0 0
0 0
0 0
0 0
0 0
0 0
0 0
0 0
0 0
0 0
0 0
0 0
0 0
0 0
0 0
0 0
0 0
0 0
0 0
0 0
0 0
0 0
0 0
0 0
0 0
0 0
0 0
0 0
0 0
0 0
0 0
0 0
0 0
0 0
0 0
0 0
0 0
0 0
0 0
0 0
0 0
0 0
0 0
0 0
0 0
0 0
0 0
0 0
0 0
0 0
0 0
0 0
0 0
0 0
0 0
0 0
0 0
0 0
0 0
0 0
0 0
0 0
0 0
0 0
0 0
0 0
0 0
0 0
0 0
0 0
0 0
0 0
0 0
0 0
0 0
0 0
0 0
0 0
0 0
0 0
0 0
0 0
0 0
0 0
0 0
0 0
0 0
0 0
0 0
0 0
0 0
0 0
0 0
0 0
0 0
0 0
0 0
0 0
0 0
0 0
0 0
0 0
0 0
0 0
0 0
0 0
0 0
0 0
0 0
0 0
0 0
0 0
0 0
0 0
0 0
0 0
0 0
0 0
0 0
0 0
0 0
0 0
0 0
0 0
0 0
0 0
0 0
0 0
0 0
0 0
0 0
0 0
0 0
0 0
0 0
0 0
0 0
0 0
0 0
0 0
0 0
0 0
0 0
0 0
0 0
0 0
0 0
0 0
0 0
0 0
0 0
0 0
0 0
0 0
0 0
0 0
0 0
0 0
0 0
0 0
0 0
0 0
0 0
0 0
0 0
0 0
0 0
0 0
0 0
0 0
0 0
0 0
0 0
0 0
0 0
0 0
0 0
0 0
0 0
0 0
0 0
0 0
0 0
0 0
0 0
0 0
0 0
0 0
0 0
0 0
0 0
0 0
0 0
0 0
0 0
0 0
0 0
0 0
0 0
0 0
0 0
0 0
0 0
0 0
0 0
0 0
0 0
0 0
0 0
0 0
0 0
0 0
0 0
0 0
0 0
0 0
0 0
0 0
0 0
0 0
0 0
0 0
0 0
0 0
0 0
0 0
0 0
0 0
0 0
0 0
0 0
0 0
0 0
0 0
0 0
0 0
0 0
0 0
0 0
0 0
0 0
0 0
0 0
0 0
0 0
0 0
0 0
0 0
0 0
0 0
0 0
0 0
0 0
0 0
0 0
0 0
0 0
0 0
0 0
0 0
0 0
0 0
0 0
0 0
0 0
0 0
0 0
0 0
0 0
0 0
0 0
0 0
0 0
0 0
0 0
0 0
0 0
0 0
0 0
0 0
0 0
0 0
0 0
0 0
0 0
0 0
0 0
0 0
0 0
0 0
0 0
0 0
0 0
0 0
0 0
0 0
0 0
0 0
0 0
0 0
0 0
0 0
0 0
0 0
0 0
0 0
0 0
0 0
0 0
0 0
0 0
0 0
0 0
0 0
0 0
0 0
0 0
0 0
0 0
0 0
0 0
0 0
0 0
0 0
0 0
0 0
0 0
0 0
0 0
0 0
0 0
0 0
0 0
0 0
0 0
0 0
0 0
0 0
0 0
0 0
0 0
0 0
0 0
0 0
0 0
0 0
0 0
0 0
0 0
0 0
0 0
0 0
0 0
0 0
0 0
0 0
0 0
0 0
0 0
0 0
0 0
0 0
0 0
0 0
0 0
0 0
0 0
0 0
0 0
0 0
0 0
0 0
0 0
0 0
0 0
0 0
0 0
0 0
0 0
0 0
0 0
0 0
0 0
0 0
0 0
0 0
0 0
0 0
0 0
0 0
0 0
0 0
0 0
0 0
0 0
0 0
0 0
0 0
0 0
0 0
0 0
0 0
0 0
0 0
0 0
0 0
0 0
0 0
0 0
0 0
0 0
0 0
0 0
0 0
0 0
0 0
0 0
0 0
0 0
0 0
0 0
0 0
0 0
0 0
0 0
0 0
0 0
0 0
0 0
0 0
0 0
0 0
0 0
0 0
0 0
0 0
0 0
0 0
0 0
0 0
0 0
0 0
0 0
0 0
0 0
0 0
0 0
0 0
0 0
0 0
0 0
0 0
0 0
0 0
0 0
0 0
0 0
0 0
0 0
0 0
0 0
0 0
0 0
0 0
0 0
0 0
0 0
0 0
0 0
0 0
0 0
0 0
0 0
0 0
0 0
0 0
0 0
0 0
0 0
0 0
0 0
0 0
0 0
0 0
0 0
0 0
0 0
0 0
0 0
0 0
0 0
0 0
0 0
0 0
0 0
0 0
0 0
0 0
0 0
0 0
0 0
0 0
0 0
0 0
0 0
0 0
0 0
0 0
0 0
0 0
0 0
0 0
0 0
0 0
0 0
0 0
0 0
0 0
0 0
0 0
0 0
0 0
0 0
0 0
0 0
0 0
0 0
0 0
0 0
0 0
0 0
0 0
0 0
0 0
0 0
0 0
0 0
0 0
0 0
0 0
0 0
0 0
0 0
0 0
0 0
0 0
0 0
0 0
0 0
0 0
0 0
0 0
0 0
0 0
0 0
0 0
0 0
0 0
0 0
0 0
0 0
0 0
0 0
0 0
0 0
0 0
0 0
0 0
0 0
0 0
0 0
0 0
0 0
0 0
0 0
0 0
0 0
0 0
0 0
0 0
0 0
0 0
0 0
0 0
0 0
0 0
0 0
0 0
0 0
0 0
0 0
0 0
0 0
0 0
0 0
0 0
0 0
0 0
0 0
0 0
0 0
0 0
0 0
0 0
0 0
0 0
0 0
0 0
0 0
0 0
0 0
0 0
0 0
0 0
0 0
0 0
0 0
0 0
0 0
0 0
0 0
0 0
0 0
0 0
0 0
0 0
0 0
0 0
0 0
0 0
0 0
0 0
0 0
0 0
0 0
0 0
0 0
0 0
0 0
0 0
0 0
0 0
0 0
0 0
0 0
0 0
0 0
0 0
0 0
0 0
0 0
0 0
0 0
0 0
0 0
0 0
0 0
0 0
0 0
0 0
0 0
0 0
0 0
0 0
0 0
0 0
0 0
0 0
0 0
0 0
0 0
0 0
0 0
0 0
0 0
0 0
0 0
0 0
0 0
0 0
0 0
0 0
0 0
0 0
0 0
0 0
0 0
0 0
0 0
0 0
0 0
0 0
0 0
0 0
0 0
0 0
0 0
0 0
0 0
0 0
0 0
0 0
0 0
0 0
0 0
0 0
0 0
0 0
0 0
0 0
0 0
0 0
0 0
0 0
0 0
0 0
0 0
0 0
0 0
0 0
0 0
0 0
0 0
0 0
0 0
0 0
0 0
0 0
0 0
0 0
0 0
0 0
0 0
0 0
0 0
0 0
0 0
0 0
0 0
0 0
0 0
0 0
0 0
0 0
0 0
0 0
0 0
0 0
0 0
0 0
0 0
0 0
0 0
0 0
0 0
0 0
0 0
0 0
0 0
0 0
0 0
0 0
0 0
0 0
0 0
0 0
0 0
0 0
0 0
0 0
0 0
0 0
0 0
0 0
0 0
0 0
0 0
0 0
0 0
0 0
0 0
0 0
0 0
0 0
0 0
0 0
0 0
0 0
0 0
0 0
0 0
0 0
0 0
0 0
0 0
0 0
0 0
0 0
0 0
0 0
0 0
0 0
0 0
0 0
0 0
0 0
0 0
0 0
0 0
0 0
0 0
0 0
0 0
0 0
0 0
0 0
0 0
0 0
0 0
0 0
0 0
0 0
0 0
0 0
0 0
0 0
0 0
0 0
0 0
0 0
0 0
0 0
0 0
0 0
0 0
0 0
0 0
0 0
0 0
0 0
0 0
0 0
0 0
0 0
0 0
0 0
0 0
0 0
0 0
0 0
0 0
0 0
0 0
0 0
0 0
0 0
0 0
0 0
0 0
0 0
0 0
0 0
0 0
0 0
0 0
0 0
0 0
0 0
0 0
0 0
0 0
0 0
0 0
0 0
0 0
0 0
0 0
0 0
0 0
0 0
0 0
0 0
0 0
0 0
0 0
0 0
0 0
0 0
0 0
0 0
0 0
0 0
0 0
0 0
0 0
0 0
0 0
0 0
0 0
0 0
0 0
0 0
0 0
0 0
0 0
0 0
0 0
0 0
0 0
0 0
0 0
0 0
0 0
0 0
0 0
0 0
0 0
0 0
0 0
0 0
0 0
0 0
0 0
0 0
0 0
0 0
0 0
0 0
0 0
0 0
0 0
0 0
0 0
0 0
0 0
0 0
0 0
0 0
0 0
0 0
0 0
0 0
0 0
0 0
0 0
0 0
0 0
0 0
0 0
0 0
0 0
0 0
0 0
0 0
0 0
0 0
0 0
0 0
0 0
0 0
0 0
0 0
0 0
0 0
0 0
0 0
0 0
0 0
0 0
0 0
0 0
0 0
0 0
0 0
0 0
0 0
0 0
0 0
0 0
0 0
0 0
0 0
0 0
0 0
0 0
0 0
0 0
0 0
0 0
0 0
0 0
0 0
0 0
0 0
0 0
0 0
0 0
0 0
0 0
0 0
0 0
0 0
0 0
0 0
0 0
0 0
0 0
0 0
0 0
0 0
0 0
0 0
0 0
0 0
0 0
0 0
0 0
0 0
0 0
0 0
0 0
0 0
0 0
0 0
0 0
0 0
0 0
0 0
0 0
0 0
0 0
0 0
0 0
0 0
0 0
0 0
0 0
0 0
0 0
0 0
0 0
0 0
0 0
0 0
0 0
0 0
0 0
0 0
0 0
0 0
0 0
0 0
0 0
0 0
0 0
0 0
0 0
0 0
0 0
0 0
0 0
0 0
0 0
0 0
0 0
0 0
0 0
0 0
0 0
0 0
0 0
0 0
0 0
0 0
0 0
0 0
0 0
0 0
0 0
0 0
0 0
0 0
0 0
0 0
0 0
0 0
0 0
0 0
0 0
0 0
0 0
0 0
0 0
0 0
0 0
0 0
0 0
0 0
0 0
0 0
0 0
0 0
0 0
0 0
0 0
0 0
0 0
0 0
0 0
0 0
0 0
0 0
0 0
0 0
0 0
0 0
0 0
0 0
0 0
0 0
0 0
0 0
0 0
0 0
0 0
0 0
0 0
0 0
0 0
0 0
0 0
0 0
0 0
0 0
0 0
0 0
0 0
0 0
0 0
0 0
0 0
0 0
0 0
0 0
0 0
0 0
0 0
0 0
0 0
0 0
0 0
0 0
0 0
0 0
0 0
0 0
0 0
0 0
0 0
0 0
0 0
0 0
0 0
0 0
0 0
0 0
0 0
0 0
0 0
0 0
0 0
0 0
0 0
0 0
0 0
0 0
0 0
0 0
0 0
0 0
0 0
0 0
0 0
0 0
0 0
0 0
0 0
0 0
0 0
0 0
0 0
0 0
0 0
0 0
0 0
0 0
0 0
0 0
0 0
0 0
0 0
0 0
0 0
0 0
0 0
0 0
0 0
0 0
0 0
0 0
0 0
0 0
0 0
0 0
0 0
0 0
0 0
0 0
0 0
0 0
0 0
0 0
0 0
0 0
0 0
0 0
0 0
0 0
0 0
0 0
0 0
0 0
0 0
0 0
0 0
0 0
0 0
0 0
0 0
0 0
0 0
0 0
0 0
0 0
0 0
0 0
0 0
0 0
0 0
0 0
0 0
0 0
0 0
0 0
0 0
0 0
0 0
0 0
0 0
0 0
0 0
0 0
0 0
0 0
0 0
0 0
0 0
0 0
0 0
0 0
0 0
0 0
0 0
0 0
0 0
0 0
0 0
0 0
0 0
0 0
0 0
0 0
0 0
0 0
0 0
0 0
0 0
0 0
0 0
0 0
0 0
0 0
0 0
0 0
0 0
0 0
0 0
0 0
0 0
0 0
0 0
0 0
0 0
0 0
0 0
0 0
0 0
0 0
0 0
0 0
0 0
0 0
0 0
0 0
0 0
0 0
0 0
0 0
0 0
0 0
0 0
0 0
0 0
0 0
0 0
0 0
0 0
0 0
0 0
0 0
0 0
0 0
0 0
0 0
0 0
0 0
0 0
0 0
0 0
0 0
0 0
0 0
0 0
0 0
0 0
0 0
0 0
0 0
0 0
0 0
0 0
0 0
0 0
0 0
0 0
0 0
0 0
0 0
0 0
0 0
0 0
0 0
0 0
0 0
0 0
0 0
0 0
0 0
0 0
0 0
0 0
0 0
0 0
0 0
0 0
0 0
0 0
0 0
0 0
0 0
0 0
0 0
0 0
0 0
0 0
0 0
0 0
0 0
0 0
0 0
0 0
0 0
0 0
0 0
0 0
0 0
0 0
0 0
0 0
0 0
0 0
0 0
0 0
0 0
0 0
0 0
0 0
0 0
0 0
0 0
0 0
0 0
0 0
0 0
0 0
0 0
0 0
0 0
0 0
0 0
0 0
0 0
0 0
0 0
0 0
0 0
0 0
0 0
0 0
0 0
0 0
0 0
0 0
0 0
0 0
0 0
0 0
0 0
0 0
0 0
0 0
0 0
0 0
0 0
0 0
0 0
0 0
0 0
0 0
0 0
0 0
0 0
0 0
0 0
0 0
0 0
0 0
0 0
0 0
0 0
0 0
0 0
0 0
0 0
0 0
0 0
0 0
0 0
0 0
0 0
0 0
0 0
0 0
0 0
0 0
0 0
0 0
0 0
0 0
0 0
0 0
0 0
0 0
0 0
0 0
0 0
0 0
0 0
0 0
0 0
0 0
0 0
0 0
0 0
0 0
0 0
0 0
0 0
0 0
0 0
0 0
0 0
0 0
0 0
0 0
0 0
0 0
0 0
0 0
0 0
0 0
0 0
0 0
0 0
0 0
0 0
0 0
0 0
0 0
0 0
0 0
0 0
0 0
0 0
0 0
0 0
0 0
0 0
0 0
0 0
0 0
0 0
0 0
0 0
0 0
0 0
0 0
0 0
0 0
0 0
0 0
0 0
0 0
0 0
0 0
0 0
0 0
0 0
0 0
0 0
0 0
0 0
0 0
0 0
0 0
0 0
0 0
0 0
0 0
0 0
0 0
0 0
0 0
0 0
0 0
0 0
0 0
0 0
0 0
0 0
0 0
0 0
0 0
0 0
0 0
0 0
0 0
0 0
0 0
0 0
0 0
0 0
0 0
0 0
0 0
0 0
0 0
0 0
0 0
0 0
0 0
0 0
0 0
0 0
0 0
0 0
0 0
0 0
0 0
0 0
0 0
0 0
0 0
0 0
0 0
0 0
0 0
0 0
0 0
0 0
0 0
0 0
0 0
0 0
0 0
0 0
0 0
0 0
0 0
0 0
0 0
0 0
0 0
0 0
0 0
0 0
0 0
0 0
0 0
0 0
0 0
0 0
0 0
0 0
0 0
0 0
0 0
0 0
0 0
0 0
0 0
0 0
0 0
0 0
0 0
0 0
0 0
0 0
0 0
0 0
0 0
0 0
0 0
0 0
0 0
0 0
0 0
0 0
0 0
0 0
0 0
0 0
0 0
0 0
0 0
0 0
0 0
0 0
0 0
0 0
0 0
0 0
0 0
0 0
0 0
0 0
0 0
0 0
0 0
0 0
0 0
0 0
0 0
0 0
0 0
0 0
0 0
0 0
0 0
0 0
0 0
0 0
0 0
0 0
0 0
0 0
0 0
0 0
0 0
0 0
0 0
0 0
0 0
0 0
0 0
0 0
0 0
0 0
0 0
0 0
0 0
0 0
0 0
0 0
0 0
0 0
0 0
0 0
0 0
0 0
0 0
0 0
0 0
0 0
0 0
0 0
0 0
0 0
0 0
0 0
0 0
0 0
0 0
0 0
0 0
0 0
0 0
0 0
0 0
0 0
0 0
0 0
0 0
0 0
0 0
0 0
0 0
0 0
0 0
0 0
0 0
0 0
0 0
0 0
0 0
0 0
0 0
0 0
0 0
0 0
0 0
0 0
0 0
0 0
0 0
0 0
0 0
0 0
0 0
0 0
0 0
0 0
0 0
0 0
0 0
0 0
0 0
0 0
0 0
0 0
0 0
0 0
0 0
0 0
0 0
0 0
0 0
0 0
0 0
0 0
0 0
0 0
0 0
0 0
0 0
0 0
0 0
0 0
0 0
0 0
0 0
0 0
0 0
0 0
0 0
0 0
0 0
0 0
0 0
0 0
0 0
0 0
0 0
0 0
0 0
0 0
0 0
0 0
0 0
0 0
0 0
0 0
0 0
0 0
0 0
0 0
0 0
0 0
0 0
0 0
0 0
0 0
0 0
0 0
0 0
0 0
0 0
0 0
0 0
0 0
0 0
0 0
0 0
0 0
0 0
0 0
0 0
0 0
0 0
0 0
0 0
0 0
0 0
0 0
0 0
0 0
0 0
0 0
0 0
0 0
0 0
0 0
0 0
0 0
0 0
0 0
0 0
0 0
0 0
0 0
0 0
0 0
0 0
0 0
0 0
0 0
0 0
0 0
0 0
0 0
0 0
0 0
0 0
0 0
0 0
0 0
0 0
0 0
0 0
0 0
0 0
0 0
0 0
0 0
0 0
0 0
0 0
0 0
0 0
0 0
0 0
0 0
0 0
0 0
0 0
0 0
0 0
0 0
0 0
0 0
0 0
0 0
0 0
0 0
0 0
0 0
0 0
0 0
0 0
0 0
0 0
0 0
0 0
0 0
0 0
0 0
0 0
0 0
0 0
0 0
0 0
0 0
0 0
0 0
0 0
0 0
0 0
0 0
0 0
0 0
0 0
0 0
0 0
0 0
0 0
0 0
0 0
0 0
0 0
0 0
0 0
0 0
0 0
0 0
0 0
0 0
0 0
0 0
0 0
0 0
0 0
0 0
0 0
0 0
0 0
0 0
0 0
0 0
0 0
0 0
0 0
0 0
0 0
0 0
0 0
0 0
0 0
0 0
0 0
0 0
0 0
0 0
0 0
0 0
0 0
0 0
0 0
0 0
0 0
0 0
0 0
0 0
0 0
0 0
0 0
0 0
0 0
0 0
0 0
0 0
0 0
0 0
0 0
0 0
0 0
0 0
0 0
0 0
0 0
0 0
0 0
0 0
0 0
0 0
0 0
0 0
0 0
0 0
0 0
0 0
0 0
0 0
0 0
0 0
0 0
0 0
0 0
0 0
0 0
0 0
0 0
0 0
0 0
0 0
0 0
0 0
0 0
0 0
0 0
0 0
0 0
0 0
0 0
0 0
0 0
0 0
0 0
0 0
0 0
0 0
0 0
0 0
0 0
0 0
0 0
0 0
0 0
0 0
0 0
0 0
0 0
0 0
0 0
0 0
0 0
0 0
0 0
0 0
0 0
0 0
0 0
0 0
0 0
0 0
0 0
0 0
0 0
0 0
0 0
0 0
0 0
0 0
0 0
0 0
0 0
0 0
0 0
0 0
0 0
0 0
0 0
0 0
0 0
0 0
0 0
0 0
0 0
0 0
0 0
0 0
0 0
0 0
0 0
0 0
0 0
0 0
0 0
0 0
0 0
0 0
0 0
0 0
0 0
0 0
0 0
0 0
0 0
0 0
0 0
0 0
0 0
0 0
0 0
0 0
0 0
0 0
0 0
0 0
0 0
0 0
0 0
0 0
0 0
0 0
0 0
0 0
0 0
0 0
0 0
0 0
0 0
0 0
0 0
0 0
0 0
0 0
0 0
0 0
0 0
0 0
0 0
0 0
0 0
0 0
0 0
0 0
0 0
0 0
0 0
0 0
0 0
0 0
0 0
0 0
0 0
0 0
0 0
0 0
0 0
0 0
0 0
0 0
0 0
0 0
0 0
0 0
0 0
0 0
0 0
0 0
0 0
0 0
0 0
0 0
0 0
0 0
0 0
0 0
0 0
0 0
0 0
0 0
0 0
0 0
0 0
0 0
0 0
0 0
0 0
0 0
0 0
0 0
0 0
0 0
0 0
0 0
0 0
0 0
0 0
0 0
0 0
0 0
0 0
0 0
0 0
0 0
0 0
0 0
0 0
0 0
0 0
0 0
0 0
0 0
0 0
0 0
0 0
0 0
0 0
0 0
0 0
0 0
0 0
0 0
0 0
0 0
0 0
0 0
0 0
0 0
0 0
0 0
0 0
0 0
0 0
0 0
0 0
0 0
0 0
0 0
0 0
0 0
0 0
0 0
0 0
0 0
0 0
0 0
0 0
0 0
0 0
0 0
0 0
0 0
0 0
0 0
0 0
0 0
0 0
0 0
0 0
0 0
0 0
0 0
0 0
0 0
0 0
0 0
0 0
0 0
0 0
0 0
0 0
0 0
0 0
0 0
0 0
0 0
0 0
0 0
0 0
0 0
0 0
0 0
0 0
0 0
0 0
0 0
0 0
0 0
0 0
0 0
0 0
0 0
0 0
0 0
0 0
0 0
0 0
0 0
0 0
0 0
0 0
0 0
0 0
0 0
0 0
0 0
0 0
0 0
0 0
0 0
0 0
0 0
0 0
0 0
0 0
0 0
0 0
0 0
0 0
0 0
0 0
0 0
0 0
0 0
0 0
0 0
0 0
0 0
0 0
0 0
0 0
0 0
0 0
0 0
0 0
0 0
0 0
0 0
0 0
0 0
0 0
0 0
0 0
0 0
0 0
0 0
0 0
0 0
0 0
0 0
0 0
0 0
0 0
0 0
0 0
0 0
0 0
0 0
0 0
0 0
0 0
0 0
0 0
0 0
0 0
0 0
0 0
0 0
0 0
0 0
0 0
0 0
0 0
0 0
0 0
0 0
0 0
0 0
0 0
0 0
0 0
0 0
0 0
0 0
0 0
0 0
0 0
0 0
0 0
0 0
0 0
0 0
0 0
0 0
0 0
0 0
0 0
0 0
0 0
0 0
0 0
0 0
0 0
0 0
0 0
0 0
0 0
0 0
0 0
0 0
0 0
0 0
0 0
0 0
0 0
0 0
0 0
0 0
0 0
0 0
0 0
0 0
0 0
0 0
0 0
0 0
0 0
0 0
0 0
0 0
0 0
0 0
0 0
0 0
0 0
0 0
0 0
0 0
0 0
0 0
0 0
0 0
0 0
0 0
0 0
0 0
0 0
0 0
0 0
0 0
0 0
0 0
0 0
0 0
0 0
0 0
0 0
0 0
0 0
0 0
0 0
0 0
0 0
0 0
0 0
0 0
0 0
0 0
0 0
0 0
0 0
0 0
0 0
0 0
0 0
0 0
0 0
0 0
0 0
0 0
0 0
0 0
0 0
0 0
0 0
0 0
0 0
0 0
0 0
0 0
0 0
0 0
0 0
0 0
0 0
0 0
0 0
0 0
0 0
0 0
0 0
0 0
0 0
0 0
0 0
0 0
0 0
0 0
0 0
0 0
0 0
0 0
0 0
0 0
0 0
0 0
0 0
0 0
0 0
0 0
0 0
0 0
0 0
0 0
0 0
0 0
0 0
0 0
0 0
0 0
0 0
0 0
0 0
0 0
0 0
0 0
0 0
0 0
0 0
0 0
0 0
0 0
0 0
0 0
0 0
0 0
0 0
0 0
0 0
0 0
0 0
0 0
0 0
0 0
0 0
0 0
0 0
0 0
0 0
0 0
0 0
0 0
0 0
0 0
0 0
0 0
0 0
0 0
0 0
0 0
0 0
0 0
0 0
0 0
0 0
0 0
0 0
0 0
0 0
0 0
0 0
0 0
0 0
0 0
0 0
0 0
0 0
0 0
0 0
0 0
0 0
0 0
0 0
0 0
0 0
0 0
0 0
0 0
0 0
0 0
0 0
0 0
0 0
0 0
0 0
0 0
0 0
0 0
0 0
0 0
0 0
0 0
0 0
0 0
0 0
0 0
0 0
0 0
0 0
0 0
0 0
0 0
0 0
0 0
0 0
0 0
0 0
0 0
0 0
0 0
0 0
0 0
0 0
0 0
0 0
0 0
0 0
0 0
0 0
0 0
0 0
0 0
0 0
0 0
0 0
0 0
0 0
0 0
0 0
0 0
0 0
0 0
0 0
0 0
0 0
0 0
0 0
0 0
0 0
0 0
0 0
0 0
0 0
0 0
0 0
0 0
0 0
0 0
0 0
0 0
0 0
0 0
0 0
0 0
0 0
0 0
0 0
0 0
0 0
0 0
0 0
0 0
0 0
0 0
0 0
0 0
0 0
0 0
0 0
0 0
0 0
0 0
0 0
0 0
0 0
0 0
0 0
0 0
0 0
0 0
0 0
0 0
0 0
0 0
0 0
0 0
0 0
0 0
0 0
0 0
0 0
0 0
0 0
0 0
0 0
0 0
0 0
0 0
0 0
0 0
0 0
0 0
0 0
0 0
0 0
0 0
0 0
0 0
0 0
0 0
0 0
0 0
0 0
0 0
0 0
0 0
0 0
0 0
0 0
0 0
0 0
0 0
0 0
0 0
0 0
0 0
0 0
0 0
0 0
0 0
0 0
0 0
0 0
0 0
0 0
0 0
0 0
0 0
0 0
0 0
0 0
0 0
0 0
0 0
0 0
0 0
0 0
0 0
0 0
0 0
0 0
0 0
0 0
0 0
0 0
0 0
0 0
0 0
0 0
0 0
0 0
0 0
0 0
0 0
0 0
0 0
0 0
0 0
0 0
0 0
0 0
0 0
0 0
0 0
0 0
0 0
0 0
0 0
0 0
0 0
0 0
0 0
0 0
0 0
0 0
0 0
0 0
0 0
0 0
0 0
0 0
0 0
0 0
0 0
0 0
0 0
0 0
0 0
0 0
0 0
0 0
0 0
0 0
0 0
0 0
0 0
0 0
0 0
0 0
0 0
0 0
0 0
0 0
0 0
0 0
0 0
0 0
0 0
0 0
0 0
0 0
0 0
0 0
0 0
0 0
0 0
0 0
0 0
0 0
0 0
0 0
0 0
0 0
0 0
0 0
0 0
0 0
0 0
0 0
0 0
0 0
0 0
0 0
0 0
0 0
0 0
0 0
0 0
0 0
0 0
0 0
0 0
0 0
0 0
0 0
0 0
0 0
0 0
0 0
0 0
0 0
0 0
0 0
0 0
0 0
0 0
0 0
0 0
0 0
0 0
0 0
0 0
0 0
0 0
0 0
0 0
0 0
0 0
0 0
0 0
0 0
0 0
0 0
0 0
0 0
0 0
0 0
0 0
0 0
0 0
0 0
0 0
0 0
0 0
0 0
0 0
0 0
0 0
0 0
0 0
0 0
0 0
0 0
0 0
0 0
0 0
0 0
0 0
0 0
0 0
0 0
0 0
0 0
0 0
0 0
0 0
0 0
0 0
0 0
0 0
0 0
0 0
0 0
0 0
0 0
0 0
0 0
0 0
0 0
0 0
0 0
0 0
0 0
0 0
0 0
0 0
0 0
0 0
0 0
0 0
0 0
0 0
0 0
0 0
0 0
0 0
0 0
0 0
0 0
0 0
0 0
0 0
0 0
0 0
0 0
0 0
0 0
0 0
0 0
0 0
0 0
0 0
0 0
0 0
0 0
0 0
0 0
0 0
0 0
0 0
0 0
0 0
0 0
0 0
0 0
0 0
0 0
0 0
0 0
0 0
0 0
0 0
0 0
0 0
0 0
0 0
0 0
0 0
0 0
0 0
0 0
0 0
0 0
0 0
0 0
0 0
0 0
0 0
0 0
0 0
0 0
0 0
0 0
0 0
0 0
0 0
0 0
0 0
0 0
0 0
0 0
0 0
0 0
0 0
0 0
0 0
0 0
0 0
0 0
0 0
0 0
0 0
0 0
0 0
0 0
0 0
0 0
0 0
0 0
0 0
0 0
0 0
0 0
0 0
0 0
0 0
0 0
0 0
0 0
0 0
0 0
0 0
0 0
0 0
0 0
0 0
0 0
0 0
0 0
0 0
0 0
0 0
0 0
0 0
0 0
0 0
0 0
0 0
0 0
0 0
0 0
0 0
0 0
0 0
0 0
0 0
0 0
0 0
0 0
0 0
0 0
0 0
0 0
0 0
0 0
0 0
0 0
0 0
0 0
0 0
0 0
0 0
0 0
0 0
0 0
0 0
0 0
0 0
0 0
0 0
0 0
0 0
0 0
0 0
0 0
0 0
0 0
0 0
0 0
0 0
0 0
0 0
0 0
0 0
0 0
0 0
0 0
0 0
0 0
0 0
0 0
0 0
0 0
0 0
0 0
0 0
0 0
0 0
0 0
0 0
0 0
0 0
0 0
0 0
0 0
0 0
0 0
0 0
0 0
0 0
0 0
0 0
0 0
0 0
0 0
0 0
0 0
0 0
0 0
0 0
0 0
0 0
0 0
0 0
0 0
0 0
0 0
0 0
0 0
0 0
0 0
0 0
0 0
0 0
0 0
0 0
0 0
0 0
0 0
0 0
0 0
0 0
0 0
0 0
0 0
0 0
0 0
0 0
0 0
0 0
0 0
0 0
0 0
0 0
0 0
0 0
0 0
0 0
0 0
0 0
0 0
0 0
0 0
0 0
0 0
0 0
0 0
0 0
0 0
0 0
0 0
0 0
0 0
0 0
0 0
0 0
0 0
0 0
0 0
0 0
0 0
0 0
0 0
0 0
0 0
0 0
0 0
0 0
0 0
0 0
0 0
0 0
0 0
0 0
0 0
0 0
0 0
0 0
0 0
0 0
0 0
0 0
0 0
0 0
0 0
0 0
0 0
0 0
0 0
0 0
0 0
0 0
0 0
0 0
0 0
0 0
0 0
0 0
0 0
0 0
0 0
0 0
0 0
0 0
0 0
0 0
0 0
0 0
0 0
0 0
0 0
0 0
0 0
0 0
0 0
0 0
0 0
0 0
0 0
0 0
0 0
0 0
0 0
0 0
0 0
0 0
0 0
0 0
0 0
0 0
0 0
0 0
0 0
0 0
0 0
0 0
0 0
0 0
0 0
0 0
0 0
0 0
0 0
0 0
0 0
0 0
0 0
0 0
0 0
0 0
0 0
0 0
0 0
0 0
0 0
0 0
0 0
0 0
0 0
0 0
0 0
0 0
0 0
0 0
0 0
0 0
0 0
0 0
0 0
0 0
0 0
0 0
0 0
0 0
0 0
0 0
0 0
0 0
0 0
0 0
0 0
0 0
0 0
0 0
0 0
0 0
0 0
0 0
0 0
0 0
0 0
0 0
0 0
0 0
0 0
0 0
0 0
0 0
0 0
0 0
0 0
0 0
0 0
0 0
0 0
0 0
0 0
0 0
0 0
0 0
0 0
0 0
0 0
0 0
0 0
0 0
0 0
0 0
0 0
0 0
0 0
0 0
0 0
0 0
0 0
0 0
0 0
0 0
0 0
0 0
0 0
0 0
0 0
0 0
0 0
0 0
0 0
0 0
0 0
0 0
0 0
0 0
0 0
0 0
0 0
0 0
0 0
0 0
0 0
0 0
0 0
0 0
0 0
0 0
0 0
0 0
0 0
0 0
0 0
0 0
0 0
0 0
0 0
0 0
0 0
0 0
0 0
0 0
0 0
0 0
0 0
0 0
0 0
0 0
0 0
0 0
0 0
0 0
0 0
0 0
0 0
0 0
0 0
0 0
0 0
0 0
0 0
0 0
0 0
0 0
0 0
0 0
0 0
0 0
0 0
0 0
0 0
0 0
0 0
0 0
0 0
0 0
0 0
0 0
0 0
0 0
0 0
0 0
0 0
0 0
0 0
0 0
0 0
0 0
0 0
0 0
0 0
0 0
0 0
0 0
0 0
0 0
0 0
0 0
0 0
0 0
0 0
0 0
0 0
0 0
0 0
0 0
0 0
0 0
0 0
0 0
0 0
0 0
0 0
0 0
0 0
0 0
0 0
0 0
0 0
0 0
0 0
0 0
0 0
0 0
0 0
0 0
0 0
0 0
0 0
0 0
0 0
0 0
0 0
0 0
0 0
0 0
0 0
0 0
0 0
0 0
0 0
0 0
0 0
0 0
0 0
0 0
0 0
0 0
0 0
0 0
0 0
0 0
0 0
0 0
0 0
0 0
0 0
0 0
0 0
0 0
0 0
0 0
0 0
0 0
0 0
0 0
0 0
0 0
0 0
0 0
0 0
0 0
0 0
0 0
0 0
0 0
0 0
0 0
0 0
0 0
0 0
0 0
0 0
0 0
0 0
0 0
0 0
0 0
0 0
0 0
0 0
0 0
0 0
0 0
0 0
0 0
0 0
0 0
0 0
0 0
0 0
0 0
0 0
0 0
0 0
0 0
0 0
0 0
0 0
0 0
0 0
0 0
0 0
0 0
0 0
0 0
0 0
0 0
0 0
0 0
0 0
0 0
0 0
0 0
0 0
0 0
0 0
0 0
0 0
0 0
0 0
0 0
0 0
0 0
0 0
0 0
0 0
0 0
0 0
0 0
0 0
0 0
0 0
0 0
0 0
0 0
0 0
0 0
0 0
0 0
0 0
0 0
0 0
0 0
0 0
0 0
0 0
0 0
0 0
0 0
0 0
0 0
0 0
0 0
0 0
0 0
0 0
0 0
0 0
0 0
0 0
0 0
0 0
0 0
0 0
0 0
0 0
0 0
0 0
0 0
0 0
0 0
0 0
0 0
0 0
0 0
0 0
0 0
0 0
0 0
0 0
0 0
0 0
0 0
0 0
0 0
0 0
0 0
0 0
0 0
0 0
0 0
0 0
0 0
0 0
0 0
0 0
0 0
0 0
0 0
0 0
0 0
0 0
0 0
0 0
0 0
0 0
0 0
0 0
0 0
0 0
0 0
0 0
0 0
0 0
0 0
0 0
0 0
0 0
0 0
0 0
0 0
0 0
0 0
0 0
0 0
0 0
0 0
0 0
0 0
0 0
0 0
0 0
0 0
0 0
0 0
0 0
0 0
0 0
0 0
0 0
0 0
0 0
0 0
0 0
0 0
0 0
0 0
0 0
0 0
0 0
0 0
0 0
0 0
0 0
0 0
0 0
0 0
0 0
0 0
0 0
0 0
0 0
0 0
0 0
0 0
0 0
0 0
0 0
0 0
0 0
0 0
0 0
0 0
0 0
0 0
0 0
0 0
0 0
0 0
0 0
0 0
0 0
0 0
0 0
0 0
0 0
0 0
0 0
0 0
0 0
0 0
0 0
0 0
0 0
0 0
0 0
0 0
0 0
0 0
0 0
0 0
0 0
0 0
0 0
0 0
0 0
0 0
0 0
0 0
0 0
0 0
0 0
0 0
0 0
0 0
0 0
0 0
0 0
0 0
0 0
0 0
0 0
0 0
0 0
0 0
0 0
0 0
0 0
0 0
0 0
0 0
0 0
0 0
0 0
0 0
0 0
0 0
0 0
0 0
0 0
0 0
0 0
0 0
0 0
0 0
0 0
0 0
0 0
0 0
0 0
0 0
0 0
0 0
0 0
0 0
0 0
0 0
0 0
0 0
0 0
0 0
0 0
0 0
0 0
0 0
0 0
0 0
0 0
0 0
0 0
0 0
0 0
0 0
0 0
0 0
0 0
0 0
0 0
0 0
0 0
0 0
0 0
0 0
0 0
0 0
0 0
0 0
0 0
0 0
0 0
0 0
0 0
0 0
0 0
0 0
0 0
0 0
0 0
0 0
0 0
0 0
0 0
0 0
0 0
0 0
0 0
0 0
0 0
0 0
0 0
0 0
0 0
0 0
0 0
0 0
0 0
0 0
0 0
0 0
0 0
0 0
0 0
0 0
0 0
0 0
0 0
0 0
0 0
0 0
0 0
0 0
0 0
0 0
0 0
0 0
0 0
0 0
0 0
0 0
0 0
0 0
0 0
0 0
0 0
0 0
0 0
0 0
0 0
0 0
0 0
0 0
0 0
0 0
0 0
0 0
0 0
0 0
0 0
0 0
0 0
0 0
0 0
0 0
0 0
0 0
0 0
0 0
0 0
0 0
0 0
0 0
0 0
0 0
0 0
0 0
0 0
0 0
0 0
0 0
0 0
0 0
0 0
0 0
0 0
0 0
0 0
0 0
0 0
0 0
0 0
0 0
0 0
0 0
0 0
0 0
0 0
0 0
0 0
0 0
0 0
0 0
0 0
0 0
0 0
0 0
0 0
0 0
0 0
0 0
0 0
0 0
0 0
0 0
0 0
0 0
0 0
0 0
0 0
0 0
0 0
0 0
0 0
0 0
0 0
0 0
0 0
0 0
0 0
0 0
0 0
0 0
0 0
0 0
0 0
0 0
0 0
0 0
0 0
0 0
0 0
0 0
0 0
0 0
0 0
0 0
0 0
0 0
0 0
0 0
0 0
0 0
0 0
0 0
0 0
0 0
0 0
0 0
0 0
0 0
0 0
0 0
0 0
0 0
0 0
0 0
0 0
0 0
0 0
0 0
0 0
0 0
0 0
0 0
0 0
0 0
0 0
0 0
0 0
0 0
0 0
0 0
0 0
0 0
0 0
0 0
0 0
0 0
0 0
0 0
0 0
0 0
0 0
0 0
0 0
0 0
0 0
0 0
0 0
0 0
0 0
0 0
0 0
0 0
0 0
0 0
0 0
0 0
0 0
0 0
0 0
0 0
0 0
0 0
0 0
0 0
0 0
0 0
0 0
0 0
0 0
0 0
0 0
0 0
0 0
0 0
0 0
0 0
0 0
0 0
0 0
0 0
0 0
0 0
0 0
0 0
0 0
0 0
0 0
0 0
0 0
0 0
0 0
0 0
0 0
0 0
0 0
0 0
0 0
0 0
0 0
0 0
0 0
0 0
0 0
0 0
0 0
0 0
0 0
0 0
0 0
0 0
0 0
0 0
0 0
0 0
0 0
0 0
0 0
0 0
0 0
0 0
0 0
0 0
0 0
0 0
0 0
0 0
0 0
0 0
0 0
0 0
0 0
0 0
0 0
0 0
0 0
0 0
0 0
0 0
0 0
0 0
0 0
0 0
0 0
0 0
0 0
0 0
0 0
0 0
0 0
0 0
0 0
0 0
0 0
0 0
0 0
0 0
0 0
0 0
0 0
0 0
0 0
0 0
0 0
0 0
0 0
0 0
0 0
0 0
0 0
0 0
0 0
0 0
0 0
0 0
0 0
0 0
0 0
0 0
0 0
0 0
0 0
0 0
0 0
0 0
0 0
0 0
0 0
0 0
0 0
0 0
0 0
0 0
0 0
0 0
0 0
0 0
0 0
0 0
0 0
0 0
0 0
0 0
0 0
0 0
0 0
0 0
0 0
0 0
0 0
0 0
0 0
0 0
0 0
0 0
0 0
0 0
0 0
0 0
0 0
0 0
0 0
0 0
0 0
0 0
0 0
0 0
0 0
0 0
0 0
0 0
0 0
0 0
0 0
0 0
0 0
0 0
0 0
0 0
0 0
0 0
0 0
0 0
0 0
0 0
0 0
0 0
0 0
0 0
0 0
0 0
0 0
0 0
0 0
0 0
0 0
0 0
0 0
0 0
0 0
0 0
0 0
0 0
0 0
0 0
0 0
0 0
0 0
0 0
0 0
0 0
0 0
0 0
0 0
0 0
0 0
0 0
0 0
0 0
0 0
0 0
0 0
0 0
0 0
0 0
0 0
0 0
0 0
0 0
0 0
0 0
0 0
0 0
0 0
0 0
0 0
0 0
0 0
0 0
0 0
0 0
0 0
0 0
0 0
0 0
0 0
0 0
0 0
0 0
0 0
0 0
0 0
0 0
0 0
0 0
0 0
0 0
0 0
0 0
0 0
0 0
0 0
0 0
0 0
0 0
0 0
0 0
0 0
0 0
0 0
0 0
0 0
0 0
0 0
0 0
0 0
0 0
0 0
0 0
0 0
0 0
0 0
0 0
0 0
0 0
0 0
0 0
0 0
0 0
0 0
0 0
0 0
0 0
0 0
0 0
0 0
0 0
0 0
0 0
0 0
0 0
0 0
0 0
0 0
0 0
0 0
0 0
0 0
0 0
0 0
0 0
0 0
0 0
0 0
0 0
0 0
0 0
0 0
0 0
0 0
0 0
0 0
0 0
0 0
0 0
0 0
0 0
0 0
0 0
0 0
0 0
0 0
0 0
0 0
0 0
0 0
0 0
0 0
0 0
0 0
0 0
0 0
0 0
0 0
0 0
0 0
0 0
0 0
0 0
0 0
0 0
0 0
0 0
0 0
0 0
0 0
0 0
0 0
0 0
0 0
0 0
0 0
0 0
0 0
0 0
0 0
0 0
0 0
0 0
0 0
0 0
0 0
0 0
0 0
0 0
0 0
0 0
0 0
0 0
0 0
0 0
0 0
0 0
0 0
0 0
0 0
0 0
0 0
0 0
0 0
0 0
0 0
0 0
0 0
0 0
0 0
0 0
0 0
0 0
0 0
0 0
0 0
0 0
0 0
0 0
0 0
0 0
0 0
0 0
0 0
0 0
0 0
0 0
0 0
0 0
0 0
0 0
0 0
0 0
0 0
0 0
0 0
0 0
0 0
0 0
0 0
0 0
0 0
0 0
0 0
0 0
0 0
0 0
0 0
0 0
0 0
0 0
0 0
0 0
0 0
0 0
0 0
0 0
0 0
0 0
0 0
0 0
0 0
0 0
0 0
0 0
0 0
0 0
0 0
0 0
0 0
0 0
0 0
0 0
0 0
0 0
0 0
0 0
0 0
0 0
0 0
0 0
0 0
0 0
0 0
0 0
0 0
0 0
0 0
0 0
0 0
0 0
0 0
0 0
0 0
0 0
0 0
0 0
0 0
0 0
0 0
0 0
0 0
0 0
0 0
0 0
0 0
0 0
0 0
0 0
0 0
0 0
0 0
0 0
0 0
0 0
0 0
0 0
0 0
0 0
0 0
0 0
0 0
0 0
0 0
0 0
0 0
0 0
0 0
0 0
0 0
0 0
0 0
0 0
0 0
0 0
0 0
0 0
0 0
0 0
0 0
0 0
0 0
0 0
0 0
0 0
0 0
0 0
0 0
0 0
0 0
0 0
0 0
0 0
0 0
0 0
0 0
0 0
0 0
0 0
0 0
0 0
0 0
0 0
0 0
0 0
0 0
0 0
0 0
0 0
0 0
0 0
0 0
0 0
0 0
0 0
0 0
0 0
0 0
0 0
0 0
0 0
0 0
0 0
0 0
0 0
0 0
0 0
0 0
0 0
0 0
0 0
0 0
0 0
0 0
0 0
0 0
0 0
0 0
0 0
0 0
0 0
0 0
0 0
0 0
0 0
0 0
0 0
0 0
0 0
0 0
0 0
0 0
0 0
0 0
0 0
0 0
0 0
0 0
0 0
0 0
0 0
0 0
0 0
0 0
0 0
0 0
0 0
0 0
0 0
0 0
0 0
0 0
0 0
0 0
0 0
0 0
0 0
0 0
0 0
0 0
0 0
0 0
0 0
0 0
0 0
0 0
0 0
0 0
0 0
0 0
0 0
0 0
0 0
0 0
0 0
0 0
0 0
0 0
0 0
0 0
0 0
0 0
0 0
0 0
0 0
0 0
0 0
0 0
0 0
0 0
0 0
0 0
0 0
0 0
0 0
0 0
0 0
0 0
0 0
0 0
0 0
0 0
0 0
0 0
0 0
0 0
0 0
0 0
0 0
0 0
0 0
0 0
0 0
0 0
0 0
0 0
0 0
0 0
0 0
0 0
0 0
0 0
0 0
0 0
0 0
0 0
0 0
0 0
0 0
0 0
0 0
0 0
0 0
0 0
0 0
0 0
0 0
0 0
0 0
0 0
0 0
0 0
0 0
0 0
0 0
0 0
0 0
0 0
0 0
0 0
0 0
0 0
0 0
0 0
0 0
0 0
0 0
0 0
0 0
0 0
0 0
0 0
0 0
0 0
0 0
0 0
0 0
0 0
0 0
0 0
0 0
0 0
0 0
0 0
0 0
0 0
0 0
0 0
0 0
0 0
0 0
0 0
0 0
0 0
0 0
0 0
0 0
0 0
0 0
0 0
0 0
0 0
0 0
0 0
0 0
0 0
0 0
0 0
0 0
0 0
0 0
0 0
0 0
0 0
0 0
0 0
0 0
0 0
0 0
0 0
0 0
0 0
0 0
0 0
0 0
0 0
0 0
0 0
0 0
0 0
0 0
0 0
0 0
0 0
0 0
0 0
0 0
0 0
0 0
0 0
0 0
0 0
0 0
0 0
0 0
0 0
0 0
0 0
0 0
0 0
0 0
0 0
0 0
0 0
0 0
0 0
0 0
0 0
0 0
0 0
0 0
0 0
0 0
0 0
0 0
0 0
0 0
0 0
0 0
0 0
0 0
0 0
0 0
0 0
0 0
0 0
0 0
0 0
0 0
0 0
0 0
0 0
0 0
0 0
0 0
0 0
0 0
0 0
0 0
0 0
0 0
0 0
0 0
0 0
0 0
0 0
0 0
0 0
0 0
0 0
0 0
0 0
0 0
0 0
0 0
0 0
0 0
0 0
0 0
0 0
0 0
0 0
0 0
0 0
0 0
0 0
0 0
0 0
0 0
0 0
0 0
0 0
0 0
0 0
0 0
0 0
0 0
0 0
0 0
0 0
0 0
0 0
0 0
0 0
0 0
0 0
0 0
0 0
0 0
0 0
0 0
0 0
0 0
0 0
0 0
0 0
0 0
0 0
0 0
0 0
0 0
0 0
0 0
0 0
0 0
0 0
0 0
0 0
0 0
0 0
0 0
0 0
0 0
0 0
0 0
0 0
0 0
0 0
0 0
0 0
0 0
0 0
0 0
0 0
0 0
0 0
0 0
0 0
0 0
0 0
0 0
0 0
0 0
0 0
0 0
0 0
0 0
0 0
0 0
0 0
0 0
0 0
0 0
0 0
0 0
0 0
0 0
0 0
0 0
0 0
0 0
0 0
0 0
0 0
0 0
0 0
0 0
0 0
0 0
0 0
0 0
0 0
0 0
0 0
0 0
0 0
0 0
0 0
0 0
0 0
0 0
0 0
0 0
0 0
0 0
0 0
0 0
0 0
0 0
0 0
0 0
0 0
0 0
0 0
0 0
0 0
0 0
0 0
0 0
0 0
0 0
0 0
0 0
0 0
0 0
0 0
0 0
0 0
0 0
0 0
0 0
0 0
0 0
0 0
0 0
0 0
0 0
0 0
0 0
0 0
0 0
0 0
0 0
0 0
0 0
0 0
0 0
0 0
0 0
0 0
0 0
0 0
0 0
0 0
0 0
0 0
0 0
0 0
0 0
0 0
0 0
0 0
0 0
0 0
0 0
0 0
0 0
0 0
0 0
0 0
0 0
0 0
0 0
0 0
0 0
0 0
0 0
0 0
0 0
0 0
0 0
0 0
0 0
0 0
0 0
0 0
0 0
0 0
0 0
0 0
0 0
0 0
0 0
0 0
0 0
0 0
0 0
0 0
0 0
0 0
0 0
0 0
0 0
0 0
0 0
0 0
0 0
0 0
0 0
0 0
0 0
0 0
0 0
0 0
0 0
0 0
0 0
0 0
0 0
0 0
0 0
0 0
0 0
0 0
0 0
0 0
0 0
0 0
0 0
0 0
0 0
0 0
0 0
0 0
0 0
0 0
0 0
0 0
0 0
0 0
0 0
0 0
0 0
0 0
0 0
0 0
0 0
0 0
0 0
0 0
0 0
0 0
0 0
0 0
0 0
0 0
0 0
0 0
0 0
0 0
0 0
0 0
0 0
0 0
0 0
0 0
0 0
0 0
0 0
0 0
0 0
0 0
0 0
0 0
0 0
0 0
0 0
0 0
0 0
0 0
0 0
0 0
0 0
0 0
0 0
0 0
0 0
0 0
0 0
0 0
0 0
0 0
0 0
0 0
0 0
0 0
0 0
0 0
0 0
0 0
0 0
0 0
0 0
0 0
0 0
0 0
0 0
0 0
0 0
0 0
0 0
0 0
0 0
0 0
0 0
0 0
0 0
0 0
0 0
0 0
0 0
0 0
0 0
0 0
0 0
0 0
0 0
0 0
0 0
0 0
0 0
0 0
0 0
0 0
0 0
0 0
0 0
0 0
0 0
0 0
0 0
0 0
0 0
0 0
0 0
0 0
0 0
0 0
0 0
0 0
0 0
0 0
0 0
0 0
0 0
0 0
0 0
0 0
0 0
0 0
0 0
0 0
0 0
0 0
0 0
0 0
0 0
0 0
0 0
0 0
0 0
0 0
0 0
0 0
0 0
0 0
0 0
0 0
0 0
0 0
0 0
0 0
0 0
0 0
0 0
0 0
0 0
0 0
0 0
0 0
0 0
0 0
0 0
0 0
0 0
0 0
0 0
0 0
0 0
0 0
0 0
0 0
0 0
0 0
0 0
0 0
0 0
0 0
0 0
0 0
0 0
0 0
0 0
0 0
0 0
0 0
0 0
0 0
0 0
0 0
0 0
0 0
0 0
0 0
0 0
0 0
0 0
0 0
0 0
0 0
0 0
0 0
0 0
0 0
0 0
0 0
0 0
0 0
0 0
0 0
0 0
0 0
0 0
0 0
0 0
0 0
0 0
0 0
0 0
0 0
0 0
0 0
0 0
0 0
0 0
0 0
0 0
0 0
0 0
0 0
0 0
0 0
0 0
0 0
0 0
0 0
0 0
0 0
0 0
0 0
0 0
0 0
0 0
0 0
0 0
0 0
0 0
0 0
0 0
0 0
0 0
0 0
0 0
0 0
0 0
0 0
0 0
0 0
0 0
0 0
0 0
0 0
0 0
0 0
0 0
0 0
0 0
0 0
0 0
0 0
0 0
0 0
0 0
0 0
0 0
0 0
0 0
0 0
0 0
0 0
0 0
0 0
0 0
0 0
0 0
0 0
0 0
0 0
0 0
0 0
0 0
0 0
0 0
0 0
0 0
0 0
0 0
0 0
0 0
0 0
0 0
0 0
0 0
0 0
0 0
0 0
0 0
0 0
0 0
0 0
0 0
0 0
0 0
0 0
0 0
0 0
0 0
0 0
0 0
0 0
0 0
0 0
0 0
0 0
0 0
0 0
0 0
0 0
0 0
0 0
0 0
0 0
0 0
0 0
0 0
0 0
0 0
0 0
0 0
0 0
0 0
0 0
0 0
0 0
0 0
0 0
0 0
0 0
0 0
0 0
0 0
0 0
0 0
0 0
0 0
0 0
0 0
0 0
0 0
0 0
0 0
0 0
0 0
0 0
0 0
0 0
0 0
0 0
0 0
0 0
0 0
0 0
0 0
0 0
0 0
0 0
0 0
0 0
0 0
0 0
0 0
0 0
0 0
0 0
0 0
0 0
0 0
0 0
0 0
0 0
0 0
0 0
0 0
0 0
0 0
0 0
0 0
0 0
0 0
0 0
0 0
0 0
0 0
0 0
0 0
0 0
0 0
0 0
0 0
0 0
0 0
0 0
0 0
0 0
0 0
0 0
0 0
0 0
0 0
0 0
0 0
0 0
0 0
0 0
0 0
0 0
0 0
0 0
0 0
0 0
0 0
0 0
0 0
0 0
0 0
0 0
0 0
0 0
0 0
0 0
0 0
0 0
0 0
0 0
0 0
0 0
0 0
0 0
0 0
0 0
0 0
0 0
0 0
0 0
0 0
0 0
0 0
0 0
0 0
0 0
0 0
0 0
0 0
0 0
0 0
0 0
0 0
0 0
0 0
0 0
0 0
0 0
0 0
0 0
0 0
0 0
0 0
0 0
0 0
0 0
0 0
0 0
0 0
0 0
0 0
0 0
0 0
0 0
0 0
0 0
0 0
0 0
0 0
0 0
0 0
0 0
0 0
0 0
0 0
0 0
0 0
0 0
0 0
0 0
0 0
0 0
0 0
0 0
0 0
0 0
0 0
0 0
0 0
0 0
0 0
0 0
0 0
0 0
0 0
0 0
0 0
0 0
0 0
0 0
0 0
0 0
0 0
0 0
0 0
0 0
0 0
0 0
0 0
0 0
0 0
0 0
0 0
0 0
0 0
0 0
0 0
0 0
0 0
0 0
0 0
0 0
0 0
0 0
0 0
0 0
0 0
0 0
0 0
0 0
0 0
0 0
0 0
0 0
0 0
0 0
0 0
0 0
0 0
0 0
0 0
0 0
0 0
0 0
0 0
0 0
0 0
0 0
0 0
0 0
0 0
0 0
0 0
0 0
0 0
0 0
0 0
0 0
0 0
0 0
0 0
0 0
0 0
0 0
0 0
0 0
0 0
0 0
0 0
0 0
0 0
0 0
0 0
0 0
0 0
0 0
0 0
0 0
0 0
0 0
0 0
0 0
0 0
0 0
0 0
0 0
0 0
0 0
0 0
0 0
0 0
0 0
0 0
0 0
0 0
0 0
0 0
0 0
0 0
0 0
0 0
0 0
0 0
0 0
0 0
0 0
0 0
0 0
0 0
0 0
0 0
0 0
0 0
0 0
0 0
0 0
0 0
0 0
0 0
0 0
0 0
0 0
0 0
0 0
0 0
0 0
0 0
0 0
0 0
0 0
0 0
0 0
0 0
0 0
0 0
0 0
0 0
0 0
0 0
0 0
0 0
0 0
0 0
0 0
0 0
0 0
0 0
0 0
0 0
0 0
0 0
0 0
0 0
0 0
0 0
0 0
0 0
0 0
0 0
0 0
0 0
0 0
0 0
0 0
0 0
0 0
0 0
0 0
0 0
0 0
0 0
0 0
0 0
0 0
0 0
0 0
0 0
0 0
0 0
0 0
0 0
0 0
0 0
0 0
0 0
0 0
0 0
0 0
0 0
0 0
0 0
0 0
0 0
0 0
0 0
0 0
0 0
0 0
0 0
0 0
0 0
0 0
0 0
0 0
0 0
0 0
0 0
0 0
0 0
0 0
0 0
0 0
0 0
0 0
0 0
0 0
0 0
0 0
0 0
0 0
0 0
0 0
0 0
0 0
0 0
0 0
0 0
0 0
0 0
0 0
0 0
0 0
0 0
0 0
0 0
0 0
0 0
0 0
0 0
0 0
0 0
0 0
0 0
0 0
0 0
0 0
0 0
0 0
0 0
0 0
0 0
0 0
0 0
0 0
0 0
0 0
0 0
0 0
0 0
0 0
0 0
0 0
0 0
0 0
0 0
0 0
0 0
0 0
0 0
0 0
0 0
0 0
0 0
0 0
0 0
0 0
0 0
0 0
0 0
0 0
0 0
0 0
0 0
0 0
0 0
0 0
0 0
0 0
0 0
0 0
0 0
0 0
0 0
0 0
0 0
0 0
0 0
0 0
0 0
0 0
0 0
0 0
0 0
0 0
0 0
0 0
0 0
0 0
0 0
0 0
0 0
0 0
0 0
0 0
0 0
0 0
0 0
0 0
0 0
0 0
0 0
0 0
0 0
0 0
0 0
0 0
0 0
0 0
0 0
0 0
0 0
0 0
0 0
0 0
0 0
0 0
0 0
0 0
0 0
0 0
0 0
0 0
0 0
0 0
0 0
0 0
0 0
0 0
0 0
0 0
0 0
0 0
0 0
0 0
0 0
0 0
0 0
0 0
0 0
0 0
0 0
0 0
0 0
0 0
0 0
0 0
0 0
0 0
0 0
0 0
0 0
0 0
0 0
0 0
0 0
0 0
0 0
0 0
0 0
0 0
0 0
0 0
0 0
0 0
0 0
0 0
0 0
0 0
0 0
0 0
0 0
0 0
0 0
0 0
0 0
0 0
0 0
0 0
0 0
0 0
0 0
0 0
0 0
0 0
0 0
0 0
0 0
0 0
0 0
0 0
0 0
0 0
0 0
0 0
0 0
0 0
0 0
0 0
0 0
0 0
0 0
0 0
0 0
0 0
0 0
0 0
0 0
0 0
0 0
0 0
0 0
0 0
0 0
0 0
0 0
0 0
0 0
0 0
0 0
0 0
0 0
0 0
0 0
0 0
0 0
0 0
0 0
0 0
0 0
0 0
0 0
0 0
0 0
0 0
0 0
0 0
0 0
0 0
0 0
0 0
0 0
0 0
0 0
0 0
0 0
0 0
0 0
0 0
0 0
0 0
0 0
0 0
0 0
0 0
0 0
0 0
0 0
0 0
0 0
0 0
0 0
0 0
0 0
0 0
0 0
0 0
0 0
0 0
0 0
0 0
0 0
0 0
0 0
0 0
0 0
0 0
0 0
0 0
0 0
0 0
0 0
0 0
0 0
0 0
0 0
0 0
0 0
0 0
0 0
0 0
0 0
0 0
0 0
0 0
0 0
0 0
0 0
0 0
0 0
0 0
0 0
0 0
0 0
0 0
0 0
0 0
0 0
0 0
0 0
0 0
0 0
0 0
0 0
0 0
0 0
0 0
0 0
0 0
0 0
0 0
0 0
0 0
0 0
0 0
0 0
0 0
0 0
0 0
0 0
0 0
0 0
0 0
0 0
0 0
0 0
0 0
0 0
0 0
0 0
0 0
0 0
0 0
0 0
0 0
0 0
0 0
0 0
0 0
0 0
0 0
0 0
0 0
0 0
0 0
0 0
0 0
0 0
0 0
0 0
0 0
0 0
0 0
0 0
0 0
0 0
0 0
0 0
0 0
0 0
0 0
0 0
0 0
0 0
0 0
0 0
0 0
0 0
0 0
0 0
0 0
0 0
0 0
0 0
0 0
0 0
0 0
0 0
0 0
0 0
0 0
0 0
0 0
0 0
0 0
0 0
0 0
0 0
0 0
0 0
0 0
0 0
0 0
0 0
0 0
0 0
0 0
0 0
0 0
0 0
0 0
0 0
0 0
0 0
0 0
0 0
0 0
0 0
0 0
0 0
0 0
0 0
0 0
0 0
0 0
0 0
0 0
0 0
0 0
0 0
0 0
0 0
0 0
0 0
0 0
0 0
0 0
0 0
0 0
0 0
0 0
0 0
0 0
0 0
0 0
0 0
0 0
0 0
0 0
0 0
0 0
0 0
0 0
0 0
0 0
0 0
0 0
0 0
0 0
0 0
0 0
0 0
0 0
0 0
0 0
0 0
0 0
0 0
0 0
0 0
0 0
0 0
0 0
0 0
0 0
0 0
0 0
0 0
0 0
0 0
0 0
0 0
0 0
0 0
0 0
0 0
0 0
0 0
0 0
0 0
0 0
0 0
0 0
0 0
0 0
0 0
0 0
0 0
0 0
0 0
0 0
0 0
0 0
0 0
0 0
0 0
0 0
0 0
0 0
0 0
0 0
0 0
0 0
0 0
0 0
0 0
0 0
0 0
0 0
0 0
0 0
0 0
0 0
0 0
0 0
0 0
0 0
0 0
0 0
0 0
0 0
0 0
0 0
0 0
0 0
0 0
0 0
0 0
0 0
0 0
0 0
0 0
0 0
0 0
0 0
0 0
0 0
0 0
0 0
0 0
0 0
0 0
0 0
0 0
0 0
0 0
0 0
0 0
0 0
0 0
0 0
0 0
0 0
0 0
0 0
0 0
0 0
0 0
0 0
0 0
0 0
0 0
0 0
0 0
0 0
0 0
0 0
0 0
0 0
0 0
0 0
0 0
0 0
0 0
0 0
0 0
0 0
0 0
0 0
0 0
0 0
0 0
0 0
0 0
0 0
0 0
0 0
0 0
0 0
0 0
0 0
0 0
0 0
0 0
0 0
0 0
0 0
0 0
0 0
0 0
0 0
0 0
0 0
0 0
0 0
0 0
0 0
0 0
0 0
0 0
0 0
0 0
0 0
0 0
0 0
0 0
0 0
0 0
0 0
0 0
0 0
0 0
0 0
0 0
0 0
0 0
0 0
0 0
0 0
0 0
0 0
0 0
0 0
0 0
0 0
0 0
0 0
0 0
0 0
0 0
0 0
0 0
0 0
0 0
0 0
0 0
0 0
0 0
0 0
0 0
0 0
0 0
0 0
0 0
0 0
0 0
0 0
0 0
0 0
0 0
0 0
0 0
0 0
0 0
0 0
0 0
0 0
0 0
0 0
0 0
0 0
0 0
0 0
0 0
0 0
0 0
0 0
0 0
0 0
0 0
0 0
0 0
0 0
0 0
0 0
0 0
0 0
0 0
0 0
0 0
0 0
0 0
0 0
0 0
0 0
0 0
0 0
0 0
0 0
0 0
0 0
0 0
0 0
0 0
0 0
0 0
0 0
0 0
0 0
0 0
0 0
0 0
0 0
0 0
0 0
0 0
0 0
0 0
0 0
0 0
0 0
0 0
0 0
0 0
0 0
0 0
0 0
0 0
0 0
0 0
0 0
0 0
0 0
0 0
0 0
0 0
0 0
0 0
0 0
0 0
0 0
0 0
0 0
0 0
0 0
0 0
0 0
0 0
0 0
0 0
0 0
0 0
0 0
0 0
0 0
0 0
0 0
0 0
0 0
0 0
0 0
0 0
0 0
0 0
0 0
0 0
0 0
0 0
0 0
0 0
0 0
0 0
0 0
0 0
0 0
0 0
0 0
0 0
0 0
0 0
0 0
0 0
0 0
0 0
0 0
0 0
0 0
0 0
0 0
0 0
0 0
0 0
0 0
0 0
0 0
0 0
0 0
0 0
0 0
0 0
0 0
0 0
0 0
0 0
0 0
0 0
0 0
0 0
0 0
0 0
0 0
0 0
0 0
0 0
0 0
0 0
0 0
0 0
0 0
0 0
0 0
0 0
0 0
0 0
0 0
0 0
0 0
0 0
0 0
0 0
0 0
0 0
0 0
0 0
0 0
0 0
0 0
0 0
0 0
0 0
0 0
0 0
0 0
0 0
0 0
0 0
0 0
0 0
0 0
0 0
0 0
0 0
0 0
0 0
0 0
0 0
0 0
0 0
0 0
0 0
0 0
0 0
0 0
0 0
0 0
0 0
0 0
0 0
0 0
0 0
0 0
0 0
0 0
0 0
0 0
0 0
0 0
0 0
0 0
0 0
0 0
0 0
0 0
0 0
0 0
0 0
0 0
0 0
0 0
0 0
0 0
0 0
0 0
0 0
0 0
0 0
0 0
0 0
0 0
0 0
0 0
0 0
0 0
0 0
0 0
0 0
0 0
0 0
0 0
0 0
0 0
0 0
0 0
0 0
0 0
0 0
0 0
0 0
0 0
0 0
0 0
0 0
0 0
0 0
0 0
0 0
0 0
0 0
0 0
0 0
0 0
0 0
0 0
0 0
0 0
0 0
0 0
0 0
0 0
0 0
0 0
0 0
0 0
0 0
0 0
0 0
0 0
0 0
0 0
0 0
0 0
0 0
0 0
0 0
0 0
0 0
0 0
0 0
0 0
0 0
0 0
0 0
0 0
0 0
0 0
0 0
0 0
0 0
0 0
0 0
0 0
0 0
0 0
0 0
0 0
0 0
0 0
0 0
0 0
0 0
0 0
0 0
0 0
0 0
0 0
0 0
0 0
0 0
0 0
0 0
0 0
0 0
0 0
0 0
0 0
0 0
0 0
0 0
0 0
0 0
0 0
0 0
0 0
0 0
0 0
0 0
0 0
0 0
0 0
0 0
0 0
0 0
0 0
0 0
0 0
0 0
0 0
0 0
0 0
0 0
0 0
0 0
0 0
0 0
0 0
0 0
0 0
0 0
0 0
0 0
0 0
0 0
0 0
0 0
0 0
0 0
0 0
0 0
0 0
0 0
0 0
0 0
0 0
0 0
0 0
0 0
0 0
0 0
0 0
0 0
0 0
0 0
0 0
0 0
0 0
0 0
0 0
0 0
0 0
0 0
0 0
0 0
0 0
0 0
0 0
0 0
0 0
0 0
0 0
0 0
0 0
0 0
0 0
0 0
0 0
0 0
0 0
0 0
0 0
0 0
0 0
0 0
0 0
0 0
0 0
0 0
0 0
0 0
0 0
0 0
0 0
0 0
0 0
0 0
0 0
0 0
0 0
0 0
0 0
0 0
0 0
0 0
0 0
0 0
0 0
0 0
0 0
0 0
0 0
0 0
0 0
0 0
0 0
0 0
0 0
0 0
0 0
0 0
0 0
0 0
0 0
0 0
0 0
0 0
0 0
0 0
0 0
0 0
0 0
0 0
0 0
0 0
0 0
0 0
0 0
0 0
0 0
0 0
0 0
0 0
0 0
0 0
0 0
0 0
0 0
0 0
0 0
0 0
0 0
0 0
0 0
0 0
0 0
0 0
0 0
0 0
0 0
0 0
0 0
0 0
0 0
0 0
0 0
0 0
0 0
0 0
0 0
0 0
0 0
0 0
0 0
0 0
0 0
0 0
0 0
0 0
0 0
0 0
0 0
0 0
0 0
0 0
0 0
0 0
0 0
0 0
0 0
0 0
0 0
0 0
0 0
0 0
0 0
0 0
0 0
0 0
0 0
0 0
0 0
0 0
0 0
0 0
0 0
0 0
0 0
0 0
0 0
0 0
0 0
0 0
0 0
0 0
0 0
0 0
0 0
0 0
0 0
0 0
0 0
0 0
0 0
0 0
0 0
0 0
0 0
0 0
0 0
0 0
0 0
0 0
0 0
0 0
0 0
0 0
0 0
0 0
0 0
0 0
0 0
0 0
0 0
0 0
0 0
0 0
0 0
0 0
0 0
0 0
0 0
0 0
0 0
0 0
0 0
0 0
0 0
0 0
0 0
0 0
0 0
0 0
0 0
0 0
0 0
0 0
0 0
0 0
0 0
0 0
0 0
0 0
0 0
0 0
0 0
0 0
0 0
0 0
0 0
0 0
0 0
0 0
0 0
0 0
0 0
0 0
0 0
0 0
0 0
0 0
0 0
0 0
0 0
0 0
0 0
0 0
0 0
0 0
0 0
0 0
0 0
0 0
0 0
0 0
0 0
0 0
0 0
0 0
0 0
0 0
0 0
0 0
0 0
0 0
0 0
0 0
0 0
0 0
0 0
0 0
0 0
0 0
0 0
0 0
0 0
0 0
0 0
0 0
0 0
0 0
0 0
0 0
0 0
0 0
0 0
0 0
0 0
0 0
0 0
0 0
0 0
0 0
0 0
0 0
0 0
0 0
0 0
0 0
0 0
0 0
0 0
0 0
0 0
0 0
0 0
0 0
0 0
0 0
0 0
0 0
0 0
0 0
0 0
0 0
0 0
0 0
0 0
0 0
0 0
0 0
0 0
0 0
0 0
0 0
0 0
0 0
0 0
0 0
0 0
0 0
0 0
0 0
0 0
0 0
0 0
0 0
0 0
0 0
0 0
0 0
0 0
0 0
0 0
0 0
0 0
0 0
0 0
0 0
0 0
0 0
0 0
0 0
0 0
0 0
0 0
0 0
0 0
0 0
0 0
0 0
0 0
0 0
0 0
0 0
0 0
0 0
0 0
0 0
0 0
0 0
0 0
0 0
0 0
0 0
0 0
0 0
0 0
0 0
0 0
0 0
0 0
0 0
0 0
0 0
0 0
0 0
0 0
0 0
0 0
0 0
0 0
0 0
0 0
0 0
0 0
0 0
0 0
0 0
0 0
0 0
0 0
0 0
0 0
0 0
0 0
0 0
0 0
0 0
0 0
0 0
0 0
0 0
0 0
0 0
0 0
0 0
0 0
0 0
0 0
0 0
0 0
0 0
0 0
0 0
0 0
0 0
0 0
0 0
0 0
0 0
0 0
0 0
0 0
0 0
0 0
0 0
0 0
0 0
0 0
0 0
0 0
0 0
0 0
0 0
0 0
0 0
0 0
0 0
0 0
0 0
0 0
0 0
0 0
0 0
0 0
0 0
0 0
0 0
0 0
0 0
0 0
0 0
0 0
0 0
0 0
0 0
0 0
0 0
0 0
0 0
0 0
0 0
0 0
0 0
0 0
0 0
0 0
0 0
0 0
0 0
0 0
0 0
0 0
0 0
0 0
0 0
0 0
0 0
0 0
0 0
0 0
0 0
0 0
0 0
0 0
0 0
0 0
0 0
0 0
0 0
0 0
0 0
0 0
0 0
0 0
0 0
0 0
0 0
0 0
0 0
0 0
0 0
0 0
0 0
0 0
0 0
0 0
0 0
0 0
0 0
0 0
0 0
0 0
0 0
0 0
0 0
0 0
0 0
0 0
0 0
0 0
0 0
0 0
0 0
0 0
0 0
0 0
0 0
0 0
0 0
0 0
0 0
0 0
0 0
0 0
0 0
0 0
0 0
0 0
0 0
0 0
0 0
0 0
0 0
0 0
0 0
0 0
0 0
0 0
0 0
0 0
0 0
0 0
0 0
0 0
0 0
0 0
0 0
0 0
0 0
0 0
0 0
0 0
0 0
0 0
0 0
0 0
0 0
0 0
0 0
0 0
0 0
0 0
0 0
0 0
0 0
0 0
0 0
0 0
0 0
0 0
0 0
0 0
0 0
0 0
0 0
0 0
0 0
0 0
0 0
0 0
0 0
0 0
0 0
0 0
0 0
0 0
0 0
0 0
0 0
0 0
0 0
0 0
0 0
0 0
0 0
0 0
0 0
0 0
0 0
0 0
0 0
0 0
0 0
0 0
0 0
0 0
0 0
0 0
0 0
0 0
0 0
0 0
0 0
0 0
0 0
0 0
0 0
0 0
0 0
0 0
0 0
0 0
0 0
0 0
0 0
0 0
0 0
0 0
0 0
0 0
0 0
0 0
0 0
0 0
0 0
0 0
0 0
0 0
0 0
0 0
0 0
0 0
0 0
0 0
0 0
0 0
0 0
0 0
0 0
0 0
0 0
0 0
0 0
0 0
0 0
0 0
0 0
0 0
0 0
0 0
0 0
0 0
0 0
0 0
0 0
0 0
0 0
0 0
0 0
0 0
0 0
0 0
0 0
0 0
0 0
0 0
0 0
0 0
0 0
0 0
0 0
0 0
0 0
0 0
0 0
0 0
0 0
0 0
0 0
0 0
0 0
0 0
0 0
0 0
0 0
0 0
0 0
0 0
0 0
0 0
0 0
0 0
0 0
0 0
0 0
0 0
0 0
0 0
0 0
0 0
0 0
0 0
0 0
0 0
0 0
0 0
0 0
0 0
0 0
0 0
0 0
0 0
0 0
0 0
0 0
0 0
0 0
0 0
0 0
0 0
0 0
0 0
0 0
0 0
0 0
0 0
0 0
0 0
0 0
0 0
0 0
0 0
0 0
0 0
0 0
0 0
0 0
0 0
0 0
0 0
0 0
0 0
0 0
0 0
0 0
0 0
0 0
0 0
0 0
0 0
0 0
0 0
0 0
0 0
0 0
0 0
0 0
0 0
0 0
0 0
0 0
0 0
0 0
0 0
0 0
0 0
0 0
0 0
0 0
0 0
0 0
0 0
0 0
0 0
0 0
0 0
0 0
0 0
0 0
0 0
0 0
0 0
0 0
0 0
0 0
0 0
0 0
0 0
0 0
0 0
0 0
0 0
0 0
0 0
0 0
0 0
0 0
0 0
0 0
0 0
0 0
0 0
0 0
0 0
0 0
0 0
0 0
0 0
0 0
0 0
0 0
0 0
0 0
0 0
0 0
0 0
0 0
0 0
0 0
0 0
0 0
0 0
0 0
0 0
0 0
0 0
0 0
0 0
0 0
0 0
0 0
0 0
0 0
0 0
0 0
0 0
0 0
0 0
0 0
0 0
0 0
0 0
0 0
0 0
0 0
0 0
0 0
0 0
0 0
0 0
0 0
0 0
0 0
0 0
0 0
0 0
0 0
0 0
0 0
0 0
0 0
0 0
0 0
0 0
0 0
0 0
0 0
0 0
0 0
0 0
0 0
0 0
0 0
0 0
0 0
0 0
0 0
0 0
0 0
0 0
0 0
0 0
0 0
0 0
0 0
0 0
0 0
0 0
0 0
0 0
0 0
0 0
0 0
0 0
0 0
0 0
0 0
0 0
0 0
0 0
0 0
0 0
0 0
0 0
0 0
0 0
0 0
0 0
0 0
0 0
0 0
0 0
0 0
0 0
0 0
0 0
0 0
0 0
0 0
0 0
0 0
0 0
0 0
0 0
0 0
0 0
0 0
0 0
0 0
0 0
0 0
0 0
0 0
0 0
0 0
0 0
0 0
0 0
0 0
0 0
0 0
0 0
0 0
0 0
0 0
0 0
0 0
0 0
0 0
0 0
0 0
0 0
0 0
0 0
0 0
0 0
0 0
0 0
0 0
0 0
0 0
0 0
0 0
0 0
0 0
0 0
0 0
0 0
0 0
0 0
0 0
0 0
0 0
0 0
0 0
0 0
0 0
0 0
0 0
0 0
0 0
0 0
0 0
0 0
0 0
0 0
0 0
0 0
0 0
0 0
0 0
0 0
0 0
0 0
0 0
0 0
0 0
0 0
0 0
0 0
0 0
0 0
0 0
0 0
0 0
0 0
0 0
0 0
0 0
0 0
0 0
0 0
0 0
0 0
0 0
0 0
0 0
0 0
0 0
0 0
0 0
0 0
0 0
0 0
0 0
0 0
0 0
0 0
0 0
0 0
0 0
0 0
0 0
0 0
0 0
0 0
0 0
0 0
0 0
0 0
0 0
0 0
0 0
0 0
0 0
0 0
0 0
0 0
0 0
0 0
0 0
0 0
0 0
0 0
0 0
0 0
0 0
0 0
0 0
0 0
0 0
0 0
0 0
0 0
0 0
0 0
0 0
0 0
0 0
0 0
0 0
0 0
0 0
0 0
0 0
0 0
0 0
0 0
0 0
0 0
0 0
0 0
0 0
0 0
0 0
0 0
0 0
0 0
0 0
0 0
0 0
0 0
0 0
0 0
0 0
0 0
0 0
0 0
0 0
0 0
0 0
0 0
0 0
0 0
0 0
0 0
0 0
0 0
0 0
0 0
0 0
0 0
0 0
0 0
0 0
0 0
0 0
0 0
0 0
0 0
0 0
0 0
0 0
0 0
0 0
0 0
0 0
0 0
0 0
0 0
0 0
0 0
0 0
0 0
0 0
0 0
0 0
0 0
0 0
0 0
0 0
0 0
0 0
0 0
0 0
0 0
0 0
0 0
0 0
0 0
0 0
0 0
0 0
0 0
0 0
0 0
0 0
0 0
0 0
0 0
0 0
0 0
0 0
0 0
0 0
0 0
0 0
0 0
0 0
0 0
0 0
0 0
0 0
0 0
0 0
0 0
0 0
0 0
0 0
0 0
0 0
0 0
0 0
0 0
0 0
0 0
0 0
0 0
0 0
0 0
0 0
0 0
0 0
0 0
0 0
0 0
0 0
0 0
0 0
0 0
0 0
0 0
0 0
0 0
0 0
0 0
0 0
0 0
0 0
0 0
0 0
0 0
0 0
0 0
0 0
0 0
0 0
0 0
0 0
0 0
0 0
0 0
0 0
0 0
0 0
0 0
0 0
0 0
0 0
0 0
0 0
0 0
0 0
0 0
0 0
0 0
0 0
0 0
0 0
0 0
0 0
0 0
0 0
0 0
0 0
0 0
0 0
0 0
0 0
0 0
0 0
0 0
0 0
0 0
0 0
0 0
0 0
0 0
0 0
0 0
0 0
0 0
0 0
0 0
0 0
0 0
0 0
0 0
0 0
0 0
0 0
0 0
0 0
0 0
0 0
0 0
0 0
0 0
0 0
0 0
0 0
0 0
0 0
0 0
0 0
0 0
0 0
0 0
0 0
0 0
0 0
0 0
0 0
0 0
0 0
0 0
0 0
0 0
0 0
0 0
0 0
0 0
0 0
0 0
0 0
0 0
0 0
0 0
0 0
0 0
0 0
0 0
0 0
0 0
0 0
0 0
0 0
0 0
0 0
0 0
0 0
0 0
0 0
0 0
0 0
0 0
0 0
0 0
0 0
0 0
0 0
0 0
0 0
0 0
0 0
0 0
0 0
0 0
0 0
0 0
0 0
0 0
0 0
0 0
0 0
0 0
0 0
0 0
0 0
0 0
0 0
0 0
0 0
0 0
0 0
0 0
0 0
0 0
0 0
0 0
0 0
0 0
0 0
0 0
0 0
0 0
0 0
0 0
0 0
0 0
0 0
0 0
0 0
0 0
0 0
0 0
0 0
0 0
0 0
0 0
0 0
0 0
0 0
0 0
0 0
0 0
0 0
0 0
0 0
0 0
0 0
0 0
0 0
0 0
0 0
0 0
0 0
0 0
0 0
0 0
0 0
0 0
0 0
0 0
0 0
0 0
0 0
0 0
0 0
0 0
0 0
0 0
0 0
0 0
0 0
0 0
0 0
0 0
0 0
0 0
0 0
0 0
0 0
0 0
0 0
0 0
0 0
0 0
0 0
0 0
0 0
0 0
0 0
0 0
0 0
0 0
0 0
0 0
0 0
0 0
0 0
0 0
0 0
0 0
0 0
0 0
0 0
0 0
0 0
0 0
0 0
0 0
0 0
0 0
0 0
0 0
0 0
0 0
0 0
0 0
0 0
0 0
0 0
0 0
0 0
0 0
0 0
0 0
0 0
0 0
0 0
0 0
0 0
0 0
0 0
0 0
0 0
0 0
0 0
0 0
0 0
0 0
0 0
0 0
0 0
0 0
0 0
0 0
0 0
0 0
0 0
0 0
0 0
0 0
0 0
0 0
0 0
0 0
0 0
0 0
0 0
0 0
0 0
0 0
0 0
0 0
0 0
0 0
0 0
0 0
0 0
0 0
0 0
0 0
0 0
0 0
0 0
0 0
0 0
0 0
0 0
0 0
0 0
0 0
0 0
0 0
0 0
0 0
0 0
0 0
0 0
0 0
0 0
0 0
0 0
0 0
0 0
0 0
0 0
0 0
0 0
0 0
0 0
0 0
0 0
0 0
0 0
0 0
0 0
0 0
0 0
0 0
0 0
0 0
0 0
0 0
0 0
0 0
0 0
0 0
0 0
0 0
0 0
0 0
0 0
0 0
0 0
0 0
0 0
0 0
0 0
0 0
0 0
0 0
0 0
0 0
0 0
0 0
0 0
0 0
0 0
0 0
0 0
0 0
0 0
0 0
0 0
0 0
0 0
0 0
0 0
0 0
0 0
0 0
0 0
0 0
0 0
0 0
0 0
0 0
0 0
0 0
0 0
0 0
0 0
0 0
0 0
0 0
0 0
0 0
0 0
0 0
0 0
0 0
0 0
0 0
0 0
0 0
0 0
0 0
0 0
0 0
0 0
0 0
0 0
0 0
0 0
0 0
0 0
0 0
0 0
0 0
0 0
0 0
0 0
0 0
0 0
0 0
0 0
0 0
0 0
0 0
0 0
0 0
0 0
0 0
0 0
0 0
0 0
0 0
0 0
0 0
0 0
0 0
0 0
0 0
0 0
0 0
0 0
0 0
0 0
0 0
0 0
0 0
0 0
0 0
0 0
0 0
0 0
0 0
0 0
0 0
0 0
0 0
0 0
0 0
0 0
0 0
0 0
0 0
0 0
0 0
0 0
0 0
0 0
0 0
0 0
0 0
0 0
0 0
0 0
0 0
0 0
0 0
0 0
0 0
0 0
0 0
0 0
0 0
0 0
0 0
0 0
0 0
0 0
0 0
0 0
0 0
0 0
0 0
0 0
0 0
0 0
0 0
0 0
0 0
0 0
0 0
0 0
0 0
0 0
0 0
0 0
0 0
0 0
0 0
0 0
0 0
0 0
0 0
0 0
0 0
0 0
0 0
0 0
0 0
0 0
0 0
0 0
0 0
0 0
0 0
0 0
0 0
0 0
0 0
0 0
0 0
0 0
0 0
0 0
0 0
0 0
0 0
0 0
0 0
0 0
0 0
0 0
0 0
0 0
0 0
0 0
0 0
0 0
0 0
0 0
0 0
0 0
0 0
0 0
0 0
0 0
0 0
0 0
0 0
0 0
0 0
0 0
0 0
0 0
0 0
0 0
0 0
0 0
0 0
0 0
0 0
0 0
0 0
0 0
0 0
0 0
0 0
0 0
0 0
0 0
0 0
0 0
0 0
0 0
0 0
0 0
0 0
0 0
0 0
0 0
0 0
0 0
0 0
0 0
0 0
0 0
0 0
0 0
0 0
0 0
0 0
0 0
0 0
0 0
0 0
0 0
0 0
0 0
0 0
0 0
0 0
0 0
0 0
0 0
0 0
0 0
0 0
0 0
0 0
0 0
0 0
0 0
0 0
0 0
0 0
0 0
0 0
0 0
0 0
0 0
0 0
0 0
0 0
0 0
0 0
0 0
0 0
0 0
0 0
0 0
0 0
0 0
0 0
0 0
0 0
0 0
0 0
0 0
0 0
0 0
0 0
0 0
0 0
0 0
0 0
0 0
0 0
0 0
0 0
0 0
0 0
0 0
0 0
0 0
0 0
0 0
0 0
0 0
0 0
0 0
0 0
0 0
0 0
0 0
0 0
0 0
0 0
0 0
0 0
0 0
0 0
0 0
0 0
0 0
0 0
0 0
0 0
0 0
0 0
0 0
0 0
0 0
0 0
0 0
0 0
0 0
0 0
0 0
0 0
0 0
0 0
0 0
0 0
0 0
0 0
0 0
0 0
0 0
0 0
0 0
0 0
0 0
0 0
0 0
0 0
0 0
0 0
0 0
0 0
0 0
0 0
0 0
0 0
0 0
0 0
0 0
0 0
0 0
0 0
0 0
0 0
0 0
0 0
0 0
0 0
0 0
0 0
0 0
0 0
0 0
0 0
0 0
0 0
0 0
0 0
0 0
0 0
0 0
0 0
0 0
0 0
0 0
0 0
0 0
0 0
0 0
0 0
0 0
0 0
0 0
0 0
0 0
0 0
0 0
0 0
0 0
0 0
0 0
0 0
0 0
0 0
0 0
0 0
0 0
0 0
0 0
0 0
0 0
0 0
0 0
0 0
0 0
0 0
0 0
0 0
0 0
0 0
0 0
0 0
0 0
0 0
0 0
0 0
0 0
0 0
0 0
0 0
0 0
0 0
0 0
0 0
0 0
0 0
0 0
0 0
0 0
0 0
0 0
0 0
0 0
0 0
0 0
0 0
0 0
0 0
0 0
0 0
0 0
0 0
0 0
0 0
0 0
0 0
0 0
0 0
0 0
0 0
0 0
0 0
0 0
0 0
0 0
0 0
0 0
0 0
0 0
0 0
0 0
0 0
0 0
0 0
0 0
0 0
0 0
0 0
0 0
0 0
0 0
0 0
0 0
0 0
0 0
0 0
0 0
0 0
0 0
0 0
0 0
0 0
0 0
0 0
0 0
0 0
0 0
0 0
0 0
0 0
0 0
0 0
0 0
0 0
0 0
0 0
0 0
0 0
0 0
0 0
0 0
0 0
0 0
0 0
0 0
0 0
0 0
0 0
0 0
0 0
0 0
0 0
0 0
0 0
0 0
0 0
0 0
0 0
0 0
0 0
0 0
0 0
0 0
0 0
0 0
0 0
0 0
0 0
0 0
0 0
0 0
0 0
0 0
0 0
0 0
0 0
0 0
0 0
0 0
0 0
0 0
0 0
0 0
0 0
0 0
0 0
0 0
0 0
0 0
0 0
0 0
0 0
0 0
0 0
0 0
0 0
0 0
0 0
0 0
0 0
0 0
0 0
0 0
0 0
0 0
0 0
0 0
0 0
0 0
0 0
0 0
0 0
0 0
0 0
0 0
0 0
0 0
0 0
0 0
0 0
0 0
0 0
0 0
0 0
0 0
0 0
0 0
0 0
0 0
0 0
0 0
0 0
0 0
0 0
0 0
0 0
0 0
0 0
0 0
0 0
0 0
0 0
0 0
0 0
0 0
0 0
0 0
0 0
0 0
0 0
0 0
0 0
0 0
0 0
0 0
0 0
0 0
0 0
0 0
0 0
0 0
0 0
0 0
0 0
0 0
0 0
0 0
0 0
0 0
0 0
0 0
0 0
0 0
0 0
0 0
0 0
0 0
0 0
0 0
0 0
0 0
0 0
0 0
0 0
0 0
0 0
0 0
0 0
0 0
0 0
0 0
0 0
0 0
0 0
0 0
0 0
0 0
0 0
0 0
0 0
0 0
0 0
0 0
0 0
0 0
0 0
0 0
0 0
0 0
0 0
0 0
0 0
0 0
0 0
0 0
0 0
0 0
0 0
0 0
0 0
0 0
0 0
0 0
0 0
0 0
0 0
0 0
0 0
0 0
0 0
0 0
0 0
0 0
0 0
0 0
0 0
0 0
0 0
0 0
0 0
0 0
0 0
0 0
0 0
0 0
0 0
0 0
0 0
0 0
0 0
0 0
0 0
0 0
0 0
0 0
0 0
0 0
0 0
0 0
0 0
0 0
0 0
0 0
0 0
0 0
0 0
0 0
0 0
0 0
0 0
0 0
0 0
0 0
0 0
0 0
0 0
0 0
0 0
0 0
0 0
0 0
0 0
0 0
0 0
0 0
0 0
0 0
0 0
0 0
0 0
0 0
0 0
0 0
0 0
0 0
0 0
0 0
0 0
0 0
0 0
0 0
0 0
0 0
0 0
0 0
0 0
0 0
0 0
0 0
0 0
0 0
0 0
0 0
0 0
0 0
0 0
0 0
0 0
0 0
0 0
0 0
0 0
0 0
0 0
0 0
0 0
0 0
0 0
0 0
0 0
0 0
0 0
0 0
0 0
0 0
0 0
0 0
0 0
0 0
0 0
0 0
0 0
0 0
0 0
0 0
0 0
0 0
0 0
0 0
0 0
0 0
0 0
0 0
0 0
0 0
0 0
0 0
0 0
0 0
0 0
0 0
0 0
0 0
0 0
0 0
0 0
0 0
0 0
0 0
0 0
0 0
0 0
0 0
0 0
0 0
0 0
0 0
0 0
0 0
0 0
0 0
0 0
0 0
0 0
0 0
0 0
0 0
0 0
0 0
0 0
0 0
0 0
0 0
0 0
0 0
0 0
0 0
0 0
0 0
0 0
0 0
0 0
0 0
0 0
0 0
0 0
0 0
0 0
0 0
0 0
0 0
0 0
0 0
0 0
0 0
0 0
0 0
0 0
0 0
0 0
0 0
0 0
0 0
0 0
0 0
0 0
0 0
0 0
0 0
0 0
0 0
0 0
0 0
0 0
0 0
0 0
0 0
0 0
0 0
0 0
0 0
0 0
0 0
0 0
0 0
0 0
0 0
0 0
0 0
0 0
0 0
0 0
0 0
0 0
0 0
0 0
0 0
0 0
0 0
0 0
0 0
0 0
0 0
0 0
0 0
0 0
0 0
0 0
0 0
0 0
0 0
0 0
0 0
0 0
0 0
0 0
0 0
0 0
0 0
0 0
0 0
0 0
0 0
0 0
0 0
0 0
0 0
0 0
0 0
0 0
0 0
0 0
0 0
0 0
0 0
0 0
0 0
0 0
0 0
0 0
0 0
0 0
0 0
0 0
0 0
0 0
0 0
0 0
0 0
0 0
0 0
0 0
0 0
0 0
0 0
0 0
0 0
0 0
0 0
0 0
0 0
0 0
0 0
0 0
0 0
0 0
0 0
0 0
0 0
0 0
0 0
0 0
0 0
0 0
0 0
0 0
0 0
0 0
0 0
0 0
0 0
0 0
0 0
0 0
0 0
0 0
0 0
0 0
0 0
0 0
0 0
0 0
0 0
0 0
0 0
0 0
0 0
0 0
0 0
0 0
0 0
0 0
0 0
0 0
0 0
0 0
0 0
0 0
0 0
0 0
0 0
0 0
0 0
0 0
0 0
0 0
0 0
0 0
0 0
0 0
0 0
0 0
0 0
0 0
0 0
0 0
0 0
0 0
0 0
0 0
0 0
0 0
0 0
0 0
0 0
0 0
0 0
0 0
0 0
0 0
0 0
0 0
0 0
0 0
0 0
0 0
0 0
0 0
0 0
0 0
0 0
0 0
0 0
0 0
0 0
0 0
0 0
0 0
0 0
0 0
0 0
0 0
0 0
0 0
0 0
0 0
0 0
0 0
0 0
0 0
0 0
0 0
0 0
0 0
0 0
0 0
0 0
0 0
0 0
0 0
0 0
0 0
0 0
0 0
0 0
0 0
0 0
0 0
0 0
0 0
0 0
0 0
0 0
0 0
0 0
0 0
0 0
0 0
0 0
0 0
0 0
0 0
0 0
0 0
0 0
0 0
0 0
0 0
0 0
0 0
0 0
0 0
0 0
0 0
0 0
0 0
0 0
0 0
0 0
0 0
0 0
0 0
0 0
0 0
0 0
0 0
0 0
0 0
0 0
0 0
0 0
0 0
0 0
0 0
0 0
0 0
0 0
0 0
0 0
0 0
0 0
0 0
0 0
0 0
0 0
0 0
0 0
0 0
0 0
0 0
0 0
0 0
0 0
0 0
0 0
0 0
0 0
0 0
0 0
0 0
0 0
0 0
0 0
0 0
0 0
0 0
0 0
0 0
0 0
0 0
0 0
0 0
0 0
0 0
0 0
0 0
0 0
0 0
0 0
0 0
0 0
0 0
0 0
0 0
0 0
0 0
0 0
0 0
0 0
0 0
0 0
0 0
0 0
0 0
0 0
0 0
0 0
0 0
0 0
0 0
0 0
0 0
0 0
0 0
0 0
0 0
0 0
0 0
0 0
0 0
0 0
0 0
0 0
0 0
0 0
0 0
0 0
0 0
0 0
0 0
0 0
0 0
0 0
0 0
0 0
0 0
0 0
0 0
0 0
0 0
0 0
0 0
0 0
0 0
0 0
0 0
0 0
0 0
0 0
0 0
0 0
0 0
0 0
0 0
0 0
0 0
0 0
0 0
0 0
0 0
0 0
0 0
0 0
0 0
0 0
0 0
0 0
0 0
0 0
0 0
0 0
0 0
0 0
0 0
0 0
0 0
0 0
0 0
0 0
0 0
0 0
0 0
0 0
0 0
0 0
0 0
0 0
0 0
0 0
0 0
0 0
0 0
0 0
0 0
0 0
0 0
0 0
0 0
0 0
0 0
0 0
0 0
0 0
0 0
0 0
0 0
0 0
0 0
0 0
0 0
0 0
0 0
0 0
0 0
0 0
0 0
0 0
0 0
0 0
0 0
0 0
0 0
0 0
0 0
0 0
0 0
0 0
0 0
0 0
0 0
0 0
0 0
0 0
0 0
0 0
0 0
0 0
0 0
0 0
0 0
0 0
0 0
0 0
0 0
0 0
0 0
0 0
0 0
0 0
0 0
0 0
0 0
0 0
0 0
0 0
0 0
0 0
0 0
0 0
0 0
0 0
0 0
0 0
0 0
0 0
0 0
0 0
0 0
0 0
0 0
0 0
0 0
0 0
0 0
0 0
0 0
0 0
0 0
0 0
0 0
0 0
0 0
0 0
0 0
0 0
0 0
0 0
0 0
0 0
0 0
0 0
0 0
0 0
0 0
0 0
0 0
0 0
0 0
0 0
0 0
0 0
0 0
0 0
0 0
0 0
0 0
0 0
0 0
0 0
0 0
0 0
0 0
0 0
0 0
0 0
0 0
0 0
0 0
0 0
0 0
0 0
0 0
0 0
0 0
0 0
0 0
0 0
0 0
0 0
0 0
0 0
0 0
0 0
0 0
0 0
0 0
0 0
0 0
0 0
0 0
0 0
0 0
0 0
0 0
0 0
0 0
0 0
0 0
0 0
0 0
0 0
0 0
0 0
0 0
0 0
0 0
0 0
0 0
0 0
0 0
0 0
0 0
0 0
0 0
0 0
0 0
0 0
0 0
0 0
0 0
0 0
0 0
0 0
0 0
0 0
0 0
0 0
0 0
0 0
0 0
0 0
0 0
0 0
0 0
0 0
0 0
0 0
0 0
0 0
0 0
0 0
0 0
0 0
0 0
0 0
0 0
0 0
0 0
0 0
0 0
0 0
0 0
0 0
0 0
0 0
0 0
0 0
0 0
0 0
0 0
0 0
0 0
0 0
0 0
0 0
0 0
0 0
0 0
0 0
0 0
0 0
0 0
0 0
0 0
0 0
0 0
0 0
0 0
0 0
0 0
0 0
0 0
0 0
0 0
0 0
0 0
0 0
0 0
0 0
0 0
0 0
0 0
0 0
0 0
0 0
0 0
0 0
0 0
0 0
0 0
0 0
0 0
0 0
0 0
0 0
0 0
0 0
0 0
0 0
0 0
0 0
0 0
0 0
0 0
0 0
0 0
0 0
0 0
0 0
0 0
0 0
0 0
0 0
0 0
0 0
0 0
0 0
0 0
0 0
0 0
0 0
0 0
0 0
0 0
0 0
0 0
0 0
0 0
0 0
0 0
0 0
0 0
0 0
0 0
0 0
0 0
0 0
0 0
0 0
0 0
0 0
0 0
0 0
0 0
0 0
0 0
0 0
0 0
0 0
0 0
0 0
0 0
0 0
0 0
0 0
0 0
0 0
0 0
0 0
0 0
0 0
0 0
0 0
0 0
0 0
0 0
0 0
0 0
0 0
0 0
0 0
0 0
0 0
0 0
0 0
0 0
0 0
0 0
0 0
0 0
0 0
0 0
0 0
0 0
0 0
0 0
0 0
0 0
0 0
0 0
0 0
0 0
0 0
0 0
0 0
0 0
0 0
0 0
0 0
0 0
0 0
0 0
0 0
0 0
0 0
0 0
0 0
0 0
0 0
0 0
0 0
0 0
0 0
0 0
0 0
0 0
0 0
0 0
0 0
0 0
0 0
0 0
0 0
0 0
0 0
0 0
0 0
0 0
0 0
0 0
0 0
0 0
0 0
0 0
0 0
0 0
0 0
0 0
0 0
0 0
0 0
0 0
0 0
0 0
0 0
0 0
0 0
0 0
0 0
0 0
0 0
0 0
0 0
0 0
0 0
0 0
0 0
0 0
0 0
0 0
0 0
0 0
0 0
0 0
0 0
0 0
0 0
0 0
0 0
0 0
0 0
0 0
0 0
0 0
0 0
0 0
0 0
0 0
0 0
0 0
0 0
0 0
0 0
0 0
0 0
0 0
0 0
0 0
0 0
0 0
0 0
0 0
0 0
0 0
0 0
0 0
0 0
0 0
0 0
0 0
0 0
0 0
0 0
0 0
0 0
0 0
0 0
0 0
0 0
0 0
0 0
0 0
0 0
0 0
0 0
0 0
0 0
0 0
0 0
0 0
0 0
0 0
0 0
0 0
0 0
0 0
0 0
0 0
0 0
0 0
0 0
0 0
0 0
0 0
0 0
0 0
0 0
0 0
0 0
0 0
0 0
0 0
0 0
0 0
0 0
0 0
0 0
0 0
0 0
0 0
0 0
0 0
0 0
0 0
0 0
0 0
0 0
0 0
0 0
0 0
0 0
0 0
0 0
0 0
0 0
0 0
0 0
0 0
0 0
0 0
0 0
0 0
0 0
0 0
0 0
0 0
0 0
0 0
0 0
0 0
0 0
0 0
0 0
0 0
0 0
0 0
0 0
0 0
0 0
0 0
0 0
0 0
0 0
0 0
0 0
0 0
0 0
0 0
0 0
0 0
0 0
0 0
0 0
0 0
0 0
0 0
0 0
0 0
0 0
0 0
0 0
0 0
0 0
0 0
0 0
0 0
0 0
0 0
0 0
0 0
0 0
0 0
0 0
0 0
0 0
0 0
0 0
0 0
0 0
0 0
0 0
0 0
0 0
0 0
0 0
0 0
0 0
0 0
0 0
0 0
0 0
0 0
0 0
0 0
0 0
0 0
0 0
0 0
0 0
0 0
0 0
0 0
0 0
0 0
0 0
0 0
0 0
0 0
0 0
0 0
0 0
0 0
0 0
0 0
0 0
0 0
0 0
0 0
0 0
0 0
0 0
0 0
0 0
0 0
0 0
0 0
0 0
0 0
0 0
0 0
0 0
0 0
0 0
0 0
0 0
0 0
0 0
0 0
0 0
0 0
0 0
0 0
0 0
0 0
0 0
0 0
0 0
0 0
0 0
0 0
0 0
0 0
0 0
0 0
0 0
0 0
0 0
0 0
0 0
0 0
0 0
0 0
0 0
0 0
0 0
0 0
0 0
0 0
0 0
0 0
0 0
0 0
0 0
0 0
0 0
0 0
0 0
0 0
0 0
0 0
0 0
0 0
0 0
0 0
0 0
0 0
0 0
0 0
0 0
0 0
0 0
0 0
0 0
0 0
0 0
0 0
0 0
0 0
0 0
0 0
0 0
0 0
0 0
0 0
0 0
0 0
0 0
0 0
0 0
0 0
0 0
0 0
0 0
0 0
0 0
0 0
0 0
0 0
0 0
0 0
0 0
0 0
0 0
0 0
0 0
0 0
0 0
0 0
0 0
0 0
0 0
0 0
0 0
0 0
0 0
0 0
0 0
0 0
0 0
0 0
0 0
0 0
0 0
0 0
0 0
0 0
0 0
0 0
0 0
0 0
0 0
0 0
0 0
0 0
0 0
0 0
0 0
0 0
0 0
0 0
0 0
0 0
0 0
0 0
0 0
0 0
0 0
0 0
0 0
0 0
0 0
0 0
0 0
0 0
0 0
0 0
0 0
0 0
0 0
0 0
0 0
0 0
0 0
0 0
0 0
0 0
0 0
0 0
0 0
0 0
0 0
0 0
0 0
0 0
0 0
0 0
0 0
0 0
0 0
0 0
0 0
0 0
0 0
0 0
0 0
0 0
0 0
0 0
0 0
0 0
0 0
0 0
0 0
0 0
0 0
0 0
0 0
0 0
0 0
0 0
0 0
0 0
0 0
0 0
0 0
0 0
0 0
0 0
0 0
0 0
0 0
0 0
0 0
0 0
0 0
0 0
0 0
0 0
0 0
0 0
0 0
0 0
0 0
0 0
0 0
0 0
0 0
0 0
0 0
0 0
0 0
0 0
0 0
0 0
0 0
0 0
0 0
0 0
0 0
0 0
0 0
0 0
0 0
0 0
0 0
0 0
0 0
0 0
0 0
0 0
0 0
0 0
0 0
0 0
0 0
0 0
0 0
0 0
0 0
0 0
0 0
0 0
0 0
0 0
0 0
0 0
0 0
0 0
0 0
0 0
0 0
0 0
0 0
0 0
0 0
0 0
0 0
0 0
0 0
0 0
0 0
0 0
0 0
0 0
0 0
0 0
0 0
0 0
0 0
0 0
0 0
0 0
0 0
0 0
0 0
0 0
0 0
0 0
0 0
0 0
0 0
0 0
0 0
0 0
0 0
0 0
0 0
0 0
0 0
0 0
0 0
0 0
0 0
0 0
0 0
0 0
0 0
0 0
0 0
0 0
0 0
0 0
0 0
0 0
0 0
0 0
0 0
0 0
0 0
0 0
0 0
0 0
0 0
0 0
0 0
0 0
0 0
0 0
0 0
0 0
0 0
0 0
0 0
0 0
0 0
0 0
0 0
0 0
0 0
0 0
0 0
0 0
0 0
0 0
0 0
0 0
0 0
0 0
0 0
0 0
0 0
0 0
0 0
0 0
0 0
0 0
0 0
0 0
0 0
0 0
0 0
0 0
0 0
0 0
0 0
0 0
0 0
0 0
0 0
0 0
0 0
0 0
0 0
0 0
0 0
0 0
0 0
0 0
0 0
0 0
0 0
0 0
0 0
0 0
0 0
0 0
0 0
0 0
0 0
0 0
0 0
0 0
0 0
0 0
0 0
0 0
0 0
0 0
0 0
0 0
0 0
0 0
0 0
0 0
0 0
0 0
0 0
0 0
0 0
0 0
0 0
0 0
0 0
0 0
0 0
0 0
0 0
0 0
0 0
0 0
0 0
0 0
0 0
0 0
0 0
0 0
0 0
0 0
0 0
0 0
0 0
0 0
0 0
0 0
0 0
0 0
0 0
0 0
0 0
0 0
0 0
0 0
0 0
0 0
0 0
0 0
0 0
0 0
0 0
0 0
0 0
0 0
0 0
0 0
0 0
0 0
0 0
0 0
0 0
0 0
0 0
0 0
0 0
0 0
0 0
0 0
0 0
0 0
0 0
0 0
0 0
0 0
0 0
0 0
0 0
0 0
0 0
0 0
0 0
0 0
0 0
0 0
0 0
0 0
0 0
0 0
0 0
0 0
0 0
0 0
0 0
0 0
0 0
0 0
0 0
0 0
0 0
0 0
0 0
0 0
0 0
0 0
0 0
0 0
0 0
0 0
0 0
0 0
0 0
0 0
0 0
0 0
0 0
0 0
0 0
0 0
0 0
0 0
0 0
0 0
0 0
0 0
0 0
0 0
0 0
0 0
0 0
0 0
0 0
0 0
0 0
0 0
0 0
0 0
0 0
0 0
0 0
0 0
0 0
0 0
0 0
0 0
0 0
0 0
0 0
0 0
0 0
0 0
0 0
0 0
0 0
0 0
0 0
0 0
0 0
0 0
0 0
0 0
0 0
0 0
0 0
0 0
0 0
0 0
0 0
0 0
0 0
0 0
0 0
0 0
0 0
0 0
0 0
0 0
0 0
0 0
0 0
0 0
0 0
0 0
0 0
0 0
0 0
0 0
0 0
0 0
0 0
0 0
0 0
0 0
0 0
0 0
0 0
0 0
0 0
0 0
0 0
0 0
0 0
0 0
0 0
0 0
0 0
0 0
0 0
0 0
0 0
0 0
0 0
0 0
0 0
0 0
0 0
0 0
0 0
0 0
0 0
0 0
0 0
0 0
0 0
0 0
0 0
0 0
0 0
0 0
0 0
0 0
0 0
0 0
0 0
0 0
0 0
0 0
0 0
0 0
0 0
0 0
0 0
0 0
0 0
0 0
0 0
0 0
0 0
0 0
0 0
0 0
0 0
0 0
0 0
0 0
0 0
0 0
0 0
0 0
0 0
0 0
0 0
0 0
0 0
0 0
0 0
0 0
0 0
0 0
0 0
0 0
0 0
0 0
0 0
0 0
0 0
0 0
0 0
0 0
0 0
0 0
0 0
0 0
0 0
0 0
0 0
0 0
0 0
0 0
0 0
0 0
0 0
0 0
0 0
0 0
0 0
0 0
0 0
0 0
0 0
0 0
0 0
0 0
0 0
0 0
0 0
0 0
0 0
0 0
0 0
0 0
0 0
0 0
0 0
0 0
0 0
0 0
0 0
0 0
0 0
0 0
0 0
0 0
0 0
0 0
0 0
0 0
0 0
0 0
0 0
0 0
0 0
0 0
0 0
0 0
0 0
0 0
0 0
0 0
0 0
0 0
0 0
0 0
0 0
0 0
0 0
0 0
0 0
0 0
0 0
0 0
0 0
0 0
0 0
0 0
0 0
0 0
0 0
0 0
0 0
0 0
0 0
0 0
0 0
0 0
0 0
0 0
0 0
0 0
0 0
0 0
0 0
0 0
0 0
0 0
0 0
0 0
0 0
0 0
0 0
0 0
0 0
0 0
0 0
0 0
0 0
0 0
0 0
0 0
0 0
0 0
0 0
0 0
0 0
0 0
0 0
0 0
0 0
0 0
0 0
0 0
0 0
0 0
0 0
0 0
0 0
0 0
0 0
0 0
0 0
0 0
0 0
0 0
0 0
0 0
0 0
0 0
0 0
0 0
0 0
0 0
0 0
0 0
0 0
0 0
0 0
0 0
0 0
0 0
0 0
0 0
0 0
0 0
0 0
0 0
0 0
0 0
0 0
0 0
0 0
0 0
0 0
0 0
0 0
0 0
0 0
0 0
0 0
0 0
0 0
0 0
0 0
0 0
0 0
0 0
0 0
0 0
0 0
0 0
0 0
0 0
0 0
0 0
0 0
0 0
0 0
0 0
0 0
0 0
0 0
0 0
0 0
0 0
0 0
0 0
0 0
0 0
0 0
0 0
0 0
0 0
0 0
0 0
0 0
0 0
0 0
0 0
0 0
0 0
0 0
0 0
0 0
0 0
0 0
0 0
0 0
0 0
0 0
0 0
0 0
0 0
0 0
0 0
0 0
0 0
0 0
0 0
0 0
0 0
0 0
0 0
0 0
0 0
0 0
0 0
0 0
0 0
0 0
0 0
0 0
0 0
0 0
0 0
0 0
0 0
0 0
0 0
0 0
0 0
0 0
0 0
0 0
0 0
0 0
0 0
0 0
0 0
0 0
0 0
0 0
0 0
0 0
0 0
0 0
0 0
0 0
0 0
0 0
0 0
0 0
0 0
0 0
0 0
0 0
0 0
0 0
0 0
0 0
0 0
0 0
0 0
0 0
0 0
0 0
0 0
0 0
0 0
0 0
0 0
0 0
0 0
0 0
0 0
0 0
0 0
0 0
0 0
0 0
0 0
0 0
0 0
0 0
0 0
0 0
0 0
0 0
0 0
0 0
0 0
0 0
0 0
0 0
0 0
0 0
0 0
0 0
0 0
0 0
0 0
0 0
0 0
0 0
0 0
0 0
0 0
0 0
0 0
0 0
0 0
0 0
0 0
0 0
0 0
0 0
0 0
0 0
0 0
0 0
0 0
0 0
0 0
0 0
0 0
0 0
0 0
0 0
0 0
0 0
0 0
0 0
0 0
0 0
0 0
0 0
0 0
0 0
0 0
0 0
0 0
0 0
0 0
0 0
0 0
0 0
0 0
0 0
0 0
0 0
0 0
0 0
0 0
0 0
0 0
0 0
0 0
0 0
0 0
0 0
0 0
0 0
0 0
0 0
0 0
0 0
0 0
0 0
0 0
0 0
0 0
0 0
0 0
0 0
0 0
0 0
0 0
0 0
0 0
0 0
0 0
0 0
0 0
0 0
0 0
0 0
0 0
0 0
0 0
0 0
0 0
0 0
0 0
0 0
0 0
0 0
0 0
0 0
0 0
0 0
0 0
0 0
0 0
0 0
0 0
0 0
0 0
0 0
0 0
0 0
0 0
0 0
0 0
0 0
0 0
0 0
0 0
0 0
0 0
0 0
0 0
0 0
0 0
0 0
0 0
0 0
0 0
0 0
0 0
0 0
0 0
0 0
0 0
0 0
0 0
0 0
0 0
0 0
0 0
0 0
0 0
0 0
0 0
0 0
0 0
0 0
0 0
0 0
0 0
0 0
0 0
0 0
0 0
0 0
0 0
0 0
0 0
0 0
0 0
0 0
0 0
0 0
0 0
0 0
0 0
0 0
0 0
0 0
0 0
0 0
0 0
0 0
0 0
0 0
0 0
0 0
0 0
0 0
0 0
0 0
0 0
0 0
0 0
0 0
0 0
0 0
0 0
0 0
0 0
0 0
0 0
0 0
0 0
0 0
0 0
0 0
0 0
0 0
0 0
0 0
0 0
0 0
0 0
0 0
0 0
0 0
0 0
0 0
0 0
0 0
0 0
0 0
0 0
0 0
0 0
0 0
0 0
0 0
0 0
0 0
0 0
0 0
0 0
0 0
0 0
0 0
0 0
0 0
0 0
0 0
0 0
0 0
0 0
0 0
0 0
0 0
0 0
0 0
0 0
0 0
0 0
0 0
0 0
0 0
0 0
0 0
0 0
0 0
0 0
0 0
0 0
0 0
0 0
0 0
0 0
0 0
0 0
0 0
0 0
0 0
0 0
0 0
0 0
0 0
0 0
0 0
0 0
0 0
0 0
0 0
0 0
0 0
0 0
0 0
0 0
0 0
0 0
0 0
0 0
0 0
0 0
0 0
0 0
0 0
0 0
0 0
0 0
0 0
0 0
0 0
0 0
0 0
0 0
0 0
0 0
0 0
0 0
0 0
0 0
0 0
0 0
0 0
0 0
0 0
0 0
0 0
0 0
0 0
0 0
0 0
0 0
0 0
0 0
0 0
0 0
0 0
0 0
0 0
0 0
0 0
0 0
0 0
0 0
0 0
0 0
0 0
0 0
0 0
0 0
0 0
0 0
0 0
0 0
0 0
0 0
0 0
0 0
0 0
0 0
0 0
0 0
0 0
0 0
0 0
0 0
0 0
0 0
0 0
0 0
0 0
0 0
0 0
0 0
0 0
0 0
0 0
0 0
0 0
0 0
0 0
0 0
0 0
0 0
0 0
0 0
0 0
0 0
0 0
0 0
0 0
0 0
0 0
0 0
0 0
0 0
0 0
0 0
0 0
0 0
0 0
0 0
0 0
0 0
0 0
0 0
0 0
0 0
0 0
0 0
0 0
0 0
0 0
0 0
0 0
0 0
0 0
0 0
0 0
0 0
0 0
0 0
0 0
0 0
0 0
0 0
0 0
0 0
0 0
0 0
0 0
0 0
0 0
0 0
0 0
0 0
0 0
0 0
0 0
0 0
0 0
0 0
0 0
0 0
0 0
0 0
0 0
0 0
0 0
0 0
0 0
0 0
0 0
0 0
0 0
0 0
0 0
0 0
0 0
0 0
0 0
0 0
0 0
0 0
0 0
0 0
0 0
0 0
0 0
0 0
0 0
0 0
0 0
0 0
0 0
0 0
0 0
0 0
0 0
0 0
0 0
0 0
0 0
0 0
0 0
0 0
0 0
0 0
0 0
0 0
0 0
0 0
0 0
0 0
0 0
0 0
0 0
0 0
0 0
0 0
0 0
0 0
0 0
0 0
0 0
0 0
0 0
0 0
0 0
0 0
0 0
0 0
0 0
0 0
0 0
0 0
0 0
0 0
0 0
0 0
0 0
0 0
0 0
0 0
0 0
0 0
0 0
0 0
0 0
0 0
0 0
0 0
0 0
0 0
0 0
0 0
0 0
0 0
0 0
0 0
0 0
0 0
0 0
0 0
0 0
0 0
0 0
0 0
0 0
0 0
0 0
0 0
0 0
0 0
0 0
0 0
0 0
0 0
0 0
0 0
0 0
0 0
0 0
0 0
0 0
0 0
0 0
0 0
0 0
0 0
0 0
0 0
0 0
0 0
0 0
0 0
0 0
0 0
0 0
0 0
0 0
0 0
0 0
0 0
0 0
0 0
0 0
0 0
0 0
0 0
0 0
0 0
0 0
0 0
0 0
0 0
0 0
0 0
0 0
0 0
0 0
0 0
0 0
0 0
0 0
0 0
0 0
0 0
0 0
0 0
0 0
0 0
0 0
0 0
0 0
0 0
0 0
0 0
0 0
0 0
0 0
0 0
0 0
0 0
0 0
0 0
0 0
0 0
0 0
0 0
0 0
0 0
0 0
0 0
0 0
0 0
0 0
0 0
0 0
0 0
0 0
0 0
0 0
0 0
0 0
0 0
0 0
0 0
0 0
0 0
0 0
0 0
0 0
0 0
0 0
0 0
0 0
0 0
0 0
0 0
0 0
0 0
0 0
0 0
0 0
0 0
0 0
0 0
0 0
0 0
0 0
0 0
0 0
0 0
0 0
0 0
0 0
0 0
0 0
0 0
0 0
0 0
0 0
0 0
0 0
0 0
0 0
0 0
0 0
0 0
0 0
0 0
0 0
0 0
0 0
0 0
0 0
0 0
0 0
      </DataArray> 
      <DataArray type="Float64" NumberOfComponents="1" Name="CauchyShearStress" format="ascii">
0
0
0
0
0
0
0
0
0
0
0
0
0
0
0
0
0
0
0
0
0
0
0
0
0
0
0
0
0
0
0
0
0
0
0
0
0
0
0
0
0
0
0
0
0
0
0
0
0
0
0
0
0
0
0
0
0
0
0
0
0
0
0
0
0
0
0
0
0
0
0
0
0
0
0
0
0
0
0
0
0
0
0
0
0
0
0
0
0
0
0
0
0
0
0
0
0
0
0
0
0
0
0
0
0
0
0
0
0
0
0
0
0
0
0
0
0
0
0
0
0
0
0
0
0
0
0
0
0
0
0
0
0
0
0
0
0
0
0
0
0
0
0
0
0
0
0
0
0
0
0
0
0
0
0
0
0
0
0
0
0
0
0
0
0
0
0
0
0
0
0
0
0
0
0
0
0
0
0
0
0
0
0
0
0
0
0
0
0
0
0
0
0
0
0
0
0
0
0
0
0
0
0
0
0
0
0
0
0
0
0
0
0
0
0
0
0
0
0
0
0
0
0
0
0
0
0
0
0
0
0
0
0
0
0
0
0
0
0
0
0
0
0
0
0
0
0
0
0
0
0
0
0
0
0
0
0
0
0
0
0
0
0
0
0
0
0
0
0
0
0
0
0
0
0
0
0
0
0
0
0
0
0
0
0
0
0
0
0
0
0
0
0
0
0
0
0
0
0
0
0
0
0
0
0
0
0
0
0
0
0
0
0
0
0
0
0
0
0
0
0
0
0
0
0
0
0
0
0
0
0
0
0
0
0
0
0
0
0
0
0
0
0
0
0
0
0
0
0
0
0
0
0
0
0
0
0
0
0
0
0
0
0
0
0
0
0
0
0
0
0
0
0
0
0
0
0
0
0
0
0
0
0
0
0
0
0
0
0
0
0
0
0
0
0
0
0
0
0
0
0
0
0
0
0
0
0
0
0
0
0
0
0
0
0
0
0
0
0
0
0
0
0
0
0
0
0
0
0
0
0
0
0
0
0
0
0
0
0
0
0
0
0
0
0
0
0
0
0
0
0
0
0
0
0
0
0
0
0
0
0
0
0
0
0
0
0
0
0
0
0
0
0
0
0
0
0
0
0
0
0
0
0
0
0
0
0
0
0
0
0
0
0
0
0
0
0
0
0
0
0
0
0
0
0
0
0
0
0
0
0
0
0
0
0
0
0
0
0
0
0
0
0
0
0
0
0
0
0
0
0
0
0
0
0
0
0
0
0
0
0
0
0
0
0
0
0
0
0
0
0
0
0
0
0
0
0
0
0
0
0
0
0
0
0
0
0
0
0
0
0
0
0
0
0
0
0
0
0
0
0
0
0
0
0
0
0
0
0
0
0
0
0
0
0
0
0
0
0
0
0
0
0
0
0
0
0
0
0
0
0
0
0
0
0
0
0
0
0
0
0
0
0
0
0
0
0
0
0
0
0
0
0
0
0
0
0
0
0
0
0
0
0
0
0
0
0
0
0
0
0
0
0
0
0
0
0
0
0
0
0
0
0
0
0
0
0
0
0
0
0
0
0
0
0
0
0
0
0
0
0
0
0
0
0
0
0
0
0
0
0
0
0
0
0
0
0
0
0
0
0
0
0
0
0
0
0
0
0
0
0
0
0
0
0
0
0
0
0
0
0
0
0
0
0
0
0
0
0
0
0
0
0
0
0
0
0
0
0
0
0
0
0
0
0
0
0
0
0
0
0
0
0
0
0
0
0
0
0
0
0
0
0
0
0
0
0
0
0
0
0
0
0
0
0
0
0
0
0
0
0
0
0
0
0
0
0
0
0
0
0
0
0
0
0
0
0
0
0
0
0
0
0
0
0
0
0
0
0
0
0
0
0
0
0
0
0
0
0
0
0
0
0
0
0
0
0
0
0
0
0
0
0
0
0
0
0
0
0
0
0
0
0
0
0
0
0
0
0
0
0
0
0
0
0
0
0
0
0
0
0
0
0
0
0
0
0
0
0
0
0
0
0
0
0
0
0
0
0
0
0
0
0
0
0
0
0
0
0
0
0
0
0
0
0
0
0
0
0
0
0
0
0
0
0
0
0
0
0
0
0
0
0
0
0
0
0
0
0
0
0
0
0
0
0
0
0
0
0
0
0
0
0
0
0
0
0
0
0
0
0
0
0
0
0
0
0
0
0
0
0
0
0
0
0
0
0
0
0
0
0
0
0
0
0
0
0
0
0
0
0
0
0
0
0
0
0
0
0
0
0
0
0
0
0
0
0
0
0
0
0
0
0
0
0
0
0
0
0
0
0
0
0
0
0
0
0
0
0
0
0
0
0
0
0
0
0
0
0
0
0
0
0
0
0
0
0
0
0
0
0
0
0
0
0
0
0
0
0
0
0
0
0
0
0
0
0
0
0
0
0
0
0
0
0
0
0
0
0
0
0
0
0
0
0
0
0
0
0
0
0
0
0
0
0
0
0
0
0
0
0
0
0
0
0
0
0
0
0
0
0
0
0
0
0
0
0
0
0
0
0
0
0
0
0
0
0
0
0
0
0
0
0
0
0
0
0
0
0
0
0
0
0
0
0
0
0
0
0
0
0
0
0
0
0
0
0
0
0
0
0
0
0
0
0
0
0
0
0
0
0
0
0
0
0
0
0
0
0
0
0
0
0
0
0
0
0
0
0
0
0
0
0
0
0
0
0
0
0
0
0
0
0
0
0
0
0
0
0
0
0
0
0
0
0
0
0
0
0
0
0
0
0
0
0
0
0
0
0
0
0
0
0
0
0
0
0
0
0
0
0
0
0
0
0
0
0
0
0
0
0
0
0
0
0
0
0
0
0
0
0
0
0
0
0
0
0
0
0
0
0
0
0
0
0
0
0
0
0
0
0
0
0
0
0
0
0
0
0
0
0
0
0
0
0
0
0
0
0
0
0
0
0
0
0
0
0
0
0
0
0
0
0
0
0
0
0
0
0
0
0
0
0
0
0
0
0
0
0
0
0
0
0
0
0
0
0
0
0
0
0
0
0
0
0
0
0
0
0
0
0
0
0
0
0
0
0
0
0
0
0
0
0
0
0
0
0
0
0
0
0
0
0
0
0
0
0
0
0
0
0
0
0
0
0
0
0
0
0
0
0
0
0
0
0
0
0
0
0
0
0
0
0
0
0
0
0
0
0
0
0
0
0
0
0
0
0
0
0
0
0
0
0
0
0
0
0
0
0
0
0
0
0
0
0
0
0
0
0
0
0
0
0
0
0
0
0
0
0
0
0
0
0
0
0
0
0
0
0
0
0
0
0
0
0
0
0
0
0
0
0
0
0
0
0
0
0
0
0
0
0
0
0
0
0
0
0
0
0
0
0
0
0
0
0
0
0
0
0
0
0
0
0
0
0
0
0
0
0
0
0
0
0
0
0
0
0
0
0
0
0
0
0
0
0
0
0
0
0
0
0
0
0
0
0
0
0
0
0
0
0
0
0
0
0
0
0
0
0
0
0
0
0
0
0
0
0
0
0
0
0
0
0
0
0
0
0
0
0
0
0
0
0
0
0
0
0
0
0
0
0
0
0
0
0
0
0
0
0
0
0
0
0
0
0
0
0
0
0
0
0
0
0
0
0
0
0
0
0
0
0
0
0
0
0
0
0
0
0
0
0
0
0
0
0
0
0
0
0
0
0
0
0
0
0
0
0
0
0
0
0
0
0
0
0
0
0
0
0
0
0
0
0
0
0
0
0
0
0
0
0
0
0
0
0
0
0
0
0
0
0
0
0
0
0
0
0
0
0
0
0
0
0
0
0
0
0
0
0
0
0
0
0
0
0
0
0
0
0
0
0
0
0
0
0
0
0
0
0
0
0
0
0
0
0
0
0
0
0
0
0
0
0
0
0
0
0
0
0
0
0
0
0
0
0
0
0
0
0
0
0
0
0
0
0
0
0
0
0
0
0
0
0
0
0
0
0
0
0
0
0
0
0
0
0
0
0
0
0
0
0
0
0
0
0
0
0
0
0
0
0
0
0
0
0
0
0
0
0
0
0
0
0
0
0
0
0
0
0
0
0
0
0
0
0
0
0
0
0
0
0
0
0
0
0
0
0
0
0
0
0
0
0
0
0
0
0
0
0
0
0
0
0
0
0
0
0
0
0
0
0
0
0
0
0
0
0
0
0
0
0
0
0
0
0
0
0
0
0
0
0
0
0
0
0
0
0
0
0
0
0
0
0
0
0
0
0
0
0
0
0
0
0
0
0
0
0
0
0
0
0
0
0
0
0
0
0
0
0
0
0
0
0
0
0
0
0
0
0
0
0
0
0
0
0
0
0
0
0
0
0
0
0
0
0
0
0
0
0
0
0
0
0
0
0
0
0
0
0
0
0
0
0
0
0
0
0
0
0
0
0
0
0
0
0
0
0
0
0
0
0
0
0
0
0
0
0
0
0
0
0
0
0
0
0
0
0
0
0
0
0
0
0
0
0
0
0
0
0
0
0
0
0
0
0
0
0
0
0
0
0
0
0
0
0
0
0
0
0
0
0
0
0
0
0
0
0
0
0
0
0
0
0
0
0
0
0
0
0
0
0
0
0
0
0
0
0
0
0
0
0
0
0
0
0
0
0
0
0
0
0
0
0
0
0
0
0
0
0
0
0
0
0
0
0
0
0
0
0
0
0
0
0
0
0
0
0
0
0
0
0
0
0
0
0
0
0
0
0
0
0
0
0
0
0
0
0
0
0
0
0
0
0
0
0
0
0
0
0
0
0
0
0
0
0
0
0
0
0
0
0
0
0
0
0
0
0
0
0
0
0
0
0
0
0
0
0
0
0
0
0
0
0
0
0
0
0
0
0
0
0
0
0
0
0
0
0
0
0
0
0
0
0
0
0
0
0
0
0
0
0
0
0
0
0
0
0
0
0
0
0
0
0
0
0
0
0
0
0
0
0
0
0
0
0
0
0
0
0
0
0
0
0
0
0
0
0
0
0
0
0
0
0
0
0
0
0
0
0
0
0
0
0
0
0
0
0
0
0
0
0
0
0
0
0
0
0
0
0
0
0
0
0
0
0
0
0
0
0
0
0
0
0
0
0
0
0
0
0
0
0
0
0
0
0
0
0
0
0
0
0
0
0
0
0
0
0
0
0
0
0
0
0
0
0
0
0
0
0
0
0
0
0
0
0
0
0
0
0
0
0
0
0
0
0
0
0
0
0
0
0
0
0
0
0
0
0
0
0
0
0
0
0
0
0
0
0
0
0
0
0
0
0
0
0
0
0
0
0
0
0
0
0
0
0
0
0
0
0
0
0
0
0
0
0
0
0
0
0
0
0
0
0
0
0
0
0
0
0
0
0
0
0
0
0
0
0
0
0
0
0
0
0
0
0
0
0
0
0
0
0
0
0
0
0
0
0
0
0
0
0
0
0
0
0
0
0
0
0
0
0
0
0
0
0
0
0
0
0
0
0
0
0
0
0
0
0
0
0
0
0
0
0
0
0
0
0
0
0
0
0
0
0
0
0
0
0
0
0
0
0
0
0
0
0
0
0
0
0
0
0
0
0
0
0
0
0
0
0
0
0
0
0
0
0
0
0
0
0
0
0
0
0
0
0
0
0
0
0
0
0
0
0
0
0
0
0
0
0
0
0
0
0
0
0
0
0
0
0
0
0
0
0
0
0
0
0
0
0
0
0
0
0
0
0
0
0
0
0
0
0
0
0
0
0
0
0
0
0
0
0
0
0
0
0
0
0
0
0
0
0
0
0
0
0
0
0
0
0
0
0
0
0
0
0
0
0
0
0
0
0
0
0
0
0
0
0
0
0
0
0
0
0
0
0
0
0
0
0
0
0
0
0
0
0
0
0
0
0
0
0
0
0
0
0
0
0
0
0
0
0
0
0
0
0
0
0
0
0
0
0
0
0
0
0
0
0
0
0
0
0
0
0
0
0
0
0
0
0
0
0
0
0
0
0
0
0
0
0
0
0
0
0
0
0
0
0
0
0
0
0
0
0
0
0
0
0
0
0
0
0
0
0
0
0
0
0
0
0
0
0
0
0
0
0
0
0
0
0
0
0
0
0
0
0
0
0
0
0
0
0
0
0
0
0
0
0
0
0
0
0
0
0
0
0
0
0
0
0
0
0
0
0
0
0
0
0
0
0
0
0
0
0
0
0
0
0
0
0
0
0
0
0
0
0
0
0
0
0
0
0
0
0
0
0
0
0
0
0
0
0
0
0
0
0
0
0
0
0
0
0
0
0
0
0
0
0
0
0
0
0
0
0
0
0
0
0
0
0
0
0
0
0
0
0
0
0
0
0
0
0
0
0
0
0
0
0
0
0
0
0
0
0
0
0
0
0
0
0
0
0
0
0
0
0
0
0
0
0
0
0
0
0
0
0
0
0
0
0
0
0
0
0
0
0
0
0
0
0
0
0
0
0
0
0
0
0
0
0
0
0
0
0
0
0
0
0
0
0
0
0
0
0
0
0
0
0
0
0
0
0
0
0
0
0
0
0
0
0
0
0
0
0
0
0
0
0
0
0
0
0
0
0
0
0
0
0
0
0
0
0
0
0
0
0
0
0
0
0
0
0
0
0
0
0
0
0
0
0
0
0
0
0
0
0
0
0
0
0
0
0
0
0
0
0
0
0
0
0
0
0
0
0
0
0
0
0
0
0
0
0
0
0
0
0
0
0
0
0
0
0
0
0
0
0
0
0
0
0
0
0
0
0
0
0
0
0
0
0
0
0
0
0
0
0
0
0
0
0
0
0
0
0
0
0
0
0
0
0
0
0
0
0
0
0
0
0
0
0
0
0
0
0
0
0
0
0
0
0
0
0
0
0
0
0
0
0
0
0
0
0
0
0
0
0
0
0
0
0
0
0
0
0
0
0
0
0
0
0
0
0
0
0
0
0
0
0
0
0
0
0
0
0
0
0
0
0
0
0
0
0
0
0
0
0
0
0
0
0
0
0
0
0
0
0
0
0
0
0
0
0
0
0
0
0
0
0
0
0
0
0
0
0
0
0
0
0
0
0
0
0
0
0
0
0
0
0
0
0
0
0
0
0
0
0
0
0
0
0
0
0
0
0
0
0
0
0
0
0
0
0
0
0
0
0
0
0
0
0
0
0
0
0
0
0
0
0
0
0
0
0
0
0
0
0
0
0
0
0
0
0
0
0
0
0
0
0
0
0
0
0
0
0
0
0
0
0
0
0
0
0
0
0
0
0
0
0
0
0
0
0
0
0
0
0
0
0
0
0
0
0
0
0
0
0
0
0
0
0
0
0
0
0
0
0
0
0
0
0
0
0
0
0
0
0
0
0
0
0
0
0
0
0
0
0
0
0
0
0
0
0
0
0
0
0
0
0
0
0
0
0
0
0
0
0
0
0
0
0
0
0
0
0
0
0
0
0
0
0
0
0
0
0
0
0
0
0
0
0
0
0
0
0
0
0
0
0
0
0
0
0
0
0
0
0
0
0
0
0
0
0
0
0
0
0
0
0
0
0
0
0
0
0
0
0
0
0
0
0
0
0
0
0
0
0
0
0
0
0
0
0
0
0
0
0
0
0
0
0
0
0
0
0
0
0
0
0
0
0
0
0
0
0
0
0
0
0
0
0
0
0
0
0
0
0
0
0
0
0
0
0
0
0
0
0
0
0
0
0
0
0
0
0
0
0
0
0
0
0
0
0
0
0
0
0
0
0
0
0
0
0
0
0
0
0
0
0
0
0
0
0
0
0
0
0
0
0
0
0
0
0
0
0
0
0
0
0
0
0
0
0
0
0
0
0
0
0
0
0
0
0
0
0
0
0
0
0
0
0
0
0
0
0
0
0
0
0
0
0
0
0
0
0
0
0
0
0
0
0
0
0
0
0
0
0
0
0
0
0
0
0
0
0
0
0
0
0
0
0
0
0
0
0
0
0
0
0
0
0
0
0
0
0
0
0
0
0
0
0
0
0
0
0
0
0
0
0
0
0
0
0
0
0
0
0
0
0
0
0
0
0
0
0
0
0
0
0
0
0
0
0
0
0
0
0
0
0
0
0
0
0
0
0
0
0
0
0
0
0
0
0
0
0
0
0
0
0
0
0
0
0
0
0
0
0
0
0
0
0
0
0
0
0
0
0
0
0
0
0
0
0
0
0
0
0
0
0
0
0
0
0
0
0
0
0
0
0
0
0
0
0
0
0
0
0
0
0
0
0
0
0
0
0
0
0
0
0
0
0
0
0
0
0
0
0
0
0
0
0
0
0
0
0
0
0
0
0
0
0
0
0
0
0
0
0
0
0
0
0
0
0
0
0
0
0
0
0
0
0
0
0
0
0
0
0
0
0
0
0
0
0
0
0
0
0
0
0
0
0
0
0
0
0
0
0
0
0
0
0
0
0
0
0
0
0
0
0
0
0
0
0
0
0
0
0
0
0
0
0
0
0
0
0
0
0
0
0
0
0
0
0
0
0
0
0
0
0
0
0
0
0
0
0
0
0
0
0
0
0
0
0
0
0
0
0
0
0
0
0
0
0
0
0
0
0
0
0
0
0
0
0
0
0
0
0
0
0
0
0
0
0
0
0
0
0
0
0
0
0
0
0
0
0
0
0
0
0
0
0
0
0
0
0
0
0
0
0
0
0
0
0
0
0
0
0
0
0
0
0
0
0
0
0
0
0
0
0
0
0
0
0
0
0
0
0
0
0
0
0
0
0
0
0
0
0
0
0
0
0
0
0
0
0
0
0
0
0
0
0
0
0
0
0
0
0
0
0
0
0
0
0
0
0
0
0
0
0
0
0
0
0
0
0
0
0
0
0
0
0
0
0
0
0
0
0
0
0
0
0
0
0
0
0
0
0
0
0
0
0
0
0
0
0
0
0
0
0
0
0
0
0
0
0
0
0
0
0
0
0
0
0
0
0
0
0
0
0
0
0
0
0
0
0
0
0
0
0
0
0
0
0
0
0
0
0
0
0
0
0
0
0
0
0
0
0
0
0
0
0
0
0
0
0
0
0
0
0
0
0
0
0
0
0
0
0
0
0
0
0
0
0
0
0
0
0
0
0
0
0
0
0
0
0
0
0
0
0
0
0
0
0
0
0
0
0
0
0
0
0
0
0
0
0
0
0
0
0
0
0
0
0
0
0
0
0
0
0
0
0
0
0
0
0
0
0
0
0
0
0
0
0
0
0
0
0
0
0
0
0
0
0
0
0
0
0
0
0
0
0
0
0
0
0
0
0
0
0
0
0
0
0
0
0
0
0
0
0
0
0
0
0
0
0
0
0
0
0
0
0
0
0
0
0
0
0
0
0
0
0
0
0
0
0
0
0
0
0
0
0
0
0
0
0
0
0
0
0
0
0
0
0
0
0
0
0
0
0
0
0
0
0
0
0
0
0
0
0
0
0
0
0
0
0
0
0
0
0
0
0
0
0
0
0
0
0
0
0
0
0
0
0
0
0
0
0
0
0
0
0
0
0
0
0
0
0
0
0
0
0
0
0
0
0
0
0
0
0
0
0
0
0
0
0
0
0
0
0
0
0
0
0
0
0
0
0
0
0
0
0
0
0
0
0
0
0
0
0
0
0
0
0
0
0
0
0
0
0
0
0
0
0
0
0
0
0
0
0
0
0
0
0
0
0
0
0
0
0
0
0
0
0
0
0
0
0
0
0
0
0
0
0
0
0
0
0
0
0
0
0
0
0
0
0
0
0
0
0
0
0
0
0
0
0
0
0
0
0
0
0
0
0
0
0
0
0
0
0
0
0
0
0
0
0
0
0
0
0
0
0
0
0
0
0
0
0
0
0
0
0
0
0
0
0
0
0
0
0
0
0
0
0
0
0
0
0
0
0
0
0
0
0
0
0
0
0
0
0
0
0
0
0
0
0
0
0
0
0
0
0
0
0
0
0
0
0
0
0
0
0
0
0
0
0
0
0
0
0
0
0
0
0
0
0
0
0
0
0
0
0
0
0
0
0
0
0
0
0
0
0
0
0
0
0
0
0
0
0
0
0
0
0
0
0
0
0
0
0
0
0
0
0
0
0
0
0
0
0
0
0
0
0
0
0
0
0
0
0
0
0
0
0
0
0
0
0
0
0
0
0
0
0
0
0
0
0
0
0
0
0
0
0
0
0
0
0
0
0
0
0
0
0
0
0
0
0
0
0
0
0
0
0
0
0
0
0
0
0
0
0
0
0
0
0
0
0
0
0
0
0
0
0
0
0
0
0
0
0
0
0
0
0
0
0
0
0
0
0
0
0
0
0
0
0
0
0
0
0
0
0
0
0
0
0
0
0
0
0
0
0
0
0
0
0
0
0
0
0
0
0
0
0
0
0
0
0
0
0
0
0
0
0
0
0
0
0
0
0
0
0
0
0
0
0
0
0
0
0
0
0
0
0
0
0
0
0
0
0
0
0
0
0
0
0
0
0
0
0
0
0
0
0
0
0
0
0
0
0
0
0
0
0
0
0
0
0
0
0
0
0
0
0
0
0
0
0
0
0
0
0
0
0
0
0
0
0
0
0
0
0
0
0
0
0
0
0
0
0
0
0
0
0
0
0
0
0
0
0
0
0
0
0
0
0
0
0
0
0
0
0
0
0
0
0
0
0
0
0
0
0
0
0
0
0
0
0
0
0
0
0
0
0
0
0
0
0
0
0
0
0
0
0
0
0
0
0
0
0
0
0
0
0
0
0
0
0
0
0
0
0
0
0
0
0
0
0
0
0
0
0
0
0
0
0
0
0
0
0
0
0
0
0
0
0
0
0
0
0
0
0
0
0
0
0
0
0
0
0
0
0
0
0
0
0
0
0
0
0
0
0
0
0
0
0
0
0
0
0
0
0
0
0
0
0
0
0
0
0
0
0
0
0
0
0
0
0
0
0
0
0
0
0
0
0
0
0
0
0
0
0
0
0
0
0
0
0
0
0
0
0
0
0
0
0
0
0
0
0
0
0
0
0
0
0
0
0
0
0
0
0
0
0
0
0
0
0
0
0
0
0
0
0
0
0
0
0
0
0
0
0
0
0
0
0
0
0
0
0
0
0
0
0
0
0
0
0
0
0
0
0
0
0
0
0
0
0
0
0
0
0
0
0
0
0
0
0
0
0
0
0
0
0
0
0
0
0
0
0
0
0
0
0
0
0
0
0
0
0
0
0
0
0
0
0
0
0
0
0
0
0
0
0
0
0
0
0
0
0
0
0
0
0
0
0
0
0
0
0
0
0
0
0
0
0
0
0
0
0
0
0
0
0
0
0
0
0
0
0
0
0
0
0
0
0
0
0
0
0
0
0
0
0
0
0
0
0
0
0
0
0
0
0
0
0
0
0
0
0
0
0
0
0
0
0
0
0
0
0
0
0
0
0
0
0
0
0
0
0
0
0
0
0
0
0
0
0
0
0
0
0
0
0
0
0
0
0
0
0
0
0
0
0
0
0
0
0
0
0
0
0
0
0
0
0
0
0
0
0
0
0
0
0
0
0
0
0
0
0
0
0
0
0
0
0
0
0
0
0
0
0
0
0
0
0
0
0
0
0
0
0
0
0
0
0
0
0
0
0
0
0
0
0
0
0
0
0
0
0
0
0
0
0
0
0
0
0
0
0
0
0
0
0
0
0
0
0
0
0
0
0
0
0
0
0
0
0
0
0
0
0
0
0
0
0
0
0
0
0
0
0
0
0
0
0
0
0
0
0
0
0
0
0
0
0
0
0
0
0
0
0
0
0
0
0
0
0
0
0
0
0
0
0
0
0
0
0
0
0
0
0
0
0
0
0
0
0
0
0
0
0
0
0
0
0
0
0
0
0
0
0
0
0
0
0
0
0
0
0
0
0
0
0
0
0
0
0
0
0
0
0
0
0
0
0
0
0
0
0
0
0
0
0
0
0
0
0
0
0
0
0
0
0
0
0
0
0
0
0
0
0
0
0
0
0
0
0
0
0
0
0
0
0
0
0
0
0
0
0
0
0
0
0
0
0
0
0
0
0
0
0
0
0
0
0
0
0
0
0
0
0
0
0
0
0
0
0
0
0
0
0
0
0
0
0
0
0
0
0
0
0
0
0
0
0
0
0
0
0
0
0
0
0
0
0
0
0
0
0
0
0
0
0
0
0
0
0
0
0
0
0
0
0
0
0
0
0
0
0
0
0
0
0
0
0
0
0
0
0
0
0
0
0
0
0
0
0
0
0
0
0
0
0
0
0
0
0
0
0
0
0
0
0
0
0
0
0
0
0
0
0
0
0
0
0
0
0
0
0
0
0
0
0
0
0
0
0
0
0
0
0
0
0
0
0
0
0
0
0
0
0
0
0
0
0
0
0
0
0
0
0
0
0
0
0
0
0
0
0
0
0
0
0
0
0
0
0
0
0
0
0
0
0
0
0
0
0
0
0
0
0
0
0
0
0
0
0
0
0
0
0
0
0
0
0
0
0
0
0
0
0
0
0
0
0
0
0
0
0
0
0
0
0
0
0
0
0
0
0
0
0
0
0
0
0
0
0
0
0
0
0
0
0
0
0
0
0
0
0
0
0
0
0
0
0
0
0
0
0
0
0
0
0
0
0
0
0
0
0
0
0
0
0
0
0
0
0
0
0
0
0
0
0
0
0
0
0
0
0
0
0
0
0
0
0
0
0
0
0
0
0
0
0
0
0
0
0
0
0
0
0
0
0
0
0
0
0
0
0
0
0
0
0
0
0
0
0
0
0
0
0
0
0
0
0
0
0
0
0
0
0
0
0
0
0
0
0
0
0
0
0
0
0
0
0
0
0
0
0
0
0
0
0
0
0
0
0
0
0
0
0
0
0
0
0
0
0
0
0
0
0
0
0
0
0
0
0
0
0
0
0
0
0
0
0
0
0
0
0
0
0
0
0
0
0
0
0
0
0
0
0
0
0
0
0
0
0
0
0
0
0
0
0
0
0
0
0
0
0
0
0
0
0
0
0
0
0
0
0
0
0
0
0
0
0
0
0
0
0
0
0
0
0
0
0
0
0
0
0
0
0
0
0
0
0
0
0
0
0
0
0
0
0
0
0
0
0
0
0
0
0
0
0
0
0
0
0
0
0
0
0
0
0
0
0
0
0
0
0
0
0
0
0
0
0
0
0
0
0
0
0
0
0
0
0
0
0
0
0
0
0
0
0
0
0
0
0
0
0
0
0
0
0
0
0
0
0
0
0
0
0
0
0
0
0
0
0
0
0
0
0
0
0
0
0
0
0
0
0
0
0
0
0
0
0
0
0
0
0
0
0
0
0
0
0
0
0
0
0
0
0
0
0
0
0
0
0
0
0
0
0
0
0
0
0
0
0
0
0
0
0
0
0
0
0
0
0
0
0
0
0
0
0
0
0
0
0
0
0
0
0
0
0
0
0
0
0
0
0
0
0
0
0
0
0
0
0
0
0
0
0
0
0
0
0
0
0
0
0
0
0
0
0
0
0
0
0
0
0
0
0
0
0
0
0
0
0
0
0
0
0
0
0
0
0
0
0
0
0
0
0
0
0
0
0
0
0
0
0
0
0
0
0
0
0
0
0
0
0
0
0
0
0
0
0
0
0
0
0
0
0
0
0
0
0
0
0
0
0
0
0
0
0
0
0
0
0
0
0
0
0
0
0
0
0
0
0
0
0
0
0
0
0
0
0
0
0
0
0
0
0
0
0
0
0
0
0
0
0
0
0
0
0
0
0
0
0
0
0
0
0
0
0
0
0
0
0
0
0
0
0
0
0
0
0
0
0
0
0
0
0
0
0
0
0
0
0
0
0
0
0
0
0
0
0
0
0
0
0
0
0
0
0
0
0
0
0
0
0
0
0
0
0
0
0
0
0
0
0
0
0
0
0
0
0
0
0
0
0
0
0
0
0
0
0
0
0
0
0
0
0
0
0
0
0
0
0
0
0
0
0
0
0
0
0
0
0
0
0
0
0
0
0
0
0
0
0
0
0
0
0
0
0
0
0
0
0
0
0
0
0
0
0
0
0
0
0
0
0
0
0
0
0
0
0
0
0
0
0
0
0
0
0
0
0
0
0
0
0
0
0
0
0
0
0
0
0
0
0
0
0
0
0
0
0
0
0
0
0
0
0
0
0
0
0
0
0
0
0
0
0
0
0
0
0
0
0
0
0
0
0
0
0
0
0
0
0
0
0
0
0
0
0
0
0
0
0
0
0
0
0
0
0
0
0
0
0
0
0
0
0
0
0
0
0
0
0
0
0
0
0
0
0
0
0
0
0
0
0
0
0
0
0
0
0
0
0
0
0
0
0
0
0
0
0
0
0
0
0
0
0
0
0
0
0
0
0
0
0
0
0
0
0
0
0
0
0
0
0
0
0
0
0
0
0
0
0
0
0
0
0
0
0
0
0
0
0
0
0
0
0
0
0
0
0
0
0
0
0
0
0
0
0
0
0
0
0
0
0
0
0
0
0
0
0
0
0
0
0
0
0
0
0
0
0
0
0
0
0
0
0
0
0
0
0
0
0
0
0
0
0
0
0
0
0
0
0
0
0
0
0
0
0
0
0
0
0
0
0
0
0
0
0
0
0
0
0
0
0
0
0
0
0
0
0
0
0
0
0
0
0
0
0
0
0
0
0
0
0
0
0
0
0
0
0
0
0
0
0
0
0
0
0
0
0
0
0
0
0
0
0
0
0
0
0
0
0
0
0
0
0
0
0
0
0
0
0
0
0
0
0
0
0
0
0
0
0
0
0
0
0
0
0
0
0
0
0
0
0
0
0
0
0
0
0
0
0
0
0
0
0
0
0
0
0
0
0
0
0
0
0
0
0
0
0
0
0
0
0
0
0
0
0
0
0
0
0
0
0
0
0
0
0
0
0
0
0
0
0
0
0
0
0
0
0
0
0
0
0
0
0
0
0
0
0
0
0
0
0
0
0
0
0
0
0
0
0
0
0
0
0
0
0
0
0
0
0
0
0
0
0
0
0
0
0
0
0
0
0
0
0
0
0
0
0
0
0
0
0
0
0
0
0
0
0
0
0
0
0
0
0
0
0
0
0
0
0
0
0
0
0
0
0
0
0
0
0
0
0
0
0
0
0
0
0
0
0
0
0
0
0
0
0
0
0
0
0
0
0
0
0
0
0
0
0
0
0
0
0
0
0
0
0
0
0
0
0
0
0
0
0
0
0
0
0
0
0
0
0
0
0
0
0
0
0
0
0
0
0
0
0
0
0
0
0
0
0
0
0
0
0
0
0
0
0
0
0
0
0
0
0
0
0
0
0
0
0
0
0
0
0
0
0
0
0
0
0
0
0
0
0
0
0
0
0
0
0
0
0
0
0
0
0
0
0
0
0
0
0
0
0
0
0
0
0
0
0
0
0
0
0
0
0
0
0
0
0
0
0
0
0
0
0
0
0
0
0
0
0
0
0
0
0
0
0
0
0
0
0
0
0
0
0
0
0
0
0
0
0
0
0
0
0
0
0
0
0
0
0
0
0
0
0
0
0
0
0
0
0
0
0
0
0
0
0
0
0
0
0
0
0
0
0
0
0
0
0
0
0
0
0
0
0
0
0
0
0
0
0
0
0
0
0
0
0
0
0
0
0
0
0
0
0
0
0
0
0
0
0
0
0
0
0
0
0
0
0
0
0
0
0
0
0
0
0
0
0
0
0
0
0
0
0
0
0
0
0
0
0
0
0
0
0
0
0
0
0
0
0
0
0
0
0
0
0
0
0
0
0
0
0
0
0
0
0
0
0
0
0
0
0
0
0
0
0
0
0
0
0
0
0
0
0
0
0
0
0
0
0
0
0
0
0
0
0
0
0
0
0
0
0
0
0
0
0
0
0
0
0
0
0
0
0
0
0
0
0
0
0
0
0
0
0
0
0
0
0
0
0
0
0
0
0
0
0
0
0
0
0
0
0
0
0
0
0
0
0
0
0
0
0
0
0
0
0
0
0
0
0
0
0
0
0
0
0
0
0
0
0
0
0
0
0
0
0
0
0
0
0
0
0
0
0
0
0
0
0
0
0
0
0
0
0
0
0
0
0
0
0
0
0
0
0
0
0
0
0
0
0
0
0
0
0
0
0
0
0
0
0
0
0
0
0
0
0
0
0
0
0
0
0
0
0
0
0
0
0
0
0
0
0
0
0
0
0
0
0
0
0
0
0
0
0
0
0
0
0
0
0
0
0
0
0
0
0
0
0
0
0
0
0
0
0
0
0
0
0
0
0
0
0
0
0
0
0
0
0
0
0
0
0
0
0
0
0
0
0
0
0
0
0
0
0
0
0
0
0
0
0
0
0
0
0
0
0
0
0
0
0
0
0
0
0
0
0
0
0
0
0
0
0
0
0
0
0
0
0
0
0
0
0
0
0
0
0
0
0
0
0
0
0
0
0
0
0
0
0
0
0
0
0
0
0
0
0
0
0
0
0
0
0
0
0
0
0
0
0
0
0
0
0
0
0
0
0
0
0
0
0
0
0
0
0
0
0
0
0
0
0
0
0
0
0
0
0
0
0
0
0
0
0
0
0
0
0
0
0
0
0
0
0
0
0
0
0
0
0
0
0
0
0
0
0
0
0
0
0
0
0
0
0
0
0
0
0
0
0
0
0
0
0
0
0
0
0
0
0
0
0
0
0
0
0
0
0
0
0
0
0
0
0
0
0
0
0
0
0
0
0
0
0
0
0
0
0
0
0
0
0
0
0
0
0
0
0
0
0
0
0
0
0
0
0
0
0
0
0
0
0
0
0
0
0
0
0
0
0
0
0
0
0
0
0
0
0
0
0
0
0
0
0
0
0
0
0
0
0
0
0
0
0
0
0
0
0
0
0
0
0
0
0
0
0
0
0
0
0
0
0
0
0
0
0
0
0
0
0
0
0
0
0
0
0
0
0
0
0
0
0
0
0
0
0
0
0
0
0
0
0
0
0
0
0
0
0
0
0
0
0
0
0
0
0
0
0
0
0
0
0
0
0
0
0
0
0
0
0
0
0
0
0
0
0
0
0
0
0
0
0
0
0
0
0
0
0
0
0
0
0
0
0
0
0
0
0
0
0
0
0
0
0
0
0
0
0
0
0
0
0
0
0
0
0
0
0
0
0
0
0
0
0
0
0
0
0
0
0
0
0
0
0
0
0
0
0
0
0
0
0
0
0
0
0
0
0
0
0
0
0
0
0
0
0
0
0
0
0
0
0
0
0
0
0
0
0
0
0
0
0
0
0
0
0
0
0
0
0
0
0
0
0
0
0
0
0
0
0
0
0
0
0
0
0
0
0
0
0
0
0
0
0
0
0
0
0
0
0
0
0
0
0
0
0
0
0
0
0
0
0
0
0
0
0
0
0
0
0
0
0
0
0
0
0
0
0
0
0
0
0
0
0
0
0
0
0
0
0
0
0
0
0
0
0
0
0
0
0
0
0
0
0
0
0
0
0
0
0
0
0
0
0
0
0
0
0
0
0
0
0
0
0
0
0
0
0
0
0
0
0
0
0
0
0
0
0
0
0
0
0
0
0
0
0
0
0
0
0
0
0
0
0
0
0
0
0
0
0
0
0
0
0
0
0
0
0
0
0
0
0
0
0
0
0
0
0
0
0
0
0
0
0
0
0
0
0
0
0
0
0
0
0
0
0
0
0
0
0
0
0
0
0
0
0
0
0
0
0
0
0
0
0
0
0
0
0
0
0
0
0
0
0
0
0
0
0
0
0
0
0
0
0
0
0
0
0
0
0
0
0
0
0
0
0
0
0
0
0
0
0
0
0
0
0
0
0
0
0
0
0
0
0
0
0
0
0
0
0
0
0
0
0
0
0
0
0
0
0
0
0
0
0
0
0
0
0
0
0
0
0
0
0
0
0
0
0
0
0
0
0
0
0
0
0
0
0
0
0
0
0
0
0
0
0
0
0
0
0
0
0
0
0
0
0
0
0
0
0
0
0
0
0
0
0
0
0
0
0
0
0
0
0
0
0
0
0
0
0
0
0
0
0
0
0
0
0
0
0
0
0
0
0
0
0
0
0
0
0
0
0
0
0
0
0
0
0
0
0
0
0
0
0
0
0
0
0
0
0
0
0
0
0
0
0
0
0
0
0
0
0
0
0
0
0
0
0
0
0
0
0
0
0
0
0
0
0
0
0
0
0
0
0
0
0
0
0
0
0
0
0
0
0
0
0
0
0
0
0
0
0
0
0
0
0
0
0
0
0
0
0
0
0
0
0
0
0
0
0
0
0
0
0
0
0
0
0
0
0
0
0
0
0
0
0
0
0
0
0
0
0
0
0
0
0
0
0
0
0
0
0
0
0
0
0
0
0
0
0
0
0
0
0
0
0
0
0
0
0
0
0
0
0
0
0
0
0
0
0
0
0
0
0
0
0
0
0
0
0
0
0
0
0
0
0
0
0
0
0
0
0
0
0
0
0
0
0
0
0
0
0
0
0
0
0
0
0
0
0
0
0
0
0
0
0
0
0
0
0
0
0
0
0
0
0
0
0
0
0
0
0
0
0
0
0
0
0
0
0
0
0
0
0
0
0
0
0
0
0
0
0
0
0
0
0
0
0
0
0
0
0
0
0
0
0
0
0
0
0
0
0
0
0
0
0
0
0
0
0
0
0
0
0
0
0
0
0
0
0
0
0
0
0
0
0
0
0
0
0
0
0
0
0
0
0
0
0
0
0
0
0
0
0
0
0
0
0
0
0
0
0
0
0
0
0
0
0
0
0
0
0
0
0
0
0
0
0
0
0
0
0
0
0
0
0
0
0
0
0
0
0
0
0
0
0
0
0
0
0
0
0
0
0
0
0
0
0
0
0
0
0
0
0
0
0
0
0
0
0
0
0
0
0
0
0
0
0
0
0
0
0
0
0
0
0
0
0
0
0
0
0
0
0
0
0
0
0
0
0
0
0
0
0
0
0
0
0
0
0
0
0
0
0
0
0
0
0
0
0
0
0
0
0
0
0
0
0
0
0
0
0
0
0
0
0
0
0
0
0
0
0
0
0
0
0
0
0
0
0
0
0
0
0
0
0
0
0
0
0
0
0
0
0
0
0
0
0
0
0
0
0
0
0
0
0
0
0
0
0
0
0
0
0
0
0
0
0
0
0
0
0
0
0
0
0
0
0
0
0
0
0
0
0
0
0
0
0
0
0
0
0
0
0
0
0
0
0
0
0
0
0
0
0
0
0
0
0
0
0
0
0
0
0
0
0
0
0
0
0
0
0
0
0
0
0
0
0
0
0
0
0
0
0
0
0
0
0
0
0
0
0
0
0
0
0
0
0
0
0
0
0
0
0
0
0
0
0
0
0
0
0
0
0
0
0
0
0
0
0
0
0
0
0
0
0
0
0
0
0
0
0
0
0
0
0
0
0
0
0
0
0
0
0
0
0
0
0
0
0
0
0
0
0
0
0
0
0
0
0
0
0
0
0
0
0
0
0
0
0
0
0
0
0
0
0
0
0
0
0
0
0
0
0
0
0
0
0
0
0
0
0
0
0
0
0
0
0
0
0
0
0
0
0
0
0
0
0
0
0
0
0
0
0
0
0
0
0
0
0
0
0
0
0
0
0
0
0
0
0
0
0
0
0
0
0
0
0
0
0
0
0
0
0
0
0
0
0
0
0
0
0
0
0
0
0
0
0
0
0
0
0
0
0
0
0
0
0
0
0
0
0
0
0
0
0
0
0
0
0
0
0
0
0
0
0
0
0
0
0
0
0
0
0
0
0
0
0
0
0
0
0
0
0
0
0
0
0
0
0
0
0
0
0
0
0
0
0
0
0
0
0
0
0
0
0
0
0
0
0
0
0
0
0
0
0
0
0
0
0
0
0
0
0
0
0
0
0
0
0
0
0
0
0
0
0
0
0
0
0
0
0
0
0
0
0
0
0
0
0
0
0
0
0
0
0
0
0
0
0
0
0
0
0
0
0
0
0
0
0
0
0
0
0
0
0
0
0
0
0
0
0
0
0
0
0
0
0
0
0
0
0
0
0
0
0
0
0
0
0
0
0
0
0
0
0
0
0
0
0
0
0
0
0
0
0
0
0
0
0
0
0
0
0
0
0
0
0
0
0
0
0
0
0
0
0
0
0
0
0
0
0
0
0
0
0
0
0
0
0
0
0
0
0
0
0
0
0
0
0
0
0
0
0
0
0
0
0
0
0
0
0
0
0
0
0
0
0
0
0
0
0
0
0
0
0
0
0
0
0
0
0
0
0
0
0
0
0
0
0
0
0
0
0
0
0
0
0
0
0
0
0
0
0
0
0
0
0
0
0
0
0
0
0
0
0
0
0
0
0
0
0
0
0
0
0
0
0
0
0
0
0
0
0
0
0
0
0
0
0
0
0
0
0
0
0
0
0
0
0
0
0
0
0
0
0
0
0
0
0
0
0
0
0
0
0
0
0
0
0
0
0
0
0
0
0
0
0
0
0
0
0
0
0
0
0
0
0
0
0
0
0
0
0
0
0
0
0
0
0
0
0
0
0
0
0
0
0
0
0
0
0
0
0
0
0
0
0
0
0
0
0
0
0
0
0
0
0
0
0
0
0
0
0
0
0
0
0
0
0
0
0
0
0
0
0
0
0
0
0
0
0
0
0
0
0
0
0
0
0
0
0
0
0
0
0
0
0
0
0
0
0
0
0
0
0
0
0
0
0
0
0
0
0
0
0
0
0
0
0
0
0
0
0
0
0
0
0
0
0
0
0
0
0
0
0
0
0
0
0
0
0
0
0
0
0
0
0
0
0
0
0
0
0
0
0
0
0
0
0
0
0
0
0
0
0
0
0
0
0
0
0
0
0
0
0
0
0
0
0
0
0
0
0
0
0
0
0
0
0
0
0
0
0
0
0
0
0
0
0
0
0
0
0
0
0
0
0
0
0
0
0
0
0
0
0
0
0
0
0
0
0
0
0
0
0
0
0
0
0
0
0
0
0
0
0
0
0
0
0
0
0
0
0
0
0
0
0
0
0
0
0
0
0
0
0
0
0
0
0
0
0
0
0
0
0
0
0
0
0
0
0
0
0
0
0
0
0
0
0
0
0
0
0
0
0
0
0
0
0
0
0
0
0
0
0
0
0
0
0
0
0
0
0
0
0
0
0
0
0
0
0
0
0
0
0
0
0
0
0
0
0
0
0
0
0
0
0
0
0
0
0
0
0
0
0
0
0
0
0
0
0
0
0
0
0
0
0
0
0
0
0
0
0
0
0
0
0
0
0
0
0
0
0
0
0
0
0
0
0
0
0
0
0
0
0
0
0
0
0
0
0
0
0
0
0
0
0
0
0
0
0
0
0
0
0
0
0
0
0
0
0
0
0
0
0
0
0
0
0
0
0
0
0
0
0
0
0
0
0
0
0
0
0
0
0
0
0
0
0
0
0
0
0
0
0
0
0
0
0
0
0
0
0
0
0
0
0
0
0
0
0
0
0
0
0
0
0
0
0
0
0
0
0
0
0
0
0
0
0
0
0
0
0
0
0
0
0
0
0
0
0
0
0
0
0
0
0
0
0
0
0
0
0
0
0
0
0
0
0
0
0
0
0
0
0
0
0
0
0
0
0
0
0
0
0
0
0
0
0
0
0
0
0
0
0
0
0
0
0
0
0
0
0
0
0
0
0
0
0
0
0
0
0
0
0
0
0
0
0
0
0
0
0
0
0
0
0
0
0
0
0
0
0
0
0
0
0
0
0
0
0
0
0
0
0
0
0
0
0
0
0
0
0
0
0
0
0
0
0
0
0
0
0
0
0
0
0
0
0
0
0
0
0
0
0
0
0
0
0
0
0
0
0
0
0
0
0
0
0
0
0
0
0
0
0
0
0
0
0
0
0
0
0
0
0
0
0
0
0
0
0
0
0
0
0
0
0
0
0
0
0
0
0
0
0
0
0
0
0
0
0
0
0
0
0
0
0
0
0
0
0
0
0
0
0
0
0
0
0
0
0
0
0
0
0
0
0
0
0
0
0
0
0
0
0
0
0
0
0
0
0
0
0
0
0
0
0
0
0
0
0
0
0
0
0
0
0
0
0
0
0
0
0
0
0
0
0
0
0
0
0
0
0
0
0
0
0
0
0
0
0
0
0
0
0
0
0
0
0
0
0
0
0
0
0
0
0
0
0
0
0
0
0
0
0
0
0
0
0
0
0
0
0
0
0
0
0
0
0
0
0
0
0
0
0
0
0
0
0
0
0
0
0
0
0
0
0
0
0
0
0
0
0
0
0
0
0
0
0
0
0
0
0
0
0
0
0
0
0
0
0
0
0
0
0
0
0
0
0
0
0
0
0
0
0
0
0
0
0
0
0
0
0
0
0
0
0
0
0
0
0
0
0
0
0
0
0
0
0
0
0
0
0
0
0
0
0
0
0
0
0
0
0
0
0
0
0
0
0
0
0
0
0
0
0
0
0
0
0
0
0
0
0
0
0
0
0
0
0
0
0
0
0
0
0
0
0
0
0
0
0
0
0
0
0
0
0
0
0
0
0
0
0
0
0
0
0
0
0
0
0
0
0
0
0
0
0
0
0
0
0
0
0
0
0
0
0
0
0
0
0
0
0
0
0
0
0
0
0
0
0
0
0
0
0
0
0
0
0
0
0
0
0
0
0
0
0
0
0
0
0
0
0
0
0
0
0
0
0
0
0
0
0
0
0
0
0
0
0
0
0
0
0
0
0
0
0
0
0
0
0
0
0
0
0
0
0
0
0
0
0
0
0
0
0
0
0
0
0
0
0
0
0
0
0
0
0
0
0
0
0
0
0
0
0
0
0
0
0
0
0
0
0
0
0
0
0
0
0
0
0
0
0
0
0
0
0
0
0
0
0
0
0
0
0
0
0
0
0
0
0
0
0
0
0
0
0
0
0
0
0
0
0
0
0
0
0
0
0
0
0
0
0
0
0
0
0
0
0
0
0
0
0
0
0
0
0
0
0
0
0
0
0
0
0
0
0
0
0
0
0
0
0
0
0
0
0
0
0
0
0
0
0
0
0
0
0
0
0
0
0
0
0
0
0
0
0
0
0
0
0
0
0
0
0
0
0
0
0
0
0
0
0
0
0
0
0
0
0
0
0
0
0
0
0
0
0
0
0
0
0
0
0
0
0
0
0
0
0
0
0
0
0
0
0
0
0
0
0
0
0
0
0
0
0
0
0
0
0
0
0
0
0
0
0
0
0
0
0
0
0
0
0
0
0
0
0
0
0
0
0
0
0
0
0
0
0
0
0
0
0
0
0
0
0
0
0
0
0
0
0
0
0
0
0
0
0
0
0
0
0
0
0
0
0
0
0
0
0
0
0
0
0
0
0
0
0
0
0
0
0
0
0
0
0
0
0
0
0
0
0
0
0
0
0
0
0
0
0
0
0
0
0
0
0
0
0
0
0
0
0
0
0
0
0
0
0
0
0
0
0
0
0
0
0
0
0
0
0
0
0
0
0
0
0
0
0
0
0
0
0
0
0
0
0
0
0
0
0
0
0
0
0
0
0
0
0
0
0
0
0
0
0
0
0
0
0
0
0
0
0
0
0
0
0
0
0
0
0
0
0
0
0
0
0
0
0
0
0
0
0
0
0
0
0
0
0
0
0
0
0
0
0
0
0
0
0
0
0
0
0
0
0
0
0
0
0
0
0
0
0
0
0
0
0
0
0
0
0
0
0
0
0
0
0
0
0
0
0
0
0
0
0
0
0
0
0
0
0
0
0
0
0
0
0
0
0
0
0
0
0
0
0
0
0
0
0
0
0
0
0
0
0
0
0
0
0
0
0
0
0
0
0
0
0
0
0
0
0
0
0
0
0
0
0
0
0
0
0
0
0
0
0
0
0
0
0
0
0
0
0
0
0
0
0
0
0
0
0
0
0
0
0
0
0
0
0
0
0
0
0
0
0
0
0
0
0
0
0
0
0
0
0
0
0
0
0
0
0
0
0
0
0
0
0
0
0
0
0
0
0
0
0
0
0
0
0
0
0
0
0
0
0
0
0
0
0
0
0
0
0
0
0
0
0
0
0
0
0
0
0
0
0
0
0
0
0
0
0
0
0
0
0
0
0
0
0
0
0
0
0
0
0
0
0
0
0
0
0
0
0
0
0
0
0
0
0
0
0
0
0
0
0
0
0
0
0
0
0
0
0
0
0
0
0
0
0
0
0
0
0
0
0
0
0
0
0
0
0
0
0
0
0
0
0
0
0
0
0
0
0
0
0
0
0
0
0
0
0
0
0
0
0
0
0
0
0
0
0
0
0
0
0
0
0
0
0
0
0
0
0
0
0
0
0
0
0
0
0
0
0
0
0
0
0
0
0
0
0
0
0
0
0
0
0
0
0
0
0
0
0
0
0
0
0
0
0
0
0
0
0
0
0
0
0
0
0
0
0
0
0
0
0
0
0
0
0
0
0
0
0
0
0
0
0
0
0
0
0
0
0
0
0
0
0
0
0
0
0
0
0
0
0
0
0
0
0
0
0
0
0
0
0
0
0
0
0
0
0
0
0
0
0
0
0
0
0
0
0
0
0
0
0
0
0
0
0
0
0
0
0
0
0
0
0
0
0
0
0
0
0
0
0
0
0
0
0
0
0
0
0
0
0
0
0
0
0
0
0
0
0
0
0
0
0
0
0
0
0
0
0
0
0
0
0
0
0
0
0
0
0
0
0
0
0
0
0
0
0
0
0
0
0
0
0
0
0
0
0
0
0
0
0
0
0
0
0
0
0
0
0
0
0
0
0
0
0
0
0
0
0
0
0
0
0
0
0
0
0
0
0
0
0
0
0
0
0
0
0
0
0
0
0
0
0
0
0
0
0
0
0
0
0
0
0
0
0
0
0
0
0
0
0
0
0
0
0
0
0
0
0
0
0
0
0
0
0
0
0
0
0
0
0
0
0
0
0
0
0
0
0
0
0
0
0
0
0
0
0
0
0
0
0
0
0
0
0
0
0
0
0
0
0
0
0
0
0
0
0
0
0
0
0
0
0
0
0
0
0
0
0
0
0
0
0
0
0
0
0
0
0
0
0
0
0
0
0
0
0
0
0
0
0
0
0
0
0
0
0
0
0
0
0
0
0
0
0
0
0
0
0
0
0
0
0
0
0
0
0
0
0
0
0
0
0
0
0
0
0
0
0
0
0
0
0
0
0
0
0
0
0
0
0
0
0
0
0
0
0
0
0
0
0
0
0
0
0
0
0
0
0
0
0
0
0
0
0
0
0
0
0
0
0
0
0
0
0
0
0
0
0
0
0
0
0
0
0
0
0
0
0
0
0
0
0
0
0
0
0
0
0
0
0
0
0
0
0
0
0
0
0
0
0
0
0
0
0
0
0
0
0
0
0
0
0
0
0
0
0
0
0
0
0
0
0
0
0
0
0
0
0
0
0
0
0
0
0
0
0
0
0
0
0
0
0
0
0
0
0
0
0
0
0
0
0
0
0
0
0
0
0
0
0
0
0
0
0
0
0
0
0
0
0
0
0
0
0
0
0
0
0
0
0
0
0
0
0
0
0
0
0
0
0
0
0
0
0
0
0
0
0
0
0
0
0
0
0
0
0
0
0
0
0
0
0
0
0
0
0
0
0
0
0
0
0
0
0
0
0
0
0
0
0
0
0
0
0
0
0
0
0
0
0
0
0
0
0
0
0
0
0
0
0
0
0
0
0
0
0
0
0
0
0
0
0
0
0
0
0
0
0
0
0
0
0
0
0
0
0
0
0
0
0
0
0
0
0
0
0
0
0
0
0
0
0
0
0
0
0
0
0
0
0
0
0
0
0
0
0
0
0
0
0
0
0
0
0
0
0
0
0
0
0
0
0
0
0
0
0
0
0
0
0
0
0
0
0
0
0
0
0
0
0
0
0
0
0
0
0
0
0
0
0
0
0
0
0
0
0
0
0
0
0
0
0
0
0
0
0
0
0
0
0
0
0
0
0
0
0
0
0
0
0
0
0
0
0
0
0
0
0
0
0
0
0
0
0
0
0
0
0
0
0
0
0
0
0
0
0
0
0
0
0
0
0
0
0
0
0
0
0
0
0
0
0
0
0
0
0
0
0
0
0
0
0
0
0
0
0
0
0
0
0
0
0
0
0
0
0
0
0
0
0
0
0
0
0
0
0
0
0
0
0
0
0
0
0
0
0
0
0
0
0
0
0
0
0
0
0
0
0
0
0
0
0
0
0
0
0
0
0
0
0
0
0
0
0
0
0
0
0
0
0
0
0
0
0
0
0
0
0
0
0
0
0
0
0
0
0
0
0
0
0
0
0
0
0
0
0
0
0
0
0
0
0
0
0
0
0
0
0
0
0
0
0
0
0
0
0
0
0
0
0
0
0
0
0
0
0
0
0
0
0
0
0
0
0
0
0
0
0
0
0
0
0
0
0
0
0
0
0
0
0
0
0
0
0
0
0
0
0
0
0
0
0
0
0
0
0
0
0
0
0
0
0
0
0
0
0
0
0
0
0
0
0
0
0
0
0
0
0
0
0
0
0
0
0
0
0
0
0
0
0
0
0
0
0
0
0
0
0
0
0
0
0
0
0
0
0
0
0
0
0
0
0
0
0
0
0
0
0
0
0
0
0
0
0
0
0
0
0
0
0
0
0
0
0
0
0
0
0
0
0
0
0
0
0
0
0
0
0
0
0
0
0
0
0
0
0
0
0
0
0
0
0
0
0
0
0
0
0
0
0
0
0
0
0
0
0
0
0
0
0
0
0
0
0
0
0
0
0
0
0
0
0
0
0
0
0
0
0
0
0
0
0
0
0
0
0
0
0
0
0
0
0
0
0
0
0
0
0
0
0
0
0
0
0
0
0
0
0
0
0
0
0
0
0
0
0
0
0
0
0
0
0
0
0
0
0
0
0
0
0
0
0
0
0
0
0
0
0
0
0
0
0
0
0
0
0
0
0
0
0
0
0
0
0
0
0
0
0
0
0
0
0
0
0
0
0
0
0
0
0
0
0
0
0
0
0
0
0
0
0
0
0
0
0
0
0
0
0
0
0
0
0
0
0
0
0
0
0
0
0
0
0
0
0
0
0
0
0
0
0
0
0
0
0
0
0
0
0
0
0
0
0
0
0
0
0
0
0
0
0
0
0
0
0
0
0
0
0
0
0
0
0
0
0
0
0
0
0
0
0
0
0
0
0
0
0
0
0
0
0
0
0
0
0
0
0
0
0
0
0
0
0
0
0
0
0
0
0
0
0
0
0
0
0
0
0
0
0
0
0
0
0
0
0
0
0
0
0
0
0
0
0
0
0
0
0
0
0
0
0
0
0
0
0
0
0
0
0
0
0
0
0
0
0
0
0
0
0
0
0
0
0
0
0
0
0
0
0
0
0
0
0
0
0
0
0
0
0
0
0
0
0
0
0
0
0
0
0
0
0
0
0
0
0
0
0
0
0
0
0
0
0
0
0
0
0
0
0
0
0
0
0
0
0
0
0
0
0
0
0
0
0
0
0
0
0
0
0
0
0
0
0
0
0
0
0
0
0
0
0
0
0
0
0
0
0
0
0
0
0
0
0
0
0
0
0
0
0
0
0
0
0
0
0
0
0
0
0
0
0
0
0
0
0
0
0
0
0
0
0
0
0
0
0
0
0
0
0
0
0
0
0
0
0
0
0
0
0
0
0
0
0
0
0
0
0
0
0
0
0
0
0
0
0
0
0
0
0
0
0
0
0
0
0
0
0
0
0
0
0
0
0
0
0
0
0
0
0
0
0
0
0
0
0
0
0
0
0
0
0
0
0
0
0
0
0
0
0
0
0
0
0
0
0
0
0
0
0
0
0
0
0
0
0
0
0
0
0
0
0
0
0
0
0
0
0
0
0
0
0
0
0
0
0
0
0
0
0
0
0
0
0
0
0
0
0
0
0
0
0
0
0
0
0
0
0
0
0
0
0
0
0
0
0
0
0
0
0
0
0
0
0
0
0
0
0
0
0
0
0
0
0
0
0
0
0
0
0
0
0
0
0
0
0
0
0
0
0
0
0
0
0
0
0
0
0
0
0
0
0
0
0
0
0
0
0
0
0
0
0
0
0
0
0
0
0
0
0
0
0
0
0
0
0
0
0
0
0
0
0
0
0
0
0
0
0
0
0
0
0
0
0
0
0
0
0
0
0
0
0
0
0
0
0
0
0
0
0
0
0
0
0
0
0
0
0
0
0
0
0
0
0
0
0
0
0
0
0
0
0
0
0
0
0
0
0
0
0
0
0
0
0
0
0
0
0
0
0
0
0
0
0
0
0
0
0
0
0
0
0
0
0
0
0
0
0
0
0
0
0
0
0
0
0
0
0
0
0
0
0
0
0
0
0
0
0
0
0
0
0
0
0
0
0
0
0
0
0
0
0
0
0
0
0
0
0
0
0
0
0
0
0
0
0
0
0
0
0
0
0
0
0
0
0
0
0
0
0
0
0
0
0
0
0
0
0
0
0
0
0
0
0
0
0
0
0
0
0
0
0
0
0
0
0
0
0
0
0
0
0
0
0
0
0
0
0
0
0
0
0
0
0
0
0
0
0
0
0
0
0
0
0
0
0
0
0
0
0
0
0
0
0
0
0
0
0
0
0
0
0
0
0
0
0
0
0
0
0
0
0
0
0
0
0
0
0
0
0
0
0
0
0
0
0
0
0
0
0
0
0
0
0
0
0
0
0
0
0
0
0
0
0
0
0
0
0
0
0
0
0
0
0
0
0
0
0
0
0
0
0
0
0
0
0
0
0
0
0
0
0
0
0
0
0
0
0
0
0
0
0
0
0
0
0
0
0
0
0
0
0
0
0
0
0
0
0
0
0
0
0
0
0
0
0
0
0
0
0
0
0
0
0
0
0
0
0
0
0
0
0
0
0
0
0
0
0
0
0
0
0
0
0
0
0
0
0
0
0
0
0
0
0
0
0
0
0
0
0
0
0
0
0
0
0
0
0
0
0
0
0
0
0
0
0
0
0
0
0
0
0
0
0
0
0
0
0
0
0
0
0
0
0
0
0
0
0
0
0
0
0
0
0
0
0
0
0
0
0
0
0
0
0
0
0
0
0
0
0
0
0
0
0
0
0
0
0
0
0
0
0
0
0
0
0
0
0
0
0
0
0
0
0
0
0
0
0
0
0
0
0
0
0
0
0
0
0
0
0
0
0
0
0
0
0
0
0
0
0
0
0
0
0
0
0
0
0
0
0
0
0
0
0
0
0
0
0
0
0
0
0
0
0
0
0
0
0
0
0
0
0
0
0
0
0
0
0
0
0
0
0
0
0
0
0
0
0
0
0
0
0
0
0
0
0
0
0
0
0
0
0
0
0
0
0
0
0
0
0
0
0
0
0
0
0
0
0
0
0
0
0
0
0
0
0
0
0
0
0
0
0
0
0
0
0
0
0
0
0
0
0
0
0
0
0
0
0
0
0
0
0
0
0
0
0
0
0
0
0
0
0
0
0
0
0
0
0
0
0
0
0
0
0
0
0
0
0
0
0
0
0
0
0
0
0
0
0
0
0
0
0
0
0
0
0
0
0
0
0
0
0
0
0
0
0
0
0
0
0
0
0
0
0
0
0
0
0
0
0
0
0
0
0
0
0
0
0
0
0
0
0
0
0
0
0
0
0
0
0
0
0
0
0
0
0
0
0
0
0
0
0
0
0
0
0
0
0
0
0
0
0
0
0
0
0
0
0
0
0
0
0
0
0
0
0
0
0
0
0
0
0
0
0
0
0
0
0
0
0
0
0
0
0
0
0
0
0
0
0
0
0
0
0
0
0
0
0
0
0
0
0
0
0
0
0
0
0
0
0
0
0
0
0
0
0
0
0
0
0
0
0
0
0
0
0
0
0
0
0
0
0
0
0
0
0
0
0
0
0
0
0
0
0
0
0
0
0
0
0
0
0
0
0
0
0
0
0
0
0
0
0
0
0
0
0
0
0
0
0
0
0
0
0
0
0
0
0
0
0
0
0
0
0
0
0
0
0
0
0
0
0
0
0
0
0
0
0
0
0
0
0
0
0
0
0
0
0
0
0
0
0
0
0
0
0
0
0
0
0
0
0
0
0
0
0
0
0
0
0
0
0
0
0
0
0
0
0
0
0
0
0
0
0
0
0
0
0
0
0
0
0
0
0
0
0
0
0
0
0
0
0
0
0
0
0
0
0
0
0
0
0
0
0
0
0
0
0
0
0
0
0
0
0
0
0
0
0
0
0
0
0
0
0
0
0
0
0
0
0
0
0
0
0
0
0
0
0
0
0
0
0
0
0
0
0
0
0
0
0
0
0
0
0
0
0
0
0
0
0
0
0
0
0
0
0
0
0
0
0
0
0
0
0
0
0
0
0
0
0
0
0
0
0
0
0
0
0
0
0
0
0
0
0
0
0
0
0
0
0
0
0
0
0
0
0
0
0
0
0
0
0
0
0
0
0
0
0
0
0
0
0
0
0
0
0
0
0
0
0
0
0
0
0
0
0
0
0
0
0
0
0
0
0
0
0
0
0
0
0
0
0
0
0
0
0
0
0
0
0
0
0
0
0
0
0
0
0
0
0
0
0
0
0
0
0
0
0
0
0
0
0
0
0
0
0
0
0
0
0
0
0
0
0
0
0
0
0
0
0
0
0
0
0
0
0
0
0
0
0
0
0
0
0
0
0
0
0
0
0
0
0
0
0
0
0
0
0
0
0
0
0
0
0
0
0
0
0
0
0
0
0
0
0
0
0
0
0
0
0
0
0
0
0
0
0
0
0
0
0
0
0
0
0
0
0
0
0
0
0
0
0
0
0
0
0
0
0
0
0
0
0
0
0
0
0
0
0
0
0
0
0
0
0
0
0
0
0
0
0
0
0
0
0
0
0
0
0
0
0
0
0
0
0
0
0
0
0
0
0
0
0
0
0
0
0
0
0
0
0
0
0
0
0
0
0
0
0
0
0
0
0
0
0
0
0
0
0
0
0
0
0
0
0
0
0
0
0
0
0
0
0
0
0
0
0
0
0
0
0
0
0
0
0
0
0
0
0
0
0
0
0
0
0
0
0
0
0
0
0
0
0
0
0
0
0
0
0
0
0
0
0
0
0
0
0
0
0
0
0
0
0
0
0
0
0
0
0
0
0
0
0
0
0
0
0
0
0
0
0
0
0
0
0
0
0
0
0
0
0
0
0
0
0
0
0
0
0
0
0
0
0
0
0
0
0
0
0
0
0
0
0
0
0
0
0
0
0
0
0
0
0
0
0
0
0
0
0
0
0
0
0
0
0
0
0
0
0
0
0
0
0
0
0
0
0
0
0
0
0
0
0
0
0
0
0
0
0
0
0
0
0
0
0
0
0
0
0
0
0
0
0
0
0
0
0
0
0
0
0
0
0
0
0
0
0
0
0
0
0
0
0
0
0
0
0
0
0
0
0
0
0
0
0
0
0
0
0
0
0
0
0
0
0
0
0
0
0
0
0
0
0
0
0
0
0
0
0
0
0
0
0
0
0
0
0
0
0
0
0
0
0
0
0
0
0
0
0
0
0
0
0
0
0
0
0
0
0
0
0
0
0
0
0
0
0
0
0
0
0
0
0
0
0
0
0
0
0
0
0
0
0
0
0
0
0
0
0
0
0
0
0
0
0
0
0
0
0
0
0
0
0
0
0
0
0
0
0
0
0
0
0
0
0
0
0
0
0
0
0
0
0
0
0
0
0
0
0
0
0
0
0
0
0
0
0
0
0
0
0
0
0
0
0
0
0
0
0
0
0
0
0
0
0
0
0
0
0
0
0
0
0
0
0
0
0
0
0
0
0
0
0
0
0
0
0
0
0
0
0
0
0
0
0
0
0
0
0
0
0
0
0
0
0
0
0
0
0
0
0
0
0
0
0
0
0
0
0
0
0
0
0
0
0
0
0
0
0
0
0
0
0
0
0
0
0
0
0
0
0
0
0
0
0
0
0
0
0
0
0
0
0
0
0
0
0
0
0
0
0
0
0
0
0
0
0
0
0
0
0
0
0
0
0
0
0
0
0
0
0
0
0
0
0
0
0
0
0
0
0
0
0
0
0
0
0
0
0
0
0
0
0
0
0
0
0
0
0
0
0
0
0
0
0
0
0
0
0
0
0
0
0
0
0
0
0
0
0
0
0
0
0
0
0
0
0
0
0
0
0
0
0
0
0
0
0
0
0
0
0
0
0
0
0
0
0
0
0
0
0
0
0
0
0
0
0
0
0
0
0
0
0
0
0
0
0
0
0
0
0
0
0
0
0
0
0
0
0
0
0
0
0
0
0
0
0
0
0
0
0
0
0
0
0
0
0
0
0
0
0
0
0
0
0
0
0
0
0
0
0
0
0
0
0
0
0
0
0
0
0
0
0
0
0
0
0
0
0
0
0
0
0
0
0
0
0
0
0
0
0
0
0
0
0
0
0
0
0
0
0
0
0
0
0
0
0
0
0
0
0
0
0
0
0
0
0
0
0
0
0
0
0
0
0
0
0
0
0
0
0
0
0
0
0
0
0
0
0
0
0
0
0
0
0
0
0
0
0
0
0
0
0
0
0
0
0
0
0
0
0
0
0
0
0
0
0
0
0
0
0
0
0
0
0
0
0
0
0
0
0
0
0
0
0
0
0
0
0
0
0
0
0
0
0
0
0
0
0
0
0
0
0
0
0
0
0
0
0
0
0
0
0
0
0
0
0
0
0
0
0
0
0
0
0
0
0
0
0
0
0
0
0
0
0
0
0
0
0
0
0
0
0
0
0
0
0
0
0
0
0
0
0
0
0
0
0
0
0
0
0
0
0
0
0
0
0
0
0
0
0
0
0
0
0
0
0
0
0
0
0
0
0
0
0
0
0
0
0
0
0
0
0
0
0
0
0
0
0
0
0
0
0
0
0
0
0
0
0
0
0
0
0
0
0
0
0
0
0
0
0
0
0
0
0
0
0
0
0
0
0
0
0
0
0
0
0
0
0
0
0
0
0
0
0
0
0
0
0
0
0
0
0
0
0
0
0
0
0
0
0
0
0
0
0
0
0
0
0
0
0
0
0
0
0
0
0
0
0
0
0
0
0
0
0
0
0
0
0
0
0
0
0
0
0
0
0
0
0
0
0
0
0
0
0
0
0
0
0
0
0
0
0
0
0
0
0
0
0
0
0
0
0
0
0
0
0
0
0
0
0
0
0
0
0
0
0
0
0
0
0
0
0
0
0
0
0
0
0
0
0
0
0
0
0
0
0
0
0
0
0
0
0
0
0
0
0
0
0
0
0
0
0
0
0
0
0
0
0
0
0
0
0
0
0
0
0
0
0
0
0
0
0
0
0
0
0
0
0
0
0
0
0
0
0
0
0
0
0
0
0
0
0
0
0
0
0
0
0
0
0
0
0
0
0
0
0
0
0
0
0
0
0
0
0
0
0
0
0
0
0
0
0
0
0
0
0
0
0
0
0
0
0
0
0
0
0
0
0
0
0
0
0
0
0
0
0
0
0
0
0
0
0
0
0
0
0
0
0
0
0
0
0
0
0
0
0
0
0
0
0
0
0
0
0
0
0
0
0
0
0
0
0
0
0
0
0
0
0
0
0
0
0
0
0
0
0
0
0
0
0
0
0
0
0
0
0
0
0
0
0
0
0
0
0
0
0
0
0
0
0
0
0
0
0
0
0
0
0
0
0
0
0
0
0
0
0
0
0
0
0
0
0
0
0
0
0
0
0
0
0
0
0
0
0
0
0
0
0
0
0
0
0
0
0
0
0
0
0
0
0
0
0
0
0
0
0
0
0
0
0
0
0
0
0
0
0
0
0
0
0
0
0
0
0
0
0
0
0
0
0
0
0
0
0
0
0
0
0
0
0
0
0
0
0
0
0
0
0
0
0
0
0
0
0
0
0
0
0
0
0
0
0
0
0
0
0
0
0
0
0
0
0
0
0
0
0
0
0
0
0
0
0
0
0
0
0
0
0
0
0
0
0
0
0
0
0
0
0
0
0
0
0
0
0
0
0
0
0
0
0
0
0
0
0
0
0
0
0
0
0
0
0
0
0
0
0
0
0
0
0
0
0
0
0
0
0
0
0
0
0
0
0
0
0
0
0
0
0
0
0
0
0
0
0
0
0
0
0
0
0
0
0
0
0
0
0
0
0
0
0
0
0
0
0
0
0
0
0
0
0
0
0
0
0
0
0
0
0
0
0
0
0
0
0
0
0
0
0
0
0
0
0
0
0
0
0
0
0
0
0
0
0
0
0
0
0
0
0
0
0
0
0
0
0
0
0
0
0
0
0
0
0
0
0
0
0
0
0
0
0
0
0
0
0
0
0
0
0
0
0
0
0
0
0
0
0
0
0
0
0
0
0
0
0
0
0
0
0
0
0
0
0
0
0
0
0
0
0
0
0
0
0
0
0
0
0
0
0
0
0
0
0
0
0
0
0
0
0
0
0
0
0
0
0
0
0
0
0
0
0
0
0
0
0
0
0
0
0
0
0
0
0
0
0
0
0
0
0
0
0
0
0
0
0
0
0
0
0
0
0
0
0
0
0
0
0
0
0
0
0
0
0
0
0
0
0
0
0
0
0
0
0
0
0
0
0
0
0
0
0
0
0
0
0
0
0
0
0
0
0
0
0
0
0
0
0
0
0
0
0
0
0
0
0
0
0
0
0
0
0
0
0
0
0
0
0
0
0
0
0
0
0
0
0
0
0
0
0
0
0
0
0
0
0
0
0
0
0
0
0
0
0
0
0
0
0
0
0
0
0
0
0
0
0
0
0
0
0
0
0
0
0
0
0
0
0
0
0
0
0
0
0
0
0
0
0
0
0
0
0
0
0
0
0
0
0
0
0
0
0
0
0
0
0
0
0
0
0
0
0
0
0
0
0
0
0
0
0
0
0
0
0
0
0
0
0
0
0
0
0
0
0
0
0
0
0
0
0
0
0
0
0
0
0
0
0
0
0
0
0
0
0
0
0
0
0
0
0
0
0
0
0
0
0
0
0
0
0
0
0
0
0
0
0
0
0
0
0
0
0
0
0
0
0
0
0
0
0
0
0
0
0
0
0
0
0
0
0
0
0
0
0
0
0
0
0
0
0
0
0
0
0
0
0
0
0
0
0
0
0
0
0
0
0
0
0
0
0
0
0
0
0
0
0
0
0
0
0
0
0
0
0
0
0
0
0
0
0
0
0
0
0
0
0
0
0
0
0
0
0
0
0
0
0
0
0
0
0
0
0
0
0
0
0
0
0
0
0
0
0
0
0
0
0
0
0
0
0
0
0
0
0
0
0
0
0
0
0
0
0
0
0
0
0
0
0
0
0
0
0
0
0
0
0
0
0
0
0
0
0
0
0
0
0
0
0
0
0
0
0
0
0
0
0
0
0
0
0
0
0
0
0
0
0
0
0
0
0
0
0
0
0
0
0
0
0
0
0
0
0
0
0
0
0
0
0
0
0
0
0
0
0
0
0
0
0
0
0
0
0
0
0
0
0
0
0
0
0
0
0
0
0
0
0
0
0
0
0
0
0
0
0
0
0
0
0
0
0
0
0
0
0
0
0
0
0
0
0
0
0
0
0
0
0
0
0
0
0
0
0
0
0
0
0
0
0
0
0
0
0
0
0
0
0
0
0
0
0
0
0
0
0
0
0
0
0
0
0
0
0
0
0
0
0
0
0
0
0
0
0
0
0
0
0
0
0
0
0
0
0
0
0
0
0
0
0
0
0
0
0
0
0
0
0
0
0
0
0
0
0
0
0
0
0
0
0
0
0
0
0
0
0
0
0
0
0
0
0
0
0
0
0
0
0
0
0
0
0
0
0
0
0
0
0
0
0
0
0
0
0
0
0
0
0
0
0
0
0
0
0
0
0
0
0
0
0
0
0
0
0
0
0
0
0
0
0
0
0
0
0
0
0
0
0
0
0
0
0
0
0
0
0
0
0
0
0
0
0
0
0
0
0
0
0
0
0
0
0
0
0
0
0
0
0
0
0
0
0
0
0
0
0
0
0
0
0
0
0
0
0
0
0
0
0
0
0
0
0
0
0
0
0
0
0
0
0
0
0
0
0
0
0
0
0
0
0
0
0
0
0
0
0
0
0
0
0
0
0
0
0
0
0
0
0
0
0
0
0
0
0
0
0
0
0
0
0
0
0
0
0
0
0
0
0
0
0
0
0
0
0
0
0
0
0
0
0
0
0
0
0
0
0
0
0
0
0
0
0
0
0
0
0
0
0
0
0
0
0
0
0
0
0
0
0
0
0
0
0
0
0
0
0
0
0
0
0
0
0
0
0
0
0
0
0
0
0
0
0
0
0
0
0
0
0
0
0
0
0
0
0
0
0
0
0
0
0
0
0
0
0
0
0
0
0
0
0
0
0
0
0
0
0
0
0
0
0
0
0
0
0
0
0
0
0
0
0
0
0
0
0
0
0
0
0
0
0
0
0
0
0
0
0
0
0
0
0
0
0
0
0
0
0
0
0
0
0
0
0
0
0
0
0
0
0
0
0
0
0
0
0
0
0
0
0
0
0
0
0
0
0
0
0
0
0
0
0
0
0
0
0
0
0
0
0
0
0
0
0
0
0
0
0
0
0
0
0
0
0
0
0
0
0
0
0
0
0
0
0
0
0
0
0
0
0
0
0
0
0
0
0
0
0
0
0
0
0
0
0
0
0
0
0
0
0
0
0
0
0
0
0
0
0
0
0
0
0
0
0
0
0
0
0
0
0
0
0
0
0
0
0
0
0
0
0
0
0
0
0
0
0
0
0
0
0
0
0
0
0
0
0
0
0
0
0
0
0
0
0
0
0
0
0
0
0
0
0
0
0
0
0
0
0
0
0
0
0
0
0
0
0
0
0
0
0
0
0
0
0
0
0
0
0
0
0
0
0
0
0
0
0
0
0
0
0
0
0
0
0
0
0
0
0
0
0
0
0
0
0
0
0
0
0
0
0
0
0
0
0
0
0
0
0
0
0
0
0
0
0
0
0
0
0
0
0
0
0
0
0
0
0
0
0
0
0
0
0
0
0
0
0
0
0
0
0
0
0
0
0
0
0
0
0
0
0
0
0
0
0
0
0
0
0
0
0
0
0
0
0
0
0
0
0
0
0
0
0
0
0
0
0
0
0
0
0
0
0
0
0
0
0
0
0
0
0
0
0
0
0
0
0
0
0
0
0
0
0
0
0
0
0
0
0
0
0
0
0
0
0
0
0
0
0
0
0
0
0
0
0
0
0
0
0
0
0
0
0
0
0
0
0
0
0
0
0
0
0
0
0
0
0
0
0
0
0
0
0
0
0
0
0
0
0
0
0
0
0
0
0
0
0
0
0
0
0
0
0
0
0
0
0
0
0
0
0
0
0
0
0
0
0
0
0
0
0
0
0
0
0
0
0
0
0
0
0
0
0
0
0
0
0
0
0
0
0
0
0
0
0
0
0
0
0
0
0
0
0
0
0
0
0
0
0
0
0
0
0
0
0
0
0
0
0
0
0
0
0
0
0
0
0
0
0
0
0
0
0
0
0
0
0
0
0
0
0
0
0
0
0
0
0
0
0
0
0
0
0
0
0
0
0
0
0
0
0
0
0
0
0
0
0
0
0
0
0
0
0
0
0
0
0
0
0
0
0
0
0
0
0
0
0
0
0
0
0
0
0
0
0
0
0
0
0
0
0
0
0
0
0
0
0
0
0
0
0
0
0
0
0
0
0
0
0
0
0
0
0
0
0
0
0
0
0
0
0
0
0
0
0
0
0
0
0
0
0
0
0
0
0
0
0
0
0
0
0
0
0
0
0
0
0
0
0
0
0
0
0
0
0
0
0
0
0
0
0
0
0
0
0
0
0
0
0
0
0
0
0
0
0
0
0
0
0
0
0
0
0
0
0
0
0
0
0
0
0
0
0
0
0
0
0
0
0
0
0
0
0
0
0
0
0
0
0
0
0
0
0
0
0
0
0
0
0
0
0
0
0
0
0
0
0
0
0
0
0
0
0
0
0
0
0
0
0
0
0
0
0
0
0
0
0
0
0
0
0
0
0
0
0
0
0
0
0
0
0
0
0
0
0
0
0
0
0
0
0
0
0
0
0
0
0
0
0
0
0
0
0
0
0
0
0
0
0
0
0
0
0
0
0
0
0
0
0
0
0
0
0
0
0
0
0
0
0
0
0
0
0
0
0
0
0
0
0
0
0
0
0
0
0
0
0
0
0
0
0
0
0
0
0
0
0
0
0
0
0
0
0
0
0
0
0
0
0
0
0
0
0
0
0
0
0
0
0
0
0
0
0
0
0
0
0
0
0
0
0
0
0
0
0
0
0
0
0
0
0
0
0
0
0
0
0
0
0
0
0
0
0
0
0
0
0
0
0
0
0
0
0
0
0
0
0
0
0
0
0
0
0
0
0
0
0
0
0
0
0
0
0
0
0
0
0
0
0
0
0
0
0
0
0
0
0
0
0
0
0
0
0
0
0
0
0
0
0
0
0
0
0
0
0
0
0
0
0
0
0
0
0
0
0
0
0
0
0
0
0
0
0
0
0
0
0
0
0
0
0
0
0
0
0
0
0
0
0
0
0
0
0
0
0
0
0
0
0
0
0
0
0
0
0
0
0
0
0
0
0
0
0
0
0
0
0
0
0
0
0
0
0
0
0
0
0
0
0
0
0
0
0
0
0
0
0
0
0
0
0
0
0
0
0
0
0
0
0
0
0
0
0
0
0
0
0
0
0
0
0
0
0
0
0
0
0
0
0
0
0
0
0
0
0
0
0
0
0
0
0
0
0
0
0
0
0
0
0
0
0
0
0
0
0
0
0
0
0
0
0
0
0
0
0
0
0
0
0
0
0
0
0
0
0
0
0
0
0
0
0
0
0
0
0
0
0
0
0
0
0
0
0
0
0
0
0
0
0
0
0
0
0
0
0
0
0
0
0
0
0
0
0
0
0
0
0
0
0
0
0
0
0
0
0
0
0
0
0
0
0
0
0
0
0
0
0
0
0
0
0
0
0
0
0
0
0
0
0
0
0
0
0
0
0
0
0
0
0
0
0
0
0
0
0
0
0
0
0
0
0
0
0
0
0
0
0
0
0
0
0
0
0
0
0
0
0
0
0
0
0
0
0
0
0
0
0
0
0
0
0
0
0
0
0
0
0
0
0
0
0
0
0
0
0
0
0
0
0
0
0
0
0
0
0
0
0
0
0
0
0
0
0
0
0
0
0
0
0
0
0
0
0
0
0
0
0
0
0
0
0
0
0
0
0
0
0
0
0
0
0
0
0
0
0
0
0
0
0
0
0
0
0
0
0
0
0
0
0
0
0
0
0
0
0
0
0
0
0
0
0
0
0
0
0
0
0
0
0
0
0
0
0
0
0
0
0
0
0
0
0
0
0
0
0
0
0
0
0
0
0
0
0
0
0
0
0
0
0
0
0
0
0
0
0
0
0
0
0
0
0
0
0
0
0
0
0
0
0
0
0
0
0
0
0
0
0
0
0
0
0
0
0
0
0
0
0
0
0
0
0
0
0
0
0
0
0
0
0
0
0
0
0
0
0
0
0
0
0
0
0
0
0
0
0
0
0
0
0
0
0
0
0
0
0
0
0
0
0
0
0
0
0
0
0
0
0
0
0
0
0
0
0
0
0
0
0
0
0
0
0
0
0
0
0
0
0
0
0
0
0
0
0
0
0
0
0
0
0
0
0
0
0
0
0
0
0
0
0
0
0
0
0
0
0
0
0
0
0
0
0
0
0
0
0
0
0
0
0
0
0
0
0
0
0
0
0
0
0
0
0
0
0
0
0
0
0
0
0
0
0
0
0
0
0
0
0
0
0
0
0
0
0
0
0
0
0
0
0
0
0
0
0
0
0
0
0
0
0
0
0
0
0
0
0
0
0
0
0
0
0
0
0
0
0
0
0
0
0
0
0
0
0
0
0
0
0
0
0
0
0
0
0
0
0
0
0
0
0
0
0
0
0
0
0
0
0
0
0
0
0
0
0
0
0
0
0
0
0
0
0
0
0
0
0
0
0
0
0
0
0
0
0
0
0
0
0
0
0
0
0
0
0
0
0
0
0
0
0
0
0
0
0
0
0
0
0
0
0
0
0
0
0
0
0
0
0
0
0
0
0
0
0
0
0
0
0
0
0
0
0
0
0
0
0
0
0
0
0
0
0
0
0
0
0
0
0
0
0
0
0
0
0
0
0
0
0
0
0
0
0
0
0
0
0
0
0
0
0
0
0
0
0
0
0
0
0
0
0
0
0
0
0
0
0
0
0
0
0
0
0
0
0
0
0
0
0
0
0
0
0
0
0
0
0
0
0
0
0
0
0
0
0
0
0
0
0
0
0
0
0
0
0
0
0
0
0
0
0
0
0
0
0
0
0
0
0
0
0
0
0
0
0
0
0
0
0
0
0
0
0
0
0
0
0
0
0
0
0
0
0
0
0
0
0
0
0
0
0
0
0
0
0
0
0
0
0
0
0
0
0
0
0
0
0
0
0
0
0
0
0
0
0
0
0
0
0
0
0
0
0
0
0
0
0
0
0
0
0
0
0
0
0
0
0
0
0
0
0
0
0
0
0
0
0
0
0
0
0
0
0
0
0
0
0
0
0
0
0
0
0
0
0
0
0
0
0
0
0
0
0
0
0
0
0
0
0
0
0
0
0
0
0
0
0
0
0
0
0
0
0
0
0
0
0
0
0
0
0
0
0
0
0
0
0
0
0
0
0
0
0
0
0
0
0
0
0
0
0
0
0
0
0
0
0
0
0
0
0
0
0
0
0
0
0
0
0
0
0
0
0
0
0
0
0
0
0
0
0
0
0
0
0
0
0
0
0
0
0
0
0
0
0
0
0
0
0
0
0
0
0
0
0
0
0
0
0
0
0
0
0
0
0
0
0
0
0
0
0
0
0
0
0
0
0
0
0
0
0
0
0
0
0
0
0
0
0
0
0
0
0
0
0
0
0
0
0
0
0
0
0
0
0
0
0
0
0
0
0
0
0
0
0
0
0
0
0
0
0
0
0
0
0
0
0
0
0
0
0
0
0
0
0
0
0
0
0
0
0
0
0
0
0
0
0
0
0
0
0
0
0
0
0
0
0
0
0
0
0
0
0
0
0
0
0
0
0
0
0
0
0
0
0
0
0
0
0
0
0
0
0
0
0
0
0
0
0
0
0
0
0
0
0
0
0
0
0
0
0
0
0
0
0
0
0
0
0
0
0
0
0
0
0
0
0
0
0
0
0
0
0
0
0
0
0
0
0
0
0
0
0
0
0
0
0
0
0
0
0
0
0
0
0
0
0
0
0
0
0
0
0
0
0
0
0
0
0
0
0
0
0
0
0
0
0
0
0
0
0
0
0
0
0
0
0
0
0
0
0
0
0
0
0
0
0
0
0
0
0
0
0
0
0
0
0
0
0
0
0
0
0
0
0
0
0
0
0
0
0
0
0
0
0
0
0
0
0
0
0
0
0
0
0
0
0
0
0
0
0
0
0
0
0
0
0
0
0
0
0
0
0
0
0
0
0
0
0
0
0
0
0
0
0
0
0
0
0
0
0
0
0
0
0
0
0
0
0
0
0
0
0
0
0
0
0
0
0
0
0
0
0
0
0
0
0
0
0
0
0
0
0
0
0
0
0
0
0
0
0
0
0
0
0
0
0
0
0
0
0
0
0
0
0
0
0
0
0
0
0
0
0
0
0
0
0
0
0
0
0
0
0
0
0
0
0
0
0
0
0
0
0
0
0
0
0
0
0
0
0
0
0
0
0
0
0
0
0
0
0
0
0
0
0
0
0
0
0
0
0
0
0
0
0
0
0
0
0
0
0
0
0
0
0
0
0
0
0
0
0
0
0
0
0
0
0
0
0
0
0
0
0
0
0
0
0
0
0
0
0
0
0
0
0
0
0
0
0
0
0
0
0
0
0
0
0
0
0
0
0
0
0
0
0
0
0
0
0
0
0
0
0
0
0
0
0
0
0
0
0
0
0
0
0
0
0
0
0
0
0
0
0
0
0
0
0
0
0
0
0
0
0
0
0
0
0
0
0
0
0
0
0
0
0
0
0
0
0
0
0
0
0
0
0
0
0
0
0
0
0
0
0
0
0
0
0
0
0
0
0
0
0
0
0
0
0
0
0
0
0
0
0
0
0
0
0
0
0
0
0
0
0
0
0
0
0
0
0
0
0
0
0
0
0
0
0
0
0
0
0
0
0
0
0
0
0
0
0
0
0
0
0
0
0
0
0
0
0
0
0
0
0
0
0
0
0
0
0
0
0
0
0
0
0
0
0
0
0
0
0
0
0
0
0
0
0
0
0
0
0
0
0
0
0
0
0
0
0
0
0
0
0
0
0
0
0
0
0
0
0
0
0
0
0
0
0
0
0
0
0
0
0
0
0
0
0
0
0
0
0
0
0
0
0
0
0
0
0
0
0
0
0
0
0
0
0
0
0
0
0
0
0
0
0
0
0
0
0
0
0
0
0
0
0
0
0
0
0
0
0
0
0
0
0
0
0
0
0
0
0
0
0
0
0
0
0
0
0
0
0
0
0
0
0
0
0
0
0
0
0
0
0
0
0
0
0
0
0
0
0
0
0
0
0
0
0
0
0
0
0
0
0
0
0
0
0
0
0
0
0
0
0
0
0
0
0
0
0
0
0
0
0
0
0
0
0
0
0
0
0
0
0
0
0
0
0
0
0
0
0
0
0
0
0
0
0
0
0
0
0
0
0
0
0
0
0
0
0
0
0
0
0
0
0
0
0
0
0
0
0
0
0
0
0
0
0
0
0
0
0
0
0
0
0
0
0
0
0
0
0
0
0
0
0
0
0
0
0
0
0
0
0
0
0
0
0
0
0
0
0
0
0
0
0
0
0
0
0
0
0
0
0
0
0
0
0
0
0
0
0
0
0
0
0
0
0
0
0
0
0
0
0
0
0
0
0
0
0
0
0
0
0
0
0
0
0
0
0
0
0
0
0
0
0
0
0
0
0
0
0
0
0
0
0
0
0
0
0
0
0
0
0
0
0
0
0
0
0
0
0
0
0
0
0
0
0
0
0
0
0
0
0
0
0
0
0
0
0
0
0
0
0
0
0
0
0
0
0
0
0
0
0
0
0
0
0
0
0
0
0
0
0
0
0
0
0
0
0
0
0
0
0
0
0
0
0
0
0
0
0
0
0
0
0
0
0
0
0
0
0
0
0
0
0
0
0
0
0
0
0
0
0
0
0
0
0
0
0
0
0
0
0
0
0
0
0
0
0
0
0
0
0
0
0
0
0
0
0
0
0
0
0
0
0
0
0
0
0
0
0
0
0
0
0
0
0
0
0
0
0
0
0
0
0
0
0
0
0
0
0
0
0
0
0
0
0
0
0
0
0
0
0
0
0
0
0
0
0
0
0
0
0
0
0
0
0
0
0
0
0
0
0
0
0
0
0
0
0
0
0
0
0
0
0
0
0
0
0
0
0
0
0
0
0
0
0
0
0
0
0
0
0
0
0
0
0
0
0
0
0
0
0
0
0
0
0
0
0
0
0
0
0
0
0
0
0
0
0
0
0
0
0
0
0
0
0
0
0
0
0
0
0
0
0
0
0
0
0
0
0
0
0
0
0
0
0
0
0
0
0
0
0
0
0
0
0
0
0
0
0
0
0
0
0
0
0
0
0
0
0
0
0
0
0
0
0
0
0
0
0
0
0
0
0
0
0
0
0
0
0
0
0
0
0
0
0
0
0
0
0
0
0
0
0
0
0
0
0
0
0
0
0
0
0
0
0
0
0
0
0
0
0
0
0
0
0
0
0
0
0
0
0
0
0
0
0
0
0
0
0
0
0
0
0
0
0
0
0
0
0
0
0
0
0
0
0
0
0
0
0
0
0
0
0
0
0
0
0
0
0
0
0
0
0
0
0
0
0
0
0
0
0
0
0
0
0
0
0
0
0
0
0
0
0
0
0
0
0
0
0
0
0
0
0
0
0
0
0
0
0
0
0
0
0
0
0
0
0
0
0
0
0
0
0
0
0
0
0
0
0
0
0
0
0
0
0
0
0
0
0
0
0
0
0
0
0
0
0
0
0
0
0
0
0
0
0
0
0
0
0
0
0
0
0
0
0
0
0
0
0
0
0
0
0
0
0
0
0
0
0
0
0
0
0
0
0
0
0
0
0
0
0
0
0
0
0
0
0
0
0
0
0
0
0
0
0
0
0
0
0
0
0
0
0
0
0
0
0
0
0
0
0
0
0
0
0
0
0
0
0
0
0
0
0
0
0
0
0
0
0
0
0
0
0
0
0
0
0
0
0
0
0
0
0
0
0
0
0
0
0
0
0
0
0
0
0
0
0
0
0
0
0
0
0
0
0
0
0
0
0
0
0
0
0
0
0
0
0
0
0
0
0
0
0
0
0
0
0
0
0
0
0
0
0
0
0
0
0
0
0
0
0
0
0
0
0
0
0
0
0
0
0
0
0
0
0
0
0
0
0
0
0
0
0
0
0
0
0
0
0
0
0
0
0
0
0
0
0
0
0
0
0
0
0
0
0
0
0
0
0
0
0
0
0
0
0
0
0
0
0
0
0
0
0
0
0
0
0
0
0
0
0
0
0
0
0
0
0
0
0
0
0
0
0
0
0
0
0
0
0
0
0
0
0
0
0
0
0
0
0
0
0
0
0
0
0
0
0
0
0
0
0
0
0
0
0
0
0
0
0
0
0
0
0
0
0
0
0
0
0
0
0
0
0
0
0
0
0
0
0
0
0
0
0
0
0
0
0
0
0
0
0
0
0
0
0
0
0
0
0
0
0
0
0
0
0
0
0
0
0
0
0
0
0
0
0
0
0
0
0
0
0
0
0
0
0
0
0
0
0
0
0
0
0
0
0
0
0
0
0
0
0
0
0
0
0
0
0
0
0
0
0
0
0
0
0
0
0
0
0
0
0
0
0
0
0
0
0
0
0
0
0
0
0
0
0
0
0
0
0
0
0
0
0
0
0
0
0
0
0
0
0
0
0
0
0
0
0
0
0
0
0
0
0
0
0
0
0
0
0
0
0
0
0
0
0
0
0
0
0
0
0
0
0
0
0
0
0
0
0
0
0
0
0
0
0
0
0
0
0
0
0
0
0
0
0
0
0
0
0
0
0
0
0
0
0
0
0
0
0
0
0
0
0
0
0
0
0
0
0
0
0
0
0
0
0
0
0
0
0
0
0
0
0
0
0
0
0
0
0
0
0
0
0
0
0
0
0
0
0
0
0
0
0
0
0
0
0
0
0
0
0
0
0
0
0
0
0
0
0
0
0
0
0
0
0
0
0
0
0
0
0
0
0
0
0
0
0
0
0
0
0
0
0
0
0
0
0
0
0
0
0
0
0
0
0
0
0
0
0
0
0
0
0
0
0
0
0
0
0
0
0
0
0
0
0
0
0
0
0
0
0
0
0
0
0
0
0
0
0
0
0
0
0
0
0
0
0
0
0
0
0
0
0
0
0
0
0
0
0
0
0
0
0
0
0
0
0
0
0
0
0
0
0
0
0
0
0
0
0
0
0
0
0
0
0
0
0
0
0
0
0
0
0
0
0
0
0
0
0
0
0
0
0
0
0
0
0
0
0
0
0
0
0
0
0
0
0
0
0
0
0
0
0
0
0
0
0
0
0
0
0
0
0
0
0
0
0
0
0
0
0
0
0
0
0
0
0
0
0
0
0
0
0
0
0
0
0
0
0
0
0
0
0
0
0
0
0
0
0
0
0
0
0
0
0
0
0
0
0
0
0
0
0
0
0
0
0
0
0
0
0
0
0
0
0
0
0
0
0
0
0
0
0
0
0
0
0
0
0
0
0
0
0
0
0
0
0
0
0
0
0
0
0
0
0
0
0
0
0
0
0
0
0
0
0
0
0
0
0
0
0
0
0
0
0
0
0
0
0
0
0
0
0
0
0
0
0
0
0
0
0
0
0
0
0
0
0
0
0
0
0
0
0
0
0
0
0
0
0
0
0
0
0
0
0
0
0
0
0
0
0
0
0
0
0
0
0
0
0
0
0
0
0
0
0
0
0
0
0
0
0
0
0
0
0
0
0
0
0
0
0
0
0
0
0
0
0
0
0
0
0
0
0
0
0
0
0
0
0
0
0
0
0
0
0
0
0
0
0
0
0
0
0
0
0
0
0
0
0
0
0
0
0
0
0
0
0
0
0
0
0
0
0
0
0
0
0
0
0
0
0
0
0
0
0
0
0
0
0
0
0
0
0
0
0
0
0
0
0
0
0
0
0
0
0
0
0
0
0
0
0
0
0
0
0
0
0
0
0
0
0
0
0
0
0
0
0
0
0
0
0
0
0
0
0
0
0
0
0
0
0
0
0
0
0
0
0
0
0
0
0
0
0
0
0
0
0
0
0
0
0
0
0
0
0
0
0
0
0
0
0
0
0
0
0
0
0
0
0
0
0
0
0
0
0
0
0
0
0
0
0
0
0
0
0
0
0
0
0
0
0
0
0
0
0
0
0
0
0
0
0
0
0
0
0
0
0
0
0
0
0
0
0
0
0
0
0
0
0
0
0
0
0
0
0
0
0
0
0
0
0
0
0
0
0
0
0
0
0
0
0
0
0
0
0
0
0
0
0
0
0
0
0
0
0
0
0
0
0
0
0
0
0
0
0
0
0
0
0
0
0
0
0
0
0
0
0
0
0
0
0
0
0
0
0
0
0
0
0
0
0
0
0
0
0
0
0
0
0
0
0
0
0
0
0
0
0
0
0
0
0
0
0
0
0
0
0
0
0
0
0
0
0
0
0
0
0
0
0
0
0
0
0
0
0
0
0
0
0
0
0
0
0
0
0
0
0
0
0
0
0
0
0
0
0
0
0
0
0
0
0
0
0
0
0
0
0
0
0
0
0
0
0
0
0
0
0
0
0
0
0
0
0
0
0
0
0
0
0
0
0
0
0
0
0
0
0
0
0
0
0
0
0
0
0
0
0
0
0
0
0
0
0
0
0
0
0
0
0
0
0
0
0
0
0
0
0
0
0
0
0
0
0
0
0
0
0
0
0
0
0
0
0
0
0
0
0
0
0
0
0
0
0
0
0
0
0
0
0
0
0
0
0
0
0
0
0
0
0
0
0
0
0
0
0
0
0
0
0
0
0
0
0
0
0
0
0
0
0
0
0
0
0
0
0
0
0
0
0
0
0
0
0
0
0
0
0
0
0
0
0
0
0
0
0
0
0
0
0
0
0
0
0
0
0
0
0
0
0
0
0
0
0
0
0
0
0
0
0
0
0
0
0
0
0
0
0
0
0
0
0
0
0
0
0
0
0
0
0
0
0
0
0
0
0
0
0
0
0
0
0
0
0
0
0
0
0
0
0
0
0
0
0
0
0
0
0
0
0
0
0
0
0
0
0
0
0
0
0
0
0
0
0
0
0
0
0
0
0
0
0
0
0
0
0
0
0
0
0
0
0
0
0
0
0
0
0
0
0
0
0
0
0
0
0
0
0
0
0
0
0
0
0
0
0
0
0
0
0
0
0
0
0
0
0
0
0
0
0
0
0
0
0
0
0
0
0
0
0
0
0
0
0
0
0
0
0
0
0
0
0
0
0
0
0
0
0
0
0
0
0
0
0
0
0
0
0
0
0
0
0
0
0
0
0
0
0
0
0
0
0
0
0
0
0
0
0
0
0
0
0
0
0
0
0
0
0
0
0
0
0
0
0
0
0
0
0
0
0
0
0
0
0
0
0
0
0
0
0
0
0
0
0
0
0
0
0
0
0
0
0
0
0
0
0
0
0
0
0
0
0
0
0
0
0
0
0
0
0
0
0
0
0
0
0
0
0
0
0
0
0
0
0
0
0
0
0
0
0
0
0
0
0
0
0
0
0
0
0
0
0
0
0
0
0
0
0
0
0
0
0
0
0
0
0
0
0
0
0
0
0
0
0
0
0
0
0
0
0
0
0
0
0
0
0
0
0
0
0
0
0
0
0
0
0
0
0
0
0
0
0
0
0
0
0
0
0
0
0
0
0
0
0
0
0
0
0
0
0
0
0
0
0
0
0
0
0
0
0
0
0
0
0
0
0
0
0
0
0
0
0
0
0
0
0
0
0
0
0
0
0
0
0
0
0
0
0
0
0
0
0
0
0
0
0
0
0
0
0
0
0
0
0
0
0
0
0
0
0
0
0
0
0
0
0
0
0
0
0
0
0
0
0
0
0
0
0
0
0
0
0
0
0
0
0
0
0
0
0
0
0
0
0
0
0
0
0
0
0
0
0
0
0
0
0
0
0
0
0
0
0
0
0
0
0
0
0
0
0
0
0
0
0
0
0
0
0
0
0
0
0
0
0
0
0
0
0
0
0
0
0
0
0
0
0
0
0
0
0
0
0
0
0
0
0
0
0
0
0
0
0
0
0
0
0
0
0
0
0
0
0
0
0
0
0
0
0
0
0
0
0
0
0
0
0
0
0
0
0
0
0
0
0
0
0
0
0
0
0
0
0
0
0
0
0
0
0
0
0
0
0
0
0
0
0
0
0
0
0
0
0
0
0
0
0
0
0
0
0
0
0
0
0
0
0
0
0
0
0
0
0
0
0
0
0
0
0
0
0
0
0
0
0
0
0
0
0
0
0
0
0
0
0
0
0
0
0
0
0
0
0
0
0
0
0
0
0
0
0
0
0
0
0
0
0
0
0
0
0
0
0
0
0
0
0
0
0
0
0
0
0
0
0
0
0
0
0
0
0
0
0
0
0
0
0
0
0
0
0
0
0
0
0
0
0
0
0
0
0
0
0
0
0
0
0
0
0
0
0
0
0
0
0
0
0
0
0
0
0
0
0
0
0
0
0
0
0
0
0
0
0
0
0
0
0
0
0
0
0
0
0
0
0
0
0
0
0
0
0
0
0
0
0
0
0
0
0
0
0
0
0
0
0
0
0
0
0
0
0
0
0
0
0
0
0
0
0
0
0
0
0
0
0
0
0
0
0
0
0
0
0
0
0
0
0
0
0
0
0
0
0
0
0
0
0
0
0
0
0
0
0
0
0
0
0
0
0
0
0
0
0
0
0
0
0
0
0
0
0
0
0
0
0
0
0
0
0
0
0
0
0
0
0
0
0
0
0
0
0
0
0
0
0
0
0
0
0
0
0
0
0
0
0
0
0
0
0
0
0
0
0
0
0
0
0
0
0
0
0
0
0
0
0
0
0
0
0
0
0
0
0
0
0
0
0
0
0
0
0
0
0
0
0
0
0
0
0
0
0
0
0
0
0
0
0
0
0
0
0
0
0
0
0
0
0
0
0
0
0
0
0
0
0
0
0
0
0
0
0
0
0
0
0
0
0
0
0
0
0
0
0
0
0
0
0
0
0
0
0
0
0
0
0
0
0
0
0
0
0
0
0
0
0
0
0
0
0
0
0
0
0
0
0
0
0
0
0
0
0
0
0
0
0
0
0
0
0
0
0
0
0
0
0
0
0
0
0
0
0
0
0
0
0
0
0
0
0
0
0
0
0
0
0
0
0
0
0
0
0
0
0
0
0
0
0
0
0
0
0
0
0
0
0
0
0
0
0
0
0
0
0
0
0
0
0
0
0
0
0
0
0
0
0
0
0
0
0
0
0
0
0
0
0
0
0
0
0
0
0
0
0
0
0
0
0
0
0
0
0
0
0
0
0
0
0
0
0
0
0
0
0
0
0
0
0
0
0
0
0
0
0
0
0
0
0
0
0
0
0
0
0
0
0
0
0
0
0
0
0
0
0
0
0
0
0
0
0
0
0
0
0
0
0
0
0
0
0
0
0
0
0
0
0
0
0
0
0
0
0
0
0
0
0
0
0
0
0
0
0
0
0
0
0
0
0
0
0
0
0
0
0
0
0
0
0
0
0
0
0
0
0
0
0
0
0
0
0
0
0
0
0
0
0
0
0
0
0
0
0
0
0
0
0
0
0
0
0
0
0
0
0
0
0
0
0
0
0
0
0
0
0
0
0
0
0
0
0
0
0
0
0
0
0
0
0
0
0
0
0
0
0
0
0
0
0
0
0
0
0
0
0
0
0
0
0
0
0
0
0
0
0
0
0
0
0
0
0
0
0
0
0
0
0
0
0
0
0
0
0
0
0
0
0
0
0
0
0
0
0
0
0
0
0
0
0
0
0
0
0
0
0
0
0
0
0
0
0
0
0
0
0
0
0
0
0
0
0
0
0
0
0
0
0
0
0
0
0
0
0
0
0
0
0
0
0
0
0
0
0
0
0
0
0
0
0
0
0
0
0
0
0
0
0
0
0
0
0
0
0
0
0
0
0
0
0
0
0
0
0
0
0
0
0
0
0
0
0
0
0
0
0
0
0
0
0
0
0
0
0
0
0
0
0
0
0
0
0
0
0
0
0
0
0
0
0
0
0
0
0
0
0
0
0
0
0
0
0
0
0
0
0
0
0
0
0
0
0
0
0
0
0
0
0
0
0
0
0
0
0
0
0
0
0
0
0
0
0
0
0
0
0
0
0
0
0
0
0
0
0
0
0
0
0
0
0
0
0
0
0
0
0
0
0
0
0
0
0
0
0
0
0
0
0
0
0
0
0
0
0
0
0
0
0
0
0
0
0
0
0
0
0
0
0
0
0
0
0
0
0
0
0
0
0
0
0
0
0
0
0
0
0
0
0
0
0
0
0
0
0
0
0
0
0
0
0
0
0
0
0
0
0
0
0
0
0
0
0
0
0
0
0
0
0
0
0
0
0
0
0
0
0
0
0
0
0
0
0
0
0
0
0
0
0
0
0
0
0
0
0
0
0
0
0
0
0
0
0
0
0
0
0
0
0
0
0
0
0
0
0
0
0
0
0
0
0
0
0
0
0
0
0
0
0
0
0
0
0
0
0
0
0
0
0
0
0
0
0
0
0
0
0
0
0
0
0
0
0
0
0
0
0
0
0
0
0
0
0
0
0
0
0
0
0
0
0
0
0
0
0
0
0
0
0
0
0
0
0
0
0
0
0
0
0
0
0
0
0
0
0
0
0
0
0
0
0
0
0
0
0
0
0
0
0
0
0
0
0
0
0
0
0
0
0
0
0
0
0
0
0
0
0
0
0
0
0
0
0
0
0
0
0
0
0
0
0
0
0
0
0
0
0
0
0
0
0
0
0
0
0
0
0
0
0
0
0
0
0
0
0
0
0
0
0
0
0
0
0
0
0
0
0
0
0
0
0
0
0
0
0
0
0
0
0
0
0
0
0
0
0
0
0
0
0
0
0
0
0
0
0
0
0
0
0
0
0
0
0
0
0
0
0
0
0
0
0
0
0
0
0
0
0
0
0
0
0
0
0
0
0
0
0
0
0
0
0
0
0
0
0
0
0
0
0
0
0
0
0
0
0
0
0
0
0
0
0
0
0
0
0
0
0
0
0
0
0
0
0
0
0
0
0
0
0
0
0
0
0
0
0
0
0
0
0
0
0
0
0
0
0
0
0
0
0
0
0
0
0
0
0
0
0
0
0
0
0
0
0
0
0
0
0
0
0
0
0
0
0
0
0
0
0
0
0
0
0
0
0
0
0
0
0
0
0
0
0
0
0
0
0
0
0
0
0
0
0
0
0
0
0
0
0
0
0
0
0
0
0
0
0
0
0
0
0
0
0
0
0
0
0
0
0
0
0
0
0
0
0
0
0
0
0
0
0
0
0
0
0
0
0
0
0
0
0
0
0
0
0
0
0
0
0
0
0
0
0
0
0
0
0
0
0
0
0
0
0
0
0
0
0
0
0
0
0
0
0
0
0
0
0
0
0
0
0
0
0
0
0
0
0
0
0
0
0
0
0
0
0
0
0
0
0
0
0
0
0
0
0
0
0
0
0
0
0
0
0
0
0
0
0
0
0
0
0
0
0
0
0
0
0
0
0
0
0
0
0
0
0
0
0
0
0
0
0
0
0
0
0
0
0
0
0
0
0
0
0
0
0
0
0
0
0
0
0
0
0
0
0
0
0
0
0
0
0
0
0
0
0
0
0
0
0
0
0
0
0
0
0
0
0
0
0
0
0
0
0
0
0
0
0
0
0
0
0
0
0
0
0
0
0
0
0
0
0
0
0
0
0
0
0
0
0
0
0
0
0
0
0
0
0
0
0
0
0
0
0
0
0
0
0
0
0
0
0
0
0
0
0
0
0
0
0
0
0
0
0
0
0
0
0
0
0
0
0
0
0
0
0
0
0
0
0
0
0
0
0
0
0
0
0
0
0
0
0
0
0
0
0
0
0
0
0
0
0
0
0
0
0
0
0
0
0
0
0
0
0
0
0
0
0
0
0
0
0
0
0
0
0
0
0
0
0
0
0
0
0
0
0
0
0
0
0
0
0
0
0
0
0
0
0
0
0
0
0
0
0
0
0
0
0
0
0
0
0
0
0
0
0
0
0
0
0
0
0
0
0
0
0
0
0
0
0
0
0
0
0
0
0
0
0
0
0
0
0
0
0
0
0
0
0
0
0
0
0
0
0
0
0
0
0
0
0
0
0
0
0
0
0
0
0
0
0
0
0
0
0
0
0
0
0
0
0
0
0
0
0
0
0
0
0
0
0
0
0
0
0
0
0
0
0
0
0
0
0
0
0
0
0
0
0
0
0
0
0
0
0
0
0
0
0
0
0
0
0
0
0
0
0
0
0
0
0
0
0
0
0
0
0
0
0
0
0
0
0
0
0
0
0
0
0
0
0
0
0
0
0
0
0
0
0
0
0
0
0
0
0
0
0
0
0
0
0
0
0
0
0
0
0
0
0
0
0
0
0
0
0
0
0
0
0
0
0
0
0
0
0
0
0
0
0
0
0
0
0
0
0
0
0
0
0
0
0
0
0
0
0
0
0
0
0
0
0
0
0
0
0
0
0
0
0
0
0
0
0
0
0
0
0
0
0
0
0
0
0
0
0
0
0
0
0
0
0
0
0
0
0
0
0
0
0
0
0
0
0
0
0
0
0
0
0
0
0
0
0
0
0
0
0
0
0
0
0
0
0
0
0
0
0
0
0
0
0
0
0
0
0
0
0
0
0
0
0
0
0
0
0
0
0
0
0
0
0
0
0
0
0
0
0
0
0
0
0
0
0
0
0
0
0
0
0
0
0
0
0
0
0
0
0
0
0
0
0
0
0
0
0
0
0
0
0
0
0
0
0
0
0
0
0
0
0
0
0
0
0
0
0
0
0
0
0
0
0
0
0
0
0
0
0
0
0
0
0
0
0
0
0
0
0
0
0
0
0
0
0
0
0
0
0
0
0
0
0
0
0
0
0
0
0
0
0
0
0
0
0
0
0
0
0
0
0
0
0
0
0
0
0
0
0
0
0
0
0
0
0
0
0
0
0
0
0
0
0
0
0
0
0
0
0
0
0
0
0
0
0
0
0
0
0
0
0
0
0
0
0
0
0
0
0
0
0
0
0
0
0
0
0
0
0
0
0
0
0
0
0
0
0
0
0
0
0
0
0
0
0
0
0
0
0
0
0
0
0
0
0
0
0
0
0
0
0
0
0
0
0
0
0
0
0
0
0
0
0
0
0
0
0
0
0
0
0
0
0
0
0
0
0
0
0
0
0
0
0
0
0
0
0
0
0
0
0
0
0
0
0
0
0
0
0
0
0
0
0
0
0
0
0
0
0
0
0
0
0
0
0
0
0
0
0
0
0
0
0
0
0
0
0
0
0
0
0
0
0
0
0
0
0
0
0
0
0
0
0
0
0
0
0
0
0
0
0
0
0
0
0
0
0
0
0
0
0
0
0
0
0
0
0
0
0
0
0
0
0
0
0
0
0
0
0
0
0
0
0
0
0
0
0
0
0
0
0
0
0
0
0
0
0
0
0
0
0
0
0
0
0
0
0
0
0
0
0
0
0
0
0
0
0
0
0
0
0
0
0
0
0
0
0
0
0
0
0
0
0
0
0
0
0
0
0
0
0
0
0
0
0
0
0
0
0
0
0
0
0
0
0
0
0
0
0
0
0
0
0
0
0
0
0
0
0
0
0
0
0
0
0
0
0
0
0
0
0
0
0
0
0
0
0
0
0
0
0
0
0
0
0
0
0
0
0
0
0
0
0
0
0
0
0
0
0
0
0
0
0
0
0
0
0
0
0
0
0
0
0
0
0
0
0
0
0
0
0
0
0
0
0
0
0
0
0
0
0
0
0
0
0
0
0
0
0
0
0
0
0
0
0
0
0
0
0
0
0
0
0
0
0
0
0
0
0
0
0
0
0
0
0
0
0
0
0
0
0
0
0
0
0
0
0
0
0
0
0
0
0
0
0
0
0
0
0
0
0
0
0
0
0
0
0
0
0
0
0
0
0
0
0
0
0
0
0
0
0
0
0
0
0
0
0
0
0
0
0
0
0
0
0
0
0
0
0
0
0
0
0
0
0
0
0
0
0
0
0
0
0
0
0
0
0
0
0
0
0
0
0
0
0
0
0
0
0
0
0
0
0
0
0
0
0
0
0
0
0
0
0
0
0
0
0
0
0
0
0
0
0
0
0
0
0
0
0
0
0
0
0
0
0
0
0
0
0
0
0
0
0
0
0
0
0
0
0
0
0
0
0
0
0
0
0
0
0
0
0
0
0
0
0
0
0
0
0
0
0
0
0
0
0
0
0
0
0
0
0
0
0
0
0
0
0
0
0
0
0
0
0
0
0
0
0
0
0
0
0
0
0
0
0
0
0
0
0
0
0
0
0
0
0
0
0
0
0
0
0
0
0
0
0
0
0
0
0
0
0
0
0
0
0
0
0
0
0
0
0
0
0
0
0
0
0
0
0
0
0
0
0
0
0
0
0
0
0
0
0
0
0
0
0
0
0
0
0
0
0
0
0
0
0
0
0
0
0
0
0
0
0
0
0
0
0
0
0
0
0
0
0
0
0
0
0
0
0
0
0
0
0
0
0
0
0
0
0
0
0
0
0
0
0
0
0
0
0
0
0
0
0
0
0
0
0
0
0
0
0
0
0
0
0
0
0
0
0
0
0
0
0
0
0
0
0
0
0
0
0
0
0
0
0
0
0
0
0
0
0
0
0
0
0
0
0
0
0
0
0
0
0
0
0
0
0
0
0
0
0
0
0
0
0
0
0
0
0
0
0
0
0
0
0
0
0
0
0
0
0
0
0
0
0
0
0
0
0
0
0
0
0
0
0
0
0
0
0
0
0
0
0
0
0
0
0
0
0
0
0
0
0
0
0
0
0
0
0
0
0
0
0
0
0
0
0
0
0
0
0
0
0
0
0
0
0
0
0
0
0
0
0
0
0
0
0
0
0
0
0
0
0
0
0
0
0
0
0
0
0
0
0
0
0
0
0
0
0
0
0
0
0
0
0
0
0
0
0
0
0
0
0
0
0
0
0
0
0
0
0
0
0
0
0
0
0
0
0
0
0
0
0
0
0
0
0
0
0
0
0
0
0
0
0
0
0
0
0
0
0
0
0
0
0
0
0
0
0
0
0
0
0
0
0
0
0
0
0
0
0
0
0
0
0
0
0
0
0
0
0
0
0
0
0
0
0
0
0
0
0
0
0
0
0
0
0
0
0
0
0
0
0
0
0
0
0
0
0
0
0
0
0
0
0
0
0
0
0
0
0
0
0
0
0
0
0
0
0
0
0
0
0
0
0
0
0
0
0
0
0
0
0
0
0
0
0
0
0
0
0
0
0
0
0
0
0
0
0
0
0
0
0
0
0
0
0
0
0
0
0
0
0
0
0
0
0
0
0
0
0
0
0
0
0
0
0
0
0
0
0
0
0
0
0
0
0
0
0
0
0
0
0
0
0
0
0
0
0
0
0
0
0
0
0
0
0
0
0
0
0
0
0
0
0
0
0
0
0
0
0
0
0
0
0
0
0
0
0
0
0
0
0
0
0
0
0
0
0
0
0
0
0
0
0
0
0
0
0
0
0
0
0
0
0
0
0
0
0
0
0
0
0
0
0
0
0
0
0
0
0
0
0
0
0
0
0
0
0
0
0
0
0
0
0
0
0
0
0
0
0
0
0
0
0
0
0
0
0
0
0
0
0
0
0
0
0
0
0
0
0
0
0
0
0
0
0
0
0
0
0
0
0
0
0
0
0
0
0
0
0
0
0
0
0
0
0
0
0
0
0
0
0
0
0
0
0
0
0
0
0
0
0
0
0
0
0
0
0
0
0
0
0
0
0
0
0
0
0
0
0
0
0
0
0
0
0
0
0
0
0
0
0
0
0
0
0
0
0
0
0
0
0
0
0
0
0
0
0
0
0
0
0
0
0
0
0
0
0
0
0
0
0
0
0
0
0
0
0
0
0
0
0
0
0
0
0
0
0
0
0
0
0
0
0
0
0
0
0
0
0
0
0
0
0
0
0
0
0
0
0
0
0
0
0
0
0
0
0
0
0
0
0
0
0
0
0
0
0
0
0
0
0
0
0
0
0
0
0
0
0
0
0
0
0
0
0
0
0
0
0
0
0
0
0
0
0
0
0
0
0
0
0
0
0
0
0
0
0
0
0
0
0
0
0
0
0
0
0
0
0
0
0
0
0
0
0
0
0
0
0
0
0
0
0
0
0
0
0
0
0
0
0
0
0
0
0
0
0
0
0
0
0
0
0
0
0
0
0
0
0
0
0
0
0
0
0
0
0
0
0
0
0
0
0
0
0
0
0
0
0
0
0
0
0
0
0
0
0
0
0
0
0
0
0
0
0
0
0
0
0
0
0
0
0
0
0
0
0
0
0
0
0
0
0
0
0
0
0
0
0
0
0
0
0
0
0
0
0
0
0
0
0
0
0
0
0
0
0
0
0
0
0
0
0
0
0
0
0
0
0
0
0
0
0
0
0
0
0
0
0
0
0
0
0
0
0
0
0
0
0
0
0
0
0
0
0
0
0
0
0
0
0
0
0
0
0
0
0
0
0
0
0
0
0
0
0
0
0
0
0
0
0
0
0
0
0
0
0
0
0
0
0
0
0
0
0
0
0
0
0
0
0
0
0
0
0
0
0
0
0
0
0
0
0
0
0
0
0
0
0
0
0
0
0
0
0
0
0
0
0
0
0
0
0
0
0
0
0
0
0
0
0
0
0
0
0
0
0
0
0
0
0
0
0
0
0
0
0
0
0
0
0
0
0
0
0
0
0
0
0
0
0
0
0
0
0
0
0
0
0
0
0
0
0
0
0
0
0
0
0
0
0
0
0
0
0
0
0
0
0
0
0
0
0
0
0
0
0
0
0
0
0
0
0
0
0
0
0
0
0
0
0
0
0
0
0
0
0
0
0
0
0
0
0
0
0
0
0
0
0
0
0
0
0
0
0
0
0
0
0
0
0
0
0
0
0
0
0
0
0
0
0
0
0
0
0
0
0
0
0
0
0
0
0
0
0
0
0
0
0
0
0
0
0
0
0
0
0
0
0
0
0
0
0
0
0
0
0
0
0
0
0
0
0
0
0
0
0
0
0
0
0
0
0
0
0
0
0
0
0
0
0
0
0
0
0
0
0
0
0
0
0
0
0
0
0
0
0
0
0
0
0
0
0
0
0
0
0
0
0
0
0
0
0
0
0
0
0
0
0
0
0
0
0
0
0
0
0
0
0
0
0
0
0
0
0
0
0
0
0
0
0
0
0
0
0
0
0
0
0
0
0
0
0
0
0
0
0
0
0
0
0
0
0
0
0
0
0
0
0
0
0
0
0
0
0
0
0
0
0
0
0
0
0
0
0
0
0
0
0
0
0
0
0
0
0
0
0
0
0
0
0
0
0
0
0
0
0
0
0
0
0
0
0
0
0
0
0
0
0
0
0
0
0
0
0
0
0
0
0
0
0
0
0
0
0
0
0
0
0
0
0
0
0
0
0
0
0
0
0
0
0
0
0
0
0
0
0
0
0
0
0
0
0
0
0
0
0
0
0
0
0
0
0
0
0
0
0
0
0
0
0
0
0
0
0
0
0
0
0
0
0
0
0
0
0
0
0
0
0
0
0
0
0
0
0
0
0
0
0
0
0
0
0
0
0
0
0
0
0
0
0
0
0
0
0
0
0
0
0
0
0
0
0
0
0
0
0
0
0
0
0
0
0
0
0
0
0
0
0
0
0
0
0
0
0
0
0
0
0
0
0
0
0
0
0
0
0
0
0
0
0
0
0
0
0
0
0
0
0
0
0
0
0
0
0
0
0
0
0
0
0
0
0
0
0
0
0
0
0
0
0
0
0
0
0
0
0
0
0
0
0
0
0
0
0
0
0
0
0
0
0
0
0
0
0
0
0
0
0
0
0
0
0
0
0
0
0
0
0
0
0
0
0
0
0
0
0
0
0
0
0
0
0
0
0
0
0
0
0
0
0
0
0
0
0
0
0
0
0
0
0
0
0
0
0
0
0
0
0
0
0
0
0
0
0
0
0
0
0
0
0
0
0
0
0
0
0
0
0
0
0
0
0
0
0
0
0
0
0
0
0
0
0
0
0
0
0
0
0
0
0
0
0
0
0
0
0
0
0
0
0
0
0
0
0
0
0
0
0
0
0
0
0
0
0
0
0
0
0
0
0
0
0
0
0
0
0
0
0
0
0
0
0
0
0
0
0
0
0
0
0
0
0
0
0
0
0
0
0
0
0
0
0
0
0
0
0
0
0
0
0
0
0
0
0
0
0
0
0
0
0
0
0
0
0
0
0
0
0
0
0
0
0
0
0
0
0
0
0
0
0
0
0
0
0
0
0
0
0
0
0
0
0
0
0
0
0
0
0
0
0
0
0
0
0
0
0
0
0
0
0
0
0
0
0
0
0
0
0
0
0
0
0
0
0
0
0
0
0
0
0
0
0
0
0
0
0
0
0
0
0
0
0
0
0
0
0
0
0
0
0
0
0
0
0
0
0
0
0
0
0
0
0
0
0
0
0
0
0
0
0
0
0
0
0
0
0
0
0
0
0
0
0
0
0
0
0
0
0
0
0
0
0
0
0
0
0
0
0
0
0
0
0
0
0
0
0
0
0
0
0
0
0
0
0
0
0
0
0
0
0
0
0
0
0
0
0
0
0
0
0
0
0
0
0
0
0
0
0
0
0
0
0
0
0
0
0
0
0
0
0
0
0
0
0
0
0
0
0
0
0
0
0
0
0
0
0
0
0
0
0
0
0
0
0
0
0
0
0
0
0
0
0
0
0
0
0
0
0
0
0
0
0
0
0
0
0
0
0
0
0
0
0
0
0
0
0
0
0
0
0
0
0
0
0
0
0
0
0
0
0
0
0
0
0
0
0
0
0
0
0
0
0
0
0
0
0
0
0
0
0
0
0
0
0
0
0
0
0
0
0
0
0
0
0
0
0
0
0
0
0
0
0
0
0
0
0
0
0
0
0
0
0
0
0
0
0
0
0
0
0
0
0
0
0
0
0
0
0
0
0
0
0
0
0
0
0
0
0
0
0
0
0
0
0
0
0
0
0
0
0
0
0
0
0
0
0
0
0
0
0
0
0
0
0
0
0
0
0
0
0
0
0
0
0
0
0
0
0
0
0
0
0
0
0
0
0
0
0
0
0
0
0
0
0
0
0
0
0
0
0
0
0
0
0
0
0
0
0
0
0
0
0
0
0
0
0
0
0
0
0
0
0
0
0
0
0
0
0
0
0
0
0
0
0
0
0
0
0
0
0
0
0
0
0
0
0
0
0
0
0
0
0
0
0
0
0
0
0
0
0
0
0
0
0
0
0
0
0
0
0
0
0
0
0
0
0
0
0
0
0
0
0
0
0
0
0
0
0
0
0
0
0
0
0
0
0
0
0
0
0
0
0
0
0
0
0
0
0
0
0
0
0
0
0
0
0
0
0
0
0
0
0
0
0
0
0
0
0
0
0
0
0
0
0
0
0
0
0
0
0
0
0
0
0
0
0
0
0
0
0
0
0
0
0
0
0
0
0
0
0
0
0
0
0
0
0
0
0
0
0
0
0
0
0
0
0
0
0
0
0
0
0
0
0
0
0
0
0
0
0
0
0
0
0
0
0
0
0
0
0
0
0
0
0
0
0
0
0
0
0
0
0
0
0
0
0
0
0
0
0
0
0
0
0
0
0
0
0
0
0
0
0
0
0
0
0
0
0
0
0
0
0
0
0
0
0
0
0
0
0
0
0
0
0
0
0
0
0
0
0
0
0
0
0
0
0
0
0
0
0
0
0
0
0
0
0
0
0
0
0
0
0
0
0
0
0
0
0
0
0
0
0
0
0
0
0
0
0
0
0
0
0
0
0
0
0
0
0
0
0
0
0
0
0
0
0
0
0
0
0
0
0
0
0
0
0
0
0
0
0
0
0
0
0
0
0
0
0
0
0
0
0
0
0
0
0
0
0
0
0
0
0
0
0
0
0
0
0
0
0
0
0
0
0
0
0
0
0
0
0
0
0
0
0
0
0
0
0
0
0
0
0
0
0
0
0
0
0
0
0
0
0
0
0
0
0
0
0
0
0
0
0
0
0
0
0
0
0
0
0
0
0
0
0
0
0
0
0
0
0
0
0
0
0
0
0
0
0
0
0
0
0
0
0
0
0
0
0
0
0
0
0
0
0
0
0
0
0
0
0
0
0
0
0
0
0
0
0
0
0
0
0
0
0
0
0
0
0
0
0
0
0
0
0
0
0
0
0
0
0
0
0
0
0
0
0
0
0
0
0
0
0
0
0
0
0
0
0
0
0
0
0
0
0
0
0
0
0
0
0
0
0
0
0
0
0
0
0
0
0
0
0
0
0
0
0
0
0
0
0
0
0
0
0
0
0
0
0
0
0
0
0
0
0
0
0
0
0
0
0
0
0
0
0
0
0
0
0
0
0
0
0
0
0
0
0
0
0
0
0
0
0
0
0
0
0
0
0
0
0
0
0
0
0
0
0
0
0
0
0
0
0
0
0
0
0
0
0
0
0
0
0
0
0
0
0
0
0
0
0
0
0
0
0
0
0
0
0
0
0
0
0
0
0
0
0
0
0
0
0
0
0
0
0
0
0
0
0
0
0
0
0
0
0
0
0
0
0
0
0
0
0
0
0
0
0
0
0
0
0
0
0
0
0
0
0
0
0
0
0
0
0
0
0
0
0
0
0
0
0
0
0
0
0
0
0
0
0
0
0
0
0
0
0
0
0
0
0
0
0
0
0
0
0
0
0
0
0
0
0
0
0
0
0
0
0
0
0
0
0
0
0
0
0
0
0
0
0
0
0
0
0
0
0
0
0
0
0
0
0
0
0
0
0
0
0
0
0
0
0
0
0
0
0
0
0
0
0
0
0
0
0
0
0
0
0
0
0
0
0
0
0
0
0
0
0
0
0
0
0
0
0
0
0
0
0
0
0
0
0
0
0
0
0
0
0
0
0
0
0
0
0
0
0
0
0
0
0
0
0
0
0
0
0
0
0
0
0
0
0
0
0
0
0
0
0
0
0
0
0
0
0
0
0
0
0
0
0
0
0
0
0
0
0
0
0
0
0
0
0
0
0
0
0
0
0
0
0
0
0
0
0
0
0
0
0
0
0
0
0
0
0
0
0
0
0
0
0
0
0
0
0
0
0
0
0
0
0
0
0
0
0
0
0
0
0
0
0
0
0
0
0
0
0
0
0
0
0
0
0
0
0
0
0
0
0
0
0
0
0
0
0
0
0
0
0
0
0
0
0
0
0
0
0
0
0
0
0
0
0
0
0
0
0
0
0
0
0
0
0
0
0
0
0
0
0
0
0
0
0
0
0
0
0
0
0
0
0
0
0
0
0
0
0
0
0
0
0
0
0
0
0
0
0
0
0
0
0
0
0
0
0
0
0
0
0
0
0
0
0
0
0
0
0
0
0
0
0
0
0
0
0
0
0
0
0
0
0
0
0
0
0
0
0
0
0
0
0
0
0
0
0
0
0
0
0
0
0
0
0
0
0
0
0
0
0
0
0
0
0
0
0
0
0
0
0
0
0
0
0
0
0
0
0
0
0
0
0
0
0
0
0
0
0
0
0
0
0
0
0
0
0
0
0
0
0
0
0
0
0
0
0
0
0
0
0
0
0
0
0
0
0
0
0
0
0
0
0
0
0
0
0
0
0
0
0
0
0
0
0
0
0
0
0
0
0
0
0
0
0
0
0
0
0
0
0
0
0
0
0
0
0
0
0
0
0
0
0
0
0
0
0
0
0
0
0
0
0
0
0
0
0
0
0
0
0
0
0
0
0
0
0
0
0
0
0
0
0
0
0
0
0
0
0
0
0
0
0
0
0
0
0
0
0
0
0
0
0
0
0
0
0
0
0
0
0
0
0
0
0
0
0
0
0
0
0
0
0
0
0
0
0
0
0
0
0
0
0
0
0
0
0
0
0
0
0
0
0
0
0
0
0
0
0
0
0
0
0
0
0
0
0
0
0
0
0
0
0
0
0
0
0
0
0
0
0
0
0
0
0
0
0
0
0
0
0
0
0
0
0
0
0
0
0
0
0
0
0
0
0
0
0
0
0
0
0
0
0
0
0
0
0
0
0
0
0
0
0
0
0
0
0
0
0
0
0
0
0
0
0
0
0
0
0
0
0
0
0
0
0
0
0
0
0
0
0
0
0
0
0
0
0
0
0
0
0
0
0
0
0
0
0
0
0
0
0
0
0
0
0
0
0
0
0
0
0
0
0
0
0
0
0
0
0
0
0
0
0
0
0
0
0
0
0
0
0
0
0
0
0
0
0
0
0
0
0
0
0
0
0
0
0
0
0
0
0
0
0
0
0
0
0
0
0
0
0
0
0
0
0
0
0
0
0
0
0
0
0
0
0
0
0
0
0
0
0
0
0
0
0
0
0
0
0
0
0
0
0
0
0
0
0
0
0
0
0
0
0
0
0
0
0
0
0
0
0
0
0
0
0
0
0
0
0
0
0
0
0
0
0
0
0
0
0
0
0
0
0
0
0
0
0
0
0
0
0
0
0
0
0
0
0
0
0
0
0
0
0
0
0
0
0
0
0
0
0
0
0
0
0
0
0
0
0
0
0
0
0
0
0
0
0
0
0
0
0
0
0
0
0
0
0
0
0
0
0
0
0
0
0
0
0
0
0
0
0
0
0
0
0
0
0
0
0
0
0
0
0
0
0
0
0
0
0
0
0
0
0
0
0
0
0
0
0
0
0
0
0
0
0
0
0
0
0
0
0
0
0
0
0
0
0
0
0
0
0
0
0
0
0
0
0
0
0
0
0
0
0
0
0
0
0
0
0
0
0
0
0
0
0
0
0
0
0
0
0
0
0
0
0
0
0
0
0
0
0
0
0
0
0
0
0
0
0
0
0
0
0
0
0
0
0
0
0
0
0
0
0
0
0
0
0
0
0
0
0
0
0
0
0
0
0
0
0
0
0
0
0
0
0
0
0
0
0
0
0
0
0
0
0
0
0
0
0
0
0
0
0
0
0
0
0
0
0
0
0
0
0
0
0
0
0
0
0
0
0
0
0
0
0
0
0
0
0
0
0
0
0
0
0
0
0
0
0
0
0
0
0
0
0
0
0
0
0
0
0
0
0
0
0
0
0
0
0
0
0
0
0
0
0
0
0
0
0
0
0
0
0
0
0
0
0
0
0
0
0
0
0
0
0
0
0
0
0
0
0
0
0
0
0
0
0
0
0
0
0
0
0
0
0
0
0
0
0
0
0
0
0
0
0
0
0
0
0
0
0
0
0
0
0
0
0
0
0
0
0
0
0
0
0
0
0
0
0
0
0
0
0
0
0
0
0
0
0
0
0
0
0
0
0
0
0
0
0
0
0
0
0
0
0
0
0
0
0
0
0
0
0
0
0
0
0
0
0
0
0
0
0
0
0
0
0
0
0
0
0
0
0
0
0
0
0
0
0
0
0
0
0
0
0
0
0
0
0
0
0
0
0
0
0
0
0
0
0
0
0
0
0
0
0
0
0
0
0
0
0
0
0
0
0
0
0
0
0
0
0
0
0
0
0
0
0
0
0
0
0
0
0
0
0
0
0
0
0
0
0
0
0
0
0
0
0
0
0
0
0
0
0
0
0
0
0
0
0
0
0
0
0
0
0
0
0
0
0
0
0
0
0
0
0
0
0
0
0
0
0
0
0
0
0
0
0
0
0
0
0
0
0
0
0
0
0
0
0
0
0
0
0
0
0
0
0
0
0
0
0
0
0
0
0
0
0
0
0
0
0
0
0
0
0
0
0
0
0
0
0
0
0
0
0
0
0
0
0
0
0
0
0
0
0
0
0
0
0
0
0
0
0
0
0
0
0
0
0
0
0
0
0
0
0
0
0
0
0
0
0
0
0
0
0
0
0
0
0
0
0
0
0
0
0
0
0
0
0
0
0
0
0
0
0
0
0
0
0
0
0
0
0
0
0
0
0
0
0
0
0
0
0
0
0
0
0
0
0
0
0
0
0
0
0
0
0
0
0
0
0
0
0
0
0
0
0
0
0
0
0
0
0
0
0
0
0
0
0
0
0
0
0
0
0
0
0
0
0
0
0
0
0
0
0
0
0
0
0
0
0
0
0
0
0
0
0
0
0
0
0
0
0
0
0
0
0
0
0
0
0
0
0
0
0
0
0
0
0
0
0
0
0
0
0
0
0
0
0
0
0
0
0
0
0
0
0
0
0
0
0
0
0
0
0
0
0
0
0
0
0
0
0
0
0
0
0
0
0
0
0
0
0
0
0
0
0
0
0
0
0
0
0
0
0
0
0
0
0
0
0
0
0
0
0
0
0
0
0
0
0
0
0
0
0
0
0
0
0
0
0
0
0
0
0
0
0
0
0
0
0
0
0
0
0
0
0
0
0
0
0
0
0
0
0
0
0
0
0
0
0
0
0
0
0
0
0
0
0
0
0
0
0
0
0
0
0
0
0
0
0
0
0
0
0
0
0
0
0
0
0
0
0
0
0
0
0
0
0
0
0
0
0
0
0
0
0
0
0
0
0
0
0
0
0
0
0
0
0
0
0
0
0
0
0
0
0
0
0
0
0
0
0
0
0
0
0
0
0
0
0
0
0
0
0
0
0
0
0
0
0
0
0
0
0
0
0
0
0
0
0
0
0
0
0
0
0
0
0
0
0
0
0
0
0
0
0
0
0
0
0
0
0
0
0
0
0
0
0
0
0
0
0
0
0
0
0
0
0
0
0
0
0
0
0
0
0
0
0
0
0
0
0
0
0
0
0
0
0
0
0
0
0
0
0
0
0
0
0
0
0
0
0
0
0
0
0
0
0
0
0
0
0
0
0
0
0
0
0
0
0
0
0
0
0
0
0
0
0
0
0
0
0
0
0
0
0
0
0
0
0
0
0
0
0
0
0
0
0
0
0
0
0
0
0
0
0
0
0
0
0
0
0
0
0
0
0
0
0
0
0
0
0
0
0
0
0
0
0
0
0
0
0
0
0
0
0
0
0
0
0
0
0
0
0
0
0
0
0
0
0
0
0
0
0
0
0
0
0
0
0
0
0
0
0
0
0
0
0
0
0
0
0
0
0
0
0
0
0
0
0
0
0
0
0
0
0
0
0
0
0
0
0
0
0
0
0
0
0
0
0
0
0
0
0
0
0
0
0
0
0
0
0
0
0
0
0
0
0
0
0
0
0
0
0
0
0
0
0
0
0
0
0
0
0
0
0
0
0
0
0
0
0
0
0
0
0
0
0
0
0
0
0
0
0
0
0
0
0
0
0
0
0
0
0
0
0
0
0
0
0
0
0
0
0
0
0
0
0
0
0
0
0
0
0
0
0
0
0
0
0
0
0
0
0
0
0
0
0
0
0
0
0
0
0
0
0
0
0
0
0
0
0
0
0
0
0
0
0
0
0
0
0
0
0
0
0
0
0
0
0
0
0
0
0
0
0
0
0
0
0
0
0
0
0
0
0
0
0
0
0
0
0
0
0
0
0
0
0
0
0
0
0
0
0
0
0
0
0
0
0
0
0
0
0
0
0
0
0
0
0
0
0
0
0
0
0
0
0
0
0
0
0
0
0
0
0
0
0
0
0
0
0
0
0
0
0
0
0
0
0
0
0
0
0
0
0
0
0
0
0
0
0
0
0
0
0
0
0
0
0
0
0
0
0
0
0
0
0
0
0
0
0
0
0
0
0
0
0
0
0
0
0
0
0
0
0
0
0
0
0
0
0
0
0
0
0
0
0
0
0
0
0
0
0
0
0
0
0
0
0
0
0
0
0
0
0
0
0
0
0
0
0
0
0
0
0
0
0
0
0
0
0
0
0
0
0
0
0
0
0
0
0
0
0
0
0
0
0
0
0
0
0
0
0
0
0
0
0
0
0
0
0
0
0
0
0
0
0
0
0
0
0
0
0
0
0
0
0
0
0
0
0
0
0
0
0
0
0
0
0
0
0
0
0
0
0
0
0
0
0
0
0
0
0
0
0
0
0
0
0
0
0
0
0
0
0
0
0
0
0
0
0
0
0
0
0
0
0
0
0
0
0
0
0
0
0
0
0
0
0
0
0
0
0
0
0
0
0
0
0
0
0
0
0
0
0
0
0
0
0
0
0
0
0
0
0
0
0
0
0
0
0
0
0
0
0
0
0
0
0
0
0
0
0
0
0
0
0
0
0
0
0
0
0
0
0
0
0
0
0
0
0
0
0
0
0
0
0
0
0
0
0
0
0
0
0
0
0
0
0
0
0
0
0
0
0
0
0
0
0
0
0
0
0
0
0
0
0
0
0
0
0
0
0
0
0
0
0
0
0
0
0
0
0
0
0
0
0
0
0
0
0
0
0
0
0
0
0
0
0
0
0
0
0
0
0
0
0
0
0
0
0
0
0
0
0
0
0
0
0
0
0
0
0
0
0
0
0
0
0
0
0
0
0
0
0
0
0
0
0
0
0
0
0
0
0
0
0
0
0
0
0
0
0
0
0
0
0
0
0
0
0
0
0
0
0
0
0
0
0
0
0
0
0
0
0
0
0
0
0
0
0
0
0
0
0
0
0
0
0
0
0
0
0
0
0
0
0
0
0
0
0
0
0
0
0
0
0
0
0
0
0
0
0
0
0
0
0
0
0
0
0
0
0
0
0
0
0
0
0
0
0
0
0
0
0
0
0
0
0
0
0
0
0
0
0
0
0
0
0
0
0
0
0
0
0
0
0
0
0
0
0
0
0
0
0
0
0
0
0
0
0
0
0
0
0
0
0
0
0
0
0
0
0
0
0
0
0
0
0
0
0
0
0
0
0
0
0
0
0
0
0
0
0
0
0
0
0
0
0
0
0
0
0
0
0
0
0
0
0
0
0
0
0
0
0
0
0
0
0
0
0
0
0
0
0
0
0
0
0
0
0
0
0
0
0
0
0
0
0
0
0
0
0
0
0
0
0
0
0
0
0
0
0
0
0
0
0
0
0
0
0
0
0
0
0
0
0
0
0
0
0
0
0
0
0
0
0
0
0
0
0
0
0
0
0
0
0
0
0
0
0
0
0
0
0
0
0
0
0
0
0
0
0
0
0
0
0
0
0
0
0
0
0
0
0
0
0
0
0
0
0
0
0
0
0
0
0
0
0
0
0
0
0
0
0
0
0
0
0
0
0
0
0
0
0
0
0
0
0
0
0
0
0
0
0
0
0
0
0
0
0
0
0
0
0
0
0
0
0
0
0
0
0
0
0
0
0
0
0
0
0
0
0
0
0
0
0
0
0
0
0
0
0
0
0
0
0
0
0
0
0
0
0
0
0
0
0
0
0
0
0
0
0
0
0
0
0
0
0
0
0
0
0
0
0
0
0
0
0
0
0
0
0
0
0
0
0
0
0
0
0
0
0
0
0
0
0
0
0
0
0
0
0
0
0
0
0
0
0
0
0
0
0
0
0
0
0
0
0
0
0
0
0
0
0
0
0
0
0
0
0
0
0
0
0
0
0
0
0
0
0
0
0
0
0
0
0
0
0
0
0
0
0
0
0
0
0
0
0
0
0
0
0
0
0
0
0
0
0
0
0
0
0
0
0
0
0
0
0
0
0
0
0
0
0
0
0
0
0
0
0
0
0
0
0
0
0
0
0
0
0
0
0
0
0
0
0
0
0
0
0
0
0
0
0
0
0
0
0
0
0
0
0
0
0
0
0
0
0
0
0
0
0
0
0
0
0
0
0
0
0
0
0
0
0
0
0
0
0
0
0
0
0
0
0
0
0
0
0
0
0
0
0
0
0
0
0
0
0
0
0
0
0
0
0
0
0
0
0
0
0
0
0
0
0
0
0
0
0
0
0
0
0
0
0
0
0
0
0
0
0
0
0
0
0
0
0
0
0
0
0
0
0
0
0
0
0
0
0
0
0
0
0
0
0
0
0
0
0
0
0
0
0
0
0
0
0
0
0
0
0
0
0
0
0
0
0
0
0
0
0
0
0
0
0
0
0
0
0
0
0
0
0
0
0
0
0
0
0
0
0
0
0
0
0
0
0
0
0
0
0
0
0
0
0
0
0
0
0
0
0
0
0
0
0
0
0
0
0
0
0
0
0
0
0
0
0
0
0
0
0
0
0
0
0
0
0
0
0
0
0
0
0
0
0
0
0
0
0
0
0
0
0
0
0
0
0
0
0
0
0
0
0
0
0
0
0
0
0
0
0
0
0
0
0
0
0
0
0
0
0
0
0
0
0
0
0
0
0
0
0
0
0
0
0
0
0
0
0
0
0
0
0
0
0
0
0
0
0
0
0
0
0
0
0
0
0
0
0
0
0
0
0
0
0
0
0
0
0
0
0
0
0
0
0
0
0
0
0
0
0
0
0
0
0
0
0
0
0
0
0
0
0
0
0
0
0
0
0
0
0
0
0
0
0
0
0
0
0
0
0
0
0
0
0
0
0
0
0
0
0
0
0
0
0
0
0
0
0
0
0
0
0
0
0
0
0
0
0
0
0
0
0
0
0
0
0
0
0
0
0
0
0
0
0
0
0
0
0
0
0
0
0
0
0
0
0
0
0
0
0
0
0
0
0
0
0
0
0
0
0
0
0
0
0
0
0
0
0
0
0
0
0
0
0
0
0
0
0
0
0
0
0
0
0
0
0
0
0
0
0
0
0
0
0
0
0
0
0
0
0
0
0
0
0
0
0
0
0
0
0
0
0
0
0
0
0
0
0
0
0
0
0
0
0
0
0
0
0
0
0
0
0
0
0
0
0
0
0
0
0
0
0
0
0
0
0
0
0
0
0
0
0
0
0
0
0
0
0
0
0
0
0
0
0
0
0
0
0
0
0
0
0
0
0
0
0
0
0
0
0
0
0
0
0
0
0
0
0
0
0
0
0
0
0
0
0
0
0
0
0
0
0
0
0
0
0
0
0
0
0
0
0
0
0
0
0
0
0
0
0
0
0
0
0
0
0
0
0
0
0
0
0
0
0
0
0
0
0
0
0
0
0
0
0
0
0
0
0
0
0
0
0
0
0
0
0
0
0
0
0
0
0
0
0
0
0
0
0
0
0
0
0
0
0
0
0
0
0
0
0
0
0
0
0
0
0
0
0
0
0
0
0
0
0
0
0
0
0
0
0
0
0
0
0
0
0
0
0
0
0
0
0
0
0
0
0
0
0
0
0
0
0
0
0
0
0
0
0
0
0
0
0
0
0
0
0
0
0
0
0
0
0
0
0
0
0
0
0
0
0
0
0
0
0
0
0
0
0
0
0
0
0
0
0
0
0
0
0
0
0
0
0
0
0
0
0
0
0
0
0
0
0
0
0
0
0
0
0
0
0
0
0
0
0
0
0
0
0
0
0
0
0
0
0
0
0
0
0
0
0
0
0
0
0
0
0
0
0
0
0
0
0
0
0
0
0
0
0
0
0
0
0
0
0
0
0
0
0
0
0
0
0
0
0
0
0
0
0
0
0
0
0
0
0
0
0
0
0
0
0
0
0
0
0
0
0
0
0
0
0
0
0
0
0
0
0
0
0
0
0
0
0
0
0
0
0
0
0
0
0
0
0
0
0
0
0
0
0
0
0
0
0
0
0
0
0
0
0
0
0
0
0
0
0
0
0
0
0
0
0
0
0
0
0
0
0
0
0
0
0
0
0
0
0
0
0
0
0
0
0
0
0
0
0
0
0
0
0
0
0
0
0
0
0
0
0
0
0
0
0
0
0
0
0
0
0
0
0
0
0
0
0
0
0
0
0
0
0
0
0
0
0
0
0
0
0
0
0
0
0
0
0
0
0
0
0
0
0
0
0
0
0
0
0
0
0
0
0
0
0
0
0
0
0
0
0
0
0
0
0
0
0
0
0
0
0
0
0
0
0
0
0
0
0
0
0
0
0
0
0
0
0
0
0
0
0
0
0
0
0
0
0
0
0
0
0
0
0
0
0
0
0
0
0
0
0
0
0
0
0
0
0
0
0
0
0
0
0
0
0
0
0
0
0
0
0
0
0
0
0
0
0
0
0
0
0
0
0
0
0
0
0
0
0
0
0
0
0
0
0
0
0
0
0
0
0
0
0
0
0
0
0
0
0
0
0
0
0
0
0
0
0
0
0
0
0
0
0
0
0
0
0
0
0
0
0
0
0
0
0
0
0
0
0
0
0
0
0
0
0
0
0
0
0
0
0
0
0
0
0
0
0
0
0
0
0
0
0
0
0
0
0
0
0
0
0
0
0
0
0
0
0
0
0
0
0
0
0
0
0
0
0
0
0
0
0
0
0
0
0
0
0
0
0
0
0
0
0
0
0
0
0
0
0
0
0
0
0
0
0
0
0
0
0
0
0
0
0
0
0
0
0
0
0
0
0
0
0
0
0
0
0
0
0
0
0
0
0
0
0
0
0
0
0
0
0
0
0
0
0
0
0
0
0
0
0
0
0
0
0
0
0
0
0
0
0
0
0
0
0
0
0
0
0
0
0
0
0
0
0
0
0
0
0
0
0
0
0
0
0
0
0
0
0
0
0
0
0
0
0
0
0
0
0
0
0
0
0
0
0
0
0
0
0
0
0
0
0
0
0
0
0
0
0
0
0
0
0
0
0
0
0
0
0
0
0
0
0
0
0
0
0
0
0
0
0
0
0
0
0
0
0
0
0
0
0
0
0
0
0
0
0
0
0
0
0
0
0
0
0
0
0
0
0
0
0
0
0
0
0
0
0
0
0
0
0
0
0
0
0
0
0
0
0
0
0
0
0
0
0
0
0
0
0
0
0
0
0
0
0
0
0
0
0
0
0
0
0
0
0
0
0
0
0
0
0
0
0
0
0
0
0
0
0
0
0
0
0
0
0
0
0
0
0
0
0
0
0
0
0
0
0
0
0
0
0
0
0
0
0
0
0
0
0
0
0
0
0
0
0
0
0
0
0
0
0
0
0
0
0
0
0
0
0
0
0
0
0
0
0
0
0
0
0
0
0
0
0
0
0
0
0
0
0
0
0
0
0
0
0
0
0
0
0
0
0
0
0
0
0
0
0
0
0
0
0
0
0
0
0
0
0
0
0
0
0
0
0
0
0
0
0
0
0
0
0
0
0
0
0
0
0
0
0
0
0
0
0
0
0
0
0
0
0
0
0
0
0
0
0
0
0
0
0
0
0
0
0
0
0
0
0
0
0
0
0
0
0
0
0
0
0
0
0
0
0
0
0
0
0
0
0
0
0
0
0
0
0
0
0
0
0
0
0
0
0
0
0
0
0
0
0
0
0
0
0
0
0
0
0
0
0
0
0
0
0
0
0
0
0
0
0
0
0
0
0
0
0
0
0
0
0
0
0
0
0
0
0
0
0
0
0
0
0
0
0
0
0
0
0
0
0
0
0
0
0
0
0
0
0
0
0
0
0
0
0
0
0
0
0
0
0
0
0
0
0
0
0
0
0
0
0
0
0
0
0
0
0
0
0
      </DataArray> 
      <DataArray type="Float64" NumberOfComponents="1" Name="NormalFibers" format="ascii">
0
0
0
0
0
0
0
0
0
0
0
0
0
0
0
0
0
0
0
0
0
0
0
0
0
0
0
0
0
0
0
0
0
0
0
0
0
0
0
0
0
0
0
0
0
0
0
0
0
0
0
0
0
0
0
0
0
0
0
0
0
0
0
0
0
0
0
0
0
0
0
0
0
0
0
0
0
0
0
0
0
0
0
0
0
0
0
0
0
0
0
0
0
0
0
0
0
0
0
0
0
0
0
0
0
0
0
0
0
0
0
0
0
0
0
0
0
0
0
0
0
0
0
0
0
0
0
0
0
0
0
0
0
0
0
0
0
0
0
0
0
0
0
0
0
0
0
0
0
0
0
0
0
0
0
0
0
0
0
0
0
0
0
0
0
0
0
0
0
0
0
0
0
0
0
0
0
0
0
0
0
0
0
0
0
0
0
0
0
0
0
0
0
0
0
0
0
0
0
0
0
0
0
0
0
0
0
0
0
0
0
0
0
0
0
0
0
0
0
0
0
0
0
0
0
0
0
0
0
0
0
0
0
0
0
0
0
0
0
0
0
0
0
0
0
0
0
0
0
0
0
0
0
0
0
0
0
0
0
0
0
0
0
0
0
0
0
0
0
0
0
0
0
0
0
0
0
0
0
0
0
0
0
0
0
0
0
0
0
0
0
0
0
0
0
0
0
0
0
0
0
0
0
0
0
0
0
0
0
0
0
0
0
0
0
0
0
0
0
0
0
0
0
0
0
0
0
0
0
0
0
0
0
0
0
0
0
0
0
0
0
0
0
0
0
0
0
0
0
0
0
0
0
0
0
0
0
0
0
0
0
0
0
0
0
0
0
0
0
0
0
0
0
0
0
0
0
0
0
0
0
0
0
0
0
0
0
0
0
0
0
0
0
0
0
0
0
0
0
0
0
0
0
0
0
0
0
0
0
0
0
0
0
0
0
0
0
0
0
0
0
0
0
0
0
0
0
0
0
0
0
0
0
0
0
0
0
0
0
0
0
0
0
0
0
0
0
0
0
0
0
0
0
0
0
0
0
0
0
0
0
0
0
0
0
0
0
0
0
0
0
0
0
0
0
0
0
0
0
0
0
0
0
0
0
0
0
0
0
0
0
0
0
0
0
0
0
0
0
0
0
0
0
0
0
0
0
0
0
0
0
0
0
0
0
0
0
0
0
0
0
0
0
0
0
0
0
0
0
0
0
0
0
0
0
0
0
0
0
0
0
0
0
0
0
0
0
0
0
0
0
0
0
0
0
0
0
0
0
0
0
0
0
0
0
0
0
0
0
0
0
0
0
0
0
0
0
0
0
0
0
0
0
0
0
0
0
0
0
0
0
0
0
0
0
0
0
0
0
0
0
0
0
0
0
0
0
0
0
0
0
0
0
0
0
0
0
0
0
0
0
0
0
0
0
0
0
0
0
0
0
0
0
0
0
0
0
0
0
0
0
0
0
0
0
0
0
0
0
0
0
0
0
0
0
0
0
0
0
0
0
0
0
0
0
0
0
0
0
0
0
0
0
0
0
0
0
0
0
0
0
0
0
0
0
0
0
0
0
0
0
0
0
0
0
0
0
0
0
0
0
0
0
0
0
0
0
0
0
0
0
0
0
0
0
0
0
0
0
0
0
0
0
0
0
0
0
0
0
0
0
0
0
0
0
0
0
0
0
0
0
0
0
0
0
0
0
0
0
0
0
0
0
0
0
0
0
0
0
0
0
0
0
0
0
0
0
0
0
0
0
0
0
0
0
0
0
0
0
0
0
0
0
0
0
0
0
0
0
0
0
0
0
0
0
0
0
0
0
0
0
0
0
0
0
0
0
0
0
0
0
0
0
0
0
0
0
0
0
0
0
0
0
0
0
0
0
0
0
0
0
0
0
0
0
0
0
0
0
0
0
0
0
0
0
0
0
0
0
0
0
0
0
0
0
0
0
0
0
0
0
0
0
0
0
0
0
0
0
0
0
0
0
0
0
0
0
0
0
0
0
0
0
0
0
0
0
0
0
0
0
0
0
0
0
0
0
0
0
0
0
0
0
0
0
0
0
0
0
0
0
0
0
0
0
0
0
0
0
0
0
0
0
0
0
0
0
0
0
0
0
0
0
0
0
0
0
0
0
0
0
0
0
0
0
0
0
0
0
0
0
0
0
0
0
0
0
0
0
0
0
0
0
0
0
0
0
0
0
0
0
0
0
0
0
0
0
0
0
0
0
0
0
0
0
0
0
0
0
0
0
0
0
0
0
0
0
0
0
0
0
0
0
0
0
0
0
0
0
0
0
0
0
0
0
0
0
0
0
0
0
0
0
0
0
0
0
0
0
0
0
0
0
0
0
0
0
0
0
0
0
0
0
0
0
0
0
0
0
0
0
0
0
0
0
0
0
0
0
0
0
0
0
0
0
0
0
0
0
0
0
0
0
0
0
0
0
0
0
0
0
0
0
0
0
0
0
0
0
0
0
0
0
0
0
0
0
0
0
0
0
0
0
0
0
0
0
0
0
0
0
0
0
0
0
0
0
0
0
0
0
0
0
0
0
0
0
0
0
0
0
0
0
0
0
0
0
0
0
0
0
0
0
0
0
0
0
0
0
0
0
0
0
0
0
0
0
0
0
0
0
0
0
0
0
0
0
0
0
0
0
0
0
0
0
0
0
0
0
0
0
0
0
0
0
0
0
0
0
0
0
0
0
0
0
0
0
0
0
0
0
0
0
0
0
0
0
0
0
0
0
0
0
0
0
0
0
0
0
0
0
0
0
0
0
0
0
0
0
0
0
0
0
0
0
0
0
0
0
0
0
0
0
0
0
0
0
0
0
0
0
0
0
0
0
0
0
0
0
0
0
0
0
0
0
0
0
0
0
0
0
0
0
0
0
0
0
0
0
0
0
0
0
0
0
0
0
0
0
0
0
0
0
0
0
0
0
0
0
0
0
0
0
0
0
0
0
0
0
0
0
0
0
0
0
0
0
0
0
0
0
0
0
0
0
0
0
0
0
0
0
0
0
0
0
0
0
0
0
0
0
0
0
0
0
0
0
0
0
0
0
0
0
0
0
0
0
0
0
0
0
0
0
0
0
0
0
0
0
0
0
0
0
0
0
0
0
0
0
0
0
0
0
0
0
0
0
0
0
0
0
0
0
0
0
0
0
0
0
0
0
0
0
0
0
0
0
0
0
0
0
0
0
0
0
0
0
0
0
0
0
0
0
0
0
0
0
0
0
0
0
0
0
0
0
0
0
0
0
0
0
0
0
0
0
0
0
0
0
0
0
0
0
0
0
0
0
0
0
0
0
0
0
0
0
0
0
0
0
0
0
0
0
0
0
0
0
0
0
0
0
0
0
0
0
0
0
0
0
0
0
0
0
0
0
0
0
0
0
0
0
0
0
0
0
0
0
0
0
0
0
0
0
0
0
0
0
0
0
0
0
0
0
0
0
0
0
0
0
0
0
0
0
0
0
0
0
0
0
0
0
0
0
0
0
0
0
0
0
0
0
0
0
0
0
0
0
0
0
0
0
0
0
0
0
0
0
0
0
0
0
0
0
0
0
0
0
0
0
0
0
0
0
0
0
0
0
0
0
0
0
0
0
0
0
0
0
0
0
0
0
0
0
0
0
0
0
0
0
0
0
0
0
0
0
0
0
0
0
0
0
0
0
0
0
0
0
0
0
0
0
0
0
0
0
0
0
0
0
0
0
0
0
0
0
0
0
0
0
0
0
0
0
0
0
0
0
0
0
0
0
0
0
0
0
0
0
0
0
0
0
0
0
0
0
0
0
0
0
0
0
0
0
0
0
0
0
0
0
0
0
0
0
0
0
0
0
0
0
0
0
0
0
0
0
0
0
0
0
0
0
0
0
0
0
0
0
0
0
0
0
0
0
0
0
0
0
0
0
0
0
0
0
0
0
0
0
0
0
0
0
0
0
0
0
0
0
0
0
0
0
0
0
0
0
0
0
0
0
0
0
0
0
0
0
0
0
0
0
0
0
0
0
0
0
0
0
0
0
0
0
0
0
0
0
0
0
0
0
0
0
0
0
0
0
0
0
0
0
0
0
0
0
0
0
0
0
0
0
0
0
0
0
0
0
0
0
0
0
0
0
0
0
0
0
0
0
0
0
0
0
0
0
0
0
0
0
0
0
0
0
0
0
0
0
0
0
0
0
0
0
0
0
0
0
0
0
0
0
0
0
0
0
0
0
0
0
0
0
0
0
0
0
0
0
0
0
0
0
0
0
0
0
0
0
0
0
0
0
0
0
0
0
0
0
0
0
0
0
0
0
0
0
0
0
0
0
0
0
0
0
0
0
0
0
0
0
0
0
0
0
0
0
0
0
0
0
0
0
0
0
0
0
0
0
0
0
0
0
0
0
0
0
0
0
0
0
0
0
0
0
0
0
0
0
0
0
0
0
0
0
0
0
0
0
0
0
0
0
0
0
0
0
0
0
0
0
0
0
0
0
0
0
0
0
0
0
0
0
0
0
0
0
0
0
0
0
0
0
0
0
0
0
0
0
0
0
0
0
0
0
0
0
0
0
0
0
0
0
0
0
0
0
0
0
0
0
0
0
0
0
0
0
0
0
0
0
0
0
0
0
0
0
0
0
0
0
0
0
0
0
0
0
0
0
0
0
0
0
0
0
0
0
0
0
0
0
0
0
0
0
0
0
0
0
0
0
0
0
0
0
0
0
0
0
0
0
0
0
0
0
0
0
0
0
0
0
0
0
0
0
0
0
0
0
0
0
0
0
0
0
0
0
0
0
0
0
0
0
0
0
0
0
0
0
0
0
0
0
0
0
0
0
0
0
0
0
0
0
0
0
0
0
0
0
0
0
0
0
0
0
0
0
0
0
0
0
0
0
0
0
0
0
0
0
0
0
0
0
0
0
0
0
0
0
0
0
0
0
0
0
0
0
0
0
0
0
0
0
0
0
0
0
0
0
0
0
0
0
0
0
0
0
0
0
0
0
0
0
0
0
0
0
0
0
0
0
0
0
0
0
0
0
0
0
0
0
0
0
0
0
0
0
0
0
0
0
0
0
0
0
0
0
0
0
0
0
0
0
0
0
0
0
0
0
0
0
0
0
0
0
0
0
0
0
0
0
0
0
0
0
0
0
0
0
0
0
0
0
0
0
0
0
0
0
0
0
0
0
0
0
0
0
0
0
0
0
0
0
0
0
0
0
0
0
0
0
0
0
0
0
0
0
0
0
0
0
0
0
0
0
0
0
0
0
0
0
0
0
0
0
0
0
0
0
0
0
0
0
0
0
0
0
0
0
0
0
0
0
0
0
0
0
0
0
0
0
0
0
0
0
0
0
0
0
0
0
0
0
0
0
0
0
0
0
0
0
0
0
0
0
0
0
0
0
0
0
0
0
0
0
0
0
0
0
0
0
0
0
0
0
0
0
0
0
0
0
0
0
0
0
0
0
0
0
0
0
0
0
0
0
0
0
0
0
0
0
0
0
0
0
0
0
0
0
0
0
0
0
0
0
0
0
0
0
0
0
0
0
0
0
0
0
0
0
0
0
0
0
0
0
0
0
0
0
0
0
0
0
0
0
0
0
0
0
0
0
0
0
0
0
0
0
0
0
0
0
0
0
0
0
0
0
0
0
0
0
0
0
0
0
0
0
0
0
0
0
0
0
0
0
0
0
0
0
0
0
0
0
0
0
0
0
0
0
0
0
0
0
0
0
0
0
0
0
0
0
0
0
0
0
0
0
0
0
0
0
0
0
0
0
0
0
0
0
0
0
0
0
0
0
0
0
0
0
0
0
0
0
0
0
0
0
0
0
0
0
0
0
0
0
0
0
0
0
0
0
0
0
0
0
0
0
0
0
0
0
0
0
0
0
0
0
0
0
0
0
0
0
0
0
0
0
0
0
0
0
0
0
0
0
0
0
0
0
0
0
0
0
0
0
0
0
0
0
0
0
0
0
0
0
0
0
0
0
0
0
0
0
0
0
0
0
0
0
0
0
0
0
0
0
0
0
0
0
0
0
0
0
0
0
0
0
0
0
0
0
0
0
0
0
0
0
0
0
0
0
0
0
0
0
0
0
0
0
0
0
0
0
0
0
0
0
0
0
0
0
0
0
0
0
0
0
0
0
0
0
0
0
0
0
0
0
0
0
0
0
0
0
0
0
0
0
0
0
0
0
0
0
0
0
0
0
0
0
0
0
0
0
0
0
0
0
0
0
0
0
0
0
0
0
0
0
0
0
0
0
0
0
0
0
0
0
0
0
0
0
0
0
0
0
0
0
0
0
0
0
0
0
0
0
0
0
0
0
0
0
0
0
0
0
0
0
0
0
0
0
0
0
0
0
0
0
0
0
0
0
0
0
0
0
0
0
0
0
0
0
0
0
0
0
0
0
0
0
0
0
0
0
0
0
0
0
0
0
0
0
0
0
0
0
0
0
0
0
0
0
0
0
0
0
0
0
0
0
0
0
0
0
0
0
0
0
0
0
0
0
0
0
0
0
0
0
0
0
0
0
0
0
0
0
0
0
0
0
0
0
0
0
0
0
0
0
0
0
0
0
0
0
0
0
0
0
0
0
0
0
0
0
0
0
0
0
0
0
0
0
0
0
0
0
0
0
0
0
0
0
0
0
0
0
0
0
0
0
0
0
0
0
0
0
0
0
0
0
0
0
0
0
0
0
0
0
0
0
0
0
0
0
0
0
0
0
0
0
0
0
0
0
0
0
0
0
0
0
0
0
0
0
0
0
0
0
0
0
0
0
0
0
0
0
0
0
0
0
0
0
0
0
0
0
0
0
0
0
0
0
0
0
0
0
0
0
0
0
0
0
0
0
0
0
0
0
0
0
0
0
0
0
0
0
0
0
0
0
0
0
0
0
0
0
0
0
0
0
0
0
0
0
0
0
0
0
0
0
0
0
0
0
0
0
0
0
0
0
0
0
0
0
0
0
0
0
0
0
0
0
0
0
0
0
0
0
0
0
0
0
0
0
0
0
0
0
0
0
0
0
0
0
0
0
0
0
0
0
0
0
0
0
0
0
0
0
0
0
0
0
0
0
0
0
0
0
0
0
0
0
0
0
0
0
0
0
0
0
0
0
0
0
0
0
0
0
0
0
0
0
0
0
0
0
0
0
0
0
0
0
0
0
0
0
0
0
0
0
0
0
0
0
0
0
0
0
0
0
0
0
0
0
0
0
0
0
0
0
0
0
0
0
0
0
0
0
0
0
0
0
0
0
0
0
0
0
0
0
0
0
0
0
0
0
0
0
0
0
0
0
0
0
0
0
0
0
0
0
0
0
0
0
0
0
0
0
0
0
0
0
0
0
0
0
0
0
0
0
0
0
0
0
0
0
0
0
0
0
0
0
0
0
0
0
0
0
0
0
0
0
0
0
0
0
0
0
0
0
0
0
0
0
0
0
0
0
0
0
0
0
0
0
0
0
0
0
0
0
0
0
0
0
0
0
0
0
0
0
0
0
0
0
0
0
0
0
0
0
0
0
0
0
0
0
0
0
0
0
0
0
0
0
0
0
0
0
0
0
0
0
0
0
0
0
0
0
0
0
0
0
0
0
0
0
0
0
0
0
0
0
0
0
0
0
0
0
0
0
0
0
0
0
0
0
0
0
0
0
0
0
0
0
0
0
0
0
0
0
0
0
0
0
0
0
0
0
0
0
0
0
0
0
0
0
0
0
0
0
0
0
0
0
0
0
0
0
0
0
0
0
0
0
0
0
0
0
0
0
0
0
0
0
0
0
0
0
0
0
0
0
0
0
0
0
0
0
0
0
0
0
0
0
0
0
0
0
0
0
0
0
0
0
0
0
0
0
0
0
0
0
0
0
0
0
0
0
0
0
0
0
0
0
0
0
0
0
0
0
0
0
0
0
0
0
0
0
0
0
0
0
0
0
0
0
0
0
0
0
0
0
0
0
0
0
0
0
0
0
0
0
0
0
0
0
0
0
0
0
0
0
0
0
0
0
0
0
0
0
0
0
0
0
0
0
0
0
0
0
0
0
0
0
0
0
0
0
0
0
0
0
0
0
0
0
0
0
0
0
0
0
0
0
0
0
0
0
0
0
0
0
0
0
0
0
0
0
0
0
0
0
0
0
0
0
0
0
0
0
0
0
0
0
0
0
0
0
0
0
0
0
0
0
0
0
0
0
0
0
0
0
0
0
0
0
0
0
0
0
0
0
0
0
0
0
0
0
0
0
0
0
0
0
0
0
0
0
0
0
0
0
0
0
0
0
0
0
0
0
0
0
0
0
0
0
0
0
0
0
0
0
0
0
0
0
0
0
0
0
0
0
0
0
0
0
0
0
0
0
0
0
0
0
0
0
0
0
0
0
0
0
0
0
0
0
0
0
0
0
0
0
0
0
0
0
0
0
0
0
0
0
0
0
0
0
0
0
0
0
0
0
0
0
0
0
0
0
0
0
0
0
0
0
0
0
0
0
0
0
0
0
0
0
0
0
0
0
0
0
0
0
0
0
0
0
0
0
0
0
0
0
0
0
0
0
0
0
0
0
0
0
0
0
0
0
0
0
0
0
0
0
0
0
0
0
0
0
0
0
0
0
0
0
0
0
0
0
0
0
0
0
0
0
0
0
0
0
0
0
0
0
0
0
0
0
0
0
0
0
0
0
0
0
0
0
0
0
0
0
0
0
0
0
0
0
0
0
0
0
0
0
0
0
0
0
0
0
0
0
0
0
0
0
0
0
0
0
0
0
0
0
0
0
0
0
0
0
0
0
0
0
0
0
0
0
0
0
0
0
0
0
0
0
0
0
0
0
0
0
0
0
0
0
0
0
0
0
0
0
0
0
0
0
0
0
0
0
0
0
0
0
0
0
0
0
0
0
0
0
0
0
0
0
0
0
0
0
0
0
0
0
0
0
0
0
0
0
0
0
0
0
0
0
0
0
0
0
0
0
0
0
0
0
0
0
0
0
0
0
0
0
0
0
0
0
0
0
0
0
0
0
0
0
0
0
0
0
0
0
0
0
0
0
0
0
0
0
0
0
0
0
0
0
0
0
0
0
0
0
0
0
0
0
0
0
0
0
0
0
0
0
0
0
0
0
0
0
0
0
0
0
0
0
0
0
0
0
0
0
0
0
0
0
0
0
0
0
0
0
0
0
0
0
0
0
0
0
0
0
0
0
0
0
0
0
0
0
0
0
0
0
0
0
0
0
0
0
0
0
0
0
0
0
0
0
0
0
0
0
0
0
0
0
0
0
0
0
0
0
0
0
0
0
0
0
0
0
0
0
0
0
0
0
0
0
0
0
0
0
0
0
0
0
0
0
0
0
0
0
0
0
0
0
0
0
0
0
0
0
0
0
0
0
0
0
0
0
0
0
0
0
0
0
0
0
0
0
0
0
0
0
0
0
0
0
0
0
0
0
0
0
0
0
0
0
0
0
0
0
0
0
0
0
0
0
0
0
0
0
0
0
0
0
0
0
0
0
0
0
0
0
0
0
0
0
0
0
0
0
0
0
0
0
0
0
0
0
0
0
0
0
0
0
0
0
0
0
0
0
0
0
0
0
0
0
0
0
0
0
0
0
0
0
0
0
0
0
0
0
0
0
0
0
0
0
0
0
0
0
0
0
0
0
0
0
0
0
0
0
0
0
0
0
0
0
0
0
0
0
0
0
0
0
0
0
0
0
0
0
0
0
0
0
0
0
0
0
0
0
0
0
0
0
0
0
0
0
0
0
0
0
0
0
0
0
0
0
0
0
0
0
0
0
0
0
0
0
0
0
0
0
0
0
0
0
0
0
0
0
0
0
0
0
0
0
0
0
0
0
0
0
0
0
0
0
0
0
0
0
0
0
0
0
0
0
0
0
0
0
0
0
0
0
0
0
0
0
0
0
0
0
0
0
0
0
0
0
0
0
0
0
0
0
0
0
0
0
0
0
0
0
0
0
0
0
0
0
0
0
0
0
0
0
0
0
0
0
0
0
0
0
0
0
0
0
0
0
0
0
0
0
0
0
0
0
0
0
0
0
0
0
0
0
0
0
0
0
0
0
0
0
0
0
0
0
0
0
0
0
0
0
0
0
0
0
0
0
0
0
0
0
0
0
0
0
0
0
0
0
0
0
0
0
0
0
0
0
0
0
0
0
0
0
0
0
0
0
0
0
0
0
0
0
0
0
0
0
0
0
0
0
0
0
0
0
0
0
0
0
0
0
0
0
0
0
0
0
0
0
0
0
0
0
0
0
0
0
0
0
0
0
0
0
0
0
0
0
0
0
0
0
0
0
0
0
0
0
0
0
0
0
0
0
0
0
0
0
0
0
0
0
0
0
0
0
0
0
0
0
0
0
0
0
0
0
0
0
0
0
0
0
0
0
0
0
0
0
0
0
0
0
0
0
0
0
0
0
0
0
0
0
0
0
0
0
0
0
0
0
0
0
0
0
0
0
0
0
0
0
0
0
0
0
0
0
0
0
0
0
0
0
0
0
0
0
0
0
0
0
0
0
0
0
0
0
0
0
0
0
0
0
0
0
0
0
0
0
0
0
0
0
0
0
0
0
0
0
0
0
0
0
0
0
0
0
0
0
0
0
0
0
0
0
0
0
0
0
0
0
0
0
0
0
0
0
0
0
0
0
0
0
0
0
0
0
0
0
0
0
0
0
0
0
0
0
0
0
0
0
0
0
0
0
0
0
0
0
0
0
0
0
0
0
0
0
0
0
0
0
0
0
0
0
0
0
0
0
0
0
0
0
0
0
0
0
0
0
0
0
0
0
0
0
0
0
0
0
0
0
0
0
0
0
0
0
0
0
0
0
0
0
0
0
0
0
0
0
0
0
0
0
0
0
0
0
0
0
0
0
0
0
0
0
0
0
0
0
0
0
0
0
0
0
0
0
0
0
0
0
0
0
0
0
0
0
0
0
0
0
0
0
0
0
0
0
0
0
0
0
0
0
0
0
0
0
0
0
0
0
0
0
0
0
0
0
0
0
0
0
0
0
0
0
0
0
0
0
0
0
0
0
0
0
0
0
0
0
0
0
0
0
0
0
0
0
0
0
0
0
0
0
0
0
0
0
0
0
0
0
0
0
0
0
0
0
0
0
0
0
0
0
0
0
0
0
0
0
0
0
0
0
0
0
0
0
0
0
0
0
0
0
0
0
0
0
0
0
0
0
0
0
0
0
0
0
0
0
0
0
0
0
0
0
0
0
0
0
0
0
0
0
0
0
0
0
0
0
0
0
0
0
0
0
0
0
0
0
0
0
0
0
0
0
0
0
0
0
0
0
0
0
0
0
0
0
0
0
0
0
0
0
0
0
0
0
0
0
0
0
0
0
0
0
0
0
0
0
0
0
0
0
0
0
0
0
0
0
0
0
0
0
0
0
0
0
0
0
0
0
0
0
0
0
0
0
0
0
0
0
0
0
0
0
0
0
0
0
0
0
0
0
0
0
0
0
0
0
0
0
0
0
0
0
0
0
0
0
0
0
0
0
0
0
0
0
0
0
0
0
0
0
0
0
0
0
0
0
0
0
0
0
0
0
0
0
0
0
0
0
0
0
0
0
0
0
0
0
0
0
0
0
0
0
0
0
0
0
0
0
0
0
0
0
0
0
0
0
0
0
0
0
0
0
0
0
0
0
0
0
0
0
0
0
0
0
0
0
0
0
0
0
0
0
0
0
0
0
0
0
0
0
0
0
0
0
0
0
0
0
0
0
0
0
0
0
0
0
0
0
0
0
0
0
0
0
0
0
0
0
0
0
0
0
0
0
0
0
0
0
0
0
0
0
0
0
0
0
0
0
0
0
0
0
0
0
0
0
0
0
0
0
0
0
0
0
0
0
0
0
0
0
0
0
0
0
0
0
0
0
0
0
0
0
0
0
0
0
0
0
0
0
0
0
0
0
0
0
0
0
0
0
0
0
0
0
0
0
0
0
0
0
0
0
0
0
0
0
0
0
0
0
0
0
0
0
0
0
0
0
0
0
0
0
0
0
0
0
0
0
0
0
0
0
0
0
0
0
0
0
0
0
0
0
0
0
0
0
0
0
0
0
0
0
0
0
0
0
0
0
0
0
0
0
0
0
0
0
0
0
0
0
0
0
0
0
0
0
0
0
0
0
0
0
0
0
0
0
0
0
0
0
0
0
0
0
0
0
0
0
0
0
0
0
0
0
0
0
0
0
0
0
0
0
0
0
0
0
0
0
0
0
0
0
0
0
0
0
0
0
0
0
0
0
0
0
0
0
0
0
0
0
0
0
0
0
0
0
0
0
0
0
0
0
0
0
0
0
0
0
0
0
0
0
0
0
0
0
0
0
0
0
0
0
0
0
0
0
0
0
0
0
0
0
0
0
0
0
0
0
0
0
0
0
0
0
0
0
0
0
0
0
0
0
0
0
0
0
0
0
0
0
0
0
0
0
0
0
0
0
0
0
0
0
0
0
0
0
0
0
0
0
0
0
0
0
0
0
0
0
0
0
0
0
0
0
0
0
0
0
0
0
0
0
0
0
0
0
0
0
0
0
0
0
0
0
0
0
0
0
0
0
0
0
0
0
0
0
0
0
0
0
0
0
0
0
0
0
0
0
0
0
0
0
0
0
0
0
0
0
0
0
0
0
0
0
0
0
0
0
0
0
0
0
0
0
0
0
0
0
0
0
0
0
0
0
0
0
0
0
0
0
0
0
0
0
0
0
0
0
0
0
0
0
0
0
0
0
0
0
0
0
0
0
0
0
0
0
0
0
0
0
0
0
0
0
0
0
0
0
0
0
0
0
0
0
0
0
0
0
0
0
0
0
0
0
0
0
0
0
0
0
0
0
0
0
0
0
0
0
0
0
0
0
0
0
0
0
0
0
0
0
0
0
0
0
0
0
0
0
0
0
0
0
0
0
0
0
0
0
0
0
0
0
0
0
0
0
0
0
0
0
0
0
0
0
0
0
0
0
0
0
0
0
0
0
0
0
0
0
0
0
0
0
0
0
0
0
0
0
0
0
0
0
0
0
0
0
0
0
0
0
0
0
0
0
0
0
0
0
0
0
0
0
0
0
0
0
0
0
0
0
0
0
0
0
0
0
0
0
0
0
0
0
0
0
0
0
0
0
0
0
0
0
0
0
0
0
0
0
0
0
0
0
0
0
0
0
0
0
0
0
0
0
0
0
0
0
0
0
0
0
0
0
0
0
0
0
0
0
0
0
0
0
0
0
0
0
0
0
0
0
0
0
0
0
0
0
0
0
0
0
0
0
0
0
0
0
0
0
0
0
0
0
0
0
0
0
0
0
0
0
0
0
0
0
0
0
0
0
0
0
0
0
0
0
0
0
0
0
0
0
0
0
0
0
0
0
0
0
0
0
0
0
0
0
0
0
0
0
0
0
0
0
0
0
0
0
0
0
0
0
0
0
0
0
0
0
0
0
0
0
0
0
0
0
0
0
0
0
0
0
0
0
0
0
0
0
0
0
0
0
0
0
0
0
0
0
0
0
0
0
0
0
0
0
0
0
0
0
0
0
0
0
0
0
0
0
0
0
0
0
0
0
0
0
0
0
0
0
0
0
0
0
0
0
0
0
0
0
0
0
0
0
0
0
0
0
0
0
0
0
0
0
0
0
0
0
0
0
0
0
0
0
0
0
0
0
0
0
0
0
0
0
0
0
0
0
0
0
0
0
0
0
0
0
0
0
0
0
0
0
0
0
0
0
0
0
0
0
0
0
0
0
0
0
0
0
0
0
0
0
0
0
0
0
0
0
0
0
0
0
0
0
0
0
0
0
0
0
0
0
0
0
0
0
0
0
0
0
0
0
0
0
0
0
0
0
0
0
0
0
0
0
0
0
0
0
0
0
0
0
0
0
0
0
0
0
0
0
0
0
0
0
0
0
0
0
0
0
0
0
0
0
0
0
0
0
0
0
0
0
0
0
0
0
0
0
0
0
0
0
0
0
0
0
0
0
0
0
0
0
0
0
0
0
0
0
0
0
0
0
0
0
0
0
0
0
0
0
0
0
0
0
0
0
0
0
0
0
0
0
0
0
0
0
0
0
0
0
0
0
0
0
0
0
0
0
0
0
0
0
0
0
0
0
0
0
0
0
0
0
0
0
0
0
0
0
0
0
0
0
0
0
0
0
0
0
0
0
0
0
0
0
0
0
0
0
0
0
0
0
0
0
0
0
0
0
0
0
0
0
0
0
0
0
0
0
0
0
0
0
0
0
0
0
0
0
0
0
0
0
0
0
0
0
0
0
0
0
0
0
0
0
0
0
0
0
0
0
0
0
0
0
0
0
0
0
0
0
0
0
0
0
0
0
0
0
0
0
0
0
0
0
0
0
0
0
0
0
0
0
0
0
0
0
0
0
0
0
0
0
0
0
0
0
0
0
0
0
0
0
0
0
0
0
0
0
0
0
0
0
0
0
0
0
0
0
0
0
0
0
0
0
0
0
0
0
0
0
0
0
0
0
0
0
0
0
0
0
0
0
0
0
0
0
0
0
0
0
0
0
0
0
0
0
0
0
0
0
0
0
0
0
0
0
0
0
0
0
0
0
0
0
0
0
0
0
0
0
0
0
0
0
0
0
0
0
0
0
0
0
0
0
0
0
0
0
0
0
0
0
0
0
0
0
0
0
0
0
0
0
0
0
0
0
0
0
0
0
0
0
0
0
0
0
0
0
0
0
0
0
0
0
0
0
0
0
0
0
0
0
0
0
0
0
0
0
0
0
0
0
0
0
0
0
0
0
0
0
0
0
0
0
0
0
0
0
0
0
0
0
0
0
0
0
0
0
0
0
0
0
0
0
0
0
0
0
0
0
0
0
0
0
0
0
0
0
0
0
0
0
0
0
0
0
0
0
0
0
0
0
0
0
0
0
0
0
0
0
0
0
0
0
0
0
0
0
0
0
0
0
0
0
0
0
0
0
0
0
0
0
0
0
0
0
0
0
0
0
0
0
0
0
0
0
0
0
0
0
0
0
0
0
0
0
0
0
0
0
0
0
0
0
0
0
0
0
0
0
0
0
0
0
0
0
0
0
0
0
0
0
0
0
0
0
0
0
0
0
0
0
0
0
0
0
0
0
0
0
0
0
0
0
0
0
0
0
0
0
0
0
0
0
0
0
0
0
0
0
0
0
0
0
0
0
0
0
0
0
0
0
0
0
0
0
0
0
0
0
0
0
0
0
0
0
0
0
0
0
0
0
0
0
0
0
0
0
0
0
0
0
0
0
0
0
0
0
0
0
0
0
0
0
0
0
0
0
0
0
0
0
0
0
0
0
0
0
0
0
0
0
0
0
0
0
0
0
0
0
0
0
0
0
0
0
0
0
0
0
0
0
0
0
0
0
0
0
0
0
0
0
0
0
0
0
0
0
0
0
0
0
0
0
0
0
0
0
0
0
0
0
0
0
0
0
0
0
0
0
0
0
0
0
0
0
0
0
0
0
0
0
0
0
0
0
0
0
0
0
0
0
0
0
0
0
0
0
0
0
0
0
0
0
0
0
0
0
0
0
0
0
0
0
0
0
0
0
0
0
0
0
0
0
0
0
0
0
0
0
0
0
0
0
0
0
0
0
0
0
0
0
0
0
0
0
0
0
0
0
0
0
0
0
0
0
0
0
0
0
0
0
0
0
0
0
0
0
0
0
0
0
0
0
0
0
0
0
0
0
0
0
0
0
0
0
0
0
0
0
0
0
0
0
0
0
0
0
0
0
0
0
0
0
0
0
0
0
0
0
0
0
0
0
0
0
0
0
0
0
0
0
0
0
0
0
0
0
0
0
0
0
0
0
0
0
0
0
0
0
0
0
0
0
0
0
0
0
0
0
0
0
0
0
0
0
0
0
0
0
0
0
0
0
0
0
0
0
0
0
0
0
0
0
0
0
0
0
0
0
0
0
0
0
0
0
0
0
0
0
0
0
0
0
0
0
0
0
0
0
0
0
0
0
0
0
0
0
0
0
0
0
0
0
0
0
0
0
0
0
0
0
0
0
0
0
0
0
0
0
0
0
0
0
0
0
0
0
0
0
0
0
0
0
0
0
0
0
0
0
0
0
0
0
0
0
0
0
0
0
0
0
0
0
0
0
0
0
0
0
0
0
0
0
0
0
0
0
0
0
0
0
0
0
0
0
0
0
0
0
0
0
0
0
0
0
0
0
0
0
0
0
0
0
0
0
0
0
0
0
0
0
0
0
0
0
0
0
0
0
0
0
0
0
0
0
0
0
0
0
0
0
0
0
0
0
0
0
0
0
0
0
0
0
0
0
0
0
0
0
0
0
0
0
0
0
0
0
0
0
0
0
0
0
0
0
0
0
0
0
0
0
0
0
0
0
0
0
0
0
0
0
0
0
0
0
0
0
0
0
0
0
0
0
0
0
0
0
0
0
0
0
0
0
0
0
0
0
0
0
0
0
0
0
0
0
0
0
0
0
0
0
0
0
0
0
0
0
0
0
0
0
0
0
0
0
0
0
0
0
0
0
0
0
0
0
0
0
0
0
0
0
0
0
0
0
0
0
0
0
0
0
0
0
0
0
0
0
0
0
0
0
0
0
0
0
0
0
0
0
0
0
0
0
0
0
0
0
0
0
0
0
0
0
0
0
0
0
0
0
0
0
0
0
0
0
0
0
0
0
0
0
0
0
0
0
0
0
0
0
0
0
0
0
0
0
0
0
0
0
0
0
0
0
0
0
0
0
0
0
0
0
0
0
0
0
0
0
0
0
0
0
0
0
0
0
0
0
0
0
0
0
0
0
0
0
0
0
0
0
0
0
0
0
0
0
0
0
0
0
0
0
0
0
0
0
0
0
0
0
0
0
0
0
0
0
0
0
0
0
0
0
0
0
0
0
0
0
0
0
0
0
0
0
0
0
0
0
0
0
0
0
0
0
0
0
0
0
0
0
0
0
0
0
0
0
0
0
0
0
0
0
0
0
0
0
0
0
0
0
0
0
0
0
0
0
0
0
0
0
0
0
0
0
0
0
0
0
0
0
0
0
0
0
0
0
0
0
0
0
0
0
0
0
0
0
0
0
0
0
0
0
0
0
0
0
0
0
0
0
0
0
0
0
0
0
0
0
0
0
0
0
0
0
0
0
0
0
0
0
0
0
0
0
0
0
0
0
0
0
0
0
0
0
0
0
0
0
0
0
0
0
0
0
0
0
0
0
0
0
0
0
0
0
0
0
0
0
0
0
0
0
0
0
0
0
0
0
0
0
0
0
0
0
0
0
0
0
0
0
0
0
0
0
0
0
0
0
0
0
0
0
0
0
0
0
0
0
0
0
0
0
0
0
0
0
0
0
0
0
0
0
0
0
0
0
0
0
0
0
0
0
0
0
0
0
0
0
0
0
0
0
0
0
0
0
0
0
0
0
0
0
0
0
0
0
0
0
0
0
0
0
0
0
0
0
0
0
0
0
0
0
0
0
0
0
0
0
0
0
0
0
0
0
0
0
0
0
0
0
0
0
0
0
0
0
0
0
0
0
0
0
0
0
0
0
0
0
0
0
0
0
0
0
0
0
0
0
0
0
0
0
0
0
0
0
0
0
0
0
0
0
0
0
0
0
0
0
0
0
0
0
0
0
0
0
0
0
0
0
0
0
0
0
0
0
0
0
0
0
0
0
0
0
0
0
0
0
0
0
0
0
0
0
0
0
0
0
0
0
0
0
0
0
0
0
0
0
0
0
0
0
0
0
0
0
0
0
0
0
0
0
0
0
0
0
0
0
0
0
0
0
0
0
0
0
0
0
0
0
0
0
0
0
0
0
0
0
0
0
0
0
0
0
0
0
0
0
0
0
0
0
0
0
0
0
0
0
0
0
0
0
0
0
0
0
0
0
0
0
0
0
0
0
0
0
0
0
0
0
0
0
0
0
0
0
0
0
0
0
0
0
0
0
0
0
0
0
0
0
0
0
0
0
0
0
0
0
0
0
0
0
0
0
0
0
0
0
0
0
0
0
0
0
0
0
0
0
0
0
0
0
0
0
0
0
0
0
0
0
0
0
0
0
0
0
0
0
0
0
0
0
0
0
0
0
0
0
0
0
0
0
0
0
0
0
0
0
0
0
0
0
0
0
0
0
0
0
0
0
0
0
0
0
0
0
0
0
0
0
0
0
0
0
0
0
0
0
0
0
0
0
0
0
0
0
0
0
0
0
0
0
0
0
0
0
0
0
0
0
0
0
0
0
0
0
0
0
0
0
0
0
0
0
0
0
0
0
0
0
0
0
0
0
0
0
0
0
0
0
0
0
0
0
0
0
0
0
0
0
0
0
0
0
0
0
0
0
0
0
0
0
0
0
0
0
0
0
0
0
0
0
0
0
0
0
0
0
0
0
0
0
0
0
0
0
0
0
0
0
0
0
0
0
0
0
0
0
0
0
0
0
0
0
0
0
0
0
0
0
0
0
0
0
0
0
0
0
0
0
0
0
0
0
0
0
0
0
0
0
0
0
0
0
0
0
0
0
0
0
0
0
0
0
0
0
0
0
0
0
0
0
0
0
0
0
0
0
0
0
0
0
0
0
0
0
0
0
0
0
0
0
0
0
0
0
0
0
0
0
0
0
0
0
0
0
0
0
0
0
0
0
0
0
0
0
0
0
0
0
0
0
0
0
0
0
0
0
0
0
0
0
0
0
0
0
0
0
0
0
0
0
0
0
0
0
0
0
0
0
0
0
0
0
0
0
0
0
0
0
0
0
0
0
0
0
0
0
0
0
0
0
0
0
0
0
0
0
0
0
0
0
0
0
0
0
0
0
0
0
0
0
0
0
0
0
0
0
0
0
0
0
0
0
0
0
0
0
0
0
0
0
0
0
0
0
0
0
0
0
0
0
0
0
0
0
0
0
0
0
0
0
0
0
0
0
0
0
0
0
0
0
0
0
0
0
0
0
0
0
0
0
0
0
0
0
0
0
0
0
0
0
0
0
0
0
0
0
0
0
0
0
0
0
0
0
0
0
0
0
0
0
0
0
0
0
0
0
0
0
0
0
0
0
0
0
0
0
0
0
0
0
0
0
0
0
0
0
0
0
0
0
0
0
0
0
0
0
0
0
0
0
0
0
0
0
0
0
0
0
0
0
0
0
0
0
0
0
0
0
0
0
0
0
0
0
0
0
0
0
0
0
0
0
0
0
0
0
0
0
0
0
0
0
0
0
0
0
0
0
0
0
0
0
0
0
0
0
0
0
0
0
0
0
0
0
0
0
0
0
0
0
0
0
0
0
0
0
0
0
0
0
0
0
0
0
0
0
0
0
0
0
0
0
0
0
0
0
0
0
0
0
0
0
0
0
0
0
0
0
0
0
0
0
0
0
0
0
0
0
0
0
0
0
0
0
0
0
0
0
0
0
0
0
0
0
0
0
0
0
0
0
0
0
0
0
0
0
0
0
0
0
0
0
0
0
0
0
0
0
0
0
0
0
0
0
0
0
0
0
0
0
0
0
0
0
0
0
0
0
0
0
0
0
0
0
0
0
0
0
0
0
0
0
0
0
0
0
0
0
0
0
0
0
0
0
0
0
0
0
0
0
0
0
0
0
0
0
0
0
0
0
0
0
0
0
0
0
0
0
0
0
0
0
0
0
0
0
0
0
0
0
0
0
0
0
0
0
0
0
0
0
0
0
0
0
0
0
0
0
0
0
0
0
0
0
0
0
0
0
0
0
0
0
0
0
0
0
0
0
0
0
0
0
0
0
0
0
0
0
0
0
0
0
0
0
0
0
0
0
0
0
0
0
0
0
0
0
0
0
0
0
0
0
0
0
0
0
0
0
0
0
0
0
0
0
0
0
0
0
0
0
0
0
0
0
0
0
0
0
0
0
0
0
0
0
0
0
0
0
0
0
0
0
0
0
0
0
0
0
0
0
0
0
0
0
0
0
0
0
0
0
0
0
0
0
0
0
0
0
0
0
0
0
0
0
0
0
0
0
0
0
0
0
0
0
0
0
0
0
0
0
0
0
0
0
0
0
0
0
0
0
0
0
0
0
0
0
0
0
0
0
0
0
0
0
0
0
0
0
0
0
0
0
0
0
0
0
0
0
0
0
0
0
0
0
0
0
0
0
0
0
0
0
0
0
0
0
0
0
0
0
0
0
0
0
0
0
0
0
0
0
0
0
0
0
0
0
0
0
0
0
0
0
0
0
0
0
0
0
0
0
0
0
0
0
0
0
0
0
0
0
0
0
0
0
0
0
0
0
0
0
0
0
0
0
0
0
0
0
0
0
0
0
0
0
0
0
0
0
0
0
0
0
0
0
0
0
0
0
0
0
0
0
0
0
0
0
0
0
0
0
0
0
0
0
0
0
0
0
0
0
0
0
0
0
0
0
0
0
0
0
0
0
0
0
0
0
0
0
0
0
0
0
0
0
0
0
0
0
0
0
0
0
0
0
0
0
0
0
0
0
0
0
0
0
0
0
0
0
0
0
0
0
0
0
0
0
0
0
0
0
0
0
0
0
0
0
0
0
0
0
0
0
0
0
0
0
0
0
0
0
0
0
0
0
0
0
0
0
0
0
0
0
0
0
0
0
0
0
0
0
0
0
0
0
0
0
0
0
0
0
0
0
0
0
0
0
0
0
0
0
0
0
0
0
0
0
0
0
0
0
0
0
0
0
0
0
0
0
0
0
0
0
0
0
0
0
0
0
0
0
0
0
0
0
0
0
0
0
0
0
0
0
0
0
0
0
0
0
0
0
0
0
0
0
0
0
0
0
0
0
0
0
0
0
0
0
0
0
0
0
0
0
0
0
0
0
0
0
0
0
0
0
0
0
0
0
0
0
0
0
0
0
0
0
0
0
0
0
0
0
0
0
0
0
0
0
0
0
0
0
0
0
0
0
0
0
0
0
0
0
0
0
0
0
0
0
0
0
0
0
0
0
0
0
0
0
0
0
0
0
0
0
0
0
0
0
0
0
0
0
0
0
0
0
0
0
0
0
0
0
0
0
0
0
0
0
0
0
0
0
0
0
0
0
0
0
0
0
0
0
0
0
0
0
0
0
0
0
0
0
0
0
0
0
0
0
0
0
0
0
0
0
0
0
0
0
0
0
0
0
0
0
0
0
0
0
0
0
0
0
0
0
0
0
0
0
0
0
0
0
0
0
0
0
0
0
0
0
0
0
0
0
0
0
0
0
0
0
0
0
0
0
0
0
0
0
0
0
0
0
0
0
0
0
0
0
0
0
0
0
0
0
0
0
0
0
0
0
0
0
0
0
0
0
0
0
0
0
0
0
0
0
0
0
0
0
0
0
0
0
0
0
0
0
0
0
0
0
0
0
0
0
0
0
0
0
0
0
0
0
0
0
0
0
0
0
0
0
0
0
0
0
0
0
0
0
0
0
0
0
0
0
0
0
0
0
0
0
0
0
0
0
0
0
0
0
0
0
0
0
0
0
0
0
0
0
0
0
0
0
0
0
0
0
0
0
0
0
0
0
0
0
0
0
0
0
0
0
0
0
0
0
0
0
0
0
0
0
0
0
0
0
0
0
0
0
0
0
0
0
0
0
0
0
0
0
0
0
0
0
0
0
0
0
0
0
0
0
0
0
0
0
0
0
0
0
0
0
0
0
0
0
0
0
0
0
0
0
0
0
0
0
0
0
0
0
0
0
0
0
0
0
0
0
0
0
0
0
0
0
0
0
0
0
0
0
0
0
0
0
0
0
0
0
0
0
0
0
0
0
0
0
0
0
0
0
0
0
0
0
0
0
0
0
0
0
0
0
0
0
0
0
0
0
0
0
0
0
0
0
0
0
0
0
0
0
0
0
0
0
0
0
0
0
0
0
0
0
0
0
0
0
0
0
0
0
0
0
0
0
0
0
0
0
0
0
0
0
0
0
0
0
0
0
0
0
0
0
0
0
0
0
0
0
0
0
0
0
0
0
0
0
0
0
0
0
0
0
0
0
0
0
0
0
0
0
0
0
0
0
0
0
0
0
0
0
0
0
0
0
0
0
0
0
0
0
0
0
0
0
0
0
0
0
0
0
0
0
0
0
0
0
0
0
0
0
0
0
0
0
0
0
0
0
0
0
0
0
0
0
0
0
0
0
0
0
0
0
0
0
0
0
0
0
0
0
0
0
0
0
0
0
0
0
0
0
0
0
0
0
0
0
0
0
0
0
0
0
0
0
0
0
0
0
0
0
0
0
0
0
0
0
0
0
0
0
0
0
0
0
0
0
0
0
0
0
0
0
0
0
0
0
0
0
0
0
0
0
0
0
0
0
0
0
0
0
0
0
0
0
0
0
0
0
0
0
0
0
0
0
0
0
0
0
0
0
0
0
0
0
0
0
0
0
0
0
0
0
0
0
0
0
0
0
0
0
0
0
0
0
0
0
0
0
0
0
0
0
0
0
0
0
0
0
0
0
0
0
0
0
0
0
0
0
0
0
0
0
0
0
0
0
0
0
0
0
0
0
0
0
0
0
0
0
0
0
0
0
0
0
0
0
0
0
0
0
0
0
0
0
0
0
0
0
0
0
0
0
0
0
0
0
0
0
0
0
0
0
0
0
0
0
0
0
0
0
0
0
0
0
0
0
0
0
0
0
0
0
0
0
0
0
0
0
0
0
0
0
0
0
0
0
0
0
0
0
0
0
0
0
0
0
0
0
0
0
0
0
0
0
0
0
0
0
0
0
0
0
0
0
0
0
0
0
0
0
0
0
0
0
0
0
0
0
0
0
0
0
0
0
0
0
0
0
0
0
0
0
0
0
0
0
0
0
0
0
0
0
0
0
0
0
0
0
0
0
0
0
0
0
0
0
0
0
0
0
0
0
0
0
0
0
0
0
0
0
0
0
0
0
0
0
0
0
0
0
0
0
0
0
0
0
0
0
0
0
0
0
0
0
0
0
0
0
0
0
0
0
0
0
0
0
0
0
0
0
0
0
0
0
0
0
0
0
0
0
0
0
0
0
0
0
0
0
0
0
0
0
0
0
0
0
0
0
0
0
0
0
0
0
0
0
0
0
0
0
0
0
0
0
0
0
0
0
0
0
0
0
0
0
0
0
0
0
0
0
0
0
0
0
0
0
0
0
0
0
0
0
0
0
0
0
0
0
0
0
0
0
0
0
0
0
0
0
0
0
0
0
0
0
0
0
0
0
0
0
0
0
0
0
0
0
0
0
0
0
0
0
0
0
0
0
0
0
0
0
0
0
0
0
0
0
0
0
0
0
0
0
0
0
0
0
0
0
0
0
0
0
0
0
0
0
0
0
0
0
0
0
0
0
0
0
0
0
0
0
0
0
0
0
0
0
0
0
0
0
0
0
0
0
0
0
0
0
0
0
0
0
0
0
0
0
0
0
0
0
0
0
0
0
0
0
0
0
0
0
0
0
0
0
0
0
0
0
0
0
0
0
0
0
0
0
0
0
0
0
0
0
0
0
0
0
0
0
0
0
0
0
0
0
0
0
0
0
0
0
0
0
0
0
0
0
0
0
0
0
0
0
0
0
0
0
0
0
0
0
0
0
0
0
0
0
0
0
0
0
0
0
0
0
0
0
0
0
0
0
0
0
0
0
0
0
0
0
0
0
0
0
0
0
0
0
0
0
0
0
0
0
0
0
0
0
0
0
0
0
0
0
0
0
0
0
0
0
0
0
0
0
0
0
0
0
0
0
0
0
0
0
0
0
0
0
0
0
0
0
0
0
0
0
0
0
0
0
0
0
0
0
0
0
0
0
0
0
0
0
0
0
0
0
0
0
0
0
0
0
0
0
0
0
0
0
0
0
0
0
0
0
0
0
0
0
0
0
0
0
0
0
0
0
0
0
0
0
0
0
0
0
0
0
0
0
0
0
0
0
0
0
0
0
0
0
0
0
0
0
0
0
0
0
0
0
0
0
0
0
0
0
0
0
0
0
0
0
0
0
0
0
0
0
0
0
0
0
0
0
0
0
0
0
0
0
0
0
0
0
0
0
0
0
0
0
0
0
0
0
0
0
0
0
0
0
0
0
0
0
0
0
0
0
0
0
0
0
0
0
0
0
0
0
0
0
0
0
0
0
0
0
0
0
0
0
0
0
0
0
0
0
0
0
0
0
0
0
0
0
0
0
0
0
0
0
0
0
0
0
0
0
0
0
0
0
0
0
0
0
0
0
0
0
0
0
0
0
0
0
0
0
0
0
0
0
0
0
0
0
0
0
0
0
0
0
0
0
0
0
0
0
0
0
0
0
0
0
0
0
0
0
0
0
0
0
0
0
0
0
0
0
0
0
0
0
0
0
0
0
0
0
0
0
0
0
0
0
0
0
0
0
0
0
0
0
0
0
0
0
0
0
0
0
0
0
0
0
0
0
0
0
0
0
0
0
0
0
0
0
0
0
0
0
0
0
0
0
0
0
0
0
0
0
0
0
0
0
0
0
0
0
0
0
0
0
0
0
0
0
0
0
0
0
0
0
0
0
0
0
0
0
0
0
0
0
0
0
0
0
0
0
0
0
0
0
0
0
0
0
0
0
0
0
0
0
0
0
0
0
0
0
0
0
0
0
0
0
0
0
0
0
0
0
0
0
0
0
0
0
0
0
0
0
0
0
0
0
0
0
0
0
0
0
0
0
0
0
0
0
0
0
0
0
0
0
0
0
0
0
0
0
0
0
0
0
0
0
0
0
0
0
0
0
0
0
0
0
0
0
0
0
0
0
0
0
0
0
0
0
0
0
0
0
0
0
0
0
0
0
0
0
0
0
0
0
0
0
0
0
0
0
0
0
0
0
0
0
0
0
0
0
0
0
0
0
0
0
0
0
0
0
0
0
0
0
0
0
0
0
0
0
0
0
0
0
0
0
0
0
0
0
0
0
0
0
0
0
0
0
0
0
0
0
0
0
0
0
0
0
0
0
0
0
0
0
0
0
0
0
0
0
0
0
0
0
0
0
0
0
0
0
0
0
0
0
0
0
0
0
0
0
0
0
0
0
0
0
0
0
0
0
0
0
0
0
0
0
0
0
0
0
0
0
0
0
0
0
0
0
0
0
0
0
0
0
0
0
0
0
0
0
0
0
0
0
0
0
0
0
0
0
0
0
0
0
0
0
0
0
0
0
0
0
0
0
0
0
0
0
0
0
0
0
0
0
0
0
0
0
0
0
0
0
0
0
0
0
0
0
0
0
0
0
0
0
0
0
0
0
0
0
0
0
0
0
0
0
0
0
0
0
0
0
0
0
0
0
0
0
0
0
0
0
0
0
0
0
0
0
0
0
0
0
0
0
0
0
0
0
0
0
0
0
0
0
0
0
0
0
0
0
0
0
0
0
0
0
0
0
0
0
0
0
0
0
0
0
0
0
0
0
0
0
0
0
0
0
0
0
0
0
0
0
0
0
0
0
0
0
0
0
0
0
0
0
0
0
0
0
0
0
0
0
0
0
0
0
0
0
0
0
0
0
0
0
0
0
0
0
0
0
0
0
0
0
0
0
0
0
0
0
0
0
0
0
0
0
0
0
0
0
0
0
0
0
0
0
0
0
0
0
0
0
0
0
0
0
0
0
0
0
0
0
0
0
0
0
0
0
0
0
0
0
0
0
0
0
0
0
0
0
0
0
0
0
0
0
0
0
0
0
0
0
0
0
0
0
0
0
0
0
0
0
0
0
0
0
0
0
0
0
0
0
0
0
0
0
0
0
0
0
0
0
0
0
0
0
0
0
0
0
0
0
0
0
0
0
0
0
0
0
0
0
0
0
0
0
0
0
0
0
0
0
0
0
0
0
0
0
0
0
0
0
0
0
0
0
0
0
0
0
0
0
0
0
0
0
0
0
0
0
0
0
0
0
0
0
0
0
0
0
0
0
0
0
0
0
0
0
0
0
0
0
0
0
0
0
0
0
0
0
0
0
0
0
0
0
0
0
0
0
0
0
0
0
0
0
0
0
0
0
0
0
0
0
0
0
0
0
0
0
0
0
0
0
0
0
0
0
0
0
0
0
0
0
0
0
0
0
0
0
0
0
0
0
0
0
0
0
0
0
0
0
0
0
0
0
0
0
0
0
0
0
0
0
0
0
0
0
0
0
0
0
0
0
0
0
0
0
0
0
0
0
0
0
0
0
0
0
0
0
0
0
0
0
0
0
0
0
0
0
0
0
0
0
0
0
0
0
0
0
0
0
0
0
0
0
0
0
0
0
0
0
0
0
0
0
0
0
0
0
0
0
0
0
0
0
0
0
0
0
0
0
0
0
0
0
0
0
0
0
0
0
0
0
0
0
0
0
0
0
0
0
0
0
0
0
0
0
0
0
0
0
0
0
0
0
0
0
0
0
0
0
0
0
0
0
0
0
0
0
0
0
0
0
0
0
0
0
0
0
0
0
0
0
0
0
0
0
0
0
0
0
0
0
0
0
0
0
0
0
0
0
0
0
0
0
0
0
0
0
0
0
0
0
0
0
0
0
0
0
0
0
0
0
0
0
0
0
0
0
0
0
0
0
0
0
0
0
0
0
0
0
0
0
0
0
0
0
0
0
0
0
0
0
0
0
0
0
0
0
0
0
0
0
0
0
0
0
0
0
0
0
0
0
0
0
0
0
0
0
0
0
0
0
0
0
0
0
0
0
0
0
0
0
0
0
0
0
0
0
0
0
0
0
0
0
0
0
0
0
0
0
0
0
0
0
0
0
0
0
0
0
0
0
0
0
0
0
0
0
0
0
0
0
0
0
0
0
0
0
0
0
0
0
0
0
0
0
0
0
0
0
0
0
0
0
0
0
0
0
0
0
0
0
0
0
0
0
0
0
0
0
0
0
0
0
0
0
0
0
0
0
0
0
0
0
0
0
0
0
0
0
0
0
0
0
0
0
0
0
0
0
0
0
0
0
0
0
0
0
0
0
0
0
0
0
0
0
0
0
0
0
0
0
0
0
0
0
0
0
0
0
0
0
0
0
0
0
0
0
0
0
0
0
0
0
0
0
0
0
0
0
0
0
0
0
0
0
0
0
0
0
0
0
0
0
0
0
0
0
0
0
0
0
0
0
0
0
0
0
0
0
0
0
0
0
0
0
0
0
0
0
0
0
0
0
0
0
0
0
0
0
0
0
0
0
0
0
0
0
0
0
0
0
0
0
0
0
0
0
0
0
0
0
0
0
0
0
0
0
0
0
0
0
0
0
0
0
0
0
0
0
0
0
0
0
0
0
0
0
0
0
0
0
0
0
0
0
0
0
0
0
0
0
0
0
0
0
0
0
0
0
0
0
0
0
0
0
0
0
0
0
0
0
0
0
0
0
0
0
0
0
0
0
0
0
0
0
0
0
0
0
0
0
0
0
0
0
0
0
0
0
0
0
0
0
0
0
0
0
0
0
0
0
0
0
0
0
0
0
0
0
0
0
0
0
0
0
0
0
0
0
0
0
0
0
0
0
0
0
0
0
0
0
0
0
0
0
0
0
0
0
0
0
0
0
0
0
0
0
0
0
0
0
0
0
0
0
0
0
0
0
0
0
0
0
0
0
0
0
0
0
0
0
0
0
0
0
0
0
0
0
0
0
0
0
0
0
0
0
0
0
0
0
0
0
0
0
0
0
0
0
0
0
0
0
0
0
0
0
0
0
0
0
0
0
0
0
0
0
0
0
0
0
0
0
0
0
0
0
0
0
0
0
0
0
0
0
0
0
0
0
0
0
0
0
0
0
0
0
0
0
0
0
0
0
0
0
0
0
0
0
0
0
0
0
0
0
0
0
0
0
0
0
0
0
0
0
0
0
0
0
0
0
0
0
0
0
0
0
0
0
0
0
0
0
0
0
0
0
0
0
0
0
0
0
0
0
0
0
0
0
0
0
0
0
0
0
0
0
0
0
0
0
0
0
0
0
0
0
0
0
0
0
0
0
0
0
0
0
0
0
0
0
0
0
0
0
0
0
0
0
0
0
0
0
0
0
0
0
0
0
0
0
0
0
0
0
0
0
0
0
0
0
0
0
0
0
0
0
0
0
0
0
0
0
0
0
0
0
0
0
0
0
0
0
0
0
0
0
0
0
0
0
0
0
0
0
0
0
0
0
0
0
0
0
0
0
0
0
0
0
0
0
0
0
0
0
0
0
0
0
0
0
0
0
0
0
0
0
0
0
0
0
0
0
0
0
0
0
0
0
0
0
0
0
0
0
0
0
0
0
0
0
0
0
0
0
0
0
0
0
0
0
0
0
0
0
0
0
0
0
0
0
0
0
0
0
0
0
0
0
0
0
0
0
0
0
0
0
0
0
0
0
0
0
0
0
0
0
0
0
0
0
0
0
0
0
0
0
0
0
0
0
0
0
0
0
0
0
0
0
0
0
0
0
0
0
0
0
0
0
0
0
0
0
0
0
0
0
0
0
0
0
0
0
0
0
0
0
0
0
0
0
0
0
0
0
0
0
0
0
0
0
0
0
0
0
0
0
0
0
0
0
0
0
0
0
0
0
0
0
0
0
0
0
0
0
0
0
0
0
0
0
0
0
0
0
0
0
0
0
0
0
0
0
0
0
0
0
0
0
0
0
0
0
0
0
0
0
0
0
0
0
0
0
0
0
0
0
0
0
0
0
0
0
0
0
0
0
0
0
0
0
0
0
0
0
0
0
0
0
0
0
0
0
0
0
0
0
0
0
0
0
0
0
0
0
0
0
0
0
0
0
0
0
0
0
0
0
0
0
0
0
0
0
0
0
0
0
0
0
0
0
0
0
0
0
0
0
0
0
0
0
0
0
0
0
0
0
0
0
0
0
0
0
0
0
0
0
0
0
0
0
0
0
0
0
0
0
0
0
0
0
0
0
0
0
0
0
0
0
0
0
0
0
0
0
0
0
0
0
0
0
0
0
0
0
0
0
0
0
0
0
0
0
0
0
0
0
0
0
0
0
0
0
0
0
0
0
0
0
0
0
0
0
0
0
0
0
0
0
0
0
0
0
0
0
0
0
0
0
0
0
0
0
0
0
0
0
0
0
0
0
0
0
0
0
0
0
0
0
0
0
0
0
0
0
0
0
0
0
0
0
0
0
0
0
0
0
0
0
0
0
0
0
0
0
0
0
0
0
0
0
0
0
0
0
0
0
0
0
0
0
0
0
0
0
0
0
0
0
0
0
0
0
0
0
0
0
0
0
0
0
0
0
0
0
0
0
0
0
0
0
0
0
0
0
0
0
0
0
0
0
0
0
0
0
0
0
0
0
0
0
0
0
0
0
0
0
0
0
0
0
0
0
0
0
0
0
0
0
0
0
0
0
0
0
0
0
0
0
0
0
0
0
0
0
0
0
0
0
0
0
0
0
0
0
0
0
0
0
0
0
0
0
0
0
0
0
0
0
0
0
0
0
0
0
0
0
0
0
0
0
0
0
0
0
0
0
0
0
0
0
0
0
0
0
0
0
0
0
0
0
0
0
0
0
0
0
0
0
0
0
0
0
0
0
0
0
0
0
0
0
0
0
0
0
0
0
0
0
0
0
0
0
0
0
0
0
0
0
0
0
0
0
0
0
0
0
0
0
0
0
0
0
0
0
0
0
0
0
0
0
0
0
0
0
0
0
0
0
0
0
0
0
0
0
0
0
0
0
0
0
0
0
0
0
0
0
0
0
0
0
0
0
0
0
0
0
0
0
0
0
0
0
0
0
0
0
0
0
0
0
0
0
0
0
0
0
0
0
0
0
0
0
0
0
0
0
0
0
0
0
0
0
0
0
0
0
0
0
0
0
0
0
0
0
0
0
0
0
0
0
0
0
0
0
0
0
0
0
0
0
0
0
0
0
0
0
0
0
0
0
0
0
0
0
0
0
0
0
0
0
0
0
0
0
0
0
0
0
0
0
0
0
0
0
0
0
0
0
0
0
0
0
0
0
0
0
0
0
0
0
0
0
0
0
0
0
0
0
0
0
0
0
0
0
0
0
0
0
0
0
0
0
0
0
0
0
0
0
0
0
0
0
0
0
0
0
0
0
0
0
0
0
0
0
0
0
0
0
0
0
0
0
0
0
0
0
0
0
0
0
0
0
0
0
0
0
0
0
0
0
0
0
0
0
0
0
0
0
0
0
0
0
0
0
0
0
0
0
0
0
0
0
0
0
0
0
0
0
0
0
0
0
0
0
0
0
0
0
0
0
0
0
0
0
0
0
0
0
0
0
0
0
0
0
0
0
0
0
0
0
0
0
0
0
0
0
0
0
0
0
0
0
0
0
0
0
0
0
0
0
0
0
0
0
0
0
0
0
0
0
0
0
0
0
0
0
0
0
0
0
0
0
0
0
0
0
0
0
0
0
0
0
0
0
0
0
0
0
0
0
0
0
0
0
0
0
0
0
0
0
0
0
0
0
0
0
0
0
0
0
0
0
0
0
0
0
0
0
0
0
0
0
0
0
0
0
0
0
0
0
0
0
0
0
0
0
0
0
0
0
0
0
0
0
0
0
0
0
0
0
0
0
0
0
0
0
0
0
0
0
0
0
0
0
0
0
0
0
0
0
0
0
0
0
0
0
0
0
0
0
0
0
0
0
0
0
0
0
0
0
0
0
0
0
0
0
0
0
0
0
0
0
0
0
0
0
0
0
0
0
0
0
0
0
0
0
0
0
0
0
0
0
0
0
0
0
0
0
0
0
0
0
0
0
0
0
0
0
0
0
0
0
0
0
0
0
0
0
0
0
0
0
0
0
0
0
0
0
0
0
0
0
0
0
0
0
0
0
0
0
0
0
0
0
0
0
0
0
0
0
0
0
0
0
0
0
0
0
0
0
0
0
0
0
0
0
0
0
0
0
0
0
0
0
0
0
0
0
0
0
0
0
0
0
0
0
0
0
0
0
0
0
0
0
0
0
0
0
0
0
0
0
0
0
0
0
0
0
0
0
0
0
0
0
0
0
0
0
0
0
0
0
0
0
0
0
0
0
0
0
0
0
0
0
0
0
0
0
0
0
0
0
0
0
0
0
0
0
0
0
0
0
0
0
0
0
0
0
0
0
0
0
0
0
0
0
0
0
0
0
0
0
0
0
0
0
0
0
0
0
0
0
0
0
0
0
0
0
0
0
0
0
0
0
0
0
0
0
0
0
0
0
0
0
0
0
0
0
0
0
0
0
0
0
0
0
0
0
0
0
0
0
0
0
0
0
0
0
0
0
0
0
0
0
0
0
0
0
0
0
0
0
0
0
0
0
0
0
0
0
0
0
0
0
0
0
0
0
0
0
0
0
0
0
0
0
0
0
0
0
0
0
0
0
0
0
0
0
0
0
0
0
0
0
0
0
0
0
0
0
0
0
0
0
0
0
0
0
0
0
0
0
0
0
0
0
0
0
0
0
0
0
0
0
0
0
0
0
0
0
0
0
0
0
0
0
0
0
0
0
0
0
0
0
0
0
0
0
0
0
0
0
0
0
0
0
0
0
0
0
0
0
0
0
0
0
0
0
0
0
0
0
0
0
0
0
0
0
0
0
0
0
0
0
0
0
0
0
0
0
0
0
0
0
0
0
0
0
0
0
0
0
0
0
0
0
0
0
0
0
0
0
0
0
0
0
0
0
0
0
0
0
0
0
0
0
0
0
0
0
0
0
0
0
0
0
0
0
0
0
0
0
0
0
0
0
0
0
0
0
0
0
0
0
0
0
0
0
0
0
0
0
0
0
0
0
0
0
0
0
0
0
0
0
0
0
0
0
0
0
0
0
0
0
0
0
0
0
0
0
0
0
0
0
0
0
0
0
0
0
0
0
0
0
0
0
0
0
0
0
0
0
0
0
0
0
0
0
0
0
0
0
0
0
0
0
0
0
0
0
0
0
0
0
0
0
0
0
0
0
0
0
0
0
0
0
0
0
0
0
0
0
0
0
0
0
0
0
0
0
0
0
0
0
0
0
0
0
0
0
0
0
0
0
0
0
0
0
0
0
0
0
0
0
0
0
0
0
0
0
0
0
0
0
0
0
0
0
0
0
0
0
0
0
0
0
0
0
0
0
0
0
0
0
0
0
0
0
0
0
0
0
0
0
0
0
0
0
0
0
0
0
0
0
0
0
0
0
0
0
0
0
0
0
0
0
0
0
0
0
0
0
0
0
0
0
0
0
0
0
0
0
0
0
0
0
0
0
0
0
0
0
0
0
0
0
0
0
0
0
0
0
0
0
0
0
0
0
0
0
0
0
0
0
0
0
0
0
0
0
0
0
0
0
0
0
0
0
0
0
0
0
0
0
0
0
0
0
0
0
0
0
0
0
0
0
0
0
0
0
0
0
0
0
0
0
0
0
0
0
0
0
0
0
0
0
0
0
0
0
0
0
0
0
0
0
0
0
0
0
0
0
0
0
0
0
0
0
0
0
0
0
0
0
0
0
0
0
0
0
0
0
0
0
0
0
0
0
0
0
0
0
0
0
0
0
0
0
0
0
0
0
0
0
0
0
0
0
0
0
0
0
0
0
0
0
0
0
0
0
0
0
0
0
0
0
0
0
0
0
0
0
0
0
0
0
0
0
0
0
0
0
0
0
0
0
0
0
0
0
0
0
0
0
0
0
0
0
0
0
0
0
0
0
0
0
0
0
0
0
0
0
0
0
0
0
0
0
0
0
0
0
0
0
0
0
0
0
0
0
0
0
0
0
0
0
0
0
0
0
0
0
0
0
0
0
0
0
0
0
0
0
0
0
0
0
0
0
0
0
0
0
0
0
0
0
0
0
0
0
0
0
0
0
0
0
0
0
0
0
0
0
0
0
0
0
0
0
0
0
0
0
0
0
0
0
0
0
0
0
0
0
0
0
0
0
0
0
0
0
0
0
0
0
0
0
0
0
0
0
0
0
0
0
0
0
0
0
0
0
0
0
0
0
0
0
0
0
0
0
0
0
0
0
0
0
0
0
0
0
0
0
0
0
0
0
0
0
0
0
0
0
0
0
0
0
0
0
0
0
0
0
0
0
0
0
0
0
0
0
0
0
0
0
0
0
0
0
0
0
0
0
0
0
0
0
0
0
0
0
0
0
0
0
0
0
0
0
0
0
0
0
0
0
0
0
0
0
0
0
0
0
0
0
0
0
0
0
0
0
0
0
0
0
0
0
0
0
0
0
0
0
0
0
0
0
0
0
0
0
0
0
0
0
0
0
0
0
0
0
0
0
0
0
0
0
0
0
0
0
0
0
0
0
0
0
0
0
0
0
0
0
0
0
0
0
0
0
0
0
0
0
0
0
0
0
0
0
0
0
0
0
0
0
0
0
0
0
0
0
0
0
0
0
0
0
0
0
0
0
0
0
0
0
0
0
0
0
0
0
0
0
0
0
0
0
0
0
0
0
0
0
0
0
0
0
0
0
0
0
0
0
0
0
0
0
0
0
0
0
0
0
0
0
0
0
0
0
0
0
0
0
0
0
0
0
0
0
0
0
0
0
0
0
0
0
0
0
0
0
0
0
0
0
0
0
0
0
0
0
0
0
0
0
0
0
0
0
0
0
0
0
0
0
0
0
0
0
0
0
0
0
0
0
0
0
0
0
0
0
0
0
0
0
0
0
0
0
0
0
0
0
0
0
0
0
0
0
0
0
0
0
0
0
0
0
0
0
0
0
0
0
0
0
0
0
0
0
0
0
0
0
0
0
0
0
0
0
0
0
0
0
0
0
0
0
0
0
0
0
0
0
0
0
0
0
0
0
0
0
0
0
0
0
0
0
0
0
0
0
0
0
0
0
0
0
0
0
0
0
0
0
0
0
0
0
0
0
0
0
0
0
0
0
0
0
0
0
0
0
0
0
0
0
0
0
0
0
0
0
0
0
0
0
0
0
0
0
0
0
0
0
0
0
0
0
0
0
0
0
0
0
0
0
0
0
0
0
0
0
0
0
0
0
0
0
0
0
0
0
0
0
0
0
0
0
0
0
0
0
0
0
0
0
0
0
0
0
0
0
0
0
0
0
0
0
0
0
0
0
0
0
0
0
0
0
0
0
0
0
0
0
0
0
0
0
0
0
0
0
0
0
0
0
0
0
0
0
0
0
0
0
0
0
0
0
0
0
0
0
0
0
0
0
0
0
0
0
0
0
0
0
0
0
0
0
0
0
0
0
0
0
0
0
0
0
0
0
0
0
0
0
0
0
0
0
0
0
0
0
0
0
0
0
0
0
0
0
0
0
0
0
0
0
0
0
0
0
0
0
0
0
0
0
0
0
0
0
0
0
0
0
0
0
0
0
0
0
0
0
0
0
0
0
0
0
0
0
0
0
0
0
0
0
0
0
0
0
0
0
0
0
0
0
0
0
0
0
0
0
0
0
0
0
0
0
0
0
0
0
0
0
0
0
0
0
0
0
0
0
0
0
0
0
0
0
0
0
0
0
0
0
0
0
0
0
0
0
0
0
0
0
0
0
0
0
0
0
0
0
0
0
0
0
0
0
0
0
0
0
0
0
0
0
0
0
0
0
0
0
0
0
0
0
0
0
0
0
0
0
0
0
0
0
0
0
0
0
0
0
0
0
0
0
0
0
0
0
0
0
0
0
0
0
0
0
0
0
0
0
0
0
0
0
0
0
0
0
0
0
0
0
0
0
0
0
0
0
0
0
0
0
0
0
0
0
0
0
0
0
0
0
0
0
0
0
0
0
0
0
0
0
0
0
0
0
0
0
0
0
0
0
0
0
0
0
0
0
0
0
0
0
0
0
0
0
0
0
0
0
0
0
0
0
0
0
0
0
0
0
0
0
0
0
0
0
0
0
0
0
0
0
0
0
0
0
0
0
0
0
0
0
0
0
0
0
0
0
0
0
0
0
0
0
0
0
0
0
0
0
0
0
0
0
0
0
0
0
0
0
0
0
0
0
0
0
0
0
0
0
0
0
0
0
0
0
0
0
0
0
0
0
0
0
0
0
0
0
0
0
0
0
0
0
0
0
0
0
0
0
0
0
0
0
0
0
0
0
0
0
0
0
0
0
0
0
0
0
0
0
0
0
0
0
0
0
0
0
0
0
0
0
0
0
0
0
0
0
0
0
0
0
0
0
0
0
0
0
0
0
0
0
0
0
0
0
0
0
0
0
0
0
0
0
0
0
0
0
0
0
0
0
0
0
0
0
0
0
0
0
0
0
0
0
0
0
0
0
0
0
0
0
0
0
0
0
0
0
0
0
0
0
0
0
0
0
0
0
0
0
0
0
0
0
0
0
0
0
0
0
0
0
0
0
0
0
0
0
0
0
0
0
0
0
0
0
0
0
0
0
0
0
0
0
0
0
0
0
0
0
0
0
0
0
0
0
0
0
0
0
0
0
0
0
0
0
0
0
0
0
0
0
0
0
0
0
0
0
0
0
0
0
0
0
0
0
0
0
0
0
0
0
0
0
0
0
0
0
0
0
0
0
0
0
0
0
0
0
0
0
0
0
0
0
0
0
0
0
0
0
0
0
0
0
0
0
0
0
0
0
0
0
0
0
0
0
0
0
0
0
0
0
0
0
0
0
0
0
0
0
0
0
0
0
0
0
0
0
0
0
0
0
0
0
0
0
0
0
0
0
0
0
0
0
0
0
0
0
0
0
0
0
0
0
0
0
0
0
0
0
0
0
0
0
0
0
0
0
0
0
0
0
0
0
0
0
0
0
0
0
0
0
0
0
0
0
0
0
0
0
0
0
0
0
0
0
0
0
0
0
0
0
0
0
0
0
0
0
0
0
0
0
0
0
0
0
0
0
0
0
0
0
0
0
0
0
0
0
0
0
0
0
0
0
0
0
0
0
0
0
0
0
0
0
0
0
0
0
0
0
0
0
0
0
0
0
0
0
0
0
0
0
0
0
0
0
0
0
0
0
0
0
0
0
0
0
0
0
0
0
0
0
0
0
0
0
0
0
0
0
0
0
0
0
0
0
0
0
0
0
0
0
0
0
0
0
0
0
0
0
0
0
0
0
0
0
0
0
0
0
0
0
0
0
0
0
0
0
0
0
0
0
0
0
0
0
0
0
0
0
0
0
0
0
0
0
0
0
0
0
0
0
0
0
0
0
0
0
0
0
0
0
0
0
0
0
0
0
0
0
0
0
0
0
0
0
0
0
0
0
0
0
0
0
0
0
0
0
0
0
0
0
0
0
0
0
0
0
0
0
0
0
0
0
0
0
0
0
0
0
0
0
0
0
0
0
0
0
0
0
0
0
0
0
0
0
0
0
0
0
0
0
0
0
0
0
0
0
0
0
0
0
0
0
0
0
0
0
0
0
0
0
0
0
0
0
0
0
0
0
0
0
0
0
0
0
0
0
0
0
0
0
0
0
0
0
0
0
0
0
0
0
0
0
0
0
0
0
0
0
0
0
0
0
0
0
0
0
0
0
0
0
0
0
0
0
0
0
0
0
0
0
0
0
0
0
0
0
0
0
0
0
0
0
0
0
0
0
0
0
0
0
0
0
0
0
0
0
0
0
0
0
0
0
0
0
0
0
0
0
0
0
0
0
0
0
0
0
0
0
0
0
0
0
0
0
0
0
0
0
0
0
0
0
0
0
0
0
0
0
0
0
0
0
0
0
0
0
0
0
0
0
0
0
0
0
0
0
0
0
0
0
0
0
0
0
0
0
0
0
0
0
0
0
0
0
0
0
0
0
0
0
0
0
0
0
0
0
0
0
0
0
0
0
0
0
0
0
0
0
0
0
0
0
0
0
0
0
0
0
0
0
0
0
0
0
0
0
0
0
0
0
0
0
0
0
0
0
0
0
0
0
0
0
0
0
0
0
0
0
0
0
0
0
0
0
0
0
0
0
0
0
0
0
0
0
0
0
0
0
0
0
0
0
0
0
0
0
0
0
0
0
0
0
0
0
0
0
0
0
0
0
0
0
0
0
0
0
0
0
0
0
0
0
0
0
0
0
0
0
0
0
0
0
0
0
0
0
0
0
0
0
0
0
0
0
0
0
0
0
0
0
0
0
0
0
0
0
0
0
0
0
0
0
0
0
0
0
0
0
0
0
0
0
0
0
0
0
0
0
0
0
0
0
0
0
0
0
0
0
0
0
0
0
0
0
0
0
0
0
0
0
0
0
0
0
0
0
0
0
0
0
0
0
0
0
0
0
0
0
0
0
0
0
0
0
0
0
0
0
0
0
0
0
0
0
0
0
0
0
0
0
0
0
0
0
0
0
0
0
0
0
0
0
0
0
0
0
0
0
0
0
0
0
0
0
0
0
0
0
0
0
0
0
0
0
0
0
0
0
0
0
0
0
0
0
0
0
0
0
0
0
0
0
0
0
0
0
0
0
0
0
0
0
0
0
0
0
0
0
0
0
0
0
0
0
0
0
0
0
0
0
0
0
0
0
0
0
0
0
0
0
0
0
0
0
0
0
0
0
0
0
0
0
0
0
0
0
0
0
0
0
0
0
0
0
0
0
0
0
0
0
0
0
0
0
0
0
0
0
0
0
0
0
0
0
0
0
0
0
0
0
0
0
0
0
0
0
0
0
0
0
0
0
0
0
0
0
0
0
0
0
0
0
0
0
0
0
0
0
0
0
0
0
0
0
0
0
0
0
0
0
0
0
0
0
0
0
0
0
0
0
0
0
0
0
0
0
0
0
0
0
0
0
0
0
0
0
0
0
0
0
0
0
0
0
0
0
0
0
0
0
0
0
0
0
0
0
0
0
0
0
0
0
0
0
0
0
0
0
0
0
0
0
0
0
0
0
0
0
0
0
0
0
0
0
0
0
0
0
0
0
0
0
0
0
0
0
0
0
0
0
0
0
0
0
0
0
0
0
0
0
0
0
0
0
0
0
0
0
0
0
0
0
0
0
0
0
0
0
0
0
0
0
0
0
0
0
0
0
0
0
0
0
0
0
0
0
0
0
0
0
0
0
0
0
0
0
0
0
0
0
0
0
0
0
0
0
0
0
0
0
0
0
0
0
0
0
0
0
0
0
0
0
0
0
0
0
0
0
0
0
0
0
0
0
0
0
0
0
0
0
0
0
0
0
0
0
0
0
0
0
0
0
0
0
0
0
0
0
0
0
0
0
0
0
0
0
0
0
0
0
0
0
0
0
0
0
0
0
0
0
0
0
0
0
0
0
0
0
0
0
0
0
0
0
0
0
0
0
0
0
0
0
0
0
0
0
0
0
0
0
0
0
0
0
0
0
0
0
0
0
0
0
0
0
0
0
0
0
0
0
0
0
0
0
0
0
0
0
0
0
0
0
0
0
0
0
0
0
0
0
0
0
0
0
0
0
0
0
0
0
0
0
0
0
0
0
0
0
0
0
0
0
0
0
0
0
0
0
0
0
0
0
0
0
0
0
0
0
0
0
0
0
0
0
0
0
0
0
0
0
0
0
0
0
0
0
0
0
0
0
0
0
0
0
0
0
0
0
0
0
0
0
0
0
0
0
0
0
0
0
0
0
0
0
0
0
0
0
0
0
0
0
0
0
0
0
0
0
0
0
0
0
0
0
0
0
0
0
0
0
0
0
0
0
0
0
0
0
0
0
0
0
0
0
0
0
0
0
0
0
0
0
0
0
0
0
0
0
0
0
0
0
0
0
0
0
0
0
0
0
0
0
0
0
0
0
0
0
0
0
0
0
0
0
0
0
0
0
0
0
0
0
0
0
0
0
0
0
0
0
0
0
0
0
0
0
0
0
0
0
0
0
0
0
0
0
0
0
0
0
0
0
0
0
0
0
0
0
0
0
0
0
0
0
0
0
0
0
0
0
0
0
0
0
0
0
0
0
0
0
0
0
0
0
0
0
0
0
0
0
0
0
0
0
0
0
0
0
0
0
0
0
0
0
0
0
0
0
0
0
0
0
0
0
0
0
0
0
0
0
0
0
0
0
0
0
0
0
0
0
0
0
0
0
0
0
0
0
0
0
0
0
0
0
0
0
0
0
0
0
0
0
0
0
0
0
0
0
0
0
0
0
0
0
0
0
0
0
0
0
0
0
0
0
0
0
0
0
0
0
0
0
0
0
0
0
0
0
0
0
0
0
0
0
0
0
0
0
0
0
0
0
0
0
0
0
0
0
0
0
0
0
0
0
0
0
0
0
0
0
0
0
0
0
0
0
0
0
0
0
0
0
0
0
0
0
0
0
0
0
0
0
0
0
0
0
0
0
0
0
0
0
0
0
0
0
0
0
0
0
0
0
0
0
0
0
0
0
0
0
0
0
0
0
0
0
0
0
0
0
0
0
0
0
0
0
0
0
0
0
0
0
0
0
0
0
0
0
0
0
0
0
0
0
0
0
0
0
0
0
0
0
0
0
0
0
0
0
0
0
0
0
0
0
0
0
0
0
0
0
0
0
0
0
0
0
0
0
0
0
0
0
0
0
0
0
0
0
0
0
0
0
0
0
0
0
0
0
0
0
0
0
0
0
0
0
0
0
0
0
0
0
0
0
0
0
0
0
0
0
0
0
0
0
0
0
0
0
0
0
0
0
0
0
0
0
0
0
0
0
0
0
0
0
0
0
0
0
0
0
0
0
0
0
0
0
0
0
0
0
0
0
0
0
0
0
0
0
0
0
0
0
0
0
0
0
0
0
0
0
0
0
0
0
0
0
0
0
0
0
0
0
0
0
0
0
0
0
0
0
0
0
0
0
0
0
0
0
0
0
0
0
0
0
0
0
0
0
0
0
0
0
0
0
0
0
0
0
0
0
0
0
0
0
0
0
0
0
0
0
0
0
0
0
0
0
0
0
0
0
0
0
0
0
0
0
0
0
0
0
0
0
0
0
0
0
0
0
0
0
0
0
0
0
0
0
0
0
0
0
0
0
0
0
0
0
0
0
0
0
0
0
0
0
0
0
0
0
0
0
0
0
0
0
0
0
0
0
0
0
0
0
0
0
0
0
0
0
0
0
0
0
0
0
0
0
0
0
0
0
0
0
0
0
0
0
0
0
0
0
0
0
0
0
0
0
0
0
0
0
0
0
0
0
0
0
0
0
0
0
0
0
0
0
0
0
0
0
0
0
0
0
0
0
0
0
0
0
0
0
0
0
0
0
0
0
0
0
0
0
0
0
0
0
0
0
0
0
0
0
0
0
0
0
0
0
0
0
0
0
0
0
0
0
0
0
0
0
0
0
0
0
0
0
0
0
0
0
0
0
0
0
0
0
0
0
0
0
0
0
0
0
0
0
0
0
0
0
0
0
0
0
0
0
0
0
0
0
0
0
0
0
0
0
0
0
0
0
0
0
0
0
0
0
0
0
0
0
0
0
0
0
0
0
0
0
0
0
0
0
0
0
0
0
0
0
0
0
0
0
0
0
0
0
0
0
0
0
0
0
0
0
0
0
0
0
0
0
0
0
0
0
0
0
0
0
0
0
0
0
0
0
0
0
0
0
0
0
0
0
0
0
0
0
0
0
0
0
0
0
0
0
0
0
0
0
0
0
0
0
0
0
0
0
0
0
0
0
0
0
0
0
0
0
0
0
0
0
0
0
0
0
0
0
0
0
0
0
0
0
0
0
0
0
0
0
0
0
0
0
0
0
0
0
0
0
0
0
0
0
0
0
0
0
0
0
0
0
0
0
0
0
0
0
0
0
0
0
0
0
0
0
0
0
0
0
0
0
0
0
0
0
0
0
0
0
0
0
0
0
0
0
0
0
0
0
0
0
0
0
0
0
0
0
0
0
0
0
0
0
0
0
0
0
0
0
0
0
0
0
0
0
0
0
0
0
0
0
0
0
0
0
0
0
0
0
0
0
0
0
0
0
0
0
0
0
0
0
0
0
0
0
0
0
0
0
0
0
0
0
0
0
0
0
0
0
0
0
0
0
0
0
0
0
0
0
0
0
0
0
0
0
0
0
0
0
0
0
0
0
0
0
0
0
0
0
0
0
0
0
0
0
0
0
0
0
0
0
0
0
0
0
0
0
0
0
0
0
0
0
0
0
0
0
0
0
0
0
0
0
0
0
0
0
0
0
0
0
0
0
0
0
0
0
0
0
0
0
0
0
0
0
0
0
0
0
0
0
0
0
0
0
0
0
0
0
0
0
0
0
0
0
0
0
0
0
0
0
0
0
0
0
0
0
0
0
0
0
0
0
0
0
0
0
0
0
0
0
0
0
0
0
0
0
0
0
0
0
0
0
0
0
0
0
0
0
0
0
0
0
0
0
0
0
0
0
0
0
0
0
0
0
0
0
0
0
0
0
0
0
0
0
0
0
0
0
0
0
0
0
0
0
0
0
0
0
0
0
0
0
0
0
0
0
0
0
0
0
0
0
0
0
0
0
0
0
0
0
0
0
0
0
0
0
0
0
0
0
0
0
0
0
0
0
0
0
0
0
0
0
0
0
0
0
0
0
0
0
0
0
0
0
0
0
0
0
0
0
0
0
0
0
0
0
0
0
0
0
0
0
0
0
0
0
0
0
0
0
0
0
0
0
0
0
0
0
0
0
0
0
0
0
0
0
0
0
0
0
0
0
0
0
0
0
0
0
0
0
0
0
0
0
0
0
0
0
0
0
0
0
0
0
0
0
0
0
0
0
0
0
0
0
0
0
0
0
0
0
0
0
0
0
0
0
0
0
0
0
0
0
0
0
0
0
0
0
0
0
0
0
0
0
0
0
0
0
0
0
0
0
0
0
0
0
0
0
0
0
0
0
0
0
0
0
0
0
0
0
0
0
0
0
0
0
0
0
0
0
0
0
0
0
0
0
0
0
0
0
0
0
0
0
0
0
0
0
0
0
0
0
0
0
0
0
0
0
0
0
0
0
0
0
0
0
0
0
0
0
0
0
0
0
0
0
0
0
0
0
0
0
0
0
0
0
0
0
0
0
0
0
0
0
0
0
0
0
0
0
0
0
0
0
0
0
0
0
0
0
0
0
0
0
0
0
0
0
0
0
0
0
0
0
0
0
0
0
0
0
0
0
0
0
0
0
0
0
0
0
0
0
0
0
0
0
0
0
0
0
0
0
0
0
0
0
0
0
0
0
0
0
0
0
0
0
0
0
0
0
0
0
0
0
0
0
0
0
0
0
0
0
0
0
0
0
0
0
0
0
0
0
0
0
0
0
0
0
0
0
0
0
0
0
0
0
0
0
0
0
0
0
0
0
0
0
0
0
0
0
0
0
0
0
0
0
0
0
0
0
0
0
0
0
0
0
0
0
0
0
0
0
0
0
0
0
0
0
0
0
0
0
0
0
0
0
0
0
0
0
0
0
0
0
0
0
0
0
0
0
0
0
0
0
0
0
0
0
0
0
0
0
0
0
0
0
0
0
0
0
0
0
0
0
0
0
0
0
0
0
0
0
0
0
0
0
0
0
0
0
0
0
0
0
0
0
0
0
0
0
0
0
0
0
0
0
0
0
0
0
0
0
0
0
0
0
0
0
0
0
0
0
0
0
0
0
0
0
0
0
0
0
0
0
0
0
0
0
0
0
0
0
0
0
0
0
0
0
0
0
0
0
0
0
0
0
0
0
0
0
0
0
0
0
0
0
0
0
0
0
0
0
0
0
0
0
0
0
0
0
0
0
0
0
0
0
0
0
0
0
0
0
0
0
0
0
0
0
0
0
0
0
0
0
0
0
0
0
0
0
0
0
0
0
0
0
0
0
0
0
0
0
0
0
0
0
0
0
0
0
0
0
0
0
0
0
0
0
0
0
0
0
0
0
0
0
0
0
0
0
0
0
0
0
0
0
0
0
0
0
0
0
0
0
0
0
0
0
0
0
0
0
0
0
0
0
0
0
0
0
0
0
0
0
0
0
0
0
0
0
0
0
0
0
0
0
0
0
0
0
0
0
0
0
0
0
0
0
0
0
0
0
0
0
0
0
0
0
0
0
0
0
0
0
0
0
0
0
0
0
0
0
0
0
0
0
0
0
0
0
0
0
0
0
0
0
0
0
0
0
0
0
0
0
0
0
0
0
0
0
0
0
0
0
0
0
0
0
0
0
0
0
0
0
0
0
0
0
0
0
0
0
0
0
0
0
0
0
0
0
0
0
0
0
0
0
0
0
0
0
0
0
0
0
0
0
0
0
0
0
0
0
0
0
0
0
0
0
0
0
0
0
0
0
0
0
0
0
0
0
0
0
0
0
0
0
0
0
0
0
0
0
0
0
0
0
0
0
0
0
0
0
0
0
0
0
0
0
0
0
0
0
0
0
0
0
0
0
0
0
0
0
0
0
0
0
0
0
0
0
0
0
0
0
0
0
0
0
0
0
0
0
0
0
0
0
0
0
0
0
0
0
0
0
0
0
0
0
0
0
0
0
0
0
0
0
0
0
0
0
0
0
0
0
0
0
0
0
0
0
0
0
0
0
0
0
0
0
0
0
0
0
0
0
0
0
0
0
0
0
0
0
0
0
0
0
0
0
0
0
0
0
0
0
0
0
0
0
0
0
0
0
0
0
0
0
0
0
0
0
0
0
0
0
0
0
0
0
0
0
0
0
0
0
0
0
0
0
0
0
0
0
0
0
0
0
0
0
0
0
0
0
0
0
0
0
0
0
0
0
0
0
0
0
0
0
0
0
0
0
0
0
0
0
0
0
0
0
0
0
0
0
0
0
0
0
0
0
0
0
0
0
0
0
0
0
0
0
0
0
0
0
0
0
0
0
0
0
0
0
0
0
0
0
0
0
0
0
0
0
0
0
0
0
0
0
0
0
0
0
0
0
0
0
0
0
0
0
0
0
0
0
0
0
0
0
0
0
0
0
0
0
0
0
0
0
0
0
0
0
0
0
0
0
0
0
0
0
0
0
0
0
0
0
0
0
0
0
0
0
0
0
0
0
0
0
0
0
0
0
0
0
0
0
0
0
0
0
0
0
0
0
0
0
0
0
0
0
0
0
0
0
0
0
0
0
0
0
0
0
0
0
0
0
0
0
0
0
0
0
0
0
0
0
0
0
0
0
0
0
0
0
0
0
0
0
0
0
0
0
0
0
0
0
0
0
0
0
0
0
0
0
0
0
0
0
0
0
0
0
0
0
0
0
0
0
0
0
0
0
0
0
0
0
0
0
0
0
0
0
0
0
0
0
0
0
0
0
0
0
0
0
0
0
0
0
0
0
0
0
0
0
0
0
0
0
0
0
0
0
0
0
0
0
0
0
0
0
0
0
0
0
0
0
0
0
0
0
0
0
0
0
0
0
0
0
0
0
0
0
0
0
0
0
0
0
0
0
0
0
0
0
0
0
0
0
0
0
0
0
0
0
0
0
0
0
0
0
0
0
0
0
0
0
0
0
0
0
0
0
0
0
0
0
0
0
0
0
0
0
0
0
0
0
0
0
0
0
0
0
0
0
0
0
0
0
0
0
0
0
0
0
0
0
0
0
0
0
0
0
0
0
0
0
0
0
0
0
0
0
0
0
0
0
0
0
0
0
0
0
0
0
0
0
0
0
0
0
0
0
0
0
0
0
0
0
0
0
0
0
0
0
0
0
0
0
0
0
0
0
0
0
0
0
0
0
0
0
0
0
0
0
0
0
0
0
0
0
0
0
0
0
0
0
0
0
0
0
0
0
0
0
0
0
0
0
0
0
0
0
0
0
0
0
0
0
0
0
0
0
0
0
0
0
0
0
0
0
0
0
0
0
0
0
0
0
0
0
0
0
0
0
0
0
0
0
0
0
0
0
0
0
0
0
0
0
0
0
0
0
0
0
0
0
0
0
0
0
0
0
0
0
0
0
0
0
0
0
0
0
0
0
0
0
0
0
0
0
0
0
0
0
0
0
0
0
0
0
0
0
0
0
0
0
0
0
0
0
0
0
0
0
0
0
0
0
0
0
0
0
0
0
0
0
0
0
0
0
0
0
0
0
0
0
0
0
0
0
0
0
0
0
0
0
0
0
0
0
0
0
0
0
0
0
0
0
0
0
0
0
0
0
0
0
0
0
0
0
0
0
0
0
0
0
0
0
0
0
0
0
0
0
0
0
0
0
0
0
0
0
0
0
0
0
0
0
0
0
0
0
0
0
0
0
0
0
0
0
0
0
0
0
0
0
0
0
0
0
0
0
0
0
0
0
0
0
0
0
0
0
0
0
0
0
0
0
0
0
0
0
0
0
0
0
0
0
0
0
0
0
0
0
0
0
0
0
0
0
0
0
0
0
0
0
0
0
0
0
0
0
0
0
0
0
0
0
0
0
0
0
0
0
0
0
0
0
0
0
0
0
0
0
0
0
0
0
0
0
0
0
0
0
0
0
0
0
0
0
0
0
0
0
0
0
0
0
0
0
0
0
0
0
0
0
0
0
0
0
0
0
0
0
0
0
0
0
0
0
0
0
0
0
0
0
0
0
0
0
0
0
0
0
0
0
0
0
0
0
0
0
0
0
0
0
0
0
0
0
0
0
0
0
0
0
0
0
0
0
0
0
0
0
0
0
0
0
0
0
0
0
0
0
0
0
0
0
0
0
0
0
0
0
0
0
0
0
0
0
0
0
0
0
0
0
0
0
0
0
0
0
0
0
0
0
0
0
0
0
0
0
0
0
0
0
0
0
0
0
0
0
0
0
0
0
0
0
0
0
0
0
0
0
0
0
0
0
0
0
0
0
0
0
0
0
0
0
0
0
0
0
0
0
0
0
0
0
0
0
0
0
0
0
0
0
0
0
0
0
0
0
0
0
0
0
0
0
0
0
0
0
0
0
0
0
0
0
0
0
0
0
0
0
0
0
0
0
0
0
0
0
0
0
0
0
0
0
0
0
0
0
0
0
0
0
0
0
0
0
0
0
0
0
0
0
0
0
0
0
0
0
0
0
0
0
0
0
0
0
0
0
0
0
0
0
0
0
0
0
0
0
0
0
0
0
0
0
0
0
0
0
0
0
0
0
0
0
0
0
0
0
0
0
0
0
0
0
0
0
0
0
0
0
0
0
0
0
0
0
0
0
0
0
0
0
0
0
0
0
0
0
0
0
0
0
0
0
0
0
0
0
0
0
0
0
0
0
0
0
0
0
0
0
0
0
0
0
0
0
0
0
0
0
0
0
0
0
0
0
0
0
0
0
0
0
0
0
0
0
0
0
0
0
0
0
0
0
0
0
0
0
0
0
0
0
0
0
0
0
0
0
0
0
0
0
0
0
0
0
0
0
0
0
0
0
0
0
0
0
0
0
0
0
0
0
0
0
0
0
0
0
0
0
0
0
0
0
0
0
0
0
0
0
0
0
0
0
0
0
0
0
0
0
0
0
0
0
0
0
0
0
0
0
0
0
0
0
0
0
0
0
0
0
0
0
0
0
0
0
0
0
0
0
0
0
0
0
0
0
0
0
0
0
0
0
0
0
0
0
0
0
0
0
0
0
0
0
0
0
0
0
0
0
0
0
0
0
0
0
0
0
0
0
0
0
0
0
0
0
0
0
0
0
0
0
0
0
0
0
0
0
0
0
0
0
0
0
0
0
0
0
0
0
0
0
0
0
0
0
0
0
0
0
0
0
0
0
0
0
0
0
0
0
0
0
0
0
0
0
0
0
0
0
0
0
0
0
0
0
0
0
0
0
0
0
0
0
0
0
0
0
0
0
0
0
0
0
0
0
0
0
0
0
0
0
0
0
0
0
0
0
0
0
0
0
0
0
0
0
0
0
0
0
0
0
0
0
0
0
0
0
0
0
0
0
0
0
0
0
0
0
0
0
0
0
0
0
0
0
0
0
0
0
0
0
0
0
0
0
0
0
0
0
0
0
0
0
0
0
0
0
0
0
0
0
0
0
0
0
0
0
0
0
0
0
0
0
0
0
0
0
0
0
0
0
0
0
0
0
0
0
0
0
0
0
0
0
0
0
0
0
0
0
0
0
0
0
0
0
0
0
0
0
0
0
0
0
0
0
0
0
0
0
0
0
0
0
0
0
0
0
0
0
0
0
0
0
0
0
0
0
0
0
0
0
0
0
0
0
0
0
0
0
0
0
0
0
0
0
0
0
0
0
0
0
0
0
0
0
0
0
0
0
0
0
0
0
0
0
0
0
0
0
0
0
0
0
0
0
0
0
0
0
0
0
0
0
0
0
0
0
0
0
0
0
0
0
0
0
0
0
0
0
0
0
0
0
0
0
0
0
0
0
0
0
0
0
0
0
0
0
0
0
0
0
0
0
0
0
0
0
0
0
0
0
0
0
0
0
0
0
0
0
0
0
0
0
0
0
0
0
0
0
0
0
0
0
0
0
0
0
0
0
0
0
0
0
0
0
0
0
0
0
0
0
0
0
0
0
0
0
0
0
0
0
0
0
0
0
0
0
0
0
0
0
0
0
0
0
0
0
0
0
0
0
0
0
0
0
0
0
0
0
0
0
0
0
0
0
0
0
0
0
0
0
0
0
0
0
0
0
0
0
0
0
0
0
0
0
0
0
0
0
0
0
0
0
0
0
0
0
0
0
0
0
0
0
0
0
0
0
0
0
0
0
0
0
0
0
0
0
0
0
0
0
0
0
0
0
0
0
0
0
0
0
0
0
0
0
0
0
0
0
0
0
0
0
0
0
0
0
0
0
0
0
0
0
0
0
0
0
0
0
0
0
0
0
0
0
0
0
0
0
0
0
0
0
0
0
0
0
0
0
0
0
0
0
0
0
0
0
0
0
0
0
0
0
0
0
0
0
0
0
0
0
0
0
0
0
0
0
0
0
0
0
0
0
0
0
0
0
0
0
0
0
0
0
0
0
0
0
0
0
0
0
0
0
0
0
0
0
0
0
0
0
0
0
0
0
0
0
0
0
0
0
0
0
0
0
0
0
0
0
0
0
0
0
0
0
0
0
0
0
0
0
0
0
0
0
0
0
0
0
0
0
0
0
0
0
0
0
0
0
0
0
0
0
0
0
0
0
0
0
0
0
0
0
0
0
0
0
0
0
0
0
0
0
0
0
0
0
0
0
0
0
0
0
0
0
0
0
0
0
0
0
0
0
0
0
0
0
0
0
0
0
0
0
0
0
0
0
0
0
0
0
0
0
0
0
0
0
0
0
0
0
0
0
0
0
0
0
0
0
0
0
0
0
0
0
0
0
0
0
0
0
0
0
0
0
0
0
0
0
0
0
0
0
0
0
0
0
0
0
0
0
0
0
0
0
0
0
0
0
0
0
0
0
0
0
0
0
0
0
0
0
0
0
0
0
0
0
0
0
0
0
0
0
0
0
0
0
0
0
0
0
0
0
0
0
0
0
0
0
0
0
0
0
0
0
0
0
0
0
0
0
0
0
0
0
0
0
0
0
0
0
0
0
0
0
0
0
0
0
0
0
0
0
0
0
0
0
0
0
0
0
0
0
0
0
0
0
0
0
0
0
0
0
0
0
0
0
0
0
0
0
0
0
0
0
0
0
0
0
0
0
0
0
0
0
0
0
0
0
0
0
0
0
0
0
0
0
0
0
0
0
0
0
0
0
0
0
0
0
0
0
0
0
0
0
0
0
0
0
0
0
0
0
0
0
0
0
0
0
0
0
0
0
0
0
0
0
0
0
0
0
0
0
0
0
0
0
0
0
0
0
0
0
0
0
0
0
0
0
0
0
0
0
0
0
0
0
0
0
0
0
0
0
0
0
0
0
0
0
0
0
0
0
0
0
0
0
0
0
0
0
0
0
0
0
0
0
0
0
0
0
0
0
0
0
0
0
0
0
0
0
0
0
0
0
0
0
0
0
0
0
0
0
0
0
0
0
0
0
0
0
0
0
0
0
0
0
0
0
0
0
0
0
0
0
0
0
0
0
0
0
0
0
0
0
0
0
0
0
0
0
0
0
0
0
0
0
0
0
0
0
0
0
0
0
0
0
0
0
0
0
0
0
0
0
0
0
0
0
0
0
0
0
0
0
0
0
0
0
0
0
0
0
0
0
0
0
0
0
0
0
0
0
0
0
0
0
0
0
0
0
0
0
0
0
0
0
0
0
0
0
0
0
0
0
0
0
0
0
0
0
0
0
0
0
0
0
0
0
0
0
0
0
0
0
0
0
0
0
0
0
0
0
0
0
0
0
0
0
0
0
0
0
0
0
0
0
0
0
0
0
0
0
0
0
0
0
0
0
0
0
0
0
0
0
0
0
0
0
0
0
0
0
0
0
0
0
0
0
0
0
0
0
0
0
0
0
0
0
0
0
0
0
0
0
0
0
0
0
0
0
0
0
0
0
0
0
0
0
0
0
0
0
0
0
0
0
0
0
0
0
0
0
0
0
0
0
0
0
0
0
0
0
0
0
0
0
0
0
0
0
0
0
0
0
0
0
0
0
0
0
0
0
0
0
0
0
0
0
0
0
0
0
0
0
0
0
0
0
0
0
0
0
0
0
0
0
0
0
0
0
0
0
0
0
0
0
0
0
0
0
0
0
0
0
0
0
0
0
0
0
0
0
0
0
0
0
0
0
0
0
0
0
0
0
0
0
0
0
0
0
0
0
0
0
0
0
0
0
0
0
0
0
0
0
0
0
0
0
0
0
0
0
0
0
0
0
0
0
0
0
0
0
0
0
0
0
0
0
0
0
0
0
0
0
0
0
0
0
0
0
0
0
0
0
0
0
0
0
0
0
0
0
0
0
0
0
0
0
0
0
0
0
0
0
0
0
0
0
0
0
0
0
0
0
0
0
0
0
0
0
0
0
0
0
0
0
0
0
0
0
0
0
0
0
0
0
0
0
0
0
0
0
0
0
0
0
0
0
0
0
0
0
0
0
0
0
0
0
0
0
0
0
0
0
0
0
0
0
0
0
0
0
0
0
0
0
0
0
0
0
0
0
0
0
0
0
0
0
0
0
0
0
0
0
0
0
0
0
0
0
0
0
0
0
0
0
0
0
0
0
0
0
0
0
0
0
0
0
0
0
0
0
0
0
0
0
0
0
0
0
0
0
0
0
0
0
0
0
0
0
0
0
0
0
0
0
0
0
0
0
0
0
0
0
0
0
0
0
0
0
0
0
0
0
0
0
0
0
0
0
0
0
0
0
0
0
0
0
0
0
0
0
0
0
0
0
0
0
0
0
0
0
0
0
0
0
0
0
0
0
0
0
0
0
0
0
0
0
0
0
0
0
0
0
0
0
0
0
0
0
0
0
0
0
0
0
0
0
0
0
0
0
0
0
0
0
0
0
0
0
0
0
0
0
0
0
0
0
0
0
0
0
0
0
0
0
0
0
0
0
0
0
0
0
0
0
0
0
0
0
0
0
0
0
0
0
0
0
0
0
0
0
0
0
0
0
0
0
0
0
0
0
0
0
0
0
0
0
0
0
0
0
0
0
0
0
0
0
0
0
0
0
0
0
0
0
0
0
0
0
0
0
0
0
0
0
0
0
0
0
0
0
0
0
0
0
0
0
0
0
0
0
0
0
0
0
0
0
0
0
0
0
0
0
0
0
0
0
0
0
0
0
0
0
0
0
0
0
0
0
0
0
0
0
0
0
0
0
0
0
0
0
0
0
0
0
0
0
0
0
0
0
0
0
0
0
0
0
0
0
0
0
0
0
0
0
0
0
0
0
0
0
0
0
0
0
0
0
0
0
0
0
0
0
0
0
0
0
0
0
0
0
0
0
0
0
0
0
0
0
0
0
0
0
0
0
0
0
0
0
0
0
0
0
0
0
0
0
0
0
0
0
0
0
0
0
0
0
0
0
0
0
0
0
0
0
0
0
0
0
0
0
0
0
0
0
0
0
0
0
0
0
0
0
0
0
0
0
0
0
0
0
0
0
0
0
0
0
0
0
0
0
0
0
0
0
0
0
0
0
0
0
0
0
0
0
0
0
0
0
0
0
0
0
0
0
0
0
0
0
0
0
0
0
0
0
0
0
0
0
0
0
0
0
0
0
0
0
0
0
0
0
0
0
0
0
0
0
0
0
0
0
0
0
0
0
0
0
0
0
0
0
0
0
0
0
0
0
0
0
0
0
0
0
0
0
0
0
0
0
0
0
0
0
0
0
0
0
0
0
0
0
0
0
0
0
0
0
0
0
0
0
0
0
0
0
0
0
0
0
0
0
0
0
0
0
0
0
0
0
0
0
0
0
0
0
0
0
0
0
0
0
0
0
0
0
0
0
0
0
0
0
0
0
0
0
0
0
0
0
0
0
0
0
0
0
0
0
0
0
0
0
0
0
0
0
0
0
0
0
0
0
0
0
0
0
0
0
0
0
0
0
0
0
0
0
0
0
0
0
0
0
0
0
0
0
0
0
0
0
0
0
0
0
0
0
0
0
0
0
0
0
0
0
0
0
0
0
0
0
0
0
0
0
0
0
0
0
0
0
0
0
0
0
0
0
0
0
0
0
0
0
0
0
0
0
0
0
0
0
0
0
0
0
0
0
0
0
0
0
0
0
0
0
0
0
0
0
0
0
0
0
0
0
0
0
0
0
0
0
0
0
0
0
0
0
0
0
0
0
0
0
0
0
0
0
0
0
0
0
0
0
0
0
0
0
0
0
0
0
0
0
0
0
0
0
0
0
0
0
0
0
0
0
0
0
0
0
0
0
0
0
0
0
0
0
0
0
0
0
0
0
0
0
0
0
0
0
0
0
0
0
0
0
0
0
0
0
0
0
0
0
0
0
0
0
0
0
0
0
0
0
0
0
0
0
0
0
0
0
0
0
0
0
0
0
0
0
0
0
0
0
0
0
0
0
0
0
0
0
0
0
0
0
0
0
0
0
0
0
0
0
0
0
0
0
0
0
0
0
0
0
0
0
0
0
0
0
0
0
0
0
0
0
0
0
0
0
0
0
0
0
0
0
0
0
0
0
0
0
0
0
0
0
0
0
0
0
0
0
0
0
0
0
0
0
0
0
0
0
0
0
0
0
0
0
0
0
0
0
0
0
0
0
0
0
0
0
0
0
0
0
0
0
0
0
0
0
0
0
0
0
0
0
0
0
0
0
0
0
0
0
0
0
0
0
0
0
0
0
0
0
0
0
0
0
0
0
0
0
0
0
0
0
0
0
0
0
0
0
0
0
0
0
0
0
0
0
0
0
0
0
0
0
0
0
0
0
0
0
0
0
0
0
0
0
0
0
0
0
0
0
0
0
0
0
0
0
0
0
0
0
0
0
0
0
0
0
0
0
0
0
0
0
0
0
0
0
0
0
0
0
0
0
0
0
0
0
0
0
0
0
0
0
0
0
0
0
0
0
0
0
0
0
0
0
0
0
0
0
0
0
0
0
0
0
0
0
0
0
0
0
0
0
0
0
0
0
0
0
0
0
0
0
0
0
0
0
0
0
0
0
0
0
0
0
0
0
0
0
0
0
0
0
0
0
0
0
0
0
0
0
0
0
0
0
0
0
0
0
0
0
0
0
0
0
0
0
0
0
0
0
0
0
0
0
0
0
0
0
0
0
0
0
0
0
0
0
0
0
0
0
0
0
0
0
0
0
0
0
0
0
0
0
0
0
0
0
0
0
0
0
0
0
0
0
0
0
0
0
0
0
0
0
0
0
0
0
0
0
0
0
0
0
0
0
0
0
0
0
0
0
0
0
0
0
0
0
0
0
0
0
0
0
0
0
0
0
0
0
0
0
0
0
0
0
0
0
0
0
0
0
0
0
0
0
0
0
0
0
0
0
0
0
0
0
0
0
0
0
0
0
0
0
0
0
0
0
0
0
0
0
0
0
0
0
0
0
0
0
0
0
0
0
0
0
0
0
0
0
0
0
0
0
0
0
0
0
0
0
0
0
0
0
0
0
0
0
0
0
0
0
0
0
0
0
0
0
0
0
0
0
0
0
0
0
0
0
0
0
0
0
0
0
0
0
0
0
0
0
0
0
0
0
0
0
0
0
0
0
0
0
0
0
0
0
0
0
0
0
0
0
0
0
0
0
0
0
0
0
0
0
0
0
0
0
0
0
0
0
0
0
0
0
0
0
0
0
0
0
0
0
0
0
0
0
0
0
0
0
0
0
0
0
0
0
0
0
0
0
0
0
0
0
0
0
0
0
0
0
0
0
0
0
0
0
0
0
0
0
0
0
0
0
0
0
0
0
0
0
0
0
0
0
0
0
0
0
0
0
0
0
0
0
0
0
0
0
0
0
0
0
0
0
0
0
0
0
0
0
0
0
0
0
0
0
0
0
0
0
0
0
0
0
0
0
0
0
0
0
0
0
0
0
0
0
0
0
0
0
0
0
0
0
0
0
0
0
0
0
0
0
0
0
0
0
0
0
0
0
0
0
0
0
0
0
0
0
0
0
0
0
0
0
0
0
0
0
0
0
0
0
0
0
0
0
0
0
0
0
0
0
0
0
0
0
0
0
0
0
0
0
0
0
0
0
0
0
0
0
0
0
0
0
0
0
0
0
0
0
0
0
0
0
0
0
0
0
0
0
0
0
0
0
0
0
0
0
0
0
0
0
0
0
0
0
0
0
0
0
0
0
0
0
0
0
0
0
0
0
0
0
0
0
0
0
0
0
0
0
0
0
0
0
0
0
0
0
0
0
0
0
0
0
0
0
0
0
0
0
0
0
0
0
0
0
0
0
0
0
0
0
0
0
0
0
0
0
0
0
0
0
0
0
0
0
0
0
0
0
0
0
0
0
0
0
0
0
0
0
0
0
0
0
0
0
0
0
0
0
0
0
0
0
0
0
0
0
0
0
0
0
0
0
0
0
0
0
0
0
0
0
0
0
0
0
0
0
0
0
0
0
0
0
0
0
0
0
0
0
0
0
0
0
0
0
0
0
0
0
0
0
0
0
0
0
0
0
0
0
0
0
0
0
0
0
0
0
0
0
0
0
0
0
0
0
0
0
0
0
0
0
0
0
0
0
0
0
0
0
0
0
0
0
0
0
0
0
0
0
0
0
0
0
0
0
0
0
0
0
0
0
0
0
0
0
0
0
0
0
0
0
0
0
0
0
0
0
0
0
0
0
0
0
0
0
0
0
0
0
0
0
0
0
0
0
0
0
0
0
0
0
0
0
0
0
0
0
0
0
0
0
0
0
0
0
0
0
0
0
0
0
0
0
0
0
0
0
0
0
0
0
0
0
0
0
0
0
0
0
0
0
0
0
0
0
0
0
0
0
0
0
0
0
0
0
0
0
0
0
0
0
0
0
0
0
0
0
0
0
0
0
0
0
0
0
0
0
0
0
0
0
0
0
0
0
0
0
0
0
0
0
0
0
0
0
0
0
0
0
0
0
0
0
0
0
0
0
0
0
0
0
0
0
0
0
0
0
0
0
0
0
0
0
0
0
0
0
0
0
0
0
0
0
0
0
0
0
0
0
0
0
0
0
0
0
0
0
0
0
0
0
0
0
0
0
0
0
0
0
0
0
0
0
0
0
0
0
0
0
0
0
0
0
0
0
0
0
0
0
0
0
0
0
0
0
0
0
0
0
0
0
0
0
0
0
0
0
0
0
0
0
0
0
0
0
0
0
0
0
0
0
0
0
0
0
0
0
0
0
0
0
0
0
0
0
0
0
0
0
0
0
0
0
0
0
0
0
0
0
0
0
0
0
0
0
0
0
0
0
0
0
0
0
0
0
0
0
0
0
0
0
0
0
0
0
0
0
0
0
0
0
0
0
0
0
0
0
0
0
0
0
0
0
0
0
0
0
0
0
0
0
0
0
0
0
0
0
0
0
0
0
0
0
0
0
0
0
0
0
0
0
0
0
0
0
0
0
0
0
0
0
0
0
0
0
0
0
0
0
0
0
0
0
0
0
0
0
0
0
0
0
0
0
0
0
0
0
0
0
0
0
0
0
0
0
0
0
0
0
0
0
0
0
0
0
0
0
0
0
0
0
0
0
0
0
0
0
0
0
0
0
0
0
0
0
0
0
0
0
0
0
0
0
0
0
0
0
0
0
0
0
0
0
0
0
0
0
0
0
0
0
0
0
0
0
0
0
0
0
0
0
0
0
0
0
0
0
0
0
0
0
0
0
0
0
0
0
0
0
0
0
0
0
0
0
0
0
0
0
0
0
0
0
0
0
0
0
0
0
0
0
0
0
0
0
0
0
0
0
0
0
0
0
0
0
0
0
0
0
0
0
0
0
0
0
0
0
0
0
0
0
0
0
0
0
0
0
0
0
0
0
0
0
0
0
0
0
0
0
0
0
0
0
0
0
0
0
0
0
0
0
0
0
0
0
0
0
0
0
0
0
0
0
0
0
0
0
0
0
0
0
0
0
0
0
0
0
0
0
0
0
0
0
0
0
0
0
0
0
0
0
0
0
0
0
0
0
0
0
0
0
0
0
0
0
0
0
0
0
0
0
0
0
0
0
0
0
0
0
0
0
0
0
0
0
0
0
0
0
0
0
0
0
0
0
0
0
0
0
0
0
0
0
0
0
0
0
0
0
0
0
0
0
0
0
0
0
0
0
0
0
0
0
0
0
0
0
0
0
0
0
0
0
0
0
0
0
0
0
0
0
0
0
0
0
0
0
0
0
0
0
0
0
0
0
0
0
0
0
0
0
0
0
0
0
0
0
0
0
0
0
0
0
0
0
0
0
0
0
0
0
0
0
0
0
0
0
0
0
0
0
0
0
0
0
0
0
0
0
0
0
0
0
0
0
0
0
0
0
0
0
0
0
0
0
0
0
0
0
0
0
0
0
0
0
0
0
0
0
0
0
0
0
0
0
0
0
0
0
0
0
0
0
0
0
0
0
0
0
0
0
0
0
0
0
0
0
0
0
0
0
0
0
0
0
0
0
0
0
0
0
0
0
0
0
0
0
0
0
0
0
0
0
0
0
0
0
0
0
0
0
0
0
0
0
0
0
0
0
0
0
0
0
0
0
0
0
0
0
0
0
0
0
0
0
0
0
0
0
0
0
0
0
0
0
0
0
0
0
0
0
0
0
0
0
0
0
0
0
0
0
0
0
0
0
0
0
0
0
0
0
0
0
0
0
0
0
0
0
0
0
0
0
0
0
0
0
0
0
0
0
0
0
0
0
0
0
0
0
0
0
0
0
0
0
0
0
0
0
0
0
0
0
0
0
0
0
0
0
0
0
0
0
0
0
0
0
0
0
0
0
0
0
0
0
0
0
0
0
0
0
0
0
0
0
0
0
0
0
0
0
0
0
0
0
0
0
0
0
0
0
0
0
0
0
0
0
0
0
0
0
0
0
0
0
0
0
0
0
0
0
0
0
0
0
0
0
0
0
0
0
0
0
0
0
0
0
0
0
0
0
0
0
0
0
0
0
0
0
0
0
0
0
0
0
0
0
0
0
0
0
0
0
0
0
0
0
0
0
0
0
0
0
0
0
0
0
0
0
0
0
0
0
0
0
0
0
0
0
0
0
0
0
0
0
0
0
0
0
0
0
0
0
0
0
0
0
0
0
0
0
0
0
0
0
0
0
0
0
0
0
0
0
0
0
0
0
0
0
0
0
0
0
0
0
0
0
0
0
0
0
0
0
0
0
0
0
0
0
0
0
0
0
0
0
0
0
0
0
0
0
0
0
0
0
0
0
0
0
0
0
0
0
0
0
0
0
0
0
0
0
0
0
0
0
0
0
0
0
0
0
0
0
0
0
0
0
0
0
0
0
0
0
0
0
0
0
0
0
0
0
0
0
0
0
0
0
0
0
0
0
0
0
0
0
0
0
0
0
0
0
0
0
0
0
0
0
0
0
0
0
0
0
0
0
0
0
0
0
0
0
0
0
0
0
0
0
0
0
0
0
0
0
0
0
0
0
0
0
0
0
0
0
0
0
0
0
0
0
0
0
0
0
0
0
0
0
0
0
0
0
0
0
0
0
0
0
0
0
0
0
0
0
0
0
0
0
0
0
0
0
0
0
0
0
0
0
0
0
0
0
0
0
0
0
0
0
0
0
0
0
0
0
0
0
0
0
0
0
0
0
0
0
0
0
0
0
0
0
0
0
0
0
0
0
0
0
0
0
0
0
0
0
0
0
0
0
0
0
0
0
0
0
0
0
0
0
0
0
0
0
0
0
0
0
0
0
0
0
0
0
0
0
0
0
0
0
0
0
0
0
0
0
0
0
0
0
0
0
0
0
0
0
0
0
0
0
0
0
0
0
0
0
0
0
0
0
0
0
0
0
0
0
0
0
0
0
0
0
0
0
0
0
0
0
0
0
0
0
0
0
0
0
0
0
0
0
0
0
0
0
0
0
0
0
0
0
0
0
0
0
0
0
0
0
0
0
0
0
0
0
0
0
0
0
0
0
0
0
0
0
0
0
0
0
0
0
0
0
0
0
0
0
0
0
0
0
0
0
0
0
0
0
0
0
0
0
0
0
0
0
0
0
0
0
0
0
0
0
0
0
0
0
0
0
0
0
0
0
0
0
0
0
0
0
0
0
0
0
0
0
0
0
0
0
0
0
0
0
0
0
0
0
0
0
0
0
0
0
0
0
0
0
0
0
0
0
0
0
0
0
0
0
0
0
0
0
0
0
0
0
0
0
0
0
0
0
0
0
0
0
0
0
0
0
0
0
0
0
0
0
0
0
0
0
0
0
0
0
0
0
0
0
0
0
0
0
0
0
0
0
0
0
0
0
0
0
0
0
0
0
0
0
0
0
0
0
0
0
0
0
0
0
0
0
0
0
0
0
0
0
0
0
0
0
0
0
0
0
0
0
0
0
0
0
0
0
0
0
0
0
0
0
0
0
0
0
0
0
0
0
0
0
0
0
0
0
0
0
0
0
0
0
0
0
0
0
0
0
0
0
0
0
0
0
0
0
0
0
0
0
0
0
0
0
0
0
0
0
0
0
0
0
0
0
0
0
0
0
0
0
0
0
0
0
0
0
0
0
0
0
0
0
0
0
0
0
0
0
0
0
0
0
0
0
0
0
0
0
0
0
0
0
0
0
0
0
0
0
0
0
0
0
0
0
0
0
0
0
0
0
0
0
0
0
0
0
0
0
0
0
0
0
0
0
0
0
0
0
0
0
0
0
0
0
0
0
0
0
0
0
0
0
0
0
0
0
0
0
0
0
0
0
0
0
0
0
0
0
0
0
0
0
0
0
0
0
0
0
0
0
0
0
0
0
0
0
0
0
0
0
0
0
0
0
0
0
0
0
0
0
0
0
0
0
0
0
0
0
0
0
0
0
0
0
0
0
0
0
0
0
0
0
0
0
0
0
0
0
0
0
0
0
0
0
0
0
0
0
0
0
0
0
0
0
0
0
0
0
0
0
0
0
0
0
0
0
0
0
0
0
0
0
0
0
0
0
0
0
0
0
0
0
0
0
0
0
0
0
0
0
0
0
0
0
0
0
0
0
0
0
0
0
0
0
0
0
0
0
0
0
0
0
0
0
0
0
0
0
0
0
0
0
0
0
0
0
0
0
0
0
0
0
0
0
0
0
0
0
0
0
0
0
0
0
0
0
0
0
0
0
0
0
0
0
0
0
0
0
0
0
0
0
0
0
0
0
0
0
0
0
0
0
0
0
0
0
0
0
0
0
0
0
0
0
0
0
0
0
0
0
0
0
0
0
0
0
0
0
0
0
0
0
0
0
0
0
0
0
0
0
0
0
0
0
0
0
0
0
0
0
0
0
0
0
0
0
0
0
0
0
0
0
0
0
0
0
0
0
0
0
0
0
0
0
0
0
0
0
0
0
0
0
0
0
0
0
0
0
0
0
0
0
0
0
0
0
0
0
0
0
0
0
0
0
0
0
0
0
0
0
0
0
0
0
0
0
0
0
0
0
0
0
0
0
0
0
0
0
0
0
0
0
0
0
0
0
0
0
0
0
0
0
0
0
0
0
0
0
0
0
0
0
0
0
0
0
0
0
0
0
0
0
0
0
0
0
0
0
0
0
0
0
0
0
0
0
0
0
0
0
0
0
0
0
0
0
0
0
0
0
0
0
0
0
0
0
0
0
0
0
0
0
0
0
0
0
0
0
0
0
0
0
0
0
0
0
0
0
0
0
0
0
0
0
0
0
0
0
0
0
0
0
0
0
0
0
0
0
0
0
0
0
0
0
0
0
0
0
0
0
0
0
0
0
0
0
0
0
0
0
0
0
0
0
0
0
0
0
0
0
0
0
0
0
0
0
0
0
0
0
0
0
0
0
0
0
0
0
0
0
0
0
0
0
0
0
0
0
0
0
0
0
0
0
0
0
0
0
0
0
0
0
0
0
0
0
0
0
0
0
0
0
0
0
0
0
0
0
0
0
0
0
0
0
0
0
0
0
0
0
0
0
0
0
0
0
0
0
0
0
0
0
0
0
0
0
0
0
0
0
0
0
0
0
0
0
0
0
0
0
0
0
0
0
0
0
0
0
0
0
0
0
0
0
0
0
0
0
0
0
0
0
0
0
0
0
0
0
0
0
0
0
0
0
0
0
0
0
0
0
0
0
0
0
0
0
0
0
0
0
0
0
0
0
0
0
0
0
0
0
0
0
0
0
0
0
0
0
0
0
0
0
0
0
0
0
0
0
0
0
0
0
0
0
0
0
0
0
0
0
0
0
0
0
0
0
0
0
0
0
0
0
0
0
0
0
0
0
0
0
0
0
0
0
0
0
0
0
0
0
0
0
0
0
0
0
0
0
0
0
0
0
0
0
0
0
0
0
0
0
0
0
0
0
0
0
0
0
0
0
0
0
0
0
0
0
0
0
0
0
0
0
0
0
0
0
0
0
0
0
0
0
0
0
0
0
0
0
0
0
0
0
0
0
0
0
0
0
0
0
0
0
0
0
0
0
0
0
0
0
0
0
0
0
0
0
0
0
0
0
0
0
0
0
0
0
0
0
0
0
0
0
0
0
0
0
0
0
0
0
0
0
0
0
0
0
0
0
0
0
0
0
0
0
0
0
0
0
0
0
0
0
0
0
0
0
0
0
0
0
0
0
0
0
0
0
0
0
0
0
0
0
0
0
0
0
0
0
0
0
0
0
0
0
0
0
0
0
0
0
0
0
0
0
0
0
0
0
0
0
0
0
0
0
0
0
0
0
0
0
0
0
0
0
0
0
0
0
0
0
0
0
0
0
0
0
0
0
0
0
0
0
0
0
0
0
0
0
0
0
0
0
0
0
0
0
0
0
0
0
0
0
0
0
0
0
0
0
0
0
0
0
0
0
0
0
0
0
0
0
0
0
0
0
0
0
0
0
0
0
0
0
0
0
0
0
0
0
0
0
0
0
0
0
0
0
0
0
0
0
0
0
0
0
0
0
0
0
0
0
0
0
0
0
0
0
0
0
0
0
0
0
0
0
0
0
0
0
0
0
0
0
0
0
0
0
0
0
0
0
0
0
0
0
0
0
0
0
0
0
0
0
0
0
0
0
0
0
0
0
0
0
0
0
0
0
0
0
0
0
0
0
0
0
0
0
0
0
0
0
0
0
0
0
0
0
0
0
0
0
0
0
0
0
0
0
0
0
0
0
0
0
0
0
0
0
0
0
0
0
0
0
0
0
0
0
0
0
0
0
0
0
0
0
0
0
0
0
0
0
0
0
0
0
0
0
0
0
0
0
0
0
0
0
0
0
0
0
0
0
0
0
0
0
0
0
0
0
0
0
0
0
0
0
0
0
0
0
0
0
0
0
0
0
0
0
0
0
0
0
0
0
0
0
0
0
0
0
0
0
0
0
0
0
0
0
0
0
0
0
0
0
0
0
0
0
0
0
0
0
0
0
0
0
0
0
0
0
0
0
0
0
0
0
0
0
0
0
0
0
0
0
0
0
0
0
0
0
0
0
0
0
0
0
0
0
0
0
0
0
0
0
0
0
0
0
0
0
0
0
0
0
0
0
0
0
0
0
0
0
0
0
0
0
0
0
0
0
0
0
0
0
0
0
0
0
0
0
0
0
0
0
0
0
0
0
0
0
0
0
0
0
0
0
0
0
0
0
0
0
0
0
0
0
0
0
0
0
0
0
0
0
0
0
0
0
0
0
0
0
0
0
0
0
0
0
0
0
0
0
0
0
0
0
0
0
0
0
0
0
0
0
0
0
0
0
0
0
0
0
0
0
0
0
0
0
0
0
0
0
0
0
0
0
0
0
0
0
0
0
0
0
0
0
0
0
0
0
0
0
0
0
0
0
0
0
0
0
0
0
0
0
0
0
0
0
0
0
0
0
0
0
0
0
0
0
0
0
0
0
0
0
0
0
0
0
0
0
0
0
0
0
0
0
0
0
0
0
0
0
0
0
0
0
0
0
0
0
0
0
0
0
0
0
0
0
0
0
0
0
0
0
0
0
0
0
0
0
0
0
0
0
0
0
0
0
0
0
0
0
0
0
0
0
0
0
0
0
0
0
0
0
0
0
0
0
0
0
0
0
0
0
0
0
0
0
0
0
0
0
0
0
0
0
0
0
0
0
0
0
0
0
0
0
0
0
0
0
0
0
0
0
0
0
0
0
0
0
0
0
0
0
0
0
0
0
0
0
0
0
0
0
0
0
0
0
0
0
0
0
0
0
0
0
0
0
0
0
0
0
0
0
0
0
0
0
0
0
0
0
0
0
0
0
0
0
0
0
0
0
0
0
0
0
0
0
0
0
0
0
0
0
0
0
0
0
0
0
0
0
0
0
0
0
0
0
0
0
0
0
0
0
0
0
0
0
0
0
0
0
0
0
0
0
0
0
0
0
0
0
0
0
0
0
0
0
0
0
0
0
0
0
0
0
0
0
0
0
0
0
0
0
0
0
0
0
0
0
0
0
0
0
0
0
0
0
0
0
0
0
0
0
0
0
0
0
0
0
0
0
0
0
0
0
0
0
0
0
0
0
0
0
0
0
0
0
0
0
0
0
0
0
0
0
0
0
0
0
0
0
0
0
0
0
0
0
0
0
0
0
0
0
0
0
0
0
0
0
0
0
0
0
0
0
0
0
0
0
0
0
0
0
0
0
0
0
0
0
0
0
0
0
0
0
0
0
0
0
0
0
0
0
0
0
0
0
0
0
0
0
0
0
0
0
0
0
0
0
0
0
0
0
0
0
0
0
0
0
0
0
0
0
0
0
0
0
0
0
0
0
0
0
0
0
0
0
0
0
0
0
0
0
0
0
0
0
0
0
0
0
0
0
0
0
0
0
0
0
0
0
0
0
0
0
0
0
0
0
0
0
0
0
0
0
0
0
0
0
0
0
0
0
0
0
0
0
0
0
0
0
0
0
0
0
0
0
0
0
0
0
0
0
0
0
0
0
0
0
0
0
0
0
0
0
0
0
0
0
0
0
0
0
0
0
0
0
0
0
0
0
0
0
0
0
0
0
0
0
0
0
0
0
0
0
0
0
0
0
0
0
0
0
0
0
0
0
0
0
0
0
0
0
0
0
0
0
0
0
0
0
0
0
0
0
0
0
0
0
0
0
0
0
0
0
0
0
0
0
0
0
0
0
0
0
0
0
0
0
0
0
0
0
0
0
0
0
0
0
0
0
0
0
0
0
0
0
0
0
0
0
0
0
0
0
0
0
0
0
0
0
0
0
0
0
0
0
0
0
0
0
0
0
0
0
0
0
0
0
0
0
0
0
0
0
0
0
0
0
0
0
0
0
0
0
0
0
0
0
0
0
0
0
0
0
0
0
0
0
0
0
0
0
0
0
0
0
0
0
0
0
0
0
0
0
0
0
0
0
0
0
0
0
0
0
0
0
0
0
0
0
0
0
0
0
0
0
0
0
0
0
0
0
0
0
0
0
0
0
0
0
0
0
0
0
0
0
0
0
0
0
0
0
0
0
0
0
0
0
0
0
0
0
0
0
0
0
0
0
0
0
0
0
0
0
0
0
0
0
0
0
0
0
0
0
0
0
0
0
0
0
0
0
0
0
0
0
0
0
0
0
0
0
0
0
0
0
0
0
0
0
0
0
0
0
0
0
0
0
0
0
0
0
0
0
0
0
0
0
0
0
0
0
0
0
0
0
0
0
0
0
0
0
0
0
0
0
0
0
0
0
0
0
0
0
0
0
0
0
0
0
0
0
0
0
0
0
0
0
0
0
0
0
0
0
0
0
0
0
0
0
0
0
0
0
0
0
0
0
0
0
0
0
0
0
0
0
0
0
0
0
0
0
0
0
0
0
0
0
0
0
0
0
0
0
0
0
0
0
0
0
0
0
0
0
0
0
0
0
0
0
0
0
0
0
0
0
0
0
0
0
0
0
0
0
0
0
0
0
0
0
0
0
0
0
0
0
0
0
0
0
0
0
0
0
0
0
0
0
0
0
0
0
0
0
0
0
0
0
0
0
0
0
0
0
0
0
0
0
0
0
0
0
0
0
0
0
0
0
0
0
0
0
0
0
0
0
0
0
0
0
0
0
0
0
0
0
0
0
0
0
0
0
0
0
0
0
0
0
0
0
0
0
0
0
0
0
0
0
0
0
0
0
0
0
0
0
0
0
0
0
0
0
0
0
0
0
0
0
0
0
0
0
0
0
0
0
0
0
0
0
0
0
0
0
0
0
0
0
0
0
0
0
0
0
0
0
0
0
0
0
0
0
0
0
0
0
0
0
0
0
0
0
0
0
0
0
0
0
0
0
0
0
0
0
0
0
0
0
0
0
0
0
0
0
0
0
0
0
0
0
0
0
0
0
0
0
0
0
0
0
0
0
0
0
0
0
0
0
0
0
0
0
0
0
0
0
0
0
0
0
0
0
0
0
0
0
0
0
0
0
0
0
0
0
0
0
0
0
0
0
0
0
0
0
0
0
0
0
0
0
0
0
0
0
0
0
0
0
0
0
0
0
0
0
0
0
0
0
0
0
0
0
0
0
0
0
0
0
0
0
0
0
0
0
0
0
0
0
0
0
0
0
0
0
0
0
0
0
0
0
0
0
0
0
0
0
0
0
0
0
0
0
0
0
0
0
0
0
0
0
0
0
0
0
0
0
0
0
0
0
0
0
0
0
0
0
0
0
0
0
0
0
0
0
0
0
0
0
0
0
0
0
0
0
0
0
0
0
0
0
0
0
0
0
0
0
0
0
0
0
0
0
0
0
0
0
0
0
0
0
0
0
0
0
0
0
0
0
0
0
0
0
0
0
0
0
0
0
0
0
0
0
0
0
0
0
0
0
0
0
0
0
0
0
0
0
0
0
0
0
0
0
0
0
0
0
0
0
0
0
0
0
0
0
0
0
0
0
0
0
0
0
0
0
0
0
0
0
0
0
0
0
0
0
0
0
0
0
0
0
0
0
0
0
0
0
0
0
0
0
0
0
0
0
0
0
0
0
0
0
0
0
0
0
0
0
0
0
0
0
0
0
0
0
0
0
0
0
0
0
0
0
0
0
0
0
0
0
0
0
0
0
0
0
0
0
0
0
0
0
0
0
0
0
0
0
0
0
0
0
0
0
0
0
0
0
0
0
0
0
0
0
0
0
0
0
0
0
0
0
0
0
0
0
0
0
0
0
0
0
0
0
0
0
0
0
0
0
0
0
0
0
0
0
0
0
0
0
0
0
0
0
0
0
0
0
0
0
0
0
0
0
0
0
0
0
0
0
0
0
0
0
0
0
0
0
0
0
0
0
0
0
0
0
0
0
0
0
0
0
0
0
0
0
0
0
0
0
0
0
0
0
0
0
0
0
0
0
0
0
0
0
0
0
0
0
0
0
0
0
0
0
0
0
0
0
0
0
0
0
0
0
0
0
0
0
0
0
0
0
0
0
0
0
0
0
0
0
0
0
0
0
0
0
0
0
0
0
0
0
0
0
0
0
0
0
0
0
0
0
0
0
0
0
0
0
0
0
0
0
0
0
0
0
0
0
0
0
0
0
0
0
0
0
0
0
0
0
0
0
0
0
0
0
0
0
0
0
0
0
0
0
0
0
0
0
0
0
0
0
0
0
0
0
0
0
0
0
0
0
0
0
0
0
0
0
0
0
0
0
0
0
0
0
0
0
0
0
0
0
0
0
0
0
0
0
0
0
0
0
0
0
0
0
0
0
0
0
0
0
0
0
0
0
0
0
0
0
0
0
0
0
0
0
0
0
0
0
0
0
0
0
0
0
0
0
0
0
0
0
0
0
0
0
0
0
0
0
0
0
0
0
0
0
0
0
0
0
0
0
0
0
0
0
0
0
0
0
0
0
0
0
0
0
0
0
0
0
0
0
0
0
0
0
0
0
0
0
0
0
0
0
0
0
0
0
0
0
0
0
0
0
0
0
0
0
0
0
0
0
0
0
0
0
0
0
0
0
0
0
0
0
0
0
0
0
0
0
0
0
0
0
0
0
0
0
0
0
0
0
0
0
0
0
0
0
0
0
0
0
0
0
0
0
0
0
0
0
0
0
0
0
0
0
0
0
0
0
0
0
0
0
0
0
0
0
0
0
0
0
0
0
0
0
0
0
0
0
0
0
0
0
0
0
0
0
0
0
0
0
0
0
0
0
0
0
0
0
0
0
0
0
0
0
0
0
0
0
0
0
0
0
0
0
0
0
0
0
0
0
0
0
0
0
0
0
0
0
0
0
0
0
0
0
0
0
0
0
0
0
0
0
0
0
0
0
0
0
0
0
0
0
0
0
0
0
0
0
0
0
0
0
0
0
0
0
0
0
0
0
0
0
0
0
0
0
0
0
0
0
0
0
0
0
0
0
0
0
0
0
0
0
0
0
0
0
0
0
0
0
0
0
0
0
0
0
0
0
0
0
0
0
0
0
0
0
0
0
0
0
0
0
0
0
0
0
0
0
0
0
0
0
0
0
0
0
0
0
0
0
0
0
0
0
0
0
0
0
0
0
0
0
0
0
0
0
0
0
0
0
0
0
0
0
0
0
0
0
0
0
0
0
0
0
0
0
0
0
0
0
0
0
0
0
0
0
0
0
0
0
0
0
0
0
0
0
0
0
0
0
0
0
0
0
0
0
0
0
0
0
0
0
0
0
0
0
0
0
0
0
0
0
0
0
0
0
0
0
0
0
0
0
0
0
0
0
0
0
0
0
0
0
0
0
0
0
0
0
0
0
0
0
0
0
0
0
0
0
0
0
0
0
0
0
0
0
0
0
0
0
0
0
0
0
0
0
0
0
0
0
0
0
0
0
0
0
0
0
0
0
0
0
0
0
0
0
0
0
0
0
0
0
0
0
0
0
0
0
0
0
0
0
0
0
0
0
0
0
0
0
0
0
0
0
0
0
0
0
0
0
0
0
0
0
0
0
0
0
0
0
0
0
0
0
0
0
0
0
0
0
0
0
0
0
0
0
0
0
0
0
0
0
0
0
0
0
0
0
0
0
0
0
0
0
0
0
0
0
0
0
0
0
0
0
0
0
0
0
0
0
0
0
0
0
0
0
0
0
0
0
0
0
0
0
0
0
0
0
0
0
0
0
0
0
0
0
0
0
0
0
0
0
0
0
0
0
0
0
0
0
0
0
0
0
0
0
0
0
0
0
0
0
0
0
0
0
0
0
0
0
0
0
0
0
0
0
0
0
0
0
0
0
0
0
0
0
0
0
0
0
0
0
0
0
0
0
0
0
0
0
0
0
0
0
0
0
0
0
0
0
0
0
0
0
0
0
0
0
0
0
0
0
0
0
0
0
0
0
0
0
0
0
0
0
0
0
0
0
0
0
0
0
0
0
0
0
0
0
0
0
0
0
0
0
0
0
0
0
0
0
0
0
0
0
0
0
0
0
0
0
0
0
0
0
0
0
0
0
0
0
0
0
0
0
0
0
0
0
0
0
0
0
0
0
0
0
0
0
0
0
0
0
0
0
0
0
0
0
0
0
0
0
0
0
0
0
0
0
0
0
0
0
0
0
0
0
0
0
0
0
0
0
0
0
0
0
0
0
0
0
0
0
0
0
0
0
0
0
0
0
0
0
0
0
0
0
0
0
0
0
0
0
0
0
0
0
0
0
0
0
0
0
0
0
0
0
0
0
0
0
0
0
0
0
0
0
0
0
0
0
0
0
0
0
0
0
0
0
0
0
0
0
0
0
0
0
0
0
0
0
0
0
0
0
0
0
0
0
0
0
0
0
0
0
0
0
0
0
0
0
0
0
0
0
0
0
0
0
0
0
0
0
0
0
0
0
0
0
0
0
0
0
0
0
0
0
0
0
0
0
0
0
0
0
0
0
0
0
0
0
0
0
0
0
0
0
0
0
0
0
0
0
0
0
0
0
0
0
0
0
0
0
0
0
0
0
0
0
0
0
0
0
0
0
0
0
0
0
0
0
0
0
0
0
0
0
0
0
0
0
0
0
0
0
0
0
0
0
0
0
0
0
0
0
0
0
0
0
0
0
0
0
0
0
0
0
0
0
0
0
0
0
0
0
0
0
0
0
0
0
0
0
0
0
0
0
0
0
0
0
0
0
0
0
0
0
0
0
0
0
0
0
0
0
0
0
0
0
0
0
0
0
0
0
0
0
0
0
0
0
0
0
0
0
0
0
0
0
0
0
0
0
0
0
0
0
0
0
0
0
0
0
0
0
0
0
0
0
0
0
0
0
0
0
0
0
0
0
0
0
0
0
0
0
0
0
0
0
0
0
0
0
0
0
0
0
0
0
0
0
0
0
0
0
0
0
0
0
0
0
0
0
0
0
0
0
0
0
0
0
0
0
0
0
0
0
0
0
0
0
0
0
0
0
0
0
0
0
0
0
0
0
0
0
0
0
0
0
0
0
0
0
0
0
0
0
0
0
0
0
0
0
0
0
0
0
0
0
0
0
0
0
0
0
0
0
0
0
0
0
0
0
0
0
0
0
0
0
0
0
0
0
0
0
0
0
0
0
0
0
0
0
0
0
0
0
0
0
0
0
0
0
0
0
0
0
0
0
0
0
0
0
0
0
0
0
0
0
0
0
0
0
0
0
0
0
0
0
0
0
0
0
0
0
0
0
0
0
0
0
0
0
0
0
0
0
0
0
0
0
0
0
0
0
0
0
0
0
0
0
0
0
0
0
0
0
0
0
0
0
0
0
0
0
0
0
0
0
0
0
0
0
0
0
0
0
0
0
0
0
0
0
0
0
0
0
0
0
0
0
0
0
0
0
0
0
0
0
0
0
0
0
0
0
0
0
0
0
0
0
0
0
0
0
0
0
0
0
0
0
0
0
0
0
0
0
0
0
0
0
0
0
0
0
0
0
0
0
0
0
0
0
0
0
0
0
0
0
0
0
0
0
0
0
0
0
0
0
0
0
0
0
0
0
0
0
0
0
0
0
0
0
0
0
0
0
0
0
0
0
0
0
0
0
0
0
0
0
0
0
0
0
0
0
0
0
0
0
0
0
0
0
0
0
0
0
0
0
0
0
0
0
0
0
0
0
0
0
0
0
0
0
0
0
0
0
0
0
0
0
0
0
0
0
0
0
0
0
0
0
0
0
0
0
0
0
0
0
0
0
0
0
0
0
0
0
0
0
0
0
0
0
0
0
0
0
0
0
0
0
0
0
0
0
0
0
0
0
0
0
0
0
0
0
0
0
0
0
0
0
0
0
0
0
0
0
0
0
0
0
0
0
0
0
0
0
0
0
0
0
0
0
0
0
0
0
0
0
0
0
0
0
0
0
0
0
0
0
0
0
0
0
0
0
0
0
0
0
0
0
0
0
0
0
0
0
0
0
0
0
0
0
0
0
0
0
0
0
0
0
0
0
0
0
0
0
0
0
0
0
0
0
0
0
0
0
0
0
0
0
0
0
0
0
0
0
0
0
0
0
0
0
0
0
0
0
0
0
0
0
0
0
0
0
0
0
0
0
0
0
0
0
0
0
0
0
0
0
0
0
0
0
0
0
0
0
0
0
0
0
0
0
0
0
0
0
0
0
0
0
0
0
0
0
0
0
0
0
0
0
0
0
0
0
0
0
0
0
0
0
0
0
0
0
0
0
0
0
0
0
0
0
0
0
0
0
0
0
0
0
0
0
0
0
0
0
0
0
0
0
0
0
0
0
0
0
0
0
0
0
0
0
0
0
0
0
0
0
0
0
0
0
0
0
0
0
0
0
0
0
0
0
0
0
0
0
0
0
0
0
0
0
0
0
0
0
0
0
0
0
0
0
0
0
0
0
0
0
0
0
0
0
0
0
0
0
0
0
0
0
0
0
0
0
0
0
0
0
0
0
0
0
0
0
0
0
0
0
0
0
0
0
0
0
0
0
0
0
0
0
0
0
0
0
0
0
0
0
0
0
0
0
0
0
0
0
0
0
0
0
0
0
0
0
0
0
0
0
0
0
0
0
0
0
0
0
0
0
0
0
0
0
0
0
0
0
0
0
0
0
0
0
0
0
0
0
0
0
0
0
0
0
0
0
0
0
0
0
0
0
0
0
0
0
0
0
0
0
0
0
0
0
0
0
0
0
0
0
0
0
0
0
0
0
0
0
0
0
0
0
0
0
0
0
0
0
0
0
0
0
0
0
0
0
0
0
0
0
0
0
0
0
0
0
0
0
0
0
0
0
0
0
0
0
0
0
0
0
0
0
0
0
0
0
0
0
0
0
0
0
0
0
0
0
0
0
0
0
0
0
0
0
0
0
0
0
0
0
0
0
0
0
0
0
0
0
0
0
0
0
0
0
0
0
0
0
0
0
0
0
0
0
0
0
0
0
0
0
0
0
0
0
0
0
0
0
0
0
0
0
0
0
0
0
0
0
0
0
0
0
0
0
0
0
0
0
0
0
0
0
0
0
0
0
0
0
0
0
0
0
0
0
0
0
0
0
0
0
0
0
0
0
0
0
0
0
0
0
0
0
0
0
0
0
0
0
0
0
0
0
0
0
0
0
0
0
0
0
0
0
0
0
0
0
0
0
0
0
0
0
0
0
0
0
0
0
0
0
0
0
0
0
0
0
0
0
0
0
0
0
0
0
0
0
0
0
0
0
0
0
0
0
0
0
0
0
0
0
0
0
0
0
0
0
0
0
0
0
0
0
0
0
0
0
0
0
0
0
0
0
0
0
0
0
0
0
0
0
0
0
0
0
0
0
0
0
0
0
0
0
0
0
0
0
0
0
0
0
0
0
0
0
0
0
0
0
0
0
0
0
0
0
0
0
0
0
0
0
0
0
0
0
0
0
0
0
0
0
0
0
0
0
0
0
0
0
0
0
0
0
0
0
0
0
0
0
0
0
0
0
0
0
0
0
0
0
0
0
0
0
0
0
0
0
0
0
0
0
0
0
0
0
0
0
0
0
0
0
0
0
0
0
0
0
0
0
0
0
0
0
0
0
0
0
0
0
0
0
0
0
0
0
0
0
0
0
0
0
0
0
0
0
0
0
0
0
0
0
0
0
0
0
0
0
0
0
0
0
0
0
0
0
0
0
0
0
0
0
0
0
0
0
0
0
0
0
0
0
0
0
0
0
0
0
0
0
0
0
0
0
0
0
0
0
0
0
0
0
0
0
0
0
0
0
0
0
0
0
0
0
0
0
0
0
0
0
0
0
0
0
0
0
0
0
0
0
0
0
0
0
0
0
0
0
0
0
0
0
0
0
0
0
0
0
0
0
0
0
0
0
0
0
0
0
0
0
0
0
0
0
0
0
0
0
0
0
0
0
0
0
0
0
0
0
0
0
0
0
0
0
0
0
0
0
0
0
0
0
0
0
0
0
0
0
0
0
0
0
0
0
0
0
0
0
0
0
0
0
0
0
0
0
0
0
0
0
0
0
0
0
0
0
0
0
0
0
0
0
0
0
0
0
0
0
0
0
0
0
0
0
0
0
0
0
0
0
0
0
0
0
0
0
0
0
0
0
0
0
0
0
0
0
0
0
0
0
0
0
0
0
0
0
0
0
0
0
0
0
0
0
0
0
0
0
0
0
0
0
0
0
0
0
0
0
0
0
0
0
0
0
0
0
0
0
0
0
0
0
0
0
0
0
0
0
0
0
0
0
0
0
0
0
0
0
0
0
0
0
0
0
0
0
0
0
0
0
0
0
0
0
0
0
0
0
0
0
0
0
0
0
0
0
0
0
0
0
0
0
0
0
0
0
0
0
0
0
0
0
0
0
0
0
0
0
0
0
0
0
0
0
0
0
0
0
0
0
0
0
0
0
0
0
0
0
0
0
0
0
0
0
0
0
0
0
0
0
0
0
0
0
0
0
0
0
0
0
0
0
0
0
0
0
0
0
0
0
0
0
0
0
0
0
0
0
0
0
0
0
0
0
0
0
0
0
0
0
0
0
0
0
0
0
0
0
0
0
0
0
0
0
0
0
0
0
0
0
0
0
0
0
0
0
0
0
0
0
0
0
0
0
0
0
0
0
0
0
0
0
0
0
0
0
0
0
0
0
0
0
0
0
0
0
0
0
0
0
0
0
0
0
0
0
0
0
0
0
0
0
0
0
0
0
0
0
0
0
0
0
0
0
0
0
0
0
0
0
0
0
0
0
0
0
0
0
0
0
0
0
0
0
0
0
0
0
0
0
0
0
0
0
0
0
0
0
0
0
0
0
0
0
0
0
0
0
0
0
0
0
0
0
0
0
0
0
0
0
0
0
0
0
0
0
0
0
0
0
0
0
0
0
0
0
0
0
0
0
0
0
0
0
0
0
0
0
0
0
0
0
0
0
0
0
0
0
0
0
0
0
0
0
0
0
0
0
0
0
0
0
0
0
0
0
0
0
0
0
0
0
0
0
0
0
0
0
0
0
0
0
0
0
0
0
0
0
0
0
0
0
0
0
0
0
0
0
0
0
0
0
0
0
0
0
0
0
0
0
0
0
0
0
0
0
0
0
0
0
0
0
0
0
0
0
0
0
0
0
0
0
0
0
0
0
0
0
0
0
0
0
0
0
0
0
0
0
0
0
0
0
0
0
0
0
0
0
0
0
0
0
0
0
0
0
0
0
0
0
0
0
0
0
0
0
0
0
0
0
0
0
0
0
0
0
0
0
0
0
0
0
0
0
0
0
0
0
      </DataArray> 
    </PointData>
    <CellData>
    </CellData>
  </Piece>
  </UnstructuredGrid>
</VTKFile>
