<?xml version="1.0"?>
<VTKFile type="UnstructuredGrid">
  <UnstructuredGrid>
  <Piece NumberOfPoints="31839"  NumberOfCells="15790">
    <Points>
      <DataArray type="Float64" NumberOfComponents="3" format="ascii">
499.176 4.20616 0
496.899 -25.7143 0
0 0 0
0 30 0
501.454 34.1133 0
0 60 0
109.979 28.2219 0
100.25 38.5115 0
89.9899 28.81 0
99.719 18.5192 0
209.887 24.0526 0
200.381 34.5501 0
189.916 25.0713 0
199.421 14.5728 0
309.703 18.1076 0
300.36 28.7498 0
289.751 19.4312 0
299.094 8.78849 0
409.442 11.0176 0
400.195 21.7436 0
389.504 12.5197 0
398.751 1.7935 0
498.921 0.825027 0
498.665 -2.55699 0
498.49 -4.86554 0
498.315 -7.17425 0
498.125 -9.68038 0
497.934 -12.1867 0
497.676 -15.5683 0
497.418 -18.9503 0
497.159 -22.3322 0
493.519 -25.4528 0
490.139 -25.1932 0
486.759 -24.9341 0
483.379 -24.6754 0
479.966 -24.4143 0
476.553 -24.1533 0
473.003 -23.882 0
469.454 -23.6108 0
466.04 -23.3502 0
462.628 -23.0897 0
459.215 -22.8295 0
455.802 -22.5695 0
452.39 -22.3097 0
448.978 -22.0502 0
445.566 -21.791 0
442.154 -21.5322 0
438.743 -21.2737 0
435.332 -21.0155 0
431.92 -20.7578 0
428.509 -20.5005 0
425.099 -20.2437 0
421.688 -19.9872 0
418.277 -19.7312 0
414.866 -19.4754 0
411.456 -19.2199 0
408.045 -18.9646 0
404.635 -18.7093 0
401.224 -18.4541 0
397.815 -18.1991 0
394.406 -17.9445 0
390.998 -17.6908 0
387.59 -17.4382 0
384.183 -17.1869 0
380.775 -16.937 0
377.368 -16.6884 0
373.961 -16.4409 0
370.554 -16.1947 0
367.146 -15.9494 0
363.739 -15.7052 0
360.331 -15.4619 0
356.924 -15.2196 0
353.517 -14.9783 0
350.11 -14.7379 0
346.703 -14.4986 0
343.296 -14.2604 0
339.89 -14.0232 0
336.483 -13.7872 0
333.077 -13.5523 0
329.67 -13.3185 0
326.264 -13.0859 0
322.858 -12.8545 0
319.452 -12.6242 0
316.046 -12.395 0
312.64 -12.167 0
309.233 -11.9398 0
305.827 -11.7136 0
302.422 -11.488 0
299.016 -11.2634 0
295.611 -11.0397 0
292.207 -10.8173 0
288.803 -10.5968 0
285.4 -10.3782 0
281.997 -10.1619 0
278.594 -9.94757 0
275.191 -9.73533 0
271.788 -9.525 0
268.384 -9.31647 0
264.981 -9.10969 0
261.577 -8.90461 0
258.174 -8.70125 0
254.77 -8.49958 0
251.367 -8.29964 0
247.964 -8.10145 0
244.561 -7.90502 0
241.158 -7.71039 0
237.755 -7.51759 0
234.352 -7.32663 0
230.949 -7.13755 0
227.546 -6.95037 0
224.144 -6.76511 0
220.741 -6.58177 0
217.339 -6.40035 0
213.936 -6.2208 0
210.534 -6.04302 0
207.131 -5.86687 0
203.729 -5.69226 0
200.327 -5.51906 0
196.925 -5.34743 0
193.524 -5.17773 0
190.123 -5.0103 0
186.723 -4.84564 0
183.324 -4.68381 0
179.924 -4.52493 0
176.524 -4.36888 0
173.124 -4.21553 0
169.724 -4.06477 0
166.324 -3.91649 0
162.924 -3.77067 0
159.524 -3.62725 0
156.124 -3.48628 0
152.724 -3.34772 0
149.324 -3.21163 0
145.924 -3.07801 0
142.524 -2.9469 0
139.124 -2.81832 0
135.725 -2.6923 0
132.325 -2.56887 0
128.926 -2.44806 0
125.527 -2.32989 0
122.128 -2.21439 0
118.729 -2.10159 0
115.33 -1.99143 0
111.931 -1.88387 0
108.532 -1.77876 0
105.132 -1.67589 0
101.734 -1.57516 0
98.335 -1.47652 0
94.9371 -1.38032 0
91.54 -1.28699 0
88.1434 -1.1969 0
84.7474 -1.11051 0
81.3515 -1.02774 0
77.9555 -0.948659 0
74.5594 -0.873052 0
71.1632 -0.800792 0
67.7669 -0.731784 0
64.3705 -0.665932 0
60.9742 -0.60323 0
57.5779 -0.543648 0
54.1817 -0.487213 0
50.7856 -0.433928 0
47.3896 -0.383827 0
43.9938 -0.336928 0
40.5982 -0.293259 0
37.2026 -0.252842 0
33.8073 -0.215694 0
30.412 -0.181833 0
27.0169 -0.151258 0
23.6219 -0.123964 0
20.2269 -0.0999038 0
16.8326 -0.0789978 0
13.4383 -0.0610814 0
10.0768 -0.0458803 0
6.71533 -0.0325132 0
3.35472 -0.019556 0
0 3.39077 0
0 6.78155 0
0 9.09626 0
0 11.411 0
0 13.9239 0
0 16.4369 0
0 19.8277 0
0 23.2185 0
0 26.6092 0
499.432 7.58711 0
499.688 10.9673 0
499.863 13.2749 0
500.038 15.5822 0
500.229 18.0875 0
500.419 20.5927 0
500.678 23.9731 0
500.935 27.3532 0
501.195 30.7334 0
498.074 34.3746 0
494.693 34.6346 0
491.312 34.894 0
487.931 35.1531 0
484.517 35.4145 0
481.102 35.6757 0
477.55 35.9473 0
473.998 36.2187 0
470.582 36.4796 0
467.166 36.7403 0
463.75 37.0008 0
460.334 37.2612 0
456.917 37.5213 0
453.5 37.7811 0
450.083 38.0407 0
446.666 38.3 0
443.248 38.559 0
439.831 38.8176 0
436.413 39.0759 0
432.994 39.3338 0
429.576 39.5913 0
426.158 39.8484 0
422.739 40.1053 0
419.32 40.3618 0
415.902 40.6182 0
412.483 40.8745 0
409.064 41.1308 0
405.644 41.3869 0
402.224 41.6428 0
398.803 41.8982 0
395.381 42.1528 0
391.959 42.4063 0
388.536 42.6584 0
385.113 42.9092 0
381.69 43.1588 0
378.266 43.4072 0
374.843 43.6545 0
371.419 43.9008 0
367.996 44.1462 0
364.572 44.3907 0
361.147 44.6342 0
357.723 44.8768 0
354.298 45.1184 0
350.873 45.3589 0
347.448 45.5985 0
344.022 45.837 0
340.596 46.0744 0
337.17 46.3108 0
333.744 46.546 0
330.317 46.78 0
326.89 47.013 0
323.463 47.2448 0
320.036 47.4755 0
316.609 47.7052 0
313.181 47.934 0
309.753 48.1619 0
306.325 48.3891 0
302.897 48.6153 0
299.467 48.8406 0
296.037 49.0645 0
292.606 49.2866 0
289.175 49.5068 0
285.743 49.7248 0
282.31 49.9408 0
278.878 50.1547 0
275.445 50.3668 0
272.013 50.5771 0
268.58 50.7856 0
265.147 50.9925 0
261.714 51.1976 0
258.28 51.4011 0
254.846 51.6028 0
251.412 51.8029 0
247.978 52.0011 0
244.543 52.1976 0
241.108 52.3922 0
237.673 52.585 0
234.237 52.7759 0
230.801 52.965 0
227.365 53.1521 0
223.928 53.3373 0
220.491 53.5207 0
217.054 53.7021 0
213.617 53.8818 0
210.18 54.0599 0
206.742 54.2364 0
203.304 54.4114 0
199.866 54.5848 0
196.426 54.7564 0
192.986 54.9256 0
189.545 55.0921 0
186.104 55.2558 0
182.662 55.4166 0
179.22 55.5745 0
175.778 55.7298 0
172.335 55.8824 0
168.893 56.0325 0
165.45 56.1802 0
162.007 56.3254 0
158.564 56.4682 0
155.121 56.6085 0
151.677 56.7464 0
148.234 56.8817 0
144.789 57.0145 0
141.345 57.1448 0
137.9 57.2725 0
134.455 57.3976 0
131.009 57.52 0
127.563 57.6398 0
124.117 57.7569 0
120.671 57.8713 0
117.225 57.983 0
113.778 58.092 0
110.331 58.1986 0
106.884 58.3029 0
103.437 58.4051 0
99.9895 58.5051 0
96.5411 58.6026 0
93.0917 58.6973 0
89.6416 58.7887 0
86.1908 58.8764 0
82.7397 58.9605 0
79.2885 59.0409 0
75.8372 59.1178 0
72.3858 59.1912 0
68.9344 59.2614 0
65.4829 59.3284 0
62.0313 59.3921 0
58.5794 59.4527 0
55.1274 59.5101 0
51.6751 59.5643 0
48.2226 59.6152 0
44.7699 59.6629 0
41.3169 59.7073 0
37.8636 59.7484 0
34.4102 59.7862 0
30.9565 59.8206 0
27.5027 59.8517 0
24.0486 59.8794 0
20.5945 59.9038 0
17.141 59.925 0
13.6873 59.943 0
10.2673 59.9582 0
6.84709 59.9712 0
3.42608 59.9833 0
0 56.6092 0
0 53.2185 0
0 50.9037 0
0 48.589 0
0 46.0761 0
0 43.5631 0
0 40.1723 0
0 36.7815 0
0 33.3908 0
109.937 29.5029 0
109.732 30.7678 0
109.365 31.9955 0
108.843 33.1661 0
108.175 34.2603 0
107.371 35.2601 0
106.445 36.1492 0
105.411 36.9128 0
104.287 37.5385 0
103.091 38.0159 0
101.688 38.3657 0
98.9628 38.4673 0
97.6927 38.2594 0
96.4609 37.8916 0
95.2878 37.3695 0
94.1931 36.702 0
93.1945 35.8999 0
92.3089 34.9763 0
91.5505 33.9465 0
90.932 32.8273 0
90.4631 31.6374 0
90.1241 30.2415 0
90.0624 27.3723 0
90.3396 25.9584 0
90.7544 24.7425 0
91.3201 23.5887 0
92.0268 22.5157 0
92.8634 21.5415 0
93.8155 20.6818 0
94.8681 19.9508 0
96.0036 19.3607 0
97.2037 18.9209 0
98.4489 18.6389 0
101.149 18.5807 0
102.555 18.8476 0
103.765 19.2545 0
104.913 19.8134 0
105.982 20.5154 0
106.953 21.3488 0
107.811 22.2999 0
108.541 23.3531 0
109.132 24.4912 0
109.573 25.6953 0
109.857 26.9457 0
209.871 25.3343 0
209.691 26.6035 0
209.349 27.839 0
208.852 29.0206 0
208.207 30.1291 0
207.425 31.1461 0
206.518 32.055 0
205.501 32.8407 0
204.392 33.4905 0
203.208 33.9935 0
201.815 34.3734 0
198.938 34.5202 0
197.515 34.2842 0
196.289 33.9041 0
195.123 33.3705 0
194.036 32.6921 0
193.046 31.88 0
192.169 30.9475 0
191.421 29.9101 0
190.813 28.7846 0
190.355 27.5898 0
190.054 26.3452 0
189.955 23.6323 0
190.201 22.2128 0
190.588 20.9882 0
191.128 19.8225 0
191.811 18.7345 0
192.626 17.7425 0
193.559 16.8624 0
194.597 16.1089 0
195.72 15.4943 0
196.912 15.0288 0
198.152 14.72 0
200.853 14.6034 0
202.266 14.8399 0
203.486 15.2205 0
204.647 15.7545 0
205.731 16.4333 0
206.72 17.2456 0
207.597 18.1781 0
208.349 19.2154 0
208.964 20.3405 0
209.429 21.535 0
209.739 22.7791 0
309.705 19.3896 0
309.543 20.6615 0
309.219 21.9022 0
308.739 23.0915 0
308.11 24.2098 0
307.343 25.2387 0
306.45 26.1613 0
305.446 26.9625 0
304.348 27.6292 0
303.173 28.1502 0
301.788 28.5512 0
298.918 28.7418 0
297.493 28.5274 0
296.263 28.166 0
295.089 27.6502 0
293.993 26.9883 0
292.991 26.1914 0
292.1 25.2723 0
291.335 24.2463 0
290.709 23.1302 0
290.232 21.9426 0
289.911 20.7028 0
289.767 17.9919 0
289.989 16.5688 0
290.356 15.3385 0
290.877 14.1646 0
291.543 13.0664 0
292.342 12.062 0
293.263 11.1677 0
294.289 10.3984 0
295.404 9.76666 0
296.589 9.2829 0
297.826 8.95505 0
300.529 8.79701 0
301.947 9.01186 0
303.173 9.37371 0
304.343 9.88986 0
305.437 10.552 0
306.439 11.3491 0
307.33 12.2681 0
308.098 13.2939 0
308.728 14.4097 0
309.21 15.597 0
309.537 16.8364 0
409.444 12.4566 0
409.24 13.8814 0
408.887 15.1147 0
408.379 16.2931 0
407.725 17.3972 0
406.935 18.4087 0
406.022 19.3112 0
405.001 20.0896 0
403.889 20.7315 0
402.704 21.2261 0
401.466 21.5653 0
398.756 21.7483 0
397.331 21.5465 0
396.098 21.196 0
394.921 20.6906 0
393.819 20.0385 0
392.811 19.2504 0
391.912 18.3393 0
391.137 17.3203 0
390.5 16.2099 0
390.011 15.0266 0
389.677 13.7897 0
389.506 11.0803 0
389.713 9.6554 0
390.068 8.42185 0
390.578 7.24339 0
391.233 6.13924 0
392.023 5.12767 0
392.936 4.22519 0
393.956 3.44669 0
395.066 2.80496 0
396.248 2.31051 0
397.483 1.97153 0
400.031 1.77948 0
401.302 1.92955 0
402.543 2.24142 0
403.733 2.70975 0
404.854 3.32708 0
405.887 4.083 0
406.814 4.96535 0
407.622 5.95938 0
408.295 7.04887 0
408.824 8.21586 0
409.234 9.59427 0
495.796 4.46361 0
492.416 4.72179 0
489.035 4.98037 0
485.655 5.23913 0
482.206 5.50313 0
478.758 5.76712 0
475.311 6.03098 0
471.863 6.29473 0
468.416 6.55833 0
464.968 6.82177 0
461.517 7.08528 0
458.066 7.34857 0
454.614 7.61161 0
451.163 7.8744 0
447.712 8.13689 0
444.261 8.39908 0
440.809 8.66094 0
437.358 8.92245 0
433.907 9.18358 0
430.455 9.44432 0
427.028 9.70283 0
423.6 9.96088 0
420.651 10.1825 0
417.702 10.4035 0
415.424 10.5739 0
413.146 10.7437 0
411.294 10.8811 0
3.3908 30.0007 0
6.78164 29.9966 0
10.1725 29.988 0
13.5633 29.9753 0
17.0219 29.9583 0
20.4805 29.9375 0
23.9384 29.9131 0
27.3963 29.885 0
30.8541 29.8535 0
34.3118 29.8185 0
37.7731 29.7801 0
41.2344 29.7383 0
44.6956 29.6932 0
48.1568 29.6447 0
51.6179 29.5929 0
55.079 29.5377 0
58.54 29.4793 0
62.001 29.4176 0
65.4618 29.3526 0
68.9226 29.2844 0
72.3595 29.2134 0
75.7963 29.1393 0
78.7529 29.073 0
81.7095 29.0048 0
83.9934 28.9509 0
86.2773 28.8962 0
88.1336 28.8522 0
111.77 28.1661 0
113.56 28.1103 0
115.774 28.0403 0
117.987 27.9692 0
120.917 27.8732 0
123.846 27.7752 0
127.419 27.6529 0
130.993 27.5277 0
134.626 27.3974 0
138.258 27.2641 0
142.687 27.0976 0
147.116 26.9269 0
150.749 26.7836 0
154.383 26.6375 0
158.016 26.4885 0
161.649 26.3368 0
165.281 26.1823 0
168.912 26.025 0
172.485 25.8676 0
176.057 25.7077 0
178.985 25.5747 0
181.912 25.4402 0
184.125 25.3378 0
186.337 25.235 0
188.126 25.1523 0
211.676 23.9602 0
213.464 23.8675 0
215.676 23.752 0
217.888 23.6356 0
220.815 23.4802 0
223.741 23.3232 0
227.312 23.1297 0
230.882 22.934 0
234.511 22.7329 0
238.14 22.5297 0
242.565 22.2791 0
246.99 22.0255 0
250.62 21.8151 0
254.25 21.6027 0
257.88 21.3883 0
261.51 21.172 0
265.138 20.9538 0
268.767 20.7336 0
272.336 20.5152 0
275.905 20.2949 0
278.83 20.1132 0
281.755 19.9305 0
283.965 19.7919 0
286.176 19.6532 0
287.963 19.5415 0
311.49 17.9899 0
313.277 17.8716 0
315.487 17.7246 0
317.697 17.5768 0
320.621 17.3803 0
323.545 17.1828 0
327.113 16.9405 0
330.68 16.6969 0
334.307 16.4479 0
337.933 16.1977 0
342.354 15.8909 0
346.775 15.5823 0
350.403 15.3277 0
354.03 15.072 0
357.657 14.8151 0
361.284 14.5571 0
364.909 14.2981 0
368.535 14.038 0
372.101 13.781 0
375.668 13.5231 0
378.591 13.3111 0
381.514 13.0986 0
383.723 12.9379 0
385.932 12.7772 0
387.718 12.6478 0
399.673 -5.75607 0
22.3836 14.0254 0
386.993 -6.65591 0
411.632 -0.383967 0
414.876 4.32538 0
212.344 18.5177 0
312.523 12.2727 0
201.782 6.87373 0
304.974 -5.22449 0
297.341 1.35175 0
83.759 26.7931 0
183.993 22.5468 0
283.76 17.0274 0
383.47 10.4313 0
388.312 10.4159 0
410.91 9.35933 0
288.513 17.2319 0
188.732 22.8538 0
88.8239 26.6901 0
289.187 -2.09073 0
292.926 2.27433 0
338.012 9.86822 0
415.262 -9.74546 0
313.307 -2.20854 0
280.94 6.59924 0
492.6 -18.5007 0
4.83108 23.0916 0
115.23 8.28957 0
116.978 21.7583 0
492.094 0.218761 0
6.75081 4.49569 0
396.582 -14.8649 0
294.093 -8.09736 0
193.405 -2.33583 0
100.167 1.11616 0
104.453 6.71099 0
97.9048 6.46915 0
107.571 8.13963 0
115.885 11.5621 0
196.374 3.05235 0
294.823 -2.71353 0
314.514 0.877302 0
397.84 -9.22093 0
291.04 0.340973 0
400.591 -8.32077 0
113.426 25.4478 0
213.878 20.0904 0
314.047 13.9406 0
311.173 13.658 0
312.632 16.2136 0
310.599 15.0766 0
310.845 16.3318 0
211.146 19.787 0
212.713 22.2737 0
210.695 21.1075 0
210.924 22.3662 0
111.787 24.7617 0
112.783 27.066 0
110.79 25.8587 0
110.993 27.1218 0
7.12882 25.2005 0
5.58836 27.8436 0
2.19758 24.4551 0
2.19949 27.846 0
494.08 -1.86428 0
496.701 -1.07804 0
493.576 2.56127 0
496.957 2.30329 0
490.111 -20.4463 0
491.49 -23.15 0
495.129 -20.0288 0
494.87 -23.4101 0
4.6082 6.41211 0
2.07787 5.43713 0
5.43511 2.02834 0
2.07452 2.0429 0
336.63 7.17609 0
155.517 18.3608 0
149.363 17.4976 0
146.863 21.8698 0
143.78 17.8045 0
333.712 5.38668 0
428.226 -4.28289 0
330.768 8.78855 0
269.688 2.42123 0
270.656 5.29468 0
267.772 4.88867 0
263.986 3.70592 0
14.864 11.6612 0
439.075 -5.82088 0
431.988 -3.38195 0
137.351 19.2652 0
162.587 18.5274 0
260.921 13.3579 0
274.318 5.87101 0
275.393 3.43448 0
277.445 0.780039 0
277.141 6.47814 0
280.476 3.10137 0
76.2716 14.9824 0
178.03 10.6265 0
139.604 23.0309 0
144.029 22.8631 0
149.618 22.5559 0
153.248 22.4107 0
156.653 22.588 0
160.283 22.4373 0
239.981 18.3231 0
259.391 17.2747 0
332.527 13.1552 0
336.152 12.9056 0
339.793 13.1603 0
344.213 12.8528 0
344.668 10.0308 0
347.23 12.7604 0
350.856 12.5057 0
359.672 10.3596 0
356.046 10.6171 0
352.641 9.77179 0
349.469 7.20474 0
346.161 7.14492 0
343.146 7.23691 0
340.269 7.43082 0
255.763 17.4899 0
251.978 17.7308 0
248.35 17.9419 0
244.403 18.0712 0
361.761 6.56686 0
354.657 5.31657 0
347.946 4.41136 0
341.762 4.54531 0
253.491 13.6178 0
245.763 13.9874 0
238.133 14.4529 0
59.7819 17.3867 0
482.59 -9.26397 0
369.437 -1.97766 0
360.253 2.23651 0
356.325 2.26537 0
352.923 1.41987 0
349.419 1.336 0
346.112 1.27605 0
342.702 1.48981 0
339.827 1.68354 0
335.969 2.94991 0
259.221 9.38654 0
255.054 9.61307 0
251.273 9.85349 0
247.392 10.0079 0
243.45 10.1365 0
239.314 10.2425 0
230.288 6.77728 0
161.011 14.6674 0
157.459 14.6324 0
154.06 14.4555 0
150.81 14.3729 0
148.059 13.687 0
144.922 13.8584 0
142.093 14.8509 0
138.788 15.3104 0
72.4931 14.6392 0
68.8191 14.4895 0
65.2799 14.4362 0
61.8206 14.3981 0
58.3879 14.3556 0
474.676 -9.06136 0
478.322 -9.13753 0
467.642 -8.66456 0
471.135 -8.80588 0
460.873 -8.4645 0
464.329 -8.46321 0
457.995 -8.43512 0
15.5133 15.2728 0
19.0254 15.6535 0
48.8399 13.9949 0
51.6937 14.1496 0
55.1003 14.346 0
224.152 8.54988 0
227.447 7.46733 0
425.107 -4.25499 0
328.869 0.951964 0
330.109 4.56204 0
480.893 -12.3857 0
473.084 -12.0039 0
466.231 -11.5471 0
460.04 -11.3164 0
454.319 -9.26067 0
431.139 -6.28458 0
423.779 -7.16462 0
372.442 -4.70555 0
365.633 -3.35797 0
358.517 -1.65952 0
351.088 -1.71479 0
344.176 -1.58514 0
336.91 -0.10529 0
257 5.62358 0
248.957 6.00392 0
240.945 6.26383 0
233.829 5.05406 0
228.009 4.42883 0
221.618 5.92513 0
180.531 8.1508 0
174.307 9.14629 0
159.55 10.763 0
152.753 10.6456 0
146.371 10.7343 0
139.934 11.3648 0
78.717 12.1412 0
71.0092 11.5942 0
63.8819 11.4066 0
57.1406 11.3592 0
51.004 11.1952 0
45.2626 12.8909 0
483.595 -5.70319 0
476.372 -5.93947 0
469.233 -5.72191 0
462.284 -5.58183 0
447.363 -6.74613 0
455.153 -6.40864 0
425.955 -1.35211 0
16.0079 18.3322 0
22.8844 17.0844 0
30.197 15.3353 0
38.2608 14.9788 0
45.9478 15.8461 0
52.9371 17.1474 0
66.7594 17.4828 0
74.0827 17.8799 0
126.823 13.3041 0
133.2 12.3171 0
135.194 15.7779 0
164.677 14.6568 0
167.173 10.7433 0
174.97 12.1691 0
226.43 10.8993 0
233.27 8.09288 0
235.631 10.5788 0
262.866 9.36744 0
264.95 6.58013 0
272.402 8.33927 0
363.953 2.64143 0
366.248 -0.307751 0
124.395 10.0898 0
124.904 17.0671 0
373.871 1.81099 0
373.06 -1.65568 0
421.508 -4.23418 0
325.925 4.35284 0
328.921 12.3304 0
486.166 -8.95146 0
11.8473 14.3373 0
488.772 -11.0341 0
488.761 -14.2031 0
486.272 -16.149 0
482.787 -15.5381 0
478.519 -15.4117 0
474.897 -15.1154 0
471.356 -14.86 0
467.887 -14.5939 0
464.574 -14.3926 0
461.293 -14.1084 0
458.415 -14.079 0
455.038 -13.3445 0
452.196 -11.3182 0
448.872 -10.5914 0
444.758 -10.1035 0
441.178 -10.0203 0
437.004 -9.58321 0
433.303 -9.51231 0
429.542 -10.4132 0
425.939 -10.3991 0
422.341 -10.3783 0
418.772 -10.1297 0
377.432 -7.64367 0
373.72 -7.37426 0
370.099 -7.69617 0
366.491 -7.40324 0
363.304 -5.73396 0
360.021 -5.17383 0
356.096 -5.14527 0
352.595 -4.95615 0
349.093 -5.04028 0
345.639 -4.82613 0
342.231 -4.61262 0
338.698 -4.19429 0
334.842 -2.92828 0
331.182 -2.59508 0
327.001 -2.80407 0
323.401 -2.68309 0
319.871 -2.78155 0
316.417 -2.54054 0
279.704 -0.15977 0
274.624 0.172903 0
270.875 -0.176708 0
267.993 -0.582846 0
264.59 -0.361805 0
261.77 1.32867 0
258.413 1.81638 0
254.252 2.04223 0
250.61 2.23565 0
246.734 2.38954 0
243.111 2.52835 0
238.98 2.63391 0
235.634 2.54306 0
232.653 1.22818 0
229.326 1.32557 0
226.488 2.01523 0
223.151 2.35342 0
219.601 3.15953 0
216.156 3.22389 0
212.508 2.61154 0
181.89 5.36491 0
178.726 4.81895 0
175.352 5.17168 0
172.296 6.7131 0
168.924 6.99725 0
164.854 7.05184 0
161.328 7.09156 0
157.781 7.05661 0
154.407 7.08454 0
151.162 7.00201 0
147.838 7.10554 0
144.706 7.27666 0
141.359 7.51943 0
138.059 7.97851 0
134.598 8.36467 0
131.17 8.85743 0
127.339 9.596 0
121.945 8.95862 0
118.317 8.26191 0
80.5679 9.01932 0
76.5348 8.62211 0
72.92 8.53886 0
69.2523 8.38943 0
65.7891 8.38882 0
62.3355 8.35093 0
58.9538 8.38754 0
55.6717 8.37827 0
52.3646 8.42996 0
49.5152 8.27556 0
46.14 8.83832 0
43.2511 10.6881 0
39.9333 11.2549 0
35.8284 11.4914 0
32.2581 11.3885 0
28.308 11.5082 0
24.6589 11.163 0
20.8053 9.73335 0
17.2487 9.21054 0
13.5885 8.27671 0
10.2757 7.81417 0
9.08766 16.1288 0
8.88074 19.2232 0
484.918 -2.7617 0
488.311 -2.67689 0
477.891 -2.97614 0
481.342 -3.07422 0
470.734 -2.7343 0
474.245 -2.89991 0
463.769 -2.44489 0
467.241 -2.59294 0
456.798 -2.4548 0
460.313 -2.44615 0
441.703 -2.32632 0
445.367 -2.69787 0
449.481 -3.18597 0
453.123 -3.28035 0
434.174 -1.16466 0
437.528 -1.88903 0
427.702 1.37139 0
431.261 0.837319 0
424.582 1.39933 0
11.1783 21.3291 0
14.5745 21.035 0
18.0925 21.4169 0
21.6052 21.07 0
24.9679 19.4402 0
28.4258 19.1252 0
32.3846 19.0053 0
36.0538 18.8949 0
40.1673 18.6581 0
43.7885 18.8197 0
47.371 19.9245 0
50.8417 20.1537 0
54.2537 20.3507 0
57.7328 20.386 0
61.171 20.4289 0
64.606 20.4282 0
68.1508 20.4819 0
71.7933 20.6078 0
127.853 16.5731 0
131.76 16.271 0
136.004 23.4988 0
163.955 22.427 0
168.754 14.6021 0
172.481 14.9694 0
225.139 14.4313 0
228.438 13.3484 0
232.086 12.3027 0
236.293 18.6598 0
263.04 17.2553 0
266.654 10.5503 0
270.635 11.177 0
363.374 10.7644 0
367.759 4.02191 0
371.456 4.34678 0
95.6541 5.01489 0
96.7665 1.21387 0
107.827 2.09271 0
109.518 5.4293 0
194.321 1.68671 0
196.808 -2.50565 0
209.221 2.56303 0
292.969 -5.14402 0
321.155 0.644185 0
321.767 3.98777 0
379.917 -5.6781 0
381.283 -8.93809 0
121.425 12.6664 0
121.811 15.7152 0
220.598 9.35653 0
376.877 -0.917679 0
379.366 -2.76743 0
75.5777 20.9513 0
176.207 16.4503 0
274.3 11.753 0
375.275 5.08503 0
399.992 -15.12 0
80.3122 15.3801 0
181.198 11.1731 0
409.036 -9.28006 0
412.065 -9.47274 0
416.67 -6.75964 0
417.91 -4.05545 0
419.237 -1.14551 0
420.658 1.83232 0
122.836 18.9849 0
220.378 13.0856 0
222.031 15.1516 0
323.004 7.59858 0
324.47 10.3401 0
490.297 -4.7601 0
489.776 -7.47322 0
8.13234 9.73107 0
8.44546 12.5173 0
492.371 -12.7251 0
489.871 -17.84 0
483.897 -19.1748 0
476.79 -18.2676 0
469.699 -17.7053 0
462.949 -17.1551 0
456.291 -16.1364 0
449.59 -14.6753 0
442.687 -13.8655 0
435.407 -13.7115 0
428.103 -13.6265 0
420.932 -13.3639 0
414.167 -12.8426 0
407.762 -11.8545 0
382.26 -11.2983 0
375.087 -10.6335 0
367.769 -10.0716 0
360.881 -9.21904 0
354.1 -8.4701 0
347.147 -8.06709 0
340.162 -7.43482 0
332.972 -6.68344 0
325.714 -6.22922 0
318.663 -5.86702 0
311.679 -5.18891 0
297.498 -8.32064 0
286.798 -4.51548 0
280.156 -3.30061 0
272.927 -2.8302 0
265.777 -2.95927 0
259.02 -2.25138 0
252.026 -1.57092 0
244.766 -1.23913 0
237.801 -1.19129 0
231.131 -1.18455 0
224.47 -0.749147 0
217.691 -0.346945 0
210.962 -0.331389 0
183.253 1.97986 0
176.714 2.38697 0
169.973 3.02316 0
163.081 3.34658 0
156.187 3.41401 0
149.494 3.54537 0
142.828 3.89147 0
136.026 4.5201 0
128.74 5.64457 0
121.285 5.6867 0
114.787 4.94271 0
81.917 5.51199 0
74.7736 5.41917 0
67.702 5.33524 0
60.863 5.3714 0
54.1798 5.45989 0
47.5031 6.0743 0
40.8161 7.20291 0
33.9347 7.66613 0
26.723 7.21795 0
19.5242 6.35021 0
12.6602 5.36532 0
7.20885 6.81974 0
5.4754 17.3999 0
7.56134 22.6016 0
491.437 -2.04624 0
486.058 -0.0479314 0
479.214 -0.0345894 0
472.253 0.229158 0
465.27 0.542851 0
458.283 0.682287 0
443.82 1.23411 0
451.126 0.768077 0
436.802 2.33021 0
429.888 3.58891 0
422.404 4.55617 0
13.2601 24.4161 0
20.175 23.7747 0
27.152 23.1122 0
34.2866 22.6865 0
41.5847 22.7378 0
48.6835 23.1291 0
55.6391 23.3943 0
62.5586 23.4294 0
69.6413 23.5553 0
77.2631 24.1863 0
122.708 21.769 0
129.844 20.0353 0
132.375 23.6303 0
167.583 22.2708 0
169.985 18.8845 0
177.681 19.5558 0
224.037 17.6017 0
230.797 15.8356 0
232.666 18.8619 0
266.667 17.0362 0
268.55 13.9654 0
276.937 14.4974 0
366.999 10.5048 0
369.161 7.29661 0
376.933 7.8538 0
100.19 5.63261 0
100.902 3.38985 0
105.163 4.46801 0
105.714 8.01709 0
198.495 2.52735 0
199.209 0.00963696 0
204.702 -0.348431 0
206.406 2.02795 0
297.234 -3.09948 0
298.889 -5.53737 0
315.937 2.85883 0
318.235 3.88884 0
383.22 -4.06227 0
89.0786 5.87253 0
189.186 2.48136 0
214.415 6.11926 0
385.388 -5.00052 0
384.747 -9.33389 0
389.011 -11.8273 0
395.528 -11.8733 0
84.1032 9.02858 0
87.3984 8.28759 0
117.199 13.5662 0
119.358 14.5832 0
185.061 5.31038 0
187.88 4.68996 0
215.877 8.66407 0
217.844 10.4599 0
283.187 -0.980387 0
286.025 -1.69553 0
380.179 0.699014 0
79.5523 21.4561 0
81.2963 18.838 0
180.171 16.7539 0
181.728 14.5983 0
278.704 11.6587 0
279.866 9.03624 0
283.201 5.65861 0
379.348 5.31729 0
380.919 3.19187 0
401.655 -11.4625 0
83.7414 15.9945 0
184.23 12.1214 0
405.827 -8.56474 0
410.13 -6.18305 0
414.4 -3.6714 0
417.06 2.01091 0
415.428 6.34502 0
119.611 20.4161 0
216.708 16.8447 0
219.274 16.2553 0
317.477 10.2789 0
320.31 9.97459 0
492.902 -6.84261 0
5.37461 11.5208 0
495.348 -8.36511 0
495.158 -10.8712 0
495.147 -14.0406 0
494.889 -17.4221 0
488.761 -22.4894 0
485.38 -22.2305 0
481.896 -21.6197 0
478.483 -21.3586 0
474.861 -21.0623 0
471.311 -20.791 0
467.842 -20.5251 0
464.429 -20.2645 0
461.148 -19.9803 0
457.735 -19.7201 0
454.359 -18.9858 0
450.946 -18.7261 0
447.623 -17.9995 0
444.211 -17.7403 0
440.631 -17.6573 0
437.219 -17.3989 0
433.519 -17.3281 0
430.108 -17.0706 0
426.505 -17.0565 0
423.094 -16.7999 0
419.526 -16.5513 0
416.115 -16.2954 0
412.919 -16.0226 0
409.508 -15.7672 0
406.299 -15.0518 0
402.889 -14.7964 0
393.353 -14.9529 0
389.944 -14.6994 0
386.657 -14.5663 0
383.249 -14.3153 0
379.787 -13.92 0
376.379 -13.6718 0
372.669 -13.4027 0
369.261 -13.1568 0
365.655 -12.8642 0
362.247 -12.6203 0
358.966 -12.0605 0
355.558 -11.8186 0
352.059 -11.6298 0
348.652 -11.3898 0
345.199 -11.1759 0
341.791 -10.9381 0
338.261 -10.52 0
334.853 -10.2844 0
331.196 -9.95133 0
327.788 -9.71815 0
324.191 -9.597 0
320.784 -9.36624 0
317.331 -9.12497 0
313.924 -8.89647 0
310.395 -8.45932 0
306.988 -8.23272 0
303.814 -8.70517 0
300.408 -8.48002 0
291.084 -7.86409 0
287.679 -7.64406 0
284.52 -7.24974 0
281.115 -7.03388 0
277.635 -6.21426 0
274.23 -6.00257 0
270.484 -6.35259 0
267.079 -6.14472 0
263.679 -5.9242 0
260.274 -5.71975 0
256.92 -5.23279 0
253.515 -5.03171 0
249.878 -4.83883 0
246.473 -4.64135 0
242.854 -4.50282 0
239.45 -4.30905 0
236.107 -4.39983 0
232.702 -4.20973 0
229.378 -4.11242 0
225.974 -3.92608 0
222.64 -3.58823 0
219.236 -3.4057 0
215.794 -3.34167 0
212.39 -3.16292 0
209.106 -3.2115 0
205.702 -3.03598 0
202.729 -3.00456 0
199.326 -2.8317 0
191.038 -0.986345 0
188.274 -1.54248 0
184.872 -1.37927 0
181.706 -1.3247 0
178.304 -1.16719 0
174.935 -0.814619 0
171.532 -0.662492 0
168.166 -0.378864 0
164.763 -0.23169 0
161.243 -0.192208 0
157.84 -0.0499553 0
154.471 -0.0221441 0
151.069 0.115266 0
147.75 0.218616 0
144.347 0.351131 0
141.005 0.593584 0
137.603 0.721083 0
134.148 1.10691 0
130.746 1.22919 0
126.921 1.96755 0
123.519 2.08421 0
119.896 1.38832 0
116.494 1.49942 0
113.624 1.45214 0
110.222 1.55847 0
105.87 0.597498 0
102.469 0.698744 0
93.8249 2.42097 0
90.4247 2.5135 0
86.7978 2.16196 0
83.3984 2.24697 0
79.8699 2.23716 0
76.4706 2.31469 0
72.8625 2.23135 0
69.4632 2.30198 0
66.006 2.30146 0
62.6068 2.3657 0
59.2308 2.40246 0
55.8318 2.46046 0
52.5301 2.51221 0
49.1313 2.56399 0
45.7616 3.12656 0
42.3625 3.17196 0
39.0518 3.73809 0
35.6525 3.77708 0
32.09 3.67375 0
28.6911 3.706 0
25.0498 3.36087 0
21.6515 3.38632 0
18.1009 2.86399 0
14.704 2.88302 0
11.3956 2.42122 0
8.03261 2.43519 0
2.84181 12.8597 0
2.84377 15.3736 0
2.63124 18.4661 0
2.63358 21.8574 0
487.553 2.63799 0
490.933 2.37932 0
480.711 2.8172 0
484.16 2.5532 0
473.813 3.17912 0
477.261 2.9153 0
466.855 3.60827 0
470.303 3.34474 0
459.932 4.01974 0
463.383 3.75633 0
452.966 4.27403 0
456.417 4.01111 0
445.872 4.63079 0
449.323 4.36845 0
438.757 5.26409 0
442.208 5.00244 0
431.952 6.24952 0
435.403 5.98863 0
424.964 7.04197 0
428.392 6.78374 0
418.091 7.69624 0
421.039 7.47509 0
8.32214 27.3531 0
11.7104 27.3426 0
15.1127 27.0484 0
18.5683 27.0296 0
22.0869 26.6825 0
25.5414 26.6564 0
29.0066 26.341 0
32.4609 26.3078 0
36.1377 26.1973 0
39.5955 26.1572 0
43.2243 26.3191 0
46.6822 26.2721 0
50.1588 26.5018 0
53.617 26.4481 0
57.1017 26.4839 0
60.56 26.4236 0
64.0003 26.4233 0
67.4585 26.3565 0
71.1062 26.4828 0
74.5409 26.4099 0
78.5198 26.9151 0
81.4755 26.8469 0
121.662 25.4882 0
124.89 24.056 0
128.461 23.9328 0
171.316 22.6385 0
174.886 22.4794 0
178.854 22.7836 0
181.781 22.6492 0
222.334 20.8226 0
225.445 20.1023 0
229.013 19.9077 0
270.65 17.6625 0
274.218 17.4432 0
278.625 17.3487 0
281.549 17.166 0
322.66 14.9497 0
326.227 14.7077 0
370.698 10.8297 0
374.263 10.5721 0
378.338 10.8045 0
381.26 10.592 0
102.495 5.2152 0
201.015 2.20056 0
203.43 2.05968 0
300.144 -3.2591 0
302.489 -3.09762 0
316.546 6.20261 0
315.952 8.6113 0
384.838 -2.08924 0
91.031 8.63816 0
103.045 8.76422 0
102.412 11.2332 0
190.647 5.24613 0
202.717 4.57721 0
207.949 4.97144 0
212.226 8.05175 0
300.833 -0.659726 0
301.645 1.33413 0
305.664 -2.62515 0
313.654 7.58089 0
387.969 -9.01683 0
391.258 -9.15056 0
394.61 -9.30827 0
85.7446 14.3817 0
86.0535 11.797 0
117.581 16.6153 0
117.111 18.9744 0
186.136 10.5101 0
186.519 8.0765 0
215.654 12.3932 0
215.175 15.2724 0
285.363 4.17688 0
285.575 1.4459 0
383.409 1.34161 0
385.058 -0.16577 0
387.228 -1.10423 0
84.448 24.6312 0
82.9872 22.0711 0
184.597 20.2485 0
183.206 17.7027 0
284.308 14.718 0
282.506 11.7791 0
285.831 7.67476 0
384.063 8.19934 0
382.579 5.96015 0
114.661 22.5945 0
214.26 17.9279 0
314.582 11.6572 0
91.4473 11.1607 0
93.1264 8.74369 0
94.9592 7.67703 0
95.3777 10.1988 0
99.4977 8.2948 0
101.151 9.92691 0
104.338 11.938 0
106.164 10.1934 0
109.969 7.60583 0
112.356 8.24154 0
110.409 10.9526 0
114.108 13.5932 0
191.19 7.52238 0
192.496 5.31279 0
194.004 4.40327 0
194.549 6.67882 0
198.179 5.24355 0
199.618 6.88381 0
204.199 6.7327 0
206.113 6.21384 0
208.93 6.74907 0
210.183 7.59438 0
208.346 8.83715 0
211.643 10.1401 0
291.812 -2.47962 0
296.077 -0.4348 0
299.3 1.17285 0
303.475 1.59976 0
305.011 0.288597 0
307.497 -1.83824 0
309.776 -1.77165 0
309.123 1.14229 0
312.826 3.19061 0
312.346 5.96157 0
388.911 -2.22311 0
388.612 -4.68357 0
393.569 -6.49727 0
403.489 -7.99764 0
86.7351 17.8394 0
89.0443 13.6396 0
90.9504 12.8725 0
102.443 13.1005 0
113.412 16.2568 0
114.95 17.9568 0
186.671 13.9356 0
188.959 9.88929 0
190.766 9.16189 0
201.099 9.03923 0
211.757 11.8583 0
213.208 13.4764 0
288.203 3.46089 0
290.299 2.66401 0
301.942 3.43215 0
385.799 2.3272 0
389.131 -0.299465 0
404.762 -5.42352 0
86.1927 22.0121 0
87.2036 20.0273 0
113.023 21.9089 0
186.154 18.0923 0
187.102 16.1692 0
211.53 17.6248 0
285.47 12.0951 0
286.322 10.0454 0
288.486 8.563 0
311.709 11.375 0
385.634 6.07366 0
386.469 4.17114 0
405.422 -3.5661 0
407.363 -2.89583 0
410.393 -3.08816 0
413.456 1.34726 0
113.206 24.1877 0
117.164 24.0372 0
118.735 25.5847 0
218.361 18.9113 0
219.408 20.9789 0
318.941 13.021 0
319.737 15.1469 0
93.048 12.9777 0
94.8607 12.4012 0
96.6947 11.3335 0
98.863 10.7638 0
106.197 12.0612 0
108.056 12.5433 0
110.444 13.18 0
112.1 14.2517 0
192.617 9.22829 0
194.247 8.70205 0
195.756 7.79178 0
197.495 7.40941 0
205.179 8.51045 0
206.935 9.59635 0
208.189 10.442 0
209.712 11.4009 0
294.93 1.73822 0
305.308 2.38674 0
307.057 2.89605 0
309.337 2.96287 0
310.924 3.97971 0
390.515 -3.87938 0
392.52 -4.50271 0
395.873 -4.66136 0
397.609 -4.85079 0
89.2081 18.4131 0
90.5373 17.2934 0
90.6454 15.4581 0
92.4449 16.5251 0
101.055 14.3317 0
102.982 15.0366 0
112.939 18.6156 0
112.285 20.4868 0
110.748 18.7863 0
189.01 14.5571 0
190.308 13.411 0
190.386 11.5962 0
192.117 12.6829 0
199.94 10.6018 0
202.105 10.5916 0
211.275 14.7374 0
210.949 16.463 0
209.498 14.8448 0
289.885 7.41186 0
290.09 5.39549 0
291.981 6.61416 0
300.601 4.81876 0
302.431 5.08425 0
311.75 8.36999 0
311.25 10.1764 0
309.942 8.5569 0
388.118 2.66334 0
389.351 1.49344 0
391.034 0.373961 0
403.084 -2.99903 0
88.6691 22.5871 0
110.829 22.0795 0
188.496 18.7148 0
209.751 17.7321 0
288.127 12.9842 0
290.378 9.78265 0
309.9 11.5617 0
387.955 6.41045 0
405.684 -0.471665 0
409.449 1.92991 0
411.824 5.68079 0
496.044 -3.34332 0
495.869 -5.65171 0
2.53179 7.75899 0
2.53356 10.0751 0
412.761 9.22201 0
415.039 9.05226 0
86.9674 26.7341 0
114.203 26.4918 0
116.416 26.4215 0
186.942 22.9366 0
214.629 21.684 0
216.841 21.568 0
286.725 17.3436 0
314.693 15.5984 0
316.902 15.4509 0
386.526 10.5453 0
93.8797 15.8593 0
94.3654 14.1132 0
98.3475 12.9657 0
99.3755 14.3949 0
104.611 15.4053 0
106.23 14.2882 0
109.745 15.8431 0
109.54 17.6832 0
193.502 12.0053 0
193.825 10.3417 0
197.195 9.43225 0
198.332 10.6942 0
203.693 10.9876 0
205.021 10.1151 0
208.301 12.1602 0
208.351 13.7965 0
293.502 5.93618 0
294.19 4.06156 0
298.153 3.34577 0
299.024 4.84733 0
303.994 5.38755 0
305.521 4.20714 0
308.856 5.73357 0
308.706 7.58741 0
392.442 -0.404315 0
392.819 -2.04247 0
396.56 -2.85612 0
400.36 -3.9512 0
401.339 -2.87082 0
95.6932 15.2818 0
97.206 14.9653 0
106.471 15.8882 0
107.884 16.6106 0
195.133 11.4783 0
196.592 11.0773 0
205.45 12.0737 0
206.828 12.8373 0
295.506 5.39938 0
297.065 5.02668 0
305.743 5.89698 0
307.12 6.57032 0
394.447 -1.0285 0
395.948 -1.48204 0
397.684 -1.67183 0
399.275 -1.96541 0
91.0095 19.4814 0
93.774 17.6946 0
96.7218 16.7112 0
99.9141 16.3309 0
103.223 16.6363 0
106.264 17.728 0
108.884 19.5541 0
190.743 15.6447 0
193.427 13.82 0
196.271 12.7405 0
199.338 12.2465 0
202.533 12.55 0
205.499 13.7098 0
208.024 15.5219 0
293.298 7.95265 0
296.377 6.90121 0
299.513 6.49946 0
302.653 6.77399 0
305.592 7.75065 0
308.205 9.3936 0
390.022 3.33738 0
392.662 1.38845 0
395.572 0.156004 0
398.664 -0.591525 0
401.999 -1.0136 0
88.9981 25.2647 0
89.4882 24.0813 0
90.4998 22.0948 0
91.2704 21.0725 0
92.6008 19.9513 0
93.6022 19.1565 0
95.0378 18.4897 0
96.2055 17.9746 0
97.7183 17.6576 0
98.9768 17.4566 0
100.656 17.3932 0
102.075 17.5576 0
103.704 17.9263 0
104.883 18.4095 0
106.296 19.1322 0
107.316 19.9 0
108.523 21.0036 0
109.317 22.0054 0
110.054 23.4279 0
110.57 24.5984 0
188.874 21.4249 0
189.337 20.231 0
190.286 18.3065 0
191.034 17.2676 0
192.333 16.1203 0
193.318 15.304 0
194.704 14.6256 0
195.861 14.0855 0
197.32 13.684 0
198.575 13.4559 0
200.182 13.3632 0
201.606 13.4969 0
203.194 13.8929 0
204.385 14.3505 0
205.762 15.1141 0
206.799 15.8598 0
207.946 16.9082 0
208.76 17.893 0
209.34 19.0549 0
209.88 20.2145 0
288.632 15.8009 0
289.076 14.5999 0
289.928 12.549 0
290.66 11.4986 0
292.06 10.3465 0
293.032 9.51509 0
294.554 8.83642 0
295.704 8.27865 0
297.262 7.90561 0
298.515 7.65829 0
300.092 7.6295 0
301.519 7.74125 0
303.081 8.04441 0
304.28 8.48365 0
305.656 9.15693 0
306.704 9.88677 0
307.94 10.8563 0
308.769 11.8288 0
309.228 13.0273 0
309.785 14.1788 0
388.416 8.98392 0
388.848 7.77867 0
389.684 5.87521 0
390.406 4.81805 0
391.639 3.64732 0
392.605 2.80721 0
394.013 2.02831 0
395.159 1.46027 0
396.66 1.00642 0
397.912 0.747851 0
399.502 0.45408 0
400.778 0.522122 0
402.522 0.393639 0
403.739 0.783971 0
405.679 1.45403 0
406.757 2.14104 0
408.579 3.87207 0
409.447 4.8106 0
409.999 6.8299 0
410.6 7.95839 0
412.377 7.70038 0
411.272 3.66118 0
407.625 0.198725 0
403.744 -1.14177 0
400.254 -0.88513 0
397.073 -0.297779 0
394.07 0.609637 0
391.254 2.16682 0
388.789 4.50734 0
387.119 8.31303 0
310.359 12.7603 0
309.441 10.363 0
306.969 8.424 0
304.216 7.07731 0
301.09 6.47083 0
297.936 6.52822 0
294.819 7.27402 0
291.777 8.63061 0
288.979 10.9337 0
287.274 15.0338 0
210.331 18.8939 0
209.171 16.5701 0
206.877 14.4734 0
204.121 12.9461 0
200.945 12.1541 0
197.73 12.3391 0
194.812 13.1417 0
192.041 14.4976 0
189.444 16.7907 0
187.546 20.6378 0
111.567 23.5015 0
110.093 20.6571 0
107.677 18.4504 0
104.852 17.0051 0
101.594 16.2676 0
98.2345 16.3943 0
95.2087 17.0278 0
92.3383 18.3604 0
89.6789 20.601 0
87.656 24.5716 0
398.296 -3.04578 0
394.824 -2.66661 0
307.27 4.7165 0
296.194 3.52481 0
206.778 11.201 0
195.455 9.81484 0
108.089 14.7704 0
96.1783 13.5357 0
402.424 -4.85635 0
390.814 -1.41896 0
310.443 6.75046 0
303.772 3.69776 0
300.112 3.1666 0
292.186 4.59762 0
209.824 13.119 0
203.264 9.02897 0
198.934 9.04942 0
192.194 10.8679 0
111.403 16.9149 0
104.37 13.8054 0
100.516 12.3955 0
92.552 14.6897 0
316.107 13.3248 0
215.794 19.5001 0
114.845 24.8733 0
5.06422 8.73506 0
493.423 -4.12938 0
387.447 0.81931 0
313.058 9.98923 0
287.993 6.19206 0
212.727 16.3552 0
188.577 12.3231 0
114.477 20.3153 0
88.7378 16.2247 0
396.922 -6.65599 0
390.216 -6.33976 0
311.403 1.20869 0
306.844 1.07551 0
293.666 -0.0489529 0
209.599 9.68255 0
207.093 7.99154 0
196.057 5.76865 0
193.04 7.58864 0
112.796 11.588 0
108.022 10.3159 0
97.2108 9.13113 0
93.544 11.2658 0
321.775 12.7163 0
220.927 18.3213 0
119.481 23.1998 0
415.64 -0.967157 0
413.16 -6.37565 0
407.1 -5.9905 0
384.149 3.83441 0
283.667 9.15603 0
184.762 15.5463 0
84.7296 19.4517 0
288.413 0.729508 0
213.688 10.5969 0
189.34 7.45511 0
115.422 15.5977 0
89.3507 11.0541 0
404.553 -11.1391 0
387.008 -3.02783 0
314.248 5.17226 0
308.149 -4.75238 0
303.178 -0.498443 0
298.488 -0.821259 0
289.959 -4.91117 0
210.766 5.50596 0
205.134 4.43593 0
200.301 4.71797 0
191.952 3.03667 0
111.915 4.89437 0
104.306 10.0704 0
101.784 7.45773 0
92.7093 6.22119 0
381.007 8.08556 0
281.343 14.4016 0
181.648 19.8582 0
81.241 24.6891 0
382.669 -1.15138 0
282.735 2.16053 0
217.621 14.1886 0
183.698 8.69552 0
119.742 17.6318 0
82.7546 12.536 0
392.298 -11.9614 0
385.723 -11.6945 0
318.845 7.23234 0
301.799 -5.69719 0
201.728 -0.317288 0
103.206 2.97216 0
372.859 7.62095 0
272.532 14.5908 0
227.147 16.8804 0
173.716 19.2505 0
125.933 20.3356 0
73.2867 23.6796 0
65.9964 23.4274 0
59.121 23.4283 0
52.1573 23.3571 0
45.2102 22.8979 0
37.9597 22.5741 0
30.6135 22.7951 0
23.69 23.4258 0
16.6593 24.1199 0
9.86029 24.7083 0
418.48 4.98877 0
426.328 4.12283 0
433.448 3.05453 0
440.156 1.60553 0
447.484 0.862315 0
454.768 0.673517 0
461.797 0.690805 0
468.742 0.394702 0
475.763 0.0634687 0
482.665 -0.132716 0
489.451 0.0369185 0
5.26502 20.493 0
5.68528 14.3061 0
9.35019 4.90222 0
15.9712 5.82601 0
23.0785 6.87094 0
30.3684 7.56115 0
37.5014 7.76747 0
44.1299 6.63524 0
50.8755 5.51019 0
57.4843 5.40662 0
64.2419 5.33312 0
71.1623 5.33411 0
78.3852 5.50046 0
85.4488 5.51951 0
117.659 4.98916 0
124.912 6.38108 0
132.567 4.9047 0
139.484 4.13283 0
146.173 3.64766 0
152.816 3.44073 0
159.558 3.38491 0
166.604 3.30568 0
173.343 2.73824 0
180.085 2.03306 0
186.421 1.92404 0
207.677 -0.38059 0
214.248 -0.283723 0
221.135 -0.412115 0
227.805 -1.08804 0
234.457 -1.28287 0
241.146 -1.1015 0
248.387 -1.3788 0
255.665 -1.76504 0
262.375 -2.73937 0
269.18 -3.18087 0
276.674 -2.48172 0
283.638 -4.12172 0
315.209 -5.62642 0
322.116 -6.10878 0
329.313 -6.35099 0
336.63 -7.01722 0
343.693 -7.8536 0
350.601 -8.28165 0
357.6 -8.6596 0
364.162 -9.77936 0
371.376 -10.3649 0
378.798 -10.9034 0
410.971 -12.5699 0
417.363 -13.1155 0
424.501 -13.6127 0
431.706 -13.6409 0
439.107 -13.7826 0
446.266 -13.9488 0
452.914 -15.4021 0
459.668 -16.871 0
466.23 -17.4394 0
473.168 -17.9714 0
480.413 -18.564 0
487.382 -19.7858 0
492.36 -15.8943 0
492.382 -9.55586 0
398.758 -11.7859 0
377.689 2.54866 0
276.067 8.91455 0
178.695 13.6485 0
77.8649 18.2214 0
218.065 6.73031 0
118.974 11.5338 0
383.77 -6.97346 0
317.624 0.544965 0
295.979 -5.37824 0
196.689 0.335723 0
107.121 5.96304 0
98.5975 3.80662 0
365.463 6.97116 0
264.569 13.3377 0
234.447 14.7885 0
166.256 18.5155 0
133.754 19.7315 0
11.2021 10.7252 0
487.171 -5.39067 0
327.163 7.96298 0
223.133 11.9812 0
422.835 -1.32446 0
420.18 -7.14404 0
376.064 -4.38443 0
123.877 13.7975 0
324.686 0.742099 0
370.053 1.07218 0
268.738 7.76209 0
229.726 9.81561 0
171.247 10.6866 0
129.769 12.8087 0
70.3016 17.5346 0
63.2175 17.4277 0
56.3465 17.3425 0
49.5281 16.9491 0
42.3697 14.7395 0
34.1515 15.2134 0
26.2424 15.4527 0
19.5233 18.7125 0
12.4934 17.9482 0
429.075 -1.38017 0
434.9 -5.38401 0
451.477 -7.2344 0
443.25 -6.25831 0
458.828 -5.58322 0
465.74 -5.58065 0
472.726 -5.86334 0
480.019 -6.01573 0
18.528 12.5936 0
48.1525 11.0398 0
53.8558 11.3483 0
60.4256 11.367 0
67.3385 11.443 0
74.6806 11.7418 0
136.631 11.8228 0
143.236 10.9044 0
149.506 10.562 0
156.001 10.7269 0
163.1 10.7965 0
177.364 7.60384 0
225.17 5.11785 0
230.848 3.73849 0
236.812 6.36805 0
245.078 6.15691 0
252.836 5.84864 0
261.164 5.39595 0
266.806 2.01469 0
272.571 2.82654 0
333.052 1.16002 0
340.767 -1.37204 0
347.585 -1.79932 0
354.591 -1.63136 0
362.444 -1.68899 0
368.82 -5.02779 0
427.377 -7.18572 0
457.161 -11.2871 0
462.918 -11.3458 0
469.543 -11.7485 0
476.626 -12.2594 0
485.161 -12.5122 0
140.948 18.7961 0
146.61 16.8111 0
152.115 18.1825 0
158.919 18.5365 0
241.819 14.1151 0
249.708 13.8573 0
257.274 13.376 0
338.887 4.73882 0
344.638 4.35103 0
351.254 4.47069 0
358.06 6.16139 0
341.652 10.1224 0
347.683 9.93837 0
334.372 9.61275 0
278.215 4.04122 0
4.15221 4.08857 0
492.84 -21.1071 0
494.737 0.400809 0
4.3965 25.6898 0
112.006 26.0218 0
211.961 20.6798 0
311.987 14.5557 0
413.273 22.2029 0
310.532 25.4902 0
338.717 23.3375 0
22.5903 45.8022 0
324.872 35.4401 0
189.584 43.7523 0
209.115 44.188 0
400.572 29.9559 0
284.655 26.199 0
415.277 17.4339 0
212.905 29.3039 0
312.839 23.3014 0
103.71 50.5086 0
315.725 28.5977 0
101.626 55.5835 0
83.8525 31.1177 0
184.083 27.7693 0
383.916 15.4511 0
388.569 14.6749 0
411.04 12.4529 0
288.343 20.9722 0
188.873 27.2025 0
88.9131 30.9801 0
165.646 37.7128 0
418.301 30.9243 0
281.257 40.0589 0
122.338 46.8827 0
390.356 33.9564 0
496.106 27.6451 0
302.553 45.1251 0
4.84881 36.9061 0
117.195 34.1776 0
317.366 24.6548 0
492.775 9.22183 0
6.85332 55.4625 0
113.838 55.0064 0
388.908 31.5793 0
110.005 49.1866 0
115.379 43.5375 0
98.7288 50.06 0
308.381 38.2987 0
313.051 34.1758 0
113.566 30.7766 0
214.27 27.5803 0
314.201 21.6427 0
311.411 22.6323 0
312.732 19.6098 0
310.864 21.005 0
310.944 19.728 0
211.583 28.1689 0
212.883 25.5307 0
210.996 26.8988 0
211.094 25.6232 0
112.004 31.5644 0
112.85 29.2008 0
110.936 30.5297 0
111.06 29.2566 0
7.14723 34.7904 0
5.59476 32.1534 0
2.20392 35.5465 0
2.20196 32.156 0
4.67014 53.5667 0
2.1063 54.5542 0
5.53013 57.9291 0
2.10953 57.9421 0
493.942 29.9477 0
495.716 32.4094 0
498.838 28.7686 0
499.097 32.149 0
495.052 10.9789 0
497.524 9.80382 0
493.888 6.68104 0
497.268 6.4231 0
330.52 26.1065 0
337.826 26.6157 0
156.178 34.7916 0
150.093 36.1534 0
147.255 31.9937 0
144.475 36.3103 0
430.273 23.4042 0
335.838 29.259 0
331.669 29.4164 0
332.7 33.4931 0
272.219 38.8435 0
269.657 36.3656 0
266.092 38.1515 0
168.61 41.2659 0
15.0214 48.2524 0
441.259 23.2527 0
433.867 21.9289 0
137.916 35.4668 0
163.227 33.9857 0
261.876 28.9412 0
76.8705 43.2526 0
139.906 31.4126 0
144.339 31.2446 0
149.951 31.0878 0
153.588 30.9423 0
156.972 30.4872 0
160.608 30.3362 0
240.407 26.5513 0
259.878 25.245 0
332.743 20.9399 0
336.37 20.6903 0
340.278 18.8449 0
344.701 18.5371 0
345.565 21.1616 0
347.64 18.2068 0
351.269 17.952 0
360.262 18.8485 0
356.633 19.1061 0
353.276 20.0726 0
350.513 22.9521 0
347.446 23.8559 0
344.505 24.1862 0
341.736 24.77 0
256.246 25.4604 0
252.433 25.7191 0
248.801 25.9305 0
244.835 26.2991 0
362.873 22.2472 0
355.88 24.1065 0
349.454 25.977 0
343.616 27.4648 0
254.428 29.5768 0
246.645 30.2041 0
238.888 30.4718 0
60.1917 41.5121 0
325.314 32.6518 0
327.38 30.3394 0
328.458 21.8636 0
484.813 20.0414 0
371.443 29.5202 0
362.034 26.6736 0
358.076 27.2058 0
354.716 28.1725 0
351.295 28.7747 0
348.226 29.6786 0
344.965 30.1139 0
342.194 30.6978 0
338.859 30.6921 0
260.644 33.0528 0
256.456 33.356 0
252.639 33.6148 0
248.743 33.9127 0
244.773 34.2812 0
240.621 34.6218 0
232.008 38.9151 0
161.982 38.0635 0
158.425 38.3383 0
155.035 38.7943 0
151.785 39.1509 0
149.085 40.0575 0
145.93 40.1564 0
143.009 39.4067 0
139.663 39.2776 0
73.0843 43.7585 0
69.3924 44.0594 0
65.8309 44.2519 0
62.3482 44.4197 0
58.8915 44.5843 0
476.959 21.0454 0
480.575 20.5661 0
469.943 21.7225 0
473.419 21.3315 0
463.22 22.5531 0
466.637 22.0267 0
460.372 22.9627 0
15.6437 44.6434 0
19.1821 44.2233 0
49.2796 45.2505 0
52.152 45.0099 0
55.5792 44.705 0
225.734 37.7328 0
229.106 38.4833 0
324.167 29.3416 0
322.375 27.2015 0
324.178 24.6103 0
427.141 23.8332 0
483.608 23.3854 0
475.83 24.196 0
468.983 24.7863 0
462.828 25.5001 0
456.876 24.3454 0
433.468 24.9354 0
426.246 26.9093 0
374.844 31.5988 0
368.122 31.3898 0
360.872 30.74 0
353.49 31.8744 0
346.805 32.912 0
340.206 33.3416 0
258.857 37.0919 0
250.769 37.693 0
242.717 38.3317 0
235.742 40.2937 0
230.018 41.4836 0
223.53 40.459 0
160.843 42.067 0
154.031 42.6989 0
147.622 43.1548 0
141.116 43.1246 0
79.4657 45.9531 0
71.7152 46.8562 0
64.5347 47.3255 0
57.7342 47.6146 0
51.5447 47.9765 0
45.7019 46.453 0
485.268 16.3689 0
478.164 17.7016 0
471.072 18.5719 0
464.18 19.4894 0
449.615 22.9133 0
457.268 21.3985 0
427.54 20.8267 0
16.1138 41.585 0
23.0542 42.7433 0
30.4519 44.3653 0
38.5889 44.5495 0
46.3139 43.487 0
53.3133 41.9808 0
67.2044 41.1557 0
74.5466 40.4581 0
127.228 43.2179 0
134.213 42.9881 0
136.019 39.1834 0
227.725 35.1653 0
234.828 37.294 0
236.829 34.5211 0
264.278 32.6758 0
266.613 35.0029 0
365.669 25.7807 0
368.153 28.3382 0
305.584 39.4253 0
176.231 38.6175 0
176.631 41.9372 0
274.011 32.4298 0
272.737 35.6945 0
125.638 46.8942 0
124.957 39.4502 0
375.337 25.1562 0
374.873 28.5472 0
321.657 34.4416 0
319.258 32.5838 0
320.308 29.5131 0
320.321 24.7819 0
423.513 24.3315 0
488.3 19.1881 0
11.9523 45.6112 0
491.19 20.8498 0
491.659 23.9835 0
489.495 26.2859 0
485.958 26.2128 0
481.719 26.7374 0
478.093 26.9957 0
474.552 27.2817 0
471.082 27.5459 0
467.775 27.8501 0
464.487 28.0673 0
461.638 28.4769 0
458.186 28.263 0
455.082 26.6986 0
451.684 26.4835 0
447.525 26.6156 0
443.97 27.0744 0
439.772 27.2817 0
436.1 27.7774 0
432.506 29.2529 0
428.938 29.796 0
425.31 30.2945 0
421.775 30.6058 0
387.198 34.6042 0
383.775 34.747 0
380.036 33.9464 0
376.541 34.0965 0
373.11 35.0698 0
369.577 35.2207 0
366.285 34.0384 0
362.886 34.0805 0
358.925 34.6127 0
355.423 34.9644 0
352 35.5666 0
348.595 35.887 0
345.332 36.3223 0
341.923 36.5395 0
338.586 36.5338 0
335.034 36.7583 0
330.863 36.9153 0
327.335 37.4794 0
323.677 39.2697 0
320.772 40.0184 0
277.193 40.9495 0
273.716 41.3489 0
270.634 42.0201 0
267.182 42.1479 0
264.135 40.7845 0
260.719 40.7026 0
256.526 41.0056 0
252.863 41.2476 0
248.963 41.5455 0
245.324 41.8237 0
241.167 42.1646 0
237.832 42.6233 0
235.01 44.2454 0
231.672 44.5125 0
228.768 44.0806 0
225.374 43.9994 0
221.786 43.4067 0
218.365 43.5349 0
215.155 44.5004 0
211.512 44.4969 0
206.889 45.2314 0
203.419 46.0034 0
181.695 46.2548 0
178.199 46.0415 0
174.38 44.8438 0
170.553 44.9005 0
166.343 45.4266 0
162.932 45.5688 0
159.37 45.8441 0
155.977 46.1002 0
152.722 46.4574 0
149.377 46.627 0
146.217 46.726 0
142.847 46.7668 0
139.496 46.6376 0
136.067 46.5808 0
132.51 46.5733 0
129.071 46.6568 0
119.34 47.0478 0
81.4762 48.9774 0
77.4169 49.5797 0
73.7707 49.8203 0
70.0726 50.1218 0
66.5738 50.2598 0
63.0854 50.4281 0
59.6663 50.5132 0
56.3487 50.6345 0
53.0034 50.6899 0
50.1266 50.931 0
46.6974 50.4681 0
43.7284 48.7031 0
40.3627 48.2226 0
36.2107 48.0826 0
32.6057 48.2607 0
28.612 48.2164 0
24.9294 48.6219 0
21.0519 50.1033 0
17.4586 50.6692 0
13.7613 51.6387 0
10.4085 52.1292 0
9.15756 43.8435 0
8.93329 40.7545 0
486.132 13.2599 0
489.473 12.6596 0
479.219 14.5414 0
482.644 14.1132 0
472.106 15.3907 0
475.602 15.0208 0
465.174 16.1607 0
468.631 15.7817 0
458.271 17.216 0
461.757 16.6872 0
443.337 19.3921 0
447.004 19.1916 0
451.162 19.0594 0
454.776 18.5986 0
435.713 19.386 0
439.14 19.5994 0
428.888 17.9029 0
432.519 17.855 0
425.756 18.3318 0
11.2319 38.6357 0
14.6478 38.9008 0
18.1803 38.4818 0
21.7149 38.7832 0
25.1187 40.3603 0
28.6025 40.6163 0
32.5876 40.6605 0
36.2811 40.6928 0
40.4245 40.8327 0
44.063 40.5787 0
47.6355 39.3773 0
51.1165 39.0458 0
54.5383 38.7417 0
58.0314 38.5903 0
61.4826 38.4263 0
64.9312 38.2996 0
68.4872 38.1077 0
72.1373 37.8329 0
128.385 39.2132 0
132.468 39.176 0
136.268 31.3185 0
164.267 29.9863 0
169.85 37.187 0
173.458 36.404 0
226.064 31.832 0
229.433 32.5824 0
233.098 33.1429 0
236.62 26.4503 0
263.508 24.8682 0
267.842 30.8904 0
271.705 29.9037 0
275.538 29.116 0
363.895 17.9558 0
368.99 23.9114 0
372.606 23.0289 0
184.728 46.7108 0
304.642 41.6972 0
303.153 39.3626 0
96.8435 51.9662 0
98.1803 55.6824 0
110.394 55.1131 0
112.589 50.4313 0
183.479 43.5906 0
382.012 31.4264 0
180.045 39.8145 0
182.715 41.1106 0
276.573 34.9066 0
279.363 37.282 0
120.802 43.6201 0
121.7 40.9126 0
222.151 37.1402 0
378.737 27.2341 0
381.369 28.6038 0
75.9177 37.3276 0
176.87 34.2828 0
376.469 21.7161 0
317.719 38.8861 0
318.814 35.3719 0
80.9224 42.6511 0
317.466 30.4431 0
316.005 26.3138 0
279.524 28.465 0
420.503 21.4459 0
421.691 18.633 0
419.145 27.726 0
419.608 24.5219 0
411.805 31.6312 0
414.961 31.2596 0
122.861 36.9088 0
221.488 33.7325 0
222.907 31.4694 0
491.749 14.4165 0
491.645 17.1774 0
8.22602 50.2342 0
8.52824 47.4524 0
495.004 21.9726 0
493.308 27.4086 0
487.607 29.6381 0
480.443 29.8231 0
473.345 30.3455 0
466.585 30.8269 0
459.844 30.8301 0
452.993 30.4011 0
446.039 30.6447 0
438.812 31.5994 0
431.571 32.6383 0
424.467 33.4928 0
417.591 34.1395 0
410.992 34.725 0
391.887 36.6926 0
385.222 37.1249 0
378.303 37.4178 0
371.274 37.7188 0
364.34 37.9117 0
357.437 38.3055 0
350.528 38.9775 0
343.713 39.515 0
336.751 39.9568 0
329.669 40.7455 0
323.235 42.0585 0
317.276 41.6747 0
310.648 41.151 0
282.516 43.588 0
275.609 44.127 0
268.678 44.654 0
261.807 44.6994 0
254.723 44.8593 0
247.416 45.3794 0
240.438 46.1166 0
233.762 46.8431 0
227.026 47.0293 0
220.208 47.0764 0
213.139 47.2011 0
206.024 47.9696 0
186.233 49.3655 0
179.445 49.1631 0
172.117 49.0062 0
164.873 49.2047 0
158.064 49.6034 0
151.321 50.0295 0
144.6 50.2401 0
137.796 50.2241 0
130.922 50.2508 0
124.179 50.3229 0
117.798 49.5735 0
82.9982 52.4083 0
75.7785 52.8471 0
68.6272 53.2259 0
61.7035 53.4494 0
54.9336 53.5903 0
48.1537 53.1828 0
41.3529 52.2386 0
34.3756 51.9358 0
27.0803 52.5194 0
19.7974 53.4911 0
12.8458 54.5481 0
7.30568 53.1434 0
5.51261 42.5923 0
7.59161 37.3861 0
492.467 11.5606 0
486.849 10.4039 0
480.083 11.4325 0
473.161 12.2307 0
466.208 12.9796 0
459.265 13.8875 0
444.885 15.5384 0
452.166 14.8771 0
437.792 15.5256 0
430.735 15.3603 0
423.04 15.7094 0
13.3012 35.5351 0
20.2459 36.1011 0
27.2579 36.6577 0
34.4277 36.9458 0
41.752 36.7245 0
48.8647 36.1396 0
55.833 35.6574 0
62.7694 35.3799 0
69.863 34.9791 0
77.4696 34.0225 0
122.852 34.0713 0
130.195 35.4101 0
132.633 31.4502 0
167.901 29.8299 0
170.495 32.8529 0
177.965 31.1875 0
224.616 28.8874 0
231.435 29.8107 0
232.989 26.6526 0
267.138 24.6489 0
269.371 27.5778 0
277.219 25.9401 0
367.521 17.696 0
370.123 20.4718 0
377.82 18.8574 0
188.016 46.6996 0
192.794 49.2539 0
199.309 48.9476 0
200.705 46.3709 0
289.092 43.5051 0
295.045 43.3097 0
300.032 42.346 0
300.856 39.799 0
101.018 50.4772 0
102.511 52.7929 0
107.831 52.4259 0
108.294 50.2175 0
185.744 41.5663 0
187.727 42.1357 0
284.684 39.9191 0
287.768 40.7012 0
385.106 29.4043 0
387.242 30.067 0
182.31 37.7916 0
280.809 31.0541 0
280.633 34.0164 0
116.265 46.3099 0
90.2197 51.6909 0
216.737 40.8317 0
116.541 41.8626 0
118.707 41.0775 0
85.0428 48.7792 0
88.3884 49.2791 0
217.41 38.3508 0
219.283 36.4577 0
381.831 25.2127 0
79.8789 36.6453 0
81.7413 39.1789 0
180.735 33.3994 0
182.566 35.2989 0
380.551 20.9841 0
382.276 22.7523 0
315.319 37.0277 0
84.3368 41.8769 0
314.673 31.6681 0
408.548 31.8813 0
284.07 23.9014 0
282.487 27.8773 0
417.786 18.823 0
415.806 14.9492 0
416.135 24.84 0
412.517 28.4157 0
119.598 35.5326 0
217.431 30.5081 0
220.042 30.787 0
494.639 16.0783 0
5.42932 48.4644 0
497.286 17.2106 0
497.477 19.716 0
497.946 22.8494 0
498.204 26.2298 0
492.918 32.1729 0
489.538 32.4322 0
486 32.359 0
482.586 32.6203 0
478.959 32.8785 0
475.407 33.1501 0
471.936 33.4143 0
468.52 33.6751 0
465.231 33.8922 0
461.815 34.1526 0
458.363 33.9387 0
454.946 34.1987 0
451.547 33.9835 0
448.13 34.243 0
444.574 34.7018 0
441.157 34.9606 0
437.484 35.4564 0
434.067 35.7144 0
430.498 36.2576 0
427.08 36.5149 0
423.545 36.8263 0
420.126 37.083 0
416.785 37.4184 0
413.366 37.6747 0
410.108 37.9249 0
406.689 38.1812 0
403.528 38.3746 0
400.108 38.6303 0
396.965 39.1505 0
393.543 39.4046 0
390.302 39.6941 0
386.88 39.9456 0
383.455 40.0884 0
380.033 40.3374 0
376.537 40.4875 0
373.114 40.7344 0
369.579 40.8853 0
366.156 41.1302 0
362.755 41.1722 0
359.332 41.4153 0
355.828 41.7669 0
352.404 42.008 0
348.997 42.3284 0
345.573 42.5674 0
342.162 42.7846 0
338.737 43.0215 0
335.183 43.246 0
331.758 43.4806 0
328.228 44.0449 0
324.802 44.2772 0
321.896 45.0261 0
318.47 45.2564 0
315.415 44.1236 0
311.988 44.3521 0
308.413 44.961 0
304.985 45.1879 0
300.374 45.8366 0
296.945 46.0611 0
294.136 46.3131 0
290.707 46.5343 0
287.559 46.4775 0
284.129 46.6945 0
280.698 46.8341 0
277.267 47.0471 0
273.787 47.4465 0
270.356 47.656 0
266.902 47.7836 0
263.47 47.9896 0
260.05 47.9074 0
256.618 48.1101 0
252.951 48.352 0
249.518 48.551 0
245.875 48.8294 0
242.442 49.0248 0
239.103 49.484 0
235.669 49.6758 0
232.329 49.9432 0
228.894 50.1312 0
225.497 50.0501 0
222.062 50.2344 0
218.637 50.3626 0
215.202 50.5432 0
211.555 50.5398 0
208.119 50.7169 0
204.646 51.4892 0
201.209 51.6634 0
197.964 51.869 0
194.526 52.0395 0
191.253 52.1397 0
187.814 52.3049 0
184.522 52.3161 0
181.083 52.4755 0
177.582 52.262 0
174.142 52.4159 0
170.309 52.4725 0
166.87 52.6212 0
163.453 52.7637 0
160.013 52.9076 0
156.615 53.164 0
153.174 53.303 0
149.824 53.4729 0
146.382 53.6069 0
143.007 53.6478 0
139.565 53.7768 0
136.13 53.7199 0
132.688 53.8437 0
129.244 53.9272 0
125.801 54.0457 0
122.495 54.0343 0
119.052 54.1474 0
115.971 53.4095 0
107.767 55.512 0
104.321 55.6147 0
95.2039 54.8865 0
91.7576 54.9802 0
88.1033 55.4991 0
84.6557 55.5852 0
81.0822 55.7832 0
77.6342 55.8619 0
73.9814 56.1027 0
70.533 56.1744 0
67.0283 56.3127 0
63.5795 56.3779 0
60.1548 56.4634 0
56.7056 56.5223 0
53.355 56.5779 0
49.9054 56.6305 0
46.4708 56.1674 0
43.0212 56.2135 0
39.6485 55.7326 0
36.199 55.7721 0
32.5862 55.95 0
29.1362 55.9827 0
25.4457 56.3884 0
21.995 56.4141 0
18.3957 56.9806 0
14.9447 56.9998 0
11.5873 57.4912 0
8.16887 57.5049 0
2.86789 47.1366 0
2.86588 44.6244 0
2.64721 41.5337 0
2.64481 38.1435 0
487.922 7.52134 0
491.303 7.26266 0
481.133 8.38569 0
484.581 8.12168 0
474.26 9.07773 0
477.707 8.81391 0
467.317 9.71118 0
470.764 9.44763 0
460.408 10.3536 0
463.859 10.0902 0
453.471 11.1454 0
456.923 10.8824 0
446.406 11.8685 0
449.858 11.6061 0
439.288 12.3307 0
442.74 12.069 0
432.41 12.3783 0
435.862 12.1174 0
425.352 12.6846 0
428.78 12.4263 0
418.338 13.2069 0
421.288 12.9857 0
8.33404 32.633 0
11.7274 32.6225 0
15.1374 32.8874 0
18.599 32.8686 0
22.1277 33.1697 0
25.5889 33.1436 0
29.0655 33.3992 0
32.5268 33.366 0
36.2126 33.3983 0
39.6774 33.3581 0
43.3084 33.1047 0
46.7728 33.0575 0
50.2479 32.7267 0
53.7119 32.6729 0
57.1994 32.5221 0
60.6632 32.4616 0
64.1066 32.3356 0
67.5699 32.2686 0
71.2149 31.9944 0
74.6538 31.9213 0
78.6108 31.2397 0
81.5682 31.1715 0
121.719 30.2356 0
124.98 31.6108 0
128.556 31.4875 0
171.505 29.0479 0
175.079 28.8887 0
178.941 28.0061 0
181.87 27.8716 0
222.601 25.9238 0
225.755 26.2867 0
229.328 26.0919 0
270.999 23.6622 0
274.569 23.4427 0
278.553 22.7919 0
281.479 22.6093 0
322.835 19.6869 0
326.404 19.4449 0
371.136 16.8136 0
374.703 16.5561 0
378.784 15.8243 0
381.707 15.6118 0
191.091 46.4052 0
194.36 46.3048 0
197.463 46.5766 0
290.913 40.7579 0
293.532 40.9431 0
296.339 40.6911 0
298.677 40.5106 0
105.669 50.6154 0
186.96 39.6568 0
190.799 41.8417 0
195.759 43.7293 0
201.573 43.6329 0
286.506 37.1732 0
292.208 38.1402 0
297.164 38.1445 0
301.799 37.5272 0
404.574 35.1687 0
405.499 32.029 0
398.271 35.8826 0
386.598 27.2449 0
185.234 36.5943 0
186.958 37.836 0
283.598 33.4282 0
285.863 34.4313 0
104.175 48.3 0
92.037 48.7596 0
103.5 46.1752 0
202.635 41.5422 0
214.203 39.316 0
302.606 35.481 0
117.441 39.1557 0
117.2 37.0153 0
86.4925 43.3246 0
86.8625 45.8507 0
216.751 34.9428 0
216.066 32.2322 0
188.939 38.4052 0
190.717 39.3725 0
192.575 40.9874 0
194.621 41.5985 0
197.721 41.8695 0
199.923 41.9099 0
288.945 35.2132 0
291.23 35.8184 0
293.847 36.0033 0
295.941 36.2289 0
298.278 36.048 0
300.309 35.9177 0
402.339 32.2225 0
390.399 29.4194 0
393.596 33.6667 0
396.504 33.6157 0
394.972 30.8803 0
399.646 33.0953 0
384.907 24.1216 0
386.653 25.328 0
388.788 25.9907 0
390.504 26.8906 0
84.6333 33.2457 0
83.2877 35.872 0
184.83 29.8193 0
183.657 32.2028 0
187.211 35.3437 0
286.036 31.4694 0
384.767 17.4778 0
383.626 19.8932 0
114.894 33.4605 0
214.875 29.69 0
314.855 23.5956 0
105.457 46.2822 0
107.843 47.3764 0
112.136 47.5909 0
113.835 46.0623 0
111.253 44.8178 0
114.114 41.6151 0
92.2567 46.1023 0
94.0889 48.512 0
95.7566 49.2647 0
95.974 46.6067 0
99.929 47.776 0
101.213 46.113 0
204.657 41.0668 0
206.511 42.2222 0
211.132 41.4881 0
212.416 40.103 0
210.021 39.7942 0
213.092 37.6225 0
304.62 34.8622 0
306.892 35.964 0
311.954 37.6898 0
311.31 32.3299 0
113.478 39.5002 0
115.036 37.7999 0
102.496 44.0951 0
87.305 39.8523 0
89.8333 43.8235 0
91.6685 44.2776 0
212.929 35.8678 0
214.193 34.1247 0
203.006 39.3437 0
190.713 37.5521 0
194.537 39.1292 0
198.783 39.7793 0
313.213 27.5384 0
303.13 33.2526 0
290.584 33.0776 0
294.962 33.9077 0
299.086 34.0022 0
406.313 28.9348 0
401.351 27.9502 0
392.17 28.402 0
394.01 28.8773 0
396.916 28.8258 0
398.659 28.8234 0
387.097 22.8678 0
390.559 24.974 0
113.332 34.2487 0
86.4951 35.7782 0
87.5878 37.7139 0
212.187 30.279 0
189.38 34.7299 0
190.715 35.7483 0
186.66 31.7183 0
187.657 33.4888 0
312.064 24.5856 0
288.204 29.7904 0
290.215 30.9699 0
285.941 28.7875 0
414.088 20.2467 0
412.809 25.4073 0
407.327 26.3703 0
409.654 25.7786 0
386.492 19.2459 0
387.524 20.9632 0
113.429 32.0497 0
117.29 31.9788 0
118.789 30.3321 0
218.85 28.2456 0
219.674 26.0802 0
319.17 22.0643 0
319.91 19.8842 0
107.167 45.252 0
109.112 44.0543 0
110.811 42.5267 0
112.316 41.1746 0
93.7182 44.0299 0
95.4544 44.61 0
97.121 45.3617 0
98.9261 45.6961 0
206.881 40.0239 0
208.499 39.1691 0
209.784 37.7843 0
211.143 36.6545 0
307.415 33.7357 0
309.113 32.5186 0
310.736 30.0112 0
311.68 28.4431 0
113.24 37.3597 0
112.606 35.6929 0
111.048 37.3926 0
103.394 42.4924 0
101.108 42.4301 0
89.7418 39.1601 0
91.1327 40.1245 0
91.2947 41.7525 0
92.9661 40.5776 0
212.246 33.1568 0
211.729 31.497 0
210.465 33.2398 0
203.681 37.7196 0
199.891 38.2922 0
201.659 38.195 0
192.493 36.7145 0
194.014 37.3719 0
196.059 37.9816 0
197.691 38.2525 0
311.961 26.1591 0
309.711 26.2251 0
303.739 31.6448 0
300.028 32.4703 0
301.725 32.2638 0
292.498 31.5746 0
294.211 32.1815 0
296.303 32.4064 0
297.997 32.6011 0
402.431 26.6161 0
404.278 26.5181 0
400.518 25.4839 0
394.114 26.3485 0
397.696 26.8207 0
398.862 25.4599 0
395.576 25.1759 0
397.12 25.4627 0
389.27 22.1694 0
390.588 23.1691 0
392.304 24.0686 0
393.737 24.7013 0
111.142 34.2815 0
88.9286 35.0875 0
210.407 30.3618 0
191.158 33.8934 0
188.827 31.1054 0
309.815 24.6514 0
290.117 28.2888 0
287.521 24.8117 0
412.108 16.3723 0
410.763 20.8135 0
407.62 23.3615 0
388.665 18.5481 0
497.216 12.1423 0
497.391 14.4501 0
2.56264 52.2333 0
2.56084 49.9197 0
412.892 12.3155 0
415.17 12.1457 0
87.0571 31.0241 0
114.275 29.6859 0
116.49 29.6155 0
187.084 27.2851 0
214.852 25.917 0
217.064 25.8009 0
284.346 21.2225 0
286.556 21.0838 0
314.746 19.9043 0
316.957 19.7568 0
386.782 14.8041 0
105.035 42.0265 0
106.727 42.9602 0
110.177 40.4114 0
109.888 38.5654 0
94.4112 41.1618 0
94.8648 42.7856 0
98.4053 43.699 0
99.4632 42.4135 0
205.219 37.2077 0
206.645 38.0137 0
209.622 36.0294 0
209.478 34.3678 0
305.269 31.0017 0
306.842 31.4167 0
309.484 28.6317 0
309.062 27.2213 0
106.98 40.8296 0
108.383 39.9168 0
96.1467 41.741 0
97.659 42.0798 0
206.837 36.3532 0
208.118 35.4974 0
306.967 29.7847 0
308.117 28.7894 0
109.256 36.8982 0
106.692 38.9832 0
103.648 40.3614 0
100.361 40.8106 0
97.204 40.4558 0
91.4117 37.9865 0
94.2469 39.5339 0
208.962 32.7078 0
206.693 34.6913 0
203.873 36.0588 0
200.566 36.6681 0
194.014 35.568 0
197.167 36.4951 0
308.345 26.3826 0
306.545 28.3743 0
303.864 30.0128 0
300.636 30.8627 0
293.839 30.0743 0
297.245 30.8751 0
403.445 24.0514 0
399.942 24.1258 0
396.742 23.8154 0
391.015 21.2646 0
393.765 22.8965 0
110.355 33.0023 0
110.8 31.8026 0
108.893 35.4934 0
109.629 34.446 0
106.752 37.492 0
107.733 36.6657 0
104.19 38.9557 0
105.349 38.4045 0
101.129 39.6691 0
102.548 39.4215 0
98.2053 39.5268 0
99.4831 39.6527 0
95.4905 38.7436 0
96.693 39.1885 0
92.9987 37.4251 0
94.0462 38.1604 0
90.7861 35.4841 0
91.6092 36.4621 0
89.1504 32.3941 0
89.6943 33.5502 0
209.858 29.0824 0
210.278 27.8736 0
208.687 31.3632 0
209.401 30.3004 0
206.737 33.3383 0
207.699 32.4911 0
204.309 34.7702 0
205.456 34.194 0
201.358 35.5602 0
202.771 35.2821 0
198.157 35.5248 0
199.59 35.6577 0
195.329 34.7977 0
196.526 35.2545 0
192.769 33.3955 0
193.809 34.1413 0
190.623 31.3924 0
191.436 32.3785 0
189.093 28.4619 0
189.626 29.6232 0
309.687 23.5041 0
310.089 22.289 0
308.169 25.3125 0
308.867 24.239 0
306.571 27.1707 0
307.519 26.3089 0
304.284 28.7598 0
305.42 28.1662 0
301.347 29.7027 0
302.753 29.4031 0
298.216 29.7984 0
299.649 29.9095 0
295.321 29.1654 0
296.523 29.6041 0
292.559 27.8294 0
293.609 28.5594 0
289.722 25.6774 0
290.55 26.6512 0
288.584 22.2282 0
289.136 23.3812 0
410.508 15.0901 0
410.938 13.8846 0
409.257 18.6328 0
409.979 17.5754 0
407.474 21.4296 0
408.44 20.5895 0
403.998 22.5895 0
405.146 22.0215 0
400.897 22.9465 0
402.151 22.6878 0
397.809 22.8242 0
399.241 22.9228 0
395.06 22.1098 0
396.265 22.5378 0
392.572 20.7571 0
393.628 21.4776 0
390.417 18.7924 0
391.254 19.7581 0
388.822 15.9283 0
389.385 17.0758 0
387.634 16.8307 0
389.698 20.2649 0
392.333 22.2637 0
395.198 23.5287 0
398.286 24.1019 0
401.598 24.1496 0
405.292 23.9534 0
409.947 22.7699 0
411.579 18.8572 0
412.637 13.8875 0
286.936 22.5143 0
288.108 27.1086 0
292.128 29.4672 0
295.552 30.6804 0
298.938 31.0694 0
302.334 30.656 0
305.395 29.3697 0
307.695 27.3789 0
308.994 25.3863 0
310.635 23.9165 0
187.832 29.3348 0
189.825 32.875 0
192.493 34.9106 0
195.535 36.2244 0
198.798 36.7654 0
202.335 36.5708 0
205.411 35.547 0
207.974 33.8356 0
209.95 31.5797 0
210.864 29.1438 0
87.8382 33.1515 0
90.0223 37.0219 0
92.8027 38.9497 0
95.6921 40.1171 0
98.7163 40.7942 0
102.006 40.8272 0
105.289 39.8957 0
108.095 38.0705 0
110.415 35.7253 0
111.867 32.8373 0
308.539 30.1998 0
208.263 37.159 0
96.6008 43.3649 0
108.672 41.7627 0
310.429 27.0637 0
305.144 32.6337 0
210.982 34.8995 0
205.028 38.8683 0
100.21 44.0328 0
93.1292 42.2055 0
111.681 39.0593 0
104.782 44.1572 0
316.216 21.9367 0
216.24 27.966 0
114.991 31.2614 0
5.1244 51.2466 0
494.743 13.3176 0
392.275 25.8733 0
388.843 24.0739 0
395.954 26.8231 0
399.438 26.8179 0
403.264 29.0826 0
297.055 34.1325 0
292.869 33.6819 0
301.117 33.8715 0
313.493 25.2543 0
196.583 39.739 0
192.492 38.5183 0
200.984 39.8191 0
213.509 31.4136 0
89.4609 41.2979 0
114.797 35.6592 0
312.932 29.8223 0
309.687 34.8373 0
211.305 38.4092 0
208.736 41.1789 0
97.6412 47.3585 0
94.3072 45.8543 0
112.951 43.2894 0
109.553 46.3456 0
322.124 22.1909 0
221.46 28.524 0
119.591 32.6948 0
385.351 21.6611 0
409.361 28.7872 0
415.672 28.0442 0
416.598 21.6358 0
283.772 30.4659 0
288.301 32.4717 0
185.489 34.1016 0
188.935 36.5846 0
85.1518 38.4042 0
397.879 30.8286 0
392.065 30.9308 0
214.878 36.8352 0
90.2059 46.3488 0
115.276 39.9403 0
314.222 40.5415 0
304.096 37.0905 0
213.528 41.7964 0
204.286 43.265 0
102.217 48.1927 0
93.8701 51.1694 0
114.72 48.8346 0
106.133 48.4067 0
381.901 18.125 0
181.828 30.3031 0
81.4273 33.3383 0
388.733 27.9074 0
384.463 26.5818 0
401.413 35.362 0
395.127 36.4024 0
299.501 37.9635 0
294.826 38.3247 0
289.59 37.9544 0
198.86 44 0
192.657 43.4566 0
188.942 40.2257 0
218.623 33.0495 0
83.5205 45.3486 0
119.605 38.3699 0
283.424 36.3901 0
184.979 39.0866 0
407.734 34.9752 0
105.205 52.8236 0
297.853 43.0571 0
292.237 43.561 0
196.065 49.1523 0
189.523 49.3529 0
373.738 19.5888 0
281.203 25.2881 0
273.233 26.5901 0
227.772 29.2491 0
174.1 32.0692 0
126.115 35.4452 0
73.5101 34.7027 0
66.2152 35.2519 0
59.3232 35.5046 0
52.3425 35.8068 0
45.3862 36.469 0
38.1172 36.9762 0
30.7381 36.9116 0
23.7781 36.4003 0
16.7142 35.798 0
9.8888 35.2682 0
418.975 16.0101 0
427.105 15.408 0
434.365 15.3121 0
441.219 15.7387 0
448.552 15.3377 0
455.779 14.4161 0
462.751 13.3585 0
469.665 12.6005 0
476.657 11.8607 0
483.508 11.0043 0
490.19 9.80359 0
5.29178 39.5022 0
5.73394 45.6818 0
9.4901 55.038 0
16.2005 54.0556 0
23.393 52.9231 0
30.7665 52.1119 0
37.9841 51.756 0
44.7225 52.718 0
51.5856 53.6443 0
58.2814 53.5332 0
65.1253 53.3625 0
72.1288 53.086 0
79.4278 52.6044 0
86.5682 52.2081 0
120.876 50.3103 0
127.481 50.333 0
134.364 50.166 0
141.228 50.2797 0
147.973 50.1981 0
154.668 49.8585 0
161.459 49.3459 0
168.287 49.0611 0
175.947 48.9482 0
182.943 49.3753 0
202.552 48.7412 0
209.495 47.1966 0
216.784 47.2037 0
223.631 46.9472 0
230.422 47.1096 0
237.101 46.5748 0
243.775 45.6566 0
251.058 45.1001 0
258.388 44.6164 0
265.225 44.7808 0
272.131 44.5255 0
279.087 43.7266 0
285.946 43.4473 0
307.073 41.7597 0
320.33 42.8071 0
326.14 41.3091 0
333.198 40.1807 0
340.304 39.7317 0
347.123 39.2973 0
353.934 38.6566 0
360.94 37.9533 0
367.741 37.8692 0
374.808 37.5674 0
381.799 37.267 0
388.646 36.9815 0
414.25 34.4748 0
420.932 33.804 0
428.002 33.1812 0
435.139 32.0949 0
442.484 31.1034 0
449.594 30.1858 0
456.392 30.6161 0
463.297 31.044 0
469.874 30.6097 0
476.815 30.0813 0
484.069 29.5649 0
491.144 29.7111 0
495.473 25.1061 0
494.534 18.839 0
316.415 33.5135 0
379.2 23.8429 0
179.642 36.4948 0
78.329 39.9508 0
219.944 39.8652 0
117.807 43.7843 0
277.845 31.6411 0
385.75 32.2264 0
186.51 44.0454 0
110.457 52.027 0
99.8179 52.761 0
302.21 41.6344 0
366.507 21.3538 0
265.509 28.5634 0
235.098 30.37 0
166.889 33.6339 0
134.275 35.3712 0
11.326 49.2196 0
488.755 15.5156 0
224.355 34.4141 0
422.618 27.4076 0
424.408 21.2554 0
318.517 27.3724 0
321.214 37.2296 0
378.274 30.625 0
123.797 43.4539 0
275.3 38.1714 0
180.448 43.1334 0
371.473 26.4685 0
270.177 33.2165 0
231.096 35.9148 0
172.816 40.7377 0
130.659 42.9792 0
70.7628 40.9618 0
63.6454 41.3462 0
56.7376 41.6748 0
49.8884 42.2836 0
42.7368 44.6867 0
34.4412 44.4074 0
26.4625 44.3186 0
19.6489 41.1644 0
12.5778 42.0018 0
430.672 20.3977 0
437.062 23.4597 0
453.773 22.7809 0
445.456 23.0452 0
460.763 20.0157 0
467.597 18.9629 0
474.548 18.1809 0
481.78 17.2221 0
18.7148 47.2814 0
48.6699 48.2166 0
54.4191 47.7342 0
61.0489 47.492 0
68.02 47.1558 0
75.4096 46.5531 0
137.767 42.9942 0
144.464 43.2526 0
150.779 43.0548 0
157.283 42.3408 0
164.402 41.7905 0
227.116 41.0508 0
232.92 41.915 0
238.562 38.671 0
246.871 37.9898 0
254.667 37.3939 0
263.047 36.7873 0
269.138 39.5142 0
328.529 33.6492 0
336.87 33.3353 0
343.542 33.3468 0
350.067 32.4762 0
356.912 31.2716 0
364.831 30.207 0
371.414 32.5717 0
429.874 26.4106 0
459.98 25.9097 0
465.677 25.0905 0
472.29 24.482 0
479.37 23.9099 0
487.846 22.8606 0
322.1 31.6534 0
326.233 27.0291 0
141.557 35.5596 0
147.394 37.0591 0
152.791 35.246 0
159.565 34.3347 0
242.677 30.5714 0
250.613 29.8345 0
258.243 29.317 0
340.846 28.0484 0
346.386 26.8805 0
352.521 25.0727 0
359.238 23.1394 0
342.625 21.4914 0
348.506 20.8311 0
334.807 25.1821 0
495.36 8.64026 0
496.74 30.1841 0
4.21576 55.8862 0
4.40649 34.3097 0
112.141 30.2914 0
212.301 27.1939 0
312.186 21.3481 0
120.134 10.2452 0
115.216 11.0321 0
310.848 16.0492 0
313.171 20.4764 0
338.971 27.1454 0
334.154 28.5076 0
110.124 50.157 0
115.15 50.0991 0
271.089 4.68008 0
275.703 6.58606 0
459.09 8.94675 0
455.293 12.2026 0
449.833 27.6871 0
445.245 25.6973 0
251.405 49.9996 0
254.465 46.0374 0
419.191 -13.2923 0
414.282 -14.2174 0
21.9631 59.2102 0
23.9824 54.6378 0
260.177 26.7123 0
265.018 27.9715 0
255.15 35.0861 0
255.557 40.0666 0
472.138 33.5431 0
473.716 28.7982 0
318 31.2345 0
323.004 31.3946 0
450.194 -11.4128 0
451.002 -16.3482 0
224.56 -0.176021 0
219.976 1.78094 0
199.371 3.97405 0
195.365 6.95085 0
336.126 26.3249 0
331.552 28.359 0
307.444 5.62571 0
303.24 2.93245 0
246.47 16.7814 0
244.461 21.3616 0
470.94 2.10321 0
470.772 -2.8943 0
395.199 34.0036 0
395.425 29.0103 0
301.554 39.1722 0
297.146 41.5571 0
80.2452 15.8043 0
85.2248 16.0335 0
59.3219 38.8668 0
63.7056 36.443 0
271.452 -7.01251 0
274.906 -3.40289 0
160.381 47.5284 0
165.382 47.0805 0
173.909 47.5441 0
178.538 45.6075 0
22.5763 54.768 0
25.7859 50.9219 0
335.084 22.9411 0
335.354 27.9326 0
229.51 23.3079 0
226.571 19.2654 0
21.6082 38.0084 0
19.0811 33.6953 0
28.3208 45.216 0
25.571 49.3971 0
255.345 -5.24743 0
250.465 -4.25 0
4.02977 2.85887 0
8.98155 3.12778 0
173.839 25.2362 0
168.869 24.7022 0
114.495 39.95 0
118.388 43.0966 0
209.011 0.718309 0
208.449 5.69158 0
271.483 6.64871 0
267.605 9.80033 0
42.7339 8.97731 0
46.7036 5.96401 0
173.953 20.7313 0
177.761 23.966 0
328.078 -2.24302 0
331.99 -5.34882 0
75.881 9.86466 0
73.2642 5.60555 0
136.291 22.383 0
136.176 27.3826 0
103.854 13.6374 0
106.05 9.14488 0
460.199 -6.05474 0
456.783 -9.70396 0
354.988 30.8288 0
358.139 26.9422 0
341.717 -6.97876 0
337.063 -8.78316 0
219.521 13.0807 0
216.675 8.9721 0
202.282 47.5566 0
206.958 45.7346 0
116.451 39.6248 0
115.363 34.7475 0
213.751 32.1389 0
215.85 36.6749 0
9.95862 42.3381 0
4.96619 42.845 0
377.627 31.8776 0
376.055 27.1324 0
399.019 31.8644 0
394.014 31.7672 0
440.619 19.5098 0
435.835 18.054 0
444.873 3.63837 0
449.702 4.92888 0
47.8906 21.0808 0
47.0021 16.157 0
142.261 19.3679 0
142.638 24.3552 0
49.4576 45.2013 0
52.4816 49.1874 0
347.472 16.331 0
350.385 20.3928 0
466.24 18.9006 0
468.293 14.3397 0
22.3377 2.11759 0
26.1465 5.32974 0
52.4901 18.388 0
51.9685 23.3642 0
428.272 -18.5339 0
431.124 -14.4275 0
324.215 4.09575 0
319.242 3.66297 0
394.054 23.8025 0
389.291 22.2831 0
481.713 22.8258 0
476.865 21.6056 0
222.935 37.047 0
218.001 37.9267 0
324.881 14.1719 0
329.356 16.3968 0
73.9348 8.38972 0
68.9797 8.81373 0
168.629 5.69177 0
167.435 0.83059 0
384.578 -10.4856 0
382.29 -6.03904 0
436.336 25.6211 0
441.275 26.4095 0
140.629 14.5777 0
136.168 16.8179 0
63.9054 50.9317 0
59.273 48.9942 0
114.514 8.04852 0
118.785 5.48173 0
17.8139 30.9841 0
22.6707 32.1779 0
63.996 40.4291 0
68.5353 42.5508 0
475.414 -20.8245 0
474.43 -15.9218 0
353.407 -1.14671 0
354.12 3.80371 0
440.827 8.06144 0
443.143 12.4912 0
339.209 3.43485 0
341.005 -1.23312 0
153.66 4.82423 0
156.297 9.07076 0
88.3937 21.6618 0
93.1061 20.0008 0
185.916 15.183 0
182.144 11.9063 0
227.167 49.4387 0
227.165 44.4435 0
219.812 1.43702 0
223.808 4.42709 0
414.118 0.104585 0
411.154 4.13278 0
37.7656 38.5564 0
42.6923 39.4758 0
485.387 23.6657 0
481.142 26.3094 0
317.701 32.0268 0
313.043 33.8689 0
436.353 15.2351 0
436.976 10.2735 0
304.322 39.8347 0
309.143 38.4654 0
225.643 5.18205 0
226.305 0.221246 0
435.974 16.4634 0
431.618 14.0121 0
7.19034 18.1198 0
2.24489 18.7423 0
378.377 7.33204 0
381.184 11.4664 0
106.322 46.4676 0
102.209 43.6059 0
70.2766 46.785 0
66.3023 49.8428 0
60.2284 51.213 0
55.9335 48.6198 0
150.021 4.81248 0
151.833 0.149763 0
241.167 3.564 0
236.191 3.26838 0
428.494 13.1612 0
425.31 17.0191 0
146.447 11.6942 0
146.48 16.6981 0
116.482 13.9833 0
114.034 9.62468 0
489.685 2.74664 0
486.894 6.89784 0
451.582 8.1507 0
453.411 3.49543 0
178.396 1.52404 0
173.431 1.85364 0
399.935 -8.19681 0
399.565 -13.1848 0
387.743 12.7059 0
382.753 12.4072 0
267.087 20.8756 0
271.06 17.837 0
276.277 9.75102 0
273.45 5.62925 0
130.819 12.9796 0
135.745 13.7378 0
429.896 23.5827 0
425.054 24.8449 0
157.256 8.35808 0
160.537 4.59347 0
147.543 50.7006 0
144.065 47.0997 0
66.1633 25.5619 0
66.0752 20.5607 0
149.762 0.954517 0
146.649 -2.95242 0
321.796 12.9933 0
316.9 13.998 0
384.971 22.2173 0
380.052 21.3164 0
158.886 24.4493 0
153.949 25.2322 0
28.4757 31.6743 0
30.1453 36.3852 0
454.351 29.7778 0
453.767 24.8126 0
343.558 -2.04044 0
346.106 2.26059 0
344.416 7.72056 0
344.331 2.71965 0
164.706 17.8515 0
161.923 22.006 0
379.852 -5.53976 0
380.84 -0.636688 0
66.2495 44.3413 0
70.487 47.0182 0
52.295 9.82322 0
47.3356 9.45979 0
65.7638 37.5102 0
68.3328 41.7992 0
457.218 16.0606 0
462.201 16.4743 0
386.338 4.9081 0
391.201 6.06744 0
338.518 2.31804 0
343.402 3.35595 0
484.645 28.9169 0
481.166 25.3266 0
246.921 40.1316 0
246.354 45.0962 0
388.375 26.7182 0
393.373 26.4782 0
314.612 6.06547 0
311.806 10.2044 0
473.137 -18.8387 0
473.931 -23.7758 0
448.449 9.25504 0
445.167 13.0298 0
2.14095 25.9339 0
6.42508 23.3667 0
130.361 25.6987 0
132.241 30.3301 0
8.09548 58.1236 0
3.48117 56.1176 0
191.982 44.3175 0
193.176 49.1672 0
316.259 10.5717 0
311.563 8.87143 0
172.056 -0.425583 0
168.836 3.38935 0
473.24 20.8375 0
476.552 24.5814 0
217.504 40.9234 0
214.729 36.7646 0
112.627 9.79146 0
111.511 4.91132 0
124.292 22.0809 0
123.885 17.0951 0
195.196 3.15249 0
199.271 6.02846 0
110.901 20.5591 0
114.486 17.076 0
294.29 29.3614 0
295.102 34.291 0
162.997 34.0374 0
167.229 36.7072 0
159.027 29.4932 0
162.675 32.9123 0
122.981 28.3686 0
120.835 32.8858 0
206.02 1.20391 0
203.588 -3.16483 0
180.952 3.33132 0
183.904 7.36404 0
429.286 19.8797 0
429.828 24.8494 0
489.94 -2.38887 0
490.443 -7.3643 0
324.751 20.4736 0
323.764 25.3756 0
41.4466 34.0641 0
43.7148 29.6066 0
346.397 16.5893 0
351.02 14.6821 0
463.519 24.363 0
464.216 29.3138 0
357.691 24.4771 0
353.073 26.4059 0
490.111 25.1008 0
485.585 22.979 0
415.264 21.7862 0
416.97 17.0851 0
305.541 -7.46532 0
300.834 -9.1136 0
177.839 9.03044 0
174.451 12.7014 0
86.206 18.9953 0
87.7335 23.7579 0
293.989 8.28185 0
289.105 9.32901 0
468.297 -19.1298 0
472.424 -21.9508 0
180.502 5.94659 0
180.925 10.9338 0
353.887 13.2304 0
355.877 17.8163 0
38.4111 3.62714 0
35.0302 7.29676 0
240.126 37.951 0
244.337 35.2391 0
3.16754 44.8854 0
4.96419 49.5514 0
157.552 14.4887 0
157.94 19.4761 0
392.362 -8.06603 0
396.807 -10.3478 0
292.851 2.33291 0
292.586 7.3306 0
324.783 40.8324 0
321.632 36.9489 0
23.9603 11.0351 0
22.6007 15.8523 0
28.0085 40.0815 0
28.031 35.0845 0
114.96 55.0639 0
110.22 56.7445 0
474.99 16.0695 0
479.835 17.3005 0
272.856 6.47994 0
270.409 2.11997 0
332.48 33.4207 0
336.277 36.6777 0
188.141 15.1335 0
188.254 10.1295 0
307.785 28.1432 0
310.25 23.7881 0
465.845 8.23403 0
461.966 5.08202 0
272.904 6.61041 0
268.442 4.37131 0
452.791 -6.00107 0
455.848 -2.04626 0
100.386 47.8127 0
97.5671 51.9505 0
334.998 23.74 0
337.669 19.5104 0
161.084 53.2514 0
162.833 48.5687 0
209.167 41.729 0
209.913 46.669 0
107.747 39.9303 0
105.835 44.5514 0
481.67 25.8566 0
476.77 24.8619 0
143.135 5.69806 0
138.61 7.78467 0
239.416 27.6441 0
238.701 32.5921 0
35.5106 49.9754 0
34.5272 45.079 0
242.521 14.2569 0
246.962 16.5431 0
322.845 -8.93253 0
318.677 -11.6803 0
131.481 52.0985 0
126.458 51.8812 0
369.691 -6.37456 0
367.86 -11.0288 0
283.557 -6.56095 0
286.976 -10.1991 0
211.227 7.41103 0
216.202 7.7257 0
432.572 16.7639 0
427.573 16.9101 0
217.81 18.6998 0
222.345 16.6001 0
299.121 38.6631 0
303.504 41.0811 0
75.8531 44.945 0
71.1355 46.6569 0
302.532 -0.820913 0
307.485 -0.222054 0
238.984 0.440921 0
240.099 5.31876 0
232.911 32.5493 0
237.035 35.3822 0
108.151 53.9308 0
112.579 56.2998 0
250.382 -0.177618 0
245.401 -0.0645095 0
342.713 3.64194 0
338.259 5.90765 0
407.884 20.7028 0
409.416 15.9393 0
104.849 51.3902 0
100.966 48.2231 0
391.813 21.4687 0
389.991 16.8168 0
481.702 14.1007 0
476.702 14.0964 0
364.59 0.717817 0
360.467 -2.1043 0
450.107 -10.6223 0
448.6 -15.3899 0
462.097 -3.79608 0
459.665 -8.16371 0
96.4497 40.7228 0
93.7264 36.53 0
311.133 10.1723 0
306.769 7.74513 0
283.948 15.211 0
279.542 12.8533 0
266.102 16.6901 0
266.183 11.6894 0
317.45 -1.46017 0
315.921 3.30237 0
383.514 2.94113 0
378.894 1.03832 0
134.422 30.1498 0
135.37 35.0573 0
276.722 21.0249 0
277.908 25.8811 0
31.512 23.7566 0
36.4964 24.0191 0
209.034 15.1205 0
204.044 15.0636 0
428.257 7.53151 0
430 2.84309 0
313.423 -5.3058 0
315.673 -0.839532 0
200.597 12.1268 0
203.781 8.2754 0
264.812 14.1545 0
268.747 11.0717 0
443.862 24.7412 0
448.558 23.0184 0
143.049 28.4654 0
145.459 32.8441 0
20.1376 21.4838 0
18.7257 16.6852 0
498.349 20.2452 0
497.025 25.0668 0
70.255 7.64412 0
67.7042 3.34474 0
104.869 44.3068 0
106.765 39.6785 0
89.523 45.9547 0
86.2569 42.1645 0
175.497 17.2696 0
172.285 13.4423 0
354.519 -9.10737 0
359.506 -9.26865 0
436.126 -10.5988 0
434.9 -5.75025 0
93.7118 53.0348 0
88.7571 52.1756 0
28.0205 4.36349 0
23.1927 3.20436 0
25.5358 44.5011 0
29.6215 47.4041 0
339.138 21.8106 0
335.231 18.692 0
126.779 18.7145 0
126.329 23.6965 0
325.297 16.7507 0
324.521 21.6908 0
181.807 24.1207 0
186.137 21.615 0
169.109 35.6561 0
172.35 31.8425 0
87.0239 38.3606 0
90.4154 34.6853 0
442.024 -3.86132 0
437.664 -6.30301 0
146.326 22.4993 0
147.114 17.5594 0
366.447 37.6283 0
370.312 40.8053 0
336.619 35.4079 0
334.331 39.8553 0
71.3877 37.8858 0
73.4549 33.331 0
304.729 -9.24786 0
309.608 -8.22022 0
26.2003 57.821 0
27.9637 53.1456 0
59.766 11.2573 0
64.7068 10.6673 0
363.608 16.7885 0
368.595 16.4224 0
115.522 5.09174 0
120.281 3.64299 0
377.668 9.04587 0
382.599 8.21636 0
267.185 23.426 0
263.422 20.1366 0
280.35 32.0595 0
280.799 37.0371 0
138.507 5.31952 0
137.121 10.1282 0
72.9474 40.7944 0
69.1242 37.5662 0
238.75 12.1616 0
233.777 11.7367 0
458.565 6.50833 0
458.652 1.50854 0
476.344 0.394604 0
474.96 -4.40943 0
376.097 -9.04041 0
371.839 -11.6494 0
282.677 -0.0111976 0
286.265 3.4653 0
381.493 12.1869 0
377.55 15.2665 0
127.542 25.4524 0
124.036 21.8917 0
403.149 34.5421 0
401.912 39.3869 0
221.747 24.3589 0
224.92 28.2216 0
153.208 27.0409 0
151.916 31.8719 0
49.2727 29.874 0
50.0262 24.9299 0
87.8012 40.8905 0
86.5618 36.0498 0
169.607 2.93242 0
164.92 1.25103 0
156.46 42.5572 0
160.64 45.3189 0
229.066 3.37085 0
231.792 7.56076 0
324.512 13.8515 0
326.215 18.5515 0
399.957 28.1254 0
402.179 23.643 0
56.843 37.0543 0
59.8403 33.048 0
131.325 51.3731 0
130.349 56.2715 0
223.64 17.0069 0
225.618 12.4129 0
63.5647 7.34412 0
61.3133 2.87819 0
447.282 19.303 0
445.039 23.7733 0
227.905 1.29564 0
230.899 5.29743 0
483.709 -6.64575 0
478.713 -6.81314 0
219.205 23.4679 0
216.448 27.6408 0
253.768 13.1581 0
251.864 8.53439 0
172.629 31.6435 0
170.982 36.3655 0
480.52 -19.3657 0
485.265 -17.7935 0
352.52 -12.3448 0
356.986 -14.5709 0
408.452 5.89197 0
408.145 0.902184 0
152.232 0.332014 0
153.034 5.27443 0
193.172 52.6749 0
197.868 54.4532 0
440.449 18.3016 0
437.172 22.0805 0
199.432 45.9868 0
199.138 50.9734 0
168.644 20.6155 0
169.355 15.6641 0
179.626 35.0702 0
179.922 40.0591 0
273.489 -4.09796 0
276.407 -8.1531 0
34.175 14.943 0
29.7364 12.6798 0
461.775 0.553387 0
456.777 0.661165 0
98.6878 8.38965 0
98.0197 13.3508 0
352.348 -10.8242 0
348.673 -7.44034 0
341.513 12.8361 0
336.669 11.6066 0
72.6862 3.15632 0
71.21 7.93892 0
252.861 29.2381 0
257.794 28.3907 0
129.234 40.2098 0
124.674 42.2932 0
119.085 53.612 0
120.524 48.8268 0
25.1578 28.152 0
23.6649 23.3802 0
415.772 29.0669 0
412.341 32.7075 0
110.362 11.3686 0
110.313 16.374 0
386.176 34.7583 0
391.107 35.6254 0
24.2519 3.73943 0
29.1861 4.27571 0
48.0365 37.6953 0
53.0466 37.7843 0
337.44 31.2155 0
332.473 31.8451 0
409.616 13.9806 0
410.291 18.9362 0
182.55 46.8147 0
186.489 49.9108 0
232.19 44.241 0
231.726 49.2152 0
475.367 14.4319 0
471.34 17.3979 0
228.982 31.7469 0
229.283 36.7355 0
20.9833 46.283 0
22.8266 41.6359 0
61.0058 13.2354 0
64.8479 16.4196 0
56.2327 23.2578 0
56.1665 18.255 0
482.291 1.82153 0
477.941 4.29011 0
18.002 20.4026 0
22.7439 18.8569 0
206.233 14.6144 0
206.617 9.62602 0
365.752 -0.110565 0
361.907 -3.30205 0
166.077 18.3885 0
171.052 17.9736 0
390.127 38.3683 0
387.986 33.8518 0
306.813 47.3244 0
301.889 48.2808 0
157.997 42.2542 0
161.549 38.725 0
96.8661 7.88726 0
94.8793 12.4796 0
376.395 26.305 0
371.393 26.427 0
26.7391 59.6317 0
21.8192 58.5412 0
304.776 33.8619 0
304.271 28.8883 0
405.57 -3.51299 0
405.618 -8.51361 0
204.421 42.183 0
208.781 39.7099 0
275.308 7.50464 0
278.447 11.3933 0
433.864 15.8846 0
433.069 20.8213 0
92.8214 0.426739 0
92.9302 5.43554 0
255.912 32.6664 0
254.954 37.5728 0
180.735 47.8625 0
178.125 43.5972 0
360.371 -7.07918 0
357.804 -2.78839 0
417.069 11.5246 0
420.887 8.29235 0
197.884 12.5286 0
194.113 15.8035 0
290.431 30.216 0
289.75 35.1665 0
28.7555 56.1634 0
33.613 54.8426 0
261.483 4.98086 0
264.705 1.16155 0
67.4282 2.45311 0
71.4693 -0.453376 0
360.389 -4.30711 0
360.186 0.690804 0
351.148 37.8065 0
346.139 37.6974 0
164.683 36.773 0
161.348 33.0467 0
484.835 22.3728 0
489.234 24.7462 0
150.184 45.8553 0
145.766 48.2332 0
324.051 1.0104 0
323.987 -3.99239 0
265.58 28.6556 0
263.744 24.0065 0
312.078 4.79316 0
316.743 6.57135 0
342.76 11.1835 0
347.709 10.4852 0
445.947 24.5782 0
440.953 24.8644 0
222.521 23.3949 0
226.144 26.8386 0
472.455 1.83917 0
469.871 -2.44018 0
368.405 26.5861 0
371.725 30.3242 0
110.033 1.01243 0
112.986 5.04284 0
432.277 9.29226 0
432.415 4.29349 0
39.867 53.1902 0
43.2335 49.4792 0
376.379 -1.70911 0
371.492 -2.74034 0
31.1221 40.4188 0
36.1371 40.4457 0
128.105 51.2656 0
127.542 56.2271 0
378.884 13.8951 0
383.681 15.2965 0
100.956 52.0479 0
95.9795 52.7723 0
449.102 14.7493 0
449.066 19.7492 0
77.532 12.0278 0
78.0068 7.04324 0
99.5887 44.5429 0
104.196 42.5556 0
138.909 5.86339 0
143.81 4.99614 0
235.062 29.8407 0
239.878 28.4774 0
493.738 25.9757 0
498.726 25.6363 0
114.12 33.52 0
109.2 34.4341 0
424.239 9.18183 0
420.811 12.8244 0
333.251 43.9244 0
328.413 42.6198 0
497.157 19.9839 0
498.389 24.8287 0
9.32186 50.165 0
8.81856 55.1328 0
114.027 21.6214 0
118.031 24.6091 0
317.141 6.9739 0
316.086 11.8634 0
46.1275 17.9803 0
46.9164 13.0374 0
479.266 2.49743 0
476.436 6.62206 0
474.654 -14.7996 0
472.735 -10.1816 0
50.9472 5.1264 0
47.8104 1.24258 0
222.929 15.438 0
218.416 13.304 0
95.4476 43.7331 0
99.8623 41.3511 0
379.364 4.95129 0
375.117 7.59224 0
160.434 -1.2015 0
155.957 0.975066 0
212.418 8.57707 0
217.4 8.77217 0
113.03 15.128 0
111.408 19.8615 0
69.914 13.5762 0
71.7704 18.22 0
469.763 7.82521 0
467.777 12.4157 0
246.101 33.1263 0
250.784 31.3527 0
320.03 3.9233 0
318.579 -0.86322 0
464.027 -12.1116 0
463.065 -7.20395 0
36.3077 50.2611 0
31.4245 49.073 0
273.824 15.4187 0
273.236 10.4528 0
491.586 12.8508 0
490.846 7.90597 0
234.15 40.2836 0
238.538 42.6983 0
63.3933 20.804 0
63.649 25.7993 0
407.157 2.879 0
406.546 -2.08328 0
69.6256 47.2515 0
70.0637 42.275 0
23.1486 50.785 0
28.0377 49.6117 0
437.646 20.9426 0
434.846 25.0873 0
128.269 36.308 0
125.498 40.4745 0
451.567 28.1859 0
454.623 32.1432 0
367.748 26.2426 0
369.03 31.0741 0
471.865 21.2069 0
476.783 20.3005 0
3.78825 30.6557 0
0.722784 26.7047 0
147.704 11.8076 0
142.832 12.8631 0
351.073 12.5872 0
355.4 10.0823 0
213.003 27.5176 0
210.838 32.027 0
32.927 53.5516 0
36.0333 57.479 0
466.872 34.7065 0
462.127 33.1264 0
36.6616 36.3317 0
38.3574 41.0325 0
117.759 8.70492 0
114.697 4.7582 0
448.534 -13.9049 0
444.116 -11.5677 0
181.354 32.633 0
178.108 28.8323 0
17.3098 37.0104 0
17.9993 32.0593 0
138.123 25.5906 0
140.245 30.1162 0
461.009 24.2203 0
459.078 28.8335 0
257.219 5.56761 0
258.073 0.637563 0
358.967 -10.8451 0
363.678 -12.4905 0
346.043 -12.5308 0
346.888 -7.5994 0
239.691 37.5246 0
237.641 42.0862 0
184.467 20.0985 0
182.512 15.497 0
131.137 54.511 0
126.15 55.1697 0
90.7423 23.0134 0
86.0705 24.8002 0
17.0803 59.8734 0
19.5931 55.5474 0
174.485 32.5902 0
174.512 37.5886 0
170.091 -0.0658435 0
168.19 4.56046 0
485.574 23.0607 0
490.573 23.0177 0
238.74 51.0098 0
237.254 46.2398 0
304.726 36.9915 0
299.886 38.2894 0
154.522 49.1873 0
151.057 52.8061 0
412.677 -1.97315 0
408.146 0.133297 0
72.1637 0.187293 0
75.6733 3.73211 0
131.261 13.6033 0
135.823 15.6198 0
231.487 43.5894 0
226.489 44.032 0
115.51 53.0649 0
110.509 52.5344 0
120.091 1.05868 0
125.002 1.8263 0
102.687 15.2592 0
107.467 16.6692 0
496.784 -19.799 0
494.281 -24.1277 0
338.887 36.6981 0
338.887 41.6955 0
439.718 24.6617 0
436.982 20.4779 0
464.168 11.297 0
465.508 6.47846 0
482.067 -18.0964 0
486.619 -20.1638 0
324.017 -3.22655 0
328.518 -5.38459 0
138.56 36.6327 0
136.801 41.3133 0
233.909 12.0376 0
236.98 8.0936 0
459.139 -7.17849 0
455.69 -3.55792 0
232.322 22.1638 0
237.319 21.9902 0
232.823 44.6318 0
237.217 42.2181 0
184.717 39.3865 0
185.743 34.4949 0
108.265 41.8013 0
113.213 42.6225 0
152.804 28.5411 0
151.097 33.2414 0
448.742 2.5099 0
445.113 5.95205 0
333.047 35.413 0
336.791 32.0905 0
22.4112 29.8605 0
17.9045 32.0317 0
330.356 28.505 0
331.916 23.7538 0
273.499 34.5413 0
278.501 34.8013 0
81.5672 47.5881 0
76.58 48.1921 0
8.52113 9.09372 0
4.64632 12.2334 0
245.115 23.453 0
245.472 18.4651 0
365.605 41.363 0
363.101 37.0358 0
137.78 37.652 0
140.409 33.3958 0
375.332 11.58 0
380.315 11.1749 0
484.058 -6.71699 0
488.065 -3.72961 0
126.692 25.0835 0
124.955 29.7734 0
109.96 51.2686 0
110.029 56.2607 0
99.8193 3.44959 0
102.797 7.45979 0
247.108 42.5577 0
243.374 39.226 0
458.467 16.0343 0
453.564 15.0551 0
337.109 43.7472 0
332.857 41.1053 0
244.232 42.6332 0
240.076 45.4344 0
108.032 52.6901 0
103.13 51.5816 0
216.164 43.3838 0
213.531 47.6389 0
67.1083 29.6267 0
70.8265 26.2813 0
258 5.08962 0
257.75 10.0864 0
322.337 17.5374 0
318.579 14.2419 0
89.8753 15.8907 0
85.2443 17.7439 0
1.79553 7.656 0
0.710475 12.5376 0
319.816 -8.45813 0
323.78 -5.42169 0
163.566 7.37799 0
160.905 11.6097 0
413.46 19.3027 0
417.814 21.7603 0
219.328 17.0648 0
224.019 15.3459 0
128.812 27.8789 0
125.897 23.8182 0
138.905 57.0627 0
143.869 56.2393 0
125.271 54.8813 0
130.142 53.6342 0
341.531 24.6218 0
343.669 20.1003 0
49.2611 50.2067 0
49.6226 55.1856 0
226.718 45.0293 0
226.826 40.0343 0
96.4075 3.74641 0
91.5563 4.83139 0
244.234 14.7981 0
239.343 13.7895 0
67.1586 11.3272 0
71.4624 8.81582 0
334.051 2.49996 0
338.042 -0.506757 0
123.955 33.4943 0
122.818 28.6266 0
391.371 33.2446 0
390.307 28.3617 0
180.895 32.6561 0
185.713 31.3039 0
328.059 18.4481 0
324.144 15.3425 0
122.573 14.578 0
127.33 16.0769 0
299.228 -1.68702 0
299.98 3.25812 0
372.73 24.1944 0
377.438 22.5004 0
387.633 23.0729 0
386.798 18.1441 0
416.689 -4.09669 0
416.382 0.895448 0
77.1878 12.3322 0
72.9964 9.63211 0
19.5557 54.6599 0
22.2155 58.8977 0
242.78 23.8476 0
237.856 22.9819 0
222.619 39.2216 0
217.724 38.1465 0
36.3259 16.0608 0
40.5079 18.7796 0
439.934 29.704 0
443.816 32.8556 0
346.821 10.3057 0
344.522 5.86656 0
475.556 -19.1617 0
478.98 -15.52 0
273.774 -0.934252 0
270.18 2.53351 0
26.0761 11.5871 0
28.2584 7.08641 0
229.477 15.1467 0
229.918 20.1284 0
18.0102 43.9091 0
21.3601 40.1876 0
456.857 8.34198 0
452.121 6.74355 0
402.801 36.7984 0
407.736 37.6328 0
130.352 51.0515 0
134.348 54.0791 0
71.6915 17.4759 0
75.6097 14.3823 0
398.669 26.4454 0
402.373 23.0801 0
462.48 5.33553 0
465.144 9.56536 0
412.303 0.916241 0
416.148 -2.27858 0
407.521 4.21965 0
412.2 2.46146 0
366.66 -11.2813 0
363.859 -15.4228 0
305.698 31.6837 0
306.865 36.5439 0
305.921 4.94182 0
310.524 3.00871 0
315.806 35.3068 0
311.194 37.2629 0
269.19 9.19001 0
265.521 12.5849 0
265.911 9.51282 0
262.544 13.208 0
89.1671 41.4341 0
84.3112 40.1928 0
238.918 5.15444 0
240.255 0.333243 0
362.633 8.1597 0
360.649 12.751 0
156.052 41.0006 0
152.712 37.2776 0
442.83 28.725 0
445.479 32.9651 0
26.6878 35.0528 0
31.0566 32.6095 0
62.4302 22.2658 0
67.3877 21.687 0
191.601 -2.18585 0
189.704 2.44304 0
193.604 4.00366 0
196.755 0.126251 0
98.9647 49.0163 0
98.7797 54.0064 0
349.853 39.1333 0
349.5 34.148 0
225.112 49.7464 0
220.198 50.78 0
411.384 3.57751 0
414.979 7.04756 0
462.868 -0.633679 0
458.355 -2.78104 0
326.76 31.3192 0
321.835 32.2285 0
127.496 19.3273 0
132.446 19.9672 0
222.09 23.0958 0
221.586 18.1209 0
451.756 18.8594 0
456.343 20.849 0
316.042 2.61323 0
312.689 6.31968 0
210.504 27.5519 0
208.051 31.9123 0
17.139 2.30206 0
12.1881 2.60293 0
359.68 15.1188 0
361.577 10.4913 0
339.55 21.6799 0
344.552 21.6739 0
164.147 22.131 0
167.789 25.5522 0
348.335 25.2645 0
351.704 21.5655 0
450.024 24.8998 0
455.014 25.2337 0
251.633 44.3452 0
248.117 47.9122 0
397.402 37.7442 0
402.025 35.8209 0
325.89 21.6886 0
330.828 20.8864 0
326.993 29.8837 0
326.847 24.8871 0
342.534 31.6942 0
338.128 34.0726 0
180.224 9.35357 0
175.807 7.03482 0
339.288 24.6634 0
334.318 24.0957 0
180.415 28.0071 0
176.472 31.088 0
426.409 39.3827 0
429.869 35.7699 0
178.072 23.1216 0
178.542 18.1427 0
313.705 29.5504 0
317.601 32.6874 0
81.1867 51.5678 0
84.131 47.5198 0
254.349 41.1474 0
257.688 37.4178 0
204.987 -0.861275 0
205.869 4.06546 0
408.99 -6.88077 0
411.638 -11.1216 0
454.38 25.1807 0
449.381 25.029 0
265.815 3.76855 0
264.541 8.60589 0
274.359 40.5735 0
277.035 44.7974 0
224.788 45.823 0
221.94 41.7123 0
437.092 17.4636 0
432.431 15.6558 0
437.361 -6.83309 0
434.673 -2.61592 0
259.827 42.2418 0
264.435 44.2096 0
403.926 -16.8875 0
400.086 -13.6904 0
267.401 5.55336 0
272.095 7.25042 0
117.404 18.6199 0
114.874 14.3092 0
278.337 41.9277 0
279.142 46.8584 0
397.382 31.4392 0
394.247 35.3387 0
145.619 11.3837 0
147.265 16.1066 0
58.8337 36.5854 0
61.9463 32.6678 0
89.7362 47.5587 0
93.8014 44.6221 0
25.1316 14.2708 0
30.0858 13.7919 0
79.5925 35.0118 0
75.5865 38.0147 0
49.4707 27.8522 0
52.8807 24.1953 0
25.3581 42.3867 0
20.4207 41.4996 0
210.874 1.84201 0
206.332 3.89632 0
47.8372 11.8227 0
49.3175 16.602 0
372.233 8.93371 0
377.103 7.80386 0
193.819 5.74534 0
198.795 5.50723 0
64.9471 56.8465 0
69.3701 59.2347 0
376.463 5.58195 0
373.551 1.51962 0
29.407 49.0166 0
29.5849 44.0258 0
8.10274 12.1756 0
11.7191 8.73782 0
282.938 6.54305 0
287.93 6.55647 0
21.809 40.7982 0
19.0698 44.9856 0
397.37 27.9549 0
397.029 32.9422 0
294.073 4.97746 0
289.438 6.83615 0
9.9126 38.2804 0
13.6947 35.0009 0
422.237 -6.53846 0
423.183 -1.62778 0
285.776 11.0015 0
281.309 8.7629 0
445.554 -0.219082 0
446.501 -5.13 0
157.282 10.6971 0
156.679 5.72832 0
489.947 2.70809 0
484.989 2.07062 0
220.699 41.8156 0
215.698 41.4464 0
52.6391 53.1919 0
47.6237 52.7873 0
51.1428 40.1169 0
55.3362 42.8553 0
495.86 -19.51 0
494.42 -14.7202 0
478.388 -9.72565 0
478.387 -14.726 0
379.345 22.1857 0
379.042 17.1948 0
247.33 44.5687 0
247.413 39.5729 0
416.505 2.49552 0
419.022 -1.82638 0
424.087 18.0188 0
424.015 23.0179 0
269.346 24.7002 0
269.085 19.7072 0
486.041 -0.934363 0
491.011 -0.391559 0
426.975 30.0782 0
425.303 25.3672 0
371.246 33.0816 0
368.523 28.8885 0
427.118 13.2456 0
422.147 13.7938 0
453.014 16.7548 0
448.242 18.2543 0
160.234 50.1152 0
155.784 47.8019 0
147.297 25.0891 0
145.31 20.5019 0
137.091 20.3265 0
132.957 23.135 0
313.315 27.3953 0
311.21 22.8615 0
481.154 -15.3948 0
476.432 -17.0348 0
60.8835 37.0676 0
56.8725 34.0783 0
298.641 45.7255 0
294.46 48.4906 0
300.21 36.6435 0
299.594 41.6039 0
190.087 13.1145 0
194.994 12.2192 0
319.918 3.86095 0
317.782 8.38322 0
492.891 -2.88438 0
495.328 1.47972 0
114.868 -1.25438 0
114.343 3.72674 0
323.975 14.9346 0
327.717 11.6172 0
486.131 -7.16073 0
490.286 -9.94339 0
230.859 -1.70222 0
226.092 -3.15016 0
215.606 8.49412 0
217.461 3.84902 0
294.973 1.01023 0
290.499 -1.1974 0
304.425 36.4046 0
308.399 33.3577 0
326.2 19.5689 0
321.637 21.6185 0
480.586 -17.5594 0
483.461 -13.4694 0
217.961 -0.428688 0
222.23 -3.00275 0
434.579 -10.6704 0
436.146 -15.4195 0
236.649 52.2459 0
233.62 48.2636 0
208.596 12.9704 0
205.382 9.14654 0
91.6302 42.9916 0
90.5376 47.8657 0
168.114 24.6392 0
171.805 28.0084 0
347.057 25.7379 0
351.504 23.4439 0
4.63031 32.2124 0
8.72762 35.0833 0
388.751 26.3638 0
383.748 26.3975 0
186.976 50.0712 0
181.952 49.9989 0
161.324 42.0439 0
164.903 45.5421 0
62.4958 28.8885 0
67.4917 28.7005 0
353.276 32.6075 0
350.408 36.7068 0
126.546 54.3303 0
127.812 49.4973 0
163.53 26.8913 0
159.208 24.3822 0
142.304 37.1071 0
147.223 36.1566 0
349.137 40.9906 0
345.627 44.5592 0
25.8337 50.8698 0
29.1889 47.1498 0
364.348 5.33938 0
368.369 8.30622 0
72.4448 24.1352 0
77.0271 22.1435 0
37.308 24.7903 0
34.2103 28.7161 0
152.234 44.8576 0
157.124 43.7288 0
436.91 32.6951 0
434.445 28.3455 0
256.861 10.6302 0
251.889 11.0804 0
243.902 17.5596 0
248.845 16.832 0
300.575 35.5027 0
302.728 30.9863 0
100.747 57.3303 0
104.727 54.271 0
48.1757 10.9245 0
44.1183 8.03046 0
248.233 14.9526 0
253.175 14.2304 0
320.423 0.601286 0
324.096 -2.78495 0
36.5839 25.0486 0
37.8908 20.2194 0
127.359 30.1505 0
130.149 34.299 0
486.824 -17.3318 0
483.578 -13.528 0
365.911 3.97512 0
362.215 7.34254 0
84.311 51.1905 0
86.5053 55.6812 0
73.4925 43.7481 0
70.1222 47.4523 0
60.9548 38.7342 0
65.9612 38.9662 0
124.62 0.58297 0
128.266 3.98867 0
373.001 -0.034845 0
377.353 2.4199 0
387.592 13.3102 0
389.438 8.66013 0
458.926 -11.1242 0
463.588 -9.32283 0
362.762 -7.82905 0
366.23 -11.4257 0
453.493 -21.1657 0
449.313 -18.4268 0
349.258 30.0943 0
354.247 30.5037 0
356.28 11.9395 0
353.734 7.63754 0
436.576 -20.8497 0
433.736 -16.7357 0
9.98411 14.4227 0
7.61196 18.8239 0
201.332 -1.71688 0
197.287 -4.63415 0
71.2255 29.5841 0
76.1369 30.5191 0
218.163 47.3365 0
213.176 46.7624 0
92.2694 5.63697 0
95.9411 2.26114 0
223.168 34.5794 0
223.924 29.6377 0
68.2571 52.3067 0
67.6438 47.3509 0
407.055 38.0068 0
411.905 39.242 0
105.403 12.1025 0
101.562 15.2897 0
77.4856 28.1433 0
72.5564 28.984 0
42.5014 27.6274 0
47.4217 26.7543 0
370.049 32.8318 0
371.081 37.7224 0
156.965 44.0491 0
157.371 49.0274 0
20.8758 21.4247 0
22.4748 16.6838 0
350.866 29.7112 0
355.749 30.8103 0
72.9201 14.7661 0
72.4592 19.7487 0
246.987 0.141983 0
243.608 -3.53673 0
69.1179 36.894 0
69.7668 31.9368 0
482.28 -12.0371 0
477.471 -10.6724 0
444.864 -11.9124 0
444.874 -16.9136 0
191.113 32.074 0
192.707 36.8087 0
223.343 25.3966 0
218.527 24.0527 0
383.993 -14.3383 0
383.461 -9.36392 0
176.535 15.3327 0
177.681 20.1997 0
177.186 11.7687 0
178.497 16.5955 0
387.915 30.2398 0
392.4 28.019 0
124.208 57.2094 0
129.14 56.2134 0
378.411 35.9775 0
375.06 32.2648 0
219.36 34.2079 0
214.949 31.8457 0
409.442 -11.9598 0
414.151 -13.6244 0
258.906 24.274 0
263.503 26.2405 0
113.859 -1.30678 0
118.29 0.959267 0
299.221 41.611 0
295.708 45.1808 0
300.163 38.9554 0
295.919 36.3048 0
459.01 -16.013 0
463.947 -16.7881 0
183.008 31.066 0
182.537 36.0432 0
240.626 35.9597 0
239.102 31.2 0
59.2495 48.4225 0
55.475 51.7229 0
240.85 34.7991 0
243.248 39.1851 0
18.1627 5.92069 0
19.7629 10.6628 0
232.014 18.8159 0
227.388 16.9322 0
184.686 15.9993 0
188.328 12.5786 0
377.87 17.0825 0
380.464 21.3552 0
470.111 2.21934 0
466.643 -1.38004 0
64.2337 53.4066 0
63.6265 58.3615 0
178.641 14.9264 0
181.362 10.7329 0
175.003 9.10619 0
177.617 4.84584 0
154.047 47.1288 0
156.093 51.6881 0
308.92 31.1657 0
313.084 33.9406 0
155.101 11.7761 0
157.667 7.48582 0
198.394 -1.6272 0
197.285 3.25341 0
323.628 -3.58187 0
328.079 -1.32176 0
368.588 32.8045 0
369.174 37.7681 0
271.057 0.792328 0
270.319 -4.15746 0
372.038 18.6331 0
373.139 23.5097 0
177.811 22.715 0
178.673 17.7884 0
167.141 45.1956 0
162.786 42.7169 0
21.5225 14.7326 0
17.4277 11.8903 0
150.72 31.4563 0
155.659 32.2588 0
91.2617 46.8992 0
94.0489 42.743 0
193.469 45.1334 0
194.148 40.1836 0
284.071 28.8303 0
279.67 26.4576 0
286.746 -3.77051 0
288.45 -8.47339 0
56.2996 47.6939 0
51.3754 46.7069 0
203.574 1.51829 0
206.163 5.79422 0
189.183 36.1395 0
191.257 40.686 0
152.338 -3.10513 0
155.992 0.292829 0
406.854 -6.29241 0
403.871 -2.28035 0
348.73 17.4521 0
346.446 13.0059 0
129.759 39.6606 0
124.802 40.4157 0
384.321 26.2323 0
386.638 30.6619 0
278.755 -1.87875 0
283.138 -4.26017 0
274.441 31.3805 0
277.554 35.2934 0
410.915 -11.3892 0
415.908 -11.2814 0
101.418 40.6445 0
98.2362 44.5131 0
495.621 -18.2462 0
492.144 -21.8381 0
282.668 28.2962 0
284.803 32.8161 0
246.34 9.94137 0
249.108 5.77823 0
464.019 33.5624 0
460.129 36.7064 0
63.3567 45.0935 0
63.1864 50.0848 0
43.3173 30.4665 0
46.8856 26.9623 0
146.826 30.6741 0
142.538 28.1032 0
420.218 29.6995 0
424.544 27.1853 0
85.1492 25.9214 0
87.4928 30.3329 0
413.18 -16.0486 0
416.883 -12.6922 0
39.4373 25.7648 0
34.5211 26.6521 0
452.415 18.5556 0
447.962 16.2834 0
176.386 46.0746 0
175.895 51.0454 0
164.223 12.0596 0
168.788 10.048 0
295.785 42.1761 0
292.333 38.5566 0
465.316 -9.46151 0
466.407 -14.3419 0
483.271 12.3772 0
483.344 17.3771 0
325.049 1.37826 0
328.152 -2.54024 0
235.233 47.5941 0
237.932 43.3805 0
336.111 29.2473 0
337.344 34.0906 0
248.819 10.8823 0
253.38 8.8494 0
270.257 4.35913 0
268.064 8.85326 0
416.763 10.2125 0
420.926 7.44147 0
281.165 37.0921 0
278.856 41.5286 0
485.118 -14.9442 0
483.739 -19.7502 0
92.8678 18.7678 0
88.1464 17.1528 0
450.781 29.0354 0
448.837 33.6424 0
398.4 36.3509 0
399.792 41.1512 0
194.725 50.6507 0
199.127 48.2393 0
164.226 1.45217 0
168.912 -0.222684 0
141.903 41.6625 0
138.457 45.2969 0
201.561 41.2375 0
206.307 42.8479 0
266.919 -1.76403 0
262.905 -4.73116 0
115.424 29.1318 0
110.58 27.8915 0
309.884 34.1636 0
305.488 36.5637 0
238.076 16.9863 0
239.994 21.6032 0
401.953 0.204042 0
399.905 -4.35516 0
30.2897 56.4796 0
25.3061 57.2171 0
417.586 39.3751 0
418.847 34.5371 0
231.286 34.9862 0
234.708 31.3332 0
218.077 48.6434 0
221.838 51.9511 0
386.017 42.182 0
381.239 40.6793 0
160.611 20.4183 0
157.983 16.1669 0
481.243 -6.30988 0
483.705 -1.95987 0
272.685 28.4546 0
271.003 23.7476 0
440.409 2.68558 0
444.787 5.09555 0
163.91 40.5327 0
159.016 39.4559 0
41.8572 47.7639 0
36.8856 47.0425 0
140.585 35.2858 0
139.175 30.4906 0
173.141 -3.69522 0
169.291 -0.529269 0
449.016 21.0243 0
446.969 16.4638 0
245.815 19.1572 0
248.038 14.6771 0
338.935 11.1512 0
339.049 6.15111 0
443.263 11.6982 0
446.979 8.35066 0
455.986 -15.0499 0
450.989 -15.0308 0
113.513 53.7682 0
116.405 49.6825 0
334.915 34.3529 0
337.022 29.8171 0
113.582 19.0095 0
118.57 18.8698 0
4.85195 3.35337 0
9.28729 5.59517 0
86.9763 46.5417 0
83.9724 42.5419 0
79.2352 23.2861 0
75.1885 20.3601 0
312.043 2.38221 0
315.357 6.12133 0
215.062 9.08494 0
213.185 4.44881 0
484.13 -7.91112 0
488.393 -5.30203 0
407.576 21.2143 0
412.502 22.0873 0
63.6555 55.0571 0
58.687 54.2573 0
200.162 50.2159 0
195.563 48.2136 0
147.911 55.0135 0
148.21 50.0289 0
434.772 8.82065 0
434.471 13.812 0
327.531 -2.92221 0
328.264 2.02632 0
146.27 5.90604 0
142.601 9.29015 0
425.126 -12.8361 0
430.115 -13.0811 0
25.739 43.3776 0
23.0877 47.6208 0
272.459 45.5306 0
267.477 44.9438 0
117.645 10.7489 0
117.916 5.74921 0
329.923 -2.729 0
329.078 2.20168 0
399.896 -1.85229 0
399.419 -6.83021 0
369.756 -2.93847 0
364.972 -1.50501 0
247.999 5.50225 0
246.31 0.793751 0
83.8936 49.1411 0
82.065 53.7926 0
237.415 32.7753 0
232.444 32.1743 0
186.776 28.2865 0
189.375 32.5543 0
52.9555 13.3154 0
49.4346 16.8569 0
67.765 5.08362 0
72.4349 3.37914 0
467.729 24.5339 0
472.313 22.5336 0
174.884 6.84383 0
172.654 2.36725 0
481.237 30.0649 0
485.296 27.1445 0
255.632 31.6638 0
260.614 31.1607 0
293.528 6.1815 0
291.849 10.895 0
187.913 15.289 0
184.985 19.3421 0
311.468 1.83804 0
315.74 4.423 0
147.088 50.8709 0
151.254 53.663 0
328.177 -2.86493 0
324.326 -6.04599 0
349.881 9.97195 0
345.858 7.00905 0
163.584 44.1245 0
167.491 47.2578 0
223.473 0.351621 0
222.347 5.22736 0
199.402 41.3361 0
195.416 44.3761 0
140.037 15.2152 0
143.694 11.8131 0
449.198 7.19682 0
451.196 2.61176 0
383.383 38.0751 0
388.078 36.335 0
453.972 27.791 0
452.941 22.8992 0
281.82 45.6524 0
281.124 40.7051 0
72.7303 17.219 0
76.0888 20.9165 0
155.278 37.7374 0
153.673 33.0045 0
346.367 7.68472 0
350.807 5.39012 0
191.36 -4.519 0
192.036 0.442727 0
56.2785 11.357 0
51.4641 12.6244 0
170.761 21.0003 0
175.704 20.2707 0
75.5224 13.372 0
71.005 15.4824 0
45.2453 40.7231 0
40.7224 42.8878 0
433.753 -9.46644 0
436.471 -13.6634 0
459.351 -20.0758 0
454.827 -22.1995 0
362.332 -8.34332 0
359.456 -12.4322 0
39.0174 33.8287 0
41.6628 29.5836 0
84.2155 25.4505 0
89.2139 25.3186 0
228.596 10.48 0
223.725 11.5692 0
140.915 2.91149 0
137.628 -0.847231 0
472.141 -4.34916 0
477.138 -4.1985 0
143.457 43.5011 0
143.321 38.5068 0
362.112 2.65642 0
363.334 7.50516 0
243.047 17.7917 0
238.729 20.3124 0
143.599 12.6672 0
145.294 17.3725 0
448.357 4.63664 0
451.334 8.65145 0
245.648 50.1372 0
248.755 46.2112 0
115.997 7.91716 0
113.802 3.42264 0
230.101 45.4908 0
225.096 45.8623 0
341.95 10.7716 0
346.758 12.1336 0
159.437 37.5271 0
163.924 35.3012 0
422.736 33.8769 0
418.596 31.0713 0
450.885 24.5674 0
450.205 29.521 0
490.904 -19.1079 0
489.327 -23.8525 0
292.62 -3.84696 0
294.369 -8.53393 0
332.7 30.6019 0
337.69 31.0064 0
227.943 20.4314 0
230.504 24.7244 0
449.432 29.6479 0
454.294 28.4732 0
325.778 -4.43908 0
329.128 -0.731424 0
172.155 18.066 0
175.177 14.0837 0
45.9105 36.2524 0
40.9253 36.7464 0
407.772 -3.38008 0
405.465 1.05658 0
6.94041 38.8383 0
1.98614 39.5995 0
127.569 33.1055 0
125.976 37.8454 0
388.412 32.5358 0
393.256 33.7947 0
64.3577 25.639 0
64.9514 20.672 0
89.703 43.6538 0
90.013 38.6696 0
274.774 17.3794 0
278.491 14.0328 0
320.736 20.5435 0
321.831 25.4207 0
325.971 29.0797 0
321.109 30.2764 0
394.755 32.0307 0
394.646 37.0277 0
49.4257 22.4534 0
45.8394 25.9356 0
367.518 37.7027 0
362.613 36.6973 0
129.169 18.9721 0
133.936 17.4934 0
175.052 31.1879 0
170.458 33.1757 0
319.001 29.2074 0
316.547 33.5659 0
309.119 37.106 0
313.636 34.9409 0
128.45 53.5021 0
130.507 48.9447 0
140.614 34.9992 0
144.261 38.4227 0
358.643 11.432 0
353.905 13.0302 0
192.581 40.3726 0
197.187 38.3935 0
435.595 16.688 0
434.734 21.6136 0
47.1644 22.566 0
44.8617 18.1289 0
175.419 42.0902 0
179.929 39.9032 0
200.423 9.33153 0
199.458 14.2404 0
82.4046 40.1725 0
77.4691 41.0494 0
433.832 -3.12497 0
429.329 -5.28981 0
332.295 -7.95557 0
336.43 -5.15634 0
189.746 47.7031 0
188.65 52.5774 0
24.291 0.861999 0
21.6701 5.11701 0
188.794 18.9327 0
192.408 15.4754 0
149.642 20.4194 0
145.474 17.6687 0
147.339 24.336 0
142.567 25.825 0
280.708 45.8194 0
278.499 41.3352 0
138.667 5.33431 0
137.914 10.2831 0
240.578 44.4389 0
235.615 45.1777 0
289.931 -1.66758 0
294.827 -2.61285 0
322.691 25.3337 0
319.573 29.2464 0
55.4157 37.8279 0
52.5691 41.9432 0
434.02 6.31238 0
429.177 7.55363 0
365.027 41.7821 0
369.575 43.8775 0
281.199 45.9367 0
277.885 49.69 0
146.396 45.6701 0
146.347 40.6746 0
265.883 15.3597 0
262.321 18.8694 0
34.5288 22.6089 0
39.3926 23.726 0
361.607 13.1999 0
363.941 17.6199 0
37.3452 34.888 0
41.2638 31.7754 0
312.351 33.4354 0
307.344 33.5551 0
323.627 -4.43522 0
328.501 -5.50085 0
448.014 -0.680674 0
452.44 -3.00677 0
19.0802 21.4382 0
16.6156 25.7897 0
221.09 39.5959 0
221.179 34.5994 0
314.094 27.5389 0
316.694 23.2644 0
422.492 8.8502 0
418.433 5.93557 0
20.8618 35.2159 0
22.5314 39.9262 0
133.811 26.427 0
130.856 22.396 0
276.918 41.2065 0
281.74 42.5752 0
456.22 -10.0311 0
453.815 -14.4138 0
39.6299 16.5188 0
42.6771 12.5587 0
161.451 39.073 0
156.65 37.6436 0
236.718 49.0691 0
236.149 44.1064 0
310.833 12.0337 0
310.025 16.9681 0
324.72 16.3008 0
328.492 19.5801 0
473.854 6.05471 0
478.649 7.46672 0
330.044 5.75599 0
325.082 5.19989 0
210.415 20.4043 0
210.484 15.4041 0
186.232 11.7814 0
184.782 16.5689 0
77.4433 43.7876 0
72.8362 45.7724 0
469.225 8.03805 0
473.925 6.33054 0
322.391 35.2059 0
319.61 39.3644 0
226.37 45.7507 0
229.222 49.8593 0
16.9342 45.4789 0
18.8256 40.8506 0
408.962 4.06302 0
407.748 -0.786351 0
184.531 22.6281 0
189.512 23.0644 0
82.4509 49.6805 0
78.1743 47.0608 0
342.346 40.439 0
337.345 40.1187 0
103.875 50.8025 0
100.435 47.1653 0
166.661 16.7167 0
166.676 11.7135 0
315.474 15.04 0
313.862 19.774 0
2.87226 4.63596 0
0.159218 0.455798 0
418.488 -12.8413 0
415.586 -8.76996 0
54.55 30.983 0
51.1124 34.6185 0
11.4975 36.6838 0
16.3311 35.37 0
324.298 8.25293 0
325.351 3.36297 0
67.336 4.37693 0
62.4082 3.7546 0
221.196 22.417 0
224.885 25.7895 0
236.577 2.6496 0
235.212 -2.16465 0
428.672 21.2255 0
423.773 20.2212 0
210.851 20.4716 0
215.81 19.8495 0
176.362 50.3698 0
176.426 45.3756 0
211.773 12.8545 0
208.061 9.51444 0
489.162 6.90059 0
493.32 9.67369 0
124.063 16.1413 0
128.997 16.8651 0
12.7029 50.4222 0
14.6463 45.8157 0
376.408 30.5827 0
375.859 25.6139 0
183.595 22.3508 0
179.641 25.4168 0
157.437 10.3846 0
157.751 5.38887 0
146.673 18.5578 0
148.362 13.8493 0
29.9092 29.4437 0
33.7135 26.1986 0
241.916 30.714 0
241.75 25.7179 0
81.8865 40.4439 0
86.7157 39.1081 0
8.17094 31.7174 0
8.97715 36.6508 0
6.0109 31.7088 0
9.23155 35.5349 0
181.825 14.3085 0
185.975 17.0903 0
223.497 -0.386116 0
218.763 -1.94135 0
484.04 6.35034 0
489.034 6.57689 0
403.749 -6.11832 0
408.688 -6.86011 0
92.9219 1.85529 0
97.8856 2.02153 0
480.69 35.05 0
476.114 33.0341 0
109.897 11.041 0
112.778 15.1236 0
411.2 29.8463 0
411.021 24.8496 0
230.858 15.3005 0
228.792 10.7475 0
317.321 21.6185 0
321.334 24.6007 0
127.142 26.2668 0
122.271 27.3929 0
268.168 4.24482 0
265.542 -0.00908594 0
12.3487 10.4131 0
11.5598 5.46779 0
88.4269 55.0827 0
93.3876 54.2335 0
209.065 13.0891 0
213.502 15.3753 0
335.905 18.6082 0
340.377 16.3694 0
213.731 24.9437 0
217.595 21.769 0
216.263 52.8 0
212.576 49.4104 0
409.037 3.50462 0
414.032 3.37092 0
129.883 19.4972 0
126.051 16.2958 0
447.808 -19.6935 0
443.158 -21.5215 0
462.304 -14.1652 0
459.063 -10.3577 0
359.924 -3.4522 0
364.865 -2.73875 0
256.666 22.2793 0
251.715 22.9827 0
42.265 19.9205 0
45.5961 23.6431 0
36.8862 14.0467 0
36.1658 19 0
355.507 37.769 0
351.274 35.0995 0
12.1097 31.7263 0
14.7883 35.9475 0
451.904 8.30764 0
455.123 12.1306 0
460.726 2.24418 0
465.227 4.41714 0
95.88 3.33011 0
91.0616 2.11456 0
49.1816 51.0859 0
52.3459 54.9658 0
63.1868 3.6121 0
60.5168 7.83624 0
137.734 18.7244 0
139.329 13.983 0
150.552 8.14814 0
151.945 12.9535 0
8.14934 19.9893 0
3.36181 21.3909 0
257.062 -5.07439 0
261.93 -4.00987 0
57.7376 50.6899 0
60.08 55.1069 0
281.733 -3.18191 0
285.795 -6.08032 0
453.517 34.6802 0
455.602 30.1347 0
56.6488 26.172 0
61.6407 25.9775 0
313.834 44.4477 0
318.174 41.9435 0
137.937 36.3674 0
142.182 33.7122 0
403.708 37.9504 0
405.965 33.4868 0
414.947 7.70869 0
411.16 4.44855 0
24.144 3.46959 0
27.0785 7.5111 0
60.738 42.2383 0
55.7295 41.9562 0
494.991 2.73889 0
494.036 -2.16881 0
297.488 45.5585 0
299.059 40.8115 0
281.911 2.67141 0
277.356 4.71118 0
128.876 27.7208 0
125.317 31.2355 0
438.236 -18.9311 0
439.872 -14.2056 0
350.33 28.7154 0
354.924 26.7287 0
363.905 13.9233 0
367.023 17.83 0
263.64 47.4063 0
259.01 45.483 0
253.476 16.2569 0
257.365 13.1169 0
124.98 41.7497 0
121.136 38.5453 0
230.042 24.7118 0
234.965 23.8322 0
133.448 22.0861 0
130.329 18.1823 0
217.918 -4.95236 0
212.944 -5.0794 0
307.477 -4.15012 0
305.945 0.611193 0
320.676 -4.59812 0
318.113 -0.305481 0
99.3645 46.5519 0
94.3425 46.4804 0
457.63 13.5809 0
459.398 8.90237 0
256.411 15.129 0
251.461 15.8002 0
168.229 5.04964 0
166.779 9.83821 0
355.478 36.8706 0
359.889 39.2364 0
136.063 44.4404 0
139.02 48.4748 0
342.792 7.27379 0
344.483 2.56647 0
47.1247 17.6209 0
49.0038 12.9843 0
156.269 35.9119 0
158.536 31.4534 0
117.3 44.4221 0
119.874 40.1318 0
226.705 -4.6757 0
224.648 -0.117373 0
18.2084 8.88677 0
22.4975 11.4171 0
173.734 30.6289 0
171.022 26.4306 0
387.606 -12.4694 0
391.013 -8.81394 0
53.2225 58.9741 0
48.962 56.3117 0
338.479 41.7366 0
334.41 38.8234 0
82.4561 16.4685 0
86.5443 19.3365 0
78.844 34.8538 0
77.1312 30.1587 0
288.988 1.71487 0
284.032 2.28595 0
121.212 12.5038 0
117.244 15.533 0
298.129 34.0047 0
293.128 33.7248 0
192.161 46.9254 0
194.97 51.0618 0
227.651 47.5363 0
228.988 42.7201 0
173.132 -0.00936068 0
177.976 1.12966 0
484.405 6.95942 0
482.108 2.51989 0
305.362 6.63385 0
310.186 5.34588 0
422.493 -11.0852 0
417.859 -9.21858 0
104.386 8.78971 0
109.304 9.55265 0
370.185 17.4091 0
373.637 13.7888 0
430.079 28.0049 0
433.632 31.5228 0
84.4202 17.8153 0
89.4077 17.7556 0
433.933 34.9973 0
431.334 39.27 0
386.948 17.26 0
389.283 12.8373 0
324.874 31.9279 0
320.944 28.8341 0
64.7726 3.61049 0
63.5712 8.47086 0
122.25 22.5073 0
127.242 22.6356 0
492.497 22.3848 0
489.465 26.3622 0
167.315 27.1788 0
171.437 24.3448 0
358.267 24.6891 0
360.357 29.2298 0
300.739 34.1056 0
298.799 38.7165 0
269.96 3.36142 0
270.413 -1.6217 0
174.81 20.6018 0
177.229 16.2245 0
378.479 -7.40544 0
373.489 -7.54426 0
71.3817 16.3384 0
76.0829 14.6779 0
159.529 15.4771 0
161.958 11.106 0
341.374 5.78262 0
337.623 9.08754 0
218.931 24.1746 0
223.927 24.3875 0
378.085 9.73928 0
383.047 10.346 0
137.22 24.5422 0
134.304 20.4834 0
30.254 51.7933 0
35.1604 50.689 0
84.4147 47.0781 0
79.4284 47.6844 0
480.538 31.7362 0
483.504 27.7099 0
317.084 34.4266 0
320.622 37.9632 0
129.824 5.75308 0
128.36 0.96669 0
70.9736 31.4685 0
67.5166 35.0868 0
83.1283 20.5264 0
79.428 17.1713 0
490.233 -0.775918 0
491.614 4.0289 0
375.364 4.50881 0
370.471 3.49393 0
183.958 22.9851 0
186.822 27.0781 0
432.233 19.3882 0
428.401 16.1779 0
493.998 9.59888 0
489.259 11.1924 0
213.747 35.1599 0
210.889 31.0583 0
334.914 22.1671 0
339.897 22.6066 0
313.199 3.03914 0
310.213 -0.968264 0
378.57 -10.0952 0
383.185 -11.9994 0
342.412 31.0676 0
343.292 26.1461 0
144.782 27.9913 0
146.824 23.4256 0
295.08 -8.2726 0
298.557 -4.68597 0
484.176 5.75365 0
480.368 8.99664 0
269.634 35.7649 0
274.579 36.5639 0
237.456 7.99098 0
241.043 11.4674 0
447.102 24.3936 0
442.27 25.6862 0
181.337 32.8419 0
183.357 28.2649 0
325.029 -5.70134 0
329.628 -3.76189 0
158.443 40.8492 0
159.775 36.0306 0
194.983 8.18878 0
194.222 13.136 0
159.758 16.7939 0
154.805 16.1901 0
247.809 14.1762 0
252.463 12.3609 0
333.947 -5.79926 0
331.564 -1.4036 0
2.07622 57.0788 0
0.318411 52.3983 0
130.691 25.5492 0
134.191 21.9787 0
108.796 55.5402 0
113.805 55.0677 0
387.021 -8.87275 0
382.123 -7.90563 0
321.115 2.36697 0
324.575 -1.2385 0
103.36 48.9702 0
98.4702 47.8265 0
488.726 29.4757 0
489.658 24.563 0
247.218 25.4342 0
243.609 28.8997 0
167.203 9.71806 0
166.115 14.6016 0
174.597 6.27833 0
171.259 2.5625 0
172.517 3.64387 0
168.813 6.98776 0
149.844 38.8062 0
153.326 35.21 0
19.3278 7.51238 0
21.5063 12.0139 0
81.4114 22.44 0
83.5756 17.9316 0
451.707 1.39814 0
449.648 -3.15712 0
108.055 18.7617 0
104.381 15.3835 0
312.796 22.9226 0
312.76 17.9223 0
106.49 45.4845 0
101.669 46.8857 0
471.4 -4.77319 0
467.492 -7.88826 0
270.361 37.8941 0
265.815 40.0029 0
362.175 -14.5273 0
360.704 -9.74689 0
114.268 50.9531 0
119.293 51.0725 0
414.903 27.4394 0
409.95 26.7365 0
315.191 2.9432 0
317.937 7.11968 0
444.682 -13.1769 0
448.966 -15.7512 0
75.6462 46.4735 0
71.97 43.0743 0
40.5145 40.4463 0
35.5033 40.6494 0
143.004 26.897 0
141.505 31.6678 0
158.594 12.9195 0
162.48 16.0559 0
219.321 23.4161 0
216.803 27.7377 0
464.359 -5.31059 0
459.66 -7.01134 0
420.639 15.6483 0
415.853 14.2003 0
47.0933 25.3336 0
51.9746 26.39 0
334.986 6.10444 0
339.847 7.2504 0
93.8824 10.8044 0
98.7405 9.71599 0
52.2355 44.0925 0
53.8379 39.3572 0
305.927 -9.42165 0
301.066 -8.31574 0
59.6521 -0.213042 0
64.6113 -0.302797 0
212.145 18.5349 0
216.753 20.4641 0
72.5968 47.6805 0
68.4938 44.8028 0
441.97 -6.07 0
437.167 -4.68593 0
479.172 16.9598 0
483.883 15.2849 0
371.617 42.2085 0
376.394 40.6973 0
184.579 42.0119 0
183.46 37.1423 0
35.6742 13.6638 0
34.709 8.7514 0
34.9174 18.128 0
39.0456 15.3248 0
370.626 10.7736 0
367.932 6.56386 0
117.576 48.6179 0
120.513 52.6682 0
360.434 -4.87282 0
361.626 -0.0156118 0
10.6945 38.8329 0
5.83666 40.0708 0
168.501 44.6708 0
168.362 49.6638 0
482.877 -6.77053 0
479.183 -3.39824 0
33.8027 50.1312 0
38.769 49.3475 0
157.935 31.0598 0
152.999 30.2448 0
429.175 -3.99247 0
432.679 -0.42879 0
133.459 0.521473 0
138.36 -0.304808 0
49.59 18.5161 0
50.1321 13.5402 0
144.708 8.36681 0
141.938 4.20681 0
422.754 31.9798 0
424.313 27.2288 0
226.204 46.8706 0
223.647 51.1705 0
425.173 18.843 0
429.632 16.575 0
113.23 11.556 0
108.408 10.3137 0
72.1762 7.67681 0
67.2047 7.69774 0
488.251 -0.220122 0
492.554 -2.76767 0
21.5406 23.0024 0
20.275 27.8417 0
367.43 16.7741 0
365.426 21.3572 0
352.953 40.0246 0
356.015 43.9782 0
273.937 34.032 0
278.296 36.4914 0
364.325 3.1826 0
361.326 -0.815841 0
229.516 38.5216 0
225.817 35.1534 0
444.998 5.18262 0
440.424 7.20454 0
175.777 24.0716 0
180.042 26.6731 0
381.215 20.8232 0
383.231 16.245 0
123.352 21.5677 0
124.07 16.6166 0
74.7082 40.7284 0
77.4165 44.9323 0
352.152 6.40919 0
355.268 10.3168 0
398.156 39.6041 0
393.153 39.8375 0
161.597 37.7972 0
165.119 34.2393 0
6.02179 35.3463 0
7.2645 40.1884 0
317.228 10.726 0
321.931 12.4095 0
117.016 15.2039 0
119.64 10.9475 0
283.77 30.5066 0
283.791 25.5071 0
435.07 -1.05662 0
440.052 -1.45595 0
18.5905 3.54847 0
23.0594 1.37387 0
250.476 2.0864 0
247.762 6.28439 0
122.878 23.6062 0
118.086 25.0234 0
412.253 13.0767 0
416.195 9.99766 0
166.823 29.6133 0
167.703 34.5335 0
222.677 48.329 0
217.656 48.3117 0
283.226 33.4329 0
278.78 35.7357 0
343.297 4.42422 0
338.322 4.86095 0
184.649 24.6665 0
187.185 20.3531 0
425.745 -11.3591 0
420.867 -12.4361 0
268.567 46.9252 0
263.556 46.6489 0
122.071 12.2071 0
117.588 14.3923 0
347.729 7.79485 0
350.989 11.5831 0
345.671 15.88 0
340.867 17.2681 0
278.606 32.2264 0
283.355 30.6426 0
476.472 22.2885 0
474.506 17.6924 0
467.543 8.52745 0
463.184 10.9793 0
115.565 42.9864 0
120.555 42.4571 0
320.542 2.07083 0
316.92 -1.37074 0
89.2941 17.999 0
85.679 21.4488 0
217.476 5.82956 0
218.364 10.7536 0
311.79 -3.95305 0
308.671 -0.0488309 0
280.182 19.6244 0
275.917 22.2394 0
55.2256 59.0243 0
56.9474 54.3335 0
103.072 4.31961 0
107.936 5.35672 0
151.72 49.4288 0
147.384 51.9562 0
343.465 10.9016 0
343.573 15.901 0
376.188 9.25738 0
371.229 8.64008 0
97.5633 2.90276 0
99.7074 7.42057 0
251.51 40.7574 0
247.212 38.1885 0
256.375 22.6863 0
260.294 25.7903 0
378.797 33.6086 0
380.705 38.2286 0
383.631 36.5973 0
388.378 35.0031 0
292.126 -4.26636 0
289.039 -8.196 0
121.83 44.1157 0
118.61 47.9502 0
68.8283 43.7825 0
63.8159 44.0373 0
489.039 8.34191 0
490.91 3.70337 0
328.117 27.3024 0
331.272 31.1812 0
488.137 19.9539 0
493.06 20.8167 0
457.614 -0.996444 0
462.607 -1.22588 0
345.019 -1.07239 0
340.654 -3.49857 0
284.837 9.13563 0
289.573 7.54911 0
134.789 12.9784 0
136.409 8.24452 0
183.278 31.9816 0
178.366 31.0344 0
258.507 9.53317 0
262.859 11.9824 0
207.394 17.4522 0
211.281 14.3076 0
246.85 20.9798 0
251.707 22.1634 0
351.643 41.6813 0
356.511 40.4944 0
426.947 31.7846 0
430.044 35.7099 0
30.3174 13.1789 0
31.1991 8.24983 0
147.777 4.48241 0
142.856 5.22518 0
241.344 0.80613 0
240.279 5.69525 0
226.141 -2.18512 0
222.412 -5.50335 0
62.6698 38.1031 0
62.2387 43.0814 0
95.2717 5.98715 0
99.1731 2.88319 0
73.0501 28.8576 0
68.3177 27.2526 0
146.397 13.255 0
148.632 17.7276 0
326.467 26.7954 0
323.445 30.7832 0
72.0387 25.8767 0
70.0661 21.2836 0
49.6785 34.3066 0
49.3258 29.3202 0
461.643 -18.4276 0
465.643 -15.4297 0
339.256 26.0613 0
341.618 21.6521 0
208.183 -0.526852 0
203.948 -3.15762 0
110.381 14.6322 0
107.216 10.7684 0
145.608 44.1404 0
150.626 44.1837 0
144.081 19.8173 0
148.527 17.543 0
180.544 33.5998 0
175.666 32.4871 0
213.715 7.44014 0
209.052 9.21201 0
16.1585 53.9932 0
21.1887 53.7717 0
173.952 -1.74994 0
169.134 -2.98695 0
72.9538 14.4369 0
72.3093 19.3991 0
72.0928 55.4038 0
77.0275 56.3953 0
365.032 39.5524 0
369.958 38.6401 0
445.787 20.1328 0
450.608 21.4586 0
434.763 34.0474 0
433.647 38.9209 0
453.457 7.88893 0
457.195 4.56639 0
260.48 14.4819 0
256.692 17.7449 0
279.802 35.9451 0
284.748 35.1496 0
266.824 3.1545 0
264.223 -1.11562 0
278.779 46.704 0
275.254 50.2623 0
492.957 30.1074 0
488.361 28.1399 0
120.942 28.8829 0
116.234 30.5718 0
37.9477 2.39442 0
33.1469 3.66151 0
186.039 35.3182 0
185.621 40.2974 0
323.675 -1.38236 0
321.567 -5.9176 0
139.167 8.34578 0
139.145 13.3511 0
171.247 36.7053 0
170.336 31.7912 0
42.0604 3.44132 0
46.645 5.36469 0
158.64 5.97694 0
154.274 3.57209 0
456.813 -12.2431 0
461.148 -14.7323 0
87.5907 44.3868 0
84.7168 48.4832 0
95.8188 4.91819 0
92.7926 0.945694 0
147.04 42.4766 0
142.03 42.7339 0
397.599 25.6056 0
402.598 25.3779 0
63.1 34.9937 0
63.7288 30.0337 0
402.001 -9.70555 0
397.274 -11.3135 0
57.4738 5.84116 0
54.2994 9.69546 0
75.2501 55.3726 0
76.3062 50.4912 0
379.464 14.0921 0
377.664 9.42918 0
440.094 24.2353 0
442.789 20.0221 0
73.0026 28.7538 0
77.9882 28.3775 0
33.0413 37.8497 0
31.1256 33.2335 0
344.408 25.6218 0
348.936 27.7486 0
398.658 30.6565 0
401.039 35.0513 0
483.479 27.1676 0
487.813 29.6595 0
345.006 36.4345 0
343.246 41.1144 0
476.157 -14.8078 0
472.782 -11.118 0
25.4852 23.588 0
30.093 25.5096 0
28.8948 51.5534 0
28.8708 56.5446 0
361.654 16.6466 0
366.652 16.4977 0
333.347 -6.2984 0
328.446 -5.36405 0
256.742 -4.32983 0
252.004 -5.87266 0
324.429 19.9871 0
324.952 24.9587 0
490.213 29.8792 0
485.924 32.449 0
248.816 1.43097 0
252.81 4.42653 0
227.322 49.0865 0
231.919 47.0754 0
326.056 -10.6365 0
321.071 -10.6972 0
473.757 -12.4554 0
478.139 -10.0517 0
134.367 33.1992 0
129.705 35.0261 0
311.719 33.7995 0
307.449 31.19 0
28.8657 37.3999 0
30.9113 32.8364 0
421.543 -0.42076 0
424.891 3.28964 0
214.078 24.5039 0
217.752 27.8945 0
485.91 -20.2561 0
490.895 -19.8742 0
414.756 40.308 0
411.907 36.1988 0
494.454 1.05096 0
496.714 -3.41091 0
108.972 7.27739 0
105.283 10.6373 0
197.394 -2.1278 0
193.428 0.896147 0
397.446 35.3057 0
398.783 30.4873 0
422.88 -12.034 0
417.922 -12.6326 0
129.88 46.0291 0
131.373 50.7963 0
248.506 47.7762 0
244.176 50.3087 0
231.479 44.1368 0
228.101 40.4462 0
57.4478 40.5837 0
62.0693 42.5222 0
468.12 26.34 0
472.662 24.2453 0
270.916 8.63518 0
269.525 3.83095 0
471.823 12.2179 0
470.039 16.8899 0
347.957 24.6739 0
351.996 21.7205 0
107.666 3.30914 0
112.509 2.18953 0
51.3131 55.6098 0
53.1234 50.9512 0
266.175 -0.399271 0
268.206 -4.96885 0
173.094 17.0913 0
176.289 13.2473 0
205.4 48.3671 0
200.578 46.9801 0
116.508 49.991 0
114.945 45.2459 0
260.579 25.7821 0
262.271 30.4852 0
487.64 -12.6196 0
486.029 -7.88516 0
280.689 8.63184 0
281.508 13.5651 0
111.029 25.5976 0
109.758 20.7625 0
420.049 13.9554 0
415.862 11.2257 0
33.5056 35.8314 0
36.3448 31.7127 0
254.497 5.53656 0
253.518 0.630023 0
285.662 45.577 0
288.207 41.2701 0
179.318 29.6728 0
180.007 24.7193 0
468.669 23.1666 0
472.252 19.6763 0
55.2563 5.95407 0
50.3631 6.82133 0
402.601 -17.8684 0
407.474 -16.7784 0
372.242 15.5717 0
370.128 11.0427 0
448.022 18.3315 0
447.967 23.3311 0
413.094 27.9211 0
408.157 27.1161 0
151.676 4.51538 0
155.945 1.94501 0
224.102 26.3893 0
228.144 23.4419 0
187.741 9.89772 0
185.866 5.2591 0
346.841 12.0083 0
351.484 10.1562 0
74.9519 24.8061 0
79.5515 22.8515 0
373.069 27.5358 0
373.125 32.5345 0
120.537 47.0909 0
124.961 49.4531 0
23.5934 39.8222 0
19.2432 42.313 0
173.56 9.15635 0
176.263 4.95219 0
373.777 18.2373 0
369.61 21.005 0
71.2276 21.7724 0
75.9973 23.2459 0
264.484 28.9754 0
267.421 33.0212 0
0.0579668 18.4796 0
4.13474 15.6045 0
20.4311 42.1276 0
20.2494 37.1347 0
160.979 54.1002 0
165.791 55.5512 0
16.7322 50.0844 0
21.693 50.9093 0
415.67 -10.7535 0
415.864 -5.75572 0
211.39 -4.76515 0
216.298 -5.58173 0
55.4612 34.3602 0
53.6268 29.7107 0
337.956 29.4557 0
342.228 32.0596 0
175.207 10.62 0
170.222 10.6022 0
426.589 23.6645 0
428.404 19.0046 0
144.488 55.7695 0
146.408 51.1535 0
269.453 22.8986 0
273.192 26.2169 0
254.961 11.705 0
250.093 12.8181 0
339.599 22.9396 0
338.766 27.8695 0
360.125 1.30445 0
356.055 -1.59279 0
265.796 16.8836 0
268.997 13.042 0
353.838 2.38932 0
349.018 1.07977 0
10.9541 15.1665 0
15.0679 17.9848 0
190.565 0.253652 0
193.477 4.31386 0
335.684 33.3762 0
330.935 34.9658 0
467.707 32.3149 0
468.522 27.3817 0
139.822 0.847445 0
144.189 -1.54199 0
20.1118 52.0448 0
21.645 47.2892 0
463.826 -0.986411 0
466.928 2.93324 0
482.274 11.6831 0
477.305 12.2315 0
285.471 17.5443 0
288.395 13.4846 0
317.262 13.6704 0
321.52 11.0505 0
352.069 -9.76965 0
347.419 -11.5815 0
131.124 50.4183 0
128.908 45.9383 0
150.945 -0.906371 0
146.491 1.31759 0
352.121 -9.0878 0
351.643 -4.10795 0
459.884 20.1261 0
461.182 15.2965 0
460.812 5.00484 0
464.724 1.88903 0
459.312 0.0504128 0
455.664 3.47113 0
272.529 40.5996 0
273.811 45.4292 0
216.842 35.627 0
217.462 30.6665 0
5.73 51.1614 0
9.28475 54.6941 0
119.392 32.244 0
124.361 31.6492 0
365.192 20.3361 0
363.935 15.4977 0
389.144 36.6152 0
388.769 41.5991 0
356.876 24.2688 0
360.594 20.921 0
382.414 28.3941 0
386.708 30.9605 0
203.477 10.7935 0
207.953 8.58924 0
135.936 30.6541 0
131.456 28.4325 0
314.705 16.4699 0
312.246 12.1179 0
187.413 33.4722 0
190.38 29.4467 0
364.341 -6.64253 0
361.977 -2.23665 0
218.782 10.9654 0
223.733 10.3535 0
76.5121 49.651 0
74.0907 45.2764 0
271.786 23.6182 0
274.88 19.6868 0
8.81564 39.9275 0
3.83974 40.5474 0
335.951 17.4939 0
337.796 22.1397 0
185.687 13.9219 0
180.699 14.0936 0
463.725 -12.8044 0
468.564 -11.5558 0
304.288 -5.2274 0
299.622 -3.46194 0
28.5812 31.0132 0
29.3218 26.0674 0
248.021 35.5296 0
250.161 31.0088 0
273.872 10.8944 0
278.55 9.14331 0
72.9412 34.3979 0
76.7948 37.5857 0
310.048 4.20426 0
308.357 -0.502019 0
23.3884 40.5675 0
28.4 40.3693 0
186.832 7.30184 0
185.124 2.59849 0
7.33952 8.6859 0
2.44253 9.54528 0
208.47 -2.17555 0
204.821 -5.58197 0
481.758 3.75185 0
486.007 6.38302 0
147.944 47.0563 0
147.64 52.0414 0
431.472 28.2987 0
428.741 24.1113 0
161.98 3.13629 0
157.108 2.12102 0
439.618 9.22868 0
437.692 13.8445 0
140.784 22.8537 0
141.239 27.8332 0
271.39 18.6571 0
267.517 21.823 0
346.566 37.4985 0
342.643 34.3934 0
24.3147 47.6741 0
22.0977 43.194 0
306.904 -5.30105 0
302.129 -6.73963 0
68.4864 24.1421 0
73.4181 23.3529 0
33.3341 43.3573 0
37.8676 41.2133 0
478.073 -20.5559 0
482.761 -22.2907 0
221.678 0.72096 0
223.082 5.52366 0
304.485 39.3301 0
299.499 39.8494 0
129.447 39.9836 0
130.921 44.7575 0
248.265 19.3332 0
252.029 22.6208 0
19.1793 41.0689 0
23.1299 37.9893 0
36.8203 44.3002 0
31.8118 43.9598 0
465.566 -15.6097 0
469.881 -18.1341 0
119.055 24.2039 0
114.076 24.6282 0
227.962 9.37401 0
229.697 4.68212 0
137.934 8.7521 0
142.771 9.94227 0
328.719 31.709 0
333.672 32.4396 0
455.647 6.66718 0
452.183 10.2745 0
346.773 27.0999 0
345.376 22.3005 0
45.5867 27.1252 0
47.3925 31.7863 0
478.764 -11.1929 0
473.766 -11.11 0
75.0981 20.9141 0
75.6811 25.8807 0
17.3002 14.1802 0
15.5806 9.48204 0
351.167 33.2534 0
354.239 29.3035 0
74.9175 20.9942 0
70.3625 18.9558 0
153.787 39.2494 0
155.308 44.0091 0
468.614 13.6768 0
471.792 9.81381 0
277.216 5.3257 0
282.199 5.60268 0
483.411 11.8458 0
481.46 16.4512 0
455.049 -0.991582 0
459.214 -3.75871 0
337.557 21.485 0
337.704 26.4821 0
49.5011 45.6281 0
51.083 40.8863 0
158.68 54.0338 0
154.809 50.8513 0
71.704 43.9355 0
66.7471 43.1616 0
237.41 16.3791 0
238.37 21.2865 0
242.849 15.0885 0
243.341 20.0651 0
134.17 49.0665 0
131.055 45.1514 0
1.80642 5.66575 0
0.276289 10.4261 0
379.412 18.9267 0
376.413 22.9309 0
262.323 22.8647 0
261.812 27.8386 0
484.624 -18.3026 0
483.394 -23.149 0
468.804 16.2494 0
468.981 21.2463 0
145.413 29.5778 0
150.08 31.3766 0
445.562 2.44406 0
449.892 -0.0566894 0
457.568 -5.8646 0
461.966 -8.24343 0
257.894 4.01546 0
253.455 1.73633 0
389.769 -5.71522 0
391.243 -0.935625 0
101.992 13.5444 0
97.1836 12.2487 0
99.8558 0.104481 0
104.712 -0.940622 0
61.0804 40.1131 0
65.6288 42.2147 0
121.866 7.91035 0
126.098 5.27767 0
437.084 -8.07273 0
437.763 -3.11833 0
461.665 10.655 0
466.028 13.0939 0
115.094 42.6405 0
110.254 41.3291 0
139.161 33.6024 0
143.22 30.6743 0
343.104 43.0795 0
344.055 38.1724 0
437.192 11.9122 0
437.221 16.9121 0
75.7725 23.8221 0
71.5738 21.1195 0
87.1743 8.31717 0
82.2024 8.43089 0
301.671 0.231966 0
305.277 3.68841 0
16.8008 40.9092 0
13.8699 36.8572 0
301.556 -9.80616 0
296.619 -10.4857 0
353.809 -3.83325 0
358.703 -2.84826 0
160.869 53.4306 0
165.628 51.8197 0
270.454 22.275 0
270.011 17.2948 0
1.17699 32.9645 0
5.86136 31.2107 0
142.325 13.1027 0
137.527 11.7494 0
32.4077 37.0154 0
32.6211 42.0071 0
1.63811 40.7225 0
2.32277 45.6749 0
367.53 -8.04713 0
365.466 -12.6023 0
219.115 6.21779 0
222.352 10.0232 0
382.155 23.1344 0
385.97 19.8999 0
416.395 11.4828 0
420.296 14.6073 0
142.58 1.52982 0
145.227 5.76993 0
49.5845 6.33823 0
44.6467 6.89116 0
428.478 24.1905 0
431.416 28.2352 0
67.0442 38.1458 0
67.9539 33.2299 0
46.5653 11.9546 0
51.1326 9.96996 0
212.385 25.1402 0
211.523 20.2153 0
174.732 7.38679 0
177.235 11.7147 0
470.395 5.98718 0
468.632 10.6676 0
50.4761 14.3669 0
47.9334 10.0635 0
120.091 53.0698 0
115.313 51.5166 0
248.925 24.6639 0
251.454 20.3486 0
158.941 48.0121 0
157.642 43.1881 0
149.622 40.1395 0
154.624 40.4818 0
115.012 21.8025 0
113.739 16.9664 0
64.8945 18.283 0
62.3126 14.0034 0
248.943 5.21519 0
248.483 0.232112 0
300.926 0.295196 0
305.617 1.99808 0
495.169 17.7985 0
497.706 13.4888 0
66.1952 49.3001 0
66.3205 54.2911 0
282.805 8.26444 0
287.403 10.2206 0
248.093 4.87885 0
250.86 0.716409 0
139.798 26.5334 0
138.943 21.6067 0
231.769 7.11469 0
236.619 8.27856 0
340.716 38.5353 0
342.718 43.1152 0
295.65 43.4035 0
300.074 41.0461 0
46.553 25.8355 0
42.9423 29.2949 0
16.8609 22.4469 0
13.0686 19.2005 0
71.3627 29.4771 0
75.7876 31.8019 0
421.298 -0.145203 0
425.786 -2.34592 0
367.518 11.9544 0
370.691 8.08786 0
30.0396 31.3597 0
26.3537 34.7439 0
419.911 -13.2005 0
416.686 -9.38146 0
180.546 35.507 0
185.115 33.4632 0
410.836 22.2315 0
415.546 23.914 0
31.6679 3.72838 0
35.7746 0.917135 0
206.45 34.033 0
208.015 38.7794 0
310.258 8.15413 0
312.22 12.7514 0
35.3261 22.4742 0
39.524 19.7697 0
443.953 -7.76172 0
445.358 -2.96309 0
288.66 14.3239 0
292.223 10.8103 0
339.221 7.07284 0
339.374 2.07323 0
28.7979 25.1395 0
32.5045 28.4898 0
116.028 31.3487 0
113.716 26.9157 0
426.179 16.8152 0
427.291 11.9396 0
86.2412 -1.05125 0
90.5099 1.50559 0
213.406 48.4825 0
217.53 45.6315 0
21.9739 31.9143 0
22.8515 26.9913 0
277.788 24.0976 0
275.091 28.3115 0
217.033 19.2364 0
217.104 24.2362 0
493.015 -7.03317 0
496.364 -10.7483 0
92.1415 51.4917 0
96.0356 48.3294 0
171.439 41.6684 0
168.208 37.8504 0
141.31 49.8246 0
136.997 47.2675 0
266.196 8.65615 0
261.21 8.43314 0
105.615 56.039 0
100.955 54.1587 0
394.607 -9.90032 0
395.775 -5.03728 0
466.183 -10.9593 0
463.366 -6.82765 0
348.6 -1.45513 0
351.864 -5.24037 0
230.319 45.0885 0
235.273 44.2909 0
226.005 -3.41777 0
229.569 0.080135 0
11.3784 11.5721 0
11.8745 6.58828 0
288.305 43.5516 0
292.651 46.0428 0
211.974 38.2928 0
216.643 40.1093 0
405.611 -5.78513 0
400.649 -6.35124 0
465.004 6.07168 0
462.899 10.6088 0
229.837 0.488894 0
233.765 3.5688 0
366.373 29.0498 0
367.265 33.968 0
218.082 25.6513 0
218.461 20.6653 0
150.28 47.1563 0
145.28 46.7047 0
60.6534 6.16764 0
56.4238 3.54081 0
339.518 -4.43571 0
343.269 -7.73348 0
163.133 8.13851 0
158.222 7.30783 0
390.777 -4.9986 0
395.694 -4.12923 0
9.48121 42.2527 0
4.48319 42.6986 0
130.135 51.4718 0
130.747 46.5145 0
14.4006 45.4174 0
12.9879 50.2108 0
366.252 27.1653 0
366.222 32.1642 0
344.631 18.2749 0
342.913 13.5805 0
412.578 39.0991 0
407.916 40.9235 0
465.949 36.765 0
463.401 32.4633 0
264.7 24.4702 0
268.996 27.0272 0
430.995 -11.9763 0
433.437 -7.61394 0
342.513 -6.72274 0
337.945 -8.73366 0
410.847 -3.92504 0
415.548 -2.23504 0
306.897 0.848727 0
310.32 -2.79125 0
69.2228 13.4588 0
68.2452 18.3665 0
428.337 -17.1548 0
423.397 -16.4224 0
114.288 13.2281 0
111.494 9.08472 0
166.686 -3.37452 0
163.594 0.545749 0
68.77 52.0414 0
69.7884 47.151 0
173.518 54.4883 0
168.531 55.1387 0
273.443 46.7945 0
272.377 41.9132 0
255.203 0.688142 0
260.086 1.69855 0
144.649 46.6363 0
149.612 45.8765 0
306.372 29.9538 0
310.301 33.0509 0
150.029 -1.31209 0
154.999 -1.20791 0
219.06 12.8568 0
218.779 17.8512 0
329.56 8.70697 0
326.636 12.7643 0
421.338 7.63707 0
420.564 2.69712 0
285.276 31.5151 0
289.093 34.7475 0
67.6237 27.3936 0
62.7833 26.1567 0
299.094 1.35949 0
296.836 5.82211 0
283.922 15.5814 0
281.527 19.9741 0
101.248 58.024 0
96.2746 57.2451 0
50.7618 35.1891 0
47.0976 31.7868 0
106.152 41.3407 0
111.14 40.7988 0
288.501 8.87965 0
291.183 13.1002 0
176.641 20.2123 0
172.349 22.7774 0
146.435 53.3257 0
141.408 53.4638 0
324.788 45.7651 0
320.098 44.0004 0
378.032 -6.30737 0
382.749 -4.66668 0
202.198 -4.4223 0
200.881 0.405671 0
273.922 12.4021 0
272.738 17.2615 0
118.524 11.9754 0
119.137 16.942 0
261.005 35.9639 0
256.969 38.9298 0
498.072 11.8181 0
497.176 6.90012 0
444.636 -20.4723 0
440.419 -17.792 0
264.678 31.5819 0
265.95 36.4151 0
382.274 20.9485 0
380.432 25.5983 0
57.0387 13.4416 0
61.8385 14.7731 0
495.363 13.567 0
499.271 16.6813 0
464.542 -7.72687 0
461.126 -11.3758 0
439.534 8.73276 0
439.021 3.75893 0
113.276 40.0206 0
109.383 43.1747 0
272.489 32.2851 0
277.072 34.2952 0
409.427 16.196 0
412.964 19.7299 0
308.057 36.2046 0
312.687 38.1119 0
22.7324 57.2997 0
27.5952 55.9919 0
136.734 35.0398 0
140.678 38.1176 0
97.3692 11.8685 0
92.6977 10.1456 0
54.5716 30.2773 0
50.4772 27.4117 0
267.411 -7.76167 0
269.865 -3.4042 0
415.677 15.6761 0
416.169 20.6514 0
28.0804 54.35 0
23.0957 53.6489 0
462.629 2.59228 0
467.493 1.43511 0
433.929 -2.38807 0
437.17 1.41677 0
384.863 -11.1372 0
388.422 -7.62944 0
369.64 -4.39359 0
373.96 -1.88541 0
234.223 -0.903758 0
229.649 -2.88441 0
370.682 -7.46373 0
366.955 -10.7919 0
449.016 18.5158 0
445.088 21.6137 0
312.125 5.28903 0
315.909 2.02576 0
490.976 -19.1298 0
485.977 -19.0951 0
126.51 40.7959 0
122.012 38.5941 0
75.8965 32.7769 0
74.0304 37.4175 0
413.016 -8.70846 0
408.132 -7.66132 0
176.325 -1.33276 0
181.297 -1.27285 0
387.915 -2.55595 0
384.183 0.769414 0
438.116 25.0886 0
434.705 21.4338 0
179.659 -3.46836 0
175.229 -1.1988 0
345.936 43.1203 0
350.895 43.8431 0
470.419 23.3203 0
472.396 27.9122 0
357.807 11.1124 0
360.966 7.23537 0
264.268 33.4753 0
260.381 36.6306 0
67.7315 42.2875 0
64.1964 45.8358 0
437.772 4.81113 0
439.864 9.35132 0
286.201 37.4059 0
289.81 33.938 0
286.846 10.2001 0
284.051 14.3474 0
289.073 -2.21922 0
284.229 -1.03587 0
196.236 10.6998 0
193.656 6.41905 0
148.426 35.4441 0
152.158 38.7762 0
227.834 41.1148 0
232.534 42.8552 0
90.5731 4.52756 0
92.1761 9.26853 0
60.3117 19.5209 0
61.1828 24.4462 0
209.218 9.51051 0
204.24 9.78726 0
342.054 32.4644 0
345.399 28.7427 0
42.6542 32.7991 0
46.4288 29.5159 0
183.601 6.27611 0
178.625 6.51136 0
164.102 21.2012 0
168.168 24.1037 0
234.864 10.7653 0
234.001 5.83752 0
341.518 1.90245 0
337.061 4.16078 0
83.6005 42.5869 0
78.8692 44.2509 0
447.011 30.5217 0
446.28 25.5761 0
267.571 9.52377 0
264.256 13.2666 0
172.746 29.392 0
168.614 26.5789 0
240.699 36.5201 0
245.129 34.1817 0
309.788 42.1522 0
306.005 38.8772 0
346.117 40.8566 0
350.572 38.566 0
150.23 40.3181 0
147.847 35.9239 0
365.581 -10.565 0
360.84 -12.1248 0
409.102 -14.7104 0
404.127 -14.276 0
309.939 33.3148 0
313.646 36.6745 0
485.519 10.5128 0
480.933 8.52477 0
438.875 23.3867 0
440.502 28.1135 0
80.5717 18.5622 0
82.1647 13.8201 0
161.288 54.5716 0
156.576 52.8334 0
313.298 -3.84916 0
308.334 -4.33877 0
72.2732 52.2472 0
73.7409 47.4708 0
124.371 10.2679 0
126.239 5.62701 0
237.47 4.97499 0
234.642 0.853527 0
151.98 37.4959 0
154.156 32.9925 0
176.733 29.7202 0
177 34.7122 0
116.504 42.698 0
120.66 39.8967 0
228.721 7.22758 0
229.189 2.24511 0
42.6177 44.5374 0
45.8904 48.3241 0
153.326 45.7031 0
153.455 40.7089 0
173.185 20.81 0
168.459 19.1954 0
291.475 30.3735 0
290.533 25.4667 0
4.26214 6.85278 0
2.92533 2.03231 0
48.3764 55.6858 0
44.5905 52.3979 0
440.418 1.83869 0
445.169 0.282228 0
434.152 27.3061 0
437.833 30.6906 0
441.945 27.1102 0
441.772 32.1067 0
16.466 58.9409 0
11.5009 59.8126 0
181.389 45.0251 0
182.846 40.2441 0
334.885 12.6247 0
331.141 15.9408 0
379.517 36.5664 0
379.375 41.5622 0
401.267 39.6163 0
401.062 34.6221 0
487.592 3.54232 0
484.63 7.57282 0
227.92 18.1355 0
231.96 15.1918 0
442.432 23.4796 0
438.196 20.8243 0
66.8985 55.7868 0
62.7132 53.0156 0
458.849 16.0577 0
455.325 12.5135 0
31.7196 58.1826 0
35.2979 54.6686 0
431.019 -7.63856 0
434.811 -10.8958 0
146.376 41.5705 0
145.015 46.3799 0
8.05827 46.9582 0
10.8895 51.0836 0
125.344 21.0003 0
130.132 19.5829 0
466.694 26.9921 0
464.392 22.5547 0
7.18455 34.6953 0
2.18707 34.3977 0
332.122 25.4851 0
337.048 26.3606 0
297.928 -8.25625 0
297.196 -3.30587 0
406.395 4.21927 0
402.889 0.664073 0
241.626 31.9885 0
244.863 35.7998 0
197.923 41.5389 0
194.04 44.7078 0
251.089 20.4691 0
256.057 19.9124 0
48.1584 36.3836 0
45.1774 40.4028 0
446.05 30.383 0
444.088 34.9827 0
143.345 29.2548 0
148.32 28.7328 0
188.18 8.10797 0
191.128 4.07205 0
200.153 13.8173 0
205.136 13.919 0
49.7738 34.2991 0
45.8018 31.2615 0
252.635 1.31015 0
248.711 4.39754 0
140.11 16.9725 0
135.66 19.2366 0
388.939 -17.1774 0
390.509 -12.4282 0
496.953 32.0968 0
496.047 27.1798 0
492.285 8.98168 0
491.035 13.8241 0
425.805 10.2651 0
421.692 7.42707 0
386.906 19.0091 0
384.211 23.2221 0
478.276 18.8574 0
481.959 15.4744 0
126.134 23.39 0
123.211 27.4482 0
60.8813 20.668 0
65.4954 22.5698 0
206.133 47.4734 0
211.119 46.8909 0
415.941 18.9287 0
416.397 13.9492 0
41.5807 6.49083 0
44.5722 10.4905 0
220.129 6.15255 0
220.359 1.15266 0
14.1696 4.11662 0
10.8367 7.83065 0
207.629 16.7042 0
212.367 18.2819 0
348.387 -1.04282 0
350.858 3.30332 0
385.654 3.62555 0
390.438 2.17785 0
277.658 20.0289 0
275.352 24.4685 0
457.717 -10.6703 0
462.602 -11.7285 0
132.284 51.6533 0
134.268 56.2397 0
420.654 7.05247 0
424.043 10.7258 0
64.2366 43.2704 0
62.1242 38.7405 0
45.1316 54.7635 0
40.2974 53.3734 0
124.03 9.90726 0
122.773 5.06254 0
337.296 31.3115 0
342.3 31.4755 0
470.342 -22.4718 0
475.307 -23.0421 0
253.818 28.1229 0
255.145 32.9415 0
300.735 0.633966 0
305.658 1.43927 0
423.843 34.0471 0
418.838 34.0478 0
264.082 33.9957 0
269.076 34.3733 0
173.659 27.3762 0
169.52 30.1883 0
433.612 17.1043 0
428.625 16.7333 0
11.4017 42.4065 0
8.2027 38.5594 0
210.996 41.1397 0
212.068 46.0194 0
167.088 25.167 0
172.074 24.8108 0
255.27 -7.87511 0
253.869 -3.07212 0
411.422 13.4291 0
413.942 9.10823 0
323.375 14.2096 0
319.93 17.8358 0
153.369 20.3047 0
158.229 21.4509 0
2.02567 23.2441 0
3.96318 18.6364 0
281.162 21.5314 0
281.73 16.5625 0
413.673 4.585 0
409.676 1.58673 0
116.423 12.306 0
111.594 11.0876 0
311.363 4.94236 0
309.781 0.197946 0
252.229 22.7445 0
247.361 21.6059 0
193.433 45.3736 0
198.286 44.0956 0
61.804 26.4858 0
64.0403 22.012 0
472.808 -3.40413 0
472.945 1.59435 0
66.6418 56.3666 0
67.5475 51.4558 0
463.511 -11.4974 0
458.57 -12.2413 0
248.479 15.0647 0
246.86 10.3334 0
229.864 6.10999 0
230.424 11.0818 0
86.0027 33.9372 0
88.5562 29.6346 0
216.667 21.6188 0
217.021 26.6062 0
173.301 0.911773 0
168.378 1.6319 0
322.596 -4.80671 0
325.387 -0.659815 0
306.615 29.4596 0
311.289 31.2484 0
26.66 10.0176 0
31.5191 11.0778 0
436.56 23.0383 0
441.385 21.7195 0
140.962 34.3333 0
145.485 32.1867 0
32.4219 8.77478 0
32.4166 13.7827 0
279.319 17.1882 0
274.575 15.618 0
264.299 45.0492 0
269.285 45.5983 0
174.657 29.6104 0
169.662 29.8884 0
421.131 28.3199 0
416.563 30.3626 0
93.4235 14.4546 0
96.3934 10.4338 0
459.15 -2.58116 0
463.272 -5.41132 0
221.297 42.5904 0
225.895 40.5927 0
47.5479 46.8906 0
42.562 46.2845 0
357.628 23.3149 0
359.109 18.538 0
343.3 17.4039 0
346.104 21.5423 0
418.959 -9.74128 0
415.268 -13.1116 0
153.253 48.1594 0
150.438 44.0253 0
192.609 -3.05983 0
197.344 -1.52568 0
444.379 -12.574 0
439.851 -14.6854 0
143.054 53.4217 0
139.067 50.3834 0
461.209 29.1122 0
462.339 24.2412 0
81.3596 17.7263 0
80.2198 22.5968 0
297.079 32.3504 0
302.085 32.4776 0
154.788 37.6559 0
159.092 35.0931 0
326.656 10.867 0
325.52 15.7379 0
341.326 38.8691 0
341.535 33.8755 0
77.3836 58.629 0
73.4748 55.4828 0
58.7003 10.4957 0
55.7602 14.5361 0
473.578 8.79606 0
470.535 4.83104 0
379.928 39.5994 0
376.922 35.6029 0
204.415 5.3631 0
199.911 3.22598 0
341.942 44.5365 0
339.794 40.023 0
97.0409 12.8153 0
94.8336 8.32967 0
237.081 26.587 0
241.975 27.6221 0
467.608 30.3247 0
471.816 33.026 0
300.819 43.676 0
305.782 42.9607 0
340.002 45.6443 0
336.065 42.5529 0
102.004 0.0566147 0
106.849 -1.03913 0
473.105 -5.91973 0
475.056 -10.5249 0
44.0891 19.2129 0
49.0129 19.9983 0
151.425 44.6623 0
148.275 48.5546 0
273.686 22.756 0
270.405 26.5328 0
429.317 -20.3774 0
425.71 -16.9186 0
152.357 51.2424 0
155.444 47.3001 0
463.122 -7.06536 0
468.12 -7.03894 0
457.756 6.04634 0
457.017 1.10119 0
479.422 30.8862 0
484.371 30.1734 0
119.292 49.2619 0
122.283 45.2477 0
438.893 -10.9267 0
443.888 -10.8518 0
61.34 58.5798 0
63.4289 54.0376 0
170.062 41.2836 0
172.086 36.7102 0
58.1746 24.5922 0
62.7365 22.5571 0
155.435 53.5366 0
160.361 54.5372 0
42.9085 50.4631 0
38.1324 48.9052 0
336.908 41.5429 0
341.722 40.1494 0
266.855 45.5755 0
271.335 43.3254 0
430.904 4.40618 0
426.537 1.97776 0
358.276 9.49431 0
353.895 11.903 0
434.864 26.9289 0
437.221 22.5176 0
346.668 -12.6629 0
351.476 -11.3305 0
137.098 -1.26101 0
132.807 1.26271 0
114.104 29.0142 0
111.098 25.0186 0
177.97 36.0928 0
182.978 36.058 0
39.9801 36.9636 0
40.8817 32.0465 0
78.4604 20.3229 0
82.1358 16.9391 0
298.491 -5.9556 0
300.674 -1.45716 0
38.5083 43.7185 0
43.5245 43.9019 0
37.7666 56.0433 0
36.5773 51.1936 0
294.064 9.88986 0
290.297 13.1829 0
349.905 26.4568 0
344.904 26.2744 0
494.301 30.982 0
498.877 32.9936 0
172.284 16.9375 0
172.871 21.9038 0
351.741 -11.2384 0
350.662 -6.35379 0
223.071 26.2953 0
222.255 21.3629 0
156.925 46.6995 0
154.655 42.2463 0
358.718 31.9764 0
353.82 30.9456 0
366.826 -3.70773 0
366.072 -8.65265 0
177.127 44.7385 0
181.398 42.115 0
18.751 2.73001 0
23.3209 4.6825 0
489.373 5.75152 0
484.391 5.33824 0
28.9177 32.816 0
32.4282 29.2522 0
162.843 11.2589 0
167.407 9.24734 0
369.841 19.2589 0
366.849 15.2551 0
423.117 21.8309 0
427.872 23.3798 0
144.686 1.90281 0
145.892 6.76118 0
441.722 -1.32523 0
437.179 0.761791 0
268.414 38.5037 0
273.254 39.8001 0
473.099 35.3193 0
477.966 34.1677 0
328.154 14.9732 0
324.703 18.5941 0
271.842 -5.82394 0
267.076 -7.28232 0
236.023 26.8625 0
233.575 31.2248 0
205.752 3.54877 0
210.667 4.36408 0
193.398 51.8786 0
189.141 54.5379 0
253.737 9.05835 0
252.464 4.22065 0
246.175 43.5052 0
243.426 47.6864 0
164.048 36.842 0
165.401 41.6524 0
437.911 -6.0912 0
442.908 -6.12294 0
166.047 38.4661 0
162.607 42.1041 0
158.192 4.6366 0
160.891 0.430662 0
72.8104 31.7075 0
77.7808 31.1378 0
125.221 15.6987 0
125.173 10.6939 0
373.061 -11.5494 0
378.033 -11.1239 0
136.862 15.5674 0
132.621 18.204 0
173.427 10.3674 0
170.198 6.55526 0
418.57 -1.19294 0
423.355 0.241186 0
376.937 -13.5397 0
376.769 -8.53974 0
277.291 49.6611 0
281.667 47.2115 0
15.065 44.1898 0
12.963 48.7273 0
436.047 29.2902 0
440.954 28.3151 0
211.463 28.1972 0
209.24 32.6794 0
239.719 21.6893 0
242.095 26.0868 0
269.187 25.8448 0
274.025 24.5706 0
383.089 25.2974 0
386.943 28.4836 0
313.88 34.0438 0
317.423 30.5091 0
478.019 -4.64013 0
481.143 -8.54538 0
454.247 -16.7973 0
459.155 -15.8559 0
498.367 22.94 0
495.949 27.3169 0
434.388 30.6638 0
439.276 29.5958 0
425.774 1.11853 0
428.389 -3.14485 0
286.651 -3.03505 0
290.478 0.17167 0
246.022 36.7934 0
241.593 39.1358 0
75.1883 6.00259 0
70.2274 6.29869 0
135.217 26.1458 0
140.171 26.8169 0
33.3441 39.547 0
31.8872 44.3282 0
235.038 48.7565 0
230.087 47.9314 0
326.376 5.15323 0
326.803 0.168881 0
48.8711 50.6967 0
48.8041 55.6881 0
298.84 4.39233 0
293.871 4.85118 0
416.789 30.6527 0
413.787 26.6551 0
293.455 49.0389 0
289.131 46.5052 0
287.601 8.11033 0
290.92 4.37261 0
472.481 24.885 0
476.165 21.503 0
109.585 48.2743 0
109.125 43.3007 0
166.437 25.0047 0
170.51 22.1031 0
227.743 45.9164 0
225.577 41.4123 0
216.517 32.4479 0
219.042 36.7619 0
61.4005 23.964 0
65.5571 26.7339 0
214.997 -0.698012 0
211.2 -3.93731 0
477.252 -12.5013 0
472.562 -14.2308 0
469.905 34.1793 0
469.831 29.1801 0
471.119 35.46 0
471.199 30.4608 0
329.752 -10.2357 0
334.186 -7.94453 0
454.149 -4.54561 0
453.822 -9.53555 0
225.345 23.8961 0
230.037 22.1638 0
448.38 -14.6423 0
453.235 -15.8258 0
290.329 4.74726 0
285.36 5.20391 0
342.887 32.4429 0
347.879 32.8367 0
137.13 26.334 0
140.702 22.835 0
252.388 32.729 0
253.973 37.4689 0
214.191 40.0125 0
209.28 41.0271 0
342.613 19.4051 0
346.298 22.7824 0
415.465 6.11369 0
420.444 6.55062 0
225.049 3.21282 0
228.917 6.36852 0
124.006 0.937617 0
121.857 5.45343 0
264.172 36.251 0
263.573 31.2892 0
211.734 5.19842 0
211.484 0.199067 0
366.149 3.44724 0
361.295 4.63279 0
310.035 7.95146 0
314.36 5.44917 0
431.265 17.3407 0
430.033 12.4956 0
278.627 26.2226 0
273.674 25.5321 0
163.8 27.8183 0
159.984 24.5914 0
82.6512 11.5384 0
87.6025 12.0562 0
356.903 -0.000838296 0
351.928 0.426413 0
12.0546 48.3607 0
7.47272 50.4222 0
430.783 -0.564588 0
431.239 -5.54512 0
343.437 10.7305 0
338.449 11.0401 0
27.3185 6.71615 0
30.7934 10.2963 0
342.995 37.7285 0
338.915 40.6322 0
404.268 -18.3777 0
407.783 -14.8245 0
57.2633 4.42606 0
57.1019 9.43243 0
359.838 -12.7654 0
364.756 -11.9245 0
16.8133 34.4932 0
18.4412 39.2183 0
213.169 21.2338 0
214.109 26.1443 0
6.92854 10.3675 0
8.68697 5.68235 0
88.4242 7.03973 0
92.3407 10.1255 0
23.6301 25.9259 0
26.1936 21.6319 0
461.403 -6.62636 0
456.422 -6.21356 0
458.716 13.7458 0
456.015 9.54013 0
168.936 31.0335 0
172.028 27.0999 0
355.025 -2.01432 0
351.133 -5.14539 0
23.3887 26.7395 0
19.3719 29.7174 0
409.364 -6.94619 0
404.384 -7.33332 0
319.5 35.923 0
324.252 37.5054 0
142.275 47.8927 0
140.608 43.1825 0
278.957 43.2082 0
273.962 42.7715 0
472.656 -19.8079 0
476.724 -22.7138 0
170.253 46.5071 0
168.69 41.7609 0
94.6673 14.7258 0
90.0257 12.9142 0
161.23 -1.88446 0
166.2 -1.96764 0
6.22037 4.43917 0
2.27958 7.48982 0
233.696 52.0559 0
234.973 47.2243 0
342.521 6.69611 0
345.96 10.3221 0
163.106 43.42 0
164.356 38.5801 0
205.684 13.3671 0
201.127 11.3394 0
286.645 46.9225 0
290.629 43.8835 0
28.2043 24.9173 0
23.8234 27.3222 0
414.342 26.0017 0
413.829 30.9753 0
153.705 4.83879 0
156.861 0.969192 0
230.61 13.5559 0
232.997 17.9484 0
241.374 5.11918 0
236.637 3.55801 0
476.64 1.55511 0
474.757 6.18859 0
116.278 15.8312 0
120.528 13.2143 0
450.788 -15.2888 0
452.38 -10.5489 0
409.351 29.5842 0
414.056 31.2865 0
243.241 51.1133 0
247.779 48.9722 0
395.914 35.7448 0
396.065 40.7405 0
477.513 -12.5773 0
472.666 -13.8013 0
97.0968 14.0541 0
101.642 16.0973 0
413.333 9.00145 0
418.199 7.85312 0
206.985 2.24414 0
203.724 -1.53953 0
58.6701 47.0161 0
60.0511 51.8165 0
14.5627 35.3789 0
18.751 32.6382 0
245.299 22.1194 0
247.834 26.4274 0
258.367 39.0573 0
262.208 42.2664 0
286.435 34.9019 0
291.445 34.9073 0
360.443 12.9194 0
365.345 13.8965 0
464.72 8.35429 0
459.786 9.16497 0
2.5334 51.5626 0
1.32673 56.416 0
73.9066 24.4106 0
78.9005 24.2913 0
475.209 30.4601 0
472.221 26.4515 0
162.463 -1.59123 0
167.382 -2.31255 0
397.739 32.2882 0
397.474 37.2799 0
388.3 37.1218 0
384.805 40.7034 0
281.079 29.7633 0
283.7 34.0205 0
330.802 13.6296 0
335.786 13.9976 0
420.081 13.2425 0
416.126 10.1872 0
236.958 1.08141 0
232.025 0.375372 0
49.3874 24.3589 0
50.3522 19.4497 0
7.60254 32.6753 0
12.6065 32.6837 0
162.795 25.2985 0
167.443 27.1382 0
100.316 11.5679 0
96.8093 8.01868 0
35.9032 50.8638 0
40.3376 53.2204 0
495.358 28.3513 0
499.798 30.6479 0
333.344 -1.39157 0
336.73 -5.06688 0
226.341 23.7577 0
226.357 18.7571 0
438.061 35.6236 0
433.908 38.4143 0
415.497 9.6255 0
416.786 4.79283 0
463.195 29.9685 0
462.544 25.0115 0
87.7116 22.0604 0
89.7598 17.4968 0
428.815 12.9656 0
423.924 11.9306 0
351.289 -4.02694 0
346.298 -4.085 0
248.001 35.304 0
243.457 37.4119 0
117.769 48.6136 0
122.543 50.1679 0
383.979 -1.65482 0
386.257 -6.10668 0
308.418 -0.894947 0
304.125 1.65447 0
215.732 10.4125 0
220.633 11.3435 0
9.42672 23.6469 0
10.3908 18.7383 0
214.363 4.65522 0
219.225 5.75356 0
411.882 32.8446 0
406.879 32.9886 0
195.562 13.1529 0
200.484 13.9489 0
192.792 43.4814 0
197.454 41.6298 0
39.282 38.0636 0
37.9489 33.2471 0
484.745 -8.60068 0
479.843 -7.61989 0
458.376 33.7623 0
463.322 34.5083 0
247.689 32.1619 0
247.263 37.142 0
133.877 23.3276 0
138.868 23.114 0
62.3649 32.6874 0
64.8342 37.0335 0
285.859 34.9965 0
284.513 39.8105 0
441.246 19.8621 0
444.293 23.8252 0
250.813 46.4302 0
255.812 46.8629 0
140.51 22.3412 0
140.014 17.3638 0
404.509 -2.39846 0
400.064 -0.115487 0
266.229 5.30967 0
263.113 1.40231 0
317.891 7.59295 0
313.008 8.64267 0
143.721 48.6542 0
148.327 46.6594 0
449.065 17.488 0
444.643 15.1571 0
76.7716 13.7515 0
77.8051 18.6468 0
148.112 16.4461 0
145.78 20.87 0
497.376 -1.86787 0
497.993 -6.83109 0
354.947 37.4723 0
353.043 32.8507 0
249.108 6.39661 0
248.316 1.45609 0
400.065 39.9005 0
405.059 39.5311 0
210.896 -1.77454 0
214.992 -4.616 0
344.049 -3.1862 0
346.502 -7.54338 0
250.224 15.6141 0
247.282 19.6579 0
462.342 21.4155 0
466.616 18.8182 0
340.202 44.3327 0
337.439 40.1648 0
34.7691 14.7074 0
31.0319 11.4028 0
3.48046 53.3872 0
8.34223 52.0875 0
242.073 10.2391 0
241.692 5.25026 0
110.962 49.9429 0
106.835 47.0974 0
272.949 20.444 0
277.945 20.2468 0
451.081 12.0857 0
451.144 7.08571 0
378.658 -5.26298 0
373.689 -5.75175 0
27.1429 3.70284 0
25.9155 8.55765 0
168.904 17.3763 0
173.286 14.9794 0
226.271 53.1306 0
225.356 48.2203 0
459.682 22.2489 0
464.6 23.152 0
336.505 17.2472 0
335.649 22.1741 0
267.44 -1.66523 0
271.475 1.27535 0
211.579 48.3659 0
212.662 43.4873 0
325.871 -2.29261 0
325.657 2.70575 0
367.229 -3.55506 0
363.266 -6.5971 0
129.679 32.9199 0
128.892 27.9835 0
393.223 -11.0291 0
395.683 -6.67712 0
317.794 -0.200392 0
318.08 4.7942 0
268.041 20.5867 0
270.807 24.7496 0
107.698 55.465 0
103.885 52.2117 0
417.403 23.1377 0
419.052 27.8571 0
383.191 -16.1045 0
384.965 -11.4276 0
281.894 14.0475 0
277.602 11.49 0
154.764 13.4417 0
154.32 18.4253 0
152.751 35.8357 0
157.203 33.5425 0
202.782 41.9072 0
198.269 44.0957 0
392.166 20.9561 0
396.347 23.6941 0
354.696 39.6586 0
359.665 40.2951 0
475.6 3.79787 0
471.157 6.09282 0
56.793 41.0847 0
54.2557 45.3963 0
450.212 6.41471 0
451.558 11.2294 0
112.84 5.01878 0
114.358 9.78761 0
297.027 -1.7315 0
299.969 2.3069 0
14.2645 44.0195 0
15.3823 48.8879 0
216.138 16.7155 0
211.924 19.4044 0
220.567 20.6757 0
222.428 25.3153 0
244.76 6.3325 0
249.579 5.04418 0
407.002 22.7368 0
406.241 27.68 0
259.565 28.9921 0
254.565 28.7653 0
342.949 34.1225 0
344.807 29.4798 0
433.499 28.6484 0
438.461 29.2829 0
63.2033 58.1533 0
59.9341 54.3582 0
316.437 -2.49021 0
320.926 -4.67009 0
256.677 50.3843 0
260.993 47.8304 0
82.1211 3.07306 0
80.7006 7.87299 0
70.9754 0.382051 0
66.0376 0.869128 0
333.217 14.3235 0
331.283 18.936 0
115.076 56.1691 0
111.641 52.5233 0
306.103 27.9406 0
308.677 23.6478 0
201.439 5.14323 0
198.65 9.2913 0
190.347 50.2286 0
191.725 45.4247 0
61.277 10.9536 0
57.0286 8.35026 0
148.107 30.9712 0
148.112 35.9696 0
74.394 43.7729 0
69.4911 44.8437 0
404.018 36.1073 0
405.611 40.8452 0
174.399 22.7199 0
171.08 18.9857 0
27.2829 7.56406 0
31.0581 4.30923 0
31.0983 25.2455 0
26.1255 24.8007 0
261.935 -2.43299 0
263.954 2.14329 0
426.205 20.0549 0
421.224 19.6019 0
211.371 26.0177 0
216.336 25.4217 0
228.582 30.6707 0
223.738 29.4166 0
312.154 4.36168 0
317.028 5.43943 0
68.8988 33.3357 0
68.0432 38.2613 0
59.9113 16.0445 0
62.0501 20.5636 0
470.878 35.9556 0
475.547 34.1618 0
271.846 10.0058 0
267.971 6.85362 0
44.7659 25.4991 0
41.1596 22.0428 0
232.562 51.8484 0
230.064 47.5171 0
459.883 7.05751 0
463.553 10.4502 0
19.8346 42.6399 0
21.7272 47.2649 0
460.958 8.59312 0
460.675 13.5856 0
157.331 21.7622 0
154.744 17.4855 0
222.618 35.317 0
218.966 31.9005 0
408.613 33.9228 0
413.188 31.8931 0
352.077 19.7995 0
347.094 19.3803 0
116.959 37.7048 0
114.965 33.1219 0
415.095 26.8608 0
418.288 23.0101 0
474.402 31.9818 0
476.663 27.5217 0
432.15 19.7169 0
427.255 20.7503 0
371.317 -14.338 0
372.482 -9.473 0
455.08 18.3067 0
459.959 17.2082 0
284.025 13.8616 0
279.227 12.466 0
473.322 -19.3655 0
469.281 -16.4228 0
268.643 27.6557 0
273.054 30.012 0
392.13 29.973 0
387.138 30.3394 0
45.7827 9.83322 0
50.2974 11.9342 0
199.271 -1.44919 0
194.544 0.116054 0
429.281 31.153 0
425.177 28.2949 0
419.104 37.9193 0
414.1 37.8277 0
207.818 48.9447 0
203.974 52.1635 0
480.516 7.77831 0
477.196 4.04281 0
93.3437 37.4071 0
95.6935 41.8177 0
483.898 -20.9588 0
481.271 -16.7038 0
13.8707 29.8435 0
18.8291 29.2016 0
242.942 -0.196518 0
237.96 -0.153749 0
56.8894 37.6921 0
52.0218 36.5127 0
131.275 6.27146 0
130.754 11.2503 0
61.1484 43.4903 0
59.9137 48.3324 0
76.0568 6.19518 0
80.9349 7.15836 0
162.58 19.0964 0
167.552 18.6289 0
55.3482 44.2313 0
56.2205 49.1491 0
464.73 -8.68593 0
469.335 -6.74426 0
379.629 13.3152 0
377.034 9.04447 0
190.81 -0.569605 0
195.62 -1.84834 0
104.229 47.6722 0
99.3161 48.7237 0
456.789 22.6904 0
461.06 20.0879 0
481.762 2.3066 0
478.265 5.8828 0
440.728 34.7144 0
445.692 34.0868 0
467.715 7.37327 0
466.181 2.61528 0
78.4497 16.8942 0
83.4292 16.6381 0
118.86 5.81398 0
116.438 10.1884 0
316.657 36.8041 0
321.5 35.5192 0
93.6896 7.0058 0
95.7709 2.45643 0
104.117 7.80063 0
99.3751 9.31798 0
71.4333 58.7471 0
73.5728 54.2282 0
360.908 0.467266 0
355.917 0.626126 0
165.291 30.2979 0
160.346 31.0662 0
233.276 0.286304 0
232.731 -4.68989 0
218.03 -2.99149 0
213.196 -4.18588 0
228.384 23.444 0
227.109 28.2792 0
277.266 14.9544 0
280.866 11.4839 0
64.4381 51.0158 0
66.5679 46.4916 0
363.231 25.4806 0
358.229 25.352 0
216.74 7.6038 0
221.394 5.81062 0
9.46529 46.5479 0
9.08705 41.5661 0
46.6974 13.778 0
44.7622 18.3911 0
18.0572 29.5091 0
18.3561 24.5168 0
318.634 0.209682 0
314.669 -2.82591 0
57.654 13.1794 0
55.3883 8.7219 0
251.979 -7.34976 0
250.022 -2.74743 0
289.691 0.501134 0
294.505 -0.805143 0
467.582 10.1516 0
463.474 13.0045 0
181.609 32.9515 0
183.537 37.5632 0
251.49 21.8456 0
252.09 26.8088 0
237.785 25.1507 0
242.643 23.9554 0
164.647 27.6498 0
164.585 32.6488 0
164.25 38.7168 0
169.141 39.8068 0
101.517 42.6591 0
105.745 45.3485 0
444.24 20.5961 0
445.897 15.8773 0
306.847 5.38888 0
306.679 10.3874 0
442.748 -10.6433 0
446.651 -7.52256 0
363.066 43.0258 0
367.413 40.5391 0
199.942 37.9856 0
200.891 42.8915 0
331.455 14.1995 0
328.915 18.5079 0
419.262 -0.472285 0
424.108 -1.69366 0
130.717 32.23 0
132.104 37.0316 0
73.7841 7.61151 0
68.965 6.38244 0
348.241 2.36769 0
350.166 -2.24817 0
156.882 7.6122 0
160.46 4.13155 0
116.331 29.7905 0
111.399 28.9638 0
396.289 -11.3485 0
400.8 -9.20688 0
57.7991 25.3399 0
62.5066 27.0102 0
88.5849 18.2338 0
93.3813 19.617 0
229.235 33.6645 0
224.234 33.9418 0
232.914 9.47375 0
228.964 12.5316 0
143.904 40.1307 0
139.425 37.8909 0
278.771 -3.21448 0
275.146 0.218782 0
333.775 16.1825 0
332.298 20.9608 0
152.056 27.5026 0
154.478 31.8746 0
142.209 20.4719 0
143.549 15.6522 0
475.697 -13.9062 0
478.948 -10.1089 0
137.413 38.2406 0
135.514 33.6175 0
144.989 18.9072 0
149.893 17.9793 0
338.158 -2.781 0
341.24 -6.71587 0
165.434 21.1378 0
168.26 25.2593 0
389.421 -8.91565 0
385.193 -11.575 0
14.9965 8.80176 0
17.3851 4.40898 0
467.079 30.2428 0
471.968 31.2956 0
133.558 26.0356 0
138.542 25.6659 0
156.961 12.7985 0
152.836 15.6114 0
144.236 39.2141 0
147.825 35.7234 0
447.856 27.3203 0
447.717 22.3226 0
43.2517 -0.102174 0
45.6442 4.28853 0
130.671 2.51776 0
135.101 0.246122 0
101.039 3.50646 0
96.1556 4.43459 0
224.389 43.0002 0
221.755 47.2543 0
230.689 32.169 0
228.122 27.88 0
63.7183 50.5158 0
63.85 55.5061 0
449.999 11.0332 0
448.676 15.8562 0
258.362 16.2187 0
254.906 19.8332 0
237.556 30.949 0
232.55 30.9438 0
472.404 17.4716 0
475.654 21.2699 0
260.055 42.5504 0
265.066 42.3415 0
244.265 29.0343 0
243.595 24.0806 0
427.147 -4.02518 0
423.05 -1.16035 0
140.226 51.2588 0
140.612 56.2365 0
352.255 3.37476 0
357.121 2.24533 0
288.524 42.1856 0
288.002 37.2169 0
118.077 6.7491 0
117.451 1.78044 0
115.833 26.7584 0
114.146 31.4653 0
482.988 21.2415 0
484.322 26.06 0
161.293 39.1179 0
156.451 40.4188 0
15.4126 35.1379 0
15.6899 30.1465 0
268.324 24.072 0
267.261 28.9584 0
457.96 17.0703 0
455.079 21.1585 0
150.731 25.5908 0
150.456 20.5973 0
270.877 16.9136 0
267.137 20.2342 0
345.597 33.0058 0
340.712 31.9126 0
202.85 43.3523 0
198.879 40.3052 0
425.727 -2.89028 0
426.3 -7.85888 0
167.912 14.2785 0
172.309 11.9167 0
307.345 42.4655 0
306.237 47.3395 0
64.1835 36.7169 0
61.0496 40.6191 0
273.176 13.5066 0
271.439 18.1971 0
419.678 8.67444 0
415.14 6.58349 0
198.915 14.3357 0
195.172 11.0309 0
382.808 -7.28414 0
377.986 -8.57789 0
339.759 3.6736 0
344.579 4.982 0
242.146 18.7754 0
246.922 17.3041 0
322.087 -6.39059 0
322.98 -1.46775 0
47.2137 20.7157 0
42.2688 21.374 0
477.769 4.58564 0
473.114 2.76778 0
410.001 28.2355 0
411.68 23.5243 0
403.26 32.2933 0
398.791 34.5504 0
482.237 -12.1081 0
483.006 -17.0492 0
181.745 37.9581 0
178.198 41.4909 0
389.939 6.22464 0
385.347 4.25062 0
176.271 10.9414 0
181.242 11.3423 0
56.3402 53.1928 0
51.4092 54.1947 0
193.929 47.5973 0
190.096 50.8297 0
358.281 -1.48331 0
353.414 -0.363415 0
137.078 2.70342 0
142.014 2.0953 0
95.3702 10.9414 0
97.9986 15.1905 0
466.185 -14.7166 0
465.899 -9.72407 0
351.284 -0.114693 0
355.973 1.60472 0
245.369 22.4294 0
250.345 22.9153 0
164.296 48.1212 0
166.111 43.4626 0
141.839 9.84202 0
137.177 8.08185 0
86.287 36.0125 0
88.3382 31.4511 0
444.093 -9.14801 0
447.508 -5.49785 0
481.716 10.6278 0
480.966 5.68456 0
280.462 18.3145 0
284.813 20.7711 0
66.2364 41.3242 0
62.1694 44.2527 0
40.346 7.73606 0
35.5117 8.89809 0
383.111 24.3079 0
378.154 23.6402 0
50.9837 59.0169 0
51.912 54.1113 0
108.358 36.2888 0
110.867 31.9612 0
120.251 17.6825 0
124.66 20.0227 0
228.143 36.0885 0
231.724 39.5822 0
228.491 33.6148 0
223.554 34.4606 0
493.496 29.814 0
495.886 25.4216 0
117.651 4.73574 0
117.515 9.74129 0
116.064 41.2229 0
114.34 36.5329 0
130.58 30.5968 0
125.964 28.6757 0
443.779 7.50857 0
438.787 7.77579 0
85.2802 55.2114 0
81.4244 58.4245 0
67.8512 32.1941 0
65.2628 36.4751 0
432.916 18.3172 0
427.991 17.4512 0
249.025 35.4944 0
245.297 32.1599 0
364.674 3.71182 0
367.464 7.85888 0
75.1731 19.8626 0
74.6744 14.8841 0
194.847 40.0263 0
198.728 36.8576 0
243.037 32.9982 0
247.511 30.7517 0
261.815 -3.26705 0
259.083 -7.45406 0
384.423 12.6279 0
385.587 17.4895 0
495.691 23.0977 0
499.889 25.8103 0
62.7178 23.6075 0
67.0785 21.1709 0
244.55 41.7048 0
240.979 38.2014 0
430.325 21.1289 0
430.043 16.1374 0
359.569 41.6888 0
355.301 39.0739 0
220.837 36.0945 0
224.615 32.8093 0
84.7647 30.9663 0
89.764 30.9543 0
334.161 -0.948596 0
336.622 -5.3009 0
382.922 11.895 0
386.08 8.01402 0
208.727 7.15312 0
204.043 5.44722 0
363.221 -13.4357 0
367.938 -15.0603 0
153.996 6.40324 0
151.393 10.6714 0
226.514 45.9491 0
222.733 42.6678 0
457.39 -22.5333 0
457.664 -17.5398 0
265.285 20.6535 0
262.755 16.3428 0
492.224 2.82604 0
487.228 3.03002 0
244.977 33.7862 0
247.972 37.7899 0
88.476 38.7781 0
92.9376 36.5111 0
369.653 22.9653 0
365.285 20.5314 0
21.4805 43.321 0
19.9339 38.5696 0
330.948 38.5767 0
331.85 43.4918 0
83.7542 25.8156 0
88.4869 24.1973 0
369.65 11.4999 0
367.685 16.0994 0
381.815 -6.8505 0
385.942 -4.03381 0
138.804 11.4885 0
137.895 6.56667 0
480.498 -22.1742 0
484.987 -24.3741 0
109.26 7.72581 0
111.553 3.2825 0
383.924 27.5619 0
384.756 32.4904 0
122.279 1.76964 0
127.205 1.10669 0
466.161 5.61259 0
470.017 2.42747 0
248.007 15.497 0
251.718 18.8437 0
124.365 50.2569 0
128.038 53.664 0
126.901 54.4377 0
121.999 55.5659 0
208.022 -0.865063 0
212.55 -2.9435 0
363.405 43.0694 0
365.272 38.4309 0
97.0631 40.1215 0
102.076 40.3554 0
269.359 -5.6287 0
269.684 -0.634251 0
154.432 7.04955 0
159.239 5.74636 0
288.353 -3.35546 0
290.795 1.00768 0
455.683 17.8299 0
457.111 22.6209 0
10.1271 22.2277 0
15.0634 21.5062 0
234.019 26.8631 0
237.736 30.2076 0
434.252 -12.4037 0
429.806 -14.6835 0
124.52 24.5671 0
127.919 28.2313 0
486.676 5.76131 0
481.741 6.55947 0
346.813 11.4955 0
346.097 16.4449 0
11.7053 5.52149 0
16.1537 7.746 0
282.193 -8.42372 0
287.138 -9.01705 0
195.97 11.1728 0
192.681 7.41374 0
75.8668 27.0308 0
71.4297 24.7369 0
294.472 39.4101 0
299.173 41.1412 0
42.647 21.5511 0
47.1271 19.3506 0
229.809 41.3781 0
234.788 41.9704 0
153.81 39.5569 0
158.468 41.4017 0
495.492 21.0594 0
491.618 24.2217 0
96.0101 55.9319 0
100.838 57.3419 0
34.2233 43.884 0
29.4137 42.459 0
451.389 -7.80085 0
446.706 -9.54542 0
371.029 17.1595 0
369.887 12.2924 0
436.055 8.43903 0
439.373 4.69664 0
445.027 6.55685 0
441.831 10.404 0
237.74 -4.80131 0
234.274 -1.20848 0
26.4796 38.4229 0
24.6364 33.7774 0
282.358 33.4549 0
287.124 34.9865 0
331.158 34.024 0
335.356 36.7476 0
117.564 26.0847 0
121.763 23.3721 0
361.516 39.2756 0
365.684 36.5005 0
428.908 -15.9111 0
430.647 -11.2228 0
304 -3.06959 0
308.759 -4.56429 0
242.004 33.4112 0
241.594 38.3923 0
240.919 26.2492 0
243.973 30.2069 0
369.076 -13.2333 0
366.505 -8.94648 0
393.315 24.9698 0
397.904 26.9551 0
40.9893 6.58749 0
44.9648 3.58554 0
68.7675 26.4747 0
66.2571 22.1532 0
424.926 -5.56372 0
421.277 -8.97922 0
385.744 39.7827 0
384.148 35.0463 0
483.845 1.89488 0
486.593 -2.28489 0
207.452 12.0203 0
212.201 13.5475 0
380.163 26.5275 0
381.941 31.1995 0
273.057 22.7952 0
268.912 20.004 0
483.529 19.2108 0
487.852 16.6973 0
426.654 -1.79143 0
425.928 -6.73946 0
66.8445 17.614 0
61.8601 17.5536 0
233.105 28.9785 0
236.721 32.4322 0
179.909 46.6779 0
179.385 41.71 0
257.165 33.5693 0
257.076 38.5662 0
466.865 0.147171 0
470.112 3.94676 0
113.922 22.488 0
110.423 18.9237 0
286.777 28.1746 0
285.176 23.4393 0
467.659 28.0459 0
469.708 23.4839 0
483.05 20.1019 0
487.851 18.7051 0
42.2079 38.1825 0
45.886 34.787 0
125.628 46.669 0
130.593 47.4169 0
323.815 19.4625 0
321.422 15.0741 0
286.868 35.2054 0
290.78 32.0832 0
351.76 6.42589 0
354.141 10.8208 0
110.919 1.72027 0
111.1 6.72547 0
57.5422 18.3811 0
55.4386 13.8448 0
177.056 53.8903 0
176.622 48.9156 0
240.559 35.6285 0
235.561 35.2897 0
271.415 12.6377 0
276.144 11.0238 0
270.224 17.3396 0
271.872 22.0588 0
118.317 36.7506 0
115.521 40.9005 0
309.563 16.9071 0
311.424 21.5478 0
49.5894 8.77231 0
45.072 6.68474 0
140.538 6.1894 0
141.004 11.1735 0
312.16 11.511 0
309.435 7.32214 0
414.73 35.8921 0
411.607 39.7998 0
53.1799 17.3726 0
54.2004 22.27 0
197.698 53.679 0
193.022 51.8514 0
395.95 1.47288 0
399.865 -1.63522 0
142.266 49.7189 0
143.968 45.0189 0
96.0107 55.5544 0
91.7204 52.9494 0
274.149 -2.30547 0
272.26 2.32481 0
12.6487 9.52873 0
8.69922 12.5725 0
84.9634 9.90805 0
81.3453 13.3464 0
186.993 0.594947 0
190.12 -3.29861 0
159.269 49.601 0
161.359 54.141 0
282.036 12.6123 0
279.913 8.08596 0
493.56 -3.66528 0
488.82 -5.25149 0
369.317 -9.16926 0
373.406 -12.0358 0
294.346 -10.1596 0
299.204 -9.04587 0
363.027 18.495 0
358.276 20.0635 0
89.4613 38.9505 0
85.0132 36.6564 0
73.7521 25.6123 0
73.0409 30.5625 0
447.068 9.18423 0
448.111 14.0736 0
269.141 2.29798 0
268.04 -2.58297 0
239.146 24.3747 0
240.88 29.063 0
340.054 45.9948 0
336.994 42.0386 0
74.1577 45.0879 0
71.1558 49.0936 0
425.564 -11.8835 0
420.653 -12.7961 0
156.504 -1.40393 0
154.196 3.03097 0
318.67 -7.02533 0
322.915 -4.39766 0
471.049 13.9941 0
471.976 18.9071 0
416.44 30.2321 0
421.125 31.9864 0
452.7 -4.86725 0
449.88 -8.99455 0
147.425 41.5779 0
148.884 36.7963 0
484.978 7.8457 0
480.501 10.0746 0
497.833 19.5856 0
499.85 15.0101 0
337.674 30.745 0
339.343 26.0312 0
400.236 29.6692 0
402.159 34.2827 0
440.453 4.71136 0
442.867 0.330739 0
141.95 31.0131 0
143.945 35.5957 0
281.34 20.4957 0
285.783 22.7819 0
489.439 25.7047 0
484.838 23.7484 0
2.47987 14.7486 0
3.12437 19.7079 0
325.038 -10.3 0
320.339 -11.9742 0
24.394 37.8344 0
19.4321 38.5438 0
363.812 -10.218 0
365.253 -15.0074 0
66.585 13.5511 0
66.3099 8.55185 0
180.153 45.0241 0
176.662 48.6157 0
145.466 35.0609 0
140.474 35.4704 0
131.497 18.023 0
135.242 21.3282 0
36.5868 55.419 0
31.5535 55.5971 0
208.084 52.2619 0
204.951 48.3609 0
321.002 -6.17049 0
317.615 -9.84467 0
412.177 28.1042 0
417.145 27.5003 0
54.8155 47.7996 0
59.3862 49.8737 0
418.792 -17.6884 0
414.433 -15.2476 0
413.183 7.35925 0
414.785 12.0945 0
14.7874 3.25559 0
10.8496 0.208858 0
180.319 1.51345 0
176.04 4.06828 0
151.134 44.7448 0
156.048 43.7321 0
251.676 46.0745 0
247.313 48.5455 0
221.856 32.2302 0
226.676 30.8752 0
174.889 9.71961 0
171.211 6.34274 0
8.58575 29.2819 0
6.95324 34.0079 0
311.5 32.1452 0
309.779 27.4524 0
60.9456 49.677 0
63.9474 53.6815 0
360.872 31.5691 0
355.988 30.4743 0
138.878 14.8496 0
140.817 19.4588 0
81.4109 10.1339 0
83.5694 5.62229 0
467.37 -14.9885 0
467.528 -9.9904 0
380.027 33.1267 0
377.652 37.5282 0
349.414 41.8532 0
345.044 44.3025 0
491.011 -14.9281 0
487.088 -11.826 0
430.719 20.4531 0
426.908 17.2179 0
86.352 24.626 0
83.8706 20.2868 0
261.562 27.0899 0
265.323 30.384 0
76.1476 4.83887 0
75.6977 -0.151315 0
117.463 48.6311 0
117.834 43.65 0
4.64031 44.0929 0
3.00483 48.8192 0
16.3035 16.7781 0
11.5552 15.2743 0
121.369 40.6461 0
117.609 37.345 0
14.3529 48.0336 0
12.2417 43.5027 0
244.346 46.7262 0
248.623 49.3386 0
420.253 5.00437 0
422.853 9.27314 0
441.621 -12.9905 0
446.61 -12.7074 0
56.4145 50.9084 0
59.4257 54.9063 0
329.539 39.7893 0
332.011 35.4409 0
144.451 33.3366 0
144.542 28.3383 0
82.4867 29.8509 0
84.5561 25.2955 0
436.658 29.5087 0
432.623 32.4663 0
430.848 27.005 0
433.16 22.5703 0
469.955 16.3713 0
467.154 12.2314 0
87.6044 10.1039 0
90.08 14.4486 0
28.6821 4.11389 0
32.8741 6.7989 0
218.485 12.3881 0
221.214 16.575 0
123.807 55.8576 0
118.775 55.7803 0
156.781 38.448 0
153.765 42.4422 0
30.852 46.064 0
26.8172 43.0934 0
447.835 36.1651 0
442.832 36.1732 0
79.9001 24.0214 0
79.5926 19.0295 0
278.533 1.51604 0
281.497 -2.50722 0
21.3537 11.5515 0
19.1584 16.0458 0
14.2694 34.2835 0
9.40757 35.4817 0
113.326 3.90851 0
117.992 2.18361 0
242.294 41.3191 0
237.686 43.2951 0
415.349 10.6518 0
420.326 11.1144 0
330.62 2.9153 0
328.602 7.49168 0
92.0284 9.38016 0
87.9039 12.1833 0
475.851 3.02936 0
470.858 3.28129 0
301.436 48.092 0
306.399 47.3657 0
278.428 19.1339 0
280.204 23.8058 0
113.221 36.4846 0
108.398 37.8433 0
228.705 9.91715 0
224.258 7.65238 0
132.428 10.6919 0
127.754 12.4252 0
90.8341 50.7919 0
87.7765 54.7586 0
367.305 24.9154 0
367.79 29.8908 0
142.833 22.7322 0
141.667 27.5956 0
224.245 21.9562 0
228.683 19.653 0
370.54 38.7396 0
370.821 33.7492 0
268.599 18.4821 0
272.865 21.0845 0
63.7759 44.8243 0
58.8422 43.9073 0
9.94855 42.7301 0
14.2801 40.2066 0
49.4293 19.2523 0
49.0691 24.2426 0
263.745 38.2902 0
258.817 39.2045 0
359.931 -1.52299 0
363.891 1.52271 0
269.278 12.5232 0
264.638 14.3787 0
371.52 19.161 0
372.58 24.0464 0
451.202 34.417 0
456.103 35.4194 0
175.561 41.6626 0
180.486 40.7232 0
40.5445 44.648 0
37.8268 48.8498 0
271.004 36.3379 0
268.991 40.9159 0
489.077 21.5499 0
484.191 20.4956 0
117.471 49.9036 0
121.309 53.1266 0
376.761 18.4089 0
381.204 20.6986 0
207.903 36.742 0
204.669 40.5636 0
312.3 8.41595 0
316.544 11.0495 0
227.659 50.2768 0
225.129 45.9644 0
83.9657 43.8385 0
79.8555 46.7073 0
80.3354 47.3436 0
77.3972 51.3959 0
59.0874 10.6566 0
63.7111 8.81117 0
142.527 45.1851 0
137.694 43.8434 0
346.392 26.1949 0
347.41 21.2994 0
276.254 -8.91166 0
274.7 -4.15689 0
234.738 -3.95425 0
229.81 -4.66401 0
333.849 4.02844 0
328.966 5.07799 0
5.63491 47.3468 0
0.766773 46.1167 0
70.2544 1.27004 0
67.2122 5.22879 0
304.602 0.48031 0
307.899 -3.27369 0
187.142 21.6324 0
191.443 19.0752 0
457.92 1.32607 0
460.556 5.57332 0
352.398 34.9224 0
357.3 33.8968 0
257.528 -1.07556 0
261.759 1.57037 0
340.6 -10.4134 0
344.724 -7.59704 0
483.558 24.0856 0
488.525 23.5178 0
392.437 -13.2447 0
395.139 -17.4504 0
437.666 23.6083 0
441.179 20.047 0
66.3805 27.4095 0
71.2769 26.4061 0
476.669 3.18343 0
472.039 1.30092 0
48.9685 56.6293 0
45.4149 53.095 0
423.93 -17.6718 0
428.873 -18.3844 0
276.739 30.1442 0
278.525 25.4722 0
176.747 26.0551 0
172.264 28.2768 0
484.891 19.7192 0
489.256 17.2807 0
354.768 20.7343 0
356.619 25.3774 0
344.87 1.2526 0
344.811 -3.74953 0
376.227 -4.06638 0
374.861 0.744695 0
444.836 17.9709 0
439.841 17.7378 0
167.688 11.2416 0
169.493 6.5766 0
298.882 33.5036 0
303.196 36.038 0
87.1143 55.4565 0
82.1994 56.5456 0
144.086 40.6567 0
144.095 45.6524 0
178.476 28.3266 0
183.473 28.5086 0
69.9009 24.8817 0
66.0291 28.0463 0
394.524 28.0615 0
398.292 24.7686 0
85.9584 6.71219 0
90.6812 5.15145 0
220.681 7.23111 0
221.421 12.1793 0
481.131 -1.76509 0
486.13 -1.7825 0
174.619 11.3569 0
169.957 9.58218 0
152.987 50.6101 0
150.761 46.135 0
179.561 8.09513 0
178.543 3.19451 0
154.338 28.6558 0
149.355 28.2398 0
144.345 11.3449 0
140.406 8.28111 0
474.428 18.8198 0
470.606 15.5978 0
447.198 -8.85897 0
452.181 -9.24967 0
289.603 38.7796 0
293.712 35.9159 0
286.854 16.8677 0
282.618 19.5307 0
168.305 21.9208 0
170.643 17.4999 0
376.716 -7.51989 0
377.975 -2.67954 0
473.008 -14.1654 0
468.032 -13.6858 0
299.619 32.6785 0
294.634 33.1664 0
345.621 22.0568 0
350.481 20.8682 0
352.518 -0.556542 0
352.743 -5.55396 0
184.695 44.8469 0
187.498 48.9883 0
462.39 1.57707 0
467.191 0.179664 0
54.2662 5.13 0
53.8163 0.139622 0
487.906 -20.1485 0
488.76 -25.0754 0
381.129 -12.0315 0
381.183 -7.02899 0
271.933 44.8623 0
267.73 42.1383 0
228.97 -2.94498 0
232.551 0.535433 0
394.588 -1.92845 0
390.595 -4.92995 0
44.0233 9.41571 0
39.0548 9.59594 0
199.242 39.2766 0
194.586 37.4312 0
364.189 41.1621 0
363.838 36.1768 0
206.027 0.445425 0
203.143 -3.63593 0
208.755 35.5858 0
210.223 40.3629 0
487.103 13.3173 0
491.746 15.1664 0
292.792 44.0147 0
291.222 39.2712 0
236.547 43.4659 0
233.6 47.5113 0
75.2396 53.7368 0
71.476 57.0536 0
80.9212 41.1559 0
83.133 45.6388 0
385.05 -2.51889 0
388.236 1.33385 0
107.858 49.7346 0
106.435 54.5248 0
238.432 5.42094 0
233.582 4.26027 0
463.646 -3.15833 0
461.514 1.36619 0
127.265 36.7018 0
123.968 40.4684 0
53.2345 29.9985 0
51.247 34.5878 0
283.097 19.5447 0
280.589 15.2224 0
411.055 19.9499 0
415.437 22.3598 0
128.875 14.8605 0
125.441 11.2342 0
153.796 39.1604 0
152.314 34.3877 0
153.298 0.510518 0
150.271 4.48358 0
300.788 29.3093 0
305.794 29.1086 0
330.4 -11.2915 0
335.237 -10.0732 0
139.917 42.0258 0
143.499 38.527 0
375.493 19.1474 0
378.018 23.4609 0
451.755 30.2947 0
456.756 30.204 0
17.455 25.0178 0
21.9345 22.8087 0
250.88 49.1821 0
246.154 50.8707 0
145.895 15.1237 0
145.92 10.1192 0
324.702 26.884 0
319.958 28.481 0
283.7 20.3098 0
288.307 18.3609 0
487.129 -5.5503 0
488.367 -10.3956 0
221.317 18.361 0
222.973 23.0781 0
327.985 0.256016 0
329.864 4.88986 0
366.043 23.7336 0
362.285 27.0369 0
33.5802 40.014 0
28.5906 40.5191 0
182.225 18.3539 0
184.338 22.8829 0
335.475 2.56274 0
333.142 -1.85929 0
168.923 19.2487 0
173.01 22.121 0
314.673 -4.36954 0
312.723 0.235662 0
420.684 27.157 0
421.445 32.0977 0
497.908 -1.30424 0
493.711 -4.02033 0
259.775 20.5839 0
263.341 17.0777 0
469.236 -1.92973 0
473.235 -4.93263 0
92.8589 -1.19301 0
93.6803 3.74853 0
456.827 16.8425 0
451.919 15.8929 0
262.272 22.4266 0
267.272 22.4415 0
376.972 -3.77882 0
381.014 -0.840173 0
46.7918 33.2602 0
50.4682 36.6507 0
362.181 35.5044 0
366.71 37.6355 0
462.52 15.745 0
460.361 11.2361 0
473.263 -2.63403 0
472.126 2.23604 0
159.386 42.2802 0
162.657 46.0664 0
314.615 -4.25561 0
309.628 -4.17444 0
139.828 50.6163 0
144.839 50.9983 0
443.886 16.7657 0
439.818 13.8607 0
382.446 -6.7161 0
386.046 -10.1816 0
172.038 34.7778 0
176.344 37.3264 0
300.117 35.6583 0
295.552 37.7235 0
450.548 32.1056 0
445.69 30.9125 0
425.286 14.1556 0
420.404 15.2437 0
49.4127 23.5752 0
45.2425 26.3292 0
487.433 -0.924778 0
482.609 0.39098 0
319.02 -6.78404 0
323.782 -5.29562 0
364.507 14.6541 0
361.572 18.7043 0
31.3992 41.9623 0
34.0271 37.7054 0
226.416 20.6317 0
226.006 15.6474 0
382.857 28.2366 0
382.001 33.162 0
153.832 49.4559 0
148.808 49.4276 0
51.9207 18.803 0
53.2213 23.6325 0
245.018 36.5336 0
240.506 38.7125 0
391.906 24.8121 0
392.425 29.7825 0
0.0683371 42.8313 0
4.95104 43.985 0
177.387 28.1248 0
172.623 29.6531 0
196.196 47.2637 0
198.176 51.8513 0
106.059 50.278 0
106.713 55.2282 0
334.941 -1.96109 0
338.612 1.4284 0
188.471 -2.64887 0
190.415 1.96099 0
226.693 4.51148 0
231.474 3.09722 0
325.113 1.84123 0
321.373 -1.47098 0
312.164 -7.151 0
308.819 -10.863 0
301.729 3.24747 0
299.183 7.55091 0
287.16 -1.46255 0
285.854 3.3675 0
260.529 -8.23791 0
258.063 -3.89001 0
131.187 28.9452 0
126.303 30.0288 0
35.7204 46.7813 0
30.9746 45.1478 0
477.058 -8.3966 0
473.224 -11.6029 0
190.254 48.9478 0
194.784 51.1033 0
343.227 -10.0177 0
347.064 -6.81906 0
339.986 8.51658 0
335.505 10.7321 0
318.555 -11.9108 0
318.89 -6.91771 0
198.028 36.7862 0
198.676 41.7404 0
264.33 8.19935 0
268.803 5.97996 0
242.186 35.2583 0
247.061 36.4079 0
183.178 24.9655 0
185.198 29.5359 0
255.1 -5.52674 0
252.885 -1.04401 0
439.123 2.87782 0
439.577 -2.10259 0
384.032 26.6978 0
381.468 22.4063 0
50.5056 9.04455 0
46.4629 6.13161 0
384.116 10.6928 0
381.322 14.8429 0
13.2833 35.268 0
11.0069 30.8173 0
472.505 -7.54608 0
477.099 -5.57558 0
257.328 42.1463 0
252.898 44.4927 0
105.632 42.3438 0
101.154 40.0928 0
54.3693 41.7618 0
58.0638 38.381 0
273.983 20.666 0
278.982 20.6067 0
48.8055 27.5099 0
46.1826 31.7686 0
424.577 36.4836 0
427.458 32.3956 0
338.897 17.4019 0
343.296 15.0213 0
478.297 9.87581 0
478.271 14.8762 0
289.322 1.07967 0
290.533 5.93451 0
455.514 7.99312 0
459.453 11.0697 0
361.247 29.4203 0
364.998 26.1083 0
312.519 14.6075 0
308.054 12.3637 0
2.16004 35.1914 0
5.28971 31.291 0
322.441 0.447943 0
325.207 -3.71581 0
451.612 37.0348 0
448.007 33.5687 0
30.7106 24.1057 0
30.4079 19.1116 0
21.5574 13.9502 0
25.1796 17.3833 0
62.8423 34.0833 0
61.7364 38.9587 0
26.5622 20.8518 0
28.4156 25.4955 0
12.5998 35.4147 0
8.79432 32.1689 0
88.5634 53.0192 0
92.8164 50.3503 0
392.291 -2.90876 0
394.002 -7.61021 0
210.873 39.5338 0
214.596 42.8788 0
464.682 12.2147 0
468.435 15.5153 0
447.202 19.9506 0
442.305 18.9384 0
227.03 42.6889 0
223.035 45.7145 0
257.19 -4.90673 0
260.876 -8.27092 0
57.4224 24.569 0
60.8082 28.2439 0
366.888 -13.2769 0
371.162 -10.6951 0
444.913 35.3738 0
448.023 31.457 0
407.948 -17.6027 0
404.737 -13.7723 0
219.713 20.2514 0
216.794 24.3124 0
215.361 48.6171 0
216.188 53.5427 0
488.777 -19.2779 0
493.098 -16.7634 0
277.165 18.9837 0
278.17 23.8806 0
224.893 15.7989 0
222.387 11.4734 0
82.5013 27.3563 0
87.0522 29.4166 0
128.632 5.58097 0
129.962 0.755622 0
7.15311 40.341 0
5.07411 44.8903 0
245.51 12.631 0
241.01 10.4687 0
19.7025 12.6978 0
21.5414 17.3492 0
73.3347 11.9601 0
71.8693 7.1747 0
408.947 -17.2128 0
409.809 -12.2861 0
43.3705 26.6854 0
48.0027 28.5579 0
321.584 -2.07409 0
318.125 -5.67935 0
424.204 -9.52668 0
427.473 -13.3082 0
149.766 32.8464 0
145.687 29.9536 0
304.415 35.5608 0
300.479 32.4729 0
61.7508 6.4091 0
66.1442 8.75251 0
93.1226 18.4364 0
92.539 13.4637 0
122.793 36.9906 0
124.781 32.4017 0
420.922 -4.74173 0
420.682 -9.73744 0
483.395 34.1158 0
488.035 32.252 0
330.324 -2.26556 0
333.216 -6.34292 0
13.2093 16.7879 0
14.1072 21.7094 0
124.232 11.962 0
125.999 7.28121 0
479.315 -6.30566 0
474.334 -5.88123 0
419.061 4.36374 0
418.898 -0.634717 0
212.747 22.3255 0
217.689 23.0812 0
53.7089 13.5072 0
57.9426 10.8747 0
218.827 12.0957 0
223.645 13.3961 0
455.429 11.1204 0
458.558 15.0187 0
268.059 42.0306 0
266.228 46.6831 0
488.766 -18.515 0
490.532 -23.1928 0
426.152 18.1831 0
422.093 21.1066 0
71.8003 57.6857 0
66.9505 56.3393 0
10.5651 33.5592 0
15.265 35.279 0
245.127 13.0575 0
242.717 17.4399 0
186.267 33.9491 0
181.269 33.6908 0
62.3412 20.3463 0
65.7115 24.0335 0
345.807 23.4589 0
343.301 27.7879 0
163.464 0.602041 0
160.475 4.6041 0
417.534 36.3832 0
412.535 36.1419 0
232.988 44.5148 0
230.639 48.9308 0
346.877 23.6401 0
345.508 28.4497 0
365.406 -10.6293 0
369.274 -7.46686 0
157.604 29.6056 0
160.801 25.758 0
70.3676 21.7527 0
66.4898 18.6077 0
453.036 20.9603 0
457.732 19.2392 0
377.045 28.8143 0
373.58 32.424 0
438.641 38.5502 0
435.24 34.884 0
337.722 38.5143 0
332.719 38.2424 0
126.732 50.7051 0
121.851 49.5185 0
344.086 -2.61391 0
339.5 -4.58703 0
324.225 33.2268 0
319.748 30.9916 0
337.822 14.273 0
342.798 14.7535 0
449.032 29.6237 0
448.512 24.6514 0
1.13004 41.601 0
6.1065 40.9786 0
52.1247 48.9038 0
47.1332 49.4973 0
32.6256 27.3578 0
34.1092 22.5807 0
62.7054 21.5861 0
62.9164 26.5833 0
492.422 5.49554 0
497.418 5.32746 0
467.4 1.67566 0
462.634 3.19012 0
431.696 -0.235574 0
436.43 -1.84152 0
434.711 4.03403 0
434.31 9.01884 0
126.782 49.6524 0
125.662 44.7847 0
98.1171 16.4991 0
102.549 14.212 0
380.984 18.5147 0
376.88 15.6635 0
202.551 50.9689 0
198.795 47.6575 0
75.2621 49.1596 0
72.9657 44.7189 0
373.107 37.1759 0
372.267 42.1032 0
74.3044 49.9052 0
69.4528 48.6035 0
449.048 11.4373 0
453.026 8.40513 0
364.468 1.10846 0
363.646 6.04202 0
248.831 21.8312 0
252.782 24.8923 0
161.261 31.3415 0
156.333 30.4735 0
88.7341 2.29018 0
88.3045 7.28118 0
244.101 -4.57078 0
241.464 -0.325566 0
208.361 34.7704 0
206.254 39.3076 0
356.028 36.6004 0
357.846 31.9421 0
243.749 14.4182 0
248.733 14.7259 0
144.684 32.9841 0
143.362 37.8056 0
419.135 11.9059 0
414.147 11.5672 0
471.254 20.5713 0
466.46 21.9943 0
234.732 23.7947 0
233.585 28.6619 0
390.937 28.6993 0
387.842 24.7734 0
455.286 -12.4961 0
453.907 -7.68884 0
311.227 29.882 0
313.091 34.5201 0
125.214 52.425 0
130.24 52.5617 0
279.169 34.8495 0
276.203 38.8793 0
51.5988 19.0631 0
54.24 14.818 0
25.584 55.2904 0
30.5991 54.8332 0
68.7184 43.7619 0
73.6091 42.6429 0
240.684 27.5926 0
242.685 32.1729 0
94.8063 9.31027 0
96.7842 4.71425 0
287.15 23.3138 0
291.58 25.624 0
382.415 -11.3059 0
377.53 -12.3308 0
356.605 7.59503 0
355.55 12.4839 0
24.3042 52.1317 0
28.1198 55.3866 0
150.637 4.81095 0
154.985 2.37862 0
460.34 28.4816 0
460.562 33.4762 0
349.915 18.9058 0
345.187 17.281 0
439.326 6.37659 0
435.62 9.73569 0
220.564 29.5786 0
219.564 24.6807 0
343.326 24.5367 0
339.165 27.318 0
178.236 -3.23031 0
174.963 0.537991 0
149.181 34.3077 0
153.457 36.9066 0
51.4721 53.974 0
49.8374 49.2534 0
185.945 19.3202 0
190.874 18.4838 0
328.069 20.6828 0
328.796 15.7354 0
438.708 16.3181 0
433.773 17.131 0
317.753 32.9503 0
318.453 28.0004 0
432.951 34.8876 0
429.068 38.0415 0
273.456 -8.52036 0
273.021 -3.53418 0
349.122 2.28071 0
344.191 1.49345 0
428.014 18.599 0
424.021 15.5911 0
354.137 17.3395 0
349.416 18.993 0
333.253 22.7029 0
329.097 25.4902 0
442.999 16.2614 0
447.238 18.9104 0
22.3175 8.91075 0
17.5469 10.3165 0
100.315 53.46 0
100.138 48.4697 0
308.484 11.0598 0
307.971 6.08561 0
273.388 -9.52765 0
273.2 -4.52557 0
113.509 -0.378108 0
110.926 3.89973 0
493.583 17.7873 0
498.072 15.584 0
359.322 35.7864 0
357.708 40.5186 0
472.55 11.9038 0
474.276 16.5956 0
79.1106 43.1562 0
79.3549 48.1449 0
207.16 4.19992 0
211.666 6.33635 0
216.729 3.13194 0
217.666 8.04768 0
190.91 2.3399 0
192.744 -2.31488 0
380.639 28.081 0
376.26 25.6646 0
8.14086 58.6756 0
4.72811 55.0051 0
260.875 19.7818 0
261.88 24.6789 0
132.351 13.8436 0
130.28 9.29173 0
48.5904 41.3864 0
51.3079 45.5842 0
74.5571 20.6278 0
77.4298 16.5367 0
60.4699 14.938 0
55.5566 15.7623 0
145.366 15.3683 0
145.083 10.3719 0
323.445 11.0546 0
327.582 8.24768 0
130.043 1.65863 0
133.25 -2.16559 0
221.938 37.1113 0
223.171 32.266 0
14.8838 41.9388 0
19.7816 43.0252 0
90.5705 4.43655 0
89.9435 9.40587 0
281.24 23.4935 0
286.235 23.6924 0
48.5584 41.1143 0
45.1234 37.4775 0
88.7533 56.3652 0
89.4693 51.4239 0
457.625 0.0989077 0
455.298 4.52608 0
50.6193 54.5434 0
48.8943 49.8547 0
17.3058 50.2252 0
22.303 49.6582 0
112.853 9.0013 0
109.071 5.74738 0
453.131 -4.7969 0
454.537 -9.59621 0
400.987 29.7845 0
405.386 27.3969 0
390.403 26.7303 0
391.598 21.8765 0
349.452 39.6135 0
351.007 34.8615 0
422.168 11.7259 0
420.816 16.5411 0
487.525 -13.0235 0
492.461 -12.2355 0
107.238 45.8087 0
105.591 41.0903 0
202.635 7.75408 0
199.052 11.2343 0
99.3384 8.39329 0
96.6435 12.6042 0
103.288 41.0513 0
108.183 42.1451 0
56.1067 52.0987 0
55.9478 47.1081 0
114.344 43.7055 0
113.448 48.6206 0
380.208 -13.2029 0
376.562 -16.6203 0
147.932 56.3497 0
148.831 51.4366 0
460.848 23.108 0
457.435 26.764 0
340.131 10.6344 0
337.422 6.43386 0
242.987 17.3028 0
246.827 20.5012 0
356.095 13.8366 0
361.086 13.5467 0
69.6476 38.4288 0
72.5878 42.4741 0
355.285 -1.0014 0
353.357 3.61333 0
191.913 46.9537 0
190.19 51.6464 0
339.71 9.22482 0
344.364 11.0405 0
213.191 17.7902 0
218.186 17.8442 0
272.667 26.2388 0
276.421 22.9304 0
2.94919 31.8957 0
7.6167 33.6983 0
437.191 35.7176 0
433.709 32.1287 0
208.625 39.4929 0
213.622 39.9031 0
231.442 45.6757 0
236.299 44.4177 0
356.866 3.8182 0
361.782 2.93136 0
81.2129 50.7957 0
86.228 51.1568 0
169.436 2.72155 0
171.989 -1.57474 0
388.089 41.0722 0
383.095 40.6727 0
275.915 9.65344 0
274.529 14.4591 0
360.136 6.22821 0
360.281 1.22886 0
182.43 34.4997 0
184.046 29.7665 0
235.703 23.8869 0
233.449 19.4254 0
457.133 -10.8962 0
462.016 -11.9633 0
422.93 -1.06983 0
424.771 -5.72001 0
489.59 11.8526 0
484.641 12.5595 0
258.192 46.0577 0
256.242 41.4557 0
9.12582 39.3771 0
7.7065 44.1707 0
479.178 -21.4657 0
482.264 -17.5318 0
148.879 49.9058 0
145.575 46.1471 0
221.6 47.9299 0
225.745 50.7465 0
29.5323 27.1187 0
29.5408 22.1165 0
476.169 0.854106 0
472.147 3.8276 0
362.651 5.89194 0
366.423 2.61143 0
379.118 -8.56305 0
379.536 -3.57828 0
131.492 20.4006 0
136.466 19.9701 0
159.807 49.328 0
163.089 45.5454 0
186.825 8.93538 0
191.628 10.272 0
468.55 -0.375976 0
471.775 3.44251 0
63.1233 3.88179 0
62.344 8.82879 0
263.768 23.0955 0
259.483 25.6786 0
473.116 5.17949 0
477.833 3.51805 0
434.137 3.64921 0
439.115 3.19871 0
206.755 -0.318506 0
211.712 0.151 0
226.272 42.8377 0
222.047 40.1495 0
452.7 33.0061 0
449.319 36.6921 0
161.919 10.8243 0
156.935 10.8688 0
266.714 -2.94146 0
270.227 -6.48821 0
34.8466 24.7182 0
30.4819 22.2951 0
454.43 6.91601 0
449.498 6.10053 0
35.4678 45.2795 0
33.4972 49.8742 0
239.289 51.963 0
236.49 47.8185 0
30.9496 54.371 0
33.1289 49.8706 0
451.523 27.1099 0
453.526 22.5276 0
200.663 47.3963 0
200.584 52.3903 0
217.368 -2.69028 0
212.528 -3.85676 0
384.675 -15.4242 0
389.558 -16.4525 0
224.399 29.9512 0
221.884 25.6314 0
214.631 41.2975 0
212.995 36.5758 0
168.307 28.8326 0
170.606 33.2707 0
307.484 32.9322 0
305.608 28.2986 0
346.99 23.4086 0
351.538 21.3229 0
75.4141 26.9261 0
78.5476 30.8177 0
128.204 2.61306 0
127.666 -2.367 0
364.286 42.2246 0
364.351 37.2274 0
87.2594 12.6189 0
92.2379 12.5953 0
79.6093 28.6994 0
83.4991 25.5524 0
312.651 13.8335 0
315.737 17.7653 0
416.314 -2.4948 0
412.702 0.962308 0
225.408 -2.65391 0
230.38 -2.38764 0
237.125 24.0706 0
235.066 28.6282 0
99.934 39.7591 0
95.7566 42.5317 0
273.971 29.8399 0
277.091 33.7473 0
69.9117 14.8721 0
69.0821 9.93605 0
302.862 39.5261 0
304.577 34.8276 0
384.629 24.0049 0
380.301 26.5144 0
230.116 46.6405 0
225.174 47.5196 0
67.5296 1.83564 0
72.4325 1.06127 0
367.313 3.83124 0
369.81 8.16139 0
151.027 27.3745 0
146.207 28.7116 0
414.599 -9.26025 0
411.05 -5.74048 0
147.062 41.2173 0
152.07 41.4815 0
341.773 30.3821 0
336.784 29.9717 0
184.361 24.0566 0
186.586 19.5754 0
63.7014 25.2652 0
60.7169 29.2786 0
44.3495 51.6644 0
47.8407 48.0695 0
71.3093 28.6262 0
68.2227 32.5635 0
482.084 1.35562 0
479.687 5.74573 0
441.145 -12.3217 0
440.74 -7.33679 0
371.096 17.6363 0
367.845 21.439 0
366.103 31.4102 0
369.996 34.5512 0
283.018 -1.68605 0
285.527 -6.00977 0
107.839 53.7629 0
111.409 57.279 0
360.53 39.6789 0
365.493 38.9989 0
277.277 17.5885 0
273.719 14.081 0
484.437 18.4104 0
489.411 17.9099 0
401.227 -3.64385 0
401.56 1.34552 0
106.532 11.8116 0
107.437 6.88865 0
144.496 54.5557 0
149.423 53.5528 0
291.319 28.2762 0
287.755 31.7865 0
442.004 19.6502 0
446.788 18.1903 0
168.424 40.3174 0
172.729 42.8764 0
65.2859 51.0128 0
68.6778 54.6984 0
244.815 26.2881 0
240.278 28.3998 0
367.358 17.6406 0
363.21 14.8522 0
430.373 5.8082 0
434.036 9.20826 0
459.882 23.0701 0
456.241 26.4988 0
51.1525 38.0621 0
53.7554 33.7902 0
365.847 16.3159 0
369.909 19.2289 0
215.177 46.9389 0
217.489 51.3714 0
449.817 5.64617 0
448.841 10.551 0
92.1384 11.2071 0
91.0027 16.0835 0
228.233 27.5516 0
228.552 22.5618 0
306.278 -10.6197 0
301.691 -8.66321 0
248.766 30.4877 0
252.184 34.1381 0
376.89 32.3051 0
381.854 32.9495 0
114.642 13.3973 0
118.517 16.5441 0
190.068 16.5338 0
187.764 12.0935 0
246.413 47.12 0
250.186 43.8237 0
445.86 -2.8847 0
444.261 1.85425 0
112.324 24.1925 0
114.106 28.864 0
477.591 28.8751 0
481.28 25.4993 0
52.4826 53.7409 0
48.1507 51.2039 0
93.2073 48.0864 0
88.2344 48.8114 0
305.306 -9.84352 0
309.737 -7.54878 0
80.42 24.7588 0
75.4638 25.3977 0
474.718 16.7665 0
472.569 21.2826 0
327.645 20.4724 0
327.282 25.4589 0
238.437 28.8814 0
235.445 24.877 0
359.751 43.648 0
358.286 38.8696 0
404.131 -11.3875 0
399.265 -10.2614 0
36.5282 6.09166 0
41.1933 4.37544 0
254.881 28.2222 0
256.687 23.5582 0
378.417 -11.2471 0
379.04 -6.28344 0
111.302 48.8384 0
106.286 49.1493 0
113.288 56.5027 0
108.255 56.5372 0
20.2643 33.366 0
16.5524 36.7235 0
291.35 9.27858 0
286.358 9.44569 0
251.605 -7.57925 0
246.633 -7.33617 0
406.552 26.7938 0
411.554 26.9158 0
253.569 23.7722 0
257.042 20.1726 0
439.363 7.98596 0
443.623 10.5994 0
493.807 -21.3762 0
490.32 -24.9595 0
33.398 28.0148 0
38.1997 26.6289 0
18.2851 26.345 0
18.2174 21.3432 0
322.505 -5.96842 0
320.276 -1.49263 0
331.381 -7.4206 0
336.12 -8.98055 0
5.32268 47.7137 0
9.7126 45.2814 0
321.958 15.6364 0
326.374 17.9777 0
13.6666 42.2713 0
15.7445 46.8173 0
382.105 -16.8096 0
382.148 -11.8066 0
170.101 26.5692 0
168.32 31.2431 0
447.77 20.421 0
451.298 23.9629 0
138.949 18.3369 0
134.033 17.4852 0
132.017 41.4117 0
133.868 46.0534 0
115.518 45.227 0
117.446 40.6134 0
133.375 10.6839 0
138.356 10.7036 0
407.196 -11.7174 0
406.399 -16.6551 0
29.2683 15.4505 0
25.84 19.0837 0
103.025 0.209361 0
106.75 3.52423 0
430.914 27.3876 0
429.479 32.1773 0
457.62 16.301 0
461.013 12.6262 0
4.64505 20.0099 0
6.63585 15.4235 0
386.845 34.965 0
390.766 38.0719 0
230.488 46.5996 0
229.689 51.5313 0
74.3305 25.5107 0
74.0314 20.5185 0
81.7059 50.9574 0
76.7465 51.7869 0
34.2183 47.2999 0
35.8136 42.5632 0
185.235 45.8343 0
189.85 43.8667 0
81.9719 38.9313 0
77.8652 41.7985 0
478.934 -8.08424 0
481.742 -12.2225 0
124.109 42.2855 0
124.723 37.326 0
88.9407 9.76083 0
87.0183 14.3803 0
431.52 17.3553 0
426.527 17.6435 0
53.1228 53.4138 0
48.3888 55.1128 0
131.59 3.24611 0
131.608 -1.7628 0
60.6929 31.0127 0
62.9186 26.5336 0
317.715 25.5649 0
319.055 30.3801 0
290.516 37.4001 0
289.5 32.5083 0
137.378 4.7701 0
132.423 4.3286 0
365.866 13.7771 0
370.78 12.8523 0
217.189 24.8117 0
213.152 21.8637 0
85.7172 54.4035 0
83.1041 58.6713 0
56.3947 8.01166 0
52.7026 11.3671 0
193.955 51.8689 0
197.195 48.0487 0
115.377 21.2366 0
120.216 20.0025 0
394.006 -15.5792 0
398.424 -17.9051 0
143.847 16.2687 0
139.827 19.2337 0
35.7625 53.1602 0
37.7522 48.574 0
316.203 25.4869 0
311.9 28.0435 0
81.1195 54.4525 0
79.0112 58.9859 0
376.392 17.8725 0
376.531 22.8707 0
157.139 35.1022 0
154.721 39.4812 0
456.057 -21.1594 0
460.69 -19.2854 0
449.534 -6.476 0
450.603 -1.5917 0
409.548 -11.8172 0
411.941 -16.2068 0
342.248 27.2959 0
346.866 25.3666 0
330.28 1.83673 0
325.366 2.71932 0
252.027 34.2788 0
247.289 32.6634 0
70.2334 48.7436 0
65.2193 49.0834 0
141.548 48.0347 0
139.014 43.7244 0
82.2872 49.7595 0
79.2698 53.7549 0
124.907 47.7296 0
119.92 48.3391 0
196.909 44.6457 0
192.564 42.1538 0
115.812 38.2473 0
110.819 38.6919 0
360.139 25.0091 0
364.135 28.0146 0
404.957 27.6886 0
404.648 32.6792 0
332.063 5.23704 0
327.111 5.88167 0
127.208 -0.718985 0
122.352 -1.77481 0
429.586 38.8853 0
428.763 33.9548 0
14.1691 21.9842 0
9.30501 23.0998 0
297.928 3.3297 0
296.869 8.21902 0
173.338 46.084 0
178.02 47.8859 0
340.625 39.1345 0
343.537 43.2 0
90.1458 31.7424 0
85.7101 34.0549 0
19.3779 8.33445 0
23.9414 6.35604 0
345.23 25.6442 0
348.812 22.1512 0
306.199 -4.76551 0
308.04 -9.41527 0
112.624 10.3128 0
112.505 15.3172 0
35.7763 18.4338 0
38.7096 14.3869 0
199.366 -0.0583382 0
204.194 1.16236 0
498.127 -5.89259 0
497.075 -1.0029 0
85.3108 15.7762 0
90.2924 15.9306 0
452.734 14.2777 0
453.787 19.1648 0
341.23 21.2138 0
338.311 25.2768 0
266.168 16.2345 0
266.545 11.2472 0
258.861 3.84228 0
260.005 -1.02817 0
110.166 15.6539 0
107.627 19.9635 0
414.346 32.3986 0
419.196 33.6285 0
389.839 -0.310361 0
385.198 1.544 0
222.222 -2.50217 0
220.909 2.32614 0
286.792 45.1868 0
288.154 40.3776 0
362.723 27.3225 0
363.929 32.1734 0
63.9725 46.8738 0
68.8712 45.771 0
293.258 29.893 0
288.608 28.0521 0
261.753 45.9039 0
257.502 48.5612 0
279.939 -4.83289 0
277.314 -9.08869 0
455.176 -17.1787 0
453.817 -21.9913 0
386.811 -4.42878 0
390.298 -8.01029 0
136.792 18.4024 0
140.878 21.2745 0
47.4371 35.3533 0
51.2927 38.5414 0
232.491 9.11209 0
228.029 11.3512 0
174.289 2.32939 0
169.591 3.98043 0
237.383 8.0433 0
237.68 3.04801 0
198.684 45.444 0
195.344 49.178 0
169.207 36.9731 0
174.145 36.1251 0
281.115 21.2556 0
285.742 19.3544 0
16.9482 11.2888 0
16.7578 6.28334 0
170.185 16.3144 0
174.662 14.1042 0
472.507 33.1201 0
477.002 35.3108 0
183.373 37.4031 0
186.658 33.6301 0
374.121 -11.442 0
378.584 -13.6779 0
253.032 23.8657 0
256.566 20.3259 0
74.5276 38.9881 0
71.1422 35.3075 0
79.9262 5.66751 0
76.2362 2.31267 0
275.634 18.1449 0
274.207 13.3538 0
43.6701 11.5274 0
45.0131 16.3478 0
14.0349 14.143 0
18.7646 15.7007 0
54.1036 3.2554 0
49.973 0.47773 0
214.391 43.2987 0
212.111 47.7505 0
53.4125 40.4202 0
49.8382 43.9285 0
173.062 40.9459 0
171.262 36.2833 0
274.782 15.7453 0
278.208 12.1025 0
304.186 -1.44935 0
308.578 0.922538 0
286.508 12.135 0
281.671 13.3934 0
162.244 8.98409 0
166.812 6.98898 0
261.171 20.5167 0
262.211 15.6248 0
118.691 14.5193 0
115.086 17.9784 0
309.581 22.7714 0
313.086 19.2032 0
46.6157 52.0484 0
49.3764 56.2209 0
406.581 -13.4785 0
407.065 -8.50069 0
313.284 16.2605 0
313.322 11.2602 0
64.3548 48.0151 0
61.4982 52.1254 0
421.414 21.1567 0
417.343 24.0649 0
44.6934 2.50977 0
39.8708 1.3325 0
354.924 30.0769 0
359.859 30.9075 0
282.209 49.2524 0
277.715 47.03 0
355.596 43.6115 0
360.582 43.0997 0
160.004 18.1004 0
157.568 13.7352 0
112.832 22.6774 0
113.152 27.6669 0
197.949 14.3284 0
202.491 12.2672 0
33.0159 23.72 0
37.8897 22.6413 0
438.631 -0.493003 0
433.911 -2.13574 0
72.2403 17.3388 0
76.425 20.0592 0
103.288 11.7038 0
99.3112 8.69594 0
373.821 18.5152 0
371.005 22.6505 0
234.886 26.1082 0
230.32 24.0718 0
495.48 27.2303 0
494.226 22.3908 0
436.808 18.4672 0
441.591 17.0023 0
42.5597 30.0254 0
39.4243 26.1336 0
352.136 -3.96255 0
349.639 -8.29443 0
381.426 28.3515 0
377.507 25.245 0
377.406 37.096 0
379.601 41.5875 0
459.667 18.3282 0
462.731 14.3749 0
225.701 43.4469 0
221.033 41.6221 0
292.315 48.1894 0
296.24 45.0739 0
284.333 24.1265 0
279.35 24.5529 0
430.975 -16.3652 0
435.68 -14.6835 0
219.439 5.03411 0
215.313 7.84184 0
386.221 15.0141 0
383.212 11.0244 0
221.857 18.1989 0
217.405 20.4722 0
445.029 22.1578 0
445.398 17.1713 0
42.0652 50.1925 0
41.9571 55.1833 0
297.505 -7.90204 0
294.715 -3.75486 0
384.609 3.21426 0
385.36 -1.73095 0
26.5136 41.4468 0
26.9811 46.4195 0
271.059 25.2241 0
275.944 24.1469 0
289.34 0.495621 0
284.368 0.879579 0
133.85 27.3981 0
130.116 24.0766 0
238.144 -7.22367 0
241.869 -3.90036 0
419.435 33.2228 0
423.914 30.9919 0
482.754 5.05235 0
479.795 1.02429 0
344.779 21.8289 0
345.241 16.8501 0
301.941 5.62705 0
306.195 3.00949 0
111.907 24.3048 0
116.411 22.1377 0
346.809 10.6169 0
344.093 6.42048 0
45.6748 40.8615 0
45.747 35.8651 0
80.0456 45.8747 0
75.0253 45.9609 0
465.376 12.3195 0
469.466 9.44097 0
282.285 21.3246 0
286.206 18.2163 0
318.705 -5.32716 0
323.672 -4.87015 0
144.51 27.7713 0
140.322 25.0452 0
442.963 -4.90933 0
444.171 -9.76252 0
475.541 -0.47158 0
470.544 -0.321096 0
492.109 1.92631 0
487.704 -0.436159 0
81.4308 29.393 0
85.8527 31.7187 0
273.616 41.5741 0
268.782 42.9047 0
406.189 27.0049 0
409.518 30.7355 0
346.917 28.8734 0
346.581 23.8859 0
23.352 31.0016 0
27.5537 28.2887 0
326.628 19.1783 0
321.781 17.9512 0
313.563 39.7533 0
311.882 44.4623 0
220.584 17.9399 0
219.317 22.7782 0
285.756 3.93317 0
281.657 1.0816 0
41.7178 16.0796 0
41.4606 21.0777 0
425.769 23.5437 0
423.259 19.2207 0
139.265 29.6788 0
144.22 30.3613 0
371.203 29.9883 0
375.683 27.7588 0
454.369 -15.3524 0
452.359 -10.7731 0
70.3169 39.0129 0
65.3374 39.5884 0
495.691 33.3204 0
500.686 33.5225 0
34.4992 56.5644 0
39.4964 57.1985 0
272.425 -7.52025 0
275.63 -3.68721 0
272.741 39.8326 0
268.103 37.9411 0
133.585 14.5809 0
131.161 18.9552 0
259.585 44.8658 0
254.708 46.0394 0
356.256 -9.42964 0
352.758 -12.9977 0
424.63 24.8136 0
429.125 27.0054 0
314.106 34.7396 0
318.766 32.9036 0
41.4211 32.7511 0
41.1578 27.7585 0
420.254 0.364482 0
425.205 1.03573 0
187.372 24.5645 0
183.914 20.9596 0
282.552 14.7654 0
286.568 11.7861 0
278.274 11.2144 0
283.242 11.7376 0
483.485 17.3918 0
483.315 12.3944 0
313.182 10.9453 0
312.164 6.04918 0
174.407 6.46495 0
169.673 4.91157 0
254.843 18.4354 0
259.749 19.3875 0
44.8035 46.714 0
41.3612 50.3544 0
311.405 19.0586 0
316.088 17.3061 0
334.275 28.657 0
329.806 26.4103 0
493.325 -17.7158 0
489.446 -20.869 0
261.714 0.369323 0
261.912 5.3692 0
142.687 17.7689 0
147.064 15.3662 0
189.984 1.45146 0
188.041 -3.15912 0
143.055 37.6004 0
138.066 38.0745 0
190.978 4.29961 0
190.781 9.30244 0
249.468 9.02372 0
244.488 8.71578 0
118.722 4.55082 0
113.9 3.32921 0
473.305 25.4951 0
468.352 26.1851 0
173.068 15.0114 0
171.944 19.8854 0
288.544 19.034 0
290.54 23.6139 0
76.4143 47.4639 0
77.516 42.59 0
70.3767 23.5166 0
66.7891 20.0417 0
372.568 -9.2075 0
372.335 -4.21067 0
279.717 46.6114 0
276.246 50.222 0
417.486 12.9177 0
413.487 9.92054 0
243.124 43.5061 0
241.134 48.0935 0
45.8459 3.51133 0
40.9178 2.91731 0
173.626 44.1469 0
178.202 46.1949 0
460.999 -14.7305 0
457.781 -10.9035 0
237.408 38.8945 0
242.357 38.0965 0
470.478 -21.4244 0
475.41 -20.6162 0
454.509 29.4612 0
459.41 30.4592 0
219.976 9.50689 0
217.788 14.0039 0
449.705 -13.9924 0
453.833 -16.8116 0
243.384 17.1527 0
238.963 14.8274 0
177.979 52.7254 0
181.101 48.8106 0
64.8393 35.3716 0
63.5994 40.2146 0
444.39 31.4413 0
440.488 34.5721 0
271.016 5.09582 0
274.452 8.72338 0
11.4556 39.5312 0
7.65086 36.2799 0
482.36 -13.5268 0
485.858 -9.95613 0
108.652 16.6769 0
109.079 21.6609 0
177.58 17.2757 0
174.385 21.1222 0
162.192 34.8633 0
163.435 39.7037 0
178.816 30.2575 0
177.315 25.4899 0
315.882 3.25176 0
320.672 1.84482 0
17.771 37.6759 0
15.507 42.1357 0
93.6671 38.7392 0
89.2226 36.4402 0
452.277 31.7636 0
447.956 29.2457 0
396.402 36.6258 0
400.717 34.0879 0
437.516 -13.6459 0
436.633 -8.72317 0
72.3033 54.171 0
73.8802 49.4295 0
385.948 20.3578 0
385.176 15.4182 0
155.901 18.2777 0
155.837 23.2791 0
187.341 -3.77106 0
182.384 -3.41404 0
130.824 32.7428 0
134.387 36.2513 0
123.201 17.4501 0
120.749 21.8091 0
472.024 16.6378 0
477.021 16.8219 0
460.803 15.2551 0
465.136 17.7479 0
26.0871 2.8078 0
21.7284 0.416522 0
438.741 -11.9476 0
436.87 -7.30985 0
391.393 25.7588 0
386.488 24.7777 0
47.7668 38.6945 0
52.7206 37.9327 0
35.5138 2.82063 0
40.0637 0.824591 0
343.688 15.5652 0
347.952 12.9521 0
334.753 4.55059 0
329.807 3.86372 0
23.6379 14.2416 0
22.7954 19.1756 0
232.077 48.0343 0
230 52.5833 0
143.533 44.0919 0
141.299 48.5668 0
10.5737 13.685 0
6.13943 11.4195 0
78.896 51.8803 0
73.8664 51.8558 0
235.804 1.5711 0
231.903 -1.5425 0
451.503 -5.66751 0
448.859 -9.90978 0
423.858 -15.0996 0
420.339 -18.6489 0
131.57 19.4748 0
132.744 14.6115 0
213.996 6.27488 0
209.364 8.12287 0
117.659 24.6887 0
120.757 20.7645 0
299.996 7.79717 0
304.948 7.18144 0
429.358 6.39327 0
431.083 1.69842 0
44.4254 12.5898 0
48.5239 9.75118 0
3.25472 46.7558 0
0.401839 50.8726 0
45.0955 33.8408 0
47.1249 38.4083 0
9.96687 8.08721 0
8.51177 12.876 0
290.096 38.8017 0
291.225 43.6683 0
104.177 7.43689 0
100.269 4.34198 0
31.7698 29.9125 0
36.3816 31.8437 0
10.9522 15.0594 0
12.9533 10.4746 0
384.005 16.407 0
379.041 17.0113 0
471.029 27.364 0
475.676 29.2084 0
20.8689 50.7632 0
23.321 55.1215 0
73.1919 43.7373 0
71.0689 48.2649 0
355.64 17.3391 0
350.917 15.7009 0
448.941 16.8656 0
444.502 14.5666 0
395.298 40.307 0
390.296 40.5647 0
364.141 -15.7251 0
367.325 -11.8721 0
366.462 23.3724 0
368.069 28.1058 0
3.01306 11.6914 0
7.85981 10.5671 0
195.036 6.75266 0
190.068 7.12412 0
6.26139 42.6804 0
1.39194 43.89 0
19.091 47.7092 0
14.7043 45.2766 0
23.8947 12.2468 0
27.2827 15.9131 0
66.401 25.0453 0
70.9683 23.0195 0
57.8817 1.0892 0
62.8402 0.914996 0
56.8368 9.85397 0
57.0418 4.84938 0
74.5497 -0.508878 0
73.0945 4.28116 0
461.54 17.9722 0
462.04 22.947 0
327.312 -9.74176 0
325.632 -5.03073 0
322.008 42.5237 0
323.825 37.8656 0
327.68 7.61285 0
325.111 3.3244 0
47.6549 13.0394 0
44.1144 16.5607 0
254.511 31.248 0
259.342 29.9349 0
62.1676 34.8064 0
64.7204 39.1044 0
213.648 5.49537 0
208.84 4.18168 0
308.013 36.8384 0
313.023 36.9016 0
287.904 -3.57527 0
283.539 -5.99097 0
60.0111 41.0072 0
63.5335 44.5624 0
61.9958 27.0871 0
58.4706 30.6354 0
280.063 41.2098 0
285.048 40.675 0
167.048 10.6572 0
168.547 5.884 0
340.804 20.0088 0
341.688 15.0868 0
423.737 -17.0546 0
428.633 -16.0654 0
495.401 5.44835 0
490.844 7.50581 0
422.554 15.6788 0
417.573 15.2347 0
80.6175 39.839 0
75.7283 38.7466 0
319.741 24.5229 0
318.174 29.2717 0
497.842 6.79695 0
497.134 1.84753 0
230.734 25.399 0
227.941 21.2535 0
458.576 10.7298 0
463.386 12.091 0
245.83 46.0204 0
246.197 41.0374 0
184.366 30.633 0
186.452 35.1755 0
289.933 9.04297 0
287.464 13.3929 0
413.567 38.2237 0
413.475 33.2256 0
192.291 1.9752 0
188.452 -1.2101 0
6.87554 49.0117 0
10.4783 45.5269 0
359.024 -1.47854 0
362.493 2.11928 0
356.158 29.1644 0
357.455 24.335 0
249.036 42.0209 0
244.021 42.041 0
262.526 19.1677 0
259.269 22.9647 0
87.1003 38.1629 0
84.7949 33.7278 0
344.646 22.9567 0
339.691 22.2761 0
30.304 15.1585 0
34.3041 18.1394 0
322.73 21.8557 0
318.821 24.9794 0
432.426 4.26987 0
428.167 1.65539 0
402.961 30.7936 0
398.13 29.4972 0
182.426 42.1062 0
177.413 41.9836 0
377.547 16.0358 0
380.114 11.7422 0
55.8856 18.1613 0
51.1285 16.6721 0
273.21 -0.548713 0
268.448 0.933046 0
206.898 9.7743 0
202 8.84223 0
329.863 -9.66945 0
325.438 -11.9777 0
422.742 24.4486 0
421.09 29.168 0
410.725 -4.89966 0
413.952 -1.08261 0
145.903 17.0919 0
145.485 12.1056 0
51.2056 27.1306 0
56.1682 26.5481 0
355.718 -5.90238 0
359.609 -2.76861 0
164.158 49.7651 0
161.205 45.7268 0
280.755 -0.0688712 0
277.933 4.05634 0
22.1263 30.1015 0
18.9775 33.9886 0
264.598 39.5204 0
268.312 42.8749 0
20.0738 36.6581 0
23.8394 33.3607 0
296.381 28.6388 0
301.377 28.9765 0
99.6803 9.1764 0
103.044 5.48641 0
275.462 37.8493 0
280.464 37.5532 0
401.708 37.9035 0
404.423 33.7017 0
372.711 18.9605 0
372.595 13.9617 0
63.8045 8.88127 0
68.5965 10.2233 0
222.892 37.4439 0
222.862 32.4463 0
40.3291 2.35191 0
35.3872 2.79799 0
393.598 21.8722 0
389.391 24.5771 0
393.276 38.8907 0
389.59 35.5098 0
121.307 9.75096 0
122.284 4.84123 0
188.95 52.8619 0
193.181 50.1632 0
146.771 -0.793275 0
141.85 -0.096463 0
141.716 26.8588 0
146.573 25.6753 0
141.799 8.9042 0
145.256 12.5075 0
420.748 2.58086 0
417.866 -1.50267 0
92.3628 5.4949 0
87.8973 3.29956 0
219.907 12.0292 0
217.819 16.5743 0
30.4903 2.29045 0
29.011 7.0735 0
286.702 -0.0507858 0
286.94 -5.05015 0
112.92 5.62211 0
111.951 0.709014 0
234.975 -1.94967 0
238.735 1.33511 0
226.459 10.7928 0
221.494 10.3029 0
498.493 26.3258 0
495.207 30.0947 0
216.44 33.9398 0
221.4 34.6307 0
442.144 -8.38519 0
445.228 -4.45162 0
182.503 19.4161 0
186.86 16.9656 0
255.995 46.1336 0
260.821 47.4989 0
396.251 -4.34513 0
400.848 -2.39443 0
12.2508 50.1457 0
7.22406 50.3352 0
172.57 19.0892 0
173.75 14.2282 0
36.716 57.8383 0
31.8645 59.1939 0
123.982 -1.27102 0
128.455 0.910064 0
402.64 41.3031 0
407.632 40.9255 0
89.8221 49.108 0
94.7222 47.9941 0
20.7578 28.6039 0
17.0319 25.2751 0
468.827 9.1208 0
467.403 4.32854 0
118.993 28.549 0
114.983 25.5642 0
13.725 20.7925 0
16.6185 16.7164 0
210.992 8.28587 0
206.033 8.80431 0
132.891 5.59702 0
137.815 4.88449 0
282.9 43.1076 0
277.915 42.564 0
40.3506 46.3205 0
37.2242 50.232 0
131.58 43.9527 0
126.579 44.3773 0
330.484 19.3768 0
328.176 14.9431 0
355.164 39.0152 0
350.196 39.6653 0
308.044 37.1781 0
308.231 32.1827 0
13.9286 20.1774 0
9.06029 21.2626 0
191.181 36.5382 0
195.766 34.5261 0
327.988 43.5318 0
332.722 45.1742 0
373.79 -7.41679 0
369.09 -5.73051 0
446.79 28.74 0
451.775 28.3208 0
369.387 14.9191 0
368.163 19.7684 0
143.029 19.3964 0
146.362 15.6724 0
35.2085 37.5006 0
32.2507 41.5369 0
275.145 -5.42442 0
280.127 -5.42922 0
306.762 43.6999 0
308.383 38.9695 0
285.657 3.8747 0
282.82 7.99089 0
374.783 30.6145 0
379.461 28.8358 0
417.76 -4.10867 0
416.49 -8.94555 0
140.951 36.237 0
141.105 41.2314 0
271.568 14.7308 0
267.264 17.2755 0
272.816 33.3614 0
267.849 32.7297 0
365.61 37.9441 0
365.635 42.9416 0
409.994 18.986 0
410.646 14.0265 0
215.398 27.2176 0
219.974 29.2362 0
76.761 57.7841 0
77.427 52.8364 0
419.151 24.5865 0
421.584 28.9541 0
394.716 -1.92842 0
390.057 -0.121677 0
12.8407 5.94789 0
16.8679 8.8786 0
469.62 -20.4064 0
473.691 -23.3071 0
162.368 20.6321 0
163.071 15.6793 0
358.263 10.2086 0
360.005 5.52021 0
331.697 14.1978 0
333.31 9.46364 0
124.337 12.5997 0
124.424 7.59435 0
214.62 4.11638 0
219.391 5.56207 0
162.757 0.362173 0
158.273 -1.80322 0
152.116 49.9232 0
150.403 54.6189 0
322.947 34.9067 0
319.23 31.5594 0
441.185 -17.5077 0
446.02 -16.249 0
398.433 -9.29164 0
394.48 -6.23277 0
206.151 10.6594 0
201.224 11.4278 0
313.806 19.9507 0
318.194 22.3476 0
438.635 -11.7409 0
439.229 -6.77544 0
412.43 18.0486 0
416.961 20.1642 0
13.1592 14.5683 0
17.9654 15.8694 0
421.796 27.777 0
424.285 32.1127 0
63.4674 13.8172 0
58.5439 13.0744 0
72.562 46.1856 0
71.0792 50.9578 0
490.5 4.56806 0
488.444 9.12755 0
333.843 39.1121 0
337.606 42.4095 0
375.92 20.6709 0
380.849 21.5093 0
445.484 14.6076 0
443.304 19.109 0
143.653 11.2101 0
144.638 16.1154 0
377.289 29.0092 0
372.806 26.7898 0
33.9077 38.5847 0
28.9692 39.4477 0
178.845 36.5207 0
183.264 38.8743 0
144.599 27.4166 0
144.729 22.4175 0
276.702 12.3875 0
280.335 8.95389 0
134.871 8.13763 0
129.933 7.50974 0
430.164 -0.784817 0
432.389 3.69203 0
377.665 3.22277 0
376.632 -1.66988 0
74.0421 53.3256 0
69.4403 51.311 0
324.014 39.2216 0
329.018 38.9698 0
102.113 14.802 0
105.588 11.2159 0
427.649 20.8573 0
423.322 18.3521 0
434.612 -6.83757 0
436.861 -2.3725 0
242.547 50.8333 0
246.922 48.3801 0
53.1169 49.6856 0
57.5773 51.9892 0
407.971 -11.3111 0
405.655 -6.87962 0
293.155 48.7085 0
288.143 48.9883 0
235.214 23.5742 0
232.11 27.4965 0
84.192 57.2576 0
79.427 55.6436 0
411.48 -5.82567 0
412.654 -10.6872 0
329.111 -9.17335 0
324.135 -8.84832 0
477.898 13.0054 0
482.774 11.9018 0
237.996 24.4305 0
233.86 21.6249 0
361.651 -11.1203 0
357.328 -13.6198 0
403.193 36.124 0
402.984 41.1182 0
110.601 39.4248 0
115.611 39.2175 0
323.698 -1.86633 0
328.334 -3.71519 0
322.067 0.280592 0
323.063 -4.62194 0
167.675 3.15681 0
167.748 -1.85031 0
464.51 -2.27966 0
469.413 -3.2539 0
118.542 30.9649 0
115.173 27.2709 0
170.63 49.623 0
172.545 54.2385 0
489.811 9.35635 0
494.742 8.52799 0
322.795 -2.51986 0
318.574 0.148289 0
462.935 29.5413 0
460.379 33.8399 0
383.573 22.629 0
384.709 17.7587 0
129.268 9.99165 0
133.576 7.48144 0
329.129 14.024 0
325.191 10.9486 0
54.5771 53.014 0
50.9369 49.5707 0
380.822 33.1714 0
381.229 38.1528 0
432.855 -7.05346 0
428.25 -5.11001 0
44.7646 44.0147 0
42.3762 48.4097 0
244.24 -2.4457 0
248.847 -0.538674 0
20.6873 58.6895 0
16.0134 56.8224 0
3.66037 44.4686 0
8.67859 44.6242 0
213.872 35.2624 0
217.999 32.4258 0
312.57 42.4997 0
309.512 38.5421 0
104.41 9.44876 0
108.148 12.7543 0
115.898 42.1999 0
117.874 37.6056 0
81.8867 54.2108 0
86.3078 56.5967 0
434.543 20.0824 0
435.215 25.0362 0
331.261 -6.90539 0
333.343 -11.4516 0
138.58 9.40231 0
139.119 14.3779 0
407.422 -9.96796 0
408.714 -14.7995 0
260.741 14.6611 0
255.911 15.9398 0
130.101 55.8418 0
125.307 57.3627 0
114.439 44.3863 0
110.185 41.7399 0
281.257 5.96593 0
284.623 9.66084 0
198.405 12.2584 0
198.629 7.25973 0
426.168 33.1072 0
430.988 31.7621 0
261.101 23.3468 0
264.901 26.5944 0
46.1575 11.6637 0
43.9357 16.1446 0
314.407 15.9806 0
310.728 12.5983 0
272.35 27.8944 0
273.296 32.8026 0
254.448 33.1216 0
252.219 28.6477 0
344.197 23.9783 0
347.567 27.671 0
362.453 19.2267 0
362.274 14.2299 0
148.242 37.2667 0
147.752 42.2398 0
397.523 28.1779 0
401.945 25.832 0
213.323 11.8494 0
217.804 14.0483 0
470.333 20.2327 0
468.471 24.8741 0
124.754 44.4462 0
128.791 47.4128 0
203.288 46.3293 0
198.421 45.1132 0
228.495 32.952 0
232.06 36.4601 0
401.318 31.4547 0
399.038 35.9068 0
455.343 -17.1482 0
456.624 -12.3147 0
439.03 0.686763 0
443.934 -0.278855 0
43.4405 12.027 0
39.7517 15.3897 0
244.246 15.8964 0
244.445 10.8981 0
169.599 28.6399 0
174.012 26.2842 0
282.611 9.52114 0
280.036 5.23562 0
162.384 -3.22097 0
166.008 0.209465 0
234.524 19.133 0
230.096 21.4541 0
158.025 34.6287 0
155.286 30.447 0
78.1166 31.059 0
73.1345 31.5114 0
121.427 46.1121 0
120.134 41.2866 0
169.181 25.8812 0
173.347 23.1132 0
4.20629 37.7111 0
8.41601 40.4239 0
99.0204 52.0576 0
94.7267 54.6639 0
266.682 15.1226 0
261.935 16.6852 0
329.276 28.7364 0
334.06 30.2049 0
168.573 -1.63828 0
173.511 -1.05659 0
208.567 31.6661 0
204.112 33.9615 0
450.338 18.9754 0
446.289 21.913 0
191.069 9.93363 0
191.857 14.8768 0
21.9585 14.218 0
18.3988 17.7201 0
81.4692 11.3898 0
76.6651 12.7028 0
307.397 7.92844 0
308.345 3.01713 0
357.735 13.6529 0
362.053 16.1692 0
458.406 10.2847 0
458.614 5.2885 0
111.566 5.79227 0
113.75 10.2912 0
409.248 -15.1633 0
414.155 -14.2351 0
274.985 25.2253 0
275.625 30.1832 0
361.102 39.9694 0
357.063 42.9293 0
391.995 -5.75658 0
396.964 -6.2577 0
463.073 16.5856 0
460.18 12.5095 0
378.034 20.5113 0
374.946 24.4477 0
376.912 9.40478 0
381.312 11.7745 0
19.5281 17.212 0
24.3283 18.5495 0
11.9495 39.2667 0
14.5445 34.99 0
210.823 10.5703 0
215.776 11.1544 0
190.597 -1.64483 0
194.325 1.67135 0
266.826 1.07138 0
264.978 -3.57723 0
242.213 29.5945 0
237.943 26.9899 0
390.766 31.4705 0
388.407 27.0641 0
89.007 57.7591 0
88.8345 52.771 0
394.952 -5.22949 0
397.818 -1.13572 0
399.669 28.5747 0
404.622 27.8616 0
470.543 29.2349 0
468.377 33.742 0
236.008 9.8177 0
231.262 11.3659 0
329.178 -7.57256 0
325.115 -4.67121 0
88.2638 43.7424 0
83.2858 43.1167 0
341.937 -10.0518 0
346.588 -11.8587 0
251.833 29.9835 0
256.524 28.2376 0
353.505 35.7837 0
358.182 33.9929 0
159.4 49.7889 0
163.019 46.3237 0
357.974 -0.262192 0
353.238 -1.84289 0
159.173 22.2515 0
162.563 25.9232 0
236.255 45.5307 0
237.663 50.324 0
198.421 48.0989 0
197.239 43.2458 0
167.547 48.8941 0
167.957 53.8708 0
208.09 7.21729 0
205.228 3.12053 0
151.688 38.5689 0
149.256 34.2013 0
200.838 54.1284 0
203.809 50.0982 0
358.425 17.2268 0
358.652 12.2316 0
375.196 -4.51108 0
380.173 -4.09488 0
431.911 29.1332 0
436.626 30.8021 0
421.074 7.04209 0
425.95 8.13901 0
21.2845 56.392 0
16.9918 53.7823 0
41.2694 15.2699 0
42.7075 20.0612 0
52.9827 19.2346 0
50.1894 23.3816 0
53.3804 14.6403 0
48.4036 14.8097 0
259.745 -7.57723 0
262.585 -3.46349 0
317.107 8.03644 0
314.554 12.3369 0
362.531 32.413 0
358.659 29.2477 0
234.146 1.17119 0
230.51 4.59355 0
150.323 29.3118 0
155.325 29.2248 0
398.925 -15.128 0
403.848 -15.9577 0
370.727 29.1354 0
371.225 24.1604 0
316.867 -3.94601 0
312.206 -5.72616 0
40.6375 36.6745 0
36.8675 33.3879 0
224.92 24.9493 0
227.45 29.26 0
183.942 43.9245 0
188.137 41.1828 0
23.0135 42.6615 0
28.0321 42.6804 0
433.428 31.8598 0
435.53 27.3222 0
384.878 -11.8986 0
381.758 -7.99404 0
324.333 32.011 0
327.66 28.273 0
361.425 7.98104 0
364.551 4.07763 0
405.566 36.1696 0
410.489 37.0679 0
256.049 50.1973 0
256.965 45.2854 0
60.9906 15.0984 0
56.4411 13.0651 0
82.846 -0.493018 0
82.6352 4.51317 0
228.775 38.613 0
233.784 38.4308 0
492.277 13.966 0
491.623 9.00921 0
458.013 -15.2531 0
462.149 -18.0605 0
54.8995 56.1056 0
58.6004 52.7205 0
111.786 10.1118 0
115.26 13.6974 0
220.929 31.8588 0
223.522 36.1327 0
185.959 52.6189 0
181.667 50.025 0
185.364 50.7 0
182.984 55.0998 0
163.688 40.2548 0
159.814 43.4308 0
38.4216 51.0233 0
35.5737 46.9102 0
53.3684 0.708238 0
53.3899 5.7189 0
166.386 35.758 0
161.522 34.5702 0
493.176 -1.2651 0
491.456 -5.95929 0
493.235 8.76968 0
497.283 11.7003 0
470.582 28.4995 0
475.368 27.0476 0
319.632 32.1974 0
323.211 35.6919 0
45.3301 12.9019 0
41.1628 10.1683 0
201.673 52.483 0
206.421 54.1146 0
96.68 38.6633 0
92.5676 35.8159 0
286.178 -1.19872 0
282.394 2.05935 0
114.596 45.4383 0
110.307 42.8482 0
210.596 47.1793 0
214.168 50.688 0
371.783 37.04 0
375.819 34.0789 0
178.417 48.8898 0
183.088 50.724 0
59.5927 57.0105 0
54.7533 58.4006 0
346.14 -1.86261 0
346.204 3.13917 0
18.4719 24.6814 0
15.6739 28.8262 0
120.876 3.78499 0
116.378 5.92003 0
97.4955 7.18007 0
93.2027 4.65635 0
431.395 35.0468 0
433.162 30.3691 0
349.703 12.6634 0
345.833 9.50249 0
191.771 5.32121 0
192.52 10.2704 0
344.56 13.4995 0
347.999 9.86894 0
316.761 33.0338 0
319.418 28.7952 0
487.898 -3.32481 0
483.446 -1.04675 0
129.876 46.2767 0
125.496 43.8404 0
454.965 17.3747 0
457.972 21.368 0
161.761 47.5945 0
164.376 51.8567 0
127.614 39.9627 0
122.676 40.8356 0
43.6402 40.7127 0
47.128 44.3016 0
344.337 31.1929 0
339.471 32.3751 0
356.324 24.2649 0
359.027 20.0561 0
100.598 11.8224 0
105.31 13.4399 0
454.993 -16.9229 0
454.766 -21.9188 0
125.724 12.6468 0
121.452 15.2271 0
175.92 22.5244 0
176.52 27.4877 0
15.5408 39.8186 0
14.1772 35.0106 0
43.3528 5.44189 0
43.5809 0.436117 0
149.814 4.59549 0
145.941 7.73936 0
277.722 9.7366 0
281.809 6.86241 0
369.405 10.9991 0
372.025 15.255 0
22.5475 6.288 0
21.3742 1.41881 0
276.484 34.8023 0
274.479 39.3838 0
181.486 8.99296 0
185.986 6.84443 0
46.7 0.953186 0
42.8481 4.1118 0
35.6275 24.8015 0
30.7435 25.8466 0
455.577 19.6297 0
454.626 24.5388 0
302.788 0.20701 0
302.354 5.19027 0
289.362 46.6223 0
290.647 41.7922 0
290.125 30.7753 0
294.253 33.6 0
317.8 -2.9291 0
316.545 -7.7723 0
362.329 40.407 0
367.246 39.4436 0
326.631 -11.608 0
330.791 -8.84774 0
239.891 40.8609 0
237.124 45.0299 0
237.568 3.25337 0
241.925 5.68492 0
20.0717 37.3441 0
16.1171 34.2797 0
174.61 23.306 0
179.607 23.2123 0
344.726 36.3268 0
339.892 35.0209 0
165.36 15.1228 0
161.908 18.738 0
84.9032 8.32775 0
84.1458 3.3767 0
386.666 27.1935 0
381.783 28.2875 0
156.627 0.976917 0
155.466 5.84552 0
383.71 1.16246 0
381.316 5.55315 0
261.685 36.7375 0
257.721 33.6858 0
412.59 -10.2519 0
414.429 -14.902 0
334.719 26.9181 0
339.646 27.791 0
395.383 -12.5334 0
390.391 -12.5401 0
142.893 17.1409 0
146.572 13.7609 0
480.938 21.5205 0
477.824 17.6107 0
483.859 -5.97256 0
484.1 -0.978193 0
107.136 39.5583 0
112.145 39.7751 0
307.612 6.50594 0
312.504 5.50764 0
44.1641 7.33033 0
42.4924 12.0473 0
433.156 25.2888 0
433.576 20.3067 0
328.439 27.4989 0
326.908 32.259 0
345.245 24.204 0
347.832 19.9224 0
108.014 55.0449 0
111.628 51.5697 0
94.2442 52.5045 0
90.7059 48.9612 0
200.741 43.3346 0
204.309 39.8177 0
8.75854 45.7407 0
12.7053 42.6501 0
245.265 14.2758 0
248.643 10.5908 0
471.837 4.11831 0
467.279 2.06927 0
243.856 39.3424 0
241.93 34.7304 0
115.523 49.7157 0
110.697 51.1132 0
357.566 28.8377 0
360.995 32.4767 0
458.353 -7.93821 0
453.41 -7.19697 0
283.418 -6.00425 0
287.43 -3.03341 0
259.191 3.06154 0
262.18 -0.943304 0
46.5217 50.2117 0
51.2368 51.9467 0
106.549 8.76098 0
101.595 8.29718 0
374.321 -2.16076 0
370.89 -5.79513 0
160.671 9.7157 0
165.129 11.9527 0
390.038 0.968423 0
393.672 -2.46638 0
126.871 0.540303 0
122.607 -2.03227 0
497.234 6.79568 0
496.46 1.8561 0
324.031 23.8506 0
320.713 20.1112 0
55.2847 52.621 0
60.0524 51.0271 0
368.372 42.9432 0
368.206 37.9484 0
415.106 22.7254 0
417.81 18.517 0
265.948 26.5408 0
264.959 31.4421 0
218.12 47.6025 0
219.703 52.3414 0
385.099 22.5518 0
388.684 26.0352 0
66.7471 50.6549 0
65.7051 45.7701 0
427.39 32.1886 0
426.462 27.2766 0
290.067 -8.97722 0
292.361 -4.53351 0
49.0189 29.5083 0
44.3814 31.3831 0
383.75 7.39254 0
379.753 4.39207 0
341.27 25.4328 0
343.406 29.9519 0
144.353 3.61888 0
140.717 0.201073 0
356.4 19.8525 0
359.162 15.6823 0
189.48 50.6759 0
194.478 51.1943 0
253.842 16.1633 0
258.696 17.3435 0
19.9959 41.2669 0
15.1422 40.01 0
287.533 2.12344 0
282.547 2.28471 0
251.446 28.4482 0
255.906 30.7148 0
304.246 -11.5305 0
305.138 -6.60654 0
272.057 34.4768 0
276.929 33.3174 0
474.518 31.1981 0
479.516 31.3652 0
295.382 35.3949 0
296.589 30.5435 0
238.573 31.154 0
234.939 34.5966 0
361.328 15.8944 0
361.088 20.8888 0
480.546 -2.2775 0
477.603 -6.31753 0
211.496 20.826 0
212.757 25.6641 0
87.3163 4.01245 0
91.9987 2.3422 0
262.19 45.0379 0
258.732 41.4212 0
410.733 25.9084 0
415.694 25.2508 0
447.481 -21.5905 0
452.476 -21.6746 0
116.935 -1.83023 0
112.012 -1.18316 0
326.081 -2.46802 0
326.025 2.5346 0
335.2 28.9989 0
339.69 31.2067 0
30.0374 21.723 0
35.0228 21.8946 0
318.167 -10.6097 0
313.31 -9.48515 0
7.06389 57.9657 0
6.5869 52.997 0
290.662 48.6797 0
285.67 48.1539 0
428.5 -19.67 0
424.309 -16.9497 0
120.042 34.2949 0
123.014 38.3153 0
363.234 11.3469 0
359.633 14.8177 0
217.027 13.3442 0
214.847 17.8454 0
213.135 2.38096 0
210.01 6.2785 0
73.7017 45.9239 0
74.12 50.9003 0
115.714 30.2281 0
111.293 27.8927 0
355.294 -12.7687 0
357.089 -8.09996 0
177.446 24.841 0
179.153 20.1393 0
321.208 34.3369 0
318.025 38.1985 0
339.967 2.19516 0
344.946 2.57254 0
47.1462 19.9348 0
45.085 24.4921 0
315.859 19.6521 0
320.637 21.1269 0
358.602 -7.33315 0
354.675 -4.24548 0
56.1343 12.3859 0
58.9972 16.4809 0
27.9613 46.7841 0
24.3001 50.2075 0
370.782 31.8597 0
370.727 26.8609 0
262.15 -7.9612 0
266.64 -5.79508 0
55.0889 36.2161 0
55.0334 41.2127 0
447.312 27.8048 0
449.283 23.2089 0
182.311 -3.6491 0
187.187 -4.61234 0
58.5393 32.5252 0
63.3184 34.0055 0
452.895 -14.3821 0
454.197 -9.55427 0
429.907 -9.72816 0
424.925 -10.0928 0
85.9469 1.0085 0
90.81 0.0110904 0
363.679 41.1356 0
364.322 36.1789 0
123.259 15.5054 0
123.429 20.5057 0
39.3492 45.8253 0
38.873 40.8531 0
174.182 30.1925 0
172.016 25.6881 0
344.374 22.2477 0
347.897 25.7945 0
53.179 15.6861 0
55.7106 11.3747 0
217.649 15.8687 0
222.527 14.7967 0
275.122 9.97184 0
278.086 13.9955 0
65.4539 54.0215 0
61.5449 57.1691 0
196.229 43.7284 0
191.402 45.1 0
350.769 18.7953 0
355.619 17.572 0
63.8285 57.4579 0
63.5836 52.4725 0
238.858 21.9022 0
241.824 25.9252 0
225.987 39.7353 0
222.981 35.7395 0
208.553 53.671 0
211.305 49.4908 0
10.6276 36.9702 0
11.7762 32.1044 0
440.006 -10.7586 0
442.156 -6.24512 0
357.538 16.0582 0
355.007 20.3723 0
111.128 16.4413 0
113.761 12.1902 0
257.971 2.1563 0
262.75 0.729952 0
380.182 -7.20524 0
381.828 -2.4825 0
336.065 35.9303 0
334.852 31.0818 0
230.9 -2.36968 0
228.712 2.12682 0
94.7583 56.5336 0
93.0891 51.826 0
151.166 1.20784 0
146.398 -0.210991 0
68.8293 11.2129 0
67.7283 6.3292 0
237.334 -1.73824 0
233.039 -4.27291 0
436.261 -13.2462 0
433.032 -9.42938 0
333.253 -6.44755 0
333.662 -1.46123 0
69.9328 51.8036 0
67.3326 47.5314 0
172.705 30.2739 0
172.623 35.2723 0
369.079 31.659 0
365.046 28.7011 0
249.344 37.3007 0
254.333 36.836 0
258.844 -2.82988 0
261.141 1.61203 0
339.601 39.4956 0
335.946 36.0793 0
345.912 12.4609 0
348.149 7.98735 0
425.821 -11.2209 0
423.307 -15.5423 0
139.841 14.2802 0
138.891 9.36704 0
210.108 16.5428 0
214.975 17.6624 0
143.791 16.6156 0
144.92 11.7411 0
157.708 33.6018 0
154.105 37.0768 0
67.5053 45.0821 0
72.5129 44.7293 0
452.885 -20.9345 0
455.426 -16.6282 0
206.025 38.1759 0
204.789 43.0205 0
138.844 19.1685 0
137.048 23.8367 0
413.905 18.2987 0
409.36 16.2154 0
485.508 33.0849 0
486.995 28.3107 0
125.631 49.2096 0
121.146 46.9643 0
190.253 47.2279 0
185.701 45.1259 0
279.103 37.7183 0
274.122 37.1741 0
236.93 18.2589 0
233.707 22.0827 0
273.626 5.11107 0
268.636 5.13754 0
123.533 49.9913 0
118.822 51.7365 0
9.4273 14.2405 0
6.91932 9.91958 0
462.482 26.9859 0
459.199 23.2163 0
275.708 13.7647 0
280.687 13.3382 0
52.5921 30.2033 0
47.9474 32.0623 0
409.72 21.5869 0
414.158 19.2741 0
12.1492 37.5293 0
7.49882 39.3959 0
275.149 35.5363 0
270.142 35.4193 0
384.918 16.2493 0
386.683 11.5681 0
401.532 -5.44635 0
397.238 -7.99761 0
11.1873 2.30674 0
16.1467 2.27348 0
388.523 28.3597 0
393.189 26.5507 0
279.323 12.996 0
275.261 15.9121 0
393.505 29.3205 0
389.701 26.0759 0
252.789 47.8376 0
250.971 43.1827 0
118.479 40.3597 0
116.583 44.9866 0
339.508 -12.298 0
344.22 -10.6555 0
147.688 7.70225 0
142.984 6.06226 0
311.259 41.5048 0
315.196 44.5969 0
181.397 2.5684 0
185.473 5.44501 0
209.837 43.9803 0
212.338 48.3099 0
379.821 27.6314 0
381.513 22.9251 0
363.968 -5.85177 0
360.263 -9.20404 0
334.767 36.9287 0
332.53 32.4588 0
20.8265 15.4146 0
15.8822 16.0055 0
155.279 5.96062 0
160.205 5.24346 0
332.537 41.2089 0
329.207 44.9459 0
444.881 -15.2407 0
444.556 -20.2314 0
28.29 47.3636 0
23.3156 48.0794 0
368.977 26.5664 0
369.322 21.5784 0
42.1422 52.7615 0
46.1708 49.7702 0
55.0983 12.583 0
56.0564 17.4948 0
228.256 46.6763 0
232.983 44.997 0
285.927 1.09753 0
281.013 1.95096 0
52.2909 43.8392 0
47.279 43.5728 0
185.731 24.0598 0
181.908 27.2887 0
205.426 39.7934 0
205.159 44.7837 0
215.075 8.18666 0
210.093 8.37221 0
313.723 -9.07535 0
315.533 -4.41187 0
431.692 23.9246 0
433.301 19.1899 0
415.549 -13.9519 0
411.079 -11.7218 0
150.33 5.40846 0
155.274 5.99754 0
316.288 6.6965 0
319.544 2.903 0
156.491 55.666 0
151.49 55.1341 0
380.848 -4.79729 0
377.53 -8.53514 0
332.447 31.2475 0
328.663 27.9784 0
248.713 32.1084 0
243.927 33.5813 0
432.141 7.18909 0
428.682 10.8021 0
392.834 26.0239 0
395.085 30.4857 0
302.044 0.767722 0
304.674 -3.48333 0
283.388 31.8606 0
288.344 31.1562 0
249.393 14.8976 0
248.696 19.8503 0
207.146 7.50695 0
203.149 10.4983 0
257.196 2.08546 0
262.182 2.14469 0
78.1302 31.73 0
80.1524 36.3005 0
198.539 10.9053 0
193.554 10.836 0
202.262 5.57744 0
197.745 7.69335 0
427.677 34.2224 0
424.532 30.3352 0
314.319 12.8042 0
317.101 16.9564 0
164.365 47.1541 0
167.644 50.9359 0
59.582 41.0745 0
55.0656 43.2528 0
466.957 7.56843 0
471.833 6.46342 0
348.262 -14.0415 0
349.927 -9.32432 0
268.433 40.5771 0
267.756 45.5282 0
214.406 18.62 0
209.538 19.7527 0
363.437 38.223 0
359.938 34.6489 0
280.474 19.039 0
284.788 21.5585 0
276.927 25.8351 0
281.894 25.2401 0
456.667 17.4809 0
459.455 13.3288 0
74.5742 18.0345 0
69.6476 18.8129 0
89.0593 48.5738 0
86.6226 52.9425 0
261.644 50.8998 0
259.539 46.3667 0
69.7176 43.7265 0
67.2551 39.3756 0
463.774 22.3905 0
465.582 17.7275 0
326.931 22.9621 0
323.119 26.2036 0
333.46 32.7979 0
332.154 37.6238 0
395.206 24.2186 0
400.199 23.8923 0
276.886 40.9443 0
273.594 44.7147 0
17.6688 19.5162 0
22.5978 18.7719 0
429.464 1.03325 0
433.372 4.14816 0
290.441 8.42853 0
286.313 11.2463 0
405.468 3.10421 0
404.927 -1.86591 0
381.326 0.243744 0
384.986 3.64845 0
415.913 17.2496 0
420.77 18.4391 0
214.27 34.6278 0
209.444 33.2961 0
448.18 32.4932 0
450.897 28.2947 0
481.022 20.2203 0
481.331 15.2294 0
141.92 52.5199 0
137.636 49.911 0
148.033 9.0903 0
152.309 6.52463 0
424.347 26.2392 0
428.465 29.077 0
360.037 -5.77905 0
356.607 -9.41335 0
16.6649 51.2375 0
12.8835 47.9477 0
119.846 17.7162 0
124.796 18.3368 0
369.287 19.1254 0
365.401 22.2766 0
115.491 44.055 0
110.794 42.3017 0
171.064 23.1179 0
175.716 24.9401 0
300.836 35.2141 0
298.124 39.4206 0
215.201 36.579 0
218.641 40.2105 0
267.8 0.709111 0
269.046 -4.13597 0
172.036 55.3359 0
176.35 52.7678 0
186.749 48.1594 0
186.987 53.1472 0
381.709 34.9952 0
378.088 38.4492 0
249.017 17.4584 0
244.136 18.5289 0
123.294 41.3672 0
119.249 38.4199 0
30.7134 45.6979 0
25.8077 46.7767 0
435.888 -12.0915 0
436.249 -7.1034 0
179.403 36.6338 0
183.502 33.7601 0
430.369 37.8795 0
434.345 34.8429 0
382.373 -2.34741 0
387.35 -2.76967 0
157.464 34.8108 0
157.156 29.8218 0
351.321 -2.84421 0
349.052 -7.29996 0
287.929 -9.35298 0
292.745 -10.6231 0
25.1007 5.64287 0
30.0027 4.84973 0
105.693 14.854 0
104.46 10.0051 0
287.133 39.5638 0
286.791 44.5485 0
261.55 1.48745 0
266.485 2.20684 0
129.68 39.0762 0
133.176 42.6559 0
446.588 31.5951 0
443.118 35.1974 0
331.916 -10.0441 0
328.391 -6.50465 0
159.432 31.9554 0
160.275 36.8816 0
425.625 22.2672 0
424.97 17.3111 0
21.9025 16.8921 0
21.5485 11.8982 0
485.092 14.7066 0
487.952 10.6037 0
248.258 29.8382 0
243.307 30.5789 0
186.965 19.2917 0
183.022 22.3695 0
267.807 49.6275 0
263.364 47.3058 0
410.275 -13.5965 0
410.165 -8.59618 0
433.066 11.8367 0
430.636 7.46908 0
144.471 40.968 0
149.441 40.2996 0
459.293 -11.2535 0
461.707 -15.6328 0
204.825 10.4431 0
200.813 7.47496 0
154.107 51.2822 0
150.85 55.0875 0
450.89 -1.18141 0
455.77 -0.102172 0
11.6218 0.0213334 0
6.77726 1.08362 0
333.86 -6.85066 0
333.248 -11.8169 0
205.026 43.5425 0
201.969 47.5086 0
169.647 17.2756 0
173.234 13.7959 0
13.556 5.62279 0
11.4571 1.08197 0
223.202 46.9313 0
225.937 42.7409 0
124.831 22.5923 0
119.853 23.001 0
70.3786 7.61569 0
66.1017 10.1708 0
33.0097 25.1405 0
36.6791 21.7473 0
412.682 27.9372 0
416.757 30.8377 0
144.596 3.7308 0
147.712 7.6346 0
265.086 40.6466 0
269.86 39.1186 0
259.772 28.3362 0
262.569 24.1883 0
374.973 6.90374 0
375.958 2.00061 0
284.296 22.6899 0
281.613 26.9125 0
12.054 30.3866 0
16.978 29.5154 0
109.79 -0.979964 0
114.168 1.38912 0
403.527 -4.41934 0
402.799 -9.36666 0
293.538 -6.26023 0
297.23 -2.89836 0
196.728 46.8617 0
192.628 43.9865 0
111.29 -1.54839 0
112.91 3.18792 0
46.5558 6.63655 0
51.1468 8.55395 0
49.7453 30.8081 0
44.7776 30.2347 0
156.444 29.4571 0
160.706 32.0717 0
346.623 21.7198 0
345.22 26.5196 0
259.764 40.9701 0
255.35 43.3442 0
464.972 36.8915 0
469.883 35.9429 0
465.596 5.28044 0
464.921 0.326291 0
67.1931 55.9448 0
65.0113 51.4474 0
363.21 25.2081 0
366.807 28.6818 0
249.651 51.5834 0
251.553 46.9594 0
125.436 30.6214 0
129.694 27.9948 0
93.4453 -0.539696 0
89.3111 2.23289 0
29.3805 39.8262 0
24.4332 40.6478 0
223.587 47.9928 0
221.418 52.4989 0
390.491 -14.2294 0
385.579 -13.3435 0
164.349 54.9285 0
159.493 56.2337 0
88.8899 4.07034 0
84.5211 6.45687 0
111.945 11.1522 0
114.557 6.8903 0
137.478 10.7727 0
132.522 10.2688 0
494.807 -8.33941 0
491.581 -12.1584 0
48.7279 25.9556 0
44.4839 28.5978 0
472.458 6.01993 0
473.133 10.9741 0
183.404 45.654 0
179.813 49.1472 0
228.548 34.1155 0
225.594 30.0827 0
430.923 31.7322 0
426.107 30.3777 0
362.226 -11.1012 0
357.434 -9.70623 0
232.676 9.77802 0
231.583 14.6597 0
42.6419 0.180453 0
40.2319 4.56062 0
145.358 17.074 0
140.377 16.8019 0
119.656 43.3166 0
124.641 43.8821 0
454.128 31.1792 0
454.284 26.1819 0
6.56247 11.4786 0
1.65671 10.66 0
61.6602 27.5156 0
66.2809 25.6093 0
250.918 28.1393 0
251.63 33.0866 0
32.33 6.20414 0
35.5483 10.0204 0
160.701 -3.08667 0
164.702 -0.111192 0
432.931 -11.2476 0
437.873 -10.5114 0
359.88 21.2248 0
360.71 16.2937 0
115.613 7.11844 0
111.348 9.69897 0
472.656 15.8272 0
476.739 18.7112 0
484.916 20.6706 0
483.591 25.4927 0
70.4284 15.2998 0
71.3017 10.3714 0
235.417 11.1046 0
230.507 12.0024 0
188.702 47.2978 0
183.681 47.3272 0
383.811 29.177 0
378.845 29.7981 0
76.5059 23.8568 0
79.3602 27.9575 0
411.157 16.3289 0
408.981 20.8343 0
0.129507 31.0789 0
4.48756 28.6306 0
43.9725 45.6051 0
48.0683 48.4947 0
131.71 33.1446 0
130.52 38.0003 0
116.158 33.9442 0
111.71 36.2445 0
367.667 40.9488 0
364.01 37.5352 0
362.7 -0.982784 0
357.789 -1.88159 0
40.5686 14.4233 0
42.2965 9.72714 0
217.69 26.1737 0
222.632 26.944 0
167.108 44.4772 0
172.036 45.418 0
496.217 31.1233 0
491.257 31.7562 0
310.925 8.46922 0
307.232 5.10619 0
18.2067 50.8291 0
13.5907 52.8194 0
355.962 11.2328 0
359.397 7.5982 0
239.295 0.93416 0
243.368 -1.94719 0
423.565 23.9916 0
419.774 20.7321 0
443.752 -0.276062 0
443.252 4.69985 0
81.0079 12.4608 0
76.0508 11.9936 0
162.489 28.0746 0
167.014 25.9416 0
71.8393 20.9471 0
71.9133 25.9481 0
4.46939 21.6516 0
6.62421 17.1406 0
324.515 4.45637 0
319.525 4.28704 0
213.633 12.8352 0
210.92 8.63741 0
19.72 47.9147 0
14.9309 49.4373 0
66.3722 2.82864 0
71.1589 4.16285 0
416.277 -2.9371 0
416.793 2.03717 0
412.746 32.9245 0
414.045 28.0958 0
368.678 -10.2305 0
367.191 -5.45546 0
32.4331 20.7107 0
37.3251 19.7396 0
291.81 32.6844 0
293.456 27.9645 0
24.119 21.7764 0
28.5519 24.0701 0
379.543 22.9807 0
376.22 19.2466 0
95.955 53.5957 0
97.6901 48.9073 0
407.616 18.3371 0
404.546 22.2904 0
96.003 4.88284 0
91.3463 3.1372 0
462.214 20.0854 0
463.216 15.1861 0
340.061 40.7351 0
335.396 42.5651 0
83.9345 51.1232 0
88.3177 53.5699 0
121.712 38.7559 0
116.726 38.2574 0
252.756 20.7889 0
255.208 25.1448 0
321.565 30.5879 0
318.005 27.0759 0
389.692 -6.75951 0
392.287 -2.48629 0
352.72 1.57645 0
356.442 4.91042 0
487.896 18.0581 0
491.127 14.2408 0
211.855 9.98592 0
209.994 14.6291 0
332.858 39.7867 0
337.869 39.7444 0
497.495 5.17193 0
498.25 0.228504 0
462.212 -12.0132 0
464.878 -16.2442 0
480.139 21.6529 0
477.596 17.3492 0
410.192 9.63167 0
414.719 11.7516 0
344.903 26.5227 0
347.882 30.5368 0
332.236 21.574 0
333.134 26.4915 0
207.456 38.6327 0
210.377 42.6923 0
439.597 -6.4343 0
440.766 -11.297 0
145.102 17.9518 0
148.646 21.4722 0
256.177 4.68009 0
260.872 2.99434 0
163.398 3.65165 0
168.222 2.42759 0
319.264 47.0621 0
315.456 43.8132 0
135.996 41.1153 0
134.611 36.3141 0
476.464 -21.7144 0
480.501 -18.7662 0
453.091 -15.0161 0
457.954 -13.8667 0
63.6214 27.0342 0
62.2177 31.8343 0
2.77125 53.0705 0
3.17425 58.048 0
261.748 43.3983 0
259.878 48.0355 0
50.4144 47.3695 0
47.1932 51.2047 0
184.035 38.6338 0
185.805 33.9584 0
497.516 31.927 0
492.875 30.0682 0
486.939 -14.0787 0
490.403 -10.4751 0
316.688 7.51837 0
318.822 2.99509 0
271.253 -2.57112 0
272.797 -7.32917 0
373.973 23.0667 0
378.651 21.2941 0
132.261 25.533 0
136.325 22.6215 0
151.142 10.2297 0
146.632 8.10551 0
126.118 51.7966 0
122.234 48.6308 0
424.066 25.6388 0
420.577 22.0579 0
334.775 26.0445 0
336.669 21.4156 0
54.1788 26.2069 0
53.208 31.1127 0
470.477 1.99465 0
468.997 6.77188 0
149.043 3.84253 0
145.852 7.6842 0
231.804 37.9858 0
227.097 36.2762 0
145.204 50.6678 0
149.272 53.5984 0
235.223 12.3986 0
230.232 12.371 0
114.543 40.0197 0
110.315 42.7118 0
142.117 45.891 0
137.79 43.3633 0
119.771 8.01752 0
123.381 11.465 0
6.13623 17.1006 0
5.55057 12.1322 0
314.032 38.0225 0
315.33 33.1944 0
456.679 -14.1832 0
453.872 -18.3203 0
63.1755 58.0707 0
58.1438 58.3359 0
318.02 29.2013 0
319.068 24.3121 0
451.787 0.0106537 0
449.716 4.56318 0
354.317 3.97001 0
358.886 1.9464 0
486.378 14.0012 0
490.897 16.1367 0
216.757 15.8123 0
213.193 12.3118 0
304.278 -5.68238 0
308.851 -7.67403 0
110.936 46.2095 0
106.472 43.9273 0
237.615 -0.0574209 0
235.671 -4.66691 0
250.028 14.9698 0
255.022 14.878 0
237.559 9.33665 0
237.231 14.3286 0
23.824 8.85224 0
24.966 13.7262 0
3.88892 22.3274 0
4.67427 17.3884 0
330.436 -4.62114 0
328.043 -9.01171 0
339.255 22.1462 0
342.773 25.6987 0
448.158 21.6862 0
443.716 19.3925 0
77.4333 20.7598 0
75.3842 25.3225 0
426.181 -16.3873 0
421.384 -14.9954 0
281.008 29.0617 0
282.743 33.7495 0
252.429 27.4269 0
256.797 24.9856 0
122.946 56.7416 0
126.84 53.5782 0
10.5753 45.61 0
14.3194 42.2793 0
138.346 26.6255 0
133.702 24.78 0
479.432 22.0768 0
480.586 17.2111 0
221.067 14.6213 0
222.84 19.2961 0
251.536 36.9217 0
250.637 41.8384 0
199.655 44.0293 0
203.746 46.9175 0
453.971 -17.927 0
451.395 -13.641 0
380.734 0.966528 0
380.522 5.96299 0
160.716 49.4249 0
160.408 44.4397 0
308.122 -9.65649 0
310.022 -5.02955 0
103.522 13.8584 0
98.6638 14.9665 0
228.845 6.04227 0
224.379 8.26988 0
475.381 -17.8797 0
470.789 -19.8525 0
88.2466 28.7859 0
85.1249 24.8858 0
339.608 37.4929 0
344.522 36.5197 0
408.783 -11.819 0
413.696 -10.9182 0
189.769 -1.10645 0
194.739 -0.898887 0
475.537 20.4563 0
475.307 25.4513 0
197.866 49.6091 0
201.291 45.9528 0
496.297 -10.5072 0
495.455 -15.4364 0
54.4932 12.9525 0
52.8975 8.20979 0
142.476 49.4403 0
145.962 53.0348 0
445.089 32.5099 0
449.718 34.4047 0
459.938 17.4142 0
460.606 12.4584 0
58.556 21.1349 0
62.4562 18.0146 0
483.825 -11.3392 0
480.749 -15.2797 0
89.0143 12.2362 0
86.016 8.23951 0
494.711 -17.0229 0
490.67 -19.9662 0
318.406 29.3921 0
320.193 34.06 0
488.664 33.814 0
489.051 28.8289 0
209.875 26.7514 0
212.103 22.2751 0
407.299 37.269 0
411.252 40.3343 0
299.171 1.81149 0
294.231 1.11652 0
382.068 0.720228 0
384.474 -3.66353 0
392.988 -13.9822 0
388.591 -11.6136 0
434.464 20.8347 0
430.984 17.2468 0
449.71 36.9409 0
453.404 33.5682 0
434.497 20.0823 0
437.636 16.1882 0
447.186 22.5101 0
444.569 26.7724 0
182.753 28.8167 0
184.772 33.3893 0
152.513 54.7634 0
155.662 50.8685 0
28.1946 52.904 0
26.0572 48.3858 0
413.887 -15.9203 0
418.645 -17.4379 0
315.237 32.0121 0
310.264 31.4189 0
60.8233 7.28671 0
60.5833 12.2886 0
340.521 38.9518 0
344.881 36.4878 0
19.6033 14.061 0
22.2501 9.82041 0
126.475 44.6851 0
129.159 48.9047 0
143.547 25.6622 0
146.064 21.3409 0
466.573 32.7668 0
471.527 32.0776 0
433.751 36.9466 0
436.539 32.795 0
423.413 19.0689 0
428.385 19.6082 0
149.133 28.4361 0
145.336 25.1864 0
140.637 38.1692 0
138.519 33.642 0
261.884 -8.63119 0
264.429 -4.32699 0
63.321 18.0724 0
65.4762 22.5833 0
435.421 16.2733 0
440.036 18.1951 0
331.158 26.8073 0
326.287 25.6662 0
363.726 16.1261 0
366.193 20.4733 0
482.26 0.39812 0
477.263 0.555613 0
231.328 47.4437 0
230.166 42.5849 0
490.824 -11.9424 0
486.837 -14.9579 0
35.933 8.22616 0
34.4691 3.43873 0
434.107 27.6423 0
430.255 24.4546 0
191.854 32.9823 0
189.034 28.8594 0
171.211 5.34782 0
167.472 8.65316 0
133.113 36.7256 0
136.108 40.7297 0
400.181 27.2071 0
395.861 24.6917 0
483.043 18.8927 0
486.62 22.3849 0
162.188 17.789 0
163.523 22.6076 0
378.378 19.336 0
376.541 14.6872 0
277.021 15.5398 0
278.579 10.7874 0
142.469 18.5605 0
144.375 23.1827 0
366.444 3.2236 0
363.13 6.96803 0
174.969 16.8399 0
179.277 19.3664 0
144.703 30.2171 0
139.777 31.1006 0
161.898 24.5028 0
157.212 26.2477 0
282.393 14.0776 0
282.874 19.0542 0
100.869 51.5974 0
95.8892 50.9166 0
137.776 50.0024 0
142.788 50.3644 0
20.2402 49.8583 0
18.3109 45.2484 0
340.35 41.7135 0
335.341 41.8875 0
414.079 -3.02329 0
418.976 -4.01452 0
17.6666 18.9854 0
12.6877 19.2111 0
155.022 -2.92677 0
153.735 1.91049 0
86.3649 28.9749 0
87.4356 33.8568 0
51.0078 33.5341 0
46.6829 36.056 0
52.1053 32.5391 0
47.3745 30.9168 0
251.181 15.5819 0
253.87 11.3657 0
435.425 -1.89724 0
431.932 1.68174 0
320.762 23.4562 0
315.761 23.5612 0
253.295 4.72695 0
251.067 0.250027 0
16.162 40.1647 0
17.3218 45.0242 0
130.963 13.7592 0
134.627 17.1531 0
224.204 40.1046 0
223.756 45.081 0
112.223 -0.896594 0
115.719 2.66415 0
176.13 47.4008 0
180.275 50.22 0
287.01 31.4885 0
287.058 36.4853 0
412.122 32.1978 0
407.941 34.9483 0
273.718 -2.05307 0
278.7 -1.88795 0
379.854 -0.940826 0
382.327 -5.28691 0
401.858 -9.65628 0
401.773 -14.6574 0
116.15 54.6296 0
120.114 57.7037 0
317.78 -4.56967 0
319.323 -9.32763 0
171.497 49.6623 0
172.657 44.8019 0
309.567 -1.07502 0
307.321 3.39245 0
380.996 -11.6236 0
385.833 -12.8538 0
379.568 37.6945 0
379.222 32.7084 0
289.044 4.80205 0
290.665 9.53539 0
189.233 3.11119 0
190.626 -1.69594 0
282.186 38.0094 0
286.108 34.8975 0
376.818 17.9888 0
379.829 13.9931 0
30.8852 6.28405 0
27.0377 9.45401 0
265.729 33.0329 0
269.634 36.16 0
238.783 -5.72627 0
243.423 -3.91091 0
253.619 37.1656 0
253.529 42.1617 0
234.778 17.4424 0
234.58 12.4444 0
274.239 15.3688 0
269.304 14.5934 0
191.439 13.292 0
191.788 8.29786 0
235.712 26.9185 0
240.365 28.7538 0
157.183 52.2234 0
156.138 47.3395 0
49.5954 6.65214 0
46.9737 2.39702 0
53.0425 25.9857 0
56.2106 29.8507 0
395.038 -9.07607 0
399.003 -6.03911 0
134.913 32.9716 0
136.839 37.5839 0
303.466 -7.33727 0
308.285 -6.05277 0
79.1409 38.6855 0
83.0801 35.5964 0
326.564 -1.08773 0
331.435 0.00476474 0
65.4154 6.25413 0
64.0428 11.0675 0
105.355 39.738 0
107.924 44.0271 0
319.448 1.95678 0
316.163 5.72442 0
332.603 18.022 0
330.431 13.5194 0
469.078 7.08426 0
473.948 8.21273 0
347.31 12.0015 0
342.394 12.9058 0
115.328 46.4712 0
110.6 44.7943 0
210.373 5.45374 0
209.226 0.582437 0
115.811 23.1456 0
118.372 27.4383 0
175.401 44.7733 0
171.816 48.2727 0
201.984 45.1991 0
197.23 46.808 0
353.027 30.6476 0
349.159 27.478 0
77.3423 8.62555 0
73.5115 11.8203 0
13.5969 4.01598 0
9.03889 2.03969 0
446.623 3.75645 0
445.472 8.62338 0
367.282 -0.917321 0
363.282 2.07935 0
297.484 3.61582 0
302.452 3.14655 0
269.444 -2.25165 0
269.991 -7.22643 0
388.704 -13.0666 0
390.908 -17.5546 0
412.02 4.64 0
409.525 8.97411 0
329.83 -0.0964847 0
329.524 -5.0902 0
381.583 -14.3866 0
382.736 -9.51858 0
72.7186 33.6758 0
68.9249 36.9417 0
418.284 -13.6283 0
423.278 -13.5388 0
306.562 33.9346 0
302.109 36.2294 0
225.748 26.5212 0
220.746 26.4635 0
366.94 6.53794 0
364.211 10.7295 0
446.435 31.8005 0
447.298 36.7246 0
152.828 53.9921 0
147.801 54.1209 0
177.941 16.9439 0
182.211 19.5362 0
116.594 41.9817 0
113.754 46.1027 0
258.875 25.1572 0
261.208 29.578 0
346.101 32.2448 0
342.526 28.7483 0
257.898 31.4689 0
258.93 26.5764 0
15.9002 9.81819 0
16.0255 4.80989 0
138.455 24.2102 0
133.513 24.9534 0
187.633 36.1239 0
183.196 33.8112 0
327.296 13.6946 0
329.378 18.2392 0
329.401 10.2961 0
330.387 15.198 0
50.2468 48.5707 0
51.4385 43.7183 0
134.796 12.0726 0
135.914 7.19436 0
167.127 14.5472 0
171.685 12.5136 0
234.248 3.22911 0
229.27 3.00162 0
397.632 -10.4416 0
402.608 -10.0221 0
181.841 44.4323 0
186.288 46.7465 0
299.827 32.8048 0
300.744 37.7174 0
242.959 17.4675 0
239.636 13.7353 0
475.251 -22.9403 0
475.591 -17.9515 0
70.0322 13.117 0
74.2834 10.5127 0
417.141 -2.7714 0
414.899 -7.24004 0
251.868 25.2321 0
253.216 20.4162 0
54.1733 55.9293 0
50.9642 52.0853 0
214.673 4.3063 0
213.471 9.16358 0
339.352 39.1341 0
337.63 34.4423 0
494.863 -21.3821 0
490.198 -23.1799 0
462.596 16.6245 0
462.999 11.6402 0
488.91 21.5337 0
488.981 26.5333 0
142.423 32.5379 0
145.37 28.4955 0
281.711 22.6974 0
278.014 19.337 0
200.623 40.3017 0
203.66 44.2754 0
177.986 23.1618 0
178.726 18.2155 0
232.373 35.0169 0
231.861 39.9883 0
27.809 1.06803 0
25.1762 5.31556 0
248.119 12.7613 0
246.437 17.4719 0
379.412 37.9189 0
384.118 36.2069 0
363.857 13.9442 0
360.91 17.9859 0
491.948 -15.9104 0
496.814 -17.0594 0
494.129 28.7437 0
499.086 29.3963 0
479.509 -4.51152 0
484.418 -5.45977 0
339.603 5.795 0
335.776 9.01119 0
486.844 26.2454 0
481.941 25.2692 0
489.836 -9.46094 0
486.732 -13.379 0
243.422 4.54483 0
238.483 5.23138 0
212.862 43.5288 0
208.688 40.7618 0
469.238 -19.8374 0
464.245 -20.0586 0
58.4694 17.2365 0
53.5653 16.3526 0
74.4009 14.664 0
77.8969 18.2306 0
139.483 37.7198 0
134.488 37.3271 0
382.874 30.4382 0
387.779 29.4419 0
174.062 35.3128 0
178.862 36.7336 0
0.692827 49.9877 0
4.80319 47.1094 0
57.868 7.62815 0
58.6056 2.67403 0
229.173 28.1709 0
225.497 24.7831 0
388.252 13.2732 0
389.62 18.0798 0
264.782 15.8555 0
259.836 16.564 0
161.698 0.375504 0
157.317 2.74523 0
71.9757 24.1806 0
76.9628 24.4531 0
194.794 41.8332 0
196.575 37.1607 0
238.946 6.15193 0
243.204 8.75804 0
11.2894 31.7472 0
6.84717 29.4521 0
220.665 26.7747 0
223.064 31.1603 0
149.354 4.73568 0
153.583 2.09873 0
157.258 41.5079 0
161.614 39.0295 0
151.026 30.6216 0
146.031 30.9318 0
387.947 -2.945 0
385.492 1.4123 0
260.334 14.86 0
256.226 12.017 0
105.099 14.0213 0
109.473 11.6262 0
146.466 46.4999 0
144.748 41.8079 0
363.519 5.2246 0
359.319 2.51892 0
348.748 -6.28538 0
344.174 -8.28388 0
342.895 14.3251 0
342.874 19.3252 0
137.42 16.4179 0
140.385 20.44 0
457.987 32.4973 0
452.996 32.8286 0
233.426 23.8402 0
234.762 19.0209 0
438.742 -15.5132 0
440.039 -20.3429 0
428.385 -14.1163 0
423.621 -12.6105 0
188.108 48.7268 0
184.248 45.5357 0
61.97 39.5207 0
60.329 34.8001 0
54.8237 38.7515 0
55.4727 43.7051 0
34.1332 51.1121 0
30.4258 54.4893 0
238.041 35.0888 0
240.365 30.6596 0
411.679 33.8937 0
406.677 34.0737 0
463.232 -14.9849 0
465.328 -10.4456 0
239.938 47.4613 0
236.373 50.9812 0
394.357 30.1649 0
390.965 33.8438 0
132.805 20.4143 0
130.055 24.5914 0
32.5504 45.213 0
37.5499 44.7431 0
62.0611 50.3944 0
66.6343 48.3199 0
129 41.6618 0
132.463 45.2739 0
178.339 30.9395 0
183.213 32.0644 0
355.391 36.6604 0
350.552 37.955 0
220.494 12.4899 0
217.023 16.087 0
80.3065 55.7276 0
76.1799 52.8715 0
138.349 48.2339 0
135.771 52.5222 0
10.8472 46.8564 0
8.45586 42.4647 0
489.554 -0.204406 0
494.143 1.7752 0
349.083 -9.91524 0
345.499 -6.43568 0
274.898 22.7136 0
270.273 24.6204 0
155.518 4.18197 0
153.673 8.83129 0
124.621 -0.140016 0
129.197 1.8151 0
124.74 57.6705 0
128.772 54.6801 0
53.7304 55.0505 0
50.3861 51.3221 0
393.638 23.9 0
396.258 28.1555 0
454.876 -0.890109 0
454.061 4.04402 0
479.058 -19.2844 0
483.589 -17.1737 0
14.3887 24.8097 0
16.1206 29.4993 0
424.955 25.7869 0
421.257 29.1557 0
256.683 33.7105 0
258.76 29.1604 0
323.039 42.0311 0
322.562 37.0568 0
284.924 17.7155 0
284.836 22.7154 0
387.89 30.3966 0
384.019 33.5676 0
461.798 -14.3748 0
463.135 -9.5567 0
258.561 45.4009 0
256.079 49.7442 0
131.534 51.0121 0
134.365 55.1367 0
77.2656 4.17663 0
72.4063 3.1415 0
40.3282 39.8603 0
44.1096 43.1403 0
152.886 51.4896 0
151.393 56.2583 0
475.238 12.2378 0
470.252 12.5986 0
164.508 35.7757 0
161.316 39.6314 0
439.208 22.9901 0
443.864 21.1608 0
446.943 -7.01819 0
442.116 -8.30939 0
383.039 24.2408 0
387.913 23.1135 0
283.653 6.51489 0
278.711 7.21737 0
24.6189 47.6664 0
28.7489 50.5119 0
458.816 7.77447 0
461.892 3.8305 0
350.13 -2.78375 0
346.031 0.0724216 0
253.044 41.1994 0
258.039 41.6286 0
319.959 42.9145 0
324.085 45.7509 0
25.3731 54.1042 0
20.6025 55.705 0
488.029 -7.63941 0
491.488 -4.03129 0
322.773 17.1998 0
319.757 21.19 0
411.835 26.6969 0
407.361 28.9384 0
159.436 50.8685 0
156.961 55.2167 0
76.3114 26.8695 0
78.9509 22.6207 0
280.616 0.155106 0
275.772 -1.03391 0
267.142 34.7546 0
271.803 32.924 0
16.5066 14.9467 0
14.2865 19.4284 0
12.7572 40.2872 0
10.7422 35.7124 0
349.747 4.13891 0
345.828 1.0395 0
432.525 30.6878 0
427.866 32.5132 0
114.33 39.7994 0
113.839 44.7714 0
15.2936 36.4284 0
11.8278 32.8231 0
235.408 18.4541 0
238.415 14.4587 0
290.403 -6.29719 0
285.604 -7.64313 0
491.263 26.4076 0
495.457 29.128 0
39.2829 39.879 0
40.454 44.7357 0
45.1533 50.0464 0
50.0559 48.9383 0
169.618 5.3291 0
173.999 2.95365 0
311.927 42.3764 0
310.759 37.5174 0
149.18 35.7661 0
152.302 31.856 0
308.419 13.1451 0
309.624 8.2911 0
186.925 12.8482 0
188.199 8.00884 0
444.734 1.87194 0
444.511 6.86768 0
221.794 48.8425 0
225.211 52.5001 0
349.683 40.2389 0
350.284 45.1997 0
117.346 45.5 0
115.429 40.885 0
139.543 28.8328 0
135.387 26.0559 0
342.845 10.9395 0
342.483 5.95157 0
446.213 3.77297 0
444.459 8.45683 0
31.9029 19.0159 0
33.8974 14.4282 0
14.5662 40.5389 0
12.338 45.0168 0
291.581 0.215445 0
296.039 2.45712 0
78.3242 31.35 0
82.612 33.919 0
229.765 34.4717 0
225.3 36.7415 0
163.889 41.2553 0
159.108 42.7683 0
185.302 41.2305 0
185.154 36.2364 0
176.038 29.9018 0
180.653 31.8282 0
62.9777 33.8899 0
67.4498 31.6427 0
122.309 55.6879 0
120.492 51.0338 0
281.309 41.8132 0
282.036 46.7559 0
440.275 19.9778 0
437.05 23.8016 0
265.18 34.8674 0
270.087 33.8622 0
377.444 4.25001 0
375.285 -0.259508 0
414.535 -8.70082 0
413.082 -13.4861 0
72.5791 39.5188 0
70.5617 34.9459 0
299.283 39.2708 0
301.638 43.679 0
392.315 -7.00936 0
388.522 -3.754 0
175.546 15.727 0
180.387 14.5085 0
382.229 22.6943 0
378.766 19.0904 0
46.4882 27.8566 0
49.9903 24.288 0
10.7822 54.1894 0
12.2552 58.9612 0
123.799 37.5483 0
123.751 32.5505 0
92.1086 43.4486 0
97.1235 43.2338 0
140.444 33.2341 0
138.847 28.4975 0
450.686 -6.86741 0
455.681 -7.04789 0
471.356 28.9487 0
471.055 33.9394 0
286.291 -6.62322 0
287.559 -1.7824 0
484.278 -7.1882 0
489.152 -6.07775 0
181.949 5.75176 0
185.406 2.15009 0
454.608 16.0777 0
453.623 20.9804 0
224.014 46.3437 0
228.253 49.0167 0
20.0193 45.0815 0
19.0984 49.9909 0
60.602 30.9238 0
56.9465 27.5157 0
78.393 57.647 0
83.4235 57.9211 0
129.261 12.2689 0
133.289 9.32443 0
339.166 -9.66828 0
334.185 -9.91802 0
455.795 -6.94537 0
460.484 -8.67999 0
217.76 10.9547 0
221.596 7.75518 0
27.4285 48.3574 0
31.9383 46.1524 0
466.867 10.7873 0
470.894 13.7471 0
32.6069 46.8073 0
31.7345 51.7249 0
18.6098 33.8237 0
18.1641 28.8446 0
250.512 23.6301 0
255.435 22.7506 0
32.5421 39.5192 0
37.5297 39.0094 0
125.633 41.8777 0
125.804 36.8837 0
406.017 -12.4182 0
410.345 -14.9148 0
207.871 45.8938 0
207.822 50.8887 0
329.582 19.2364 0
334.238 17.41 0
449.853 20.8032 0
447.722 25.3275 0
439.004 36.0021 0
434.385 37.9273 0
144.206 7.62805 0
141.12 3.69948 0
149.716 16.3881 0
149.606 21.3894 0
118.043 14.5366 0
113.059 14.5769 0
143.71 41.2918 0
144.699 46.1885 0
376.878 10.2906 0
377.987 15.1649 0
169.016 26.8009 0
173.955 27.5787 0
414.995 19.7786 0
419.886 20.8263 0
18.489 28.753 0
20.8837 33.1403 0
185.008 43.5354 0
184.558 38.5601 0
221.578 41.5691 0
216.565 41.4239 0
118.903 35.0402 0
116.079 39.1713 0
456.451 14.0952 0
451.453 14.2106 0
109.229 49.9038 0
105.862 53.6144 0
254.946 46.3386 0
257.256 41.9018 0
200.905 0.0447689 0
200.11 4.98621 0
348.499 18.4415 0
344.398 15.5839 0
119.68 21.1027 0
115.09 23.077 0
390.019 28.3337 0
388.189 32.9868 0
128.173 25.9768 0
131.216 22.009 0
64.2523 27.907 0
65.7818 32.6657 0
187.894 45.4636 0
184.893 41.4627 0
23.7171 19.0066 0
22.9103 23.9447 0
84.119 17.8197 0
79.2279 18.8039 0
240.874 23.3094 0
245.579 21.6146 0
330.225 28.3313 0
335.219 27.9946 0
365.204 33.14 0
363.054 37.6557 0
427.652 -1.04422 0
431.759 -3.89504 0
354.624 19.8251 0
359.107 17.6045 0
442.508 13.8633 0
444.286 18.5354 0
241.431 -1.89166 0
242.826 -6.69668 0
142.36 30.4267 0
139.369 34.4369 0
170.435 53.3259 0
166.778 49.9027 0
478.585 9.66845 0
481.448 13.7656 0
477.791 14.1574 0
474.779 10.1683 0
381.959 -10.2348 0
386.304 -7.77194 0
279.039 43.6653 0
274.152 42.5486 0
68.7565 33.482 0
68.7827 28.4826 0
7.6947 42.3149 0
11.9584 44.9497 0
51.8613 22.3247 0
53.5749 27.0217 0
253.249 5.57833 0
250.227 9.55972 0
474.239 4.78281 0
471.734 9.11207 0
182.249 14.8766 0
186.615 12.4541 0
80.4695 37.0169 0
76.4773 40.0394 0
384.507 28.4265 0
389.508 28.2385 0
356.632 42.374 0
361.53 41.3185 0
227.647 1.04876 0
224.988 -3.18508 0
41.0346 58.0775 0
40.0283 53.1877 0
353.654 -12.1652 0
354.435 -7.2234 0
276.091 35.8514 0
277.554 31.0699 0
473.339 6.18979 0
477.954 8.10701 0
495.064 29.0202 0
493.516 33.7748 0
354.098 -13.7816 0
355.821 -9.08578 0
137.673 21.6269 0
137.069 16.6613 0
277.616 20.1174 0
274.004 16.6645 0
130.284 17.0167 0
134.679 19.3831 0
157.109 47.3694 0
157.109 52.3634 0
438.996 15.5546 0
437.246 10.8723 0
341.212 33.0572 0
336.238 32.4797 0
236.519 15.8043 0
239.126 20.0694 0
395.88 1.18862 0
400.871 1.35203 0
115.816 54.3561 0
119.388 57.8704 0
172.338 20.2276 0
176.162 17.0078 0
51.225 21.2828 0
51.5129 26.2765 0
76.9904 4.23928 0
72.2948 2.60749 0
382.682 -4.20278 0
379.567 -0.292132 0
322.326 22.9055 0
327.278 22.1891 0
414.384 11.2312 0
410.085 8.68163 0
395.032 -6.73641 0
391.697 -10.4571 0
467.461 10.9602 0
472.366 9.99258 0
466.642 -2.56338 0
465.505 2.30678 0
373.31 31.8127 0
377.019 28.4539 0
424.316 13.9703 0
429.155 15.2295 0
318.144 16.5354 0
313.249 15.5209 0
244.408 -4.68022 0
239.821 -2.73236 0
350.677 18.58 0
350.597 13.5805 0
298.299 33.4518 0
303.089 34.9085 0
237.734 26.3507 0
237.638 31.3488 0
422.499 27.4827 0
424.448 22.8772 0
295.108 8.36568 0
290.202 7.43575 0
123.017 -1.55364 0
125.072 3.008 0
377.346 41.4009 0
372.93 43.7636 0
180.243 25.1078 0
179.793 20.1284 0
130.073 11.343 0
130.402 16.3367 0
469.809 23.9899 0
471.379 19.2417 0
438.615 -10.3493 0
442.869 -7.7274 0
117.114 54.3768 0
115.513 49.6448 0
127.336 42.7395 0
130.359 38.7509 0
380.016 -11.1047 0
384.772 -9.58576 0
489.126 -8.16623 0
491.612 -12.5061 0
494.937 -0.610088 0
494.816 -5.60919 0
134.346 12.2407 0
135.015 7.28005 0
492.273 -21.6018 0
494.276 -17.0207 0
231.167 34.9539 0
228.079 31.0221 0
464.096 32.8283 0
468.502 30.4606 0
291.624 10.4226 0
296.041 8.08527 0
102.086 46.6278 0
103.575 51.3967 0
487.569 -5.07805 0
486.656 -9.99389 0
69.7293 41.5966 0
71.8792 46.1093 0
11.4418 0.909353 0
6.52368 1.54204 0
260.152 48.7249 0
255.249 49.8007 0
158.491 54.51 0
162.823 51.9718 0
248.715 32.3848 0
245.492 36.214 0
117.015 43.6313 0
120.626 47.0981 0
205.644 34.8399 0
202.794 38.956 0
177.932 22.1217 0
182.663 20.5061 0
79.2195 55.5978 0
74.3118 54.4875 0
422.624 -6.22439 0
425.054 -1.85558 0
351.763 7.11766 0
352.28 12.0914 0
124.568 10.018 0
119.635 10.6989 0
327.285 -3.78539 0
327.3 -8.78903 0
349.07 31.9421 0
344.063 32.0221 0
67.4313 20.231 0
65.2547 24.734 0
235.101 12.2063 0
231.425 15.5929 0
486.312 21.3579 0
487.436 16.4852 0
226.297 43.8981 0
230.492 46.636 0
105.767 7.96842 0
109.547 4.71484 0
339.978 26.9898 0
344.499 29.1297 0
467.648 18.3296 0
467.522 23.3282 0
373.344 28.2348 0
377.989 30.0937 0
411.841 29.5783 0
412.844 24.6794 0
332.248 -8.54135 0
332.354 -3.539 0
53.1638 29.1777 0
48.4846 27.4234 0
175.955 43.3924 0
180.232 40.7797 0
343.068 30.2866 0
346.407 34.009 0
160.972 29.3734 0
162.466 24.6006 0
222.828 0.302206 0
227.806 0.131748 0
346.57 25.6838 0
347.327 20.7413 0
418.323 20.6174 0
413.372 19.9085 0
138.868 41.0813 0
138.544 36.095 0
193.604 6.41236 0
197.811 3.73018 0
348.56 22.9406 0
350.08 18.176 0
244.704 35.8413 0
248.339 32.4001 0
24.7059 56.7795 0
29.7427 56.6481 0
363.415 15.8852 0
358.489 16.7469 0
319.051 19.6141 0
314.762 17.046 0
465.45 31.2461 0
468.318 27.1491 0
229.999 40.9069 0
233.189 44.7594 0
296.335 3.94576 0
296.905 -1.0255 0
360.448 19.4563 0
365.221 20.9456 0
189.587 -0.699114 0
184.857 -2.24971 0
299.358 3.3023 0
294.549 1.97535 0
54.1926 16.8664 0
55.1156 11.9469 0
87.2542 24.0263 0
82.627 25.9245 0
81.7155 35.7845 0
77.2092 33.6147 0
167.016 39.3907 0
166.597 44.3699 0
423.453 20.5606 0
419.943 17.0008 0
48.0294 33.8916 0
43.0342 33.5734 0
479.495 -1.26734 0
482.008 3.05323 0
7.1142 8.63561 0
2.20286 9.4066 0
485.174 -21.8351 0
481.351 -18.6139 0
440.889 31.2493 0
438.022 27.1536 0
338.213 4.67257 0
342.836 6.56321 0
209.704 36.7222 0
207.084 40.9853 0
477.862 27.5799 0
480.7 23.4622 0
317.248 11.3401 0
319.178 15.9519 0
275.823 8.29257 0
274.539 13.1264 0
299.792 30.3763 0
302.56 34.5396 0
125.858 34.2105 0
126.087 29.2166 0
54.9605 29.255 0
57.9502 25.2458 0
476.015 28.962 0
480.989 28.4503 0
38.5821 25.407 0
43.2551 23.6429 0
299.836 -3.22433 0
299.244 1.7438 0
167.981 35.6691 0
170.586 31.3976 0
454.123 -5.86276 0
458.744 -3.96022 0
286.808 3.44195 0
281.825 3.67804 0
8.84695 33.1609 0
4.13632 31.4762 0
13.2685 43.4846 0
8.40561 44.7307 0
313.838 2.05739 0
310.126 -1.28514 0
273.896 28.6917 0
274.495 33.6543 0
364.044 40.5644 0
366.275 36.0882 0
312.688 1.94566 0
317.495 0.60363 0
361.175 0.162707 0
366.169 0.211882 0
165.892 39.7036 0
162.691 35.8611 0
152.533 13.1064 0
148.041 15.2789 0
444.134 32.9563 0
441.691 37.3196 0
472.626 29.3856 0
470.368 24.9252 0
203.486 38.8541 0
198.807 40.6577 0
495.985 5.3523 0
493.757 9.83014 0
496.504 27.3208 0
494.553 22.7185 0
247.873 29.5928 0
245.656 34.0767 0
217.723 14.9128 0
222.682 14.3356 0
118.585 56.7794 0
123.552 55.9755 0
287.891 25.7625 0
283.139 24.2138 0
496.863 7.91978 0
491.865 8.03188 0
273.004 0.346112 0
277.539 2.42841 0
38.5809 6.71343 0
37.6796 1.78598 0
170.409 48.0857 0
170.976 53.0474 0
238.463 -3.91221 0
238.766 1.08423 0
79.0983 4.27228 0
84.0601 4.0409 0
309.962 6.76801 0
307.878 2.22371 0
202.821 41.7614 0
200.416 37.3787 0
441.169 10.3393 0
440.968 15.3356 0
485.494 17.7656 0
484.168 22.5875 0
439.714 -14.1664 0
436.786 -10.1137 0
370.804 37.8619 0
369.711 42.7396 0
213.753 25.7903 0
210.245 22.2274 0
469.075 18.8269 0
469.939 13.9012 0
329.876 -9.70188 0
329.993 -4.69953 0
196.342 50.9734 0
191.751 48.9496 0
125.352 45.5936 0
120.51 44.28 0
452.11 9.3124 0
449.597 4.99141 0
330.969 10.375 0
331.125 5.37564 0
373.376 -6.13671 0
369.776 -2.67064 0
76.2138 26.0247 0
72.417 29.2813 0
481.741 7.93757 0
476.926 9.28642 0
220.814 -1.12314 0
215.843 -0.831631 0
73.944 40.3235 0
76.6089 44.5548 0
345.246 25.1614 0
343.965 20.3296 0
303.467 46.5131 0
299.456 43.5182 0
340.375 -4.82591 0
337.506 -8.91956 0
403.153 -13.9439 0
408.01 -12.7847 0
344.554 16.8975 0
341.719 12.7805 0
259.899 50.7409 0
257.939 46.1435 0
333.319 -2.31215 0
328.498 -3.60244 0
25.3424 49.1173 0
30.3694 49.2079 0
183.372 19.9812 0
178.793 21.9914 0
103.1 51.065 0
107.356 48.4046 0
457.567 -22.3425 0
460.956 -18.6677 0
372.693 29.4232 0
367.711 28.9477 0
246.384 28.0399 0
247.748 32.8481 0
391.255 -10.7248 0
394.292 -14.6952 0
492.829 16.6419 0
490.683 12.1275 0
444.494 34.0327 0
445.308 29.0996 0
385.188 40.1524 0
381.032 42.9455 0
262.101 30.1237 0
264.862 25.952 0
129.514 5.56281 0
129.106 0.571317 0
217.905 3.00996 0
216.809 7.89235 0
299.628 46.4217 0
297.322 41.9872 0
192.738 42.2468 0
196.579 45.4558 0
129.402 42.5403 0
125.441 45.6116 0
112.67 14.5118 0
113.632 9.59971 0
421.923 -0.591721 0
419.413 -4.91515 0
342.075 -5.09072 0
337.584 -2.90895 0
185.665 -2.1188 0
186.132 2.867 0
416.261 25.0042 0
413.31 20.9685 0
488.475 26.1234 0
488.663 21.1267 0
238.559 13.9249 0
236.669 18.5557 0
210.321 43.8338 0
209.311 48.728 0
440.791 1.27115 0
444.48 4.64333 0
173.085 14.7276 0
169.553 11.1962 0
411.19 0.576556 0
411.285 5.57615 0
132.407 37.6007 0
133.277 42.5206 0
245.739 34.1227 0
246.215 39.0972 0
39.9437 42.927 0
36.7866 39.0472 0
128.182 26.9205 0
123.733 29.2066 0
432.656 2.22357 0
429.495 6.09908 0
50.9704 18.8587 0
48.9892 14.2671 0
470.411 -7.75613 0
472.938 -12.0716 0
17.9755 35.8644 0
13.1813 34.4238 0
51.6682 5.56451 0
52.5689 0.637058 0
353.805 28.6514 0
356.443 32.8981 0
451.431 29.7593 0
454.601 33.6255 0
153.217 11.0217 0
148.261 11.5462 0
432.418 29.3445 0
435.67 33.1429 0
202.266 -3.16293 0
198.995 0.609724 0
248.117 10.4288 0
246.702 15.2264 0
26.779 48.7709 0
24.6174 53.2796 0
367.296 29.9404 0
368.012 24.9921 0
279.596 40.6855 0
284.411 42.0787 0
417.277 8.15488 0
422.275 8.17695 0
243.088 -1.06515 0
238.13 -0.581907 0
331.539 33.6269 0
331.126 28.6459 0
19.7396 33.4461 0
19.6444 28.4477 0
245.647 2.05435 0
243.99 6.77421 0
485.949 3.43777 0
490.493 1.34918 0
53.5084 21.2508 0
51.9048 25.989 0
142.491 32.8102 0
146.112 29.3573 0
451.974 9.03731 0
446.974 9.03888 0
311.718 35.0344 0
312.439 30.0873 0
348.563 9.55784 0
351.676 13.4673 0
74.2156 7.61532 0
79.1875 7.59375 0
464.998 21.3058 0
468.222 17.482 0
402.531 39.5579 0
404.657 35.0306 0
2.94053 54.1748 0
3.71668 59.1065 0
463.251 28.8609 0
463.631 23.8754 0
145.807 10.0273 0
148.887 13.9618 0
220.735 1.76426 0
216.081 3.54975 0
34.9652 14.8936 0
30.1926 16.3239 0
281.578 3.28473 0
279.597 -1.30838 0
464.388 -23.2035 0
464.261 -18.2044 0
268.285 36.8147 0
272.11 33.5842 0
78.7536 55.965 0
74.7318 52.9651 0
442.338 -12.9229 0
437.683 -14.7375 0
430.377 5.95676 0
428.011 1.55351 0
488.063 11.4742 0
484.937 7.57494 0
249.404 35.0234 0
254.398 34.6266 0
167.156 29.154 0
170.068 25.0861 0
421.117 -5.1986 0
417.738 -1.51258 0
21.8877 53.9748 0
22.1788 48.9911 0
153.746 43.7185 0
149.66 46.6236 0
423.813 -10.9168 0
423.026 -5.97746 0
255.078 28.278 0
254.418 33.2335 0
157.422 52.0163 0
152.759 53.8872 0
303.194 45.2585 0
308.185 45.7479 0
325.138 22.0871 0
330.026 21.0212 0
332.395 -2.24041 0
328.379 0.73095 0
237.373 10.1176 0
241.95 12.109 0
20.9594 6.43948 0
25.8162 7.48673 0
127.171 45.4955 0
128.742 40.75 0
81.1989 22.0364 0
77.582 25.4895 0
116.724 24.4791 0
117.081 29.4663 0
278.169 20.0134 0
275.114 23.976 0
54.0587 11.0265 0
49.6377 8.73403 0
415.739 14.632 0
414.18 9.88249 0
317.055 -8.50109 0
322.041 -8.55202 0
145.961 1.6384 0
150.1 -1.13345 0
367.148 12.4395 0
362.361 11.0042 0
155.161 47.1046 0
155.236 52.098 0
180.812 24.179 0
185.724 25.1002 0
494.309 -3.14656 0
493.986 1.84366 0
180.84 -2.42135 0
175.887 -2.84564 0
131.89 23.4524 0
133.591 28.1533 0
190.594 49.1574 0
194.346 52.4753 0
387.739 41.3851 0
384.547 37.5349 0
250.274 37.908 0
254.949 39.7054 0
98.4018 15.1597 0
93.5253 16.187 0
175.148 20.846 0
173.45 25.5508 0
424.637 -0.0701542 0
428.347 -3.42212 0
236.838 -0.307494 0
238.397 4.44651 0
441.256 14.4693 0
444.319 18.4198 0
181.212 11.8888 0
176.225 11.8303 0
423.847 15.4644 0
423.325 10.492 0
179.849 5.74975 0
176.637 1.92329 0
169.733 43.3549 0
172.527 39.2037 0
14.8377 58.9916 0
12.8514 54.4058 0
373.762 21.7869 0
371.817 26.3947 0
288.161 -5.75165 0
284.51 -2.3454 0
430.907 -14.8385 0
428.842 -10.2842 0
215.606 52.3955 0
220.55 53.2806 0
76.7098 4.27378 0
81.4078 5.90551 0
401.596 35.8935 0
402.676 31.011 0
261.963 2.26307 0
262.318 7.25376 0
27.1535 31.1899 0
32.0644 32.1385 0
216.18 39.7688 0
213.921 35.3102 0
119.756 -2.082 0
115.67 0.763047 0
182.369 10.6791 0
183.937 15.4293 0
359.332 39.8323 0
354.843 37.617 0
65.9788 35.8833 0
67.2165 40.7249 0
102.663 47.9646 0
100.797 52.604 0
300.211 46.0856 0
295.239 46.7532 0
434.367 20.9956 0
430.576 24.2595 0
171.158 28.7699 0
175.905 30.3436 0
19.1155 2.57345 0
14.4898 4.38508 0
188.981 45.8274 0
190.901 41.2113 0
84.182 10.885 0
79.9327 8.27983 0
367.186 16.4763 0
370.47 12.7022 0
450.954 32.6243 0
447.798 28.7465 0
467.876 22.1612 0
464.99 26.2461 0
219.155 48.1135 0
216.854 43.676 0
145.788 24.1013 0
146.204 29.0839 0
95.7946 16.8077 0
91.4313 19.2319 0
441.199 28.0984 0
442.54 23.2811 0
233.223 21.0583 0
238.123 20.0717 0
290.522 7.27986 0
294.989 9.51714 0
444.07 -15.6112 0
448.078 -12.6262 0
242.088 38.4575 0
244.505 34.0782 0
154.985 26.0978 0
156.364 21.29 0
160.22 -0.105718 0
164.137 2.98238 0
247.079 42.9809 0
248.723 47.6995 0
455.41 -19.2781 0
450.604 -20.6442 0
432.444 -12.5254 0
437.226 -11.0796 0
16.121 19.2148 0
11.2974 20.4807 0
143.318 36.2359 0
142.804 41.207 0
433.192 -9.94953 0
433.789 -4.98431 0
206.607 44.5465 0
203.008 41.0692 0
331.277 4.47225 0
332.778 9.24207 0
75.7565 15.3199 0
74.4978 10.4766 0
115.203 46.1305 0
113.439 50.8079 0
183.732 28.1481 0
186.172 32.5096 0
217.06 20.2969 0
212.276 21.7478 0
148.502 44.3299 0
153.483 43.7194 0
65.1815 45.7929 0
69.5726 48.2156 0
262.853 19.9047 0
267.18 22.4063 0
125.053 26.9454 0
124.828 31.94 0
140.038 38.1667 0
137.288 42.3471 0
254.226 23.9742 0
257.364 20.0791 0
284.335 -2.43038 0
289.183 -1.26116 0
486.093 19.5407 0
483.145 23.5805 0
44.5644 33.3349 0
49.5216 32.6454 0
329.503 -8.26976 0
327.521 -12.8624 0
431.519 35.4659 0
426.558 34.8126 0
453.575 -8.14445 0
458.538 -7.56067 0
51.7043 20.6447 0
56.0769 18.2374 0
432.158 -6.10613 0
434.181 -1.53394 0
429.853 10.7164 0
426.7 6.83926 0
330.997 33.7172 0
331.475 28.7414 0
20.4227 26.9043 0
24.997 24.894 0
253.607 -2.52732 0
254.896 -7.36206 0
268.525 16.765 0
272.557 19.7164 0
235.573 48.6122 0
239.708 51.4434 0
109.431 54.7066 0
112.327 50.6232 0
64.8575 31.1734 0
62.2148 35.421 0
280.155 46.5129 0
277.436 42.3158 0
140.298 2.33622 0
144.602 4.84693 0
281.072 13.4642 0
284.046 9.44437 0
244.38 26.7347 0
248.124 30.0484 0
320.264 6.39834 0
323.956 3.0293 0
92.9838 58.5609 0
88.6358 56.0443 0
425.788 10.1696 0
430.778 9.86282 0
36.0725 41.434 0
34.2266 36.7899 0
244.713 46.4325 0
239.883 45.0806 0
418.677 30.3972 0
415.733 34.441 0
183.449 31.1697 0
178.447 31.1368 0
122.22 22.9751 0
121.336 27.8973 0
376.397 -4.49132 0
373.377 -0.507324 0
412.364 5.28678 0
407.489 4.19161 0
59.3324 5.49145 0
55.8089 1.96077 0
301.382 -3.61174 0
305.831 -5.87024 0
362.109 -14.185 0
367.086 -14.509 0
253.737 -0.8008 0
256.601 -4.89535 0
17.1621 39.0989 0
13.5919 42.6108 0
483.829 0.0628256 0
488.788 -0.572607 0
266.71 32.9404 0
270.297 29.4493 0
270.021 23.669 0
268.8 28.5187 0
139.954 28.7369 0
141.97 33.3108 0
294.554 -9.24474 0
299.376 -10.5042 0
404.442 32.7405 0
407.281 36.8558 0
223.818 7.59 0
219.331 5.4093 0
267.346 35.1236 0
264.691 30.8875 0
468.65 35.0287 0
464.032 36.9487 0
408.08 -1.34547 0
409.854 3.32803 0
293.889 30.7351 0
291.08 34.8741 0
236.13 3.11329 0
231.284 4.28724 0
74.6729 18.3632 0
75.1345 13.3802 0
296.458 0.897512 0
291.571 -0.0935119 0
191.105 37.0449 0
195.428 39.5687 0
157.443 18.7351 0
161.494 21.6577 0
321.136 11.6658 0
323.586 16.0228 0
292.714 41.5351 0
293.694 46.4337 0
285.172 31.2445 0
281.764 27.586 0
470.181 30.8899 0
465.32 32.0673 0
38.0875 1.28454 0
42.6353 3.28871 0
369.737 -8.1673 0
374.212 -10.3815 0
270.704 -6.14653 0
270.323 -1.15632 0
480.249 -11.3038 0
483.695 -14.9276 0
32.5626 32.6904 0
27.5646 32.4531 0
234.668 43.5971 0
239.679 43.3721 0
249.278 42.1568 0
250.61 37.3385 0
56.4937 20.8577 0
56.198 25.8514 0
261.513 -2.97353 0
262.508 -7.87792 0
427.151 13.8644 0
429.382 9.38789 0
84.373 43.9916 0
79.3725 44.416 0
451.584 13.2351 0
449.215 8.83321 0
377.256 -7.54031 0
375.348 -12.1636 0
443.395 2.18437 0
447.596 4.89081 0
53.7416 29.5066 0
49.1513 31.4946 0
151.118 49.4114 0
153.842 53.6062 0
339.665 14.9737 0
343.384 18.3129 0
51.506 50.7122 0
55.1156 47.2353 0
270.723 5.11967 0
271.173 10.1015 0
128.42 32.8983 0
123.9 30.7558 0
116.411 5.69032 0
121.381 5.8822 0
86.6635 25.4027 0
89.9799 29.1404 0
183.518 -1.94389 0
180.855 2.28434 0
231.068 27.3849 0
235.735 29.1835 0
4.28936 48.4245 0
8.42575 51.2622 0
10.854 2.22876 0
15.3607 0.139548 0
341.985 44.3952 0
338.407 40.8978 0
246.577 9.46059 0
250.148 12.9541 0
185.494 26.2897 0
185.253 31.2845 0
21.9833 12.8221 0
26.9323 13.3346 0
480.885 -20.0818 0
483.739 -24.1867 0
232.441 6.71585 0
237.389 6.09951 0
142.152 30.9759 0
141.521 26.0167 0
137.447 35.267 0
132.728 33.5989 0
59.6942 31.5411 0
58.5301 26.6794 0
343.651 -8.51904 0
345.383 -13.211 0
277.288 2.42031 0
279.67 -1.97502 0
426.252 0.924835 0
424.223 -3.64422 0
320.387 29.3109 0
323.478 33.2404 0
460.774 0.0786859 0
465.654 1.15918 0
212.369 11.0702 0
211.316 15.9613 0
427.969 26.7856 0
425.947 22.2138 0
97.3973 45.9036 0
101.768 43.439 0
165.213 45.9962 0
168.029 50.1299 0
37.4502 44.2037 0
33.4037 47.1646 0
403.957 24.0692 0
402.01 28.6774 0
198.878 -1.82651 0
196.414 2.52349 0
420.816 -9.85845 0
419.003 -14.5189 0
490.949 9.89822 0
491.583 4.93777 0
443.649 28.8054 0
445.843 24.3111 0
240.877 35.6015 0
239.504 30.796 0
270.329 -2.44311 0
272.341 2.13586 0
344.023 18.6992 0
346.21 14.2007 0
398.234 26.1752 0
397.539 31.1263 0
35.595 36.03 0
40.405 37.4235 0
209.91 2.39579 0
207.584 6.82132 0
44.7043 16.3839 0
47.1168 12.0039 0
113.053 21.3891 0
114.616 26.1378 0
11.0296 16.8962 0
10.3651 11.936 0
159.223 27.0682 0
163.134 23.9507 0
445.956 12.043 0
446.763 7.10768 0
422.022 19.0431 0
420.482 23.8008 0
496.999 22.8711 0
500.524 26.4143 0
428.185 23.5119 0
426.32 18.8742 0
211.069 20.0513 0
215.749 18.2945 0
22.282 6.69611 0
23.3073 11.5972 0
78.7519 40.926 0
80.0157 45.76 0
110.046 5.64542 0
108.454 10.3894 0
212.501 47.1728 0
214.614 42.6402 0
426.984 3.0832 0
426.568 -1.90031 0
142.048 54.5832 0
138.729 50.8346 0
496.533 5.45304 0
494.767 10.1318 0
318.391 -0.348252 0
323.292 -1.28644 0
443.239 10.8254 0
448.224 10.4318 0
74.2873 25.281 0
71.9826 29.7207 0
407.008 37.5112 0
412.008 37.7542 0
373.749 14.1364 0
377.719 17.1723 0
331.499 -12.7057 0
327.024 -10.5007 0
206.172 36.2547 0
210.19 39.2396 0
308.711 11.4298 0
312.352 14.8527 0
415.471 21.8134 0
417.854 17.416 0
370.567 9.09929 0
375.565 9.16071 0
259.502 43.1825 0
264.113 41.2137 0
48.8132 12.123 0
51.1071 16.5655 0
323.947 31.6491 0
320.12 28.4288 0
101.972 7.24538 0
97.4049 9.23292 0
46.6594 8.73836 0
46.8909 13.7404 0
40.3272 6.09633 0
42.0124 10.8083 0
49.2593 -0.346935 0
54.1492 0.491587 0
407.418 22.4574 0
402.493 21.5757 0
255.542 45.7633 0
257.118 41.0187 0
465.78 22.8679 0
467.745 18.2688 0
280.758 -2.80933 0
285.717 -3.30976 0
440.087 -6.07234 0
445.041 -6.73194 0
434.159 37.7408 0
429.488 39.5347 0
235.234 36.9834 0
233.756 41.7592 0
39.3123 57.0588 0
34.3763 58.0647 0
494.89 3.77722 0
494.432 8.75676 0
13.5964 47.5653 0
14.029 52.5394 0
170.435 51.0354 0
174.462 48.048 0
144.129 32.9617 0
149.095 33.5874 0
426.135 16.1361 0
427.326 11.2789 0
248.258 39.664 0
244.964 35.9011 0
305.799 6.40475 0
300.974 7.68193 0
269.638 15.7938 0
274.498 14.6288 0
466.655 -14.4759 0
464.593 -19.0304 0
341.323 6.7747 0
340.462 11.7016 0
273.758 35.7077 0
278.055 33.1371 0
272.828 47.4446 0
269.624 43.6019 0
345.841 30.0051 0
343.608 25.5332 0
206.198 -1.96545 0
208.775 2.31863 0
123.914 47.5814 0
118.946 48.3243 0
117.795 34.126 0
117.94 29.1286 0
114.941 43.7671 0
113.953 38.8703 0
497.229 10.3058 0
492.304 9.45199 0
239.098 46.7795 0
242.986 49.9368 0
218.397 1.51931 0
215.59 -2.6172 0
167.194 10.9481 0
164.283 6.88564 0
463.123 8.29984 0
460.289 4.18315 0
421.331 -2.08627 0
418.312 1.90054 0
494.978 -12.4713 0
496.694 -17.1692 0
165.27 45.0152 0
169.812 42.8882 0
107.563 48.5882 0
104.231 44.8531 0
239.056 11.1203 0
239.319 6.12379 0
279.555 46.0423 0
282.852 42.2751 0
261.532 18.9421 0
256.8 17.3374 0
22.7537 41.0968 0
24.1762 36.3045 0
331.181 29.4827 0
326.205 30.0339 0
435.966 8.29974 0
440.723 6.75754 0
304.882 -9.06949 0
300.647 -6.43164 0
421.239 -15.819 0
422.279 -10.927 0
86.2015 25.7168 0
88.2369 21.1471 0
110.895 17.0932 0
109.081 12.4322 0
77.2269 36.603 0
81.4893 39.2251 0
218.16 35.1631 0
214.096 32.2473 0
230.87 5.47898 0
235.21 3.01626 0
355.145 26.4305 0
360.147 26.5698 0
428.217 32.6367 0
432.122 35.7624 0
73.5471 22.576 0
72.5906 17.6667 0
109.853 33.9423 0
109.494 38.9283 0
182.504 6.33795 0
177.597 7.20023 0
135.638 18.1551 0
140.151 20.2896 0
330.194 34.4724 0
333.648 38.0898 0
149.432 33.792 0
144.585 35.0531 0
94.9694 48.4284 0
89.9897 47.7652 0
287.532 33.4828 0
286.795 28.5399 0
133.384 28.755 0
128.778 30.7088 0
3.25001 25.6201 0
7.97114 27.2539 0
406.547 20.1963 0
402.239 22.7461 0
130.119 11.4063 0
134.65 9.32799 0
443.467 -11.975 0
447.935 -14.216 0
235.605 5.60426 0
231.695 8.71164 0
216.12 19.8815 0
220.768 21.7142 0
365.67 20.8525 0
364.342 25.674 0
413.134 31.7804 0
416.405 27.9948 0
326.589 -0.335058 0
322.688 -3.45423 0
360.84 1.80665 0
357.957 5.89277 0
424.94 27.1225 0
420.224 25.4546 0
355.846 -12.747 0
351.954 -9.61868 0
364.403 29.5555 0
369.249 30.8045 0
463.264 35.9055 0
461.362 31.2816 0
458.568 1.57057 0
456.888 -3.13782 0
457.885 -7.63127 0
460.674 -3.48289 0
289.974 38.8815 0
285.001 39.5078 0
145.734 40.9943 0
140.805 41.9177 0
85.1127 50.5853 0
84.9799 55.5754 0
412.583 3.23395 0
407.983 5.18975 0
323.586 -1.48635 0
328.307 -3.10517 0
345.631 20.2022 0
340.936 18.483 0
43.7875 25.7685 0
44.0475 30.7621 0
129.521 14.2598 0
133.375 11.0851 0
451.41 1.54403 0
455.882 -0.692359 0
452.577 5.31373 0
455.838 9.10105 0
214.163 32.4813 0
209.985 35.2437 0
400.779 32.0058 0
396.485 34.5796 0
375.378 8.26112 0
377.133 12.9414 0
138.522 0.630532 0
143.347 1.83898 0
195.567 44.349 0
200.182 46.3065 0
278.494 -0.603053 0
283.45 -0.0494595 0
357.197 43.0698 0
361.364 40.2931 0
245.722 5.51534 0
247.135 0.71611 0
446.764 6.10765 0
441.98 4.66107 0
267.962 -8.87178 0
263.026 -8.22167 0
194.527 45.1553 0
193.764 40.2195 0
68.624 22.7396 0
65.1484 26.3339 0
470.672 -16.9477 0
474.699 -19.9091 0
58.6178 25.0998 0
54.2828 27.5886 0
151.998 31.0197 0
150.58 35.8146 0
1.33454 41.5581 0
4.54396 37.7183 0
138.864 31.3793 0
134.03 32.68 0
96.7918 45.119 0
101.812 45.0561 0
182.139 4.38834 0
186.369 1.75081 0
231.393 46.025 0
233.507 41.493 0
161.586 20.2269 0
156.796 18.8179 0
54.6722 36.5563 0
56.1776 31.788 0
446.157 -4.09363 0
447.831 -8.80639 0
246.031 -6.96721 0
250.986 -7.4479 0
274.354 34.6836 0
277.989 38.1212 0
363.358 5.78382 0
361.839 1.01999 0
177.604 21.0848 0
182.598 20.907 0
351.74 9.06967 0
346.746 9.25146 0
438.065 -6.99865 0
438.655 -11.9651 0
470.029 -10.9724 0
466.064 -14.0162 0
493.213 31.8781 0
494.752 27.1206 0
281.46 33.0011 0
285.791 30.4913 0
287.58 13.2286 0
284.971 8.96315 0
454.542 8.66892 0
449.616 9.52934 0
139.287 29.5195 0
135.256 32.4838 0
20.086 52.7155 0
24.9655 51.4925 0
373.373 33.8434 0
368.507 32.6701 0
26.9271 26.678 0
29.9944 22.7292 0
279.284 -9.90997 0
284.069 -8.52023 0
378.708 1.69477 0
381.315 -2.57218 0
51.7202 44.604 0
48.6989 48.5957 0
158.474 30.8066 0
163.345 29.6584 0
204.126 41.8827 0
203.448 46.8341 0
460.91 26.7168 0
459.745 21.855 0
112.471 9.51179 0
115.507 13.4791 0
91.7071 19.4049 0
96.424 17.7775 0
247.383 42.2818 0
242.493 41.1755 0
218.962 28.6262 0
215.925 32.6027 0
460.551 31.3814 0
455.582 31.9554 0
264.574 21.8576 0
265.655 26.7381 0
236.055 18.8882 0
239.48 22.5272 0
41.0721 27.3734 0
37.5686 30.9427 0
163.814 39.3555 0
160.186 42.808 0
2.20182 30.503 0
3.3804 35.3625 0
35.5881 3.42866 0
40.5305 2.9784 0
266.425 21.7618 0
262.651 18.4852 0
335.251 10.0074 0
332.022 13.8265 0
416.901 -16.2639 0
412.016 -17.304 0
434.847 -4.01382 0
429.893 -3.36028 0
233.753 49.2073 0
232.842 44.2958 0
36.9422 27.8008 0
40.9716 24.8423 0
428.693 -17.905 0
431.451 -13.7351 0
487.99 -0.913545 0
488.252 4.07971 0
194.864 37.9624 0
196.532 42.6713 0
11.0262 52.6529 0
16.0427 52.2407 0
209.264 29.2567 0
212.673 32.914 0
37.3811 8.79046 0
32.8079 6.83247 0
68.9739 19.1858 0
66.9077 14.6325 0
152.388 15.7415 0
150.788 11.0023 0
47.0454 42.0659 0
51.6064 39.9843 0
160.093 51.3066 0
158.581 56.0695 0
253.296 22.1461 0
255.069 26.8197 0
227.128 16.3056 0
223.284 19.5024 0
210.78 35.1462 0
206.37 37.5265 0
234.827 11.8401 0
238.463 15.2666 0
488.488 21.1783 0
490.211 16.4834 0
388.452 33.0924 0
393.456 32.9356 0
379.721 9.82632 0
383.9 7.07732 0
196.791 44.7982 0
201.788 44.3321 0
434.512 24.9939 0
439.191 23.224 0
158.522 7.83413 0
163.305 6.4397 0
342.409 14.9844 0
337.493 15.8932 0
465.32 -17.823 0
466.394 -12.9393 0
324.128 -1.28615 0
319.381 -2.82835 0
368.804 18.4899 0
370.774 23.0838 0
77.1929 19.716 0
82.1049 18.8354 0
173.313 7.49227 0
177.735 9.79938 0
156.608 23.8066 0
153.285 20.0755 0
208.779 52.3099 0
204.088 50.5268 0
180.453 44.5834 0
176.861 41.0982 0
246.222 21.787 0
251.175 21.1009 0
289.782 -5.06339 0
290.783 -0.160467 0
255.255 -5.11547 0
251.675 -1.63599 0
144.596 35.8894 0
143.331 40.7256 0
341.663 44.5351 0
342.298 39.5779 0
468.396 -15.0401 0
473.217 -13.7201 0
229.493 4.47271 0
229.313 -0.529301 0
420.192 -11.6821 0
415.206 -11.4041 0
154.079 2.42493 0
149.455 4.26987 0
352.789 25.8666 0
356.544 29.1685 0
483.445 -18.9561 0
484.746 -14.1284 0
427.925 -1.28891 0
432.245 1.22232 0
381.849 -7.1061 0
384.802 -11.1399 0
297.024 -3.69021 0
296.553 1.29149 0
100.02 15.9484 0
95.2557 17.4147 0
268.908 26.0421 0
272.293 22.3579 0
127.555 22.1169 0
122.562 22.1551 0
339.084 -7.24817 0
342.939 -10.4234 0
249.232 9.26452 0
253.963 10.8575 0
65.2704 25.4436 0
68.9369 22.0455 0
131.4 23.0931 0
133.236 27.7429 0
469.462 -19.4571 0
467.576 -14.8256 0
425.53 22.8643 0
429.13 19.3912 0
363.544 38.7424 0
366.809 34.9507 0
303.192 -1.73793 0
305.696 -6.06504 0
447.312 9.25745 0
446.486 14.1895 0
428.032 23.9323 0
432.192 26.7072 0
381.691 30.7262 0
386.41 32.3894 0
232.572 33.4434 0
237.376 34.8548 0
345.867 -2.63136 0
350.619 -4.1633 0
451.16 23.145 0
448.435 27.339 0
69.3698 9.18686 0
70.9801 4.4487 0
281.274 24.4171 0
276.281 24.7029 0
259.805 41.3243 0
264.553 39.7159 0
290.467 8.50335 0
292.829 4.09367 0
262.385 36.7075 0
261.36 31.816 0
280.247 17.172 0
283.156 13.1029 0
163.891 10.2457 0
168.671 8.82962 0
181.278 2.77108 0
177.028 5.37714 0
389.373 17.3211 0
384.375 17.264 0
495.739 -6.84474 0
491.309 -4.52558 0
485.318 12.5218 0
480.376 13.2834 0
217.823 47.7541 0
219.299 42.9786 0
450.084 13.7442 0
454.877 12.3201 0
67.5865 58.2653 0
72.0676 55.9843 0
222.648 36.8422 0
217.771 35.6998 0
168.163 39.8095 0
164.103 36.8835 0
30.9039 43.2508 0
28.4106 47.5877 0
73.6199 19.8323 0
78.5379 18.9888 0
32.9158 1.73217 0
31.3874 6.49954 0
314.588 28.069 0
316.921 32.4894 0
325.826 8.39473 0
327.589 13.0732 0
47.3651 32.1811 0
44.3402 36.1661 0
320.81 46.8285 0
321.694 41.9098 0
457.813 6.32901 0
462.68 7.467 0
488.543 26.4347 0
490.568 31.0056 0
83.4037 28.0921 0
79.5382 31.2711 0
78.7277 42.4998 0
75.6152 38.5846 0
379.106 0.360684 0
383.904 1.75861 0
294.769 4.77539 0
299.632 3.65246 0
451.09 -14.2152 0
447.147 -11.1417 0
266.819 -5.57065 0
271.537 -3.96304 0
197.092 50.8746 0
195.84 46.0394 0
325.225 -4.35047 0
320.288 -5.06364 0
131.478 8.81832 0
136.294 7.54804 0
101.311 3.79499 0
97.7652 0.286286 0
482.254 11.7843 0
478.309 8.71593 0
333.046 34.6104 0
331.693 29.7991 0
43.1317 46.608 0
43.3074 41.6161 0
66.0456 22.1645 0
70.2291 19.4356 0
35.7768 24.4074 0
36.4629 19.4512 0
216.974 10.817 0
221.91 11.5403 0
57.0214 16.2236 0
59.1462 20.7495 0
134.193 5.99228 0
137.832 2.57862 0
492.864 17.4522 0
496.897 14.496 0
458.686 -9.02569 0
463.203 -6.88756 0
116.962 0.938395 0
113.591 4.61804 0
156.933 18.0898 0
157.807 13.1636 0
66.0044 13.7026 0
68.0475 9.1371 0
336.96 7.37424 0
341.117 4.5997 0
176.672 13.0607 0
178.207 8.29983 0
163.014 39.9463 0
162.441 34.982 0
146.858 32.8514 0
148.174 28.0274 0
364.675 3.8566 0
365.756 -1.02667 0
177.943 10.3846 0
173.161 11.8046 0
89.836 29.4822 0
84.8479 29.8286 0
451.491 -0.706402 0
448.233 -4.49668 0
459.786 32.6068 0
463.639 29.4174 0
60.4793 6.64769 0
58.9119 11.4005 0
462.856 -9.9442 0
466.588 -6.61994 0
162.95 41.6146 0
158.77 44.3808 0
310.812 -4.85143 0
306.125 -6.56136 0
154.908 31.9105 0
158.588 35.2963 0
31.7721 44.2834 0
30.6778 39.4089 0
161.392 49.4894 0
158.967 53.8646 0
456.12 -4.4509 0
461.064 -5.18881 0
425.716 -17.505 0
422.773 -13.4645 0
273.291 -1.91669 0
274.498 -6.7721 0
171.088 35.5524 0
176.09 35.7973 0
298.34 7.90164 0
300.473 3.37825 0
205.804 0.375947 0
210.298 -1.77514 0
105.919 11.1947 0
109.303 7.52434 0
57.1593 2.37515 0
58.8079 7.10122 0
178.614 24.0514 0
173.655 23.4297 0
51.6691 52.2805 0
55.889 54.9987 0
465.536 14.4607 0
468.634 10.5335 0
166.316 20.6599 0
166.707 15.673 0
341.894 42.4237 0
336.93 43.1131 0
251.675 19.9826 0
248.072 16.5193 0
451.317 15.2434 0
447.708 11.7858 0
180.359 27.0731 0
175.859 29.2601 0
52.1041 29.3694 0
55.1302 33.3478 0
116.888 26.0677 0
118.244 21.254 0
331.372 14.8328 0
336.273 13.8495 0
336.519 41.0397 0
331.554 41.7208 0
188.898 42.4207 0
193.135 39.7447 0
36.3419 4.13552 0
39.4869 8.01291 0
63.5105 33.6397 0
59.6871 36.8706 0
54.8658 10.368 0
55.3997 15.3456 0
88.1674 30.7505 0
86.0917 35.3015 0
458.03 10.74 0
454.268 14.0357 0
349.743 -4.13122 0
353.605 -0.962838 0
383.904 1.48006 0
388.716 2.83188 0
64.8112 2.83789 0
67.5203 7.03752 0
74.8993 43.5793 0
78.5911 46.9624 0
179.213 45.5373 0
181.107 40.9102 0
376.777 29.0253 0
375.897 24.1043 0
112.109 37.857 0
111.145 42.7611 0
452.855 11.6351 0
453.585 16.5812 0
310.991 -4.10039 0
313.993 -0.104251 0
3.63815 32.2694 0
7.8078 35.0349 0
471.824 20.9486 0
476.606 19.4863 0
121.538 18.2737 0
118.552 22.2846 0
287.746 38.5634 0
288.997 43.4005 0
379.84 13.252 0
382.322 17.5894 0
308.359 -0.509763 0
303.413 0.146416 0
280.971 -4.98002 0
285.02 -7.89525 0
260.964 48.144 0
256.233 49.8177 0
327.295 46.8178 0
324.744 42.5173 0
420.474 15.5278 0
425.156 13.7652 0
494.769 -11.6254 0
493.347 -6.83042 0
74.3986 35.7821 0
73.364 40.673 0
210.579 14.6926 0
211.111 19.6647 0
464.409 -21.847 0
466.889 -17.5059 0
313.323 15.0677 0
308.543 13.6066 0
346.048 11.492 0
341.284 9.98417 0
253.971 22.7115 0
251.739 27.1878 0
264.97 44.9317 0
260.194 43.406 0
298.334 5.5616 0
293.802 7.66131 0
481.283 0.025589 0
479.728 -4.72592 0
181.001 26.5682 0
181.034 31.5683 0
23.1972 48.8698 0
18.2865 47.804 0
149.981 9.32764 0
153.883 6.21625 0
240.193 32.06 0
235.965 34.7426 0
131.637 55.5786 0
132.016 50.5998 0
384.306 -1.06254 0
388.714 -3.41645 0
493.413 -21.3532 0
488.44 -21.8632 0
423.412 4.2457 0
418.726 5.98898 0
51.3782 51.3524 0
52.1292 46.4147 0
446.366 6.33275 0
448.753 10.7246 0
494.221 -18.6331 0
492.121 -23.1706 0
240.574 15.8473 0
241.145 10.8776 0
150.36 46.7153 0
154.063 50.086 0
362.66 12.7698 0
363.643 17.6716 0
77.4376 8.17125 0
82.2579 6.94477 0
220.415 21.8239 0
215.592 20.5131 0
137.113 39.146 0
139.446 34.7211 0
248.557 -5.2772 0
251.39 -1.15891 0
55.4597 25.0191 0
50.5244 25.7896 0
419.041 1.86708 0
414.786 4.49227 0
264.85 23.8222 0
269.814 23.2103 0
471.393 -11.491 0
466.447 -10.7686 0
223.411 -1.68459 0
225.428 -6.26072 0
161.245 26.2669 0
165.553 28.8028 0
399.942 -14.2477 0
395.366 -12.2455 0
469.656 -0.275081 0
465.934 -3.60979 0
141.989 30.0283 0
140.775 34.8785 0
169.951 49.8262 0
174.638 48.0255 0
336.543 27.1374 0
332.983 30.654 0
426.593 26.7915 0
423.195 30.4632 0
120.236 6.594 0
122.556 2.16439 0
268.854 23.9078 0
263.905 24.6374 0
466.783 -22.3089 0
463.711 -18.3648 0
349.157 20.7174 0
353.806 22.5599 0
26.9257 22.0643 0
25.2141 26.7645 0
221.338 35.0017 0
223.471 30.4773 0
270.169 6.04511 0
274.895 4.43806 0
479.494 -0.504015 0
475.799 -3.86858 0
309.415 26.9041 0
309.889 31.8806 0
19.4465 43.3025 0
17.5784 38.6671 0
427.627 0.273034 0
432.383 -1.26385 0
141.235 1.54911 0
137.807 5.17591 0
244.212 10.3864 0
245.656 5.59693 0
36.2233 59.1723 0
34.2059 54.6001 0
478.545 24.7422 0
476.292 20.2796 0
45.7381 17.6484 0
44.1758 22.4012 0
229.389 4.6753 0
228.752 -0.289044 0
147.186 7.40241 0
149.923 11.5842 0
131.089 25.7353 0
126.429 23.933 0
149.872 50.2239 0
150.981 55.0933 0
275.084 44.8017 0
272.383 40.5941 0
228.505 6.14217 0
229.408 11.063 0
221.531 39.4737 0
221.976 44.4498 0
302.398 -2.75586 0
304.736 1.66284 0
137.394 50.593 0
140.511 46.6738 0
34.5839 22.1014 0
36.1502 26.85 0
417.661 16.6389 0
416.596 11.7547 0
494.385 4.50341 0
492.059 0.078882 0
358.67 -12.7152 0
354.258 -10.3825 0
417.181 16.8466 0
416.484 21.7982 0
212.488 16.3575 0
215.138 20.595 0
152.572 5.32905 0
149.565 9.31949 0
393.067 -2.11728 0
391.362 -6.81868 0
276.091 12.1197 0
280.963 11.0124 0
420.148 -14.7741 0
422.06 -19.3943 0
276.69 15.9684 0
277.198 20.9423 0
457.908 29.9745 0
456.553 25.1624 0
5.21845 9.76092 0
1.5349 13.1257 0
53.6154 45.2767 0
55.7723 40.7648 0
198.862 47.9315 0
202.3 44.2872 0
389.133 25.0379 0
392.327 21.1903 0
437.35 11.1018 0
432.694 9.28353 0
160.622 10.0602 0
165.476 8.93258 0
276.09 26.3999 0
273.384 22.1973 0
444.192 -8.28233 0
446.763 -12.5715 0
253.341 38.6397 0
248.683 36.8016 0
452.959 -0.443979 0
449.785 3.42176 0
424.011 12.067 0
428.701 10.3292 0
29.6332 5.47006 0
24.7799 6.52963 0
463.663 -0.354059 0
460.278 3.32792 0
258.531 45.937 0
258.281 50.9262 0
359.63 42.0623 0
364.471 40.7674 0
17.5606 15.2505 0
21.693 18.0419 0
228.157 0.0126959 0
232.087 -3.05996 0
359.302 38.017 0
358.227 42.8988 0
485.787 4.81259 0
489.92 7.6225 0
195.388 1.29926 0
195.933 -3.67789 0
122.732 20.5159 0
120.676 15.9583 0
81.9949 9.96016 0
77.1149 8.98627 0
268.599 42.3561 0
271.609 38.3578 0
388.821 5.37563 0
393.533 3.69532 0
145.638 43.9988 0
140.74 45.0944 0
89.713 4.2401 0
84.8105 5.0525 0
84.8285 10.8091 0
83.077 6.12114 0
113.527 12.3147 0
116.441 16.3737 0
392.22 -2.53506 0
387.225 -2.56992 0
275.35 39.6921 0
271.589 42.9979 0
202.638 -4.77894 0
199.534 -0.866794 0
168.15 43.7388 0
165.139 39.7457 0
211.979 40.4157 0
215.114 36.5135 0
383.722 2.40265 0
379.952 5.68676 0
266.848 3.91903 0
271.822 3.53619 0
303.243 9.39123 0
308.158 8.50734 0
352.632 10.7497 0
351.762 5.82563 0
53.8744 37.8132 0
52.2161 42.5297 0
337.833 25.2066 0
335.428 29.5925 0
402.418 -7.00393 0
407.371 -7.64992 0
181.006 53.6827 0
185.804 55.1771 0
350.835 18.7584 0
348.523 14.3269 0
166.866 1.76974 0
168.161 6.60418 0
416.344 -9.55205 0
421.315 -9.05942 0
375.928 25.1066 0
373.911 20.5327 0
272.089 14.7628 0
270.072 19.3398 0
48.8973 19.2804 0
51.576 15.059 0
204.912 45.6563 0
208.85 48.751 0
396.153 31.4529 0
391.176 30.9273 0
226.914 -1.61646 0
230.498 -5.08876 0
207.263 7.67161 0
202.676 9.63113 0
267.258 32.3797 0
268.264 37.2751 0
186.856 15.8263 0
190.968 18.6683 0
415.239 -9.04808 0
420.209 -8.54675 0
316.685 2.66172 0
313.846 -1.45217 0
419.963 32.7436 0
415.207 31.1901 0
8.35134 23.6001 0
13.3421 23.6187 0
17.1332 16.0538 0
12.3483 17.4451 0
184.57 11.5184 0
183.783 16.4591 0
169.716 55.4452 0
169.972 50.4583 0
324.03 -9.21076 0
326.874 -5.09919 0
413.626 -11.8972 0
411.726 -7.27167 0
75.5747 46.1425 0
70.6262 46.9963 0
115.662 38.7864 0
112.631 42.7703 0
425.822 -14.4039 0
430.72 -15.3816 0
148.351 38.2559 0
147.628 43.2006 0
315.779 37.4495 0
311.695 34.5576 0
117.629 42.9187 0
114.684 38.8781 0
313.695 26.3232 0
318.697 26.4763 0
234.272 15.7615 0
231.166 19.6803 0
141.375 31.1999 0
136.389 31.6334 0
125.154 43.534 0
121.231 40.4243 0
441.69 -3.61834 0
445.305 -7.07294 0
324.386 45.8648 0
321.647 41.6814 0
402.157 -8.50436 0
403.44 -13.3387 0
167.305 7.63269 0
162.327 7.81153 0
248.179 44.1994 0
243.26 45.1878 0
461.085 5.19565 0
465.246 7.9651 0
208.995 13.8323 0
213.666 12.0713 0
131.194 29.9147 0
135.847 31.7475 0
360.888 2.66811 0
364.305 6.31492 0
115.086 4.27166 0
114.887 -0.733608 0
138.822 1.10488 0
133.863 0.763678 0
296.121 3.96618 0
299.789 0.572931 0
13.5208 51.904 0
11.728 56.5688 0
345.199 8.43045 0
340.623 10.4407 0
17.0884 50.3225 0
22.0945 50.8108 0
13.8104 2.42398 0
9.15088 4.14318 0
406.188 -13.2456 0
402.869 -16.9826 0
209.813 35.8215 0
206.169 32.3977 0
343.607 13.867 0
346.329 18.0586 0
100.976 46.8658 0
97.4679 43.2966 0
441.706 19.3904 0
437.007 21.1043 0
231.721 40.6884 0
236.665 41.5169 0
346.472 29.2794 0
344.105 24.877 0
188.602 48.6004 0
188.648 43.6063 0
232.05 7.60825 0
228.046 10.5941 0
142.213 13.9119 0
145.499 17.6753 0
434.907 25.331 0
433.566 20.5154 0
153.162 6.90425 0
157.948 8.28842 0
383.421 -7.81822 0
386.043 -3.56056 0
14.1641 32.0841 0
19.1659 31.9672 0
261.793 20.5196 0
266.111 23.0372 0
248.314 9.29325 0
247.043 14.1315 0
407.316 26.2881 0
412.148 27.5826 0
423.35 -8.26844 0
428.279 -7.45491 0
152.436 17.0359 0
153.803 12.2232 0
173.595 13.5692 0
176.683 9.64054 0
159.847 14.5544 0
155.26 16.5241 0
104.68 12.0014 0
103.357 7.17561 0
476.292 33.158 0
471.52 34.6549 0
386.439 31.6926 0
381.642 30.2675 0
310.775 9.19073 0
305.808 9.71484 0
44.1044 29.4485 0
39.1787 28.5995 0
343.096 33.5599 0
342.502 38.523 0
320.03 -2.07078 0
315.339 -0.366455 0
118.861 33.4316 0
119.145 38.4214 0
255.718 39.8852 0
259.218 36.305 0
201.756 8.18617 0
206.23 10.3918 0
408.647 28.5697 0
407.323 33.3922 0
455.636 -13.4072 0
459.657 -10.4378 0
14.0237 2.6466 0
18.2422 5.28502 0
197.556 3.78276 0
199.41 -0.863615 0
315.395 1.91385 0
318.798 5.57258 0
173.442 29.5275 0
177.186 32.8404 0
127.649 5.7464 0
126.064 0.998921 0
254.672 33.0601 0
252.073 28.7899 0
89.4936 12.9178 0
89.9082 17.9079 0
451.451 -8.48734 0
454.324 -12.5801 0
214.406 5.99787 0
211.135 9.77464 0
362.783 0.382771 0
366.734 -2.67631 0
324.122 7.08192 0
327.705 10.5648 0
149.036 51.5805 0
144.387 49.6887 0
112.84 6.05326 0
108.303 8.10409 0
15.9896 40.8759 0
18.1314 45.3922 0
8.77614 44.5511 0
13.5062 42.8744 0
313.556 17.9306 0
312.347 22.7832 0
193.313 36.5976 0
188.587 34.9477 0
408.908 -8.65357 0
404.2 -6.98327 0
328.828 20.3552 0
332.216 16.6757 0
263.518 19.5298 0
258.52 19.4384 0
155.015 7.28313 0
159.165 4.51931 0
464.971 18.8673 0
460.059 17.9347 0
437.962 17.4629 0
433.305 19.2899 0
492.565 -5.62612 0
497.279 -3.96217 0
279.302 10.6503 0
278.329 5.74429 0
80.7768 36.4288 0
78.1745 40.7014 0
387.68 13.8327 0
388.16 18.8088 0
377.587 19.9613 0
381.6 16.9745 0
84.2469 16.6854 0
82.8338 11.8847 0
426.444 21.5381 0
421.46 21.9723 0
369.523 19.4021 0
374.425 18.4079 0
233.982 50.8667 0
233.149 45.9416 0
293.987 45.3309 0
298.475 47.5597 0
111.089 16.7102 0
116.072 16.9091 0
464.113 -15.3332 0
459.154 -14.7148 0
268.486 26.0723 0
263.571 25.1437 0
228.322 31.5947 0
232.472 34.3891 0
107.295 43.1796 0
107.054 38.1888 0
441.247 38.6358 0
442.227 33.7332 0
4.98742 37.473 0
4.52042 32.4955 0
113.87 50.6967 0
109.05 52.1194 0
27.8602 45.363 0
23.5988 48.011 0
7.27801 42.9598 0
11.1828 39.8208 0
431.22 -5.73837 0
436.141 -6.60861 0
45.9601 32.7011 0
44.787 27.8418 0
331.849 10.8505 0
335.302 7.23419 0
164.364 35.5782 0
168.354 32.5536 0
267.212 41.729 0
267.3 46.7243 0
386.889 34.1042 0
382.751 36.9211 0
437.299 16.1 0
441.85 18.1689 0
50.1101 23.5086 0
47.6516 27.8638 0
89.668 18.2809 0
94.5552 17.287 0
243.006 23.1579 0
238.544 20.9067 0
94.281 53.7577 0
89.2553 54.0155 0
39.3099 19.6989 0
34.7827 21.8003 0
20.1831 19.3792 0
18.9754 14.5237 0
265.602 -7.81064 0
260.989 -5.92686 0
265.104 34.2316 0
260.806 36.8031 0
335.817 -2.88118 0
336.209 2.10591 0
73.4419 31.7167 0
78.4279 32.1165 0
74.3099 31.6137 0
78.4622 34.398 0
351.518 10.9403 0
356.516 10.9464 0
327.297 -5.07509 0
322.416 -6.10526 0
269.085 21.8908 0
264.219 23.0505 0
64.9137 11.3322 0
65.8065 16.2567 0
485.55 0.861155 0
487.245 5.56415 0
117.375 8.13988 0
117.225 3.13416 0
7.56049 54.418 0
12.5876 54.7266 0
5.66675 7.14825 0
0.710049 7.48883 0
369.005 28.1059 0
364.002 27.9852 0
7.08381 28.4236 0
5.05313 23.8551 0
81.1616 44.6261 0
85.6108 42.316 0
211.03 12.8208 0
215.84 14.1498 0
460.291 -5.29029 0
455.408 -6.35489 0
155.881 30.687 0
154.537 25.8724 0
40.8145 6.91913 0
43.0586 11.388 0
334.264 34.0734 0
329.648 32.1375 0
411.204 -6.76794 0
416.025 -8.07565 0
465.669 11.4791 0
467.834 15.9846 0
454.274 13.5097 0
456.386 8.97603 0
278.369 7.01378 0
283.361 6.96367 0
245.764 18.285 0
248.218 13.9273 0
362.735 -0.429537 0
363.662 -5.34476 0
450.585 4.13039 0
449.914 9.08612 0
86.3637 34.3362 0
84.7953 29.5913 0
357.214 33.8072 0
356.528 28.8562 0
244.431 19.7402 0
239.447 19.3757 0
436.467 21.7834 0
431.95 23.9352 0
473.847 16.9317 0
478.411 14.8888 0
244.295 4.21994 0
245.651 9.03468 0
63.2882 30.8289 0
59.8404 34.455 0
305.899 5.58711 0
310.722 6.8766 0
487.436 25.5909 0
485.449 21.0033 0
0.972274 49.1338 0
5.83613 50.3961 0
427.534 -7.31021 0
430.472 -11.3558 0
396.307 -14.0622 0
391.717 -12.0955 0
467.55 19.1178 0
462.852 20.833 0
476.738 19.5079 0
481.353 21.4304 0
361.379 6.65028 0
366.205 7.94552 0
209.902 2.80909 0
205.031 1.76927 0
173.214 25.8851 0
171.861 30.7002 0
488.449 -1.50542 0
484.421 -4.46477 0
130.779 27.7637 0
130.022 32.7059 0
262.019 -3.2847 0
257.175 -4.4554 0
160.16 45.6487 0
158.594 50.3953 0
74.6649 46.9493 0
69.6914 46.2586 0
302.881 31.2667 0
298.264 29.333 0
266.046 42.1363 0
270.944 41.0623 0
288.859 15.5903 0
285.942 11.5302 0
429.883 -10.1183 0
431.916 -14.6873 0
482.944 21.9935 0
478.521 24.3261 0
331.495 -2.80842 0
336.331 -1.57453 0
5.74111 6.2631 0
5.04531 11.2207 0
396.398 28.9496 0
396.787 23.9659 0
219.902 36.4478 0
221.933 31.8775 0
75.8333 8.89203 0
76.6815 3.95695 0
482.995 -11.6468 0
482.661 -16.6358 0
257.219 13.9596 0
252.881 11.4848 0
124.957 53.3364 0
123.928 48.4495 0
223.429 3.04491 0
221.74 7.75363 0
427.806 7.24462 0
432.005 9.95403 0
426.093 6.48068 0
431.074 6.89389 0
73.722 54.5112 0
78.1457 56.8934 0
42.6982 10.685 0
38.03 8.96213 0
226.638 9.81886 0
231.487 10.9969 0
114.297 6.93842 0
113.527 11.8851 0
305.236 3.30636 0
301.317 6.40475 0
304.964 30.5625 0
309.866 31.5775 0
389.162 4.20112 0
384.185 4.66268 0
27.441 27.0281 0
25.775 22.3138 0
410.65 -1.3191 0
408.296 3.09325 0
411.386 -2.32604 0
409.909 2.45202 0
410.772 32.5607 0
409.549 37.4089 0
143.222 30.1851 0
139.422 33.4411 0
394.606 -12.4058 0
399.067 -14.6517 0
108.02 41.4182 0
106.065 46.021 0
114.488 16.4062 0
111.738 20.5838 0
188.321 13.6453 0
184.295 16.604 0
367.217 10.501 0
368.339 5.62695 0
407.739 -9.38452 0
411.583 -12.5775 0
132.054 44.1261 0
136.676 42.179 0
283.19 40.2418 0
282.809 45.2236 0
406.041 23.4573 0
408.737 27.6678 0
415.604 -7.38022 0
413.088 -3.05897 0
184.402 14.9711 0
179.549 13.8038 0
314.728 6.13542 0
317.656 10.1856 0
430.193 12.3351 0
428.544 17.0565 0
479.2 24.6398 0
479.028 19.6426 0
147.875 19.1929 0
146.15 23.8879 0
185.9 44.6708 0
183.639 40.213 0
148.24 13.3453 0
145.513 17.5356 0
342.974 8.54427 0
340.635 12.965 0
345.148 1.01527 0
349.626 -1.1966 0
433.57 32.9683 0
436.791 29.141 0
317.089 35.8921 0
322.093 36.1197 0
463.499 3.12794 0
468.179 4.88146 0
471.668 -22.6904 0
466.671 -22.745 0
481.182 26.616 0
483.431 31.0815 0
215.605 8.53403 0
220.371 10.0063 0
23.9759 41.5599 0
28.3009 39.0275 0
135.781 16.7971 0
139.252 13.2037 0
165.884 23.7515 0
170.706 22.4335 0
167.566 35.9232 0
171.52 32.8518 0
172.556 45.5462 0
176.66 48.4204 0
134.575 18.121 0
135.996 13.3242 0
5.02704 18.3196 0
2.04092 22.3247 0
69.2862 11.0263 0
70.4437 15.8947 0
208.893 45.0498 0
213.894 45.4639 0
96.1978 16.0253 0
91.5151 17.7416 0
29.9805 42.1873 0
29.2574 37.2438 0
249.467 3.64513 0
253.268 6.88438 0
462.926 7.9111 0
461.973 12.8205 0
220.282 12.5485 0
217.726 8.25203 0
95.9289 41.9881 0
100.862 42.899 0
148.58 6.71017 0
153.214 4.88407 0
68.3132 24.8493 0
73.2362 25.6922 0
382.163 16.5158 0
378.8 12.8195 0
471.34 31.988 0
466.475 33.1497 0
306.904 -1.65174 0
302.038 -0.552441 0
188.796 35.1247 0
187.179 39.8538 0
294.083 5.45408 0
298.784 3.77359 0
359.19 -12.6844 0
363.297 -9.84322 0
110.045 11.6774 0
105.092 11.1769 0
449.411 -5.44467 0
450.528 -10.3196 0
27.1911 25.2758 0
27.4001 20.2771 0
420.208 -5.34874 0
424.996 -6.77412 0
55.3846 5.38682 0
59.9806 7.29062 0
340.607 1.05158 0
337.761 -3.05821 0
288.58 -1.38898 0
291.639 -5.34141 0
332.681 31.6925 0
335.511 35.814 0
8.60348 52.9487 0
4.96237 49.5051 0
364.436 40.9857 0
363.486 36.0792 0
330.025 30.4579 0
327.635 34.8519 0
48.3487 48.9796 0
52.2766 52.0951 0
32.0812 37.7815 0
37.0531 37.1563 0
33.7522 12.6438 0
31.2055 8.34288 0
35.6229 49.9769 0
40.1405 47.7846 0
255.701 50.7554 0
254.455 45.9174 0
344.041 22.5854 0
342.373 17.8732 0
348.718 23.3727 0
346.897 28.0306 0
352.557 11.6867 0
357.025 13.9261 0
346.245 -11.3298 0
351.228 -11.5483 0
405.849 24.6956 0
410.201 27.159 0
187.427 38.8513 0
188.534 43.7222 0
83.4496 48.4615 0
78.4952 49.2996 0
388.418 -8.86738 0
386.332 -13.4124 0
347.136 32.7327 0
347.922 27.7955 0
440.339 29.4776 0
435.803 27.3707 0
357.673 38.3301 0
361.925 40.9696 0
437.744 30.8859 0
440.803 26.9284 0
127.95 52.5031 0
128.54 47.5435 0
249.914 34.5794 0
252.911 38.5819 0
310.682 31.797 0
307.142 35.3362 0
73.5167 51.0281 0
68.8048 49.2893 0
497.124 25.1368 0
496.864 30.1299 0
452.644 -20.991 0
452.853 -15.9943 0
328.535 -5.29268 0
325.015 -1.74662 0
277.274 44.9069 0
273.52 48.2249 0
484.809 2.78995 0
484.671 -2.2084 0
302.993 -5.17942 0
306.231 -8.98369 0
354.989 -1.6103 0
351.858 -5.50582 0
191.069 8.84623 0
186.274 7.48346 0
320.169 -3.23178 0
321.011 -8.16353 0
91.7508 34.3612 0
89.505 29.9049 0
162.898 22.7944 0
167.869 23.2902 0
351.831 43.8109 0
346.848 44.3556 0
371.943 30.6787 0
375.344 27.0094 0
305.985 44.3718 0
302.428 40.8544 0
367.281 16.6053 0
372.23 17.3134 0
167.367 9.66415 0
169.077 4.96319 0
215.595 18.8131 0
220.316 20.4503 0
128.716 53.3616 0
133.741 53.5541 0
20.6922 37.0894 0
25.6047 38.0733 0
143.045 39.1258 0
138.105 39.9782 0
84.557 9.9294 0
80.0253 7.86414 0
207.29 44.9817 0
206.298 49.8795 0
18.5447 39.4937 0
14.0708 37.2433 0
25.4928 7.76853 0
25.0217 12.7546 0
38.6005 32.9724 0
34.1052 30.7818 0
40.0217 33.8738 0
44.0049 30.8454 0
465.233 -7.41093 0
468.244 -11.4041 0
329.949 26.8739 0
325.677 29.4828 0
187.951 32.7787 0
182.948 32.8202 0
66.2462 30.7017 0
71.0403 29.2742 0
492.529 -16.3363 0
495.376 -12.2267 0
133.357 21.8031 0
137.674 19.2883 0
18.6116 53.4073 0
22.8228 56.1432 0
481.791 30.5374 0
483.153 25.7261 0
336.141 12.1994 0
334.376 16.8791 0
229.616 14.2552 0
227.881 18.9463 0
229.566 -1.15117 0
233.709 1.62985 0
260.164 -4.86812 0
264.533 -7.26837 0
425.539 0.589901 0
430.507 1.13333 0
284.704 0.721644 0
289.689 0.617401 0
148.196 28.8309 0
151.309 24.9163 0
73.9278 27.6807 0
77.2994 23.9861 0
206.461 11.0834 0
209.286 15.2046 0
448.812 32.5557 0
452.936 29.7234 0
415.614 -19.3478 0
418.903 -15.5842 0
273.896 29.3883 0
269.078 30.7488 0
216.639 9.44654 0
214.821 14.1067 0
63.8839 45.5092 0
61.9718 50.1285 0
354.847 42.6729 0
349.913 43.5551 0
75.9725 51.8986 0
74.5169 56.6775 0
196.682 13.1414 0
192.073 11.2324 0
181.19 36.6943 0
178.792 32.3084 0
272.484 46.087 0
272.986 41.1156 0
273.12 19.5185 0
268.528 21.502 0
353.431 3.84891 0
354.053 8.81103 0
471.931 8.72658 0
474.554 4.46758 0
395.136 -16.3011 0
392.704 -11.9325 0
369.965 -11.4058 0
370.496 -6.43153 0
210.446 50.7483 0
214.472 47.7598 0
332.68 -8.17611 0
330.15 -12.4891 0
32.8403 39.8867 0
27.9506 41.001 0
346.351 33.5445 0
350.464 36.3934 0
416.465 2.59761 0
417.606 7.46555 0
66.1191 13.0896 0
64.7537 17.9033 0
378.102 -2.47792 0
381.314 1.35178 0
31.2269 6.18071 0
33.063 10.8351 0
498.991 5.70586 0
499.029 10.705 0
113.783 12.053 0
113.093 7.09455 0
252.24 37.1522 0
257.207 37.8145 0
251.975 28.7206 0
256.642 30.5246 0
278.93 19.4915 0
274.925 16.5037 0
498.063 14.6725 0
494.208 17.8569 0
458.581 19.546 0
455.525 23.5054 0
381.515 25.4278 0
380.434 20.5467 0
89.0452 29.5478 0
84.752 32.1178 0
189.358 19.4877 0
186.042 23.2352 0
254.801 -0.841151 0
257.476 3.38175 0
336.44 -9.67121 0
341.369 -10.4374 0
143.416 20.5054 0
148.393 20.1137 0
69.1123 33.4916 0
70.1791 28.606 0
19.8409 45.4329 0
21.9214 49.9773 0
337.778 -0.644541 0
332.789 -0.765691 0
431.395 -4.28978 0
434.431 -0.319025 0
425.237 30.1398 0
422.931 25.7045 0
322.826 43.5625 0
318.983 46.7743 0
330.473 -1.22966 0
335.165 -2.93243 0
490.386 7.27517 0
493.393 3.27825 0
69.8971 42.9889 0
74.87 42.3282 0
270.627 40.5735 0
266.228 38.1828 0
462.406 -12.8464 0
459.136 -9.06266 0
279.955 -4.6349 0
276.022 -1.56281 0
20.0793 11.9171 0
23.878 15.1496 0
400.541 -13.2297 0
402.72 -17.7306 0
60.4699 49.9261 0
64.991 47.7427 0
81.6472 3.74138 0
76.7538 2.88638 0
287.291 25.7436 0
292.286 25.5256 0
303.008 -2.71307 0
305.801 -6.85818 0
55.7262 25.8 0
54.1185 30.5359 0
109.664 9.58469 0
104.823 8.42705 0
16.6777 26.8759 0
21.3668 25.1513 0
29.0255 25.8151 0
30.4308 30.6129 0
475.509 -5.2096 0
478.6 -1.28205 0
479.829 10.1852 0
483.413 6.69588 0
355.951 27.6736 0
357.085 32.5417 0
33.1986 52.7538 0
28.59 54.764 0
293.828 3.37276 0
295.267 -1.41968 0
64.0968 16.6563 0
68.8699 15.2182 0
240.216 45.8357 0
236.07 43.0249 0
337.349 1.76393 0
342.328 1.40377 0
356.006 43.2477 0
358.992 39.2333 0
133.516 47.5288 0
135.158 52.2471 0
50.512 0.77436 0
54.3656 3.93269 0
112.914 22.1711 0
111.807 17.2943 0
221.965 4.85854 0
225.74 8.12686 0
355.492 13.7865 0
353.589 18.4115 0
155.874 27.7782 0
158.946 23.8308 0
224.588 21.0836 0
229.015 18.7618 0
156.076 48.68 0
153.685 44.2895 0
140.228 44.9019 0
145.242 44.6787 0
114.791 7.23491 0
110.97 4.02916 0
110.564 31.5467 0
112.279 36.2417 0
312.614 21.7551 0
313.118 16.7799 0
193.296 35.5743 0
196.348 39.5329 0
446.009 10.5636 0
441.074 11.3716 0
328.968 8.50191 0
325.071 11.6341 0
422.715 5.40325 0
420.306 9.78715 0
239.247 2.21152 0
241.556 -2.22321 0
409.481 25.4791 0
414.425 26.2449 0
131.219 28.9724 0
133.3 24.4245 0
212.144 51.0292 0
207.577 48.9549 0
486.914 2.56971 0
491.887 3.07651 0
161.277 27.3486 0
165.747 25.1042 0
52.3318 42.3166 0
47.9935 44.8314 0
57.2098 31.4979 0
52.8891 34.0232 0
120.199 4.59598 0
123.934 1.29196 0
213.729 11.0124 0
215.064 6.19038 0
449.624 27.8464 0
447.917 32.5465 0
102.55 47.9592 0
99.4883 51.9233 0
346.21 23.7845 0
347.877 19.0691 0
438.824 35.4164 0
435.513 31.6691 0
429.842 25.4683 0
424.955 26.5384 0
202.51 0.605169 0
199.977 4.91531 0
79.9907 42.5628 0
75.0342 41.8021 0
432.687 34.6439 0
428.043 32.7837 0
70.7461 16.1523 0
65.8135 15.4446 0
88.794 51.0987 0
91.3246 46.7829 0
125.539 36.125 0
130.469 35.235 0
272.823 16.8189 0
271.105 12.1241 0
204.629 44.7669 0
208.967 42.253 0
6.06712 54.9252 0
10.9946 53.8877 0
449.678 -12.1956 0
445.343 -9.70605 0
401.71 32.05 0
405.628 35.1579 0
25.3726 52.4505 0
27.5191 56.9646 0
206.585 14.3503 0
201.674 13.4913 0
52.2284 5.17319 0
55.7785 1.67144 0
175.563 44.7763 0
178.149 40.4937 0
332.587 12.7598 0
336.864 10.1695 0
488.755 8.41019 0
492.055 4.65133 0
483.681 15.9152 0
488.678 15.7894 0
71.5698 12.9415 0
70.1265 17.7321 0
21.3544 4.02881 0
25.2758 0.959781 0
129.483 51.4851 0
124.539 52.3962 0
408.986 -17.0331 0
404.013 -17.4833 0
161.735 43.7025 0
160.358 48.5073 0
460.375 14.9828 0
465.075 13.2738 0
118.569 35.4217 0
123.491 36.3476 0
8.30611 39.6306 0
7.43175 34.7092 0
438.748 30.1465 0
433.86 29.0841 0
275.436 12.9638 0
280.225 11.5368 0
446.703 33.7163 0
450.951 36.3556 0
217.203 7.10016 0
217.859 12.0604 0
63.0669 31.6289 0
65.5881 35.9449 0
177.45 31.4352 0
180.419 27.4073 0
161.118 3.6573 0
165.717 5.57513 0
465.406 -10.5278 0
462.607 -6.3834 0
76.5083 29.3301 0
72.9713 25.8015 0
420.537 10.7564 0
418.511 6.18691 0
448.128 10.1349 0
443.174 10.8117 0
347.506 7.82655 0
346.434 2.94188 0
247.986 25.0919 0
251.782 28.3458 0
3.447 56.9159 0
1.40695 52.3515 0
221.483 26.3965 0
219.313 21.8933 0
71.9148 30.131 0
74.8184 34.1988 0
109.782 13.756 0
106.273 10.2051 0
116.882 24.994 0
112.833 22.0655 0
347.002 17.9566 0
351.681 19.7172 0
172.75 44.2719 0
174.041 49.0981 0
20.5211 52.6216 0
19.7064 47.6955 0
44.4282 -0.0542841 0
49.0745 1.70108 0
204.721 7.95268 0
200.731 4.95637 0
228.251 30.4831 0
229.445 35.3363 0
323.119 -0.966529 0
321.526 3.77495 0
250.769 37.418 0
252.822 41.9749 0
464.499 10.1223 0
466.029 5.36082 0
98.7572 57.109 0
102.218 53.4816 0
99.3984 9.86467 0
102.845 6.25335 0
123.674 57.7205 0
118.644 57.522 0
486.211 27.771 0
486.354 32.769 0
252.466 4.62681 0
247.506 5.14775 0
320.206 27.9501 0
322.682 23.6036 0
5.85797 58.2082 0
1.08827 56.5976 0
392.749 -1.5762 0
394.508 -6.25955 0
484.515 -10.3872 0
488.493 -13.4177 0
151.713 7.09926 0
148.373 3.3872 0
417.652 27.4137 0
420.231 23.1279 0
185.496 3.92632 0
190.007 6.04807 0
407.716 -0.160146 0
412.702 -0.482117 0
40.0169 7.48149 0
40.8541 12.4181 0
309.882 6.79493 0
306.749 10.6925 0
270.064 12.9022 0
275.044 13.2985 0
229.238 1.1586 0
227.528 -3.54352 0
253.66 3.83481 0
248.806 2.6936 0
53.0078 3.96403 0
54.0312 8.86597 0
436.354 0.028904 0
434.229 4.55639 0
181.366 27.1683 0
184.266 31.2378 0
74.6572 26.5708 0
79.653 26.4306 0
168.716 -1.9093 0
173.157 -4.15526 0
325.85 10.5204 0
329.509 13.9236 0
28.9637 34.6276 0
24.1064 35.8473 0
302.16 -3.43814 0
303.755 -8.17883 0
418.274 19.6871 0
414.448 22.9113 0
239.46 16.9394 0
237.08 12.5429 0
33.7216 21.7942 0
38.6388 20.952 0
54.1274 43.9378 0
58.222 46.8263 0
359.83 -0.825733 0
363.521 -4.19459 0
428.424 19.8768 0
433.302 20.9781 0
45.6456 53.5392 0
43.6591 58.1262 0
276.028 -1.72956 0
279.125 2.19325 0
23.7721 30.2103 0
27.1987 26.5676 0
290.648 10.3055 0
285.87 11.773 0
45.7626 48.7691 0
47.6579 44.143 0
80.4364 1.54869 0
85.3136 2.48432 0
85.1625 4.68852 0
90.067 3.8916 0
269.267 37.1192 0
266.318 33.0816 0
459.222 -0.652085 0
454.741 1.56605 0
407.94 -8.42489 0
405.372 -12.7135 0
309.129 33.8928 0
306.398 29.7051 0
258.124 17.1396 0
258.839 12.1892 0
174.218 53.6093 0
172.965 48.7741 0
109.916 11.4902 0
114.77 10.3764 0
52.4373 39.0069 0
57.0716 37.1019 0
322.499 -5.00813 0
325.306 -9.14352 0
385.874 18.903 0
386.368 13.9266 0
342.329 13.4746 0
346.631 16.0192 0
352.678 30.2255 0
352.517 35.2214 0
45.9166 5.23626 0
40.9565 5.48334 0
135.643 46.1144 0
140.406 47.6901 0
344.408 25.1529 0
340.756 21.7393 0
88.7636 16.575 0
84.2669 18.739 0
119.998 14.3636 0
115.018 14.5592 0
47.2279 24.5635 0
51.5089 27.1369 0
270.521 15.9191 0
270.23 20.9114 0
121.726 5.48212 0
118.214 9.02923 0
449.985 6.70022 0
446.96 10.6839 0
228.711 26.8411 0
233.651 27.6341 0
460.881 11.5798 0
456.106 13.0639 0
25.3435 44.3448 0
24.7599 39.3837 0
353.869 16.7847 0
357.947 19.6757 0
405.455 23.0056 0
410.344 24.0635 0
181.188 33.7457 0
184.945 30.4397 0
434.31 -7.38436 0
434.088 -2.38803 0
36.5262 13.3032 0
38.7325 17.7901 0
31.2023 53.7672 0
28.7745 58.1406 0
317.584 29.5429 0
316.027 24.7934 0
204.399 45.0965 0
199.43 44.4023 0
297.537 3.32432 0
302.517 3.01898 0
60.7003 33.3956 0
57.547 37.2809 0
438.266 1.22534 0
433.845 -1.10468 0
460.798 32.618 0
462.287 27.8447 0
222.047 44.231 0
219.465 39.9501 0
373.513 18.2208 0
372.977 23.1925 0
217.086 46.219 0
217.329 41.2289 0
338.394 11.5003 0
337.114 6.6665 0
363.076 9.0975 0
361.576 4.32807 0
277.61 11.2499 0
282.588 10.8251 0
81.3677 14.4124 0
85.6515 11.8598 0
221.254 27.1279 0
224.102 23.0163 0
357.025 -10.3725 0
354.345 -14.5935 0
318.369 7.36161 0
321.706 3.63894 0
6.33611 2.85566 0
1.85845 5.01838 0
488.483 -22.8909 0
484.774 -19.5376 0
86.7183 48.0853 0
88.8053 52.6256 0
211.774 27.548 0
213.779 22.9667 0
76.0155 24.0234 0
73.4738 28.3316 0
133.954 53.4367 0
137.38 57.0906 0
335.37 14.3135 0
338.366 18.3149 0
0.71433 46.3295 0
5.59511 45.1522 0
64.233 30.9074 0
59.452 29.4453 0
80.4324 57.1023 0
85.0447 55.0965 0
28.0922 9.56963 0
24.5667 13.1026 0
146.042 17.3271 0
146.45 12.3398 0
75.0534 47.0561 0
79.4082 44.5684 0
287.017 -4.60774 0
290.652 -1.18304 0
97.96 2.74291 0
95.2387 6.93516 0
464.015 10.1343 0
459.187 11.4359 0
370.774 -10.0802 0
369.94 -15.0133 0
439.084 -12.7401 0
441.777 -16.9526 0
463.31 -8.351 0
468.304 -8.56078 0
96.0462 6.57195 0
98.1777 11.0946 0
196.554 37.6485 0
191.651 36.6198 0
295.006 36.3765 0
291.228 39.6632 0
133.704 -0.584309 0
138.668 -0.802723 0
78.2754 17.5765 0
76.6519 22.3076 0
286.054 25.9888 0
291.021 25.4183 0
177.99 32.3016 0
176.471 27.5398 0
321.857 8.48015 0
320.653 3.62599 0
37.7307 41.9468 0
42.7043 42.603 0
327.226 -12.4404 0
325.153 -7.89003 0
473.713 5.52293 0
478.702 5.19696 0
7.56041 50.3868 0
6.1103 45.6046 0
423.928 0.877041 0
419.134 -0.530212 0
357.759 -2.10019 0
357.554 2.89752 0
401.894 39.8865 0
402.144 34.894 0
57.2354 41.8722 0
61.7351 44.08 0
263.497 14.784 0
266.113 10.522 0
353.171 -11.3443 0
357.389 -8.67051 0
3.23184 10.557 0
1.8824 5.74346 0
333.363 24.7756 0
338.297 23.9397 0
361.786 33.187 0
362.622 28.2578 0
265.256 12.675 0
260.269 12.9387 0
71.9449 22.4118 0
76.4292 20.2123 0
335.004 -6.01161 0
338.248 -2.21054 0
456.755 -21.1614 0
461.553 -19.766 0
381.898 -6.3051 0
386.66 -7.80601 0
45.0588 2.55409 0
45.1266 7.56379 0
56.1914 9.1654 0
54.2655 4.54778 0
290.74 2.62275 0
286.227 4.75488 0
162.038 14.3108 0
164.944 18.3762 0
23.5555 2.85936 0
28.5142 3.01947 0
373.723 30.2274 0
378.048 32.7416 0
329.125 -5.79243 0
333.462 -3.31984 0
330.973 21.9935 0
330.336 17.0349 0
111.755 8.1717 0
109.934 3.51101 0
163.2 6.14827 0
165.521 10.5773 0
461.279 26.1267 0
461.214 21.1272 0
427.513 8.28521 0
429.726 3.79932 0
429.027 -16.8642 0
424.096 -16.0685 0
84.4067 53.703 0
89.3032 54.8548 0
19.5661 14.339 0
16.632 10.2968 0
459.835 26.9339 0
454.854 27.3809 0
245.627 -5.86864 0
245.175 -0.883634 0
102.52 52.1401 0
102.44 47.1464 0
331.71 44.6559 0
329.877 40.006 0
143.2 17.6732 0
147.505 15.1433 0
228.513 -0.121144 0
224.972 3.3997 0
384.091 -6.10036 0
388.062 -9.13261 0
4.87859 45.025 0
4.12983 49.9669 0
410.119 18.5474 0
410.145 23.5482 0
432.62 -12.3077 0
428.478 -15.1029 0
69.0666 26.1639 0
65.8844 22.312 0
46.2372 29.506 0
45.2229 24.6098 0
214.059 16.5137 0
210.939 12.6111 0
56.8949 53.4943 0
59.2263 49.0692 0
90.409 11.4885 0
95.3858 11.4336 0
489.328 14.5634 0
491.764 10.1955 0
318.302 4.58941 0
313.862 2.30568 0
48.344 23.1165 0
46.2288 18.5864 0
306.977 -4.65604 0
310.512 -8.1844 0
137.865 35.5338 0
141.71 32.3283 0
236.378 18.5095 0
231.787 20.4877 0
305.015 29.6601 0
304.649 34.6467 0
428.814 0.7742 0
432.746 3.85888 0
269.926 -1.23339 0
273.137 2.59579 0
362.64 -10.225 0
358.968 -6.83734 0
71.754 4.98128 0
70.9725 9.9272 0
496.875 -3.45282 0
493.75 0.452837 0
488.849 -9.95317 0
492.788 -13.0343 0
293.014 -9.32578 0
292.449 -4.35285 0
192.836 38.3871 0
190.501 33.969 0
285.079 -4.64144 0
281.148 -1.56559 0
463.669 15.8018 0
462.169 20.5726 0
67.0751 17.2499 0
70.6812 20.7043 0
29.6371 25.6095 0
32.3595 29.8009 0
273.851 35.0813 0
270.637 38.9175 0
28.7874 53.1596 0
30.7495 57.7554 0
32.4443 14.2941 0
31.3197 9.41643 0
364.148 3.89143 0
361.923 -0.585706 0
366.318 35.4031 0
368.442 30.8758 0
487.655 -10.2214 0
482.877 -8.74801 0
421.524 3.00477 0
426.004 5.21706 0
250.411 25.4378 0
249.116 20.6093 0
342.706 -4.11385 0
339.931 -8.27194 0
337.781 -7.92078 0
340.261 -12.2615 0
47.0608 22.2473 0
44.843 17.7667 0
350.533 9.36589 0
348.076 5.01214 0
279.57 -2.67046 0
284.402 -1.43925 0
377.841 3.7828 0
382.076 6.43624 0
414.26 16.7542 0
413.735 11.7819 0
280.826 20.6545 0
283.12 25.0944 0
447.493 -15.919 0
451.201 -12.5676 0
367.647 40.5395 0
366.603 35.6517 0
247.914 23.5764 0
249.89 18.9821 0
357.105 21.9288 0
352.504 23.8937 0
311.969 -6.54934 0
314.932 -10.5722 0
466.706 32.7316 0
468.658 28.1277 0
219.849 -5.48906 0
222.867 -1.50569 0
98.2111 15.1919 0
93.3013 16.0432 0
289.788 27.4166 0
287.172 23.1591 0
137.316 51.7057 0
136.439 46.789 0
422.178 6.44955 0
417.301 5.35769 0
357.243 -0.15439 0
361.816 -2.16304 0
213.097 16.8203 0
217.982 15.775 0
289.454 -8.13975 0
294.436 -8.15918 0
226.097 31.1559 0
227.98 26.5229 0
126.64 28.6769 0
128.915 33.128 0
358.119 -2.00371 0
362.976 -0.846995 0
411.467 35.233 0
409.963 40.0012 0
429.614 -3.5227 0
424.924 -5.24512 0
364.013 12.3484 0
359.418 10.3833 0
492.99 3.25609 0
493.595 8.21915 0
308.762 -4.73326 0
313.282 -2.61783 0
23.5804 29.0992 0
26.17 33.3744 0
290.104 43.5805 0
286.55 40.0589 0
290.199 24.2032 0
285.207 23.9444 0
334.172 44.263 0
331.427 40.0837 0
444.224 28.9339 0
444.271 23.9345 0
306.393 -4.95386 0
302.288 -2.11261 0
34.9865 51.0736 0
39.5438 53.1874 0
50.9779 32.5981 0
54.2069 28.7776 0
260.039 12.5936 0
260.498 17.5735 0
66.2165 24.4577 0
65.7362 19.4789 0
240.415 49.5304 0
245.232 48.12 0
39.5283 29.5228 0
37.9066 34.2532 0
130.49 45.8947 0
130.226 40.9063 0
431.359 35.3617 0
426.45 36.3369 0
126.681 43.4949 0
128.932 39.0283 0
136.267 -1.11633 0
131.497 -2.51635 0
25.4471 18.7702 0
28.6251 22.6243 0
480.756 6.53348 0
485.749 6.77642 0
345.863 -3.31566 0
347.741 1.31894 0
339.306 -8.82172 0
335.838 -12.4183 0
260.136 -4.72476 0
259.037 0.1567 0
70.8004 38.1036 0
75.0094 35.3905 0
326.891 6.45498 0
331.343 8.72158 0
307.65 36.8852 0
302.74 37.8853 0
398.173 -11.8599 0
393.202 -11.3932 0
379.541 10.9235 0
378.388 15.7905 0
241.224 29.6737 0
239.184 34.2398 0
369.988 12.6776 0
372.703 8.47659 0
178.231 4.59972 0
181.905 7.98081 0
479.071 -10.743 0
474.784 -13.313 0
231.235 13.0937 0
236.06 14.3771 0
188.968 19.4678 0
183.975 19.2463 0
11.6331 29.5476 0
16.106 27.3146 0
46.2986 57.915 0
51.3356 58.0583 0
252.766 18.5616 0
254.806 13.9954 0
431.505 38.3335 0
426.52 38.7802 0
420.028 3.34785 0
417.323 7.55511 0
28.043 48.3705 0
31.838 51.6447 0
48.1153 4.35032 0
52.8949 2.99653 0
226.138 25.8766 0
226.895 30.8175 0
237.99 40.8976 0
243 41.112 0
52.4555 32.7763 0
52.3489 37.7732 0
443.402 13.9789 0
440.56 18.0952 0
139.549 15.8213 0
135.623 12.7378 0
429.128 -13.832 0
426.924 -9.34312 0
231.006 19.6536 0
235.997 19.4018 0
6.29751 54.8923 0
2.49278 51.6259 0
227.454 -2.95903 0
231.08 0.473704 0
495.456 30.2944 0
496.41 25.3861 0
67.3342 37.7417 0
67.3808 42.7382 0
144.329 22.7353 0
140.141 20.0138 0
350.019 20.8287 0
348.624 16.0282 0
206.954 1.48764 0
203.422 5.01647 0
122.58 1.1155 0
127 3.40794 0
168.39 14.3306 0
163.81 16.3156 0
120.673 27.1666 0
122.01 22.3473 0
358.192 28.0702 0
359.694 23.3003 0
209.734 2.54788 0
206.117 -0.894203 0
320.37 23.8317 0
322.585 19.3473 0
94.4301 16.409 0
99.3871 15.9059 0
360.132 26.137 0
361.093 31.0422 0
2.42137 14.3484 0
7.38137 14.777 0
151.543 12.2032 0
147.001 10.1438 0
32.9998 19.9433 0
35.3459 15.5266 0
459.092 3.83082 0
464.086 4.07029 0
66.8803 10.9196 0
65.2623 6.18405 0
332.483 30.9649 0
328.343 28.157 0
49.5075 35.487 0
45.703 38.7415 0
312.895 5.7407 0
307.915 6.08277 0
174.776 40.2741 0
177.887 36.3538 0
337.515 19.2404 0
334.118 15.5741 0
322.731 3.26945 0
323.903 8.13144 0
32.1108 58.2712 0
37.1376 58.6383 0
291.816 -4.38077 0
295.018 -0.545235 0
324.675 14.4314 0
329.521 15.6561 0
45.9201 52.8568 0
41.6734 50.183 0
116.581 47.6665 0
116.772 42.6752 0
331.589 11.472 0
332.316 6.52344 0
465.878 15.7284 0
468.937 11.7705 0
443.009 8.93653 0
444.428 4.14052 0
31.8276 1.65333 0
27.1593 -0.0369776 0
150.604 43.0804 0
145.999 41.1028 0
365.2 19.6499 0
362.141 15.6978 0
361.861 6.7726 0
359.702 2.26348 0
35.7566 46.1865 0
30.9376 44.7827 0
215.872 37.5709 0
219.486 41.0312 0
167.947 6.00338 0
172.304 8.43216 0
289.728 39.3534 0
285.888 42.5685 0
73.0478 8.24731 0
76.785 11.5532 0
375.441 24.951 0
379.065 28.3964 0
232.585 34.574 0
227.654 35.459 0
420.723 16.1069 0
425.671 15.3744 0
104.016 43.5384 0
105.426 48.3322 0
436.942 -13.3012 0
441.633 -15.0231 0
283.737 1.4976 0
280.842 5.57266 0
500.352 24.2441 0
497.352 20.2463 0
432.411 -13.1927 0
436.163 -9.89035 0
47.1169 11.7421 0
51.9722 10.6509 0
451.704 -7.02951 0
447.733 -10.0634 0
3.23083 42.1459 0
7.91761 43.931 0
378.601 -16.4303 0
382.9 -13.8899 0
7.99388 55.7563 0
3.91423 58.6906 0
357.805 26.2128 0
358.634 21.2816 0
352.149 11.1584 0
349.126 7.17889 0
15.3858 18.5277 0
10.5751 17.2296 0
108.068 53.9477 0
103.046 54.2351 0
194.46 3.14157 0
194.142 8.13768 0
89.8604 12.6947 0
94.8372 12.8203 0
64.7304 47.8385 0
60.051 46.0255 0
133.45 18.7052 0
135.483 14.1353 0
244.714 20.9333 0
248.039 17.1976 0
308.789 48.2254 0
312.24 44.5977 0
294.393 32.1835 0
291.387 36.1834 0
364.199 5.83755 0
368.613 8.17807 0
398.615 -17.3803 0
399.091 -12.4008 0
10.6633 19.2765 0
6.91773 15.9792 0
169.384 48.1832 0
165.255 51.0303 0
242.719 47.9114 0
247.422 46.1654 0
236.819 8.04487 0
236.887 3.04116 0
447.013 20.7552 0
444.772 16.2871 0
70.6251 52.3878 0
75.4062 50.8367 0
55.0596 0.498451 0
50.102 0.66232 0
246.376 42.9832 0
243.342 39.0077 0
275.192 -2.09576 0
273.348 -6.74656 0
51.7763 18.4634 0
55.7014 15.3785 0
1.89309 20.8789 0
3.63434 16.1931 0
127.296 26.9319 0
122.586 28.614 0
328.891 23.864 0
330.151 28.7007 0
477.277 11.8793 0
480.615 8.15387 0
397.5 28.387 0
392.539 27.7331 0
4.50131 22.8612 0
2.52988 27.4548 0
104.545 0.376228 0
104.225 5.37464 0
146.294 15.5679 0
142.403 18.7013 0
330.893 7.96101 0
326.099 9.36687 0
304.848 28.1597 0
309.269 30.5009 0
356.873 -0.132996 0
360.986 -2.96906 0
18.9473 6.65989 0
15.9423 2.67188 0
33.3091 8.97016 0
28.9153 11.3148 0
51.6532 38.4058 0
52.2508 33.4433 0
90.2511 5.70976 0
86.5642 9.07077 0
126.458 49.2077 0
129.942 45.6083 0
168.775 -1.9446 0
165.95 2.17546 0
5.59769 41.9765 0
7.01537 37.1819 0
39.9507 57.8581 0
38.1081 53.2139 0
17.9834 23.5993 0
21.8983 26.7011 0
394.967 -0.44962 0
399.832 -1.58685 0
29.289 30.5014 0
28.9795 25.5106 0
36.3683 31.3082 0
32.1671 34.0269 0
310.334 43.3699 0
315.185 42.1049 0
495.296 9.71398 0
493.686 14.4484 0
40.8569 13.3659 0
36.1274 14.9293 0
409.777 -11.9369 0
413.935 -9.16588 0
346.709 0.498844 0
349.229 -3.82011 0
455.388 4.42642 0
453.836 9.18077 0
246.847 2.21648 0
243.978 -1.87662 0
237.395 11.6199 0
239.71 7.18738 0
378.267 36.671 0
374.979 32.9028 0
204.157 2.64184 0
206.219 7.19749 0
372.03 20.881 0
377.014 21.2922 0
312.55 21.893 0
313.928 17.0855 0
421.876 -11.1373 0
420.955 -6.2213 0
97.5858 6.56614 0
100.322 10.7458 0
135.565 18.5563 0
134.42 13.6866 0
262.093 20.7839 0
258.623 24.3875 0
56.8755 55.1721 0
57.7969 50.264 0
442.147 35.6408 0
446.382 38.3027 0
366.875 17.866 0
370.696 14.6374 0
329.398 -7.4023 0
333.831 -5.10756 0
20.4409 56.9346 0
20.4654 51.9437 0
34.6872 33.4455 0
36.3 28.7119 0
421.499 8.16556 0
420.82 3.21159 0
489.868 16.0574 0
490.611 11.112 0
183.926 16.866 0
178.984 16.1491 0
70.488 2.94536 0
67.5684 6.99755 0
69.6443 51.3503 0
64.6208 51.1206 0
27.3043 4.04688 0
30.579 0.282782 0
86.9178 56.868 0
88.3104 52.0706 0
355.586 25.7163 0
350.603 25.2566 0
96.4145 9.28771 0
101.28 10.3348 0
70.892 1.08659 0
75.7698 2.01325 0
132.441 42.6805 0
137.216 41.1467 0
181.041 1.42299 0
176.142 0.546803 0
194.055 2.29933 0
198.971 3.09402 0
439.338 6.80218 0
436.737 11.0743 0
392.792 34.1602 0
390.496 38.6034 0
234.662 27.2808 0
238.046 30.9608 0
264.042 46.1973 0
268.246 43.4685 0
351.508 20.7259 0
349.512 16.1433 0
344.372 0.0591634 0
345.015 5.01938 0
464.74 17.1057 0
459.812 16.2653 0
401.485 -16.7842 0
402.66 -11.9228 0
222.609 8.26936 0
217.629 8.02955 0
268.289 6.09723 0
263.942 3.6414 0
368.789 32.5669 0
364.728 29.647 0
461.418 1.41315 0
465.445 4.372 0
151.726 12.4964 0
153.192 7.71256 0
357.252 8.91988 0
360.702 12.5352 0
112.617 34.101 0
113.583 39.0041 0
222.235 -5.38795 0
226.355 -2.57701 0
0.185406 57.4839 0
2.73651 53.1701 0
270.925 37.6224 0
268.292 41.8764 0
333.747 17.7706 0
329.631 14.9369 0
183.296 -0.75919 0
183.211 4.24738 0
91.2885 43.5564 0
90.9834 38.5724 0
165.93 6.11628 0
165.674 1.11611 0
6.71112 3.84668 0
2.82698 6.96959 0
203.809 39.8092 0
199.914 42.9629 0
263.401 44.5753 0
262.175 49.4201 0
485.271 -4.31594 0
484.977 -9.30748 0
107.525 36.8741 0
111.375 33.6737 0
115.722 0.266502 0
120.15 2.54054 0
468.295 0.617879 0
473.266 1.1434 0
347.778 -3.34725 0
343.094 -1.61831 0
281.136 3.29501 0
279.952 -1.56623 0
75.8704 23.4735 0
71.5064 21.048 0
291.657 -10.5175 0
296.446 -9.13865 0
371.333 -8.58123 0
374.536 -12.4164 0
292.971 35.8263 0
293.095 40.821 0
80.1213 27.4615 0
82.41 31.9029 0
485.466 0.90577 0
484.618 5.83434 0
42.6103 4.99723 0
37.6718 4.48131 0
19.2934 2.74062 0
14.35 3.15755 0
268.681 49.1464 0
273.701 49.1235 0
87.3616 -0.997408 0
89.2542 3.63548 0
135.727 50.6101 0
132.403 46.8688 0
441.807 -10.0481 0
446.74 -10.8434 0
425.816 -3.45098 0
421.191 -1.55694 0
322.734 26.7071 0
318.395 29.2042 0
457.646 2.96129 0
455.489 7.47397 0
384.861 -7.17443 0
389.044 -4.44381 0
77.3603 18.4763 0
82.2316 19.557 0
491.818 -12.3378 0
496.774 -12.9996 0
212.908 38.7613 0
217.733 40.1138 0
84.2637 34.7451 0
82.6304 30.0219 0
288.111 10.6782 0
283.17 9.94039 0
109.745 16.9467 0
108.973 21.8902 0
63.3859 19.7358 0
61.5481 24.388 0
146.065 11.5683 0
149.53 15.1654 0
19.1684 18.5481 0
21.7446 14.2629 0
68.3867 22.3117 0
73.3785 22.2982 0
34.4077 46.1477 0
34.9779 41.1848 0
161.298 17.4631 0
161.876 22.4309 0
474.469 -20.971 0
469.812 -19.1548 0
263.857 16.4088 0
261.019 12.2946 0
400.847 21.6777 0
400.286 26.6465 0
256.93 44.3939 0
254.738 39.9018 0
466.01 -9.97967 0
469.838 -6.76657 0
140.472 36.1227 0
136.978 32.5452 0
128.766 14.5045 0
127.859 9.58312 0
164.026 42.1537 0
163.593 47.131 0
345.304 19.5375 0
344.334 14.6331 0
436.027 32.9589 0
431.792 35.6237 0
497.886 6.2576 0
495.37 1.93824 0
120.066 49.3029 0
120.623 54.2648 0
106.239 12.2225 0
102.188 9.3143 0
63.7046 58.0572 0
68.3557 56.1393 0
307.2 -0.984931 0
306.899 4.00854 0
348.906 -11.5517 0
350.08 -6.68857 0
24.448 34.3281 0
24.5865 29.3308 0
64.3642 4.95836 0
63.1013 9.80249 0
38.2792 35.0774 0
35.0574 31.2546 0
365.506 -2.35922 0
361.812 -5.72405 0
53.9355 27.1971 0
58.3346 24.8246 0
351.512 2.6576 0
352.724 -2.19509 0
305.269 37.6693 0
300.422 38.9438 0
162.158 14.0637 0
159.338 18.1918 0
185.429 27.6788 0
182.724 23.4786 0
17.1581 54.2895 0
21.6474 52.0296 0
139.031 19.211 0
139.57 24.1834 0
34.1616 11.7828 0
37.7175 15.2846 0
130.807 41.9259 0
126.928 38.7634 0
469.584 -17.2604 0
473.135 -20.7802 0
15.6872 56.6072 0
10.9933 54.7959 0
198.604 43.1914 0
202.174 46.6985 0
15.5366 16.8476 0
19.0834 13.3331 0
211.87 48.5026 0
216.492 46.5515 0
243.874 16.8551 0
246.215 12.4358 0
251.357 -0.244836 0
252.499 -5.11659 0
268.642 17.1305 0
272.817 14.3797 0
136.461 18.9947 0
131.495 18.5072 0
288.278 44.4987 0
283.673 42.5219 0
110.835 17.5915 0
115.82 17.4385 0
353.124 -6.59365 0
356.044 -2.53729 0
420.722 24.9109 0
422.69 29.5064 0
248.554 -3.09367 0
250.47 -7.71318 0
254.662 19.2917 0
250.505 22.0729 0
119.055 48.8981 0
114.289 50.4846 0
439.223 -2.96828 0
439.879 -7.92627 0
201.901 44.6778 0
206.409 42.4798 0
348.784 34.4961 0
344.134 32.645 0
144.04 5.60084 0
143.909 0.594801 0
183.044 42.4313 0
187.953 41.402 0
336.832 0.40423 0
334.834 -4.18001 0
362.904 12.8824 0
358.636 15.4903 0
353.941 1.94211 0
358.635 3.64977 0
27.6701 51.6862 0
32.6754 52.1944 0
378.793 31.2175 0
378.08 36.1654 0
421.229 -1.04242 0
418.707 3.27669 0
169.343 -2.51178 0
174.234 -1.60799 0
77.7644 17.5731 0
76.174 12.8303 0
24.4084 40.9691 0
19.4005 41.2649 0
122.243 34.5854 0
125.829 31.0951 0
137.819 36.3243 0
138.944 31.4531 0
117.653 12.5495 0
116.602 7.65603 0
14.678 20.898 0
17.2483 16.6091 0
26.4594 20.7375 0
22.9512 24.297 0
333.834 19.2307 0
338.398 21.2718 0
389.565 -11.4204 0
393.969 -13.7759 0
132.008 17.2566 0
133.971 12.6558 0
452.347 2.58147 0
450.519 7.23667 0
240.383 -6.84909 0
245.308 -7.56949 0
203.428 1.92458 0
207.995 -0.0680461 0
262.805 19.3369 0
263.114 24.3273 0
229.933 16.7761 0
225.315 18.6853 0
4.77565 53.0708 0
2.5203 57.5403 0
318.343 -0.552675 0
314.804 2.97531 0
492.75 26.391 0
493.532 21.4522 0
214.032 47.8274 0
210.307 44.4819 0
263.464 9.37888 0
268.406 10.0811 0
338.378 34.6336 0
343.327 33.8641 0
390.066 -8.57177 0
391.44 -3.76225 0
439.356 32.0105 0
438.245 27.1364 0
318.573 23.2553 0
313.734 21.9931 0
205.752 44.9197 0
200.737 44.7575 0
326.125 5.74808 0
330.999 6.83265 0
104.165 8.68224 0
106.971 12.8165 0
291.937 33.173 0
290.472 37.9521 0
217.437 32.2012 0
220.62 36.0572 0
301.528 34.3663 0
301.409 29.3687 0
97.7911 40.9643 0
102.78 41.501 0
430.365 22.3086 0
435.308 23.0718 0
382.193 23.7826 0
377.425 22.2761 0
436.861 33.6589 0
431.866 33.3603 0
134.827 15.3671 0
132.518 10.9326 0
406.298 40.9467 0
404.961 36.1302 0
88.5823 3.09033 0
93.5418 2.82266 0
402.286 -0.789652 0
403.447 -5.65397 0
35.7608 11.9343 0
38.9026 8.052 0
316.797 24.7957 0
321.028 27.4625 0
131.681 13.1645 0
136.618 13.8501 0
209.1 12.5319 0
212.564 16.1301 0
72.3311 25.0899 0
72.8892 20.119 0
414.331 13.8686 0
416.548 18.3484 0
11.214 56.1505 0
8.15371 52.1878 0
272.913 17.3303 0
277.684 18.8175 0
364.166 31.4254 0
368.355 34.1601 0
124.279 56.0232 0
128.092 52.7644 0
286.178 42.9189 0
281.841 45.4325 0
179.972 37.2608 0
180.958 32.3592 0
32.2558 35.3978 0
36.4949 32.7358 0
149.863 5.3678 0
151.175 10.1969 0
87.3213 41.8899 0
85.0254 46.3314 0
366.542 7.65273 0
371.491 6.95989 0
312.795 34.8045 0
317.553 36.3674 0
6.60442 22.5799 0
7.72448 27.4532 0
253.314 25.831 0
250.667 30.0755 0
296.058 34.2239 0
296.85 29.2884 0
402.724 32.2443 0
407.277 34.3148 0
304.954 29.7232 0
302.526 34.0989 0
269.277 -5.99875 0
272.08 -1.85929 0
160.167 37.4014 0
164.429 34.7705 0
487.159 4.7408 0
483.54 1.29413 0
22.0442 30.6572 0
17.6378 28.2986 0
71.2487 5.79589 0
66.4327 7.03119 0
428.694 14.7583 0
423.746 15.4849 0
475.499 -1.87404 0
474.689 3.06086 0
211.293 34.9666 0
215.475 37.7144 0
449.713 37.3154 0
444.856 36.1158 0
188.963 32.1602 0
191.153 36.6518 0
307.07 8.40399 0
309.295 12.8784 0
177.215 26.3641 0
178.881 31.0763 0
419.582 39.1178 0
414.819 37.5849 0
46.3914 20.2785 0
51.1292 18.717 0
243.52 -0.413295 0
239.322 -3.10868 0
281.879 28.999 0
283.278 24.1973 0
312.751 -7.62816 0
317.599 -6.45765 0
408.118 -12.1412 0
403.586 -14.2412 0
418.733 -10.2324 0
422.706 -13.2639 0
183.153 53.0099 0
183.077 48.0168 0
68.5828 23.8253 0
66.6784 28.4504 0
446.322 3.09154 0
450.916 5.0589 0
401.559 22.5326 0
403.415 27.1745 0
9.15805 48.6579 0
6.8833 53.1139 0
199.47 3.41469 0
195.9 6.90703 0
183.302 35.3048 0
182.394 40.2198 0
74.8444 18.8259 0
69.8618 18.6082 0
20.8795 8.60762 0
20.2089 3.64321 0
43.6883 50.6803 0
40.5539 46.7786 0
85.0042 9.49281 0
82.7304 5.03805 0
443.044 -4.43932 0
438.976 -7.34264 0
151.767 -3.25117 0
152.163 1.74178 0
389.616 -11.0643 0
387.817 -6.39713 0
441.365 30.6573 0
446.325 31.3047 0
122.071 31.3481 0
123.196 36.2178 0
430.539 6.48677 0
425.551 6.8185 0
451.1 -1.89938 0
447.061 1.04916 0
133.478 3.19314 0
137.623 0.428476 0
95.1438 51.4211 0
100.17 51.5575 0
37.709 47.3389 0
37.1119 52.2966 0
432.201 -9.06843 0
437.154 -9.72886 0
312.421 8.11083 0
315.938 11.6599 0
374.177 22.7831 0
377.889 26.1319 0
334.963 42.1727 0
338.947 39.139 0
239.889 37.6343 0
236.584 33.8817 0
398.635 30.1975 0
394.216 32.55 0
150.707 36.6182 0
155.421 34.924 0
87.1686 52.3332 0
88.531 47.5267 0
349.092 17.484 0
344.242 18.7061 0
438.223 22.8046 0
443.089 21.6485 0
174.161 23.4196 0
174.622 28.3978 0
37.8323 20.8634 0
35.9182 16.2434 0
401.881 -4.36484 0
397.681 -1.65507 0
371.534 34.2 0
371.369 29.204 0
441.89 -20.0345 0
440.683 -15.1814 0
64.1034 3.51192 0
60.0227 6.36741 0
211.709 27.2082 0
215.941 29.8705 0
213.152 -2.22905 0
208.413 -0.699842 0
25.5605 26.4316 0
30.1612 24.4839 0
152.788 26.081 0
153.992 21.2267 0
272.162 -8.27058 0
274.311 -3.75347 0
256.924 29.7575 0
261.599 31.5424 0
410.977 16.6504 0
407.884 20.5844 0
335.403 8.80731 0
335.296 13.8073 0
441.389 17.3008 0
446.389 17.2039 0
185.632 53.3029 0
180.691 54.2375 0
265.793 12.5414 0
270.116 15.0439 0
168.644 20.1234 0
171.127 15.7826 0
241.963 -0.350697 0
244.235 -4.80405 0
74.876 45.8653 0
79.8681 46.4007 0
185.886 22.9179 0
189.776 19.7697 0
132.937 25.9834 0
127.978 25.3691 0
106.18 44.4976 0
109.26 48.4408 0
98.1578 56.1299 0
93.8987 53.4745 0
224.909 14.0848 0
226.749 18.7337 0
63.8481 55.5945 0
58.8632 56.3034 0
449.973 8.30694 0
445.457 6.16445 0
250.81 40.5003 0
245.941 41.6965 0
130.072 26.6081 0
125.368 24.9223 0
55.9228 8.42464 0
59.719 11.6597 0
37.439 7.72408 0
40.0514 11.9849 0
474.228 -0.586991 0
479.077 0.623052 0
261.743 1.36318 0
266.129 3.74456 0
156.517 35.4187 0
160.456 38.5044 0
174.906 29.3272 0
172.997 33.9507 0
430.964 4.88695 0
429.101 9.52885 0
495.404 6.46185 0
490.526 5.37194 0
63.9512 2.8039 0
60.1791 -0.453138 0
55.0729 43.4567 0
60.0915 43.4304 0
148.509 8.62209 0
143.53 8.51796 0
365.431 28.1443 0
368.968 31.6789 0
272.222 12.6673 0
275.595 8.97691 0
53.3823 42.6141 0
52.076 37.7912 0
295.099 47.3251 0
299.838 45.6802 0
346.953 -9.63371 0
351.271 -7.12594 0
9.07704 19.917 0
5.98479 23.8429 0
321.826 44.3143 0
316.911 43.33 0
75.0951 31.9578 0
77.7116 27.6933 0
109.111 12.7405 0
104.546 10.7421 0
441.838 -4.89506 0
442.365 0.0776101 0
259.439 -3.728 0
256.88 -8.02374 0
15.0342 36.2572 0
17.4325 31.8681 0
6.11388 37.485 0
11.0552 36.6577 0
245.065 28.5895 0
240.312 27.0315 0
275.331 13.9183 0
279.574 11.2757 0
37.6003 31.5932 0
33.3212 29.0094 0
247.931 39.2293 0
250.348 43.6052 0
65.2965 39.1433 0
66.0889 34.2077 0
144.611 40.8806 0
149.44 39.533 0
267.215 16.0261 0
264.789 20.3999 0
317.835 40.5968 0
322.68 41.8724 0
34.1129 50.1146 0
37.527 53.7799 0
260.171 21.5015 0
255.716 23.7753 0
38.4629 1.20338 0
41.4509 5.20467 0
381.162 33.5185 0
377.269 36.664 0
371.897 19.978 0
372.587 15.0248 0
64.7396 54.4057 0
61.4791 50.6053 0
282.079 26.7959 0
282.511 21.8135 0
422.775 11.2282 0
418.996 7.95804 0
159.343 46.2904 0
156.551 50.4442 0
156.036 26.1793 0
160.436 28.5506 0
372.468 -4.61885 0
377.458 -4.795 0
439.527 -19.0257 0
440.596 -14.1402 0
481.561 25.8659 0
476.881 27.6283 0
212.246 34.9588 0
216.125 31.7929 0
116.954 5.92628 0
121.927 5.82246 0
133.329 14.427 0
128.77 12.4064 0
62.4437 22.6823 0
61.551 27.6039 0
120.899 53.7672 0
125.924 53.5382 0
116.528 7.47525 0
111.975 5.45893 0
46.8622 52.7774 0
50.0706 48.931 0
187.39 14.9205 0
188.099 19.8727 0
367.377 2.19908 0
363.246 -0.610621 0
374.457 6.41538 0
369.964 4.22828 0
414.494 33.2248 0
412.1 37.6154 0
228.77 37.2497 0
224.044 38.917 0
331.938 -13.2418 0
327.089 -12.0841 0
90.8561 5.45272 0
95.5992 6.94954 0
122.908 22.4462 0
122.96 27.4467 0
486.484 -23.3494 0
482.345 -20.5454 0
442.493 21.0366 0
439.301 17.19 0
467.27 -8.03871 0
471.829 -10.0926 0
471.19 24.6151 0
467.325 27.7892 0
287.151 -5.33945 0
286.6 -0.365174 0
46.7315 20.9136 0
43.7738 24.9448 0
469.367 7.79168 0
471.521 3.27766 0
310.255 37.1661 0
306.011 34.5149 0
420.908 26.0799 0
425.797 27.1416 0
113.915 10.544 0
111.105 14.6783 0
286.3 -1.65108 0
282.319 1.36219 0
192.53 13.2318 0
188.09 10.952 0
477.468 2.66694 0
482.367 3.65648 0
324.76 1.33991 0
327.874 5.24926 0
450.23 33.8331 0
445.227 33.8812 0
21.2678 38.1501 0
26.1279 36.9287 0
43.1047 52.3972 0
46.4419 48.6606 0
323.932 36.2695 0
328.617 38.0385 0
346.988 33.7617 0
344.439 38.0657 0
163.651 13.4047 0
165.717 17.9575 0
48.5655 52.4423 0
49.6182 57.3228 0
177.952 53.7463 0
182.566 51.7604 0
32.0298 37.6086 0
35.6598 41.0524 0
168.928 25.5698 0
168.202 30.5172 0
270.862 7.63766 0
274.714 10.819 0
214.118 -2.01861 0
214.916 2.92301 0
319.88 3.16718 0
323.287 6.82219 0
314.894 14.571 0
315.652 19.5129 0
366.12 42.0407 0
366.282 37.0456 0
140.461 3.55946 0
143.009 -0.740216 0
292.328 33.9874 0
290.235 29.4501 0
397.934 30.2233 0
402.236 32.7736 0
487.893 29.242 0
491.34 32.8632 0
158.117 44.2004 0
162.189 41.2787 0
494.964 4.52287 0
493.604 9.33542 0
160.63 25.5396 0
157.868 21.3737 0
447.168 20.7812 0
451.921 22.3332 0
457.78 -15.746 0
457.628 -10.7474 0
33.0154 14.2266 0
33.7666 19.1746 0
464.554 -21.436 0
462.935 -16.7045 0
149.915 38.8334 0
154.299 41.2537 0
371.822 12.3904 0
366.876 11.6712 0
240.418 37.9399 0
236.881 34.4036 0
419.638 20.9708 0
423.861 18.288 0
382.826 27.8159 0
380.193 23.5662 0
321.588 36.0342 0
317.556 39.0041 0
370.543 2.49364 0
372.923 -1.90432 0
349.136 39.4737 0
345.654 35.8828 0
31.493 48.5435 0
33.3239 53.1926 0
427.998 -2.42927 0
432.821 -1.12576 0
328.844 29.7497 0
332.948 32.6103 0
17.3001 11.8623 0
20.4626 7.99746 0
187.871 34.5485 0
188.447 29.5835 0
350.82 43.2632 0
345.969 42.0072 0
338.729 5.06831 0
335.426 8.82212 0
177.046 -3.65083 0
173.845 0.179951 0
388.48 23.5126 0
393.244 21.9892 0
53.8539 30.1301 0
53.261 35.0943 0
22.5793 44.0986 0
19.058 47.6624 0
486.615 6.41279 0
488.118 1.64241 0
462.817 -5.89617 0
457.82 -5.98205 0
416.679 18.4718 0
413.514 22.3457 0
472.52 23.2316 0
468.046 25.4664 0
135.985 54.714 0
133.832 50.2034 0
416.429 18.045 0
411.46 17.4771 0
138.929 7.10945 0
136.002 3.06013 0
153.993 42.2765 0
158.421 44.6211 0
459.382 -13.7856 0
456.422 -9.75493 0
48.7469 34.8575 0
50.0378 39.6851 0
137.846 -2.22318 0
141.572 1.09351 0
323.874 37.0072 0
326.753 32.9157 0
300.143 46.8823 0
296.076 43.9614 0
476.88 -17.378 0
479.474 -13.1045 0
160.959 44.1511 0
164.518 40.6269 0
31.4005 11.2573 0
36.3097 12.0614 0
111.635 1.41564 0
113.207 6.1677 0
383.039 4.42986 0
380.977 8.98648 0
252.769 0.913105 0
255.988 4.73435 0
134.395 8.5902 0
138.282 5.46346 0
45.6584 21.7948 0
46.9243 16.954 0
56.2385 29.4914 0
60.5504 32.021 0
172.754 42.0683 0
169.26 38.4873 0
310.315 -2.29895 0
313.883 -5.79521 0
17.3276 9.50859 0
14.4419 5.43173 0
26.0497 59.8148 0
26.0452 54.8248 0
274.922 35.9962 0
270.88 38.9529 0
184.306 7.22183 0
184.691 2.23023 0
106.971 43.7695 0
111.942 44.4618 0
28.3072 29.87 0
23.6615 28.028 0
483.807 -2.40716 0
478.825 -1.9897 0
441.759 -6.08974 0
437.955 -2.84477 0
354.234 31.2083 0
352.866 26.4011 0
470.035 17.9754 0
465.098 17.1904 0
342.594 1.78344 0
337.662 2.56659 0
80.6794 39.933 0
76.218 37.6617 0
349.755 38.7984 0
348.69 43.6821 0
37.6708 55.2197 0
42.695 54.8841 0
347.691 6.68601 0
347.71 11.6871 0
351.892 -6.54909 0
354.269 -2.15009 0
86.6182 50.1219 0
87.008 55.0984 0
228.355 44.949 0
225.515 40.8337 0
148.368 51.0533 0
147.042 46.2372 0
219.706 19.0053 0
218.222 14.2304 0
372.42 26.4089 0
367.43 26.7772 0
199.213 38.6339 0
194.2 38.5443 0
449.319 7.38199 0
451.678 11.7891 0
485.149 9.45592 0
484.761 4.47091 0
476.004 19.1564 0
474.434 14.4097 0
33.8184 29.2066 0
38.3385 31.3416 0
87.1302 47.3843 0
82.7776 49.882 0
286.247 -4.92268 0
281.264 -4.9246 0
454.727 13.4932 0
452.312 9.11664 0
273.374 -8.95737 0
271.265 -4.42354 0
57.3207 0.32667 0
52.4184 -0.435422 0
2.42998 53.625 0
2.04771 48.642 0
350.054 5.47948 0
348.204 10.1265 0
428.839 6.3479 0
426.442 1.9619 0
395.36 -4.65626 0
390.89 -2.42254 0
259.33 0.64876 0
255.671 4.04751 0
478.423 -3.4923 0
479.115 -8.44491 0
150.719 29.5662 0
150.813 34.564 0
301.451 42.7572 0
296.438 42.6844 0
250.439 1.36499 0
246.015 3.67179 0
160.927 49.3386 0
165.862 50.2672 0
333.245 23.5319 0
332.21 18.6413 0
328.503 17.7146 0
326.16 13.2991 0
33.9427 59.3189 0
34.376 54.3469 0
365.566 17.5145 0
364.035 12.7556 0
297.947 -1.72903 0
302.786 -0.519027 0
351.172 -9.75892 0
347.521 -6.34935 0
412.55 3.15192 0
409.593 7.18482 0
328.344 25.928 0
326.696 21.2094 0
123.42 50.453 0
118.394 50.4154 0
132.513 40.963 0
132.116 35.982 0
39.0241 12.8925 0
35.4339 9.42777 0
350.264 29.9022 0
346.428 33.1178 0
396.252 -3.53525 0
394.811 -8.32357 0
418.942 14.6568 0
420.73 19.3246 0
453.136 26.5615 0
449.508 30.0051 0
424.569 5.65856 0
420.115 3.39515 0
147.342 26.7804 0
150.519 30.6397 0
179.558 27.8945 0
175.459 25.0369 0
165.119 52.1504 0
161.688 55.803 0
362.975 -1.9414 0
365.665 2.27187 0
121.919 16.2157 0
117.244 14.4809 0
437.053 32.2423 0
436.043 27.3463 0
378.559 5.97656 0
380.436 1.341 0
71.8015 20.0465 0
68.8668 24.0948 0
246.608 45.1069 0
244.732 49.7416 0
21.4784 19.262 0
16.6025 18.2317 0
245.499 7.42637 0
245.695 2.42623 0
388.106 -11.5935 0
390.475 -7.19045 0
145.234 27.223 0
145.678 32.2022 0
127.177 20.8419 0
122.941 23.4932 0
488.936 -13.6559 0
485.363 -17.152 0
167.394 17.9174 0
163.958 21.5489 0
250.685 42.1999 0
255.095 44.5782 0
361.092 6.65255 0
356.366 5.03409 0
205.674 48.8094 0
203.506 53.3167 0
395.407 27.6539 0
393.458 23.0531 0
94.5619 40.992 0
99.0169 38.694 0
343.431 -2.91062 0
339.998 0.721795 0
373.128 12.1557 0
368.293 13.43 0
81.8169 29.0559 0
86.8162 29.1092 0
371.857 12.48 0
367.081 13.9611 0
357.438 -13.0757 0
357.784 -8.08445 0
454.131 16.1008 0
452.633 11.3312 0
332.312 29.9445 0
327.348 30.6037 0
435.508 23.8029 0
439.8 21.2326 0
428.171 34.5158 0
424.565 37.9828 0
447.373 -2.7352 0
443.501 0.429569 0
139.896 1.73767 0
138.616 6.57649 0
443.686 7.54157 0
438.739 6.82479 0
81.1155 40.4827 0
86.0493 41.3673 0
63.1136 41.8934 0
65.2177 46.4272 0
179.577 9.05418 0
179.335 14.0521 0
392.426 29.6116 0
396.697 32.2143 0
308.603 10.0413 0
311.947 13.7538 0
156.563 31.7504 0
161.535 31.1721 0
262.729 4.85587 0
263.979 0.0118872 0
270.864 11.8842 0
266.195 13.663 0
119.173 11.2235 0
121.548 6.82339 0
440.646 -7.87497 0
443.501 -11.9798 0
75.5703 12.5225 0
70.5955 12.3265 0
329.114 -9.7516 0
334.048 -10.4807 0
252.785 30.5432 0
254.732 35.1466 0
209.188 53.7191 0
205.787 50.0467 0
145.676 21.5608 0
143.982 26.2666 0
479.201 28.3346 0
474.91 30.9039 0
470.188 10.314 0
474.354 7.54622 0
168.185 50.5742 0
170.314 55.0964 0
283.441 0.49934 0
288.288 1.67825 0
347.328 13.5955 0
343.665 10.1958 0
491.97 22.7806 0
488.854 18.8717 0
295.326 43.8847 0
290.985 46.3923 0
42.897 9.54907 0
44.8262 4.93263 0
144.966 10.3227 0
149.716 8.81617 0
271.142 7.23349 0
272.328 12.0916 0
360.028 11.3747 0
355.084 10.6474 0
305.974 30.6246 0
309.083 26.7022 0
458.803 12.0612 0
453.822 12.5023 0
399.785 -4.67903 0
404.273 -2.48756 0
313.705 -4.06334 0
318.37 -2.28948 0
343.582 8.3723 0
348.461 9.45141 0
306.701 40.932 0
302.046 39.0836 0
53.0174 2.17188 0
57.7519 3.67812 0
236.666 49.5879 0
231.901 48.0163 0
257.395 2.0396 0
259.607 -2.44479 0
420.81 36.8249 0
424.451 33.3943 0
15.8026 11.2316 0
13.438 15.6379 0
114.494 13.5255 0
110.813 10.1553 0
166.85 9.80888 0
171.525 11.5473 0
83.5567 33.6457 0
88.4837 32.7851 0
284.723 4.35506 0
281.984 8.53728 0
334.683 16.1361 0
338.528 12.9383 0
343.299 -11.0021 0
347.932 -9.14641 0
301.287 0.499705 0
306.256 0.936627 0
73.3672 11.0422 0
73.4614 16.0468 0
155.767 11.3135 0
152.122 14.7295 0
305.993 -5.33165 0
304.017 -9.92676 0
387.539 -7.17646 0
382.576 -7.72047 0
242.625 0.375378 0
240.353 4.82975 0
345.172 7.25255 0
341.574 10.7239 0
458.825 5.88775 0
459.274 10.8676 0
345.078 -0.520714 0
349.56 -2.72538 0
446.011 36.574 0
444.205 31.912 0
314.253 44.2619 0
313.78 39.2875 0
467.916 31.5429 0
467.316 26.5794 0
422.435 14.088 0
420.278 18.601 0
307.292 41.814 0
310.595 45.5709 0
184.508 5.80664 0
187.163 1.5714 0
380.993 5.01882 0
385.111 2.18397 0
156.46 35.9701 0
161.38 36.9058 0
268.687 1.27879 0
263.724 0.799153 0
178.251 55.0777 0
183.226 54.339 0
211.192 10.4834 0
206.76 8.19386 0
187.665 34.8672 0
185.753 39.4859 0
329.161 10.3958 0
326.996 5.88943 0
41.3713 57.8151 0
39.5727 53.1541 0
176.518 -3.38582 0
171.555 -3.65078 0
254.294 17.878 0
258.707 20.2229 0
347.339 1.2983 0
343.438 -1.82135 0
368.509 11.5549 0
371.535 15.5326 0
150.421 37.4395 0
151.257 32.511 0
363.706 36.1475 0
366.126 40.5222 0
102.308 52.9639 0
101.895 57.9395 0
126.458 28.2438 0
125.421 23.3527 0
225.841 2.45838 0
225.204 -2.50652 0
127.23 27.6012 0
127.381 32.5982 0
443.969 22.9087 0
447.718 26.2167 0
312.365 32.6281 0
307.508 31.413 0
150.181 45.3191 0
145.891 47.9178 0
362.927 2.09875 0
360.474 6.45693 0
106.65 13.0293 0
101.67 13.0645 0
493.373 -15.595 0
494.02 -20.5538 0
31.3218 11.4103 0
26.4453 10.4319 0
105.043 7.62898 0
105.472 12.6162 0
74.7461 3.67351 0
73.5949 8.54588 0
163.815 17.1972 0
168.421 19.1231 0
474.892 14.5363 0
479.686 13.1147 0
461.988 35.0136 0
466.933 35.7663 0
226.532 47.1338 0
231.084 45.0264 0
338.932 8.20949 0
335.04 5.07638 0
493.64 3.23469 0
498.542 2.2516 0
239.519 50.6899 0
240.588 45.8085 0
212.755 30.1008 0
215.734 26.0824 0
376.509 18.3112 0
371.983 16.1895 0
440.796 27.8801 0
445.636 26.6151 0
8.03692 49.5072 0
7.24276 54.4386 0
175.939 15.0988 0
176.24 20.0912 0
77.6477 6.11612 0
78.4827 11.0532 0
97.0924 18.3188 0
98.174 13.4332 0
90.8694 42.9275 0
86.0915 44.4577 0
147.542 29.1178 0
150.318 33.2747 0
369.047 -10.6582 0
374.037 -10.595 0
374.674 -7.36884 0
375.522 -12.2986 0
189.419 12.0089 0
184.546 13.0787 0
394.489 -9.50316 0
396.338 -14.1506 0
216.553 8.01942 0
218.614 12.5752 0
54.9056 43.3599 0
57.9929 39.4202 0
157.258 29.8477 0
152.585 31.6413 0
140.734 50.675 0
136.505 47.982 0
271.289 20.847 0
273.963 16.619 0
387.858 5.50973 0
388.255 0.523106 0
120.816 10.0184 0
125.502 11.7142 0
297.004 33.2101 0
294.39 37.4761 0
216.096 42.0981 0
211.083 41.9181 0
493.731 -23.6109 0
488.807 -24.4737 0
72.649 19.5503 0
77.3233 21.2989 0
442.206 16.6801 0
446.238 13.7191 0
112.331 17.8381 0
116.954 15.9584 0
436.254 5.484 0
433.346 9.55376 0
403.823 -16.6024 0
398.855 -16.1131 0
356.17 35.3328 0
359.165 31.3253 0
373.542 41.3403 0
377.552 38.3427 0
332.499 28.8858 0
337.06 26.8219 0
96.9768 42.7719 0
92.0675 41.7444 0
166.846 52.9398 0
171.788 52.0253 0
375.385 14.5117 0
370.859 16.6416 0
231.759 27.6541 0
236.745 28.0675 0
390.937 18.5888 0
388.805 23.1112 0
314.129 -10.0304 0
312.097 -5.46157 0
375.581 32.3397 0
376.261 27.3866 0
467.521 -18.6521 0
472.119 -20.6123 0
75.1438 30.7707 0
70.4626 32.5395 0
368.698 19.3271 0
363.8 18.3245 0
79.0444 30.6559 0
83.3607 28.1239 0
365.347 -6.12133 0
363.376 -10.718 0
403.759 -12.8367 0
407.017 -16.6272 0
279.52 23.9279 0
280.85 19.1058 0
441.694 10.419 0
436.768 11.2789 0
454.356 -7.46641 0
457.546 -3.61836 0
249.465 -4.02133 0
245.697 -7.29619 0
131.633 27.2074 0
136.462 28.501 0
155.864 -0.11248 0
160.1 2.51439 0
224.688 1.40143 0
224.655 -3.60457 0
259.988 27.7599 0
262.634 23.5146 0
474.3 13.8574 0
476.284 9.2662 0
317.223 38.4942 0
320.597 34.7973 0
498.205 27.4565 0
493.381 26.1457 0
50.0795 54.0089 0
53.408 57.7529 0
21.9888 57.0328 0
21.4532 52.0703 0
168.749 12.3753 0
171.424 8.15311 0
311.722 -4.45023 0
316.494 -5.90226 0
421.919 17.5967 0
425.208 13.8283 0
11.6123 27.6679 0
12.6552 32.5571 0
37.3636 47.9956 0
39.8767 43.67 0
187.806 38.9018 0
184.847 42.9367 0
217.652 38.7242 0
218.114 33.7477 0
92.2838 50.3646 0
92.1554 55.355 0
302.717 -1.87483 0
304.287 2.87321 0
445.927 13.7364 0
442.098 10.5245 0
165.439 13.4196 0
161.804 16.8476 0
388.465 17.6464 0
388.157 12.6566 0
143.954 17.2295 0
139.05 16.3135 0
490.864 -3.53445 0
492.83 -8.13325 0
356.969 34.9489 0
353.859 38.8682 0
273.57 3.73715 0
268.582 3.76322 0
491.697 -24.1859 0
496.676 -24.6368 0
427.231 -0.281439 0
430.476 3.51967 0
118.188 36.8648 0
122.834 34.9922 0
284.897 -3.39219 0
281.333 0.106382 0
184.565 4.61728 0
188.735 7.35705 0
372.385 -6.96842 0
375.157 -2.80808 0
484.858 28.2623 0
480.921 31.3451 0
379.075 -6.22553 0
377.359 -1.52813 0
306.474 39.2788 0
305.605 34.3571 0
145.15 30.0786 0
145.68 25.1066 0
244.68 11.75 0
244.17 16.726 0
191.602 47.4797 0
196.194 49.4976 0
286.376 8.65292 0
291.112 7.06879 0
66.1988 44.5579 0
64.0178 49.0582 0
38.011 51.5268 0
41.8626 48.3151 0
286.594 34.1256 0
291.602 34.1879 0
361.997 44.3886 0
362.467 39.413 0
451.099 1.70546 0
451.646 6.67566 0
202.733 48.2424 0
204.965 43.7652 0
437.448 3.51035 0
437.096 8.49873 0
439.623 -12.3006 0
438.016 -17.036 0
315.774 28.582 0
310.771 28.7677 0
187.82 34.5169 0
191.168 38.2316 0
358.693 4.44321 0
355.395 8.20174 0
433.107 9.3494 0
428.623 7.14263 0
217.535 14.5961 0
212.824 16.2538 0
67.867 22.0273 0
70.03 17.5179 0
221.943 20.719 0
217.732 18.0301 0
380.614 40.2131 0
385.184 42.2583 0
446.737 0.740596 0
447.451 5.6895 0
409.735 2.29689 0
404.787 1.61305 0
215.875 8.77068 0
220.524 6.96191 0
312.523 22.1967 0
310.933 17.4565 0
289.113 35.2798 0
290.511 30.4809 0
359.471 19.7465 0
361.733 15.2851 0
408.658 1.41084 0
408.213 6.39081 0
345.391 23.3362 0
341.379 20.354 0
410.542 27.8818 0
410.255 32.8735 0
58.3287 14.541 0
61.3381 18.5287 0
240.769 35.6578 0
238.093 31.4354 0
71.7961 31.6899 0
75.3392 35.2164 0
261.126 38.4949 0
262.821 43.1961 0
333.135 46.0961 0
332.027 41.2235 0
202.596 47.848 0
197.812 49.3707 0
408.023 -17.4373 0
408.393 -12.4492 0
74.447 30.6382 0
73.0697 35.446 0
343.312 30.0017 0
346.522 33.8351 0
61.206 12.6745 0
57.3331 15.8222 0
344.154 28.7957 0
345.879 33.4869 0
164.547 41.2157 0
164.435 46.2103 0
323.51 -6.88245 0
323.271 -1.88469 0
420.03 -5.60759 0
420.527 -0.631158 0
251.15 28.4497 0
247.058 31.3313 0
60.9982 51.1686 0
64.9739 54.2262 0
439.583 -11.7739 0
434.843 -13.3511 0
49.2224 51.6735 0
44.2108 51.2481 0
66.4351 24.3006 0
71.331 23.3134 0
443.123 9.11332 0
445.997 5.01961 0
427.484 2.64037 0
428.939 -2.14488 0
475.358 11.9368 0
478.67 15.6801 0
173.726 0.35574 0
178.631 -0.46795 0
231.92 9.12156 0
232.798 4.19548 0
74.6915 6.06191 0
71.3856 2.32181 0
408.018 20.8944 0
408.928 25.8111 0
431.824 30.3529 0
430.948 35.2752 0
453.758 34.564 0
458.672 33.6229 0
101.337 48.5538 0
101.721 53.5326 0
445.036 1.88647 0
448.169 -2.01149 0
50.7664 32.8075 0
55.7701 32.7344 0
260.785 26.5348 0
263.75 22.5058 0
253.179 42.2539 0
251.281 46.8801 0
405.404 -11.449 0
407.233 -16.1034 0
133.822 30.6452 0
138.206 28.2351 0
53.9486 41.4298 0
49.2266 43.1216 0
219.373 25.4363 0
217.484 30.0675 0
208.79 14.0535 0
212.875 11.1795 0
437.938 37.0343 0
435.671 32.5781 0
35.0248 33.6526 0
35.345 28.6632 0
437.181 -15.2849 0
442.174 -15.1008 0
89.7915 24.0241 0
85.7683 21.0587 0
468.855 12.2939 0
473.497 10.434 0
319.902 -0.442375 0
324.765 0.678774 0
453.437 35.055 0
457.837 32.6745 0
222.051 46.8763 0
220.523 42.1193 0
24.7367 2.06261 0
24.6994 7.07338 0
32.7428 51.5196 0
28.4282 48.9564 0
453.69 0.550256 0
458.67 0.983874 0
308.058 35.6189 0
304.639 31.9681 0
138.263 23.4331 0
137.994 18.4384 0
129.786 27.9918 0
133.911 25.1637 0
321.877 16.1915 0
318.483 12.5238 0
125.005 28.6066 0
123.182 23.9519 0
4.01296 42.4675 0
1.19187 38.3343 0
113.805 5.40492 0
111.942 10.048 0
235.376 -2.19177 0
230.397 -2.18165 0
112.611 42.1585 0
111.995 37.2006 0
486.152 32.7401 0
488.613 28.387 0
218.182 36.5318 0
213.356 35.1929 0
135.742 26.6349 0
130.781 27.2503 0
388.947 14.4923 0
387.206 9.80614 0
479.158 -21.3764 0
474.788 -18.9486 0
405.381 -13.2357 0
410.275 -14.2286 0
186.284 12.9242 0
191.273 12.9005 0
436.873 -8.54413 0
441.867 -8.38388 0
449.636 16.461 0
446.316 20.2021 0
44.0642 20.155 0
46.8432 24.3085 0
393.822 -1.90773 0
392.489 2.91467 0
19.2411 13.0084 0
17.5452 8.30095 0
55.6105 51.3662 0
57.3147 46.6676 0
344.959 23.6021 0
345.285 18.6129 0
254.113 48.7428 0
258.738 46.7984 0
268.759 20.1569 0
267.238 24.9212 0
232.014 12.1683 0
232.596 7.19903 0
277.207 13.119 0
280.885 9.73345 0
378.959 13.8542 0
374.942 10.8828 0
16.2167 27.8147 0
11.3918 26.5204 0
185.902 32.7787 0
189.993 29.9007 0
337.071 42.5659 0
340.931 45.7522 0
172.918 22.7449 0
170.776 18.2288 0
168.897 22.547 0
173.821 23.3996 0
51.4607 45.9249 0
56.4638 46.3602 0
122.323 31.3377 0
117.322 31.4902 0
252.322 -6.01692 0
248.015 -3.50708 0
189.54 3.1123 0
190.225 8.0715 0
96.0346 53.8062 0
100.824 55.3327 0
335.221 26.4853 0
338.448 22.6621 0
251.738 14.7296 0
247.399 17.21 0
441.119 12.6062 0
439.22 17.233 0
369.699 26.3594 0
366.105 22.8842 0
286.913 32.5718 0
287.968 27.6858 0
160.888 12.9321 0
156.09 14.2968 0
33.1543 38.3417 0
32.3316 33.4125 0
394.363 21.4946 0
393.04 26.3154 0
192.394 44.9751 0
197.213 46.3671 0
430.192 -2.69584 0
427.274 1.36614 0
410.62 3.09409 0
405.687 2.30779 0
443.242 4.80532 0
448.161 5.6871 0
332.427 40.5196 0
328.462 43.5786 0
267.794 21.9407 0
266.604 17.0853 0
460.966 12.633 0
460.08 17.5545 0
496.282 -14.6433 0
492.479 -17.8881 0
168.104 30.366 0
172.823 28.7006 0
287.351 1.29768 0
290.044 5.51017 0
159.833 30.0643 0
157.514 34.496 0
19.8364 29.3126 0
20.1508 34.3016 0
109.999 55.7548 0
105.773 53.0492 0
71.6845 20.8656 0
76.3068 18.9797 0
468.595 5.77499 0
469.988 10.5763 0
160.779 41.7106 0
157.301 38.1153 0
223.218 24.9982 0
218.223 25.2394 0
212.249 -0.585355 0
207.306 0.00569588 0
205.176 39.8666 0
206.633 35.0826 0
71.3263 1.8642 0
69.9044 6.66385 0
226.116 33.0618 0
229.618 36.6325 0
446.04 10.7663 0
441.702 8.28331 0
349.974 44.3262 0
348.647 39.5081 0
285.008 42.5498 0
285.216 47.5411 0
498.509 -1.16958 0
496.62 3.46143 0
44.1127 45.6519 0
43.829 50.6376 0
454.5 3.64572 0
453.353 8.51371 0
105.2 40.5822 0
102.107 44.5211 0
314.632 5.63794 0
314.258 10.626 0
44.7978 1.4424 0
42.5061 5.887 0
83.7565 11.5328 0
82.9137 16.4665 0
28.9377 54.8398 0
23.9049 54.6676 0
334.549 24.1408 0
333.421 29.0121 0
84.038 43.1579 0
84.6675 48.1121 0
71.6126 24.7439 0
70.9239 29.6974 0
222.908 15.4526 0
227.454 13.3826 0
83.8613 14.701 0
86.6533 10.5555 0
258.445 46.5884 0
257.229 41.7423 0
208.721 12.3055 0
203.789 11.5667 0
280.939 7.79912 0
276.12 9.11105 0
127.698 53.6135 0
127.68 48.6203 0
477.443 -18.2078 0
482.062 -16.2976 0
368.066 21.967 0
363.134 22.8057 0
89.3577 4.52393 0
91.6271 0.0675498 0
278.84 36.1991 0
280.287 40.9824 0
60.4698 47.3351 0
62.6698 51.8237 0
134.283 56.6971 0
130.22 53.7545 0
63.7075 33.437 0
65.9927 37.8824 0
67.5831 6.33483 0
71.9156 8.79195 0
476.293 -5.9528 0
475.454 -10.8819 0
409.71 1.0683 0
414.332 -0.831149 0
77.8082 6.0008 0
81.3021 9.56533 0
447.871 -8.95395 0
442.88 -9.19231 0
328.198 -12.0356 0
323.857 -9.57616 0
153.435 46.2604 0
157.955 44.0855 0
396.636 33.803 0
400.577 36.8822 0
164.293 36.0401 0
160.297 39.0594 0
78.0129 6.98823 0
73.0719 6.44062 0
314.787 10.5143 0
311.613 6.65469 0
449.391 -6.38806 0
446.331 -10.3407 0
198.514 3.36828 0
203.464 2.8152 0
130.744 -1.72514 0
135.403 0.0172647 0
484.173 3.01534 0
486.359 -1.48341 0
494.607 10.5103 0
489.878 8.89372 0
127.555 3.66592 0
132.523 3.90456 0
142.34 29.8616 0
146.468 32.684 0
188.411 49.7004 0
185.489 53.7654 0
361.006 9.35864 0
363.668 5.12449 0
287.527 29.8151 0
292.53 29.9502 0
418.048 16.682 0
417.613 21.6632 0
269.997 -0.161523 0
274.061 -3.05808 0
467.011 -16.9626 0
468.741 -21.6539 0
172.984 10.2223 0
170.422 5.92953 0
63.9708 32.4813 0
58.9903 32.9711 0
260.988 14.8889 0
263.556 19.1775 0
86.8056 36.6444 0
87.9801 31.7842 0
474.969 -0.611321 0
470.17 0.792506 0
309.541 -4.80381 0
310.107 0.167314 0
181.34 2.68279 0
184.671 6.40481 0
443.636 13.6574 0
440.459 9.79836 0
76.7463 16.9025 0
71.9681 15.4799 0
330.679 -8.62077 0
327.08 -5.15712 0
449.222 14.2485 0
454.221 14.1388 0
361.044 24.0897 0
365.915 25.2282 0
474.927 11.4585 0
470.678 14.0962 0
121.377 9.86321 0
120.314 4.97156 0
265.332 28.5878 0
269.846 30.7437 0
472 29.5189 0
470.26 34.2068 0
35.552 9.58825 0
39.5547 12.5595 0
151.932 38.7685 0
156.944 38.7398 0
350.766 2.81022 0
348.041 7.00279 0
465.07 24.6921 0
464.274 19.7562 0
351.729 10.6992 0
346.895 9.43484 0
471.039 29.4287 0
466.057 29.0001 0
261.278 16.5553 0
258.721 12.2606 0
402.289 26.5574 0
399.716 30.8483 0
369.403 6.99808 0
369.906 11.9729 0
251.833 11.7931 0
246.843 11.9638 0
202.562 13.6548 0
206.791 11.0015 0
171.614 37.3883 0
176.141 35.2465 0
342.229 41.112 0
339.481 45.2928 0
181.258 28.8044 0
183.52 24.3411 0
154.387 56.339 0
151.022 52.6304 0
393.791 31.5676 0
388.839 30.8406 0
281.135 -3.84826 0
276.684 -1.5969 0
356.242 -7.42043 0
355.692 -12.3932 0
181.536 0.789654 0
183.841 -3.64688 0
355.063 19.9497 0
358.825 23.2413 0
447.845 18.9486 0
449.702 23.5898 0
148.254 52.3467 0
145.94 56.7809 0
272.787 35.3104 0
277.615 36.6394 0
20.4654 37.1756 0
17.7524 32.9766 0
410.592 -2.82956 0
408.193 1.55817 0
473.2 -17.5259 0
476.611 -21.1822 0
151.708 38.8838 0
156.54 40.2124 0
63.3524 5.09111 0
66.0805 0.905679 0
357.118 30.4044 0
355.09 25.8357 0
359.273 0.246356 0
355.194 -2.63739 0
44.8542 41.9323 0
43.1014 37.2524 0
92.6746 43.7845 0
97.6435 44.4898 0
235.76 29.0823 0
232.546 25.2539 0
443.985 10.4563 0
448.886 11.4406 0
66.9437 7.70634 0
71.4523 9.82004 0
302.499 32.5517 0
307.466 31.8982 0
389.303 17.3543 0
386.118 13.5046 0
307.477 -6.38274 0
302.873 -8.30218 0
199.068 40.8606 0
201.235 45.3635 0
324.167 23.336 0
321.328 19.2219 0
22.6614 4.41393 0
17.8381 5.59719 0
318.956 -4.43161 0
314.922 -1.48879 0
112.317 48.8801 0
117.223 47.8025 0
451.713 -0.790738 0
454.672 3.23741 0
279.804 -3.82133 0
275.533 -1.24414 0
327.093 0.0824046 0
322.384 1.74106 0
343.924 38.6026 0
344.894 43.5047 0
380.809 0.404769 0
380.676 5.40401 0
263.897 -4.29009 0
267.371 -7.8749 0
373.984 41.9632 0
372.547 37.1762 0
20.1287 41.3855 0
20.9915 46.3055 0
14.3766 8.22432 0
9.95108 10.5042 0
53.2128 10.9349 0
50.4917 15.1278 0
18.7734 44.1915 0
14.2582 46.382 0
384.941 26.3042 0
380.944 29.314 0
382.438 28.0711 0
378.453 31.0962 0
86.7572 20.1168 0
87.9084 15.247 0
96.1507 55.3478 0
91.3103 56.7249 0
458.452 -16.8973 0
453.993 -19.1545 0
313.189 9.24465 0
309.909 5.47536 0
162.878 37.2901 0
158.301 35.2632 0
449.914 -17.1384 0
452.744 -21.2603 0
194.395 44.3708 0
199.372 43.7242 0
421.561 -10.0777 0
423.154 -5.33759 0
255.046 42.3485 0
259.895 43.6204 0
57.5236 15.6978 0
56.4514 20.5855 0
56.3182 33.8255 0
60.9976 35.5991 0
481.589 -5.1978 0
483.439 -0.553401 0
325.44 2.66267 0
320.938 0.502884 0
30.2035 28.1424 0
26.0902 25.3075 0
292.51 47.1513 0
287.843 45.3192 0
312.963 29.0462 0
313.437 24.0686 0
325.34 27.6886 0
328.377 31.6602 0
414.467 28.0115 0
409.473 28.3215 0
179.173 22.1821 0
174.515 20.378 0
37.1578 42.2951 0
41.3554 39.5576 0
383.936 -3.05595 0
385.036 1.82334 0
5.34278 13.3298 0
4.04632 8.49978 0
56.3016 40.2741 0
55.9672 45.2588 0
260.357 42.4232 0
261.431 47.3026 0
141.877 19.9321 0
146.852 20.3484 0
304.239 -6.5328 0
299.532 -8.17818 0
281.278 47.5631 0
285.96 49.3617 0
259.689 42.9081 0
255.22 45.1788 0
484.505 19.6094 0
487.316 15.4728 0
43.4276 55.2375 0
48.4624 55.1594 0
58.7764 10.9227 0
59.4177 15.8871 0
132.068 52.8142 0
135.998 55.9278 0
378.403 8.88795 0
383.131 7.25939 0
10.6646 31.9991 0
12.0938 36.789 0
490.492 -6.95991 0
486.278 -9.64784 0
153.228 -1.25207 0
155.794 3.03858 0
23.1465 43.5858 0
21.3399 38.9265 0
396.422 28.9536 0
395.965 23.9768 0
383.937 -2.878 0
388.593 -1.06819 0
230.317 23.5561 0
227.032 19.7895 0
402.906 24.4873 0
398.213 26.2242 0
82.5751 5.98511 0
87.3538 4.6129 0
376.252 35.4533 0
381.058 34.0476 0
431.52 -2.25432 0
436.516 -2.12254 0
425.034 2.56979 0
429.875 1.32688 0
472.494 33.178 0
477.377 32.098 0
310.365 34.3502 0
305.373 34.7628 0
48.3521 10.5099 0
50.953 6.24136 0
226.355 3.34886 0
221.503 4.4909 0
494.35 -10.1737 0
494.061 -15.166 0
37.335 47.6938 0
36.067 52.5258 0
463.537 30.466 0
466.558 26.4801 0
72.4038 35.4998 0
69.2473 31.6237 0
198.907 51.4967 0
199.407 46.5263 0
131.179 44.7693 0
134.983 41.5079 0
453.167 18.8872 0
450.259 22.9567 0
239.919 25.454 0
241.039 20.5803 0
82.9948 3.32429 0
85.0055 7.90581 0
414.733 28.3218 0
417.513 24.1637 0
451.359 26.4905 0
450.601 31.4326 0
188.483 1.59559 0
192.737 4.19571 0
69.1256 13.2013 0
74.0672 12.5866 0
290.784 34.8655 0
287.435 38.5847 0
65.4547 17.7251 0
70.2501 16.3584 0
155.716 22.2354 0
159.565 25.4217 0
20.8484 17.9846 0
25.6891 16.8004 0
298.589 30.6981 0
293.646 29.9111 0
244.81 31.2047 0
243.319 26.434 0
333.541 -10.5373 0
337.766 -7.87676 0
283.258 41.4339 0
278.824 43.7712 0
250.018 21.1118 0
253.381 17.4101 0
57.7051 9.88457 0
62.0848 12.2598 0
342.711 -10.1584 0
347.5 -8.75938 0
99.8091 14.4309 0
103.106 18.1778 0
170.047 18.8996 0
168.708 23.719 0
466.86 18.7187 0
468.526 23.4322 0
200.08 -1.527 0
195.492 -3.46267 0
26.4636 30.3177 0
24.2407 25.8407 0
419.271 33.0697 0
421.849 37.3533 0
122.328 36.987 0
126.117 40.2542 0
280.689 -5.08542 0
275.922 -6.54313 0
18.909 37.3305 0
14.5854 39.8621 0
382.468 0.892932 0
383.044 -4.07575 0
265.49 26.7612 0
264.176 31.586 0
416.503 27.8951 0
419.141 32.1422 0
243.735 -3.74859 0
247.416 -7.11741 0
309.929 32.3991 0
311.453 27.6358 0
6.41008 38.8332 0
8.5117 34.2954 0
338.985 20.0838 0
335.231 23.3911 0
298.155 45.237 0
302.178 48.2181 0
322.991 35.9791 0
322.188 40.9125 0
381.443 37.7163 0
376.936 35.5386 0
460.475 25.1583 0
457.844 20.9077 0
75.5716 20.5803 0
80.493 21.4134 0
200.229 9.04869 0
196.893 12.7692 0
367.87 -5.41765 0
371.522 -8.82722 0
404.492 23.1043 0
402.892 27.8439 0
457.917 0.621077 0
454.607 -3.12433 0
42.1641 55.1815 0
46.4823 52.6146 0
304.613 -7.01193 0
307.283 -11.2373 0
248.745 26.3805 0
249.253 31.3533 0
455.456 -9.81005 0
458.958 -6.24436 0
395.305 33.1556 0
391.732 29.6589 0
343.457 25.9283 0
341.52 30.5392 0
289.828 41.8321 0
294.581 40.2364 0
298.718 8.43003 0
303.375 6.63339 0
81.8561 4.17058 0
80.9467 -0.755872 0
171.218 28.1275 0
174.883 24.722 0
384.791 6.58678 0
389.779 6.23434 0
323.044 23.801 0
323.799 28.7422 0
267.213 44.3029 0
263.378 41.0857 0
398.902 33.9955 0
393.951 34.7371 0
137.904 18.5025 0
136.607 23.3334 0
384.375 25.3737 0
389.087 23.6962 0
453.717 13.3123 0
452.333 8.50824 0
324.645 10.7736 0
321.538 6.8589 0
377.316 18.3572 0
379.691 22.7552 0
235.671 -0.45336 0
231.257 1.86765 0
42.7141 11.2552 0
45.652 15.2957 0
111.584 49.6445 0
107.011 47.5789 0
180.083 16.2449 0
184.201 13.4173 0
295.197 38.4658 0
291.137 35.5423 0
109.832 46.1774 0
114.669 47.5203 0
70.8555 6.93397 0
67.8058 2.97871 0
295.557 -10.534 0
290.577 -10.4594 0
426.614 29.9003 0
422.95 26.4977 0
88.948 56.4083 0
84.0176 57.4318 0
402.687 29.7157 0
400.188 25.3872 0
169.309 4.20898 0
168.85 9.19318 0
484.02 26.8334 0
488.537 28.9747 0
136.908 0.42881 0
141.841 -0.180842 0
420.707 -13.4081 0
421.223 -18.3829 0
344.136 40.0832 0
341.908 44.5608 0
37.1925 55.3367 0
32.3477 56.7042 0
47.564 36.3889 0
45.5374 40.9606 0
492.195 -21.948 0
487.36 -20.6755 0
213.045 46.7713 0
215.627 51.0529 0
100.009 40.7492 0
104.448 43.0757 0
55.9228 50.5932 0
54.3086 45.8651 0
217.358 18.613 0
220.699 22.3303 0
314.57 -9.35361 0
319.002 -7.06039 0
447.871 -18.6192 0
445.654 -14.137 0
59.1358 57.2703 0
64.1732 57.2425 0
146.949 30.6496 0
151.162 33.3442 0
218.046 19.4664 0
215.743 23.9058 0
148.997 40.4126 0
151.437 36.0455 0
122.573 33.7309 0
119.38 37.5838 0
143.201 6.11851 0
143.435 11.119 0
311.359 7.57878 0
312.346 12.4805 0
178.954 53.9339 0
182.609 50.5035 0
346.842 -9.64048 0
348.635 -14.3093 0
298.742 0.626917 0
303.707 1.11152 0
373.613 32.2474 0
378.498 31.1515 0
360.178 17.0071 0
365.13 17.6971 0
235.116 38.8334 0
230.504 36.8813 0
150.6 50.8732 0
150.544 55.8659 0
217.052 28.7269 0
212.049 28.7409 0
416.727 -15.3557 0
415.401 -10.5335 0
202.834 45.5442 0
206.371 49.0853 0
50.1226 41.0128 0
53.5703 37.3829 0
258.347 -0.263655 0
256.084 4.19504 0
53.6332 37.5813 0
49.9282 34.2212 0
248.923 11.2729 0
249.92 6.37035 0
265.138 18.7511 0
269.916 20.2168 0
439.421 33.7176 0
443.121 37.0816 0
107.139 39.6876 0
106.553 44.6504 0
285.304 23.5787 0
282.872 19.2134 0
494.892 -17.862 0
493.937 -22.7702 0
400.201 32.4467 0
403.772 35.9457 0
279.456 8.55056 0
284.177 10.1815 0
312.332 7.63126 0
310.737 2.89196 0
64.8536 13.2992 0
61.4233 16.9297 0
415.568 0.724304 0
412.036 4.26387 0
145.193 46.3146 0
149.008 49.56 0
85.5487 42.7273 0
83.4534 47.2662 0
288.376 36.3693 0
284.148 33.6918 0
166.849 55.4945 0
171.584 53.8065 0
178.464 55.4013 0
182.623 52.5926 0
135.052 43.2446 0
130.743 40.6912 0
392.092 30.5337 0
390.707 35.3377 0
1.54535 38.9975 0
6.22541 40.7905 0
432.864 30.6505 0
433.696 35.5797 0
138.282 24.8123 0
139.429 29.6781 0
113.824 53.0912 0
117.844 56.0894 0
39.6113 16.6175 0
44.3345 15.0275 0
46.2014 9.04479 0
41.2836 9.7809 0
33.2962 32.3119 0
28.7118 30.3155 0
420.84 14.8882 0
417.795 10.9243 0
190.489 48.5038 0
188.449 53.069 0
3.84388 42.0963 0
8.7189 43.2792 0
353.538 -6.32386 0
358.146 -4.40342 0
322.999 16.2465 0
327.017 13.2692 0
411.016 -16.8697 0
412.575 -12.1177 0
370.282 38.0376 0
371.905 42.7651 0
403.062 40.1196 0
407.949 39.0298 0
283.16 46.4248 0
287.921 44.8446 0
94.6217 54.2578 0
91.8369 58.4183 0
461.75 35.472 0
466.627 34.3587 0
461.057 -1.1498 0
466.053 -1.29753 0
383.579 20.7577 0
379.027 18.6921 0
404.475 -6.59792 0
404.358 -1.59865 0
409.845 12.9599 0
408.857 17.8645 0
378.245 23.5842 0
373.701 25.6785 0
321.511 25.692 0
324.665 29.5704 0
347.364 32.9941 0
351.496 30.1689 0
322.942 -3.78389 0
325.295 0.627822 0
379.69 3.64978 0
380.954 -1.18932 0
43.0386 55.7529 0
48.0745 55.8025 0
73.9391 44.3947 0
74.7383 49.3252 0
333.305 0.54676 0
337.607 -1.98973 0
364.744 9.44636 0
359.813 8.63559 0
77.0109 28.8713 0
72.3555 27.0564 0
372.337 23.5661 0
373.181 28.4935 0
199.3 11.2368 0
194.327 11.5914 0
101.861 48.2192 0
106.854 48.7768 0
422.63 2.87385 0
418.623 5.86476 0
325.55 -3.88179 0
329.386 -0.682262 0
190.11 1.18744 0
187.002 -2.72316 0
435.27 19.4048 0
437.174 14.7802 0
377.978 16.2777 0
374.883 12.354 0
240.895 12.2001 0
241.903 7.2998 0
145.263 19.4439 0
150.016 17.9168 0
422.923 22.7089 0
419.573 26.4242 0
355.462 40.5978 0
351.462 37.591 0
456.673 5.44644 0
458.1 10.238 0
448.882 -1.83998 0
453.833 -1.15724 0
234.535 6.91307 0
231.483 2.95631 0
218.007 43.0706 0
215.299 38.8677 0
483.07 -0.250294 0
485.887 3.87869 0
305.439 32.2258 0
309.596 35.0099 0
361.322 34.9395 0
356.442 33.8176 0
447.99 29.8852 0
452.983 30.1876 0
218.265 -5.22605 0
213.766 -3.0874 0
291.603 42.7836 0
296.185 44.8127 0
299.28 48.3463 0
301.497 43.8629 0
412.89 32.3848 0
417.888 32.6355 0
353.76 24.2719 0
349.397 26.7241 0
453.753 24.2195 0
458.613 25.3968 0
342.038 -5.9431 0
343.832 -1.27473 0
333.775 17.9447 0
334.668 13.024 0
133.428 22.1092 0
135.507 17.5603 0
70.7712 45.4969 0
66.1811 43.4784 0
379.099 5.70046 0
384.076 6.16127 0
132.347 14.8993 0
129.511 10.7849 0
385.302 12.5279 0
382.155 16.418 0
57.5015 49.0471 0
62.5155 48.7008 0
269.414 15.0427 0
272.616 18.8789 0
337.483 17.2739 0
332.658 18.5918 0
266.328 31.4937 0
271.108 32.9771 0
282.718 42.7981 0
279.477 46.6135 0
442.218 19.3304 0
446.974 20.8729 0
339.815 38.3967 0
344.792 38.9692 0
476.202 -13.423 0
474.344 -8.77989 0
356.276 24.5121 0
357.556 29.3441 0
117.941 35.9009 0
112.952 36.3471 0
473.717 14.174 0
475.927 18.6577 0
243.766 5.66192 0
243.599 10.6625 0
259.757 11.0348 0
264.545 12.4528 0
52.6455 40.2338 0
53.0048 35.2491 0
108.63 46.8445 0
113.14 49.0417 0
446.185 13.2069 0
449.765 16.6946 0
103.76 9.25848 0
108.349 11.1956 0
146.219 35.778 0
146.858 40.7337 0
134.872 21.0064 0
130.107 22.5031 0
283.161 24.0212 0
287.171 27.0042 0
256.576 39.5163 0
251.832 41.1374 0
361.317 31.9984 0
359.79 36.7593 0
17.2738 44.418 0
12.9077 41.956 0
293.354 35.2991 0
294.962 40.0294 0
475.707 4.05326 0
478.341 8.30145 0
263.556 31.7925 0
266.375 27.6593 0
355.386 -11.473 0
352.033 -7.76892 0
264.612 8.18783 0
259.908 9.86174 0
379.42 41.4721 0
383.45 38.5021 0
390.552 28.9406 0
394.817 31.5518 0
382.993 -8.21529 0
384.306 -13.0421 0
49.3976 3.66199 0
52.9581 0.172277 0
276.743 -0.550738 0
273.79 -4.58373 0
339.53 -10.3074 0
337.049 -5.9671 0
120.739 23.1418 0
116.17 21.1249 0
370.543 27.2618 0
371.622 32.1425 0
169.801 14.9002 0
167.317 10.5622 0
28.8781 43.8088 0
31.3233 39.4451 0
478.086 -17.202 0
482.274 -19.9321 0
398.297 -11.6565 0
393.36 -10.9088 0
487.974 3.75787 0
483.141 5.03854 0
291.059 32.5588 0
292.47 27.764 0
303.059 -7.689 0
298.492 -5.68274 0
449.381 7.74964 0
446.927 3.39447 0
89.6295 2.08193 0
85.5522 4.9426 0
425.558 -18.1332 0
430.54 -17.7725 0
165.741 6.64441 0
167.443 11.3485 0
397.42 -8.23372 0
401.189 -4.95593 0
238.194 -0.988667 0
237.703 3.99202 0
55.6658 17.6521 0
56.7314 22.5396 0
491.943 10.7985 0
492.613 15.7532 0
386.061 15.0505 0
387.185 10.1762 0
213.957 -1.40665 0
209.328 -3.248 0
232.836 36.132 0
236.653 32.8921 0
418.155 -5.34188 0
413.493 -7.13673 0
431.012 36.7412 0
430.239 31.8025 0
34.3186 58.8947 0
29.7805 56.7255 0
283.24 43.1242 0
285.248 47.7009 0
191.053 4.46298 0
186.348 6.10424 0
308.094 -8.0547 0
306.159 -3.44343 0
228.903 35.3685 0
227.692 30.5198 0
429.509 26.2766 0
432.852 29.9945 0
289.121 4.31728 0
289.775 9.27847 0
433.429 -15.7895 0
438.424 -15.847 0
84.869 28.8193 0
81.5183 25.1148 0
433.196 -9.21078 0
431 -13.703 0
465.284 -10.3792 0
465.217 -15.3794 0
15.4587 35.6971 0
14.3294 40.5665 0
384.926 0.282328 0
389.289 2.71973 0
8.12503 19.0207 0
5.27195 14.9208 0
387.104 -7.76595 0
383.005 -4.90852 0
345.342 18.4595 0
350.226 17.3796 0
55.4273 57.7113 0
54.8744 52.7505 0
483.994 19.9421 0
483.615 24.9281 0
155.211 46.4784 0
150.541 48.319 0
141.342 26.9352 0
136.82 24.8074 0
446.237 36.3269 0
450.424 33.5897 0
223.122 36.9695 0
224.939 41.6249 0
74.5075 53.3094 0
75.3669 48.3896 0
54.4776 50.0984 0
53.7184 45.1623 0
337.181 11.263 0
334.511 7.03692 0
204.236 39.0128 0
201.292 34.97 0
13.9012 13.5201 0
18.7299 14.7283 0
12.5662 47.6744 0
7.76913 49.1718 0
139.769 51.4425 0
139.363 46.465 0
309.004 -4.30825 0
304.949 -7.22206 0
252.717 31.8592 0
257.645 32.7372 0
428.463 8.91783 0
424.257 6.21869 0
326.54 38.1669 0
330.471 41.2637 0
156.745 15.2845 0
154.059 19.5017 0
156.742 45.4254 0
158.059 40.6036 0
19.2851 57.8219 0
14.3394 58.7894 0
374.566 37.9622 0
373.415 33.0983 0
204.479 3.77114 0
205.565 -1.11403 0
48.4666 14.8972 0
53.4384 14.6144 0
471.301 8.94629 0
467.638 12.3519 0
362.655 13.3195 0
367.492 14.5785 0
149.246 35.0576 0
144.255 34.6546 0
31.7738 18.6124 0
34.3388 22.9021 0
397.634 -12.1432 0
402.559 -11.3232 0
374.751 17.9586 0
377.137 22.3512 0
195.276 39.3224 0
192.464 43.4626 0
218.906 3.47003 0
217.426 -1.31 0
390.209 15.8051 0
388.032 11.3061 0
445.6 -12.9827 0
450.304 -14.6705 0
437.803 -8.48656 0
442.348 -10.5646 0
405.881 0.814426 0
403.853 -3.7537 0
330.418 28.0403 0
326.32 25.1746 0
308.386 41.9883 0
313.074 40.2156 0
160.313 46.2528 0
155.309 46.6604 0
269.822 20.1702 0
274.818 19.9917 0
370.32 -12.6005 0
369.686 -7.63836 0
279.921 38.1593 0
284.256 35.6516 0
34.5403 55.6708 0
30.1376 53.2508 0
245.916 32.1436 0
250.912 32.4753 0
486.098 -20.9234 0
481.863 -18.2665 0
188.74 -2.33348 0
184.175 -4.31948 0
47.6534 11.9519 0
44.1033 15.4625 0
193.457 34.4827 0
189.948 30.9253 0
215.602 1.47439 0
220.573 1.79075 0
445.209 7.56482 0
449.195 4.54395 0
345.959 13.7987 0
350.875 14.699 0
296.56 41.0351 0
300.309 44.3487 0
385.474 -5.32458 0
389.24 -2.03923 0
139.102 47.1162 0
137.534 51.862 0
361.998 38.2485 0
365.873 41.4143 0
305.034 -7.13689 0
300.374 -5.35883 0
26.2927 20.0919 0
21.6231 21.8509 0
53.9776 0.172946 0
58.86 1.0614 0
172.244 20.0048 0
167.381 18.8717 0
463.415 34.2515 0
458.523 35.2993 0
467.623 16.8554 0
472.065 19.1479 0
160.012 29.6768 0
159.34 34.6309 0
6.21082 56.4721 0
3.53368 52.2457 0
265.617 49.7427 0
269.091 46.1351 0
105.014 9.41985 0
109.438 7.12951 0
122.198 17.4134 0
125.412 21.2387 0
71.793 5.46854 0
72.8338 0.569881 0
88.1733 11.0069 0
87.9744 6.0021 0
13.2101 54.5034 0
8.18738 54.1367 0
241.41 4.28431 0
243.767 8.69372 0
212.105 11.553 0
209.219 7.47331 0
146.327 12.7995 0
144.076 17.2657 0
258.848 6.36535 0
263.716 7.46085 0
268.589 19.8856 0
270.005 24.6796 0
134.716 -1.45252 0
139.657 -1.96917 0
50.8678 24.0494 0
46.2285 22.2078 0
265.31 41.4682 0
270.131 42.8413 0
180.071 40.8443 0
185.01 41.7028 0
24.1192 23.9047 0
28.8627 22.3484 0
242.15 38.1684 0
237.195 37.4217 0
422.576 5.31563 0
420.252 9.74493 0
331.623 8.50516 0
327.486 11.3107 0
269.139 19.1306 0
264.217 20.009 0
6.8065 35.3631 0
6.85304 30.3641 0
447.791 12.0064 0
447.753 17.0064 0
236.443 8.65079 0
237.628 13.5101 0
196.702 -2.67088 0
201.673 -2.88825 0
258.599 43.7255 0
254.28 46.2707 0
205.417 39.8152 0
201.465 42.8969 0
22.0181 37.4333 0
26.9953 36.8538 0
237.736 36.2207 0
235.981 40.9029 0
130.367 47.4045 0
131.217 52.3256 0
126.283 51.0179 0
121.83 53.3386 0
390.568 21.3292 0
395.502 22.1313 0
67.0074 0.756946 0
64.5649 5.11835 0
162.11 47.3702 0
164.499 51.7617 0
232.018 44.0997 0
227.023 43.6352 0
315.674 16.7125 0
320.657 17.1117 0
370.959 30.1955 0
369.011 25.5917 0
189.057 2.41605 0
192.413 -1.28137 0
104.59 45.3493 0
103.55 40.4615 0
244.263 3.24593 0
241.306 -0.783173 0
10.5056 29.44 0
6.23928 32.0497 0
53.8632 42.6513 0
49.4812 40.2231 0
240.65 31.6057 0
236.827 34.8372 0
155.706 7.98137 0
155.369 2.9862 0
267.146 20.7417 0
271.254 17.8889 0
241.668 16.9498 0
244.112 21.3105 0
111.712 18.6459 0
116.202 16.4641 0
145.843 48.6466 0
146.131 43.6597 0
367.131 25.885 0
368.833 30.5852 0
232.006 19.6486 0
228.522 16.0671 0
57.0511 39.7728 0
57.0175 34.7755 0
464.758 -22.0661 0
460.955 -18.8219 0
365.873 31.6187 0
370.113 34.2756 0
64.4416 12.5358 0
64.6024 17.5384 0
86.5386 56.2277 0
91.1344 58.2677 0
401.302 26.8232 0
396.452 28.0598 0
430.885 -9.27276 0
429.138 -4.5867 0
269.993 -3.63227 0
265.085 -4.49689 0
214.228 19.8582 0
217.467 16.0488 0
496.595 22.9147 0
497.454 17.9891 0
236.544 38.9805 0
240.021 42.5783 0
189.737 1.38252 0
185.05 3.06469 0
337.752 33.9513 0
342.379 35.8612 0
180.873 12.8756 0
181.24 17.8642 0
299.981 -5.36763 0
301.03 -0.476398 0
441.942 29.9117 0
445.439 26.3357 0
26.435 56.2271 0
21.5911 54.8597 0
79.0669 1.87013 0
84.0305 1.82391 0
436.241 9.43545 0
432.194 6.50323 0
337.858 41.9992 0
342.282 39.6489 0
455.708 9.1394 0
460.686 9.59656 0
356.13 29.5901 0
355.112 24.6963 0
465.084 -14.1465 0
460.553 -12.0369 0
359.62 -3.92936 0
354.673 -3.25807 0
489.02 10.286 0
489.825 15.2206 0
285.764 2.85192 0
281.575 0.134168 0
284.941 26.9417 0
285.638 21.9895 0
253.939 30.2333 0
252.1 25.5856 0
255.44 -1.35806 0
251.305 -4.15067 0
153.86 21.7716 0
157.342 25.356 0
374.853 4.11581 0
369.89 3.53689 0
234.542 39.0485 0
229.53 38.9478 0
241.053 26.1053 0
245.128 23.2021 0
10.9419 1.87087 0
9.18046 6.55609 0
452.738 35.0174 0
457.578 33.7541 0
363.715 16.7582 0
366.215 21.0868 0
194.939 42.6806 0
194.903 47.6753 0
252.404 6.97159 0
249.379 10.9512 0
204.728 -3.37516 0
209.467 -4.8993 0
286.261 9.25975 0
286.134 4.25781 0
322.904 -4.76551 0
318.521 -7.15308 0
197.926 -1.84328 0
196.055 2.79629 0
124.41 38.9371 0
120.942 35.334 0
172.244 18.3589 0
172.115 13.3582 0
196.448 3.62736 0
193.229 -0.191007 0
148.553 28.1945 0
145.437 24.2868 0
259.052 -7.63816 0
260.56 -2.86654 0
259.148 9.08575 0
255.451 5.72746 0
158.088 48.4703 0
158.829 53.409 0
219.18 -0.768307 0
219.763 4.20314 0
157.96 24.6343 0
153.024 25.4207 0
203.589 51.4472 0
208.085 53.6717 0
406.842 39.044 0
410.805 35.9882 0
437.181 -13.4794 0
436.975 -8.48234 0
130.595 14.8086 0
131.784 19.6672 0
332.493 31.1812 0
337.232 32.7894 0
6.33639 33.1108 0
7.49159 37.9746 0
32.5022 30.4895 0
31.9173 35.4544 0
463.333 -18.3523 0
459.559 -15.0726 0
107.852 2.8551 0
111.833 5.85705 0
456.468 19.969 0
451.489 19.5008 0
293.189 40.3162 0
296.512 44.0536 0
399.381 -6.00706 0
400.872 -1.23555 0
336.033 28.348 0
340.596 30.4 0
490.557 4.14483 0
493.734 8.00328 0
288.031 32.7574 0
283.741 35.3389 0
169.818 8.11863 0
164.846 8.44941 0
279.119 39.7213 0
276.058 35.7672 0
131.987 45.1842 0
127.559 47.5427 0
125.751 30.229 0
121.982 26.9463 0
169.684 24.7464 0
173.28 28.2169 0
371.417 35.9697 0
368.092 32.2342 0
401.58 -10.6561 0
401.443 -15.6561 0
308.359 -3.09894 0
304.054 -5.62481 0
340.522 32.56 0
337.359 28.6876 0
334.515 5.41594 0
330.053 3.17308 0
359.212 -3.10927 0
354.466 -1.55565 0
32.7802 12.2729 0
32.3057 7.28736 0
145.947 5.06949 0
145.869 10.0751 0
330.818 5.2903 0
328.401 0.913928 0
318.227 7.16363 0
313.334 6.17233 0
68.8152 47.1151 0
67.9716 52.0381 0
239.027 12.2838 0
243.746 10.6528 0
78.4728 47.488 0
81.5667 43.5534 0
482.538 23.4501 0
486.662 20.6207 0
22.9935 13.2734 0
27.9636 13.0368 0
318.438 26.2525 0
313.434 26.2355 0
267.574 -8.55233 0
265.756 -3.89309 0
422.913 13.2327 0
419.964 17.2735 0
283.617 3.58191 0
287.323 6.93338 0
398.409 28.4666 0
393.719 26.7288 0
430.715 18.4248 0
435.168 20.6982 0
238.605 37.7882 0
233.593 37.7222 0
215.458 18.1451 0
214.738 23.0937 0
374.936 -10.5291 0
370.139 -9.15078 0
297.759 39.9347 0
293.411 42.4277 0
316.014 24.616 0
320.359 27.091 0
457.693 16.997 0
461.179 20.5791 0
79.9201 17.8309 0
84.8488 17.0662 0
197.703 -1.36027 0
200.568 2.73348 0
8.42795 17.2545 0
10.027 12.514 0
358.906 -3.8795 0
355.238 -7.27178 0
71.8795 46.2357 0
71.0887 41.3029 0
119.69 21.3342 0
116.261 17.7018 0
154.931 27.0424 0
151.727 23.2066 0
318.909 3.4373 0
313.998 2.54631 0
297.051 37.9603 0
300.835 34.6789 0
26.4362 6.72071 0
31.3938 7.02658 0
267.834 47.0643 0
271.464 50.5121 0
472.17 19.8063 0
468.501 16.4112 0
419.705 -1.6419 0
423.589 -4.78891 0
216.559 2.06108 0
221.419 3.16051 0
332.242 2.06377 0
331.872 7.05225 0
178.37 0.296362 0
183.243 -0.705094 0
344.81 2.72659 0
339.974 3.9729 0
419.989 -3.92262 0
423.707 -7.26435 0
82.8687 31.3099 0
87.5515 29.548 0
348.848 31.9647 0
344.143 30.2591 0
348.075 39.2363 0
350.322 43.7019 0
437.605 27.5853 0
439.172 32.3325 0
222.51 18.8595 0
218.496 15.8849 0
207.316 -1.14355 0
211.03 2.1923 0
441.211 34.0381 0
442.157 29.1285 0
332.606 43.9366 0
334.466 39.295 0
42.8795 49.8421 0
47.9037 49.6492 0
164.661 30.2755 0
169.223 28.2193 0
89.5167 38.5259 0
87.2584 42.9852 0
12.2144 54.3903 0
8.68 50.8377 0
180.936 18.7398 0
179.836 13.8612 0
172.812 55.647 0
176.49 52.2393 0
380.895 17.442 0
378.323 13.1567 0
490.311 13.8596 0
488.652 9.14386 0
430.528 -16.1276 0
435.429 -17.0937 0
170.041 44.0469 0
165.151 42.9359 0
130.58 29.0091 0
135.039 31.2713 0
349.147 10.8388 0
344.622 12.9649 0
421.219 -7.43377 0
418.158 -3.48022 0
149.577 6.53323 0
146.695 2.45046 0
323.372 -5.72596 0
318.786 -3.75873 0
149.552 4.40861 0
151.561 -0.171599 0
293.584 32.0621 0
288.62 32.724 0
243.696 29.0029 0
238.963 27.3816 0
378.041 -16.2452 0
376.784 -11.4039 0
319.702 35.1807 0
316.075 31.7371 0
223.025 18.5789 0
226.482 22.1874 0
477.663 -3.67418 0
472.771 -2.64038 0
272.967 10.8928 0
274.286 6.06804 0
70.177 25.801 0
75.1711 25.9409 0
104.727 46.1044 0
106.496 41.4269 0
388.196 37.8062 0
392.915 39.4766 0
497.356 18.3812 0
498.36 13.483 0
208.222 2.34848 0
212.871 0.554835 0
101.765 47.6809 0
100.31 52.4628 0
239.248 37.9738 0
238.59 33.0201 0
389.03 -5.02649 0
394.014 -4.72537 0
247.815 30.9884 0
250.899 34.9236 0
463.446 20.6499 0
468.427 21.0922 0
442.277 0.647393 0
439.371 4.71802 0
43.1006 48.1951 0
39.4582 44.7581 0
138.598 46.1396 0
143.265 47.9809 0
154.229 4.8697 0
158.271 7.79274 0
329.344 34.4394 0
332.82 30.8385 0
468.659 3.94014 0
463.9 5.47508 0
242.57 25.0803 0
247.571 25.0057 0
205.934 12.4375 0
209.395 8.83476 0
498.084 3.84755 0
493.62 1.59999 0
136.396 17.9324 0
132.208 20.6563 0
232.738 7.20612 0
234.905 2.69947 0
367.29 32.108 0
363.057 29.4427 0
25.35 44.3208 0
20.4322 43.319 0
303.981 32.6899 0
301.514 37.0437 0
72.6797 11.0998 0
70.2078 15.4455 0
485.226 13.6203 0
483.332 8.99382 0
173.097 0.555329 0
177.665 2.54182 0
248.983 5.12169 0
251.724 0.941686 0
325.083 11.4147 0
328.473 15.0875 0
24.7549 55.7026 0
25.3463 50.7456 0
225.582 3.0317 0
226.434 -1.90002 0
248.871 21.8265 0
253.239 24.2569 0
276.623 5.42249 0
274.55 9.97336 0
251.821 14.8833 0
247.821 11.891 0
409.769 5.61804 0
409.29 0.641378 0
474.46 15.3952 0
469.556 14.4244 0
29.7808 49.8896 0
24.7609 50.1946 0
161.269 7.80896 0
157.194 4.9317 0
29.1225 20.9981 0
24.3479 22.4488 0
451.577 -13.5706 0
450.303 -8.73444 0
270.88 -7.27063 0
271.872 -2.36503 0
194.41 38.2968 0
193.814 33.337 0
27.9859 26.4441 0
23.2776 24.7807 0
319.299 32.2247 0
318.569 27.2802 0
287.514 38.7842 0
287.605 43.7794 0
158.948 17.6924 0
158.623 12.6999 0
153.612 5.157 0
158.331 3.56599 0
290.647 36.7426 0
287.596 40.709 0
366.854 30.1406 0
370.285 33.7788 0
349.596 0.817337 0
354.589 0.763991 0
342.995 10.7323 0
347.958 10.14 0
315.957 -0.973794 0
320.798 -2.18606 0
298.708 -6.00703 0
300.263 -10.7617 0
204.176 49.7012 0
202.333 45.0568 0
371.915 38.078 0
370.098 33.4212 0
392.448 3.63279 0
387.649 5.03673 0
247.964 23.0093 0
243.251 21.3436 0
222.328 53.3752 0
224.092 48.6978 0
341.805 13.8116 0
336.879 14.6661 0
326.862 34.984 0
323.191 38.3878 0
361.911 0.295484 0
360.182 4.98846 0
139.113 33.6953 0
144.058 34.478 0
435.292 33.2863 0
435.181 28.2884 0
369.313 2.60573 0
373.438 -0.216836 0
61.6395 9.15058 0
57.5592 12.0154 0
97.0016 45.6081 0
97.1094 50.6008 0
272.226 46.4744 0
272.236 41.4783 0
252.733 14.4836 0
253.436 9.53081 0
449.289 -18.9099 0
447.433 -14.2664 0
63.5985 13.5067 0
58.6197 13.4874 0
286.985 4.82202 0
286.289 9.77667 0
329.346 4.02192 0
325.107 1.38092 0
101.938 45.9663 0
97.0023 46.8935 0
290.104 35.6774 0
295.113 35.5478 0
173.94 41.7696 0
172.878 46.6528 0
463.212 -22.7845 0
459.269 -19.7122 0
159.15 33.0675 0
157.127 37.6415 0
125.762 42.0675 0
128.15 37.672 0
447.804 9.12738 0
447.764 14.1275 0
88.3525 4.65937 0
92.7706 6.95242 0
240.61 8.43952 0
245.507 9.39281 0
480.023 1.67555 0
484.841 0.335031 0
153.516 50.686 0
154.425 45.7734 0
81.7412 8.55897 0
84.9666 4.74825 0
251.692 40.6292 0
256.58 39.515 0
341.298 9.9971 0
339.423 14.6338 0
411.385 19.8312 0
411.909 24.8037 0
257.013 49.3054 0
261.013 46.285 0
92.3382 14.2691 0
89.0686 10.4937 0
62.1614 8.50922 0
61.9939 13.5135 0
179.855 36.3368 0
184.177 33.8112 0
344.334 18.8891 0
348.631 21.4439 0
22.7117 2.33793 0
21.2545 7.12801 0
399.882 -16.2909 0
402.541 -12.0576 0
237.925 0.414513 0
242.472 -1.62916 0
163.971 45.8694 0
159.002 45.1683 0
68.066 32.5997 0
72.2336 29.8303 0
446.123 -12.3592 0
441.729 -14.7382 0
203.481 40.4362 0
199.014 42.7131 0
134.082 -1.16583 0
138.946 -2.18316 0
169.374 21.6816 0
173.646 24.2735 0
352.322 16.6357 0
348.665 13.2296 0
83.4242 41.8173 0
83.803 36.8344 0
148.892 46.7386 0
153.535 48.6399 0
486.775 -8.07272 0
490.593 -4.84703 0
327.153 -1.25035 0
330.952 1.99271 0
93.2293 52.1348 0
88.6593 50.0563 0
476.049 21.9428 0
476.673 16.9812 0
487.179 25.7261 0
486.401 20.7871 0
276.628 3.02561 0
281.242 1.12767 0
102.254 43.5303 0
106.454 40.7912 0
214.829 32.3821 0
210.662 35.1607 0
206.28 4.82525 0
209.548 1.04897 0
461.619 23.302 0
465.267 26.7203 0
386.789 34.2886 0
381.988 35.7119 0
83.9465 6.96488 0
84.6492 11.923 0
187.322 22.0238 0
184.682 17.7792 0
188.287 23.2875 0
183.3 22.9339 0
179.946 2.04577 0
183.576 -1.37721 0
350.114 30.5718 0
351.616 35.339 0
470.448 26.1656 0
472.296 21.5187 0
262.78 33.0268 0
267.779 33.3043 0
56.6996 20.1461 0
51.8492 18.9876 0
482.52 -9.27646 0
479.724 -13.4203 0
72.657 50.4962 0
68.2523 52.9079 0
412.926 15.7452 0
417.046 18.5777 0
91.9801 3.11403 0
96.3121 5.56674 0
123.831 38.527 0
122.817 43.4211 0
271.017 20.6862 0
266.035 21.111 0
11.2843 44.3573 0
10.2409 49.2439 0
322.461 44.0265 0
326.51 46.971 0
448.21 23.3426 0
452.96 21.7739 0
202.429 -1.01945 0
206.732 -3.53307 0
190.791 39.184 0
195.036 41.8393 0
177.694 25.4638 0
182.673 25.9041 0
165.722 49.9743 0
168.055 45.5496 0
53.9712 45.1161 0
57.8174 48.326 0
171.983 14.7781 0
175.995 17.7524 0
469.806 11.4475 0
471.955 15.9609 0
236.924 2.73414 0
241.883 3.2363 0
213.103 42.6852 0
212.972 47.6792 0
234.944 42.64 0
235.72 47.5749 0
168.102 48.4242 0
166.395 43.728 0
327.165 34.932 0
324.993 30.4303 0
76.8881 43.1984 0
71.9112 43.8365 0
346.417 36.884 0
345.618 31.9506 0
388.849 4.43195 0
385.421 0.792187 0
166.724 6.54241 0
161.88 7.70829 0
257.628 11.6614 0
259.295 6.94549 0
293.217 30.3876 0
298.165 31.143 0
59.97 14.869 0
64.6549 13.1712 0
252.926 30.4068 0
256.024 34.3309 0
377.765 -2.81938 0
372.959 -1.45846 0
369.53 33.4204 0
372.477 29.3778 0
181.503 36.9747 0
182.073 41.9387 0
298.545 2.02969 0
297.663 -2.89445 0
219.613 36.4479 0
223.337 39.7888 0
95.2482 54.811 0
94.8771 49.8326 0
485.094 0.727771 0
488.104 4.71779 0
265.74 26.6319 0
263.922 31.2915 0
66.2836 41.6577 0
62.2533 38.6885 0
382.955 -15.3988 0
387.939 -15.634 0
410.263 -16.9942 0
406.322 -13.923 0
153.44 5.35977 0
150.941 9.68956 0
119.219 40.4739 0
118.7 45.4431 0
473.983 25.5385 0
478.299 28.0626 0
403.137 -10.3991 0
398.436 -8.70936 0
457.14 6.20382 0
461.174 9.15319 0
378.836 -12.0739 0
380.319 -16.8505 0
86.3293 34.1823 0
89.4088 30.2401 0
438.545 13.1191 0
442.497 16.1795 0
473.736 -3.53204 0
473.762 -8.53243 0
377.603 -6.78148 0
377.538 -11.7837 0
295.21 0.887771 0
293.805 5.69039 0
235.994 19.2988 0
231.889 16.4508 0
263.755 -0.534545 0
260.766 3.47001 0
293.533 46.9307 0
294.669 42.0633 0
325.066 24.9328 0
328.99 21.8279 0
400.537 -13.7673 0
403.795 -17.5575 0
10.9867 13.7402 0
8.781 18.2283 0
489.553 -9.2528 0
491.449 -13.8808 0
415.393 2.90626 0
412.311 -1.02823 0
435.373 -15.5401 0
440.037 -17.3314 0
460.331 12.5344 0
455.814 10.3934 0
342.686 28.119 0
340.126 32.4167 0
93.8644 12.9985 0
97.1157 16.7886 0
461.547 -13.9449 0
460.26 -9.1123 0
306.44 -7.92371 0
304.033 -3.54161 0
45.7648 56.2587 0
50.7803 56.7165 0
110.472 2.63258 0
106.225 0.0322277 0
424.268 -5.42365 0
421.633 -9.67207 0
247.113 45.1104 0
250.391 41.3262 0
318.914 22.5031 0
317.402 17.7381 0
191.745 35.0707 0
194.032 39.513 0
30.8854 5.17947 0
33.0108 9.70718 0
439.222 -17.6201 0
444.016 -19.0258 0
432.866 18.6776 0
432.245 23.639 0
164.319 35.6129 0
168.483 38.3878 0
19.887 53.4932 0
15.4647 55.8824 0
376.254 2.65036 0
372.3 5.71148 0
416.118 14.3718 0
416.546 9.38947 0
375.115 4.15147 0
376.167 9.0393 0
260.02 28.3315 0
255.142 29.4541 0
243.554 7.93975 0
247.633 5.05914 0
274.526 10.1332 0
269.533 10.079 0
283.433 36.4655 0
278.431 36.7477 0
320.568 45.8753 0
316.732 42.6601 0
347.441 12.2144 0
348.96 16.9773 0
206.655 39.5223 0
202.606 36.5784 0
368.086 -3.99172 0
371.14 -7.94892 0
283.12 6.77317 0
287.807 5.05476 0
22.0723 8.13045 0
18.8137 11.9135 0
144.896 10.4025 0
142.048 6.29613 0
224.624 13.9992 0
224.208 9.01358 0
164.613 22.0264 0
161.569 18.0637 0
194.462 7.05026 0
192.786 2.33646 0
20.168 6.63279 0
18.2887 1.99487 0
381.214 23.4941 0
381.346 28.4918 0
346.887 -4.27189 0
341.897 -4.35459 0
190.071 35.5738 0
193.502 39.2112 0
493.374 21.5999 0
494.001 26.5601 0
384.643 33.193 0
385.13 28.2181 0
219.343 -2.32288 0
219.69 2.67112 0
316.572 36.8713 0
321.351 38.3727 0
424.13 28.8366 0
420.398 32.1675 0
432.047 -0.180167 0
436.583 -2.28301 0
358.678 20.422 0
362.739 17.5005 0
13.2729 48.1533 0
13.4053 53.1441 0
185.739 21.5376 0
185.882 26.5356 0
40.7452 5.57678 0
40.5273 10.581 0
172.28 8.11365 0
177.255 7.82316 0
312.668 22.7605 0
312.037 17.8004 0
1.10707 49.5833 0
4.26655 45.6954 0
161.16 41.3029 0
163.685 45.6181 0
17.0006 5.29442 0
12.7018 2.79173 0
329.328 -9.19884 0
333.829 -11.3505 0
62.277 18.6376 0
58.2133 21.5409 0
247.086 15.6733 0
252.029 14.9499 0
287.699 7.37661 0
292.24 5.29975 0
392.025 37.9541 0
388.21 41.1944 0
33.4386 24.3362 0
30.2028 28.1484 0
184.628 34.2802 0
186.591 29.6803 0
488.792 26.5068 0
483.794 26.6539 0
340.126 18.7058 0
343.062 22.7514 0
182.123 11.8491 0
177.75 14.2574 0
70.6713 58.0068 0
75.6887 58.4642 0
368.053 -4.28576 0
364.477 -7.77592 0
381.684 32.204 0
383.325 27.4806 0
61.7508 34.4162 0
58.9631 38.5709 0
249.016 8.45282 0
251.289 3.9985 0
75.6576 20.3736 0
79.9728 17.8612 0
281.734 -7.15482 0
286.058 -4.66581 0
247.185 -3.04008 0
247.907 1.91229 0
182.881 42.5385 0
186.876 45.5583 0
61.7353 34.2897 0
66.6646 33.4158 0
49.6216 19.1429 0
53.2052 15.6635 0
24.7806 24.6964 0
29.4109 22.8262 0
165.815 26.4056 0
161.566 29.0464 0
398.171 28.2306 0
400.868 24.017 0
481.963 2.73606 0
485.145 -1.12332 0
363.999 5.35456 0
359.031 4.822 0
122.743 51.7321 0
117.748 51.176 0
117.432 53.2763 0
115.042 57.6705 0
346.902 24.6785 0
344.737 29.1872 0
94.6039 37.7861 0
90.5938 40.782 0
331.973 4.62906 0
336.035 7.53663 0
43.5152 14.2748 0
46.1551 10.0298 0
492.78 0.443028 0
497.503 2.0805 0
133.503 35.6859 0
129.978 39.2408 0
445.364 1.30693 0
447.237 -3.33075 0
435.709 14.6286 0
438.77 10.6729 0
66.1503 16.3966 0
70.1083 13.3563 0
231.013 7.69867 0
229.242 3.02059 0
420.813 33.3788 0
423.733 29.318 0
108.814 43.4422 0
109.937 48.3099 0
311.935 -2.71315 0
311.222 -7.66568 0
262.023 20.9092 0
257.034 20.595 0
112.168 26.6867 0
108.733 23.0541 0
462.349 15.699 0
458.174 12.9506 0
433.83 -20.459 0
428.875 -19.8361 0
475.37 13.4458 0
471.218 10.6633 0
181.522 47.5421 0
176.809 45.8255 0
334.468 36.413 0
330.327 39.2283 0
148.219 46.8171 0
148.316 41.8225 0
491.042 5.24697 0
495.627 7.23592 0
48.5231 57.9716 0
43.6241 59.1453 0
5.57583 20.8962 0
9.97779 18.5463 0
469.374 34.0788 0
473.253 30.9215 0
117.625 -0.984051 0
122.577 -1.3745 0
273.013 -0.0922146 0
276.805 3.15955 0
102.128 13.4762 0
99.1487 9.46836 0
89.8049 15.8336 0
90.3783 10.8589 0
273.205 44.2096 0
269.709 47.7953 0
199.817 51.344 0
203.964 54.1618 0
411.243 -14.8347 0
406.367 -13.7552 0
273.232 -4.84649 0
275.35 -0.315321 0
369.021 13.0178 0
370.484 17.7976 0
226.213 15.9643 0
230.752 13.8766 0
240.956 36.8245 0
245.839 35.7022 0
370.692 4.14438 0
369.034 8.86291 0
325.286 -7.77584 0
327.915 -12.0271 0
328.081 41.1779 0
331.874 44.443 0
12.6017 51.6273 0
8.08112 49.4394 0
14.4589 33.7112 0
16.4831 38.2814 0
468.515 -13.8345 0
463.525 -14.1162 0
166.33 6.99378 0
162.4 10.0688 0
172.389 45.005 0
175.457 48.9576 0
22.3063 16.0422 0
26.5753 13.4655 0
390.121 5.9421 0
388.164 1.33964 0
422.18 36.5923 0
426.935 38.1506 0
317.582 10.0798 0
317.278 15.0717 0
394.997 -4.1996 0
399.376 -6.60868 0
76.0552 39.9755 0
71.1254 39.0773 0
146.81 26.0179 0
147.324 21.0431 0
23.9764 27.4039 0
27.7034 24.0722 0
136.288 13.3158 0
132.775 9.76741 0
372.478 14.7655 0
370.073 10.3841 0
488.838 -4.81177 0
486.096 -0.628761 0
239.002 48.3491 0
241.293 43.9028 0
81.6866 37.4258 0
86.6029 38.376 0
335.672 39.799 0
340.614 38.9693 0
381.95 -11.5534 0
377.004 -10.8812 0
379.672 0.180103 0
380.794 -4.69404 0
230.212 41.4972 0
234.799 43.5141 0
36.0412 32.4249 0
32.3039 29.1055 0
453.438 33.8151 0
458.378 33.0305 0
8.49525 38.037 0
4.37522 35.1942 0
373.95 28.5827 0
373.52 23.6019 0
275.564 27.7028 0
279.084 31.253 0
325.543 -11.5197 0
330.49 -10.8963 0
155.811 38.0882 0
160.25 40.4061 0
319.902 44.3057 0
324.645 42.6845 0
272.042 17.9652 0
276.668 19.8569 0
224.646 32.3271 0
224.287 37.3123 0
241.696 52.1905 0
237.912 48.9094 0
461.742 -21.0345 0
466.042 -18.4859 0
71.5308 21.3621 0
67.2307 18.8284 0
305.489 7.72876 0
302.546 3.69153 0
147.785 21.9026 0
152.776 22.1079 0
344.133 -6.65832 0
339.566 -8.67329 0
260.056 21.7266 0
263.848 24.9831 0
439.37 10.5206 0
436.257 14.4356 0
248.25 35.9906 0
246.208 31.4288 0
459.316 -8.185 0
463.714 -10.5627 0
206.548 36.3882 0
208.591 31.8208 0
257.656 39.5736 0
252.947 37.8638 0
143.862 8.27564 0
139.512 5.84128 0
67.3243 57.6718 0
72.3609 57.5579 0
163.581 19.2716 0
159.521 16.3644 0
183.746 1.86596 0
188.646 0.991929 0
17.616 37.6723 0
13.8564 40.9806 0
367.042 4.60381 0
371.958 3.70957 0
429.193 11.2456 0
431.622 15.6139 0
418.544 13.6905 0
414.457 16.5765 0
85.3211 4.79529 0
81.4053 7.87963 0
432.813 7.57464 0
428.085 9.20105 0
117.014 10.7775 0
112.992 7.82753 0
250.793 14.7926 0
253.852 10.8377 0
111.627 17.7053 0
107.807 20.9293 0
363.358 -6.39577 0
358.461 -5.42987 0
356.317 23.8385 0
351.356 23.1892 0
323.467 20.0224 0
318.592 18.9112 0
129.047 33.7357 0
124.207 35.0191 0
463.411 -14.677 0
467.381 -17.7163 0
252.622 -1.77118 0
251.015 -6.5099 0
159.555 18.2976 0
164.465 17.3911 0
324.611 -10.4424 0
320.258 -8.0036 0
338.411 3.77227 0
343.288 2.69515 0
459.124 -6.48852 0
457.015 -1.95362 0
88.5437 10.0082 0
91.6107 6.06457 0
160.073 31.6955 0
165.047 32.2477 0
233.636 51.9406 0
230.141 48.3565 0
18.1877 46.406 0
18.9138 51.3463 0
298.823 7.70935 0
293.877 7.04004 0
447.468 21.738 0
447.014 16.7591 0
51.7705 29.5643 0
56.7602 29.2439 0
402.842 -3.72056 0
406.652 -0.488757 0
305.388 35.7085 0
304.198 30.8536 0
131.494 3.67115 0
128.912 7.95074 0
150.088 4.68497 0
146.129 7.71936 0
311.425 2.42266 0
308.971 -1.93349 0
32.3947 6.14556 0
36.512 3.34625 0
358.557 28.2269 0
354.835 24.8888 0
47.4345 19.1631 0
52.1141 17.4376 0
391.434 1.03456 0
395.288 -2.14959 0
6.86991 20.7237 0
4.10373 16.5634 0
439.165 33.7551 0
440.798 38.48 0
477.425 15.0659 0
482.199 13.5796 0
179.381 24.5132 0
174.383 24.6079 0
492.59 -17.3477 0
492.863 -12.3546 0
42.1193 45.3955 0
46.7045 47.4322 0
104.014 4.73102 0
99.5784 6.99437 0
33.2131 25.0118 0
37.5995 22.6217 0
323.428 39.1491 0
325.685 34.686 0
321.832 11.098 0
316.891 11.8471 0
238.102 27.5967 0
233.703 29.9857 0
273.472 39.5343 0
277.202 36.1947 0
53.2787 29.0406 0
58.2592 28.6079 0
440.946 31.879 0
445.736 30.4338 0
305.64 -6.58355 0
308.809 -10.4455 0
123.176 39.7629 0
127.987 38.3577 0
176.964 35.3747 0
180.805 38.5798 0
270.222 -2.68616 0
271.944 -7.38206 0
281.177 41.418 0
284.083 37.3448 0
80.0718 18.4868 0
75.462 20.4028 0
240.162 29.2544 0
243.872 25.8973 0
42.4537 15.9069 0
45.1083 20.1413 0
77.1357 39.6044 0
77.7849 44.5584 0
86.34 48.815 0
83.3706 44.7891 0
491.992 0.953256 0
491.23 -3.98816 0
245.847 39.8257 0
250.808 39.1032 0
486.158 -8.18915 0
484.166 -12.7745 0
305.787 8.00825 0
301.052 6.43288 0
125.881 4.5401 0
126.147 9.5401 0
470.87 4.78969 0
474.852 7.80959 0
141.176 15.2516 0
136.476 13.5821 0
107.215 43.4267 0
102.307 42.3874 0
113.98 32.4262 0
111.337 36.6738 0
467.766 23.2299 0
464.178 26.7147 0
271.746 48.8668 0
276.417 47.0378 0
199.942 45.6816 0
202.611 41.4471 0
12.5802 19.1091 0
15.7369 15.2357 0
429.002 5.28706 0
429.211 10.2831 0
495.698 20.8026 0
490.772 21.6537 0
105.877 7.8201 0
101.677 10.5058 0
380.733 32.2496 0
377.644 36.1852 0
75.4112 50.1942 0
75.1445 45.2071 0
438.134 -4.9293 0
435.74 -9.31841 0
409.604 -18.0518 0
410.153 -13.0802 0
300.387 -7.90163 0
300.32 -2.89792 0
213.831 18.5622 0
210.217 15.1138 0
261.772 45.0185 0
258.953 49.1534 0
61.9782 32.1489 0
61.608 37.1339 0
379.515 15.4007 0
375.635 12.2523 0
471.69 23.2567 0
466.691 23.1359 0
322.014 34.3042 0
322.539 39.2739 0
60.3711 47.2384 0
65.2463 46.0343 0
470.472 -12.1578 0
468.875 -7.41863 0
24.7205 31.7226 0
24.6128 36.7198 0
250.507 14.2597 0
254.858 11.8024 0
454.02 18.3192 0
449.422 16.3564 0
404.733 -9.1582 0
408.753 -6.19165 0
431.563 38.6885 0
426.571 38.3341 0
140.438 42.8186 0
135.439 42.3938 0
8.75605 43.6537 0
3.73739 43.5711 0
379.63 17.4568 0
381.411 12.7821 0
241.111 42.2956 0
241.458 37.3105 0
19.232 25.7239 0
22.7976 22.221 0
38.2328 14.0195 0
33.828 16.3555 0
171.517 49.839 0
170.36 54.699 0
375.282 11.5428 0
370.293 11.8645 0
154.895 15.0828 0
151.859 19.0549 0
219.404 24.7095 0
224.052 26.5523 0
417.626 -10.7306 0
412.975 -8.90849 0
92.8309 39.59 0
95.8957 43.5406 0
78.0473 4.36678 0
73.1991 5.45848 0
62.7879 3.16903 0
58.0714 4.73504 0
265.608 0.917351 0
263.684 5.53383 0
307.423 -3.66386 0
306.668 -8.61035 0
330.388 -0.176304 0
334.374 2.83414 0
44.226 38.0914 0
39.7882 40.4191 0
271.305 40.1763 0
275.156 36.9758 0
47.2321 7.9433 0
51.0035 11.2066 0
103.971 47.0914 0
106.017 42.5269 0
322.145 47.2823 0
319.741 42.8984 0
377.618 -10.6408 0
374.752 -6.54524 0
8.87163 6.65096 0
7.2849 11.3975 0
478.279 21.0569 0
473.292 20.7111 0
129.211 21.392 0
125.536 24.7813 0
354.508 28.4703 0
353.387 33.343 0
437.328 18.2531 0
434.631 14.0445 0
413.147 28.7171 0
417.023 25.553 0
161.04 49.157 0
163.214 44.6532 0
63.8948 16.3999 0
60.7311 12.535 0
138.83 33.1048 0
139.644 38.0355 0
414.306 28.5905 0
419.213 29.5696 0
465.346 9.77254 0
470.317 9.23516 0
207.391 4.38196 0
212.172 5.79131 0
93.402 55.1549 0
88.8356 53.0606 0
421.337 14.2524 0
425.237 11.12 0
242.37 22.1604 0
244.752 26.5545 0
414.049 23.0531 0
409.95 20.1891 0
31.839 33.1842 0
36.6658 31.8626 0
115.364 2.93237 0
110.393 2.94491 0
267.146 38.8455 0
262.178 39.508 0
132.908 11.0519 0
129.724 14.9028 0
132.615 11.662 0
130.276 7.24299 0
319.687 -2.75792 0
314.773 -3.61314 0
41.1882 19.3688 0
43.9969 15.2335 0
21.038 35.3294 0
24.5473 31.7626 0
119.927 37.853 0
115.349 35.8278 0
308.85 14.6595 0
313.338 12.4542 0
190.149 40.8085 0
185.393 42.3986 0
342.494 24.9252 0
338.814 21.5409 0
217.819 45.3528 0
218.511 50.2995 0
278.144 -1.66623 0
274.537 1.78751 0
494.711 29.1935 0
498.152 32.8197 0
417.639 25.7706 0
417.416 20.7761 0
420.697 5.63321 0
422.018 0.808949 0
71.4322 10.2957 0
75.1386 13.6378 0
260.754 36.4255 0
256.182 38.4759 0
491.304 5.68461 0
496.029 4.04939 0
11.6327 43.7727 0
16.3957 45.3522 0
88.865 44.8842 0
92.1923 41.1445 0
90.4592 23.0664 0
87.8602 27.3445 0
55.997 13.4434 0
51.9123 10.5846 0
23.238 51.6423 0
18.9817 54.3084 0
99.8591 7.1459 0
102.756 11.2147 0
115.35 31.4558 0
117.998 27.2136 0
296.713 -4.89442 0
294.639 -9.44566 0
485.804 0.659752 0
490.098 -1.90479 0
337.739 34.2728 0
342.066 36.7873 0
341.982 -2.39471 0
346.414 -0.0931615 0
408.373 22.6865 0
412.832 24.9514 0
52.6806 50.6661 0
57.4791 52.1598 0
168.959 28.2537 0
170.75 32.92 0
17.4346 26.3109 0
17.0047 31.2929 0
481.806 6.24955 0
477.64 9.01574 0
40.2597 22.2603 0
44.2724 19.2866 0
58.6704 29.254 0
55.5776 25.3285 0
158.83 36.0125 0
163.815 36.5067 0
468.588 4.19578 0
472.719 1.37709 0
119.736 55.5448 0
114.865 54.2967 0
17.1869 12.1375 0
15.9655 7.28277 0
334.176 29.7559 0
332.862 34.5799 0
157.08 51.0953 0
161.826 52.7348 0
161.647 29.9964 0
156.648 29.7948 0
350.006 18.7611 0
354.749 17.1734 0
15.129 29.5586 0
14.0837 24.6691 0
6.41023 41.1262 0
4.5386 36.4895 0
3.46217 55.993 0
8.31852 54.6582 0
492.438 24.2772 0
496.157 20.9345 0
12.4938 46.5236 0
17.5184 46.5309 0
416.886 -4.89398 0
412.177 -6.55964 0
51.9453 45.2712 0
55.9303 48.3094 0
394.676 -15.4403 0
398.696 -12.4757 0
152.028 25.2586 0
154.021 29.8422 0
205.199 41.5788 0
207.596 37.1871 0
251.403 13.8323 0
247.329 16.7275 0
63.2467 23.2681 0
64.3741 28.1393 0
268.261 2.84439 0
273.249 2.80329 0
428.024 -17.5427 0
423.033 -17.721 0
366.479 -3.72836 0
362.736 -0.416533 0
34.6831 0.696164 0
39.5776 -0.104882 0
372.692 -6.23162 0
371.396 -11.0629 0
0.433603 39.2404 0
4.16262 42.5835 0
434.119 37.9182 0
432.486 33.1933 0
255.95 42.092 0
259.868 45.2096 0
187.826 25.865 0
188.49 30.8191 0
108.794 55.6243 0
111.84 51.6496 0
47.8239 45.4259 0
43.7518 42.5078 0
17.3285 10.759 0
20.2986 14.7746 0
104.428 48.0547 0
100.277 45.2474 0
241.984 10.3555 0
238.893 14.285 0
306.772 0.8525 0
303.951 -3.2735 0
459.746 17.6203 0
461.794 13.0575 0
477.773 12.4545 0
477.689 17.4543 0
370.828 34.7195 0
366.339 36.9364 0
387.162 40.3311 0
391.685 38.1812 0
312.858 18.3511 0
317.558 16.6446 0
257.027 40.3753 0
261.116 37.4818 0
35.9451 24.2445 0
39.3907 20.6239 0
215.246 7.31608 0
218.936 3.95194 0
52.2213 13.9655 0
49.96 9.50583 0
152.942 48.9093 0
157.939 49.4147 0
464.939 -15.8116 0
461.292 -12.3919 0
234.175 51.6418 0
235.188 46.749 0
61.5218 42.0052 0
66.3745 40.7391 0
5.27236 32.4121 0
10.1711 33.4326 0
128.649 2.81369 0
131.509 6.9119 0
168.629 18.5098 0
167.003 23.2398 0
90.3534 49.8692 0
92.9507 45.5925 0
311.254 -11.5974 0
315.058 -8.36189 0
293.752 -4.82799 0
291.773 -0.23379 0
460.277 6.75598 0
459.036 11.6006 0
480.805 22.4964 0
482.152 27.3112 0
477.907 6.84518 0
482.874 6.27846 0
270.537 5.57675 0
270.7 10.5763 0
383.754 24.5189 0
378.791 25.1457 0
44.5596 51.9531 0
40.2956 49.3081 0
354.824 31.207 0
357.346 26.8873 0
83.2455 49.6592 0
80.5583 45.4412 0
68.1703 50.0941 0
63.4942 48.2658 0
68.6399 49.7293 0
64.9766 53.1517 0
167.498 6.03123 0
172.144 7.83685 0
457.695 -8.24275 0
457.317 -13.2291 0
348.798 1.99158 0
352.999 4.695 0
382.262 36.2727 0
384.842 40.5555 0
82.5157 31.2387 0
87.1938 32.9966 0
58.4308 16.9852 0
55.2434 20.8347 0
358.029 -5.52761 0
362.014 -8.53987 0
8.34753 26.4998 0
8.57344 31.4946 0
73.2746 12.2272 0
73.6086 17.2209 0
303.484 -3.99383 0
307.889 -6.33973 0
188.879 16.8502 0
186.203 12.6251 0
188.15 44.8033 0
188.993 39.879 0
347.634 41.8015 0
350.821 37.9435 0
190.68 12.726 0
190.517 17.7284 0
423.738 7.50739 0
418.939 6.11188 0
426.937 36.6586 0
422.583 34.1958 0
443.251 -10.7787 0
448.139 -9.74635 0
134.112 39.3149 0
138.048 42.4072 0
371.903 -10.4075 0
368.118 -13.6686 0
228.369 -5.0777 0
223.411 -5.513 0
220.634 8.24452 0
218.481 12.7589 0
484.264 7.1732 0
479.567 8.88773 0
486.041 -21.8093 0
490.516 -19.5808 0
157.226 27.7343 0
152.583 25.8837 0
491.252 20.0541 0
495.272 23.0253 0
52.7731 11.89 0
56.1581 15.5601 0
420.059 -9.86403 0
424.151 -12.7325 0
155.948 47.8016 0
154.667 42.9726 0
450.891 19.9732 0
452.476 24.7144 0
205.103 10.2969 0
205.878 15.238 0
34.5336 48.2276 0
34.7468 43.2378 0
116.972 50.3696 0
113.154 53.6209 0
230.817 -6.4869 0
231.233 -1.49767 0
469.768 -0.925354 0
468.266 3.84493 0
51.129 17.1897 0
55.4659 19.655 0
69.4213 29.3414 0
64.4214 29.3623 0
111.019 43.7258 0
106.599 41.3636 0
286.019 37.676 0
290.62 35.6943 0
263.867 33.2556 0
265.149 38.0861 0
391.053 30.8017 0
386.157 29.764 0
256.602 -1.72976 0
258.053 -6.5176 0
314.815 5.19615 0
313.661 0.329289 0
166.939 45.976 0
163.044 42.8289 0
323.913 11.1121 0
325.782 15.7488 0
120.446 24.4947 0
121.391 29.4041 0
170.439 4.2666 0
167.661 0.110765 0
265.923 2.6316 0
263.586 7.05214 0
463.85 11.0624 0
460.832 7.07841 0
0.09483 5.83264 0
2.88084 9.97132 0
431.978 11.2747 0
427.026 10.5963 0
144.598 20.4889 0
147.104 16.1612 0
25.8216 23.1885 0
24.424 27.9913 0
378.916 -11.7681 0
380.393 -6.98927 0
326.899 2.116 0
323.785 -1.79346 0
201.82 43.6428 0
205.728 40.5051 0
177.061 33.9225 0
175.692 38.7317 0
455.657 -6.65676 0
460.603 -5.94288 0
173.416 51.4194 0
178.439 51.583 0
388.895 8.12275 0
384.977 11.2344 0
494.634 18.189 0
489.823 19.5499 0
414.692 13.7394 0
417.832 17.628 0
341.503 33.9888 0
339.457 38.5521 0
313.278 -6.25409 0
315.588 -1.81859 0
356.975 16.387 0
361.462 14.1788 0
105.981 44.9794 0
103.46 40.6608 0
124.537 23.8419 0
127.582 19.8765 0
164.069 32.1088 0
164 37.1066 0
13.1845 35.801 0
16.2098 39.7831 0
270.496 35.2492 0
266.341 38.0455 0
118.773 16.0144 0
119.76 11.1081 0
333.7 10.5651 0
329.547 7.78899 0
273.192 36.8876 0
269.451 33.5664 0
76.1566 16.5259 0
72.1705 13.5238 0
321.834 9.26377 0
325.784 6.20137 0
188.301 49.0591 0
189.443 44.195 0
302.702 37.131 0
307.713 37.1192 0
105.498 16.9953 0
102.221 13.2288 0
273.755 14.0583 0
278.218 11.8065 0
147.083 2.83819 0
152.052 2.60826 0
400.111 28.9795 0
395.117 29.3035 0
461.21 31.1426 0
456.952 33.7677 0
24.4469 33.7475 0
20.2012 31.1056 0
333.209 35.0646 0
335.807 39.3363 0
135.847 27.1008 0
139.363 30.6545 0
17.6941 56.0015 0
12.7164 56.7772 0
56.0243 47.0638 0
51.0187 47.4939 0
6.68901 50.3281 0
8.96197 54.7813 0
436.82 32.9535 0
441.199 35.3701 0
360.054 13.0261 0
365.046 13.288 0
417.671 3.02664 0
412.723 3.73012 0
293.09 47.0895 0
298.093 47.4665 0
116.495 32.2023 0
115.208 37.0343 0
231.408 48.3508 0
236.2 46.8597 0
458.642 -21.0896 0
454.793 -17.901 0
69.5378 37.0402 0
64.5313 36.8774 0
125.824 48.5221 0
120.931 47.3978 0
268.544 25.7438 0
273.09 23.6536 0
97.0967 49.7913 0
93.2479 46.5862 0
446.972 33.2657 0
451.581 31.3191 0
256.812 20.9436 0
259.597 25.0939 0
27.8671 48.7317 0
22.8679 49.2663 0
241.03 7.73174 0
245.322 10.2828 0
268.409 44.1286 0
264.262 46.9436 0
114.881 32.0579 0
119.776 31.0209 0
450.531 -17.5335 0
454.594 -14.623 0
248.086 21.5348 0
244.45 24.9694 0
184.13 34.3449 0
179.234 33.3106 0
455.484 -14.1119 0
460.343 -15.2836 0
417.048 32.856 0
420.821 29.5703 0
353.472 43.7849 0
349.81 40.3745 0
360.103 -6.94221 0
357.473 -11.1945 0
111.559 28.3402 0
115.37 31.5778 0
224.823 50.03 0
220.038 51.5513 0
331.071 7.6161 0
329.128 3.00916 0
54.9219 21.3182 0
55.7994 16.3918 0
156.022 47.8908 0
154.834 52.744 0
10.5122 46.7795 0
6.89104 50.2467 0
350.711 20.5192 0
347.727 24.5339 0
383.817 22.3091 0
381.518 26.7506 0
243.541 18.554 0
242.969 23.522 0
79.9951 51.2822 0
84.0918 54.1779 0
341.36 16.7272 0
346.255 17.7431 0
341.767 41.0227 0
340.48 45.8526 0
162.459 51.7272 0
158.11 54.2349 0
116.108 17.2716 0
112.687 20.9164 0
309.115 7.5275 0
304.552 5.50107 0
142.782 52.5172 0
140.044 48.3315 0
125.649 6.04479 0
129.666 9.00113 0
273.768 0.683962 0
277.6 -2.51573 0
439.217 -11.4773 0
439.873 -6.51959 0
392.874 38.4942 0
388.186 40.2577 0
81.1815 51.6336 0
85.99 50.1709 0
412.767 13.836 0
413.768 8.93586 0
286.564 18.6466 0
285.885 13.6931 0
470.517 -2.17166 0
475.057 -4.2661 0
419.385 23.7967 0
419.82 28.7769 0
478.603 -12.6498 0
482.935 -15.1471 0
226.675 37.6244 0
224.546 42.1501 0
361.493 -11.9442 0
364.411 -7.88494 0
186.124 46.2472 0
185.533 41.2874 0
311.875 35.1854 0
313.628 30.502 0
176.786 30.6437 0
171.989 29.2284 0
292.966 -2.10534 0
296.735 1.16992 0
251.728 17.5097 0
255.791 20.4198 0
363.29 35.9254 0
367.175 39.0785 0
373.211 39.0484 0
368.759 36.7601 0
492.661 -13.0471 0
487.684 -12.5709 0
229.02 50.8242 0
233.444 48.4582 0
467.932 33.1413 0
466.907 28.2479 0
16.8922 45.705 0
21.2371 43.1984 0
480.391 -11.9958 0
480.248 -6.99745 0
145.568 17.3097 0
140.578 17.3063 0
288.049 27.5411 0
292.96 26.5989 0
320.277 29.8828 0
315.321 30.6027 0
407.39 -9.83668 0
404.995 -14.225 0
232.194 17.1308 0
231.479 22.0808 0
120.631 3.14821 0
119.45 8.01269 0
79.917 36.6998 0
75.7814 33.8877 0
142.397 54.2801 0
137.565 55.6728 0
358.579 -10.9097 0
354.947 -7.47971 0
224.676 30.4946 0
228.523 33.69 0
18.5001 43.8367 0
13.9055 45.856 0
208.431 34.6269 0
208.479 39.6243 0
303.095 -2.42708 0
298.341 -0.911364 0
216.456 -2.73271 0
213.688 1.42747 0
353.983 19.0655 0
350.397 15.5834 0
124.519 53.5995 0
119.508 54.0332 0
35.1448 15.0142 0
39.9231 13.6083 0
339.778 1.36867 0
334.789 1.56892 0
152.982 44.2876 0
155.749 48.4537 0
363.116 -4.75795 0
367.383 -7.35311 0
8.09206 21.3569 0
3.54438 23.4149 0
414.657 -18.0411 0
417.632 -14.0228 0
63.6594 26.8146 0
59.5133 24.0288 0
121.188 45.3992 0
116.225 46.1614 0
155.877 33.9859 0
155.852 28.9871 0
451.382 -17.0394 0
447.107 -19.6281 0
215.7 27.9425 0
213.599 23.4059 0
472.26 6.6523 0
473.243 11.5543 0
75.613 51.5485 0
74.7778 56.4714 0
225.5 17.4336 0
220.505 17.4214 0
290.416 -6.38788 0
294.506 -3.52802 0
225.106 9.25861 0
222.232 13.3495 0
451.303 30.7082 0
456.037 32.3222 0
243.094 42.6684 0
247.477 40.2379 0
106.828 55.8334 0
102.161 53.9704 0
420.707 12.5163 0
416.863 15.7173 0
175.719 2.95916 0
180.028 5.46901 0
189.956 36.8252 0
193.688 40.1567 0
352.557 8.33126 0
353.538 3.42688 0
292.337 46.9658 0
296.069 43.6241 0
33.4845 47.176 0
31.7306 51.856 0
474.352 4.07671 0
473.466 -0.843969 0
109.951 17.6532 0
112.603 13.4141 0
142.772 37.2793 0
137.776 36.9048 0
160.303 40.1141 0
159.073 44.9588 0
160.397 0.597757 0
157.529 4.68887 0
228.829 30.6614 0
232.472 27.2311 0
392.376 -9.09343 0
388.185 -11.8104 0
101.824 52.1838 0
97.0217 53.6747 0
233.403 8.22387 0
235.559 12.735 0
225.971 27.084 0
221.377 29.0682 0
441.937 21.2908 0
446.932 21.5418 0
399.616 -10.6676 0
396.825 -14.8143 0
223.619 3.67983 0
228.261 5.50149 0
266.523 29.9464 0
269.059 34.2539 0
92.8243 49.2007 0
88.5601 46.5638 0
278.65 17.6515 0
279.041 12.666 0
76.7796 32.9974 0
81.7723 32.6725 0
363.033 24.7086 0
367.839 23.3142 0
179.086 15.2862 0
174.144 14.5848 0
163.436 44.8067 0
158.798 46.7206 0
200.34 -0.221943 0
195.95 2.13927 0
394.311 -13.3903 0
399.188 -14.4583 0
359.021 6.33282 0
355.451 2.83654 0
217.261 14.7982 0
212.898 12.3717 0
35.8041 34.0859 0
34.4041 29.2875 0
393.951 -14.3854 0
390.247 -11.0323 0
78.6758 57.2656 0
75.6893 53.2484 0
12.0999 59.2241 0
17.0929 58.5296 0
238.525 20.4177 0
243.492 20.9677 0
251.096 26.2564 0
247.817 22.4831 0
445.492 6.59342 0
446.371 11.5151 0
249.519 17.922 0
250.25 12.9739 0
106.137 51.4268 0
109.977 54.6486 0
435.026 8.51198 0
438.54 4.95272 0
215.447 31.3837 0
212.211 27.5732 0
316.702 23.3709 0
321.086 20.9591 0
350.88 1.87947 0
352.865 6.46816 0
446.697 28.7034 0
447.973 23.8688 0
64.011 15.8104 0
59.8614 18.584 0
103.501 39.4927 0
106.571 43.4424 0
275.929 -3.30491 0
270.947 -3.43015 0
284.307 18.7578 0
283.507 23.6952 0
298.395 7.31434 0
303.284 6.31268 0
54.9663 6.8772 0
58.6173 10.2764 0
174.22 28.6517 0
170.456 25.3634 0
189.122 17.5723 0
193.874 16.0233 0
252.683 35.9886 0
252.349 40.9749 0
22.1646 33.4078 0
17.1596 33.3834 0
492.41 22.7422 0
487.417 22.4935 0
150.771 6.34318 0
146.285 8.51453 0
392.748 -0.773695 0
391.583 4.09215 0
33.9795 10.7472 0
31.7811 6.25523 0
325.485 32.4095 0
330.471 31.9387 0
262.845 4.9733 0
260.193 9.21158 0
425.979 32.1639 0
430.793 33.5283 0
450.552 5.72532 0
445.851 4.02866 0
314.519 28.9576 0
309.524 29.298 0
434.9 16.3924 0
432.826 11.8444 0
286.008 -4.51245 0
290.52 -6.63551 0
283.771 49.3483 0
288.268 47.126 0
418.349 -14.2191 0
413.359 -14.428 0
234.986 7.28218 0
238.43 10.9004 0
446.186 2.42202 0
443.315 6.51775 0
124.853 22.1414 0
126.557 17.4384 0
173.506 41.1514 0
169.573 38.0564 0
255.133 37.7211 0
257.951 41.8511 0
211.289 34.1756 0
206.649 36.0671 0
272.111 -2.50775 0
271.586 2.46846 0
105.84 52.5646 0
105.29 47.6009 0
450.253 6.91866 0
445.962 9.4872 0
14.6548 57.6397 0
17.2411 53.3564 0
348.384 30.3645 0
345.474 34.4348 0
383.704 8.7893 0
384.421 3.8398 0
29.5711 4.66843 0
24.9702 2.79043 0
126.624 33.435 0
125.55 38.3174 0
160.628 44.1696 0
161.165 49.1354 0
59.4116 13.2861 0
63.6528 15.9089 0
333.078 24.9557 0
336.367 21.1858 0
456.437 -15.991 0
455.428 -11.0929 0
7.60252 18.9981 0
10.9265 15.2695 0
290.799 2.65551 0
293.843 -1.30968 0
246.506 2.6886 0
248.189 7.39878 0
486.688 4.40789 0
491.513 3.09745 0
391.896 -7.16064 0
394.838 -11.2038 0
380.971 28.2625 0
376.366 26.3097 0
219.494 39.838 0
224.428 40.7192 0
98.4861 16.6801 0
93.5345 17.244 0
313.604 31.7173 0
313.687 36.7148 0
148.419 32.5831 0
148.935 27.6101 0
147.785 53.644 0
150.808 49.6521 0
34.8972 51.6531 0
33.5556 46.8419 0
334.411 -7.90852 0
339.389 -7.58049 0
458.411 -14.1607 0
463.286 -13.0613 0
452.747 -16.8373 0
449.715 -12.8618 0
48.9528 6.65627 0
46.4884 11.0063 0
126.678 11.9033 0
124.958 7.20557 0
288.74 17.9809 0
283.794 17.2601 0
371.97 40.7785 0
373.391 35.9855 0
23.8003 54.2077 0
28.6199 55.6539 0
257.711 20.6087 0
260.777 24.5555 0
159.399 34.8262 0
164.4 35.0973 0
348.122 35.8293 0
352.473 38.3031 0
405.359 34.3979 0
400.355 34.5298 0
88.8264 16.234 0
89.0907 11.2333 0
283.56 46.2714 0
288.578 46.2776 0
227.946 24.0948 0
223.253 25.8244 0
353.708 -7.28694 0
349.967 -10.5986 0
57.096 10.5705 0
56.6683 5.58053 0
104.815 4.18289 0
108.893 7.04911 0
226.198 32.782 0
223.623 28.4976 0
99.7919 53.4708 0
95.9688 50.2316 0
126.729 26.7009 0
122.236 24.5144 0
268.596 24.5931 0
272.94 27.0677 0
337.43 20.3221 0
339.734 24.7581 0
176.541 12.2151 0
176.691 7.21297 0
118.59 46.1258 0
117.083 50.891 0
63.4589 31.9716 0
62.5046 27.0644 0
62.4882 52.3144 0
57.7832 50.5525 0
362.098 8.47085 0
357.122 8.93545 0
351.578 28.2299 0
349.665 32.8505 0
290.689 27.6075 0
288.217 23.265 0
449.352 30.6743 0
451.901 34.9751 0
189.296 46.6905 0
190.015 51.6321 0
450.737 3.63124 0
451.228 8.6072 0
218.124 25.3306 0
220.869 29.5079 0
452.155 2.73231 0
456.912 1.19231 0
444.974 9.86886 0
444.426 4.89898 0
181.148 41.7221 0
185.74 43.7295 0
171.866 19.4568 0
166.975 18.4512 0
367.715 39.777 0
364.36 43.4901 0
146.815 40.9758 0
142.552 38.3497 0
134.804 14.722 0
136.009 19.5766 0
474.412 17.9368 0
476.231 13.278 0
89.2899 42.0781 0
94.2964 42.4028 0
429.612 31.1783 0
426.715 35.2548 0
494.574 -23.8799 0
491.326 -20.0785 0
469.224 -17.3065 0
468.35 -22.2301 0
209.861 53.7198 0
214.237 51.2623 0
85.3213 0.633461 0
88.2057 4.71253 0
213.416 31.2797 0
212.769 36.237 0
158.043 49.0936 0
161.469 45.4391 0
389.547 -12.001 0
393.929 -9.60633 0
278.699 41.8309 0
283.626 42.7597 0
11.3671 54.3879 0
16.4009 54.2333 0
488.712 10.3012 0
493.691 10.7471 0
251.226 38.5387 0
256.1 37.3679 0
71.455 38.3754 0
76.3063 39.6243 0
422.344 -11.5835 0
423.336 -16.4855 0
305.132 29.5327 0
306.25 34.4051 0
427.82 14.118 0
427.233 9.15285 0
449.481 10.74 0
448.572 5.82363 0
68.7573 3.82107 0
67.3753 8.63215 0
452.777 31.0385 0
449.18 34.5139 0
438.69 -3.109 0
439.362 -8.06486 0
188.886 6.22707 0
183.906 6.19089 0
264.406 26.6652 0
261.306 22.7441 0
164.288 1.30352 0
164.318 6.31019 0
117.204 19.3897 0
117.752 14.4158 0
344.685 20.8531 0
339.702 20.4302 0
20.5797 38.8917 0
20.0493 33.9227 0
177.696 17.4921 0
172.821 18.5802 0
182.029 24.0012 0
177.044 23.6326 0
345.797 -6.33818 0
347.786 -1.74981 0
1.15338 25.998 0
0.87176 21.0056 0
45.9653 26.0112 0
45.2897 30.9662 0
285.616 -4.22003 0
282.858 -8.38963 0
234.067 46.5668 0
239.085 46.4655 0
141.707 -1.7731 0
146.601 -2.63409 0
419.681 -19.5541 0
419.61 -14.5528 0
258.931 10.7047 0
258.725 5.70623 0
24.1814 18.5671 0
28.9381 17.0756 0
188.371 17.1625 0
184.679 13.7932 0
269.735 28.0017 0
265.382 30.4721 0
400.764 -4.58119 0
403.405 -0.338882 0
441.367 27.6175 0
438.082 31.3896 0
454.834 24.456 0
459.821 24.0773 0
276.704 16.4939 0
274.766 21.1055 0
343.197 28.8453 0
339.851 32.5665 0
71.7086 43.2255 0
76.2132 45.4257 0
437.385 -4.77402 0
438.721 0.0442753 0
65.3826 11.9047 0
69.639 14.5014 0
76.8904 16.2107 0
77.0824 11.2089 0
127.232 28.5985 0
124.764 24.2519 0
246.525 34.3858 0
241.516 34.2994 0
169.182 28.7799 0
170.879 33.4812 0
146.758 19.4612 0
149.564 15.3234 0
168.35 39.6636 0
163.542 38.2542 0
445.674 17.5478 0
450.64 16.9588 0
92.8523 0.182478 0
97.5416 1.8304 0
423.73 -11.8892 0
420.821 -15.9557 0
382.921 -7.91548 0
387.075 -10.6899 0
367.173 32.6229 0
364.424 36.8027 0
433.897 10.8146 0
429.375 8.68584 0
251.29 47.3955 0
247.276 50.3987 0
252.122 47.1096 0
250.49 51.8344 0
133.884 23.6423 0
138.669 22.2048 0
253.04 31.1582 0
248.464 29.1372 0
349.429 31.3099 0
344.683 32.9049 0
487.735 13.014 0
483.188 10.9392 0
421.031 31.0032 0
425.497 28.7465 0
26.232 51.9674 0
22.2413 48.9303 0
433.524 -19.9317 0
438.512 -19.6803 0
498.863 26.6932 0
494.333 28.8085 0
315.797 29.4304 0
310.832 28.789 0
253.826 24.517 0
256.225 28.9019 0
488.447 -15.6636 0
483.538 -16.6073 0
245.527 7.71126 0
240.857 5.95398 0
140.576 53.1391 0
136.271 55.7231 0
20.816 41.0897 0
25.2666 43.3944 0
72.1184 26.1561 0
68.068 23.2336 0
260.831 42.8016 0
258.154 47.029 0
383.725 41.9262 0
385.474 37.2424 0
166.141 49.2548 0
162.389 45.9376 0
288.895 24.6656 0
291.623 28.8517 0
178.006 48.9791 0
173.004 49.4388 0
40.517 18.4214 0
45.1974 16.7017 0
420.819 -14.2518 0
421.174 -19.2409 0
282.993 14.6847 0
284.383 19.4861 0
206.893 43.3769 0
211.905 43.152 0
25.0722 53.8913 0
22.6208 49.5328 0
335.776 15.6323 0
337.146 20.4398 0
326.614 9.31293 0
324.597 4.7382 0
277.233 23.7256 0
280.891 20.3117 0
251.982 1.38367 0
248.53 4.9949 0
428.366 30.229 0
433.056 31.9681 0
180.239 4.71304 0
184.467 2.07117 0
338.632 0.943641 0
343.234 2.88316 0
293.322 -6.01136 0
298.069 -7.53499 0
277.591 -1.88496 0
272.611 -2.10517 0
364.18 4.63514 0
362.219 9.23577 0
458.88 25.0834 0
453.888 24.7811 0
438.347 5.42111 0
435.783 9.71537 0
363.629 -2.83241 0
364.913 2.00084 0
448.422 -4.68393 0
443.438 -4.30478 0
29.5823 27.709 0
26.573 31.704 0
466.767 36.6948 0
467.489 31.7473 0
174.314 27.9615 0
178.706 25.5643 0
96.1557 47.4509 0
91.1549 47.9409 0
320.019 33.1683 0
316.947 29.2233 0
80.0969 26.0081 0
85.0937 26.1337 0
139.162 16.8144 0
136.212 12.7811 0
116.655 18.9357 0
121.633 18.5912 0
283.901 14.6448 0
288.9 14.5408 0
380.895 17.3122 0
382.616 12.615 0
301.308 0.695991 0
298.594 -3.50005 0
230.178 46.0647 0
225.159 46.1194 0
150.521 23.1237 0
150.681 28.1214 0
422.447 4.20564 0
420.812 -0.519001 0
166.591 -0.127536 0
170.13 -3.64279 0
215.697 2.86783 0
213.834 -1.77537 0
226.72 22.8928 0
229.483 27.0582 0
107.173 56.5338 0
112.202 56.7256 0
180.672 45.3381 0
177.746 41.2813 0
313.829 -5.15814 0
315.437 -0.421514 0
140.079 17.1985 0
135.178 16.2666 0
327.557 16.062 0
332.428 17.1845 0
99.6362 51.1889 0
95.9084 47.8443 0
468.094 14.7385 0
464.146 17.8087 0
273.423 13.4449 0
274.877 18.228 0
90.1532 10.7387 0
95.0082 11.8367 0
282.471 0.592177 0
278.774 3.9514 0
411.608 -10.3374 0
407.404 -13.0369 0
419.143 -5.47366 0
415.033 -8.31576 0
445.59 6.20587 0
450.573 6.60682 0
28.795 42.7499 0
31.8629 46.7019 0
458.214 11.8284 0
457.91 6.83758 0
393.664 23.7009 0
398.659 23.9706 0
125.442 22.1441 0
121.107 24.6305 0
142.368 51.5293 0
137.406 52.3369 0
48.0691 20.2882 0
43.3625 18.6396 0
231.02 -3.18606 0
227.602 0.453027 0
199.753 5.04783 0
200.447 10.0026 0
424.037 -10.411 0
419.591 -12.6904 0
78.6573 22.3868 0
73.8886 23.8761 0
417.029 35.1273 0
420.456 31.4832 0
338.145 11.6667 0
341.696 8.14592 0
378.68 7.26605 0
382.984 9.80561 0
167.95 5.90657 0
166.084 1.26419 0
328.886 7.39445 0
333.835 6.71946 0
460.011 -12.8131 0
463.505 -16.3896 0
250.667 23.01 0
245.693 23.536 0
214.151 35.3632 0
211.157 39.3734 0
45.465 30.7624 0
40.4993 31.3656 0
408.885 38.4149 0
404.713 35.6542 0
383.288 24.9304 0
379.137 27.7227 0
4.91752 27.9585 0
5.28631 22.9716 0
193.615 49.3186 0
192.362 44.4839 0
5.54182 29.2976 0
5.69379 34.2947 0
128.725 30.8003 0
124.869 33.9895 0
89.0642 18.1875 0
87.1092 22.7917 0
146.111 42.7787 0
150.464 45.2589 0
321.162 28.0392 0
317.122 25.0918 0
256.061 27.4941 0
254.223 32.145 0
341.705 21.974 0
346.644 22.764 0
123.182 33.3012 0
118.302 34.4161 0
167.108 25.3168 0
172.078 25.851 0
165.9 13.4752 0
161.324 11.4906 0
206.757 52.4892 0
201.736 52.3196 0
387.907 14.9935 0
385.616 10.552 0
297.149 1.93601 0
292.184 1.46676 0
248.093 21.6509 0
248.439 26.6384 0
481.987 12.8231 0
480.29 8.12085 0
50.7119 19.0682 0
50.1189 14.0989 0
135.384 36.6367 0
131.295 39.5298 0
21.1197 49.2626 0
22.1057 54.1573 0
140.002 32.2337 0
142.353 27.8189 0
384.947 31.7103 0
387.744 27.564 0
91.9523 44.8579 0
87.1454 43.4226 0
181.46 19.6398 0
176.468 19.4497 0
153.618 36.8569 0
157.458 40.0648 0
453.762 -11.3528 0
454.706 -6.44247 0
192.433 44.7314 0
196.077 48.1617 0
112.041 16.6264 0
116.459 18.9443 0
452.211 34.276 0
450.304 29.6551 0
403.759 -3.59735 0
404.387 -8.55885 0
477.437 -5.09574 0
474.447 -9.10144 0
55.49 29.3517 0
59.4411 32.414 0
443.228 31.727 0
448.22 31.3966 0
76.7297 8.52555 0
78.6081 13.1625 0
277.499 4.43389 0
273.991 0.876533 0
77.9885 2.29247 0
79.7958 6.95948 0
432.446 25.8781 0
427.444 25.8725 0
222.018 41.9105 0
218.43 38.4233 0
466.765 -18.9037 0
469.59 -14.7786 0
317.762 30.9495 0
322.234 28.6982 0
115.344 23.1551 0
111.262 20.2771 0
400.737 -1.39183 0
405.596 -0.23782 0
443.272 12.0693 0
446.799 8.52303 0
351.657 10.1205 0
350.964 5.16804 0
75.7206 3.32936 0
73.2121 7.65253 0
19.3021 17.8194 0
20.5561 22.6618 0
53.2434 15.3373 0
49.8398 11.6849 0
176.031 20.9538 0
171.548 23.1663 0
222.53 45.4786 0
218.143 43.0566 0
349.919 39.729 0
354.167 42.3769 0
108.193 48.7176 0
108.223 53.7109 0
484.422 -10.2581 0
486.053 -14.9854 0
234.584 26.8943 0
230.385 29.6167 0
189.294 12.8802 0
184.361 13.6302 0
317.784 3.02716 0
315.463 7.45729 0
470.28 2.42159 0
474.459 -0.325415 0
342.967 26.1853 0
338.367 24.2212 0
326.023 35.4122 0
321.023 35.7228 0
259.908 15.7568 0
264.075 12.9969 0
485.712 23.272 0
480.713 23.2284 0
224.65 4.54498 0
228.675 1.59461 0
480.421 -2.48931 0
485.418 -2.34803 0
188.554 47.4542 0
184.921 50.906 0
331.282 -4.4437 0
331.569 -9.43895 0
171.895 16.5198 0
172.047 21.5189 0
207.333 2.01085 0
204.168 -1.85436 0
98.047 50.2634 0
94.4396 46.7919 0
269.243 27.7558 0
270.767 32.5162 0
269.755 48.3478 0
264.981 46.8103 0
76.5975 19.1029 0
71.6152 18.8648 0
297.348 -11.1058 0
301.397 -8.18764 0
441.388 -5.19214 0
436.523 -6.33253 0
67.3372 40.3354 0
70.7105 36.637 0
206.539 14.4449 0
201.574 13.9818 0
389.525 31.4154 0
394.406 32.5198 0
425.776 -6.43808 0
423.7 -10.9869 0
165.105 51.8034 0
168.141 55.7815 0
283.959 45.5331 0
281.645 41.102 0
23.68 7.43121 0
20.1548 10.9626 0
399.737 -0.838646 0
403.43 2.52313 0
273.195 38.5248 0
272.184 43.4195 0
150.382 46.6439 0
146.571 49.8999 0
137.899 39.9521 0
142.411 37.7729 0
262.257 35.5136 0
258.766 39.1016 0
158.073 39.5323 0
162.573 41.7333 0
458.504 5.16539 0
463.497 5.42541 0
17.6789 7.9464 0
17.2185 12.9335 0
453.957 -7.95569 0
457.524 -4.45418 0
2.60403 35.4842 0
7.20383 33.5114 0
25.5839 36.5233 0
28.8714 40.2928 0
60.5075 11.3696 0
55.7609 9.87153 0
102.895 49.1657 0
99.3329 52.6937 0
364.425 35.7366 0
369.404 36.2703 0
397.823 -9.45114 0
395.516 -13.8861 0
332.832 4.57746 0
337.6 3.09048 0
414.903 -8.63815 0
409.921 -8.99413 0
153.115 7.29306 0
150.941 2.78904 0
437.303 -14.6369 0
440.426 -10.7336 0
294.023 0.489447 0
298.929 1.38517 0
242.159 0.185461 0
245.189 4.15948 0
245.278 2.96363 0
240.755 5.06967 0
27.9233 13.4832 0
26.9585 18.3948 0
337.16 38.1635 0
333.447 34.8106 0
233.946 11.9088 0
237.705 8.61748 0
58.4329 32.335 0
56.6677 37.0138 0
272.26 44.4676 0
270.802 49.2485 0
298.076 -4.32882 0
299.343 -9.16894 0
75.5013 52.7661 0
75.7963 47.7815 0
219.5 36.8711 0
223.958 39.1502 0
171.11 23.9612 0
170.781 18.9714 0
474.43 -15.7043 0
477.386 -19.737 0
220.344 7.14277 0
215.53 8.44416 0
282.853 -3.75764 0
277.97 -2.75349 0
20.6058 1.2312 0
15.7092 0.444822 0
303.811 -9.4622 0
308.739 -8.70345 0
157.12 6.51091 0
155.793 1.68476 0
119.198 20.2188 0
119.851 25.1769 0
486.068 15.2719 0
483.378 11.0588 0
227.213 6.53524 0
222.783 4.24017 0
489.2 -12.0963 0
492.328 -8.19695 0
114.511 45.2483 0
119.305 46.73 0
304.124 -2.4705 0
299.144 -2.19783 0
467.282 25.7995 0
465.896 20.996 0
152.948 13.0147 0
147.964 12.9248 0
149.248 10.0317 0
144.838 12.3627 0
140.953 24.9297 0
136.005 25.6356 0
415.601 15.1156 0
417.992 10.7218 0
252.527 -8.19809 0
254.499 -3.60017 0
254.266 32.0594 0
250.193 34.9707 0
401.566 27.9808 0
404.002 32.3454 0
38.9201 9.60613 0
34.5295 11.9589 0
36.7295 23.4972 0
41.3366 21.5729 0
272.089 -4.64618 0
275.698 -1.1931 0
3.09526 51.0202 0
3.84769 55.9584 0
211.251 25.3515 0
213.029 20.6782 0
395.195 31.6222 0
391.862 35.3535 0
384.006 -9.27473 0
379.259 -7.7275 0
213.971 45.6664 0
209.444 43.5134 0
206.407 35.7058 0
208.051 30.9803 0
12.6742 5.6901 0
14.1108 0.893201 0
163.853 -1.22126 0
162.935 3.70009 0
91.3007 5.61626 0
94.5534 1.82912 0
375.828 40.5913 0
372.23 37.1154 0
152.937 48.8752 0
150.667 53.3321 0
68.1008 17.6146 0
73.0478 16.9943 0
426.657 23.4394 0
430.804 26.2331 0
398.596 32.451 0
393.603 32.8054 0
226.817 49.8963 0
224.898 45.2824 0
104.286 7.19083 0
99.4063 8.16249 0
263.116 19.5645 0
265.654 15.2549 0
27.8308 39.8496 0
22.8559 39.23 0
251.018 22.1219 0
247.238 25.3981 0
286.468 35.7586 0
281.466 35.4811 0
361.932 7.61741 0
358.629 3.86727 0
374.999 -5.74952 0
377.731 -9.93629 0
46.2678 54.0264 0
49.1822 58.0956 0
208.259 -0.978599 0
208.177 4.02649 0
473.692 11.8896 0
478.636 12.6335 0
460.811 33.5011 0
455.871 32.7204 0
158.705 16.0823 0
153.825 17.1285 0
179.799 10.7485 0
184.569 12.2109 0
171.897 18.1711 0
175.905 15.1872 0
135.33 36.9113 0
136.984 41.6267 0
15.5502 35.7546 0
14.4232 30.8849 0
302.484 -2.52735 0
298.177 -5.04886 0
383.309 7.40019 0
388.305 7.18612 0
461.467 -20.5362 0
456.943 -18.4114 0
331.044 17.9895 0
333.584 13.6808 0
35.9232 37.3927 0
31.2219 35.6703 0
184.268 26.6702 0
179.287 27.1098 0
464.944 32.1911 0
466.863 27.5736 0
392.617 -9.75299 0
397.564 -10.4319 0
477.884 17.7227 0
482.469 15.7268 0
350.479 2.18439 0
351.456 -2.72143 0
270.195 39.3051 0
274.748 37.2128 0
466.951 31.2981 0
466.914 36.2976 0
168.291 24.8406 0
172.322 21.8805 0
23.4796 32.8777 0
21.6635 28.2208 0
313.981 4.04217 0
310.037 0.977739 0
330.431 6.72896 0
335.237 8.08795 0
282.783 40.263 0
284.968 44.7585 0
67.7394 13.8172 0
69.3052 18.5677 0
161.182 49.8181 0
165.276 46.9229 0
87.6153 10.2569 0
87.7335 5.24923 0
83.3741 58.5104 0
83.7039 53.53 0
21.1262 43.8933 0
23.131 48.4712 0
319.015 40.8728 0
321.292 45.3228 0
40.4557 17.4629 0
45.2293 16.0288 0
282.469 3.06318 0
279.838 7.31457 0
267.698 13.1206 0
269.747 8.55801 0
125.827 28.7784 0
127.667 24.1283 0
59.3918 18.477 0
60.3624 13.5675 0
293.771 43.8209 0
295.074 38.9948 0
313.35 -4.22619 0
310.789 -8.52074 0
91.0497 50.119 0
91.2179 55.1079 0
454.718 14.0378 0
458.908 11.306 0
159.655 1.35043 0
161.236 -3.39718 0
338.393 -0.395118 0
335.094 3.36072 0
26.2143 41.051 0
29.861 37.6195 0
185.046 50.6831 0
180.021 50.6683 0
311.222 -2.24663 0
306.235 -2.17329 0
28.7025 13.6194 0
25.0281 16.9991 0
399.327 -14.0722 0
404.18 -12.8985 0
189.875 5.87843 0
187.69 10.3777 0
306.314 6.68411 0
310.518 3.98669 0
137.073 11.9223 0
136.712 6.92952 0
39.8185 11.4241 0
40.9588 6.54882 0
109.023 33.8833 0
112.391 37.5775 0
228.477 38.5625 0
233.478 38.897 0
120.626 15.65 0
116.635 18.6537 0
289.388 29.1111 0
284.743 27.2583 0
193.323 6.5555 0
188.458 5.48154 0
50.1393 24.4164 0
52.0464 19.7922 0
216.371 36.1438 0
221.339 35.4946 0
421.641 18.9916 0
419.224 14.6163 0
448.855 3.57994 0
452.902 6.51172 0
200.966 46.3868 0
197.614 50.11 0
65.3109 35.2565 0
69.4214 38.109 0
286.928 14.251 0
282.063 13.1046 0
156.634 50.3675 0
160.906 47.7375 0
403.337 35.6783 0
405.635 31.2352 0
494.089 2.42127 0
498.348 5.03794 0
238.575 21.3583 0
235.873 17.1531 0
126.2 32.4755 0
126.843 37.4316 0
438.777 -11.6673 0
443.771 -11.8263 0
62.1087 55.0323 0
66.5404 57.4008 0
59.784 34.2516 0
55.9049 37.4162 0
452.165 15.336 0
450.117 10.7762 0
84.2319 -1.05403 0
87.1248 3.01882 0
428.657 2.77041 0
425.306 6.48325 0
219.284 -5.18908 0
223.782 -3.0451 0
304.905 28.0141 0
308.459 31.5324 0
427.169 -15.2922 0
425.934 -20.1387 0
339.857 31.5257 0
343.762 34.6522 0
333.698 14.8186 0
334.296 9.85338 0
147.914 16.2939 0
142.934 16.0118 0
343.339 12.6468 0
341.241 17.187 0
376.551 -5.47589 0
375.046 -10.2458 0
22.6161 23.8641 0
25.3333 28.0587 0
248.252 9.75472 0
246.401 14.4014 0
450.021 6.49943 0
454.878 5.31503 0
180.775 32.8824 0
185.226 35.1654 0
135.499 7.1663 0
130.684 8.4358 0
65.1061 40.5078 0
63.9316 35.6506 0
487.175 24.5836 0
492.175 24.5806 0
69.3822 38.1842 0
69.2848 33.1869 0
66.6947 34.5338 0
69.5518 38.6364 0
320.693 18.7093 0
321.136 13.7282 0
447.593 -4.1018 0
449.156 -8.85248 0
185.324 27.7868 0
181.461 30.9677 0
387.375 13.2833 0
384.217 9.41032 0
250.226 9.85696 0
245.53 8.16857 0
14.601 29.931 0
17.1451 34.2339 0
25.1112 58.4031 0
29.9559 59.7836 0
153.756 24.4589 0
155.986 28.9323 0
179.361 53.654 0
179.227 48.6622 0
127.669 6.01222 0
127.536 11.017 0
73.2853 0.0590147 0
68.6508 1.84788 0
227.337 10.7326 0
223.605 7.41373 0
328.587 -6.09112 0
323.858 -7.68339 0
160.997 48.5239 0
165.998 48.9871 0
488.258 10.9613 0
487.473 6.02356 0
133.342 25.6262 0
130.978 30.0338 0
21.5458 50.9269 0
23.2203 55.6334 0
377.592 -3.34845 0
373.886 -6.70098 0
84.9369 24.0833 0
86.7789 19.4333 0
85.668 49.3814 0
85.5716 54.3725 0
156.547 3.42071 0
151.861 5.10494 0
350.929 2.17397 0
355.734 3.53563 0
469.724 20.365 0
474.667 21.1132 0
73.099 4.72036 0
75.4697 9.1233 0
482.807 -19.017 0
479.27 -22.5501 0
451.471 -11.3596 0
446.545 -10.5175 0
62.8847 15.5595 0
67.8113 14.8168 0
376.27 -0.630971 0
379.734 -4.23513 0
104.13 12.2756 0
99.4775 10.4965 0
49.5788 29.5182 0
47.5835 34.1041 0
195.411 51.4075 0
193.542 46.7742 0
317.82 29.859 0
321.82 32.8627 0
103.424 44.9253 0
103.832 49.9037 0
95.0462 56.7551 0
96.3583 51.9345 0
25.9366 4.87034 0
23.2484 0.658088 0
212.41 17.293 0
217.263 18.4736 0
1.63162 5.82944 0
5.64198 2.87426 0
224.676 6.02837 0
222.994 10.7395 0
309.78 8.22062 0
313.236 4.60903 0
373.306 28.4348 0
368.705 30.4047 0
481.527 -2.03266 0
486.518 -2.31467 0
164.038 30.5787 0
168.862 29.2483 0
495.757 19.2938 0
497.735 23.8848 0
112.878 -0.42651 0
114.673 4.24513 0
75.5653 18.8687 0
70.6755 17.8873 0
329.737 11.9777 0
334.723 11.6358 0
77.6569 53.849 0
81.4837 57.091 0
480.582 23.8093 0
485.45 22.6703 0
287.054 33.276 0
287.846 38.2094 0
272.963 28.2719 0
277.85 27.1953 0
110.831 41.4691 0
113.092 37.0068 0
330.081 3.07352 0
334.269 5.79621 0
229.653 26.7475 0
234.294 28.6124 0
144.254 47.1084 0
149.201 46.2524 0
30.4084 30.456 0
28.7571 25.7375 0
85.0437 32.9076 0
89.6539 34.8388 0
249.838 -2.09033 0
249.049 2.85139 0
13.8533 25.1408 0
9.01382 26.3773 0
436.394 17.9659 0
440.541 20.7568 0
455.982 3.17839 0
453.404 7.46436 0
451.763 32.365 0
449.653 27.8328 0
132.787 47.195 0
128.302 44.9553 0
250.089 8.17934 0
251.778 3.47129 0
485.816 -16.8561 0
489.29 -20.4524 0
474.581 22.4779 0
479.453 23.6007 0
20.7703 32.7439 0
18.938 28.0933 0
142.517 6.31708 0
144.259 11.0064 0
459.362 33.4288 0
454.594 34.9432 0
17.0915 39.3977 0
15.8645 44.2426 0
168.544 11.3126 0
173.527 11.4917 0
248.772 25.0231 0
244.591 27.771 0
110.706 33.8814 0
110.147 28.9135 0
405.054 28.8499 0
404.656 23.8656 0
485.699 13.0319 0
485.998 18.0231 0
214.713 6.82195 0
210.108 4.9074 0
478.483 2.74881 0
476.622 7.39118 0
213.313 -2.47521 0
212.556 2.47244 0
19.364 16.2553 0
16.4987 12.1631 0
488.309 22.0295 0
489.937 26.7567 0
305.046 0.571017 0
300.353 2.26884 0
89.4921 26.0878 0
84.6098 27.1764 0
460.228 -20.096 0
461.515 -15.2641 0
476.062 26.2403 0
477.439 31.0468 0
379.218 0.132136 0
377.976 4.97667 0
39.9549 54.7185 0
35.1939 56.3477 0
41.8423 44.2275 0
37.4347 41.8418 0
74.9765 51.0676 0
71.3288 47.6338 0
477.864 10.0008 0
476.57 5.17178 0
145.965 44.4817 0
144.919 39.5963 0
277.222 28.1151 0
278.57 32.9286 0
100.878 6.00536 0
102.028 1.1325 0
87.4242 30.0641 0
82.9743 27.7946 0
387.67 22.3605 0
384.579 26.2924 0
323.541 11.8111 0
326.154 16.0716 0
28.085 28.3973 0
23.6768 26.0472 0
177.785 1.86506 0
182.695 2.68642 0
368.292 14.6077 0
373.254 15.2161 0
390.412 23.2142 0
387.252 19.3423 0
365.377 5.98656 0
360.452 6.8308 0
335.849 17.4113 0
340.111 14.795 0
160.646 13.8901 0
165.631 14.0331 0
34.7555 24.1027 0
36.992 28.5732 0
283.234 9.68734 0
283.37 4.68648 0
260.781 17.2191 0
264.762 20.2394 0
258.037 5.25128 0
254.768 9.03188 0
358.604 -0.473218 0
358.739 4.52655 0
78.8958 0.228455 0
74.0134 1.11925 0
392.279 -2.34993 0
394.392 2.18198 0
491.554 30.1779 0
486.674 29.0943 0
159.801 17.2691 0
164.608 18.6161 0
311.471 24.5942 0
310.037 19.8041 0
217.68 51.1474 0
218.808 46.2795 0
127.388 30.6587 0
129.58 26.1633 0
82.6948 30.5369 0
80.9412 25.8578 0
168.317 38.6845 0
165.825 34.3505 0
474.94 7.03303 0
476.718 2.3581 0
362.148 14.1499 0
365.613 10.5434 0
373.872 5.9091 0
375.35 1.13154 0
308.149 41.2211 0
303.382 39.6812 0
320.297 5.19929 0
315.985 2.68043 0
12.4776 47.7242 0
9.21061 51.523 0
276.646 16.4813 0
273.233 12.8325 0
264.214 46.9166 0
259.592 44.975 0
373.577 1.38151 0
377.624 -1.55148 0
260.871 34.7699 0
262.011 39.6355 0
252.153 19.5613 0
247.392 18.0451 0
439.275 19.2318 0
444.274 19.3934 0
424.769 18.8688 0
422.143 14.6158 0
423.679 16.5717 0
426.551 20.6624 0
480.73 23.0395 0
484.418 19.661 0
426.905 -8.44478 0
422.964 -11.5185 0
465.384 27.4135 0
464.131 32.2542 0
399.05 32.1166 0
399.139 37.1144 0
109.767 48.2665 0
114.367 46.2564 0
136.129 38.9063 0
132.749 35.22 0
351.416 16.6213 0
346.953 14.371 0
232.391 0.725297 0
229.234 4.5976 0
460.509 -9.35058 0
462.982 -13.6968 0
343.313 30.5381 0
338.382 31.4061 0
331.293 -5.31197 0
335.412 -8.13357 0
130.59 29.3708 0
127.029 25.8634 0
478.608 17.8417 0
475.101 14.28 0
451.902 18.617 0
447.063 17.3586 0
127.061 10.1369 0
122.498 8.13628 0
380.356 7.09014 0
381.232 12.0121 0
32.3275 52.2307 0
28.192 55.0783 0
173.099 10.386 0
176.058 6.35928 0
458.783 30.0912 0
456.035 25.9147 0
349.495 40.2795 0
352.395 36.2024 0
338.971 -11.9143 0
342.461 -8.33888 0
25.9444 42.2532 0
21.1477 43.7271 0
53.8289 16.7708 0
50.0446 20.03 0
484.084 -8.57104 0
479.184 -9.56203 0
338.122 31.3475 0
338.484 36.3322 0
289.016 37.9549 0
287.954 42.8384 0
420.858 32.4894 0
416.944 29.3754 0
340.043 -10.0959 0
340.876 -5.16267 0
115.701 40.6348 0
117.683 36.0429 0
369.059 27.0954 0
368.64 22.1137 0
254.154 7.80675 0
249.345 6.47567 0
60.719 22.2587 0
58.2493 17.9131 0
472.582 30.8123 0
474.468 26.181 0
470.15 31.5288 0
465.288 30.3577 0
3.17464 22.2231 0
8.02035 23.4176 0
200.131 40.828 0
205.007 39.655 0
214.937 33.0675 0
218.379 36.6953 0
0.189647 53.5584 0
3.00458 49.4134 0
55.7677 32.513 0
60.7234 33.2043 0
151.91 36.4337 0
146.9 36.4589 0
11.4212 27.6609 0
6.82798 29.6338 0
453.053 -11.4079 0
457.921 -12.5373 0
318.541 32.2995 0
322.348 35.5441 0
215.965 13.6677 0
212.949 9.68369 0
82.7697 45.9525 0
77.7525 45.7634 0
480.38 5.77995 0
482.931 10.0785 0
192.495 35.7177 0
197.501 35.8975 0
289.039 10.5848 0
289.972 5.66884 0
6.07693 4.87486 0
1.42996 3.1309 0
197.785 47.0541 0
202.659 45.8545 0
61.7318 53.0966 0
59.4557 48.6456 0
230.098 24.3953 0
232.88 28.5477 0
74.9651 53.9229 0
79.6808 55.6674 0
277.718 32.6351 0
281.899 35.3836 0
353.685 33.7359 0
351.826 38.378 0
107.3 48.6689 0
111.739 46.3286 0
130.253 32.43 0
125.822 30.111 0
285.41 37.2075 0
280.417 36.7971 0
67.7038 27.7723 0
64.0663 31.2063 0
5.55317 31.7588 0
4.04849 36.5267 0
388.785 0.282084 0
393.5 -1.37292 0
373.361 19.2995 0
377.499 16.4884 0
307.355 40.4802 0
307.737 45.4623 0
85.5118 11.3395 0
80.5344 11.3666 0
143.763 10.0891 0
142.236 14.8535 0
207.645 37.6545 0
208.985 32.8364 0
66.8838 2.77605 0
62.3796 4.88436 0
116.266 26.6441 0
114.916 21.8303 0
225.018 5.55863 0
229.541 7.66297 0
461.126 8.29097 0
458.727 12.6793 0
433.783 0.329921 0
428.962 1.64755 0
426.743 12.7126 0
423.988 16.8877 0
370.438 11.9331 0
366.994 15.5609 0
493.627 25.7271 0
497.934 28.2636 0
331.03 11.8803 0
331.632 16.8442 0
445.818 -18.1574 0
450.489 -19.9339 0
178.304 38.7837 0
180.636 43.2055 0
201.281 41.2271 0
205.034 37.9072 0
216.388 21.2264 0
211.53 22.4071 0
379.094 14.6548 0
374.273 15.9879 0
415.137 29.6656 0
411.363 26.384 0
55.9447 13.9494 0
56.2619 8.95243 0
216.807 20.0696 0
211.841 19.5129 0
11.7408 32.9314 0
11.6982 27.9319 0
443.064 23.7442 0
448.057 24.0343 0
68.7504 8.5382 0
73.7218 8.41746 0
242.519 18.8906 0
242.975 13.9097 0
150.482 25.0986 0
154.92 22.7977 0
183.503 10.0168 0
182.608 14.9394 0
338.193 -12.149 0
335.905 -7.70379 0
47.6674 36.8932 0
44.2493 33.2433 0
365.34 26.7097 0
365.641 31.6995 0
462.481 36.4267 0
464.635 31.9137 0
341.768 12.0118 0
339.543 7.53495 0
203.567 37.5075 0
200.493 41.4597 0
84.9867 25.9256 0
89.7776 27.3495 0
31.7432 51.4333 0
28.5122 55.2619 0
62.566 3.3731 0
65.9204 7.06873 0
104.47 19.5338 0
109.063 21.4824 0
77.5525 47.852 0
82.5244 47.1375 0
459.515 31.858 0
460.272 26.9156 0
3.83008 51.0634 0
8.84113 51.5071 0
56.5114 45.5496 0
61.4359 46.5259 0
221.484 25.1295 0
225.197 28.4771 0
69.3691 8.32041 0
73.7472 5.9493 0
448.334 -0.531411 0
451.897 2.97355 0
324.622 34.6541 0
319.624 34.9822 0
294.089 27.8268 0
289.788 30.3824 0
245.548 8.02154 0
250.496 7.38144 0
489.794 28.0239 0
489.302 32.9998 0
475.091 -19.3441 0
478.023 -15.2944 0
12.2725 56.0604 0
14.9138 51.8101 0
7.78362 6.3739 0
12.7054 7.0304 0
314.858 11.3047 0
318.769 8.19051 0
123.358 52.2799 0
128.282 53.2906 0
456.494 25.7822 0
454.595 30.4082 0
238.684 36.3191 0
235.138 32.7925 0
186.988 52.143 0
182.471 49.9582 0
472.381 0.978768 0
476.111 4.30431 0
152.247 27.4707 0
157.204 26.813 0
191.424 5.33565 0
194.76 9.05213 0
193.424 51.0994 0
188.413 50.7285 0
49.9285 9.19941 0
54.8993 9.08559 0
193.736 0.264814 0
194.268 -4.71413 0
246.892 0.271419 0
251.696 1.6058 0
151.119 23.1747 0
146.926 20.4607 0
237.348 5.10745 0
241.534 7.82716 0
211.014 13.5311 0
211.794 8.58846 0
400.07 -0.0627907 0
400.093 -5.06366 0
412.943 -13.9013 0
409.026 -17.0049 0
376.145 39.2507 0
371.165 38.7137 0
210.09 1.91206 0
206.155 -1.15588 0
222.437 16.8198 0
224.191 21.5014 0
1.30927 56.558 0
5.96876 54.6504 0
341.007 29.3207 0
345.561 27.2416 0
209.817 28.3717 0
214.204 25.9712 0
18.5678 19.6578 0
23.4434 20.6997 0
431.797 -20.4059 0
436.507 -18.7395 0
377.222 37.2725 0
380.548 33.5343 0
117.007 22.4451 0
112.105 21.4885 0
226.563 27.5278 0
230.083 23.9728 0
151.089 27.196 0
148.901 22.7016 0
490.691 3.73119 0
493.678 -0.280217 0
106.341 46.9068 0
110.985 45.0023 0
358.369 -9.30723 0
357.221 -14.1767 0
18.1087 20.6282 0
13.6552 18.3836 0
146.228 50.9992 0
149.376 54.89 0
414.847 25.2602 0
413.509 20.4433 0
116.239 49.2668 0
116.372 44.2741 0
40.5544 37.8787 0
45.5515 37.5016 0
47.3812 22.9463 0
42.9541 25.2609 0
80.4136 52.9681 0
76.2415 50.1819 0
491.778 16.9337 0
494.834 20.8891 0
333.989 40.9724 0
329.587 43.363 0
16.9345 9.61962 0
21.6596 8.06893 0
493.596 7.94221 0
497.554 10.9942 0
224.361 15.8161 0
228.682 13.3079 0
327.12 -4.78955 0
330.515 -8.45473 0
342.637 3.78466 0
338.682 6.84067 0
272.019 16.4777 0
268.717 20.2349 0
2.46212 55.0558 0
6.52039 58.0113 0
184.388 25.3702 0
185.267 20.4462 0
13.8122 20.442 0
9.66271 23.2204 0
322.167 21.7678 0
323.004 26.696 0
416.115 17.8057 0
419.281 21.675 0
470.178 -15.0988 0
470.647 -10.1205 0
161.444 3.69064 0
156.894 5.71937 0
461.184 30.3092 0
459.573 25.5767 0
348.748 -9.48169 0
344.103 -11.3069 0
243.596 7.64705 0
240.772 11.7726 0
314.154 21.7803 0
318.48 24.2883 0
444.708 -7.28174 0
440.022 -9.01598 0
23.311 24.3074 0
27.4612 21.5274 0
251.748 2.847 0
247.453 5.38792 0
61.9022 11.2537 0
57.2883 9.38289 0
284.57 40.9779 0
285.272 36.03 0
259.059 49.7644 0
255.228 46.5396 0
386.809 11.0937 0
390.172 7.38794 0
449.362 -13.2895 0
447.909 -18.0745 0
352.761 14.9288 0
347.945 16.2725 0
336.826 0.451981 0
335.861 -4.45635 0
451.132 28.0858 0
455.485 30.547 0
457.778 -0.709768 0
462.732 -1.37242 0
468.758 -2.65144 0
467.541 -7.50081 0
239.72 32.1041 0
242.862 28.2098 0
58.9801 24.0804 0
61.1885 28.5646 0
325.686 19.149 0
324.709 24.053 0
464.079 30.8639 0
461.855 35.3425 0
365.299 0.0857424 0
366.922 4.81482 0
110.398 51.941 0
114.044 55.3786 0
55.5754 49.1933 0
55.599 44.1992 0
253.136 23.5194 0
257.821 25.2649 0
304.722 8.39223 0
309.322 10.3305 0
69.5529 3.82401 0
70.1259 8.79965 0
160.729 22.7078 0
164.124 19.0375 0
366.782 34.9059 0
363.356 31.2623 0
343.799 -10.695 0
341.4 -6.30881 0
354.568 11.6868 0
358.507 14.7632 0
182.389 19.5397 0
185.502 15.6268 0
404.647 -7.39318 0
400.023 -5.50059 0
286.668 21.3477 0
282.67 24.357 0
233.569 27.8613 0
229.697 24.6985 0
215.523 11.8536 0
215.144 16.8418 0
318.099 29.7089 0
314.574 26.1628 0
136.261 27.3546 0
137.383 22.4807 0
221.892 41.621 0
226.763 42.8069 0
379.582 3.26218 0
379.683 -1.73807 0
73.6908 34.6858 0
77.9015 31.9793 0
7.11136 22.7014 0
5.5282 27.4443 0
158.358 7.21105 0
160.932 2.92662 0
252.831 23.5828 0
247.856 23.0805 0
252.131 36.0952 0
257.014 37.2134 0
285.872 40.0209 0
288.515 35.7741 0
272.608 10.9297 0
277.333 12.5504 0
282.55 4.95753 0
279.604 0.919093 0
161.769 13.103 0
166.675 12.2088 0
13.5182 23.381 0
10.8823 27.6301 0
105.671 40.6734 0
109.265 37.1833 0
68.3096 54.745 0
67.8794 49.7711 0
79.5661 25.4431 0
76.261 29.1988 0
467.525 22.9848 0
471.623 25.8485 0
96.9552 46.9989 0
97.3965 51.9727 0
229.147 24.0198 0
225.441 20.6664 0
214.784 5.3105 0
219.566 6.72358 0
193.42 34.4029 0
189.453 37.4542 0
412.651 2.88129 0
408.306 5.35585 0
306.819 5.29352 0
311.501 7.027 0
468.322 3.32445 0
469.459 8.19311 0
101.283 44.8353 0
106.095 43.4066 0
110.593 49.4953 0
108.836 54.1749 0
359.315 -4.0296 0
358.231 -8.91293 0
372.142 17.5951 0
374.541 13.2053 0
119.414 4.95828 0
124.177 6.40371 0
312.018 24.5429 0
316.817 25.9554 0
456.783 23.9826 0
453.074 20.6309 0
119.403 45.4522 0
116.856 49.7583 0
137.902 19.978 0
141.848 16.9141 0
66.9086 29.2778 0
70.8381 32.3668 0
359.952 12.7533 0
364.782 14.0387 0
241.37 44.2873 0
246.299 45.2169 0
156.704 50.6669 0
155.21 45.8997 0
115.113 44.2267 0
119.922 42.7936 0
269.619 6.44745 0
274.563 7.1295 0
228.068 0.0709067 0
225.513 -4.22691 0
99.939 48.7334 0
101.43 43.961 0
122.194 57.4688 0
118.455 54.1297 0
254.338 4.86927 0
255.032 -0.0862352 0
349.059 9.69046 0
348.541 14.6646 0
228.724 -2.72878 0
225.605 -6.63215 0
437.439 20.2317 0
440.799 23.933 0
217.665 45.9897 0
212.653 46.2488 0
370.048 10.1042 0
368.762 5.27267 0
244.329 37.8653 0
248.808 40.1062 0
468.173 -16.1095 0
463.181 -15.8769 0
163.256 24.8134 0
159.854 21.1537 0
125.632 25.4327 0
124.806 20.5006 0
116.946 40.9399 0
112.707 43.6165 0
160.267 20.5052 0
163.164 16.4304 0
351.211 29.1401 0
356.073 30.3266 0
151.606 24.7094 0
154.082 20.364 0
286.415 -3.76426 0
282.571 -0.577811 0
208.005 -4.4508 0
209.888 0.184877 0
123.556 3.1412 0
128.252 4.79119 0
474.136 -10.6756 0
470.999 -14.5677 0
77.4044 26.4701 0
75.0573 30.8881 0
369.176 -8.87768 0
364.187 -8.74878 0
301.205 36.8487 0
296.297 37.8626 0
156.769 26.1141 0
158.812 21.5489 0
272.4 1.53061 0
269.159 5.33369 0
188.339 34.0253 0
189.919 29.283 0
122.199 12.1625 0
125.964 8.8856 0
160.736 37.3108 0
165.742 37.1006 0
476.256 20.3835 0
473.207 16.4224 0
302.203 41.3211 0
299.374 45.4493 0
43.8997 41.2567 0
43.4322 36.2821 0
83.7294 36.8084 0
82.2642 41.5879 0
392.113 34.5614 0
390.852 29.7255 0
54.333 35.4693 0
56.5762 30.999 0
169.683 7.01299 0
165.832 10.1893 0
315.554 13.0957 0
310.567 13.4329 0
253.924 15.272 0
251.197 11.083 0
407.397 33.6243 0
407.718 28.6346 0
478.8 -8.24716 0
476.005 -4.09993 0
456.37 5.50679 0
454.371 0.924832 0
494.272 14.883 0
492.593 10.1744 0
247.709 29.4027 0
249.138 34.1918 0
483.175 5.69985 0
487.109 8.78196 0
144.436 23.6759 0
149.031 25.638 0
92.9353 41.5747 0
93.0325 46.5668 0
373.608 -13.3818 0
378.324 -15.0125 0
46.5574 30.1551 0
51.3588 31.5515 0
418.222 -6.53604 0
416.841 -1.72927 0
281.281 29.5659 0
284.235 25.5281 0
127.347 55.6767 0
132.312 54.8685 0
59.9189 5.79772 0
61.8445 10.4152 0
118.005 27.2922 0
113.669 24.8047 0
317.718 1.71416 0
317.428 -3.28067 0
167.393 51.3614 0
165.763 46.6384 0
218.492 22.6393 0
221.389 26.7123 0
447.547 26.0067 0
447.811 30.9991 0
364.388 -5.50826 0
365.258 -10.4342 0
448.894 17.8975 0
453.729 16.6203 0
233.87 31.9913 0
230.381 28.4099 0
79.3782 49.8045 0
78.7349 44.8518 0
56.2811 24.5992 0
61.0291 23.0497 0
91.539 44.5269 0
93.3981 49.1632 0
59.3417 9.106 0
61.2926 13.7118 0
222.032 7.12729 0
217.05 6.92705 0
142.247 20.8209 0
142.062 15.8216 0
318.01 47.099 0
320.731 42.9012 0
332.689 18.6162 0
334.321 13.8884 0
488.618 0.643751 0
484.479 -2.15737 0
120.813 3.81389 0
119.094 8.51275 0
224.664 40.8889 0
228.596 37.7865 0
287.129 19.8293 0
283.49 16.4058 0
175.861 4.74149 0
180.811 4.20054 0
119.851 54.3121 0
123.575 57.6674 0
37.7249 47.213 0
42.0052 44.5973 0
150.071 41.7468 0
153.261 37.8896 0
428.263 13.1291 0
431.706 9.50037 0
292.881 6.27611 0
292.461 11.2624 0
394.594 -9.96445 0
399.574 -9.6134 0
466.095 31.0684 0
471.095 31.1598 0
93.3104 46.8488 0
92.3103 51.7429 0
228.37 10.0049 0
233.153 11.4288 0
47.2513 48.3781 0
42.2752 49.0856 0
126.669 23.0758 0
121.816 21.8989 0
145.064 33.3838 0
147.808 29.2013 0
271.352 28.6131 0
274.584 32.4272 0
55.702 46.0265 0
52.6944 50.0288 0
22.1127 30.6124 0
17.1616 29.9155 0
224.536 47.4636 0
222.677 52.1046 0
414.493 29.2435 0
414.95 34.2217 0
337.742 -7.54859 0
342.487 -6.00365 0
444.95 10.1834 0
447.207 5.7202 0
5.91975 10.2992 0
3.98303 14.9096 0
367.081 31.4212 0
369.627 35.7238 0
344.073 13.6175 0
342.208 8.97904 0
449.524 1.23455 0
444.624 2.22435 0
295.552 29.1318 0
291.438 26.2945 0
286.221 6.34549 0
290.72 8.51555 0
307.482 37.5573 0
311.97 39.7781 0
255.148 43.7579 0
251.028 40.9124 0
10.1423 47.817 0
8.31419 43.165 0
464.08 -14.7707 0
459.103 -14.319 0
56.5095 19.7776 0
55.216 24.6101 0
133.082 8.48897 0
137.513 10.7736 0
270.241 34.3823 0
265.527 36.0757 0
282.341 35.4363 0
287.349 35.5532 0
180.713 51.1865 0
184.654 54.2838 0
354.042 -5.78574 0
349.096 -6.45393 0
318.862 42.6582 0
322.722 39.4688 0
250.5 37.0357 0
249.366 32.1686 0
427.174 13.796 0
424.787 18.191 0
319.959 36.3963 0
322.109 40.9086 0
438.376 9.70355 0
442.525 6.91172 0
196.211 4.89149 0
192.06 2.1293 0
15.9622 11.5033 0
13.0743 15.5819 0
158.358 49.4209 0
163.156 50.9003 0
203.157 12.7825 0
203.874 7.8313 0
211.043 10.9529 0
207.173 14.1126 0
351.436 6.51662 0
346.568 7.64155 0
475.326 -12.333 0
472.517 -8.19559 0
330.01 23.5436 0
334.389 25.9587 0
199.759 44.3297 0
199.388 39.3471 0
450.237 5.74277 0
445.37 6.88867 0
66.5326 33.2769 0
62.728 36.5297 0
175.932 33.8562 0
180.514 31.8413 0
285.721 4.74627 0
281.805 7.84886 0
167.195 9.3659 0
166.921 4.36783 0
183.506 15.1686 0
178.566 14.4511 0
265.328 40.1773 0
264.114 35.3296 0
183.816 12.9688 0
187.983 15.7253 0
221.29 8.42925 0
216.362 9.20215 0
181.497 0.0394949 0
184.245 -4.13289 0
479.575 12.1112 0
484.265 13.8414 0
483.707 11.1393 0
478.753 11.8137 0
48.4851 11.9229 0
43.625 10.8556 0
379.349 -2.53275 0
376.611 -6.71616 0
179.881 26.4794 0
175.651 29.1521 0
443.403 -2.07358 0
446.665 1.71358 0
213.785 51.5801 0
218.76 52.2725 0
426.207 13.9353 0
421.477 12.3175 0
209.395 44.4988 0
207.182 48.9842 0
105.552 19.8297 0
109.274 16.4945 0
147.849 45.9479 0
144.618 42.1275 0
284.351 16.7298 0
287.79 20.3542 0
308.217 40.5762 0
304.989 36.7568 0
407.77 -4.26624 0
411.98 -6.95766 0
377.899 5.79284 0
373.495 3.43154 0
351.156 31.7472 0
356.162 31.8175 0
478.726 1.90267 0
474.896 -1.30898 0
21.7358 51.3644 0
17.3525 48.9178 0
156.327 55.021 0
156.855 50.055 0
444.904 22.8199 0
440.645 25.4442 0
450.215 26.4579 0
448.569 31.1799 0
232.425 28.6523 0
230.104 24.2256 0
300.844 2.18725 0
297.467 -1.49286 0
481.065 30.7338 0
478.159 26.6654 0
379.965 9.04378 0
383.911 12.1099 0
340.098 33.8593 0
340.368 38.8497 0
283.245 -7.15228 0
284.081 -2.21769 0
414.253 4.48129 0
412.647 9.21789 0
426.176 5.70758 0
425.661 10.6819 0
1.03543 7.61542 0
5.9964 7.8812 0
488.935 -13.8898 0
485.923 -17.8795 0
19.5666 6.05402 0
24.2032 4.26425 0
153.165 16.096 0
156.713 12.5789 0
250.816 3.02516 0
250.1 7.97709 0
206.412 0.997403 0
209.978 4.49281 0
313.42 8.48925 0
317.807 6.09779 0
458.702 -7.15689 0
454.185 -9.29636 0
86.9938 38.7543 0
83.862 34.8567 0
58.7418 38.6774 0
57.0617 43.3862 0
176.749 24.1473 0
172.074 22.3839 0
105.279 46.5599 0
100.749 44.4088 0
76.3565 43.6579 0
78.8945 39.3472 0
40.9343 32.2021 0
45.1524 29.5125 0
220.399 10.1689 0
224.415 13.1377 0
152.374 52.4062 0
147.806 50.3259 0
438.854 20.6614 0
441.996 24.549 0
479.254 -1.19105 0
484.027 -2.68186 0
406.862 28.2494 0
409.798 32.2958 0
163.299 22.452 0
168.28 22.8352 0
129.418 8.26488 0
128.791 13.2309 0
154.011 21.6328 0
150.768 17.8314 0
233.985 7.90185 0
234.181 2.9014 0
31.1198 18.7064 0
33.5642 23.0664 0
372.36 1.51261 0
376.202 -1.68497 0
235.202 35.6934 0
230.389 37.0865 0
453.312 18.1485 0
450.608 13.9445 0
78.1564 5.84924 0
83.0529 6.71023 0
131.703 32.9205 0
126.859 31.6677 0
415.663 -7.26191 0
416.487 -2.32909 0
35.9719 18.1972 0
38.5382 13.9061 0
281.767 -7.29548 0
277.003 -5.83625 0
394.12 28.3983 0
399.028 27.419 0
33.3861 41.9863 0
38.3281 42.8484 0
321.237 -1.84827 0
318.536 -6.05535 0
382.929 38.5092 0
381.965 33.6049 0
129.729 35.3054 0
133.959 37.9801 0
425.05 -3.60698 0
429.451 -1.2402 0
342.002 -10.1815 0
337.182 -8.89613 0
290.207 15.6863 0
286.01 12.9714 0
132.928 44.6012 0
136.43 41.0209 0
173.65 48.6727 0
178.434 47.1497 0
336.537 -7.89274 0
336.451 -12.8959 0
114.928 10.2297 0
119.173 7.61572 0
256.891 32.5717 0
258.028 37.4382 0
304.748 -9.56423 0
299.78 -9.16551 0
224.666 36.2181 0
219.713 35.4675 0
327.544 2.34399 0
323.213 4.8328 0
59.4336 35.9365 0
61.8808 31.574 0
488.166 1.63534 0
491.947 4.90344 0
26.3866 25.4707 0
26.4931 20.4689 0
44.9413 7.27809 0
44.1325 12.2197 0
344.712 29.4014 0
343.033 34.1117 0
36.0932 37.133 0
39.8726 33.851 0
99.9163 1.6562 0
95.0686 2.7484 0
338.307 -5.55286 0
340.5 -1.0592 0
379.645 2.30033 0
380.92 -2.53589 0
325.502 26.369 0
321.622 29.5303 0
456.635 -15.7273 0
458.851 -20.2096 0
298.964 -5.8993 0
294.955 -2.92389 0
115.653 32.5984 0
111.298 30.1409 0
1.99026 28.835 0
6.65929 30.6244 0
7.68094 16.2077 0
2.9831 17.8743 0
147.669 26.1682 0
149.802 21.6443 0
252.144 19.1346 0
252.051 24.134 0
378.762 -12.8785 0
376.87 -8.24965 0
380.171 18.4824 0
385.013 17.2322 0
277.781 10.9205 0
272.789 10.7951 0
450.638 18.6274 0
446.704 21.7164 0
208.563 1.76798 0
205.361 5.60188 0
433.438 32.5031 0
437.829 34.8976 0
269.729 29.907 0
269.189 34.8768 0
258.891 34.0537 0
254.956 30.9663 0
481.912 29.7182 0
480.654 34.5574 0
257.351 50.8731 0
253.554 47.6083 0
89.0874 9.88917 0
84.6806 12.2163 0
135.462 45.0281 0
139.654 47.774 0
287.036 12.5073 0
287.065 7.50464 0
44.7259 10.2758 0
47.8489 6.37891 0
478.941 6.78728 0
476.656 2.34146 0
31.3196 5.00103 0
29.9081 9.8043 0
420.253 30.9375 0
419.892 25.9514 0
279.263 41.3767 0
278.06 46.2276 0
232.351 26.1164 0
230.328 30.6907 0
15.9764 9.65348 0
20.2692 7.13109 0
59.3967 57.8674 0
54.3585 57.8161 0
135.94 16.9063 0
140.912 17.3182 0
239.312 52.3852 0
235.217 49.4966 0
364.387 24.5611 0
367.078 28.7743 0
289.616 37.5286 0
289.887 32.5394 0
371.675 4.6149 0
371.732 9.61518 0
73.7901 8.03643 0
78.0324 10.6522 0
371.974 28.7047 0
373.883 33.3248 0
99.5683 11.6185 0
97.344 7.14158 0
375.916 -11.2215 0
380.723 -12.5613 0
172.121 1.58142 0
167.178 1.01232 0
315.6 -1.74762 0
319.925 0.747225 0
268.079 41.1227 0
266.868 45.9718 0
234.372 1.63846 0
229.719 3.42951 0
440.438 25.0111 0
435.569 26.1638 0
57.6839 53.6445 0
60.7606 57.5943 0
58.8814 44.3895 0
63.6963 45.8015 0
54.5662 46.7075 0
59.5751 47.0834 0
9.44298 54.3734 0
4.70518 56.075 0
51.6103 39.3997 0
48.4835 35.4972 0
260.173 -0.0826424 0
255.769 -2.42598 0
147.508 34.2716 0
146.776 29.3271 0
438.071 -2.63598 0
439.196 2.23598 0
251.758 45.8012 0
247.929 49.0345 0
278.96 28.3863 0
283.958 28.1587 0
245.587 19.4554 0
244.213 14.6478 0
279.096 21.4423 0
281.522 25.8118 0
310.911 44.7093 0
309.657 39.872 0
32.4387 38.3077 0
27.4316 38.5414 0
140.387 56.0548 0
141.949 51.3079 0
132.912 17.1099 0
134.468 21.8625 0
86.5989 49.1438 0
88.1827 44.4045 0
85.3342 11.132 0
90.0093 12.8521 0
170.793 13.3176 0
174.439 16.7312 0
323.066 20.4205 0
328.006 19.6352 0
16.9208 52.1761 0
21.7124 50.6509 0
16.057 26.5627 0
11.8661 29.2885 0
390.523 -3.70779 0
389.326 1.15001 0
277.016 38.6934 0
276.984 43.69 0
163.436 9.6172 0
168.351 8.7912 0
368.78 -4.89721 0
371.044 -9.35528 0
73.0636 5.60508 0
73.9837 10.5269 0
121.158 4.4623 0
117.521 7.87762 0
133.152 9.04274 0
133.038 4.03704 0
217.906 3.94082 0
215.145 8.10734 0
1.37528 54.8834 0
6.00162 56.8553 0
249.12 17.0273 0
252.4 20.7983 0
156.262 47.3066 0
161.013 48.9215 0
431.501 -9.86517 0
433.798 -5.42443 0
492.177 20.8548 0
496.601 23.1798 0
120.083 50.2179 0
117.59 45.884 0
203.904 15.0755 0
203.861 10.0732 0
336.486 9.67909 0
340.276 6.41915 0
456.919 6.86208 0
454.999 2.24661 0
80.7159 15.6843 0
84.8283 12.8594 0
478.249 16.9783 0
483.215 16.3933 0
394.551 -3.70733 0
395.333 1.23295 0
279.769 8.20777 0
276.171 4.74098 0
33.3952 2.38704 0
35.6205 6.86613 0
440.132 14.4583 0
444.841 12.7737 0
452.259 3.65003 0
447.466 5.07367 0
327.618 -5.75585 0
323.058 -7.78543 0
254.894 4.0992 0
259.246 1.65573 0
104.763 50.6325 0
105.554 55.5628 0
56.8731 54.3632 0
61.7912 55.4272 0
342.243 6.76961 0
345.259 10.7547 0
241.022 26.74 0
243.898 30.8287 0
243.705 16.9871 0
240.755 12.9524 0
34.6693 21.2987 0
34.7591 26.3003 0
265.947 5.59958 0
265.223 10.5494 0
175.696 43.6495 0
180.328 45.5676 0
327.56 0.147914 0
330.187 -4.10539 0
342.735 42.058 0
338.755 45.0969 0
110.628 51.4743 0
112.831 55.9611 0
115.026 20.3944 0
112.121 16.3292 0
249.319 14.9426 0
245.143 17.6894 0
360.799 19.2413 0
365.461 21.0464 0
160.517 35.3647 0
157.469 39.3342 0
396.252 -3.01508 0
392.181 -5.90965 0
218.514 -1.43761 0
213.536 -1.34779 0
111.116 46.4525 0
115.437 43.9049 0
89.8047 49.4721 0
94.4757 51.3142 0
496.184 -3.13013 0
495.43 1.81376 0
78.1076 51.476 0
79.277 56.3306 0
180.698 8.38278 0
181.457 13.3287 0
461.915 2.34023 0
458.256 5.74912 0
118.647 54.5415 0
115.456 50.685 0
258.329 30.6361 0
261.67 26.9115 0
222.314 10.698 0
219.518 14.8438 0
376.618 38.0104 0
374.14 33.6683 0
257.363 29.5397 0
256.283 24.6593 0
254.079 49.0183 0
249.434 50.9193 0
115.228 44.1927 0
115.181 39.1972 0
436.041 22.8064 0
440.84 21.3939 0
147.116 44.1899 0
151.668 46.2919 0
148.738 48.7756 0
153.58 50.1026 0
123.623 53.4867 0
121.402 49.0088 0
283.878 17.3815 0
281.533 21.8013 0
271.417 29.763 0
276.403 29.321 0
251.055 44.1244 0
246.041 43.9739 0
246.018 46.2534 0
248.797 50.4116 0
417.838 19.2058 0
417.655 14.2094 0
454.202 -8.27743 0
450.521 -4.89246 0
36.9345 9.99363 0
32.978 6.963 0
96.1911 57.8845 0
91.2929 56.7266 0
130.193 8.64073 0
133.269 12.5772 0
256.563 6.09044 0
254.273 10.5361 0
263.63 37.7592 0
259.819 34.5179 0
234.079 33.4799 0
229.087 33.0866 0
37.574 45.5717 0
41.6862 48.4384 0
459.737 -10.8241 0
460.062 -15.8145 0
76.2836 52.1755 0
72.7094 55.691 0
197.398 8.94335 0
202.38 9.12408 0
241.234 -3.15363 0
242.124 1.7714 0
380.246 42.0083 0
375.236 42.0674 0
189.005 13.4351 0
185.382 9.99427 0
183.6 23.9337 0
185.528 19.3175 0
141.263 38.3998 0
140.699 43.3649 0
257.331 0.804142 0
252.88 -1.44776 0
412.542 5.30255 0
414.526 9.8907 0
191.092 4.34514 0
187.68 7.99304 0
83.846 7.62423 0
88.5369 9.28786 0
150.267 35.6218 0
145.259 35.5748 0
392.007 -16.265 0
393.062 -11.3753 0
438.214 34.4262 0
433.211 34.3304 0
141.372 29.3928 0
140.577 24.4567 0
319.119 21.691 0
318.244 16.7687 0
279.552 26.9224 0
280.699 31.7878 0
236.078 31.1279 0
240.794 29.4486 0
189.564 38.8159 0
194.573 38.6083 0
319.38 8.00805 0
323.895 10.1448 0
278.524 -9.4205 0
283.501 -9.2957 0
25.335 5.76323 0
23.5596 10.4422 0
287.03 48.8911 0
291.728 47.1311 0
480.551 26.921 0
479.692 21.9956 0
254.452 42.2783 0
251.189 46.0751 0
435.251 8.1667 0
439.756 5.99476 0
316.914 18.2946 0
317.956 23.184 0
23.1793 15.1635 0
22.6084 10.1893 0
391.319 -13.1696 0
387.617 -16.5251 0
121.056 7.12039 0
119.394 11.8398 0
465.265 -20.5329 0
467.645 -16.1356 0
328.902 39.1952 0
333.801 40.243 0
340.432 -3.13853 0
345.296 -4.26042 0
346.952 5.8593 0
343.539 9.51392 0
315.705 -3.20512 0
319.112 0.44999 0
241.641 13.4714 0
239.508 8.94915 0
268.184 -5.30794 0
263.835 -7.7492 0
19.0878 51.7876 0
24.1198 51.7855 0
80.5548 10.6622 0
85.5266 10.8835 0
14.1959 20.9111 0
9.28199 20.0652 0
317.328 34.403 0
312.997 36.9186 0
31.028 3.38777 0
32.1373 8.27133 0
48.6278 51.3007 0
43.5995 51.4358 0
317.274 35.7227 0
312.422 36.9712 0
216.596 11.7031 0
214.612 7.11274 0
80.575 17.9023 0
82.9737 22.2882 0
315.604 16.4951 0
312.278 12.7648 0
305.226 40.8333 0
306.253 45.7234 0
21.1569 34.4788 0
20.3574 29.5445 0
185.81 52.3279 0
180.783 52.3121 0
185.295 48.741 0
180.276 48.9463 0
252.413 -4.80229 0
248.127 -7.35116 0
257.444 20.9812 0
252.466 21.4391 0
421.67 5.98054 0
416.741 5.15434 0
429.722 11.053 0
424.859 9.89997 0
309.374 0.2735 0
304.488 1.28774 0
271.386 31.9858 0
270.988 27.0028 0
54.0787 27.7864 0
49.6188 30.0485 0
25.6046 3.73465 0
24.0133 8.48076 0
124.834 38.5044 0
122.294 42.8148 0
1.07209 30.4935 0
4.96781 33.6319 0
243.129 46.9416 0
247.312 49.6995 0
376.72 20.083 0
381.692 20.6102 0
57.5186 55.5684 0
52.6401 56.8097 0
378.43 20.3505 0
377.603 15.4198 0
199.033 7.16129 0
197.88 12.0299 0
348.877 4.89425 0
352.6 1.55911 0
172.572 15.6098 0
168.011 13.5834 0
363.107 -7.40515 0
358.222 -6.38183 0
171.394 10.0662 0
176.376 9.89427 0
79.4172 23.1152 0
78.2472 27.978 0
434.341 21.4787 0
429.383 20.8204 0
66.7211 10.9772 0
69.9715 14.7688 0
354.974 32.8187 0
357.257 28.3684 0
16.5266 53.394 0
20.8513 55.9503 0
174.461 41.5382 0
171.46 45.5439 0
187.967 16.5052 0
183.184 15.0686 0
241.35 25.2112 0
245.99 27.0756 0
116.311 -1.48535 0
114.345 3.11443 0
275.478 34.2443 0
279.39 31.1215 0
52.1137 58.769 0
47.6097 56.5338 0
134.174 47.242 0
129.658 45.0621 0
183.147 0.71332 0
178.84 3.21948 0
190.676 52.1122 0
186.26 49.7334 0
9.21209 15.3733 0
9.6811 20.3545 0
404.574 -15.7245 0
408.646 -18.6192 0
359.659 21.7818 0
355.521 18.9766 0
16.8271 4.40055 0
15.5254 9.23566 0
338.911 -8.57211 0
342.901 -5.56794 0
58.7911 33.2582 0
57.924 38.1814 0
332.228 20.9042 0
336.643 23.2505 0
178.648 12.2137 0
178.301 17.2041 0
171.924 49.1424 0
176.706 50.6699 0
18.3042 18.6868 0
13.3255 18.906 0
181.634 15.9955 0
183.299 11.2791 0
289.741 37.8189 0
285.208 39.9557 0
306.295 41.277 0
310.804 43.4577 0
410.987 -9.49464 0
412.607 -14.2261 0
339.371 22.9985 0
334.397 23.5384 0
228.662 25.8069 0
225.72 21.7664 0
35.9981 26.3606 0
39.2811 30.1286 0
353.072 -2.57081 0
348.185 -1.54859 0
440.945 6.86544 0
435.948 7.00895 0
415.497 22.6349 0
416.727 27.4804 0
389.971 23.3649 0
386.858 19.4548 0
451.34 22.9194 0
455.917 20.9022 0
140.721 52.1439 0
137.545 48.2767 0
6.7015 51.8936 0
9.14058 47.5239 0
45.3777 31.6834 0
47.7766 27.2948 0
194.948 15.0631 0
190.844 12.2155 0
164.549 47.3581 0
169.034 49.6022 0
334.037 -12.1263 0
329.059 -12.4003 0
46.9489 14.9473 0
50.9543 11.9736 0
106.27 43.5125 0
102.561 40.1501 0
88.4235 27.9601 0
91.0331 23.6865 0
139.43 25.7498 0
140.791 30.5599 0
281.318 40.6796 0
285.888 42.7336 0
482.639 0.529374 0
479.262 -3.15532 0
83.4446 8.62391 0
88.3896 9.1614 0
438.096 12.5119 0
441.31 16.3404 0
457.521 15.6515 0
459.045 10.8882 0
427.024 -8.65679 0
431.987 -9.22732 0
59.5698 11.5366 0
54.5991 11.7678 0
166 55.135 0
162.226 51.8385 0
50.0095 28.4532 0
46.6444 24.7592 0
356.804 14.195 0
351.964 15.454 0
134.276 37.1432 0
133.639 42.0999 0
291.446 29.535 0
287.808 32.9695 0
338.714 11.701 0
340.797 16.2451 0
459.534 -4.90035 0
457.8 -0.209214 0
22.9687 13.4147 0
17.9949 13.2886 0
349.584 34.5556 0
344.694 35.6404 0
357.668 22.1805 0
355.691 26.7748 0
30.3607 2.67891 0
25.6657 1.06229 0
397.218 -1.88044 0
398.197 -6.78585 0
272.887 18.8281 0
272.15 13.8827 0
199.047 -2.78269 0
194.902 -0.0132528 0
374.086 28.095 0
375.532 23.3077 0
14.8984 3.37666 0
18.8861 6.35984 0
7.94682 41.021 0
11.7339 44.2976 0
365.14 32.2795 0
363.239 27.6568 0
422.644 22.8136 0
427.617 23.3533 0
126.728 31.8746 0
131.687 32.5455 0
45.7294 42.1721 0
50.7125 42.7531 0
110.336 41.009 0
110.634 36.0204 0
184.04 8.0975 0
186.773 3.91236 0
105.925 39.2375 0
106.229 44.2248 0
396.204 -0.843536 0
399.77 -4.34823 0
480.375 1.10276 0
481.645 -3.73428 0
46.4099 53.1172 0
41.52 54.3027 0
166.72 16.5601 0
164.702 11.9852 0
63.4469 8.54376 0
62.603 13.4783 0
307.716 35.6966 0
312.004 38.2787 0
28.8247 57.1262 0
33.4119 55.0624 0
426.344 -13.0662 0
431.239 -12.0675 0
36.0085 32.8794 0
38.5797 37.1662 0
318.47 4.64327 0
321.928 1.03454 0
368.464 24.7002 0
368.799 29.6881 0
497.641 31.7065 0
493.267 34.128 0
53.4035 28.8816 0
55.8927 33.216 0
24.1 34.0577 0
27.2391 30.1625 0
375.234 10.228 0
372.559 14.4553 0
441.997 4.50832 0
437.081 3.60914 0
461.506 -12.3967 0
464.525 -8.41205 0
59.7286 42.3162 0
59.1388 37.3547 0
15.1284 56.2917 0
10.9155 59.032 0
334.2 6.27277 0
329.401 4.89392 0
6.78017 29.5521 0
6.22843 24.5823 0
245.594 14.1734 0
246.255 9.21473 0
323.866 8.2528 0
328.728 9.39833 0
240.312 7.00686 0
237.739 2.72086 0
444.016 22.7246 0
439.541 24.9601 0
153.501 24.3912 0
153.515 19.3897 0
437.123 27.3578 0
433.937 23.5051 0
362.186 1.31368 0
360.701 -3.46151 0
324.198 36.9813 0
320.37 33.7597 0
151.142 9.47699 0
148.861 5.02734 0
305.671 35.7008 0
309.55 38.8605 0
429.421 28.1973 0
425.225 30.9221 0
470.153 -17.3587 0
475.071 -16.468 0
26.1448 5.16523 0
27.9073 0.4807 0
337.453 7.73314 0
332.477 8.18426 0
214.351 17.1306 0
218.581 19.7879 0
214.411 -2.90189 0
209.463 -3.43659 0
399.533 33.2504 0
401.371 28.5987 0
113.073 49.4227 0
114.587 44.6596 0
231.794 39.567 0
236.296 41.763 0
75.5168 22.2703 0
80.4504 23.0391 0
306.007 46.0536 0
310.68 47.8665 0
332.048 22.0648 0
332.198 27.0616 0
337.756 35.9621 0
336.421 31.1459 0
68.6542 45.6603 0
71.8372 49.5225 0
153.304 26.6866 0
152.536 21.7457 0
73.917 1.76868 0
72.0758 6.4209 0
213.339 45.6782 0
211.06 50.1302 0
465.811 15.8817 0
460.849 15.2659 0
151.35 35.7356 0
152.261 30.82 0
319.612 0.439111 0
314.742 -0.6491 0
333.342 17.9638 0
329.503 14.7638 0
47.0302 37.4771 0
51.6234 39.4733 0
337.616 2.34325 0
338.573 -2.56682 0
429.878 15.7306 0
432.326 20.0888 0
484.863 8.38554 0
482.192 4.16092 0
486.945 -1.41427 0
486.294 -6.37156 0
110.735 5.05229 0
114.932 7.74164 0
423.324 23.0429 0
419.014 25.5842 0
269.783 23.4721 0
274.511 21.8387 0
245.12 10.5599 0
248.554 14.1892 0
332.533 34.2191 0
336.085 30.6934 0
482.581 -8.06007 0
485.639 -12.0175 0
381.363 21.3818 0
377.261 18.525 0
485.806 -1.25568 0
481.704 -4.11054 0
469.393 22.8615 0
473.182 26.1225 0
357.305 11.381 0
352.32 11.0167 0
345.281 27.9833 0
346.041 32.9233 0
259.792 6.20633 0
255.198 8.16134 0
69.4492 9.82397 0
73.7477 12.3472 0
397.11 33.3862 0
402.067 34.0721 0
46.5299 29.9362 0
44.9395 25.1966 0
390.346 -8.27575 0
385.687 -6.47583 0
149.503 14.7601 0
145.06 17.036 0
197.074 9.14984 0
201.806 7.57597 0
129.978 15.4495 0
133.062 19.3804 0
484.905 5.76333 0
488.52 2.30682 0
170.615 41.9355 0
175.308 40.1742 0
58.9964 10.3014 0
59.6971 15.2579 0
117.069 23.4058 0
121.7 21.5313 0
325.787 -0.351203 0
328.781 -4.35399 0
414.982 -2.01074 0
411.333 -5.42595 0
296.984 41.5858 0
299.541 45.8814 0
270.599 10.5938 0
270.857 5.59819 0
472.917 14.6484 0
471.581 19.4677 0
393.099 35.1435 0
390.189 39.2129 0
386.058 -8.66734 0
382.399 -5.2637 0
297.473 8.45859 0
301.606 5.65433 0
10.0643 4.81192 0
13.954 1.70135 0
243.226 49.7343 0
241.211 45.1608 0
310.426 26.8571 0
307.972 31.2174 0
421.729 -12.4303 0
426.71 -12.7996 0
443.654 -1.5085 0
448.032 -3.92286 0
245.042 50.8738 0
249.539 48.6499 0
121.401 1.02843 0
118.669 5.21209 0
51.2676 25.8358 0
56.1938 25.0093 0
351.574 40.8219 0
347.147 38.4829 0
263.835 1.62256 0
259.5 4.09547 0
488.05 11.5592 0
487.205 6.63141 0
371.04 40.8484 0
375.996 40.1178 0
385.284 -10.5409 0
386.778 -15.3145 0
301.564 37.7611 0
303.925 33.3495 0
355.051 26.5354 0
359.598 24.4452 0
55.1863 32.6142 0
54.6157 27.6476 0
228.299 22.9916 0
227.953 18.0031 0
173.875 17.2582 0
177.105 21.0704 0
427.651 12.6573 0
423.791 9.48228 0
458.332 -5.77446 0
462.208 -2.6198 0
377.875 5.97303 0
377.63 10.9676 0
352.485 38.0087 0
347.551 37.1452 0
270.853 -2.07939 0
269.162 2.62746 0
124.043 32.3208 0
121.053 28.3145 0
453.77 32.8189 0
458.513 31.2308 0
90.0906 48.7442 0
85.1278 47.9631 0
196.539 45.8004 0
193.07 49.4159 0
85.5049 42.8331 0
80.5638 41.9766 0
489.757 27.9347 0
494.752 27.7396 0
115.091 26.215 0
116.111 31.1096 0
114.257 50.4905 0
117.767 46.9152 0
176.319 32.5576 0
179.128 36.6929 0
247.962 39.442 0
251.993 36.4688 0
23.5529 21.3009 0
22.063 26.0763 0
4.14611 44.4944 0
6.24999 39.9564 0
466.934 24.1806 0
470.948 21.1964 0
103.014 -1.10129 0
107.949 -1.64629 0
292.486 1.4091 0
289.04 -2.2066 0
2.21866 21.7646 0
6.63218 19.4358 0
380.204 21.9432 0
376.744 18.3363 0
482.48 -9.53265 0
486.549 -6.63038 0
381.439 17.439 0
381.635 22.4354 0
436.465 16.1315 0
435.95 21.1051 0
434.504 18.3024 0
429.605 17.3011 0
346.522 16.4464 0
350.061 19.9756 0
353.638 9.73058 0
352.807 4.79955 0
324.323 -11.1036 0
319.827 -8.94257 0
281.515 2.96633 0
276.698 1.66444 0
285.857 0.666078 0
287.614 -4.01787 0
462.96 30.6412 0
459.783 34.5034 0
179.319 45.1985 0
175.141 47.9702 0
478.601 -19.8844 0
482.748 -22.6768 0
89.8695 41.1522 0
92.1975 36.7294 0
240.243 40.95 0
243.685 37.3145 0
443.286 -16.1575 0
442.637 -11.1985 0
171.963 49.889 0
176.779 48.4678 0
266.784 43.3575 0
267.56 48.2925 0
344.656 33.1204 0
339.74 34.0764 0
403.764 -11.6157 0
402.129 -6.889 0
85.8862 9.64822 0
81.1847 11.288 0
324.926 -5.69728 0
324.231 -10.6527 0
426.658 25.1498 0
423.295 21.4504 0
37.0328 53.0765 0
42.0546 53.4063 0
168.777 47.1771 0
166.704 42.6293 0
461.692 7.66824 0
459.156 3.36027 0
74.1166 16.0673 0
69.227 17.0395 0
81.0779 16.5945 0
85.3566 14.0287 0
224.965 29.261 0
222.608 33.6731 0
438.59 27.8912 0
443.032 25.589 0
108.505 8.38218 0
113.342 7.21006 0
341.36 21.8925 0
337.046 19.3648 0
245.236 39.8491 0
250.072 41.1632 0
367.705 7.96079 0
365.189 12.2835 0
272.5 -7.26195 0
267.821 -8.97741 0
405.484 1.19636 0
404.738 -3.74733 0
237.173 15.4636 0
238.525 10.6476 0
237.719 43.5902 0
232.707 43.3817 0
5.48876 17.1771 0
7.16064 21.8891 0
272.06 21.1271 0
271.486 16.1603 0
425.56 32.5548 0
430.432 31.4158 0
24.0054 17.4519 0
28.2625 20.0517 0
352.005 27.1389 0
356.185 29.8843 0
58.0403 11.7698 0
62.6075 9.78373 0
378.797 2.86673 0
383.695 1.87433 0
25.7427 20.0973 0
27.4887 24.7829 0
315.203 2.84695 0
318.723 6.39339 0
228.415 2.45414 0
232.973 4.47783 0
333.873 25.5956 0
328.872 25.768 0
351.08 12.9116 0
353.465 8.51559 0
456.538 25.5202 0
459.336 21.3748 0
395.08 -5.0474 0
398.453 -1.36177 0
464.84 10.4373 0
469.829 10.1004 0
327.99 1.77464 0
328.878 -3.14864 0
437.424 9.61743 0
436.6 4.68609 0
370.933 25.0407 0
367.226 28.401 0
471.74 27.1968 0
473.273 22.4367 0
361.128 -7.96475 0
357.009 -5.13928 0
246.671 48.5302 0
249.676 44.5274 0
412.43 16.2876 0
408.82 19.7529 0
74.4339 6.52704 0
78.9207 8.68607 0
249.295 7.31656 0
244.352 7.98947 0
441.121 -1.14847 0
446.068 -1.86765 0
64.7313 22.6134 0
61.4454 18.8509 0
35.3853 43.2796 0
33.2334 47.7935 0
42.4051 24.9267 0
38.4434 27.9758 0
371.709 7.04609 0
373.351 2.32229 0
497.514 -5.66508 0
494.821 -1.45028 0
390.412 30.5979 0
395.338 29.7108 0
334.33 31.1419 0
329.769 33.2078 0
480.802 -0.676554 0
477.204 -4.14515 0
337.391 19.3541 0
333.729 22.7623 0
131.996 19.6816 0
134.077 15.1333 0
11.5865 37.7925 0
6.58811 38.1563 0
223.653 45.3916 0
227.592 42.2946 0
89.6942 1.51151 0
91.7734 6.0613 0
275.6 37.2429 0
278.142 32.9346 0
131.254 40.7547 0
126.42 39.4343 0
269.061 3.76775 0
273.455 1.40168 0
448.853 32.5931 0
450.768 27.9739 0
124.449 35.4025 0
129.009 33.3355 0
38.8423 12.485 0
34.1105 10.9415 0
82.2562 9.87924 0
87.2051 10.3987 0
449.982 11.1787 0
454.59 13.1143 0
35.8496 1.526 0
36.7905 6.44606 0
108.485 22.8545 0
112.605 25.6859 0
468.32 -8.80582 0
465.482 -4.68844 0
495.941 -17.619 0
491.798 -20.4173 0
160.205 16.3879 0
165.174 16.8427 0
291.049 38.3619 0
288.791 33.9035 0
128.537 39.6368 0
129.619 44.5143 0
181.648 10.4312 0
185.761 13.2629 0
3.9817 44.4637 0
8.39934 42.0901 0
121.452 19.0758 0
116.492 18.5386 0
113.021 10.6079 0
115.809 6.46063 0
321.448 -4.8215 0
322.568 -9.69741 0
247.57 15.73 0
242.644 16.5584 0
368.498 14.4575 0
366.807 19.1647 0
67.7005 11.1151 0
72.0278 13.5898 0
204.916 3.4952 0
207.228 -0.937675 0
408.523 -15.4992 0
411.599 -11.5588 0
107.689 12.8545 0
109.278 17.5972 0
353.185 14.0678 0
354.397 9.21537 0
455.035 25.2324 0
458.725 21.8559 0
398.329 -4.57066 0
396.654 -9.28158 0
341.346 41.3659 0
344.967 44.8187 0
173.048 28.1192 0
171.118 32.7341 0
470.207 2.6243 0
475.006 4.02319 0
84.3811 49.0212 0
88.6646 51.6324 0
382.046 37.9124 0
386.591 40.0124 0
301.777 35.6297 0
303.323 30.8726 0
451.816 32.376 0
456.579 33.9033 0
278.792 -5.06454 0
274.339 -2.82082 0
173.328 27.2502 0
178.275 27.9761 0
15.456 11.6147 0
10.633 10.4022 0
189.35 7.76392 0
190.512 12.6324 0
410.521 7.52834 0
415.467 8.24807 0
41.0857 1.98608 0
40.791 6.98775 0
215.71 32.2098 0
219.564 29.0167 0
110.674 44.2171 0
105.679 44.7289 0
79.9934 25.5016 0
77.5244 29.8528 0
325.865 24.9695 0
330.765 23.9559 0
317.494 20.2938 0
316.789 15.3441 0
210.598 25.5258 0
212.299 20.8239 0
149.577 53.2517 0
153.609 50.2678 0
463.944 19.2389 0
464.404 24.2175 0
173.204 27.2092 0
178.203 27.077 0
346.745 30.3569 0
351.738 29.998 0
274.435 45.9848 0
279.144 47.7092 0
20.4709 49.2583 0
20.1136 54.2377 0
258.921 37.8019 0
260.377 33.0187 0
179.62 43.8538 0
184.191 45.9122 0
288.946 29.5556 0
283.945 29.3818 0
271.628 37.9308 0
276.071 35.6183 0
365.243 6.40004 0
360.268 5.94314 0
278.993 16.556 0
278.344 11.5983 0
1.27457 0.838069 0
6.21774 1.15806 0
459.069 28.6958 0
463.221 25.9069 0
432.317 -5.39547 0
435.442 -9.29958 0
178.467 4.36698 0
183.328 5.457 0
266.23 21.9431 0
266.283 16.9429 0
280.1 20.6006 0
283.161 24.5504 0
44.4364 54.5995 0
41.1839 50.792 0
224.375 20.591 0
229.188 19.2448 0
136.484 34.7045 0
141.475 35.1151 0
285.985 4.68642 0
283.368 8.94683 0
28.102 11.3697 0
27.9595 6.36279 0
421.043 -8.6335 0
416.836 -11.3306 0
162.51 42.0506 0
165.037 37.7327 0
30.2898 3.20906 0
28.8233 7.99593 0
28.3535 18.495 0
31.8162 14.8952 0
452.305 -14.2111 0
449.021 -10.4406 0
265.529 21.1938 0
267.889 16.7842 0
234.182 30.161 0
235.659 34.9357 0
156.885 46.4968 0
160.023 42.5963 0
85.0105 29.579 0
83.3408 34.2951 0
31.0267 21.2824 0
35.2854 18.6778 0
294.06 28.88 0
291.451 33.146 0
52.3434 10.5346 0
57.0771 8.99894 0
417.214 27.637 0
421.734 29.7792 0
18.6136 55.0656 0
13.5811 54.8596 0
46.2037 13.5609 0
41.7783 11.273 0
56.03 34.3831 0
52.8812 38.2723 0
402.854 -1.80686 0
399.145 1.54378 0
24.3019 49.2324 0
28.1032 45.964 0
366.577 13.1741 0
362.355 10.4997 0
62.6807 26.7272 0
66.2316 23.2073 0
408.97 -13.1533 0
408.385 -8.18617 0
349.517 1.2988 0
352.56 5.26377 0
274.393 -0.887518 0
273.536 -5.81825 0
379.208 32.2912 0
381.003 36.9566 0
321.551 6.21809 0
324.708 2.34181 0
436.974 -7.16597 0
435.311 -11.8815 0
44.9471 11.1876 0
40.7681 8.47471 0
275.686 15.5641 0
276.849 10.6998 0
128.207 49.6492 0
129.897 54.3504 0
426.671 33.2189 0
423.296 29.5294 0
203.957 2.86635 0
203.931 -2.1397 0
135.582 18.5377 0
136.274 23.4912 0
28.7945 21.7288 0
26.4837 26.1645 0
436.026 33.8509 0
441.002 33.3282 0
90.0597 55.9766 0
94.4748 53.5759 0
431.945 28.5295 0
433.593 23.8081 0
269.194 16.3117 0
270.956 11.6307 0
101.616 49.5667 0
96.6705 48.6865 0
210.155 -1.06894 0
206.772 2.60341 0
103.555 40.8037 0
106.146 36.5182 0
340.744 35.1745 0
342.348 30.4383 0
374.15 10.4457 0
374.912 15.3868 0
243.624 32.5493 0
238.694 33.4324 0
388.837 26.1636 0
390.95 30.6925 0
134.586 20.4202 0
139.295 18.759 0
387.542 27.5334 0
392.482 28.3279 0
449.325 10.4265 0
454.267 11.1773 0
494.886 14.2998 0
494.809 9.30045 0
355.52 33.1603 0
360.085 31.1043 0
443.135 -4.93358 0
439.214 -1.83005 0
310.13 -2.53961 0
308.607 -7.30458 0
393.176 33.6957 0
394.176 28.7976 0
439.443 0.0618603 0
434.779 1.85997 0
480.419 24.8223 0
477.53 20.7429 0
218.446 -1.11001 0
216.017 3.25932 0
338.013 5.11189 0
341.638 8.55055 0
72.1809 55.2813 0
73.9178 50.5954 0
296.814 38.215 0
292.385 40.5597 0
416.188 -5.30152 0
415.289 -10.2212 0
175.069 14.9647 0
178.961 11.8331 0
472.602 16.5449 0
469.074 20.0896 0
466.347 21.3152 0
461.399 22.043 0
193.298 36.592 0
188.676 34.6688 0
252.662 16.3093 0
250.567 20.8509 0
406.314 -10.3485 0
404.48 -15.0004 0
368.318 -2.86183 0
365.068 0.936964 0
291.11 5.14599 0
287.804 8.89611 0
343.051 14.2735 0
348.041 13.9761 0
18.9868 31.9659 0
15.2416 35.2847 0
341.965 -6.87899 0
338.868 -10.8016 0
107.801 50.1169 0
106.567 45.276 0
439.113 -7.86462 0
434.711 -10.2288 0
188.341 27.9955 0
188.614 23.0022 0
408.721 25.1286 0
406.316 29.5158 0
95.2609 2.8041 0
90.6987 0.82559 0
494.213 8.41986 0
496.386 3.91515 0
226.867 43.6208 0
224.624 48.0911 0
151.208 17.1591 0
154.856 13.7452 0
41.3997 10.9243 0
40.0419 15.7416 0
144.275 15.1127 0
139.577 16.795 0
496.762 32.2303 0
500.231 28.6291 0
434.078 27.1928 0
429.488 29.1848 0
436.44 -20.4594 0
436.298 -15.4599 0
30.4582 27.2123 0
34.2777 30.435 0
11.9738 37.0608 0
15.5608 40.5495 0
79.7942 52.1305 0
76.1824 48.6587 0
345.591 7.51967 0
340.602 7.77425 0
480.601 -13.4441 0
477.946 -17.6803 0
368.11 34.9615 0
369.841 39.6506 0
5.75548 25.5244 0
4.72297 20.6316 0
0.711021 29.831 0
2.07309 25.0212 0
219.738 8.69944 0
223.701 5.66269 0
178.812 26.7419 0
174.202 28.6856 0
10.683 15.8129 0
15.5599 16.8218 0
58.2704 40.4283 0
62.9314 38.585 0
184.493 32.154 0
189.282 30.7091 0
456.215 -19.8789 0
459.724 -16.3193 0
59.5096 45.3209 0
60.5041 50.2155 0
475.326 -7.10285 0
470.633 -8.82008 0
66.6631 47.559 0
63.3187 51.2885 0
175.478 53.9006 0
176.174 48.9548 0
311.392 20.0298 0
316.338 20.7676 0
215.647 43.7936 0
220.51 45.0229 0
156.917 39.242 0
152.703 41.9525 0
197.521 -0.975889 0
201.989 1.23054 0
291.66 39.1742 0
289.047 34.9129 0
123.068 22.2224 0
122.996 17.2203 0
299.511 42.5724 0
298.089 47.365 0
339.308 35.6397 0
338.376 30.7297 0
185.542 20.4332 0
185.542 25.4335 0
338.82 19.4414 0
334.049 17.9478 0
149.966 11.7751 0
151.637 16.489 0
483.848 -9.52445 0
488.646 -10.9327 0
80.0286 56.4377 0
82.0704 51.8744 0
284.349 49.1454 0
288.647 46.5622 0
428.483 8.37024 0
423.664 9.7048 0
262.302 39.5613 0
265.656 35.846 0
388.866 -3.75593 0
385.905 -7.78378 0
470.46 16.5506 0
475.437 16.0807 0
154.662 45.4031 0
151.177 41.8116 0
350.153 30.3638 0
355.145 29.995 0
231.904 -3.21887 0
236.731 -1.98896 0
58.4194 54.8135 0
61.7755 58.5335 0
430.396 16.6148 0
431.075 11.6605 0
334.048 2.89829 0
330.678 -0.791856 0
481.683 -5.05417 0
483.224 -0.298309 0
492.527 33.4085 0
488.472 30.4826 0
246.129 32.8701 0
241.127 33.1198 0
487.429 -5.04664 0
482.761 -3.2548 0
274.23 -0.668663 0
279.214 -0.528599 0
181.215 16.6703 0
182.968 11.9864 0
242.138 34.6894 0
237.162 34.1261 0
70.3386 30.5423 0
65.344 30.8109 0
424.618 23.025 0
422.641 18.4341 0
469.219 -15.8574 0
464.446 -17.3396 0
111.852 32.3187 0
107.781 35.2269 0
484.535 30.2834 0
489.521 29.9084 0
319.087 1.72461 0
320.303 6.57621 0
367.397 2.19446 0
368.758 -2.61823 0
279.806 -6.75729 0
274.91 -5.83789 0
350.41 23.0273 0
354.546 20.2115 0
496.383 0.705072 0
491.518 -0.446683 0
271.111 16.9548 0
270.407 12.004 0
494.66 -4.78937 0
489.684 -4.29895 0
466.877 -11.896 0
470.771 -8.76184 0
116.636 49.5262 0
121.581 48.6357 0
204.601 3.16445 0
199.721 2.1631 0
15.0319 54.5312 0
10.3878 52.6044 0
2.53999 3.25775 0
2.67666 8.26053 0
45.1944 20.206 0
42.3591 16.0915 0
369.926 3.28611 0
373.187 -0.504207 0
18.3426 32.7472 0
13.3775 32.1309 0
368.75 30.3733 0
372.677 33.4711 0
472.063 -0.452555 0
470.967 -5.33063 0
280.664 46.3196 0
283.537 42.2224 0
219.486 47.3304 0
224.223 45.6781 0
333.192 35.5322 0
329.716 39.1334 0
62.7328 42.2968 0
57.9193 43.7112 0
360.803 25.5251 0
355.807 25.2571 0
483.815 20.1652 0
488.765 20.8633 0
260.606 41.9761 0
258.986 37.2487 0
213.151 47.4433 0
217.745 45.4263 0
341.657 38.2733 0
346.107 40.5671 0
248.213 9.64227 0
243.708 11.7971 0
46.0191 46.0237 0
45.8962 51.0157 0
379.597 24.8357 0
377.427 20.3322 0
337.502 0.154169 0
338.636 5.02545 0
484.644 -5.19926 0
481.537 -9.11455 0
54.028 32.2926 0
54.5719 37.2608 0
45.857 39.9092 0
50.2378 37.478 0
68.4243 23.0633 0
65.6009 18.9404 0
222.893 28.9031 0
225.978 24.9649 0
60.9262 29.2154 0
64.8617 32.2974 0
388.09 40.4767 0
389.057 35.5724 0
6.94001 6.97965 0
7.15034 1.97359 0
115.827 27.3103 0
113.698 22.787 0
129.184 -2.15329 0
128 2.71104 0
425.337 -15.0153 0
420.355 -15.3708 0
217.645 25.0346 0
216.491 20.1701 0
350.529 39.0308 0
353.335 34.889 0
329.427 17.5012 0
334.424 17.3394 0
394.75 26.647 0
391.85 22.5775 0
131.376 5.00636 0
136.132 6.48021 0
7.39186 19.0731 0
12.2685 18.0402 0
29.073 49.8075 0
30.7837 45.1113 0
315.062 24.66 0
311.177 21.5135 0
91.1021 41.3407 0
91.5524 46.3132 0
389.978 29.5054 0
386.907 25.5611 0
290.936 4.69859 0
286.443 6.87692 0
323.292 10.8658 0
326.997 14.2191 0
48.4616 32.0874 0
45.3338 35.9923 0
375.718 -11.2985 0
370.782 -12.0335 0
448.841 25.8371 0
447.012 30.4915 0
55.3753 47.425 0
60.3526 48.1053 0
485.737 5.85522 0
486.988 1.01285 0
165.141 15.777 0
169.427 18.3369 0
229.352 37.6256 0
228.006 32.8128 0
80.2157 19.5471 0
76.3092 22.6635 0
325.28 1.59681 0
320.785 -0.576424 0
129.856 33.1625 0
129.826 28.1635 0
173.686 52.202 0
178.712 52.1015 0
437.12 24.1654 0
433.349 27.4528 0
479.465 -6.57937 0
483.642 -9.32907 0
248.762 40.0009 0
253.523 38.4342 0
246.762 44.4937 0
242.907 41.2997 0
108.229 52.2117 0
109.065 57.1342 0
62.5408 55.7198 0
57.6173 54.6792 0
261.366 7.03268 0
258.614 11.2074 0
102.672 -0.876464 0
107.514 0.241442 0
258.897 27.4982 0
253.912 27.0719 0
308.206 13.3891 0
305.886 8.96477 0
214.531 38.5684 0
217.166 42.8176 0
153.563 29.0791 0
149.179 26.6771 0
370.867 39.2235 0
375.591 40.8851 0
221.68 26.5056 0
218.806 30.5998 0
116.418 28.0214 0
111.569 26.8022 0
79.5883 36.2216 0
74.8874 34.5079 0
150.081 15.8822 0
154.464 18.2704 0
283.715 39.2741 0
278.773 38.4475 0
223.777 41.4836 0
218.784 41.0234 0
276.954 11.3507 0
281.104 14.1324 0
307.077 28.3494 0
311.24 31.1228 0
90.3921 18.236 0
86.2143 20.9734 0
386.431 18.8978 0
385.894 13.927 0
461.015 -1.23075 0
458.193 -5.35635 0
474.793 -12.5527 0
479.658 -11.4031 0
236.351 -6.88246 0
239.79 -3.2615 0
412.074 0.436223 0
415.832 3.72963 0
87.2726 37.6494 0
83.1836 34.7696 0
208.461 9.5959 0
208.83 14.5853 0
364.63 20.5257 0
363.228 25.3261 0
55.8746 48.8563 0
60.5066 50.7946 0
223.812 10.7555 0
223.269 5.78131 0
172.196 41.0948 0
167.406 39.6238 0
39.2571 14.7482 0
43.0462 17.9958 0
135.1 12.0365 0
131.267 15.2375 0
369.22 36.0334 0
368.411 31.101 0
375.583 32.7737 0
377.59 37.3523 0
470.017 -8.32471 0
473.135 -12.2349 0
238.883 -3.65285 0
243.845 -3.23349 0
7.34797 55.3243 0
3.03228 57.9081 0
208.48 13.5932 0
205.472 9.60366 0
106.17 12.8312 0
101.239 12.1316 0
121.007 46.9399 0
116.521 44.6994 0
139.609 11.3286 0
134.654 10.8031 0
221.321 8.45788 0
224.936 5.01142 0
326.788 40.8262 0
323.152 44.2676 0
280.742 48.3173 0
285.557 46.9055 0
412.049 26.9589 0
409.298 31.1367 0
92.4703 1.33066 0
97.1794 -0.255258 0
9.10094 28.7881 0
10.0002 33.7057 0
456.191 -13.4739 0
457.117 -8.56006 0
69.3064 15.0772 0
70.7446 19.8678 0
450.084 8.51403 0
448.12 3.9173 0
315.38 17.8286 0
310.868 15.6774 0
397.767 -6.53179 0
396.022 -1.8436 0
165.434 39.0489 0
170.37 39.9154 0
440.802 13.3867 0
444.205 9.7209 0
44.7683 54.5844 0
48.9499 51.805 0
162.437 -0.112227 0
161.827 4.85713 0
159.615 49.4526 0
164.632 49.7071 0
495.934 26.4543 0
491.159 24.9756 0
434.821 29.8553 0
434.038 34.7932 0
406.158 37.557 0
410.643 39.7748 0
491.664 -2.80189 0
487.383 -0.216989 0
120.61 34.0641 0
118.994 38.7965 0
87.7953 23.9072 0
83.8475 20.8437 0
271.601 -0.80018 0
266.831 -2.25447 0
71.0147 31.7732 0
73.2225 36.2571 0
167.831 29.7329 0
170.007 25.2289 0
374.468 16.7204 0
369.468 16.8131 0
178.991 49.1637 0
182.965 52.2172 0
352.762 -2.70989 0
357.719 -3.30159 0
461.578 5.77348 0
460.734 0.845375 0
160.334 39.9838 0
164.961 38.0581 0
203.758 -3.87655 0
201.396 0.529869 0
492.69 -22.006 0
497.119 -19.686 0
228.63 27.5464 0
233.1 25.2978 0
132.623 28.5024 0
134.694 23.9503 0
244.996 49.2943 0
240.258 47.6466 0
88.6243 10.9704 0
91.8049 7.11853 0
463.485 -17.3376 0
460.029 -20.9497 0
49.8969 20.2062 0
51.6284 24.8971 0
94.8482 12.8588 0
99.8124 13.2434 0
6.4285 31.8968 0
7.88516 27.1137 0
252.291 42.8524 0
255.914 46.306 0
297.295 41.0461 0
299.665 36.6399 0
85.6402 39.9565 0
83.2084 35.5887 0
480.867 -9.55346 0
476.063 -10.9327 0
372.267 20.2198 0
367.563 18.5251 0
55.4638 49.5053 0
60.4749 49.9018 0
461.69 -13.0179 0
458.645 -16.9822 0
239.616 41.9811 0
235.065 44.0851 0
361.56 43.7005 0
365.86 41.1326 0
474.055 23.273 0
478.013 26.3271 0
103.872 49.4938 0
102.196 44.7863 0
314.552 22.667 0
309.862 24.4095 0
475.145 -18.9647 0
473.621 -23.7269 0
444.36 -8.5054 0
448.359 -11.5054 0
327.575 36.9047 0
323.092 34.6772 0
15.8109 55.7148 0
11.3306 53.4363 0
447.447 -10.5758 0
448.965 -5.81175 0
468.111 -10.7438 0
473.108 -10.852 0
68.1293 52.9313 0
72.3358 50.1929 0
458.757 -21.109 0
458.84 -16.1088 0
346.974 1.60796 0
342.652 -0.895103 0
10.1981 42.7629 0
5.7433 40.4667 0
468.86 9.89276 0
470.524 5.17627 0
423.644 2.25854 0
419.57 -0.634196 0
358.009 -1.45086 0
354.798 2.3801 0
4.55291 35.8475 0
3.1801 31.0394 0
180.289 20.9933 0
184.155 17.8209 0
416.726 -4.52191 0
416.858 -9.52172 0
288.519 -7.9364 0
293.351 -9.15128 0
169.245 50.3988 0
164.958 53.0068 0
322.642 35.9334 0
321.473 31.0744 0
390.778 18.0837 0
387.819 14.0585 0
66.2724 38.586 0
61.4729 40.0317 0
483.255 -2.9654 0
479.643 0.493945 0
99.8876 10.1518 0
104.765 11.1475 0
13.6707 4.00309 0
11.3904 8.45419 0
373.044 -2.5017 0
368.63 -0.159571 0
232.595 48.3305 0
236.605 45.3225 0
415.887 6.56233 0
420.555 8.34762 0
143.858 46.6574 0
141.719 51.1778 0
15.3915 0.231364 0
11.5546 3.40649 0
129.134 15.9786 0
131.005 11.3395 0
338.054 43.7395 0
334.075 40.7028 0
302.268 -7.71077 0
297.54 -6.12514 0
227.36 2.01915 0
226.384 6.92709 0
278.882 38.8932 0
275.012 35.7215 0
296.647 35.0283 0
291.696 34.2738 0
287.886 -3.3658 0
292.623 -4.92384 0
286.128 24.5544 0
281.161 25.1341 0
229.956 20.5063 0
226.564 16.8369 0
483.982 5.47187 0
487.089 9.38667 0
348.331 29.3091 0
345.653 25.0884 0
483.6 8.4208 0
479.428 5.66793 0
123.164 24.677 0
127.399 22.0217 0
416.498 15.9587 0
411.828 17.7522 0
302.177 3.50562 0
305.395 -0.318439 0
275.15 30.1365 0
279.479 27.6242 0
309.636 -5.20107 0
312.395 -9.36819 0
226.094 25.8239 0
222.825 29.6109 0
337.998 14.2667 0
342.887 13.2234 0
455.727 24.9974 0
455.351 20.0118 0
211.855 3.33494 0
206.893 3.77831 0
311.49 23.2867 0
313.188 27.9882 0
339.422 -5.54068 0
342.825 -9.19837 0
323.107 -0.444572 0
324.738 4.2831 0
164.638 49.3668 0
166.253 54.0945 0
170.685 26.6089 0
173.729 22.6391 0
440.751 4.69372 0
445.742 4.41162 0
46.4889 38.8741 0
42.0762 36.5095 0
229.243 6.71353 0
224.822 9.02922 0
135.879 26.3148 0
135.139 31.2599 0
48.6286 25.6982 0
49.014 20.7103 0
286.465 11.7075 0
285.729 16.6547 0
483.822 5.4732 0
485.433 10.2055 0
495.734 -4.02779 0
491.83 -7.14939 0
468.918 34.464 0
472.673 31.1604 0
206.971 1.81401 0
208.957 -2.77609 0
20.4688 57.0708 0
18.9149 52.3238 0
273.888 26.6398 0
269.085 25.2438 0
61.5772 6.14165 0
60.1114 1.35436 0
278.626 -3.40524 0
283.538 -2.55717 0
432.014 13.5171 0
433.856 8.86693 0
337.635 24.4509 0
335.563 19.9021 0
2.09179 43.1215 0
5.01598 47.1837 0
55.2979 47.5092 0
53.7102 52.2477 0
385.329 -7.55869 0
385.81 -12.5384 0
313.085 38.6404 0
314.176 33.7616 0
483.048 -2.34711 0
478.053 -2.12978 0
1.99342 44.4321 0
6.63142 46.3459 0
390.381 31.0126 0
385.432 30.2716 0
376.031 1.62403 0
378.094 -2.9313 0
51.004 50.7198 0
47.1126 47.5611 0
69.2081 13.4315 0
69.8224 8.46294 0
74.0193 7.02998 0
77.9621 10.0831 0
353.331 22.7136 0
351.825 27.4822 0
88.2011 49.7085 0
86.1727 54.2781 0
254.886 1.13125 0
250.857 -1.81574 0
270.134 45.4263 0
271.001 40.5045 0
293.474 -1.31713 0
288.503 -1.69859 0
283.835 40.5244 0
279.579 37.8869 0
415.193 10.2584 0
420.005 8.89761 0
87.9952 42.7856 0
87.3564 47.7387 0
75.3511 17.5682 0
75.9066 12.5946 0
250.731 37.4303 0
248.235 41.7658 0
66.04 34.1226 0
62.2273 30.8886 0
183.5 35.6997 0
185.726 31.2207 0
371.68 15.09 0
369.358 10.6639 0
307.357 33.3947 0
310.284 37.4492 0
352.553 29.9727 0
353.495 34.8812 0
362.911 18.9171 0
367.233 16.3984 0
19.0426 12.5398 0
18.9434 7.53218 0
474.138 8.10673 0
479.137 8.00593 0
44.7863 15.1863 0
45.2648 10.2024 0
291.32 45.6802 0
286.742 47.7302 0
408.013 33.3718 0
410.363 37.7847 0
463.891 -2.29032 0
462.555 2.52902 0
348.585 1.7032 0
349.857 6.5394 0
268.477 26.0222 0
265.762 21.8254 0
375.161 32.6035 0
371.887 36.3871 0
357.515 -4.9472 0
360.945 -8.5816 0
12.3639 20.2957 0
16.2373 23.4455 0
229.046 33.8679 0
231.059 38.4427 0
260.184 -8.31378 0
255.206 -8.25854 0
249.277 30.9921 0
244.305 30.4167 0
211.796 12.3192 0
216.784 12.4537 0
407.896 -8.11062 0
402.904 -8.23896 0
236.649 -0.306205 0
235.289 -5.1227 0
90.95 8.02985 0
86.3941 10.0405 0
137.873 20.8526 0
136.529 25.6703 0
427.763 13.8008 0
427.495 8.80795 0
175.149 9.12738 0
170.861 6.57944 0
221.009 25.7121 0
226.009 25.5852 0
343.6 11.6483 0
348.036 13.9492 0
210.36 38.8639 0
205.435 39.8057 0
189.656 49.5605 0
188.91 44.6225 0
480.944 21.3704 0
481.911 26.2759 0
277.652 15.6018 0
275.536 11.073 0
49.2385 21.7354 0
44.4138 23.0147 0
391.212 3.46841 0
389.953 8.31258 0
391.624 -0.100061 0
393.422 -4.76863 0
2.98011 32.3403 0
6.32446 36.0606 0
273.263 20.5104 0
269.129 23.3288 0
367.476 11.6142 0
369.916 7.24787 0
123.729 54.165 0
126.683 50.1223 0
122.149 47.4437 0
118.48 50.8585 0
264.325 17.2706 0
261.074 13.4761 0
19.9385 53.0473 0
19.2465 57.9907 0
216.672 2.04779 0
211.747 2.78958 0
318.661 14.3146 0
322.232 17.811 0
381.001 -5.29859 0
379.592 -0.499734 0
284.215 17.7976 0
288.59 20.212 0
423.487 -1.43459 0
419.639 1.75874 0
495.976 -7.30628 0
494.025 -11.9098 0
41.5221 6.52725 0
37.5054 3.58179 0
8.66381 51.9862 0
6.50338 47.4776 0
410.911 3.56145 0
413.34 -0.809943 0
417.244 31.3225 0
416.168 36.205 0
436.346 -13.5434 0
441.156 -12.1907 0
281.227 18.1472 0
286.195 18.7051 0
379.724 -11.5113 0
374.945 -10.0721 0
492.453 -24.7934 0
496.913 -22.534 0
49.8534 52.3834 0
47.8837 56.9777 0
77.9758 25.9306 0
78.6192 20.9706 0
418.04 -11.9872 0
416.104 -16.598 0
358.467 34.351 0
353.508 35.0546 0
41.847 26.662 0
37.2324 24.7522 0
490.56 13.041 0
495.532 12.5226 0
479.66 -16.7236 0
481.608 -21.3292 0
435.42 30.3567 0
439.14 27.0129 0
42.5031 51.1917 0
42.7158 56.1787 0
68.561 0.199827 0
64.3638 2.87213 0
59.9617 35.6028 0
60.1819 30.6086 0
130.048 53.1542 0
135.022 53.8935 0
172.553 36.6813 0
176.313 39.9823 0
138.996 47.7417 0
140.845 52.3836 0
131.249 8.85503 0
134.249 4.85985 0
87.9024 51.7029 0
92.9246 51.4333 0
449.804 18.5342 0
444.804 18.5091 0
147.452 43.5852 0
147.622 38.5916 0
46.0729 40.0396 0
42.7323 36.3171 0
109.315 7.61048 0
112.516 3.77831 0
84.6545 55.0527 0
83.4543 50.2056 0
177.363 -3.15952 0
182.326 -2.88715 0
158.349 41.8536 0
153.712 39.9547 0
40.647 17.9033 0
45.0563 15.5718 0
13.9964 14.5893 0
12.3928 19.3286 0
451.717 13.5042 0
446.738 13.9589 0
336.081 11.7481 0
336.615 6.77516 0
482.835 -10.0742 0
487.245 -12.431 0
271.418 1.0966 0
274.068 -3.14074 0
261.517 38.6226 0
257.61 41.756 0
240.573 3.45839 0
235.599 3.77384 0
422.937 0.775435 0
427.538 -1.17847 0
475.54 -13.9651 0
474.05 -18.7378 0
130.493 42.3186 0
129.495 37.423 0
441.713 -5.97628 0
437.742 -9.00961 0
36.6646 35.0349 0
34.3829 39.4856 0
101.023 17.3746 0
98.6155 12.9961 0
378.764 -15.1532 0
378.771 -10.1502 0
8.00466 21.8735 0
3.01968 22.0743 0
204.473 43.9793 0
200.339 41.1535 0
227.055 48.4023 0
223.019 45.4354 0
326.588 -7.96336 0
324.476 -12.4972 0
109.056 47.8704 0
106.601 43.5148 0
314.876 33.3141 0
309.931 32.5257 0
309.511 -1.03059 0
314.491 -0.732211 0
46.0399 17.82 0
43.8777 22.3301 0
153.767 52.6067 0
157.272 49.0257 0
121.708 27.6439 0
116.829 26.5545 0
397.172 1.45592 0
392.26 2.38109 0
223.066 25.8071 0
228.05 25.3809 0
244.335 30.449 0
249.079 28.8513 0
377.918 39.124 0
381.903 36.0936 0
292.649 -9.53766 0
291.041 -4.80035 0
242.775 37.6153 0
237.964 39.0205 0
66.4259 32.3251 0
66.7621 37.3119 0
132.292 47.2706 0
129.895 51.6616 0
202.082 44.546 0
204.353 40.088 0
480.223 -15.4618 0
483.643 -11.8158 0
361.211 7.64848 0
357.806 3.991 0
457.238 -5.93289 0
454.131 -9.84871 0
43.5771 32.3077 0
48.3653 33.7579 0
463.69 23.132 0
458.927 21.609 0
24.5497 5.91134 0
22.7854 10.5945 0
404.104 -16.8469 0
407.706 -13.3833 0
150.967 6.83426 0
151.801 1.89813 0
481.86 27.5111 0
484.116 23.0483 0
63.8443 3.82183 0
66.0352 8.31812 0
357.582 36.0927 0
358.651 40.9746 0
37.4139 11.9584 0
42.1523 10.4348 0
414.116 30.2951 0
412.496 25.5656 0
374.324 -9.88147 0
377.993 -13.2723 0
184.163 6.06403 0
186.226 1.50744 0
71.2553 53.7561 0
75.5988 56.2779 0
68.7175 31.4259 0
64.3609 28.9753 0
35.3134 25.9939 0
35.6548 30.9824 0
351.178 34.2383 0
346.406 35.759 0
161.746 23.3831 0
156.837 22.4538 0
324.567 16.1004 0
322.845 20.7962 0
417.441 -1.68531 0
415.542 -6.3103 0
481.863 -6.19788 0
480.704 -11.0614 0
409.009 25.1874 0
408.475 20.2155 0
494.411 22.0377 0
491.327 18.104 0
5.18629 14.4585 0
10.0817 15.365 0
497.225 17.43 0
496.267 12.5235 0
54.3123 50.1984 0
57.9538 46.7548 0
4.56629 54.5696 0
3.35587 49.7221 0
275.435 20.8649 0
271.452 17.8468 0
301.374 41.5618 0
298.244 37.6628 0
135.644 49.3946 0
134.453 54.2464 0
79.1059 52.5017 0
75.952 56.3932 0
216.059 28.4022 0
216.271 33.3966 0
11.3152 31.4132 0
6.31957 31.6731 0
222.21 38.0421 0
222.979 42.9788 0
457.659 7.88651 0
462.537 8.97614 0
258.717 -6.97366 0
263.491 -8.3922 0
166.482 52.6148 0
163.686 48.4673 0
81.4495 1.41416 0
76.5051 1.85036 0
229.631 -2.92026 0
234.22 -0.975149 0
350.483 17.7213 0
349.522 22.6287 0
312.224 1.89303 0
307.39 3.1353 0
285.092 29.6515 0
280.125 30.2654 0
384.306 13.6384 0
387.629 17.37 0
81.6144 53.5692 0
80.6659 48.6666 0
340.061 39.1962 0
335.689 41.6407 0
20.8979 44.102 0
23.6373 39.9149 0
377.785 11.3051 0
374.142 14.7332 0
314.64 19.5426 0
317.479 15.4247 0
222.023 39.9531 0
224.301 44.4025 0
464.198 15.3925 0
469.031 14.1092 0
309.391 -1.09518 0
308.067 -5.91954 0
272.885 1.45545 0
277.174 4.01177 0
408.961 25.2711 0
403.984 25.7872 0
439.033 22.8757 0
437.942 27.7553 0
367.884 7.76236 0
364.241 11.1881 0
130.75 1.12263 0
126.36 3.47159 0
139.638 36.5446 0
142.07 40.9119 0
227 26.3019 0
231.862 25.1253 0
379.011 -4.72981 0
382.132 -8.6339 0
336.43 0.76638 0
333.98 5.12542 0
400.543 -12.4659 0
404.782 -9.8243 0
421.413 36.5667 0
425.912 38.7556 0
496.926 12.7609 0
498.516 8.02011 0
159 4.53344 0
156.047 8.56335 0
178.101 33.047 0
177.186 37.9623 0
163.2 37.4914 0
165.336 42.0106 0
198.317 37.6958 0
202.469 40.4908 0
298.198 32.3899 0
300.905 36.5916 0
412.15 26.7769 0
409.389 30.9489 0
428.532 -14.2006 0
426.939 -18.9411 0
44.7454 55.654 0
49.4156 57.5224 0
280.636 -4.73089 0
275.92 -3.11875 0
366.125 33.7875 0
365.429 28.8378 0
6.5273 10.0075 0
10.9867 7.79606 0
152.585 29.789 0
151.845 24.8446 0
316.155 36.4419 0
311.251 35.422 0
288.664 19.3756 0
290.349 14.6626 0
238.075 44.7891 0
237.928 49.7823 0
40.5744 33.4635 0
42.6851 28.9294 0
216.326 20.9239 0
221.281 21.5791 0
293.377 2.5173 0
292.493 -2.4078 0
95.7859 14.7328 0
93.8972 10.1017 0
423.735 3.25069 0
419.109 5.1453 0
225.411 26.15 0
230.181 27.6512 0
92.991 18.4869 0
97.9304 17.8065 0
47.8278 31.4064 0
52.2216 29.0158 0
145.934 4.379 0
142.172 1.10228 0
78.566 5.06322 0
77.4933 9.95335 0
447.447 -17.282 0
450.81 -20.9802 0
132.127 10.8308 0
135.966 14.0201 0
76.4811 32.6356 0
75.5212 37.5428 0
317.895 1.92017 0
322.4 -0.233746 0
466.233 18.7438 0
470.486 21.3701 0
292.679 44.2659 0
296.607 47.3701 0
264.79 19.6254 0
260.933 16.4487 0
140.814 3.11153 0
139.087 -1.58585 0
36.7217 27.8596 0
31.7841 27.097 0
260.692 15.1664 0
258.603 19.7108 0
105.266 39.4597 0
110.242 40.0788 0
111.572 15.096 0
109.708 19.7391 0
111.74 31.1935 0
114.61 27.0995 0
292.527 34.9754 0
295.79 38.7631 0
453.709 -15.9709 0
458.7 -15.7196 0
438.332 23.7523 0
433.482 24.9789 0
323.273 43.6636 0
324.685 38.8682 0
150.446 25.0837 0
151.095 20.1244 0
427.112 -11.0484 0
429.521 -6.66728 0
307.725 -1.80023 0
309.751 -6.37173 0
265.116 43.2615 0
267.052 38.651 0
446.467 26.9819 0
448.666 22.4904 0
165.074 37.1143 0
160.914 34.3338 0
417.126 20.5699 0
414.138 16.562 0
132.886 42.5461 0
128.861 39.5689 0
365.917 43.4189 0
369.255 39.6909 0
184.574 18.5943 0
189.566 18.3506 0
141.603 13.537 0
146.589 13.5462 0
30.6733 47.2825 0
27.443 43.4602 0
245.368 40.0297 0
244.364 35.1346 0
363.869 33.7683 0
363.454 28.787 0
130.152 32.749 0
126.165 29.7301 0
136.279 41.5107 0
135.066 36.6635 0
396.666 -15.4002 0
401.268 -17.3385 0
328.156 -10.7893 0
326.204 -6.18512 0
216.659 14.2432 0
211.685 14.6601 0
269.513 -4.9968 0
274.457 -5.60855 0
259.927 17.3508 0
263.775 20.5389 0
359.648 -9.49468 0
361.381 -4.80311 0
303.187 28.7871 0
299.247 31.8787 0
179.414 28.9821 0
174.417 29.2069 0
105.19 43.7255 0
107.646 39.3659 0
125.335 30.3444 0
129.947 28.4077 0
487.453 19.0195 0
485.444 23.5992 0
261.104 40.6421 0
265.007 37.5044 0
436.407 23.7299 0
440.981 25.7522 0
336.487 42.0492 0
332.013 39.7997 0
411.778 30.9528 0
415.276 34.5274 0
89.712 27.8858 0
85.4106 25.3427 0
369.489 -2.98111 0
365.259 -5.63735 0
387.426 12.7858 0
387.599 17.7828 0
327.134 5.58226 0
331.728 3.62078 0
397.217 28.4079 0
401.551 30.9025 0
413.818 -10.925 0
418.799 -11.3018 0
259.42 4.12402 0
258.483 -0.79109 0
89.7252 17.369 0
91.0932 12.5538 0
490.873 5.716 0
491.495 10.6769 0
298.592 37.9747 0
295.907 33.7588 0
96.9925 16.3987 0
98.8785 11.765 0
154.016 1.575 0
149.065 2.0484 0
101.798 52.5029 0
96.7907 52.9827 0
1.85239 25.096 0
6.844 25.2353 0
239.254 36.0164 0
243.558 38.5709 0
349.648 40.7345 0
354.483 39.419 0
137.472 26.3668 0
132.835 28.242 0
470.845 -17.8051 0
472.404 -13.0544 0
193.237 3.04084 0
189.463 6.30923 0
464.015 4.45201 0
460.046 7.49516 0
50.3163 40.5701 0
45.6936 38.6393 0
158.238 25.6728 0
161.513 21.8926 0
36.1697 26.5937 0
34.4457 21.9003 0
59.3217 27.9151 0
61.7708 23.5543 0
69.5739 50.838 0
66.086 54.4372 0
115.13 43.3048 0
115.731 38.3441 0
262.967 6.79358 0
267.215 9.41927 0
172.294 18.1142 0
177.068 16.6473 0
363.132 7.33404 0
358.544 5.35679 0
435.025 -3.83026 0
440.014 -3.54385 0
351.065 4.88224 0
355.989 5.72505 0
301.298 36.7735 0
305.729 39.1034 0
449.212 34.2269 0
444.608 36.1843 0
266.972 16.6757 0
269.914 12.632 0
8.08496 12.2514 0
12.9866 11.4033 0
493.551 0.535847 0
491.556 -4.04806 0
232.539 37.079 0
230.132 32.6983 0
127.293 54.3226 0
122.575 56.0607 0
359.269 20.5875 0
357.85 25.3827 0
465.043 -9.73821 0
466.117 -4.85491 0
193.618 1.46411 0
196.456 5.57627 0
122.736 51.2024 0
117.778 50.3835 0
494.824 16.5016 0
496.096 11.6657 0
478.97 12.7879 0
482.124 16.6657 0
327.983 40.9778 0
323.376 39.0135 0
73.7567 42.2697 0
75.6351 46.9011 0
1.26784 5.34417 0
6.20246 4.80089 0
9.76936 34.0308 0
12.7927 38.0143 0
139.594 48.4541 0
141.051 53.2321 0
62.4948 19.6841 0
63.3117 14.747 0
347.657 -10.4899 0
342.672 -10.6566 0
102.419 48.2651 0
102.366 43.2693 0
4.20055 17.7607 0
0.952843 21.5546 0
181.879 9.63474 0
178.074 6.40212 0
70.9368 53.9559 0
70.1494 58.8858 0
14.3259 48.5584 0
14.8354 53.5249 0
199.25 3.32921 0
201.312 -1.22707 0
452.112 26.8864 0
454.004 31.5137 0
237.684 32.9762 0
239.762 37.5218 0
207.911 46.3967 0
203.29 48.3515 0
386.168 38.9573 0
389.877 35.5978 0
432.386 -6.09022 0
429.781 -1.82114 0
193.151 50.9239 0
188.735 53.3122 0
273.554 1.49005 0
270.585 5.51067 0
366.351 26.7016 0
364.843 31.4693 0
18.1251 27.9182 0
22.8638 26.331 0
289.412 20.7575 0
285.405 23.7527 0
230.232 50.343 0
225.636 52.3608 0
374.947 10.1338 0
370.413 8.03377 0
389.953 39.1852 0
394.826 38.0307 0
296.329 7.80852 0
291.336 7.83135 0
101.03 15.4876 0
96.098 14.7894 0
55.3789 36.1528 0
55.932 31.1843 0
234.516 45.5932 0
235.34 50.52 0
457.427 -21.6656 0
462.241 -23.0046 0
82.5755 6.44557 0
87.3714 5.13342 0
109.926 32.6229 0
114.928 32.6554 0
257.876 18.5151 0
254.612 22.3054 0
148.387 44.1197 0
145.04 40.4008 0
173.932 33.9471 0
171.5 38.3186 0
11.2286 34.2982 0
6.26374 34.9444 0
39.2609 31.9699 0
34.4636 30.5581 0
489.178 -3.38435 0
489.213 1.61585 0
473.01 27.2334 0
469.621 30.9114 0
111.529 27.1542 0
111.354 22.1574 0
431.741 12.2274 0
434.311 7.9361 0
395.249 25.4749 0
390.862 23.0773 0
276.624 25.5297 0
281.224 23.5634 0
496.153 6.57194 0
495.035 11.446 0
188.734 3.16074 0
191.786 -0.794137 0
188.728 32.0063 0
183.961 33.5265 0
284.304 2.05912 0
279.408 1.1066 0
4.77762 16.6175 0
4.2646 11.6415 0
410.906 -7.63801 0
414.763 -10.8161 0
425.729 -7.4147 0
424.407 -2.59121 0
137.559 31.0523 0
132.569 30.6985 0
367.599 34.625 0
370.726 38.5278 0
435.928 33.821 0
440.836 32.8485 0
261.386 30.1607 0
261.59 25.1654 0
279.443 -4.7927 0
283.304 -1.62638 0
45.9649 52.6067 0
44.6787 57.4328 0
307.873 1.10193 0
306.166 -3.59913 0
49.2047 18.5595 0
48.6552 13.5848 0
149.816 14.6211 0
151.677 19.2623 0
473.763 3.28902 0
475.525 -1.39177 0
225.572 44.3192 0
230.101 46.4689 0
156.854 25.7593 0
161.499 23.9108 0
456.011 29.9829 0
451.247 31.511 0
437.04 10.6169 0
441.704 8.81265 0
105.104 2.66569 0
100.275 1.48771 0
234.097 27.2625 0
229.098 27.0639 0
413.745 16.2967 0
413.012 21.2436 0
5.51756 33.0654 0
9.77237 30.4354 0
465.679 36.5696 0
470.609 35.7258 0
450.292 -3.73153 0
451.964 0.98007 0
162.229 3.39513 0
157.843 5.76098 0
418.915 31.0721 0
423.919 31.1093 0
311.727 39.2827 0
314.624 43.3595 0
4.58481 18.9785 0
8.41209 22.1842 0
392.439 1.18202 0
387.551 0.146545 0
21.6375 33.8726 0
17.1022 31.7631 0
462.898 -2.43164 0
467.737 -1.18469 0
32.3185 59.6315 0
37.3401 59.1834 0
229.424 48.4631 0
228.421 43.5693 0
276.191 24.8228 0
274.541 29.5446 0
386.787 42.2116 0
390.513 38.8688 0
175.893 11.0686 0
171.115 12.502 0
482.977 30.6321 0
480.041 26.5852 0
12.3034 23.6918 0
15.1054 19.5513 0
182.213 2.66388 0
186.325 5.48721 0
407.215 -6.08303 0
404.615 -1.81156 0
187.986 26.5531 0
183.76 23.8896 0
376.009 35.4741 0
371.341 33.6681 0
441.497 32.6313 0
438.568 36.6855 0
318.885 29.9458 0
314.094 28.5015 0
145.357 1.08133 0
141.308 -1.82549 0
55.8393 40.3878 0
59.9057 43.3103 0
376.046 34.1372 0
378.339 38.5798 0
406.59 25.9971 0
401.823 24.4802 0
449.031 5.29499 0
449.379 0.306268 0
254.076 39.9588 0
255.213 35.091 0
141.1 34.5208 0
145.521 32.171 0
152.348 11.9502 0
147.59 13.4432 0
260.091 39.6767 0
257.739 44.0913 0
317.242 27.6598 0
319.259 32.2331 0
287.686 19.1018 0
287.033 24.0601 0
209.651 30.9255 0
209.632 35.9244 0
262.432 6.48129 0
260.951 11.2588 0
235.793 24.0451 0
232.871 28.1048 0
80.7186 22.8431 0
85.694 22.3898 0
438.721 26.496 0
439.589 31.4192 0
266.603 5.35731 0
271.526 6.17623 0
218.944 10.0536 0
214.07 8.99631 0
81.8075 7.2874 0
82.7685 2.37261 0
265.109 20.0605 0
269.69 22.0584 0
220.11 50.4616 0
225.125 50.202 0
481.514 15.6827 0
481.853 20.6714 0
457.527 -20.2579 0
461.135 -16.798 0
6.55487 40.6477 0
11.2492 42.4079 0
411.886 13.9079 0
414.198 18.3404 0
222.191 17.1125 0
226.917 18.7319 0
455.348 14.0414 0
457.54 18.5337 0
96.0215 48.0791 0
94.58 52.8642 0
75.9162 43.9112 0
78.5663 39.6679 0
400.847 -10.9383 0
405.784 -11.6891 0
136.281 -2.08604 0
132.659 1.34109 0
242.772 28.9245 0
246.047 25.1425 0
12.9091 44.8391 0
15.1506 40.3679 0
398.013 36.022 0
393.172 37.3038 0
66.1848 3.45852 0
65.683 8.44198 0
248.413 42.1161 0
244.145 39.4961 0
34.4911 49.3374 0
29.4743 49.0111 0
310.349 29.8756 0
305.453 28.8328 0
320.263 4.75411 0
324.448 7.48077 0
38.1488 51.103 0
42.6239 48.8239 0
18.3513 54.4999 0
18.9243 49.5403 0
318.405 19.5757 0
321.157 15.3988 0
144.801 23.5024 0
143.139 28.2193 0
437.506 -6.81013 0
435.577 -11.4231 0
265.889 30.5059 0
268.743 26.397 0
317.29 40.9326 0
316.123 36.0735 0
199.889 11.8551 0
204.007 14.6687 0
304.662 31.6606 0
308.248 35.1478 0
478.935 14.6266 0
479.664 19.573 0
125.436 2.86219 0
121.818 -0.573075 0
67.1073 54.5594 0
69.3607 50.0949 0
39.6204 36.1415 0
43.7019 33.2436 0
114.945 -0.850016 0
110.01 -0.2907 0
46.9166 34.6434 0
51.9234 34.6459 0
251.354 27.5797 0
248.219 23.6866 0
494.737 -7.61049 0
490.469 -5.00384 0
347.114 -12.5593 0
346.089 -7.66297 0
235.272 20.9202 0
236.041 15.9782 0
46.8468 49.8315 0
45.9763 44.9137 0
469.464 -15.2617 0
468.247 -20.1117 0
424.128 6.70831 0
419.588 8.80444 0
222.777 44.6774 0
219.007 47.9775 0
125.749 37.6696 0
121.516 40.3486 0
324.183 18.9624 0
324.164 23.9621 0
78.3 49.935 0
82.3298 52.9202 0
67.8654 52.1933 0
66.3049 47.4474 0
47.8908 45.8457 0
44.9018 41.8348 0
13.8639 50.1711 0
12.1613 54.8695 0
170.287 -3.80314 0
168.316 0.793519 0
163.449 49.8721 0
168.216 51.4475 0
424.471 37.9029 0
428.382 34.7832 0
298.465 -1.85372 0
295.689 -6.00976 0
489.22 -1.93764 0
494.141 -2.82649 0
311.308 29.838 0
315.729 27.489 0
293.723 43.4236 0
293.58 38.4295 0
162.058 13.6212 0
158.391 17.0149 0
21.3561 46.2472 0
18.4552 42.1722 0
70.0028 16.6271 0
74.6347 18.4769 0
29.43 17.0691 0
26.4778 21.103 0
474.947 23.3263 0
471.391 26.8432 0
482.747 20.2973 0
478.426 17.7837 0
232.478 -0.120146 0
227.752 -1.70144 0
213.075 40.7015 0
217.638 42.7738 0
434.028 -16.9524 0
434.431 -11.9673 0
323.733 17.9446 0
328.404 16.1588 0
355.148 39.3964 0
358.071 43.4539 0
280.84 45.4985 0
277.767 49.4499 0
251.897 48.8417 0
256.668 47.2852 0
128.898 26.9866 0
123.937 27.6134 0
356.484 21.928 0
352.598 25.0792 0
158.704 46.5733 0
159.503 41.6408 0
171.824 42.25 0
176.548 43.93 0
273.808 18.0338 0
278.792 18.4035 0
398.241 -4.45065 0
400.44 -8.94294 0
33.4005 10.8511 0
37.6468 13.4588 0
66.7063 5.85237 0
70.9405 8.47679 0
79.2984 8.59094 0
83.2679 11.6112 0
78.9834 51.5961 0
77.9617 56.4843 0
179.041 0.101647 0
183.534 2.25489 0
268.224 11.1846 0
263.584 13.0374 0
479.77 7.85459 0
475.271 10.0366 0
474.481 -4.23055 0
478.553 -7.13277 0
398.634 32.1214 0
403.379 30.5276 0
15.5095 12.8303 0
10.7632 14.335 0
39.8659 13.8993 0
34.921 14.4764 0
11.3862 50.8967 0
6.56494 49.4764 0
497.817 22.165 0
499.74 17.5495 0
179.021 43.9603 0
179.805 48.8935 0
38.6992 26.1465 0
33.8352 25.0162 0
41.0188 40.946 0
36.4895 43.098 0
90.7887 37.2161 0
86.2548 35.1035 0
10.9197 13.1723 0
14.2106 16.9259 0
185.987 3.19654 0
187.088 -1.68667 0
238.27 15.6911 0
240.982 11.4904 0
22.783 38.7314 0
17.788 39.1612 0
233.25 44.8618 0
228.35 43.7934 0
398.954 38.1084 0
394.921 41.0742 0
222.874 23.32 0
227.845 23.8496 0
17.4479 7.78422 0
13.9365 11.3298 0
106.072 53.113 0
105.131 58.0177 0
11.2731 37.0557 0
6.65141 35.1303 0
42.9142 13.7582 0
43.2462 8.76162 0
232.944 6.80964 0
237.363 4.49169 0
260.699 30.3783 0
255.883 29.0213 0
249.714 8.1981 0
254.51 6.81867 0
250.855 42.598 0
255.412 40.5097 0
243.865 -4.38921 0
247.61 -7.6853 0
452.364 -16.6724 0
450.49 -12.036 0
479.631 19.8121 0
474.898 21.4247 0
74.2796 26.0988 0
78.8845 24.1538 0
205.885 37.4554 0
201.84 34.5085 0
194.405 -1.67677 0
199.353 -1.14914 0
468.606 1.51363 0
469.129 -3.45975 0
464.741 -9.25547 0
469.45 -7.58223 0
41.7873 31.3424 0
40.335 26.5589 0
222.583 45.7661 0
227.522 44.8754 0
491.157 11.6624 0
495.01 14.8445 0
5.78054 9.09583 0
3.07433 4.90201 0
341.645 17.7756 0
336.676 17.2157 0
253.407 40.4268 0
258.391 40.9646 0
25.4441 6.93154 0
24.8428 1.95748 0
240.873 26.5171 0
245.855 26.0571 0
274.711 12.2651 0
270.108 10.3277 0
70.4326 10.6835 0
75.2496 9.43137 0
424.314 18.4671 0
420.429 21.6197 0
173.396 45.4373 0
172.642 50.3757 0
229.995 45.3167 0
228.686 40.4947 0
89.882 52.68 0
90.8311 57.581 0
175.113 37.0176 0
171.226 33.8692 0
419.264 -15.4133 0
414.27 -15.3333 0
423.886 5.3769 0
425.852 0.777956 0
78.2109 39.2575 0
73.4283 40.7567 0
111.941 15.4661 0
108.969 11.4507 0
353.871 41.7546 0
348.862 41.8993 0
321.796 -3.76207 0
322.981 -8.62229 0
211.181 48.5239 0
213.159 43.9312 0
439.125 6.14235 0
444.055 5.30824 0
355.188 34.5232 0
353.68 29.7579 0
454.014 27.959 0
450.665 31.674 0
368.084 27.1408 0
372.937 28.3574 0
52.6087 49.7968 0
57.4906 48.6043 0
53.262 53.0411 0
58.1648 51.9185 0
260.184 6.67004 0
264.917 5.08774 0
248.357 14.4171 0
250.541 18.914 0
441.363 0.773603 0
446.14 -0.698321 0
9.25297 26.2134 0
7.79308 21.4311 0
206.18 8.46196 0
209.738 11.9659 0
266.977 33.1361 0
266.328 28.18 0
271.277 38.4393 0
271.316 33.4415 0
40.8074 57.4119 0
40.0675 52.4752 0
363.48 21.026 0
368.444 20.4063 0
77.5736 55.7486 0
74.3497 51.9169 0
63.9531 26.6763 0
66.2707 22.2442 0
349.349 10.0419 0
350.588 5.19614 0
442.917 24.149 0
446.744 27.3656 0
112.133 43.7092 0
109.724 48.0933 0
276.814 40.4808 0
281.647 39.1503 0
463.927 15.1502 0
464.312 10.1646 0
67.8445 49.6778 0
72.8666 49.8906 0
476.768 -17.9738 0
481.761 -18.2176 0
342.435 43.4388 0
345.468 39.4587 0
440.297 22.3025 0
435.969 19.7985 0
405.848 28.5439 0
406.055 33.5392 0
397.727 -12.5977 0
395.69 -8.02963 0
365.616 14.4734 0
368.395 18.6273 0
25.0594 30.2656 0
20.0779 29.8381 0
277.657 32.092 0
274.115 28.563 0
140.104 56.0035 0
139.872 51.0161 0
35.2634 24.1108 0
37.9265 28.3403 0
337.361 -13.6373 0
338.79 -8.84266 0
491.346 -3.00993 0
496.252 -2.04973 0
431.871 -9.22878 0
427.536 -11.7131 0
279.496 -3.3146 0
277.203 1.12842 0
223.9 40.215 0
228.834 41.1033 0
354.65 17.4562 0
350.015 19.3363 0
383.593 -5.07788 0
379.002 -3.10803 0
332.639 16.85 0
337.428 18.2838 0
471.454 -11.8414 0
476.413 -11.2147 0
196.06 45.4417 0
198.28 49.9188 0
103.662 12.2709 0
100.596 16.2153 0
441.243 -5.58445 0
439.564 -0.873256 0
281.748 16.72 0
286.132 19.1169 0
30.7737 39.6075 0
35.5157 41.2306 0
434.755 30.9576 0
434.778 25.9583 0
382.637 -2.87945 0
386.738 -0.0229414 0
479.35 30.2831 0
482.661 26.5356 0
59.1459 48.1909 0
55.0338 51.0654 0
262.869 26.9503 0
265.479 31.2135 0
35.6874 15.4357 0
34.4069 10.5976 0
85.5159 29.5888 0
87.1234 34.3205 0
333.148 10.2317 0
335.064 14.849 0
350.363 21.1513 0
348.288 25.7024 0
118.627 31.5514 0
115.724 35.6263 0
464.299 12.3838 0
460.543 9.08671 0
329.912 25.0776 0
332.748 20.9566 0
484.552 25.0168 0
484.658 30.0158 0
57.3381 49.4248 0
62.0354 51.2032 0
27.776 13.4371 0
26.9201 18.3691 0
423.304 20.4327 0
419.003 22.9877 0
493.062 17.9706 0
497.285 15.2921 0
342.026 40.9136 0
337.151 39.7608 0
320.723 37.3885 0
325.595 36.2188 0
236.952 0.376029 0
233.313 3.7945 0
104.92 5.16183 0
100.45 7.35654 0
472.744 33.5397 0
477.725 33.1011 0
469.164 -5.393 0
473.085 -2.29292 0
335.353 5.82946 0
334.517 10.7608 0
417.025 -2.19889 0
412.767 -4.81399 0
491.668 -11.5996 0
489.184 -15.9381 0
132.653 20.2176 0
131.004 15.4965 0
178.856 54.4177 0
183.367 52.2082 0
211.716 38.3911 0
213.363 43.109 0
12.2277 24.5246 0
16.5281 21.9845 0
437.408 20.543 0
432.485 19.6612 0
78.0351 27.4736 0
75.3229 23.2772 0
388.892 -2.52222 0
393.621 -0.91418 0
327.031 18.4556 0
326.435 23.4201 0
55.4191 38.3607 0
60.2223 39.7865 0
256.237 42.0852 0
253.855 46.4839 0
482.084 -21.878 0
486.404 -24.3952 0
464.867 27.1383 0
462.811 22.5815 0
463.404 16.4471 0
459.126 13.862 0
384.446 -6.39705 0
387.847 -10.06 0
260.835 15.599 0
258.941 20.2278 0
37.4459 54.652 0
32.8013 52.7292 0
455.552 24.6104 0
452.266 20.8434 0
38.604 33.4454 0
40.7923 37.9392 0
249.163 47.4541 0
249.176 42.4583 0
340.854 29.0001 0
336.045 27.6203 0
425.731 8.40861 0
426.245 3.43395 0
425.808 9.97283 0
422.241 13.48 0
26.5031 9.25599 0
23.2893 5.43643 0
424.051 22.0527 0
427.686 25.4853 0
309.475 8.55735 0
307.232 4.08994 0
443.845 -11.3095 0
448.724 -12.3924 0
192.827 42.0329 0
197.259 39.6887 0
123.609 42.1198 0
126.612 38.1162 0
271.368 19.7409 0
270.023 14.926 0
356.369 40.9266 0
361.247 42.0679 0
429.021 17.9281 0
432.647 21.3689 0
63.0182 12.3888 0
64.8233 17.0534 0
383.353 -2.57074 0
387.291 0.506653 0
377.638 6.81102 0
372.952 8.55473 0
268.222 16.5925 0
263.226 16.6741 0
359.551 16.971 0
356.947 21.2418 0
387.263 22.1843 0
388.702 17.3957 0
0.127388 47.4492 0
4.61845 49.69 0
278.256 36.4507 0
282.799 34.3436 0
21.5331 26.0106 0
18.9588 30.2985 0
461.406 6.76407 0
461.73 11.7537 0
270.543 16.5193 0
275.518 16.9903 0
323.725 5.83221 0
328.395 7.60286 0
13.7769 33.9058 0
8.77135 33.959 0
224.118 19.5619 0
221.921 24.0551 0
459.944 9.49475 0
461.556 4.76052 0
9.47088 26.3364 0
4.52866 27.0651 0
489.945 13.413 0
485.394 11.3479 0
135.072 34.0585 0
139.822 32.4762 0
435.134 -19.0591 0
439.643 -16.9052 0
165.892 5.08144 0
163.673 9.56274 0
376.095 18.7489 0
377.161 13.8623 0
274.386 36.7327 0
271.893 32.3994 0
91.0647 18.7912 0
90.2946 13.844 0
456.947 2.46697 0
452.384 0.428031 0
219.321 17.2575 0
222.147 21.3797 0
175.903 17.1353 0
173.906 12.5516 0
283.094 35.9708 0
279.017 38.8785 0
210.153 3.07534 0
212.418 -1.38177 0
40.9015 20.7809 0
36.2379 19.0131 0
182.815 40.9114 0
184.698 45.5402 0
18.2968 1.53595 0
14.6445 4.92741 0
424.452 3.46839 0
419.714 1.88352 0
477.315 0.130818 0
472.579 1.73629 0
287.856 34.7713 0
291.688 37.9867 0
178.472 19.729 0
175.6 15.6398 0
131.974 45.2251 0
136.929 46.0216 0
137.913 3.59266 0
141.184 7.36629 0
44.5386 17.7788 0
49.5068 18.1721 0
220.265 34.871 0
220.343 39.8675 0
95.2658 9.18199 0
97.2726 4.59877 0
72.8616 52.5675 0
70.3146 56.8739 0
47.513 13.574 0
43.5615 16.6218 0
38.9226 24.6061 0
40.627 19.9029 0
293.328 40.2379 0
289.079 37.5924 0
344.81 18.078 0
340.903 21.2019 0
34.2134 23.3337 0
32.4684 28.0213 0
149.045 17.7833 0
153.892 18.9735 0
422.808 26.87 0
421.978 21.9404 0
64.8793 31.7501 0
64.2593 26.7893 0
227.085 37.389 0
230.104 41.376 0
363.529 25.376 0
362.636 30.2956 0
421.873 1.64612 0
419.142 -2.54054 0
32.5938 41.1586 0
36.6401 44.1105 0
42.5824 57.2445 0
47.3411 55.6065 0
409.425 29.4403 0
404.762 31.2597 0
120.058 56.9147 0
121.439 52.1132 0
274.027 36.6755 0
271.08 40.7196 0
476.418 -15.0828 0
481.405 -15.4173 0
190.472 47.7601 0
185.877 49.7802 0
286.435 31.1233 0
291.366 31.9804 0
313.905 31.7957 0
311.562 36.2155 0
225.985 12.0773 0
229.831 8.88885 0
321.23 38.3621 0
323.112 33.7292 0
191.321 49.6146 0
194.677 53.3286 0
173.65 15.9751 0
173.628 20.9766 0
430.861 25.2984 0
426.76 28.1637 0
319.568 39.004 0
319.026 34.0362 0
284.565 2.90963 0
285.837 -1.92937 0
189.177 31.9683 0
193.629 34.2454 0
8.26009 23.0806 0
8.15882 18.0793 0
446.901 3.84219 0
451.65 5.3998 0
345.268 37.8944 0
349.677 35.5191 0
145.494 9.48003 0
145.562 4.47406 0
58.3942 22.4644 0
61.6165 18.6433 0
51.2621 36.244 0
52.712 41.0262 0
462.423 -21.9247 0
459.633 -17.7755 0
239.299 47.3041 0
238.855 42.3284 0
345.066 36.3296 0
349.376 33.7806 0
280.541 22.1243 0
285.516 22.6054 0
479.172 -12.3027 0
483.36 -9.57453 0
396.174 -4.34001 0
395.974 0.658282 0
243.126 27.603 0
240.522 23.3362 0
477.048 15.8465 0
476.587 20.8257 0
137.218 20.4935 0
133.417 23.7391 0
486.844 -5.07652 0
491.643 -6.48376 0
240.722 3.36433 0
245.211 1.19045 0
465.669 12.7889 0
470.478 11.4155 0
155.498 11.6566 0
152.062 15.2839 0
419.126 -17.2533 0
423.876 -15.707 0
310.571 29.6336 0
311.868 34.4607 0
294.926 43.7219 0
293.754 38.8654 0
418.061 6.06098 0
413.825 8.71919 0
19.4485 50.4368 0
24.4196 49.6758 0
97.1788 44.4719 0
99.6322 48.8269 0
140.602 41.3911 0
135.885 43.0953 0
96.7062 48.8075 0
100.446 45.4675 0
456.185 3.28645 0
451.639 1.21063 0
344.432 -12.6587 0
347.02 -8.38068 0
219.674 35.7726 0
214.795 34.646 0
16.8325 40.7866 0
15.9545 45.7055 0
55.3527 53.2555 0
58.9038 56.7921 0
427.016 -14.1206 0
431.859 -15.3435 0
359.932 -7.91812 0
354.949 -7.63749 0
429.371 2.91959 0
434.31 3.679 0
347.796 17.1277 0
350.9 21.0462 0
218.534 45.3265 0
215.647 41.2436 0
328.657 26.5454 0
330.527 21.907 0
53.4061 50.4735 0
57.4666 47.5281 0
258.36 37.1205 0
262.919 39.1928 0
78.3219 18.5761 0
80.2981 23.1681 0
298.334 0.399244 0
293.347 0.344636 0
476.474 13.2943 0
475.517 8.38701 0
473.718 19.5144 0
469.095 17.6117 0
257.228 20.6617 0
262.176 19.9436 0
60.2347 54.9889 0
55.2442 55.6527 0
188.229 15.3482 0
192.91 17.0927 0
485.59 -3.12135 0
487.852 -7.58208 0
204.789 11.6276 0
200.62 14.374 0
341.41 37.0752 0
345.96 39.1656 0
56.6089 56.4823 0
52.1694 58.8435 0
75.3187 34.0615 0
76.1365 38.9921 0
393.06 -14.6109 0
389.936 -10.7083 0
270.492 36.1823 0
273.067 40.4677 0
384.355 -5.09299 0
380.892 -1.48895 0
107.378 12.7363 0
108.033 7.77348 0
51.498 51.5356 0
56.1714 49.6901 0
277.511 11.5489 0
273.302 8.85772 0
456.39 25.1537 0
457.206 20.2203 0
199.443 -0.472661 0
198.267 -5.33856 0
3.07025 35.3812 0
6.16845 39.3099 0
428.698 38.3022 0
428.525 33.3063 0
246.831 1.09341 0
251.71 0.069754 0
281.97 -1.16803 0
286.296 -3.65387 0
337.499 15.6054 0
342.123 13.7034 0
164.465 49.2149 0
164.609 54.2062 0
437.481 -1.32945 0
437.699 -6.32588 0
230.439 25.2929 0
226.35 28.1766 0
390.924 39.1704 0
393.255 34.7455 0
323.428 7.67377 0
323.213 2.6762 0
462.966 26.7762 0
467.965 26.9025 0
89.4635 46.6209 0
85.289 43.8487 0
7.94434 26.5721 0
11.0712 22.6722 0
383.324 12.47 0
386.662 16.1885 0
255.353 40.9518 0
258.354 36.9467 0
260.101 21.1434 0
257.142 25.1767 0
5.59172 2.69501 0
7.73173 7.21342 0
131.163 42.4043 0
134.293 46.3066 0
252.292 -2.92852 0
253.878 1.81661 0
172.875 51.2471 0
168.549 53.7933 0
350.624 31.2814 0
348.659 26.6856 0
146.628 10.2144 0
142.874 13.5067 0
54.371 33.7316 0
56.8005 38.1002 0
435.005 25.4007 0
431.525 28.9937 0
265.528 46.013 0
266.053 41.0438 0
238.855 27.4108 0
233.914 28.2036 0
261.754 -3.34579 0
266.577 -2.0851 0
7.84639 11.6732 0
11.3088 8.0785 0
12.9035 58.7843 0
8.16658 57.078 0
326.336 10.3749 0
325.531 5.4389 0
180.52 28.6036 0
175.558 29.2356 0
475.303 -5.16529 0
471.362 -2.08615 0
359.914 5.19966 0
363.274 1.49694 0
41.6375 37.4703 0
36.768 38.6556 0
457.467 11.6264 0
457.51 16.6263 0
251.734 -2.59349 0
256.586 -3.72539 0
153.979 3.7487 0
152.036 8.35787 0
13.7108 27.6989 0
17.978 25.0971 0
417.06 24.8248 0
419.379 29.2538 0
28.7965 47.6094 0
24.2455 45.4961 0
383.08 30.4968 0
379.692 26.8191 0
224.15 34.5369 0
226.906 30.3615 0
429.999 2.48641 0
434.86 3.64538 0
464.545 -9.27805 0
459.59 -9.93399 0
404.805 1.50645 0
406.794 -3.08166 0
393.491 34.5331 0
392.195 29.7068 0
233.83 -1.4403 0
234.796 3.47022 0
375.186 38.5649 0
379.752 40.6187 0
25.7174 54.3451 0
28.1786 49.9901 0
153.314 25.872 0
149.16 28.6576 0
304.021 -3.71884 0
302.202 0.93993 0
456.599 21.1089 0
451.654 21.8586 0
432.223 18.8406 0
430.522 23.5434 0
190.457 48.8597 0
192.432 53.4496 0
4.55761 50.1866 0
5.15741 55.1449 0
387.797 -8.59048 0
392.464 -10.3667 0
438.838 9.95839 0
438.743 14.9577 0
377.008 23.387 0
377.21 28.3825 0
368.942 38.1655 0
372.509 41.6729 0
309.868 -3.73692 0
313.776 -6.84521 0
452.157 9.89893 0
447.71 7.61676 0
431.155 -6.25568 0
428.994 -10.7644 0
280.887 -6.27903 0
285.849 -5.82623 0
264.214 47.5628 0
268.518 44.9918 0
444.935 12.7711 0
449.74 11.3865 0
372.872 39.5795 0
368.594 36.9826 0
33.5288 58.6843 0
36.6613 54.7748 0
127.983 11.5478 0
131.926 14.6076 0
27.0235 35.033 0
24.6033 30.6597 0
417.08 -14.4261 0
416.952 -9.42614 0
251.637 23.1642 0
256.083 20.8732 0
140.524 11.0418 0
142.988 15.3917 0
266.054 28.7543 0
263.084 32.7813 0
442.949 -2.82598 0
438.653 -5.37858 0
352.641 1.98662 0
350.248 -2.40295 0
79.4996 28.2988 0
80.3526 33.2241 0
367.499 35.6301 0
366.163 40.4476 0
112.602 54.6661 0
109.521 50.7218 0
161.089 3.68503 0
166.064 3.79834 0
386.339 31.0731 0
390.828 28.8601 0
220.311 -3.40019 0
216.236 -6.27596 0
253.421 50.6392 0
248.94 48.3898 0
412.055 -7.33134 0
415.352 -3.57493 0
105.071 5.16794 0
100.126 5.6933 0
159.45 33.8621 0
156.213 30.0519 0
264.088 19.8325 0
260.722 16.1386 0
245.783 34.0315 0
242.589 30.1853 0
153.88 19.2804 0
149.405 17.0681 0
261.618 40.8321 0
264.784 36.956 0
253.169 15.2521 0
256.469 19.0054 0
406.056 -3.39961 0
404.934 1.47362 0
111.488 54.823 0
107.991 51.2372 0
104.769 8.66556 0
101.936 4.55031 0
325.01 46.9332 0
329.229 44.2318 0
307.439 -3.12425 0
309.297 -7.76709 0
161.787 10.3691 0
158.831 6.34032 0
455.481 -7.75911 0
452.499 -3.74454 0
71.5369 29.4882 0
75.1427 26.0212 0
346.86 21.16 0
350.717 17.9741 0
217.221 25.048 0
215.282 20.4403 0
66.2186 4.58651 0
68.8507 0.339094 0
343.29 6.60215 0
348.278 6.3329 0
474.974 -0.493467 0
479.043 2.40773 0
211.312 -0.381523 0
206.344 -0.709482 0
329.222 -9.25239 0
334.177 -8.69037 0
53.9309 28.1377 0
55.3493 23.3412 0
227.727 23.4075 0
232.569 22.157 0
331.044 17.9391 0
334.822 14.6614 0
219.138 30.7868 0
214.588 28.7085 0
126.139 30.9703 0
123.286 35.0798 0
299.726 46.4132 0
300.526 41.4798 0
80.5486 9.84331 0
83.2948 5.66855 0
213.408 25.4683 0
216.186 29.6245 0
54.1904 16.7406 0
59.1483 17.2427 0
187.136 34.4174 0
190.434 38.1763 0
311.026 6.37804 0
315.707 4.64032 0
283.954 4.30776 0
282.078 8.9436 0
143.4 22.8909 0
148.019 20.9849 0
446.501 8.75796 0
450.256 12.0569 0
111.724 34.7896 0
116.674 35.5303 0
108.975 15.1429 0
103.993 15.1321 0
126.311 55.9164 0
130.784 53.6297 0
278.617 33.0443 0
280.775 28.5322 0
384.633 -9.56997 0
385.136 -4.59257 0
289.235 23.7675 0
288.977 28.759 0
100.566 4.0694 0
96.092 6.25261 0
243.246 27.084 0
241.441 31.7479 0
119.309 13.1293 0
124.225 12.3169 0
94.6022 52.1378 0
91.5351 48.1855 0
312.154 -11.6998 0
314.895 -7.51844 0
373.679 -3.5406 0
373.761 1.46018 0
9.6418 52.4713 0
6.02847 48.9993 0
395.551 -10.6342 0
396.042 -15.6126 0
347.076 -7.3623 0
352.052 -6.98872 0
51.3697 52.1674 0
53.8191 56.527 0
277.928 6.86366 0
275.039 10.9435 0
261.82 47.0943 0
266.837 47.2163 0
65.9909 55.1995 0
69.0788 51.2567 0
352.453 30.9095 0
348.349 28.051 0
481.675 25.265 0
480.258 20.4705 0
293.294 -4.31343 0
292.243 -9.2063 0
326.88 -1.19779 0
329.773 2.87829 0
405.762 29.7907 0
403.22 34.1001 0
483.123 28.3981 0
478.3 29.7184 0
444.176 19.8588 0
448.994 21.197 0
371.748 32.6806 0
373.558 28.0188 0
457.813 35.4546 0
452.837 34.9446 0
236.209 43.3877 0
231.706 45.593 0
426.133 11.8808 0
424.514 7.1514 0
39.6993 17.0873 0
34.9847 18.7102 0
155.895 36.9476 0
153.81 32.405 0
203.057 1.05656 0
205.97 -3.00231 0
217.597 10.5767 0
220.731 6.68415 0
223.615 2.69777 0
219.931 6.06832 0
168.616 32.2663 0
167.026 37.0076 0
409.377 -3.0057 0
405.023 -0.552289 0
223.607 33.8578 0
227.928 31.3289 0
484.778 5.22755 0
487.876 1.30085 0
355.75 37.7095 0
359.684 40.8016 0
246.871 -0.0158366 0
243.221 -3.42361 0
145.878 11.0526 0
141.937 14.1167 0
257.869 -4.96703 0
261.234 -8.6556 0
276.487 43.5389 0
271.711 42.0154 0
160.554 37.191 0
160.098 42.1675 0
39.0213 3.34844 0
42.9543 6.40671 0
364.436 -1.52799 0
369.402 -2.0474 0
409.781 37.5436 0
407.455 33.1183 0
442.355 32.925 0
446.742 30.5192 0
440.942 -13.7516 0
445.938 -13.686 0
220.75 19.172 0
218.793 14.5716 0
250.611 20.8881 0
246.026 18.902 0
248.724 36.4622 0
243.74 35.958 0
17.3484 45.9588 0
17.6852 40.9747 0
80.3056 18.064 0
77.3888 22.1244 0
32.5917 24.5603 0
37.3909 25.9385 0
226.702 9.79988 0
225.947 4.85354 0
342.911 -2.0922 0
346.047 1.79907 0
322.035 21.456 0
317.38 19.6307 0
332.146 -3.26111 0
331.3 1.66934 0
263.153 21.1225 0
260.004 25.0097 0
67.4844 8.61643 0
72.3347 9.72578 0
86.8064 0.779723 0
91.5657 -0.637404 0
143.558 19.1252 0
144.592 24.0179 0
73.212 21.5006 0
77.6785 23.7321 0
89.5425 24.3017 0
89.7873 19.3033 0
408.77 -0.0632413 0
411.552 4.08787 0
91.596 49.0316 0
86.7932 47.5666 0
198.596 50.664 0
193.572 50.6272 0
425.227 35.3015 0
428.905 38.6914 0
307.863 8.0485 0
311.148 11.8121 0
392.747 -5.71585 0
395.281 -10.0283 0
185.005 32.0358 0
182.974 36.6058 0
329.619 40.7101 0
328.023 45.448 0
182.338 37.8417 0
179.698 42.0908 0
278.365 20.974 0
276.437 16.3629 0
371.651 -9.12274 0
367.838 -12.3511 0
441.942 -7.56544 0
446.124 -10.3052 0
448.667 1.49206 0
450.866 5.98116 0
426.874 28.5337 0
428.984 23.9997 0
218.718 20.9998 0
220.128 16.2009 0
320.837 10.7924 0
323.407 6.50211 0
294.568 32.6701 0
297.289 36.8625 0
367.063 -1.09184 0
362.341 -2.71873 0
438.386 25.3356 0
433.463 26.2281 0
406.881 3.66719 0
410.9 0.693887 0
43.1979 37.5481 0
39.5001 34.1801 0
333.626 0.0837629 0
328.692 0.840168 0
245.92 42.2258 0
247.168 37.3854 0
77.3615 21.7505 0
74.0228 18.0347 0
199.42 43.8486 0
201.536 39.3148 0
7.83021 57.7312 0
2.86134 56.8905 0
238.131 31.3136 0
233.179 32.0544 0
78.7233 15.9924 0
77.6968 20.8887 0
73.6571 34.0014 0
68.865 32.5659 0
470.507 25.5936 0
466.754 22.2914 0
414.14 5.14229 0
409.242 6.14161 0
51.1671 31.7088 0
46.1675 31.8937 0
191.828 17.634 0
186.932 18.6462 0
98.7712 39.459 0
96.2706 43.7932 0
420.747 30.9282 0
424.792 33.8703 0
222.702 2.1629 0
219.977 6.35296 0
415.2 16.5285 0
413.26 21.1386 0
280.548 35.9665 0
284.792 38.6214 0
347.284 15.781 0
345.912 10.9733 0
118.114 21.2554 0
121.746 17.8221 0
386.104 -1.36022 0
390.177 1.53629 0
319.686 46.6391 0
314.914 45.1057 0
365.621 38.2131 0
362.261 34.509 0
35.5121 21.5008 0
36.438 26.4158 0
283.028 40.693 0
285.563 45.0021 0
386.576 37.7699 0
389.269 33.5549 0
81.6129 16.9076 0
85.2331 13.4684 0
430.234 10.6378 0
433.514 14.4086 0
447.339 18.194 0
442.923 15.8525 0
297.415 45.0369 0
292.475 45.9083 0
87.9425 29.1464 0
89.3127 33.9511 0
181.721 2.65074 0
180.742 7.55902 0
300.454 38.1576 0
297.578 34.0695 0
109.645 25.1671 0
111.171 20.404 0
256.179 41.8172 0
255.795 46.7988 0
470.242 -3.61485 0
475.239 -3.46709 0
189.205 40.0502 0
191.84 44.2977 0
57.0586 19.0838 0
52.4499 17.1796 0
271.442 7.54226 0
273.721 3.09144 0
138.569 5.98922 0
141.089 10.3068 0
320.721 -7.86103 0
317.533 -4.0138 0
232.401 20.8521 0
234.589 25.3466 0
367.154 24.5755 0
362.52 26.465 0
33.6603 0.413128 0
32.1248 5.17838 0
294.694 2.07282 0
299.673 1.76347 0
486.986 22.3185 0
484.418 18.0298 0
467.564 -6.35249 0
463.877 -9.72611 0
15.4464 7.94482 0
10.5476 8.77741 0
12.4731 45.2035 0
10.3511 40.6771 0
15.7622 7.09784 0
10.8496 7.83482 0
340.826 30.7469 0
343.385 26.4486 0
464.466 23.9005 0
465.073 18.937 0
166.333 22.7295 0
167.649 27.5524 0
118.519 27.5717 0
117.058 22.7904 0
88.7913 51.447 0
84.1618 49.5022 0
331.224 5.11193 0
333.035 9.77217 0
262.708 25.0532 0
258.961 21.7453 0
427.79 -14.1333 0
428.069 -9.13968 0
224.341 46.0041 0
228.924 43.9648 0
441.68 0.328038 0
443.968 -4.11915 0
298.686 8.15484 0
293.708 8.53719 0
261.397 46.9034 0
266.332 45.9954 0
465.797 6.0155 0
466.318 1.04192 0
194.095 39.2599 0
191.123 35.2407 0
315.196 -12.0047 0
311.446 -8.70881 0
352.697 31.9613 0
357.421 30.3051 0
254.24 -3.06048 0
259.139 -2.14662 0
389.963 33.2245 0
394.962 32.9373 0
188.271 49.4541 0
193.235 50.2192 0
441.922 14.3699 0
439.982 9.76284 0
8.36839 53.9704 0
8.88781 49.0034 0
122.101 8.38254 0
118.42 5.01329 0
60.3177 16.5346 0
64.8543 18.6058 0
136.844 37.3601 0
141.855 37.3534 0
477.727 4.30732 0
473.626 7.17091 0
250.986 38.8786 0
247.762 35.0558 0
47.5487 31.4898 0
52.4304 30.3974 0
203.14 8.48955 0
201.689 13.2764 0
221.853 -1.59761 0
221.217 -6.56382 0
270.772 50.5867 0
272.448 45.8773 0
345.669 38.8278 0
347.594 43.4404 0
359.128 32.7953 0
355.164 35.8524 0
494.151 33.2711 0
491.245 29.2024 0
239.989 23.0777 0
235.003 22.7149 0
356.322 10.6545 0
359.476 14.531 0
55.3508 50.4114 0
56.8145 55.1869 0
122.825 1.92892 0
118.383 4.17619 0
200.191 41.5185 0
203.515 37.7716 0
471.6 1.72889 0
467.833 -1.55658 0
331.786 11.8019 0
333.766 7.20874 0
302.484 -5.90433 0
300.333 -10.4195 0
159.683 55.2962 0
161.524 50.6485 0
30.7831 49.4949 0
34.5782 46.2192 0
175.461 25.8675 0
180.143 27.6163 0
321.837 41.1155 0
318.67 37.2448 0
73.8143 44.4546 0
76.6303 48.5888 0
490.363 29.4584 0
488.946 24.6637 0
136.843 -0.106206 0
135.104 4.58508 0
355.881 3.659 0
360.872 3.43573 0
276.208 18.723 0
273.358 14.6183 0
55.4273 36.1678 0
56.7688 40.9815 0
482.351 -17.3419 0
477.451 -16.349 0
333.264 35.0576 0
336.665 38.7242 0
137.193 38.0045 0
133.027 40.7878 0
252.88 10.549 0
249.094 7.29066 0
493.865 29.5508 0
490.773 33.4808 0
273.007 6.25689 0
274.98 10.8509 0
235.713 49.0493 0
240.629 50.0646 0
163.125 33.3235 0
158.139 32.8754 0
322.918 22.5292 0
327.135 19.8367 0
467.15 -0.17584 0
466.907 4.81887 0
89.5178 34.771 0
94.135 36.6835 0
337.842 23.76 0
334.207 20.3287 0
433.428 -11.171 0
436.356 -15.2241 0
163.847 43.9431 0
159.253 45.9579 0
11.091 25.5582 0
14.8477 28.8528 0
427.5 -15.7144 0
426.375 -10.8414 0
69.059 21.8402 0
67.232 26.4965 0
461.606 23.7991 0
457.959 27.222 0
359.655 7.49799 0
359.659 12.4987 0
308.276 43.0933 0
313.069 44.5593 0
134.105 41.9645 0
133.777 46.9494 0
16.0288 27.4057 0
21.025 27.4222 0
178.997 8.1929 0
179.169 3.18997 0
316.495 26.2249 0
317.201 21.2746 0
69.7696 35.595 0
67.9942 30.923 0
125.85 31.3496 0
129.206 27.6402 0
249.008 30.1348 0
253.189 32.8805 0
410.535 18.9958 0
415.525 19.3445 0
142.979 33.4983 0
146.584 36.9647 0
390.398 32.1262 0
395 30.1552 0
130.003 47.5376 0
124.983 47.3772 0
41.0779 46.4854 0
43.2791 41.9949 0
283.248 -3.55668 0
286.457 0.273542 0
291.799 -3.08377 0
295.039 0.719008 0
11.5771 46.9304 0
13.0125 42.1427 0
384.024 26.1723 0
379.022 26.2846 0
443.502 4.74057 0
446.114 0.475154 0
51.8585 49.9084 0
50.582 45.0791 0
160.868 50.7827 0
165.464 52.8002 0
356.984 33.9352 0
361.767 32.4534 0
447.895 33.6693 0
452.61 31.9983 0
184.517 36.0182 0
188.427 32.8956 0
408.224 -10.3069 0
405.342 -14.3912 0
190.439 10.9774 0
187.872 6.68624 0
449.904 4.94392 0
448.305 0.207182 0
381.517 30.5328 0
383.84 34.9594 0
455.978 10.8422 0
460.976 10.7123 0
335.859 24.861 0
340.254 22.4691 0
468.121 -7.24552 0
465.84 -2.79473 0
264.548 34.8505 0
263.543 39.7472 0
251.569 -7.78578 0
248.988 -3.50631 0
305.553 42.59 0
308.601 38.6205 0
485.627 -3.54515 0
481.556 -6.4446 0
385.773 14.0097 0
386.331 9.03943 0
288.981 22.042 0
283.986 21.8415 0
255.248 19.1815 0
258.466 15.3536 0
378.387 -10.1274 0
376.51 -14.7633 0
373.648 2.7434 0
371.066 7.02654 0
373.078 39.2097 0
375.115 34.6426 0
186.443 8.43001 0
190.048 4.9746 0
352.32 17.9182 0
356.206 14.7678 0
334.833 -0.077786 0
339.733 0.876691 0
77.2242 17.9097 0
81.9258 19.5816 0
473.753 5.03591 0
477.45 1.66644 0
366.426 6.57037 0
371.054 4.68186 0
3.96476 26.7438 0
7.46963 23.182 0
107.584 14.7399 0
103.569 11.7795 0
98.915 1.36639 0
94.4312 -0.786161 0
264.866 1.50047 0
260.242 -0.371649 0
127.853 28.0713 0
122.893 27.4399 0
295.374 -4.32745 0
300.12 -2.79629 0
257.668 -3.35969 0
255.476 1.13446 0
275.924 32.7034 0
271.155 31.1865 0
101.776 4.06691 0
106.693 4.8096 0
379.002 -6.92993 0
374.865 -4.12942 0
88.8734 36.3024 0
84.8207 39.2377 0
271.439 -3.23001 0
276.359 -4.01839 0
407.983 -17.9827 0
406.931 -13.0932 0
326.716 17.3873 0
331.51 15.964 0
111.904 6.9468 0
114.262 11.3562 0
420.992 -8.41337 0
416.06 -7.6207 0
111.045 33.2412 0
112.889 37.886 0
311.595 17.2877 0
312.465 12.3634 0
43.4752 35.5841 0
38.6397 34.2901 0
287.243 16.1686 0
282.556 17.9163 0
109.061 16.1434 0
105.393 12.7586 0
292.539 44.5237 0
292.68 39.5295 0
229.92 9.60417 0
234.114 6.89446 0
52.3237 38.4815 0
50.1953 33.9591 0
428.954 -12.0614 0
432.46 -8.49948 0
105.857 3.37969 0
104.222 -1.35139 0
201.251 -0.868182 0
206.15 -1.74893 0
357.417 35.4746 0
358.912 40.2439 0
496.082 -7.54009 0
493.034 -11.5027 0
94.4081 5.39469 0
99.3583 5.85199 0
287.329 -2.47811 0
292.312 -2.31577 0
366.194 39.0589 0
367.284 34.1802 0
491.962 -6.1234 0
488.7 -9.91081 0
215.82 51.332 0
211.576 48.6652 0
118.923 44.6693 0
120.007 49.545 0
253.53 35.2473 0
248.641 36.3428 0
66.6118 33.457 0
65.1884 38.2503 0
18.889 26.0814 0
23.226 28.5608 0
217.565 31.6362 0
216.702 36.5603 0
212.705 36.5251 0
215.337 32.2699 0
356.636 9.80895 0
355.707 14.7229 0
73.6902 8.97538 0
76.32 13.2264 0
127.056 32.3197 0
127.178 37.3162 0
442.841 21.8145 0
438.799 18.873 0
432.758 -3.95391 0
433.758 0.94553 0
433.424 11.4113 0
428.436 11.7501 0
413.325 10.1458 0
415.115 5.47547 0
29.7121 23.7165 0
30.4226 28.6667 0
174.335 19.2095 0
174.211 14.2091 0
96.5988 53.5811 0
93.1641 49.9384 0
265.726 32.5162 0
264.922 37.45 0
307.397 -5.64279 0
302.429 -6.06063 0
245.226 -5.98399 0
241.745 -2.40594 0
331.391 -11.9219 0
326.524 -10.8375 0
236.803 37.6272 0
232.061 36.0147 0
372.831 -1.04222 0
368.317 -3.18185 0
258.81 35.7661 0
260.692 31.1327 0
343.943 21.4284 0
340.265 18.0439 0
118.943 57.9206 0
118.463 52.9516 0
169.633 52.7344 0
168.249 47.9344 0
494.12 19.1812 0
498.832 17.5096 0
144.062 40.0078 0
148.647 42.0296 0
200.702 4.5814 0
198.981 9.27852 0
186.357 6.66314 0
182.267 3.80562 0
421.831 10.7891 0
417.381 8.51483 0
269.933 16.9711 0
274.823 15.9379 0
155.276 -2.30727 0
150.328 -1.84382 0
216.151 -1.39497 0
213.192 -5.42237 0
482.474 22.0444 0
477.943 24.1606 0
261.737 40.7387 0
257.566 43.5162 0
445.678 -4.39502 0
448.332 -0.159006 0
431.592 38.4595 0
436.085 36.2571 0
128.175 38.9227 0
130.895 43.1178 0
22.9222 10.7495 0
17.9586 10.4698 0
39.1985 39.1143 0
35.4732 42.462 0
246.373 -1.04602 0
247.618 3.80026 0
249.834 29.8398 0
252.387 34.1375 0
26.5252 29.4115 0
28.9713 33.7704 0
339.299 -3.38718 0
342.814 0.163549 0
178.958 8.77942 0
174.027 9.50696 0
81.7151 13.8142 0
81.802 18.818 0
207.066 6.36598 0
211.696 4.51532 0
224.22 25.6135 0
228.07 22.4203 0
482.553 10.3305 0
477.844 8.65416 0
257.147 -0.528891 0
252.373 -1.96472 0
215.242 0.314153 0
211.249 3.30422 0
14.9594 32.9726 0
17.0241 37.5247 0
466.283 -12.2112 0
464.724 -7.45933 0
6.62104 33.8112 0
10.9798 31.3549 0
84.2396 56.2859 0
79.6879 54.155 0
491.596 12.9094 0
492.244 17.867 0
279.827 33.0913 0
283.96 30.2678 0
50.0308 26.4449 0
45.373 24.6433 0
105.994 41.4222 0
110.925 40.5007 0
147.209 46.0746 0
147.793 51.0345 0
313.362 40.4683 0
308.959 42.8596 0
28.3375 59.3293 0
23.2985 59.1534 0
31.6165 47.9606 0
28.7216 43.8811 0
62.1771 38.5104 0
59.7132 42.864 0
241.385 6.07278 0
239.563 10.7308 0
419.561 -1.16955 0
424.056 1.01111 0
176.031 31.9919 0
172.415 28.5408 0
453.494 27.0121 0
450.849 31.2565 0
329.051 28.0313 0
328.994 23.0326 0
46.8673 4.87419 0
47.4855 -0.0978848 0
464.339 -17.3457 0
468.524 -20.0792 0
451.202 3.30826 0
447.659 -0.217012 0
358.492 6.57582 0
360 11.3426 0
336.35 35.8328 0
331.582 37.3692 0
347.421 44.0864 0
342.559 45.3032 0
81.7105 41.278 0
85.0619 44.9939 0
169.183 46.285 0
165.21 43.2353 0
279.4 49.8333 0
274.38 49.879 0
315.883 2.95784 0
320.868 2.70519 0
41.3546 9.47825 0
38.0033 13.1796 0
381.972 27.0667 0
386.604 25.1758 0
210.945 39.3404 0
208.584 34.9346 0
238.435 10.3786 0
234.822 6.92913 0
136.747 1.02988 0
132.091 2.7827 0
45.1733 35.8778 0
41.1716 32.8773 0
219.307 7.51244 0
220.433 12.3865 0
192.312 37.1292 0
188.177 39.9545 0
293.221 -8.25685 0
288.252 -7.89174 0
444.21 3.22209 0
449.038 1.92485 0
280.566 44.3188 0
285.075 46.5064 0
374.104 29.8307 0
369.14 30.4737 0
162.784 15.1636 0
157.799 15.3515 0
189.558 37.3109 0
194.14 39.3311 0
289.272 36.2421 0
287.759 31.4798 0
366.031 16.0586 0
369.408 12.3687 0
239.065 33.5725 0
242.83 30.2743 0
50.8906 15.6385 0
46.5397 18.0793 0
142.768 20.3893 0
138.849 17.2936 0
357.001 12.4744 0
359.779 16.6295 0
187.239 3.32652 0
184.965 7.78071 0
482.962 13.6575 0
486.853 16.7938 0
289.508 23.604 0
284.918 25.5919 0
131.192 2.0256 0
126.247 1.52033 0
207.834 13.19 0
206.93 8.26984 0
212.136 -5.02353 0
217.105 -5.26387 0
11.0225 23.2216 0
7.13375 20.0905 0
187.801 11.8811 0
183.548 9.26679 0
312.877 3.5976 0
308.093 2.17473 0
30.8282 42.0713 0
26.4587 44.5322 0
321.869 33.481 0
320.076 28.8157 0
262 24.6479 0
257.26 26.2521 0
496.859 -6.38734 0
497.2 -11.3769 0
472.921 14.3428 0
469.962 18.3755 0
66.3118 41.8934 0
66.5987 46.8804 0
300.553 40.7996 0
296.301 38.1595 0
155.254 46.479 0
156.715 41.6989 0
5.17258 14.6531 0
10.0499 15.6549 0
191.393 54.7768 0
196.185 53.2619 0
221.827 46.4552 0
221.71 41.4609 0
4.30604 59.1151 0
5.94559 54.3943 0
342.599 -1.85606 0
337.742 -3.00601 0
93.1231 39.1712 0
90.3191 35.0351 0
288.816 28.4398 0
285.32 32.0169 0
353.974 -3.367 0
349.005 -3.84141 0
173.348 31.4592 0
178.007 33.281 0
463.668 -1.74736 0
459.632 1.20577 0
487.62 32.8892 0
482.941 31.1269 0
66.1906 23.6356 0
67.0953 28.5531 0
47.3068 19.476 0
45.7109 24.2172 0
114.406 0.278 0
118.803 2.61216 0
288.088 8.42179 0
293.021 7.64233 0
480.935 32.7751 0
480.216 27.8272 0
280.779 14.0585 0
283.395 18.3161 0
222.845 7.48503 0
217.916 6.7314 0
180.695 26.5902 0
175.884 27.9584 0
45.6347 27.763 0
50.4242 29.1898 0
408.367 17.239 0
413.128 18.7688 0
218.694 41.0058 0
219.251 45.9703 0
286.451 42.9523 0
288.277 38.2977 0
312.777 7.07189 0
316.78 4.08057 0
341.611 7.63249 0
340.281 12.454 0
378.425 32.0096 0
383.255 33.3217 0
434.424 18.159 0
438.402 15.126 0
468.747 26.7395 0
463.76 27.1153 0
14.9276 16.7097 0
10.6548 14.1437 0
46.4513 22.888 0
42.88 19.3971 0
147.584 48.6755 0
148.709 43.8068 0
238.001 -0.901061 0
240.498 3.43107 0
127.382 23.8269 0
132.279 22.8406 0
337.384 19.2667 0
335.769 23.9999 0
109.127 17.6494 0
113.912 16.2397 0
111.204 50.0239 0
108.309 45.9439 0
343.568 -0.441186 0
339.085 -2.63907 0
212.856 46.3803 0
208.12 44.7301 0
499.943 15.1176 0
498.213 10.4281 0
261.951 21.0069 0
256.952 20.9723 0
273.79 38.0143 0
269.667 40.8576 0
92.4542 44.6474 0
96.3569 47.7856 0
178.728 39.661 0
174.121 41.6356 0
248.868 33.2 0
250.745 28.5644 0
65.7328 42.9888 0
63.8246 47.6102 0
65.9209 40.1617 0
60.9256 40.5976 0
136.625 7.56568 0
138.746 3.03651 0
377.656 27.4759 0
375.116 23.1703 0
278.407 36.1688 0
273.418 35.7164 0
146.418 24.6607 0
143.456 28.6903 0
291.159 42.1279 0
287.118 39.1744 0
350.258 34.1989 0
345.283 33.6308 0
170.309 16.4006 0
165.958 13.9539 0
154.611 45.0596 0
156.346 49.7455 0
496.196 22.0317 0
498.347 17.5173 0
122.762 12.4554 0
127.351 14.4054 0
472.378 14.8178 0
475.129 18.9913 0
402.23 32.9257 0
397.953 30.3342 0
75.8987 34.483 0
72.4306 30.8835 0
338.465 15.9344 0
338.599 10.9354 0
443.785 7.54731 0
438.84 8.28573 0
145.478 53.9317 0
150.484 53.4531 0
42.8396 17.1349 0
44.5478 21.8352 0
311.723 11.0208 0
306.78 10.3019 0
140.924 22.5048 0
140.229 17.5514 0
419.888 27.1871 0
424.678 28.6281 0
296.917 -0.476239 0
301.635 -2.10228 0
359.123 15.2319 0
354.97 18.0199 0
335.72 33.2561 0
331.133 35.2675 0
300.128 2.91686 0
302.705 7.19769 0
375.985 34.2474 0
375.982 39.2455 0
6.29537 14.5947 0
8.40112 19.1279 0
368.567 -15.7944 0
373.554 -15.8588 0
411.258 35.8439 0
416.171 34.8894 0
169.317 47.3063 0
174.334 47.5094 0
479.393 2.13894 0
477.211 6.63973 0
478.623 -6.57991 0
474.117 -4.41182 0
266.212 42.0013 0
267.346 37.1329 0
259.646 9.3374 0
254.879 7.86014 0
282.305 36.254 0
284.036 40.9424 0
60.9359 34.8291 0
58.9937 39.4374 0
91.2727 54.3749 0
94.4175 50.4753 0
58.3703 18.5273 0
62.1383 21.8035 0
40.5396 48.2925 0
35.5222 48.0055 0
477.553 14.4236 0
482.13 12.4098 0
335.11 30.2732 0
339.497 27.8625 0
187.735 6.15898 0
184.06 2.78024 0
117.609 -0.959294 0
120.093 3.38061 0
385.439 -2.18284 0
387.198 -6.86545 0
242.548 -3.37116 0
238.87 0.00404816 0
145.444 38.0694 0
143.894 42.8225 0
168.948 46.2194 0
168.583 41.2371 0
425.875 5.66475 0
421.879 2.66346 0
202.891 10.5873 0
206.51 14.0268 0
156.251 5.29526 0
151.594 3.5283 0
145.697 52.7838 0
142.974 56.9831 0
333.25 4.13356 0
336.423 7.99489 0
440.292 0.766867 0
441.923 -3.96099 0
366.079 -5.4179 0
367.761 -10.1273 0
316.757 24.6742 0
319.731 28.6927 0
93.9023 53.1101 0
92.2705 48.3897 0
129.284 46.9427 0
133.995 45.2099 0
127.23 54.7154 0
122.392 53.3542 0
320.376 39.451 0
318.486 34.8238 0
140.868 54.6984 0
136.042 53.298 0
74.3465 8.1224 0
77.9454 11.5805 0
12.6161 18.994 0
11.5613 23.8842 0
34.3849 2.76055 0
31.5939 6.90433 0
458.796 29.9127 0
454.852 32.9902 0
344.436 37.378 0
348.103 33.9716 0
385.798 -5.66956 0
388.245 -1.30859 0
418.503 5.11095 0
423.498 4.92678 0
34.9675 53.5242 0
30.3421 51.5597 0
492.532 -20.2023 0
496.059 -16.6596 0
427.871 32.0878 0
430.381 36.412 0
463.885 7.97774 0
462.505 3.17254 0
10.764 24.3898 0
6.07154 26.1007 0
384.842 24.4254 0
389.67 23.118 0
418.521 31.7308 0
416.564 36.3326 0
346.955 16.0117 0
345.761 20.8681 0
359.357 36.3002 0
356.897 31.9477 0
425.613 -7.6194 0
420.852 -9.13299 0
12.3772 23.5486 0
8.59192 20.2924 0
139.044 46.7717 0
143.904 48.0263 0
164.102 22.2714 0
160.18 19.1786 0
418.83 2.6991 0
414.446 0.30211 0
459.607 -4.22206 0
460.886 -9.05685 0
351.9 21.2152 0
351.263 16.2565 0
306.332 -7.6336 0
310.135 -4.39708 0
21.3148 9.41237 0
16.3598 9.80145 0
45.4813 8.10583 0
40.658 6.90188 0
58.6735 40.3545 0
55.7378 44.4078 0
472.435 -2.52877 0
469.441 -6.53135 0
344.51 10.8144 0
347.541 6.83694 0
295.03 8.62412 0
295.982 3.71217 0
481.05 8.77783 0
485.825 7.29142 0
378.107 33.9156 0
378.108 28.9168 0
287.539 9.16687 0
284.598 13.2112 0
426.752 -16.1128 0
429.872 -12.2071 0
111.957 1.76146 0
116.772 0.529129 0
187.523 50.9513 0
188.043 45.9838 0
390.996 26.3923 0
388.85 30.9085 0
223.892 2.26811 0
228.848 2.78578 0
462.739 7.8254 0
463.511 12.7653 0
198.886 37.6448 0
194.188 39.3937 0
218.678 22.2222 0
217.054 17.4937 0
230.676 38.0351 0
233.901 34.2074 0
39.3188 16.7903 0
43.296 19.8045 0
428.849 -16.3026 0
430.499 -11.5818 0
312.901 -4.68439 0
310.921 -0.0921592 0
384.156 11.3206 0
381.197 15.3556 0
0.656742 31.156 0
4.61717 28.1065 0
400.982 35.2941 0
401.116 30.2967 0
362.894 -6.88709 0
362.768 -11.8884 0
426.642 0.420979 0
426.969 -4.56973 0
78.7245 4.75134 0
82.6951 7.76537 0
149.751 42.0862 0
145.065 40.31 0
402.252 -8.23522 0
398.462 -4.97578 0
180.354 36.1775 0
184.594 38.8369 0
20.8661 55.8627 0
24.9651 52.9624 0
270.206 16.0552 0
268.133 20.6075 0
20.4506 33.9915 0
18.9792 38.7696 0
130.304 -0.446224 0
127.385 3.60649 0
158.189 31.4052 0
163.191 31.5487 0
306.056 27.9408 0
311.027 28.5275 0
35.8009 48.4871 0
31.1996 50.5023 0
491.229 8.00621 0
492.064 12.9358 0
217.577 48.4149 0
220.871 44.6434 0
97.6376 1.33864 0
102.05 3.64108 0
125.435 52.4927 0
120.858 54.5643 0
289.904 11.4023 0
293.758 8.21708 0
169.077 52.8742 0
169.057 47.8804 0
0.505599 4.04954 0
2.778 8.49417 0
37.3343 49.0382 0
34.3591 45.0158 0
239.477 17.3841 0
241.434 12.7812 0
261.395 19.7447 0
265.867 17.5097 0
68.5473 46.3975 0
68.8531 51.3819 0
291.241 42.1346 0
294.714 45.7358 0
183.521 34.1257 0
183.503 39.1233 0
475.015 29.6994 0
474.386 24.7392 0
487.034 -15.0129 0
492.034 -15.0138 0
380.77 -6.60907 0
376.114 -4.80364 0
136.211 9.032 0
137.994 13.7052 0
471.831 21.8384 0
474.831 17.8366 0
277.159 13.5805 0
278.572 8.78299 0
495.876 -1.03221 0
494.409 -5.81183 0
192.161 0.243677 0
187.613 2.27654 0
321.963 28.3553 0
318.438 24.8095 0
109.138 51.9454 0
114.068 50.964 0
213.235 45.6697 0
217.253 42.6748 0
172.962 18.7728 0
168.314 16.9515 0
432.549 20.2933 0
427.712 21.5696 0
390.274 -13.1109 0
390.597 -8.1185 0
110.867 47.8794 0
115.846 48.5421 0
440.076 6.54626 0
441.037 1.63812 0
39.99 2.51124 0
35.6389 0.104676 0
107.466 49.8179 0
103.554 52.9569 0
178.366 43.9592 0
181.194 48.0841 0
84.273 6.91175 0
86.6268 11.3242 0
358.536 -11.9902 0
363.298 -13.4782 0
260.737 41.2696 0
262.163 46.0587 0
57.8544 56.5989 0
62.7607 55.4724 0
31.3861 31.2501 0
34.768 34.9321 0
442.211 25.4196 0
437.764 27.7108 0
14.7635 31.9456 0
18.9695 29.2382 0
411.041 7.01354 0
415.737 5.29829 0
180.88 33.4139 0
175.876 33.3161 0
421.864 -7.75802 0
417.284 -5.76073 0
117.693 4.17866 0
113.89 7.40619 0
375.267 15.7791 0
379.552 18.3513 0
379.372 14.0318 0
382.91 17.5606 0
467.35 34.0882 0
464.363 30.0784 0
139.038 33.2937 0
143.935 32.252 0
100.2 6.00764 0
96.0534 8.77476 0
305.749 10.6698 0
309.121 14.3547 0
344.234 36.3973 0
345.447 31.5472 0
368.438 10.4823 0
363.44 10.4309 0
171.16 5.82911 0
176.056 6.74893 0
176.904 31.6408 0
177.031 26.6423 0
455.858 -9.44994 0
460.206 -11.9171 0
479.962 5.98202 0
484.699 4.38207 0
121.556 47.2673 0
126.549 47.8101 0
148.716 20.4707 0
153.564 19.2726 0
28.2942 32.9778 0
32.559 30.3616 0
35.3506 6.04305 0
33.3931 1.43815 0
68.0757 44.9107 0
63.4081 46.7551 0
73.9742 38.2794 0
74.5398 43.244 0
57.8944 23.4642 0
53.3669 25.5767 0
324.945 42.0409 0
326.03 37.1616 0
129.958 12.7462 0
125.067 13.7072 0
31.539 23.466 0
26.5494 23.5755 0
473.641 7.20578 0
478.635 7.42687 0
79.6008 52.013 0
84.5165 53.0719 0
225.949 41.3898 0
223.175 45.5545 0
244.36 33.3249 0
248.013 29.9037 0
468.363 0.286208 0
470.121 -4.39599 0
261.943 14.379 0
259.846 9.84046 0
337.094 -5.27095 0
335.049 -0.707051 0
150.607 31.3296 0
150.504 36.3269 0
154 53.7573 0
159.009 53.3257 0
484.06 -20.8219 0
488.969 -21.7641 0
56.7565 21.0292 0
61.7422 21.2067 0
111.052 -0.26151 0
109.923 4.61609 0
373.216 24.6575 0
378.184 24.0675 0
348.027 41.0835 0
345.964 45.639 0
108.849 51.2503 0
103.855 51.8328 0
260.226 5.95727 0
259.239 10.8613 0
65.2443 37.79 0
65.6198 42.7724 0
221.273 14.7892 0
216.323 15.4411 0
28.1754 29.8073 0
25.4703 34.0147 0
170.257 37.4114 0
173.403 41.2999 0
269.433 16.5662 0
269.986 11.5954 0
496.217 27.2943 0
493.127 31.2252 0
366.165 -5.62788 0
364.347 -10.2873 0
342.974 22.9644 0
347.916 22.187 0
342.14 15.6066 0
346.926 14.1562 0
126.279 17.3717 0
127.786 12.6008 0
289.276 16.0876 0
286.711 20.3837 0
368.062 -14.5774 0
369.05 -9.67308 0
110.761 14.438 0
111.8 9.54187 0
155.347 37.0972 0
150.337 37.0394 0
372.311 11.0374 0
367.322 10.7319 0
331.881 -5.15795 0
327.776 -8.00022 0
346.851 12.3499 0
343.262 8.87191 0
369.987 37.9863 0
371.124 33.118 0
310.17 29.9263 0
305.445 28.2779 0
113.233 18.5473 0
110.155 14.6133 0
163.898 0.0861131 0
162.043 4.73188 0
139.756 29.8553 0
137.3 34.2131 0
420.998 20.4398 0
423.584 24.7181 0
192.433 13.3209 0
193.769 8.4976 0
82.373 55.9436 0
87.2875 57.032 0
287.646 44.9683 0
287.485 39.9749 0
384.066 -6.05262 0
381.953 -10.5852 0
149.256 -0.519743 0
150.134 4.40977 0
441.275 28.9313 0
444.731 25.3156 0
414.166 -14.4062 0
411.927 -9.93563 0
250.538 17.897 0
254 21.5007 0
391.47 25.8975 0
387.421 28.8363 0
437.928 12.5606 0
442.89 11.9431 0
4.29223 25.2294 0
8.78873 23.0569 0
37.3811 49.8925 0
40.7294 46.1667 0
100.01 40.9736 0
104.717 39.2337 0
215.479 21.3424 0
219.228 18.0349 0
59.8773 52.8938 0
64.5451 51.0311 0
285.374 6.583 0
289.546 9.33321 0
303.643 35.9444 0
302.687 31.0381 0
270.703 25.068 0
274.187 21.4772 0
257.322 37.3942 0
252.937 39.8184 0
102.794 55.6427 0
99.3863 51.9736 0
345.243 44.8831 0
350.191 44.0784 0
228.936 1.65277 0
224.097 2.84579 0
356.296 3.36054 0
358.515 7.84019 0
457.242 2.61629 0
460.813 6.11302 0
379.007 37.1395 0
382.496 33.5524 0
286.234 45.9578 0
290.55 43.408 0
158.689 34.1479 0
158.701 39.1455 0
419.123 -1.04619 0
414.49 -2.91519 0
266.993 29.2214 0
264.729 24.7652 0
281.912 16.9122 0
276.914 16.8306 0
80.716 44.553 0
76.7886 47.6666 0
320.346 4.79787 0
324.112 1.5133 0
409.346 21.1452 0
408.729 26.1081 0
431.794 34.3144 0
434.94 38.2009 0
276.299 11.0162 0
276.733 15.9978 0
197.358 3.30258 0
200.236 7.38664 0
364.227 19.2205 0
359.854 21.6516 0
405.452 -6.99248 0
401.72 -10.3144 0
472.951 32.3019 0
477.948 32.1173 0
272.674 21.2824 0
271.476 16.4289 0
453.68 6.08574 0
457.18 9.65409 0
280.893 4.25003 0
280.872 9.25254 0
111.17 42.4504 0
114.791 45.9064 0
9.22964 32.6967 0
10.5511 27.8743 0
331.171 39.9159 0
335.376 37.1959 0
228.874 31.793 0
223.878 32.1204 0
406.312 -12.1523 0
402.362 -9.08997 0
242.812 8.73621 0
239.423 5.0653 0
315.137 8.37252 0
317.365 12.8472 0
261.807 40.5724 0
256.872 41.4586 0
298.644 -6.12623 0
298.293 -11.1188 0
409.367 34.8359 0
406.797 30.5476 0
400.887 1.51999 0
399.458 -3.27068 0
318.074 31.2992 0
314.128 34.3797 0
383.228 42.2038 0
386.293 38.2489 0
173.566 48.1105 0
178.527 48.8856 0
316.417 32.8201 0
311.41 32.9428 0
84.0033 16.3789 0
81.1109 20.4557 0
335.777 19.4996 0
332.872 23.5719 0
377.887 8.7767 0
373.407 10.9974 0
74.5748 7.31143 0
78.9509 4.93876 0
81.689 4.27407 0
78.6872 8.26543 0
207.587 3.87668 0
206.756 -1.05905 0
484.915 -8.74989 0
485.353 -3.76906 0
151.219 52.4041 0
146.949 55.0441 0
383.851 9.27427 0
378.935 8.36893 0
10.746 58.069 0
9.77542 53.1722 0
316.488 15.6566 0
316.759 20.6492 0
157.339 1.27947 0
161.344 -1.68616 0
62.1575 39.6178 0
57.1573 39.2639 0
133.516 22.7835 0
129.236 20.2089 0
462.77 15.3901 0
458.034 16.9963 0
158.498 12.618 0
153.565 13.3406 0
319.369 21.4282 0
320.891 16.6641 0
477.326 30.6921 0
478.607 25.8587 0
497.784 -6.01552 0
493.051 -7.62327 0
318.552 39.0695 0
323.251 37.3312 0
392.505 26.5295 0
397.493 26.1361 0
471.89 -2.47555 0
467.939 -5.53674 0
239.099 21.204 0
241.93 25.324 0
130.25 -1.40344 0
126.116 1.37349 0
47.1945 40.7856 0
52.056 42.0128 0
359.578 27.3127 0
364.463 28.3965 0
10.6371 12.7255 0
11.1492 17.7038 0
265.122 18.5726 0
267.35 14.0943 0
277.242 39.4382 0
281.97 41.0983 0
362.822 24.5217 0
357.829 24.2056 0
239.773 13.3842 0
238.133 18.1096 0
89.3194 20.0054 0
87.4401 24.6416 0
371.5 32.3592 0
368.006 35.9417 0
52.5769 26.8113 0
56.6593 29.6932 0
88.021 3.19973 0
92.7895 1.80177 0
141.363 47.9427 0
138.472 52.0292 0
47.7604 19.3753 0
43.8766 22.517 0
126.487 0.556812 0
131.177 2.21774 0
321.788 -11.7922 0
326.773 -11.8631 0
123.49 43.8053 0
125.947 39.4479 0
446.23 4.20793 0
442.7 0.669477 0
128.879 16.2609 0
125.4 19.8482 0
133.814 21.532 0
134.485 16.5744 0
335.257 2.81405 0
338.526 -0.968196 0
416.687 30.0206 0
411.689 30.257 0
357.667 -8.82655 0
352.735 -9.58754 0
460.131 14.1096 0
465.017 15.1676 0
277.664 38.2113 0
273.948 34.8617 0
312.192 7.9585 0
312.322 12.9578 0
330.939 -8.2123 0
327.212 -4.88747 0
281.907 15.1367 0
284.803 19.209 0
247.726 0.243255 0
248.429 5.19775 0
159.972 12.8679 0
159.019 17.7794 0
3.53219 59.7164 0
8.57106 59.9411 0
60.0216 37.5979 0
60.2789 42.5877 0
248.759 23.2284 0
253.539 24.6932 0
29.0663 24.228 0
32.5184 20.6136 0
332.794 21.6988 0
331.798 16.8 0
445.535 8.90563 0
442.137 12.5752 0
411.833 9.34231 0
409.02 5.21126 0
240.416 28.2154 0
241.311 33.1327 0
324.077 19.7864 0
320.011 16.8798 0
258.876 18.3157 0
255.287 21.7985 0
368.392 -2.57813 0
370.441 1.98274 0
298.635 2.24962 0
293.648 2.38599 0
194.627 36.7543 0
192.478 41.2695 0
208.449 13.2968 0
211.742 9.5367 0
131.147 27.2157 0
129.21 31.8262 0
344.857 22.177 0
348.211 18.4652 0
469.05 11.1855 0
464.053 11.3645 0
192.449 3.31748 0
189.301 7.19807 0
451.691 19.5929 0
449.407 15.1463 0
281.245 43.8328 0
276.597 41.9605 0
198.939 54.2821 0
202.613 50.8713 0
35.4632 54.8756 0
33.7976 50.1659 0
406.206 -3.70752 0
403.412 0.439285 0
213.597 24.5281 0
218.343 22.9535 0
196.231 36.1548 0
200.972 37.7736 0
25.5856 37.6729 0
27.8388 33.2078 0
69.1541 39.7587 0
68.9972 44.7525 0
496.843 0.199119 0
497.045 5.19525 0
428.269 23.351 0
423.572 25.0752 0
117.656 2.1577 0
117.325 7.15478 0
148.782 7.80012 0
143.84 8.41676 0
465.461 -14.5756 0
463.802 -19.2925 0
230.286 0.784642 0
233.344 4.73716 0
7.28321 5.99025 0
11.0386 9.2654 0
196.954 10.262 0
200.148 6.41856 0
410.467 30.4367 0
415.451 30.8817 0
4.34214 31.6469 0
1.62952 27.4458 0
130.259 35.8495 0
134.462 33.129 0
264.166 -1.43577 0
260.646 -4.97978 0
320.424 42.4482 0
322.759 38.0253 0
357.134 -2.86791 0
352.772 -5.30065 0
294.273 -6.77691 0
299.118 -5.60327 0
411.304 35.0385 0
411.061 30.0452 0
464.81 -21.0496 0
463.809 -16.15 0
318.805 38.6326 0
317.33 43.4091 0
291.658 45.7363 0
286.818 47.0579 0
392.493 -11.7097 0
396.766 -14.2958 0
155.989 48.9381 0
160.642 47.0559 0
342.077 2.31791 0
346.831 0.786497 0
258.644 40.519 0
258.827 45.5118 0
105.329 50.5307 0
109.903 52.6 0
424.308 19.0995 0
424.037 24.0917 0
88.8863 16.2875 0
86.6916 11.7921 0
480.453 -5.02574 0
481.913 -9.80901 0
23.8527 22.7617 0
19.6535 20.065 0
330.539 41.6524 0
333.952 37.9906 0
17.9204 45.5904 0
18.2602 50.5721 0
151.716 35.9416 0
147.127 37.9511 0
411.512 28.3878 0
415.451 31.4697 0
333.002 25.7075 0
331.632 20.9006 0
413.033 2.50436 0
412.492 -2.46707 0
253.8 43.0417 0
254.89 47.9173 0
206.305 12.8881 0
201.648 14.6797 0
152.051 45.6458 0
152.221 50.6373 0
273.301 11.6059 0
277.243 8.53396 0
423.727 2.44242 0
422.702 -2.4519 0
36.1805 53.5511 0
31.3116 54.8231 0
377.537 2.37407 0
375.334 6.86398 0
19.7583 21.8782 0
16.1606 18.4164 0
108.689 54.6439 0
113.08 57.0787 0
397.501 -8.36866 0
395.489 -3.78861 0
32.2098 26.7589 0
27.7374 28.993 0
138.084 8.10762 0
133.352 9.66614 0
271.674 9.10752 0
272.606 4.19296 0
368.978 18.6015 0
368.132 23.5303 0
111.557 46.9393 0
116.007 49.2542 0
278.54 -7.19347 0
275.085 -3.58898 0
49.4478 18.9274 0
50.9998 14.1706 0
285.443 29.0313 0
284.317 24.1607 0
247.017 25.053 0
250.663 21.6284 0
166.613 15.6075 0
163.59 19.5895 0
46.2685 6.35204 0
45.1852 11.2404 0
147.333 42.1534 0
144.631 46.3649 0
326.524 9.60208 0
321.7 10.9048 0
141.115 26.6147 0
136.533 28.6195 0
468.08 22.9608 0
466.45 27.6887 0
22.4537 15.3772 0
20.4632 10.7888 0
265.567 0.34412 0
262.179 -3.32716 0
253.572 41.992 0
249.843 45.3364 0
59.4717 2.6859 0
56.2534 6.5011 0
241.327 30.5575 0
236.547 29.0778 0
285.111 41.4404 0
280.102 41.2186 0
84.433 21.2432 0
84.0232 26.2274 0
130.379 12.9368 0
126.477 9.82596 0
21.4229 41.5169 0
20.2832 36.652 0
52.1493 0.906377 0
47.8903 3.47732 0
441.333 -18.5315 0
437.351 -15.5123 0
18.9071 19.0213 0
16.6562 23.4876 0
111.005 46.4045 0
109.044 41.8077 0
247.143 30.3584 0
249.058 25.7382 0
67.1351 1.22312 0
71.849 -0.337917 0
380.212 28.6707 0
385.104 29.723 0
315.614 35.3559 0
310.633 34.8256 0
143.97 21.1794 0
148.893 22.0178 0
415.271 -1.97131 0
410.478 -3.38074 0
443.369 29.1607 0
440.056 25.4167 0
420.086 33.7036 0
415.177 34.676 0
441.861 -18.0316 0
438.699 -14.1597 0
83.7383 7.61321 0
87.0167 11.3804 0
120.629 23.9806 0
116.645 20.9663 0
4.39697 45.4677 0
9.4034 45.0724 0
417.324 -12.7637 0
417.836 -7.78841 0
350.278 20.4285 0
355.218 19.6431 0
381.789 -7.4162 0
386.596 -6.06179 0
370.589 -2.44134 0
375.332 -4.00915 0
466.583 -11.9108 0
471.327 -13.4874 0
472.652 31.6162 0
468 29.7825 0
157.825 -2.0361 0
153.897 1.03281 0
126.144 42.3891 0
131.056 43.4023 0
49.5887 3.13531 0
48.0232 7.88976 0
452.268 30.5492 0
451.398 35.4727 0
429.678 33.4245 0
431.988 37.8581 0
41.3736 51.3135 0
44.4011 47.3257 0
64.7807 33.9545 0
62.8145 29.3593 0
465.693 15.1624 0
460.694 15.0456 0
292.286 12.0868 0
289.067 15.9225 0
393.964 25.7829 0
389.046 26.7068 0
459.314 8.88309 0
461.352 4.31559 0
482.148 31.0342 0
484.124 26.4408 0
115.429 17.1048 0
116.729 21.9337 0
255.135 1.34564 0
250.589 -0.706013 0
388.712 -4.4691 0
384.429 -1.89631 0
333.796 36.6792 0
338.123 34.1577 0
86.4244 42.9084 0
90.7738 40.4204 0
466.494 13.8176 0
461.549 14.5576 0
314.433 0.301323 0
319.048 -1.60059 0
42.56 39.1301 0
40.438 34.6047 0
378.644 19.9741 0
381.903 16.1777 0
119.964 37.5458 0
124.927 36.8558 0
386.194 24.5847 0
381.215 25.0733 0
260.337 34.312 0
265.311 33.722 0
421.51 -4.07278 0
417.05 -6.32268 0
112.546 7.01878 0
107.572 7.02111 0
494.445 3.16027 0
493.148 7.99027 0
327.96 32.4695 0
323.037 31.5565 0
437.569 31.1972 0
436.829 26.2531 0
146.326 4.44543 0
144.145 -0.0562473 0
29.5515 22.4324 0
34.2492 20.7475 0
381.923 27.3162 0
378.737 31.1725 0
187.193 25.2442 0
188.951 29.9217 0
116.653 24.3874 0
113.431 20.5679 0
421.234 -8.915 0
416.273 -8.32968 0
232.955 50.0573 0
230.078 45.9656 0
315.311 -3.6515 0
313.429 -8.28627 0
263.964 32.7134 0
268.631 34.523 0
269.951 9.86438 0
265.025 9.05258 0
19.0404 16.7558 0
20.8154 21.4312 0
384.04 6.60342 0
386.416 2.20187 0
371.229 26.2977 0
367.279 23.2323 0
71.6692 13.125 0
67.1177 15.1584 0
237.923 51.4033 0
234.96 47.3728 0
468.674 -18.3169 0
473.637 -18.9036 0
345.458 31.2894 0
347.102 26.5667 0
5.12976 23.226 0
2.76774 18.821 0
171.554 46.9807 0
167.643 43.8528 0
309.254 6.5824 0
313.942 4.86214 0
385.791 11.4615 0
382.075 14.8126 0
34.2656 10.7626 0
36.7504 6.42432 0
63.8825 52.956 0
60.4539 56.6122 0
145.728 11.018 0
147.757 15.5885 0
230.084 24.6815 0
234.974 23.6309 0
351.67 12.2448 0
347.317 9.78927 0
441.437 -17.3339 0
436.476 -16.7502 0
119.396 41.2461 0
121.604 36.7576 0
444.101 6.26267 0
448.863 7.77897 0
122.204 50.0883 0
117.179 50.1679 0
110.753 53.8011 0
107.865 57.8907 0
240.697 32.2638 0
238.099 27.9937 0
377.524 22.5054 0
373.579 19.4359 0
420.505 -15.1995 0
424.086 -11.7128 0
222.145 51.87 0
222.827 46.9212 0
306.9 41.1102 0
307.257 46.0941 0
289.861 -5.80472 0
284.914 -5.20482 0
474.134 9.31373 0
478.965 8.02243 0
114.305 39.2578 0
113.344 44.1618 0
51.6323 41.3931 0
56.4303 39.936 0
3.78917 39.858 0
7.92592 42.6835 0
201.303 13.8627 0
204.073 9.70149 0
103.935 6.36036 0
98.9899 5.83907 0
305.881 39.3924 0
301.092 40.8701 0
207.94 46.7273 0
203.698 49.4034 0
47.4774 13.6435 0
51.8865 11.3209 0
117.941 29.4656 0
114.833 33.3848 0
168.426 44.0812 0
171.255 39.9535 0
171.546 1.1122 0
170.327 5.96584 0
153.653 56.6097 0
156.376 52.4099 0
165.499 52.1079 0
169.554 49.1566 0
138.056 30.9975 0
134.953 27.0789 0
409.944 16.5233 0
414.942 16.3313 0
241.764 6.97407 0
245.485 10.3067 0
19.7954 57.958 0
20.1195 52.9777 0
293.787 44.9498 0
298.094 47.5081 0
373.186 29.4719 0
371.3 34.1035 0
315.9 15.2414 0
311.573 17.7484 0
455.976 1.6852 0
460.509 -0.426011 0
181.87 11.7496 0
184.805 7.70402 0
446.404 -2.94964 0
442.204 -0.236285 0
231.068 -2.47443 0
228.396 -6.70034 0
392.669 31.6987 0
397.668 31.4423 0
365.623 8.65565 0
369.627 5.66127 0
276.116 41.0778 0
272.539 44.5818 0
357.869 17.9557 0
360.491 22.2112 0
237.019 2.15487 0
236.904 -2.84933 0
373.089 16.8732 0
370.494 12.6016 0
151.718 17.3698 0
147.738 20.3912 0
155.95 4.71739 0
159.844 7.83775 0
59.151 45.3175 0
55.933 41.4864 0
357.729 42.326 0
362.737 42.5042 0
266.592 44.7399 0
261.624 44.0528 0
229.923 34.0689 0
228.324 29.3337 0
295.595 -2.73834 0
299.335 -6.04899 0
256.052 29.2146 0
259.882 25.994 0
94.6108 13.1397 0
99.4466 14.3303 0
156.492 30.4943 0
152.36 27.6809 0
18.6277 19.3182 0
13.8503 20.751 0
35.9449 26.09 0
33.0606 22.0092 0
6.38948 4.90954 0
2.17771 7.56651 0
335.502 18.0217 0
340.16 16.2015 0
377.577 16.4887 0
382.208 14.5988 0
489.468 -16.0988 0
485.033 -18.4072 0
361.945 14.8294 0
357.114 16.1203 0
2.52014 55.0663 0
7.53224 54.5614 0
439.876 -0.451905 0
438.326 -5.20529 0
30.0713 42.3944 0
25.0875 41.8174 0
458.28 1.34102 0
462.373 -1.53137 0
174.449 47.8415 0
177.581 43.9357 0
447.031 22.3134 0
442.032 22.4631 0
63.7512 21.5582 0
59.293 19.3164 0
304.168 -6.08935 0
304.804 -11.0527 0
417.035 18.3093 0
422.012 17.8056 0
381.072 17.5408 0
385.874 18.9271 0
369.993 35.7863 0
368.622 40.594 0
60.432 14.3919 0
56.3121 11.583 0
244.765 10.1331 0
243.556 5.27905 0
164.379 12.8264 0
159.532 11.6582 0
57.4617 19.1752 0
58.1509 24.1297 0
64.5783 49.9152 0
62.3786 45.4265 0
291.634 40.6558 0
288.497 44.5558 0
362.365 14.8039 0
362.274 9.80431 0
322.756 0.424311 0
322.273 5.40357 0
98.277 42.985 0
98.0216 47.9743 0
380.172 -10.7459 0
380.624 -15.7283 0
453.109 -12.9726 0
449.393 -16.3154 0
347.952 19.7076 0
348.41 24.6858 0
489.7 -4.20007 0
491.343 -8.9238 0
355.317 23.9221 0
350.411 24.9071 0
468.058 20.6968 0
473.035 21.1728 0
26.6473 54.8011 0
26.4266 49.8142 0
419.271 -18.7734 0
421.652 -14.3764 0
80.4316 6.09656 0
75.506 6.76536 0
187.335 3.7561 0
189.074 8.44771 0
431.011 20.5107 0
431.338 25.4993 0
362.498 23.5966 0
362.042 18.618 0
289.159 10.5431 0
291.005 5.89317 0
263.463 16.1455 0
267.637 18.8925 0
283.861 42.3082 0
278.877 41.7578 0
343.468 18.8714 0
343.053 13.8887 0
83.9256 21.3574 0
85.3645 16.5666 0
191.224 54.3899 0
191.068 49.3991 0
285.036 22.3174 0
286.753 27.0117 0
448.394 0.394155 0
445.491 -3.67438 0
325.364 42.8156 0
330.342 43.4027 0
82.1609 14.4108 0
79.1997 18.4368 0
232.572 23.0607 0
231.97 28.0244 0
461.936 20.4848 0
457.402 18.3788 0
351.183 18.424 0
353.605 22.7966 0
11.3639 18.5929 0
6.90448 20.8312 0
432.349 13.0569 0
437.258 13.9992 0
399.585 -0.689163 0
401.71 -5.21671 0
204.647 -4.88325 0
209.558 -4.07337 0
305.764 30.061 0
305.921 35.0579 0
5.8432 35.7584 0
7.99888 40.2702 0
14.654 26.285 0
15.6053 31.1932 0
187.468 48.6983 0
189.488 53.2687 0
204.859 3.5452 0
209.789 2.83333 0
414.75 10.1413 0
409.816 9.33286 0
177.527 31.6289 0
182.529 31.7042 0
323.615 35.3981 0
320.541 39.3463 0
221.516 51.8881 0
226.499 51.2551 0
456.393 0.298408 0
453.598 -3.84554 0
335.729 -12.4701 0
332.326 -8.81307 0
43.4558 25.536 0
43.8647 30.5195 0
470.141 -18.5517 0
474.104 -21.5984 0
148.573 36.6286 0
146.258 41.0626 0
413.524 23.3588 0
410.862 19.1272 0
273.647 36.6746 0
276.197 40.9748 0
235.653 4.83878 0
233.564 9.38307 0
378.772 19.68 0
374.159 17.7541 0
243.71 30.9363 0
247.135 27.2883 0
332.726 3.36479 0
336.162 -0.264673 0
36.0274 19.9031 0
31.1298 20.8462 0
212.254 25.9621 0
210.772 21.1869 0
368.553 21.6803 0
365.713 25.7986 0
312.073 3.69382 0
308.798 7.47077 0
332.33 23.2322 0
336.887 25.2929 0
186.77 46.759 0
182.364 44.3692 0
400.442 38.097 0
395.784 39.9351 0
414.076 40.1593 0
409.351 38.511 0
250.355 37.3714 0
253.894 40.9071 0
275.2 11.5018 0
270.636 13.5375 0
336.648 27.9292 0
331.763 29.0234 0
327.891 30.469 0
330.666 34.627 0
347.323 37.5151 0
351.87 39.611 0
190.001 -3.28476 0
185.091 -2.49496 0
339.939 42.2307 0
340.864 37.3187 0
238.123 -7.49786 0
233.215 -6.67348 0
8.73261 41.7693 0
12.3193 45.2626 0
157.477 26.2445 0
153.803 22.8572 0
63.5119 53.5222 0
68.3102 55.0276 0
279.387 45.7104 0
274.693 47.4788 0
317.977 30.027 0
313.191 28.5652 0
348.255 14.2507 0
343.995 11.6384 0
113.521 18.8755 0
111.765 23.5591 0
15.2627 41.8396 0
20.1631 40.7664 0
186.298 35.0281 0
182.845 38.6496 0
407.938 -13.939 0
412.889 -13.282 0
110.167 5.29305 0
114.946 3.91279 0
243.789 12.6969 0
247.51 9.36146 0
121.436 51.7935 0
116.96 49.5253 0
106.043 1.72756 0
101.407 -0.0712686 0
397.82 -7.1621 0
402.477 -5.35773 0
20.5489 19.1289 0
25.305 20.6254 0
393.796 36.908 0
394.838 41.796 0
442.114 -6.99322 0
437.855 -4.37672 0
439.526 6.72684 0
440.93 11.5249 0
332.732 22.0387 0
337.724 22.3586 0
437.004 32.1456 0
438.74 36.8336 0
8.55269 47.6566 0
13.0901 49.8052 0
120.664 20.6574 0
125.405 22.2252 0
34.4481 18.1599 0
39.0469 20.0884 0
377.521 14.6967 0
372.537 14.3035 0
436.64 -16.4579 0
437.381 -11.5119 0
236.095 48.1551 0
237.762 43.4421 0
141.372 45.1159 0
143.817 40.7519 0
8.06819 5.10289 0
6.35893 0.39889 0
180.126 3.61328 0
175.507 5.47967 0
279.155 35.0435 0
274.171 35.5441 0
151.706 24.6165 0
148.99 20.4209 0
315.108 0.567155 0
319.906 -0.804372 0
298.485 6.5035 0
293.529 7.10045 0
469.079 4.19379 0
473.64 2.14474 0
107.114 20.721 0
110.661 17.1978 0
324.278 8.91086 0
319.402 7.83133 0
462.622 33.4504 0
466.606 36.473 0
296.622 5.37468 0
300.053 1.74064 0
466.229 24.1588 0
467.091 29.0834 0
483.46 4.84259 0
485.029 0.0936632 0
332.734 16.0303 0
334.155 11.2349 0
322.591 4.87915 0
319.522 0.934433 0
378.324 25.1212 0
378.748 20.1387 0
385.453 14.8259 0
390.121 16.6074 0
68.8406 21.4693 0
65.0739 18.1916 0
32.9759 13.0901 0
31.1707 17.7565 0
48.8106 59.5121 0
49.4209 54.5581 0
367.49 -3.64026 0
366.145 -8.45756 0
297.688 -2.86043 0
292.703 -2.86048 0
146.858 6.05047 0
147.811 1.13598 0
163.787 2.77043 0
159.128 4.52752 0
151.226 27.8372 0
146.26 27.2553 0
367.693 15.1193 0
372.374 13.3585 0
128.681 19.1884 0
133.633 19.8144 0
466.423 1.54122 0
470.529 4.39049 0
210.1 1.50608 0
206.634 5.1004 0
184.439 45.9182 0
184.773 40.934 0
77.2629 6.87562 0
74.2559 10.8639 0
495.802 22.1878 0
496.008 17.1922 0
326.99 11.49 0
329.139 16.0033 0
447.602 22.5478 0
450.746 18.6575 0
272.38 6.33879 0
276.53 9.117 0
321.829 15.8958 0
317.26 17.927 0
490.06 -0.975079 0
486.854 -4.80971 0
398.274 -5.06852 0
397.543 -10.016 0
391.595 5.15036 0
386.661 4.34216 0
62.4638 20.9182 0
57.5609 20.0001 0
224.282 47.0568 0
226.246 51.6526 0
58.8672 44.6598 0
53.8922 43.9974 0
375.147 -14.9378 0
371.818 -11.2122 0
396.398 -4.21765 0
398.557 0.290503 0
105.348 47.266 0
108.731 43.5715 0
48.8641 31.4684 0
51.9617 27.5412 0
214.472 53.5408 0
209.528 52.6545 0
242.368 16.4953 0
243.561 21.3509 0
480.969 -17.5536 0
482.325 -12.7413 0
230.037 33.0044 0
232.987 28.9632 0
15.2964 51.1771 0
18.4499 55.0668 0
486.785 5.93002 0
484.182 10.201 0
486.719 -18.6658 0
491.226 -16.504 0
249.139 1.68786 0
254.112 2.03823 0
317.985 40.0813 0
317.052 44.9915 0
481.849 -1.62165 0
477.243 -3.56324 0
220.487 18.5601 0
221.065 13.5916 0
374.105 37.3303 0
369.461 35.4605 0
166.021 8.33479 0
165.765 3.3354 0
37.1335 28.6566 0
38.3971 33.4929 0
349.64 32.8456 0
344.727 31.8835 0
445.931 37.765 0
441.288 35.9041 0
5.31108 41.0094 0
6.06365 45.9501 0
438.416 -13.2692 0
443.088 -15.0426 0
175.485 43.3777 0
173.753 48.0671 0
200.649 47.2057 0
204.946 44.6204 0
19.7534 42.4143 0
14.752 42.8327 0
484.195 22.955 0
479.225 23.5043 0
186.303 7.37488 0
181.324 7.58266 0
20.4082 45.9721 0
16.9846 42.3205 0
440.471 1.34727 0
445.374 0.372727 0
373.311 -4.49875 0
370.398 -8.56129 0
228.723 33.4489 0
231.135 29.0667 0
257.405 9.43389 0
262.344 10.1545 0
286.09 7.20906 0
288.819 11.4001 0
483.779 11.0265 0
479.175 9.08143 0
84.177 43.2096 0
88.5928 45.582 0
449.133 12.873 0
447.246 8.24405 0
43.0028 26.234 0
46.357 22.5268 0
297.45 0.120282 0
296.351 -4.76043 0
457.535 21.0973 0
461.69 18.3131 0
379.47 20.7738 0
384.284 22.1233 0
333.916 24.5873 0
331.138 28.7477 0
334.932 -3.90417 0
329.946 -4.08363 0
24.7369 46.5449 0
29.5898 45.2525 0
316.265 -5.88548 0
316.701 -10.8703 0
52.0793 33.3201 0
53.6655 38.0595 0
455.944 -2.07434 0
451.014 -2.88863 0
309.347 31.0154 0
307.24 26.4824 0
174.227 19.3397 0
172.308 14.7234 0
230.968 37.7869 0
233.947 33.7663 0
492.045 14.3353 0
489.577 9.98857 0
342.13 1.86302 0
340.633 6.63543 0
215.414 40.31 0
210.54 39.1405 0
451.835 25.1154 0
455.951 27.9532 0
133.216 4.9411 0
137.983 6.37585 0
313.7 42.9306 0
318.524 41.5698 0
405.945 -13.1209 0
408.473 -17.434 0
59.8326 50.1473 0
62.7074 54.2428 0
67.0422 49.2495 0
71.9173 50.465 0
361.742 6.10678 0
364.473 1.91767 0
201.216 13.8593 0
206.065 12.6881 0
3.376 31.1267 0
4.46892 36.0057 0
209.06 11.7375 0
212.832 8.46416 0
490.55 8.40167 0
485.751 9.8078 0
160.548 27.2135 0
156.406 24.4175 0
70.0585 40.2587 0
67.1558 36.1875 0
425.508 -4.01134 0
422.197 -7.75526 0
423.452 33.9719 0
421.879 29.2266 0
233.188 -2.11674 0
231.812 -6.92876 0
253.132 15.5979 0
257.987 16.7736 0
211.393 28.7212 0
211.859 33.6985 0
344.302 4.50304 0
345.455 -0.364213 0
155.395 33.3874 0
155.627 38.3796 0
396.766 21.5181 0
392.326 19.2287 0
333.402 6.73455 0
333.021 1.74713 0
7.06076 52.3488 0
10.9381 55.5318 0
463.013 -9.04489 0
462.909 -4.04527 0
156.189 43.9808 0
161.199 43.6907 0
137.717 53.9798 0
133.267 51.6569 0
336.558 33.206 0
331.935 35.1315 0
42.7103 44.3775 0
41.8046 49.2902 0
396.335 -1.95515 0
399.943 -5.41746 0
15.5969 29.1175 0
18.759 25.2436 0
249.758 11.0795 0
252.887 14.9759 0
170.647 -1.87855 0
167.718 2.16697 0
319.529 -3.54022 0
320.235 1.41265 0
296.192 47.8987 0
293.046 44.0096 0
420.138 -2.84725 0
417.38 1.32438 0
441.72 -19.0964 0
445.236 -15.5438 0
9.53542 21.4194 0
4.95582 23.4055 0
18.5008 16.8074 0
21.7697 20.5829 0
358.282 21.8548 0
363.135 20.6392 0
437.734 0.0909438 0
442.411 1.85112 0
263.047 -2.2667 0
263.141 2.7368 0
197.196 43.6147 0
192.824 46.0741 0
385.932 32.6562 0
383.673 37.118 0
262.729 9.90785 0
267.694 10.4306 0
184.513 47.0813 0
180.593 43.9643 0
139.427 1.99496 0
134.512 2.75109 0
485.297 -15.771 0
489.494 -13.0563 0
52.1166 22.7865 0
51.1826 17.8719 0
26.154 47.1241 0
22.7146 43.4867 0
183.244 33.1244 0
179.128 30.287 0
279.813 36.6303 0
284.378 38.6882 0
42.631 50.381 0
45.5474 46.3126 0
309.907 25.8313 0
307.13 29.995 0
232.478 29.2805 0
236.327 32.474 0
312.016 12.302 0
313.435 7.50562 0
183.95 25.9015 0
186.92 21.8736 0
248.639 26.7361 0
244.828 29.9793 0
191.84 8.54561 0
189.898 13.1568 0
478.497 24.8393 0
475.127 21.1467 0
33.1715 4.40144 0
30.5383 8.64944 0
77.3384 16.7978 0
73.9059 20.4292 0
47.3988 29.1428 0
42.6596 27.5578 0
160.082 14.7075 0
164.818 16.2777 0
76.3393 27.4772 0
76.9499 22.5133 0
215.542 5.67273 0
219.553 2.70361 0
245.872 3.11517 0
241.954 0.0217701 0
50.2625 47.0032 0
46.515 43.6811 0
53.6287 42.265 0
49.9439 45.6594 0
200.976 5.29181 0
203.756 1.13858 0
54.2076 43.2601 0
58.954 41.6375 0
80.27 6.26346 0
81.6959 1.46485 0
61.4502 28.0215 0
56.5639 29.0801 0
173.344 5.34012 0
176.732 1.67392 0
457.687 28.8613 0
453.278 26.5043 0
460.811 33.3721 0
465.663 32.1556 0
131.789 29.5194 0
127.056 27.909 0
104.834 53.2565 0
99.9579 54.4881 0
418.334 28.609 0
416.563 33.2854 0
171.408 -0.978129 0
166.702 -2.59671 0
479.938 -8.25832 0
474.972 -8.83231 0
178.744 25.0086 0
182.472 28.3345 0
37.9145 46.015 0
42.3887 48.2845 0
164.358 9.65873 0
168.838 7.47003 0
283.442 31.4219 0
279.625 34.6582 0
233.949 -5.66762 0
231.34 -1.40485 0
335.631 -1.25709 0
335.897 3.73816 0
440.206 -10.4222 0
435.999 -7.72354 0
465.571 25.9826 0
468.961 29.6572 0
385.3 26.4736 0
380.335 27.0947 0
296.851 29.102 0
291.927 28.2196 0
139.668 26.6013 0
142.355 22.3829 0
362.362 8.2117 0
357.392 8.7335 0
469.502 -19.3171 0
474.448 -20.0366 0
298.902 -2.44843 0
294.255 -0.630964 0
246.94 43.1808 0
249.298 47.5889 0
64.7191 32.4686 0
62.3754 36.8876 0
14.52 15.7818 0
13.0254 20.5567 0
117.677 43.3028 0
115.683 47.8882 0
121.869 1.33424 0
124.789 5.3885 0
378.914 5.26273 0
374.526 7.66169 0
26.3363 39.0078 0
21.3253 38.8605 0
49.8065 56.8334 0
54.8075 57.4325 0
277.447 12.7571 0
277.541 17.7567 0
473.555 26.3545 0
471.775 21.6827 0
399.024 -8.85334 0
396.918 -4.31639 0
21.5369 24.9372 0
16.6659 26.0411 0
39.9286 44.9454 0
42.1674 49.4146 0
89.2907 20.0013 0
88.2085 24.8861 0
421.781 30.0876 0
423.973 25.5928 0
233.981 15.1324 0
228.989 15.0047 0
69.3446 24.8845 0
65.0429 22.3488 0
161.723 43.7782 0
166.625 42.7089 0
10.0359 42.7623 0
5.25245 41.2566 0
357.72 7.5606 0
355.658 3.00625 0
111.232 10.6097 0
106.257 10.7818 0
198.153 44.8648 0
197.879 39.8765 0
41.018 44.3519 0
36.0696 45.2019 0
410.52 13.6394 0
409.027 18.4145 0
184.595 1.20711 0
181.553 5.16972 0
54.6511 39.2272 0
56.9081 34.7638 0
265.424 6.85733 0
269.57 9.64063 0
475.96 5.92072 0
479.433 9.51443 0
379.735 36.3897 0
376.178 39.9103 0
87.5357 2.77174 0
84.916 7.02823 0
404.307 38.5547 0
400.75 35.0398 0
365.032 9.96573 0
364.943 14.9655 0
205.584 34.9917 0
205.305 39.9826 0
57.6779 9.61193 0
58.8752 4.75061 0
331.778 -7.69488 0
326.848 -6.93333 0
376.357 -6.03106 0
380.41 -8.9505 0
77.514 53.8573 0
76.0955 49.068 0
209.009 37.081 0
213.928 36.1186 0
388.112 -2.42885 0
383.514 -4.3804 0
71.4958 29.4426 0
68.4404 25.4885 0
40.4376 6.01424 0
44.7872 8.43518 0
252.711 3.1849 0
252.387 -1.80926 0
127.793 16.443 0
125.229 12.1516 0
261.295 -1.1187 0
257.192 -3.95939 0
112.644 19.9902 0
114.851 24.475 0
428.908 7.6054 0
430.918 12.1821 0
341.413 26.8901 0
345.556 29.6927 0
482.8 -11.1399 0
477.919 -12.2159 0
269.127 37.8052 0
272.074 33.7611 0
263.041 28.7643 0
268.005 29.3934 0
409.529 21.1208 0
411.052 16.3558 0
23.206 54.5912 0
21.8702 49.779 0
78.0594 15.3008 0
82.7728 16.9295 0
166.799 44.4161 0
166.581 49.4064 0
235.183 9.61472 0
230.298 10.6319 0
180.067 28.5944 0
179.141 23.682 0
85.8022 27.1253 0
85.0671 22.1802 0
73.1837 55.3261 0
75.2214 50.761 0
397.776 -8.81208 0
396.296 -13.5889 0
174.764 7.40187 0
171.619 11.2836 0
46.2819 37.9174 0
51.2557 38.5265 0
324.088 -7.38205 0
327.377 -3.61952 0
394.217 22.3751 0
399.186 21.8105 0
9.6692 54.7188 0
14.6861 54.2762 0
114.342 9.18947 0
119 10.956 0
486.651 -2.9314 0
489.237 -7.21236 0
428.006 -20.1984 0
432.767 -18.6849 0
424.932 32.7567 0
424.034 37.6747 0
124.705 26.1705 0
122.051 30.4099 0
309.462 35.5999 0
304.802 37.4391 0
77.9349 44.0238 0
76.45 39.2522 0
137.758 27.1961 0
142.639 28.2784 0
124.866 -1.26098 0
129.815 -1.68672 0
295.152 36.86 0
299.069 33.7399 0
266.549 28.1846 0
261.566 27.7268 0
385.268 3.75195 0
390.056 2.31554 0
417.231 1.51687 0
412.493 -0.066851 0
131.178 21.4095 0
133.715 25.7167 0
173.747 35.8401 0
175.379 31.1127 0
187.931 32.9619 0
184.233 29.5985 0
167.409 52.8286 0
171.298 49.6636 0
348.649 3.69311 0
350.714 8.24628 0
292.274 3.99008 0
289.289 -0.0191304 0
162.677 33.5104 0
159.09 30.0274 0
225.071 7.14398 0
224.124 12.0568 0
400.13 39.916 0
404.241 37.0599 0
140.423 49.579 0
143.431 53.5778 0
139.902 0.214304 0
140.879 5.12515 0
134.644 21.9388 0
132.751 26.5684 0
443.198 20.8328 0
438.215 20.4115 0
389.466 -0.13428 0
386.967 4.19806 0
224.818 2.79102 0
226.605 -1.88099 0
23.7758 20.3477 0
24.6491 25.2728 0
296.115 32.9245 0
291.611 30.7458 0
368.138 14.1235 0
367.599 19.095 0
33.7577 8.76041 0
38.6387 7.81826 0
393.252 26.1453 0
396.62 29.838 0
394.681 -10.4183 0
389.729 -9.78515 0
172.219 -3.81802 0
174.216 0.76947 0
169.77 31.9343 0
166.144 35.3848 0
440.007 30.8514 0
444.679 29.062 0
223.566 46.1847 0
227.704 43.3556 0
390.67 21.3825 0
393.857 25.2326 0
392.194 28.3797 0
395.696 31.9473 0
261.051 4.98324 0
260.981 9.9856 0
152.63 10.9645 0
147.678 10.4122 0
271.881 -7.37992 0
267.035 -8.53558 0
482.401 -1.92397 0
485.17 -6.08897 0
342.874 -6.96037 0
339.489 -3.28401 0
41.7267 24.4144 0
39.681 28.9784 0
309.582 -0.235665 0
314.164 1.74493 0
16.2919 47.8401 0
20.0805 44.5579 0
352.531 -7.77118 0
357.399 -8.86799 0
101.921 5.65355 0
97.2 4.08771 0
155.85 8.36846 0
150.899 7.82747 0
325.25 43.1003 0
321.05 40.3754 0
10.753 18.0462 0
15.1181 20.4588 0
166.053 -3.35218 0
170.953 -2.509 0
235.706 49.4231 0
240.65 50.2891 0
46.0377 43.7056 0
46.3274 38.7178 0
340.964 21.5756 0
337.77 25.4259 0
211.633 15.9842 0
211.706 20.9841 0
179.527 9.93086 0
175.654 13.0823 0
50.5375 31.4587 0
47.9739 27.1679 0
448.799 -4.53312 0
450.183 -9.33922 0
387.53 -10.3952 0
382.575 -9.79088 0
51.953 58.3594 0
46.9646 57.6555 0
202.775 43.1689 0
203.464 48.1169 0
282.85 20.0151 0
283.576 24.9618 0
330.469 44.8918 0
334.243 41.6006 0
296.897 -3.4512 0
292.67 -0.796524 0
465.619 25.948 0
462.602 21.962 0
240.805 18.1467 0
238.769 22.7146 0
21.8202 31.6617 0
22.4325 26.6988 0
262.997 -1.51129 0
263.008 -6.51663 0
456.09 0.168609 0
459.785 -3.20151 0
82.7563 50.6909 0
85.7071 54.7324 0
126.767 57.0353 0
127.997 52.1937 0
359.913 -1.89342 0
361.994 -6.44034 0
145.561 46.6317 0
144.873 41.6839 0
341.599 9.91243 0
345.326 6.57945 0
411.051 30.0794 0
414.117 34.0286 0
297.229 -7.19391 0
301.765 -5.12015 0
163.071 14.5123 0
163.747 19.4685 0
67.407 50.7106 0
67.9108 45.7415 0
272.841 28.4693 0
268.753 25.591 0
71.7163 18.7398 0
75.1726 22.3457 0
131.385 24.091 0
131.087 19.0982 0
140.61 6.52771 0
144.745 3.7422 0
252.927 45.7379 0
257.636 44.0111 0
19.4128 14.8593 0
23.9327 12.7629 0
369.343 16.3562 0
369.754 11.3724 0
123.964 47.4108 0
122.832 42.5454 0
211.366 0.539513 0
206.496 -0.498535 0
179.33 44.8267 0
180.799 49.602 0
126.347 26.9906 0
128.875 22.6756 0
321.961 0.916847 0
323.94 5.50919 0
230.315 13.9928 0
227.143 10.1322 0
106.049 45.6927 0
105.354 50.6401 0
390.498 29.6279 0
385.687 28.255 0
88.3112 41.9318 0
91.2972 45.9436 0
213.894 1.39224 0
218.755 0.309127 0
409.153 -7.92267 0
406.163 -3.91579 0
377.66 -7.86333 0
379.787 -12.3884 0
206.949 -1.48276 0
202.591 0.937029 0
15.4508 22.4368 0
12.9926 26.7916 0
252.404 -1.61011 0
255.18 -5.76479 0
219.359 28.5075 0
214.375 28.0807 0
72.6474 50.1654 0
76.0073 46.451 0
342.715 38.4178 0
347.648 39.2876 0
358.823 31.2706 0
359.736 36.1847 0
121.62 41.1134 0
123.483 45.7503 0
439.597 17.2318 0
443.588 14.2167 0
226.381 14.1445 0
231.184 12.7777 0
438.597 14.2066 0
438.607 9.20643 0
104.587 15.1197 0
103.982 10.1523 0
76.9929 21.3104 0
72.3518 19.4755 0
423.604 28.0041 0
426.167 23.7093 0
150.727 19.0193 0
150.829 24.0199 0
35.5585 30.8558 0
37.2523 26.15 0
213.143 -2.49171 0
212.128 2.40903 0
131.997 44.8881 0
129.307 40.6733 0
371.8 33.5789 0
366.809 33.9797 0
281.033 -1.19172 0
281.313 3.80451 0
241.572 31.1909 0
243.632 26.6338 0
130.568 22.3783 0
128.603 17.7811 0
304.188 -0.0146106 0
305.893 -4.71652 0
282.149 -1.54354 0
286.444 1.00006 0
108.709 35.9954 0
111.288 40.2763 0
308.462 35.5319 0
303.591 34.3696 0
204.267 37.4722 0
207.404 33.5698 0
100.258 54.206 0
102.234 49.6121 0
358.716 19.6112 0
363.43 17.9393 0
435.376 -17.088 0
439.676 -19.6335 0
23.6427 39.2901 0
18.7099 38.4025 0
65.5414 10.7107 0
66.1923 5.74566 0
324.171 26.7931 0
326.305 22.2697 0
131.075 43.437 0
128.812 38.9804 0
495.933 24.1803 0
499.918 27.1972 0
217.606 24.6478 0
213.963 28.0749 0
461.275 -19.3038 0
462.892 -14.5723 0
54.5822 51.264 0
50.8514 47.9193 0
429.794 21.3968 0
425.596 24.1186 0
366 -2.0246 0
369.162 -5.89618 0
367.919 34.0892 0
367.718 39.0834 0
197.743 45.77 0
194.535 41.9331 0
252.481 36.9595 0
248.11 34.521 0
445.914 38.2217 0
441.143 36.7136 0
208.26 18.0578 0
208.937 13.1017 0
242.061 16.469 0
240.519 11.7122 0
18.0414 35.2627 0
22.1134 38.1711 0
169.843 37.1739 0
166.529 40.9258 0
333.75 6.62021 0
336.203 10.9762 0
300.694 -5.74558 0
296.533 -8.50175 0
361.12 38.3294 0
356.149 37.717 0
277.009 34.0243 0
280.404 30.3483 0
363.894 15.1965 0
368.515 17.1002 0
139.715 25.5965 0
144.548 26.8676 0
270.946 41.0515 0
267.737 44.8931 0
88.2181 25.4232 0
85.4081 21.2894 0
4.90696 41.6405 0
6.07969 36.7805 0
222.338 25.8678 0
224.432 21.3259 0
246.63 4.36879 0
246.447 9.36901 0
80.5625 31.7405 0
79.8702 26.7898 0
251.488 23.6552 0
253.624 28.1743 0
385.095 24.4726 0
387.919 28.5979 0
262.995 43.8009 0
258.503 41.5809 0
145.757 35.4197 0
140.863 34.3663 0
377.11 16.3034 0
380.122 12.3079 0
90.0063 45.4535 0
87.1408 49.5566 0
310.325 29.0541 0
314.805 31.2827 0
449.382 -10.4618 0
444.4 -10.0794 0
408.615 -4.60188 0
405.065 -8.11941 0
211.834 40.3232 0
214.434 36.0485 0
159.497 12.4427 0
163.111 8.99615 0
342.235 -10.5437 0
338.298 -7.47233 0
8.67483 58.0355 0
9.91793 53.1984 0
467.229 2.06707 0
464.091 -1.82312 0
439.358 1.24447 0
436.153 -2.59101 0
126.93 52.5364 0
125.362 57.2811 0
490.102 -7.20457 0
486.495 -10.6649 0
354.813 19.429 0
350.069 21.0173 0
147.403 45.5425 0
151.278 42.3661 0
459.409 11.4127 0
463.734 8.89998 0
480.399 -0.599106 0
477.176 -4.41943 0
161.935 44.6249 0
159.502 40.258 0
473.61 23.5322 0
478.413 22.1397 0
165.781 24.5828 0
161.005 23.1133 0
290.89 12.3158 0
286.623 9.71147 0
128.119 15.1303 0
126.145 10.535 0
5.20422 37.9328 0
7.01697 33.2727 0
335.129 -1.85876 0
330.235 -0.880933 0
12.2976 1.75441 0
9.40447 5.82595 0
18.9393 1.67727 0
15.0525 4.79143 0
9.89323 26.8869 0
14.8428 26.2107 0
299.371 -4.90508 0
297.188 -0.405281 0
191.641 31.051 0
194.678 35.0174 0
432.657 -11.5808 0
427.688 -12.0966 0
24.6511 55.1833 0
19.6518 54.5815 0
143.102 1.15659 0
148.071 0.975705 0
473 15.1366 0
477.987 14.7769 0
144.42 15.6616 0
139.458 16.1698 0
423.717 16.0771 0
419.626 18.9573 0
0.567371 13.3158 0
5.38007 12.0409 0
266.31 37.578 0
270.741 39.9104 0
291.274 5.99115 0
296.258 5.73083 0
378.558 22.6455 0
374.632 19.5503 0
427.484 9.11097 0
425.932 4.35866 0
209.085 8.09055 0
214.002 8.9149 0
433.191 -10.8662 0
428.198 -10.7006 0
343.383 39.3644 0
343.607 34.3715 0
351.751 15.9968 0
352.5 20.9398 0
187.699 34.6821 0
187.637 29.6842 0
313.13 -6.63957 0
318.117 -6.65067 0
439.861 12.2358 0
437.077 8.08467 0
378.033 19.2035 0
376.441 14.4653 0
275.653 -7.13025 0
270.956 -8.79496 0
443.143 0.793977 0
445.092 5.39764 0
196.971 7.97545 0
201.338 5.56231 0
312.333 44.4645 0
313.116 39.5283 0
291.98 37.7002 0
290.2 42.3725 0
361.995 17.2219 0
365.031 21.1925 0
214.012 34.8402 0
215.67 30.1219 0
480.019 20.5669 0
477.361 24.8035 0
487.108 14.1434 0
482.135 14.6592 0
337.085 22.7333 0
334.042 26.704 0
244.186 18.8305 0
248.837 17.0011 0
103.587 15.5773 0
108.467 16.5855 0
90.4553 13.7512 0
95.0039 11.713 0
62.6081 3.17004 0
58.2133 0.840732 0
386.842 19.6208 0
382.999 16.4262 0
259.43 -4.26495 0
263.889 -2.02971 0
303.722 41.2637 0
302.177 46.019 0
70.2925 42.4437 0
66.4671 45.6799 0
459.736 -15.2898 0
464.531 -13.8828 0
116.31 54.4059 0
111.968 56.9307 0
244.821 33.0808 0
249.306 35.3026 0
354.568 -2.18575 0
352.572 2.39945 0
84.423 17.895 0
87.1086 22.1126 0
41.8274 56.3038 0
45.1431 52.5465 0
262.38 0.158288 0
265.268 -3.91914 0
381.023 19.1702 0
384.693 22.5636 0
62.6915 26.9044 0
63.4339 31.8483 0
250.212 7.47828 0
250.112 12.48 0
50.7386 2.77227 0
46.9332 5.99039 0
288.941 10.0441 0
285.925 6.0558 0
111.623 35.6665 0
108.987 39.9203 0
455.519 3.03843 0
459.545 6.00043 0
430.084 11.7085 0
427.64 16.0723 0
458.633 -14.9554 0
460.544 -10.3352 0
472.158 18.2299 0
477.134 17.7472 0
361.218 39.1572 0
357.13 36.2711 0
176.252 16.7622 0
172.096 19.5375 0
7.67231 6.33353 0
12.5532 7.24923 0
119.692 38.0958 0
116.693 42.1033 0
238.845 18.3268 0
239.958 13.4502 0
295.835 -2.13139 0
299.633 -5.37425 0
473.248 -20.1565 0
474.569 -15.3341 0
145.708 47.7028 0
146.533 52.6283 0
134.889 8.05001 0
130.014 7.03976 0
32.5804 26.237 0
29.3365 22.437 0
258.468 32.6083 0
256.319 28.0956 0
268.188 25.4739 0
272.413 22.7936 0
252.716 23.7477 0
257.291 21.7271 0
221.473 9.95735 0
216.61 8.84741 0
436.608 -20.5226 0
437.145 -15.5501 0
26.0229 6.03 0
30.3848 3.63799 0
439.244 -3.61482 0
442.263 0.368884 0
41.4337 18.0065 0
39.4591 22.6025 0
53.6841 47.0937 0
55.7144 51.6604 0
332.378 40.2446 0
336.316 37.1527 0
148.865 5.9364 0
151.839 1.92304 0
237.859 11.6291 0
242.835 12.031 0
151.356 2.33212 0
150.909 -2.65638 0
232.55 11.8306 0
228.903 8.41732 0
216.458 12.3792 0
221.337 13.4296 0
217.151 21.1703 0
221.982 19.8862 0
96.3213 40.6337 0
101.299 39.9937 0
468.493 23.0213 0
472.232 19.6993 0
207.908 49.0909 0
209.818 44.4695 0
119.716 17.2699 0
117.841 21.907 0
130.513 55.9551 0
126.296 53.2359 0
9.47574 39.81 0
12.7984 43.552 0
23.6032 21.7629 0
20.879 17.5736 0
447.247 33.9756 0
442.268 34.4703 0
252.462 -1.08228 0
249.656 -5.21953 0
245.375 41.8557 0
243.095 37.407 0
27.7837 53.9646 0
27.3044 48.9954 0
31.793 32.7128 0
36.7507 32.0336 0
268.021 2.42599 0
263.519 0.275251 0
150.036 12.2558 0
155.02 12.3099 0
222.163 7.94374 0
223.443 12.7794 0
215.536 49.6011 0
213.149 45.2085 0
171.923 46.769 0
170.256 42.0579 0
137.525 42.935 0
140.055 38.6195 0
280.291 41.688 0
285.303 41.5373 0
38.1885 6.34561 0
38.2015 1.33476 0
28.9386 44.1441 0
23.9192 44.2671 0
318.381 38.5704 0
318.865 33.5957 0
392.905 -3.18864 0
391.055 -7.83468 0
207.406 34.9594 0
211.227 38.1893 0
295.78 5.61991 0
300.109 3.1298 0
191.146 -0.593669 0
193.928 -4.74323 0
243.168 28.4023 0
243.603 33.3816 0
41.4618 58.6646 0
44.0108 54.3592 0
442.961 28.2932 0
447.945 28.7148 0
463.208 2.27578 0
467.736 0.154217 0
77.1838 33.9438 0
76.1931 38.8445 0
42.5547 7.44931 0
45.4014 3.34408 0
470.065 1.80459 0
465.961 4.66227 0
35.1555 23.4805 0
32.0431 19.5725 0
417.311 14.5746 0
419.864 18.8717 0
5.46284 54.8532 0
4.73758 49.9116 0
356.565 -1.01771 0
352.897 -4.4109 0
38.4736 26.8996 0
41.8471 30.5869 0
210.784 26.1513 0
212.917 30.6728 0
228.025 6.15646 0
228.808 11.098 0
267.934 15.2927 0
272.195 17.902 0
490.397 -4.8901 0
485.942 -7.1578 0
219.008 26.9164 0
218.077 31.8291 0
154.987 51.9738 0
153.523 47.1978 0
456.311 33.2476 0
451.719 35.2307 0
5.54703 27.5458 0
10.0443 25.3687 0
329.757 16.7109 0
331.942 12.2118 0
474.593 13.3488 0
477.986 9.67385 0
419.514 22.5585 0
418.298 17.7097 0
425.142 -8.19899 0
428.849 -11.5529 0
78.7115 21.7513 0
75.796 25.8149 0
191.871 42.782 0
187.359 40.6042 0
276.852 -7.07347 0
272.037 -5.79628 0
20.8421 27.8481 0
15.907 28.6387 0
62.2063 13.7457 0
58.0716 16.5381 0
167.055 11.4993 0
163.742 7.7611 0
279.418 34.0013 0
274.464 34.7394 0
389.253 -4.07648 0
384.803 -1.80556 0
17.2092 54.6169 0
17.8568 49.6664 0
494.555 -18.4272 0
491.35 -22.2644 0
432.402 21.7243 0
437.144 23.3115 0
433.215 7.95407 0
428.399 9.2998 0
336.875 32.0498 0
332.44 34.3752 0
477.846 -2.46137 0
482.677 -3.75197 0
223.26 29.892 0
218.467 31.3372 0
407.648 20.4947 0
412.233 18.4902 0
66.302 9.78722 0
70.698 12.1334 0
165.589 8.46726 0
160.64 9.04637 0
143.795 48.2046 0
143.016 43.2709 0
90.3717 20.3466 0
87.9261 15.9826 0
75.2513 19.9828 0
74.8891 24.9715 0
363.159 -4.89442 0
361.015 -9.4121 0
463.893 22.2226 0
461.158 26.4097 0
174.395 21.8999 0
175.541 26.7659 0
262.457 24.4747 0
257.878 22.469 0
390.873 26.9543 0
395.721 28.1905 0
213.812 49.1708 0
209.427 46.7406 0
385.185 38.4345 0
381.162 41.4142 0
250.701 24.0198 0
252.725 28.5903 0
235.254 0.198924 0
238.32 -3.74527 0
364.845 0.107463 0
363.268 4.85365 0
292.769 -5.2568 0
287.801 -5.64544 0
91.3569 11.9084 0
86.7665 13.8484 0
48.3393 11.0665 0
45.6258 6.87029 0
196.687 45.2085 0
194.014 49.4396 0
140.148 40.3575 0
143.288 36.4602 0
325.59 40.3094 0
326.363 45.2461 0
60.8997 46.861 0
58.5826 42.4314 0
463.908 31.2397 0
464.982 36.1222 0
68.3042 1.49813 0
63.3848 2.15984 0
168.913 47.897 0
164.258 49.7772 0
330.589 26.7566 0
326.407 24.0144 0
33.7192 18.2557 0
29.5011 20.9252 0
456.719 -13.0573 0
454.019 -8.84831 0
178.094 -1.44296 0
182.691 0.47177 0
286.423 -5.32645 0
283.201 -1.50826 0
221.609 32.1898 0
221.675 27.1912 0
165.232 23.6631 0
160.367 22.5288 0
421.392 16.5019 0
425.141 13.1894 0
249.975 -3.83289 0
254.418 -6.09279 0
324.59 42.435 0
327.408 46.5662 0
37.1321 7.9943 0
41.6394 5.88737 0
493.292 8.81987 0
491.431 13.4617 0
224.823 7.85316 0
219.972 9.01643 0
78.5876 5.3986 0
73.8068 6.76496 0
419.152 -13.3462 0
414.874 -15.9274 0
399.097 -6.5803 0
394.187 -7.48378 0
236.089 11.5697 0
232.358 8.24875 0
467.923 12.4868 0
472.906 12.8929 0
372.506 3.27409 0
371.224 -1.55922 0
175.731 16.8041 0
177.092 11.9909 0
351.834 17.2733 0
346.856 17.7481 0
350.779 22.3652 0
346.514 24.9833 0
60.3567 23.909 0
58.5249 28.5631 0
217.227 31.3903 0
220.861 27.9501 0
424.555 -6.94217 0
428.91 -4.49355 0
151.173 3.65903 0
155.118 6.71323 0
108.617 22.4564 0
113.528 21.5323 0
388.051 14.2299 0
384.071 11.209 0
468.439 7.21315 0
465.834 11.4829 0
39.0097 14.6156 0
43.3687 12.1978 0
79.7892 13.6236 0
84.7323 13.0129 0
64.2618 29.2648 0
61.4853 25.1094 0
497.429 -2.3809 0
493.925 1.18822 0
321.655 -2.62753 0
320.259 2.17615 0
356.214 42.1712 0
352.197 45.1623 0
104.551 14.0111 0
99.8021 15.5237 0
176.46 19.8272 0
173.818 24.074 0
272.336 -1.31574 0
277.223 -2.30114 0
345.387 5.78776 0
340.911 8.01061 0
467.184 -14.3869 0
470.121 -10.3414 0
380.136 41.414 0
385.12 40.8968 0
410.413 5.22934 0
415.408 5.06841 0
416.929 -12.0996 0
416.443 -17.0777 0
327.471 39.6899 0
329.738 44.145 0
140.446 0.178138 0
141.991 4.93863 0
291.051 36.7117 0
295.86 38.1089 0
183.436 31.7356 0
181.844 26.9977 0
379.239 1.58855 0
379.578 -3.40155 0
246.122 -2.25571 0
241.522 -0.33441 0
35.4296 23.6465 0
32.6488 27.8029 0
443.369 2.2132 0
447.772 -0.15731 0
217.673 8.91648 0
215.918 4.23231 0
320.702 6.94838 0
319.726 11.8542 0
70.3099 4.97292 0
74.6927 7.33545 0
98.7008 41.1316 0
95.171 37.583 0
174.4 43.7995 0
175.143 48.7391 0
464.088 17.5083 0
461.884 21.9978 0
230.896 34.9487 0
226.309 36.9629 0
103.686 45.4267 0
105.332 50.1445 0
5.38385 59.0561 0
1.17649 56.3108 0
407.085 -15.499 0
407.815 -10.551 0
157.746 51.9181 0
152.782 52.7074 0
282.394 28.0155 0
282.305 33.0137 0
12.6563 33.2583 0
10.6931 37.8575 0
107.645 50.4583 0
112.364 48.7363 0
4.80804 29.1494 0
1.02541 25.8806 0
147.695 13.621 0
144.75 9.58406 0
412.861 20.014 0
412.685 15.0167 0
83.3512 2.7547 0
86.5679 6.57319 0
416.775 10.9692 0
421.709 11.7757 0
344.782 10.4963 0
341.517 14.285 0
423.63 -15.2706 0
419.337 -17.827 0
224.507 35.1812 0
229.293 36.657 0
335.964 -4.30398 0
340.793 -3.04347 0
397.428 32.3884 0
402.348 31.4631 0
190.163 4.61474 0
194.908 3.09589 0
73.2016 45.7282 0
71.4359 41.053 0
185.806 -2.60911 0
189.36 0.895654 0
36.466 44.5676 0
33.3399 40.6621 0
272.645 2.26619 0
274.952 -2.16979 0
1.70806 14.3133 0
3.36303 9.5951 0
465.05 4.73949 0
462.237 0.607642 0
352.206 -11.6265 0
348.378 -8.41974 0
482.201 -8.67755 0
479.728 -4.33079 0
461.695 -3.61845 0
459.423 0.83737 0
226.967 -3.74167 0
223.467 -0.182795 0
323.012 40.6709 0
321.902 35.7986 0
153.356 12.8338 0
157.974 10.949 0
186.154 3.68645 0
190.213 0.789441 0
188.932 46.2747 0
185.204 42.9328 0
42.3454 50.7243 0
42.4744 45.7324 0
118.088 0.126935 0
120.548 4.47989 0
281.471 31.332 0
278.076 35.008 0
215.004 -1.82458 0
219.971 -1.48709 0
252.913 8.29296 0
257.902 8.39282 0
321.771 42.4412 0
320.752 47.3341 0
135.74 22.6501 0
139.59 25.8354 0
167.458 21.7991 0
167.659 16.8013 0
394.974 37.5748 0
390.048 38.4817 0
95.0695 48.2708 0
91.7948 44.4887 0
90.5265 7.83696 0
93.5584 3.86659 0
369.878 18.349 0
364.881 18.1665 0
348.147 21.2256 0
345.121 25.2091 0
421.306 -0.392608 0
424.186 -4.48081 0
246.85 33.9058 0
241.845 33.7086 0
75.7478 25.9123 0
80.0129 23.3034 0
381.509 10.1678 0
377.631 7.01652 0
226.404 13.5918 0
227.621 18.4422 0
284.982 11.7485 0
284.882 16.7484 0
470.24 3.31723 0
465.245 3.53302 0
128.171 33.7131 0
131.435 37.5014 0
68.2773 49.5634 0
71.9484 52.9741 0
1.39735 50.7257 0
6.03522 52.6575 0
118.753 3.79369 0
114.906 6.96693 0
39.8739 16.1699 0
41.3582 20.9467 0
270.591 7.60027 0
265.659 8.36805 0
70.5738 7.57128 0
69.5496 2.66918 0
457.177 -1.23242 0
462.176 -1.19752 0
150.803 43.7391 0
152.077 38.9055 0
151.409 30.4796 0
151.911 35.4524 0
103.258 8.77923 0
98.2856 8.97528 0
263.611 8.53306 0
265.039 13.3254 0
336.049 2.29784 0
335.914 -2.70293 0
245.635 46.8207 0
240.619 46.6708 0
299.912 -6.27853 0
303.877 -9.31103 0
170.301 26.2572 0
172.633 21.8322 0
439.233 19.5313 0
442.161 23.5825 0
17.9831 37.5933 0
16.8848 32.7177 0
481.82 25.0245 0
486.288 27.2676 0
437.326 17.2388 0
441.007 13.8513 0
341.238 0.517969 0
346.17 1.29365 0
209.201 43.3419 0
206.037 47.2231 0
404.242 2.28858 0
408.671 4.59358 0
320.539 10.5511 0
325.105 12.5777 0
393.21 32.2158 0
388.761 29.9291 0
146.297 3.76391 0
142.373 0.686728 0
6.95888 49.8899 0
6.89284 44.8945 0
446.699 13.4254 0
445.402 8.59736 0
407.051 24.8617 0
407.799 19.916 0
206.56 33.979 0
203.012 37.5157 0
161.708 41.3051 0
161.01 36.3572 0
59.5664 21.6562 0
62.2686 25.8603 0
322.235 35.2049 0
327.243 35.136 0
248.698 9.89635 0
243.895 11.2586 0
473.751 8.54367 0
475.998 13.0086 0
75.7108 5.59734 0
71.8599 2.4321 0
345.601 18.2655 0
344.55 13.3776 0
355.811 7.09296 0
357.175 2.28104 0
308.907 33.6048 0
311.517 37.8689 0
304.626 2.62453 0
305.888 7.46315 0
330.225 31.7549 0
326.208 28.7752 0
212.138 1.36874 0
215.423 -2.39224 0
466.984 25.121 0
471.555 27.146 0
41.6937 52.8169 0
46.0681 50.3497 0
445.875 14.6974 0
442.671 18.538 0
479.342 -18.462 0
481.692 -22.8758 0
120.233 23.8954 0
125.224 23.6749 0
339.676 -2.98265 0
337.576 -7.52102 0
8.09301 0.613142 0
13.0421 0.907858 0
376.447 38.7087 0
373.566 42.7982 0
384.398 34.6241 0
379.902 36.8269 0
484.734 -17.9586 0
481.697 -21.9307 0
134.819 55.3786 0
133.053 50.705 0
257.345 39.68 0
258.97 34.9513 0
70.538 45.204 0
70.2941 50.1924 0
30.7998 43.7582 0
31.0954 38.771 0
89.1081 8.15699 0
93.8653 6.69841 0
143.484 33.5464 0
138.742 35.1559 0
341.245 -11.5223 0
341.619 -6.53271 0
347.24 25.2625 0
343.865 21.5748 0
179.289 24.3239 0
184.288 24.3356 0
39.1191 27.062 0
34.1894 26.2562 0
257.415 7.77602 0
252.852 5.75239 0
397.125 -8.09137 0
398.649 -12.8555 0
310.603 24.1663 0
308.661 28.7771 0
387.392 37.2715 0
387.577 42.2656 0
104.267 12.6965 0
109.246 12.6053 0
159.694 47.6772 0
164.466 46.1209 0
295.236 -4.01249 0
295.064 -9.01445 0
221.761 31.3173 0
222.309 36.2848 0
349.791 11.5875 0
350.081 16.5793 0
395.626 -11.5394 0
391.094 -9.43958 0
84.6136 25.0195 0
80.1645 22.7485 0
203.512 41.4067 0
208.324 42.8154 0
226.648 11.9987 0
225.135 7.23124 0
183.135 46.2203 0
183.022 51.2132 0
227.629 37.7919 0
227.954 42.7777 0
432.185 26.1899 0
433.907 21.4952 0
97.3312 42.8163 0
94.0978 39.0009 0
308.66 46.0002 0
312.912 43.3494 0
454.821 5.43895 0
449.833 5.78093 0
207.161 46.8884 0
210.956 43.6161 0
477.18 24.0757 0
481.693 21.9207 0
165.593 45.3433 0
169.949 47.8224 0
368.73 33.4573 0
372.598 30.2821 0
340.116 43.8742 0
344.482 41.4177 0
47.5657 54.6333 0
43.1294 56.9976 0
260.337 29.5309 0
256.985 25.822 0
245.226 19.2506 0
241.608 22.7039 0
327.588 25.8764 0
322.719 24.728 0
334.402 14.3776 0
329.915 12.1777 0
246.877 21.1061 0
244.227 16.8681 0
175.199 38.584 0
179.972 37.0607 0
1.49618 23.515 0
6.09027 21.5637 0
264.24 8.75668 0
268.903 6.97269 0
368.615 37.0913 0
370.791 32.5881 0
49.3788 52.6427 0
49.5972 57.6291 0
285.223 39.4602 0
288.442 35.6282 0
424.175 5.42664 0
428.344 8.18298 0
452.141 -6.63847 0
454.724 -2.35896 0
165.439 28.5613 0
161.305 31.3807 0
472.445 23.2407 0
477.391 22.5044 0
227.817 18.7081 0
222.823 18.8273 0
193.643 38.5402 0
189.47 35.7776 0
395.996 33.5491 0
391.49 35.7312 0
52.4987 40.5965 0
54.7425 36.1266 0
373.108 -6.31126 0
377.184 -3.42158 0
226.652 22.8983 0
225.654 27.7983 0
305.846 39.538 0
309.195 43.2536 0
369.92 35.6362 0
373.551 32.1921 0
187.455 -1.4765 0
191.753 -3.99305 0
148.621 43.5222 0
152.693 46.4404 0
211.797 46.2457 0
208.763 50.2278 0
244.193 -3.72411 0
244.15 1.28112 0
340.29 8.93529 0
344.322 11.8856 0
315.264 47.5128 0
314.068 42.6611 0
351.873 -7.49323 0
354.764 -3.41599 0
164.401 0.411254 0
160.905 3.97204 0
164.91 30.7817 0
169.803 29.7317 0
431.804 34.8535 0
427.558 37.501 0
28.7364 26.7383 0
23.9963 28.3233 0
270.313 28.4517 0
266.265 31.3956 0
410.521 14.262 0
410.153 19.2504 0
470.659 -18.4318 0
465.698 -17.8245 0
442.201 2.83922 0
445.285 -1.09835 0
287.307 49.2923 0
282.294 49.5552 0
161.894 41.9682 0
165.398 38.3921 0
233.673 27.4384 0
230.331 31.1621 0
291.778 2.47622 0
290.571 7.33272 0
177.011 19.814 0
177.572 24.7823 0
365.261 17.9534 0
369.176 21.0618 0
342.724 16.4549 0
347.723 16.5121 0
263.753 -0.0462132 0
258.792 0.447079 0
139.656 47.2452 0
137.6 51.8033 0
30.6128 43.3725 0
29.3549 38.5372 0
415.895 21.1574 0
417.515 25.8868 0
211.308 42.2717 0
214.69 45.9598 0
212.066 14.0073 0
214 18.6171 0
284.957 19.6679 0
287.187 15.1887 0
109.257 13.5587 0
110.65 18.363 0
461.232 -20.3448 0
457.558 -16.9541 0
214.604 30.3362 0
210.026 32.3634 0
142.14 39.1834 0
137.598 41.3022 0
86.0022 51.2478 0
86.3146 46.2645 0
255.901 24.3481 0
257.188 19.5154 0
436.335 30.6063 0
441.032 28.8838 0
416.123 7.94989 0
417.64 3.18356 0
360.008 27.937 0
358.169 32.5875 0
134.061 31.876 0
138.692 33.7712 0
23.5479 55.4671 0
20.5243 59.4599 0
443.855 24.7962 0
447.695 27.9987 0
469.026 18.5419 0
471.054 23.1113 0
449.404 8.43637 0
444.901 6.26792 0
283.357 14.8553 0
278.896 12.6051 0
393.995 29.8402 0
398.47 27.5987 0
140.223 25.9873 0
135.58 24.142 0
433.994 6.74655 0
432.719 1.91218 0
443.203 -12.9802 0
443.17 -17.9813 0
313.288 35.7768 0
308.349 36.6187 0
254.757 44.1361 0
251.245 47.7069 0
393.577 37.9977 0
389.023 40.0809 0
232.113 16.957 0
234.243 21.4792 0
130.095 18.944 0
134.104 15.9644 0
13.3518 27.1284 0
12.9637 22.1421 0
261.112 30.8922 0
265.942 32.2059 0
396.101 -15.1612 0
391.111 -15.2448 0
298.71 37.9357 0
298.151 32.97 0
269.258 12.073 0
268.652 7.10817 0
313.98 38.5179 0
311.616 42.9263 0
7.51497 46.0651 0
12.0891 43.9999 0
13.0923 20.8948 0
9.0054 18.0325 0
278.023 38.9926 0
274.455 42.5055 0
327.492 2.10935 0
323.458 5.0574 0
294.07 -0.57217 0
298.798 1.01827 0
94.1879 17.2821 0
98.9237 15.7243 0
487.442 26.7536 0
492.439 26.9344 0
320.736 16.3052 0
316.647 19.1857 0
301.879 -10.9496 0
296.972 -10.0797 0
108.752 7.41162 0
109.343 2.43907 0
39.6933 41.3728 0
34.6946 41.7992 0
9.58661 42.4536 0
11.8267 37.9816 0
149.546 2.77602 0
150.018 -2.20958 0
91.0126 9.53769 0
94.8875 12.6775 0
87.1827 53.0378 0
92.0247 54.3931 0
271.042 4.29577 0
275.893 3.12798 0
147.018 40.7787 0
151.363 43.2727 0
121.985 13.9622 0
117.721 11.3747 0
159.421 38.7296 0
154.458 38.0351 0
69.464 48.8 0
68.0342 44.0129 0
339.808 33.4914 0
335.914 30.3517 0
45.4867 19.8144 0
41.0422 17.5511 0
265.301 43.3549 0
260.286 43.4821 0
239.895 47.1798 0
235.352 49.3091 0
268.929 41.703 0
273.004 44.6133 0
70.509 50.9035 0
66.6383 47.7199 0
487.748 4.2384 0
491.006 8.02857 0
215.692 37.2983 0
210.728 36.6167 0
227.092 0.143944 0
226.08 5.04472 0
97.7257 7.4784 0
99.6396 12.0982 0
188.63 14.5729 0
192.272 17.9974 0
156.907 52.042 0
152.617 54.6488 0
416.182 -3.51482 0
421.046 -2.37625 0
68.1893 56.2816 0
69.003 51.3551 0
260.191 28.4864 0
264.664 30.7265 0
85.3237 31.8314 0
89.8978 33.8423 0
281.104 5.76726 0
279.991 10.6437 0
54.827 31.6896 0
50.4317 29.3077 0
362.004 31.5069 0
366.33 28.9905 0
270.843 19.3989 0
266.041 18.0142 0
19.692 21.0855 0
15.9266 17.8089 0
342.561 33.0433 0
347.159 31.0612 0
6.84601 22.2333 0
10.1678 25.9654 0
386.815 33.9903 0
382.531 36.5794 0
277.425 -0.126049 0
276.078 -4.94509 0
338.074 39.3984 0
341.134 43.3545 0
289.67 26.1106 0
291.461 30.7752 0
46.5055 48.9032 0
50.1383 45.4514 0
207.909 49.4877 0
202.922 50.08 0
139.01 21.9457 0
134.997 18.9725 0
209.727 5.9016 0
212.237 1.57821 0
465.198 27.7906 0
467.744 23.4865 0
430.856 11.2396 0
431.678 6.30674 0
211.066 36.3042 0
213.38 40.7348 0
71.3999 15.8443 0
74.5263 19.7409 0
259.428 4.50676 0
254.505 5.3109 0
108.544 18.0123 0
111.481 13.9667 0
359.401 -10.2374 0
364.305 -9.31231 0
427.011 33.7112 0
422.027 33.2662 0
387.732 12.804 0
383.052 14.5703 0
491.503 0.473408 0
488.329 4.33976 0
180.514 33.4901 0
180.289 38.4835 0
369.42 30.8326 0
372.376 26.7965 0
284.971 26.3511 0
282.321 22.114 0
107.718 52.6877 0
102.981 54.3715 0
376.816 -11.7824 0
373.505 -15.5263 0
340.159 6.83766 0
337.138 2.85572 0
364.126 22.6744 0
368.888 21.1393 0
186.139 51.8368 0
189.803 48.4167 0
482.741 -16.8508 0
487.339 -14.8908 0
145.103 54.2048 0
149.571 51.9127 0
9.90207 59.087 0
14.0725 56.2836 0
116.236 39.1696 0
117.488 44.0062 0
435.48 -7.00588 0
440.116 -5.14183 0
259.121 30.4848 0
264.082 29.8086 0
393.43 -16.3897 0
398.372 -17.0904 0
206.464 0.980028 0
209.495 4.9523 0
475.821 -15.1847 0
478.726 -11.1163 0
175.258 40.5862 0
174.6 35.6323 0
255.97 -5.21992 0
251.415 -7.245 0
260.128 22.0159 0
261.093 17.1086 0
10.4988 14.1903 0
12.6196 9.66016 0
153.871 46.8932 0
157.372 43.3111 0
464.058 -19.5212 0
464.734 -14.5665 0
111.232 52.1758 0
110.604 47.2217 0
316.263 -11.1903 0
319.92 -7.78666 0
24.7042 18.1632 0
20.7837 21.2564 0
338.472 27.7074 0
340.05 22.9621 0
461.887 -15.9119 0
463.062 -11.0518 0
470.852 1.57487 0
469.457 -3.22626 0
29.0083 9.72767 0
33.0339 6.79043 0
349.056 17.6908 0
345.732 21.4286 0
64.9878 26.9001 0
67.838 22.7907 0
123.512 11.2983 0
125.715 15.7867 0
448.714 -13.9211 0
449.52 -18.8568 0
221.042 27.586 0
216.04 27.6824 0
481.425 29.5726 0
476.731 27.8497 0
494.275 27.5174 0
498.873 29.4789 0
379.238 35.2227 0
383.816 37.2451 0
63.3986 19.4602 0
61.5146 24.0938 0
344.025 25.6654 0
339.936 22.7875 0
143.703 15.8687 0
144.536 10.9345 0
138.935 31.6207 0
143.937 31.4617 0
370.874 28.4908 0
366.309 26.4457 0
194.896 40.0671 0
193.535 44.8765 0
429.103 36.2776 0
428.73 31.2926 0
10.7968 12.1648 0
13.3112 16.4832 0
119.164 32.0792 0
121.494 27.654 0
450.194 2.3227 0
453.125 -1.72955 0
370.354 11.0961 0
367.443 7.03362 0
39.6303 24.9781 0
40.3671 29.9238 0
346.27 -1.5407 0
346.311 3.46128 0
321.905 7.25335 0
326.095 9.97324 0
437.088 27.4697 0
439.29 31.9578 0
100.931 56.3994 0
96.2099 54.6736 0
173.434 34.442 0
168.759 32.6573 0
414.65 25.4654 0
419.458 24.0817 0
76.3273 57.9096 0
71.4024 58.9678 0
338.37 2.71326 0
342.114 6.02119 0
457.081 -11.3996 0
461.411 -8.90467 0
348.283 38.529 0
348.153 43.5248 0
365.583 26.5888 0
365.179 31.5718 0
267.688 21.0191 0
272.357 22.8046 0
386.238 14.2444 0
381.259 14.6924 0
129.945 32.4895 0
134.949 32.3536 0
225.241 27.8637 0
225.288 32.8621 0
327.982 14.2505 0
323.483 16.432 0
444.618 -16.0199 0
449.522 -15.0623 0
358.865 -8.67864 0
355.766 -4.75723 0
485.662 -10.6752 0
490.542 -9.58847 0
66.463 33.8592 0
66.1533 38.8479 0
132.516 14.8626 0
129.214 11.1152 0
206.569 14.2851 0
203.498 10.3461 0
194.877 -4.11637 0
199.812 -4.73583 0
480.796 -14.4514 0
475.835 -13.8391 0
60.2385 51.434 0
58.2607 46.8445 0
17.2701 51.7161 0
21.5252 54.3816 0
371.214 -5.59393 0
370.031 -0.734307 0
471.668 32.349 0
467.386 29.7667 0
160.959 17.1882 0
160.113 22.1184 0
41.4248 54.0771 0
46.0228 56.1099 0
31.5638 42.8963 0
34.7311 46.77 0
235.059 20.1348 0
232.794 15.6786 0
162.955 5.46176 0
158.511 7.71939 0
345.709 28.3287 0
349.49 25.0506 0
449.773 34.6246 0
445.421 32.1607 0
107.05 49.7338 0
107.041 54.727 0
44.4368 43.3448 0
39.4254 43.6266 0
352.382 31.332 0
349.577 35.4744 0
465.731 9.36505 0
470.287 7.3028 0
427.558 -4.11781 0
423.335 -1.44279 0
131.675 10.4109 0
136.499 9.16729 0
224.75 28.8436 0
221.445 25.093 0
173.292 8.75554 0
174.871 4.00863 0
365.986 40.6217 0
362.424 37.1101 0
177.605 43.659 0
180.28 47.8839 0
11.9603 34.4856 0
16.4455 36.7069 0
319.066 6.66826 0
315.121 9.73864 0
241.546 1.96935 0
242.034 6.94951 0
452.052 7.27746 0
456.063 4.29003 0
18.6978 32.5862 0
21.1279 28.2148 0
10.1714 46.2446 0
9.43646 41.3026 0
316.057 34.3079 0
316.711 29.3519 0
277.045 14.9466 0
274.093 18.9852 0
56.4112 37.3289 0
61.0624 39.1857 0
333.88 9.18901 0
332.12 4.50893 0
161.47 1.2097 0
158.03 -2.40755 0
87.4924 39.4457 0
85.9304 34.6983 0
292.272 -3.40031 0
287.539 -1.82607 0
446.607 4.68297 0
442.618 7.70048 0
178.882 4.31644 0
176.806 -0.235077 0
90.8542 11.7603 0
88.4073 16.1221 0
411.414 -11.2344 0
415.452 -14.1772 0
311.667 -6.88192 0
312.195 -1.9062 0
254.27 48.8656 0
259.278 49.2002 0
4.09181 39.6727 0
5.67959 34.9314 0
186.916 24.4983 0
182.051 25.6621 0
373.347 10.0007 0
369.195 12.7889 0
180.874 12.5375 0
178.796 7.98835 0
231.719 21.3548 0
226.819 20.3734 0
283.697 26.499 0
288.652 25.821 0
300.549 8.76592 0
296.298 6.14889 0
62.0471 47.1319 0
64.706 51.3681 0
319.51 -9.84023 0
324.301 -8.45211 0
169.535 20.0842 0
166.718 24.2166 0
127.035 0.6974 0
131.801 -0.717343 0
496.819 21.5597 0
492.159 23.3732 0
497.976 26.7816 0
499.048 31.6644 0
102.234 -0.70791 0
99.5399 3.5006 0
47.0101 22.8142 0
51.9994 22.9312 0
64.2763 49.0909 0
67.7134 52.7337 0
110.342 6.31905 0
111.618 1.47876 0
260.438 0.91067 0
264.739 -1.61657 0
351.083 25.5116 0
354.494 29.1673 0
23.559 18.8691 0
27.7791 21.5312 0
306.419 10.6032 0
305.045 5.79683 0
223.56 21.2447 0
228.131 23.2651 0
162.752 54.623 0
167.753 55.1485 0
399.485 -13.8116 0
396.456 -17.7876 0
354.893 40.6809 0
359.835 39.8561 0
334.925 7.43412 0
333.105 12.093 0
141.252 28.8802 0
142.775 33.6406 0
82.2359 -0.374817 0
86.6953 1.82536 0
126.873 45.1826 0
121.997 43.9984 0
138.01 32.1847 0
142.766 33.7395 0
134.89 7.07828 0
135.064 12.0812 0
256.757 29.2408 0
259.824 25.2882 0
89.7519 5.87766 0
86.3255 9.50787 0
40.3506 19.0964 0
37.3307 23.0803 0
125.912 55.4265 0
121.261 53.5261 0
177.681 19.4178 0
172.761 18.5589 0
266.937 8.71937 0
261.983 9.33772 0
222.999 1.21856 0
226.965 -1.80774 0
342.084 -2.71142 0
342.429 -7.70253 0
77.2568 34.3348 0
79.111 29.6886 0
7.22105 50.0519 0
2.39205 48.6647 0
485.955 -6.91079 0
481.651 -4.36433 0
284.365 21.3911 0
279.616 19.8351 0
327.7 10.3299 0
330.71 14.32 0
54.179 28.4931 0
56.6093 32.8608 0
260.938 -5.18264 0
264.555 -8.62185 0
232.231 11.8022 0
236.156 14.8914 0
173.957 33.9234 0
175.623 29.2075 0
384.78 1.35981 0
384.019 6.30282 0
0.510764 14.1462 0
5.21011 12.4959 0
278.296 7.3746 0
280.352 2.81598 0
31.7954 9.85623 0
36.7649 9.7144 0
254.766 7.55885 0
251.751 3.57306 0
287.621 1.34373 0
284.019 4.80533 0
261.606 12.8622 0
257.22 10.475 0
428.143 8.80076 0
423.376 10.3124 0
462.562 27.0782 0
457.753 28.4541 0
249.595 26.1673 0
246.818 22.0108 0
251.737 20.1265 0
246.999 18.5371 0
13.8223 24.8592 0
10.896 20.8092 0
107.512 9.41416 0
108.929 4.61455 0
184.111 16.9163 0
189.087 17.3523 0
235.054 17.5509 0
230.059 17.5327 0
354.43 39.0057 0
350.108 36.4826 0
171.281 18.7146 0
170.371 23.6328 0
45.7944 39.8808 0
49.446 36.4556 0
118.012 19.1379 0
113.241 20.6127 0
479.738 21.8816 0
484.46 23.5208 0
126.126 56.7702 0
128.819 52.5518 0
144.939 50.2262 0
139.928 50.6081 0
82.69 13.0161 0
86.8732 15.7361 0
246.93 10.8434 0
241.965 11.3617 0
154.146 16.689 0
154.713 21.6585 0
272.924 22.5748 0
273.75 17.6424 0
385.302 4.74519 0
383.132 0.240343 0
129.243 -1.62091 0
127.519 3.07635 0
178.248 43.9688 0
179.463 39.1206 0
363.156 12.3624 0
358.979 9.61817 0
326.358 38.4602 0
322.11 35.8127 0
128.464 16.7535 0
133.143 15.0192 0
317.241 7.55117 0
315.655 2.80871 0
419.336 29.6851 0
419.031 34.675 0
451.971 -14.4493 0
456.96 -14.167 0
146.405 -1.88944 0
141.437 -1.95863 0
57.2321 27.5602 0
52.7459 29.7692 0
51.4178 37.7045 0
52.4424 32.8114 0
254.314 -1.65423 0
258.514 -4.34466 0
416.6 23.7467 0
421.329 22.1131 0
111.819 21.7631 0
112.395 16.7931 0
321.094 32.7057 0
320.97 37.702 0
209.757 46.7264 0
204.964 48.2173 0
253.301 0.810015 0
258.202 1.72917 0
359.21 1.94214 0
360.939 -2.75098 0
84.8485 23.5903 0
81.5805 19.8102 0
65.152 38.6259 0
70.0195 37.4354 0
306.935 -5.66985 0
309.259 -1.2423 0
465.74 -3.53133 0
461.033 -5.21109 0
54.2786 6.87395 0
49.8272 4.6506 0
118.324 18.8852 0
122.288 15.846 0
107.873 57.1177 0
104.107 53.8092 0
472.433 -10.3666 0
477.389 -11.0221 0
238.784 14.4699 0
242.07 10.7034 0
135.084 3.30542 0
131.728 7.00144 0
421.045 35.4265 0
423.969 31.3683 0
463.833 -9.72342 0
465.919 -5.18007 0
183.087 10.9566 0
181.867 15.8081 0
254.84 50.172 0
251.002 46.9551 0
214.71 32.0038 0
215.794 36.8821 0
323.264 -2.96554 0
320.522 -7.1456 0
362.387 8.53228 0
364.039 13.2504 0
2.66519 16.8663 0
4.249 12.1234 0
158.708 47.8974 0
153.831 49.0968 0
361.578 -9.62598 0
361.715 -4.6252 0
118.166 9.46333 0
121.665 5.90396 0
250.331 35.2338 0
249.183 30.3698 0
154.51 45.0022 0
149.707 43.5581 0
308.88 39.3606 0
310.232 34.547 0
420.03 15.9777 0
415.75 18.5686 0
169.504 43.7166 0
174.288 42.2103 0
103.588 -1.2159 0
107.246 2.17435 0
233.554 6.31888 0
238.463 5.43819 0
448.718 11.8918 0
453.699 11.4555 0
414.872 24.7448 0
410.11 26.281 0
88.8847 43.0884 0
84.3459 40.9643 0
379.363 -0.21205 0
374.38 -0.562882 0
181.182 47.4009 0
183.484 42.9612 0
356.794 17.9525 0
355.458 13.135 0
346.195 14.8659 0
345.549 9.90753 0
349.5 44.517 0
344.834 42.6957 0
225.71 30.324 0
230.583 31.4629 0
367.761 -5.86386 0
365.829 -10.4768 0
482.476 -14.7062 0
486.008 -11.1692 0
305.072 46.8578 0
308.979 43.7234 0
482.29 -23.1138 0
477.5 -21.6841 0
310.289 30.8941 0
309.169 26.0224 0
237.876 16.7502 0
233.052 15.4595 0
127.68 17.3133 0
123.824 14.1426 0
191.527 2.29531 0
196.278 0.80175 0
115.161 4.05103 0
112.296 -0.0426475 0
426.214 9.69434 0
425.836 4.70827 0
349.515 -6.56617 0
347.202 -10.9997 0
137.695 37.0885 0
135.686 41.6684 0
234.5 -4.83315 0
229.943 -6.84701 0
121.911 32.9445 0
121.244 27.9902 0
441.344 -0.0457778 0
444.05 4.15695 0
168.053 11.5923 0
163.291 10.1134 0
39.0084 15.3157 0
40.203 10.4547 0
366.58 36.922 0
362.378 39.6448 0
465.45 19.3423 0
461.589 22.5212 0
154.199 3.86202 0
153.709 8.84396 0
366.381 11.8114 0
371.368 12.1432 0
394.991 24.9 0
391.471 21.3533 0
143.466 16.3963 0
146.884 12.7519 0
385.45 -1.37432 0
388.735 2.39471 0
123.748 12.7868 0
119.649 9.94344 0
77.0715 -0.65162 0
78.3408 4.19318 0
426.721 -16.2431 0
431.494 -14.7702 0
215.635 41.3848 0
217.556 45.9984 0
315.131 46.9849 0
317.764 42.7315 0
334.345 39.8558 0
329.334 39.8121 0
401.348 -5.69094 0
396.87 -7.90016 0
414.606 1.59852 0
416.461 -3.04612 0
413.083 -10.4798 0
418.069 -10.1925 0
463.884 23.9412 0
465.569 28.6481 0
209.526 15.0861 0
213.223 11.7224 0
387.968 1.08538 0
388.901 5.99954 0
467.15 34.7267 0
463.857 30.9639 0
462.126 -2.49312 0
465.908 -5.76438 0
336.039 6.66321 0
340.917 5.58556 0
447.724 31.5595 0
452.581 32.7566 0
52.8609 24.4343 0
49.2314 27.8731 0
486.305 16.2264 0
481.652 14.4001 0
366.608 10.0493 0
364.589 14.6253 0
323.168 13.8247 0
326.783 17.2754 0
489.967 12.9047 0
494.872 11.9381 0
308.674 -10.9137 0
307.814 -5.98471 0
      </DataArray>
    </Points>
    <Cells>
      <DataArray type="Int32" Name="connectivity" format="ascii">
1891 2037 1865 695 697 653 
1891 1865 1857 653 1694 1609 
2075 2076 2086 874 826 654 
2075 2086 1980 654 1000 999 
1892 1920 2044 1541 1213 655 
1892 2044 1945 655 1214 1478 
1819 1908 1907 1576 1242 656 
1819 1907 1818 656 1577 1649 
1818 1907 1965 1577 1243 657 
1818 1965 1817 657 1244 1650 
2138 1837 1887 705 1567 658 
2138 1887 1880 658 1504 699 
2139 1827 1885 701 1571 659 
2139 1885 1879 659 1505 700 
1872 1873 1928 1553 1523 660 
1872 1928 1927 660 1471 1524 
1922 1923 1947 1476 1463 661 
1922 1947 86 661 1308 1307 
1860 1895 1924 1601 1531 662 
1860 1924 1869 662 1532 1685 
576 574 1937 575 1438 663 
576 1937 1856 663 1494 1657 
601 599 1936 600 1445 664 
601 1936 1846 664 1496 1660 
626 624 1935 625 1452 665 
626 1935 1836 665 1498 1663 
651 649 1934 650 1458 666 
651 1934 1826 666 1501 1666 
1826 503 20 1797 502 667 
1826 20 651 667 652 1666 
1817 549 18 1655 550 668 
1817 18 522 668 523 1816 
1836 459 16 1777 458 669 
1836 16 626 669 627 1663 
1846 415 12 1757 414 670 
1846 12 601 670 602 1660 
1856 371 8 1737 370 671 
1856 8 576 671 577 1657 
1914 2012 1925 1226 1124 672 
1914 1925 1895 672 1530 696 
1895 1860 1870 1601 1684 673 
1895 1870 1914 673 1557 696 
2129 637 2131 764 763 674 
2129 2131 2125 674 729 775 
2024 2060 1908 925 1085 675 
2024 1908 2023 675 1084 1110 
1893 1922 2013 1536 1122 676 
1893 2013 2045 676 943 694 
1911 2039 2132 1233 750 677 
1911 2132 1939 677 751 1234 
2134 29 2035 723 1255 678 
2134 2035 2034 678 1099 721 
2136 183 1976 715 1394 679 
2136 1976 1964 679 1160 713 
1900 1930 1990 1515 1146 680 
1900 1990 2043 680 982 691 
1906 1881 1889 1579 1503 681 
1906 1889 1942 681 1484 1245 
2135 525 1975 719 1396 682 
2135 1975 1883 682 1161 717 
2133 174 1978 727 1390 683 
2133 1978 1882 683 1158 725 
60 58 2037 59 1080 684 
60 2037 1944 684 1216 1282 
90 88 2046 89 1123 685 
90 2046 1925 685 1066 1310 
120 118 2047 119 1064 686 
120 2047 1929 686 1063 1338 
146 1949 2049 1364 1198 687 
146 2049 148 687 1060 147 
1932 1949 2048 1459 1199 688 
1932 2048 1931 688 1200 1468 
1902 1933 2049 1508 1059 689 
1902 2049 1932 689 1197 1510 
1901 1931 2048 1513 1200 690 
1901 2048 1930 690 1062 1514 
1900 2043 1917 691 1219 1517 
1898 1929 2047 1520 1063 692 
1898 2047 1928 692 1201 1522 
1895 1925 2046 1530 1066 693 
1895 2046 1924 693 1205 1531 
1893 2045 1921 694 1207 1538 
1891 1944 2037 1480 1216 695 
1865 2037 1919 697 1237 1543 
2137 1847 1881 709 1578 698 
2137 1881 579 698 1658 710 
2138 1880 604 699 1661 706 
2139 1879 629 700 1664 702 
478 1827 2139 1796 701 703 
2139 629 14 702 628 704 
478 2139 14 703 704 479 
434 1837 2138 1776 705 707 
2138 604 10 706 603 708 
434 2138 10 707 708 435 
390 1847 2137 1756 709 711 
2137 579 6 710 578 712 
390 2137 6 711 712 391 
1964 552 2136 1417 714 713 
2136 552 3 714 551 716 
183 2136 3 715 716 184 
1883 23 2135 1651 718 717 
2135 23 0 718 22 720 
525 2135 0 719 720 524 
2034 32 2134 1256 722 721 
2134 32 1 722 31 724 
29 2134 1 723 724 30 
1882 177 2133 1653 726 725 
2133 177 2 726 176 728 
174 2133 2 727 728 175 
2127 641 2130 771 768 772 
2125 2131 2106 729 734 797 
2121 591 2120 758 757 730 
2095 2121 2120 806 730 807 
2120 589 2119 756 732 731 
2094 2120 2119 808 731 809 
2119 589 2118 732 755 733 
2093 2119 2118 810 733 811 
2106 2131 2057 734 736 834 
2112 2079 2078 840 743 735 
2059 2112 2078 832 735 872 
2069 2091 2041 813 752 880 
2092 2118 2054 812 744 883 
2067 2097 2040 855 753 886 
2051 2124 2103 746 798 890 
2057 2131 635 736 762 901 
2056 2085 2117 866 788 902 
2055 2086 2077 741 825 903 
2015 2106 2063 939 833 940 
2104 2010 2105 947 946 737 
2105 2039 2065 747 892 738 
2104 2105 2065 737 738 739 
2104 2065 2103 739 891 740 
2009 2104 2103 948 740 949 
1997 2067 2096 968 885 969 
1992 2092 2068 978 882 979 
1979 2086 2055 1001 741 1002 
2079 2027 2081 920 919 742 
2079 2081 1968 742 1016 1021 
2078 2079 1967 743 1020 1023 
2054 2118 587 744 754 1045 
2121 2096 2053 805 884 745 
593 2121 2053 759 745 1046 
2052 2122 612 786 760 1052 
618 2124 2051 761 746 1053 
643 2128 2050 769 780 1056 
2105 2011 2132 945 749 748 
2039 2105 2132 747 748 750 
2132 2011 1939 749 944 751 
2041 2091 1943 752 860 1081 
2040 2097 1941 753 854 1082 
587 2118 589 754 755 588 
589 2120 591 756 757 590 
591 2121 593 758 759 592 
612 2122 614 760 779 613 
614 2123 616 778 777 615 
616 2124 618 776 761 617 
635 2131 637 762 763 636 
639 637 2129 638 764 765 
2129 2126 2130 774 773 766 
639 2129 2130 765 766 767 
639 2130 641 767 768 640 
641 2128 643 770 769 642 
2128 641 2127 770 771 781 
2127 2130 2126 772 773 782 
2126 2129 2125 774 775 783 
2124 616 2123 776 777 784 
2123 614 2122 778 779 785 
2070 1957 2071 1039 1038 787 
2111 2061 2064 842 898 789 
2110 2050 2128 893 780 790 
2109 2128 2127 791 781 792 
2108 2127 2126 793 782 794 
2126 2125 2107 783 796 795 
2102 2124 2123 799 784 800 
2101 2123 2122 801 785 802 
2122 2052 2100 786 889 803 
2069 2070 2090 879 815 814 
2070 2071 2089 787 817 816 
2117 2085 2116 788 819 835 
2116 2084 2115 818 821 836 
2115 2083 2114 820 823 837 
2114 2082 2113 822 824 838 
2111 2064 2110 789 894 843 
2110 2128 2109 790 791 844 
2109 2127 2108 792 793 845 
2108 2126 2107 794 795 846 
2107 2125 2106 796 797 847 
2103 2124 2102 798 799 848 
2102 2123 2101 800 801 849 
2101 2122 2100 802 803 850 
2100 2066 2099 888 804 851 
2099 2066 2098 804 831 852 
2098 2058 2042 830 1073 853 
2096 2121 2095 805 806 856 
2095 2120 2094 807 808 857 
2094 2119 2093 809 810 858 
2093 2118 2092 811 812 859 
2091 2069 2090 813 814 861 
2090 2070 2089 815 816 862 
2089 2071 2088 817 829 863 
2088 2072 2087 828 827 864 
2084 2116 2085 818 819 867 
2083 2115 2084 820 821 868 
2082 2114 2083 822 823 869 
2081 2028 2080 918 917 870 
2080 2113 2082 839 824 871 
2077 2086 2076 825 826 873 
2075 1981 2074 998 997 875 
2074 1982 2073 996 995 876 
2073 2087 2072 865 827 877 
2072 2088 2071 828 829 878 
2062 1991 2068 895 980 881 
2058 2098 2066 830 831 887 
2060 2112 2059 841 832 899 
2063 2106 2057 833 834 900 
2033 2117 2116 907 835 908 
2032 2116 2115 909 836 910 
2031 2115 2114 911 837 912 
2030 2114 2113 913 838 914 
2113 2080 2029 839 916 915 
2026 2079 2112 921 840 922 
2112 2060 2025 841 924 923 
2021 2061 2111 927 842 928 
2020 2111 2110 929 843 930 
2019 2110 2109 931 844 932 
2018 2109 2108 933 845 934 
2017 2108 2107 935 846 936 
2107 2106 2016 847 938 937 
2008 2103 2102 950 848 951 
2007 2102 2101 952 849 953 
2006 2101 2100 954 850 955 
2005 2100 2099 956 851 957 
2004 2099 2098 958 852 959 
2098 2042 2003 853 961 960 
2002 2042 1926 962 1212 963 
1999 1941 2097 964 854 965 
2097 2067 1998 855 967 966 
1996 2096 2095 970 856 971 
1995 2095 2094 972 857 973 
1994 2094 2093 974 858 975 
2093 2092 1993 859 977 976 
1988 1943 2091 983 860 984 
1987 2091 2090 985 861 986 
1986 2090 2089 987 862 988 
1985 2089 2088 989 863 990 
1984 2088 2087 991 864 992 
2087 2073 1983 865 994 993 
2085 2056 1974 866 1006 1009 
2084 2085 1973 867 1008 1011 
2083 2084 1972 868 1010 1013 
2082 2083 1971 869 1012 1015 
1969 2081 2080 1017 870 1018 
2080 2082 1970 871 1014 1019 
2059 2078 1966 872 1022 1024 
1963 2077 2076 1026 873 1027 
1962 2076 2075 1028 874 1029 
1961 2075 2074 1030 875 1031 
1960 2074 2073 1032 876 1033 
1959 2073 2072 1034 877 1035 
2072 2071 1958 878 1037 1036 
1956 2070 2069 1040 879 1041 
2069 2041 1955 880 1076 1042 
1954 2062 2068 896 881 1043 
2068 2092 2054 882 883 1044 
2053 2096 2067 884 885 1047 
2067 2040 1953 886 1077 1048 
1952 2058 2066 1049 887 1050 
2066 2100 2052 888 889 1051 
2051 2103 2065 890 891 1054 
2065 2039 1951 892 1078 1055 
2050 2110 2064 893 894 1057 
2064 2038 1950 897 1079 1058 
2049 1933 148 1059 1365 1060 
2045 2014 2063 942 941 1067 
2044 2061 2022 1069 926 1070 
2043 1991 2062 981 895 1071 
2062 1954 1942 896 1089 1072 
2038 2064 2061 897 898 1074 
1907 2060 2059 1086 899 1087 
1946 2063 2057 1068 900 1092 
2057 635 1904 901 1454 1093 
2056 2117 2036 902 904 1095 
2055 2077 1977 903 1004 1097 
2036 2117 2035 904 905 1098 
2035 2117 2034 905 906 1099 
2034 2117 2033 906 907 1100 
2033 2116 2032 908 909 1101 
2032 2115 2031 910 911 1102 
2031 2114 2030 912 913 1103 
2030 2113 2029 914 915 1104 
2029 2080 2028 916 917 1105 
2028 2081 2027 918 919 1106 
2027 2079 2026 920 921 1107 
2026 2112 2025 922 923 1108 
2025 2060 2024 924 925 1109 
2022 2061 2021 926 927 1113 
2021 2111 2020 928 929 1114 
2020 2110 2019 930 931 1115 
2019 2109 2018 932 933 1116 
2018 2108 2017 934 935 1117 
2017 2107 2016 936 937 1118 
2016 2106 2015 938 939 1119 
2015 2063 2014 940 941 1120 
2014 2045 2013 942 943 1121 
2012 1939 2011 1225 944 1125 
2011 2105 2010 945 946 1126 
2010 2104 2009 947 948 1127 
2009 2103 2008 949 950 1128 
2008 2102 2007 951 952 1129 
2007 2101 2006 953 954 1130 
2006 2100 2005 955 956 1131 
2005 2099 2004 957 958 1132 
2004 2098 2003 959 960 1133 
2003 2042 2002 961 962 1134 
2002 1926 2001 963 1065 1135 
2000 1941 1999 1221 964 1136 
1999 2097 1998 965 966 1137 
1998 2067 1997 967 968 1138 
1997 2096 1996 969 970 1139 
1996 2095 1995 971 972 1140 
1995 2094 1994 973 974 1141 
1994 2093 1993 975 976 1142 
1993 2092 1992 977 978 1143 
1992 2068 1991 979 980 1144 
1991 2043 1990 981 982 1145 
1989 1943 1988 1217 983 1147 
1988 2091 1987 984 985 1148 
1987 2090 1986 986 987 1149 
1986 2089 1985 988 989 1150 
1985 2088 1984 990 991 1151 
1984 2087 1983 992 993 1152 
1983 2073 1982 994 995 1153 
1982 2074 1981 996 997 1154 
1981 2075 1980 998 999 1155 
1980 2086 1979 1000 1001 1156 
1979 2055 1978 1002 1003 1157 
1978 2055 1882 1003 1096 1158 
1977 2077 1976 1004 1005 1159 
1976 2077 1964 1005 1025 1160 
1975 2056 1883 1007 1094 1161 
1974 2056 1975 1006 1007 1162 
1973 2085 1974 1008 1009 1163 
1972 2084 1973 1010 1011 1164 
1971 2083 1972 1012 1013 1165 
1970 2082 1971 1014 1015 1166 
1968 2081 1969 1016 1017 1167 
1969 2080 1970 1018 1019 1168 
1967 2079 1968 1020 1021 1169 
1966 2078 1967 1022 1023 1170 
1965 2059 1966 1088 1024 1171 
1964 2077 1963 1025 1026 1172 
1963 2076 1962 1027 1028 1173 
1962 2075 1961 1029 1030 1174 
1961 2074 1960 1031 1032 1175 
1960 2073 1959 1033 1034 1176 
1959 2072 1958 1035 1036 1177 
1958 2071 1957 1037 1038 1178 
1957 2070 1956 1039 1040 1179 
1956 2069 1955 1041 1042 1180 
1954 2068 2054 1043 1044 1183 
2054 587 585 1045 586 1184 
595 593 2053 594 1046 1185 
2053 2067 1953 1047 1048 1186 
1905 2058 1952 1091 1049 1188 
1952 2066 2052 1050 1051 1189 
2052 612 610 1052 611 1190 
620 618 2051 619 1053 1191 
2051 2065 1951 1054 1055 1192 
645 643 2050 644 1056 1194 
2050 2064 1950 1057 1058 1195 
1949 144 2048 1363 1061 1199 
2048 144 1930 1061 1362 1062 
2047 118 1948 1064 1337 1202 
2001 1926 1927 1065 1472 1204 
2045 2063 1946 1067 1068 1208 
1938 2061 2044 1075 1069 1209 
2044 2022 1945 1070 1112 1214 
1945 62 1944 1284 1283 1215 
2043 2062 1942 1071 1072 1220 
2042 2058 1940 1073 1090 1224 
2038 2061 1938 1074 1075 1227 
1937 1955 2041 1181 1076 1228 
1936 1953 2040 1187 1077 1230 
1935 1951 2039 1193 1078 1232 
1934 1950 2038 1196 1079 1235 
2037 58 1919 1080 1281 1237 
1913 2041 1943 1229 1081 1238 
1912 2040 1941 1231 1082 1239 
1919 2023 1909 1111 1083 1240 
1909 2023 1908 1083 1084 1241 
1908 2060 1907 1085 1086 1242 
1907 2059 1965 1087 1088 1243 
1942 1954 1906 1089 1182 1245 
1940 2058 1905 1090 1091 1247 
1946 2057 1904 1092 1093 1249 
1883 2056 2036 1094 1095 1250 
1882 2055 1977 1096 1097 1251 
27 2036 2035 1253 1098 1254 
34 2034 2033 1257 1100 1258 
36 2033 2032 1259 1101 1260 
38 2032 2031 1261 1102 1262 
40 2031 2030 1263 1103 1264 
42 2030 2029 1265 1104 1266 
44 2029 2028 1267 1105 1268 
46 2028 2027 1269 1106 1270 
48 2027 2026 1271 1107 1272 
50 2026 2025 1273 1108 1274 
52 2025 2024 1275 1109 1276 
54 2024 2023 1277 1110 1278 
2023 1919 56 1111 1280 1279 
64 1945 2022 1285 1112 1286 
66 2022 2021 1287 1113 1288 
68 2021 2020 1289 1114 1290 
70 2020 2019 1291 1115 1292 
72 2019 2018 1293 1116 1294 
74 2018 2017 1295 1117 1296 
76 2017 2016 1297 1118 1298 
78 2016 2015 1299 1119 1300 
80 2015 2014 1301 1120 1302 
82 2014 2013 1303 1121 1304 
2013 1922 84 1122 1306 1305 
1947 2046 88 1206 1123 1309 
92 1925 2012 1311 1124 1312 
94 2012 2011 1313 1125 1314 
96 2011 2010 1315 1126 1316 
98 2010 2009 1317 1127 1318 
100 2009 2008 1319 1128 1320 
102 2008 2007 1321 1129 1322 
104 2007 2006 1323 1130 1324 
106 2006 2005 1325 1131 1326 
108 2005 2004 1327 1132 1328 
110 2004 2003 1329 1133 1330 
112 2003 2002 1331 1134 1332 
114 2002 2001 1333 1135 1334 
116 2001 1948 1335 1203 1336 
120 1929 2000 1338 1211 1339 
122 2000 1999 1340 1136 1341 
124 1999 1998 1342 1137 1343 
126 1998 1997 1344 1138 1345 
128 1997 1996 1346 1139 1347 
130 1996 1995 1348 1140 1349 
132 1995 1994 1350 1141 1351 
134 1994 1993 1352 1142 1353 
136 1993 1992 1354 1143 1355 
138 1992 1991 1356 1144 1357 
140 1991 1990 1358 1145 1359 
1990 1930 142 1146 1361 1360 
150 1933 1989 1366 1210 1367 
152 1989 1988 1368 1147 1369 
154 1988 1987 1370 1148 1371 
156 1987 1986 1372 1149 1373 
158 1986 1985 1374 1150 1375 
160 1985 1984 1376 1151 1377 
162 1984 1983 1378 1152 1379 
164 1983 1982 1380 1153 1381 
166 1982 1981 1382 1154 1383 
168 1981 1980 1384 1155 1385 
170 1980 1979 1386 1156 1387 
172 1979 1978 1388 1157 1389 
181 1977 1976 1392 1159 1393 
1974 1975 527 1162 1395 1398 
1973 1974 529 1163 1397 1400 
1972 1973 531 1164 1399 1402 
1971 1972 533 1165 1401 1404 
1970 1971 535 1166 1403 1406 
539 1968 1969 1410 1167 1407 
1969 1970 537 1168 1405 1408 
1967 1968 541 1169 1409 1412 
1966 1967 543 1170 1411 1414 
547 1817 1965 1656 1244 1415 
1965 1966 545 1171 1413 1416 
554 1964 1963 1418 1172 1419 
556 1963 1962 1420 1173 1421 
558 1962 1961 1422 1174 1423 
560 1961 1960 1424 1175 1425 
562 1960 1959 1426 1176 1427 
564 1959 1958 1428 1177 1429 
566 1958 1957 1430 1178 1431 
568 1957 1956 1432 1179 1433 
570 1956 1955 1434 1180 1435 
1955 1937 572 1181 1437 1436 
583 1906 1954 1439 1182 1440 
1954 2054 585 1183 1184 1441 
595 2053 1953 1185 1186 1442 
1953 1936 597 1187 1444 1443 
608 1905 1952 1446 1188 1447 
1952 2052 610 1189 1190 1448 
620 2051 1951 1191 1192 1449 
1951 1935 622 1193 1451 1450 
645 2050 1950 1194 1195 1455 
1950 1934 647 1196 1457 1456 
1932 2049 1949 1197 1198 1459 
1928 2047 1948 1201 1202 1460 
1948 2001 1927 1203 1204 1461 
1924 2046 1947 1205 1206 1462 
1921 2045 1946 1207 1208 1464 
1938 2044 1920 1209 1213 1466 
1918 1989 1933 1218 1210 1467 
1916 2000 1929 1222 1211 1470 
1926 2042 1915 1212 1223 1473 
1892 1945 1944 1478 1215 1479 
1943 1989 1918 1217 1218 1482 
1917 2043 1942 1219 1220 1483 
1941 2000 1916 1221 1222 1486 
1915 2042 1940 1223 1224 1487 
1939 2012 1914 1225 1226 1490 
1910 2038 1938 1236 1227 1491 
1937 2041 1913 1228 1229 1495 
1936 2040 1912 1230 1231 1497 
1935 2039 1911 1232 1233 1499 
1911 1939 1886 1234 1489 1500 
1934 2038 1910 1235 1236 1502 
1887 1940 1880 1488 1246 1504 
1885 1946 1879 1465 1248 1505 
1913 1943 1890 1238 1481 1544 
1912 1941 1888 1239 1485 1550 
1865 1919 1909 1543 1240 1561 
1819 1909 1908 1575 1241 1576 
1880 1940 1905 1246 1247 1581 
1879 1946 1904 1248 1249 1583 
1883 2036 25 1250 1252 1652 
1882 1977 179 1251 1391 1654 
25 2036 27 1252 1253 26 
27 2035 29 1254 1255 28 
32 2034 34 1256 1257 33 
34 2033 36 1258 1259 35 
36 2032 38 1260 1261 37 
38 2031 40 1262 1263 39 
40 2030 42 1264 1265 41 
42 2029 44 1266 1267 43 
44 2028 46 1268 1269 45 
46 2027 48 1270 1271 47 
48 2026 50 1272 1273 49 
50 2025 52 1274 1275 51 
52 2024 54 1276 1277 53 
54 2023 56 1278 1279 55 
56 1919 58 1280 1281 57 
60 1944 62 1282 1283 61 
62 1945 64 1284 1285 63 
64 2022 66 1286 1287 65 
66 2021 68 1288 1289 67 
68 2020 70 1290 1291 69 
70 2019 72 1292 1293 71 
72 2018 74 1294 1295 73 
74 2017 76 1296 1297 75 
76 2016 78 1298 1299 77 
78 2015 80 1300 1301 79 
80 2014 82 1302 1303 81 
82 2013 84 1304 1305 83 
84 1922 86 1306 1307 85 
86 1947 88 1308 1309 87 
90 1925 92 1310 1311 91 
92 2012 94 1312 1313 93 
94 2011 96 1314 1315 95 
96 2010 98 1316 1317 97 
98 2009 100 1318 1319 99 
100 2008 102 1320 1321 101 
102 2007 104 1322 1323 103 
104 2006 106 1324 1325 105 
106 2005 108 1326 1327 107 
108 2004 110 1328 1329 109 
110 2003 112 1330 1331 111 
112 2002 114 1332 1333 113 
114 2001 116 1334 1335 115 
116 1948 118 1336 1337 117 
120 2000 122 1339 1340 121 
122 1999 124 1341 1342 123 
124 1998 126 1343 1344 125 
126 1997 128 1345 1346 127 
128 1996 130 1347 1348 129 
130 1995 132 1349 1350 131 
132 1994 134 1351 1352 133 
134 1993 136 1353 1354 135 
136 1992 138 1355 1356 137 
138 1991 140 1357 1358 139 
140 1990 142 1359 1360 141 
142 1930 144 1361 1362 143 
144 1949 146 1363 1364 145 
148 1933 150 1365 1366 149 
150 1989 152 1367 1368 151 
152 1988 154 1369 1370 153 
154 1987 156 1371 1372 155 
156 1986 158 1373 1374 157 
158 1985 160 1375 1376 159 
160 1984 162 1377 1378 161 
162 1983 164 1379 1380 163 
164 1982 166 1381 1382 165 
166 1981 168 1383 1384 167 
168 1980 170 1385 1386 169 
170 1979 172 1387 1388 171 
172 1978 174 1389 1390 173 
179 1977 181 1391 1392 180 
181 1976 183 1393 1394 182 
527 1975 525 1395 1396 526 
529 1974 527 1397 1398 528 
531 1973 529 1399 1400 530 
533 1972 531 1401 1402 532 
535 1971 533 1403 1404 534 
537 1970 535 1405 1406 536 
539 1969 537 1407 1408 538 
541 1968 539 1409 1410 540 
543 1967 541 1411 1412 542 
545 1966 543 1413 1414 544 
547 1965 545 1415 1416 546 
552 1964 554 1417 1418 553 
554 1963 556 1419 1420 555 
556 1962 558 1421 1422 557 
558 1961 560 1423 1424 559 
560 1960 562 1425 1426 561 
562 1959 564 1427 1428 563 
564 1958 566 1429 1430 565 
566 1957 568 1431 1432 567 
568 1956 570 1433 1434 569 
570 1955 572 1435 1436 571 
572 1937 574 1437 1438 573 
581 1906 583 1580 1439 582 
583 1954 585 1440 1441 584 
595 1953 597 1442 1443 596 
597 1936 599 1444 1445 598 
606 1905 608 1582 1446 607 
608 1952 610 1447 1448 609 
620 1951 622 1449 1450 621 
622 1935 624 1451 1452 623 
631 1904 633 1584 1453 632 
633 1904 635 1453 1454 634 
645 1950 647 1455 1456 646 
647 1934 649 1457 1458 648 
1928 1948 1927 1460 1461 1471 
1924 1947 1923 1462 1463 1474 
1921 1946 1885 1464 1465 1477 
1884 1938 1920 1492 1466 1493 
1903 1918 1933 1506 1467 1507 
1932 1931 1877 1468 1469 1511 
1876 1877 1931 1547 1469 1512 
1899 1916 1929 1518 1470 1519 
1927 1926 1897 1472 1526 1525 
1896 1926 1915 1527 1473 1529 
1924 1923 1869 1474 1475 1532 
1868 1869 1923 1558 1475 1533 
1923 1922 1894 1476 1535 1534 
1921 1885 1867 1477 1633 1539 
1892 1944 1891 1479 1480 1542 
1890 1943 1918 1481 1482 1545 
1917 1942 1889 1483 1484 1549 
1888 1941 1916 1485 1486 1551 
1915 1940 1887 1487 1488 1555 
1886 1939 1914 1489 1490 1556 
1910 1938 1884 1491 1492 1559 
1884 1920 1866 1493 1540 1560 
1856 1937 1913 1494 1495 1562 
1846 1936 1912 1496 1497 1565 
1836 1935 1911 1498 1499 1568 
1835 1911 1886 1569 1500 1570 
1826 1934 1910 1501 1502 1572 
1847 1889 1881 1564 1503 1578 
1878 1918 1903 1546 1506 1585 
1903 1933 1902 1507 1508 1509 
1864 1903 1902 1586 1509 1587 
1902 1932 1877 1510 1511 1588 
1876 1931 1901 1512 1513 1589 
1901 1930 1900 1514 1515 1516 
1863 1901 1900 1590 1516 1591 
1900 1917 1875 1517 1548 1592 
1874 1916 1899 1552 1518 1593 
1899 1929 1898 1519 1520 1521 
1862 1899 1898 1594 1521 1595 
1898 1928 1873 1522 1523 1596 
1872 1927 1897 1524 1525 1597 
1897 1926 1896 1526 1527 1528 
1861 1897 1896 1598 1528 1599 
1896 1915 1871 1529 1554 1600 
1868 1923 1894 1533 1534 1602 
1894 1922 1893 1535 1536 1537 
1859 1894 1893 1603 1537 1604 
1893 1921 1867 1538 1539 1605 
1866 1920 1892 1540 1541 1606 
1858 1892 1891 1607 1542 1608 
1855 1913 1890 1563 1544 1610 
1890 1918 1878 1545 1546 1612 
1851 1877 1876 1614 1547 1615 
1875 1917 1889 1548 1549 1616 
1845 1912 1888 1566 1550 1619 
1888 1916 1874 1551 1552 1621 
1841 1873 1872 1623 1553 1624 
1871 1915 1887 1554 1555 1625 
1886 1914 1870 1556 1557 1629 
1831 1869 1868 1631 1558 1632 
1825 1910 1884 1573 1559 1636 
1824 1884 1866 1637 1560 1638 
1865 1909 1820 1561 1574 1639 
1856 1913 1855 1562 1563 1640 
1848 1889 1847 1617 1564 1641 
1846 1912 1845 1565 1566 1642 
1838 1887 1837 1626 1567 1643 
1836 1911 1835 1568 1569 1644 
1835 1886 1834 1570 1628 1645 
1828 1885 1827 1634 1571 1646 
1826 1910 1825 1572 1573 1647 
1820 1909 1819 1574 1575 1648 
1881 1906 581 1579 1580 1659 
1880 1905 606 1581 1582 1662 
1879 1904 631 1583 1584 1665 
1878 1903 1864 1585 1586 1668 
1864 1902 1877 1587 1588 1669 
1876 1901 1863 1589 1590 1672 
1863 1900 1875 1591 1592 1673 
1874 1899 1862 1593 1594 1676 
1862 1898 1873 1595 1596 1677 
1872 1897 1861 1597 1598 1680 
1861 1896 1871 1599 1600 1681 
1868 1894 1859 1602 1603 1688 
1859 1893 1867 1604 1605 1689 
1866 1892 1858 1606 1607 1692 
1858 1891 1857 1608 1609 1693 
1855 1890 1854 1610 1611 1712 
1854 1890 1878 1611 1612 1613 
1854 1878 1853 1613 1667 1713 
1852 1877 1851 1670 1614 1715 
1851 1876 1850 1615 1671 1716 
1875 1889 1848 1616 1617 1618 
1849 1875 1848 1674 1618 1718 
1845 1888 1844 1619 1620 1719 
1844 1888 1874 1620 1621 1622 
1844 1874 1843 1622 1675 1720 
1842 1873 1841 1678 1623 1722 
1841 1872 1840 1624 1679 1723 
1871 1887 1838 1625 1626 1627 
1839 1871 1838 1682 1627 1725 
1834 1886 1870 1628 1629 1630 
1834 1870 1833 1630 1683 1726 
1832 1869 1831 1686 1631 1728 
1831 1868 1830 1632 1687 1729 
1867 1885 1828 1633 1634 1635 
1829 1867 1828 1690 1635 1731 
1825 1884 1824 1636 1637 1732 
1824 1866 1823 1638 1691 1733 
1821 1865 1820 1695 1639 1736 
373 1856 1855 1738 1640 1739 
388 1848 1847 1754 1641 1755 
417 1846 1845 1758 1642 1759 
432 1838 1837 1774 1643 1775 
461 1836 1835 1778 1644 1779 
463 1835 1834 1780 1645 1781 
476 1828 1827 1794 1646 1795 
505 1826 1825 1798 1647 1799 
516 1820 1819 1810 1648 1811 
518 1819 1818 1812 1649 1813 
520 1818 1817 1814 1650 1815 
23 1883 25 1651 1652 24 
177 1882 179 1653 1654 178 
549 1817 547 1655 1656 548 
579 1881 581 1658 1659 580 
604 1880 606 1661 1662 605 
629 1879 631 1664 1665 630 
1853 1878 1864 1667 1668 1696 
1864 1877 1852 1669 1670 1697 
1850 1876 1863 1671 1672 1698 
1863 1875 1849 1673 1674 1699 
1843 1874 1862 1675 1676 1700 
1862 1873 1842 1677 1678 1701 
1840 1872 1861 1679 1680 1702 
1861 1871 1839 1681 1682 1703 
1833 1870 1860 1683 1684 1704 
1860 1869 1832 1685 1686 1705 
1830 1868 1859 1687 1688 1706 
1859 1867 1829 1689 1690 1707 
1823 1866 1858 1691 1692 1708 
1822 1858 1857 1709 1693 1710 
1857 1865 1821 1694 1695 1711 
1853 1864 1852 1696 1697 1714 
1850 1863 1849 1698 1699 1717 
1843 1862 1842 1700 1701 1721 
1840 1861 1839 1702 1703 1724 
1833 1860 1832 1704 1705 1727 
1830 1859 1829 1706 1707 1730 
1823 1858 1822 1708 1709 1734 
1822 1857 1821 1710 1711 1735 
375 1855 1854 1740 1712 1741 
377 1854 1853 1742 1713 1743 
379 1853 1852 1744 1714 1745 
9 1852 1851 1746 1715 1747 
382 1851 1850 1748 1716 1749 
384 1850 1849 1750 1717 1751 
1849 1848 386 1718 1753 1752 
419 1845 1844 1760 1719 1761 
421 1844 1843 1762 1720 1763 
423 1843 1842 1764 1721 1765 
13 1842 1841 1766 1722 1767 
426 1841 1840 1768 1723 1769 
428 1840 1839 1770 1724 1771 
1839 1838 430 1725 1773 1772 
465 1834 1833 1782 1726 1783 
467 1833 1832 1784 1727 1785 
17 1832 1831 1786 1728 1787 
470 1831 1830 1788 1729 1789 
472 1830 1829 1790 1730 1791 
1829 1828 474 1731 1793 1792 
507 1825 1824 1800 1732 1801 
509 1824 1823 1802 1733 1803 
511 1823 1822 1804 1734 1805 
21 1822 1821 1806 1735 1807 
1821 1820 514 1736 1809 1808 
371 1856 373 1737 1738 372 
373 1855 375 1739 1740 374 
375 1854 377 1741 1742 376 
377 1853 379 1743 1744 378 
379 1852 9 1745 1746 380 
9 1851 382 1747 1748 381 
382 1850 384 1749 1750 383 
384 1849 386 1751 1752 385 
386 1848 388 1753 1754 387 
388 1847 390 1755 1756 389 
415 1846 417 1757 1758 416 
417 1845 419 1759 1760 418 
419 1844 421 1761 1762 420 
421 1843 423 1763 1764 422 
423 1842 13 1765 1766 424 
13 1841 426 1767 1768 425 
426 1840 428 1769 1770 427 
428 1839 430 1771 1772 429 
430 1838 432 1773 1774 431 
432 1837 434 1775 1776 433 
459 1836 461 1777 1778 460 
461 1835 463 1779 1780 462 
463 1834 465 1781 1782 464 
465 1833 467 1783 1784 466 
467 1832 17 1785 1786 468 
17 1831 470 1787 1788 469 
470 1830 472 1789 1790 471 
472 1829 474 1791 1792 473 
474 1828 476 1793 1794 475 
476 1827 478 1795 1796 477 
503 1826 505 1797 1798 504 
505 1825 507 1799 1800 506 
507 1824 509 1801 1802 508 
509 1823 511 1803 1804 510 
511 1822 21 1805 1806 512 
21 1821 514 1807 1808 513 
514 1820 516 1809 1810 515 
516 1819 518 1811 1812 517 
518 1818 520 1813 1814 519 
520 1817 522 1815 1816 521 
3390 3389 3311 2732 3079 2140 
3312 3390 3311 3078 2140 3156 
3323 3369 3348 3074 3126 2141 
3322 3323 3348 3152 2141 3127 
3619 637 3617 2243 2244 2142 
3613 3619 3617 2214 2142 2255 
3573 3563 3562 2309 2356 2143 
3464 3573 3562 2487 2143 2486 
3591 3499 3546 2428 2429 2144 
3604 3591 3546 2268 2144 2382 
3531 3421 3420 2700 2959 2145 
3432 3531 3420 2687 2145 2950 
3485 3404 3379 2451 3032 2146 
3403 3485 3379 2450 2146 3033 
3365 3414 3396 2998 3003 2147 
3364 3365 3396 3059 2147 3063 
3434 3314 3315 2728 3154 2148 
3391 3434 3315 2729 2148 3077 
3449 3390 3312 2730 3078 2149 
3313 3449 3312 2731 2149 3155 
3373 3333 3625 3069 2189 2150 
3357 3373 3625 3017 2150 2183 
3369 3323 3626 3074 2185 2151 
3356 3369 3626 3018 2151 2184 
3405 3408 3428 2974 2957 2152 
3533 3405 3428 2695 2152 2696 
3545 3523 3376 2571 2726 2153 
3369 3545 3376 2572 2153 3053 
3533 3428 309 2696 2855 2154 
311 3533 309 2551 2154 310 
3411 574 576 2929 575 2155 
3334 3411 576 3008 2155 3165 
3410 599 601 2936 600 2156 
3324 3410 601 3010 2156 3168 
3409 649 651 2949 650 2157 
3304 3409 651 3014 2157 3175 
20 500 3304 501 3302 2158 
651 20 3304 652 2158 3175 
18 549 3313 550 3163 2159 
481 18 3313 480 2159 3285 
16 456 3314 457 3282 2160 
626 16 3314 627 2160 3172 
12 412 3324 413 3262 2161 
601 12 3324 602 2161 3168 
8 368 3334 369 3242 2162 
576 8 3334 577 2162 3165 
3583 3609 3538 2288 2231 2163 
3554 3583 3538 2226 2163 2534 
3389 3543 3510 2576 2410 2164 
3509 3389 3510 2579 2164 2599 
3425 3496 3495 2701 2614 2165 
3549 3425 3495 2559 2165 2431 
3548 3475 3474 2378 2635 2166 
3528 3548 3474 2560 2166 2469 
3508 3530 3397 2411 2176 2167 
3415 3508 3397 2601 2167 3000 
3521 192 3621 2742 2207 2168 
3520 3521 3621 2588 2168 2205 
3534 3497 251 2548 2798 2169 
3429 3534 251 2693 2169 2799 
3460 346 3623 2885 2199 2170 
3448 3460 3623 2650 2170 2197 
3375 3358 3386 3016 3085 2171 
3424 3375 3386 2981 2171 2734 
3545 3369 3356 2572 3018 2172 
3384 3545 3356 2385 2172 3089 
3459 525 3620 2887 2211 2173 
3360 3459 3620 2651 2173 2209 
3462 337 3622 2881 2203 2174 
3359 3462 3622 2648 2174 2201 
3532 3407 305 2553 2853 2175 
307 3532 305 2552 2175 306 
3530 3412 3397 2704 2999 2176 
3532 3408 3383 2698 3020 2177 
3407 3532 3383 2553 2177 3021 
3528 3407 3382 2708 3022 2178 
3400 3528 3382 2711 2178 3024 
3533 3406 3380 2550 3027 2179 
3405 3533 3380 2695 2179 3029 
3497 3402 3377 2373 3038 2180 
3401 3497 3377 2613 2180 3039 
3523 3401 3377 2724 3039 2181 
3376 3523 3377 2726 2181 3040 
3358 3343 3624 3084 2193 2182 
579 3358 3624 3166 2182 2194 
604 3357 3625 3169 2183 2190 
629 3356 3626 3173 2184 2186 
3626 3323 437 2185 3265 2187 
14 629 3626 628 2186 2188 
14 3626 437 2188 2187 436 
3625 3333 393 2189 3245 2191 
10 604 3625 603 2190 2192 
10 3625 393 2192 2191 392 
3624 3343 349 2193 3225 2195 
6 579 3624 578 2194 2196 
6 3624 349 2196 2195 348 
3623 552 3448 2198 2908 2197 
3 552 3623 551 2198 2200 
3 3623 346 2200 2199 347 
3622 340 3359 2202 3161 2201 
5 340 3622 339 2202 2204 
5 3622 337 2204 2203 338 
3621 195 3520 2206 2743 2205 
4 195 3621 194 2206 2208 
4 3621 192 2208 2207 193 
3620 186 3360 2210 3159 2209 
0 186 3620 185 2210 2212 
0 3620 525 2212 2211 524 
3618 641 3615 2248 2251 2252 
3605 3619 3591 2213 2221 2269 
635 3619 3605 2242 2213 2270 
3592 3619 3613 2220 2214 2280 
3608 591 3609 2237 2238 2215 
3608 3609 3582 2215 2289 2290 
3607 589 3608 2217 2236 2216 
3607 3608 3581 2216 2291 2292 
3606 589 3607 2235 2217 2218 
3606 3607 3580 2218 2293 2294 
3565 3566 3598 2229 2324 2219 
3565 3598 3544 2219 2318 2354 
3526 3578 3556 2233 2296 2362 
3539 3606 3579 2230 2295 2365 
3589 3612 3536 2281 2232 2369 
3603 3572 3541 2271 2348 2387 
3564 3573 3540 2308 2227 2388 
3591 3619 3592 2221 2220 2222 
3591 3592 3500 2222 2426 2427 
3590 3549 3494 2223 2432 2433 
3552 3549 3590 2377 2223 2224 
3589 3552 3590 2370 2224 2225 
3589 3590 3493 2225 2434 2435 
3554 3550 3482 2375 2454 2455 
3583 3554 3481 2226 2456 2457 
3555 3579 3476 2364 2466 2467 
3540 3573 3463 2227 2488 2489 
3568 3513 3566 2404 2405 2228 
3452 3568 3566 2503 2228 2508 
3451 3566 3565 2507 2229 2510 
587 3606 3539 2234 2230 2532 
3609 593 3538 2239 2533 2231 
612 3610 3537 2240 2266 2539 
3536 3612 618 2232 2241 2540 
3535 3616 643 2260 2249 2544 
3525 3554 3437 2374 2535 2566 
3423 3578 3526 2342 2233 2570 
3528 3474 3407 2469 2636 2708 
3414 223 3415 2770 2771 2968 
589 3606 587 2235 2234 588 
591 3608 589 2237 2236 590 
593 3609 591 2239 2238 592 
614 3610 612 2259 2240 613 
616 3611 614 2257 2258 615 
618 3612 616 2241 2256 617 
637 3619 635 2243 2242 636 
3617 637 639 2244 638 2245 
3618 3614 3617 2253 2254 2246 
3618 3617 639 2246 2245 2247 
641 3618 639 2248 2247 640 
643 3616 641 2249 2250 642 
3615 641 3616 2251 2250 2261 
3614 3618 3615 2253 2252 2262 
3613 3617 3614 2255 2254 2263 
3611 616 3612 2257 2256 2264 
3610 614 3611 2259 2258 2265 
3558 3441 3557 2525 2526 2267 
3551 3547 3597 2381 2326 2272 
3616 3535 3596 2260 2371 2273 
3615 3616 3595 2261 2274 2275 
3614 3615 3594 2262 2276 2277 
3593 3613 3614 2279 2263 2278 
3611 3612 3588 2264 2282 2283 
3610 3611 3587 2265 2284 2285 
3586 3537 3610 2368 2266 2286 
3577 3557 3556 2298 2361 2297 
3576 3558 3557 2300 2267 2299 
3605 3591 3604 2269 2268 2315 
3384 635 3605 2945 2270 2317 
3602 3572 3603 2302 2271 2319 
3601 3571 3602 2304 2301 2320 
3600 3570 3601 2306 2303 2321 
3599 3569 3600 2307 2305 2322 
3596 3551 3597 2372 2272 2327 
3595 3616 3596 2274 2273 2328 
3594 3615 3595 2276 2275 2329 
3593 3614 3594 2278 2277 2330 
3592 3613 3593 2280 2279 2331 
3588 3612 3589 2282 2281 2332 
3587 3611 3588 2284 2283 2333 
3586 3610 3587 2286 2285 2334 
3585 3553 3586 2287 2367 2335 
3584 3553 3585 2314 2287 2336 
3527 3542 3584 2562 2313 2337 
3582 3609 3583 2289 2288 2338 
3581 3608 3582 2291 2290 2339 
3580 3607 3581 2293 2292 2340 
3579 3606 3580 2295 2294 2341 
3577 3556 3578 2297 2296 2343 
3576 3557 3577 2299 2298 2344 
3575 3558 3576 2312 2300 2345 
3574 3559 3575 2310 2311 2346 
3572 3602 3571 2302 2301 2349 
3571 3601 3570 2304 2303 2350 
3570 3600 3569 2306 2305 2351 
3567 3514 3568 2402 2403 2352 
3569 3599 3567 2307 2323 2353 
3563 3573 3564 2309 2308 2355 
3561 3465 3562 2484 2485 2357 
3560 3466 3561 2482 2483 2358 
3559 3574 3560 2310 2347 2359 
3558 3575 3559 2312 2311 2360 
3555 3475 3548 2468 2378 2363 
3553 3584 3542 2314 2313 2366 
3545 3605 3604 2316 2315 2384 
3384 3605 3545 2317 2316 2385 
3544 3598 3543 2318 2325 2386 
3602 3603 3519 2319 2392 2393 
3601 3602 3518 2320 2394 2395 
3600 3601 3517 2321 2396 2397 
3599 3600 3516 2322 2398 2399 
3515 3567 3599 2401 2323 2400 
3598 3566 3512 2324 2406 2407 
3511 3543 3598 2409 2325 2408 
3507 3547 3530 2413 2555 2412 
3597 3547 3506 2326 2414 2415 
3596 3597 3505 2327 2416 2417 
3595 3596 3504 2328 2418 2419 
3594 3595 3503 2329 2420 2421 
3593 3594 3502 2330 2422 2423 
3501 3592 3593 2425 2331 2424 
3588 3589 3492 2332 2436 2437 
3587 3588 3491 2333 2438 2439 
3586 3587 3490 2334 2440 2441 
3585 3586 3489 2335 2442 2443 
3584 3585 3488 2336 2444 2445 
3487 3527 3584 2447 2337 2446 
3403 3527 3486 2710 2448 2449 
3484 3419 3404 2690 2961 2452 
3582 3583 3480 2338 2458 2459 
3581 3582 3479 2339 2460 2461 
3580 3581 3478 2340 2462 2463 
3477 3579 3580 2465 2341 2464 
3578 3423 3472 2342 2470 2471 
3577 3578 3471 2343 2472 2473 
3576 3577 3470 2344 2474 2475 
3575 3576 3469 2345 2476 2477 
3574 3575 3468 2346 2478 2479 
3467 3560 3574 2481 2347 2480 
3458 3541 3572 2493 2348 2496 
3457 3572 3571 2495 2349 2498 
3456 3571 3570 2497 2350 2500 
3455 3570 3569 2499 2351 2502 
3567 3568 3453 2352 2504 2505 
3454 3569 3567 2501 2353 2506 
3450 3565 3544 2509 2354 2511 
3563 3564 3447 2355 2513 2514 
3562 3563 3446 2356 2515 2516 
3561 3562 3445 2357 2517 2518 
3560 3561 3444 2358 2519 2520 
3559 3560 3443 2359 2521 2522 
3442 3558 3559 2524 2360 2523 
3556 3557 3440 2361 2527 2528 
3439 3526 3556 2565 2362 2529 
3555 3548 3438 2363 2379 2530 
3539 3579 3555 2365 2364 2531 
3553 3542 3436 2366 2536 2537 
3537 3586 3553 2368 2367 2538 
3552 3589 3536 2370 2369 2541 
3435 3529 3552 2543 2376 2542 
3551 3596 3535 2372 2371 2545 
3433 3524 3551 2567 2380 2546 
3483 3550 3531 2453 2554 2547 
3402 3497 3534 2373 2548 2549 
311 3406 3533 2856 2550 2551 
3550 3554 3525 2375 2374 2556 
3549 3552 3529 2377 2376 2558 
3424 3438 3548 2580 2379 2561 
3547 3551 3524 2381 2380 2563 
3546 3498 3401 2430 2612 2568 
3523 3604 3546 2383 2382 2569 
3545 3604 3523 2384 2383 2571 
3390 3544 3543 2574 2386 2577 
3522 3603 3541 2389 2387 2584 
3461 3564 3540 2491 2388 2586 
3521 3603 3522 2390 2389 2587 
3520 3603 3521 2391 2390 2588 
3519 3603 3520 2392 2391 2589 
3518 3602 3519 2394 2393 2590 
3517 3601 3518 2396 2395 2591 
3516 3600 3517 2398 2397 2592 
3515 3599 3516 2400 2399 2593 
3514 3567 3515 2402 2401 2594 
3513 3568 3514 2404 2403 2595 
3512 3566 3513 2406 2405 2596 
3511 3598 3512 2408 2407 2597 
3510 3543 3511 2410 2409 2598 
3507 3530 3508 2412 2411 2602 
3506 3547 3507 2414 2413 2603 
3505 3597 3506 2416 2415 2604 
3504 3596 3505 2418 2417 2605 
3503 3595 3504 2420 2419 2606 
3502 3594 3503 2422 2421 2607 
3501 3593 3502 2424 2423 2608 
3500 3592 3501 2426 2425 2609 
3499 3591 3500 2428 2427 2610 
3498 3546 3499 2430 2429 2611 
3494 3549 3495 2432 2431 2615 
3493 3590 3494 2434 2433 2616 
3492 3589 3493 2436 2435 2617 
3491 3588 3492 2438 2437 2618 
3490 3587 3491 2440 2439 2619 
3489 3586 3490 2442 2441 2620 
3488 3585 3489 2444 2443 2621 
3487 3584 3488 2446 2445 2622 
3486 3527 3487 2448 2447 2623 
3485 3403 3486 2450 2449 2624 
3484 3404 3485 2452 2451 2625 
3482 3550 3483 2454 2453 2627 
3481 3554 3482 2456 2455 2628 
3480 3583 3481 2458 2457 2629 
3479 3582 3480 2460 2459 2630 
3478 3581 3479 2462 2461 2631 
3477 3580 3478 2464 2463 2632 
3476 3579 3477 2466 2465 2633 
3475 3555 3476 2468 2467 2634 
3472 3423 3473 2470 2713 2637 
3471 3578 3472 2472 2471 2638 
3470 3577 3471 2474 2473 2639 
3469 3576 3470 2476 2475 2640 
3468 3575 3469 2478 2477 2641 
3467 3574 3468 2480 2479 2642 
3466 3560 3467 2482 2481 2643 
3465 3561 3466 2484 2483 2644 
3464 3562 3465 2486 2485 2645 
3463 3573 3464 2488 2487 2646 
3462 3540 3463 2490 2489 2647 
3359 3540 3462 2585 2490 2648 
3460 3564 3461 2492 2491 2649 
3448 3564 3460 2512 2492 2650 
3360 3541 3459 2583 2494 2651 
3459 3541 3458 2494 2493 2652 
3458 3572 3457 2496 2495 2653 
3457 3571 3456 2498 2497 2654 
3456 3570 3455 2500 2499 2655 
3455 3569 3454 2502 2501 2656 
3453 3568 3452 2504 2503 2657 
3454 3567 3453 2506 2505 2658 
3452 3566 3451 2508 2507 2659 
3451 3565 3450 2510 2509 2660 
3450 3544 3449 2511 2575 2661 
3447 3564 3448 2513 2512 2662 
3446 3563 3447 2515 2514 2663 
3445 3562 3446 2517 2516 2664 
3444 3561 3445 2519 2518 2665 
3443 3560 3444 2521 2520 2666 
3442 3559 3443 2523 2522 2667 
3441 3558 3442 2525 2524 2668 
3440 3557 3441 2527 2526 2669 
3439 3556 3440 2529 2528 2670 
3539 3555 3438 2531 2530 2673 
585 587 3539 586 2532 2674 
3538 593 595 2533 594 2675 
3437 3554 3538 2535 2534 2676 
3436 3542 3385 2536 2582 2678 
3537 3553 3436 2538 2537 2679 
610 612 3537 611 2539 2680 
3536 618 620 2540 619 2681 
3435 3552 3536 2542 2541 2682 
3434 3529 3435 2573 2543 2683 
3535 643 645 2544 644 2684 
3433 3551 3535 2546 2545 2685 
3432 3483 3531 2626 2547 2687 
3431 283 3432 2830 2831 2688 
3429 253 3430 2800 2801 2692 
3416 3402 3534 2965 2549 2694 
3532 307 3428 2552 2854 2697 
3531 3550 3426 2554 2557 2699 
3530 3547 3413 2555 2564 2703 
3426 3550 3525 2557 2556 2705 
3425 3549 3529 2559 2558 2707 
3424 3548 3528 2561 2560 2712 
3422 3542 3527 2581 2562 2716 
3413 3547 3524 2564 2563 2717 
3526 3439 3411 2565 2671 2718 
3525 3437 3410 2566 2677 2720 
3524 3433 3409 2567 2686 2722 
3523 3546 3401 2569 2568 2724 
3423 3526 3395 2570 2719 2725 
3388 3509 3427 2578 2600 2727 
3391 3529 3434 2706 2573 2729 
3449 3544 3390 2575 2574 2730 
3390 3543 3389 2577 2576 2732 
3389 3509 3388 2579 2578 2733 
3386 3438 3424 2672 2580 2734 
3385 3542 3422 2582 2581 2736 
3522 3541 3360 2584 2583 2737 
3461 3540 3359 2586 2585 2738 
3521 3522 190 2587 2740 2741 
3519 3520 197 2589 2744 2745 
3518 3519 199 2590 2746 2747 
3517 3518 201 2591 2748 2749 
3516 3517 203 2592 2750 2751 
3515 3516 205 2593 2752 2753 
3514 3515 207 2594 2754 2755 
3513 3514 209 2595 2756 2757 
3512 3513 211 2596 2758 2759 
3511 3512 213 2597 2760 2761 
3510 3511 215 2598 2762 2763 
3509 3510 217 2599 2764 2765 
219 3427 3509 2767 2600 2766 
3508 3415 225 2601 2772 2773 
3507 3508 227 2602 2774 2775 
3506 3507 229 2603 2776 2777 
3505 3506 231 2604 2778 2779 
3504 3505 233 2605 2780 2781 
3503 3504 235 2606 2782 2783 
3502 3503 237 2607 2784 2785 
3501 3502 239 2608 2786 2787 
3500 3501 241 2609 2788 2789 
3499 3500 243 2610 2790 2791 
3498 3499 245 2611 2792 2793 
247 3401 3498 2795 2612 2794 
3497 3401 249 2613 2796 2797 
3496 3430 255 2691 2802 2803 
3495 3496 257 2614 2804 2805 
3494 3495 259 2615 2806 2807 
3493 3494 261 2616 2808 2809 
3492 3493 263 2617 2810 2811 
3491 3492 265 2618 2812 2813 
3490 3491 267 2619 2814 2815 
3489 3490 269 2620 2816 2817 
3488 3489 271 2621 2818 2819 
3487 3488 273 2622 2820 2821 
3486 3487 275 2623 2822 2823 
3485 3486 277 2624 2824 2825 
3484 3485 279 2625 2826 2827 
281 3431 3484 2829 2689 2828 
3483 3432 285 2626 2832 2833 
3482 3483 287 2627 2834 2835 
3481 3482 289 2628 2836 2837 
3480 3481 291 2629 2838 2839 
3479 3480 293 2630 2840 2841 
3478 3479 295 2631 2842 2843 
3477 3478 297 2632 2844 2845 
3476 3477 299 2633 2846 2847 
3475 3476 301 2634 2848 2849 
3474 3475 303 2635 2850 2851 
305 3407 3474 2853 2636 2852 
3473 3406 313 2709 2857 2858 
3472 3473 315 2637 2859 2860 
3471 3472 317 2638 2861 2862 
3470 3471 319 2639 2863 2864 
3469 3470 321 2640 2865 2866 
3468 3469 323 2641 2867 2868 
3467 3468 325 2642 2869 2870 
3466 3467 327 2643 2871 2872 
3465 3466 329 2644 2873 2874 
3464 3465 331 2645 2875 2876 
3463 3464 333 2646 2877 2878 
3462 3463 335 2647 2879 2880 
3460 3461 344 2649 2883 2884 
527 3459 3458 2886 2652 2889 
529 3458 3457 2888 2653 2891 
531 3457 3456 2890 2654 2893 
533 3456 3455 2892 2655 2895 
535 3455 3454 2894 2656 2897 
3453 3452 539 2657 2901 2898 
537 3454 3453 2896 2658 2899 
541 3452 3451 2900 2659 2903 
543 3451 3450 2902 2660 2905 
3449 3313 547 2731 3164 2906 
545 3450 3449 2904 2661 2907 
3447 3448 554 2662 2909 2910 
3446 3447 556 2663 2911 2912 
3445 3446 558 2664 2913 2914 
3444 3445 560 2665 2915 2916 
3443 3444 562 2666 2917 2918 
3442 3443 564 2667 2919 2920 
3441 3442 566 2668 2921 2922 
3440 3441 568 2669 2923 2924 
3439 3440 570 2670 2925 2926 
572 3411 3439 2928 2671 2927 
3438 3386 583 2672 2930 2931 
585 3539 3438 2674 2673 2932 
3437 3538 595 2676 2675 2933 
597 3410 3437 2935 2677 2934 
3436 3385 608 2678 2937 2938 
610 3537 3436 2680 2679 2939 
3435 3536 620 2682 2681 2940 
3434 3435 622 2683 2941 2942 
624 3314 3434 3171 2728 2943 
3433 3535 645 2685 2684 2946 
647 3409 3433 2948 2686 2947 
3431 3432 3420 2688 2950 2951 
3419 3484 3431 2690 2689 2952 
3430 3496 3418 2691 2702 2953 
3429 3430 3417 2692 2954 2955 
3416 3534 3429 2694 2693 2956 
3408 3532 3428 2698 2697 2957 
3421 3531 3426 2700 2699 2958 
3418 3496 3425 2702 2701 2962 
3427 221 3414 2768 2769 2966 
3412 3530 3413 2704 2703 2969 
3426 3525 3393 2705 2721 2970 
3425 3529 3391 2707 2706 2972 
3406 3473 3399 2709 2714 2975 
3398 3527 3403 2715 2710 2978 
3424 3528 3400 2712 2711 2980 
3399 3473 3423 2714 2713 2983 
3422 3527 3398 2716 2715 2984 
3413 3524 3387 2717 2723 3004 
3395 3526 3411 2719 2718 3009 
3393 3525 3410 2721 2720 3011 
3387 3524 3409 2723 2722 3015 
3357 3422 3373 2735 2985 3017 
3374 3423 3395 2982 2725 3044 
3388 3427 3365 2727 2967 3058 
3311 3389 3388 3079 2733 3081 
3385 3422 3357 2736 2735 3087 
188 3522 3360 2739 2737 3160 
342 3461 3359 2882 2738 3162 
190 3522 188 2740 2739 189 
192 3521 190 2742 2741 191 
197 3520 195 2744 2743 196 
199 3519 197 2746 2745 198 
201 3518 199 2748 2747 200 
203 3517 201 2750 2749 202 
205 3516 203 2752 2751 204 
207 3515 205 2754 2753 206 
209 3514 207 2756 2755 208 
211 3513 209 2758 2757 210 
213 3512 211 2760 2759 212 
215 3511 213 2762 2761 214 
217 3510 215 2764 2763 216 
219 3509 217 2766 2765 218 
221 3427 219 2768 2767 220 
223 3414 221 2770 2769 222 
225 3415 223 2772 2771 224 
227 3508 225 2774 2773 226 
229 3507 227 2776 2775 228 
231 3506 229 2778 2777 230 
233 3505 231 2780 2779 232 
235 3504 233 2782 2781 234 
237 3503 235 2784 2783 236 
239 3502 237 2786 2785 238 
241 3501 239 2788 2787 240 
243 3500 241 2790 2789 242 
245 3499 243 2792 2791 244 
247 3498 245 2794 2793 246 
249 3401 247 2796 2795 248 
251 3497 249 2798 2797 250 
253 3429 251 2800 2799 252 
255 3430 253 2802 2801 254 
257 3496 255 2804 2803 256 
259 3495 257 2806 2805 258 
261 3494 259 2808 2807 260 
263 3493 261 2810 2809 262 
265 3492 263 2812 2811 264 
267 3491 265 2814 2813 266 
269 3490 267 2816 2815 268 
271 3489 269 2818 2817 270 
273 3488 271 2820 2819 272 
275 3487 273 2822 2821 274 
277 3486 275 2824 2823 276 
279 3485 277 2826 2825 278 
281 3484 279 2828 2827 280 
283 3431 281 2830 2829 282 
285 3432 283 2832 2831 284 
287 3483 285 2834 2833 286 
289 3482 287 2836 2835 288 
291 3481 289 2838 2837 290 
293 3480 291 2840 2839 292 
295 3479 293 2842 2841 294 
297 3478 295 2844 2843 296 
299 3477 297 2846 2845 298 
301 3476 299 2848 2847 300 
303 3475 301 2850 2849 302 
305 3474 303 2852 2851 304 
309 3428 307 2855 2854 308 
313 3406 311 2857 2856 312 
315 3473 313 2859 2858 314 
317 3472 315 2861 2860 316 
319 3471 317 2863 2862 318 
321 3470 319 2865 2864 320 
323 3469 321 2867 2866 322 
325 3468 323 2869 2868 324 
327 3467 325 2871 2870 326 
329 3466 327 2873 2872 328 
331 3465 329 2875 2874 330 
333 3464 331 2877 2876 332 
335 3463 333 2879 2878 334 
337 3462 335 2881 2880 336 
344 3461 342 2883 2882 343 
346 3460 344 2885 2884 345 
525 3459 527 2887 2886 526 
527 3458 529 2889 2888 528 
529 3457 531 2891 2890 530 
531 3456 533 2893 2892 532 
533 3455 535 2895 2894 534 
535 3454 537 2897 2896 536 
537 3453 539 2899 2898 538 
539 3452 541 2901 2900 540 
541 3451 543 2903 2902 542 
543 3450 545 2905 2904 544 
545 3449 547 2907 2906 546 
554 3448 552 2909 2908 553 
556 3447 554 2911 2910 555 
558 3446 556 2913 2912 557 
560 3445 558 2915 2914 559 
562 3444 560 2917 2916 561 
564 3443 562 2919 2918 563 
566 3442 564 2921 2920 565 
568 3441 566 2923 2922 567 
570 3440 568 2925 2924 569 
572 3439 570 2927 2926 571 
574 3411 572 2929 2928 573 
583 3386 581 2930 3086 582 
585 3438 583 2932 2931 584 
597 3437 595 2934 2933 596 
599 3410 597 2936 2935 598 
608 3385 606 2937 3088 607 
610 3436 608 2939 2938 609 
622 3435 620 2941 2940 621 
624 3434 622 2943 2942 623 
633 3384 631 2944 3090 632 
635 3384 633 2945 2944 634 
647 3433 645 2947 2946 646 
649 3409 647 2949 2948 648 
3419 3431 3420 2952 2951 2960 
3417 3430 3418 2954 2953 2963 
3416 3429 3417 2956 2955 2964 
3421 3426 3394 2958 2971 2986 
3420 3421 3371 2959 2987 2988 
3419 3420 3370 2960 2989 2990 
3372 3404 3419 2977 2961 2991 
3418 3425 3392 2962 2973 2992 
3417 3418 3367 2963 2993 2994 
3416 3417 3366 2964 2995 2996 
3368 3402 3416 2979 2965 2997 
3365 3427 3414 2967 2966 2998 
3414 3415 3396 2968 3001 3003 
3412 3413 3362 2969 3005 3006 
3394 3426 3393 2971 2970 3012 
3392 3425 3391 2973 2972 3013 
3408 3405 3355 2974 2976 3019 
3406 3399 3381 2975 3025 3026 
3352 3355 3405 3043 2976 3030 
3404 3372 3351 2977 3049 3031 
3398 3403 3378 2978 3034 3036 
3402 3368 3349 2979 3054 3037 
3375 3424 3400 2981 2980 3042 
3399 3423 3374 2983 2982 3045 
3373 3422 3398 2985 2984 3048 
3371 3421 3394 2987 2986 3050 
3370 3420 3371 2989 2988 3051 
3372 3419 3370 2991 2990 3052 
3367 3418 3392 2993 2992 3055 
3366 3417 3367 2995 2994 3056 
3368 3416 3366 2997 2996 3057 
3397 3412 3361 2999 3007 3060 
3396 3415 3397 3001 3000 3002 
3396 3397 3363 3002 3061 3062 
3362 3413 3387 3005 3004 3064 
3361 3412 3362 3007 3006 3065 
3395 3411 3334 3009 3008 3067 
3393 3410 3324 3011 3010 3072 
3325 3394 3393 3070 3012 3073 
3392 3391 3315 3013 3077 3075 
3387 3409 3304 3015 3014 3082 
3358 3375 3343 3016 3066 3084 
3383 3408 3355 3020 3019 3091 
3382 3407 3383 3022 3021 3023 
3382 3383 3347 3023 3092 3093 
3354 3400 3382 3041 3024 3094 
3381 3399 3353 3025 3046 3095 
3380 3406 3381 3027 3026 3028 
3380 3381 3346 3028 3096 3097 
3352 3405 3380 3030 3029 3098 
3379 3404 3351 3032 3031 3099 
3378 3403 3379 3034 3033 3035 
3378 3379 3345 3035 3100 3101 
3350 3398 3378 3047 3036 3102 
3377 3402 3349 3038 3037 3103 
3376 3377 3344 3040 3104 3105 
3375 3400 3354 3042 3041 3107 
3339 3355 3352 3110 3043 3111 
3374 3395 3335 3044 3068 3112 
3353 3399 3374 3046 3045 3114 
3373 3398 3350 3048 3047 3116 
3329 3351 3372 3119 3049 3121 
3371 3394 3326 3050 3071 3122 
3370 3371 3327 3051 3123 3124 
3328 3372 3370 3120 3052 3125 
3369 3376 3348 3053 3106 3126 
3319 3349 3368 3128 3054 3130 
3367 3392 3316 3055 3076 3131 
3366 3367 3317 3056 3132 3133 
3318 3368 3366 3129 3057 3134 
3310 3388 3365 3080 3058 3136 
3309 3365 3364 3135 3059 3137 
3363 3397 3361 3061 3060 3138 
3364 3396 3363 3063 3062 3139 
3362 3387 3305 3064 3083 3143 
3361 3362 3306 3065 3144 3145 
3343 3375 3342 3066 3108 3147 
3335 3395 3334 3068 3067 3148 
3333 3373 3332 3069 3117 3149 
3326 3394 3325 3071 3070 3150 
3325 3393 3324 3073 3072 3151 
3316 3392 3315 3076 3075 3153 
3311 3388 3310 3081 3080 3157 
3305 3387 3304 3083 3082 3158 
581 3386 3358 3086 3085 3167 
606 3385 3357 3088 3087 3170 
631 3384 3356 3090 3089 3174 
3347 3383 3355 3092 3091 3177 
3354 3382 3347 3094 3093 3178 
3346 3381 3353 3096 3095 3181 
3352 3380 3346 3098 3097 3182 
3345 3379 3351 3100 3099 3185 
3350 3378 3345 3102 3101 3186 
3344 3377 3349 3104 3103 3189 
3348 3376 3344 3106 3105 3190 
3342 3375 3354 3108 3107 3109 
3342 3354 3341 3109 3179 3200 
3340 3355 3339 3176 3110 3202 
3339 3352 3338 3111 3183 3203 
3336 3374 3335 3113 3112 3205 
3353 3374 3336 3114 3113 3115 
3337 3353 3336 3180 3115 3206 
3332 3373 3350 3117 3116 3118 
3332 3350 3331 3118 3187 3207 
3330 3351 3329 3184 3119 3209 
3329 3372 3328 3121 3120 3210 
3327 3371 3326 3123 3122 3211 
3328 3370 3327 3125 3124 3212 
3322 3348 3321 3127 3191 3213 
3320 3349 3319 3188 3128 3215 
3319 3368 3318 3130 3129 3216 
3317 3367 3316 3132 3131 3217 
3318 3366 3317 3134 3133 3218 
3310 3365 3309 3136 3135 3219 
3309 3364 3308 3137 3140 3220 
3363 3361 3307 3138 3146 3141 
3308 3364 3363 3140 3139 3142 
3308 3363 3307 3142 3141 3221 
3306 3362 3305 3144 3143 3222 
3307 3361 3306 3146 3145 3223 
351 3343 3342 3224 3147 3227 
366 3335 3334 3240 3148 3243 
395 3333 3332 3244 3149 3247 
408 3326 3325 3258 3150 3261 
410 3325 3324 3260 3151 3263 
439 3323 3322 3264 3152 3267 
452 3316 3315 3278 3153 3281 
454 3315 3314 3280 3154 3283 
483 3313 3312 3284 3155 3287 
485 3312 3311 3286 3156 3289 
487 3311 3310 3288 3157 3291 
498 3305 3304 3300 3158 3303 
188 3360 186 3160 3159 187 
342 3359 340 3162 3161 341 
547 3313 549 3164 3163 548 
581 3358 579 3167 3166 580 
606 3357 604 3170 3169 605 
626 3314 624 3172 3171 625 
631 3356 629 3174 3173 630 
3347 3355 3340 3177 3176 3192 
3341 3354 3347 3179 3178 3193 
3346 3353 3337 3181 3180 3194 
3338 3352 3346 3183 3182 3195 
3345 3351 3330 3185 3184 3196 
3331 3350 3345 3187 3186 3197 
3344 3349 3320 3189 3188 3198 
3321 3348 3344 3191 3190 3199 
3341 3347 3340 3193 3192 3201 
3338 3346 3337 3195 3194 3204 
3331 3345 3330 3197 3196 3208 
3321 3344 3320 3199 3198 3214 
353 3342 3341 3226 3200 3229 
355 3341 3340 3228 3201 3231 
357 3340 3339 3230 3202 3233 
7 3339 3338 3232 3203 3235 
360 3338 3337 3234 3204 3237 
3336 3335 364 3205 3241 3238 
362 3337 3336 3236 3206 3239 
397 3332 3331 3246 3207 3249 
399 3331 3330 3248 3208 3251 
401 3330 3329 3250 3209 3253 
11 3329 3328 3252 3210 3255 
3327 3326 406 3211 3259 3256 
404 3328 3327 3254 3212 3257 
441 3322 3321 3266 3213 3269 
443 3321 3320 3268 3214 3271 
445 3320 3319 3270 3215 3273 
15 3319 3318 3272 3216 3275 
3317 3316 450 3217 3279 3276 
448 3318 3317 3274 3218 3277 
489 3310 3309 3290 3219 3293 
19 3309 3308 3292 3220 3295 
492 3308 3307 3294 3221 3297 
3306 3305 496 3222 3301 3298 
494 3307 3306 3296 3223 3299 
349 3343 351 3225 3224 350 
351 3342 353 3227 3226 352 
353 3341 355 3229 3228 354 
355 3340 357 3231 3230 356 
357 3339 7 3233 3232 358 
7 3338 360 3235 3234 359 
360 3337 362 3237 3236 361 
362 3336 364 3239 3238 363 
364 3335 366 3241 3240 365 
366 3334 368 3243 3242 367 
393 3333 395 3245 3244 394 
395 3332 397 3247 3246 396 
397 3331 399 3249 3248 398 
399 3330 401 3251 3250 400 
401 3329 11 3253 3252 402 
11 3328 404 3255 3254 403 
404 3327 406 3257 3256 405 
406 3326 408 3259 3258 407 
408 3325 410 3261 3260 409 
410 3324 412 3263 3262 411 
437 3323 439 3265 3264 438 
439 3322 441 3267 3266 440 
441 3321 443 3269 3268 442 
443 3320 445 3271 3270 444 
445 3319 15 3273 3272 446 
15 3318 448 3275 3274 447 
448 3317 450 3277 3276 449 
450 3316 452 3279 3278 451 
452 3315 454 3281 3280 453 
454 3314 456 3283 3282 455 
481 3313 483 3285 3284 482 
483 3312 485 3287 3286 484 
485 3311 487 3289 3288 486 
487 3310 489 3291 3290 488 
489 3309 19 3293 3292 490 
19 3308 492 3295 3294 491 
492 3307 494 3297 3296 493 
494 3306 496 3299 3298 495 
496 3305 498 3301 3300 497 
498 3304 500 3303 3302 499 
3627 3628
3629 3630
3631 3632
3633 3634
3635 3636
3637 3638
3639 3640
3641 3642
3643 3644
3645 3646
3647 3648
3649 3650
3651 3652
3653 3654
3655 3656
3657 3658
3659 3660
3661 3662
3663 3664
3665 3666
3667 3668
3669 3670
3671 3672
3673 3674
3675 3676
3677 3678
3679 3680
3681 3682
3683 3684
3685 3686
3687 3688
3689 3690
3691 3692
3693 3694
3695 3696
3697 3698
3699 3700
3701 3702
3703 3704
3705 3706
3707 3708
3709 3710
3711 3712
3713 3714
3715 3716
3717 3718
3719 3720
3721 3722
3723 3724
3725 3726
3727 3728
3729 3730
3731 3732
3733 3734
3735 3736
3737 3738
3739 3740
3741 3742
3743 3744
3745 3746
3747 3748
3749 3750
3751 3752
3753 3754
3755 3756
3757 3758
3759 3760
3761 3762
3763 3764
3765 3766
3767 3768
3769 3770
3771 3772
3773 3774
3775 3776
3777 3778
3779 3780
3781 3782
3783 3784
3785 3786
3787 3788
3789 3790
3791 3792
3793 3794
3795 3796
3797 3798
3799 3800
3801 3802
3803 3804
3805 3806
3807 3808
3809 3810
3811 3812
3813 3814
3815 3816
3817 3818
3819 3820
3821 3822
3823 3824
3825 3826
3827 3828
3829 3830
3831 3832
3833 3834
3835 3836
3837 3838
3839 3840
3841 3842
3843 3844
3845 3846
3847 3848
3849 3850
3851 3852
3853 3854
3855 3856
3857 3858
3859 3860
3861 3862
3863 3864
3865 3866
3867 3868
3869 3870
3871 3872
3873 3874
3875 3876
3877 3878
3879 3880
3881 3882
3883 3884
3885 3886
3887 3888
3889 3890
3891 3892
3893 3894
3895 3896
3897 3898
3899 3900
3901 3902
3903 3904
3905 3906
3907 3908
3909 3910
3911 3912
3913 3914
3915 3916
3917 3918
3919 3920
3921 3922
3923 3924
3925 3926
3927 3928
3929 3930
3931 3932
3933 3934
3935 3936
3937 3938
3939 3940
3941 3942
3943 3944
3945 3946
3947 3948
3949 3950
3951 3952
3953 3954
3955 3956
3957 3958
3959 3960
3961 3962
3963 3964
3965 3966
3967 3968
3969 3970
3971 3972
3973 3974
3975 3976
3977 3978
3979 3980
3981 3982
3983 3984
3985 3986
3987 3988
3989 3990
3991 3992
3993 3994
3995 3996
3997 3998
3999 4000
4001 4002
4003 4004
4005 4006
4007 4008
4009 4010
4011 4012
4013 4014
4015 4016
4017 4018
4019 4020
4021 4022
4023 4024
4025 4026
4027 4028
4029 4030
4031 4032
4033 4034
4035 4036
4037 4038
4039 4040
4041 4042
4043 4044
4045 4046
4047 4048
4049 4050
4051 4052
4053 4054
4055 4056
4057 4058
4059 4060
4061 4062
4063 4064
4065 4066
4067 4068
4069 4070
4071 4072
4073 4074
4075 4076
4077 4078
4079 4080
4081 4082
4083 4084
4085 4086
4087 4088
4089 4090
4091 4092
4093 4094
4095 4096
4097 4098
4099 4100
4101 4102
4103 4104
4105 4106
4107 4108
4109 4110
4111 4112
4113 4114
4115 4116
4117 4118
4119 4120
4121 4122
4123 4124
4125 4126
4127 4128
4129 4130
4131 4132
4133 4134
4135 4136
4137 4138
4139 4140
4141 4142
4143 4144
4145 4146
4147 4148
4149 4150
4151 4152
4153 4154
4155 4156
4157 4158
4159 4160
4161 4162
4163 4164
4165 4166
4167 4168
4169 4170
4171 4172
4173 4174
4175 4176
4177 4178
4179 4180
4181 4182
4183 4184
4185 4186
4187 4188
4189 4190
4191 4192
4193 4194
4195 4196
4197 4198
4199 4200
4201 4202
4203 4204
4205 4206
4207 4208
4209 4210
4211 4212
4213 4214
4215 4216
4217 4218
4219 4220
4221 4222
4223 4224
4225 4226
4227 4228
4229 4230
4231 4232
4233 4234
4235 4236
4237 4238
4239 4240
4241 4242
4243 4244
4245 4246
4247 4248
4249 4250
4251 4252
4253 4254
4255 4256
4257 4258
4259 4260
4261 4262
4263 4264
4265 4266
4267 4268
4269 4270
4271 4272
4273 4274
4275 4276
4277 4278
4279 4280
4281 4282
4283 4284
4285 4286
4287 4288
4289 4290
4291 4292
4293 4294
4295 4296
4297 4298
4299 4300
4301 4302
4303 4304
4305 4306
4307 4308
4309 4310
4311 4312
4313 4314
4315 4316
4317 4318
4319 4320
4321 4322
4323 4324
4325 4326
4327 4328
4329 4330
4331 4332
4333 4334
4335 4336
4337 4338
4339 4340
4341 4342
4343 4344
4345 4346
4347 4348
4349 4350
4351 4352
4353 4354
4355 4356
4357 4358
4359 4360
4361 4362
4363 4364
4365 4366
4367 4368
4369 4370
4371 4372
4373 4374
4375 4376
4377 4378
4379 4380
4381 4382
4383 4384
4385 4386
4387 4388
4389 4390
4391 4392
4393 4394
4395 4396
4397 4398
4399 4400
4401 4402
4403 4404
4405 4406
4407 4408
4409 4410
4411 4412
4413 4414
4415 4416
4417 4418
4419 4420
4421 4422
4423 4424
4425 4426
4427 4428
4429 4430
4431 4432
4433 4434
4435 4436
4437 4438
4439 4440
4441 4442
4443 4444
4445 4446
4447 4448
4449 4450
4451 4452
4453 4454
4455 4456
4457 4458
4459 4460
4461 4462
4463 4464
4465 4466
4467 4468
4469 4470
4471 4472
4473 4474
4475 4476
4477 4478
4479 4480
4481 4482
4483 4484
4485 4486
4487 4488
4489 4490
4491 4492
4493 4494
4495 4496
4497 4498
4499 4500
4501 4502
4503 4504
4505 4506
4507 4508
4509 4510
4511 4512
4513 4514
4515 4516
4517 4518
4519 4520
4521 4522
4523 4524
4525 4526
4527 4528
4529 4530
4531 4532
4533 4534
4535 4536
4537 4538
4539 4540
4541 4542
4543 4544
4545 4546
4547 4548
4549 4550
4551 4552
4553 4554
4555 4556
4557 4558
4559 4560
4561 4562
4563 4564
4565 4566
4567 4568
4569 4570
4571 4572
4573 4574
4575 4576
4577 4578
4579 4580
4581 4582
4583 4584
4585 4586
4587 4588
4589 4590
4591 4592
4593 4594
4595 4596
4597 4598
4599 4600
4601 4602
4603 4604
4605 4606
4607 4608
4609 4610
4611 4612
4613 4614
4615 4616
4617 4618
4619 4620
4621 4622
4623 4624
4625 4626
4627 4628
4629 4630
4631 4632
4633 4634
4635 4636
4637 4638
4639 4640
4641 4642
4643 4644
4645 4646
4647 4648
4649 4650
4651 4652
4653 4654
4655 4656
4657 4658
4659 4660
4661 4662
4663 4664
4665 4666
4667 4668
4669 4670
4671 4672
4673 4674
4675 4676
4677 4678
4679 4680
4681 4682
4683 4684
4685 4686
4687 4688
4689 4690
4691 4692
4693 4694
4695 4696
4697 4698
4699 4700
4701 4702
4703 4704
4705 4706
4707 4708
4709 4710
4711 4712
4713 4714
4715 4716
4717 4718
4719 4720
4721 4722
4723 4724
4725 4726
4727 4728
4729 4730
4731 4732
4733 4734
4735 4736
4737 4738
4739 4740
4741 4742
4743 4744
4745 4746
4747 4748
4749 4750
4751 4752
4753 4754
4755 4756
4757 4758
4759 4760
4761 4762
4763 4764
4765 4766
4767 4768
4769 4770
4771 4772
4773 4774
4775 4776
4777 4778
4779 4780
4781 4782
4783 4784
4785 4786
4787 4788
4789 4790
4791 4792
4793 4794
4795 4796
4797 4798
4799 4800
4801 4802
4803 4804
4805 4806
4807 4808
4809 4810
4811 4812
4813 4814
4815 4816
4817 4818
4819 4820
4821 4822
4823 4824
4825 4826
4827 4828
4829 4830
4831 4832
4833 4834
4835 4836
4837 4838
4839 4840
4841 4842
4843 4844
4845 4846
4847 4848
4849 4850
4851 4852
4853 4854
4855 4856
4857 4858
4859 4860
4861 4862
4863 4864
4865 4866
4867 4868
4869 4870
4871 4872
4873 4874
4875 4876
4877 4878
4879 4880
4881 4882
4883 4884
4885 4886
4887 4888
4889 4890
4891 4892
4893 4894
4895 4896
4897 4898
4899 4900
4901 4902
4903 4904
4905 4906
4907 4908
4909 4910
4911 4912
4913 4914
4915 4916
4917 4918
4919 4920
4921 4922
4923 4924
4925 4926
4927 4928
4929 4930
4931 4932
4933 4934
4935 4936
4937 4938
4939 4940
4941 4942
4943 4944
4945 4946
4947 4948
4949 4950
4951 4952
4953 4954
4955 4956
4957 4958
4959 4960
4961 4962
4963 4964
4965 4966
4967 4968
4969 4970
4971 4972
4973 4974
4975 4976
4977 4978
4979 4980
4981 4982
4983 4984
4985 4986
4987 4988
4989 4990
4991 4992
4993 4994
4995 4996
4997 4998
4999 5000
5001 5002
5003 5004
5005 5006
5007 5008
5009 5010
5011 5012
5013 5014
5015 5016
5017 5018
5019 5020
5021 5022
5023 5024
5025 5026
5027 5028
5029 5030
5031 5032
5033 5034
5035 5036
5037 5038
5039 5040
5041 5042
5043 5044
5045 5046
5047 5048
5049 5050
5051 5052
5053 5054
5055 5056
5057 5058
5059 5060
5061 5062
5063 5064
5065 5066
5067 5068
5069 5070
5071 5072
5073 5074
5075 5076
5077 5078
5079 5080
5081 5082
5083 5084
5085 5086
5087 5088
5089 5090
5091 5092
5093 5094
5095 5096
5097 5098
5099 5100
5101 5102
5103 5104
5105 5106
5107 5108
5109 5110
5111 5112
5113 5114
5115 5116
5117 5118
5119 5120
5121 5122
5123 5124
5125 5126
5127 5128
5129 5130
5131 5132
5133 5134
5135 5136
5137 5138
5139 5140
5141 5142
5143 5144
5145 5146
5147 5148
5149 5150
5151 5152
5153 5154
5155 5156
5157 5158
5159 5160
5161 5162
5163 5164
5165 5166
5167 5168
5169 5170
5171 5172
5173 5174
5175 5176
5177 5178
5179 5180
5181 5182
5183 5184
5185 5186
5187 5188
5189 5190
5191 5192
5193 5194
5195 5196
5197 5198
5199 5200
5201 5202
5203 5204
5205 5206
5207 5208
5209 5210
5211 5212
5213 5214
5215 5216
5217 5218
5219 5220
5221 5222
5223 5224
5225 5226
5227 5228
5229 5230
5231 5232
5233 5234
5235 5236
5237 5238
5239 5240
5241 5242
5243 5244
5245 5246
5247 5248
5249 5250
5251 5252
5253 5254
5255 5256
5257 5258
5259 5260
5261 5262
5263 5264
5265 5266
5267 5268
5269 5270
5271 5272
5273 5274
5275 5276
5277 5278
5279 5280
5281 5282
5283 5284
5285 5286
5287 5288
5289 5290
5291 5292
5293 5294
5295 5296
5297 5298
5299 5300
5301 5302
5303 5304
5305 5306
5307 5308
5309 5310
5311 5312
5313 5314
5315 5316
5317 5318
5319 5320
5321 5322
5323 5324
5325 5326
5327 5328
5329 5330
5331 5332
5333 5334
5335 5336
5337 5338
5339 5340
5341 5342
5343 5344
5345 5346
5347 5348
5349 5350
5351 5352
5353 5354
5355 5356
5357 5358
5359 5360
5361 5362
5363 5364
5365 5366
5367 5368
5369 5370
5371 5372
5373 5374
5375 5376
5377 5378
5379 5380
5381 5382
5383 5384
5385 5386
5387 5388
5389 5390
5391 5392
5393 5394
5395 5396
5397 5398
5399 5400
5401 5402
5403 5404
5405 5406
5407 5408
5409 5410
5411 5412
5413 5414
5415 5416
5417 5418
5419 5420
5421 5422
5423 5424
5425 5426
5427 5428
5429 5430
5431 5432
5433 5434
5435 5436
5437 5438
5439 5440
5441 5442
5443 5444
5445 5446
5447 5448
5449 5450
5451 5452
5453 5454
5455 5456
5457 5458
5459 5460
5461 5462
5463 5464
5465 5466
5467 5468
5469 5470
5471 5472
5473 5474
5475 5476
5477 5478
5479 5480
5481 5482
5483 5484
5485 5486
5487 5488
5489 5490
5491 5492
5493 5494
5495 5496
5497 5498
5499 5500
5501 5502
5503 5504
5505 5506
5507 5508
5509 5510
5511 5512
5513 5514
5515 5516
5517 5518
5519 5520
5521 5522
5523 5524
5525 5526
5527 5528
5529 5530
5531 5532
5533 5534
5535 5536
5537 5538
5539 5540
5541 5542
5543 5544
5545 5546
5547 5548
5549 5550
5551 5552
5553 5554
5555 5556
5557 5558
5559 5560
5561 5562
5563 5564
5565 5566
5567 5568
5569 5570
5571 5572
5573 5574
5575 5576
5577 5578
5579 5580
5581 5582
5583 5584
5585 5586
5587 5588
5589 5590
5591 5592
5593 5594
5595 5596
5597 5598
5599 5600
5601 5602
5603 5604
5605 5606
5607 5608
5609 5610
5611 5612
5613 5614
5615 5616
5617 5618
5619 5620
5621 5622
5623 5624
5625 5626
5627 5628
5629 5630
5631 5632
5633 5634
5635 5636
5637 5638
5639 5640
5641 5642
5643 5644
5645 5646
5647 5648
5649 5650
5651 5652
5653 5654
5655 5656
5657 5658
5659 5660
5661 5662
5663 5664
5665 5666
5667 5668
5669 5670
5671 5672
5673 5674
5675 5676
5677 5678
5679 5680
5681 5682
5683 5684
5685 5686
5687 5688
5689 5690
5691 5692
5693 5694
5695 5696
5697 5698
5699 5700
5701 5702
5703 5704
5705 5706
5707 5708
5709 5710
5711 5712
5713 5714
5715 5716
5717 5718
5719 5720
5721 5722
5723 5724
5725 5726
5727 5728
5729 5730
5731 5732
5733 5734
5735 5736
5737 5738
5739 5740
5741 5742
5743 5744
5745 5746
5747 5748
5749 5750
5751 5752
5753 5754
5755 5756
5757 5758
5759 5760
5761 5762
5763 5764
5765 5766
5767 5768
5769 5770
5771 5772
5773 5774
5775 5776
5777 5778
5779 5780
5781 5782
5783 5784
5785 5786
5787 5788
5789 5790
5791 5792
5793 5794
5795 5796
5797 5798
5799 5800
5801 5802
5803 5804
5805 5806
5807 5808
5809 5810
5811 5812
5813 5814
5815 5816
5817 5818
5819 5820
5821 5822
5823 5824
5825 5826
5827 5828
5829 5830
5831 5832
5833 5834
5835 5836
5837 5838
5839 5840
5841 5842
5843 5844
5845 5846
5847 5848
5849 5850
5851 5852
5853 5854
5855 5856
5857 5858
5859 5860
5861 5862
5863 5864
5865 5866
5867 5868
5869 5870
5871 5872
5873 5874
5875 5876
5877 5878
5879 5880
5881 5882
5883 5884
5885 5886
5887 5888
5889 5890
5891 5892
5893 5894
5895 5896
5897 5898
5899 5900
5901 5902
5903 5904
5905 5906
5907 5908
5909 5910
5911 5912
5913 5914
5915 5916
5917 5918
5919 5920
5921 5922
5923 5924
5925 5926
5927 5928
5929 5930
5931 5932
5933 5934
5935 5936
5937 5938
5939 5940
5941 5942
5943 5944
5945 5946
5947 5948
5949 5950
5951 5952
5953 5954
5955 5956
5957 5958
5959 5960
5961 5962
5963 5964
5965 5966
5967 5968
5969 5970
5971 5972
5973 5974
5975 5976
5977 5978
5979 5980
5981 5982
5983 5984
5985 5986
5987 5988
5989 5990
5991 5992
5993 5994
5995 5996
5997 5998
5999 6000
6001 6002
6003 6004
6005 6006
6007 6008
6009 6010
6011 6012
6013 6014
6015 6016
6017 6018
6019 6020
6021 6022
6023 6024
6025 6026
6027 6028
6029 6030
6031 6032
6033 6034
6035 6036
6037 6038
6039 6040
6041 6042
6043 6044
6045 6046
6047 6048
6049 6050
6051 6052
6053 6054
6055 6056
6057 6058
6059 6060
6061 6062
6063 6064
6065 6066
6067 6068
6069 6070
6071 6072
6073 6074
6075 6076
6077 6078
6079 6080
6081 6082
6083 6084
6085 6086
6087 6088
6089 6090
6091 6092
6093 6094
6095 6096
6097 6098
6099 6100
6101 6102
6103 6104
6105 6106
6107 6108
6109 6110
6111 6112
6113 6114
6115 6116
6117 6118
6119 6120
6121 6122
6123 6124
6125 6126
6127 6128
6129 6130
6131 6132
6133 6134
6135 6136
6137 6138
6139 6140
6141 6142
6143 6144
6145 6146
6147 6148
6149 6150
6151 6152
6153 6154
6155 6156
6157 6158
6159 6160
6161 6162
6163 6164
6165 6166
6167 6168
6169 6170
6171 6172
6173 6174
6175 6176
6177 6178
6179 6180
6181 6182
6183 6184
6185 6186
6187 6188
6189 6190
6191 6192
6193 6194
6195 6196
6197 6198
6199 6200
6201 6202
6203 6204
6205 6206
6207 6208
6209 6210
6211 6212
6213 6214
6215 6216
6217 6218
6219 6220
6221 6222
6223 6224
6225 6226
6227 6228
6229 6230
6231 6232
6233 6234
6235 6236
6237 6238
6239 6240
6241 6242
6243 6244
6245 6246
6247 6248
6249 6250
6251 6252
6253 6254
6255 6256
6257 6258
6259 6260
6261 6262
6263 6264
6265 6266
6267 6268
6269 6270
6271 6272
6273 6274
6275 6276
6277 6278
6279 6280
6281 6282
6283 6284
6285 6286
6287 6288
6289 6290
6291 6292
6293 6294
6295 6296
6297 6298
6299 6300
6301 6302
6303 6304
6305 6306
6307 6308
6309 6310
6311 6312
6313 6314
6315 6316
6317 6318
6319 6320
6321 6322
6323 6324
6325 6326
6327 6328
6329 6330
6331 6332
6333 6334
6335 6336
6337 6338
6339 6340
6341 6342
6343 6344
6345 6346
6347 6348
6349 6350
6351 6352
6353 6354
6355 6356
6357 6358
6359 6360
6361 6362
6363 6364
6365 6366
6367 6368
6369 6370
6371 6372
6373 6374
6375 6376
6377 6378
6379 6380
6381 6382
6383 6384
6385 6386
6387 6388
6389 6390
6391 6392
6393 6394
6395 6396
6397 6398
6399 6400
6401 6402
6403 6404
6405 6406
6407 6408
6409 6410
6411 6412
6413 6414
6415 6416
6417 6418
6419 6420
6421 6422
6423 6424
6425 6426
6427 6428
6429 6430
6431 6432
6433 6434
6435 6436
6437 6438
6439 6440
6441 6442
6443 6444
6445 6446
6447 6448
6449 6450
6451 6452
6453 6454
6455 6456
6457 6458
6459 6460
6461 6462
6463 6464
6465 6466
6467 6468
6469 6470
6471 6472
6473 6474
6475 6476
6477 6478
6479 6480
6481 6482
6483 6484
6485 6486
6487 6488
6489 6490
6491 6492
6493 6494
6495 6496
6497 6498
6499 6500
6501 6502
6503 6504
6505 6506
6507 6508
6509 6510
6511 6512
6513 6514
6515 6516
6517 6518
6519 6520
6521 6522
6523 6524
6525 6526
6527 6528
6529 6530
6531 6532
6533 6534
6535 6536
6537 6538
6539 6540
6541 6542
6543 6544
6545 6546
6547 6548
6549 6550
6551 6552
6553 6554
6555 6556
6557 6558
6559 6560
6561 6562
6563 6564
6565 6566
6567 6568
6569 6570
6571 6572
6573 6574
6575 6576
6577 6578
6579 6580
6581 6582
6583 6584
6585 6586
6587 6588
6589 6590
6591 6592
6593 6594
6595 6596
6597 6598
6599 6600
6601 6602
6603 6604
6605 6606
6607 6608
6609 6610
6611 6612
6613 6614
6615 6616
6617 6618
6619 6620
6621 6622
6623 6624
6625 6626
6627 6628
6629 6630
6631 6632
6633 6634
6635 6636
6637 6638
6639 6640
6641 6642
6643 6644
6645 6646
6647 6648
6649 6650
6651 6652
6653 6654
6655 6656
6657 6658
6659 6660
6661 6662
6663 6664
6665 6666
6667 6668
6669 6670
6671 6672
6673 6674
6675 6676
6677 6678
6679 6680
6681 6682
6683 6684
6685 6686
6687 6688
6689 6690
6691 6692
6693 6694
6695 6696
6697 6698
6699 6700
6701 6702
6703 6704
6705 6706
6707 6708
6709 6710
6711 6712
6713 6714
6715 6716
6717 6718
6719 6720
6721 6722
6723 6724
6725 6726
6727 6728
6729 6730
6731 6732
6733 6734
6735 6736
6737 6738
6739 6740
6741 6742
6743 6744
6745 6746
6747 6748
6749 6750
6751 6752
6753 6754
6755 6756
6757 6758
6759 6760
6761 6762
6763 6764
6765 6766
6767 6768
6769 6770
6771 6772
6773 6774
6775 6776
6777 6778
6779 6780
6781 6782
6783 6784
6785 6786
6787 6788
6789 6790
6791 6792
6793 6794
6795 6796
6797 6798
6799 6800
6801 6802
6803 6804
6805 6806
6807 6808
6809 6810
6811 6812
6813 6814
6815 6816
6817 6818
6819 6820
6821 6822
6823 6824
6825 6826
6827 6828
6829 6830
6831 6832
6833 6834
6835 6836
6837 6838
6839 6840
6841 6842
6843 6844
6845 6846
6847 6848
6849 6850
6851 6852
6853 6854
6855 6856
6857 6858
6859 6860
6861 6862
6863 6864
6865 6866
6867 6868
6869 6870
6871 6872
6873 6874
6875 6876
6877 6878
6879 6880
6881 6882
6883 6884
6885 6886
6887 6888
6889 6890
6891 6892
6893 6894
6895 6896
6897 6898
6899 6900
6901 6902
6903 6904
6905 6906
6907 6908
6909 6910
6911 6912
6913 6914
6915 6916
6917 6918
6919 6920
6921 6922
6923 6924
6925 6926
6927 6928
6929 6930
6931 6932
6933 6934
6935 6936
6937 6938
6939 6940
6941 6942
6943 6944
6945 6946
6947 6948
6949 6950
6951 6952
6953 6954
6955 6956
6957 6958
6959 6960
6961 6962
6963 6964
6965 6966
6967 6968
6969 6970
6971 6972
6973 6974
6975 6976
6977 6978
6979 6980
6981 6982
6983 6984
6985 6986
6987 6988
6989 6990
6991 6992
6993 6994
6995 6996
6997 6998
6999 7000
7001 7002
7003 7004
7005 7006
7007 7008
7009 7010
7011 7012
7013 7014
7015 7016
7017 7018
7019 7020
7021 7022
7023 7024
7025 7026
7027 7028
7029 7030
7031 7032
7033 7034
7035 7036
7037 7038
7039 7040
7041 7042
7043 7044
7045 7046
7047 7048
7049 7050
7051 7052
7053 7054
7055 7056
7057 7058
7059 7060
7061 7062
7063 7064
7065 7066
7067 7068
7069 7070
7071 7072
7073 7074
7075 7076
7077 7078
7079 7080
7081 7082
7083 7084
7085 7086
7087 7088
7089 7090
7091 7092
7093 7094
7095 7096
7097 7098
7099 7100
7101 7102
7103 7104
7105 7106
7107 7108
7109 7110
7111 7112
7113 7114
7115 7116
7117 7118
7119 7120
7121 7122
7123 7124
7125 7126
7127 7128
7129 7130
7131 7132
7133 7134
7135 7136
7137 7138
7139 7140
7141 7142
7143 7144
7145 7146
7147 7148
7149 7150
7151 7152
7153 7154
7155 7156
7157 7158
7159 7160
7161 7162
7163 7164
7165 7166
7167 7168
7169 7170
7171 7172
7173 7174
7175 7176
7177 7178
7179 7180
7181 7182
7183 7184
7185 7186
7187 7188
7189 7190
7191 7192
7193 7194
7195 7196
7197 7198
7199 7200
7201 7202
7203 7204
7205 7206
7207 7208
7209 7210
7211 7212
7213 7214
7215 7216
7217 7218
7219 7220
7221 7222
7223 7224
7225 7226
7227 7228
7229 7230
7231 7232
7233 7234
7235 7236
7237 7238
7239 7240
7241 7242
7243 7244
7245 7246
7247 7248
7249 7250
7251 7252
7253 7254
7255 7256
7257 7258
7259 7260
7261 7262
7263 7264
7265 7266
7267 7268
7269 7270
7271 7272
7273 7274
7275 7276
7277 7278
7279 7280
7281 7282
7283 7284
7285 7286
7287 7288
7289 7290
7291 7292
7293 7294
7295 7296
7297 7298
7299 7300
7301 7302
7303 7304
7305 7306
7307 7308
7309 7310
7311 7312
7313 7314
7315 7316
7317 7318
7319 7320
7321 7322
7323 7324
7325 7326
7327 7328
7329 7330
7331 7332
7333 7334
7335 7336
7337 7338
7339 7340
7341 7342
7343 7344
7345 7346
7347 7348
7349 7350
7351 7352
7353 7354
7355 7356
7357 7358
7359 7360
7361 7362
7363 7364
7365 7366
7367 7368
7369 7370
7371 7372
7373 7374
7375 7376
7377 7378
7379 7380
7381 7382
7383 7384
7385 7386
7387 7388
7389 7390
7391 7392
7393 7394
7395 7396
7397 7398
7399 7400
7401 7402
7403 7404
7405 7406
7407 7408
7409 7410
7411 7412
7413 7414
7415 7416
7417 7418
7419 7420
7421 7422
7423 7424
7425 7426
7427 7428
7429 7430
7431 7432
7433 7434
7435 7436
7437 7438
7439 7440
7441 7442
7443 7444
7445 7446
7447 7448
7449 7450
7451 7452
7453 7454
7455 7456
7457 7458
7459 7460
7461 7462
7463 7464
7465 7466
7467 7468
7469 7470
7471 7472
7473 7474
7475 7476
7477 7478
7479 7480
7481 7482
7483 7484
7485 7486
7487 7488
7489 7490
7491 7492
7493 7494
7495 7496
7497 7498
7499 7500
7501 7502
7503 7504
7505 7506
7507 7508
7509 7510
7511 7512
7513 7514
7515 7516
7517 7518
7519 7520
7521 7522
7523 7524
7525 7526
7527 7528
7529 7530
7531 7532
7533 7534
7535 7536
7537 7538
7539 7540
7541 7542
7543 7544
7545 7546
7547 7548
7549 7550
7551 7552
7553 7554
7555 7556
7557 7558
7559 7560
7561 7562
7563 7564
7565 7566
7567 7568
7569 7570
7571 7572
7573 7574
7575 7576
7577 7578
7579 7580
7581 7582
7583 7584
7585 7586
7587 7588
7589 7590
7591 7592
7593 7594
7595 7596
7597 7598
7599 7600
7601 7602
7603 7604
7605 7606
7607 7608
7609 7610
7611 7612
7613 7614
7615 7616
7617 7618
7619 7620
7621 7622
7623 7624
7625 7626
7627 7628
7629 7630
7631 7632
7633 7634
7635 7636
7637 7638
7639 7640
7641 7642
7643 7644
7645 7646
7647 7648
7649 7650
7651 7652
7653 7654
7655 7656
7657 7658
7659 7660
7661 7662
7663 7664
7665 7666
7667 7668
7669 7670
7671 7672
7673 7674
7675 7676
7677 7678
7679 7680
7681 7682
7683 7684
7685 7686
7687 7688
7689 7690
7691 7692
7693 7694
7695 7696
7697 7698
7699 7700
7701 7702
7703 7704
7705 7706
7707 7708
7709 7710
7711 7712
7713 7714
7715 7716
7717 7718
7719 7720
7721 7722
7723 7724
7725 7726
7727 7728
7729 7730
7731 7732
7733 7734
7735 7736
7737 7738
7739 7740
7741 7742
7743 7744
7745 7746
7747 7748
7749 7750
7751 7752
7753 7754
7755 7756
7757 7758
7759 7760
7761 7762
7763 7764
7765 7766
7767 7768
7769 7770
7771 7772
7773 7774
7775 7776
7777 7778
7779 7780
7781 7782
7783 7784
7785 7786
7787 7788
7789 7790
7791 7792
7793 7794
7795 7796
7797 7798
7799 7800
7801 7802
7803 7804
7805 7806
7807 7808
7809 7810
7811 7812
7813 7814
7815 7816
7817 7818
7819 7820
7821 7822
7823 7824
7825 7826
7827 7828
7829 7830
7831 7832
7833 7834
7835 7836
7837 7838
7839 7840
7841 7842
7843 7844
7845 7846
7847 7848
7849 7850
7851 7852
7853 7854
7855 7856
7857 7858
7859 7860
7861 7862
7863 7864
7865 7866
7867 7868
7869 7870
7871 7872
7873 7874
7875 7876
7877 7878
7879 7880
7881 7882
7883 7884
7885 7886
7887 7888
7889 7890
7891 7892
7893 7894
7895 7896
7897 7898
7899 7900
7901 7902
7903 7904
7905 7906
7907 7908
7909 7910
7911 7912
7913 7914
7915 7916
7917 7918
7919 7920
7921 7922
7923 7924
7925 7926
7927 7928
7929 7930
7931 7932
7933 7934
7935 7936
7937 7938
7939 7940
7941 7942
7943 7944
7945 7946
7947 7948
7949 7950
7951 7952
7953 7954
7955 7956
7957 7958
7959 7960
7961 7962
7963 7964
7965 7966
7967 7968
7969 7970
7971 7972
7973 7974
7975 7976
7977 7978
7979 7980
7981 7982
7983 7984
7985 7986
7987 7988
7989 7990
7991 7992
7993 7994
7995 7996
7997 7998
7999 8000
8001 8002
8003 8004
8005 8006
8007 8008
8009 8010
8011 8012
8013 8014
8015 8016
8017 8018
8019 8020
8021 8022
8023 8024
8025 8026
8027 8028
8029 8030
8031 8032
8033 8034
8035 8036
8037 8038
8039 8040
8041 8042
8043 8044
8045 8046
8047 8048
8049 8050
8051 8052
8053 8054
8055 8056
8057 8058
8059 8060
8061 8062
8063 8064
8065 8066
8067 8068
8069 8070
8071 8072
8073 8074
8075 8076
8077 8078
8079 8080
8081 8082
8083 8084
8085 8086
8087 8088
8089 8090
8091 8092
8093 8094
8095 8096
8097 8098
8099 8100
8101 8102
8103 8104
8105 8106
8107 8108
8109 8110
8111 8112
8113 8114
8115 8116
8117 8118
8119 8120
8121 8122
8123 8124
8125 8126
8127 8128
8129 8130
8131 8132
8133 8134
8135 8136
8137 8138
8139 8140
8141 8142
8143 8144
8145 8146
8147 8148
8149 8150
8151 8152
8153 8154
8155 8156
8157 8158
8159 8160
8161 8162
8163 8164
8165 8166
8167 8168
8169 8170
8171 8172
8173 8174
8175 8176
8177 8178
8179 8180
8181 8182
8183 8184
8185 8186
8187 8188
8189 8190
8191 8192
8193 8194
8195 8196
8197 8198
8199 8200
8201 8202
8203 8204
8205 8206
8207 8208
8209 8210
8211 8212
8213 8214
8215 8216
8217 8218
8219 8220
8221 8222
8223 8224
8225 8226
8227 8228
8229 8230
8231 8232
8233 8234
8235 8236
8237 8238
8239 8240
8241 8242
8243 8244
8245 8246
8247 8248
8249 8250
8251 8252
8253 8254
8255 8256
8257 8258
8259 8260
8261 8262
8263 8264
8265 8266
8267 8268
8269 8270
8271 8272
8273 8274
8275 8276
8277 8278
8279 8280
8281 8282
8283 8284
8285 8286
8287 8288
8289 8290
8291 8292
8293 8294
8295 8296
8297 8298
8299 8300
8301 8302
8303 8304
8305 8306
8307 8308
8309 8310
8311 8312
8313 8314
8315 8316
8317 8318
8319 8320
8321 8322
8323 8324
8325 8326
8327 8328
8329 8330
8331 8332
8333 8334
8335 8336
8337 8338
8339 8340
8341 8342
8343 8344
8345 8346
8347 8348
8349 8350
8351 8352
8353 8354
8355 8356
8357 8358
8359 8360
8361 8362
8363 8364
8365 8366
8367 8368
8369 8370
8371 8372
8373 8374
8375 8376
8377 8378
8379 8380
8381 8382
8383 8384
8385 8386
8387 8388
8389 8390
8391 8392
8393 8394
8395 8396
8397 8398
8399 8400
8401 8402
8403 8404
8405 8406
8407 8408
8409 8410
8411 8412
8413 8414
8415 8416
8417 8418
8419 8420
8421 8422
8423 8424
8425 8426
8427 8428
8429 8430
8431 8432
8433 8434
8435 8436
8437 8438
8439 8440
8441 8442
8443 8444
8445 8446
8447 8448
8449 8450
8451 8452
8453 8454
8455 8456
8457 8458
8459 8460
8461 8462
8463 8464
8465 8466
8467 8468
8469 8470
8471 8472
8473 8474
8475 8476
8477 8478
8479 8480
8481 8482
8483 8484
8485 8486
8487 8488
8489 8490
8491 8492
8493 8494
8495 8496
8497 8498
8499 8500
8501 8502
8503 8504
8505 8506
8507 8508
8509 8510
8511 8512
8513 8514
8515 8516
8517 8518
8519 8520
8521 8522
8523 8524
8525 8526
8527 8528
8529 8530
8531 8532
8533 8534
8535 8536
8537 8538
8539 8540
8541 8542
8543 8544
8545 8546
8547 8548
8549 8550
8551 8552
8553 8554
8555 8556
8557 8558
8559 8560
8561 8562
8563 8564
8565 8566
8567 8568
8569 8570
8571 8572
8573 8574
8575 8576
8577 8578
8579 8580
8581 8582
8583 8584
8585 8586
8587 8588
8589 8590
8591 8592
8593 8594
8595 8596
8597 8598
8599 8600
8601 8602
8603 8604
8605 8606
8607 8608
8609 8610
8611 8612
8613 8614
8615 8616
8617 8618
8619 8620
8621 8622
8623 8624
8625 8626
8627 8628
8629 8630
8631 8632
8633 8634
8635 8636
8637 8638
8639 8640
8641 8642
8643 8644
8645 8646
8647 8648
8649 8650
8651 8652
8653 8654
8655 8656
8657 8658
8659 8660
8661 8662
8663 8664
8665 8666
8667 8668
8669 8670
8671 8672
8673 8674
8675 8676
8677 8678
8679 8680
8681 8682
8683 8684
8685 8686
8687 8688
8689 8690
8691 8692
8693 8694
8695 8696
8697 8698
8699 8700
8701 8702
8703 8704
8705 8706
8707 8708
8709 8710
8711 8712
8713 8714
8715 8716
8717 8718
8719 8720
8721 8722
8723 8724
8725 8726
8727 8728
8729 8730
8731 8732
8733 8734
8735 8736
8737 8738
8739 8740
8741 8742
8743 8744
8745 8746
8747 8748
8749 8750
8751 8752
8753 8754
8755 8756
8757 8758
8759 8760
8761 8762
8763 8764
8765 8766
8767 8768
8769 8770
8771 8772
8773 8774
8775 8776
8777 8778
8779 8780
8781 8782
8783 8784
8785 8786
8787 8788
8789 8790
8791 8792
8793 8794
8795 8796
8797 8798
8799 8800
8801 8802
8803 8804
8805 8806
8807 8808
8809 8810
8811 8812
8813 8814
8815 8816
8817 8818
8819 8820
8821 8822
8823 8824
8825 8826
8827 8828
8829 8830
8831 8832
8833 8834
8835 8836
8837 8838
8839 8840
8841 8842
8843 8844
8845 8846
8847 8848
8849 8850
8851 8852
8853 8854
8855 8856
8857 8858
8859 8860
8861 8862
8863 8864
8865 8866
8867 8868
8869 8870
8871 8872
8873 8874
8875 8876
8877 8878
8879 8880
8881 8882
8883 8884
8885 8886
8887 8888
8889 8890
8891 8892
8893 8894
8895 8896
8897 8898
8899 8900
8901 8902
8903 8904
8905 8906
8907 8908
8909 8910
8911 8912
8913 8914
8915 8916
8917 8918
8919 8920
8921 8922
8923 8924
8925 8926
8927 8928
8929 8930
8931 8932
8933 8934
8935 8936
8937 8938
8939 8940
8941 8942
8943 8944
8945 8946
8947 8948
8949 8950
8951 8952
8953 8954
8955 8956
8957 8958
8959 8960
8961 8962
8963 8964
8965 8966
8967 8968
8969 8970
8971 8972
8973 8974
8975 8976
8977 8978
8979 8980
8981 8982
8983 8984
8985 8986
8987 8988
8989 8990
8991 8992
8993 8994
8995 8996
8997 8998
8999 9000
9001 9002
9003 9004
9005 9006
9007 9008
9009 9010
9011 9012
9013 9014
9015 9016
9017 9018
9019 9020
9021 9022
9023 9024
9025 9026
9027 9028
9029 9030
9031 9032
9033 9034
9035 9036
9037 9038
9039 9040
9041 9042
9043 9044
9045 9046
9047 9048
9049 9050
9051 9052
9053 9054
9055 9056
9057 9058
9059 9060
9061 9062
9063 9064
9065 9066
9067 9068
9069 9070
9071 9072
9073 9074
9075 9076
9077 9078
9079 9080
9081 9082
9083 9084
9085 9086
9087 9088
9089 9090
9091 9092
9093 9094
9095 9096
9097 9098
9099 9100
9101 9102
9103 9104
9105 9106
9107 9108
9109 9110
9111 9112
9113 9114
9115 9116
9117 9118
9119 9120
9121 9122
9123 9124
9125 9126
9127 9128
9129 9130
9131 9132
9133 9134
9135 9136
9137 9138
9139 9140
9141 9142
9143 9144
9145 9146
9147 9148
9149 9150
9151 9152
9153 9154
9155 9156
9157 9158
9159 9160
9161 9162
9163 9164
9165 9166
9167 9168
9169 9170
9171 9172
9173 9174
9175 9176
9177 9178
9179 9180
9181 9182
9183 9184
9185 9186
9187 9188
9189 9190
9191 9192
9193 9194
9195 9196
9197 9198
9199 9200
9201 9202
9203 9204
9205 9206
9207 9208
9209 9210
9211 9212
9213 9214
9215 9216
9217 9218
9219 9220
9221 9222
9223 9224
9225 9226
9227 9228
9229 9230
9231 9232
9233 9234
9235 9236
9237 9238
9239 9240
9241 9242
9243 9244
9245 9246
9247 9248
9249 9250
9251 9252
9253 9254
9255 9256
9257 9258
9259 9260
9261 9262
9263 9264
9265 9266
9267 9268
9269 9270
9271 9272
9273 9274
9275 9276
9277 9278
9279 9280
9281 9282
9283 9284
9285 9286
9287 9288
9289 9290
9291 9292
9293 9294
9295 9296
9297 9298
9299 9300
9301 9302
9303 9304
9305 9306
9307 9308
9309 9310
9311 9312
9313 9314
9315 9316
9317 9318
9319 9320
9321 9322
9323 9324
9325 9326
9327 9328
9329 9330
9331 9332
9333 9334
9335 9336
9337 9338
9339 9340
9341 9342
9343 9344
9345 9346
9347 9348
9349 9350
9351 9352
9353 9354
9355 9356
9357 9358
9359 9360
9361 9362
9363 9364
9365 9366
9367 9368
9369 9370
9371 9372
9373 9374
9375 9376
9377 9378
9379 9380
9381 9382
9383 9384
9385 9386
9387 9388
9389 9390
9391 9392
9393 9394
9395 9396
9397 9398
9399 9400
9401 9402
9403 9404
9405 9406
9407 9408
9409 9410
9411 9412
9413 9414
9415 9416
9417 9418
9419 9420
9421 9422
9423 9424
9425 9426
9427 9428
9429 9430
9431 9432
9433 9434
9435 9436
9437 9438
9439 9440
9441 9442
9443 9444
9445 9446
9447 9448
9449 9450
9451 9452
9453 9454
9455 9456
9457 9458
9459 9460
9461 9462
9463 9464
9465 9466
9467 9468
9469 9470
9471 9472
9473 9474
9475 9476
9477 9478
9479 9480
9481 9482
9483 9484
9485 9486
9487 9488
9489 9490
9491 9492
9493 9494
9495 9496
9497 9498
9499 9500
9501 9502
9503 9504
9505 9506
9507 9508
9509 9510
9511 9512
9513 9514
9515 9516
9517 9518
9519 9520
9521 9522
9523 9524
9525 9526
9527 9528
9529 9530
9531 9532
9533 9534
9535 9536
9537 9538
9539 9540
9541 9542
9543 9544
9545 9546
9547 9548
9549 9550
9551 9552
9553 9554
9555 9556
9557 9558
9559 9560
9561 9562
9563 9564
9565 9566
9567 9568
9569 9570
9571 9572
9573 9574
9575 9576
9577 9578
9579 9580
9581 9582
9583 9584
9585 9586
9587 9588
9589 9590
9591 9592
9593 9594
9595 9596
9597 9598
9599 9600
9601 9602
9603 9604
9605 9606
9607 9608
9609 9610
9611 9612
9613 9614
9615 9616
9617 9618
9619 9620
9621 9622
9623 9624
9625 9626
9627 9628
9629 9630
9631 9632
9633 9634
9635 9636
9637 9638
9639 9640
9641 9642
9643 9644
9645 9646
9647 9648
9649 9650
9651 9652
9653 9654
9655 9656
9657 9658
9659 9660
9661 9662
9663 9664
9665 9666
9667 9668
9669 9670
9671 9672
9673 9674
9675 9676
9677 9678
9679 9680
9681 9682
9683 9684
9685 9686
9687 9688
9689 9690
9691 9692
9693 9694
9695 9696
9697 9698
9699 9700
9701 9702
9703 9704
9705 9706
9707 9708
9709 9710
9711 9712
9713 9714
9715 9716
9717 9718
9719 9720
9721 9722
9723 9724
9725 9726
9727 9728
9729 9730
9731 9732
9733 9734
9735 9736
9737 9738
9739 9740
9741 9742
9743 9744
9745 9746
9747 9748
9749 9750
9751 9752
9753 9754
9755 9756
9757 9758
9759 9760
9761 9762
9763 9764
9765 9766
9767 9768
9769 9770
9771 9772
9773 9774
9775 9776
9777 9778
9779 9780
9781 9782
9783 9784
9785 9786
9787 9788
9789 9790
9791 9792
9793 9794
9795 9796
9797 9798
9799 9800
9801 9802
9803 9804
9805 9806
9807 9808
9809 9810
9811 9812
9813 9814
9815 9816
9817 9818
9819 9820
9821 9822
9823 9824
9825 9826
9827 9828
9829 9830
9831 9832
9833 9834
9835 9836
9837 9838
9839 9840
9841 9842
9843 9844
9845 9846
9847 9848
9849 9850
9851 9852
9853 9854
9855 9856
9857 9858
9859 9860
9861 9862
9863 9864
9865 9866
9867 9868
9869 9870
9871 9872
9873 9874
9875 9876
9877 9878
9879 9880
9881 9882
9883 9884
9885 9886
9887 9888
9889 9890
9891 9892
9893 9894
9895 9896
9897 9898
9899 9900
9901 9902
9903 9904
9905 9906
9907 9908
9909 9910
9911 9912
9913 9914
9915 9916
9917 9918
9919 9920
9921 9922
9923 9924
9925 9926
9927 9928
9929 9930
9931 9932
9933 9934
9935 9936
9937 9938
9939 9940
9941 9942
9943 9944
9945 9946
9947 9948
9949 9950
9951 9952
9953 9954
9955 9956
9957 9958
9959 9960
9961 9962
9963 9964
9965 9966
9967 9968
9969 9970
9971 9972
9973 9974
9975 9976
9977 9978
9979 9980
9981 9982
9983 9984
9985 9986
9987 9988
9989 9990
9991 9992
9993 9994
9995 9996
9997 9998
9999 10000
10001 10002
10003 10004
10005 10006
10007 10008
10009 10010
10011 10012
10013 10014
10015 10016
10017 10018
10019 10020
10021 10022
10023 10024
10025 10026
10027 10028
10029 10030
10031 10032
10033 10034
10035 10036
10037 10038
10039 10040
10041 10042
10043 10044
10045 10046
10047 10048
10049 10050
10051 10052
10053 10054
10055 10056
10057 10058
10059 10060
10061 10062
10063 10064
10065 10066
10067 10068
10069 10070
10071 10072
10073 10074
10075 10076
10077 10078
10079 10080
10081 10082
10083 10084
10085 10086
10087 10088
10089 10090
10091 10092
10093 10094
10095 10096
10097 10098
10099 10100
10101 10102
10103 10104
10105 10106
10107 10108
10109 10110
10111 10112
10113 10114
10115 10116
10117 10118
10119 10120
10121 10122
10123 10124
10125 10126
10127 10128
10129 10130
10131 10132
10133 10134
10135 10136
10137 10138
10139 10140
10141 10142
10143 10144
10145 10146
10147 10148
10149 10150
10151 10152
10153 10154
10155 10156
10157 10158
10159 10160
10161 10162
10163 10164
10165 10166
10167 10168
10169 10170
10171 10172
10173 10174
10175 10176
10177 10178
10179 10180
10181 10182
10183 10184
10185 10186
10187 10188
10189 10190
10191 10192
10193 10194
10195 10196
10197 10198
10199 10200
10201 10202
10203 10204
10205 10206
10207 10208
10209 10210
10211 10212
10213 10214
10215 10216
10217 10218
10219 10220
10221 10222
10223 10224
10225 10226
10227 10228
10229 10230
10231 10232
10233 10234
10235 10236
10237 10238
10239 10240
10241 10242
10243 10244
10245 10246
10247 10248
10249 10250
10251 10252
10253 10254
10255 10256
10257 10258
10259 10260
10261 10262
10263 10264
10265 10266
10267 10268
10269 10270
10271 10272
10273 10274
10275 10276
10277 10278
10279 10280
10281 10282
10283 10284
10285 10286
10287 10288
10289 10290
10291 10292
10293 10294
10295 10296
10297 10298
10299 10300
10301 10302
10303 10304
10305 10306
10307 10308
10309 10310
10311 10312
10313 10314
10315 10316
10317 10318
10319 10320
10321 10322
10323 10324
10325 10326
10327 10328
10329 10330
10331 10332
10333 10334
10335 10336
10337 10338
10339 10340
10341 10342
10343 10344
10345 10346
10347 10348
10349 10350
10351 10352
10353 10354
10355 10356
10357 10358
10359 10360
10361 10362
10363 10364
10365 10366
10367 10368
10369 10370
10371 10372
10373 10374
10375 10376
10377 10378
10379 10380
10381 10382
10383 10384
10385 10386
10387 10388
10389 10390
10391 10392
10393 10394
10395 10396
10397 10398
10399 10400
10401 10402
10403 10404
10405 10406
10407 10408
10409 10410
10411 10412
10413 10414
10415 10416
10417 10418
10419 10420
10421 10422
10423 10424
10425 10426
10427 10428
10429 10430
10431 10432
10433 10434
10435 10436
10437 10438
10439 10440
10441 10442
10443 10444
10445 10446
10447 10448
10449 10450
10451 10452
10453 10454
10455 10456
10457 10458
10459 10460
10461 10462
10463 10464
10465 10466
10467 10468
10469 10470
10471 10472
10473 10474
10475 10476
10477 10478
10479 10480
10481 10482
10483 10484
10485 10486
10487 10488
10489 10490
10491 10492
10493 10494
10495 10496
10497 10498
10499 10500
10501 10502
10503 10504
10505 10506
10507 10508
10509 10510
10511 10512
10513 10514
10515 10516
10517 10518
10519 10520
10521 10522
10523 10524
10525 10526
10527 10528
10529 10530
10531 10532
10533 10534
10535 10536
10537 10538
10539 10540
10541 10542
10543 10544
10545 10546
10547 10548
10549 10550
10551 10552
10553 10554
10555 10556
10557 10558
10559 10560
10561 10562
10563 10564
10565 10566
10567 10568
10569 10570
10571 10572
10573 10574
10575 10576
10577 10578
10579 10580
10581 10582
10583 10584
10585 10586
10587 10588
10589 10590
10591 10592
10593 10594
10595 10596
10597 10598
10599 10600
10601 10602
10603 10604
10605 10606
10607 10608
10609 10610
10611 10612
10613 10614
10615 10616
10617 10618
10619 10620
10621 10622
10623 10624
10625 10626
10627 10628
10629 10630
10631 10632
10633 10634
10635 10636
10637 10638
10639 10640
10641 10642
10643 10644
10645 10646
10647 10648
10649 10650
10651 10652
10653 10654
10655 10656
10657 10658
10659 10660
10661 10662
10663 10664
10665 10666
10667 10668
10669 10670
10671 10672
10673 10674
10675 10676
10677 10678
10679 10680
10681 10682
10683 10684
10685 10686
10687 10688
10689 10690
10691 10692
10693 10694
10695 10696
10697 10698
10699 10700
10701 10702
10703 10704
10705 10706
10707 10708
10709 10710
10711 10712
10713 10714
10715 10716
10717 10718
10719 10720
10721 10722
10723 10724
10725 10726
10727 10728
10729 10730
10731 10732
10733 10734
10735 10736
10737 10738
10739 10740
10741 10742
10743 10744
10745 10746
10747 10748
10749 10750
10751 10752
10753 10754
10755 10756
10757 10758
10759 10760
10761 10762
10763 10764
10765 10766
10767 10768
10769 10770
10771 10772
10773 10774
10775 10776
10777 10778
10779 10780
10781 10782
10783 10784
10785 10786
10787 10788
10789 10790
10791 10792
10793 10794
10795 10796
10797 10798
10799 10800
10801 10802
10803 10804
10805 10806
10807 10808
10809 10810
10811 10812
10813 10814
10815 10816
10817 10818
10819 10820
10821 10822
10823 10824
10825 10826
10827 10828
10829 10830
10831 10832
10833 10834
10835 10836
10837 10838
10839 10840
10841 10842
10843 10844
10845 10846
10847 10848
10849 10850
10851 10852
10853 10854
10855 10856
10857 10858
10859 10860
10861 10862
10863 10864
10865 10866
10867 10868
10869 10870
10871 10872
10873 10874
10875 10876
10877 10878
10879 10880
10881 10882
10883 10884
10885 10886
10887 10888
10889 10890
10891 10892
10893 10894
10895 10896
10897 10898
10899 10900
10901 10902
10903 10904
10905 10906
10907 10908
10909 10910
10911 10912
10913 10914
10915 10916
10917 10918
10919 10920
10921 10922
10923 10924
10925 10926
10927 10928
10929 10930
10931 10932
10933 10934
10935 10936
10937 10938
10939 10940
10941 10942
10943 10944
10945 10946
10947 10948
10949 10950
10951 10952
10953 10954
10955 10956
10957 10958
10959 10960
10961 10962
10963 10964
10965 10966
10967 10968
10969 10970
10971 10972
10973 10974
10975 10976
10977 10978
10979 10980
10981 10982
10983 10984
10985 10986
10987 10988
10989 10990
10991 10992
10993 10994
10995 10996
10997 10998
10999 11000
11001 11002
11003 11004
11005 11006
11007 11008
11009 11010
11011 11012
11013 11014
11015 11016
11017 11018
11019 11020
11021 11022
11023 11024
11025 11026
11027 11028
11029 11030
11031 11032
11033 11034
11035 11036
11037 11038
11039 11040
11041 11042
11043 11044
11045 11046
11047 11048
11049 11050
11051 11052
11053 11054
11055 11056
11057 11058
11059 11060
11061 11062
11063 11064
11065 11066
11067 11068
11069 11070
11071 11072
11073 11074
11075 11076
11077 11078
11079 11080
11081 11082
11083 11084
11085 11086
11087 11088
11089 11090
11091 11092
11093 11094
11095 11096
11097 11098
11099 11100
11101 11102
11103 11104
11105 11106
11107 11108
11109 11110
11111 11112
11113 11114
11115 11116
11117 11118
11119 11120
11121 11122
11123 11124
11125 11126
11127 11128
11129 11130
11131 11132
11133 11134
11135 11136
11137 11138
11139 11140
11141 11142
11143 11144
11145 11146
11147 11148
11149 11150
11151 11152
11153 11154
11155 11156
11157 11158
11159 11160
11161 11162
11163 11164
11165 11166
11167 11168
11169 11170
11171 11172
11173 11174
11175 11176
11177 11178
11179 11180
11181 11182
11183 11184
11185 11186
11187 11188
11189 11190
11191 11192
11193 11194
11195 11196
11197 11198
11199 11200
11201 11202
11203 11204
11205 11206
11207 11208
11209 11210
11211 11212
11213 11214
11215 11216
11217 11218
11219 11220
11221 11222
11223 11224
11225 11226
11227 11228
11229 11230
11231 11232
11233 11234
11235 11236
11237 11238
11239 11240
11241 11242
11243 11244
11245 11246
11247 11248
11249 11250
11251 11252
11253 11254
11255 11256
11257 11258
11259 11260
11261 11262
11263 11264
11265 11266
11267 11268
11269 11270
11271 11272
11273 11274
11275 11276
11277 11278
11279 11280
11281 11282
11283 11284
11285 11286
11287 11288
11289 11290
11291 11292
11293 11294
11295 11296
11297 11298
11299 11300
11301 11302
11303 11304
11305 11306
11307 11308
11309 11310
11311 11312
11313 11314
11315 11316
11317 11318
11319 11320
11321 11322
11323 11324
11325 11326
11327 11328
11329 11330
11331 11332
11333 11334
11335 11336
11337 11338
11339 11340
11341 11342
11343 11344
11345 11346
11347 11348
11349 11350
11351 11352
11353 11354
11355 11356
11357 11358
11359 11360
11361 11362
11363 11364
11365 11366
11367 11368
11369 11370
11371 11372
11373 11374
11375 11376
11377 11378
11379 11380
11381 11382
11383 11384
11385 11386
11387 11388
11389 11390
11391 11392
11393 11394
11395 11396
11397 11398
11399 11400
11401 11402
11403 11404
11405 11406
11407 11408
11409 11410
11411 11412
11413 11414
11415 11416
11417 11418
11419 11420
11421 11422
11423 11424
11425 11426
11427 11428
11429 11430
11431 11432
11433 11434
11435 11436
11437 11438
11439 11440
11441 11442
11443 11444
11445 11446
11447 11448
11449 11450
11451 11452
11453 11454
11455 11456
11457 11458
11459 11460
11461 11462
11463 11464
11465 11466
11467 11468
11469 11470
11471 11472
11473 11474
11475 11476
11477 11478
11479 11480
11481 11482
11483 11484
11485 11486
11487 11488
11489 11490
11491 11492
11493 11494
11495 11496
11497 11498
11499 11500
11501 11502
11503 11504
11505 11506
11507 11508
11509 11510
11511 11512
11513 11514
11515 11516
11517 11518
11519 11520
11521 11522
11523 11524
11525 11526
11527 11528
11529 11530
11531 11532
11533 11534
11535 11536
11537 11538
11539 11540
11541 11542
11543 11544
11545 11546
11547 11548
11549 11550
11551 11552
11553 11554
11555 11556
11557 11558
11559 11560
11561 11562
11563 11564
11565 11566
11567 11568
11569 11570
11571 11572
11573 11574
11575 11576
11577 11578
11579 11580
11581 11582
11583 11584
11585 11586
11587 11588
11589 11590
11591 11592
11593 11594
11595 11596
11597 11598
11599 11600
11601 11602
11603 11604
11605 11606
11607 11608
11609 11610
11611 11612
11613 11614
11615 11616
11617 11618
11619 11620
11621 11622
11623 11624
11625 11626
11627 11628
11629 11630
11631 11632
11633 11634
11635 11636
11637 11638
11639 11640
11641 11642
11643 11644
11645 11646
11647 11648
11649 11650
11651 11652
11653 11654
11655 11656
11657 11658
11659 11660
11661 11662
11663 11664
11665 11666
11667 11668
11669 11670
11671 11672
11673 11674
11675 11676
11677 11678
11679 11680
11681 11682
11683 11684
11685 11686
11687 11688
11689 11690
11691 11692
11693 11694
11695 11696
11697 11698
11699 11700
11701 11702
11703 11704
11705 11706
11707 11708
11709 11710
11711 11712
11713 11714
11715 11716
11717 11718
11719 11720
11721 11722
11723 11724
11725 11726
11727 11728
11729 11730
11731 11732
11733 11734
11735 11736
11737 11738
11739 11740
11741 11742
11743 11744
11745 11746
11747 11748
11749 11750
11751 11752
11753 11754
11755 11756
11757 11758
11759 11760
11761 11762
11763 11764
11765 11766
11767 11768
11769 11770
11771 11772
11773 11774
11775 11776
11777 11778
11779 11780
11781 11782
11783 11784
11785 11786
11787 11788
11789 11790
11791 11792
11793 11794
11795 11796
11797 11798
11799 11800
11801 11802
11803 11804
11805 11806
11807 11808
11809 11810
11811 11812
11813 11814
11815 11816
11817 11818
11819 11820
11821 11822
11823 11824
11825 11826
11827 11828
11829 11830
11831 11832
11833 11834
11835 11836
11837 11838
11839 11840
11841 11842
11843 11844
11845 11846
11847 11848
11849 11850
11851 11852
11853 11854
11855 11856
11857 11858
11859 11860
11861 11862
11863 11864
11865 11866
11867 11868
11869 11870
11871 11872
11873 11874
11875 11876
11877 11878
11879 11880
11881 11882
11883 11884
11885 11886
11887 11888
11889 11890
11891 11892
11893 11894
11895 11896
11897 11898
11899 11900
11901 11902
11903 11904
11905 11906
11907 11908
11909 11910
11911 11912
11913 11914
11915 11916
11917 11918
11919 11920
11921 11922
11923 11924
11925 11926
11927 11928
11929 11930
11931 11932
11933 11934
11935 11936
11937 11938
11939 11940
11941 11942
11943 11944
11945 11946
11947 11948
11949 11950
11951 11952
11953 11954
11955 11956
11957 11958
11959 11960
11961 11962
11963 11964
11965 11966
11967 11968
11969 11970
11971 11972
11973 11974
11975 11976
11977 11978
11979 11980
11981 11982
11983 11984
11985 11986
11987 11988
11989 11990
11991 11992
11993 11994
11995 11996
11997 11998
11999 12000
12001 12002
12003 12004
12005 12006
12007 12008
12009 12010
12011 12012
12013 12014
12015 12016
12017 12018
12019 12020
12021 12022
12023 12024
12025 12026
12027 12028
12029 12030
12031 12032
12033 12034
12035 12036
12037 12038
12039 12040
12041 12042
12043 12044
12045 12046
12047 12048
12049 12050
12051 12052
12053 12054
12055 12056
12057 12058
12059 12060
12061 12062
12063 12064
12065 12066
12067 12068
12069 12070
12071 12072
12073 12074
12075 12076
12077 12078
12079 12080
12081 12082
12083 12084
12085 12086
12087 12088
12089 12090
12091 12092
12093 12094
12095 12096
12097 12098
12099 12100
12101 12102
12103 12104
12105 12106
12107 12108
12109 12110
12111 12112
12113 12114
12115 12116
12117 12118
12119 12120
12121 12122
12123 12124
12125 12126
12127 12128
12129 12130
12131 12132
12133 12134
12135 12136
12137 12138
12139 12140
12141 12142
12143 12144
12145 12146
12147 12148
12149 12150
12151 12152
12153 12154
12155 12156
12157 12158
12159 12160
12161 12162
12163 12164
12165 12166
12167 12168
12169 12170
12171 12172
12173 12174
12175 12176
12177 12178
12179 12180
12181 12182
12183 12184
12185 12186
12187 12188
12189 12190
12191 12192
12193 12194
12195 12196
12197 12198
12199 12200
12201 12202
12203 12204
12205 12206
12207 12208
12209 12210
12211 12212
12213 12214
12215 12216
12217 12218
12219 12220
12221 12222
12223 12224
12225 12226
12227 12228
12229 12230
12231 12232
12233 12234
12235 12236
12237 12238
12239 12240
12241 12242
12243 12244
12245 12246
12247 12248
12249 12250
12251 12252
12253 12254
12255 12256
12257 12258
12259 12260
12261 12262
12263 12264
12265 12266
12267 12268
12269 12270
12271 12272
12273 12274
12275 12276
12277 12278
12279 12280
12281 12282
12283 12284
12285 12286
12287 12288
12289 12290
12291 12292
12293 12294
12295 12296
12297 12298
12299 12300
12301 12302
12303 12304
12305 12306
12307 12308
12309 12310
12311 12312
12313 12314
12315 12316
12317 12318
12319 12320
12321 12322
12323 12324
12325 12326
12327 12328
12329 12330
12331 12332
12333 12334
12335 12336
12337 12338
12339 12340
12341 12342
12343 12344
12345 12346
12347 12348
12349 12350
12351 12352
12353 12354
12355 12356
12357 12358
12359 12360
12361 12362
12363 12364
12365 12366
12367 12368
12369 12370
12371 12372
12373 12374
12375 12376
12377 12378
12379 12380
12381 12382
12383 12384
12385 12386
12387 12388
12389 12390
12391 12392
12393 12394
12395 12396
12397 12398
12399 12400
12401 12402
12403 12404
12405 12406
12407 12408
12409 12410
12411 12412
12413 12414
12415 12416
12417 12418
12419 12420
12421 12422
12423 12424
12425 12426
12427 12428
12429 12430
12431 12432
12433 12434
12435 12436
12437 12438
12439 12440
12441 12442
12443 12444
12445 12446
12447 12448
12449 12450
12451 12452
12453 12454
12455 12456
12457 12458
12459 12460
12461 12462
12463 12464
12465 12466
12467 12468
12469 12470
12471 12472
12473 12474
12475 12476
12477 12478
12479 12480
12481 12482
12483 12484
12485 12486
12487 12488
12489 12490
12491 12492
12493 12494
12495 12496
12497 12498
12499 12500
12501 12502
12503 12504
12505 12506
12507 12508
12509 12510
12511 12512
12513 12514
12515 12516
12517 12518
12519 12520
12521 12522
12523 12524
12525 12526
12527 12528
12529 12530
12531 12532
12533 12534
12535 12536
12537 12538
12539 12540
12541 12542
12543 12544
12545 12546
12547 12548
12549 12550
12551 12552
12553 12554
12555 12556
12557 12558
12559 12560
12561 12562
12563 12564
12565 12566
12567 12568
12569 12570
12571 12572
12573 12574
12575 12576
12577 12578
12579 12580
12581 12582
12583 12584
12585 12586
12587 12588
12589 12590
12591 12592
12593 12594
12595 12596
12597 12598
12599 12600
12601 12602
12603 12604
12605 12606
12607 12608
12609 12610
12611 12612
12613 12614
12615 12616
12617 12618
12619 12620
12621 12622
12623 12624
12625 12626
12627 12628
12629 12630
12631 12632
12633 12634
12635 12636
12637 12638
12639 12640
12641 12642
12643 12644
12645 12646
12647 12648
12649 12650
12651 12652
12653 12654
12655 12656
12657 12658
12659 12660
12661 12662
12663 12664
12665 12666
12667 12668
12669 12670
12671 12672
12673 12674
12675 12676
12677 12678
12679 12680
12681 12682
12683 12684
12685 12686
12687 12688
12689 12690
12691 12692
12693 12694
12695 12696
12697 12698
12699 12700
12701 12702
12703 12704
12705 12706
12707 12708
12709 12710
12711 12712
12713 12714
12715 12716
12717 12718
12719 12720
12721 12722
12723 12724
12725 12726
12727 12728
12729 12730
12731 12732
12733 12734
12735 12736
12737 12738
12739 12740
12741 12742
12743 12744
12745 12746
12747 12748
12749 12750
12751 12752
12753 12754
12755 12756
12757 12758
12759 12760
12761 12762
12763 12764
12765 12766
12767 12768
12769 12770
12771 12772
12773 12774
12775 12776
12777 12778
12779 12780
12781 12782
12783 12784
12785 12786
12787 12788
12789 12790
12791 12792
12793 12794
12795 12796
12797 12798
12799 12800
12801 12802
12803 12804
12805 12806
12807 12808
12809 12810
12811 12812
12813 12814
12815 12816
12817 12818
12819 12820
12821 12822
12823 12824
12825 12826
12827 12828
12829 12830
12831 12832
12833 12834
12835 12836
12837 12838
12839 12840
12841 12842
12843 12844
12845 12846
12847 12848
12849 12850
12851 12852
12853 12854
12855 12856
12857 12858
12859 12860
12861 12862
12863 12864
12865 12866
12867 12868
12869 12870
12871 12872
12873 12874
12875 12876
12877 12878
12879 12880
12881 12882
12883 12884
12885 12886
12887 12888
12889 12890
12891 12892
12893 12894
12895 12896
12897 12898
12899 12900
12901 12902
12903 12904
12905 12906
12907 12908
12909 12910
12911 12912
12913 12914
12915 12916
12917 12918
12919 12920
12921 12922
12923 12924
12925 12926
12927 12928
12929 12930
12931 12932
12933 12934
12935 12936
12937 12938
12939 12940
12941 12942
12943 12944
12945 12946
12947 12948
12949 12950
12951 12952
12953 12954
12955 12956
12957 12958
12959 12960
12961 12962
12963 12964
12965 12966
12967 12968
12969 12970
12971 12972
12973 12974
12975 12976
12977 12978
12979 12980
12981 12982
12983 12984
12985 12986
12987 12988
12989 12990
12991 12992
12993 12994
12995 12996
12997 12998
12999 13000
13001 13002
13003 13004
13005 13006
13007 13008
13009 13010
13011 13012
13013 13014
13015 13016
13017 13018
13019 13020
13021 13022
13023 13024
13025 13026
13027 13028
13029 13030
13031 13032
13033 13034
13035 13036
13037 13038
13039 13040
13041 13042
13043 13044
13045 13046
13047 13048
13049 13050
13051 13052
13053 13054
13055 13056
13057 13058
13059 13060
13061 13062
13063 13064
13065 13066
13067 13068
13069 13070
13071 13072
13073 13074
13075 13076
13077 13078
13079 13080
13081 13082
13083 13084
13085 13086
13087 13088
13089 13090
13091 13092
13093 13094
13095 13096
13097 13098
13099 13100
13101 13102
13103 13104
13105 13106
13107 13108
13109 13110
13111 13112
13113 13114
13115 13116
13117 13118
13119 13120
13121 13122
13123 13124
13125 13126
13127 13128
13129 13130
13131 13132
13133 13134
13135 13136
13137 13138
13139 13140
13141 13142
13143 13144
13145 13146
13147 13148
13149 13150
13151 13152
13153 13154
13155 13156
13157 13158
13159 13160
13161 13162
13163 13164
13165 13166
13167 13168
13169 13170
13171 13172
13173 13174
13175 13176
13177 13178
13179 13180
13181 13182
13183 13184
13185 13186
13187 13188
13189 13190
13191 13192
13193 13194
13195 13196
13197 13198
13199 13200
13201 13202
13203 13204
13205 13206
13207 13208
13209 13210
13211 13212
13213 13214
13215 13216
13217 13218
13219 13220
13221 13222
13223 13224
13225 13226
13227 13228
13229 13230
13231 13232
13233 13234
13235 13236
13237 13238
13239 13240
13241 13242
13243 13244
13245 13246
13247 13248
13249 13250
13251 13252
13253 13254
13255 13256
13257 13258
13259 13260
13261 13262
13263 13264
13265 13266
13267 13268
13269 13270
13271 13272
13273 13274
13275 13276
13277 13278
13279 13280
13281 13282
13283 13284
13285 13286
13287 13288
13289 13290
13291 13292
13293 13294
13295 13296
13297 13298
13299 13300
13301 13302
13303 13304
13305 13306
13307 13308
13309 13310
13311 13312
13313 13314
13315 13316
13317 13318
13319 13320
13321 13322
13323 13324
13325 13326
13327 13328
13329 13330
13331 13332
13333 13334
13335 13336
13337 13338
13339 13340
13341 13342
13343 13344
13345 13346
13347 13348
13349 13350
13351 13352
13353 13354
13355 13356
13357 13358
13359 13360
13361 13362
13363 13364
13365 13366
13367 13368
13369 13370
13371 13372
13373 13374
13375 13376
13377 13378
13379 13380
13381 13382
13383 13384
13385 13386
13387 13388
13389 13390
13391 13392
13393 13394
13395 13396
13397 13398
13399 13400
13401 13402
13403 13404
13405 13406
13407 13408
13409 13410
13411 13412
13413 13414
13415 13416
13417 13418
13419 13420
13421 13422
13423 13424
13425 13426
13427 13428
13429 13430
13431 13432
13433 13434
13435 13436
13437 13438
13439 13440
13441 13442
13443 13444
13445 13446
13447 13448
13449 13450
13451 13452
13453 13454
13455 13456
13457 13458
13459 13460
13461 13462
13463 13464
13465 13466
13467 13468
13469 13470
13471 13472
13473 13474
13475 13476
13477 13478
13479 13480
13481 13482
13483 13484
13485 13486
13487 13488
13489 13490
13491 13492
13493 13494
13495 13496
13497 13498
13499 13500
13501 13502
13503 13504
13505 13506
13507 13508
13509 13510
13511 13512
13513 13514
13515 13516
13517 13518
13519 13520
13521 13522
13523 13524
13525 13526
13527 13528
13529 13530
13531 13532
13533 13534
13535 13536
13537 13538
13539 13540
13541 13542
13543 13544
13545 13546
13547 13548
13549 13550
13551 13552
13553 13554
13555 13556
13557 13558
13559 13560
13561 13562
13563 13564
13565 13566
13567 13568
13569 13570
13571 13572
13573 13574
13575 13576
13577 13578
13579 13580
13581 13582
13583 13584
13585 13586
13587 13588
13589 13590
13591 13592
13593 13594
13595 13596
13597 13598
13599 13600
13601 13602
13603 13604
13605 13606
13607 13608
13609 13610
13611 13612
13613 13614
13615 13616
13617 13618
13619 13620
13621 13622
13623 13624
13625 13626
13627 13628
13629 13630
13631 13632
13633 13634
13635 13636
13637 13638
13639 13640
13641 13642
13643 13644
13645 13646
13647 13648
13649 13650
13651 13652
13653 13654
13655 13656
13657 13658
13659 13660
13661 13662
13663 13664
13665 13666
13667 13668
13669 13670
13671 13672
13673 13674
13675 13676
13677 13678
13679 13680
13681 13682
13683 13684
13685 13686
13687 13688
13689 13690
13691 13692
13693 13694
13695 13696
13697 13698
13699 13700
13701 13702
13703 13704
13705 13706
13707 13708
13709 13710
13711 13712
13713 13714
13715 13716
13717 13718
13719 13720
13721 13722
13723 13724
13725 13726
13727 13728
13729 13730
13731 13732
13733 13734
13735 13736
13737 13738
13739 13740
13741 13742
13743 13744
13745 13746
13747 13748
13749 13750
13751 13752
13753 13754
13755 13756
13757 13758
13759 13760
13761 13762
13763 13764
13765 13766
13767 13768
13769 13770
13771 13772
13773 13774
13775 13776
13777 13778
13779 13780
13781 13782
13783 13784
13785 13786
13787 13788
13789 13790
13791 13792
13793 13794
13795 13796
13797 13798
13799 13800
13801 13802
13803 13804
13805 13806
13807 13808
13809 13810
13811 13812
13813 13814
13815 13816
13817 13818
13819 13820
13821 13822
13823 13824
13825 13826
13827 13828
13829 13830
13831 13832
13833 13834
13835 13836
13837 13838
13839 13840
13841 13842
13843 13844
13845 13846
13847 13848
13849 13850
13851 13852
13853 13854
13855 13856
13857 13858
13859 13860
13861 13862
13863 13864
13865 13866
13867 13868
13869 13870
13871 13872
13873 13874
13875 13876
13877 13878
13879 13880
13881 13882
13883 13884
13885 13886
13887 13888
13889 13890
13891 13892
13893 13894
13895 13896
13897 13898
13899 13900
13901 13902
13903 13904
13905 13906
13907 13908
13909 13910
13911 13912
13913 13914
13915 13916
13917 13918
13919 13920
13921 13922
13923 13924
13925 13926
13927 13928
13929 13930
13931 13932
13933 13934
13935 13936
13937 13938
13939 13940
13941 13942
13943 13944
13945 13946
13947 13948
13949 13950
13951 13952
13953 13954
13955 13956
13957 13958
13959 13960
13961 13962
13963 13964
13965 13966
13967 13968
13969 13970
13971 13972
13973 13974
13975 13976
13977 13978
13979 13980
13981 13982
13983 13984
13985 13986
13987 13988
13989 13990
13991 13992
13993 13994
13995 13996
13997 13998
13999 14000
14001 14002
14003 14004
14005 14006
14007 14008
14009 14010
14011 14012
14013 14014
14015 14016
14017 14018
14019 14020
14021 14022
14023 14024
14025 14026
14027 14028
14029 14030
14031 14032
14033 14034
14035 14036
14037 14038
14039 14040
14041 14042
14043 14044
14045 14046
14047 14048
14049 14050
14051 14052
14053 14054
14055 14056
14057 14058
14059 14060
14061 14062
14063 14064
14065 14066
14067 14068
14069 14070
14071 14072
14073 14074
14075 14076
14077 14078
14079 14080
14081 14082
14083 14084
14085 14086
14087 14088
14089 14090
14091 14092
14093 14094
14095 14096
14097 14098
14099 14100
14101 14102
14103 14104
14105 14106
14107 14108
14109 14110
14111 14112
14113 14114
14115 14116
14117 14118
14119 14120
14121 14122
14123 14124
14125 14126
14127 14128
14129 14130
14131 14132
14133 14134
14135 14136
14137 14138
14139 14140
14141 14142
14143 14144
14145 14146
14147 14148
14149 14150
14151 14152
14153 14154
14155 14156
14157 14158
14159 14160
14161 14162
14163 14164
14165 14166
14167 14168
14169 14170
14171 14172
14173 14174
14175 14176
14177 14178
14179 14180
14181 14182
14183 14184
14185 14186
14187 14188
14189 14190
14191 14192
14193 14194
14195 14196
14197 14198
14199 14200
14201 14202
14203 14204
14205 14206
14207 14208
14209 14210
14211 14212
14213 14214
14215 14216
14217 14218
14219 14220
14221 14222
14223 14224
14225 14226
14227 14228
14229 14230
14231 14232
14233 14234
14235 14236
14237 14238
14239 14240
14241 14242
14243 14244
14245 14246
14247 14248
14249 14250
14251 14252
14253 14254
14255 14256
14257 14258
14259 14260
14261 14262
14263 14264
14265 14266
14267 14268
14269 14270
14271 14272
14273 14274
14275 14276
14277 14278
14279 14280
14281 14282
14283 14284
14285 14286
14287 14288
14289 14290
14291 14292
14293 14294
14295 14296
14297 14298
14299 14300
14301 14302
14303 14304
14305 14306
14307 14308
14309 14310
14311 14312
14313 14314
14315 14316
14317 14318
14319 14320
14321 14322
14323 14324
14325 14326
14327 14328
14329 14330
14331 14332
14333 14334
14335 14336
14337 14338
14339 14340
14341 14342
14343 14344
14345 14346
14347 14348
14349 14350
14351 14352
14353 14354
14355 14356
14357 14358
14359 14360
14361 14362
14363 14364
14365 14366
14367 14368
14369 14370
14371 14372
14373 14374
14375 14376
14377 14378
14379 14380
14381 14382
14383 14384
14385 14386
14387 14388
14389 14390
14391 14392
14393 14394
14395 14396
14397 14398
14399 14400
14401 14402
14403 14404
14405 14406
14407 14408
14409 14410
14411 14412
14413 14414
14415 14416
14417 14418
14419 14420
14421 14422
14423 14424
14425 14426
14427 14428
14429 14430
14431 14432
14433 14434
14435 14436
14437 14438
14439 14440
14441 14442
14443 14444
14445 14446
14447 14448
14449 14450
14451 14452
14453 14454
14455 14456
14457 14458
14459 14460
14461 14462
14463 14464
14465 14466
14467 14468
14469 14470
14471 14472
14473 14474
14475 14476
14477 14478
14479 14480
14481 14482
14483 14484
14485 14486
14487 14488
14489 14490
14491 14492
14493 14494
14495 14496
14497 14498
14499 14500
14501 14502
14503 14504
14505 14506
14507 14508
14509 14510
14511 14512
14513 14514
14515 14516
14517 14518
14519 14520
14521 14522
14523 14524
14525 14526
14527 14528
14529 14530
14531 14532
14533 14534
14535 14536
14537 14538
14539 14540
14541 14542
14543 14544
14545 14546
14547 14548
14549 14550
14551 14552
14553 14554
14555 14556
14557 14558
14559 14560
14561 14562
14563 14564
14565 14566
14567 14568
14569 14570
14571 14572
14573 14574
14575 14576
14577 14578
14579 14580
14581 14582
14583 14584
14585 14586
14587 14588
14589 14590
14591 14592
14593 14594
14595 14596
14597 14598
14599 14600
14601 14602
14603 14604
14605 14606
14607 14608
14609 14610
14611 14612
14613 14614
14615 14616
14617 14618
14619 14620
14621 14622
14623 14624
14625 14626
14627 14628
14629 14630
14631 14632
14633 14634
14635 14636
14637 14638
14639 14640
14641 14642
14643 14644
14645 14646
14647 14648
14649 14650
14651 14652
14653 14654
14655 14656
14657 14658
14659 14660
14661 14662
14663 14664
14665 14666
14667 14668
14669 14670
14671 14672
14673 14674
14675 14676
14677 14678
14679 14680
14681 14682
14683 14684
14685 14686
14687 14688
14689 14690
14691 14692
14693 14694
14695 14696
14697 14698
14699 14700
14701 14702
14703 14704
14705 14706
14707 14708
14709 14710
14711 14712
14713 14714
14715 14716
14717 14718
14719 14720
14721 14722
14723 14724
14725 14726
14727 14728
14729 14730
14731 14732
14733 14734
14735 14736
14737 14738
14739 14740
14741 14742
14743 14744
14745 14746
14747 14748
14749 14750
14751 14752
14753 14754
14755 14756
14757 14758
14759 14760
14761 14762
14763 14764
14765 14766
14767 14768
14769 14770
14771 14772
14773 14774
14775 14776
14777 14778
14779 14780
14781 14782
14783 14784
14785 14786
14787 14788
14789 14790
14791 14792
14793 14794
14795 14796
14797 14798
14799 14800
14801 14802
14803 14804
14805 14806
14807 14808
14809 14810
14811 14812
14813 14814
14815 14816
14817 14818
14819 14820
14821 14822
14823 14824
14825 14826
14827 14828
14829 14830
14831 14832
14833 14834
14835 14836
14837 14838
14839 14840
14841 14842
14843 14844
14845 14846
14847 14848
14849 14850
14851 14852
14853 14854
14855 14856
14857 14858
14859 14860
14861 14862
14863 14864
14865 14866
14867 14868
14869 14870
14871 14872
14873 14874
14875 14876
14877 14878
14879 14880
14881 14882
14883 14884
14885 14886
14887 14888
14889 14890
14891 14892
14893 14894
14895 14896
14897 14898
14899 14900
14901 14902
14903 14904
14905 14906
14907 14908
14909 14910
14911 14912
14913 14914
14915 14916
14917 14918
14919 14920
14921 14922
14923 14924
14925 14926
14927 14928
14929 14930
14931 14932
14933 14934
14935 14936
14937 14938
14939 14940
14941 14942
14943 14944
14945 14946
14947 14948
14949 14950
14951 14952
14953 14954
14955 14956
14957 14958
14959 14960
14961 14962
14963 14964
14965 14966
14967 14968
14969 14970
14971 14972
14973 14974
14975 14976
14977 14978
14979 14980
14981 14982
14983 14984
14985 14986
14987 14988
14989 14990
14991 14992
14993 14994
14995 14996
14997 14998
14999 15000
15001 15002
15003 15004
15005 15006
15007 15008
15009 15010
15011 15012
15013 15014
15015 15016
15017 15018
15019 15020
15021 15022
15023 15024
15025 15026
15027 15028
15029 15030
15031 15032
15033 15034
15035 15036
15037 15038
15039 15040
15041 15042
15043 15044
15045 15046
15047 15048
15049 15050
15051 15052
15053 15054
15055 15056
15057 15058
15059 15060
15061 15062
15063 15064
15065 15066
15067 15068
15069 15070
15071 15072
15073 15074
15075 15076
15077 15078
15079 15080
15081 15082
15083 15084
15085 15086
15087 15088
15089 15090
15091 15092
15093 15094
15095 15096
15097 15098
15099 15100
15101 15102
15103 15104
15105 15106
15107 15108
15109 15110
15111 15112
15113 15114
15115 15116
15117 15118
15119 15120
15121 15122
15123 15124
15125 15126
15127 15128
15129 15130
15131 15132
15133 15134
15135 15136
15137 15138
15139 15140
15141 15142
15143 15144
15145 15146
15147 15148
15149 15150
15151 15152
15153 15154
15155 15156
15157 15158
15159 15160
15161 15162
15163 15164
15165 15166
15167 15168
15169 15170
15171 15172
15173 15174
15175 15176
15177 15178
15179 15180
15181 15182
15183 15184
15185 15186
15187 15188
15189 15190
15191 15192
15193 15194
15195 15196
15197 15198
15199 15200
15201 15202
15203 15204
15205 15206
15207 15208
15209 15210
15211 15212
15213 15214
15215 15216
15217 15218
15219 15220
15221 15222
15223 15224
15225 15226
15227 15228
15229 15230
15231 15232
15233 15234
15235 15236
15237 15238
15239 15240
15241 15242
15243 15244
15245 15246
15247 15248
15249 15250
15251 15252
15253 15254
15255 15256
15257 15258
15259 15260
15261 15262
15263 15264
15265 15266
15267 15268
15269 15270
15271 15272
15273 15274
15275 15276
15277 15278
15279 15280
15281 15282
15283 15284
15285 15286
15287 15288
15289 15290
15291 15292
15293 15294
15295 15296
15297 15298
15299 15300
15301 15302
15303 15304
15305 15306
15307 15308
15309 15310
15311 15312
15313 15314
15315 15316
15317 15318
15319 15320
15321 15322
15323 15324
15325 15326
15327 15328
15329 15330
15331 15332
15333 15334
15335 15336
15337 15338
15339 15340
15341 15342
15343 15344
15345 15346
15347 15348
15349 15350
15351 15352
15353 15354
15355 15356
15357 15358
15359 15360
15361 15362
15363 15364
15365 15366
15367 15368
15369 15370
15371 15372
15373 15374
15375 15376
15377 15378
15379 15380
15381 15382
15383 15384
15385 15386
15387 15388
15389 15390
15391 15392
15393 15394
15395 15396
15397 15398
15399 15400
15401 15402
15403 15404
15405 15406
15407 15408
15409 15410
15411 15412
15413 15414
15415 15416
15417 15418
15419 15420
15421 15422
15423 15424
15425 15426
15427 15428
15429 15430
15431 15432
15433 15434
15435 15436
15437 15438
15439 15440
15441 15442
15443 15444
15445 15446
15447 15448
15449 15450
15451 15452
15453 15454
15455 15456
15457 15458
15459 15460
15461 15462
15463 15464
15465 15466
15467 15468
15469 15470
15471 15472
15473 15474
15475 15476
15477 15478
15479 15480
15481 15482
15483 15484
15485 15486
15487 15488
15489 15490
15491 15492
15493 15494
15495 15496
15497 15498
15499 15500
15501 15502
15503 15504
15505 15506
15507 15508
15509 15510
15511 15512
15513 15514
15515 15516
15517 15518
15519 15520
15521 15522
15523 15524
15525 15526
15527 15528
15529 15530
15531 15532
15533 15534
15535 15536
15537 15538
15539 15540
15541 15542
15543 15544
15545 15546
15547 15548
15549 15550
15551 15552
15553 15554
15555 15556
15557 15558
15559 15560
15561 15562
15563 15564
15565 15566
15567 15568
15569 15570
15571 15572
15573 15574
15575 15576
15577 15578
15579 15580
15581 15582
15583 15584
15585 15586
15587 15588
15589 15590
15591 15592
15593 15594
15595 15596
15597 15598
15599 15600
15601 15602
15603 15604
15605 15606
15607 15608
15609 15610
15611 15612
15613 15614
15615 15616
15617 15618
15619 15620
15621 15622
15623 15624
15625 15626
15627 15628
15629 15630
15631 15632
15633 15634
15635 15636
15637 15638
15639 15640
15641 15642
15643 15644
15645 15646
15647 15648
15649 15650
15651 15652
15653 15654
15655 15656
15657 15658
15659 15660
15661 15662
15663 15664
15665 15666
15667 15668
15669 15670
15671 15672
15673 15674
15675 15676
15677 15678
15679 15680
15681 15682
15683 15684
15685 15686
15687 15688
15689 15690
15691 15692
15693 15694
15695 15696
15697 15698
15699 15700
15701 15702
15703 15704
15705 15706
15707 15708
15709 15710
15711 15712
15713 15714
15715 15716
15717 15718
15719 15720
15721 15722
15723 15724
15725 15726
15727 15728
15729 15730
15731 15732
15733 15734
15735 15736
15737 15738
15739 15740
15741 15742
15743 15744
15745 15746
15747 15748
15749 15750
15751 15752
15753 15754
15755 15756
15757 15758
15759 15760
15761 15762
15763 15764
15765 15766
15767 15768
15769 15770
15771 15772
15773 15774
15775 15776
15777 15778
15779 15780
15781 15782
15783 15784
15785 15786
15787 15788
15789 15790
15791 15792
15793 15794
15795 15796
15797 15798
15799 15800
15801 15802
15803 15804
15805 15806
15807 15808
15809 15810
15811 15812
15813 15814
15815 15816
15817 15818
15819 15820
15821 15822
15823 15824
15825 15826
15827 15828
15829 15830
15831 15832
15833 15834
15835 15836
15837 15838
15839 15840
15841 15842
15843 15844
15845 15846
15847 15848
15849 15850
15851 15852
15853 15854
15855 15856
15857 15858
15859 15860
15861 15862
15863 15864
15865 15866
15867 15868
15869 15870
15871 15872
15873 15874
15875 15876
15877 15878
15879 15880
15881 15882
15883 15884
15885 15886
15887 15888
15889 15890
15891 15892
15893 15894
15895 15896
15897 15898
15899 15900
15901 15902
15903 15904
15905 15906
15907 15908
15909 15910
15911 15912
15913 15914
15915 15916
15917 15918
15919 15920
15921 15922
15923 15924
15925 15926
15927 15928
15929 15930
15931 15932
15933 15934
15935 15936
15937 15938
15939 15940
15941 15942
15943 15944
15945 15946
15947 15948
15949 15950
15951 15952
15953 15954
15955 15956
15957 15958
15959 15960
15961 15962
15963 15964
15965 15966
15967 15968
15969 15970
15971 15972
15973 15974
15975 15976
15977 15978
15979 15980
15981 15982
15983 15984
15985 15986
15987 15988
15989 15990
15991 15992
15993 15994
15995 15996
15997 15998
15999 16000
16001 16002
16003 16004
16005 16006
16007 16008
16009 16010
16011 16012
16013 16014
16015 16016
16017 16018
16019 16020
16021 16022
16023 16024
16025 16026
16027 16028
16029 16030
16031 16032
16033 16034
16035 16036
16037 16038
16039 16040
16041 16042
16043 16044
16045 16046
16047 16048
16049 16050
16051 16052
16053 16054
16055 16056
16057 16058
16059 16060
16061 16062
16063 16064
16065 16066
16067 16068
16069 16070
16071 16072
16073 16074
16075 16076
16077 16078
16079 16080
16081 16082
16083 16084
16085 16086
16087 16088
16089 16090
16091 16092
16093 16094
16095 16096
16097 16098
16099 16100
16101 16102
16103 16104
16105 16106
16107 16108
16109 16110
16111 16112
16113 16114
16115 16116
16117 16118
16119 16120
16121 16122
16123 16124
16125 16126
16127 16128
16129 16130
16131 16132
16133 16134
16135 16136
16137 16138
16139 16140
16141 16142
16143 16144
16145 16146
16147 16148
16149 16150
16151 16152
16153 16154
16155 16156
16157 16158
16159 16160
16161 16162
16163 16164
16165 16166
16167 16168
16169 16170
16171 16172
16173 16174
16175 16176
16177 16178
16179 16180
16181 16182
16183 16184
16185 16186
16187 16188
16189 16190
16191 16192
16193 16194
16195 16196
16197 16198
16199 16200
16201 16202
16203 16204
16205 16206
16207 16208
16209 16210
16211 16212
16213 16214
16215 16216
16217 16218
16219 16220
16221 16222
16223 16224
16225 16226
16227 16228
16229 16230
16231 16232
16233 16234
16235 16236
16237 16238
16239 16240
16241 16242
16243 16244
16245 16246
16247 16248
16249 16250
16251 16252
16253 16254
16255 16256
16257 16258
16259 16260
16261 16262
16263 16264
16265 16266
16267 16268
16269 16270
16271 16272
16273 16274
16275 16276
16277 16278
16279 16280
16281 16282
16283 16284
16285 16286
16287 16288
16289 16290
16291 16292
16293 16294
16295 16296
16297 16298
16299 16300
16301 16302
16303 16304
16305 16306
16307 16308
16309 16310
16311 16312
16313 16314
16315 16316
16317 16318
16319 16320
16321 16322
16323 16324
16325 16326
16327 16328
16329 16330
16331 16332
16333 16334
16335 16336
16337 16338
16339 16340
16341 16342
16343 16344
16345 16346
16347 16348
16349 16350
16351 16352
16353 16354
16355 16356
16357 16358
16359 16360
16361 16362
16363 16364
16365 16366
16367 16368
16369 16370
16371 16372
16373 16374
16375 16376
16377 16378
16379 16380
16381 16382
16383 16384
16385 16386
16387 16388
16389 16390
16391 16392
16393 16394
16395 16396
16397 16398
16399 16400
16401 16402
16403 16404
16405 16406
16407 16408
16409 16410
16411 16412
16413 16414
16415 16416
16417 16418
16419 16420
16421 16422
16423 16424
16425 16426
16427 16428
16429 16430
16431 16432
16433 16434
16435 16436
16437 16438
16439 16440
16441 16442
16443 16444
16445 16446
16447 16448
16449 16450
16451 16452
16453 16454
16455 16456
16457 16458
16459 16460
16461 16462
16463 16464
16465 16466
16467 16468
16469 16470
16471 16472
16473 16474
16475 16476
16477 16478
16479 16480
16481 16482
16483 16484
16485 16486
16487 16488
16489 16490
16491 16492
16493 16494
16495 16496
16497 16498
16499 16500
16501 16502
16503 16504
16505 16506
16507 16508
16509 16510
16511 16512
16513 16514
16515 16516
16517 16518
16519 16520
16521 16522
16523 16524
16525 16526
16527 16528
16529 16530
16531 16532
16533 16534
16535 16536
16537 16538
16539 16540
16541 16542
16543 16544
16545 16546
16547 16548
16549 16550
16551 16552
16553 16554
16555 16556
16557 16558
16559 16560
16561 16562
16563 16564
16565 16566
16567 16568
16569 16570
16571 16572
16573 16574
16575 16576
16577 16578
16579 16580
16581 16582
16583 16584
16585 16586
16587 16588
16589 16590
16591 16592
16593 16594
16595 16596
16597 16598
16599 16600
16601 16602
16603 16604
16605 16606
16607 16608
16609 16610
16611 16612
16613 16614
16615 16616
16617 16618
16619 16620
16621 16622
16623 16624
16625 16626
16627 16628
16629 16630
16631 16632
16633 16634
16635 16636
16637 16638
16639 16640
16641 16642
16643 16644
16645 16646
16647 16648
16649 16650
16651 16652
16653 16654
16655 16656
16657 16658
16659 16660
16661 16662
16663 16664
16665 16666
16667 16668
16669 16670
16671 16672
16673 16674
16675 16676
16677 16678
16679 16680
16681 16682
16683 16684
16685 16686
16687 16688
16689 16690
16691 16692
16693 16694
16695 16696
16697 16698
16699 16700
16701 16702
16703 16704
16705 16706
16707 16708
16709 16710
16711 16712
16713 16714
16715 16716
16717 16718
16719 16720
16721 16722
16723 16724
16725 16726
16727 16728
16729 16730
16731 16732
16733 16734
16735 16736
16737 16738
16739 16740
16741 16742
16743 16744
16745 16746
16747 16748
16749 16750
16751 16752
16753 16754
16755 16756
16757 16758
16759 16760
16761 16762
16763 16764
16765 16766
16767 16768
16769 16770
16771 16772
16773 16774
16775 16776
16777 16778
16779 16780
16781 16782
16783 16784
16785 16786
16787 16788
16789 16790
16791 16792
16793 16794
16795 16796
16797 16798
16799 16800
16801 16802
16803 16804
16805 16806
16807 16808
16809 16810
16811 16812
16813 16814
16815 16816
16817 16818
16819 16820
16821 16822
16823 16824
16825 16826
16827 16828
16829 16830
16831 16832
16833 16834
16835 16836
16837 16838
16839 16840
16841 16842
16843 16844
16845 16846
16847 16848
16849 16850
16851 16852
16853 16854
16855 16856
16857 16858
16859 16860
16861 16862
16863 16864
16865 16866
16867 16868
16869 16870
16871 16872
16873 16874
16875 16876
16877 16878
16879 16880
16881 16882
16883 16884
16885 16886
16887 16888
16889 16890
16891 16892
16893 16894
16895 16896
16897 16898
16899 16900
16901 16902
16903 16904
16905 16906
16907 16908
16909 16910
16911 16912
16913 16914
16915 16916
16917 16918
16919 16920
16921 16922
16923 16924
16925 16926
16927 16928
16929 16930
16931 16932
16933 16934
16935 16936
16937 16938
16939 16940
16941 16942
16943 16944
16945 16946
16947 16948
16949 16950
16951 16952
16953 16954
16955 16956
16957 16958
16959 16960
16961 16962
16963 16964
16965 16966
16967 16968
16969 16970
16971 16972
16973 16974
16975 16976
16977 16978
16979 16980
16981 16982
16983 16984
16985 16986
16987 16988
16989 16990
16991 16992
16993 16994
16995 16996
16997 16998
16999 17000
17001 17002
17003 17004
17005 17006
17007 17008
17009 17010
17011 17012
17013 17014
17015 17016
17017 17018
17019 17020
17021 17022
17023 17024
17025 17026
17027 17028
17029 17030
17031 17032
17033 17034
17035 17036
17037 17038
17039 17040
17041 17042
17043 17044
17045 17046
17047 17048
17049 17050
17051 17052
17053 17054
17055 17056
17057 17058
17059 17060
17061 17062
17063 17064
17065 17066
17067 17068
17069 17070
17071 17072
17073 17074
17075 17076
17077 17078
17079 17080
17081 17082
17083 17084
17085 17086
17087 17088
17089 17090
17091 17092
17093 17094
17095 17096
17097 17098
17099 17100
17101 17102
17103 17104
17105 17106
17107 17108
17109 17110
17111 17112
17113 17114
17115 17116
17117 17118
17119 17120
17121 17122
17123 17124
17125 17126
17127 17128
17129 17130
17131 17132
17133 17134
17135 17136
17137 17138
17139 17140
17141 17142
17143 17144
17145 17146
17147 17148
17149 17150
17151 17152
17153 17154
17155 17156
17157 17158
17159 17160
17161 17162
17163 17164
17165 17166
17167 17168
17169 17170
17171 17172
17173 17174
17175 17176
17177 17178
17179 17180
17181 17182
17183 17184
17185 17186
17187 17188
17189 17190
17191 17192
17193 17194
17195 17196
17197 17198
17199 17200
17201 17202
17203 17204
17205 17206
17207 17208
17209 17210
17211 17212
17213 17214
17215 17216
17217 17218
17219 17220
17221 17222
17223 17224
17225 17226
17227 17228
17229 17230
17231 17232
17233 17234
17235 17236
17237 17238
17239 17240
17241 17242
17243 17244
17245 17246
17247 17248
17249 17250
17251 17252
17253 17254
17255 17256
17257 17258
17259 17260
17261 17262
17263 17264
17265 17266
17267 17268
17269 17270
17271 17272
17273 17274
17275 17276
17277 17278
17279 17280
17281 17282
17283 17284
17285 17286
17287 17288
17289 17290
17291 17292
17293 17294
17295 17296
17297 17298
17299 17300
17301 17302
17303 17304
17305 17306
17307 17308
17309 17310
17311 17312
17313 17314
17315 17316
17317 17318
17319 17320
17321 17322
17323 17324
17325 17326
17327 17328
17329 17330
17331 17332
17333 17334
17335 17336
17337 17338
17339 17340
17341 17342
17343 17344
17345 17346
17347 17348
17349 17350
17351 17352
17353 17354
17355 17356
17357 17358
17359 17360
17361 17362
17363 17364
17365 17366
17367 17368
17369 17370
17371 17372
17373 17374
17375 17376
17377 17378
17379 17380
17381 17382
17383 17384
17385 17386
17387 17388
17389 17390
17391 17392
17393 17394
17395 17396
17397 17398
17399 17400
17401 17402
17403 17404
17405 17406
17407 17408
17409 17410
17411 17412
17413 17414
17415 17416
17417 17418
17419 17420
17421 17422
17423 17424
17425 17426
17427 17428
17429 17430
17431 17432
17433 17434
17435 17436
17437 17438
17439 17440
17441 17442
17443 17444
17445 17446
17447 17448
17449 17450
17451 17452
17453 17454
17455 17456
17457 17458
17459 17460
17461 17462
17463 17464
17465 17466
17467 17468
17469 17470
17471 17472
17473 17474
17475 17476
17477 17478
17479 17480
17481 17482
17483 17484
17485 17486
17487 17488
17489 17490
17491 17492
17493 17494
17495 17496
17497 17498
17499 17500
17501 17502
17503 17504
17505 17506
17507 17508
17509 17510
17511 17512
17513 17514
17515 17516
17517 17518
17519 17520
17521 17522
17523 17524
17525 17526
17527 17528
17529 17530
17531 17532
17533 17534
17535 17536
17537 17538
17539 17540
17541 17542
17543 17544
17545 17546
17547 17548
17549 17550
17551 17552
17553 17554
17555 17556
17557 17558
17559 17560
17561 17562
17563 17564
17565 17566
17567 17568
17569 17570
17571 17572
17573 17574
17575 17576
17577 17578
17579 17580
17581 17582
17583 17584
17585 17586
17587 17588
17589 17590
17591 17592
17593 17594
17595 17596
17597 17598
17599 17600
17601 17602
17603 17604
17605 17606
17607 17608
17609 17610
17611 17612
17613 17614
17615 17616
17617 17618
17619 17620
17621 17622
17623 17624
17625 17626
17627 17628
17629 17630
17631 17632
17633 17634
17635 17636
17637 17638
17639 17640
17641 17642
17643 17644
17645 17646
17647 17648
17649 17650
17651 17652
17653 17654
17655 17656
17657 17658
17659 17660
17661 17662
17663 17664
17665 17666
17667 17668
17669 17670
17671 17672
17673 17674
17675 17676
17677 17678
17679 17680
17681 17682
17683 17684
17685 17686
17687 17688
17689 17690
17691 17692
17693 17694
17695 17696
17697 17698
17699 17700
17701 17702
17703 17704
17705 17706
17707 17708
17709 17710
17711 17712
17713 17714
17715 17716
17717 17718
17719 17720
17721 17722
17723 17724
17725 17726
17727 17728
17729 17730
17731 17732
17733 17734
17735 17736
17737 17738
17739 17740
17741 17742
17743 17744
17745 17746
17747 17748
17749 17750
17751 17752
17753 17754
17755 17756
17757 17758
17759 17760
17761 17762
17763 17764
17765 17766
17767 17768
17769 17770
17771 17772
17773 17774
17775 17776
17777 17778
17779 17780
17781 17782
17783 17784
17785 17786
17787 17788
17789 17790
17791 17792
17793 17794
17795 17796
17797 17798
17799 17800
17801 17802
17803 17804
17805 17806
17807 17808
17809 17810
17811 17812
17813 17814
17815 17816
17817 17818
17819 17820
17821 17822
17823 17824
17825 17826
17827 17828
17829 17830
17831 17832
17833 17834
17835 17836
17837 17838
17839 17840
17841 17842
17843 17844
17845 17846
17847 17848
17849 17850
17851 17852
17853 17854
17855 17856
17857 17858
17859 17860
17861 17862
17863 17864
17865 17866
17867 17868
17869 17870
17871 17872
17873 17874
17875 17876
17877 17878
17879 17880
17881 17882
17883 17884
17885 17886
17887 17888
17889 17890
17891 17892
17893 17894
17895 17896
17897 17898
17899 17900
17901 17902
17903 17904
17905 17906
17907 17908
17909 17910
17911 17912
17913 17914
17915 17916
17917 17918
17919 17920
17921 17922
17923 17924
17925 17926
17927 17928
17929 17930
17931 17932
17933 17934
17935 17936
17937 17938
17939 17940
17941 17942
17943 17944
17945 17946
17947 17948
17949 17950
17951 17952
17953 17954
17955 17956
17957 17958
17959 17960
17961 17962
17963 17964
17965 17966
17967 17968
17969 17970
17971 17972
17973 17974
17975 17976
17977 17978
17979 17980
17981 17982
17983 17984
17985 17986
17987 17988
17989 17990
17991 17992
17993 17994
17995 17996
17997 17998
17999 18000
18001 18002
18003 18004
18005 18006
18007 18008
18009 18010
18011 18012
18013 18014
18015 18016
18017 18018
18019 18020
18021 18022
18023 18024
18025 18026
18027 18028
18029 18030
18031 18032
18033 18034
18035 18036
18037 18038
18039 18040
18041 18042
18043 18044
18045 18046
18047 18048
18049 18050
18051 18052
18053 18054
18055 18056
18057 18058
18059 18060
18061 18062
18063 18064
18065 18066
18067 18068
18069 18070
18071 18072
18073 18074
18075 18076
18077 18078
18079 18080
18081 18082
18083 18084
18085 18086
18087 18088
18089 18090
18091 18092
18093 18094
18095 18096
18097 18098
18099 18100
18101 18102
18103 18104
18105 18106
18107 18108
18109 18110
18111 18112
18113 18114
18115 18116
18117 18118
18119 18120
18121 18122
18123 18124
18125 18126
18127 18128
18129 18130
18131 18132
18133 18134
18135 18136
18137 18138
18139 18140
18141 18142
18143 18144
18145 18146
18147 18148
18149 18150
18151 18152
18153 18154
18155 18156
18157 18158
18159 18160
18161 18162
18163 18164
18165 18166
18167 18168
18169 18170
18171 18172
18173 18174
18175 18176
18177 18178
18179 18180
18181 18182
18183 18184
18185 18186
18187 18188
18189 18190
18191 18192
18193 18194
18195 18196
18197 18198
18199 18200
18201 18202
18203 18204
18205 18206
18207 18208
18209 18210
18211 18212
18213 18214
18215 18216
18217 18218
18219 18220
18221 18222
18223 18224
18225 18226
18227 18228
18229 18230
18231 18232
18233 18234
18235 18236
18237 18238
18239 18240
18241 18242
18243 18244
18245 18246
18247 18248
18249 18250
18251 18252
18253 18254
18255 18256
18257 18258
18259 18260
18261 18262
18263 18264
18265 18266
18267 18268
18269 18270
18271 18272
18273 18274
18275 18276
18277 18278
18279 18280
18281 18282
18283 18284
18285 18286
18287 18288
18289 18290
18291 18292
18293 18294
18295 18296
18297 18298
18299 18300
18301 18302
18303 18304
18305 18306
18307 18308
18309 18310
18311 18312
18313 18314
18315 18316
18317 18318
18319 18320
18321 18322
18323 18324
18325 18326
18327 18328
18329 18330
18331 18332
18333 18334
18335 18336
18337 18338
18339 18340
18341 18342
18343 18344
18345 18346
18347 18348
18349 18350
18351 18352
18353 18354
18355 18356
18357 18358
18359 18360
18361 18362
18363 18364
18365 18366
18367 18368
18369 18370
18371 18372
18373 18374
18375 18376
18377 18378
18379 18380
18381 18382
18383 18384
18385 18386
18387 18388
18389 18390
18391 18392
18393 18394
18395 18396
18397 18398
18399 18400
18401 18402
18403 18404
18405 18406
18407 18408
18409 18410
18411 18412
18413 18414
18415 18416
18417 18418
18419 18420
18421 18422
18423 18424
18425 18426
18427 18428
18429 18430
18431 18432
18433 18434
18435 18436
18437 18438
18439 18440
18441 18442
18443 18444
18445 18446
18447 18448
18449 18450
18451 18452
18453 18454
18455 18456
18457 18458
18459 18460
18461 18462
18463 18464
18465 18466
18467 18468
18469 18470
18471 18472
18473 18474
18475 18476
18477 18478
18479 18480
18481 18482
18483 18484
18485 18486
18487 18488
18489 18490
18491 18492
18493 18494
18495 18496
18497 18498
18499 18500
18501 18502
18503 18504
18505 18506
18507 18508
18509 18510
18511 18512
18513 18514
18515 18516
18517 18518
18519 18520
18521 18522
18523 18524
18525 18526
18527 18528
18529 18530
18531 18532
18533 18534
18535 18536
18537 18538
18539 18540
18541 18542
18543 18544
18545 18546
18547 18548
18549 18550
18551 18552
18553 18554
18555 18556
18557 18558
18559 18560
18561 18562
18563 18564
18565 18566
18567 18568
18569 18570
18571 18572
18573 18574
18575 18576
18577 18578
18579 18580
18581 18582
18583 18584
18585 18586
18587 18588
18589 18590
18591 18592
18593 18594
18595 18596
18597 18598
18599 18600
18601 18602
18603 18604
18605 18606
18607 18608
18609 18610
18611 18612
18613 18614
18615 18616
18617 18618
18619 18620
18621 18622
18623 18624
18625 18626
18627 18628
18629 18630
18631 18632
18633 18634
18635 18636
18637 18638
18639 18640
18641 18642
18643 18644
18645 18646
18647 18648
18649 18650
18651 18652
18653 18654
18655 18656
18657 18658
18659 18660
18661 18662
18663 18664
18665 18666
18667 18668
18669 18670
18671 18672
18673 18674
18675 18676
18677 18678
18679 18680
18681 18682
18683 18684
18685 18686
18687 18688
18689 18690
18691 18692
18693 18694
18695 18696
18697 18698
18699 18700
18701 18702
18703 18704
18705 18706
18707 18708
18709 18710
18711 18712
18713 18714
18715 18716
18717 18718
18719 18720
18721 18722
18723 18724
18725 18726
18727 18728
18729 18730
18731 18732
18733 18734
18735 18736
18737 18738
18739 18740
18741 18742
18743 18744
18745 18746
18747 18748
18749 18750
18751 18752
18753 18754
18755 18756
18757 18758
18759 18760
18761 18762
18763 18764
18765 18766
18767 18768
18769 18770
18771 18772
18773 18774
18775 18776
18777 18778
18779 18780
18781 18782
18783 18784
18785 18786
18787 18788
18789 18790
18791 18792
18793 18794
18795 18796
18797 18798
18799 18800
18801 18802
18803 18804
18805 18806
18807 18808
18809 18810
18811 18812
18813 18814
18815 18816
18817 18818
18819 18820
18821 18822
18823 18824
18825 18826
18827 18828
18829 18830
18831 18832
18833 18834
18835 18836
18837 18838
18839 18840
18841 18842
18843 18844
18845 18846
18847 18848
18849 18850
18851 18852
18853 18854
18855 18856
18857 18858
18859 18860
18861 18862
18863 18864
18865 18866
18867 18868
18869 18870
18871 18872
18873 18874
18875 18876
18877 18878
18879 18880
18881 18882
18883 18884
18885 18886
18887 18888
18889 18890
18891 18892
18893 18894
18895 18896
18897 18898
18899 18900
18901 18902
18903 18904
18905 18906
18907 18908
18909 18910
18911 18912
18913 18914
18915 18916
18917 18918
18919 18920
18921 18922
18923 18924
18925 18926
18927 18928
18929 18930
18931 18932
18933 18934
18935 18936
18937 18938
18939 18940
18941 18942
18943 18944
18945 18946
18947 18948
18949 18950
18951 18952
18953 18954
18955 18956
18957 18958
18959 18960
18961 18962
18963 18964
18965 18966
18967 18968
18969 18970
18971 18972
18973 18974
18975 18976
18977 18978
18979 18980
18981 18982
18983 18984
18985 18986
18987 18988
18989 18990
18991 18992
18993 18994
18995 18996
18997 18998
18999 19000
19001 19002
19003 19004
19005 19006
19007 19008
19009 19010
19011 19012
19013 19014
19015 19016
19017 19018
19019 19020
19021 19022
19023 19024
19025 19026
19027 19028
19029 19030
19031 19032
19033 19034
19035 19036
19037 19038
19039 19040
19041 19042
19043 19044
19045 19046
19047 19048
19049 19050
19051 19052
19053 19054
19055 19056
19057 19058
19059 19060
19061 19062
19063 19064
19065 19066
19067 19068
19069 19070
19071 19072
19073 19074
19075 19076
19077 19078
19079 19080
19081 19082
19083 19084
19085 19086
19087 19088
19089 19090
19091 19092
19093 19094
19095 19096
19097 19098
19099 19100
19101 19102
19103 19104
19105 19106
19107 19108
19109 19110
19111 19112
19113 19114
19115 19116
19117 19118
19119 19120
19121 19122
19123 19124
19125 19126
19127 19128
19129 19130
19131 19132
19133 19134
19135 19136
19137 19138
19139 19140
19141 19142
19143 19144
19145 19146
19147 19148
19149 19150
19151 19152
19153 19154
19155 19156
19157 19158
19159 19160
19161 19162
19163 19164
19165 19166
19167 19168
19169 19170
19171 19172
19173 19174
19175 19176
19177 19178
19179 19180
19181 19182
19183 19184
19185 19186
19187 19188
19189 19190
19191 19192
19193 19194
19195 19196
19197 19198
19199 19200
19201 19202
19203 19204
19205 19206
19207 19208
19209 19210
19211 19212
19213 19214
19215 19216
19217 19218
19219 19220
19221 19222
19223 19224
19225 19226
19227 19228
19229 19230
19231 19232
19233 19234
19235 19236
19237 19238
19239 19240
19241 19242
19243 19244
19245 19246
19247 19248
19249 19250
19251 19252
19253 19254
19255 19256
19257 19258
19259 19260
19261 19262
19263 19264
19265 19266
19267 19268
19269 19270
19271 19272
19273 19274
19275 19276
19277 19278
19279 19280
19281 19282
19283 19284
19285 19286
19287 19288
19289 19290
19291 19292
19293 19294
19295 19296
19297 19298
19299 19300
19301 19302
19303 19304
19305 19306
19307 19308
19309 19310
19311 19312
19313 19314
19315 19316
19317 19318
19319 19320
19321 19322
19323 19324
19325 19326
19327 19328
19329 19330
19331 19332
19333 19334
19335 19336
19337 19338
19339 19340
19341 19342
19343 19344
19345 19346
19347 19348
19349 19350
19351 19352
19353 19354
19355 19356
19357 19358
19359 19360
19361 19362
19363 19364
19365 19366
19367 19368
19369 19370
19371 19372
19373 19374
19375 19376
19377 19378
19379 19380
19381 19382
19383 19384
19385 19386
19387 19388
19389 19390
19391 19392
19393 19394
19395 19396
19397 19398
19399 19400
19401 19402
19403 19404
19405 19406
19407 19408
19409 19410
19411 19412
19413 19414
19415 19416
19417 19418
19419 19420
19421 19422
19423 19424
19425 19426
19427 19428
19429 19430
19431 19432
19433 19434
19435 19436
19437 19438
19439 19440
19441 19442
19443 19444
19445 19446
19447 19448
19449 19450
19451 19452
19453 19454
19455 19456
19457 19458
19459 19460
19461 19462
19463 19464
19465 19466
19467 19468
19469 19470
19471 19472
19473 19474
19475 19476
19477 19478
19479 19480
19481 19482
19483 19484
19485 19486
19487 19488
19489 19490
19491 19492
19493 19494
19495 19496
19497 19498
19499 19500
19501 19502
19503 19504
19505 19506
19507 19508
19509 19510
19511 19512
19513 19514
19515 19516
19517 19518
19519 19520
19521 19522
19523 19524
19525 19526
19527 19528
19529 19530
19531 19532
19533 19534
19535 19536
19537 19538
19539 19540
19541 19542
19543 19544
19545 19546
19547 19548
19549 19550
19551 19552
19553 19554
19555 19556
19557 19558
19559 19560
19561 19562
19563 19564
19565 19566
19567 19568
19569 19570
19571 19572
19573 19574
19575 19576
19577 19578
19579 19580
19581 19582
19583 19584
19585 19586
19587 19588
19589 19590
19591 19592
19593 19594
19595 19596
19597 19598
19599 19600
19601 19602
19603 19604
19605 19606
19607 19608
19609 19610
19611 19612
19613 19614
19615 19616
19617 19618
19619 19620
19621 19622
19623 19624
19625 19626
19627 19628
19629 19630
19631 19632
19633 19634
19635 19636
19637 19638
19639 19640
19641 19642
19643 19644
19645 19646
19647 19648
19649 19650
19651 19652
19653 19654
19655 19656
19657 19658
19659 19660
19661 19662
19663 19664
19665 19666
19667 19668
19669 19670
19671 19672
19673 19674
19675 19676
19677 19678
19679 19680
19681 19682
19683 19684
19685 19686
19687 19688
19689 19690
19691 19692
19693 19694
19695 19696
19697 19698
19699 19700
19701 19702
19703 19704
19705 19706
19707 19708
19709 19710
19711 19712
19713 19714
19715 19716
19717 19718
19719 19720
19721 19722
19723 19724
19725 19726
19727 19728
19729 19730
19731 19732
19733 19734
19735 19736
19737 19738
19739 19740
19741 19742
19743 19744
19745 19746
19747 19748
19749 19750
19751 19752
19753 19754
19755 19756
19757 19758
19759 19760
19761 19762
19763 19764
19765 19766
19767 19768
19769 19770
19771 19772
19773 19774
19775 19776
19777 19778
19779 19780
19781 19782
19783 19784
19785 19786
19787 19788
19789 19790
19791 19792
19793 19794
19795 19796
19797 19798
19799 19800
19801 19802
19803 19804
19805 19806
19807 19808
19809 19810
19811 19812
19813 19814
19815 19816
19817 19818
19819 19820
19821 19822
19823 19824
19825 19826
19827 19828
19829 19830
19831 19832
19833 19834
19835 19836
19837 19838
19839 19840
19841 19842
19843 19844
19845 19846
19847 19848
19849 19850
19851 19852
19853 19854
19855 19856
19857 19858
19859 19860
19861 19862
19863 19864
19865 19866
19867 19868
19869 19870
19871 19872
19873 19874
19875 19876
19877 19878
19879 19880
19881 19882
19883 19884
19885 19886
19887 19888
19889 19890
19891 19892
19893 19894
19895 19896
19897 19898
19899 19900
19901 19902
19903 19904
19905 19906
19907 19908
19909 19910
19911 19912
19913 19914
19915 19916
19917 19918
19919 19920
19921 19922
19923 19924
19925 19926
19927 19928
19929 19930
19931 19932
19933 19934
19935 19936
19937 19938
19939 19940
19941 19942
19943 19944
19945 19946
19947 19948
19949 19950
19951 19952
19953 19954
19955 19956
19957 19958
19959 19960
19961 19962
19963 19964
19965 19966
19967 19968
19969 19970
19971 19972
19973 19974
19975 19976
19977 19978
19979 19980
19981 19982
19983 19984
19985 19986
19987 19988
19989 19990
19991 19992
19993 19994
19995 19996
19997 19998
19999 20000
20001 20002
20003 20004
20005 20006
20007 20008
20009 20010
20011 20012
20013 20014
20015 20016
20017 20018
20019 20020
20021 20022
20023 20024
20025 20026
20027 20028
20029 20030
20031 20032
20033 20034
20035 20036
20037 20038
20039 20040
20041 20042
20043 20044
20045 20046
20047 20048
20049 20050
20051 20052
20053 20054
20055 20056
20057 20058
20059 20060
20061 20062
20063 20064
20065 20066
20067 20068
20069 20070
20071 20072
20073 20074
20075 20076
20077 20078
20079 20080
20081 20082
20083 20084
20085 20086
20087 20088
20089 20090
20091 20092
20093 20094
20095 20096
20097 20098
20099 20100
20101 20102
20103 20104
20105 20106
20107 20108
20109 20110
20111 20112
20113 20114
20115 20116
20117 20118
20119 20120
20121 20122
20123 20124
20125 20126
20127 20128
20129 20130
20131 20132
20133 20134
20135 20136
20137 20138
20139 20140
20141 20142
20143 20144
20145 20146
20147 20148
20149 20150
20151 20152
20153 20154
20155 20156
20157 20158
20159 20160
20161 20162
20163 20164
20165 20166
20167 20168
20169 20170
20171 20172
20173 20174
20175 20176
20177 20178
20179 20180
20181 20182
20183 20184
20185 20186
20187 20188
20189 20190
20191 20192
20193 20194
20195 20196
20197 20198
20199 20200
20201 20202
20203 20204
20205 20206
20207 20208
20209 20210
20211 20212
20213 20214
20215 20216
20217 20218
20219 20220
20221 20222
20223 20224
20225 20226
20227 20228
20229 20230
20231 20232
20233 20234
20235 20236
20237 20238
20239 20240
20241 20242
20243 20244
20245 20246
20247 20248
20249 20250
20251 20252
20253 20254
20255 20256
20257 20258
20259 20260
20261 20262
20263 20264
20265 20266
20267 20268
20269 20270
20271 20272
20273 20274
20275 20276
20277 20278
20279 20280
20281 20282
20283 20284
20285 20286
20287 20288
20289 20290
20291 20292
20293 20294
20295 20296
20297 20298
20299 20300
20301 20302
20303 20304
20305 20306
20307 20308
20309 20310
20311 20312
20313 20314
20315 20316
20317 20318
20319 20320
20321 20322
20323 20324
20325 20326
20327 20328
20329 20330
20331 20332
20333 20334
20335 20336
20337 20338
20339 20340
20341 20342
20343 20344
20345 20346
20347 20348
20349 20350
20351 20352
20353 20354
20355 20356
20357 20358
20359 20360
20361 20362
20363 20364
20365 20366
20367 20368
20369 20370
20371 20372
20373 20374
20375 20376
20377 20378
20379 20380
20381 20382
20383 20384
20385 20386
20387 20388
20389 20390
20391 20392
20393 20394
20395 20396
20397 20398
20399 20400
20401 20402
20403 20404
20405 20406
20407 20408
20409 20410
20411 20412
20413 20414
20415 20416
20417 20418
20419 20420
20421 20422
20423 20424
20425 20426
20427 20428
20429 20430
20431 20432
20433 20434
20435 20436
20437 20438
20439 20440
20441 20442
20443 20444
20445 20446
20447 20448
20449 20450
20451 20452
20453 20454
20455 20456
20457 20458
20459 20460
20461 20462
20463 20464
20465 20466
20467 20468
20469 20470
20471 20472
20473 20474
20475 20476
20477 20478
20479 20480
20481 20482
20483 20484
20485 20486
20487 20488
20489 20490
20491 20492
20493 20494
20495 20496
20497 20498
20499 20500
20501 20502
20503 20504
20505 20506
20507 20508
20509 20510
20511 20512
20513 20514
20515 20516
20517 20518
20519 20520
20521 20522
20523 20524
20525 20526
20527 20528
20529 20530
20531 20532
20533 20534
20535 20536
20537 20538
20539 20540
20541 20542
20543 20544
20545 20546
20547 20548
20549 20550
20551 20552
20553 20554
20555 20556
20557 20558
20559 20560
20561 20562
20563 20564
20565 20566
20567 20568
20569 20570
20571 20572
20573 20574
20575 20576
20577 20578
20579 20580
20581 20582
20583 20584
20585 20586
20587 20588
20589 20590
20591 20592
20593 20594
20595 20596
20597 20598
20599 20600
20601 20602
20603 20604
20605 20606
20607 20608
20609 20610
20611 20612
20613 20614
20615 20616
20617 20618
20619 20620
20621 20622
20623 20624
20625 20626
20627 20628
20629 20630
20631 20632
20633 20634
20635 20636
20637 20638
20639 20640
20641 20642
20643 20644
20645 20646
20647 20648
20649 20650
20651 20652
20653 20654
20655 20656
20657 20658
20659 20660
20661 20662
20663 20664
20665 20666
20667 20668
20669 20670
20671 20672
20673 20674
20675 20676
20677 20678
20679 20680
20681 20682
20683 20684
20685 20686
20687 20688
20689 20690
20691 20692
20693 20694
20695 20696
20697 20698
20699 20700
20701 20702
20703 20704
20705 20706
20707 20708
20709 20710
20711 20712
20713 20714
20715 20716
20717 20718
20719 20720
20721 20722
20723 20724
20725 20726
20727 20728
20729 20730
20731 20732
20733 20734
20735 20736
20737 20738
20739 20740
20741 20742
20743 20744
20745 20746
20747 20748
20749 20750
20751 20752
20753 20754
20755 20756
20757 20758
20759 20760
20761 20762
20763 20764
20765 20766
20767 20768
20769 20770
20771 20772
20773 20774
20775 20776
20777 20778
20779 20780
20781 20782
20783 20784
20785 20786
20787 20788
20789 20790
20791 20792
20793 20794
20795 20796
20797 20798
20799 20800
20801 20802
20803 20804
20805 20806
20807 20808
20809 20810
20811 20812
20813 20814
20815 20816
20817 20818
20819 20820
20821 20822
20823 20824
20825 20826
20827 20828
20829 20830
20831 20832
20833 20834
20835 20836
20837 20838
20839 20840
20841 20842
20843 20844
20845 20846
20847 20848
20849 20850
20851 20852
20853 20854
20855 20856
20857 20858
20859 20860
20861 20862
20863 20864
20865 20866
20867 20868
20869 20870
20871 20872
20873 20874
20875 20876
20877 20878
20879 20880
20881 20882
20883 20884
20885 20886
20887 20888
20889 20890
20891 20892
20893 20894
20895 20896
20897 20898
20899 20900
20901 20902
20903 20904
20905 20906
20907 20908
20909 20910
20911 20912
20913 20914
20915 20916
20917 20918
20919 20920
20921 20922
20923 20924
20925 20926
20927 20928
20929 20930
20931 20932
20933 20934
20935 20936
20937 20938
20939 20940
20941 20942
20943 20944
20945 20946
20947 20948
20949 20950
20951 20952
20953 20954
20955 20956
20957 20958
20959 20960
20961 20962
20963 20964
20965 20966
20967 20968
20969 20970
20971 20972
20973 20974
20975 20976
20977 20978
20979 20980
20981 20982
20983 20984
20985 20986
20987 20988
20989 20990
20991 20992
20993 20994
20995 20996
20997 20998
20999 21000
21001 21002
21003 21004
21005 21006
21007 21008
21009 21010
21011 21012
21013 21014
21015 21016
21017 21018
21019 21020
21021 21022
21023 21024
21025 21026
21027 21028
21029 21030
21031 21032
21033 21034
21035 21036
21037 21038
21039 21040
21041 21042
21043 21044
21045 21046
21047 21048
21049 21050
21051 21052
21053 21054
21055 21056
21057 21058
21059 21060
21061 21062
21063 21064
21065 21066
21067 21068
21069 21070
21071 21072
21073 21074
21075 21076
21077 21078
21079 21080
21081 21082
21083 21084
21085 21086
21087 21088
21089 21090
21091 21092
21093 21094
21095 21096
21097 21098
21099 21100
21101 21102
21103 21104
21105 21106
21107 21108
21109 21110
21111 21112
21113 21114
21115 21116
21117 21118
21119 21120
21121 21122
21123 21124
21125 21126
21127 21128
21129 21130
21131 21132
21133 21134
21135 21136
21137 21138
21139 21140
21141 21142
21143 21144
21145 21146
21147 21148
21149 21150
21151 21152
21153 21154
21155 21156
21157 21158
21159 21160
21161 21162
21163 21164
21165 21166
21167 21168
21169 21170
21171 21172
21173 21174
21175 21176
21177 21178
21179 21180
21181 21182
21183 21184
21185 21186
21187 21188
21189 21190
21191 21192
21193 21194
21195 21196
21197 21198
21199 21200
21201 21202
21203 21204
21205 21206
21207 21208
21209 21210
21211 21212
21213 21214
21215 21216
21217 21218
21219 21220
21221 21222
21223 21224
21225 21226
21227 21228
21229 21230
21231 21232
21233 21234
21235 21236
21237 21238
21239 21240
21241 21242
21243 21244
21245 21246
21247 21248
21249 21250
21251 21252
21253 21254
21255 21256
21257 21258
21259 21260
21261 21262
21263 21264
21265 21266
21267 21268
21269 21270
21271 21272
21273 21274
21275 21276
21277 21278
21279 21280
21281 21282
21283 21284
21285 21286
21287 21288
21289 21290
21291 21292
21293 21294
21295 21296
21297 21298
21299 21300
21301 21302
21303 21304
21305 21306
21307 21308
21309 21310
21311 21312
21313 21314
21315 21316
21317 21318
21319 21320
21321 21322
21323 21324
21325 21326
21327 21328
21329 21330
21331 21332
21333 21334
21335 21336
21337 21338
21339 21340
21341 21342
21343 21344
21345 21346
21347 21348
21349 21350
21351 21352
21353 21354
21355 21356
21357 21358
21359 21360
21361 21362
21363 21364
21365 21366
21367 21368
21369 21370
21371 21372
21373 21374
21375 21376
21377 21378
21379 21380
21381 21382
21383 21384
21385 21386
21387 21388
21389 21390
21391 21392
21393 21394
21395 21396
21397 21398
21399 21400
21401 21402
21403 21404
21405 21406
21407 21408
21409 21410
21411 21412
21413 21414
21415 21416
21417 21418
21419 21420
21421 21422
21423 21424
21425 21426
21427 21428
21429 21430
21431 21432
21433 21434
21435 21436
21437 21438
21439 21440
21441 21442
21443 21444
21445 21446
21447 21448
21449 21450
21451 21452
21453 21454
21455 21456
21457 21458
21459 21460
21461 21462
21463 21464
21465 21466
21467 21468
21469 21470
21471 21472
21473 21474
21475 21476
21477 21478
21479 21480
21481 21482
21483 21484
21485 21486
21487 21488
21489 21490
21491 21492
21493 21494
21495 21496
21497 21498
21499 21500
21501 21502
21503 21504
21505 21506
21507 21508
21509 21510
21511 21512
21513 21514
21515 21516
21517 21518
21519 21520
21521 21522
21523 21524
21525 21526
21527 21528
21529 21530
21531 21532
21533 21534
21535 21536
21537 21538
21539 21540
21541 21542
21543 21544
21545 21546
21547 21548
21549 21550
21551 21552
21553 21554
21555 21556
21557 21558
21559 21560
21561 21562
21563 21564
21565 21566
21567 21568
21569 21570
21571 21572
21573 21574
21575 21576
21577 21578
21579 21580
21581 21582
21583 21584
21585 21586
21587 21588
21589 21590
21591 21592
21593 21594
21595 21596
21597 21598
21599 21600
21601 21602
21603 21604
21605 21606
21607 21608
21609 21610
21611 21612
21613 21614
21615 21616
21617 21618
21619 21620
21621 21622
21623 21624
21625 21626
21627 21628
21629 21630
21631 21632
21633 21634
21635 21636
21637 21638
21639 21640
21641 21642
21643 21644
21645 21646
21647 21648
21649 21650
21651 21652
21653 21654
21655 21656
21657 21658
21659 21660
21661 21662
21663 21664
21665 21666
21667 21668
21669 21670
21671 21672
21673 21674
21675 21676
21677 21678
21679 21680
21681 21682
21683 21684
21685 21686
21687 21688
21689 21690
21691 21692
21693 21694
21695 21696
21697 21698
21699 21700
21701 21702
21703 21704
21705 21706
21707 21708
21709 21710
21711 21712
21713 21714
21715 21716
21717 21718
21719 21720
21721 21722
21723 21724
21725 21726
21727 21728
21729 21730
21731 21732
21733 21734
21735 21736
21737 21738
21739 21740
21741 21742
21743 21744
21745 21746
21747 21748
21749 21750
21751 21752
21753 21754
21755 21756
21757 21758
21759 21760
21761 21762
21763 21764
21765 21766
21767 21768
21769 21770
21771 21772
21773 21774
21775 21776
21777 21778
21779 21780
21781 21782
21783 21784
21785 21786
21787 21788
21789 21790
21791 21792
21793 21794
21795 21796
21797 21798
21799 21800
21801 21802
21803 21804
21805 21806
21807 21808
21809 21810
21811 21812
21813 21814
21815 21816
21817 21818
21819 21820
21821 21822
21823 21824
21825 21826
21827 21828
21829 21830
21831 21832
21833 21834
21835 21836
21837 21838
21839 21840
21841 21842
21843 21844
21845 21846
21847 21848
21849 21850
21851 21852
21853 21854
21855 21856
21857 21858
21859 21860
21861 21862
21863 21864
21865 21866
21867 21868
21869 21870
21871 21872
21873 21874
21875 21876
21877 21878
21879 21880
21881 21882
21883 21884
21885 21886
21887 21888
21889 21890
21891 21892
21893 21894
21895 21896
21897 21898
21899 21900
21901 21902
21903 21904
21905 21906
21907 21908
21909 21910
21911 21912
21913 21914
21915 21916
21917 21918
21919 21920
21921 21922
21923 21924
21925 21926
21927 21928
21929 21930
21931 21932
21933 21934
21935 21936
21937 21938
21939 21940
21941 21942
21943 21944
21945 21946
21947 21948
21949 21950
21951 21952
21953 21954
21955 21956
21957 21958
21959 21960
21961 21962
21963 21964
21965 21966
21967 21968
21969 21970
21971 21972
21973 21974
21975 21976
21977 21978
21979 21980
21981 21982
21983 21984
21985 21986
21987 21988
21989 21990
21991 21992
21993 21994
21995 21996
21997 21998
21999 22000
22001 22002
22003 22004
22005 22006
22007 22008
22009 22010
22011 22012
22013 22014
22015 22016
22017 22018
22019 22020
22021 22022
22023 22024
22025 22026
22027 22028
22029 22030
22031 22032
22033 22034
22035 22036
22037 22038
22039 22040
22041 22042
22043 22044
22045 22046
22047 22048
22049 22050
22051 22052
22053 22054
22055 22056
22057 22058
22059 22060
22061 22062
22063 22064
22065 22066
22067 22068
22069 22070
22071 22072
22073 22074
22075 22076
22077 22078
22079 22080
22081 22082
22083 22084
22085 22086
22087 22088
22089 22090
22091 22092
22093 22094
22095 22096
22097 22098
22099 22100
22101 22102
22103 22104
22105 22106
22107 22108
22109 22110
22111 22112
22113 22114
22115 22116
22117 22118
22119 22120
22121 22122
22123 22124
22125 22126
22127 22128
22129 22130
22131 22132
22133 22134
22135 22136
22137 22138
22139 22140
22141 22142
22143 22144
22145 22146
22147 22148
22149 22150
22151 22152
22153 22154
22155 22156
22157 22158
22159 22160
22161 22162
22163 22164
22165 22166
22167 22168
22169 22170
22171 22172
22173 22174
22175 22176
22177 22178
22179 22180
22181 22182
22183 22184
22185 22186
22187 22188
22189 22190
22191 22192
22193 22194
22195 22196
22197 22198
22199 22200
22201 22202
22203 22204
22205 22206
22207 22208
22209 22210
22211 22212
22213 22214
22215 22216
22217 22218
22219 22220
22221 22222
22223 22224
22225 22226
22227 22228
22229 22230
22231 22232
22233 22234
22235 22236
22237 22238
22239 22240
22241 22242
22243 22244
22245 22246
22247 22248
22249 22250
22251 22252
22253 22254
22255 22256
22257 22258
22259 22260
22261 22262
22263 22264
22265 22266
22267 22268
22269 22270
22271 22272
22273 22274
22275 22276
22277 22278
22279 22280
22281 22282
22283 22284
22285 22286
22287 22288
22289 22290
22291 22292
22293 22294
22295 22296
22297 22298
22299 22300
22301 22302
22303 22304
22305 22306
22307 22308
22309 22310
22311 22312
22313 22314
22315 22316
22317 22318
22319 22320
22321 22322
22323 22324
22325 22326
22327 22328
22329 22330
22331 22332
22333 22334
22335 22336
22337 22338
22339 22340
22341 22342
22343 22344
22345 22346
22347 22348
22349 22350
22351 22352
22353 22354
22355 22356
22357 22358
22359 22360
22361 22362
22363 22364
22365 22366
22367 22368
22369 22370
22371 22372
22373 22374
22375 22376
22377 22378
22379 22380
22381 22382
22383 22384
22385 22386
22387 22388
22389 22390
22391 22392
22393 22394
22395 22396
22397 22398
22399 22400
22401 22402
22403 22404
22405 22406
22407 22408
22409 22410
22411 22412
22413 22414
22415 22416
22417 22418
22419 22420
22421 22422
22423 22424
22425 22426
22427 22428
22429 22430
22431 22432
22433 22434
22435 22436
22437 22438
22439 22440
22441 22442
22443 22444
22445 22446
22447 22448
22449 22450
22451 22452
22453 22454
22455 22456
22457 22458
22459 22460
22461 22462
22463 22464
22465 22466
22467 22468
22469 22470
22471 22472
22473 22474
22475 22476
22477 22478
22479 22480
22481 22482
22483 22484
22485 22486
22487 22488
22489 22490
22491 22492
22493 22494
22495 22496
22497 22498
22499 22500
22501 22502
22503 22504
22505 22506
22507 22508
22509 22510
22511 22512
22513 22514
22515 22516
22517 22518
22519 22520
22521 22522
22523 22524
22525 22526
22527 22528
22529 22530
22531 22532
22533 22534
22535 22536
22537 22538
22539 22540
22541 22542
22543 22544
22545 22546
22547 22548
22549 22550
22551 22552
22553 22554
22555 22556
22557 22558
22559 22560
22561 22562
22563 22564
22565 22566
22567 22568
22569 22570
22571 22572
22573 22574
22575 22576
22577 22578
22579 22580
22581 22582
22583 22584
22585 22586
22587 22588
22589 22590
22591 22592
22593 22594
22595 22596
22597 22598
22599 22600
22601 22602
22603 22604
22605 22606
22607 22608
22609 22610
22611 22612
22613 22614
22615 22616
22617 22618
22619 22620
22621 22622
22623 22624
22625 22626
22627 22628
22629 22630
22631 22632
22633 22634
22635 22636
22637 22638
22639 22640
22641 22642
22643 22644
22645 22646
22647 22648
22649 22650
22651 22652
22653 22654
22655 22656
22657 22658
22659 22660
22661 22662
22663 22664
22665 22666
22667 22668
22669 22670
22671 22672
22673 22674
22675 22676
22677 22678
22679 22680
22681 22682
22683 22684
22685 22686
22687 22688
22689 22690
22691 22692
22693 22694
22695 22696
22697 22698
22699 22700
22701 22702
22703 22704
22705 22706
22707 22708
22709 22710
22711 22712
22713 22714
22715 22716
22717 22718
22719 22720
22721 22722
22723 22724
22725 22726
22727 22728
22729 22730
22731 22732
22733 22734
22735 22736
22737 22738
22739 22740
22741 22742
22743 22744
22745 22746
22747 22748
22749 22750
22751 22752
22753 22754
22755 22756
22757 22758
22759 22760
22761 22762
22763 22764
22765 22766
22767 22768
22769 22770
22771 22772
22773 22774
22775 22776
22777 22778
22779 22780
22781 22782
22783 22784
22785 22786
22787 22788
22789 22790
22791 22792
22793 22794
22795 22796
22797 22798
22799 22800
22801 22802
22803 22804
22805 22806
22807 22808
22809 22810
22811 22812
22813 22814
22815 22816
22817 22818
22819 22820
22821 22822
22823 22824
22825 22826
22827 22828
22829 22830
22831 22832
22833 22834
22835 22836
22837 22838
22839 22840
22841 22842
22843 22844
22845 22846
22847 22848
22849 22850
22851 22852
22853 22854
22855 22856
22857 22858
22859 22860
22861 22862
22863 22864
22865 22866
22867 22868
22869 22870
22871 22872
22873 22874
22875 22876
22877 22878
22879 22880
22881 22882
22883 22884
22885 22886
22887 22888
22889 22890
22891 22892
22893 22894
22895 22896
22897 22898
22899 22900
22901 22902
22903 22904
22905 22906
22907 22908
22909 22910
22911 22912
22913 22914
22915 22916
22917 22918
22919 22920
22921 22922
22923 22924
22925 22926
22927 22928
22929 22930
22931 22932
22933 22934
22935 22936
22937 22938
22939 22940
22941 22942
22943 22944
22945 22946
22947 22948
22949 22950
22951 22952
22953 22954
22955 22956
22957 22958
22959 22960
22961 22962
22963 22964
22965 22966
22967 22968
22969 22970
22971 22972
22973 22974
22975 22976
22977 22978
22979 22980
22981 22982
22983 22984
22985 22986
22987 22988
22989 22990
22991 22992
22993 22994
22995 22996
22997 22998
22999 23000
23001 23002
23003 23004
23005 23006
23007 23008
23009 23010
23011 23012
23013 23014
23015 23016
23017 23018
23019 23020
23021 23022
23023 23024
23025 23026
23027 23028
23029 23030
23031 23032
23033 23034
23035 23036
23037 23038
23039 23040
23041 23042
23043 23044
23045 23046
23047 23048
23049 23050
23051 23052
23053 23054
23055 23056
23057 23058
23059 23060
23061 23062
23063 23064
23065 23066
23067 23068
23069 23070
23071 23072
23073 23074
23075 23076
23077 23078
23079 23080
23081 23082
23083 23084
23085 23086
23087 23088
23089 23090
23091 23092
23093 23094
23095 23096
23097 23098
23099 23100
23101 23102
23103 23104
23105 23106
23107 23108
23109 23110
23111 23112
23113 23114
23115 23116
23117 23118
23119 23120
23121 23122
23123 23124
23125 23126
23127 23128
23129 23130
23131 23132
23133 23134
23135 23136
23137 23138
23139 23140
23141 23142
23143 23144
23145 23146
23147 23148
23149 23150
23151 23152
23153 23154
23155 23156
23157 23158
23159 23160
23161 23162
23163 23164
23165 23166
23167 23168
23169 23170
23171 23172
23173 23174
23175 23176
23177 23178
23179 23180
23181 23182
23183 23184
23185 23186
23187 23188
23189 23190
23191 23192
23193 23194
23195 23196
23197 23198
23199 23200
23201 23202
23203 23204
23205 23206
23207 23208
23209 23210
23211 23212
23213 23214
23215 23216
23217 23218
23219 23220
23221 23222
23223 23224
23225 23226
23227 23228
23229 23230
23231 23232
23233 23234
23235 23236
23237 23238
23239 23240
23241 23242
23243 23244
23245 23246
23247 23248
23249 23250
23251 23252
23253 23254
23255 23256
23257 23258
23259 23260
23261 23262
23263 23264
23265 23266
23267 23268
23269 23270
23271 23272
23273 23274
23275 23276
23277 23278
23279 23280
23281 23282
23283 23284
23285 23286
23287 23288
23289 23290
23291 23292
23293 23294
23295 23296
23297 23298
23299 23300
23301 23302
23303 23304
23305 23306
23307 23308
23309 23310
23311 23312
23313 23314
23315 23316
23317 23318
23319 23320
23321 23322
23323 23324
23325 23326
23327 23328
23329 23330
23331 23332
23333 23334
23335 23336
23337 23338
23339 23340
23341 23342
23343 23344
23345 23346
23347 23348
23349 23350
23351 23352
23353 23354
23355 23356
23357 23358
23359 23360
23361 23362
23363 23364
23365 23366
23367 23368
23369 23370
23371 23372
23373 23374
23375 23376
23377 23378
23379 23380
23381 23382
23383 23384
23385 23386
23387 23388
23389 23390
23391 23392
23393 23394
23395 23396
23397 23398
23399 23400
23401 23402
23403 23404
23405 23406
23407 23408
23409 23410
23411 23412
23413 23414
23415 23416
23417 23418
23419 23420
23421 23422
23423 23424
23425 23426
23427 23428
23429 23430
23431 23432
23433 23434
23435 23436
23437 23438
23439 23440
23441 23442
23443 23444
23445 23446
23447 23448
23449 23450
23451 23452
23453 23454
23455 23456
23457 23458
23459 23460
23461 23462
23463 23464
23465 23466
23467 23468
23469 23470
23471 23472
23473 23474
23475 23476
23477 23478
23479 23480
23481 23482
23483 23484
23485 23486
23487 23488
23489 23490
23491 23492
23493 23494
23495 23496
23497 23498
23499 23500
23501 23502
23503 23504
23505 23506
23507 23508
23509 23510
23511 23512
23513 23514
23515 23516
23517 23518
23519 23520
23521 23522
23523 23524
23525 23526
23527 23528
23529 23530
23531 23532
23533 23534
23535 23536
23537 23538
23539 23540
23541 23542
23543 23544
23545 23546
23547 23548
23549 23550
23551 23552
23553 23554
23555 23556
23557 23558
23559 23560
23561 23562
23563 23564
23565 23566
23567 23568
23569 23570
23571 23572
23573 23574
23575 23576
23577 23578
23579 23580
23581 23582
23583 23584
23585 23586
23587 23588
23589 23590
23591 23592
23593 23594
23595 23596
23597 23598
23599 23600
23601 23602
23603 23604
23605 23606
23607 23608
23609 23610
23611 23612
23613 23614
23615 23616
23617 23618
23619 23620
23621 23622
23623 23624
23625 23626
23627 23628
23629 23630
23631 23632
23633 23634
23635 23636
23637 23638
23639 23640
23641 23642
23643 23644
23645 23646
23647 23648
23649 23650
23651 23652
23653 23654
23655 23656
23657 23658
23659 23660
23661 23662
23663 23664
23665 23666
23667 23668
23669 23670
23671 23672
23673 23674
23675 23676
23677 23678
23679 23680
23681 23682
23683 23684
23685 23686
23687 23688
23689 23690
23691 23692
23693 23694
23695 23696
23697 23698
23699 23700
23701 23702
23703 23704
23705 23706
23707 23708
23709 23710
23711 23712
23713 23714
23715 23716
23717 23718
23719 23720
23721 23722
23723 23724
23725 23726
23727 23728
23729 23730
23731 23732
23733 23734
23735 23736
23737 23738
23739 23740
23741 23742
23743 23744
23745 23746
23747 23748
23749 23750
23751 23752
23753 23754
23755 23756
23757 23758
23759 23760
23761 23762
23763 23764
23765 23766
23767 23768
23769 23770
23771 23772
23773 23774
23775 23776
23777 23778
23779 23780
23781 23782
23783 23784
23785 23786
23787 23788
23789 23790
23791 23792
23793 23794
23795 23796
23797 23798
23799 23800
23801 23802
23803 23804
23805 23806
23807 23808
23809 23810
23811 23812
23813 23814
23815 23816
23817 23818
23819 23820
23821 23822
23823 23824
23825 23826
23827 23828
23829 23830
23831 23832
23833 23834
23835 23836
23837 23838
23839 23840
23841 23842
23843 23844
23845 23846
23847 23848
23849 23850
23851 23852
23853 23854
23855 23856
23857 23858
23859 23860
23861 23862
23863 23864
23865 23866
23867 23868
23869 23870
23871 23872
23873 23874
23875 23876
23877 23878
23879 23880
23881 23882
23883 23884
23885 23886
23887 23888
23889 23890
23891 23892
23893 23894
23895 23896
23897 23898
23899 23900
23901 23902
23903 23904
23905 23906
23907 23908
23909 23910
23911 23912
23913 23914
23915 23916
23917 23918
23919 23920
23921 23922
23923 23924
23925 23926
23927 23928
23929 23930
23931 23932
23933 23934
23935 23936
23937 23938
23939 23940
23941 23942
23943 23944
23945 23946
23947 23948
23949 23950
23951 23952
23953 23954
23955 23956
23957 23958
23959 23960
23961 23962
23963 23964
23965 23966
23967 23968
23969 23970
23971 23972
23973 23974
23975 23976
23977 23978
23979 23980
23981 23982
23983 23984
23985 23986
23987 23988
23989 23990
23991 23992
23993 23994
23995 23996
23997 23998
23999 24000
24001 24002
24003 24004
24005 24006
24007 24008
24009 24010
24011 24012
24013 24014
24015 24016
24017 24018
24019 24020
24021 24022
24023 24024
24025 24026
24027 24028
24029 24030
24031 24032
24033 24034
24035 24036
24037 24038
24039 24040
24041 24042
24043 24044
24045 24046
24047 24048
24049 24050
24051 24052
24053 24054
24055 24056
24057 24058
24059 24060
24061 24062
24063 24064
24065 24066
24067 24068
24069 24070
24071 24072
24073 24074
24075 24076
24077 24078
24079 24080
24081 24082
24083 24084
24085 24086
24087 24088
24089 24090
24091 24092
24093 24094
24095 24096
24097 24098
24099 24100
24101 24102
24103 24104
24105 24106
24107 24108
24109 24110
24111 24112
24113 24114
24115 24116
24117 24118
24119 24120
24121 24122
24123 24124
24125 24126
24127 24128
24129 24130
24131 24132
24133 24134
24135 24136
24137 24138
24139 24140
24141 24142
24143 24144
24145 24146
24147 24148
24149 24150
24151 24152
24153 24154
24155 24156
24157 24158
24159 24160
24161 24162
24163 24164
24165 24166
24167 24168
24169 24170
24171 24172
24173 24174
24175 24176
24177 24178
24179 24180
24181 24182
24183 24184
24185 24186
24187 24188
24189 24190
24191 24192
24193 24194
24195 24196
24197 24198
24199 24200
24201 24202
24203 24204
24205 24206
24207 24208
24209 24210
24211 24212
24213 24214
24215 24216
24217 24218
24219 24220
24221 24222
24223 24224
24225 24226
24227 24228
24229 24230
24231 24232
24233 24234
24235 24236
24237 24238
24239 24240
24241 24242
24243 24244
24245 24246
24247 24248
24249 24250
24251 24252
24253 24254
24255 24256
24257 24258
24259 24260
24261 24262
24263 24264
24265 24266
24267 24268
24269 24270
24271 24272
24273 24274
24275 24276
24277 24278
24279 24280
24281 24282
24283 24284
24285 24286
24287 24288
24289 24290
24291 24292
24293 24294
24295 24296
24297 24298
24299 24300
24301 24302
24303 24304
24305 24306
24307 24308
24309 24310
24311 24312
24313 24314
24315 24316
24317 24318
24319 24320
24321 24322
24323 24324
24325 24326
24327 24328
24329 24330
24331 24332
24333 24334
24335 24336
24337 24338
24339 24340
24341 24342
24343 24344
24345 24346
24347 24348
24349 24350
24351 24352
24353 24354
24355 24356
24357 24358
24359 24360
24361 24362
24363 24364
24365 24366
24367 24368
24369 24370
24371 24372
24373 24374
24375 24376
24377 24378
24379 24380
24381 24382
24383 24384
24385 24386
24387 24388
24389 24390
24391 24392
24393 24394
24395 24396
24397 24398
24399 24400
24401 24402
24403 24404
24405 24406
24407 24408
24409 24410
24411 24412
24413 24414
24415 24416
24417 24418
24419 24420
24421 24422
24423 24424
24425 24426
24427 24428
24429 24430
24431 24432
24433 24434
24435 24436
24437 24438
24439 24440
24441 24442
24443 24444
24445 24446
24447 24448
24449 24450
24451 24452
24453 24454
24455 24456
24457 24458
24459 24460
24461 24462
24463 24464
24465 24466
24467 24468
24469 24470
24471 24472
24473 24474
24475 24476
24477 24478
24479 24480
24481 24482
24483 24484
24485 24486
24487 24488
24489 24490
24491 24492
24493 24494
24495 24496
24497 24498
24499 24500
24501 24502
24503 24504
24505 24506
24507 24508
24509 24510
24511 24512
24513 24514
24515 24516
24517 24518
24519 24520
24521 24522
24523 24524
24525 24526
24527 24528
24529 24530
24531 24532
24533 24534
24535 24536
24537 24538
24539 24540
24541 24542
24543 24544
24545 24546
24547 24548
24549 24550
24551 24552
24553 24554
24555 24556
24557 24558
24559 24560
24561 24562
24563 24564
24565 24566
24567 24568
24569 24570
24571 24572
24573 24574
24575 24576
24577 24578
24579 24580
24581 24582
24583 24584
24585 24586
24587 24588
24589 24590
24591 24592
24593 24594
24595 24596
24597 24598
24599 24600
24601 24602
24603 24604
24605 24606
24607 24608
24609 24610
24611 24612
24613 24614
24615 24616
24617 24618
24619 24620
24621 24622
24623 24624
24625 24626
24627 24628
24629 24630
24631 24632
24633 24634
24635 24636
24637 24638
24639 24640
24641 24642
24643 24644
24645 24646
24647 24648
24649 24650
24651 24652
24653 24654
24655 24656
24657 24658
24659 24660
24661 24662
24663 24664
24665 24666
24667 24668
24669 24670
24671 24672
24673 24674
24675 24676
24677 24678
24679 24680
24681 24682
24683 24684
24685 24686
24687 24688
24689 24690
24691 24692
24693 24694
24695 24696
24697 24698
24699 24700
24701 24702
24703 24704
24705 24706
24707 24708
24709 24710
24711 24712
24713 24714
24715 24716
24717 24718
24719 24720
24721 24722
24723 24724
24725 24726
24727 24728
24729 24730
24731 24732
24733 24734
24735 24736
24737 24738
24739 24740
24741 24742
24743 24744
24745 24746
24747 24748
24749 24750
24751 24752
24753 24754
24755 24756
24757 24758
24759 24760
24761 24762
24763 24764
24765 24766
24767 24768
24769 24770
24771 24772
24773 24774
24775 24776
24777 24778
24779 24780
24781 24782
24783 24784
24785 24786
24787 24788
24789 24790
24791 24792
24793 24794
24795 24796
24797 24798
24799 24800
24801 24802
24803 24804
24805 24806
24807 24808
24809 24810
24811 24812
24813 24814
24815 24816
24817 24818
24819 24820
24821 24822
24823 24824
24825 24826
24827 24828
24829 24830
24831 24832
24833 24834
24835 24836
24837 24838
24839 24840
24841 24842
24843 24844
24845 24846
24847 24848
24849 24850
24851 24852
24853 24854
24855 24856
24857 24858
24859 24860
24861 24862
24863 24864
24865 24866
24867 24868
24869 24870
24871 24872
24873 24874
24875 24876
24877 24878
24879 24880
24881 24882
24883 24884
24885 24886
24887 24888
24889 24890
24891 24892
24893 24894
24895 24896
24897 24898
24899 24900
24901 24902
24903 24904
24905 24906
24907 24908
24909 24910
24911 24912
24913 24914
24915 24916
24917 24918
24919 24920
24921 24922
24923 24924
24925 24926
24927 24928
24929 24930
24931 24932
24933 24934
24935 24936
24937 24938
24939 24940
24941 24942
24943 24944
24945 24946
24947 24948
24949 24950
24951 24952
24953 24954
24955 24956
24957 24958
24959 24960
24961 24962
24963 24964
24965 24966
24967 24968
24969 24970
24971 24972
24973 24974
24975 24976
24977 24978
24979 24980
24981 24982
24983 24984
24985 24986
24987 24988
24989 24990
24991 24992
24993 24994
24995 24996
24997 24998
24999 25000
25001 25002
25003 25004
25005 25006
25007 25008
25009 25010
25011 25012
25013 25014
25015 25016
25017 25018
25019 25020
25021 25022
25023 25024
25025 25026
25027 25028
25029 25030
25031 25032
25033 25034
25035 25036
25037 25038
25039 25040
25041 25042
25043 25044
25045 25046
25047 25048
25049 25050
25051 25052
25053 25054
25055 25056
25057 25058
25059 25060
25061 25062
25063 25064
25065 25066
25067 25068
25069 25070
25071 25072
25073 25074
25075 25076
25077 25078
25079 25080
25081 25082
25083 25084
25085 25086
25087 25088
25089 25090
25091 25092
25093 25094
25095 25096
25097 25098
25099 25100
25101 25102
25103 25104
25105 25106
25107 25108
25109 25110
25111 25112
25113 25114
25115 25116
25117 25118
25119 25120
25121 25122
25123 25124
25125 25126
25127 25128
25129 25130
25131 25132
25133 25134
25135 25136
25137 25138
25139 25140
25141 25142
25143 25144
25145 25146
25147 25148
25149 25150
25151 25152
25153 25154
25155 25156
25157 25158
25159 25160
25161 25162
25163 25164
25165 25166
25167 25168
25169 25170
25171 25172
25173 25174
25175 25176
25177 25178
25179 25180
25181 25182
25183 25184
25185 25186
25187 25188
25189 25190
25191 25192
25193 25194
25195 25196
25197 25198
25199 25200
25201 25202
25203 25204
25205 25206
25207 25208
25209 25210
25211 25212
25213 25214
25215 25216
25217 25218
25219 25220
25221 25222
25223 25224
25225 25226
25227 25228
25229 25230
25231 25232
25233 25234
25235 25236
25237 25238
25239 25240
25241 25242
25243 25244
25245 25246
25247 25248
25249 25250
25251 25252
25253 25254
25255 25256
25257 25258
25259 25260
25261 25262
25263 25264
25265 25266
25267 25268
25269 25270
25271 25272
25273 25274
25275 25276
25277 25278
25279 25280
25281 25282
25283 25284
25285 25286
25287 25288
25289 25290
25291 25292
25293 25294
25295 25296
25297 25298
25299 25300
25301 25302
25303 25304
25305 25306
25307 25308
25309 25310
25311 25312
25313 25314
25315 25316
25317 25318
25319 25320
25321 25322
25323 25324
25325 25326
25327 25328
25329 25330
25331 25332
25333 25334
25335 25336
25337 25338
25339 25340
25341 25342
25343 25344
25345 25346
25347 25348
25349 25350
25351 25352
25353 25354
25355 25356
25357 25358
25359 25360
25361 25362
25363 25364
25365 25366
25367 25368
25369 25370
25371 25372
25373 25374
25375 25376
25377 25378
25379 25380
25381 25382
25383 25384
25385 25386
25387 25388
25389 25390
25391 25392
25393 25394
25395 25396
25397 25398
25399 25400
25401 25402
25403 25404
25405 25406
25407 25408
25409 25410
25411 25412
25413 25414
25415 25416
25417 25418
25419 25420
25421 25422
25423 25424
25425 25426
25427 25428
25429 25430
25431 25432
25433 25434
25435 25436
25437 25438
25439 25440
25441 25442
25443 25444
25445 25446
25447 25448
25449 25450
25451 25452
25453 25454
25455 25456
25457 25458
25459 25460
25461 25462
25463 25464
25465 25466
25467 25468
25469 25470
25471 25472
25473 25474
25475 25476
25477 25478
25479 25480
25481 25482
25483 25484
25485 25486
25487 25488
25489 25490
25491 25492
25493 25494
25495 25496
25497 25498
25499 25500
25501 25502
25503 25504
25505 25506
25507 25508
25509 25510
25511 25512
25513 25514
25515 25516
25517 25518
25519 25520
25521 25522
25523 25524
25525 25526
25527 25528
25529 25530
25531 25532
25533 25534
25535 25536
25537 25538
25539 25540
25541 25542
25543 25544
25545 25546
25547 25548
25549 25550
25551 25552
25553 25554
25555 25556
25557 25558
25559 25560
25561 25562
25563 25564
25565 25566
25567 25568
25569 25570
25571 25572
25573 25574
25575 25576
25577 25578
25579 25580
25581 25582
25583 25584
25585 25586
25587 25588
25589 25590
25591 25592
25593 25594
25595 25596
25597 25598
25599 25600
25601 25602
25603 25604
25605 25606
25607 25608
25609 25610
25611 25612
25613 25614
25615 25616
25617 25618
25619 25620
25621 25622
25623 25624
25625 25626
25627 25628
25629 25630
25631 25632
25633 25634
25635 25636
25637 25638
25639 25640
25641 25642
25643 25644
25645 25646
25647 25648
25649 25650
25651 25652
25653 25654
25655 25656
25657 25658
25659 25660
25661 25662
25663 25664
25665 25666
25667 25668
25669 25670
25671 25672
25673 25674
25675 25676
25677 25678
25679 25680
25681 25682
25683 25684
25685 25686
25687 25688
25689 25690
25691 25692
25693 25694
25695 25696
25697 25698
25699 25700
25701 25702
25703 25704
25705 25706
25707 25708
25709 25710
25711 25712
25713 25714
25715 25716
25717 25718
25719 25720
25721 25722
25723 25724
25725 25726
25727 25728
25729 25730
25731 25732
25733 25734
25735 25736
25737 25738
25739 25740
25741 25742
25743 25744
25745 25746
25747 25748
25749 25750
25751 25752
25753 25754
25755 25756
25757 25758
25759 25760
25761 25762
25763 25764
25765 25766
25767 25768
25769 25770
25771 25772
25773 25774
25775 25776
25777 25778
25779 25780
25781 25782
25783 25784
25785 25786
25787 25788
25789 25790
25791 25792
25793 25794
25795 25796
25797 25798
25799 25800
25801 25802
25803 25804
25805 25806
25807 25808
25809 25810
25811 25812
25813 25814
25815 25816
25817 25818
25819 25820
25821 25822
25823 25824
25825 25826
25827 25828
25829 25830
25831 25832
25833 25834
25835 25836
25837 25838
25839 25840
25841 25842
25843 25844
25845 25846
25847 25848
25849 25850
25851 25852
25853 25854
25855 25856
25857 25858
25859 25860
25861 25862
25863 25864
25865 25866
25867 25868
25869 25870
25871 25872
25873 25874
25875 25876
25877 25878
25879 25880
25881 25882
25883 25884
25885 25886
25887 25888
25889 25890
25891 25892
25893 25894
25895 25896
25897 25898
25899 25900
25901 25902
25903 25904
25905 25906
25907 25908
25909 25910
25911 25912
25913 25914
25915 25916
25917 25918
25919 25920
25921 25922
25923 25924
25925 25926
25927 25928
25929 25930
25931 25932
25933 25934
25935 25936
25937 25938
25939 25940
25941 25942
25943 25944
25945 25946
25947 25948
25949 25950
25951 25952
25953 25954
25955 25956
25957 25958
25959 25960
25961 25962
25963 25964
25965 25966
25967 25968
25969 25970
25971 25972
25973 25974
25975 25976
25977 25978
25979 25980
25981 25982
25983 25984
25985 25986
25987 25988
25989 25990
25991 25992
25993 25994
25995 25996
25997 25998
25999 26000
26001 26002
26003 26004
26005 26006
26007 26008
26009 26010
26011 26012
26013 26014
26015 26016
26017 26018
26019 26020
26021 26022
26023 26024
26025 26026
26027 26028
26029 26030
26031 26032
26033 26034
26035 26036
26037 26038
26039 26040
26041 26042
26043 26044
26045 26046
26047 26048
26049 26050
26051 26052
26053 26054
26055 26056
26057 26058
26059 26060
26061 26062
26063 26064
26065 26066
26067 26068
26069 26070
26071 26072
26073 26074
26075 26076
26077 26078
26079 26080
26081 26082
26083 26084
26085 26086
26087 26088
26089 26090
26091 26092
26093 26094
26095 26096
26097 26098
26099 26100
26101 26102
26103 26104
26105 26106
26107 26108
26109 26110
26111 26112
26113 26114
26115 26116
26117 26118
26119 26120
26121 26122
26123 26124
26125 26126
26127 26128
26129 26130
26131 26132
26133 26134
26135 26136
26137 26138
26139 26140
26141 26142
26143 26144
26145 26146
26147 26148
26149 26150
26151 26152
26153 26154
26155 26156
26157 26158
26159 26160
26161 26162
26163 26164
26165 26166
26167 26168
26169 26170
26171 26172
26173 26174
26175 26176
26177 26178
26179 26180
26181 26182
26183 26184
26185 26186
26187 26188
26189 26190
26191 26192
26193 26194
26195 26196
26197 26198
26199 26200
26201 26202
26203 26204
26205 26206
26207 26208
26209 26210
26211 26212
26213 26214
26215 26216
26217 26218
26219 26220
26221 26222
26223 26224
26225 26226
26227 26228
26229 26230
26231 26232
26233 26234
26235 26236
26237 26238
26239 26240
26241 26242
26243 26244
26245 26246
26247 26248
26249 26250
26251 26252
26253 26254
26255 26256
26257 26258
26259 26260
26261 26262
26263 26264
26265 26266
26267 26268
26269 26270
26271 26272
26273 26274
26275 26276
26277 26278
26279 26280
26281 26282
26283 26284
26285 26286
26287 26288
26289 26290
26291 26292
26293 26294
26295 26296
26297 26298
26299 26300
26301 26302
26303 26304
26305 26306
26307 26308
26309 26310
26311 26312
26313 26314
26315 26316
26317 26318
26319 26320
26321 26322
26323 26324
26325 26326
26327 26328
26329 26330
26331 26332
26333 26334
26335 26336
26337 26338
26339 26340
26341 26342
26343 26344
26345 26346
26347 26348
26349 26350
26351 26352
26353 26354
26355 26356
26357 26358
26359 26360
26361 26362
26363 26364
26365 26366
26367 26368
26369 26370
26371 26372
26373 26374
26375 26376
26377 26378
26379 26380
26381 26382
26383 26384
26385 26386
26387 26388
26389 26390
26391 26392
26393 26394
26395 26396
26397 26398
26399 26400
26401 26402
26403 26404
26405 26406
26407 26408
26409 26410
26411 26412
26413 26414
26415 26416
26417 26418
26419 26420
26421 26422
26423 26424
26425 26426
26427 26428
26429 26430
26431 26432
26433 26434
26435 26436
26437 26438
26439 26440
26441 26442
26443 26444
26445 26446
26447 26448
26449 26450
26451 26452
26453 26454
26455 26456
26457 26458
26459 26460
26461 26462
26463 26464
26465 26466
26467 26468
26469 26470
26471 26472
26473 26474
26475 26476
26477 26478
26479 26480
26481 26482
26483 26484
26485 26486
26487 26488
26489 26490
26491 26492
26493 26494
26495 26496
26497 26498
26499 26500
26501 26502
26503 26504
26505 26506
26507 26508
26509 26510
26511 26512
26513 26514
26515 26516
26517 26518
26519 26520
26521 26522
26523 26524
26525 26526
26527 26528
26529 26530
26531 26532
26533 26534
26535 26536
26537 26538
26539 26540
26541 26542
26543 26544
26545 26546
26547 26548
26549 26550
26551 26552
26553 26554
26555 26556
26557 26558
26559 26560
26561 26562
26563 26564
26565 26566
26567 26568
26569 26570
26571 26572
26573 26574
26575 26576
26577 26578
26579 26580
26581 26582
26583 26584
26585 26586
26587 26588
26589 26590
26591 26592
26593 26594
26595 26596
26597 26598
26599 26600
26601 26602
26603 26604
26605 26606
26607 26608
26609 26610
26611 26612
26613 26614
26615 26616
26617 26618
26619 26620
26621 26622
26623 26624
26625 26626
26627 26628
26629 26630
26631 26632
26633 26634
26635 26636
26637 26638
26639 26640
26641 26642
26643 26644
26645 26646
26647 26648
26649 26650
26651 26652
26653 26654
26655 26656
26657 26658
26659 26660
26661 26662
26663 26664
26665 26666
26667 26668
26669 26670
26671 26672
26673 26674
26675 26676
26677 26678
26679 26680
26681 26682
26683 26684
26685 26686
26687 26688
26689 26690
26691 26692
26693 26694
26695 26696
26697 26698
26699 26700
26701 26702
26703 26704
26705 26706
26707 26708
26709 26710
26711 26712
26713 26714
26715 26716
26717 26718
26719 26720
26721 26722
26723 26724
26725 26726
26727 26728
26729 26730
26731 26732
26733 26734
26735 26736
26737 26738
26739 26740
26741 26742
26743 26744
26745 26746
26747 26748
26749 26750
26751 26752
26753 26754
26755 26756
26757 26758
26759 26760
26761 26762
26763 26764
26765 26766
26767 26768
26769 26770
26771 26772
26773 26774
26775 26776
26777 26778
26779 26780
26781 26782
26783 26784
26785 26786
26787 26788
26789 26790
26791 26792
26793 26794
26795 26796
26797 26798
26799 26800
26801 26802
26803 26804
26805 26806
26807 26808
26809 26810
26811 26812
26813 26814
26815 26816
26817 26818
26819 26820
26821 26822
26823 26824
26825 26826
26827 26828
26829 26830
26831 26832
26833 26834
26835 26836
26837 26838
26839 26840
26841 26842
26843 26844
26845 26846
26847 26848
26849 26850
26851 26852
26853 26854
26855 26856
26857 26858
26859 26860
26861 26862
26863 26864
26865 26866
26867 26868
26869 26870
26871 26872
26873 26874
26875 26876
26877 26878
26879 26880
26881 26882
26883 26884
26885 26886
26887 26888
26889 26890
26891 26892
26893 26894
26895 26896
26897 26898
26899 26900
26901 26902
26903 26904
26905 26906
26907 26908
26909 26910
26911 26912
26913 26914
26915 26916
26917 26918
26919 26920
26921 26922
26923 26924
26925 26926
26927 26928
26929 26930
26931 26932
26933 26934
26935 26936
26937 26938
26939 26940
26941 26942
26943 26944
26945 26946
26947 26948
26949 26950
26951 26952
26953 26954
26955 26956
26957 26958
26959 26960
26961 26962
26963 26964
26965 26966
26967 26968
26969 26970
26971 26972
26973 26974
26975 26976
26977 26978
26979 26980
26981 26982
26983 26984
26985 26986
26987 26988
26989 26990
26991 26992
26993 26994
26995 26996
26997 26998
26999 27000
27001 27002
27003 27004
27005 27006
27007 27008
27009 27010
27011 27012
27013 27014
27015 27016
27017 27018
27019 27020
27021 27022
27023 27024
27025 27026
27027 27028
27029 27030
27031 27032
27033 27034
27035 27036
27037 27038
27039 27040
27041 27042
27043 27044
27045 27046
27047 27048
27049 27050
27051 27052
27053 27054
27055 27056
27057 27058
27059 27060
27061 27062
27063 27064
27065 27066
27067 27068
27069 27070
27071 27072
27073 27074
27075 27076
27077 27078
27079 27080
27081 27082
27083 27084
27085 27086
27087 27088
27089 27090
27091 27092
27093 27094
27095 27096
27097 27098
27099 27100
27101 27102
27103 27104
27105 27106
27107 27108
27109 27110
27111 27112
27113 27114
27115 27116
27117 27118
27119 27120
27121 27122
27123 27124
27125 27126
27127 27128
27129 27130
27131 27132
27133 27134
27135 27136
27137 27138
27139 27140
27141 27142
27143 27144
27145 27146
27147 27148
27149 27150
27151 27152
27153 27154
27155 27156
27157 27158
27159 27160
27161 27162
27163 27164
27165 27166
27167 27168
27169 27170
27171 27172
27173 27174
27175 27176
27177 27178
27179 27180
27181 27182
27183 27184
27185 27186
27187 27188
27189 27190
27191 27192
27193 27194
27195 27196
27197 27198
27199 27200
27201 27202
27203 27204
27205 27206
27207 27208
27209 27210
27211 27212
27213 27214
27215 27216
27217 27218
27219 27220
27221 27222
27223 27224
27225 27226
27227 27228
27229 27230
27231 27232
27233 27234
27235 27236
27237 27238
27239 27240
27241 27242
27243 27244
27245 27246
27247 27248
27249 27250
27251 27252
27253 27254
27255 27256
27257 27258
27259 27260
27261 27262
27263 27264
27265 27266
27267 27268
27269 27270
27271 27272
27273 27274
27275 27276
27277 27278
27279 27280
27281 27282
27283 27284
27285 27286
27287 27288
27289 27290
27291 27292
27293 27294
27295 27296
27297 27298
27299 27300
27301 27302
27303 27304
27305 27306
27307 27308
27309 27310
27311 27312
27313 27314
27315 27316
27317 27318
27319 27320
27321 27322
27323 27324
27325 27326
27327 27328
27329 27330
27331 27332
27333 27334
27335 27336
27337 27338
27339 27340
27341 27342
27343 27344
27345 27346
27347 27348
27349 27350
27351 27352
27353 27354
27355 27356
27357 27358
27359 27360
27361 27362
27363 27364
27365 27366
27367 27368
27369 27370
27371 27372
27373 27374
27375 27376
27377 27378
27379 27380
27381 27382
27383 27384
27385 27386
27387 27388
27389 27390
27391 27392
27393 27394
27395 27396
27397 27398
27399 27400
27401 27402
27403 27404
27405 27406
27407 27408
27409 27410
27411 27412
27413 27414
27415 27416
27417 27418
27419 27420
27421 27422
27423 27424
27425 27426
27427 27428
27429 27430
27431 27432
27433 27434
27435 27436
27437 27438
27439 27440
27441 27442
27443 27444
27445 27446
27447 27448
27449 27450
27451 27452
27453 27454
27455 27456
27457 27458
27459 27460
27461 27462
27463 27464
27465 27466
27467 27468
27469 27470
27471 27472
27473 27474
27475 27476
27477 27478
27479 27480
27481 27482
27483 27484
27485 27486
27487 27488
27489 27490
27491 27492
27493 27494
27495 27496
27497 27498
27499 27500
27501 27502
27503 27504
27505 27506
27507 27508
27509 27510
27511 27512
27513 27514
27515 27516
27517 27518
27519 27520
27521 27522
27523 27524
27525 27526
27527 27528
27529 27530
27531 27532
27533 27534
27535 27536
27537 27538
27539 27540
27541 27542
27543 27544
27545 27546
27547 27548
27549 27550
27551 27552
27553 27554
27555 27556
27557 27558
27559 27560
27561 27562
27563 27564
27565 27566
27567 27568
27569 27570
27571 27572
27573 27574
27575 27576
27577 27578
27579 27580
27581 27582
27583 27584
27585 27586
27587 27588
27589 27590
27591 27592
27593 27594
27595 27596
27597 27598
27599 27600
27601 27602
27603 27604
27605 27606
27607 27608
27609 27610
27611 27612
27613 27614
27615 27616
27617 27618
27619 27620
27621 27622
27623 27624
27625 27626
27627 27628
27629 27630
27631 27632
27633 27634
27635 27636
27637 27638
27639 27640
27641 27642
27643 27644
27645 27646
27647 27648
27649 27650
27651 27652
27653 27654
27655 27656
27657 27658
27659 27660
27661 27662
27663 27664
27665 27666
27667 27668
27669 27670
27671 27672
27673 27674
27675 27676
27677 27678
27679 27680
27681 27682
27683 27684
27685 27686
27687 27688
27689 27690
27691 27692
27693 27694
27695 27696
27697 27698
27699 27700
27701 27702
27703 27704
27705 27706
27707 27708
27709 27710
27711 27712
27713 27714
27715 27716
27717 27718
27719 27720
27721 27722
27723 27724
27725 27726
27727 27728
27729 27730
27731 27732
27733 27734
27735 27736
27737 27738
27739 27740
27741 27742
27743 27744
27745 27746
27747 27748
27749 27750
27751 27752
27753 27754
27755 27756
27757 27758
27759 27760
27761 27762
27763 27764
27765 27766
27767 27768
27769 27770
27771 27772
27773 27774
27775 27776
27777 27778
27779 27780
27781 27782
27783 27784
27785 27786
27787 27788
27789 27790
27791 27792
27793 27794
27795 27796
27797 27798
27799 27800
27801 27802
27803 27804
27805 27806
27807 27808
27809 27810
27811 27812
27813 27814
27815 27816
27817 27818
27819 27820
27821 27822
27823 27824
27825 27826
27827 27828
27829 27830
27831 27832
27833 27834
27835 27836
27837 27838
27839 27840
27841 27842
27843 27844
27845 27846
27847 27848
27849 27850
27851 27852
27853 27854
27855 27856
27857 27858
27859 27860
27861 27862
27863 27864
27865 27866
27867 27868
27869 27870
27871 27872
27873 27874
27875 27876
27877 27878
27879 27880
27881 27882
27883 27884
27885 27886
27887 27888
27889 27890
27891 27892
27893 27894
27895 27896
27897 27898
27899 27900
27901 27902
27903 27904
27905 27906
27907 27908
27909 27910
27911 27912
27913 27914
27915 27916
27917 27918
27919 27920
27921 27922
27923 27924
27925 27926
27927 27928
27929 27930
27931 27932
27933 27934
27935 27936
27937 27938
27939 27940
27941 27942
27943 27944
27945 27946
27947 27948
27949 27950
27951 27952
27953 27954
27955 27956
27957 27958
27959 27960
27961 27962
27963 27964
27965 27966
27967 27968
27969 27970
27971 27972
27973 27974
27975 27976
27977 27978
27979 27980
27981 27982
27983 27984
27985 27986
27987 27988
27989 27990
27991 27992
27993 27994
27995 27996
27997 27998
27999 28000
28001 28002
28003 28004
28005 28006
28007 28008
28009 28010
28011 28012
28013 28014
28015 28016
28017 28018
28019 28020
28021 28022
28023 28024
28025 28026
28027 28028
28029 28030
28031 28032
28033 28034
28035 28036
28037 28038
28039 28040
28041 28042
28043 28044
28045 28046
28047 28048
28049 28050
28051 28052
28053 28054
28055 28056
28057 28058
28059 28060
28061 28062
28063 28064
28065 28066
28067 28068
28069 28070
28071 28072
28073 28074
28075 28076
28077 28078
28079 28080
28081 28082
28083 28084
28085 28086
28087 28088
28089 28090
28091 28092
28093 28094
28095 28096
28097 28098
28099 28100
28101 28102
28103 28104
28105 28106
28107 28108
28109 28110
28111 28112
28113 28114
28115 28116
28117 28118
28119 28120
28121 28122
28123 28124
28125 28126
28127 28128
28129 28130
28131 28132
28133 28134
28135 28136
28137 28138
28139 28140
28141 28142
28143 28144
28145 28146
28147 28148
28149 28150
28151 28152
28153 28154
28155 28156
28157 28158
28159 28160
28161 28162
28163 28164
28165 28166
28167 28168
28169 28170
28171 28172
28173 28174
28175 28176
28177 28178
28179 28180
28181 28182
28183 28184
28185 28186
28187 28188
28189 28190
28191 28192
28193 28194
28195 28196
28197 28198
28199 28200
28201 28202
28203 28204
28205 28206
28207 28208
28209 28210
28211 28212
28213 28214
28215 28216
28217 28218
28219 28220
28221 28222
28223 28224
28225 28226
28227 28228
28229 28230
28231 28232
28233 28234
28235 28236
28237 28238
28239 28240
28241 28242
28243 28244
28245 28246
28247 28248
28249 28250
28251 28252
28253 28254
28255 28256
28257 28258
28259 28260
28261 28262
28263 28264
28265 28266
28267 28268
28269 28270
28271 28272
28273 28274
28275 28276
28277 28278
28279 28280
28281 28282
28283 28284
28285 28286
28287 28288
28289 28290
28291 28292
28293 28294
28295 28296
28297 28298
28299 28300
28301 28302
28303 28304
28305 28306
28307 28308
28309 28310
28311 28312
28313 28314
28315 28316
28317 28318
28319 28320
28321 28322
28323 28324
28325 28326
28327 28328
28329 28330
28331 28332
28333 28334
28335 28336
28337 28338
28339 28340
28341 28342
28343 28344
28345 28346
28347 28348
28349 28350
28351 28352
28353 28354
28355 28356
28357 28358
28359 28360
28361 28362
28363 28364
28365 28366
28367 28368
28369 28370
28371 28372
28373 28374
28375 28376
28377 28378
28379 28380
28381 28382
28383 28384
28385 28386
28387 28388
28389 28390
28391 28392
28393 28394
28395 28396
28397 28398
28399 28400
28401 28402
28403 28404
28405 28406
28407 28408
28409 28410
28411 28412
28413 28414
28415 28416
28417 28418
28419 28420
28421 28422
28423 28424
28425 28426
28427 28428
28429 28430
28431 28432
28433 28434
28435 28436
28437 28438
28439 28440
28441 28442
28443 28444
28445 28446
28447 28448
28449 28450
28451 28452
28453 28454
28455 28456
28457 28458
28459 28460
28461 28462
28463 28464
28465 28466
28467 28468
28469 28470
28471 28472
28473 28474
28475 28476
28477 28478
28479 28480
28481 28482
28483 28484
28485 28486
28487 28488
28489 28490
28491 28492
28493 28494
28495 28496
28497 28498
28499 28500
28501 28502
28503 28504
28505 28506
28507 28508
28509 28510
28511 28512
28513 28514
28515 28516
28517 28518
28519 28520
28521 28522
28523 28524
28525 28526
28527 28528
28529 28530
28531 28532
28533 28534
28535 28536
28537 28538
28539 28540
28541 28542
28543 28544
28545 28546
28547 28548
28549 28550
28551 28552
28553 28554
28555 28556
28557 28558
28559 28560
28561 28562
28563 28564
28565 28566
28567 28568
28569 28570
28571 28572
28573 28574
28575 28576
28577 28578
28579 28580
28581 28582
28583 28584
28585 28586
28587 28588
28589 28590
28591 28592
28593 28594
28595 28596
28597 28598
28599 28600
28601 28602
28603 28604
28605 28606
28607 28608
28609 28610
28611 28612
28613 28614
28615 28616
28617 28618
28619 28620
28621 28622
28623 28624
28625 28626
28627 28628
28629 28630
28631 28632
28633 28634
28635 28636
28637 28638
28639 28640
28641 28642
28643 28644
28645 28646
28647 28648
28649 28650
28651 28652
28653 28654
28655 28656
28657 28658
28659 28660
28661 28662
28663 28664
28665 28666
28667 28668
28669 28670
28671 28672
28673 28674
28675 28676
28677 28678
28679 28680
28681 28682
28683 28684
28685 28686
28687 28688
28689 28690
28691 28692
28693 28694
28695 28696
28697 28698
28699 28700
28701 28702
28703 28704
28705 28706
28707 28708
28709 28710
28711 28712
28713 28714
28715 28716
28717 28718
28719 28720
28721 28722
28723 28724
28725 28726
28727 28728
28729 28730
28731 28732
28733 28734
28735 28736
28737 28738
28739 28740
28741 28742
28743 28744
28745 28746
28747 28748
28749 28750
28751 28752
28753 28754
28755 28756
28757 28758
28759 28760
28761 28762
28763 28764
28765 28766
28767 28768
28769 28770
28771 28772
28773 28774
28775 28776
28777 28778
28779 28780
28781 28782
28783 28784
28785 28786
28787 28788
28789 28790
28791 28792
28793 28794
28795 28796
28797 28798
28799 28800
28801 28802
28803 28804
28805 28806
28807 28808
28809 28810
28811 28812
28813 28814
28815 28816
28817 28818
28819 28820
28821 28822
28823 28824
28825 28826
28827 28828
28829 28830
28831 28832
28833 28834
28835 28836
28837 28838
28839 28840
28841 28842
28843 28844
28845 28846
28847 28848
28849 28850
28851 28852
28853 28854
28855 28856
28857 28858
28859 28860
28861 28862
28863 28864
28865 28866
28867 28868
28869 28870
28871 28872
28873 28874
28875 28876
28877 28878
28879 28880
28881 28882
28883 28884
28885 28886
28887 28888
28889 28890
28891 28892
28893 28894
28895 28896
28897 28898
28899 28900
28901 28902
28903 28904
28905 28906
28907 28908
28909 28910
28911 28912
28913 28914
28915 28916
28917 28918
28919 28920
28921 28922
28923 28924
28925 28926
28927 28928
28929 28930
28931 28932
28933 28934
28935 28936
28937 28938
28939 28940
28941 28942
28943 28944
28945 28946
28947 28948
28949 28950
28951 28952
28953 28954
28955 28956
28957 28958
28959 28960
28961 28962
28963 28964
28965 28966
28967 28968
28969 28970
28971 28972
28973 28974
28975 28976
28977 28978
28979 28980
28981 28982
28983 28984
28985 28986
28987 28988
28989 28990
28991 28992
28993 28994
28995 28996
28997 28998
28999 29000
29001 29002
29003 29004
29005 29006
29007 29008
29009 29010
29011 29012
29013 29014
29015 29016
29017 29018
29019 29020
29021 29022
29023 29024
29025 29026
29027 29028
29029 29030
29031 29032
29033 29034
29035 29036
29037 29038
29039 29040
29041 29042
29043 29044
29045 29046
29047 29048
29049 29050
29051 29052
29053 29054
29055 29056
29057 29058
29059 29060
29061 29062
29063 29064
29065 29066
29067 29068
29069 29070
29071 29072
29073 29074
29075 29076
29077 29078
29079 29080
29081 29082
29083 29084
29085 29086
29087 29088
29089 29090
29091 29092
29093 29094
29095 29096
29097 29098
29099 29100
29101 29102
29103 29104
29105 29106
29107 29108
29109 29110
29111 29112
29113 29114
29115 29116
29117 29118
29119 29120
29121 29122
29123 29124
29125 29126
29127 29128
29129 29130
29131 29132
29133 29134
29135 29136
29137 29138
29139 29140
29141 29142
29143 29144
29145 29146
29147 29148
29149 29150
29151 29152
29153 29154
29155 29156
29157 29158
29159 29160
29161 29162
29163 29164
29165 29166
29167 29168
29169 29170
29171 29172
29173 29174
29175 29176
29177 29178
29179 29180
29181 29182
29183 29184
29185 29186
29187 29188
29189 29190
29191 29192
29193 29194
29195 29196
29197 29198
29199 29200
29201 29202
29203 29204
29205 29206
29207 29208
29209 29210
29211 29212
29213 29214
29215 29216
29217 29218
29219 29220
29221 29222
29223 29224
29225 29226
29227 29228
29229 29230
29231 29232
29233 29234
29235 29236
29237 29238
29239 29240
29241 29242
29243 29244
29245 29246
29247 29248
29249 29250
29251 29252
29253 29254
29255 29256
29257 29258
29259 29260
29261 29262
29263 29264
29265 29266
29267 29268
29269 29270
29271 29272
29273 29274
29275 29276
29277 29278
29279 29280
29281 29282
29283 29284
29285 29286
29287 29288
29289 29290
29291 29292
29293 29294
29295 29296
29297 29298
29299 29300
29301 29302
29303 29304
29305 29306
29307 29308
29309 29310
29311 29312
29313 29314
29315 29316
29317 29318
29319 29320
29321 29322
29323 29324
29325 29326
29327 29328
29329 29330
29331 29332
29333 29334
29335 29336
29337 29338
29339 29340
29341 29342
29343 29344
29345 29346
29347 29348
29349 29350
29351 29352
29353 29354
29355 29356
29357 29358
29359 29360
29361 29362
29363 29364
29365 29366
29367 29368
29369 29370
29371 29372
29373 29374
29375 29376
29377 29378
29379 29380
29381 29382
29383 29384
29385 29386
29387 29388
29389 29390
29391 29392
29393 29394
29395 29396
29397 29398
29399 29400
29401 29402
29403 29404
29405 29406
29407 29408
29409 29410
29411 29412
29413 29414
29415 29416
29417 29418
29419 29420
29421 29422
29423 29424
29425 29426
29427 29428
29429 29430
29431 29432
29433 29434
29435 29436
29437 29438
29439 29440
29441 29442
29443 29444
29445 29446
29447 29448
29449 29450
29451 29452
29453 29454
29455 29456
29457 29458
29459 29460
29461 29462
29463 29464
29465 29466
29467 29468
29469 29470
29471 29472
29473 29474
29475 29476
29477 29478
29479 29480
29481 29482
29483 29484
29485 29486
29487 29488
29489 29490
29491 29492
29493 29494
29495 29496
29497 29498
29499 29500
29501 29502
29503 29504
29505 29506
29507 29508
29509 29510
29511 29512
29513 29514
29515 29516
29517 29518
29519 29520
29521 29522
29523 29524
29525 29526
29527 29528
29529 29530
29531 29532
29533 29534
29535 29536
29537 29538
29539 29540
29541 29542
29543 29544
29545 29546
29547 29548
29549 29550
29551 29552
29553 29554
29555 29556
29557 29558
29559 29560
29561 29562
29563 29564
29565 29566
29567 29568
29569 29570
29571 29572
29573 29574
29575 29576
29577 29578
29579 29580
29581 29582
29583 29584
29585 29586
29587 29588
29589 29590
29591 29592
29593 29594
29595 29596
29597 29598
29599 29600
29601 29602
29603 29604
29605 29606
29607 29608
29609 29610
29611 29612
29613 29614
29615 29616
29617 29618
29619 29620
29621 29622
29623 29624
29625 29626
29627 29628
29629 29630
29631 29632
29633 29634
29635 29636
29637 29638
29639 29640
29641 29642
29643 29644
29645 29646
29647 29648
29649 29650
29651 29652
29653 29654
29655 29656
29657 29658
29659 29660
29661 29662
29663 29664
29665 29666
29667 29668
29669 29670
29671 29672
29673 29674
29675 29676
29677 29678
29679 29680
29681 29682
29683 29684
29685 29686
29687 29688
29689 29690
29691 29692
29693 29694
29695 29696
29697 29698
29699 29700
29701 29702
29703 29704
29705 29706
29707 29708
29709 29710
29711 29712
29713 29714
29715 29716
29717 29718
29719 29720
29721 29722
29723 29724
29725 29726
29727 29728
29729 29730
29731 29732
29733 29734
29735 29736
29737 29738
29739 29740
29741 29742
29743 29744
29745 29746
29747 29748
29749 29750
29751 29752
29753 29754
29755 29756
29757 29758
29759 29760
29761 29762
29763 29764
29765 29766
29767 29768
29769 29770
29771 29772
29773 29774
29775 29776
29777 29778
29779 29780
29781 29782
29783 29784
29785 29786
29787 29788
29789 29790
29791 29792
29793 29794
29795 29796
29797 29798
29799 29800
29801 29802
29803 29804
29805 29806
29807 29808
29809 29810
29811 29812
29813 29814
29815 29816
29817 29818
29819 29820
29821 29822
29823 29824
29825 29826
29827 29828
29829 29830
29831 29832
29833 29834
29835 29836
29837 29838
29839 29840
29841 29842
29843 29844
29845 29846
29847 29848
29849 29850
29851 29852
29853 29854
29855 29856
29857 29858
29859 29860
29861 29862
29863 29864
29865 29866
29867 29868
29869 29870
29871 29872
29873 29874
29875 29876
29877 29878
29879 29880
29881 29882
29883 29884
29885 29886
29887 29888
29889 29890
29891 29892
29893 29894
29895 29896
29897 29898
29899 29900
29901 29902
29903 29904
29905 29906
29907 29908
29909 29910
29911 29912
29913 29914
29915 29916
29917 29918
29919 29920
29921 29922
29923 29924
29925 29926
29927 29928
29929 29930
29931 29932
29933 29934
29935 29936
29937 29938
29939 29940
29941 29942
29943 29944
29945 29946
29947 29948
29949 29950
29951 29952
29953 29954
29955 29956
29957 29958
29959 29960
29961 29962
29963 29964
29965 29966
29967 29968
29969 29970
29971 29972
29973 29974
29975 29976
29977 29978
29979 29980
29981 29982
29983 29984
29985 29986
29987 29988
29989 29990
29991 29992
29993 29994
29995 29996
29997 29998
29999 30000
30001 30002
30003 30004
30005 30006
30007 30008
30009 30010
30011 30012
30013 30014
30015 30016
30017 30018
30019 30020
30021 30022
30023 30024
30025 30026
30027 30028
30029 30030
30031 30032
30033 30034
30035 30036
30037 30038
30039 30040
30041 30042
30043 30044
30045 30046
30047 30048
30049 30050
30051 30052
30053 30054
30055 30056
30057 30058
30059 30060
30061 30062
30063 30064
30065 30066
30067 30068
30069 30070
30071 30072
30073 30074
30075 30076
30077 30078
30079 30080
30081 30082
30083 30084
30085 30086
30087 30088
30089 30090
30091 30092
30093 30094
30095 30096
30097 30098
30099 30100
30101 30102
30103 30104
30105 30106
30107 30108
30109 30110
30111 30112
30113 30114
30115 30116
30117 30118
30119 30120
30121 30122
30123 30124
30125 30126
30127 30128
30129 30130
30131 30132
30133 30134
30135 30136
30137 30138
30139 30140
30141 30142
30143 30144
30145 30146
30147 30148
30149 30150
30151 30152
30153 30154
30155 30156
30157 30158
30159 30160
30161 30162
30163 30164
30165 30166
30167 30168
30169 30170
30171 30172
30173 30174
30175 30176
30177 30178
30179 30180
30181 30182
30183 30184
30185 30186
30187 30188
30189 30190
30191 30192
30193 30194
30195 30196
30197 30198
30199 30200
30201 30202
30203 30204
30205 30206
30207 30208
30209 30210
30211 30212
30213 30214
30215 30216
30217 30218
30219 30220
30221 30222
30223 30224
30225 30226
30227 30228
30229 30230
30231 30232
30233 30234
30235 30236
30237 30238
30239 30240
30241 30242
30243 30244
30245 30246
30247 30248
30249 30250
30251 30252
30253 30254
30255 30256
30257 30258
30259 30260
30261 30262
30263 30264
30265 30266
30267 30268
30269 30270
30271 30272
30273 30274
30275 30276
30277 30278
30279 30280
30281 30282
30283 30284
30285 30286
30287 30288
30289 30290
30291 30292
30293 30294
30295 30296
30297 30298
30299 30300
30301 30302
30303 30304
30305 30306
30307 30308
30309 30310
30311 30312
30313 30314
30315 30316
30317 30318
30319 30320
30321 30322
30323 30324
30325 30326
30327 30328
30329 30330
30331 30332
30333 30334
30335 30336
30337 30338
30339 30340
30341 30342
30343 30344
30345 30346
30347 30348
30349 30350
30351 30352
30353 30354
30355 30356
30357 30358
30359 30360
30361 30362
30363 30364
30365 30366
30367 30368
30369 30370
30371 30372
30373 30374
30375 30376
30377 30378
30379 30380
30381 30382
30383 30384
30385 30386
30387 30388
30389 30390
30391 30392
30393 30394
30395 30396
30397 30398
30399 30400
30401 30402
30403 30404
30405 30406
30407 30408
30409 30410
30411 30412
30413 30414
30415 30416
30417 30418
30419 30420
30421 30422
30423 30424
30425 30426
30427 30428
30429 30430
30431 30432
30433 30434
30435 30436
30437 30438
30439 30440
30441 30442
30443 30444
30445 30446
30447 30448
30449 30450
30451 30452
30453 30454
30455 30456
30457 30458
30459 30460
30461 30462
30463 30464
30465 30466
30467 30468
30469 30470
30471 30472
30473 30474
30475 30476
30477 30478
30479 30480
30481 30482
30483 30484
30485 30486
30487 30488
30489 30490
30491 30492
30493 30494
30495 30496
30497 30498
30499 30500
30501 30502
30503 30504
30505 30506
30507 30508
30509 30510
30511 30512
30513 30514
30515 30516
30517 30518
30519 30520
30521 30522
30523 30524
30525 30526
30527 30528
30529 30530
30531 30532
30533 30534
30535 30536
30537 30538
30539 30540
30541 30542
30543 30544
30545 30546
30547 30548
30549 30550
30551 30552
30553 30554
30555 30556
30557 30558
30559 30560
30561 30562
30563 30564
30565 30566
30567 30568
30569 30570
30571 30572
30573 30574
30575 30576
30577 30578
30579 30580
30581 30582
30583 30584
30585 30586
30587 30588
30589 30590
30591 30592
30593 30594
30595 30596
30597 30598
30599 30600
30601 30602
30603 30604
30605 30606
30607 30608
30609 30610
30611 30612
30613 30614
30615 30616
30617 30618
30619 30620
30621 30622
30623 30624
30625 30626
30627 30628
30629 30630
30631 30632
30633 30634
30635 30636
30637 30638
30639 30640
30641 30642
30643 30644
30645 30646
30647 30648
30649 30650
30651 30652
30653 30654
30655 30656
30657 30658
30659 30660
30661 30662
30663 30664
30665 30666
30667 30668
30669 30670
30671 30672
30673 30674
30675 30676
30677 30678
30679 30680
30681 30682
30683 30684
30685 30686
30687 30688
30689 30690
30691 30692
30693 30694
30695 30696
30697 30698
30699 30700
30701 30702
30703 30704
30705 30706
30707 30708
30709 30710
30711 30712
30713 30714
30715 30716
30717 30718
30719 30720
30721 30722
30723 30724
30725 30726
30727 30728
30729 30730
30731 30732
30733 30734
30735 30736
30737 30738
30739 30740
30741 30742
30743 30744
30745 30746
30747 30748
30749 30750
30751 30752
30753 30754
30755 30756
30757 30758
30759 30760
30761 30762
30763 30764
30765 30766
30767 30768
30769 30770
30771 30772
30773 30774
30775 30776
30777 30778
30779 30780
30781 30782
30783 30784
30785 30786
30787 30788
30789 30790
30791 30792
30793 30794
30795 30796
30797 30798
30799 30800
30801 30802
30803 30804
30805 30806
30807 30808
30809 30810
30811 30812
30813 30814
30815 30816
30817 30818
30819 30820
30821 30822
30823 30824
30825 30826
30827 30828
30829 30830
30831 30832
30833 30834
30835 30836
30837 30838
30839 30840
30841 30842
30843 30844
30845 30846
30847 30848
30849 30850
30851 30852
30853 30854
30855 30856
30857 30858
30859 30860
30861 30862
30863 30864
30865 30866
30867 30868
30869 30870
30871 30872
30873 30874
30875 30876
30877 30878
30879 30880
30881 30882
30883 30884
30885 30886
30887 30888
30889 30890
30891 30892
30893 30894
30895 30896
30897 30898
30899 30900
30901 30902
30903 30904
30905 30906
30907 30908
30909 30910
30911 30912
30913 30914
30915 30916
30917 30918
30919 30920
30921 30922
30923 30924
30925 30926
30927 30928
30929 30930
30931 30932
30933 30934
30935 30936
30937 30938
30939 30940
30941 30942
30943 30944
30945 30946
30947 30948
30949 30950
30951 30952
30953 30954
30955 30956
30957 30958
30959 30960
30961 30962
30963 30964
30965 30966
30967 30968
30969 30970
30971 30972
30973 30974
30975 30976
30977 30978
30979 30980
30981 30982
30983 30984
30985 30986
30987 30988
30989 30990
30991 30992
30993 30994
30995 30996
30997 30998
30999 31000
31001 31002
31003 31004
31005 31006
31007 31008
31009 31010
31011 31012
31013 31014
31015 31016
31017 31018
31019 31020
31021 31022
31023 31024
31025 31026
31027 31028
31029 31030
31031 31032
31033 31034
31035 31036
31037 31038
31039 31040
31041 31042
31043 31044
31045 31046
31047 31048
31049 31050
31051 31052
31053 31054
31055 31056
31057 31058
31059 31060
31061 31062
31063 31064
31065 31066
31067 31068
31069 31070
31071 31072
31073 31074
31075 31076
31077 31078
31079 31080
31081 31082
31083 31084
31085 31086
31087 31088
31089 31090
31091 31092
31093 31094
31095 31096
31097 31098
31099 31100
31101 31102
31103 31104
31105 31106
31107 31108
31109 31110
31111 31112
31113 31114
31115 31116
31117 31118
31119 31120
31121 31122
31123 31124
31125 31126
31127 31128
31129 31130
31131 31132
31133 31134
31135 31136
31137 31138
31139 31140
31141 31142
31143 31144
31145 31146
31147 31148
31149 31150
31151 31152
31153 31154
31155 31156
31157 31158
31159 31160
31161 31162
31163 31164
31165 31166
31167 31168
31169 31170
31171 31172
31173 31174
31175 31176
31177 31178
31179 31180
31181 31182
31183 31184
31185 31186
31187 31188
31189 31190
31191 31192
31193 31194
31195 31196
31197 31198
31199 31200
31201 31202
31203 31204
31205 31206
31207 31208
31209 31210
31211 31212
31213 31214
31215 31216
31217 31218
31219 31220
31221 31222
31223 31224
31225 31226
31227 31228
31229 31230
31231 31232
31233 31234
31235 31236
31237 31238
31239 31240
31241 31242
31243 31244
31245 31246
31247 31248
31249 31250
31251 31252
31253 31254
31255 31256
31257 31258
31259 31260
31261 31262
31263 31264
31265 31266
31267 31268
31269 31270
31271 31272
31273 31274
31275 31276
31277 31278
31279 31280
31281 31282
31283 31284
31285 31286
31287 31288
31289 31290
31291 31292
31293 31294
31295 31296
31297 31298
31299 31300
31301 31302
31303 31304
31305 31306
31307 31308
31309 31310
31311 31312
31313 31314
31315 31316
31317 31318
31319 31320
31321 31322
31323 31324
31325 31326
31327 31328
31329 31330
31331 31332
31333 31334
31335 31336
31337 31338
31339 31340
31341 31342
31343 31344
31345 31346
31347 31348
31349 31350
31351 31352
31353 31354
31355 31356
31357 31358
31359 31360
31361 31362
31363 31364
31365 31366
31367 31368
31369 31370
31371 31372
31373 31374
31375 31376
31377 31378
31379 31380
31381 31382
31383 31384
31385 31386
31387 31388
31389 31390
31391 31392
31393 31394
31395 31396
31397 31398
31399 31400
31401 31402
31403 31404
31405 31406
31407 31408
31409 31410
31411 31412
31413 31414
31415 31416
31417 31418
31419 31420
31421 31422
31423 31424
31425 31426
31427 31428
31429 31430
31431 31432
31433 31434
31435 31436
31437 31438
31439 31440
31441 31442
31443 31444
31445 31446
31447 31448
31449 31450
31451 31452
31453 31454
31455 31456
31457 31458
31459 31460
31461 31462
31463 31464
31465 31466
31467 31468
31469 31470
31471 31472
31473 31474
31475 31476
31477 31478
31479 31480
31481 31482
31483 31484
31485 31486
31487 31488
31489 31490
31491 31492
31493 31494
31495 31496
31497 31498
31499 31500
31501 31502
31503 31504
31505 31506
31507 31508
31509 31510
31511 31512
31513 31514
31515 31516
31517 31518
31519 31520
31521 31522
31523 31524
31525 31526
31527 31528
31529 31530
31531 31532
31533 31534
31535 31536
31537 31538
31539 31540
31541 31542
31543 31544
31545 31546
31547 31548
31549 31550
31551 31552
31553 31554
31555 31556
31557 31558
31559 31560
31561 31562
31563 31564
31565 31566
31567 31568
31569 31570
31571 31572
31573 31574
31575 31576
31577 31578
31579 31580
31581 31582
31583 31584
31585 31586
31587 31588
31589 31590
31591 31592
31593 31594
31595 31596
31597 31598
31599 31600
31601 31602
31603 31604
31605 31606
31607 31608
31609 31610
31611 31612
31613 31614
31615 31616
31617 31618
31619 31620
31621 31622
31623 31624
31625 31626
31627 31628
31629 31630
31631 31632
31633 31634
31635 31636
31637 31638
31639 31640
31641 31642
31643 31644
31645 31646
31647 31648
31649 31650
31651 31652
31653 31654
31655 31656
31657 31658
31659 31660
31661 31662
31663 31664
31665 31666
31667 31668
31669 31670
31671 31672
31673 31674
31675 31676
31677 31678
31679 31680
31681 31682
31683 31684
31685 31686
31687 31688
31689 31690
31691 31692
31693 31694
31695 31696
31697 31698
31699 31700
31701 31702
31703 31704
31705 31706
31707 31708
31709 31710
31711 31712
31713 31714
31715 31716
31717 31718
31719 31720
31721 31722
31723 31724
31725 31726
31727 31728
31729 31730
31731 31732
31733 31734
31735 31736
31737 31738
31739 31740
31741 31742
31743 31744
31745 31746
31747 31748
31749 31750
31751 31752
31753 31754
31755 31756
31757 31758
31759 31760
31761 31762
31763 31764
31765 31766
31767 31768
31769 31770
31771 31772
31773 31774
31775 31776
31777 31778
31779 31780
31781 31782
31783 31784
31785 31786
31787 31788
31789 31790
31791 31792
31793 31794
31795 31796
31797 31798
31799 31800
31801 31802
31803 31804
31805 31806
31807 31808
31809 31810
31811 31812
31813 31814
31815 31816
31817 31818
31819 31820
31821 31822
31823 31824
31825 31826
31827 31828
31829 31830
31831 31832
31833 31834
31835 31836
31837 31838
      </DataArray>
      <DataArray type="Int32" Name="offsets" format="ascii">
6
12
18
24
30
36
42
48
54
60
66
72
78
84
90
96
102
108
114
120
126
132
138
144
150
156
162
168
174
180
186
192
198
204
210
216
222
228
234
240
246
252
258
264
270
276
282
288
294
300
306
312
318
324
330
336
342
348
354
360
366
372
378
384
390
396
402
408
414
420
426
432
438
444
450
456
462
468
474
480
486
492
498
504
510
516
522
528
534
540
546
552
558
564
570
576
582
588
594
600
606
612
618
624
630
636
642
648
654
660
666
672
678
684
690
696
702
708
714
720
726
732
738
744
750
756
762
768
774
780
786
792
798
804
810
816
822
828
834
840
846
852
858
864
870
876
882
888
894
900
906
912
918
924
930
936
942
948
954
960
966
972
978
984
990
996
1002
1008
1014
1020
1026
1032
1038
1044
1050
1056
1062
1068
1074
1080
1086
1092
1098
1104
1110
1116
1122
1128
1134
1140
1146
1152
1158
1164
1170
1176
1182
1188
1194
1200
1206
1212
1218
1224
1230
1236
1242
1248
1254
1260
1266
1272
1278
1284
1290
1296
1302
1308
1314
1320
1326
1332
1338
1344
1350
1356
1362
1368
1374
1380
1386
1392
1398
1404
1410
1416
1422
1428
1434
1440
1446
1452
1458
1464
1470
1476
1482
1488
1494
1500
1506
1512
1518
1524
1530
1536
1542
1548
1554
1560
1566
1572
1578
1584
1590
1596
1602
1608
1614
1620
1626
1632
1638
1644
1650
1656
1662
1668
1674
1680
1686
1692
1698
1704
1710
1716
1722
1728
1734
1740
1746
1752
1758
1764
1770
1776
1782
1788
1794
1800
1806
1812
1818
1824
1830
1836
1842
1848
1854
1860
1866
1872
1878
1884
1890
1896
1902
1908
1914
1920
1926
1932
1938
1944
1950
1956
1962
1968
1974
1980
1986
1992
1998
2004
2010
2016
2022
2028
2034
2040
2046
2052
2058
2064
2070
2076
2082
2088
2094
2100
2106
2112
2118
2124
2130
2136
2142
2148
2154
2160
2166
2172
2178
2184
2190
2196
2202
2208
2214
2220
2226
2232
2238
2244
2250
2256
2262
2268
2274
2280
2286
2292
2298
2304
2310
2316
2322
2328
2334
2340
2346
2352
2358
2364
2370
2376
2382
2388
2394
2400
2406
2412
2418
2424
2430
2436
2442
2448
2454
2460
2466
2472
2478
2484
2490
2496
2502
2508
2514
2520
2526
2532
2538
2544
2550
2556
2562
2568
2574
2580
2586
2592
2598
2604
2610
2616
2622
2628
2634
2640
2646
2652
2658
2664
2670
2676
2682
2688
2694
2700
2706
2712
2718
2724
2730
2736
2742
2748
2754
2760
2766
2772
2778
2784
2790
2796
2802
2808
2814
2820
2826
2832
2838
2844
2850
2856
2862
2868
2874
2880
2886
2892
2898
2904
2910
2916
2922
2928
2934
2940
2946
2952
2958
2964
2970
2976
2982
2988
2994
3000
3006
3012
3018
3024
3030
3036
3042
3048
3054
3060
3066
3072
3078
3084
3090
3096
3102
3108
3114
3120
3126
3132
3138
3144
3150
3156
3162
3168
3174
3180
3186
3192
3198
3204
3210
3216
3222
3228
3234
3240
3246
3252
3258
3264
3270
3276
3282
3288
3294
3300
3306
3312
3318
3324
3330
3336
3342
3348
3354
3360
3366
3372
3378
3384
3390
3396
3402
3408
3414
3420
3426
3432
3438
3444
3450
3456
3462
3468
3474
3480
3486
3492
3498
3504
3510
3516
3522
3528
3534
3540
3546
3552
3558
3564
3570
3576
3582
3588
3594
3600
3606
3612
3618
3624
3630
3636
3642
3648
3654
3660
3666
3672
3678
3684
3690
3696
3702
3708
3714
3720
3726
3732
3738
3744
3750
3756
3762
3768
3774
3780
3786
3792
3798
3804
3810
3816
3822
3828
3834
3840
3846
3852
3858
3864
3870
3876
3882
3888
3894
3900
3906
3912
3918
3924
3930
3936
3942
3948
3954
3960
3966
3972
3978
3984
3990
3996
4002
4008
4014
4020
4026
4032
4038
4044
4050
4056
4062
4068
4074
4080
4086
4092
4098
4104
4110
4116
4122
4128
4134
4140
4146
4152
4158
4164
4170
4176
4182
4188
4194
4200
4206
4212
4218
4224
4230
4236
4242
4248
4254
4260
4266
4272
4278
4284
4290
4296
4302
4308
4314
4320
4326
4332
4338
4344
4350
4356
4362
4368
4374
4380
4386
4392
4398
4404
4410
4416
4422
4428
4434
4440
4446
4452
4458
4464
4470
4476
4482
4488
4494
4500
4506
4512
4518
4524
4530
4536
4542
4548
4554
4560
4566
4572
4578
4584
4590
4596
4602
4608
4614
4620
4626
4632
4638
4644
4650
4656
4662
4668
4674
4680
4686
4692
4698
4704
4710
4716
4722
4728
4734
4740
4746
4752
4758
4764
4770
4776
4782
4788
4794
4800
4806
4812
4818
4824
4830
4836
4842
4848
4854
4860
4866
4872
4878
4884
4890
4896
4902
4908
4914
4920
4926
4932
4938
4944
4950
4956
4962
4968
4974
4980
4986
4992
4998
5004
5010
5016
5022
5028
5034
5040
5046
5052
5058
5064
5070
5076
5082
5088
5094
5100
5106
5112
5118
5124
5130
5136
5142
5148
5154
5160
5166
5172
5178
5184
5190
5196
5202
5208
5214
5220
5226
5232
5238
5244
5250
5256
5262
5268
5274
5280
5286
5292
5298
5304
5310
5316
5322
5328
5334
5340
5346
5352
5358
5364
5370
5376
5382
5388
5394
5400
5406
5412
5418
5424
5430
5436
5442
5448
5454
5460
5466
5472
5478
5484
5490
5496
5502
5508
5514
5520
5526
5532
5538
5544
5550
5556
5562
5568
5574
5580
5586
5592
5598
5604
5610
5616
5622
5628
5634
5640
5646
5652
5658
5664
5670
5676
5682
5688
5694
5700
5706
5712
5718
5724
5730
5736
5742
5748
5754
5760
5766
5772
5778
5784
5790
5796
5802
5808
5814
5820
5826
5832
5838
5844
5850
5856
5862
5868
5874
5880
5886
5892
5898
5904
5910
5916
5922
5928
5934
5940
5946
5952
5958
5964
5970
5976
5982
5988
5994
6000
6006
6012
6018
6024
6030
6036
6042
6048
6054
6060
6066
6072
6078
6084
6090
6096
6102
6108
6114
6120
6126
6132
6138
6144
6150
6156
6162
6168
6174
6180
6186
6192
6198
6204
6210
6216
6222
6228
6234
6240
6246
6252
6258
6264
6270
6276
6282
6288
6294
6300
6306
6312
6318
6324
6330
6336
6342
6348
6354
6360
6366
6372
6378
6384
6390
6396
6402
6408
6414
6420
6426
6432
6438
6444
6450
6456
6462
6468
6474
6480
6486
6492
6498
6504
6510
6516
6522
6528
6534
6540
6546
6552
6558
6564
6570
6576
6582
6588
6594
6600
6606
6612
6618
6624
6630
6636
6642
6648
6654
6660
6666
6672
6678
6684
6690
6696
6702
6708
6714
6720
6726
6732
6738
6744
6750
6756
6762
6768
6774
6780
6786
6792
6798
6804
6810
6816
6822
6828
6834
6840
6846
6852
6858
6864
6870
6876
6882
6888
6894
6900
6906
6912
6918
6924
6930
6936
6942
6948
6954
6960
6966
6972
6978
6984
6990
6996
7002
7008
7014
7020
7026
7032
7038
7044
7050
7056
7062
7068
7074
7080
7086
7092
7098
7104
7110
7116
7122
7128
7134
7140
7146
7152
7158
7164
7170
7176
7182
7188
7194
7200
7206
7212
7218
7224
7230
7236
7242
7248
7254
7260
7266
7272
7278
7284
7290
7296
7302
7308
7314
7320
7326
7332
7338
7344
7350
7356
7362
7368
7374
7380
7386
7392
7398
7404
7410
7416
7422
7428
7434
7440
7446
7452
7458
7464
7470
7476
7482
7488
7494
7500
7506
7512
7518
7524
7530
7536
7542
7548
7554
7560
7566
7572
7578
7584
7590
7596
7602
7608
7614
7620
7626
7632
7638
7644
7650
7656
7662
7668
7674
7680
7686
7692
7698
7704
7710
7716
7722
7728
7734
7740
7746
7752
7758
7764
7770
7776
7782
7788
7794
7800
7806
7812
7818
7824
7830
7836
7842
7848
7854
7860
7866
7872
7878
7884
7890
7896
7902
7908
7914
7920
7926
7932
7938
7944
7950
7956
7962
7968
7974
7980
7986
7992
7998
8004
8010
8016
8022
8028
8034
8040
8046
8052
8058
8064
8070
8076
8082
8088
8094
8100
8106
8112
8118
8124
8130
8136
8142
8148
8154
8160
8166
8172
8178
8184
8190
8196
8202
8208
8214
8220
8226
8232
8238
8244
8250
8256
8262
8268
8274
8280
8286
8292
8298
8304
8310
8316
8322
8328
8334
8340
8346
8352
8358
8364
8370
8376
8382
8388
8394
8400
8406
8412
8418
8424
8430
8436
8442
8448
8454
8460
8466
8472
8478
8484
8490
8496
8502
8508
8514
8520
8526
8532
8538
8544
8550
8556
8562
8568
8574
8580
8586
8592
8598
8604
8610
8616
8622
8628
8634
8640
8646
8652
8658
8664
8670
8676
8682
8688
8694
8700
8706
8712
8718
8724
8730
8736
8742
8748
8754
8760
8766
8772
8778
8784
8790
8796
8802
8808
8814
8820
8826
8832
8838
8844
8850
8856
8862
8868
8874
8880
8886
8892
8898
8904
8910
8916
8922
8928
8934
8940
8946
8952
8958
8964
8970
8976
8982
8988
8994
9000
9006
9012
9018
9024
9030
9036
9042
9048
9054
9060
9066
9072
9078
9084
9090
9096
9102
9108
9114
9120
9126
9132
9138
9144
9150
9156
9162
9168
9174
9180
9186
9192
9198
9204
9210
9216
9222
9228
9234
9240
9246
9252
9258
9264
9270
9276
9282
9288
9294
9300
9306
9312
9318
9324
9330
9336
9342
9348
9354
9360
9366
9372
9378
9384
9390
9396
9402
9408
9414
9420
9426
9432
9438
9444
9450
9456
9462
9468
9474
9480
9486
9492
9498
9504
9510
9516
9522
9528
9534
9540
9546
9552
9558
9564
9570
9576
9582
9588
9594
9600
9606
9612
9618
9624
9630
9636
9642
9648
9654
9660
9666
9672
9678
9684
9690
9696
9702
9708
9714
9720
9726
9732
9738
9744
9750
9756
9762
9768
9774
9780
9786
9792
9798
9804
9810
9816
9822
9828
9834
9840
9846
9852
9858
9864
9870
9876
9882
9888
9894
9900
9906
9912
9918
9924
9930
9936
9942
9948
9954
9960
9966
9972
9978
9984
9990
9996
10002
10008
10014
10020
10026
10032
10038
10044
10050
10056
10062
10068
10074
10080
10086
10092
10098
10104
10106
10108
10110
10112
10114
10116
10118
10120
10122
10124
10126
10128
10130
10132
10134
10136
10138
10140
10142
10144
10146
10148
10150
10152
10154
10156
10158
10160
10162
10164
10166
10168
10170
10172
10174
10176
10178
10180
10182
10184
10186
10188
10190
10192
10194
10196
10198
10200
10202
10204
10206
10208
10210
10212
10214
10216
10218
10220
10222
10224
10226
10228
10230
10232
10234
10236
10238
10240
10242
10244
10246
10248
10250
10252
10254
10256
10258
10260
10262
10264
10266
10268
10270
10272
10274
10276
10278
10280
10282
10284
10286
10288
10290
10292
10294
10296
10298
10300
10302
10304
10306
10308
10310
10312
10314
10316
10318
10320
10322
10324
10326
10328
10330
10332
10334
10336
10338
10340
10342
10344
10346
10348
10350
10352
10354
10356
10358
10360
10362
10364
10366
10368
10370
10372
10374
10376
10378
10380
10382
10384
10386
10388
10390
10392
10394
10396
10398
10400
10402
10404
10406
10408
10410
10412
10414
10416
10418
10420
10422
10424
10426
10428
10430
10432
10434
10436
10438
10440
10442
10444
10446
10448
10450
10452
10454
10456
10458
10460
10462
10464
10466
10468
10470
10472
10474
10476
10478
10480
10482
10484
10486
10488
10490
10492
10494
10496
10498
10500
10502
10504
10506
10508
10510
10512
10514
10516
10518
10520
10522
10524
10526
10528
10530
10532
10534
10536
10538
10540
10542
10544
10546
10548
10550
10552
10554
10556
10558
10560
10562
10564
10566
10568
10570
10572
10574
10576
10578
10580
10582
10584
10586
10588
10590
10592
10594
10596
10598
10600
10602
10604
10606
10608
10610
10612
10614
10616
10618
10620
10622
10624
10626
10628
10630
10632
10634
10636
10638
10640
10642
10644
10646
10648
10650
10652
10654
10656
10658
10660
10662
10664
10666
10668
10670
10672
10674
10676
10678
10680
10682
10684
10686
10688
10690
10692
10694
10696
10698
10700
10702
10704
10706
10708
10710
10712
10714
10716
10718
10720
10722
10724
10726
10728
10730
10732
10734
10736
10738
10740
10742
10744
10746
10748
10750
10752
10754
10756
10758
10760
10762
10764
10766
10768
10770
10772
10774
10776
10778
10780
10782
10784
10786
10788
10790
10792
10794
10796
10798
10800
10802
10804
10806
10808
10810
10812
10814
10816
10818
10820
10822
10824
10826
10828
10830
10832
10834
10836
10838
10840
10842
10844
10846
10848
10850
10852
10854
10856
10858
10860
10862
10864
10866
10868
10870
10872
10874
10876
10878
10880
10882
10884
10886
10888
10890
10892
10894
10896
10898
10900
10902
10904
10906
10908
10910
10912
10914
10916
10918
10920
10922
10924
10926
10928
10930
10932
10934
10936
10938
10940
10942
10944
10946
10948
10950
10952
10954
10956
10958
10960
10962
10964
10966
10968
10970
10972
10974
10976
10978
10980
10982
10984
10986
10988
10990
10992
10994
10996
10998
11000
11002
11004
11006
11008
11010
11012
11014
11016
11018
11020
11022
11024
11026
11028
11030
11032
11034
11036
11038
11040
11042
11044
11046
11048
11050
11052
11054
11056
11058
11060
11062
11064
11066
11068
11070
11072
11074
11076
11078
11080
11082
11084
11086
11088
11090
11092
11094
11096
11098
11100
11102
11104
11106
11108
11110
11112
11114
11116
11118
11120
11122
11124
11126
11128
11130
11132
11134
11136
11138
11140
11142
11144
11146
11148
11150
11152
11154
11156
11158
11160
11162
11164
11166
11168
11170
11172
11174
11176
11178
11180
11182
11184
11186
11188
11190
11192
11194
11196
11198
11200
11202
11204
11206
11208
11210
11212
11214
11216
11218
11220
11222
11224
11226
11228
11230
11232
11234
11236
11238
11240
11242
11244
11246
11248
11250
11252
11254
11256
11258
11260
11262
11264
11266
11268
11270
11272
11274
11276
11278
11280
11282
11284
11286
11288
11290
11292
11294
11296
11298
11300
11302
11304
11306
11308
11310
11312
11314
11316
11318
11320
11322
11324
11326
11328
11330
11332
11334
11336
11338
11340
11342
11344
11346
11348
11350
11352
11354
11356
11358
11360
11362
11364
11366
11368
11370
11372
11374
11376
11378
11380
11382
11384
11386
11388
11390
11392
11394
11396
11398
11400
11402
11404
11406
11408
11410
11412
11414
11416
11418
11420
11422
11424
11426
11428
11430
11432
11434
11436
11438
11440
11442
11444
11446
11448
11450
11452
11454
11456
11458
11460
11462
11464
11466
11468
11470
11472
11474
11476
11478
11480
11482
11484
11486
11488
11490
11492
11494
11496
11498
11500
11502
11504
11506
11508
11510
11512
11514
11516
11518
11520
11522
11524
11526
11528
11530
11532
11534
11536
11538
11540
11542
11544
11546
11548
11550
11552
11554
11556
11558
11560
11562
11564
11566
11568
11570
11572
11574
11576
11578
11580
11582
11584
11586
11588
11590
11592
11594
11596
11598
11600
11602
11604
11606
11608
11610
11612
11614
11616
11618
11620
11622
11624
11626
11628
11630
11632
11634
11636
11638
11640
11642
11644
11646
11648
11650
11652
11654
11656
11658
11660
11662
11664
11666
11668
11670
11672
11674
11676
11678
11680
11682
11684
11686
11688
11690
11692
11694
11696
11698
11700
11702
11704
11706
11708
11710
11712
11714
11716
11718
11720
11722
11724
11726
11728
11730
11732
11734
11736
11738
11740
11742
11744
11746
11748
11750
11752
11754
11756
11758
11760
11762
11764
11766
11768
11770
11772
11774
11776
11778
11780
11782
11784
11786
11788
11790
11792
11794
11796
11798
11800
11802
11804
11806
11808
11810
11812
11814
11816
11818
11820
11822
11824
11826
11828
11830
11832
11834
11836
11838
11840
11842
11844
11846
11848
11850
11852
11854
11856
11858
11860
11862
11864
11866
11868
11870
11872
11874
11876
11878
11880
11882
11884
11886
11888
11890
11892
11894
11896
11898
11900
11902
11904
11906
11908
11910
11912
11914
11916
11918
11920
11922
11924
11926
11928
11930
11932
11934
11936
11938
11940
11942
11944
11946
11948
11950
11952
11954
11956
11958
11960
11962
11964
11966
11968
11970
11972
11974
11976
11978
11980
11982
11984
11986
11988
11990
11992
11994
11996
11998
12000
12002
12004
12006
12008
12010
12012
12014
12016
12018
12020
12022
12024
12026
12028
12030
12032
12034
12036
12038
12040
12042
12044
12046
12048
12050
12052
12054
12056
12058
12060
12062
12064
12066
12068
12070
12072
12074
12076
12078
12080
12082
12084
12086
12088
12090
12092
12094
12096
12098
12100
12102
12104
12106
12108
12110
12112
12114
12116
12118
12120
12122
12124
12126
12128
12130
12132
12134
12136
12138
12140
12142
12144
12146
12148
12150
12152
12154
12156
12158
12160
12162
12164
12166
12168
12170
12172
12174
12176
12178
12180
12182
12184
12186
12188
12190
12192
12194
12196
12198
12200
12202
12204
12206
12208
12210
12212
12214
12216
12218
12220
12222
12224
12226
12228
12230
12232
12234
12236
12238
12240
12242
12244
12246
12248
12250
12252
12254
12256
12258
12260
12262
12264
12266
12268
12270
12272
12274
12276
12278
12280
12282
12284
12286
12288
12290
12292
12294
12296
12298
12300
12302
12304
12306
12308
12310
12312
12314
12316
12318
12320
12322
12324
12326
12328
12330
12332
12334
12336
12338
12340
12342
12344
12346
12348
12350
12352
12354
12356
12358
12360
12362
12364
12366
12368
12370
12372
12374
12376
12378
12380
12382
12384
12386
12388
12390
12392
12394
12396
12398
12400
12402
12404
12406
12408
12410
12412
12414
12416
12418
12420
12422
12424
12426
12428
12430
12432
12434
12436
12438
12440
12442
12444
12446
12448
12450
12452
12454
12456
12458
12460
12462
12464
12466
12468
12470
12472
12474
12476
12478
12480
12482
12484
12486
12488
12490
12492
12494
12496
12498
12500
12502
12504
12506
12508
12510
12512
12514
12516
12518
12520
12522
12524
12526
12528
12530
12532
12534
12536
12538
12540
12542
12544
12546
12548
12550
12552
12554
12556
12558
12560
12562
12564
12566
12568
12570
12572
12574
12576
12578
12580
12582
12584
12586
12588
12590
12592
12594
12596
12598
12600
12602
12604
12606
12608
12610
12612
12614
12616
12618
12620
12622
12624
12626
12628
12630
12632
12634
12636
12638
12640
12642
12644
12646
12648
12650
12652
12654
12656
12658
12660
12662
12664
12666
12668
12670
12672
12674
12676
12678
12680
12682
12684
12686
12688
12690
12692
12694
12696
12698
12700
12702
12704
12706
12708
12710
12712
12714
12716
12718
12720
12722
12724
12726
12728
12730
12732
12734
12736
12738
12740
12742
12744
12746
12748
12750
12752
12754
12756
12758
12760
12762
12764
12766
12768
12770
12772
12774
12776
12778
12780
12782
12784
12786
12788
12790
12792
12794
12796
12798
12800
12802
12804
12806
12808
12810
12812
12814
12816
12818
12820
12822
12824
12826
12828
12830
12832
12834
12836
12838
12840
12842
12844
12846
12848
12850
12852
12854
12856
12858
12860
12862
12864
12866
12868
12870
12872
12874
12876
12878
12880
12882
12884
12886
12888
12890
12892
12894
12896
12898
12900
12902
12904
12906
12908
12910
12912
12914
12916
12918
12920
12922
12924
12926
12928
12930
12932
12934
12936
12938
12940
12942
12944
12946
12948
12950
12952
12954
12956
12958
12960
12962
12964
12966
12968
12970
12972
12974
12976
12978
12980
12982
12984
12986
12988
12990
12992
12994
12996
12998
13000
13002
13004
13006
13008
13010
13012
13014
13016
13018
13020
13022
13024
13026
13028
13030
13032
13034
13036
13038
13040
13042
13044
13046
13048
13050
13052
13054
13056
13058
13060
13062
13064
13066
13068
13070
13072
13074
13076
13078
13080
13082
13084
13086
13088
13090
13092
13094
13096
13098
13100
13102
13104
13106
13108
13110
13112
13114
13116
13118
13120
13122
13124
13126
13128
13130
13132
13134
13136
13138
13140
13142
13144
13146
13148
13150
13152
13154
13156
13158
13160
13162
13164
13166
13168
13170
13172
13174
13176
13178
13180
13182
13184
13186
13188
13190
13192
13194
13196
13198
13200
13202
13204
13206
13208
13210
13212
13214
13216
13218
13220
13222
13224
13226
13228
13230
13232
13234
13236
13238
13240
13242
13244
13246
13248
13250
13252
13254
13256
13258
13260
13262
13264
13266
13268
13270
13272
13274
13276
13278
13280
13282
13284
13286
13288
13290
13292
13294
13296
13298
13300
13302
13304
13306
13308
13310
13312
13314
13316
13318
13320
13322
13324
13326
13328
13330
13332
13334
13336
13338
13340
13342
13344
13346
13348
13350
13352
13354
13356
13358
13360
13362
13364
13366
13368
13370
13372
13374
13376
13378
13380
13382
13384
13386
13388
13390
13392
13394
13396
13398
13400
13402
13404
13406
13408
13410
13412
13414
13416
13418
13420
13422
13424
13426
13428
13430
13432
13434
13436
13438
13440
13442
13444
13446
13448
13450
13452
13454
13456
13458
13460
13462
13464
13466
13468
13470
13472
13474
13476
13478
13480
13482
13484
13486
13488
13490
13492
13494
13496
13498
13500
13502
13504
13506
13508
13510
13512
13514
13516
13518
13520
13522
13524
13526
13528
13530
13532
13534
13536
13538
13540
13542
13544
13546
13548
13550
13552
13554
13556
13558
13560
13562
13564
13566
13568
13570
13572
13574
13576
13578
13580
13582
13584
13586
13588
13590
13592
13594
13596
13598
13600
13602
13604
13606
13608
13610
13612
13614
13616
13618
13620
13622
13624
13626
13628
13630
13632
13634
13636
13638
13640
13642
13644
13646
13648
13650
13652
13654
13656
13658
13660
13662
13664
13666
13668
13670
13672
13674
13676
13678
13680
13682
13684
13686
13688
13690
13692
13694
13696
13698
13700
13702
13704
13706
13708
13710
13712
13714
13716
13718
13720
13722
13724
13726
13728
13730
13732
13734
13736
13738
13740
13742
13744
13746
13748
13750
13752
13754
13756
13758
13760
13762
13764
13766
13768
13770
13772
13774
13776
13778
13780
13782
13784
13786
13788
13790
13792
13794
13796
13798
13800
13802
13804
13806
13808
13810
13812
13814
13816
13818
13820
13822
13824
13826
13828
13830
13832
13834
13836
13838
13840
13842
13844
13846
13848
13850
13852
13854
13856
13858
13860
13862
13864
13866
13868
13870
13872
13874
13876
13878
13880
13882
13884
13886
13888
13890
13892
13894
13896
13898
13900
13902
13904
13906
13908
13910
13912
13914
13916
13918
13920
13922
13924
13926
13928
13930
13932
13934
13936
13938
13940
13942
13944
13946
13948
13950
13952
13954
13956
13958
13960
13962
13964
13966
13968
13970
13972
13974
13976
13978
13980
13982
13984
13986
13988
13990
13992
13994
13996
13998
14000
14002
14004
14006
14008
14010
14012
14014
14016
14018
14020
14022
14024
14026
14028
14030
14032
14034
14036
14038
14040
14042
14044
14046
14048
14050
14052
14054
14056
14058
14060
14062
14064
14066
14068
14070
14072
14074
14076
14078
14080
14082
14084
14086
14088
14090
14092
14094
14096
14098
14100
14102
14104
14106
14108
14110
14112
14114
14116
14118
14120
14122
14124
14126
14128
14130
14132
14134
14136
14138
14140
14142
14144
14146
14148
14150
14152
14154
14156
14158
14160
14162
14164
14166
14168
14170
14172
14174
14176
14178
14180
14182
14184
14186
14188
14190
14192
14194
14196
14198
14200
14202
14204
14206
14208
14210
14212
14214
14216
14218
14220
14222
14224
14226
14228
14230
14232
14234
14236
14238
14240
14242
14244
14246
14248
14250
14252
14254
14256
14258
14260
14262
14264
14266
14268
14270
14272
14274
14276
14278
14280
14282
14284
14286
14288
14290
14292
14294
14296
14298
14300
14302
14304
14306
14308
14310
14312
14314
14316
14318
14320
14322
14324
14326
14328
14330
14332
14334
14336
14338
14340
14342
14344
14346
14348
14350
14352
14354
14356
14358
14360
14362
14364
14366
14368
14370
14372
14374
14376
14378
14380
14382
14384
14386
14388
14390
14392
14394
14396
14398
14400
14402
14404
14406
14408
14410
14412
14414
14416
14418
14420
14422
14424
14426
14428
14430
14432
14434
14436
14438
14440
14442
14444
14446
14448
14450
14452
14454
14456
14458
14460
14462
14464
14466
14468
14470
14472
14474
14476
14478
14480
14482
14484
14486
14488
14490
14492
14494
14496
14498
14500
14502
14504
14506
14508
14510
14512
14514
14516
14518
14520
14522
14524
14526
14528
14530
14532
14534
14536
14538
14540
14542
14544
14546
14548
14550
14552
14554
14556
14558
14560
14562
14564
14566
14568
14570
14572
14574
14576
14578
14580
14582
14584
14586
14588
14590
14592
14594
14596
14598
14600
14602
14604
14606
14608
14610
14612
14614
14616
14618
14620
14622
14624
14626
14628
14630
14632
14634
14636
14638
14640
14642
14644
14646
14648
14650
14652
14654
14656
14658
14660
14662
14664
14666
14668
14670
14672
14674
14676
14678
14680
14682
14684
14686
14688
14690
14692
14694
14696
14698
14700
14702
14704
14706
14708
14710
14712
14714
14716
14718
14720
14722
14724
14726
14728
14730
14732
14734
14736
14738
14740
14742
14744
14746
14748
14750
14752
14754
14756
14758
14760
14762
14764
14766
14768
14770
14772
14774
14776
14778
14780
14782
14784
14786
14788
14790
14792
14794
14796
14798
14800
14802
14804
14806
14808
14810
14812
14814
14816
14818
14820
14822
14824
14826
14828
14830
14832
14834
14836
14838
14840
14842
14844
14846
14848
14850
14852
14854
14856
14858
14860
14862
14864
14866
14868
14870
14872
14874
14876
14878
14880
14882
14884
14886
14888
14890
14892
14894
14896
14898
14900
14902
14904
14906
14908
14910
14912
14914
14916
14918
14920
14922
14924
14926
14928
14930
14932
14934
14936
14938
14940
14942
14944
14946
14948
14950
14952
14954
14956
14958
14960
14962
14964
14966
14968
14970
14972
14974
14976
14978
14980
14982
14984
14986
14988
14990
14992
14994
14996
14998
15000
15002
15004
15006
15008
15010
15012
15014
15016
15018
15020
15022
15024
15026
15028
15030
15032
15034
15036
15038
15040
15042
15044
15046
15048
15050
15052
15054
15056
15058
15060
15062
15064
15066
15068
15070
15072
15074
15076
15078
15080
15082
15084
15086
15088
15090
15092
15094
15096
15098
15100
15102
15104
15106
15108
15110
15112
15114
15116
15118
15120
15122
15124
15126
15128
15130
15132
15134
15136
15138
15140
15142
15144
15146
15148
15150
15152
15154
15156
15158
15160
15162
15164
15166
15168
15170
15172
15174
15176
15178
15180
15182
15184
15186
15188
15190
15192
15194
15196
15198
15200
15202
15204
15206
15208
15210
15212
15214
15216
15218
15220
15222
15224
15226
15228
15230
15232
15234
15236
15238
15240
15242
15244
15246
15248
15250
15252
15254
15256
15258
15260
15262
15264
15266
15268
15270
15272
15274
15276
15278
15280
15282
15284
15286
15288
15290
15292
15294
15296
15298
15300
15302
15304
15306
15308
15310
15312
15314
15316
15318
15320
15322
15324
15326
15328
15330
15332
15334
15336
15338
15340
15342
15344
15346
15348
15350
15352
15354
15356
15358
15360
15362
15364
15366
15368
15370
15372
15374
15376
15378
15380
15382
15384
15386
15388
15390
15392
15394
15396
15398
15400
15402
15404
15406
15408
15410
15412
15414
15416
15418
15420
15422
15424
15426
15428
15430
15432
15434
15436
15438
15440
15442
15444
15446
15448
15450
15452
15454
15456
15458
15460
15462
15464
15466
15468
15470
15472
15474
15476
15478
15480
15482
15484
15486
15488
15490
15492
15494
15496
15498
15500
15502
15504
15506
15508
15510
15512
15514
15516
15518
15520
15522
15524
15526
15528
15530
15532
15534
15536
15538
15540
15542
15544
15546
15548
15550
15552
15554
15556
15558
15560
15562
15564
15566
15568
15570
15572
15574
15576
15578
15580
15582
15584
15586
15588
15590
15592
15594
15596
15598
15600
15602
15604
15606
15608
15610
15612
15614
15616
15618
15620
15622
15624
15626
15628
15630
15632
15634
15636
15638
15640
15642
15644
15646
15648
15650
15652
15654
15656
15658
15660
15662
15664
15666
15668
15670
15672
15674
15676
15678
15680
15682
15684
15686
15688
15690
15692
15694
15696
15698
15700
15702
15704
15706
15708
15710
15712
15714
15716
15718
15720
15722
15724
15726
15728
15730
15732
15734
15736
15738
15740
15742
15744
15746
15748
15750
15752
15754
15756
15758
15760
15762
15764
15766
15768
15770
15772
15774
15776
15778
15780
15782
15784
15786
15788
15790
15792
15794
15796
15798
15800
15802
15804
15806
15808
15810
15812
15814
15816
15818
15820
15822
15824
15826
15828
15830
15832
15834
15836
15838
15840
15842
15844
15846
15848
15850
15852
15854
15856
15858
15860
15862
15864
15866
15868
15870
15872
15874
15876
15878
15880
15882
15884
15886
15888
15890
15892
15894
15896
15898
15900
15902
15904
15906
15908
15910
15912
15914
15916
15918
15920
15922
15924
15926
15928
15930
15932
15934
15936
15938
15940
15942
15944
15946
15948
15950
15952
15954
15956
15958
15960
15962
15964
15966
15968
15970
15972
15974
15976
15978
15980
15982
15984
15986
15988
15990
15992
15994
15996
15998
16000
16002
16004
16006
16008
16010
16012
16014
16016
16018
16020
16022
16024
16026
16028
16030
16032
16034
16036
16038
16040
16042
16044
16046
16048
16050
16052
16054
16056
16058
16060
16062
16064
16066
16068
16070
16072
16074
16076
16078
16080
16082
16084
16086
16088
16090
16092
16094
16096
16098
16100
16102
16104
16106
16108
16110
16112
16114
16116
16118
16120
16122
16124
16126
16128
16130
16132
16134
16136
16138
16140
16142
16144
16146
16148
16150
16152
16154
16156
16158
16160
16162
16164
16166
16168
16170
16172
16174
16176
16178
16180
16182
16184
16186
16188
16190
16192
16194
16196
16198
16200
16202
16204
16206
16208
16210
16212
16214
16216
16218
16220
16222
16224
16226
16228
16230
16232
16234
16236
16238
16240
16242
16244
16246
16248
16250
16252
16254
16256
16258
16260
16262
16264
16266
16268
16270
16272
16274
16276
16278
16280
16282
16284
16286
16288
16290
16292
16294
16296
16298
16300
16302
16304
16306
16308
16310
16312
16314
16316
16318
16320
16322
16324
16326
16328
16330
16332
16334
16336
16338
16340
16342
16344
16346
16348
16350
16352
16354
16356
16358
16360
16362
16364
16366
16368
16370
16372
16374
16376
16378
16380
16382
16384
16386
16388
16390
16392
16394
16396
16398
16400
16402
16404
16406
16408
16410
16412
16414
16416
16418
16420
16422
16424
16426
16428
16430
16432
16434
16436
16438
16440
16442
16444
16446
16448
16450
16452
16454
16456
16458
16460
16462
16464
16466
16468
16470
16472
16474
16476
16478
16480
16482
16484
16486
16488
16490
16492
16494
16496
16498
16500
16502
16504
16506
16508
16510
16512
16514
16516
16518
16520
16522
16524
16526
16528
16530
16532
16534
16536
16538
16540
16542
16544
16546
16548
16550
16552
16554
16556
16558
16560
16562
16564
16566
16568
16570
16572
16574
16576
16578
16580
16582
16584
16586
16588
16590
16592
16594
16596
16598
16600
16602
16604
16606
16608
16610
16612
16614
16616
16618
16620
16622
16624
16626
16628
16630
16632
16634
16636
16638
16640
16642
16644
16646
16648
16650
16652
16654
16656
16658
16660
16662
16664
16666
16668
16670
16672
16674
16676
16678
16680
16682
16684
16686
16688
16690
16692
16694
16696
16698
16700
16702
16704
16706
16708
16710
16712
16714
16716
16718
16720
16722
16724
16726
16728
16730
16732
16734
16736
16738
16740
16742
16744
16746
16748
16750
16752
16754
16756
16758
16760
16762
16764
16766
16768
16770
16772
16774
16776
16778
16780
16782
16784
16786
16788
16790
16792
16794
16796
16798
16800
16802
16804
16806
16808
16810
16812
16814
16816
16818
16820
16822
16824
16826
16828
16830
16832
16834
16836
16838
16840
16842
16844
16846
16848
16850
16852
16854
16856
16858
16860
16862
16864
16866
16868
16870
16872
16874
16876
16878
16880
16882
16884
16886
16888
16890
16892
16894
16896
16898
16900
16902
16904
16906
16908
16910
16912
16914
16916
16918
16920
16922
16924
16926
16928
16930
16932
16934
16936
16938
16940
16942
16944
16946
16948
16950
16952
16954
16956
16958
16960
16962
16964
16966
16968
16970
16972
16974
16976
16978
16980
16982
16984
16986
16988
16990
16992
16994
16996
16998
17000
17002
17004
17006
17008
17010
17012
17014
17016
17018
17020
17022
17024
17026
17028
17030
17032
17034
17036
17038
17040
17042
17044
17046
17048
17050
17052
17054
17056
17058
17060
17062
17064
17066
17068
17070
17072
17074
17076
17078
17080
17082
17084
17086
17088
17090
17092
17094
17096
17098
17100
17102
17104
17106
17108
17110
17112
17114
17116
17118
17120
17122
17124
17126
17128
17130
17132
17134
17136
17138
17140
17142
17144
17146
17148
17150
17152
17154
17156
17158
17160
17162
17164
17166
17168
17170
17172
17174
17176
17178
17180
17182
17184
17186
17188
17190
17192
17194
17196
17198
17200
17202
17204
17206
17208
17210
17212
17214
17216
17218
17220
17222
17224
17226
17228
17230
17232
17234
17236
17238
17240
17242
17244
17246
17248
17250
17252
17254
17256
17258
17260
17262
17264
17266
17268
17270
17272
17274
17276
17278
17280
17282
17284
17286
17288
17290
17292
17294
17296
17298
17300
17302
17304
17306
17308
17310
17312
17314
17316
17318
17320
17322
17324
17326
17328
17330
17332
17334
17336
17338
17340
17342
17344
17346
17348
17350
17352
17354
17356
17358
17360
17362
17364
17366
17368
17370
17372
17374
17376
17378
17380
17382
17384
17386
17388
17390
17392
17394
17396
17398
17400
17402
17404
17406
17408
17410
17412
17414
17416
17418
17420
17422
17424
17426
17428
17430
17432
17434
17436
17438
17440
17442
17444
17446
17448
17450
17452
17454
17456
17458
17460
17462
17464
17466
17468
17470
17472
17474
17476
17478
17480
17482
17484
17486
17488
17490
17492
17494
17496
17498
17500
17502
17504
17506
17508
17510
17512
17514
17516
17518
17520
17522
17524
17526
17528
17530
17532
17534
17536
17538
17540
17542
17544
17546
17548
17550
17552
17554
17556
17558
17560
17562
17564
17566
17568
17570
17572
17574
17576
17578
17580
17582
17584
17586
17588
17590
17592
17594
17596
17598
17600
17602
17604
17606
17608
17610
17612
17614
17616
17618
17620
17622
17624
17626
17628
17630
17632
17634
17636
17638
17640
17642
17644
17646
17648
17650
17652
17654
17656
17658
17660
17662
17664
17666
17668
17670
17672
17674
17676
17678
17680
17682
17684
17686
17688
17690
17692
17694
17696
17698
17700
17702
17704
17706
17708
17710
17712
17714
17716
17718
17720
17722
17724
17726
17728
17730
17732
17734
17736
17738
17740
17742
17744
17746
17748
17750
17752
17754
17756
17758
17760
17762
17764
17766
17768
17770
17772
17774
17776
17778
17780
17782
17784
17786
17788
17790
17792
17794
17796
17798
17800
17802
17804
17806
17808
17810
17812
17814
17816
17818
17820
17822
17824
17826
17828
17830
17832
17834
17836
17838
17840
17842
17844
17846
17848
17850
17852
17854
17856
17858
17860
17862
17864
17866
17868
17870
17872
17874
17876
17878
17880
17882
17884
17886
17888
17890
17892
17894
17896
17898
17900
17902
17904
17906
17908
17910
17912
17914
17916
17918
17920
17922
17924
17926
17928
17930
17932
17934
17936
17938
17940
17942
17944
17946
17948
17950
17952
17954
17956
17958
17960
17962
17964
17966
17968
17970
17972
17974
17976
17978
17980
17982
17984
17986
17988
17990
17992
17994
17996
17998
18000
18002
18004
18006
18008
18010
18012
18014
18016
18018
18020
18022
18024
18026
18028
18030
18032
18034
18036
18038
18040
18042
18044
18046
18048
18050
18052
18054
18056
18058
18060
18062
18064
18066
18068
18070
18072
18074
18076
18078
18080
18082
18084
18086
18088
18090
18092
18094
18096
18098
18100
18102
18104
18106
18108
18110
18112
18114
18116
18118
18120
18122
18124
18126
18128
18130
18132
18134
18136
18138
18140
18142
18144
18146
18148
18150
18152
18154
18156
18158
18160
18162
18164
18166
18168
18170
18172
18174
18176
18178
18180
18182
18184
18186
18188
18190
18192
18194
18196
18198
18200
18202
18204
18206
18208
18210
18212
18214
18216
18218
18220
18222
18224
18226
18228
18230
18232
18234
18236
18238
18240
18242
18244
18246
18248
18250
18252
18254
18256
18258
18260
18262
18264
18266
18268
18270
18272
18274
18276
18278
18280
18282
18284
18286
18288
18290
18292
18294
18296
18298
18300
18302
18304
18306
18308
18310
18312
18314
18316
18318
18320
18322
18324
18326
18328
18330
18332
18334
18336
18338
18340
18342
18344
18346
18348
18350
18352
18354
18356
18358
18360
18362
18364
18366
18368
18370
18372
18374
18376
18378
18380
18382
18384
18386
18388
18390
18392
18394
18396
18398
18400
18402
18404
18406
18408
18410
18412
18414
18416
18418
18420
18422
18424
18426
18428
18430
18432
18434
18436
18438
18440
18442
18444
18446
18448
18450
18452
18454
18456
18458
18460
18462
18464
18466
18468
18470
18472
18474
18476
18478
18480
18482
18484
18486
18488
18490
18492
18494
18496
18498
18500
18502
18504
18506
18508
18510
18512
18514
18516
18518
18520
18522
18524
18526
18528
18530
18532
18534
18536
18538
18540
18542
18544
18546
18548
18550
18552
18554
18556
18558
18560
18562
18564
18566
18568
18570
18572
18574
18576
18578
18580
18582
18584
18586
18588
18590
18592
18594
18596
18598
18600
18602
18604
18606
18608
18610
18612
18614
18616
18618
18620
18622
18624
18626
18628
18630
18632
18634
18636
18638
18640
18642
18644
18646
18648
18650
18652
18654
18656
18658
18660
18662
18664
18666
18668
18670
18672
18674
18676
18678
18680
18682
18684
18686
18688
18690
18692
18694
18696
18698
18700
18702
18704
18706
18708
18710
18712
18714
18716
18718
18720
18722
18724
18726
18728
18730
18732
18734
18736
18738
18740
18742
18744
18746
18748
18750
18752
18754
18756
18758
18760
18762
18764
18766
18768
18770
18772
18774
18776
18778
18780
18782
18784
18786
18788
18790
18792
18794
18796
18798
18800
18802
18804
18806
18808
18810
18812
18814
18816
18818
18820
18822
18824
18826
18828
18830
18832
18834
18836
18838
18840
18842
18844
18846
18848
18850
18852
18854
18856
18858
18860
18862
18864
18866
18868
18870
18872
18874
18876
18878
18880
18882
18884
18886
18888
18890
18892
18894
18896
18898
18900
18902
18904
18906
18908
18910
18912
18914
18916
18918
18920
18922
18924
18926
18928
18930
18932
18934
18936
18938
18940
18942
18944
18946
18948
18950
18952
18954
18956
18958
18960
18962
18964
18966
18968
18970
18972
18974
18976
18978
18980
18982
18984
18986
18988
18990
18992
18994
18996
18998
19000
19002
19004
19006
19008
19010
19012
19014
19016
19018
19020
19022
19024
19026
19028
19030
19032
19034
19036
19038
19040
19042
19044
19046
19048
19050
19052
19054
19056
19058
19060
19062
19064
19066
19068
19070
19072
19074
19076
19078
19080
19082
19084
19086
19088
19090
19092
19094
19096
19098
19100
19102
19104
19106
19108
19110
19112
19114
19116
19118
19120
19122
19124
19126
19128
19130
19132
19134
19136
19138
19140
19142
19144
19146
19148
19150
19152
19154
19156
19158
19160
19162
19164
19166
19168
19170
19172
19174
19176
19178
19180
19182
19184
19186
19188
19190
19192
19194
19196
19198
19200
19202
19204
19206
19208
19210
19212
19214
19216
19218
19220
19222
19224
19226
19228
19230
19232
19234
19236
19238
19240
19242
19244
19246
19248
19250
19252
19254
19256
19258
19260
19262
19264
19266
19268
19270
19272
19274
19276
19278
19280
19282
19284
19286
19288
19290
19292
19294
19296
19298
19300
19302
19304
19306
19308
19310
19312
19314
19316
19318
19320
19322
19324
19326
19328
19330
19332
19334
19336
19338
19340
19342
19344
19346
19348
19350
19352
19354
19356
19358
19360
19362
19364
19366
19368
19370
19372
19374
19376
19378
19380
19382
19384
19386
19388
19390
19392
19394
19396
19398
19400
19402
19404
19406
19408
19410
19412
19414
19416
19418
19420
19422
19424
19426
19428
19430
19432
19434
19436
19438
19440
19442
19444
19446
19448
19450
19452
19454
19456
19458
19460
19462
19464
19466
19468
19470
19472
19474
19476
19478
19480
19482
19484
19486
19488
19490
19492
19494
19496
19498
19500
19502
19504
19506
19508
19510
19512
19514
19516
19518
19520
19522
19524
19526
19528
19530
19532
19534
19536
19538
19540
19542
19544
19546
19548
19550
19552
19554
19556
19558
19560
19562
19564
19566
19568
19570
19572
19574
19576
19578
19580
19582
19584
19586
19588
19590
19592
19594
19596
19598
19600
19602
19604
19606
19608
19610
19612
19614
19616
19618
19620
19622
19624
19626
19628
19630
19632
19634
19636
19638
19640
19642
19644
19646
19648
19650
19652
19654
19656
19658
19660
19662
19664
19666
19668
19670
19672
19674
19676
19678
19680
19682
19684
19686
19688
19690
19692
19694
19696
19698
19700
19702
19704
19706
19708
19710
19712
19714
19716
19718
19720
19722
19724
19726
19728
19730
19732
19734
19736
19738
19740
19742
19744
19746
19748
19750
19752
19754
19756
19758
19760
19762
19764
19766
19768
19770
19772
19774
19776
19778
19780
19782
19784
19786
19788
19790
19792
19794
19796
19798
19800
19802
19804
19806
19808
19810
19812
19814
19816
19818
19820
19822
19824
19826
19828
19830
19832
19834
19836
19838
19840
19842
19844
19846
19848
19850
19852
19854
19856
19858
19860
19862
19864
19866
19868
19870
19872
19874
19876
19878
19880
19882
19884
19886
19888
19890
19892
19894
19896
19898
19900
19902
19904
19906
19908
19910
19912
19914
19916
19918
19920
19922
19924
19926
19928
19930
19932
19934
19936
19938
19940
19942
19944
19946
19948
19950
19952
19954
19956
19958
19960
19962
19964
19966
19968
19970
19972
19974
19976
19978
19980
19982
19984
19986
19988
19990
19992
19994
19996
19998
20000
20002
20004
20006
20008
20010
20012
20014
20016
20018
20020
20022
20024
20026
20028
20030
20032
20034
20036
20038
20040
20042
20044
20046
20048
20050
20052
20054
20056
20058
20060
20062
20064
20066
20068
20070
20072
20074
20076
20078
20080
20082
20084
20086
20088
20090
20092
20094
20096
20098
20100
20102
20104
20106
20108
20110
20112
20114
20116
20118
20120
20122
20124
20126
20128
20130
20132
20134
20136
20138
20140
20142
20144
20146
20148
20150
20152
20154
20156
20158
20160
20162
20164
20166
20168
20170
20172
20174
20176
20178
20180
20182
20184
20186
20188
20190
20192
20194
20196
20198
20200
20202
20204
20206
20208
20210
20212
20214
20216
20218
20220
20222
20224
20226
20228
20230
20232
20234
20236
20238
20240
20242
20244
20246
20248
20250
20252
20254
20256
20258
20260
20262
20264
20266
20268
20270
20272
20274
20276
20278
20280
20282
20284
20286
20288
20290
20292
20294
20296
20298
20300
20302
20304
20306
20308
20310
20312
20314
20316
20318
20320
20322
20324
20326
20328
20330
20332
20334
20336
20338
20340
20342
20344
20346
20348
20350
20352
20354
20356
20358
20360
20362
20364
20366
20368
20370
20372
20374
20376
20378
20380
20382
20384
20386
20388
20390
20392
20394
20396
20398
20400
20402
20404
20406
20408
20410
20412
20414
20416
20418
20420
20422
20424
20426
20428
20430
20432
20434
20436
20438
20440
20442
20444
20446
20448
20450
20452
20454
20456
20458
20460
20462
20464
20466
20468
20470
20472
20474
20476
20478
20480
20482
20484
20486
20488
20490
20492
20494
20496
20498
20500
20502
20504
20506
20508
20510
20512
20514
20516
20518
20520
20522
20524
20526
20528
20530
20532
20534
20536
20538
20540
20542
20544
20546
20548
20550
20552
20554
20556
20558
20560
20562
20564
20566
20568
20570
20572
20574
20576
20578
20580
20582
20584
20586
20588
20590
20592
20594
20596
20598
20600
20602
20604
20606
20608
20610
20612
20614
20616
20618
20620
20622
20624
20626
20628
20630
20632
20634
20636
20638
20640
20642
20644
20646
20648
20650
20652
20654
20656
20658
20660
20662
20664
20666
20668
20670
20672
20674
20676
20678
20680
20682
20684
20686
20688
20690
20692
20694
20696
20698
20700
20702
20704
20706
20708
20710
20712
20714
20716
20718
20720
20722
20724
20726
20728
20730
20732
20734
20736
20738
20740
20742
20744
20746
20748
20750
20752
20754
20756
20758
20760
20762
20764
20766
20768
20770
20772
20774
20776
20778
20780
20782
20784
20786
20788
20790
20792
20794
20796
20798
20800
20802
20804
20806
20808
20810
20812
20814
20816
20818
20820
20822
20824
20826
20828
20830
20832
20834
20836
20838
20840
20842
20844
20846
20848
20850
20852
20854
20856
20858
20860
20862
20864
20866
20868
20870
20872
20874
20876
20878
20880
20882
20884
20886
20888
20890
20892
20894
20896
20898
20900
20902
20904
20906
20908
20910
20912
20914
20916
20918
20920
20922
20924
20926
20928
20930
20932
20934
20936
20938
20940
20942
20944
20946
20948
20950
20952
20954
20956
20958
20960
20962
20964
20966
20968
20970
20972
20974
20976
20978
20980
20982
20984
20986
20988
20990
20992
20994
20996
20998
21000
21002
21004
21006
21008
21010
21012
21014
21016
21018
21020
21022
21024
21026
21028
21030
21032
21034
21036
21038
21040
21042
21044
21046
21048
21050
21052
21054
21056
21058
21060
21062
21064
21066
21068
21070
21072
21074
21076
21078
21080
21082
21084
21086
21088
21090
21092
21094
21096
21098
21100
21102
21104
21106
21108
21110
21112
21114
21116
21118
21120
21122
21124
21126
21128
21130
21132
21134
21136
21138
21140
21142
21144
21146
21148
21150
21152
21154
21156
21158
21160
21162
21164
21166
21168
21170
21172
21174
21176
21178
21180
21182
21184
21186
21188
21190
21192
21194
21196
21198
21200
21202
21204
21206
21208
21210
21212
21214
21216
21218
21220
21222
21224
21226
21228
21230
21232
21234
21236
21238
21240
21242
21244
21246
21248
21250
21252
21254
21256
21258
21260
21262
21264
21266
21268
21270
21272
21274
21276
21278
21280
21282
21284
21286
21288
21290
21292
21294
21296
21298
21300
21302
21304
21306
21308
21310
21312
21314
21316
21318
21320
21322
21324
21326
21328
21330
21332
21334
21336
21338
21340
21342
21344
21346
21348
21350
21352
21354
21356
21358
21360
21362
21364
21366
21368
21370
21372
21374
21376
21378
21380
21382
21384
21386
21388
21390
21392
21394
21396
21398
21400
21402
21404
21406
21408
21410
21412
21414
21416
21418
21420
21422
21424
21426
21428
21430
21432
21434
21436
21438
21440
21442
21444
21446
21448
21450
21452
21454
21456
21458
21460
21462
21464
21466
21468
21470
21472
21474
21476
21478
21480
21482
21484
21486
21488
21490
21492
21494
21496
21498
21500
21502
21504
21506
21508
21510
21512
21514
21516
21518
21520
21522
21524
21526
21528
21530
21532
21534
21536
21538
21540
21542
21544
21546
21548
21550
21552
21554
21556
21558
21560
21562
21564
21566
21568
21570
21572
21574
21576
21578
21580
21582
21584
21586
21588
21590
21592
21594
21596
21598
21600
21602
21604
21606
21608
21610
21612
21614
21616
21618
21620
21622
21624
21626
21628
21630
21632
21634
21636
21638
21640
21642
21644
21646
21648
21650
21652
21654
21656
21658
21660
21662
21664
21666
21668
21670
21672
21674
21676
21678
21680
21682
21684
21686
21688
21690
21692
21694
21696
21698
21700
21702
21704
21706
21708
21710
21712
21714
21716
21718
21720
21722
21724
21726
21728
21730
21732
21734
21736
21738
21740
21742
21744
21746
21748
21750
21752
21754
21756
21758
21760
21762
21764
21766
21768
21770
21772
21774
21776
21778
21780
21782
21784
21786
21788
21790
21792
21794
21796
21798
21800
21802
21804
21806
21808
21810
21812
21814
21816
21818
21820
21822
21824
21826
21828
21830
21832
21834
21836
21838
21840
21842
21844
21846
21848
21850
21852
21854
21856
21858
21860
21862
21864
21866
21868
21870
21872
21874
21876
21878
21880
21882
21884
21886
21888
21890
21892
21894
21896
21898
21900
21902
21904
21906
21908
21910
21912
21914
21916
21918
21920
21922
21924
21926
21928
21930
21932
21934
21936
21938
21940
21942
21944
21946
21948
21950
21952
21954
21956
21958
21960
21962
21964
21966
21968
21970
21972
21974
21976
21978
21980
21982
21984
21986
21988
21990
21992
21994
21996
21998
22000
22002
22004
22006
22008
22010
22012
22014
22016
22018
22020
22022
22024
22026
22028
22030
22032
22034
22036
22038
22040
22042
22044
22046
22048
22050
22052
22054
22056
22058
22060
22062
22064
22066
22068
22070
22072
22074
22076
22078
22080
22082
22084
22086
22088
22090
22092
22094
22096
22098
22100
22102
22104
22106
22108
22110
22112
22114
22116
22118
22120
22122
22124
22126
22128
22130
22132
22134
22136
22138
22140
22142
22144
22146
22148
22150
22152
22154
22156
22158
22160
22162
22164
22166
22168
22170
22172
22174
22176
22178
22180
22182
22184
22186
22188
22190
22192
22194
22196
22198
22200
22202
22204
22206
22208
22210
22212
22214
22216
22218
22220
22222
22224
22226
22228
22230
22232
22234
22236
22238
22240
22242
22244
22246
22248
22250
22252
22254
22256
22258
22260
22262
22264
22266
22268
22270
22272
22274
22276
22278
22280
22282
22284
22286
22288
22290
22292
22294
22296
22298
22300
22302
22304
22306
22308
22310
22312
22314
22316
22318
22320
22322
22324
22326
22328
22330
22332
22334
22336
22338
22340
22342
22344
22346
22348
22350
22352
22354
22356
22358
22360
22362
22364
22366
22368
22370
22372
22374
22376
22378
22380
22382
22384
22386
22388
22390
22392
22394
22396
22398
22400
22402
22404
22406
22408
22410
22412
22414
22416
22418
22420
22422
22424
22426
22428
22430
22432
22434
22436
22438
22440
22442
22444
22446
22448
22450
22452
22454
22456
22458
22460
22462
22464
22466
22468
22470
22472
22474
22476
22478
22480
22482
22484
22486
22488
22490
22492
22494
22496
22498
22500
22502
22504
22506
22508
22510
22512
22514
22516
22518
22520
22522
22524
22526
22528
22530
22532
22534
22536
22538
22540
22542
22544
22546
22548
22550
22552
22554
22556
22558
22560
22562
22564
22566
22568
22570
22572
22574
22576
22578
22580
22582
22584
22586
22588
22590
22592
22594
22596
22598
22600
22602
22604
22606
22608
22610
22612
22614
22616
22618
22620
22622
22624
22626
22628
22630
22632
22634
22636
22638
22640
22642
22644
22646
22648
22650
22652
22654
22656
22658
22660
22662
22664
22666
22668
22670
22672
22674
22676
22678
22680
22682
22684
22686
22688
22690
22692
22694
22696
22698
22700
22702
22704
22706
22708
22710
22712
22714
22716
22718
22720
22722
22724
22726
22728
22730
22732
22734
22736
22738
22740
22742
22744
22746
22748
22750
22752
22754
22756
22758
22760
22762
22764
22766
22768
22770
22772
22774
22776
22778
22780
22782
22784
22786
22788
22790
22792
22794
22796
22798
22800
22802
22804
22806
22808
22810
22812
22814
22816
22818
22820
22822
22824
22826
22828
22830
22832
22834
22836
22838
22840
22842
22844
22846
22848
22850
22852
22854
22856
22858
22860
22862
22864
22866
22868
22870
22872
22874
22876
22878
22880
22882
22884
22886
22888
22890
22892
22894
22896
22898
22900
22902
22904
22906
22908
22910
22912
22914
22916
22918
22920
22922
22924
22926
22928
22930
22932
22934
22936
22938
22940
22942
22944
22946
22948
22950
22952
22954
22956
22958
22960
22962
22964
22966
22968
22970
22972
22974
22976
22978
22980
22982
22984
22986
22988
22990
22992
22994
22996
22998
23000
23002
23004
23006
23008
23010
23012
23014
23016
23018
23020
23022
23024
23026
23028
23030
23032
23034
23036
23038
23040
23042
23044
23046
23048
23050
23052
23054
23056
23058
23060
23062
23064
23066
23068
23070
23072
23074
23076
23078
23080
23082
23084
23086
23088
23090
23092
23094
23096
23098
23100
23102
23104
23106
23108
23110
23112
23114
23116
23118
23120
23122
23124
23126
23128
23130
23132
23134
23136
23138
23140
23142
23144
23146
23148
23150
23152
23154
23156
23158
23160
23162
23164
23166
23168
23170
23172
23174
23176
23178
23180
23182
23184
23186
23188
23190
23192
23194
23196
23198
23200
23202
23204
23206
23208
23210
23212
23214
23216
23218
23220
23222
23224
23226
23228
23230
23232
23234
23236
23238
23240
23242
23244
23246
23248
23250
23252
23254
23256
23258
23260
23262
23264
23266
23268
23270
23272
23274
23276
23278
23280
23282
23284
23286
23288
23290
23292
23294
23296
23298
23300
23302
23304
23306
23308
23310
23312
23314
23316
23318
23320
23322
23324
23326
23328
23330
23332
23334
23336
23338
23340
23342
23344
23346
23348
23350
23352
23354
23356
23358
23360
23362
23364
23366
23368
23370
23372
23374
23376
23378
23380
23382
23384
23386
23388
23390
23392
23394
23396
23398
23400
23402
23404
23406
23408
23410
23412
23414
23416
23418
23420
23422
23424
23426
23428
23430
23432
23434
23436
23438
23440
23442
23444
23446
23448
23450
23452
23454
23456
23458
23460
23462
23464
23466
23468
23470
23472
23474
23476
23478
23480
23482
23484
23486
23488
23490
23492
23494
23496
23498
23500
23502
23504
23506
23508
23510
23512
23514
23516
23518
23520
23522
23524
23526
23528
23530
23532
23534
23536
23538
23540
23542
23544
23546
23548
23550
23552
23554
23556
23558
23560
23562
23564
23566
23568
23570
23572
23574
23576
23578
23580
23582
23584
23586
23588
23590
23592
23594
23596
23598
23600
23602
23604
23606
23608
23610
23612
23614
23616
23618
23620
23622
23624
23626
23628
23630
23632
23634
23636
23638
23640
23642
23644
23646
23648
23650
23652
23654
23656
23658
23660
23662
23664
23666
23668
23670
23672
23674
23676
23678
23680
23682
23684
23686
23688
23690
23692
23694
23696
23698
23700
23702
23704
23706
23708
23710
23712
23714
23716
23718
23720
23722
23724
23726
23728
23730
23732
23734
23736
23738
23740
23742
23744
23746
23748
23750
23752
23754
23756
23758
23760
23762
23764
23766
23768
23770
23772
23774
23776
23778
23780
23782
23784
23786
23788
23790
23792
23794
23796
23798
23800
23802
23804
23806
23808
23810
23812
23814
23816
23818
23820
23822
23824
23826
23828
23830
23832
23834
23836
23838
23840
23842
23844
23846
23848
23850
23852
23854
23856
23858
23860
23862
23864
23866
23868
23870
23872
23874
23876
23878
23880
23882
23884
23886
23888
23890
23892
23894
23896
23898
23900
23902
23904
23906
23908
23910
23912
23914
23916
23918
23920
23922
23924
23926
23928
23930
23932
23934
23936
23938
23940
23942
23944
23946
23948
23950
23952
23954
23956
23958
23960
23962
23964
23966
23968
23970
23972
23974
23976
23978
23980
23982
23984
23986
23988
23990
23992
23994
23996
23998
24000
24002
24004
24006
24008
24010
24012
24014
24016
24018
24020
24022
24024
24026
24028
24030
24032
24034
24036
24038
24040
24042
24044
24046
24048
24050
24052
24054
24056
24058
24060
24062
24064
24066
24068
24070
24072
24074
24076
24078
24080
24082
24084
24086
24088
24090
24092
24094
24096
24098
24100
24102
24104
24106
24108
24110
24112
24114
24116
24118
24120
24122
24124
24126
24128
24130
24132
24134
24136
24138
24140
24142
24144
24146
24148
24150
24152
24154
24156
24158
24160
24162
24164
24166
24168
24170
24172
24174
24176
24178
24180
24182
24184
24186
24188
24190
24192
24194
24196
24198
24200
24202
24204
24206
24208
24210
24212
24214
24216
24218
24220
24222
24224
24226
24228
24230
24232
24234
24236
24238
24240
24242
24244
24246
24248
24250
24252
24254
24256
24258
24260
24262
24264
24266
24268
24270
24272
24274
24276
24278
24280
24282
24284
24286
24288
24290
24292
24294
24296
24298
24300
24302
24304
24306
24308
24310
24312
24314
24316
24318
24320
24322
24324
24326
24328
24330
24332
24334
24336
24338
24340
24342
24344
24346
24348
24350
24352
24354
24356
24358
24360
24362
24364
24366
24368
24370
24372
24374
24376
24378
24380
24382
24384
24386
24388
24390
24392
24394
24396
24398
24400
24402
24404
24406
24408
24410
24412
24414
24416
24418
24420
24422
24424
24426
24428
24430
24432
24434
24436
24438
24440
24442
24444
24446
24448
24450
24452
24454
24456
24458
24460
24462
24464
24466
24468
24470
24472
24474
24476
24478
24480
24482
24484
24486
24488
24490
24492
24494
24496
24498
24500
24502
24504
24506
24508
24510
24512
24514
24516
24518
24520
24522
24524
24526
24528
24530
24532
24534
24536
24538
24540
24542
24544
24546
24548
24550
24552
24554
24556
24558
24560
24562
24564
24566
24568
24570
24572
24574
24576
24578
24580
24582
24584
24586
24588
24590
24592
24594
24596
24598
24600
24602
24604
24606
24608
24610
24612
24614
24616
24618
24620
24622
24624
24626
24628
24630
24632
24634
24636
24638
24640
24642
24644
24646
24648
24650
24652
24654
24656
24658
24660
24662
24664
24666
24668
24670
24672
24674
24676
24678
24680
24682
24684
24686
24688
24690
24692
24694
24696
24698
24700
24702
24704
24706
24708
24710
24712
24714
24716
24718
24720
24722
24724
24726
24728
24730
24732
24734
24736
24738
24740
24742
24744
24746
24748
24750
24752
24754
24756
24758
24760
24762
24764
24766
24768
24770
24772
24774
24776
24778
24780
24782
24784
24786
24788
24790
24792
24794
24796
24798
24800
24802
24804
24806
24808
24810
24812
24814
24816
24818
24820
24822
24824
24826
24828
24830
24832
24834
24836
24838
24840
24842
24844
24846
24848
24850
24852
24854
24856
24858
24860
24862
24864
24866
24868
24870
24872
24874
24876
24878
24880
24882
24884
24886
24888
24890
24892
24894
24896
24898
24900
24902
24904
24906
24908
24910
24912
24914
24916
24918
24920
24922
24924
24926
24928
24930
24932
24934
24936
24938
24940
24942
24944
24946
24948
24950
24952
24954
24956
24958
24960
24962
24964
24966
24968
24970
24972
24974
24976
24978
24980
24982
24984
24986
24988
24990
24992
24994
24996
24998
25000
25002
25004
25006
25008
25010
25012
25014
25016
25018
25020
25022
25024
25026
25028
25030
25032
25034
25036
25038
25040
25042
25044
25046
25048
25050
25052
25054
25056
25058
25060
25062
25064
25066
25068
25070
25072
25074
25076
25078
25080
25082
25084
25086
25088
25090
25092
25094
25096
25098
25100
25102
25104
25106
25108
25110
25112
25114
25116
25118
25120
25122
25124
25126
25128
25130
25132
25134
25136
25138
25140
25142
25144
25146
25148
25150
25152
25154
25156
25158
25160
25162
25164
25166
25168
25170
25172
25174
25176
25178
25180
25182
25184
25186
25188
25190
25192
25194
25196
25198
25200
25202
25204
25206
25208
25210
25212
25214
25216
25218
25220
25222
25224
25226
25228
25230
25232
25234
25236
25238
25240
25242
25244
25246
25248
25250
25252
25254
25256
25258
25260
25262
25264
25266
25268
25270
25272
25274
25276
25278
25280
25282
25284
25286
25288
25290
25292
25294
25296
25298
25300
25302
25304
25306
25308
25310
25312
25314
25316
25318
25320
25322
25324
25326
25328
25330
25332
25334
25336
25338
25340
25342
25344
25346
25348
25350
25352
25354
25356
25358
25360
25362
25364
25366
25368
25370
25372
25374
25376
25378
25380
25382
25384
25386
25388
25390
25392
25394
25396
25398
25400
25402
25404
25406
25408
25410
25412
25414
25416
25418
25420
25422
25424
25426
25428
25430
25432
25434
25436
25438
25440
25442
25444
25446
25448
25450
25452
25454
25456
25458
25460
25462
25464
25466
25468
25470
25472
25474
25476
25478
25480
25482
25484
25486
25488
25490
25492
25494
25496
25498
25500
25502
25504
25506
25508
25510
25512
25514
25516
25518
25520
25522
25524
25526
25528
25530
25532
25534
25536
25538
25540
25542
25544
25546
25548
25550
25552
25554
25556
25558
25560
25562
25564
25566
25568
25570
25572
25574
25576
25578
25580
25582
25584
25586
25588
25590
25592
25594
25596
25598
25600
25602
25604
25606
25608
25610
25612
25614
25616
25618
25620
25622
25624
25626
25628
25630
25632
25634
25636
25638
25640
25642
25644
25646
25648
25650
25652
25654
25656
25658
25660
25662
25664
25666
25668
25670
25672
25674
25676
25678
25680
25682
25684
25686
25688
25690
25692
25694
25696
25698
25700
25702
25704
25706
25708
25710
25712
25714
25716
25718
25720
25722
25724
25726
25728
25730
25732
25734
25736
25738
25740
25742
25744
25746
25748
25750
25752
25754
25756
25758
25760
25762
25764
25766
25768
25770
25772
25774
25776
25778
25780
25782
25784
25786
25788
25790
25792
25794
25796
25798
25800
25802
25804
25806
25808
25810
25812
25814
25816
25818
25820
25822
25824
25826
25828
25830
25832
25834
25836
25838
25840
25842
25844
25846
25848
25850
25852
25854
25856
25858
25860
25862
25864
25866
25868
25870
25872
25874
25876
25878
25880
25882
25884
25886
25888
25890
25892
25894
25896
25898
25900
25902
25904
25906
25908
25910
25912
25914
25916
25918
25920
25922
25924
25926
25928
25930
25932
25934
25936
25938
25940
25942
25944
25946
25948
25950
25952
25954
25956
25958
25960
25962
25964
25966
25968
25970
25972
25974
25976
25978
25980
25982
25984
25986
25988
25990
25992
25994
25996
25998
26000
26002
26004
26006
26008
26010
26012
26014
26016
26018
26020
26022
26024
26026
26028
26030
26032
26034
26036
26038
26040
26042
26044
26046
26048
26050
26052
26054
26056
26058
26060
26062
26064
26066
26068
26070
26072
26074
26076
26078
26080
26082
26084
26086
26088
26090
26092
26094
26096
26098
26100
26102
26104
26106
26108
26110
26112
26114
26116
26118
26120
26122
26124
26126
26128
26130
26132
26134
26136
26138
26140
26142
26144
26146
26148
26150
26152
26154
26156
26158
26160
26162
26164
26166
26168
26170
26172
26174
26176
26178
26180
26182
26184
26186
26188
26190
26192
26194
26196
26198
26200
26202
26204
26206
26208
26210
26212
26214
26216
26218
26220
26222
26224
26226
26228
26230
26232
26234
26236
26238
26240
26242
26244
26246
26248
26250
26252
26254
26256
26258
26260
26262
26264
26266
26268
26270
26272
26274
26276
26278
26280
26282
26284
26286
26288
26290
26292
26294
26296
26298
26300
26302
26304
26306
26308
26310
26312
26314
26316
26318
26320
26322
26324
26326
26328
26330
26332
26334
26336
26338
26340
26342
26344
26346
26348
26350
26352
26354
26356
26358
26360
26362
26364
26366
26368
26370
26372
26374
26376
26378
26380
26382
26384
26386
26388
26390
26392
26394
26396
26398
26400
26402
26404
26406
26408
26410
26412
26414
26416
26418
26420
26422
26424
26426
26428
26430
26432
26434
26436
26438
26440
26442
26444
26446
26448
26450
26452
26454
26456
26458
26460
26462
26464
26466
26468
26470
26472
26474
26476
26478
26480
26482
26484
26486
26488
26490
26492
26494
26496
26498
26500
26502
26504
26506
26508
26510
26512
26514
26516
26518
26520
26522
26524
26526
26528
26530
26532
26534
26536
26538
26540
26542
26544
26546
26548
26550
26552
26554
26556
26558
26560
26562
26564
26566
26568
26570
26572
26574
26576
26578
26580
26582
26584
26586
26588
26590
26592
26594
26596
26598
26600
26602
26604
26606
26608
26610
26612
26614
26616
26618
26620
26622
26624
26626
26628
26630
26632
26634
26636
26638
26640
26642
26644
26646
26648
26650
26652
26654
26656
26658
26660
26662
26664
26666
26668
26670
26672
26674
26676
26678
26680
26682
26684
26686
26688
26690
26692
26694
26696
26698
26700
26702
26704
26706
26708
26710
26712
26714
26716
26718
26720
26722
26724
26726
26728
26730
26732
26734
26736
26738
26740
26742
26744
26746
26748
26750
26752
26754
26756
26758
26760
26762
26764
26766
26768
26770
26772
26774
26776
26778
26780
26782
26784
26786
26788
26790
26792
26794
26796
26798
26800
26802
26804
26806
26808
26810
26812
26814
26816
26818
26820
26822
26824
26826
26828
26830
26832
26834
26836
26838
26840
26842
26844
26846
26848
26850
26852
26854
26856
26858
26860
26862
26864
26866
26868
26870
26872
26874
26876
26878
26880
26882
26884
26886
26888
26890
26892
26894
26896
26898
26900
26902
26904
26906
26908
26910
26912
26914
26916
26918
26920
26922
26924
26926
26928
26930
26932
26934
26936
26938
26940
26942
26944
26946
26948
26950
26952
26954
26956
26958
26960
26962
26964
26966
26968
26970
26972
26974
26976
26978
26980
26982
26984
26986
26988
26990
26992
26994
26996
26998
27000
27002
27004
27006
27008
27010
27012
27014
27016
27018
27020
27022
27024
27026
27028
27030
27032
27034
27036
27038
27040
27042
27044
27046
27048
27050
27052
27054
27056
27058
27060
27062
27064
27066
27068
27070
27072
27074
27076
27078
27080
27082
27084
27086
27088
27090
27092
27094
27096
27098
27100
27102
27104
27106
27108
27110
27112
27114
27116
27118
27120
27122
27124
27126
27128
27130
27132
27134
27136
27138
27140
27142
27144
27146
27148
27150
27152
27154
27156
27158
27160
27162
27164
27166
27168
27170
27172
27174
27176
27178
27180
27182
27184
27186
27188
27190
27192
27194
27196
27198
27200
27202
27204
27206
27208
27210
27212
27214
27216
27218
27220
27222
27224
27226
27228
27230
27232
27234
27236
27238
27240
27242
27244
27246
27248
27250
27252
27254
27256
27258
27260
27262
27264
27266
27268
27270
27272
27274
27276
27278
27280
27282
27284
27286
27288
27290
27292
27294
27296
27298
27300
27302
27304
27306
27308
27310
27312
27314
27316
27318
27320
27322
27324
27326
27328
27330
27332
27334
27336
27338
27340
27342
27344
27346
27348
27350
27352
27354
27356
27358
27360
27362
27364
27366
27368
27370
27372
27374
27376
27378
27380
27382
27384
27386
27388
27390
27392
27394
27396
27398
27400
27402
27404
27406
27408
27410
27412
27414
27416
27418
27420
27422
27424
27426
27428
27430
27432
27434
27436
27438
27440
27442
27444
27446
27448
27450
27452
27454
27456
27458
27460
27462
27464
27466
27468
27470
27472
27474
27476
27478
27480
27482
27484
27486
27488
27490
27492
27494
27496
27498
27500
27502
27504
27506
27508
27510
27512
27514
27516
27518
27520
27522
27524
27526
27528
27530
27532
27534
27536
27538
27540
27542
27544
27546
27548
27550
27552
27554
27556
27558
27560
27562
27564
27566
27568
27570
27572
27574
27576
27578
27580
27582
27584
27586
27588
27590
27592
27594
27596
27598
27600
27602
27604
27606
27608
27610
27612
27614
27616
27618
27620
27622
27624
27626
27628
27630
27632
27634
27636
27638
27640
27642
27644
27646
27648
27650
27652
27654
27656
27658
27660
27662
27664
27666
27668
27670
27672
27674
27676
27678
27680
27682
27684
27686
27688
27690
27692
27694
27696
27698
27700
27702
27704
27706
27708
27710
27712
27714
27716
27718
27720
27722
27724
27726
27728
27730
27732
27734
27736
27738
27740
27742
27744
27746
27748
27750
27752
27754
27756
27758
27760
27762
27764
27766
27768
27770
27772
27774
27776
27778
27780
27782
27784
27786
27788
27790
27792
27794
27796
27798
27800
27802
27804
27806
27808
27810
27812
27814
27816
27818
27820
27822
27824
27826
27828
27830
27832
27834
27836
27838
27840
27842
27844
27846
27848
27850
27852
27854
27856
27858
27860
27862
27864
27866
27868
27870
27872
27874
27876
27878
27880
27882
27884
27886
27888
27890
27892
27894
27896
27898
27900
27902
27904
27906
27908
27910
27912
27914
27916
27918
27920
27922
27924
27926
27928
27930
27932
27934
27936
27938
27940
27942
27944
27946
27948
27950
27952
27954
27956
27958
27960
27962
27964
27966
27968
27970
27972
27974
27976
27978
27980
27982
27984
27986
27988
27990
27992
27994
27996
27998
28000
28002
28004
28006
28008
28010
28012
28014
28016
28018
28020
28022
28024
28026
28028
28030
28032
28034
28036
28038
28040
28042
28044
28046
28048
28050
28052
28054
28056
28058
28060
28062
28064
28066
28068
28070
28072
28074
28076
28078
28080
28082
28084
28086
28088
28090
28092
28094
28096
28098
28100
28102
28104
28106
28108
28110
28112
28114
28116
28118
28120
28122
28124
28126
28128
28130
28132
28134
28136
28138
28140
28142
28144
28146
28148
28150
28152
28154
28156
28158
28160
28162
28164
28166
28168
28170
28172
28174
28176
28178
28180
28182
28184
28186
28188
28190
28192
28194
28196
28198
28200
28202
28204
28206
28208
28210
28212
28214
28216
28218
28220
28222
28224
28226
28228
28230
28232
28234
28236
28238
28240
28242
28244
28246
28248
28250
28252
28254
28256
28258
28260
28262
28264
28266
28268
28270
28272
28274
28276
28278
28280
28282
28284
28286
28288
28290
28292
28294
28296
28298
28300
28302
28304
28306
28308
28310
28312
28314
28316
28318
28320
28322
28324
28326
28328
28330
28332
28334
28336
28338
28340
28342
28344
28346
28348
28350
28352
28354
28356
28358
28360
28362
28364
28366
28368
28370
28372
28374
28376
28378
28380
28382
28384
28386
28388
28390
28392
28394
28396
28398
28400
28402
28404
28406
28408
28410
28412
28414
28416
28418
28420
28422
28424
28426
28428
28430
28432
28434
28436
28438
28440
28442
28444
28446
28448
28450
28452
28454
28456
28458
28460
28462
28464
28466
28468
28470
28472
28474
28476
28478
28480
28482
28484
28486
28488
28490
28492
28494
28496
28498
28500
28502
28504
28506
28508
28510
28512
28514
28516
28518
28520
28522
28524
28526
28528
28530
28532
28534
28536
28538
28540
28542
28544
28546
28548
28550
28552
28554
28556
28558
28560
28562
28564
28566
28568
28570
28572
28574
28576
28578
28580
28582
28584
28586
28588
28590
28592
28594
28596
28598
28600
28602
28604
28606
28608
28610
28612
28614
28616
28618
28620
28622
28624
28626
28628
28630
28632
28634
28636
28638
28640
28642
28644
28646
28648
28650
28652
28654
28656
28658
28660
28662
28664
28666
28668
28670
28672
28674
28676
28678
28680
28682
28684
28686
28688
28690
28692
28694
28696
28698
28700
28702
28704
28706
28708
28710
28712
28714
28716
28718
28720
28722
28724
28726
28728
28730
28732
28734
28736
28738
28740
28742
28744
28746
28748
28750
28752
28754
28756
28758
28760
28762
28764
28766
28768
28770
28772
28774
28776
28778
28780
28782
28784
28786
28788
28790
28792
28794
28796
28798
28800
28802
28804
28806
28808
28810
28812
28814
28816
28818
28820
28822
28824
28826
28828
28830
28832
28834
28836
28838
28840
28842
28844
28846
28848
28850
28852
28854
28856
28858
28860
28862
28864
28866
28868
28870
28872
28874
28876
28878
28880
28882
28884
28886
28888
28890
28892
28894
28896
28898
28900
28902
28904
28906
28908
28910
28912
28914
28916
28918
28920
28922
28924
28926
28928
28930
28932
28934
28936
28938
28940
28942
28944
28946
28948
28950
28952
28954
28956
28958
28960
28962
28964
28966
28968
28970
28972
28974
28976
28978
28980
28982
28984
28986
28988
28990
28992
28994
28996
28998
29000
29002
29004
29006
29008
29010
29012
29014
29016
29018
29020
29022
29024
29026
29028
29030
29032
29034
29036
29038
29040
29042
29044
29046
29048
29050
29052
29054
29056
29058
29060
29062
29064
29066
29068
29070
29072
29074
29076
29078
29080
29082
29084
29086
29088
29090
29092
29094
29096
29098
29100
29102
29104
29106
29108
29110
29112
29114
29116
29118
29120
29122
29124
29126
29128
29130
29132
29134
29136
29138
29140
29142
29144
29146
29148
29150
29152
29154
29156
29158
29160
29162
29164
29166
29168
29170
29172
29174
29176
29178
29180
29182
29184
29186
29188
29190
29192
29194
29196
29198
29200
29202
29204
29206
29208
29210
29212
29214
29216
29218
29220
29222
29224
29226
29228
29230
29232
29234
29236
29238
29240
29242
29244
29246
29248
29250
29252
29254
29256
29258
29260
29262
29264
29266
29268
29270
29272
29274
29276
29278
29280
29282
29284
29286
29288
29290
29292
29294
29296
29298
29300
29302
29304
29306
29308
29310
29312
29314
29316
29318
29320
29322
29324
29326
29328
29330
29332
29334
29336
29338
29340
29342
29344
29346
29348
29350
29352
29354
29356
29358
29360
29362
29364
29366
29368
29370
29372
29374
29376
29378
29380
29382
29384
29386
29388
29390
29392
29394
29396
29398
29400
29402
29404
29406
29408
29410
29412
29414
29416
29418
29420
29422
29424
29426
29428
29430
29432
29434
29436
29438
29440
29442
29444
29446
29448
29450
29452
29454
29456
29458
29460
29462
29464
29466
29468
29470
29472
29474
29476
29478
29480
29482
29484
29486
29488
29490
29492
29494
29496
29498
29500
29502
29504
29506
29508
29510
29512
29514
29516
29518
29520
29522
29524
29526
29528
29530
29532
29534
29536
29538
29540
29542
29544
29546
29548
29550
29552
29554
29556
29558
29560
29562
29564
29566
29568
29570
29572
29574
29576
29578
29580
29582
29584
29586
29588
29590
29592
29594
29596
29598
29600
29602
29604
29606
29608
29610
29612
29614
29616
29618
29620
29622
29624
29626
29628
29630
29632
29634
29636
29638
29640
29642
29644
29646
29648
29650
29652
29654
29656
29658
29660
29662
29664
29666
29668
29670
29672
29674
29676
29678
29680
29682
29684
29686
29688
29690
29692
29694
29696
29698
29700
29702
29704
29706
29708
29710
29712
29714
29716
29718
29720
29722
29724
29726
29728
29730
29732
29734
29736
29738
29740
29742
29744
29746
29748
29750
29752
29754
29756
29758
29760
29762
29764
29766
29768
29770
29772
29774
29776
29778
29780
29782
29784
29786
29788
29790
29792
29794
29796
29798
29800
29802
29804
29806
29808
29810
29812
29814
29816
29818
29820
29822
29824
29826
29828
29830
29832
29834
29836
29838
29840
29842
29844
29846
29848
29850
29852
29854
29856
29858
29860
29862
29864
29866
29868
29870
29872
29874
29876
29878
29880
29882
29884
29886
29888
29890
29892
29894
29896
29898
29900
29902
29904
29906
29908
29910
29912
29914
29916
29918
29920
29922
29924
29926
29928
29930
29932
29934
29936
29938
29940
29942
29944
29946
29948
29950
29952
29954
29956
29958
29960
29962
29964
29966
29968
29970
29972
29974
29976
29978
29980
29982
29984
29986
29988
29990
29992
29994
29996
29998
30000
30002
30004
30006
30008
30010
30012
30014
30016
30018
30020
30022
30024
30026
30028
30030
30032
30034
30036
30038
30040
30042
30044
30046
30048
30050
30052
30054
30056
30058
30060
30062
30064
30066
30068
30070
30072
30074
30076
30078
30080
30082
30084
30086
30088
30090
30092
30094
30096
30098
30100
30102
30104
30106
30108
30110
30112
30114
30116
30118
30120
30122
30124
30126
30128
30130
30132
30134
30136
30138
30140
30142
30144
30146
30148
30150
30152
30154
30156
30158
30160
30162
30164
30166
30168
30170
30172
30174
30176
30178
30180
30182
30184
30186
30188
30190
30192
30194
30196
30198
30200
30202
30204
30206
30208
30210
30212
30214
30216
30218
30220
30222
30224
30226
30228
30230
30232
30234
30236
30238
30240
30242
30244
30246
30248
30250
30252
30254
30256
30258
30260
30262
30264
30266
30268
30270
30272
30274
30276
30278
30280
30282
30284
30286
30288
30290
30292
30294
30296
30298
30300
30302
30304
30306
30308
30310
30312
30314
30316
30318
30320
30322
30324
30326
30328
30330
30332
30334
30336
30338
30340
30342
30344
30346
30348
30350
30352
30354
30356
30358
30360
30362
30364
30366
30368
30370
30372
30374
30376
30378
30380
30382
30384
30386
30388
30390
30392
30394
30396
30398
30400
30402
30404
30406
30408
30410
30412
30414
30416
30418
30420
30422
30424
30426
30428
30430
30432
30434
30436
30438
30440
30442
30444
30446
30448
30450
30452
30454
30456
30458
30460
30462
30464
30466
30468
30470
30472
30474
30476
30478
30480
30482
30484
30486
30488
30490
30492
30494
30496
30498
30500
30502
30504
30506
30508
30510
30512
30514
30516
30518
30520
30522
30524
30526
30528
30530
30532
30534
30536
30538
30540
30542
30544
30546
30548
30550
30552
30554
30556
30558
30560
30562
30564
30566
30568
30570
30572
30574
30576
30578
30580
30582
30584
30586
30588
30590
30592
30594
30596
30598
30600
30602
30604
30606
30608
30610
30612
30614
30616
30618
30620
30622
30624
30626
30628
30630
30632
30634
30636
30638
30640
30642
30644
30646
30648
30650
30652
30654
30656
30658
30660
30662
30664
30666
30668
30670
30672
30674
30676
30678
30680
30682
30684
30686
30688
30690
30692
30694
30696
30698
30700
30702
30704
30706
30708
30710
30712
30714
30716
30718
30720
30722
30724
30726
30728
30730
30732
30734
30736
30738
30740
30742
30744
30746
30748
30750
30752
30754
30756
30758
30760
30762
30764
30766
30768
30770
30772
30774
30776
30778
30780
30782
30784
30786
30788
30790
30792
30794
30796
30798
30800
30802
30804
30806
30808
30810
30812
30814
30816
30818
30820
30822
30824
30826
30828
30830
30832
30834
30836
30838
30840
30842
30844
30846
30848
30850
30852
30854
30856
30858
30860
30862
30864
30866
30868
30870
30872
30874
30876
30878
30880
30882
30884
30886
30888
30890
30892
30894
30896
30898
30900
30902
30904
30906
30908
30910
30912
30914
30916
30918
30920
30922
30924
30926
30928
30930
30932
30934
30936
30938
30940
30942
30944
30946
30948
30950
30952
30954
30956
30958
30960
30962
30964
30966
30968
30970
30972
30974
30976
30978
30980
30982
30984
30986
30988
30990
30992
30994
30996
30998
31000
31002
31004
31006
31008
31010
31012
31014
31016
31018
31020
31022
31024
31026
31028
31030
31032
31034
31036
31038
31040
31042
31044
31046
31048
31050
31052
31054
31056
31058
31060
31062
31064
31066
31068
31070
31072
31074
31076
31078
31080
31082
31084
31086
31088
31090
31092
31094
31096
31098
31100
31102
31104
31106
31108
31110
31112
31114
31116
31118
31120
31122
31124
31126
31128
31130
31132
31134
31136
31138
31140
31142
31144
31146
31148
31150
31152
31154
31156
31158
31160
31162
31164
31166
31168
31170
31172
31174
31176
31178
31180
31182
31184
31186
31188
31190
31192
31194
31196
31198
31200
31202
31204
31206
31208
31210
31212
31214
31216
31218
31220
31222
31224
31226
31228
31230
31232
31234
31236
31238
31240
31242
31244
31246
31248
31250
31252
31254
31256
31258
31260
31262
31264
31266
31268
31270
31272
31274
31276
31278
31280
31282
31284
31286
31288
31290
31292
31294
31296
31298
31300
31302
31304
31306
31308
31310
31312
31314
31316
31318
31320
31322
31324
31326
31328
31330
31332
31334
31336
31338
31340
31342
31344
31346
31348
31350
31352
31354
31356
31358
31360
31362
31364
31366
31368
31370
31372
31374
31376
31378
31380
31382
31384
31386
31388
31390
31392
31394
31396
31398
31400
31402
31404
31406
31408
31410
31412
31414
31416
31418
31420
31422
31424
31426
31428
31430
31432
31434
31436
31438
31440
31442
31444
31446
31448
31450
31452
31454
31456
31458
31460
31462
31464
31466
31468
31470
31472
31474
31476
31478
31480
31482
31484
31486
31488
31490
31492
31494
31496
31498
31500
31502
31504
31506
31508
31510
31512
31514
31516
31518
31520
31522
31524
31526
31528
31530
31532
31534
31536
31538
31540
31542
31544
31546
31548
31550
31552
31554
31556
31558
31560
31562
31564
31566
31568
31570
31572
31574
31576
31578
31580
31582
31584
31586
31588
31590
31592
31594
31596
31598
31600
31602
31604
31606
31608
31610
31612
31614
31616
31618
31620
31622
31624
31626
31628
31630
31632
31634
31636
31638
31640
31642
31644
31646
31648
31650
31652
31654
31656
31658
31660
31662
31664
31666
31668
31670
31672
31674
31676
31678
31680
31682
31684
31686
31688
31690
31692
31694
31696
31698
31700
31702
31704
31706
31708
31710
31712
31714
31716
31718
31720
31722
31724
31726
31728
31730
31732
31734
31736
31738
31740
31742
31744
31746
31748
31750
31752
31754
31756
31758
31760
31762
31764
31766
31768
31770
31772
31774
31776
31778
31780
31782
31784
31786
31788
31790
31792
31794
31796
31798
31800
31802
31804
31806
31808
31810
31812
31814
31816
31818
31820
31822
31824
31826
31828
31830
31832
31834
31836
31838
31840
31842
31844
31846
31848
31850
31852
31854
31856
31858
31860
31862
31864
31866
31868
31870
31872
31874
31876
31878
31880
31882
31884
31886
31888
31890
31892
31894
31896
31898
31900
31902
31904
31906
31908
31910
31912
31914
31916
31918
31920
31922
31924
31926
31928
31930
31932
31934
31936
31938
31940
31942
31944
31946
31948
31950
31952
31954
31956
31958
31960
31962
31964
31966
31968
31970
31972
31974
31976
31978
31980
31982
31984
31986
31988
31990
31992
31994
31996
31998
32000
32002
32004
32006
32008
32010
32012
32014
32016
32018
32020
32022
32024
32026
32028
32030
32032
32034
32036
32038
32040
32042
32044
32046
32048
32050
32052
32054
32056
32058
32060
32062
32064
32066
32068
32070
32072
32074
32076
32078
32080
32082
32084
32086
32088
32090
32092
32094
32096
32098
32100
32102
32104
32106
32108
32110
32112
32114
32116
32118
32120
32122
32124
32126
32128
32130
32132
32134
32136
32138
32140
32142
32144
32146
32148
32150
32152
32154
32156
32158
32160
32162
32164
32166
32168
32170
32172
32174
32176
32178
32180
32182
32184
32186
32188
32190
32192
32194
32196
32198
32200
32202
32204
32206
32208
32210
32212
32214
32216
32218
32220
32222
32224
32226
32228
32230
32232
32234
32236
32238
32240
32242
32244
32246
32248
32250
32252
32254
32256
32258
32260
32262
32264
32266
32268
32270
32272
32274
32276
32278
32280
32282
32284
32286
32288
32290
32292
32294
32296
32298
32300
32302
32304
32306
32308
32310
32312
32314
32316
32318
32320
32322
32324
32326
32328
32330
32332
32334
32336
32338
32340
32342
32344
32346
32348
32350
32352
32354
32356
32358
32360
32362
32364
32366
32368
32370
32372
32374
32376
32378
32380
32382
32384
32386
32388
32390
32392
32394
32396
32398
32400
32402
32404
32406
32408
32410
32412
32414
32416
32418
32420
32422
32424
32426
32428
32430
32432
32434
32436
32438
32440
32442
32444
32446
32448
32450
32452
32454
32456
32458
32460
32462
32464
32466
32468
32470
32472
32474
32476
32478
32480
32482
32484
32486
32488
32490
32492
32494
32496
32498
32500
32502
32504
32506
32508
32510
32512
32514
32516
32518
32520
32522
32524
32526
32528
32530
32532
32534
32536
32538
32540
32542
32544
32546
32548
32550
32552
32554
32556
32558
32560
32562
32564
32566
32568
32570
32572
32574
32576
32578
32580
32582
32584
32586
32588
32590
32592
32594
32596
32598
32600
32602
32604
32606
32608
32610
32612
32614
32616
32618
32620
32622
32624
32626
32628
32630
32632
32634
32636
32638
32640
32642
32644
32646
32648
32650
32652
32654
32656
32658
32660
32662
32664
32666
32668
32670
32672
32674
32676
32678
32680
32682
32684
32686
32688
32690
32692
32694
32696
32698
32700
32702
32704
32706
32708
32710
32712
32714
32716
32718
32720
32722
32724
32726
32728
32730
32732
32734
32736
32738
32740
32742
32744
32746
32748
32750
32752
32754
32756
32758
32760
32762
32764
32766
32768
32770
32772
32774
32776
32778
32780
32782
32784
32786
32788
32790
32792
32794
32796
32798
32800
32802
32804
32806
32808
32810
32812
32814
32816
32818
32820
32822
32824
32826
32828
32830
32832
32834
32836
32838
32840
32842
32844
32846
32848
32850
32852
32854
32856
32858
32860
32862
32864
32866
32868
32870
32872
32874
32876
32878
32880
32882
32884
32886
32888
32890
32892
32894
32896
32898
32900
32902
32904
32906
32908
32910
32912
32914
32916
32918
32920
32922
32924
32926
32928
32930
32932
32934
32936
32938
32940
32942
32944
32946
32948
32950
32952
32954
32956
32958
32960
32962
32964
32966
32968
32970
32972
32974
32976
32978
32980
32982
32984
32986
32988
32990
32992
32994
32996
32998
33000
33002
33004
33006
33008
33010
33012
33014
33016
33018
33020
33022
33024
33026
33028
33030
33032
33034
33036
33038
33040
33042
33044
33046
33048
33050
33052
33054
33056
33058
33060
33062
33064
33066
33068
33070
33072
33074
33076
33078
33080
33082
33084
33086
33088
33090
33092
33094
33096
33098
33100
33102
33104
33106
33108
33110
33112
33114
33116
33118
33120
33122
33124
33126
33128
33130
33132
33134
33136
33138
33140
33142
33144
33146
33148
33150
33152
33154
33156
33158
33160
33162
33164
33166
33168
33170
33172
33174
33176
33178
33180
33182
33184
33186
33188
33190
33192
33194
33196
33198
33200
33202
33204
33206
33208
33210
33212
33214
33216
33218
33220
33222
33224
33226
33228
33230
33232
33234
33236
33238
33240
33242
33244
33246
33248
33250
33252
33254
33256
33258
33260
33262
33264
33266
33268
33270
33272
33274
33276
33278
33280
33282
33284
33286
33288
33290
33292
33294
33296
33298
33300
33302
33304
33306
33308
33310
33312
33314
33316
33318
33320
33322
33324
33326
33328
33330
33332
33334
33336
33338
33340
33342
33344
33346
33348
33350
33352
33354
33356
33358
33360
33362
33364
33366
33368
33370
33372
33374
33376
33378
33380
33382
33384
33386
33388
33390
33392
33394
33396
33398
33400
33402
33404
33406
33408
33410
33412
33414
33416
33418
33420
33422
33424
33426
33428
33430
33432
33434
33436
33438
33440
33442
33444
33446
33448
33450
33452
33454
33456
33458
33460
33462
33464
33466
33468
33470
33472
33474
33476
33478
33480
33482
33484
33486
33488
33490
33492
33494
33496
33498
33500
33502
33504
33506
33508
33510
33512
33514
33516
33518
33520
33522
33524
33526
33528
33530
33532
33534
33536
33538
33540
33542
33544
33546
33548
33550
33552
33554
33556
33558
33560
33562
33564
33566
33568
33570
33572
33574
33576
33578
33580
33582
33584
33586
33588
33590
33592
33594
33596
33598
33600
33602
33604
33606
33608
33610
33612
33614
33616
33618
33620
33622
33624
33626
33628
33630
33632
33634
33636
33638
33640
33642
33644
33646
33648
33650
33652
33654
33656
33658
33660
33662
33664
33666
33668
33670
33672
33674
33676
33678
33680
33682
33684
33686
33688
33690
33692
33694
33696
33698
33700
33702
33704
33706
33708
33710
33712
33714
33716
33718
33720
33722
33724
33726
33728
33730
33732
33734
33736
33738
33740
33742
33744
33746
33748
33750
33752
33754
33756
33758
33760
33762
33764
33766
33768
33770
33772
33774
33776
33778
33780
33782
33784
33786
33788
33790
33792
33794
33796
33798
33800
33802
33804
33806
33808
33810
33812
33814
33816
33818
33820
33822
33824
33826
33828
33830
33832
33834
33836
33838
33840
33842
33844
33846
33848
33850
33852
33854
33856
33858
33860
33862
33864
33866
33868
33870
33872
33874
33876
33878
33880
33882
33884
33886
33888
33890
33892
33894
33896
33898
33900
33902
33904
33906
33908
33910
33912
33914
33916
33918
33920
33922
33924
33926
33928
33930
33932
33934
33936
33938
33940
33942
33944
33946
33948
33950
33952
33954
33956
33958
33960
33962
33964
33966
33968
33970
33972
33974
33976
33978
33980
33982
33984
33986
33988
33990
33992
33994
33996
33998
34000
34002
34004
34006
34008
34010
34012
34014
34016
34018
34020
34022
34024
34026
34028
34030
34032
34034
34036
34038
34040
34042
34044
34046
34048
34050
34052
34054
34056
34058
34060
34062
34064
34066
34068
34070
34072
34074
34076
34078
34080
34082
34084
34086
34088
34090
34092
34094
34096
34098
34100
34102
34104
34106
34108
34110
34112
34114
34116
34118
34120
34122
34124
34126
34128
34130
34132
34134
34136
34138
34140
34142
34144
34146
34148
34150
34152
34154
34156
34158
34160
34162
34164
34166
34168
34170
34172
34174
34176
34178
34180
34182
34184
34186
34188
34190
34192
34194
34196
34198
34200
34202
34204
34206
34208
34210
34212
34214
34216
34218
34220
34222
34224
34226
34228
34230
34232
34234
34236
34238
34240
34242
34244
34246
34248
34250
34252
34254
34256
34258
34260
34262
34264
34266
34268
34270
34272
34274
34276
34278
34280
34282
34284
34286
34288
34290
34292
34294
34296
34298
34300
34302
34304
34306
34308
34310
34312
34314
34316
34318
34320
34322
34324
34326
34328
34330
34332
34334
34336
34338
34340
34342
34344
34346
34348
34350
34352
34354
34356
34358
34360
34362
34364
34366
34368
34370
34372
34374
34376
34378
34380
34382
34384
34386
34388
34390
34392
34394
34396
34398
34400
34402
34404
34406
34408
34410
34412
34414
34416
34418
34420
34422
34424
34426
34428
34430
34432
34434
34436
34438
34440
34442
34444
34446
34448
34450
34452
34454
34456
34458
34460
34462
34464
34466
34468
34470
34472
34474
34476
34478
34480
34482
34484
34486
34488
34490
34492
34494
34496
34498
34500
34502
34504
34506
34508
34510
34512
34514
34516
34518
34520
34522
34524
34526
34528
34530
34532
34534
34536
34538
34540
34542
34544
34546
34548
34550
34552
34554
34556
34558
34560
34562
34564
34566
34568
34570
34572
34574
34576
34578
34580
34582
34584
34586
34588
34590
34592
34594
34596
34598
34600
34602
34604
34606
34608
34610
34612
34614
34616
34618
34620
34622
34624
34626
34628
34630
34632
34634
34636
34638
34640
34642
34644
34646
34648
34650
34652
34654
34656
34658
34660
34662
34664
34666
34668
34670
34672
34674
34676
34678
34680
34682
34684
34686
34688
34690
34692
34694
34696
34698
34700
34702
34704
34706
34708
34710
34712
34714
34716
34718
34720
34722
34724
34726
34728
34730
34732
34734
34736
34738
34740
34742
34744
34746
34748
34750
34752
34754
34756
34758
34760
34762
34764
34766
34768
34770
34772
34774
34776
34778
34780
34782
34784
34786
34788
34790
34792
34794
34796
34798
34800
34802
34804
34806
34808
34810
34812
34814
34816
34818
34820
34822
34824
34826
34828
34830
34832
34834
34836
34838
34840
34842
34844
34846
34848
34850
34852
34854
34856
34858
34860
34862
34864
34866
34868
34870
34872
34874
34876
34878
34880
34882
34884
34886
34888
34890
34892
34894
34896
34898
34900
34902
34904
34906
34908
34910
34912
34914
34916
34918
34920
34922
34924
34926
34928
34930
34932
34934
34936
34938
34940
34942
34944
34946
34948
34950
34952
34954
34956
34958
34960
34962
34964
34966
34968
34970
34972
34974
34976
34978
34980
34982
34984
34986
34988
34990
34992
34994
34996
34998
35000
35002
35004
35006
35008
35010
35012
35014
35016
35018
35020
35022
35024
35026
35028
35030
35032
35034
35036
35038
35040
35042
35044
35046
35048
35050
35052
35054
35056
35058
35060
35062
35064
35066
35068
35070
35072
35074
35076
35078
35080
35082
35084
35086
35088
35090
35092
35094
35096
35098
35100
35102
35104
35106
35108
35110
35112
35114
35116
35118
35120
35122
35124
35126
35128
35130
35132
35134
35136
35138
35140
35142
35144
35146
35148
35150
35152
35154
35156
35158
35160
35162
35164
35166
35168
35170
35172
35174
35176
35178
35180
35182
35184
35186
35188
35190
35192
35194
35196
35198
35200
35202
35204
35206
35208
35210
35212
35214
35216
35218
35220
35222
35224
35226
35228
35230
35232
35234
35236
35238
35240
35242
35244
35246
35248
35250
35252
35254
35256
35258
35260
35262
35264
35266
35268
35270
35272
35274
35276
35278
35280
35282
35284
35286
35288
35290
35292
35294
35296
35298
35300
35302
35304
35306
35308
35310
35312
35314
35316
35318
35320
35322
35324
35326
35328
35330
35332
35334
35336
35338
35340
35342
35344
35346
35348
35350
35352
35354
35356
35358
35360
35362
35364
35366
35368
35370
35372
35374
35376
35378
35380
35382
35384
35386
35388
35390
35392
35394
35396
35398
35400
35402
35404
35406
35408
35410
35412
35414
35416
35418
35420
35422
35424
35426
35428
35430
35432
35434
35436
35438
35440
35442
35444
35446
35448
35450
35452
35454
35456
35458
35460
35462
35464
35466
35468
35470
35472
35474
35476
35478
35480
35482
35484
35486
35488
35490
35492
35494
35496
35498
35500
35502
35504
35506
35508
35510
35512
35514
35516
35518
35520
35522
35524
35526
35528
35530
35532
35534
35536
35538
35540
35542
35544
35546
35548
35550
35552
35554
35556
35558
35560
35562
35564
35566
35568
35570
35572
35574
35576
35578
35580
35582
35584
35586
35588
35590
35592
35594
35596
35598
35600
35602
35604
35606
35608
35610
35612
35614
35616
35618
35620
35622
35624
35626
35628
35630
35632
35634
35636
35638
35640
35642
35644
35646
35648
35650
35652
35654
35656
35658
35660
35662
35664
35666
35668
35670
35672
35674
35676
35678
35680
35682
35684
35686
35688
35690
35692
35694
35696
35698
35700
35702
35704
35706
35708
35710
35712
35714
35716
35718
35720
35722
35724
35726
35728
35730
35732
35734
35736
35738
35740
35742
35744
35746
35748
35750
35752
35754
35756
35758
35760
35762
35764
35766
35768
35770
35772
35774
35776
35778
35780
35782
35784
35786
35788
35790
35792
35794
35796
35798
35800
35802
35804
35806
35808
35810
35812
35814
35816
35818
35820
35822
35824
35826
35828
35830
35832
35834
35836
35838
35840
35842
35844
35846
35848
35850
35852
35854
35856
35858
35860
35862
35864
35866
35868
35870
35872
35874
35876
35878
35880
35882
35884
35886
35888
35890
35892
35894
35896
35898
35900
35902
35904
35906
35908
35910
35912
35914
35916
35918
35920
35922
35924
35926
35928
35930
35932
35934
35936
35938
35940
35942
35944
35946
35948
35950
35952
35954
35956
35958
35960
35962
35964
35966
35968
35970
35972
35974
35976
35978
35980
35982
35984
35986
35988
35990
35992
35994
35996
35998
36000
36002
36004
36006
36008
36010
36012
36014
36016
36018
36020
36022
36024
36026
36028
36030
36032
36034
36036
36038
36040
36042
36044
36046
36048
36050
36052
36054
36056
36058
36060
36062
36064
36066
36068
36070
36072
36074
36076
36078
36080
36082
36084
36086
36088
36090
36092
36094
36096
36098
36100
36102
36104
36106
36108
36110
36112
36114
36116
36118
36120
36122
36124
36126
36128
36130
36132
36134
36136
36138
36140
36142
36144
36146
36148
36150
36152
36154
36156
36158
36160
36162
36164
36166
36168
36170
36172
36174
36176
36178
36180
36182
36184
36186
36188
36190
36192
36194
36196
36198
36200
36202
36204
36206
36208
36210
36212
36214
36216
36218
36220
36222
36224
36226
36228
36230
36232
36234
36236
36238
36240
36242
36244
36246
36248
36250
36252
36254
36256
36258
36260
36262
36264
36266
36268
36270
36272
36274
36276
36278
36280
36282
36284
36286
36288
36290
36292
36294
36296
36298
36300
36302
36304
36306
36308
36310
36312
36314
36316
36318
36320
36322
36324
36326
36328
36330
36332
36334
36336
36338
36340
36342
36344
36346
36348
36350
36352
36354
36356
36358
36360
36362
36364
36366
36368
36370
36372
36374
36376
36378
36380
36382
36384
36386
36388
36390
36392
36394
36396
36398
36400
36402
36404
36406
36408
36410
36412
36414
36416
36418
36420
36422
36424
36426
36428
36430
36432
36434
36436
36438
36440
36442
36444
36446
36448
36450
36452
36454
36456
36458
36460
36462
36464
36466
36468
36470
36472
36474
36476
36478
36480
36482
36484
36486
36488
36490
36492
36494
36496
36498
36500
36502
36504
36506
36508
36510
36512
36514
36516
36518
36520
36522
36524
36526
36528
36530
36532
36534
36536
36538
36540
36542
36544
36546
36548
36550
36552
36554
36556
36558
36560
36562
36564
36566
36568
36570
36572
36574
36576
36578
36580
36582
36584
36586
36588
36590
36592
36594
36596
36598
36600
36602
36604
36606
36608
36610
36612
36614
36616
36618
36620
36622
36624
36626
36628
36630
36632
36634
36636
36638
36640
36642
36644
36646
36648
36650
36652
36654
36656
36658
36660
36662
36664
36666
36668
36670
36672
36674
36676
36678
36680
36682
36684
36686
36688
36690
36692
36694
36696
36698
36700
36702
36704
36706
36708
36710
36712
36714
36716
36718
36720
36722
36724
36726
36728
36730
36732
36734
36736
36738
36740
36742
36744
36746
36748
36750
36752
36754
36756
36758
36760
36762
36764
36766
36768
36770
36772
36774
36776
36778
36780
36782
36784
36786
36788
36790
36792
36794
36796
36798
36800
36802
36804
36806
36808
36810
36812
36814
36816
36818
36820
36822
36824
36826
36828
36830
36832
36834
36836
36838
36840
36842
36844
36846
36848
36850
36852
36854
36856
36858
36860
36862
36864
36866
36868
36870
36872
36874
36876
36878
36880
36882
36884
36886
36888
36890
36892
36894
36896
36898
36900
36902
36904
36906
36908
36910
36912
36914
36916
36918
36920
36922
36924
36926
36928
36930
36932
36934
36936
36938
36940
36942
36944
36946
36948
36950
36952
36954
36956
36958
36960
36962
36964
36966
36968
36970
36972
36974
36976
36978
36980
36982
36984
36986
36988
36990
36992
36994
36996
36998
37000
37002
37004
37006
37008
37010
37012
37014
37016
37018
37020
37022
37024
37026
37028
37030
37032
37034
37036
37038
37040
37042
37044
37046
37048
37050
37052
37054
37056
37058
37060
37062
37064
37066
37068
37070
37072
37074
37076
37078
37080
37082
37084
37086
37088
37090
37092
37094
37096
37098
37100
37102
37104
37106
37108
37110
37112
37114
37116
37118
37120
37122
37124
37126
37128
37130
37132
37134
37136
37138
37140
37142
37144
37146
37148
37150
37152
37154
37156
37158
37160
37162
37164
37166
37168
37170
37172
37174
37176
37178
37180
37182
37184
37186
37188
37190
37192
37194
37196
37198
37200
37202
37204
37206
37208
37210
37212
37214
37216
37218
37220
37222
37224
37226
37228
37230
37232
37234
37236
37238
37240
37242
37244
37246
37248
37250
37252
37254
37256
37258
37260
37262
37264
37266
37268
37270
37272
37274
37276
37278
37280
37282
37284
37286
37288
37290
37292
37294
37296
37298
37300
37302
37304
37306
37308
37310
37312
37314
37316
37318
37320
37322
37324
37326
37328
37330
37332
37334
37336
37338
37340
37342
37344
37346
37348
37350
37352
37354
37356
37358
37360
37362
37364
37366
37368
37370
37372
37374
37376
37378
37380
37382
37384
37386
37388
37390
37392
37394
37396
37398
37400
37402
37404
37406
37408
37410
37412
37414
37416
37418
37420
37422
37424
37426
37428
37430
37432
37434
37436
37438
37440
37442
37444
37446
37448
37450
37452
37454
37456
37458
37460
37462
37464
37466
37468
37470
37472
37474
37476
37478
37480
37482
37484
37486
37488
37490
37492
37494
37496
37498
37500
37502
37504
37506
37508
37510
37512
37514
37516
37518
37520
37522
37524
37526
37528
37530
37532
37534
37536
37538
37540
37542
37544
37546
37548
37550
37552
37554
37556
37558
37560
37562
37564
37566
37568
37570
37572
37574
37576
37578
37580
37582
37584
37586
37588
37590
37592
37594
37596
37598
37600
37602
37604
37606
37608
37610
37612
37614
37616
37618
37620
37622
37624
37626
37628
37630
37632
37634
37636
37638
37640
37642
37644
37646
37648
37650
37652
37654
37656
37658
37660
37662
37664
37666
37668
37670
37672
37674
37676
37678
37680
37682
37684
37686
37688
37690
37692
37694
37696
37698
37700
37702
37704
37706
37708
37710
37712
37714
37716
37718
37720
37722
37724
37726
37728
37730
37732
37734
37736
37738
37740
37742
37744
37746
37748
37750
37752
37754
37756
37758
37760
37762
37764
37766
37768
37770
37772
37774
37776
37778
37780
37782
37784
37786
37788
37790
37792
37794
37796
37798
37800
37802
37804
37806
37808
37810
37812
37814
37816
37818
37820
37822
37824
37826
37828
37830
37832
37834
37836
37838
37840
37842
37844
37846
37848
37850
37852
37854
37856
37858
37860
37862
37864
37866
37868
37870
37872
37874
37876
37878
37880
37882
37884
37886
37888
37890
37892
37894
37896
37898
37900
37902
37904
37906
37908
37910
37912
37914
37916
37918
37920
37922
37924
37926
37928
37930
37932
37934
37936
37938
37940
37942
37944
37946
37948
37950
37952
37954
37956
37958
37960
37962
37964
37966
37968
37970
37972
37974
37976
37978
37980
37982
37984
37986
37988
37990
37992
37994
37996
37998
38000
38002
38004
38006
38008
38010
38012
38014
38016
38018
38020
38022
38024
38026
38028
38030
38032
38034
38036
38038
38040
38042
38044
38046
38048
38050
38052
38054
38056
38058
38060
38062
38064
38066
38068
38070
38072
38074
38076
38078
38080
38082
38084
38086
38088
38090
38092
38094
38096
38098
38100
38102
38104
38106
38108
38110
38112
38114
38116
38118
38120
38122
38124
38126
38128
38130
38132
38134
38136
38138
38140
38142
38144
38146
38148
38150
38152
38154
38156
38158
38160
38162
38164
38166
38168
38170
38172
38174
38176
38178
38180
38182
38184
38186
38188
38190
38192
38194
38196
38198
38200
38202
38204
38206
38208
38210
38212
38214
38216
38218
38220
38222
38224
38226
38228
38230
38232
38234
38236
38238
38240
38242
38244
38246
38248
38250
38252
38254
38256
38258
38260
38262
38264
38266
38268
38270
38272
38274
38276
38278
38280
38282
38284
38286
38288
38290
38292
38294
38296
38298
38300
38302
38304
38306
38308
38310
38312
38314
38316
      </DataArray>
      <DataArray type="UInt8" Name="types" format="ascii">
69
69
69
69
69
69
69
69
69
69
69
69
69
69
69
69
69
69
69
69
69
69
69
69
69
69
69
69
69
69
69
69
69
69
69
69
69
69
69
69
69
69
69
69
69
69
69
69
69
69
69
69
69
69
69
69
69
69
69
69
69
69
69
69
69
69
69
69
69
69
69
69
69
69
69
69
69
69
69
69
69
69
69
69
69
69
69
69
69
69
69
69
69
69
69
69
69
69
69
69
69
69
69
69
69
69
69
69
69
69
69
69
69
69
69
69
69
69
69
69
69
69
69
69
69
69
69
69
69
69
69
69
69
69
69
69
69
69
69
69
69
69
69
69
69
69
69
69
69
69
69
69
69
69
69
69
69
69
69
69
69
69
69
69
69
69
69
69
69
69
69
69
69
69
69
69
69
69
69
69
69
69
69
69
69
69
69
69
69
69
69
69
69
69
69
69
69
69
69
69
69
69
69
69
69
69
69
69
69
69
69
69
69
69
69
69
69
69
69
69
69
69
69
69
69
69
69
69
69
69
69
69
69
69
69
69
69
69
69
69
69
69
69
69
69
69
69
69
69
69
69
69
69
69
69
69
69
69
69
69
69
69
69
69
69
69
69
69
69
69
69
69
69
69
69
69
69
69
69
69
69
69
69
69
69
69
69
69
69
69
69
69
69
69
69
69
69
69
69
69
69
69
69
69
69
69
69
69
69
69
69
69
69
69
69
69
69
69
69
69
69
69
69
69
69
69
69
69
69
69
69
69
69
69
69
69
69
69
69
69
69
69
69
69
69
69
69
69
69
69
69
69
69
69
69
69
69
69
69
69
69
69
69
69
69
69
69
69
69
69
69
69
69
69
69
69
69
69
69
69
69
69
69
69
69
69
69
69
69
69
69
69
69
69
69
69
69
69
69
69
69
69
69
69
69
69
69
69
69
69
69
69
69
69
69
69
69
69
69
69
69
69
69
69
69
69
69
69
69
69
69
69
69
69
69
69
69
69
69
69
69
69
69
69
69
69
69
69
69
69
69
69
69
69
69
69
69
69
69
69
69
69
69
69
69
69
69
69
69
69
69
69
69
69
69
69
69
69
69
69
69
69
69
69
69
69
69
69
69
69
69
69
69
69
69
69
69
69
69
69
69
69
69
69
69
69
69
69
69
69
69
69
69
69
69
69
69
69
69
69
69
69
69
69
69
69
69
69
69
69
69
69
69
69
69
69
69
69
69
69
69
69
69
69
69
69
69
69
69
69
69
69
69
69
69
69
69
69
69
69
69
69
69
69
69
69
69
69
69
69
69
69
69
69
69
69
69
69
69
69
69
69
69
69
69
69
69
69
69
69
69
69
69
69
69
69
69
69
69
69
69
69
69
69
69
69
69
69
69
69
69
69
69
69
69
69
69
69
69
69
69
69
69
69
69
69
69
69
69
69
69
69
69
69
69
69
69
69
69
69
69
69
69
69
69
69
69
69
69
69
69
69
69
69
69
69
69
69
69
69
69
69
69
69
69
69
69
69
69
69
69
69
69
69
69
69
69
69
69
69
69
69
69
69
69
69
69
69
69
69
69
69
69
69
69
69
69
69
69
69
69
69
69
69
69
69
69
69
69
69
69
69
69
69
69
69
69
69
69
69
69
69
69
69
69
69
69
69
69
69
69
69
69
69
69
69
69
69
69
69
69
69
69
69
69
69
69
69
69
69
69
69
69
69
69
69
69
69
69
69
69
69
69
69
69
69
69
69
69
69
69
69
69
69
69
69
69
69
69
69
69
69
69
69
69
69
69
69
69
69
69
69
69
69
69
69
69
69
69
69
69
69
69
69
69
69
69
69
69
69
69
69
69
69
69
69
69
69
69
69
69
69
69
69
69
69
69
69
69
69
69
69
69
69
69
69
69
69
69
69
69
69
69
69
69
69
69
69
69
69
69
69
69
69
69
69
69
69
69
69
69
69
69
69
69
69
69
69
69
69
69
69
69
69
69
69
69
69
69
69
69
69
69
69
69
69
69
69
69
69
69
69
69
69
69
69
69
69
69
69
69
69
69
69
69
69
69
69
69
69
69
69
69
69
69
69
69
69
69
69
69
69
69
69
69
69
69
69
69
69
69
69
69
69
69
69
69
69
69
69
69
69
69
69
69
69
69
69
69
69
69
69
69
69
69
69
69
69
69
69
69
69
69
69
69
69
69
69
69
69
69
69
69
69
69
69
69
69
69
69
69
69
69
69
69
69
69
69
69
69
69
69
69
69
69
69
69
69
69
69
69
69
69
69
69
69
69
69
69
69
69
69
69
69
69
69
69
69
69
69
69
69
69
69
69
69
69
69
69
69
69
69
69
69
69
69
69
69
69
69
69
69
69
69
69
69
69
69
69
69
69
69
69
69
69
69
69
69
69
69
69
69
69
69
69
69
69
69
69
69
69
69
69
69
69
69
69
69
69
69
69
69
69
69
69
69
69
69
69
69
69
69
69
69
69
69
69
69
69
69
69
69
69
69
69
69
69
69
69
69
69
69
69
69
69
69
69
69
69
69
69
69
69
69
69
69
69
69
69
69
69
69
69
69
69
69
69
69
69
69
69
69
69
69
69
69
69
69
69
69
69
69
69
69
69
69
69
69
69
69
69
69
69
69
69
69
69
69
69
69
69
69
69
69
69
69
69
69
69
69
69
69
69
69
69
69
69
69
69
69
69
69
69
69
69
69
69
69
69
69
69
69
69
69
69
69
69
69
69
69
69
69
69
69
69
69
69
69
69
69
69
69
69
69
69
69
69
69
69
69
69
69
69
69
69
69
69
69
69
69
69
69
69
69
69
69
69
69
69
69
69
69
69
69
69
69
69
69
69
69
69
69
69
69
69
69
69
69
69
69
69
69
69
69
69
69
69
69
69
69
69
69
69
69
69
69
69
69
69
69
69
69
69
69
69
69
69
69
69
69
69
69
69
69
69
69
69
69
69
69
69
69
69
69
69
69
69
69
69
69
69
69
69
69
69
69
69
69
69
69
69
69
69
69
69
69
69
69
69
69
69
69
69
69
69
69
69
69
69
69
69
69
69
69
69
69
69
69
69
69
69
69
69
69
69
69
69
69
69
69
69
69
69
69
69
69
69
69
69
69
69
69
69
69
69
69
69
69
69
69
69
69
69
69
69
69
69
69
69
69
69
69
69
69
69
69
69
69
69
69
69
69
69
69
69
69
69
69
69
69
69
69
69
69
69
69
69
69
69
69
69
69
69
69
69
69
69
69
69
69
69
69
69
69
69
69
69
69
69
69
69
69
69
69
69
69
69
69
69
69
69
69
69
69
69
69
69
69
69
69
69
69
69
69
69
69
69
69
69
69
69
69
69
69
69
69
69
69
69
69
69
69
69
69
69
69
69
69
69
69
69
69
69
69
69
69
69
69
69
69
69
69
69
69
69
69
69
69
69
69
69
69
69
69
69
69
69
69
69
69
69
69
69
69
69
69
69
69
69
69
69
69
69
69
69
69
69
69
69
69
69
69
69
69
69
69
69
69
69
69
69
69
69
69
69
69
69
69
69
69
69
69
69
69
69
69
69
69
69
69
69
69
69
69
69
69
69
69
69
69
69
69
69
69
69
69
69
69
69
69
69
69
69
69
69
69
69
69
69
69
69
69
69
69
69
69
69
69
69
69
69
69
69
69
69
69
69
69
69
69
69
69
69
69
69
69
69
69
69
69
69
69
69
69
69
69
69
69
69
69
69
69
69
69
69
69
69
69
69
69
69
69
69
69
69
69
69
69
69
69
69
69
69
69
69
69
69
69
69
69
69
69
69
69
3
3
3
3
3
3
3
3
3
3
3
3
3
3
3
3
3
3
3
3
3
3
3
3
3
3
3
3
3
3
3
3
3
3
3
3
3
3
3
3
3
3
3
3
3
3
3
3
3
3
3
3
3
3
3
3
3
3
3
3
3
3
3
3
3
3
3
3
3
3
3
3
3
3
3
3
3
3
3
3
3
3
3
3
3
3
3
3
3
3
3
3
3
3
3
3
3
3
3
3
3
3
3
3
3
3
3
3
3
3
3
3
3
3
3
3
3
3
3
3
3
3
3
3
3
3
3
3
3
3
3
3
3
3
3
3
3
3
3
3
3
3
3
3
3
3
3
3
3
3
3
3
3
3
3
3
3
3
3
3
3
3
3
3
3
3
3
3
3
3
3
3
3
3
3
3
3
3
3
3
3
3
3
3
3
3
3
3
3
3
3
3
3
3
3
3
3
3
3
3
3
3
3
3
3
3
3
3
3
3
3
3
3
3
3
3
3
3
3
3
3
3
3
3
3
3
3
3
3
3
3
3
3
3
3
3
3
3
3
3
3
3
3
3
3
3
3
3
3
3
3
3
3
3
3
3
3
3
3
3
3
3
3
3
3
3
3
3
3
3
3
3
3
3
3
3
3
3
3
3
3
3
3
3
3
3
3
3
3
3
3
3
3
3
3
3
3
3
3
3
3
3
3
3
3
3
3
3
3
3
3
3
3
3
3
3
3
3
3
3
3
3
3
3
3
3
3
3
3
3
3
3
3
3
3
3
3
3
3
3
3
3
3
3
3
3
3
3
3
3
3
3
3
3
3
3
3
3
3
3
3
3
3
3
3
3
3
3
3
3
3
3
3
3
3
3
3
3
3
3
3
3
3
3
3
3
3
3
3
3
3
3
3
3
3
3
3
3
3
3
3
3
3
3
3
3
3
3
3
3
3
3
3
3
3
3
3
3
3
3
3
3
3
3
3
3
3
3
3
3
3
3
3
3
3
3
3
3
3
3
3
3
3
3
3
3
3
3
3
3
3
3
3
3
3
3
3
3
3
3
3
3
3
3
3
3
3
3
3
3
3
3
3
3
3
3
3
3
3
3
3
3
3
3
3
3
3
3
3
3
3
3
3
3
3
3
3
3
3
3
3
3
3
3
3
3
3
3
3
3
3
3
3
3
3
3
3
3
3
3
3
3
3
3
3
3
3
3
3
3
3
3
3
3
3
3
3
3
3
3
3
3
3
3
3
3
3
3
3
3
3
3
3
3
3
3
3
3
3
3
3
3
3
3
3
3
3
3
3
3
3
3
3
3
3
3
3
3
3
3
3
3
3
3
3
3
3
3
3
3
3
3
3
3
3
3
3
3
3
3
3
3
3
3
3
3
3
3
3
3
3
3
3
3
3
3
3
3
3
3
3
3
3
3
3
3
3
3
3
3
3
3
3
3
3
3
3
3
3
3
3
3
3
3
3
3
3
3
3
3
3
3
3
3
3
3
3
3
3
3
3
3
3
3
3
3
3
3
3
3
3
3
3
3
3
3
3
3
3
3
3
3
3
3
3
3
3
3
3
3
3
3
3
3
3
3
3
3
3
3
3
3
3
3
3
3
3
3
3
3
3
3
3
3
3
3
3
3
3
3
3
3
3
3
3
3
3
3
3
3
3
3
3
3
3
3
3
3
3
3
3
3
3
3
3
3
3
3
3
3
3
3
3
3
3
3
3
3
3
3
3
3
3
3
3
3
3
3
3
3
3
3
3
3
3
3
3
3
3
3
3
3
3
3
3
3
3
3
3
3
3
3
3
3
3
3
3
3
3
3
3
3
3
3
3
3
3
3
3
3
3
3
3
3
3
3
3
3
3
3
3
3
3
3
3
3
3
3
3
3
3
3
3
3
3
3
3
3
3
3
3
3
3
3
3
3
3
3
3
3
3
3
3
3
3
3
3
3
3
3
3
3
3
3
3
3
3
3
3
3
3
3
3
3
3
3
3
3
3
3
3
3
3
3
3
3
3
3
3
3
3
3
3
3
3
3
3
3
3
3
3
3
3
3
3
3
3
3
3
3
3
3
3
3
3
3
3
3
3
3
3
3
3
3
3
3
3
3
3
3
3
3
3
3
3
3
3
3
3
3
3
3
3
3
3
3
3
3
3
3
3
3
3
3
3
3
3
3
3
3
3
3
3
3
3
3
3
3
3
3
3
3
3
3
3
3
3
3
3
3
3
3
3
3
3
3
3
3
3
3
3
3
3
3
3
3
3
3
3
3
3
3
3
3
3
3
3
3
3
3
3
3
3
3
3
3
3
3
3
3
3
3
3
3
3
3
3
3
3
3
3
3
3
3
3
3
3
3
3
3
3
3
3
3
3
3
3
3
3
3
3
3
3
3
3
3
3
3
3
3
3
3
3
3
3
3
3
3
3
3
3
3
3
3
3
3
3
3
3
3
3
3
3
3
3
3
3
3
3
3
3
3
3
3
3
3
3
3
3
3
3
3
3
3
3
3
3
3
3
3
3
3
3
3
3
3
3
3
3
3
3
3
3
3
3
3
3
3
3
3
3
3
3
3
3
3
3
3
3
3
3
3
3
3
3
3
3
3
3
3
3
3
3
3
3
3
3
3
3
3
3
3
3
3
3
3
3
3
3
3
3
3
3
3
3
3
3
3
3
3
3
3
3
3
3
3
3
3
3
3
3
3
3
3
3
3
3
3
3
3
3
3
3
3
3
3
3
3
3
3
3
3
3
3
3
3
3
3
3
3
3
3
3
3
3
3
3
3
3
3
3
3
3
3
3
3
3
3
3
3
3
3
3
3
3
3
3
3
3
3
3
3
3
3
3
3
3
3
3
3
3
3
3
3
3
3
3
3
3
3
3
3
3
3
3
3
3
3
3
3
3
3
3
3
3
3
3
3
3
3
3
3
3
3
3
3
3
3
3
3
3
3
3
3
3
3
3
3
3
3
3
3
3
3
3
3
3
3
3
3
3
3
3
3
3
3
3
3
3
3
3
3
3
3
3
3
3
3
3
3
3
3
3
3
3
3
3
3
3
3
3
3
3
3
3
3
3
3
3
3
3
3
3
3
3
3
3
3
3
3
3
3
3
3
3
3
3
3
3
3
3
3
3
3
3
3
3
3
3
3
3
3
3
3
3
3
3
3
3
3
3
3
3
3
3
3
3
3
3
3
3
3
3
3
3
3
3
3
3
3
3
3
3
3
3
3
3
3
3
3
3
3
3
3
3
3
3
3
3
3
3
3
3
3
3
3
3
3
3
3
3
3
3
3
3
3
3
3
3
3
3
3
3
3
3
3
3
3
3
3
3
3
3
3
3
3
3
3
3
3
3
3
3
3
3
3
3
3
3
3
3
3
3
3
3
3
3
3
3
3
3
3
3
3
3
3
3
3
3
3
3
3
3
3
3
3
3
3
3
3
3
3
3
3
3
3
3
3
3
3
3
3
3
3
3
3
3
3
3
3
3
3
3
3
3
3
3
3
3
3
3
3
3
3
3
3
3
3
3
3
3
3
3
3
3
3
3
3
3
3
3
3
3
3
3
3
3
3
3
3
3
3
3
3
3
3
3
3
3
3
3
3
3
3
3
3
3
3
3
3
3
3
3
3
3
3
3
3
3
3
3
3
3
3
3
3
3
3
3
3
3
3
3
3
3
3
3
3
3
3
3
3
3
3
3
3
3
3
3
3
3
3
3
3
3
3
3
3
3
3
3
3
3
3
3
3
3
3
3
3
3
3
3
3
3
3
3
3
3
3
3
3
3
3
3
3
3
3
3
3
3
3
3
3
3
3
3
3
3
3
3
3
3
3
3
3
3
3
3
3
3
3
3
3
3
3
3
3
3
3
3
3
3
3
3
3
3
3
3
3
3
3
3
3
3
3
3
3
3
3
3
3
3
3
3
3
3
3
3
3
3
3
3
3
3
3
3
3
3
3
3
3
3
3
3
3
3
3
3
3
3
3
3
3
3
3
3
3
3
3
3
3
3
3
3
3
3
3
3
3
3
3
3
3
3
3
3
3
3
3
3
3
3
3
3
3
3
3
3
3
3
3
3
3
3
3
3
3
3
3
3
3
3
3
3
3
3
3
3
3
3
3
3
3
3
3
3
3
3
3
3
3
3
3
3
3
3
3
3
3
3
3
3
3
3
3
3
3
3
3
3
3
3
3
3
3
3
3
3
3
3
3
3
3
3
3
3
3
3
3
3
3
3
3
3
3
3
3
3
3
3
3
3
3
3
3
3
3
3
3
3
3
3
3
3
3
3
3
3
3
3
3
3
3
3
3
3
3
3
3
3
3
3
3
3
3
3
3
3
3
3
3
3
3
3
3
3
3
3
3
3
3
3
3
3
3
3
3
3
3
3
3
3
3
3
3
3
3
3
3
3
3
3
3
3
3
3
3
3
3
3
3
3
3
3
3
3
3
3
3
3
3
3
3
3
3
3
3
3
3
3
3
3
3
3
3
3
3
3
3
3
3
3
3
3
3
3
3
3
3
3
3
3
3
3
3
3
3
3
3
3
3
3
3
3
3
3
3
3
3
3
3
3
3
3
3
3
3
3
3
3
3
3
3
3
3
3
3
3
3
3
3
3
3
3
3
3
3
3
3
3
3
3
3
3
3
3
3
3
3
3
3
3
3
3
3
3
3
3
3
3
3
3
3
3
3
3
3
3
3
3
3
3
3
3
3
3
3
3
3
3
3
3
3
3
3
3
3
3
3
3
3
3
3
3
3
3
3
3
3
3
3
3
3
3
3
3
3
3
3
3
3
3
3
3
3
3
3
3
3
3
3
3
3
3
3
3
3
3
3
3
3
3
3
3
3
3
3
3
3
3
3
3
3
3
3
3
3
3
3
3
3
3
3
3
3
3
3
3
3
3
3
3
3
3
3
3
3
3
3
3
3
3
3
3
3
3
3
3
3
3
3
3
3
3
3
3
3
3
3
3
3
3
3
3
3
3
3
3
3
3
3
3
3
3
3
3
3
3
3
3
3
3
3
3
3
3
3
3
3
3
3
3
3
3
3
3
3
3
3
3
3
3
3
3
3
3
3
3
3
3
3
3
3
3
3
3
3
3
3
3
3
3
3
3
3
3
3
3
3
3
3
3
3
3
3
3
3
3
3
3
3
3
3
3
3
3
3
3
3
3
3
3
3
3
3
3
3
3
3
3
3
3
3
3
3
3
3
3
3
3
3
3
3
3
3
3
3
3
3
3
3
3
3
3
3
3
3
3
3
3
3
3
3
3
3
3
3
3
3
3
3
3
3
3
3
3
3
3
3
3
3
3
3
3
3
3
3
3
3
3
3
3
3
3
3
3
3
3
3
3
3
3
3
3
3
3
3
3
3
3
3
3
3
3
3
3
3
3
3
3
3
3
3
3
3
3
3
3
3
3
3
3
3
3
3
3
3
3
3
3
3
3
3
3
3
3
3
3
3
3
3
3
3
3
3
3
3
3
3
3
3
3
3
3
3
3
3
3
3
3
3
3
3
3
3
3
3
3
3
3
3
3
3
3
3
3
3
3
3
3
3
3
3
3
3
3
3
3
3
3
3
3
3
3
3
3
3
3
3
3
3
3
3
3
3
3
3
3
3
3
3
3
3
3
3
3
3
3
3
3
3
3
3
3
3
3
3
3
3
3
3
3
3
3
3
3
3
3
3
3
3
3
3
3
3
3
3
3
3
3
3
3
3
3
3
3
3
3
3
3
3
3
3
3
3
3
3
3
3
3
3
3
3
3
3
3
3
3
3
3
3
3
3
3
3
3
3
3
3
3
3
3
3
3
3
3
3
3
3
3
3
3
3
3
3
3
3
3
3
3
3
3
3
3
3
3
3
3
3
3
3
3
3
3
3
3
3
3
3
3
3
3
3
3
3
3
3
3
3
3
3
3
3
3
3
3
3
3
3
3
3
3
3
3
3
3
3
3
3
3
3
3
3
3
3
3
3
3
3
3
3
3
3
3
3
3
3
3
3
3
3
3
3
3
3
3
3
3
3
3
3
3
3
3
3
3
3
3
3
3
3
3
3
3
3
3
3
3
3
3
3
3
3
3
3
3
3
3
3
3
3
3
3
3
3
3
3
3
3
3
3
3
3
3
3
3
3
3
3
3
3
3
3
3
3
3
3
3
3
3
3
3
3
3
3
3
3
3
3
3
3
3
3
3
3
3
3
3
3
3
3
3
3
3
3
3
3
3
3
3
3
3
3
3
3
3
3
3
3
3
3
3
3
3
3
3
3
3
3
3
3
3
3
3
3
3
3
3
3
3
3
3
3
3
3
3
3
3
3
3
3
3
3
3
3
3
3
3
3
3
3
3
3
3
3
3
3
3
3
3
3
3
3
3
3
3
3
3
3
3
3
3
3
3
3
3
3
3
3
3
3
3
3
3
3
3
3
3
3
3
3
3
3
3
3
3
3
3
3
3
3
3
3
3
3
3
3
3
3
3
3
3
3
3
3
3
3
3
3
3
3
3
3
3
3
3
3
3
3
3
3
3
3
3
3
3
3
3
3
3
3
3
3
3
3
3
3
3
3
3
3
3
3
3
3
3
3
3
3
3
3
3
3
3
3
3
3
3
3
3
3
3
3
3
3
3
3
3
3
3
3
3
3
3
3
3
3
3
3
3
3
3
3
3
3
3
3
3
3
3
3
3
3
3
3
3
3
3
3
3
3
3
3
3
3
3
3
3
3
3
3
3
3
3
3
3
3
3
3
3
3
3
3
3
3
3
3
3
3
3
3
3
3
3
3
3
3
3
3
3
3
3
3
3
3
3
3
3
3
3
3
3
3
3
3
3
3
3
3
3
3
3
3
3
3
3
3
3
3
3
3
3
3
3
3
3
3
3
3
3
3
3
3
3
3
3
3
3
3
3
3
3
3
3
3
3
3
3
3
3
3
3
3
3
3
3
3
3
3
3
3
3
3
3
3
3
3
3
3
3
3
3
3
3
3
3
3
3
3
3
3
3
3
3
3
3
3
3
3
3
3
3
3
3
3
3
3
3
3
3
3
3
3
3
3
3
3
3
3
3
3
3
3
3
3
3
3
3
3
3
3
3
3
3
3
3
3
3
3
3
3
3
3
3
3
3
3
3
3
3
3
3
3
3
3
3
3
3
3
3
3
3
3
3
3
3
3
3
3
3
3
3
3
3
3
3
3
3
3
3
3
3
3
3
3
3
3
3
3
3
3
3
3
3
3
3
3
3
3
3
3
3
3
3
3
3
3
3
3
3
3
3
3
3
3
3
3
3
3
3
3
3
3
3
3
3
3
3
3
3
3
3
3
3
3
3
3
3
3
3
3
3
3
3
3
3
3
3
3
3
3
3
3
3
3
3
3
3
3
3
3
3
3
3
3
3
3
3
3
3
3
3
3
3
3
3
3
3
3
3
3
3
3
3
3
3
3
3
3
3
3
3
3
3
3
3
3
3
3
3
3
3
3
3
3
3
3
3
3
3
3
3
3
3
3
3
3
3
3
3
3
3
3
3
3
3
3
3
3
3
3
3
3
3
3
3
3
3
3
3
3
3
3
3
3
3
3
3
3
3
3
3
3
3
3
3
3
3
3
3
3
3
3
3
3
3
3
3
3
3
3
3
3
3
3
3
3
3
3
3
3
3
3
3
3
3
3
3
3
3
3
3
3
3
3
3
3
3
3
3
3
3
3
3
3
3
3
3
3
3
3
3
3
3
3
3
3
3
3
3
3
3
3
3
3
3
3
3
3
3
3
3
3
3
3
3
3
3
3
3
3
3
3
3
3
3
3
3
3
3
3
3
3
3
3
3
3
3
3
3
3
3
3
3
3
3
3
3
3
3
3
3
3
3
3
3
3
3
3
3
3
3
3
3
3
3
3
3
3
3
3
3
3
3
3
3
3
3
3
3
3
3
3
3
3
3
3
3
3
3
3
3
3
3
3
3
3
3
3
3
3
3
3
3
3
3
3
3
3
3
3
3
3
3
3
3
3
3
3
3
3
3
3
3
3
3
3
3
3
3
3
3
3
3
3
3
3
3
3
3
3
3
3
3
3
3
3
3
3
3
3
3
3
3
3
3
3
3
3
3
3
3
3
3
3
3
3
3
3
3
3
3
3
3
3
3
3
3
3
3
3
3
3
3
3
3
3
3
3
3
3
3
3
3
3
3
3
3
3
3
3
3
3
3
3
3
3
3
3
3
3
3
3
3
3
3
3
3
3
3
3
3
3
3
3
3
3
3
3
3
3
3
3
3
3
3
3
3
3
3
3
3
3
3
3
3
3
3
3
3
3
3
3
3
3
3
3
3
3
3
3
3
3
3
3
3
3
3
3
3
3
3
3
3
3
3
3
3
3
3
3
3
3
3
3
3
3
3
3
3
3
3
3
3
3
3
3
3
3
3
3
3
3
3
3
3
3
3
3
3
3
3
3
3
3
3
3
3
3
3
3
3
3
3
3
3
3
3
3
3
3
3
3
3
3
3
3
3
3
3
3
3
3
3
3
3
3
3
3
3
3
3
3
3
3
3
3
3
3
3
3
3
3
3
3
3
3
3
3
3
3
3
3
3
3
3
3
3
3
3
3
3
3
3
3
3
3
3
3
3
3
3
3
3
3
3
3
3
3
3
3
3
3
3
3
3
3
3
3
3
3
3
3
3
3
3
3
3
3
3
3
3
3
3
3
3
3
3
3
3
3
3
3
3
3
3
3
3
3
3
3
3
3
3
3
3
3
3
3
3
3
3
3
3
3
3
3
3
3
3
3
3
3
3
3
3
3
3
3
3
3
3
3
3
3
3
3
3
3
3
3
3
3
3
3
3
3
3
3
3
3
3
3
3
3
3
3
3
3
3
3
3
3
3
3
3
3
3
3
3
3
3
3
3
3
3
3
3
3
3
3
3
3
3
3
3
3
3
3
3
3
3
3
3
3
3
3
3
3
3
3
3
3
3
3
3
3
3
3
3
3
3
3
3
3
3
3
3
3
3
3
3
3
3
3
3
3
3
3
3
3
3
3
3
3
3
3
3
3
3
3
3
3
3
3
3
3
3
3
3
3
3
3
3
3
3
3
3
3
3
3
3
3
3
3
3
3
3
3
3
3
3
3
3
3
3
3
3
3
3
3
3
3
3
3
3
3
3
3
3
3
3
3
3
3
3
3
3
3
3
3
3
3
3
3
3
3
3
3
3
3
3
3
3
3
3
3
3
3
3
3
3
3
3
3
3
3
3
3
3
3
3
3
3
3
3
3
3
3
3
3
3
3
3
3
3
3
3
3
3
3
3
3
3
3
3
3
3
3
3
3
3
3
3
3
3
3
3
3
3
3
3
3
3
3
3
3
3
3
3
3
3
3
3
3
3
3
3
3
3
3
3
3
3
3
3
3
3
3
3
3
3
3
3
3
3
3
3
3
3
3
3
3
3
3
3
3
3
3
3
3
3
3
3
3
3
3
3
3
3
3
3
3
3
3
3
3
3
3
3
3
3
3
3
3
3
3
3
3
3
3
3
3
3
3
3
3
3
3
3
3
3
3
3
3
3
3
3
3
3
3
3
3
3
3
3
3
3
3
3
3
3
3
3
3
3
3
3
3
3
3
3
3
3
3
3
3
3
3
3
3
3
3
3
3
3
3
3
3
3
3
3
3
3
3
3
3
3
3
3
3
3
3
3
3
3
3
3
3
3
3
3
3
3
3
3
3
3
3
3
3
3
3
3
3
3
3
3
3
3
3
3
3
3
3
3
3
3
3
3
3
3
3
3
3
3
3
3
3
3
3
3
3
3
3
3
3
3
3
3
3
3
3
3
3
3
3
3
3
3
3
3
3
3
3
3
3
3
3
3
3
3
3
3
3
3
3
3
3
3
3
3
3
3
3
3
3
3
3
3
3
3
3
3
3
3
3
3
3
3
3
3
3
3
3
3
3
3
3
3
3
3
3
3
3
3
3
3
3
3
3
3
3
3
3
3
3
3
3
3
3
3
3
3
3
3
3
3
3
3
3
3
3
3
3
3
3
3
3
3
3
3
3
3
3
3
3
3
3
3
3
3
3
3
3
3
3
3
3
3
3
3
3
3
3
3
3
3
3
3
3
3
3
3
3
3
3
3
3
3
3
3
3
3
3
3
3
3
3
3
3
3
3
3
3
3
3
3
3
3
3
3
3
3
3
3
3
3
3
3
3
3
3
3
3
3
3
3
3
3
3
3
3
3
3
3
3
3
3
3
3
3
3
3
3
3
3
3
3
3
3
3
3
3
3
3
3
3
3
3
3
3
3
3
3
3
3
3
3
3
3
3
3
3
3
3
3
3
3
3
3
3
3
3
3
3
3
3
3
3
3
3
3
3
3
3
3
3
3
3
3
3
3
3
3
3
3
3
3
3
3
3
3
3
3
3
3
3
3
3
3
3
3
3
3
3
3
3
3
3
3
3
3
3
3
3
3
3
3
3
3
3
3
3
3
3
3
3
3
3
3
3
3
3
3
3
3
3
3
3
3
3
3
3
3
3
3
3
3
3
3
3
3
3
3
3
3
3
3
3
3
3
3
3
3
3
3
3
3
3
3
3
3
3
3
3
3
3
3
3
3
3
3
3
3
3
3
3
3
3
3
3
3
3
3
3
3
3
3
3
3
3
3
3
3
3
3
3
3
3
3
3
3
3
3
3
3
3
3
3
3
3
3
3
3
3
3
3
3
3
3
3
3
3
3
3
3
3
3
3
3
3
3
3
3
3
3
3
3
3
3
3
3
3
3
3
3
3
3
3
3
3
3
3
3
3
3
3
3
3
3
3
3
3
3
3
3
3
3
3
3
3
3
3
3
3
3
3
3
3
3
3
3
3
3
3
3
3
3
3
3
3
3
3
3
3
3
3
3
3
3
3
3
3
3
3
3
3
3
3
3
3
3
3
3
3
3
3
3
3
3
3
3
3
3
3
3
3
3
3
3
3
3
3
3
3
3
3
3
3
3
3
3
3
3
3
3
3
3
3
3
3
3
3
3
3
3
3
3
3
3
3
3
3
3
3
3
3
3
3
3
3
3
3
3
3
3
3
3
3
3
3
3
3
3
3
3
3
3
3
3
3
3
3
3
3
3
3
3
3
3
3
3
3
3
3
3
3
3
3
3
3
3
3
3
3
3
3
3
3
3
3
3
3
3
3
3
3
3
3
3
3
3
3
3
3
3
3
3
3
3
3
3
3
3
3
3
3
3
3
3
3
3
3
3
3
3
3
3
3
3
3
3
3
3
3
3
3
3
3
3
3
3
3
3
3
3
3
3
3
3
3
3
3
3
3
3
3
3
3
3
3
3
3
3
3
3
3
3
3
3
3
3
3
3
3
3
3
3
3
3
3
3
3
3
3
3
3
3
3
3
3
3
3
3
3
3
3
3
3
3
3
3
3
3
3
3
3
3
3
3
3
3
3
3
3
3
3
3
3
3
3
3
3
3
3
3
3
3
3
3
3
3
3
3
3
3
3
3
3
3
3
3
3
3
3
3
3
3
3
3
3
3
3
3
3
3
3
3
3
3
3
3
3
3
3
3
3
3
3
3
3
3
3
3
3
3
3
3
3
3
3
3
3
3
3
3
3
3
3
3
3
3
3
3
3
3
3
3
3
3
3
3
3
3
3
3
3
3
3
3
3
3
3
3
3
3
3
3
3
3
3
3
3
3
3
3
3
3
3
3
3
3
3
3
3
3
3
3
3
3
3
3
3
3
3
3
3
3
3
3
3
3
3
3
3
3
3
3
3
3
3
3
3
3
3
3
3
3
3
3
3
3
3
3
3
3
3
3
3
3
3
3
3
3
3
3
3
3
3
3
3
3
3
3
3
3
3
3
3
3
3
3
3
3
3
3
3
3
3
3
3
3
3
3
3
3
3
3
3
3
3
3
3
3
3
3
3
3
3
3
3
3
3
3
3
3
3
3
3
3
3
3
3
3
3
3
3
3
3
3
3
3
3
3
3
3
3
3
3
3
3
3
3
3
3
3
3
3
3
3
3
3
3
3
3
3
3
3
3
3
3
3
3
3
3
3
3
3
3
3
3
3
3
3
3
3
3
3
3
3
3
3
3
3
3
3
3
3
3
3
3
3
3
3
3
3
3
3
3
3
3
3
3
3
3
3
3
3
3
3
3
3
3
3
3
3
3
3
3
3
3
3
3
3
3
3
3
3
3
3
3
3
3
3
3
3
3
3
3
3
3
3
3
3
3
3
3
3
3
3
3
3
3
3
3
3
3
3
3
3
3
3
3
3
3
3
3
3
3
3
3
3
3
3
3
3
3
3
3
3
3
3
3
3
3
3
3
3
3
3
3
3
3
3
3
3
3
3
3
3
3
3
3
3
3
3
3
3
3
3
3
3
3
3
3
3
3
3
3
3
3
3
3
3
3
3
3
3
3
3
3
3
3
3
3
3
3
3
3
3
3
3
3
3
3
3
3
3
3
3
3
3
3
3
3
3
3
3
3
3
3
3
3
3
3
3
3
3
3
3
3
3
3
3
3
3
3
3
3
3
3
3
3
3
3
3
3
3
3
3
3
3
3
3
3
3
3
3
3
3
3
3
3
3
3
3
3
3
3
3
3
3
3
3
3
3
3
3
3
3
3
3
3
3
3
3
3
3
3
3
3
3
3
3
3
3
3
3
3
3
3
3
3
3
3
3
3
3
3
3
3
3
3
3
3
3
3
3
3
3
3
3
3
3
3
3
3
3
3
3
3
3
3
3
3
3
3
3
3
3
3
3
3
3
3
3
3
3
3
3
3
3
3
3
3
3
3
3
3
3
3
3
3
3
3
3
3
3
3
3
3
3
3
3
3
3
3
3
3
3
3
3
3
3
3
3
3
3
3
3
3
3
3
3
3
3
3
3
3
3
3
3
3
3
3
3
3
3
3
3
3
3
3
3
3
3
3
3
3
3
3
3
3
3
3
3
3
3
3
3
3
3
3
3
3
3
3
3
3
3
3
3
3
3
3
3
3
3
3
3
3
3
3
3
3
3
3
3
3
3
3
3
3
3
3
3
3
3
3
3
3
3
3
3
3
3
3
3
3
3
3
3
3
3
3
3
3
3
3
3
3
3
3
3
3
3
3
3
3
3
3
3
3
3
3
3
3
3
3
3
3
3
3
3
3
3
3
3
3
3
3
3
3
3
3
3
3
3
3
3
3
3
3
3
3
3
3
3
3
3
3
3
3
3
3
3
3
3
3
3
3
3
3
3
3
3
3
3
3
3
3
3
3
3
3
3
3
3
3
3
3
3
3
3
3
3
3
3
3
3
3
3
3
3
3
3
3
3
3
3
3
3
3
3
3
3
3
3
3
3
3
3
3
3
3
3
3
3
3
3
3
3
3
3
3
3
3
3
3
3
3
3
3
3
3
3
3
3
3
3
3
3
3
3
3
3
3
3
3
3
3
3
3
3
3
3
3
3
3
3
3
3
3
3
3
3
3
3
3
3
3
3
3
3
3
3
3
3
3
3
3
3
3
3
3
3
3
3
3
3
3
3
3
3
3
3
3
3
3
3
3
3
3
3
3
3
3
3
3
3
3
3
3
3
3
3
3
3
3
3
3
3
3
3
3
3
3
3
3
3
3
3
3
3
3
3
3
3
3
3
3
3
3
3
3
3
3
3
3
3
3
3
3
3
3
3
3
3
3
3
3
3
3
3
3
3
3
3
3
3
3
3
3
3
3
3
3
3
3
3
3
3
3
3
3
3
3
3
3
3
3
3
3
3
3
3
3
3
3
3
3
3
3
3
3
3
3
3
3
3
3
3
3
3
3
3
3
3
3
3
3
3
3
3
3
3
3
3
3
3
3
3
3
3
3
3
3
3
3
3
3
3
3
3
3
3
3
3
3
3
3
3
3
3
3
3
3
3
3
3
3
3
3
3
3
3
3
3
3
3
3
3
3
3
3
3
3
3
3
3
3
3
3
3
3
3
3
3
3
3
3
3
3
3
3
3
3
3
3
3
3
3
3
3
3
3
3
3
3
3
3
3
3
3
3
3
3
3
3
3
3
3
3
3
3
3
3
3
3
3
3
3
3
3
3
3
3
3
3
3
3
3
3
3
3
3
3
3
3
3
3
3
3
3
3
3
3
3
3
3
3
3
3
3
3
3
3
3
3
3
3
3
3
3
3
3
3
3
3
3
3
3
3
3
3
3
3
3
3
3
3
3
3
3
3
3
3
3
3
3
3
3
3
3
3
3
3
3
3
3
3
3
3
3
3
3
3
3
3
3
3
3
3
3
3
3
3
3
3
3
3
3
3
3
3
3
3
3
3
3
3
3
3
3
3
3
3
3
3
3
3
3
3
3
3
3
3
3
3
3
3
3
3
3
3
3
3
3
3
3
3
3
3
3
3
3
3
3
3
3
3
3
3
3
3
3
3
3
3
3
3
3
3
3
3
3
3
3
3
3
3
3
3
3
3
3
3
3
3
3
3
3
3
3
3
3
3
3
3
3
3
3
3
3
3
3
3
3
3
3
3
3
3
3
3
3
3
3
3
3
3
3
3
3
3
3
3
3
3
3
3
3
3
3
3
3
3
3
3
3
3
3
3
3
3
3
3
3
3
3
3
3
3
3
3
3
3
3
3
3
3
3
3
3
3
3
3
3
3
3
3
3
3
3
3
3
3
3
3
3
3
3
3
3
3
3
3
3
3
3
3
3
3
3
3
3
3
3
3
3
3
3
3
3
3
3
3
3
3
3
3
3
3
3
3
3
3
3
3
3
3
3
3
3
3
3
3
3
3
3
3
3
3
3
3
3
3
3
3
3
3
3
3
3
3
3
3
3
3
3
3
3
3
3
3
3
3
3
3
3
3
3
3
3
3
3
3
3
3
3
3
3
3
3
3
3
3
3
3
3
3
3
3
3
3
3
3
3
3
3
3
3
3
3
3
3
3
3
3
3
3
3
3
3
3
3
3
3
3
3
3
3
3
3
3
3
3
3
3
3
3
3
3
3
3
3
3
3
3
3
3
3
3
3
3
3
3
3
3
3
3
3
3
3
3
3
3
3
3
3
3
3
3
3
3
3
3
3
3
3
3
3
3
3
3
3
3
3
3
3
3
3
3
3
3
3
3
3
3
3
3
3
3
3
3
3
3
3
3
3
3
3
3
3
3
3
3
3
3
3
3
3
3
3
3
3
3
3
3
3
3
3
3
3
3
3
3
3
3
3
3
3
3
3
3
3
3
3
3
3
3
3
3
3
3
3
3
3
3
3
3
3
3
3
3
3
3
3
3
3
3
3
3
3
3
3
3
3
3
3
3
3
3
3
3
3
3
3
3
3
3
3
3
3
3
3
3
3
3
3
3
3
3
3
3
3
3
3
3
3
3
3
3
3
3
3
3
3
3
3
3
3
3
3
3
3
3
3
3
3
3
3
3
3
3
3
3
3
3
3
3
3
3
3
3
3
3
3
3
3
3
3
3
3
3
3
3
3
3
3
3
3
3
3
3
3
3
3
3
3
3
3
3
3
3
3
3
3
3
3
3
3
3
3
3
3
3
3
3
3
3
3
3
3
3
3
3
3
3
3
3
3
3
3
3
3
3
3
3
3
3
3
3
3
3
3
3
3
3
3
3
3
3
3
3
3
3
3
3
3
3
3
3
3
3
3
3
3
3
3
3
3
3
3
3
3
3
3
3
3
3
3
3
3
3
3
3
3
3
3
3
3
3
3
3
3
3
3
3
3
3
3
3
3
3
3
3
3
3
3
3
3
3
3
3
3
3
3
3
3
3
3
3
3
3
3
3
3
3
3
3
3
3
3
3
3
3
3
3
3
3
3
3
3
3
3
3
3
3
3
3
3
3
3
3
3
3
3
3
3
3
3
3
3
3
3
3
3
3
3
3
3
3
3
3
3
3
3
3
3
3
3
3
3
3
3
3
3
3
3
3
3
3
3
3
3
3
3
3
3
3
3
3
3
3
3
3
3
3
3
3
3
3
3
3
3
3
3
3
3
3
3
3
3
3
3
3
3
3
3
3
3
3
3
3
3
3
3
3
3
3
3
3
3
3
3
3
3
3
3
3
3
3
3
3
3
3
3
3
3
3
3
3
3
3
3
3
3
3
3
3
3
3
3
3
3
3
3
3
3
3
3
3
3
3
3
3
3
3
3
3
3
3
3
3
3
3
3
3
3
3
3
3
3
3
3
3
3
3
3
3
3
3
3
3
3
3
3
3
3
3
3
3
3
3
3
3
3
3
3
3
3
3
3
3
3
3
3
3
3
3
3
3
3
3
3
3
3
3
3
3
3
3
3
3
3
3
3
3
3
3
3
3
3
3
3
3
3
3
3
3
3
3
3
3
3
3
3
3
3
3
3
3
3
3
3
3
3
3
3
3
3
3
3
3
3
3
3
3
3
3
3
3
3
3
3
3
3
3
3
3
3
3
3
3
3
3
3
3
3
3
3
3
3
3
3
3
3
3
3
3
3
3
3
3
3
3
3
3
3
3
3
3
3
3
3
3
3
3
3
3
3
3
3
3
3
3
3
3
3
3
3
3
3
3
3
3
3
3
3
3
3
3
3
3
3
3
3
3
3
3
3
3
3
3
3
3
3
3
3
3
3
3
3
3
3
3
3
3
3
3
3
3
3
3
3
3
3
3
3
3
3
3
3
3
3
3
3
3
3
3
3
3
3
3
3
3
3
3
3
3
3
3
3
3
3
3
3
3
3
3
3
3
3
3
3
3
3
3
3
3
3
3
3
3
3
3
3
3
3
3
3
3
3
3
3
3
3
3
3
3
3
3
3
3
3
3
3
3
3
3
3
3
3
3
3
3
3
3
3
3
3
3
3
3
3
3
3
3
3
3
3
3
3
3
3
3
3
3
3
3
3
3
3
3
3
3
3
3
3
3
3
3
3
3
3
3
3
3
3
3
3
3
3
3
3
3
3
3
3
3
3
3
3
3
3
3
3
3
3
3
3
3
3
3
3
3
3
3
3
3
3
3
3
3
3
3
3
3
3
3
3
3
3
3
3
3
3
3
3
3
3
3
3
3
3
3
3
3
3
3
3
3
3
3
3
3
3
3
3
3
3
3
3
3
3
3
3
3
3
3
3
3
3
3
3
3
3
3
3
3
3
3
3
3
3
3
3
3
3
3
3
3
3
3
3
3
3
3
3
3
3
3
3
3
3
3
3
3
3
3
3
3
3
3
3
3
3
3
3
3
3
3
3
3
3
3
3
3
3
3
3
3
3
3
3
3
3
3
3
3
3
3
3
3
3
3
3
3
3
3
3
3
3
3
3
3
3
3
3
3
3
3
3
3
3
3
3
3
3
3
3
3
3
3
3
3
3
3
3
3
3
3
3
3
3
3
3
3
3
3
3
3
3
3
3
3
3
3
3
3
3
3
3
3
3
3
3
3
3
3
3
3
3
3
3
3
3
3
3
3
3
3
3
3
3
3
3
3
3
3
3
3
3
3
3
3
3
3
3
3
3
3
3
3
3
3
3
3
3
3
3
3
3
3
3
3
3
3
3
3
3
3
3
3
3
3
3
3
3
3
3
3
3
3
3
3
3
3
3
3
3
3
3
3
3
3
3
3
3
3
3
3
3
3
3
3
3
3
3
3
3
3
3
3
3
3
3
3
3
3
3
3
3
3
3
3
3
3
3
3
3
3
3
3
3
3
3
3
3
3
3
3
3
3
3
3
3
3
3
3
3
3
3
3
3
3
3
3
3
3
3
3
3
3
3
3
3
3
3
3
3
3
3
3
3
3
3
3
3
3
3
3
3
3
3
3
3
3
3
3
3
3
3
3
3
3
3
3
3
3
3
3
3
3
3
3
3
3
3
3
3
3
3
3
3
3
3
3
3
3
3
3
3
3
3
3
3
3
3
3
3
3
3
3
3
3
3
3
3
3
3
3
3
3
3
3
3
3
3
3
3
3
3
3
3
3
3
3
3
3
3
3
3
3
3
3
3
3
3
3
3
3
3
3
3
3
3
3
3
3
3
3
3
3
3
3
3
3
3
3
3
3
3
3
3
3
3
3
3
3
3
3
3
3
3
3
3
3
3
3
3
3
3
3
3
3
3
3
3
3
3
3
3
3
3
3
3
3
3
3
3
3
3
3
3
3
3
3
3
3
3
3
3
3
3
3
3
3
3
3
3
3
3
3
3
3
3
3
3
3
3
3
3
3
3
3
3
3
3
3
3
3
3
3
3
3
3
3
3
3
3
3
3
3
3
3
3
3
3
3
3
3
3
3
3
3
3
3
3
3
3
3
3
3
3
3
3
3
3
3
3
3
3
3
3
3
3
3
3
3
3
3
3
3
3
3
3
3
3
3
3
3
3
3
3
3
3
3
3
3
3
3
3
3
3
3
3
3
3
3
3
3
3
3
3
3
3
3
3
3
3
3
3
3
3
3
3
3
3
3
3
3
3
3
3
3
3
3
3
3
3
3
3
3
3
3
3
3
3
3
3
3
3
3
3
3
3
3
3
3
3
3
3
3
3
3
3
3
3
3
3
3
3
3
3
3
3
3
3
3
3
3
3
3
3
3
3
3
3
3
3
3
3
3
3
3
3
3
3
3
3
3
3
3
3
3
3
3
3
3
3
3
3
3
3
3
3
3
3
3
3
3
3
3
3
3
3
3
3
3
3
3
3
3
3
3
3
3
3
3
3
3
3
3
3
3
3
3
3
3
3
3
3
3
3
3
3
3
3
3
3
3
3
3
3
3
3
3
3
3
3
3
3
3
3
3
3
3
3
3
3
3
3
3
3
3
3
3
3
3
3
3
3
3
3
3
3
3
3
3
3
3
3
3
3
3
3
3
3
3
3
3
3
3
3
3
3
3
3
3
3
3
3
3
3
3
3
3
3
3
3
3
3
3
3
3
3
3
3
3
3
3
3
3
3
3
3
3
3
3
3
3
3
3
3
3
3
3
3
3
3
3
3
3
3
3
3
3
3
3
3
3
3
3
3
3
3
3
3
3
3
3
3
3
3
3
3
3
3
3
3
3
3
3
3
3
3
3
3
3
3
3
3
3
3
3
3
3
3
3
3
3
3
3
3
3
3
3
3
3
3
3
3
3
3
3
3
3
3
3
3
3
3
3
3
3
3
3
3
3
3
3
3
3
3
3
3
3
3
3
3
3
3
3
3
3
3
3
3
3
3
3
3
3
3
3
3
3
3
3
3
3
3
3
3
3
3
3
3
3
3
3
3
3
3
3
3
3
3
3
3
3
3
3
3
3
3
3
3
3
3
3
3
3
3
3
3
3
3
3
3
3
3
3
3
3
3
3
3
3
3
3
3
3
3
3
3
3
3
3
3
3
3
3
3
3
3
3
3
3
3
3
3
3
3
3
3
3
3
3
3
3
3
3
3
3
3
3
3
3
3
3
3
3
3
3
3
3
3
3
3
3
3
3
3
3
3
3
3
3
3
3
3
3
3
3
3
3
3
3
3
3
3
3
3
3
3
3
3
3
3
3
3
3
3
3
3
3
3
3
3
3
3
3
3
3
3
3
3
3
3
3
3
3
3
3
3
3
3
3
3
3
3
3
3
3
3
3
3
3
3
3
3
3
3
3
3
3
3
3
3
3
3
3
3
3
3
3
3
3
3
3
3
3
3
3
3
3
3
3
3
3
3
3
3
3
3
3
3
3
3
3
3
3
3
3
3
3
3
3
3
3
3
3
3
3
3
3
3
3
3
3
3
3
3
3
3
3
3
3
3
3
3
3
3
3
3
3
3
3
3
3
3
3
3
3
3
3
3
3
3
3
3
3
3
3
3
3
3
3
3
3
3
3
3
3
3
3
3
3
3
3
3
3
3
3
3
3
3
3
3
3
3
3
3
3
3
3
3
3
3
3
3
3
3
3
3
3
3
3
3
3
3
3
3
3
3
3
3
3
3
3
3
3
3
3
3
3
3
3
3
3
3
3
3
3
3
3
3
3
3
3
3
3
3
3
3
3
3
3
3
3
3
3
3
3
3
3
3
3
3
3
3
3
3
3
3
3
3
3
3
3
3
3
3
3
3
3
3
3
3
3
3
3
3
3
3
3
3
3
3
3
3
3
3
3
3
3
3
3
3
3
3
3
3
3
3
3
3
3
3
3
3
3
3
3
3
3
3
3
3
3
3
3
3
3
3
3
3
3
3
3
3
3
3
3
3
3
3
3
3
3
3
3
3
3
3
3
3
3
3
3
3
3
3
3
3
3
3
3
3
3
3
3
3
3
3
3
3
3
3
3
3
3
3
3
3
3
3
3
3
3
3
3
3
3
3
3
3
3
3
3
3
3
3
3
3
3
3
3
3
3
3
3
3
3
3
3
3
3
3
3
3
3
3
3
3
3
3
3
3
3
3
3
3
3
3
3
3
3
3
3
3
3
3
3
3
3
3
3
3
3
3
3
3
3
3
3
3
3
3
3
3
3
3
3
3
3
3
3
3
3
3
3
3
3
3
3
3
3
3
3
3
3
3
3
3
3
3
3
3
3
3
3
3
3
3
3
3
3
3
3
3
3
3
3
3
3
3
3
3
3
3
3
3
3
3
3
3
3
3
3
3
3
3
3
3
3
3
3
3
3
3
3
3
3
3
3
3
3
3
3
3
3
3
3
3
3
3
3
3
3
3
3
3
3
3
3
3
3
3
3
3
3
3
3
3
3
3
3
3
3
3
3
3
3
3
3
3
3
3
3
3
3
3
3
3
3
3
3
3
3
3
3
3
3
3
3
3
3
3
3
3
3
3
3
3
3
3
3
3
3
3
3
3
3
3
3
3
3
3
3
3
3
3
3
3
3
3
3
3
3
3
3
3
3
3
3
3
3
3
3
3
3
3
3
3
3
3
3
3
3
3
3
3
3
3
3
3
3
3
3
3
3
3
3
3
3
3
3
3
3
3
3
3
3
3
3
3
3
3
3
3
3
3
3
3
3
3
3
3
3
3
3
3
3
3
3
3
3
3
3
3
3
3
3
3
3
3
3
3
3
3
3
3
3
3
3
3
3
3
3
3
3
3
3
3
3
3
3
3
3
3
3
3
3
3
3
3
3
3
3
3
3
3
3
3
3
3
3
3
3
3
3
3
3
3
3
3
3
3
3
3
3
3
3
3
3
3
3
3
3
3
3
3
3
3
3
3
3
3
3
3
3
3
3
3
3
3
3
3
3
3
3
3
3
3
3
3
3
3
3
3
3
3
3
3
3
3
3
3
3
3
3
3
3
3
3
3
3
3
3
3
3
3
3
3
3
3
3
3
3
3
3
3
3
3
3
3
3
3
3
3
3
3
3
3
3
3
3
3
3
3
3
3
3
3
3
3
3
3
3
3
3
3
3
3
3
3
3
3
3
3
3
3
3
3
3
3
3
3
3
3
3
3
3
3
3
3
3
3
3
3
3
3
3
3
3
3
3
3
3
3
3
3
3
3
3
3
3
3
3
3
3
3
3
3
3
3
3
3
3
3
3
3
3
3
3
3
3
3
3
3
3
3
3
3
3
3
3
3
3
3
3
3
3
3
3
3
3
3
3
3
3
3
3
3
3
3
3
3
3
3
3
3
3
3
3
3
3
3
3
3
3
3
3
3
3
3
3
3
3
3
3
3
3
3
3
3
3
3
3
3
3
3
3
3
3
3
3
3
3
3
3
3
3
3
3
3
3
3
3
3
3
3
3
3
3
3
3
3
3
3
3
3
3
3
3
3
3
3
3
3
3
3
3
3
3
3
3
3
3
3
3
3
3
3
3
3
3
3
3
3
3
3
3
3
3
3
3
3
3
3
3
3
3
3
3
3
3
3
3
3
3
3
3
3
3
3
3
3
3
3
3
3
3
3
3
3
3
3
3
3
3
3
3
3
3
3
3
3
3
3
3
3
3
3
3
3
3
3
3
3
3
3
3
3
3
3
3
3
3
3
3
3
3
3
3
3
3
3
3
3
3
3
3
3
3
3
3
3
3
3
3
3
3
3
3
3
3
3
3
3
3
3
3
3
3
3
3
3
3
3
3
3
3
3
3
3
3
3
3
3
3
3
3
3
3
3
3
3
3
3
3
3
3
3
3
3
3
3
3
3
3
3
3
3
3
3
3
3
3
3
3
3
3
3
3
3
3
3
3
3
3
3
3
3
3
3
3
3
3
3
3
3
3
3
3
3
3
3
3
3
3
3
3
3
3
3
3
3
3
3
3
3
3
3
3
3
3
3
3
3
3
3
3
3
3
3
3
3
3
3
3
3
3
3
3
3
3
3
3
3
3
3
3
3
3
3
3
3
3
3
3
3
3
3
3
3
3
3
3
3
3
3
3
3
3
3
3
3
3
3
3
3
3
3
3
3
3
3
3
3
3
3
3
3
3
3
3
3
3
3
3
3
3
3
3
3
3
3
3
3
3
3
3
3
3
3
3
3
3
3
3
3
3
3
3
3
3
3
3
3
3
3
3
3
3
3
3
3
3
3
3
3
3
3
3
3
3
3
3
3
3
3
3
3
3
3
3
3
3
3
3
3
3
3
3
3
3
3
3
3
3
3
3
3
3
3
3
3
3
3
3
3
3
3
3
3
3
3
3
3
3
3
3
3
3
3
3
3
3
3
3
3
3
3
3
3
3
3
3
3
3
3
3
3
3
3
3
3
3
3
3
3
3
3
3
3
3
3
3
3
3
3
3
3
3
3
3
3
3
3
3
3
3
3
3
3
3
3
3
3
3
3
3
3
3
3
3
3
3
3
3
3
3
3
3
3
3
3
3
3
3
3
3
3
3
3
3
3
3
3
3
3
3
3
3
3
3
3
3
3
3
3
3
3
3
3
3
3
3
3
3
3
3
3
3
3
3
3
3
3
3
3
3
3
3
3
3
3
3
3
3
3
3
3
3
3
3
3
3
3
3
3
3
3
3
3
3
3
3
3
3
3
3
3
3
3
3
3
3
3
3
3
3
3
3
3
3
3
3
3
3
3
3
3
3
3
3
3
3
3
3
3
3
3
3
3
3
3
3
3
3
3
3
3
3
3
3
3
3
3
3
3
3
3
3
3
3
3
3
3
3
3
3
3
3
3
3
3
3
3
3
3
3
3
3
3
3
3
3
3
3
3
3
3
3
3
3
3
3
3
3
3
3
3
3
3
3
3
3
3
3
3
3
3
3
3
3
3
3
3
3
3
3
3
3
3
3
3
3
3
3
3
3
3
3
3
3
3
3
3
3
3
3
3
3
3
3
3
3
3
3
3
3
3
3
3
3
3
3
3
3
3
3
3
3
3
3
3
3
3
3
3
3
3
3
3
3
3
3
3
3
3
3
3
3
3
3
3
3
3
3
3
3
3
3
3
3
3
3
3
3
3
3
3
3
3
3
3
3
3
3
3
3
3
3
3
3
3
3
3
3
3
3
3
3
3
3
3
3
3
3
3
3
3
3
3
3
3
3
3
3
3
3
3
3
3
3
3
3
3
3
3
3
3
3
3
3
3
3
3
3
3
3
3
3
3
3
3
3
3
3
3
3
3
3
3
3
3
3
3
3
3
3
3
3
3
3
3
3
3
3
3
3
3
3
3
3
3
3
3
3
3
3
3
3
3
3
3
3
3
3
3
3
3
3
3
3
3
3
3
3
3
3
3
3
3
3
3
3
3
3
3
3
3
3
3
3
3
3
3
3
3
3
3
3
3
3
3
3
3
3
3
3
3
3
3
3
3
3
3
3
3
3
3
3
3
3
3
3
3
3
3
3
3
3
3
3
3
3
3
3
3
3
3
3
3
3
3
3
3
3
3
3
3
3
3
3
3
3
3
3
3
3
3
3
3
3
3
3
3
3
3
3
3
3
3
3
3
3
3
3
3
3
3
3
3
3
3
3
3
3
3
3
3
3
3
3
3
3
3
3
3
3
3
3
3
3
3
3
3
3
3
3
3
3
3
3
3
3
3
3
3
3
3
3
3
3
3
3
3
3
3
3
3
3
3
3
3
3
3
3
3
3
3
3
3
3
3
3
3
3
3
3
3
3
3
3
3
3
3
3
3
3
3
3
3
3
3
3
3
3
3
3
3
3
3
3
3
3
3
3
3
3
3
3
3
3
3
3
3
3
3
3
3
3
3
3
3
3
3
3
3
3
3
3
3
3
3
3
3
3
3
3
3
3
3
3
3
3
3
3
3
3
3
3
3
3
3
3
3
3
3
3
3
3
3
3
3
3
3
3
3
3
3
3
3
3
3
3
3
3
3
3
3
3
3
3
3
3
3
3
3
3
3
3
3
3
3
3
3
3
3
3
3
3
3
3
3
3
3
3
3
3
3
3
3
3
3
3
3
3
3
3
3
3
3
3
3
3
3
3
3
3
3
3
3
3
3
3
3
3
3
3
3
3
3
3
3
3
3
3
3
3
3
3
3
3
3
3
3
3
3
3
3
3
3
3
3
3
3
3
3
3
3
3
3
3
3
3
3
3
3
3
3
3
3
3
3
3
3
3
3
3
3
3
3
3
3
3
3
3
3
3
3
3
3
3
3
3
3
3
3
3
3
3
3
3
3
3
3
3
3
3
3
3
3
3
3
3
3
3
3
3
3
3
3
3
3
3
3
3
3
3
3
3
3
3
3
3
3
3
3
3
3
3
3
3
3
3
3
3
3
3
3
3
3
3
3
3
3
3
3
3
3
3
3
3
3
3
3
3
3
3
3
3
3
3
3
3
3
3
3
3
3
3
3
3
3
3
3
3
3
3
3
3
3
3
3
3
3
3
3
3
3
3
3
3
3
3
3
3
3
3
3
3
3
3
3
3
3
3
3
3
3
3
3
3
3
3
3
3
3
3
3
3
3
3
3
3
3
3
3
3
3
3
3
3
3
3
3
3
3
3
3
3
3
3
3
3
3
3
3
3
3
3
3
3
3
3
3
3
3
3
3
3
3
3
3
3
3
3
3
3
3
3
3
3
3
3
3
3
3
3
3
3
3
3
3
3
3
3
3
3
3
3
3
3
3
3
3
3
3
3
3
3
3
3
3
3
3
3
3
3
3
3
3
3
3
3
3
3
3
3
3
3
3
3
3
3
3
3
3
3
3
3
3
3
3
3
3
3
3
3
3
3
3
3
3
3
3
3
3
3
3
3
3
3
3
3
3
3
3
3
3
3
3
3
3
3
3
3
3
3
3
3
3
3
3
3
3
3
3
3
3
3
3
3
3
3
3
3
3
3
3
3
3
3
3
3
3
3
3
3
3
3
3
3
3
3
3
3
3
3
3
3
3
3
3
3
3
3
3
3
3
3
3
3
3
3
3
3
3
3
3
3
3
3
3
3
3
3
3
3
3
3
3
3
3
3
3
3
3
3
3
3
3
3
3
3
3
3
3
3
3
3
3
3
3
3
3
3
3
3
3
3
3
3
3
3
3
3
3
3
3
3
3
3
3
3
3
3
3
3
3
3
3
3
3
3
3
3
3
3
3
3
3
3
3
3
3
3
3
3
3
3
3
3
3
3
3
3
3
3
3
3
3
3
3
3
3
3
3
3
3
3
3
3
3
3
3
3
3
3
3
3
3
3
3
3
3
3
3
3
3
3
3
3
3
3
3
3
3
3
3
3
3
3
3
3
3
3
3
3
3
3
3
3
3
3
3
3
3
3
3
3
3
3
3
3
3
3
3
3
3
3
3
3
3
3
3
3
3
3
3
3
3
3
3
3
3
3
3
3
3
3
3
3
3
3
3
3
3
3
3
3
3
3
3
3
3
3
3
3
3
3
3
3
3
3
3
3
3
3
3
3
3
3
3
3
3
3
3
3
3
3
3
3
3
3
3
3
3
3
3
3
3
3
3
3
3
3
3
3
3
3
3
3
3
3
3
3
3
3
3
3
3
3
3
3
3
3
3
3
3
3
3
3
3
3
3
3
3
3
3
3
3
3
3
3
3
3
3
3
3
3
3
3
3
3
3
3
3
3
3
3
3
3
3
3
3
3
3
3
3
3
3
3
3
3
3
3
3
3
3
3
3
3
3
3
3
3
3
3
3
3
3
3
3
3
3
3
3
3
3
3
3
3
3
3
3
3
3
3
3
3
3
3
3
3
3
3
3
3
3
3
3
3
3
3
3
3
3
3
3
3
3
3
3
3
3
3
3
3
3
3
3
3
3
3
3
3
3
3
3
3
3
3
3
3
3
3
3
3
3
3
3
3
3
3
3
3
3
3
3
3
3
3
3
3
3
3
3
3
3
3
3
3
3
3
3
3
3
3
3
3
3
3
3
3
3
3
3
3
3
3
3
3
3
3
3
3
3
3
3
3
3
3
3
3
3
3
3
3
3
3
3
3
3
3
3
3
3
3
3
3
3
3
3
3
3
3
3
3
3
3
3
3
3
3
3
3
3
3
3
3
3
3
3
3
3
3
3
3
3
3
3
3
3
3
3
3
3
3
3
3
3
3
3
3
3
3
3
3
3
3
3
3
3
3
3
3
3
3
3
3
3
3
3
3
3
3
3
3
3
3
3
3
3
3
3
3
3
3
3
3
3
3
3
3
3
3
3
3
3
3
3
3
3
3
3
3
3
3
3
3
3
3
3
3
3
3
3
3
3
3
3
3
3
3
3
3
3
3
3
3
3
3
3
3
3
3
3
3
3
3
3
3
3
3
3
3
3
3
3
3
3
3
3
3
3
3
3
3
3
3
3
3
3
3
3
3
3
3
3
3
3
3
3
3
3
3
3
3
3
3
3
3
3
3
3
3
3
3
3
3
3
3
3
3
3
3
3
3
3
3
3
3
3
3
3
3
3
3
3
3
3
3
3
3
3
3
3
3
3
3
3
3
3
3
3
3
3
3
3
3
3
3
3
3
3
3
3
3
3
3
3
3
3
3
3
3
3
3
3
3
3
3
3
3
3
3
3
3
3
3
3
3
3
3
3
3
3
3
3
3
3
3
3
3
3
3
3
3
3
3
3
3
3
3
3
3
3
3
3
3
3
3
3
3
3
3
3
3
3
3
3
3
3
3
3
3
3
3
3
3
3
3
3
3
3
3
3
3
3
3
3
3
3
3
3
3
3
3
3
3
3
3
3
3
3
3
3
3
3
3
3
3
3
3
3
3
3
3
3
3
3
3
3
3
3
3
3
3
3
3
3
3
3
3
3
3
3
3
3
3
3
3
3
3
3
3
3
3
3
3
3
3
3
3
3
3
3
3
3
3
3
3
3
3
3
3
3
3
3
3
3
3
3
3
3
3
3
3
3
3
3
3
3
3
3
3
3
3
3
3
3
3
3
3
3
3
3
3
3
3
3
3
3
3
3
3
3
3
3
3
3
3
3
3
3
3
3
3
3
3
3
3
3
3
3
3
3
3
3
3
3
3
3
3
3
3
3
3
3
3
3
3
3
3
3
3
3
3
3
3
3
3
3
3
3
3
3
3
3
3
3
3
3
3
3
3
3
3
3
3
3
3
3
3
3
3
3
3
3
3
3
3
3
3
3
3
3
3
3
3
3
3
3
3
3
3
3
3
3
3
3
3
3
3
3
3
3
3
3
3
3
3
3
3
3
3
3
3
3
3
3
3
3
3
3
3
3
3
3
3
3
3
3
3
3
3
3
3
3
3
3
3
3
3
3
3
3
3
3
3
3
3
3
3
3
3
3
3
3
3
3
3
3
3
3
3
3
3
3
3
3
3
3
3
3
3
3
3
3
3
3
3
3
3
3
3
3
3
3
3
3
3
3
3
3
3
3
3
3
3
3
3
3
3
3
3
3
3
3
3
3
3
3
3
3
3
3
3
3
3
3
3
3
3
3
3
3
3
3
3
3
3
3
3
3
3
3
3
3
3
3
3
3
3
3
3
3
3
3
3
3
3
3
3
3
3
3
3
3
3
3
3
3
3
3
3
3
3
3
3
3
3
3
3
3
3
3
3
3
3
3
3
3
3
3
3
3
3
3
3
3
3
3
3
3
3
3
3
3
3
3
3
3
3
3
3
3
3
3
3
3
3
3
3
3
3
3
3
3
3
3
3
3
3
3
3
3
3
3
3
3
3
3
3
3
3
3
3
3
3
3
3
3
3
3
3
3
3
3
3
3
3
3
3
3
3
3
3
3
3
3
3
3
3
3
3
3
3
3
3
3
3
3
3
3
3
3
3
3
3
3
3
3
3
3
3
3
3
3
3
3
3
3
3
3
3
3
3
3
3
3
3
3
3
3
3
3
3
3
3
3
3
3
3
3
3
3
3
3
3
3
3
3
3
3
3
3
3
3
3
3
3
3
3
3
3
3
3
3
3
3
3
3
3
3
3
3
3
3
3
3
3
3
3
3
3
3
3
3
3
3
3
3
3
3
3
3
3
3
3
3
3
3
3
3
3
3
3
3
3
3
3
3
3
3
3
3
3
3
3
3
3
3
3
3
3
3
3
3
3
3
3
3
3
3
3
3
3
3
3
3
3
3
3
3
3
3
3
3
3
3
3
3
3
3
3
3
3
3
3
3
3
3
3
3
3
3
3
3
3
3
3
3
3
3
3
3
3
3
3
3
3
3
3
3
3
3
3
3
3
3
3
3
3
3
3
3
3
3
3
3
3
3
3
3
3
3
3
3
3
3
3
3
3
3
3
3
3
3
3
3
3
3
3
3
3
3
3
3
3
3
3
3
3
3
3
3
3
3
3
3
3
3
3
3
3
3
3
3
3
3
3
3
3
3
3
3
3
3
3
3
3
3
3
3
3
3
3
3
3
3
3
3
3
3
3
3
3
3
3
3
3
3
3
3
3
3
3
3
3
3
3
3
3
3
3
3
3
3
3
3
3
3
3
3
3
3
3
3
3
3
3
3
3
3
3
3
3
3
3
3
3
3
3
3
3
3
3
3
3
3
3
3
3
3
3
3
3
3
3
3
3
3
3
3
3
3
3
3
3
3
3
3
3
3
3
3
3
3
3
3
3
3
3
3
3
3
3
3
3
3
3
3
3
3
3
3
3
3
3
3
3
3
3
3
3
3
3
3
3
3
3
3
3
3
3
3
3
3
3
3
3
3
3
3
3
3
3
3
3
3
3
3
3
3
3
3
3
3
3
3
3
3
3
3
3
3
3
3
3
3
3
3
3
3
3
3
3
3
3
3
3
3
3
3
3
3
3
3
3
3
3
3
3
3
3
3
3
3
3
3
3
3
3
3
3
3
3
3
3
3
3
3
3
3
3
3
3
3
3
3
3
3
3
3
3
3
3
3
3
3
3
3
3
3
3
3
3
3
3
3
3
3
3
3
3
3
3
3
3
3
3
3
3
3
3
3
3
3
3
3
3
3
3
3
3
3
3
3
3
3
3
3
3
3
3
3
3
3
3
3
3
3
3
3
3
3
3
3
3
3
3
3
3
3
3
3
3
3
3
3
3
3
3
3
3
3
3
3
3
3
3
3
3
3
3
3
3
3
3
3
3
3
3
3
3
3
3
3
3
3
3
3
3
3
3
3
3
3
3
3
3
3
3
3
3
3
3
3
3
3
3
3
3
3
3
3
3
3
3
3
3
3
3
3
3
3
3
3
3
3
3
3
3
3
3
3
3
3
3
3
3
3
3
3
3
3
3
3
3
3
3
3
3
3
3
3
3
3
3
3
3
3
3
3
3
3
3
3
3
3
3
3
3
3
3
3
3
3
3
3
3
3
3
3
3
3
3
3
3
3
3
3
3
3
3
3
3
3
3
3
3
3
3
3
3
3
3
3
3
3
3
3
3
3
3
3
3
3
3
3
3
3
3
3
3
3
3
3
3
3
3
3
3
3
3
3
3
3
3
3
3
3
3
3
3
3
3
3
3
3
3
3
3
3
3
3
3
3
3
3
3
3
3
3
3
3
3
3
3
3
3
3
3
3
3
3
3
3
3
3
3
3
3
3
3
3
3
3
3
3
3
3
3
3
3
3
3
3
3
3
3
3
3
3
3
3
3
3
3
3
3
3
3
3
3
3
3
3
3
3
3
3
3
3
3
3
3
3
3
3
3
3
3
3
3
3
3
3
3
3
3
3
3
3
3
3
3
3
3
3
3
3
3
3
3
3
3
3
3
3
3
3
3
3
3
3
3
3
3
3
3
3
3
3
3
3
3
3
3
3
3
3
3
3
3
3
3
3
3
3
3
3
3
3
3
3
3
3
3
3
3
3
3
3
3
3
3
3
3
3
3
3
3
3
3
3
3
3
3
3
3
3
3
3
3
3
3
3
3
3
3
3
3
3
3
3
3
3
3
3
3
3
3
3
3
3
3
3
3
3
3
3
3
3
3
3
3
3
3
3
3
3
3
3
3
3
3
3
3
3
3
3
3
3
3
3
3
3
3
3
3
3
3
3
3
3
3
3
3
3
3
3
3
3
3
3
3
3
3
3
3
3
3
3
3
3
3
3
3
3
3
3
3
3
3
3
3
3
3
3
3
3
3
3
3
3
3
3
3
3
3
3
3
3
3
3
3
3
3
3
3
3
3
3
3
3
3
3
3
3
3
3
3
3
3
3
3
3
3
3
3
3
3
3
3
3
3
3
3
3
3
3
3
3
3
3
3
3
3
3
3
3
3
3
3
3
3
3
3
3
3
3
3
3
3
3
3
3
3
3
3
3
3
3
3
3
3
3
3
3
3
3
3
3
3
3
3
3
3
3
3
3
3
3
3
3
3
3
3
3
3
3
3
3
3
3
3
3
3
3
3
3
3
3
3
3
3
3
3
3
3
3
3
3
3
3
3
3
3
3
3
3
3
3
3
3
3
3
3
3
3
3
3
3
3
3
3
3
3
3
3
3
3
3
3
3
3
3
3
3
3
3
3
3
3
3
3
3
3
3
3
3
3
3
3
3
3
3
3
3
3
3
3
3
3
3
3
3
3
3
3
3
3
3
3
3
3
3
3
3
3
3
3
3
3
3
3
3
3
3
3
3
3
3
3
3
3
3
3
3
3
3
3
3
3
3
3
3
3
3
3
3
3
3
3
3
3
3
3
3
3
3
3
3
3
3
3
3
3
3
3
3
3
3
3
3
3
3
3
3
3
3
3
3
3
3
3
3
3
3
3
3
3
3
3
3
3
3
3
3
3
3
3
3
3
3
3
3
3
3
3
3
3
3
3
3
3
3
3
3
3
3
3
3
3
3
3
3
3
3
3
3
3
3
3
3
3
3
3
3
3
3
3
3
3
3
3
3
3
3
3
3
3
3
3
3
3
3
3
3
3
3
3
3
3
3
3
3
3
3
3
3
3
3
3
3
3
3
3
3
3
3
3
3
3
3
3
3
3
3
3
3
3
3
3
3
3
3
3
3
3
3
3
3
3
3
3
3
3
3
3
3
3
3
3
3
3
3
3
3
3
3
3
3
3
3
3
3
3
3
3
3
3
3
3
3
3
3
3
3
3
3
3
3
3
3
3
3
3
3
3
3
3
3
3
3
3
3
3
3
3
3
3
3
3
3
3
3
3
3
3
3
3
3
3
3
3
3
3
3
3
3
3
3
3
3
3
3
3
3
3
3
3
3
3
3
3
3
3
3
3
3
3
3
3
3
3
3
3
3
3
3
3
3
3
3
3
3
3
3
3
3
3
3
3
3
3
3
3
3
3
3
3
3
3
3
3
3
3
3
3
3
3
3
3
3
3
3
3
3
3
3
3
3
3
3
3
3
3
3
3
3
3
3
3
3
3
3
3
3
3
3
3
3
3
3
3
3
3
3
3
3
3
3
3
3
3
3
3
3
3
3
3
3
3
3
3
3
3
3
3
3
3
3
3
3
3
3
3
3
3
3
3
3
      </DataArray>
    </Cells>
    <PointData>
      <DataArray type="Float64" NumberOfComponents="2" Name="Displacement" format="ascii">
-0.823772 -25.7938
-3.10102 -25.7143
0 0
0 0
1.45367 -25.8867
0 0
-0.0205644 -1.77806
0.249894 -1.48854
-0.0101257 -1.18996
-0.280975 -1.48082
-0.11313 -5.94744
0.381461 -5.44991
-0.0843638 -4.9287
-0.579412 -5.4272
-0.296937 -11.8924
0.359532 -11.2502
-0.249084 -10.5688
-0.905971 -11.2115
-0.557613 -18.9824
0.195115 -18.2564
-0.495577 -17.4803
-1.2488 -18.2065
-1.07861 -25.7842
-1.33457 -25.7754
-1.50966 -25.7693
-1.68491 -25.7633
-1.87539 -25.7564
-2.06606 -25.7498
-2.32366 -25.7406
-2.58176 -25.7319
-2.84066 -25.723
-3.09033 -25.4528
-3.07942 -25.1932
-3.06867 -24.9341
-3.05788 -24.6754
-3.04692 -24.4143
-3.03584 -24.1533
-3.02417 -23.882
-3.01231 -23.6108
-3.00073 -23.3502
-2.98895 -23.0897
-2.97697 -22.8295
-2.9648 -22.5695
-2.95243 -22.3097
-2.93986 -22.0502
-2.92709 -21.791
-2.91413 -21.5322
-2.90098 -21.2737
-2.88767 -21.0155
-2.87418 -20.7578
-2.86055 -20.5005
-2.84681 -20.2437
-2.83296 -19.9872
-2.81907 -19.7312
-2.80512 -19.4754
-2.79115 -19.2199
-2.77709 -18.9646
-2.76281 -18.7093
-2.74822 -18.4541
-2.73309 -18.1991
-2.71737 -17.9445
-2.70096 -17.6908
-2.68406 -17.4382
-2.6668 -17.1869
-2.64939 -16.937
-2.63197 -16.6884
-2.61459 -16.4409
-2.59728 -16.1947
-2.57999 -15.9494
-2.56271 -15.7052
-2.54538 -15.4619
-2.52799 -15.2196
-2.5105 -14.9783
-2.4929 -14.7379
-2.47519 -14.4986
-2.45734 -14.2604
-2.43937 -14.0232
-2.42126 -13.7872
-2.40304 -13.5523
-2.3847 -13.3185
-2.36627 -13.0859
-2.34777 -12.8545
-2.32922 -12.6242
-2.31067 -12.395
-2.2921 -12.167
-2.27354 -11.9398
-2.25491 -11.7136
-2.2361 -11.488
-2.21692 -11.2634
-2.19713 -11.0397
-2.17674 -10.8173
-2.15571 -10.5968
-2.13431 -10.3782
-2.11271 -10.1619
-2.09111 -9.94757
-2.06961 -9.73533
-2.04822 -9.525
-2.02694 -9.31647
-2.00572 -9.10969
-1.98453 -8.90461
-1.96332 -8.70125
-1.94206 -8.49958
-1.92073 -8.29964
-1.89931 -8.10145
-1.8778 -7.90502
-1.85618 -7.71039
-1.83446 -7.51759
-1.81263 -7.32663
-1.79071 -7.13755
-1.76869 -6.95037
-1.74659 -6.76511
-1.72445 -6.58177
-1.70227 -6.40035
-1.68012 -6.2208
-1.658 -6.04302
-1.63593 -5.86687
-1.61379 -5.69226
-1.59136 -5.51906
-1.5685 -5.34743
-1.5449 -5.17773
-1.5207 -5.0103
-1.49596 -4.84564
-1.471 -4.68381
-1.44595 -4.52493
-1.421 -4.36888
-1.39622 -4.21553
-1.37156 -4.06477
-1.34702 -3.91649
-1.32253 -3.77067
-1.29805 -3.62725
-1.27353 -3.48628
-1.24895 -3.34772
-1.22429 -3.21163
-1.19953 -3.07801
-1.17467 -2.9469
-1.14969 -2.81832
-1.12459 -2.6923
-1.09937 -2.56887
-1.07402 -2.44806
-1.04856 -2.32989
-1.023 -2.21439
-0.99738 -2.10159
-0.971721 -1.99143
-0.946118 -1.88387
-0.920552 -1.77876
-0.895023 -1.67589
-0.869346 -1.57516
-0.843216 -1.47652
-0.816453 -1.38032
-0.788899 -1.28699
-0.760769 -1.1969
-0.732162 -1.11051
-0.703431 -1.02774
-0.674729 -0.948659
-0.646144 -0.873052
-0.617716 -0.800792
-0.58937 -0.731784
-0.561083 -0.665932
-0.532776 -0.60323
-0.504416 -0.543648
-0.475965 -0.487213
-0.447393 -0.433928
-0.418693 -0.383827
-0.389843 -0.336928
-0.360851 -0.293259
-0.331707 -0.252842
-0.302425 -0.215694
-0.273009 -0.181833
-0.243473 -0.151258
-0.213855 -0.123964
-0.184159 -0.0999038
-0.154481 -0.0789978
-0.124784 -0.0610814
-0.095541 -0.0458803
-0.0662143 -0.0325132
-0.0360492 -0.019556
0 0
0 0
0 0
0 0
0 0
0 0
0 0
0 0
0 0
-0.567775 -25.8037
-0.312315 -25.8142
-0.137101 -25.8214
0.0378935 -25.8287
0.228791 -25.8364
0.419431 -25.8442
0.677619 -25.8545
0.935462 -25.8653
1.1946 -25.8758
1.46466 -25.6254
1.47468 -25.3654
1.48444 -25.106
1.49406 -24.8469
1.50366 -24.5855
1.51311 -24.3243
1.52278 -24.0527
1.53225 -23.7813
1.54116 -23.5204
1.54986 -23.2597
1.55833 -22.9992
1.56659 -22.7388
1.57461 -22.4787
1.58241 -22.2189
1.58996 -21.9593
1.5973 -21.7
1.6044 -21.441
1.61129 -21.1824
1.61797 -20.9241
1.62447 -20.6662
1.63081 -20.4087
1.637 -20.1516
1.6431 -19.8947
1.64909 -19.6382
1.65499 -19.3818
1.66074 -19.1255
1.66621 -18.8692
1.67128 -18.6131
1.67571 -18.3572
1.67947 -18.1018
1.68244 -17.8472
1.68481 -17.5937
1.6867 -17.3416
1.6883 -17.0908
1.68972 -16.8412
1.69102 -16.5928
1.69221 -16.3455
1.69325 -16.0992
1.69413 -15.8538
1.6948 -15.6093
1.69523 -15.3658
1.69541 -15.1232
1.69532 -14.8816
1.69496 -14.6411
1.6943 -14.4015
1.69337 -14.163
1.69216 -13.9256
1.69067 -13.6892
1.68893 -13.454
1.68694 -13.22
1.68473 -12.987
1.68232 -12.7552
1.67975 -12.5245
1.67703 -12.2948
1.67414 -12.066
1.67104 -11.8381
1.66756 -11.6109
1.6636 -11.3847
1.65888 -11.1594
1.65341 -10.9355
1.64711 -10.7134
1.64023 -10.4932
1.63292 -10.2752
1.62535 -10.0592
1.61763 -9.84529
1.60977 -9.63322
1.60179 -9.42294
1.59362 -9.2144
1.58525 -9.00754
1.57663 -8.80238
1.56774 -8.59891
1.55857 -8.39716
1.54908 -8.19715
1.53929 -7.9989
1.52918 -7.80244
1.51877 -7.60779
1.50803 -7.41499
1.497 -7.22406
1.48566 -7.03502
1.47404 -6.84788
1.46217 -6.66265
1.45007 -6.47932
1.43779 -6.29786
1.42535 -6.11817
1.41273 -5.94012
1.39985 -5.76364
1.38655 -5.58859
1.37263 -5.41518
1.35783 -5.24364
1.34223 -5.0744
1.32584 -4.90787
1.30896 -4.74416
1.29175 -4.58342
1.27436 -4.42547
1.25687 -4.27025
1.23925 -4.11762
1.22151 -3.96749
1.20358 -3.81983
1.18544 -3.6746
1.16704 -3.53182
1.14837 -3.39149
1.1294 -3.25364
1.11013 -3.11828
1.09056 -2.98545
1.07067 -2.85518
1.05047 -2.72748
1.02995 -2.6024
1.00913 -2.47996
0.987999 -2.36018
0.966595 -2.2431
0.944963 -2.12873
0.923124 -2.01703
0.901155 -1.90796
0.879061 -1.80136
0.856871 -1.69706
0.834391 -1.59494
0.81134 -1.49495
0.787548 -1.39741
0.762824 -1.30275
0.737369 -1.21133
0.711261 -1.12359
0.684835 -1.0395
0.658241 -0.959113
0.63158 -0.882244
0.604901 -0.808773
0.578147 -0.738602
0.551305 -0.671642
0.524309 -0.607884
0.497133 -0.547299
0.469748 -0.489911
0.442132 -0.435728
0.414282 -0.384779
0.386184 -0.337088
0.35785 -0.292679
0.329276 -0.251581
0.300481 -0.21381
0.271473 -0.179389
0.242273 -0.148318
0.212918 -0.1206
0.183422 -0.0961945
0.15387 -0.0750374
0.124235 -0.0569864
0.0949594 -0.0418302
0.0655387 -0.0288162
0.0353094 -0.0166516
0 0
0 0
0 0
0 0
0 0
0 0
0 0
0 0
0 0
0.0195921 -1.77636
0.0588817 -1.76982
0.096329 -1.75864
0.13119 -1.74291
0.162535 -1.7229
0.189931 -1.69898
0.212656 -1.67143
0.230564 -1.64087
0.243279 -1.60756
0.250908 -1.57233
0.25342 -1.53085
0.242103 -1.45054
0.230261 -1.41325
0.215097 -1.37699
0.196816 -1.34261
0.1763 -1.31055
0.153607 -1.28139
0.129562 -1.25572
0.10411 -1.23375
0.0780578 -1.21609
0.051304 -1.20272
0.0205796 -1.19343
-0.0410482 -1.19282
-0.0722023 -1.20142
-0.0995165 -1.2141
-0.126244 -1.23105
-0.152518 -1.25229
-0.177464 -1.27723
-0.201207 -1.30567
-0.222817 -1.33702
-0.242293 -1.37076
-0.258686 -1.40643
-0.271847 -1.44323
-0.286011 -1.5228
-0.284969 -1.56416
-0.278581 -1.59942
-0.267017 -1.63298
-0.250139 -1.66394
-0.228342 -1.69211
-0.201747 -1.71684
-0.171082 -1.73783
-0.136747 -1.75469
-0.0996854 -1.76712
-0.0606348 -1.77499
-0.0470008 -5.94497
0.0180459 -5.93412
0.0807698 -5.91519
0.139963 -5.88839
0.194412 -5.85413
0.243283 -5.81304
0.285576 -5.76568
0.32075 -5.71297
0.348181 -5.65559
0.367615 -5.59469
0.379686 -5.52314
0.373326 -5.37628
0.355589 -5.30404
0.332481 -5.24192
0.302796 -5.18312
0.267485 -5.12855
0.226894 -5.07911
0.18203 -5.03573
0.133281 -4.99891
0.081721 -4.96952
0.0277371 -4.94773
-0.0279719 -4.93415
-0.148021 -4.93277
-0.211274 -4.94703
-0.266103 -4.96836
-0.318744 -4.99726
-0.368838 -5.0335
-0.415168 -5.07628
-0.457418 -5.12506
-0.49444 -5.17896
-0.525929 -5.23709
-0.550866 -5.29856
-0.568944 -5.3622
-0.581749 -5.50011
-0.573713 -5.57189
-0.557709 -5.63341
-0.533528 -5.69185
-0.501319 -5.74605
-0.461711 -5.7953
-0.415158 -5.83868
-0.362664 -5.87557
-0.305007 -5.9053
-0.243396 -5.92739
-0.179028 -5.94156
-0.212863 -11.8897
-0.1299 -11.8761
-0.0495919 -11.8519
0.0267045 -11.8175
0.097565 -11.7735
0.161819 -11.7204
0.218321 -11.6593
0.266196 -11.5911
0.304695 -11.5169
0.333234 -11.438
0.353012 -11.3453
0.353001 -11.1547
0.333584 -11.0608
0.30613 -10.9801
0.269471 -10.9035
0.224565 -10.8323
0.171957 -10.7677
0.112719 -10.711
0.047589 -10.6627
-0.0220599 -10.6239
-0.0954749 -10.595
-0.171591 -10.5765
-0.33647 -10.5732
-0.423009 -10.591
-0.497819 -10.6181
-0.569293 -10.6551
-0.636669 -10.7017
-0.698472 -10.7568
-0.754043 -10.8198
-0.802117 -10.8895
-0.842172 -10.9648
-0.873134 -11.0444
-0.894648 -11.1271
-0.906325 -11.3065
-0.89328 -11.3999
-0.870469 -11.4802
-0.837396 -11.5565
-0.794489 -11.6274
-0.742484 -11.6918
-0.682143 -11.7486
-0.6146 -11.7971
-0.5409 -11.8362
-0.462449 -11.8654
-0.380624 -11.8843
-0.45225 -18.9783
-0.348456 -18.9588
-0.259213 -18.9287
-0.174585 -18.8872
-0.0958723 -18.8348
-0.0245368 -18.7725
0.0383867 -18.7014
0.0917179 -18.6225
0.134628 -18.537
0.166434 -18.4466
0.186704 -18.3525
0.190471 -18.1482
0.170973 -18.0417
0.141639 -17.95
0.101446 -17.8631
0.0512614 -17.7822
-0.00820067 -17.7087
-0.075812 -17.6439
-0.150601 -17.5887
-0.231202 -17.5442
-0.316519 -17.5109
-0.405169 -17.4896
-0.597683 -17.4847
-0.698601 -17.5044
-0.785694 -17.5347
-0.868678 -17.5763
-0.946453 -17.6288
-1.01752 -17.6911
-1.08091 -17.7623
-1.13538 -17.8412
-1.18019 -17.9265
-1.21435 -18.0168
-1.23742 -18.1106
-1.24833 -18.3027
-1.23587 -18.3978
-1.21157 -18.49
-1.17578 -18.5781
-1.12909 -18.6604
-1.0722 -18.7357
-1.00616 -18.8027
-0.931931 -18.8603
-0.850881 -18.9077
-0.764302 -18.944
-0.662355 -18.9708
-0.813271 -25.5364
-0.802942 -25.2782
-0.792673 -25.0196
-0.782396 -24.7609
-0.771916 -24.4969
-0.761444 -24.2329
-0.750989 -23.969
-0.740548 -23.7053
-0.730128 -23.4417
-0.719728 -23.1782
-0.70934 -22.9147
-0.698977 -22.6514
-0.688641 -22.3884
-0.678334 -22.1256
-0.668058 -21.8631
-0.657814 -21.6009
-0.647608 -21.3391
-0.637438 -21.0775
-0.627312 -20.8164
-0.617231 -20.5557
-0.607271 -20.2972
-0.59737 -20.0391
-0.588914 -19.8175
-0.580527 -19.5965
-0.57411 -19.4261
-0.567757 -19.2563
-0.562651 -19.1189
2.21301e-05 0.000720016
9.02478e-05 -0.00339915
0.000160572 -0.0119659
0.000196893 -0.0246852
0.000196374 -0.0416564
0.000153258 -0.062463
7.06062e-05 -0.0869309
-5.03991e-05 -0.114968
-0.000209563 -0.146493
-0.000405826 -0.18146
-0.000641905 -0.219872
-0.000917661 -0.261664
-0.00123659 -0.306819
-0.00159937 -0.355312
-0.0020097 -0.407132
-0.00246838 -0.462259
-0.00297912 -0.520686
-0.00354226 -0.582397
-0.00416182 -0.647381
-0.00483698 -0.715626
-0.00556746 -0.786605
-0.00635374 -0.860711
-0.00708159 -0.926952
-0.00785047 -0.995232
-0.00847262 -1.04912
-0.00910899 -1.10381
-0.00962841 -1.14783
-0.0214192 -1.83387
-0.0222763 -1.88974
-0.0233675 -1.95972
-0.0245048 -2.03083
-0.0260797 -2.12678
-0.0277367 -2.22478
-0.0298624 -2.34708
-0.0321011 -2.47235
-0.0344902 -2.60264
-0.0369927 -2.73591
-0.0401961 -2.90236
-0.0435666 -3.07312
-0.0464572 -3.2164
-0.0494593 -3.36251
-0.0525757 -3.51147
-0.0558034 -3.66323
-0.059144 -3.81772
-0.0625942 -3.97498
-0.0661013 -4.13237
-0.069706 -4.29234
-0.0727486 -4.42534
-0.0758375 -4.55979
-0.078209 -4.66218
-0.0805775 -4.76505
-0.0824924 -4.84768
-0.115507 -6.03981
-0.117905 -6.13254
-0.120911 -6.24797
-0.123985 -6.3644
-0.128141 -6.51982
-0.1324 -6.67681
-0.137721 -6.87034
-0.143173 -7.06603
-0.148845 -7.26709
-0.154642 -7.47028
-0.161878 -7.72087
-0.169294 -7.97453
-0.175511 -8.1849
-0.181844 -8.39729
-0.188292 -8.61166
-0.194853 -8.82802
-0.201524 -9.04624
-0.208302 -9.26641
-0.215075 -9.48484
-0.221945 -9.70508
-0.22764 -9.88683
-0.233377 -10.0695
-0.237762 -10.2081
-0.242095 -10.3468
-0.245594 -10.4585
-0.300809 -12.0101
-0.304724 -12.1284
-0.309617 -12.2754
-0.314582 -12.4232
-0.321247 -12.6197
-0.328003 -12.8172
-0.336354 -13.0595
-0.344816 -13.3031
-0.353521 -13.5521
-0.362326 -13.8023
-0.373193 -14.1091
-0.384191 -14.4177
-0.39331 -14.6723
-0.402513 -14.928
-0.411793 -15.1849
-0.421148 -15.4429
-0.430576 -15.7019
-0.44007 -15.962
-0.449473 -16.219
-0.458924 -16.4769
-0.466702 -16.6889
-0.474495 -16.9014
-0.480377 -17.0621
-0.486231 -17.2228
-0.490936 -17.3522
-1.80774 -18.2984
-0.103494 -0.0864002
-1.89194 -17.3584
-1.38907 -19.1753
-1.0351 -19.403
-0.394362 -6.08149
-0.673292 -12.0907
-0.970456 -5.562
-1.82483 -11.6372
-1.39199 -11.1156
-0.0555026 -1.04409
-0.202791 -4.65901
-0.406982 -10.2006
-0.659619 -17.0504
-0.647924 -17.4011
-0.675102 -19.0947
-0.385142 -10.4975
-0.183939 -4.87829
-0.0562643 -1.1649
-1.60947 -10.5945
-1.33132 -10.8235
-0.794644 -13.8235
-2.07763 -19.4744
-1.628 -12.1811
-1.05668 -10.0466
-2.56128 -25.3615
-0.00878746 -0.000922555
-0.642065 -1.96496
-0.222222 -2.00198
-1.14359 -25.2669
-0.0511583 -0.0219218
-2.48624 -18.0963
-2.00266 -10.9312
-1.40352 -5.1637
-0.780426 -1.52286
-0.640914 -1.63685
-0.615152 -1.446
-0.612951 -1.72764
-0.54094 -1.97989
-1.14766 -5.29732
-1.65423 -10.9622
-1.42282 -12.2527
-2.06669 -18.172
-1.4549 -10.7068
-1.996 -18.3747
-0.105862 -1.88671
-0.312502 -6.15905
-0.561417 -12.1881
-0.585026 -11.9983
-0.414931 -12.0893
-0.493543 -11.9576
-0.410886 -11.9712
-0.330635 -6.01781
-0.201221 -6.09564
-0.263701 -5.99296
-0.198729 -6.00312
-0.127557 -1.83584
-0.0554573 -1.86592
-0.0940636 -1.80449
-0.0545751 -1.81017
-0.00909661 -0.00434995
-0.00313616 -0.00138242
-0.00314361 0.000957323
-0.00122693 0.00106188
-1.29525 -25.4243
-1.22838 -25.6215
-0.962737 -25.373
-0.972866 -25.631
-2.71674 -25.1769
-2.91943 -25.2903
-2.67052 -25.5599
-2.92973 -25.5505
-0.0307614 -0.0111505
-0.0140528 -0.0046398
-0.0475876 -0.0226532
-0.0174081 -0.00809675
-0.98079 -13.7352
-0.38083 -3.41743
-0.40841 -3.17122
-0.237357 -3.06783
-0.389502 -2.95346
-1.10656 -13.5394
-1.64548 -20.4287
-0.879343 -13.3286
-1.31243 -9.36219
-1.13792 -9.41404
-1.16174 -9.23942
-1.23102 -9.01359
-0.0786172 -0.0436083
-1.73688 -21.2509
-1.57003 -20.7089
-0.327518 -2.70979
-0.379622 -3.7113
-0.656604 -8.80789
-1.103 -9.63738
-1.25315 -9.70972
-1.41867 -9.84387
-1.06528 -9.81041
-1.27531 -10.0266
-0.307048 -0.879783
-0.741834 -4.40156
-0.191482 -2.78946
-0.198763 -2.95722
-0.211585 -3.17532
-0.217813 -3.32054
-0.210941 -3.45897
-0.21703 -3.60966
-0.386565 -7.58106
-0.427206 -8.70889
-0.580617 -13.438
-0.590635 -13.6876
-0.566037 -13.9383
-0.578174 -14.2458
-0.771897 -14.2847
-0.578297 -14.4565
-0.588316 -14.7112
-0.719796 -15.3391
-0.709225 -15.0816
-0.775014 -14.8437
-0.959351 -14.6277
-0.968817 -14.3964
-0.967132 -14.1861
-0.958116 -13.986
-0.418639 -8.4937
-0.408693 -8.27125
-0.400258 -8.06013
-0.39671 -7.83293
-0.982658 -15.4977
-1.08267 -14.9977
-1.1557 -14.5286
-1.15453 -14.0973
-0.64546 -8.36781
-0.627352 -7.91871
-0.603342 -7.48414
-0.208339 -0.549416
-1.88766 -24.5695
-1.57688 -16.0702
-1.29058 -15.4024
-1.29411 -15.124
-1.35779 -14.8863
-1.36777 -14.6404
-1.37555 -14.4092
-1.36424 -14.1711
-1.35367 -13.9711
-1.27049 -13.7012
-0.891628 -8.71514
-0.878208 -8.46819
-0.863831 -8.24624
-0.854237 -8.02084
-0.845869 -7.79434
-0.838441 -7.55939
-1.02297 -7.06423
-0.538539 -3.65031
-0.534391 -3.50247
-0.535778 -3.36372
-0.533149 -3.2332
-0.554537 -3.12547
-0.541311 -3.0031
-0.497917 -2.89328
-0.474301 -2.7683
-0.301804 -0.798763
-0.291919 -0.723373
-0.280006 -0.654036
-0.267665 -0.589482
-0.255117 -0.528614
-1.89381 -23.9651
-1.88978 -24.2435
-1.88221 -23.4277
-1.88382 -23.6943
-1.88424 -22.9119
-1.87545 -23.1748
-1.88915 -22.6929
-0.0651082 -0.0420121
-0.0783394 -0.061669
-0.221848 -0.376487
-0.231486 -0.419278
-0.242265 -0.473271
-0.919933 -6.72585
-0.98203 -6.90708
-1.6499 -20.1943
-1.41215 -13.2204
-1.16644 -13.2949
-2.1291 -24.4492
-2.12102 -23.8525
-2.10403 -23.3289
-2.10194 -22.857
-1.9604 -22.4161
-1.78895 -20.6539
-1.86961 -20.1037
-1.76857 -16.2942
-1.68012 -15.8017
-1.56767 -15.2904
-1.579 -14.7662
-1.57572 -14.2824
-1.47898 -13.7747
-1.11268 -8.59224
-1.08494 -8.12053
-1.06308 -7.66066
-1.12231 -7.2641
-1.14783 -6.9449
-1.05678 -6.59555
-0.860314 -4.52099
-0.801128 -4.23638
-0.697626 -3.59565
-0.685432 -3.31729
-0.664756 -3.06447
-0.622891 -2.81741
-0.379348 -0.938434
-0.358992 -0.771963
-0.330755 -0.631798
-0.29998 -0.511572
-0.272699 -0.413022
-0.221288 -0.327327
-1.61517 -24.6357
-1.65288 -24.0853
-1.65546 -23.5402
-1.66288 -23.0106
-1.78733 -21.8808
-1.74317 -22.4708
-1.43179 -20.2491
-0.0528179 -0.0413494
-0.0849371 -0.0861816
-0.127855 -0.14967
-0.165013 -0.235479
-0.184682 -0.332812
-0.190568 -0.435067
-0.227184 -0.679203
-0.238696 -0.829099
-0.517477 -2.3416
-0.569418 -2.56827
-0.450258 -2.63521
-0.544314 -3.80571
-0.715647 -3.91956
-0.66738 -4.26065
-0.795669 -6.84419
-0.953899 -7.22595
-0.818161 -7.35187
-0.892507 -8.93289
-1.0591 -9.06469
-0.952363 -9.51379
-1.25632 -15.6647
-1.46222 -15.8369
-0.618924 -2.26371
-0.385696 -2.2703
-1.2987 -16.3784
-1.54866 -16.3297
-1.6556 -19.9245
-1.18443 -13.0107
-0.642963 -13.1936
-1.854 -24.8416
-0.052316 -0.0258757
-2.00459 -25.0466
-2.24523 -25.0552
-2.40017 -24.8708
-2.36335 -24.603
-2.3653 -24.2771
-2.35237 -23.9999
-2.34216 -23.7292
-2.33078 -23.4642
-2.32377 -23.2113
-2.31024 -22.9608
-2.31491 -22.7419
-2.26727 -22.4831
-2.12075 -22.2611
-2.07357 -22.0068
-2.04609 -21.6937
-2.04772 -21.4226
-2.02383 -21.106
-2.02623 -20.8268
-2.1013 -20.5465
-2.10719 -20.2758
-2.11232 -20.0059
-2.10017 -19.7379
-1.97499 -16.6636
-1.9593 -16.3944
-1.98584 -16.1347
-1.9679 -15.8753
-1.85158 -15.6426
-1.81463 -15.4075
-1.81571 -15.1293
-1.80487 -14.8819
-1.81294 -14.6362
-1.79986 -14.394
-1.78663 -14.1561
-1.75917 -13.9101
-1.67366 -13.6405
-1.65222 -13.3886
-1.66752 -13.1041
-1.65989 -12.8598
-1.66671 -12.6221
-1.65044 -12.3897
-1.479 -9.9873
-1.45409 -9.67085
-1.47203 -9.44151
-1.4936 -9.26701
-1.47607 -9.06056
-1.37135 -8.88681
-1.33862 -8.6855
-1.32043 -8.43924
-1.30456 -8.22588
-1.29044 -8.00103
-1.27728 -7.79303
-1.26495 -7.55847
-1.2645 -7.37086
-1.33195 -7.20841
-1.31974 -7.02476
-1.27618 -6.868
-1.25086 -6.68662
-1.20019 -6.49456
-1.18924 -6.31197
-1.21271 -6.12242
-0.993102 -4.59018
-1.00888 -4.44542
-0.982415 -4.29152
-0.904402 -4.1517
-0.882288 -4.00279
-0.867978 -3.8268
-0.855531 -3.67712
-0.845756 -3.52931
-0.833566 -3.39102
-0.825904 -3.26048
-0.810261 -3.1287
-0.792534 -3.00654
-0.771278 -2.87823
-0.742249 -2.7537
-0.715639 -2.62588
-0.685645 -2.5017
-0.646171 -2.36574
-0.647689 -2.18309
-0.655966 -2.06457
-0.459849 -0.986428
-0.448728 -0.895246
-0.431949 -0.816972
-0.415773 -0.741366
-0.397224 -0.673068
-0.379121 -0.608241
-0.359777 -0.547735
-0.34155 -0.492039
-0.32198 -0.438765
-0.307918 -0.395623
-0.280505 -0.346053
-0.240143 -0.303807
-0.215867 -0.260903
-0.191987 -0.212864
-0.174394 -0.175455
-0.152404 -0.137909
-0.135495 -0.107916
-0.12345 -0.0821899
-0.104962 -0.0607847
-0.086341 -0.0430021
-0.0662419 -0.0290363
-0.0347463 -0.0138097
-0.0261053 -0.0109639
-1.38894 -24.7281
-1.37301 -24.9868
-1.42457 -24.1924
-1.42251 -24.4561
-1.42561 -23.6458
-1.42871 -23.914
-1.42215 -23.1142
-1.42421 -23.3791
-1.4409 -22.584
-1.43123 -22.8512
-1.46857 -21.439
-1.48765 -21.7173
-1.51431 -22.0306
-1.51238 -22.3072
-1.39931 -20.867
-1.44568 -21.1222
-1.22506 -20.3722
-1.25657 -20.6415
-1.23011 -20.1378
-0.0266322 -0.0173655
-0.0364868 -0.031946
-0.0437989 -0.0504908
-0.0548299 -0.0732803
-0.0754691 -0.0996791
-0.0886122 -0.129149
-0.101952 -0.166877
-0.114348 -0.205831
-0.129605 -0.254142
-0.138562 -0.300245
-0.133938 -0.348595
-0.139512 -0.399623
-0.144807 -0.453055
-0.152341 -0.510965
-0.159339 -0.571433
-0.166771 -0.635084
-0.173054 -0.704055
-0.177549 -0.778372
-0.408069 -2.37257
-0.426078 -2.51069
-0.173614 -2.65587
-0.217152 -3.76474
-0.552057 -3.98185
-0.540339 -4.14522
-0.605532 -6.76707
-0.664245 -6.94862
-0.721974 -7.1513
-0.371067 -7.37314
-0.424068 -8.92694
-0.820786 -9.15859
-0.780912 -9.39931
-0.683402 -15.6015
-1.15194 -15.9329
-1.12195 -16.1975
-0.643406 -1.38506
-0.755998 -1.42515
-0.797534 -1.74792
-0.704632 -1.79222
-1.20867 -5.19833
-1.42537 -5.33352
-1.207 -5.95212
-1.80973 -10.8488
-1.4366 -12.6986
-1.2122 -12.7304
-1.82954 -16.838
-2.06513 -16.9477
-0.523375 -2.15924
-0.424181 -2.16755
-0.873078 -6.53324
-1.48957 -16.6032
-1.61924 -16.789
-0.176898 -0.859107
-0.477817 -4.30973
-0.743156 -9.62298
-1.06154 -16.4707
-2.50117 -18.3513
-0.31064 -0.970559
-0.722043 -4.54572
-2.05351 -19.0082
-2.06277 -19.2349
-1.85274 -19.5704
-1.6493 -19.6547
-1.43056 -19.7451
-1.20669 -19.8424
-0.318402 -2.19789
-0.675856 -6.51375
-0.567025 -6.59827
-0.969341 -12.8042
-0.783878 -12.8963
-1.52494 -25.1444
-1.73181 -25.1128
-0.0466187 -0.0177777
-0.0411609 -0.0152932
-2.12272 -25.3266
-2.51875 -25.1508
-2.63705 -24.6985
-2.58699 -24.1537
-2.56242 -23.6116
-2.53723 -23.0961
-2.47567 -22.5868
-2.38025 -22.0738
-2.33403 -21.5485
-2.33731 -20.9983
-2.3449 -20.4484
-2.33804 -19.9097
-2.31047 -19.4022
-2.24711 -18.921
-2.23642 -17.0266
-2.19358 -16.5033
-2.15799 -15.975
-2.10102 -15.4809
-2.05115 -14.9986
-2.02519 -14.5092
-1.98259 -14.0212
-1.93131 -13.5234
-1.89979 -13.0271
-1.87371 -12.5501
-1.82582 -12.0815
-2.02164 -11.1544
-1.76191 -10.4488
-1.67641 -10.0247
-1.6375 -9.57469
-1.63465 -9.13941
-1.58092 -8.73251
-1.5284 -8.31851
-1.49527 -7.89759
-1.4778 -7.5021
-1.46186 -7.13065
-1.42131 -6.7658
-1.38169 -6.40216
-1.36174 -6.04956
-1.15605 -4.66217
-1.11333 -4.35952
-1.0599 -4.05741
-1.01979 -3.75929
-0.9897 -3.47155
-0.956669 -3.20159
-0.91456 -2.94171
-0.861133 -2.68586
-0.788702 -2.42235
-0.753549 -2.1676
-0.746371 -1.95771
-0.550379 -1.02539
-0.509664 -0.862808
-0.467959 -0.716306
-0.424234 -0.587334
-0.379802 -0.473369
-0.327298 -0.370576
-0.269767 -0.278984
-0.221265 -0.199239
-0.179074 -0.131904
-0.136755 -0.0802606
-0.0928542 -0.0444202
-0.0482325 -0.0191448
-0.0184509 -0.00376617
-0.0150049 -0.00594388
-1.31651 -25.2234
-1.18064 -24.8072
-1.19856 -24.2847
-1.1976 -23.7528
-1.19266 -23.2197
-1.2006 -22.6875
-1.19627 -21.5885
-1.21271 -22.1436
-1.13168 -21.0548
-1.05471 -20.53
-1.00083 -19.9651
-0.020363 -0.0242467
-0.0353378 -0.0619574
-0.0530668 -0.114903
-0.0710197 -0.183578
-0.0847135 -0.268497
-0.0923935 -0.365207
-0.0996251 -0.473593
-0.10909 -0.594729
-0.115821 -0.732149
-0.110235 -0.894713
-0.226391 -2.19076
-0.291805 -2.4381
-0.168087 -2.52443
-0.223174 -3.92097
-0.368356 -4.02975
-0.339938 -4.37244
-0.436456 -6.70178
-0.529117 -7.07332
-0.362999 -7.17103
-0.432597 -9.14597
-0.614446 -9.26636
-0.572809 -9.78026
-0.693779 -15.8611
-0.916594 -16.0246
-0.859923 -16.5832
-0.650715 -1.51363
-0.719097 -1.53903
-0.711051 -1.66247
-0.608188 -1.67206
-1.17989 -5.40521
-1.308 -5.44751
-1.34368 -5.72739
-1.22711 -5.80864
-1.68095 -11.1212
-1.84107 -11.2371
-1.29075 -12.3422
-1.22109 -12.4932
-1.70753 -17.0735
-0.583125 -1.20404
-1.15291 -4.94401
-1.03403 -6.21357
-1.77292 -17.2352
-2.09054 -17.2022
-2.26934 -17.5242
-2.2658 -18.008
-0.477019 -1.07106
-0.512067 -1.1552
-0.481625 -2.0189
-0.455056 -2.08781
-1.00483 -4.73908
-1.04263 -4.87519
-0.903669 -6.28452
-0.812098 -6.38441
-1.5335 -10.2086
-1.58137 -10.3908
-1.36702 -16.8379
-0.171523 -0.947742
-0.233248 -0.989765
-0.465771 -4.48949
-0.564821 -4.56418
-0.744651 -9.89574
-0.905624 -9.97382
-1.11495 -10.1909
-1.03602 -16.7648
-1.18549 -16.8845
-2.22723 -18.4639
-0.305952 -1.05061
-0.682206 -4.68476
-2.00566 -18.7665
-1.82149 -19.0805
-1.62736 -19.3914
-1.20123 -19.5728
-0.885129 -19.4384
-0.267536 -2.08904
-0.4787 -6.31229
-0.509006 -6.44908
-0.797571 -12.4256
-0.814051 -12.6164
-1.67516 -25.3494
-0.0271307 -0.00749223
-1.78356 -25.5406
-1.9741 -25.5337
-2.21476 -25.5427
-2.47256 -25.5334
-2.8765 -25.0797
-2.86596 -24.8208
-2.82873 -24.5531
-2.81785 -24.292
-2.80466 -24.015
-2.79301 -23.7437
-2.78137 -23.4787
-2.76982 -23.2181
-2.75598 -22.9677
-2.74408 -22.7075
-2.69596 -22.4488
-2.68375 -22.1891
-2.63583 -21.9349
-2.62332 -21.6758
-2.62424 -21.4049
-2.61139 -21.1465
-2.61302 -20.8674
-2.59984 -20.6098
-2.60511 -20.3391
-2.59166 -20.0825
-2.57894 -19.8145
-2.56529 -19.5586
-2.54992 -19.319
-2.53608 -19.0636
-2.48747 -18.8219
-2.47329 -18.5665
-2.49606 -17.8563
-2.48023 -17.6028
-2.47279 -17.3598
-2.45645 -17.1088
-2.42943 -16.8549
-2.41303 -16.6066
-2.39518 -16.3377
-2.3788 -16.0918
-2.35904 -15.8327
-2.3426 -15.5888
-2.30357 -15.354
-2.28709 -15.112
-2.2742 -14.8648
-2.25751 -14.6249
-2.24246 -14.383
-2.22554 -14.1451
-2.19595 -13.8994
-2.17888 -13.6638
-2.15486 -13.4119
-2.13761 -13.1788
-2.12771 -12.9342
-2.11027 -12.7035
-2.09196 -12.4708
-2.0744 -12.2423
-2.04274 -12.0061
-2.02511 -11.7795
-2.05363 -11.5711
-2.03539 -11.346
-1.98312 -10.735
-1.96345 -10.515
-1.93279 -10.3121
-1.91296 -10.0963
-1.85512 -9.87599
-1.8357 -9.66429
-1.85005 -9.43536
-1.83042 -9.22749
-1.80994 -9.02156
-1.7903 -8.81711
-1.75389 -8.61656
-1.73432 -8.41548
-1.71451 -8.20265
-1.69479 -8.00518
-1.67772 -7.79746
-1.6578 -7.60369
-1.65383 -7.41601
-1.6336 -7.22591
-1.61852 -7.04234
-1.59809 -6.856
-1.56953 -6.67496
-1.54907 -6.49243
-1.5346 -6.31016
-1.51401 -6.13141
-1.50549 -5.96119
-1.48469 -5.78566
-1.47255 -5.63384
-1.45131 -5.46098
-1.32782 -5.04352
-1.34361 -4.91068
-1.32133 -4.74747
-1.30499 -4.59854
-1.28263 -4.44102
-1.25154 -4.28728
-1.22948 -4.13515
-1.20178 -3.98677
-1.17991 -3.8396
-1.16194 -3.69017
-1.13996 -3.54792
-1.12267 -3.40975
-1.10051 -3.27234
-1.07994 -3.14075
-1.0576 -3.00823
-1.03123 -2.88023
-1.00881 -2.75273
-0.976517 -2.62524
-0.954097 -2.50296
-0.90782 -2.36722
-0.885662 -2.25055
-0.889019 -2.1312
-0.866064 -2.0201
-0.85106 -1.92875
-0.827912 -1.82242
-0.83117 -1.69236
-0.807058 -1.59111
-0.703632 -1.33995
-0.679241 -1.24743
-0.664278 -1.15367
-0.63899 -1.06867
-0.614928 -0.984592
-0.589566 -0.907054
-0.56617 -0.828876
-0.540753 -0.75825
-0.516257 -0.689856
-0.490768 -0.625616
-0.46582 -0.564965
-0.44018 -0.50696
-0.415206 -0.45363
-0.38936 -0.401848
-0.356511 -0.352473
-0.330904 -0.307067
-0.299593 -0.264767
-0.274233 -0.225777
-0.24891 -0.188757
-0.223155 -0.156509
-0.198403 -0.126477
-0.172038 -0.101029
-0.147639 -0.0791379
-0.120517 -0.0601077
-0.0959808 -0.0453947
-0.0682141 -0.0314324
-0.0128907 -0.00184819
-0.01093 -0.000924753
-0.00790534 4.99246e-05
-0.00556608 0.000625195
-0.97361 -24.9134
-0.98378 -25.1721
-0.978944 -24.3907
-0.989389 -24.6547
-0.97051 -23.8632
-0.981007 -24.127
-0.957042 -23.3314
-0.967573 -23.595
-0.944702 -22.8031
-0.955265 -23.0665
-0.944187 -22.2729
-0.954774 -22.5359
-0.936137 -21.7339
-0.946743 -21.9963
-0.90727 -21.1938
-0.917869 -21.4555
-0.851276 -20.6776
-0.861818 -20.9385
-0.810217 -20.1498
-0.820649 -20.4081
-0.779107 -19.6332
-0.788056 -19.8543
-0.00582869 -0.00678983
-0.00835866 -0.0173328
-0.0121692 -0.0320097
-0.0151901 -0.0507665
-0.0203553 -0.0737811
-0.0237706 -0.0999377
-0.0295953 -0.129791
-0.0333106 -0.162925
-0.0380128 -0.201969
-0.0418064 -0.242161
-0.0432096 -0.287886
-0.0468137 -0.334953
-0.0464231 -0.38553
-0.0497798 -0.439253
-0.0516557 -0.49669
-0.054934 -0.557021
-0.0570497 -0.620263
-0.0602347 -0.687108
-0.0595718 -0.761052
-0.0624094 -0.833993
-0.052814 -0.922144
-0.0544545 -0.990277
-0.103794 -2.15291
-0.151545 -2.26267
-0.156619 -2.38588
-0.206379 -4.08391
-0.211846 -4.24301
-0.196239 -4.42222
-0.200092 -4.55664
-0.266659 -6.60493
-0.302088 -6.77367
-0.309322 -6.96826
-0.389622 -9.38706
-0.397578 -9.60643
-0.396332 -9.8794
-0.402495 -10.0621
-0.478832 -12.7626
-0.488068 -13.0046
-0.662365 -16.1257
-0.672345 -16.3832
-0.64595 -16.6771
-0.653806 -16.8896
-0.674874 -1.58187
-1.20347 -5.53342
-1.21735 -5.65651
-1.69311 -11.313
-1.68369 -11.467
-1.06849 -12.3738
-0.909635 -12.3278
-1.56119 -17.1856
-0.521337 -1.24993
-0.574205 -1.59151
-0.500048 -1.56907
-1.02385 -5.00799
-1.08814 -5.6144
-1.08012 -5.88093
-0.929942 -6.09496
-1.52362 -11.3511
-1.39353 -11.3993
-1.65385 -11.6753
-0.979796 -12.1772
-2.06389 -17.4381
-2.06999 -17.6817
-2.0775 -17.9314
-0.351628 -1.10189
-0.417343 -1.11413
-0.385729 -2.02691
-0.310224 -2.00885
-0.761038 -4.77789
-0.877426 -4.8017
-0.709403 -6.26491
-0.56021 -6.23435
-1.20828 -10.3315
-1.38149 -10.3528
-1.31415 -17.0708
-1.42056 -17.1956
-1.48516 -17.3575
-0.103373 -1.06099
-0.161109 -1.02724
-0.305799 -4.68947
-0.422697 -4.62802
-0.547856 -10.2395
-0.732691 -10.1326
-0.986681 -10.3515
-0.817599 -17.0993
-0.982207 -16.9975
-0.194614 -1.92717
-0.423526 -6.18209
-0.710591 -12.229
-0.456739 -1.25601
-0.528863 -1.30684
-0.566786 -1.36002
-0.499962 -1.36695
-0.571581 -1.48854
-0.53246 -1.53402
-0.487009 -1.62483
-0.545517 -1.68175
-0.640067 -1.8017
-0.63114 -1.87435
-0.539649 -1.80904
-0.471412 -1.91994
-0.914985 -5.02888
-1.02574 -5.09871
-1.07436 -5.17572
-0.964212 -5.19731
-1.04387 -5.38297
-0.965467 -5.45218
-0.982476 -5.68525
-1.01272 -5.78402
-0.991035 -5.92735
-0.949998 -5.99009
-0.883245 -5.89281
-0.821552 -6.06014
-1.63674 -10.7654
-1.50744 -11.0376
-1.4039 -11.2451
-1.37616 -11.5193
-1.46213 -11.6241
-1.60246 -11.7943
-1.59849 -11.9451
-1.40594 -11.8937
-1.26993 -12.1338
-1.08735 -12.0945
-1.5643 -17.485
-1.74523 -17.4712
-1.87169 -17.8447
-1.96743 -18.5903
-0.267834 -1.12137
-0.382051 -1.18713
-0.409413 -1.23918
-0.446378 -1.56751
-0.387386 -1.89402
-0.338383 -1.94057
-0.599181 -4.79599
-0.795789 -4.91435
-0.834531 -5.00404
-0.860569 -5.5231
-0.733638 -6.06246
-0.651936 -6.13477
-1.2541 -10.5146
-1.30555 -10.6518
-1.25651 -11.4135
-1.2375 -17.2422
-1.42279 -17.4949
-1.77449 -18.6778
-0.164499 -1.10403
-0.213777 -1.13043
-0.214856 -1.87588
-0.403751 -4.76472
-0.493556 -4.81226
-0.440286 -6.04054
-0.708793 -10.318
-0.836374 -10.3765
-0.928296 -10.5178
-0.733184 -12.0388
-0.96631 -17.2193
-1.1019 -17.2856
-1.63574 -18.7217
-1.58267 -18.8646
-1.59146 -19.0909
-1.25768 -19.306
-0.145025 -1.88037
-0.150155 -2.00637
-0.100808 -2.05639
-0.370322 -6.39628
-0.261239 -6.44865
-0.613764 -12.517
-0.471344 -12.5654
-0.414819 -1.29635
-0.43762 -1.34832
-0.474395 -1.40252
-0.499193 -1.46606
-0.490379 -1.67978
-0.482924 -1.73475
-0.472179 -1.80638
-0.444999 -1.85588
-0.835101 -5.09502
-0.864237 -5.17745
-0.912224 -5.25521
-0.934846 -5.3437
-0.894379 -5.73153
-0.842355 -5.819
-0.801385 -5.88141
-0.754712 -5.95772
-1.36645 -10.9561
-1.32446 -11.6382
-1.2908 -11.7524
-1.28594 -11.9029
-1.21853 -12.0053
-1.68344 -17.6092
-1.72633 -17.7601
-1.73295 -18.0107
-1.74419 -18.1411
-0.258074 -1.1831
-0.290574 -1.21975
-0.3398 -1.22599
-0.316429 -1.27289
-0.406282 -1.52538
-0.392676 -1.58103
-0.314583 -1.87619
-0.257243 -1.85387
-0.305676 -1.80787
-0.570993 -4.9061
-0.627457 -4.97138
-0.715743 -4.97947
-0.665055 -5.06182
-0.780408 -5.46133
-0.784467 -5.57136
-0.58664 -6.03204
-0.499264 -6.01228
-0.580523 -5.94018
-1.00101 -10.6108
-1.13034 -10.63
-1.05142 -10.7488
-1.16625 -11.3216
-1.14858 -11.4417
-0.929623 -12.0488
-0.812019 -12.0112
-0.918993 -11.9286
-1.20784 -17.4108
-1.29081 -17.5052
-1.36971 -17.6333
-1.59789 -18.5455
-0.151311 -1.16449
-0.208612 -1.80757
-0.373227 -4.87383
-0.435737 -5.94872
-0.648672 -10.4835
-0.84838 -10.6356
-0.723591 -11.9188
-0.93586 -17.3873
-1.40646 -18.7326
-1.22266 -19.0061
-0.942284 -19.1722
-1.40144 -25.5783
-1.57654 -25.572
-0.0152464 -0.00405467
-0.0134755 -0.00270877
-0.680375 -19.232
-0.686976 -19.4017
-0.0559932 -1.12085
-0.0729141 -1.91067
-0.0744786 -1.98101
-0.182263 -4.79554
-0.229421 -6.19607
-0.233056 -6.31209
-0.381869 -10.3858
-0.45123 -12.2273
-0.456677 -12.3749
-0.643433 -17.2717
-0.339094 -1.31431
-0.388881 -1.33121
-0.435361 -1.44786
-0.398667 -1.47606
-0.387488 -1.62834
-0.425112 -1.67754
-0.390278 -1.78095
-0.335602 -1.77223
-0.700315 -5.13235
-0.782845 -5.15243
-0.833962 -5.32422
-0.773127 -5.3794
-0.767148 -5.65129
-0.813079 -5.72037
-0.714589 -5.88374
-0.632368 -5.88323
-1.09484 -10.8501
-1.21614 -10.9008
-1.26252 -11.1637
-1.16465 -11.2173
-1.12845 -11.544
-1.20519 -11.6476
-1.10417 -11.8639
-0.98312 -11.8493
-1.42446 -17.7405
-1.54465 -17.7741
-1.59854 -18.0564
-1.67311 -18.3444
-1.59145 -18.4146
-0.361066 -1.36726
-0.375058 -1.41178
-0.379436 -1.68255
-0.362651 -1.72364
-0.728878 -5.21553
-0.75116 -5.29026
-0.715326 -5.73853
-0.678877 -5.80722
-1.12927 -10.9834
-1.15327 -11.0873
-1.09472 -11.6581
-1.05028 -11.7471
-1.46698 -17.8922
-1.49792 -18.0062
-1.50897 -18.137
-1.52798 -18.2573
-0.232766 -1.22871
-0.2874 -1.3081
-0.323714 -1.39513
-0.345287 -1.48963
-0.347995 -1.58629
-0.326444 -1.67418
-0.280259 -1.75028
-0.518946 -4.98748
-0.610185 -5.1243
-0.667461 -5.27045
-0.697038 -5.42769
-0.687229 -5.58968
-0.633941 -5.73813
-0.546166 -5.86357
-0.963957 -10.8308
-1.03105 -11.0368
-1.05667 -11.2454
-1.03841 -11.4523
-0.974244 -11.6436
-0.866139 -11.8119
-1.15409 -17.5486
-1.29155 -17.7509
-1.37707 -17.9727
-1.42711 -18.2073
-1.45283 -18.4587
-0.0879764 -1.17024
-0.115159 -1.18348
-0.163662 -1.21164
-0.190317 -1.23346
-0.221635 -1.27158
-0.24525 -1.301
-0.267111 -1.34338
-0.285118 -1.37822
-0.299006 -1.42322
-0.30935 -1.4606
-0.317513 -1.51015
-0.318286 -1.55166
-0.313737 -1.59894
-0.30406 -1.63301
-0.287663 -1.67376
-0.268268 -1.70323
-0.238636 -1.73834
-0.210271 -1.76156
-0.168436 -1.78315
-0.132941 -1.79834
-0.248026 -4.88713
-0.301959 -4.91096
-0.39089 -4.95988
-0.439992 -4.9983
-0.4954 -5.06473
-0.535868 -5.11562
-0.570448 -5.18696
-0.598784 -5.24683
-0.621019 -5.32201
-0.634672 -5.38648
-0.642364 -5.46863
-0.63851 -5.54088
-0.621796 -5.62086
-0.601126 -5.68054
-0.565211 -5.74925
-0.529226 -5.80079
-0.477615 -5.85765
-0.428308 -5.89789
-0.369594 -5.92606
-0.310287 -5.95221
-0.472603 -10.5084
-0.545911 -10.5394
-0.672679 -10.5991
-0.738008 -10.649
-0.809714 -10.743
-0.862299 -10.8089
-0.904961 -10.9109
-0.940739 -10.9884
-0.964589 -11.0926
-0.980687 -11.1763
-0.982632 -11.2808
-0.97554 -11.375
-0.955939 -11.4774
-0.927408 -11.5555
-0.883468 -11.6446
-0.835739 -11.712
-0.771957 -11.7913
-0.707998 -11.8438
-0.629642 -11.8716
-0.553749 -11.9059
-0.749752 -17.413
-0.83489 -17.4482
-0.969909 -17.5154
-1.0448 -17.5721
-1.12724 -17.6673
-1.18668 -17.7419
-1.24098 -17.8498
-1.2807 -17.9375
-1.31151 -18.0518
-1.32857 -18.1467
-1.34792 -18.2671
-1.34095 -18.3628
-1.34785 -18.4939
-1.31716 -18.5839
-1.26465 -18.7269
-1.21231 -18.8053
-1.08197 -18.9363
-1.01142 -18.9983
-0.862484 -19.034
-0.778423 -19.0755
-0.792886 -19.2076
-1.09172 -19.1368
-1.35353 -18.8753
-1.45935 -18.5896
-1.44624 -18.3276
-1.40805 -18.0868
-1.34633 -17.8586
-1.23721 -17.6436
-1.0717 -17.4542
-0.801245 -17.321
-0.644947 -11.9465
-0.80199 -11.8912
-0.92989 -11.7327
-1.01839 -11.5546
-1.05836 -11.3498
-1.05505 -11.1409
-1.00732 -10.9328
-0.921183 -10.7295
-0.776706 -10.5428
-0.52265 -10.425
-0.376744 -5.97699
-0.494087 -5.92064
-0.597487 -5.80686
-0.669968 -5.66955
-0.704372 -5.50968
-0.689798 -5.34555
-0.645486 -5.19556
-0.575629 -5.05376
-0.463731 -4.92235
-0.285298 -4.82642
-0.166056 -1.82959
-0.249923 -1.78599
-0.309426 -1.71523
-0.342774 -1.63351
-0.352904 -1.539
-0.337755 -1.44008
-0.310145 -1.35044
-0.265632 -1.26668
-0.201749 -1.1922
-0.104294 -1.13829
-1.60964 -18.1871
-1.58742 -17.9258
-1.17137 -11.7617
-1.25094 -11.034
-0.761 -5.80776
-0.81181 -5.2355
-0.417027 -1.73238
-0.411441 -1.38407
-1.73653 -18.5015
-1.50208 -17.623
-1.03671 -11.9662
-1.23886 -11.5335
-1.27405 -11.2934
-1.18151 -10.7682
-0.667714 -5.96012
-0.864862 -5.6331
-0.856179 -5.41318
-0.754159 -5.07004
-0.362635 -1.83036
-0.432826 -1.62324
-0.459516 -1.51195
-0.366745 -1.27932
-0.598398 -12.3267
-0.341414 -6.26008
-0.123597 -1.93173
-0.0298555 -0.00947991
-1.46834 -25.381
-1.34405 -17.3675
-0.822133 -12.1316
-1.07984 -10.4931
-0.504558 -6.10463
-0.678092 -4.89024
-0.264885 -1.92307
-0.313955 -1.17451
-1.87856 -18.0954
-1.86462 -17.5952
-1.40133 -12.0447
-1.41045 -11.7431
-1.48138 -10.8787
-0.842103 -5.95546
-0.924134 -5.83037
-1.01266 -5.27497
-0.916102 -5.12
-0.52911 -1.88199
-0.549444 -1.73738
-0.537611 -1.42111
-0.462988 -1.31342
-0.6293 -12.7083
-0.399825 -6.53368
-0.177723 -2.08239
-1.42451 -19.4757
-1.83047 -19.3071
-1.81246 -18.854
-1.13184 -17.1175
-0.895059 -10.2114
-0.522429 -4.70348
-0.224572 -1.07054
-1.42856 -10.5362
-0.800561 -6.16558
-0.913788 -4.93879
-0.412728 -1.95867
-0.450339 -1.20023
-2.1989 -18.6792
-1.62628 -17.3476
-1.13827 -12.2232
-1.7953 -11.8459
-1.51355 -11.5053
-1.53346 -11.1971
-1.79121 -10.6531
-1.05867 -6.02497
-1.10101 -5.73789
-1.07526 -5.49143
-1.13501 -5.07768
-0.733362 -1.86741
-0.541478 -1.62668
-0.606263 -1.5567
-0.594281 -1.30067
-0.833584 -16.8777
-0.572372 -10.0546
-0.32531 -4.55347
-0.101511 -0.985336
-1.49659 -17.0243
-1.3351 -10.1711
-0.616982 -6.36519
-0.841948 -4.667
-0.357504 -2.09636
-0.385997 -1.03205
-2.27593 -17.7682
-2.26255 -17.2816
-0.998116 -12.5251
-1.85384 -11.4291
-1.33267 -5.57585
-0.744518 -1.60756
-0.885694 -16.2897
-0.572584 -9.50838
-0.473786 -6.87154
-0.353383 -4.19437
-0.277242 -2.30172
-0.117335 -0.808107
-0.113748 -0.659777
-0.104242 -0.532907
-0.0947966 -0.417615
-0.0894323 -0.316157
-0.0795409 -0.224528
-0.0626083 -0.146465
-0.0440765 -0.0868347
-0.0272985 -0.0408726
-0.0141128 -0.0115446
-0.978017 -19.6701
-1.02362 -20.2608
-1.08584 -20.7997
-1.17759 -21.3103
-1.21492 -21.8671
-1.21043 -22.4204
-1.19071 -22.9549
-1.19456 -23.4847
-1.20059 -24.0211
-1.19646 -24.5484
-1.16475 -25.0659
-0.0132678 -0.00216633
-0.0241224 -0.00601489
-0.069906 -0.0310205
-0.114719 -0.0602394
-0.157545 -0.103753
-0.199674 -0.163863
-0.242439 -0.238245
-0.29797 -0.322821
-0.357491 -0.421488
-0.402015 -0.528226
-0.446329 -0.649518
-0.489407 -0.786351
-0.529608 -0.943035
-0.571065 -1.11177
-0.759139 -2.04989
-0.746532 -2.28845
-0.831831 -2.5596
-0.890763 -2.81479
-0.93846 -3.07106
-0.974778 -3.33448
-1.00441 -3.61101
-1.03496 -3.91014
-1.08504 -4.20709
-1.142 -4.5146
-1.17006 -4.81236
-1.35448 -5.87996
-1.36874 -6.22071
-1.39444 -6.58557
-1.44828 -6.94788
-1.47527 -7.31523
-1.47997 -7.69077
-1.51042 -8.10644
-1.5463 -8.53257
-1.61578 -8.93409
-1.65351 -9.34641
-1.62084 -9.80518
-1.73274 -10.2465
-1.85641 -12.3181
-1.89093 -12.7833
-1.90847 -13.2722
-1.95411 -13.7759
-2.01108 -14.2677
-2.03919 -14.7518
-2.06298 -15.2464
-2.13917 -15.7163
-2.17676 -16.2349
-2.21039 -16.7731
-2.29531 -19.1628
-2.32556 -19.6419
-2.3504 -20.1779
-2.3392 -20.7193
-2.33522 -21.2777
-2.33266 -21.8197
-2.42777 -22.3281
-2.52347 -22.8457
-2.55083 -23.3466
-2.57385 -23.8767
-2.59995 -24.4308
-2.67402 -24.9664
-2.36356 -25.3353
-1.88223 -25.3178
-2.25524 -18.2486
-1.23851 -16.6521
-0.915569 -9.73818
-0.605609 -4.42663
-0.240197 -0.911829
-1.00835 -6.40441
-0.552477 -2.08008
-1.91911 -17.123
-1.44429 -12.4616
-1.82805 -11.0459
-1.28332 -5.32001
-0.676368 -1.71822
-0.693925 -1.47142
-0.947084 -15.7607
-0.655321 -9.02668
-0.585556 -7.2773
-0.382413 -3.86806
-0.306759 -2.57792
-0.0617705 -0.0280134
-1.5815 -24.9078
-0.939924 -13.0851
-0.73574 -6.66362
-1.43641 -20.015
-1.87492 -19.8341
-1.74087 -16.5547
-0.492862 -2.23996
-1.42857 -12.9368
-1.3581 -16.1057
-0.988162 -9.29131
-0.856628 -7.02657
-0.726483 -4.09763
-0.542613 -2.44521
-0.236 -0.750069
-0.217946 -0.611691
-0.198428 -0.490347
-0.182163 -0.382994
-0.184857 -0.286342
-0.145479 -0.189378
-0.110278 -0.114424
-0.0627842 -0.0614596
-0.0420417 -0.0249222
-1.42702 -20.4837
-1.71343 -20.9345
-1.81435 -22.1942
-1.76022 -21.5678
-1.67174 -22.7477
-1.6539 -23.2737
-1.65691 -23.807
-1.64871 -24.3637
-0.093376 -0.0627837
-0.260681 -0.370867
-0.284338 -0.457421
-0.315406 -0.56865
-0.345782 -0.698154
-0.371596 -0.8494
-0.596781 -2.69396
-0.649474 -2.94327
-0.680081 -3.18779
-0.690454 -3.44904
-0.704458 -3.74491
-0.877821 -4.37724
-1.10584 -6.78878
-1.19028 -7.10235
-1.053 -7.42743
-1.07296 -7.89658
-1.09681 -8.34676
-1.12846 -8.84029
-1.33495 -9.1881
-1.28937 -9.53751
-1.39521 -13.5058
-1.56344 -14.045
-1.58792 -14.521
-1.56981 -15.0126
-1.56526 -15.5694
-1.79581 -16.0349
-1.86408 -20.3738
-2.10668 -22.6381
-2.09708 -23.0761
-2.11085 -23.5818
-2.13104 -24.1233
-2.12692 -24.7753
-0.348864 -2.84454
-0.431267 -3.06417
-0.384648 -3.27996
-0.376569 -3.55739
-0.621325 -7.69314
-0.633304 -8.1467
-0.657656 -8.59108
-1.14476 -13.8976
-1.16428 -14.2978
-1.14691 -14.7604
-1.0178 -15.236
-0.770967 -14.0748
-0.772778 -14.4954
-0.817994 -13.5735
-1.21626 -9.88314
-0.0316341 -0.0134157
-2.75942 -25.3877
-1.1224 -25.4677
-0.00493744 -7.64121e-05
-0.0884488 -1.84215
-0.284136 -6.05878
-0.524863 -12.0502
0.275909 -19.2338
0.186772 -11.9298
0.127129 -13.84
0.103386 -0.0863771
0.896755 -12.8698
0.78764 -4.90821
0.902876 -5.88798
0.804784 -18.2628
0.156047 -10.2387
-0.0697008 -19.3963
0.161012 -6.09612
0.0503681 -12.0873
0.607999 -1.59435
0.406868 -12.2682
0.740081 -1.53841
0.0385464 -1.04524
0.0299557 -4.65765
-0.301008 -17.0695
-0.345103 -17.4082
-0.448229 -19.0957
-0.158039 -10.4794
0.00899804 -4.88001
0.0364283 -1.16588
0.4257 -3.82582
0.941096 -19.5862
1.00546 -10.0041
0.59635 -2.17403
1.05873 -17.4946
0.944511 -25.4941
1.43381 -11.3668
0.00898817 -0.00136165
0.172069 -2.00268
0.152068 -12.3857
-0.462392 -25.2925
0.0513517 -0.0198584
0.805724 -1.90623
0.879512 -17.3936
0.6043 -1.78212
0.457915 -1.94572
0.566978 -1.44911
1.01563 -11.7625
0.764349 -12.0797
0.0613831 -1.88865
0.0750902 -6.16939
-0.0548735 -12.1812
0.00300431 -11.9943
-0.191797 -12.0885
-0.104574 -11.9621
-0.188027 -11.9703
0.100769 -6.02924
-0.0327692 -6.10012
0.034973 -6.00078
-0.0304843 -6.00757
0.084702 -1.83957
0.0116236 -1.86706
0.0521125 -1.80698
0.0124512 -1.81132
0.00934053 -0.0047757
0.00328208 -0.00160938
0.00321461 0.000708248
0.00124743 0.000925869
0.0311868 -0.0100827
0.0143758 -0.00407283
0.0474377 -0.0199118
0.0176042 -0.00690109
1.11414 -25.3217
1.3073 -25.4503
1.03779 -25.7003
1.29685 -25.7107
-0.323613 -25.461
-0.405834 -25.6527
-0.651171 -25.3847
-0.661513 -25.6426
0.289762 -13.2714
0.348076 -13.7715
0.279133 -3.43067
0.317098 -3.18537
0.150431 -3.07545
0.307929 -2.96639
0.42213 -20.5035
0.52136 -13.6291
0.517256 -13.3432
0.797165 -13.4056
0.891404 -9.44775
0.73142 -9.29497
0.824143 -9.07693
0.586741 -3.9524
0.0788809 -0.0430196
0.446478 -21.3321
0.323659 -20.778
0.25998 -2.71961
0.263278 -3.7245
0.263701 -8.83697
0.293151 -0.885864
0.116283 -2.79495
0.117066 -2.963
0.120145 -3.18186
0.120423 -3.32734
0.107749 -3.46548
0.10745 -3.61641
0.0731327 -7.59201
0.0413857 -8.7237
-0.0528757 -13.4345
-0.0600254 -13.6842
-0.175707 -13.9582
-0.185469 -14.2659
-0.00229792 -14.3201
-0.200685 -14.4718
-0.20897 -14.7267
-0.122386 -15.3595
-0.114261 -15.1019
-0.0561023 -14.8627
0.135997 -14.6618
0.189221 -14.4451
0.20291 -14.2393
0.234401 -14.0457
0.0458565 -8.50825
0.0523617 -8.28417
0.056463 -8.0728
0.0686666 -7.84416
0.124003 -15.5369
0.232891 -15.0368
0.342383 -14.5808
0.4256 -14.1704
0.280046 -8.39513
0.294094 -7.94245
0.287427 -7.50105
0.201518 -0.552674
0.711559 -12.9048
0.564083 -13.0493
-0.002226 -13.1399
0.334969 -24.653
0.667052 -16.1321
0.432894 -15.4667
0.456857 -15.1848
0.512857 -14.9454
0.542769 -14.7036
0.594484 -14.4868
0.612716 -14.2585
0.642715 -14.0649
0.630021 -13.8342
0.50191 -8.75745
0.505539 -8.5091
0.5076 -8.28501
0.511445 -8.05856
0.518781 -7.83008
0.523627 -7.59384
0.727789 -7.10918
0.42877 -3.67018
0.428617 -3.52182
0.435885 -3.38288
0.439156 -3.25201
0.465119 -3.14494
0.457756 -3.02193
0.419507 -2.91001
0.403633 -2.78402
0.289745 -0.804385
0.281499 -0.728467
0.271028 -0.658597
0.259972 -0.593535
0.248579 -0.532177
0.388836 -24.0506
0.362842 -24.3279
0.419615 -23.5138
0.400236 -23.7799
0.462289 -22.9996
0.43279 -23.2611
0.484547 -22.7818
0.0654293 -0.0420241
0.0784957 -0.0617581
0.217939 -0.378803
0.226879 -0.42195
0.23673 -0.476379
0.639311 -6.76784
0.692735 -6.95045
0.485667 -12.8336
0.336699 -12.7168
0.169524 -12.8438
0.443728 -20.2671
0.585323 -24.5512
0.624344 -23.9554
0.64865 -23.4319
0.683827 -22.9614
0.578098 -22.5123
0.54708 -20.7399
0.670037 -20.1918
0.827912 -16.3718
0.787834 -15.8898
0.714883 -15.3749
0.766551 -14.8511
0.812776 -14.3809
0.81646 -13.922
0.732325 -8.64616
0.735046 -8.17144
0.738935 -7.70865
0.818831 -7.31478
0.858635 -6.99792
0.775365 -6.64698
0.589705 -3.62162
0.587483 -3.34191
0.578609 -3.08772
0.55036 -2.83868
0.363387 -0.946068
0.347368 -0.77813
0.322104 -0.636658
0.293657 -0.515248
0.268109 -0.41571
0.218116 -0.329209
0.0579133 -24.6985
0.139049 -24.1524
0.184615 -23.609
0.233752 -23.0814
0.447469 -21.9653
0.357041 -22.5504
0.221094 -20.3051
0.0531513 -0.0416783
0.0848901 -0.0865059
0.12711 -0.150212
0.163202 -0.236643
0.181507 -0.334727
0.185782 -0.437614
0.217822 -0.683251
0.226138 -0.833866
0.496514 -2.33822
0.517065 -2.58453
0.388328 -2.6496
0.509137 -6.87813
0.650363 -7.26664
0.505079 -7.38092
0.491776 -8.97527
0.638333 -9.11249
0.382 -15.7277
0.571443 -15.8991
1.0769 -11.5755
0.498641 -4.28982
0.647631 -4.30657
0.509075 -9.56671
0.702648 -9.48371
0.612999 -2.28527
0.361934 -2.25964
0.368852 -16.4229
0.609674 -16.3811
0.81678 -12.6548
0.683583 -12.497
0.483453 -12.5732
0.169307 -12.5835
0.468629 -19.9936
0.279884 -24.9218
0.0527571 -0.0258032
0.413911 -25.1377
0.653352 -25.1644
0.822475 -24.9922
0.806869 -24.7223
0.834521 -24.3972
0.843472 -24.1198
0.85461 -23.849
0.864131 -23.5838
0.877023 -23.3311
0.883223 -23.0803
0.905235 -22.8625
0.878051 -22.6007
0.749984 -22.3694
0.722866 -22.1122
0.719349 -21.7967
0.7422 -21.5265
0.743825 -21.2088
0.768642 -20.9305
0.866815 -20.656
0.894973 -20.3863
0.919367 -20.1127
0.929929 -19.847
1.09314 -17.2614
1.08955 -17.0111
1.01662 -16.7413
1.01353 -16.4884
1.06947 -16.2391
1.06584 -15.9854
0.968581 -15.7527
0.957991 -15.5106
0.979522 -15.2286
0.989915 -14.9807
1.01785 -14.7388
1.02594 -14.4998
1.04236 -14.2715
1.0429 -14.0345
1.02835 -13.804
1.02856 -13.5594
1.02139 -13.2738
1.04426 -13.033
1.14834 -12.7824
1.18521 -12.5856
1.04189 -9.75062
1.05021 -9.53621
1.07644 -9.34722
1.06777 -9.13799
0.972381 -8.95627
0.952141 -8.75247
0.95098 -8.50426
0.948391 -8.28952
0.947713 -8.06308
0.94683 -7.85388
0.946813 -7.61743
0.956793 -7.42954
1.03268 -7.2711
1.03077 -7.08659
0.993072 -6.92795
0.972177 -6.74399
0.923441 -6.55184
0.913849 -6.37015
0.948473 -6.20102
0.930341 -6.01149
0.944798 -5.77326
0.966073 -5.59592
0.865611 -4.5366
0.838376 -4.37677
0.766659 -4.20531
0.751315 -4.0365
0.754021 -3.85424
0.743745 -3.70926
0.738014 -3.56042
0.731966 -3.42112
0.730256 -3.28981
0.720381 -3.15714
0.708542 -3.034
0.693393 -2.90503
0.672104 -2.77914
0.653261 -2.65288
0.635659 -2.5247
0.621795 -2.40353
0.586835 -2.07526
0.44246 -0.995515
0.43407 -0.903352
0.419145 -0.824238
0.404674 -0.747807
0.3876 -0.678724
0.370831 -0.613148
0.352676 -0.551933
0.33549 -0.495584
0.316869 -0.441685
0.303534 -0.398026
0.276936 -0.347915
0.237264 -0.305351
0.213617 -0.262052
0.190382 -0.213559
0.173248 -0.175772
0.151693 -0.137893
0.135095 -0.107577
0.12327 -0.0813512
0.104982 -0.0596865
0.0865131 -0.0416313
0.0665544 -0.0276403
0.0352182 -0.0140343
0.0265164 -0.011417
-0.175034 -24.7737
-0.211418 -25.0305
-0.0971084 -24.2422
-0.12002 -24.5049
-0.0529065 -23.6971
-0.0709778 -23.9648
-0.0146406 -23.1667
-0.0332942 -23.4311
0.0447823 -22.6385
0.0151437 -22.9051
0.163488 -21.4999
0.159657 -21.778
0.162349 -22.0935
0.138548 -22.369
0.139481 -20.9241
0.166078 -21.1821
0.00768529 -20.4143
0.0153002 -20.6876
0.0298356 -20.1779
0.0270286 -0.0178725
0.0368637 -0.0324204
0.0440836 -0.0509648
0.0549507 -0.0737756
0.0753334 -0.100202
0.0881734 -0.129784
0.101092 -0.167696
0.113015 -0.206859
0.127633 -0.255448
0.135944 -0.30181
0.130626 -0.350332
0.135397 -0.401589
0.139803 -0.455252
0.14632 -0.513432
0.152204 -0.574173
0.158412 -0.638113
0.16331 -0.70737
0.166249 -0.781954
0.36488 -2.37753
0.376622 -2.52143
0.107274 -2.66039
0.0988002 -3.77126
0.416223 -4.00784
0.39285 -4.16718
0.325507 -6.79139
0.375633 -6.97397
0.417294 -7.17498
0.0594334 -7.37925
0.0272946 -8.94131
0.396821 -9.19287
0.34912 -9.42955
0.312335 -9.66615
-0.175312 -15.6203
0.260322 -15.9697
0.20876 -16.2315
0.902278 -4.67761
1.22078 -11.5096
1.06186 -11.4152
0.607996 -1.39737
0.718862 -1.43953
0.785843 -1.79959
0.656655 -1.86278
0.751765 -4.61939
0.842294 -16.8905
0.565277 -4.46206
0.634344 -4.58438
0.66886 -9.72059
0.825522 -9.88988
0.483259 -2.12144
0.399052 -2.1503
0.594342 -6.5756
0.528687 -16.6632
0.636177 -16.8506
0.163842 -0.862837
0.308419 -4.32126
0.126625 -16.5133
1.09592 -12.3828
0.867071 -12.4622
0.294105 -0.977233
0.534908 -12.381
0.257315 -12.2914
0.283345 -9.91409
0.244107 -19.7759
0.0393546 -19.8723
0.706054 -19.6576
0.469458 -19.7007
0.969938 -19.0986
0.953878 -19.3354
0.272013 -2.18875
0.412626 -6.54329
0.297455 -6.62159
-0.0723692 -25.1991
0.136504 -25.1831
0.0470986 -0.0170219
0.0416613 -0.0150574
0.509674 -25.4259
0.918696 -25.2806
1.07238 -24.8382
1.06537 -24.2908
1.08354 -23.7482
1.09895 -23.2321
1.07755 -22.7195
1.02264 -22.2006
1.01771 -21.6733
1.06467 -21.1247
1.11701 -20.5767
1.1552 -20.0412
1.17804 -19.5247
1.19681 -19.0296
1.26527 -17.6012
1.26823 -17.1113
1.25968 -16.6082
1.25103 -16.1015
1.23479 -15.6059
1.23246 -15.1158
1.24889 -14.6289
1.25554 -14.1529
1.25421 -13.6714
1.27516 -13.1858
1.33324 -12.748
1.27926 -12.3486
1.21334 -11.908
1.23092 -10.0787
1.22897 -9.64927
1.22549 -9.22574
1.19305 -8.81316
1.16627 -8.39483
1.15869 -7.97083
1.16394 -7.57339
1.16876 -7.20039
1.14285 -6.83174
1.10889 -6.46608
1.07762 -6.09479
1.07847 -5.72788
1.03429 -4.74868
0.98585 -4.43363
0.937666 -4.10536
0.905891 -3.79206
0.88434 -3.50748
0.86326 -3.2352
0.833085 -2.97335
0.793702 -2.71804
0.755546 -2.47053
0.719592 -2.23805
0.659318 -2.02701
0.531765 -1.03575
0.495617 -0.871189
0.457282 -0.722771
0.41626 -0.592069
0.373994 -0.476572
0.323265 -0.372463
0.267157 -0.279845
0.21973 -0.199197
0.1783 -0.130964
0.136468 -0.0785355
0.0928584 -0.0422106
0.0486117 -0.0177453
0.0188206 -0.00412957
0.015315 -0.00645203
-0.286511 -25.2622
-0.389031 -24.8369
-0.32978 -24.3173
-0.288703 -23.7868
-0.251758 -23.2547
-0.20313 -22.7236
-0.120842 -21.6278
-0.149179 -22.1815
-0.142752 -21.0916
-0.176029 -20.5601
-0.173147 -19.9812
0.0207361 -0.0247123
0.0355669 -0.0624293
0.0528459 -0.115482
0.0700415 -0.184381
0.0826394 -0.269591
0.0889013 -0.366582
0.0943498 -0.475263
0.101613 -0.596751
0.105623 -0.734503
0.0965558 -0.897121
0.17894 -2.18885
0.239562 -2.44109
0.106516 -2.52875
0.0979456 -3.92771
0.231783 -4.03865
0.173697 -4.37337
0.164889 -6.71652
0.231205 -7.08706
0.0629304 -7.17695
0.0223602 -9.16057
0.202851 -9.2911
0.123415 -9.77571
-0.183904 -15.88
0.0198493 -16.0596
-0.0735911 -16.6184
0.919099 -4.83308
1.06736 -5.06415
1.09 -5.38731
0.970377 -5.45827
1.25948 -10.4945
1.2777 -10.8782
1.24064 -11.2051
1.07972 -11.2631
0.59168 -1.51554
0.666286 -1.56116
0.68859 -1.71888
0.625615 -1.73093
0.667629 -4.72563
0.702729 -4.81936
1.0123 -10.2193
1.0758 -10.4136
0.707207 -17.1205
0.763096 -17.2749
0.480791 -4.56696
0.446205 -9.98943
0.628621 -9.9737
0.548332 -1.97548
0.559568 -1.21629
0.765616 -6.28589
0.410484 -1.98206
0.393732 -2.0518
0.45691 -1.08096
0.487626 -1.16568
0.639602 -6.32299
0.548056 -6.42344
0.393261 -16.8924
0.156461 -0.951505
0.216995 -0.994806
0.277546 -4.49767
0.367656 -4.58032
0.0857938 -16.8105
0.217505 -16.931
0.962116 -12.2257
0.287412 -1.05744
0.605441 -12.1922
0.976507 -18.8543
0.0134488 -10.2065
0.254739 -10.0998
0.0409103 -19.5798
-0.251163 -19.4425
0.481101 -19.4403
0.73375 -19.1603
0.219731 -2.0806
0.232948 -6.33139
0.253985 -6.46934
0.0612299 -25.4149
0.0276148 -0.00729861
0.154194 -25.6139
0.344895 -25.6215
0.584458 -25.6486
0.842416 -25.6589
1.28117 -25.2368
1.29111 -24.9775
1.27507 -24.7076
1.28476 -24.4462
1.29341 -24.1688
1.30311 -23.8973
1.31233 -23.6321
1.32129 -23.3713
1.32715 -23.1205
1.33571 -22.86
1.30802 -22.5983
1.3162 -22.3383
1.28834 -22.0812
1.29614 -21.8217
1.3183 -21.5515
1.32567 -21.2927
1.34976 -21.0144
1.35671 -20.7563
1.38432 -20.4866
1.39088 -20.2293
1.40094 -19.9634
1.40721 -19.7068
1.41954 -19.4559
1.42551 -19.1996
1.43145 -18.9553
1.43694 -18.6991
1.43844 -18.4624
1.44308 -18.2066
1.46796 -17.9715
1.4715 -17.7174
1.47811 -17.4777
1.48087 -17.2262
1.47557 -16.9761
1.47792 -16.7271
1.47273 -16.474
1.47477 -16.2272
1.46934 -15.9735
1.47102 -15.7286
1.4583 -15.4866
1.45958 -15.2435
1.46791 -14.9955
1.46865 -14.7545
1.47479 -14.5155
1.47499 -14.2764
1.47356 -14.0395
1.47324 -13.8026
1.47127 -13.558
1.47045 -13.3235
1.49122 -13.0824
1.48983 -12.8501
1.5255 -12.6531
1.52356 -12.4229
1.4329 -12.2205
1.43098 -11.992
1.45313 -11.7539
1.4505 -11.527
1.46862 -11.2226
1.46464 -10.9982
1.4654 -10.8155
1.46036 -10.5944
1.43908 -10.3936
1.43346 -10.1765
1.42292 -9.96154
1.4169 -9.74848
1.42188 -9.53408
1.41537 -9.32462
1.40372 -9.11556
1.3968 -8.9095
1.37282 -8.70604
1.36552 -8.50335
1.35899 -8.28868
1.3511 -8.08959
1.34631 -7.8802
1.33778 -7.6848
1.34429 -7.49641
1.33504 -7.30465
1.33027 -7.11988
1.32042 -6.93185
1.29621 -6.74785
1.28597 -6.56363
1.27271 -6.38184
1.26203 -6.20133
1.24052 -6.01163
1.22945 -5.83449
1.24788 -5.65686
1.23574 -5.48268
1.22586 -5.31981
1.21251 -5.14936
1.19639 -4.98945
1.182 -4.82426
1.1612 -4.66886
1.14632 -4.5094
1.11425 -4.34984
1.09927 -4.19586
1.07753 -4.02722
1.06223 -3.87853
1.0467 -3.73327
1.03094 -3.58942
1.01983 -3.44982
1.00346 -3.31085
0.988688 -3.17796
0.971733 -3.04391
0.951528 -2.91487
0.93407 -2.78588
0.909785 -2.6596
0.891893 -2.53581
0.872415 -2.4146
0.853992 -2.29615
0.832021 -2.18487
0.813176 -2.07172
0.769771 -1.97192
0.780053 -1.72017
0.759535 -1.61745
0.676297 -1.35505
0.654681 -1.26141
0.641881 -1.16656
0.618997 -1.08039
0.597651 -0.995182
0.57428 -0.916504
0.552794 -0.837178
0.529025 -0.765485
0.50605 -0.696056
0.481922 -0.630842
0.458199 -0.56927
0.433673 -0.510386
0.409671 -0.456248
0.38472 -0.403682
0.352691 -0.353657
0.327782 -0.307579
0.297094 -0.264776
0.272258 -0.225227
0.247392 -0.187642
0.222007 -0.154941
0.197558 -0.124384
0.171433 -0.0986095
0.147193 -0.0762841
0.12021 -0.0571027
0.0957291 -0.0422105
0.0680565 -0.0284697
0.0132099 -0.00191922
0.0111999 -0.00113194
0.00810111 -0.00024059
0.00569603 0.000307139
-0.603878 -24.9273
-0.614253 -25.1859
-0.557124 -24.4065
-0.567631 -24.6705
-0.523795 -23.8799
-0.534197 -24.1437
-0.495267 -23.3487
-0.505561 -23.6122
-0.466138 -22.8208
-0.476331 -23.0843
-0.426041 -22.2913
-0.436103 -22.5543
-0.3917 -21.7534
-0.401617 -22.0158
-0.377295 -21.2136
-0.387073 -21.4753
-0.3933 -20.6946
-0.402969 -20.9555
-0.390624 -20.1629
-0.400047 -20.4212
-0.372107 -19.6362
-0.379952 -19.8574
0.00608549 -0.00708074
0.00870817 -0.0176233
0.0125433 -0.0323148
0.0155116 -0.0510657
0.0205391 -0.0741117
0.0237469 -0.100288
0.0292834 -0.130201
0.0326434 -0.163385
0.0368827 -0.202502
0.0401613 -0.242766
0.0409406 -0.288541
0.043855 -0.335691
0.042687 -0.386297
0.0451643 -0.440109
0.0460539 -0.497616
0.0482442 -0.558043
0.0491739 -0.621364
0.0510465 -0.688311
0.0488804 -0.76228
0.0501699 -0.835313
0.0386557 -0.923246
0.038751 -0.991413
0.0516464 -2.15229
0.100985 -2.26149
0.101877 -2.38475
0.0699484 -4.08609
0.0681663 -4.2453
0.0345121 -4.42088
0.0320601 -4.55529
0.00360875 -6.61198
0.0287275 -6.78144
0.0251392 -6.97619
-0.0283132 -9.3972
-0.0339818 -9.61671
-0.0652614 -9.86447
-0.070582 -10.0471
-0.162651 -12.7636
-0.170014 -13.0057
-0.236784 -16.1417
-0.245714 -16.3993
-0.287263 -16.6963
-0.29502 -16.9087
0.921447 -4.98107
0.933921 -5.14114
0.963525 -5.29529
1.09438 -10.6145
1.11878 -10.7832
1.1161 -10.9658
1.11557 -11.119
0.622338 -1.65248
0.583008 -4.78333
0.702236 -4.967
0.816181 -5.21085
0.839072 -5.50342
0.848005 -10.3379
0.933895 -10.7012
0.956309 -11.0234
0.936738 -11.329
1.20503 -18.5486
0.976146 -18.6259
1.23252 -18.0764
0.55567 -17.2344
0.434263 -4.70328
0.497464 -4.7837
0.602416 -10.1599
0.673222 -10.301
0.546952 -1.60654
0.494602 -1.26115
0.482544 -1.58558
0.739988 -5.55868
0.676609 -6.1542
0.807342 -11.3859
0.328895 -2.01031
0.261159 -2.00241
0.330276 -1.11131
0.394339 -1.12301
0.460613 -6.29101
0.318609 -6.25764
0.531038 -4.87767
0.58377 -4.9632
0.668984 -5.05372
0.707489 -5.15471
0.734525 -5.30973
0.746305 -5.42087
0.734267 -10.4955
0.781899 -10.6411
0.804614 -10.81
0.827924 -10.9462
0.826146 -11.0997
0.826202 -11.2336
0.978596 -18.3891
0.727505 -17.5081
1.05063 -17.7345
1.05855 -17.9503
0.851703 -17.843
1.03264 -18.1857
0.323917 -17.1186
0.416668 -17.243
0.471735 -17.3975
0.543175 -17.5215
0.0858712 -1.06322
0.144203 -1.0308
0.122662 -4.69008
0.228964 -4.63329
0.381183 -4.79666
0.487996 -10.3163
-0.154371 -17.1258
0.0158018 -17.0364
0.146091 -1.92934
0.184826 -6.1982
0.0751084 -12.2204
0.495005 -1.64344
0.538877 -1.71533
0.567279 -1.84651
0.528919 -1.89843
0.478921 -1.81748
0.393691 -1.90487
0.426417 -1.26418
0.499323 -1.3169
0.528595 -1.36409
0.458153 -1.3678
0.510156 -1.482
0.469914 -1.51851
0.725014 -5.66191
0.791222 -5.75566
0.774721 -5.99346
0.70952 -6.06078
0.683678 -5.93724
0.585364 -6.09752
0.775261 -11.5201
0.856461 -11.6682
0.99126 -12.0006
0.636121 -11.9675
0.32717 -1.88423
0.279939 -1.93314
0.418646 -1.55547
0.246729 -1.12893
0.356233 -1.19705
0.37591 -1.24631
0.495181 -6.09044
0.410348 -6.15774
0.632016 -5.57938
0.496427 -4.96318
0.58709 -5.15103
0.636318 -5.36452
0.328802 -12.1031
0.664587 -11.4249
0.605014 -10.6031
0.674841 -10.8855
0.69731 -11.1563
0.750118 -18.6952
0.659679 -18.3264
0.659606 -17.641
0.701169 -17.7761
0.708112 -17.9925
0.714327 -18.1226
0.239586 -17.2813
0.403345 -17.5298
0.16808 -1.87977
0.145685 -1.10766
0.194138 -1.13487
0.209238 -6.05761
0.35747 -4.89973
0.409686 -4.96354
0.211472 -4.77334
0.295234 -4.81873
0.132202 -12.0331
0.388894 -10.4559
0.469661 -10.5822
0.319867 -10.3146
0.134042 -19.3
0.511627 -19.1904
0.563862 -18.7783
0.528158 -18.9538
-0.0234762 -17.2464
0.10289 -17.3171
0.1008 -1.88374
0.102763 -2.00651
0.0518551 -2.05576
0.11837 -6.40912
0.0066515 -6.45558
-0.014139 -12.512
-0.156718 -12.5664
0.473011 -1.6939
0.446506 -1.75181
0.408301 -1.80276
0.373651 -1.84852
0.378375 -1.30218
0.401743 -1.35146
0.429856 -1.39955
0.447495 -1.4518
0.68211 -5.77617
0.645717 -5.85955
0.580861 -5.92649
0.528789 -5.99735
0.712927 -11.707
0.640001 -11.8216
0.482076 -11.9339
0.382887 -11.9996
0.261899 -1.87645
0.210451 -1.85673
0.257393 -1.80845
0.37682 -1.58158
0.3656 -1.51458
0.235322 -1.19024
0.264436 -1.22764
0.308051 -1.2336
0.282415 -1.27794
0.35522 -6.05744
0.269891 -6.03249
0.354317 -5.96541
0.553729 -5.61524
0.567161 -5.42191
0.56938 -5.51198
0.461893 -5.0501
0.49923 -5.12533
0.536782 -5.22767
0.556493 -5.31011
0.234599 -12.0229
0.232068 -11.874
0.562324 -11.4683
0.601671 -11.2213
0.594813 -11.334
0.515887 -10.7283
0.560985 -10.8388
0.583284 -10.9756
0.602341 -11.0868
0.564934 -18.411
0.564158 -18.5497
0.474528 -18.2706
0.516004 -17.7896
0.563351 -18.0556
0.467004 -18.1464
0.434787 -17.9011
0.461205 -18.0158
0.195029 -17.4417
0.271641 -17.536
0.342682 -17.6605
0.393733 -17.7652
0.166055 -1.81178
0.13108 -1.16742
0.209804 -5.96577
0.321441 -4.98547
0.185977 -4.87542
0.130333 -11.8844
0.299114 -10.5797
0.0759145 -10.4212
-0.157731 -19.1634
0.164806 -19.0506
0.34225 -18.8088
-0.0684152 -17.4061
-0.229945 -25.6227
-0.0548458 -25.6296
0.0156098 -0.00368875
0.0138114 -0.00257845
-0.453161 -19.2331
-0.459265 -19.4029
0.0372285 -1.1219
0.0276993 -1.91149
0.0270426 -1.98183
0.0111737 -4.79745
-0.00987397 -6.20197
-0.0123491 -6.31805
-0.149858 -10.2291
-0.154336 -10.3678
-0.167812 -12.2213
-0.172291 -12.3689
-0.340182 -17.279
0.370264 -1.62969
0.404148 -1.6799
0.343227 -1.78254
0.288387 -1.77324
0.303477 -1.31901
0.349705 -1.33324
0.389815 -1.43578
0.358331 -1.46632
0.534239 -5.6939
0.580122 -5.76575
0.491712 -5.91958
0.407828 -5.9136
0.526356 -11.5707
0.559351 -11.6737
0.387646 -11.8539
0.294621 -11.8289
0.343631 -1.68679
0.322533 -1.72826
0.326102 -1.36921
0.341589 -1.41339
0.497772 -5.77696
0.45971 -5.84303
0.453613 -11.6853
0.393131 -11.7633
0.238778 -1.75399
0.29025 -1.67794
0.317486 -1.58887
0.316648 -1.49251
0.29388 -1.39941
0.208191 -1.23322
0.257633 -1.31303
0.323568 -5.88891
0.414724 -5.77121
0.471866 -5.62663
0.488893 -5.45774
0.410474 -5.12572
0.467101 -5.28453
0.238136 -11.7835
0.360695 -11.6604
0.456684 -11.48
0.499333 -11.2646
0.423885 -10.8174
0.487386 -11.0401
0.378712 -18.4943
0.371935 -18.231
0.338196 -17.9915
0.133961 -17.5717
0.261134 -17.7714
0.127228 -1.78824
0.0912418 -1.80227
0.198229 -1.7434
0.169108 -1.76576
0.249303 -1.67976
0.228957 -1.70875
0.280641 -1.60466
0.26986 -1.63858
0.287394 -1.51494
0.286733 -1.55662
0.27065 -1.42865
0.279664 -1.46641
0.238397 -1.34856
0.255135 -1.38394
0.195608 -1.27637
0.218115 -1.30647
0.142017 -1.21493
0.167884 -1.23748
0.0678223 -1.17199
0.0944794 -1.18591
0.144472 -5.93942
0.0837894 -5.96255
0.256327 -5.87657
0.204851 -5.91438
0.34842 -5.77497
0.3096 -5.82487
0.409998 -5.65008
0.386055 -5.70893
0.436736 -5.4991
0.428968 -5.57132
0.421748 -5.33574
0.434157 -5.40876
0.375726 -5.19231
0.402361 -5.25276
0.300404 -5.06457
0.339187 -5.11604
0.201415 -4.96047
0.249124 -4.99945
0.0655158 -4.88943
0.118552 -4.91382
0.0556223 -11.8787
-0.0224851 -11.9081
0.168695 -11.7745
0.101235 -11.823
0.283278 -11.6648
0.230922 -11.7293
0.37715 -11.5103
0.34323 -11.5867
0.426355 -11.314
0.412647 -11.4077
0.420332 -11.1063
0.433072 -11.201
0.369344 -10.9159
0.40176 -10.9946
0.275752 -10.7373
0.325289 -10.8046
0.13377 -10.5584
0.196516 -10.6097
-0.0811506 -10.4922
-0.00954407 -10.5249
-0.256521 -19.0486
-0.343634 -19.0841
-0.000642617 -18.9449
-0.0759573 -19.0018
0.199085 -18.8036
0.140509 -18.8782
0.272397 -18.54
0.234562 -18.6277
0.287598 -18.306
0.272923 -18.401
0.267974 -18.0741
0.280029 -18.1815
0.206811 -17.8698
0.241956 -17.959
0.100952 -17.6877
0.156392 -17.7644
-0.0466933 -17.5333
0.0250619 -17.5926
-0.255384 -17.4235
-0.172253 -17.4618
-0.193854 -17.3354
0.0579573 -17.4774
0.210549 -17.6666
0.312092 -17.8767
0.364518 -18.1067
0.379498 -18.3554
0.377931 -18.633
0.306515 -18.9842
0.0233251 -19.117
-0.338585 -19.2098
-0.0663948 -10.3889
0.220035 -10.4541
0.379645 -10.7071
0.46878 -10.9287
0.506317 -11.1518
0.492513 -11.3775
0.420854 -11.5824
0.30037 -11.7384
0.175679 -11.8286
0.0847498 -11.9401
0.103843 -4.83021
0.270277 -4.92173
0.373949 -5.05044
0.447882 -5.20195
0.48678 -5.36746
0.491172 -5.5479
0.452418 -5.70525
0.3766 -5.83727
0.269845 -5.94077
0.14915 -5.99089
0.0848905 -1.14044
0.180579 -1.19602
0.237427 -1.27193
0.278782 -1.35503
0.309463 -1.44402
0.323938 -1.54082
0.31078 -1.63684
0.268987 -1.71933
0.20735 -1.78919
0.123475 -1.83472
0.486388 -11.7883
0.543489 -5.84901
0.372846 -1.38333
0.377192 -1.73754
0.288765 -11.9196
0.632136 -11.5591
0.439454 -5.99046
0.616474 -5.68263
0.406938 -1.48853
0.327034 -1.28404
0.30832 -1.82821
0.430415 -1.6227
-0.0303899 -12.3147
0.0986121 -6.27187
0.077704 -1.93332
0.0303447 -0.00885707
-0.147567 -25.4308
0.474824 -17.6544
0.332324 -17.406
0.557359 -17.9254
0.569314 -18.1861
0.750137 -18.4667
0.697641 -11.0223
0.65217 -10.7496
0.696887 -11.2906
0.180041 -12.1264
0.625249 -5.25334
0.549437 -5.04988
0.647375 -5.4762
0.269975 -6.12491
0.28979 -1.18483
0.213705 -1.92565
0.477609 -12.0799
0.794178 -11.8553
0.618534 -6.00441
0.748413 -5.87028
0.486959 -1.41583
0.429797 -1.32032
0.440101 -1.86922
0.516742 -1.76643
0.00227071 -12.7103
0.138532 -6.5476
0.128712 -2.08105
0.147513 -17.1572
0.750052 -18.9236
0.717398 -19.3971
0.24516 -19.4835
0.418531 -10.1756
0.558507 -10.4581
0.319383 -4.71672
0.444497 -4.87791
0.206353 -1.0755
0.858993 -18.0595
0.844258 -17.6275
0.551682 -6.19119
0.422782 -1.2096
0.346414 -1.94106
1.18978 -12.1467
0.918189 -11.4813
0.801254 -6.11752
0.833407 -5.64146
0.533685 -1.5489
0.568426 -1.31378
0.61921 -1.92824
0.560332 -1.66471
-0.115199 -16.916
0.140502 -4.55076
0.0857834 -0.987584
0.611205 -17.3891
0.500492 -17.0803
1.20684 -18.312
1.25771 -17.8416
0.954981 -11.177
0.957405 -10.8706
0.910499 -10.5332
0.844313 -5.36617
0.788143 -5.05755
0.617475 -4.87756
0.368208 -6.3916
0.367166 -1.04046
0.310439 -2.0807
0.786424 -10.1447
0.549227 -4.69033
1.20294 -18.7853
0.684015 -1.64062
1.27572 -11.0614
1.2793 -10.6963
1.08144 -5.22532
1.05295 -4.9055
-0.0326451 -16.3218
0.0926199 -10.0246
0.153235 -9.5288
0.191715 -6.88714
0.205264 -4.19876
0.231351 -2.2993
0.10554 -0.810591
0.105011 -0.661983
0.0979126 -0.534748
0.0904686 -0.419118
0.0866799 -0.3174
0.0780514 -0.22548
0.062056 -0.147143
0.0441152 -0.0873454
0.0276399 -0.0413316
0.0144405 -0.0120109
-0.16327 -19.6761
-0.183299 -20.287
-0.168846 -20.8337
-0.116659 -21.3499
-0.125126 -21.9061
-0.173366 -22.4572
-0.233013 -22.9904
-0.270595 -23.5192
-0.306903 -24.0546
-0.352745 -24.58
-0.42538 -25.0936
0.0135511 -0.00263121
0.024575 -0.00614076
0.0700163 -0.0288008
0.114594 -0.0582057
0.157049 -0.102408
0.198557 -0.163376
0.240406 -0.238693
0.2947 -0.324157
0.352594 -0.423995
0.395191 -0.532166
0.437083 -0.655091
0.477157 -0.793746
0.51358 -0.95242
0.54961 -1.12309
0.700337 -2.12796
0.738769 -2.35064
0.772114 -2.59308
0.815307 -2.84558
0.850738 -3.10357
0.875476 -3.36919
0.892778 -3.64816
0.918756 -3.93835
0.956479 -4.27545
1.01562 -4.59462
1.09803 -5.55098
1.05795 -5.90618
1.09724 -6.28527
1.12033 -6.64876
1.16539 -7.01659
1.17178 -7.38598
1.15555 -7.76255
1.16144 -8.18113
1.17077 -8.61051
1.21537 -9.01748
1.23545 -9.4357
1.22207 -9.86467
1.23966 -10.2947
1.23643 -11.6701
1.36935 -12.5514
1.29668 -12.9455
1.25318 -13.4274
1.25499 -13.9165
1.25585 -14.3904
1.24163 -14.8684
1.22297 -15.3643
1.24649 -15.8484
1.25541 -16.3557
1.26382 -16.8618
1.27252 -17.3621
1.19051 -19.2739
1.16543 -19.7755
1.14479 -20.3071
1.08898 -20.8466
1.0401 -21.4032
0.99509 -21.9436
1.05008 -22.4579
1.1049 -22.9813
1.09282 -23.4831
1.07408 -24.0135
1.05647 -24.5683
1.08813 -25.1083
0.749339 -25.4529
0.270356 -25.399
0.734071 -12.305
0.286786 -16.7053
0.414172 -4.4454
0.225759 -0.916872
0.728886 -6.45596
0.475892 -2.02364
0.473222 -9.80435
0.914455 -17.1609
0.786898 -4.76154
0.692693 -1.79836
0.648465 -1.48294
1.20507 -11.3494
0.0717912 -15.7983
0.251351 -9.05556
0.271421 -7.28918
0.257061 -3.88125
0.247797 -2.58662
0.0621702 -0.0272994
0.00279428 -24.9673
0.457772 -6.69638
0.694563 -19.9185
0.242816 -20.0689
0.335327 -12.4573
1.00099 -12.6201
0.770726 -16.6216
0.490288 -2.22131
0.863466 -9.6375
0.717406 -4.47956
0.449908 -16.1416
0.543862 -9.33107
0.561348 -7.06174
0.579932 -4.13676
0.502321 -2.45779
0.225158 -0.754526
0.209934 -0.615335
0.192684 -0.493232
0.178233 -0.385208
0.182338 -0.287905
0.144263 -0.1902
0.109918 -0.114743
0.0629749 -0.0618356
0.0424664 -0.0252527
0.199156 -20.5416
0.448462 -21.0146
0.450484 -22.281
0.444277 -21.65
0.263304 -22.82
0.204042 -23.3431
0.165042 -23.8752
0.112891 -24.4298
0.0934674 -0.062414
0.256779 -0.373123
0.27899 -0.460556
0.308005 -0.572893
0.335756 -0.703654
0.358215 -0.856242
0.531798 -2.71407
0.56909 -2.96574
0.587966 -3.21184
0.586471 -3.47422
0.59246 -3.77164
0.822471 -6.84009
0.895169 -7.15712
0.74102 -7.47382
0.73637 -7.94617
0.733331 -8.39901
0.730867 -8.89588
0.918651 -9.25934
0.7912 -13.121
0.802891 -13.692
0.829967 -14.153
0.795266 -14.6097
0.737405 -15.0935
0.691887 -15.6576
0.884406 -16.1229
0.645249 -20.4655
0.70591 -22.7437
0.661611 -23.1793
0.635532 -23.6847
0.612978 -24.2262
0.557395 -24.8763
0.632509 -12.6897
0.337879 -12.978
0.272358 -2.85553
0.344458 -3.07912
0.288699 -3.29322
0.268924 -3.57057
0.303594 -7.71519
0.284182 -8.17214
0.275633 -8.62031
0.456187 -13.977
0.39469 -14.3644
0.289557 -14.798
0.175647 -15.2766
0.0120687 -14.1148
-0.016829 -14.5262
0.240793 -13.5668
-0.499382 -25.4912
1.14007 -25.5353
0.031909 -0.0117998
0.00507685 -0.000414663
0.0453391 -1.84443
0.0520082 -6.06768
-0.0790921 -12.0484
-0.598483 -2.12052
-0.55529 -1.95944
-0.429384 -11.972
-0.133934 -12.1156
0.388039 -13.8493
0.464401 -13.5151
0.634206 -1.78654
0.66102 -1.94284
-1.17546 -9.44203
-1.05891 -9.72108
-0.575796 -22.7247
-0.341351 -22.4267
0.807555 -21.9686
0.642871 -21.6267
1.44516 -8.1978
1.23326 -8.37875
-2.33567 -19.7792
-2.41293 -19.4152
0.190395 -0.104011
0.173526 -0.109791
0.128194 -8.73913
0.214878 -9.02696
0.601434 -8.43012
0.892055 -8.44825
1.32276 -23.6472
0.967185 -23.7809
0.589277 -12.4152
0.618638 -12.7512
-2.13252 -22.1095
-2.50361 -22.186
-1.39053 -6.76913
-1.27438 -6.51798
-1.11011 -5.44605
-0.952776 -5.23749
0.322699 -13.655
0.445342 -13.3373
-1.11181 -11.7709
-1.28898 -11.5004
-0.46809 -7.95386
-0.210721 -7.83047
-1.0596 -23.6473
-1.43761 -23.6491
1.08181 -17.8525
0.716166 -17.881
1.04229 -11.3101
1.17565 -11.0173
-0.300677 -0.968497
-0.309029 -1.08651
0.154228 -0.53592
0.122185 -0.614405
-1.89261 -9.49661
-1.6757 -9.69832
0.812076 -3.60269
0.819153 -3.8133
0.883276 -4.18437
0.820512 -4.39215
0.164386 -0.0996666
0.157464 -0.117737
0.0894188 -13.5907
0.42947 -13.5986
-0.124927 -6.99015
-0.345975 -6.83611
0.0498635 -0.0725488
0.0204051 -0.0541952
0.125172 -0.131651
0.144495 -0.113757
-1.75122 -8.52365
-1.68156 -8.2351
-0.0334401 -0.0154871
-0.073423 -0.033546
-0.092265 -4.19327
-0.119054 -3.97437
0.344139 -1.91634
0.456557 -2.04214
-1.30168 -5.94588
-1.04428 -5.90497
-1.05553 -9.46139
-0.865488 -9.21788
-0.259148 -0.300012
-0.323663 -0.359465
-0.288592 -4.20321
-0.144745 -4.37125
-1.62921 -13.1758
-1.84003 -13.4521
-0.417964 -0.878609
-0.496484 -0.829934
-0.21387 -2.66742
-0.0340449 -2.65914
-0.435899 -1.60828
-0.576168 -1.68012
-1.70388 -22.8533
-1.98795 -22.6046
0.699248 -14.9588
0.438611 -15.1899
-1.95074 -14.1276
-2.07581 -13.8113
-0.675732 -6.46811
-0.88866 -6.32588
1.03754 -5.53762
0.970567 -5.77651
0.340454 -1.97854
0.186675 -1.94385
0.30759 -6.1367
0.546972 -6.24223
0.0341788 -0.0156061
0.0172337 -0.0032668
0.858362 -16.5719
0.512468 -16.4698
0.939548 -18.1419
0.913041 -17.7698
0.16395 -21.294
0.0403154 -20.937
-1.01321 -21.6612
-0.903631 -22.0233
-0.119292 -0.355099
-0.184381 -0.347224
-0.328968 -2.89354
-0.142651 -2.90266
0.218019 -0.381377
0.291137 -0.43161
-0.330795 -14.4646
-0.0419235 -14.6588
0.195362 -23.24
-0.143164 -23.4095
-0.186454 -0.108891
-0.190661 -0.130985
-0.170292 -0.426738
-0.0943904 -0.414668
-2.71305 -20.4765
-2.39939 -20.678
-1.20313 -12.8955
-1.23555 -12.5614
0.328652 -17.7909
0.203353 -17.4429
0.537459 -24.4082
0.43101 -24.0419
0.592334 -6.61769
0.619867 -6.35444
-0.526561 -12.9146
-0.367999 -13.2134
-0.440414 -0.838878
-0.405796 -0.735117
-0.938316 -3.99264
-1.14577 -3.952
-2.17499 -17.1936
-1.85279 -17.0119
0.607907 -20.9541
0.683358 -21.3246
-0.50514 -2.83831
-0.414532 -2.66939
0.384715 -0.628944
0.324661 -0.543235
-0.646603 -1.94267
-0.748547 -2.08553
0.00535648 -0.0461572
0.014661 -0.0777681
0.19451 -0.621391
0.248945 -0.71032
-2.78513 -24.0565
-2.41484 -23.9667
-1.537 -14.9278
-1.18936 -14.964
-0.692435 -21.3421
-0.354297 -21.5046
-1.2339 -13.9235
-1.55368 -14.0611
-0.922312 -3.36547
-0.758684 -3.46423
-0.174035 -1.15844
-0.22059 -1.28585
-0.539844 -4.75809
-0.689529 -4.58808
1.27308 -6.8383
1.00472 -6.84057
-1.29231 -6.51014
-1.1407 -6.71687
-1.34816 -19.359
-1.05734 -19.1267
0.0944565 -0.222248
0.118187 -0.283105
0.611653 -24.6862
0.800314 -24.3544
0.640649 -12.3937
0.7441 -12.0797
-0.168714 -20.9838
-0.537557 -21.0448
1.09789 -11.4915
1.02993 -11.8127
-1.10315 -6.81429
-1.37323 -6.86267
-0.0780897 -20.9518
-0.27384 -20.6303
-0.0231235 -0.00708901
-0.00656552 0.000267677
-0.893857 -16.6891
-0.591614 -16.8818
0.504602 -1.66926
0.403505 -1.54697
0.339183 -0.748531
0.378184 -0.673
0.367974 -0.5627
0.300774 -0.486236
-0.908636 -3.21964
-1.10288 -3.30284
-1.21576 -7.67979
-1.22498 -7.40014
-0.34622 -20.3977
-0.0690666 -20.1479
-0.627929 -3.06576
-0.435413 -3.05925
-0.466305 -1.99511
-0.595004 -1.92445
-0.959506 -25.0757
-0.653759 -24.8506
-0.656423 -22.1566
-1.00158 -22.309
-1.15916 -4.43825
-1.12502 -4.21315
-1.98783 -18.3253
-2.35791 -18.3133
-0.486763 -17.3538
-0.520603 -16.9931
-0.202777 -9.16417
-0.378508 -9.41178
-0.864058 -9.74937
-1.11782 -9.58451
-0.5395 -2.48207
-0.525012 -2.65836
0.434205 -20.4747
0.512081 -20.1078
-0.790623 -3.50504
-0.957596 -3.64924
0.867572 -3.0871
0.711936 -2.95147
-0.0742568 -0.662
-0.167368 -0.66318
-1.06066 -3.21827
-1.19878 -3.1059
-0.610813 -12.709
-0.552616 -12.3781
0.186594 -17.1281
0.108205 -16.7735
-0.134958 -3.54934
-0.105632 -3.34611
0.0145802 -0.124556
0.0562667 -0.141265
0.980056 -22.3053
0.603569 -22.2749
-1.60771 -14.2407
-1.30726 -14.406
-0.931784 -14.2732
-1.27749 -14.2809
-0.409468 -3.80237
-0.234814 -3.67904
-1.81958 -16.8328
-1.46247 -16.8897
0.274384 -0.666719
0.344834 -0.753028
-0.300134 -0.435217
-0.278618 -0.361788
0.145868 -0.653781
0.233759 -0.705859
-0.0453569 -22.5618
0.000382682 -22.9395
-1.04876 -17.2738
-0.951744 -17.6267
-1.31132 -13.8788
-1.23458 -14.2145
1.00883 -24.6142
0.725723 -24.3591
0.858122 -7.9469
1.13715 -7.91012
0.523351 -17.3656
0.522937 -17.7343
-1.079 -12.245
-0.809533 -12.0479
-2.63987 -23.8769
-3.01374 -23.9523
-0.582109 -21.9157
-0.308131 -21.6563
-0.00224682 0.00100302
-0.0113411 -0.00336109
-0.095833 -2.45119
0.0667532 -2.51526
0.0696078 -0.0294436
0.0265334 -0.00965046
0.826171 -5.02449
1.06542 -5.08281
-0.779822 -12.3434
-0.896954 -12.0351
-1.22126 -4.15773
-1.03961 -4.00678
0.362315 -23.7676
0.65569 -24.0093
0.77373 -6.32623
0.547506 -6.18349
-0.584133 -1.8799
-0.730771 -1.85482
-0.217227 -2.24399
-0.382835 -2.23559
-1.13925 -5.23817
-1.00738 -5.43642
-0.253623 -1.81088
-0.364693 -1.92688
0.379161 -10.8479
0.700013 -10.8941
0.264881 -3.71473
0.388003 -3.89427
0.0705893 -3.55107
0.217526 -3.70174
-0.00861118 -2.19536
0.136775 -2.12198
-1.26823 -5.79089
-1.48381 -5.67799
-1.08481 -4.55148
-0.904935 -4.67968
0.156144 -20.4388
0.528516 -20.4663
-1.34664 -25.1103
-1.72167 -25.1633
-0.105321 -12.8914
0.219371 -12.8143
0.0504497 -0.264797
-0.00239113 -0.29369
-0.31554 -14.3889
-0.436707 -14.7172
0.599986 -23.0172
0.976769 -23.0561
0.264518 -15.1639
0.384136 -14.8337
0.734024 -25.0428
0.56006 -24.7033
0.251801 -19.3835
-0.0901036 -19.5235
-1.97317 -11.6814
-2.07755 -11.376
-0.814018 -4.39594
-0.642909 -4.23652
-0.23805 -1.10689
-0.123277 -1.14055
-0.941948 -10.8752
-0.87883 -10.5552
-2.67416 -23.5091
-2.8785 -23.8319
-0.962133 -4.52451
-0.732643 -4.53355
-0.531263 -14.9226
-0.206413 -15.0515
-0.296211 -0.257434
-0.232065 -0.211611
0.707294 -7.56245
0.571257 -7.80411
0.0126365 -0.00152811
0.0267713 -0.00700753
-0.540411 -3.50653
-0.33752 -3.51563
-1.9888 -17.7601
-2.15141 -18.0984
-1.32753 -10.8184
-1.00477 -10.7861
1.25827 -12.8545
0.984053 -12.6487
-0.132599 -0.102708
-0.0921346 -0.0855651
0.0819685 -0.124115
0.0417418 -0.121491
0.815056 -1.94159
0.834128 -1.79616
0.00659116 -23.915
0.113387 -24.2811
-1.06577 -9.54601
-1.33129 -9.40697
0.791393 -13.3908
1.02837 -13.6448
-0.543002 -4.86343
-0.78295 -4.87986
0.350094 -11.7427
0.075431 -11.915
-0.610795 -23.2409
-0.859125 -22.9548
-1.05779 -9.54863
-1.19331 -9.28141
-1.71822 -22.2903
-1.41253 -22.5106
0.513529 -1.49529
0.612035 -1.41779
0.143437 -13.583
-0.136967 -13.7763
1.05191 -3.63415
0.868086 -3.7056
0.778221 -5.89204
1.03324 -5.92793
0.32072 -1.70934
0.44649 -1.65395
0.76744 -24.396
0.67761 -24.0251
-0.846987 -2.94949
-0.751409 -2.77458
0.131745 -7.53455
0.404477 -7.48801
0.20641 -0.208423
0.151357 -0.191815
-0.613141 -7.73283
-0.481279 -7.98267
-2.08203 -12.8411
-2.26488 -12.5691
0.823145 -2.49157
0.785179 -2.31669
-1.89139 -16.1014
-2.22658 -15.9846
-1.88733 -10.2489
-2.12625 -10.4783
-0.961293 -6.0445
-0.953156 -6.3037
-0.0659127 -20.6946
-0.0702204 -20.3181
-0.381693 -6.36748
-0.490244 -6.6125
0.998436 -11.1509
1.17525 -11.4355
0.325696 -0.864633
0.34062 -0.765985
-1.53455 -11.4635
-1.49589 -11.789
-1.38839 -7.56432
-1.11542 -7.61502
0.384343 -7.16528
0.553303 -7.39148
0.73546 -1.73006
0.837088 -1.86836
-1.44435 -8.21895
-1.42914 -7.9308
-1.21565 -14.1658
-1.06539 -13.851
0.146982 -18.8364
-0.197491 -18.9651
0.640121 -1.62876
0.52803 -1.51241
0.150958 -17.63
-0.189259 -17.5063
-0.123569 -24.433
-0.137783 -24.0515
-1.39173 -15.7155
-1.59694 -15.43
-2.07306 -22.1006
-2.43642 -22.0009
-1.52851 -22.991
-1.86452 -22.8191
0.298647 -1.37746
0.171222 -1.29693
-0.812419 -12.0035
-0.974039 -11.7211
-0.518136 -10.216
-0.670187 -9.94539
-0.453958 -9.11244
-0.752732 -9.12763
-1.57825 -12.4557
-1.2613 -12.3398
-1.19797 -17.0738
-1.34495 -16.7436
0.0630683 -2.59374
0.239222 -2.62638
-0.176188 -9.7543
0.12143 -9.81853
-0.0556306 -0.154603
-0.0613383 -0.206928
-0.566529 -5.9159
-0.56609 -5.66212
-0.76538 -20.3958
-1.11001 -20.5406
-1.83431 -12.198
-1.53693 -12.335
-0.70515 -5.49202
-0.903744 -5.66081
-0.606467 -9.03967
-0.788397 -9.28443
0.566557 -21.5247
0.452054 -21.885
0.0111759 -2.91521
0.179424 -3.00539
-0.0485691 -0.0631031
-0.0713042 -0.0585919
0.387466 -25.6867
0.750666 -25.5718
-0.436364 -0.763116
-0.507548 -0.720652
0.435111 -1.62531
0.310092 -1.68017
0.409414 -1.19126
0.300756 -1.10447
-0.441076 -4.27664
-0.607145 -4.13887
-2.09591 -15.0301
-2.10522 -15.3834
-2.10195 -21.0429
-1.74086 -20.9356
0.61678 -1.31167
0.562679 -1.17879
-0.212364 -0.149074
-0.18527 -0.112565
0.107367 -0.107363
0.149962 -0.145978
0.0240519 -13.8725
-0.19891 -13.6103
-0.333189 -2.33267
-0.164057 -2.3122
-0.353068 -12.9367
-0.0245706 -12.8732
-0.134498 -4.55632
-0.242608 -4.75952
0.348518 -3.97632
0.192019 -4.12116
0.209096 -1.12117
0.122005 -1.20482
-1.58302 -21.4678
-1.77621 -21.1458
-0.213095 -3.04626
-0.403179 -3.08278
1.2238 -15.7565
1.467 -16.0261
0.943214 -13.6708
1.23625 -13.5056
0.165626 -0.766343
0.0776893 -0.809417
-2.09036 -11.6332
-2.02626 -11.9531
0.214777 -0.133263
0.189316 -0.139568
-0.314212 -0.557124
-0.348429 -0.648515
-0.258309 -15.6028
-0.271154 -15.9603
-0.745278 -1.98083
-0.816434 -2.13873
-0.773088 -16.6332
-0.82018 -16.993
-0.0504783 -9.16554
-0.252857 -8.94446
0.506828 -9.95917
0.816178 -9.97961
-0.842371 -2.77576
-0.660097 -2.71498
0.228403 -0.799932
0.154326 -0.71999
-0.731007 -7.52353
-0.753531 -7.24621
-0.760897 -22.6919
-1.13737 -22.7132
-1.17398 -24.0645
-1.54094 -23.973
-2.07745 -16.5714
-2.26905 -16.2723
-1.47193 -10.1736
-1.25353 -10.3908
-0.53948 -16.9023
-0.330122 -16.6084
-0.10466 -2.35274
-0.223342 -2.23548
1.15311 -18.4437
1.50681 -18.3393
-0.0804724 -6.56838
0.130159 -6.73377
-0.0344046 -3.31467
0.154147 -3.25967
0.0017231 -0.371642
-0.0688336 -0.384159
0.274098 -1.14209
0.152187 -1.10928
-1.06252 -4.04156
-1.11684 -3.84262
0.591821 -3.44053
0.722536 -3.61313
-1.20734 -7.00535
-0.98173 -7.14536
-0.548692 -12.8904
-0.230358 -12.9949
0.667604 -18.2215
0.343945 -18.4004
0.118579 -0.492595
0.0573694 -0.543436
0.796922 -2.48553
0.960938 -2.45547
-0.468269 -6.68141
-0.713855 -6.79697
-0.404571 -0.632837
-0.472192 -0.600866
0.168871 -21.7987
0.497641 -21.6164
-1.31835 -6.94708
-1.10481 -7.10134
-1.6862 -24.6473
-1.71265 -24.2664
-0.130975 -6.43429
0.0821479 -6.28322
-0.672017 -8.38499
-0.940327 -8.28368
0.183939 -4.13367
0.384157 -4.05781
-2.66069 -24.4414
-2.52811 -24.7989
-2.32454 -14.8995
-2.48196 -15.2218
-0.934783 -18.9219
-1.30076 -18.912
-1.09747 -3.3184
-0.901777 -3.3392
1.23457 -5.08299
1.3527 -5.31523
0.0729357 -21.2846
0.345591 -21.0267
0.944841 -5.39418
1.1889 -5.37852
-0.293736 -3.96897
-0.506881 -4.00649
0.350084 -4.44565
0.575897 -4.45633
-1.71658 -9.61299
-1.97378 -9.80569
-0.14831 -0.189978
-0.14949 -0.149071
-1.20114 -22.9536
-1.20613 -22.5731
-0.565126 -1.46493
-0.423359 -1.43777
-2.21744 -14.8825
-1.98092 -14.6141
-0.584803 -14.0582
-0.678243 -13.7264
-0.545189 -0.822994
-0.435496 -0.782238
0.256145 -8.30388
0.22033 -8.5951
0.401707 -2.40723
0.455388 -2.25057
0.796178 -2.07228
0.65027 -2.11524
-0.012598 -0.0965353
-0.0443405 -0.0866706
0.793768 -19.4019
1.0519 -19.1357
-0.526801 -1.8069
-0.376039 -1.79755
1.10018 -17.1863
1.18387 -17.5462
-0.189353 -0.119358
-0.221703 -0.159713
0.108663 -0.355193
0.121518 -0.430936
0.660498 -13.7354
0.68461 -13.3933
-0.340198 -18.9862
0.0249833 -19.021
0.895677 -4.57615
1.0613 -4.76087
1.01855 -7.11525
1.28709 -7.08705
-0.116165 -23.9486
0.0966281 -23.6329
0.329265 -6.95027
0.599152 -6.96163
0.0988542 -0.0757432
0.076688 -0.0838428
-0.285053 -0.576293
-0.24144 -0.643443
-0.102712 -0.483552
-0.183102 -0.486398
-1.04982 -24.5141
-0.875272 -24.1749
-0.0488528 -0.0507109
-0.072524 -0.0833031
-0.590012 -5.77391
-0.840336 -5.8027
-1.4489 -15.8009
-1.68022 -15.5359
-0.387692 -3.8605
-0.408195 -4.07783
1.38029 -17.4679
1.04153 -17.3208
1.6002 -11.6446
1.6361 -11.3188
0.585863 -3.50357
0.454673 -3.65181
-0.570444 -1.41353
-0.435549 -1.3487
0.454379 -16.4964
0.44669 -16.136
0.233933 -0.141424
0.184597 -0.101615
0.71073 -11.5324
0.385405 -11.5092
-1.63154 -18.7327
-2.00221 -18.7508
0.779857 -5.64909
0.67422 -5.87362
-1.00252 -9.69454
-0.761244 -9.88034
-0.127616 -20.7944
0.238392 -20.7209
-0.751491 -1.3173
-0.61655 -1.30843
0.463647 -8.478
0.744838 -8.41563
0.933962 -4.49251
0.728195 -4.37368
-1.94941 -15.438
-1.64805 -15.2431
-0.499681 -19.5461
-0.727999 -19.8406
-0.680468 -5.35307
-0.510361 -5.15485
0.422361 -10.597
0.734485 -10.547
0.220736 -0.151869
0.243911 -0.196061
-1.15332 -8.86035
-1.38447 -9.06341
-0.523358 -0.717245
-0.612823 -0.806249
-1.75293 -15.431
-1.39977 -15.402
1.17015 -14.6745
1.14081 -14.325
0.383336 -3.78501
0.22022 -3.64577
0.511922 -24.6478
0.704592 -24.9769
0.694355 -3.18873
0.763521 -3.01715
-1.41079 -12.893
-1.74824 -12.9033
0.257023 -9.0597
-0.0231933 -8.95692
-1.16445 -12.0798
-1.04388 -12.386
-0.695977 -14.149
-0.73485 -14.4958
0.561029 -21.6829
0.566371 -21.3046
-0.13029 -6.61114
0.0589726 -6.80176
-1.07543 -23.7635
-1.40569 -23.5792
0.448074 -15.9213
0.725347 -16.1505
-0.843727 -1.8179
-0.734145 -1.90059
-0.623626 -20.6933
-0.995957 -20.7181
0.26886 -0.263117
0.244353 -0.299878
-1.54742 -16.5695
-1.62869 -16.22
0.0943121 -0.153055
0.109986 -0.205077
0.774136 -2.37289
0.939674 -2.35791
-0.424412 -16.7086
-0.312602 -17.0528
0.635536 -1.51514
0.624382 -1.37404
-0.167711 -21.9495
0.207847 -21.9326
-0.377111 -0.911818
-0.492145 -0.931274
0.418476 -1.47055
0.381954 -1.60516
-0.823828 -2.78959
-0.876514 -2.97683
0.242275 -7.2878
0.179202 -7.55944
0.810741 -25.3176
0.79873 -25.7005
0.146856 -1.90483
0.168318 -1.75296
-0.653396 -20.0893
-0.393247 -19.8221
1.50797 -13.4246
1.39587 -13.0973
0.364394 -25.5962
0.736349 -25.6769
0.0534562 -0.020765
0.0652922 -0.0264139
-0.224298 -1.90774
-0.132055 -2.0341
-1.01685 -12.4115
-0.69481 -12.3287
-0.156702 -0.33291
-0.226852 -0.350119
-1.00708 -24.2812
-0.703259 -24.0532
-2.32903 -23.9805
-1.98382 -23.8204
-0.363778 -0.423383
-0.398615 -0.385773
-0.551814 -6.64596
-0.663513 -6.40896
0.377925 -1.35056
0.329933 -1.47788
-1.06226 -16.7669
-0.882743 -16.4527
-1.20066 -3.65882
-1.08884 -3.46791
-0.903125 -6.10374
-0.90007 -6.36457
-0.420927 -1.88362
-0.274839 -1.82716
-0.314195 -0.746691
-0.225952 -0.779824
-0.630812 -23.5406
-0.289873 -23.3759
0.457964 -7.90747
0.371677 -8.18
-1.21768 -12.6136
-1.53823 -12.5297
-2.1523 -23.1628
-1.78345 -23.0749
0.214027 -0.217559
0.174506 -0.165203
-0.520843 -9.58619
-0.823194 -9.56029
-0.191289 -25.1912
-0.566923 -25.1493
0.811426 -7.22636
0.964264 -7.46903
-0.157406 -0.611953
-0.0680326 -0.613887
-1.1575 -18.8331
-1.52402 -18.8014
0.34535 -0.735776
0.248886 -0.740917
0.140402 -0.09717
0.160227 -0.134745
0.261941 -21.0656
0.563009 -20.8432
0.265655 -2.37355
0.397866 -2.27821
0.850819 -22.0987
1.15965 -22.3194
0.421549 -15.8752
0.768804 -15.9555
0.386259 -23.6618
0.331895 -24.0394
0.000687481 0.000451946
-0.00061006 0.000565567
-0.626725 -3.11465
-0.574339 -2.9245
-0.582195 -14.7262
-0.747938 -15.0374
0.0697274 -6.10362
0.294393 -5.98589
0.226375 -0.186869
0.289353 -0.226579
1.39432 -23.243
1.25892 -22.8866
0.0682276 -0.208511
0.123288 -0.23081
-0.639348 -2.04557
-0.751793 -1.95525
-2.32438 -21.9913
-2.15781 -21.6495
0.244314 -4.52672
0.0699521 -4.38214
0.0346243 -0.0451592
0.0108724 -0.0473759
-0.0979168 -2.7321
0.0691768 -2.80828
0.581482 -22.8266
0.924037 -22.6669
-1.11611 -8.60533
-1.40801 -8.6684
-2.21729 -15.3501
-2.33293 -15.6903
-2.33723 -14.4462
-1.99261 -14.4897
0.681855 -7.53835
0.926182 -7.41927
-0.312717 -4.68364
-0.523901 -4.59903
0.905084 -2.48147
0.894199 -2.30915
-0.140651 -1.21674
-0.0994628 -1.09981
0.153057 -0.0745812
0.147699 -0.0809357
0.228768 -4.21552
0.447817 -4.21343
-1.19662 -4.07012
-0.986176 -3.97601
0.566228 -24.7022
0.576906 -25.0842
1.42707 -7.47535
1.15406 -7.39476
0.914419 -11.5232
0.97772 -11.2018
0.847896 -3.36304
0.970474 -3.22622
-1.50468 -19.2578
-1.3574 -18.9142
-0.604633 -0.819133
-0.552541 -0.886144
-0.518762 -2.49681
-0.457186 -2.65842
0.97966 -7.077
0.979343 -6.80422
0.756012 -1.95692
0.708393 -1.80046
-0.901058 -2.13843
-0.902436 -2.30157
-0.385312 -1.57214
-0.359835 -1.71113
-2.64823 -25.686
-2.98647 -25.5074
1.04087 -13.8245
1.38308 -13.8153
0.547144 -21.2118
0.225086 -21.0168
-0.384452 -23.1043
-0.744144 -23.2203
-2.55991 -24.5557
-2.70496 -24.9092
-1.69651 -12.9031
-1.84263 -13.2151
0.303907 -2.74323
0.467424 -2.67831
-0.737002 -7.25289
-0.957024 -7.43287
-1.79141 -22.7761
-1.52687 -22.5031
-0.18307 -7.14664
-0.185732 -7.42502
1.043 -7.1499
0.931521 -7.39548
0.562231 -4.678
0.338144 -4.72829
0.376706 -1.72535
0.420901 -1.87707
0.0244399 -3.29732
0.206144 -3.22628
-1.08791 -21.9576
-0.839016 -21.6726
0.928783 -13.4258
0.717715 -13.689
-0.00029616 -0.0756833
0.0106723 -0.0468246
0.451077 -13.2554
0.135175 -13.3718
0.6355 -9.53206
0.669392 -9.83998
0.410694 -0.996209
0.399262 -0.883357
-0.0507428 -0.0200909
-0.0222873 -0.00521317
-0.0915365 -7.86451
-0.373373 -7.89345
1.48499 -15.6889
1.16754 -15.5196
0.338661 -2.71426
0.189989 -2.81299
-0.598046 -16.4577
-0.614585 -16.8195
-1.69062 -24.674
-1.45331 -24.9711
-0.117211 -2.32363
0.0396291 -2.26141
0.666781 -1.78246
0.818125 -1.78974
-0.711141 -1.50745
-0.611014 -1.58646
0.996744 -7.95541
0.791844 -7.74511
-0.0436939 -22.6568
-0.131716 -22.2871
1.51496 -13.6894
1.31442 -13.4025
0.987438 -7.79089
1.124 -7.55344
0.697699 -1.7252
0.635422 -1.57815
0.895484 -6.25436
1.1023 -6.11503
0.00124387 -0.679396
-0.0634207 -0.755321
-1.14477 -8.65273
-0.850486 -8.62631
-0.307024 -12.7348
-0.533502 -12.4899
-0.326005 -1.20475
-0.267036 -1.08478
-0.01078 -0.0026595
-0.00322926 -0.000174492
-2.04851 -12.6355
-1.84483 -12.8936
-0.850245 -3.77119
-0.66554 -3.65084
0.0622999 -19.2557
0.258465 -19.574
-0.466546 -6.45059
-0.556659 -6.7048
-0.0213164 -2.39537
-0.159813 -2.29728
1.05006 -2.7643
1.05472 -2.94965
0.878558 -2.27896
0.86812 -2.44574
0.223593 -14.0319
-0.0806213 -14.1905
0.288102 -0.384256
0.361727 -0.397026
1.03392 -6.81602
0.766746 -6.82514
-0.682852 -1.40909
-0.624791 -1.27237
-0.581959 -7.82944
-0.640091 -7.55364
-0.347225 -0.694795
-0.418604 -0.785895
-1.30301 -13.5706
-1.50574 -13.854
0.161941 -2.22615
-0.000213448 -2.18975
1.0108 -17.5711
0.649937 -17.5037
0.244482 -4.50563
0.191163 -4.72958
-0.232901 -13.1204
-0.44968 -12.8619
-0.463503 -2.19474
-0.42401 -2.35507
-1.5901 -11.2482
-1.2681 -11.2845
0.292088 -16.2376
0.185473 -16.5813
0.255994 -17.3199
-0.101788 -17.2714
-1.65467 -19.5636
-1.28515 -19.5256
-0.368898 -0.90365
-0.409133 -0.816689
0.141964 -0.0790641
0.190337 -0.105128
-0.0734615 -7.73059
-0.130021 -7.45358
0.706063 -6.59904
0.630221 -6.3397
-0.145386 -0.21196
-0.129212 -0.258217
0.926198 -21.2144
1.17656 -21.4992
-0.748951 -14.4342
-1.05968 -14.2856
-2.65821 -24.0622
-2.3723 -24.3125
-1.52162 -9.62147
-1.30591 -9.39187
-0.139879 -0.118642
-0.190272 -0.145448
-0.566827 -7.00209
-0.296526 -7.0175
0.0718662 -0.0543438
0.0626553 -0.0723288
-0.627518 -22.5566
-0.760732 -22.2016
1.31864 -18.412
1.40035 -18.7787
0.780011 -2.45103
0.911042 -2.59544
-0.240923 -0.778869
-0.317932 -0.865986
0.539116 -18.1294
0.302862 -18.4166
-0.838615 -22.9932
-0.512323 -23.1836
-1.29178 -19.2214
-1.52074 -19.5176
-1.05885 -18.8568
-1.17808 -19.2093
-2.24528 -15.8994
-2.5425 -15.7128
0.572377 -11.5976
0.89425 -11.6653
-1.15703 -11.6722
-1.28263 -11.9815
0.850283 -12.2612
0.959858 -11.9508
-0.901753 -9.31553
-0.699571 -9.0857
-0.883264 -9.11593
-0.664435 -8.90529
0.292303 -1.17737
0.247146 -1.05594
-1.12327 -7.54872
-1.39691 -7.63644
-0.868669 -15.5555
-0.549603 -15.4023
0.52772 -3.42396
0.368494 -3.28945
0.862464 -21.4358
1.19057 -21.6246
0.0394241 -0.109942
0.024348 -0.148699
-0.129492 -0.593066
-0.148554 -0.688055
-1.38878 -5.07447
-1.15648 -4.96924
-1.09279 -5.15686
-1.29395 -5.32383
0.53946 -1.45503
0.676428 -1.45455
1.2567 -14.5813
0.909045 -14.5666
1.27774 -6.72722
1.30383 -6.46432
-1.09764 -19.1453
-0.834517 -19.403
-1.28781 -23.0403
-1.46152 -22.7033
0.627635 -13.0053
0.669857 -12.6708
-0.313318 -2.3568
-0.297004 -2.5306
-0.146698 -6.58852
-0.410069 -6.56925
0.149098 -22.1391
0.312808 -22.4816
-1.30703 -12.3499
-1.06357 -12.1163
0.067707 -5.97459
0.282001 -5.84351
-0.14324 -0.0747996
-0.101638 -0.0485292
-0.385618 -15.3275
-0.706526 -15.4742
0.0162899 -13.9013
0.0301052 -14.2483
-0.229526 -3.77327
-0.0836554 -3.92653
0.289418 -14.5041
0.0432551 -14.7486
0.598258 -21.9908
0.639259 -22.3684
1.12095 -8.21511
1.30673 -8.00926
1.36609 -18.0074
1.2432 -18.3565
-0.0210059 -12.9659
-0.0616302 -13.3037
0.532066 -13.0239
0.196189 -13.024
0.712428 -14.0864
0.858208 -13.7772
-0.80417 -4.50439
-0.899619 -4.30801
0.219457 -13.8766
0.165534 -13.5355
0.0363257 -4.48827
0.166731 -4.30596
1.60308 -20.1716
1.34544 -20.4406
-0.181815 -4.38625
-0.402962 -4.41327
0.462508 -12.1318
0.684029 -12.3858
0.500824 -0.991769
0.421854 -1.05732
0.949352 -8.3764
0.746742 -8.57669
-1.37078 -5.74326
-1.12163 -5.77631
-1.87528 -18.9975
-2.18628 -19.2081
0.633259 -22.3204
0.605928 -21.9417
-1.2284 -9.12371
-0.937783 -9.03533
1.00593 -9.57654
1.27744 -9.73643
1.06654 -6.71145
0.834705 -6.56106
2.20543e-05 -21.0334
-0.148961 -20.687
-1.81664 -21.1245
-1.50671 -20.909
1.03854 -8.6979
1.17735 -8.97065
-2.62774 -18.6505
-2.39478 -18.3538
-1.12146 -9.21529
-1.01881 -9.49748
-0.321879 -2.01874
-0.451424 -1.94312
1.10743 -9.82022
1.41573 -9.86477
0.901987 -18.0209
1.17592 -17.7788
-0.637717 -3.03412
-0.45939 -3.0907
0.115024 -0.526507
0.0530254 -0.581274
0.451356 -1.19864
0.394568 -1.30507
-0.114467 -0.106946
-0.141208 -0.150709
0.120346 -0.94499
0.1776 -0.85571
-0.0267993 -0.374864
-0.0832609 -0.428513
0.0909712 -0.103823
0.0675341 -0.0670966
-1.24857 -6.03941
-1.13138 -5.80041
-0.248068 -0.365077
-0.186417 -0.38026
-0.793622 -16.2411
-0.863094 -16.5956
-1.00814 -5.16322
-1.03224 -5.41347
0.500702 -0.657138
0.581172 -0.747244
-1.02343 -16.5553
-1.32015 -16.3561
0.162852 -0.146139
0.120537 -0.141778
-0.0402484 -0.0145907
-0.0723144 -0.0335234
-1.05947 -10.172
-1.05661 -10.488
0.067871 -0.0759044
0.0822969 -0.0618781
0.645688 -18.0284
1.01112 -17.991
-1.15689 -10.8904
-1.03816 -10.5838
0.0227067 -0.0131941
0.0193407 -0.0262297
-1.82587 -19.9862
-1.45824 -20.042
-0.776816 -10.3397
-0.92156 -10.0645
-1.30099 -21.7242
-1.66777 -21.8105
-0.694851 -3.50176
-0.896632 -3.48666
-0.961689 -25.0959
-1.02356 -24.7194
0.834571 -6.49484
0.792918 -6.231
0.352721 -0.439548
0.314325 -0.364297
0.151078 -0.402614
0.206545 -0.470853
-2.62887 -25.6142
-2.26845 -25.4892
-1.93417 -24.2502
-2.31356 -24.2649
0.168452 -16.7201
-0.188908 -16.7113
1.11213 -7.9665
0.828505 -7.97567
-1.16658 -19.5299
-1.48154 -19.731
0.0013561 -20.0534
0.372578 -20.0347
0.0303828 -9.29452
-0.269244 -9.28769
-1.24766 -24.8085
-1.19272 -25.1861
0.909133 -20.2382
0.551836 -20.1251
0.920108 -16.1097
0.611777 -15.9244
-0.343914 -20.294
-0.317664 -19.9196
-0.00547734 -22.2405
0.0930131 -21.8744
0.917558 -3.59736
0.79927 -3.41369
-0.113897 -3.08167
-0.288779 -3.00904
-0.28874 -2.69895
-0.185702 -2.54572
0.31976 -12.1102
0.0174668 -11.9805
-2.35692 -24.478
-2.49419 -24.1227
0.127384 -0.562875
0.0707812 -0.492281
1.45216 -11.1093
1.6071 -10.8339
0.872737 -11.2258
1.19053 -11.1775
-0.641653 -4.96129
-0.691797 -5.20684
-1.22192 -12.6062
-0.922789 -12.4508
-1.37572 -25.3367
-1.0394 -25.5096
-0.945031 -1.9748
-0.782784 -1.94627
-0.477282 -12.8515
-0.693065 -13.1134
-1.71843 -24.8336
-1.91757 -25.159
-1.48974 -7.11705
-1.55616 -6.86024
-0.912148 -6.27062
-1.15914 -6.37932
-1.41353 -10.9611
-1.55327 -10.6765
0.87492 -11.5043
0.692093 -11.7728
-0.162206 -12.9916
-0.037128 -12.6787
-2.52304 -24.4411
-2.20432 -24.6484
-1.38677 -6.41668
-1.53671 -6.6513
-2.11051 -20.9265
-2.46436 -21.0594
1.48285 -7.35804
1.2458 -7.19184
-0.674058 -5.8973
-0.86255 -5.74062
0.341949 -1.24389
0.463412 -1.2201
-0.122224 -3.94154
0.025538 -4.10028
0.318016 -14.4137
0.173152 -14.7302
0.00276998 -0.000402107
0.0122192 -0.00860078
0.49879 -17.3939
0.484845 -17.0287
1.07173 -4.78397
1.03847 -4.54885
0.590686 -3.64173
0.752035 -3.79275
-0.0127645 -0.591571
-0.0160719 -0.687121
0.816822 -14.8345
1.09048 -14.6249
0.868488 -2.32185
0.712225 -2.36149
-0.0311339 -3.74234
-0.137565 -3.5628
0.331712 -2.88346
0.309491 -3.07268
1.38249 -14.5277
1.61309 -14.2766
0.157352 -0.118044
0.145585 -0.141708
-1.06465 -15.6854
-0.846602 -15.9651
-0.107289 -0.790016
-0.153502 -0.890383
-0.0543093 -0.215756
-0.0112635 -0.180464
0.664936 -3.26999
0.641822 -3.4677
1.14027 -20.9784
0.80556 -20.8043
-0.818663 -8.57247
-0.792885 -8.27945
-0.426062 -7.80522
-0.463276 -8.09084
0.800433 -11.2519
0.515543 -11.4029
0.783614 -1.51514
0.723125 -1.62792
-0.262433 -0.371389
-0.279518 -0.31997
-0.571234 -8.05906
-0.61011 -8.34805
-1.43973 -12.6493
-1.66669 -12.9071
-0.0505863 -0.207413
-0.105322 -0.225506
0.0548563 -2.34373
0.201156 -2.43968
-2.48863 -24.9165
-2.20845 -24.6575
-1.15854 -15.8008
-0.927112 -15.528
0.510882 -1.06592
0.634814 -1.12637
0.29109 -0.81302
0.351741 -0.746011
0.156193 -0.564796
0.173256 -0.658095
-0.942895 -2.2915
-0.844298 -2.40934
-1.43248 -16.3209
-1.24844 -16.6282
-0.444311 -17.3413
-0.770268 -17.4881
-2.09011 -22.7718
-1.94234 -23.121
-2.00105 -15.6104
-2.25582 -15.8692
-2.86322 -22.3898
-2.66458 -22.0643
0.627025 -14.5581
0.673814 -14.9073
-0.616197 -15.0947
-0.921944 -14.9263
-2.87292 -21.1088
-2.56802 -20.8818
-0.0433742 -0.0184699
-0.0230465 -0.00773766
-1.40219 -5.55941
-1.53411 -5.36355
0.00148916 -0.762781
0.0222809 -0.86798
1.11158 -6.35777
1.0552 -6.09688
-0.607449 -1.28993
-0.721387 -1.39936
0.462646 -6.63238
0.203087 -6.67834
0.436966 -0.714189
0.337699 -0.696436
1.42544 -18.7269
1.53664 -19.0864
-0.486198 -1.6561
-0.380693 -1.53914
-0.026844 -0.89852
-0.0101029 -0.790809
-0.0265854 -0.278103
-0.0408907 -0.345289
0.897674 -16.0245
1.25045 -16.0877
0.654044 -3.46122
0.857144 -3.47886
-0.0507707 -0.0680275
-0.0860541 -0.0836576
0.606287 -14.6715
0.700786 -15.0124
-0.300617 -0.807628
-0.196294 -0.792991
-1.42009 -8.02152
-1.62431 -7.8377
0.141337 -0.719701
0.0465947 -0.732473
-2.09884 -24.554
-2.00841 -24.183
-2.18214 -21.7073
-2.55948 -21.7234
0.2342 -4.98391
0.467173 -5.06063
-0.0230023 -6.65248
-0.101308 -6.39756
-2.45771 -17.1634
-2.09404 -17.1081
-0.527897 -4.32608
-0.31138 -4.3717
-0.688725 -4.36122
-0.472374 -4.41324
0.778161 -17.3238
0.632393 -17.6588
0.949004 -2.24552
0.950433 -2.4132
1.1564 -16.6192
0.876415 -16.3858
0.430845 -6.42951
0.295752 -6.19954
-2.25229 -19.0467
-2.36886 -19.4035
-0.0176292 -8.66753
0.108474 -8.93869
-0.940279 -1.94294
-0.893978 -2.07958
1.18918 -11.153
1.40125 -10.9188
1.022 -11.2189
0.832708 -10.9446
-2.45998 -22.793
-2.50697 -23.1709
0.17646 -4.60439
0.401552 -4.57845
0.598242 -7.59266
0.328444 -7.51219
0.31486 -0.542175
0.34776 -0.482662
0.534305 -7.6066
0.789019 -7.73798
-0.129821 -0.0726619
-0.111504 -0.0736732
-0.36604 -7.1351
-0.470906 -6.88459
-0.501296 -4.69922
-0.665514 -4.87773
-0.199942 -16.6268
0.112132 -16.8032
-1.05308 -23.5837
-1.33417 -23.33
0.432069 -0.6384
0.518495 -0.635124
-0.5477 -4.42218
-0.742634 -4.55413
-0.804463 -4.26767
-1.00422 -4.39474
0.763455 -3.34318
0.957123 -3.42779
0.550838 -11.8115
0.748984 -12.0823
-0.645764 -3.41042
-0.82772 -3.52373
-1.38727 -5.4108
-1.14031 -5.34257
-1.72052 -12.8778
-1.56671 -13.1732
0.890076 -15.92
1.24549 -15.951
-1.41291 -9.45001
-1.7151 -9.41876
-0.105238 -16.2019
0.244603 -16.2687
-0.199968 -4.37482
-0.418856 -4.41966
0.748002 -3.8885
0.624522 -3.70311
-0.0948653 -0.0793324
-0.0914354 -0.0573015
0.13577 -3.21215
0.176552 -3.41068
0.442217 -1.23825
0.3452 -1.31022
0.87279 -5.09733
0.636769 -5.1315
0.31775 -10.1972
0.160763 -9.92681
-1.71431 -10.4431
-2.01809 -10.5672
0.287788 -0.491248
0.248527 -0.411712
-1.24524 -5.66513
-1.03419 -5.78749
0.424036 -4.88986
0.648904 -4.98931
-1.23696 -3.33156
-1.11704 -3.47101
-1.83528 -18.8365
-1.54333 -18.6023
-0.250131 -14.5499
-0.562969 -14.4011
0.384621 -2.42557
0.393512 -2.2545
0.474737 -17.0708
0.80412 -17.2293
-1.58565 -9.93292
-1.74085 -10.2153
0.446731 -9.59482
0.696149 -9.78063
-2.2074 -19.1549
-2.19107 -19.5274
0.316343 -1.52357
0.41161 -1.43125
-2.53323 -25.592
-2.81728 -25.3365
0.281059 -10.1103
0.568297 -10.2365
-0.857781 -7.96039
-1.09807 -8.12981
1.29818 -23.0292
1.52379 -22.7248
0.276191 -0.612632
0.365219 -0.614589
0.00825215 -0.288418
-0.0377081 -0.337602
0.0993077 -3.05941
-0.00281784 -2.896
0.856788 -19.7328
0.684725 -20.0634
-0.0745206 -1.07735
0.0221256 -1.13252
-2.55146 -19.3386
-2.29473 -19.6047
-0.0461166 -0.240394
-0.0318889 -0.184201
0.128224 -22.1899
-0.0558546 -21.8587
0.83086 -4.29497
1.04945 -4.27359
-0.653451 -3.79051
-0.749207 -3.99094
1.20873 -10.9277
0.96097 -10.7087
-1.94847 -23.253
-2.31537 -23.3507
-0.249597 -24.5579
0.128962 -24.5487
-1.38551 -12.9596
-1.64937 -13.1817
1.21794 -7.28145
0.999198 -7.43455
0.521535 -13.6479
0.856298 -13.7231
-0.804316 -8.10142
-0.922453 -8.37159
-1.19475 -9.392
-0.922404 -9.24785
-0.597114 -19.5269
-0.790825 -19.846
0.821065 -10.0024
1.0853 -9.85291
-2.31178 -24.7792
-2.68132 -24.6881
-0.255251 -1.28075
-0.288438 -1.15786
0.912289 -22.0367
1.25326 -21.8768
1.26756 -18.0849
1.62849 -18.1771
1.14633 -5.15904
1.0541 -5.3783
-1.10526 -3.81247
-1.19829 -4.01891
0.499426 -2.86814
0.618281 -2.74015
0.720185 -5.50436
0.821804 -5.74485
-1.56393 -9.20509
-1.73646 -8.97157
0.0110146 -1.9481
-0.0306474 -1.79695
0.750791 -11.8696
0.889748 -11.5742
-0.462483 -7.47615
-0.203483 -7.57618
-1.36274 -18.4519
-1.70377 -18.3116
0.235145 -0.166447
0.202925 -0.124875
1.56867 -19.5109
1.21238 -19.6176
0.511644 -7.07313
0.323161 -7.26628
1.17948 -6.35279
1.37552 -6.55121
1.63975 -17.1583
1.50817 -16.8138
-0.300213 -3.62569
-0.472514 -3.52182
-1.66761 -24.458
-1.33169 -24.6332
0.264435 -9.49194
-0.0231706 -9.39729
-1.09606 -21.3262
-0.904126 -21.6504
0.537979 -3.75098
0.476025 -3.546
0.215856 -0.28006
0.182718 -0.219806
0.259865 -2.81902
0.0814736 -2.76811
-1.37291 -4.21481
-1.21348 -4.03626
0.303552 -21.9252
-0.0452509 -21.783
-0.33376 -7.91189
-0.587086 -8.04838
-0.705257 -13.884
-1.04766 -13.905
-0.413371 -21.5159
-0.654022 -21.8069
-2.3941 -22.5603
-2.40401 -22.1809
0.765181 -1.89473
0.655013 -1.9824
0.864399 -13.5557
0.5636 -13.7094
-0.303674 -1.896
-0.315768 -2.05646
-0.0390012 -0.0175006
-0.0669923 -0.0293013
0.411968 -1.1266
0.302077 -1.04911
-0.131063 -0.939582
-0.188757 -0.851014
-1.32361 -12.084
-1.07477 -12.2946
-0.88063 -6.24076
-1.11861 -6.15322
-1.78086 -24.6831
-1.57134 -25.0008
0.183578 -18.8118
0.26474 -19.1766
0.458374 -0.630126
0.410082 -0.540212
1.15756 -5.43004
1.03296 -5.2005
1.03579 -3.10422
0.84558 -3.11276
-0.652048 -20.8827
-0.280475 -20.8458
-1.67543 -13.1405
-1.33975 -13.1762
-0.851188 -3.0699
-0.708689 -2.92195
-2.29111 -20.2224
-2.30022 -20.5979
0.0997918 -0.107837
0.118142 -0.0922432
1.29814 -9.45471
1.2367 -9.15287
-0.573129 -2.03807
-0.735701 -2.0566
-1.66172 -13.303
-1.3273 -13.2311
-1.51853 -18.3035
-1.88755 -18.2826
-1.64517 -16.0959
-1.54907 -15.7491
-1.11301 -8.06632
-1.38146 -7.98081
0.4594 -1.05333
0.558218 -1.01539
0.410616 -7.41563
0.362508 -7.13995
0.0557554 -4.78206
0.254399 -4.90047
-0.249535 -0.440149
-0.183169 -0.381707
-0.473353 -0.718077
-0.538752 -0.817183
0.625748 -23.3371
0.488011 -23.6921
-0.905744 -4.26688
-1.09905 -4.17729
1.08614 -24.3507
0.875841 -24.669
0.40454 -8.46288
0.39061 -8.75835
-1.07892 -10.8511
-0.774658 -10.7277
-0.535511 -4.8523
-0.346867 -4.70858
-1.3597 -12.0473
-1.18703 -12.3247
0.871446 -3.06953
1.00532 -3.23457
-1.6714 -13.1844
-1.88715 -12.9325
-0.766338 -14.6493
-0.978693 -14.3756
0.686574 -3.73674
0.837487 -3.9037
-1.35935 -6.70907
-1.09525 -6.63631
0.715703 -5.39487
0.84591 -5.19369
-0.480277 -2.81514
-0.616249 -2.95922
-0.734598 -21.9785
-1.07388 -22.1435
1.32922 -16.9751
1.22293 -17.322
0.828848 -22.2821
0.456803 -22.2176
1.35573 -10.0328
1.04495 -9.99502
-0.248995 -0.800926
-0.17843 -0.870346
0.394489 -3.39298
0.202225 -3.32968
-0.931124 -14.4094
-1.0835 -14.7265
-1.50235 -5.06932
-1.26178 -5.08863
-0.295888 -0.497076
-0.253447 -0.417884
-0.277234 -4.06131
-0.308607 -4.28228
-0.339572 -0.865388
-0.279483 -0.766715
0.141474 -0.317829
0.152669 -0.260779
-2.02186 -20.8605
-2.33158 -21.0784
-2.76739 -22.8313
-2.93882 -22.4942
-2.03792 -15.5814
-2.32987 -15.3899
0.0447161 -0.234945
-0.00273979 -0.267081
-0.0850644 -1.05521
-0.0867054 -1.17537
-0.819738 -6.96316
-0.758056 -6.69635
-0.94312 -2.87133
-1.06726 -2.75756
-1.54394 -23.7579
-1.51908 -24.1385
0.574167 -2.92732
0.386915 -2.92193
-1.25813 -15.5334
-0.913485 -15.6072
-0.413695 -7.756
-0.276991 -7.50702
-0.583601 -2.95412
-0.407921 -3.01231
-0.929147 -21.9222
-0.619475 -22.1363
1.41917 -7.86647
1.21309 -8.04718
-0.657211 -1.99022
-0.789558 -1.92984
1.07596 -6.99989
1.07023 -6.72801
-0.725811 -14.0938
-0.622627 -14.4251
0.398795 -3.56396
0.319744 -3.75339
1.17753 -19.9105
0.953111 -19.6078
0.575972 -22.057
0.947003 -21.9917
-2.61241 -25.2336
-2.9791 -25.127
-1.72561 -10.8221
-2.03148 -10.9505
0.601232 -13.4113
0.647156 -13.753
-0.282082 -6.90893
-0.0466684 -7.04261
0.953997 -21.9328
0.88138 -22.3047
-1.77845 -13.026
-1.52622 -13.2429
-0.404694 -4.12643
-0.582338 -4.26686
0.084865 -0.324532
0.0812265 -0.259217
-1.61778 -18.8964
-1.29422 -18.712
0.0166984 -0.00549043
0.00502982 0.000316556
0.155361 -2.34989
0.311446 -2.29435
0.947313 -17.355
1.05865 -17.709
-0.0714604 -0.627309
-0.163006 -0.641474
0.351334 -1.19347
0.223237 -1.19689
-0.400611 -9.64087
-0.599138 -9.87759
-0.110908 -12.6204
0.216386 -12.6838
0.474486 -12.9562
0.537088 -12.6256
0.935252 -17.8242
1.30163 -17.8045
-0.103242 -0.37658
-0.0505152 -0.323299
1.2337 -15.8328
1.14156 -15.4856
-0.327726 -2.41556
-0.386625 -2.58721
0.168592 -4.24207
0.245559 -4.03678
0.458547 -12.4861
0.738065 -12.3137
0.940633 -11.8135
0.817161 -12.1172
0.852694 -2.38665
0.707967 -2.45507
0.249394 -2.82019
0.386725 -2.95784
-0.646663 -15.2633
-0.545184 -14.9244
0.639365 -5.05408
0.561466 -5.28451
-0.0624515 -20.9227
0.30288 -20.8442
-0.0974439 -0.343636
-0.150746 -0.315347
0.64953 -4.25215
0.568876 -4.45673
-0.844746 -5.48821
-0.596452 -5.42983
0.241593 -1.01066
0.247315 -0.898043
-1.5467 -20.8471
-1.71837 -20.5147
-2.01841 -13.4809
-1.82609 -13.7565
0.975937 -4.91609
1.20033 -4.86421
-0.211952 -0.126555
-0.160146 -0.0972871
-0.362786 -4.88755
-0.527308 -5.06979
-0.294795 -3.1786
-0.396868 -3.0189
-0.142788 -3.08396
-0.0877648 -2.89873
1.36006 -9.96322
1.07169 -9.83101
-0.842491 -2.78168
-0.656895 -2.744
1.07101 -7.58241
1.08698 -7.3041
-1.58299 -10.6412
-1.64772 -10.9622
0.213252 -12.7419
0.463143 -12.5244
0.127699 -0.469149
0.182643 -0.425876
-0.841232 -20.8332
-0.761346 -20.4649
1.51202 -15.6468
1.68265 -15.9672
1.37001 -9.99374
1.58299 -9.78422
0.669214 -3.0406
0.478941 -3.03806
-0.533589 -9.1019
-0.329493 -8.88075
-0.0722818 -0.186205
-0.0692591 -0.240813
-0.515827 -15.4693
-0.198859 -15.6244
0.0540576 -0.215712
0.0231651 -0.262088
0.712809 -12.0345
0.700846 -11.7026
-1.77815 -12.8803
-1.85054 -13.2143
-1.32953 -21.9119
-1.49348 -22.2546
-0.0461758 -0.0564313
-0.0193572 -0.0400126
0.719517 -6.51711
0.457197 -6.52591
0.331726 -12.1617
0.0584012 -12.3437
-0.682571 -19.9592
-0.908211 -19.6638
0.0314429 -0.0660965
0.0645221 -0.0803374
-0.0693365 -2.57382
-0.210658 -2.47146
1.05639 -9.73334
1.16402 -10.0313
-2.01402 -22.5628
-2.35097 -22.3935
-0.15275 -0.249895
-0.213511 -0.293379
0.46869 -3.6476
0.394954 -3.44899
1.30758 -7.36328
1.03064 -7.33451
-0.691506 -11.9794
-0.370929 -11.916
-0.384415 -12.8987
-0.155731 -13.1473
-0.753201 -23.8578
-0.633372 -24.2195
-1.08561 -13.2872
-1.12816 -12.9512
-0.299999 -5.97943
-0.552658 -5.99001
-0.700833 -4.77961
-0.474798 -4.70284
0.306909 -0.898875
0.33026 -0.800615
-0.616233 -23.499
-0.732177 -23.8624
0.870812 -12.7029
1.13628 -12.5087
1.07082 -6.79685
1.30763 -6.94983
0.0752253 -0.0498482
0.0585267 -0.0564777
-1.06719 -18.9642
-1.42602 -18.8872
-0.198669 -4.68385
-0.173723 -4.9136
0.464218 -1.01932
0.382237 -0.917783
1.31294 -14.0564
1.26799 -13.7119
0.61741 -1.59944
0.495673 -1.49631
-0.459152 -3.88794
-0.672968 -3.89638
-0.4865 -12.2806
-0.178446 -12.1629
-0.0207584 -0.00791343
-0.00142688 -0.000696827
-2.30317 -19.7252
-2.00438 -19.4956
0.0198275 -0.453542
0.0710025 -0.399769
0.0214396 -0.0179653
0.0250015 -0.0391171
-0.923998 -12.8899
-1.25157 -12.9745
-0.48462 -0.711116
-0.463752 -0.618817
-0.183675 -6.54166
0.00059196 -6.73504
-1.26015 -7.42333
-1.52629 -7.35974
0.254449 -20.3891
0.16389 -20.024
-0.296059 -6.00177
-0.323295 -6.26044
1.02217 -4.29435
0.799916 -4.29681
-0.682785 -6.06135
-0.848304 -5.8768
-0.647388 -25.0237
-0.426819 -25.3327
-0.415007 -2.24286
-0.400177 -2.41216
0.0748159 -0.0348885
0.0661537 -0.0382436
0.760889 -16.4869
0.403214 -16.4594
-0.211909 -4.64079
-0.0790752 -4.45549
-0.708033 -3.5087
-0.914421 -3.53157
-0.364279 -3.06428
-0.548854 -3.13711
-0.0037605 -0.137549
-0.0356016 -0.17582
0.309427 -7.67182
0.0294132 -7.66927
0.246463 -0.998622
0.226846 -1.11389
0.00393184 -0.00654925
0.0164326 -0.00976758
0.00282203 -0.00219896
0.0141031 -0.0101333
-0.578231 -4.56914
-0.450367 -4.75779
-1.39919 -6.71232
-1.46951 -6.46329
-0.702909 -24.6343
-0.672175 -25.0148
-1.8277 -18.6041
-1.87426 -18.975
-0.713251 -1.31649
-0.740263 -1.45506
1.46414 -24.2947
1.29649 -23.9516
-0.534983 -1.79318
-0.420369 -1.87572
0.835205 -19.0581
0.464105 -19.0585
-0.558232 -7.07769
-0.805349 -6.97336
-0.048493 -12.3892
0.160323 -12.652
-0.0770485 -2.33833
-0.0411517 -2.17207
-1.20086 -9.26508
-1.45596 -9.11703
-0.0696546 -0.0334835
-0.0842872 -0.0391532
0.633707 -1.17424
0.64637 -1.30436
-0.668529 -5.92115
-0.554682 -6.14667
-0.202926 -13.6569
-0.344961 -13.9709
-0.0618916 -6.14495
-0.22177 -6.35156
1.38578 -6.25647
1.18833 -6.06485
-1.10789 -18.9712
-1.10726 -19.3429
-0.31049 -2.4401
-0.413951 -2.31061
-2.76366 -21.9542
-2.91139 -21.608
-2.31209 -23.0379
-2.03183 -22.7799
-1.69286 -15.3954
-1.63693 -15.7451
-0.138427 -8.5383
-0.106576 -8.24665
-0.12049 -0.279317
-0.0803415 -0.321015
-0.169458 -0.220882
-0.11358 -0.206975
1.18646 -14.9808
0.982349 -14.6888
0.0060119 -0.0189187
0.0249043 -0.0315933
-0.643746 -22.1805
-0.347254 -22.414
-1.07642 -22.8688
-0.900426 -23.205
-0.691278 -1.39516
-0.694034 -1.26544
0.300138 -0.384285
0.377676 -0.437787
-0.471677 -0.633495
-0.37821 -0.576301
-0.347649 -2.72458
-0.524369 -2.79049
-0.77838 -3.23385
-0.591579 -3.28084
-0.0220987 -0.0084959
-0.0075621 0.000175345
-1.74481 -8.6245
-1.69123 -8.91105
0.344475 -0.518951
0.434206 -0.565738
-1.67091 -10.1234
-1.86035 -10.3896
1.34775 -22.2286
1.01112 -22.3993
-0.0563738 -0.489145
-0.0633892 -0.576703
1.44652 -12.1147
1.30141 -12.4083
0.292626 -2.72022
0.205324 -2.87972
1.4077 -18.4769
1.08585 -18.6569
-0.785981 -19.3987
-1.03416 -19.1263
-0.190603 -0.119144
-0.178954 -0.134342
0.215811 -0.562856
0.193745 -0.476656
-0.945422 -25.4802
-1.31838 -25.4219
1.43516 -11.0343
1.1368 -11.1435
-1.30267 -10.1178
-1.17459 -9.82805
-0.0266946 -2.39773
0.0889079 -2.27311
-2.72502 -21.228
-2.36551 -21.3368
0.535245 -14.6361
0.412824 -14.9633
-0.459442 -15.6312
-0.175776 -15.844
1.36311 -8.92012
1.22476 -8.64649
-0.492482 -8.36163
-0.672785 -8.597
0.438497 -2.26083
0.320523 -2.13123
-0.0481507 -7.01726
-0.0877893 -7.29069
-0.222999 -2.56438
-0.356753 -2.45736
-1.62722 -6.42684
-1.61642 -6.16566
-1.75515 -11.7996
-1.44098 -11.6849
-1.78885 -12.6816
-1.501 -12.4968
0.473307 -1.46492
0.446645 -1.3219
-0.230914 -22.6002
-0.578287 -22.7482
-0.555709 -8.53651
-0.520483 -8.24478
-0.964999 -3.97661
-0.753703 -3.90417
1.12347 -14.9806
1.30872 -15.2873
0.57659 -2.65198
0.736806 -2.76227
-0.965129 -14.1615
-1.28792 -14.2919
-0.164766 -0.347317
-0.237022 -0.380318
0.3243 -3.43395
0.149491 -3.52942
0.493812 -2.00758
0.367616 -2.08977
-1.64127 -6.89786
-1.38757 -6.77375
-0.112757 -0.0670687
-0.121857 -0.0911778
0.141885 -4.18363
-0.0432535 -4.06717
-2.31782 -17.4227
-2.04551 -17.6624
0.445757 -0.458526
0.373106 -0.389284
1.38397 -13.7871
1.16638 -13.5128
-0.291239 -1.01941
-0.230124 -1.11485
0.11595 -0.92797
0.0152098 -0.890148
-1.36587 -10.5702
-1.32767 -10.2526
-0.528072 -2.15241
-0.419293 -2.01743
0.693674 -11.0932
0.655924 -10.7664
0.952063 -5.03317
1.16779 -5.17116
1.17347 -6.86538
0.920737 -6.9408
-1.20734 -4.20446
-1.17565 -4.42008
-0.655909 -24.6604
-0.997559 -24.4981
-1.04685 -11.6312
-1.129 -11.9529
-2.16487 -20.0195
-2.03381 -19.6668
-0.5794 -1.63114
-0.577786 -1.7777
-0.197071 -16.0718
-0.445104 -16.3296
0.765073 -20.4768
1.04077 -20.7347
-0.263586 -1.06474
-0.275654 -1.18927
1.3024 -20.7481
1.61339 -20.5416
-0.164747 -17.2846
-0.473649 -17.4638
0.661361 -12.8764
0.440541 -12.6173
-0.482478 -0.663254
-0.383667 -0.630879
-0.201753 -2.17476
-0.200409 -2.34464
0.534126 -25.2331
0.828197 -24.9898
-0.0151806 -3.90451
-0.132665 -4.0875
0.281197 -15.2041
0.60684 -15.3418
0.710572 -11.2652
1.00044 -11.1297
-1.25535 -9.37635
-1.55993 -9.41726
-0.294166 -4.24172
-0.488445 -4.3562
-1.9566 -16.7389
-1.97178 -16.3783
-0.263233 -0.773566
-0.313084 -0.875997
-0.502887 -3.58708
-0.688892 -3.69603
-1.06985 -14.067
-0.848661 -13.7986
-0.0943529 -6.41878
-0.0755962 -6.68529
-0.722587 -16.6616
-0.66679 -17.0199
-0.136096 -2.69959
-0.28056 -2.59695
0.192417 -0.158045
0.211767 -0.205664
0.412654 -1.06376
0.402305 -0.9468
1.21125 -24.2926
0.913659 -24.5306
0.797235 -12.3481
1.04736 -12.579
-0.789653 -2.46022
-0.950466 -2.4196
0.0383623 -0.757314
0.104026 -0.687435
-0.19697 -1.0315
-0.267305 -0.948211
-1.22394 -25.1279
-0.857413 -25.2192
-1.1026 -16.4787
-1.18461 -16.129
-0.183211 -4.65693
0.00171913 -4.78549
0.128786 -20.6618
-0.122164 -20.3824
-0.430659 -25.3847
-0.322933 -25.0185
0.461857 -6.13353
0.245853 -5.98968
0.036352 -13.5807
0.0806559 -13.9232
-1.27982 -12.1591
-1.54538 -11.9718
-2.15182 -16.754
-2.28695 -17.0965
0.66892 -14.0792
0.333863 -14.1507
-0.00499775 -2.98191
-0.177729 -3.06471
-2.01544 -10.9961
-1.78523 -11.2127
-0.747597 -24.6465
-0.513062 -24.3463
0.695205 -9.29436
0.76252 -9.59536
-0.963124 -7.45978
-0.770221 -7.65456
0.55085 -21.7709
0.632336 -21.4018
0.253676 -4.52575
0.0512521 -4.62353
-1.86392 -12.979
-1.7321 -13.2859
0.530608 -3.52207
0.33869 -3.57855
-0.891011 -5.21548
-0.645073 -5.16581
-0.448924 -3.59469
-0.467312 -3.39138
-0.615821 -8.03614
-0.718676 -8.31024
-1.87066 -13.5877
-1.57085 -13.4113
0.0165184 -0.00607438
0.00191989 -0.000336264
-0.100966 -2.46296
-0.22724 -2.59131
0.787908 -1.75134
0.807401 -1.90525
-2.05435 -17.3677
-1.989 -17.0056
-1.32114 -12.691
-1.5622 -12.935
0.561886 -1.58293
0.504033 -1.43994
1.06324 -24.9242
0.691844 -25.0098
0.0248097 -7.98226
0.212247 -7.77048
-0.759865 -3.92271
-0.548632 -3.86751
-0.930349 -4.2552
-1.08508 -4.11508
-1.04159 -4.16824
-0.882383 -3.99797
0.419277 -3.17496
0.28864 -3.31477
-0.12818 -0.0766513
-0.112517 -0.0831771
-0.151473 -0.990095
-0.259045 -1.04437
-1.16382 -22.1859
-1.51172 -22.0432
-0.301395 -1.72617
-0.387373 -1.62163
0.0254586 -12.0852
-0.302508 -12.0941
0.476673 -1.6738
0.493918 -1.53218
-1.57798 -23.7026
-1.82385 -23.414
0.826264 -9.33568
0.933377 -9.05805
-2.47865 -15.5899
-2.13861 -15.47
0.682524 -1.91574
0.715807 -2.07673
0.669739 -19.3413
0.60014 -18.9732
-1.28545 -12.2921
-1.00646 -12.4645
-2.27786 -21.6973
-2.46292 -22.0297
0.357595 -0.861318
0.271599 -0.780594
0.123415 -0.256276
0.110124 -0.198263
-0.0474852 -2.91458
0.128256 -2.85494
-0.606583 -3.5522
-0.482662 -3.71014
-0.133535 -6.44049
0.0878478 -6.30175
-1.63706 -23.1677
-1.77748 -22.8152
-0.184938 -19.8015
-0.30616 -19.4481
-0.0598473 -0.341132
-0.049426 -0.413355
-1.05611 -13.6249
-0.971122 -13.9573
-0.476902 -1.32376
-0.528104 -1.46417
0.213535 -0.422408
0.147415 -0.444296
-2.10299 -11.7129
-2.02528 -11.3888
-0.515228 -0.578724
-0.55605 -0.669549
-0.393614 -6.07111
-0.290571 -6.30909
0.368497 -0.797263
0.292358 -0.711035
-1.74901 -21.4704
-1.65607 -21.1034
0.085741 -24.2315
-0.027949 -24.596
1.57326 -16.1168
1.48716 -16.4633
0.683526 -4.67094
0.454488 -4.62049
-0.168126 -0.207888
-0.214749 -0.205402
-0.118696 -0.194161
-0.164285 -0.244322
-0.666512 -16.1207
-0.971092 -15.9384
0.627765 -2.01912
0.774727 -2.11803
-1.79296 -15.4358
-1.44779 -15.5064
0.0262516 -0.0160559
0.0159111 -0.00375232
0.731946 -3.94722
0.944985 -3.94175
-1.69796 -24.5841
-1.45295 -24.2923
0.198137 -0.190534
0.217986 -0.2444
0.132472 -3.50479
0.0919213 -3.30402
-1.62177 -20.4992
-1.34779 -20.7521
-0.99409 -2.60174
-1.05105 -2.78333
-0.159855 -0.382268
-0.233943 -0.396308
-0.750728 -3.00446
-0.898703 -2.90712
1.03597 -19.9168
0.687161 -20.046
1.12995 -6.78733
1.34505 -6.64808
0.0659848 -20.1327
-0.0888956 -20.4738
-0.531676 -1.89566
-0.551078 -1.74907
-0.446218 -0.802868
-0.418391 -0.701858
-1.18753 -24.975
-1.36786 -25.3108
-0.0426052 -0.0715277
-0.0119411 -0.0612617
-0.249337 -15.8758
0.0688618 -15.7211
1.33276 -14.7967
1.62389 -15.0046
0.606131 -9.55967
0.772562 -9.82481
-1.21739 -15.6897
-1.50479 -15.4874
0.696433 -6.97278
0.501989 -6.7746
-0.897039 -21.6661
-0.757659 -21.3142
-0.141604 -4.28136
-0.0232025 -4.47257
0.076086 -16.8591
-0.24611 -17.0177
-0.233562 -2.21264
-0.399155 -2.24248
0.232262 -0.837451
0.331864 -0.89906
-1.01036 -14.8183
-0.731807 -15.0275
1.50668 -18.059
1.50156 -17.6876
0.416562 -3.65411
0.278367 -3.80487
0.00871477 -0.00278469
0.0202198 -0.00676788
-0.768319 -12.4078
-0.649491 -12.7196
-0.429153 -2.01053
-0.573803 -2.10296
0.421058 -10.1754
0.111497 -10.1858
-1.38914 -20.9342
-1.40725 -21.3115
-0.147319 -0.0805232
-0.197794 -0.115968
-1.31304 -8.21847
-1.06788 -8.05076
-0.165853 -2.19494
-0.118804 -2.03563
-0.39913 -19.1836
-0.614437 -19.4852
0.0870937 -3.8812
0.29708 -3.91591
1.18851 -6.5971
1.1598 -6.33072
0.601434 -10.1366
0.727922 -9.85591
-1.16095 -14.2043
-1.13706 -13.8582
-0.107555 -4.68718
-0.298739 -4.80989
-2.17939 -20.2642
-2.26877 -19.902
1.36144 -9.21682
1.31768 -8.91578
-0.540509 -2.18159
-0.456443 -2.03024
-0.921262 -14.5043
-0.652176 -14.7228
-0.366226 -14.3399
-0.282237 -14.0026
0.511524 -9.85056
0.428299 -10.1492
0.481622 -24.0099
0.127967 -23.8734
-0.58396 -23.3694
-0.411186 -23.0302
0.4416 -1.95136
0.444754 -2.11281
-1.34126 -12.6532
-1.5723 -12.4199
-0.269044 -1.18595
-0.177605 -1.09196
-1.05478 -6.37532
-0.797181 -6.41137
-1.74367 -12.0852
-1.48453 -11.8671
-0.254894 -9.97195
-0.104072 -9.70213
0.462761 -0.490575
0.399511 -0.510842
-0.704151 -1.60069
-0.698822 -1.7441
0.841946 -3.25083
0.914818 -3.08165
-0.714065 -14.1988
-0.369675 -14.1938
-0.761512 -16.5257
-0.816739 -16.1696
-0.713371 -1.44382
-0.597348 -1.4962
0.914073 -8.21126
0.749023 -7.96556
-0.115256 -8.52046
0.074342 -8.74758
0.987374 -16.6524
1.3286 -16.7803
1.22313 -16.9965
1.12705 -17.3469
-1.75216 -10.7913
-2.00125 -10.6041
0.503684 -2.15572
0.611974 -2.05209
0.273897 -0.716961
0.259043 -0.620318
-0.538884 -25.0101
-0.883913 -25.1664
0.362466 -13.1054
0.635165 -13.3126
0.337525 -24.9071
0.416525 -25.2807
-1.32887 -22.6417
-1.33318 -23.0222
-1.5395 -14.3397
-1.71031 -14.0434
-0.895271 -10.285
-0.992363 -10.5903
-0.550011 -2.62471
-0.726543 -2.69227
0.218285 -4.61594
0.167609 -4.39173
-0.882996 -8.67241
-0.737009 -8.92675
-0.45112 -5.82914
-0.608477 -6.03309
-0.228941 -7.96822
-0.153716 -8.24755
1.44227 -14.7017
1.38186 -15.0461
1.03654 -20.2316
1.34159 -20.4539
-0.147832 -0.15378
-0.198432 -0.17051
-0.91263 -3.13182
-0.863874 -2.93983
-1.37216 -7.6969
-1.09442 -7.62432
-1.50373 -6.86025
-1.67219 -6.66815
0.149433 -0.595711
0.235916 -0.59052
-0.614586 -1.37224
-0.723562 -1.49004
-0.0125631 -0.80131
-0.0436139 -0.703926
-0.56766 -3.06122
-0.398568 -3.14208
0.322979 -12.9943
0.57943 -12.7821
-0.0720533 -0.780746
-0.160969 -0.742168
0.0645021 -0.378056
-0.00605939 -0.372473
-2.63691 -23.0006
-2.39977 -23.2958
0.314895 -13.8713
0.0202428 -14.0445
-1.36357 -5.90641
-1.48473 -5.69633
-0.428277 -1.80219
-0.532665 -1.71235
0.60752 -3.00981
0.631313 -3.20589
-0.313775 -2.9625
-0.405603 -3.13821
0.286147 -4.48875
0.226643 -4.26849
-0.964057 -6.17389
-0.865274 -5.9283
0.113971 -0.0578645
0.147859 -0.0882147
-1.2893 -4.24567
-1.32093 -4.03594
-0.307624 -0.808745
-0.203127 -0.790112
0.524593 -0.796354
0.581574 -0.903837
1.35401 -15.6517
1.31102 -16.0053
0.226605 -21.6831
0.34113 -22.0447
1.23412 -20.8131
1.59593 -20.7164
-0.670959 -22.2997
-0.910873 -22.5934
-0.590568 -8.77925
-0.402734 -8.54798
0.744724 -9.91909
0.714063 -10.2296
-1.26607 -9.18626
-1.52099 -9.04055
1.40418 -9.84236
1.60223 -9.62152
1.12354 -25.2458
0.960417 -24.9002
0.00684616 -2.12711
0.0571062 -1.9732
-0.307106 -0.254868
-0.256909 -0.19946
0.377078 -4.74162
0.607952 -4.72009
-1.57214 -12.8745
-1.87791 -12.7457
-0.732591 -2.79422
-0.547273 -2.7846
0.399591 -4.06932
0.185911 -4.03243
-0.325236 -0.302583
-0.331637 -0.35988
-0.89322 -3.56711
-0.975467 -3.39315
-2.1798 -22.6146
-2.35785 -22.9517
0.361161 -1.13993
0.448022 -1.07263
-0.646999 -1.3899
-0.737143 -1.3152
0.550278 -3.06502
0.539658 -2.87306
0.473412 -18.0514
0.473921 -18.427
0.0953313 -0.602799
0.00772424 -0.614353
-2.09642 -18.4843
-2.22223 -18.1363
-0.394576 -0.527155
-0.312774 -0.467282
0.546431 -0.863302
0.447773 -0.879795
-0.40893 -16.7501
-0.745739 -16.632
0.5164 -21.2414
0.209046 -21.4567
-0.0146501 -0.80032
-0.0218629 -0.909782
0.0757412 -0.170424
0.02998 -0.149501
0.301426 -14.2294
0.463362 -14.5406
0.849265 -18.1181
1.1824 -18.2848
0.872341 -24.5302
1.07461 -24.8539
1.04873 -14.2486
1.36363 -14.1175
-2.3257 -24.0951
-2.05466 -23.8268
-0.0462784 -0.100768
-0.0378995 -0.140134
0.181788 -0.145224
0.224931 -0.153614
-0.273354 -15.464
-0.270908 -15.8209
-1.90492 -13.548
-1.84123 -13.2101
-1.69998 -8.60343
-1.7801 -8.32952
-0.138659 -12.8706
0.195164 -12.8954
1.09829 -25.0366
1.28171 -24.7015
-1.34866 -8.1238
-1.1796 -8.3487
1.25503 -6.84687
1.17158 -7.09871
-2.19932 -13.0639
-2.20034 -12.727
-2.1535 -23.9051
-1.95956 -24.2322
0.171091 -2.59053
0.225227 -2.42394
0.734242 -11.9919
0.546871 -11.7143
0.0622189 -0.13
0.0262407 -0.147344
-1.37196 -19.9154
-1.08894 -20.1553
-0.0841509 -6.16357
0.0978464 -6.35154
-2.71394 -24.8554
-2.67087 -25.2351
1.62736 -19.2968
1.30993 -19.0943
-1.07418 -25.4442
-1.40465 -25.6295
-0.645485 -1.7718
-0.528811 -1.65475
-1.40868 -5.36188
-1.24451 -5.1561
1.18667 -18.0164
0.837282 -18.1278
-2.23513 -20.0515
-2.28853 -19.6822
0.604126 -2.43151
0.777111 -2.48681
1.30112 -8.03174
1.42019 -7.78252
1.00938 -7.07622
0.794281 -6.89409
0.17729 -0.504524
0.225456 -0.587043
0.763681 -23.3617
0.618703 -23.7137
-0.934829 -9.42213
-1.22658 -9.34867
-0.293418 -23.6849
0.0544839 -23.5352
0.247364 -14.479
0.0548748 -14.7688
-0.759589 -1.74029
-0.821361 -1.892
0.380021 -0.423023
0.321567 -0.443919
-1.48029 -9.15631
-1.76098 -9.29235
-0.447786 -4.16944
-0.620974 -4.31821
1.09508 -5.69591
0.999845 -5.45166
0.665315 -1.98594
0.508946 -1.9329
0.0745251 -8.76458
0.355868 -8.85824
-2.12812 -24.9649
-1.77359 -24.828
-0.930165 -10.0261
-0.623607 -10.0665
-0.102047 -1.81202
-0.246526 -1.77568
-0.311858 -19.7621
-0.524995 -19.457
0.057399 -0.174205
0.0194424 -0.203691
-1.11616 -8.44494
-1.40215 -8.39986
1.37191 -10.2744
1.11381 -10.4408
0.108815 -4.43635
-0.109542 -4.47295
0.525102 -23.4127
0.271561 -23.6957
-0.378695 -0.489865
-0.334516 -0.411079
-2.70272 -18.5549
-2.61456 -18.915
-0.322049 -16.2245
-0.648563 -16.0841
0.0981455 -21.8575
0.473702 -21.8393
0.699098 -19.2049
0.621998 -18.8382
-0.927008 -3.2863
-1.04896 -3.46508
0.0310466 -6.69203
-0.119727 -6.91526
-0.793113 -4.85577
-1.00957 -4.77739
-0.631124 -14.4312
-0.750463 -14.7613
-0.095658 -0.843513
-0.140826 -0.947001
0.531262 -16.2537
0.888318 -16.2459
0.594189 -2.11451
0.695018 -2.26388
0.066961 -0.0880446
0.0680191 -0.0602781
-0.799017 -4.20303
-0.995169 -4.33307
-0.128643 -16.3281
0.0561633 -16.0214
-0.153175 -0.765793
-0.129006 -0.867045
0.272974 -8.99323
0.522842 -9.16416
-0.000171175 3.2978e-05
-0.0158146 -0.00237483
0.0712877 -0.0677123
0.0415391 -0.062962
1.08629 -3.63025
1.17937 -3.83393
0.0975109 -0.0546847
0.132348 -0.0869613
-2.15209 -19.508
-1.77951 -19.5071
-1.59439 -6.08382
-1.65497 -6.34303
0.0733311 -0.468798
3.89157e-06 -0.438713
0.542298 -13.7745
0.736366 -14.0644
-0.737033 -4.274
-0.728117 -4.05267
0.42932 -20.2261
0.0881833 -20.3749
1.04129 -2.97285
0.878246 -3.04334
-0.0773449 -9.30427
0.130591 -9.52693
-0.756169 -8.45812
-0.692914 -8.17119
0.102556 -13.9019
0.436818 -13.8337
-1.35654 -15.3959
-1.56561 -15.1159
-0.442784 -9.09359
-0.669571 -9.29549
-1.28876 -14.948
-1.38606 -14.613
-0.0454269 -0.02133
-0.0510901 -0.0368232
-1.26558 -5.017
-1.07725 -5.14977
0.801007 -13.6104
0.889795 -13.2824
1.2154 -23.3133
0.843834 -23.3893
-1.01557 -2.83507
-1.12996 -3.00691
0.129634 -0.0781386
0.108511 -0.0815203
-1.3119 -23.1143
-1.00779 -23.339
-0.304815 -24.4838
-0.277081 -24.1029
-0.372114 -10.3068
-0.616823 -10.4992
-0.573629 -12.403
-0.740712 -12.6952
-2.14329 -14.8596
-2.27092 -14.5392
0.762518 -2.47776
0.596412 -2.39749
-1.14086 -3.26997
-1.03067 -3.08888
-2.09533 -14.8611
-1.74605 -14.8123
0.268997 -22.7528
-0.0913991 -22.8654
-0.868074 -22.8672
-1.09253 -23.1742
-1.24553 -22.7677
-0.997436 -22.4803
0.999236 -9.46448
1.29913 -9.5375
0.496323 -6.29519
0.241242 -6.33283
0.0339544 -0.0104087
0.0673197 -0.0273781
0.113947 -2.07471
0.101398 -2.24047
-0.00387442 -15.7069
-0.34842 -15.6293
1.24791 -17.3996
1.61037 -17.361
0.247364 -15.1067
0.0240484 -15.3781
0.624651 -16.9269
0.826093 -17.2338
-0.776534 -5.64068
-0.895216 -5.87317
0.0829869 -2.64852
-0.00029869 -2.48825
-0.393868 -12.2262
-0.68384 -12.0727
0.293985 -4.80724
0.111228 -4.94934
-1.91538 -15.7193
-1.60462 -15.5377
-0.786423 -6.43309
-0.822999 -6.69933
0.430659 -0.883379
0.325362 -0.826822
-0.0292982 -9.44543
-0.260611 -9.64294
0.0241088 -0.0106541
0.0108136 -0.00103564
-0.278624 -13.6627
0.0427003 -13.7791
-0.599082 -4.74964
-0.587203 -4.51764
-2.20552 -23.1419
-2.09876 -23.5067
-1.82461 -11.5919
-1.70606 -11.2792
0.00922243 -0.125429
-0.0322247 -0.13276
0.600993 -8.01499
0.350107 -8.14428
-0.795846 -9.59844
-0.89992 -9.89166
0.0985928 -0.798474
0.171071 -0.882179
-1.20407 -11.9467
-1.51442 -11.8475
0.0713962 -0.0870837
0.0855059 -0.127788
-0.915018 -4.81848
-1.13345 -4.74889
-0.0443497 -0.0165808
-0.0133691 -0.00286545
-1.44969 -5.92556
-1.61236 -5.74769
-0.905445 -24.4678
-0.695058 -24.7844
0.729791 -3.10115
0.919646 -3.09163
0.791847 -20.5807
0.469806 -20.3865
-1.02442 -3.71319
-1.04676 -3.51241
-0.608387 -21.2474
-0.268695 -21.0888
-0.198323 -2.83388
-0.01395 -2.84701
-0.328602 -9.4304
-0.145469 -9.18852
1.1289 -14.355
0.898362 -14.0885
0.124883 -0.101532
0.0841699 -0.0800635
-1.83097 -11.7651
-1.9226 -11.454
-0.103195 -0.708517
-0.124125 -0.811064
0.129454 -0.177616
0.123679 -0.225252
-2.75778 -24.2583
-2.87758 -24.6211
-1.3351 -6.61167
-1.08062 -6.67509
1.06574 -11.5031
1.07674 -11.1739
0.394674 -2.41465
0.564989 -2.46763
-0.320888 -8.05266
-0.126844 -8.26557
0.0608802 -0.0588196
0.0533961 -0.0833832
0.153084 -0.216059
0.129074 -0.162905
-2.41361 -23.2905
-2.59455 -23.6267
-0.145239 -2.06773
-0.13132 -1.90751
-0.879224 -6.93092
-1.13672 -7.0367
-0.713292 -2.74756
-0.684547 -2.92723
0.661209 -13.1376
0.729506 -13.4742
-0.756889 -22.4696
-0.495133 -22.196
0.411137 -14.3909
0.0756549 -14.3042
-0.0347055 -0.319421
0.0272998 -0.344325
-2.0444 -24.2832
-2.05147 -23.9018
-0.176918 -0.84867
-0.0738196 -0.859065
-0.0786377 -0.0532005
-0.0932504 -0.0509814
0.853544 -14.6851
0.590067 -14.9093
-0.174944 -0.844691
-0.207749 -0.750026
0.449795 -3.33228
0.645109 -3.39364
-0.192305 -23.436
-0.475053 -23.6895
-1.13654 -9.81785
-1.11868 -10.1281
-0.289393 -24.5701
0.0536333 -24.4076
-1.3351 -22.4467
-1.53308 -22.7715
-0.00261658 -13.7641
0.338561 -13.7633
0.224268 -0.382444
0.162108 -0.402198
1.06847 -3.53498
0.915924 -3.37531
0.288048 -0.775617
0.254131 -0.675516
-0.496583 -7.43986
-0.223311 -7.48516
-0.566159 -7.74986
-0.285323 -7.76873
0.73205 -2.58546
0.579248 -2.4725
-0.0119776 -0.00375807
-0.0013981 -0.000151228
-0.0644095 -16.7335
0.213211 -16.5062
-0.0935624 -8.87366
0.198572 -8.83488
-2.56864 -24.7514
-2.94137 -24.6719
0.00253056 -23.4429
0.38075 -23.4419
0.0556814 -3.00526
0.131577 -3.18683
-1.10105 -21.7169
-1.27788 -22.0525
-1.69614 -22.6527
-1.8648 -22.9943
-1.20809 -8.64914
-1.33734 -8.39331
-1.81934 -17.56
-1.46577 -17.6532
-0.432056 -1.55375
-0.450962 -1.41516
-0.807755 -1.51628
-0.870124 -1.66148
0.1803 -0.567716
0.232426 -0.65333
-0.682189 -2.18247
-0.789534 -2.33142
-1.91026 -21.1074
-1.53723 -21.1436
-0.4399 -22.9156
-0.243644 -23.2406
0.429 -1.93625
0.370571 -1.78522
0.195028 -2.76631
0.0939629 -2.92049
1.49844 -14.1042
1.16449 -14.1791
-0.414521 -21.0565
-0.0408137 -21.0447
-0.116733 -0.861852
-0.166839 -0.77343
-0.510162 -1.1494
-0.48201 -1.0262
-1.46555 -11.4039
-1.23919 -11.6328
0.0522544 -0.0448376
0.0268125 -0.0277384
-2.12399 -11.4257
-2.16235 -11.1038
-1.72515 -14.964
-1.65139 -15.307
1.05793 -3.62528
1.02056 -3.8251
-0.112771 -9.36641
-0.412666 -9.34873
0.000907252 0.000714601
0.00196907 -0.0019117
-0.5641 -2.90481
-0.601965 -2.72714
0.0664845 -0.16356
0.113903 -0.169133
0.00463099 0.000263098
0.00971902 -0.000936942
-2.01313 -15.9516
-2.34035 -15.8183
-1.03713 -6.4613
-0.839431 -6.62573
0.244641 -16.9212
0.022231 -17.2068
-0.504621 -19.496
-0.262942 -19.7787
-1.00351 -2.93768
-0.852437 -3.02977
-0.336807 -0.400381
-0.297848 -0.329254
0.474836 -20.3665
0.7869 -20.5767
0.160633 -0.678846
0.0695764 -0.695948
-0.240077 -0.34679
-0.291738 -0.417003
-0.0535961 -6.07488
-0.30839 -6.03672
-0.880955 -4.25893
-0.69124 -4.36354
-0.767804 -23.5942
-0.419419 -23.4461
-0.223255 -0.400368
-0.273366 -0.369317
0.785095 -2.10457
0.706293 -1.94923
-0.0155595 -8.08195
-0.258517 -8.23593
0.824347 -3.54313
0.622202 -3.48893
0.470193 -3.16608
0.501685 -3.36597
-0.219409 -1.93889
-0.366442 -1.90338
-0.207008 -0.642428
-0.276639 -0.598991
-1.13038 -8.12162
-1.41743 -8.10769
-1.46132 -11.3546
-1.34993 -11.6596
0.193112 -25.4505
-0.126718 -25.6563
0.367358 -0.67032
0.4625 -0.679236
-0.951597 -10.1594
-0.824028 -10.4445
-1.14895 -8.07325
-1.39315 -8.24439
-0.0628013 -2.79377
-0.243462 -2.76621
-1.00619 -7.14508
-0.946445 -7.41223
1.17473 -13.9472
1.49902 -14.0774
1.2868 -10.9174
1.15677 -11.2098
-0.0525356 -0.333296
-0.00625918 -0.283559
-0.035696 -0.042836
-0.0393721 -0.0263596
-0.000579134 -0.765656
0.0486146 -0.860095
-1.35202 -19.8962
-1.50619 -20.2395
-0.589991 -15.8946
-0.857163 -16.1324
0.012736 -0.138831
0.0365777 -0.107038
-2.32758 -19.8328
-2.04803 -19.5796
0.372036 -4.48734
0.289208 -4.69985
0.269752 -19.052
0.410397 -19.3988
-0.245225 -0.18446
-0.306616 -0.233892
0.381468 -5.75956
0.624086 -5.83506
-0.945014 -11.9504
-0.642447 -12.0696
-0.075273 -0.194896
-0.114822 -0.245265
-1.87165 -21.6256
-1.5076 -21.7175
-0.563928 -10.5139
-0.779452 -10.7523
-0.984208 -13.9144
-1.3273 -13.9386
-0.0393815 -0.128344
-0.0128996 -0.162858
0.081442 -1.96628
-0.0597668 -1.89518
-0.0815484 -20.2137
-0.440439 -20.3107
-0.742288 -1.1478
-0.706553 -1.25218
1.14515 -6.10826
1.01919 -6.32514
0.0125356 -0.07277
-0.0190485 -0.0791826
0.0126282 -9.81446
0.262232 -9.64002
-0.354233 -6.32565
-0.093742 -6.32227
-1.68927 -25.3586
-1.96136 -25.6254
0.566313 -1.26717
0.504939 -1.37106
0.615137 -4.07581
0.439551 -3.93611
0.798924 -2.84839
0.682552 -2.68716
-0.934603 -9.13506
-0.948079 -8.83585
0.780864 -1.6563
0.695089 -1.51729
-2.12119 -17.9331
-1.76085 -18.0045
-2.05964 -23.3235
-1.75424 -23.0966
-1.56309 -14.591
-1.82528 -14.8312
1.05527 -7.01207
1.03648 -7.28568
-1.57048 -6.85629
-1.38856 -7.04134
-0.0597666 -0.0275108
-0.0819441 -0.0382602
1.25837 -10.4443
1.43988 -10.7199
0.615255 -6.03908
0.727728 -6.28141
-1.79982 -18.7422
-1.85015 -18.3731
-0.776212 -23.1832
-0.439917 -23.0096
-1.36673 -7.05496
-1.20442 -7.26414
0.615601 -15.7703
0.967496 -15.8228
-0.0184827 -6.37192
-0.278547 -6.3989
0.745458 -3.19291
0.703096 -2.99787
-0.408689 -0.581959
-0.426369 -0.514353
-1.77551 -13.9675
-2.00281 -14.2378
-0.816779 -3.75131
-0.836802 -3.54703
-1.76532 -17.6323
-1.69396 -17.9956
0.0322363 -0.0139891
0.0153208 -0.00245479
0.793266 -2.44372
0.625049 -2.4622
0.0633001 -0.0366163
0.0756861 -0.0358747
0.481844 -15.7661
0.835558 -15.7524
-0.203706 -14.2617
-0.530765 -14.1536
1.52863 -19.137
1.64609 -18.784
1.54772 -23.167
1.21281 -22.9853
0.00633472 -9.01362
0.16891 -9.26923
-2.21565 -20.6606
-1.88364 -20.831
-1.9328 -14.1821
-2.07245 -13.8719
-1.65265 -19.1272
-1.51865 -19.4727
-1.42537 -11.7472
-1.66614 -11.9841
-0.313889 -0.732832
-0.214197 -0.707703
-2.6093 -20.477
-2.56285 -20.1039
-0.483326 -1.92621
-0.601321 -1.84593
-1.32534 -3.9306
-1.14131 -3.7878
0.434961 -0.72401
0.344145 -0.738968
1.18638 -4.16908
1.18065 -3.95133
1.38027 -9.51362
1.07822 -9.45362
-1.40114 -8.49872
-1.34746 -8.78525
0.697397 -2.97365
0.692444 -3.16619
0.462397 -11.6457
0.679489 -11.8992
-1.15234 -3.23457
-1.17379 -3.43423
-0.687266 -6.44405
-0.425539 -6.42012
-0.886557 -13.2464
-0.617765 -13.0371
-0.775321 -19.8762
-1.14282 -19.8327
0.488476 -10.2683
0.705363 -10.5055
-0.0407244 -0.690049
-0.0610508 -0.597618
-1.39173 -11.231
-1.10143 -11.07
-0.495397 -10.2136
-0.23114 -10.0552
0.807101 -1.53054
0.74817 -1.38801
0.078729 -0.39458
0.0271072 -0.340129
0.355097 -1.66244
0.358137 -1.81211
-0.908099 -10.5179
-0.635372 -10.6783
-0.311041 -4.32459
-0.199942 -4.12951
0.96133 -3.04575
0.934393 -2.85444
1.58979 -12.8468
1.44791 -12.534
-1.87749 -16.703
-1.75223 -17.0411
-1.54289 -5.61075
-1.29347 -5.53102
-0.703954 -9.59834
-0.410758 -9.51576
-0.536704 -2.06459
-0.37855 -2.07731
0.674419 -8.77509
0.831984 -8.53255
-0.252202 -25.6888
-0.625756 -25.6343
-2.82907 -21.7165
-2.63483 -21.3893
0.428174 -9.00087
0.720054 -9.07061
0.0879471 -16.9356
0.416629 -16.79
-0.264931 -0.506778
-0.261043 -0.589332
-0.127054 -25.4773
0.119365 -25.7671
-1.81922 -23.1889
-2.10377 -22.9399
-0.645707 -21.2424
-1.01922 -21.2182
0.342238 -1.87805
0.421645 -1.75957
0.495356 -9.47363
0.633229 -9.75233
-0.178678 -18.9651
0.0921784 -19.2176
0.877058 -11.7448
1.02229 -12.0485
0.183312 -0.105571
0.210573 -0.141411
0.241763 -2.67621
0.364293 -2.82205
-0.462271 -1.42112
-0.489291 -1.29218
0.00891751 -0.453915
-0.0335348 -0.390067
-1.92964 -9.25251
-1.66823 -9.38882
-0.198018 -19.4309
0.170863 -19.4541
0.200272 -0.142642
0.160189 -0.101454
-1.04509 -23.0126
-1.11936 -23.3864
-1.49136 -20.8522
-1.19909 -21.0853
-2.22244 -17.2166
-1.96155 -17.4669
-1.74948 -16.0918
-1.56382 -16.3953
-1.45362 -7.3012
-1.55169 -7.05377
-1.96863 -16.1759
-2.21008 -15.919
0.114993 -21.9323
0.335615 -21.6262
-1.13176 -12.0816
-1.34613 -12.3426
-2.61388 -25.2391
-2.62527 -24.857
0.412161 -2.31292
0.324687 -2.16037
0.0688891 -0.862382
0.161864 -0.821967
-2.00426 -19.3035
-1.93472 -18.9359
-1.28133 -4.35138
-1.30077 -4.57937
-1.5903 -17.4128
-1.35415 -17.1289
0.573901 -21.0897
0.289351 -20.8425
-1.39545 -4.50964
-1.27027 -4.30151
1.515 -14.3007
1.58939 -14.6453
0.541963 -23.5455
0.895922 -23.6829
-0.670859 -15.2049
-0.937027 -15.4393
0.539158 -8.97354
0.711234 -8.73713
0.241079 -0.694236
0.293287 -0.628912
-0.943703 -21.1207
-0.59854 -21.2656
0.861346 -10.3183
0.656793 -10.5524
-0.825983 -10.4093
-0.571207 -10.2242
-1.6176 -10.5876
-1.53789 -10.2747
-0.769343 -5.27301
-0.974752 -5.15348
0.28532 -3.11992
0.425694 -3.26693
0.829068 -6.87909
0.944669 -7.13514
-0.626975 -1.24663
-0.510236 -1.27965
-0.173083 -0.556772
-0.0895513 -0.569064
-0.850303 -5.93619
-0.828325 -5.68127
0.763501 -14.0516
0.519756 -14.2916
0.0365489 -0.279958
-0.00344925 -0.330697
-0.955263 -4.66795
-0.930966 -4.43703
-0.268474 -3.77238
-0.144982 -3.94442
-0.807507 -7.30873
-1.07919 -7.27174
-1.33694 -14.0877
-1.18649 -13.7731
0.301873 -1.04024
0.322644 -0.931183
1.01174 -21.7471
0.637121 -21.7054
-0.882146 -9.21639
-0.659785 -9.00803
0.0866218 -4.14072
-0.0392897 -3.96146
0.629764 -7.59622
0.514383 -7.85054
1.27515 -11.8494
1.04298 -11.6043
1.3592 -14.3174
1.22046 -14.6327
0.479297 -3.19008
0.302245 -3.09711
-2.19454 -15.8201
-2.30767 -15.4872
-2.45783 -19.03
-2.43281 -18.6573
0.695368 -11.8748
0.931598 -12.1148
-0.384412 -24.735
-0.547164 -24.3908
0.448854 -21.1517
0.808705 -21.2616
-0.238197 -0.973201
-0.353149 -1.01604
1.10782 -3.64342
1.00624 -3.44805
-1.73719 -12.1853
-1.76799 -11.857
0.460805 -0.795639
0.369743 -0.82121
-0.612834 -2.26257
-0.778178 -2.33553
-1.13152 -7.46768
-1.35673 -7.31988
0.374887 -3.26008
0.202755 -3.34923
0.107067 -4.319
0.32775 -4.32681
0.436413 -1.98121
0.362663 -2.11562
-0.996549 -6.97719
-1.26912 -7.0149
0.179999 -0.286222
0.243775 -0.333963
0.703383 -3.31385
0.50639 -3.31875
-0.285253 -4.16884
-0.354459 -3.96264
0.435644 -10.6639
0.122157 -10.6103
-0.0275854 -0.00939255
-0.0256262 -0.0124225
0.359939 -0.379733
0.289692 -0.321904
-1.15947 -21.3294
-1.26431 -21.6935
0.726737 -20.785
0.993044 -21.0533
0.738185 -21.3734
1.1131 -21.3468
0.142677 -0.0691528
0.104916 -0.0467409
0.807887 -4.52253
0.595035 -4.59074
-0.612173 -13.6011
-0.394881 -13.3364
1.20348 -16.6979
1.56328 -16.6769
1.52108 -18.2906
1.15081 -18.2876
-0.905207 -24.9138
-0.608958 -24.6758
-0.405813 -6.91149
-0.563936 -7.13863
0.467257 -21.4201
0.254821 -21.1075
0.495034 -0.692694
0.415094 -0.609755
-0.040814 -22.6858
-0.317869 -22.4281
0.262256 -0.183369
0.254059 -0.213479
-1.89054 -20.649
-2.12695 -20.9447
0.513127 -3.03921
0.689513 -2.9876
0.0380786 -0.0131472
0.0660393 -0.02804
-0.254264 -2.28086
-0.307816 -2.44876
0.808684 -23.2513
0.465949 -23.0888
0.00920626 -0.00483332
0.00252906 0.000783495
0.252882 -13.3822
0.328135 -13.7184
-2.01793 -11.1824
-1.69435 -11.1194
-1.06126 -18.7732
-1.32732 -18.5206
0.379855 -7.65375
0.604768 -7.83348
0.719195 -5.32004
0.855139 -5.12548
-0.252101 -8.21449
-0.277212 -8.50654
0.0909305 -0.35639
0.137115 -0.316683
0.998042 -21.6748
1.33775 -21.514
0.0410212 -2.92604
0.0268537 -3.11898
-0.879709 -4.88117
-1.08215 -5.03457
-0.619422 -5.46615
-0.623163 -5.71935
0.0645264 -0.379474
0.0193692 -0.321942
-1.36114 -8.34638
-1.17729 -8.1102
-0.41533 -2.81539
-0.326606 -2.6477
-2.66411 -17.5368
-2.31216 -17.637
1.28694 -25.546
0.908874 -25.4909
-0.481839 -25.2558
-0.119123 -25.1463
-0.568854 -20.2038
-0.789971 -19.9033
-0.0394738 -17.2771
0.256925 -17.0703
0.226867 -24.1575
-0.0189131 -24.4486
-0.174334 -2.30575
-0.038896 -2.20358
-0.154548 -0.566023
-0.128941 -0.650596
1.05404 -5.7336
1.05094 -5.99012
0.0427656 -19.4417
-0.323047 -19.4893
-0.283451 -0.289976
-0.249676 -0.321707
-1.04226 -6.51544
-1.30879 -6.54001
-0.110122 -0.0545437
-0.0699511 -0.031345
-0.487739 -5.8418
-0.406391 -6.08302
-1.53455 -14.5749
-1.22887 -14.7358
-1.14346 -17.2277
-1.23821 -17.5832
-0.234895 -9.81424
0.0298396 -9.66311
-2.05872 -22.6785
-2.12683 -23.0532
0.812439 -2.51972
0.987368 -2.59454
-0.820275 -19.8267
-0.539499 -20.0702
0.246769 -0.627626
0.159294 -0.585964
0.324261 -0.332934
0.273867 -0.268621
-0.623773 -2.25163
-0.781377 -2.21873
0.666508 -13.7253
0.696523 -14.0706
-2.92338 -23.6749
-2.95432 -24.055
0.194349 -8.36149
0.477084 -8.43255
-1.43918 -11.3411
-1.3866 -11.6638
1.19433 -19.993
1.17585 -19.6182
0.569365 -8.9616
0.609546 -9.26244
0.000449883 -4.18319
0.115835 -3.99796
-0.0373694 -20.772
-0.0801671 -20.3977
0.0396118 -0.0208418
0.0192461 -0.00837853
0.756339 -5.98664
1.01121 -6.03963
-0.100509 -3.8965
-0.112101 -4.1152
-1.90646 -8.52707
-1.61988 -8.43059
-0.375658 -19.1211
-0.685686 -19.32
-0.526861 -12.8127
-0.292538 -12.5722
-0.301495 -3.32777
-0.257213 -3.52524
-0.00352915 0.000887681
-0.0118444 -0.00101417
-0.136962 -10.0294
-0.439113 -10.0746
-1.01865 -19.3127
-1.24747 -19.024
-0.519209 -1.99592
-0.540057 -1.8454
-1.15497 -12.0319
-1.46825 -11.9399
-0.119367 -8.27702
-0.192577 -7.99658
0.884177 -5.09552
0.846231 -5.33722
-0.0546405 -0.579496
-0.136785 -0.623231
-1.47069 -23.8059
-1.09259 -23.8016
0.504238 -0.688665
0.416142 -0.699127
-2.10708 -23.1217
-2.17546 -22.7481
-0.564685 -8.07308
-0.83551 -7.98948
-1.05891 -7.04247
-0.788053 -7.06222
0.102354 -1.09589
0.00717499 -1.15757
-0.2306 -6.30291
0.0294567 -6.31471
-1.16674 -4.20967
-1.11474 -3.991
-1.80315 -12.8117
-1.52288 -12.9884
0.43121 -11.6628
0.565125 -11.9682
-0.155718 -0.126148
-0.173438 -0.168636
0.415296 -20.9779
0.331928 -21.3458
0.225673 -2.83345
0.154583 -3.00667
-0.200814 -0.181616
-0.152026 -0.173414
-0.404952 -9.92291
-0.507771 -9.63207
1.22657 -8.96168
1.28547 -9.26158
0.0990328 -4.22575
0.103247 -4.00439
0.757281 -19.8048
0.892982 -19.4576
-0.376191 -1.30405
-0.497974 -1.39542
-1.4444 -22.7632
-1.64747 -23.0853
0.878087 -6.5262
0.792645 -6.77433
0.232794 -0.355473
0.201225 -0.287328
0.18299 -15.1622
-0.14731 -15.2785
-0.266983 -14.1712
0.0254795 -14.3567
-2.07085 -19.7507
-2.32875 -19.4854
0.800214 -3.31156
0.624317 -3.19845
-1.43595 -5.12646
-1.37837 -5.35777
-2.23306 -21.6726
-2.40169 -21.3367
0.94336 -2.91649
0.806758 -2.76507
0.951939 -22.828
0.587152 -22.9278
-0.259125 -0.992283
-0.147035 -0.962465
0.582562 -11.0267
0.61012 -11.3574
0.389736 -3.37312
0.298653 -3.55055
-0.745231 -13.0431
-0.420428 -12.9542
1.20037 -13.9888
0.858342 -14.0128
0.6335 -0.915455
0.536093 -0.825458
-0.322176 -0.539692
-0.241823 -0.483899
-0.546955 -23.8287
-0.854711 -23.6083
1.42416 -16.721
1.12329 -16.5125
-1.0523 -5.69917
-1.14895 -5.47509
1.59313 -14.0212
1.27265 -13.8808
-0.434657 -1.41015
-0.548396 -1.35521
0.0679546 -7.40483
0.136513 -7.67928
1.0641 -23.3114
1.28244 -23.6241
1.33071 -11.2549
1.30879 -11.5829
1.65953 -13.8853
1.42825 -13.6197
-0.823021 -1.579
-0.886944 -1.72584
-1.66017 -23.836
-2.0037 -23.9984
-0.134416 -0.303875
-0.13714 -0.372348
0.653585 -3.23769
0.789155 -3.11464
-0.0773387 -9.56363
0.142797 -9.35583
-2.84994 -20.5608
-2.59613 -20.279
0.91696 -3.27702
0.777404 -3.39973
-1.77283 -23.0788
-1.75797 -23.4593
-0.797898 -22.6317
-1.17235 -22.5901
1.14318 -24.2099
1.10369 -24.5896
0.657606 -2.07522
0.542608 -2.17132
-2.12079 -21.2527
-2.10437 -21.6301
0.504304 -0.593972
0.438261 -0.624383
0.593114 -4.0156
0.402236 -4.10627
-0.0836093 -0.515831
-0.124828 -0.598532
1.02727 -3.40209
1.10022 -3.6048
0.254814 -0.296998
0.209529 -0.236379
1.36329 -13.6794
1.29015 -14.0138
1.27129 -9.11471
1.15873 -9.38845
-0.991324 -20.6041
-1.18263 -20.2828
-0.783394 -15.2425
-0.623845 -14.9265
0.700909 -20.8397
0.378463 -21.0292
-2.34657 -14.4903
-2.25319 -14.8229
-1.07966 -2.73902
-0.963825 -2.57647
0.00647211 -1.9064
-0.119883 -1.8144
0.391608 -4.36971
0.403398 -4.59882
0.0818003 -0.247679
0.0260979 -0.257338
-0.194962 -0.923629
-0.279331 -1.01131
-1.86804 -11.2123
-1.57564 -11.3428
0.153614 -0.234882
0.175838 -0.297403
0.286802 -0.243307
0.225601 -0.221906
-0.836154 -10.8758
-0.632046 -10.6208
0.377129 -14.6113
0.347978 -14.2625
1.19414 -25.3461
1.36097 -25.6913
-0.454008 -4.13366
-0.237691 -4.15365
-2.24668 -14.8412
-1.90401 -14.7502
0.0241237 -6.63669
-0.238149 -6.59986
0.76075 -3.45995
0.572035 -3.3671
0.793636 -15.2196
0.703049 -14.8763
-1.70369 -15.8881
-2.05752 -15.8491
0.774803 -4.32842
0.675049 -4.52339
-0.153625 -0.0834307
-0.17529 -0.110176
-0.733552 -25.0432
-0.778375 -24.6642
0.0242908 -0.128724
-0.00575682 -0.16201
-0.68442 -3.73322
-0.780655 -3.93243
-0.0669096 -16.0424
-0.358202 -15.8381
0.281344 -19.9706
0.412376 -20.3232
-0.999326 -3.01753
-0.816668 -3.05345
-1.39343 -21.4374
-1.24807 -21.0879
0.854866 -9.21676
0.953927 -9.5098
1.46092 -23.7154
1.38851 -24.0895
-0.466393 -13.1349
-0.231093 -12.8923
-1.8202 -9.51686
-1.89967 -9.23075
0.0808723 -7.3453
0.314007 -7.20359
-1.1477 -5.77154
-1.11745 -6.02257
1.19753 -5.09393
1.29663 -4.88829
-0.910369 -8.39204
-1.19127 -8.329
1.04604 -7.90111
1.26802 -7.74136
0.384359 -3.75795
0.590614 -3.81421
-1.75977 -21.1638
-1.75083 -21.5416
0.458709 -3.8427
0.598344 -3.69562
-0.947128 -3.55146
-1.13403 -3.67382
0.0444069 -0.795799
0.0360551 -0.904519
-0.432358 -2.28296
-0.601188 -2.28917
-2.26113 -16.36
-2.227 -16.7183
-0.461121 -2.69659
-0.359408 -2.53896
-0.744886 -4.19485
-0.905321 -4.05947
-1.43543 -19.6953
-1.3189 -20.0493
-2.40317 -16.6467
-2.04058 -16.6184
1.57765 -9.74752
1.4518 -10.0216
0.0609053 -0.0386274
0.0695795 -0.0337273
0.881839 -20.9225
0.825357 -21.2953
0.102029 -6.02302
0.322913 -5.90318
-0.199071 -7.56051
0.050796 -7.68828
0.0985772 -9.28284
0.0330426 -9.58114
0.403293 -16.9835
0.646864 -17.2567
0.758979 -12.1351
0.539118 -12.378
-1.55009 -24.2071
-1.8372 -24.457
-2.53037 -22.4336
-2.44774 -22.8035
0.592533 -25.6805
0.919051 -25.483
0.979037 -20.7938
0.915829 -21.1651
-1.24829 -20.2281
-1.56018 -20.4374
-1.66731 -10.4348
-1.46544 -10.671
0.665248 -7.89871
0.779361 -7.64414
-0.499338 -0.870637
-0.463811 -0.765146
-0.078815 -2.625
-0.0521797 -2.80752
0.0927488 -0.174591
0.132796 -0.164024
1.2808 -7.27006
1.20814 -6.99788
-1.13009 -13.0391
-1.46628 -13.082
0.292786 -0.379217
0.363065 -0.385913
-1.19435 -11.2063
-1.16508 -10.8776
0.915391 -19.4738
0.607583 -19.26
1.63634 -10.7683
1.44966 -10.4936
-0.957832 -10.4627
-1.19596 -10.6868
0.666637 -23.6981
0.421214 -23.9888
0.574639 -1.76865
0.424278 -1.75183
-0.107819 -3.86854
-0.229731 -4.04898
1.08681 -6.87118
0.835011 -6.75654
0.330977 -6.28114
0.563073 -6.41043
-0.0981817 -0.573251
-0.0522175 -0.649837
-1.39267 -6.26106
-1.55047 -6.07161
-2.14772 -24.1717
-2.2913 -23.8193
1.36404 -23.4753
0.984225 -23.4839
1.4653 -23.5641
1.08566 -23.5844
-2.17377 -13.3142
-2.01786 -13.6106
-1.60517 -22.3889
-1.98234 -22.3791
-0.0995777 -6.76255
-0.186107 -7.02074
-2.38042 -21.9819
-2.4591 -22.3538
-1.1719 -10.6474
-1.14321 -10.3284
0.765238 -14.1094
0.811757 -14.4559
-0.0713148 -2.69487
-0.198993 -2.83083
0.455768 -8.27155
0.734914 -8.35829
0.712384 -6.15313
0.743096 -5.89832
-0.131232 -14.1187
0.111609 -14.3674
-0.902069 -19.4418
-0.857907 -19.8124
-1.20843 -6.78689
-1.04356 -6.98996
-0.927313 -2.26977
-0.763981 -2.18717
0.703452 -8.96399
0.407355 -8.935
-1.0766 -6.07592
-1.33564 -6.07528
-1.19558 -15.8193
-1.11988 -15.4698
-0.95843 -11.9362
-1.1199 -12.2298
-0.0268935 -20.5946
-0.391317 -20.5153
0.143938 -9.86248
0.090366 -9.55777
0.00774659 -3.75307
-0.128673 -3.59496
-0.409539 -1.03125
-0.417185 -1.15291
-1.45267 -15.1713
-1.42844 -14.8191
0.0631738 -0.0292811
0.0430487 -0.0147811
-1.36231 -20.6097
-1.73341 -20.6591
-0.72591 -14.1972
-0.713739 -13.8507
-0.187218 -0.137981
-0.176796 -0.162908
1.12928 -14.1065
1.31037 -13.8191
-2.73854 -18.6808
-2.46833 -18.9319
-0.417195 -0.526548
-0.331945 -0.514087
-2.35347 -15.4181
-2.29212 -15.7655
0.0216276 -0.0413708
0.0486339 -0.0529792
-0.254278 -6.12065
0.000707803 -6.16295
-0.0379854 -0.0130338
-0.0622307 -0.0267298
-0.549398 -1.1844
-0.488193 -1.28241
-0.0269383 -0.085254
-0.0624362 -0.107812
-1.74402 -22.9466
-1.72532 -22.5666
-0.215377 -22.6823
-0.539678 -22.4892
0.150899 -3.97181
-0.0133837 -4.11096
-1.59628 -15.0444
-1.81908 -14.7796
-0.0211921 -0.0832012
-0.00107616 -0.0553741
-1.87949 -19.0256
-1.91669 -18.6552
0.906596 -12.5073
1.03262 -12.8243
0.732443 -2.88381
0.550385 -2.81964
1.18941 -9.85721
1.138 -9.54958
-2.71481 -23.8432
-2.92567 -24.162
0.819297 -4.02337
0.60823 -3.95576
-0.373107 -1.33871
-0.404672 -1.21434
-1.23345 -3.69399
-1.26173 -3.9058
-0.0471671 -0.0200846
-0.0138628 -0.00367308
1.4541 -7.19444
1.19619 -7.26722
-1.00534 -14.1441
-0.749418 -14.374
0.655116 -3.71656
0.457935 -3.77042
-0.651164 -5.74809
-0.745435 -5.52034
1.46197 -10.3351
1.29146 -10.5925
-0.0403896 -0.123129
-0.0176054 -0.086323
0.56105 -19.3032
0.928602 -19.2516
-0.921897 -3.36727
-1.09321 -3.50502
-0.653267 -7.0674
-0.412726 -7.19095
-1.12813 -7.68772
-1.20951 -7.42442
-1.08548 -24.0836
-0.74061 -23.9263
-0.407521 -1.98584
-0.502752 -2.12853
-2.42396 -22.1664
-2.06224 -22.2728
0.809107 -18.9206
0.952569 -19.2677
1.46 -7.729
1.36528 -7.9892
1.21266 -17.9015
1.58132 -17.9011
-2.15278 -24.1919
-2.25844 -23.826
-0.400308 -1.40991
-0.357917 -1.54059
-0.695084 -19.2751
-0.767262 -19.6408
-1.21758 -5.8378
-1.4013 -5.68055
0.288298 -0.530635
0.377298 -0.560385
0.0221813 -0.0303046
0.0144243 -0.0519251
-0.166629 -7.87723
0.0826253 -8.01623
0.84533 -8.61492
1.05125 -8.83946
0.704938 -10.3365
0.724762 -10.6561
-0.538236 -15.3873
-0.457853 -15.7341
-0.60484 -23.1548
-0.557427 -22.777
0.0149158 -0.00331574
0.0100926 -0.00337494
-0.102983 -0.821057
-0.109048 -0.93157
1.09797 -23.8899
0.784605 -23.6738
-1.22715 -3.74525
-1.28257 -3.9578
0.965804 -18.0455
1.33216 -18.0138
1.28127 -17.3365
1.52645 -17.073
0.367351 -10.0085
0.639683 -10.1654
-0.551799 -13.3188
-0.516965 -13.6597
-0.36445 -19.7664
-0.600675 -19.4795
-1.34853 -7.44869
-1.37778 -7.17587
-0.0761599 -0.3749
-0.148521 -0.392815
0.00560478 -0.00536444
0.00961253 -0.0210345
-0.0979276 -3.71259
-0.0167589 -3.91007
-0.482281 -1.5072
-0.56653 -1.41167
0.218025 -0.213976
0.272325 -0.268866
0.996289 -25.4348
1.18412 -25.7687
-1.56919 -13.5332
-1.81987 -13.7769
-0.105474 -6.81669
-0.3734 -6.82537
1.36442 -21.0574
1.55885 -20.7374
-0.64365 -19.4342
-0.996362 -19.5441
1.02311 -22.9766
0.646008 -22.9411
-0.163951 -1.14113
-0.283265 -1.19887
-0.359839 -20.4224
-0.450563 -20.0579
-1.74063 -14.7872
-1.74793 -14.4378
0.58808 -8.01412
0.690227 -7.7516
0.628663 -2.02536
0.705173 -2.18312
-1.53097 -17.1214
-1.85267 -17.3025
-1.54035 -11.8526
-1.37255 -11.562
-0.812407 -6.27311
-0.767964 -6.5309
-0.0161937 -0.0105471
-0.032248 -0.0161367
-1.11035 -6.21431
-1.06188 -6.46825
1.06039 -19.1011
1.05238 -18.7266
-0.645821 -5.2336
-0.613571 -5.48275
0.789981 -5.0642
0.721588 -5.29641
0.0927413 -0.239807
0.037099 -0.222228
-1.8314 -24.7321
-1.77066 -24.355
1.2947 -22.5998
1.36766 -22.9736
0.408323 -7.99992
0.689795 -7.96959
-0.179183 -2.57869
-0.188248 -2.76191
0.0537803 -0.588946
0.135126 -0.635852
0.70869 -10.2999
1.00473 -10.2087
0.192282 -21.3405
0.499155 -21.5599
1.23656 -8.16593
1.28841 -8.457
-0.21719 -2.8241
-0.400707 -2.81126
-1.55093 -18.6503
-1.38942 -18.311
-1.13579 -9.14491
-1.36837 -8.96708
-0.975083 -12.4601
-0.910566 -12.1316
0.768533 -2.93899
0.716437 -3.11597
0.0379151 -21.9389
-0.150141 -21.6105
-0.335783 -0.892384
-0.230682 -0.910133
-0.44757 -3.12341
-0.275064 -3.02682
-1.28613 -25.6753
-1.65983 -25.7376
1.16328 -14.942
0.832865 -14.8176
-1.06243 -8.12835
-1.34647 -8.09477
1.53696 -18.2004
1.53066 -18.5739
-1.43667 -6.04992
-1.59924 -6.27154
-1.68682 -14.2783
-1.98882 -14.4625
-0.532076 -8.17316
-0.303572 -7.99537
0.373709 -22.936
0.190238 -23.2688
1.57043 -13.9013
1.27157 -13.7183
-0.153239 -0.19662
-0.16778 -0.16336
0.0226879 -0.00650504
0.0527772 -0.0197902
-0.839639 -7.71568
-1.12108 -7.7055
0.632479 -1.81205
0.525576 -1.6849
-0.218262 -9.52263
-0.221145 -9.8316
-0.362116 -22.1072
-0.737663 -22.1265
-1.80104 -16.7452
-1.84239 -16.3872
-0.211528 -0.14295
-0.163037 -0.122601
-0.432712 -3.9844
-0.54071 -4.18096
1.46596 -6.78872
1.19756 -6.74093
0.428555 -22.7314
0.511725 -23.1028
-0.294099 -13.7013
0.0389233 -13.6312
-1.55866 -9.23641
-1.3837 -9.47432
1.12905 -6.01342
0.884138 -6.07159
-1.63312 -13.0259
-1.29564 -12.9971
-1.69233 -15.9165
-1.91301 -15.6425
0.152765 -2.42354
-0.0176775 -2.39811
-2.20614 -17.8338
-1.88194 -18.0029
-1.49403 -12.4751
-1.16091 -12.4803
-0.218365 -9.22255
0.0366252 -9.38349
0.778187 -1.71805
0.658106 -1.60094
0.359192 -19.5396
0.715477 -19.6503
-2.58765 -17.1107
-2.24363 -17.2251
-0.593283 -10.0897
-0.756159 -9.82768
-0.577832 -3.39394
-0.377145 -3.36862
0.311822 -3.29145
0.231325 -3.47326
0.758819 -5.56591
0.846156 -5.33638
0.114453 -17.6572
0.327951 -17.9623
1.31507 -14.9199
1.38225 -15.2693
-0.918876 -23.9977
-0.757736 -23.652
0.183355 -0.493777
0.241884 -0.455512
-0.790614 -22.0577
-0.425113 -22.1459
-0.734163 -1.89605
-0.591187 -1.9344
-1.59196 -11.1037
-1.33007 -11.2862
0.0568175 -0.034559
0.0838115 -0.0457204
-0.485532 -6.28251
-0.349395 -6.05849
-0.276083 -6.51074
-0.0288642 -6.60352
-1.06268 -7.87793
-1.14083 -8.15891
0.293915 -18.7645
0.657008 -18.6933
0.260303 -8.6992
0.233463 -8.40436
0.880969 -14.1103
0.568453 -14.2489
0.824998 -20.7323
0.889565 -21.1045
0.511375 -0.626956
0.420287 -0.562009
-1.64708 -12.3908
-1.79373 -12.6987
1.4986 -8.5052
1.37354 -8.76204
-0.610285 -1.03579
-0.487483 -0.991728
-0.591491 -0.793863
-0.54438 -0.693901
-0.500031 -13.4824
-0.19218 -13.3392
0.850458 -1.94649
0.715059 -1.83529
0.33115 -11.6322
0.0625707 -11.8121
-1.05663 -5.54822
-0.843627 -5.39826
1.09946 -4.94534
0.877894 -5.01192
-0.326765 -0.584571
-0.34965 -0.514769
0.112672 -3.10928
0.304695 -3.10743
0.295044 -0.83227
0.297287 -0.731025
1.27234 -18.5047
1.63078 -18.6119
-0.201542 -4.22093
-0.364339 -4.07775
-0.179831 -0.135989
-0.235096 -0.177219
-0.0415091 -0.149843
-0.0382965 -0.105388
-1.59667 -8.90689
-1.32474 -9.01566
0.159369 -20.2069
0.109691 -19.8348
-0.00978679 -6.02133
-0.0332131 -6.28031
0.270198 -6.92965
0.190915 -6.6686
-1.19286 -12.086
-1.11876 -12.4081
0.0726687 -0.714865
0.165194 -0.69858
-0.23186 -0.553182
-0.158879 -0.58731
1.50224 -23.5444
1.38054 -23.9051
-0.851203 -9.47597
-1.04306 -9.24677
-0.0550976 -0.308759
-0.0921782 -0.263603
1.43575 -7.132
1.18556 -6.99683
-0.715917 -22.7905
-0.450042 -23.0599
0.0720797 -0.0643114
0.108774 -0.0820601
-0.597261 -22.8678
-0.221827 -22.8318
-0.244404 -3.48779
-0.415222 -3.3871
0.49979 -6.60223
0.309323 -6.41099
1.12821 -18.8538
0.994484 -19.2012
-0.0784282 -14.779
-0.121017 -14.4308
0.282105 -1.99465
0.135686 -1.93169
0.627449 -19.3571
0.352732 -19.606
1.21115 -23.8241
0.879161 -24.0093
0.153051 -20.6547
0.214484 -20.2839
-2.46318 -16.2434
-2.11171 -16.3117
0.117475 -22.3929
0.0491578 -22.7668
-0.6013 -10.2235
-0.694397 -9.92655
-2.67946 -23.8926
-2.46607 -23.5759
0.20561 -9.24667
0.359604 -9.51194
0.774427 -17.6345
0.782524 -17.2667
-0.26496 -0.339345
-0.25829 -0.40115
-1.38145 -5.45448
-1.28681 -5.21353
0.997661 -20.4085
0.769673 -20.1079
1.46578 -19.6282
1.43974 -19.2541
1.13769 -5.81943
1.27773 -5.6226
-0.604703 -24.3611
-0.895998 -24.1187
0.19557 -1.28614
0.326476 -1.35617
-2.77299 -24.7038
-2.45612 -24.4908
-0.000304738 -0.0260307
-0.00380155 -0.052056
-1.43212 -7.79052
-1.41981 -7.50826
0.128948 -0.493624
0.10033 -0.414365
-0.777552 -2.51054
-0.599988 -2.48265
0.238943 -0.571094
0.316767 -0.55368
-0.500163 -0.889331
-0.505601 -0.998655
-0.355909 -3.71028
-0.378276 -3.92392
0.228283 -0.472172
0.310803 -0.491602
-1.89128 -23.2061
-1.73251 -23.5511
-0.463809 -16.7642
-0.774701 -16.5874
-1.3066 -5.03123
-1.38806 -5.27234
0.529136 -1.60778
0.53326 -1.46494
0.452986 -22.5103
0.269644 -22.8423
-1.01463 -24.4724
-0.754061 -24.1949
1.30561 -21.261
1.27587 -21.6377
-0.670568 -23.3859
-1.03381 -23.283
-0.271064 -0.926248
-0.289673 -1.04233
-0.73804 -2.08726
-0.586589 -2.0001
0.953056 -12.3154
0.88804 -12.6423
-0.578463 -1.32601
-0.714885 -1.39411
-0.60724 -1.62487
-0.542102 -1.48322
0.588067 -0.788244
0.510467 -0.825665
-1.4146 -15.454
-1.40978 -15.0997
0.113478 -3.8148
0.136931 -3.60496
-1.3854 -7.24541
-1.66038 -7.22889
-1.52318 -6.42725
-1.57038 -6.17629
-0.119261 -6.92836
0.138135 -6.85228
-0.544486 -9.79974
-0.752986 -10.0308
0.389385 -0.638998
0.31623 -0.674662
0.352835 -15.5546
0.327509 -15.1999
-0.960362 -6.33236
-1.06252 -6.58386
0.0439048 -0.0172809
0.0290731 -0.0123394
-0.215721 -0.345979
-0.14702 -0.313732
-0.00207485 -0.0474771
-0.0281408 -0.0503177
-1.46645 -12.5303
-1.66929 -12.2737
-0.271901 -0.517602
-0.334358 -0.486744
-1.86669 -8.33248
-1.59308 -8.20508
-1.44388 -10.6191
-1.53062 -10.9358
-0.461288 -23.3676
-0.257647 -23.0465
0.259135 -4.53815
0.474081 -4.62385
-0.17235 -8.23548
0.114297 -8.26248
-0.0100415 -7.44637
-0.0676571 -7.72261
0.00167855 -3.78931
0.210602 -3.78301
0.463296 -3.76586
0.526263 -3.97586
0.373758 -1.52655
0.469242 -1.65158
0.256596 -21.5648
-0.092441 -21.7034
-1.12752 -11.7321
-0.803637 -11.7093
-2.09118 -21.5432
-1.84744 -21.8292
1.59085 -15.505
1.43479 -15.8194
0.552099 -5.42475
0.799184 -5.4693
-0.51198 -13.362
-0.22683 -13.1785
-1.38055 -19.7449
-1.46118 -20.1116
0.130718 -2.46035
0.300616 -2.50849
-0.456366 -0.837082
-0.454657 -0.739371
-1.29733 -14.5549
-1.61709 -14.7031
-0.820068 -3.49112
-0.976664 -3.64701
0.0324684 -1.97668
0.00345113 -1.822
-2.22607 -18.063
-2.0613 -18.393
-0.0708924 -0.509027
-0.0458205 -0.592217
-0.26155 -1.16742
-0.231728 -1.29415
0.433391 -6.96202
0.432315 -6.69035
-0.877607 -7.20314
-0.708627 -6.97905
0.449654 -2.9441
0.352202 -2.77523
-1.66922 -9.93783
-1.45171 -9.70295
-0.372726 -13.5162
-0.0526577 -13.404
-0.0172181 -3.268
0.158984 -3.36285
-0.287642 -2.89026
-0.470483 -2.9476
-2.25847 -24.0573
-1.96171 -24.2941
0.35883 -2.70071
0.188194 -2.63203
-0.349139 -2.99855
-0.390239 -3.19159
-1.66207 -13.8686
-1.93263 -14.0938
-0.271258 -3.82947
-0.0957448 -3.9473
-2.05484 -17.5449
-2.25423 -17.2423
-0.0929497 -0.0491167
-0.132993 -0.0713315
1.05621 -23.2713
1.15143 -23.6406
-0.0832714 -2.56497
-0.0950527 -2.74761
-0.608283 -3.4849
-0.487573 -3.31251
0.416382 -2.95682
0.294501 -3.09629
0.773467 -21.8199
0.397102 -21.8232
-0.380544 -0.326531
-0.339683 -0.34826
-0.907912 -2.49729
-1.013 -2.66197
-0.716514 -1.54278
-0.662281 -1.40045
0.914208 -6.69153
1.12657 -6.54834
0.357022 -7.04331
0.118969 -6.90795
0.376051 -0.62495
0.46795 -0.634437
-0.444252 -22.0282
-0.0858257 -21.9141
-0.490258 -8.64979
-0.28345 -8.4389
0.31012 -7.42572
0.295802 -7.14721
0.105251 -23.7138
0.402073 -23.9505
1.05776 -8.71113
1.06928 -9.01038
0.22153 -7.80773
-0.0588838 -7.77667
-1.62852 -20.3468
-1.42375 -20.0306
0.845608 -2.80868
1.03178 -2.82694
-1.22199 -14.8338
-1.29442 -15.1803
1.17318 -10.4599
0.857039 -10.4328
-0.70399 -2.05978
-0.862365 -2.05036
-0.063991 -1.96223
0.083329 -1.90653
0.420885 -24.5102
0.790565 -24.5979
0.470005 -3.64096
0.505844 -3.44031
0.0225104 -0.0343234
0.000996052 -0.0346736
-0.00947383 -9.23348
0.279713 -9.16077
0.0328928 -22.6153
0.332272 -22.3848
-0.0930595 -3.21664
-0.288321 -3.21068
-0.434402 -9.40241
-0.240963 -9.16839
0.814536 -14.2965
0.720501 -13.9598
0.831106 -5.56838
0.662637 -5.36905
-1.54688 -20.2367
-1.91653 -20.295
-0.564892 -3.94571
-0.674314 -4.14247
1.28399 -11.687
1.59813 -11.6065
0.128051 -0.623451
0.188938 -0.567438
-0.637572 -9.55016
-0.356236 -9.43432
-0.702872 -19.749
-0.868267 -19.4162
-0.590397 -5.40193
-0.751151 -5.2185
-1.94291 -17.0537
-2.04217 -16.7067
-1.21689 -13.9609
-1.12074 -14.292
-0.359192 -7.70294
-0.437971 -7.9789
-1.90995 -12.7822
-1.57805 -12.8278
-0.122731 -0.345689
-0.102682 -0.278179
-0.853415 -24.1609
-1.00349 -23.811
0.711424 -18.9729
0.368256 -19.1113
0.987313 -18.4578
1.13649 -18.1184
-2.10435 -24.551
-2.47767 -24.6242
0.486638 -4.54088
0.633912 -4.37747
-0.943927 -17.533
-1.09884 -17.2035
-0.72452 -4.32134
-0.714303 -4.54743
0.376861 -0.499003
0.359613 -0.422169
0.994025 -5.11981
1.12655 -4.9333
-1.55551 -15.2731
-1.4821 -14.926
-0.932766 -2.72864
-0.979224 -2.91482
-0.479626 -1.36538
-0.371357 -1.43466
-2.34435 -23.3349
-1.96686 -23.2981
-1.46696 -14.7754
-1.34097 -15.1009
-0.148984 -7.88075
-0.112895 -8.16709
0.857241 -3.7673
0.669891 -3.84434
-0.685467 -2.89197
-0.735265 -2.72086
0.151008 -1.10263
0.0467606 -1.15245
-1.97564 -21.6404
-1.69305 -21.888
-0.386102 -24.4443
-0.761618 -24.4017
-0.334215 -9.99198
-0.176552 -10.2592
0.217902 -0.664508
0.256296 -0.590141
-0.260356 -0.272145
-0.217965 -0.21382
0.33198 -16.9876
0.269129 -16.6301
0.428261 -0.424183
0.361783 -0.429725
0.219664 -1.72727
0.0961261 -1.80429
-0.356793 -2.11313
-0.286314 -2.25851
0.560176 -6.90003
0.762898 -7.09299
0.428351 -6.92143
0.457628 -6.65324
1.10267 -25.2879
0.774495 -25.4836
-0.767327 -2.05018
-0.605012 -2.0357
0.388812 -1.96658
0.239459 -1.91107
0.0739717 -2.45615
0.0037342 -2.29638
-0.725877 -21.567
-0.719306 -21.1887
0.614444 -1.09519
0.661528 -1.00747
0.0498938 -0.693893
0.125811 -0.643879
0.0510071 -20.7162
-0.0286993 -20.3481
0.602649 -8.07297
0.400764 -7.86262
-1.17932 -15.7131
-0.880202 -15.9015
-0.199247 -0.851037
-0.303987 -0.845032
0.632045 -5.1663
0.49112 -5.36379
0.440836 -7.73262
0.327645 -7.99154
-1.64646 -8.90202
-1.89121 -8.75141
-0.500671 -17.1138
-0.151559 -17.1853
0.597128 -25.4753
0.815209 -25.7892
-0.106152 -0.597571
-0.157812 -0.682318
0.93657 -7.80984
0.72465 -7.61033
0.252569 -20.5136
-0.120234 -20.5059
1.47994 -15.2597
1.27688 -14.9637
0.534553 -6.50634
0.373342 -6.712
0.035551 -1.06694
0.0360062 -1.18561
-1.53848 -13.5879
-1.83599 -13.7701
-0.556661 -17.0068
-0.825534 -17.2463
-0.969949 -5.91606
-1.04721 -5.67999
-2.40056 -15.6608
-2.51601 -16.0032
-0.859721 -3.37572
-0.680831 -3.26269
1.0822 -6.80452
0.888832 -6.60286
-2.95854 -22.69
-2.57885 -22.6953
-0.219116 -9.05562
-0.478458 -8.91159
-0.946506 -25.2691
-0.944901 -24.8875
0.491545 -7.84232
0.72942 -8.00967
0.222625 -1.15769
0.170324 -1.27425
0.195267 -16.0196
0.0101719 -15.7131
0.0825454 -0.0758901
0.0490415 -0.0617649
1.13422 -13.2767
1.47166 -13.3297
-0.0769811 -1.04417
-0.112754 -1.15861
-0.617242 -16.0487
-0.296378 -15.8958
-1.91247 -16.9798
-1.70147 -17.2726
-0.615134 -2.77498
-0.793735 -2.75046
-2.87471 -24.4481
-3.03062 -24.7972
-0.633155 -1.77973
-0.78178 -1.85966
0.569633 -17.0387
0.929786 -17.0878
-0.889555 -2.20954
-0.939251 -2.37908
-0.807681 -23.2726
-1.03761 -23.5759
-0.540245 -8.04495
-0.344824 -8.254
0.718462 -2.2443
0.855581 -2.37255
0.874476 -2.33412
0.879039 -2.16996
-1.38053 -5.89901
-1.50304 -6.13912
1.59555 -15.529
1.27561 -15.6711
0.283789 -1.39515
0.310858 -1.54284
-1.80347 -9.36451
-1.4987 -9.37002
-0.835065 -3.39209
-0.904854 -3.59251
-1.68961 -10.5448
-1.41199 -10.6889
0.0833731 -22.4401
0.44874 -22.535
-0.0214426 -0.0132694
-0.0357472 -0.0340287
0.0766046 -7.23377
0.269634 -7.43672
-2.24132 -20.9072
-2.42107 -20.5796
-0.134385 -2.24967
-0.00987175 -2.36407
-0.740174 -24.8373
-0.693417 -24.4582
-0.666651 -14.4306
-0.326232 -14.3683
-0.0851375 -0.0396913
-0.105808 -0.0573303
-2.00294 -10.1686
-2.05061 -10.4848
-0.745374 -5.25853
-0.923795 -5.10266
-0.0500041 -0.86279
-0.0943584 -0.768446
1.02524 -10.8461
1.15862 -11.1505
-0.101354 -0.282929
-0.141131 -0.345635
0.852004 -6.9866
0.906721 -7.26045
0.462059 -3.33316
0.553142 -3.52306
0.441611 -25.4659
0.67135 -25.1606
0.710329 -1.37883
0.78461 -1.51778
0.13815 -0.187373
0.106435 -0.138688
-1.85727 -22.1892
-1.99965 -21.8395
-0.212534 -16.1331
-0.560474 -16.0636
-0.677079 -20.9806
-0.948135 -21.242
-0.793882 -21.6643
-0.514328 -21.4113
-1.68097 -7.50874
-1.4707 -7.30483
0.0647161 -0.109907
0.0272793 -0.092899
0.59983 -10.0823
0.712894 -10.38
0.826989 -13.2993
1.02921 -13.5815
-0.0849212 -2.01813
-0.173113 -2.1578
1.31874 -15.4025
1.14059 -15.7045
-2.51488 -20.516
-2.15981 -20.6321
-1.6825 -11.5666
-1.78311 -11.8858
0.460637 -7.67347
0.737791 -7.64493
0.0573773 -7.62138
0.286762 -7.78946
-2.38437 -16.0788
-2.07823 -15.881
0.412061 -17.7333
0.57399 -18.0709
-0.278429 -0.282356
-0.344443 -0.340526
-0.05867 -0.713208
-0.137885 -0.665595
-1.74787 -20.1848
-2.00978 -19.9219
1.46382 -17.1436
1.11279 -17.0376
-1.03999 -24.6326
-1.3482 -24.8545
-0.720616 -5.84059
-0.647709 -6.08225
0.482586 -16.7682
0.825628 -16.8859
-0.0762622 -9.52488
-0.251747 -9.27658
0.268416 -24.5574
0.0898469 -24.8949
-1.463 -20.3029
-1.83364 -20.2636
-0.224924 -0.680738
-0.211675 -0.586558
0.190119 -7.18029
0.389536 -7.37719
0.87576 -4.45459
0.648477 -4.43133
0.520363 -8.55059
0.811236 -8.53924
-1.21827 -23.3424
-0.922632 -23.5787
-0.197549 -1.90382
-0.301079 -1.79773
0.283668 -10.3683
-0.0128079 -10.2767
0.891499 -23.3217
0.552225 -23.4908
0.33463 -24.5182
0.242018 -24.8889
0.101184 -0.276117
0.0656167 -0.323698
0.605414 -2.28482
0.655529 -2.45721
-0.175214 -12.8303
-0.472935 -12.6789
0.725686 -10.3635
0.542433 -10.6169
-1.00983 -14.7906
-0.698871 -14.9467
-0.826938 -1.84358
-0.672436 -1.8383
-0.184988 -0.509503
-0.251683 -0.479503
1.18371 -4.32673
0.958805 -4.30577
0.579533 -7.58922
0.543024 -7.30934
-0.691939 -9.44397
-0.78611 -9.73836
-0.40967 -9.36163
-0.123005 -9.45352
0.255552 -2.03864
0.376873 -1.94914
-0.375938 -11.8858
-0.0678043 -11.9977
-0.301065 -0.395821
-0.303301 -0.335429
-0.818155 -2.84994
-0.633039 -2.85799
-0.723662 -12.0684
-0.999957 -11.8981
1.2979 -19.3061
1.57706 -19.0627
-0.1879 -0.438671
-0.11485 -0.450754
1.31334 -5.30664
1.19383 -5.0755
-1.27804 -17.997
-1.5025 -18.3006
0.800358 -2.88433
0.633305 -2.94712
0.700047 -1.37835
0.601543 -1.25769
-1.60674 -9.64849
-1.31996 -9.5197
-0.0750253 -0.0363291
-0.0423225 -0.0160618
-0.459483 -1.09053
-0.361451 -0.997408
-1.23567 -4.84327
-1.43691 -5.00518
0.891014 -3.55719
1.09047 -3.64612
-0.68168 -10.1015
-0.964595 -9.97893
-1.43285 -25.3901
-1.56631 -25.0332
-2.09222 -16.0832
-2.29607 -16.3864
-2.13751 -10.9543
-2.07123 -11.2687
-0.139679 -15.557
-0.0427207 -15.2158
0.229257 -1.18288
0.164647 -1.07196
-0.0783326 -0.817251
0.0215977 -0.800825
-0.591237 -21.8113
-0.221323 -21.8763
-1.31956 -9.32914
-1.61532 -9.27538
-0.0505518 -7.52405
0.214362 -7.61525
1.68389 -13.8883
1.39757 -13.6844
0.321692 -0.828114
0.389962 -0.76878
-2.21898 -20.2523
-2.29606 -19.8871
-1.1895 -3.49633
-0.99712 -3.39123
-1.95155 -12.5541
-1.77558 -12.8321
-0.161435 -23.6206
0.212577 -23.6769
0.882826 -19.4488
1.03053 -19.7947
-1.63299 -22.2799
-1.95082 -22.0784
0.517439 -3.07992
0.33862 -3.13752
-0.587395 -24.7015
-0.431244 -24.3532
0.335974 -25.6491
-0.00587317 -25.8159
0.629257 -13.7524
0.313124 -13.8774
0.782426 -18.2384
1.13007 -18.3704
-0.944236 -21.3236
-1.26641 -21.5191
0.104696 -2.87205
0.279709 -2.94628
-0.199728 -10.0425
-0.0519786 -10.316
0.778082 -24.9897
0.616383 -24.644
-0.00992447 -0.000818196
-0.00839544 -1.86371e-05
-2.17588 -12.9938
-2.28609 -12.6818
0.0553375 -0.0928142
0.0476097 -0.0585782
-2.17065 -15.6927
-2.51262 -15.8109
-0.30181 -0.680391
-0.396879 -0.682842
0.801937 -4.46583
0.94564 -4.30753
0.263335 -3.00485
0.266382 -2.81481
-0.364092 -2.49902
-0.251148 -2.63015
0.271275 -0.228886
0.236378 -0.176839
1.30786 -5.83247
1.09229 -5.67302
-1.89481 -12.7083
-2.14051 -12.4921
0.709428 -19.1358
0.682193 -19.5086
0.282009 -0.467028
0.340197 -0.546253
-2.66526 -19.7632
-2.48964 -19.4297
-0.815956 -19.2685
-0.464108 -19.3744
-0.119262 -0.0596655
-0.101102 -0.0485418
-1.16697 -4.52674
-1.03454 -4.32503
0.655489 -3.22612
0.637265 -3.42375
1.22069 -8.21626
1.33832 -7.96267
0.334672 -6.56446
0.276065 -6.82564
-0.77673 -4.26138
-0.917652 -4.10446
-0.00152431 -0.00740395
0.00760205 -0.00422452
0.62473 -11.9805
0.311937 -11.8758
0.345484 -0.573487
0.435226 -0.633463
0.773203 -15.3731
0.678183 -15.03
-0.491436 -2.77232
-0.324127 -2.83878
-0.437585 -1.00419
-0.557471 -1.06507
-2.36201 -23.426
-1.98286 -23.4231
0.957467 -16.7426
1.26483 -16.5609
1.44374 -14.5455
1.59243 -14.2366
-2.29395 -25.2293
-2.06942 -24.9204
0.203439 -20.5451
-0.0493785 -20.2674
-0.103354 -1.10666
-0.203533 -1.04932
0.153833 -8.82109
0.359018 -9.04153
-0.530935 -0.894182
-0.639067 -0.896054
0.627581 -2.0155
0.471768 -2.02444
0.0176745 -0.00324231
0.0152895 -0.00273593
-0.0612758 -0.0444896
-0.0477083 -0.0236081
0.389257 -2.13926
0.27253 -2.01564
0.0743032 -0.0394043
0.0465469 -0.0250506
1.21888 -7.79432
1.39104 -8.03747
-0.972726 -19.8026
-0.650306 -19.985
-2.27035 -21.4653
-2.23824 -21.8419
0.340306 -0.497035
0.426186 -0.553992
1.20991 -13.1786
0.926383 -13.3549
0.195993 -2.96637
0.00786913 -2.97245
0.0105524 -1.01328
-0.0885036 -1.06336
0.900317 -20.9679
1.10789 -20.6562
0.692983 -20.5372
0.369299 -20.7231
0.0150509 -23.5303
-0.305542 -23.3289
-0.46685 -1.15675
-0.364586 -1.21282
-0.219444 -0.15551
-0.223257 -0.189984
-0.711532 -6.41441
-0.491836 -6.55196
0.901156 -2.23056
0.863787 -2.06446
0.427723 -3.45415
0.576211 -3.33118
0.14408 -0.155887
0.101835 -0.116466
1.44022 -21.7942
1.423 -21.4159
-0.115506 -0.954515
-0.225686 -0.950308
-1.37352 -9.90959
-1.62813 -10.1066
-0.114735 -0.0828563
-0.0766605 -0.0620253
0.0173375 -0.0285813
0.0142492 -0.0106273
-0.771649 -1.91374
-0.852228 -2.06697
0.904637 -7.68191
0.993293 -7.42088
-0.56858 -19.4203
-0.520963 -19.7907
-1.27768 -13.3344
-0.969915 -13.1843
-0.506563 -1.27539
-0.415171 -1.1604
-0.976246 -24.0191
-0.970854 -23.6375
1.62124 -11.2893
1.60072 -11.6172
-0.287898 -9.86371
-0.000107538 -9.96518
0.235473 -1.87586
0.263443 -1.72833
-0.850355 -6.97033
-0.968188 -6.73354
-0.624933 -2.54329
-0.550194 -2.37528
0.540282 -1.23141
0.620969 -1.15714
0.326123 -15.8466
0.680256 -15.8696
-0.203396 -2.91162
-0.0224134 -2.86332
-0.20444 -6.70596
-0.323377 -6.95057
1.32067 -16.0468
0.966027 -16.0778
-0.343434 -9.26045
-0.179804 -9.51629
0.273109 -0.620195
0.237048 -0.53076
0.0352496 -0.0158423
0.0411942 -0.0315168
-0.148854 -0.379174
-0.0773662 -0.37025
0.822692 -8.93582
0.855859 -8.64134
-1.55645 -15.3902
-1.33568 -15.6634
-0.700587 -9.31368
-0.593261 -9.02875
-0.0691943 -16.1632
0.281086 -16.2271
1.31991 -22.0539
1.41254 -22.4227
0.631161 -4.2586
0.608074 -4.48192
0.172588 -0.260244
0.207257 -0.232778
0.734948 -9.37692
1.00227 -9.24873
0.461261 -24.9742
0.367683 -24.6042
0.667981 -2.01676
0.794643 -2.14468
-0.108378 -16.5431
0.0671355 -16.8586
0.521202 -5.83101
0.699872 -5.66291
-0.926117 -12.0851
-0.74788 -12.3613
1.32103 -6.86466
1.07584 -6.72971
0.332981 -1.04987
0.382241 -0.955659
0.399019 -0.967305
0.47399 -0.905023
-0.32133 -0.54617
-0.378098 -0.632885
0.632906 -2.89238
0.562199 -2.71156
0.34739 -14.3663
0.0124479 -14.4485
-2.02078 -9.79858
-1.72212 -9.68779
-1.62508 -7.33828
-1.65022 -7.06761
-1.19896 -13.5525
-1.13264 -13.2156
0.0268459 -0.00698058
0.00326794 -0.000113127
-0.567651 -0.776824
-0.467005 -0.706874
-1.44953 -11.5966
-1.69737 -11.825
-0.240721 -4.80633
-0.353277 -5.01456
-1.15304 -22.6581
-0.825923 -22.846
0.974622 -14.768
0.922759 -15.1153
-1.50866 -8.64073
-1.3569 -8.88551
-2.18895 -14.0609
-1.99302 -14.3386
0.638351 -24.5453
0.609227 -24.9263
-2.37054 -17.7827
-2.67993 -17.9974
0.461549 -21.0599
0.205932 -21.3349
-0.0400516 -0.665595
-0.0611594 -0.764629
-0.962367 -24.0811
-1.11722 -23.7334
0.377692 -0.389938
0.304143 -0.334082
-2.65564 -20.1479
-2.70078 -20.5211
0.378385 -9.7385
0.0979284 -9.85755
-0.0538173 -4.32318
0.0377101 -4.12036
0.310745 -24.6599
0.13787 -25.0004
-0.00577749 -14.9663
0.324051 -15.086
-1.37847 -14.3226
-1.72547 -14.3331
-1.71769 -16.5654
-1.37342 -16.4528
0.0614558 -21.6173
0.0288745 -21.2402
-0.695249 -3.941
-0.902313 -4.02851
0.664252 -11.1437
0.845964 -11.4239
0.633666 -1.14136
0.623692 -1.02266
0.470039 -2.95105
0.65769 -2.95215
0.0481072 -4.39936
0.0622669 -4.62866
-0.0902348 -0.73682
-0.0281761 -0.658596
0.643195 -17.8162
0.413918 -18.1054
-0.544144 -1.12195
-0.611182 -1.2481
-0.985879 -6.54242
-0.724258 -6.57131
-1.32409 -24.4361
-1.31152 -24.8177
-0.703046 -4.2463
-0.77212 -4.04294
0.895698 -3.30192
0.708033 -3.21163
-0.860636 -4.47651
-1.0829 -4.44088
0.0307785 -3.35919
0.00891994 -3.16004
-0.635792 -2.98502
-0.739323 -2.84081
0.213042 -23.8641
-0.0415284 -23.5822
-1.94681 -21.8747
-1.96466 -22.2537
0.962827 -10.533
0.798457 -10.8014
-0.410762 -10.3948
-0.256158 -10.1243
-0.237972 -3.95269
-0.428503 -4.06044
-1.96678 -16.6114
-1.61499 -16.6879
-2.28518 -23.8531
-2.26155 -23.4725
0.613627 -11.1939
0.625948 -10.8651
0.0595721 -14.3219
-0.0086707 -14.6644
-1.49657 -14.8635
-1.84674 -14.8941
0.815588 -4.67604
1.02395 -4.8086
-1.12229 -22.9974
-1.21495 -23.3671
-0.385668 -0.475451
-0.462854 -0.479747
-2.70022 -25.0074
-3.07412 -25.0874
-2.29082 -16.9465
-1.92621 -16.9343
1.25485 -9.42328
1.06979 -9.17107
-1.55314 -7.01671
-1.37006 -7.20455
-1.53328 -17.9058
-1.76053 -17.6186
-0.260805 -0.316188
-0.230641 -0.253097
0.613389 -5.38813
0.504211 -5.15386
1.4642 -15.5885
1.10994 -15.5738
-1.3071 -5.79315
-1.50627 -5.65662
0.466355 -5.87552
0.71343 -5.94725
-0.168061 -24.8476
-0.0156055 -25.1967
1.31111 -10.7314
1.00137 -10.6362
0.99726 -7.35717
1.20448 -7.19112
0.511257 -0.860687
0.553861 -0.786219
0.259994 -0.976452
0.372355 -1.03144
-1.59219 -17.2024
-1.30481 -17.4237
0.608809 -1.71739
0.741852 -1.67907
-1.10775 -7.52068
-1.16586 -7.2523
-1.47634 -23.107
-1.14053 -22.9313
0.276455 -2.33872
0.392389 -2.22625
0.00429557 -0.432434
0.07075 -0.40182
-0.254428 -10.1543
-0.523176 -10.0059
0.102095 -19.0748
0.29486 -19.3948
-0.469172 -2.41065
-0.583768 -2.29741
0.446302 -3.33266
0.253762 -3.27444
-1.09537 -3.36088
-0.92268 -3.23032
0.398227 -11.2777
0.405455 -11.6093
-2.24631 -13.3618
-2.16444 -13.6895
0.50514 -2.79361
0.388235 -2.92871
-0.0592163 -16.4495
0.255888 -16.6208
1.0105 -22.107
1.02012 -22.4867
-0.0242091 -0.0448963
-0.044635 -0.0743898
1.39507 -8.1679
1.46381 -7.89496
-0.494846 -3.03877
-0.687182 -3.04804
0.323144 -12.8746
0.413673 -12.5517
-0.206694 -10.1905
-0.316683 -10.4823
-1.5937 -24.905
-1.95729 -25.0138
-0.397524 -6.55444
-0.146457 -6.63588
-1.4598 -13.1622
-1.14447 -13.2773
0.238551 -15.7593
0.459317 -15.4837
0.0979387 -0.177356
0.0873317 -0.129602
-0.393171 -4.5818
-0.18745 -4.67464
-1.29743 -13.6683
-1.60124 -13.5207
-0.352338 -3.9828
-0.2282 -4.15956
-1.77226 -12.2785
-1.46565 -12.1352
0.669126 -19.7743
1.04 -19.8184
-1.24204 -25.7139
-1.45927 -25.4026
-0.232317 -8.72555
-0.434229 -8.94532
-1.36881 -23.5292
-1.58515 -23.843
-0.7961 -1.3225
-0.66652 -1.33286
0.0123933 -22.5298
-0.0735268 -22.1598
-0.119512 -8.87136
-0.109028 -9.17255
-1.6959 -16.6185
-1.47691 -16.903
0.0465813 -0.335994
0.0992405 -0.390628
1.05558 -15.4574
1.22545 -15.7753
-0.0536983 -22.9659
-0.399774 -22.8147
-1.41125 -23.8384
-1.04635 -23.7373
0.592556 -3.56099
0.76311 -3.69773
-1.76464 -12.2743
-1.75762 -11.9423
0.819668 -2.79346
0.863103 -2.9829
-0.0317889 -21.5487
-0.261325 -21.2493
-1.90193 -17.0255
-2.15132 -17.3004
0.318355 -4.10525
0.441802 -4.2956
0.808621 -11.2214
0.922138 -10.9187
1.14311 -22.0106
1.03669 -21.6461
-0.281674 -20.1539
-0.215567 -19.7851
-0.0873014 -0.375697
-0.0448253 -0.314939
-1.24305 -24.9147
-1.15704 -24.5426
-1.93547 -12.5769
-1.83631 -12.8934
-0.406456 -15.6723
-0.128924 -15.453
0.109189 -0.156996
0.0766344 -0.180551
-0.272833 -6.82547
-0.540328 -6.81176
0.614794 -16.9595
0.967711 -16.8857
0.854757 -3.3353
0.825734 -3.13584
-0.162396 -0.417447
-0.0922808 -0.434216
0.646755 -7.84157
0.751246 -7.58316
0.395869 -17.6294
0.761594 -17.6567
0.000229952 2.36504e-05
0.0187502 -0.00372266
0.037833 -4.35011
0.0977418 -4.13503
0.990255 -5.232
1.22631 -5.33039
0.614704 -1.66384
0.764481 -1.68817
-1.60736 -13.6445
-1.37233 -13.8878
-1.398 -4.92329
-1.18219 -5.00514
-1.14115 -6.87294
-1.2266 -7.13843
-1.35427 -12.9626
-1.57856 -12.7194
-1.95674 -12.1196
-2.20141 -11.9089
-1.26859 -11.3999
-0.987765 -11.2209
-1.56755 -10.4626
-1.25967 -10.365
-1.94177 -8.83993
-1.67658 -8.68035
0.017321 -2.47841
0.0495889 -2.30737
0.174267 -0.206575
0.136368 -0.156025
-1.83706 -24.1449
-2.09026 -23.8619
1.03797 -4.94072
1.16866 -5.16196
-2.16165 -14.242
-1.9381 -14.4995
-0.884023 -13.9635
-0.739916 -13.6485
-2.28032 -12.5616
-1.9444 -12.5685
0.484848 -5.32819
0.73242 -5.35795
-0.962099 -9.02355
-1.09598 -9.29944
0.564674 -7.6817
0.647342 -7.95874
-0.0956714 -4.61873
0.11032 -4.70743
-1.76716 -8.51004
-1.49913 -8.36734
-1.08491 -21.2285
-1.45686 -21.2776
0.507472 -17.0486
0.190338 -16.8733
-0.302185 -0.409073
-0.31977 -0.355746
-0.639295 -17.0966
-0.350786 -16.8828
0.0197165 -0.0245407
0.00268688 -0.0147801
-1.78484 -23.7951
-1.62337 -24.1396
1.02117 -8.55028
1.13581 -8.28857
0.381789 -1.64732
0.299593 -1.51578
0.186045 -0.454333
0.142964 -0.513894
-0.202999 -9.58579
-0.197376 -9.89536
-0.0313157 -0.365121
0.0262544 -0.327261
1.37918 -20.0417
1.08407 -20.2684
-0.277828 -13.8661
-0.430827 -14.1766
-0.452338 -24.1856
-0.0744284 -24.1688
-1.40666 -10.5936
-1.09566 -10.657
-0.657472 -22.4556
-0.41487 -22.7461
0.623432 -15.4045
0.402927 -15.6791
-0.520459 -12.0853
-0.674677 -11.7959
0.00294812 0.000735883
0.00188066 -0.00109672
-1.44931 -12.7858
-1.7295 -12.9851
1.51927 -22.0778
1.24484 -21.8142
-0.0511349 -0.146639
-0.0948761 -0.147436
-0.100102 -0.0806443
-0.0913653 -0.103449
0.0788689 -0.59788
0.162104 -0.579001
-0.0693599 -0.11148
-0.0359418 -0.124767
0.0191615 -0.0217585
0.00533603 -0.00819506
0.582655 -1.1749
0.540577 -1.28406
-1.60931 -17.7377
-1.95308 -17.8805
0.673995 -5.98135
0.861943 -6.17259
-0.313792 -23.1407
-0.0539785 -23.417
0.217271 -21.7908
0.126314 -21.4231
0.909932 -6.83433
1.05174 -6.61738
-1.73514 -8.63157
-1.94463 -8.86073
-0.0831148 -0.502938
-0.0238354 -0.560959
-2.38823 -15.9221
-2.20069 -16.2205
1.37016 -21.5753
1.08563 -21.8212
-2.67544 -18.953
-2.39443 -18.7012
-0.299139 -6.46592
-0.0902152 -6.30584
1.16297 -6.21018
1.424 -6.25244
-2.63139 -25.0715
-2.42756 -25.3943
-0.29927 -9.78561
0.000235715 -9.83859
-0.532385 -6.75118
-0.762309 -6.62454
-0.0433187 -1.01422
0.00221427 -1.12224
-0.790445 -2.41871
-0.966678 -2.47639
0.0202 -0.00657654
0.0205215 -0.00436997
-0.704517 -7.90694
-0.826361 -7.65481
-0.0988137 -0.0700132
-0.0781563 -0.0762935
-0.361279 -0.820191
-0.455073 -0.79739
-2.64487 -19.0263
-2.27601 -19.0752
-0.0387701 -0.28969
-0.0165248 -0.353211
-1.61908 -12.7353
-1.86094 -12.5134
-2.04522 -20.1429
-2.32219 -20.4
0.188046 -3.17368
0.0702792 -3.01563
0.819924 -11.5052
0.60357 -11.2512
-0.411039 -0.601252
-0.392125 -0.679275
-0.265083 -1.28843
-0.399773 -1.28133
0.274516 -2.18646
0.127052 -2.25446
-1.69454 -19.8822
-2.06747 -19.8796
1.40119 -24.5036
1.27294 -24.8633
-1.63005 -13.329
-1.90798 -13.5391
-0.04907 -0.0291508
-0.0325405 -0.0293121
-0.555384 -2.25493
-0.720448 -2.32389
-1.67259 -24.3109
-1.65396 -23.9296
-1.02287 -19.7154
-1.39335 -19.7181
-0.198505 -6.09735
-0.153198 -6.35464
-0.249788 -0.451864
-0.311988 -0.526008
-0.727088 -6.43316
-0.660558 -6.68836
-0.422398 -22.4401
-0.119944 -22.6666
1.06489 -9.19108
1.33418 -9.07596
-2.57328 -25.0683
-2.92536 -25.2172
0.0200203 -20.208
0.224168 -19.8958
0.569266 -0.793974
0.505988 -0.694591
0.0105185 -0.013731
0.0228866 -0.0336438
-0.680344 -7.88408
-0.433778 -7.73787
0.313936 -4.75319
0.291779 -4.52191
-0.163361 -0.592821
-0.102159 -0.653941
0.156797 -14.3317
0.446738 -14.1478
-1.13832 -3.78211
-0.956923 -3.64661
1.34516 -19.5147
1.30811 -19.1414
1.03743 -7.15908
1.26544 -7.02761
0.172564 -14.4059
0.499937 -14.2999
-2.19924 -15.8078
-1.97011 -16.0748
0.0731238 -3.49209
-0.0803025 -3.62808
-0.152205 -0.74804
-0.205096 -0.67287
0.311096 -22.2303
0.195668 -22.5918
0.636337 -16.5371
0.882167 -16.2789
1.58673 -21.0934
1.29863 -20.8468
1.16003 -13.7407
1.1194 -13.3982
0.747075 -2.32517
0.680018 -2.15961
-1.6471 -14.2792
-1.78596 -13.9668
0.745834 -12.8301
0.579659 -12.5328
-0.493988 -13.7993
-0.450351 -14.1427
0.950843 -21.9026
0.574736 -21.8769
0.00345061 0.000235888
0.018206 -0.00460378
0.28495 -0.42573
0.266235 -0.352736
-0.0235859 -0.164293
-0.0717103 -0.181769
-0.142051 -0.598602
-0.0535749 -0.599935
-0.744565 -25.2764
-0.743782 -25.6572
-1.10145 -23.3786
-0.999982 -23.0112
-1.33564 -20.6775
-1.44469 -21.0391
-1.00957 -20.892
-0.638508 -20.8473
0.711779 -2.32612
0.54251 -2.28509
-0.334348 -1.43647
-0.414866 -1.56927
-0.0897089 -16.8485
-0.303559 -16.5589
1.20922 -5.55054
1.02366 -5.36175
0.413264 -0.855533
0.309081 -0.802539
1.22009 -16.2342
1.56878 -16.1636
0.423895 -0.835713
0.371191 -0.733632
-0.416588 -21.9549
-0.633332 -22.2654
-1.3642 -15.7057
-1.01624 -15.6334
-0.177452 -8.08107
0.00547268 -8.30586
0.149877 -3.64312
0.106186 -3.43929
-0.673942 -1.20333
-0.54255 -1.18076
-1.68479 -7.86886
-1.43658 -7.70671
0.424284 -5.85613
0.643484 -5.74472
1.10689 -15.0199
0.787901 -15.158
-0.603634 -7.80251
-0.583944 -8.08847
0.18319 -2.97549
0.360835 -2.92356
-0.465836 -19.6994
-0.504601 -19.3284
0.336365 -23.6171
0.429807 -23.2478
-0.0902368 -7.27774
0.174001 -7.20728
0.676873 -17.5493
0.380119 -17.3311
-2.20253 -22.4993
-1.84277 -22.3801
0.475397 -11.9667
0.787194 -12.0817
0.795864 -2.27477
0.83161 -2.44826
0.67479 -9.88138
0.910559 -9.69219
-0.15761 -0.412214
-0.231385 -0.458654
0.190035 -0.123441
0.222356 -0.166346
0.273072 -0.714753
0.268608 -0.814838
0.131834 -7.60619
0.393425 -7.71363
-0.521586 -1.35253
-0.658099 -1.41762
-0.0170622 -10.4007
0.13387 -10.6771
-2.23686 -17.038
-2.31503 -16.6857
-0.919786 -15.1292
-0.57971 -15.0418
0.1573 -0.107968
0.209346 -0.144835
-0.911121 -3.24414
-1.02704 -3.42483
0.901462 -22.7637
1.28029 -22.7667
-0.146335 -14.6294
-0.270789 -14.3028
-0.822541 -21.2335
-0.58145 -20.9441
0.191932 -6.4985
-0.0668893 -6.45163
0.22336 -14.1566
0.400485 -13.8624
-1.3774 -4.44361
-1.19044 -4.28505
0.243337 -3.14995
0.35604 -3.31949
0.356751 -0.422778
0.277704 -0.391525
-0.347231 -4.75333
-0.381947 -4.98802
-0.0826738 -13.116
-0.413763 -13.1769
-0.0807703 -21.1586
-0.0348894 -20.784
0.70205 -12.3955
0.376687 -12.4517
1.2906 -20.6746
1.51269 -20.3745
-1.99008 -9.62436
-1.68106 -9.58253
-1.30232 -14.6169
-1.36249 -14.2747
0.0567764 -20.3467
-0.178949 -20.0551
-0.244191 -14.93
-0.141617 -14.5942
0.0679547 -13.4656
0.243704 -13.1757
-0.0722269 -21.4831
0.139258 -21.7965
-0.138147 -0.0942393
-0.100674 -0.060573
0.671223 -1.49802
0.530573 -1.4885
-0.758102 -11.8266
-1.08153 -11.8045
-2.05232 -9.62338
-1.74253 -9.59643
-0.908506 -1.92957
-0.759174 -1.83885
0.187988 -25.3294
0.0328852 -25.6785
1.0636 -15.2542
1.38903 -15.1305
-0.315098 -23.7412
0.0443494 -23.8591
0.299111 -0.935949
0.412333 -0.945578
-1.11783 -5.84214
-1.01757 -6.06971
-1.19537 -6.34241
-0.938451 -6.38024
-1.16548 -5.02835
-1.39981 -5.13104
0.595988 -16.7989
0.408126 -16.4882
0.0719448 -0.0307472
0.0342013 -0.012135
-0.277779 -8.79258
0.0125363 -8.84408
-0.513009 -2.53536
-0.667179 -2.46934
0.161153 -0.365424
0.231695 -0.409526
-0.182031 -0.837131
-0.276323 -0.903721
-0.253051 -0.564443
-0.221291 -0.478996
-0.484524 -3.01792
-0.675046 -3.0152
-0.737577 -12.8251
-0.920209 -13.1128
-0.935127 -2.47706
-1.09038 -2.60104
0.592027 -6.56427
0.340315 -6.63487
0.0504235 -0.0357087
0.0741004 -0.0643367
-0.629358 -1.24677
-0.495917 -1.21929
-0.0170578 -10.0304
0.00458468 -10.3425
0.157269 -0.364764
0.0991701 -0.314257
0.668532 -1.18453
0.548137 -1.19632
-1.24628 -22.6393
-0.918992 -22.4493
0.359353 -0.410788
0.281033 -0.378432
0.101677 -0.0581382
0.127671 -0.0893764
-0.609628 -1.88845
-0.692645 -1.77788
-1.62663 -22.3124
-1.98521 -22.4337
0.793681 -18.2943
0.633044 -18.6301
0.531112 -17.5144
0.180166 -17.6132
1.28827 -14.5524
0.964698 -14.6706
-0.470649 -19.9268
-0.118337 -19.8124
-2.15911 -24.9573
-2.0853 -25.332
0.489694 -1.69629
0.345765 -1.64587
-0.927894 -5.60359
-0.747293 -5.41504
-0.568056 -1.48374
-0.438992 -1.39899
0.335497 -1.57837
0.386408 -1.72304
0.357681 -0.493563
0.276654 -0.484794
0.458714 -1.91306
0.605735 -1.88811
-2.37689 -16.8831
-2.62717 -16.6297
1.08745 -3.10609
0.903527 -3.13775
0.496979 -22.8176
0.762418 -22.5479
-0.738516 -13.968
-1.03046 -13.7918
-0.441285 -7.75352
-0.256181 -7.9677
-0.483927 -15.0768
-0.492657 -15.4313
0.172269 -0.730813
0.261576 -0.793169
-1.52485 -15.0598
-1.20377 -14.9107
0.952079 -5.0211
1.16603 -4.93798
-0.835889 -13.9425
-0.70281 -14.261
-0.431097 -6.12653
-0.426155 -6.38869
0.130645 -9.49472
-0.0611454 -9.73202
0.00149006 0.000801396
0.00772646 -0.00557059
1.36833 -20.9916
1.08645 -20.7388
0.662593 -5.86576
0.704368 -6.12353
1.09288 -7.07325
1.04854 -7.34265
-1.18429 -15.1579
-1.23921 -15.5092
0.483118 -0.991435
0.521643 -1.1132
-1.07114 -4.03457
-1.27224 -4.15777
1.56866 -17.3123
1.51628 -16.9486
-0.870303 -9.72715
-0.578214 -9.63151
-1.00946 -15.3831
-1.36166 -15.4072
0.330944 -4.57464
0.119351 -4.6538
-0.0835492 -7.33172
-0.331477 -7.21345
-2.0772 -22.6348
-2.14604 -23.0093
-1.41727 -20.0213
-1.75984 -20.1737
-0.272128 -25.0418
-0.232074 -24.6619
1.25414 -8.59764
0.975885 -8.48709
0.0235958 -0.011288
0.0301317 -0.00999216
-2.82418 -24.3454
-2.51641 -24.569
0.844615 -3.13886
0.683417 -3.00905
1.16145 -6.53981
1.33494 -6.76102
-0.0234913 -0.134389
-0.0662596 -0.136822
-1.13974 -24.0497
-0.926083 -23.7342
-1.02866 -15.5629
-1.25446 -15.8412
-2.03998 -16.7889
-1.67774 -16.8038
-0.280807 -2.49608
-0.301046 -2.67637
0.882845 -3.57936
0.743517 -3.71588
-0.837236 -4.81424
-0.782239 -5.0436
-1.25327 -23.4724
-0.956182 -23.707
-0.466228 -0.631721
-0.370464 -0.607542
-0.0770803 -8.95995
0.0659168 -8.69954
-0.821327 -23.8041
-0.9339 -24.1689
-1.03974 -20.8499
-1.06091 -21.2269
-1.34848 -5.83245
-1.33879 -6.08727
0.914364 -6.79318
0.752682 -6.56777
1.2184 -22.1712
1.48528 -21.905
-0.700607 -3.6949
-0.686979 -3.48716
-1.63507 -9.19599
-1.85786 -9.42006
-0.0516397 -0.188433
-0.0667692 -0.145537
-0.74148 -22.3764
-0.81614 -22.0045
0.157544 -0.202125
0.193831 -0.187017
1.48349 -7.50569
1.23721 -7.35121
0.220574 -0.168859
0.191685 -0.183246
0.769556 -22.0983
0.430638 -22.2631
1.02089 -5.45582
1.26804 -5.45113
-1.50511 -6.39139
-1.55081 -6.14048
-2.53704 -17.2171
-2.61011 -17.5801
0.220902 -6.70357
-0.0130921 -6.57398
0.780485 -6.17528
0.53152 -6.09327
0.0561996 -3.94613
0.249967 -4.04322
0.660695 -11.7131
0.352435 -11.5988
0.156914 -14.4143
0.0259183 -14.7375
-0.0520688 -0.852872
0.0296711 -0.921908
-0.892019 -2.41029
-1.0633 -2.40384
1.53991 -15.5932
1.18641 -15.6081
-0.401519 -1.14309
-0.421903 -1.27474
-0.0148082 -0.9466
-0.0828004 -1.03819
-0.570901 -12.0957
-0.306393 -12.292
-1.53646 -19.5307
-1.28759 -19.251
-1.52717 -6.82176
-1.52631 -7.09258
-0.0709879 -7.41097
0.17574 -7.28956
0.284717 -1.47975
0.346435 -1.35847
0.351849 -9.56852
0.599746 -9.75435
-0.288146 -0.745003
-0.38378 -0.735263
1.07117 -11.3957
0.77284 -11.5174
0.314662 -17.0987
0.482092 -16.7782
1.13833 -7.0001
1.15913 -6.73147
-0.536349 -0.720697
-0.588056 -0.822605
-1.16629 -15.9015
-0.853826 -16.0689
-0.0231578 -3.227
0.0237217 -3.03652
-2.04262 -19.4234
-1.787 -19.1478
0.502275 -3.06581
0.531601 -3.26318
0.619496 -14.0363
0.57328 -13.6927
-0.135003 -4.67449
-0.335017 -4.78289
-0.0776587 -0.615088
-0.00610461 -0.559138
0.278693 -0.317599
0.250449 -0.361003
-0.0173274 -0.764704
0.0572329 -0.701292
-1.0856 -24.4997
-0.760509 -24.3038
-2.22099 -21.4272
-1.84695 -21.3813
-0.178529 -16.1367
0.0817424 -15.8939
0.781704 -15.7456
1.01987 -16.0168
-1.57792 -10.2
-1.85544 -10.3723
0.728435 -1.72046
0.858865 -1.83331
1.34276 -15.3317
1.31684 -15.6857
-0.383959 -9.79527
-0.602125 -9.58236
0.210271 -24.6291
0.185991 -25.0104
-1.64888 -18.4085
-1.27879 -18.419
-0.499017 -1.69017
-0.65001 -1.72595
0.99544 -2.97217
0.989222 -3.16226
0.301324 -10.6566
0.513406 -10.4245
0.17874 -21.3983
0.083811 -21.7644
0.545515 -3.9446
0.672993 -4.13238
0.394317 -0.654984
0.486498 -0.725909
0.0679982 -7.84303
0.175869 -7.58213
-0.188264 -15.8685
-0.395689 -15.5793
-0.888208 -20.5599
-0.625122 -20.8261
0.491154 -22.7443
0.738597 -22.4579
0.121162 -0.401634
0.0622452 -0.440967
-0.285841 -15.7638
-0.0688466 -16.0474
1.07491 -6.20116
1.31871 -6.3211
-0.849423 -22.03
-0.483722 -21.9417
-0.458508 -1.27473
-0.32424 -1.2344
0.101554 -6.91445
-0.166563 -6.93883
-2.18278 -11.7399
-2.04879 -11.431
0.316261 -8.06428
0.536168 -8.25783
0.886271 -16.5176
0.951775 -16.8755
-0.479166 -1.93718
-0.390016 -2.0575
-0.475927 -4.95286
-0.688041 -4.85183
1.2523 -7.91207
1.08382 -8.13171
-1.5005 -21.7553
-1.14863 -21.6201
-0.144945 -1.8528
0.00174969 -1.90653
0.984754 -24.0761
0.739173 -24.3673
0.360028 -0.437956
0.295627 -0.369507
0.483315 -1.29218
0.47502 -1.16115
-2.13035 -11.6732
-1.98172 -11.9596
-0.0996768 -0.966255
-0.083733 -0.854469
0.0585359 -23.8922
0.394046 -23.7152
-0.0979165 -13.0877
0.235913 -13.0524
0.198048 -7.47776
-0.029536 -7.31586
1.61884 -15.2688
1.27581 -15.1746
-2.21799 -18.6485
-2.14164 -18.2817
-0.254921 -0.230512
-0.307221 -0.289536
0.202854 -8.42371
-0.063916 -8.53738
-2.23567 -16.7466
-1.87456 -16.7761
0.60084 -1.82164
0.582898 -1.6698
0.848324 -1.8907
0.814045 -1.73612
0.0198477 -0.0615564
0.0316859 -0.040885
-0.879697 -10.6999
-0.874241 -10.3803
-1.87914 -8.31133
-1.85104 -8.02236
0.592511 -18.7191
0.619075 -19.0926
-0.0575838 -8.3537
-0.260603 -8.56421
-0.702036 -21.2316
-0.494688 -21.5463
-2.77716 -25.4626
-3.06106 -25.2063
-0.0177836 -0.172068
-0.0352575 -0.225382
-0.0185063 -0.0492529
-0.0445023 -0.0512787
-1.88155 -12.8091
-1.58018 -12.6455
-1.98168 -13.4168
-2.08933 -13.7469
0.0258657 -0.00650808
0.0414863 -0.016988
-0.434447 -12.7137
-0.268448 -13.0069
0.047407 -0.0302321
0.0760148 -0.0449764
-2.63972 -17.0336
-2.27365 -17.0201
-0.0382241 -4.02652
0.158696 -3.94485
0.254366 -21.8326
0.531761 -22.09
-0.363365 -2.77018
-0.387069 -2.59072
0.453153 -2.50557
0.623899 -2.5731
0.510995 -1.95104
0.374662 -2.0108
-0.6282 -2.57735
-0.642772 -2.75967
-2.23779 -18.8784
-2.60692 -18.8344
-0.122966 -0.140881
-0.0808359 -0.107043
-0.825005 -1.60863
-0.748014 -1.71215
0.721804 -20.5412
1.07501 -20.4207
-0.0260692 -22.5917
-0.293168 -22.8603
-0.0122426 -0.0014427
-0.0262823 -0.00743276
1.11796 -17.2348
1.36141 -17.5156
1.13808 -7.02045
1.40093 -6.97468
-0.0807472 -0.829756
-0.183401 -0.825877
0.489784 -1.0032
0.478631 -0.891069
0.172151 -0.191111
0.130895 -0.203229
0.864157 -4.7014
0.794333 -4.92104
0.211853 -1.00013
0.264874 -0.907193
-1.80831 -24.287
-2.11439 -24.5135
0.452951 -2.23144
0.290659 -2.2516
-0.481926 -1.19212
-0.355958 -1.13381
-0.0250198 -20.6137
-0.0189178 -20.2376
0.359282 -0.447444
0.35195 -0.378941
-0.886547 -2.52828
-1.06597 -2.54111
0.0235188 -0.558559
-0.0544565 -0.599994
0.213239 -12.4072
0.536518 -12.4875
0.879406 -10.5932
0.564986 -10.5344
-0.857886 -2.7351
-0.851803 -2.55568
-0.465024 -15.7716
-0.518608 -16.1263
-0.063644 -6.32594
-0.221818 -6.11894
0.597829 -1.10483
0.680968 -1.04772
-0.351696 -0.504734
-0.278438 -0.439071
1.20059 -5.12122
1.03402 -5.28163
-0.237266 -1.95096
-0.281616 -2.10938
-2.54189 -17.9069
-2.71051 -18.2435
-0.447676 -2.95814
-0.331415 -2.80188
0.241371 -0.215982
0.203815 -0.231561
0.203466 -12.3063
0.35751 -12.0149
0.567121 -0.994079
0.65472 -0.952699
-0.147562 -16.5178
0.20926 -16.5149
0.294029 -3.46993
0.462195 -3.37001
-2.85713 -22.5844
-2.70427 -22.9307
-1.76186 -22.0445
-1.39155 -22.111
-2.2415 -19.0542
-2.56519 -19.2466
0.409366 -14.0758
0.291754 -14.4012
-1.35118 -13.3142
-1.29493 -12.9773
0.543721 -8.24854
0.435558 -7.97629
0.37805 -0.749558
0.358057 -0.651438
0.733927 -2.85645
0.563522 -2.76034
0.465156 -1.01552
0.53858 -0.950359
0.637235 -2.2609
0.631302 -2.09509
0.86639 -5.26801
0.725094 -5.05309
0.295836 -1.95786
0.294862 -1.80162
0.309653 -15.336
0.534584 -15.6131
0.653109 -18.5972
1.02108 -18.5606
-1.11859 -13.4267
-1.08026 -13.0871
-1.00287 -2.3837
-1.00956 -2.22077
1.5779 -20.4113
1.20545 -20.3622
-0.0315829 -0.0294381
-0.0173702 -0.0103719
-1.26357 -11.1488
-0.943997 -11.0657
0.816203 -4.15902
0.920359 -4.36873
1.21546 -13.9398
1.50886 -14.134
0.0535153 -1.19529
0.104886 -1.08883
-0.123446 -0.0753795
-0.167212 -0.111293
0.305626 -14.2865
0.0754212 -14.5445
-1.79522 -11.7168
-2.10444 -11.8528
-0.567954 -1.87887
-0.413712 -1.8669
-0.118325 -0.203217
-0.17362 -0.241553
-1.31192 -5.45561
-1.26512 -5.69762
-1.5884 -25.7448
-1.22165 -25.6497
-0.31562 -1.08899
-0.326201 -1.2157
-0.192598 -22.2263
0.178204 -22.2923
-0.0108962 -14.0186
0.258282 -13.8078
-0.481066 -9.11738
-0.779036 -9.15046
-1.21911 -8.7069
-1.50967 -8.78774
-0.39709 -1.79407
-0.266891 -1.71235
1.03634 -19.2865
1.14591 -19.6461
-1.42229 -17.5471
-1.29576 -17.2006
-1.50973 -6.6495
-1.24743 -6.56641
1.35349 -10.3463
1.0572 -10.4385
0.480918 -15.5142
0.827433 -15.5889
0.311152 -0.625686
0.312791 -0.719328
0.410378 -10.7798
0.280462 -10.4841
1.26393 -8.80888
1.39685 -8.555
-1.77237 -10.0157
-2.03426 -9.86503
-2.55716 -22.5053
-2.9252 -22.417
-1.72912 -17.3377
-1.98727 -17.6068
-0.358136 -2.69024
-0.256855 -2.83903
0.0755982 -0.345667
0.128499 -0.404016
-0.897176 -7.1805
-0.7722 -6.93033
-1.10692 -4.25036
-1.01642 -4.03846
-0.960149 -7.45557
-1.23965 -7.48419
0.914344 -5.35675
1.07851 -5.18956
0.405136 -3.97991
0.38258 -4.19788
-0.153864 -10.027
-0.261128 -10.3203
-0.0920033 -0.0554921
-0.117823 -0.0636609
-0.47953 -4.04193
-0.580855 -4.24376
1.29177 -23.6764
1.47257 -24.0127
0.46622 -4.61633
0.29988 -4.77171
-2.25272 -16.4361
-2.4124 -16.7666
-0.0532327 -8.32211
-0.252378 -8.53581
0.195466 -0.832991
0.114054 -0.760815
-0.534904 -0.978135
-0.587982 -0.901852
-0.352822 -9.69246
-0.645767 -9.61389
-0.231501 -0.307972
-0.17457 -0.319364
-0.0633854 -0.0360055
-0.0769623 -0.0599906
-0.414741 -0.476917
-0.426959 -0.419371
0.882655 -6.16169
1.10036 -6.0412
0.162397 -0.438136
0.201502 -0.385828
0.58995 -4.14756
0.381398 -4.07017
-0.499761 -9.64454
-0.717913 -9.86396
-1.57612 -11.5744
-1.42046 -11.8582
-0.70467 -10.3833
-0.633946 -10.077
-0.778674 -3.712
-0.876504 -3.91113
-0.234034 -8.8089
-0.521537 -8.88042
-0.455355 -2.06603
-0.337963 -1.94487
0.00776228 -11.8735
-0.21769 -12.1128
0.29782 -0.349017
0.374866 -0.395175
-2.36983 -18.8379
-1.99886 -18.8588
-0.410521 -12.1324
-0.738455 -12.1461
0.333854 -0.633981
0.391586 -0.586508
0.225655 -19.8448
0.427759 -19.5326
-0.35701 -0.339313
-0.334826 -0.280264
0.646516 -14.9559
0.722896 -15.3028
1.58189 -10.0535
1.41834 -9.77616
1.59612 -14.9757
1.58418 -15.3287
-0.395355 -3.6032
-0.571214 -3.50838
-0.191308 -1.86941
-0.0364271 -1.87719
-0.588833 -5.3527
-0.701269 -5.58802
-0.0585706 -0.169711
-0.0786638 -0.223669
-1.3385 -21.2013
-1.47253 -20.8501
-0.245202 -0.790486
-0.19735 -0.878342
-0.489818 -1.5942
-0.559381 -1.48243
-0.108764 -16.3306
0.177019 -16.1174
0.0370242 -7.283
-0.082336 -7.03347
0.911147 -25.4473
0.539337 -25.3652
0.0741822 -21.0092
-0.0209257 -21.3744
0.00266858 -0.278548
-0.0419092 -0.240101
-1.7355 -14.8466
-2.04039 -14.6844
0.618176 -16.8553
0.382055 -16.5793
1.23267 -16.544
1.56616 -16.6931
0.132752 -22.7415
-0.156428 -22.9859
0.944239 -6.76194
0.825887 -6.51271
1.57517 -10.6958
1.39722 -10.9535
0.0277295 -10.2225
0.0437057 -9.91061
-2.54525 -20.6729
-2.40988 -21.0219
-1.10037 -6.48136
-0.945722 -6.2567
-0.326557 -17.2377
-0.617976 -17.0301
-0.405808 -6.5836
-0.289573 -6.34342
0.376281 -21.6201
0.00315102 -21.662
0.246581 -0.285834
0.30717 -0.292197
-1.99425 -11.1536
-1.72157 -10.9583
-1.17571 -17.1527
-1.53419 -17.2227
0.0879725 -0.112425
0.128721 -0.12147
0.065722 -9.39805
0.0116448 -9.70024
-1.44404 -10.5966
-1.41674 -10.2778
-0.0349364 -2.5746
-0.152027 -2.44383
-1.81907 -7.53858
-1.64082 -7.7396
1.11654 -19.665
0.966427 -20.0062
-0.804463 -24.54
-1.11694 -24.326
0.0414323 -14.2637
-0.300354 -14.3076
-1.11325 -11.4081
-1.2835 -11.6952
-0.141555 -1.83977
-0.209887 -1.9834
-0.727441 -14.4325
-1.02204 -14.2542
0.144631 -0.323805
0.0794949 -0.322128
0.364189 -0.959291
0.343859 -0.847434
-0.303917 -23.1933
-0.509677 -23.5133
-0.147408 -10.1
-0.329577 -10.3515
-1.83746 -12.5513
-1.80754 -12.8846
-0.0135341 -2.97161
-0.117364 -2.81454
-1.65952 -21.5421
-2.02172 -21.6482
-1.24163 -24.0057
-1.24378 -23.6242
-1.01471 -25.263
-1.20537 -24.934
0.000394134 -0.988621
0.0523773 -1.09272
1.06345 -9.52979
1.12084 -9.23382
0.606866 -18.6914
0.895089 -18.93
0.534132 -14.3972
0.18862 -14.3847
0.00729855 -0.0825891
-0.0126833 -0.116443
-0.187339 -13.0215
-0.280724 -12.6965
1.13461 -12.1041
1.43773 -11.9848
-0.420095 -6.51596
-0.166982 -6.4412
-1.22377 -10.3571
-1.40247 -10.1062
-0.165761 -0.276317
-0.1044 -0.268107
0.417579 -20.1649
0.087949 -19.9882
0.0519342 -2.77188
0.0836584 -2.95891
0.699523 -16.1138
0.556045 -16.4414
-2.42071 -22.4384
-2.07922 -22.2719
0.185365 -0.744624
0.183066 -0.646379
1.37697 -25.4457
1.40634 -25.8291
0.267909 -0.208387
0.313111 -0.265634
-1.92596 -9.55781
-1.69438 -9.74397
0.953644 -9.47836
0.819837 -9.19863
-0.48973 -2.57858
-0.330977 -2.48594
1.1915 -8.68109
1.23465 -8.39295
-2.11801 -15.1538
-2.37058 -14.9184
0.508303 -20.0761
0.687113 -20.4077
0.805807 -12.1489
0.702907 -12.4635
0.0348408 -0.264197
-0.0243314 -0.260966
-1.31641 -19.8166
-1.25574 -20.1856
-0.109227 -4.81372
-0.27418 -4.657
-0.547995 -10.1294
-0.726446 -10.3878
-0.772425 -9.86994
-0.734288 -10.1789
0.130467 -24.5594
-0.248181 -24.5611
-0.759292 -12.1375
-1.0817 -12.0822
-0.921434 -4.24629
-0.975824 -4.03994
-0.364703 -8.43777
-0.302622 -8.72621
0.217254 -0.317291
0.244473 -0.277201
-0.230887 -12.0021
-0.335913 -12.3164
0.474966 -13.5231
0.307945 -13.2221
-2.49941 -25.4146
-2.75089 -25.1272
-1.42861 -8.88598
-1.13042 -8.8851
-0.389393 -2.91176
-0.48762 -3.08391
-1.20537 -4.98547
-1.42078 -4.90401
0.352256 -2.91192
0.3548 -2.72479
-1.07067 -5.02661
-0.827741 -5.00443
-0.911298 -8.14312
-0.926884 -7.85683
-0.778675 -2.08544
-0.793044 -1.93313
0.715352 -23.7591
0.752654 -23.3798
-0.539087 -4.17124
-0.325506 -4.11482
-0.275326 -10.4955
0.00725475 -10.613
0.382607 -0.879011
0.281016 -0.8998
-0.117431 -0.747218
-0.178642 -0.677492
-2.0925 -16.317
-1.73313 -16.285
1.40366 -9.90069
1.60577 -9.68257
-0.395878 -19.5734
-0.627248 -19.2839
1.03128 -7.7272
1.27819 -7.6114
-0.351813 -0.352766
-0.323375 -0.289374
0.732542 -4.17186
0.845289 -4.37691
-2.35808 -22.9404
-2.07619 -22.6841
0.748681 -7.40895
0.724302 -7.68845
-2.84329 -23.6822
-2.76929 -24.0555
0.956666 -22.3183
1.04807 -22.6876
-0.864446 -6.49973
-0.626675 -6.37435
-2.3284 -22.0804
-2.53239 -22.4022
-0.449441 -7.77642
-0.582254 -7.53017
1.13758 -4.36794
0.979208 -4.50943
0.104929 -0.635561
0.189477 -0.613866
1.07207 -21.5463
1.29405 -21.2432
-1.1501 -9.43656
-0.928105 -9.63897
0.0304794 -0.0191799
0.0131341 -0.00626148
-2.21171 -24.5645
-1.93103 -24.821
-0.362763 -1.74663
-0.220162 -1.75459
-0.441564 -4.3707
-0.27142 -4.22208
0.297107 -3.68033
0.50169 -3.73102
0.133966 -4.41292
-0.0780642 -4.34949
-1.26468 -12.3374
-1.35633 -12.6626
0.0389594 -0.0481203
0.0535163 -0.0389854
0.233774 -1.29598
0.164771 -1.1753
1.12312 -22.1426
0.918789 -21.8222
1.27949 -17.9357
1.11002 -18.2632
-2.32817 -21.1572
-1.96005 -21.0754
0.500665 -0.798903
0.411539 -0.826141
0.0551232 -17.204
-0.300274 -17.1609
-0.384525 -3.43324
-0.183146 -3.4248
-1.44712 -4.87213
-1.4063 -4.63603
0.148659 -2.46393
0.279231 -2.59054
-0.369765 -2.21199
-0.223536 -2.12536
0.0411242 -23.6872
0.0692492 -24.0677
-0.095624 -22.8367
0.105072 -23.1592
-0.210912 -0.13616
-0.19356 -0.10879
-2.19789 -21.2444
-1.85348 -21.0889
0.463461 -17.5895
0.376222 -17.2323
0.121671 -0.351824
0.122985 -0.425867
-0.283636 -0.226449
-0.342597 -0.283865
-0.392514 -14.2026
-0.563507 -14.5065
-1.16239 -13.6131
-1.21406 -13.2762
-0.107828 -0.0953695
-0.0705594 -0.0833754
1.2247 -7.1069
1.45989 -6.99136
0.596606 -2.93032
0.752315 -2.84735
-0.0484395 -0.0214931
-0.0314314 -0.00959803
0.4939 -0.939356
0.462485 -0.828683
-1.319 -7.38286
-1.48353 -7.17425
-1.69621 -22.1915
-2.02219 -22.0037
-2.46293 -20.1344
-2.73475 -19.882
-0.313306 -2.49986
-0.48674 -2.54827
-1.02515 -6.19128
-0.92146 -5.94669
-0.129473 -2.02198
-0.25751 -2.12656
-0.971607 -11.274
-1.01141 -11.6025
-0.847233 -20.4819
-1.19275 -20.6255
-0.221366 -0.316416
-0.280984 -0.37841
0.0146842 -0.00228903
0.00223973 -0.000315945
0.0522437 -0.312598
0.11617 -0.342524
-0.0632209 -0.0272827
-0.0405735 -0.0151012
0.966443 -10.5645
1.28088 -10.631
-0.618213 -1.62733
-0.688107 -1.51856
0.000361168 -0.155418
0.0208316 -0.204117
-0.0457662 -0.0214344
-0.0729602 -0.0361446
-0.232644 -17.0733
-0.20199 -16.7117
0.850173 -23.5803
1.00429 -23.9291
0.126363 -0.0811147
0.172268 -0.105725
0.289721 -0.806646
0.372758 -0.766135
-0.240353 -15.036
-0.366183 -14.7074
-0.00921572 -21.9312
-0.194826 -21.6015
1.54586 -17.8453
1.54184 -17.4754
-2.56411 -15.7339
-2.28732 -15.9489
0.21432 -15.7901
0.554669 -15.8937
-0.0146771 -0.00258049
-0.0428989 -0.0157527
-0.961752 -5.2215
-0.931533 -4.97502
0.0216504 -0.00567058
0.00509841 -3.55829e-05
0.0978455 -0.0652861
0.0640803 -0.0379489
-0.123408 -0.100255
-0.11092 -0.122645
-0.0840661 -0.666848
-0.127967 -0.759687
-0.478667 -0.544747
-0.519407 -0.633382
-0.323522 -0.508891
-0.408563 -0.521893
-0.638075 -0.871884
-0.523829 -0.829138
0.111444 -22.8849
0.488455 -22.9087
-2.13902 -13.1464
-1.81853 -13.0178
1.35852 -12.6646
1.05489 -12.7948
-0.96288 -13.1212
-1.25435 -12.9584
-0.230163 -0.360635
-0.168552 -0.30699
0.376983 -8.39763
0.3149 -8.68456
0.0905899 -0.585574
0.172544 -0.634426
-1.06507 -6.17489
-1.12269 -5.92858
0.918373 -11.7408
0.943921 -12.073
-1.70318 -10.5167
-1.85112 -10.246
0.192344 -0.549171
0.267377 -0.615474
-0.04424 -0.582808
0.0160875 -0.519389
1.07129 -9.92832
1.06132 -10.2413
-0.719085 -3.91432
-0.92968 -3.98867
-0.0946263 -13.9919
-0.429916 -14.0648
-2.60968 -20.1315
-2.52696 -20.4958
-0.740047 -25.5035
-0.597141 -25.1502
-0.176885 -19.9449
-0.224796 -19.5735
0.229258 -0.968945
0.193333 -0.85896
0.150393 -12.5451
0.459902 -12.4306
-0.631734 -25.6851
-1.00665 -25.6457
-0.00968936 -7.05429
-0.237812 -6.90749
-0.442934 -22.6804
-0.326783 -23.0424
1.18683 -7.87947
0.906294 -7.90452
0.158833 -4.6677
0.371437 -4.76104
-0.896287 -10.6091
-0.624329 -10.4406
1.46721 -19.2133
1.09464 -19.2192
-1.18783 -5.09714
-1.32828 -4.91835
0.0364938 -0.0115662
0.0456782 -0.0199315
-1.55434 -15.3258
-1.29553 -15.562
0.587229 -15.0449
0.253827 -15.1475
0.975193 -8.06684
0.953082 -7.77938
-0.311563 -8.89244
-0.0935775 -8.69134
0.204364 -1.12297
0.0968498 -1.06697
0.118696 -14.252
0.0574559 -13.9097
-0.129892 -0.150911
-0.116554 -0.187588
-0.0184043 -12.7519
0.177876 -12.4825
-0.997692 -20.719
-1.20283 -20.4063
0.8754 -18.4394
0.761981 -18.0814
0.6789 -4.57081
0.652859 -4.34179
-0.275341 -16.6061
-0.574635 -16.8034
-0.183794 -0.481812
-0.191666 -0.407456
-1.49726 -9.58571
-1.40197 -9.29057
-0.83328 -5.81673
-0.872043 -5.56924
-2.1351 -13.32
-2.29019 -13.0263
0.474721 -19.9356
0.820311 -19.7994
-1.72516 -19.1211
-1.43633 -19.3502
-0.419484 -3.03628
-0.609669 -3.02772
-0.0380053 -0.401242
-0.0500017 -0.480952
-1.86934 -15.1049
-1.64484 -15.371
0.925408 -3.76187
0.742024 -3.6368
-1.47413 -10.0529
-1.21527 -9.86555
0.00121988 -0.0736676
0.0218649 -0.053651
0.899337 -8.98548
1.11677 -9.20543
0.0384337 -0.061584
0.0235159 -0.086663
0.337703 -10.987
0.378957 -11.3173
-0.54746 -1.49232
-0.66981 -1.59748
0.844457 -9.6479
0.846777 -9.95805
1.396 -18.3277
1.09588 -18.5411
-0.0801442 -16.2494
-0.43543 -16.2541
-0.377291 -0.634509
-0.375683 -0.72504
0.613159 -6.61505
0.348958 -6.61813
-0.325911 -0.283415
-0.282915 -0.225121
0.185343 -17.7613
0.370678 -17.4449
1.43254 -17.6988
1.16906 -17.4348
-0.619044 -2.16035
-0.786473 -2.20279
1.21578 -4.87866
1.1134 -5.08313
-1.11468 -3.10502
-1.06185 -2.91389
-0.0497146 -2.86567
-0.0917382 -3.05295
-0.720655 -2.8922
-0.593706 -3.01818
-1.15102 -19.8469
-1.45982 -19.6436
-0.611771 -1.29279
-0.642341 -1.17916
-0.731279 -6.49076
-0.492551 -6.37142
-0.250068 -0.176425
-0.195325 -0.15223
-1.47725 -10.429
-1.79624 -10.4595
-0.715611 -1.8973
-0.864658 -1.87806
-1.5137 -7.34593
-1.33758 -7.54795
-0.801426 -6.84599
-0.823789 -6.57913
0.85052 -25.6808
1.12894 -25.4181
0.407777 -6.27556
0.459563 -6.53769
-1.92262 -21.4907
-1.61979 -21.7121
-0.34486 -4.59343
-0.45603 -4.79949
1.24693 -8.46829
1.35304 -8.7521
-1.70901 -18.0379
-1.55703 -18.3765
0.0710041 -0.0324897
0.0413625 -0.0139126
-0.360224 -4.14357
-0.574342 -4.20278
0.298625 -0.234808
0.273157 -0.186828
-1.00255 -2.27445
-0.952977 -2.42308
1.65225 -18.389
1.64508 -18.7628
0.491326 -1.20272
0.488948 -1.33396
-0.00772048 -0.064337
-0.0223509 -0.0424431
-0.535621 -23.4655
-0.90119 -23.3711
-0.00530074 -2.06324
-0.101885 -1.93578
-0.0351968 -0.0281357
-0.0628163 -0.0462769
-0.91586 -6.03038
-0.880984 -5.77455
-0.808446 -2.56975
-0.855551 -2.75103
1.20293 -10.1032
1.14457 -9.79333
0.191285 -0.259646
0.219039 -0.227782
0.539917 -2.49065
0.532872 -2.3163
-0.164416 -13.2836
-0.468377 -13.1365
1.27216 -14.9542
1.29523 -14.6043
0.940753 -11.7422
0.614632 -11.7639
-0.0382007 -0.0294919
-0.0214865 -0.0104065
0.449173 -4.986
0.363075 -5.21468
1.45539 -13.067
1.59032 -13.3865
-1.9623 -16.3996
-1.84584 -16.0564
0.876829 -21.7353
0.861669 -22.114
-0.375563 -16.0209
-0.0355394 -15.9208
-0.328665 -2.92274
-0.474622 -3.05613
0.0772758 -0.193038
0.108209 -0.165021
-1.80148 -9.71906
-1.81015 -10.0292
1.36204 -11.6466
1.05962 -11.7615
-1.22747 -10.351
-0.968726 -10.161
0.757233 -16.3697
0.646277 -16.7117
-1.65354 -19.6437
-2.01588 -19.5636
0.295811 -2.83255
0.480467 -2.83805
-0.565216 -9.44901
-0.417535 -9.18171
0.561582 -9.49198
0.506846 -9.1905
1.24259 -15.6962
1.59714 -15.6878
0.0276804 -18.9987
-0.334046 -19.062
0.0583286 -6.22876
0.172613 -6.4675
0.609981 -0.900207
0.505968 -0.907543
0.472684 -19.6664
0.806128 -19.837
-1.53306 -17.9153
-1.40803 -17.5627
-0.0915783 -0.044035
-0.10439 -0.0591991
-2.76796 -23.6137
-2.97863 -23.9326
-0.291911 -3.6994
-0.499139 -3.73573
-0.733296 -15.2396
-1.05953 -15.3757
-0.511613 -13.3786
-0.829791 -13.501
-0.53428 -2.25744
-0.703309 -2.26937
-1.13906 -6.22909
-1.07231 -6.47754
-1.14539 -3.7527
-1.21506 -3.57033
0.8636 -3.26679
1.03717 -3.20157
0.853101 -12.7408
0.615438 -12.497
-2.61185 -21.4463
-2.50687 -21.8081
-2.07107 -18.2165
-1.85092 -17.9117
-0.78739 -5.77686
-0.741158 -5.52509
-0.16697 -12.1588
0.00198007 -12.446
-2.18256 -21.2358
-1.80817 -21.2654
-0.0334445 -19.1826
0.137439 -19.5145
-0.0575467 -0.0313646
-0.0726581 -0.0549495
0.719196 -19.8559
1.05144 -20.0311
-0.284556 -0.620595
-0.277468 -0.533056
0.337549 -0.795196
0.427257 -0.769325
-0.819781 -25.1326
-0.481148 -24.9624
1.18348 -13.4735
1.42586 -13.7258
0.0504933 -16.4764
0.124242 -16.8307
-0.188889 -21.6758
0.142158 -21.4981
-0.639036 -2.95868
-0.454792 -2.98876
0.651169 -16.5543
0.477195 -16.2366
0.0849384 -0.179812
0.079541 -0.132214
0.413128 -4.40912
0.533538 -4.61058
-0.0268376 -2.97525
-0.21578 -2.98457
-0.702065 -9.76999
-0.910395 -10.0032
-0.724842 -2.63626
-0.728414 -2.46048
-1.38015 -20.5638
-1.04088 -20.718
-1.1901 -16.6486
-1.54419 -16.5877
0.494593 -0.834367
0.424635 -0.736478
1.14663 -12.8052
1.15219 -13.1446
-0.39648 -1.55582
-0.512978 -1.66293
0.223716 -20.3132
0.0236839 -19.9952
-1.82296 -20.9172
-1.48345 -21.0733
1.44005 -7.68977
1.32671 -7.94038
0.302191 -0.442164
0.365002 -0.517978
-2.20633 -18.935
-1.8809 -18.7487
1.61337 -10.7494
1.60111 -10.428
-0.101561 -7.30494
0.107036 -7.12722
0.655823 -1.07167
0.582412 -0.956702
-1.79257 -19.1801
-2.15224 -19.2825
-2.10095 -13.2672
-2.07692 -12.9281
-0.216934 -24.1459
-0.286906 -24.5214
-0.0495304 -7.45927
-0.210508 -7.23262
-2.23591 -15.5416
-2.41448 -15.2429
1.27029 -18.443
1.63998 -18.4151
0.315663 -1.79516
0.325209 -1.95158
-1.60476 -12.8774
-1.72913 -13.1975
-1.46069 -12.7611
-1.79073 -12.8427
-1.04545 -3.95684
-1.26418 -3.97246
-1.40773 -23.1702
-1.4684 -23.5467
0.0718783 -2.04747
-0.0480219 -1.941
0.956118 -4.04029
1.16887 -4.12599
-0.460181 -25.066
-0.509508 -25.4444
-1.64895 -12.8184
-1.47057 -12.5264
0.989923 -22.958
1.30725 -22.7518
0.212336 -17.0254
-0.134433 -17.1208
-0.639194 -2.4324
-0.743624 -2.59059
-0.528393 -13.2036
-0.742014 -12.9435
0.362563 -0.469954
0.28836 -0.408395
0.963785 -16.8001
1.32542 -16.8185
-1.84288 -20.7854
-1.7072 -20.433
0.182264 -0.314002
0.22643 -0.28745
-1.56328 -7.8708
-1.46264 -8.13081
0.176258 -0.0942386
0.127671 -0.062372
0.0142279 -0.00196533
0.0352303 -0.0131068
0.467514 -6.13998
0.333984 -6.35924
1.31142 -12.0335
1.0366 -11.837
-0.560144 -1.63074
-0.476971 -1.7372
0.418524 -1.96164
0.281418 -2.02421
0.566783 -1.01176
0.655936 -1.12282
0.187861 -20.834
0.56041 -20.8712
-1.94644 -13.407
-2.25865 -13.5638
-0.69148 -2.77036
-0.509328 -2.78203
-2.10731 -18.8899
-2.46506 -19.0013
-0.579795 -8.79446
-0.508814 -8.50538
0.944305 -2.44636
0.962116 -2.28281
0.480093 -1.91641
0.382448 -1.78328
-1.09615 -10.068
-0.862428 -10.2703
-0.694924 -5.38014
-0.944662 -5.40129
1.13259 -20.1698
1.04932 -20.5352
-0.0675472 -8.79977
0.132842 -9.02216
-0.242057 -0.341539
-0.173249 -0.305095
-0.426649 -12.2074
-0.654882 -11.9712
0.229724 -9.47241
0.529338 -9.52228
0.485205 -8.39145
0.220424 -8.26731
0.187655 -14.2184
0.453298 -14.4451
-0.0897538 -15.5144
-0.441769 -15.5142
0.354881 -3.11223
0.544075 -3.0927
0.662659 -18.0393
0.50524 -18.3767
-0.735622 -6.14393
-0.624365 -6.37513
0.308055 -23.5479
0.653742 -23.3926
0.527223 -2.25406
0.646289 -2.39416
0.98167 -5.5891
0.896789 -5.34369
0.39271 -6.92236
0.594454 -7.11429
0.918072 -18.3148
1.23744 -18.1334
-2.55447 -22.5178
-2.18566 -22.6004
-1.24918 -21.2279
-1.3095 -21.6017
-0.223939 -0.30416
-0.166368 -0.252745
-0.519818 -7.828
-0.802925 -7.84959
0.0497788 -4.00266
-0.046579 -4.2
-0.873175 -10.1443
-1.14196 -9.99357
-1.29618 -3.74628
-1.1665 -3.89193
-0.346538 -7.27365
-0.224485 -7.02509
0.277124 -3.50661
0.103471 -3.39653
0.0345693 -0.912099
0.0407069 -0.802703
0.566795 -2.14331
0.405536 -2.09858
-0.0684909 -3.98686
-0.184899 -4.1735
0.00867016 -0.000771996
0.0241329 -0.00978465
0.623941 -1.45932
0.667012 -1.34159
-0.546938 -9.15071
-0.459099 -8.86181
0.462938 -13.1813
0.579275 -13.5052
-1.25886 -4.00778
-1.25605 -4.22412
0.271011 -5.87003
0.369839 -5.64084
0.153537 -22.0312
0.361852 -21.7162
-0.797655 -5.01698
-0.556813 -5.04379
-0.100223 -0.0830928
-0.0643853 -0.0554857
-0.408121 -1.00341
-0.358593 -0.891473
-0.961767 -11.762
-1.28259 -11.8372
-0.492999 -15.1933
-0.305897 -15.4936
-0.476939 -22.6687
-0.852657 -22.6992
-0.703628 -1.85465
-0.573022 -1.91428
-2.49139 -19.0423
-2.41445 -19.4057
0.07486 -9.63904
0.377512 -9.6697
1.36582 -15.3717
1.55532 -15.0804
-1.81936 -17.7252
-1.8491 -18.0972
0.0113206 -23.0055
-0.304339 -22.7972
0.0450097 -16.6295
0.317043 -16.3965
-0.749283 -16.5776
-0.569327 -16.8902
-0.071425 -0.0630287
-0.0798737 -0.0955191
0.0309778 -0.0209188
0.0205678 -0.0300821
-0.79843 -6.01674
-0.773862 -6.27385
-1.35819 -5.02379
-1.20944 -5.19857
-1.39203 -9.19179
-1.6707 -9.09295
0.247572 -7.69008
0.0921061 -7.45261
0.878724 -17.5305
0.548645 -17.3671
0.70593 -1.19323
0.578172 -1.18156
-1.77628 -17.9437
-1.46897 -18.1454
0.699689 -18.1988
0.664722 -18.5717
0.990589 -23.538
1.32591 -23.3603
-0.860536 -7.37459
-0.772935 -7.10778
-1.99174 -13.2668
-1.79416 -12.9817
0.347742 -1.15642
0.313303 -1.03309
-2.16397 -14.1525
-2.29028 -14.4821
0.296175 -8.24286
0.208054 -8.52034
1.03923 -14.844
0.933025 -15.1774
0.899435 -3.56266
0.775591 -3.71302
-1.46978 -15.2479
-1.58597 -14.9179
-0.22465 -3.56353
-0.0721743 -3.70217
1.1097 -7.33946
1.38255 -7.41542
1.04328 -5.34292
0.799664 -5.28493
0.907533 -3.9064
1.12251 -3.92586
-0.965463 -5.88314
-1.16821 -5.74571
0.416031 -3.24819
0.239403 -3.15298
1.35628 -5.46398
1.17305 -5.61446
-0.241004 -15.2332
-0.590552 -15.262
-1.75114 -16.4923
-1.71429 -16.8517
0.855788 -20.6115
0.997217 -20.962
-0.820003 -19.8582
-0.72625 -20.2207
0.165858 -0.093663
0.11871 -0.0621118
-0.173868 -0.271653
-0.119931 -0.284911
-0.158806 -0.433691
-0.0912975 -0.387425
-0.230793 -0.445095
-0.208484 -0.369026
-1.90022 -8.7912
-1.65963 -8.94873
-0.946462 -12.4065
-0.665942 -12.2254
0.838973 -15.489
0.602011 -15.2214
-1.33808 -7.29139
-1.14283 -7.0816
0.0516447 -3.19768
0.054699 -3.39891
-2.5031 -18.2717
-2.5585 -18.6418
0.637104 -16.0816
0.284969 -16.1295
-1.74447 -12.424
-1.86182 -12.1181
0.0798061 -0.255614
0.0374732 -0.209852
-0.0441035 -6.73806
0.191518 -6.86963
0.769303 -4.64092
0.659512 -4.83898
0.0841887 -0.0861308
0.103163 -0.12651
1.0653 -20.7184
0.73261 -20.8888
-2.27822 -17.2202
-1.99584 -16.9793
0.664871 -12.8397
0.426172 -13.0723
-0.883627 -15.47
-1.15362 -15.7033
1.28309 -18.6202
1.36914 -18.986
1.48397 -8.46847
1.20258 -8.52605
-0.252157 -0.573576
-0.268592 -0.497246
-0.702104 -1.0622
-0.578798 -1.04484
0.698407 -6.93223
0.70853 -7.20769
-0.105059 -25.2407
-0.481535 -25.2052
-2.40476 -22.7149
-2.60784 -23.0379
0.413655 -0.480064
0.383617 -0.536442
-0.570844 -1.85311
-0.471682 -1.95638
0.312539 -6.51538
0.546074 -6.64996
1.18465 -4.73645
1.03797 -4.53567
1.09136 -4.70795
1.27947 -4.59821
0.525567 -3.7416
0.641365 -3.57867
0.234879 -0.242677
0.174891 -0.205129
-0.450172 -0.471182
-0.370573 -0.460187
0.345499 -3.85843
0.283342 -3.65228
-1.25256 -25.3537
-1.6124 -25.2364
-0.495299 -25.3289
-0.263189 -25.629
0.93492 -23.543
0.839294 -23.9119
0.659347 -12.5228
0.906708 -12.7572
-0.221452 -0.328235
-0.235486 -0.277898
1.27949 -5.50602
1.39161 -5.7472
0.239314 -1.38344
0.151322 -1.26358
-1.5499 -10.3991
-1.34133 -10.1498
0.513281 -1.92199
0.415814 -1.78748
1.06293 -5.96301
1.26347 -6.14732
1.20474 -16.1395
1.0094 -16.4363
0.967697 -4.38681
1.07859 -4.60161
0.46344 -0.56037
0.449015 -0.481775
-1.59347 -14.4202
-1.24623 -14.4104
-0.0274585 -0.0509365
-0.00480779 -0.0345828
-0.814758 -2.15811
-0.722876 -2.00651
-0.593203 -1.43287
-0.639089 -1.31764
1.29686 -20.5572
0.952674 -20.7023
-0.579808 -14.6299
-0.806297 -14.3673
-1.02333 -5.06292
-0.783964 -5.08765
-0.532878 -14.2684
-0.777005 -14.5177
0.703699 -12.329
0.43267 -12.5149
-1.42317 -24.9572
-1.26338 -24.6108
0.612638 -2.4315
0.510225 -2.27906
0.0469587 -22.3868
0.356884 -22.6039
0.821964 -3.66034
1.01445 -3.7719
0.387831 -2.35085
0.399971 -2.18288
0.136312 -0.296307
0.195689 -0.346875
0.684734 -14.2126
0.747425 -13.8731
0.245351 -15.0677
-0.0411181 -15.269
-0.476124 -1.51509
-0.446726 -1.65145
-2.5382 -22.4906
-2.91763 -22.4888
-0.536744 -2.30476
-0.439363 -2.15626
-0.209413 -4.28945
0.00876951 -4.31152
0.0433047 -0.037412
0.0201003 -0.0283927
-0.308529 -0.314965
-0.37611 -0.329493
-0.916414 -3.21194
-0.779043 -3.05339
-0.863884 -9.83888
-1.0399 -10.1004
-0.653326 -16.0323
-0.345081 -16.2097
-0.15812 -0.101058
-0.183533 -0.103804
0.662159 -9.71524
0.933947 -9.58543
-0.82342 -4.56338
-0.93465 -4.77927
-0.39403 -0.370701
-0.322309 -0.311231
-0.0518833 -0.196886
-0.0357046 -0.146186
0.218613 -22.4269
0.585632 -22.3408
-1.4673 -11.4777
-1.14168 -11.4364
1.45837 -10.5082
1.15877 -10.5962
0.456992 -10.5767
0.652314 -10.8396
-1.67652 -12.4834
-2.0007 -12.414
1.40227 -15.4579
1.35619 -15.8097
-2.26581 -13.1061
-2.07919 -13.3808
0.868323 -7.54657
1.08648 -7.38825
-1.22797 -7.47738
-1.09675 -7.71769
0.042358 -0.0619273
0.0197137 -0.0376166
-0.175832 -4.22973
-0.176652 -4.45621
1.04011 -14.2294
0.930238 -13.897
-0.525488 -3.83425
-0.37041 -3.68234
-0.498269 -1.09217
-0.6162 -1.08428
0.552162 -17.2395
0.614783 -16.8814
-1.09183 -3.49539
-0.887534 -3.43672
-1.32654 -17.0933
-1.01452 -16.9069
0.722598 -8.81464
0.529062 -8.58326
-2.11991 -19.2765
-2.46383 -19.4283
0.358399 -13.5571
0.434454 -13.8946
-2.31478 -17.9994
-2.32052 -17.6287
-0.413284 -2.92045
-0.548553 -3.06719
0.436234 -24.3529
0.131211 -24.1267
-1.63482 -24.6567
-1.25638 -24.6604
0.307993 -1.69111
0.331119 -1.84276
-1.05425 -11.7798
-1.11715 -12.1062
-0.289015 -0.321915
-0.219052 -0.291765
0.572467 -20.7154
0.20157 -20.7605
0.376753 -13.1268
0.691331 -13.0135
0.206433 -14.2908
-0.0815588 -14.4811
0.767802 -1.72712
0.685859 -1.83397
0.606116 -1.32561
0.49248 -1.22583
0.820408 -5.46147
0.66104 -5.64523
0.0384011 -0.0142384
0.0452817 -0.0263019
-0.611148 -7.88954
-0.821033 -8.09184
-0.904974 -23.7097
-1.07206 -23.3683
0.800411 -7.77242
0.534222 -7.66781
0.651129 -1.95435
0.666438 -1.8049
0.569381 -15.1451
0.837536 -15.3798
-1.85073 -22.7186
-1.80688 -22.3408
-1.85177 -10.2384
-1.66804 -10.4847
-1.26564 -8.7285
-1.50778 -8.91739
0.272461 -0.345119
0.325123 -0.416151
-0.589774 -1.69573
-0.581197 -1.54968
-1.58308 -16.4222
-1.84859 -16.1858
-0.743915 -3.64442
-0.659754 -3.82944
-1.32796 -17.5576
-1.5745 -17.8391
-0.957091 -2.36889
-1.01989 -2.23
-0.63348 -25.639
-1.0079 -25.5945
0.118344 -12.8354
-0.139672 -12.6198
0.360884 -0.480832
0.363732 -0.55936
1.61029 -15.8831
1.25413 -15.8814
0.320822 -19.3692
0.0183622 -19.5824
0.132237 -9.08538
0.420762 -9.01798
1.12526 -6.35544
1.38303 -6.43776
0.211093 -17.1365
0.474636 -17.3898
0.396097 -0.68255
0.298786 -0.657419
1.06834 -20.2638
0.698185 -20.207
-2.05345 -10.6729
-1.76965 -10.8074
-0.00342883 -0.36792
0.0201842 -0.302586
-0.876285 -17.0787
-1.10159 -16.7966
0.278364 -14.012
0.595896 -14.1505
-0.931661 -3.00072
-1.0446 -2.87031
-0.0627369 -15.0835
-0.347374 -15.2893
1.11546 -4.90364
1.17118 -5.14688
-0.497594 -8.38327
-0.423947 -8.66745
0.0647269 -0.0641374
0.0429653 -0.0355435
-1.33923 -10.4756
-1.32721 -10.1589
0.206924 -8.22256
0.350278 -8.48031
-2.24103 -11.6085
-1.91613 -11.6522
0.626426 -9.44388
0.572881 -9.74504
1.15194 -23.8352
1.17992 -24.2157
0.772022 -10.9108
0.463479 -10.9973
0.324368 -7.48251
0.502829 -7.27551
-0.32706 -15.4426
0.0232217 -15.4132
-1.36445 -24.393
-1.67816 -24.1803
-0.277175 -6.03456
-0.0260626 -6.09342
-0.620392 -1.16252
-0.69407 -1.29017
1.21502 -8.83564
0.985303 -8.63391
0.541533 -19.034
0.510049 -19.4062
-2.90806 -21.9354
-2.90403 -22.3143
-0.976902 -2.04258
-0.92456 -1.88461
-1.64494 -13.0407
-1.30694 -13.0225
0.501425 -13.5859
0.6683 -13.8906
-0.0708043 -0.141734
-0.0805413 -0.192
-2.19237 -12.5315
-2.11333 -12.2032
0.0604354 -0.0253465
0.0433322 -0.0152095
1.59665 -10.5891
1.53378 -10.2722
-2.79809 -20.4971
-2.60085 -20.174
0.180911 -2.09541
0.318514 -2.19388
-0.64263 -15.59
-0.406853 -15.3249
-0.660774 -6.33543
-0.427521 -6.21291
-1.22629 -6.1557
-1.01732 -5.98412
0.337217 -0.819036
0.443862 -0.832917
0.0458307 -1.95679
-0.0302545 -1.81913
-2.35432 -15.0964
-2.02366 -15.2085
-0.106455 -4.35609
-0.313659 -4.43875
0.807978 -12.6248
1.05158 -12.4045
-1.31833 -13.9794
-1.28697 -14.3242
-0.133213 -0.345384
-0.068503 -0.313553
-0.181792 -12.2959
-0.0724266 -12.6124
-1.96856 -15.3133
-1.75344 -15.0263
-0.27836 -0.493106
-0.221307 -0.536614
0.136434 -0.130331
0.143187 -0.104952
0.831257 -16.0793
0.475336 -16.0871
-1.92921 -8.93597
-1.80826 -9.19986
0.101764 -0.463175
0.17971 -0.464731
0.808157 -21.7773
0.468666 -21.9394
-1.41702 -4.6333
-1.487 -4.86719
0.0473391 -0.520603
0.0781269 -0.606708
-2.35067 -22.3236
-1.98286 -22.4077
-2.04927 -20.5718
-2.08619 -20.1987
-0.687697 -1.13499
-0.748554 -1.264
1.45997 -15.5523
1.11211 -15.6082
-0.43441 -2.21651
-0.268841 -2.21625
0.180929 -0.246992
0.122945 -0.236744
0.123644 -4.20398
-0.0742749 -4.11178
0.0690886 -14.2346
0.324662 -14.4723
-0.213854 -0.440581
-0.292873 -0.487607
-0.529374 -6.36364
-0.585865 -6.62551
-0.851327 -9.67747
-0.601968 -9.85251
0.451569 -0.662276
0.480951 -0.595141
0.818394 -5.23431
0.860717 -4.99619
-0.151726 -14.6895
-0.224142 -15.0339
0.503531 -0.637274
0.41082 -0.625002
-0.188438 -7.51162
0.0411722 -7.67313
0.747233 -6.77991
0.523364 -6.62128
1.38256 -5.85642
1.18524 -5.99894
0.0205697 -0.0149888
0.00706455 -0.0177138
-2.10578 -21.3363
-1.76174 -21.4851
-0.325087 -15.1734
-0.0303536 -14.984
-0.376141 -1.82254
-0.513861 -1.91126
-1.31801 -8.65841
-1.40827 -8.94706
-1.94017 -16.862
-1.59472 -16.9672
0.976519 -13.6316
0.641752 -13.5578
-1.52669 -7.12113
-1.27464 -6.98906
0.717566 -1.34498
0.580932 -1.29321
-1.0572 -3.27356
-1.08994 -3.08899
-0.357043 -0.728139
-0.448397 -0.714809
-1.50748 -7.47736
-1.63808 -7.24477
-2.30063 -21.0613
-2.02057 -20.8061
-1.91515 -13.542
-1.57379 -13.5552
0.437389 -0.747025
0.339638 -0.690516
0.124756 -4.13816
0.341299 -4.1308
0.810549 -15.9577
0.586246 -15.6764
0.706962 -8.08933
0.699725 -8.38012
-1.61502 -8.72366
-1.35376 -8.84845
1.23561 -13.8684
0.986178 -13.6232
-0.601727 -14.3653
-0.90721 -14.5331
-2.16891 -20.2695
-2.49705 -20.0944
-0.514504 -2.80916
-0.693804 -2.78201
-0.495343 -5.96883
-0.436905 -6.21993
-0.434461 -2.95551
-0.622187 -3.0065
0.234847 -3.49403
0.36467 -3.34561
0.293597 -0.69173
0.307443 -0.793033
-2.84699 -22.343
-2.51489 -22.5225
0.5858 -5.73403
0.823486 -5.66726
-0.332728 -2.76525
-0.161615 -2.69388
-0.0102968 -19.2917
-0.177448 -18.9601
1.32895 -24.6679
0.969496 -24.7953
0.69054 -2.28647
0.593114 -2.13451
0.956137 -4.94052
0.83348 -4.72329
0.851379 -9.87313
0.797874 -9.56647
-0.392711 -7.40952
-0.18563 -7.22342
-1.1496 -9.59657
-1.14696 -9.29131
0.704942 -2.21608
0.734323 -2.06198
-0.0413282 -0.016693
-0.0389071 -0.0135423
0.795104 -22.9309
0.500088 -22.6919
-0.619061 -9.70569
-0.638806 -10.0157
0.00721296 -0.42227
0.0314485 -0.35231
0.218339 -18.9707
0.0624685 -19.3078
0.0255953 -0.0208089
0.0192534 -0.00697408
0.702071 -9.63193
0.676314 -9.32572
-0.241671 -17.14
-0.57021 -17.2804
-1.78173 -18.4364
-1.97715 -18.1232
-0.0947539 -0.0447561
-0.135361 -0.0692601
0.643419 -17.3727
0.527609 -17.7205
-0.661692 -9.93143
-0.488975 -9.67378
0.731788 -17.7377
0.480968 -17.4643
1.32837 -8.27963
1.05088 -8.17774
0.370186 -2.04422
0.508351 -1.98488
-2.31944 -13.9913
-2.2061 -14.3131
-0.786449 -3.12162
-0.832527 -2.94298
1.23952 -11.948
1.46322 -12.2051
-1.12186 -4.574
-0.99963 -4.75827
0.895805 -5.92526
1.13036 -6.05279
0.560859 -16.7407
0.227735 -16.8752
-1.85938 -15.6903
-2.10027 -15.437
1.03902 -13.5408
0.726411 -13.396
-0.0874734 -0.0736732
-0.0632555 -0.0430896
-0.88218 -3.42882
-0.929197 -3.63391
1.31996 -13.3805
1.55703 -13.1474
-2.43314 -21.7187
-2.811 -21.7097
0.142869 -0.133936
0.122506 -0.0945281
0.448582 -15.9623
0.0959569 -15.9993
0.278588 -0.290573
0.264544 -0.339666
-0.270506 -0.475693
-0.195054 -0.485338
1.13041 -6.89863
1.06375 -7.15851
-1.40377 -10.3762
-1.34756 -10.0634
0.209975 -0.423048
0.186425 -0.34835
-0.133501 -4.73804
0.00617027 -4.55764
0.664457 -5.70209
0.913702 -5.68507
-0.927391 -6.24343
-0.909933 -5.98373
-2.08623 -12.2295
-1.77532 -12.3361
0.465655 -20.6089
0.11733 -20.7429
-2.39104 -19.509
-2.23192 -19.1682
-0.886203 -3.23066
-0.880659 -3.42854
-1.03596 -12.3552
-1.28612 -12.5838
1.12001 -3.44639
1.06466 -3.24496
-1.76435 -16.903
-2.03951 -16.6735
0.644037 -13.3927
0.409777 -13.1411
0.408487 -8.05909
0.476508 -7.78261
-0.780744 -20.6891
-0.521088 -20.4184
0.487766 -17.6954
0.823185 -17.8522
-1.43057 -11.427
-1.70999 -11.6123
0.504137 -10.1492
0.475479 -10.4627
-0.573743 -8.12634
-0.290812 -8.0767
-0.948911 -5.8341
-0.790822 -5.62458
-1.32134 -8.61269
-1.32301 -8.90931
0.0487596 -0.912277
0.149327 -0.957765
-0.762914 -5.38955
-0.758074 -5.13775
-1.03667 -5.58908
-0.921291 -5.35572
1.22152 -20.28
0.919627 -20.0543
-0.635602 -12.2088
-0.356852 -12.3848
0.817051 -3.77007
0.995183 -3.91114
0.192117 -0.541659
0.211778 -0.466742
-0.657935 -23.3275
-0.727897 -23.7025
-2.44352 -14.6061
-2.11251 -14.7078
0.979389 -9.21532
1.2732 -9.16911
-0.387837 -6.18868
-0.334118 -5.93528
1.25288 -15.541
0.986166 -15.3002
-0.290015 -9.9913
-0.128546 -10.2562
0.116357 -9.75788
0.0911334 -10.0678
0.0600018 -22.5158
-0.244674 -22.7397
-0.236632 -0.839545
-0.208917 -0.735547
0.473549 -1.18217
0.568049 -1.12543
1.5586 -8.79844
1.27943 -8.677
0.276223 -0.734799
0.184333 -0.683429
0.451678 -23.0422
0.104834 -23.1932
0.0672765 -13.0338
0.27259 -12.769
0.752999 -13.459
1.07495 -13.3607
0.363006 -17.8757
0.355504 -18.2509
1.04016 -9.7317
1.25449 -9.52492
-0.0524568 -0.0494963
-0.0726114 -0.0823234
-1.24616 -20.5057
-1.0044 -20.7907
-0.935289 -10.6436
-0.760711 -10.373
-1.14428 -18.7068
-1.51081 -18.68
-1.39781 -16.9225
-1.14336 -17.179
-0.0812888 -19.4442
0.022059 -19.8039
0.436344 -6.16127
0.354218 -5.91292
1.1643 -21.8302
0.856833 -22.0476
0.337904 -24.3631
-0.0391976 -24.4014
0.902548 -2.87301
0.781457 -2.71199
-0.733414 -3.13245
-0.848941 -3.30738
0.61353 -20.0511
0.839585 -20.3526
-1.85749 -15.4104
-2.11672 -15.1785
0.103061 -0.056057
0.0660878 -0.0324073
-0.35497 -2.09971
-0.342924 -2.26504
-0.0779067 -16.003
0.13368 -15.7171
0.474447 -1.94954
0.401526 -1.80211
-0.185795 -4.07229
-0.103612 -4.27775
0.782808 -11.2696
1.04275 -11.0843
0.539678 -6.20831
0.741458 -6.38668
-1.41494 -9.25177
-1.71163 -9.34106
1.21331 -4.10415
1.12897 -4.29456
0.980798 -4.77297
1.21618 -4.78517
1.09911 -16.8604
1.33303 -16.5904
-0.427263 -8.09961
-0.371099 -7.81681
0.419614 -2.20374
0.311011 -2.06903
0.140145 -0.154145
0.125779 -0.112187
-2.21458 -21.0296
-1.83935 -21.0415
0.419754 -4.43441
0.299589 -4.62473
1.50543 -20.4727
1.29231 -20.7795
-1.58403 -17.0065
-1.60685 -17.3719
0.283097 -3.48339
0.0812091 -3.4735
-1.65781 -14.7859
-1.97097 -14.6401
-2.07374 -10.5365
-2.16505 -10.8517
-0.180754 -0.121831
-0.222362 -0.165999
-0.406866 -1.66087
-0.544028 -1.63133
1.00115 -10.3746
1.3133 -10.3469
-1.36163 -8.87323
-1.32307 -9.16818
0.364289 -2.42277
0.501173 -2.54718
1.09116 -21.7122
1.35049 -21.4401
-2.16146 -13.4615
-1.91886 -13.2099
0.171592 -3.5663
0.37492 -3.59907
0.322073 -20.1575
-0.0484347 -20.1216
-0.0824627 -0.0793323
-0.113502 -0.0836543
-0.0684041 -24.69
-0.370948 -24.9205
0.277821 -8.03582
0.305804 -7.75103
-0.347771 -4.80096
-0.211552 -4.61424
1.51944 -9.16859
1.35562 -8.90372
-2.37294 -19.1141
-2.00075 -19.0904
-0.431817 -20.7456
-0.763829 -20.5749
0.483147 -2.96578
0.475743 -3.15892
-2.09899 -22.8001
-2.42476 -22.9969
-0.796251 -5.70977
-0.938354 -5.5116
0.928953 -3.34722
1.0585 -3.21955
-1.35996 -22.1316
-1.26625 -22.4989
-0.108645 -0.0524454
-0.0624568 -0.0299166
-1.94277 -13.5849
-2.28373 -13.5584
0.850764 -5.67898
1.03347 -5.5218
-0.437559 -4.01703
-0.592815 -4.18047
-0.0982552 -0.0481759
-0.102369 -0.0489817
1.1172 -6.62577
0.907622 -6.77513
-0.200496 -2.26185
-0.184321 -2.09476
-0.437629 -0.765701
-0.364613 -0.676039
-0.0449876 -0.168947
-0.0857771 -0.210412
0.698825 -19.174
0.929039 -19.4708
-0.928413 -3.00982
-0.789171 -3.1227
0.968477 -9.01347
0.897955 -9.30366
0.222422 -8.71253
-0.0149258 -8.88614
-0.9322 -16.444
-1.28125 -16.5285
-0.0602663 -10.2231
0.193204 -10.047
0.00153061 -0.0185437
-0.00192284 -0.0414079
-0.904016 -1.81528
-0.856224 -1.94611
-1.70225 -18.5826
-2.07006 -18.5429
-1.88262 -10.8893
-1.66788 -11.1204
0.973538 -5.25854
0.813453 -5.05609
-0.931397 -1.86306
-0.792152 -1.9023
-0.313358 -0.356034
-0.313152 -0.419707
0.0150332 -0.378639
0.00570091 -0.307908
0.0655143 -3.44447
0.178832 -3.61942
0.0392244 -14.3925
0.365913 -14.2839
0.963559 -8.69553
1.08146 -8.4329
1.5541 -23.0924
1.49806 -23.4687
-0.834286 -23.2306
-1.20993 -23.1938
0.500191 -0.698664
0.400765 -0.650338
0.333567 -15.5538
0.591077 -15.8021
1.52567 -8.09541
1.27096 -8.2084
0.0685108 -2.27744
-0.0167552 -2.42622
-0.782377 -1.33685
-0.679279 -1.2186
0.0839093 -0.136229
0.0752521 -0.0950622
1.17568 -6.64599
1.40193 -6.52877
-2.44509 -17.6417
-2.38366 -17.2765
1.14326 -3.77229
1.16398 -3.56994
-0.628671 -1.20317
-0.542454 -1.08663
-0.539398 -1.85619
-0.683413 -1.94634
-0.637594 -2.727
-0.640268 -2.54742
-1.78315 -25.4992
-2.08195 -25.2645
-0.0529609 -0.36447
-0.0152111 -0.304077
-0.759664 -23.7515
-0.383692 -23.7884
0.846596 -4.61577
0.987221 -4.45043
0.455474 -6.92402
0.230902 -6.76791
1.04684 -20.5304
0.928424 -20.1723
-2.23433 -15.5825
-2.13712 -15.238
-0.860723 -7.18931
-0.593059 -7.11887
-0.371798 -0.317879
-0.298153 -0.277219
-0.419395 -3.01521
-0.422071 -2.82563
0.468746 -2.08359
0.507996 -2.25
1.08516 -22.2845
0.708455 -22.3103
-0.0336086 -0.0107179
-0.00842392 -0.00126513
-0.0366349 -0.576558
-0.0734643 -0.66427
0.187836 -8.19227
0.473844 -8.2269
-0.22556 -0.185693
-0.20619 -0.212232
-1.28158 -3.67501
-1.17445 -3.83667
-2.15716 -20.8041
-2.09172 -21.1744
0.0432964 -15.3266
-0.300573 -15.3977
-0.680979 -1.97951
-0.581789 -1.84028
-0.0183511 -23.7378
0.211431 -24.0407
0.382984 -24.659
0.745342 -24.5437
-0.28129 -0.755056
-0.385539 -0.779928
-0.788964 -7.33883
-0.737901 -7.06486
0.951011 -4.86592
0.925267 -4.6287
0.686143 -17.0266
0.713325 -16.6648
-0.116619 -0.878007
-0.0306093 -0.941062
-0.163821 -19.0929
0.160352 -18.9178
3.43996e-05 0.000113623
-0.0015922 -5.17378e-05
0.199206 -0.304995
0.257511 -0.364774
0.164211 -2.49524
0.329782 -2.4523
0.163049 -1.96943
0.22507 -1.82889
1.46508 -15.8367
1.20672 -15.5831
-1.51489 -15.5856
-1.58412 -15.2394
-0.181151 -0.264019
-0.247191 -0.293042
0.00810278 -6.35054
0.057609 -6.6123
0.717315 -3.88708
0.78076 -4.10151
1.21037 -25.4924
1.24452 -25.1109
-0.923854 -11.9938
-1.14587 -11.7582
0.110449 -0.0643272
0.0905578 -0.0427217
-0.666315 -15.0741
-0.914427 -15.3269
-1.36119 -7.58061
-1.53286 -7.81959
0.443508 -19.9984
0.188754 -19.7232
-1.30974 -21.5879
-0.937826 -21.5353
-0.38102 -0.990843
-0.371802 -0.878938
0.0168694 -3.69723
-0.0677942 -3.89257
-0.170777 -0.779097
-0.0705619 -0.778088
-0.0098238 -0.000784157
-0.0230276 -0.00631474
-1.17865 -12.9148
-1.19373 -12.5787
-0.68514 -6.15818
-0.897677 -6.02593
0.102361 -0.0695186
0.0837904 -0.0441551
-0.508562 -0.695726
-0.513817 -0.788777
-1.56935 -19.5293
-1.19985 -19.5528
1.06954 -19.1654
0.715445 -19.2754
-2.16883 -16.0407
-1.82808 -15.9194
-0.085927 -0.165849
-0.109034 -0.219394
0.584432 -10.6825
0.286469 -10.7955
-0.0564166 -0.0911485
-0.0478799 -0.126632
0.225983 -16.7323
-0.0501692 -16.5018
0.646488 -1.37433
0.529535 -1.41842
-0.0275651 -18.8236
0.252258 -18.5819
-0.649015 -1.39516
-0.668603 -1.27064
0.272907 -22.9301
-0.0938458 -23.0205
1.32273 -13.8979
1.42586 -13.5738
0.507004 -1.05668
0.59487 -1.16932
0.329052 -2.15039
0.298709 -1.98716
-0.231246 -8.31116
0.0252492 -8.44765
0.559491 -12.6557
0.314025 -12.4236
-1.89612 -17.5578
-1.57821 -17.736
-1.34708 -14.8716
-1.10829 -15.1249
0.193095 -24.8942
-0.0873351 -25.1521
-0.829755 -6.07147
-0.591582 -5.96605
1.22487 -13.4049
1.24479 -13.7486
-0.755312 -25.6635
-1.12544 -25.7351
-2.14934 -23.0244
-2.46344 -23.2401
0.443992 -24.2915
0.110777 -24.1101
-0.657037 -19.0411
-0.48948 -19.3704
0.365078 -14.2619
0.65262 -14.461
-0.0113393 -13.3984
0.324248 -13.4493
0.614446 -5.80663
0.832727 -5.95377
-1.78174 -21.2922
-2.14466 -21.3954
-0.385607 -3.00412
-0.25338 -3.13811
-1.16759 -8.54592
-1.27114 -8.82884
-1.00802 -3.77204
-1.07934 -3.98231
1.64809 -12.4733
1.4125 -12.2237
0.457352 -2.64884
0.282031 -2.5986
-2.8502 -24.1391
-2.6151 -24.4382
-2.39817 -22.3404
-2.29993 -22.7062
-0.045888 -0.612942
0.0387261 -0.586217
0.0176159 -0.00456552
0.0276859 -0.0116337
1.11591 -8.81092
1.3794 -8.69575
0.253543 -0.397892
0.289884 -0.35589
0.525045 -4.64649
0.313409 -4.73159
1.27553 -25.5898
1.12031 -25.2397
-2.24091 -24.9157
-1.95756 -25.1695
-0.981179 -12.3798
-1.28035 -12.535
-1.61923 -9.47129
-1.91495 -9.58011
0.21559 -16.3298
0.102674 -16.6722
-0.101277 -2.51882
-0.205293 -2.66843
-0.697666 -3.25344
-0.767215 -3.07954
0.780275 -2.30502
0.653054 -2.17169
0.567834 -20.0316
0.289772 -19.7798
0.299258 -13.5628
-0.00982171 -13.7031
-0.0539119 -0.448374
0.0211202 -0.431982
-1.06905 -23.6122
-0.712417 -23.4853
-0.943026 -3.1831
-0.780867 -3.05005
0.676444 -7.09879
0.56649 -6.84294
0.852728 -2.9967
0.990019 -3.15636
-0.717356 -7.32532
-0.717727 -7.04898
0.346427 -1.91788
0.411791 -1.78768
0.657239 -2.87709
0.545246 -2.715
-0.669979 -2.11274
-0.569339 -2.22691
-0.0213145 -0.00525449
-0.0270517 -0.00739185
1.02231 -12.1382
0.708682 -12.2332
-2.32688 -22.6103
-2.64659 -22.4098
0.509659 -0.626301
0.474781 -0.537785
0.454698 -12.4204
0.134425 -12.5004
-1.26799 -22.1961
-0.931074 -22.0255
-1.17743 -14.9774
-1.313 -15.3062
-0.118279 -24.7903
0.0556146 -25.129
-0.532343 -6.31662
-0.711727 -6.13625
-1.85458 -11.5926
-1.98943 -11.9012
0.519391 -1.80858
0.431164 -1.67263
-1.41369 -7.48859
-1.66759 -7.3924
-0.569232 -8.16306
-0.57135 -8.45515
-0.888169 -7.46255
-0.610436 -7.43372
-0.147862 -0.105508
-0.117793 -0.106392
-0.00781499 -5.68136e-05
-0.0156516 -0.00239799
-1.79052 -13.3436
-2.08956 -13.1939
0.0473252 -13.8799
0.301436 -14.1156
0.350646 -21.8584
0.164684 -21.5285
-0.183849 -0.900263
-0.0852469 -0.852752
-2.55545 -20.3127
-2.45937 -19.9487
0.323925 -10.0053
0.619463 -10.1059
0.150695 -8.28132
0.0194321 -8.54152
0.924399 -2.20273
0.84495 -2.33124
0.0463808 -0.0203679
0.0498214 -0.0332674
-0.0601753 -2.73961
-0.127677 -2.57113
0.474113 -24.2363
0.108726 -24.3387
-0.595011 -6.54763
-0.347103 -6.63452
0.693806 -8.21682
0.972165 -8.1596
0.849555 -5.40623
1.01345 -5.61218
-2.61657 -22.4161
-2.29805 -22.2075
-1.34663 -16.8774
-0.98695 -16.8482
0.891893 -3.61718
0.685343 -3.60343
-2.12054 -11.8589
-1.81452 -11.9709
-0.428378 -1.59824
-0.379961 -1.45445
-1.06124 -6.98674
-0.9352 -6.73873
-2.56116 -24.0451
-2.72291 -23.7011
-0.0110166 -1.15047
-0.0976391 -1.07707
1.0984 -13.8727
1.05256 -14.2148
-2.24285 -18.9971
-2.16771 -19.3611
-1.32861 -4.98192
-1.33767 -5.22594
0.340115 -23.9439
0.717999 -23.9119
1.11421 -5.31496
0.952685 -5.48805
-1.94327 -25.6196
-2.31994 -25.5705
-0.261921 -0.46529
-0.328446 -0.447537
0.791147 -2.89212
0.947231 -3.02731
1.15493 -21.5963
1.31386 -21.9415
0.0646324 -22.7647
-0.306973 -22.8298
-0.141691 -0.524574
-0.205194 -0.597014
-2.04162 -24.6699
-2.34927 -24.4467
-0.418301 -1.18905
-0.506166 -1.12015
-2.44269 -25.5185
-2.67853 -25.2182
0.468696 -12.4459
0.78544 -12.5571
1.39401 -24.9068
1.01488 -24.9509
0.025879 -5.9434
-0.201923 -6.06409
1.37157 -18.747
1.61554 -19.0348
-1.36232 -11.2349
-1.40641 -10.9122
-1.36188 -16.975
-1.6766 -17.1639
-2.42452 -17.826
-2.25402 -17.4926
0.243817 -20.826
-0.0347483 -20.5737
1.50546 -21.934
1.26327 -22.223
0.18771 -20.8305
-0.0936829 -21.078
0.409529 -21.7825
0.721472 -21.5726
0.0751849 -4.59506
0.285173 -4.68394
1.05694 -3.28541
0.921622 -3.40987
0.188817 -0.141183
0.139414 -0.116299
-2.54076 -19.391
-2.64673 -19.7514
0.630269 -12.2292
0.572448 -11.9
-0.389747 -0.582813
-0.299925 -0.570073
1.20245 -13.933
1.05187 -14.2398
-0.0901839 -0.0674047
-0.131449 -0.0921083
0.542776 -2.31287
0.69932 -2.40783
-0.0934775 -2.93623
-0.25725 -3.03733
1.24607 -23.2257
1.20947 -23.6048
1.44804 -20.7293
1.14647 -20.9502
0.0771729 -20.0001
0.133067 -20.3718
0.0162877 -3.15116
-0.110818 -3.00538
0.366066 -2.8205
0.195157 -2.74244
-1.96887 -8.92214
-1.71501 -9.06203
-0.206568 -0.612972
-0.128662 -0.650217
-0.0939522 -20.9106
0.0637027 -21.2536
0.339146 -13.3136
0.246691 -12.9844
-0.304675 -15.6128
0.00867776 -15.7781
-1.15747 -24.516
-1.1593 -24.1341
1.18844 -7.06609
0.918914 -7.00525
-2.0677 -25.206
-2.30802 -24.9105
-0.227728 -0.219693
-0.269092 -0.213768
0.75175 -20.7807
0.500469 -20.4994
0.278806 -5.01961
0.0833827 -4.88648
-0.961599 -4.10662
-0.806474 -3.93636
0.292624 -2.5446
0.443962 -2.65292
0.600665 -18.2407
0.400033 -17.9235
0.242952 -24.5213
0.517849 -24.784
-0.410083 -3.69539
-0.209667 -3.74619
-0.0379561 -16.6575
-0.373912 -16.5369
-0.509139 -9.78336
-0.798406 -9.88982
-0.359426 -2.90243
-0.186762 -2.97017
-1.21095 -15.841
-0.951797 -15.5941
-0.459861 -4.2535
-0.348134 -4.44528
0.0789037 -2.97751
0.104648 -2.79028
-0.131426 -3.67541
-0.0629429 -3.4785
-0.590635 -10.1209
-0.284748 -10.1413
0.622327 -1.51219
0.573806 -1.36946
0.785553 -2.71718
0.827379 -2.90443
0.116962 -0.0755946
0.0803263 -0.0575446
1.39124 -13.9161
1.37938 -13.5712
-1.57988 -19.3655
-1.64421 -19.7343
-0.055181 -0.0499468
-0.0381226 -0.0247161
-1.24444 -3.4397
-1.04061 -3.37518
-0.00740552 -1.10589
0.101207 -1.13055
0.0551173 -0.39794
0.0837141 -0.335231
0.0416644 -0.414721
0.0155326 -0.344027
-0.533269 -8.22889
-0.776132 -8.39475
-1.4512 -20.9635
-1.19197 -20.6895
0.0825851 -12.6159
0.0753664 -12.2809
-1.16251 -8.37637
-1.4206 -8.25768
0.0467257 -0.0408623
0.0746871 -0.0515308
-0.512535 -2.48598
-0.399896 -2.61268
0.759424 -6.68345
1.02178 -6.65636
-0.916869 -1.89048
-0.824166 -1.99251
0.888616 -4.28353
1.03862 -4.47175
0.492252 -10.3778
0.80701 -10.3738
1.01321 -19.1207
1.20174 -18.8009
-1.5906 -9.6212
-1.58616 -9.92954
-1.48621 -16.8191
-1.79797 -17.0122
-2.09299 -18.4735
-2.46444 -18.4828
0.809375 -1.97888
0.935415 -2.11026
-1.78642 -12.487
-2.10682 -12.6051
0.962763 -4.07825
0.7568 -4.12892
-1.55238 -11.9293
-1.25816 -11.7685
-2.26116 -16.9354
-2.34751 -17.2935
1.28508 -16.6991
0.9242 -16.6853
-1.16845 -10.5645
-0.863931 -10.6548
-1.12271 -4.94466
-1.36081 -5.02536
0.882217 -10.0649
0.703416 -10.3158
-0.138139 -16.5483
-0.415067 -16.7768
-0.215048 -0.171343
-0.162549 -0.130348
0.517842 -9.062
0.718962 -9.29381
-1.73622 -7.57014
-1.64528 -7.82822
0.715985 -8.33793
1.00425 -8.3275
-0.439331 -7.2908
-0.714725 -7.28938
-0.523337 -9.61185
-0.575962 -9.31099
-0.63441 -5.02695
-0.878701 -5.05636
0.083282 -7.32788
0.19581 -7.58657
0.985379 -3.47252
0.782537 -3.42797
-0.332251 -0.399918
-0.375694 -0.371091
-0.0563549 -0.430268
0.00264814 -0.480969
-2.05981 -17.9625
-1.82975 -18.2491
0.164032 -2.61038
0.333471 -2.67964
-1.96306 -11.544
-1.88151 -11.8587
0.199891 -0.934909
0.13766 -1.02591
-1.5514 -13.0695
-1.47498 -13.3983
-0.436035 -0.669935
-0.3378 -0.635345
0.306603 -1.63874
0.440459 -1.71606
-1.34939 -12.58
-1.10047 -12.3495
-0.250787 -13.4315
-0.559955 -13.2937
-0.688619 -23.4906
-0.589986 -23.8586
-0.63065 -14.464
-0.578234 -14.1192
0.548815 -1.94578
0.475234 -1.79743
-1.06054 -6.00478
-1.30932 -5.95735
-0.17793 -1.96344
-0.0413522 -2.04356
0.768303 -4.25087
0.90403 -4.09202
0.91878 -5.52347
0.973593 -5.28359
0.679332 -14.8211
0.445382 -14.5568
-0.452766 -0.913277
-0.36499 -0.824164
-0.106207 -0.0519247
-0.0780485 -0.0363576
-0.999796 -21.7933
-0.637691 -21.692
-1.50417 -15.9126
-1.29716 -15.6184
-1.24501 -11.1188
-1.27509 -11.4479
-1.59715 -9.35989
-1.90265 -9.40788
-2.36083 -17.5057
-2.69091 -17.6838
-1.01824 -19.1896
-0.706936 -18.9937
-1.48276 -13.289
-1.82256 -13.2828
-2.46257 -16.9874
-2.10605 -17.0556
0.0837985 -0.793753
0.141865 -0.715826
-2.36233 -19.7124
-2.34704 -20.086
0.72255 -11.6502
0.85389 -11.3517
0.0412366 -6.78073
0.0287022 -6.51212
-0.974884 -15.8675
-0.684033 -15.6613
1.10612 -21.7
1.48057 -21.752
1.02852 -3.29745
1.00066 -3.09926
-0.456533 -4.38752
-0.339561 -4.5798
0.414404 -1.9838
0.52977 -1.89591
0.034 -8.66428
0.299315 -8.7961
0.763962 -14.3332
0.510044 -14.092
0.400262 -8.59677
0.117187 -8.66522
-0.0935086 -0.0521179
-0.120564 -0.0627388
-0.148151 -2.74557
-0.121546 -2.5642
0.418955 -4.81622
0.301281 -4.61054
-0.554055 -13.0796
-0.243819 -13.2107
-0.779449 -13.2314
-0.446659 -13.2866
0.270065 -0.39678
0.204812 -0.409794
-0.582613 -2.62642
-0.763011 -2.67617
-0.552311 -3.91129
-0.647049 -4.11385
-1.22403 -7.29186
-1.22789 -7.0174
-2.15725 -18.1603
-2.11897 -18.5306
0.782922 -4.54341
0.912162 -4.75103
0.622629 -11.2074
0.944495 -11.2592
-0.432031 -7.75162
-0.643077 -7.5703
-2.94671 -24.0504
-2.56607 -24.0613
-0.323912 -0.749719
-0.396381 -0.842738
-1.5554 -19.5933
-1.89168 -19.4395
0.023096 -8.25195
-0.252096 -8.33871
0.405582 -0.468106
0.325475 -0.41222
-1.12924 -6.23137
-0.874362 -6.15736
1.20972 -13.852
0.881458 -13.7421
-2.77455 -25.5436
-2.9253 -25.1917
0.0128666 -22.9692
-0.361878 -23.0142
0.459568 -24.9615
0.839858 -24.9523
0.162147 -2.8893
0.0146389 -3.00426
-0.0647386 -10.0614
-0.276283 -9.83761
0.669801 -5.45748
0.880964 -5.609
-0.180096 -4.3823
-0.399712 -4.42153
0.517038 -7.13296
0.785551 -7.1002
-0.239575 -0.154979
-0.183869 -0.123131
-0.696648 -8.05692
-0.428851 -7.9507
1.30059 -16.6873
1.19687 -17.0328
-0.458084 -15.6277
-0.181194 -15.4077
-2.36596 -25.3038
-2.43951 -25.6795
1.02278 -25.3395
1.08646 -25.7176
-1.53628 -24.3204
-1.59445 -24.6978
-1.07136 -13.9443
-0.856774 -13.6716
0.811877 -24.7898
0.723604 -24.4184
-1.88227 -25.1232
-2.18834 -24.8978
-1.16304 -7.80571
-1.11843 -7.524
0.887224 -6.08197
0.727067 -5.86809
-2.72563 -23.5829
-2.75461 -23.2035
-0.206836 -0.526612
-0.204929 -0.445942
-0.30778 -0.839394
-0.240064 -0.91254
0.346123 -2.7774
0.317607 -2.59406
0.774033 -16.9555
0.719566 -17.3157
0.346818 -4.19469
0.422712 -4.40976
0.00368659 -0.000467274
0.0223983 -0.00502023
-0.366623 -0.530384
-0.456579 -0.553457
0.136992 -6.96502
-0.0519996 -6.76952
-0.445311 -17.3889
-0.0998081 -17.4767
-0.505197 -9.03445
-0.468505 -8.73672
-1.14003 -3.7079
-1.02187 -3.51955
-0.105937 -0.780118
-0.104398 -0.887918
0.71965 -5.16328
0.498061 -5.25412
-1.06735 -7.54794
-0.923833 -7.78339
0.00564789 -0.0158843
-0.000904577 -0.00349471
0.0449104 -6.5074
0.281534 -6.63034
-0.909033 -3.1934
-1.0323 -3.36857
0.552749 -3.47325
0.467452 -3.65445
0.103702 -3.22481
0.107907 -3.02842
-1.61877 -17.4164
-1.30474 -17.2225
-0.568391 -8.76976
-0.737624 -8.53201
-0.429075 -1.64444
-0.515644 -1.77923
0.701161 -3.04356
0.515824 -2.97644
-1.07425 -15.6266
-1.27204 -15.3353
-1.90014 -14.6158
-2.04093 -14.3025
-0.479597 -14.1505
-0.136028 -14.137
-0.431208 -2.71597
-0.287401 -2.82143
1.19763 -22.5738
1.20599 -22.1941
-0.0898868 -7.20517
-0.352489 -7.28713
-2.4663 -21.2555
-2.82822 -21.3686
-2.38111 -20.471
-2.27694 -20.1088
1.01514 -4.83763
0.845326 -4.65511
0.172541 -0.583506
0.0876668 -0.552366
0.14069 -0.459891
0.220473 -0.473769
0.209909 -0.195404
0.217983 -0.164112
0.540614 -7.44813
0.301997 -7.58409
1.13762 -19.0831
1.13205 -18.7087
-2.37196 -23.111
-2.02292 -23.2568
1.23628 -7.54441
1.41124 -7.3432
0.796897 -17.7989
1.05298 -17.5398
-0.281604 -2.54298
-0.134195 -2.44126
0.143949 -0.171561
0.160926 -0.224791
0.364363 -0.594409
0.351147 -0.677731
0.450561 -2.39928
0.589932 -2.5225
0.163372 -4.39059
0.221934 -4.61286
1.1084 -14.9749
1.17788 -14.6325
-0.707329 -6.52113
-0.518045 -6.33018
0.590712 -0.977063
0.498723 -0.880004
0.724492 -2.73734
0.864509 -2.64561
0.0516481 -0.0226345
0.0291072 -0.0110252
-1.18269 -25.0744
-1.02044 -25.4185
-2.1541 -14.6505
-1.91194 -14.3891
-0.0774148 -9.63834
0.0276686 -9.35113
-0.955603 -3.44247
-0.760756 -3.35778
-0.967666 -2.29333
-0.925153 -2.44691
0.968294 -2.264
0.895184 -2.39889
0.388695 -0.459606
0.31076 -0.402441
0.334508 -17.7597
0.656412 -17.945
-1.3279 -22.4333
-0.958576 -22.3568
-2.65838 -24.3297
-2.48555 -24.6691
-0.0205988 -0.0291532
-0.00189927 -0.0368516
0.58192 -20.0979
0.819989 -19.812
0.526936 -8.52201
0.26792 -8.65115
1.33047 -12.7349
0.995268 -12.7111
-0.362712 -10.2722
-0.0577259 -10.2568
0.789489 -17.3216
1.00503 -17.0316
-2.3292 -23
-1.96117 -23.0872
1.21761 -8.62002
1.45774 -8.47052
0.785571 -2.49266
0.948781 -2.59698
-0.552872 -0.92056
-0.543609 -0.817119
0.116051 -0.253583
0.168529 -0.304446
0.929878 -3.2983
1.10819 -3.24197
-0.282357 -23.9452
-0.269085 -23.5639
0.341117 -3.778
0.491238 -3.6418
0.420217 -21.1779
0.297798 -21.5348
-1.8088 -21.8497
-1.91698 -21.4883
0.326931 -16.9826
0.259752 -17.3402
-1.06095 -10.2171
-1.01907 -9.90612
0.126407 -0.103873
0.171962 -0.142335
-0.664843 -22.7073
-0.953687 -22.9529
-1.65454 -14.7021
-1.45917 -14.407
0.946434 -8.3001
0.99425 -8.59277
1.37472 -12.5264
1.58523 -12.7994
0.179331 -0.119638
0.156211 -0.0877801
-1.74934 -24.9798
-1.46643 -25.2332
-0.32856 -12.7651
-0.0705211 -12.5532
0.603827 -19.1141
0.75413 -18.7736
0.943811 -3.56456
1.10507 -3.46524
-0.0534521 -0.872658
-0.145302 -0.933411
-1.45997 -10.0435
-1.52988 -9.74515
0.625433 -9.14478
0.531709 -9.43072
-0.0710807 -0.0477341
-0.0423248 -0.031747
0.0368751 -0.0248024
0.0170722 -0.0149347
-1.17216 -14.6555
-1.39226 -14.3901
0.97431 -20.6536
1.09433 -20.2987
0.339 -1.91108
0.489264 -1.89778
0.0278753 -0.034259
0.00944151 -0.0180372
-0.383152 -7.32408
-0.602952 -7.49999
-1.88097 -10.6861
-1.95979 -10.3824
0.836708 -25.1271
1.05584 -25.4401
0.113236 -0.240931
0.17323 -0.259222
0.262434 -0.326116
0.274354 -0.394379
-0.957333 -4.03664
-1.07777 -4.2359
1.30019 -11.991
0.974724 -11.9215
0.299673 -3.14945
0.15423 -3.27513
-0.623566 -11.8184
-0.936598 -11.9081
-0.651028 -4.81024
-0.884501 -4.8823
-1.1461 -21.6559
-0.771955 -21.6243
1.21077 -6.54979
1.42554 -6.73178
1.33278 -14.5673
1.68089 -14.6001
0.528 -2.00966
0.376071 -1.94623
0.0212915 -2.78273
-0.0819712 -2.63124
-0.712612 -14.1555
-1.05669 -14.1435
-0.999625 -21.7623
-0.652944 -21.6158
-0.100366 -0.162051
-0.152305 -0.187742
0.0434476 -0.0331058
0.0523854 -0.0268375
-1.46325 -10.7422
-1.32012 -11.0268
0.0408371 -0.916732
0.0995158 -1.01517
0.478667 -6.99017
0.584827 -6.74519
0.568073 -3.74994
0.611319 -3.54942
0.650182 -4.70494
0.417448 -4.69973
0.113955 -4.2875
0.206916 -4.49528
0.075634 -0.600363
0.03918 -0.685949
0.885183 -2.18038
0.721593 -2.11592
1.11459 -10.0052
1.42555 -10.0452
0.197937 -21.2667
0.474019 -21.0129
0.625044 -9.02638
0.582402 -9.32466
-1.11679 -16.6298
-1.44485 -16.4863
-2.00107 -19.4169
-2.36026 -19.3232
0.201365 -0.7917
0.106042 -0.748805
1.03839 -11.1606
1.33503 -11.3087
-1.91109 -17.7531
-1.6772 -17.4615
-0.509577 -4.28097
-0.567971 -4.50263
0.213204 -16.9278
-0.0544427 -16.6863
-0.0255272 -0.331776
-0.0779853 -0.383933
0.0764848 -0.0325034
0.107535 -0.0482253
0.29551 -2.22032
0.130367 -2.21953
0.355982 -1.25734
0.371457 -1.39837
0.184114 -2.81436
0.00837347 -2.75701
-1.78859 -22.1331
-1.7901 -22.5128
0.971377 -23.6007
1.34947 -23.5636
-1.89579 -10.423
-1.58831 -10.4891
-1.72569 -24.6923
-1.6279 -25.061
-0.975239 -4.59201
-1.15571 -4.76343
-0.0517272 -22.3634
0.314408 -22.2747
1.09026 -6.66958
1.25656 -6.8974
0.0870924 -0.0679904
0.111039 -0.0685065
0.0219517 -0.556934
-0.0348696 -0.49375
0.619712 -0.936403
0.665677 -1.05414
-0.559956 -2.42821
-0.676519 -2.57672
-2.13716 -13.9592
-2.15348 -13.6167
-1.78208 -22.5212
-1.9015 -22.8829
-0.786094 -6.37894
-0.95929 -6.59013
0.146549 -0.127742
0.149989 -0.166532
-0.415322 -23.3113
-0.180534 -23.6095
0.15937 -0.173961
0.201084 -0.172091
0.0205493 -0.0513831
-0.00550166 -0.0481228
-0.0716211 -8.17558
-0.113238 -8.46495
0.0902253 -0.166407
0.0987471 -0.219808
0.445215 -2.28309
0.278777 -2.28846
-2.29176 -18.7926
-2.47118 -19.1234
0.983261 -5.82324
1.23644 -5.81924
-0.176142 -13.2223
-0.288381 -13.5451
0.289502 -21.9893
0.623068 -21.8152
1.3963 -21.1275
1.52405 -20.7745
-0.7773 -2.98658
-0.914303 -2.87728
-0.452212 -3.18673
-0.25699 -3.17606
-0.453069 -2.04483
-0.437897 -1.88536
0.492469 -2.93669
0.680756 -2.97541
-0.68619 -16.5728
-0.336249 -16.6403
-0.0294236 -3.97878
0.00959629 -4.19618
0.102463 -19.3688
0.196107 -19.7313
-0.00608233 -0.0500424
0.0191488 -0.0655708
0.756145 -4.69081
0.523363 -4.67085
0.825526 -6.54179
0.795607 -6.27649
0.202554 -2.05794
0.325215 -1.96654
-0.19558 -22.5092
-0.201348 -22.1293
0.621534 -1.75906
0.711331 -1.66098
1.25328 -8.40668
1.00657 -8.5463
-1.31174 -5.53317
-1.06138 -5.48114
-0.182227 -14.5313
-0.389596 -14.2519
-0.245471 -2.09065
-0.179794 -1.9405
0.646862 -17.4826
0.979301 -17.3376
-0.0866863 -2.37429
-0.224362 -2.48462
-0.0304026 -0.624585
0.0567413 -0.653345
0.860242 -4.82722
0.659321 -4.6857
-0.0746493 -0.0903913
-0.039164 -0.0807565
-0.262859 -1.0575
-0.230055 -0.942168
-0.106903 -7.62326
-0.194776 -7.89413
0.438902 -13.2468
0.433218 -13.5892
0.900694 -15.6776
1.21113 -15.515
-1.40513 -20.3757
-1.60889 -20.6933
-0.0695932 -14.9583
-0.212751 -15.2806
-0.253331 -21.4527
0.102135 -21.574
-1.52546 -7.70912
-1.80322 -7.80226
0.083499 -2.88789
0.225929 -2.77377
1.11525 -4.03305
0.946144 -3.87361
-0.467211 -24.2082
-0.149611 -24.4146
-0.13013 -24.1344
-0.439983 -23.9163
-2.15904 -17.0012
-1.9745 -17.3114
1.21805 -9.86178
1.12534 -9.56149
0.0753026 -0.712007
-0.0201998 -0.712956
0.0260531 -0.00886688
0.0504535 -0.0251807
-0.109674 -0.413655
-0.0409912 -0.438395
-1.11284 -8.37158
-0.880611 -8.18598
-0.848208 -23.8909
-0.528201 -23.6871
-0.552338 -4.58779
-0.669402 -4.79635
0.165659 -0.965057
0.222689 -0.875724
0.634234 -17.0791
0.638089 -17.4452
1.51428 -15.051
1.46296 -15.3994
-1.33125 -6.93362
-1.55481 -6.80049
0.33564 -0.28596
0.269896 -0.265061
-2.31181 -14.9788
-1.96318 -15.0183
0.724844 -9.68945
0.437357 -9.7873
-0.744416 -23.8181
-0.586917 -24.1647
1.0465 -25.4103
1.4054 -25.2778
-2.42597 -15.0153
-2.09389 -15.122
-0.241972 -2.71904
-0.421744 -2.7027
-0.2296 -9.81144
-0.445073 -9.5948
-0.397247 -2.45725
-0.320213 -2.6118
0.78872 -3.46761
0.990583 -3.46957
-0.137016 -21.1825
-0.492069 -21.0635
0.80091 -13.9921
0.742117 -13.6502
-0.528852 -7.39101
-0.290057 -7.52976
-1.29949 -17.9926
-1.27921 -18.3672
0.798552 -1.96797
0.935478 -2.08679
-0.310661 -4.13189
-0.45298 -4.30692
-0.123815 -0.404578
-0.0507435 -0.406243
-0.549699 -0.914249
-0.554188 -0.816001
-1.71854 -17.0347
-1.43979 -16.7963
0.050412 -12.7224
0.0163762 -13.059
-0.528631 -19.3469
-0.726844 -19.0357
-1.88725 -17.9545
-2.16569 -17.7186
-0.400612 -23.356
-0.459954 -23.7328
-1.42356 -23.3334
-1.05891 -23.2324
0.837444 -16.2609
0.610399 -16.5361
-0.298252 -20.0817
-0.19046 -20.4416
-0.382514 -12.4554
-0.459141 -12.1317
-1.69185 -7.88671
-1.56943 -7.62023
-0.166913 -14.6836
-0.514194 -14.6902
0.658611 -11.1053
0.772085 -11.4189
0.0562752 -7.44176
0.332449 -7.42981
0.699748 -19.9094
0.363563 -20.0676
-0.935439 -10.9488
-0.9993 -10.6312
-1.00622 -2.24256
-0.86235 -2.30123
1.54217 -16.5306
1.69076 -16.2078
-0.092149 -4.48339
-0.313931 -4.468
-0.594645 -2.45838
-0.421157 -2.46233
0.590835 -23.4971
0.236153 -23.6304
-2.07797 -21.2299
-1.87153 -21.5435
0.807766 -2.00941
0.648853 -1.95396
0.480784 -2.34179
0.355208 -2.44663
-2.2241 -16.8623
-2.10894 -17.2048
-1.78615 -25.0652
-2.10826 -25.2679
-1.1981 -25.4859
-1.57633 -25.4916
-0.575325 -2.60982
-0.756435 -2.64316
-2.79885 -25.3457
-2.44376 -25.4853
0.509486 -7.06662
0.287741 -6.90178
1.24274 -23.0371
1.07721 -23.379
-0.80549 -10.7144
-0.953335 -11.0112
0.488644 -1.54427
0.632759 -1.59108
-1.55672 -24.9372
-1.93165 -24.882
0.23442 -0.733766
0.332915 -0.780888
-0.103017 -0.0493512
-0.0585791 -0.0278378
1.42152 -8.71144
1.45618 -8.42184
1.08665 -3.52748
1.00974 -3.70634
0.424251 -8.05881
0.63048 -7.86903
0.467728 -1.99803
0.594869 -2.11746
0.418353 -5.71778
0.611837 -5.56897
-0.226141 -4.38095
-0.295498 -4.59965
0.579874 -0.951891
0.520987 -0.84178
-1.8017 -20.0142
-1.47122 -20.183
-0.961606 -14.789
-0.614123 -14.8123
-0.621958 -2.26973
-0.581882 -2.10325
-1.73403 -13.1264
-2.07413 -13.1427
0.754392 -14.541
0.740803 -14.1919
-0.176403 -0.689968
-0.0887563 -0.644805
-0.727961 -7.31888
-0.542169 -7.10835
0.439018 -24.7636
0.0726476 -24.8638
0.971241 -6.79391
1.14008 -7.02067
-0.609873 -1.67371
-0.726724 -1.7946
0.380765 -13.9192
0.543238 -14.2282
0.156338 -23.3488
0.533883 -23.3248
0.582069 -16.2718
0.731508 -16.6022
0.817627 -19.1067
0.457802 -19.195
-2.05854 -13.4796
-1.71628 -13.4716
-0.00811908 -0.431388
-0.0323583 -0.360448
0.709536 -4.27589
0.609673 -4.47025
0.617681 -14.1264
0.88701 -14.3509
0.0684686 -3.63233
-0.127089 -3.6993
-1.36042 -6.67451
-1.38165 -6.94469
0.312693 -14.3799
-0.026347 -14.444
0.175478 -19.6151
0.106707 -19.2475
0.46667 -2.75448
0.284332 -2.74274
-0.974949 -5.15092
-1.1181 -5.36793
0.129314 -14.5251
-0.196506 -14.6427
0.606526 -7.82435
0.423925 -8.0371
0.194893 -0.119318
0.232504 -0.161704
-0.322436 -15.5913
-0.274458 -15.239
-0.17671 -12.5093
-0.355839 -12.2287
1.12712 -23.1446
0.825577 -23.3745
0.827355 -6.9973
1.05179 -7.17
-1.22363 -11.0422
-1.54609 -11.0936
-0.0791975 -15.3713
0.0392173 -15.7075
-1.3081 -4.97194
-1.3627 -4.74923
-1.26528 -11.2433
-1.35102 -10.9304
-0.199055 -0.455438
-0.280804 -0.476926
-0.117145 -1.12874
-0.0745442 -1.01754
0.14014 -0.993894
0.0876916 -0.891353
0.501067 -3.88406
0.710444 -3.86514
0.188057 -19.9991
-0.0870166 -19.7459
0.0565639 -0.353777
0.0464365 -0.285046
-1.29096 -24.3098
-0.957537 -24.4889
-0.0430355 -0.0159031
-0.0121145 -0.0025513
-2.83636 -24.8039
-2.60123 -24.5025
1.04557 -21.2824
0.72836 -21.0771
-1.15011 -13.8512
-1.01403 -14.1664
0.52692 -5.92323
0.731425 -5.7858
0.887163 -24.1005
0.582846 -24.329
-0.727668 -12.4077
-0.419053 -12.526
-0.953913 -9.72456
-0.659253 -9.63484
0.464271 -11.2097
0.745984 -11.3847
0.189404 -2.29072
0.0220324 -2.30034
-0.00689425 -0.460349
-0.0725872 -0.511663
0.986603 -23.9557
0.962591 -24.3365
-0.0491768 -0.230322
-0.0765753 -0.289499
-1.69067 -11.2926
-1.36673 -11.2399
0.346038 -3.92732
0.169502 -4.04372
-1.70453 -22.3909
-1.54947 -22.7364
-1.2551 -10.4255
-1.23943 -10.1096
0.00775825 -0.00850228
0.00165697 0.0001311
0.0506002 -0.029472
0.0343302 -0.012361
-1.34465 -12.2043
-1.56634 -11.9669
0.282067 -9.56583
0.585111 -9.5945
1.42122 -15.5794
1.11384 -15.7475
-1.35234 -12.1281
-1.44041 -12.4528
-1.43577 -15.4738
-1.42538 -15.8297
0.510355 -3.83564
0.339714 -3.70089
-0.586746 -3.30423
-0.492711 -3.1223
1.18525 -21.523
1.50526 -21.3267
1.00845 -23.6962
0.663343 -23.537
0.609552 -5.60422
0.679699 -5.36517
-0.745727 -25.5482
-0.413838 -25.3656
0.920895 -25.5255
0.565151 -25.3893
0.262793 -8.01393
0.510248 -7.88086
-0.579227 -6.36925
-0.610364 -6.63473
0.894529 -2.05942
0.903302 -2.22215
0.135601 -10.4428
0.0307863 -10.1477
-0.549666 -25.6076
-0.554673 -25.2266
-1.44199 -9.57059
-1.31627 -9.84531
-0.261357 -0.252876
-0.312074 -0.253217
0.888348 -4.03035
1.10668 -4.05655
-1.63274 -7.54688
-1.35176 -7.55038
-0.562324 -0.962026
-0.59927 -1.08063
-1.03585 -11.9344
-1.33484 -11.8084
0.751724 -5.56798
0.523739 -5.44944
-0.521006 -21.3614
-0.147579 -21.3321
0.164329 -24.7117
0.526345 -24.5963
-2.36288 -21.3248
-2.06413 -21.0912
1.25921 -16.0675
1.60215 -15.9792
-0.0181168 -6.1449
-0.206749 -5.96832
0.198083 -23.4561
-0.171595 -23.5363
-2.13732 -13.321
-1.79591 -13.3136
1.17192 -5.23904
1.04672 -5.01329
0.568142 -2.27487
0.503309 -2.11208
-0.567656 -22.1933
-0.89921 -22.0152
-0.771657 -13.3383
-1.11021 -13.3621
-1.87047 -16.3658
-1.62598 -16.0965
-0.0710444 -0.870758
-0.0042069 -0.787807
-0.589315 -24.4542
-0.50066 -24.0827
-1.43166 -6.57031
-1.40215 -6.30592
0.221617 -0.820905
0.320355 -0.88092
0.272409 -14.2887
-0.0640451 -14.2105
1.52921 -11.425
1.31358 -11.1656
-1.80213 -14.0281
-2.08526 -13.8422
-2.40946 -18.5835
-2.31597 -18.9425
-0.298759 -14.2596
-0.588209 -14.0727
1.53873 -8.69498
1.25782 -8.58266
-1.63211 -13.5341
-1.72144 -13.2084
0.141085 -0.111532
0.169879 -0.155316
-0.318788 -4.63298
-0.23144 -4.4203
0.620443 -1.57684
0.566729 -1.70133
-2.94365 -22.7028
-2.65676 -22.9491
0.664583 -16.2221
0.613102 -15.8661
0.170747 -7.93041
0.447524 -8.00248
-2.1859 -17.6867
-2.47604 -17.9253
0.0990986 -25.2751
-0.248409 -25.1244
1.26759 -21.5472
0.898949 -21.6221
1.48816 -17.1021
1.67109 -16.7939
0.334041 -8.84857
0.0946253 -9.02087
-0.794974 -2.44969
-0.968475 -2.44669
-1.20442 -6.40488
-0.94535 -6.33533
1.50261 -11.173
1.20418 -11.0282
0.730359 -5.06163
0.904228 -5.25136
0.482186 -2.41353
0.569157 -2.27793
-0.438758 -1.87327
-0.594165 -1.91182
-1.38386 -19.9444
-1.71036 -19.7698
-1.81981 -14.1468
-1.67114 -13.8294
-1.36007 -4.78724
-1.12413 -4.7961
0.493721 -19.4492
0.184762 -19.2399
0.80723 -24.9148
0.427988 -24.9438
-0.632658 -7.50917
-0.376503 -7.39438
0.890665 -5.95025
1.135 -5.89623
-1.20106 -21.3593
-0.938854 -21.6284
-0.55159 -4.17243
-0.700889 -4.02231
-1.319 -19.1395
-0.95118 -19.1325
0.321341 -2.51925
0.496821 -2.55077
0.513134 -7.88556
0.796459 -7.90739
0.150207 -0.251279
0.0971645 -0.211378
-0.0544413 -2.37398
0.0196501 -2.22025
-1.1498 -20.7425
-0.868782 -20.493
-0.158875 -0.402755
-0.218584 -0.378314
-1.80625 -23.636
-2.12654 -23.8415
0.0301844 -0.0484099
0.0164559 -0.0238341
-0.361838 -0.433527
-0.445037 -0.458739
0.543064 -14.8803
0.849442 -15.0569
0.969032 -22.084
1.27166 -22.3137
-0.671576 -3.33534
-0.638298 -3.13696
0.873364 -20.6491
1.16948 -20.8838
-1.47895 -5.61071
-1.27723 -5.43517
-0.830264 -8.0618
-0.556442 -7.97021
0.146351 -0.122798
0.167878 -0.112285
0.681985 -15.8341
0.333819 -15.8971
1.0367 -9.89993
1.14616 -10.1994
-0.747333 -19.5711
-0.732978 -19.9449
-1.48192 -7.80119
-1.44424 -7.51896
0.801633 -13.3261
0.46326 -13.3076
0.0197544 -0.0582205
-0.00817444 -0.0571492
-1.3081 -7.93938
-1.0369 -7.83282
-0.917638 -24.7887
-1.06276 -25.1415
-0.129206 -0.440362
-0.0553178 -0.412414
0.172408 -2.89176
0.0481752 -3.03243
-0.58871 -22.1838
-0.602401 -21.8046
0.815443 -11.9896
0.493222 -12.0467
-0.79754 -14.558
-0.51968 -14.7664
-0.458631 -0.846352
-0.485953 -0.95715
0.373392 -23.1384
0.0939717 -23.395
1.52212 -18.3851
1.19513 -18.5551
0.0198764 -0.00581376
0.035397 -0.0159292
0.939412 -22.984
0.563465 -23.0271
-0.690393 -3.04386
-0.545534 -3.15761
-1.27703 -6.55852
-1.17194 -6.30721
-0.152151 -0.198485
-0.118999 -0.148402
-1.26408 -10.0952
-1.55083 -9.9839
-2.99348 -23.224
-2.61371 -23.199
0.753037 -9.21112
0.572644 -9.44843
0.584756 -0.941858
0.49142 -0.848657
-2.26374 -21.5192
-2.40999 -21.1732
-0.877132 -20.5599
-1.21078 -20.3949
-0.304852 -24.9264
-0.607961 -24.6992
0.577133 -8.09543
0.572121 -8.38658
0.0681792 -3.89598
-0.101772 -4.02648
-1.72818 -19.8981
-1.46081 -19.6341
0.154073 -0.0933849
0.122508 -0.0875431
0.626706 -3.33046
0.721653 -3.16829
-2.14988 -20.1179
-1.7825 -20.0436
0.206604 -8.43518
0.491573 -8.3895
0.978456 -3.48217
1.02392 -3.29462
1.44583 -11.4088
1.50372 -11.7376
0.00361324 -12.9141
-0.0546889 -13.2486
-1.62758 -13.4706
-1.42741 -13.1877
-0.844562 -7.4504
-0.734215 -7.70473
-0.146114 -0.0895795
-0.170964 -0.123842
0.573249 -2.33712
0.418474 -2.39014
-0.160343 -0.985352
-0.08284 -0.901395
-0.136055 -1.99196
0.0227287 -2.00086
-0.234909 -9.84594
-0.00052409 -9.64931
-0.290412 -0.461193
-0.301899 -0.396608
-0.274719 -19.4384
-0.628221 -19.3355
-2.04989 -12.4504
-2.05592 -12.7857
-1.01563 -3.06749
-1.14557 -3.23694
-0.556529 -15.8668
-0.668714 -15.5287
0.768143 -3.38821
0.968358 -3.39323
-0.132767 -4.51045
-0.0871915 -4.73666
-1.39149 -25.4456
-1.01572 -25.4063
-1.35237 -4.56134
-1.34823 -4.3357
-0.174196 -2.50725
-0.00842062 -2.56478
1.04992 -4.95714
1.23252 -5.14052
1.58985 -17.286
1.2951 -17.0611
0.745379 -8.14248
0.868452 -8.41299
-0.373583 -1.44652
-0.328876 -1.3037
-0.283395 -4.25662
-0.0789446 -4.17561
-1.33925 -20.1463
-1.58097 -20.4351
-1.42609 -7.44566
-1.16231 -7.52107
-0.211589 -21.3563
0.0935621 -21.5768
-0.689064 -4.54502
-0.684471 -4.31765
-0.188874 -20.0424
-0.558784 -20.017
-0.969382 -4.49485
-1.13417 -4.35714
0.680962 -4.00083
0.512005 -4.12454
0.129332 -0.0606281
0.092286 -0.041981
0.123822 -16.3179
0.445789 -16.1665
-1.84281 -10.54
-1.62115 -10.2964
-2.43066 -20.6629
-2.09301 -20.4934
1.36068 -6.22212
1.43778 -6.48249
-0.547133 -0.907903
-0.537988 -1.01243
1.24684 -18.3243
0.890392 -18.4174
-1.31573 -8.8959
-1.01832 -8.90489
0.010086 -0.112952
0.0208559 -0.158506
0.708138 -6.25732
0.470127 -6.14249
-1.00335 -2.13527
-0.885055 -1.9954
-0.746802 -4.60089
-0.52759 -4.66522
1.34816 -15.2467
1.17295 -14.9344
0.116281 -0.657517
0.209714 -0.683273
0.529497 -1.56184
0.650209 -1.51108
1.48393 -11.2117
1.49981 -10.8864
0.255536 -20.8182
0.486975 -20.5241
0.0574932 -4.07105
0.133107 -4.2811
-0.157511 -0.0860818
-0.111228 -0.0555631
0.882953 -4.87922
0.672553 -4.972
-0.431926 -1.06946
-0.473946 -0.973035
-0.271029 -15.8592
-0.530007 -16.1044
1.18364 -22.0399
0.88066 -21.8115
0.446662 -23.3551
0.746939 -23.1237
1.15769 -6.40992
0.913968 -6.29046
-0.151961 -3.02385
0.0378838 -3.03617
-0.318132 -1.36786
-0.240113 -1.24042
0.809912 -21.3143
0.452707 -21.4288
-0.24232 -7.19821
-0.291057 -7.47333
-1.00916 -10.6523
-0.859382 -10.9379
-2.46281 -21.6585
-2.22887 -21.9529
0.743436 -7.67282
0.506425 -7.81503
-0.0705435 -3.38745
-0.263288 -3.44853
-1.15351 -3.64706
-1.03942 -3.80506
1.02065 -7.9534
1.29794 -8.04433
-2.71578 -22.5295
-2.82985 -22.1691
-2.25403 -20.7714
-2.13578 -21.1274
-0.0490678 -0.0411682
-0.0296384 -0.0182975
0.302045 -2.92215
0.485905 -2.90221
-2.05925 -20.8197
-1.68593 -20.8495
0.908831 -5.75917
0.718031 -5.57802
-1.17137 -13.375
-0.845651 -13.4651
-0.298072 -0.86807
-0.398144 -0.847424
0.537611 -1.94159
0.67318 -1.88962
0.0464634 -4.64101
0.247111 -4.7499
-0.299005 -6.32547
-0.228859 -6.07371
0.627549 -3.12226
0.625599 -3.31987
0.296886 -0.647457
0.364146 -0.735646
-0.267478 -8.9107
-0.111309 -9.16701
-0.0548401 -2.26622
0.111745 -2.25621
0.364144 -2.79807
0.506508 -2.69634
-0.0446119 -8.39186
-0.265585 -8.58341
-1.62636 -10.2856
-1.55635 -10.5918
0.300543 -24.7522
0.59882 -24.5152
0.0451484 -0.305295
0.0408596 -0.375423
-2.03938 -13.2911
-2.35197 -13.1706
1.32873 -20.5654
1.26157 -20.1945
-1.87795 -22.3562
-1.82176 -22.7316
-0.134341 -0.412464
-0.183126 -0.48492
-1.77344 -20.7301
-1.42691 -20.8686
-0.524215 -20.5068
-0.820843 -20.2807
0.80559 -13.2889
0.470925 -13.3313
-0.0174921 -0.0624088
-0.0359536 -0.096214
-1.58737 -8.41369
-1.87512 -8.50347
-0.446468 -9.25925
-0.262834 -9.49993
1.27588 -7.29982
1.45708 -7.52943
0.76712 -1.76973
0.661031 -1.8548
0.028756 -0.635622
0.101402 -0.58656
1.39999 -9.92803
1.12698 -9.76401
-0.961898 -2.8494
-0.885486 -3.00761
-0.630482 -10.0395
-0.876595 -10.2345
0.0922216 -7.81748
0.289408 -8.02778
-1.05232 -12.6227
-1.275 -12.8809
0.758328 -1.29962
0.659525 -1.18102
-0.575984 -20.2027
-0.585203 -20.5788
0.120076 -0.205125
0.0680904 -0.182176
1.20425 -7.81543
1.1033 -7.54287
0.903209 -19.6156
1.19356 -19.3849
0.181798 -4.6247
0.172278 -4.39529
-0.186355 -2.17339
-0.0250698 -2.14068
-1.74815 -16.5791
-1.46576 -16.3493
-0.969986 -19.2134
-1.06096 -18.8545
-0.41237 -0.559962
-0.448324 -0.507753
-1.71684 -11.3955
-1.86796 -11.6958
-2.45423 -15.5841
-2.47657 -15.9404
-1.48632 -8.41656
-1.73319 -8.5967
0.0445212 -0.0455497
0.0484624 -0.0301758
-1.17846 -24.6367
-1.21265 -25.0171
0.515632 -9.12135
0.317692 -9.34432
-0.029974 -9.33747
0.257682 -9.25479
0.0181869 -2.79817
0.189985 -2.87184
-2.0781 -10.9649
-2.16739 -11.2845
1.02484 -18.545
1.34079 -18.7467
-0.970983 -6.70997
-1.0803 -6.47471
0.648229 -9.1566
0.387009 -9.00272
1.42457 -23.3774
1.55531 -23.0207
-1.46672 -18.9136
-1.11914 -19.0324
0.466648 -10.8197
0.72119 -10.6326
-1.23354 -7.39713
-1.16085 -7.12505
-0.229913 -0.84139
-0.33796 -0.856923
-1.42126 -11.0588
-1.4831 -10.7425
0.473354 -4.98223
0.612136 -5.1954
-0.367314 -3.49602
-0.249219 -3.66134
-0.70029 -12.6678
-0.405364 -12.8227
1.15257 -10.7295
1.47068 -10.7868
0.471231 -10.2622
0.234999 -10.0552
1.11505 -23.5056
1.18897 -23.1323
-0.321153 -0.259164
-0.331411 -0.310317
-2.01997 -16.1102
-2.17599 -16.4393
-1.83784 -9.44819
-1.53135 -9.41049
-2.04877 -24.3968
-2.31446 -24.6705
0.0263652 -0.163598
0.0202291 -0.11667
0.995416 -7.25256
1.00714 -7.5326
0.984078 -8.08067
0.714097 -8.16259
-0.141852 -0.489571
-0.0611537 -0.481701
-1.62834 -8.88317
-1.92507 -8.95717
-0.297851 -20.2947
-0.624329 -20.4751
0.338251 -1.05982
0.328339 -0.942734
-0.274292 -22.142
-0.611665 -21.9751
-1.96769 -16.6506
-2.30421 -16.5271
-1.12607 -21.5535
-0.912069 -21.8638
-0.00309225 -0.440569
0.0244046 -0.369839
0.837922 -3.2269
1.01979 -3.33784
-0.442131 -13.925
-0.204278 -14.1749
0.308448 -0.418537
0.274622 -0.471285
-1.14859 -9.41857
-0.845748 -9.43457
0.149815 -2.37953
0.0711553 -2.22521
-0.730415 -2.00805
-0.747495 -2.17039
-0.0857816 -1.11391
-0.0031153 -1.18975
-1.34217 -4.6851
-1.13315 -4.54957
0.0986897 -7.06995
0.207908 -7.32614
0.0215616 -0.00476401
0.0510448 -0.0189727
-0.0923319 -0.0434936
-0.140463 -0.0703172
1.58361 -14.0244
1.32619 -13.7836
-0.885305 -7.97508
-0.685075 -8.1741
-0.0344968 -4.72469
0.18963 -4.70824
-0.109624 -0.0852855
-0.13024 -0.123132
-2.71425 -24.4714
-3.01963 -24.7014
-1.02887 -7.18314
-1.06861 -7.46045
0.103619 -2.87974
-0.0810637 -2.85893
0.251629 -2.70238
0.182023 -2.53144
0.0318594 -0.540777
-0.0493541 -0.521137
-2.05736 -14.2668
-2.38468 -14.4023
-1.31666 -9.82974
-1.59267 -9.9904
-1.26162 -20.2646
-1.60619 -20.1261
0.470288 -12.5789
0.743806 -12.7797
-1.23957 -22.8789
-1.14512 -23.2472
-0.774673 -6.09588
-0.524601 -6.03206
0.666734 -20.3214
0.319166 -20.1818
0.445987 -1.40784
0.396882 -1.534
0.772632 -3.806
0.963017 -3.92751
0.154654 -0.223105
0.166746 -0.182487
0.381828 -18.5326
0.715713 -18.3738
-1.39902 -5.4357
-1.17395 -5.30064
-2.07626 -19.8901
-2.42772 -19.769
-0.416199 -25.1512
-0.788924 -25.2141
0.871258 -21.4975
0.540619 -21.6758
0.579171 -7.60723
0.307153 -7.53536
-1.61009 -9.4144
-1.33159 -9.52516
-0.176065 -14.2184
-0.480925 -14.3816
0.517661 -18.0975
0.879583 -18.0333
0.0631124 -0.196544
0.0880129 -0.253102
-1.2174 -5.98816
-0.98472 -5.85803
-0.172974 -0.31513
-0.242059 -0.3545
-0.230715 -1.87719
-0.0839305 -1.92388
-0.0401753 -0.0199715
-0.0529792 -0.0228733
-0.0279635 -3.56106
-0.153784 -3.72827
-0.379886 -21.7188
-0.747883 -21.7942
0.0708199 -19.896
0.418879 -19.768
0.583504 -25.576
0.862923 -25.8362
0.42326 -20.3464
0.0719285 -20.2187
-0.317258 -6.01352
-0.403877 -6.2595
-0.153407 -0.0983059
-0.124977 -0.0968453
0.248391 -0.926724
0.361446 -0.958506
-0.700638 -1.80797
-0.548989 -1.75035
1.07275 -6.06163
0.849711 -6.17367
-1.09935 -20.3131
-1.4713 -20.2968
0.980201 -2.87936
0.821274 -2.75284
-0.73666 -25.5896
-0.388366 -25.4418
-1.50381 -12.5156
-1.56576 -12.8483
-0.478825 -21.5166
-0.494398 -21.8953
-0.085431 -0.82891
0.00439908 -0.778583
1.38841 -18.7246
1.42616 -19.0978
-0.420136 -16.3368
-0.193935 -16.6156
-2.34387 -13.4415
-2.19058 -13.1293
0.490383 -5.74324
0.656222 -5.94632
-0.733879 -11.8408
-0.504712 -12.0737
0.254518 -19.3988
-0.0628847 -19.5886
-0.785562 -16.1208
-0.769864 -16.4809
1.09223 -8.67773
0.997767 -8.95444
-0.248488 -0.378796
-0.193172 -0.407251
0.63919 -12.8143
0.410763 -12.5627
-0.613296 -1.5626
-0.535666 -1.42651
-0.284855 -0.353499
-0.217073 -0.348762
-0.280115 -0.275152
-0.232121 -0.287576
-0.433554 -0.410852
-0.459789 -0.484212
0.274722 -18.7964
0.191581 -18.4298
1.223 -8.44205
0.954415 -8.53904
0.493818 -23.1935
0.152028 -23.3564
-1.64628 -10.061
-1.68376 -10.3761
-1.75347 -21.3281
-1.79169 -21.7048
1.5092 -20.758
1.62623 -20.4022
0.634864 -7.2895
0.890452 -7.2034
0.310062 -0.263183
0.282411 -0.209969
-0.867433 -25.4695
-0.493071 -25.4201
0.0683245 -0.035212
0.0922596 -0.0443727
1.01613 -4.03217
0.908438 -4.20904
0.181252 -2.95416
0.215324 -3.14687
-0.132123 -20.2123
-0.489417 -20.3151
0.837301 -8.02425
0.610853 -7.83916
-1.06162 -11.6605
-0.979326 -11.339
-0.503409 -9.32894
-0.567941 -9.62928
-2.32492 -23.37
-2.67565 -23.2268
-1.00167 -14.0608
-0.664719 -13.9882
0.707287 -9.54619
0.565621 -9.81491
1.41639 -9.4754
1.16695 -9.28416
0.608405 -14.3197
0.292754 -14.174
-1.43134 -5.80816
-1.21845 -5.92972
0.627246 -2.22725
0.625689 -2.06326
0.171474 -2.0221
0.0125753 -2.02874
0.463162 -1.93196
0.309565 -1.89899
-0.368703 -25.6288
-0.446274 -25.2559
1.19378 -7.49764
1.39222 -7.71512
-1.28452 -6.43469
-1.49566 -6.29743
-0.706879 -3.92008
-0.873339 -3.80276
-0.613369 -23.0335
-0.931424 -22.8298
-1.49617 -19.9046
-1.20673 -19.6667
-2.09605 -25.5249
-2.4482 -25.6707
0.731603 -3.80838
0.66121 -4.00435
0.573249 -1.70768
0.448008 -1.60663
-0.789241 -7.54296
-1.06931 -7.56899
1.36759 -9.89124
1.15081 -10.1012
-0.326319 -8.83338
-0.426402 -8.55514
0.0728809 -0.0828574
0.0442215 -0.0903244
0.520005 -13.3097
0.539315 -12.9702
-0.687721 -20.9743
-0.790325 -21.338
-2.0787 -11.6428
-1.9011 -11.3554
-2.52128 -19.9404
-2.15343 -20.003
-0.0788638 -1.10266
-0.18675 -1.15502
-0.356109 -1.81444
-0.489939 -1.76598
0.150935 -0.89166
0.217457 -0.988951
0.476718 -6.36513
0.314047 -6.15454
-1.09482 -7.09933
-1.23744 -7.34596
0.392757 -14.9796
0.419262 -15.333
1.10484 -20.3247
1.35318 -20.6099
-0.140171 -0.81422
-0.239372 -0.797547
0.154614 -1.77267
0.297679 -1.7614
-0.949414 -4.61651
-0.896784 -4.38869
-0.365484 -2.64824
-0.292762 -2.81279
0.853421 -13.2328
1.11312 -13.462
0.223968 -3.16007
0.260905 -2.97096
0.501867 -1.34127
0.457954 -1.20553
0.619633 -10.4079
0.306577 -10.3688
0.0126365 -2.557
0.0755555 -2.3928
-0.00369071 0.000737295
-0.00578544 -0.0059454
0.105124 -18.738
0.277573 -18.4075
-0.592573 -2.45988
-0.681055 -2.62595
-2.1899 -21.6017
-2.3492 -21.9469
-1.09411 -7.36169
-0.918508 -7.1374
-0.321382 -6.27662
-0.221202 -6.5199
0.0339481 -15.7397
0.37011 -15.6333
0.985909 -19.1975
0.716329 -19.452
-1.50046 -13.069
-1.71194 -12.8139
-1.32007 -15.4453
-1.03684 -15.2295
0.681415 -20.0932
0.540889 -19.7444
-2.35274 -15.1353
-2.1327 -14.8511
0.644316 -15.6286
0.750453 -15.9719
1.47352 -22.9652
1.11666 -22.8336
-1.13291 -22.7066
-1.49216 -22.5928
-1.82871 -22.6821
-1.50853 -22.8818
0.970951 -10.5566
0.987976 -10.2398
0.488822 -3.01437
0.504621 -2.82682
0.501055 -1.08481
0.621116 -1.08833
-1.12041 -19.2355
-0.987129 -18.8888
-1.57917 -12.8688
-1.68769 -13.1939
-0.0682553 -14.3269
-0.198818 -14.0046
-0.0506339 -0.295522
0.0121808 -0.298091
-0.49151 -2.43424
-0.613868 -2.57663
-1.15362 -22.1629
-1.31042 -22.5092
-0.867023 -22.2403
-0.573212 -22.477
0.326191 -6.15778
0.453435 -5.93887
0.956679 -18.273
1.12934 -17.9467
-0.834443 -16.4697
-0.496661 -16.5844
-1.01698 -2.78706
-0.995398 -2.96626
0.845339 -5.2012
0.964479 -5.43189
-1.50568 -9.91303
-1.47489 -10.2225
1.56583 -15.0895
1.38984 -15.3896
-1.11017 -7.93511
-1.38728 -8.02852
-0.822932 -21.7972
-0.944043 -21.4392
-1.99871 -9.28941
-1.94707 -8.98932
0.879205 -5.14948
0.6369 -5.11244
-0.13032 -0.71202
-0.0593382 -0.642117
-2.50242 -23.6834
-2.71729 -23.9992
-0.07567 -0.523271
-0.032638 -0.44963
0.120845 -3.26338
0.305235 -3.20476
0.00406421 0.000227433
0.00939702 -0.00115332
0.113441 -2.75611
0.152097 -2.57853
0.421694 -1.38994
0.442851 -1.53568
-1.03942 -4.60408
-1.17814 -4.81034
1.11162 -7.07036
0.874775 -7.18986
-0.308477 -3.66689
-0.363454 -3.46927
0.106246 -0.456495
0.0334474 -0.480373
-1.59066 -21.7814
-1.94139 -21.9225
-1.82798 -7.9866
-1.86974 -8.27483
0.647221 -9.58432
0.87158 -9.80351
-1.03501 -15.6136
-1.37424 -15.5186
-0.272191 -4.36719
-0.277461 -4.59622
-0.825636 -14.7822
-0.822039 -14.4317
-1.82751 -21.1782
-2.19937 -21.238
-2.0508 -23.6165
-2.29154 -23.3236
1.2595 -25.2602
0.900768 -25.3919
0.568655 -10.0269
0.425974 -10.3024
-0.634372 -10.4484
-0.906009 -10.2939
-0.609313 -22.3798
-0.558279 -22.0035
0.046139 -2.7728
0.147287 -2.62299
0.133622 -0.0790777
0.156748 -0.11208
0.982839 -16.2607
0.880214 -15.9144
-0.0248904 -0.111413
-0.0619302 -0.140641
-2.0904 -9.99061
-2.01285 -10.2876
-1.29797 -16.7283
-1.60205 -16.9301
0.21902 -0.414905
0.262247 -0.374001
0.123124 -3.52723
0.083725 -3.73226
0.763524 -5.63428
1.00771 -5.59702
0.769823 -22.8121
0.399018 -22.7373
-0.592177 -1.87554
-0.479279 -1.96461
-0.235784 -1.24763
-0.29163 -1.38491
0.982351 -7.97144
0.897479 -7.69333
0.138474 -6.41458
0.337306 -6.24988
1.12157 -22.7716
1.14865 -22.3927
-0.148892 -9.01058
0.143245 -9.06738
-0.358656 -7.35944
-0.152747 -7.54572
-0.0288383 -0.259981
0.011873 -0.21752
0.488495 -3.74718
0.617437 -3.59418
0.000298672 0.00100398
0.00480558 0.000284693
-0.277559 -0.22586
-0.319719 -0.284434
-0.151159 -9.12246
-0.351752 -8.90125
-0.789714 -13.6329
-0.536109 -13.4017
-2.56167 -19.6173
-2.64706 -19.2557
-1.61094 -20.9263
-1.57301 -20.5512
1.29825 -7.19874
1.02475 -7.15114
-0.0217179 -0.210578
-0.05865 -0.259624
-2.66506 -20.5061
-2.34677 -20.7004
-1.24064 -24.9571
-0.862813 -24.9625
0.531329 -5.16764
0.768328 -5.24973
0.0725422 -0.0309799
0.104195 -0.0542412
0.152367 -5.90894
0.344112 -6.0798
-0.230192 -0.234953
-0.222487 -0.189243
-0.200007 -0.721591
-0.28224 -0.685296
-0.481713 -3.29429
-0.666141 -3.23794
0.165194 -0.343792
0.1505 -0.409636
0.965672 -3.59197
1.15088 -3.53221
-0.152018 -8.34043
0.122056 -8.43687
-0.504721 -6.87155
-0.33583 -6.65805
0.451224 -5.97982
0.554631 -5.75216
-0.748127 -7.30437
-0.557951 -7.50111
0.431421 -24.9303
0.0800332 -25.0756
0.988037 -17.3567
0.996478 -17.7258
-0.71233 -16.78
-0.898537 -17.0905
0.873245 -5.2621
0.874775 -5.51396
0.554917 -20.8183
0.437687 -21.176
-0.815995 -3.55843
-0.889242 -3.76203
-0.435347 -14.1151
-0.384107 -13.7726
-2.58218 -23.2785
-2.20909 -23.3455
-1.56553 -12.9048
-1.66984 -12.5893
-0.124245 -15.97
0.207091 -16.0998
-0.206119 -0.895623
-0.234803 -1.00867
-0.872531 -4.19527
-0.778856 -4.38974
-0.161767 -3.45591
-0.310559 -3.32464
1.31454 -5.86816
1.19618 -5.62861
0.783332 -4.4796
0.611147 -4.31718
-0.184034 -7.93074
-0.215663 -8.21835
-1.80078 -10.6421
-1.48692 -10.6917
-1.74322 -8.51793
-1.53156 -8.29822
0.292412 -2.97115
0.469882 -2.92223
1.59164 -14.0019
1.25346 -14.0547
-2.36335 -23.5043
-2.25085 -23.8677
-1.14785 -7.02602
-1.4214 -7.0289
-2.21359 -19.8491
-2.20141 -19.4753
-1.02124 -3.38791
-0.927845 -3.19841
0.34566 -14.815
0.588895 -15.0722
-2.62163 -24.6633
-2.25082 -24.7484
-1.42277 -20.3969
-1.22552 -20.7144
-1.93105 -16.9831
-2.22269 -17.2121
-1.71921 -11.1092
-1.39575 -11.0639
-0.356574 -1.49316
-0.299119 -1.35121
0.109725 -9.26556
-0.104166 -9.47882
-0.218256 -2.35597
-0.213553 -2.18552
-1.96981 -13.9461
-2.18987 -14.2232
-0.897367 -8.12891
-0.80568 -8.4013
-0.0757408 -0.644797
-0.144204 -0.718735
-0.1866 -2.49012
-0.023155 -2.55225
-2.69615 -23.5988
-2.34914 -23.4412
0.366203 -20.1488
0.119263 -20.4284
1.29007 -15.5475
1.03537 -15.7881
-1.59479 -11.5096
-1.88075 -11.6875
-0.585069 -21.8296
-0.217341 -21.7528
0.454096 -20.3337
0.675289 -20.6391
0.790512 -16.8688
0.928852 -17.2088
0.432014 -7.14558
0.52537 -7.41111
-1.6471 -14.4034
-1.75065 -14.7406
0.469752 -22.0818
0.776769 -21.8637
-0.400293 -0.742337
-0.506704 -0.784457
0.0394703 -10.0307
0.0461219 -9.72
0.984547 -8.69754
0.910756 -8.98252
-0.930457 -10.6451
-1.21402 -10.8117
0.723558 -8.85643
0.431488 -8.80187
-0.404357 -9.98078
-0.649669 -10.1706
-0.729554 -3.77953
-0.801853 -3.98812
-1.112 -4.56797
-0.978203 -4.36678
-0.154742 -17.4604
-0.170586 -17.0979
-1.66725 -25.5658
-1.50433 -25.2209
-0.233075 -24.7137
-0.189047 -24.3343
1.13157 -6.33972
0.889167 -6.41986
-0.240356 -22.0268
-0.333691 -22.3947
0.547897 -0.710234
0.536351 -0.796733
0.580449 -6.60247
0.503288 -6.3441
0.522901 -3.93346
0.386253 -3.7603
0.118999 -0.153393
0.145356 -0.135287
-0.196891 -0.817561
-0.224564 -0.926359
-0.274836 -0.201623
-0.21636 -0.175767
0.368194 -12.1934
0.668289 -12.3407
-0.912569 -12.9932
-0.595302 -13.1011
0.0326174 -0.34397
0.0807966 -0.303107
1.64054 -12.5774
1.31593 -12.6445
-0.776454 -22.6352
-0.677374 -23.0021
0.83111 -24.9191
1.18524 -25.0605
-0.0272176 -1.03534
0.0398125 -0.944391
0.28316 -0.926908
0.189652 -0.856454
-1.39346 -16.761
-1.28287 -17.1056
-1.16991 -10.9367
-1.24246 -11.2605
-2.34213 -22.1861
-2.11897 -21.8778
-1.79497 -9.20997
-1.70516 -9.49269
1.17165 -5.27634
0.92882 -5.21446
-1.77245 -12.9882
-1.82011 -12.6569
-0.688139 -2.51275
-0.751551 -2.68939
-0.709705 -1.55009
-0.78883 -1.45579
-0.297217 -24.482
-0.539938 -24.1899
0.874322 -13.4272
0.543233 -13.344
0.20792 -0.29505
0.146503 -0.292607
-0.137333 -0.66148
-0.197891 -0.746888
-0.0561674 -0.198718
-0.109675 -0.209873
-0.79258 -6.33767
-0.758437 -6.59881
-0.218935 -0.502947
-0.149418 -0.53516
-0.799731 -2.61592
-0.941007 -2.75678
0.160631 -25.2754
-0.0526644 -25.5918
-1.93207 -22.7472
-1.75918 -23.0845
-0.886953 -2.03654
-0.750616 -1.92055
-0.393075 -3.47583
-0.595038 -3.51918
-0.296644 -0.668924
-0.394525 -0.715918
-0.966785 -13.7574
-1.15159 -14.0524
-0.629817 -4.3358
-0.848125 -4.41417
0.510287 -3.71315
0.302649 -3.69074
0.182449 -3.05959
-0.000452921 -3.11373
-1.16906 -15.7128
-1.51403 -15.8038
-0.752667 -4.39805
-0.680695 -4.18049
0.00413786 -1.18662
0.0108108 -1.06927
-1.3227 -22.1757
-1.61598 -21.9399
1.21186 -22.7101
0.982778 -23.0119
-0.399086 -0.577902
-0.307696 -0.541929
-1.99118 -23.0672
-1.73026 -23.3414
0.579382 -3.71015
0.675545 -3.53549
-1.80302 -12.0228
-1.91383 -11.7173
0.161214 -3.38029
0.305612 -3.52961
0.131901 -0.162845
0.0839955 -0.148062
0.898338 -3.64542
1.06343 -3.54669
-1.59311 -22.5384
-1.63631 -22.9166
-2.64013 -20.2813
-2.34236 -20.0479
-1.58166 -9.5945
-1.88393 -9.68321
0.349373 -4.06295
0.373452 -4.28512
-0.964617 -11.1641
-1.26021 -11.3167
-1.30999 -5.78188
-1.43481 -6.01894
-0.514897 -1.67281
-0.639497 -1.78144
-0.451276 -0.529386
-0.381163 -0.547601
-0.140276 -4.40998
-0.170964 -4.1869
0.33278 -0.423225
0.403016 -0.494354
-0.141908 -23.1992
-0.429534 -23.4466
-0.29155 -3.86798
-0.503689 -3.89141
1.44742 -14.0216
1.47072 -13.6781
-0.279276 -8.24945
-0.481784 -8.04674
-0.124112 -22.1161
-0.394219 -21.8523
-0.00515194 -4.48668
0.0855619 -4.28002
-0.00527276 -0.414697
0.0570576 -0.463179
-0.0855925 -1.99635
-0.239278 -2.0435
-0.469312 -13.3548
-0.526065 -13.6936
1.32709 -13.6535
1.35007 -13.3125
0.721362 -4.8753
0.611313 -5.08143
-0.27532 -0.232603
-0.251789 -0.26116
0.0718662 -0.610252
0.12153 -0.54154
-0.30496 -0.475345
-0.227408 -0.476915
0.031328 -1.14845
0.134091 -1.09791
-0.443705 -22.6389
-0.206358 -22.3435
-1.749 -14.679
-1.52391 -14.9412
-1.30308 -17.1065
-1.19416 -17.4541
-0.497488 -0.66573
-0.433169 -0.709318
0.292875 -0.843022
0.382027 -0.92709
0.820643 -4.42287
0.618942 -4.51033
0.650531 -16.5173
0.295466 -16.4659
0.273844 -1.84125
0.416668 -1.8131
-0.390954 -22.2431
-0.0168475 -22.2843
-1.7532 -12.0325
-1.48812 -12.2207
0.00221256 0.000433749
0.0107676 -0.00628928
0.366584 -23.6594
0.26973 -24.0283
-0.33976 -2.15517
-0.206613 -2.05268
0.940863 -10.4148
1.25238 -10.4886
-0.467781 -16.7796
-0.152417 -16.948
-1.51493 -11.8476
-1.47133 -11.519
-1.7832 -10.0809
-1.97483 -10.346
1.39188 -8.76008
1.46292 -8.47953
1.67368 -13.0147
1.37127 -12.8491
-0.19435 -19.7896
-0.311017 -20.1452
-2.03243 -25.5063
-1.67297 -25.3833
0.128907 -0.82968
0.22715 -0.808694
-0.588627 -5.99611
-0.336893 -6.01614
-2.89021 -23.2214
-2.55426 -23.397
-0.488745 -12.1376
-0.593426 -11.8256
-0.668397 -14.3771
-0.781111 -14.0496
-0.118152 -8.37901
0.13525 -8.24148
1.22304 -9.00198
1.10874 -8.71853
-1.11815 -11.1698
-0.982594 -10.8647
-1.18832 -24.4425
-1.5519 -24.3378
-0.0268125 -4.51669
0.195944 -4.51301
0.12735 -0.0947309
0.0941271 -0.0605029
-0.730008 -3.20892
-0.866882 -3.37152
0.379491 -7.57266
0.514341 -7.33246
0.945749 -2.50012
0.773973 -2.50945
-1.48727 -17.1435
-1.65216 -17.4745
-2.77654 -25.4323
-2.82957 -25.0533
-1.02146 -20.0415
-0.903566 -19.6855
0.317186 -0.417464
0.247747 -0.422991
-0.807104 -21.7664
-0.470936 -21.9346
-2.56671 -25.486
-2.91923 -25.3387
-0.5246 -7.61918
-0.803403 -7.6616
0.728685 -3.19591
0.881106 -3.34489
-0.543657 -15.5454
-0.196006 -15.603
-0.463501 -0.916257
-0.517961 -1.03052
-0.215813 -6.5009
-0.289097 -6.24806
0.390526 -2.68965
0.236482 -2.77656
-1.73679 -8.12731
-1.50321 -8.28026
-0.0736641 -0.469786
-0.0569879 -0.391309
-1.20764 -19.7213
-1.02301 -19.3959
-0.0317941 -9.02376
-0.0579206 -9.32568
-2.08656 -23.722
-2.04453 -23.343
-1.46904 -6.71117
-1.72362 -6.83309
-0.0590182 -3.64629
0.051124 -3.82717
-2.43637 -18.3448
-2.29351 -17.9972
-1.24269 -23.5564
-1.50446 -23.2826
0.0681897 -2.87403
0.245333 -2.82625
0.961035 -4.01074
0.908386 -4.21684
0.379375 -13.682
0.605806 -13.4305
0.662446 -20.2181
0.924393 -19.9538
-0.718749 -2.13093
-0.87777 -2.2179
-0.0181505 -9.26597
0.0145091 -8.96552
-2.91967 -23.4035
-2.62722 -23.1577
-0.0228644 -14.572
0.118652 -14.8941
-0.0608071 -0.113647
-0.0226802 -0.0972771
0.478864 -6.53407
0.246454 -6.65298
-1.09221 -9.38253
-1.19115 -9.67643
-1.23326 -24.3075
-1.49776 -24.0354
0.275189 -11.8529
0.601244 -11.8742
0.0743721 -0.0624807
0.0434845 -0.0476114
-1.30703 -20.3698
-1.41086 -20.7323
-0.99618 -2.88661
-0.844741 -2.75007
-0.831915 -7.83736
-1.10544 -7.9311
0.309171 -0.232005
0.245659 -0.201783
0.673736 -24.1609
0.328907 -24.002
-0.159882 -0.327855
-0.0938852 -0.302476
-1.13661 -7.01981
-1.40689 -6.99756
-0.796406 -3.10256
-0.640997 -3.20253
-0.0944237 -2.47695
-0.156092 -2.31547
0.86259 -3.17801
1.05961 -3.22475
1.26753 -9.61628
0.998242 -9.45552
-1.05534 -6.96789
-0.78856 -7.00642
0.714905 -6.54071
0.979454 -6.56138
-1.66125 -11.46
-1.37198 -11.6023
0.804756 -2.70351
0.678416 -2.81699
-0.0774869 -0.187135
-0.0312169 -0.201904
-0.120884 -19.5763
-0.484057 -19.5102
-0.814057 -25.4289
-1.15425 -25.2646
-2.35012 -15.3351
-2.18592 -15.0157
-0.10705 -19.5399
0.256806 -19.4745
-0.504458 -6.0922
-0.285277 -6.22416
-0.897847 -3.32049
-0.729089 -3.19245
-1.54975 -17.7928
-1.89832 -17.6817
-0.719083 -9.73274
-0.782068 -10.0378
-2.44489 -19.8554
-2.7879 -20.0132
-0.483511 -9.76202
-0.180313 -9.78391
1.00653 -22.5748
0.638731 -22.4854
-0.029122 -0.00879536
-0.00677494 -0.000525216
0.237241 -0.445168
0.175012 -0.476573
1.0375 -5.36507
0.875014 -5.53993
0.403441 -17.425
0.131963 -17.6686
-0.474627 -21.0707
-0.623147 -20.7247
-0.729432 -3.64172
-0.789337 -3.84978
0.148691 -9.70504
-0.111685 -9.54611
-1.91027 -21.6453
-2.22766 -21.853
0.799981 -8.32009
0.675915 -8.0517
-1.29921 -22.2863
-1.01667 -22.0341
-0.440206 -20.0641
-0.556192 -20.4212
-0.21403 -0.161229
-0.171611 -0.117442
-1.26461 -23.1
-0.995916 -22.8315
1.24887 -8.61778
1.5399 -8.59927
1.50654 -15.2634
1.43755 -15.6093
-0.0742068 -0.0533252
-0.0742887 -0.0766138
-1.38898 -6.96419
-1.56805 -7.18863
1.22034 -15.2482
1.55875 -15.1626
-0.814246 -24.7723
-0.59083 -25.0794
-1.23126 -5.25243
-1.48053 -5.29305
-0.267752 -2.19276
-0.413666 -2.12943
-0.444423 -1.01836
-0.443509 -0.907527
1.087 -9.22339
0.859428 -9.41111
-1.00846 -17.4538
-1.11822 -17.8087
0.602287 -3.01095
0.621346 -2.82506
-0.629307 -1.22443
-0.578893 -1.09689
-0.436627 -1.08548
-0.542461 -1.052
-0.509192 -1.9037
-0.390845 -1.99035
-1.58191 -17.7311
-1.59243 -17.3621
0.956565 -9.63858
1.14016 -9.40427
-1.56278 -5.63412
-1.35308 -5.4662
0.690526 -3.93208
0.509459 -3.80343
0.72364 -6.03793
0.535997 -6.2038
-1.23654 -17.0906
-1.00812 -16.8075
-1.21991 -9.18584
-1.24557 -9.48977
-0.869356 -11.4848
-0.923672 -11.8108
-0.706866 -14.8406
-1.05168 -14.7924
0.123881 -0.44412
0.190158 -0.420815
0.25198 -13.7749
0.542595 -13.6003
-1.89555 -18.5073
-1.93516 -18.8791
1.20087 -4.50631
1.30313 -4.73001
-0.154111 -14.6943
-0.467044 -14.543
-1.10255 -3.92506
-0.897164 -3.97037
-2.06134 -19.5547
-2.01569 -19.925
0.367173 -16.4656
0.0349824 -16.3319
-0.562686 -9.48089
-0.289656 -9.34857
-0.146989 -0.371288
-0.21735 -0.416272
0.95628 -5.67205
1.1336 -5.87251
0.898265 -17.9294
0.840604 -17.5619
-1.47483 -6.90072
-1.67578 -7.10671
-0.940737 -5.83975
-0.833608 -5.60211
0.483975 -9.15527
0.780562 -9.20924
-0.509756 -4.80122
-0.373107 -4.99217
-2.02571 -19.4705
-1.97947 -19.8405
-1.30355 -12.3927
-1.57774 -12.2148
1.08275 -19.7058
0.949612 -19.3541
-0.0143719 -0.00758123
-0.0234817 -0.0249086
-0.0682182 -0.0499017
-0.0433177 -0.0247533
-0.710936 -4.70187
-0.479895 -4.65653
1.20199 -4.00286
0.988445 -4.01182
-2.10144 -12.9222
-1.82322 -13.1024
-2.24083 -19.3589
-1.8996 -19.2029
0.350172 -0.859486
0.345056 -0.755848
0.312062 -1.95315
0.423022 -1.85901
-2.40733 -20.2795
-2.4718 -20.6506
0.393238 -3.11632
0.58039 -3.08796
0.992037 -12.2557
0.783994 -11.9889
0.447853 -2.01749
0.311986 -1.92207
0.250688 -12.1376
0.276595 -12.4711
-0.532068 -7.26574
-0.319673 -7.08685
0.110735 -2.85023
0.118758 -2.66468
0.498567 -2.26728
0.3816 -2.13462
-1.56556 -21.4419
-1.81673 -21.7259
1.59443 -12.8195
1.30042 -12.6417
-2.00714 -18.4923
-2.36402 -18.603
-0.850124 -3.93117
-0.82827 -3.71783
1.09536 -8.01559
1.12651 -7.73365
-0.85295 -22.8874
-0.632735 -23.1961
-0.631089 -5.91616
-0.724497 -6.16142
0.0510375 -2.47817
0.121988 -2.64483
-1.25918 -15.4463
-0.995727 -15.6797
-0.769294 -1.96869
-0.928434 -1.97411
-1.0008 -2.79708
-0.987479 -2.61576
-1.22231 -11.028
-1.44303 -11.2789
0.0861076 -0.0409029
0.0930149 -0.0409841
-0.881475 -14.3259
-0.750927 -14.0026
0.100886 -0.0570423
0.134152 -0.0896183
-0.115645 -0.0566935
-0.071053 -0.0319022
-2.35308 -18.8079
-2.63627 -18.572
0.481917 -5.92956
0.301272 -5.74749
-0.509584 -14.2011
-0.214281 -14.3806
0.489954 -1.51192
0.374655 -1.40838
0.158352 -21.3765
0.272023 -21.0169
0.823019 -7.09195
0.890282 -7.36521
0.560591 -14.3652
0.249204 -14.21
1.012 -4.86123
0.776311 -4.86329
-0.979387 -7.15948
-0.813195 -6.93289
-0.533422 -2.89928
-0.39665 -3.01985
0.581453 -20.8472
0.217124 -20.7592
-0.836653 -3.34098
-0.795536 -3.53377
-1.98119 -17.1002
-1.66673 -17.2785
0.00851418 -0.0275803
0.0111239 -0.0543192
-0.232851 -8.84609
-0.0758486 -9.1012
-0.895443 -8.07567
-0.61868 -7.99206
0.557739 -18.7777
0.67062 -19.1351
-1.95284 -20.075
-1.88239 -20.4424
-0.430423 -3.29439
-0.624807 -3.35692
-0.603284 -4.1969
-0.78396 -4.34236
-0.541423 -3.60173
-0.454487 -3.40947
-0.486447 -1.63482
-0.621975 -1.60351
1.30647 -23.9648
1.40535 -23.5969
0.878308 -17.2125
0.757215 -16.8664
-0.876855 -11.9821
-0.847594 -11.6534
-0.00436982 -0.298888
-0.0138527 -0.236541
0.842857 -14.1216
1.1818 -14.0708
-1.619 -12.6307
-1.50544 -12.3113
0.151197 -2.05695
0.31076 -2.06564
0.882223 -8.45794
0.687645 -8.6685
-0.904525 -5.55809
-0.801014 -5.78142
0.731403 -18.8708
1.08396 -18.7588
-2.27061 -22.5287
-2.03643 -22.8253
-0.116265 -0.057221
-0.134183 -0.0745056
-1.1148 -5.35496
-1.3525 -5.45995
-1.35373 -12.3086
-1.10858 -12.5264
0.0935483 -4.17158
0.245287 -4.33668
-0.78034 -2.38406
-0.936698 -2.33994
0.482387 -8.40464
0.228215 -8.25859
-0.402505 -1.20027
-0.272729 -1.20208
-1.90888 -22.196
-2.21114 -22.4265
-1.04035 -6.21338
-0.839616 -6.03457
-1.41803 -15.5876
-1.63024 -15.8785
-1.00272 -12.8811
-0.763946 -13.1152
0.910327 -3.14589
0.811086 -2.96491
-0.701693 -1.8939
-0.617324 -1.74986
0.0494635 -0.0404769
0.080281 -0.0566359
0.0354599 -0.0133525
0.0491682 -0.0300128
-0.300246 -12.1468
0.0151875 -12.0558
0.458857 -5.09066
0.365911 -4.86191
-2.00714 -18.9968
-1.89104 -18.6404
-0.102721 -13.1684
-0.342801 -13.4082
-0.288648 -8.95131
-0.301381 -8.65309
-0.827518 -3.41534
-0.955624 -3.59211
0.189113 -23.1434
0.104237 -22.7724
0.00260397 -21.099
0.124806 -20.7429
-1.58403 -25.32
-1.44474 -25.6743
-0.80617 -9.93505
-1.11052 -9.88593
0.153125 -0.972121
0.241784 -0.913658
-0.407028 -17.3464
-0.0508589 -17.3687
0.00451388 -16.5987
-0.198103 -16.8973
-0.290553 -1.06189
-0.401972 -1.03504
0.270499 -20.2209
0.28636 -19.8461
-0.0576515 -16.0192
-0.114746 -16.3744
1.39059 -7.21066
1.11621 -7.16706
1.40162 -10.8071
1.57007 -11.0962
-0.367995 -1.82097
-0.373234 -1.97775
-2.39621 -23.1791
-2.3613 -22.8
0.11051 -9.23982
0.0437358 -8.9446
0.319193 -6.91441
0.483193 -7.13907
0.412928 -1.69689
0.269225 -1.68856
1.60283 -21.2898
1.23708 -21.3768
0.0100163 -0.0016683
0.00304159 -0.000316894
0.672245 -1.903
0.686906 -1.7555
0.124316 -0.127777
0.12353 -0.0965447
0.0259014 -0.00816378
0.0306233 -0.0183272
-1.74791 -20.6583
-1.80248 -21.0318
0.0383482 -0.324273
-0.0249884 -0.308312
-0.73802 -13.3973
-0.978649 -13.6436
0.332475 -3.77199
0.214481 -3.94537
1.04284 -9.14026
1.34247 -9.14052
1.05549 -17.2399
1.24285 -16.9317
-0.101282 -21.0528
0.0672613 -21.3908
-0.0893452 -0.386157
-0.0259125 -0.348287
-0.2624 -1.1952
-0.300931 -1.33112
-0.11181 -7.74457
-0.24418 -7.4956
0.639741 -1.32816
0.612461 -1.19413
-0.115041 -0.242748
-0.0809609 -0.18948
-0.0610438 -0.0650932
-0.0845664 -0.0628062
-1.92842 -9.14314
-1.80428 -8.8604
0.586974 -9.02266
0.72303 -8.76218
-1.67003 -13.7075
-1.32802 -13.7201
0.0450655 -0.809239
0.0571484 -0.918932
0.0436265 -0.827902
0.105695 -0.919372
-0.695824 -14.7617
-0.685197 -15.114
-1.82159 -13.1311
-1.89077 -12.8035
-0.138445 -9.28364
-0.0788514 -8.98715
-0.336886 -0.651402
-0.247552 -0.66199
-1.11337 -24.7658
-0.753506 -24.8813
-0.655963 -2.03418
-0.817124 -2.03991
0.053807 -0.0205837
0.0917435 -0.0413435
-0.0367714 -0.0134545
-0.00424716 -0.000928211
0.557915 -15.9607
0.532047 -15.6037
-0.00288851 -0.00394636
-0.00817711 -0.00107368
0.340337 -0.984118
0.302247 -1.08866
-0.683889 -6.02292
-0.618408 -6.27133
-1.64593 -22.8581
-1.73848 -22.4901
0.114024 -3.42064
-0.0798278 -3.36939
-0.273234 -0.279521
-0.230208 -0.300152
0.842776 -13.5116
0.693635 -13.2
-1.86306 -19.1624
-1.95189 -19.5262
-0.366489 -23.218
-0.0202632 -23.3698
-0.245916 -22.3454
-0.5811 -22.519
-1.03181 -9.88536
-1.03288 -10.1976
-0.383295 -7.91052
-0.629888 -8.06025
-1.47564 -15.5865
-1.82357 -15.667
-0.961306 -22.0926
-0.590741 -22.0273
0.111799 -1.10454
0.00562889 -1.06807
0.916144 -15.1094
0.566995 -15.0717
-0.302348 -7.83153
-0.328345 -7.54905
0.321108 -20.9744
0.467301 -20.6283
0.0685516 -23.8254
-0.0730796 -24.1796
-1.18256 -7.85641
-0.909263 -7.92284
0.0216977 -0.606046
0.0810973 -0.543632
-1.11489 -11.6691
-1.02827 -11.9843
0.76378 -24.837
0.409706 -24.6987
0.00493639 -0.000550591
0.0332164 -0.0099581
-1.87307 -20.3859
-2.17013 -20.6193
-2.42696 -18.0732
-2.28643 -17.7254
0.215609 -23.3391
0.331251 -22.9765
0.271748 -24.0383
0.430578 -24.3848
-0.97748 -15.4703
-0.876636 -15.8111
-1.19601 -5.98674
-1.23657 -5.73886
-0.0646678 -4.16476
0.141768 -4.10044
-1.28408 -24.9939
-1.51915 -24.6952
-0.0240362 -2.46462
0.145997 -2.43566
-1.64788 -8.91428
-1.70833 -8.62935
0.73381 -3.59322
0.919578 -3.52961
0.363185 -0.840495
0.326034 -0.73621
0.534399 -11.4124
0.389762 -11.1103
1.0617 -9.06954
1.02003 -9.36722
-0.48514 -10.5232
-0.743417 -10.349
-2.07854 -20.5712
-2.4174 -20.7384
0.477805 -24.5046
0.642089 -24.1602
-1.66666 -13.4106
-1.58013 -13.7391
-0.0391807 -0.0150894
-0.025836 -0.00693518
0.715303 -17.9536
0.349473 -17.9946
0.549753 -6.4563
0.31631 -6.56899
-0.439187 -0.879247
-0.554077 -0.907974
-2.06726 -24.6074
-2.44717 -24.5966
-0.623518 -8.58659
-0.76936 -8.33653
0.824753 -2.26685
0.656069 -2.22828
-1.21427 -6.69984
-0.959563 -6.59788
-0.78788 -20.3627
-0.575064 -20.6709
-0.849021 -20.2362
-0.805531 -20.6096
0.517432 -0.829242
0.600989 -0.929599
-0.237275 -0.296604
-0.232063 -0.24214
-0.854066 -6.85779
-0.793217 -7.12093
-0.680693 -1.93798
-0.522522 -1.9044
-1.26421 -11.6311
-1.06264 -11.365
0.496637 -11.5515
0.581319 -11.8733
-1.09307 -17.4825
-1.07183 -17.1178
-0.0225917 -0.115719
-0.0563214 -0.103895
-1.46006 -19.1048
-1.13953 -18.9173
-1.53321 -19.1626
-1.18335 -19.0389
1.03517 -19.0188
1.39085 -18.9148
0.0756709 -2.92081
0.189667 -2.77607
-2.30623 -17.9411
-2.46751 -18.2808
0.36461 -1.7179
0.490324 -1.66138
-0.385369 -1.9278
-0.253769 -1.83675
-0.614316 -4.87505
-0.47321 -4.68013
-0.693562 -15.8768
-1.03682 -15.9701
-2.06342 -18.9118
-2.29489 -19.2085
0.547997 -2.50754
0.498054 -2.67386
1.02564 -10.1249
1.33437 -10.0951
0.343834 -18.6905
0.664896 -18.88
-1.90086 -19.4927
-1.58437 -19.2917
-0.549132 -4.68762
-0.599399 -4.46534
-1.0743 -12.2525
-0.803515 -12.4378
-0.402808 -20.5278
-0.0563634 -20.3907
0.667873 -24.2111
0.288474 -24.2126
-0.341023 -3.11045
-0.160065 -3.03807
0.813221 -4.73269
0.596545 -4.62751
-0.568204 -3.13314
-0.401997 -3.02058
-0.877308 -14.1707
-0.577729 -13.9971
-1.39463 -14.3427
-1.54414 -14.6622
1.1489 -20.7262
0.873201 -20.9789
0.894405 -12.3458
0.930623 -12.6812
-1.00235 -23.0772
-0.857339 -23.4286
-2.93672 -23.7766
-2.95314 -23.3963
0.823723 -24.3566
1.17007 -24.5152
-0.910066 -6.27049
-0.838448 -6.51969
0.0801372 -0.0923136
0.07423 -0.125944
-0.414626 -2.65524
-0.552978 -2.78885
-0.160986 -3.84598
-0.215441 -4.05725
0.355704 -3.90922
0.233919 -4.08372
0.788847 -4.12443
0.936914 -4.30743
-0.36519 -2.60956
-0.540588 -2.6682
-0.0156013 -0.00256996
-0.0040419 0.000800549
-0.362854 -0.73763
-0.269345 -0.75469
0.945583 -5.87615
0.991954 -6.13476
-0.341659 -1.3808
-0.280808 -1.24526
0.106151 -0.143681
0.0617752 -0.133471
-1.22154 -8.15588
-1.03677 -8.36959
-0.64322 -23.0196
-0.275798 -22.9328
-0.704127 -6.50969
-0.927803 -6.38299
0.33212 -1.36307
0.377797 -1.50742
-0.828372 -3.15865
-0.91819 -3.34734
-0.0894845 -0.704718
-0.0764183 -0.806179
-0.229427 -16.9394
-0.501169 -16.7054
1.20207 -23.5908
1.27482 -23.2172
-1.59003 -11.7546
-1.51688 -11.4302
0.374801 -4.87178
0.593086 -4.79367
-1.12599 -10.8897
-1.23466 -11.2042
-2.34784 -15.3718
-2.14419 -15.6548
-0.516233 -1.79664
-0.512181 -1.64824
-1.68449 -22.0321
-2.04925 -22.1315
-0.0361305 -0.114149
-0.0761604 -0.11909
-1.74112 -19.8305
-1.83807 -20.1938
-0.388797 -0.493137
-0.384759 -0.567801
-1.39646 -14.0269
-1.68133 -13.842
-1.56404 -10.5534
-1.82094 -10.763
0.675063 -13.4078
0.966281 -13.5938
0.0569913 -0.0219681
0.0266915 -0.00696741
1.45285 -15.6064
1.10157 -15.549
0.581701 -13.2289
0.868605 -13.058
0.265748 -0.369407
0.333799 -0.432306
0.0728656 -0.160709
0.0777429 -0.213324
-0.169581 -0.188779
-0.197588 -0.170396
0.20707 -0.209644
0.207345 -0.258801
1.51442 -8.4477
1.22625 -8.37826
0.0913527 -14.2107
-0.237035 -14.1057
0.159695 -14.5351
0.475839 -14.3975
-0.64173 -14.8328
-0.475516 -15.1424
-2.25327 -14.4564
-2.26854 -14.8061
0.43477 -18.6725
0.632341 -18.9908
0.546828 -4.80561
0.781253 -4.85783
0.440831 -1.04185
0.43374 -0.927254
-2.05242 -17.4707
-2.38815 -17.3321
0.80167 -14.4043
0.463128 -14.4697
0.910584 -21.2457
0.737165 -20.9092
1.23522 -15.1324
1.44016 -15.4281
1.00739 -21.0461
0.720747 -21.2876
0.81541 -2.36851
0.649485 -2.38551
0.553565 -8.12547
0.794863 -8.29506
0.598787 -11.9269
0.816459 -11.6859
0.443012 -0.82024
0.381238 -0.721395
0.756265 -25.5792
1.13628 -25.545
-2.8518 -22.3248
-2.47272 -22.3253
-1.83638 -13.216
-1.5964 -12.9663
1.28542 -9.75108
1.46775 -9.51702
-0.969715 -24.7035
-1.34779 -24.7076
-1.82064 -11.5063
-2.07425 -11.7317
-1.56793 -15.0407
-1.84391 -14.8316
-0.850489 -5.01967
-0.905026 -4.79144
-1.69694 -12.6434
-2.02922 -12.7151
0.114231 -1.23968
0.013137 -1.1793
-0.201986 -3.71941
-0.179736 -3.93227
1.59172 -14.711
1.60506 -14.362
0.751419 -16.1653
0.501303 -16.4188
1.40217 -11.5942
1.15545 -11.3649
-0.261663 -15.8656
-0.198429 -16.2191
-0.762574 -3.9299
-0.971587 -4.01376
-0.377125 -6.25066
-0.28817 -6.49768
0.849585 -2.39577
0.888474 -2.57321
0.0422216 -0.0658382
0.0599384 -0.102517
0.409145 -2.91138
0.423894 -2.72617
-0.457066 -1.08045
-0.484127 -0.975982
0.934171 -5.79393
1.17641 -5.7414
0.0503833 -0.0537833
0.0287511 -0.0288277
-0.166635 -0.120663
-0.125386 -0.108265
0.0347348 -0.229807
0.00901524 -0.179288
0.0464485 -0.247073
0.0132146 -0.297525
-1.79357 -23.2406
-2.08809 -23.4818
0.339668 -13.2309
0.500471 -12.9354
0.262557 -4.83299
0.255738 -4.59991
0.0208914 -0.662401
-0.00463095 -0.758985
-2.3967 -25.3495
-2.07635 -25.5545
-0.232962 -2.56139
-0.327044 -2.72169
0.127821 -0.0709721
0.175842 -0.103986
1.12376 -24.3916
0.76182 -24.5096
-0.638791 -13.6886
-0.324098 -13.5558
-0.615194 -7.01138
-0.362142 -6.90795
-1.45616 -7.04448
-1.31177 -7.26592
-1.73913 -8.80805
-1.89306 -9.07701
-1.28815 -20.2121
-1.23626 -20.5838
-1.42693 -10.2996
-1.43644 -10.6187
0.0304861 -3.11404
-0.11921 -3.24027
-0.0363181 -0.820369
-0.114506 -0.8956
-0.766473 -5.79183
-0.562395 -5.92867
1.17118 -21.8779
0.971291 -22.1982
-2.79444 -19.5309
-2.50757 -19.7649
0.324266 -9.56466
0.392106 -9.26811
-0.863816 -6.32294
-0.62026 -6.21792
0.285971 -0.622785
0.359145 -0.592465
1.52674 -14.9248
1.56453 -14.5772
0.476314 -0.874188
0.568932 -0.849541
-0.647831 -5.29053
-0.736123 -5.06317
0.427502 -4.51606
0.224885 -4.4099
1.33205 -9.45565
1.03264 -9.49177
-0.273816 -9.53486
-0.162757 -9.2505
-1.18719 -14.9153
-0.839396 -14.9457
-0.556759 -23.7033
-0.871153 -23.9159
-2.59443 -17.9934
-2.27336 -17.7982
-2.25254 -16.1368
-1.89468 -16.1595
1.24472 -5.95427
1.11364 -6.16401
-2.03358 -13.508
-2.3282 -13.3485
0.0945461 -0.169678
0.0892341 -0.124326
0.854697 -14.3479
1.06894 -14.6294
-1.15912 -19.5266
-0.797325 -19.5976
-0.308787 -0.671973
-0.213651 -0.640113
-1.60023 -16.6965
-1.31763 -16.9184
-0.21834 -0.174856
-0.184123 -0.184518
-0.710976 -25.7755
-0.333841 -25.7648
-0.518204 -1.91221
-0.670247 -1.89971
0.709806 -8.25754
0.767953 -8.54781
0.223969 -8.25296
0.341414 -8.52393
-0.265243 -9.89425
-0.453518 -9.65188
-0.0362155 -25.6804
0.194947 -25.3769
0.221339 -22.6554
0.51053 -22.412
0.407767 -16.8689
0.0541591 -16.8032
0.00539295 -1.1688
0.0608463 -1.06631
-0.33637 -4.9133
-0.169943 -4.75332
-1.49044 -8.47916
-1.24513 -8.62596
-2.13698 -13.7711
-2.1907 -14.1142
-0.287293 -2.93622
-0.305842 -3.1297
0.0759074 -0.719176
-0.0177844 -0.741339
0.0883502 -0.0672364
0.127574 -0.0871489
-1.51539 -13.8362
-1.52674 -13.4933
-1.6392 -20.6671
-1.33548 -20.8838
0.907559 -20.1077
0.56883 -19.9464
1.43208 -12.718
1.62742 -12.455
-1.55949 -13.3361
-1.67381 -13.6628
-0.61579 -25.116
-0.909162 -25.357
0.262373 -0.737958
0.266382 -0.841677
0.989068 -9.34853
0.826577 -9.08507
-2.21195 -23.0416
-1.93375 -22.7816
-1.75995 -10.0161
-1.56296 -9.7621
-0.105545 -0.0736775
-0.102433 -0.095972
-2.35995 -18.3863
-2.69228 -18.5633
0.347157 -0.565339
0.332036 -0.645684
-0.591124 -1.0229
-0.578651 -0.912023
0.133239 -10.405
0.12889 -10.7227
-1.65869 -11.5001
-1.93323 -11.6967
-0.0615647 -0.473866
0.0127483 -0.446565
-0.578317 -1.78863
-0.592018 -1.64474
-0.0143074 -0.0400635
-0.0290515 -0.0692821
-0.0340211 -0.130141
0.00640158 -0.142465
-1.59999 -24.0172
-1.29453 -24.2416
-0.424733 -24.3016
-0.678531 -24.5854
0.482301 -15.0337
0.826988 -15.1029
0.220352 -0.188315
0.207414 -0.147851
-1.26062 -10.8791
-1.57078 -10.9874
-0.23469 -0.628962
-0.277699 -0.723509
1.1471 -7.56105
0.970667 -7.3309
-1.35043 -13.7996
-1.37055 -14.1454
1.57259 -15.0052
1.3045 -15.2238
0.674251 -2.56114
0.850893 -2.6232
-0.426733 -0.426739
-0.405644 -0.479632
-0.206799 -1.87229
-0.3522 -1.84242
-1.11429 -6.61669
-0.944425 -6.81273
-0.488817 -15.0344
-0.170932 -14.8887
-0.00255725 -3.42238
-0.160166 -3.55245
-0.250535 -6.72578
-0.371271 -6.97026
0.836079 -3.42583
0.64907 -3.32808
0.611937 -2.80584
0.626271 -2.99587
-0.673564 -1.95308
-0.755387 -1.83992
0.0832695 -1.79513
0.226166 -1.84651
-0.0514288 -12.0758
-0.37676 -12.1202
0.408655 -5.08999
0.614179 -5.24162
-0.490704 -21.7271
-0.444005 -21.3513
-0.90122 -13.2065
-0.696243 -12.9337
-0.937324 -19.9859
-0.61904 -19.7929
-1.28915 -7.57457
-1.54458 -7.71713
0.505379 -18.9417
0.579386 -19.3088
0.0182971 -2.47953
-0.140243 -2.55693
1.26914 -6.04203
1.13686 -5.80707
-0.980536 -24.8648
-0.928534 -25.2427
-0.0144516 -3.64672
-0.104086 -3.83874
0.187395 -0.422451
0.206544 -0.359703
0.0294987 -0.497746
0.0646625 -0.427236
-0.784501 -2.1339
-0.914844 -2.26649
-0.779155 -6.16686
-1.03151 -6.2474
0.81888 -21.9523
1.16742 -21.8102
0.528762 -1.55853
0.623084 -1.47263
0.180483 -14.359
-0.140438 -14.4863
1.3516 -21.1155
1.05836 -20.8759
0.574769 -20.4657
0.637921 -20.0959
-1.28841 -5.61323
-1.0646 -5.47459
0.288883 -0.955688
0.255838 -0.844959
1.27136 -20.6553
1.1152 -20.3112
-0.265084 -0.760621
-0.262905 -0.663054
0.535792 -1.17839
0.439522 -1.2398
0.252755 -2.2795
0.234155 -2.45077
-0.437394 -9.52186
-0.723273 -9.42608
0.91026 -5.65805
0.803913 -5.88146
0.0440679 -0.0163119
0.076884 -0.0328742
-2.19278 -22.0728
-2.01484 -21.7368
0.96348 -18.3425
1.20835 -18.6274
0.166617 -0.116837
0.218137 -0.142605
-0.603333 -5.79221
-0.638913 -5.54431
-0.371552 -0.443031
-0.452911 -0.507937
0.769192 -4.25814
0.58898 -4.37555
-0.607304 -13.4431
-0.775985 -13.7435
-0.534493 -24.9882
-0.809242 -25.2509
0.0192072 -24.5787
0.0233223 -24.9606
-0.333568 -0.781644
-0.231588 -0.746294
-0.165321 -0.0974974
-0.219422 -0.134059
0.789839 -2.42093
0.790738 -2.25191
-2.63138 -19.0287
-2.67209 -18.659
0.660875 -3.65885
0.852181 -3.60202
-0.117388 -22.8049
-0.232783 -23.1676
0.213999 -2.04699
0.255164 -2.20996
0.0219657 -0.00910875
0.00956681 -0.00536459
0.955358 -21.1238
0.858864 -20.7583
-0.668205 -9.69049
-0.750453 -9.99063
1.25145 -21.7151
1.46558 -22.0296
-0.987506 -6.35793
-0.728288 -6.38192
0.035741 -0.601899
0.116706 -0.649997
0.183735 -4.34984
0.00972253 -4.48908
-0.999085 -3.6757
-0.933964 -3.86689
-2.02894 -23.263
-1.7226 -23.0376
-0.00224275 -0.876436
-0.0740615 -0.800495
-0.546834 -19.8074
-0.889467 -19.6689
-0.516953 -21.8889
-0.480034 -21.5117
-0.919434 -14.4886
-1.25963 -14.427
0.0069376 -8.02705
0.201918 -8.24225
0.0276181 -0.0107057
0.00853942 -0.00175614
0.0265361 -6.55151
-0.213381 -6.44224
0.0124973 -0.777096
0.0970255 -0.838751
-0.452636 -1.7852
-0.545614 -1.68498
-0.119717 -1.99672
-0.209982 -1.86984
-0.219612 -14.4278
-0.0852377 -14.7514
0.734065 -4.13308
0.952449 -4.19047
0.135922 -0.0817733
0.100993 -0.069142
-0.389631 -0.342008
-0.40168 -0.403048
-0.921775 -5.70933
-1.06434 -5.51268
0.259229 -6.91182
0.52425 -6.97177
-1.54426 -12.8357
-1.22661 -12.7148
0.719286 -8.17175
0.990159 -8.28645
-0.47212 -23.1329
-0.827038 -23.2633
0.762788 -1.4578
0.684072 -1.55328
-0.526767 -1.483
-0.646394 -1.59014
0.962117 -2.22817
0.918798 -2.0622
0.926148 -24.7371
1.30738 -24.7334
-1.16763 -8.3281
-1.13293 -8.03871
0.379266 -12.5694
0.097932 -12.7449
0.0510163 -0.0215902
0.00834931 -0.00280464
-1.5104 -17.7673
-1.85286 -17.9139
-1.96748 -24.7197
-2.18632 -25.0324
-0.823914 -3.28233
-0.958124 -3.1577
0.677556 -19.5468
0.368049 -19.751
-1.07171 -4.76315
-0.983331 -4.97474
-1.37985 -18.8831
-1.39429 -19.2552
-0.261389 -0.268602
-0.206533 -0.270429
-1.03414 -11.9289
-0.784008 -11.7133
-0.6771 -9.36081
-0.648229 -9.6656
-1.3287 -7.02035
-1.58184 -6.9395
-1.21492 -8.39997
-1.27571 -8.11994
-0.395753 -0.457862
-0.324516 -0.464408
-1.30489 -21.0278
-0.971774 -20.8541
0.000203693 -4.53284
0.186089 -4.66247
-0.0591511 -0.836464
-0.0632917 -0.948134
-1.27146 -4.01477
-1.39368 -4.21683
-0.769747 -12.9893
-0.534426 -13.2298
0.0393843 -0.129646
0.0409338 -0.0895774
-1.70587 -11.4463
-2.01882 -11.5656
0.106431 -19.6139
0.33235 -19.3196
-0.464207 -7.55414
-0.709598 -7.42887
-0.0786218 -0.178239
-0.0990767 -0.23368
0.218782 -0.452135
0.28299 -0.522742
-1.50731 -15.3811
-1.74192 -15.6535
0.15319 -20.3741
0.250841 -20.7381
0.311556 -0.337921
0.35709 -0.319397
-1.57332 -9.76297
-1.33158 -9.94468
0.00208002 -0.0856798
-0.0260041 -0.113761
-0.814473 -10.6515
-0.728313 -10.3439
0.248993 -0.332759
0.195699 -0.354251
-0.635132 -0.999501
-0.646111 -1.11542
-0.590073 -1.10647
-0.640619 -1.23462
0.775201 -9.27024
0.522726 -9.09744
-1.29873 -22.7629
-1.1433 -22.4157
-1.99177 -18.9239
-2.31472 -18.7453
0.730013 -11.8201
0.446338 -11.6479
-0.43653 -8.63387
-0.726581 -8.68631
1.15237 -4.1997
0.932221 -4.14273
-0.521425 -1.79299
-0.574278 -1.94639
0.138339 -0.421962
0.119833 -0.49647
-1.81673 -12.8058
-2.09746 -13.0083
-0.0496117 -17.2024
-0.403557 -17.2513
-0.53927 -14.1133
-0.354347 -14.4066
0.648652 -14.7976
0.995932 -14.7757
-0.328533 -0.349989
-0.291834 -0.284208
0.634526 -2.63726
0.715291 -2.8135
0.269151 -14.2305
0.0237712 -13.9846
-0.304911 -1.17458
-0.241 -1.0601
-0.463857 -2.10922
-0.44404 -1.94731
-0.0704395 -0.343399
-0.0380837 -0.405907
-0.494786 -9.3826
-0.195041 -9.35525
-0.762413 -2.18274
-0.630706 -2.05976
-0.769774 -22.0396
-0.479013 -21.7988
0.064313 -6.94148
0.117971 -7.21227
-0.37241 -22.8532
-0.274208 -22.4859
0.105384 -0.105652
0.0672421 -0.0966569
-0.283543 -14.9125
-0.0707976 -15.1934
0.308357 -18.648
0.403571 -19.0102
0.294079 -4.51814
0.150842 -4.69474
-1.86459 -20.8961
-1.491 -20.8641
-0.175908 -0.217872
-0.135015 -0.237721
0.216715 -0.170243
0.238132 -0.155865
0.475767 -12.3906
0.157257 -12.296
0.925644 -5.64618
0.866838 -5.39473
-1.26393 -11.1231
-1.28341 -11.4525
0.064237 -0.558787
0.123764 -0.504602
-1.21073 -21.1686
-1.39559 -20.842
1.21603 -22.787
0.859459 -22.9136
0.968242 -6.56532
0.731322 -6.43048
-0.130531 -16.3092
0.221529 -16.2578
1.04753 -6.30151
0.78886 -6.31681
-0.68236 -13.8457
-1.01496 -13.77
-0.801621 -15.5846
-1.14091 -15.4907
-0.770893 -9.82867
-0.791899 -10.1399
-0.336474 -0.996417
-0.414119 -1.10396
0.0646155 -6.53832
-0.148214 -6.69671
-2.18442 -15.2111
-2.4834 -15.0354
-0.98998 -12.4928
-1.2356 -12.7272
-0.0526386 -0.0240291
-0.0129005 -0.00446642
-2.90792 -25.0597
-2.66229 -24.7665
0.448818 -1.1218
0.574319 -1.18062
0.0693653 -6.03999
-0.16407 -6.15005
-0.112729 -0.867115
-0.023116 -0.810466
0.885682 -2.58075
1.0401 -2.70824
-0.49631 -13.6303
-0.216773 -13.8272
0.00308557 -0.000114669
0.0231215 -0.0055446
0.0235927 -0.62378
-0.00342607 -0.53663
0.623175 -0.982139
0.60997 -1.08921
-0.16779 -0.139291
-0.12052 -0.104151
-0.410679 -3.04138
-0.603041 -3.06476
0.367291 -0.848966
0.331911 -0.943657
-1.76808 -10.4631
-1.55246 -10.6863
-0.720281 -1.45552
-0.588461 -1.36935
-0.472567 -23.096
-0.388034 -22.7248
-2.15668 -16.1907
-2.51222 -16.1467
-2.25679 -21.2728
-2.56876 -21.4893
-1.86954 -23.097
-1.87264 -23.4779
-0.602637 -1.39283
-0.487115 -1.44571
0.522167 -5.25285
0.454597 -5.00892
0.833411 -10.8849
1.02631 -10.6361
-1.03557 -2.61334
-1.07137 -2.79604
-0.255415 -0.921638
-0.149553 -0.881963
0.145949 -10.3268
0.120022 -10.6415
0.223044 -4.3735
0.0109956 -4.30922
-0.911735 -12.7245
-1.23715 -12.6564
0.131211 -0.224263
0.15658 -0.285569
-2.32296 -13.1492
-2.01232 -12.9941
-0.793749 -23.8487
-0.804672 -24.2303
0.0434922 -0.0150205
0.0261268 -0.00692958
-1.27039 -20.0903
-1.38511 -19.7355
-1.59956 -15.2379
-1.24796 -15.2091
1.5438 -18.3368
1.17517 -18.3677
0.197568 -0.501749
0.251516 -0.582121
-0.570175 -8.95925
-0.822708 -9.1259
-2.25396 -14.9422
-2.06385 -15.2315
-0.0168631 -0.00358775
-0.0124459 -0.00388573
0.208728 -13.4687
0.166976 -13.8097
0.890635 -15.4344
0.546463 -15.5048
-0.694364 -9.06954
-0.681736 -8.76986
-0.141407 -0.780381
-0.194062 -0.878326
-1.88511 -13.6609
-1.62277 -13.8732
-2.85572 -22.6374
-2.73875 -22.9978
-1.87266 -16.9842
-1.97658 -17.3377
-0.359152 -0.344163
-0.291812 -0.33446
-0.331497 -0.49926
-0.395036 -0.476677
-1.30832 -10.6805
-1.17161 -10.3847
-0.554964 -3.69409
-0.387511 -3.81186
-0.190677 -0.116085
-0.22794 -0.156503
0.725693 -16.2943
0.922074 -16.6003
-1.8704 -13.2577
-1.70097 -13.547
0.0135148 -13.3111
-0.322777 -13.2788
-0.630668 -1.85577
-0.765865 -1.80911
-0.901263 -3.75819
-0.719174 -3.84864
0.726373 -22.8418
0.348542 -22.851
-0.711294 -20.3377
-1.03944 -20.5171
-2.58626 -20.5279
-2.53514 -20.1553
0.571876 -1.07158
0.634128 -1.19655
-0.0883655 -0.0667865
-0.0954046 -0.0553446
0.782855 -22.7298
0.800746 -22.3502
-1.76344 -7.96008
-1.47569 -7.92004
0.647707 -1.56078
0.505095 -1.55489
1.54998 -13.3182
1.22611 -13.2012
-0.393684 -2.93145
-0.497013 -3.10149
-1.39713 -6.98398
-1.1982 -6.78228
-1.85497 -17.1437
-2.07229 -17.4453
0.0198893 -0.00407493
0.0226389 -0.00543037
-0.0041464 -19.0093
0.364758 -18.9967
-2.23735 -20.784
-2.45498 -20.4811
-0.0648024 -0.719353
-0.134328 -0.658264
-0.00358823 -0.328018
-0.0671596 -0.31538
-0.496296 -6.17383
-0.694471 -6.01865
0.385407 -0.508681
0.325682 -0.542511
-0.443631 -1.22742
-0.46622 -1.36494
-0.0677526 -25.0138
-0.391558 -25.2126
-1.1744 -12.4957
-1.32818 -12.2052
-0.0919927 -0.36026
-0.148887 -0.333711
-1.78837 -11.768
-2.02453 -12.0129
0.262281 -2.71774
0.153069 -2.86238
-0.379301 -7.37818
-0.27509 -7.11976
0.43824 -11.5568
0.761347 -11.5225
-1.26697 -20.4576
-1.02755 -20.7444
-1.53558 -9.38644
-1.30382 -9.57285
-2.17172 -15.6092
-1.93322 -15.3377
-0.500465 -0.799391
-0.393146 -0.773844
-1.40736 -25.6419
-1.12126 -25.3924
-1.92238 -25.0493
-2.14502 -25.3593
-2.08099 -10.8649
-1.75808 -10.8125
0.544391 -5.06681
0.323671 -4.9537
-1.76767 -10.3395
-1.5685 -10.0818
-0.0460858 -23.0532
0.30955 -22.9253
-0.232538 -0.685622
-0.173556 -0.755206
-0.0364826 -0.135836
-0.000641686 -0.161294
0.669571 -9.55282
0.889148 -9.35115
0.194944 -0.146849
0.250468 -0.173221
-0.147219 -0.172981
-0.188086 -0.16954
-1.16749 -15.6751
-1.48775 -15.5291
1.06545 -15.7521
0.752535 -15.9139
-1.9461 -24.959
-1.84776 -24.5899
-1.11785 -19.9037
-0.943102 -20.2332
0.0317827 -8.16686
-0.246856 -8.09967
-1.75186 -14.1877
-2.04054 -14.0078
-2.01634 -13.8581
-2.31714 -14.0433
-0.10157 -0.342377
-0.155411 -0.31547
-0.807247 -14.6966
-1.1138 -14.5361
-1.63615 -9.98616
-1.5636 -10.2868
-1.14949 -16.6598
-0.949201 -16.9597
-0.122976 -19.3224
-0.489974 -19.2972
-0.191023 -10.0101
0.0847291 -10.1447
-2.47879 -21.9187
-2.2174 -22.1895
1.43588 -15.8361
1.08425 -15.7719
-0.079503 -8.02524
-0.339034 -8.14745
0.084442 -15.1284
0.207508 -14.7994
-1.91654 -12.1049
-2.18735 -12.3148
1.24383 -23.2359
0.900791 -23.3976
-1.66259 -6.53097
-1.45788 -6.68139
-0.372028 -1.44088
-0.332179 -1.29765
0.243189 -10.56
-0.0265171 -10.4023
0.844539 -2.70137
0.662558 -2.66654
-0.86113 -19.9426
-0.953501 -19.581
-1.46307 -15.1957
-1.59959 -15.5261
-0.48073 -6.12316
-0.534245 -6.38139
-1.99833 -10.6307
-2.00716 -10.9537
0.289498 -6.79392
0.0457139 -6.90201
0.00430059 -2.31962
0.158539 -2.39672
-1.59238 -15.2631
-1.50491 -15.6049
1.23639 -19.0639
1.58557 -18.9392
-1.58575 -20.5307
-1.72411 -20.1836
-0.570238 -15.6429
-0.718657 -15.3211
-0.91195 -25.3263
-0.53589 -25.3579
-1.79431 -11.8865
-1.65522 -12.1806
-0.00542207 -0.084249
0.0260466 -0.105091
1.26949 -10.5592
1.02963 -10.337
0.0430116 -10.5908
0.0181899 -10.2776
1.5356 -13.4871
1.23848 -13.3067
0.882848 -21.5407
0.507291 -21.5579
-1.80776 -11.7302
-1.61906 -11.451
0.214692 -0.204367
0.266692 -0.259234
0.0415086 -0.397348
-0.0142745 -0.448155
-0.702215 -8.75686
-0.408342 -8.77422
-0.0948365 -0.663523
-0.18687 -0.657494
1.35446 -7.5701
1.3025 -7.84393
-0.00346193 -0.240654
0.0479957 -0.221988
0.602375 -2.45288
0.429104 -2.44212
1.32033 -20.5536
1.37522 -20.1825
0.503603 -2.31949
0.360296 -2.39659
-1.06958 -2.70806
-1.09238 -2.53912
-0.0819411 -0.104152
-0.0599934 -0.128129
-0.698079 -24.3831
-0.666051 -24.7636
-1.69468 -14.4051
-1.37082 -14.5229
-2.07859 -13.9663
-2.32635 -13.7383
-1.73051 -8.80596
-1.43781 -8.72691
0.168605 -0.754265
0.121814 -0.842878
-1.04184 -13.0706
-0.88306 -13.3681
0.91989 -11.7166
0.964047 -11.3904
-2.26149 -18.2052
-2.23303 -17.8334
-0.634451 -16.764
-0.29067 -16.6676
0.249359 -7.63395
0.497466 -7.51324
-0.532912 -16.0699
-0.825105 -16.2762
-1.0174 -4.42329
-0.871356 -4.58495
-2.00945 -24.3053
-2.21586 -23.986
-0.678548 -7.10272
-0.607961 -7.36805
-0.337693 -4.89487
-0.351833 -4.66178
-0.00121746 -0.0169244
-0.0118014 -0.0369585
0.375137 -0.354453
0.416759 -0.427696
-0.35986 -8.31571
-0.622845 -8.44423
1.54376 -20.5569
1.55838 -20.1815
-1.09583 -19.7907
-0.791422 -19.5762
0.149948 -0.133078
0.200975 -0.172979
-0.356024 -0.383001
-0.41023 -0.458248
0.00753166 -6.80271
0.273563 -6.8376
0.861961 -7.43978
0.896183 -7.72212
0.0455155 -0.420218
0.119734 -0.419975
-0.24208 -21.52
0.0578158 -21.2935
-0.456929 -2.79596
-0.560858 -2.65549
-2.35841 -20.526
-2.02629 -20.3465
-0.321276 -7.07806
-0.330358 -7.3553
0.0457112 -0.0170272
0.0147192 -0.00327335
-1.54964 -6.93386
-1.3703 -7.12344
1.14489 -25.4366
0.773243 -25.5238
0.153694 -0.68441
0.24843 -0.687617
-0.203653 -2.96885
-0.302939 -2.81272
-0.0127267 -14.6321
-0.348977 -14.5459
-1.2563 -5.8381
-1.0676 -5.64931
-0.913266 -2.2212
-0.858305 -2.36664
-0.563293 -3.96643
-0.473291 -3.76624
-0.0492212 -2.11911
-0.206859 -2.16686
0.517819 -15.191
0.188332 -15.3085
-1.20909 -5.97866
-1.37606 -5.80122
0.106379 -12.5887
-0.185892 -12.7475
-0.325415 -1.32903
-0.355618 -1.47461
0.388818 -15.3329
0.736967 -15.39
-0.00995207 -0.000894711
-0.0307648 -0.00984877
-0.620449 -3.26599
-0.689373 -3.0901
-0.0947886 -0.172258
-0.147153 -0.2018
-0.961195 -22.7398
-0.929685 -23.1191
-0.353869 -0.689977
-0.436454 -0.667146
0.625026 -13.3957
0.42071 -13.119
0.0809065 -0.37584
0.116984 -0.322848
-1.10156 -12.1316
-1.08174 -11.8008
0.566828 -4.22399
0.403016 -4.36578
-0.155781 -13.7663
-0.41327 -13.5412
-1.25969 -12.7974
-0.932618 -12.8635
0.266265 -0.187372
0.310824 -0.241097
-1.75921 -10.7716
-1.51409 -10.9685
-0.50958 -12.9001
-0.417572 -13.2264
0.304265 -0.340615
0.244208 -0.280874
0.592501 -1.98649
0.436767 -1.98978
-0.696356 -13.3779
-1.0309 -13.4406
-0.0452412 -23.2216
-0.335308 -23.4661
-0.620966 -21.5047
-0.976702 -21.626
-0.266903 -0.190906
-0.243716 -0.152175
0.58823 -3.20491
0.493926 -3.02461
-0.0522691 -15.7092
-0.338838 -15.501
-0.967968 -15.5043
-1.28948 -15.3632
0.168251 -0.206281
0.132912 -0.155275
0.593289 -6.24271
0.788009 -6.43088
-0.922615 -3.96235
-0.828231 -4.14855
0.99974 -10.5403
1.18417 -10.292
-0.438814 -0.820205
-0.384616 -0.895864
0.354524 -16.4309
0.613304 -16.6841
0.493646 -7.14514
0.524652 -6.874
-0.15076 -19.8066
-0.190079 -20.1795
0.409335 -1.60002
0.554437 -1.64362
-2.30339 -21.1128
-2.4235 -21.4724
-1.37734 -10.2361
-1.12081 -10.0431
0.697332 -25.8289
0.384861 -25.6104
-2.3042 -20.771
-2.04867 -21.0435
-0.245686 -0.354905
-0.285785 -0.428806
-1.79837 -22.2108
-2.03635 -21.9188
0.0104553 -0.000807646
0.0304549 -0.0104174
-2.61291 -16.777
-2.42549 -17.0819
0.0609432 -0.0244765
0.0359975 -0.0158343
0.3864 -15.168
0.0436361 -15.2382
-0.679364 -14.8055
-0.961711 -14.6037
-0.0497904 -0.0379354
-0.0374154 -0.0179943
0.735426 -1.72757
0.711036 -1.57833
-1.13759 -5.20152
-0.891711 -5.17354
-0.409766 -1.21039
-0.42606 -1.3469
0.332502 -0.64086
0.277999 -0.553732
-0.342827 -2.56815
-0.510041 -2.64817
-0.234563 -7.84568
-0.443067 -8.04351
1.67008 -11.7741
1.44846 -12.0083
0.561784 -10.8507
0.805784 -10.6507
-1.02968 -15.6734
-0.855177 -15.983
-2.67117 -18.256
-2.30037 -18.2754
-0.0315098 -0.0167372
-0.026369 -0.00774663
0.887065 -3.98574
0.984984 -3.8089
1.27677 -7.70111
1.20344 -7.97058
-0.959608 -7.42396
-1.23878 -7.43971
0.277134 -21.7743
-0.0650365 -21.6171
0.453377 -0.761841
0.450022 -0.860539
-0.466826 -0.49897
-0.425196 -0.420844
1.01741 -7.91306
0.779443 -7.74347
-1.59506 -9.71227
-1.88007 -9.61224
-0.167064 -0.415537
-0.227998 -0.481859
-0.00446145 0.000628633
-0.0132463 -0.00145797
-0.054418 -2.34322
-0.000791605 -2.18198
0.133609 -13.1651
0.46357 -13.241
-0.303772 -24.1019
-0.576059 -24.3676
0.677962 -18.0371
0.611955 -17.6698
-0.00844464 -0.000571812
-0.00166979 0.0010289
-0.829594 -1.65328
-0.679213 -1.63268
-0.478517 -3.05363
-0.354077 -2.89977
-0.935211 -13.3394
-0.846874 -13.0091
0.340682 -11.5488
0.508722 -11.8359
-1.462 -15.1695
-1.65759 -15.4694
-0.130847 -0.0759595
-0.131523 -0.0671835
-0.204169 -0.190292
-0.157312 -0.143676
0.127418 -0.409486
0.0552188 -0.417113
-0.594043 -1.23538
-0.48804 -1.1323
0.694982 -2.3147
0.589927 -2.43351
-1.27329 -4.01741
-1.08127 -3.88461
0.0181689 -0.00402855
0.013719 -0.00511456
0.324423 -0.272325
0.257498 -0.2424
-0.0322514 -0.0485549
-0.0200618 -0.072451
-1.42314 -17.9293
-1.49898 -18.2979
0.00518162 -0.13181
-0.036518 -0.129838
0.0152359 -0.203915
0.0383675 -0.159953
1.35797 -11.8837
1.29787 -12.2083
-0.41851 -25.4833
-0.064785 -25.3468
-0.195106 -0.269067
-0.156666 -0.211174
-2.25005 -19.0717
-2.03674 -19.3735
-1.4289 -14.4531
-1.7276 -14.642
-0.926252 -22.4565
-0.572768 -22.3247
-1.30054 -8.00801
-1.53013 -7.85424
-0.760963 -7.44844
-1.00998 -7.58862
1.20574 -16.6073
0.92181 -16.3785
-1.18978 -5.69214
-0.962904 -5.78735
0.0543649 -16.1956
0.0979155 -16.5538
-0.0425567 -12.0713
-0.354984 -12.1732
-2.16988 -19.9735
-1.80468 -19.8892
-0.610794 -1.43665
-0.505666 -1.50855
-0.35095 -2.64508
-0.523656 -2.61018
-0.216758 -8.86358
-0.0115761 -8.6506
0.412767 -0.510971
0.337767 -0.519413
1.38043 -21.3656
1.59647 -21.6785
-0.173633 -15.8333
-0.392246 -16.1156
-1.98016 -13.2812
-1.82327 -13.5776
0.162896 -0.0890715
0.131285 -0.0802907
0.0357238 -0.18586
-0.0118626 -0.203195
-0.73581 -19.8868
-1.10412 -19.8504
0.0468336 -25.0507
-0.325379 -25.1219
-0.461112 -4.66257
-0.492682 -4.43606
-0.534647 -0.777661
-0.434235 -0.710343
0.426632 -0.740631
0.392394 -0.642562
-0.209804 -0.143555
-0.269977 -0.182222
0.667289 -1.13855
0.557218 -1.16716
0.344353 -15.0123
0.296168 -14.6629
-0.52964 -1.39807
-0.52132 -1.53718
-0.576155 -0.790387
-0.591401 -0.892255
0.499101 -2.52093
0.46296 -2.69352
-1.17391 -4.56035
-1.19491 -4.33818
-1.17771 -5.18354
-1.15297 -5.42788
-0.790665 -21.2332
-0.4784 -21.0245
1.08355 -17.6739
1.39913 -17.4945
0.100884 -7.26889
0.312161 -7.45317
1.29346 -8.94521
1.15208 -9.2008
-0.0156381 -14.7369
-0.338868 -14.6078
-1.46162 -14.2914
-1.11756 -14.3222
0.055433 -23.1309
-0.0223563 -22.7584
-2.62326 -18.4681
-2.25993 -18.5404
-0.933168 -6.64336
-0.93935 -6.37831
-1.0888 -9.26788
-1.23486 -9.01116
0.873971 -15.9349
0.651946 -15.6515
-1.13724 -22.9239
-0.903238 -23.2218
-0.60924 -3.27283
-0.804254 -3.34053
-0.8257 -15.1714
-0.564649 -15.4067
0.162606 -1.8575
0.312505 -1.88741
-1.66535 -6.6583
-1.52568 -6.87296
0.00148457 -0.000515769
0.0174772 -0.00455295
0.812169 -9.37036
1.05673 -9.2053
-0.265084 -13.5106
-0.465835 -13.2356
-1.28523 -4.6714
-1.04938 -4.65455
0.355368 -1.2353
0.222835 -1.22228
-0.911394 -3.87494
-1.12586 -3.87529
-0.0526993 -0.0231876
-0.0177733 -0.00525182
0.658537 -5.61981
0.79822 -5.41985
1.19383 -8.9084
1.4742 -8.83108
-1.50552 -24.7596
-1.88432 -24.7519
0.234279 -1.7026
0.148208 -1.81916
-0.901367 -1.99828
-0.852253 -2.1369
-1.1789 -23.4499
-1.12579 -23.8274
-1.69561 -14.539
-1.57881 -14.2072
-1.26334 -10.0675
-1.56734 -10.0069
-0.12411 -0.864152
-0.168162 -0.772073
-2.15619 -10.7807
-2.07385 -11.0881
-2.0484 -16.2262
-2.32297 -16.4693
0.789635 -10.7534
1.10887 -10.755
-0.0411689 -0.95867
0.0550088 -1.01097
-1.11024 -24.7592
-0.740293 -24.68
-0.309233 -0.30623
-0.280968 -0.246934
-0.157872 -0.0868097
-0.116311 -0.0576578
1.49564 -9.22179
1.52351 -9.52725
-0.749555 -1.17621
-0.64225 -1.21374
0.79575 -2.64269
0.645484 -2.52103
-2.04844 -21.4702
-2.09739 -21.846
-1.58849 -20.2451
-1.45711 -19.8925
0.304924 -12.742
0.456209 -12.4455
-1.03057 -22.6324
-0.696601 -22.4552
-1.93248 -17.2035
-1.72703 -17.5023
-0.2335 -0.900327
-0.218225 -1.01105
-2.0949 -25.2831
-2.13107 -25.6637
0.642905 -6.08716
0.732569 -6.3388
0.119564 -1.05412
0.0142898 -1.01662
-0.794114 -10.4883
-0.846449 -10.1783
-0.357653 -1.77942
-0.213515 -1.75132
-0.176657 -0.612671
-0.0909813 -0.575714
-0.631792 -3.05113
-0.499725 -3.18118
-0.062523 -0.0593833
-0.098936 -0.0815211
-0.138213 -0.707516
-0.145651 -0.810772
0.161534 -0.191737
0.113884 -0.19299
-0.422839 -3.65831
-0.21721 -3.67659
-2.79871 -23.9849
-2.6723 -23.6246
-0.47332 -8.97764
-0.719393 -8.81596
0.192671 -18.3056
0.559638 -18.2501
1.15039 -8.52473
0.878919 -8.40041
-1.98592 -23.3074
-1.73288 -23.5895
0.290348 -2.81459
0.15253 -2.68591
-0.481218 -2.40738
-0.648463 -2.38385
0.606143 -3.75559
0.812135 -3.73736
-0.114961 -14.3056
-0.455238 -14.2498
1.15694 -20.9112
1.34157 -20.5855
-0.672327 -25.6901
-1.00472 -25.5114
0.663172 -2.10056
0.827283 -2.12318
-0.485779 -1.6808
-0.554515 -1.56541
0.513545 -0.636027
0.512419 -0.721769
-1.54613 -11.7723
-1.21786 -11.7391
-2.26886 -14.6432
-1.92774 -14.7103
0.0309104 -0.0916092
-0.00401062 -0.0919231
-0.454187 -0.652608
-0.3566 -0.619825
0.0575376 -0.226593
0.0140772 -0.189491
-1.60916 -15.7898
-1.85215 -15.5364
-0.0385044 -0.444129
-0.0799426 -0.518485
-1.27306 -14.7835
-1.61114 -14.8827
0.960918 -11.5578
1.02241 -11.236
-0.565479 -3.69956
-0.391039 -3.57527
0.0273062 -4.7201
-0.162269 -4.5993
0.122646 -0.0639576
0.139451 -0.0884214
-0.331378 -2.77218
-0.149143 -2.78711
-0.180362 -0.194408
-0.159363 -0.228757
0.466468 -2.46277
0.345103 -2.32705
-2.52892 -23.6015
-2.78758 -23.8826
0.124012 -0.0602042
0.0802965 -0.0344463
0.803404 -5.35363
0.994274 -5.53244
-0.0579432 -0.0403514
-0.0919416 -0.0651336
1.13768 -6.02845
1.06174 -6.27019
-0.465871 -7.80491
-0.71554 -7.94784
-1.44988 -8.27588
-1.73695 -8.35622
-0.424397 -9.26563
-0.585039 -9.52631
-0.336281 -2.67735
-0.347116 -2.49835
1.31805 -10.4415
1.17025 -10.1525
-0.341188 -1.81196
-0.356164 -1.96902
-1.91957 -14.924
-1.63207 -15.1179
0.502192 -19.7831
0.851229 -19.9183
-1.61008 -8.12087
-1.88384 -8.2456
-0.315216 -8.42551
-0.160912 -8.17777
0.644647 -2.06722
0.668093 -1.91598
-1.52259 -21.2534
-1.89315 -21.318
0.892481 -5.51947
0.803733 -5.75025
0.930292 -14.5158
0.783961 -14.1955
-0.854283 -2.98436
-1.04598 -2.99076
0.696439 -4.59937
0.669095 -4.8302
-1.44409 -13.7679
-1.75946 -13.6437
-0.535158 -15.5625
-0.362127 -15.2525
-1.31995 -14.9566
-1.19343 -15.2836
0.17524 -0.134663
0.211513 -0.182139
0.815248 -16.6577
1.16855 -16.5948
-1.4188 -19.8938
-1.10405 -19.6921
-1.30104 -4.04378
-1.28421 -4.2579
-0.254283 -0.910169
-0.353879 -0.880431
0.0774441 -0.0951297
0.062709 -0.0603549
0.194604 -2.16836
0.0848763 -2.29067
0.290754 -2.71587
0.116253 -2.75907
-0.515447 -2.03527
-0.668192 -2.01017
-0.0373377 -0.0325394
-0.0658508 -0.0499261
-0.0699729 -0.110711
-0.0369063 -0.0808831
-0.165849 -13.5131
-0.0148201 -13.8226
-2.23887 -17.5639
-2.40827 -17.8982
-0.391845 -2.51823
-0.559429 -2.59555
-1.07314 -22.231
-0.728018 -22.0786
-1.8047 -7.66392
-1.86068 -7.94688
-1.2242 -5.65671
-1.33932 -5.89554
-0.301138 -8.90889
-0.00555653 -8.91855
-0.478308 -7.02407
-0.377938 -6.76896
0.0310747 -0.00980376
0.0206502 -0.00801208
-1.51749 -12.5129
-1.28347 -12.2662
0.839612 -25.2408
0.466095 -25.3149
1.11475 -6.14105
0.92366 -5.94923
-0.891748 -8.96877
-0.848269 -9.2659
0.897556 -13.7933
0.864709 -14.137
-2.02882 -17.5915
-1.67344 -17.6773
1.09745 -21.1647
0.727819 -21.094
0.0630514 -12.4694
-0.0330461 -12.1495
0.923451 -5.71527
0.890732 -5.46053
-1.09026 -13.0204
-1.01154 -13.3496
-0.581577 -1.62477
-0.470919 -1.70178
0.616091 -10.69
0.914243 -10.5897
0.320766 -6.32982
0.531832 -6.49481
0.730622 -11.3169
0.404757 -11.3187
0.31062 -1.41683
0.346126 -1.56349
0.340681 -20.5134
0.413747 -20.8835
0.291393 -16.9223
0.169394 -16.5809
1.21247 -20.9722
1.17217 -20.597
-0.464286 -2.62244
-0.616663 -2.54609
1.64118 -18.663
1.27778 -18.5751
-0.652151 -1.19744
-0.690878 -1.33119
-1.43577 -18.4796
-1.79382 -18.5802
-0.186911 -0.211418
-0.247774 -0.254091
0.159684 -12.3474
0.349613 -12.6256
-0.535288 -2.51245
-0.523004 -2.6902
-0.696694 -5.92399
-0.516038 -6.09649
-0.0879988 -0.787204
-0.189557 -0.801798
-0.335027 -19.3357
0.0018513 -19.4886
0.0873114 -0.0379445
0.0518118 -0.0192718
-0.406339 -9.52638
-0.308463 -9.81814
0.775503 -15.6075
0.985482 -15.9003
0.909958 -2.24663
0.825208 -2.37363
1.20764 -10.31
1.34217 -10.0343
0.449638 -4.45997
0.231278 -4.50878
0.0511773 -0.16131
0.0302459 -0.205521
-0.886029 -3.21219
-0.69906 -3.25484
0.297583 -1.1308
0.397554 -1.07789
-0.896687 -15.836
-0.935691 -16.193
0.804731 -12.0616
0.9279 -12.376
-0.0130735 -0.0039031
-0.00518227 -0.00535852
0.0607784 -8.33549
0.298143 -8.17493
0.699526 -10.9568
0.382027 -11.0167
0.981664 -18.4178
1.15221 -18.7529
0.442092 -11.5526
0.717214 -11.3833
-1.82595 -9.36064
-1.57661 -9.51997
0.395886 -3.59442
0.298899 -3.77515
-0.815901 -24.8772
-1.08622 -24.6111
0.00469576 -0.0731172
-0.0080616 -0.0451396
-0.480305 -0.787191
-0.427032 -0.68804
-0.226872 -20.4083
-0.187655 -20.0347
-1.34775 -24.0067
-0.977047 -23.9303
0.443872 -6.00645
0.599184 -6.22181
1.53379 -21.9332
1.42591 -21.569
0.235272 -4.88113
0.454562 -4.98464
-0.931121 -11.7394
-0.639165 -11.8763
-0.0397887 -4.34404
0.170329 -4.41508
1.55714 -19.6609
1.42441 -19.3084
-0.126631 -0.334437
-0.161417 -0.405321
-1.44559 -7.82407
-1.58951 -7.59306
0.322392 -10.0597
0.0300493 -10.1564
-1.98891 -12.1602
-1.913 -12.4806
-2.26789 -18.9485
-2.43098 -18.6168
-2.1079 -19.7354
-2.32746 -20.0423
1.18433 -4.60524
0.953804 -4.60067
-0.109382 -0.710607
-0.0207442 -0.671159
-1.0505 -21.7725
-0.890629 -22.1151
0.259174 -18.3569
0.609667 -18.4832
0.0482291 -0.0184072
0.0456365 -0.0163208
-1.13832 -5.45233
-0.956171 -5.26444
0.369733 -4.61427
0.592243 -4.56982
-0.220512 -0.844711
-0.213483 -0.740087
-0.131231 -0.0847521
-0.159193 -0.090634
0.262118 -0.307454
0.197622 -0.262657
-0.469944 -1.09234
-0.566674 -1.04597
-1.62402 -21.5468
-1.85132 -21.2481
-1.23968 -3.30902
-1.04036 -3.3122
-2.21262 -17.5665
-1.87194 -17.4182
1.00272 -21.3199
1.06839 -21.6931
0.0884225 -2.16356
0.250184 -2.20007
-0.837241 -20.5705
-0.825308 -20.1946
-1.41346 -22.1496
-1.20196 -21.8346
-0.897578 -2.59616
-1.01978 -2.75418
0.582863 -1.34925
0.617006 -1.49192
0.190016 -0.22952
0.240873 -0.229573
-1.99521 -20.7424
-2.03445 -21.1177
-0.946033 -12.0939
-0.708453 -12.3193
0.195999 -16.3453
0.446822 -16.6047
1.39703 -13.5448
1.20824 -13.824
0.68873 -7.54942
0.469008 -7.3679
0.815404 -18.1174
0.971221 -17.783
0.336871 -3.2096
0.282551 -3.39974
0.556516 -1.13839
0.444304 -1.16729
-0.247003 -14.5751
-0.175025 -14.2336
0.403165 -21.104
0.331967 -21.4748
-0.171122 -4.20951
0.0461112 -4.22528
-0.0980754 -0.224292
-0.141876 -0.207206
-1.7011 -18.4594
-1.50773 -18.1367
1.001 -16.1279
0.644264 -16.1276
-2.80136 -21.5075
-2.43738 -21.4011
-0.479799 -0.650834
-0.401283 -0.570343
0.0518642 -6.03708
0.196473 -6.2538
-1.46754 -6.1686
-1.3732 -5.91869
-0.0254427 -0.100158
-0.0469325 -0.141225
-0.072644 -3.29852
-0.265078 -3.35192
-1.9717 -9.54404
-1.69654 -9.66263
0.29759 -8.54169
0.416131 -8.8165
-0.140768 -19.0787
0.138268 -18.8367
-0.871249 -13.6464
-0.53091 -13.6264
0.000828458 -21.3584
0.00857191 -21.737
1.21442 -4.72121
1.224 -4.49208
-0.701991 -9.10221
-0.547975 -9.35961
-0.314795 -3.96958
-0.503466 -4.08415
-1.43899 -7.73514
-1.69852 -7.87721
0.341171 -0.844135
0.375339 -0.955673
-0.184315 -4.7464
-0.32281 -4.93261
-0.0852915 -2.5427
-0.107467 -2.36793
0.446467 -1.66417
0.577901 -1.75889
0.731131 -1.43947
0.629667 -1.31733
-0.624052 -6.75527
-0.374385 -6.84668
0.469555 -0.634543
0.445944 -0.546537
-0.649102 -22.034
-0.822164 -21.698
0.896202 -8.17092
0.94247 -7.88928
-0.0644341 -2.44039
-0.122594 -2.27831
-0.342203 -0.496114
-0.306998 -0.555674
-0.242542 -0.237611
-0.207799 -0.261189
-1.25392 -23.9059
-1.14923 -24.2724
-1.36926 -8.88506
-1.23003 -9.14273
0.305161 -3.44429
0.441994 -3.60611
0.0870546 -4.23713
0.284806 -4.14826
-0.955349 -20.6071
-0.614603 -20.4535
-0.663589 -25.5008
-0.759053 -25.1322
-0.492109 -0.649575
-0.523709 -0.58865
0.215006 -0.467026
0.233861 -0.552234
-0.753201 -3.15205
-0.741027 -2.9589
0.54824 -15.7051
0.81155 -15.9497
-0.689424 -9.49332
-0.912 -9.70887
0.195652 -0.439179
0.119367 -0.415733
1.53582 -10.8767
1.45562 -11.1877
-2.13468 -14.5005
-1.95786 -14.7953
-0.0249411 -0.0111446
-0.00976762 -0.00247679
1.47749 -12.6495
1.38755 -12.3216
0.05128 -0.844912
-0.0363028 -0.9037
-0.480795 -1.76638
-0.522773 -1.63274
-1.66107 -21.4569
-1.28663 -21.4819
-1.66962 -8.76159
-1.91953 -8.62252
0.0266517 -0.0329099
0.00956997 -0.0441196
0.0123943 -0.0034449
0.0204886 -0.0163545
0.198511 -7.85405
0.099692 -7.58592
-0.610148 -9.68208
-0.767292 -9.95066
0.0189007 -0.217934
-0.00820075 -0.171136
0.811155 -8.00581
1.07209 -8.14125
0.17478 -0.645407
0.0855155 -0.659392
0.480375 -2.97115
0.446077 -3.15896
-0.492324 -9.18118
-0.235014 -9.02618
1.2102 -12.3878
1.31812 -12.7109
0.199769 -0.193739
0.259908 -0.236657
-0.177766 -8.74754
-0.0531973 -8.47977
-0.325119 -0.263754
-0.29866 -0.29099
0.990182 -16.824
1.20102 -16.5352
-0.0101471 -16.1883
-0.359987 -16.2507
0.453886 -0.649351
0.364737 -0.584172
0.187119 -10.0763
-0.117146 -10.1131
-0.505795 -19.9737
-0.757511 -19.7001
0.756115 -3.55937
0.909735 -3.44585
-0.0665515 -3.43026
0.033974 -3.6105
-1.7623 -16.2958
-1.76871 -16.6568
-2.7297 -21.3258
-2.3591 -21.3913
0.767837 -24.3877
0.887907 -24.0256
0.44664 -6.05574
0.296118 -6.26121
-0.725407 -2.02505
-0.75199 -2.18873
-0.49463 -2.5696
-0.553773 -2.41078
-0.122142 -0.59305
-0.0350652 -0.574546
0.812897 -2.13178
0.837708 -2.29987
-0.673663 -2.00815
-0.716036 -1.86808
0.30928 -0.35355
0.274329 -0.394589
-0.552861 -4.82816
-0.319812 -4.8533
-1.2822 -15.9106
-1.48781 -15.6234
-0.968192 -16.4081
-1.13322 -16.0906
1.09838 -19.2954
1.41617 -19.1051
0.624953 -6.93316
0.6957 -6.67573
-2.38097 -13.4733
-2.29856 -13.1387
-0.604261 -1.25211
-0.589932 -1.37946
-0.204174 -2.19691
-0.0390637 -2.19513
-2.94837 -24.9084
-2.74567 -24.5841
0.284203 -21.4315
-0.0137621 -21.2009
-1.83581 -23.3976
-1.97946 -23.7511
0.642323 -23.6005
0.871013 -23.297
-1.81501 -10.4739
-1.49719 -10.4234
-0.118908 -0.338699
-0.0609979 -0.295686
-0.634437 -23.5105
-0.969326 -23.688
0.949458 -11.8887
0.758227 -11.6126
0.589762 -19.7939
0.685808 -20.1575
-0.565754 -1.919
-0.429077 -1.82438
-1.57879 -10.4082
-1.38518 -10.1471
-0.638474 -5.08097
-0.743224 -4.87004
-0.999206 -24.1435
-0.910973 -24.5146
-1.38824 -12.9401
-1.12216 -13.1407
1.27245 -21.9818
1.25874 -21.6031
0.0499087 -0.0703032
0.0526116 -0.106138
0.280233 -0.30235
0.25117 -0.342003
0.948416 -12.8049
1.08754 -13.119
0.872235 -14.3919
1.15883 -14.2061
-0.595595 -3.76391
-0.405723 -3.8456
0.315534 -0.377272
0.392593 -0.400684
1.18326 -4.3671
1.12304 -4.57762
0.0711531 -0.160102
0.114762 -0.200282
-0.0819954 -3.9761
0.12763 -3.94023
-0.995428 -9.42113
-0.799817 -9.65049
-1.45951 -6.21854
-1.20221 -6.24755
-1.26828 -12.6056
-1.02102 -12.8254
-0.518449 -12.243
-0.191443 -12.2825
1.53549 -15.7241
1.18176 -15.746
-0.916624 -2.85275
-1.09264 -2.95965
0.669589 -10.7142
0.373105 -10.5855
0.81468 -18.065
1.0189 -18.38
1.04302 -24.8612
1.32931 -25.1141
0.665283 -3.50853
0.562483 -3.67812
-0.81103 -25.473
-0.451601 -25.3554
-0.0893963 -3.6211
-0.260277 -3.51039
0.279563 -21.7859
0.411012 -22.1418
-2.44264 -22.6987
-2.06476 -22.672
-0.150414 -0.178875
-0.104528 -0.180897
-2.8586 -23.2312
-2.50308 -23.0936
0.420564 -3.17777
0.531161 -3.35276
-0.548871 -16.2025
-0.611511 -15.8493
0.70783 -7.57893
0.498771 -7.38393
0.206007 -19.7124
0.0206287 -20.0358
0.584289 -16.9583
0.269909 -16.7779
0.92279 -12.6473
1.10304 -12.3718
-1.25582 -16.1369
-1.56671 -16.3206
1.27713 -14.5305
1.01336 -14.2947
0.169975 -0.165153
0.225506 -0.190304
-1.50764 -20.4059
-1.39953 -20.7649
0.529683 -13.1499
0.738287 -13.4243
-0.0908954 -0.0566044
-0.132544 -0.083108
0.345415 -4.82819
0.115684 -4.8586
1.5486 -14.6411
1.43812 -14.305
-1.12234 -13.8858
-0.870204 -13.648
-1.39079 -4.3905
-1.2019 -4.23584
0.290397 -17.3807
0.192979 -17.7347
0.00644724 -0.442324
0.0813399 -0.433373
0.0920261 -0.0844093
0.0974042 -0.0650196
-0.691148 -24.8308
-1.04723 -24.9594
-1.68526 -23.0521
-1.70437 -22.6722
0.0113895 -19.4981
0.287292 -19.2514
0.541491 -23.7059
0.697298 -23.3586
0.944566 -2.65515
0.770424 -2.57399
-0.0209409 -19.4805
-0.0785612 -19.1121
-0.77762 -2.78778
-0.914491 -2.68823
0.570565 -3.34035
0.683734 -3.52109
-2.29039 -22.8145
-1.99267 -22.5773
0.0708779 -0.364445
0.141641 -0.385656
-1.11981 -2.7692
-1.01514 -2.90044
0.997588 -12.7996
0.734858 -13.0018
1.53533 -11.2061
1.32482 -10.9443
-2.5191 -24.1579
-2.18751 -24.3431
0.675957 -3.62641
0.544167 -3.77676
-0.171103 -0.16718
-0.188304 -0.217308
-0.840621 -1.86652
-0.699866 -1.90518
-1.0914 -17.0351
-0.769215 -16.8732
-1.38452 -8.35527
-1.16425 -8.53466
-0.706771 -2.61808
-0.836098 -2.76711
-0.104767 -0.32306
-0.173211 -0.345204
-0.00306644 -0.481469
0.0406275 -0.556006
0.637795 -4.13363
0.470139 -3.98154
-1.63351 -11.9824
-1.86716 -12.2301
-0.103809 -0.0607058
-0.105656 -0.0530228
0.229549 -0.13615
0.189716 -0.126324
0.729253 -9.61726
0.892323 -9.36591
-0.912612 -4.69892
-1.14938 -4.72931
0.428746 -1.68745
0.471281 -1.83854
-0.000146177 -0.122939
-0.0126962 -0.0849707
-1.36523 -24.6423
-1.34741 -24.2608
-1.75097 -21.4545
-1.51629 -21.1573
0.72292 -14.9049
0.383109 -14.8192
0.136513 -23.5317
0.0628709 -23.1579
-1.34407 -14.1628
-1.2951 -13.819
0.231546 -0.970403
0.17151 -0.869474
1.233 -14.5751
1.56738 -14.4915
0.276904 -0.240746
0.308689 -0.30107
-0.998218 -14.5046
-0.651607 -14.4928
-1.91708 -14.8372
-1.60655 -14.9914
0.4985 -1.12168
0.624008 -1.13815
1.03784 -6.90497
0.803861 -6.75359
0.885977 -3.11945
0.693945 -3.06581
-0.364557 -6.4675
-0.614972 -6.39693
0.448788 -16.2098
0.458348 -15.8511
0.581438 -5.38711
0.557267 -5.13439
-0.72036 -21.9872
-0.382704 -22.1534
-0.465277 -24.7099
-0.84287 -24.6949
0.243029 -23.9833
-0.120472 -23.8775
-0.00637947 -0.17629
0.0165527 -0.226501
0.433597 -1.13139
0.470795 -1.02734
-1.78716 -10.4148
-1.78015 -10.0992
-0.245852 -22.3799
-0.581811 -22.2092
-2.01695 -9.62069
-1.73302 -9.4774
-0.487432 -0.537067
-0.460772 -0.459089
0.015831 -0.00416853
0.0102306 -0.00141952
-1.07842 -14.6734
-0.75877 -14.5314
-0.851931 -20.443
-1.18403 -20.2757
-1.73337 -17.9723
-1.57576 -17.6321
-1.40897 -8.74306
-1.20432 -8.51767
-1.46215 -24.2345
-1.83514 -24.3019
0.0620709 -3.21322
0.257109 -3.21445
1.27425 -11.2977
1.24463 -10.9696
-1.35485 -8.21816
-1.21595 -7.95646
0.88951 -3.62592
0.956326 -3.83453
0.124101 -13.4632
-0.209821 -13.4032
-0.28118 -13.1523
-0.582708 -13.0035
0.291738 -0.207977
0.244271 -0.20313
-0.201969 -15.7406
-0.541465 -15.6435
-1.59226 -11.1641
-1.51483 -11.4794
-2.14274 -14.7965
-1.90514 -14.5301
-1.12652 -19.2333
-0.837585 -19.0031
0.270784 -13.1236
-0.0509563 -13.0216
0.719565 -2.21263
0.689521 -2.04695
0.439293 -2.52316
0.26402 -2.50905
-0.192198 -0.247406
-0.211857 -0.212017
0.617361 -14.6289
0.825521 -14.3542
-1.64921 -18.0355
-2.00459 -17.9431
-0.263326 -19.6773
0.0875391 -19.7985
0.733417 -22.2221
0.981182 -21.9376
-0.913862 -20.1242
-1.09213 -19.7971
-0.0490203 -3.08205
0.103621 -3.20463
0.0303077 -4.44913
-0.0995892 -4.26606
1.03137 -3.80354
1.16153 -3.66088
-1.58253 -15.608
-1.2798 -15.7879
-0.407971 -2.1705
-0.452684 -2.01896
1.10678 -20.9904
0.736145 -20.9274
-0.990513 -16.7059
-1.32013 -16.8547
-0.188917 -0.778957
-0.104508 -0.716187
1.13905 -7.92467
1.39141 -7.81446
-0.0658355 -0.0739267
-0.0553602 -0.0446471
-1.00089 -7.91774
-1.28687 -7.94122
-2.253 -17.4567
-1.92678 -17.6172
-0.0336697 -2.99987
0.155524 -3.01413
-0.261368 -2.34411
-0.169607 -2.19716
-2.20316 -25.0669
-2.47901 -24.8044
-0.408531 -3.91803
-0.253902 -3.76587
0.993122 -8.16206
1.15185 -8.41683
-0.977847 -15.4499
-1.09973 -15.1192
1.11887 -5.70976
1.33279 -5.59879
0.616467 -17.8828
0.271719 -17.7482
0.299326 -1.32315
0.249197 -1.45224
-1.66809 -14.2345
-1.41971 -13.9857
-0.562401 -16.2971
-0.483704 -15.9462
-0.0067289 -0.997735
-0.00443054 -1.1167
-0.542426 -16.2048
-0.449072 -15.8581
-2.37587 -15.2489
-2.02219 -15.2577
-0.0513877 -22.3271
-0.414428 -22.2272
0.5553 -13.386
0.581733 -13.0466
0.469091 -20.8966
0.290443 -21.2274
1.24528 -20.3163
1.49128 -20.0369
-1.48557 -21.8694
-1.25742 -21.5668
-0.982465 -2.83571
-0.796192 -2.77722
-0.723653 -21.5599
-0.790563 -21.1879
0.245215 -0.980681
0.280489 -1.09877
0.217965 -0.605792
0.308786 -0.648713
-0.816604 -4.47526
-0.587893 -4.4552
0.749087 -17.6572
0.956313 -17.968
-0.82378 -11.8366
-0.57737 -12.0493
0.157881 -3.44792
0.143397 -3.65473
-1.16145 -8.93525
-1.45282 -9.02277
-0.737966 -9.41181
-0.634648 -9.12416
-0.563212 -2.08713
-0.716961 -2.17403
-1.8876 -21.3758
-2.19019 -21.6043
-0.358265 -0.867616
-0.342237 -0.76236
-2.14043 -13.2692
-2.19215 -13.6091
0.331125 -8.29763
0.603423 -8.4055
1.38902 -5.88907
1.18191 -5.71523
-0.248679 -3.02203
-0.0705653 -2.95241
0.948489 -24.2004
1.13078 -23.8659
-0.441761 -23.5658
-0.639201 -23.8916
0.982933 -3.93438
1.19104 -4.02866
-1.44022 -10.2203
-1.36791 -10.5253
-0.520311 -14.4613
-0.762328 -14.2145
0.562754 -25.1916
0.257401 -24.965
1.316 -10.8956
1.45289 -10.6123
-0.252788 -0.301118
-0.325269 -0.335697
-0.67659 -3.01076
-0.749362 -3.19938
-1.01996 -9.43914
-0.724244 -9.50104
-0.647704 -15.3618
-0.709068 -15.0136
0.504505 -11.618
0.261068 -11.8315
-0.342024 -22.6938
-0.32299 -22.314
-1.72793 -18.3035
-1.55794 -18.6329
-1.75157 -12.2131
-1.63371 -12.5198
-0.888163 -14.2135
-0.805109 -14.5511
1.1805 -11.6468
1.03876 -11.3426
-0.424174 -0.462091
-0.433258 -0.5365
1.33596 -7.36012
1.22275 -7.09727
-1.32427 -8.62458
-1.59344 -8.76794
1.39052 -19.7586
1.14778 -20.0402
-0.0858825 -0.0492286
-0.0545331 -0.031407
-0.47471 -1.93228
-0.565607 -1.8229
-0.755131 -3.90731
-0.689199 -4.10839
0.094177 -1.03754
0.0765682 -1.15606
-1.19698 -10.2904
-0.935135 -10.1073
-0.373853 -13.5787
-0.583759 -13.8514
-2.23018 -14.2501
-2.10046 -14.5675
-1.44801 -11.3778
-1.4196 -11.7047
-0.380912 -0.822275
-0.275518 -0.817653
-0.666058 -3.43842
-0.521435 -3.28515
-1.83249 -11.7049
-2.13457 -11.5883
-1.9294 -17.4003
-1.975 -17.0382
-1.39896 -7.77092
-1.14326 -7.63059
-0.962921 -14.3272
-0.729771 -14.0678
-0.806939 -22.7134
-0.4306 -22.7331
-1.50119 -14.3422
-1.65091 -14.662
1.46461 -21.6551
1.10686 -21.5311
1.4363 -12.1428
1.1048 -12.1193
1.15748 -23.3314
0.779343 -23.2998
-0.295038 -19.9403
0.032479 -19.7667
1.24103 -11.6845
1.50442 -11.8976
-0.979833 -4.71177
-1.18956 -4.8488
-1.05371 -16.8848
-1.24941 -17.1924
0.327154 -3.44174
0.379159 -3.64531
-1.38117 -9.30417
-1.40522 -9.00533
1.24514 -4.38125
1.2461 -4.60911
-0.803352 -6.03604
-0.913243 -5.81289
0.35992 -4.81832
0.570575 -4.72647
-0.773091 -13.2148
-1.07985 -13.0793
0.335102 -0.289629
0.266496 -0.259526
-1.37601 -4.36578
-1.36274 -4.14421
-0.397697 -8.40652
-0.255154 -8.66272
-1.37269 -14.4949
-1.59262 -14.2318
-0.615993 -15.9666
-0.326633 -16.1737
0.368006 -3.19803
0.17793 -3.233
1.10732 -15.5645
1.42773 -15.7277
0.669882 -1.55537
0.809482 -1.54922
-0.0104549 -2.31358
-0.175303 -2.28135
-1.25082 -6.83175
-1.51858 -6.81031
-0.0317235 -2.34057
0.137849 -2.34355
0.429314 -21.5379
0.689956 -21.8125
0.659778 -12.0369
0.561637 -11.7177
0.673492 -3.18851
0.752201 -3.02185
-1.29633 -15.593
-0.992748 -15.4065
-0.463493 -1.69184
-0.444637 -1.54488
-2.33792 -25.4118
-2.71377 -25.4765
-0.169243 -0.166164
-0.151135 -0.123631
-0.616602 -1.6527
-0.471383 -1.6574
-0.547748 -0.865993
-0.435294 -0.831317
-0.43625 -3.76522
-0.357541 -3.9611
-0.109613 -23.9121
-0.203711 -24.282
1.40159 -22.8708
1.47505 -23.2447
1.14581 -6.80493
1.05577 -7.05401
-0.906717 -13.8914
-1.12619 -13.6314
-0.911765 -25.3759
-0.972317 -25.7513
1.41392 -7.51917
1.14752 -7.58202
0.201367 -6.0873
0.000115795 -6.24788
-0.116007 -16.5251
-0.27887 -16.2042
0.792161 -21.2844
0.713149 -21.6538
0.0441698 -0.015595
0.0515429 -0.0195152
-0.537856 -4.29958
-0.316449 -4.30661
-0.511196 -0.925022
-0.40316 -0.934833
-0.277101 -1.40388
-0.421609 -1.44215
0.337222 -1.22344
0.35662 -1.10238
0.0407438 -3.08826
0.205807 -3.19534
-2.19932 -16.0685
-2.19155 -16.4274
-1.95795 -16.4632
-2.31389 -16.5401
-0.694365 -4.93156
-0.637714 -4.69772
-2.09203 -17.9229
-2.43349 -18.0757
-0.938318 -6.32153
-0.701801 -6.42092
0.212845 -0.464223
0.159848 -0.513177
0.0824008 -3.47765
0.146292 -3.2866
0.827071 -2.8273
0.705751 -2.6695
-0.196992 -9.42012
-0.447886 -9.59233
-1.00129 -17.3829
-1.36415 -17.4277
-0.608419 -2.14352
-0.56769 -2.29868
0.637901 -11.0204
0.901168 -10.8433
0.828476 -6.25149
0.796458 -5.99068
-2.9484 -25.4635
-3.02799 -25.0892
-0.200748 -0.797153
-0.17203 -0.897469
-0.0432175 -21.4219
-0.253348 -21.7354
-0.336952 -1.85807
-0.405125 -2.00747
-0.897317 -21.0042
-0.601235 -20.7731
-2.60661 -18.642
-2.57649 -18.2697
1.01875 -15.0325
0.749641 -15.2527
1.52013 -16.2567
1.32301 -16.5519
0.48428 -13.401
0.359608 -13.7182
0.358063 -1.39387
0.310664 -1.25444
1.07563 -3.87765
1.06738 -4.09175
-0.389336 -16.4539
-0.249712 -16.1222
0.114828 -7.10767
0.148921 -7.38401
-0.0600989 -17.5717
0.262163 -17.4054
-2.15042 -12.2595
-1.84415 -12.1101
0.883766 -16.4231
0.531359 -16.484
-2.63978 -23.4485
-2.77737 -23.8047
0.0269409 -0.846114
0.0589113 -0.746701
-0.0652653 -15.9602
-0.149591 -15.6126
0.0264657 -0.933243
-0.0265346 -1.03432
-1.87736 -15.7896
-2.20653 -15.6632
-2.32622 -18.6253
-2.60393 -18.8804
0.0059384 -9.92235
-0.285268 -10.0146
-0.513584 -21.4009
-0.463031 -21.0263
-1.82491 -22.4135
-1.52673 -22.6443
-1.66597 -8.17631
-1.84604 -7.96838
-0.0428987 -2.49526
0.00634103 -2.66891
-1.1331 -3.4668
-1.04301 -3.63565
-1.30554 -6.77197
-1.57659 -6.7836
0.189193 -8.72624
-0.0545758 -8.89117
-0.162594 -23.8689
-0.503964 -24.0337
1.06767 -12.3504
0.836185 -12.5829
0.935933 -25.6555
0.822691 -25.2898
0.347856 -0.401871
0.428286 -0.459169
0.175621 -0.0997649
0.138466 -0.0871488
-0.648259 -3.98517
-0.838371 -4.1102
-1.7767 -12.0821
-1.87534 -12.4048
-0.0367351 -19.8921
-0.306184 -20.149
-0.00724234 -0.0169327
0.0092084 -0.021206
0.195438 -0.226381
0.158502 -0.251146
0.550556 -4.8236
0.727608 -4.68336
0.659957 -6.33546
0.402992 -6.36402
0.537822 -1.26966
0.667319 -1.27259
-1.60362 -11.4786
-1.29272 -11.5696
-0.252946 -21.7118
-0.504558 -21.4311
-0.597927 -3.84032
-0.448901 -3.68049
-0.133601 -17.3937
-0.489225 -17.3837
-0.41148 -2.96092
-0.43789 -2.77665
-1.43063 -25.1841
-1.77313 -25.3478
0.995149 -15.0897
1.25608 -14.8626
-1.23391 -9.59659
-1.23024 -9.29142
-2.99813 -25.3093
-3.01877 -25.6934
-1.34923 -20.3417
-1.05844 -20.5744
0.258845 -2.03443
0.209134 -2.18804
-1.68804 -10.3242
-1.46355 -10.0887
-1.03613 -4.71736
-0.917029 -4.90973
-1.93139 -16.2969
-1.62845 -16.4844
0.959626 -24.6323
1.18263 -24.3229
-1.87031 -16.7785
-1.5328 -16.6399
1.07132 -11.6346
0.746302 -11.5861
0.0742889 -2.99481
-0.113745 -3.01878
-0.754603 -7.86123
-0.472957 -7.82207
0.975557 -5.00595
1.09901 -5.23168
-0.924381 -10.3835
-1.02246 -10.6911
0.278239 -0.665907
0.351167 -0.628806
0.238018 -0.238659
0.222576 -0.280805
0.65671 -10.3476
0.679546 -10.6671
1.68205 -15.4265
1.33269 -15.4697
-1.14228 -22.1388
-0.767127 -22.1657
1.07416 -5.56029
0.861653 -5.67577
-1.04181 -21.1001
-0.669814 -21.0589
-2.2226 -21.3121
-2.5825 -21.2055
0.406001 -12.2715
0.400959 -11.9387
0.343815 -4.82583
0.530677 -4.98519
-1.13751 -15.2856
-0.879509 -15.042
-0.617118 -20.7557
-0.793358 -20.4244
-0.595718 -6.35991
-0.509725 -6.10982
-0.142856 -0.697328
-0.235596 -0.744529
-0.272514 -6.58418
-0.416651 -6.36441
1.47159 -16.7694
1.64129 -17.0974
-1.22595 -21.8109
-0.852487 -21.8505
-1.19511 -19.0263
-1.25448 -18.6599
-0.898106 -6.28418
-0.999936 -6.53466
-0.0227428 -12.0688
-0.336991 -11.9746
0.739145 -10.5061
0.439469 -10.6018
-0.0615754 -15.3012
-0.368878 -15.473
-1.26236 -18.9487
-0.899028 -18.9031
0.147072 -14.3029
-0.069423 -14.0309
0.687124 -19.0143
1.05648 -18.9793
-0.251756 -0.527351
-0.192998 -0.576113
0.581921 -7.60106
0.338561 -7.4552
0.0433085 -0.774428
0.118713 -0.85005
0.823912 -8.77921
1.1092 -8.87511
1.65515 -13.4132
1.31856 -13.3457
1.05376 -5.55347
1.10221 -5.3123
-2.66297 -18.9581
-2.29039 -18.97
0.0238511 -0.830988
0.119929 -0.801248
0.598982 -14.1439
0.875456 -14.3593
-0.295831 -0.580691
-0.226649 -0.508704
0.519024 -14.2049
0.848848 -14.3152
0.568942 -3.77788
0.77782 -3.7729
-1.94357 -12.8798
-1.60608 -12.8487
-1.76073 -19.818
-1.38972 -19.84
0.206238 -8.20533
0.359222 -7.96468
0.371782 -0.576287
0.452147 -0.653492
-2.18305 -21.3075
-2.31134 -20.9547
0.308745 -0.38571
0.272487 -0.315154
-0.0979969 -0.66786
-0.122565 -0.767064
-0.607411 -21.5128
-0.906629 -21.7422
-1.13111 -20.352
-1.48437 -20.4758
-0.304764 -23.9553
-0.0124952 -24.197
-1.19348 -4.23003
-1.25184 -4.45416
-0.896215 -7.14893
-1.16825 -7.20895
-0.495112 -0.859693
-0.553872 -0.797652
0.161538 -18.8458
0.52804 -18.8995
0.946777 -20.6017
1.31234 -20.523
1.33978 -22.2472
1.28513 -22.6227
0.539281 -1.52341
0.682332 -1.53887
-1.14425 -21.6786
-1.4292 -21.9276
0.0443411 -0.394152
0.0480975 -0.473657
0.119252 -8.77565
-0.112027 -8.95992
1.00793 -8.30696
1.26493 -8.19272
-2.22062 -18.7438
-2.56453 -18.8949
0.0798442 -2.57182
-0.00174729 -2.73337
0.179519 -0.447341
0.187681 -0.376084
-0.0276011 -6.44046
0.210205 -6.33472
-0.619844 -5.90524
-0.769621 -6.122
1.47007 -21.0444
1.12711 -20.8854
0.038171 -0.189539
-0.0121067 -0.19266
-2.4522 -21.137
-2.42824 -21.5135
-0.116412 -1.19116
-0.186988 -1.09438
-0.296024 -23.4584
-0.423471 -23.8177
-1.50981 -12.6173
-1.4328 -12.9423
1.37583 -22.2215
1.21055 -22.5619
1.10816 -6.56427
0.849733 -6.48527
-0.206203 -0.12707
-0.166868 -0.115708
0.205404 -0.181768
0.156934 -0.13726
-1.2225 -22.3389
-1.17686 -22.7161
0.83872 -11.7459
0.586843 -11.5272
-0.176464 -2.73914
-0.358407 -2.73457
-0.016795 -2.42948
-0.114067 -2.57836
-0.397644 -12.7069
-0.647458 -12.4875
0.000692595 -2.26367
-0.154526 -2.20488
0.0134118 -0.00173972
0.00259959 0.000471812
-0.726818 -1.92562
-0.573439 -1.85809
-1.52821 -7.36898
-1.51499 -7.09292
0.404424 -1.85809
0.254036 -1.83766
1.30458 -24.7181
0.979962 -24.9187
0.547979 -6.3651
0.462242 -6.11317
-0.0611025 -2.64378
-0.0418598 -2.465
-0.357155 -17.4357
-0.694318 -17.323
-2.81743 -24.3436
-2.64399 -24.0031
-2.35356 -18.7476
-2.42009 -19.116
-0.646736 -4.77972
-0.653397 -5.01972
-1.9461 -21.0929
-1.92314 -21.4697
-0.0375533 -21.9851
0.233437 -21.723
-0.122299 -0.302697
-0.073362 -0.338069
-1.53304 -17.8484
-1.17902 -17.733
-0.0946223 -0.0665996
-0.111888 -0.0642046
0.342887 -0.484391
0.276071 -0.507157
0.164087 -14.2723
-0.178739 -14.3065
1.38818 -8.35615
1.30046 -8.62926
-0.24285 -9.26703
0.0388274 -9.1661
-0.729311 -7.14759
-1.00245 -7.19063
-0.656728 -9.79975
-0.861499 -10.0358
-0.427137 -16.7142
-0.648629 -16.4313
-0.0095995 -0.0374576
-0.0107099 -0.0162872
0.259058 -4.73707
0.131594 -4.931
1.43398 -13.6888
1.67171 -13.9492
-0.201109 -4.15482
-0.397001 -4.06533
-0.211107 -3.97784
-0.172182 -4.19433
0.237397 -0.412202
0.267095 -0.49258
0.0884017 -2.17199
0.0872847 -2.00774
-1.78935 -8.34853
-1.63284 -8.09086
-1.12365 -4.95957
-0.88615 -4.98031
0.652715 -1.37681
0.727439 -1.51484
0.33065 -13.5925
0.080226 -13.823
-0.582058 -8.26304
-0.442921 -8.00656
-0.351466 -21.3512
-0.0107898 -21.1947
0.436289 -16.0146
0.178722 -15.7658
0.560089 -10.37
0.255933 -10.4443
-0.610465 -3.64792
-0.545731 -3.44673
0.0806992 -0.171867
0.0328686 -0.161432
0.159533 -17.8193
0.509838 -17.71
0.859753 -5.04462
0.951966 -5.28283
-1.52274 -20.5717
-1.22644 -20.34
-1.13473 -19.09
-1.20207 -18.7252
-0.929947 -21.5342
-0.850772 -21.9043
1.27265 -13.3742
1.46088 -13.099
-0.137911 -9.20512
-0.429749 -9.14205
-0.292795 -22.8567
0.0756286 -22.775
-2.2573 -25.6312
-2.51496 -25.3504
0.121042 -3.9361
0.0567938 -4.14475
-1.39176 -10.4665
-1.123 -10.6268
0.0950873 -3.58422
0.270513 -3.48559
-0.00337903 -0.0583052
0.0250841 -0.0611032
0.802602 -1.78823
0.694178 -1.65774
-0.172149 -0.775916
-0.220342 -0.876552
-0.788759 -23.4576
-0.422518 -23.5497
0.5748 -3.61899
0.415985 -3.47555
-0.0443283 -6.64633
-0.0397608 -6.37987
-1.37876 -6.11713
-1.33347 -5.85987
0.667092 -5.6893
0.433886 -5.7678
-0.563048 -0.797503
-0.45444 -0.757831
0.391328 -6.79288
0.594825 -6.98002
-0.475413 -21.7288
-0.673452 -21.4077
1.61851 -14.58
1.27732 -14.4963
1.17861 -10.2365
1.49267 -10.2441
-1.23018 -25.7591
-0.886557 -25.602
0.200429 -0.306902
0.262402 -0.309244
-0.987385 -22.3913
-0.624265 -22.29
0.329844 -1.63431
0.429024 -1.54417
-1.10725 -12.2475
-0.778848 -12.2098
-0.372284 -0.343265
-0.297135 -0.30302
-0.414297 -1.05792
-0.292466 -1.03026
0.210552 -0.151083
0.173191 -0.109259
0.169303 -13.5513
0.496071 -13.4638
0.316996 -1.0511
0.438816 -1.07102
-0.0943684 -0.772261
0.00362498 -0.7565
-0.551042 -6.64482
-0.662219 -6.89488
-0.337596 -1.05527
-0.451069 -1.1316
1.28658 -8.61217
0.99714 -8.5449
-0.70773 -5.90499
-0.738309 -5.65512
-0.981855 -10.0437
-0.903465 -9.74106
0.851668 -2.36076
0.681691 -2.35636
-2.58072 -24.2033
-2.42308 -24.5499
0.119761 -15.9083
0.164116 -15.5541
-0.619743 -1.2144
-0.752868 -1.2858
0.756686 -9.85894
1.05826 -9.94255
0.302446 -0.562424
0.39344 -0.607321
1.00375 -2.59551
0.872789 -2.44858
0.0684879 -0.61392
0.153261 -0.658311
-0.447422 -0.711929
-0.421432 -0.795386
-1.6541 -24.0793
-2.0297 -24.0298
-1.28558 -19.028
-1.41698 -19.3778
-0.514755 -0.928886
-0.450542 -1.00266
-1.95242 -21.926
-1.98169 -21.5488
-2.29596 -13.214
-2.12613 -12.9116
0.725967 -3.31835
0.659903 -3.50185
1.07285 -17.9597
1.31575 -18.2458
0.351574 -3.76872
0.464217 -3.59934
-0.493433 -0.931522
-0.47747 -0.824152
-0.785516 -12.2453
-1.04225 -12.044
-1.75558 -22.0334
-2.06043 -21.8135
-1.13803 -5.40421
-1.17913 -5.65644
-1.05944 -2.51028
-1.02303 -2.67357
-0.954439 -24.6543
-1.28827 -24.8344
-0.360205 -25.4284
-0.494948 -25.0724
-0.852092 -2.38531
-0.867454 -2.56018
0.0624442 -2.88742
0.175309 -3.0445
1.06283 -4.85224
1.23504 -4.71465
-0.787449 -15.4366
-1.08107 -15.6375
0.388539 -10.413
0.411827 -10.7325
-0.116499 -19.6051
0.250595 -19.5592
-1.47019 -9.38783
-1.65316 -9.64516
-2.51271 -23.4046
-2.86505 -23.5506
-0.750438 -4.1754
-0.93349 -4.07061
0.0516661 -0.61881
0.0551779 -0.528487
-0.566144 -8.80876
-0.309463 -8.95423
0.166716 -1.11528
0.0541343 -1.14394
-1.25374 -23.9625
-1.16067 -23.5924
-1.79933 -11.9383
-1.47028 -11.9616
-1.11633 -4.57106
-0.952052 -4.71804
-0.265495 -21.5386
-0.563458 -21.3093
-0.266464 -0.888149
-0.28265 -0.786743
-2.06364 -13.3724
-1.82715 -13.1165
-0.204969 -21.96
-0.198738 -22.3396
0.24796 -15.4024
0.343758 -15.7466
-0.342108 -23.9238
-0.154771 -23.592
-0.615597 -2.16246
-0.772651 -2.13689
0.252312 -9.04486
0.39413 -9.31476
1.01663 -23.6481
1.36726 -23.5023
-0.210823 -0.213025
-0.198598 -0.254275
0.424647 -3.25791
0.440008 -3.46078
-1.26337 -14.7307
-0.975691 -14.5282
0.629616 -23.1342
0.254176 -23.0878
-0.712186 -14.7772
-0.809081 -14.4416
1.00683 -23.5752
0.958805 -23.1971
-0.467495 -8.82278
-0.722429 -8.67917
0.56009 -18.4005
0.867358 -18.1966
-0.937299 -16.0428
-0.583087 -16.0658
-0.751663 -8.27465
-0.742401 -7.98501
-0.63243 -5.58918
-0.771085 -5.80883
0.430227 -4.08508
0.349255 -4.28778
1.35872 -14.0471
1.63274 -13.85
0.0728248 -4.52615
-0.123112 -4.63524
1.13239 -3.36165
0.963371 -3.22473
0.897542 -17.7538
0.825399 -17.3902
-1.71214 -10.0878
-1.56581 -9.80327
-1.9761 -15.1466
-2.32772 -15.1233
-1.20536 -4.585
-1.42437 -4.70514
-0.0596788 -14.9889
0.181523 -15.2471
0.143966 -21.8423
0.498638 -21.97
0.935173 -3.11574
1.0899 -3.02937
0.679548 -9.48726
0.778991 -9.78242
0.042242 -0.0643912
0.0153057 -0.0461498
-1.57195 -19.1049
-1.25239 -18.9138
-2.5399 -23.8778
-2.80928 -24.1487
0.428432 -3.24897
0.497871 -3.44396
-0.445224 -0.633376
-0.54399 -0.694642
0.677463 -15.11
0.35106 -14.9771
-1.43233 -15.3384
-1.63992 -15.0581
0.155805 -0.313422
0.0918773 -0.287192
0.367299 -1.27316
0.408315 -1.41409
0.202406 -7.32767
-0.0142357 -7.15439
-0.504394 -21.5741
-0.4168 -21.9426
-0.416771 -0.696727
-0.397687 -0.783963
0.616552 -11.3846
0.59312 -11.714
-0.152537 -17.4552
-0.434139 -17.2343
-1.90288 -11.8062
-2.02616 -11.5078
0.690812 -5.37824
0.9232 -5.48548
0.084367 -12.8457
-0.197261 -12.6631
-0.172387 -0.105908
-0.129411 -0.0713993
-1.77739 -12.5655
-1.58021 -12.2867
0.607604 -1.85306
0.600103 -2.0072
-1.32848 -22.1928
-1.01766 -22.4056
-1.70864 -10.0042
-1.54266 -9.73094
-1.472 -13.102
-1.36247 -12.7783
1.19357 -14.1692
1.53652 -14.2276
-1.38712 -16.8844
-1.02674 -16.8608
-1.71179 -9.02989
-1.93645 -9.25045
1.56682 -16.2872
1.21772 -16.1941
0.0658654 -0.0650952
0.0990335 -0.0758254
-0.0917189 -0.047002
-0.0552116 -0.0233294
-0.287653 -0.44782
-0.212128 -0.399617
0.0765864 -0.059204
0.0667287 -0.0369814
0.48195 -17.1157
0.685911 -16.818
0.601406 -16.9295
0.805265 -16.6334
-0.211006 -1.11929
-0.33673 -1.15492
0.695403 -1.38198
0.69694 -1.252
-2.52831 -22.7533
-2.70956 -22.4215
-0.870849 -12.1421
-1.12062 -11.9342
0.39952 -3.70823
0.303521 -3.51773
-2.56577 -22.1059
-2.87202 -22.3332
0.840627 -5.1431
0.833189 -5.39209
-2.09128 -19.9466
-1.73454 -20.0512
1.0222 -8.41602
1.11988 -8.70062
-0.229389 -0.512095
-0.146161 -0.489076
0.0660154 -0.482926
0.102403 -0.564506
-1.58248 -24.4812
-1.22611 -24.6087
-1.2987 -12.9824
-1.44616 -12.6843
-0.0150941 -0.140445
-0.0344275 -0.104882
1.50993 -10.7095
1.36753 -10.4129
0.426809 -12.0835
0.102224 -12.1252
0.379097 -12.9162
0.656635 -13.1144
0.710686 -19.3072
0.715927 -18.9332
-0.222739 -4.43743
-0.304011 -4.22875
0.132948 -0.218005
0.115431 -0.266129
-1.63312 -17.1227
-1.27578 -17.188
-0.0240946 -0.0059405
-0.0238677 -0.00698859
0.168821 -0.48506
0.247195 -0.483278
1.05172 -8.7292
1.34481 -8.78849
-0.307525 -2.8783
-0.295715 -3.06907
-1.91062 -11.5926
-2.01462 -11.2874
1.47143 -9.99699
1.61142 -10.2893
1.07702 -8.6891
1.18736 -8.42363
0.301349 -24.6307
-0.00434477 -24.8575
0.318353 -0.31114
0.353129 -0.380079
-0.315236 -0.540325
-0.232865 -0.54466
0.851795 -2.51294
0.988296 -2.65672
-0.782594 -16.6869
-0.887427 -17.0342
0.00605443 -0.0137704
0.0229711 -0.0202691
-1.6909 -25.1659
-1.90648 -24.8521
-1.16655 -3.36251
-1.00348 -3.45635
0.0909248 -0.0880081
0.0548419 -0.07129
0.715684 -17.9553
0.347606 -17.933
-1.62015 -17.1222
-1.48013 -17.4578
-0.11028 -7.03403
-0.317457 -6.8603
0.409094 -18.4526
0.521201 -18.0957
-0.54286 -1.04016
-0.605306 -1.1621
1.10978 -16.4645
1.02799 -16.8152
-1.48681 -20.6703
-1.46553 -21.0465
-1.14208 -20.1682
-1.22331 -20.5357
1.29613 -23.6753
1.22915 -24.0505
0.764973 -11.9011
0.771826 -11.57
-0.269236 -0.374628
-0.34693 -0.421175
-1.20357 -6.85744
-1.13308 -6.59285
-1.92349 -25.4699
-2.30335 -25.4631
0.192006 -0.225681
0.23664 -0.218299
1.06188 -23.0013
0.769495 -23.2424
0.119927 -0.787176
0.0401583 -0.72193
1.21333 -5.36693
0.971281 -5.39279
0.566549 -2.47674
0.467596 -2.61207
0.155437 -22.2461
0.452758 -22.014
0.0109683 -7.566
-0.259244 -7.63704
-0.60996 -1.05627
-0.509245 -1.09557
0.734678 -19.3262
0.435668 -19.545
0.722345 -22.0876
1.09251 -22.0165
-1.19311 -4.91228
-1.08089 -5.11341
-0.318642 -0.731218
-0.350934 -0.834951
0.719464 -10.6136
0.940832 -10.395
-0.218926 -0.653683
-0.259425 -0.750215
-0.225096 -3.42095
-0.0949104 -3.5767
-0.0716665 -0.0708722
-0.0976615 -0.108224
0.480765 -11.1293
0.412753 -10.805
0.345375 -7.83599
0.0729258 -7.75742
-2.19587 -13.5745
-2.0133 -13.8569
1.10032 -10.1277
1.22349 -9.8483
-0.21678 -8.15112
-0.425782 -8.35389
-0.327514 -0.523572
-0.307075 -0.597251
-2.17142 -14.2065
-2.07348 -14.5361
-0.399133 -1.48875
-0.304894 -1.58115
-0.367724 -4.03243
-0.161111 -3.96834
0.183438 -23.2877
0.544776 -23.401
-1.38822 -5.49554
-1.46798 -5.27044
0.00320051 -0.107065
-0.0282389 -0.0899295
1.10451 -19.6531
1.43393 -19.8351
0.273201 -2.17089
0.392613 -2.29935
-1.7894 -10.0635
-1.87246 -9.7706
0.0397187 -0.0546501
0.0406891 -0.0327321
-1.34858 -17.0037
-1.70877 -17.0608
0.144206 -9.05738
0.426826 -8.9707
0.709271 -19.4596
1.03489 -19.6458
-1.63675 -7.84558
-1.84059 -8.06685
0.635335 -11.8758
0.329392 -11.9862
0.0153652 -0.00439451
0.0100731 -0.00784947
-0.0943577 -13.8659
0.120435 -13.5998
1.41797 -11.0782
1.63361 -11.3379
0.925006 -12.7419
1.25153 -12.6794
1.29478 -16.8349
1.11872 -16.5136
0.650686 -22.7834
0.321792 -22.5955
-0.184754 -0.859221
-0.173562 -0.969353
-0.858548 -5.47889
-0.666908 -5.30204
-1.8247 -15.968
-2.06595 -16.2406
0.312302 -18.5756
0.657321 -18.4422
-1.20617 -22.6599
-1.49691 -22.4195
0.308626 -0.294811
0.304632 -0.348009
-1.94251 -11.6187
-2.2248 -11.8083
0.0820126 -8.06892
0.367073 -8.09124
-1.99916 -22.5041
-1.72132 -22.7596
1.01997 -17.8623
0.749954 -17.6058
0.319434 -14.1627
0.629353 -14.0185
1.15727 -10.5437
1.07862 -10.8521
-0.929659 -11.1877
-1.04743 -11.5002
-0.58217 -1.02691
-0.69374 -1.01743
0.0299271 -4.07425
-0.113811 -4.24053
-0.931522 -17.1566
-0.943659 -17.5212
0.112146 -12.7689
0.444315 -12.8099
1.19695 -9.13755
0.986812 -8.91061
1.09605 -18.128
1.13057 -17.7583
-0.355953 -2.73117
-0.179714 -2.6781
0.412812 -17.0768
0.305563 -17.4247
-0.262363 -22.3037
-0.627486 -22.2126
-0.754573 -12.907
-1.02036 -12.7072
-0.110582 -16.5833
0.210245 -16.7436
-1.43175 -7.3807
-1.29389 -7.12958
-0.230142 -0.29588
-0.190907 -0.329401
0.626901 -1.83096
0.540609 -1.69045
-0.488796 -4.48616
-0.621555 -4.68098
0.968113 -10.8945
0.763941 -10.6354
0.51307 -1.7748
0.578112 -1.92563
-0.454358 -0.776804
-0.515536 -0.723493
-2.16392 -11.0345
-2.15036 -10.7107
0.894568 -20.2115
0.627955 -19.9457
0.671075 -1.18962
0.658653 -1.06771
0.794803 -18.4217
0.466219 -18.2461
-1.0054 -4.02559
-0.78649 -3.99527
0.848496 -24.5725
1.02452 -24.9112
-1.01597 -2.72777
-1.06502 -2.91377
-2.34174 -19.893
-2.7134 -19.9473
1.29664 -14.1812
1.59463 -14.0188
0.274756 -0.235523
0.252935 -0.186671
0.0898519 -0.347845
0.145488 -0.321989
-2.82554 -25.3408
-2.74192 -24.9673
1.05497 -6.09002
1.29101 -6.22349
0.31345 -1.48212
0.397885 -1.61263
0.332353 -0.488491
0.249392 -0.456817
-0.38647 -6.34374
-0.188837 -6.51528
-2.10544 -12.2868
-1.95404 -12.5765
-2.6822 -21.9556
-2.34819 -21.7739
0.464428 -0.552895
0.5022 -0.643309
0.0985565 -3.0642
0.210298 -3.22884
-0.341535 -6.37876
-0.112829 -6.25129
0.478515 -3.14146
0.31653 -3.23879
0.167254 -2.17961
0.284736 -2.07331
-0.831226 -2.95114
-0.641894 -2.95048
-0.981807 -12.0248
-0.659967 -12.0785
1.19844 -4.41265
1.06555 -4.57934
-2.13516 -14.4928
-2.46242 -14.6331
-1.43934 -11.2098
-1.40812 -11.5359
0.869667 -16.2817
0.809409 -16.6365
-0.251857 -15.3581
-0.190252 -15.709
0.735963 -7.28122
0.611559 -7.02835
0.8921 -3.20705
1.08688 -3.20806
0.139675 -6.3136
0.130694 -6.05254
-2.49404 -19.6014
-2.13614 -19.4872
0.940197 -5.5664
1.13669 -5.74533
0.160872 -0.387777
0.116626 -0.439075
-1.46179 -8.68709
-1.19601 -8.54164
0.119787 -0.440161
0.0636304 -0.381762
-0.781893 -8.10661
-1.06452 -8.17549
-0.332454 -9.05029
-0.237267 -9.33739
1.22599 -21.165
1.49251 -21.4353
0.311671 -1.69124
0.452596 -1.67533
-0.00404573 -10.2844
-0.275038 -10.1408
-2.50604 -25.535
-2.88339 -25.4768
0.98698 -18.2287
1.2594 -18.4867
-0.936031 -9.94936
-0.830205 -10.2411
-0.977597 -12.0893
-1.29027 -11.9959
-0.299685 -0.647402
-0.221375 -0.579273
-1.29946 -19.4653
-1.04583 -19.1918
0.687913 -2.99441
0.831969 -3.14376
0.312065 -1.08745
0.412443 -1.04068
0.805081 -10.4577
0.620756 -10.194
1.18427 -3.87916
1.14362 -4.08352
1.26118 -4.39104
1.16165 -4.58052
0.529605 -2.61491
0.423512 -2.46029
0.815311 -17.6304
1.16116 -17.5174
0.00365365 0.000439603
0.0182516 -0.00476627
0.972704 -20.6792
1.34524 -20.7288
-0.126215 -2.73864
0.0521036 -2.77801
0.746185 -1.90378
0.86723 -2.03473
-0.151535 -0.249555
-0.189206 -0.311811
-0.278027 -0.346537
-0.240903 -0.280079
0.0233821 -0.171016
0.00352916 -0.126563
-0.240553 -19.8187
-0.541906 -19.602
1.01819 -4.95204
1.22226 -4.85475
0.0124403 -0.00142694
0.0320639 -0.0123027
-1.90037 -14.9523
-1.76173 -15.2722
-0.391654 -12.7825
-0.583164 -13.0617
-2.61612 -19.1796
-2.25899 -19.2811
1.26949 -16.0298
1.6144 -16.1363
1.56608 -18.4234
1.50514 -18.7911
1.41119 -10.1159
1.33799 -10.4184
0.655402 -1.33817
0.745415 -1.26863
1.43558 -22.8514
1.3671 -23.2253
-1.33149 -22.904
-1.32951 -23.2848
0.0777526 -17.0308
-0.0821773 -16.7062
-1.86201 -18.6598
-1.49205 -18.6367
-0.414339 -19.0063
-0.0582176 -18.9175
0.265394 -16.6368
0.400908 -16.3037
0.233441 -12.6617
0.502747 -12.8668
0.82064 -14.4197
0.640385 -14.7147
-1.73417 -12.832
-1.43599 -12.9784
-1.15513 -16.7941
-1.50232 -16.8996
0.322085 -0.306989
0.359393 -0.375603
0.306289 -0.82295
0.413978 -0.844395
-1.43686 -13.5249
-1.60793 -13.8283
-0.773509 -15.7027
-0.840693 -15.3537
-0.0116697 -0.887728
-0.0485948 -0.787034
0.24616 -16.2108
0.599968 -16.2594
-0.747578 -5.42765
-0.722033 -5.17466
0.532587 -1.53851
0.575023 -1.68652
-1.12503 -19.987
-0.912986 -19.6782
-1.74071 -13.0088
-1.52277 -13.2603
-1.2186 -4.99233
-1.39504 -4.85283
0.139511 -20.8906
-0.20028 -21.0471
-0.257003 -16.6367
-0.544043 -16.4233
-0.729037 -7.64466
-1.00546 -7.71261
-0.328996 -3.00846
-0.392821 -3.19654
0.345956 -19.9537
0.610718 -19.6931
1.3843 -14.972
1.15651 -14.6969
-0.846005 -22.5512
-0.481314 -22.6456
-1.41453 -21.9811
-1.35068 -22.3548
-1.02029 -7.29894
-1.23438 -7.13927
0.887908 -6.35149
0.657963 -6.21175
-1.20423 -24.5797
-0.884506 -24.7826
0.606699 -11.5794
0.805135 -11.8489
1.01224 -15.3977
0.913794 -15.0549
0.967074 -21.823
1.00649 -22.2005
-1.643 -6.44598
-1.51457 -6.20305
1.22656 -10.6564
1.38012 -10.9503
1.62567 -11.1477
1.34626 -11.2991
1.02994 -19.1776
1.06705 -19.5507
0.237763 -14.8869
0.393959 -14.5751
0.558817 -22.2755
0.662887 -22.6412
-1.87888 -14.1468
-1.55447 -14.2576
-0.253214 -13.5121
-0.585426 -13.5852
-0.222171 -2.56363
-0.386691 -2.64421
0.315665 -0.757537
0.257956 -0.664773
-1.00909 -16.7457
-0.963984 -17.1057
-0.475662 -2.53363
-0.612359 -2.43953
-0.505566 -17.1777
-0.236424 -16.9391
0.316048 -0.512921
0.336758 -0.600685
-0.548827 -9.31678
-0.313261 -9.50517
-0.289962 -13.7687
-0.212071 -13.434
0.428133 -9.10042
0.532587 -9.38822
1.18273 -10.0922
1.40246 -9.8858
0.15543 -21.4154
0.285856 -21.7709
1.16124 -13.8853
1.22273 -14.2288
-2.22046 -24.0944
-1.87338 -23.939
0.262471 -15.0638
0.604808 -15.1432
0.227826 -2.02648
0.230745 -1.86744
-0.140308 -23.8235
0.205067 -23.979
-1.09992 -7.82269
-0.816123 -7.80174
-0.794288 -8.74342
-0.708083 -9.02711
0.157273 -0.425923
0.083261 -0.429356
0.527063 -1.73874
0.617034 -1.8788
-0.291922 -21.7328
-0.0196182 -21.9942
-0.562928 -1.6118
-0.52432 -1.74581
0.292416 -3.03378
0.483062 -3.05789
-0.262385 -2.61703
-0.206526 -2.44488
0.0190431 -10.1494
0.211495 -10.3952
0.864471 -8.50875
0.937368 -8.22963
0.805107 -15.4038
1.13398 -15.2853
0.071391 -0.0506173
0.0434734 -0.0266216
0.757523 -10.7789
1.06716 -10.8771
-0.899289 -24.0051
-0.571163 -24.1936
0.437092 -8.93323
0.199892 -9.10933
-2.26269 -15.0988
-2.00267 -14.8509
-0.962786 -9.04057
-0.863526 -8.755
1.55699 -16.6803
1.36048 -16.9791
0.693105 -17.5204
0.900365 -17.8299
-2.01064 -17.0702
-2.36248 -17.182
-0.375064 -0.40328
-0.455489 -0.46602
-1.50083 -9.804
-1.7471 -9.63296
-2.18145 -13.9864
-1.88175 -13.8016
-0.180181 -2.12391
-0.241449 -1.97646
0.503216 -16.0729
0.8546 -16.1389
-0.54042 -4.02717
-0.72375 -3.9261
0.115802 -0.135124
0.0861232 -0.154301
-2.50254 -24.2493
-2.69913 -24.5769
-2.24627 -18.2138
-2.19711 -17.8436
-0.887879 -24.9423
-0.804444 -24.5696
0.57371 -10.6343
0.271363 -10.7316
-1.9859 -11.5182
-1.85022 -11.2115
-0.692578 -21.9907
-1.02618 -21.8175
-0.685366 -1.22737
-0.586082 -1.11565
-2.68755 -20.2714
-2.65185 -20.6445
-0.888116 -3.8657
-0.690154 -3.93018
-1.99433 -18.1375
-1.74603 -18.4094
-1.46726 -7.52362
-1.18682 -7.48317
-0.191315 -0.478687
-0.115102 -0.49237
-0.345516 -25.2245
0.0311716 -25.2612
-0.32434 -17.2261
-0.667982 -17.3205
-1.42686 -6.20848
-1.50814 -5.97274
0.579418 -7.1574
0.414681 -7.37286
-1.74449 -19.677
-1.88648 -19.3343
1.42248 -20.524
1.04967 -20.4788
0.2905 -0.211021
0.233489 -0.162198
1.20568 -10.1246
1.50288 -10.246
-1.06297 -5.02988
-0.970759 -4.79829
-2.01415 -11.8522
-1.70796 -11.7104
0.52411 -6.94213
0.259724 -6.88127
0.633996 -20.4385
0.923534 -20.68
-1.19945 -10.5709
-0.881357 -10.5983
-2.4974 -20.8557
-2.49209 -21.2325
-0.0111235 -1.07002
-0.0922141 -0.99171
-2.00384 -20.8177
-2.34521 -20.6664
-2.018 -23.2533
-2.397 -23.2633
0.0250096 -0.034761
0.0428177 -0.0319999
-1.38816 -17.1846
-1.20105 -17.4966
-0.0242336 -0.00896287
-0.0213786 -0.00473114
-1.97312 -17.3702
-1.76949 -17.0605
-0.189161 -14.3108
-0.251376 -14.6548
0.44328 -0.49143
0.360321 -0.474362
0.325156 -24.5908
0.702513 -24.5472
0.743362 -3.39009
0.792112 -3.20361
-0.0471112 -2.8515
-0.126535 -2.68466
1.44677 -21.6728
1.25474 -21.9972
0.58893 -6.62779
0.843504 -6.72202
0.497294 -0.844303
0.397326 -0.857014
0.316219 -0.464328
0.235933 -0.446698
-0.700776 -13.7626
-0.99316 -13.5898
0.620502 -5.64223
0.406899 -5.49612
-0.0653795 -0.036169
-0.0822815 -0.0610106
0.0633565 -0.030675
0.0418383 -0.0143936
0.849646 -2.79177
0.665145 -2.77414
-1.76625 -11.9012
-1.95664 -11.6416
0.406727 -8.29183
0.473464 -8.58009
-0.661754 -20.4073
-0.873081 -20.0991
1.08706 -12.9779
1.31398 -13.2395
-0.506718 -3.4721
-0.33392 -3.35667
0.708491 -3.45222
0.519212 -3.50626
0.159316 -0.0834247
0.124169 -0.0576995
1.28267 -16.3375
0.929735 -16.2654
-1.13323 -5.70598
-1.38557 -5.7735
-0.2075 -0.36983
-0.231425 -0.446052
-0.541918 -23.6546
-0.295082 -23.3655
-0.504952 -15.5436
-0.404414 -15.8859
0.272472 -3.15227
0.245128 -2.95839
-0.103728 -0.161168
-0.0689782 -0.183995
-2.28316 -18.1659
-2.21557 -18.531
-0.145827 -16.3991
0.173926 -16.5599
0.59949 -5.18787
0.787511 -5.04812
-1.18223 -6.45682
-1.43203 -6.39068
-0.260717 -17.5238
-0.585349 -17.3785
-2.26123 -21.7662
-2.3783 -22.1279
-1.93977 -21.1629
-2.08612 -21.5127
-1.31132 -18.7437
-1.65239 -18.6051
0.419923 -13.2605
0.213839 -12.9877
1.25768 -11.7567
1.16292 -12.0707
0.759342 -3.59964
0.751124 -3.3941
-0.240229 -9.33175
-0.242266 -9.63856
-2.33833 -16.1661
-1.98205 -16.1049
0.882009 -9.92338
0.743579 -10.198
0.259015 -0.207182
0.204783 -0.15931
0.401766 -7.89809
0.436429 -8.18597
-2.7643 -24.8717
-2.57341 -24.5406
-1.38389 -4.9354
-1.458 -4.72287
-0.245366 -0.362236
-0.182661 -0.308162
0.355359 -5.0983
0.178879 -4.92847
-1.27996 -6.2872
-1.27524 -6.54981
-0.717792 -21.6751
-0.933897 -21.986
-0.509239 -14.3651
-0.435865 -14.707
1.13926 -10.9798
1.37173 -11.2204
-1.7965 -17.2425
-1.55027 -17.5087
0.68764 -2.7647
0.851516 -2.7095
1.2484 -15.4388
1.48987 -15.7078
-1.95108 -11.6469
-1.83059 -11.3342
-0.0744904 -0.109861
-0.0499744 -0.0728362
-0.463599 -0.48225
-0.486591 -0.561693
-0.320342 -4.12799
-0.367844 -3.91622
1.34848 -22.9813
1.41165 -22.6068
0.0449014 -23.3512
0.231045 -23.683
0.0795134 -3.59196
0.280454 -3.56109
0.0490129 -0.0194494
0.0217123 -0.00572906
1.51348 -9.0367
1.31675 -9.24931
-0.563575 -1.64874
-0.65218 -1.78635
-0.36914 -2.1783
-0.246318 -2.28295
-0.490459 -0.799186
-0.601542 -0.832314
-0.446373 -1.16963
-0.573501 -1.17499
0.09531 -0.0438375
0.0575471 -0.0223279
-1.17536 -7.69183
-0.927772 -7.81568
-0.749625 -6.08118
-0.954465 -5.94066
-0.585038 -3.0592
-0.410285 -2.96555
-1.06991 -8.69999
-1.0062 -8.98833
-0.259383 -9.25715
0.0306238 -9.33469
-1.07304 -2.65226
-1.1208 -2.83601
-0.0826491 -0.397332
-0.100458 -0.330686
1.01842 -9.02603
1.12359 -9.31575
0.611991 -4.46287
0.670961 -4.69116
-0.0415548 -0.089841
-0.0628009 -0.130454
0.7275 -7.67665
0.66648 -7.39842
-0.944152 -19.9757
-0.622303 -19.7889
-0.89733 -13.3879
-0.714072 -13.0984
-0.30373 -9.29204
-0.259148 -8.99245
0.00993307 -0.00421875
0.000766173 -0.00355808
-0.377422 -21.858
-0.00217999 -21.8408
-0.925614 -7.40151
-0.655856 -7.45765
-1.43324 -5.3287
-1.46283 -5.57984
1.11964 -8.62379
1.2458 -8.36777
0.665514 -5.70161
0.802083 -5.49836
0.0472189 -0.0750674
0.0538379 -0.113344
0.602152 -7.42988
0.853396 -7.32759
0.65396 -2.44926
0.829447 -2.48243
0.755017 -2.31003
0.804884 -2.16211
0.137471 -17.5387
0.209611 -17.9029
-0.553879 -0.713051
-0.452436 -0.656062
0.814478 -3.67492
1.01121 -3.77705
1.01 -7.10587
0.96066 -6.83337
-0.375912 -12.2901
-0.339011 -12.6227
0.713391 -16.0958
0.379552 -15.9672
-1.15562 -4.93794
-1.34767 -5.11186
0.463927 -1.61739
0.319916 -1.58601
-1.23804 -7.857
-1.46224 -7.69897
-0.0014124 -0.0130124
0.00350387 -0.00261257
0.19797 -0.446862
0.147658 -0.377706
0.355547 -7.59902
0.522506 -7.38045
-0.801325 -3.44214
-1.00386 -3.4391
-0.210662 -9.16798
-0.375093 -9.42355
-0.462122 -7.67913
-0.214108 -7.81061
-0.311509 -1.83782
-0.387467 -1.98252
0.779631 -3.02029
0.591553 -3.02993
0.394187 -15.8319
0.733339 -15.9425
-0.320617 -7.13324
-0.517196 -6.94804
0.16295 -0.497346
0.082211 -0.494869
-2.90605 -23.2486
-2.66846 -22.9495
0.795601 -15.7287
1.00071 -16.0258
-0.31224 -0.640661
-0.219968 -0.6376
0.648559 -1.12803
0.73587 -1.24971
0.576272 -18.3258
0.650086 -17.9597
-2.0132 -20.644
-1.66624 -20.4982
-1.68239 -9.39732
-1.7265 -9.10206
-0.324157 -6.17761
-0.519998 -6.35369
0.585709 -25.545
0.213772 -25.6245
0.749887 -7.36061
0.964556 -7.55244
-1.20783 -4.97365
-1.11111 -4.74415
0.848421 -13.7515
0.998193 -14.0674
-0.643234 -4.52763
-0.415567 -4.53706
-1.83087 -11.3084
-1.5117 -11.3636
0.948647 -21.3655
0.691497 -21.6396
0.203782 -0.132096
0.157915 -0.0929044
-0.617888 -0.966892
-0.653772 -1.0852
-0.602166 -20.9918
-0.831736 -20.6951
1.39899 -13.7439
1.25828 -14.0535
-0.570686 -22.467
-0.522406 -22.8442
0.616888 -15.042
0.271628 -14.9812
-2.30385 -23.2494
-2.1552 -22.8982
-1.72691 -15.3752
-1.68402 -15.0232
-0.392076 -25.0029
-0.0166601 -25.0498
-1.29237 -10.3607
-1.46198 -10.1038
0.20269 -10.2552
-0.100716 -10.3086
0.316605 -8.3655
0.0439349 -8.26492
-1.52193 -8.51822
-1.67766 -8.28372
-0.243329 -3.34594
-0.0988968 -3.48461
-1.13178 -16.4429
-1.1826 -16.0872
0.745413 -7.24913
0.719503 -6.9732
0.0496236 -7.6292
-0.105695 -7.86565
-0.094581 -0.0447496
-0.0629504 -0.0269605
1.37058 -22.1686
1.29142 -22.5393
-0.260169 -15.6105
0.0520769 -15.7781
0.761419 -5.17031
1.00317 -5.16783
-1.03124 -8.31883
-0.800378 -8.13372
-1.49867 -5.73678
-1.59444 -5.98453
-0.886094 -10.3747
-1.20318 -10.3802
-1.8004 -12.8324
-1.96008 -12.5445
-1.3964 -5.38783
-1.15938 -5.28197
0.343183 -2.24103
0.216244 -2.12492
-0.391964 -4.13001
-0.610606 -4.13147
-1.11942 -5.29967
-1.2972 -5.14918
0.00635781 -3.12849
-0.144946 -3.01007
-1.90214 -8.75013
-1.62027 -8.8259
-0.909375 -8.71152
-1.10562 -8.50055
0.838459 -3.50812
1.04393 -3.54074
-1.40819 -6.48227
-1.14508 -6.50059
-0.127822 -3.51082
-0.0986094 -3.30859
1.2394 -5.60309
1.37965 -5.83241
1.50173 -18.7083
1.29003 -19.0124
-2.31631 -21.1314
-1.94124 -21.1004
-0.474912 -2.47133
-0.306814 -2.50729
0.63971 -13.3959
0.767073 -13.718
0.00536647 -0.00292011
0.0163076 -0.00641499
0.00578257 -0.162737
0.0511408 -0.157962
-2.62717 -23.1289
-2.38743 -22.8319
-0.774447 -1.74696
-0.702923 -1.86283
0.246868 -22.4936
0.196537 -22.117
1.07711 -10.7617
1.33301 -10.9726
-1.82677 -18.2772
-1.47116 -18.3749
0.460054 -13.6444
0.616414 -13.9548
-0.851564 -25.1382
-0.55181 -25.3692
0.575617 -10.4406
0.722071 -10.1661
-0.835761 -4.03962
-0.808308 -3.82371
0.97501 -9.87152
0.719574 -9.68752
0.584627 -2.50553
0.644471 -2.35154
0.0557192 -2.28837
-0.0559397 -2.16267
-0.116608 -4.00998
0.0364484 -4.16552
1.1268 -16.1156
0.847668 -15.8858
-2.16753 -18.4558
-2.53924 -18.4614
-1.68597 -11.855
-1.85064 -11.5776
0.764142 -13.9453
0.48779 -13.735
-1.10363 -13.5944
-1.26067 -13.2949
-1.66932 -15.3439
-1.56462 -15.0036
-0.168457 -0.179326
-0.214714 -0.183276
-0.882351 -3.05916
-0.688733 -3.04616
-1.11633 -13.3414
-1.415 -13.1886
-1.00327 -12.4838
-1.07284 -12.1596
0.338779 -0.719396
0.429976 -0.708204
-0.724214 -7.53885
-0.816704 -7.81013
0.393189 -0.92491
0.31717 -0.992811
0.587188 -24.4693
0.384048 -24.7925
-0.111571 -0.0919314
-0.137693 -0.132493
0.260958 -12.4542
0.244127 -12.1204
-1.97826 -9.26484
-1.69117 -9.14077
-0.356985 -19.9784
-0.0667781 -19.7467
-1.24572 -10.2227
-1.03288 -10.4483
0.68713 -18.1048
0.542524 -17.7594
0.0522088 -20.5502
0.235848 -20.8794
0.692247 -7.47703
0.669047 -7.19778
-0.411756 -6.24449
-0.156292 -6.19985
-2.18614 -16.4921
-2.09029 -16.1421
1.07417 -11.0597
1.213 -10.7734
0.145534 -12.2955
0.322731 -12.5814
0.0265794 -22.5952
0.30707 -22.85
-0.253506 -0.958853
-0.282734 -1.07597
-1.3714 -5.37533
-1.17544 -5.5095
-0.0293957 -0.0109407
-0.0493638 -0.0208299
-1.72404 -15.3245
-1.96616 -15.0752
0.335493 -0.781001
0.232961 -0.761385
-0.238012 -2.09076
-0.348778 -1.98285
-0.0328753 -3.38448
-0.186279 -3.2586
-1.2508 -12.5396
-1.31219 -12.2136
0.943969 -11.0163
0.748118 -11.2705
-0.181268 -0.130493
-0.211341 -0.174772
1.36577 -9.17239
1.59453 -9.38953
0.281156 -23.6891
0.0138814 -23.4194
-1.46646 -19.7816
-1.69278 -20.0821
-1.25142 -6.33612
-1.20396 -6.59161
-1.33425 -13.4477
-0.995551 -13.4087
-1.21553 -4.44018
-1.28246 -4.66874
-1.27646 -14.3143
-1.19607 -13.9749
-1.63541 -19.8098
-1.87719 -20.0986
0.04231 -1.02192
0.00513523 -1.13408
0.755113 -14.5255
0.619723 -14.2011
1.25589 -14.4569
1.57674 -14.6055
0.759327 -21.0445
1.12101 -21.1499
-0.370468 -6.6175
-0.528478 -6.40847
-1.39267 -5.86341
-1.2308 -6.04666
1.25644 -21.2992
0.890522 -21.3839
1.50561 -13.3806
1.19873 -13.5158
0.246905 -0.295775
0.272606 -0.363868
0.111513 -3.78786
0.0313163 -3.98658
0.218454 -1.184
0.32476 -1.13018
0.0876112 -0.0390433
0.0514656 -0.0193157
-0.37602 -4.522
-0.597052 -4.4784
1.23232 -4.13849
1.1063 -4.30064
-0.166528 -16.8449
-0.478362 -16.67
-0.118375 -25.091
-0.479355 -24.9782
-2.52821 -20.6385
-2.5918 -21.0105
0.712125 -4.0142
0.643581 -3.80334
0.0189892 -2.45688
0.103754 -2.61559
-0.707557 -14.5956
-0.569602 -14.274
-1.89457 -19.9127
-1.60608 -19.6715
-0.838909 -3.19839
-0.987403 -3.09414
-1.86534 -12.8669
-1.73221 -12.552
-0.922754 -3.20195
-1.11446 -3.29275
0.550997 -10.7981
0.575567 -10.4781
0.218277 -7.77526
0.116117 -7.5094
-2.59956 -16.7357
-2.24822 -16.6286
0.858033 -12.5221
0.6153 -12.2856
-0.385028 -6.64563
-0.189375 -6.82667
-1.47799 -24.177
-1.41305 -23.8008
-0.79659 -9.54283
-1.09091 -9.63489
-0.0724897 -0.742106
-0.0723388 -0.847873
0.486361 -1.62176
0.358913 -1.67261
1.33075 -17.3273
1.47397 -17.6709
0.243274 -25.616
-0.125402 -25.7062
-1.21547 -5.90115
-1.32096 -6.14654
0.516872 -1.53538
0.643202 -1.49682
0.705083 -7.51301
0.427857 -7.48124
-1.7698 -17.5031
-1.74052 -17.8721
0.341993 -8.00872
0.576764 -8.18217
0.319204 -23.0222
0.367449 -23.4001
-1.24412 -21.4735
-0.94654 -21.2418
0.227564 -0.296513
0.169243 -0.247169
0.649582 -2.74565
0.740887 -2.92135
-0.922645 -3.38844
-0.816941 -3.54811
0.847752 -13.175
0.617707 -13.419
-0.927088 -23.4679
-0.824227 -23.1008
-0.00466265 -7.71676
0.00118134 -8.00324
-0.697797 -5.76247
-0.885098 -5.94678
-0.853601 -25.712
-1.03511 -25.3791
-0.374595 -2.67626
-0.272521 -2.52134
-1.00221 -7.19845
-1.25455 -7.32979
0.835648 -15.8287
0.631514 -15.533
0.105233 -0.105678
0.0783787 -0.068838
0.631299 -11.4822
0.904185 -11.3111
-0.376634 -0.807609
-0.277629 -0.750367
-0.150235 -24.7034
-0.505157 -24.5725
-1.18188 -4.20147
-1.10973 -4.40238
-1.13581 -8.12417
-1.38134 -8.29415
-0.710928 -12.9351
-0.458055 -13.1563
0.187095 -0.117658
0.153445 -0.11394
-1.21926 -6.81622
-1.489 -6.87536
-0.177653 -8.08342
-0.0302423 -8.3336
-1.13057 -9.78087
-0.851604 -9.64224
-0.573138 -8.26758
-0.746501 -8.04154
-0.951621 -19.02
-1.31783 -18.9979
-0.0458985 -23.8766
-0.133168 -23.5056
0.172603 -0.150795
0.145812 -0.108498
-0.825272 -3.67321
-0.931237 -3.50958
-0.074814 -0.133806
-0.0522084 -0.0924571
-2.29232 -22.221
-1.93022 -22.1096
-1.90728 -9.46236
-1.60742 -9.50863
0.545984 -5.14486
0.299204 -5.11686
-0.0277425 -0.12063
-0.0341996 -0.0830688
0.659888 -12.5004
0.3294 -12.4609
0.953751 -10.3998
1.26912 -10.3995
-0.411172 -3.55974
-0.615673 -3.55377
-0.908688 -3.36284
-0.99202 -3.55958
0.838216 -10.6025
1.07547 -10.4026
0.694562 -15.8021
0.966017 -16.0393
-1.40372 -14.6543
-1.40171 -15.0056
-0.726596 -14.1665
-0.758296 -14.5141
-1.54586 -12.3544
-1.62668 -12.6827
-1.8716 -11.2267
-2.18548 -11.3436
1.15525 -5.63324
0.913435 -5.54119
1.27945 -16.1467
0.939822 -16.0267
-1.12608 -17.7276
-1.03612 -17.3691
-0.111708 -8.02906
-0.213456 -7.76145
1.45403 -6.57706
1.216 -6.67277
-0.517217 -14.0761
-0.469139 -13.7333
0.874332 -13.0054
1.08708 -12.7512
-1.4254 -15.5258
-1.09668 -15.3897
0.198318 -2.76449
0.23804 -2.95092
1.1789 -20.8549
0.803796 -20.8599
-1.24998 -16.0483
-1.44482 -16.3529
-0.360888 -0.594131
-0.290975 -0.517679
0.436029 -1.39629
0.57246 -1.40346
1.35417 -9.43954
1.05118 -9.44552
-0.595694 -8.32169
-0.882832 -8.37331
-2.70121 -22.064
-2.3541 -21.909
-0.290775 -0.623461
-0.270768 -0.533794
-1.1673 -10.4327
-0.853391 -10.3751
-1.20376 -13.2444
-1.3853 -12.9635
0.4692 -1.53969
0.471058 -1.39723
0.768314 -10.569
0.780718 -10.8931
0.629457 -4.18627
0.838831 -4.13865
-2.96436 -23.1333
-2.73997 -22.824
0.216333 -3.55395
0.396337 -3.46856
0.45205 -2.28756
0.311731 -2.36934
-0.593473 -21.8672
-0.218289 -21.8498
-0.610164 -1.18779
-0.575048 -1.30078
-0.940293 -7.63664
-0.888798 -7.91378
-1.0671 -24.3415
-1.15509 -24.7132
0.901781 -3.32316
0.711421 -3.35815
-0.476608 -1.01496
-0.5874 -1.10145
0.907513 -8.22199
0.864416 -8.50901
-0.780199 -14.0505
-0.465922 -13.909
0.0944409 -19.0998
0.463774 -19.1249
1.43756 -8.52571
1.28249 -8.76452
-0.377341 -1.27424
-0.463582 -1.19396
-0.375288 -0.60477
-0.284167 -0.593816
0.407645 -4.45519
0.303317 -4.65596
-0.162187 -14.2396
0.0259343 -14.5335
-0.187859 -0.11107
-0.143496 -0.0901982
-2.58849 -18.3469
-2.27011 -18.5319
-1.38781 -7.50478
-1.51279 -7.76762
0.76128 -3.75322
0.70869 -3.54514
0.0577666 -0.698166
0.0066513 -0.783843
-2.21305 -21.804
-2.40182 -21.4788
0.688468 -5.60261
0.781783 -5.37449
-1.0589 -2.6285
-1.12474 -2.80997
-0.248061 -3.99965
-0.134262 -4.18561
-0.297783 -14.8039
-0.542756 -14.5557
0.283082 -1.03557
0.167074 -1.04302
0.722296 -3.13814
0.820752 -3.32306
-1.7857 -24.8855
-1.53068 -25.1673
-1.5622 -13.1099
-1.34008 -13.3597
0.589937 -1.29741
0.50873 -1.17361
0.454196 -23.9786
0.0803199 -24.0407
0.773332 -24.8169
0.395947 -24.772
-1.27886 -9.78719
-1.39934 -10.0801
0.401549 -1.54827
0.340535 -1.67122
0.322933 -6.19267
0.451553 -5.97376
-1.08384 -5.7956
-1.28609 -5.97279
0.51399 -22.8756
0.783686 -23.1434
1.06851 -17.2322
1.15209 -16.879
-0.526766 -1.07141
-0.408445 -1.07903
-0.222848 -4.81425
-0.418806 -4.69651
-0.16506 -4.85733
-0.186078 -4.62653
-1.1409 -4.50818
-1.31562 -4.68625
0.663285 -14.617
1.00041 -14.7123
0.757566 -23.5395
0.411121 -23.6937
0.507546 -8.88494
0.540979 -9.18544
-0.153859 -0.493609
-0.159433 -0.416161
-1.8888 -24.5642
-2.21081 -24.3631
0.426957 -0.801505
0.448649 -0.714906
-0.201308 -19.226
0.0203886 -19.5251
-0.673216 -1.28782
-0.631819 -1.40243
0.327879 -2.22141
0.485158 -2.18837
-0.207144 -9.40378
-0.190607 -9.1001
0.0455123 -0.0219404
0.0560401 -0.0230383
1.46137 -12.6927
1.6799 -12.9614
0.47534 -21.8577
0.372125 -22.2222
-1.37054 -5.61328
-1.51389 -5.83982
0.575015 -4.96679
0.721028 -5.17529
-0.0788518 -4.3667
-0.0545247 -4.59444
0.943131 -3.82844
0.76742 -3.9279
0.236314 -0.450688
0.305823 -0.517446
-0.548192 -4.12345
-0.419854 -4.29844
-0.357256 -23.5333
-0.0102447 -23.6839
-1.256 -7.44255
-1.23531 -7.7213
0.845005 -6.09493
1.10135 -6.08594
0.944194 -7.2686
1.21955 -7.30853
0.8905 -3.93025
0.682357 -3.85649
0.872076 -13.026
0.561495 -12.8873
0.29204 -0.886221
0.286842 -0.779855
1.08577 -14.3459
0.741805 -14.3001
-1.07704 -17.4588
-1.35005 -17.2192
-0.895506 -3.90823
-0.831302 -3.69915
-0.758023 -8.61564
-1.03581 -8.72518
0.442076 -10.7765
0.508205 -11.1005
-0.252389 -0.55564
-0.301273 -0.643805
0.323675 -8.30605
0.560721 -8.48242
-1.62542 -16.6731
-1.53465 -16.3219
0.937534 -15.986
0.660575 -16.2067
0.441126 -4.53025
0.669763 -4.55454
-1.34808 -11.193
-1.6679 -11.1488
0.548724 -6.44095
0.739032 -6.63713
0.674563 -1.35618
0.538846 -1.34012
-1.12471 -24.7314
-0.815044 -24.9494
0.137143 -9.07265
0.40858 -8.95594
0.224282 -0.665606
0.158712 -0.588302
-2.53599 -17.091
-2.55064 -17.4578
-2.62656 -19.1238
-2.40333 -18.82
-0.899856 -3.35542
-0.718506 -3.2464
0.376328 -2.06836
0.532487 -2.05345
0.720669 -23.8107
0.925131 -24.1324
-2.14613 -18.5713
-2.028 -18.2149
-0.787713 -22.5844
-0.554457 -22.8826
-2.2955 -16.7797
-2.64317 -16.9034
0.108208 -1.10373
0.020361 -1.17716
-0.32046 -21.1552
-0.0798553 -21.4453
-1.47787 -23.8771
-1.85619 -23.8938
-1.91234 -16.6734
-2.27528 -16.6845
-1.42153 -10.9769
-1.11072 -10.8708
-0.336045 -7.35533
-0.495202 -7.13237
-1.4854 -9.01083
-1.24274 -8.8213
1.50162 -10.7758
1.19597 -10.8554
0.19378 -12.9032
-0.00315766 -13.1762
-2.3999 -18.3877
-2.67792 -18.643
-0.0502648 -0.023048
-0.0282659 -0.0113105
-1.86729 -25.101
-2.21313 -25.2596
-1.13862 -19.4458
-1.43543 -19.2277
-2.47494 -21.0015
-2.60082 -21.359
-0.30203 -22.8086
-0.476026 -22.4714
0.467377 -14.1044
0.752799 -13.9183
-0.417423 -1.31911
-0.32273 -1.40659
-2.29724 -22.9797
-1.93473 -22.8672
-2.0042 -11.7422
-1.71354 -11.5702
0.348705 -0.344103
0.392535 -0.416883
-0.796025 -1.82765
-0.850444 -1.70437
-1.73874 -20.135
-2.06085 -19.9507
1.14183 -7.95361
0.941673 -8.1458
0.0142208 -12.4938
-0.304562 -12.4031
0.379751 -5.01374
0.603725 -5.12586
-0.225539 -0.17366
-0.19505 -0.185912
-2.6242 -21.2983
-2.72088 -21.665
0.0777411 -20.7114
0.44615 -20.6513
0.333804 -3.77004
0.46335 -3.94783
0.137097 -0.0791154
0.118592 -0.0576314
-1.23404 -16.5481
-1.02296 -16.2546
-0.292749 -19.4673
-0.658273 -19.5131
-1.12869 -16.4617
-0.777116 -16.5247
0.222809 -8.72728
0.274936 -8.43722
-0.970417 -7.80523
-1.13814 -8.04623
-0.84185 -9.64036
-0.8479 -9.33445
0.79117 -10.1452
0.788863 -9.83281
1.57555 -12.5626
1.34215 -12.3107
-0.615642 -14.4726
-0.282435 -14.5671
0.655922 -5.76499
0.492642 -5.56171
-1.72253 -15.9792
-2.00309 -16.2104
-1.04495 -10.1829
-1.15241 -10.4845
-0.142007 -0.0939536
-0.0987828 -0.0656009
-0.673333 -3.00793
-0.820025 -2.90685
-0.628587 -6.74001
-0.89514 -6.72783
-0.233873 -3.7933
-0.398153 -3.66889
-0.945781 -5.19207
-1.17182 -5.12061
-0.139399 -0.0838714
-0.154415 -0.0823599
0.267747 -16.852
0.628021 -16.8492
-1.7606 -14.4795
-1.76892 -14.1322
0.399498 -4.93251
0.586947 -5.09966
0.476884 -25.3024
0.855981 -25.3361
0.98032 -17.0779
0.621275 -17.125
-1.49158 -6.49515
-1.22634 -6.50049
0.957149 -12.3096
1.07792 -12.6273
0.806401 -20.0281
1.04138 -19.7398
-1.33069 -20.7038
-1.47739 -21.052
-0.0164642 -15.2434
-0.210452 -15.539
0.0689921 -0.0344255
0.0907179 -0.0423843
-0.246504 -4.74107
-0.0232318 -4.74239
-0.289255 -0.281385
-0.227045 -0.269296
-0.842278 -4.14816
-0.867584 -4.37182
0.0145202 -12.0771
-0.312073 -12.0466
0.00577844 -0.000747629
0.0181184 -0.0033516
0.559512 -3.63496
0.749395 -3.74107
-0.125086 -0.0671502
-0.104928 -0.0504674
-2.10276 -13.282
-2.2519 -13.5968
-0.193592 -0.593124
-0.134232 -0.51834
-0.530755 -7.99148
-0.569159 -8.27958
-1.00446 -10.471
-1.13622 -10.7697
1.3583 -17.6086
1.57815 -17.3209
-0.053332 -0.173741
-0.0150413 -0.140437
0.325779 -4.67653
0.118326 -4.77203
0.837302 -24.9379
0.834195 -24.5558
-0.185619 -13.948
0.0998762 -14.1422
-0.692149 -4.58721
-0.577178 -4.38269
0.567007 -0.771343
0.616267 -0.877858
-1.74358 -15.9777
-1.99606 -15.7325
0.897242 -16.8649
0.561739 -16.9953
0.0831797 -0.577898
0.148359 -0.529524
-0.943992 -8.11824
-1.20303 -8.26093
-0.189289 -0.861246
-0.252934 -0.960037
-1.92174 -10.1357
-1.77053 -10.402
-1.60398 -8.04162
-1.31956 -8.06999
0.700676 -4.59179
0.859567 -4.77886
0.0809628 -0.577598
0.0715693 -0.670531
-0.150953 -0.382136
-0.214298 -0.441023
-0.0370504 -0.094593
-0.0599083 -0.135152
-0.0492922 -3.84045
0.0558425 -3.65753
0.668885 -18.0876
0.367099 -18.3009
-0.981624 -24.4865
-1.26444 -24.7407
-1.06421 -15.6604
-1.11031 -15.3085
0.75779 -2.19104
0.71001 -2.02672
0.774874 -2.01849
0.897255 -1.94718
0.244345 -14.4053
0.548047 -14.2446
0.208229 -1.3225
0.280126 -1.21395
-1.16001 -13.4222
-0.956999 -13.6933
-0.195515 -0.301897
-0.264303 -0.344174
-1.12474 -25.3185
-0.988091 -25.673
0.257051 -2.55875
0.370893 -2.43323
-1.18691 -21.7052
-1.53069 -21.8609
-0.2159 -20.9369
-0.502723 -21.1792
-0.246 -0.668484
-0.319375 -0.750947
-0.973365 -7.10203
-1.2268 -7.01585
1.13326 -19.7677
0.840895 -19.997
0.427121 -1.74252
0.577568 -1.77939
-1.66131 -12.0912
-1.99047 -12.0586
-0.209483 -8.85919
-0.235972 -8.563
-0.0676207 -1.84693
-0.179734 -1.74362
-0.057666 -22.953
-0.276822 -22.6434
-2.84834 -20.9007
-2.80995 -20.5259
-0.190699 -23.9517
-0.412506 -23.6432
0.923584 -4.5287
0.821835 -4.31399
1.00266 -13.5212
1.17554 -13.2332
0.721973 -3.11183
0.530279 -3.11472
-0.767074 -25.1719
-0.604595 -25.5155
0.393397 -0.385933
0.369936 -0.320922
-0.0134812 -0.00253601
-0.0314398 -0.0148659
1.3547 -23.4352
1.12701 -23.7396
-0.953638 -2.06277
-0.997412 -2.22727
-1.46897 -9.57238
-1.27063 -9.79783
-0.434488 -1.55782
-0.53686 -1.4764
-0.327292 -1.20301
-0.459975 -1.22787
1.22176 -9.50166
1.42015 -9.28522
1.21136 -5.41261
1.37825 -5.62201
-2.46382 -19.1902
-2.39076 -18.8229
-1.76241 -9.59933
-1.48494 -9.71703
-0.511136 -15.9995
-0.16873 -16.0923
-0.523291 -6.82244
-0.635804 -7.07455
0.647711 -7.6104
0.602822 -7.88945
-1.13783 -16.1431
-0.805693 -16.0113
-2.00461 -13.0028
-2.2952 -13.1947
1.29695 -13.0772
1.53636 -13.3298
0.0790025 -0.0362195
0.0442549 -0.0156649
0.015269 -0.0292931
0.0388339 -0.0413479
-2.27161 -23.5097
-2.3054 -23.1306
-0.874874 -3.89034
-0.733457 -3.71657
0.764422 -4.11711
0.95416 -4.25352
-0.0896497 -0.0832063
-0.127474 -0.119923
-0.963888 -17.5474
-1.30454 -17.4184
1.37831 -19.8618
1.51281 -20.2142
-0.810617 -12.4331
-0.481007 -12.4008
-1.70025 -17.9437
-1.87124 -18.2787
0.220182 -0.866441
0.188702 -0.761259
-0.0785336 -3.06187
-0.269315 -3.08673
-0.0171566 -0.0874666
-0.0464468 -0.11913
-0.541612 -2.67891
-0.658952 -2.55739
-0.378672 -16.2435
-0.695438 -16.0819
-1.53298 -25.0333
-1.22442 -24.8118
1.28056 -7.49132
1.04459 -7.62316
0.176987 -0.993249
0.20862 -1.1108
1.23853 -13.5976
1.20407 -13.9394
-2.25531 -17.0048
-2.21013 -16.6429
-1.40547 -16.8026
-1.75693 -16.8987
0.860243 -7.00856
0.991497 -7.25993
0.0266304 -0.200407
-0.00710341 -0.160771
1.28206 -22.2249
1.23929 -22.602
0.0187402 -0.00894409
0.00607363 -0.000508092
0.609001 -16.3145
0.252336 -16.2959
0.226511 -9.67025
0.453229 -9.88187
-2.2591 -13.0319
-2.21929 -13.3667
0.41018 -3.41461
0.519244 -3.59712
1.46732 -12.5203
1.38203 -12.8421
-0.369299 -9.47171
-0.247127 -9.75314
0.347806 -6.71418
0.611438 -6.69012
1.51111 -7.64107
1.30554 -7.43001
-2.83469 -23.0161
-2.63078 -23.3355
-0.161889 -0.772371
-0.202752 -0.687183
-0.975706 -11.6369
-1.23949 -11.4527
-0.236424 -3.10383
-0.229738 -3.30182
-1.92788 -14.2946
-2.06832 -13.9838
-0.164747 -8.74029
0.0348548 -8.96153
-0.512446 -21.225
-0.228712 -20.9788
0.628074 -8.02769
0.362198 -7.91574
-1.86699 -22.7926
-2.03583 -23.1343
0.49844 -5.76223
0.278703 -5.87107
0.87246 -8.57231
0.753605 -8.29796
-0.751379 -2.97213
-0.827092 -2.81218
0.534397 -0.704085
0.570974 -0.8054
-0.349125 -3.75253
-0.466335 -3.58542
-1.1632 -4.68565
-1.22275 -4.92175
0.0385847 -0.0472355
0.0429698 -0.0300992
-1.11191 -15.88
-1.16646 -16.2353
-0.486686 -20.4556
-0.154491 -20.6262
-0.335834 -19.6502
-0.135451 -19.3376
-0.588372 -1.11019
-0.491037 -1.00832
-0.75023 -20.7386
-0.641711 -20.378
-0.569927 -2.01759
-0.646853 -1.89509
-0.578975 -8.20788
-0.806839 -8.39485
-0.339484 -1.83629
-0.240237 -1.71715
-1.89861 -15.6485
-1.83401 -15.2975
0.215537 -15.0682
0.155014 -14.7205
-0.138711 -12.8056
-0.224328 -12.4801
0.17959 -2.40117
0.212932 -2.23432
-2.34818 -23.1237
-2.56903 -23.435
-1.54121 -8.3539
-1.81491 -8.27369
-0.386876 -3.58421
-0.428668 -3.79267
-2.18531 -12.9653
-2.01809 -12.6639
-1.21162 -13.8674
-1.28036 -14.2084
-1.73934 -22.7729
-1.40256 -22.599
-0.47368 -1.18124
-0.592368 -1.27109
0.162198 -3.59319
0.194771 -3.80303
1.4474 -7.19117
1.23148 -7.00064
0.0860059 -0.0581461
0.1178 -0.0694278
-0.977323 -11.1966
-1.02299 -10.8715
0.352391 -21.8059
-0.0229567 -21.7855
-0.00241526 -0.409495
-0.00698423 -0.490261
-1.65171 -18.5295
-1.40601 -18.8047
0.833559 -11.5692
0.512614 -11.5003
-0.870935 -2.52393
-0.708995 -2.4237
-0.91396 -3.22262
-0.780464 -3.06075
-1.32108 -12.0428
-1.60905 -11.8922
-0.226576 -0.186462
-0.285365 -0.236282
0.530084 -15.2166
0.284171 -14.9612
-0.144555 -0.35019
-0.183497 -0.421838
-1.32025 -17.6607
-1.54845 -17.9589
-0.0170836 -0.00508144
-0.0146006 -0.00191151
1.2279 -21.1456
1.58943 -21.2563
-0.0624493 -24.1037
-0.161614 -24.4725
-0.119209 -4.44453
-0.119174 -4.21821
-2.47348 -25.3573
-2.09319 -25.363
0.188336 -0.280712
0.236012 -0.344193
-0.697113 -1.62774
-0.608808 -1.49325
-0.0464908 -0.171093
-0.0783041 -0.220318
1.13914 -12.7659
0.849495 -12.9262
-0.737088 -12.7161
-0.694678 -12.3826
0.126068 -7.46065
0.246648 -7.21219
0.938726 -9.52351
0.750102 -9.75756
-0.0101954 -0.433231
-0.0173712 -0.515953
1.09311 -21.285
1.00081 -21.6509
-1.91496 -11.6853
-2.17362 -11.9069
0.366509 -2.19946
0.334565 -2.36369
0.357031 -4.32472
0.511914 -4.49739
-1.62482 -9.40857
-1.91641 -9.52788
1.08943 -9.9975
0.848698 -10.1848
-0.238914 -0.961745
-0.188329 -0.856948
0.223177 -7.57443
0.0439259 -7.78974
-0.170679 -0.285949
-0.125177 -0.316811
0.215114 -0.890144
0.325151 -0.907006
0.464775 -1.11315
0.353233 -1.03639
-1.08846 -25.257
-1.4639 -25.2134
0.836148 -7.88563
0.816064 -8.17219
-1.79626 -24.8387
-2.1496 -24.7001
-0.957461 -11.6559
-1.06084 -11.3474
-0.813841 -2.32555
-0.643815 -2.32465
-0.856916 -23.634
-0.617937 -23.9288
-0.481135 -2.85793
-0.532403 -2.6854
0.419797 -1.6946
0.369338 -1.54968
0.112955 -1.90087
0.236938 -1.81734
0.527182 -23.3437
0.779882 -23.0606
1.49653 -9.40809
1.41159 -9.69605
0.932408 -5.41999
0.735146 -5.55753
-0.0381494 -0.0243415
-0.066264 -0.0432283
-0.930466 -20.4583
-0.558223 -20.4596
0.422655 -25.4824
0.473815 -25.1034
-0.614792 -1.67729
-0.518049 -1.54857
0.896913 -16.7958
1.16815 -16.5633
0.436257 -0.859902
0.328348 -0.849429
-1.67213 -21.1771
-2.00662 -21.0098
-2.70657 -19.078
-2.33464 -19.1033
-1.99735 -11.3429
-1.6696 -11.3235
-0.391156 -6.15877
-0.567231 -5.97674
1.21172 -8.81076
1.43985 -8.64015
0.0440209 -0.581835
0.130071 -0.575966
-0.315605 -16.7504
-0.549448 -16.4778
0.540928 -23.6425
0.516835 -23.2621
0.809054 -12.6791
1.14348 -12.7057
0.300299 -0.560576
0.301642 -0.648902
-2.13948 -23.6538
-1.78473 -23.518
0.0128591 -0.0931036
0.04798 -0.093901
-0.609807 -8.19231
-0.750521 -8.45183
0.115243 -22.3124
-0.0460426 -21.9692
-2.0515 -18.6867
-1.82452 -18.9778
1.57062 -20.5603
1.52517 -20.1865
0.536305 -2.8132
0.500882 -2.62879
0.0331364 -0.0126612
0.0136022 -0.00175094
-0.168711 -16.7532
-0.497286 -16.8948
0.953873 -7.61412
0.67678 -7.63829
-0.0229108 -0.0551635
-0.0503215 -0.0809518
-0.175713 -0.236439
-0.132729 -0.184556
0.970572 -4.07921
1.17416 -4.03046
-0.600821 -16.4542
-0.589862 -16.0939
-0.511979 -3.39668
-0.349938 -3.26857
-0.0656319 -6.4431
0.0396082 -6.68909
-2.14702 -19.6541
-2.01922 -19.301
0.255061 -1.27329
0.374623 -1.36319
-0.553507 -0.937792
-0.499243 -0.828852
-0.477169 -0.627109
-0.417304 -0.539675
-1.40012 -9.11852
-1.12137 -8.99097
-1.72299 -11.7946
-2.04988 -11.7595
-1.48789 -13.3273
-1.27991 -13.5918
0.104933 -0.302461
0.120882 -0.247389
0.968107 -9.3903
0.7899 -9.6303
-0.299274 -0.363062
-0.272526 -0.412997
0.511121 -1.59988
0.388642 -1.65871
1.6779 -12.6664
1.3726 -12.5118
-2.19222 -16.6866
-1.89842 -16.4664
-0.0604413 -0.0255679
-0.0377131 -0.0129337
0.393496 -24.1514
0.352895 -23.772
-0.244327 -2.41443
-0.127341 -2.28416
0.532909 -14.9301
0.868528 -14.8408
0.0597662 -21.049
-0.262659 -20.8573
0.758376 -19.2066
0.537096 -19.5047
0.882651 -3.63059
0.706945 -3.72112
-0.238751 -0.625444
-0.296238 -0.572357
0.176232 -2.75416
0.358141 -2.78337
0.753114 -19.2936
0.843513 -19.6579
-0.49613 -23.1984
-0.522846 -23.5787
-1.10905 -5.85358
-1.04677 -6.09726
0.670895 -1.30598
0.585483 -1.18197
-0.286108 -19.8576
-0.506997 -20.1587
-0.168845 -7.70993
0.082896 -7.83905
0.341486 -19.2894
0.116062 -18.9919
0.0302539 -0.156472
0.0212092 -0.20731
-0.813618 -1.98053
-0.7859 -1.82451
0.870009 -9.13965
0.888132 -8.84067
-0.613623 -2.5599
-0.469644 -2.44043
-0.591045 -2.54832
-0.73915 -2.47311
-1.66512 -12.6097
-1.72181 -12.2829
-0.124202 -0.266133
-0.185195 -0.307031
0.0324012 -0.0673207
0.0130424 -0.0917589
0.294817 -2.09126
0.220024 -1.94317
-0.524378 -11.8437
-0.660131 -12.1443
0.65014 -4.93562
0.704954 -4.70903
0.247435 -14.098
0.00471668 -13.8508
1.00611 -6.34045
1.26867 -6.37522
-1.57171 -9.89423
-1.35437 -9.66116
1.05874 -25.3827
1.34566 -25.636
0.555402 -19.5502
0.184237 -19.5469
-0.925154 -19.834
-1.27963 -19.9473
-0.387723 -0.782762
-0.332404 -0.85667
0.700615 -8.75957
0.802271 -8.48673
-0.733342 -25.1906
-0.843855 -25.5553
0.0450176 -0.0228093
0.0721306 -0.0467538
0.379187 -1.17303
0.295099 -1.25724
-0.139417 -1.20934
-0.0422482 -1.14202
-0.260512 -0.489301
-0.286489 -0.427986
0.146969 -0.0991658
0.13573 -0.074832
-0.60589 -1.50111
-0.501929 -1.57924
0.0841393 -1.94462
-0.0487019 -2.03155
-1.79728 -11.0924
-2.09134 -10.9711
-1.12788 -24.7857
-1.30961 -25.1209
0.870322 -13.75
1.06054 -14.0439
-1.63328 -14.1323
-1.4703 -14.4342
0.294953 -18.867
0.477919 -19.1933
0.314622 -0.436604
0.367211 -0.516557
0.0324428 -3.97503
0.235209 -4.0498
-0.0177784 -0.0443628
0.00657005 -0.0416712
-0.716643 -24.4641
-0.519136 -24.138
-0.0877462 -0.252275
-0.133992 -0.306261
-0.00669651 -0.522978
-0.068895 -0.471598
0.335355 -3.53934
0.369697 -3.74821
-0.907983 -23.4617
-1.10962 -23.785
0.86281 -2.09546
0.790429 -1.93777
-0.088826 -0.0555265
-0.106976 -0.0572044
0.54922 -13.5141
0.871511 -13.4147
0.939119 -3.46774
1.03525 -3.66489
0.0951265 -3.66025
0.0793816 -3.45262
-0.156124 -14.6361
-0.254208 -14.9735
-0.00153129 -0.0318778
-0.0206952 -0.0277965
0.0194131 -0.00528274
0.00788569 -0.000902563
0.0261906 -0.00941702
0.0600673 -0.0236967
0.67785 -25.2231
0.433931 -25.5171
0.0586594 -0.0290572
0.0833887 -0.0543805
-1.71355 -19.5808
-1.84588 -19.2343
0.229876 -0.419003
0.295786 -0.485825
-2.53094 -17.9563
-2.30644 -18.2462
-0.105474 -3.26869
0.077492 -3.34555
0.753041 -5.68915
0.542355 -5.81497
-0.634011 -8.24533
-0.470487 -8.00342
-0.11292 -0.607582
-0.0262301 -0.626836
-1.28578 -9.27423
-1.29114 -9.57918
-2.639 -20.4547
-2.66082 -20.0808
-1.70556 -15.8633
-1.47472 -15.5866
-0.300063 -0.222616
-0.349963 -0.280315
-1.87805 -16.3168
-2.22703 -16.2386
0.00104554 0.000213534
0.01406 -0.0019692
1.52237 -20.7545
1.16188 -20.6441
1.01155 -8.46931
1.21315 -8.6975
-0.0513063 -4.83323
0.172352 -4.85975
0.790419 -1.75139
0.689577 -1.84063
0.213986 -0.357858
0.159215 -0.299166
-0.0969876 -0.0585487
-0.0890971 -0.0709712
0.541194 -1.61389
0.441246 -1.49084
-0.833042 -7.71038
-0.612521 -7.52728
-1.42512 -11.7389
-1.69588 -11.564
0.0796096 -22.7495
-0.258436 -22.9184
-0.258921 -24.138
0.118992 -24.1169
1.03521 -16.0761
1.17426 -15.7503
1.51026 -17.246
1.37345 -17.583
-0.274136 -12.0996
-0.376501 -12.416
0.916493 -8.53437
0.764203 -8.77979
-0.0581122 -0.200661
-0.104664 -0.242926
-0.973041 -6.25436
-1.15675 -6.45721
-0.236457 -0.42772
-0.292347 -0.400053
0.828204 -3.29938
0.875983 -3.5023
-2.43047 -23.2434
-2.18026 -22.9556
1.4343 -7.22101
1.17121 -7.27942
0.214497 -0.576774
0.207411 -0.666875
0.00344915 -0.00118875
0.00975274 -0.0124288
-0.887262 -2.42539
-0.755802 -2.51756
-0.383891 -3.97092
-0.182185 -3.89476
0.513787 -1.21759
0.416368 -1.28258
-2.2527 -12.0729
-2.03936 -12.3164
-1.79013 -10.8987
-1.49223 -10.756
-0.737556 -22.8214
-0.376051 -22.7129
0.509873 -24.3399
0.879402 -24.4286
-0.682362 -24.1647
-0.711532 -24.5456
-1.12073 -9.40614
-0.81723 -9.40461
0.349146 -17.0338
0.378976 -16.6723
0.283728 -0.320825
0.225989 -0.262633
0.725039 -14.9464
0.432076 -15.1339
0.468155 -1.03828
0.356533 -0.970756
0.393429 -0.709718
0.334034 -0.618208
0.38894 -0.718603
0.432195 -0.651982
-0.920003 -3.94281
-0.854188 -4.14267
-1.87536 -22.6695
-2.25318 -22.6558
-1.32283 -14.595
-1.12869 -14.8825
1.19382 -16.8977
1.51587 -17.0761
0.0406094 -1.01362
0.0812456 -1.12481
-0.210939 -0.526213
-0.139468 -0.468808
-1.84125 -15.2673
-2.0521 -15.5593
-0.00778112 -0.00694557
0.00362329 -0.00752979
-0.355371 -0.818522
-0.251316 -0.819576
-1.743 -11.5353
-1.90029 -11.8334
-0.461038 -4.89529
-0.660811 -4.77651
0.830403 -4.83942
0.601225 -4.88006
1.43175 -14.4213
1.17826 -14.6514
-0.661228 -4.99112
-0.418242 -4.97224
-0.778833 -20.0564
-0.893978 -19.7011
1.40111 -20.2182
1.20079 -19.8982
-2.10027 -21.5817
-2.01152 -21.9487
0.386818 -2.5804
0.511686 -2.72431
-2.17948 -16.2729
-2.41597 -16.0115
-1.66854 -6.9898
-1.6761 -6.72189
-0.932051 -6.53759
-0.692098 -6.41349
-0.640146 -24.6491
-0.523493 -24.2854
-2.83204 -24.87
-2.64957 -25.2053
-0.00292479 -3.47789
-0.080557 -3.29045
0.353676 -25.1447
0.590456 -25.4434
-0.270707 -0.439368
-0.226734 -0.489228
-2.07804 -19.8335
-2.28512 -20.149
0.800112 -3.42034
0.601004 -3.36763
0.23026 -22.0703
0.592087 -22.1772
-0.804046 -5.72422
-0.559251 -5.75494
0.183096 -0.195601
0.133762 -0.192297
0.679911 -2.00109
0.758315 -1.88336
-1.75419 -7.12835
-1.47939 -7.13714
-1.29151 -23.5668
-0.935345 -23.4382
-0.184 -0.406889
-0.158734 -0.473456
-0.00364837 -0.725721
-0.00415315 -0.627503
0.445044 -1.80971
0.357497 -1.67565
0.877538 -10.3064
0.771493 -10.602
0.524762 -8.94976
0.816362 -9.02029
0.830947 -17.5531
0.737096 -17.1963
-1.54584 -8.58778
-1.83286 -8.68745
-1.13635 -12.2609
-1.45935 -12.1974
0.780193 -3.87985
0.630255 -3.71399
-0.733017 -12.8566
-0.419155 -12.972
-0.136116 -2.11323
0.0241913 -2.14176
-1.00677 -4.07498
-1.17813 -3.96361
-1.297 -9.13312
-1.03059 -8.98148
-0.403045 -23.0807
-0.711738 -22.8626
-0.000604346 -0.000162911
-0.0154799 -0.00334556
-0.47675 -20.6652
-0.540938 -20.2945
-0.288772 -2.9816
-0.457029 -3.08432
-0.04988 -0.103729
-0.0133607 -0.0907954
-2.2732 -16.7845
-1.92423 -16.8767
-1.33461 -13.083
-1.59983 -12.8832
0.840726 -5.51594
0.701443 -5.7169
0.292899 -4.33015
0.501928 -4.26561
-1.76064 -22.5098
-1.69442 -22.8838
1.05091 -4.16331
1.08912 -4.38841
-0.810109 -17.4505
-0.598458 -17.1576
0.221289 -25.4085
0.311498 -25.037
-0.343467 -19.3629
-0.04729 -19.5864
0.865985 -14.0104
1.1703 -13.8603
-1.89751 -12.1912
-1.60221 -12.3321
-0.303492 -15.1327
-0.447315 -15.4565
0.459591 -1.65844
0.32517 -1.58338
-0.158596 -2.2508
-0.294691 -2.35917
0.187006 -3.76138
0.395257 -3.75581
0.0215218 -0.0243133
0.0451002 -0.0408495
0.667379 -9.3475
0.818844 -9.09206
-0.407554 -2.06659
-0.568993 -2.10666
-0.754321 -13.5249
-0.948627 -13.2479
0.776766 -9.50982
0.562414 -9.28641
-0.273077 -0.875519
-0.323829 -0.793406
-0.859454 -12.7209
-1.0601 -12.9961
1.03192 -4.84688
0.807955 -4.90144
0.91491 -11.3893
0.935472 -11.7204
-0.344976 -1.65247
-0.441906 -1.56084
-0.603466 -9.58466
-0.736084 -9.86519
-0.974006 -3.1084
-1.00502 -3.3057
0.731132 -18.2309
0.73655 -17.8573
1.10564 -22.8224
1.29035 -22.4917
0.0268501 -0.0914185
0.00683109 -0.0607245
0.905811 -13.4375
1.20759 -13.6077
-0.0443538 -2.6473
0.0877229 -2.77502
0.136131 -0.0702242
0.101654 -0.0458363
0.276316 -0.486011
0.258352 -0.407146
0.0381588 -0.0122965
0.0652132 -0.0262995
1.15935 -20.9709
1.35665 -21.2948
-0.531631 -15.3594
-0.501524 -15.7142
-1.12481 -19.6154
-1.08359 -19.2445
1.50928 -10.747
1.56188 -11.0713
0.108875 -1.98083
0.25685 -1.93858
1.23823 -7.07001
1.18271 -7.33562
-2.84602 -22.7806
-2.61276 -22.4784
0.145023 -0.728218
0.131662 -0.630062
0.668522 -2.2926
0.606103 -2.12769
0.0909984 -9.24392
-0.0243977 -9.52531
0.550356 -1.40233
0.443999 -1.29173
1.2184 -21.7367
1.08723 -22.091
-0.215994 -8.54922
0.0319 -8.70724
0.151983 -0.132032
0.128242 -0.0928779
-0.980427 -7.66209
-0.838069 -7.90116
1.19254 -9.20996
1.33902 -8.95772
0.102481 -1.92948
0.0750588 -2.08775
-2.59434 -22.1539
-2.365 -22.4532
-0.195523 -8.03855
-0.00717386 -7.82411
0.327667 -4.65335
0.270423 -4.42916
-2.32427 -22.5193
-2.40156 -22.8921
1.08038 -19.4873
0.849317 -19.7782
1.59792 -14.8261
1.34279 -14.576
-1.93988 -15.4186
-2.24251 -15.2454
-0.016049 -1.82725
0.087985 -1.94521
1.29121 -6.7116
1.34349 -6.45568
-0.958345 -13.3524
-1.27254 -13.2322
-0.131142 -0.463163
-0.212012 -0.482278
0.804087 -3.42341
0.991711 -3.37731
0.0497344 -0.0212734
0.0391881 -0.0128117
-0.0322429 -14.6814
0.236957 -14.4632
0.189979 -17.044
0.503068 -16.8659
-0.370272 -7.78281
-0.0914169 -7.74186
0.487051 -0.963765
0.581139 -1.06457
-0.318134 -14.0381
-0.236244 -14.3762
1.35042 -14.0153
1.6763 -13.9179
0.997337 -3.69097
1.07292 -3.51165
-0.361956 -1.97847
-0.244736 -1.86606
-0.986764 -11.8764
-1.1209 -11.5806
0.907792 -2.90554
0.736984 -2.80029
-0.761234 -2.31438
-0.675161 -2.4482
-1.42185 -9.61669
-1.62409 -9.86278
-2.16151 -21.2789
-1.78753 -21.3133
1.40165 -17.67
1.50963 -17.3212
0.502315 -0.99173
0.49607 -1.10603
-0.341982 -19.2196
-0.698785 -19.3075
-0.302604 -10.3731
-0.608565 -10.3406
-1.38367 -23.6276
-1.52983 -23.98
0.414839 -19.686
0.786659 -19.7054
-2.15535 -24.2752
-2.33323 -24.6131
0.637115 -6.81886
0.869694 -6.7005
-2.29463 -15.533
-2.00388 -15.7281
0.887968 -4.74328
0.653764 -4.71577
0.826029 -11.9997
0.524784 -12.1249
0.147745 -4.32054
0.0784322 -4.10735
-1.61355 -10.8393
-1.40367 -11.0762
-0.421692 -8.25709
-0.248074 -8.48992
1.08989 -15.5354
1.32993 -15.8054
1.35453 -16.2377
1.17198 -15.9235
-2.14635 -25.3497
-2.1243 -24.9681
1.35862 -6.93844
1.25546 -7.18199
1.27886 -23.3281
0.904472 -23.2639
0.0761619 -0.0498672
0.0808217 -0.0741047
-2.10088 -24.4097
-1.72241 -24.3841
-0.410692 -3.02299
-0.403678 -2.83254
0.247044 -10.4496
0.197894 -10.7652
0.50791 -12.5704
0.537619 -12.2374
-2.09761 -18.8871
-2.42777 -18.7219
-0.45792 -7.14799
-0.188713 -7.10024
-0.83465 -2.15142
-0.668798 -2.10217
0.157721 -0.952379
0.0917883 -0.859765
0.971201 -2.89227
0.989926 -2.71368
-2.222 -15.3228
-1.98097 -15.0553
0.250481 -6.71784
0.432497 -6.9231
0.073506 -0.0571844
0.0628355 -0.0347204
0.417362 -5.85982
0.668633 -5.8582
-1.63996 -11.5051
-1.53926 -11.1877
-1.5045 -6.34333
-1.27751 -6.18698
-0.124309 -14.9149
-0.375579 -14.6712
0.830734 -2.25229
0.812478 -2.08645
-0.151657 -0.20027
-0.18799 -0.257216
-1.37538 -13.9686
-1.36596 -13.6239
0.645858 -3.29983
0.825227 -3.41245
-1.78236 -15.6263
-1.96358 -15.9389
-0.018867 -0.007705
-0.00608438 0.000380138
-2.69812 -19.4553
-2.39291 -19.6649
-0.0498395 -0.613723
-0.0946597 -0.539472
0.542534 -2.13503
0.54349 -1.97413
0.246136 -3.41872
0.0458701 -3.42059
-2.55508 -22.2169
-2.76016 -21.9009
0.0963681 -6.24361
-0.14159 -6.14016
-0.712464 -23.7345
-0.339564 -23.7951
0.466563 -0.8659
0.566494 -0.854816
-0.44478 -6.78111
-0.447429 -6.51263
-1.88683 -10.6872
-1.70671 -10.944
-0.882876 -6.77585
-0.662605 -6.61246
1.0402 -22.0717
1.17791 -22.4263
0.98405 -7.72614
0.866581 -7.97874
0.783174 -1.6923
0.697653 -1.55216
-0.416321 -19.8152
-0.191361 -19.5192
-1.08371 -4.31312
-0.982856 -4.50373
0.459118 -4.92673
0.633541 -5.10869
-0.875617 -14.8416
-1.21656 -14.924
1.49709 -10.6986
1.30311 -10.9443
0.16726 -0.183332
0.202293 -0.172257
-0.901232 -23.9016
-1.2754 -23.8486
-0.33741 -1.78477
-0.47218 -1.8729
0.339462 -2.90121
0.311633 -2.7142
0.507466 -3.59935
0.700476 -3.54805
-1.12475 -3.6527
-0.942491 -3.52393
0.270358 -6.94312
0.0933737 -7.14758
-2.06444 -17.7645
-2.26887 -17.4633
0.644686 -1.54048
0.655671 -1.40432
-0.9468 -7.23302
-0.698804 -7.34338
0.0717358 -6.79206
0.166988 -6.54246
0.301524 -21.3887
0.33598 -21.7659
-2.17123 -18.3091
-2.48222 -18.1142
-1.18051 -6.7085
-1.08986 -6.95611
0.336522 -9.11456
0.602324 -9.26163
0.510495 -1.28296
0.420201 -1.16697
-0.37781 -9.88036
-0.682323 -9.91459
0.0743223 -0.881868
0.0714526 -0.995818
0.297814 -15.5424
0.214445 -15.8888
-0.531718 -4.44193
-0.558998 -4.21985
0.714363 -3.73051
0.770966 -3.53694
-1.32335 -5.50524
-1.19154 -5.27837
-2.37937 -17.9224
-2.45299 -18.2892
-1.00407 -15.3037
-1.25523 -15.0606
-0.585132 -6.34503
-0.708411 -6.12076
0.0435122 -0.198154
-0.00565777 -0.182465
-2.45343 -17.8989
-2.20961 -17.613
0.613364 -0.942166
0.503711 -0.869784
0.107399 -0.0480971
0.145605 -0.0718009
-0.27138 -7.49534
-0.234287 -7.77584
0.0802414 -8.20541
-0.141921 -8.02145
-0.789892 -21.6994
-0.418308 -21.7518
-0.40022 -8.12783
-0.683908 -8.18
0.64883 -1.66712
0.768992 -1.78634
-0.674403 -20.9027
-0.93113 -21.1783
0.273292 -6.22612
0.0713047 -6.06248
0.0654472 -12.3441
-0.0824023 -12.643
-1.32816 -14.7413
-1.00508 -14.8683
0.873761 -21.7283
0.514156 -21.8383
-0.249957 -0.628296
-0.188025 -0.549629
0.292626 -1.58455
0.417495 -1.67543
-1.67106 -9.76136
-1.6715 -9.45504
-0.3002 -10.2315
-0.000241567 -10.1717
-1.00335 -11.1693
-1.06833 -11.495
-0.361872 -0.48328
-0.325515 -0.538615
0.0566112 -4.20704
-0.0895716 -4.04327
-0.426622 -4.90549
-0.499364 -5.14237
0.644503 -8.28466
0.930346 -8.25982
0.0220784 -0.074434
0.0167305 -0.0429279
0.56105 -25.2254
0.528318 -24.8446
-0.850722 -3.24623
-0.750236 -3.06523
-1.45118 -17.7645
-1.09472 -17.6616
-0.18997 -0.194171
-0.221362 -0.180129
0.695971 -12.9168
0.683344 -13.2564
-1.1545 -8.94197
-0.901944 -8.77343
1.0614 -20.158
1.18088 -20.5159
-0.841509 -22.0855
-0.98138 -21.7341
0.4264 -12.1872
0.43118 -11.8552
-0.0866175 -20.871
-0.431924 -20.7274
-1.76069 -10.3983
-1.90294 -10.6947
1.5973 -10.1513
1.48407 -10.4379
-2.40639 -19.7191
-2.43014 -19.3469
-1.00031 -7.32321
-0.801341 -7.50817
-1.10111 -21.7642
-0.801389 -21.5348
-0.2156 -2.26303
-0.376168 -2.32655
0.600635 -4.1672
0.452681 -3.99537
0.754157 -8.42595
1.00685 -8.58736
0.403896 -6.00694
0.482819 -5.76765
-1.61652 -9.52367
-1.31076 -9.47804
0.680389 -1.65927
0.532477 -1.63915
-0.752636 -22.0593
-0.571565 -21.7266
0.121086 -0.0569092
0.118128 -0.0627906
0.642537 -14.4963
0.912657 -14.2851
-0.77631 -17.0717
-1.13081 -17.1372
-0.220928 -0.162381
-0.202306 -0.127176
0.164802 -2.31719
0.325999 -2.27976
0.675233 -3.61256
0.882452 -3.63579
-0.277515 -0.54789
-0.246947 -0.621463
0.220044 -13.4487
-0.0263007 -13.6828
-2.46432 -22.5974
-2.09614 -22.5059
-0.0226455 -0.00761801
-0.0449721 -0.0211164
-1.30624 -10.6842
-1.56282 -10.894
-1.27295 -7.98717
-1.00417 -8.0728
-0.842335 -24.8422
-0.92798 -25.2142
-1.92277 -17.7225
-2.21715 -17.9545
0.610197 -16.8225
0.45462 -16.4942
0.725575 -6.43207
0.793052 -6.69511
-0.330288 -1.44716
-0.299444 -1.30209
0.604633 -12.121
0.934436 -12.1175
0.175219 -3.12071
-0.0158382 -3.14392
0.982204 -3.09832
0.845603 -3.2147
0.220106 -0.204285
0.164338 -0.183659
-2.0154 -13.626
-1.99275 -13.9682
-2.3211 -22.7418
-2.22606 -23.1093
-2.53676 -22.3199
-2.24299 -22.0777
-0.328168 -0.390412
-0.252691 -0.347209
-0.564883 -2.33885
-0.718704 -2.28836
-0.339004 -10.5099
-0.392679 -10.2023
1.47269 -16.145
1.13612 -16.2573
0.169093 -0.107654
0.215309 -0.149721
-0.234122 -8.60299
0.0028735 -8.77843
0.288561 -3.56343
0.312477 -3.77373
1.01996 -14.4668
1.21053 -14.7664
1.15102 -18.6093
1.1412 -18.2351
-0.313968 -1.17678
-0.444562 -1.19305
1.40384 -10.1412
1.43215 -10.4586
-0.0849058 -6.90352
-0.000489969 -6.64708
-1.96802 -14.9673
-2.20191 -14.7146
-0.31291 -0.512077
-0.393852 -0.514072
-0.717662 -1.65269
-0.652065 -1.76983
0.37663 -6.7976
0.141932 -6.66351
0.668137 -1.48295
0.555823 -1.37098
-0.0624617 -2.32381
-0.135763 -2.17273
0.0222915 -9.24909
0.181353 -9.51001
-0.0822499 -13.758
0.227319 -13.9072
-0.667651 -4.33129
-0.893868 -4.34755
0.55371 -2.05025
0.697062 -2.00511
0.0421188 -0.609202
-0.0448649 -0.592164
0.401101 -0.604671
0.342466 -0.519547
-0.84779 -15.5166
-0.824859 -15.1622
0.50591 -14.7247
0.819682 -14.5808
0.257321 -10.6172
-0.0182277 -10.4675
1.03111 -21.9239
1.3645 -22.1053
0.925463 -4.89435
1.16425 -4.92952
-0.998429 -22.1056
-0.623094 -22.1284
-0.0351541 -6.37452
0.188936 -6.51486
-1.0623 -22.2159
-1.16577 -22.5818
-0.545678 -21.6507
-0.919821 -21.6236
0.656097 -4.51198
0.768542 -4.72522
-0.344098 -4.11189
-0.385542 -3.89919
1.38198 -15.8425
1.62993 -15.596
0.492133 -3.0562
0.378649 -2.89271
-0.487395 -2.62253
-0.314764 -2.66008
0.146188 -23.8655
-0.200973 -24.0179
0.30927 -1.18116
0.337002 -1.31686
1.00073 -20.4333
1.29522 -20.2052
-2.96662 -25.5291
-2.68524 -25.2687
-2.53332 -23.5742
-2.90987 -23.5226
1.3933 -5.92371
1.2936 -6.1508
-0.692659 -1.12023
-0.60791 -1.18386
0.262926 -6.1202
0.513429 -6.08185
0.863522 -3.50645
0.731408 -3.64778
-2.28161 -17.5645
-2.10034 -17.8816
1.10319 -9.8428
1.18486 -10.1492
0.0814633 -0.0353169
0.116949 -0.0596199
-0.391756 -24.9794
-0.344747 -25.3579
0.785416 -8.19706
0.737513 -8.48314
0.175536 -0.767868
0.21338 -0.871844
-2.2024 -20.0099
-2.56769 -20.0996
0.430421 -11.5648
0.752022 -11.6287
-0.277048 -20.3443
-0.647571 -20.3142
-0.467734 -21.9897
-0.839422 -21.935
-0.505069 -0.740567
-0.400977 -0.703513
1.07004 -22.1825
1.32024 -21.9004
-1.53439 -21.2136
-1.9047 -21.2794
-0.971712 -4.91989
-0.960089 -4.68248
0.135824 -8.99227
-0.102621 -8.81309
-1.1119 -3.81549
-0.897973 -3.80544
-0.297245 -2.01146
-0.456142 -2.03554
-0.0260246 -14.2595
-0.0687482 -13.9146
0.052603 -0.0661672
0.0227937 -0.0603297
-0.431922 -4.37566
-0.382503 -4.15536
-0.139614 -4.56668
-0.159989 -4.33909
-1.90504 -14.4096
-1.58431 -14.5349
-0.00118576 0.000784986
-0.00200892 0.00048633
-0.0496381 -0.325019
0.0152828 -0.314885
-1.74157 -10.3725
-2.00213 -10.2105
1.15525 -7.21742
1.17624 -7.49707
-1.12503 -2.91276
-1.186 -3.10317
-2.80362 -19.8356
-2.42924 -19.8145
-0.813944 -8.695
-1.10879 -8.69425
-0.0792593 -0.0943664
-0.107669 -0.135908
-0.446354 -4.87053
-0.604369 -4.70261
0.229221 -9.31253
0.364431 -9.04492
-1.71903 -18.3765
-1.40057 -18.5621
0.774356 -21.3283
1.04638 -21.0703
0.580046 -22.3569
0.567011 -22.7368
-0.451495 -9.76185
-0.174979 -9.6332
0.519065 -14.1383
0.761991 -13.899
0.273704 -0.775255
0.337547 -0.87286
-1.66218 -21.1201
-1.29805 -21.2065
-0.328189 -0.659487
-0.294614 -0.739911
-0.282015 -0.89207
-0.393568 -0.903034
0.00210692 -2.34009
-0.14496 -2.25821
0.530723 -7.93026
0.508691 -7.64484
0.0551827 -3.98431
0.259625 -4.05506
-0.329687 -3.06647
-0.493607 -3.18229
0.51734 -3.94157
0.441675 -3.73597
0.0322314 -21.6819
0.00283718 -22.0598
-0.758377 -1.31876
-0.743528 -1.44569
-2.22276 -20.1147
-2.53221 -19.9096
-1.98884 -17.064
-2.18761 -17.3778
0.871714 -15.8192
1.15668 -15.6142
-0.505706 -20.811
-0.676579 -20.4765
1.29462 -8.19286
1.44365 -7.9595
1.2827 -8.24137
1.54523 -8.14376
-0.168019 -2.57867
-0.221429 -2.7554
0.367328 -8.31168
0.238462 -8.04865
0.711925 -14.5675
0.804008 -14.2332
-0.189295 -24.8968
-0.358535 -24.5558
0.956872 -19.7902
0.804495 -20.1308
0.168406 -0.123007
0.122452 -0.0879012
-2.80913 -20.8759
-2.78105 -21.2512
0.879532 -25.7081
1.0283 -25.3549
0.462018 -12.2714
0.402562 -11.9427
-0.0140212 -8.36752
0.245874 -8.50174
-2.35714 -25.0355
-2.4426 -24.6635
-0.984655 -7.91869
-1.08046 -7.65641
0.917074 -2.82305
0.982818 -2.66645
0.0664217 -0.0693686
0.0980445 -0.104057
-0.0665076 -0.782326
-0.120092 -0.700616
1.07626 -8.75694
1.31081 -8.59463
1.61018 -16.9917
1.27785 -17.1294
0.915065 -3.84614
0.756456 -3.68643
0.0693794 -10.5078
0.338832 -10.6754
0.96941 -4.36823
0.961579 -4.14458
-0.133473 -0.258684
-0.170576 -0.321468
-2.40467 -19.9041
-2.7778 -19.9464
-0.552222 -10.1572
-0.255625 -10.2349
0.851192 -5.77449
0.863356 -6.03252
0.175608 -0.116886
0.128653 -0.0914701
-0.405695 -13.655
-0.0749886 -13.7382
-0.849788 -13.0443
-1.15963 -12.9196
-0.0111663 -9.78076
-0.211769 -10.0148
-1.35595 -8.30803
-1.14269 -8.09827
0.925326 -20.3422
1.0721 -20.6901
-1.01843 -4.51523
-1.15611 -4.71912
-1.40562 -13.8906
-1.26743 -14.2041
-1.86624 -10.8744
-1.97087 -11.1894
-1.58474 -9.86041
-1.59241 -9.55323
-1.11479 -15.6754
-0.79363 -15.5232
0.640056 -22.6624
0.601574 -22.2842
-0.896591 -21.1624
-0.582521 -20.9564
-1.64502 -15.6572
-1.30022 -15.735
-1.62961 -21.9548
-1.61299 -21.5762
-0.0184963 -0.134719
0.013759 -0.108104
1.54508 -23.2295
1.17163 -23.2983
0.0266978 -4.21191
-0.0734708 -4.41265
0.481863 -1.37366
0.468608 -1.23658
0.725408 -12.547
0.452397 -12.3486
-0.0724719 -0.958455
-0.0698253 -1.07597
-0.419645 -2.78013
-0.560823 -2.67699
-0.310746 -1.99418
-0.329528 -2.15801
-0.553099 -10.2142
-0.549946 -10.5285
-0.17579 -16.8453
-0.50615 -16.9827
-1.4352 -11.3787
-1.70792 -11.2117
1.10745 -7.00377
1.08428 -6.73129
-0.189523 -3.21056
0.00567742 -3.21269
-1.02671 -19.9693
-1.3808 -19.861
-1.18372 -3.9179
-1.35501 -4.08139
-1.20692 -6.28868
-1.44585 -6.203
-0.151258 -6.83851
0.0776239 -6.98338
0.806352 -1.70349
0.847546 -1.85717
0.818704 -4.48956
0.622747 -4.35706
-1.82462 -12.2246
-1.5091 -12.318
-0.406919 -2.81391
-0.432655 -2.63395
-0.39441 -13.0917
-0.307888 -13.4215
0.603538 -1.47619
0.491191 -1.36704
-0.113617 -23.3932
0.106767 -23.0836
-0.641059 -9.56546
-0.349001 -9.64554
-0.462111 -1.22211
-0.453633 -1.3535
-1.43376 -10.1588
-1.22192 -9.91817
-2.12792 -19.2034
-2.33569 -18.898
-1.75244 -19.7513
-1.97152 -19.4529
-0.818702 -21.7079
-0.775204 -22.0845
0.106597 -0.133345
0.154753 -0.166439
-0.361223 -22.6497
-0.737888 -22.6411
0.319958 -17.7621
0.356036 -18.135
-0.215919 -2.28314
-0.131792 -2.13502
0.868387 -2.88925
0.867934 -2.70514
-0.130696 -0.358318
-0.139566 -0.294788
-1.57211 -7.13004
-1.36364 -6.9327
-1.05744 -5.46295
-0.811222 -5.48817
-2.11165 -20.1331
-2.28999 -19.8072
-0.150094 -0.926863
-0.113915 -0.820907
1.24958 -19.48
0.990566 -19.7459
-0.671439 -13.8281
-0.906788 -14.083
-0.89787 -16.7112
-0.705525 -17.0168
-0.926827 -3.96265
-1.1212 -3.89257
-0.97613 -13.2039
-1.01566 -13.5442
-2.21525 -22.8594
-2.47782 -23.136
-0.106895 -8.1856
-0.0858102 -7.89755
0.47361 -6.15445
0.667007 -5.99609
0.0127123 -0.317285
0.0179228 -0.252529
1.4631 -18.8627
1.24153 -18.5578
0.377423 -16.9989
0.565119 -16.691
-0.00261422 -0.000512254
-0.00981897 -0.00156485
1.07527 -5.10438
0.836026 -5.04305
-0.00097568 -0.00131231
0.00660657 -0.00206183
0.0786203 -2.39091
0.18008 -2.25701
-0.263672 -1.17974
-0.146223 -1.12583
0.557997 -3.02902
0.672469 -3.1997
0.38841 -12.6335
0.180191 -12.3685
0.163634 -8.49419
0.427974 -8.37951
0.0425691 -14.0499
0.111367 -14.3916
0.154206 -2.20016
0.18156 -2.03847
-0.0941536 -3.89724
-0.0671915 -4.11438
-0.596303 -3.86003
-0.671412 -3.66865
1.31127 -5.76449
1.27172 -5.50922
-0.324032 -17.3598
-0.645388 -17.2057
-1.35404 -11.1013
-1.38309 -10.7776
-0.188893 -8.03873
0.0960185 -8.05084
-0.219407 -24.4585
-0.579446 -24.3428
-0.155072 -0.398619
-0.225712 -0.395341
0.295529 -2.62662
0.385146 -2.47973
0.118313 -0.0805874
0.156838 -0.095235
0.146554 -2.79818
-0.0135664 -2.88915
0.873914 -17.1035
0.582773 -17.3174
0.392405 -1.25461
0.335254 -1.12775
-0.335245 -4.54507
-0.344752 -4.31767
0.35454 -3.32601
0.495225 -3.48164
-2.11971 -22.3801
-1.74681 -22.437
0.848252 -5.0465
1.03331 -5.22599
-0.372834 -1.85058
-0.310174 -1.98785
1.31272 -22.1307
0.957435 -21.9988
-1.64098 -18.5976
-2.00759 -18.659
-1.58615 -24.164
-1.89746 -23.9478
-0.00534812 -0.469045
0.0463152 -0.536344
1.08957 -21.4578
1.08175 -21.8362
-0.45188 -0.899759
-0.355664 -0.934433
-1.19179 -9.83764
-1.41016 -9.62991
-0.600602 -0.941218
-0.503994 -0.972446
0.614154 -20.6604
0.596803 -20.2844
0.845518 -6.56508
0.647389 -6.37675
-2.66075 -23.3918
-2.3405 -23.5945
0.56952 -12.3998
0.435956 -12.7044
-0.177453 -1.94854
-0.262344 -1.82228
-1.48296 -18.3653
-1.38935 -18.7254
-0.385536 -21.5155
-0.641583 -21.7928
-0.752612 -14.7736
-1.09874 -14.7381
-0.561798 -0.888095
-0.452374 -0.824792
-0.0671066 -0.0609494
-0.0426131 -0.0650723
-0.219477 -0.442031
-0.25975 -0.394668
-0.27846 -4.29623
-0.183474 -4.09361
1.03666 -6.59047
0.887816 -6.3587
1.29841 -14.5848
1.50278 -14.8776
0.580453 -1.72677
0.729358 -1.732
-1.95795 -24.7123
-2.3123 -24.8507
0.0795209 -7.2651
0.218015 -7.02959
-0.65212 -4.92344
-0.611738 -4.68804
-1.27873 -12.4653
-0.986347 -12.2982
-1.03735 -23.596
-1.23352 -23.9228
0.335494 -14.1281
0.18641 -13.814
0.899656 -12.9477
0.899639 -12.6099
-0.515937 -8.7426
-0.67597 -8.99768
0.582669 -24.7122
0.565138 -24.3307
-1.13584 -6.76205
-1.30365 -6.9884
-1.38081 -24.3841
-1.35626 -24.7651
0.957599 -4.85887
1.09823 -4.6872
-1.77829 -13.4009
-2.11988 -13.4359
-0.471977 -4.11701
-0.254624 -4.11747
-1.23048 -5.85628
-1.41886 -5.70407
0.568676 -1.42978
0.455428 -1.32491
0.213178 -9.28297
0.503667 -9.36808
1.45373 -9.28755
1.335 -9.00095
-0.218283 -0.882874
-0.212469 -0.77602
-2.20416 -11.1534
-2.01718 -11.4102
-1.68442 -21.4238
-1.78094 -21.0598
0.202709 -0.685455
0.139489 -0.752084
-0.598619 -5.7897
-0.61441 -5.53828
0.869932 -17.4393
0.969752 -17.7971
-1.81143 -20.2512
-2.15532 -20.1096
1.01666 -3.8028
1.20548 -3.93484
1.35989 -10.167
1.07202 -10.0271
-0.157441 -0.107134
-0.111876 -0.0757284
-1.44365 -18.2886
-1.18984 -18.5559
0.876191 -9.50783
1.16864 -9.4401
0.726012 -3.19676
0.831358 -3.04897
0.422241 -2.71856
0.356767 -2.88743
0.65258 -8.85031
0.849614 -8.63841
0.475852 -3.50703
0.582821 -3.69422
-0.862227 -22.6912
-0.829072 -23.0703
-0.114759 -0.065672
-0.0847853 -0.0544994
-1.86279 -22.3846
-1.58983 -22.6451
0.00376485 0.000626949
0.00692179 -0.00464531
0.048505 -0.101502
0.0863175 -0.131948
-0.315746 -0.570107
-0.317624 -0.49089
0.564969 -1.56938
0.643533 -1.46892
1.08125 -15.6165
1.13984 -15.9707
-2.08373 -18.1715
-2.41479 -18.0137
-1.16262 -13.4812
-1.25924 -13.8132
-1.99576 -19.4441
-2.03076 -19.0734
-0.820863 -3.33829
-0.992944 -3.2608
-2.40317 -21.1442
-2.103 -21.3679
-1.44681 -10.9004
-1.39004 -11.2201
-1.4089 -7.74488
-1.18707 -7.90779
-1.25553 -7.91588
-1.13021 -7.65276
-0.133755 -0.131483
-0.0898192 -0.117064
1.13358 -13.7027
0.889545 -13.4543
-0.744104 -7.2552
-0.928366 -7.47236
0.0441027 -0.518748
0.117556 -0.489632
1.2326 -9.44365
1.51415 -9.35034
-1.76157 -11.1801
-2.07949 -11.2782
0.492095 -0.865041
0.386434 -0.865769
0.57044 -6.43459
0.707732 -6.67095
-0.149409 -4.07345
-0.364868 -4.06461
-2.39832 -23.9661
-2.69724 -24.2035
-0.990075 -6.52462
-0.914643 -6.26673
-1.70867 -10.1957
-1.63939 -9.88654
-0.17844 -0.0990382
-0.141801 -0.0714048
-2.10365 -11.5733
-2.05773 -11.8969
-0.866028 -3.50315
-1.05896 -3.45948
-0.273405 -2.07566
-0.113949 -2.09319
-0.0229474 -24.7628
-0.348979 -24.5699
-1.03225 -6.89645
-1.14886 -6.66214
-2.08399 -25.0824
-1.77939 -25.3096
0.507017 -1.91919
0.576478 -2.07391
-1.64317 -11.5731
-1.62335 -11.2441
0.720189 -23.2994
0.352665 -23.2077
-0.591271 -3.32108
-0.583944 -3.12296
-0.700182 -3.17856
-0.598221 -3.00227
-0.121509 -2.83836
-0.0968495 -2.65409
-0.239529 -19.4268
-0.556299 -19.6172
-1.91804 -8.36708
-1.65222 -8.4691
0.423159 -8.38217
0.576939 -8.14112
0.662701 -18.3424
0.993956 -18.5131
-0.229761 -0.251474
-0.180428 -0.198035
-0.0672585 -0.209843
-0.0981735 -0.266166
-1.74811 -9.5285
-1.53967 -9.74098
0.017804 -0.0040587
0.0291496 -0.0106514
-0.0442636 -6.01606
-0.283051 -6.11413
0.906993 -17.8578
1.16712 -17.6024
-2.08697 -17.1477
-1.97914 -16.7965
1.0028 -6.13867
0.870158 -5.90527
0.463972 -5.75568
0.236225 -5.84493
-0.091515 -0.0437922
-0.125794 -0.0619479
-1.21813 -3.80328
-1.00422 -3.75231
-0.602491 -1.2637
-0.724555 -1.36157
1.47695 -16.4228
1.21203 -16.1714
0.826828 -3.29915
0.98859 -3.21111
-0.228404 -0.705537
-0.254526 -0.807868
0.412774 -20.2318
0.635143 -20.5359
0.981108 -18.109
0.987518 -17.7369
1.29565 -6.81922
1.03827 -6.71761
-0.62597 -1.63101
-0.574895 -1.48612
-0.287202 -8.92713
-0.540077 -9.08827
0.0795706 -0.122391
0.0608955 -0.0821821
-0.157251 -8.20752
0.0228025 -7.98343
0.758923 -10.3374
0.722344 -10.0235
-0.908274 -15.5071
-1.17813 -15.2826
-1.84072 -16.4818
-2.14098 -16.6926
0.322266 -0.347244
0.400357 -0.39572
-1.38713 -5.91147
-1.12911 -5.89483
-0.312982 -23.8283
-0.243001 -24.2033
1.283 -22.7855
1.20747 -22.4125
-0.476909 -3.55188
-0.428452 -3.35029
-0.7393 -4.48212
-0.678424 -4.70043
-0.400004 -4.11486
-0.533889 -4.2979
0.305163 -2.62461
0.47938 -2.68505
0.0254176 -0.0352429
0.00386508 -0.0286042
-1.64631 -11.465
-1.80859 -11.1889
-0.876867 -17.0467
-0.878972 -17.4104
-2.79746 -22.9936
-2.64659 -22.6433
-0.256698 -13.3249
-0.542911 -13.5091
0.0777628 -0.200794
0.0519247 -0.151231
-0.018826 -4.66742
-0.00472203 -4.43757
1.19716 -23.1034
0.853249 -23.2625
-2.11275 -17.7846
-2.15662 -18.1552
0.139854 -24.1309
0.00159934 -24.4867
-1.30738 -14.7123
-1.6491 -14.795
0.910639 -9.32379
0.802731 -9.60483
1.13584 -23.2586
1.51537 -23.2417
-0.113541 -3.94903
-0.238862 -4.12927
0.0199054 -0.0838428
-0.0104269 -0.0705202
-1.21315 -12.2084
-1.41673 -11.9547
-1.01926 -13.3111
-0.92053 -13.6369
1.0251 -10.0993
1.31683 -10.2314
-0.301125 -0.702708
-0.212926 -0.728819
0.910725 -3.63672
0.811972 -3.80877
-0.463008 -1.15673
-0.591343 -1.17043
0.679338 -1.05394
0.563014 -1.05426
0.0846766 -0.0740476
0.124228 -0.0936945
1.23406 -12.4663
1.5423 -12.6121
-0.144607 -0.258929
-0.179565 -0.322693
-1.27819 -10.1518
-1.01257 -9.97609
-0.665906 -9.21639
-0.939828 -9.3509
0.00708199 -2.29164
-0.149761 -2.3581
-0.188563 -0.541449
-0.276566 -0.564318
1.30384 -10.795
1.00143 -10.8858
-1.76232 -12.1899
-2.04712 -12.0324
0.524236 -1.23633
0.654179 -1.2472
-0.204905 -22.3777
-0.398611 -22.7039
-1.08986 -3.61984
-1.29757 -3.69832
-1.49782 -13.8779
-1.24327 -13.6399
0.0839492 -0.109614
0.0663126 -0.139245
1.08863 -4.69301
1.05746 -4.46023
-1.63021 -12.0425
-1.62425 -11.7118
-0.136279 -0.13822
-0.0936528 -0.102672
-2.42412 -18.2984
-2.33022 -18.6569
-0.991167 -4.96877
-0.770057 -4.85221
-1.04323 -11.6937
-1.21822 -11.9784
-0.594384 -2.71006
-0.775772 -2.70601
-0.213272 -0.259233
-0.278709 -0.282053
0.152213 -1.74793
0.266255 -1.84998
0.694494 -6.91606
0.73278 -7.19037
-0.423591 -2.12816
-0.319569 -1.99382
0.349278 -10.532
0.221874 -10.2422
-0.967248 -5.13658
-1.00635 -4.90108
-0.0763432 -0.386106
-0.14791 -0.418494
0.521414 -6.27
0.504781 -6.53367
0.0657837 -19.8676
-0.265472 -19.6986
-1.00722 -21.963
-0.776045 -22.2616
0.972515 -5.47145
1.13729 -5.30237
0.103614 -0.644545
0.165511 -0.726138
-0.571949 -10.4049
-0.651199 -10.1022
0.907128 -3.44922
0.823416 -3.62465
1.23787 -18.4549
0.917894 -18.6382
-0.971865 -25.4125
-0.763173 -25.7286
-0.219049 -7.4966
-0.454603 -7.35239
0.131783 -2.30289
0.299962 -2.32415
-2.17672 -21.2463
-2.17804 -21.6243
0.447108 -0.601779
0.523189 -0.688436
0.0775874 -0.542598
0.122316 -0.477056
-0.114674 -22.1801
-0.463232 -22.0378
-0.72672 -1.09759
-0.644553 -1.15995
-1.11864 -20.4398
-0.850817 -20.1771
-1.64456 -6.5
-1.54365 -6.73494
0.331547 -11.5529
0.573039 -11.7803
-2.47154 -20.3834
-2.83757 -20.306
0.690764 -13.9015
0.920706 -14.1656
-0.465447 -13.5142
-0.801742 -13.5677
-0.453165 -3.11584
-0.455839 -2.92357
-0.594136 -14.1855
-0.286892 -14.0287
-1.8191 -16.5932
-2.16556 -16.4991
-0.0391734 -0.078657
-0.0133638 -0.097952
-0.868946 -8.07108
-0.603565 -7.95455
-0.784764 -22.0429
-0.860736 -22.4151
0.254405 -4.49992
0.368024 -4.70375
-0.762433 -2.66105
-0.698735 -2.48524
0.19928 -0.642401
0.108414 -0.618454
0.686456 -24.82
0.700203 -25.2021
0.16688 -0.725367
0.0702491 -0.722657
0.0924196 -0.671222
0.176079 -0.728937
-0.232821 -12.6215
-0.563028 -12.6628
-1.58782 -21.8902
-1.9418 -22.0231
0.0320278 -4.71511
0.169736 -4.53319
-0.446751 -17.3258
-0.730569 -17.1073
-0.863469 -8.1853
-0.95858 -7.91781
3.97346e-05 -0.0293723
0.0208254 -0.0430961
0.210564 -0.125707
0.26261 -0.169944
-0.136444 -3.33901
0.0438414 -3.42611
1.18852 -4.43104
0.96196 -4.42361
-0.771219 -2.38421
-0.597951 -2.37008
-0.615949 -0.843212
-0.54419 -0.742957
-0.805246 -6.89387
-0.980153 -6.69886
-1.89072 -13.2219
-1.99788 -12.9058
0.856311 -3.62862
0.902942 -3.83996
-0.343098 -24.9427
-0.7182 -24.8973
-0.0977934 -2.55749
0.0549305 -2.47046
0.13156 -0.0859704
0.175195 -0.105927
-1.66392 -16.6621
-1.91058 -16.4043
-0.115855 -1.07283
-0.228062 -1.12054
0.474954 -1.09708
0.596065 -1.10117
-0.990885 -3.48633
-0.904138 -3.29243
-1.30755 -14.7439
-1.2058 -15.0786
0.316273 -23.5011
0.387341 -23.8757
-0.514445 -0.828282
-0.432277 -0.870854
-2.62799 -24.6149
-2.90658 -24.3556
-2.12556 -22.2063
-2.07327 -21.8303
-0.25068 -0.60758
-0.281905 -0.702866
-1.46993 -16.5585
-1.72508 -16.8202
-0.476394 -1.6182
-0.50926 -1.48431
-0.00325493 -0.376211
0.0588891 -0.347415
1.18735 -5.19294
0.952231 -5.1008
0.497524 -12.4058
0.712098 -12.6686
0.446436 -1.58293
0.591285 -1.59751
0.725678 -1.35323
0.604133 -1.38371
-0.1929 -0.13025
-0.204726 -0.119161
-0.456821 -6.08669
-0.393781 -6.33895
-0.0106715 -0.00322434
-0.0468178 -0.0214345
-1.05602 -6.75989
-0.801814 -6.65868
-0.941067 -11.9187
-1.17603 -12.1573
0.596215 -16.2686
0.720048 -15.9338
-1.34323 -24.4671
-1.35066 -24.849
0.123146 -3.76107
0.0746946 -3.96997
0.308194 -25.4912
0.662696 -25.6295
-0.906122 -1.90983
-0.76801 -1.9556
-0.221159 -0.860365
-0.229911 -0.757417
-0.665346 -13.2501
-0.679752 -13.5924
0.529875 -0.914055
0.630998 -1.00664
0.608843 -24.319
0.536243 -24.6939
0.604895 -10.3779
0.918978 -10.4216
0.254151 -9.50929
0.201416 -9.81248
0.376906 -1.80289
0.250897 -1.8718
-1.2674 -13.2971
-1.07801 -13.5765
0.0611951 -6.99313
0.173002 -7.24668
0.713214 -2.95869
0.70502 -3.15014
0.00502819 -0.142246
-0.0343575 -0.127739
0.078513 -1.07308
0.125436 -1.1855
-1.5545 -8.19252
-1.26691 -8.13365
-0.0185044 -0.0265998
-0.00873646 -0.00872444
0.0354397 -20.9793
0.257131 -21.2847
-1.01864 -22.5053
-0.703032 -22.2969
1.1668 -22.102
0.817945 -21.9546
0.658832 -2.5349
0.560062 -2.37599
-0.960199 -8.1811
-1.23417 -8.29079
-2.45524 -24.8381
-2.71953 -25.1141
0.490465 -23.8652
0.589758 -24.2335
0.0166996 -0.0647223
-0.00977914 -0.052812
-0.821036 -2.92461
-0.64846 -2.98231
1.27272 -22.6756
1.37134 -22.3096
0.0457897 -0.0453551
0.0645263 -0.0427659
-0.693872 -3.97807
-0.69518 -4.1973
0.00462914 -8.07256
0.151148 -7.82806
0.153668 -1.79854
0.00124117 -1.78303
0.739344 -18.6013
0.369213 -18.5856
-0.193463 -24.7413
0.185233 -24.7494
-0.99792 -6.22754
-1.08816 -5.99236
-0.990237 -24.2208
-0.64466 -24.0651
-1.48096 -6.17769
-1.22008 -6.12528
-0.0763022 -0.0630729
-0.0850259 -0.0515909
0.495556 -24.9141
0.859564 -25.0247
-1.4436 -11.6257
-1.33254 -11.3116
-0.0694042 -1.18109
-0.047002 -1.06421
-2.76691 -22.898
-2.39727 -22.9812
0.780099 -23.9672
1.14938 -24.0582
-1.40976 -16.7698
-1.06351 -16.6664
0.287389 -0.266698
0.270901 -0.215362
0.173007 -0.276021
0.129044 -0.220778
0.452447 -0.851509
0.361299 -0.770865
-0.444096 -24.1522
-0.812428 -24.0676
0.622047 -3.02366
0.433063 -2.98299
0.255915 -9.77192
0.554532 -9.84716
-0.643605 -1.53292
-0.791548 -1.57711
0.0162701 -1.13094
-0.0337438 -1.02527
0.204437 -17.3243
0.47992 -17.0895
-0.686847 -12.8297
-0.396733 -12.9964
-0.0120369 -0.121074
-0.0261663 -0.0855641
-1.14118 -4.4095
-1.1209 -4.63421
-0.400354 -15.9432
-0.344702 -16.2983
0.274408 -17.523
-0.01468 -17.3013
-1.01695 -15.7571
-0.966466 -15.4039
-0.284491 -13.6558
-0.453396 -13.9563
-0.570227 -3.63618
-0.572138 -3.84757
-0.0577003 -0.187757
-0.0135175 -0.211012
-0.862202 -10.1829
-1.17609 -10.2041
-0.428892 -8.79182
-0.244585 -9.02488
-1.13525 -8.65452
-0.9121 -8.45265
-1.4839 -15.2931
-1.13158 -15.2886
-0.654793 -0.967062
-0.59844 -0.856156
-1.56818 -17.7349
-1.22858 -17.8778
1.12491 -25.1383
1.02824 -24.7685
-0.429397 -3.59585
-0.3772 -3.79715
0.131114 -11.9938
-0.185009 -11.9105
1.30815 -6.33123
1.05966 -6.39228
0.0721244 -2.34451
-0.0799488 -2.42338
0.0254559 -1.01801
-0.075889 -0.978056
0.475456 -3.94049
0.284755 -3.83509
-0.676342 -23.9378
-1.02459 -24.0872
-0.447705 -15.5054
-0.694099 -15.7619
-1.00559 -16.3672
-1.34478 -16.487
1.20621 -11.7422
1.08361 -11.4297
-1.1323 -12.6281
-1.30259 -12.3458
0.063078 -0.0303457
0.0567829 -0.0221336
-0.452351 -9.75833
-0.678448 -9.55503
1.33715 -8.95487
1.19795 -8.68138
-1.33 -16.3584
-1.53406 -16.6591
0.603673 -8.76867
0.894939 -8.83057
-0.302918 -8.27812
-0.395323 -8.00464
0.138981 -21.1933
0.166462 -21.5707
0.0666244 -20.1023
-0.256828 -19.917
-0.107278 -20.0268
0.205671 -20.2313
0.550857 -24.3325
0.305017 -24.6239
-1.95914 -20.3422
-2.19642 -20.0562
0.836531 -23.1504
1.19932 -23.0414
0.958241 -18.1436
1.32694 -18.1381
0.575367 -1.7742
0.537474 -1.91526
0.378761 -2.65361
0.238894 -2.53179
-0.301035 -14.7402
-0.467508 -14.4331
-1.35922 -7.19517
-1.14061 -7.01151
-1.95213 -22.8868
-2.27495 -23.0881
0.635872 -14.1428
0.677038 -13.7999
-1.83757 -13.4043
-2.03095 -13.6955
0.031529 -2.45707
-0.0907596 -2.33471
0.150906 -24.1858
-0.128398 -23.9287
0.131302 -22.1509
0.0221964 -21.7876
-0.626608 -2.35515
-0.677246 -2.20321
-0.906504 -16.8332
-0.552591 -16.8838
0.209639 -0.178723
0.207248 -0.144908
-0.743412 -4.1802
-0.930825 -4.32071
1.01819 -22.6409
0.693859 -22.4439
1.33474 -14.5541
1.06378 -14.7652
-2.29267 -13.9529
-2.04498 -14.1835
0.0921159 -0.108439
0.0837367 -0.0740239
-0.199333 -0.449689
-0.139312 -0.387669
-1.83099 -24.6815
-1.91961 -24.3105
0.672054 -13.7821
1.01413 -13.7973
0.908022 -10.4965
1.21155 -10.4228
1.06707 -19.7734
0.820911 -19.4887
-2.16687 -14.0213
-1.82524 -14.0638
0.369294 -1.9548
0.231733 -2.01811
0.486391 -15.967
0.131856 -15.9491
-0.983415 -8.41936
-1.05804 -8.14188
-0.126696 -0.561961
-0.194817 -0.522105
1.11664 -23.6887
0.770843 -23.8458
1.16346 -23.5015
1.05926 -23.1348
-0.00643307 0.000438525
-0.0141758 -0.00679939
0.693767 -5.43214
0.655795 -5.68091
0.35839 -6.19762
0.5572 -6.37537
0.00118454 -0.000233642
0.0158142 -0.00301572
0.0446008 -0.473597
0.0609949 -0.559181
0.333029 -3.25756
0.320149 -3.06003
-0.00714103 -0.0162358
-0.000570445 -0.00346596
-2.12553 -22.3264
-2.19941 -22.6997
0.661943 -12.4494
0.893236 -12.6993
-0.643453 -6.27879
-0.846778 -6.12898
0.378141 -1.02306
0.351573 -0.907196
-0.756023 -24.3566
-0.424291 -24.5387
0.413349 -5.05037
0.438324 -5.30195
-0.798832 -10.5476
-1.11284 -10.6216
-0.0449419 -0.0187171
-0.0111591 -0.00466561
0.988597 -5.31127
0.954775 -5.5574
0.410204 -0.592069
0.319719 -0.546016
-0.0651856 -7.02077
0.166073 -7.16842
0.513406 -0.855011
0.584793 -0.962553
0.533724 -9.79486
0.717922 -10.0506
0.897101 -14.8609
1.2129 -14.7209
0.574231 -1.69984
0.5269 -1.83339
0.136871 -2.44388
0.051833 -2.29083
0.845597 -10.2686
0.799793 -9.95614
-0.0335916 -0.691537
0.0288669 -0.620618
0.00267236 -0.00150623
0.00704807 -0.000398338
-1.38079 -17.4675
-1.49411 -17.8226
-0.05426 -16.2954
-0.243223 -16.6015
1.15395 -11.6908
1.48265 -11.7084
-0.426461 -1.10143
-0.404726 -0.981538
-0.681965 -2.96489
-0.498103 -2.89869
0.566005 -5.81705
0.330027 -5.88992
-0.513159 -0.705814
-0.442796 -0.61585
-0.0674668 -1.9761
-0.21848 -1.9358
-1.08184 -6.77952
-0.973762 -7.02119
-0.619563 -22.8815
-0.29568 -22.6862
-1.28851 -20.833
-1.20155 -20.4661
-0.38458 -20.2673
-0.0828888 -20.0491
-0.584646 -16.1041
-0.336222 -15.8478
0.7915 -25.3099
0.996759 -25.6324
-0.669683 -13.3387
-0.332723 -13.3678
-2.65154 -21.7988
-2.77624 -22.1581
0.512875 -4.38327
0.721502 -4.48814
0.718459 -5.49017
0.56842 -5.68382
-0.251298 -6.2888
-0.195851 -6.03435
-0.369802 -16.7218
-0.287232 -16.3698
0.835988 -19.3528
0.578978 -19.0798
-0.252069 -0.487738
-0.335392 -0.500811
-0.311047 -6.3125
-0.343929 -6.05407
0.00971912 -0.0177337
-0.00644439 -0.0172256
0.489135 -21.4672
0.526867 -21.8442
-0.410118 -0.731001
-0.438708 -0.834262
-0.35234 -7.72399
-0.632592 -7.75934
-0.112389 -3.20716
-0.202504 -3.38791
-0.779635 -4.65502
-0.549648 -4.60429
-2.30867 -13.8999
-2.00139 -13.7281
0.0969074 -0.34953
0.0436487 -0.301044
0.446554 -15.702
0.800446 -15.712
1.51048 -22.9043
1.17513 -23.0806
-0.640916 -14.078
-0.952043 -13.9355
0.542705 -5.60966
0.726567 -5.45003
-0.0744517 -1.07347
-0.0415724 -1.18632
0.198396 -0.171727
0.21114 -0.148054
-0.471862 -0.622563
-0.423349 -0.678051
-0.273264 -1.62003
-0.225292 -1.75423
0.396712 -0.9046
0.404855 -1.01834
1.15427 -22.6916
0.782845 -22.763
0.0222209 -0.00557311
0.05437 -0.0207661
0.254245 -0.492585
0.293014 -0.578868
-0.0402406 -6.55326
0.144385 -6.74842
-0.41779 -0.743852
-0.491979 -0.839549
-1.31751 -21.9358
-1.04483 -22.1957
0.843032 -12.8544
0.844507 -12.5172
0.278944 -10.8372
0.430983 -10.5557
-0.966974 -7.91919
-1.00647 -8.20661
0.955669 -25.01
1.33374 -24.9579
-2.6733 -24.0274
-2.35772 -24.2388
0.0950935 -0.0424162
0.0947196 -0.047606
-0.0535264 -0.0219876
-0.0858782 -0.0411942
-0.733396 -12.2482
-0.934519 -12.5175
0.77961 -2.21208
0.844386 -2.38066
0.685317 -22.4792
1.02847 -22.3221
0.61109 -7.48295
0.404487 -7.28852
1.16904 -4.78496
1.03966 -4.57281
-1.14063 -23.7604
-0.879216 -24.0352
-0.0182974 -3.2757
-0.0401288 -3.47771
-1.02168 -5.04586
-0.848072 -5.20231
1.16005 -5.09511
1.11141 -4.85251
-0.296688 -0.400119
-0.325776 -0.478084
-1.27662 -5.17304
-1.52516 -5.2132
-1.41247 -8.01567
-1.34262 -8.29073
-0.187534 -3.23432
-0.291454 -3.07182
-1.12397 -7.46051
-0.975415 -7.69046
-0.647767 -6.02075
-0.901573 -6.07129
-1.38549 -18.3113
-1.75586 -18.3277
-2.39148 -19.3142
-2.62922 -19.0316
1.38209 -16.4484
1.32158 -16.0916
-1.24289 -5.99867
-1.38961 -5.80383
-0.478575 -6.61705
-0.228709 -6.70376
0.0100416 -0.00340023
0.0427059 -0.0155714
0.543943 -13.9855
0.416821 -14.3061
0.108453 -5.9383
-0.00808789 -6.16816
-0.0544755 -0.0546877
-0.0621552 -0.0868418
-2.84788 -20.7474
-2.71382 -21.097
1.24458 -16.5304
0.988911 -16.7794
-0.200566 -2.00238
-0.22703 -1.84748
0.0966985 -6.82359
-0.0880789 -7.02057
-0.0300824 -3.2296
-0.205818 -3.14683
-0.882416 -25.1496
-1.17678 -25.3891
0.517532 -1.67006
0.483252 -1.80936
-2.10848 -15.3029
-2.45399 -15.2372
-0.0479707 -0.0511627
-0.0444729 -0.0296712
0.871299 -3.0363
1.04086 -3.16136
0.507812 -19.343
0.146636 -19.2563
0.641005 -1.97677
0.485105 -1.97772
0.0936366 -0.255177
0.100442 -0.320122
-0.0926646 -0.346484
-0.0560562 -0.284758
0.528203 -0.975585
0.440688 -0.878019
0.118389 -25.194
0.426866 -25.4161
1.31068 -13.4802
1.45183 -13.1758
-0.100809 -0.0582386
-0.139784 -0.0911586
-0.556789 -25.3588
-0.315843 -25.6516
-0.531541 -6.7224
-0.666484 -6.96205
-1.8022 -13.1182
-2.05225 -13.3608
-1.2059 -14.1601
-1.00089 -13.8777
-0.459132 -9.47315
-0.238248 -9.26431
0.0174194 -0.00538976
0.056014 -0.0235022
-0.0765113 -4.67436
-0.296277 -4.72038
-0.0368173 -0.0287702
-0.0177536 -0.0114023
-0.0257715 -12.7141
0.305057 -12.7603
-0.0396078 -19.4578
0.257037 -19.6838
-2.3633 -23.6402
-1.98466 -23.6611
-0.998933 -3.68932
-0.897761 -3.49551
1.04245 -22.8228
0.679481 -22.7137
-2.12378 -14.6256
-2.2515 -14.3071
-0.987049 -7.8083
-0.753038 -7.63856
-0.0459563 -12.1779
0.131126 -12.461
-1.83381 -21.6813
-1.97472 -21.3321
-0.0374289 -0.0835351
-0.0663106 -0.118623
-1.27045 -8.29063
-1.11909 -8.03503
-0.324353 -0.595439
-0.333766 -0.517332
1.07805 -10.2108
0.771232 -10.2614
1.47634 -8.646
1.26647 -8.42301
-0.603626 -17.2908
-0.859386 -17.5461
-2.27607 -22.0522
-2.6409 -21.9568
-0.415494 -14.839
-0.333705 -14.4978
-1.44082 -13.7673
-1.77814 -13.7152
0.841855 -22.066
1.04188 -22.3893
-1.30683 -22.6533
-1.34391 -23.0322
-1.42461 -23.495
-1.79441 -23.4166
0.380507 -7.54591
0.1716 -7.72884
-0.093108 -0.530083
-0.0183654 -0.567751
-0.191607 -12.9577
0.133863 -12.8808
1.09376 -23.0413
1.4261 -22.8597
-1.43559 -15.7679
-1.09715 -15.8709
0.689732 -1.79648
0.818676 -1.91308
0.30802 -0.481026
0.228795 -0.476261
-0.073019 -8.32875
0.0379566 -8.60163
-0.933121 -11.5848
-0.804241 -11.8834
-0.510282 -0.756606
-0.412037 -0.758382
-0.205871 -3.62804
-0.359217 -3.77596
1.03209 -15.7863
0.760948 -15.5503
-2.20883 -14.284
-1.9044 -14.1036
-0.637519 -14.9745
-0.413389 -15.2452
-0.339318 -4.588
-0.518869 -4.7379
-1.92069 -18.675
-1.78828 -18.3238
-0.138055 -10.3743
0.03863 -10.1181
0.130207 -7.20745
-0.0494629 -6.99839
-0.737314 -6.25913
-0.479206 -6.23007
0.488587 -12.4247
0.242906 -12.1964
-0.0349965 -2.66228
-0.210822 -2.70749
0.829665 -6.55853
0.915012 -6.81981
-1.18328 -16.7873
-1.5442 -16.809
0.105454 -0.814453
0.053872 -0.907082
-0.0138848 -0.00490976
-0.00368639 -0.00131033
-0.841231 -3.55287
-1.02909 -3.66957
-0.069941 -8.31083
-0.107843 -8.02271
0.648568 -8.2524
0.732147 -8.53714
1.02412 -10.2941
0.76803 -10.4673
-0.794595 -9.52071
-0.691404 -9.80874
-1.15911 -10.1518
-1.41142 -9.97803
-0.604967 -3.68467
-0.65174 -3.89549
-0.0247137 -0.0257801
-0.00688433 -0.0143428
0.334209 -1.64814
0.246956 -1.75427
0.484866 -0.718687
0.385551 -0.703611
-0.0845525 -0.946398
-0.00502135 -0.870974
0.507917 -23.3261
0.737093 -23.63
0.473685 -1.39597
0.611591 -1.41298
-0.0870387 -6.9692
-0.271939 -6.77255
-1.07696 -6.23481
-1.0111 -6.48409
0.351317 -5.09648
0.487528 -4.90247
-1.14623 -19.2416
-0.97425 -18.9124
-1.13376 -11.7305
-1.01789 -12.0356
-0.974482 -23.4441
-0.603884 -23.5164
0.434226 -1.52013
0.41442 -1.66128
0.61686 -1.80035
0.747217 -1.75107
-1.73428 -15.3539
-2.08061 -15.2919
-0.178662 -16.212
-0.484336 -16.3963
-0.768725 -2.10725
-0.742549 -2.26337
0.129285 -12.0302
0.236237 -12.3464
0.550432 -22.5062
0.286412 -22.2341
0.53602 -2.07636
0.659923 -1.99688
-0.302161 -2.72932
-0.420211 -2.88103
-0.00530809 -0.675521
0.0558776 -0.754452
-0.551017 -15.3529
-0.449184 -15.6935
1.06648 -7.62725
1.14372 -7.90689
0.91961 -3.45219
0.720223 -3.38993
0.478128 -1.93764
0.453074 -2.09211
-1.06774 -9.34802
-1.02575 -9.64949
-1.38559 -6.95918
-1.61306 -6.83185
0.536867 -1.48294
0.410205 -1.5242
0.942957 -2.17853
0.808704 -2.05236
-1.15506 -8.4372
-1.44642 -8.49072
-0.787422 -14.5924
-0.443606 -14.5435
-1.54059 -7.00264
-1.7445 -6.84381
0.208098 -21.0519
0.496012 -21.2955
1.03858 -6.3321
1.02602 -6.06987
-0.715361 -16.0809
-1.06118 -16.0015
0.719177 -7.80084
0.864875 -8.05547
-2.44506 -23.4906
-2.43971 -23.1098
-0.11781 -3.73259
-0.269723 -3.59314
-0.105453 -2.28698
-0.270485 -2.263
0.383148 -1.99477
0.449005 -1.86181
-0.296509 -3.61117
-0.467768 -3.73863
0.567857 -14.6969
0.668171 -15.0363
-0.127228 -3.2523
-0.299522 -3.35654
-1.71352 -10.422
-1.50758 -10.1686
-1.56586 -5.90784
-1.3318 -5.99256
-0.850044 -2.24939
-0.816257 -2.4071
-2.01756 -23.9287
-2.3209 -23.7012
-0.0620695 -0.897117
0.0292978 -0.84421
-2.0714 -16.0722
-2.06564 -15.7149
0.890236 -11.291
0.934356 -10.9671
-0.068654 -3.46037
-0.253328 -3.54929
-1.36875 -9.53039
-1.13521 -9.32268
0.321809 -4.85058
0.103372 -4.92766
-0.542383 -2.18594
-0.665487 -2.31959
0.393895 -3.61818
0.400231 -3.83018
0.336671 -23.999
0.0282114 -23.7781
1.1847 -11.3494
1.43818 -11.1576
0.14398 -0.300133
0.080542 -0.291099
0.166357 -1.04127
0.274048 -1.008
1.11016 -17.6228
0.751545 -17.5407
0.0888285 -0.45065
0.0211038 -0.487042
-0.883768 -4.03592
-0.736458 -3.86273
-0.614414 -12.2903
-0.600821 -11.9589
-0.549236 -8.38986
-0.792771 -8.23912
1.10146 -18.7637
0.732906 -18.8011
-1.82102 -24.2773
-1.5147 -24.0518
-0.84228 -22.5279
-1.19254 -22.3895
-0.0303091 -25.3904
-0.390939 -25.2759
0.251536 -8.00475
0.52872 -8.08104
-0.754405 -24.5702
-0.510867 -24.8615
-0.168135 -2.97204
-0.0920462 -3.14924
0.309309 -1.27805
0.442417 -1.28581
-2.39327 -16.4054
-2.50968 -16.7521
0.00505579 -0.332465
0.0265705 -0.403099
-1.83325 -19.6857
-1.47865 -19.5677
0.355743 -10.0214
0.113707 -10.2136
0.919574 -2.35064
0.925442 -2.52337
-0.410693 -0.569652
-0.339169 -0.595723
-0.0461842 -2.03172
-0.125872 -1.89463
-1.36627 -12.4645
-1.70002 -12.4596
1.01183 -3.9005
0.802429 -3.82951
-0.175263 -6.39766
0.0429946 -6.5461
0.673603 -21.8001
1.05041 -21.8064
-1.83454 -15.7193
-2.18536 -15.7966
0.0681657 -21.9248
-0.0134795 -22.2952
0.35675 -7.21901
0.152688 -7.03088
0.449939 -0.947876
0.335518 -0.928575
-0.0812784 -0.483641
-0.113526 -0.567044
0.381864 -1.24309
0.512725 -1.29858
-0.349452 -0.553232
-0.277797 -0.58081
-0.993326 -6.61493
-0.996351 -6.35027
-0.274625 -2.89132
-0.461462 -2.89067
1.64401 -12.3893
1.37758 -12.5782
-0.210347 -13.4361
-0.527346 -13.5592
-1.12125 -25.0005
-1.34447 -24.6928
-0.813481 -2.15597
-0.651014 -2.08951
0.8031 -6.70766
0.65319 -6.92319
-0.229637 -10.4061
-0.445556 -10.185
-1.00345 -4.3154
-1.04397 -4.54284
0.823732 -2.09794
0.959628 -2.22479
0.188714 -0.229551
0.178155 -0.278449
0.534202 -3.18374
0.394297 -3.31136
-0.349272 -20.3804
-0.609672 -20.6497
-1.07296 -10.8085
-0.749754 -10.7668
-2.12594 -17.9323
-2.09322 -18.3027
1.1157 -23.1941
1.13841 -23.5745
0.451239 -1.29371
0.573901 -1.27202
-0.845347 -6.95186
-0.770253 -7.21221
0.251619 -0.352998
0.234192 -0.287022
-0.185186 -2.32445
-0.221434 -2.16077
0.199035 -2.98994
0.0442683 -3.09862
0.270348 -9.41008
0.510785 -9.60192
0.25825 -0.479639
0.30504 -0.435985
0.00443027 -0.0735962
-8.06013e-06 -0.0424205
1.15268 -6.69712
1.3888 -6.59596
0.802301 -19.3058
1.1743 -19.3269
-1.99066 -13.8542
-1.88294 -14.1781
-0.522167 -21.6479
-0.850832 -21.8319
-0.0322884 -0.0101489
-0.0159864 -0.00248374
0.786158 -15.8154
1.10186 -15.9879
-0.525772 -14.2342
-0.848641 -14.1164
-1.18175 -22.0207
-1.11994 -21.6464
0.3678 -10.9313
0.175741 -10.6672
-1.07067 -10.3798
-0.929467 -10.6614
0.963159 -11.7043
1.12898 -11.9981
1.10449 -8.42065
0.920812 -8.18311
0.0510602 -0.0209849
0.0302432 -0.0110489
-2.35364 -23.1749
-2.33144 -22.7949
-0.159379 -0.490727
-0.0798354 -0.465962
-0.705666 -2.57082
-0.637666 -2.7283
0.614244 -9.33328
0.698217 -9.04562
0.72286 -10.0782
0.749464 -10.3935
1.08523 -4.49204
1.25343 -4.67568
-1.86222 -14.9862
-1.91176 -14.6407
1.35232 -12.4532
1.15735 -12.7178
0.696324 -8.15657
0.413974 -8.09674
-0.302865 -20.2967
0.0163307 -20.1055
0.940044 -12.5372
1.2509 -12.6741
-0.576285 -21.1522
-0.773972 -21.4739
-1.05632 -5.28476
-1.17954 -5.08533
-0.085427 -0.0496613
-0.0531925 -0.0298093
0.878569 -3.51953
0.96708 -3.71995
-0.676637 -5.62093
-0.926324 -5.66644
-0.779136 -6.02733
-0.61563 -5.82251
-1.00403 -14.7676
-0.933787 -14.4235
-2.14008 -24.0244
-1.83398 -23.7979
0.115335 -13.242
0.292187 -13.5365
0.864851 -5.41132
0.617466 -5.39545
-0.841043 -22.0615
-0.768071 -21.6893
0.0688343 -0.667945
0.121805 -0.596266
0.287419 -4.27937
0.207253 -4.48894
-1.17218 -10.3526
-0.978241 -10.0977
-0.775025 -3.92302
-0.990137 -3.92143
-0.539499 -4.64557
-0.569136 -4.41949
0.941613 -9.02852
0.648576 -8.96173
-0.642125 -4.66385
-0.514732 -4.85476
-0.923063 -6.57224
-0.876237 -6.30888
-1.24025 -4.58515
-1.44947 -4.72564
-0.279885 -24.2766
-0.136135 -24.6294
-0.341997 -24.5948
-0.304638 -24.2147
-0.249778 -0.374306
-0.239944 -0.308457
-1.60227 -16.7871
-1.90872 -16.6013
-0.0319376 -4.46538
0.0805263 -4.27075
-1.44551 -21.5668
-1.15307 -21.8025
1.30735 -6.12721
1.3736 -6.3879
-0.295333 -20.2237
-0.428835 -19.8734
0.920049 -5.90224
1.13613 -5.78683
-0.267683 -1.65157
-0.36974 -1.76569
0.686749 -3.0971
0.52736 -2.97151
-0.424126 -10.2382
-0.196564 -10.4462
1.16423 -11.7478
0.900233 -11.5409
-1.68343 -18.8988
-1.87581 -19.2209
-1.00517 -16.6585
-1.18341 -16.3468
0.748812 -14.6875
0.772759 -15.0394
-1.05351 -24.2418
-1.30667 -23.959
0.135615 -0.0879691
0.0950231 -0.0565306
1.09287 -3.43924
0.895784 -3.45809
0.425607 -21.6088
0.608851 -21.2797
0.716201 -22.0009
1.0666 -21.8633
0.170685 -7.14314
-0.0743625 -7.02136
-1.33785 -11.3442
-1.57669 -11.1318
1.13653 -24.3357
0.818593 -24.1258
-0.767641 -16.7997
-0.538842 -17.078
0.851498 -13.9135
1.19476 -13.9226
-1.92432 -10.231
-1.61261 -10.2688
-1.02499 -19.3562
-0.680973 -19.2235
-0.906236 -20.2447
-0.538328 -20.1917
-0.00617628 -0.00138933
-0.0374804 -0.0134387
-2.22093 -25.0676
-2.53284 -24.8493
-0.138922 -0.0811517
-0.184959 -0.117798
-0.468769 -3.32505
-0.616721 -3.47506
-1.259 -8.23585
-0.971875 -8.18222
-1.27993 -5.8115
-1.10926 -5.9866
-0.920245 -12.1594
-1.07444 -12.4585
-1.79086 -22.7428
-1.96342 -22.406
0.218755 -1.1206
0.12172 -1.04454
0.149569 -0.525727
0.221524 -0.499932
-0.13756 -4.32519
-0.217109 -4.11774
0.502205 -1.6383
0.419843 -1.50439
0.300012 -0.874789
0.213908 -0.92947
0.02796 -0.258013
-0.00353697 -0.31304
-0.829877 -6.52087
-0.674589 -6.73039
0.962958 -3.27833
0.8547 -3.09714
0.244694 -21.1575
0.546089 -21.3842
-1.28586 -24.2912
-1.38539 -24.6599
0.701349 -18.7382
1.0119 -18.9468
-0.216195 -3.73681
-0.198976 -3.95063
-0.699978 -2.44088
-0.525305 -2.41019
-0.248897 -3.35223
-0.397024 -3.22656
-0.965087 -7.26609
-1.2421 -7.28892
-0.100768 -0.154667
-0.0658701 -0.175751
-1.32274 -16.2704
-1.54596 -16.5566
0.563925 -7.28899
0.622237 -7.02184
0.100274 -22.2592
-0.22379 -22.066
-0.520257 -0.937094
-0.528031 -1.05016
0.156391 -2.49506
0.105567 -2.32583
-1.89195 -19.4967
-1.52384 -19.5431
-0.121444 -0.205622
-0.178351 -0.240187
-1.93069 -10.1382
-1.83038 -9.83555
0.666437 -17.7854
0.612183 -18.1538
0.116395 -0.176905
0.143266 -0.231971
-1.60394 -12.7113
-1.88632 -12.5422
1.35869 -16.9412
0.999598 -16.8821
0.23488 -2.42472
0.339183 -2.5749
-1.60171 -20.1881
-1.41574 -20.5115
-2.17299 -14.1574
-2.08362 -13.8198
-0.47671 -10.6076
-0.653273 -10.35
0.568446 -2.53887
0.45556 -2.6647
0.931547 -4.17303
0.889436 -4.38743
-2.01441 -13.7722
-2.35962 -13.7821
-0.579507 -1.9517
-0.680595 -2.09386
0.46134 -8.53576
0.749285 -8.5967
-2.11131 -11.6354
-2.07977 -11.3068
0.554683 -6.71148
0.497813 -6.44714
-1.31876 -13.1263
-1.15445 -12.8257
0.10534 -0.536798
0.0339396 -0.580049
-1.04763 -24.9631
-0.790521 -25.2419
-0.0335775 -0.107274
-0.0721414 -0.111213
-0.294511 -0.332487
-0.224801 -0.313047
0.562712 -14.2424
0.880566 -14.1162
0.0754462 -0.202542
0.0460053 -0.24525
-0.763268 -1.51433
-0.702427 -1.37375
-1.85295 -13.8872
-1.54204 -14.0256
-1.25246 -16.7946
-1.60004 -16.9012
0.291275 -12.9298
0.489249 -12.6616
-2.44388 -22.6117
-2.7787 -22.7938
-1.86479 -11.2431
-1.66795 -10.9714
0.120272 -1.95377
0.0401995 -1.81831
-0.000601007 0.00104984
0.0012063 -0.00321594
-0.0289392 -0.00957495
-0.00945227 -0.000299657
-0.0723077 -3.09532
-0.247133 -3.18356
-0.327537 -8.27835
-0.0397043 -8.2644
-2.35411 -16.7769
-2.01946 -16.6248
-0.0941414 -16.7896
-0.171318 -17.1442
-0.79097 -9.84001
-0.802656 -9.53207
0.128277 -22.055
0.348387 -21.7482
-1.24627 -5.92015
-1.04225 -5.74692
1.11355 -20.7174
1.309 -21.0418
0.343539 -9.30902
0.640186 -9.26859
0.55462 -8.65204
0.36202 -8.42412
1.06177 -24.4033
1.42648 -24.2933
1.5312 -8.54454
1.31934 -8.32436
-0.479302 -1.1957
-0.401363 -1.07928
0.594904 -2.63031
0.714499 -2.78548
-0.680483 -10.4157
-0.996699 -10.4303
-0.25333 -0.324143
-0.325188 -0.374918
-0.683889 -24.2438
-1.02602 -24.0826
-0.230322 -0.178243
-0.176282 -0.155375
0.949153 -19.7322
0.576675 -19.7183
1.07784 -9.87836
1.37087 -9.79831
0.0323929 -7.14241
0.275976 -7.0252
-0.094805 -0.0528212
-0.136868 -0.0835287
0.476639 -0.558466
0.436658 -0.474368
-0.410956 -2.66091
-0.403728 -2.84508
1.50717 -7.50681
1.32255 -7.27962
0.291742 -15.6392
0.598586 -15.8212
0.883646 -10.5354
0.568319 -10.5592
-1.10241 -16.2125
-0.746283 -16.2033
-0.447256 -0.83642
-0.41028 -0.925288
0.610825 -16.1722
0.947754 -16.2986
-0.477944 -1.4853
-0.593516 -1.42861
-2.23558 -16.5652
-2.32976 -16.9186
-1.13204 -4.15556
-1.13676 -3.94042
-1.59747 -12.3328
-1.43012 -12.6155
1.01052 -9.19332
1.29508 -9.11515
-1.31256 -7.3028
-1.20528 -7.04101
0.575686 -21.2652
0.645992 -20.8948
0.393097 -0.522173
0.482445 -0.5819
0.245275 -0.531837
0.290437 -0.619549
0.263697 -0.461821
0.293794 -0.546417
0.0674202 -0.0274431
0.0361361 -0.0136984
0.141916 -0.409354
0.0793154 -0.360793
-1.45358 -8.79515
-1.58548 -8.54052
0.238109 -3.08438
0.0478298 -3.05825
-1.50037 -21.1655
-1.13277 -21.2359
1.20538 -8.2212
1.3697 -7.99779
0.277041 -9.87917
0.275812 -10.1913
-0.317109 -7.89827
-0.590474 -7.82856
-0.14635 -9.90083
0.125406 -10.0434
1.44916 -11.9199
1.12462 -11.8443
0.0786081 -0.164588
0.0680476 -0.11804
1.02349 -2.81838
0.857646 -2.87331
-0.398558 -2.55082
-0.231543 -2.60147
0.474281 -1.12002
0.364108 -1.15501
-0.430849 -1.0974
-0.406235 -1.21403
-0.610529 -4.07317
-0.464375 -4.22993
-0.113179 -12.7776
-0.153245 -13.1141
0.109636 -0.058996
0.130768 -0.0866999
-0.0151693 -0.0368584
-0.0020908 -0.0177892
-1.67082 -17.6091
-1.31607 -17.5044
0.902628 -9.74256
1.20917 -9.73453
-0.755051 -3.76136
-0.802725 -3.97428
-1.7865 -16.0316
-2.10432 -16.2078
-0.495282 -0.825666
-0.394703 -0.83627
-0.793652 -2.166
-0.665036 -2.03943
-0.686115 -2.5723
-0.865101 -2.57842
-1.15522 -6.40265
-0.931628 -6.24729
0.00952067 -0.00267675
0.0483646 -0.0194456
-0.451859 -8.10638
-0.231237 -8.29031
0.781851 -3.43301
0.872793 -3.62941
-2.05635 -20.6922
-1.71887 -20.8515
0.417001 -25.213
0.605893 -25.5447
0.692823 -2.10182
0.541274 -2.01776
-0.56533 -5.65497
-0.81331 -5.6615
-0.810082 -13.7187
-1.02759 -13.9892
-0.738748 -22.5657
-1.09139 -22.4333
-0.304811 -0.979552
-0.386116 -1.08181
0.0845528 -24.161
0.0541136 -24.5417
-1.66464 -17.9088
-1.29732 -17.9513
-0.957113 -9.96967
-1.17265 -9.75452
-0.271893 -0.204967
-0.240471 -0.218881
-0.215693 -21.2714
-0.328268 -21.6323
-0.993002 -22.2211
-0.898684 -21.8534
-1.86785 -13.1549
-2.00451 -12.852
-1.2006 -8.4718
-1.34908 -8.73537
0.61762 -1.62558
0.766456 -1.65393
0.39949 -0.509646
0.451892 -0.596675
-1.00068 -14.1246
-0.720838 -14.3241
0.0850092 -7.62653
0.321536 -7.7844
-0.458544 -7.79503
-0.686808 -7.63517
-0.0857616 -0.188636
-0.0356238 -0.18686
-1.11825 -9.1272
-0.821408 -9.07212
0.719812 -4.2642
0.827462 -4.47378
-1.46734 -13.1336
-1.7554 -13.3251
1.42625 -14.0805
1.61562 -13.8002
0.676974 -1.8031
0.828401 -1.87582
-0.263055 -1.94046
-0.382007 -1.85349
-0.571204 -8.12195
-0.417649 -7.87598
-0.0933238 -15.3967
0.0470272 -15.7244
0.313432 -3.60979
0.465752 -3.48221
-1.61079 -18.0338
-1.83037 -17.7395
-1.44195 -6.44866
-1.4225 -6.18629
0.527605 -1.81427
0.469553 -1.94774
0.500508 -1.2027
0.575942 -1.33063
-1.38492 -25.5883
-1.01394 -25.5163
0.480044 -0.921028
0.596859 -0.954335
-0.849971 -4.52821
-0.62303 -4.55381
-1.066 -22.959
-0.818928 -22.6706
0.823165 -2.059
0.681102 -1.95302
0.35294 -8.62344
0.143594 -8.82785
-0.803492 -6.62222
-0.583093 -6.46464
1.29504 -16.4852
0.973345 -16.3163
0.28615 -8.56795
-0.000654049 -8.51173
1.40396 -8.35397
1.48629 -8.0833
0.477577 -1.94127
0.323271 -1.93789
0.396271 -20.9395
0.305805 -21.3055
0.616043 -3.06819
0.718579 -3.24768
0.800166 -3.13281
0.879008 -3.32545
0.821235 -2.22205
0.660934 -2.14435
-0.385097 -10.2074
-0.119785 -10.052
0.339802 -9.41217
0.327217 -9.71916
1.10537 -8.18177
1.07195 -7.89306
1.20103 -7.89007
1.45341 -8.04685
0.0693962 -19.5826
-0.300162 -19.5824
-1.88647 -22.4042
-1.64022 -22.1146
-0.214221 -0.227725
-0.22229 -0.190716
0.765084 -1.38659
0.696854 -1.25154
-0.689713 -2.46748
-0.560343 -2.57033
-1.08498 -8.56529
-0.824368 -8.42022
0.790742 -8.92956
0.585095 -8.70645
0.438821 -7.22895
0.401773 -6.95452
0.170051 -0.225944
0.223142 -0.278735
-2.06544 -22.8326
-2.44245 -22.8724
0.484248 -0.881365
0.534939 -0.809661
-0.858592 -5.33555
-0.858557 -5.58799
-1.59674 -7.70143
-1.31875 -7.73875
1.59959 -16.739
1.58018 -16.377
-0.625006 -4.9083
-0.784138 -4.74335
-0.141188 -4.63934
-0.347639 -4.73387
0.376496 -2.84398
0.557479 -2.82308
-1.39718 -8.62404
-1.52275 -8.36813
-0.968428 -19.2266
-0.626707 -19.3612
-1.0688 -5.0321
-0.884065 -4.85742
-0.510082 -1.06757
-0.492177 -1.18255
0.296919 -3.19244
0.28225 -2.99671
-2.5945 -17.7608
-2.23186 -17.8229
1.27495 -21.0721
1.24975 -20.6956
0.0438752 -2.85105
-0.139042 -2.82464
-0.0389963 -12.5093
-0.366867 -12.4616
0.188925 -9.91865
0.491166 -9.98138
0.315789 -7.34283
0.235655 -7.60989
0.552814 -4.90757
0.561834 -5.15293
-0.945993 -12.559
-0.797784 -12.8579
-2.05784 -9.94148
-2.06104 -10.2541
-0.181447 -0.123451
-0.134668 -0.100664
1.58826 -10.3574
1.50418 -10.6593
0.845056 -24.3076
0.468701 -24.2564
1.01533 -8.38132
1.21815 -8.18798
-0.699572 -20.9207
-0.849981 -21.2671
-0.26889 -12.3693
0.0566123 -12.4283
-0.0993018 -0.0906902
-0.130992 -0.094051
-2.36609 -17.6995
-2.61661 -17.4371
-0.704971 -2.15704
-0.543964 -2.09334
-2.78822 -23.2826
-2.44837 -23.4504
1.16689 -13.1364
1.26019 -13.4686
-1.68556 -14.027
-1.76069 -14.3684
-1.05666 -14.4551
-0.809541 -14.2075
-1.69475 -12.344
-1.45026 -12.5617
-0.657561 -7.68434
-0.91099 -7.5732
-1.78162 -9.29205
-1.92051 -9.03647
0.121489 -0.0712078
0.153587 -0.106003
-0.421288 -0.983197
-0.437855 -1.10265
-0.0359907 -0.030229
-0.0251495 -0.0116802
0.796656 -12.3645
0.944934 -12.0712
-0.243726 -0.179004
-0.204011 -0.179701
0.299854 -0.376521
0.271175 -0.307366
0.883947 -12.3585
0.94593 -12.0329
-0.746012 -6.31591
-0.982592 -6.2216
-0.253328 -0.973884
-0.156117 -1.02682
-0.390383 -12.2859
-0.641474 -12.0734
1.16717 -11.5495
1.49214 -11.6099
0.0274693 -0.0678025
-0.00212293 -0.0616561
1.17008 -4.72931
1.13694 -4.49557
0.999755 -4.70438
0.980729 -4.47157
-1.71832 -8.35031
-1.85616 -8.10859
-0.212786 -8.58656
-0.194186 -8.29306
-0.897101 -19.9059
-0.969796 -19.5398
-0.499539 -20.496
-0.598495 -20.1337
-1.46327 -11.9127
-1.39658 -11.587
0.473707 -9.40671
0.172491 -9.3906
-0.0295081 -0.446282
0.00424517 -0.376771
-0.199642 -0.130073
-0.15179 -0.107648
0.330109 -2.25537
0.463207 -2.17065
0.000135231 0.000745266
0.00485342 -0.000952189
1.22448 -7.72497
1.40403 -7.96194
0.0108069 -16.5357
0.0621185 -16.8942
0.423869 -0.522406
0.407892 -0.445474
0.0346202 -16.6587
-0.319069 -16.6118
-0.950407 -5.42198
-0.70554 -5.35379
-1.12085 -14.5924
-1.34844 -14.8632
-0.512345 -4.14833
-0.594935 -3.95112
-1.97064 -15.6337
-1.9015 -15.2835
-0.754055 -4.10525
-0.771891 -4.328
-0.134943 -0.943811
-0.0302607 -0.915724
0.291543 -20.815
0.22655 -20.4436
-0.352012 -0.686777
-0.290426 -0.746346
0.83816 -14.9535
0.535433 -15.1243
0.113417 -0.0588386
0.159665 -0.0898988
0.621334 -4.20951
0.783482 -4.07619
-0.477602 -4.85258
-0.543975 -4.63079
0.000258637 -7.64731
0.115181 -7.90922
-0.961679 -2.02157
-0.802278 -1.94772
0.624482 -9.65409
0.446074 -9.90105
0.433663 -0.440915
0.366183 -0.370264
0.667438 -2.58463
0.56983 -2.42333
-1.21523 -4.66048
-1.08278 -4.45443
1.19136 -4.96154
1.05164 -4.75001
-0.0372605 -0.0148667
-0.0255057 -0.0127633
-2.5401 -18.6952
-2.75039 -19.0083
0.0817153 -15.3096
-0.126335 -15.0236
-0.128833 -0.0681325
-0.0941368 -0.0511245
-2.06132 -13.9382
-1.85258 -14.2056
0.0597315 -0.525045
0.139344 -0.511409
-0.0566766 -13.3993
0.115044 -13.6972
-0.670685 -4.42685
-0.44498 -4.40349
0.942531 -4.09689
1.03761 -4.30989
-0.0588544 -0.0539702
-0.041322 -0.0277299
-0.500691 -4.55775
-0.72032 -4.64297
0.90258 -10.543
1.01699 -10.2523
1.20117 -11.6195
1.36606 -11.9147
-2.06621 -19.1545
-2.41626 -19.2901
0.105911 -13.886
0.127953 -13.5422
0.00849785 -6.94018
-0.212837 -6.78595
-0.0361799 -0.200364
0.00336683 -0.237655
-1.63717 -14.9083
-1.56996 -14.5622
-0.781654 -21.3545
-0.784181 -20.9767
0.315446 -19.3986
0.679242 -19.4775
0.284088 -17.4902
-0.00756101 -17.2724
0.453328 -22.0961
0.315517 -22.4491
0.881228 -2.82776
0.721812 -2.70774
0.0415998 -0.0141267
0.0449906 -0.0171314
0.0246202 -0.316129
-0.0337469 -0.350223
-0.548148 -5.19855
-0.686304 -5.00037
0.826553 -3.77789
0.946158 -3.97084
-2.30539 -13.6136
-2.32144 -13.2738
-0.200751 -0.347966
-0.260829 -0.411049
0.418242 -1.6665
0.30708 -1.55704
-0.0286974 -1.15494
-0.124009 -1.2234
-0.0917017 -2.78061
0.0862443 -2.82856
1.04427 -10.0072
1.19454 -10.2919
-1.1465 -24.5445
-1.43436 -24.2976
-0.48363 -1.05578
-0.494709 -1.17898
-0.367135 -21.1231
-0.0713357 -21.3551
-0.0752865 -22.586
-0.429694 -22.7156
-1.97476 -20.3518
-2.00756 -20.7268
-0.308439 -0.553234
-0.28125 -0.468772
1.16319 -3.8426
1.00054 -3.6812
-0.0184238 -0.38279
-0.0670435 -0.335043
-0.457216 -15.1261
-0.380839 -14.7817
0.310506 -2.58639
0.483428 -2.56367
0.381984 -10.6631
0.588227 -10.4262
-0.668035 -13.8673
-0.352498 -14.0002
-1.61842 -22.7993
-1.26905 -22.6535
-0.110468 -0.0915414
-0.0867845 -0.0585202
0.937664 -14.5716
0.992638 -14.2285
0.103729 -15.1677
0.418622 -15.0173
-0.24537 -0.174276
-0.221839 -0.136946
-1.52524 -18.1026
-1.88619 -18.1911
-0.315887 -9.52188
-0.615876 -9.48639
-1.44779 -5.44681
-1.29446 -5.23167
0.574635 -16.3255
0.237479 -16.4416
-0.119511 -0.0599592
-0.132257 -0.0761944
0.0240565 -0.00883807
0.0472187 -0.0236656
0.839574 -15.675
0.506244 -15.5501
0.352807 -19.9325
0.409551 -20.3041
0.112359 -2.32126
0.143297 -2.49462
0.161982 -0.325541
0.18796 -0.397946
0.361421 -1.78758
0.216349 -1.79584
-0.870786 -4.6844
-1.0764 -4.82405
0.294701 -1.65538
0.438751 -1.66552
-1.45013 -18.0233
-1.70349 -18.3014
-1.10942 -24.37
-1.47159 -24.4812
0.310949 -0.347774
0.293307 -0.285217
-0.465877 -3.89073
-0.65754 -3.81112
-0.381641 -0.62843
-0.287272 -0.605033
0.842395 -11.7232
1.03028 -12.0028
0.229658 -0.154315
0.24467 -0.194387
-2.30613 -20.3145
-2.22201 -20.6792
0.031301 -0.200125
0.081121 -0.230994
-1.1707 -12.5069
-1.41011 -12.7495
0.314582 -15.9301
0.669509 -15.9422
1.259 -25.6
1.43168 -25.2577
-0.0126144 -0.435241
0.0558364 -0.475746
0.0285864 -0.0888463
0.00210898 -0.113621
-0.694574 -16.4541
-0.400484 -16.2502
-0.955444 -21.441
-1.03535 -21.0721
-2.1801 -22.9719
-1.87108 -23.1896
0.213594 -0.545034
0.128479 -0.532089
0.118095 -0.0566651
0.0965965 -0.0425376
-1.04562 -13.5705
-1.14466 -13.2457
-0.000715128 -0.00337225
-0.00894009 -0.00275112
-0.616842 -7.90863
-0.899232 -7.95713
-0.924531 -12.8608
-0.841052 -13.1879
-1.02065 -7.62308
-1.25807 -7.48834
0.41564 -21.5419
0.568939 -21.1976
-0.139208 -3.32878
-0.337992 -3.33478
0.740652 -21.0087
0.441686 -20.7791
-1.35297 -15.5425
-1.69275 -15.4506
0.997247 -12.8216
0.766163 -12.5695
-0.727516 -3.25486
-0.895578 -3.17327
0.834222 -11.5879
1.05768 -11.839
0.777174 -20.4268
0.965924 -20.1047
-2.53495 -23.6451
-2.45466 -24.0172
-0.191993 -0.131324
-0.245572 -0.157316
-0.941537 -13.7905
-0.917901 -13.4472
-0.464517 -6.18808
-0.324335 -6.40659
-1.50691 -6.2363
-1.51839 -5.98022
1.04363 -18.1768
0.707615 -18.3262
0.628388 -1.87701
0.489184 -1.92124
0.762364 -7.0969
0.902187 -7.34445
-0.148969 -0.85699
-0.137462 -0.967584
1.51252 -11.5932
1.65645 -11.8999
0.0213341 -13.3845
0.359771 -13.3841
0.985774 -13.7479
0.65195 -13.6654
0.309681 -0.714907
0.402358 -0.783315
-0.0483397 -3.31882
-0.244011 -3.29258
-0.583625 -0.8525
-0.472101 -0.803176
1.00018 -6.10579
1.21662 -5.98609
-0.0338608 -23.216
-0.09467 -22.8402
0.304185 -3.23543
0.113429 -3.27406
-1.45084 -12.5953
-1.5243 -12.2723
-0.252953 -13.4824
-0.477772 -13.2274
0.103425 -0.340721
0.143035 -0.409598
-1.31046 -13.8165
-1.64711 -13.8966
-0.151013 -20.4946
0.181359 -20.6669
-0.546928 -24.6912
-0.873347 -24.4997
-1.2814 -24.8789
-1.65821 -24.8437
-0.722433 -1.83048
-0.658137 -1.95654
0.372135 -19.9829
0.546331 -19.6535
-0.0422856 -9.32333
-0.131125 -9.61613
-0.822262 -7.88895
-0.614764 -8.07915
0.845713 -13.3929
0.619888 -13.6432
-1.79645 -24.5653
-2.08803 -24.8103
0.116528 -16.8683
-0.0987714 -16.5789
-1.2726 -24.7915
-1.4999 -24.4867
0.504178 -23.4687
0.762553 -23.748
-0.653104 -15.1687
-0.68889 -14.8179
0.466992 -14.285
0.810574 -14.3276
-1.07973 -8.75649
-0.963051 -8.47997
-0.387833 -0.742864
-0.354757 -0.828443
1.04409 -17.996
1.11415 -18.3641
0.00214114 -0.332088
-0.0591957 -0.311244
-2.00672 -17.6112
-1.8804 -17.2619
-0.515529 -3.18071
-0.420415 -3.00374
-0.847737 -5.3187
-0.935247 -5.56182
-0.451196 -2.44858
-0.318414 -2.55339
-0.744868 -24.7021
-0.995936 -24.9882
0.623421 -4.03958
0.564352 -4.24779
-0.326995 -0.545163
-0.244666 -0.550335
-0.170185 -2.0037
-0.233381 -2.15722
-1.50188 -13.0146
-1.7725 -13.2299
-1.50311 -19.4298
-1.76314 -19.168
1.17671 -11.0067
1.46709 -11.168
-0.816227 -9.39842
-1.11947 -9.42564
-0.10671 -23.7611
0.253833 -23.6452
1.15686 -17.6943
1.44237 -17.4705
-2.04035 -17.2963
-1.79618 -17.0174
-0.9278 -11.1051
-1.11154 -11.3858
-0.0756849 -0.0341313
-0.12041 -0.0591583
1.38222 -7.72885
1.11453 -7.61764
0.275325 -11.9198
0.550632 -11.7488
-2.26682 -19.9665
-2.28548 -20.3412
-1.40248 -21.5841
-1.57329 -21.923
1.45731 -7.83149
1.35688 -8.09072
-0.909531 -2.18196
-0.7568 -2.0823
-0.0570048 -0.402629
-0.0746152 -0.481987
1.38204 -14.6985
1.19957 -14.3937
-1.35589 -9.00988
-1.20461 -8.74428
-0.298463 -24.9251
-0.673034 -24.8751
1.47342 -16.0782
1.4437 -16.4359
-2.17838 -17.2456
-2.52781 -17.3712
0.950883 -11.3131
0.674 -11.4772
0.399759 -14.9727
0.268349 -15.299
0.045652 -0.464013
-0.0318599 -0.45502
-0.143747 -6.92438
-0.41293 -6.9135
-0.440861 -4.20402
-0.273003 -4.34462
-0.386092 -20.3357
-0.63232 -20.0548
-1.68742 -22.7105
-1.43942 -22.996
-0.992308 -16.6564
-0.636071 -16.6255
1.19005 -14.7679
1.1087 -14.4244
-1.58853 -9.44543
-1.29954 -9.32957
0.123219 -2.22948
-0.0116072 -2.13109
1.20787 -22.2529
1.10352 -22.6173
0.483524 -1.20933
0.437585 -1.08214
0.92081 -5.24929
1.07677 -5.07766
0.314488 -1.08646
0.277533 -0.968569
0.948768 -25.0074
0.947954 -25.3901
-0.0813763 -1.9389
0.0739774 -1.96904
0.668096 -1.915
0.574777 -2.02412
0.231056 -4.29781
0.421636 -4.42187
0.823398 -8.00742
0.669538 -8.24393
-0.058325 -0.0871962
-0.024167 -0.0737895
0.0162016 -0.00264024
0.0168878 -0.00449868
0.596597 -23.2776
0.382769 -23.5919
-0.863822 -1.61155
-0.912663 -1.76069
-1.38691 -10.7975
-1.61676 -10.5855
-0.0047262 0.000709492
-0.0188153 -0.00513854
0.153525 -16.7829
-0.113595 -16.542
-1.90834 -24.5619
-1.67709 -24.864
-0.165357 -16.8844
0.192908 -16.8853
-0.101416 -20.9898
0.268742 -20.9373
0.0547951 -20.8359
-0.034915 -20.4698
-0.325107 -14.3979
-0.0717607 -14.6371
-0.775975 -14.914
-1.12167 -14.8687
-2.23003 -12.9479
-2.08116 -12.6378
-1.28404 -10.0921
-1.36327 -9.79514
-1.43113 -10.373
-1.73114 -10.4995
1.07331 -22.9569
1.35555 -22.7046
0.805841 -4.42772
0.908646 -4.23929
-2.70526 -24.2966
-2.90707 -24.6212
0.287398 -1.1953
0.175621 -1.25369
0.874843 -7.56628
0.685639 -7.76469
-2.50566 -21.6009
-2.13322 -21.5365
0.975309 -4.09878
0.939679 -4.31278
1.13822 -9.11266
1.43792 -9.15482
0.818757 -14.2309
0.864932 -13.8884
-2.23549 -18.6218
-1.88751 -18.4854
-0.470278 -1.11403
-0.409323 -0.996882
-1.86363 -12.972
-2.19936 -12.9403
0.540237 -20.2273
0.253654 -19.9849
0.248871 -0.229915
0.285952 -0.29048
0.840658 -3.95927
0.637147 -3.86987
-0.664929 -22.9263
-0.996483 -22.7461
-0.277049 -0.831653
-0.242843 -0.728697
-0.284712 -0.986917
-0.3591 -1.09286
0.185582 -6.73489
0.41298 -6.60324
0.785586 -21.118
0.627525 -21.4596
-0.609816 -1.7555
-0.667766 -1.90731
0.0359878 -14.0261
-0.148512 -13.7337
0.834848 -7.85066
0.930891 -8.12752
-0.872482 -15.9184
-0.572106 -15.7271
-1.91018 -9.56165
-2.00481 -9.28118
-1.28391 -18.7131
-1.65036 -18.6712
-0.547478 -7.4283
-0.815486 -7.51406
1.00979 -7.42252
0.97421 -7.14433
-0.0188366 -0.00390301
-0.015561 -0.00527034
-0.178732 -9.46679
-0.479011 -9.44111
1.08909 -20.1255
1.02142 -20.4943
-0.0865646 -0.0941804
-0.0804257 -0.126843
0.43154 -14.757
0.63766 -15.0452
-0.297327 -0.526286
-0.354436 -0.610735
-1.21339 -16.7315
-1.27491 -17.0901
-0.0728788 -0.105326
-0.0404385 -0.116922
-1.29183 -12.2932
-1.05402 -12.5191
-1.25618 -6.97196
-1.15293 -7.21796
0.265911 -13.5019
0.261694 -13.1598
-0.559621 -14.7259
-0.861111 -14.9051
0.665676 -22.4832
0.361544 -22.7076
-1.76265 -17.9526
-1.48464 -18.1938
-0.447407 -23.1579
-0.458891 -23.539
-1.35697 -13.1582
-1.69053 -13.2329
-0.585332 -21.0806
-0.956061 -21.0326
0.346614 -16.1063
0.572658 -15.8327
0.839668 -23.635
0.483506 -23.7655
-2.01177 -15.4945
-1.8146 -15.1939
1.33383 -7.92589
1.12158 -8.10165
-0.162965 -19.1875
0.0802339 -18.909
-0.483472 -0.853175
-0.459385 -0.948953
-1.00955 -8.13703
-0.968092 -7.8507
-1.38162 -21.3915
-1.42356 -21.768
-0.126958 -0.63594
-0.187626 -0.577755
0.136658 -0.199209
0.172017 -0.181527
-0.0594929 -0.277783
-0.0205472 -0.227908
-0.929098 -16.2084
-1.26304 -16.3395
-1.57291 -25.6974
-1.26186 -25.4795
0.813626 -17.5063
0.76727 -17.8729
0.643889 -13.5218
0.766327 -13.2062
-1.24271 -24.4079
-1.51486 -24.1434
-0.148351 -13.7576
0.073348 -13.4981
-0.306551 -2.51484
-0.471095 -2.59555
0.0251959 -0.0187718
0.0145946 -0.00452481
1.03776 -6.65068
0.891367 -6.86512
-0.700822 -1.2305
-0.593362 -1.2755
0.807973 -9.65723
0.553486 -9.82064
0.427525 -2.47839
0.366092 -2.30962
-1.2302 -9.32053
-1.37742 -9.59553
1.17414 -21.8809
0.832226 -22.0387
0.226174 -2.24246
0.165816 -2.39996
-0.19603 -0.245849
-0.188692 -0.195228
-0.447576 -1.02474
-0.457528 -1.14594
-0.433373 -22.0264
-0.274754 -22.3706
-0.300487 -0.233218
-0.252723 -0.232742
-0.185635 -1.7364
-0.0986828 -1.86092
-1.89114 -23.4799
-1.58714 -23.2514
-2.48457 -25.6145
-2.70974 -25.3059
-0.466181 -3.61396
-0.452451 -3.8238
0.94282 -10.6263
0.650804 -10.4874
0.379804 -2.38286
0.550831 -2.42174
-0.757079 -4.56795
-0.630209 -4.75437
0.0155069 -0.00239233
0.0280163 -0.0106441
-0.313412 -2.15141
-0.322946 -1.98933
-0.560336 -1.89076
-0.702877 -1.98714
-1.804 -12.7343
-2.13365 -12.8248
-0.527215 -8.01927
-0.483457 -7.73533
-0.410469 -15.9583
-0.0820422 -15.8252
-0.35384 -0.705797
-0.321923 -0.79033
-1.14834 -5.72889
-1.38179 -5.85832
-2.51755 -18.9893
-2.21892 -19.2065
-0.472356 -1.72323
-0.337506 -1.76438
-0.474476 -14.871
-0.810501 -14.9689
0.639223 -22.3699
0.395983 -22.6598
-1.72233 -18.1942
-2.07282 -18.0836
1.37205 -13.9856
1.62775 -14.2303
0.0319102 -4.15528
0.227997 -4.06613
-1.02223 -23.5898
-0.903483 -23.9517
0.459179 -1.06503
0.548435 -1.17572
1.31159 -16.8783
1.48441 -17.2049
0.8136 -11.3309
0.510463 -11.4424
1.16781 -22.1059
1.29936 -22.463
-1.78512 -9.94466
-1.63886 -9.66166
-0.00540363 -4.16854
0.0323833 -4.39055
-0.0820907 -0.0467701
-0.0595507 -0.0261774
-0.898942 -4.93852
-0.665582 -4.98314
-0.810104 -19.0708
-0.745022 -19.4358
-0.336283 -0.293654
-0.272243 -0.279093
0.31649 -6.23902
0.1602 -6.44603
0.458261 -1.79938
0.450945 -1.6494
-0.0834139 -0.956198
0.00894382 -0.899022
0.198689 -12.9572
0.145391 -13.2927
-0.135534 -12.4036
-0.463945 -12.3676
-0.0361787 -5.98215
-0.276353 -6.07606
0.978508 -3.16811
0.885726 -3.3267
0.214139 -23.0642
0.59169 -23.0849
-0.00732676 -4.16306
-0.00736679 -4.3882
0.636001 -14.382
0.629391 -14.7321
1.33633 -9.57518
1.46827 -9.864
0.114604 -0.0762426
0.143322 -0.0818889
0.774154 -8.64911
0.499009 -8.74164
0.746415 -4.44158
0.862481 -4.65249
0.376161 -10.5033
0.351657 -10.1883
0.833676 -9.41282
0.710523 -9.68856
-0.987934 -15.7465
-1.02929 -15.3933
-0.444117 -9.90383
-0.748749 -9.87347
-0.012095 -0.00622741
-0.0572572 -0.0276374
0.913604 -22.6666
0.715804 -22.9901
-1.71991 -20.7399
-2.00583 -20.9873
-1.02882 -4.43466
-0.992958 -4.6571
-0.14073 -9.11038
-0.438651 -9.12291
-0.19566 -9.96497
0.0514392 -10.1484
0.317261 -0.323344
0.248696 -0.275609
-0.276996 -6.71507
-0.345015 -6.97894
0.229151 -2.66714
0.25572 -2.85256
-1.17597 -10.3695
-0.908427 -10.1931
-0.152486 -0.136308
-0.194558 -0.144272
-1.98441 -19.9032
-2.19316 -19.597
0.595731 -3.69154
0.424626 -3.79975
-0.239821 -0.172372
-0.185928 -0.148729
-0.0936387 -0.129124
-0.13875 -0.165899
-2.33908 -22.2782
-2.06185 -22.0177
-0.186581 -9.06934
-0.446128 -9.2206
0.257504 -7.23853
0.523908 -7.31519
0.752376 -3.45826
0.608089 -3.58742
0.00542519 -1.07322
0.108545 -1.03228
-0.0770928 -0.151501
-0.114227 -0.197592
0.347276 -10.8336
0.612561 -10.6587
-0.289458 -0.43478
-0.339062 -0.514425
0.692605 -19.5134
0.868158 -19.846
0.137569 -0.0739482
0.0996235 -0.0462583
-0.216524 -0.339365
-0.225135 -0.283839
0.0744928 -0.478222
0.128471 -0.428553
-1.51008 -18.525
-1.267 -18.2369
0.136099 -0.103552
0.13036 -0.13059
-0.505925 -15.824
-0.704268 -15.5296
-0.050899 -0.595522
-0.118154 -0.664466
-2.34194 -19.0153
-1.97328 -18.9564
-1.37025 -14.6473
-1.08964 -14.85
-1.51939 -9.65952
-1.82301 -9.62097
0.894101 -16.6852
1.23796 -16.8047
-1.06317 -12.7098
-1.32078 -12.9337
-1.84246 -21.0964
-2.19997 -20.9854
-0.242395 -0.325641
-0.253934 -0.275975
-0.509539 -9.70072
-0.805364 -9.7827
0.719585 -2.37524
0.891301 -2.4378
1.14278 -20.2071
0.855106 -19.9637
-1.17784 -5.68143
-1.43264 -5.69271
-0.351643 -2.64572
-0.17395 -2.66574
-0.0678411 -0.13027
-0.0284024 -0.107835
1.2239 -20.9087
1.20229 -21.2854
0.668256 -1.21789
0.636169 -1.33326
0.810742 -20.6157
0.463213 -20.7523
-0.472826 -9.30086
-0.753242 -9.41797
0.56937 -1.53224
0.518002 -1.38929
-1.39766 -6.00963
-1.19861 -5.82602
0.329583 -1.58617
0.221875 -1.6625
0.944265 -13.9556
0.625462 -14.0761
-0.681613 -16.3753
-0.328314 -16.4174
0.417484 -7.76661
0.451049 -7.48663
0.484492 -17.4007
0.822582 -17.5458
-0.283077 -2.60727
-0.348286 -2.78257
0.579848 -17.3027
0.655308 -17.6642
-0.491714 -21.9788
-0.421396 -22.3517
-0.0728385 -25.4389
-0.451026 -25.4474
0.864169 -14.9913
0.737563 -15.3183
-1.66094 -21.5551
-1.43729 -21.2494
-1.64942 -11.9708
-1.96474 -11.8839
1.05106 -17.7034
0.695934 -17.7887
-1.29498 -21.261
-1.17179 -20.9035
0.685265 -24.3036
0.367551 -24.0951
-1.42433 -6.44419
-1.18707 -6.30455
-1.12023 -13.8362
-0.879051 -14.0779
0.522699 -0.797998
0.436264 -0.828247
0.959278 -11.0004
1.08881 -10.7095
-1.74514 -19.5299
-2.11305 -19.4779
-0.543061 -4.26069
-0.688434 -4.44179
0.0357544 -23.7316
0.29354 -23.4523
0.378135 -23.2411
0.418236 -22.8625
0.458528 -5.08987
0.352935 -4.86627
-0.490144 -8.31388
-0.230927 -8.18342
-2.13739 -18.8083
-2.48627 -18.6859
-1.64152 -15.9925
-1.37548 -15.749
-1.14625 -10.6967
-0.907694 -10.4735
-0.482807 -14.1614
-0.49241 -14.5101
0.0110063 -0.0532225
0.0228735 -0.0335307
-1.94377 -14.1445
-2.21556 -13.9422
0.619833 -1.71598
0.470937 -1.67601
-1.89021 -21.26
-2.07709 -20.935
0.0439873 -4.85497
-0.177436 -4.87269
0.476802 -18.886
0.793122 -18.6939
-0.702077 -1.379
-0.725974 -1.25894
-0.519085 -25.4044
-0.853013 -25.5828
0.959136 -6.82495
1.18662 -6.70161
-0.423998 -3.245
-0.565781 -3.39717
-0.227477 -0.279614
-0.163391 -0.255842
-0.492254 -2.97623
-0.421034 -2.79564
1.29662 -25.531
1.03103 -25.8076
0.718009 -20.7797
0.851219 -20.4293
-2.8437 -21.0973
-2.46711 -21.0709
-0.023376 -0.143045
0.00565774 -0.181099
0.023638 -0.019918
0.0466179 -0.0380254
0.505138 -0.960204
0.407342 -0.87508
-0.943792 -14.3557
-0.934031 -14.0081
-2.21024 -24.43
-2.53928 -24.2401
1.04143 -15.881
1.38253 -15.9948
-0.00677978 -0.00182544
-0.0116833 -0.00135532
-3.01871e-05 0.000560964
-0.00266202 0.000974788
-0.906847 -6.4888
-1.07417 -6.70814
-0.0214855 -4.41629
0.0580618 -4.20622
-0.0422024 -0.0196495
-0.0581527 -0.0404996
0.177251 -0.51849
0.158598 -0.600725
0.228115 -4.67212
0.168138 -4.89709
-2.75957 -22.5925
-2.48152 -22.8483
0.26361 -0.54358
0.352353 -0.566298
-1.74375 -24.0089
-1.88621 -23.6561
0.336873 -0.677514
0.387725 -0.618531
1.17361 -4.25594
0.958046 -4.28566
-0.16725 -11.9991
-0.107126 -12.3254
0.914264 -6.22709
1.00238 -6.48302
0.460145 -3.45958
0.5526 -3.28849
-1.35153 -5.36518
-1.25521 -5.58523
0.997216 -10.6645
0.715659 -10.5024
-0.211677 -2.20246
-0.376997 -2.20537
1.25271 -11.1706
1.55528 -11.0712
0.970203 -13.8555
0.630805 -13.8009
-0.296625 -4.73318
-0.0725447 -4.72785
-0.138679 -13.8559
-0.252346 -13.5308
-0.633595 -3.20389
-0.451006 -3.26311
-1.90392 -24.6663
-1.99725 -25.0367
0.604901 -0.971745
0.513389 -1.01295
1.5881 -10.1879
1.45054 -10.4627
-0.702418 -20.4103
-0.616172 -20.0446
0.891815 -8.84803
0.685034 -9.05371
-1.67683 -17.4868
-1.97583 -17.2821
0.0300525 -23.5682
0.00870343 -23.9492
0.697798 -3.36764
0.541056 -3.2276
0.64899 -14.6201
0.641605 -14.9716
-1.57636 -7.17893
-1.52014 -7.44423
0.417612 -0.536492
0.506945 -0.601694
-0.0836205 -20.5312
-0.450544 -20.596
-1.27583 -13.5692
-1.52961 -13.3489
-1.57135 -24.4879
-1.20743 -24.5916
1.37447 -25.2032
1.13927 -24.9019
0.443551 -7.9094
0.441504 -7.62417
-1.55474 -24.9265
-1.43224 -24.5649
-1.5057 -9.64889
-1.50166 -9.95775
-0.469791 -4.53748
-0.686907 -4.6262
0.532651 -7.67965
0.484401 -7.39994
0.0198921 -0.744304
0.0224337 -0.644956
0.375123 -20.0799
0.0276159 -19.9439
-2.4233 -23.5695
-2.54761 -23.2105
0.107698 -1.83449
0.189411 -1.71086
1.11256 -24.6018
1.09852 -24.9837
-1.36505 -12.5564
-1.04043 -12.6248
-1.28249 -15.9121
-1.62356 -16.0233
-1.89312 -10.0133
-1.82674 -9.7058
0.140906 -14.6545
-0.0428669 -14.9518
-1.09479 -25.5919
-1.19545 -25.2249
-0.431599 -9.4166
-0.731058 -9.38366
-1.51473 -25.4773
-1.49179 -25.0964
-2.12883 -23.3792
-1.88144 -23.6665
0.651372 -1.98967
0.649738 -2.15001
-1.16437 -5.71357
-1.20165 -5.468
0.108638 -0.0528847
0.0680563 -0.0282911
-0.0199511 -0.00858417
-0.015737 -0.00405357
-0.124551 -0.317931
-0.168029 -0.284506
-1.20041 -16.0904
-1.46584 -16.3356
0.0146561 -0.0495173
0.00818346 -0.0241262
0.71799 -15.9371
0.953491 -16.2116
-1.24961 -23.7404
-1.62129 -23.6712
1.39083 -9.95995
1.15087 -10.1443
1.11838 -6.42769
1.05592 -6.68115
0.937474 -13.4355
1.16637 -13.1918
0.223826 -0.599029
0.230159 -0.514733
0.348048 -15.382
0.313005 -15.029
0.34157 -24.5764
0.408272 -24.9524
1.02658 -8.74442
0.742014 -8.65359
1.09016 -6.09533
1.00957 -6.33652
1.1609 -14.0128
1.33911 -14.3173
-0.875388 -8.0691
-0.7519 -7.80555
0.21392 -0.333111
0.279564 -0.337579
0.359229 -16.7315
0.0305416 -16.5862
-1.46074 -13.8148
-1.1254 -13.8794
-1.5741 -24.7144
-1.87925 -24.4887
0.0396378 -0.445149
0.11695 -0.455131
0.132704 -0.325672
0.110609 -0.387504
-0.123819 -0.707829
-0.196605 -0.655355
0.161751 -6.62384
-0.0414856 -6.79531
-0.00716715 -0.56291
0.0491535 -0.635682
1.52518 -17.3136
1.17141 -17.3955
-0.0459494 -0.0179466
-0.0624417 -0.0291552
-0.0465087 -1.96176
-0.188241 -1.89659
-1.06519 -2.45634
-0.887556 -2.40294
-2.45402 -20.245
-2.4892 -19.8728
-0.0513406 -6.34967
-0.306087 -6.29572
1.2526 -14.6288
0.976117 -14.8339
-0.293415 -13.2157
-0.292738 -13.558
0.540143 -17.8362
0.232117 -17.6303
-0.822886 -2.5168
-0.789923 -2.6856
-0.0218314 -0.00705717
-0.0409146 -0.023892
0.167812 -0.144218
0.135195 -0.154159
0.145649 -12.232
-0.0706153 -11.9815
0.296524 -1.22803
0.42847 -1.2454
0.73224 -17.4769
0.434398 -17.2609
-1.17501 -10.6868
-1.03688 -10.3925
-0.750427 -12.8152
-0.51938 -13.058
0.0321821 -0.359767
0.0804035 -0.316496
-2.2413 -16.5511
-2.29729 -16.1975
0.665018 -21.8985
1.00946 -21.7473
0.278896 -0.475728
0.315125 -0.561165
-0.73565 -24.7654
-1.09792 -24.8751
-0.497508 -3.82388
-0.391702 -4.006
0.64743 -6.9646
0.383737 -6.89585
-0.215122 -0.964198
-0.14161 -0.8742
-1.37065 -12.9746
-1.51861 -12.6771
0.161432 -2.42969
-0.0108484 -2.43077
1.08698 -4.17553
1.1142 -4.40094
0.501489 -21.0172
0.734991 -20.7242
-1.6929 -24.3232
-1.88968 -24.65
0.858667 -8.05294
0.788867 -8.33094
1.10502 -7.93395
0.90631 -7.7167
0.684654 -1.7307
0.837691 -1.76139
0.462466 -0.610718
0.40981 -0.522641
-1.03125 -8.84844
-0.784423 -8.67511
-0.854907 -1.60093
-0.852114 -1.74278
0.171047 -8.66186
0.133853 -8.36859
-0.608216 -11.804
-0.895675 -11.6602
0.639483 -6.17183
0.870783 -6.3073
0.0466186 -3.32754
-0.0517271 -3.15426
1.35665 -16.0692
1.49696 -16.4051
0.0326482 -6.56191
0.241092 -6.40393
-0.0236389 -1.98031
-0.0642977 -1.82825
0.146697 -0.944854
0.103466 -0.840238
-0.472574 -3.20194
-0.383479 -3.37468
0.967629 -10.1591
0.894959 -9.85167
0.8308 -6.65957
0.784531 -6.39371
-0.765337 -9.78778
-0.589313 -10.0402
0.360968 -11.6956
0.556709 -11.9652
-0.26502 -1.21429
-0.189431 -1.10525
-0.0486184 -17.2429
-0.404654 -17.2169
-1.33771 -22.9011
-1.65622 -22.6987
-2.15815 -23.9844
-2.05792 -24.352
-1.79414 -7.43691
-1.59932 -7.61996
-1.32765 -19.2058
-1.07692 -19.4761
0.191983 -1.12703
0.119066 -1.02847
-0.844786 -5.89715
-0.59323 -5.90638
0.00788691 -15.6663
0.341942 -15.5548
0.304247 -0.485541
0.362387 -0.567071
-0.801578 -6.70273
-1.06712 -6.68459
0.593153 -4.10928
0.512321 -3.90078
-0.171795 -0.247602
-0.146678 -0.291291
-0.584759 -2.63754
-0.461385 -2.49458
1.12221 -15.9581
0.768412 -15.9112
0.914888 -16.4223
1.2519 -16.5568
-1.85032 -23.6077
-2.13841 -23.857
-1.61918 -7.56981
-1.60751 -7.8504
0.0547476 -0.0213662
0.0260805 -0.0107961
-0.642662 -5.89018
-0.839602 -5.74434
-0.467603 -1.67783
-0.469736 -1.53344
0.591634 -2.1299
0.49907 -1.98273
-0.623318 -2.80529
-0.6279 -2.62345
-0.92158 -6.57384
-1.1112 -6.77639
1.2672 -12.9902
1.48097 -12.7389
1.51512 -9.9628
1.45473 -10.2663
0.62401 -19.1294
0.924042 -18.9124
-0.724504 -1.30546
-0.800329 -1.44048
-0.00284137 -0.00877337
0.0103281 -0.0119527
-2.27436 -22.571
-1.90073 -22.6266
-0.281976 -0.732475
-0.190371 -0.75714
-0.633241 -22.0419
-0.983801 -21.9063
-0.302997 -12.268
-0.453684 -11.9741
-1.86809 -18.1581
-1.52457 -18.0128
0.481204 -3.81627
0.535316 -4.02947
-0.293953 -21.325
-0.5589 -21.5929
0.319373 -0.327751
0.308939 -0.381919
-1.1641 -3.74034
-0.95118 -3.70288
0.886878 -3.57143
0.925661 -3.78196
0.853274 -25.4843
0.727425 -25.1233
0.919958 -20.8286
1.28747 -20.7566
1.38841 -18.661
1.5714 -18.9907
-1.37298 -25.243
-1.18972 -24.9088
0.174529 -2.11419
0.322246 -2.06076
-0.119738 -1.14199
-0.190413 -1.04839
-1.51101 -9.48765
-1.59356 -9.20117
0.0443743 -0.758141
0.13661 -0.804564
0.0937205 -3.92474
-0.0957001 -4.02365
-0.234648 -16.3819
-0.241205 -16.0219
0.983296 -4.41296
1.1466 -4.59628
-1.64719 -14.8869
-1.68434 -15.2386
-0.808054 -22.9232
-1.18187 -22.8735
0.502239 -3.6007
0.438037 -3.79641
-1.52083 -5.68863
-1.28881 -5.55685
-2.82854 -25.3789
-2.63866 -25.7113
0.102129 -6.9361
-0.0108134 -7.18497
0.00309621 -2.52982
-0.157213 -2.60772
1.36762 -7.82971
1.24837 -7.56228
-0.449299 -1.1814
-0.565483 -1.27406
-2.54979 -23.1374
-2.83222 -22.8856
-0.136401 -0.385302
-0.0711939 -0.408588
-0.425049 -1.34714
-0.432918 -1.49028
0.00335176 -0.00292238
-0.00601928 -0.00575608
1.03823 -8.25471
1.25654 -8.46339
1.14349 -11.0277
0.8702 -11.1899
0.244921 -1.08793
0.137642 -1.02895
-1.91436 -24.4389
-2.03193 -24.0764
0.00806855 -16.2143
-0.125158 -15.881
0.312376 -0.47958
0.346765 -0.565397
-2.22669 -22.9877
-2.5343 -22.7682
0.929432 -7.53015
1.02415 -7.27428
1.6313 -15.3968
1.46982 -15.7074
0.549158 -23.8227
0.79247 -24.1156
0.579705 -1.59837
0.436941 -1.54684
0.013296 -12.2023
0.114777 -11.888
-2.64429 -24.0304
-3.0108 -23.9285
-1.92667 -21.6587
-2.14367 -21.9707
1.00659 -13.0503
0.838345 -12.7511
0.120346 -0.0591487
0.0775512 -0.0335358
-2.07562 -21.8988
-1.7132 -21.9994
-2.03841 -23.4697
-2.03364 -23.8508
0.448316 -0.71251
0.418874 -0.794437
-2.84724 -22.7894
-2.46765 -22.7804
-1.35158 -14.4685
-1.52911 -14.1744
0.0362708 -0.016717
0.0162703 -0.0037192
-0.477265 -23.4657
-0.828674 -23.6064
-1.16839 -20.0649
-1.39193 -19.7684
-1.55352 -15.2538
-1.28813 -15.0157
0.00712701 -0.000804083
0.000893355 0.000765988
-0.275081 -4.48979
-0.417045 -4.67192
-1.68619 -19.5677
-2.05818 -19.5929
-1.98366 -10.5699
-2.07016 -10.8863
0.981624 -3.98021
1.06644 -3.79708
0.920484 -12.7185
0.591563 -12.6486
-0.0967703 -17.5611
-0.390665 -17.3558
0.16699 -0.663964
0.180037 -0.574745
-1.40898 -24.6018
-1.15744 -24.3159
-0.520728 -1.49677
-0.511763 -1.63861
-0.106839 -0.0523169
-0.0712752 -0.0325894
-1.60943 -16.3311
-1.44821 -16.0071
1.24374 -7.13529
1.10001 -7.35911
-0.868044 -19.472
-0.724764 -19.8155
0.694292 -2.94342
0.851449 -2.86456
-0.140231 -0.0702452
-0.0930133 -0.0437603
-0.431074 -2.41815
-0.597624 -2.49139
1.51909 -13.7543
1.29273 -13.4865
-1.98662 -11.4661
-1.87821 -11.1504
-1.27777 -6.91546
-1.00995 -6.85043
0.922901 -9.85786
0.712846 -9.6232
0.753684 -10.9942
0.685385 -10.6731
-1.68977 -10.5149
-1.79513 -10.8256
0.0574106 -10.3341
0.0831048 -10.0222
-0.276007 -7.01896
-0.476336 -6.83991
-0.769408 -24.6325
-0.465239 -24.8582
0.569288 -14.495
0.268673 -14.3172
-0.547719 -24.5946
-0.767096 -24.2843
-0.130539 -2.20376
-0.221395 -2.35063
-0.17468 -19.4913
-0.057166 -19.1386
-1.25168 -11.4288
-1.50203 -11.6511
0.373281 -9.64051
0.23171 -9.91277
-1.82573 -11.9458
-2.10482 -12.1419
0.00463554 -6.80043
0.19901 -6.61933
-0.49405 -13.8115
-0.555383 -14.1527
0.62368 -22.4231
0.246719 -22.4087
-1.17352 -6.08667
-1.13877 -5.82945
0.0459062 -11.998
0.358204 -12.1006
-1.85182 -13.9642
-2.10467 -14.2115
-1.50912 -12.8334
-1.19011 -12.9304
0.911397 -3.78212
1.1208 -3.85283
-0.0359358 -4.05216
-0.205363 -4.19106
-0.944786 -21.3462
-0.952927 -21.7247
0.120776 -0.333828
0.080706 -0.273622
-1.02518 -7.007
-0.894919 -6.76097
-0.0725196 -2.64901
0.103496 -2.61924
-0.056457 -0.363115
-0.127072 -0.371769
-0.73153 -10.3815
-0.426089 -10.3247
-0.769746 -24.6203
-0.407863 -24.7293
-1.45408 -25.5568
-1.70145 -25.2685
1.38251 -23.3994
1.14336 -23.6947
-1.2396 -5.83816
-1.4824 -5.95229
0.16399 -0.0895226
0.123521 -0.0710078
0.15786 -9.56894
0.0623464 -9.27771
-0.414826 -0.598636
-0.490856 -0.582951
-1.68097 -9.92932
-1.63354 -10.2355
-0.309574 -20.6616
-0.65107 -20.8135
0.199827 -13.763
-0.115802 -13.6304
0.0072681 -0.000194541
0.0235384 -0.00549787
0.279847 -0.474553
0.345087 -0.454988
-1.96003 -17.2391
-2.32438 -17.2908
1.05893 -12.0741
0.741552 -12.1553
-1.3628 -24.5841
-1.36012 -24.2023
0.00763317 -0.000405378
0.0298756 -0.0087112
0.8438 -17.5032
0.771311 -17.1422
-1.30816 -16.5348
-1.63302 -16.6972
0.30562 -0.410914
0.239794 -0.350072
-0.314378 -0.732572
-0.41731 -0.752793
-0.470209 -0.843243
-0.422853 -0.924659
0.127926 -14.8604
0.454789 -14.7436
0.497345 -1.16139
0.597902 -1.116
-1.37467 -8.47888
-1.5405 -8.25105
1.27957 -9.31326
0.986584 -9.37136
-1.56307 -10.87
-1.58378 -10.5494
1.04626 -10.1651
0.863758 -9.90253
-0.597922 -19.4098
-0.685542 -19.7728
0.322526 -1.14864
0.443551 -1.13751
-0.248467 -0.856833
-0.358015 -0.874885
0.719837 -8.16952
0.956939 -8.02091
0.0838776 -0.658435
0.0222019 -0.586413
0.38834 -4.62321
0.187383 -4.73026
-0.357662 -16.1853
-0.677208 -16.0299
0.690417 -11.7038
0.968183 -11.8901
0.630599 -14.7894
0.976227 -14.8451
-0.11028 -15.5478
-0.276414 -15.8627
-0.0963507 -0.066055
-0.125512 -0.0741834
-0.597466 -23.8735
-0.591296 -24.2552
-0.18894 -0.317703
-0.25719 -0.331596
1.40942 -10.6347
1.5134 -10.3404
1.08506 -18.8104
1.42201 -18.9747
-1.41016 -23.1231
-1.05006 -23.0071
-1.34315 -14.5809
-1.00498 -14.6567
0.10749 -9.23937
-0.148607 -9.08231
0.901066 -16.3923
1.15855 -16.1484
-1.80065 -15.2291
-2.05569 -15.4835
-0.0332649 -0.0225942
-0.0296837 -0.0389385
0.443749 -6.95148
0.698312 -7.05741
-1.94543 -8.81956
-1.92899 -8.52446
0.346528 -8.09315
0.299501 -7.80814
-0.710133 -6.0636
-0.707034 -6.32431
-1.96849 -18.9196
-1.98627 -18.5473
-1.42562 -7.43503
-1.69205 -7.3724
-0.536947 -1.24904
-0.462835 -1.12605
-0.27028 -2.72729
-0.0954686 -2.67328
-0.300792 -20.3409
-0.672497 -20.3349
-0.803834 -4.27421
-0.90619 -4.08854
-0.0103521 -6.52711
-0.00827805 -6.79612
-0.662378 -14.2062
-0.494283 -14.5099
0.637845 -5.95536
0.665116 -5.70257
1.06357 -4.91192
0.825599 -4.87581
0.424865 -24.3538
0.8 -24.4132
-0.504444 -9.82238
-0.783621 -9.70068
-0.11306 -0.374302
-0.0864918 -0.305277
-1.14151 -17.6361
-0.793792 -17.5267
-1.40351 -17.6786
-1.74459 -17.8281
0.00185432 0.000758257
0.0103955 -0.00346975
-0.213695 -9.54177
-0.052237 -9.28377
-0.614173 -15.8924
-0.918496 -16.0789
0.84442 -2.22625
0.727099 -2.32304
0.613765 -2.16809
0.704182 -2.05013
-0.42157 -9.00415
-0.649524 -8.81674
0.134689 -0.0786821
0.160041 -0.0835264
-1.25239 -6.34214
-1.20159 -6.08238
-0.528538 -12.4952
-0.289043 -12.7272
-1.80058 -16.9157
-1.45476 -16.7987
-0.359031 -10.2277
-0.2038 -10.496
-1.44322 -20.0642
-1.21437 -19.7664
-1.70155 -25.5852
-2.05613 -25.4504
-0.282617 -0.289163
-0.290071 -0.247018
0.0546001 -0.0207891
0.0314392 -0.00923375
-1.09981 -19.1102
-1.41732 -19.3038
0.966901 -19.506
1.32669 -19.4129
-2.3228 -21.0686
-2.2111 -21.4276
-0.343077 -10.0401
-0.299776 -10.3498
-2.25393 -16.8424
-2.15307 -16.4913
-3.04262 -25.369
-2.8568 -25.7047
0.322849 -0.396032
0.374443 -0.37495
-0.0736355 -0.910114
-0.180978 -0.926799
-2.24012 -19.689
-2.58793 -19.5588
0.959292 -15.1967
0.988376 -14.8457
-0.0378663 -0.269966
-0.0546159 -0.214908
-0.179643 -25.1124
-0.205625 -25.4933
-2.46196 -24.368
-2.80737 -24.5302
0.959621 -20.8723
0.721555 -21.1618
0.261464 -0.292819
0.325079 -0.303588
-0.57683 -0.745199
-0.493708 -0.657182
0.100665 -0.546021
0.016389 -0.549447
0.850912 -2.44203
0.90882 -2.61955
0.402334 -4.12689
0.559472 -4.2929
0.709928 -2.76103
0.890846 -2.83256
-0.686016 -2.50453
-0.840905 -2.62034
0.545467 -1.15624
0.569603 -1.28827
0.118759 -21.992
0.101733 -21.6133
0.594372 -3.08118
0.403807 -3.08776
0.13505 -0.328742
0.0796406 -0.281979
-0.636925 -1.78164
-0.771451 -1.8886
0.606128 -1.07956
0.482308 -1.04395
-1.36983 -4.40355
-1.38121 -4.63184
0.571027 -3.5181
0.477473 -3.32918
-0.140026 -0.260826
-0.184932 -0.320889
-0.0613179 -0.0352625
-0.0367692 -0.023395
-0.253682 -22.1514
-0.233914 -21.7726
-0.669664 -13.6855
-1.00821 -13.7353
-1.94841 -24.5906
-2.11491 -24.9342
-1.3946 -9.4713
-1.65828 -9.64589
0.833069 -8.80234
0.999706 -8.5673
-1.22089 -7.64644
-1.1959 -7.36579
-1.28012 -20.0163
-1.41539 -20.3675
-2.26335 -24.0455
-2.62986 -23.9462
0.478837 -2.4518
0.306988 -2.41627
-1.74256 -21.4507
-1.97918 -21.1599
0.0545868 -0.208035
0.0950705 -0.185395
-0.319465 -1.52095
-0.435503 -1.45562
-2.51977 -16.7846
-2.15565 -16.7687
-0.0175167 -0.00727449
-0.00623012 0.000497371
0.870045 -5.65054
0.710759 -5.44245
1.21676 -6.83269
1.03687 -6.61669
-2.01774 -13.0917
-2.32482 -12.9628
0.559788 -1.75231
0.419727 -1.67634
0.714796 -12.2027
0.643638 -11.8757
-1.54944 -11.9254
-1.52984 -12.2557
-0.15857 -0.331859
-0.0942004 -0.298544
0.979564 -3.33424
0.856533 -3.47481
-0.0331743 -2.15315
-0.0701331 -1.9942
-1.2768 -18.0888
-1.21908 -17.7176
-0.00173926 -6.63708
-0.0155603 -6.90736
0.301409 -7.80981
0.223796 -8.08463
1.38087 -16.5767
1.17935 -16.8719
-2.09418 -10.8418
-1.78538 -10.7226
0.698981 -7.71268
0.757936 -7.43997
0.0510641 -0.665837
0.144363 -0.673076
0.658994 -2.51727
0.798389 -2.43547
0.886817 -5.52872
0.674744 -5.64726
-2.36453 -24.4072
-2.07829 -24.6574
-0.907465 -15.4557
-1.17071 -15.2239
-1.70211 -22.6278
-2.00524 -22.4036
0.0312776 -0.291958
0.0551414 -0.358615
0.507459 -23.0336
0.377969 -22.6758
-0.174804 -0.116917
-0.129174 -0.0946459
-2.62447 -18.6637
-2.36103 -18.9216
-0.8319 -3.25303
-1.03243 -3.29728
0.893742 -24.4057
0.561173 -24.591
-0.472203 -0.645284
-0.399913 -0.677943
1.07786 -15.1306
1.42541 -15.1962
-0.19496 -0.229971
-0.237527 -0.289985
0.879085 -19.2749
0.522268 -19.1666
-2.13976 -16.4459
-2.3832 -16.7223
-0.966757 -4.69491
-1.18924 -4.80413
0.485137 -0.776618
0.568434 -0.872276
0.0359927 -0.711246
-0.0111405 -0.626419
-0.0392799 -0.192962
0.0115635 -0.195983
0.922061 -14.6839
1.00794 -14.3474
-0.177809 -3.67009
-0.216364 -3.46668
-0.398139 -12.8888
-0.0886993 -12.7619
-1.47421 -19.6125
-1.82135 -19.4847
-1.65742 -24.505
-2.02915 -24.4309
0.482147 -18.9073
0.11311 -18.8819
0.512997 -25.3805
0.205913 -25.1561
-0.0216917 -0.00484297
-0.0410131 -0.0178715
0.170691 -25.6086
-0.203613 -25.5493
0.316841 -0.461801
0.28053 -0.518087
0.0321961 -0.0110446
0.0180282 -0.0037706
-0.188285 -9.67495
-0.377332 -9.43578
1.19636 -11.2945
0.930079 -11.0949
0.751789 -2.63892
0.917681 -2.59933
0.509213 -0.944935
0.57354 -0.880161
0.120845 -6.26182
0.379226 -6.26723
0.00462195 -0.0159299
0.00291349 -0.00270824
0.642146 -6.57804
0.906442 -6.61582
-0.659594 -22.6189
-0.564014 -22.9868
-1.86164 -8.72823
-1.95853 -9.01778
1.05952 -3.86192
0.868465 -3.74156
-0.645546 -1.02376
-0.600238 -0.908933
-1.55362 -7.05289
-1.45759 -7.30123
-0.227014 -14.6721
0.110598 -14.5931
-1.35592 -12.0974
-1.27503 -11.7737
0.371529 -10.2598
0.395572 -9.94822
-0.429091 -17.1026
-0.1553 -17.3337
0.549985 -1.00444
0.430992 -0.976288
1.21716 -13.9008
1.3642 -13.5955
0.085012 -0.072724
0.0677223 -0.0884418
-0.611618 -16.6358
-0.376751 -16.3635
-0.191853 -12.2151
-0.457297 -12.4135
0.742221 -6.56663
0.988405 -6.68596
-0.0754365 -23.0946
-0.158469 -23.4665
-1.55369 -11.9176
-1.87255 -11.8439
-1.37371 -9.56035
-1.21791 -9.81851
0.488182 -18.9035
0.509069 -18.5297
0.41109 -21.165
0.77321 -21.0694
-0.88618 -15.9318
-0.651591 -15.6622
-0.957913 -2.50337
-0.852925 -2.34439
0.303603 -2.78332
0.472216 -2.87438
0.0319319 -6.84891
-0.0224938 -7.11681
-1.76193 -16.7692
-2.04209 -17.0087
-1.41957 -13.7391
-1.12405 -13.5584
-2.30324 -18.384
-2.10088 -18.6924
1.37351 -19.8045
1.55423 -20.136
-0.18389 -25.5988
-0.537612 -25.7329
-0.954421 -3.58521
-0.778649 -3.45496
0.256327 -4.3779
0.47259 -4.33317
0.408863 -3.72178
0.605429 -3.81137
0.531325 -5.34224
0.686923 -5.55111
0.589417 -11.1005
0.872321 -11.2717
0.61087 -19.1374
0.910448 -18.9198
-2.38717 -20.4823
-2.74592 -20.3776
0.33322 -0.329259
0.39392 -0.398073
-1.76701 -10.0591
-1.65947 -9.76022
0.950167 -15.7419
0.597256 -15.7034
-0.0364024 -0.0122385
-0.0710871 -0.0320462
0.073347 -3.28765
-0.121833 -3.26177
0.926906 -12.2825
0.839016 -11.9579
-0.254391 -10.5021
-0.539511 -10.6199
1.07796 -7.44159
1.35406 -7.43046
0.042354 -0.253766
-0.0107222 -0.280253
-0.267074 -6.28596
-0.227767 -6.54743
-1.31576 -10.8522
-1.63268 -10.8095
-0.376757 -1.37082
-0.495945 -1.32554
-1.09453 -20.0687
-0.964989 -19.7166
0.0207783 -6.76296
0.111178 -7.0209
-0.263406 -1.28465
-0.295215 -1.42925
0.0224111 -0.35054
-0.0105242 -0.416573
-0.909061 -3.06016
-1.01781 -2.92319
-0.540745 -0.948091
-0.423595 -0.914317
-2.58193 -21.9194
-2.85489 -22.1857
-0.619053 -2.53225
-0.515321 -2.66602
0.066493 -0.875293
0.167555 -0.854206
-1.35247 -12.4759
-1.49515 -12.785
0.183493 -23.2398
0.394552 -23.5562
1.32655 -10.7238
1.54726 -10.9746
-0.281008 -9.02769
-0.474149 -8.80237
-0.935104 -2.86706
-1.1031 -2.81368
-0.0209825 -0.208069
-0.0254015 -0.155933
-0.550023 -8.79052
-0.285305 -8.6575
0.298506 -1.63613
0.33367 -1.78441
-0.417827 -1.8382
-0.276156 -1.77505
0.0731065 -1.83155
-0.0536534 -1.92325
0.733472 -10.7258
0.989847 -10.9327
-2.46902 -22.3902
-2.43848 -22.7686
0.474493 -21.1097
0.550378 -20.7408
1.44106 -12.7479
1.12594 -12.8512
-0.112984 -3.20572
-0.307251 -3.23668
-2.15356 -20.3658
-1.82095 -20.5333
-1.6 -11.8093
-1.90352 -11.957
1.12431 -9.01244
0.857979 -9.13423
0.743454 -21.7156
0.41269 -21.8946
0.398801 -3.80159
0.272138 -3.6269
0.168008 -19.5257
-0.137508 -19.3138
0.496164 -2.53677
0.378541 -2.39414
1.63237 -15.7069
1.38277 -15.9528
-0.381354 -4.69042
-0.389444 -4.92528
-0.546119 -2.87673
-0.556863 -3.06819
0.154193 -0.155653
0.107185 -0.122149
0.845618 -7.85801
0.565464 -7.80576
0.939862 -15.5812
0.586696 -15.5628
0.147706 -2.44021
0.0393887 -2.30278
0.472559 -2.65925
0.295634 -2.61507
-2.52592 -18.1043
-2.66488 -18.4537
-2.21084 -13.2072
-1.89687 -13.0602
-0.61384 -6.3143
-0.590733 -6.05339
-1.76509 -9.37204
-1.8117 -9.67716
-0.422122 -8.74061
-0.228453 -8.96491
-2.12119 -15.3942
-1.78718 -15.5029
0.374483 -11.4377
0.560205 -11.1707
0.0783298 -4.44146
0.0810746 -4.21536
0.419739 -1.63462
0.304275 -1.70621
0.0591203 -2.27408
-0.00233332 -2.4349
0.264766 -24.8576
0.606766 -24.6907
0.950305 -8.77541
0.781185 -9.0125
0.46656 -20.9646
0.633062 -21.3042
1.39588 -13.6495
1.2219 -13.3472
0.919454 -19.0984
1.19828 -19.3505
-0.0299556 -1.18437
-0.0873729 -1.08377
-1.64856 -16.0768
-1.84293 -15.7818
-0.481886 -17.3308
-0.125811 -17.3305
-1.10042 -13.0895
-1.22878 -13.4082
0.67847 -18.0159
0.878203 -18.3336
-2.16801 -19.3702
-2.18762 -19.7436
-1.20286 -8.73943
-1.49328 -8.69655
-0.28656 -1.19817
-0.418419 -1.24367
-0.732147 -25.1577
-0.355901 -25.1907
0.951697 -11.1172
0.669004 -10.9475
-0.333533 -1.40351
-0.471117 -1.46502
-1.05549 -3.38735
-1.01401 -3.18807
0.653578 -1.54003
0.635296 -1.39702
-0.00234095 0.000960427
-0.00865318 -0.00377096
0.596379 -7.51526
0.75578 -7.75623
1.36706 -14.5639
1.29736 -14.9054
-0.0699829 -2.70744
-0.00587848 -2.53759
-2.56712 -23.6992
-2.20246 -23.8038
-1.1388 -5.14106
-0.969292 -4.94766
-0.901082 -23.1126
-0.682499 -22.8016
0.155137 -0.390386
0.115624 -0.322662
-0.0855143 -3.52137
-0.2395 -3.66187
-0.0339068 -0.202198
-0.0791993 -0.185802
-0.0290864 -0.534612
-0.105812 -0.580206
0.416055 -0.738583
0.46367 -0.674954
0.449667 -1.9377
0.298602 -1.95531
-1.04589 -8.94491
-0.888539 -9.19504
-0.402651 -4.13252
-0.469455 -4.34832
-0.925955 -15.5933
-1.07351 -15.2725
-1.5968 -20.9392
-1.56391 -21.315
-1.1185 -14.746
-1.05191 -15.0906
0.885759 -11.2973
1.05653 -11.5856
1.29868 -21.9037
1.4302 -21.5501
-0.453764 -9.16514
-0.693523 -9.35224
-0.0399671 -0.0144471
-0.0693435 -0.0348342
-1.11557 -25.377
-1.46751 -25.2384
0.629924 -7.14012
0.384003 -7.01213
0.873156 -2.34745
0.899303 -2.18961
-0.00317255 -15.2849
0.328425 -15.173
-1.9701 -23.233
-1.59807 -23.3002
-1.21728 -5.16401
-1.02314 -5.29545
0.740306 -2.19036
0.684972 -2.02703
0.0938181 -25.4278
-0.268933 -25.5387
-0.2304 -24.2284
0.0717153 -24.4577
1.283 -13.0709
1.12982 -12.7626
0.261379 -0.817778
0.366725 -0.861447
-0.00852713 -0.00272293
-0.0460937 -0.0193095
0.0109457 -0.0113201
0.0287711 -0.0236419
0.739096 -2.78357
0.923526 -2.84089
-0.175493 -0.596194
-0.266965 -0.616495
-2.1945 -14.5525
-2.20607 -14.2054
0.53679 -1.55486
0.394614 -1.5515
-0.013578 -0.0015817
-0.00205986 0.000548753
-0.794427 -4.58026
-0.934464 -4.41209
0.487064 -0.770368
0.580535 -0.762293
0.0764371 -0.0399417
0.102345 -0.0500719
-1.14199 -5.4414
-1.37732 -5.55712
0.754612 -22.1435
1.11002 -22.2742
0.422564 -7.43047
0.681976 -7.54238
1.00897 -5.82511
1.08267 -5.58849
1.40566 -17.1763
1.1767 -17.4557
-1.77176 -20.7472
-1.45835 -20.5381
1.14989 -5.08173
1.23569 -4.86848
-1.37205 -9.60138
-1.12476 -9.40921
0.449375 -15.7742
0.781151 -15.6556
-0.0102454 -0.0479895
-0.0233898 -0.0794511
-0.169208 -10.5457
0.00679864 -10.2904
1.33974 -7.00477
1.42072 -6.75468
-0.701959 -16.4337
-0.861605 -16.1125
1.43928 -17.4532
1.37614 -17.8155
-0.971468 -11.031
-0.973151 -10.7033
-0.37322 -1.52332
-0.376221 -1.37978
0.101323 -0.467914
0.023711 -0.476268
1.1042 -7.24289
1.37962 -7.286
-2.89252 -22.6901
-2.98337 -23.0601
-0.531752 -1.03919
-0.592153 -1.16138
0.115564 -1.7754
0.121142 -1.93072
-0.356296 -8.61656
-0.140529 -8.41733
0.618948 -3.11773
0.463842 -2.98763
0.286837 -4.18983
0.470162 -4.07963
0.0135032 -0.0161977
0.00839823 -0.00311764
0.0240875 -0.237512
0.00691641 -0.183078
-1.42406 -25.0551
-1.04619 -25.0431
0.846293 -23.7316
1.11493 -23.463
-0.0533016 -1.82685
-0.206526 -1.8237
-0.406442 -20.6446
-0.719295 -20.8505
0.455698 -17.876
0.26575 -17.5564
0.0971023 -9.73966
-0.0128221 -10.0293
-0.653266 -25.5575
-0.288359 -25.4584
-1.11871 -4.92033
-1.32135 -5.07968
0.227738 -4.87015
0.289856 -4.64619
-1.34211 -10.2704
-1.39957 -9.96525
-0.0170299 -0.00290618
-0.0211182 -0.0048385
-1.92825 -19.1427
-2.1583 -19.4404
-1.88447 -20.2508
-1.52738 -20.1367
0.0996036 -2.70795
0.0800704 -2.52678
1.01547 -15.8453
1.30638 -16.0605
1.2213 -20.9014
1.16563 -21.2741
0.334123 -8.80588
0.0405608 -8.82592
-1.76909 -9.98449
-1.57443 -10.2179
0.301213 -0.34085
0.356063 -0.331561
-1.40868 -11.8111
-1.71823 -11.7113
-0.158097 -0.376508
-0.226901 -0.374348
-0.521549 -3.19331
-0.341603 -3.261
-0.962345 -23.859
-1.31122 -24.0072
0.990225 -6.75452
1.12895 -6.99933
-0.0829017 -3.46417
-0.156069 -3.65918
1.00098 -22.4307
1.10059 -22.0652
-0.511719 -21.0487
-0.633814 -21.4063
-0.764528 -1.66464
-0.770349 -1.52512
0.0986363 -7.23755
0.0771238 -6.96234
-0.158248 -19.2853
0.204095 -19.217
0.00457754 -0.00160912
0.00134396 -0.0107685
1.53197 -23.147
1.48389 -23.5245
-1.55337 -22.0938
-1.19461 -22.2066
-1.01444 -3.72311
-0.89939 -3.53458
0.954333 -19.6317
0.975207 -20.0063
1.09523 -11.9828
1.37832 -12.1689
-0.0133513 -0.00167507
-0.017734 -0.00820989
-1.30727 -17.7349
-1.39306 -17.3772
0.0243893 -0.0708873
0.00887161 -0.0422714
-1.42343 -23.0479
-1.31652 -23.4128
0.281214 -0.192194
0.318549 -0.244473
1.23325 -6.9614
0.963829 -6.90935
0.0532021 -9.71423
0.335573 -9.60404
1.64561 -17.2145
1.41862 -17.4951
-0.718141 -4.30403
-0.646663 -4.08868
1.1345 -24.4818
0.818047 -24.2696
-0.0213041 -0.0205613
-0.044352 -0.0356483
-1.12027 -4.61175
-1.00004 -4.7987
-1.81913 -18.8627
-1.50734 -18.6566
-0.0206511 -4.83993
-0.143007 -4.64682
1.11028 -16.4469
0.962301 -16.1152
1.15161 -21.3246
1.44613 -21.0928
0.507098 -12.477
0.394949 -12.1597
-1.03437 -3.04539
-1.12477 -2.89776
0.169243 -0.477451
0.231108 -0.548867
1.01449 -16.4526
1.34354 -16.6082
0.533667 -18.7242
0.404767 -18.3714
-0.877905 -21.9714
-1.2519 -22.0125
0.87934 -8.3616
0.601946 -8.4338
0.232899 -2.8386
0.154057 -3.00807
-0.632378 -3.29871
-0.563002 -3.10746
0.889033 -8.71629
1.13678 -8.57265
0.35011 -12.3714
0.660287 -12.4977
-0.272789 -10.4422
0.0286264 -10.3919
0.236555 -5.92632
0.486456 -5.92016
-1.06436 -8.91358
-0.780692 -8.81411
-0.0746911 -7.33653
0.141899 -7.16847
-0.141973 -0.973853
-0.155344 -1.09177
0.681391 -21.1316
1.05384 -21.1838
-1.13305 -9.16746
-1.08432 -9.46514
-0.834528 -6.44362
-0.883863 -6.189
-0.50729 -1.01905
-0.631609 -1.05305
-0.254649 -9.04608
-0.127248 -9.32023
1.28654 -6.45975
1.30217 -6.7278
-0.00438087 -24.414
0.374445 -24.4252
-2.78538 -22.6933
-2.51447 -22.9569
0.0189997 -0.00538761
0.0390604 -0.0202617
-0.339258 -19.1541
-0.00628579 -19.3134
-0.463144 -6.60336
-0.374367 -6.8558
-0.202814 -22.4255
0.141924 -22.5792
0.498114 -1.37043
0.617848 -1.33529
0.303785 -0.865308
0.220151 -0.922138
-2.18952 -18.4019
-2.23788 -18.7729
-1.10551 -2.7111
-0.960224 -2.57097
0.211477 -7.72275
0.0058357 -7.91534
0.0542618 -0.0291357
0.0445408 -0.0358339
1.24173 -18.0569
1.31558 -17.6947
-0.494988 -0.690666
-0.395632 -0.670932
0.977723 -8.03082
0.810283 -7.78875
0.194088 -0.196627
0.163176 -0.146746
0.471811 -11.9086
0.386327 -11.5874
-1.16204 -12.627
-0.975605 -12.9021
0.234128 -0.239624
0.232856 -0.291147
0.13236 -0.0713275
0.107416 -0.0667705
-0.180801 -12.4661
-0.451848 -12.6603
-0.174712 -2.98627
0.00206372 -2.9188
-1.8146 -21.1354
-2.16499 -21.004
0.367965 -9.07541
0.130562 -9.25491
1.23 -12.3508
0.902366 -12.281
-0.717582 -5.45645
-0.585172 -5.66087
0.566907 -11.5293
0.808666 -11.7594
-0.0914557 -24.2203
0.285004 -24.2614
-0.869212 -2.31402
-0.965728 -2.19982
0.472989 -0.694846
0.400136 -0.733419
0.0717136 -0.242952
0.0430752 -0.293755
-0.932533 -1.97624
-0.884008 -1.82032
0.0652359 -0.338069
0.0725903 -0.412265
0.156816 -8.21845
-0.0726622 -8.04266
-1.72811 -25.4917
-1.5429 -25.1583
-2.33938 -14.5211
-1.99727 -14.434
-0.247451 -7.31231
-0.51943 -7.36395
0.269175 -0.349151
0.199039 -0.331384
-2.37748 -23.5863
-2.74894 -23.5083
-0.83709 -20.088
-0.693504 -19.7419
0.995466 -6.6041
1.14974 -6.40212
0.304921 -2.28657
0.380113 -2.14406
-0.207716 -12.8563
0.126177 -12.8442
0.446843 -0.923547
0.539528 -1.02048
0.432326 -0.706318
0.333008 -0.670483
0.220058 -0.359244
0.154714 -0.313989
0.0807784 -0.0399215
0.0892155 -0.0396714
-1.36293 -4.08872
-1.15115 -3.99033
0.925858 -3.73194
1.02049 -3.93601
1.48495 -20.0301
1.26607 -20.3315
-1.60062 -11.1985
-1.86881 -11.0288
-1.31457 -25.054
-1.36778 -25.4318
0.472807 -11.9722
0.333829 -12.2707
1.2782 -10.7923
0.958492 -10.7895
-0.583816 -3.69602
-0.438344 -3.53752
0.100425 -0.0782332
0.0643705 -0.0553439
-0.253305 -0.744876
-0.227423 -0.840466
-0.109544 -0.140417
-0.0671981 -0.110575
0.555822 -23.8906
0.811795 -23.6094
0.348597 -24.4945
0.146009 -24.1722
-1.40618 -7.20225
-1.48168 -6.94668
0.743009 -6.09462
0.870703 -6.33218
-2.58379 -20.9045
-2.20819 -20.9193
-0.276735 -12.8282
-0.386093 -13.1491
1.29877 -14.9523
1.59704 -15.1505
1.34088 -9.97179
1.56751 -9.77713
1.38129 -8.22709
1.31767 -8.50691
-0.0518738 -2.39892
-0.0330604 -2.22797
0.0825509 -15.0846
0.290255 -14.8033
0.764495 -3.53301
0.566918 -3.56588
0.641942 -4.0926
0.736069 -4.3024
-0.362437 -9.58003
-0.331716 -9.88781
-1.7136 -18.1872
-2.0423 -18.3653
-0.185787 -0.187964
-0.179367 -0.230411
-0.451631 -0.695692
-0.42292 -0.775686
-0.463487 -0.957797
-0.41036 -1.04596
0.488042 -0.940987
0.590499 -0.924809
-1.22728 -4.47146
-1.14412 -4.67467
-0.781891 -9.25238
-0.673884 -8.96806
-0.600986 -24.304
-0.448569 -23.9542
-1.5287 -23.9359
-1.73729 -24.2552
0.956988 -18.1126
0.857282 -18.4713
-0.0765684 -0.045233
-0.0472529 -0.0214842
-0.18431 -0.256111
-0.156275 -0.198564
0.068493 -0.0298331
0.0357022 -0.0111167
0.532028 -25.6406
0.186597 -25.8005
0.748537 -4.4143
0.975674 -4.45003
-0.041058 -0.231426
-0.0472854 -0.177554
0.130851 -0.262882
0.139016 -0.211195
0.186766 -1.21608
0.1296 -1.10185
-0.0518251 -0.0234716
-0.0524306 -0.0336619
-1.10796 -4.78833
-1.34555 -4.85401
-0.5344 -7.48945
-0.768919 -7.65108
0.0574242 -0.0813175
0.046541 -0.049125
1.0577 -7.1733
0.975563 -6.90535
1.39957 -18.1219
1.60071 -17.8156
-0.13377 -6.63018
-0.0982501 -6.89835
-0.114161 -0.0646256
-0.0749623 -0.0394686
0.697941 -1.66674
0.835556 -1.6444
0.0221622 -0.0172936
0.00927692 -0.00386583
-0.199475 -0.294725
-0.264867 -0.307082
-1.02428 -7.2108
-1.1584 -7.46284
0.344893 -8.76459
0.251874 -8.48141
-0.958956 -8.15926
-1.04124 -8.44259
1.01676 -8.1715
0.917145 -8.43928
-1.67378 -7.85481
-1.8741 -8.07974
-2.52513 -22.2903
-2.17888 -22.1339
0.303028 -24.2581
0.411601 -23.8924
-0.0686703 -0.828441
-0.112005 -0.931255
0.549188 -5.72754
0.38651 -5.52434
-1.3749 -5.21141
-1.36665 -5.45779
-1.11043 -23.471
-1.48472 -23.5256
-1.93433 -23.2086
-1.79561 -23.5623
0.0183169 -0.268668
-0.037848 -0.251058
1.05216 -6.59319
1.0297 -6.8597
-0.282311 -25.1619
-0.0312618 -25.4468
-0.0336779 -0.0110948
-0.0219005 -0.00818523
-0.24554 -14.0554
-0.295841 -13.7132
0.903454 -8.32207
0.957022 -8.61426
-0.172933 -0.121924
-0.207889 -0.12816
0.0722341 -7.61839
0.0572189 -7.90294
-0.711554 -9.64724
-0.832587 -9.36899
-0.375069 -0.761503
-0.42444 -0.865505
0.0353511 -20.0693
0.256762 -19.7699
0.788112 -4.16159
1.00052 -4.1288
1.06599 -6.9942
0.79941 -6.92593
0.582654 -1.20869
0.715571 -1.24061
0.424518 -4.24056
0.277129 -4.07005
-2.49419 -19.7913
-2.4963 -19.4178
-0.936434 -20.0737
-1.27346 -20.235
0.210282 -0.914044
0.229064 -0.810093
-0.407659 -1.84912
-0.519029 -1.76417
1.45786 -14.8579
1.44434 -14.5068
-1.73267 -12.7546
-2.0611 -12.8494
1.13496 -5.99282
0.909342 -6.09721
-0.840596 -21.2191
-0.890106 -21.5943
0.958111 -14.965
0.619734 -14.869
0.841664 -22.2849
1.11093 -22.0207
0.486321 -15.8971
0.589412 -16.2422
0.301044 -0.434352
0.308706 -0.512221
0.354468 -0.44907
0.367451 -0.52786
-1.05241 -8.77876
-1.14862 -9.06627
-0.601807 -8.06733
-0.342177 -8.18536
-1.23693 -21.404
-1.33553 -21.77
-0.00939445 -0.00942091
-0.0179776 -0.00692209
-0.8986 -5.78272
-0.726045 -5.95794
0.52821 -9.13717
0.230769 -9.10564
0.862969 -9.39074
0.5613 -9.40015
0.325792 -0.281896
0.261787 -0.264415
0.039821 -15.5831
0.0104004 -15.9393
0.571334 -0.914977
0.466737 -0.839078
-0.0524683 -0.619289
-0.136204 -0.665802
-0.762483 -14.6118
-1.09734 -14.7116
0.519041 -21.4549
0.773239 -21.7356
0.449347 -1.84404
0.569946 -1.77277
1.01139 -9.72781
0.950795 -10.0297
-0.0944984 -23.0747
-0.469455 -23.1185
0.383556 -0.702818
0.4156 -0.805212
-2.5647 -24.1511
-2.56996 -24.5327
1.51994 -14.0572
1.25957 -14.2749
0.372174 -21.262
0.171108 -20.9423
0.719539 -18.6616
1.09007 -18.6635
-2.31671 -18.1743
-1.98171 -18.0077
-0.416475 -15.7519
-0.115641 -15.9403
0.00261977 -0.0956382
-0.000421301 -0.0598425
0.500256 -9.79198
0.274859 -9.5795
1.01962 -2.80776
0.834603 -2.79535
-0.0584256 -0.193245
-0.0163328 -0.221792
-2.41136 -13.8472
-2.08002 -13.9306
-1.38961 -25.2194
-1.30306 -25.5903
-2.0079 -20.7181
-2.20254 -20.3998
-1.67644 -9.98339
-1.39685 -9.82792
0.764004 -6.66707
0.832848 -6.93354
-0.234735 -14.9658
-0.116218 -14.6354
-1.78102 -17.104
-1.64445 -16.7636
-0.330047 -13.4367
-0.221232 -13.7625
-2.11295 -23.7277
-2.05238 -24.104
0.900891 -5.22547
1.13183 -5.33564
-0.474787 -1.60443
-0.350935 -1.50979
-1.71421 -21.414
-1.36475 -21.2729
-0.429435 -10.0754
-0.274813 -10.3451
0.0860273 -0.149116
0.116121 -0.198849
1.00235 -20.8207
0.627967 -20.8358
-1.6223 -17.0274
-1.407 -17.3181
1.09709 -24.2062
0.821917 -24.4697
0.310411 -0.540118
0.334659 -0.474581
0.148872 -8.89949
0.408801 -9.04961
-0.149486 -0.205654
-0.193828 -0.198937
0.00579028 -1.08532
0.111893 -1.12293
-0.777877 -13.4878
-0.46052 -13.6079
0.0106309 -14.6555
0.319561 -14.4998
0.0907468 -2.04998
0.214554 -1.95517
-0.302116 -23.1111
-0.561221 -22.8348
0.218457 -13.2321
-0.0517352 -13.4348
0.711932 -24.6184
1.09254 -24.6119
0.321368 -0.510613
0.378553 -0.594966
-0.13344 -0.13026
-0.0898945 -0.116763
0.178078 -19.9883
0.353492 -19.6595
0.200483 -25.2891
0.00868703 -25.6192
1.34412 -14.0334
1.24265 -13.6992
1.00946 -12.5868
0.95204 -12.9173
-1.38803 -7.45023
-1.19121 -7.23848
-0.689124 -1.65379
-0.602767 -1.51789
1.32442 -23.6933
1.30656 -24.0742
-1.63077 -23.534
-1.38594 -23.8237
-1.07442 -13.6509
-0.739647 -13.5805
-1.51313 -19.5829
-1.71515 -19.2731
-2.03929 -25.2695
-2.37594 -25.0927
-0.288396 -2.53776
-0.451738 -2.48484
1.2196 -4.40839
1.14876 -4.61492
0.61924 -6.02564
0.868016 -6.1082
-0.0183261 -0.0199676
-0.0371467 -0.0413073
0.231295 -21.0487
0.149955 -20.6801
-0.0409382 -0.911043
-0.127677 -0.852247
-1.58628 -17.4847
-1.46 -17.8301
-0.234849 -13.0505
0.0965608 -12.9991
0.136081 -0.469444
0.172224 -0.552231
1.01249 -8.48613
1.25589 -8.34275
-2.84793 -24.5682
-3.02845 -24.9054
0.814083 -23.1119
0.463191 -22.9684
0.00183942 -23.0311
-0.205447 -22.7131
-1.87619 -17.1707
-2.1406 -17.4325
-0.524375 -8.79822
-0.25451 -8.67661
0.269 -0.237202
0.217516 -0.184255
0.593941 -22.411
0.299934 -22.1722
0.039974 -0.229947
0.094901 -0.258151
1.28633 -8.06986
1.00083 -8.07454
0.521425 -13.9756
0.41057 -13.6467
-0.706812 -20.2034
-1.07502 -20.2565
-0.590529 -20.2048
-0.340621 -19.9274
-0.16099 -0.126186
-0.169495 -0.108303
0.300915 -20.04
0.56874 -20.3036
-0.919372 -11.8977
-1.21244 -11.7608
-2.13894 -21.6283
-2.20978 -22.0011
0.720462 -5.06602
0.625571 -5.2875
0.445553 -2.21451
0.322361 -2.31616
-0.263386 -9.42701
-0.55518 -9.35415
1.41151 -15.0353
1.51453 -15.3778
0.00996687 -20.4242
0.277928 -20.6877
-0.308821 -0.614236
-0.229596 -0.642295
-1.5987 -17.0786
-1.36722 -17.357
-0.932846 -16.637
-0.818985 -16.2939
-0.457194 -9.24119
-0.458297 -8.93922
-0.256013 -15.3138
0.0359373 -15.1189
0.190536 -17.295
-0.150992 -17.4115
0.000587712 -2.14231e-05
0.0250302 -0.00630534
0.769908 -9.82239
0.656602 -10.1085
-0.0239781 -0.0701173
0.00205787 -0.0528539
-0.733855 -22.9072
-0.356906 -22.9173
-0.458605 -9.38277
-0.423104 -9.68756
-1.08696 -12.8576
-0.962667 -13.1698
0.0152528 -0.0262568
0.00959373 -0.00846025
-0.332026 -6.70284
-0.0962477 -6.57809
-0.532146 -22.788
-0.884476 -22.9245
-0.0093081 -0.0100299
-0.00346921 -0.000121451
-0.153156 -25.0643
-0.321635 -24.723
0.202999 -2.6158
0.155124 -2.79135
-2.74045 -20.9945
-2.56945 -21.3279
-0.95578 -3.87548
-0.757946 -3.77152
-0.0859511 -16.494
-0.431066 -16.584
0.772052 -9.5833
0.500323 -9.43703
-0.251411 -1.23129
-0.381257 -1.21968
-1.06966 -22.5807
-1.23506 -22.2401
-0.456439 -6.44986
-0.237374 -6.59407
-0.447208 -4.2951
-0.648773 -4.21241
0.759 -10.1246
0.922575 -9.86628
-1.18287 -5.99902
-1.42089 -6.12804
-0.106596 -0.261323
-0.113661 -0.207768
0.62558 -4.58907
0.847782 -4.6762
-0.157287 -0.0835346
-0.109668 -0.0551556
-1.07669 -20.1219
-1.20496 -19.7716
-1.19126 -24.1393
-1.08287 -23.7733
0.702122 -10.4267
0.921815 -10.6679
-0.332106 -4.40819
-0.513495 -4.28352
0.585994 -2.50508
0.637336 -2.68417
-0.903796 -2.75749
-0.776404 -2.87193
-0.154266 -0.311339
-0.164538 -0.381374
0.468449 -6.477
0.730674 -6.47712
-0.527228 -1.36571
-0.664076 -1.43176
0.47112 -0.808363
0.541471 -0.762182
-0.22208 -0.357841
-0.165786 -0.299571
-0.0585816 -0.234723
-0.116285 -0.25865
1.07277 -10.7709
0.88536 -10.501
-0.216811 -14.2747
-0.0126259 -13.996
-0.0644546 -0.182403
-0.0172681 -0.162567
-0.396899 -3.1583
-0.354874 -3.35057
0.655185 -19.9341
0.285709 -19.8849
0.0392345 -0.636021
-0.0505834 -0.625033
0.626067 -6.84133
0.8532 -7.0027
0.34644 -15.5761
0.690102 -15.5012
-1.21782 -19.9339
-1.53434 -19.7422
0.105804 -0.16815
0.150324 -0.213847
0.337457 -0.303822
0.351353 -0.364852
0.798698 -18.9265
0.916497 -18.5729
0.909424 -2.10753
0.762375 -2.14805
0.767157 -9.56131
0.999938 -9.37589
-2.3459 -24.1158
-2.35794 -24.4972
0.982679 -4.95116
1.05156 -4.73193
0.467511 -10.3419
0.537917 -10.6548
0.610934 -12.1409
0.892505 -11.9771
-0.732037 -6.81756
-0.907209 -7.03433
1.07667 -12.6192
0.77504 -12.7541
1.076 -4.99244
1.27619 -5.15698
-0.497186 -4.19575
-0.277919 -4.18843
0.565504 -20.5427
0.765423 -20.227
1.11208 -12.5065
0.779169 -12.4788
-1.28841 -10.2845
-1.59606 -10.3795
0.22661 -4.8914
0.343974 -5.10699
-0.0153752 -0.0075036
-0.0265042 -0.00962663
-0.992631 -21.8142
-0.863037 -22.1698
1.15062 -14.264
1.00492 -14.5761
-0.710508 -3.03274
-0.903832 -3.04552
-0.119209 -0.520835
-0.191732 -0.581054
0.0949104 -0.402552
0.169365 -0.427473
-2.90079 -23.0706
-2.59215 -22.8458
1.22405 -7.50862
0.945218 -7.48713
1.04174 -14.253
0.883061 -14.5586
-0.102023 -9.98947
-0.0632509 -10.2997
-2.12748 -24.3176
-1.90907 -24.6292
-1.70876 -18.0321
-1.33892 -18.0013
0.138174 -7.74474
-0.105998 -7.60332
-0.00446325 -24.0727
0.371121 -24.0229
-0.282799 -2.70348
-0.16449 -2.56172
-1.55865 -24.8819
-1.65158 -25.2522
-1.22641 -7.65507
-1.35691 -7.91662
-0.267675 -23.2142
-0.357785 -23.5846
-0.651515 -3.42685
-0.499345 -3.2819
-2.63214 -19.7868
-2.50841 -20.1376
0.4568 -11.9238
0.778323 -12.0006
1.30349 -10.8699
0.987114 -10.8002
-0.899835 -19.6356
-0.714544 -19.3123
0.115747 -0.0713668
0.140001 -0.105092
0.405741 -1.40066
0.537823 -1.47414
0.484466 -2.81918
0.527716 -2.64515
0.521474 -1.3904
0.448187 -1.49585
-1.00996 -22.5204
-1.1781 -22.1812
-2.34587 -14.3343
-2.04712 -14.5013
0.513631 -6.44479
0.438953 -6.18868
0.0517642 -0.0449176
0.071785 -0.0447926
0.37143 -0.482873
0.45454 -0.548066
-2.38394 -20.3682
-2.46682 -20.7362
-2.00919 -15.4094
-1.99209 -15.0559
-1.10582 -20.493
-1.03708 -20.8628
-0.274911 -14.4853
0.0048726 -14.6934
1.00836 -6.37823
0.782191 -6.22845
0.313317 -13.1436
0.00643222 -13.2809
0.315897 -0.447735
0.290906 -0.510621
0.732036 -8.61671
0.872679 -8.88528
-0.233304 -0.921817
-0.134504 -0.964017
-1.45406 -11.1836
-1.45585 -10.8567
-0.199058 -24.0364
-0.572493 -23.9779
0.263557 -23.808
0.106304 -23.4612
-0.231778 -8.57435
-0.266237 -8.87007
0.433249 -0.56827
0.40894 -0.484889
-0.532777 -4.86718
-0.446808 -5.09182
-1.41426 -24.7805
-1.7455 -24.9662
-0.736734 -5.70577
-0.592599 -5.48874
1.07751 -13.998
1.24152 -14.3097
0.432303 -0.508709
0.435245 -0.441914
0.0948257 -0.849637
0.199513 -0.867952
-2.471 -17.8334
-2.1861 -17.589
0.723596 -9.34595
0.99366 -9.4975
-1.78109 -17.1598
-1.52414 -16.896
-0.474752 -1.7141
-0.626094 -1.7423
0.32063 -0.419546
0.319247 -0.491449
-0.752634 -9.82186
-0.920408 -9.56789
0.637559 -22.473
0.268034 -22.549
-1.33297 -5.46057
-1.57371 -5.41474
0.00436964 0.000453683
0.0155656 -0.00409789
1.53083 -20.3461
1.15605 -20.3461
-1.36508 -8.01003
-1.43212 -8.29561
-1.54426 -10.1324
-1.70635 -10.4141
-0.403727 -13.7738
-0.52398 -14.0984
0.904049 -3.77472
1.11465 -3.7829
-1.40388 -21.117
-1.77784 -21.1485
-0.0159839 -7.03826
0.13094 -6.81124
1.44256 -17.5247
1.12833 -17.7068
-0.963829 -12.8327
-1.29921 -12.8317
0.780758 -22.9682
0.805813 -23.3483
0.426083 -1.19045
0.338433 -1.08202
-0.00723201 -0.00595256
-0.0221958 -0.016313
-0.51469 -17.0344
-0.241877 -17.2666
0.942546 -8.43538
0.721854 -8.61656
-0.198919 -8.74399
0.0313183 -8.56161
-0.0469195 -0.0216635
-0.0507961 -0.0203056
0.484425 -2.47548
0.634894 -2.58852
-1.60829 -8.33787
-1.33318 -8.41789
1.04006 -4.13934
1.12308 -3.95137
0.714445 -14.6512
0.388825 -14.5236
-0.685563 -3.07542
-0.550151 -2.92507
0.0621127 -0.450869
0.135308 -0.4923
0.586996 -20.8544
0.844016 -20.5828
1.29042 -9.03451
0.996535 -9.07117
0.117494 -7.50328
0.149722 -7.22614
-1.65107 -8.89862
-1.58291 -9.18528
-0.0401189 -0.0143612
-0.0721692 -0.0329132
0.112163 -0.0507972
0.0665642 -0.027615
-0.778791 -13.0227
-1.11166 -12.981
0.0629478 -4.49246
0.0840398 -4.2665
-1.59719 -24.0014
-1.37494 -23.6918
-1.08226 -15.3702
-1.33842 -15.6194
0.0913012 -0.268493
0.0929727 -0.210926
-0.378555 -22.5935
-0.00188508 -22.5823
-1.58758 -8.30432
-1.66386 -8.59244
-0.967104 -3.3808
-0.774742 -3.29276
-0.00849131 -0.0254118
-0.0245634 -0.0478634
0.483172 -19.5095
0.820591 -19.6711
0.147518 -0.13875
0.108923 -0.0983321
0.779029 -16.9703
0.502016 -16.7334
0.463622 -6.68521
0.249177 -6.83872
-1.13659 -20.5416
-1.03822 -20.9044
-1.93654 -23.1937
-1.9985 -22.8187
-1.26227 -18.6615
-1.59744 -18.8227
1.11373 -17.7248
0.755194 -17.6399
-1.48255 -7.2808
-1.21154 -7.32177
1.3286 -16.3808
1.49694 -16.7061
0.183615 -0.122817
0.164196 -0.136522
-0.0805859 -3.31991
0.0248833 -3.15207
-1.72519 -11.5699
-1.41931 -11.437
0.333173 -22.5003
0.374464 -22.1229
0.0879033 -20.6626
0.433336 -20.5219
1.03495 -4.95052
1.26709 -5.04702
0.0253779 -0.00653942
0.0377109 -0.0136863
-2.03279 -17.424
-2.15816 -17.7752
-0.555961 -21.1863
-0.182402 -21.165
0.247581 -16.5479
0.605936 -16.5501
1.27278 -15.9336
1.53914 -16.1818
-1.7287 -11.9569
-1.93722 -12.2261
-0.523437 -22.1952
-0.707105 -21.8645
-1.78675 -20.655
-2.12868 -20.5064
-1.86494 -10.0796
-1.84422 -10.3923
1.37558 -8.95431
1.24496 -9.21569
-0.328197 -21.6394
-0.418451 -22.0075
1.39103 -16.2123
1.18711 -15.9112
0.281874 -0.202427
0.264817 -0.228588
-0.581083 -2.3847
-0.485009 -2.51897
0.0397867 -0.112769
0.0053273 -0.0920749
-2.42397 -19.6249
-2.05089 -19.5997
-0.0962811 -8.24183
-0.221247 -8.50636
-0.636594 -2.84016
-0.479298 -2.92653
0.264198 -9.08813
0.494054 -8.90353
-1.50309 -21.5348
-1.70465 -21.2177
-1.31849 -14.8649
-1.62783 -14.7093
-0.0233342 -0.944177
0.0823893 -0.962684
1.08642 -15.8359
1.4226 -15.7305
0.786933 -1.86725
0.647745 -1.76859
-0.997806 -3.6744
-1.01167 -3.88576
0.832889 -17.2065
0.688229 -17.5409
-1.55216 -6.54967
-1.69158 -6.34173
1.49404 -8.31454
1.33861 -8.05632
-1.90346 -19.2276
-1.61843 -19.4622
-0.689728 -1.65828
-0.648645 -1.51165
0.249379 -3.56601
0.0890721 -3.43465
-0.269818 -8.985
-0.49266 -8.79036
0.508123 -7.88817
0.281699 -7.71067
-0.342622 -3.34969
-0.425216 -3.17348
0.963826 -8.80582
0.747694 -8.99981
-0.550924 -8.34566
-0.329482 -8.53249
-1.62229 -18.7686
-1.26447 -18.6712
0.784334 -1.83291
0.654205 -1.72261
-0.584745 -1.64273
-0.691244 -1.56679
1.6695 -12.86
1.50884 -13.1501
-1.68734 -11.7941
-1.99592 -11.9311
-0.71937 -3.69014
-0.878807 -3.57428
-1.84426 -22.4998
-1.5489 -22.2613
-0.000317324 -0.769286
-0.0706671 -0.847226
0.00125701 -14.4104
-0.20886 -14.6879
-0.0512855 -6.32733
-0.293154 -6.23192
-0.473258 -0.68885
-0.576223 -0.750656
-1.01068 -14.1979
-1.02181 -14.5466
-1.24482 -23.9625
-1.01447 -24.2645
-1.36538 -6.06787
-1.36729 -5.81238
-2.10638 -13.2749
-2.06909 -13.6123
-0.0240628 -0.443822
-0.100023 -0.468836
-0.122195 -6.89258
-0.18311 -7.16027
-0.260105 -13.3251
-0.473784 -13.5917
0.251678 -6.42131
0.133764 -6.18446
0.0810834 -2.30134
0.21297 -2.20323
1.50258 -11.1794
1.18698 -11.2388
-0.440435 -0.984481
-0.554729 -1.05828
-0.0352457 -6.12745
0.184309 -6.26697
-0.201018 -0.455544
-0.208848 -0.538424
0.33762 -4.79364
0.525387 -4.94961
-1.06078 -12.0058
-1.17264 -12.3219
-1.19995 -10.242
-0.909698 -10.1122
-0.197581 -2.9331
-0.271928 -3.11398
-0.624776 -21.7696
-0.366623 -22.0447
0.182003 -1.82957
0.213498 -1.98564
-0.408786 -1.75855
-0.393313 -1.61055
0.920523 -2.3154
0.8721 -2.46827
0.561798 -9.8499
0.290724 -9.99175
-2.10793 -17.1946
-1.74347 -17.2153
0.0144371 -10.5306
0.325942 -10.5064
-0.697599 -1.52779
-0.611684 -1.39478
0.109296 -7.75232
0.365849 -7.64358
-0.501922 -2.08842
-0.543444 -2.2541
0.598623 -1.33505
0.476962 -1.24702
-2.26039 -12.1331
-1.98281 -12.3029
-1.68323 -16.3799
-1.32404 -16.3714
0.0625706 -0.0251362
0.0317856 -0.00923326
-2.1742 -18.0057
-2.54236 -18.0585
-1.97601 -14.502
-1.94787 -14.8498
0.32922 -0.418491
0.412331 -0.463491
-1.04125 -9.85833
-0.791951 -9.67024
1.33463 -8.81185
1.3694 -9.11216
0.477408 -0.674296
0.42141 -0.729167
0.695432 -14.7803
0.482272 -14.4989
0.722518 -24.3981
0.3547 -24.304
-1.75639 -10.8673
-2.07197 -10.8145
-1.55874 -13.0912
-1.28089 -13.2766
0.811467 -18.6516
1.12071 -18.4502
0.964905 -24.4995
1.05098 -24.1277
0.201074 -21.562
0.316467 -21.9231
0.893457 -16.1467
0.567388 -16.2877
1.42102 -22.5524
1.36542 -22.1763
0.991321 -7.33838
1.08974 -7.0878
-0.448055 -20.2238
-0.803248 -20.1157
-0.146394 -0.250086
-0.11295 -0.194298
0.36476 -3.41834
0.178757 -3.33554
-1.26717 -5.63994
-1.48389 -5.79928
-0.805736 -6.37108
-1.01499 -6.54634
-1.23332 -6.71074
-1.0464 -6.50511
0.202797 -3.95698
0.400134 -3.8854
-1.58719 -19.0149
-1.41357 -18.6835
0.425877 -6.65668
0.303804 -6.89324
-0.785676 -24.694
-1.0737 -24.942
1.18335 -14.9981
1.418 -15.2697
-1.42897 -8.01524
-1.61691 -7.8153
-0.651137 -3.04476
-0.525133 -2.88845
-1.74019 -8.67197
-1.96866 -8.88331
1.19739 -9.70398
1.08126 -9.41287
0.38843 -3.61061
0.590827 -3.59054
-0.304001 -0.265284
-0.293402 -0.307772
-1.55139 -15.7109
-1.58191 -16.0679
1.40178 -18.9319
1.06416 -18.7694
1.1767 -21.3886
1.01064 -21.7267
-2.3291 -21.4162
-2.31354 -21.794
-0.355112 -6.52283
-0.597249 -6.42657
-0.228726 -8.18596
-0.348007 -7.92445
0.656726 -8.05449
0.609564 -7.76927
0.0796005 -0.0527261
0.0554652 -0.049841
-0.24904 -0.967508
-0.154342 -0.898458
-0.0499078 -0.164955
-0.0420237 -0.216232
-0.855143 -6.8613
-1.12139 -6.83157
-1.61174 -14.1959
-1.33934 -14.4032
-0.046882 -12.7058
-0.179608 -12.3974
-1.69736 -13.4566
-1.36181 -13.3843
-0.194961 -8.92649
0.0278645 -8.73162
-0.401864 -0.70569
-0.403939 -0.802563
-0.699681 -1.15736
-0.77149 -1.28597
-0.339405 -2.94331
-0.155205 -2.97775
-0.161763 -0.807703
-0.120201 -0.904186
-0.109984 -1.18459
-0.235757 -1.19677
-1.37075 -18.9612
-1.0598 -19.1564
0.499234 -1.24962
0.4364 -1.1231
1.17038 -5.35143
1.13816 -5.10234
1.29321 -20.0935
1.56078 -20.3606
-0.953669 -11.7925
-0.705471 -12.0007
-1.81532 -17.781
-2.12979 -17.9836
0.223535 -4.69598
0.428472 -4.5983
1.27253 -13.1825
1.58496 -13.0663
0.483168 -4.56824
0.666957 -4.4455
-0.176207 -9.85629
-0.459869 -9.7456
-2.08712 -16.2508
-2.32147 -15.9872
-1.86144 -21.4729
-2.05822 -21.7977
-1.16459 -21.9549
-0.821438 -22.1086
0.793434 -20.2346
0.462289 -20.405
-0.260801 -6.41204
-0.511757 -6.49463
-0.758891 -12.6498
-1.04235 -12.8343
0.593775 -10.8615
0.874416 -11.0335
-1.5169 -15.8974
-1.63839 -15.5651
0.593298 -21.1095
0.643745 -20.7361
-1.10046 -18.8106
-1.3109 -19.1176
0.0957425 -0.288595
0.0492794 -0.240825
-1.46826 -13.5483
-1.41983 -13.2087
0.972347 -7.88763
0.703246 -7.96388
-0.16235 -0.898056
-0.235296 -0.827675
0.839538 -5.39447
0.624576 -5.50468
0.0660435 -0.027667
0.0226785 -0.00851979
0.331932 -7.45749
0.35815 -7.18066
-0.292038 -0.933416
-0.181443 -0.906076
0.0915085 -0.81373
0.057901 -0.714176
0.714402 -23.5457
0.453157 -23.2693
-0.976607 -19.3459
-0.914627 -18.9797
0.0287386 -0.400166
0.0278938 -0.327062
-0.421496 -5.03669
-0.37762 -4.80033
0.270911 -1.4453
0.383156 -1.37412
0.950254 -19.7692
1.18461 -20.0646
-1.26012 -6.66295
-1.03138 -6.50687
-0.136686 -19.393
0.197166 -19.2358
0.748911 -9.96551
0.931543 -10.2277
-0.369263 -14.4528
-0.704502 -14.3691
-0.239116 -2.03925
-0.354904 -2.16268
-1.50585 -17.276
-1.28593 -17.566
1.62204 -12.5023
1.49556 -12.1856
1.2617 -15.6964
0.985709 -15.4652
-0.0856918 -0.197615
-0.0360083 -0.205252
1.05303 -10.1142
1.33529 -10.2687
1.32102 -17.2088
1.02503 -17.4156
-0.278781 -0.999066
-0.372571 -1.09075
-0.529014 -20.5356
-0.23875 -20.7721
0.085759 -21.8061
-0.103095 -21.4784
1.4011 -11.0302
1.43031 -10.7087
-0.0033997 -1.14334
0.103911 -1.17656
-1.11916 -4.58885
-0.888165 -4.53201
0.971705 -11.2393
0.69566 -11.0568
-0.115905 -1.7697
-0.258488 -1.81934
0.996633 -8.48302
1.28459 -8.45602
-1.49349 -23.6109
-1.46891 -23.9915
0.610185 -4.89021
0.824529 -5.01757
-0.172094 -0.500612
-0.188485 -0.427364
-1.00113 -9.45682
-1.27365 -9.6075
-0.817781 -2.77665
-0.665726 -2.86274
-2.00868 -12.6946
-1.74912 -12.4688
-0.254541 -7.15307
-0.00534465 -7.26752
0.301582 -15.8367
0.419837 -15.5018
-0.294574 -0.212553
-0.23428 -0.185791
-1.34476 -10.9397
-1.36547 -11.2681
0.513826 -24.8122
0.181382 -24.6287
-1.7075 -23.415
-1.97212 -23.1442
-0.100099 -0.0530971
-0.0646293 -0.0284489
0.0536743 -0.0275974
0.0307211 -0.0158666
-0.106554 -0.0564619
-0.0700225 -0.0313921
0.641034 -13.9701
0.354961 -14.1565
0.567908 -23.0906
0.194675 -23.151
-0.203981 -3.86638
0.00101369 -3.91863
-0.0370046 -2.04828
-0.189677 -2.00378
0.544551 -1.17876
0.469518 -1.06025
-1.128 -13.3696
-0.809261 -13.4813
0.03645 -8.893
-0.16557 -8.67512
-2.38349 -20.4264
-2.00884 -20.4318
1.07389 -6.68734
0.987586 -6.93651
-1.26955 -21.4293
-1.59779 -21.6157
-0.947889 -11.1863
-0.925502 -10.856
1.32105 -8.78683
1.29364 -9.08286
-0.778277 -23.2437
-1.15219 -23.2981
0.591677 -5.12903
0.386322 -4.98343
-2.28366 -12.337
-2.06013 -12.0767
0.769576 -14.7951
0.671622 -15.1316
-1.61994 -8.45238
-1.57489 -8.73929
1.00369 -17.4674
1.00258 -17.8374
1.05038 -4.8455
1.11642 -5.08575
-0.217089 -21.4069
-0.56743 -21.2734
0.0583545 -0.0227015
0.0476828 -0.0178666
-0.667446 -2.18943
-0.762081 -2.0746
-0.224741 -0.559843
-0.200928 -0.641362
0.32544 -2.67986
0.339565 -2.86644
-0.87456 -24.1584
-0.669546 -23.8372
0.803925 -8.18276
0.573104 -8.00061
0.0233825 -0.346538
0.0100584 -0.419724
-0.891805 -5.62784
-0.649604 -5.5455
-1.46001 -6.62721
-1.7252 -6.60717
1.59487 -9.34738
1.31913 -9.45371
1.21687 -14.2901
1.54525 -14.4156
0.852696 -15.2468
1.05093 -14.9605
1.36872 -25.3279
1.04962 -25.1175
-0.121291 -7.57358
-0.149108 -7.29448
-0.706039 -15.101
-0.427338 -15.3146
0.326145 -0.478878
0.412579 -0.509978
-0.887168 -2.22751
-0.789217 -2.0752
0.728159 -5.43472
0.555666 -5.60672
-1.08608 -23.6986
-1.34435 -23.4212
-0.673675 -13.3906
-0.98245 -13.5381
-1.86795 -11.4749
-2.163 -11.3472
1.12684 -3.57718
0.947015 -3.65132
0.174791 -0.159627
0.163053 -0.193623
-0.0632926 -4.26536
0.0186695 -4.47621
1.26347 -12.6555
0.990993 -12.4493
0.307041 -0.820332
0.408158 -0.884864
1.06663 -25.0494
0.697515 -24.9551
-1.03543 -2.72669
-0.854663 -2.65201
-1.19693 -15.0887
-1.20503 -15.443
-0.316771 -9.72686
-0.569955 -9.55908
0.10165 -0.468714
0.181613 -0.493305
-2.50172 -24.5751
-2.43937 -24.1984
0.905554 -13.4413
1.16968 -13.6677
0.349653 -2.69263
0.435001 -2.54155
-0.82365 -8.33851
-1.01092 -8.12542
1.08363 -25.3169
1.37482 -25.0689
-1.0794 -9.55578
-0.797661 -9.66685
1.30076 -7.30739
1.38557 -7.58186
0.235554 -3.72053
0.20639 -3.51217
0.0269968 -12.7631
-0.14191 -13.0544
-1.2419 -23.3651
-0.865536 -23.3318
0.123715 -1.18204
0.175743 -1.30885
0.153344 -13.7787
-0.0904004 -13.5363
-2.15042 -20.8413
-2.44924 -21.0746
0.680168 -3.74788
0.742097 -3.55561
-0.013363 -0.015417
-0.0044341 -0.0305286
-2.50263 -20.4096
-2.13946 -20.3099
-0.148385 -0.721329
-0.0574746 -0.682581
0.551498 -22.8733
0.798677 -22.5864
-0.920992 -15.3455
-0.569557 -15.3327
1.3297 -11.7477
1.45008 -12.0635
0.480449 -2.58044
0.65511 -2.57023
-0.0113303 -0.0365433
-0.0149102 -0.0662938
-0.854839 -4.45047
-1.08527 -4.4696
0.253002 -12.3243
-0.0715053 -12.3819
0.11742 -0.732668
0.0259753 -0.696798
0.0934479 -2.2913
-0.0292657 -2.40932
0.296826 -8.07871
0.467111 -8.31808
0.0301535 -19.0389
0.0721304 -19.4095
0.199021 -2.91006
0.338535 -3.04766
0.925195 -17.5019
0.798617 -17.8467
0.656713 -2.43657
0.625879 -2.2633
0.196664 -0.268797
0.151118 -0.292536
-1.69646 -10.2201
-1.45645 -10.4124
-1.67563 -10.7665
-1.43238 -10.9662
0.0555615 -0.0256342
0.0445417 -0.0272229
0.46945 -17.0493
0.461438 -16.6862
-0.934121 -21.5541
-1.24746 -21.7645
0.298507 -0.422882
0.221142 -0.398026
0.948709 -3.62399
1.06094 -3.81853
0.924187 -15.0928
0.838873 -15.4346
1.25204 -21.8054
1.14196 -22.1672
0.405649 -4.67022
0.268842 -4.85538
-2.13122 -18.9508
-2.43965 -18.7483
-0.745838 -4.98355
-0.947017 -4.8698
-0.901964 -22.0386
-1.26207 -21.9313
0.775909 -16.8567
1.10522 -17.0154
-0.44179 -22.4826
-0.437519 -22.863
0.222255 -13.6398
0.0722908 -13.9482
-1.7736 -23.4601
-1.44314 -23.273
0.621744 -8.98844
0.908212 -8.92198
-1.89116 -8.30988
-1.63497 -8.1472
1.28344 -11.5683
1.03771 -11.7765
-1.44621 -24.7845
-1.67694 -24.4823
-0.399064 -17.208
-0.751447 -17.2617
-0.0917989 -10.5171
-0.112693 -10.2054
-0.320839 -8.46018
-0.540911 -8.65766
-2.15431 -16.7408
-2.49223 -16.6197
-1.23235 -16.3597
-0.931838 -16.1622
1.36549 -16.2279
1.04701 -16.3843
-0.860456 -4.79725
-1.03529 -4.97949
-0.208588 -14.8007
-0.418573 -15.0823
-1.47851 -13.6316
-1.40928 -13.9669
-0.245598 -0.897789
-0.217165 -1.00386
-0.830422 -23.8531
-1.07485 -24.1451
-0.973589 -15.8306
-1.09883 -16.1676
-0.00336561 0.000356883
-0.0136398 -0.00556434
-0.41631 -1.71728
-0.488695 -1.60237
-0.765374 -1.4861
-0.796229 -1.3647
-1.36423 -9.07223
-1.4709 -8.80007
-0.0153643 -2.36186
-0.0393184 -2.19288
-1.75926 -11.0031
-1.66286 -11.31
-1.64431 -8.65542
-1.37527 -8.51363
0.532004 -9.68396
0.424786 -9.39383
-0.704418 -1.56313
-0.708938 -1.70766
-1.92151 -16.7753
-1.72405 -16.4672
0.160919 -1.16643
0.225607 -1.0678
-1.65996 -9.48453
-1.71604 -9.7901
-2.70378 -18.9568
-2.3406 -18.8629
-0.307258 -13.0315
-0.392511 -13.3616
-0.669352 -1.86283
-0.541639 -1.92855
-1.96807 -19.8988
-1.91795 -19.5275
0.134915 -1.80916
0.276816 -1.86552
-0.346657 -12.0185
-0.667439 -12.0867
0.0719441 -0.2914
0.0493745 -0.230585
-0.452862 -10.4207
-0.354801 -10.1236
-0.37949 -1.75973
-0.466925 -1.65487
1.34227 -10.7145
1.02454 -10.7299
-0.868292 -7.03765
-1.02088 -7.27555
0.130216 -0.419917
0.0602455 -0.385712
-2.22596 -20.5074
-1.95204 -20.7602
-0.74741 -1.6856
-0.879247 -1.64795
-1.35896 -5.55308
-1.42006 -5.80516
1.03383 -15.1202
1.37522 -15.2161
-1.71896 -25.5941
-2.02805 -25.3735
-0.626006 -1.34939
-0.640106 -1.48909
-1.63249 -10.4765
-1.6266 -10.7974
1.32419 -15.7355
0.982625 -15.8237
-1.62339 -25.2755
-1.91959 -25.0378
1.30667 -6.23352
1.1444 -6.01318
0.508828 -2.06029
0.670662 -2.09881
0.604878 -8.33504
0.649608 -8.04983
0.072273 -0.669504
0.158134 -0.642996
-0.0205616 -0.0529454
-0.00892023 -0.0816571
0.291823 -6.33721
0.544135 -6.28706
0.527883 -6.07826
0.318564 -6.21939
-0.764605 -15.1255
-0.422891 -15.0472
-0.426575 -0.832593
-0.345718 -0.8831
0.127897 -2.33241
0.296983 -2.33568
0.343641 -21.4556
0.110654 -21.1584
-1.6111 -20.7687
-1.24258 -20.8293
-0.462531 -20.7737
-0.451295 -20.3972
-0.611146 -19.2713
-0.949866 -19.4176
-0.052848 -0.137416
-0.0106047 -0.142446
-0.355257 -4.22208
-0.575701 -4.22341
0.650333 -1.39233
0.531792 -1.29305
0.487082 -9.06259
0.777608 -9.00745
-1.85385 -11.7987
-1.87819 -11.4717
-1.76901 -7.93744
-1.55541 -7.72839
-2.29002 -13.4316
-2.21326 -13.0964
0.676302 -7.37628
0.570238 -7.11477
-1.50498 -16.3115
-1.66438 -15.9933
0.654542 -8.645
0.389201 -8.76303
0.0114808 -14.2065
-0.230578 -13.9591
0.933814 -2.07238
0.771041 -2.05146
1.08455 -3.99788
0.870339 -3.93652
0.295215 -25.3664
0.181101 -25.7312
0.445595 -2.95014
0.539552 -3.1277
-1.08307 -5.51206
-0.844845 -5.41512
-0.94421 -4.79736
-1.06706 -4.61147
-0.540881 -19.9042
-0.720542 -19.5778
-0.432237 -9.34459
-0.488014 -9.64671
-1.22035 -3.44843
-1.17519 -3.24783
-1.4328 -6.32363
-1.63534 -6.17956
0.480332 -24.4686
0.627849 -24.1167
0.958851 -8.81302
1.10231 -8.56302
-1.61446 -21.746
-1.28952 -21.9344
1.55354 -20.5631
1.40484 -20.9068
0.354334 -2.37022
0.508078 -2.46617
-0.128859 -0.0953885
-0.102225 -0.0627527
0.104373 -0.239424
0.128606 -0.199419
-1.48734 -7.98935
-1.21049 -8.04848
0.282302 -8.12693
0.536835 -8.26965
-0.00367522 -0.10758
0.0322694 -0.129446
-1.70327 -13.9493
-1.45578 -14.1827
-0.827881 -4.44748
-0.784416 -4.2232
-0.351729 -1.00543
-0.234652 -1.00159
-1.00693 -5.83248
-1.11191 -6.07554
-0.00995888 -6.69938
-0.174829 -6.91271
-0.406276 -24.5091
-0.545887 -24.1546
-1.47573 -8.61669
-1.55207 -8.33989
-1.34007 -6.27129
-1.17367 -6.05526
0.0127417 -0.0314734
0.0365088 -0.04385
-2.1542 -23.3349
-1.79853 -23.2019
0.00687016 -0.00354804
0.00430084 -0.0147483
0.632813 -1.07129
0.55047 -0.960493
-0.186826 -25.1918
0.19042 -25.2269
0.568744 -9.92498
0.406753 -10.1877
-0.0471411 -0.383624
-0.0669232 -0.317422
0.356807 -1.65777
0.348521 -1.80541
0.688532 -3.07223
0.881863 -3.09701
1.18095 -12.0895
1.31767 -11.7933
0.244883 -0.154437
0.2012 -0.113466
0.165223 -0.165592
0.115771 -0.133792
0.155395 -0.586834
0.222814 -0.545151
-1.07429 -7.68608
-0.811189 -7.57236
-1.43168 -19.7694
-1.26014 -20.0995
0.205622 -4.28533
0.0493228 -4.1268
0.768552 -22.2481
1.08005 -22.0358
0.414656 -13.1674
0.0779478 -13.1739
-0.340001 -0.364046
-0.415363 -0.384462
-2.54834 -23.2024
-2.74578 -23.5293
-1.02149 -22.1419
-1.29558 -21.8836
-0.987927 -15.2655
-0.650022 -15.3599
0.971065 -13.6514
1.05522 -13.3221
1.58922 -14.4023
1.64907 -14.0625
0.265174 -0.994869
0.365335 -1.07749
0.80441 -3.97678
0.656428 -3.80585
1.60096 -9.87798
1.57356 -9.56822
-1.2842 -12.3383
-1.29863 -12.6734
-0.245025 -0.281499
-0.184141 -0.234949
0.527353 -16.8981
0.405464 -17.2397
0.664455 -5.98519
0.433213 -5.86734
-0.830476 -7.50954
-1.01971 -7.31491
-0.992909 -2.72038
-0.905564 -2.54723
0.078633 -0.314261
0.0361025 -0.261083
-0.968998 -6.46852
-0.712752 -6.51811
0.481444 -5.04119
0.601646 -4.84107
-2.01178 -10.8749
-1.98033 -10.5526
-1.04616 -21.6121
-1.13111 -21.9818
1.26629 -9.95597
1.42698 -10.2363
0.698722 -16.3226
0.726545 -15.9648
-0.520375 -3.72437
-0.505564 -3.51544
0.481037 -4.90753
0.595323 -5.13127
0.800709 -10.515
0.494065 -10.4252
-0.303528 -15.7776
-0.556206 -16.029
0.46003 -7.50733
0.287361 -7.72429
-0.206116 -0.405039
-0.156667 -0.338574
-0.291165 -2.91165
-0.40153 -2.76782
-0.57718 -15.1444
-0.279384 -15.3308
-1.10589 -4.84787
-0.887842 -4.72867
-0.153619 -24.5305
0.094434 -24.8183
0.00480873 -10.548
0.119045 -10.2563
-0.928076 -2.51694
-0.919688 -2.34499
-0.662275 -5.85793
-0.909682 -5.82145
-1.61059 -6.12334
-1.64096 -6.38471
-0.0204058 -0.0159106
-0.0190152 -0.00594695
-0.698258 -4.85407
-0.814847 -4.65875
-1.24301 -12.1361
-1.33804 -11.8228
0.108154 -0.151583
0.111553 -0.114939
0.753534 -12.6708
0.436304 -12.559
0.0109648 -8.85127
0.094268 -8.56688
-1.62943 -25.6498
-2.00669 -25.6912
-0.129796 -23.7623
0.166542 -23.525
0.228782 -0.666284
0.323721 -0.675615
1.14309 -11.2417
0.953425 -10.967
0.743596 -3.39182
0.558325 -3.45098
-0.0213487 -0.00469323
-0.0400231 -0.0174834
1.32383 -4.99687
1.28289 -5.23145
1.0847 -6.5525
0.820412 -6.54893
0.040752 -0.0182377
0.04196 -0.0151178
-1.59561 -14.1736
-1.67775 -13.8405
0.244361 -1.28105
0.130582 -1.20255
0.305395 -10.4967
0.520011 -10.2703
-1.69227 -14.9742
-1.72924 -14.6264
0.177296 -4.16575
0.266519 -4.37345
-1.36976 -23.1045
-1.1576 -22.7886
1.32033 -24.8298
1.17207 -24.4777
-0.110121 -0.663437
-0.0188401 -0.679325
-0.13991 -0.348078
-0.0729726 -0.32229
-0.89308 -1.9563
-0.842625 -2.09245
-0.937628 -10.4929
-0.984297 -10.8135
1.29155 -24.3198
0.912932 -24.2793
-0.594344 -10.02
-0.328846 -10.1753
-0.975343 -6.65781
-1.00805 -6.39653
-0.0261684 -4.5026
0.0286017 -4.28235
-0.0263884 -0.319923
-0.00791831 -0.388929
-0.105479 -18.8831
0.0218493 -19.2325
0.783222 -6.38898
1.04575 -6.41584
1.21112 -10.3273
0.926441 -10.4489
-1.01401 -12.1203
-1.20918 -12.3952
-0.942236 -14.0785
-0.61347 -13.9738
0.870863 -16.6292
0.984188 -16.9765
0.0438416 -20.8303
-0.170819 -21.1388
0.795865 -23.4083
0.808893 -23.0277
-0.0561685 -0.0373959
-0.0473601 -0.0212796
-0.091797 -0.333358
-0.128657 -0.287747
0.79009 -3.08773
0.608304 -3.13032
-1.46192 -7.51257
-1.22232 -7.64221
-0.159952 -2.34845
-0.195801 -2.52172
-0.154329 -13.7572
0.163422 -13.6354
-0.33564 -1.75972
-0.389126 -1.9098
0.636306 -1.81956
0.498784 -1.72854
-1.49697 -14.2368
-1.65182 -13.9322
1.03385 -6.08036
0.925526 -5.83661
0.00250452 -25.8227
-0.356882 -25.7034
-0.203838 -8.85469
-0.214096 -8.55747
0.847639 -9.54498
1.00184 -9.2898
0.389149 -1.26803
0.49195 -1.37964
0.553692 -4.40214
0.624287 -4.19437
0.471223 -8.06666
0.211761 -8.18162
0.247155 -0.655818
0.323817 -0.623658
0.195309 -0.657835
0.188189 -0.565203
-0.75215 -2.70155
-0.928325 -2.78972
0.542429 -16.5845
0.22642 -16.4119
0.753149 -9.83212
0.706537 -9.52535
-0.130537 -3.04779
0.0200037 -2.9306
1.18263 -10.6286
0.976562 -10.3741
0.915622 -14.6194
0.856414 -14.2734
-0.475899 -4.04727
-0.575997 -3.86176
0.683876 -3.36554
0.880422 -3.43722
0.517451 -25.517
0.18037 -25.6941
-0.534399 -2.20437
-0.481209 -2.35818
-0.0954354 -23.7195
0.22803 -23.9171
1.03011 -18.3792
0.822909 -18.0662
0.104282 -0.862304
0.0276921 -0.78785
-0.379102 -13.8396
-0.720629 -13.8613
-0.722957 -21.5673
-0.681024 -21.1913
0.978252 -3.00933
0.992151 -3.20397
-0.156771 -0.289521
-0.101893 -0.30787
-0.756302 -12.0406
-0.809002 -11.7162
-0.211287 -2.83949
-0.39408 -2.81908
0.66857 -19.7146
0.792781 -20.0697
-1.51047 -11.0928
-1.61815 -11.4079
-0.379048 -15.2877
-0.194576 -14.987
0.792965 -13.6131
0.911022 -13.2953
-1.29032 -11.2951
-1.01085 -11.4547
1.02215 -16.4479
1.38098 -16.4367
-0.0263423 -0.00719966
-0.0248477 -0.00965383
-2.56869 -16.0507
-2.57251 -16.4097
1.28103 -19.0466
1.22862 -19.4165
0.848988 -3.9827
0.883986 -4.20328
-1.03382 -24.292
-0.699794 -24.1122
-1.69524 -24.2589
-1.54339 -23.9088
1.05443 -9.07968
0.768383 -9.15391
-0.894519 -8.74057
-0.980555 -8.46185
0.773557 -10.0748
1.07331 -10.1772
0.0890922 -0.563232
0.162894 -0.530468
0.63554 -1.24764
0.553294 -1.32807
-0.184879 -0.523591
-0.137154 -0.588011
0.215365 -0.264304
0.185992 -0.205915
-0.110663 -24.1154
-0.25027 -24.4707
0.587734 -13.5771
0.438837 -13.8841
-0.971886 -4.86453
-1.1212 -4.6981
-0.952727 -2.06218
-0.824141 -2.13309
-1.56704 -17.2299
-1.90703 -17.3742
-1.6123 -7.77674
-1.41278 -7.55908
0.377084 -3.00333
0.550566 -2.94385
0.800437 -3.96661
0.585403 -3.95122
-0.910168 -20.2222
-1.14235 -19.9313
-0.785948 -5.61133
-0.619298 -5.78895
-0.912843 -3.47002
-0.966177 -3.28523
0.936013 -3.01695
1.07634 -2.91637
-1.19241 -13.5111
-0.925154 -13.7188
-1.24008 -21.323
-1.59074 -21.4605
-1.8265 -15.8397
-2.16199 -15.9747
0.151556 -12.345
0.426947 -12.5361
0.620013 -1.31697
0.486231 -1.26703
0.632648 -2.41111
0.594681 -2.57733
0.886091 -2.34569
0.808982 -2.18078
1.14553 -12.56
0.829306 -12.4412
0.976615 -2.83517
0.894053 -2.65604
-0.44835 -0.848231
-0.3889 -0.921818
-0.038681 -0.0245814
-0.0193299 -0.017629
-0.275641 -0.214439
-0.213826 -0.176974
1.00474 -22.6424
1.22447 -22.3345
1.11138 -14.2071
0.891209 -14.4693
-1.82129 -17.2674
-1.49835 -17.4329
-0.968938 -19.6715
-0.970753 -20.046
0.239866 -0.208006
0.190863 -0.158506
-2.69123 -25.3614
-2.41123 -25.6205
1.06254 -20.3002
1.39546 -20.4774
-0.635546 -23.0924
-1.00166 -23.0014
-0.0164218 -0.0146055
-0.00623218 -0.00225323
0.345684 -17.1132
0.265192 -17.4688
1.00197 -19.6004
1.3377 -19.4422
-0.354099 -14.4292
-0.0219872 -14.3344
1.09986 -15.2556
0.784677 -15.091
-1.89999 -20.2427
-2.02203 -19.8905
-0.0219349 -0.0209127
-0.0226362 -0.00954316
0.674783 -2.76242
0.745932 -2.94571
-0.223647 -3.77122
-0.351085 -3.60915
-1.14651 -19.703
-1.33291 -19.3829
-1.56704 -22.8028
-1.92899 -22.9146
0.0194793 -14.7632
-0.326755 -14.7304
-1.98491 -11.7342
-1.77259 -11.9766
-0.128613 -0.0862499
-0.0963673 -0.0546763
-0.286634 -0.338288
-0.272448 -0.277614
0.177245 -0.525403
0.232674 -0.478726
-1.40552 -23.7749
-1.71613 -23.5585
-0.718127 -14.2717
-0.987986 -14.4937
-0.918454 -10.943
-1.23879 -11.0196
-0.527722 -24.399
-0.62695 -24.7678
1.00675 -16.6018
0.64739 -16.6137
-0.89074 -10.4559
-0.640684 -10.2608
-2.53385 -20.3547
-2.23512 -20.5769
-0.831653 -1.87575
-0.899131 -2.0314
1.11641 -4.81008
0.885514 -4.83436
0.508446 -17.5588
0.830388 -17.3908
-1.25703 -6.72674
-1.2389 -6.99484
-0.650196 -23.0056
-0.275586 -23.0499
0.530995 -5.37125
0.598556 -5.1336
-0.196869 -6.4081
-0.444859 -6.32947
0.674704 -7.03676
0.478034 -7.21829
-0.148475 -0.245827
-0.124707 -0.292823
-2.54439 -20.5128
-2.18702 -20.6221
-1.7927 -12.1613
-1.48743 -12.0163
-0.594455 -17.0978
-0.314568 -16.8724
0.000190621 0.000503621
-0.00227585 -0.000183155
1.2001 -18.2799
0.831915 -18.3026
-1.93394 -15.6169
-2.29025 -15.6236
-1.29824 -20.2953
-1.66953 -20.3351
-0.548904 -0.952393
-0.500567 -1.03935
0.546115 -3.17112
0.460502 -2.98857
-1.98705 -18.4986
-1.75205 -18.2054
0.401822 -4.47813
0.536324 -4.67247
0.159205 -0.0898324
0.167826 -0.114461
-0.486986 -9.36307
-0.216961 -9.22815
0.0236744 -0.0629498
0.047677 -0.0559253
-1.01126 -2.49143
-0.85332 -2.37952
0.146909 -3.51506
0.162008 -3.72444
0.330996 -11.6291
0.386157 -11.9561
0.192477 -0.209572
0.186431 -0.165059
-0.558323 -25.1782
-0.183582 -25.2274
1.16475 -6.32656
0.984208 -6.50243
-0.758072 -1.4496
-0.718341 -1.57206
0.799497 -2.28232
0.838577 -2.13121
-0.745469 -10.6006
-0.946379 -10.8602
1.08704 -3.97381
0.872299 -3.97148
-0.00367541 -0.00134544
-0.0161546 -0.00411275
0.206644 -0.227396
0.149989 -0.18997
-0.439384 -7.5543
-0.696386 -7.67399
-0.279179 -8.82369
-0.405368 -9.09669
0.323537 -0.71341
0.422525 -0.724819
1.18347 -10.6339
1.43153 -10.8536
0.316316 -4.62531
0.545818 -4.62156
1.03958 -23.8773
0.661263 -23.8437
-2.31164 -24.9257
-2.29755 -25.3077
-1.89614 -16.9029
-1.77107 -16.5595
-0.697124 -2.6835
-0.531521 -2.74124
0.433956 -23.6574
0.139807 -23.8978
-0.628548 -9.79584
-0.922194 -9.89385
-1.22727 -25.5586
-1.59283 -25.4612
-1.27198 -5.09533
-1.1574 -4.8686
0.412177 -12.6868
0.165485 -12.4572
0.682224 -1.75803
0.681693 -1.90948
0.99921 -6.10034
0.863757 -6.31197
-0.374131 -4.16139
-0.450514 -3.95926
0.197324 -20.6832
0.276975 -20.316
-2.36272 -17.6219
-1.99486 -17.6293
0.569474 -1.80755
0.616134 -1.96368
-0.807858 -21.2898
-1.17295 -21.3768
-0.321368 -0.278892
-0.314477 -0.234453
0.609092 -1.70566
0.677531 -1.59191
0.745534 -4.38451
0.946564 -4.51363
-0.529865 -1.07954
-0.43161 -1.12945
-2.29868 -15.3232
-2.40357 -15.6665
0.985603 -8.75296
1.27525 -8.83312
0.443466 -0.529805
0.459589 -0.61433
0.0123804 -0.151707
0.0506486 -0.187162
0.612127 -21.3981
0.76927 -21.0561
0.00833089 -0.0303349
-0.00363318 -0.0529067
-0.846477 -19.1106
-0.961488 -19.4644
0.278498 -4.50431
0.263511 -4.27727
-1.91755 -19.962
-1.77727 -19.6132
-0.785634 -2.05273
-0.66409 -1.9242
-0.299498 -16.442
-0.105106 -16.7451
-0.413454 -16.7436
-0.153006 -16.9908
1.3489 -23.2811
1.03515 -23.0652
0.183521 -2.76181
0.154235 -2.94703
-0.640048 -1.51318
-0.542078 -1.38876
-0.786662 -11.6476
-0.54364 -11.8621
1.04289 -14.195
0.713332 -14.2891
-0.692163 -15.9643
-0.706783 -15.607
-0.940177 -4.10332
-0.9132 -4.31983
0.19181 -4.32494
-0.0277567 -4.33543
-1.971 -22.5335
-2.14698 -22.8715
-0.741909 -24.3241
-0.84975 -24.6905
0.605016 -2.14829
0.648356 -2.31695
-0.292227 -3.14197
-0.342689 -3.3369
0.0250531 -0.123173
0.00460105 -0.163307
-0.247555 -0.217598
-0.281696 -0.207231
0.292703 -0.702828
0.306333 -0.615082
0.179481 -0.820939
0.284482 -0.835076
-0.101857 -0.511603
-0.0628614 -0.435586
1.34023 -12.8634
1.01723 -12.9451
-0.545313 -2.45199
-0.499075 -2.28059
-0.0583336 -0.155031
-0.0483236 -0.109531
-0.666873 -23.8382
-0.63642 -24.2186
0.501263 -0.955616
0.557414 -1.0734
0.835464 -6.77667
1.04398 -6.62496
0.463495 -7.80764
0.280864 -8.02161
-1.20376 -23.4562
-1.55286 -23.604
-0.595501 -8.86685
-0.864789 -8.75133
-1.83382 -13.8026
-1.52143 -13.6483
0.130641 -3.20776
0.324963 -3.20162
1.02682 -3.34428
1.04168 -3.54814
-2.76212 -24.7158
-2.82054 -25.0935
-0.139642 -0.493861
-0.146912 -0.581198
-0.889587 -1.85246
-0.73172 -1.80636
0.326591 -16.2714
0.299814 -16.6312
1.38379 -14.45
1.68958 -14.2982
0.659667 -1.74862
0.646997 -1.59974
-1.09468 -8.78299
-0.804652 -8.71295
0.149839 -0.643905
0.242728 -0.653511
-0.586169 -6.55834
-0.551597 -6.29439
-0.000656344 -0.121772
0.0299815 -0.0995754
0.427101 -4.02555
0.606748 -4.16256
-0.457238 -9.3149
-0.756042 -9.35881
0.918071 -25.5036
1.20936 -25.2555
-1.8414 -15.8465
-2.17534 -15.7311
0.114249 -14.1356
0.0752625 -14.4817
-0.393211 -14.095
-0.482417 -14.4317
-0.377942 -2.31706
-0.544248 -2.37611
-0.453777 -10.548
-0.196692 -10.3789
-2.48128 -16.0105
-2.12858 -16.0656
-0.435278 -1.81415
-0.58849 -1.8546
0.369137 -3.39597
0.352202 -3.19481
-0.643837 -16.2412
-0.67698 -15.8837
-1.82699 -13.4441
-2.02057 -13.1726
-0.607479 -14.4311
-0.854256 -14.1899
1.26455 -16.0087
0.922231 -16.1009
0.474482 -11.8966
0.35051 -11.5881
-0.317175 -1.8855
-0.428149 -1.79527
-1.16233 -3.80185
-0.957238 -3.71226
0.058985 -2.7901
0.213274 -2.69723
0.171096 -19.8156
0.497643 -19.9979
-0.633978 -5.07594
-0.873257 -5.15406
0.61084 -1.02585
0.674204 -1.14814
1.34432 -10.4008
1.02867 -10.3965
-1.85152 -17.1417
-2.18462 -17.0019
-1.11676 -3.2019
-0.925058 -3.22503
0.87272 -21.3178
0.612518 -21.5889
-2.42722 -19.4071
-2.09747 -19.226
-0.400609 -8.18703
-0.188159 -8.38279
0.473864 -17.5949
0.674198 -17.2908
-0.363975 -21.1102
-0.396076 -21.487
-0.00534029 -1.91646e-05
-0.0164629 -0.00891713
0.216235 -0.229088
0.191252 -0.264126
0.319833 -1.48219
0.290278 -1.62009
-0.246219 -6.24093
-0.415718 -6.44367
0.394726 -0.558839
0.390296 -0.641026
-1.05595 -10.3255
-0.878094 -10.5834
0.84172 -11.4535
0.518763 -11.4
0.0555247 -9.37659
-0.153607 -9.59682
0.743903 -8.55509
0.86628 -8.29525
0.749835 -1.57257
0.62386 -1.46974
1.63359 -14.2494
1.60232 -14.5956
-1.30101 -7.00253
-1.22634 -6.73636
-1.21726 -15.1189
-0.899064 -15.2638
-1.05763 -22.6027
-0.784547 -22.864
1.24264 -16.6597
0.997895 -16.9208
1.39897 -10.3101
1.26085 -10.588
0.259231 -3.5343
0.462315 -3.53304
-1.42342 -19.7362
-1.5711 -19.3958
0.294653 -9.14414
0.0238976 -9.01488
-0.417374 -10.0853
-0.430677 -9.77425
0.336849 -0.973709
0.388854 -0.887455
-1.15906 -12.6325
-1.3769 -12.8957
0.184492 -18.9441
0.549344 -18.8838
1.24341 -20.5891
1.54668 -20.8156
-0.786443 -9.74793
-0.481657 -9.76463
-1.13808 -5.34615
-0.941618 -5.48249
-0.0852722 -15.6408
0.0731604 -15.3238
-1.88962 -18.7339
-2.14199 -18.4652
1.23096 -23.7126
1.23237 -24.094
-0.168231 -9.50417
-0.462814 -9.43999
-0.805979 -22.3219
-0.527851 -22.5774
-1.2035 -10.0497
-0.891412 -10.036
0.407477 -1.81371
0.528684 -1.92842
0.00694711 -0.00947109
-0.00595847 -0.0132086
1.22594 -13.2896
1.05983 -13.582
0.331436 -6.94433
0.334628 -6.67305
-2.27152 -18.8137
-2.05022 -18.5094
-0.924861 -7.76109
-1.12888 -7.57744
-0.926234 -12.274
-0.627858 -12.4119
0.949351 -8.81737
0.978946 -8.52411
-1.87933 -11.2228
-2.20638 -11.2154
1.19886 -18.9078
0.871245 -18.727
-1.26671 -18.3679
-1.6243 -18.2748
0.593845 -12.4201
0.782144 -12.151
1.62795 -16.955
1.35465 -17.187
0.906367 -4.16921
0.968127 -4.39182
0.688208 -12.3064
0.676738 -11.973
-0.297361 -1.05641
-0.195918 -0.984241
-0.142614 -13.646
0.1257 -13.4375
-0.791779 -16.6498
-0.644097 -16.3203
-0.467195 -0.854692
-0.545972 -0.957171
-0.578635 -1.02268
-0.467852 -0.944399
-1.1354 -5.86485
-1.38654 -5.83438
-1.84223 -24.7454
-1.46392 -24.7642
0.955728 -3.23241
1.03047 -3.06689
-0.741249 -17.081
-0.818387 -16.7268
0.0912282 -0.0398029
0.065786 -0.0267529
-0.443909 -12.3467
-0.113891 -12.3538
-1.08255 -3.52394
-1.22563 -3.69829
0.174763 -0.58697
0.155008 -0.498871
-0.198339 -2.56615
-0.285144 -2.41655
-0.0797457 -22.9859
0.0275306 -22.6211
-0.618788 -3.54872
-0.579513 -3.34544
-0.0557457 -12.5267
-0.368259 -12.6394
1.12207 -24.0506
0.758658 -24.1623
-1.59867 -25.7191
-1.73387 -25.3631
1.11186 -12.4383
1.0166 -12.757
0.523678 -17.6699
0.512187 -18.0421
-1.40296 -23.7332
-1.64485 -23.4411
-0.226936 -7.52638
0.00772073 -7.68002
-1.04502 -2.49197
-0.924052 -2.34085
0.148419 -0.344958
0.181904 -0.417941
0.469484 -15.2909
0.562678 -15.6356
-0.0518578 -0.0229108
-0.0380467 -0.0197282
-0.343097 -9.04968
-0.607833 -9.19322
0.949315 -9.75559
1.07331 -10.0474
0.283976 -15.5278
0.24595 -15.1742
-0.662697 -7.57869
-0.400021 -7.4773
-0.216857 -1.18375
-0.102764 -1.13301
0.869584 -16.1296
1.11065 -15.8714
-0.0435638 -0.422633
0.000217864 -0.48851
-0.645706 -1.18259
-0.713838 -1.31301
0.729561 -2.84949
0.863286 -2.74413
-0.142536 -0.354666
-0.0918313 -0.298405
-0.95436 -2.3556
-0.921151 -2.51595
-2.27493 -12.7788
-2.28328 -13.1165
0.500587 -2.2111
0.365034 -2.29343
-0.966934 -21.7622
-1.24142 -21.5055
-0.42081 -2.40884
-0.293044 -2.28396
-0.242874 -2.57813
-0.420363 -2.60832
-1.28046 -13.6526
-1.53713 -13.8887
0.867986 -19.4678
0.867458 -19.0935
-2.07476 -15.2517
-2.1303 -14.9059
-0.183904 -22.7889
-0.0900471 -23.1576
0.875762 -9.78328
0.656578 -9.5591
-0.956229 -12.0791
-0.628772 -12.0759
-2.03576 -13.389
-1.80884 -13.1247
-0.52622 -10.0884
-0.27175 -10.2617
-1.41551 -8.06389
-1.13092 -8.09189
-0.611387 -3.60966
-0.407676 -3.56257
0.0354953 -0.0164998
0.080295 -0.0350564
0.13454 -0.547702
0.220171 -0.554932
-0.0978145 -8.07462
-0.00443525 -8.35048
-0.0474066 -0.131201
-0.0870696 -0.166789
-0.00135289 -13.4363
-0.335338 -13.3793
-0.616353 -21.696
-0.350876 -21.4282
-0.673962 -19.1629
-0.983113 -18.9656
0.165928 -7.59015
0.442816 -7.63453
-0.152945 -12.8473
-0.355793 -12.5798
-0.366709 -8.6763
-0.168766 -8.45785
-1.62116 -15.997
-1.29246 -16.131
-1.33379 -11.1984
-1.32429 -10.8703
0.471003 -5.15607
0.682156 -5.04895
-0.657505 -5.88917
-0.852692 -6.06653
-0.0428646 -2.47802
0.114432 -2.40745
0.0656275 -14.2684
-0.181339 -14.5111
-0.379154 -23.4764
-0.379691 -23.0953
-1.12287 -5.10142
-0.926066 -4.93754
0.204079 -22.132
-0.137 -21.9715
1.23965 -9.99888
1.10113 -9.71257
1.3514 -5.3687
1.20471 -5.55368
0.257403 -0.21562
0.198453 -0.190531
-1.64482 -18.7806
-1.34309 -18.5604
-0.083559 -6.13855
-0.159021 -6.38938
0.446793 -5.23724
0.545637 -5.47738
0.0569474 -0.102127
0.0264647 -0.119219
0.196851 -0.721319
0.293459 -0.721038
-1.13162 -25.6284
-0.754747 -25.6292
0.411545 -20.3531
0.524179 -19.9961
-0.851216 -2.05611
-0.687497 -2.03453
-0.786304 -3.16443
-0.745921 -2.97101
-2.33545 -23.2794
-2.69746 -23.1674
-1.35147 -7.07889
-1.13915 -7.23788
-0.0510103 -0.0209156
-0.0660091 -0.0296723
-0.792339 -5.3103
-0.989835 -5.48004
0.876368 -19.0017
0.927559 -19.3731
0.00193998 -6.44102e-05
-0.00107213 0.000976052
0.254863 -2.44328
0.168779 -2.59398
-1.54019 -9.03798
-1.74681 -8.83715
1.34583 -12.5583
1.06091 -12.7227
-1.65431 -15.1959
-1.82894 -14.8953
-1.91704 -10.9387
-1.84557 -11.2524
1.22131 -19.0521
0.849463 -19.0472
-2.8286 -23.2495
-2.4589 -23.1585
1.08392 -12.456
1.39486 -12.3495
1.41485 -10.6563
1.47148 -10.3459
-2.25715 -17.7818
-2.44378 -18.1082
0.845974 -3.42239
0.793992 -3.6135
-1.30772 -14.1253
-1.40879 -14.4608
0.932073 -8.62966
1.22549 -8.63564
0.617914 -1.64229
0.706622 -1.78197
0.0822935 -20.0672
0.452557 -20.0335
-0.312747 -1.17823
-0.420116 -1.13021
-1.57259 -24.394
-1.93086 -24.5194
-0.0489655 -0.0884595
-0.0554544 -0.0610809
1.34062 -13.2435
1.10771 -13.4829
0.0803639 -0.0556147
0.109335 -0.0642555
0.313215 -3.24997
0.377758 -3.06857
0.728104 -19.0854
0.971304 -19.3715
0.270725 -13.442
-0.0585211 -13.3586
-1.17321 -19.2711
-1.54161 -19.2455
1.05641 -8.34248
1.34465 -8.40216
-0.675748 -5.78054
-0.580049 -5.54056
0.695066 -3.26282
0.892313 -3.27129
-0.752952 -9.5618
-0.938352 -9.81189
-1.15455 -20.0705
-1.52054 -20.0085
0.248317 -0.221199
0.227341 -0.173118
-1.25137 -16.6417
-0.93424 -16.4703
-0.0453667 -0.0603879
-0.0529488 -0.0420841
0.760308 -1.74709
0.864673 -1.8849
-2.00418 -18.144
-1.66915 -17.9792
-0.0288676 -0.160262
-0.00714709 -0.117962
-0.737575 -2.75437
-0.664509 -2.57834
-0.905869 -9.46744
-1.20566 -9.53621
-0.115865 -15.9821
0.230651 -15.9092
0.544522 -1.82815
0.639333 -1.96935
-1.91813 -9.93541
-1.68749 -9.70993
-0.15355 -0.379753
-0.228309 -0.408588
0.333802 -10.2829
0.0297961 -10.2215
0.00274163 -7.97122
-0.186156 -8.18768
-0.506378 -3.88746
-0.335826 -3.7525
-0.315467 -0.352584
-0.2429 -0.3288
0.539098 -3.07638
0.687076 -2.97284
-0.83047 -13.0374
-0.750164 -12.7077
-0.0591072 -2.84318
0.010667 -2.67147
0.507768 -23.3683
0.860683 -23.2308
-0.0947094 -0.0850968
-0.114707 -0.0780637
-1.43467 -9.11759
-1.65071 -8.92399
0.994637 -8.33013
1.16874 -8.11063
-0.462564 -0.568529
-0.375907 -0.505268
0.299007 -7.63862
0.204143 -7.37162
1.10959 -10.2443
1.07201 -9.93073
-0.181542 -1.06214
-0.067887 -1.05046
-0.539813 -2.46657
-0.635226 -2.33552
0.0710821 -0.0738339
0.0388184 -0.0629332
-0.437517 -0.451521
-0.367002 -0.381687
-2.68886 -21.4607
-2.46899 -21.1505
-0.0590221 -0.0573199
-0.0302896 -0.0411547
0.525609 -1.81081
0.379974 -1.74875
0.304257 -7.97089
0.0460478 -8.08799
-0.545615 -0.71441
-0.613346 -0.813877
0.637 -16.7665
0.730312 -17.1195
0.852741 -12.2483
0.797282 -11.918
-0.262257 -2.95669
-0.232325 -3.14723
-1.49963 -19.4512
-1.61298 -19.0981
0.897027 -21.4754
0.604865 -21.2353
1.15481 -19.7125
1.20899 -19.3427
-2.65006 -21.499
-2.36444 -21.2481
-0.509781 -1.06496
-0.431862 -1.13924
-0.152855 -2.11964
-0.246882 -1.9919
0.0184107 -0.00345715
0.0395323 -0.0157695
-2.29934 -19.6379
-1.92725 -19.6607
-0.0397492 -14.6512
-0.0806407 -15.0006
-1.95371 -16.9798
-1.84895 -17.3273
-1.60849 -16.1543
-1.71477 -16.5006
-2.13069 -23.3568
-2.23809 -23.723
1.17793 -23.6918
1.02421 -23.3428
-1.22247 -3.5524
-1.07699 -3.38385
0.464293 -2.30072
0.518599 -2.47195
-0.384244 -0.407301
-0.304732 -0.374495
1.03141 -22.1452
1.40038 -22.0658
1.16907 -20.4324
1.5099 -20.5944
0.256113 -0.278724
0.223169 -0.312594
0.0791338 -0.634237
-0.00444693 -0.597385
-0.0885011 -23.2091
-0.111728 -22.829
-0.697022 -10.753
-0.464308 -10.5353
0.47396 -17.7797
0.524775 -17.4148
-0.579971 -22.7419
-0.918571 -22.9103
1.16264 -24.4174
0.818942 -24.5816
-0.365777 -1.95691
-0.216515 -1.9938
-1.36241 -8.49299
-1.47542 -8.23239
-1.72936 -17.4779
-1.54781 -17.1551
1.01791 -13.4747
0.864005 -13.7766
0.319713 -1.10924
0.271177 -1.21837
-0.18771 -23.2741
-0.146054 -22.8954
-1.46111 -12.249
-1.58754 -12.5633
0.113598 -0.281183
0.0554263 -0.252379
0.00832058 -16.6751
-0.254186 -16.9214
0.285081 -2.09247
0.275573 -2.25854
0.361323 -17.2112
0.381307 -16.8481
0.574848 -8.73748
0.557403 -9.03584
-1.64358 -19.9242
-1.81952 -19.5974
-0.670093 -1.88272
-0.646656 -1.72977
-0.915158 -25.4374
-0.554366 -25.3245
0.709527 -13.0846
0.629571 -12.7531
1.03015 -21.0321
0.656887 -20.9896
-0.908107 -3.07523
-1.0723 -3.00146
-0.0635704 -0.136706
-0.0902509 -0.184594
0.545185 -16.8939
0.811805 -16.6537
-0.0793362 -4.80471
0.131586 -4.88195
-0.138959 -1.98971
-0.256018 -1.88973
-2.00506 -19.9184
-1.97037 -19.5456
1.34017 -7.1543
1.10156 -6.99839
-1.72448 -12.319
-2.03328 -12.2074
0.492959 -8.95636
0.616937 -9.23525
-0.86069 -9.36042
-0.911009 -9.06346
-0.0721486 -0.0604601
-0.0505801 -0.0676172
-0.93225 -17.102
-1.24529 -17.2876
0.43695 -16.1245
0.206928 -15.8489
-0.330169 -0.783463
-0.272857 -0.688771
1.44399 -7.42944
1.20428 -7.26645
-2.61145 -23.5353
-2.64352 -23.9153
0.695591 -14.2904
0.375411 -14.415
-0.00916836 -0.00129216
-0.00806419 3.53731e-05
0.846408 -4.08036
0.693152 -3.91017
-1.04841 -11.888
-1.15894 -12.2036
-0.580143 -17.216
-0.351064 -16.9376
-0.191361 -0.197163
-0.252701 -0.232334
0.421534 -0.631217
0.462996 -0.574785
-0.652059 -3.03901
-0.480226 -3.11073
-0.0497207 -7.01962
-0.0988317 -7.29147
-0.604741 -14.769
-0.783778 -14.4702
-2.59822 -21.4648
-2.56393 -21.0884
0.401577 -2.07437
0.263904 -2.14675
-0.818419 -21.595
-0.691787 -21.9514
0.700636 -2.17175
0.674706 -2.00756
0.748376 -1.80921
0.851761 -1.72602
0.39239 -7.60087
0.148044 -7.45995
0.18608 -16.5875
-0.0439593 -16.3107
-2.47613 -19.8835
-2.20892 -20.1408
1.37311 -6.56763
1.11466 -6.60573
1.19309 -11.6598
1.52169 -11.6757
-1.84854 -10.6495
-1.80326 -10.3308
-0.506318 -23.8696
-0.590522 -24.242
0.322422 -1.91017
0.468385 -1.88192
0.171308 -0.410955
0.163791 -0.487012
0.00996965 -0.000824827
0.027694 -0.00968507
-0.619729 -5.52467
-0.832368 -5.67295
-0.648696 -1.62215
-0.638541 -1.47848
1.07608 -11.5952
1.15019 -11.277
1.02588 -5.82644
1.13759 -5.60898
-0.220957 -0.357233
-0.275156 -0.426399
0.0233533 -2.02863
0.143661 -1.92743
0.706385 -3.94401
0.540127 -4.06824
-1.1506 -4.13124
-0.931601 -4.06634
1.13802 -3.33239
0.987917 -3.43967
1.03193 -3.81969
0.929908 -3.99329
0.0983443 -2.72632
-0.0456372 -2.61472
-0.153191 -19.0024
-0.15201 -19.3743
-1.02375 -7.70549
-0.836749 -7.91044
0.164277 -0.086928
0.135476 -0.0797371
1.37614 -10.7946
1.56458 -11.0713
0.669816 -16.2575
0.993187 -16.1113
-0.472422 -12.3084
-0.316477 -12.0161
-1.13109 -22.5093
-1.27833 -22.8602
-0.69641 -4.57571
-0.891085 -4.72128
-1.50406 -21.7966
-1.31057 -21.4706
-1.53292 -7.13069
-1.75787 -6.99606
0.902785 -17.6704
0.903318 -18.0423
-0.827572 -15.7676
-1.03187 -16.0625
1.04478 -9.68398
1.24096 -9.46053
-0.191422 -15.1921
0.114332 -15.3676
-1.28856 -7.44935
-1.56886 -7.45631
-0.227426 -16.2821
-0.537086 -16.1064
-0.416319 -3.2651
-0.294671 -3.10366
-0.935379 -3.45895
-0.819832 -3.61344
0.261993 -0.537325
0.18698 -0.479698
1.51611 -15.1285
1.55238 -15.4826
1.21994 -9.09969
1.15394 -8.80287
0.457431 -6.99923
0.19761 -6.91715
-1.6564 -11.0128
-1.8749 -11.268
0.26357 -8.49106
0.0853343 -8.72272
-0.416445 -1.3399
-0.400749 -1.47822
0.107275 -3.44579
-0.00992235 -3.28007
-0.056502 -0.0553454
-0.0357003 -0.0287343
-0.0389388 -0.199866
-0.0750541 -0.171243
-0.0472491 -0.0197731
-0.0131847 -0.00343034
-0.24381 -13.6305
-0.356958 -13.9562
-0.243004 -16.6071
-0.36596 -16.9478
-2.38736 -25.1148
-2.57548 -24.783
-0.400395 -15.4892
-0.321798 -15.1432
0.0178519 -0.00555074
0.0539981 -0.0207217
-1.33242 -21.2952
-1.6924 -21.1924
0.108284 -0.144714
0.0858292 -0.101159
-1.15097 -22.6854
-1.35685 -23.0053
0.899252 -4.20844
0.740955 -4.34899
0.39426 -21.7713
0.389729 -21.3926
-0.144489 -0.618103
-0.17403 -0.538936
-1.88133 -11.5865
-2.20996 -11.6438
0.000520042 -19.525
-0.0209603 -19.8985
-0.159029 -16.8575
-0.0478878 -17.2023
1.10782 -16.0139
1.44421 -15.9057
-0.26244 -0.564462
-0.292337 -0.497287
-0.846444 -7.86958
-1.12146 -7.81161
-0.621284 -3.7959
-0.660538 -3.59331
-0.171658 -0.50738
-0.0912263 -0.515655
0.369936 -0.640287
0.277919 -0.594937
1.09134 -10.661
1.32282 -10.4554
-0.401163 -15.5192
-0.753446 -15.5257
-1.45078 -12.8072
-1.117 -12.7607
0.369426 -1.43177
0.505758 -1.42717
-2.19784 -16.8725
-2.56106 -16.9219
-2.24362 -22.3355
-2.50465 -22.0639
-0.096083 -14.49
0.249614 -14.5106
-1.48427 -25.0973
-1.83727 -25.2367
0.218255 -14.9974
0.271304 -14.6502
0.336463 -23.3732
0.3871 -23.7511
0.193841 -0.131235
0.152622 -0.121333
-2.74576 -19.8025
-2.41257 -19.9668
-0.5278 -0.989023
-0.484368 -0.876058
-1.08565 -4.85138
-0.865394 -4.92344
0.208661 -20.5669
0.582114 -20.5781
0.217832 -15.507
-0.133704 -15.4867
-0.801317 -10.5554
-1.09821 -10.6877
-0.489385 -8.9545
-0.320323 -9.20122
1.15782 -10.1645
1.09954 -9.85395
-0.165665 -14.1794
-0.509273 -14.1626
-0.178431 -1.04994
-0.296253 -1.0892
1.30408 -4.98856
1.06422 -4.98011
-0.0817128 -10.2702
0.211054 -10.3689
-1.24779 -21.9376
-1.56074 -21.7297
1.39433 -12.8905
1.45822 -13.2271
-0.339115 -1.0151
-0.238256 -0.941834
-0.133794 -7.15904
0.135444 -7.1188
0.302218 -22.9078
0.129839 -22.5691
-0.17641 -14.7195
0.134536 -14.8794
-0.0359263 -0.0198193
-0.0169702 -0.00511162
-0.342908 -20.688
-0.258389 -21.0556
-1.43281 -18.2768
-1.76444 -18.4491
-1.57579 -5.73682
-1.55181 -5.98689
0.467099 -11.6054
0.793299 -11.6057
0.00909651 -0.00257535
0.0225407 -0.00860285
-0.0149192 -0.0299695
0.0055557 -0.0343343
1.01014 -4.80714
1.23868 -4.90457
-1.14566 -5.72587
-1.19448 -5.98081
-0.607708 -19.3772
-0.679905 -19.0143
0.192419 -4.35311
0.204514 -4.58165
0.888729 -12.785
1.13929 -12.5712
1.37023 -6.53411
1.36672 -6.80157
-1.23446 -22.545
-1.55378 -22.345
-2.32988 -13.731
-2.07718 -13.4858
-0.0532025 -0.291224
0.00907145 -0.295653
-2.62563 -23.6478
-2.84741 -23.9589
0.331283 -3.12534
0.493366 -3.03461
0.362326 -19.2494
0.0408804 -19.0628
0.765621 -9.53801
1.03885 -9.68914
-1.13673 -7.36621
-0.883049 -7.2394
-0.0123345 -16.6852
-0.161966 -16.357
0.327042 -7.77352
0.129942 -7.97469
-1.24526 -13.4772
-1.49042 -13.7236
-0.103654 -0.204601
-0.0813049 -0.152843
-0.0114119 -6.06699
-0.259533 -5.9968
0.100903 -15.9439
0.383413 -15.7308
-1.23696 -12.0824
-0.990664 -11.8556
0.101119 -13.4012
0.254881 -13.7096
0.915294 -4.77384
0.782465 -4.56757
1.40503 -18.2328
1.52062 -17.8821
1.6136 -19.2464
1.4721 -18.8972
0.71498 -8.14778
0.933386 -8.35003
-0.757697 -9.67898
-0.638251 -9.3944
0.433652 -13.6876
0.491009 -13.3504
0.574657 -13.0837
0.865782 -13.2647
1.13333 -14.4078
1.29901 -14.7216
-1.4357 -4.99932
-1.37545 -4.76103
1.42479 -13.8868
1.09188 -13.9598
-1.83453 -7.53824
-1.7724 -7.2615
0.0283883 -0.0114104
0.0531936 -0.0269991
-0.0628737 -3.4894
-0.200113 -3.34248
0.429447 -0.625158
0.490385 -0.719127
1.34617 -9.88114
1.42892 -9.58956
0.509218 -12.416
0.39605 -12.0996
-0.472915 -14.5245
-0.662296 -14.2337
-0.307667 -1.89422
-0.164305 -1.83571
0.0513333 -0.0375071
0.0623724 -0.0648079
0.364196 -4.75389
0.521812 -4.59127
-2.40208 -18.9407
-2.34535 -19.3082
-0.712104 -1.81244
-0.780027 -1.96501
-0.700968 -7.80825
-0.89128 -8.02907
0.751926 -2.14769
0.653138 -2.00004
-0.79816 -1.69491
-0.822924 -1.56183
-1.91456 -18.1641
-1.77355 -18.5069
-0.0636968 -0.0677387
-0.0677209 -0.10134
1.2892 -17.7418
1.65355 -17.8078
-1.81804 -21.4842
-1.63134 -21.1543
-0.795803 -21.2476
-0.432937 -21.34
0.0214841 -13.4313
0.0574194 -13.7737
1.09935 -20.9869
1.4579 -21.1054
0.0423119 -0.0153365
0.0746442 -0.0357673
-0.260891 -2.12358
-0.213172 -2.28178
-0.116823 -0.189098
-0.109879 -0.239251
-0.37077 -16.6078
-0.411316 -16.249
-2.54159 -21.0999
-2.16795 -21.1404
1.25359 -7.32905
1.0018 -7.42503
0.625032 -2.84877
0.472635 -2.94078
-0.0594755 -0.0255922
-0.0613759 -0.030133
-1.06896 -4.51262
-0.96898 -4.29778
0.686688 -9.88021
0.698888 -9.57179
-0.130846 -3.25639
-0.29433 -3.15282
-1.44333 -12.2932
-1.53407 -12.6187
-1.05657 -11.1774
-1.01922 -10.8485
-0.906796 -23.4992
-1.04912 -23.853
-0.245496 -1.69692
-0.352453 -1.8071
-0.879919 -12.8869
-0.957724 -12.5609
1.28511 -22.9233
1.52769 -23.2178
-1.13065 -11.0571
-1.36697 -11.2932
0.592808 -23.224
0.96836 -23.2756
-0.818367 -24.5945
-1.1728 -24.7283
-0.385353 -13.4452
-0.708017 -13.5544
-1.15186 -12.7836
-1.41772 -12.5879
0.375748 -16.6386
0.0203632 -16.6822
-0.341779 -17.1826
-0.203857 -17.5161
-0.155224 -0.717169
-0.209185 -0.645938
-0.161389 -0.18009
-0.109633 -0.156142
0.417685 -0.39304
0.351281 -0.393026
-1.69811 -15.9354
-2.04352 -15.8537
-1.6657 -11.1504
-1.66204 -10.8244
-0.847814 -3.09252
-1.04413 -3.1409
-1.0471 -3.79065
-0.955143 -3.59054
-0.00488039 -3.2346
-0.0316652 -3.03957
-0.36567 -15.8989
-0.47879 -16.2397
-0.319624 -2.39825
-0.303681 -2.57344
-1.11422 -23.3046
-0.887991 -23.6091
-1.26393 -6.00016
-1.07059 -5.81311
0.864016 -4.66407
0.634285 -4.68022
-0.4918 -0.914825
-0.388692 -0.841584
0.528236 -25.4864
0.14938 -25.5163
-0.702815 -13.0643
-0.394987 -13.1996
0.413672 -21.8138
0.130868 -22.063
-1.07441 -9.51708
-0.902848 -9.76642
-0.417428 -12.7044
-0.292403 -12.3932
-1.23947 -25.1153
-1.53843 -24.8819
-1.75921 -18.1916
-2.12589 -18.1523
-1.01716 -17.6591
-1.08901 -17.2991
-0.15346 -0.594631
-0.158307 -0.508346
1.12964 -6.68367
1.38651 -6.78775
0.249743 -0.531821
0.21876 -0.44842
-2.50536 -16.5217
-2.23754 -16.2694
-1.69937 -18.0485
-1.36166 -18.1966
0.523046 -1.64071
0.430573 -1.74007
0.0238672 -0.365611
-0.0323457 -0.412809
1.41309 -6.16271
1.33672 -5.90662
-0.48719 -7.71976
-0.212607 -7.7791
-2.52157 -24.4702
-2.15216 -24.5595
0.400258 -7.00663
0.188995 -7.17381
0.0941527 -0.0485886
0.136379 -0.0729576
-0.727139 -24.8451
-0.411615 -24.6338
-2.59052 -24.9124
-2.41319 -25.2504
-1.33428 -8.14185
-1.3205 -8.43104
1.17661 -12.3987
1.49876 -12.3285
-1.31126 -24.4905
-1.47074 -24.1447
-0.387487 -6.50979
-0.649409 -6.54951
1.2354 -16.3057
1.08243 -15.9766
-0.816375 -3.87435
-1.03052 -3.87392
-0.012669 -0.212612
0.0402708 -0.22752
0.81924 -14.579
0.733787 -14.2383
1.55424 -21.6459
1.39717 -21.3
0.015787 -0.0031493
0.0265173 -0.00705791
-2.29799 -21.224
-2.42195 -21.5825
0.70684 -4.25484
0.905467 -4.17753
1.01138 -5.45514
0.904468 -5.67432
0.0704777 -0.063585
0.0537588 -0.035819
0.554317 -24.5972
0.581783 -24.2164
-0.910252 -4.79304
-0.888478 -4.5589
0.0942009 -0.0715434
0.0597634 -0.0470003
-1.19615 -21.3349
-1.25701 -21.7088
-1.75263 -16.3562
-2.04773 -16.1589
0.420155 -6.93425
0.190082 -7.07149
-0.888827 -8.60734
-0.845789 -8.89988
-1.016 -10.3692
-0.747353 -10.5314
-0.350325 -24.6007
-0.509936 -24.255
0.318741 -1.05448
0.395613 -1.16676
-0.308529 -21.9572
-0.661291 -21.8275
-0.0440691 -0.285016
-0.096451 -0.332269
-1.47196 -11.1261
-1.78824 -11.0683
0.335144 -22.5715
0.137599 -22.8953
0.0677559 -16.7328
0.177898 -17.0784
0.197662 -13.507
0.470184 -13.3083
-1.74052 -13.6497
-1.75395 -13.3086
0.118808 -0.103378
0.131141 -0.143133
-1.87414 -12.3895
-2.20878 -12.4341
0.0532002 -0.414421
0.12715 -0.44089
-1.4144 -22.518
-1.48813 -22.146
0.542619 -11.8401
0.241238 -11.7105
-0.34954 -4.21712
-0.550944 -4.1379
0.662392 -7.05301
0.454061 -7.22133
-0.0777291 -25.2219
-0.413053 -25.0463
-1.33905 -14.1303
-1.01223 -14.0133
0.732902 -6.21684
0.652628 -5.96445
0.62026 -22.1275
0.847474 -22.4319
-0.833407 -2.58284
-0.801128 -2.7541
1.3454 -12.108
1.27819 -12.4323
-2.34417 -18.7893
-2.66208 -18.9917
0.347374 -0.554387
0.437101 -0.611447
0.370969 -0.686646
0.422081 -0.786043
-1.01514 -15.4976
-1.3068 -15.7038
-0.619707 -5.52025
-0.685441 -5.76866
0.00102907 0.000668675
0.00718037 -0.000738137
-0.736855 -5.9235
-0.909593 -6.12558
-0.530296 -25.1252
-0.437051 -24.7548
-0.0207386 -3.61625
-0.137204 -3.44701
0.209173 -0.739823
0.124082 -0.680513
-1.63091 -20.2237
-1.91671 -19.987
1.18727 -19.9638
0.827487 -19.8584
-1.51858 -7.247
-1.78201 -7.18454
-0.530929 -8.34277
-0.458113 -8.62646
0.128583 -6.01868
0.381524 -6.03689
-1.15421 -14.274
-1.49 -14.368
0.221121 -3.39933
0.421252 -3.40704
0.167337 -17.9993
-0.0108132 -17.6729
-1.01519 -13.5144
-1.35521 -13.502
0.0450008 -0.0158452
0.0827524 -0.0355891
-1.92276 -23.0764
-1.54523 -23.0535
0.647865 -3.42951
0.658047 -3.63641
0.929468 -2.71778
0.818467 -2.55476
0.79285 -13.6708
0.905113 -13.3503
0.17842 -0.28726
0.234108 -0.281324
-1.53229 -18.0367
-1.78227 -18.3175
-0.00350819 -0.0341866
-0.024894 -0.0524384
-0.793003 -8.15542
-0.567107 -8.3297
-1.2794 -4.09928
-1.08872 -3.961
-1.71762 -12.6013
-1.38545 -12.6344
1.57902 -10.9469
1.31211 -10.7478
-1.55515 -19.8176
-1.25134 -19.5988
-2.73078 -21.4917
-2.45527 -21.7466
-0.0222607 -0.0117604
-0.00860829 -0.00102475
-0.0697442 -0.0570801
-0.0583489 -0.0748107
0.0827494 -15.2119
0.0115859 -15.5595
-1.29693 -21.1318
-1.15354 -21.4801
-1.58849 -8.97307
-1.28845 -8.96532
0.817474 -5.28266
0.914734 -5.06563
0.946389 -17.1732
1.26108 -16.9984
-0.860373 -8.92347
-0.82753 -9.22185
0.918335 -4.66757
0.755825 -4.48607
-0.970506 -2.81753
-0.918592 -2.63457
-2.37413 -24.7953
-2.15604 -25.1078
-0.103251 -0.417327
-0.174072 -0.406985
0.130168 -0.115448
0.0885273 -0.084759
0.270118 -4.61334
0.135753 -4.42708
0.787082 -9.91876
0.933926 -10.2016
0.252177 -0.293312
0.215545 -0.32694
0.20711 -11.8877
0.467886 -11.6957
0.205029 -7.14527
0.390635 -7.35514
-0.672159 -12.0571
-0.98494 -12.1628
-0.0533504 -4.65348
-0.230092 -4.79569
0.102047 -8.06222
0.276311 -7.83857
-0.86676 -5.05829
-0.639395 -4.95202
0.680958 -24.1569
0.391218 -23.9107
-0.249539 -0.198061
-0.190624 -0.163408
-0.270323 -0.901415
-0.185034 -0.823247
-0.00846376 -0.344453
-0.0275208 -0.280166
-0.535461 -3.61131
-0.475974 -3.80935
-0.0407922 -0.873108
-0.145513 -0.888472
-1.05947 -6.27375
-1.22431 -6.49314
-1.24765 -7.94962
-1.41781 -7.73364
0.247504 -0.39521
0.18488 -0.337702
0.191214 -0.44283
0.226697 -0.389041
-1.04809 -5.5244
-1.26506 -5.67534
0.208627 -0.45286
0.199516 -0.531047
-0.522948 -0.984898
-0.646084 -1.02951
-0.0277943 -0.572609
-0.00961969 -0.486979
-0.968633 -4.20119
-1.1459 -4.36207
0.921669 -22.5612
0.729554 -22.233
1.27322 -22.7859
1.19677 -23.1582
0.0379083 -2.49953
-0.0213886 -2.33437
0.694287 -1.63004
0.697743 -1.48886
0.768869 -19.5947
1.11058 -19.45
-1.24296 -4.13048
-1.29157 -3.92918
-1.81876 -24.3641
-1.87567 -23.987
-0.0979099 -4.41492
0.0533489 -4.58257
0.176459 -0.230348
0.224958 -0.287454
-0.755574 -3.80053
-0.861444 -3.9981
0.477018 -10.1534
0.664649 -9.90997
-1.71854 -7.29928
-1.47453 -7.14276
-1.55876 -13.6899
-1.21666 -13.6941
-2.08005 -21.3504
-1.8864 -21.0245
0.728792 -23.1687
1.01771 -23.4163
0.495392 -17.1415
0.523959 -16.7793
0.36971 -11.0171
0.299205 -10.6959
-0.0603772 -2.78887
-0.216318 -2.89376
-0.865537 -15.5361
-0.838499 -15.1818
-2.68541 -23.6015
-2.72764 -23.9805
-1.63956 -11.2289
-1.51924 -10.9189
1.03134 -7.94525
1.29478 -8.0775
0.0521302 -0.63297
0.127386 -0.589883
-0.058545 -0.0363964
-0.0341798 -0.0251987
0.460154 -2.01921
0.594816 -1.95802
-0.901917 -2.19685
-0.779751 -2.28634
-1.04091 -16.7334
-0.879114 -16.4098
0.068794 -0.109096
0.0543982 -0.0711465
0.386927 -0.40258
0.43405 -0.480888
-0.678611 -9.81537
-0.37328 -9.81128
0.781268 -23.7757
0.422006 -23.6536
-2.03778 -18.2593
-1.70582 -18.0877
-0.0306129 -0.0705371
-0.0182324 -0.0402084
0.173411 -0.25303
0.237634 -0.286082
-0.216931 -1.18302
-0.096847 -1.15151
0.89131 -19.8488
0.564089 -20.0248
-0.566739 -7.25072
-0.574587 -6.9756
-0.0897095 -0.72549
-0.132304 -0.642051
0.663952 -3.65837
0.640188 -3.86646
0.0356655 -0.0161607
0.015962 -0.00314008
-0.920165 -15.2082
-1.24304 -15.0747
-0.553335 -1.83503
-0.528446 -1.68357
0.883276 -5.33029
0.637358 -5.31869
0.171088 -0.265803
0.159397 -0.208631
-0.36275 -19.0539
-0.0173886 -18.9284
-1.19746 -4.7274
-1.00121 -4.57497
0.14763 -0.45733
0.0818574 -0.493018
-1.04256 -9.09257
-0.874379 -9.33772
-0.757533 -24.0189
-0.476511 -24.2734
1.19165 -16.7141
1.42962 -16.4494
-0.653567 -1.17109
-0.530512 -1.09518
1.455 -18.5202
1.1804 -18.2633
-0.736192 -15.7219
-0.383425 -15.7026
0.425612 -5.71457
0.673442 -5.69576
-0.331973 -0.523571
-0.422332 -0.553535
-2.00049 -13.4447
-1.94779 -13.1062
-1.85947 -16.5808
-2.06689 -16.8841
0.529098 -0.910875
0.415744 -0.873597
0.542401 -5.88727
0.511498 -6.14217
-1.58068 -17.4269
-1.73028 -17.096
-0.00122432 -0.768436
-0.0773639 -0.706998
-0.281844 -0.276678
-0.278121 -0.328215
-1.25187 -8.34599
-1.543 -8.34026
-0.412411 -2.37066
-0.552044 -2.28862
-1.51699 -8.86493
-1.67895 -8.62891
-0.27258 -1.86552
-0.136068 -1.93209
-0.758192 -20.4446
-0.412141 -20.5828
0.378732 -14.0188
0.585825 -14.3005
-2.02934 -24.591
-2.12427 -24.2218
0.815865 -9.26084
0.583209 -9.44596
0.256477 -8.90693
0.307792 -9.20515
0.183309 -18.9578
-0.162159 -19.0851
0.167649 -0.103919
0.125966 -0.0864994
-0.3056 -0.919214
-0.28111 -1.02638
0.713317 -3.87381
0.923957 -3.86502
-0.871307 -7.32899
-0.81252 -7.05621
0.0619709 -4.47169
-0.156188 -4.43442
-0.0477977 -1.0927
-0.159962 -1.0768
0.530742 -0.81907
0.447322 -0.856441
-2.03655 -18.1659
-2.39188 -18.0708
-0.880361 -4.26034
-0.700961 -4.11299
0.107577 -0.330428
0.128187 -0.403442
-1.97755 -12.9204
-1.72277 -13.1321
0.224076 -17.8063
0.196576 -18.1804
0.0702582 -0.0289379
0.104908 -0.0506605
-0.609922 -1.935
-0.571277 -2.08192
-1.39692 -24.8609
-1.71358 -25.0708
-2.83866 -20.4618
-2.71654 -20.815
1.1019 -20.0779
1.46623 -19.9979
-0.0808483 -2.25484
0.0576885 -2.16328
0.843286 -11.8389
0.943908 -11.5273
0.313971 -0.909995
0.205822 -0.874904
-0.0397778 -2.71743
0.00380279 -2.89972
-1.0076 -2.30451
-1.05248 -2.47731
0.865032 -10.8938
0.680282 -11.1557
0.231631 -9.11895
0.191345 -8.82035
-1.13519 -17.1992
-1.22894 -17.5545
-1.23741 -19.5871
-1.364 -19.2385
-0.245266 -2.48386
-0.0945114 -2.57086
0.369026 -4.18034
0.165888 -4.25681
0.271082 -4.83194
0.112024 -4.66265
1.07447 -3.90178
0.96169 -4.06955
-1.20466 -14.5798
-0.884805 -14.7123
-1.22066 -10.7758
-1.47693 -10.5949
0.242299 -3.70151
0.0924349 -3.55332
-0.996543 -6.77872
-0.732234 -6.71687
1.53839 -18.2052
1.34382 -18.5189
0.784907 -2.81506
0.951631 -2.93088
-1.03982 -2.83965
-0.859524 -2.86504
-0.228928 -2.60777
-0.0647677 -2.53563
0.271115 -21.4853
0.223981 -21.11
-1.41005 -17.5191
-1.09873 -17.3218
-1.23075 -6.77545
-1.48843 -6.88463
-0.0654975 -0.0896345
-0.0327533 -0.0933141
0.616042 -10.9624
0.459882 -10.6721
-0.434996 -15.9333
-0.0847543 -15.8821
-0.208969 -0.19533
-0.24888 -0.251405
0.4981 -17.726
0.781418 -17.968
-2.15934 -17.9403
-2.11842 -17.5706
-1.37365 -4.17409
-1.1769 -4.25095
0.190941 -4.00757
0.329113 -3.84822
1.01263 -21.2169
0.894008 -21.5747
1.07946 -6.64562
0.948902 -6.87049
0.141626 -17.5461
0.433179 -17.773
0.658061 -17.6428
0.932796 -17.8942
-1.15294 -8.83454
-0.856059 -8.81867
-0.672376 -3.31177
-0.68088 -3.11607
-1.91614 -9.52398
-1.97593 -9.23209
-1.3326 -24.5335
-1.63997 -24.7571
-1.9492 -14.2079
-1.69607 -13.9621
-0.0647894 -0.269343
-0.00966775 -0.242548
-1.4969 -11.9279
-1.36529 -12.2269
0.083751 -0.0491737
0.0842718 -0.0678149
-2.00262 -14.8859
-2.07782 -15.2329
-0.659137 -1.56413
-0.677952 -1.43081
-0.786005 -3.44731
-0.79222 -3.24833
1.41291 -12.8823
1.21033 -12.6037
-0.0355647 -0.0179649
-0.0404315 -0.0350168
-1.32108 -3.90324
-1.30887 -4.11448
1.32132 -7.30678
1.39825 -7.58296
0.183321 -0.331093
0.118283 -0.331484
0.0131443 -13.9994
0.26674 -13.7701
-0.523454 -6.04843
-0.26882 -6.0452
-0.77629 -4.47123
-0.627563 -4.28985
0.0247221 -0.390565
-0.0356007 -0.353102
-1.61735 -21.983
-1.9761 -22.1024
-2.16553 -17.4103
-2.12608 -17.0448
0.426167 -0.437677
0.376793 -0.36322
0.821627 -5.56467
1.0719 -5.59742
-0.226209 -10.1379
0.0775049 -10.1735
1.55974 -13.2333
1.35463 -13.4965
-1.70359 -11.1002
-1.52899 -10.816
0.726325 -23.1725
0.415763 -22.9543
-0.395702 -7.62802
-0.143423 -7.50532
0.0108748 -0.0716587
-0.020575 -0.0762321
-1.54303 -8.96794
-1.8442 -8.98306
-1.24502 -22.5224
-1.48957 -22.8134
0.489743 -1.02779
0.605794 -1.10506
0.96164 -2.33219
0.805148 -2.36988
-1.58265 -15.3901
-1.90287 -15.5515
0.701716 -3.00865
0.511635 -2.98124
-0.785491 -14.0717
-1.00922 -14.3397
0.851966 -19.0463
1.1568 -19.2651
-1.94765 -11.1333
-1.81595 -11.4252
-0.54809 -3.73752
-0.340962 -3.75934
0.400978 -0.695455
0.307992 -0.700242
0.265744 -9.50149
0.0823572 -9.25689
-0.215242 -0.778235
-0.146959 -0.849433
-0.151746 -2.48873
-0.325883 -2.48312
-0.805746 -2.85198
-0.928622 -3.01555
1.20785 -8.28925
1.13158 -8.56668
-0.0846119 -0.0651169
-0.119858 -0.0997527
-0.273894 -16.0141
-0.626041 -16.0565
0.621854 -2.22885
0.456523 -2.18856
-1.31758 -6.0683
-1.35693 -5.81958
0.789085 -4.42822
1.01356 -4.49565
-0.052815 -2.31048
-0.199918 -2.40145
-1.418 -12.7521
-1.10843 -12.873
-0.629463 -7.05032
-0.837548 -6.88459
0.48068 -1.66075
0.621248 -1.64314
0.743102 -17.5149
0.625879 -17.1655
0.302055 -1.15589
0.417641 -1.23815
-1.27989 -6.19782
-1.34969 -6.45686
-1.9524 -19.0128
-1.66032 -18.778
-1.99068 -16.6808
-2.31778 -16.8499
-1.40896 -5.8454
-1.27184 -5.61653
-0.0326062 -0.035408
-0.0113087 -0.0224753
-1.53139 -8.3407
-1.78141 -8.51545
0.133123 -6.43579
0.10105 -6.17417
0.420063 -0.800921
0.358763 -0.869178
1.1755 -14.0858
1.25754 -14.427
0.744516 -15.2286
1.09333 -15.2827
0.405287 -2.1477
0.564643 -2.21173
-0.00973885 -21.2232
-0.223714 -21.5334
-0.62103 -6.83499
-0.695791 -7.10054
-0.238995 -21.1561
-0.612813 -21.1711
-0.395598 -1.62799
-0.537746 -1.61696
-0.171324 -0.890101
-0.201657 -0.790945
0.742476 -19.9908
0.431245 -20.1943
-0.350355 -3.22339
-0.154452 -3.22193
0.0102349 -0.194919
-0.0396049 -0.214567
-1.48128 -6.16883
-1.22232 -6.10317
0.57434 -2.50579
0.41784 -2.40986
0.957739 -16.1484
0.966507 -15.7902
-1.54489 -10.0735
-1.23144 -10.0772
0.335103 -7.65167
0.0848553 -7.77498
-0.211112 -2.4613
-0.367919 -2.39719
-1.48196 -11.5706
-1.79183 -11.6965
-1.56809 -10.1448
-1.41024 -10.4094
0.212059 -1.73776
0.343142 -1.81647
0.834688 -11.7728
0.739054 -11.4531
0.54371 -5.64525
0.361754 -5.80859
0.691818 -1.4972
0.57407 -1.55031
-0.0731726 -15.248
-0.17772 -15.5872
-2.59147 -21.0065
-2.77531 -21.3389
0.0634766 -0.0880336
0.0450048 -0.0540625
-0.351588 -0.66437
-0.450564 -0.68592
0.315335 -12.8389
0.019073 -12.9928
0.51988 -2.47262
0.358283 -2.39238
0.680165 -25.4907
0.920821 -25.7876
-0.0715634 -6.34816
0.100004 -6.1527
-2.7043 -22.9753
-2.34151 -23.0839
0.335096 -0.467549
0.263733 -0.405098
0.270833 -20.4729
0.459815 -20.1504
-1.58473 -15.8241
-1.85763 -16.062
0.9787 -15.8693
1.33269 -15.8442
0.92553 -5.30946
0.723331 -5.15041
0.699651 -8.27179
0.543911 -8.02129
1.58866 -21.6433
1.45761 -21.287
-0.420489 -5.87228
-0.667775 -5.91453
-0.488866 -7.70237
-0.756394 -7.62438
0.0272281 -0.0485384
0.0521114 -0.0761735
0.41564 -4.00752
0.564312 -3.86266
-1.02253 -13.5386
-0.722078 -13.6959
-1.85617 -11.3564
-2.03231 -11.0918
1.25027 -15.3763
1.1856 -15.0261
0.616418 -9.74885
0.401486 -9.96544
-0.369749 -15.6271
-0.223391 -15.9528
-0.0972367 -2.79135
-0.0475855 -2.97371
1.01939 -9.36738
1.235 -9.16861
-0.084708 -1.15138
-0.181208 -1.08553
0.0153897 -0.00272115
0.0111622 -0.003206
0.000178327 -6.59792
-0.23779 -6.717
-1.17673 -7.99008
-0.890492 -7.96783
0.0504723 -0.967874
-0.0555867 -0.953042
-0.0683346 -8.23235
0.196816 -8.35006
0.349859 -17.1315
0.658626 -17.3278
1.14588 -8.88486
0.993603 -8.62024
0.277642 -3.01601
0.226666 -2.82971
-0.257406 -16.5739
-0.534296 -16.8025
0.398863 -1.20334
0.487514 -1.13417
0.418098 -11.9086
0.580536 -12.2018
-2.06262 -22.0451
-2.04507 -21.6665
-1.70681 -18.9628
-1.97387 -18.7084
0.718296 -6.0305
0.509698 -6.16866
-0.628034 -3.59052
-0.780465 -3.7487
-2.19818 -14.1747
-1.98536 -13.8924
0.0740687 -0.0314426
0.0668665 -0.0273594
-1.07236 -23.3645
-1.37436 -23.1369
-1.20661 -21.2511
-1.50145 -21.0205
0.810227 -2.33341
0.959775 -2.28459
-1.71053 -25.1368
-1.983 -24.8717
-0.0966951 -14.9725
0.000494293 -14.6352
0.669088 -3.07963
0.563133 -3.23164
-0.389154 -22.7418
-0.566429 -23.0782
-1.23796 -24.3768
-1.53569 -24.1421
0.69992 -3.66728
0.510453 -3.56601
0.567484 -23.788
0.475952 -24.1583
-0.126013 -3.8407
-0.189117 -3.63922
-0.685584 -10.6616
-0.857154 -10.3964
-0.458152 -2.38384
-0.609864 -2.32281
0.0111142 -0.00208271
0.00628046 -0.00422301
-1.60025 -13.6572
-1.53588 -13.3189
-0.106392 -0.0510941
-0.0670616 -0.0293055
-0.161721 -0.0871463
-0.113403 -0.0575696
-0.00825017 -0.0112161
-0.0154321 -0.0308861
-1.80015 -11.2669
-1.50597 -11.1104
0.186487 -5.00976
0.385056 -5.15923
-2.18272 -20.7845
-2.23099 -20.4124
0.182407 -0.115896
0.142171 -0.0795332
-1.02036 -2.9585
-1.05169 -3.15148
-0.0695801 -23.766
-0.0827274 -24.1475
-0.47167 -2.981
-0.443901 -2.79206
-0.143841 -20.0309
0.0567755 -19.7169
-0.00245405 -6.52223e-05
-0.0263187 -0.00704746
0.790821 -9.09082
0.949536 -9.35626
-1.09183 -10.7048
-1.1075 -11.0321
0.199105 -16.6619
-0.0329076 -16.3864
-0.650012 -20.3331
-1.00705 -20.2303
-0.922627 -5.93238
-0.887987 -6.18561
-2.12802 -20.8225
-2.12544 -20.4464
1.24367 -14.1303
0.900756 -14.1555
-0.343609 -14.7653
0.00205434 -14.8061
0.351301 -4.81999
0.119579 -4.82078
-1.92316 -12.1824
-1.92616 -12.5158
-0.382765 -21.2571
-0.700808 -21.0587
-0.048337 -16.6329
-0.389961 -16.5303
-1.90848 -9.75573
-2.00122 -9.47171
-1.23097 -21.5386
-0.88066 -21.6726
-0.905707 -5.316
-1.03534 -5.54216
1.44013 -12.0147
1.11771 -12.0747
0.904875 -10.687
1.19337 -10.5668
-0.232013 -15.4868
0.0560836 -15.6933
0.446388 -6.14765
0.208833 -6.2393
0.361326 -24.2855
0.674913 -24.0704
-0.105539 -24.8456
-0.0801148 -24.4644
0.0811181 -13.7288
0.341636 -13.5111
-0.354011 -7.81914
-0.453604 -8.09006
-0.379244 -1.59813
-0.364938 -1.74117
-0.384291 -1.22415
-0.456996 -1.3536
-0.475903 -0.623796
-0.485498 -0.551047
0.00433771 -17.2708
-0.23376 -17.0003
-1.70163 -8.76263
-1.57555 -9.02298
1.18816 -11.4495
1.49009 -11.3408
0.253009 -0.745669
0.300463 -0.671999
-2.40347 -22.846
-2.28523 -23.2065
0.803377 -1.98374
0.852185 -1.85016
0.451232 -7.83424
0.59272 -8.08939
-1.60877 -15.0127
-1.28972 -14.8588
-0.261664 -1.06472
-0.162467 -1.12625
0.320035 -0.292534
0.295155 -0.329556
-1.44207 -8.9264
-1.69188 -9.11142
-0.0427374 -16.8496
0.210796 -17.107
-0.047775 -0.595666
0.0399048 -0.608735
-1.00073 -8.18988
-0.712364 -8.17302
-0.398065 -0.425401
-0.324788 -0.362649
-0.833413 -10.5428
-1.08913 -10.3619
0.207828 -1.82626
0.324713 -1.74636
-1.0304 -22.4705
-0.79649 -22.7679
-0.449749 -20.5214
-0.132312 -20.3254
-2.38075 -22.7611
-2.02649 -22.8924
0.161883 -23.6928
0.139593 -24.0737
1.30906 -15.3816
1.08847 -15.0983
-0.463952 -4.3113
-0.340631 -4.12197
-0.0528462 -0.0216609
-0.0838951 -0.0400564
0.301934 -2.08355
0.41858 -1.98703
-0.387348 -7.51698
-0.658979 -7.58903
-1.61722 -11.0267
-1.83103 -11.2856
-2.73983 -23.8893
-2.36984 -23.9756
0.743087 -3.01471
0.935306 -3.04907
-0.728078 -2.63707
-0.745241 -2.46428
-0.0340956 -0.164157
-0.0630715 -0.134719
0.46864 -8.62894
0.19926 -8.50847
0.0740191 -9.22276
-0.0776721 -9.48533
-0.0606576 -8.30383
-0.169516 -8.57622
-0.842111 -6.57872
-0.895094 -6.32272
-2.84817 -21.1102
-2.47224 -21.1351
-0.184092 -0.128486
-0.236498 -0.172287
-1.57102 -21.257
-1.26504 -21.4733
-0.141348 -0.270561
-0.0821899 -0.242294
0.265445 -0.448101
0.348223 -0.486496
1.25375 -13.3713
1.06093 -13.6466
-0.859817 -3.17151
-1.0316 -3.29877
-0.760555 -7.47451
-0.738641 -7.75521
-1.01304 -3.27844
-1.21094 -3.27313
-0.747983 -7.17793
-0.932026 -6.98447
-0.710696 -6.30728
-0.658059 -6.56433
-0.25344 -6.32903
-0.316503 -6.58756
0.295653 -1.37367
0.297403 -1.52
0.513582 -23.3997
0.273243 -23.6942
1.14562 -5.82404
0.920628 -5.92401
-0.369133 -2.09595
-0.21816 -2.0298
0.951098 -2.4609
0.829898 -2.31231
0.0256934 -0.0125532
0.0489649 -0.0274614
-0.055281 -0.0872373
-0.0743032 -0.07151
1.27289 -21.7556
1.29271 -21.3779
-1.50063 -8.34265
-1.73616 -8.19089
0.948874 -7.85674
0.688547 -7.73107
0.19496 -0.139397
0.151046 -0.127551
0.0259054 -0.155916
0.0230664 -0.208289
-1.31099 -9.26074
-1.43644 -8.99443
-0.614861 -3.20586
-0.624016 -3.40624
-0.949983 -6.62014
-0.693361 -6.67869
1.21505 -6.21905
0.975026 -6.09608
0.83907 -4.09655
0.627262 -4.02389
0.52867 -2.70513
0.380794 -2.79867
1.10196 -9.94191
1.11658 -10.2563
-0.26306 -0.249007
-0.321477 -0.26037
0.118873 -0.136013
0.0988013 -0.094484
1.07789 -12.4277
0.74926 -12.4688
-1.62896 -17.7843
-1.97342 -17.6623
0.430466 -5.80726
0.607039 -6.00054
-1.11485 -11.0008
-1.27645 -11.2933
-1.30907 -5.04772
-1.5251 -5.19648
0.183172 -7.74603
0.464207 -7.76438
0.346241 -0.292397
0.311203 -0.317307
0.830443 -21.4469
0.87876 -21.8228
-1.06741 -23.0576
-1.21541 -23.4088
0.0945763 -0.890754
0.19652 -0.869157
-0.277527 -0.300537
-0.350893 -0.347025
-1.08452 -23.5814
-0.879934 -23.2602
-0.0646697 -0.192417
-0.0955743 -0.162923
-0.274261 -19.5557
0.0512042 -19.7349
0.0393958 -0.0142351
0.0260202 -0.00674811
-1.5246 -15.1503
-1.7664 -14.9015
-0.0324847 -0.228519
0.00929279 -0.269401
-0.00373142 -5.99087
0.230848 -6.09498
-1.05391 -6.94167
-0.786335 -6.97349
-0.535439 -9.22628
-0.372881 -9.4812
-1.53449 -25.1525
-1.71874 -24.8192
0.0492213 -6.41922
0.303204 -6.36402
0.961862 -3.38308
0.763535 -3.32211
1.24884 -22.4445
1.38319 -22.0908
-0.00355003 -0.00133287
-0.0125673 -0.0119559
-0.345929 -13.24
-0.645627 -13.4002
-0.200205 -23.8928
-0.468458 -24.1625
0.323364 -19.6989
-0.0397759 -19.621
-1.94421 -20.2092
-2.18804 -20.4979
-0.164009 -0.928431
-0.0752383 -0.861614
0.752069 -5.01913
0.629078 -4.80206
-1.90732 -9.82994
-1.81886 -9.52874
-0.0122441 -0.0649933
-0.00572007 -0.0357763
-0.280854 -0.597385
-0.217267 -0.520508
-0.682901 -3.91314
-0.834506 -3.77793
0.623419 -9.89811
0.651011 -9.59097
-1.69978 -17.5165
-1.54057 -17.1821
0.12481 -0.0648416
0.101924 -0.0605177
-2.55006 -25.5109
-2.85211 -25.277
0.303672 -20.6682
0.437632 -21.0212
-0.720872 -20.7678
-0.633527 -20.4014
0.715262 -13.6948
0.855921 -13.3862
-1.38576 -24.1875
-1.47008 -24.5599
0.214937 -6.64236
0.278649 -6.38519
0.130866 -18.8193
-0.00157847 -19.1667
-0.372985 -0.680553
-0.346608 -0.764747
-0.809541 -3.85551
-0.77175 -3.64441
0.752055 -2.94163
0.563703 -2.91048
-0.209027 -1.21052
-0.317891 -1.15412
-0.196849 -0.852652
-0.092199 -0.842082
-1.79202 -15.6298
-2.11467 -15.491
0.439345 -23.0517
0.747386 -22.8318
-0.237386 -4.22165
-0.0239681 -4.26804
0.00174213 -8.87896
-0.125178 -8.60965
0.549109 -17.5485
0.657028 -17.9049
1.18296 -6.12916
1.03435 -5.90289
1.36326 -17.1057
1.56096 -16.8066
-0.0489088 -8.18599
0.218457 -8.2969
-1.39445 -7.35571
-1.62294 -7.53836
-1.43469 -15.7355
-1.10092 -15.6097
-1.8168 -10.8361
-1.8355 -10.5165
-0.436586 -1.25208
-0.368557 -1.12839
-0.261246 -0.373533
-0.304284 -0.342645
0.892721 -5.2568
1.08343 -5.12394
0.444843 -2.80212
0.310347 -2.92098
1.22687 -12.9099
1.56289 -12.9541
0.296325 -0.569589
0.211462 -0.525154
1.12169 -23.0272
1.49568 -23.0953
-0.548727 -0.736867
-0.500187 -0.640488
0.872254 -3.96525
0.926488 -3.76614
0.333858 -13.2748
0.136322 -12.996
-0.113465 -0.181309
-0.0764095 -0.137344
-2.2416 -22.6099
-1.93 -22.392
-1.29439 -4.43219
-1.2248 -4.63973
-1.81317 -10.4273
-1.56686 -10.211
0.331842 -6.5513
0.0687782 -6.56072
-0.164973 -3.81807
-0.213265 -3.61306
-0.119468 -19.8556
-0.353773 -20.1457
-1.65615 -8.20541
-1.79896 -8.47157
1.36501 -12.8388
1.65729 -13.0228
-0.237613 -0.233587
-0.291384 -0.291945
-0.491355 -25.3331
-0.145486 -25.1776
-0.958093 -6.76365
-0.89037 -6.50059
-0.533161 -0.947864
-0.474731 -0.839197
-2.33977 -19.7764
-2.53974 -19.4648
-1.86959 -18.2578
-1.94351 -17.8939
-0.76342 -7.37538
-0.944496 -7.17506
-0.284094 -23.3868
-0.239393 -23.7654
-1.19654 -16.276
-1.54443 -16.1973
-0.461832 -4.2878
-0.678556 -4.3566
-0.254677 -14.768
-0.234383 -14.4181
0.0960665 -14.6818
0.264166 -14.3775
-0.0977903 -0.554495
-0.0181385 -0.520561
0.278185 -6.31966
0.107071 -6.51636
-1.85149 -20.1612
-1.65976 -20.4807
-0.959195 -3.2681
-0.851009 -3.42069
-0.197131 -1.74047
-0.22668 -1.89203
-0.377939 -17.3721
-0.602623 -17.092
-0.680654 -23.4415
-0.365742 -23.2306
-0.172281 -0.244816
-0.221402 -0.302954
-0.349409 -0.960802
-0.381972 -1.07919
-0.00593335 -0.624496
-0.078361 -0.574235
-1.32475 -25.6809
-1.06531 -25.4036
-1.6563 -12.7417
-1.33434 -12.6339
1.49807 -15.022
1.68788 -14.7341
-0.42748 -1.62829
-0.367947 -1.48726
-0.328076 -4.31688
-0.142821 -4.1935
-1.5435 -9.53416
-1.61026 -9.83874
-1.06389 -14.3461
-0.917317 -14.0289
-2.31685 -23.4101
-2.00275 -23.6216
1.55615 -16.7323
1.54197 -17.0956
-0.978574 -19.0687
-0.979175 -19.4406
-2.2504 -19.6063
-2.62327 -19.5857
1.19378 -13.0383
1.5055 -13.1848
-1.04404 -2.86014
-0.871195 -2.90754
0.837971 -10.6284
0.94822 -10.9383
0.207388 -4.62348
-0.00683134 -4.555
-1.3046 -16.7671
-1.66487 -16.8063
-1.55645 -7.97822
-1.4372 -7.71008
-0.0634507 -0.195308
-0.0194111 -0.164431
-1.12397 -21.5515
-1.29081 -21.892
-0.89285 -6.37867
-1.13574 -6.29695
-1.01521 -12.6507
-0.68992 -12.5725
-0.491594 -0.769551
-0.467322 -0.857202
0.318998 -1.44363
0.203111 -1.33912
0.720722 -4.2063
0.942724 -4.23947
0.0839221 -23.0802
0.416299 -22.8996
0.508277 -7.05169
0.600359 -6.79957
0.461985 -1.59078
0.606683 -1.64209
0.0499107 -0.0219457
0.00888199 -0.0029155
-2.51966 -18.882
-2.15003 -18.921
0.976457 -3.49542
0.9774 -3.2948
0.263033 -10.0937
0.572263 -10.0796
0.0116686 -0.0213579
0.0233384 -0.0155891
0.62907 -1.71155
0.603459 -1.8544
-0.00104299 -0.000388579
-0.00108452 0.000724281
-0.556335 -3.11129
-0.704231 -3.00377
0.112796 -19.2092
-0.255557 -19.2101
-0.626233 -1.06629
-0.551047 -1.13768
-0.541381 -19.5257
-0.468254 -19.8923
-0.739568 -14.2914
-0.485322 -14.0549
-2.47614 -20.1178
-2.67476 -19.8044
0.499022 -6.70385
0.594955 -6.96221
-1.76764 -13.7218
-1.6788 -14.0517
0.971967 -18.0221
0.922553 -18.3917
-1.05302 -4.98602
-1.14118 -5.22396
0.330946 -0.808281
0.229047 -0.768449
-1.38415 -4.79533
-1.23001 -4.95661
0.154438 -0.212363
0.103467 -0.175356
-1.32378 -9.54351
-1.59935 -9.69762
-0.00699127 -0.000383879
-0.0185646 -0.00451182
-0.876586 -23.1906
-1.19582 -22.9886
-2.27396 -14.8752
-2.04952 -14.5964
-1.84429 -24.5381
-1.522 -24.3366
-1.51614 -22.9599
-1.18592 -22.7738
-1.59102 -6.9095
-1.38814 -6.71017
1.23919 -12.7353
0.908369 -12.6688
-0.599363 -3.33784
-0.6862 -3.52987
-1.08519 -4.79504
-1.23826 -4.99839
0.90386 -4.87686
0.729 -4.70009
0.254748 -0.290138
0.194041 -0.285605
-0.920075 -2.07502
-0.790062 -2.14571
0.465392 -10.0303
0.680552 -9.81336
-1.45203 -6.26447
-1.44877 -6.52632
-0.954677 -8.34552
-0.950086 -8.63913
1.35185 -12.6488
1.67406 -12.5727
-0.20402 -2.647
-0.0885085 -2.78652
-0.243249 -3.91606
-0.456408 -3.93102
1.34324 -17.8275
1.38823 -17.4618
0.498192 -1.34391
0.382009 -1.24995
-0.539839 -1.23811
-0.662577 -1.32923
-0.131286 -16.0474
-0.157806 -15.6901
0.00944839 -14.5002
0.275293 -14.2799
-1.37037 -19.8976
-1.66861 -20.1259
0.504616 -7.94951
0.476758 -7.66415
-0.0731923 -0.860522
-0.131305 -0.957388
-0.683454 -16.9088
-0.91816 -16.6359
-0.650747 -6.83727
-0.389477 -6.89465
-0.731158 -10.2881
-0.421986 -10.2714
-0.96982 -23.5903
-0.967082 -23.209
0.177124 -2.37063
0.315124 -2.48467
0.383716 -0.711224
0.473695 -0.789848
0.00779545 -0.00131716
0.0388535 -0.0130512
-0.803616 -2.08813
-0.682585 -1.95727
-0.157726 -0.253271
-0.105729 -0.266918
-0.99774 -9.40463
-0.951945 -9.10327
-0.43962 -0.769791
-0.533853 -0.759146
-1.34778 -22.6092
-1.33217 -22.9893
0.614755 -3.21288
0.430502 -3.26368
0.098737 -3.24015
0.294559 -3.2579
-0.574713 -1.59776
-0.546848 -1.45229
-0.942179 -8.9795
-0.655708 -9.05505
-1.31503 -13.7085
-1.65776 -13.7136
1.23113 -7.86779
1.19584 -7.58323
-1.89043 -11.3066
-2.09372 -11.5772
-0.0513926 -4.03558
-0.240872 -4.14315
0.161265 -21.1893
0.474108 -21.3993
0.0390253 -0.0492975
0.0132839 -0.0412646
0.704668 -24.4099
0.888063 -24.7444
-0.0160759 -21.0517
-0.258586 -21.3392
-1.43268 -14.0722
-1.37427 -14.4132
0.860289 -5.89284
1.04091 -5.72882
-1.20582 -18.6173
-1.02905 -18.9413
-0.775374 -12.6304
-0.63294 -12.9337
0.942765 -17.7092
0.758654 -17.3865
-0.934475 -3.07563
-1.03467 -2.93182
0.0388249 -0.0126543
0.0282333 -0.00833738
-0.274051 -21.7712
-0.639833 -21.6868
0.451241 -18.762
0.0888425 -18.8323
0.379177 -5.76521
0.540921 -5.58142
0.561717 -3.65792
0.355518 -3.63001
-0.134919 -0.541869
-0.0659113 -0.588234
0.8701 -12.6923
0.886121 -13.031
-0.860916 -8.09656
-0.782408 -7.81736
-0.565538 -23.8426
-0.221983 -24.0009
-0.511395 -0.882936
-0.554874 -0.807286
-0.201871 -14.3293
-0.5413 -14.268
-0.95638 -15.0743
-1.29184 -15.184
0.710274 -11.8059
1.00116 -11.9712
-1.30896 -11.5926
-0.99277 -11.6638
0.67 -13.24
0.454888 -12.9728
-1.27651 -6.10632
-1.48326 -6.28802
0.667914 -23.2787
0.83525 -23.621
0.276361 -0.285
0.271696 -0.339024
-0.18101 -21.7051
0.097417 -21.4518
-2.59504 -24.3489
-2.92504 -24.5413
-0.155508 -2.10662
-0.164413 -2.27434
-1.67519 -13.9742
-1.98877 -13.8427
-0.0756472 -0.0361162
-0.116635 -0.0566951
1.34448 -16.4714
1.62467 -16.2554
1.08318 -17.0568
1.2239 -16.7252
-2.54214 -24.7587
-2.85297 -24.5389
0.960493 -2.61356
0.783657 -2.54644
0.87733 -8.55386
0.607438 -8.65553
0.308811 -0.752537
0.407335 -0.752385
0.123135 -0.152896
0.07944 -0.151645
-0.524203 -1.19987
-0.587688 -1.33152
0.201868 -2.92929
0.250687 -2.75027
-2.26605 -14.1091
-1.91985 -14.1195
0.285763 -14.4275
0.0213261 -14.2007
-0.127659 -4.4405
-0.122637 -4.67079
-0.0311452 -0.236143
-0.0355091 -0.180802
-0.986263 -8.61168
-1.10242 -8.34794
-1.98424 -18.115
-2.33467 -18.2439
0.100907 -11.9374
0.394235 -11.7992
1.28826 -17.2696
1.65336 -17.2722
-0.46466 -1.62167
-0.48533 -1.77072
0.81461 -3.57421
0.774221 -3.77422
-1.73872 -10.9931
-2.06382 -10.9974
0.286336 -6.56038
0.549793 -6.58477
-0.654311 -14.6388
-0.307247 -14.6466
-2.241 -18.0142
-2.09145 -17.6705
-0.0946673 -1.06481
-0.143645 -0.961124
0.737048 -5.60342
0.829472 -5.84809
-0.73657 -6.85374
-0.991929 -6.78195
0.871345 -4.60326
1.10072 -4.59866
0.649752 -6.87053
0.919009 -6.88445
0.636586 -20.6399
0.291388 -20.7822
0.360772 -1.40418
0.242251 -1.30839
1.52277 -11.7687
1.36926 -12.0549
-0.851564 -22.4104
-0.839255 -22.0308
1.02995 -5.78646
0.882593 -5.98317
0.619176 -24.0587
0.468728 -24.4093
0.746942 -3.82214
0.874525 -4.01026
0.937018 -15.9287
0.725523 -16.2133
1.5385 -13.8962
1.39034 -14.2028
0.339479 -0.366393
0.338534 -0.310397
0.294064 -8.7443
0.0685645 -8.5513
-0.329129 -7.87792
-0.139567 -7.66582
0.264914 -13.0723
0.172972 -12.7451
-0.493941 -13.5636
-0.651528 -13.2618
-0.221723 -7.96954
-0.464878 -7.82506
0.493794 -4.24362
0.440609 -4.46011
-0.00249376 0.000846249
-0.0136828 -0.00322201
-0.928793 -9.01683
-1.03589 -9.30316
1.19493 -15.9125
0.883181 -16.0782
0.323556 -0.389418
0.396867 -0.400934
0.985998 -10.2539
0.758523 -10.4629
-0.932038 -20.0953
-0.71671 -20.4004
-1.76784 -22.2428
-1.43894 -22.4261
0.0408323 -3.82249
0.151571 -3.64495
0.541953 -23.7001
0.500651 -24.0794
-0.375024 -6.9049
-0.371974 -6.63435
0.554916 -5.10671
0.407589 -4.90367
1.05162 -17.9127
1.19321 -17.5742
0.162257 -0.423853
0.0997185 -0.457493
-1.88333 -16.3471
-1.66979 -16.6328
-0.151054 -6.83482
0.109205 -6.774
1.08544 -11.5927
1.34473 -11.8083
1.09683 -16.009
0.865473 -16.2773
-1.337 -4.87108
-1.47822 -5.08707
0.596955 -3.12683
0.729442 -3.28862
1.02142 -6.02548
1.20832 -5.86767
-1.63645 -7.8717
-1.34999 -7.85558
-0.854803 -13.9834
-0.644616 -14.2559
1.65717 -12.2053
1.32935 -12.133
-1.98337 -14.8387
-1.69504 -15.0301
-1.15065 -3.82252
-0.985038 -3.66603
0.133114 -3.79814
0.0967669 -4.01069
1.28386 -20.5884
1.46651 -20.2626
-0.0260322 -0.127226
-0.0108446 -0.0874628
0.257792 -9.34695
0.422093 -9.09674
-0.317132 -19.0521
0.04764 -19.0098
-2.61521 -23.6869
-2.58138 -23.3073
-1.08001 -21.4613
-1.36769 -21.7064
1.61525 -10.3746
1.60125 -10.0585
0.589845 -3.66563
0.453473 -3.81495
0.107325 -7.21379
0.301488 -7.02478
-1.31802 -10.7482
-1.00573 -10.6553
-0.328592 -4.34177
-0.108931 -4.36184
-0.171816 -15.7178
0.058922 -15.9901
-0.33359 -14.1334
-0.317663 -14.4817
-1.45604 -9.00934
-1.42025 -8.71161
0.695139 -2.78533
0.849788 -2.71186
0.118949 -0.150734
0.072914 -0.135119
0.207385 -19.4322
0.563597 -19.5406
0.815544 -6.00211
1.02165 -6.17607
-0.624164 -6.07438
-0.388233 -6.1675
-0.243479 -10.2705
-0.513283 -10.4192
-0.456799 -1.76952
-0.317994 -1.80532
-2.78348 -22.9752
-2.53469 -22.6856
0.217424 -6.18325
0.309208 -5.9438
0.408313 -2.87706
0.469982 -2.70757
0.522504 -1.10767
0.401979 -1.10971
-0.019541 -8.48972
-0.298748 -8.57401
0.981519 -20.9406
0.868329 -21.2996
-0.765322 -19.4856
-1.11328 -19.6126
0.514798 -15.32
0.834397 -15.1795
0.123711 -2.57994
0.200209 -2.74881
0.176419 -0.10804
0.179923 -0.0947808
0.570661 -21.5241
0.824015 -21.8058
0.176402 -23.4532
0.528029 -23.5945
-0.640944 -21.9905
-0.81589 -21.6556
-0.541084 -10.1797
-0.68624 -9.90566
0.771719 -17.7728
0.623426 -18.1116
-0.0826868 -2.81011
-0.150463 -2.63978
-0.808899 -20.83
-1.17289 -20.7481
-2.26621 -21.5848
-2.64364 -21.5978
0.870858 -12.0926
0.905409 -11.7634
1.1245 -8.39743
1.31229 -8.19002
1.36828 -17.7231
1.50057 -17.383
-0.467455 -7.1438
-0.218004 -7.25417
-0.329948 -2.4482
-0.441461 -2.59535
-0.0103823 -0.0239346
-0.0281727 -0.0239891
0.376347 -8.78843
0.469317 -9.07604
-2.50876 -18.0614
-2.51964 -17.691
0.949709 -11.1251
0.62684 -11.0964
-0.727727 -9.31341
-1.0277 -9.2876
1.05482 -12.1339
1.33498 -11.9695
0.033429 -0.0108239
0.047678 -0.0248497
-0.0331039 -0.025268
-0.0295279 -0.0121192
0.925318 -9.80446
1.12418 -9.58017
-1.33466 -13.1234
-1.13918 -12.8417
-1.51534 -10.9066
-1.41389 -11.2124
-0.300086 -1.32059
-0.359217 -1.46118
0.852254 -24.8341
0.880127 -25.2154
-0.392432 -12.6299
-0.210699 -12.3495
-2.19985 -11.4506
-2.13623 -11.1255
-0.640379 -1.76485
-0.795622 -1.79335
0.131488 -0.246952
0.119115 -0.190459
0.0331574 -0.0144594
0.0263742 -0.0197713
-0.987359 -3.20539
-1.18814 -3.23645
-0.497564 -1.24756
-0.430166 -1.34858
0.574061 -1.13968
0.641216 -1.26775
-1.19888 -9.4401
-1.27226 -9.74142
0.485366 -3.06411
0.598934 -3.23504
-0.482306 -2.17592
-0.553315 -2.03946
0.447795 -3.56296
0.4038 -3.35963
0.37513 -0.734063
0.275257 -0.701338
0.825145 -13.8941
0.595999 -13.6321
-0.130459 -0.322281
-0.145539 -0.266123
1.13077 -9.02342
1.11367 -8.72394
1.22035 -7.54213
1.313 -7.28719
1.0493 -9.24408
1.24527 -9.48892
0.422823 -0.757597
0.339799 -0.677195
-0.852219 -24.9236
-0.557238 -25.161
0.578546 -6.23349
0.525356 -5.97598
-1.3793 -6.90572
-1.11127 -6.83834
-0.586024 -1.43891
-0.464656 -1.48671
-0.570039 -4.88789
-0.403376 -5.05807
0.976345 -3.46114
1.0531 -3.28945
-1.61241 -19.524
-1.51831 -19.8842
0.513977 -0.718715
0.422895 -0.727776
0.232358 -8.73722
0.377372 -9.00134
0.0547172 -1.08003
0.101451 -1.19116
-1.1086 -10.059
-0.805902 -9.978
0.030947 -0.458068
-0.00622379 -0.389029
0.773102 -15.4535
0.61125 -15.7674
-0.284842 -9.39551
-0.37506 -9.1062
-0.0497277 -0.0605243
-0.0549693 -0.0414164
0.805235 -14.0856
0.686202 -14.4094
-0.0142126 -0.0044864
-0.0110624 -0.0122227
1.0469 -17.2347
1.21716 -16.9165
-1.47502 -9.84512
-1.77327 -9.77539
1.22206 -13.7634
1.50778 -13.9674
0.160769 -10.5545
0.461276 -10.6625
0.254767 -0.34319
0.224577 -0.391733
1.16577 -5.824
1.16698 -5.56946
-0.231077 -2.76836
-0.335287 -2.62387
-1.03614 -5.97038
-1.26585 -6.1109
0.864504 -23.1351
0.546528 -23.3413
-0.482493 -20.5807
-0.847718 -20.6568
0.510761 -5.99365
0.74604 -6.11044
-0.273367 -0.774483
-0.20057 -0.837104
-1.18019 -8.73896
-1.12936 -8.44591
-0.323834 -1.74169
-0.451759 -1.8371
-2.17401 -15.379
-2.10577 -15.725
1.18084 -20.2314
1.12933 -19.8589
-0.479841 -17.3527
-0.365891 -17.0091
-1.12604 -25.2211
-0.842967 -24.9677
0.281158 -4.48747
0.505873 -4.47382
0.753079 -15.984
0.476244 -16.2057
0.166145 -10.2582
-0.0991695 -10.1007
0.695676 -1.71572
0.714531 -1.57658
-2.27566 -16.6322
-2.54846 -16.405
-0.999011 -13.9799
-1.27579 -13.782
0.157882 -15.6251
0.0635808 -15.9693
1.14925 -4.74469
1.01013 -4.91887
-2.4633 -24.6034
-2.3015 -24.9486
0.986164 -2.99514
0.926445 -3.16708
0.0882913 -0.038456
0.109939 -0.0513306
0.325643 -1.97156
0.481529 -2.01343
-1.8337 -20.9831
-1.68356 -21.3274
0.346448 -8.67063
0.32121 -8.96773
-2.60258 -17.8668
-2.64983 -18.2369
-1.28097 -5.8142
-1.08451 -5.9606
-2.35521 -24.0706
-2.03869 -24.2801
0.582373 -4.24541
0.362223 -4.2185
-1.75101 -8.56039
-1.85902 -8.29924
-0.147637 -8.74405
-0.435047 -8.8106
-0.0464782 -0.0206304
-0.0743087 -0.0359701
0.753215 -3.33606
0.626028 -3.47788
-2.71422 -23.1876
-2.33656 -23.224
0.701944 -1.82233
0.548267 -1.79905
-2.22992 -12.4058
-2.00332 -12.6404
-0.0839355 -0.0988456
-0.0515545 -0.0675326
0.424741 -13.8137
0.105431 -13.933
-2.44549 -23.0115
-2.07447 -23.0862
-1.09974 -23.642
-1.4662 -23.5499
-0.171761 -0.147217
-0.22439 -0.191631
-0.232769 -14.5721
0.0165768 -14.331
-0.0489089 -0.638854
-0.128233 -0.696285
-0.575337 -2.2316
-0.430466 -2.29975
-2.32521 -22.005
-2.6967 -22.0813
0.0883032 -6.52643
0.0835541 -6.26176
1.04925 -24.3665
0.904272 -24.0135
0.929682 -25.3542
1.09217 -25.701
1.10543 -16.6807
1.2709 -17.0085
-0.181666 -0.613144
-0.0960648 -0.575254
0.303193 -14.2027
0.0931489 -13.9255
-0.462566 -2.95317
-0.651974 -2.99308
0.12235 -2.75863
0.124576 -2.94748
0.591754 -16.0937
0.431134 -15.7718
0.634235 -5.16873
0.860744 -5.10058
1.38065 -20.3818
1.00614 -20.3667
-0.0545499 -0.0242793
-0.0506623 -0.0299212
0.108344 -2.0673
-0.0329499 -2.14604
-1.09822 -22.0683
-1.39558 -22.3028
-0.644248 -16.1003
-0.938746 -15.9022
-0.0553191 -0.243055
0.00117543 -0.250868
-1.571 -14.4284
-1.22376 -14.417
-0.993622 -12.7309
-0.806136 -13.0073
0.748924 -21.0058
1.09327 -21.1598
0.75846 -1.51925
0.677455 -1.38277
0.307229 -4.16732
0.219745 -3.96293
0.522339 -19.3277
0.436253 -19.6907
0.609319 -0.890871
0.592317 -0.788003
-1.28433 -13.8674
-1.05241 -14.1177
-2.11538 -22.6323
-1.91617 -22.9541
1.20778 -14.4728
1.55383 -14.4543
0.438822 -15.7197
0.78967 -15.6794
-0.193145 -9.20037
-0.0771204 -9.4819
-0.381274 -17.241
-0.361672 -16.8787
0.138408 -2.43303
0.142119 -2.61188
0.111799 -6.75155
0.378172 -6.74831
-0.515366 -13.125
-0.378258 -12.8147
-2.49251 -21.7013
-2.40964 -22.0697
-2.0637 -15.3361
-1.78862 -15.1048
-1.98612 -24.8082
-1.88993 -25.1775
0.0795592 -0.666629
0.171556 -0.661758
-0.477333 -2.53972
-0.599909 -2.4285
-0.606546 -5.7915
-0.799009 -5.64254
-1.49801 -5.24172
-1.54952 -5.49082
-2.2862 -24.4479
-2.25301 -24.0676
0.371846 -0.56317
0.283477 -0.523424
0.10944 -0.060236
0.154251 -0.0915912
-1.8338 -16.2085
-1.48717 -16.1092
1.23052 -23.6147
1.02108 -23.2961
-0.433902 -3.64443
-0.230137 -3.60289
0.289909 -0.283656
0.348611 -0.347376
0.118314 -0.159441
0.169348 -0.195892
-0.290917 -7.30177
-0.537097 -7.18384
-0.92955 -3.74924
-0.820702 -3.55819
0.492292 -14.3141
0.278314 -14.5854
1.33066 -21.945
1.12977 -21.6223
0.604286 -1.69308
0.751852 -1.69747
0.172383 -0.308991
0.156218 -0.245668
0.724578 -14.7744
1.0014 -14.5692
-0.525794 -23.2289
-0.668794 -23.5821
-1.63457 -20.3779
-1.44415 -20.0528
-0.632477 -2.51685
-0.693173 -2.69382
0.162868 -6.72381
-0.0422306 -6.55121
-0.81624 -4.19183
-1.03333 -4.2725
1.43415 -15.7175
1.1699 -15.4713
0.728665 -4.3501
0.932468 -4.47164
0.0150545 -0.0189499
0.0313928 -0.0403076
-1.03543 -12.5414
-0.836194 -12.2695
-1.30658 -7.70537
-1.02536 -7.72092
-0.720778 -22.1948
-0.934717 -22.5082
0.0141062 -0.0515944
-0.0102029 -0.0668585
0.0464274 -0.0194817
0.0295418 -0.0132518
0.78521 -12.2797
0.460062 -12.3326
-0.545268 -9.78602
-0.304413 -9.59577
0.122047 -0.485452
0.164252 -0.566933
-0.84758 -13.5408
-1.16802 -13.4326
-1.10373 -3.69628
-1.23901 -3.56188
0.237082 -1.13337
0.119898 -1.09406
-1.69647 -10.7981
-1.59108 -10.488
-0.930286 -21.7894
-0.714626 -21.4787
-1.03246 -4.45376
-1.23334 -4.3703
-0.438386 -1.23881
-0.315675 -1.16619
-2.19506 -19.1917
-2.40803 -19.5024
-1.93853 -12.0858
-1.60777 -12.1062
1.3962 -8.36522
1.44447 -8.65936
0.0105835 -0.00109277
0.00756362 -0.00215406
-0.11263 -4.79264
-0.0658735 -4.56596
-0.715154 -16.3186
-0.526934 -16.0126
-0.658767 -4.5283
-0.86374 -4.44169
-0.227933 -7.11458
-0.286296 -6.84778
0.172507 -10.178
0.140702 -10.4906
-0.90837 -11.308
-1.08022 -11.0336
0.306563 -0.590505
0.397467 -0.644479
-2.14147 -12.6193
-2.05013 -12.9381
-0.316625 -4.00856
-0.140953 -3.88146
-0.95255 -2.37419
-1.02954 -2.54532
0.483265 -25.5659
0.608332 -25.2044
0.883844 -25.6399
1.25968 -25.7083
-0.847054 -1.58762
-0.708067 -1.49925
-0.0937957 -0.341286
-0.100891 -0.41541
0.353149 -0.633674
0.441829 -0.704061
-0.681352 -1.81572
-0.838548 -1.86586
-1.39476 -8.80831
-1.55191 -9.07301
0.315419 -14.696
0.581485 -14.9276
-0.0750933 -0.0893295
-0.0670492 -0.121386
-0.790138 -11.6918
-1.10147 -11.6123
-0.24304 -6.67015
-0.129261 -6.91482
1.11973 -3.70473
1.17574 -3.91776
-2.40456 -18.3093
-2.7038 -18.0965
1.3875 -14.9318
1.35211 -15.2822
-0.965535 -13.6172
-0.651587 -13.4802
0.0247834 -2.84683
0.203905 -2.90226
-0.694529 -1.04716
-0.672171 -1.1519
0.561314 -2.32672
0.500581 -2.16123
0.141313 -2.72409
0.207568 -2.90187
-0.763263 -2.63904
-0.58305 -2.63615
0.267047 -8.53261
0.0438001 -8.72046
-0.58682 -1.22176
-0.475888 -1.12537
-0.12501 -0.255972
-0.0728102 -0.216935
0.901236 -2.30128
0.807374 -2.14348
-0.346075 -4.37259
-0.383414 -4.15272
-0.930692 -9.17976
-0.894367 -8.88007
-1.31154 -6.68132
-1.4854 -6.90405
-1.65512 -14.1403
-2.00081 -14.1793
0.102891 -0.892342
0.0059918 -0.934977
0.0407124 -0.0136077
0.0120014 -0.00183072
-1.69999 -24.8194
-1.51924 -24.4835
-0.139524 -10.23
-0.243107 -9.93629
-0.779776 -13.1155
-0.505312 -13.3108
-0.0186539 -0.447753
0.0509373 -0.487679
-1.75957 -8.85519
-1.97507 -9.0825
-0.749434 -7.16036
-0.57949 -7.37244
0.285863 -4.19097
0.0829071 -4.26947
-1.31002 -17.1707
-0.953937 -17.1012
-0.00209123 2.18242e-06
-0.0247368 -0.00626744
-1.00949 -9.87994
-1.29313 -10.0196
-0.186636 -0.173431
-0.216352 -0.226292
-0.998117 -8.45591
-1.22823 -8.28894
-1.38896 -10.4836
-1.16855 -10.2447
-0.685503 -8.84987
-0.827718 -8.59406
-0.67131 -20.3835
-0.571946 -20.0213
0.802339 -22.9367
0.891109 -22.5673
0.0717448 -8.1184
-0.170401 -7.96466
-0.270908 -8.2528
-0.367702 -7.98108
-0.0195532 -0.0265524
-0.0275111 -0.0166277
-0.574397 -1.72356
-0.726579 -1.77591
-0.45877 -4.67109
-0.437087 -4.90425
-0.433177 -7.30598
-0.437189 -7.02965
1.26823 -14.9026
1.07363 -14.6043
-0.376151 -4.08696
-0.163965 -4.04124
0.132148 -0.32479
0.0944372 -0.375266
-0.306381 -2.03795
-0.254463 -1.88371
0.460187 -24.2602
0.598029 -24.6158
0.948063 -2.30998
0.822453 -2.39863
0.834492 -2.9863
0.819941 -2.79716
-0.374222 -1.02974
-0.32112 -1.12787
-0.806385 -7.99237
-0.776317 -7.70714
-0.446426 -3.3639
-0.248051 -3.38069
-0.0898297 -9.5171
-0.386219 -9.57724
-1.06312 -17.1988
-1.39463 -17.0539
-1.0467 -2.45703
-0.872403 -2.38539
0.745439 -4.37919
0.53191 -4.43582
-0.57122 -15.5818
-0.773292 -15.292
1.10598 -12.965
0.910183 -12.6828
-0.403032 -2.39366
-0.473156 -2.562
-0.978483 -12.4168
-1.2942 -12.3234
0.852553 -19.6668
1.22336 -19.631
-2.35784 -22.2537
-2.325 -22.6316
-1.15569 -3.09358
-1.13058 -2.90302
-0.0342601 -0.498582
0.000751802 -0.424719
0.116567 -0.40553
0.0460263 -0.420017
-1.53741 -8.45279
-1.70452 -8.70841
0.40161 -19.4779
0.296376 -19.8359
-0.218591 -1.83838
-0.368646 -1.8614
0.698807 -12.62
1.03146 -12.6029
1.03536 -5.91989
1.08515 -5.67374
-1.39131 -8.38671
-1.34354 -8.67317
-1.31284 -15.3292
-1.6422 -15.4654
-0.127144 -1.0709
-0.211352 -0.995622
0.164921 -0.642441
0.15373 -0.738098
-1.85538 -11.7682
-1.5634 -11.9093
-1.49904 -23.2676
-1.63807 -22.9143
-0.357742 -0.472117
-0.363386 -0.407501
-0.314898 -2.0484
-0.42095 -2.18336
0.828707 -1.72529
0.705673 -1.60911
-1.99863 -23.798
-2.03515 -24.1778
-0.60224 -7.52073
-0.81345 -7.71453
-0.90117 -2.65415
-0.753506 -2.52521
1.28697 -19.7799
0.99472 -20.0094
-1.97203 -23.1409
-1.62316 -23.2861
-0.735041 -4.63371
-0.509354 -4.56877
1.47536 -8.39768
1.26773 -8.17649
0.303226 -6.18685
0.557457 -6.23914
-1.67896 -12.8514
-1.96037 -12.679
-0.842883 -15.537
-0.506559 -15.6425
-0.00914192 -0.000318196
-0.020433 -0.00447702
0.818448 -3.53348
0.840497 -3.33515
-2.1296 -15.5317
-1.77425 -15.5262
-0.616484 -2.05736
-0.748075 -2.17983
0.592497 -8.14886
0.310732 -8.08853
0.681122 -3.36143
0.602991 -3.1695
1.08751 -11.7937
0.777351 -11.8919
-0.16243 -19.7551
0.0155531 -19.4285
0.695525 -3.99081
0.650238 -4.20162
-0.871015 -1.62881
-0.791689 -1.73014
-1.05205 -7.24582
-1.10682 -7.5224
-0.383398 -21.9286
-0.402073 -22.3077
0.469673 -19.3462
0.566956 -18.9864
0.333607 -1.1717
0.265638 -1.05715
-1.43437 -16.7813
-1.46814 -16.4218
0.915314 -4.51301
0.722756 -4.61973
-0.194489 -15.116
-0.534412 -15.0336
-0.435016 -14.379
-0.778815 -14.3465
1.62943 -14.5466
1.4803 -14.2248
0.244073 -6.77391
0.318476 -7.03829
-1.85671 -15.9615
-2.18811 -15.8375
-2.30099 -24.5768
-2.02262 -24.836
1.56032 -11.5303
1.37457 -11.7933
-2.94161 -24.5876
-2.8452 -24.2181
0.538199 -11.9026
0.217324 -11.8387
-0.475724 -7.46533
-0.549027 -7.19854
-0.382403 -2.36561
-0.48119 -2.23762
-1.16969 -5.05872
-1.25882 -5.29821
-0.776734 -1.97158
-0.890401 -1.89065
-0.610097 -20.236
-0.98131 -20.2221
-1.91943 -14.6704
-2.23019 -14.5222
0.318047 -2.71118
0.475963 -2.63765
-1.67354 -7.32757
-1.77121 -7.08128
0.140388 -2.15769
-0.0220854 -2.13755
-1.2984 -21.405
-0.976454 -21.5973
-0.680832 -3.95622
-0.733727 -3.75426
-0.16424 -0.243889
-0.226823 -0.265516
1.17426 -15.7675
1.34866 -15.4628
0.226401 -23.1785
0.454927 -22.8756
-0.963397 -3.38947
-0.760354 -3.35923
-0.602726 -15.8135
-0.567514 -16.1705
0.412507 -17.8581
0.141626 -17.605
-0.44223 -2.94335
-0.588169 -3.08099
-1.50801 -17.2281
-1.22609 -17.4569
-0.526287 -2.23713
-0.60655 -2.10507
-0.660984 -0.92791
-0.559345 -0.944853
-2.54369 -20.3527
-2.42443 -20.7069
0.78945 -6.22775
1.03847 -6.32632
1.62141 -12.1972
1.35189 -12.3796
1.23634 -13.5065
1.21052 -13.1646
-1.80014 -18.4235
-1.97049 -18.0954
-1.23681 -19.3909
-1.57709 -19.5434
-2.13607 -19.314
-2.10609 -19.6856
0.569215 -23.0461
0.930606 -23.1609
-0.568412 -5.94122
-0.742061 -6.13897
-1.32355 -17.4048
-0.963022 -17.4577
1.39675 -23.2641
1.10063 -23.0242
-1.43008 -22.9893
-1.66734 -23.2871
-1.01663 -13.6959
-1.08402 -14.0358
1.09235 -21.7983
1.19915 -22.1629
-0.0796215 -0.428078
-0.0264116 -0.371312
0.0499615 -24.7781
-0.101056 -24.4283
-0.72687 -15.8344
-0.40829 -15.6782
-0.552943 -12.7996
-0.314614 -13.0363
-0.191547 -25.0675
-0.251587 -25.4446
-2.20465 -11.8994
-1.87672 -11.8273
      </DataArray> 
      <DataArray type="Float64" NumberOfComponents="2" Name="Velocity" format="ascii">
0 0
0 0
0 0
0 0
0 0
0 0
0 0
0 0
0 0
0 0
0 0
0 0
0 0
0 0
0 0
0 0
0 0
0 0
0 0
0 0
0 0
0 0
0 0
0 0
0 0
0 0
0 0
0 0
0 0
0 0
0 0
0 0
0 0
0 0
0 0
0 0
0 0
0 0
0 0
0 0
0 0
0 0
0 0
0 0
0 0
0 0
0 0
0 0
0 0
0 0
0 0
0 0
0 0
0 0
0 0
0 0
0 0
0 0
0 0
0 0
0 0
0 0
0 0
0 0
0 0
0 0
0 0
0 0
0 0
0 0
0 0
0 0
0 0
0 0
0 0
0 0
0 0
0 0
0 0
0 0
0 0
0 0
0 0
0 0
0 0
0 0
0 0
0 0
0 0
0 0
0 0
0 0
0 0
0 0
0 0
0 0
0 0
0 0
0 0
0 0
0 0
0 0
0 0
0 0
0 0
0 0
0 0
0 0
0 0
0 0
0 0
0 0
0 0
0 0
0 0
0 0
0 0
0 0
0 0
0 0
0 0
0 0
0 0
0 0
0 0
0 0
0 0
0 0
0 0
0 0
0 0
0 0
0 0
0 0
0 0
0 0
0 0
0 0
0 0
0 0
0 0
0 0
0 0
0 0
0 0
0 0
0 0
0 0
0 0
0 0
0 0
0 0
0 0
0 0
0 0
0 0
0 0
0 0
0 0
0 0
0 0
0 0
0 0
0 0
0 0
0 0
0 0
0 0
0 0
0 0
0 0
0 0
0 0
0 0
0 0
0 0
0 0
0 0
0 0
0 0
0 0
0 0
0 0
0 0
0 0
0 0
0 0
0 0
0 0
0 0
0 0
0 0
0 0
0 0
0 0
0 0
0 0
0 0
0 0
0 0
0 0
0 0
0 0
0 0
0 0
0 0
0 0
0 0
0 0
0 0
0 0
0 0
0 0
0 0
0 0
0 0
0 0
0 0
0 0
0 0
0 0
0 0
0 0
0 0
0 0
0 0
0 0
0 0
0 0
0 0
0 0
0 0
0 0
0 0
0 0
0 0
0 0
0 0
0 0
0 0
0 0
0 0
0 0
0 0
0 0
0 0
0 0
0 0
0 0
0 0
0 0
0 0
0 0
0 0
0 0
0 0
0 0
0 0
0 0
0 0
0 0
0 0
0 0
0 0
0 0
0 0
0 0
0 0
0 0
0 0
0 0
0 0
0 0
0 0
0 0
0 0
0 0
0 0
0 0
0 0
0 0
0 0
0 0
0 0
0 0
0 0
0 0
0 0
0 0
0 0
0 0
0 0
0 0
0 0
0 0
0 0
0 0
0 0
0 0
0 0
0 0
0 0
0 0
0 0
0 0
0 0
0 0
0 0
0 0
0 0
0 0
0 0
0 0
0 0
0 0
0 0
0 0
0 0
0 0
0 0
0 0
0 0
0 0
0 0
0 0
0 0
0 0
0 0
0 0
0 0
0 0
0 0
0 0
0 0
0 0
0 0
0 0
0 0
0 0
0 0
0 0
0 0
0 0
0 0
0 0
0 0
0 0
0 0
0 0
0 0
0 0
0 0
0 0
0 0
0 0
0 0
0 0
0 0
0 0
0 0
0 0
0 0
0 0
0 0
0 0
0 0
0 0
0 0
0 0
0 0
0 0
0 0
0 0
0 0
0 0
0 0
0 0
0 0
0 0
0 0
0 0
0 0
0 0
0 0
0 0
0 0
0 0
0 0
0 0
0 0
0 0
0 0
0 0
0 0
0 0
0 0
0 0
0 0
0 0
0 0
0 0
0 0
0 0
0 0
0 0
0 0
0 0
0 0
0 0
0 0
0 0
0 0
0 0
0 0
0 0
0 0
0 0
0 0
0 0
0 0
0 0
0 0
0 0
0 0
0 0
0 0
0 0
0 0
0 0
0 0
0 0
0 0
0 0
0 0
0 0
0 0
0 0
0 0
0 0
0 0
0 0
0 0
0 0
0 0
0 0
0 0
0 0
0 0
0 0
0 0
0 0
0 0
0 0
0 0
0 0
0 0
0 0
0 0
0 0
0 0
0 0
0 0
0 0
0 0
0 0
0 0
0 0
0 0
0 0
0 0
0 0
0 0
0 0
0 0
0 0
0 0
0 0
0 0
0 0
0 0
0 0
0 0
0 0
0 0
0 0
0 0
0 0
0 0
0 0
0 0
0 0
0 0
0 0
0 0
0 0
0 0
0 0
0 0
0 0
0 0
0 0
0 0
0 0
0 0
0 0
0 0
0 0
0 0
0 0
0 0
0 0
0 0
0 0
0 0
0 0
0 0
0 0
0 0
0 0
0 0
0 0
0 0
0 0
0 0
0 0
0 0
0 0
0 0
0 0
0 0
0 0
0 0
0 0
0 0
0 0
0 0
0 0
0 0
0 0
0 0
0 0
0 0
0 0
0 0
0 0
0 0
0 0
0 0
0 0
0 0
0 0
0 0
0 0
0 0
0 0
0 0
0 0
0 0
0 0
0 0
0 0
0 0
0 0
0 0
0 0
0 0
0 0
0 0
0 0
0 0
0 0
0 0
0 0
0 0
0 0
0 0
0 0
0 0
0 0
0 0
0 0
0 0
0 0
0 0
0 0
0 0
0 0
0 0
0 0
0 0
0 0
0 0
0 0
0 0
0 0
0 0
0 0
0 0
0 0
0 0
0 0
0 0
0 0
0 0
0 0
0 0
0 0
0 0
0 0
0 0
0 0
0 0
0 0
0 0
0 0
0 0
0 0
0 0
0 0
0 0
0 0
0 0
0 0
0 0
0 0
0 0
0 0
0 0
0 0
0 0
0 0
0 0
0 0
0 0
0 0
0 0
0 0
0 0
0 0
0 0
0 0
0 0
0 0
0 0
0 0
0 0
0 0
0 0
0 0
0 0
0 0
0 0
0 0
0 0
0 0
0 0
0 0
0 0
0 0
0 0
0 0
0 0
0 0
0 0
0 0
0 0
0 0
0 0
0 0
0 0
0 0
0 0
0 0
0 0
0 0
0 0
0 0
0 0
0 0
0 0
0 0
0 0
0 0
0 0
0 0
0 0
0 0
0 0
0 0
0 0
0 0
0 0
0 0
0 0
0 0
0 0
0 0
0 0
0 0
0 0
0 0
0 0
0 0
0 0
0 0
0 0
0 0
0 0
0 0
0 0
0 0
0 0
0 0
0 0
0 0
0 0
0 0
0 0
0 0
0 0
0 0
0 0
0 0
0 0
0 0
0 0
0 0
0 0
0 0
0 0
0 0
0 0
0 0
0 0
0 0
0 0
0 0
0 0
0 0
0 0
0 0
0 0
0 0
0 0
0 0
0 0
0 0
0 0
0 0
0 0
0 0
0 0
0 0
0 0
0 0
0 0
0 0
0 0
0 0
0 0
0 0
0 0
0 0
0 0
0 0
0 0
0 0
0 0
0 0
0 0
0 0
0 0
0 0
0 0
0 0
0 0
0 0
0 0
0 0
0 0
0 0
0 0
0 0
0 0
0 0
0 0
0 0
0 0
0 0
0 0
0 0
0 0
0 0
0 0
0 0
0 0
0 0
0 0
0 0
0 0
0 0
0 0
0 0
0 0
0 0
0 0
0 0
0 0
0 0
0 0
0 0
0 0
0 0
0 0
0 0
0 0
0 0
0 0
0 0
0 0
0 0
0 0
0 0
0 0
0 0
0 0
0 0
0 0
0 0
0 0
0 0
0 0
0 0
0 0
0 0
0 0
0 0
0 0
0 0
0 0
0 0
0 0
0 0
0 0
0 0
0 0
0 0
0 0
0 0
0 0
0 0
0 0
0 0
0 0
0 0
0 0
0 0
0 0
0 0
0 0
0 0
0 0
0 0
0 0
0 0
0 0
0 0
0 0
0 0
0 0
0 0
0 0
0 0
0 0
0 0
0 0
0 0
0 0
0 0
0 0
0 0
0 0
0 0
0 0
0 0
0 0
0 0
0 0
0 0
0 0
0 0
0 0
0 0
0 0
0 0
0 0
0 0
0 0
0 0
0 0
0 0
0 0
0 0
0 0
0 0
0 0
0 0
0 0
0 0
0 0
0 0
0 0
0 0
0 0
0 0
0 0
0 0
0 0
0 0
0 0
0 0
0 0
0 0
0 0
0 0
0 0
0 0
0 0
0 0
0 0
0 0
0 0
0 0
0 0
0 0
0 0
0 0
0 0
0 0
0 0
0 0
0 0
0 0
0 0
0 0
0 0
0 0
0 0
0 0
0 0
0 0
0 0
0 0
0 0
0 0
0 0
0 0
0 0
0 0
0 0
0 0
0 0
0 0
0 0
0 0
0 0
0 0
0 0
0 0
0 0
0 0
0 0
0 0
0 0
0 0
0 0
0 0
0 0
0 0
0 0
0 0
0 0
0 0
0 0
0 0
0 0
0 0
0 0
0 0
0 0
0 0
0 0
0 0
0 0
0 0
0 0
0 0
0 0
0 0
0 0
0 0
0 0
0 0
0 0
0 0
0 0
0 0
0 0
0 0
0 0
0 0
0 0
0 0
0 0
0 0
0 0
0 0
0 0
0 0
0 0
0 0
0 0
0 0
0 0
0 0
0 0
0 0
0 0
0 0
0 0
0 0
0 0
0 0
0 0
0 0
0 0
0 0
0 0
0 0
0 0
0 0
0 0
0 0
0 0
0 0
0 0
0 0
0 0
0 0
0 0
0 0
0 0
0 0
0 0
0 0
0 0
0 0
0 0
0 0
0 0
0 0
0 0
0 0
0 0
0 0
0 0
0 0
0 0
0 0
0 0
0 0
0 0
0 0
0 0
0 0
0 0
0 0
0 0
0 0
0 0
0 0
0 0
0 0
0 0
0 0
0 0
0 0
0 0
0 0
0 0
0 0
0 0
0 0
0 0
0 0
0 0
0 0
0 0
0 0
0 0
0 0
0 0
0 0
0 0
0 0
0 0
0 0
0 0
0 0
0 0
0 0
0 0
0 0
0 0
0 0
0 0
0 0
0 0
0 0
0 0
0 0
0 0
0 0
0 0
0 0
0 0
0 0
0 0
0 0
0 0
0 0
0 0
0 0
0 0
0 0
0 0
0 0
0 0
0 0
0 0
0 0
0 0
0 0
0 0
0 0
0 0
0 0
0 0
0 0
0 0
0 0
0 0
0 0
0 0
0 0
0 0
0 0
0 0
0 0
0 0
0 0
0 0
0 0
0 0
0 0
0 0
0 0
0 0
0 0
0 0
0 0
0 0
0 0
0 0
0 0
0 0
0 0
0 0
0 0
0 0
0 0
0 0
0 0
0 0
0 0
0 0
0 0
0 0
0 0
0 0
0 0
0 0
0 0
0 0
0 0
0 0
0 0
0 0
0 0
0 0
0 0
0 0
0 0
0 0
0 0
0 0
0 0
0 0
0 0
0 0
0 0
0 0
0 0
0 0
0 0
0 0
0 0
0 0
0 0
0 0
0 0
0 0
0 0
0 0
0 0
0 0
0 0
0 0
0 0
0 0
0 0
0 0
0 0
0 0
0 0
0 0
0 0
0 0
0 0
0 0
0 0
0 0
0 0
0 0
0 0
0 0
0 0
0 0
0 0
0 0
0 0
0 0
0 0
0 0
0 0
0 0
0 0
0 0
0 0
0 0
0 0
0 0
0 0
0 0
0 0
0 0
0 0
0 0
0 0
0 0
0 0
0 0
0 0
0 0
0 0
0 0
0 0
0 0
0 0
0 0
0 0
0 0
0 0
0 0
0 0
0 0
0 0
0 0
0 0
0 0
0 0
0 0
0 0
0 0
0 0
0 0
0 0
0 0
0 0
0 0
0 0
0 0
0 0
0 0
0 0
0 0
0 0
0 0
0 0
0 0
0 0
0 0
0 0
0 0
0 0
0 0
0 0
0 0
0 0
0 0
0 0
0 0
0 0
0 0
0 0
0 0
0 0
0 0
0 0
0 0
0 0
0 0
0 0
0 0
0 0
0 0
0 0
0 0
0 0
0 0
0 0
0 0
0 0
0 0
0 0
0 0
0 0
0 0
0 0
0 0
0 0
0 0
0 0
0 0
0 0
0 0
0 0
0 0
0 0
0 0
0 0
0 0
0 0
0 0
0 0
0 0
0 0
0 0
0 0
0 0
0 0
0 0
0 0
0 0
0 0
0 0
0 0
0 0
0 0
0 0
0 0
0 0
0 0
0 0
0 0
0 0
0 0
0 0
0 0
0 0
0 0
0 0
0 0
0 0
0 0
0 0
0 0
0 0
0 0
0 0
0 0
0 0
0 0
0 0
0 0
0 0
0 0
0 0
0 0
0 0
0 0
0 0
0 0
0 0
0 0
0 0
0 0
0 0
0 0
0 0
0 0
0 0
0 0
0 0
0 0
0 0
0 0
0 0
0 0
0 0
0 0
0 0
0 0
0 0
0 0
0 0
0 0
0 0
0 0
0 0
0 0
0 0
0 0
0 0
0 0
0 0
0 0
0 0
0 0
0 0
0 0
0 0
0 0
0 0
0 0
0 0
0 0
0 0
0 0
0 0
0 0
0 0
0 0
0 0
0 0
0 0
0 0
0 0
0 0
0 0
0 0
0 0
0 0
0 0
0 0
0 0
0 0
0 0
0 0
0 0
0 0
0 0
0 0
0 0
0 0
0 0
0 0
0 0
0 0
0 0
0 0
0 0
0 0
0 0
0 0
0 0
0 0
0 0
0 0
0 0
0 0
0 0
0 0
0 0
0 0
0 0
0 0
0 0
0 0
0 0
0 0
0 0
0 0
0 0
0 0
0 0
0 0
0 0
0 0
0 0
0 0
0 0
0 0
0 0
0 0
0 0
0 0
0 0
0 0
0 0
0 0
0 0
0 0
0 0
0 0
0 0
0 0
0 0
0 0
0 0
0 0
0 0
0 0
0 0
0 0
0 0
0 0
0 0
0 0
0 0
0 0
0 0
0 0
0 0
0 0
0 0
0 0
0 0
0 0
0 0
0 0
0 0
0 0
0 0
0 0
0 0
0 0
0 0
0 0
0 0
0 0
0 0
0 0
0 0
0 0
0 0
0 0
0 0
0 0
0 0
0 0
0 0
0 0
0 0
0 0
0 0
0 0
0 0
0 0
0 0
0 0
0 0
0 0
0 0
0 0
0 0
0 0
0 0
0 0
0 0
0 0
0 0
0 0
0 0
0 0
0 0
0 0
0 0
0 0
0 0
0 0
0 0
0 0
0 0
0 0
0 0
0 0
0 0
0 0
0 0
0 0
0 0
0 0
0 0
0 0
0 0
0 0
0 0
0 0
0 0
0 0
0 0
0 0
0 0
0 0
0 0
0 0
0 0
0 0
0 0
0 0
0 0
0 0
0 0
0 0
0 0
0 0
0 0
0 0
0 0
0 0
0 0
0 0
0 0
0 0
0 0
0 0
0 0
0 0
0 0
0 0
0 0
0 0
0 0
0 0
0 0
0 0
0 0
0 0
0 0
0 0
0 0
0 0
0 0
0 0
0 0
0 0
0 0
0 0
0 0
0 0
0 0
0 0
0 0
0 0
0 0
0 0
0 0
0 0
0 0
0 0
0 0
0 0
0 0
0 0
0 0
0 0
0 0
0 0
0 0
0 0
0 0
0 0
0 0
0 0
0 0
0 0
0 0
0 0
0 0
0 0
0 0
0 0
0 0
0 0
0 0
0 0
0 0
0 0
0 0
0 0
0 0
0 0
0 0
0 0
0 0
0 0
0 0
0 0
0 0
0 0
0 0
0 0
0 0
0 0
0 0
0 0
0 0
0 0
0 0
0 0
0 0
0 0
0 0
0 0
0 0
0 0
0 0
0 0
0 0
0 0
0 0
0 0
0 0
0 0
0 0
0 0
0 0
0 0
0 0
0 0
0 0
0 0
0 0
0 0
0 0
0 0
0 0
0 0
0 0
0 0
0 0
0 0
0 0
0 0
0 0
0 0
0 0
0 0
0 0
0 0
0 0
0 0
0 0
0 0
0 0
0 0
0 0
0 0
0 0
0 0
0 0
0 0
0 0
0 0
0 0
0 0
0 0
0 0
0 0
0 0
0 0
0 0
0 0
0 0
0 0
0 0
0 0
0 0
0 0
0 0
0 0
0 0
0 0
0 0
0 0
0 0
0 0
0 0
0 0
0 0
0 0
0 0
0 0
0 0
0 0
0 0
0 0
0 0
0 0
0 0
0 0
0 0
0 0
0 0
0 0
0 0
0 0
0 0
0 0
0 0
0 0
0 0
0 0
0 0
0 0
0 0
0 0
0 0
0 0
0 0
0 0
0 0
0 0
0 0
0 0
0 0
0 0
0 0
0 0
0 0
0 0
0 0
0 0
0 0
0 0
0 0
0 0
0 0
0 0
0 0
0 0
0 0
0 0
0 0
0 0
0 0
0 0
0 0
0 0
0 0
0 0
0 0
0 0
0 0
0 0
0 0
0 0
0 0
0 0
0 0
0 0
0 0
0 0
0 0
0 0
0 0
0 0
0 0
0 0
0 0
0 0
0 0
0 0
0 0
0 0
0 0
0 0
0 0
0 0
0 0
0 0
0 0
0 0
0 0
0 0
0 0
0 0
0 0
0 0
0 0
0 0
0 0
0 0
0 0
0 0
0 0
0 0
0 0
0 0
0 0
0 0
0 0
0 0
0 0
0 0
0 0
0 0
0 0
0 0
0 0
0 0
0 0
0 0
0 0
0 0
0 0
0 0
0 0
0 0
0 0
0 0
0 0
0 0
0 0
0 0
0 0
0 0
0 0
0 0
0 0
0 0
0 0
0 0
0 0
0 0
0 0
0 0
0 0
0 0
0 0
0 0
0 0
0 0
0 0
0 0
0 0
0 0
0 0
0 0
0 0
0 0
0 0
0 0
0 0
0 0
0 0
0 0
0 0
0 0
0 0
0 0
0 0
0 0
0 0
0 0
0 0
0 0
0 0
0 0
0 0
0 0
0 0
0 0
0 0
0 0
0 0
0 0
0 0
0 0
0 0
0 0
0 0
0 0
0 0
0 0
0 0
0 0
0 0
0 0
0 0
0 0
0 0
0 0
0 0
0 0
0 0
0 0
0 0
0 0
0 0
0 0
0 0
0 0
0 0
0 0
0 0
0 0
0 0
0 0
0 0
0 0
0 0
0 0
0 0
0 0
0 0
0 0
0 0
0 0
0 0
0 0
0 0
0 0
0 0
0 0
0 0
0 0
0 0
0 0
0 0
0 0
0 0
0 0
0 0
0 0
0 0
0 0
0 0
0 0
0 0
0 0
0 0
0 0
0 0
0 0
0 0
0 0
0 0
0 0
0 0
0 0
0 0
0 0
0 0
0 0
0 0
0 0
0 0
0 0
0 0
0 0
0 0
0 0
0 0
0 0
0 0
0 0
0 0
0 0
0 0
0 0
0 0
0 0
0 0
0 0
0 0
0 0
0 0
0 0
0 0
0 0
0 0
0 0
0 0
0 0
0 0
0 0
0 0
0 0
0 0
0 0
0 0
0 0
0 0
0 0
0 0
0 0
0 0
0 0
0 0
0 0
0 0
0 0
0 0
0 0
0 0
0 0
0 0
0 0
0 0
0 0
0 0
0 0
0 0
0 0
0 0
0 0
0 0
0 0
0 0
0 0
0 0
0 0
0 0
0 0
0 0
0 0
0 0
0 0
0 0
0 0
0 0
0 0
0 0
0 0
0 0
0 0
0 0
0 0
0 0
0 0
0 0
0 0
0 0
0 0
0 0
0 0
0 0
0 0
0 0
0 0
0 0
0 0
0 0
0 0
0 0
0 0
0 0
0 0
0 0
0 0
0 0
0 0
0 0
0 0
0 0
0 0
0 0
0 0
0 0
0 0
0 0
0 0
0 0
0 0
0 0
0 0
0 0
0 0
0 0
0 0
0 0
0 0
0 0
0 0
0 0
0 0
0 0
0 0
0 0
0 0
0 0
0 0
0 0
0 0
0 0
0 0
0 0
0 0
0 0
0 0
0 0
0 0
0 0
0 0
0 0
0 0
0 0
0 0
0 0
0 0
0 0
0 0
0 0
0 0
0 0
0 0
0 0
0 0
0 0
0 0
0 0
0 0
0 0
0 0
0 0
0 0
0 0
0 0
0 0
0 0
0 0
0 0
0 0
0 0
0 0
0 0
0 0
0 0
0 0
0 0
0 0
0 0
0 0
0 0
0 0
0 0
0 0
0 0
0 0
0 0
0 0
0 0
0 0
0 0
0 0
0 0
0 0
0 0
0 0
0 0
0 0
0 0
0 0
0 0
0 0
0 0
0 0
0 0
0 0
0 0
0 0
0 0
0 0
0 0
0 0
0 0
0 0
0 0
0 0
0 0
0 0
0 0
0 0
0 0
0 0
0 0
0 0
0 0
0 0
0 0
0 0
0 0
0 0
0 0
0 0
0 0
0 0
0 0
0 0
0 0
0 0
0 0
0 0
0 0
0 0
0 0
0 0
0 0
0 0
0 0
0 0
0 0
0 0
0 0
0 0
0 0
0 0
0 0
0 0
0 0
0 0
0 0
0 0
0 0
0 0
0 0
0 0
0 0
0 0
0 0
0 0
0 0
0 0
0 0
0 0
0 0
0 0
0 0
0 0
0 0
0 0
0 0
0 0
0 0
0 0
0 0
0 0
0 0
0 0
0 0
0 0
0 0
0 0
0 0
0 0
0 0
0 0
0 0
0 0
0 0
0 0
0 0
0 0
0 0
0 0
0 0
0 0
0 0
0 0
0 0
0 0
0 0
0 0
0 0
0 0
0 0
0 0
0 0
0 0
0 0
0 0
0 0
0 0
0 0
0 0
0 0
0 0
0 0
0 0
0 0
0 0
0 0
0 0
0 0
0 0
0 0
0 0
0 0
0 0
0 0
0 0
0 0
0 0
0 0
0 0
0 0
0 0
0 0
0 0
0 0
0 0
0 0
0 0
0 0
0 0
0 0
0 0
0 0
0 0
0 0
0 0
0 0
0 0
0 0
0 0
0 0
0 0
0 0
0 0
0 0
0 0
0 0
0 0
0 0
0 0
0 0
0 0
0 0
0 0
0 0
0 0
0 0
0 0
0 0
0 0
0 0
0 0
0 0
0 0
0 0
0 0
0 0
0 0
0 0
0 0
0 0
0 0
0 0
0 0
0 0
0 0
0 0
0 0
0 0
0 0
0 0
0 0
0 0
0 0
0 0
0 0
0 0
0 0
0 0
0 0
0 0
0 0
0 0
0 0
0 0
0 0
0 0
0 0
0 0
0 0
0 0
0 0
0 0
0 0
0 0
0 0
0 0
0 0
0 0
0 0
0 0
0 0
0 0
0 0
0 0
0 0
0 0
0 0
0 0
0 0
0 0
0 0
0 0
0 0
0 0
0 0
0 0
0 0
0 0
0 0
0 0
0 0
0 0
0 0
0 0
0 0
0 0
0 0
0 0
0 0
0 0
0 0
0 0
0 0
0 0
0 0
0 0
0 0
0 0
0 0
0 0
0 0
0 0
0 0
0 0
0 0
0 0
0 0
0 0
0 0
0 0
0 0
0 0
0 0
0 0
0 0
0 0
0 0
0 0
0 0
0 0
0 0
0 0
0 0
0 0
0 0
0 0
0 0
0 0
0 0
0 0
0 0
0 0
0 0
0 0
0 0
0 0
0 0
0 0
0 0
0 0
0 0
0 0
0 0
0 0
0 0
0 0
0 0
0 0
0 0
0 0
0 0
0 0
0 0
0 0
0 0
0 0
0 0
0 0
0 0
0 0
0 0
0 0
0 0
0 0
0 0
0 0
0 0
0 0
0 0
0 0
0 0
0 0
0 0
0 0
0 0
0 0
0 0
0 0
0 0
0 0
0 0
0 0
0 0
0 0
0 0
0 0
0 0
0 0
0 0
0 0
0 0
0 0
0 0
0 0
0 0
0 0
0 0
0 0
0 0
0 0
0 0
0 0
0 0
0 0
0 0
0 0
0 0
0 0
0 0
0 0
0 0
0 0
0 0
0 0
0 0
0 0
0 0
0 0
0 0
0 0
0 0
0 0
0 0
0 0
0 0
0 0
0 0
0 0
0 0
0 0
0 0
0 0
0 0
0 0
0 0
0 0
0 0
0 0
0 0
0 0
0 0
0 0
0 0
0 0
0 0
0 0
0 0
0 0
0 0
0 0
0 0
0 0
0 0
0 0
0 0
0 0
0 0
0 0
0 0
0 0
0 0
0 0
0 0
0 0
0 0
0 0
0 0
0 0
0 0
0 0
0 0
0 0
0 0
0 0
0 0
0 0
0 0
0 0
0 0
0 0
0 0
0 0
0 0
0 0
0 0
0 0
0 0
0 0
0 0
0 0
0 0
0 0
0 0
0 0
0 0
0 0
0 0
0 0
0 0
0 0
0 0
0 0
0 0
0 0
0 0
0 0
0 0
0 0
0 0
0 0
0 0
0 0
0 0
0 0
0 0
0 0
0 0
0 0
0 0
0 0
0 0
0 0
0 0
0 0
0 0
0 0
0 0
0 0
0 0
0 0
0 0
0 0
0 0
0 0
0 0
0 0
0 0
0 0
0 0
0 0
0 0
0 0
0 0
0 0
0 0
0 0
0 0
0 0
0 0
0 0
0 0
0 0
0 0
0 0
0 0
0 0
0 0
0 0
0 0
0 0
0 0
0 0
0 0
0 0
0 0
0 0
0 0
0 0
0 0
0 0
0 0
0 0
0 0
0 0
0 0
0 0
0 0
0 0
0 0
0 0
0 0
0 0
0 0
0 0
0 0
0 0
0 0
0 0
0 0
0 0
0 0
0 0
0 0
0 0
0 0
0 0
0 0
0 0
0 0
0 0
0 0
0 0
0 0
0 0
0 0
0 0
0 0
0 0
0 0
0 0
0 0
0 0
0 0
0 0
0 0
0 0
0 0
0 0
0 0
0 0
0 0
0 0
0 0
0 0
0 0
0 0
0 0
0 0
0 0
0 0
0 0
0 0
0 0
0 0
0 0
0 0
0 0
0 0
0 0
0 0
0 0
0 0
0 0
0 0
0 0
0 0
0 0
0 0
0 0
0 0
0 0
0 0
0 0
0 0
0 0
0 0
0 0
0 0
0 0
0 0
0 0
0 0
0 0
0 0
0 0
0 0
0 0
0 0
0 0
0 0
0 0
0 0
0 0
0 0
0 0
0 0
0 0
0 0
0 0
0 0
0 0
0 0
0 0
0 0
0 0
0 0
0 0
0 0
0 0
0 0
0 0
0 0
0 0
0 0
0 0
0 0
0 0
0 0
0 0
0 0
0 0
0 0
0 0
0 0
0 0
0 0
0 0
0 0
0 0
0 0
0 0
0 0
0 0
0 0
0 0
0 0
0 0
0 0
0 0
0 0
0 0
0 0
0 0
0 0
0 0
0 0
0 0
0 0
0 0
0 0
0 0
0 0
0 0
0 0
0 0
0 0
0 0
0 0
0 0
0 0
0 0
0 0
0 0
0 0
0 0
0 0
0 0
0 0
0 0
0 0
0 0
0 0
0 0
0 0
0 0
0 0
0 0
0 0
0 0
0 0
0 0
0 0
0 0
0 0
0 0
0 0
0 0
0 0
0 0
0 0
0 0
0 0
0 0
0 0
0 0
0 0
0 0
0 0
0 0
0 0
0 0
0 0
0 0
0 0
0 0
0 0
0 0
0 0
0 0
0 0
0 0
0 0
0 0
0 0
0 0
0 0
0 0
0 0
0 0
0 0
0 0
0 0
0 0
0 0
0 0
0 0
0 0
0 0
0 0
0 0
0 0
0 0
0 0
0 0
0 0
0 0
0 0
0 0
0 0
0 0
0 0
0 0
0 0
0 0
0 0
0 0
0 0
0 0
0 0
0 0
0 0
0 0
0 0
0 0
0 0
0 0
0 0
0 0
0 0
0 0
0 0
0 0
0 0
0 0
0 0
0 0
0 0
0 0
0 0
0 0
0 0
0 0
0 0
0 0
0 0
0 0
0 0
0 0
0 0
0 0
0 0
0 0
0 0
0 0
0 0
0 0
0 0
0 0
0 0
0 0
0 0
0 0
0 0
0 0
0 0
0 0
0 0
0 0
0 0
0 0
0 0
0 0
0 0
0 0
0 0
0 0
0 0
0 0
0 0
0 0
0 0
0 0
0 0
0 0
0 0
0 0
0 0
0 0
0 0
0 0
0 0
0 0
0 0
0 0
0 0
0 0
0 0
0 0
0 0
0 0
0 0
0 0
0 0
0 0
0 0
0 0
0 0
0 0
0 0
0 0
0 0
0 0
0 0
0 0
0 0
0 0
0 0
0 0
0 0
0 0
0 0
0 0
0 0
0 0
0 0
0 0
0 0
0 0
0 0
0 0
0 0
0 0
0 0
0 0
0 0
0 0
0 0
0 0
0 0
0 0
0 0
0 0
0 0
0 0
0 0
0 0
0 0
0 0
0 0
0 0
0 0
0 0
0 0
0 0
0 0
0 0
0 0
0 0
0 0
0 0
0 0
0 0
0 0
0 0
0 0
0 0
0 0
0 0
0 0
0 0
0 0
0 0
0 0
0 0
0 0
0 0
0 0
0 0
0 0
0 0
0 0
0 0
0 0
0 0
0 0
0 0
0 0
0 0
0 0
0 0
0 0
0 0
0 0
0 0
0 0
0 0
0 0
0 0
0 0
0 0
0 0
0 0
0 0
0 0
0 0
0 0
0 0
0 0
0 0
0 0
0 0
0 0
0 0
0 0
0 0
0 0
0 0
0 0
0 0
0 0
0 0
0 0
0 0
0 0
0 0
0 0
0 0
0 0
0 0
0 0
0 0
0 0
0 0
0 0
0 0
0 0
0 0
0 0
0 0
0 0
0 0
0 0
0 0
0 0
0 0
0 0
0 0
0 0
0 0
0 0
0 0
0 0
0 0
0 0
0 0
0 0
0 0
0 0
0 0
0 0
0 0
0 0
0 0
0 0
0 0
0 0
0 0
0 0
0 0
0 0
0 0
0 0
0 0
0 0
0 0
0 0
0 0
0 0
0 0
0 0
0 0
0 0
0 0
0 0
0 0
0 0
0 0
0 0
0 0
0 0
0 0
0 0
0 0
0 0
0 0
0 0
0 0
0 0
0 0
0 0
0 0
0 0
0 0
0 0
0 0
0 0
0 0
0 0
0 0
0 0
0 0
0 0
0 0
0 0
0 0
0 0
0 0
0 0
0 0
0 0
0 0
0 0
0 0
0 0
0 0
0 0
0 0
0 0
0 0
0 0
0 0
0 0
0 0
0 0
0 0
0 0
0 0
0 0
0 0
0 0
0 0
0 0
0 0
0 0
0 0
0 0
0 0
0 0
0 0
0 0
0 0
0 0
0 0
0 0
0 0
0 0
0 0
0 0
0 0
0 0
0 0
0 0
0 0
0 0
0 0
0 0
0 0
0 0
0 0
0 0
0 0
0 0
0 0
0 0
0 0
0 0
0 0
0 0
0 0
0 0
0 0
0 0
0 0
0 0
0 0
0 0
0 0
0 0
0 0
0 0
0 0
0 0
0 0
0 0
0 0
0 0
0 0
0 0
0 0
0 0
0 0
0 0
0 0
0 0
0 0
0 0
0 0
0 0
0 0
0 0
0 0
0 0
0 0
0 0
0 0
0 0
0 0
0 0
0 0
0 0
0 0
0 0
0 0
0 0
0 0
0 0
0 0
0 0
0 0
0 0
0 0
0 0
0 0
0 0
0 0
0 0
0 0
0 0
0 0
0 0
0 0
0 0
0 0
0 0
0 0
0 0
0 0
0 0
0 0
0 0
0 0
0 0
0 0
0 0
0 0
0 0
0 0
0 0
0 0
0 0
0 0
0 0
0 0
0 0
0 0
0 0
0 0
0 0
0 0
0 0
0 0
0 0
0 0
0 0
0 0
0 0
0 0
0 0
0 0
0 0
0 0
0 0
0 0
0 0
0 0
0 0
0 0
0 0
0 0
0 0
0 0
0 0
0 0
0 0
0 0
0 0
0 0
0 0
0 0
0 0
0 0
0 0
0 0
0 0
0 0
0 0
0 0
0 0
0 0
0 0
0 0
0 0
0 0
0 0
0 0
0 0
0 0
0 0
0 0
0 0
0 0
0 0
0 0
0 0
0 0
0 0
0 0
0 0
0 0
0 0
0 0
0 0
0 0
0 0
0 0
0 0
0 0
0 0
0 0
0 0
0 0
0 0
0 0
0 0
0 0
0 0
0 0
0 0
0 0
0 0
0 0
0 0
0 0
0 0
0 0
0 0
0 0
0 0
0 0
0 0
0 0
0 0
0 0
0 0
0 0
0 0
0 0
0 0
0 0
0 0
0 0
0 0
0 0
0 0
0 0
0 0
0 0
0 0
0 0
0 0
0 0
0 0
0 0
0 0
0 0
0 0
0 0
0 0
0 0
0 0
0 0
0 0
0 0
0 0
0 0
0 0
0 0
0 0
0 0
0 0
0 0
0 0
0 0
0 0
0 0
0 0
0 0
0 0
0 0
0 0
0 0
0 0
0 0
0 0
0 0
0 0
0 0
0 0
0 0
0 0
0 0
0 0
0 0
0 0
0 0
0 0
0 0
0 0
0 0
0 0
0 0
0 0
0 0
0 0
0 0
0 0
0 0
0 0
0 0
0 0
0 0
0 0
0 0
0 0
0 0
0 0
0 0
0 0
0 0
0 0
0 0
0 0
0 0
0 0
0 0
0 0
0 0
0 0
0 0
0 0
0 0
0 0
0 0
0 0
0 0
0 0
0 0
0 0
0 0
0 0
0 0
0 0
0 0
0 0
0 0
0 0
0 0
0 0
0 0
0 0
0 0
0 0
0 0
0 0
0 0
0 0
0 0
0 0
0 0
0 0
0 0
0 0
0 0
0 0
0 0
0 0
0 0
0 0
0 0
0 0
0 0
0 0
0 0
0 0
0 0
0 0
0 0
0 0
0 0
0 0
0 0
0 0
0 0
0 0
0 0
0 0
0 0
0 0
0 0
0 0
0 0
0 0
0 0
0 0
0 0
0 0
0 0
0 0
0 0
0 0
0 0
0 0
0 0
0 0
0 0
0 0
0 0
0 0
0 0
0 0
0 0
0 0
0 0
0 0
0 0
0 0
0 0
0 0
0 0
0 0
0 0
0 0
0 0
0 0
0 0
0 0
0 0
0 0
0 0
0 0
0 0
0 0
0 0
0 0
0 0
0 0
0 0
0 0
0 0
0 0
0 0
0 0
0 0
0 0
0 0
0 0
0 0
0 0
0 0
0 0
0 0
0 0
0 0
0 0
0 0
0 0
0 0
0 0
0 0
0 0
0 0
0 0
0 0
0 0
0 0
0 0
0 0
0 0
0 0
0 0
0 0
0 0
0 0
0 0
0 0
0 0
0 0
0 0
0 0
0 0
0 0
0 0
0 0
0 0
0 0
0 0
0 0
0 0
0 0
0 0
0 0
0 0
0 0
0 0
0 0
0 0
0 0
0 0
0 0
0 0
0 0
0 0
0 0
0 0
0 0
0 0
0 0
0 0
0 0
0 0
0 0
0 0
0 0
0 0
0 0
0 0
0 0
0 0
0 0
0 0
0 0
0 0
0 0
0 0
0 0
0 0
0 0
0 0
0 0
0 0
0 0
0 0
0 0
0 0
0 0
0 0
0 0
0 0
0 0
0 0
0 0
0 0
0 0
0 0
0 0
0 0
0 0
0 0
0 0
0 0
0 0
0 0
0 0
0 0
0 0
0 0
0 0
0 0
0 0
0 0
0 0
0 0
0 0
0 0
0 0
0 0
0 0
0 0
0 0
0 0
0 0
0 0
0 0
0 0
0 0
0 0
0 0
0 0
0 0
0 0
0 0
0 0
0 0
0 0
0 0
0 0
0 0
0 0
0 0
0 0
0 0
0 0
0 0
0 0
0 0
0 0
0 0
0 0
0 0
0 0
0 0
0 0
0 0
0 0
0 0
0 0
0 0
0 0
0 0
0 0
0 0
0 0
0 0
0 0
0 0
0 0
0 0
0 0
0 0
0 0
0 0
0 0
0 0
0 0
0 0
0 0
0 0
0 0
0 0
0 0
0 0
0 0
0 0
0 0
0 0
0 0
0 0
0 0
0 0
0 0
0 0
0 0
0 0
0 0
0 0
0 0
0 0
0 0
0 0
0 0
0 0
0 0
0 0
0 0
0 0
0 0
0 0
0 0
0 0
0 0
0 0
0 0
0 0
0 0
0 0
0 0
0 0
0 0
0 0
0 0
0 0
0 0
0 0
0 0
0 0
0 0
0 0
0 0
0 0
0 0
0 0
0 0
0 0
0 0
0 0
0 0
0 0
0 0
0 0
0 0
0 0
0 0
0 0
0 0
0 0
0 0
0 0
0 0
0 0
0 0
0 0
0 0
0 0
0 0
0 0
0 0
0 0
0 0
0 0
0 0
0 0
0 0
0 0
0 0
0 0
0 0
0 0
0 0
0 0
0 0
0 0
0 0
0 0
0 0
0 0
0 0
0 0
0 0
0 0
0 0
0 0
0 0
0 0
0 0
0 0
0 0
0 0
0 0
0 0
0 0
0 0
0 0
0 0
0 0
0 0
0 0
0 0
0 0
0 0
0 0
0 0
0 0
0 0
0 0
0 0
0 0
0 0
0 0
0 0
0 0
0 0
0 0
0 0
0 0
0 0
0 0
0 0
0 0
0 0
0 0
0 0
0 0
0 0
0 0
0 0
0 0
0 0
0 0
0 0
0 0
0 0
0 0
0 0
0 0
0 0
0 0
0 0
0 0
0 0
0 0
0 0
0 0
0 0
0 0
0 0
0 0
0 0
0 0
0 0
0 0
0 0
0 0
0 0
0 0
0 0
0 0
0 0
0 0
0 0
0 0
0 0
0 0
0 0
0 0
0 0
0 0
0 0
0 0
0 0
0 0
0 0
0 0
0 0
0 0
0 0
0 0
0 0
0 0
0 0
0 0
0 0
0 0
0 0
0 0
0 0
0 0
0 0
0 0
0 0
0 0
0 0
0 0
0 0
0 0
0 0
0 0
0 0
0 0
0 0
0 0
0 0
0 0
0 0
0 0
0 0
0 0
0 0
0 0
0 0
0 0
0 0
0 0
0 0
0 0
0 0
0 0
0 0
0 0
0 0
0 0
0 0
0 0
0 0
0 0
0 0
0 0
0 0
0 0
0 0
0 0
0 0
0 0
0 0
0 0
0 0
0 0
0 0
0 0
0 0
0 0
0 0
0 0
0 0
0 0
0 0
0 0
0 0
0 0
0 0
0 0
0 0
0 0
0 0
0 0
0 0
0 0
0 0
0 0
0 0
0 0
0 0
0 0
0 0
0 0
0 0
0 0
0 0
0 0
0 0
0 0
0 0
0 0
0 0
0 0
0 0
0 0
0 0
0 0
0 0
0 0
0 0
0 0
0 0
0 0
0 0
0 0
0 0
0 0
0 0
0 0
0 0
0 0
0 0
0 0
0 0
0 0
0 0
0 0
0 0
0 0
0 0
0 0
0 0
0 0
0 0
0 0
0 0
0 0
0 0
0 0
0 0
0 0
0 0
0 0
0 0
0 0
0 0
0 0
0 0
0 0
0 0
0 0
0 0
0 0
0 0
0 0
0 0
0 0
0 0
0 0
0 0
0 0
0 0
0 0
0 0
0 0
0 0
0 0
0 0
0 0
0 0
0 0
0 0
0 0
0 0
0 0
0 0
0 0
0 0
0 0
0 0
0 0
0 0
0 0
0 0
0 0
0 0
0 0
0 0
0 0
0 0
0 0
0 0
0 0
0 0
0 0
0 0
0 0
0 0
0 0
0 0
0 0
0 0
0 0
0 0
0 0
0 0
0 0
0 0
0 0
0 0
0 0
0 0
0 0
0 0
0 0
0 0
0 0
0 0
0 0
0 0
0 0
0 0
0 0
0 0
0 0
0 0
0 0
0 0
0 0
0 0
0 0
0 0
0 0
0 0
0 0
0 0
0 0
0 0
0 0
0 0
0 0
0 0
0 0
0 0
0 0
0 0
0 0
0 0
0 0
0 0
0 0
0 0
0 0
0 0
0 0
0 0
0 0
0 0
0 0
0 0
0 0
0 0
0 0
0 0
0 0
0 0
0 0
0 0
0 0
0 0
0 0
0 0
0 0
0 0
0 0
0 0
0 0
0 0
0 0
0 0
0 0
0 0
0 0
0 0
0 0
0 0
0 0
0 0
0 0
0 0
0 0
0 0
0 0
0 0
0 0
0 0
0 0
0 0
0 0
0 0
0 0
0 0
0 0
0 0
0 0
0 0
0 0
0 0
0 0
0 0
0 0
0 0
0 0
0 0
0 0
0 0
0 0
0 0
0 0
0 0
0 0
0 0
0 0
0 0
0 0
0 0
0 0
0 0
0 0
0 0
0 0
0 0
0 0
0 0
0 0
0 0
0 0
0 0
0 0
0 0
0 0
0 0
0 0
0 0
0 0
0 0
0 0
0 0
0 0
0 0
0 0
0 0
0 0
0 0
0 0
0 0
0 0
0 0
0 0
0 0
0 0
0 0
0 0
0 0
0 0
0 0
0 0
0 0
0 0
0 0
0 0
0 0
0 0
0 0
0 0
0 0
0 0
0 0
0 0
0 0
0 0
0 0
0 0
0 0
0 0
0 0
0 0
0 0
0 0
0 0
0 0
0 0
0 0
0 0
0 0
0 0
0 0
0 0
0 0
0 0
0 0
0 0
0 0
0 0
0 0
0 0
0 0
0 0
0 0
0 0
0 0
0 0
0 0
0 0
0 0
0 0
0 0
0 0
0 0
0 0
0 0
0 0
0 0
0 0
0 0
0 0
0 0
0 0
0 0
0 0
0 0
0 0
0 0
0 0
0 0
0 0
0 0
0 0
0 0
0 0
0 0
0 0
0 0
0 0
0 0
0 0
0 0
0 0
0 0
0 0
0 0
0 0
0 0
0 0
0 0
0 0
0 0
0 0
0 0
0 0
0 0
0 0
0 0
0 0
0 0
0 0
0 0
0 0
0 0
0 0
0 0
0 0
0 0
0 0
0 0
0 0
0 0
0 0
0 0
0 0
0 0
0 0
0 0
0 0
0 0
0 0
0 0
0 0
0 0
0 0
0 0
0 0
0 0
0 0
0 0
0 0
0 0
0 0
0 0
0 0
0 0
0 0
0 0
0 0
0 0
0 0
0 0
0 0
0 0
0 0
0 0
0 0
0 0
0 0
0 0
0 0
0 0
0 0
0 0
0 0
0 0
0 0
0 0
0 0
0 0
0 0
0 0
0 0
0 0
0 0
0 0
0 0
0 0
0 0
0 0
0 0
0 0
0 0
0 0
0 0
0 0
0 0
0 0
0 0
0 0
0 0
0 0
0 0
0 0
0 0
0 0
0 0
0 0
0 0
0 0
0 0
0 0
0 0
0 0
0 0
0 0
0 0
0 0
0 0
0 0
0 0
0 0
0 0
0 0
0 0
0 0
0 0
0 0
0 0
0 0
0 0
0 0
0 0
0 0
0 0
0 0
0 0
0 0
0 0
0 0
0 0
0 0
0 0
0 0
0 0
0 0
0 0
0 0
0 0
0 0
0 0
0 0
0 0
0 0
0 0
0 0
0 0
0 0
0 0
0 0
0 0
0 0
0 0
0 0
0 0
0 0
0 0
0 0
0 0
0 0
0 0
0 0
0 0
0 0
0 0
0 0
0 0
0 0
0 0
0 0
0 0
0 0
0 0
0 0
0 0
0 0
0 0
0 0
0 0
0 0
0 0
0 0
0 0
0 0
0 0
0 0
0 0
0 0
0 0
0 0
0 0
0 0
0 0
0 0
0 0
0 0
0 0
0 0
0 0
0 0
0 0
0 0
0 0
0 0
0 0
0 0
0 0
0 0
0 0
0 0
0 0
0 0
0 0
0 0
0 0
0 0
0 0
0 0
0 0
0 0
0 0
0 0
0 0
0 0
0 0
0 0
0 0
0 0
0 0
0 0
0 0
0 0
0 0
0 0
0 0
0 0
0 0
0 0
0 0
0 0
0 0
0 0
0 0
0 0
0 0
0 0
0 0
0 0
0 0
0 0
0 0
0 0
0 0
0 0
0 0
0 0
0 0
0 0
0 0
0 0
0 0
0 0
0 0
0 0
0 0
0 0
0 0
0 0
0 0
0 0
0 0
0 0
0 0
0 0
0 0
0 0
0 0
0 0
0 0
0 0
0 0
0 0
0 0
0 0
0 0
0 0
0 0
0 0
0 0
0 0
0 0
0 0
0 0
0 0
0 0
0 0
0 0
0 0
0 0
0 0
0 0
0 0
0 0
0 0
0 0
0 0
0 0
0 0
0 0
0 0
0 0
0 0
0 0
0 0
0 0
0 0
0 0
0 0
0 0
0 0
0 0
0 0
0 0
0 0
0 0
0 0
0 0
0 0
0 0
0 0
0 0
0 0
0 0
0 0
0 0
0 0
0 0
0 0
0 0
0 0
0 0
0 0
0 0
0 0
0 0
0 0
0 0
0 0
0 0
0 0
0 0
0 0
0 0
0 0
0 0
0 0
0 0
0 0
0 0
0 0
0 0
0 0
0 0
0 0
0 0
0 0
0 0
0 0
0 0
0 0
0 0
0 0
0 0
0 0
0 0
0 0
0 0
0 0
0 0
0 0
0 0
0 0
0 0
0 0
0 0
0 0
0 0
0 0
0 0
0 0
0 0
0 0
0 0
0 0
0 0
0 0
0 0
0 0
0 0
0 0
0 0
0 0
0 0
0 0
0 0
0 0
0 0
0 0
0 0
0 0
0 0
0 0
0 0
0 0
0 0
0 0
0 0
0 0
0 0
0 0
0 0
0 0
0 0
0 0
0 0
0 0
0 0
0 0
0 0
0 0
0 0
0 0
0 0
0 0
0 0
0 0
0 0
0 0
0 0
0 0
0 0
0 0
0 0
0 0
0 0
0 0
0 0
0 0
0 0
0 0
0 0
0 0
0 0
0 0
0 0
0 0
0 0
0 0
0 0
0 0
0 0
0 0
0 0
0 0
0 0
0 0
0 0
0 0
0 0
0 0
0 0
0 0
0 0
0 0
0 0
0 0
0 0
0 0
0 0
0 0
0 0
0 0
0 0
0 0
0 0
0 0
0 0
0 0
0 0
0 0
0 0
0 0
0 0
0 0
0 0
0 0
0 0
0 0
0 0
0 0
0 0
0 0
0 0
0 0
0 0
0 0
0 0
0 0
0 0
0 0
0 0
0 0
0 0
0 0
0 0
0 0
0 0
0 0
0 0
0 0
0 0
0 0
0 0
0 0
0 0
0 0
0 0
0 0
0 0
0 0
0 0
0 0
0 0
0 0
0 0
0 0
0 0
0 0
0 0
0 0
0 0
0 0
0 0
0 0
0 0
0 0
0 0
0 0
0 0
0 0
0 0
0 0
0 0
0 0
0 0
0 0
0 0
0 0
0 0
0 0
0 0
0 0
0 0
0 0
0 0
0 0
0 0
0 0
0 0
0 0
0 0
0 0
0 0
0 0
0 0
0 0
0 0
0 0
0 0
0 0
0 0
0 0
0 0
0 0
0 0
0 0
0 0
0 0
0 0
0 0
0 0
0 0
0 0
0 0
0 0
0 0
0 0
0 0
0 0
0 0
0 0
0 0
0 0
0 0
0 0
0 0
0 0
0 0
0 0
0 0
0 0
0 0
0 0
0 0
0 0
0 0
0 0
0 0
0 0
0 0
0 0
0 0
0 0
0 0
0 0
0 0
0 0
0 0
0 0
0 0
0 0
0 0
0 0
0 0
0 0
0 0
0 0
0 0
0 0
0 0
0 0
0 0
0 0
0 0
0 0
0 0
0 0
0 0
0 0
0 0
0 0
0 0
0 0
0 0
0 0
0 0
0 0
0 0
0 0
0 0
0 0
0 0
0 0
0 0
0 0
0 0
0 0
0 0
0 0
0 0
0 0
0 0
0 0
0 0
0 0
0 0
0 0
0 0
0 0
0 0
0 0
0 0
0 0
0 0
0 0
0 0
0 0
0 0
0 0
0 0
0 0
0 0
0 0
0 0
0 0
0 0
0 0
0 0
0 0
0 0
0 0
0 0
0 0
0 0
0 0
0 0
0 0
0 0
0 0
0 0
0 0
0 0
0 0
0 0
0 0
0 0
0 0
0 0
0 0
0 0
0 0
0 0
0 0
0 0
0 0
0 0
0 0
0 0
0 0
0 0
0 0
0 0
0 0
0 0
0 0
0 0
0 0
0 0
0 0
0 0
0 0
0 0
0 0
0 0
0 0
0 0
0 0
0 0
0 0
0 0
0 0
0 0
0 0
0 0
0 0
0 0
0 0
0 0
0 0
0 0
0 0
0 0
0 0
0 0
0 0
0 0
0 0
0 0
0 0
0 0
0 0
0 0
0 0
0 0
0 0
0 0
0 0
0 0
0 0
0 0
0 0
0 0
0 0
0 0
0 0
0 0
0 0
0 0
0 0
0 0
0 0
0 0
0 0
0 0
0 0
0 0
0 0
0 0
0 0
0 0
0 0
0 0
0 0
0 0
0 0
0 0
0 0
0 0
0 0
0 0
0 0
0 0
0 0
0 0
0 0
0 0
0 0
0 0
0 0
0 0
0 0
0 0
0 0
0 0
0 0
0 0
0 0
0 0
0 0
0 0
0 0
0 0
0 0
0 0
0 0
0 0
0 0
0 0
0 0
0 0
0 0
0 0
0 0
0 0
0 0
0 0
0 0
0 0
0 0
0 0
0 0
0 0
0 0
0 0
0 0
0 0
0 0
0 0
0 0
0 0
0 0
0 0
0 0
0 0
0 0
0 0
0 0
0 0
0 0
0 0
0 0
0 0
0 0
0 0
0 0
0 0
0 0
0 0
0 0
0 0
0 0
0 0
0 0
0 0
0 0
0 0
0 0
0 0
0 0
0 0
0 0
0 0
0 0
0 0
0 0
0 0
0 0
0 0
0 0
0 0
0 0
0 0
0 0
0 0
0 0
0 0
0 0
0 0
0 0
0 0
0 0
0 0
0 0
0 0
0 0
0 0
0 0
0 0
0 0
0 0
0 0
0 0
0 0
0 0
0 0
0 0
0 0
0 0
0 0
0 0
0 0
0 0
0 0
0 0
0 0
0 0
0 0
0 0
0 0
0 0
0 0
0 0
0 0
0 0
0 0
0 0
0 0
0 0
0 0
0 0
0 0
0 0
0 0
0 0
0 0
0 0
0 0
0 0
0 0
0 0
0 0
0 0
0 0
0 0
0 0
0 0
0 0
0 0
0 0
0 0
0 0
0 0
0 0
0 0
0 0
0 0
0 0
0 0
0 0
0 0
0 0
0 0
0 0
0 0
0 0
0 0
0 0
0 0
0 0
0 0
0 0
0 0
0 0
0 0
0 0
0 0
0 0
0 0
0 0
0 0
0 0
0 0
0 0
0 0
0 0
0 0
0 0
0 0
0 0
0 0
0 0
0 0
0 0
0 0
0 0
0 0
0 0
0 0
0 0
0 0
0 0
0 0
0 0
0 0
0 0
0 0
0 0
0 0
0 0
0 0
0 0
0 0
0 0
0 0
0 0
0 0
0 0
0 0
0 0
0 0
0 0
0 0
0 0
0 0
0 0
0 0
0 0
0 0
0 0
0 0
0 0
0 0
0 0
0 0
0 0
0 0
0 0
0 0
0 0
0 0
0 0
0 0
0 0
0 0
0 0
0 0
0 0
0 0
0 0
0 0
0 0
0 0
0 0
0 0
0 0
0 0
0 0
0 0
0 0
0 0
0 0
0 0
0 0
0 0
0 0
0 0
0 0
0 0
0 0
0 0
0 0
0 0
0 0
0 0
0 0
0 0
0 0
0 0
0 0
0 0
0 0
0 0
0 0
0 0
0 0
0 0
0 0
0 0
0 0
0 0
0 0
0 0
0 0
0 0
0 0
0 0
0 0
0 0
0 0
0 0
0 0
0 0
0 0
0 0
0 0
0 0
0 0
0 0
0 0
0 0
0 0
0 0
0 0
0 0
0 0
0 0
0 0
0 0
0 0
0 0
0 0
0 0
0 0
0 0
0 0
0 0
0 0
0 0
0 0
0 0
0 0
0 0
0 0
0 0
0 0
0 0
0 0
0 0
0 0
0 0
0 0
0 0
0 0
0 0
0 0
0 0
0 0
0 0
0 0
0 0
0 0
0 0
0 0
0 0
0 0
0 0
0 0
0 0
0 0
0 0
0 0
0 0
0 0
0 0
0 0
0 0
0 0
0 0
0 0
0 0
0 0
0 0
0 0
0 0
0 0
0 0
0 0
0 0
0 0
0 0
0 0
0 0
0 0
0 0
0 0
0 0
0 0
0 0
0 0
0 0
0 0
0 0
0 0
0 0
0 0
0 0
0 0
0 0
0 0
0 0
0 0
0 0
0 0
0 0
0 0
0 0
0 0
0 0
0 0
0 0
0 0
0 0
0 0
0 0
0 0
0 0
0 0
0 0
0 0
0 0
0 0
0 0
0 0
0 0
0 0
0 0
0 0
0 0
0 0
0 0
0 0
0 0
0 0
0 0
0 0
0 0
0 0
0 0
0 0
0 0
0 0
0 0
0 0
0 0
0 0
0 0
0 0
0 0
0 0
0 0
0 0
0 0
0 0
0 0
0 0
0 0
0 0
0 0
0 0
0 0
0 0
0 0
0 0
0 0
0 0
0 0
0 0
0 0
0 0
0 0
0 0
0 0
0 0
0 0
0 0
0 0
0 0
0 0
0 0
0 0
0 0
0 0
0 0
0 0
0 0
0 0
0 0
0 0
0 0
0 0
0 0
0 0
0 0
0 0
0 0
0 0
0 0
0 0
0 0
0 0
0 0
0 0
0 0
0 0
0 0
0 0
0 0
0 0
0 0
0 0
0 0
0 0
0 0
0 0
0 0
0 0
0 0
0 0
0 0
0 0
0 0
0 0
0 0
0 0
0 0
0 0
0 0
0 0
0 0
0 0
0 0
0 0
0 0
0 0
0 0
0 0
0 0
0 0
0 0
0 0
0 0
0 0
0 0
0 0
0 0
0 0
0 0
0 0
0 0
0 0
0 0
0 0
0 0
0 0
0 0
0 0
0 0
0 0
0 0
0 0
0 0
0 0
0 0
0 0
0 0
0 0
0 0
0 0
0 0
0 0
0 0
0 0
0 0
0 0
0 0
0 0
0 0
0 0
0 0
0 0
0 0
0 0
0 0
0 0
0 0
0 0
0 0
0 0
0 0
0 0
0 0
0 0
0 0
0 0
0 0
0 0
0 0
0 0
0 0
0 0
0 0
0 0
0 0
0 0
0 0
0 0
0 0
0 0
0 0
0 0
0 0
0 0
0 0
0 0
0 0
0 0
0 0
0 0
0 0
0 0
0 0
0 0
0 0
0 0
0 0
0 0
0 0
0 0
0 0
0 0
0 0
0 0
0 0
0 0
0 0
0 0
0 0
0 0
0 0
0 0
0 0
0 0
0 0
0 0
0 0
0 0
0 0
0 0
0 0
0 0
0 0
0 0
0 0
0 0
0 0
0 0
0 0
0 0
0 0
0 0
0 0
0 0
0 0
0 0
0 0
0 0
0 0
0 0
0 0
0 0
0 0
0 0
0 0
0 0
0 0
0 0
0 0
0 0
0 0
0 0
0 0
0 0
0 0
0 0
0 0
0 0
0 0
0 0
0 0
0 0
0 0
0 0
0 0
0 0
0 0
0 0
0 0
0 0
0 0
0 0
0 0
0 0
0 0
0 0
0 0
0 0
0 0
0 0
0 0
0 0
0 0
0 0
0 0
0 0
0 0
0 0
0 0
0 0
0 0
0 0
0 0
0 0
0 0
0 0
0 0
0 0
0 0
0 0
0 0
0 0
0 0
0 0
0 0
0 0
0 0
0 0
0 0
0 0
0 0
0 0
0 0
0 0
0 0
0 0
0 0
0 0
0 0
0 0
0 0
0 0
0 0
0 0
0 0
0 0
0 0
0 0
0 0
0 0
0 0
0 0
0 0
0 0
0 0
0 0
0 0
0 0
0 0
0 0
0 0
0 0
0 0
0 0
0 0
0 0
0 0
0 0
0 0
0 0
0 0
0 0
0 0
0 0
0 0
0 0
0 0
0 0
0 0
0 0
0 0
0 0
0 0
0 0
0 0
0 0
0 0
0 0
0 0
0 0
0 0
0 0
0 0
0 0
0 0
0 0
0 0
0 0
0 0
0 0
0 0
0 0
0 0
0 0
0 0
0 0
0 0
0 0
0 0
0 0
0 0
0 0
0 0
0 0
0 0
0 0
0 0
0 0
0 0
0 0
0 0
0 0
0 0
0 0
0 0
0 0
0 0
0 0
0 0
0 0
0 0
0 0
0 0
0 0
0 0
0 0
0 0
0 0
0 0
0 0
0 0
0 0
0 0
0 0
0 0
0 0
0 0
0 0
0 0
0 0
0 0
0 0
0 0
0 0
0 0
0 0
0 0
0 0
0 0
0 0
0 0
0 0
0 0
0 0
0 0
0 0
0 0
0 0
0 0
0 0
0 0
0 0
0 0
0 0
0 0
0 0
0 0
0 0
0 0
0 0
0 0
0 0
0 0
0 0
0 0
0 0
0 0
0 0
0 0
0 0
0 0
0 0
0 0
0 0
0 0
0 0
0 0
0 0
0 0
0 0
0 0
0 0
0 0
0 0
0 0
0 0
0 0
0 0
0 0
0 0
0 0
0 0
0 0
0 0
0 0
0 0
0 0
0 0
0 0
0 0
0 0
0 0
0 0
0 0
0 0
0 0
0 0
0 0
0 0
0 0
0 0
0 0
0 0
0 0
0 0
0 0
0 0
0 0
0 0
0 0
0 0
0 0
0 0
0 0
0 0
0 0
0 0
0 0
0 0
0 0
0 0
0 0
0 0
0 0
0 0
0 0
0 0
0 0
0 0
0 0
0 0
0 0
0 0
0 0
0 0
0 0
0 0
0 0
0 0
0 0
0 0
0 0
0 0
0 0
0 0
0 0
0 0
0 0
0 0
0 0
0 0
0 0
0 0
0 0
0 0
0 0
0 0
0 0
0 0
0 0
0 0
0 0
0 0
0 0
0 0
0 0
0 0
0 0
0 0
0 0
0 0
0 0
0 0
0 0
0 0
0 0
0 0
0 0
0 0
0 0
0 0
0 0
0 0
0 0
0 0
0 0
0 0
0 0
0 0
0 0
0 0
0 0
0 0
0 0
0 0
0 0
0 0
0 0
0 0
0 0
0 0
0 0
0 0
0 0
0 0
0 0
0 0
0 0
0 0
0 0
0 0
0 0
0 0
0 0
0 0
0 0
0 0
0 0
0 0
0 0
0 0
0 0
0 0
0 0
0 0
0 0
0 0
0 0
0 0
0 0
0 0
0 0
0 0
0 0
0 0
0 0
0 0
0 0
0 0
0 0
0 0
0 0
0 0
0 0
0 0
0 0
0 0
0 0
0 0
0 0
0 0
0 0
0 0
0 0
0 0
0 0
0 0
0 0
0 0
0 0
0 0
0 0
0 0
0 0
0 0
0 0
0 0
0 0
0 0
0 0
0 0
0 0
0 0
0 0
0 0
0 0
0 0
0 0
0 0
0 0
0 0
0 0
0 0
0 0
0 0
0 0
0 0
0 0
0 0
0 0
0 0
0 0
0 0
0 0
0 0
0 0
0 0
0 0
0 0
0 0
0 0
0 0
0 0
0 0
0 0
0 0
0 0
0 0
0 0
0 0
0 0
0 0
0 0
0 0
0 0
0 0
0 0
0 0
0 0
0 0
0 0
0 0
0 0
0 0
0 0
0 0
0 0
0 0
0 0
0 0
0 0
0 0
0 0
0 0
0 0
0 0
0 0
0 0
0 0
0 0
0 0
0 0
0 0
0 0
0 0
0 0
0 0
0 0
0 0
0 0
0 0
0 0
0 0
0 0
0 0
0 0
0 0
0 0
0 0
0 0
0 0
0 0
0 0
0 0
0 0
0 0
0 0
0 0
0 0
0 0
0 0
0 0
0 0
0 0
0 0
0 0
0 0
0 0
0 0
0 0
0 0
0 0
0 0
0 0
0 0
0 0
0 0
0 0
0 0
0 0
0 0
0 0
0 0
0 0
0 0
0 0
0 0
0 0
0 0
0 0
0 0
0 0
0 0
0 0
0 0
0 0
0 0
0 0
0 0
0 0
0 0
0 0
0 0
0 0
0 0
0 0
0 0
0 0
0 0
0 0
0 0
0 0
0 0
0 0
0 0
0 0
0 0
0 0
0 0
0 0
0 0
0 0
0 0
0 0
0 0
0 0
0 0
0 0
0 0
0 0
0 0
0 0
0 0
0 0
0 0
0 0
0 0
0 0
0 0
0 0
0 0
0 0
0 0
0 0
0 0
0 0
0 0
0 0
0 0
0 0
0 0
0 0
0 0
0 0
0 0
0 0
0 0
0 0
0 0
0 0
0 0
0 0
0 0
0 0
0 0
0 0
0 0
0 0
0 0
0 0
0 0
0 0
0 0
0 0
0 0
0 0
0 0
0 0
0 0
0 0
0 0
0 0
0 0
0 0
0 0
0 0
0 0
0 0
0 0
0 0
0 0
0 0
0 0
0 0
0 0
0 0
0 0
0 0
0 0
0 0
0 0
0 0
0 0
0 0
0 0
0 0
0 0
0 0
0 0
0 0
0 0
0 0
0 0
0 0
0 0
0 0
0 0
0 0
0 0
0 0
0 0
0 0
0 0
0 0
0 0
0 0
0 0
0 0
0 0
0 0
0 0
0 0
0 0
0 0
0 0
0 0
0 0
0 0
0 0
0 0
0 0
0 0
0 0
0 0
0 0
0 0
0 0
0 0
0 0
0 0
0 0
0 0
0 0
0 0
0 0
0 0
0 0
0 0
0 0
0 0
0 0
0 0
0 0
0 0
0 0
0 0
0 0
0 0
0 0
0 0
0 0
0 0
0 0
0 0
0 0
0 0
0 0
0 0
0 0
0 0
0 0
0 0
0 0
0 0
0 0
0 0
0 0
0 0
0 0
0 0
0 0
0 0
0 0
0 0
0 0
0 0
0 0
0 0
0 0
0 0
0 0
0 0
0 0
0 0
0 0
0 0
0 0
0 0
0 0
0 0
0 0
0 0
0 0
0 0
0 0
0 0
0 0
0 0
0 0
0 0
0 0
0 0
0 0
0 0
0 0
0 0
0 0
0 0
0 0
0 0
0 0
0 0
0 0
0 0
0 0
0 0
0 0
0 0
0 0
0 0
0 0
0 0
0 0
0 0
0 0
0 0
0 0
0 0
0 0
0 0
0 0
0 0
0 0
0 0
0 0
0 0
0 0
0 0
0 0
0 0
0 0
0 0
0 0
0 0
0 0
0 0
0 0
0 0
0 0
0 0
0 0
0 0
0 0
0 0
0 0
0 0
0 0
0 0
0 0
0 0
0 0
0 0
0 0
0 0
0 0
0 0
0 0
0 0
0 0
0 0
0 0
0 0
0 0
0 0
0 0
0 0
0 0
0 0
0 0
0 0
0 0
0 0
0 0
0 0
0 0
0 0
0 0
0 0
0 0
0 0
0 0
0 0
0 0
0 0
0 0
0 0
0 0
0 0
0 0
0 0
0 0
0 0
0 0
0 0
0 0
0 0
0 0
0 0
0 0
0 0
0 0
0 0
0 0
0 0
0 0
0 0
0 0
0 0
0 0
0 0
0 0
0 0
0 0
0 0
0 0
0 0
0 0
0 0
0 0
0 0
0 0
0 0
0 0
0 0
0 0
0 0
0 0
0 0
0 0
0 0
0 0
0 0
0 0
0 0
0 0
0 0
0 0
0 0
0 0
0 0
0 0
0 0
0 0
0 0
0 0
0 0
0 0
0 0
0 0
0 0
0 0
0 0
0 0
0 0
0 0
0 0
0 0
0 0
0 0
0 0
0 0
0 0
0 0
0 0
0 0
0 0
0 0
0 0
0 0
0 0
0 0
0 0
0 0
0 0
0 0
0 0
0 0
0 0
0 0
0 0
0 0
0 0
0 0
0 0
0 0
0 0
0 0
0 0
0 0
0 0
0 0
0 0
0 0
0 0
0 0
0 0
0 0
0 0
0 0
0 0
0 0
0 0
0 0
0 0
0 0
0 0
0 0
0 0
0 0
0 0
0 0
0 0
0 0
0 0
0 0
0 0
0 0
0 0
0 0
0 0
0 0
0 0
0 0
0 0
0 0
0 0
0 0
0 0
0 0
0 0
0 0
0 0
0 0
0 0
0 0
0 0
0 0
0 0
0 0
0 0
0 0
0 0
0 0
0 0
0 0
0 0
0 0
0 0
0 0
0 0
0 0
0 0
0 0
0 0
0 0
0 0
0 0
0 0
0 0
0 0
0 0
0 0
0 0
0 0
0 0
0 0
0 0
0 0
0 0
0 0
0 0
0 0
0 0
0 0
0 0
0 0
0 0
0 0
0 0
0 0
0 0
0 0
0 0
0 0
0 0
0 0
0 0
0 0
0 0
0 0
0 0
0 0
0 0
0 0
0 0
0 0
0 0
0 0
0 0
0 0
0 0
0 0
0 0
0 0
0 0
0 0
0 0
0 0
0 0
0 0
0 0
0 0
0 0
0 0
0 0
0 0
0 0
0 0
0 0
0 0
0 0
0 0
0 0
0 0
0 0
0 0
0 0
0 0
0 0
0 0
0 0
0 0
0 0
0 0
0 0
0 0
0 0
0 0
0 0
0 0
0 0
0 0
0 0
0 0
0 0
0 0
0 0
0 0
0 0
0 0
0 0
0 0
0 0
0 0
0 0
0 0
0 0
0 0
0 0
0 0
0 0
0 0
0 0
0 0
0 0
0 0
0 0
0 0
0 0
0 0
0 0
0 0
0 0
0 0
0 0
0 0
0 0
0 0
0 0
0 0
0 0
0 0
0 0
0 0
0 0
0 0
0 0
0 0
0 0
0 0
0 0
0 0
0 0
0 0
0 0
0 0
0 0
0 0
0 0
0 0
0 0
0 0
0 0
0 0
0 0
0 0
0 0
0 0
0 0
0 0
0 0
0 0
0 0
0 0
0 0
0 0
0 0
0 0
0 0
0 0
0 0
0 0
0 0
0 0
0 0
0 0
0 0
0 0
0 0
0 0
0 0
0 0
0 0
0 0
0 0
0 0
0 0
0 0
0 0
0 0
0 0
0 0
0 0
0 0
0 0
0 0
0 0
0 0
0 0
0 0
0 0
0 0
0 0
0 0
0 0
0 0
0 0
0 0
0 0
0 0
0 0
0 0
0 0
0 0
0 0
0 0
0 0
0 0
0 0
0 0
0 0
0 0
0 0
0 0
0 0
0 0
0 0
0 0
0 0
0 0
0 0
0 0
0 0
0 0
0 0
0 0
0 0
0 0
0 0
0 0
0 0
0 0
0 0
0 0
0 0
0 0
0 0
0 0
0 0
0 0
0 0
0 0
0 0
0 0
0 0
0 0
0 0
0 0
0 0
0 0
0 0
0 0
0 0
0 0
0 0
0 0
0 0
0 0
0 0
0 0
0 0
0 0
0 0
0 0
0 0
0 0
0 0
0 0
0 0
0 0
0 0
0 0
0 0
0 0
0 0
0 0
0 0
0 0
0 0
0 0
0 0
0 0
0 0
0 0
0 0
0 0
0 0
0 0
0 0
0 0
0 0
0 0
0 0
0 0
0 0
0 0
0 0
0 0
0 0
0 0
0 0
0 0
0 0
0 0
0 0
0 0
0 0
0 0
0 0
0 0
0 0
0 0
0 0
0 0
0 0
0 0
0 0
0 0
0 0
0 0
0 0
0 0
0 0
0 0
0 0
0 0
0 0
0 0
0 0
0 0
0 0
0 0
0 0
0 0
0 0
0 0
0 0
0 0
0 0
0 0
0 0
0 0
0 0
0 0
0 0
0 0
0 0
0 0
0 0
0 0
0 0
0 0
0 0
0 0
0 0
0 0
0 0
0 0
0 0
0 0
0 0
0 0
0 0
0 0
0 0
0 0
0 0
0 0
0 0
0 0
0 0
0 0
0 0
0 0
0 0
0 0
0 0
0 0
0 0
0 0
0 0
0 0
0 0
0 0
0 0
0 0
0 0
0 0
0 0
0 0
0 0
0 0
0 0
0 0
0 0
0 0
0 0
0 0
0 0
0 0
0 0
0 0
0 0
0 0
0 0
0 0
0 0
0 0
0 0
0 0
0 0
0 0
0 0
0 0
0 0
0 0
0 0
0 0
0 0
0 0
0 0
0 0
0 0
0 0
0 0
0 0
0 0
0 0
0 0
0 0
0 0
0 0
0 0
0 0
0 0
0 0
0 0
0 0
0 0
0 0
0 0
0 0
0 0
0 0
0 0
0 0
0 0
0 0
0 0
0 0
0 0
0 0
0 0
0 0
0 0
0 0
0 0
0 0
0 0
0 0
0 0
0 0
0 0
0 0
0 0
0 0
0 0
0 0
0 0
0 0
0 0
0 0
0 0
0 0
0 0
0 0
0 0
0 0
0 0
0 0
0 0
0 0
0 0
0 0
0 0
0 0
0 0
0 0
0 0
0 0
0 0
0 0
0 0
0 0
0 0
0 0
0 0
0 0
0 0
0 0
0 0
0 0
0 0
0 0
0 0
0 0
0 0
0 0
0 0
0 0
0 0
0 0
0 0
0 0
0 0
0 0
0 0
0 0
0 0
0 0
0 0
0 0
0 0
0 0
0 0
0 0
0 0
0 0
0 0
0 0
0 0
0 0
0 0
0 0
0 0
0 0
0 0
0 0
0 0
0 0
0 0
0 0
0 0
0 0
0 0
0 0
0 0
0 0
0 0
0 0
0 0
0 0
0 0
0 0
0 0
0 0
0 0
0 0
0 0
0 0
0 0
0 0
0 0
0 0
0 0
0 0
0 0
0 0
0 0
0 0
0 0
0 0
0 0
0 0
0 0
0 0
0 0
0 0
0 0
0 0
0 0
0 0
0 0
0 0
0 0
0 0
0 0
0 0
0 0
0 0
0 0
0 0
0 0
0 0
0 0
0 0
0 0
0 0
0 0
0 0
0 0
0 0
0 0
0 0
0 0
0 0
0 0
0 0
0 0
0 0
0 0
0 0
0 0
0 0
0 0
0 0
0 0
0 0
0 0
0 0
0 0
0 0
0 0
0 0
0 0
0 0
0 0
0 0
0 0
0 0
0 0
0 0
0 0
0 0
0 0
0 0
0 0
0 0
0 0
0 0
0 0
0 0
0 0
0 0
0 0
0 0
0 0
0 0
0 0
0 0
0 0
0 0
0 0
0 0
0 0
0 0
0 0
0 0
0 0
0 0
0 0
0 0
0 0
0 0
0 0
0 0
0 0
0 0
0 0
0 0
0 0
0 0
0 0
0 0
0 0
0 0
0 0
0 0
0 0
0 0
0 0
0 0
0 0
0 0
0 0
0 0
0 0
0 0
0 0
0 0
0 0
0 0
0 0
0 0
0 0
0 0
0 0
0 0
0 0
0 0
0 0
0 0
0 0
0 0
0 0
0 0
0 0
0 0
0 0
0 0
0 0
0 0
0 0
0 0
0 0
0 0
0 0
0 0
0 0
0 0
0 0
0 0
0 0
0 0
0 0
0 0
0 0
0 0
0 0
0 0
0 0
0 0
0 0
0 0
0 0
0 0
0 0
0 0
0 0
0 0
0 0
0 0
0 0
0 0
0 0
0 0
0 0
0 0
0 0
0 0
0 0
0 0
0 0
0 0
0 0
0 0
0 0
0 0
0 0
0 0
0 0
0 0
0 0
0 0
0 0
0 0
0 0
0 0
0 0
0 0
0 0
0 0
0 0
0 0
0 0
0 0
0 0
0 0
0 0
0 0
0 0
0 0
0 0
0 0
0 0
0 0
0 0
0 0
0 0
0 0
0 0
0 0
0 0
0 0
0 0
0 0
0 0
0 0
0 0
0 0
0 0
0 0
0 0
0 0
0 0
0 0
0 0
0 0
0 0
0 0
0 0
0 0
0 0
0 0
0 0
0 0
0 0
0 0
0 0
0 0
0 0
0 0
0 0
0 0
0 0
0 0
0 0
0 0
0 0
0 0
0 0
0 0
0 0
0 0
0 0
0 0
0 0
0 0
0 0
0 0
0 0
0 0
0 0
0 0
0 0
0 0
0 0
0 0
0 0
0 0
0 0
0 0
0 0
0 0
0 0
0 0
0 0
0 0
0 0
0 0
0 0
0 0
0 0
0 0
0 0
0 0
0 0
0 0
0 0
0 0
0 0
0 0
0 0
0 0
0 0
0 0
0 0
0 0
0 0
0 0
0 0
0 0
0 0
0 0
0 0
0 0
0 0
0 0
0 0
0 0
0 0
0 0
0 0
0 0
0 0
0 0
0 0
0 0
0 0
0 0
0 0
0 0
0 0
0 0
0 0
0 0
0 0
0 0
0 0
0 0
0 0
0 0
0 0
0 0
0 0
0 0
0 0
0 0
0 0
0 0
0 0
0 0
0 0
0 0
0 0
0 0
0 0
0 0
0 0
0 0
0 0
0 0
0 0
0 0
0 0
0 0
0 0
0 0
0 0
0 0
0 0
0 0
0 0
0 0
0 0
0 0
0 0
0 0
0 0
0 0
0 0
0 0
0 0
0 0
0 0
0 0
0 0
0 0
0 0
0 0
0 0
0 0
0 0
0 0
0 0
0 0
0 0
0 0
0 0
0 0
0 0
0 0
0 0
0 0
0 0
0 0
0 0
0 0
0 0
0 0
0 0
0 0
0 0
0 0
0 0
0 0
0 0
0 0
0 0
0 0
0 0
0 0
0 0
0 0
0 0
0 0
0 0
0 0
0 0
0 0
0 0
0 0
0 0
0 0
0 0
0 0
0 0
0 0
0 0
0 0
0 0
0 0
0 0
0 0
0 0
0 0
0 0
0 0
0 0
0 0
0 0
0 0
0 0
0 0
0 0
0 0
0 0
0 0
0 0
0 0
0 0
0 0
0 0
0 0
0 0
0 0
0 0
0 0
0 0
0 0
0 0
0 0
0 0
0 0
0 0
0 0
0 0
0 0
0 0
0 0
0 0
0 0
0 0
0 0
0 0
0 0
0 0
0 0
0 0
0 0
0 0
0 0
0 0
0 0
0 0
0 0
0 0
0 0
0 0
0 0
0 0
0 0
0 0
0 0
0 0
0 0
0 0
0 0
0 0
0 0
0 0
0 0
0 0
0 0
0 0
0 0
0 0
0 0
0 0
0 0
0 0
0 0
0 0
0 0
0 0
0 0
0 0
0 0
0 0
0 0
0 0
0 0
0 0
0 0
0 0
0 0
0 0
0 0
0 0
0 0
0 0
0 0
0 0
0 0
0 0
0 0
0 0
0 0
0 0
0 0
0 0
0 0
0 0
0 0
0 0
0 0
0 0
0 0
0 0
0 0
0 0
0 0
0 0
0 0
0 0
0 0
0 0
0 0
0 0
0 0
0 0
0 0
0 0
0 0
0 0
0 0
0 0
0 0
0 0
0 0
0 0
0 0
0 0
0 0
0 0
0 0
0 0
0 0
0 0
0 0
0 0
0 0
0 0
0 0
0 0
0 0
0 0
0 0
0 0
0 0
0 0
0 0
0 0
0 0
0 0
0 0
0 0
0 0
0 0
0 0
0 0
0 0
0 0
0 0
0 0
0 0
0 0
0 0
0 0
0 0
0 0
0 0
0 0
0 0
0 0
0 0
0 0
0 0
0 0
0 0
0 0
0 0
0 0
0 0
0 0
0 0
0 0
0 0
0 0
0 0
0 0
0 0
0 0
0 0
0 0
0 0
0 0
0 0
0 0
0 0
0 0
0 0
0 0
0 0
0 0
0 0
0 0
0 0
0 0
0 0
0 0
0 0
0 0
0 0
0 0
0 0
0 0
0 0
0 0
0 0
0 0
0 0
0 0
0 0
0 0
0 0
0 0
0 0
0 0
0 0
0 0
0 0
0 0
0 0
0 0
0 0
0 0
0 0
0 0
0 0
0 0
0 0
0 0
0 0
0 0
0 0
0 0
0 0
0 0
0 0
0 0
0 0
0 0
0 0
0 0
0 0
0 0
0 0
0 0
0 0
0 0
0 0
0 0
0 0
0 0
0 0
0 0
0 0
0 0
0 0
0 0
0 0
0 0
0 0
0 0
0 0
0 0
0 0
0 0
0 0
0 0
0 0
0 0
0 0
0 0
0 0
0 0
0 0
0 0
0 0
0 0
0 0
0 0
0 0
0 0
0 0
0 0
0 0
0 0
0 0
0 0
0 0
0 0
0 0
0 0
0 0
0 0
0 0
0 0
0 0
0 0
0 0
0 0
0 0
0 0
0 0
0 0
0 0
0 0
0 0
0 0
0 0
0 0
0 0
0 0
0 0
0 0
0 0
0 0
0 0
0 0
0 0
0 0
0 0
0 0
0 0
0 0
0 0
0 0
0 0
0 0
0 0
0 0
0 0
0 0
0 0
0 0
0 0
0 0
0 0
0 0
0 0
0 0
0 0
0 0
0 0
0 0
0 0
0 0
0 0
0 0
0 0
0 0
0 0
0 0
0 0
0 0
0 0
0 0
0 0
0 0
0 0
0 0
0 0
0 0
0 0
0 0
0 0
0 0
0 0
0 0
0 0
0 0
0 0
0 0
0 0
0 0
0 0
0 0
0 0
0 0
0 0
0 0
0 0
0 0
0 0
0 0
0 0
0 0
0 0
0 0
0 0
0 0
0 0
0 0
0 0
0 0
0 0
0 0
0 0
0 0
0 0
0 0
0 0
0 0
0 0
0 0
0 0
0 0
0 0
0 0
0 0
0 0
0 0
0 0
0 0
0 0
0 0
0 0
0 0
0 0
0 0
0 0
0 0
0 0
0 0
0 0
0 0
0 0
0 0
0 0
0 0
0 0
0 0
0 0
0 0
0 0
0 0
0 0
0 0
0 0
0 0
0 0
0 0
0 0
0 0
0 0
0 0
0 0
0 0
0 0
0 0
0 0
0 0
0 0
0 0
0 0
0 0
0 0
0 0
0 0
0 0
0 0
0 0
0 0
0 0
0 0
0 0
0 0
0 0
0 0
0 0
0 0
0 0
0 0
0 0
0 0
0 0
0 0
0 0
0 0
0 0
0 0
0 0
0 0
0 0
0 0
0 0
0 0
0 0
0 0
0 0
0 0
0 0
0 0
0 0
0 0
0 0
0 0
0 0
0 0
0 0
0 0
0 0
0 0
0 0
0 0
0 0
0 0
0 0
0 0
0 0
0 0
0 0
0 0
0 0
0 0
0 0
0 0
0 0
0 0
0 0
0 0
0 0
0 0
0 0
0 0
0 0
0 0
0 0
0 0
0 0
0 0
0 0
0 0
0 0
0 0
0 0
0 0
0 0
0 0
0 0
0 0
0 0
0 0
0 0
0 0
0 0
0 0
0 0
0 0
0 0
0 0
0 0
0 0
0 0
0 0
0 0
0 0
0 0
0 0
0 0
0 0
0 0
0 0
0 0
0 0
0 0
0 0
0 0
0 0
0 0
0 0
0 0
0 0
0 0
0 0
0 0
0 0
0 0
0 0
0 0
0 0
0 0
0 0
0 0
0 0
0 0
0 0
0 0
0 0
0 0
0 0
0 0
0 0
0 0
0 0
0 0
0 0
0 0
0 0
0 0
0 0
0 0
0 0
0 0
0 0
0 0
0 0
0 0
0 0
0 0
0 0
0 0
0 0
0 0
0 0
0 0
0 0
0 0
0 0
0 0
0 0
0 0
0 0
0 0
0 0
0 0
0 0
0 0
0 0
0 0
0 0
0 0
0 0
0 0
0 0
0 0
0 0
0 0
0 0
0 0
0 0
0 0
0 0
0 0
0 0
0 0
0 0
0 0
0 0
0 0
0 0
0 0
0 0
0 0
0 0
0 0
0 0
0 0
0 0
0 0
0 0
0 0
0 0
0 0
0 0
0 0
0 0
0 0
0 0
0 0
0 0
0 0
0 0
0 0
0 0
0 0
0 0
0 0
0 0
0 0
0 0
0 0
0 0
0 0
0 0
0 0
0 0
0 0
0 0
0 0
0 0
0 0
0 0
0 0
0 0
0 0
0 0
0 0
0 0
0 0
0 0
0 0
0 0
0 0
0 0
0 0
0 0
0 0
0 0
0 0
0 0
0 0
0 0
0 0
0 0
0 0
0 0
0 0
0 0
0 0
0 0
0 0
0 0
0 0
0 0
0 0
0 0
0 0
0 0
0 0
0 0
0 0
0 0
0 0
0 0
0 0
0 0
0 0
0 0
0 0
0 0
0 0
0 0
0 0
0 0
0 0
0 0
0 0
0 0
0 0
0 0
0 0
0 0
0 0
0 0
0 0
0 0
0 0
0 0
0 0
0 0
0 0
0 0
0 0
0 0
0 0
0 0
0 0
0 0
0 0
0 0
0 0
0 0
0 0
0 0
0 0
0 0
0 0
0 0
0 0
0 0
0 0
0 0
0 0
0 0
0 0
0 0
0 0
0 0
0 0
0 0
0 0
0 0
0 0
0 0
0 0
0 0
0 0
0 0
0 0
0 0
0 0
0 0
0 0
0 0
0 0
0 0
0 0
0 0
0 0
0 0
0 0
0 0
0 0
0 0
0 0
0 0
0 0
0 0
0 0
0 0
0 0
0 0
0 0
0 0
0 0
0 0
0 0
0 0
0 0
0 0
0 0
0 0
0 0
0 0
0 0
0 0
0 0
0 0
0 0
0 0
0 0
0 0
0 0
0 0
0 0
0 0
0 0
0 0
0 0
0 0
0 0
0 0
0 0
0 0
0 0
0 0
0 0
0 0
0 0
0 0
0 0
0 0
0 0
0 0
0 0
0 0
0 0
0 0
0 0
0 0
0 0
0 0
0 0
0 0
0 0
0 0
0 0
0 0
0 0
0 0
0 0
0 0
0 0
0 0
0 0
0 0
0 0
0 0
0 0
0 0
0 0
0 0
0 0
0 0
0 0
0 0
0 0
0 0
0 0
0 0
0 0
0 0
0 0
0 0
0 0
0 0
0 0
0 0
0 0
0 0
0 0
0 0
0 0
0 0
0 0
0 0
0 0
0 0
0 0
0 0
0 0
0 0
0 0
0 0
0 0
0 0
0 0
0 0
0 0
0 0
0 0
0 0
0 0
0 0
0 0
0 0
0 0
0 0
0 0
0 0
0 0
0 0
0 0
0 0
0 0
0 0
0 0
0 0
0 0
0 0
0 0
0 0
0 0
0 0
0 0
0 0
0 0
0 0
0 0
0 0
0 0
0 0
0 0
0 0
0 0
0 0
0 0
0 0
0 0
0 0
0 0
0 0
0 0
0 0
0 0
0 0
0 0
0 0
0 0
0 0
0 0
0 0
0 0
0 0
0 0
0 0
0 0
0 0
0 0
0 0
0 0
0 0
0 0
0 0
0 0
0 0
0 0
0 0
0 0
0 0
0 0
0 0
0 0
0 0
0 0
0 0
0 0
0 0
0 0
0 0
0 0
0 0
0 0
0 0
0 0
0 0
0 0
0 0
0 0
0 0
0 0
0 0
0 0
0 0
0 0
0 0
0 0
0 0
0 0
0 0
0 0
0 0
0 0
0 0
0 0
0 0
0 0
0 0
0 0
0 0
0 0
0 0
0 0
0 0
0 0
0 0
0 0
0 0
0 0
0 0
0 0
0 0
0 0
0 0
0 0
0 0
0 0
0 0
0 0
0 0
0 0
0 0
0 0
0 0
0 0
0 0
0 0
0 0
0 0
0 0
0 0
0 0
0 0
0 0
0 0
0 0
0 0
0 0
0 0
0 0
0 0
0 0
0 0
0 0
0 0
0 0
0 0
0 0
0 0
0 0
0 0
0 0
0 0
0 0
0 0
0 0
0 0
0 0
0 0
0 0
0 0
0 0
0 0
0 0
0 0
0 0
0 0
0 0
0 0
0 0
0 0
0 0
0 0
0 0
0 0
0 0
0 0
0 0
0 0
0 0
0 0
0 0
0 0
0 0
0 0
0 0
0 0
0 0
0 0
0 0
0 0
0 0
0 0
0 0
0 0
0 0
0 0
0 0
0 0
0 0
0 0
0 0
0 0
0 0
0 0
0 0
0 0
0 0
0 0
0 0
0 0
0 0
0 0
0 0
0 0
0 0
0 0
0 0
0 0
0 0
0 0
0 0
0 0
0 0
0 0
0 0
0 0
0 0
0 0
0 0
0 0
0 0
0 0
0 0
0 0
0 0
0 0
0 0
0 0
0 0
0 0
0 0
0 0
0 0
0 0
0 0
0 0
0 0
0 0
0 0
0 0
0 0
0 0
0 0
0 0
0 0
0 0
0 0
0 0
0 0
0 0
0 0
0 0
0 0
0 0
0 0
0 0
0 0
0 0
0 0
0 0
0 0
0 0
0 0
0 0
0 0
0 0
0 0
0 0
0 0
0 0
0 0
0 0
0 0
0 0
0 0
0 0
0 0
0 0
0 0
0 0
0 0
0 0
0 0
0 0
0 0
0 0
0 0
0 0
0 0
0 0
0 0
0 0
0 0
0 0
0 0
0 0
0 0
0 0
0 0
0 0
0 0
0 0
0 0
0 0
0 0
0 0
0 0
0 0
0 0
0 0
0 0
0 0
0 0
0 0
0 0
0 0
0 0
0 0
0 0
0 0
0 0
0 0
0 0
0 0
0 0
0 0
0 0
0 0
0 0
0 0
0 0
0 0
0 0
0 0
0 0
0 0
0 0
0 0
0 0
0 0
0 0
0 0
0 0
0 0
0 0
0 0
0 0
0 0
0 0
0 0
0 0
0 0
0 0
0 0
0 0
0 0
0 0
0 0
0 0
0 0
0 0
0 0
0 0
0 0
0 0
0 0
0 0
0 0
0 0
0 0
0 0
0 0
0 0
0 0
0 0
0 0
0 0
0 0
0 0
0 0
0 0
0 0
0 0
0 0
0 0
0 0
0 0
0 0
0 0
0 0
0 0
0 0
0 0
0 0
0 0
0 0
0 0
0 0
0 0
0 0
0 0
0 0
0 0
0 0
0 0
0 0
0 0
0 0
0 0
0 0
0 0
0 0
0 0
0 0
0 0
0 0
0 0
0 0
0 0
0 0
0 0
0 0
0 0
0 0
0 0
0 0
0 0
0 0
0 0
0 0
0 0
0 0
0 0
0 0
0 0
0 0
0 0
0 0
0 0
0 0
0 0
0 0
0 0
0 0
0 0
0 0
0 0
0 0
0 0
0 0
0 0
0 0
0 0
0 0
0 0
0 0
0 0
0 0
0 0
0 0
0 0
0 0
0 0
0 0
0 0
0 0
0 0
0 0
0 0
0 0
0 0
0 0
0 0
0 0
0 0
0 0
0 0
0 0
0 0
0 0
0 0
0 0
0 0
0 0
0 0
0 0
0 0
0 0
0 0
0 0
0 0
0 0
0 0
0 0
0 0
0 0
0 0
0 0
0 0
0 0
0 0
0 0
0 0
0 0
0 0
0 0
0 0
0 0
0 0
0 0
0 0
0 0
0 0
0 0
0 0
0 0
0 0
0 0
0 0
0 0
0 0
0 0
0 0
0 0
0 0
0 0
0 0
0 0
0 0
0 0
0 0
0 0
0 0
0 0
0 0
0 0
0 0
0 0
0 0
0 0
0 0
0 0
0 0
0 0
0 0
0 0
0 0
0 0
0 0
0 0
0 0
0 0
0 0
0 0
0 0
0 0
0 0
0 0
0 0
0 0
0 0
0 0
0 0
0 0
0 0
0 0
0 0
0 0
0 0
0 0
0 0
0 0
0 0
0 0
0 0
0 0
0 0
0 0
0 0
0 0
0 0
0 0
0 0
0 0
0 0
0 0
0 0
0 0
0 0
0 0
0 0
0 0
0 0
0 0
0 0
0 0
0 0
0 0
0 0
0 0
0 0
0 0
0 0
0 0
0 0
0 0
0 0
0 0
0 0
0 0
0 0
0 0
0 0
0 0
0 0
0 0
0 0
0 0
0 0
0 0
0 0
0 0
0 0
0 0
0 0
0 0
0 0
0 0
0 0
0 0
0 0
0 0
0 0
0 0
0 0
0 0
0 0
0 0
0 0
0 0
0 0
0 0
0 0
0 0
0 0
0 0
0 0
0 0
0 0
0 0
0 0
0 0
0 0
0 0
0 0
0 0
0 0
0 0
0 0
0 0
0 0
0 0
0 0
0 0
0 0
0 0
0 0
0 0
0 0
0 0
0 0
0 0
0 0
0 0
0 0
0 0
0 0
0 0
0 0
0 0
0 0
0 0
0 0
0 0
0 0
0 0
0 0
0 0
0 0
0 0
0 0
0 0
0 0
0 0
0 0
0 0
0 0
0 0
0 0
0 0
0 0
0 0
0 0
0 0
0 0
0 0
0 0
0 0
0 0
0 0
0 0
0 0
0 0
0 0
0 0
0 0
0 0
0 0
0 0
0 0
0 0
0 0
0 0
0 0
0 0
0 0
0 0
0 0
0 0
0 0
0 0
0 0
0 0
0 0
0 0
0 0
0 0
0 0
0 0
0 0
0 0
0 0
0 0
0 0
0 0
0 0
0 0
0 0
0 0
0 0
0 0
0 0
0 0
0 0
0 0
0 0
0 0
0 0
0 0
0 0
0 0
0 0
0 0
0 0
0 0
0 0
0 0
0 0
0 0
0 0
0 0
0 0
0 0
0 0
0 0
0 0
0 0
0 0
0 0
0 0
0 0
0 0
0 0
0 0
0 0
0 0
0 0
0 0
0 0
0 0
0 0
0 0
0 0
0 0
0 0
0 0
0 0
0 0
0 0
0 0
0 0
0 0
0 0
0 0
0 0
0 0
0 0
0 0
0 0
0 0
0 0
0 0
0 0
0 0
0 0
0 0
0 0
0 0
0 0
0 0
0 0
0 0
0 0
0 0
0 0
0 0
0 0
0 0
0 0
0 0
0 0
0 0
0 0
0 0
0 0
0 0
0 0
0 0
0 0
0 0
0 0
0 0
0 0
0 0
0 0
0 0
0 0
0 0
0 0
0 0
0 0
0 0
0 0
0 0
0 0
0 0
0 0
0 0
0 0
0 0
0 0
0 0
0 0
0 0
0 0
0 0
0 0
0 0
0 0
0 0
0 0
0 0
0 0
0 0
0 0
0 0
0 0
0 0
0 0
0 0
0 0
0 0
0 0
0 0
0 0
0 0
0 0
0 0
0 0
0 0
0 0
0 0
0 0
0 0
0 0
0 0
0 0
0 0
0 0
0 0
0 0
0 0
0 0
0 0
0 0
0 0
0 0
0 0
0 0
0 0
0 0
0 0
0 0
0 0
0 0
0 0
0 0
0 0
0 0
0 0
0 0
0 0
0 0
0 0
0 0
0 0
0 0
0 0
0 0
0 0
0 0
0 0
0 0
0 0
0 0
0 0
0 0
0 0
0 0
0 0
0 0
0 0
0 0
0 0
0 0
0 0
0 0
0 0
0 0
0 0
0 0
0 0
0 0
0 0
0 0
0 0
0 0
0 0
0 0
0 0
0 0
0 0
0 0
0 0
0 0
0 0
0 0
0 0
0 0
0 0
0 0
0 0
0 0
0 0
0 0
0 0
0 0
0 0
0 0
0 0
0 0
0 0
0 0
0 0
0 0
0 0
0 0
0 0
0 0
0 0
0 0
0 0
0 0
0 0
0 0
0 0
0 0
0 0
0 0
0 0
0 0
0 0
0 0
0 0
0 0
0 0
0 0
0 0
0 0
0 0
0 0
0 0
0 0
0 0
0 0
0 0
0 0
0 0
0 0
0 0
0 0
0 0
0 0
0 0
0 0
0 0
0 0
0 0
0 0
0 0
0 0
0 0
0 0
0 0
0 0
0 0
0 0
0 0
0 0
0 0
0 0
0 0
0 0
0 0
0 0
0 0
0 0
0 0
0 0
0 0
0 0
0 0
0 0
0 0
0 0
0 0
0 0
0 0
0 0
0 0
0 0
0 0
0 0
0 0
0 0
0 0
0 0
0 0
0 0
0 0
0 0
0 0
0 0
0 0
0 0
0 0
0 0
0 0
0 0
0 0
0 0
0 0
0 0
0 0
0 0
0 0
0 0
0 0
0 0
0 0
0 0
0 0
0 0
0 0
0 0
0 0
0 0
0 0
0 0
0 0
0 0
0 0
0 0
0 0
0 0
0 0
0 0
0 0
0 0
0 0
0 0
0 0
0 0
0 0
0 0
0 0
0 0
0 0
0 0
0 0
0 0
0 0
0 0
0 0
0 0
0 0
0 0
0 0
0 0
0 0
0 0
0 0
0 0
0 0
0 0
0 0
0 0
0 0
0 0
0 0
0 0
0 0
0 0
0 0
0 0
0 0
0 0
0 0
0 0
0 0
0 0
0 0
0 0
0 0
0 0
0 0
0 0
0 0
0 0
0 0
0 0
0 0
0 0
0 0
0 0
0 0
0 0
0 0
0 0
0 0
0 0
0 0
0 0
0 0
0 0
0 0
0 0
0 0
0 0
0 0
0 0
0 0
0 0
0 0
0 0
0 0
0 0
0 0
0 0
0 0
0 0
0 0
0 0
0 0
0 0
0 0
0 0
0 0
0 0
0 0
0 0
0 0
0 0
0 0
0 0
0 0
0 0
0 0
0 0
0 0
0 0
0 0
0 0
0 0
0 0
0 0
0 0
0 0
0 0
0 0
0 0
0 0
0 0
0 0
0 0
0 0
0 0
0 0
0 0
0 0
0 0
0 0
0 0
0 0
0 0
0 0
0 0
0 0
0 0
0 0
0 0
0 0
0 0
0 0
0 0
0 0
0 0
0 0
0 0
0 0
0 0
0 0
0 0
0 0
0 0
0 0
0 0
0 0
0 0
0 0
0 0
0 0
0 0
0 0
0 0
0 0
0 0
0 0
0 0
0 0
0 0
0 0
0 0
0 0
0 0
0 0
0 0
0 0
0 0
0 0
0 0
0 0
0 0
0 0
0 0
0 0
0 0
0 0
0 0
0 0
0 0
0 0
0 0
0 0
0 0
0 0
0 0
0 0
0 0
0 0
0 0
0 0
0 0
0 0
0 0
0 0
0 0
0 0
0 0
0 0
0 0
0 0
0 0
0 0
0 0
0 0
0 0
0 0
0 0
0 0
0 0
0 0
0 0
0 0
0 0
0 0
0 0
0 0
0 0
0 0
0 0
0 0
0 0
0 0
0 0
0 0
0 0
0 0
0 0
0 0
0 0
0 0
0 0
0 0
0 0
0 0
0 0
0 0
0 0
0 0
0 0
0 0
0 0
0 0
0 0
0 0
0 0
0 0
0 0
0 0
0 0
0 0
0 0
0 0
0 0
0 0
0 0
0 0
0 0
0 0
0 0
0 0
0 0
0 0
0 0
0 0
0 0
0 0
0 0
0 0
0 0
0 0
0 0
0 0
0 0
0 0
0 0
0 0
0 0
0 0
0 0
0 0
0 0
0 0
0 0
0 0
0 0
0 0
0 0
0 0
0 0
0 0
0 0
0 0
0 0
0 0
0 0
0 0
0 0
0 0
0 0
0 0
0 0
0 0
0 0
0 0
0 0
0 0
0 0
0 0
0 0
0 0
0 0
0 0
0 0
0 0
0 0
0 0
0 0
0 0
0 0
0 0
0 0
0 0
0 0
0 0
0 0
0 0
0 0
0 0
0 0
0 0
0 0
0 0
0 0
0 0
0 0
0 0
0 0
0 0
0 0
0 0
0 0
0 0
0 0
0 0
0 0
0 0
0 0
0 0
0 0
0 0
0 0
0 0
0 0
0 0
0 0
0 0
0 0
0 0
0 0
0 0
0 0
0 0
0 0
0 0
0 0
0 0
0 0
0 0
0 0
0 0
0 0
0 0
0 0
0 0
0 0
0 0
0 0
0 0
0 0
0 0
0 0
0 0
0 0
0 0
0 0
0 0
0 0
0 0
0 0
0 0
0 0
0 0
0 0
0 0
0 0
0 0
0 0
0 0
0 0
0 0
0 0
0 0
0 0
0 0
0 0
0 0
0 0
0 0
0 0
0 0
0 0
0 0
0 0
0 0
0 0
0 0
0 0
0 0
0 0
0 0
0 0
0 0
0 0
0 0
0 0
0 0
0 0
0 0
0 0
0 0
0 0
0 0
0 0
0 0
0 0
0 0
0 0
0 0
0 0
0 0
0 0
0 0
0 0
0 0
0 0
0 0
0 0
0 0
0 0
0 0
0 0
0 0
0 0
0 0
0 0
0 0
0 0
0 0
0 0
0 0
0 0
0 0
0 0
0 0
0 0
0 0
0 0
0 0
0 0
0 0
0 0
0 0
0 0
0 0
0 0
0 0
0 0
0 0
0 0
0 0
0 0
0 0
0 0
0 0
0 0
0 0
0 0
0 0
0 0
0 0
0 0
0 0
0 0
0 0
0 0
0 0
0 0
0 0
0 0
0 0
0 0
0 0
0 0
0 0
0 0
0 0
0 0
0 0
0 0
0 0
0 0
0 0
0 0
0 0
0 0
0 0
0 0
0 0
0 0
0 0
0 0
0 0
0 0
0 0
0 0
0 0
0 0
0 0
0 0
0 0
0 0
0 0
0 0
0 0
0 0
0 0
0 0
0 0
0 0
0 0
0 0
0 0
0 0
0 0
0 0
0 0
0 0
0 0
0 0
0 0
0 0
0 0
0 0
0 0
0 0
0 0
0 0
0 0
0 0
0 0
0 0
0 0
0 0
0 0
0 0
0 0
0 0
0 0
0 0
0 0
0 0
0 0
0 0
0 0
0 0
0 0
0 0
0 0
0 0
0 0
0 0
0 0
0 0
0 0
0 0
0 0
0 0
0 0
0 0
0 0
0 0
0 0
0 0
0 0
0 0
0 0
0 0
0 0
0 0
0 0
0 0
0 0
0 0
0 0
0 0
0 0
0 0
0 0
0 0
0 0
0 0
0 0
0 0
0 0
0 0
0 0
0 0
0 0
0 0
0 0
0 0
0 0
0 0
0 0
0 0
0 0
0 0
0 0
0 0
0 0
0 0
0 0
0 0
0 0
0 0
0 0
0 0
0 0
0 0
0 0
0 0
0 0
0 0
0 0
0 0
0 0
0 0
0 0
0 0
0 0
0 0
0 0
0 0
0 0
0 0
0 0
0 0
0 0
0 0
0 0
0 0
0 0
0 0
0 0
0 0
0 0
0 0
0 0
0 0
0 0
0 0
0 0
0 0
0 0
0 0
0 0
0 0
0 0
0 0
0 0
0 0
0 0
0 0
0 0
0 0
0 0
0 0
0 0
0 0
0 0
0 0
0 0
0 0
0 0
0 0
0 0
0 0
0 0
0 0
0 0
0 0
0 0
0 0
0 0
0 0
0 0
0 0
0 0
0 0
0 0
0 0
0 0
0 0
0 0
0 0
0 0
0 0
0 0
0 0
0 0
0 0
0 0
0 0
0 0
0 0
0 0
0 0
0 0
0 0
0 0
0 0
0 0
0 0
0 0
0 0
0 0
0 0
0 0
0 0
0 0
0 0
0 0
0 0
0 0
0 0
0 0
0 0
0 0
0 0
0 0
0 0
0 0
0 0
0 0
0 0
0 0
0 0
0 0
0 0
0 0
0 0
0 0
0 0
0 0
0 0
0 0
0 0
0 0
0 0
0 0
0 0
0 0
0 0
0 0
0 0
0 0
0 0
0 0
0 0
0 0
0 0
0 0
0 0
0 0
0 0
0 0
0 0
0 0
0 0
0 0
0 0
0 0
0 0
0 0
0 0
0 0
0 0
0 0
0 0
0 0
0 0
0 0
0 0
0 0
0 0
0 0
0 0
0 0
0 0
0 0
0 0
0 0
0 0
0 0
0 0
0 0
0 0
0 0
0 0
0 0
0 0
0 0
0 0
0 0
0 0
0 0
0 0
0 0
0 0
0 0
0 0
0 0
0 0
0 0
0 0
0 0
0 0
0 0
0 0
0 0
0 0
0 0
0 0
0 0
0 0
0 0
0 0
0 0
0 0
0 0
0 0
0 0
0 0
0 0
0 0
0 0
0 0
0 0
0 0
0 0
0 0
0 0
0 0
0 0
0 0
0 0
0 0
0 0
0 0
0 0
0 0
0 0
0 0
0 0
0 0
0 0
0 0
0 0
0 0
0 0
0 0
0 0
0 0
0 0
0 0
0 0
0 0
0 0
0 0
0 0
0 0
0 0
0 0
0 0
0 0
0 0
0 0
0 0
0 0
0 0
0 0
0 0
0 0
0 0
0 0
0 0
0 0
0 0
0 0
0 0
0 0
0 0
0 0
0 0
0 0
0 0
0 0
0 0
0 0
0 0
0 0
0 0
0 0
0 0
0 0
0 0
0 0
0 0
0 0
0 0
0 0
0 0
0 0
0 0
0 0
0 0
0 0
0 0
0 0
0 0
0 0
0 0
0 0
0 0
0 0
0 0
0 0
0 0
0 0
0 0
0 0
0 0
0 0
0 0
0 0
0 0
0 0
0 0
0 0
0 0
0 0
0 0
0 0
0 0
0 0
0 0
0 0
0 0
0 0
0 0
0 0
0 0
0 0
0 0
0 0
0 0
0 0
0 0
0 0
0 0
0 0
0 0
0 0
0 0
0 0
0 0
0 0
0 0
0 0
0 0
0 0
0 0
0 0
0 0
0 0
0 0
0 0
0 0
0 0
0 0
0 0
0 0
0 0
0 0
0 0
0 0
0 0
0 0
0 0
0 0
0 0
0 0
0 0
0 0
0 0
0 0
0 0
0 0
0 0
0 0
0 0
0 0
0 0
0 0
0 0
0 0
0 0
0 0
0 0
0 0
0 0
0 0
0 0
0 0
0 0
0 0
0 0
0 0
0 0
0 0
0 0
0 0
0 0
0 0
0 0
0 0
0 0
0 0
0 0
0 0
0 0
0 0
0 0
0 0
0 0
0 0
0 0
0 0
0 0
0 0
0 0
0 0
0 0
0 0
0 0
0 0
0 0
0 0
0 0
0 0
0 0
0 0
0 0
0 0
0 0
0 0
0 0
0 0
0 0
0 0
0 0
0 0
0 0
0 0
0 0
0 0
0 0
0 0
0 0
0 0
0 0
0 0
0 0
0 0
0 0
0 0
0 0
0 0
0 0
0 0
0 0
0 0
0 0
0 0
0 0
0 0
0 0
0 0
0 0
0 0
0 0
0 0
0 0
0 0
0 0
0 0
0 0
0 0
0 0
0 0
0 0
0 0
0 0
0 0
0 0
0 0
0 0
0 0
0 0
0 0
0 0
0 0
0 0
0 0
0 0
0 0
0 0
0 0
0 0
0 0
0 0
0 0
0 0
0 0
0 0
0 0
0 0
0 0
0 0
0 0
0 0
0 0
0 0
0 0
0 0
0 0
0 0
0 0
0 0
0 0
0 0
0 0
0 0
0 0
0 0
0 0
0 0
0 0
0 0
0 0
0 0
0 0
0 0
0 0
0 0
0 0
0 0
0 0
0 0
0 0
0 0
0 0
0 0
0 0
0 0
0 0
0 0
0 0
0 0
0 0
0 0
0 0
0 0
0 0
0 0
0 0
0 0
0 0
0 0
0 0
0 0
0 0
0 0
0 0
0 0
0 0
0 0
0 0
0 0
0 0
0 0
0 0
0 0
0 0
0 0
0 0
0 0
0 0
0 0
0 0
0 0
0 0
0 0
0 0
0 0
0 0
0 0
0 0
0 0
0 0
0 0
0 0
0 0
0 0
0 0
0 0
0 0
0 0
0 0
0 0
0 0
0 0
0 0
0 0
0 0
0 0
0 0
0 0
0 0
0 0
0 0
0 0
0 0
0 0
0 0
0 0
0 0
0 0
0 0
0 0
0 0
0 0
0 0
0 0
0 0
0 0
0 0
0 0
0 0
0 0
0 0
0 0
0 0
0 0
0 0
0 0
0 0
0 0
0 0
0 0
0 0
0 0
0 0
0 0
0 0
0 0
0 0
0 0
0 0
0 0
0 0
0 0
0 0
0 0
0 0
0 0
0 0
0 0
0 0
0 0
0 0
0 0
0 0
0 0
0 0
0 0
0 0
0 0
0 0
0 0
0 0
0 0
0 0
0 0
0 0
0 0
0 0
0 0
0 0
0 0
0 0
0 0
0 0
0 0
0 0
0 0
0 0
0 0
0 0
0 0
0 0
0 0
0 0
0 0
0 0
0 0
0 0
0 0
0 0
0 0
0 0
0 0
0 0
0 0
0 0
0 0
0 0
0 0
0 0
0 0
0 0
0 0
0 0
0 0
0 0
0 0
0 0
0 0
0 0
0 0
0 0
0 0
0 0
0 0
0 0
0 0
0 0
0 0
0 0
0 0
0 0
0 0
0 0
0 0
0 0
0 0
0 0
0 0
0 0
0 0
0 0
0 0
0 0
0 0
0 0
0 0
0 0
0 0
0 0
0 0
0 0
0 0
0 0
0 0
0 0
0 0
0 0
0 0
0 0
0 0
0 0
0 0
0 0
0 0
0 0
0 0
0 0
0 0
0 0
0 0
0 0
0 0
0 0
0 0
0 0
0 0
0 0
0 0
0 0
0 0
0 0
0 0
0 0
0 0
0 0
0 0
0 0
0 0
0 0
0 0
0 0
0 0
0 0
0 0
0 0
0 0
0 0
0 0
0 0
0 0
0 0
0 0
0 0
0 0
0 0
0 0
0 0
0 0
0 0
0 0
0 0
0 0
0 0
0 0
0 0
0 0
0 0
0 0
0 0
0 0
0 0
0 0
0 0
0 0
0 0
0 0
0 0
0 0
0 0
0 0
0 0
0 0
0 0
0 0
0 0
0 0
0 0
0 0
0 0
0 0
0 0
0 0
0 0
0 0
0 0
0 0
0 0
0 0
0 0
0 0
0 0
0 0
0 0
0 0
0 0
0 0
0 0
0 0
0 0
0 0
0 0
0 0
0 0
0 0
0 0
0 0
0 0
0 0
0 0
0 0
0 0
0 0
0 0
0 0
0 0
0 0
0 0
0 0
0 0
0 0
0 0
0 0
0 0
0 0
0 0
0 0
0 0
0 0
0 0
0 0
0 0
0 0
0 0
0 0
0 0
0 0
0 0
0 0
0 0
0 0
0 0
0 0
0 0
0 0
0 0
0 0
0 0
0 0
0 0
0 0
0 0
0 0
0 0
0 0
0 0
0 0
0 0
0 0
0 0
0 0
0 0
0 0
0 0
0 0
0 0
0 0
0 0
0 0
0 0
0 0
0 0
0 0
0 0
0 0
0 0
0 0
0 0
0 0
0 0
0 0
0 0
0 0
0 0
0 0
0 0
0 0
0 0
0 0
0 0
0 0
0 0
0 0
0 0
0 0
0 0
0 0
0 0
0 0
0 0
0 0
0 0
0 0
0 0
0 0
0 0
0 0
0 0
0 0
0 0
0 0
0 0
0 0
0 0
0 0
0 0
0 0
0 0
0 0
0 0
0 0
0 0
0 0
0 0
0 0
0 0
0 0
0 0
0 0
0 0
0 0
0 0
0 0
0 0
0 0
0 0
0 0
0 0
0 0
0 0
0 0
0 0
0 0
0 0
0 0
0 0
0 0
0 0
0 0
0 0
0 0
0 0
0 0
0 0
0 0
0 0
0 0
0 0
0 0
0 0
0 0
0 0
0 0
0 0
0 0
0 0
0 0
0 0
0 0
0 0
0 0
0 0
0 0
0 0
0 0
0 0
0 0
0 0
0 0
0 0
0 0
0 0
0 0
0 0
0 0
0 0
0 0
0 0
0 0
0 0
0 0
0 0
0 0
0 0
0 0
0 0
0 0
0 0
0 0
0 0
0 0
0 0
0 0
0 0
0 0
0 0
0 0
0 0
0 0
0 0
0 0
0 0
0 0
0 0
0 0
0 0
0 0
0 0
0 0
0 0
0 0
0 0
0 0
0 0
0 0
0 0
0 0
0 0
0 0
0 0
0 0
0 0
0 0
0 0
0 0
0 0
0 0
0 0
0 0
0 0
0 0
0 0
0 0
0 0
0 0
0 0
0 0
0 0
0 0
0 0
0 0
0 0
0 0
0 0
0 0
0 0
0 0
0 0
0 0
0 0
0 0
0 0
0 0
0 0
0 0
0 0
0 0
0 0
0 0
0 0
0 0
0 0
0 0
0 0
0 0
0 0
0 0
0 0
0 0
0 0
0 0
0 0
0 0
0 0
0 0
0 0
0 0
0 0
0 0
0 0
0 0
0 0
0 0
0 0
0 0
0 0
0 0
0 0
0 0
0 0
0 0
0 0
0 0
0 0
0 0
0 0
0 0
0 0
0 0
0 0
0 0
0 0
0 0
0 0
0 0
0 0
0 0
0 0
0 0
0 0
0 0
0 0
0 0
0 0
0 0
0 0
0 0
0 0
0 0
0 0
0 0
0 0
0 0
0 0
0 0
0 0
0 0
0 0
0 0
0 0
0 0
0 0
0 0
0 0
0 0
0 0
0 0
0 0
0 0
0 0
0 0
0 0
0 0
0 0
0 0
0 0
0 0
0 0
0 0
0 0
0 0
0 0
0 0
0 0
0 0
0 0
0 0
0 0
0 0
0 0
0 0
0 0
0 0
0 0
0 0
0 0
0 0
0 0
0 0
0 0
0 0
0 0
0 0
0 0
0 0
0 0
0 0
0 0
0 0
0 0
0 0
0 0
0 0
0 0
0 0
0 0
0 0
0 0
0 0
0 0
0 0
0 0
0 0
0 0
0 0
0 0
0 0
0 0
0 0
0 0
0 0
0 0
0 0
0 0
0 0
0 0
0 0
0 0
0 0
0 0
0 0
0 0
0 0
0 0
0 0
0 0
0 0
0 0
0 0
0 0
0 0
0 0
0 0
0 0
0 0
0 0
0 0
0 0
0 0
0 0
0 0
0 0
0 0
0 0
0 0
0 0
0 0
0 0
0 0
0 0
0 0
0 0
0 0
0 0
0 0
0 0
0 0
0 0
0 0
0 0
0 0
0 0
0 0
0 0
0 0
0 0
0 0
0 0
0 0
0 0
0 0
0 0
0 0
0 0
0 0
0 0
0 0
0 0
0 0
0 0
0 0
0 0
0 0
0 0
0 0
0 0
0 0
0 0
0 0
0 0
0 0
0 0
0 0
0 0
0 0
0 0
0 0
0 0
0 0
0 0
0 0
0 0
0 0
0 0
0 0
0 0
0 0
0 0
0 0
0 0
0 0
0 0
0 0
0 0
0 0
0 0
0 0
0 0
0 0
0 0
0 0
0 0
0 0
0 0
0 0
0 0
0 0
0 0
0 0
0 0
0 0
0 0
0 0
0 0
0 0
0 0
0 0
0 0
0 0
0 0
0 0
0 0
0 0
0 0
0 0
0 0
0 0
0 0
0 0
0 0
0 0
0 0
0 0
0 0
0 0
0 0
0 0
0 0
0 0
0 0
0 0
0 0
0 0
0 0
0 0
0 0
0 0
0 0
0 0
0 0
0 0
0 0
0 0
0 0
0 0
0 0
0 0
0 0
0 0
0 0
0 0
0 0
0 0
0 0
0 0
0 0
0 0
0 0
0 0
0 0
0 0
0 0
0 0
0 0
0 0
0 0
0 0
0 0
0 0
0 0
0 0
0 0
0 0
0 0
0 0
0 0
0 0
0 0
0 0
0 0
0 0
0 0
0 0
0 0
0 0
0 0
0 0
0 0
0 0
0 0
0 0
0 0
0 0
0 0
0 0
0 0
0 0
0 0
0 0
0 0
0 0
0 0
0 0
0 0
0 0
0 0
0 0
0 0
0 0
0 0
0 0
0 0
0 0
0 0
0 0
0 0
0 0
0 0
0 0
0 0
0 0
0 0
0 0
0 0
0 0
0 0
0 0
0 0
0 0
0 0
0 0
0 0
0 0
0 0
0 0
0 0
0 0
0 0
0 0
0 0
0 0
0 0
0 0
0 0
0 0
0 0
0 0
0 0
0 0
0 0
0 0
0 0
0 0
0 0
0 0
0 0
0 0
0 0
0 0
0 0
0 0
0 0
0 0
0 0
0 0
0 0
0 0
0 0
0 0
0 0
0 0
0 0
0 0
0 0
0 0
0 0
0 0
0 0
0 0
0 0
0 0
0 0
0 0
0 0
0 0
0 0
0 0
0 0
0 0
0 0
0 0
0 0
0 0
0 0
0 0
0 0
0 0
0 0
0 0
0 0
0 0
0 0
0 0
0 0
0 0
0 0
0 0
0 0
0 0
0 0
0 0
0 0
0 0
0 0
0 0
0 0
0 0
0 0
0 0
0 0
0 0
0 0
0 0
0 0
0 0
0 0
0 0
0 0
0 0
0 0
0 0
0 0
0 0
0 0
0 0
0 0
0 0
0 0
0 0
0 0
0 0
0 0
0 0
0 0
0 0
0 0
0 0
0 0
0 0
0 0
0 0
0 0
0 0
0 0
0 0
0 0
0 0
0 0
0 0
0 0
0 0
0 0
0 0
0 0
0 0
0 0
0 0
0 0
0 0
0 0
0 0
0 0
0 0
0 0
0 0
0 0
0 0
0 0
0 0
0 0
0 0
0 0
0 0
0 0
0 0
0 0
0 0
0 0
0 0
0 0
0 0
0 0
0 0
0 0
0 0
0 0
0 0
0 0
0 0
0 0
0 0
0 0
0 0
0 0
0 0
0 0
0 0
0 0
0 0
0 0
0 0
0 0
0 0
0 0
0 0
0 0
0 0
0 0
0 0
0 0
0 0
0 0
0 0
0 0
0 0
0 0
0 0
0 0
0 0
0 0
0 0
0 0
0 0
0 0
0 0
0 0
0 0
0 0
0 0
0 0
0 0
0 0
0 0
0 0
0 0
0 0
0 0
0 0
0 0
0 0
0 0
0 0
0 0
0 0
0 0
0 0
0 0
0 0
0 0
0 0
0 0
0 0
0 0
0 0
0 0
0 0
0 0
0 0
0 0
0 0
0 0
0 0
0 0
0 0
0 0
0 0
0 0
0 0
0 0
0 0
0 0
0 0
0 0
0 0
0 0
0 0
0 0
0 0
0 0
0 0
0 0
0 0
0 0
0 0
0 0
0 0
0 0
0 0
0 0
0 0
0 0
0 0
0 0
0 0
0 0
0 0
0 0
0 0
0 0
0 0
0 0
0 0
0 0
0 0
0 0
0 0
0 0
0 0
0 0
0 0
0 0
0 0
0 0
0 0
0 0
0 0
0 0
0 0
0 0
0 0
0 0
0 0
0 0
0 0
0 0
0 0
0 0
0 0
0 0
0 0
0 0
0 0
0 0
0 0
0 0
0 0
0 0
0 0
0 0
0 0
0 0
0 0
0 0
0 0
0 0
0 0
0 0
0 0
0 0
0 0
0 0
0 0
0 0
0 0
0 0
0 0
0 0
0 0
0 0
0 0
0 0
0 0
0 0
0 0
0 0
0 0
0 0
0 0
0 0
0 0
0 0
0 0
0 0
0 0
0 0
0 0
0 0
0 0
0 0
0 0
0 0
0 0
0 0
0 0
0 0
0 0
0 0
0 0
0 0
0 0
0 0
0 0
0 0
0 0
0 0
0 0
0 0
0 0
0 0
0 0
0 0
0 0
0 0
0 0
0 0
0 0
0 0
0 0
0 0
0 0
0 0
0 0
0 0
0 0
0 0
0 0
0 0
0 0
0 0
0 0
0 0
0 0
0 0
0 0
0 0
0 0
0 0
0 0
0 0
0 0
0 0
0 0
0 0
0 0
0 0
0 0
0 0
0 0
0 0
0 0
0 0
0 0
0 0
0 0
0 0
0 0
0 0
0 0
0 0
0 0
0 0
0 0
0 0
0 0
0 0
0 0
0 0
0 0
0 0
0 0
0 0
0 0
0 0
0 0
0 0
0 0
0 0
0 0
0 0
0 0
0 0
0 0
0 0
0 0
0 0
0 0
0 0
0 0
0 0
0 0
0 0
0 0
0 0
0 0
0 0
0 0
0 0
0 0
0 0
0 0
0 0
0 0
0 0
0 0
0 0
0 0
0 0
0 0
0 0
0 0
0 0
0 0
0 0
0 0
0 0
0 0
0 0
0 0
0 0
0 0
0 0
0 0
0 0
0 0
0 0
0 0
0 0
0 0
0 0
0 0
0 0
0 0
0 0
0 0
0 0
0 0
0 0
0 0
0 0
0 0
0 0
0 0
0 0
0 0
0 0
0 0
0 0
0 0
0 0
0 0
0 0
0 0
0 0
0 0
0 0
0 0
0 0
0 0
0 0
0 0
0 0
0 0
0 0
0 0
0 0
0 0
0 0
0 0
0 0
0 0
0 0
0 0
0 0
0 0
0 0
0 0
0 0
0 0
0 0
0 0
0 0
0 0
0 0
0 0
0 0
0 0
0 0
0 0
0 0
0 0
0 0
0 0
0 0
0 0
0 0
0 0
0 0
0 0
0 0
0 0
0 0
0 0
0 0
0 0
0 0
0 0
0 0
0 0
0 0
0 0
0 0
0 0
0 0
0 0
0 0
0 0
0 0
0 0
0 0
0 0
0 0
0 0
0 0
0 0
0 0
0 0
0 0
0 0
0 0
0 0
0 0
0 0
0 0
0 0
0 0
0 0
0 0
0 0
0 0
0 0
0 0
0 0
0 0
0 0
0 0
0 0
0 0
0 0
0 0
0 0
0 0
0 0
0 0
0 0
0 0
0 0
0 0
0 0
0 0
0 0
0 0
0 0
0 0
0 0
0 0
0 0
0 0
0 0
0 0
0 0
0 0
0 0
0 0
0 0
0 0
0 0
0 0
0 0
0 0
0 0
0 0
0 0
0 0
0 0
0 0
0 0
0 0
0 0
0 0
0 0
0 0
0 0
0 0
0 0
0 0
0 0
0 0
0 0
0 0
0 0
0 0
0 0
0 0
0 0
0 0
0 0
0 0
0 0
0 0
0 0
0 0
0 0
0 0
0 0
0 0
0 0
0 0
0 0
0 0
0 0
0 0
0 0
0 0
0 0
0 0
0 0
0 0
0 0
0 0
0 0
0 0
0 0
0 0
0 0
0 0
0 0
0 0
0 0
0 0
0 0
0 0
0 0
0 0
0 0
0 0
0 0
0 0
0 0
0 0
0 0
0 0
0 0
0 0
0 0
0 0
0 0
0 0
0 0
0 0
0 0
0 0
0 0
0 0
0 0
0 0
0 0
0 0
0 0
0 0
0 0
0 0
0 0
0 0
0 0
0 0
0 0
0 0
0 0
0 0
0 0
0 0
0 0
0 0
0 0
0 0
0 0
0 0
0 0
0 0
0 0
0 0
0 0
0 0
0 0
0 0
0 0
0 0
0 0
0 0
0 0
0 0
0 0
0 0
0 0
0 0
0 0
0 0
0 0
0 0
0 0
0 0
0 0
0 0
0 0
0 0
0 0
0 0
0 0
0 0
0 0
0 0
0 0
0 0
0 0
0 0
0 0
0 0
0 0
0 0
0 0
0 0
0 0
0 0
0 0
0 0
0 0
0 0
0 0
0 0
0 0
0 0
0 0
0 0
0 0
0 0
0 0
0 0
0 0
0 0
0 0
0 0
0 0
0 0
0 0
0 0
0 0
0 0
0 0
0 0
0 0
0 0
0 0
0 0
0 0
0 0
0 0
0 0
0 0
0 0
0 0
0 0
0 0
0 0
0 0
0 0
0 0
0 0
0 0
0 0
0 0
0 0
0 0
0 0
0 0
0 0
0 0
0 0
0 0
0 0
0 0
0 0
0 0
0 0
0 0
0 0
0 0
0 0
0 0
0 0
0 0
0 0
0 0
0 0
0 0
0 0
0 0
0 0
0 0
0 0
0 0
0 0
0 0
0 0
0 0
0 0
0 0
0 0
0 0
0 0
0 0
0 0
0 0
0 0
0 0
0 0
0 0
0 0
0 0
0 0
0 0
0 0
0 0
0 0
0 0
0 0
0 0
0 0
0 0
0 0
0 0
0 0
0 0
0 0
0 0
0 0
0 0
0 0
0 0
0 0
0 0
0 0
0 0
0 0
0 0
0 0
0 0
0 0
0 0
0 0
0 0
0 0
0 0
0 0
0 0
0 0
0 0
0 0
0 0
0 0
0 0
0 0
0 0
0 0
0 0
0 0
0 0
0 0
0 0
0 0
0 0
0 0
0 0
0 0
0 0
0 0
0 0
0 0
0 0
0 0
0 0
0 0
0 0
0 0
0 0
0 0
0 0
0 0
0 0
0 0
0 0
0 0
0 0
0 0
0 0
0 0
0 0
0 0
0 0
0 0
0 0
0 0
0 0
0 0
0 0
0 0
0 0
0 0
0 0
0 0
0 0
0 0
0 0
0 0
0 0
0 0
0 0
0 0
0 0
0 0
0 0
0 0
0 0
0 0
0 0
0 0
0 0
0 0
0 0
0 0
0 0
0 0
0 0
0 0
0 0
0 0
0 0
0 0
0 0
0 0
0 0
0 0
0 0
0 0
0 0
0 0
0 0
0 0
0 0
0 0
0 0
0 0
0 0
0 0
0 0
0 0
0 0
0 0
0 0
0 0
0 0
0 0
0 0
0 0
0 0
0 0
0 0
0 0
0 0
0 0
0 0
0 0
0 0
0 0
0 0
0 0
0 0
0 0
0 0
0 0
0 0
0 0
0 0
0 0
0 0
0 0
0 0
0 0
0 0
0 0
0 0
0 0
0 0
0 0
0 0
0 0
0 0
0 0
0 0
0 0
0 0
0 0
0 0
0 0
0 0
0 0
0 0
0 0
0 0
0 0
0 0
0 0
0 0
0 0
0 0
0 0
0 0
0 0
0 0
0 0
0 0
0 0
0 0
0 0
0 0
0 0
0 0
0 0
0 0
0 0
0 0
0 0
0 0
0 0
0 0
0 0
0 0
0 0
0 0
0 0
0 0
0 0
0 0
0 0
0 0
0 0
0 0
0 0
0 0
0 0
0 0
0 0
0 0
0 0
0 0
0 0
0 0
0 0
0 0
0 0
0 0
0 0
0 0
0 0
0 0
0 0
0 0
0 0
0 0
0 0
0 0
0 0
0 0
0 0
0 0
0 0
0 0
0 0
0 0
0 0
0 0
0 0
0 0
0 0
0 0
0 0
0 0
0 0
0 0
0 0
0 0
0 0
0 0
0 0
0 0
0 0
0 0
0 0
0 0
0 0
0 0
0 0
0 0
0 0
0 0
0 0
0 0
0 0
0 0
0 0
0 0
0 0
0 0
0 0
0 0
0 0
0 0
0 0
0 0
0 0
0 0
0 0
0 0
0 0
0 0
0 0
0 0
0 0
0 0
0 0
0 0
0 0
0 0
0 0
0 0
0 0
0 0
0 0
0 0
0 0
0 0
0 0
0 0
0 0
0 0
0 0
0 0
0 0
0 0
0 0
0 0
0 0
0 0
0 0
0 0
0 0
0 0
0 0
0 0
0 0
0 0
0 0
0 0
0 0
0 0
0 0
0 0
0 0
0 0
0 0
0 0
0 0
0 0
0 0
0 0
0 0
0 0
0 0
0 0
0 0
0 0
0 0
0 0
0 0
0 0
0 0
0 0
0 0
0 0
0 0
0 0
0 0
0 0
0 0
0 0
0 0
0 0
0 0
0 0
0 0
0 0
0 0
0 0
0 0
0 0
0 0
0 0
0 0
0 0
0 0
0 0
0 0
0 0
0 0
0 0
0 0
0 0
0 0
0 0
0 0
0 0
0 0
0 0
0 0
0 0
0 0
0 0
0 0
0 0
0 0
0 0
0 0
0 0
0 0
0 0
0 0
0 0
0 0
0 0
0 0
0 0
0 0
0 0
0 0
0 0
0 0
0 0
0 0
0 0
0 0
0 0
0 0
0 0
0 0
0 0
0 0
0 0
0 0
0 0
0 0
0 0
0 0
0 0
0 0
0 0
0 0
0 0
0 0
0 0
0 0
0 0
0 0
0 0
0 0
0 0
0 0
0 0
0 0
0 0
0 0
0 0
0 0
0 0
0 0
0 0
0 0
0 0
0 0
0 0
0 0
0 0
0 0
0 0
0 0
0 0
0 0
0 0
0 0
0 0
0 0
0 0
0 0
0 0
0 0
0 0
0 0
0 0
0 0
0 0
0 0
0 0
0 0
0 0
0 0
0 0
0 0
0 0
0 0
0 0
0 0
0 0
0 0
0 0
0 0
0 0
0 0
0 0
0 0
0 0
0 0
0 0
0 0
0 0
0 0
0 0
0 0
0 0
0 0
0 0
0 0
0 0
0 0
0 0
0 0
0 0
0 0
0 0
0 0
0 0
0 0
0 0
0 0
0 0
0 0
0 0
0 0
0 0
0 0
0 0
0 0
0 0
0 0
0 0
0 0
0 0
0 0
0 0
0 0
0 0
0 0
0 0
0 0
0 0
0 0
0 0
0 0
0 0
0 0
0 0
0 0
0 0
0 0
0 0
0 0
0 0
0 0
0 0
0 0
0 0
0 0
0 0
0 0
0 0
0 0
0 0
0 0
0 0
0 0
0 0
0 0
0 0
0 0
0 0
0 0
0 0
0 0
0 0
0 0
0 0
0 0
0 0
0 0
0 0
0 0
0 0
0 0
0 0
0 0
0 0
0 0
0 0
0 0
0 0
0 0
0 0
0 0
0 0
0 0
0 0
0 0
0 0
0 0
0 0
0 0
0 0
0 0
0 0
0 0
0 0
0 0
0 0
0 0
0 0
0 0
0 0
0 0
0 0
0 0
0 0
0 0
0 0
0 0
0 0
0 0
0 0
0 0
0 0
0 0
0 0
0 0
0 0
0 0
0 0
0 0
0 0
0 0
0 0
0 0
0 0
0 0
0 0
0 0
0 0
0 0
0 0
0 0
0 0
0 0
0 0
0 0
0 0
0 0
0 0
0 0
0 0
0 0
0 0
0 0
0 0
0 0
0 0
0 0
0 0
0 0
0 0
0 0
0 0
0 0
0 0
0 0
0 0
0 0
0 0
0 0
0 0
0 0
0 0
0 0
0 0
0 0
0 0
0 0
0 0
0 0
0 0
0 0
0 0
0 0
0 0
0 0
0 0
0 0
0 0
0 0
0 0
0 0
0 0
0 0
0 0
0 0
0 0
0 0
0 0
0 0
0 0
0 0
0 0
0 0
0 0
0 0
0 0
0 0
0 0
0 0
0 0
0 0
0 0
0 0
0 0
0 0
0 0
0 0
0 0
0 0
0 0
0 0
0 0
0 0
0 0
0 0
0 0
0 0
0 0
0 0
0 0
0 0
0 0
0 0
0 0
0 0
0 0
0 0
0 0
0 0
0 0
0 0
0 0
0 0
0 0
0 0
0 0
0 0
0 0
0 0
0 0
0 0
0 0
0 0
0 0
0 0
0 0
0 0
0 0
0 0
0 0
0 0
0 0
0 0
0 0
0 0
0 0
0 0
0 0
0 0
0 0
0 0
0 0
0 0
0 0
0 0
0 0
0 0
0 0
0 0
0 0
0 0
0 0
0 0
0 0
0 0
0 0
0 0
0 0
0 0
0 0
0 0
0 0
0 0
0 0
0 0
0 0
0 0
0 0
0 0
0 0
0 0
0 0
0 0
0 0
0 0
0 0
0 0
0 0
0 0
0 0
0 0
0 0
0 0
0 0
0 0
0 0
0 0
0 0
0 0
0 0
0 0
0 0
0 0
0 0
0 0
0 0
0 0
0 0
0 0
0 0
0 0
0 0
0 0
0 0
0 0
0 0
0 0
0 0
0 0
0 0
0 0
0 0
0 0
0 0
0 0
0 0
0 0
0 0
0 0
0 0
0 0
0 0
0 0
0 0
0 0
0 0
0 0
0 0
0 0
0 0
0 0
0 0
0 0
0 0
0 0
0 0
0 0
0 0
0 0
0 0
0 0
0 0
0 0
0 0
0 0
0 0
0 0
0 0
0 0
0 0
0 0
0 0
0 0
0 0
0 0
0 0
0 0
0 0
0 0
0 0
0 0
0 0
0 0
0 0
0 0
0 0
0 0
0 0
0 0
0 0
0 0
0 0
0 0
0 0
0 0
0 0
0 0
0 0
0 0
0 0
0 0
0 0
0 0
0 0
0 0
0 0
0 0
0 0
0 0
0 0
0 0
0 0
0 0
0 0
0 0
0 0
0 0
0 0
0 0
0 0
0 0
0 0
0 0
0 0
0 0
0 0
0 0
0 0
0 0
0 0
0 0
0 0
0 0
0 0
0 0
0 0
0 0
0 0
0 0
0 0
0 0
0 0
0 0
0 0
0 0
0 0
0 0
0 0
0 0
0 0
0 0
0 0
0 0
0 0
0 0
0 0
0 0
0 0
0 0
0 0
0 0
0 0
0 0
0 0
0 0
0 0
0 0
0 0
0 0
0 0
0 0
0 0
0 0
0 0
0 0
0 0
0 0
0 0
0 0
0 0
0 0
0 0
0 0
0 0
0 0
0 0
0 0
0 0
0 0
0 0
0 0
0 0
0 0
0 0
0 0
0 0
0 0
0 0
0 0
0 0
0 0
0 0
0 0
0 0
0 0
0 0
0 0
0 0
0 0
0 0
0 0
0 0
0 0
0 0
0 0
0 0
0 0
0 0
0 0
0 0
0 0
0 0
0 0
0 0
0 0
0 0
0 0
0 0
0 0
0 0
0 0
0 0
0 0
0 0
0 0
0 0
0 0
0 0
0 0
0 0
0 0
0 0
0 0
0 0
0 0
0 0
0 0
0 0
0 0
0 0
0 0
0 0
0 0
0 0
0 0
0 0
0 0
0 0
0 0
0 0
0 0
0 0
0 0
0 0
0 0
0 0
0 0
0 0
0 0
0 0
0 0
0 0
0 0
0 0
0 0
0 0
0 0
0 0
0 0
0 0
0 0
0 0
0 0
0 0
0 0
0 0
0 0
0 0
0 0
0 0
0 0
0 0
0 0
0 0
0 0
0 0
0 0
0 0
0 0
0 0
0 0
0 0
0 0
0 0
0 0
0 0
0 0
0 0
0 0
0 0
0 0
0 0
0 0
0 0
0 0
0 0
0 0
0 0
0 0
0 0
0 0
0 0
0 0
0 0
0 0
0 0
0 0
0 0
0 0
0 0
0 0
0 0
0 0
0 0
0 0
0 0
0 0
0 0
0 0
0 0
0 0
0 0
0 0
0 0
0 0
0 0
0 0
0 0
0 0
0 0
0 0
0 0
0 0
0 0
0 0
0 0
0 0
0 0
0 0
0 0
0 0
0 0
0 0
0 0
0 0
0 0
0 0
0 0
0 0
0 0
0 0
0 0
0 0
0 0
0 0
0 0
0 0
0 0
0 0
0 0
0 0
0 0
0 0
0 0
0 0
0 0
0 0
0 0
0 0
0 0
0 0
0 0
0 0
0 0
0 0
0 0
0 0
0 0
0 0
0 0
0 0
0 0
0 0
0 0
0 0
0 0
0 0
0 0
0 0
0 0
0 0
0 0
0 0
0 0
0 0
0 0
0 0
0 0
0 0
0 0
0 0
0 0
0 0
0 0
0 0
0 0
0 0
0 0
0 0
0 0
0 0
0 0
0 0
0 0
0 0
0 0
0 0
0 0
0 0
0 0
0 0
0 0
0 0
0 0
0 0
0 0
0 0
0 0
0 0
0 0
0 0
0 0
0 0
0 0
0 0
0 0
0 0
0 0
0 0
0 0
0 0
0 0
0 0
0 0
0 0
0 0
0 0
0 0
0 0
0 0
0 0
0 0
0 0
0 0
0 0
0 0
0 0
0 0
0 0
0 0
0 0
0 0
0 0
0 0
0 0
0 0
0 0
0 0
0 0
0 0
0 0
0 0
0 0
0 0
0 0
0 0
0 0
0 0
0 0
0 0
0 0
0 0
0 0
0 0
0 0
0 0
0 0
0 0
0 0
0 0
0 0
0 0
0 0
0 0
0 0
0 0
0 0
0 0
0 0
0 0
0 0
0 0
0 0
0 0
0 0
0 0
0 0
0 0
0 0
0 0
0 0
0 0
0 0
0 0
0 0
0 0
0 0
0 0
0 0
0 0
0 0
0 0
0 0
0 0
0 0
0 0
0 0
0 0
0 0
0 0
0 0
0 0
0 0
0 0
0 0
0 0
0 0
0 0
0 0
0 0
0 0
0 0
0 0
0 0
0 0
0 0
0 0
0 0
0 0
0 0
0 0
0 0
0 0
0 0
0 0
0 0
0 0
0 0
0 0
0 0
0 0
0 0
0 0
0 0
0 0
0 0
0 0
0 0
0 0
0 0
0 0
0 0
0 0
0 0
0 0
0 0
0 0
0 0
0 0
0 0
0 0
0 0
0 0
0 0
0 0
0 0
0 0
0 0
0 0
0 0
0 0
0 0
0 0
0 0
0 0
0 0
0 0
0 0
0 0
0 0
0 0
0 0
0 0
0 0
0 0
0 0
0 0
0 0
0 0
0 0
0 0
0 0
0 0
0 0
0 0
0 0
0 0
0 0
0 0
0 0
0 0
0 0
0 0
0 0
0 0
0 0
0 0
0 0
0 0
0 0
0 0
0 0
0 0
0 0
0 0
0 0
0 0
0 0
0 0
0 0
0 0
0 0
0 0
0 0
0 0
0 0
0 0
0 0
0 0
0 0
0 0
0 0
0 0
0 0
0 0
0 0
0 0
0 0
0 0
0 0
0 0
0 0
0 0
0 0
0 0
0 0
0 0
0 0
0 0
0 0
0 0
0 0
0 0
0 0
0 0
0 0
0 0
0 0
0 0
0 0
0 0
0 0
0 0
0 0
0 0
0 0
0 0
0 0
0 0
0 0
0 0
0 0
0 0
0 0
0 0
0 0
0 0
0 0
0 0
0 0
0 0
0 0
0 0
0 0
0 0
0 0
0 0
0 0
0 0
0 0
0 0
0 0
0 0
0 0
0 0
0 0
0 0
0 0
0 0
0 0
0 0
0 0
0 0
0 0
0 0
0 0
0 0
0 0
0 0
0 0
0 0
0 0
0 0
0 0
0 0
0 0
0 0
0 0
0 0
0 0
0 0
0 0
0 0
0 0
0 0
0 0
0 0
0 0
0 0
0 0
0 0
0 0
0 0
0 0
0 0
0 0
0 0
0 0
0 0
0 0
0 0
0 0
0 0
0 0
0 0
0 0
0 0
0 0
0 0
0 0
0 0
0 0
0 0
0 0
0 0
0 0
0 0
0 0
0 0
0 0
0 0
0 0
0 0
0 0
0 0
0 0
0 0
0 0
0 0
0 0
0 0
0 0
0 0
0 0
0 0
0 0
0 0
0 0
0 0
0 0
0 0
0 0
0 0
0 0
0 0
0 0
0 0
0 0
0 0
0 0
0 0
0 0
0 0
0 0
0 0
0 0
0 0
0 0
0 0
0 0
0 0
0 0
0 0
0 0
0 0
0 0
0 0
0 0
0 0
0 0
0 0
0 0
0 0
0 0
0 0
0 0
0 0
0 0
0 0
0 0
0 0
0 0
0 0
0 0
0 0
0 0
0 0
0 0
0 0
0 0
0 0
0 0
0 0
0 0
0 0
0 0
0 0
0 0
0 0
0 0
0 0
0 0
0 0
0 0
0 0
0 0
0 0
0 0
0 0
0 0
0 0
0 0
0 0
0 0
0 0
0 0
0 0
0 0
0 0
0 0
0 0
0 0
0 0
0 0
0 0
0 0
0 0
0 0
0 0
0 0
0 0
0 0
0 0
0 0
0 0
0 0
0 0
0 0
0 0
0 0
0 0
0 0
0 0
0 0
0 0
0 0
0 0
0 0
0 0
0 0
0 0
0 0
0 0
0 0
0 0
0 0
0 0
0 0
0 0
0 0
0 0
0 0
0 0
0 0
0 0
0 0
0 0
0 0
0 0
0 0
0 0
0 0
0 0
0 0
0 0
0 0
0 0
0 0
0 0
0 0
0 0
0 0
0 0
0 0
0 0
0 0
0 0
0 0
0 0
0 0
0 0
0 0
0 0
0 0
0 0
0 0
0 0
0 0
0 0
0 0
0 0
0 0
0 0
0 0
0 0
0 0
0 0
0 0
0 0
0 0
0 0
0 0
0 0
0 0
0 0
0 0
0 0
0 0
0 0
0 0
0 0
0 0
0 0
0 0
0 0
0 0
0 0
0 0
0 0
0 0
0 0
0 0
0 0
0 0
0 0
0 0
0 0
0 0
0 0
0 0
0 0
0 0
0 0
0 0
0 0
0 0
0 0
0 0
0 0
0 0
0 0
0 0
0 0
0 0
0 0
0 0
0 0
0 0
0 0
0 0
0 0
0 0
0 0
0 0
0 0
0 0
0 0
0 0
0 0
0 0
0 0
0 0
0 0
0 0
0 0
0 0
0 0
0 0
0 0
0 0
0 0
0 0
0 0
0 0
0 0
0 0
0 0
0 0
0 0
0 0
0 0
0 0
0 0
0 0
0 0
0 0
0 0
0 0
0 0
0 0
0 0
0 0
0 0
0 0
0 0
0 0
0 0
0 0
0 0
0 0
0 0
0 0
0 0
0 0
0 0
0 0
0 0
0 0
0 0
0 0
0 0
0 0
0 0
0 0
0 0
0 0
0 0
0 0
0 0
0 0
0 0
0 0
0 0
0 0
0 0
0 0
0 0
0 0
0 0
0 0
0 0
0 0
0 0
0 0
0 0
0 0
0 0
0 0
0 0
0 0
0 0
0 0
0 0
0 0
0 0
0 0
0 0
0 0
0 0
0 0
0 0
0 0
0 0
0 0
0 0
0 0
0 0
0 0
0 0
0 0
0 0
0 0
0 0
0 0
0 0
0 0
0 0
0 0
0 0
0 0
0 0
0 0
0 0
0 0
0 0
0 0
0 0
0 0
0 0
0 0
0 0
0 0
0 0
0 0
0 0
0 0
0 0
0 0
0 0
0 0
0 0
0 0
0 0
0 0
0 0
0 0
0 0
0 0
0 0
0 0
0 0
0 0
0 0
0 0
0 0
0 0
0 0
0 0
0 0
0 0
0 0
0 0
0 0
0 0
0 0
0 0
0 0
0 0
0 0
0 0
0 0
0 0
0 0
0 0
0 0
0 0
0 0
0 0
0 0
0 0
0 0
0 0
0 0
0 0
0 0
0 0
0 0
0 0
0 0
0 0
0 0
0 0
0 0
0 0
0 0
0 0
0 0
0 0
0 0
0 0
0 0
0 0
0 0
0 0
0 0
0 0
0 0
0 0
0 0
0 0
0 0
0 0
0 0
0 0
0 0
0 0
0 0
0 0
0 0
0 0
0 0
0 0
0 0
0 0
0 0
0 0
0 0
0 0
0 0
0 0
0 0
0 0
0 0
0 0
0 0
0 0
0 0
0 0
0 0
0 0
0 0
0 0
0 0
0 0
0 0
0 0
0 0
0 0
0 0
0 0
0 0
0 0
0 0
0 0
0 0
0 0
0 0
0 0
0 0
0 0
0 0
0 0
0 0
0 0
0 0
0 0
0 0
0 0
0 0
0 0
0 0
0 0
0 0
0 0
0 0
0 0
0 0
0 0
0 0
0 0
0 0
0 0
0 0
0 0
0 0
0 0
0 0
0 0
0 0
0 0
0 0
0 0
0 0
0 0
0 0
0 0
0 0
0 0
0 0
0 0
0 0
0 0
0 0
0 0
0 0
0 0
0 0
0 0
0 0
0 0
0 0
0 0
0 0
0 0
0 0
0 0
0 0
0 0
0 0
0 0
0 0
0 0
0 0
0 0
0 0
0 0
0 0
0 0
0 0
0 0
0 0
0 0
0 0
0 0
0 0
0 0
0 0
0 0
0 0
0 0
0 0
0 0
0 0
0 0
0 0
0 0
0 0
0 0
0 0
0 0
0 0
0 0
0 0
0 0
0 0
0 0
0 0
0 0
0 0
0 0
0 0
0 0
0 0
0 0
0 0
0 0
0 0
0 0
0 0
0 0
0 0
0 0
0 0
0 0
0 0
0 0
0 0
0 0
0 0
0 0
0 0
0 0
0 0
0 0
0 0
0 0
0 0
0 0
0 0
0 0
0 0
0 0
0 0
0 0
0 0
0 0
0 0
0 0
0 0
0 0
0 0
0 0
0 0
0 0
0 0
0 0
0 0
0 0
0 0
0 0
0 0
0 0
0 0
0 0
0 0
0 0
0 0
0 0
0 0
0 0
0 0
0 0
0 0
0 0
0 0
0 0
0 0
0 0
0 0
0 0
0 0
0 0
0 0
0 0
0 0
0 0
0 0
0 0
0 0
0 0
0 0
0 0
0 0
0 0
0 0
0 0
0 0
0 0
0 0
0 0
0 0
0 0
0 0
0 0
0 0
0 0
0 0
0 0
0 0
0 0
0 0
0 0
0 0
0 0
0 0
0 0
0 0
0 0
0 0
0 0
0 0
0 0
0 0
0 0
0 0
0 0
0 0
0 0
0 0
0 0
0 0
0 0
0 0
0 0
0 0
0 0
0 0
0 0
0 0
0 0
0 0
0 0
0 0
0 0
0 0
0 0
0 0
0 0
0 0
0 0
0 0
0 0
0 0
0 0
0 0
0 0
0 0
0 0
0 0
0 0
0 0
0 0
0 0
0 0
0 0
0 0
0 0
0 0
0 0
0 0
0 0
0 0
0 0
0 0
0 0
0 0
0 0
0 0
0 0
0 0
0 0
0 0
0 0
0 0
0 0
0 0
0 0
0 0
0 0
0 0
0 0
0 0
0 0
0 0
0 0
0 0
0 0
0 0
0 0
0 0
0 0
0 0
0 0
0 0
0 0
0 0
0 0
0 0
0 0
0 0
0 0
0 0
0 0
0 0
0 0
0 0
0 0
0 0
0 0
0 0
0 0
0 0
0 0
0 0
0 0
0 0
0 0
0 0
0 0
0 0
0 0
0 0
0 0
0 0
0 0
0 0
0 0
0 0
0 0
0 0
0 0
0 0
0 0
0 0
0 0
0 0
0 0
0 0
0 0
0 0
0 0
0 0
0 0
0 0
0 0
0 0
0 0
0 0
0 0
0 0
0 0
0 0
0 0
0 0
0 0
0 0
0 0
0 0
0 0
0 0
0 0
0 0
0 0
0 0
0 0
0 0
0 0
0 0
0 0
0 0
0 0
0 0
0 0
0 0
0 0
0 0
0 0
0 0
0 0
0 0
0 0
0 0
0 0
0 0
0 0
0 0
0 0
0 0
0 0
0 0
0 0
0 0
0 0
0 0
0 0
0 0
0 0
0 0
0 0
0 0
0 0
0 0
0 0
0 0
0 0
0 0
0 0
0 0
0 0
0 0
0 0
0 0
0 0
0 0
0 0
0 0
0 0
0 0
0 0
0 0
0 0
0 0
0 0
0 0
0 0
0 0
0 0
0 0
0 0
0 0
0 0
0 0
0 0
0 0
0 0
0 0
0 0
0 0
0 0
0 0
0 0
0 0
0 0
0 0
0 0
0 0
0 0
0 0
0 0
0 0
0 0
0 0
0 0
0 0
0 0
0 0
0 0
0 0
0 0
0 0
0 0
0 0
0 0
0 0
0 0
0 0
0 0
0 0
0 0
0 0
0 0
0 0
0 0
0 0
0 0
0 0
0 0
0 0
0 0
0 0
0 0
0 0
0 0
0 0
0 0
0 0
0 0
0 0
0 0
0 0
0 0
0 0
0 0
0 0
0 0
0 0
0 0
0 0
0 0
0 0
0 0
0 0
0 0
0 0
0 0
0 0
0 0
0 0
0 0
0 0
0 0
0 0
0 0
0 0
0 0
0 0
0 0
0 0
0 0
0 0
0 0
0 0
0 0
0 0
0 0
0 0
0 0
0 0
0 0
0 0
0 0
0 0
0 0
0 0
0 0
0 0
0 0
0 0
0 0
0 0
0 0
0 0
0 0
0 0
0 0
0 0
0 0
0 0
0 0
0 0
0 0
0 0
0 0
0 0
0 0
0 0
0 0
0 0
0 0
0 0
0 0
0 0
0 0
0 0
0 0
0 0
0 0
0 0
0 0
0 0
0 0
0 0
0 0
0 0
0 0
0 0
0 0
0 0
0 0
0 0
0 0
0 0
0 0
0 0
0 0
0 0
0 0
0 0
0 0
0 0
0 0
0 0
0 0
0 0
0 0
0 0
0 0
0 0
0 0
0 0
0 0
0 0
0 0
0 0
0 0
0 0
0 0
0 0
0 0
0 0
0 0
0 0
0 0
0 0
0 0
0 0
0 0
0 0
0 0
0 0
0 0
0 0
0 0
0 0
0 0
0 0
0 0
0 0
0 0
0 0
0 0
0 0
0 0
0 0
0 0
0 0
0 0
0 0
0 0
0 0
0 0
0 0
0 0
0 0
0 0
0 0
0 0
0 0
0 0
0 0
0 0
0 0
0 0
0 0
0 0
0 0
0 0
0 0
0 0
0 0
0 0
0 0
0 0
0 0
0 0
0 0
0 0
0 0
0 0
0 0
0 0
0 0
0 0
0 0
0 0
0 0
0 0
0 0
0 0
0 0
0 0
0 0
0 0
0 0
0 0
0 0
0 0
0 0
0 0
0 0
0 0
0 0
0 0
0 0
0 0
0 0
0 0
0 0
0 0
0 0
0 0
0 0
0 0
0 0
0 0
0 0
0 0
0 0
0 0
0 0
0 0
0 0
0 0
0 0
0 0
0 0
0 0
0 0
0 0
0 0
0 0
0 0
0 0
0 0
0 0
0 0
0 0
0 0
0 0
0 0
0 0
0 0
0 0
0 0
0 0
0 0
0 0
0 0
0 0
0 0
0 0
0 0
0 0
0 0
0 0
0 0
0 0
0 0
0 0
0 0
0 0
0 0
0 0
0 0
0 0
0 0
0 0
0 0
0 0
0 0
0 0
0 0
0 0
0 0
0 0
0 0
0 0
0 0
0 0
0 0
0 0
0 0
0 0
0 0
0 0
0 0
0 0
0 0
0 0
0 0
0 0
0 0
0 0
0 0
0 0
0 0
0 0
0 0
0 0
0 0
0 0
0 0
0 0
0 0
0 0
0 0
0 0
0 0
0 0
0 0
0 0
0 0
0 0
0 0
0 0
0 0
0 0
0 0
0 0
0 0
0 0
0 0
0 0
0 0
0 0
0 0
0 0
0 0
0 0
0 0
0 0
0 0
0 0
0 0
0 0
0 0
0 0
0 0
0 0
0 0
0 0
0 0
0 0
0 0
0 0
0 0
0 0
0 0
0 0
0 0
0 0
0 0
0 0
0 0
0 0
0 0
0 0
0 0
0 0
0 0
0 0
0 0
0 0
0 0
0 0
0 0
0 0
0 0
0 0
0 0
0 0
0 0
0 0
0 0
0 0
0 0
0 0
0 0
0 0
0 0
0 0
0 0
0 0
0 0
0 0
0 0
0 0
0 0
0 0
0 0
0 0
0 0
0 0
0 0
0 0
0 0
0 0
0 0
0 0
0 0
0 0
0 0
0 0
0 0
0 0
0 0
0 0
0 0
0 0
0 0
0 0
0 0
0 0
0 0
0 0
0 0
0 0
0 0
0 0
0 0
0 0
0 0
0 0
0 0
0 0
0 0
0 0
0 0
0 0
0 0
0 0
0 0
0 0
0 0
0 0
0 0
0 0
0 0
0 0
0 0
0 0
0 0
0 0
0 0
0 0
0 0
0 0
0 0
0 0
0 0
0 0
0 0
0 0
0 0
0 0
0 0
0 0
0 0
0 0
0 0
0 0
0 0
0 0
0 0
0 0
0 0
0 0
0 0
0 0
0 0
0 0
0 0
0 0
0 0
0 0
0 0
0 0
0 0
0 0
0 0
0 0
0 0
0 0
0 0
0 0
0 0
0 0
0 0
0 0
0 0
0 0
0 0
0 0
0 0
0 0
0 0
0 0
0 0
0 0
0 0
0 0
0 0
0 0
0 0
0 0
0 0
0 0
0 0
0 0
0 0
0 0
0 0
0 0
0 0
0 0
0 0
0 0
0 0
0 0
0 0
0 0
0 0
0 0
0 0
0 0
0 0
0 0
0 0
0 0
0 0
0 0
0 0
0 0
0 0
0 0
0 0
0 0
0 0
0 0
0 0
0 0
0 0
0 0
0 0
0 0
0 0
0 0
0 0
0 0
0 0
0 0
0 0
0 0
0 0
0 0
0 0
0 0
0 0
0 0
0 0
0 0
0 0
0 0
0 0
0 0
0 0
0 0
0 0
0 0
0 0
0 0
0 0
0 0
0 0
0 0
0 0
0 0
0 0
0 0
0 0
0 0
0 0
0 0
0 0
0 0
0 0
0 0
0 0
0 0
0 0
0 0
0 0
0 0
0 0
0 0
0 0
0 0
0 0
0 0
0 0
0 0
0 0
0 0
0 0
0 0
0 0
0 0
0 0
0 0
0 0
0 0
0 0
0 0
0 0
0 0
0 0
0 0
0 0
0 0
0 0
0 0
0 0
0 0
0 0
0 0
0 0
0 0
0 0
0 0
0 0
0 0
0 0
0 0
0 0
0 0
0 0
0 0
0 0
0 0
0 0
0 0
0 0
0 0
0 0
0 0
0 0
0 0
0 0
0 0
0 0
0 0
0 0
0 0
0 0
0 0
0 0
0 0
0 0
0 0
0 0
0 0
0 0
0 0
0 0
0 0
0 0
0 0
0 0
0 0
0 0
0 0
0 0
0 0
0 0
0 0
0 0
0 0
0 0
0 0
0 0
0 0
0 0
0 0
0 0
0 0
0 0
0 0
0 0
0 0
0 0
0 0
0 0
0 0
0 0
0 0
0 0
0 0
0 0
0 0
0 0
0 0
0 0
0 0
0 0
0 0
0 0
0 0
0 0
0 0
0 0
0 0
0 0
0 0
0 0
0 0
0 0
0 0
0 0
0 0
0 0
0 0
0 0
0 0
0 0
0 0
0 0
0 0
0 0
0 0
0 0
0 0
0 0
0 0
0 0
0 0
0 0
0 0
0 0
0 0
0 0
0 0
0 0
0 0
0 0
0 0
0 0
0 0
0 0
0 0
0 0
0 0
0 0
0 0
0 0
0 0
0 0
0 0
0 0
0 0
0 0
0 0
0 0
0 0
0 0
0 0
0 0
0 0
0 0
0 0
0 0
0 0
0 0
0 0
0 0
0 0
0 0
0 0
0 0
0 0
0 0
0 0
0 0
0 0
0 0
0 0
0 0
0 0
0 0
0 0
0 0
0 0
0 0
0 0
0 0
0 0
0 0
0 0
0 0
0 0
0 0
0 0
0 0
0 0
0 0
0 0
0 0
0 0
0 0
0 0
0 0
0 0
0 0
0 0
0 0
0 0
0 0
0 0
0 0
0 0
0 0
0 0
0 0
0 0
0 0
0 0
0 0
0 0
0 0
0 0
0 0
0 0
0 0
0 0
0 0
0 0
0 0
0 0
0 0
0 0
0 0
0 0
0 0
0 0
0 0
0 0
0 0
0 0
0 0
0 0
0 0
0 0
0 0
0 0
0 0
0 0
0 0
0 0
0 0
0 0
0 0
0 0
0 0
0 0
0 0
0 0
0 0
0 0
0 0
0 0
0 0
0 0
0 0
0 0
0 0
0 0
0 0
0 0
0 0
0 0
0 0
0 0
0 0
0 0
0 0
0 0
0 0
0 0
0 0
0 0
0 0
0 0
0 0
0 0
0 0
0 0
0 0
0 0
0 0
0 0
0 0
0 0
0 0
0 0
0 0
0 0
0 0
0 0
0 0
0 0
0 0
0 0
0 0
0 0
0 0
0 0
0 0
0 0
0 0
0 0
0 0
0 0
0 0
0 0
0 0
0 0
0 0
0 0
0 0
0 0
0 0
0 0
0 0
0 0
0 0
0 0
0 0
0 0
0 0
0 0
0 0
0 0
0 0
0 0
0 0
0 0
0 0
0 0
0 0
0 0
0 0
0 0
0 0
0 0
0 0
0 0
0 0
0 0
0 0
0 0
0 0
0 0
0 0
0 0
0 0
0 0
0 0
0 0
0 0
0 0
0 0
0 0
0 0
0 0
0 0
0 0
0 0
0 0
0 0
0 0
0 0
0 0
0 0
0 0
0 0
0 0
0 0
0 0
0 0
0 0
0 0
0 0
0 0
0 0
0 0
0 0
0 0
0 0
0 0
0 0
0 0
0 0
0 0
0 0
0 0
0 0
0 0
0 0
0 0
0 0
0 0
0 0
0 0
0 0
0 0
0 0
0 0
0 0
0 0
0 0
0 0
0 0
0 0
0 0
0 0
0 0
0 0
0 0
0 0
0 0
0 0
0 0
0 0
0 0
0 0
0 0
0 0
0 0
0 0
0 0
0 0
0 0
0 0
0 0
0 0
0 0
0 0
0 0
0 0
0 0
0 0
0 0
0 0
0 0
0 0
0 0
0 0
0 0
0 0
0 0
0 0
0 0
0 0
0 0
0 0
0 0
0 0
0 0
0 0
0 0
0 0
0 0
0 0
0 0
0 0
0 0
0 0
0 0
0 0
0 0
0 0
0 0
0 0
0 0
0 0
0 0
0 0
0 0
0 0
0 0
0 0
0 0
0 0
0 0
0 0
0 0
0 0
0 0
0 0
0 0
0 0
0 0
0 0
0 0
0 0
0 0
0 0
0 0
0 0
0 0
0 0
0 0
0 0
0 0
0 0
0 0
0 0
0 0
0 0
0 0
0 0
0 0
0 0
0 0
0 0
0 0
0 0
0 0
0 0
0 0
0 0
0 0
0 0
0 0
0 0
0 0
0 0
0 0
0 0
0 0
0 0
0 0
0 0
0 0
0 0
0 0
0 0
0 0
0 0
0 0
0 0
0 0
0 0
0 0
0 0
0 0
0 0
0 0
0 0
0 0
0 0
0 0
0 0
0 0
0 0
0 0
0 0
0 0
0 0
0 0
0 0
0 0
0 0
0 0
0 0
0 0
0 0
0 0
0 0
0 0
0 0
0 0
0 0
0 0
0 0
0 0
0 0
0 0
0 0
0 0
0 0
0 0
0 0
0 0
0 0
0 0
0 0
0 0
0 0
0 0
0 0
0 0
0 0
0 0
0 0
0 0
0 0
0 0
0 0
0 0
0 0
0 0
0 0
0 0
0 0
0 0
0 0
0 0
0 0
0 0
0 0
0 0
0 0
0 0
0 0
0 0
0 0
0 0
0 0
0 0
0 0
0 0
0 0
0 0
0 0
0 0
0 0
0 0
0 0
0 0
0 0
0 0
0 0
0 0
0 0
0 0
0 0
0 0
0 0
0 0
0 0
0 0
0 0
0 0
0 0
0 0
0 0
0 0
0 0
0 0
0 0
0 0
0 0
0 0
0 0
0 0
0 0
0 0
0 0
0 0
0 0
0 0
0 0
0 0
0 0
0 0
0 0
0 0
0 0
0 0
0 0
0 0
0 0
0 0
0 0
0 0
0 0
0 0
0 0
0 0
0 0
0 0
0 0
0 0
0 0
0 0
0 0
0 0
0 0
0 0
0 0
0 0
0 0
0 0
0 0
0 0
0 0
0 0
0 0
0 0
0 0
0 0
0 0
0 0
0 0
0 0
0 0
0 0
0 0
0 0
0 0
0 0
0 0
0 0
0 0
0 0
0 0
0 0
0 0
0 0
0 0
0 0
0 0
0 0
0 0
0 0
0 0
0 0
0 0
0 0
0 0
0 0
0 0
0 0
0 0
0 0
0 0
0 0
0 0
0 0
0 0
0 0
0 0
0 0
0 0
0 0
0 0
0 0
0 0
0 0
0 0
0 0
0 0
0 0
0 0
0 0
0 0
0 0
0 0
0 0
0 0
0 0
0 0
0 0
0 0
0 0
0 0
0 0
0 0
0 0
0 0
0 0
0 0
0 0
0 0
0 0
0 0
0 0
0 0
0 0
0 0
0 0
0 0
0 0
0 0
0 0
0 0
0 0
0 0
0 0
0 0
0 0
0 0
0 0
0 0
0 0
0 0
0 0
0 0
0 0
0 0
0 0
0 0
0 0
0 0
0 0
0 0
0 0
0 0
0 0
0 0
0 0
0 0
0 0
0 0
0 0
0 0
0 0
0 0
0 0
0 0
0 0
0 0
0 0
0 0
0 0
0 0
0 0
0 0
0 0
0 0
0 0
0 0
0 0
0 0
0 0
0 0
0 0
0 0
0 0
0 0
0 0
0 0
0 0
0 0
0 0
0 0
0 0
0 0
0 0
0 0
0 0
0 0
0 0
0 0
0 0
0 0
0 0
0 0
0 0
0 0
0 0
0 0
0 0
0 0
0 0
0 0
0 0
0 0
0 0
0 0
0 0
0 0
0 0
0 0
0 0
0 0
0 0
0 0
0 0
0 0
0 0
0 0
0 0
0 0
0 0
0 0
0 0
0 0
0 0
0 0
0 0
0 0
0 0
0 0
0 0
0 0
0 0
0 0
0 0
0 0
0 0
0 0
0 0
0 0
0 0
0 0
0 0
0 0
0 0
0 0
0 0
0 0
0 0
0 0
0 0
0 0
0 0
0 0
0 0
0 0
0 0
0 0
0 0
0 0
0 0
0 0
0 0
0 0
0 0
0 0
0 0
0 0
0 0
0 0
0 0
0 0
0 0
0 0
0 0
0 0
0 0
0 0
0 0
0 0
0 0
0 0
0 0
0 0
0 0
0 0
0 0
0 0
0 0
0 0
0 0
0 0
0 0
0 0
0 0
0 0
0 0
0 0
0 0
0 0
0 0
0 0
0 0
0 0
0 0
0 0
0 0
0 0
0 0
0 0
0 0
0 0
0 0
0 0
0 0
0 0
0 0
0 0
0 0
0 0
0 0
0 0
0 0
0 0
0 0
0 0
0 0
0 0
0 0
0 0
0 0
0 0
0 0
0 0
0 0
0 0
0 0
0 0
0 0
0 0
0 0
0 0
0 0
0 0
0 0
0 0
0 0
0 0
0 0
0 0
0 0
0 0
0 0
0 0
0 0
0 0
0 0
0 0
0 0
0 0
0 0
0 0
0 0
0 0
0 0
0 0
0 0
0 0
0 0
0 0
0 0
0 0
0 0
0 0
0 0
0 0
0 0
0 0
0 0
0 0
0 0
0 0
0 0
0 0
0 0
0 0
0 0
0 0
0 0
0 0
0 0
0 0
0 0
0 0
0 0
0 0
0 0
0 0
0 0
0 0
0 0
0 0
0 0
0 0
0 0
0 0
0 0
0 0
0 0
0 0
0 0
0 0
0 0
0 0
0 0
0 0
0 0
0 0
0 0
0 0
0 0
0 0
0 0
0 0
0 0
0 0
0 0
0 0
0 0
0 0
0 0
0 0
0 0
0 0
0 0
0 0
0 0
0 0
0 0
0 0
0 0
0 0
0 0
0 0
0 0
0 0
0 0
0 0
0 0
0 0
0 0
0 0
0 0
0 0
0 0
0 0
0 0
0 0
0 0
0 0
0 0
0 0
0 0
0 0
0 0
0 0
0 0
0 0
0 0
0 0
0 0
0 0
0 0
0 0
0 0
0 0
0 0
0 0
0 0
0 0
0 0
0 0
0 0
0 0
0 0
0 0
0 0
0 0
0 0
0 0
0 0
0 0
0 0
0 0
0 0
0 0
0 0
0 0
0 0
0 0
0 0
0 0
0 0
0 0
0 0
0 0
0 0
0 0
0 0
0 0
0 0
0 0
0 0
0 0
0 0
0 0
0 0
0 0
0 0
0 0
0 0
0 0
0 0
0 0
0 0
0 0
0 0
0 0
0 0
0 0
0 0
0 0
0 0
0 0
0 0
0 0
0 0
0 0
0 0
0 0
0 0
0 0
0 0
0 0
0 0
0 0
0 0
0 0
0 0
0 0
0 0
0 0
0 0
0 0
0 0
0 0
0 0
0 0
0 0
0 0
0 0
0 0
0 0
0 0
0 0
0 0
0 0
0 0
0 0
0 0
0 0
0 0
0 0
0 0
0 0
0 0
0 0
0 0
0 0
0 0
0 0
0 0
0 0
0 0
0 0
0 0
0 0
0 0
0 0
0 0
0 0
0 0
0 0
0 0
0 0
0 0
0 0
0 0
0 0
0 0
0 0
0 0
0 0
0 0
0 0
0 0
0 0
0 0
0 0
0 0
0 0
0 0
0 0
0 0
0 0
0 0
0 0
0 0
0 0
0 0
0 0
0 0
0 0
0 0
0 0
0 0
0 0
0 0
0 0
0 0
0 0
0 0
0 0
0 0
0 0
0 0
0 0
0 0
0 0
0 0
0 0
0 0
0 0
0 0
0 0
0 0
0 0
0 0
0 0
0 0
0 0
0 0
0 0
0 0
0 0
0 0
0 0
0 0
0 0
0 0
0 0
0 0
0 0
0 0
0 0
0 0
0 0
0 0
0 0
0 0
0 0
0 0
0 0
0 0
0 0
0 0
0 0
0 0
0 0
0 0
0 0
0 0
0 0
0 0
0 0
0 0
0 0
0 0
0 0
0 0
0 0
0 0
0 0
0 0
0 0
0 0
0 0
0 0
0 0
0 0
0 0
0 0
0 0
0 0
0 0
0 0
0 0
0 0
0 0
0 0
0 0
0 0
0 0
0 0
0 0
0 0
0 0
0 0
0 0
0 0
0 0
0 0
0 0
0 0
0 0
0 0
0 0
0 0
0 0
0 0
0 0
0 0
0 0
0 0
0 0
0 0
0 0
0 0
0 0
0 0
0 0
0 0
0 0
0 0
0 0
0 0
0 0
0 0
0 0
0 0
0 0
0 0
0 0
0 0
0 0
0 0
0 0
0 0
0 0
0 0
0 0
0 0
0 0
0 0
0 0
0 0
0 0
0 0
0 0
0 0
0 0
0 0
0 0
0 0
0 0
0 0
0 0
0 0
0 0
0 0
0 0
0 0
0 0
0 0
0 0
0 0
0 0
0 0
0 0
0 0
0 0
0 0
0 0
0 0
0 0
0 0
0 0
0 0
0 0
0 0
0 0
0 0
0 0
0 0
0 0
0 0
0 0
0 0
0 0
0 0
0 0
0 0
0 0
0 0
0 0
0 0
0 0
0 0
0 0
0 0
0 0
0 0
0 0
0 0
0 0
0 0
0 0
0 0
0 0
0 0
0 0
0 0
0 0
0 0
0 0
0 0
0 0
0 0
0 0
0 0
0 0
0 0
0 0
0 0
0 0
0 0
0 0
0 0
0 0
0 0
0 0
0 0
0 0
0 0
0 0
0 0
0 0
0 0
0 0
0 0
0 0
0 0
0 0
0 0
0 0
0 0
0 0
0 0
0 0
0 0
0 0
0 0
0 0
0 0
0 0
0 0
0 0
0 0
0 0
0 0
0 0
0 0
0 0
0 0
0 0
0 0
0 0
0 0
0 0
0 0
0 0
0 0
0 0
0 0
0 0
0 0
0 0
0 0
0 0
0 0
0 0
0 0
0 0
0 0
0 0
0 0
0 0
0 0
0 0
0 0
0 0
0 0
0 0
0 0
0 0
0 0
0 0
0 0
0 0
0 0
0 0
0 0
0 0
0 0
0 0
0 0
0 0
0 0
0 0
0 0
0 0
0 0
0 0
0 0
0 0
0 0
0 0
0 0
0 0
0 0
0 0
0 0
0 0
0 0
0 0
0 0
0 0
0 0
0 0
0 0
0 0
0 0
0 0
0 0
0 0
0 0
0 0
0 0
0 0
0 0
0 0
0 0
0 0
0 0
0 0
0 0
0 0
0 0
0 0
0 0
0 0
0 0
0 0
0 0
0 0
0 0
0 0
0 0
0 0
0 0
0 0
0 0
0 0
0 0
0 0
0 0
0 0
0 0
0 0
0 0
0 0
0 0
0 0
0 0
0 0
0 0
0 0
0 0
0 0
0 0
0 0
0 0
0 0
0 0
0 0
0 0
0 0
0 0
0 0
0 0
0 0
0 0
0 0
0 0
0 0
0 0
0 0
0 0
0 0
0 0
0 0
0 0
0 0
0 0
0 0
0 0
0 0
0 0
0 0
0 0
0 0
0 0
0 0
0 0
0 0
0 0
0 0
0 0
0 0
0 0
0 0
0 0
0 0
0 0
0 0
0 0
0 0
0 0
0 0
0 0
0 0
0 0
0 0
0 0
0 0
0 0
0 0
0 0
0 0
0 0
0 0
0 0
0 0
0 0
0 0
0 0
0 0
0 0
0 0
0 0
0 0
0 0
0 0
0 0
0 0
0 0
0 0
0 0
0 0
0 0
0 0
0 0
0 0
0 0
0 0
0 0
0 0
0 0
0 0
0 0
0 0
0 0
0 0
0 0
0 0
0 0
0 0
0 0
0 0
0 0
0 0
0 0
0 0
0 0
0 0
0 0
0 0
0 0
0 0
0 0
0 0
0 0
0 0
0 0
0 0
0 0
0 0
0 0
0 0
0 0
0 0
0 0
0 0
0 0
0 0
0 0
0 0
0 0
0 0
0 0
0 0
0 0
0 0
0 0
0 0
0 0
0 0
0 0
0 0
0 0
0 0
0 0
0 0
0 0
0 0
0 0
0 0
0 0
0 0
0 0
0 0
0 0
0 0
0 0
0 0
0 0
0 0
0 0
0 0
0 0
0 0
0 0
0 0
0 0
0 0
0 0
0 0
0 0
0 0
0 0
0 0
0 0
0 0
0 0
0 0
0 0
0 0
0 0
0 0
0 0
0 0
0 0
0 0
0 0
0 0
0 0
0 0
0 0
0 0
0 0
0 0
0 0
0 0
0 0
0 0
0 0
0 0
0 0
0 0
0 0
0 0
0 0
0 0
0 0
0 0
0 0
0 0
0 0
0 0
0 0
0 0
0 0
0 0
0 0
0 0
0 0
0 0
0 0
0 0
0 0
0 0
0 0
0 0
0 0
0 0
0 0
0 0
0 0
0 0
0 0
0 0
0 0
0 0
0 0
0 0
0 0
0 0
0 0
0 0
0 0
0 0
0 0
0 0
0 0
0 0
0 0
0 0
0 0
0 0
0 0
0 0
0 0
0 0
0 0
0 0
0 0
0 0
0 0
0 0
0 0
0 0
0 0
0 0
0 0
0 0
0 0
0 0
0 0
0 0
0 0
0 0
0 0
0 0
0 0
0 0
0 0
0 0
0 0
0 0
0 0
0 0
0 0
0 0
0 0
0 0
0 0
0 0
0 0
0 0
0 0
0 0
0 0
0 0
0 0
0 0
0 0
0 0
0 0
0 0
0 0
0 0
0 0
0 0
0 0
0 0
0 0
0 0
0 0
0 0
0 0
0 0
0 0
0 0
0 0
0 0
0 0
0 0
0 0
0 0
0 0
0 0
0 0
0 0
0 0
0 0
0 0
0 0
0 0
0 0
0 0
0 0
0 0
0 0
0 0
0 0
0 0
0 0
0 0
0 0
0 0
0 0
0 0
0 0
0 0
0 0
0 0
0 0
0 0
0 0
0 0
0 0
0 0
0 0
0 0
0 0
0 0
0 0
0 0
0 0
0 0
0 0
0 0
0 0
0 0
0 0
0 0
0 0
0 0
0 0
0 0
0 0
0 0
0 0
0 0
0 0
0 0
0 0
0 0
0 0
0 0
0 0
0 0
0 0
0 0
0 0
0 0
0 0
0 0
0 0
0 0
0 0
0 0
0 0
0 0
0 0
0 0
0 0
0 0
0 0
0 0
0 0
0 0
0 0
0 0
0 0
0 0
0 0
0 0
0 0
0 0
0 0
0 0
0 0
0 0
0 0
0 0
0 0
0 0
0 0
0 0
0 0
0 0
0 0
0 0
0 0
0 0
0 0
0 0
0 0
0 0
0 0
0 0
0 0
0 0
0 0
0 0
0 0
0 0
0 0
0 0
0 0
0 0
0 0
0 0
0 0
0 0
0 0
0 0
0 0
0 0
0 0
0 0
0 0
0 0
0 0
0 0
0 0
0 0
0 0
0 0
0 0
0 0
0 0
0 0
0 0
0 0
0 0
0 0
0 0
0 0
0 0
0 0
0 0
0 0
0 0
0 0
0 0
0 0
0 0
0 0
0 0
0 0
0 0
0 0
0 0
0 0
0 0
0 0
0 0
0 0
0 0
0 0
0 0
0 0
0 0
0 0
0 0
0 0
0 0
0 0
0 0
0 0
0 0
0 0
0 0
0 0
0 0
0 0
0 0
0 0
0 0
0 0
0 0
0 0
0 0
0 0
0 0
0 0
0 0
0 0
0 0
0 0
0 0
0 0
0 0
0 0
0 0
0 0
0 0
0 0
0 0
0 0
0 0
0 0
0 0
0 0
0 0
0 0
0 0
0 0
0 0
0 0
0 0
0 0
0 0
0 0
0 0
0 0
0 0
0 0
0 0
0 0
0 0
0 0
0 0
0 0
0 0
0 0
0 0
0 0
0 0
0 0
0 0
0 0
0 0
0 0
0 0
0 0
0 0
0 0
0 0
0 0
0 0
0 0
0 0
0 0
0 0
0 0
0 0
0 0
0 0
0 0
0 0
0 0
0 0
0 0
0 0
0 0
0 0
0 0
0 0
0 0
0 0
0 0
0 0
0 0
0 0
0 0
0 0
0 0
0 0
0 0
0 0
0 0
0 0
0 0
0 0
0 0
0 0
0 0
0 0
0 0
0 0
0 0
0 0
0 0
0 0
0 0
0 0
0 0
0 0
0 0
0 0
0 0
0 0
0 0
0 0
0 0
0 0
0 0
0 0
0 0
0 0
0 0
0 0
0 0
0 0
0 0
0 0
0 0
0 0
0 0
0 0
0 0
0 0
0 0
0 0
0 0
0 0
0 0
0 0
0 0
0 0
0 0
0 0
0 0
0 0
0 0
0 0
0 0
0 0
0 0
0 0
0 0
0 0
0 0
0 0
0 0
0 0
0 0
0 0
0 0
0 0
0 0
0 0
0 0
0 0
0 0
0 0
0 0
0 0
0 0
0 0
0 0
0 0
0 0
0 0
0 0
0 0
0 0
0 0
0 0
0 0
0 0
0 0
0 0
0 0
0 0
0 0
0 0
0 0
0 0
0 0
0 0
0 0
0 0
0 0
0 0
0 0
0 0
0 0
0 0
0 0
0 0
0 0
0 0
0 0
0 0
0 0
0 0
0 0
0 0
0 0
0 0
0 0
0 0
0 0
0 0
0 0
0 0
0 0
0 0
0 0
0 0
0 0
0 0
0 0
0 0
0 0
0 0
0 0
0 0
0 0
0 0
0 0
0 0
0 0
0 0
0 0
0 0
0 0
0 0
0 0
0 0
0 0
0 0
0 0
0 0
0 0
0 0
0 0
0 0
0 0
0 0
0 0
0 0
0 0
0 0
0 0
0 0
0 0
0 0
0 0
0 0
0 0
0 0
0 0
0 0
0 0
0 0
0 0
0 0
0 0
0 0
0 0
0 0
0 0
0 0
0 0
0 0
0 0
0 0
0 0
0 0
0 0
0 0
0 0
0 0
0 0
0 0
0 0
0 0
0 0
0 0
0 0
0 0
0 0
0 0
0 0
0 0
0 0
0 0
0 0
0 0
0 0
0 0
0 0
0 0
0 0
0 0
0 0
0 0
0 0
0 0
0 0
0 0
0 0
0 0
0 0
0 0
0 0
0 0
0 0
0 0
0 0
0 0
0 0
0 0
0 0
0 0
0 0
0 0
0 0
0 0
0 0
0 0
0 0
0 0
0 0
0 0
0 0
0 0
0 0
0 0
0 0
0 0
0 0
0 0
0 0
0 0
0 0
0 0
0 0
0 0
0 0
0 0
0 0
0 0
0 0
0 0
0 0
0 0
0 0
0 0
0 0
0 0
0 0
0 0
0 0
0 0
0 0
0 0
0 0
0 0
0 0
0 0
0 0
0 0
0 0
0 0
0 0
0 0
0 0
0 0
0 0
0 0
0 0
0 0
0 0
0 0
0 0
0 0
0 0
0 0
0 0
0 0
0 0
0 0
0 0
0 0
0 0
0 0
0 0
0 0
0 0
0 0
0 0
0 0
0 0
0 0
0 0
0 0
0 0
0 0
0 0
0 0
0 0
0 0
0 0
0 0
0 0
0 0
0 0
0 0
0 0
0 0
0 0
0 0
0 0
0 0
0 0
0 0
0 0
0 0
0 0
0 0
0 0
0 0
0 0
0 0
0 0
0 0
0 0
0 0
0 0
0 0
0 0
0 0
0 0
0 0
0 0
0 0
0 0
0 0
0 0
0 0
0 0
0 0
0 0
0 0
0 0
0 0
0 0
0 0
0 0
0 0
0 0
0 0
0 0
0 0
0 0
0 0
0 0
0 0
0 0
0 0
0 0
0 0
0 0
0 0
0 0
0 0
0 0
0 0
0 0
0 0
0 0
0 0
0 0
0 0
0 0
0 0
0 0
0 0
0 0
0 0
0 0
0 0
0 0
0 0
0 0
0 0
0 0
0 0
0 0
0 0
0 0
0 0
0 0
0 0
0 0
0 0
0 0
0 0
0 0
0 0
0 0
0 0
0 0
0 0
0 0
0 0
0 0
0 0
0 0
0 0
0 0
0 0
0 0
0 0
0 0
0 0
0 0
0 0
0 0
0 0
0 0
0 0
0 0
0 0
0 0
0 0
0 0
0 0
0 0
0 0
0 0
0 0
0 0
0 0
0 0
0 0
0 0
0 0
0 0
0 0
0 0
0 0
0 0
0 0
0 0
0 0
0 0
0 0
0 0
0 0
0 0
0 0
0 0
0 0
0 0
0 0
0 0
0 0
0 0
0 0
0 0
0 0
0 0
0 0
0 0
0 0
0 0
0 0
0 0
0 0
0 0
0 0
0 0
0 0
0 0
0 0
0 0
0 0
0 0
0 0
0 0
0 0
0 0
0 0
0 0
0 0
0 0
0 0
0 0
0 0
0 0
0 0
0 0
0 0
0 0
0 0
0 0
0 0
0 0
0 0
0 0
0 0
0 0
0 0
0 0
0 0
0 0
0 0
0 0
0 0
0 0
0 0
0 0
0 0
0 0
0 0
0 0
0 0
0 0
0 0
0 0
0 0
0 0
0 0
0 0
0 0
0 0
0 0
0 0
0 0
0 0
0 0
0 0
0 0
0 0
0 0
0 0
0 0
0 0
0 0
0 0
0 0
0 0
0 0
0 0
0 0
0 0
0 0
0 0
0 0
0 0
0 0
0 0
0 0
0 0
0 0
0 0
0 0
0 0
0 0
0 0
0 0
0 0
0 0
0 0
0 0
0 0
0 0
0 0
0 0
0 0
0 0
0 0
0 0
0 0
0 0
0 0
0 0
0 0
0 0
0 0
0 0
0 0
0 0
0 0
0 0
0 0
0 0
0 0
0 0
0 0
0 0
0 0
0 0
0 0
0 0
0 0
0 0
0 0
0 0
0 0
0 0
0 0
0 0
0 0
0 0
0 0
0 0
0 0
0 0
0 0
0 0
0 0
0 0
0 0
0 0
0 0
0 0
0 0
0 0
0 0
0 0
0 0
0 0
0 0
0 0
0 0
0 0
0 0
0 0
0 0
0 0
0 0
0 0
0 0
0 0
0 0
0 0
0 0
0 0
0 0
0 0
0 0
0 0
0 0
0 0
0 0
0 0
0 0
0 0
0 0
0 0
0 0
0 0
0 0
0 0
0 0
0 0
0 0
0 0
0 0
0 0
0 0
0 0
0 0
0 0
0 0
0 0
0 0
0 0
0 0
0 0
0 0
0 0
0 0
0 0
0 0
0 0
0 0
0 0
0 0
0 0
0 0
0 0
0 0
0 0
0 0
0 0
0 0
0 0
0 0
0 0
0 0
0 0
0 0
0 0
0 0
0 0
0 0
0 0
0 0
0 0
0 0
0 0
0 0
0 0
0 0
0 0
0 0
0 0
0 0
0 0
0 0
0 0
0 0
0 0
0 0
0 0
0 0
0 0
0 0
0 0
0 0
0 0
0 0
0 0
0 0
0 0
0 0
0 0
0 0
0 0
0 0
0 0
0 0
0 0
0 0
0 0
0 0
0 0
0 0
0 0
0 0
0 0
0 0
0 0
0 0
0 0
0 0
0 0
0 0
0 0
0 0
0 0
0 0
0 0
0 0
0 0
0 0
0 0
0 0
0 0
0 0
0 0
0 0
0 0
0 0
0 0
0 0
0 0
0 0
0 0
0 0
0 0
0 0
0 0
0 0
0 0
0 0
0 0
0 0
0 0
0 0
0 0
0 0
0 0
0 0
0 0
0 0
0 0
0 0
0 0
0 0
0 0
0 0
0 0
0 0
0 0
0 0
0 0
0 0
0 0
0 0
0 0
0 0
0 0
0 0
0 0
0 0
0 0
0 0
0 0
0 0
0 0
0 0
0 0
0 0
0 0
0 0
0 0
0 0
0 0
0 0
0 0
0 0
0 0
0 0
0 0
0 0
0 0
0 0
0 0
0 0
0 0
0 0
0 0
0 0
0 0
0 0
0 0
0 0
0 0
0 0
0 0
0 0
0 0
0 0
0 0
0 0
0 0
0 0
0 0
0 0
0 0
0 0
0 0
0 0
0 0
0 0
0 0
0 0
0 0
0 0
0 0
0 0
0 0
0 0
0 0
0 0
0 0
0 0
0 0
0 0
0 0
0 0
0 0
0 0
0 0
0 0
0 0
0 0
0 0
0 0
0 0
0 0
0 0
0 0
0 0
0 0
0 0
0 0
0 0
0 0
0 0
0 0
0 0
0 0
0 0
0 0
0 0
0 0
0 0
0 0
0 0
0 0
0 0
0 0
0 0
0 0
0 0
0 0
0 0
0 0
0 0
0 0
0 0
0 0
0 0
0 0
0 0
0 0
0 0
0 0
0 0
0 0
0 0
0 0
0 0
0 0
0 0
0 0
0 0
0 0
0 0
0 0
0 0
0 0
0 0
0 0
0 0
0 0
0 0
0 0
0 0
0 0
0 0
0 0
0 0
0 0
0 0
0 0
0 0
0 0
0 0
0 0
0 0
0 0
0 0
0 0
0 0
0 0
0 0
0 0
0 0
0 0
0 0
0 0
0 0
0 0
0 0
0 0
0 0
0 0
0 0
0 0
0 0
0 0
0 0
0 0
0 0
0 0
0 0
0 0
0 0
0 0
0 0
0 0
0 0
0 0
0 0
0 0
0 0
0 0
0 0
0 0
0 0
0 0
0 0
0 0
0 0
0 0
0 0
0 0
0 0
0 0
0 0
0 0
0 0
0 0
0 0
0 0
0 0
0 0
0 0
0 0
0 0
0 0
0 0
0 0
0 0
0 0
0 0
0 0
0 0
0 0
0 0
0 0
0 0
0 0
0 0
0 0
0 0
0 0
0 0
0 0
0 0
0 0
0 0
0 0
0 0
0 0
0 0
0 0
0 0
0 0
0 0
0 0
0 0
0 0
0 0
0 0
0 0
0 0
0 0
0 0
0 0
0 0
0 0
0 0
0 0
0 0
0 0
0 0
0 0
0 0
0 0
0 0
0 0
0 0
0 0
0 0
0 0
0 0
0 0
0 0
0 0
0 0
0 0
0 0
0 0
0 0
0 0
0 0
0 0
0 0
0 0
0 0
0 0
0 0
0 0
0 0
0 0
0 0
0 0
0 0
0 0
0 0
0 0
0 0
0 0
0 0
0 0
0 0
0 0
0 0
0 0
0 0
0 0
0 0
0 0
0 0
0 0
0 0
0 0
0 0
0 0
0 0
0 0
0 0
0 0
0 0
0 0
0 0
0 0
0 0
0 0
0 0
0 0
0 0
0 0
0 0
0 0
0 0
0 0
0 0
0 0
0 0
0 0
0 0
0 0
0 0
0 0
0 0
0 0
0 0
0 0
0 0
0 0
0 0
0 0
0 0
0 0
0 0
0 0
0 0
0 0
0 0
0 0
0 0
0 0
0 0
0 0
0 0
0 0
0 0
0 0
0 0
0 0
0 0
0 0
0 0
0 0
0 0
0 0
0 0
0 0
0 0
0 0
0 0
0 0
0 0
0 0
0 0
0 0
0 0
0 0
0 0
0 0
0 0
0 0
0 0
0 0
0 0
0 0
0 0
0 0
0 0
0 0
0 0
0 0
0 0
0 0
0 0
0 0
0 0
0 0
0 0
0 0
0 0
0 0
0 0
0 0
0 0
0 0
0 0
0 0
0 0
0 0
0 0
0 0
0 0
0 0
0 0
0 0
0 0
0 0
0 0
0 0
0 0
0 0
0 0
0 0
0 0
0 0
0 0
0 0
0 0
0 0
0 0
0 0
0 0
0 0
0 0
0 0
0 0
0 0
0 0
0 0
0 0
0 0
0 0
0 0
0 0
0 0
0 0
0 0
0 0
0 0
0 0
0 0
0 0
0 0
0 0
0 0
0 0
0 0
0 0
0 0
0 0
0 0
0 0
0 0
0 0
0 0
0 0
0 0
0 0
0 0
0 0
0 0
0 0
0 0
0 0
0 0
0 0
0 0
0 0
0 0
0 0
0 0
0 0
0 0
0 0
0 0
0 0
0 0
0 0
0 0
0 0
0 0
0 0
0 0
0 0
0 0
0 0
0 0
0 0
0 0
0 0
0 0
0 0
0 0
0 0
0 0
0 0
0 0
0 0
0 0
0 0
0 0
0 0
0 0
0 0
0 0
0 0
0 0
0 0
0 0
0 0
0 0
0 0
0 0
0 0
0 0
0 0
0 0
0 0
0 0
0 0
0 0
0 0
0 0
0 0
0 0
0 0
0 0
0 0
0 0
0 0
0 0
0 0
0 0
0 0
0 0
0 0
0 0
0 0
0 0
0 0
0 0
0 0
0 0
0 0
0 0
0 0
0 0
0 0
0 0
0 0
0 0
0 0
0 0
0 0
0 0
0 0
0 0
0 0
0 0
0 0
0 0
0 0
0 0
0 0
0 0
0 0
0 0
0 0
0 0
0 0
0 0
0 0
0 0
0 0
0 0
0 0
0 0
0 0
0 0
0 0
0 0
0 0
0 0
0 0
0 0
0 0
0 0
0 0
0 0
0 0
0 0
0 0
0 0
0 0
0 0
0 0
0 0
0 0
0 0
0 0
0 0
0 0
0 0
0 0
0 0
0 0
0 0
0 0
0 0
0 0
0 0
0 0
0 0
0 0
0 0
0 0
0 0
0 0
0 0
0 0
0 0
0 0
0 0
0 0
0 0
0 0
0 0
0 0
0 0
0 0
0 0
0 0
0 0
0 0
0 0
0 0
0 0
0 0
0 0
0 0
0 0
0 0
0 0
0 0
0 0
0 0
0 0
0 0
0 0
0 0
0 0
0 0
0 0
0 0
0 0
0 0
0 0
0 0
0 0
0 0
0 0
0 0
0 0
0 0
0 0
0 0
0 0
0 0
0 0
0 0
0 0
0 0
0 0
0 0
0 0
0 0
0 0
0 0
0 0
0 0
0 0
0 0
0 0
0 0
0 0
0 0
0 0
0 0
0 0
0 0
0 0
0 0
0 0
0 0
0 0
0 0
0 0
0 0
0 0
0 0
0 0
0 0
0 0
0 0
0 0
0 0
0 0
0 0
0 0
0 0
0 0
0 0
0 0
0 0
0 0
0 0
0 0
0 0
0 0
0 0
0 0
0 0
0 0
0 0
0 0
0 0
0 0
0 0
0 0
0 0
0 0
0 0
0 0
0 0
0 0
0 0
0 0
0 0
0 0
0 0
0 0
0 0
0 0
0 0
0 0
0 0
0 0
0 0
0 0
0 0
0 0
0 0
0 0
0 0
0 0
0 0
0 0
0 0
0 0
0 0
0 0
0 0
0 0
0 0
0 0
0 0
0 0
0 0
0 0
0 0
0 0
0 0
0 0
0 0
0 0
0 0
0 0
0 0
0 0
0 0
0 0
0 0
0 0
0 0
0 0
0 0
0 0
0 0
0 0
0 0
0 0
0 0
0 0
0 0
0 0
0 0
0 0
0 0
0 0
0 0
0 0
0 0
0 0
0 0
0 0
0 0
0 0
0 0
0 0
0 0
0 0
0 0
0 0
0 0
0 0
0 0
0 0
0 0
0 0
0 0
0 0
0 0
0 0
0 0
0 0
0 0
0 0
0 0
0 0
0 0
0 0
0 0
0 0
0 0
0 0
0 0
0 0
0 0
0 0
0 0
0 0
0 0
0 0
0 0
0 0
0 0
0 0
0 0
0 0
0 0
0 0
0 0
0 0
0 0
0 0
0 0
0 0
0 0
0 0
0 0
0 0
0 0
0 0
0 0
0 0
0 0
0 0
0 0
0 0
0 0
0 0
0 0
0 0
0 0
0 0
0 0
0 0
0 0
0 0
0 0
0 0
0 0
0 0
0 0
0 0
0 0
0 0
0 0
0 0
0 0
0 0
0 0
0 0
0 0
0 0
0 0
0 0
0 0
0 0
0 0
0 0
0 0
0 0
0 0
0 0
0 0
0 0
0 0
0 0
0 0
0 0
0 0
0 0
0 0
0 0
0 0
0 0
0 0
0 0
0 0
0 0
0 0
0 0
0 0
0 0
0 0
0 0
0 0
0 0
0 0
0 0
0 0
0 0
0 0
0 0
0 0
0 0
0 0
0 0
0 0
0 0
0 0
0 0
0 0
0 0
0 0
0 0
0 0
0 0
0 0
0 0
0 0
0 0
0 0
0 0
0 0
0 0
0 0
0 0
0 0
0 0
0 0
0 0
0 0
0 0
0 0
0 0
0 0
0 0
0 0
0 0
0 0
0 0
0 0
0 0
0 0
0 0
0 0
0 0
0 0
0 0
0 0
0 0
0 0
0 0
0 0
0 0
0 0
0 0
0 0
0 0
0 0
0 0
0 0
0 0
0 0
0 0
0 0
0 0
0 0
0 0
0 0
0 0
0 0
0 0
0 0
0 0
0 0
0 0
0 0
0 0
0 0
0 0
0 0
0 0
0 0
0 0
0 0
0 0
0 0
0 0
0 0
0 0
0 0
0 0
0 0
0 0
0 0
0 0
0 0
0 0
0 0
0 0
0 0
0 0
0 0
0 0
0 0
0 0
0 0
0 0
0 0
0 0
0 0
0 0
0 0
0 0
0 0
0 0
0 0
0 0
0 0
0 0
0 0
0 0
0 0
0 0
0 0
0 0
0 0
0 0
0 0
0 0
0 0
0 0
0 0
0 0
0 0
0 0
0 0
0 0
0 0
0 0
0 0
0 0
0 0
0 0
0 0
0 0
0 0
0 0
0 0
0 0
0 0
0 0
0 0
0 0
0 0
0 0
0 0
0 0
0 0
0 0
0 0
0 0
0 0
0 0
0 0
0 0
0 0
0 0
0 0
0 0
0 0
0 0
0 0
0 0
0 0
0 0
0 0
0 0
0 0
0 0
0 0
0 0
0 0
0 0
0 0
0 0
0 0
0 0
0 0
0 0
0 0
0 0
0 0
0 0
0 0
0 0
0 0
0 0
0 0
0 0
0 0
0 0
0 0
0 0
0 0
0 0
0 0
0 0
0 0
0 0
0 0
0 0
0 0
0 0
0 0
0 0
0 0
0 0
0 0
0 0
0 0
0 0
0 0
0 0
0 0
0 0
0 0
0 0
0 0
0 0
0 0
0 0
0 0
0 0
0 0
0 0
0 0
0 0
0 0
0 0
0 0
0 0
0 0
0 0
0 0
0 0
0 0
0 0
0 0
0 0
0 0
0 0
0 0
0 0
0 0
0 0
0 0
0 0
0 0
0 0
0 0
0 0
0 0
0 0
0 0
0 0
0 0
0 0
0 0
0 0
0 0
0 0
0 0
0 0
0 0
0 0
0 0
0 0
0 0
0 0
0 0
0 0
0 0
0 0
0 0
0 0
0 0
0 0
0 0
0 0
0 0
0 0
0 0
0 0
0 0
0 0
0 0
0 0
0 0
0 0
0 0
0 0
0 0
0 0
0 0
0 0
0 0
0 0
0 0
0 0
0 0
0 0
0 0
0 0
0 0
0 0
0 0
0 0
0 0
0 0
0 0
0 0
0 0
0 0
0 0
0 0
0 0
0 0
0 0
0 0
0 0
0 0
0 0
0 0
0 0
0 0
0 0
0 0
0 0
0 0
0 0
0 0
0 0
0 0
0 0
0 0
0 0
0 0
0 0
0 0
0 0
0 0
0 0
0 0
0 0
0 0
0 0
0 0
0 0
0 0
0 0
0 0
0 0
0 0
0 0
0 0
0 0
0 0
0 0
0 0
0 0
0 0
0 0
0 0
0 0
0 0
0 0
0 0
0 0
0 0
0 0
0 0
0 0
0 0
0 0
0 0
0 0
0 0
0 0
0 0
0 0
0 0
0 0
0 0
0 0
0 0
0 0
0 0
0 0
0 0
0 0
0 0
0 0
0 0
0 0
0 0
0 0
0 0
0 0
0 0
0 0
0 0
0 0
0 0
0 0
0 0
0 0
0 0
0 0
0 0
0 0
0 0
0 0
0 0
0 0
0 0
0 0
0 0
0 0
0 0
0 0
0 0
0 0
0 0
0 0
0 0
0 0
0 0
0 0
0 0
0 0
0 0
0 0
0 0
0 0
0 0
0 0
0 0
0 0
0 0
0 0
0 0
0 0
0 0
0 0
0 0
0 0
0 0
0 0
0 0
0 0
0 0
0 0
0 0
0 0
0 0
0 0
0 0
0 0
0 0
0 0
0 0
0 0
0 0
0 0
0 0
0 0
0 0
0 0
0 0
0 0
0 0
0 0
0 0
0 0
0 0
0 0
0 0
0 0
0 0
0 0
0 0
0 0
0 0
0 0
0 0
0 0
0 0
0 0
0 0
0 0
0 0
0 0
0 0
0 0
0 0
0 0
0 0
0 0
0 0
0 0
0 0
0 0
0 0
0 0
0 0
0 0
0 0
0 0
0 0
0 0
0 0
0 0
0 0
0 0
0 0
0 0
0 0
0 0
0 0
0 0
0 0
0 0
0 0
0 0
0 0
0 0
0 0
0 0
0 0
0 0
0 0
0 0
0 0
0 0
0 0
0 0
0 0
0 0
0 0
0 0
0 0
0 0
0 0
0 0
0 0
0 0
0 0
0 0
0 0
0 0
0 0
0 0
0 0
0 0
0 0
0 0
0 0
0 0
0 0
0 0
0 0
0 0
0 0
0 0
0 0
0 0
0 0
0 0
0 0
0 0
0 0
0 0
0 0
0 0
0 0
0 0
0 0
0 0
0 0
0 0
0 0
0 0
0 0
0 0
0 0
0 0
0 0
0 0
0 0
0 0
0 0
0 0
0 0
0 0
0 0
0 0
0 0
0 0
0 0
0 0
0 0
0 0
0 0
0 0
0 0
0 0
0 0
0 0
0 0
0 0
0 0
0 0
0 0
0 0
0 0
0 0
0 0
0 0
0 0
0 0
0 0
0 0
0 0
0 0
0 0
0 0
0 0
0 0
0 0
0 0
0 0
0 0
0 0
0 0
0 0
0 0
0 0
0 0
0 0
0 0
0 0
0 0
0 0
0 0
0 0
0 0
0 0
0 0
0 0
0 0
0 0
0 0
0 0
0 0
0 0
0 0
0 0
0 0
0 0
0 0
0 0
0 0
0 0
0 0
0 0
0 0
0 0
0 0
0 0
0 0
0 0
0 0
0 0
0 0
0 0
0 0
0 0
0 0
0 0
0 0
0 0
0 0
0 0
0 0
0 0
0 0
0 0
0 0
0 0
0 0
0 0
0 0
0 0
0 0
0 0
0 0
0 0
0 0
0 0
0 0
0 0
0 0
0 0
0 0
0 0
0 0
0 0
0 0
0 0
0 0
0 0
0 0
0 0
0 0
0 0
0 0
0 0
0 0
0 0
0 0
0 0
0 0
0 0
0 0
0 0
0 0
0 0
0 0
0 0
0 0
0 0
0 0
0 0
0 0
0 0
0 0
0 0
0 0
0 0
0 0
0 0
0 0
0 0
0 0
0 0
0 0
0 0
0 0
0 0
0 0
0 0
0 0
0 0
0 0
0 0
0 0
0 0
0 0
0 0
0 0
0 0
0 0
0 0
0 0
0 0
0 0
0 0
0 0
0 0
0 0
0 0
0 0
0 0
0 0
0 0
0 0
0 0
0 0
0 0
0 0
0 0
0 0
0 0
0 0
0 0
0 0
0 0
0 0
0 0
0 0
0 0
0 0
0 0
0 0
0 0
0 0
0 0
0 0
0 0
0 0
0 0
0 0
0 0
0 0
0 0
0 0
0 0
0 0
0 0
0 0
0 0
0 0
0 0
0 0
0 0
0 0
0 0
0 0
0 0
0 0
0 0
0 0
0 0
0 0
0 0
0 0
0 0
0 0
0 0
0 0
0 0
0 0
0 0
0 0
0 0
0 0
0 0
0 0
0 0
0 0
0 0
0 0
0 0
0 0
0 0
0 0
0 0
0 0
0 0
0 0
0 0
0 0
0 0
0 0
0 0
0 0
0 0
0 0
0 0
0 0
0 0
0 0
0 0
0 0
0 0
0 0
0 0
0 0
0 0
0 0
0 0
0 0
0 0
0 0
0 0
0 0
0 0
0 0
0 0
0 0
0 0
0 0
0 0
0 0
0 0
0 0
0 0
0 0
0 0
0 0
0 0
0 0
0 0
0 0
0 0
0 0
0 0
0 0
0 0
0 0
0 0
0 0
0 0
0 0
0 0
0 0
0 0
0 0
0 0
0 0
0 0
0 0
0 0
0 0
0 0
0 0
0 0
0 0
0 0
0 0
0 0
0 0
0 0
0 0
0 0
0 0
0 0
0 0
0 0
0 0
0 0
0 0
0 0
0 0
0 0
0 0
0 0
0 0
0 0
0 0
0 0
0 0
0 0
0 0
0 0
0 0
0 0
0 0
0 0
0 0
0 0
0 0
0 0
0 0
0 0
0 0
0 0
0 0
0 0
0 0
0 0
0 0
0 0
0 0
0 0
0 0
0 0
0 0
0 0
0 0
0 0
0 0
0 0
0 0
0 0
0 0
0 0
0 0
0 0
0 0
0 0
0 0
0 0
0 0
0 0
0 0
0 0
0 0
0 0
0 0
0 0
0 0
0 0
0 0
0 0
0 0
0 0
0 0
0 0
0 0
0 0
0 0
0 0
0 0
0 0
0 0
0 0
0 0
0 0
0 0
0 0
0 0
0 0
0 0
0 0
0 0
0 0
0 0
0 0
0 0
0 0
0 0
0 0
0 0
0 0
0 0
0 0
0 0
0 0
0 0
0 0
0 0
0 0
0 0
0 0
0 0
0 0
0 0
0 0
0 0
0 0
0 0
0 0
0 0
0 0
0 0
0 0
0 0
0 0
0 0
0 0
0 0
0 0
0 0
0 0
0 0
0 0
0 0
0 0
0 0
0 0
0 0
0 0
0 0
0 0
0 0
0 0
0 0
0 0
0 0
0 0
0 0
0 0
0 0
0 0
0 0
0 0
0 0
0 0
0 0
0 0
0 0
0 0
0 0
0 0
0 0
0 0
0 0
0 0
0 0
0 0
0 0
0 0
0 0
0 0
0 0
0 0
0 0
0 0
0 0
0 0
0 0
0 0
0 0
0 0
0 0
0 0
0 0
0 0
0 0
0 0
0 0
0 0
0 0
0 0
0 0
0 0
0 0
0 0
0 0
0 0
0 0
0 0
0 0
0 0
0 0
0 0
0 0
0 0
0 0
0 0
0 0
0 0
0 0
0 0
0 0
0 0
0 0
0 0
0 0
0 0
0 0
0 0
0 0
0 0
0 0
0 0
0 0
0 0
0 0
0 0
0 0
0 0
0 0
0 0
0 0
0 0
0 0
0 0
0 0
0 0
0 0
0 0
0 0
0 0
0 0
0 0
0 0
0 0
0 0
0 0
0 0
0 0
0 0
0 0
0 0
0 0
0 0
0 0
0 0
0 0
0 0
0 0
0 0
0 0
0 0
0 0
0 0
0 0
0 0
0 0
0 0
0 0
0 0
0 0
0 0
0 0
0 0
0 0
0 0
0 0
0 0
0 0
0 0
0 0
0 0
0 0
0 0
0 0
0 0
0 0
0 0
0 0
0 0
0 0
0 0
0 0
0 0
0 0
0 0
0 0
0 0
0 0
0 0
0 0
0 0
0 0
0 0
0 0
0 0
0 0
0 0
0 0
0 0
0 0
0 0
0 0
0 0
0 0
0 0
0 0
0 0
0 0
0 0
0 0
0 0
0 0
0 0
0 0
0 0
0 0
0 0
0 0
0 0
0 0
0 0
0 0
0 0
0 0
0 0
0 0
0 0
0 0
0 0
0 0
0 0
0 0
0 0
0 0
0 0
0 0
0 0
0 0
0 0
0 0
0 0
0 0
0 0
0 0
0 0
0 0
0 0
0 0
0 0
0 0
0 0
0 0
0 0
0 0
0 0
0 0
0 0
0 0
0 0
0 0
0 0
0 0
0 0
0 0
0 0
0 0
0 0
0 0
0 0
0 0
0 0
0 0
0 0
0 0
0 0
0 0
0 0
0 0
0 0
0 0
0 0
0 0
0 0
0 0
0 0
0 0
0 0
0 0
0 0
0 0
0 0
0 0
0 0
0 0
0 0
0 0
0 0
0 0
0 0
0 0
0 0
0 0
0 0
0 0
0 0
0 0
0 0
0 0
0 0
0 0
0 0
0 0
0 0
0 0
0 0
0 0
0 0
0 0
0 0
0 0
0 0
0 0
0 0
0 0
0 0
0 0
0 0
0 0
0 0
0 0
0 0
0 0
0 0
0 0
0 0
0 0
0 0
0 0
0 0
0 0
0 0
0 0
0 0
0 0
0 0
0 0
0 0
0 0
0 0
0 0
0 0
0 0
0 0
0 0
0 0
0 0
0 0
0 0
0 0
0 0
0 0
0 0
0 0
0 0
0 0
0 0
0 0
0 0
0 0
0 0
0 0
0 0
0 0
0 0
0 0
0 0
0 0
0 0
0 0
0 0
0 0
0 0
0 0
0 0
0 0
0 0
0 0
0 0
0 0
0 0
0 0
0 0
0 0
0 0
0 0
0 0
0 0
0 0
0 0
0 0
0 0
0 0
0 0
0 0
0 0
0 0
0 0
0 0
0 0
0 0
0 0
0 0
0 0
0 0
0 0
0 0
0 0
0 0
0 0
0 0
0 0
0 0
0 0
0 0
0 0
0 0
0 0
0 0
0 0
0 0
0 0
0 0
0 0
0 0
0 0
0 0
0 0
0 0
0 0
0 0
0 0
0 0
0 0
0 0
0 0
0 0
0 0
0 0
0 0
0 0
0 0
0 0
0 0
0 0
0 0
0 0
0 0
0 0
0 0
0 0
0 0
0 0
0 0
0 0
0 0
0 0
0 0
0 0
0 0
0 0
0 0
0 0
0 0
0 0
0 0
0 0
0 0
0 0
0 0
0 0
0 0
0 0
0 0
0 0
0 0
0 0
0 0
0 0
0 0
0 0
0 0
0 0
0 0
0 0
0 0
0 0
0 0
0 0
0 0
0 0
0 0
0 0
0 0
0 0
0 0
0 0
0 0
0 0
0 0
0 0
0 0
0 0
0 0
0 0
0 0
0 0
0 0
0 0
0 0
0 0
0 0
0 0
0 0
0 0
0 0
0 0
0 0
0 0
0 0
0 0
0 0
0 0
0 0
0 0
0 0
0 0
0 0
0 0
0 0
0 0
0 0
0 0
0 0
0 0
0 0
0 0
0 0
0 0
0 0
0 0
0 0
0 0
0 0
0 0
0 0
0 0
0 0
0 0
0 0
0 0
0 0
0 0
0 0
0 0
0 0
0 0
0 0
0 0
0 0
0 0
0 0
0 0
0 0
0 0
0 0
0 0
0 0
0 0
0 0
0 0
0 0
0 0
0 0
0 0
0 0
0 0
0 0
0 0
0 0
0 0
0 0
0 0
0 0
0 0
0 0
0 0
0 0
0 0
0 0
0 0
0 0
0 0
0 0
0 0
0 0
0 0
0 0
0 0
0 0
0 0
0 0
0 0
0 0
0 0
0 0
0 0
0 0
0 0
0 0
0 0
0 0
0 0
0 0
0 0
0 0
0 0
0 0
0 0
0 0
0 0
0 0
0 0
0 0
0 0
0 0
0 0
0 0
0 0
0 0
0 0
0 0
0 0
0 0
0 0
0 0
0 0
0 0
0 0
0 0
0 0
0 0
0 0
0 0
0 0
0 0
0 0
0 0
0 0
0 0
0 0
0 0
0 0
0 0
0 0
0 0
0 0
0 0
0 0
0 0
0 0
0 0
0 0
0 0
0 0
0 0
0 0
0 0
0 0
0 0
0 0
0 0
0 0
0 0
0 0
0 0
0 0
0 0
0 0
0 0
0 0
0 0
0 0
0 0
0 0
0 0
0 0
0 0
0 0
0 0
0 0
0 0
0 0
0 0
0 0
0 0
0 0
0 0
0 0
0 0
0 0
0 0
0 0
0 0
0 0
0 0
0 0
0 0
0 0
0 0
0 0
0 0
0 0
0 0
0 0
0 0
0 0
0 0
0 0
0 0
0 0
0 0
0 0
0 0
0 0
0 0
0 0
0 0
0 0
0 0
0 0
0 0
0 0
0 0
0 0
0 0
0 0
0 0
0 0
0 0
0 0
0 0
0 0
0 0
0 0
0 0
0 0
0 0
0 0
0 0
0 0
0 0
0 0
0 0
0 0
0 0
0 0
0 0
0 0
0 0
0 0
0 0
0 0
0 0
0 0
0 0
0 0
0 0
0 0
0 0
0 0
0 0
0 0
0 0
0 0
0 0
0 0
0 0
0 0
0 0
0 0
0 0
0 0
0 0
0 0
0 0
0 0
0 0
0 0
0 0
0 0
0 0
0 0
0 0
0 0
0 0
0 0
0 0
0 0
0 0
0 0
0 0
0 0
0 0
0 0
0 0
0 0
0 0
0 0
0 0
0 0
0 0
0 0
0 0
0 0
0 0
0 0
0 0
0 0
0 0
0 0
0 0
0 0
0 0
0 0
0 0
0 0
0 0
0 0
0 0
0 0
0 0
0 0
0 0
0 0
0 0
0 0
0 0
0 0
0 0
0 0
0 0
0 0
0 0
0 0
0 0
0 0
0 0
0 0
0 0
0 0
0 0
0 0
0 0
0 0
0 0
0 0
0 0
0 0
0 0
0 0
0 0
0 0
0 0
0 0
0 0
0 0
0 0
0 0
0 0
0 0
0 0
0 0
0 0
0 0
0 0
0 0
0 0
0 0
0 0
0 0
0 0
0 0
0 0
0 0
0 0
0 0
0 0
0 0
0 0
0 0
0 0
0 0
0 0
0 0
0 0
0 0
0 0
0 0
0 0
0 0
0 0
0 0
0 0
0 0
0 0
0 0
0 0
0 0
0 0
0 0
0 0
0 0
0 0
0 0
0 0
0 0
0 0
0 0
0 0
0 0
0 0
0 0
0 0
0 0
0 0
0 0
0 0
0 0
0 0
0 0
0 0
0 0
0 0
0 0
0 0
0 0
0 0
0 0
0 0
0 0
0 0
0 0
0 0
0 0
0 0
0 0
0 0
0 0
0 0
0 0
0 0
0 0
0 0
0 0
0 0
0 0
0 0
0 0
0 0
0 0
0 0
0 0
0 0
0 0
0 0
0 0
0 0
0 0
0 0
0 0
0 0
0 0
0 0
0 0
0 0
0 0
0 0
0 0
0 0
0 0
0 0
0 0
0 0
0 0
0 0
0 0
0 0
0 0
0 0
0 0
0 0
0 0
0 0
0 0
0 0
0 0
0 0
0 0
0 0
0 0
0 0
0 0
0 0
0 0
0 0
0 0
0 0
0 0
0 0
0 0
0 0
0 0
0 0
0 0
0 0
0 0
0 0
0 0
0 0
0 0
0 0
0 0
0 0
0 0
0 0
0 0
0 0
0 0
0 0
0 0
0 0
0 0
0 0
0 0
0 0
0 0
0 0
0 0
0 0
0 0
0 0
0 0
0 0
0 0
0 0
0 0
0 0
0 0
0 0
0 0
0 0
0 0
0 0
0 0
0 0
0 0
0 0
0 0
0 0
0 0
0 0
0 0
0 0
0 0
0 0
0 0
0 0
0 0
0 0
0 0
0 0
0 0
0 0
0 0
0 0
0 0
0 0
0 0
0 0
0 0
0 0
0 0
0 0
0 0
0 0
0 0
0 0
0 0
0 0
0 0
0 0
0 0
0 0
0 0
0 0
0 0
0 0
0 0
0 0
0 0
0 0
0 0
0 0
0 0
0 0
0 0
0 0
0 0
0 0
0 0
0 0
0 0
0 0
0 0
0 0
0 0
0 0
0 0
0 0
0 0
0 0
0 0
0 0
0 0
0 0
0 0
0 0
0 0
0 0
0 0
0 0
0 0
0 0
0 0
0 0
0 0
0 0
0 0
0 0
0 0
0 0
0 0
0 0
0 0
0 0
0 0
0 0
0 0
0 0
0 0
0 0
0 0
0 0
0 0
0 0
0 0
0 0
0 0
0 0
0 0
0 0
0 0
0 0
0 0
0 0
0 0
0 0
0 0
0 0
0 0
0 0
0 0
0 0
0 0
0 0
0 0
0 0
0 0
0 0
0 0
0 0
0 0
0 0
0 0
0 0
0 0
0 0
0 0
0 0
0 0
0 0
0 0
0 0
0 0
0 0
0 0
0 0
0 0
0 0
0 0
0 0
0 0
0 0
0 0
0 0
0 0
0 0
0 0
0 0
0 0
0 0
0 0
0 0
0 0
0 0
0 0
0 0
0 0
0 0
0 0
0 0
0 0
0 0
0 0
0 0
0 0
0 0
0 0
0 0
0 0
0 0
0 0
0 0
0 0
0 0
0 0
0 0
0 0
0 0
0 0
0 0
0 0
0 0
0 0
0 0
0 0
0 0
0 0
0 0
0 0
0 0
0 0
0 0
0 0
0 0
0 0
0 0
0 0
0 0
0 0
0 0
0 0
0 0
0 0
0 0
0 0
0 0
0 0
0 0
0 0
0 0
0 0
0 0
0 0
0 0
0 0
0 0
0 0
0 0
0 0
0 0
0 0
0 0
0 0
0 0
0 0
0 0
0 0
0 0
0 0
0 0
0 0
0 0
0 0
0 0
0 0
0 0
0 0
0 0
0 0
0 0
0 0
0 0
0 0
0 0
0 0
0 0
0 0
0 0
0 0
0 0
0 0
0 0
0 0
0 0
0 0
0 0
0 0
0 0
0 0
0 0
0 0
0 0
0 0
0 0
0 0
0 0
0 0
0 0
0 0
0 0
0 0
0 0
0 0
0 0
0 0
0 0
0 0
0 0
0 0
0 0
0 0
0 0
0 0
0 0
0 0
0 0
0 0
0 0
0 0
0 0
0 0
0 0
0 0
0 0
0 0
0 0
0 0
0 0
0 0
0 0
0 0
0 0
0 0
0 0
0 0
0 0
0 0
0 0
0 0
0 0
0 0
0 0
0 0
0 0
0 0
0 0
0 0
0 0
0 0
0 0
0 0
0 0
0 0
0 0
0 0
0 0
0 0
0 0
0 0
0 0
0 0
0 0
0 0
0 0
0 0
0 0
0 0
0 0
0 0
0 0
0 0
0 0
0 0
0 0
0 0
0 0
0 0
0 0
0 0
0 0
0 0
0 0
0 0
0 0
0 0
0 0
0 0
0 0
0 0
0 0
0 0
0 0
0 0
0 0
0 0
0 0
0 0
0 0
0 0
0 0
0 0
0 0
0 0
0 0
0 0
0 0
0 0
0 0
0 0
0 0
0 0
0 0
0 0
0 0
0 0
0 0
0 0
0 0
0 0
0 0
0 0
0 0
0 0
0 0
0 0
0 0
0 0
0 0
0 0
0 0
0 0
0 0
0 0
0 0
0 0
0 0
0 0
0 0
0 0
0 0
0 0
0 0
0 0
0 0
0 0
0 0
0 0
0 0
0 0
0 0
0 0
0 0
0 0
0 0
0 0
0 0
0 0
0 0
0 0
0 0
0 0
0 0
0 0
0 0
0 0
0 0
0 0
0 0
0 0
0 0
0 0
0 0
0 0
0 0
0 0
0 0
0 0
0 0
0 0
0 0
0 0
0 0
0 0
0 0
0 0
0 0
0 0
0 0
0 0
0 0
0 0
0 0
0 0
0 0
0 0
0 0
0 0
0 0
0 0
0 0
0 0
0 0
0 0
0 0
0 0
0 0
0 0
0 0
0 0
0 0
0 0
0 0
0 0
0 0
0 0
0 0
0 0
0 0
0 0
0 0
0 0
0 0
0 0
0 0
0 0
0 0
0 0
0 0
0 0
0 0
0 0
0 0
0 0
0 0
0 0
0 0
0 0
0 0
0 0
0 0
0 0
0 0
0 0
0 0
0 0
0 0
0 0
0 0
0 0
0 0
0 0
0 0
0 0
0 0
0 0
0 0
0 0
0 0
0 0
0 0
0 0
0 0
0 0
0 0
0 0
0 0
0 0
0 0
0 0
0 0
0 0
0 0
0 0
0 0
0 0
0 0
0 0
0 0
0 0
0 0
0 0
0 0
0 0
0 0
0 0
0 0
0 0
0 0
0 0
0 0
0 0
0 0
0 0
0 0
0 0
0 0
0 0
0 0
0 0
0 0
0 0
0 0
0 0
0 0
0 0
0 0
0 0
0 0
0 0
0 0
0 0
0 0
0 0
0 0
0 0
0 0
0 0
0 0
0 0
0 0
0 0
0 0
0 0
0 0
0 0
0 0
0 0
0 0
0 0
0 0
0 0
0 0
0 0
0 0
0 0
0 0
0 0
0 0
0 0
0 0
0 0
0 0
0 0
0 0
0 0
0 0
0 0
0 0
0 0
0 0
0 0
0 0
0 0
0 0
0 0
0 0
0 0
0 0
0 0
0 0
0 0
0 0
0 0
0 0
0 0
0 0
0 0
0 0
0 0
0 0
0 0
0 0
0 0
0 0
0 0
0 0
0 0
0 0
0 0
0 0
0 0
0 0
0 0
0 0
0 0
0 0
0 0
0 0
0 0
0 0
0 0
0 0
0 0
0 0
0 0
0 0
0 0
0 0
0 0
0 0
0 0
0 0
0 0
0 0
0 0
0 0
0 0
0 0
0 0
0 0
0 0
0 0
0 0
0 0
0 0
0 0
0 0
0 0
0 0
0 0
0 0
0 0
0 0
0 0
0 0
0 0
0 0
0 0
0 0
0 0
0 0
0 0
0 0
0 0
0 0
0 0
0 0
0 0
0 0
0 0
0 0
0 0
0 0
0 0
0 0
0 0
0 0
0 0
0 0
0 0
0 0
0 0
0 0
0 0
0 0
0 0
0 0
0 0
0 0
0 0
0 0
0 0
0 0
0 0
0 0
0 0
0 0
0 0
0 0
0 0
0 0
0 0
0 0
0 0
0 0
0 0
0 0
0 0
0 0
0 0
0 0
0 0
0 0
0 0
0 0
0 0
0 0
0 0
0 0
0 0
0 0
0 0
0 0
0 0
0 0
0 0
0 0
0 0
0 0
0 0
0 0
0 0
0 0
0 0
0 0
0 0
0 0
0 0
0 0
0 0
0 0
0 0
0 0
0 0
0 0
0 0
0 0
0 0
0 0
0 0
0 0
0 0
0 0
0 0
0 0
0 0
0 0
0 0
0 0
0 0
0 0
0 0
0 0
0 0
0 0
0 0
0 0
0 0
0 0
0 0
0 0
0 0
0 0
0 0
0 0
0 0
0 0
0 0
0 0
0 0
0 0
0 0
0 0
0 0
0 0
0 0
0 0
0 0
0 0
0 0
0 0
0 0
0 0
0 0
0 0
0 0
0 0
0 0
0 0
0 0
0 0
0 0
0 0
0 0
0 0
0 0
0 0
0 0
0 0
0 0
0 0
0 0
0 0
0 0
0 0
0 0
0 0
0 0
0 0
0 0
0 0
0 0
0 0
0 0
0 0
0 0
0 0
0 0
0 0
0 0
0 0
0 0
0 0
0 0
0 0
0 0
0 0
0 0
0 0
0 0
0 0
0 0
0 0
0 0
0 0
0 0
0 0
0 0
0 0
0 0
0 0
0 0
0 0
0 0
0 0
0 0
0 0
0 0
0 0
0 0
0 0
0 0
0 0
0 0
0 0
0 0
0 0
0 0
0 0
0 0
0 0
0 0
0 0
0 0
0 0
0 0
0 0
0 0
0 0
0 0
0 0
0 0
0 0
0 0
0 0
0 0
0 0
0 0
0 0
0 0
0 0
0 0
0 0
0 0
0 0
0 0
0 0
0 0
0 0
0 0
0 0
0 0
0 0
0 0
0 0
0 0
0 0
0 0
0 0
0 0
0 0
0 0
0 0
0 0
0 0
0 0
0 0
0 0
0 0
0 0
0 0
0 0
0 0
0 0
0 0
0 0
0 0
0 0
0 0
0 0
0 0
0 0
0 0
0 0
0 0
0 0
0 0
0 0
0 0
0 0
0 0
0 0
0 0
0 0
0 0
0 0
0 0
0 0
0 0
0 0
0 0
0 0
0 0
0 0
0 0
0 0
0 0
0 0
0 0
0 0
0 0
0 0
0 0
0 0
0 0
0 0
0 0
0 0
0 0
0 0
0 0
0 0
0 0
0 0
0 0
0 0
0 0
0 0
0 0
0 0
0 0
0 0
0 0
0 0
0 0
0 0
0 0
0 0
0 0
0 0
0 0
0 0
0 0
0 0
0 0
0 0
0 0
0 0
0 0
0 0
0 0
0 0
0 0
0 0
0 0
0 0
0 0
0 0
0 0
0 0
0 0
0 0
0 0
0 0
0 0
0 0
0 0
0 0
0 0
0 0
0 0
0 0
0 0
0 0
0 0
0 0
0 0
0 0
0 0
0 0
0 0
0 0
0 0
0 0
0 0
0 0
0 0
0 0
0 0
0 0
0 0
0 0
0 0
0 0
0 0
0 0
0 0
0 0
0 0
0 0
0 0
0 0
0 0
0 0
0 0
0 0
0 0
0 0
0 0
0 0
0 0
0 0
0 0
0 0
0 0
0 0
0 0
0 0
0 0
0 0
0 0
0 0
0 0
0 0
0 0
0 0
0 0
0 0
0 0
0 0
0 0
0 0
0 0
0 0
0 0
0 0
0 0
0 0
0 0
0 0
0 0
0 0
0 0
0 0
0 0
0 0
0 0
0 0
0 0
0 0
0 0
0 0
0 0
0 0
0 0
0 0
0 0
0 0
0 0
0 0
0 0
0 0
0 0
0 0
0 0
0 0
0 0
0 0
0 0
0 0
0 0
0 0
0 0
0 0
0 0
0 0
0 0
0 0
0 0
0 0
0 0
0 0
0 0
0 0
0 0
0 0
0 0
0 0
0 0
0 0
0 0
0 0
0 0
0 0
0 0
0 0
0 0
0 0
0 0
0 0
0 0
0 0
0 0
0 0
0 0
0 0
0 0
0 0
0 0
0 0
0 0
0 0
0 0
0 0
0 0
0 0
0 0
0 0
0 0
0 0
0 0
0 0
0 0
0 0
0 0
0 0
0 0
0 0
0 0
0 0
0 0
0 0
0 0
0 0
0 0
0 0
0 0
0 0
0 0
0 0
0 0
0 0
0 0
0 0
0 0
0 0
0 0
0 0
0 0
0 0
0 0
0 0
0 0
0 0
0 0
0 0
0 0
0 0
0 0
0 0
0 0
0 0
0 0
0 0
0 0
0 0
0 0
0 0
0 0
0 0
0 0
0 0
0 0
0 0
0 0
0 0
0 0
0 0
0 0
0 0
0 0
0 0
0 0
0 0
0 0
0 0
0 0
0 0
0 0
0 0
0 0
0 0
0 0
0 0
0 0
0 0
0 0
0 0
0 0
0 0
0 0
0 0
0 0
0 0
0 0
0 0
0 0
0 0
0 0
0 0
0 0
0 0
0 0
0 0
0 0
0 0
0 0
0 0
0 0
0 0
0 0
0 0
0 0
0 0
0 0
0 0
0 0
0 0
0 0
0 0
0 0
0 0
0 0
0 0
0 0
0 0
0 0
0 0
0 0
0 0
0 0
0 0
0 0
0 0
0 0
0 0
0 0
0 0
0 0
0 0
0 0
0 0
0 0
0 0
0 0
0 0
0 0
0 0
0 0
0 0
0 0
0 0
0 0
0 0
0 0
0 0
0 0
0 0
0 0
0 0
0 0
0 0
0 0
0 0
0 0
0 0
0 0
0 0
0 0
0 0
0 0
0 0
0 0
0 0
0 0
0 0
0 0
0 0
0 0
0 0
0 0
0 0
0 0
0 0
0 0
0 0
0 0
0 0
0 0
0 0
0 0
0 0
0 0
0 0
0 0
0 0
0 0
0 0
0 0
0 0
0 0
0 0
0 0
0 0
0 0
0 0
0 0
0 0
0 0
0 0
0 0
0 0
0 0
0 0
0 0
0 0
0 0
0 0
0 0
0 0
0 0
0 0
0 0
0 0
0 0
0 0
0 0
0 0
0 0
0 0
0 0
0 0
0 0
0 0
0 0
0 0
0 0
0 0
0 0
0 0
0 0
0 0
0 0
0 0
0 0
0 0
0 0
0 0
0 0
0 0
0 0
0 0
0 0
0 0
0 0
0 0
0 0
0 0
0 0
0 0
0 0
0 0
0 0
0 0
0 0
0 0
0 0
0 0
0 0
0 0
0 0
0 0
0 0
0 0
0 0
0 0
0 0
0 0
0 0
0 0
0 0
0 0
0 0
0 0
0 0
0 0
0 0
0 0
0 0
0 0
0 0
0 0
0 0
0 0
0 0
0 0
0 0
0 0
0 0
0 0
0 0
0 0
0 0
0 0
0 0
0 0
0 0
0 0
0 0
0 0
0 0
0 0
0 0
0 0
0 0
0 0
0 0
0 0
0 0
0 0
0 0
0 0
0 0
0 0
0 0
0 0
0 0
0 0
0 0
0 0
0 0
0 0
0 0
0 0
0 0
0 0
0 0
0 0
0 0
0 0
0 0
0 0
0 0
0 0
0 0
0 0
0 0
0 0
0 0
0 0
0 0
0 0
0 0
0 0
0 0
0 0
0 0
0 0
0 0
0 0
0 0
0 0
0 0
0 0
0 0
0 0
0 0
0 0
0 0
0 0
0 0
0 0
0 0
0 0
0 0
0 0
0 0
0 0
0 0
0 0
0 0
0 0
0 0
0 0
0 0
0 0
0 0
0 0
0 0
0 0
0 0
0 0
0 0
0 0
0 0
0 0
0 0
0 0
0 0
0 0
0 0
0 0
0 0
0 0
0 0
0 0
0 0
0 0
0 0
0 0
0 0
0 0
0 0
0 0
0 0
0 0
0 0
0 0
0 0
0 0
0 0
0 0
0 0
0 0
0 0
0 0
0 0
0 0
0 0
0 0
0 0
0 0
0 0
0 0
0 0
0 0
0 0
0 0
0 0
0 0
0 0
0 0
0 0
0 0
0 0
0 0
0 0
0 0
0 0
0 0
0 0
0 0
0 0
0 0
0 0
0 0
0 0
0 0
0 0
0 0
0 0
0 0
0 0
0 0
0 0
0 0
0 0
0 0
0 0
0 0
0 0
0 0
0 0
0 0
0 0
0 0
0 0
0 0
0 0
0 0
0 0
0 0
0 0
0 0
0 0
0 0
0 0
0 0
0 0
0 0
0 0
0 0
0 0
0 0
0 0
0 0
0 0
0 0
0 0
0 0
0 0
0 0
0 0
0 0
0 0
0 0
0 0
0 0
0 0
0 0
0 0
0 0
0 0
0 0
0 0
0 0
0 0
0 0
0 0
0 0
0 0
0 0
0 0
0 0
0 0
0 0
0 0
0 0
0 0
0 0
0 0
0 0
0 0
0 0
0 0
0 0
0 0
0 0
0 0
0 0
0 0
0 0
0 0
0 0
0 0
0 0
0 0
0 0
0 0
0 0
0 0
0 0
0 0
0 0
0 0
0 0
0 0
0 0
0 0
0 0
0 0
0 0
0 0
0 0
0 0
0 0
0 0
0 0
0 0
0 0
0 0
0 0
0 0
0 0
0 0
0 0
0 0
0 0
0 0
0 0
0 0
0 0
0 0
0 0
0 0
0 0
0 0
0 0
0 0
0 0
0 0
0 0
0 0
0 0
0 0
0 0
0 0
0 0
0 0
0 0
0 0
0 0
0 0
0 0
0 0
0 0
0 0
0 0
0 0
0 0
0 0
0 0
0 0
0 0
0 0
0 0
0 0
0 0
0 0
0 0
0 0
0 0
0 0
0 0
0 0
0 0
0 0
0 0
0 0
0 0
0 0
0 0
0 0
0 0
0 0
0 0
0 0
0 0
0 0
0 0
0 0
0 0
0 0
0 0
0 0
0 0
0 0
0 0
0 0
0 0
0 0
0 0
0 0
0 0
0 0
0 0
0 0
0 0
0 0
0 0
0 0
0 0
0 0
0 0
0 0
0 0
0 0
0 0
0 0
0 0
0 0
0 0
0 0
0 0
0 0
0 0
0 0
0 0
0 0
0 0
0 0
0 0
0 0
0 0
0 0
0 0
0 0
0 0
0 0
0 0
0 0
0 0
0 0
0 0
0 0
0 0
0 0
0 0
0 0
0 0
0 0
0 0
0 0
0 0
0 0
0 0
0 0
0 0
0 0
0 0
0 0
0 0
0 0
0 0
0 0
0 0
0 0
0 0
0 0
0 0
0 0
0 0
0 0
0 0
0 0
0 0
0 0
0 0
0 0
0 0
0 0
0 0
0 0
0 0
0 0
0 0
0 0
0 0
0 0
0 0
0 0
0 0
0 0
0 0
0 0
0 0
0 0
0 0
0 0
0 0
0 0
0 0
0 0
0 0
0 0
0 0
0 0
0 0
0 0
0 0
0 0
0 0
0 0
0 0
0 0
0 0
0 0
0 0
0 0
0 0
0 0
0 0
0 0
0 0
0 0
0 0
0 0
0 0
0 0
0 0
0 0
0 0
0 0
0 0
0 0
0 0
0 0
0 0
0 0
0 0
0 0
0 0
0 0
0 0
0 0
0 0
0 0
0 0
0 0
0 0
0 0
0 0
0 0
0 0
0 0
0 0
0 0
0 0
0 0
0 0
0 0
0 0
0 0
0 0
0 0
0 0
0 0
0 0
0 0
0 0
0 0
0 0
0 0
0 0
0 0
0 0
0 0
0 0
0 0
0 0
0 0
0 0
0 0
0 0
0 0
0 0
0 0
0 0
0 0
0 0
0 0
0 0
0 0
0 0
0 0
0 0
0 0
0 0
0 0
0 0
0 0
0 0
0 0
0 0
0 0
0 0
0 0
0 0
0 0
0 0
0 0
0 0
0 0
0 0
0 0
0 0
0 0
0 0
0 0
0 0
0 0
0 0
0 0
0 0
0 0
0 0
0 0
0 0
0 0
0 0
0 0
0 0
0 0
0 0
0 0
0 0
0 0
0 0
0 0
0 0
0 0
0 0
0 0
0 0
0 0
0 0
0 0
0 0
0 0
0 0
0 0
0 0
0 0
0 0
0 0
0 0
0 0
0 0
0 0
0 0
0 0
0 0
0 0
0 0
0 0
0 0
0 0
0 0
0 0
0 0
0 0
0 0
0 0
0 0
0 0
0 0
0 0
0 0
0 0
0 0
0 0
0 0
0 0
0 0
0 0
0 0
0 0
0 0
0 0
0 0
0 0
0 0
0 0
0 0
0 0
0 0
0 0
0 0
0 0
0 0
0 0
0 0
0 0
0 0
0 0
0 0
0 0
0 0
0 0
0 0
0 0
0 0
0 0
0 0
0 0
0 0
0 0
0 0
0 0
0 0
0 0
0 0
0 0
0 0
0 0
0 0
0 0
0 0
0 0
0 0
0 0
0 0
0 0
0 0
0 0
0 0
0 0
0 0
0 0
0 0
0 0
0 0
0 0
0 0
0 0
0 0
0 0
0 0
0 0
0 0
0 0
0 0
0 0
0 0
0 0
0 0
0 0
0 0
0 0
0 0
0 0
0 0
0 0
0 0
0 0
0 0
0 0
0 0
0 0
0 0
0 0
0 0
0 0
0 0
0 0
0 0
0 0
0 0
0 0
0 0
0 0
0 0
0 0
0 0
0 0
0 0
0 0
0 0
0 0
0 0
0 0
0 0
0 0
0 0
0 0
0 0
0 0
0 0
0 0
0 0
0 0
0 0
0 0
0 0
0 0
0 0
0 0
0 0
0 0
0 0
0 0
0 0
0 0
0 0
0 0
0 0
0 0
0 0
0 0
0 0
0 0
0 0
0 0
0 0
0 0
0 0
0 0
0 0
0 0
0 0
0 0
0 0
0 0
0 0
0 0
0 0
0 0
0 0
0 0
0 0
0 0
0 0
0 0
0 0
0 0
0 0
0 0
0 0
0 0
0 0
0 0
0 0
0 0
0 0
0 0
0 0
0 0
0 0
0 0
0 0
0 0
0 0
0 0
0 0
0 0
0 0
0 0
0 0
0 0
0 0
0 0
0 0
0 0
0 0
0 0
0 0
0 0
0 0
0 0
0 0
0 0
0 0
0 0
0 0
0 0
0 0
0 0
0 0
0 0
0 0
0 0
0 0
0 0
0 0
0 0
0 0
0 0
0 0
0 0
0 0
0 0
0 0
0 0
0 0
0 0
0 0
0 0
0 0
0 0
0 0
0 0
0 0
0 0
0 0
0 0
0 0
0 0
0 0
0 0
0 0
0 0
0 0
0 0
0 0
0 0
0 0
0 0
0 0
0 0
0 0
0 0
0 0
0 0
0 0
0 0
0 0
0 0
0 0
0 0
0 0
0 0
0 0
0 0
0 0
0 0
0 0
0 0
0 0
0 0
0 0
0 0
0 0
0 0
0 0
0 0
0 0
0 0
0 0
0 0
0 0
0 0
0 0
0 0
0 0
0 0
0 0
0 0
0 0
0 0
0 0
0 0
0 0
0 0
0 0
0 0
0 0
0 0
0 0
0 0
0 0
0 0
0 0
0 0
0 0
0 0
0 0
0 0
0 0
0 0
0 0
0 0
0 0
0 0
0 0
0 0
0 0
0 0
0 0
0 0
0 0
0 0
0 0
0 0
0 0
0 0
0 0
0 0
0 0
0 0
0 0
0 0
0 0
0 0
0 0
0 0
0 0
0 0
0 0
0 0
0 0
0 0
0 0
0 0
0 0
0 0
0 0
0 0
0 0
0 0
0 0
0 0
0 0
0 0
0 0
0 0
0 0
0 0
0 0
0 0
0 0
0 0
0 0
0 0
0 0
0 0
0 0
0 0
0 0
0 0
0 0
0 0
0 0
0 0
0 0
0 0
0 0
0 0
0 0
0 0
0 0
0 0
0 0
0 0
0 0
0 0
0 0
0 0
0 0
0 0
0 0
0 0
0 0
0 0
0 0
0 0
0 0
0 0
0 0
0 0
0 0
0 0
0 0
0 0
0 0
0 0
0 0
0 0
0 0
0 0
0 0
0 0
0 0
0 0
0 0
0 0
0 0
0 0
0 0
0 0
0 0
0 0
0 0
0 0
0 0
0 0
0 0
0 0
0 0
0 0
0 0
0 0
0 0
0 0
0 0
0 0
0 0
0 0
0 0
0 0
0 0
0 0
0 0
0 0
0 0
0 0
0 0
0 0
0 0
0 0
0 0
0 0
0 0
0 0
0 0
0 0
0 0
0 0
0 0
0 0
0 0
0 0
0 0
0 0
0 0
0 0
0 0
0 0
0 0
0 0
0 0
0 0
0 0
0 0
0 0
0 0
0 0
0 0
0 0
0 0
0 0
0 0
0 0
0 0
0 0
0 0
0 0
0 0
0 0
0 0
0 0
0 0
0 0
0 0
0 0
0 0
0 0
0 0
0 0
0 0
0 0
0 0
0 0
0 0
0 0
0 0
0 0
0 0
0 0
0 0
0 0
0 0
0 0
0 0
0 0
0 0
0 0
0 0
0 0
0 0
0 0
0 0
0 0
0 0
0 0
0 0
0 0
0 0
0 0
0 0
0 0
0 0
0 0
0 0
0 0
0 0
0 0
0 0
0 0
0 0
0 0
0 0
0 0
0 0
0 0
0 0
0 0
0 0
0 0
0 0
0 0
0 0
0 0
0 0
0 0
0 0
0 0
0 0
0 0
0 0
0 0
0 0
0 0
0 0
0 0
0 0
0 0
0 0
0 0
0 0
0 0
0 0
0 0
0 0
0 0
0 0
0 0
0 0
0 0
0 0
0 0
0 0
0 0
0 0
0 0
0 0
0 0
0 0
0 0
0 0
0 0
0 0
0 0
0 0
0 0
0 0
0 0
0 0
0 0
0 0
0 0
0 0
0 0
0 0
0 0
0 0
0 0
0 0
0 0
0 0
0 0
0 0
0 0
0 0
0 0
0 0
0 0
0 0
0 0
0 0
0 0
0 0
0 0
0 0
0 0
0 0
0 0
0 0
0 0
0 0
0 0
0 0
0 0
0 0
0 0
0 0
0 0
0 0
0 0
0 0
0 0
0 0
0 0
0 0
0 0
0 0
0 0
0 0
0 0
0 0
0 0
0 0
0 0
0 0
0 0
0 0
0 0
0 0
0 0
0 0
0 0
0 0
0 0
0 0
0 0
0 0
0 0
0 0
0 0
0 0
0 0
0 0
0 0
0 0
0 0
0 0
0 0
0 0
0 0
0 0
0 0
0 0
0 0
0 0
0 0
0 0
0 0
0 0
0 0
0 0
0 0
0 0
0 0
0 0
0 0
0 0
0 0
0 0
0 0
0 0
0 0
0 0
0 0
0 0
0 0
0 0
0 0
0 0
0 0
0 0
0 0
0 0
0 0
0 0
0 0
0 0
0 0
0 0
0 0
0 0
0 0
0 0
0 0
0 0
0 0
0 0
0 0
0 0
0 0
0 0
0 0
0 0
0 0
0 0
0 0
0 0
0 0
0 0
0 0
0 0
0 0
0 0
0 0
0 0
0 0
0 0
0 0
0 0
0 0
0 0
0 0
0 0
0 0
0 0
0 0
0 0
0 0
0 0
0 0
0 0
0 0
0 0
0 0
0 0
0 0
0 0
0 0
0 0
0 0
0 0
0 0
0 0
0 0
0 0
0 0
0 0
0 0
0 0
0 0
0 0
0 0
0 0
0 0
0 0
0 0
0 0
0 0
0 0
0 0
0 0
0 0
0 0
0 0
0 0
0 0
0 0
0 0
0 0
0 0
0 0
0 0
0 0
0 0
0 0
0 0
0 0
0 0
0 0
0 0
0 0
0 0
0 0
0 0
0 0
0 0
0 0
0 0
0 0
0 0
0 0
0 0
0 0
0 0
0 0
0 0
0 0
0 0
0 0
0 0
0 0
0 0
0 0
0 0
0 0
0 0
0 0
0 0
0 0
0 0
0 0
0 0
0 0
0 0
0 0
0 0
0 0
0 0
0 0
0 0
0 0
0 0
0 0
0 0
0 0
0 0
0 0
0 0
0 0
0 0
0 0
0 0
0 0
0 0
0 0
0 0
0 0
0 0
0 0
0 0
0 0
0 0
0 0
0 0
0 0
0 0
0 0
0 0
0 0
0 0
0 0
0 0
0 0
0 0
0 0
0 0
0 0
0 0
0 0
0 0
0 0
0 0
0 0
0 0
0 0
0 0
0 0
0 0
0 0
0 0
0 0
0 0
0 0
0 0
0 0
0 0
0 0
0 0
0 0
0 0
0 0
0 0
0 0
0 0
0 0
0 0
0 0
0 0
0 0
0 0
0 0
0 0
0 0
0 0
0 0
0 0
0 0
0 0
0 0
0 0
0 0
0 0
0 0
0 0
0 0
0 0
0 0
0 0
0 0
0 0
0 0
0 0
0 0
0 0
0 0
0 0
0 0
0 0
0 0
0 0
0 0
0 0
0 0
0 0
0 0
0 0
0 0
0 0
0 0
0 0
0 0
0 0
0 0
0 0
0 0
0 0
0 0
0 0
0 0
0 0
0 0
0 0
0 0
0 0
0 0
0 0
0 0
0 0
0 0
0 0
0 0
0 0
0 0
0 0
0 0
0 0
0 0
0 0
0 0
0 0
0 0
0 0
0 0
0 0
0 0
0 0
0 0
0 0
0 0
0 0
0 0
0 0
0 0
0 0
0 0
0 0
0 0
0 0
0 0
0 0
0 0
0 0
0 0
0 0
0 0
0 0
0 0
0 0
0 0
0 0
0 0
0 0
0 0
0 0
0 0
0 0
0 0
0 0
0 0
0 0
0 0
0 0
0 0
0 0
0 0
0 0
0 0
0 0
0 0
0 0
0 0
0 0
0 0
0 0
0 0
0 0
0 0
0 0
0 0
0 0
0 0
0 0
0 0
0 0
0 0
0 0
0 0
0 0
0 0
0 0
0 0
0 0
0 0
0 0
0 0
0 0
0 0
0 0
0 0
0 0
0 0
0 0
0 0
0 0
0 0
0 0
0 0
0 0
0 0
0 0
0 0
0 0
0 0
0 0
0 0
0 0
0 0
0 0
0 0
0 0
0 0
0 0
0 0
0 0
0 0
0 0
0 0
0 0
0 0
0 0
0 0
0 0
0 0
0 0
0 0
0 0
0 0
0 0
0 0
0 0
0 0
0 0
0 0
0 0
0 0
0 0
0 0
0 0
0 0
0 0
0 0
0 0
0 0
0 0
0 0
0 0
0 0
0 0
0 0
0 0
0 0
0 0
0 0
0 0
0 0
0 0
0 0
0 0
0 0
0 0
0 0
0 0
0 0
0 0
0 0
0 0
0 0
0 0
0 0
0 0
0 0
0 0
0 0
0 0
0 0
0 0
0 0
0 0
0 0
0 0
0 0
0 0
0 0
0 0
0 0
0 0
0 0
0 0
0 0
0 0
0 0
0 0
0 0
0 0
0 0
0 0
0 0
0 0
0 0
0 0
0 0
0 0
0 0
0 0
0 0
0 0
0 0
0 0
0 0
0 0
0 0
0 0
0 0
0 0
0 0
0 0
0 0
0 0
0 0
0 0
0 0
0 0
0 0
0 0
0 0
0 0
0 0
0 0
0 0
0 0
0 0
0 0
0 0
0 0
0 0
0 0
0 0
0 0
0 0
0 0
0 0
0 0
0 0
0 0
0 0
0 0
0 0
0 0
0 0
0 0
0 0
0 0
0 0
0 0
0 0
0 0
0 0
0 0
0 0
0 0
0 0
0 0
0 0
0 0
0 0
0 0
0 0
0 0
0 0
0 0
0 0
0 0
0 0
0 0
0 0
0 0
0 0
0 0
0 0
0 0
0 0
0 0
0 0
0 0
0 0
0 0
0 0
0 0
0 0
0 0
0 0
0 0
0 0
0 0
0 0
0 0
0 0
0 0
0 0
0 0
0 0
0 0
0 0
0 0
0 0
0 0
0 0
0 0
0 0
0 0
0 0
0 0
0 0
0 0
0 0
0 0
0 0
0 0
0 0
0 0
0 0
0 0
0 0
0 0
0 0
0 0
0 0
0 0
0 0
0 0
0 0
0 0
0 0
0 0
0 0
0 0
0 0
0 0
0 0
0 0
0 0
0 0
0 0
0 0
0 0
0 0
0 0
0 0
0 0
0 0
0 0
0 0
0 0
0 0
0 0
0 0
0 0
0 0
0 0
0 0
0 0
0 0
0 0
0 0
0 0
0 0
0 0
0 0
0 0
0 0
0 0
0 0
0 0
0 0
0 0
0 0
0 0
0 0
0 0
0 0
0 0
0 0
0 0
0 0
0 0
0 0
0 0
0 0
0 0
0 0
0 0
0 0
0 0
0 0
0 0
0 0
0 0
0 0
0 0
0 0
0 0
0 0
0 0
0 0
0 0
0 0
0 0
0 0
0 0
0 0
0 0
0 0
0 0
0 0
0 0
0 0
0 0
0 0
0 0
0 0
0 0
0 0
0 0
0 0
0 0
0 0
0 0
0 0
0 0
0 0
0 0
0 0
0 0
0 0
0 0
0 0
0 0
0 0
0 0
0 0
0 0
0 0
0 0
0 0
0 0
0 0
0 0
0 0
0 0
0 0
0 0
0 0
0 0
0 0
0 0
0 0
0 0
0 0
0 0
0 0
0 0
0 0
0 0
0 0
0 0
0 0
0 0
0 0
0 0
0 0
0 0
0 0
0 0
0 0
0 0
0 0
0 0
0 0
0 0
0 0
0 0
0 0
0 0
0 0
0 0
0 0
0 0
0 0
0 0
0 0
0 0
0 0
0 0
0 0
0 0
0 0
0 0
0 0
0 0
0 0
0 0
0 0
0 0
0 0
0 0
0 0
0 0
0 0
0 0
0 0
0 0
0 0
0 0
0 0
0 0
0 0
0 0
0 0
0 0
0 0
0 0
0 0
0 0
0 0
0 0
0 0
0 0
0 0
0 0
0 0
0 0
0 0
0 0
0 0
0 0
0 0
0 0
0 0
0 0
0 0
0 0
0 0
0 0
0 0
0 0
0 0
0 0
0 0
0 0
0 0
0 0
0 0
0 0
0 0
0 0
0 0
0 0
0 0
0 0
0 0
0 0
0 0
0 0
0 0
0 0
0 0
0 0
0 0
0 0
0 0
0 0
0 0
0 0
0 0
0 0
0 0
0 0
0 0
0 0
0 0
0 0
0 0
0 0
0 0
0 0
0 0
0 0
0 0
0 0
0 0
0 0
0 0
0 0
0 0
0 0
0 0
0 0
0 0
0 0
0 0
0 0
0 0
0 0
0 0
0 0
0 0
0 0
0 0
0 0
0 0
0 0
0 0
0 0
0 0
0 0
0 0
0 0
0 0
0 0
0 0
0 0
0 0
0 0
0 0
0 0
0 0
0 0
0 0
0 0
0 0
0 0
0 0
0 0
0 0
0 0
0 0
0 0
0 0
0 0
0 0
0 0
0 0
0 0
0 0
0 0
0 0
0 0
0 0
0 0
0 0
0 0
0 0
0 0
0 0
0 0
0 0
0 0
0 0
0 0
0 0
0 0
0 0
0 0
0 0
0 0
0 0
0 0
0 0
0 0
0 0
0 0
0 0
0 0
0 0
0 0
0 0
0 0
0 0
0 0
0 0
0 0
0 0
0 0
0 0
0 0
0 0
0 0
0 0
0 0
0 0
0 0
0 0
0 0
0 0
0 0
0 0
0 0
0 0
0 0
0 0
0 0
0 0
0 0
0 0
0 0
0 0
0 0
0 0
0 0
0 0
0 0
0 0
0 0
0 0
0 0
0 0
0 0
0 0
0 0
0 0
0 0
0 0
0 0
0 0
0 0
0 0
0 0
0 0
0 0
0 0
0 0
0 0
0 0
0 0
0 0
0 0
0 0
0 0
0 0
0 0
0 0
0 0
0 0
0 0
0 0
0 0
0 0
0 0
0 0
0 0
0 0
0 0
0 0
0 0
0 0
0 0
0 0
0 0
0 0
0 0
0 0
0 0
0 0
0 0
0 0
0 0
0 0
0 0
0 0
0 0
0 0
0 0
0 0
0 0
0 0
0 0
0 0
0 0
0 0
0 0
0 0
0 0
0 0
0 0
0 0
0 0
0 0
0 0
0 0
0 0
0 0
0 0
0 0
0 0
0 0
0 0
0 0
0 0
0 0
0 0
0 0
0 0
0 0
0 0
0 0
0 0
0 0
0 0
0 0
0 0
0 0
0 0
0 0
0 0
0 0
0 0
0 0
0 0
0 0
0 0
0 0
0 0
0 0
0 0
0 0
0 0
0 0
0 0
0 0
0 0
0 0
0 0
0 0
0 0
0 0
0 0
0 0
0 0
0 0
0 0
0 0
0 0
0 0
0 0
0 0
0 0
0 0
0 0
0 0
0 0
0 0
0 0
0 0
0 0
0 0
0 0
0 0
0 0
0 0
0 0
0 0
0 0
0 0
0 0
0 0
0 0
0 0
0 0
0 0
0 0
0 0
0 0
0 0
0 0
0 0
0 0
0 0
0 0
0 0
0 0
0 0
0 0
0 0
0 0
0 0
0 0
0 0
0 0
0 0
0 0
0 0
0 0
0 0
0 0
0 0
0 0
0 0
0 0
0 0
0 0
0 0
0 0
0 0
0 0
0 0
0 0
0 0
0 0
0 0
0 0
0 0
0 0
0 0
0 0
0 0
0 0
0 0
0 0
0 0
0 0
0 0
0 0
0 0
0 0
0 0
0 0
0 0
0 0
0 0
0 0
0 0
0 0
0 0
0 0
0 0
0 0
0 0
0 0
0 0
0 0
0 0
0 0
0 0
0 0
0 0
0 0
0 0
0 0
0 0
0 0
0 0
0 0
0 0
0 0
0 0
0 0
0 0
0 0
0 0
0 0
0 0
0 0
0 0
0 0
0 0
0 0
0 0
0 0
0 0
0 0
0 0
0 0
0 0
0 0
0 0
0 0
0 0
0 0
0 0
0 0
0 0
0 0
0 0
0 0
0 0
0 0
0 0
0 0
0 0
0 0
0 0
0 0
0 0
0 0
0 0
0 0
0 0
0 0
0 0
0 0
0 0
0 0
0 0
0 0
0 0
0 0
0 0
0 0
0 0
0 0
0 0
0 0
0 0
0 0
0 0
0 0
0 0
0 0
0 0
0 0
0 0
0 0
0 0
0 0
0 0
0 0
0 0
0 0
0 0
0 0
0 0
0 0
0 0
0 0
0 0
0 0
0 0
0 0
0 0
0 0
0 0
0 0
0 0
0 0
0 0
0 0
0 0
0 0
0 0
0 0
0 0
0 0
0 0
0 0
0 0
0 0
0 0
0 0
0 0
0 0
0 0
0 0
0 0
0 0
0 0
0 0
0 0
0 0
0 0
0 0
0 0
0 0
0 0
0 0
0 0
0 0
0 0
0 0
0 0
0 0
0 0
0 0
0 0
0 0
0 0
0 0
0 0
0 0
0 0
0 0
0 0
0 0
0 0
0 0
0 0
0 0
0 0
0 0
0 0
0 0
0 0
0 0
0 0
0 0
0 0
0 0
0 0
0 0
0 0
0 0
0 0
0 0
0 0
0 0
0 0
0 0
0 0
0 0
0 0
0 0
0 0
0 0
0 0
0 0
0 0
0 0
0 0
0 0
0 0
0 0
0 0
0 0
0 0
0 0
0 0
0 0
0 0
0 0
0 0
0 0
0 0
0 0
0 0
0 0
0 0
0 0
0 0
0 0
0 0
0 0
0 0
0 0
0 0
0 0
0 0
0 0
0 0
0 0
0 0
0 0
0 0
0 0
0 0
0 0
0 0
0 0
0 0
0 0
0 0
0 0
0 0
0 0
0 0
0 0
0 0
0 0
0 0
0 0
0 0
0 0
0 0
0 0
0 0
0 0
0 0
0 0
0 0
0 0
0 0
0 0
0 0
0 0
0 0
0 0
0 0
0 0
0 0
0 0
0 0
0 0
0 0
0 0
0 0
0 0
0 0
0 0
0 0
0 0
0 0
0 0
0 0
0 0
0 0
0 0
0 0
0 0
0 0
0 0
0 0
0 0
0 0
0 0
0 0
0 0
0 0
0 0
0 0
0 0
0 0
0 0
0 0
0 0
0 0
0 0
0 0
0 0
0 0
0 0
0 0
0 0
0 0
0 0
0 0
0 0
0 0
0 0
0 0
0 0
0 0
0 0
0 0
0 0
0 0
0 0
0 0
0 0
0 0
0 0
0 0
0 0
0 0
0 0
0 0
0 0
0 0
0 0
0 0
0 0
0 0
0 0
0 0
0 0
0 0
0 0
0 0
0 0
0 0
0 0
0 0
0 0
0 0
0 0
0 0
0 0
0 0
0 0
0 0
0 0
0 0
0 0
0 0
0 0
0 0
0 0
0 0
0 0
0 0
0 0
0 0
0 0
0 0
0 0
0 0
0 0
0 0
0 0
0 0
0 0
0 0
0 0
0 0
0 0
0 0
0 0
0 0
0 0
0 0
0 0
0 0
0 0
0 0
0 0
0 0
0 0
0 0
0 0
0 0
0 0
0 0
0 0
0 0
0 0
0 0
0 0
0 0
0 0
0 0
0 0
0 0
0 0
0 0
0 0
0 0
0 0
0 0
0 0
0 0
0 0
0 0
0 0
0 0
0 0
0 0
0 0
0 0
0 0
0 0
0 0
0 0
0 0
0 0
0 0
0 0
0 0
0 0
0 0
0 0
0 0
0 0
0 0
0 0
0 0
0 0
0 0
0 0
0 0
0 0
0 0
0 0
0 0
0 0
0 0
0 0
0 0
0 0
0 0
0 0
0 0
0 0
0 0
0 0
0 0
0 0
0 0
0 0
0 0
0 0
0 0
0 0
0 0
0 0
0 0
0 0
0 0
0 0
0 0
0 0
0 0
0 0
0 0
0 0
0 0
0 0
0 0
0 0
0 0
0 0
0 0
0 0
0 0
0 0
0 0
0 0
0 0
0 0
0 0
0 0
0 0
0 0
0 0
0 0
0 0
0 0
0 0
0 0
0 0
0 0
0 0
0 0
0 0
0 0
0 0
0 0
0 0
0 0
0 0
0 0
0 0
0 0
0 0
0 0
0 0
0 0
0 0
0 0
0 0
0 0
0 0
0 0
0 0
0 0
0 0
0 0
0 0
0 0
0 0
0 0
0 0
0 0
0 0
0 0
0 0
0 0
0 0
0 0
0 0
0 0
0 0
0 0
0 0
0 0
0 0
0 0
0 0
0 0
0 0
0 0
0 0
0 0
0 0
0 0
0 0
0 0
0 0
0 0
0 0
0 0
0 0
0 0
0 0
0 0
0 0
0 0
0 0
0 0
0 0
0 0
0 0
0 0
0 0
0 0
0 0
0 0
0 0
0 0
0 0
0 0
0 0
0 0
0 0
0 0
0 0
0 0
0 0
0 0
0 0
0 0
0 0
0 0
0 0
0 0
0 0
0 0
0 0
0 0
0 0
0 0
0 0
0 0
0 0
0 0
0 0
0 0
0 0
0 0
0 0
0 0
0 0
0 0
0 0
0 0
0 0
0 0
0 0
0 0
0 0
0 0
0 0
0 0
0 0
0 0
0 0
0 0
0 0
0 0
0 0
0 0
0 0
0 0
0 0
0 0
0 0
0 0
0 0
0 0
0 0
0 0
0 0
0 0
0 0
0 0
0 0
0 0
0 0
0 0
0 0
0 0
0 0
0 0
0 0
0 0
0 0
0 0
0 0
0 0
0 0
0 0
0 0
0 0
0 0
0 0
0 0
0 0
0 0
0 0
0 0
0 0
0 0
0 0
0 0
0 0
0 0
0 0
0 0
0 0
0 0
0 0
0 0
0 0
0 0
0 0
0 0
0 0
0 0
0 0
0 0
0 0
0 0
0 0
0 0
0 0
0 0
0 0
0 0
0 0
0 0
0 0
0 0
0 0
0 0
0 0
0 0
0 0
0 0
0 0
0 0
0 0
0 0
0 0
0 0
0 0
0 0
0 0
0 0
0 0
0 0
0 0
0 0
0 0
0 0
0 0
0 0
0 0
0 0
0 0
0 0
0 0
0 0
0 0
0 0
0 0
0 0
0 0
0 0
0 0
0 0
0 0
0 0
0 0
0 0
0 0
0 0
0 0
0 0
0 0
0 0
0 0
0 0
0 0
0 0
0 0
0 0
0 0
0 0
0 0
0 0
0 0
0 0
0 0
0 0
0 0
0 0
0 0
0 0
0 0
0 0
0 0
0 0
0 0
0 0
0 0
0 0
0 0
0 0
0 0
0 0
0 0
0 0
0 0
0 0
0 0
0 0
0 0
0 0
0 0
0 0
0 0
0 0
0 0
0 0
0 0
0 0
0 0
0 0
0 0
0 0
0 0
0 0
0 0
0 0
0 0
0 0
0 0
0 0
0 0
0 0
0 0
0 0
0 0
0 0
0 0
0 0
0 0
0 0
0 0
0 0
0 0
0 0
0 0
0 0
0 0
0 0
0 0
0 0
0 0
0 0
0 0
0 0
0 0
0 0
0 0
0 0
0 0
0 0
0 0
0 0
0 0
0 0
0 0
0 0
0 0
0 0
0 0
0 0
0 0
0 0
0 0
0 0
0 0
0 0
0 0
0 0
0 0
0 0
0 0
0 0
0 0
0 0
0 0
0 0
0 0
0 0
0 0
0 0
0 0
0 0
0 0
0 0
0 0
0 0
0 0
0 0
0 0
0 0
0 0
0 0
0 0
0 0
0 0
0 0
0 0
0 0
0 0
0 0
0 0
0 0
0 0
0 0
0 0
0 0
0 0
0 0
0 0
0 0
0 0
0 0
0 0
0 0
0 0
0 0
0 0
0 0
0 0
0 0
0 0
0 0
0 0
0 0
0 0
0 0
0 0
0 0
0 0
0 0
0 0
0 0
0 0
0 0
0 0
0 0
0 0
0 0
0 0
0 0
0 0
0 0
0 0
0 0
0 0
0 0
0 0
0 0
0 0
0 0
0 0
0 0
0 0
0 0
0 0
0 0
0 0
0 0
0 0
0 0
0 0
0 0
0 0
0 0
0 0
0 0
0 0
0 0
0 0
0 0
0 0
0 0
0 0
0 0
0 0
0 0
0 0
0 0
0 0
0 0
0 0
0 0
0 0
0 0
0 0
0 0
0 0
0 0
0 0
0 0
0 0
0 0
0 0
0 0
0 0
0 0
0 0
0 0
0 0
0 0
0 0
0 0
0 0
0 0
0 0
0 0
0 0
0 0
0 0
0 0
0 0
0 0
0 0
0 0
0 0
0 0
0 0
0 0
0 0
0 0
0 0
0 0
0 0
0 0
0 0
0 0
0 0
0 0
0 0
0 0
0 0
0 0
0 0
0 0
0 0
0 0
0 0
0 0
0 0
0 0
0 0
0 0
0 0
0 0
0 0
0 0
0 0
0 0
0 0
0 0
0 0
0 0
0 0
0 0
0 0
0 0
0 0
0 0
0 0
0 0
0 0
0 0
0 0
0 0
0 0
0 0
0 0
0 0
0 0
0 0
0 0
0 0
0 0
0 0
0 0
0 0
0 0
0 0
0 0
0 0
0 0
0 0
0 0
0 0
0 0
0 0
0 0
0 0
0 0
0 0
0 0
0 0
0 0
0 0
0 0
0 0
0 0
0 0
0 0
0 0
0 0
0 0
0 0
0 0
0 0
0 0
0 0
0 0
0 0
0 0
0 0
0 0
0 0
0 0
0 0
0 0
0 0
0 0
0 0
0 0
0 0
0 0
0 0
0 0
0 0
0 0
0 0
0 0
0 0
0 0
0 0
0 0
0 0
0 0
0 0
0 0
0 0
0 0
0 0
0 0
0 0
0 0
0 0
0 0
0 0
0 0
0 0
0 0
0 0
0 0
0 0
0 0
0 0
0 0
0 0
0 0
0 0
0 0
0 0
0 0
0 0
0 0
0 0
0 0
0 0
0 0
0 0
0 0
0 0
0 0
0 0
0 0
0 0
0 0
0 0
0 0
0 0
0 0
0 0
0 0
0 0
0 0
0 0
0 0
0 0
0 0
0 0
0 0
0 0
0 0
0 0
0 0
0 0
0 0
0 0
0 0
0 0
0 0
0 0
0 0
0 0
0 0
0 0
0 0
0 0
0 0
0 0
0 0
0 0
0 0
0 0
0 0
0 0
0 0
0 0
0 0
0 0
0 0
0 0
0 0
0 0
0 0
0 0
0 0
0 0
0 0
0 0
0 0
0 0
0 0
0 0
0 0
0 0
0 0
0 0
0 0
0 0
0 0
0 0
0 0
0 0
0 0
0 0
0 0
0 0
0 0
0 0
0 0
0 0
0 0
0 0
0 0
0 0
0 0
0 0
0 0
0 0
0 0
0 0
0 0
0 0
0 0
0 0
0 0
0 0
0 0
0 0
0 0
0 0
0 0
0 0
0 0
0 0
0 0
0 0
0 0
0 0
0 0
0 0
0 0
0 0
0 0
0 0
0 0
0 0
0 0
0 0
0 0
0 0
0 0
0 0
0 0
0 0
0 0
0 0
0 0
0 0
0 0
0 0
0 0
0 0
0 0
0 0
0 0
0 0
0 0
0 0
0 0
0 0
0 0
0 0
0 0
0 0
0 0
0 0
0 0
0 0
0 0
0 0
0 0
0 0
0 0
0 0
0 0
0 0
0 0
0 0
0 0
0 0
0 0
0 0
0 0
0 0
0 0
0 0
0 0
0 0
0 0
0 0
0 0
0 0
0 0
0 0
0 0
0 0
0 0
0 0
0 0
0 0
0 0
0 0
0 0
0 0
0 0
0 0
0 0
0 0
0 0
0 0
0 0
0 0
0 0
0 0
0 0
0 0
0 0
0 0
0 0
0 0
0 0
0 0
0 0
0 0
0 0
0 0
0 0
0 0
0 0
0 0
0 0
0 0
0 0
0 0
0 0
0 0
0 0
0 0
0 0
0 0
0 0
0 0
0 0
0 0
0 0
0 0
0 0
0 0
0 0
0 0
0 0
0 0
0 0
0 0
0 0
0 0
0 0
0 0
0 0
0 0
0 0
0 0
0 0
0 0
0 0
0 0
0 0
0 0
0 0
0 0
0 0
0 0
0 0
0 0
0 0
0 0
0 0
0 0
0 0
0 0
0 0
0 0
0 0
0 0
0 0
0 0
0 0
0 0
0 0
0 0
0 0
0 0
0 0
0 0
0 0
0 0
0 0
0 0
0 0
0 0
0 0
0 0
0 0
0 0
0 0
0 0
0 0
0 0
0 0
0 0
0 0
0 0
0 0
0 0
0 0
0 0
0 0
0 0
0 0
0 0
0 0
0 0
0 0
0 0
0 0
0 0
0 0
0 0
0 0
0 0
0 0
0 0
0 0
0 0
0 0
0 0
0 0
0 0
0 0
0 0
0 0
0 0
0 0
0 0
0 0
0 0
0 0
0 0
0 0
0 0
0 0
0 0
0 0
0 0
0 0
0 0
0 0
0 0
0 0
0 0
0 0
0 0
0 0
0 0
0 0
0 0
0 0
0 0
0 0
0 0
0 0
0 0
0 0
0 0
0 0
0 0
0 0
0 0
0 0
0 0
0 0
0 0
0 0
0 0
0 0
0 0
0 0
0 0
0 0
0 0
0 0
0 0
0 0
0 0
0 0
0 0
0 0
0 0
0 0
0 0
0 0
0 0
0 0
0 0
0 0
0 0
0 0
0 0
0 0
0 0
0 0
0 0
0 0
0 0
0 0
0 0
0 0
0 0
0 0
0 0
0 0
0 0
0 0
0 0
0 0
0 0
0 0
0 0
0 0
0 0
0 0
0 0
0 0
0 0
0 0
0 0
0 0
0 0
0 0
0 0
0 0
0 0
0 0
0 0
0 0
0 0
0 0
0 0
0 0
0 0
0 0
0 0
0 0
0 0
0 0
0 0
0 0
0 0
0 0
0 0
0 0
0 0
0 0
0 0
0 0
0 0
0 0
0 0
0 0
0 0
0 0
0 0
0 0
0 0
0 0
0 0
0 0
0 0
0 0
0 0
0 0
0 0
0 0
0 0
0 0
0 0
0 0
0 0
0 0
0 0
0 0
0 0
0 0
0 0
0 0
0 0
0 0
0 0
0 0
0 0
0 0
0 0
0 0
0 0
0 0
0 0
0 0
0 0
0 0
0 0
0 0
0 0
0 0
0 0
0 0
0 0
0 0
0 0
0 0
0 0
0 0
0 0
0 0
0 0
0 0
0 0
0 0
0 0
0 0
0 0
0 0
0 0
0 0
0 0
0 0
0 0
0 0
0 0
0 0
0 0
0 0
0 0
0 0
0 0
0 0
0 0
0 0
0 0
0 0
0 0
0 0
0 0
0 0
0 0
0 0
0 0
0 0
0 0
0 0
0 0
0 0
0 0
0 0
0 0
0 0
0 0
0 0
0 0
0 0
0 0
0 0
0 0
0 0
0 0
0 0
0 0
0 0
0 0
0 0
0 0
0 0
0 0
0 0
0 0
0 0
0 0
0 0
0 0
0 0
0 0
0 0
0 0
0 0
0 0
0 0
0 0
0 0
0 0
0 0
0 0
0 0
0 0
0 0
0 0
0 0
0 0
0 0
0 0
0 0
0 0
0 0
0 0
0 0
0 0
0 0
0 0
0 0
0 0
0 0
0 0
0 0
0 0
0 0
0 0
0 0
0 0
0 0
0 0
0 0
0 0
0 0
0 0
0 0
0 0
0 0
0 0
0 0
0 0
0 0
0 0
0 0
0 0
0 0
0 0
0 0
0 0
0 0
0 0
0 0
0 0
0 0
0 0
0 0
0 0
0 0
0 0
0 0
0 0
0 0
0 0
0 0
0 0
0 0
0 0
0 0
0 0
0 0
0 0
0 0
0 0
0 0
0 0
0 0
0 0
0 0
0 0
0 0
0 0
0 0
0 0
0 0
0 0
0 0
0 0
0 0
0 0
0 0
0 0
0 0
0 0
0 0
0 0
0 0
0 0
0 0
0 0
0 0
0 0
0 0
0 0
0 0
0 0
0 0
0 0
0 0
0 0
0 0
0 0
0 0
0 0
0 0
0 0
0 0
0 0
0 0
0 0
0 0
0 0
0 0
0 0
0 0
0 0
0 0
0 0
0 0
0 0
0 0
0 0
0 0
0 0
0 0
0 0
0 0
0 0
0 0
0 0
0 0
0 0
0 0
0 0
0 0
0 0
0 0
0 0
0 0
0 0
0 0
0 0
0 0
0 0
0 0
0 0
0 0
0 0
0 0
0 0
0 0
0 0
0 0
0 0
0 0
0 0
0 0
0 0
0 0
0 0
0 0
0 0
0 0
0 0
0 0
0 0
0 0
0 0
0 0
0 0
0 0
0 0
0 0
0 0
0 0
0 0
0 0
0 0
0 0
0 0
0 0
0 0
0 0
0 0
0 0
0 0
0 0
0 0
0 0
0 0
0 0
0 0
0 0
0 0
0 0
0 0
0 0
0 0
0 0
0 0
0 0
0 0
0 0
0 0
0 0
0 0
0 0
0 0
0 0
0 0
0 0
0 0
0 0
0 0
0 0
0 0
0 0
0 0
0 0
0 0
0 0
0 0
0 0
0 0
0 0
0 0
0 0
0 0
0 0
0 0
0 0
0 0
0 0
0 0
0 0
0 0
0 0
0 0
0 0
0 0
0 0
0 0
0 0
0 0
0 0
0 0
0 0
0 0
0 0
0 0
0 0
0 0
0 0
0 0
0 0
0 0
0 0
0 0
0 0
0 0
0 0
0 0
0 0
0 0
0 0
0 0
0 0
0 0
0 0
0 0
0 0
0 0
0 0
0 0
0 0
0 0
0 0
0 0
0 0
0 0
0 0
0 0
0 0
0 0
0 0
0 0
0 0
0 0
0 0
0 0
0 0
0 0
0 0
0 0
0 0
0 0
0 0
0 0
0 0
0 0
0 0
0 0
0 0
0 0
0 0
0 0
0 0
0 0
0 0
0 0
0 0
0 0
0 0
0 0
0 0
0 0
0 0
0 0
0 0
0 0
0 0
0 0
0 0
0 0
0 0
0 0
0 0
0 0
0 0
0 0
0 0
0 0
0 0
0 0
0 0
0 0
0 0
0 0
0 0
0 0
0 0
0 0
0 0
0 0
0 0
0 0
0 0
0 0
0 0
0 0
0 0
0 0
0 0
0 0
0 0
0 0
0 0
0 0
0 0
0 0
0 0
0 0
0 0
0 0
0 0
0 0
0 0
0 0
0 0
0 0
0 0
0 0
0 0
0 0
0 0
0 0
0 0
0 0
0 0
0 0
0 0
0 0
0 0
0 0
0 0
0 0
0 0
0 0
0 0
0 0
0 0
0 0
0 0
0 0
0 0
0 0
0 0
0 0
0 0
0 0
0 0
0 0
0 0
0 0
0 0
0 0
0 0
0 0
0 0
0 0
0 0
0 0
0 0
0 0
0 0
0 0
0 0
0 0
0 0
0 0
0 0
0 0
0 0
0 0
0 0
0 0
0 0
0 0
0 0
0 0
0 0
0 0
0 0
0 0
0 0
0 0
0 0
0 0
0 0
0 0
0 0
0 0
0 0
0 0
0 0
0 0
0 0
0 0
0 0
0 0
0 0
0 0
0 0
0 0
0 0
0 0
0 0
0 0
0 0
0 0
0 0
0 0
0 0
0 0
0 0
0 0
0 0
0 0
0 0
0 0
0 0
0 0
0 0
0 0
0 0
0 0
0 0
0 0
0 0
0 0
0 0
0 0
0 0
0 0
0 0
0 0
0 0
0 0
0 0
0 0
0 0
0 0
0 0
0 0
0 0
0 0
0 0
0 0
0 0
0 0
0 0
0 0
0 0
0 0
0 0
0 0
0 0
0 0
0 0
0 0
0 0
0 0
0 0
0 0
0 0
0 0
0 0
0 0
0 0
0 0
0 0
0 0
0 0
0 0
0 0
0 0
0 0
0 0
0 0
0 0
0 0
0 0
0 0
0 0
0 0
0 0
0 0
0 0
0 0
0 0
0 0
0 0
0 0
0 0
0 0
0 0
0 0
0 0
0 0
0 0
0 0
0 0
0 0
0 0
0 0
0 0
0 0
0 0
0 0
0 0
0 0
0 0
0 0
0 0
0 0
0 0
0 0
0 0
0 0
0 0
0 0
0 0
0 0
0 0
0 0
0 0
0 0
0 0
0 0
0 0
0 0
0 0
0 0
0 0
0 0
0 0
0 0
0 0
0 0
0 0
0 0
0 0
0 0
0 0
0 0
0 0
0 0
0 0
0 0
0 0
0 0
0 0
0 0
0 0
0 0
0 0
0 0
0 0
0 0
0 0
0 0
0 0
0 0
0 0
0 0
0 0
0 0
0 0
0 0
0 0
0 0
0 0
0 0
0 0
0 0
0 0
0 0
0 0
0 0
0 0
0 0
0 0
0 0
0 0
0 0
0 0
0 0
0 0
0 0
0 0
0 0
0 0
0 0
0 0
0 0
0 0
0 0
0 0
0 0
0 0
0 0
0 0
0 0
0 0
0 0
0 0
0 0
0 0
0 0
0 0
0 0
0 0
0 0
0 0
0 0
0 0
0 0
0 0
0 0
0 0
0 0
0 0
0 0
0 0
0 0
0 0
0 0
0 0
0 0
0 0
0 0
0 0
0 0
0 0
0 0
0 0
0 0
0 0
0 0
0 0
0 0
0 0
0 0
0 0
0 0
0 0
0 0
0 0
0 0
0 0
0 0
0 0
0 0
0 0
0 0
0 0
0 0
0 0
0 0
0 0
0 0
0 0
0 0
0 0
0 0
0 0
0 0
0 0
0 0
0 0
0 0
0 0
0 0
0 0
0 0
0 0
0 0
0 0
0 0
0 0
0 0
0 0
0 0
0 0
0 0
0 0
0 0
0 0
0 0
0 0
0 0
0 0
0 0
0 0
0 0
0 0
0 0
0 0
0 0
0 0
0 0
0 0
0 0
0 0
0 0
0 0
0 0
0 0
0 0
0 0
0 0
0 0
0 0
0 0
0 0
0 0
0 0
0 0
0 0
0 0
0 0
0 0
0 0
0 0
0 0
0 0
0 0
0 0
0 0
0 0
0 0
0 0
0 0
0 0
0 0
0 0
0 0
0 0
0 0
0 0
0 0
0 0
0 0
0 0
0 0
0 0
0 0
0 0
0 0
0 0
0 0
0 0
0 0
0 0
0 0
0 0
0 0
0 0
0 0
0 0
0 0
0 0
0 0
0 0
0 0
0 0
0 0
0 0
0 0
0 0
0 0
0 0
0 0
0 0
0 0
0 0
0 0
0 0
0 0
0 0
0 0
0 0
0 0
0 0
0 0
0 0
0 0
0 0
0 0
0 0
0 0
0 0
0 0
0 0
0 0
0 0
0 0
0 0
0 0
0 0
0 0
0 0
0 0
0 0
0 0
0 0
0 0
0 0
0 0
0 0
0 0
0 0
0 0
0 0
0 0
0 0
0 0
0 0
0 0
0 0
0 0
0 0
0 0
0 0
0 0
0 0
0 0
0 0
0 0
0 0
0 0
0 0
0 0
0 0
0 0
0 0
0 0
0 0
0 0
0 0
0 0
0 0
0 0
0 0
0 0
0 0
0 0
0 0
0 0
0 0
0 0
0 0
0 0
0 0
0 0
0 0
0 0
0 0
0 0
0 0
0 0
0 0
0 0
0 0
0 0
0 0
0 0
0 0
0 0
0 0
0 0
0 0
0 0
0 0
0 0
0 0
0 0
0 0
0 0
0 0
0 0
0 0
0 0
0 0
0 0
0 0
0 0
0 0
0 0
0 0
0 0
0 0
0 0
0 0
0 0
0 0
0 0
0 0
0 0
0 0
0 0
0 0
0 0
0 0
0 0
0 0
0 0
0 0
0 0
0 0
0 0
0 0
0 0
0 0
0 0
0 0
0 0
0 0
0 0
0 0
0 0
0 0
0 0
0 0
0 0
0 0
0 0
0 0
0 0
0 0
0 0
0 0
0 0
0 0
0 0
0 0
0 0
0 0
0 0
0 0
0 0
0 0
0 0
0 0
0 0
0 0
0 0
0 0
0 0
0 0
0 0
0 0
0 0
0 0
0 0
0 0
0 0
0 0
0 0
0 0
0 0
0 0
0 0
0 0
0 0
0 0
0 0
0 0
0 0
0 0
0 0
0 0
0 0
0 0
0 0
0 0
0 0
0 0
0 0
0 0
0 0
0 0
0 0
0 0
0 0
0 0
0 0
0 0
0 0
0 0
0 0
0 0
0 0
0 0
0 0
0 0
0 0
0 0
0 0
0 0
0 0
0 0
0 0
0 0
0 0
0 0
0 0
0 0
0 0
0 0
0 0
0 0
0 0
0 0
0 0
0 0
0 0
0 0
0 0
0 0
0 0
0 0
0 0
0 0
0 0
0 0
0 0
0 0
0 0
0 0
0 0
0 0
0 0
0 0
0 0
0 0
0 0
0 0
0 0
0 0
0 0
0 0
0 0
0 0
0 0
0 0
0 0
0 0
0 0
0 0
0 0
0 0
0 0
0 0
0 0
0 0
0 0
0 0
0 0
0 0
0 0
0 0
0 0
0 0
0 0
0 0
0 0
0 0
0 0
0 0
0 0
0 0
0 0
0 0
0 0
0 0
0 0
0 0
0 0
0 0
0 0
0 0
0 0
0 0
0 0
0 0
0 0
0 0
0 0
0 0
0 0
0 0
0 0
0 0
0 0
0 0
0 0
0 0
0 0
0 0
0 0
0 0
0 0
0 0
0 0
0 0
0 0
0 0
0 0
0 0
0 0
0 0
0 0
0 0
0 0
0 0
0 0
0 0
0 0
0 0
0 0
0 0
0 0
0 0
0 0
0 0
0 0
0 0
0 0
0 0
0 0
0 0
0 0
0 0
0 0
0 0
0 0
0 0
0 0
0 0
0 0
0 0
0 0
0 0
0 0
0 0
0 0
0 0
0 0
0 0
0 0
0 0
0 0
0 0
0 0
0 0
0 0
0 0
0 0
0 0
0 0
0 0
0 0
0 0
0 0
0 0
0 0
0 0
0 0
0 0
0 0
0 0
0 0
0 0
0 0
0 0
0 0
0 0
0 0
0 0
0 0
0 0
0 0
0 0
0 0
0 0
0 0
0 0
0 0
0 0
0 0
0 0
0 0
0 0
0 0
0 0
0 0
0 0
0 0
0 0
0 0
0 0
0 0
0 0
0 0
0 0
0 0
0 0
0 0
0 0
0 0
0 0
0 0
0 0
0 0
0 0
0 0
0 0
0 0
0 0
0 0
0 0
0 0
0 0
0 0
0 0
0 0
0 0
0 0
0 0
0 0
0 0
0 0
0 0
0 0
0 0
0 0
0 0
0 0
0 0
0 0
0 0
0 0
0 0
0 0
0 0
0 0
0 0
0 0
0 0
0 0
0 0
0 0
0 0
0 0
0 0
0 0
0 0
0 0
0 0
0 0
0 0
0 0
0 0
0 0
0 0
0 0
0 0
0 0
0 0
0 0
0 0
0 0
0 0
0 0
0 0
0 0
0 0
0 0
0 0
0 0
0 0
0 0
0 0
0 0
0 0
0 0
0 0
0 0
0 0
0 0
0 0
0 0
0 0
0 0
0 0
0 0
0 0
0 0
0 0
0 0
0 0
0 0
0 0
0 0
0 0
0 0
0 0
0 0
0 0
0 0
0 0
0 0
0 0
0 0
0 0
0 0
0 0
0 0
0 0
0 0
0 0
0 0
0 0
0 0
0 0
0 0
0 0
0 0
0 0
0 0
0 0
0 0
0 0
0 0
0 0
0 0
0 0
0 0
0 0
0 0
0 0
0 0
0 0
0 0
0 0
0 0
0 0
0 0
0 0
0 0
0 0
0 0
0 0
0 0
0 0
0 0
0 0
0 0
0 0
0 0
0 0
0 0
0 0
0 0
0 0
0 0
0 0
0 0
0 0
0 0
0 0
0 0
0 0
0 0
0 0
0 0
0 0
0 0
0 0
0 0
0 0
0 0
0 0
0 0
0 0
0 0
0 0
0 0
0 0
0 0
0 0
0 0
0 0
0 0
0 0
0 0
0 0
0 0
0 0
0 0
0 0
0 0
0 0
0 0
0 0
0 0
0 0
0 0
0 0
0 0
0 0
0 0
0 0
0 0
0 0
0 0
0 0
0 0
0 0
0 0
0 0
0 0
0 0
0 0
0 0
0 0
0 0
0 0
0 0
0 0
0 0
0 0
0 0
0 0
0 0
0 0
0 0
0 0
0 0
0 0
0 0
0 0
0 0
0 0
0 0
0 0
0 0
0 0
0 0
0 0
0 0
0 0
0 0
0 0
0 0
0 0
0 0
0 0
0 0
0 0
0 0
0 0
0 0
0 0
0 0
0 0
0 0
0 0
0 0
0 0
0 0
0 0
0 0
0 0
0 0
0 0
0 0
0 0
0 0
0 0
0 0
0 0
0 0
0 0
0 0
0 0
0 0
0 0
0 0
0 0
0 0
0 0
0 0
0 0
0 0
0 0
0 0
0 0
0 0
0 0
0 0
0 0
0 0
0 0
0 0
0 0
0 0
0 0
0 0
0 0
0 0
0 0
0 0
0 0
0 0
0 0
0 0
0 0
0 0
0 0
0 0
0 0
0 0
0 0
0 0
0 0
0 0
0 0
0 0
0 0
0 0
0 0
0 0
0 0
0 0
0 0
0 0
0 0
0 0
0 0
0 0
0 0
0 0
0 0
0 0
0 0
0 0
0 0
0 0
0 0
0 0
0 0
0 0
0 0
0 0
0 0
0 0
0 0
0 0
0 0
0 0
0 0
0 0
0 0
0 0
0 0
0 0
0 0
0 0
0 0
0 0
0 0
0 0
0 0
0 0
0 0
0 0
0 0
0 0
0 0
0 0
0 0
0 0
0 0
0 0
0 0
0 0
0 0
0 0
0 0
0 0
0 0
0 0
0 0
0 0
0 0
0 0
0 0
0 0
0 0
0 0
0 0
0 0
0 0
0 0
0 0
0 0
0 0
0 0
0 0
0 0
0 0
0 0
0 0
0 0
0 0
0 0
0 0
0 0
0 0
0 0
0 0
0 0
0 0
0 0
0 0
0 0
0 0
0 0
0 0
0 0
0 0
0 0
0 0
0 0
0 0
0 0
0 0
0 0
0 0
0 0
0 0
0 0
0 0
0 0
0 0
0 0
0 0
0 0
0 0
0 0
0 0
0 0
0 0
0 0
0 0
0 0
0 0
0 0
0 0
0 0
0 0
0 0
0 0
0 0
0 0
0 0
0 0
0 0
0 0
0 0
0 0
0 0
0 0
0 0
0 0
0 0
0 0
0 0
0 0
0 0
0 0
0 0
0 0
0 0
0 0
0 0
0 0
0 0
0 0
0 0
0 0
0 0
0 0
0 0
0 0
0 0
0 0
0 0
0 0
0 0
0 0
0 0
0 0
0 0
0 0
0 0
0 0
0 0
0 0
0 0
0 0
0 0
0 0
0 0
0 0
0 0
0 0
0 0
0 0
0 0
0 0
0 0
0 0
0 0
0 0
0 0
0 0
0 0
0 0
0 0
0 0
0 0
0 0
0 0
0 0
0 0
0 0
0 0
0 0
0 0
0 0
0 0
0 0
0 0
0 0
0 0
0 0
0 0
0 0
0 0
0 0
0 0
0 0
0 0
0 0
0 0
0 0
0 0
0 0
0 0
0 0
0 0
0 0
0 0
0 0
0 0
0 0
0 0
0 0
0 0
0 0
0 0
0 0
0 0
0 0
0 0
0 0
0 0
0 0
0 0
0 0
0 0
0 0
0 0
0 0
0 0
0 0
0 0
0 0
0 0
0 0
0 0
0 0
0 0
0 0
0 0
0 0
0 0
0 0
0 0
0 0
0 0
0 0
0 0
0 0
0 0
0 0
0 0
0 0
0 0
0 0
0 0
0 0
0 0
0 0
0 0
0 0
0 0
0 0
0 0
0 0
0 0
0 0
0 0
0 0
0 0
0 0
0 0
0 0
0 0
0 0
0 0
0 0
0 0
0 0
0 0
0 0
0 0
0 0
0 0
0 0
0 0
0 0
0 0
0 0
0 0
0 0
0 0
0 0
0 0
0 0
0 0
0 0
0 0
0 0
0 0
0 0
0 0
0 0
0 0
0 0
0 0
0 0
0 0
0 0
0 0
0 0
0 0
0 0
0 0
0 0
0 0
0 0
0 0
0 0
0 0
0 0
0 0
0 0
0 0
0 0
0 0
0 0
0 0
0 0
0 0
0 0
0 0
0 0
0 0
0 0
0 0
0 0
0 0
0 0
0 0
0 0
0 0
0 0
0 0
0 0
0 0
0 0
0 0
0 0
0 0
0 0
0 0
0 0
0 0
0 0
0 0
0 0
0 0
0 0
0 0
0 0
0 0
0 0
0 0
0 0
0 0
0 0
0 0
0 0
0 0
0 0
0 0
0 0
0 0
0 0
0 0
0 0
0 0
0 0
0 0
0 0
0 0
0 0
0 0
0 0
0 0
0 0
0 0
0 0
0 0
0 0
0 0
0 0
0 0
0 0
0 0
0 0
0 0
0 0
0 0
0 0
0 0
0 0
0 0
0 0
0 0
0 0
0 0
0 0
0 0
0 0
0 0
0 0
0 0
0 0
0 0
0 0
0 0
0 0
0 0
0 0
0 0
0 0
0 0
0 0
0 0
0 0
0 0
0 0
0 0
0 0
0 0
0 0
0 0
0 0
0 0
0 0
0 0
0 0
0 0
0 0
0 0
0 0
0 0
0 0
0 0
0 0
0 0
0 0
0 0
0 0
0 0
0 0
0 0
0 0
0 0
0 0
0 0
0 0
0 0
0 0
0 0
0 0
0 0
0 0
0 0
0 0
0 0
0 0
0 0
0 0
0 0
0 0
0 0
0 0
0 0
0 0
0 0
0 0
0 0
0 0
0 0
0 0
0 0
0 0
0 0
0 0
0 0
0 0
0 0
0 0
0 0
0 0
0 0
0 0
0 0
0 0
0 0
0 0
0 0
0 0
0 0
0 0
0 0
0 0
0 0
0 0
0 0
0 0
0 0
0 0
0 0
0 0
0 0
0 0
0 0
0 0
0 0
0 0
0 0
0 0
0 0
0 0
0 0
0 0
0 0
0 0
0 0
0 0
0 0
0 0
0 0
0 0
0 0
0 0
0 0
0 0
0 0
0 0
0 0
0 0
0 0
0 0
0 0
0 0
0 0
0 0
0 0
0 0
0 0
0 0
0 0
0 0
0 0
0 0
0 0
0 0
0 0
0 0
0 0
0 0
0 0
0 0
0 0
0 0
0 0
0 0
0 0
0 0
0 0
0 0
0 0
0 0
0 0
0 0
0 0
0 0
0 0
0 0
0 0
0 0
0 0
0 0
0 0
0 0
0 0
0 0
0 0
0 0
0 0
0 0
0 0
0 0
0 0
0 0
0 0
0 0
0 0
0 0
0 0
0 0
0 0
0 0
0 0
0 0
0 0
0 0
0 0
0 0
0 0
0 0
0 0
0 0
0 0
0 0
0 0
0 0
0 0
0 0
0 0
0 0
0 0
0 0
0 0
0 0
0 0
0 0
0 0
0 0
0 0
0 0
0 0
0 0
0 0
0 0
0 0
0 0
0 0
0 0
0 0
0 0
0 0
0 0
0 0
0 0
0 0
0 0
0 0
0 0
0 0
0 0
0 0
0 0
0 0
0 0
0 0
0 0
0 0
0 0
0 0
0 0
0 0
0 0
0 0
0 0
0 0
0 0
0 0
0 0
0 0
0 0
0 0
0 0
0 0
0 0
0 0
0 0
0 0
0 0
0 0
0 0
0 0
0 0
0 0
0 0
0 0
0 0
0 0
0 0
0 0
0 0
0 0
0 0
0 0
0 0
0 0
0 0
0 0
0 0
0 0
0 0
0 0
0 0
0 0
0 0
0 0
0 0
0 0
0 0
0 0
0 0
0 0
0 0
0 0
0 0
0 0
0 0
0 0
0 0
0 0
0 0
0 0
0 0
0 0
0 0
0 0
0 0
0 0
0 0
0 0
0 0
0 0
0 0
0 0
0 0
0 0
0 0
0 0
0 0
0 0
0 0
0 0
0 0
0 0
0 0
0 0
0 0
0 0
0 0
0 0
0 0
0 0
0 0
0 0
0 0
0 0
0 0
0 0
0 0
0 0
0 0
0 0
0 0
0 0
0 0
0 0
0 0
0 0
0 0
0 0
0 0
0 0
0 0
0 0
0 0
0 0
0 0
0 0
0 0
0 0
0 0
0 0
0 0
0 0
0 0
0 0
0 0
0 0
0 0
0 0
0 0
0 0
0 0
0 0
0 0
0 0
0 0
0 0
0 0
0 0
0 0
0 0
0 0
0 0
0 0
0 0
0 0
0 0
0 0
0 0
0 0
0 0
0 0
0 0
0 0
0 0
0 0
0 0
0 0
0 0
0 0
0 0
0 0
0 0
0 0
0 0
0 0
0 0
0 0
0 0
0 0
0 0
0 0
0 0
0 0
0 0
0 0
0 0
0 0
0 0
0 0
0 0
0 0
0 0
0 0
0 0
0 0
0 0
0 0
0 0
0 0
0 0
0 0
0 0
0 0
0 0
0 0
0 0
0 0
0 0
0 0
0 0
0 0
0 0
0 0
0 0
0 0
0 0
0 0
0 0
0 0
0 0
0 0
0 0
0 0
0 0
0 0
0 0
0 0
0 0
0 0
0 0
0 0
0 0
0 0
0 0
0 0
0 0
0 0
0 0
0 0
0 0
0 0
0 0
0 0
0 0
0 0
0 0
0 0
0 0
0 0
0 0
0 0
0 0
0 0
0 0
0 0
0 0
0 0
0 0
0 0
0 0
0 0
0 0
0 0
0 0
0 0
0 0
0 0
0 0
0 0
0 0
0 0
0 0
0 0
0 0
0 0
0 0
0 0
0 0
0 0
0 0
0 0
0 0
0 0
0 0
0 0
0 0
0 0
0 0
0 0
0 0
0 0
0 0
0 0
0 0
0 0
0 0
0 0
0 0
0 0
0 0
0 0
0 0
0 0
0 0
0 0
0 0
0 0
0 0
0 0
0 0
0 0
0 0
0 0
0 0
0 0
0 0
0 0
0 0
0 0
0 0
0 0
0 0
0 0
0 0
0 0
0 0
0 0
0 0
0 0
0 0
0 0
0 0
0 0
0 0
0 0
0 0
0 0
0 0
0 0
0 0
0 0
0 0
0 0
0 0
0 0
0 0
0 0
0 0
0 0
0 0
0 0
0 0
0 0
0 0
0 0
0 0
0 0
0 0
0 0
0 0
0 0
0 0
0 0
0 0
0 0
0 0
0 0
0 0
0 0
0 0
0 0
0 0
0 0
0 0
0 0
0 0
0 0
0 0
0 0
0 0
0 0
0 0
0 0
0 0
0 0
0 0
0 0
0 0
0 0
0 0
0 0
0 0
0 0
0 0
0 0
0 0
0 0
0 0
0 0
0 0
0 0
0 0
0 0
0 0
0 0
0 0
0 0
0 0
0 0
0 0
0 0
0 0
0 0
0 0
0 0
0 0
0 0
0 0
0 0
0 0
0 0
0 0
0 0
0 0
0 0
0 0
0 0
0 0
0 0
0 0
0 0
0 0
0 0
0 0
0 0
0 0
0 0
0 0
0 0
0 0
0 0
0 0
0 0
0 0
0 0
0 0
0 0
0 0
0 0
0 0
0 0
0 0
0 0
0 0
0 0
0 0
0 0
0 0
0 0
0 0
0 0
0 0
0 0
0 0
0 0
0 0
0 0
0 0
0 0
0 0
0 0
0 0
0 0
0 0
0 0
0 0
0 0
0 0
0 0
0 0
0 0
0 0
0 0
0 0
0 0
0 0
0 0
0 0
0 0
0 0
0 0
0 0
0 0
0 0
0 0
0 0
0 0
0 0
0 0
0 0
0 0
0 0
0 0
0 0
0 0
0 0
0 0
0 0
0 0
0 0
0 0
0 0
0 0
0 0
0 0
0 0
0 0
0 0
0 0
0 0
0 0
0 0
0 0
0 0
0 0
0 0
0 0
0 0
0 0
0 0
0 0
0 0
0 0
0 0
0 0
0 0
0 0
0 0
0 0
0 0
0 0
0 0
0 0
0 0
0 0
0 0
0 0
0 0
0 0
0 0
0 0
0 0
0 0
0 0
0 0
0 0
0 0
0 0
0 0
0 0
0 0
0 0
0 0
0 0
0 0
0 0
0 0
0 0
0 0
0 0
0 0
0 0
0 0
0 0
0 0
0 0
0 0
0 0
0 0
0 0
0 0
0 0
0 0
0 0
0 0
0 0
0 0
0 0
0 0
0 0
0 0
0 0
0 0
0 0
0 0
0 0
0 0
0 0
0 0
0 0
0 0
0 0
0 0
0 0
0 0
0 0
0 0
0 0
0 0
0 0
0 0
0 0
0 0
0 0
0 0
0 0
0 0
0 0
0 0
0 0
0 0
0 0
0 0
0 0
0 0
0 0
0 0
0 0
0 0
0 0
0 0
0 0
0 0
0 0
0 0
0 0
0 0
0 0
0 0
0 0
0 0
0 0
0 0
0 0
0 0
0 0
0 0
0 0
0 0
0 0
0 0
0 0
0 0
0 0
0 0
0 0
0 0
0 0
0 0
0 0
0 0
0 0
0 0
0 0
0 0
0 0
0 0
0 0
0 0
0 0
0 0
0 0
0 0
0 0
0 0
0 0
0 0
0 0
0 0
0 0
0 0
0 0
0 0
0 0
0 0
0 0
0 0
0 0
0 0
0 0
0 0
0 0
0 0
0 0
0 0
0 0
0 0
0 0
0 0
0 0
0 0
0 0
0 0
0 0
0 0
0 0
0 0
0 0
0 0
0 0
0 0
0 0
0 0
0 0
0 0
0 0
0 0
0 0
0 0
0 0
0 0
0 0
0 0
0 0
0 0
0 0
0 0
0 0
0 0
0 0
0 0
0 0
0 0
0 0
0 0
0 0
0 0
0 0
0 0
0 0
0 0
0 0
0 0
0 0
0 0
0 0
0 0
0 0
0 0
0 0
0 0
0 0
0 0
0 0
0 0
0 0
0 0
0 0
0 0
0 0
0 0
0 0
0 0
0 0
0 0
0 0
0 0
0 0
0 0
0 0
0 0
0 0
0 0
0 0
0 0
0 0
0 0
0 0
0 0
0 0
0 0
0 0
0 0
0 0
0 0
0 0
0 0
0 0
0 0
0 0
0 0
0 0
0 0
0 0
0 0
0 0
0 0
0 0
0 0
0 0
0 0
0 0
0 0
0 0
0 0
0 0
0 0
0 0
0 0
0 0
0 0
0 0
0 0
0 0
0 0
0 0
0 0
0 0
0 0
0 0
0 0
0 0
0 0
0 0
0 0
0 0
0 0
0 0
0 0
0 0
0 0
0 0
0 0
0 0
0 0
0 0
0 0
0 0
0 0
0 0
0 0
0 0
0 0
0 0
0 0
0 0
0 0
0 0
0 0
0 0
0 0
0 0
0 0
0 0
0 0
0 0
0 0
0 0
0 0
0 0
0 0
0 0
0 0
0 0
0 0
0 0
0 0
0 0
0 0
0 0
0 0
0 0
0 0
0 0
0 0
0 0
0 0
0 0
0 0
0 0
0 0
0 0
0 0
0 0
0 0
0 0
0 0
0 0
0 0
0 0
0 0
0 0
0 0
0 0
0 0
0 0
0 0
0 0
0 0
0 0
0 0
0 0
0 0
0 0
0 0
0 0
0 0
0 0
0 0
0 0
0 0
0 0
0 0
0 0
0 0
0 0
0 0
0 0
0 0
0 0
0 0
0 0
0 0
0 0
0 0
0 0
0 0
0 0
0 0
0 0
0 0
0 0
0 0
0 0
0 0
0 0
0 0
0 0
0 0
0 0
0 0
0 0
0 0
0 0
0 0
0 0
0 0
0 0
0 0
0 0
0 0
0 0
0 0
0 0
0 0
0 0
0 0
0 0
0 0
0 0
0 0
0 0
0 0
0 0
0 0
0 0
0 0
0 0
0 0
0 0
0 0
0 0
0 0
0 0
0 0
0 0
0 0
0 0
0 0
0 0
0 0
0 0
0 0
0 0
0 0
0 0
0 0
0 0
0 0
0 0
0 0
0 0
0 0
0 0
0 0
0 0
0 0
0 0
0 0
0 0
0 0
0 0
0 0
0 0
0 0
0 0
0 0
0 0
0 0
0 0
0 0
0 0
      </DataArray> 
      <DataArray type="Float64" NumberOfComponents="2" Name="Acceleration" format="ascii">
0 0
0 0
0 0
0 0
0 0
0 0
0 0
0 0
0 0
0 0
0 0
0 0
0 0
0 0
0 0
0 0
0 0
0 0
0 0
0 0
0 0
0 0
0 0
0 0
0 0
0 0
0 0
0 0
0 0
0 0
0 0
0 0
0 0
0 0
0 0
0 0
0 0
0 0
0 0
0 0
0 0
0 0
0 0
0 0
0 0
0 0
0 0
0 0
0 0
0 0
0 0
0 0
0 0
0 0
0 0
0 0
0 0
0 0
0 0
0 0
0 0
0 0
0 0
0 0
0 0
0 0
0 0
0 0
0 0
0 0
0 0
0 0
0 0
0 0
0 0
0 0
0 0
0 0
0 0
0 0
0 0
0 0
0 0
0 0
0 0
0 0
0 0
0 0
0 0
0 0
0 0
0 0
0 0
0 0
0 0
0 0
0 0
0 0
0 0
0 0
0 0
0 0
0 0
0 0
0 0
0 0
0 0
0 0
0 0
0 0
0 0
0 0
0 0
0 0
0 0
0 0
0 0
0 0
0 0
0 0
0 0
0 0
0 0
0 0
0 0
0 0
0 0
0 0
0 0
0 0
0 0
0 0
0 0
0 0
0 0
0 0
0 0
0 0
0 0
0 0
0 0
0 0
0 0
0 0
0 0
0 0
0 0
0 0
0 0
0 0
0 0
0 0
0 0
0 0
0 0
0 0
0 0
0 0
0 0
0 0
0 0
0 0
0 0
0 0
0 0
0 0
0 0
0 0
0 0
0 0
0 0
0 0
0 0
0 0
0 0
0 0
0 0
0 0
0 0
0 0
0 0
0 0
0 0
0 0
0 0
0 0
0 0
0 0
0 0
0 0
0 0
0 0
0 0
0 0
0 0
0 0
0 0
0 0
0 0
0 0
0 0
0 0
0 0
0 0
0 0
0 0
0 0
0 0
0 0
0 0
0 0
0 0
0 0
0 0
0 0
0 0
0 0
0 0
0 0
0 0
0 0
0 0
0 0
0 0
0 0
0 0
0 0
0 0
0 0
0 0
0 0
0 0
0 0
0 0
0 0
0 0
0 0
0 0
0 0
0 0
0 0
0 0
0 0
0 0
0 0
0 0
0 0
0 0
0 0
0 0
0 0
0 0
0 0
0 0
0 0
0 0
0 0
0 0
0 0
0 0
0 0
0 0
0 0
0 0
0 0
0 0
0 0
0 0
0 0
0 0
0 0
0 0
0 0
0 0
0 0
0 0
0 0
0 0
0 0
0 0
0 0
0 0
0 0
0 0
0 0
0 0
0 0
0 0
0 0
0 0
0 0
0 0
0 0
0 0
0 0
0 0
0 0
0 0
0 0
0 0
0 0
0 0
0 0
0 0
0 0
0 0
0 0
0 0
0 0
0 0
0 0
0 0
0 0
0 0
0 0
0 0
0 0
0 0
0 0
0 0
0 0
0 0
0 0
0 0
0 0
0 0
0 0
0 0
0 0
0 0
0 0
0 0
0 0
0 0
0 0
0 0
0 0
0 0
0 0
0 0
0 0
0 0
0 0
0 0
0 0
0 0
0 0
0 0
0 0
0 0
0 0
0 0
0 0
0 0
0 0
0 0
0 0
0 0
0 0
0 0
0 0
0 0
0 0
0 0
0 0
0 0
0 0
0 0
0 0
0 0
0 0
0 0
0 0
0 0
0 0
0 0
0 0
0 0
0 0
0 0
0 0
0 0
0 0
0 0
0 0
0 0
0 0
0 0
0 0
0 0
0 0
0 0
0 0
0 0
0 0
0 0
0 0
0 0
0 0
0 0
0 0
0 0
0 0
0 0
0 0
0 0
0 0
0 0
0 0
0 0
0 0
0 0
0 0
0 0
0 0
0 0
0 0
0 0
0 0
0 0
0 0
0 0
0 0
0 0
0 0
0 0
0 0
0 0
0 0
0 0
0 0
0 0
0 0
0 0
0 0
0 0
0 0
0 0
0 0
0 0
0 0
0 0
0 0
0 0
0 0
0 0
0 0
0 0
0 0
0 0
0 0
0 0
0 0
0 0
0 0
0 0
0 0
0 0
0 0
0 0
0 0
0 0
0 0
0 0
0 0
0 0
0 0
0 0
0 0
0 0
0 0
0 0
0 0
0 0
0 0
0 0
0 0
0 0
0 0
0 0
0 0
0 0
0 0
0 0
0 0
0 0
0 0
0 0
0 0
0 0
0 0
0 0
0 0
0 0
0 0
0 0
0 0
0 0
0 0
0 0
0 0
0 0
0 0
0 0
0 0
0 0
0 0
0 0
0 0
0 0
0 0
0 0
0 0
0 0
0 0
0 0
0 0
0 0
0 0
0 0
0 0
0 0
0 0
0 0
0 0
0 0
0 0
0 0
0 0
0 0
0 0
0 0
0 0
0 0
0 0
0 0
0 0
0 0
0 0
0 0
0 0
0 0
0 0
0 0
0 0
0 0
0 0
0 0
0 0
0 0
0 0
0 0
0 0
0 0
0 0
0 0
0 0
0 0
0 0
0 0
0 0
0 0
0 0
0 0
0 0
0 0
0 0
0 0
0 0
0 0
0 0
0 0
0 0
0 0
0 0
0 0
0 0
0 0
0 0
0 0
0 0
0 0
0 0
0 0
0 0
0 0
0 0
0 0
0 0
0 0
0 0
0 0
0 0
0 0
0 0
0 0
0 0
0 0
0 0
0 0
0 0
0 0
0 0
0 0
0 0
0 0
0 0
0 0
0 0
0 0
0 0
0 0
0 0
0 0
0 0
0 0
0 0
0 0
0 0
0 0
0 0
0 0
0 0
0 0
0 0
0 0
0 0
0 0
0 0
0 0
0 0
0 0
0 0
0 0
0 0
0 0
0 0
0 0
0 0
0 0
0 0
0 0
0 0
0 0
0 0
0 0
0 0
0 0
0 0
0 0
0 0
0 0
0 0
0 0
0 0
0 0
0 0
0 0
0 0
0 0
0 0
0 0
0 0
0 0
0 0
0 0
0 0
0 0
0 0
0 0
0 0
0 0
0 0
0 0
0 0
0 0
0 0
0 0
0 0
0 0
0 0
0 0
0 0
0 0
0 0
0 0
0 0
0 0
0 0
0 0
0 0
0 0
0 0
0 0
0 0
0 0
0 0
0 0
0 0
0 0
0 0
0 0
0 0
0 0
0 0
0 0
0 0
0 0
0 0
0 0
0 0
0 0
0 0
0 0
0 0
0 0
0 0
0 0
0 0
0 0
0 0
0 0
0 0
0 0
0 0
0 0
0 0
0 0
0 0
0 0
0 0
0 0
0 0
0 0
0 0
0 0
0 0
0 0
0 0
0 0
0 0
0 0
0 0
0 0
0 0
0 0
0 0
0 0
0 0
0 0
0 0
0 0
0 0
0 0
0 0
0 0
0 0
0 0
0 0
0 0
0 0
0 0
0 0
0 0
0 0
0 0
0 0
0 0
0 0
0 0
0 0
0 0
0 0
0 0
0 0
0 0
0 0
0 0
0 0
0 0
0 0
0 0
0 0
0 0
0 0
0 0
0 0
0 0
0 0
0 0
0 0
0 0
0 0
0 0
0 0
0 0
0 0
0 0
0 0
0 0
0 0
0 0
0 0
0 0
0 0
0 0
0 0
0 0
0 0
0 0
0 0
0 0
0 0
0 0
0 0
0 0
0 0
0 0
0 0
0 0
0 0
0 0
0 0
0 0
0 0
0 0
0 0
0 0
0 0
0 0
0 0
0 0
0 0
0 0
0 0
0 0
0 0
0 0
0 0
0 0
0 0
0 0
0 0
0 0
0 0
0 0
0 0
0 0
0 0
0 0
0 0
0 0
0 0
0 0
0 0
0 0
0 0
0 0
0 0
0 0
0 0
0 0
0 0
0 0
0 0
0 0
0 0
0 0
0 0
0 0
0 0
0 0
0 0
0 0
0 0
0 0
0 0
0 0
0 0
0 0
0 0
0 0
0 0
0 0
0 0
0 0
0 0
0 0
0 0
0 0
0 0
0 0
0 0
0 0
0 0
0 0
0 0
0 0
0 0
0 0
0 0
0 0
0 0
0 0
0 0
0 0
0 0
0 0
0 0
0 0
0 0
0 0
0 0
0 0
0 0
0 0
0 0
0 0
0 0
0 0
0 0
0 0
0 0
0 0
0 0
0 0
0 0
0 0
0 0
0 0
0 0
0 0
0 0
0 0
0 0
0 0
0 0
0 0
0 0
0 0
0 0
0 0
0 0
0 0
0 0
0 0
0 0
0 0
0 0
0 0
0 0
0 0
0 0
0 0
0 0
0 0
0 0
0 0
0 0
0 0
0 0
0 0
0 0
0 0
0 0
0 0
0 0
0 0
0 0
0 0
0 0
0 0
0 0
0 0
0 0
0 0
0 0
0 0
0 0
0 0
0 0
0 0
0 0
0 0
0 0
0 0
0 0
0 0
0 0
0 0
0 0
0 0
0 0
0 0
0 0
0 0
0 0
0 0
0 0
0 0
0 0
0 0
0 0
0 0
0 0
0 0
0 0
0 0
0 0
0 0
0 0
0 0
0 0
0 0
0 0
0 0
0 0
0 0
0 0
0 0
0 0
0 0
0 0
0 0
0 0
0 0
0 0
0 0
0 0
0 0
0 0
0 0
0 0
0 0
0 0
0 0
0 0
0 0
0 0
0 0
0 0
0 0
0 0
0 0
0 0
0 0
0 0
0 0
0 0
0 0
0 0
0 0
0 0
0 0
0 0
0 0
0 0
0 0
0 0
0 0
0 0
0 0
0 0
0 0
0 0
0 0
0 0
0 0
0 0
0 0
0 0
0 0
0 0
0 0
0 0
0 0
0 0
0 0
0 0
0 0
0 0
0 0
0 0
0 0
0 0
0 0
0 0
0 0
0 0
0 0
0 0
0 0
0 0
0 0
0 0
0 0
0 0
0 0
0 0
0 0
0 0
0 0
0 0
0 0
0 0
0 0
0 0
0 0
0 0
0 0
0 0
0 0
0 0
0 0
0 0
0 0
0 0
0 0
0 0
0 0
0 0
0 0
0 0
0 0
0 0
0 0
0 0
0 0
0 0
0 0
0 0
0 0
0 0
0 0
0 0
0 0
0 0
0 0
0 0
0 0
0 0
0 0
0 0
0 0
0 0
0 0
0 0
0 0
0 0
0 0
0 0
0 0
0 0
0 0
0 0
0 0
0 0
0 0
0 0
0 0
0 0
0 0
0 0
0 0
0 0
0 0
0 0
0 0
0 0
0 0
0 0
0 0
0 0
0 0
0 0
0 0
0 0
0 0
0 0
0 0
0 0
0 0
0 0
0 0
0 0
0 0
0 0
0 0
0 0
0 0
0 0
0 0
0 0
0 0
0 0
0 0
0 0
0 0
0 0
0 0
0 0
0 0
0 0
0 0
0 0
0 0
0 0
0 0
0 0
0 0
0 0
0 0
0 0
0 0
0 0
0 0
0 0
0 0
0 0
0 0
0 0
0 0
0 0
0 0
0 0
0 0
0 0
0 0
0 0
0 0
0 0
0 0
0 0
0 0
0 0
0 0
0 0
0 0
0 0
0 0
0 0
0 0
0 0
0 0
0 0
0 0
0 0
0 0
0 0
0 0
0 0
0 0
0 0
0 0
0 0
0 0
0 0
0 0
0 0
0 0
0 0
0 0
0 0
0 0
0 0
0 0
0 0
0 0
0 0
0 0
0 0
0 0
0 0
0 0
0 0
0 0
0 0
0 0
0 0
0 0
0 0
0 0
0 0
0 0
0 0
0 0
0 0
0 0
0 0
0 0
0 0
0 0
0 0
0 0
0 0
0 0
0 0
0 0
0 0
0 0
0 0
0 0
0 0
0 0
0 0
0 0
0 0
0 0
0 0
0 0
0 0
0 0
0 0
0 0
0 0
0 0
0 0
0 0
0 0
0 0
0 0
0 0
0 0
0 0
0 0
0 0
0 0
0 0
0 0
0 0
0 0
0 0
0 0
0 0
0 0
0 0
0 0
0 0
0 0
0 0
0 0
0 0
0 0
0 0
0 0
0 0
0 0
0 0
0 0
0 0
0 0
0 0
0 0
0 0
0 0
0 0
0 0
0 0
0 0
0 0
0 0
0 0
0 0
0 0
0 0
0 0
0 0
0 0
0 0
0 0
0 0
0 0
0 0
0 0
0 0
0 0
0 0
0 0
0 0
0 0
0 0
0 0
0 0
0 0
0 0
0 0
0 0
0 0
0 0
0 0
0 0
0 0
0 0
0 0
0 0
0 0
0 0
0 0
0 0
0 0
0 0
0 0
0 0
0 0
0 0
0 0
0 0
0 0
0 0
0 0
0 0
0 0
0 0
0 0
0 0
0 0
0 0
0 0
0 0
0 0
0 0
0 0
0 0
0 0
0 0
0 0
0 0
0 0
0 0
0 0
0 0
0 0
0 0
0 0
0 0
0 0
0 0
0 0
0 0
0 0
0 0
0 0
0 0
0 0
0 0
0 0
0 0
0 0
0 0
0 0
0 0
0 0
0 0
0 0
0 0
0 0
0 0
0 0
0 0
0 0
0 0
0 0
0 0
0 0
0 0
0 0
0 0
0 0
0 0
0 0
0 0
0 0
0 0
0 0
0 0
0 0
0 0
0 0
0 0
0 0
0 0
0 0
0 0
0 0
0 0
0 0
0 0
0 0
0 0
0 0
0 0
0 0
0 0
0 0
0 0
0 0
0 0
0 0
0 0
0 0
0 0
0 0
0 0
0 0
0 0
0 0
0 0
0 0
0 0
0 0
0 0
0 0
0 0
0 0
0 0
0 0
0 0
0 0
0 0
0 0
0 0
0 0
0 0
0 0
0 0
0 0
0 0
0 0
0 0
0 0
0 0
0 0
0 0
0 0
0 0
0 0
0 0
0 0
0 0
0 0
0 0
0 0
0 0
0 0
0 0
0 0
0 0
0 0
0 0
0 0
0 0
0 0
0 0
0 0
0 0
0 0
0 0
0 0
0 0
0 0
0 0
0 0
0 0
0 0
0 0
0 0
0 0
0 0
0 0
0 0
0 0
0 0
0 0
0 0
0 0
0 0
0 0
0 0
0 0
0 0
0 0
0 0
0 0
0 0
0 0
0 0
0 0
0 0
0 0
0 0
0 0
0 0
0 0
0 0
0 0
0 0
0 0
0 0
0 0
0 0
0 0
0 0
0 0
0 0
0 0
0 0
0 0
0 0
0 0
0 0
0 0
0 0
0 0
0 0
0 0
0 0
0 0
0 0
0 0
0 0
0 0
0 0
0 0
0 0
0 0
0 0
0 0
0 0
0 0
0 0
0 0
0 0
0 0
0 0
0 0
0 0
0 0
0 0
0 0
0 0
0 0
0 0
0 0
0 0
0 0
0 0
0 0
0 0
0 0
0 0
0 0
0 0
0 0
0 0
0 0
0 0
0 0
0 0
0 0
0 0
0 0
0 0
0 0
0 0
0 0
0 0
0 0
0 0
0 0
0 0
0 0
0 0
0 0
0 0
0 0
0 0
0 0
0 0
0 0
0 0
0 0
0 0
0 0
0 0
0 0
0 0
0 0
0 0
0 0
0 0
0 0
0 0
0 0
0 0
0 0
0 0
0 0
0 0
0 0
0 0
0 0
0 0
0 0
0 0
0 0
0 0
0 0
0 0
0 0
0 0
0 0
0 0
0 0
0 0
0 0
0 0
0 0
0 0
0 0
0 0
0 0
0 0
0 0
0 0
0 0
0 0
0 0
0 0
0 0
0 0
0 0
0 0
0 0
0 0
0 0
0 0
0 0
0 0
0 0
0 0
0 0
0 0
0 0
0 0
0 0
0 0
0 0
0 0
0 0
0 0
0 0
0 0
0 0
0 0
0 0
0 0
0 0
0 0
0 0
0 0
0 0
0 0
0 0
0 0
0 0
0 0
0 0
0 0
0 0
0 0
0 0
0 0
0 0
0 0
0 0
0 0
0 0
0 0
0 0
0 0
0 0
0 0
0 0
0 0
0 0
0 0
0 0
0 0
0 0
0 0
0 0
0 0
0 0
0 0
0 0
0 0
0 0
0 0
0 0
0 0
0 0
0 0
0 0
0 0
0 0
0 0
0 0
0 0
0 0
0 0
0 0
0 0
0 0
0 0
0 0
0 0
0 0
0 0
0 0
0 0
0 0
0 0
0 0
0 0
0 0
0 0
0 0
0 0
0 0
0 0
0 0
0 0
0 0
0 0
0 0
0 0
0 0
0 0
0 0
0 0
0 0
0 0
0 0
0 0
0 0
0 0
0 0
0 0
0 0
0 0
0 0
0 0
0 0
0 0
0 0
0 0
0 0
0 0
0 0
0 0
0 0
0 0
0 0
0 0
0 0
0 0
0 0
0 0
0 0
0 0
0 0
0 0
0 0
0 0
0 0
0 0
0 0
0 0
0 0
0 0
0 0
0 0
0 0
0 0
0 0
0 0
0 0
0 0
0 0
0 0
0 0
0 0
0 0
0 0
0 0
0 0
0 0
0 0
0 0
0 0
0 0
0 0
0 0
0 0
0 0
0 0
0 0
0 0
0 0
0 0
0 0
0 0
0 0
0 0
0 0
0 0
0 0
0 0
0 0
0 0
0 0
0 0
0 0
0 0
0 0
0 0
0 0
0 0
0 0
0 0
0 0
0 0
0 0
0 0
0 0
0 0
0 0
0 0
0 0
0 0
0 0
0 0
0 0
0 0
0 0
0 0
0 0
0 0
0 0
0 0
0 0
0 0
0 0
0 0
0 0
0 0
0 0
0 0
0 0
0 0
0 0
0 0
0 0
0 0
0 0
0 0
0 0
0 0
0 0
0 0
0 0
0 0
0 0
0 0
0 0
0 0
0 0
0 0
0 0
0 0
0 0
0 0
0 0
0 0
0 0
0 0
0 0
0 0
0 0
0 0
0 0
0 0
0 0
0 0
0 0
0 0
0 0
0 0
0 0
0 0
0 0
0 0
0 0
0 0
0 0
0 0
0 0
0 0
0 0
0 0
0 0
0 0
0 0
0 0
0 0
0 0
0 0
0 0
0 0
0 0
0 0
0 0
0 0
0 0
0 0
0 0
0 0
0 0
0 0
0 0
0 0
0 0
0 0
0 0
0 0
0 0
0 0
0 0
0 0
0 0
0 0
0 0
0 0
0 0
0 0
0 0
0 0
0 0
0 0
0 0
0 0
0 0
0 0
0 0
0 0
0 0
0 0
0 0
0 0
0 0
0 0
0 0
0 0
0 0
0 0
0 0
0 0
0 0
0 0
0 0
0 0
0 0
0 0
0 0
0 0
0 0
0 0
0 0
0 0
0 0
0 0
0 0
0 0
0 0
0 0
0 0
0 0
0 0
0 0
0 0
0 0
0 0
0 0
0 0
0 0
0 0
0 0
0 0
0 0
0 0
0 0
0 0
0 0
0 0
0 0
0 0
0 0
0 0
0 0
0 0
0 0
0 0
0 0
0 0
0 0
0 0
0 0
0 0
0 0
0 0
0 0
0 0
0 0
0 0
0 0
0 0
0 0
0 0
0 0
0 0
0 0
0 0
0 0
0 0
0 0
0 0
0 0
0 0
0 0
0 0
0 0
0 0
0 0
0 0
0 0
0 0
0 0
0 0
0 0
0 0
0 0
0 0
0 0
0 0
0 0
0 0
0 0
0 0
0 0
0 0
0 0
0 0
0 0
0 0
0 0
0 0
0 0
0 0
0 0
0 0
0 0
0 0
0 0
0 0
0 0
0 0
0 0
0 0
0 0
0 0
0 0
0 0
0 0
0 0
0 0
0 0
0 0
0 0
0 0
0 0
0 0
0 0
0 0
0 0
0 0
0 0
0 0
0 0
0 0
0 0
0 0
0 0
0 0
0 0
0 0
0 0
0 0
0 0
0 0
0 0
0 0
0 0
0 0
0 0
0 0
0 0
0 0
0 0
0 0
0 0
0 0
0 0
0 0
0 0
0 0
0 0
0 0
0 0
0 0
0 0
0 0
0 0
0 0
0 0
0 0
0 0
0 0
0 0
0 0
0 0
0 0
0 0
0 0
0 0
0 0
0 0
0 0
0 0
0 0
0 0
0 0
0 0
0 0
0 0
0 0
0 0
0 0
0 0
0 0
0 0
0 0
0 0
0 0
0 0
0 0
0 0
0 0
0 0
0 0
0 0
0 0
0 0
0 0
0 0
0 0
0 0
0 0
0 0
0 0
0 0
0 0
0 0
0 0
0 0
0 0
0 0
0 0
0 0
0 0
0 0
0 0
0 0
0 0
0 0
0 0
0 0
0 0
0 0
0 0
0 0
0 0
0 0
0 0
0 0
0 0
0 0
0 0
0 0
0 0
0 0
0 0
0 0
0 0
0 0
0 0
0 0
0 0
0 0
0 0
0 0
0 0
0 0
0 0
0 0
0 0
0 0
0 0
0 0
0 0
0 0
0 0
0 0
0 0
0 0
0 0
0 0
0 0
0 0
0 0
0 0
0 0
0 0
0 0
0 0
0 0
0 0
0 0
0 0
0 0
0 0
0 0
0 0
0 0
0 0
0 0
0 0
0 0
0 0
0 0
0 0
0 0
0 0
0 0
0 0
0 0
0 0
0 0
0 0
0 0
0 0
0 0
0 0
0 0
0 0
0 0
0 0
0 0
0 0
0 0
0 0
0 0
0 0
0 0
0 0
0 0
0 0
0 0
0 0
0 0
0 0
0 0
0 0
0 0
0 0
0 0
0 0
0 0
0 0
0 0
0 0
0 0
0 0
0 0
0 0
0 0
0 0
0 0
0 0
0 0
0 0
0 0
0 0
0 0
0 0
0 0
0 0
0 0
0 0
0 0
0 0
0 0
0 0
0 0
0 0
0 0
0 0
0 0
0 0
0 0
0 0
0 0
0 0
0 0
0 0
0 0
0 0
0 0
0 0
0 0
0 0
0 0
0 0
0 0
0 0
0 0
0 0
0 0
0 0
0 0
0 0
0 0
0 0
0 0
0 0
0 0
0 0
0 0
0 0
0 0
0 0
0 0
0 0
0 0
0 0
0 0
0 0
0 0
0 0
0 0
0 0
0 0
0 0
0 0
0 0
0 0
0 0
0 0
0 0
0 0
0 0
0 0
0 0
0 0
0 0
0 0
0 0
0 0
0 0
0 0
0 0
0 0
0 0
0 0
0 0
0 0
0 0
0 0
0 0
0 0
0 0
0 0
0 0
0 0
0 0
0 0
0 0
0 0
0 0
0 0
0 0
0 0
0 0
0 0
0 0
0 0
0 0
0 0
0 0
0 0
0 0
0 0
0 0
0 0
0 0
0 0
0 0
0 0
0 0
0 0
0 0
0 0
0 0
0 0
0 0
0 0
0 0
0 0
0 0
0 0
0 0
0 0
0 0
0 0
0 0
0 0
0 0
0 0
0 0
0 0
0 0
0 0
0 0
0 0
0 0
0 0
0 0
0 0
0 0
0 0
0 0
0 0
0 0
0 0
0 0
0 0
0 0
0 0
0 0
0 0
0 0
0 0
0 0
0 0
0 0
0 0
0 0
0 0
0 0
0 0
0 0
0 0
0 0
0 0
0 0
0 0
0 0
0 0
0 0
0 0
0 0
0 0
0 0
0 0
0 0
0 0
0 0
0 0
0 0
0 0
0 0
0 0
0 0
0 0
0 0
0 0
0 0
0 0
0 0
0 0
0 0
0 0
0 0
0 0
0 0
0 0
0 0
0 0
0 0
0 0
0 0
0 0
0 0
0 0
0 0
0 0
0 0
0 0
0 0
0 0
0 0
0 0
0 0
0 0
0 0
0 0
0 0
0 0
0 0
0 0
0 0
0 0
0 0
0 0
0 0
0 0
0 0
0 0
0 0
0 0
0 0
0 0
0 0
0 0
0 0
0 0
0 0
0 0
0 0
0 0
0 0
0 0
0 0
0 0
0 0
0 0
0 0
0 0
0 0
0 0
0 0
0 0
0 0
0 0
0 0
0 0
0 0
0 0
0 0
0 0
0 0
0 0
0 0
0 0
0 0
0 0
0 0
0 0
0 0
0 0
0 0
0 0
0 0
0 0
0 0
0 0
0 0
0 0
0 0
0 0
0 0
0 0
0 0
0 0
0 0
0 0
0 0
0 0
0 0
0 0
0 0
0 0
0 0
0 0
0 0
0 0
0 0
0 0
0 0
0 0
0 0
0 0
0 0
0 0
0 0
0 0
0 0
0 0
0 0
0 0
0 0
0 0
0 0
0 0
0 0
0 0
0 0
0 0
0 0
0 0
0 0
0 0
0 0
0 0
0 0
0 0
0 0
0 0
0 0
0 0
0 0
0 0
0 0
0 0
0 0
0 0
0 0
0 0
0 0
0 0
0 0
0 0
0 0
0 0
0 0
0 0
0 0
0 0
0 0
0 0
0 0
0 0
0 0
0 0
0 0
0 0
0 0
0 0
0 0
0 0
0 0
0 0
0 0
0 0
0 0
0 0
0 0
0 0
0 0
0 0
0 0
0 0
0 0
0 0
0 0
0 0
0 0
0 0
0 0
0 0
0 0
0 0
0 0
0 0
0 0
0 0
0 0
0 0
0 0
0 0
0 0
0 0
0 0
0 0
0 0
0 0
0 0
0 0
0 0
0 0
0 0
0 0
0 0
0 0
0 0
0 0
0 0
0 0
0 0
0 0
0 0
0 0
0 0
0 0
0 0
0 0
0 0
0 0
0 0
0 0
0 0
0 0
0 0
0 0
0 0
0 0
0 0
0 0
0 0
0 0
0 0
0 0
0 0
0 0
0 0
0 0
0 0
0 0
0 0
0 0
0 0
0 0
0 0
0 0
0 0
0 0
0 0
0 0
0 0
0 0
0 0
0 0
0 0
0 0
0 0
0 0
0 0
0 0
0 0
0 0
0 0
0 0
0 0
0 0
0 0
0 0
0 0
0 0
0 0
0 0
0 0
0 0
0 0
0 0
0 0
0 0
0 0
0 0
0 0
0 0
0 0
0 0
0 0
0 0
0 0
0 0
0 0
0 0
0 0
0 0
0 0
0 0
0 0
0 0
0 0
0 0
0 0
0 0
0 0
0 0
0 0
0 0
0 0
0 0
0 0
0 0
0 0
0 0
0 0
0 0
0 0
0 0
0 0
0 0
0 0
0 0
0 0
0 0
0 0
0 0
0 0
0 0
0 0
0 0
0 0
0 0
0 0
0 0
0 0
0 0
0 0
0 0
0 0
0 0
0 0
0 0
0 0
0 0
0 0
0 0
0 0
0 0
0 0
0 0
0 0
0 0
0 0
0 0
0 0
0 0
0 0
0 0
0 0
0 0
0 0
0 0
0 0
0 0
0 0
0 0
0 0
0 0
0 0
0 0
0 0
0 0
0 0
0 0
0 0
0 0
0 0
0 0
0 0
0 0
0 0
0 0
0 0
0 0
0 0
0 0
0 0
0 0
0 0
0 0
0 0
0 0
0 0
0 0
0 0
0 0
0 0
0 0
0 0
0 0
0 0
0 0
0 0
0 0
0 0
0 0
0 0
0 0
0 0
0 0
0 0
0 0
0 0
0 0
0 0
0 0
0 0
0 0
0 0
0 0
0 0
0 0
0 0
0 0
0 0
0 0
0 0
0 0
0 0
0 0
0 0
0 0
0 0
0 0
0 0
0 0
0 0
0 0
0 0
0 0
0 0
0 0
0 0
0 0
0 0
0 0
0 0
0 0
0 0
0 0
0 0
0 0
0 0
0 0
0 0
0 0
0 0
0 0
0 0
0 0
0 0
0 0
0 0
0 0
0 0
0 0
0 0
0 0
0 0
0 0
0 0
0 0
0 0
0 0
0 0
0 0
0 0
0 0
0 0
0 0
0 0
0 0
0 0
0 0
0 0
0 0
0 0
0 0
0 0
0 0
0 0
0 0
0 0
0 0
0 0
0 0
0 0
0 0
0 0
0 0
0 0
0 0
0 0
0 0
0 0
0 0
0 0
0 0
0 0
0 0
0 0
0 0
0 0
0 0
0 0
0 0
0 0
0 0
0 0
0 0
0 0
0 0
0 0
0 0
0 0
0 0
0 0
0 0
0 0
0 0
0 0
0 0
0 0
0 0
0 0
0 0
0 0
0 0
0 0
0 0
0 0
0 0
0 0
0 0
0 0
0 0
0 0
0 0
0 0
0 0
0 0
0 0
0 0
0 0
0 0
0 0
0 0
0 0
0 0
0 0
0 0
0 0
0 0
0 0
0 0
0 0
0 0
0 0
0 0
0 0
0 0
0 0
0 0
0 0
0 0
0 0
0 0
0 0
0 0
0 0
0 0
0 0
0 0
0 0
0 0
0 0
0 0
0 0
0 0
0 0
0 0
0 0
0 0
0 0
0 0
0 0
0 0
0 0
0 0
0 0
0 0
0 0
0 0
0 0
0 0
0 0
0 0
0 0
0 0
0 0
0 0
0 0
0 0
0 0
0 0
0 0
0 0
0 0
0 0
0 0
0 0
0 0
0 0
0 0
0 0
0 0
0 0
0 0
0 0
0 0
0 0
0 0
0 0
0 0
0 0
0 0
0 0
0 0
0 0
0 0
0 0
0 0
0 0
0 0
0 0
0 0
0 0
0 0
0 0
0 0
0 0
0 0
0 0
0 0
0 0
0 0
0 0
0 0
0 0
0 0
0 0
0 0
0 0
0 0
0 0
0 0
0 0
0 0
0 0
0 0
0 0
0 0
0 0
0 0
0 0
0 0
0 0
0 0
0 0
0 0
0 0
0 0
0 0
0 0
0 0
0 0
0 0
0 0
0 0
0 0
0 0
0 0
0 0
0 0
0 0
0 0
0 0
0 0
0 0
0 0
0 0
0 0
0 0
0 0
0 0
0 0
0 0
0 0
0 0
0 0
0 0
0 0
0 0
0 0
0 0
0 0
0 0
0 0
0 0
0 0
0 0
0 0
0 0
0 0
0 0
0 0
0 0
0 0
0 0
0 0
0 0
0 0
0 0
0 0
0 0
0 0
0 0
0 0
0 0
0 0
0 0
0 0
0 0
0 0
0 0
0 0
0 0
0 0
0 0
0 0
0 0
0 0
0 0
0 0
0 0
0 0
0 0
0 0
0 0
0 0
0 0
0 0
0 0
0 0
0 0
0 0
0 0
0 0
0 0
0 0
0 0
0 0
0 0
0 0
0 0
0 0
0 0
0 0
0 0
0 0
0 0
0 0
0 0
0 0
0 0
0 0
0 0
0 0
0 0
0 0
0 0
0 0
0 0
0 0
0 0
0 0
0 0
0 0
0 0
0 0
0 0
0 0
0 0
0 0
0 0
0 0
0 0
0 0
0 0
0 0
0 0
0 0
0 0
0 0
0 0
0 0
0 0
0 0
0 0
0 0
0 0
0 0
0 0
0 0
0 0
0 0
0 0
0 0
0 0
0 0
0 0
0 0
0 0
0 0
0 0
0 0
0 0
0 0
0 0
0 0
0 0
0 0
0 0
0 0
0 0
0 0
0 0
0 0
0 0
0 0
0 0
0 0
0 0
0 0
0 0
0 0
0 0
0 0
0 0
0 0
0 0
0 0
0 0
0 0
0 0
0 0
0 0
0 0
0 0
0 0
0 0
0 0
0 0
0 0
0 0
0 0
0 0
0 0
0 0
0 0
0 0
0 0
0 0
0 0
0 0
0 0
0 0
0 0
0 0
0 0
0 0
0 0
0 0
0 0
0 0
0 0
0 0
0 0
0 0
0 0
0 0
0 0
0 0
0 0
0 0
0 0
0 0
0 0
0 0
0 0
0 0
0 0
0 0
0 0
0 0
0 0
0 0
0 0
0 0
0 0
0 0
0 0
0 0
0 0
0 0
0 0
0 0
0 0
0 0
0 0
0 0
0 0
0 0
0 0
0 0
0 0
0 0
0 0
0 0
0 0
0 0
0 0
0 0
0 0
0 0
0 0
0 0
0 0
0 0
0 0
0 0
0 0
0 0
0 0
0 0
0 0
0 0
0 0
0 0
0 0
0 0
0 0
0 0
0 0
0 0
0 0
0 0
0 0
0 0
0 0
0 0
0 0
0 0
0 0
0 0
0 0
0 0
0 0
0 0
0 0
0 0
0 0
0 0
0 0
0 0
0 0
0 0
0 0
0 0
0 0
0 0
0 0
0 0
0 0
0 0
0 0
0 0
0 0
0 0
0 0
0 0
0 0
0 0
0 0
0 0
0 0
0 0
0 0
0 0
0 0
0 0
0 0
0 0
0 0
0 0
0 0
0 0
0 0
0 0
0 0
0 0
0 0
0 0
0 0
0 0
0 0
0 0
0 0
0 0
0 0
0 0
0 0
0 0
0 0
0 0
0 0
0 0
0 0
0 0
0 0
0 0
0 0
0 0
0 0
0 0
0 0
0 0
0 0
0 0
0 0
0 0
0 0
0 0
0 0
0 0
0 0
0 0
0 0
0 0
0 0
0 0
0 0
0 0
0 0
0 0
0 0
0 0
0 0
0 0
0 0
0 0
0 0
0 0
0 0
0 0
0 0
0 0
0 0
0 0
0 0
0 0
0 0
0 0
0 0
0 0
0 0
0 0
0 0
0 0
0 0
0 0
0 0
0 0
0 0
0 0
0 0
0 0
0 0
0 0
0 0
0 0
0 0
0 0
0 0
0 0
0 0
0 0
0 0
0 0
0 0
0 0
0 0
0 0
0 0
0 0
0 0
0 0
0 0
0 0
0 0
0 0
0 0
0 0
0 0
0 0
0 0
0 0
0 0
0 0
0 0
0 0
0 0
0 0
0 0
0 0
0 0
0 0
0 0
0 0
0 0
0 0
0 0
0 0
0 0
0 0
0 0
0 0
0 0
0 0
0 0
0 0
0 0
0 0
0 0
0 0
0 0
0 0
0 0
0 0
0 0
0 0
0 0
0 0
0 0
0 0
0 0
0 0
0 0
0 0
0 0
0 0
0 0
0 0
0 0
0 0
0 0
0 0
0 0
0 0
0 0
0 0
0 0
0 0
0 0
0 0
0 0
0 0
0 0
0 0
0 0
0 0
0 0
0 0
0 0
0 0
0 0
0 0
0 0
0 0
0 0
0 0
0 0
0 0
0 0
0 0
0 0
0 0
0 0
0 0
0 0
0 0
0 0
0 0
0 0
0 0
0 0
0 0
0 0
0 0
0 0
0 0
0 0
0 0
0 0
0 0
0 0
0 0
0 0
0 0
0 0
0 0
0 0
0 0
0 0
0 0
0 0
0 0
0 0
0 0
0 0
0 0
0 0
0 0
0 0
0 0
0 0
0 0
0 0
0 0
0 0
0 0
0 0
0 0
0 0
0 0
0 0
0 0
0 0
0 0
0 0
0 0
0 0
0 0
0 0
0 0
0 0
0 0
0 0
0 0
0 0
0 0
0 0
0 0
0 0
0 0
0 0
0 0
0 0
0 0
0 0
0 0
0 0
0 0
0 0
0 0
0 0
0 0
0 0
0 0
0 0
0 0
0 0
0 0
0 0
0 0
0 0
0 0
0 0
0 0
0 0
0 0
0 0
0 0
0 0
0 0
0 0
0 0
0 0
0 0
0 0
0 0
0 0
0 0
0 0
0 0
0 0
0 0
0 0
0 0
0 0
0 0
0 0
0 0
0 0
0 0
0 0
0 0
0 0
0 0
0 0
0 0
0 0
0 0
0 0
0 0
0 0
0 0
0 0
0 0
0 0
0 0
0 0
0 0
0 0
0 0
0 0
0 0
0 0
0 0
0 0
0 0
0 0
0 0
0 0
0 0
0 0
0 0
0 0
0 0
0 0
0 0
0 0
0 0
0 0
0 0
0 0
0 0
0 0
0 0
0 0
0 0
0 0
0 0
0 0
0 0
0 0
0 0
0 0
0 0
0 0
0 0
0 0
0 0
0 0
0 0
0 0
0 0
0 0
0 0
0 0
0 0
0 0
0 0
0 0
0 0
0 0
0 0
0 0
0 0
0 0
0 0
0 0
0 0
0 0
0 0
0 0
0 0
0 0
0 0
0 0
0 0
0 0
0 0
0 0
0 0
0 0
0 0
0 0
0 0
0 0
0 0
0 0
0 0
0 0
0 0
0 0
0 0
0 0
0 0
0 0
0 0
0 0
0 0
0 0
0 0
0 0
0 0
0 0
0 0
0 0
0 0
0 0
0 0
0 0
0 0
0 0
0 0
0 0
0 0
0 0
0 0
0 0
0 0
0 0
0 0
0 0
0 0
0 0
0 0
0 0
0 0
0 0
0 0
0 0
0 0
0 0
0 0
0 0
0 0
0 0
0 0
0 0
0 0
0 0
0 0
0 0
0 0
0 0
0 0
0 0
0 0
0 0
0 0
0 0
0 0
0 0
0 0
0 0
0 0
0 0
0 0
0 0
0 0
0 0
0 0
0 0
0 0
0 0
0 0
0 0
0 0
0 0
0 0
0 0
0 0
0 0
0 0
0 0
0 0
0 0
0 0
0 0
0 0
0 0
0 0
0 0
0 0
0 0
0 0
0 0
0 0
0 0
0 0
0 0
0 0
0 0
0 0
0 0
0 0
0 0
0 0
0 0
0 0
0 0
0 0
0 0
0 0
0 0
0 0
0 0
0 0
0 0
0 0
0 0
0 0
0 0
0 0
0 0
0 0
0 0
0 0
0 0
0 0
0 0
0 0
0 0
0 0
0 0
0 0
0 0
0 0
0 0
0 0
0 0
0 0
0 0
0 0
0 0
0 0
0 0
0 0
0 0
0 0
0 0
0 0
0 0
0 0
0 0
0 0
0 0
0 0
0 0
0 0
0 0
0 0
0 0
0 0
0 0
0 0
0 0
0 0
0 0
0 0
0 0
0 0
0 0
0 0
0 0
0 0
0 0
0 0
0 0
0 0
0 0
0 0
0 0
0 0
0 0
0 0
0 0
0 0
0 0
0 0
0 0
0 0
0 0
0 0
0 0
0 0
0 0
0 0
0 0
0 0
0 0
0 0
0 0
0 0
0 0
0 0
0 0
0 0
0 0
0 0
0 0
0 0
0 0
0 0
0 0
0 0
0 0
0 0
0 0
0 0
0 0
0 0
0 0
0 0
0 0
0 0
0 0
0 0
0 0
0 0
0 0
0 0
0 0
0 0
0 0
0 0
0 0
0 0
0 0
0 0
0 0
0 0
0 0
0 0
0 0
0 0
0 0
0 0
0 0
0 0
0 0
0 0
0 0
0 0
0 0
0 0
0 0
0 0
0 0
0 0
0 0
0 0
0 0
0 0
0 0
0 0
0 0
0 0
0 0
0 0
0 0
0 0
0 0
0 0
0 0
0 0
0 0
0 0
0 0
0 0
0 0
0 0
0 0
0 0
0 0
0 0
0 0
0 0
0 0
0 0
0 0
0 0
0 0
0 0
0 0
0 0
0 0
0 0
0 0
0 0
0 0
0 0
0 0
0 0
0 0
0 0
0 0
0 0
0 0
0 0
0 0
0 0
0 0
0 0
0 0
0 0
0 0
0 0
0 0
0 0
0 0
0 0
0 0
0 0
0 0
0 0
0 0
0 0
0 0
0 0
0 0
0 0
0 0
0 0
0 0
0 0
0 0
0 0
0 0
0 0
0 0
0 0
0 0
0 0
0 0
0 0
0 0
0 0
0 0
0 0
0 0
0 0
0 0
0 0
0 0
0 0
0 0
0 0
0 0
0 0
0 0
0 0
0 0
0 0
0 0
0 0
0 0
0 0
0 0
0 0
0 0
0 0
0 0
0 0
0 0
0 0
0 0
0 0
0 0
0 0
0 0
0 0
0 0
0 0
0 0
0 0
0 0
0 0
0 0
0 0
0 0
0 0
0 0
0 0
0 0
0 0
0 0
0 0
0 0
0 0
0 0
0 0
0 0
0 0
0 0
0 0
0 0
0 0
0 0
0 0
0 0
0 0
0 0
0 0
0 0
0 0
0 0
0 0
0 0
0 0
0 0
0 0
0 0
0 0
0 0
0 0
0 0
0 0
0 0
0 0
0 0
0 0
0 0
0 0
0 0
0 0
0 0
0 0
0 0
0 0
0 0
0 0
0 0
0 0
0 0
0 0
0 0
0 0
0 0
0 0
0 0
0 0
0 0
0 0
0 0
0 0
0 0
0 0
0 0
0 0
0 0
0 0
0 0
0 0
0 0
0 0
0 0
0 0
0 0
0 0
0 0
0 0
0 0
0 0
0 0
0 0
0 0
0 0
0 0
0 0
0 0
0 0
0 0
0 0
0 0
0 0
0 0
0 0
0 0
0 0
0 0
0 0
0 0
0 0
0 0
0 0
0 0
0 0
0 0
0 0
0 0
0 0
0 0
0 0
0 0
0 0
0 0
0 0
0 0
0 0
0 0
0 0
0 0
0 0
0 0
0 0
0 0
0 0
0 0
0 0
0 0
0 0
0 0
0 0
0 0
0 0
0 0
0 0
0 0
0 0
0 0
0 0
0 0
0 0
0 0
0 0
0 0
0 0
0 0
0 0
0 0
0 0
0 0
0 0
0 0
0 0
0 0
0 0
0 0
0 0
0 0
0 0
0 0
0 0
0 0
0 0
0 0
0 0
0 0
0 0
0 0
0 0
0 0
0 0
0 0
0 0
0 0
0 0
0 0
0 0
0 0
0 0
0 0
0 0
0 0
0 0
0 0
0 0
0 0
0 0
0 0
0 0
0 0
0 0
0 0
0 0
0 0
0 0
0 0
0 0
0 0
0 0
0 0
0 0
0 0
0 0
0 0
0 0
0 0
0 0
0 0
0 0
0 0
0 0
0 0
0 0
0 0
0 0
0 0
0 0
0 0
0 0
0 0
0 0
0 0
0 0
0 0
0 0
0 0
0 0
0 0
0 0
0 0
0 0
0 0
0 0
0 0
0 0
0 0
0 0
0 0
0 0
0 0
0 0
0 0
0 0
0 0
0 0
0 0
0 0
0 0
0 0
0 0
0 0
0 0
0 0
0 0
0 0
0 0
0 0
0 0
0 0
0 0
0 0
0 0
0 0
0 0
0 0
0 0
0 0
0 0
0 0
0 0
0 0
0 0
0 0
0 0
0 0
0 0
0 0
0 0
0 0
0 0
0 0
0 0
0 0
0 0
0 0
0 0
0 0
0 0
0 0
0 0
0 0
0 0
0 0
0 0
0 0
0 0
0 0
0 0
0 0
0 0
0 0
0 0
0 0
0 0
0 0
0 0
0 0
0 0
0 0
0 0
0 0
0 0
0 0
0 0
0 0
0 0
0 0
0 0
0 0
0 0
0 0
0 0
0 0
0 0
0 0
0 0
0 0
0 0
0 0
0 0
0 0
0 0
0 0
0 0
0 0
0 0
0 0
0 0
0 0
0 0
0 0
0 0
0 0
0 0
0 0
0 0
0 0
0 0
0 0
0 0
0 0
0 0
0 0
0 0
0 0
0 0
0 0
0 0
0 0
0 0
0 0
0 0
0 0
0 0
0 0
0 0
0 0
0 0
0 0
0 0
0 0
0 0
0 0
0 0
0 0
0 0
0 0
0 0
0 0
0 0
0 0
0 0
0 0
0 0
0 0
0 0
0 0
0 0
0 0
0 0
0 0
0 0
0 0
0 0
0 0
0 0
0 0
0 0
0 0
0 0
0 0
0 0
0 0
0 0
0 0
0 0
0 0
0 0
0 0
0 0
0 0
0 0
0 0
0 0
0 0
0 0
0 0
0 0
0 0
0 0
0 0
0 0
0 0
0 0
0 0
0 0
0 0
0 0
0 0
0 0
0 0
0 0
0 0
0 0
0 0
0 0
0 0
0 0
0 0
0 0
0 0
0 0
0 0
0 0
0 0
0 0
0 0
0 0
0 0
0 0
0 0
0 0
0 0
0 0
0 0
0 0
0 0
0 0
0 0
0 0
0 0
0 0
0 0
0 0
0 0
0 0
0 0
0 0
0 0
0 0
0 0
0 0
0 0
0 0
0 0
0 0
0 0
0 0
0 0
0 0
0 0
0 0
0 0
0 0
0 0
0 0
0 0
0 0
0 0
0 0
0 0
0 0
0 0
0 0
0 0
0 0
0 0
0 0
0 0
0 0
0 0
0 0
0 0
0 0
0 0
0 0
0 0
0 0
0 0
0 0
0 0
0 0
0 0
0 0
0 0
0 0
0 0
0 0
0 0
0 0
0 0
0 0
0 0
0 0
0 0
0 0
0 0
0 0
0 0
0 0
0 0
0 0
0 0
0 0
0 0
0 0
0 0
0 0
0 0
0 0
0 0
0 0
0 0
0 0
0 0
0 0
0 0
0 0
0 0
0 0
0 0
0 0
0 0
0 0
0 0
0 0
0 0
0 0
0 0
0 0
0 0
0 0
0 0
0 0
0 0
0 0
0 0
0 0
0 0
0 0
0 0
0 0
0 0
0 0
0 0
0 0
0 0
0 0
0 0
0 0
0 0
0 0
0 0
0 0
0 0
0 0
0 0
0 0
0 0
0 0
0 0
0 0
0 0
0 0
0 0
0 0
0 0
0 0
0 0
0 0
0 0
0 0
0 0
0 0
0 0
0 0
0 0
0 0
0 0
0 0
0 0
0 0
0 0
0 0
0 0
0 0
0 0
0 0
0 0
0 0
0 0
0 0
0 0
0 0
0 0
0 0
0 0
0 0
0 0
0 0
0 0
0 0
0 0
0 0
0 0
0 0
0 0
0 0
0 0
0 0
0 0
0 0
0 0
0 0
0 0
0 0
0 0
0 0
0 0
0 0
0 0
0 0
0 0
0 0
0 0
0 0
0 0
0 0
0 0
0 0
0 0
0 0
0 0
0 0
0 0
0 0
0 0
0 0
0 0
0 0
0 0
0 0
0 0
0 0
0 0
0 0
0 0
0 0
0 0
0 0
0 0
0 0
0 0
0 0
0 0
0 0
0 0
0 0
0 0
0 0
0 0
0 0
0 0
0 0
0 0
0 0
0 0
0 0
0 0
0 0
0 0
0 0
0 0
0 0
0 0
0 0
0 0
0 0
0 0
0 0
0 0
0 0
0 0
0 0
0 0
0 0
0 0
0 0
0 0
0 0
0 0
0 0
0 0
0 0
0 0
0 0
0 0
0 0
0 0
0 0
0 0
0 0
0 0
0 0
0 0
0 0
0 0
0 0
0 0
0 0
0 0
0 0
0 0
0 0
0 0
0 0
0 0
0 0
0 0
0 0
0 0
0 0
0 0
0 0
0 0
0 0
0 0
0 0
0 0
0 0
0 0
0 0
0 0
0 0
0 0
0 0
0 0
0 0
0 0
0 0
0 0
0 0
0 0
0 0
0 0
0 0
0 0
0 0
0 0
0 0
0 0
0 0
0 0
0 0
0 0
0 0
0 0
0 0
0 0
0 0
0 0
0 0
0 0
0 0
0 0
0 0
0 0
0 0
0 0
0 0
0 0
0 0
0 0
0 0
0 0
0 0
0 0
0 0
0 0
0 0
0 0
0 0
0 0
0 0
0 0
0 0
0 0
0 0
0 0
0 0
0 0
0 0
0 0
0 0
0 0
0 0
0 0
0 0
0 0
0 0
0 0
0 0
0 0
0 0
0 0
0 0
0 0
0 0
0 0
0 0
0 0
0 0
0 0
0 0
0 0
0 0
0 0
0 0
0 0
0 0
0 0
0 0
0 0
0 0
0 0
0 0
0 0
0 0
0 0
0 0
0 0
0 0
0 0
0 0
0 0
0 0
0 0
0 0
0 0
0 0
0 0
0 0
0 0
0 0
0 0
0 0
0 0
0 0
0 0
0 0
0 0
0 0
0 0
0 0
0 0
0 0
0 0
0 0
0 0
0 0
0 0
0 0
0 0
0 0
0 0
0 0
0 0
0 0
0 0
0 0
0 0
0 0
0 0
0 0
0 0
0 0
0 0
0 0
0 0
0 0
0 0
0 0
0 0
0 0
0 0
0 0
0 0
0 0
0 0
0 0
0 0
0 0
0 0
0 0
0 0
0 0
0 0
0 0
0 0
0 0
0 0
0 0
0 0
0 0
0 0
0 0
0 0
0 0
0 0
0 0
0 0
0 0
0 0
0 0
0 0
0 0
0 0
0 0
0 0
0 0
0 0
0 0
0 0
0 0
0 0
0 0
0 0
0 0
0 0
0 0
0 0
0 0
0 0
0 0
0 0
0 0
0 0
0 0
0 0
0 0
0 0
0 0
0 0
0 0
0 0
0 0
0 0
0 0
0 0
0 0
0 0
0 0
0 0
0 0
0 0
0 0
0 0
0 0
0 0
0 0
0 0
0 0
0 0
0 0
0 0
0 0
0 0
0 0
0 0
0 0
0 0
0 0
0 0
0 0
0 0
0 0
0 0
0 0
0 0
0 0
0 0
0 0
0 0
0 0
0 0
0 0
0 0
0 0
0 0
0 0
0 0
0 0
0 0
0 0
0 0
0 0
0 0
0 0
0 0
0 0
0 0
0 0
0 0
0 0
0 0
0 0
0 0
0 0
0 0
0 0
0 0
0 0
0 0
0 0
0 0
0 0
0 0
0 0
0 0
0 0
0 0
0 0
0 0
0 0
0 0
0 0
0 0
0 0
0 0
0 0
0 0
0 0
0 0
0 0
0 0
0 0
0 0
0 0
0 0
0 0
0 0
0 0
0 0
0 0
0 0
0 0
0 0
0 0
0 0
0 0
0 0
0 0
0 0
0 0
0 0
0 0
0 0
0 0
0 0
0 0
0 0
0 0
0 0
0 0
0 0
0 0
0 0
0 0
0 0
0 0
0 0
0 0
0 0
0 0
0 0
0 0
0 0
0 0
0 0
0 0
0 0
0 0
0 0
0 0
0 0
0 0
0 0
0 0
0 0
0 0
0 0
0 0
0 0
0 0
0 0
0 0
0 0
0 0
0 0
0 0
0 0
0 0
0 0
0 0
0 0
0 0
0 0
0 0
0 0
0 0
0 0
0 0
0 0
0 0
0 0
0 0
0 0
0 0
0 0
0 0
0 0
0 0
0 0
0 0
0 0
0 0
0 0
0 0
0 0
0 0
0 0
0 0
0 0
0 0
0 0
0 0
0 0
0 0
0 0
0 0
0 0
0 0
0 0
0 0
0 0
0 0
0 0
0 0
0 0
0 0
0 0
0 0
0 0
0 0
0 0
0 0
0 0
0 0
0 0
0 0
0 0
0 0
0 0
0 0
0 0
0 0
0 0
0 0
0 0
0 0
0 0
0 0
0 0
0 0
0 0
0 0
0 0
0 0
0 0
0 0
0 0
0 0
0 0
0 0
0 0
0 0
0 0
0 0
0 0
0 0
0 0
0 0
0 0
0 0
0 0
0 0
0 0
0 0
0 0
0 0
0 0
0 0
0 0
0 0
0 0
0 0
0 0
0 0
0 0
0 0
0 0
0 0
0 0
0 0
0 0
0 0
0 0
0 0
0 0
0 0
0 0
0 0
0 0
0 0
0 0
0 0
0 0
0 0
0 0
0 0
0 0
0 0
0 0
0 0
0 0
0 0
0 0
0 0
0 0
0 0
0 0
0 0
0 0
0 0
0 0
0 0
0 0
0 0
0 0
0 0
0 0
0 0
0 0
0 0
0 0
0 0
0 0
0 0
0 0
0 0
0 0
0 0
0 0
0 0
0 0
0 0
0 0
0 0
0 0
0 0
0 0
0 0
0 0
0 0
0 0
0 0
0 0
0 0
0 0
0 0
0 0
0 0
0 0
0 0
0 0
0 0
0 0
0 0
0 0
0 0
0 0
0 0
0 0
0 0
0 0
0 0
0 0
0 0
0 0
0 0
0 0
0 0
0 0
0 0
0 0
0 0
0 0
0 0
0 0
0 0
0 0
0 0
0 0
0 0
0 0
0 0
0 0
0 0
0 0
0 0
0 0
0 0
0 0
0 0
0 0
0 0
0 0
0 0
0 0
0 0
0 0
0 0
0 0
0 0
0 0
0 0
0 0
0 0
0 0
0 0
0 0
0 0
0 0
0 0
0 0
0 0
0 0
0 0
0 0
0 0
0 0
0 0
0 0
0 0
0 0
0 0
0 0
0 0
0 0
0 0
0 0
0 0
0 0
0 0
0 0
0 0
0 0
0 0
0 0
0 0
0 0
0 0
0 0
0 0
0 0
0 0
0 0
0 0
0 0
0 0
0 0
0 0
0 0
0 0
0 0
0 0
0 0
0 0
0 0
0 0
0 0
0 0
0 0
0 0
0 0
0 0
0 0
0 0
0 0
0 0
0 0
0 0
0 0
0 0
0 0
0 0
0 0
0 0
0 0
0 0
0 0
0 0
0 0
0 0
0 0
0 0
0 0
0 0
0 0
0 0
0 0
0 0
0 0
0 0
0 0
0 0
0 0
0 0
0 0
0 0
0 0
0 0
0 0
0 0
0 0
0 0
0 0
0 0
0 0
0 0
0 0
0 0
0 0
0 0
0 0
0 0
0 0
0 0
0 0
0 0
0 0
0 0
0 0
0 0
0 0
0 0
0 0
0 0
0 0
0 0
0 0
0 0
0 0
0 0
0 0
0 0
0 0
0 0
0 0
0 0
0 0
0 0
0 0
0 0
0 0
0 0
0 0
0 0
0 0
0 0
0 0
0 0
0 0
0 0
0 0
0 0
0 0
0 0
0 0
0 0
0 0
0 0
0 0
0 0
0 0
0 0
0 0
0 0
0 0
0 0
0 0
0 0
0 0
0 0
0 0
0 0
0 0
0 0
0 0
0 0
0 0
0 0
0 0
0 0
0 0
0 0
0 0
0 0
0 0
0 0
0 0
0 0
0 0
0 0
0 0
0 0
0 0
0 0
0 0
0 0
0 0
0 0
0 0
0 0
0 0
0 0
0 0
0 0
0 0
0 0
0 0
0 0
0 0
0 0
0 0
0 0
0 0
0 0
0 0
0 0
0 0
0 0
0 0
0 0
0 0
0 0
0 0
0 0
0 0
0 0
0 0
0 0
0 0
0 0
0 0
0 0
0 0
0 0
0 0
0 0
0 0
0 0
0 0
0 0
0 0
0 0
0 0
0 0
0 0
0 0
0 0
0 0
0 0
0 0
0 0
0 0
0 0
0 0
0 0
0 0
0 0
0 0
0 0
0 0
0 0
0 0
0 0
0 0
0 0
0 0
0 0
0 0
0 0
0 0
0 0
0 0
0 0
0 0
0 0
0 0
0 0
0 0
0 0
0 0
0 0
0 0
0 0
0 0
0 0
0 0
0 0
0 0
0 0
0 0
0 0
0 0
0 0
0 0
0 0
0 0
0 0
0 0
0 0
0 0
0 0
0 0
0 0
0 0
0 0
0 0
0 0
0 0
0 0
0 0
0 0
0 0
0 0
0 0
0 0
0 0
0 0
0 0
0 0
0 0
0 0
0 0
0 0
0 0
0 0
0 0
0 0
0 0
0 0
0 0
0 0
0 0
0 0
0 0
0 0
0 0
0 0
0 0
0 0
0 0
0 0
0 0
0 0
0 0
0 0
0 0
0 0
0 0
0 0
0 0
0 0
0 0
0 0
0 0
0 0
0 0
0 0
0 0
0 0
0 0
0 0
0 0
0 0
0 0
0 0
0 0
0 0
0 0
0 0
0 0
0 0
0 0
0 0
0 0
0 0
0 0
0 0
0 0
0 0
0 0
0 0
0 0
0 0
0 0
0 0
0 0
0 0
0 0
0 0
0 0
0 0
0 0
0 0
0 0
0 0
0 0
0 0
0 0
0 0
0 0
0 0
0 0
0 0
0 0
0 0
0 0
0 0
0 0
0 0
0 0
0 0
0 0
0 0
0 0
0 0
0 0
0 0
0 0
0 0
0 0
0 0
0 0
0 0
0 0
0 0
0 0
0 0
0 0
0 0
0 0
0 0
0 0
0 0
0 0
0 0
0 0
0 0
0 0
0 0
0 0
0 0
0 0
0 0
0 0
0 0
0 0
0 0
0 0
0 0
0 0
0 0
0 0
0 0
0 0
0 0
0 0
0 0
0 0
0 0
0 0
0 0
0 0
0 0
0 0
0 0
0 0
0 0
0 0
0 0
0 0
0 0
0 0
0 0
0 0
0 0
0 0
0 0
0 0
0 0
0 0
0 0
0 0
0 0
0 0
0 0
0 0
0 0
0 0
0 0
0 0
0 0
0 0
0 0
0 0
0 0
0 0
0 0
0 0
0 0
0 0
0 0
0 0
0 0
0 0
0 0
0 0
0 0
0 0
0 0
0 0
0 0
0 0
0 0
0 0
0 0
0 0
0 0
0 0
0 0
0 0
0 0
0 0
0 0
0 0
0 0
0 0
0 0
0 0
0 0
0 0
0 0
0 0
0 0
0 0
0 0
0 0
0 0
0 0
0 0
0 0
0 0
0 0
0 0
0 0
0 0
0 0
0 0
0 0
0 0
0 0
0 0
0 0
0 0
0 0
0 0
0 0
0 0
0 0
0 0
0 0
0 0
0 0
0 0
0 0
0 0
0 0
0 0
0 0
0 0
0 0
0 0
0 0
0 0
0 0
0 0
0 0
0 0
0 0
0 0
0 0
0 0
0 0
0 0
0 0
0 0
0 0
0 0
0 0
0 0
0 0
0 0
0 0
0 0
0 0
0 0
0 0
0 0
0 0
0 0
0 0
0 0
0 0
0 0
0 0
0 0
0 0
0 0
0 0
0 0
0 0
0 0
0 0
0 0
0 0
0 0
0 0
0 0
0 0
0 0
0 0
0 0
0 0
0 0
0 0
0 0
0 0
0 0
0 0
0 0
0 0
0 0
0 0
0 0
0 0
0 0
0 0
0 0
0 0
0 0
0 0
0 0
0 0
0 0
0 0
0 0
0 0
0 0
0 0
0 0
0 0
0 0
0 0
0 0
0 0
0 0
0 0
0 0
0 0
0 0
0 0
0 0
0 0
0 0
0 0
0 0
0 0
0 0
0 0
0 0
0 0
0 0
0 0
0 0
0 0
0 0
0 0
0 0
0 0
0 0
0 0
0 0
0 0
0 0
0 0
0 0
0 0
0 0
0 0
0 0
0 0
0 0
0 0
0 0
0 0
0 0
0 0
0 0
0 0
0 0
0 0
0 0
0 0
0 0
0 0
0 0
0 0
0 0
0 0
0 0
0 0
0 0
0 0
0 0
0 0
0 0
0 0
0 0
0 0
0 0
0 0
0 0
0 0
0 0
0 0
0 0
0 0
0 0
0 0
0 0
0 0
0 0
0 0
0 0
0 0
0 0
0 0
0 0
0 0
0 0
0 0
0 0
0 0
0 0
0 0
0 0
0 0
0 0
0 0
0 0
0 0
0 0
0 0
0 0
0 0
0 0
0 0
0 0
0 0
0 0
0 0
0 0
0 0
0 0
0 0
0 0
0 0
0 0
0 0
0 0
0 0
0 0
0 0
0 0
0 0
0 0
0 0
0 0
0 0
0 0
0 0
0 0
0 0
0 0
0 0
0 0
0 0
0 0
0 0
0 0
0 0
0 0
0 0
0 0
0 0
0 0
0 0
0 0
0 0
0 0
0 0
0 0
0 0
0 0
0 0
0 0
0 0
0 0
0 0
0 0
0 0
0 0
0 0
0 0
0 0
0 0
0 0
0 0
0 0
0 0
0 0
0 0
0 0
0 0
0 0
0 0
0 0
0 0
0 0
0 0
0 0
0 0
0 0
0 0
0 0
0 0
0 0
0 0
0 0
0 0
0 0
0 0
0 0
0 0
0 0
0 0
0 0
0 0
0 0
0 0
0 0
0 0
0 0
0 0
0 0
0 0
0 0
0 0
0 0
0 0
0 0
0 0
0 0
0 0
0 0
0 0
0 0
0 0
0 0
0 0
0 0
0 0
0 0
0 0
0 0
0 0
0 0
0 0
0 0
0 0
0 0
0 0
0 0
0 0
0 0
0 0
0 0
0 0
0 0
0 0
0 0
0 0
0 0
0 0
0 0
0 0
0 0
0 0
0 0
0 0
0 0
0 0
0 0
0 0
0 0
0 0
0 0
0 0
0 0
0 0
0 0
0 0
0 0
0 0
0 0
0 0
0 0
0 0
0 0
0 0
0 0
0 0
0 0
0 0
0 0
0 0
0 0
0 0
0 0
0 0
0 0
0 0
0 0
0 0
0 0
0 0
0 0
0 0
0 0
0 0
0 0
0 0
0 0
0 0
0 0
0 0
0 0
0 0
0 0
0 0
0 0
0 0
0 0
0 0
0 0
0 0
0 0
0 0
0 0
0 0
0 0
0 0
0 0
0 0
0 0
0 0
0 0
0 0
0 0
0 0
0 0
0 0
0 0
0 0
0 0
0 0
0 0
0 0
0 0
0 0
0 0
0 0
0 0
0 0
0 0
0 0
0 0
0 0
0 0
0 0
0 0
0 0
0 0
0 0
0 0
0 0
0 0
0 0
0 0
0 0
0 0
0 0
0 0
0 0
0 0
0 0
0 0
0 0
0 0
0 0
0 0
0 0
0 0
0 0
0 0
0 0
0 0
0 0
0 0
0 0
0 0
0 0
0 0
0 0
0 0
0 0
0 0
0 0
0 0
0 0
0 0
0 0
0 0
0 0
0 0
0 0
0 0
0 0
0 0
0 0
0 0
0 0
0 0
0 0
0 0
0 0
0 0
0 0
0 0
0 0
0 0
0 0
0 0
0 0
0 0
0 0
0 0
0 0
0 0
0 0
0 0
0 0
0 0
0 0
0 0
0 0
0 0
0 0
0 0
0 0
0 0
0 0
0 0
0 0
0 0
0 0
0 0
0 0
0 0
0 0
0 0
0 0
0 0
0 0
0 0
0 0
0 0
0 0
0 0
0 0
0 0
0 0
0 0
0 0
0 0
0 0
0 0
0 0
0 0
0 0
0 0
0 0
0 0
0 0
0 0
0 0
0 0
0 0
0 0
0 0
0 0
0 0
0 0
0 0
0 0
0 0
0 0
0 0
0 0
0 0
0 0
0 0
0 0
0 0
0 0
0 0
0 0
0 0
0 0
0 0
0 0
0 0
0 0
0 0
0 0
0 0
0 0
0 0
0 0
0 0
0 0
0 0
0 0
0 0
0 0
0 0
0 0
0 0
0 0
0 0
0 0
0 0
0 0
0 0
0 0
0 0
0 0
0 0
0 0
0 0
0 0
0 0
0 0
0 0
0 0
0 0
0 0
0 0
0 0
0 0
0 0
0 0
0 0
0 0
0 0
0 0
0 0
0 0
0 0
0 0
0 0
0 0
0 0
0 0
0 0
0 0
0 0
0 0
0 0
0 0
0 0
0 0
0 0
0 0
0 0
0 0
0 0
0 0
0 0
0 0
0 0
0 0
0 0
0 0
0 0
0 0
0 0
0 0
0 0
0 0
0 0
0 0
0 0
0 0
0 0
0 0
0 0
0 0
0 0
0 0
0 0
0 0
0 0
0 0
0 0
0 0
0 0
0 0
0 0
0 0
0 0
0 0
0 0
0 0
0 0
0 0
0 0
0 0
0 0
0 0
0 0
0 0
0 0
0 0
0 0
0 0
0 0
0 0
0 0
0 0
0 0
0 0
0 0
0 0
0 0
0 0
0 0
0 0
0 0
0 0
0 0
0 0
0 0
0 0
0 0
0 0
0 0
0 0
0 0
0 0
0 0
0 0
0 0
0 0
0 0
0 0
0 0
0 0
0 0
0 0
0 0
0 0
0 0
0 0
0 0
0 0
0 0
0 0
0 0
0 0
0 0
0 0
0 0
0 0
0 0
0 0
0 0
0 0
0 0
0 0
0 0
0 0
0 0
0 0
0 0
0 0
0 0
0 0
0 0
0 0
0 0
0 0
0 0
0 0
0 0
0 0
0 0
0 0
0 0
0 0
0 0
0 0
0 0
0 0
0 0
0 0
0 0
0 0
0 0
0 0
0 0
0 0
0 0
0 0
0 0
0 0
0 0
0 0
0 0
0 0
0 0
0 0
0 0
0 0
0 0
0 0
0 0
0 0
0 0
0 0
0 0
0 0
0 0
0 0
0 0
0 0
0 0
0 0
0 0
0 0
0 0
0 0
0 0
0 0
0 0
0 0
0 0
0 0
0 0
0 0
0 0
0 0
0 0
0 0
0 0
0 0
0 0
0 0
0 0
0 0
0 0
0 0
0 0
0 0
0 0
0 0
0 0
0 0
0 0
0 0
0 0
0 0
0 0
0 0
0 0
0 0
0 0
0 0
0 0
0 0
0 0
0 0
0 0
0 0
0 0
0 0
0 0
0 0
0 0
0 0
0 0
0 0
0 0
0 0
0 0
0 0
0 0
0 0
0 0
0 0
0 0
0 0
0 0
0 0
0 0
0 0
0 0
0 0
0 0
0 0
0 0
0 0
0 0
0 0
0 0
0 0
0 0
0 0
0 0
0 0
0 0
0 0
0 0
0 0
0 0
0 0
0 0
0 0
0 0
0 0
0 0
0 0
0 0
0 0
0 0
0 0
0 0
0 0
0 0
0 0
0 0
0 0
0 0
0 0
0 0
0 0
0 0
0 0
0 0
0 0
0 0
0 0
0 0
0 0
0 0
0 0
0 0
0 0
0 0
0 0
0 0
0 0
0 0
0 0
0 0
0 0
0 0
0 0
0 0
0 0
0 0
0 0
0 0
0 0
0 0
0 0
0 0
0 0
0 0
0 0
0 0
0 0
0 0
0 0
0 0
0 0
0 0
0 0
0 0
0 0
0 0
0 0
0 0
0 0
0 0
0 0
0 0
0 0
0 0
0 0
0 0
0 0
0 0
0 0
0 0
0 0
0 0
0 0
0 0
0 0
0 0
0 0
0 0
0 0
0 0
0 0
0 0
0 0
0 0
0 0
0 0
0 0
0 0
0 0
0 0
0 0
0 0
0 0
0 0
0 0
0 0
0 0
0 0
0 0
0 0
0 0
0 0
0 0
0 0
0 0
0 0
0 0
0 0
0 0
0 0
0 0
0 0
0 0
0 0
0 0
0 0
0 0
0 0
0 0
0 0
0 0
0 0
0 0
0 0
0 0
0 0
0 0
0 0
0 0
0 0
0 0
0 0
0 0
0 0
0 0
0 0
0 0
0 0
0 0
0 0
0 0
0 0
0 0
0 0
0 0
0 0
0 0
0 0
0 0
0 0
0 0
0 0
0 0
0 0
0 0
0 0
0 0
0 0
0 0
0 0
0 0
0 0
0 0
0 0
0 0
0 0
0 0
0 0
0 0
0 0
0 0
0 0
0 0
0 0
0 0
0 0
0 0
0 0
0 0
0 0
0 0
0 0
0 0
0 0
0 0
0 0
0 0
0 0
0 0
0 0
0 0
0 0
0 0
0 0
0 0
0 0
0 0
0 0
0 0
0 0
0 0
0 0
0 0
0 0
0 0
0 0
0 0
0 0
0 0
0 0
0 0
0 0
0 0
0 0
0 0
0 0
0 0
0 0
0 0
0 0
0 0
0 0
0 0
0 0
0 0
0 0
0 0
0 0
0 0
0 0
0 0
0 0
0 0
0 0
0 0
0 0
0 0
0 0
0 0
0 0
0 0
0 0
0 0
0 0
0 0
0 0
0 0
0 0
0 0
0 0
0 0
0 0
0 0
0 0
0 0
0 0
0 0
0 0
0 0
0 0
0 0
0 0
0 0
0 0
0 0
0 0
0 0
0 0
0 0
0 0
0 0
0 0
0 0
0 0
0 0
0 0
0 0
0 0
0 0
0 0
0 0
0 0
0 0
0 0
0 0
0 0
0 0
0 0
0 0
0 0
0 0
0 0
0 0
0 0
0 0
0 0
0 0
0 0
0 0
0 0
0 0
0 0
0 0
0 0
0 0
0 0
0 0
0 0
0 0
0 0
0 0
0 0
0 0
0 0
0 0
0 0
0 0
0 0
0 0
0 0
0 0
0 0
0 0
0 0
0 0
0 0
0 0
0 0
0 0
0 0
0 0
0 0
0 0
0 0
0 0
0 0
0 0
0 0
0 0
0 0
0 0
0 0
0 0
0 0
0 0
0 0
0 0
0 0
0 0
0 0
0 0
0 0
0 0
0 0
0 0
0 0
0 0
0 0
0 0
0 0
0 0
0 0
0 0
0 0
0 0
0 0
0 0
0 0
0 0
0 0
0 0
0 0
0 0
0 0
0 0
0 0
0 0
0 0
0 0
0 0
0 0
0 0
0 0
0 0
0 0
0 0
0 0
0 0
0 0
0 0
0 0
0 0
0 0
0 0
0 0
0 0
0 0
0 0
0 0
0 0
0 0
0 0
0 0
0 0
0 0
0 0
0 0
0 0
0 0
0 0
0 0
0 0
0 0
0 0
0 0
0 0
0 0
0 0
0 0
0 0
0 0
0 0
0 0
0 0
0 0
0 0
0 0
0 0
0 0
0 0
0 0
0 0
0 0
0 0
0 0
0 0
0 0
0 0
0 0
0 0
0 0
0 0
0 0
0 0
0 0
0 0
0 0
0 0
0 0
0 0
0 0
0 0
0 0
0 0
0 0
0 0
0 0
0 0
0 0
0 0
0 0
0 0
0 0
0 0
0 0
0 0
0 0
0 0
0 0
0 0
0 0
0 0
0 0
0 0
0 0
0 0
0 0
0 0
0 0
0 0
0 0
0 0
0 0
0 0
0 0
0 0
0 0
0 0
0 0
0 0
0 0
0 0
0 0
0 0
0 0
0 0
0 0
0 0
0 0
0 0
0 0
0 0
0 0
0 0
0 0
0 0
0 0
0 0
0 0
0 0
0 0
0 0
0 0
0 0
0 0
0 0
0 0
0 0
0 0
0 0
0 0
0 0
0 0
0 0
0 0
0 0
0 0
0 0
0 0
0 0
0 0
0 0
0 0
0 0
0 0
0 0
0 0
0 0
0 0
0 0
0 0
0 0
0 0
0 0
0 0
0 0
0 0
0 0
0 0
0 0
0 0
0 0
0 0
0 0
0 0
0 0
0 0
0 0
0 0
0 0
0 0
0 0
0 0
0 0
0 0
0 0
0 0
0 0
0 0
0 0
0 0
0 0
0 0
0 0
0 0
0 0
0 0
0 0
0 0
0 0
0 0
0 0
0 0
0 0
0 0
0 0
0 0
0 0
0 0
0 0
0 0
0 0
0 0
0 0
0 0
0 0
0 0
0 0
0 0
0 0
0 0
0 0
0 0
0 0
0 0
0 0
0 0
0 0
0 0
0 0
0 0
0 0
0 0
0 0
0 0
0 0
0 0
0 0
0 0
0 0
0 0
0 0
0 0
0 0
0 0
0 0
0 0
0 0
0 0
0 0
0 0
0 0
0 0
0 0
0 0
0 0
0 0
0 0
0 0
0 0
0 0
0 0
0 0
0 0
0 0
0 0
0 0
0 0
0 0
0 0
0 0
0 0
0 0
0 0
0 0
0 0
0 0
0 0
0 0
0 0
0 0
0 0
0 0
0 0
0 0
0 0
0 0
0 0
0 0
0 0
0 0
0 0
0 0
0 0
0 0
0 0
0 0
0 0
0 0
0 0
0 0
0 0
0 0
0 0
0 0
0 0
0 0
0 0
0 0
0 0
0 0
0 0
0 0
0 0
0 0
0 0
0 0
0 0
0 0
0 0
0 0
0 0
0 0
0 0
0 0
0 0
0 0
0 0
0 0
0 0
0 0
0 0
0 0
0 0
0 0
0 0
0 0
0 0
0 0
0 0
0 0
0 0
0 0
0 0
0 0
0 0
0 0
0 0
0 0
0 0
0 0
0 0
0 0
0 0
0 0
0 0
0 0
0 0
0 0
0 0
0 0
0 0
0 0
0 0
0 0
0 0
0 0
0 0
0 0
0 0
0 0
0 0
0 0
0 0
0 0
0 0
0 0
0 0
0 0
0 0
0 0
0 0
0 0
0 0
0 0
0 0
0 0
0 0
0 0
0 0
0 0
0 0
0 0
0 0
0 0
0 0
0 0
0 0
0 0
0 0
0 0
0 0
0 0
0 0
0 0
0 0
0 0
0 0
0 0
0 0
0 0
0 0
0 0
0 0
0 0
0 0
0 0
0 0
0 0
0 0
0 0
0 0
0 0
0 0
0 0
0 0
0 0
0 0
0 0
0 0
0 0
0 0
0 0
0 0
0 0
0 0
0 0
0 0
0 0
0 0
0 0
0 0
0 0
0 0
0 0
0 0
0 0
0 0
0 0
0 0
0 0
0 0
0 0
0 0
0 0
0 0
0 0
0 0
0 0
0 0
0 0
0 0
0 0
0 0
0 0
0 0
0 0
0 0
0 0
0 0
0 0
0 0
0 0
0 0
0 0
0 0
0 0
0 0
0 0
0 0
0 0
0 0
0 0
0 0
0 0
0 0
0 0
0 0
0 0
0 0
0 0
0 0
0 0
0 0
0 0
0 0
0 0
0 0
0 0
0 0
0 0
0 0
0 0
0 0
0 0
0 0
0 0
0 0
0 0
0 0
0 0
0 0
0 0
0 0
0 0
0 0
0 0
0 0
0 0
0 0
0 0
0 0
0 0
0 0
0 0
0 0
0 0
0 0
0 0
0 0
0 0
0 0
0 0
0 0
0 0
0 0
0 0
0 0
0 0
0 0
0 0
0 0
0 0
0 0
0 0
0 0
0 0
0 0
0 0
0 0
0 0
0 0
0 0
0 0
0 0
0 0
0 0
0 0
0 0
0 0
0 0
0 0
0 0
0 0
0 0
0 0
0 0
0 0
0 0
0 0
0 0
0 0
0 0
0 0
0 0
0 0
0 0
0 0
0 0
0 0
0 0
0 0
0 0
0 0
0 0
0 0
0 0
0 0
0 0
0 0
0 0
0 0
0 0
0 0
0 0
0 0
0 0
0 0
0 0
0 0
0 0
0 0
0 0
0 0
0 0
0 0
0 0
0 0
0 0
0 0
0 0
0 0
0 0
0 0
0 0
0 0
0 0
0 0
0 0
0 0
0 0
0 0
0 0
0 0
0 0
0 0
0 0
0 0
0 0
0 0
0 0
0 0
0 0
0 0
0 0
0 0
0 0
0 0
0 0
0 0
0 0
0 0
0 0
0 0
0 0
0 0
0 0
0 0
0 0
0 0
0 0
0 0
0 0
0 0
0 0
0 0
0 0
0 0
0 0
0 0
0 0
0 0
0 0
0 0
0 0
0 0
0 0
0 0
0 0
0 0
0 0
0 0
0 0
0 0
0 0
0 0
0 0
0 0
0 0
0 0
0 0
0 0
0 0
0 0
0 0
0 0
0 0
0 0
0 0
0 0
0 0
0 0
0 0
0 0
0 0
0 0
0 0
0 0
0 0
0 0
0 0
0 0
0 0
0 0
0 0
0 0
0 0
0 0
0 0
0 0
0 0
0 0
0 0
0 0
0 0
0 0
0 0
0 0
0 0
0 0
0 0
0 0
0 0
0 0
0 0
0 0
0 0
0 0
0 0
0 0
0 0
0 0
0 0
0 0
0 0
0 0
0 0
0 0
0 0
0 0
0 0
0 0
0 0
0 0
0 0
0 0
0 0
0 0
0 0
0 0
0 0
0 0
0 0
0 0
0 0
0 0
0 0
0 0
0 0
0 0
0 0
0 0
0 0
0 0
0 0
0 0
0 0
0 0
0 0
0 0
0 0
0 0
0 0
0 0
0 0
0 0
0 0
0 0
0 0
0 0
0 0
0 0
0 0
0 0
0 0
0 0
0 0
0 0
0 0
0 0
0 0
0 0
0 0
0 0
0 0
0 0
0 0
0 0
0 0
0 0
0 0
0 0
0 0
0 0
0 0
0 0
0 0
0 0
0 0
0 0
0 0
0 0
0 0
0 0
0 0
0 0
0 0
0 0
0 0
0 0
0 0
0 0
0 0
0 0
0 0
0 0
0 0
0 0
0 0
0 0
0 0
0 0
0 0
0 0
0 0
0 0
0 0
0 0
0 0
0 0
0 0
0 0
0 0
0 0
0 0
0 0
0 0
0 0
0 0
0 0
0 0
0 0
0 0
0 0
0 0
0 0
0 0
0 0
0 0
0 0
0 0
0 0
0 0
0 0
0 0
0 0
0 0
0 0
0 0
0 0
0 0
0 0
0 0
0 0
0 0
0 0
0 0
0 0
0 0
0 0
0 0
0 0
0 0
0 0
0 0
0 0
0 0
0 0
0 0
0 0
0 0
0 0
0 0
0 0
0 0
0 0
0 0
0 0
0 0
0 0
0 0
0 0
0 0
0 0
0 0
0 0
0 0
0 0
0 0
0 0
0 0
0 0
0 0
0 0
0 0
0 0
0 0
0 0
0 0
0 0
0 0
0 0
0 0
0 0
0 0
0 0
0 0
0 0
0 0
0 0
0 0
0 0
0 0
0 0
0 0
0 0
0 0
0 0
0 0
0 0
0 0
0 0
0 0
0 0
0 0
0 0
0 0
0 0
0 0
0 0
0 0
0 0
0 0
0 0
0 0
0 0
0 0
0 0
0 0
0 0
0 0
0 0
0 0
0 0
0 0
0 0
0 0
0 0
0 0
0 0
0 0
0 0
0 0
0 0
0 0
0 0
0 0
0 0
0 0
0 0
0 0
0 0
0 0
0 0
0 0
0 0
0 0
0 0
0 0
0 0
0 0
0 0
0 0
0 0
0 0
0 0
0 0
0 0
0 0
0 0
0 0
0 0
0 0
0 0
0 0
0 0
0 0
0 0
0 0
0 0
0 0
0 0
0 0
0 0
0 0
0 0
0 0
0 0
0 0
0 0
0 0
0 0
0 0
0 0
0 0
0 0
0 0
0 0
0 0
0 0
0 0
0 0
0 0
0 0
0 0
0 0
0 0
0 0
0 0
0 0
0 0
0 0
0 0
0 0
0 0
0 0
0 0
0 0
0 0
0 0
0 0
0 0
0 0
0 0
0 0
0 0
0 0
0 0
0 0
0 0
0 0
0 0
0 0
0 0
0 0
0 0
0 0
0 0
0 0
0 0
0 0
0 0
0 0
0 0
0 0
0 0
0 0
0 0
0 0
0 0
0 0
0 0
0 0
0 0
0 0
0 0
0 0
0 0
0 0
0 0
0 0
0 0
0 0
0 0
0 0
0 0
0 0
0 0
0 0
0 0
0 0
0 0
0 0
0 0
0 0
0 0
0 0
0 0
0 0
0 0
0 0
0 0
0 0
0 0
0 0
0 0
0 0
0 0
0 0
0 0
0 0
0 0
0 0
0 0
0 0
0 0
0 0
0 0
0 0
0 0
0 0
0 0
0 0
0 0
0 0
0 0
0 0
0 0
0 0
0 0
0 0
0 0
0 0
0 0
0 0
0 0
0 0
0 0
0 0
0 0
0 0
0 0
0 0
0 0
0 0
0 0
0 0
0 0
0 0
0 0
0 0
0 0
0 0
0 0
0 0
0 0
0 0
0 0
0 0
0 0
0 0
0 0
0 0
0 0
0 0
0 0
0 0
0 0
0 0
0 0
0 0
0 0
0 0
0 0
0 0
0 0
0 0
0 0
0 0
0 0
0 0
0 0
0 0
0 0
0 0
0 0
0 0
0 0
0 0
0 0
0 0
0 0
0 0
0 0
0 0
0 0
0 0
0 0
0 0
0 0
0 0
0 0
0 0
0 0
0 0
0 0
0 0
0 0
0 0
0 0
0 0
0 0
0 0
0 0
0 0
0 0
0 0
0 0
0 0
0 0
0 0
0 0
0 0
0 0
0 0
0 0
0 0
0 0
0 0
0 0
0 0
0 0
0 0
0 0
0 0
0 0
0 0
0 0
0 0
0 0
0 0
0 0
0 0
0 0
0 0
0 0
0 0
0 0
0 0
0 0
0 0
0 0
0 0
0 0
0 0
0 0
0 0
0 0
0 0
0 0
0 0
0 0
0 0
0 0
0 0
0 0
0 0
0 0
0 0
0 0
0 0
0 0
0 0
0 0
0 0
0 0
0 0
0 0
0 0
0 0
0 0
0 0
0 0
0 0
0 0
0 0
0 0
0 0
0 0
0 0
0 0
0 0
0 0
0 0
0 0
0 0
0 0
0 0
0 0
0 0
0 0
0 0
0 0
0 0
0 0
0 0
0 0
0 0
0 0
0 0
0 0
0 0
0 0
0 0
0 0
0 0
0 0
0 0
0 0
0 0
0 0
0 0
0 0
0 0
0 0
0 0
0 0
0 0
0 0
0 0
0 0
0 0
0 0
0 0
0 0
0 0
0 0
0 0
0 0
0 0
0 0
0 0
0 0
0 0
0 0
0 0
0 0
0 0
0 0
0 0
0 0
0 0
0 0
0 0
0 0
0 0
0 0
0 0
0 0
0 0
0 0
0 0
0 0
0 0
0 0
0 0
0 0
0 0
0 0
0 0
0 0
0 0
0 0
0 0
0 0
0 0
0 0
0 0
0 0
0 0
0 0
0 0
0 0
0 0
0 0
0 0
0 0
0 0
0 0
0 0
0 0
0 0
0 0
0 0
0 0
0 0
0 0
0 0
0 0
0 0
0 0
0 0
0 0
0 0
0 0
0 0
0 0
0 0
0 0
0 0
0 0
0 0
0 0
0 0
0 0
0 0
0 0
0 0
0 0
0 0
0 0
0 0
0 0
0 0
0 0
0 0
0 0
0 0
0 0
0 0
0 0
0 0
0 0
0 0
0 0
0 0
0 0
0 0
0 0
0 0
0 0
0 0
0 0
0 0
0 0
0 0
0 0
0 0
0 0
0 0
0 0
0 0
0 0
0 0
0 0
0 0
0 0
0 0
0 0
0 0
0 0
0 0
0 0
0 0
0 0
0 0
0 0
0 0
0 0
0 0
0 0
0 0
0 0
0 0
0 0
0 0
0 0
0 0
0 0
0 0
0 0
0 0
0 0
0 0
0 0
0 0
0 0
0 0
0 0
0 0
0 0
0 0
0 0
0 0
0 0
0 0
0 0
0 0
0 0
0 0
0 0
0 0
0 0
0 0
0 0
0 0
0 0
0 0
0 0
0 0
0 0
0 0
0 0
0 0
0 0
0 0
0 0
0 0
0 0
0 0
0 0
0 0
0 0
0 0
0 0
0 0
0 0
0 0
0 0
0 0
0 0
0 0
0 0
0 0
0 0
0 0
0 0
0 0
0 0
0 0
0 0
0 0
0 0
0 0
0 0
0 0
0 0
0 0
0 0
0 0
0 0
0 0
0 0
0 0
0 0
0 0
0 0
0 0
0 0
0 0
0 0
0 0
0 0
0 0
0 0
0 0
0 0
0 0
0 0
0 0
0 0
0 0
0 0
0 0
0 0
0 0
0 0
0 0
0 0
0 0
0 0
0 0
0 0
0 0
0 0
0 0
0 0
0 0
0 0
0 0
0 0
0 0
0 0
0 0
0 0
0 0
0 0
0 0
0 0
0 0
0 0
0 0
0 0
0 0
0 0
0 0
0 0
0 0
0 0
0 0
0 0
0 0
0 0
0 0
0 0
0 0
0 0
0 0
0 0
0 0
0 0
0 0
0 0
0 0
0 0
0 0
0 0
0 0
0 0
0 0
0 0
0 0
0 0
0 0
0 0
0 0
0 0
0 0
0 0
0 0
0 0
0 0
0 0
0 0
0 0
0 0
0 0
0 0
0 0
0 0
0 0
0 0
0 0
0 0
0 0
0 0
0 0
0 0
0 0
0 0
0 0
0 0
0 0
0 0
0 0
0 0
0 0
0 0
0 0
0 0
0 0
0 0
0 0
0 0
0 0
0 0
0 0
0 0
0 0
0 0
0 0
0 0
0 0
0 0
0 0
0 0
0 0
0 0
0 0
0 0
0 0
0 0
0 0
0 0
0 0
0 0
0 0
0 0
0 0
0 0
0 0
0 0
0 0
0 0
0 0
0 0
0 0
0 0
0 0
0 0
0 0
0 0
0 0
0 0
0 0
0 0
0 0
0 0
0 0
0 0
0 0
0 0
0 0
0 0
0 0
0 0
0 0
0 0
0 0
0 0
0 0
0 0
0 0
0 0
0 0
0 0
0 0
0 0
0 0
0 0
0 0
0 0
0 0
0 0
0 0
0 0
0 0
0 0
0 0
0 0
0 0
0 0
0 0
0 0
0 0
0 0
0 0
0 0
0 0
0 0
0 0
0 0
0 0
0 0
0 0
0 0
0 0
0 0
0 0
0 0
0 0
0 0
0 0
0 0
0 0
0 0
0 0
0 0
0 0
0 0
0 0
0 0
0 0
0 0
0 0
0 0
0 0
0 0
0 0
0 0
0 0
0 0
0 0
0 0
0 0
0 0
0 0
0 0
0 0
0 0
0 0
0 0
0 0
0 0
0 0
0 0
0 0
0 0
0 0
0 0
0 0
0 0
0 0
0 0
0 0
0 0
0 0
0 0
0 0
0 0
0 0
0 0
0 0
0 0
0 0
0 0
0 0
0 0
0 0
0 0
0 0
0 0
0 0
0 0
0 0
0 0
0 0
0 0
0 0
0 0
0 0
0 0
0 0
0 0
0 0
0 0
0 0
0 0
0 0
0 0
0 0
0 0
0 0
0 0
0 0
0 0
0 0
0 0
0 0
0 0
0 0
0 0
0 0
0 0
0 0
0 0
0 0
0 0
0 0
0 0
0 0
0 0
0 0
0 0
0 0
0 0
0 0
0 0
0 0
0 0
0 0
0 0
0 0
0 0
0 0
0 0
0 0
0 0
0 0
0 0
0 0
0 0
0 0
0 0
0 0
0 0
0 0
0 0
0 0
0 0
0 0
0 0
0 0
0 0
0 0
0 0
0 0
0 0
0 0
0 0
0 0
0 0
0 0
0 0
0 0
0 0
0 0
0 0
0 0
0 0
0 0
0 0
0 0
0 0
0 0
0 0
0 0
0 0
0 0
0 0
0 0
0 0
0 0
0 0
0 0
0 0
0 0
0 0
0 0
0 0
0 0
0 0
0 0
0 0
0 0
0 0
0 0
0 0
0 0
0 0
0 0
0 0
0 0
0 0
0 0
0 0
0 0
0 0
0 0
0 0
0 0
0 0
0 0
0 0
0 0
0 0
0 0
0 0
0 0
0 0
0 0
0 0
0 0
0 0
0 0
0 0
0 0
0 0
0 0
0 0
0 0
0 0
0 0
0 0
0 0
0 0
0 0
0 0
0 0
0 0
0 0
0 0
0 0
0 0
0 0
0 0
0 0
0 0
0 0
0 0
0 0
0 0
0 0
0 0
0 0
0 0
0 0
0 0
0 0
0 0
0 0
0 0
0 0
0 0
0 0
0 0
0 0
0 0
0 0
0 0
0 0
0 0
0 0
0 0
0 0
0 0
0 0
0 0
0 0
0 0
0 0
0 0
0 0
0 0
0 0
0 0
0 0
0 0
0 0
0 0
0 0
0 0
0 0
0 0
0 0
0 0
0 0
0 0
0 0
0 0
0 0
0 0
0 0
0 0
0 0
0 0
0 0
0 0
0 0
0 0
0 0
0 0
0 0
0 0
0 0
0 0
0 0
0 0
0 0
0 0
0 0
0 0
0 0
0 0
0 0
0 0
0 0
0 0
0 0
0 0
0 0
0 0
0 0
0 0
0 0
0 0
0 0
0 0
0 0
0 0
0 0
0 0
0 0
0 0
0 0
0 0
0 0
0 0
0 0
0 0
0 0
0 0
0 0
0 0
0 0
0 0
0 0
0 0
0 0
0 0
0 0
0 0
0 0
0 0
0 0
0 0
0 0
0 0
0 0
0 0
0 0
0 0
0 0
0 0
0 0
0 0
0 0
0 0
0 0
0 0
0 0
0 0
0 0
0 0
0 0
0 0
0 0
0 0
0 0
0 0
0 0
0 0
0 0
0 0
0 0
0 0
0 0
0 0
0 0
0 0
0 0
0 0
0 0
0 0
0 0
0 0
0 0
0 0
0 0
0 0
0 0
0 0
0 0
0 0
0 0
0 0
0 0
0 0
0 0
0 0
0 0
0 0
0 0
0 0
0 0
0 0
0 0
0 0
0 0
0 0
0 0
0 0
0 0
0 0
0 0
0 0
0 0
0 0
0 0
0 0
0 0
0 0
0 0
0 0
0 0
0 0
0 0
0 0
0 0
0 0
0 0
0 0
0 0
0 0
0 0
0 0
0 0
0 0
0 0
0 0
0 0
0 0
0 0
0 0
0 0
0 0
0 0
0 0
0 0
0 0
0 0
0 0
0 0
0 0
0 0
0 0
0 0
0 0
0 0
0 0
0 0
0 0
0 0
0 0
0 0
0 0
0 0
0 0
0 0
0 0
0 0
0 0
0 0
0 0
0 0
0 0
0 0
0 0
0 0
0 0
0 0
0 0
0 0
0 0
0 0
0 0
0 0
0 0
0 0
0 0
0 0
0 0
0 0
0 0
0 0
0 0
0 0
0 0
0 0
0 0
0 0
0 0
0 0
0 0
0 0
0 0
0 0
0 0
0 0
0 0
0 0
0 0
0 0
0 0
0 0
0 0
0 0
0 0
0 0
0 0
0 0
0 0
0 0
0 0
0 0
0 0
0 0
0 0
0 0
0 0
0 0
0 0
0 0
0 0
0 0
0 0
0 0
0 0
0 0
0 0
0 0
0 0
0 0
0 0
0 0
0 0
0 0
0 0
0 0
0 0
0 0
0 0
0 0
0 0
0 0
0 0
0 0
0 0
0 0
0 0
0 0
0 0
0 0
0 0
0 0
0 0
0 0
0 0
0 0
0 0
0 0
0 0
0 0
0 0
0 0
0 0
0 0
0 0
0 0
0 0
0 0
0 0
0 0
0 0
0 0
0 0
0 0
0 0
0 0
0 0
0 0
0 0
0 0
0 0
0 0
0 0
0 0
0 0
0 0
0 0
0 0
0 0
0 0
0 0
0 0
0 0
0 0
0 0
0 0
0 0
0 0
0 0
0 0
0 0
0 0
0 0
0 0
0 0
0 0
0 0
0 0
0 0
0 0
0 0
0 0
0 0
0 0
0 0
0 0
0 0
0 0
0 0
0 0
0 0
0 0
0 0
0 0
0 0
0 0
0 0
0 0
0 0
0 0
0 0
0 0
0 0
0 0
0 0
0 0
0 0
0 0
0 0
0 0
0 0
0 0
0 0
0 0
0 0
0 0
0 0
0 0
0 0
0 0
0 0
0 0
0 0
0 0
0 0
0 0
0 0
0 0
0 0
0 0
0 0
0 0
0 0
0 0
0 0
0 0
0 0
0 0
0 0
0 0
0 0
0 0
0 0
0 0
0 0
0 0
0 0
0 0
0 0
0 0
0 0
0 0
0 0
0 0
0 0
0 0
0 0
0 0
0 0
0 0
0 0
0 0
0 0
0 0
0 0
0 0
0 0
0 0
0 0
0 0
0 0
0 0
0 0
0 0
0 0
0 0
0 0
0 0
0 0
0 0
0 0
0 0
0 0
0 0
0 0
0 0
0 0
0 0
0 0
0 0
0 0
0 0
0 0
0 0
0 0
0 0
0 0
0 0
0 0
0 0
0 0
0 0
0 0
0 0
0 0
0 0
0 0
0 0
0 0
0 0
0 0
0 0
0 0
0 0
0 0
0 0
0 0
0 0
0 0
0 0
0 0
0 0
0 0
0 0
0 0
0 0
0 0
0 0
0 0
0 0
0 0
0 0
0 0
0 0
0 0
0 0
0 0
0 0
0 0
0 0
0 0
0 0
0 0
0 0
0 0
0 0
0 0
0 0
0 0
0 0
0 0
0 0
0 0
0 0
0 0
0 0
0 0
0 0
0 0
0 0
0 0
0 0
0 0
0 0
0 0
0 0
0 0
0 0
0 0
0 0
0 0
0 0
0 0
0 0
0 0
0 0
0 0
0 0
0 0
0 0
0 0
0 0
0 0
0 0
0 0
0 0
0 0
0 0
0 0
0 0
0 0
0 0
0 0
0 0
0 0
0 0
0 0
0 0
0 0
0 0
0 0
0 0
0 0
0 0
0 0
0 0
0 0
0 0
0 0
0 0
0 0
0 0
0 0
0 0
0 0
0 0
0 0
0 0
0 0
0 0
0 0
0 0
0 0
0 0
0 0
0 0
0 0
0 0
0 0
0 0
0 0
0 0
0 0
0 0
0 0
0 0
0 0
0 0
0 0
0 0
0 0
0 0
0 0
0 0
0 0
0 0
0 0
0 0
0 0
0 0
0 0
0 0
0 0
0 0
0 0
0 0
0 0
0 0
0 0
0 0
0 0
0 0
0 0
0 0
0 0
0 0
0 0
0 0
0 0
0 0
0 0
0 0
0 0
0 0
0 0
0 0
0 0
0 0
0 0
0 0
0 0
0 0
0 0
0 0
0 0
0 0
0 0
0 0
0 0
0 0
0 0
0 0
0 0
0 0
0 0
0 0
0 0
0 0
0 0
0 0
0 0
0 0
0 0
0 0
0 0
0 0
0 0
0 0
0 0
0 0
0 0
0 0
0 0
0 0
0 0
0 0
0 0
0 0
0 0
0 0
0 0
0 0
0 0
0 0
0 0
0 0
0 0
0 0
0 0
0 0
0 0
0 0
0 0
0 0
0 0
0 0
0 0
0 0
0 0
0 0
0 0
0 0
0 0
0 0
0 0
0 0
0 0
0 0
0 0
0 0
0 0
0 0
0 0
0 0
0 0
0 0
0 0
0 0
0 0
0 0
0 0
0 0
0 0
0 0
0 0
0 0
0 0
0 0
0 0
0 0
0 0
0 0
0 0
0 0
0 0
0 0
0 0
0 0
0 0
0 0
0 0
0 0
0 0
0 0
0 0
0 0
0 0
0 0
0 0
0 0
0 0
0 0
0 0
0 0
0 0
0 0
0 0
0 0
0 0
0 0
0 0
0 0
0 0
0 0
0 0
0 0
0 0
0 0
0 0
0 0
0 0
0 0
0 0
0 0
0 0
0 0
0 0
0 0
0 0
0 0
0 0
0 0
0 0
0 0
0 0
0 0
0 0
0 0
0 0
0 0
0 0
0 0
0 0
0 0
0 0
0 0
0 0
0 0
0 0
0 0
0 0
0 0
0 0
0 0
0 0
0 0
0 0
0 0
0 0
0 0
0 0
0 0
0 0
0 0
0 0
0 0
0 0
0 0
0 0
0 0
0 0
0 0
0 0
0 0
0 0
0 0
0 0
0 0
0 0
0 0
0 0
0 0
0 0
0 0
0 0
0 0
0 0
0 0
0 0
0 0
0 0
0 0
0 0
0 0
0 0
0 0
0 0
0 0
0 0
0 0
0 0
0 0
0 0
0 0
0 0
0 0
0 0
0 0
0 0
0 0
0 0
0 0
0 0
0 0
0 0
0 0
0 0
0 0
0 0
0 0
0 0
0 0
0 0
0 0
0 0
0 0
0 0
0 0
0 0
0 0
0 0
0 0
0 0
0 0
0 0
0 0
0 0
0 0
0 0
0 0
0 0
0 0
0 0
0 0
0 0
0 0
0 0
0 0
0 0
0 0
0 0
0 0
0 0
0 0
0 0
0 0
0 0
0 0
0 0
0 0
0 0
0 0
0 0
0 0
0 0
0 0
0 0
0 0
0 0
0 0
0 0
0 0
0 0
0 0
0 0
0 0
0 0
0 0
0 0
0 0
0 0
0 0
0 0
0 0
0 0
0 0
0 0
0 0
0 0
0 0
0 0
0 0
0 0
0 0
0 0
0 0
0 0
0 0
0 0
0 0
0 0
0 0
0 0
0 0
0 0
0 0
0 0
0 0
0 0
0 0
0 0
0 0
0 0
0 0
0 0
0 0
0 0
0 0
0 0
0 0
0 0
0 0
0 0
0 0
0 0
0 0
0 0
0 0
0 0
0 0
0 0
0 0
0 0
0 0
0 0
0 0
0 0
0 0
0 0
0 0
0 0
0 0
0 0
0 0
0 0
0 0
0 0
0 0
0 0
0 0
0 0
0 0
0 0
0 0
0 0
0 0
0 0
0 0
0 0
0 0
0 0
0 0
0 0
0 0
0 0
0 0
0 0
0 0
0 0
0 0
0 0
0 0
0 0
0 0
0 0
0 0
0 0
0 0
0 0
0 0
0 0
0 0
0 0
0 0
0 0
0 0
0 0
0 0
0 0
0 0
0 0
0 0
0 0
0 0
0 0
0 0
0 0
0 0
0 0
0 0
0 0
0 0
0 0
0 0
0 0
0 0
0 0
0 0
0 0
0 0
0 0
0 0
0 0
0 0
0 0
0 0
0 0
0 0
0 0
0 0
0 0
0 0
0 0
0 0
0 0
0 0
0 0
0 0
0 0
0 0
0 0
0 0
0 0
0 0
0 0
0 0
0 0
0 0
0 0
0 0
0 0
0 0
0 0
0 0
0 0
0 0
0 0
0 0
0 0
0 0
0 0
0 0
0 0
0 0
0 0
0 0
0 0
0 0
0 0
0 0
0 0
0 0
0 0
0 0
0 0
0 0
0 0
0 0
0 0
0 0
0 0
0 0
0 0
0 0
0 0
0 0
0 0
0 0
0 0
0 0
0 0
0 0
0 0
0 0
0 0
0 0
0 0
0 0
0 0
0 0
0 0
0 0
0 0
0 0
0 0
0 0
0 0
0 0
0 0
0 0
0 0
0 0
0 0
0 0
0 0
0 0
0 0
0 0
0 0
0 0
0 0
0 0
0 0
0 0
0 0
0 0
0 0
0 0
0 0
0 0
0 0
0 0
0 0
0 0
0 0
0 0
0 0
0 0
0 0
0 0
0 0
0 0
0 0
0 0
0 0
0 0
0 0
0 0
0 0
0 0
0 0
0 0
0 0
0 0
0 0
0 0
0 0
0 0
0 0
0 0
0 0
0 0
0 0
0 0
0 0
0 0
0 0
0 0
0 0
0 0
0 0
0 0
0 0
0 0
0 0
0 0
0 0
0 0
0 0
0 0
0 0
0 0
0 0
0 0
0 0
0 0
0 0
0 0
0 0
0 0
0 0
0 0
0 0
0 0
0 0
0 0
0 0
0 0
0 0
0 0
0 0
0 0
0 0
0 0
0 0
0 0
0 0
0 0
0 0
0 0
0 0
0 0
0 0
0 0
0 0
0 0
0 0
0 0
0 0
0 0
0 0
0 0
0 0
0 0
0 0
0 0
0 0
0 0
0 0
0 0
0 0
0 0
0 0
0 0
0 0
0 0
0 0
0 0
0 0
0 0
0 0
0 0
0 0
0 0
0 0
0 0
0 0
0 0
0 0
0 0
0 0
0 0
0 0
0 0
0 0
0 0
0 0
0 0
0 0
0 0
0 0
0 0
0 0
0 0
0 0
0 0
0 0
0 0
0 0
0 0
0 0
0 0
0 0
0 0
0 0
0 0
0 0
0 0
0 0
0 0
0 0
0 0
0 0
0 0
0 0
0 0
0 0
0 0
0 0
0 0
0 0
0 0
0 0
0 0
0 0
0 0
0 0
0 0
0 0
0 0
0 0
0 0
0 0
0 0
0 0
0 0
0 0
0 0
0 0
0 0
0 0
0 0
0 0
0 0
0 0
0 0
0 0
0 0
0 0
0 0
0 0
0 0
0 0
0 0
0 0
0 0
0 0
0 0
0 0
0 0
0 0
0 0
0 0
0 0
0 0
0 0
0 0
0 0
0 0
0 0
0 0
0 0
0 0
0 0
0 0
0 0
0 0
0 0
0 0
0 0
0 0
0 0
0 0
0 0
0 0
0 0
0 0
0 0
0 0
0 0
0 0
0 0
0 0
0 0
0 0
0 0
0 0
0 0
0 0
0 0
0 0
0 0
0 0
0 0
0 0
0 0
0 0
0 0
0 0
0 0
0 0
0 0
0 0
0 0
0 0
0 0
0 0
0 0
0 0
0 0
0 0
0 0
0 0
0 0
0 0
0 0
0 0
0 0
0 0
0 0
0 0
0 0
0 0
0 0
0 0
0 0
0 0
0 0
0 0
0 0
0 0
0 0
0 0
0 0
0 0
0 0
0 0
0 0
0 0
0 0
0 0
0 0
0 0
0 0
0 0
0 0
0 0
0 0
0 0
0 0
0 0
0 0
0 0
0 0
0 0
0 0
0 0
0 0
0 0
0 0
0 0
0 0
0 0
0 0
0 0
0 0
0 0
0 0
0 0
0 0
0 0
0 0
0 0
0 0
0 0
0 0
0 0
0 0
0 0
0 0
0 0
0 0
0 0
0 0
0 0
0 0
0 0
0 0
0 0
0 0
0 0
0 0
0 0
0 0
0 0
0 0
0 0
0 0
0 0
0 0
0 0
0 0
0 0
0 0
0 0
0 0
0 0
0 0
0 0
0 0
0 0
0 0
0 0
0 0
0 0
0 0
0 0
0 0
0 0
0 0
0 0
0 0
0 0
0 0
0 0
0 0
0 0
0 0
0 0
0 0
0 0
0 0
0 0
0 0
0 0
0 0
0 0
0 0
0 0
0 0
0 0
0 0
0 0
0 0
0 0
0 0
0 0
0 0
0 0
0 0
0 0
0 0
0 0
0 0
0 0
0 0
0 0
0 0
0 0
0 0
0 0
0 0
0 0
0 0
0 0
0 0
0 0
0 0
0 0
0 0
0 0
0 0
0 0
0 0
0 0
0 0
0 0
0 0
0 0
0 0
0 0
0 0
0 0
0 0
0 0
0 0
0 0
0 0
0 0
0 0
0 0
0 0
0 0
0 0
0 0
0 0
0 0
0 0
0 0
0 0
0 0
0 0
0 0
0 0
0 0
0 0
0 0
0 0
0 0
0 0
0 0
0 0
0 0
0 0
0 0
0 0
0 0
0 0
0 0
0 0
0 0
0 0
0 0
0 0
0 0
0 0
0 0
0 0
0 0
0 0
0 0
0 0
0 0
0 0
0 0
0 0
0 0
0 0
0 0
0 0
0 0
0 0
0 0
0 0
0 0
0 0
0 0
0 0
0 0
0 0
0 0
0 0
0 0
0 0
0 0
0 0
0 0
0 0
0 0
0 0
0 0
0 0
0 0
0 0
0 0
0 0
0 0
0 0
0 0
0 0
0 0
0 0
0 0
0 0
0 0
0 0
0 0
0 0
0 0
0 0
0 0
0 0
0 0
0 0
0 0
0 0
0 0
0 0
0 0
0 0
0 0
0 0
0 0
0 0
0 0
0 0
0 0
0 0
0 0
0 0
0 0
0 0
0 0
0 0
0 0
0 0
0 0
0 0
0 0
0 0
0 0
0 0
0 0
0 0
0 0
0 0
0 0
0 0
0 0
0 0
0 0
0 0
0 0
0 0
0 0
0 0
0 0
0 0
0 0
0 0
0 0
0 0
0 0
0 0
0 0
0 0
0 0
0 0
0 0
0 0
0 0
0 0
0 0
0 0
0 0
0 0
0 0
0 0
0 0
0 0
0 0
0 0
0 0
0 0
0 0
0 0
0 0
0 0
0 0
0 0
0 0
0 0
0 0
0 0
0 0
0 0
0 0
0 0
0 0
0 0
0 0
0 0
0 0
0 0
0 0
0 0
0 0
0 0
0 0
0 0
0 0
0 0
0 0
0 0
0 0
0 0
0 0
0 0
0 0
0 0
0 0
0 0
0 0
0 0
0 0
0 0
0 0
0 0
0 0
0 0
0 0
0 0
0 0
0 0
0 0
0 0
0 0
0 0
0 0
0 0
0 0
0 0
0 0
0 0
0 0
0 0
0 0
0 0
0 0
0 0
0 0
0 0
0 0
0 0
0 0
0 0
0 0
0 0
0 0
0 0
0 0
0 0
0 0
0 0
0 0
0 0
0 0
0 0
0 0
0 0
0 0
0 0
0 0
0 0
0 0
0 0
0 0
0 0
0 0
0 0
0 0
0 0
0 0
0 0
0 0
0 0
0 0
0 0
0 0
0 0
0 0
0 0
0 0
0 0
0 0
0 0
0 0
0 0
0 0
0 0
0 0
0 0
0 0
0 0
0 0
0 0
0 0
0 0
0 0
0 0
0 0
0 0
0 0
0 0
0 0
0 0
0 0
0 0
0 0
0 0
0 0
0 0
0 0
0 0
0 0
0 0
0 0
0 0
0 0
0 0
0 0
0 0
0 0
0 0
0 0
0 0
0 0
0 0
0 0
0 0
0 0
0 0
0 0
0 0
0 0
0 0
0 0
0 0
0 0
0 0
0 0
0 0
0 0
0 0
0 0
0 0
0 0
0 0
0 0
0 0
0 0
0 0
0 0
0 0
0 0
0 0
0 0
0 0
0 0
0 0
0 0
0 0
0 0
0 0
0 0
0 0
0 0
0 0
0 0
0 0
0 0
0 0
0 0
0 0
0 0
0 0
0 0
0 0
0 0
0 0
0 0
0 0
0 0
0 0
0 0
0 0
0 0
0 0
0 0
0 0
0 0
0 0
0 0
0 0
0 0
0 0
0 0
0 0
0 0
0 0
0 0
0 0
0 0
0 0
0 0
0 0
0 0
0 0
0 0
0 0
0 0
0 0
0 0
0 0
0 0
0 0
0 0
0 0
0 0
0 0
0 0
0 0
0 0
0 0
0 0
0 0
0 0
0 0
0 0
0 0
0 0
0 0
0 0
0 0
0 0
0 0
0 0
0 0
0 0
0 0
0 0
0 0
0 0
0 0
0 0
0 0
0 0
0 0
0 0
0 0
0 0
0 0
0 0
0 0
0 0
0 0
0 0
0 0
0 0
0 0
0 0
0 0
0 0
0 0
0 0
0 0
0 0
0 0
0 0
0 0
0 0
0 0
0 0
0 0
0 0
0 0
0 0
0 0
0 0
0 0
0 0
0 0
0 0
0 0
0 0
0 0
0 0
0 0
0 0
0 0
0 0
0 0
0 0
0 0
0 0
0 0
0 0
0 0
0 0
0 0
0 0
0 0
0 0
0 0
0 0
0 0
0 0
0 0
0 0
0 0
0 0
0 0
0 0
0 0
0 0
0 0
0 0
0 0
0 0
0 0
0 0
0 0
0 0
0 0
0 0
0 0
0 0
0 0
0 0
0 0
0 0
0 0
0 0
0 0
0 0
0 0
0 0
0 0
0 0
0 0
0 0
0 0
0 0
0 0
0 0
0 0
0 0
0 0
0 0
0 0
0 0
0 0
0 0
0 0
0 0
0 0
0 0
0 0
0 0
0 0
0 0
0 0
0 0
0 0
0 0
0 0
0 0
0 0
0 0
0 0
0 0
0 0
0 0
0 0
0 0
0 0
0 0
0 0
0 0
0 0
0 0
0 0
0 0
0 0
0 0
0 0
0 0
0 0
0 0
0 0
0 0
0 0
0 0
0 0
0 0
0 0
0 0
0 0
0 0
0 0
0 0
0 0
0 0
0 0
0 0
0 0
0 0
0 0
0 0
0 0
0 0
0 0
0 0
0 0
0 0
0 0
0 0
0 0
0 0
0 0
0 0
0 0
0 0
0 0
0 0
0 0
0 0
0 0
0 0
0 0
0 0
0 0
0 0
0 0
0 0
0 0
0 0
0 0
0 0
0 0
0 0
0 0
0 0
0 0
0 0
0 0
0 0
0 0
0 0
0 0
0 0
0 0
0 0
0 0
0 0
0 0
0 0
0 0
0 0
0 0
0 0
0 0
0 0
0 0
0 0
0 0
0 0
0 0
0 0
0 0
0 0
0 0
0 0
0 0
0 0
0 0
0 0
0 0
0 0
0 0
0 0
0 0
0 0
0 0
0 0
0 0
0 0
0 0
0 0
0 0
0 0
0 0
0 0
0 0
0 0
0 0
0 0
0 0
0 0
0 0
0 0
0 0
0 0
0 0
0 0
0 0
0 0
0 0
0 0
0 0
0 0
0 0
0 0
0 0
0 0
0 0
0 0
0 0
0 0
0 0
0 0
0 0
0 0
0 0
0 0
0 0
0 0
0 0
0 0
0 0
0 0
0 0
0 0
0 0
0 0
0 0
0 0
0 0
0 0
0 0
0 0
0 0
0 0
0 0
0 0
0 0
0 0
0 0
0 0
0 0
0 0
0 0
0 0
0 0
0 0
0 0
0 0
0 0
0 0
0 0
0 0
0 0
0 0
0 0
0 0
0 0
0 0
0 0
0 0
0 0
0 0
0 0
0 0
0 0
0 0
0 0
0 0
0 0
0 0
0 0
0 0
0 0
0 0
0 0
0 0
0 0
0 0
0 0
0 0
0 0
0 0
0 0
0 0
0 0
0 0
0 0
0 0
0 0
0 0
0 0
0 0
0 0
0 0
0 0
0 0
0 0
0 0
0 0
0 0
0 0
0 0
0 0
0 0
0 0
0 0
0 0
0 0
0 0
0 0
0 0
0 0
0 0
0 0
0 0
0 0
0 0
0 0
0 0
0 0
0 0
0 0
0 0
0 0
0 0
0 0
0 0
0 0
0 0
0 0
0 0
0 0
0 0
0 0
0 0
0 0
0 0
0 0
0 0
0 0
0 0
0 0
0 0
0 0
0 0
0 0
0 0
0 0
0 0
0 0
0 0
0 0
0 0
0 0
0 0
0 0
0 0
0 0
0 0
0 0
0 0
0 0
0 0
0 0
0 0
0 0
0 0
0 0
0 0
0 0
0 0
0 0
0 0
0 0
0 0
0 0
0 0
0 0
0 0
0 0
0 0
0 0
0 0
0 0
0 0
0 0
0 0
0 0
0 0
0 0
0 0
0 0
0 0
0 0
0 0
0 0
0 0
0 0
0 0
0 0
0 0
0 0
0 0
0 0
0 0
0 0
0 0
0 0
0 0
0 0
0 0
0 0
0 0
0 0
0 0
0 0
0 0
0 0
0 0
0 0
0 0
0 0
0 0
0 0
0 0
0 0
0 0
0 0
0 0
0 0
0 0
0 0
0 0
0 0
0 0
0 0
0 0
0 0
0 0
0 0
0 0
0 0
0 0
0 0
0 0
0 0
0 0
0 0
0 0
0 0
0 0
0 0
0 0
0 0
0 0
0 0
0 0
0 0
0 0
0 0
0 0
0 0
0 0
0 0
0 0
0 0
0 0
0 0
0 0
0 0
0 0
0 0
0 0
0 0
0 0
0 0
0 0
0 0
0 0
0 0
0 0
0 0
0 0
0 0
0 0
0 0
0 0
0 0
0 0
0 0
0 0
0 0
0 0
0 0
0 0
0 0
0 0
0 0
0 0
0 0
0 0
0 0
0 0
0 0
0 0
0 0
0 0
0 0
0 0
0 0
0 0
0 0
0 0
0 0
0 0
0 0
0 0
0 0
0 0
0 0
0 0
0 0
0 0
0 0
0 0
0 0
0 0
0 0
0 0
0 0
0 0
0 0
0 0
0 0
0 0
0 0
0 0
0 0
0 0
0 0
0 0
0 0
0 0
0 0
0 0
0 0
0 0
0 0
0 0
0 0
0 0
0 0
0 0
0 0
0 0
0 0
0 0
0 0
0 0
0 0
0 0
0 0
0 0
0 0
0 0
0 0
0 0
0 0
0 0
0 0
0 0
0 0
0 0
0 0
0 0
0 0
0 0
0 0
0 0
0 0
0 0
0 0
0 0
0 0
0 0
0 0
0 0
0 0
0 0
0 0
0 0
0 0
0 0
0 0
0 0
0 0
0 0
0 0
0 0
0 0
0 0
0 0
0 0
0 0
0 0
0 0
0 0
0 0
0 0
0 0
0 0
0 0
0 0
0 0
0 0
0 0
0 0
0 0
0 0
0 0
0 0
0 0
0 0
0 0
0 0
0 0
0 0
0 0
0 0
0 0
0 0
0 0
0 0
0 0
0 0
0 0
0 0
0 0
0 0
0 0
0 0
0 0
0 0
0 0
0 0
0 0
0 0
0 0
0 0
0 0
0 0
0 0
0 0
0 0
0 0
0 0
0 0
0 0
0 0
0 0
0 0
0 0
0 0
0 0
0 0
0 0
0 0
0 0
0 0
0 0
0 0
0 0
0 0
0 0
0 0
0 0
0 0
0 0
0 0
0 0
0 0
0 0
0 0
0 0
0 0
0 0
0 0
0 0
0 0
0 0
0 0
0 0
0 0
0 0
0 0
0 0
0 0
0 0
0 0
0 0
0 0
0 0
0 0
0 0
0 0
0 0
0 0
0 0
0 0
0 0
0 0
0 0
0 0
0 0
0 0
0 0
0 0
0 0
0 0
0 0
0 0
0 0
0 0
0 0
0 0
0 0
0 0
0 0
0 0
0 0
0 0
0 0
0 0
0 0
0 0
0 0
0 0
0 0
0 0
0 0
0 0
0 0
0 0
0 0
0 0
0 0
0 0
0 0
0 0
0 0
0 0
0 0
0 0
0 0
0 0
0 0
0 0
0 0
0 0
0 0
0 0
0 0
0 0
0 0
0 0
0 0
0 0
0 0
0 0
0 0
0 0
0 0
0 0
0 0
0 0
0 0
0 0
0 0
0 0
0 0
0 0
0 0
0 0
0 0
0 0
0 0
0 0
0 0
0 0
0 0
0 0
0 0
0 0
0 0
0 0
0 0
0 0
0 0
0 0
0 0
0 0
0 0
0 0
0 0
0 0
0 0
0 0
0 0
0 0
0 0
0 0
0 0
0 0
0 0
0 0
0 0
0 0
0 0
0 0
0 0
0 0
0 0
0 0
0 0
0 0
0 0
0 0
0 0
0 0
0 0
0 0
0 0
0 0
0 0
0 0
0 0
0 0
0 0
0 0
0 0
0 0
0 0
0 0
0 0
0 0
0 0
0 0
0 0
0 0
0 0
0 0
0 0
0 0
0 0
0 0
0 0
0 0
0 0
0 0
0 0
0 0
0 0
0 0
0 0
0 0
0 0
0 0
0 0
0 0
0 0
0 0
0 0
0 0
0 0
0 0
0 0
0 0
0 0
0 0
0 0
0 0
0 0
0 0
0 0
0 0
0 0
0 0
0 0
0 0
0 0
0 0
0 0
0 0
0 0
0 0
0 0
0 0
0 0
0 0
0 0
0 0
0 0
0 0
0 0
0 0
0 0
0 0
0 0
0 0
0 0
0 0
0 0
0 0
0 0
0 0
0 0
0 0
0 0
0 0
0 0
0 0
0 0
0 0
0 0
0 0
0 0
0 0
0 0
0 0
0 0
0 0
0 0
0 0
0 0
0 0
0 0
0 0
0 0
0 0
0 0
0 0
0 0
0 0
0 0
0 0
0 0
0 0
0 0
0 0
0 0
0 0
0 0
0 0
0 0
0 0
0 0
0 0
0 0
0 0
0 0
0 0
0 0
0 0
0 0
0 0
0 0
0 0
0 0
0 0
0 0
0 0
0 0
0 0
0 0
0 0
0 0
0 0
0 0
0 0
0 0
0 0
0 0
0 0
0 0
0 0
0 0
0 0
0 0
0 0
0 0
0 0
0 0
0 0
0 0
0 0
0 0
0 0
0 0
0 0
0 0
0 0
0 0
0 0
0 0
0 0
0 0
0 0
0 0
0 0
0 0
0 0
0 0
0 0
0 0
0 0
0 0
0 0
0 0
0 0
0 0
0 0
0 0
0 0
0 0
0 0
0 0
0 0
0 0
0 0
0 0
0 0
0 0
0 0
0 0
0 0
0 0
0 0
0 0
0 0
0 0
0 0
0 0
0 0
0 0
0 0
0 0
0 0
0 0
0 0
0 0
0 0
0 0
0 0
0 0
0 0
0 0
0 0
0 0
0 0
0 0
0 0
0 0
0 0
0 0
0 0
0 0
0 0
0 0
0 0
0 0
0 0
0 0
0 0
0 0
0 0
0 0
0 0
0 0
0 0
0 0
0 0
0 0
0 0
0 0
0 0
0 0
0 0
0 0
0 0
0 0
0 0
0 0
0 0
0 0
0 0
0 0
0 0
0 0
0 0
0 0
0 0
0 0
0 0
0 0
0 0
0 0
0 0
0 0
0 0
0 0
0 0
0 0
0 0
0 0
0 0
0 0
0 0
0 0
0 0
0 0
0 0
0 0
0 0
0 0
0 0
0 0
0 0
0 0
0 0
0 0
0 0
0 0
0 0
0 0
0 0
0 0
0 0
0 0
0 0
0 0
0 0
0 0
0 0
0 0
0 0
0 0
0 0
0 0
0 0
0 0
0 0
0 0
0 0
0 0
0 0
0 0
0 0
0 0
0 0
0 0
0 0
0 0
0 0
0 0
0 0
0 0
0 0
0 0
0 0
0 0
0 0
0 0
0 0
0 0
0 0
0 0
0 0
0 0
0 0
0 0
0 0
0 0
0 0
0 0
0 0
0 0
0 0
0 0
0 0
0 0
0 0
0 0
0 0
0 0
0 0
0 0
0 0
0 0
0 0
0 0
0 0
0 0
0 0
0 0
0 0
0 0
0 0
0 0
0 0
0 0
0 0
0 0
0 0
0 0
0 0
0 0
0 0
0 0
0 0
0 0
0 0
0 0
0 0
0 0
0 0
0 0
0 0
0 0
0 0
0 0
0 0
0 0
0 0
0 0
0 0
0 0
0 0
0 0
0 0
0 0
0 0
0 0
0 0
0 0
0 0
0 0
0 0
0 0
0 0
0 0
0 0
0 0
0 0
0 0
0 0
0 0
0 0
0 0
0 0
0 0
0 0
0 0
0 0
0 0
0 0
0 0
0 0
0 0
0 0
0 0
0 0
0 0
0 0
0 0
0 0
0 0
0 0
0 0
0 0
0 0
0 0
0 0
0 0
0 0
0 0
0 0
0 0
0 0
0 0
0 0
0 0
0 0
0 0
0 0
0 0
0 0
0 0
0 0
0 0
0 0
0 0
0 0
0 0
0 0
0 0
0 0
0 0
0 0
0 0
0 0
0 0
0 0
0 0
0 0
0 0
0 0
0 0
0 0
0 0
0 0
0 0
0 0
0 0
0 0
0 0
0 0
0 0
0 0
0 0
0 0
0 0
0 0
0 0
0 0
0 0
0 0
0 0
0 0
0 0
0 0
0 0
0 0
0 0
0 0
0 0
0 0
0 0
0 0
0 0
0 0
0 0
0 0
0 0
0 0
0 0
0 0
0 0
0 0
0 0
0 0
0 0
0 0
0 0
0 0
0 0
0 0
0 0
0 0
0 0
0 0
0 0
0 0
0 0
0 0
0 0
0 0
0 0
0 0
0 0
0 0
0 0
0 0
0 0
0 0
0 0
0 0
0 0
0 0
0 0
0 0
0 0
0 0
0 0
0 0
0 0
0 0
0 0
0 0
0 0
0 0
0 0
0 0
0 0
0 0
0 0
0 0
0 0
0 0
0 0
0 0
0 0
0 0
0 0
0 0
0 0
0 0
0 0
0 0
0 0
0 0
0 0
0 0
0 0
0 0
0 0
0 0
0 0
0 0
0 0
0 0
0 0
0 0
0 0
0 0
0 0
0 0
0 0
0 0
0 0
0 0
0 0
0 0
0 0
0 0
0 0
0 0
0 0
0 0
0 0
0 0
0 0
0 0
0 0
0 0
0 0
0 0
0 0
0 0
0 0
0 0
0 0
0 0
0 0
0 0
0 0
0 0
0 0
0 0
0 0
0 0
0 0
0 0
0 0
0 0
0 0
0 0
0 0
0 0
0 0
0 0
0 0
0 0
0 0
0 0
0 0
0 0
0 0
0 0
0 0
0 0
0 0
0 0
0 0
0 0
0 0
0 0
0 0
0 0
0 0
0 0
0 0
0 0
0 0
0 0
0 0
0 0
0 0
0 0
0 0
0 0
0 0
0 0
0 0
0 0
0 0
0 0
0 0
0 0
0 0
0 0
0 0
0 0
0 0
0 0
0 0
0 0
0 0
0 0
0 0
0 0
0 0
0 0
0 0
0 0
0 0
0 0
0 0
0 0
0 0
0 0
0 0
0 0
0 0
0 0
0 0
0 0
0 0
0 0
0 0
0 0
0 0
0 0
0 0
0 0
0 0
0 0
0 0
0 0
0 0
0 0
0 0
0 0
0 0
0 0
0 0
0 0
0 0
0 0
0 0
0 0
0 0
0 0
0 0
0 0
0 0
0 0
0 0
0 0
0 0
0 0
0 0
0 0
0 0
0 0
0 0
0 0
0 0
0 0
0 0
0 0
0 0
0 0
0 0
0 0
0 0
0 0
0 0
0 0
0 0
0 0
0 0
0 0
0 0
0 0
0 0
0 0
0 0
0 0
0 0
0 0
0 0
0 0
0 0
0 0
0 0
0 0
0 0
0 0
0 0
0 0
0 0
0 0
0 0
0 0
0 0
0 0
0 0
0 0
0 0
0 0
0 0
0 0
0 0
0 0
0 0
0 0
0 0
0 0
0 0
0 0
0 0
0 0
0 0
0 0
0 0
0 0
0 0
0 0
0 0
0 0
0 0
0 0
0 0
0 0
0 0
0 0
0 0
0 0
0 0
0 0
0 0
0 0
0 0
0 0
0 0
0 0
0 0
0 0
0 0
0 0
0 0
0 0
0 0
0 0
0 0
0 0
0 0
0 0
0 0
0 0
0 0
0 0
0 0
0 0
0 0
0 0
0 0
0 0
0 0
0 0
0 0
0 0
0 0
0 0
0 0
0 0
0 0
0 0
0 0
0 0
0 0
0 0
0 0
0 0
0 0
0 0
0 0
0 0
0 0
0 0
0 0
0 0
0 0
0 0
0 0
0 0
0 0
0 0
0 0
0 0
0 0
0 0
0 0
0 0
0 0
0 0
0 0
0 0
0 0
0 0
0 0
0 0
0 0
0 0
0 0
0 0
0 0
0 0
0 0
0 0
0 0
0 0
0 0
0 0
0 0
0 0
0 0
0 0
0 0
0 0
0 0
0 0
0 0
0 0
0 0
0 0
0 0
0 0
0 0
0 0
0 0
0 0
0 0
0 0
0 0
0 0
0 0
0 0
0 0
0 0
0 0
0 0
0 0
0 0
0 0
0 0
0 0
0 0
0 0
0 0
0 0
0 0
0 0
0 0
0 0
0 0
0 0
0 0
0 0
0 0
0 0
0 0
0 0
0 0
0 0
0 0
0 0
0 0
0 0
0 0
0 0
0 0
0 0
0 0
0 0
0 0
0 0
0 0
0 0
0 0
0 0
0 0
0 0
0 0
0 0
0 0
0 0
0 0
0 0
0 0
0 0
0 0
0 0
0 0
0 0
0 0
0 0
0 0
0 0
0 0
0 0
0 0
0 0
0 0
0 0
0 0
0 0
0 0
0 0
0 0
0 0
0 0
0 0
0 0
0 0
0 0
0 0
0 0
0 0
0 0
0 0
0 0
0 0
0 0
0 0
0 0
0 0
0 0
0 0
0 0
0 0
0 0
0 0
0 0
0 0
0 0
0 0
0 0
0 0
0 0
0 0
0 0
0 0
0 0
0 0
0 0
0 0
0 0
0 0
0 0
0 0
0 0
0 0
0 0
0 0
0 0
0 0
0 0
0 0
0 0
0 0
0 0
0 0
0 0
0 0
0 0
0 0
0 0
0 0
0 0
0 0
0 0
0 0
0 0
0 0
0 0
0 0
0 0
0 0
0 0
0 0
0 0
0 0
0 0
0 0
0 0
0 0
0 0
0 0
0 0
0 0
0 0
0 0
0 0
0 0
0 0
0 0
0 0
0 0
0 0
0 0
0 0
0 0
0 0
0 0
0 0
0 0
0 0
0 0
0 0
0 0
0 0
0 0
0 0
0 0
0 0
0 0
0 0
0 0
0 0
0 0
0 0
0 0
0 0
0 0
0 0
0 0
0 0
0 0
0 0
0 0
0 0
0 0
0 0
0 0
0 0
0 0
0 0
0 0
0 0
0 0
0 0
0 0
0 0
0 0
0 0
0 0
0 0
0 0
0 0
0 0
0 0
0 0
0 0
0 0
0 0
0 0
0 0
0 0
0 0
0 0
0 0
0 0
0 0
0 0
0 0
0 0
0 0
0 0
0 0
0 0
0 0
0 0
0 0
0 0
0 0
0 0
0 0
0 0
0 0
0 0
0 0
0 0
0 0
0 0
0 0
0 0
0 0
0 0
0 0
0 0
0 0
0 0
0 0
0 0
0 0
0 0
0 0
0 0
0 0
0 0
0 0
0 0
0 0
0 0
0 0
0 0
0 0
0 0
0 0
0 0
0 0
0 0
0 0
0 0
0 0
0 0
0 0
0 0
0 0
0 0
0 0
0 0
0 0
0 0
0 0
0 0
0 0
0 0
0 0
0 0
0 0
0 0
0 0
0 0
0 0
0 0
0 0
0 0
0 0
0 0
0 0
0 0
0 0
0 0
0 0
0 0
0 0
0 0
0 0
0 0
0 0
0 0
0 0
0 0
0 0
0 0
0 0
0 0
0 0
0 0
0 0
0 0
0 0
0 0
0 0
0 0
0 0
0 0
0 0
0 0
0 0
0 0
0 0
0 0
0 0
0 0
0 0
0 0
0 0
0 0
0 0
0 0
0 0
0 0
0 0
0 0
0 0
0 0
0 0
0 0
0 0
0 0
0 0
0 0
0 0
0 0
0 0
0 0
0 0
0 0
0 0
0 0
0 0
0 0
0 0
0 0
0 0
0 0
0 0
0 0
0 0
0 0
0 0
0 0
0 0
0 0
0 0
0 0
0 0
0 0
0 0
0 0
0 0
0 0
0 0
0 0
0 0
0 0
0 0
0 0
0 0
0 0
0 0
0 0
0 0
0 0
0 0
0 0
0 0
0 0
0 0
0 0
0 0
0 0
0 0
0 0
0 0
0 0
0 0
0 0
0 0
0 0
0 0
0 0
0 0
0 0
0 0
0 0
0 0
0 0
0 0
0 0
0 0
0 0
0 0
0 0
0 0
0 0
0 0
0 0
0 0
0 0
0 0
0 0
0 0
0 0
0 0
0 0
0 0
0 0
0 0
0 0
0 0
0 0
0 0
0 0
0 0
0 0
0 0
0 0
0 0
0 0
0 0
0 0
0 0
0 0
0 0
0 0
0 0
0 0
0 0
0 0
0 0
0 0
0 0
0 0
0 0
0 0
0 0
0 0
0 0
0 0
0 0
0 0
0 0
0 0
0 0
0 0
0 0
0 0
0 0
0 0
0 0
0 0
0 0
0 0
0 0
0 0
0 0
0 0
0 0
0 0
0 0
0 0
0 0
0 0
0 0
0 0
0 0
0 0
0 0
0 0
0 0
0 0
0 0
0 0
0 0
0 0
0 0
0 0
0 0
0 0
0 0
0 0
0 0
0 0
0 0
0 0
0 0
0 0
0 0
0 0
0 0
0 0
0 0
0 0
0 0
0 0
0 0
0 0
0 0
0 0
0 0
0 0
0 0
0 0
0 0
0 0
0 0
0 0
0 0
0 0
0 0
0 0
0 0
0 0
0 0
0 0
0 0
0 0
0 0
0 0
0 0
0 0
0 0
0 0
0 0
0 0
0 0
0 0
0 0
0 0
0 0
0 0
0 0
0 0
0 0
0 0
0 0
0 0
0 0
0 0
0 0
0 0
0 0
0 0
0 0
0 0
0 0
0 0
0 0
0 0
0 0
0 0
0 0
0 0
0 0
0 0
0 0
0 0
0 0
0 0
0 0
0 0
0 0
0 0
0 0
0 0
0 0
0 0
0 0
0 0
0 0
0 0
0 0
0 0
0 0
0 0
0 0
0 0
0 0
0 0
0 0
0 0
0 0
0 0
0 0
0 0
0 0
0 0
0 0
0 0
0 0
0 0
0 0
0 0
0 0
0 0
0 0
0 0
0 0
0 0
0 0
0 0
0 0
0 0
0 0
0 0
0 0
0 0
0 0
0 0
0 0
0 0
0 0
0 0
0 0
0 0
0 0
0 0
0 0
0 0
0 0
0 0
0 0
0 0
0 0
0 0
0 0
0 0
0 0
0 0
0 0
0 0
0 0
0 0
0 0
0 0
0 0
0 0
0 0
0 0
0 0
0 0
0 0
0 0
0 0
0 0
0 0
0 0
0 0
0 0
0 0
0 0
0 0
0 0
0 0
0 0
0 0
0 0
0 0
0 0
0 0
0 0
0 0
0 0
0 0
0 0
0 0
0 0
0 0
0 0
0 0
0 0
0 0
0 0
0 0
0 0
0 0
0 0
0 0
0 0
0 0
0 0
0 0
0 0
0 0
0 0
0 0
0 0
0 0
0 0
0 0
0 0
0 0
0 0
0 0
0 0
0 0
0 0
0 0
0 0
0 0
0 0
0 0
0 0
0 0
0 0
0 0
0 0
0 0
0 0
0 0
0 0
0 0
0 0
0 0
0 0
0 0
0 0
0 0
0 0
0 0
0 0
0 0
0 0
0 0
0 0
0 0
0 0
0 0
0 0
0 0
0 0
0 0
0 0
0 0
0 0
0 0
0 0
0 0
0 0
0 0
0 0
0 0
0 0
0 0
0 0
0 0
0 0
0 0
0 0
0 0
0 0
0 0
0 0
0 0
0 0
0 0
0 0
0 0
0 0
0 0
0 0
0 0
0 0
0 0
0 0
0 0
0 0
0 0
0 0
0 0
0 0
0 0
0 0
0 0
0 0
0 0
0 0
0 0
0 0
0 0
0 0
0 0
0 0
0 0
0 0
0 0
0 0
0 0
0 0
0 0
0 0
0 0
0 0
0 0
0 0
0 0
0 0
0 0
0 0
0 0
0 0
0 0
0 0
0 0
0 0
0 0
0 0
0 0
0 0
0 0
0 0
0 0
0 0
0 0
0 0
0 0
0 0
0 0
0 0
0 0
0 0
0 0
0 0
0 0
0 0
0 0
0 0
0 0
0 0
0 0
0 0
0 0
0 0
0 0
0 0
0 0
0 0
0 0
0 0
0 0
0 0
0 0
0 0
0 0
0 0
0 0
0 0
0 0
0 0
0 0
0 0
0 0
0 0
0 0
0 0
0 0
0 0
0 0
0 0
0 0
0 0
0 0
0 0
0 0
0 0
0 0
0 0
0 0
0 0
0 0
0 0
0 0
0 0
0 0
0 0
0 0
0 0
0 0
0 0
0 0
0 0
0 0
0 0
0 0
0 0
0 0
0 0
0 0
0 0
0 0
0 0
0 0
0 0
0 0
0 0
0 0
0 0
0 0
0 0
0 0
0 0
0 0
0 0
0 0
0 0
0 0
0 0
0 0
0 0
0 0
0 0
0 0
0 0
0 0
0 0
0 0
0 0
0 0
0 0
0 0
0 0
0 0
0 0
0 0
0 0
0 0
0 0
0 0
0 0
0 0
0 0
0 0
0 0
0 0
0 0
0 0
0 0
0 0
0 0
0 0
0 0
0 0
0 0
0 0
0 0
0 0
0 0
0 0
0 0
0 0
0 0
0 0
0 0
0 0
0 0
0 0
0 0
0 0
0 0
0 0
0 0
0 0
0 0
0 0
0 0
0 0
0 0
0 0
0 0
0 0
0 0
0 0
0 0
0 0
0 0
0 0
0 0
0 0
0 0
0 0
0 0
0 0
0 0
0 0
0 0
0 0
0 0
0 0
0 0
0 0
0 0
0 0
0 0
0 0
0 0
0 0
0 0
0 0
0 0
0 0
0 0
0 0
0 0
0 0
0 0
0 0
0 0
0 0
0 0
0 0
0 0
0 0
0 0
0 0
0 0
0 0
0 0
0 0
0 0
0 0
0 0
0 0
0 0
0 0
0 0
0 0
0 0
0 0
0 0
0 0
0 0
0 0
0 0
0 0
0 0
0 0
0 0
0 0
0 0
0 0
0 0
0 0
0 0
0 0
0 0
0 0
0 0
0 0
0 0
0 0
0 0
0 0
0 0
0 0
0 0
0 0
0 0
0 0
0 0
0 0
0 0
0 0
0 0
0 0
0 0
0 0
0 0
0 0
0 0
0 0
0 0
0 0
0 0
0 0
0 0
0 0
0 0
0 0
0 0
0 0
0 0
0 0
0 0
0 0
0 0
0 0
0 0
0 0
0 0
0 0
0 0
0 0
0 0
0 0
0 0
0 0
0 0
0 0
0 0
0 0
0 0
0 0
0 0
0 0
0 0
0 0
0 0
0 0
0 0
0 0
0 0
0 0
0 0
0 0
0 0
0 0
0 0
0 0
0 0
0 0
0 0
0 0
0 0
0 0
0 0
0 0
0 0
0 0
0 0
0 0
0 0
0 0
0 0
0 0
0 0
0 0
0 0
0 0
0 0
0 0
0 0
0 0
0 0
0 0
0 0
0 0
0 0
0 0
0 0
0 0
0 0
0 0
0 0
0 0
0 0
0 0
0 0
0 0
0 0
0 0
0 0
0 0
0 0
0 0
0 0
0 0
0 0
0 0
0 0
0 0
0 0
0 0
0 0
0 0
0 0
0 0
0 0
0 0
0 0
0 0
0 0
0 0
0 0
0 0
0 0
0 0
0 0
0 0
0 0
0 0
0 0
0 0
0 0
0 0
0 0
0 0
0 0
0 0
0 0
0 0
0 0
0 0
0 0
0 0
0 0
0 0
0 0
0 0
0 0
0 0
0 0
0 0
0 0
0 0
0 0
0 0
0 0
0 0
0 0
0 0
0 0
0 0
0 0
0 0
0 0
0 0
0 0
0 0
0 0
0 0
0 0
0 0
0 0
0 0
0 0
0 0
0 0
0 0
0 0
0 0
0 0
0 0
0 0
0 0
0 0
0 0
0 0
0 0
0 0
0 0
0 0
0 0
0 0
0 0
0 0
0 0
0 0
0 0
0 0
0 0
0 0
0 0
0 0
0 0
0 0
0 0
0 0
0 0
0 0
0 0
0 0
0 0
0 0
0 0
0 0
0 0
0 0
0 0
0 0
0 0
0 0
0 0
0 0
0 0
0 0
0 0
0 0
0 0
0 0
0 0
0 0
0 0
0 0
0 0
0 0
0 0
0 0
0 0
0 0
0 0
0 0
0 0
0 0
0 0
0 0
0 0
0 0
0 0
0 0
0 0
0 0
0 0
0 0
0 0
0 0
0 0
0 0
0 0
0 0
0 0
0 0
0 0
0 0
0 0
0 0
0 0
0 0
0 0
0 0
0 0
0 0
0 0
0 0
0 0
0 0
0 0
0 0
0 0
0 0
0 0
0 0
0 0
0 0
0 0
0 0
0 0
0 0
0 0
0 0
0 0
0 0
0 0
0 0
0 0
0 0
0 0
0 0
0 0
0 0
0 0
0 0
0 0
0 0
0 0
0 0
0 0
0 0
0 0
0 0
0 0
0 0
0 0
0 0
0 0
0 0
0 0
0 0
0 0
0 0
0 0
0 0
0 0
0 0
0 0
0 0
0 0
0 0
0 0
0 0
0 0
0 0
0 0
0 0
0 0
0 0
0 0
0 0
0 0
0 0
0 0
0 0
0 0
0 0
0 0
0 0
0 0
0 0
0 0
0 0
0 0
0 0
0 0
0 0
0 0
0 0
0 0
0 0
0 0
0 0
0 0
0 0
0 0
0 0
0 0
0 0
0 0
0 0
0 0
0 0
0 0
0 0
0 0
0 0
0 0
0 0
0 0
0 0
0 0
0 0
0 0
0 0
0 0
0 0
0 0
0 0
0 0
0 0
0 0
0 0
0 0
0 0
0 0
0 0
0 0
0 0
0 0
0 0
0 0
0 0
0 0
0 0
0 0
0 0
0 0
0 0
0 0
0 0
0 0
0 0
0 0
0 0
0 0
0 0
0 0
0 0
0 0
0 0
0 0
0 0
0 0
0 0
0 0
0 0
0 0
0 0
0 0
0 0
0 0
0 0
0 0
0 0
0 0
0 0
0 0
0 0
0 0
0 0
0 0
0 0
0 0
0 0
0 0
0 0
0 0
0 0
0 0
0 0
0 0
0 0
0 0
0 0
0 0
0 0
0 0
0 0
0 0
0 0
0 0
0 0
0 0
0 0
0 0
0 0
0 0
0 0
0 0
0 0
0 0
0 0
0 0
0 0
0 0
0 0
0 0
0 0
0 0
0 0
0 0
0 0
0 0
0 0
0 0
0 0
0 0
0 0
0 0
0 0
0 0
0 0
0 0
0 0
0 0
0 0
0 0
0 0
0 0
0 0
0 0
0 0
0 0
0 0
0 0
0 0
0 0
0 0
0 0
0 0
0 0
0 0
0 0
0 0
0 0
0 0
0 0
0 0
0 0
0 0
0 0
0 0
0 0
0 0
0 0
0 0
0 0
0 0
0 0
0 0
0 0
0 0
0 0
0 0
0 0
0 0
0 0
0 0
0 0
0 0
0 0
0 0
0 0
0 0
0 0
0 0
0 0
0 0
0 0
0 0
0 0
0 0
0 0
0 0
0 0
0 0
0 0
0 0
0 0
0 0
0 0
0 0
0 0
0 0
0 0
0 0
0 0
0 0
0 0
0 0
0 0
0 0
0 0
0 0
0 0
0 0
0 0
0 0
0 0
0 0
0 0
0 0
0 0
0 0
0 0
0 0
0 0
0 0
0 0
0 0
0 0
0 0
0 0
0 0
0 0
0 0
0 0
0 0
0 0
0 0
0 0
0 0
0 0
0 0
0 0
0 0
0 0
0 0
0 0
0 0
0 0
0 0
0 0
0 0
0 0
0 0
0 0
0 0
0 0
0 0
0 0
0 0
0 0
0 0
0 0
0 0
0 0
0 0
0 0
0 0
0 0
0 0
0 0
0 0
0 0
0 0
0 0
0 0
0 0
0 0
0 0
0 0
0 0
0 0
0 0
0 0
0 0
0 0
0 0
0 0
0 0
0 0
0 0
0 0
0 0
0 0
0 0
0 0
0 0
0 0
0 0
0 0
0 0
0 0
0 0
0 0
0 0
0 0
0 0
0 0
0 0
0 0
0 0
0 0
0 0
0 0
0 0
0 0
0 0
0 0
0 0
0 0
0 0
0 0
0 0
0 0
0 0
0 0
0 0
0 0
0 0
0 0
0 0
0 0
0 0
0 0
0 0
0 0
0 0
0 0
0 0
0 0
0 0
0 0
0 0
0 0
0 0
0 0
0 0
0 0
0 0
0 0
0 0
0 0
0 0
0 0
0 0
0 0
0 0
0 0
0 0
0 0
0 0
0 0
0 0
0 0
0 0
0 0
0 0
0 0
0 0
0 0
0 0
0 0
0 0
0 0
0 0
0 0
0 0
0 0
0 0
0 0
0 0
0 0
0 0
0 0
0 0
0 0
0 0
0 0
0 0
0 0
0 0
0 0
0 0
0 0
0 0
0 0
0 0
0 0
0 0
0 0
0 0
0 0
0 0
0 0
0 0
0 0
0 0
0 0
0 0
0 0
0 0
0 0
0 0
0 0
0 0
0 0
0 0
0 0
0 0
0 0
0 0
0 0
0 0
0 0
0 0
0 0
0 0
0 0
0 0
0 0
0 0
0 0
0 0
0 0
0 0
0 0
0 0
0 0
0 0
0 0
0 0
0 0
0 0
0 0
0 0
0 0
0 0
0 0
0 0
0 0
0 0
0 0
0 0
0 0
0 0
0 0
0 0
0 0
0 0
0 0
0 0
0 0
0 0
0 0
0 0
0 0
0 0
0 0
0 0
0 0
0 0
0 0
0 0
0 0
0 0
0 0
0 0
0 0
0 0
0 0
0 0
0 0
0 0
0 0
0 0
0 0
0 0
0 0
0 0
0 0
0 0
0 0
0 0
0 0
0 0
0 0
0 0
0 0
0 0
0 0
0 0
0 0
0 0
0 0
0 0
0 0
0 0
0 0
0 0
0 0
0 0
0 0
0 0
0 0
0 0
0 0
0 0
0 0
0 0
0 0
0 0
0 0
0 0
0 0
0 0
0 0
0 0
0 0
0 0
0 0
0 0
0 0
0 0
0 0
0 0
0 0
0 0
0 0
0 0
0 0
0 0
0 0
0 0
0 0
0 0
0 0
0 0
0 0
0 0
0 0
0 0
0 0
0 0
0 0
0 0
0 0
0 0
0 0
0 0
0 0
0 0
0 0
0 0
0 0
0 0
0 0
0 0
0 0
0 0
0 0
0 0
0 0
0 0
0 0
0 0
0 0
0 0
0 0
0 0
0 0
0 0
0 0
0 0
0 0
0 0
0 0
0 0
0 0
0 0
0 0
0 0
0 0
0 0
0 0
0 0
0 0
0 0
0 0
0 0
0 0
0 0
0 0
0 0
0 0
0 0
0 0
0 0
0 0
0 0
0 0
0 0
0 0
0 0
0 0
0 0
0 0
0 0
0 0
0 0
0 0
0 0
0 0
0 0
0 0
0 0
0 0
0 0
0 0
0 0
0 0
0 0
0 0
0 0
0 0
0 0
0 0
0 0
0 0
0 0
0 0
0 0
0 0
0 0
0 0
0 0
0 0
0 0
0 0
0 0
0 0
0 0
0 0
0 0
0 0
0 0
0 0
0 0
0 0
0 0
0 0
0 0
0 0
0 0
0 0
0 0
0 0
0 0
0 0
0 0
0 0
0 0
0 0
0 0
0 0
0 0
0 0
0 0
0 0
0 0
0 0
0 0
0 0
0 0
0 0
0 0
0 0
0 0
0 0
0 0
0 0
0 0
0 0
0 0
0 0
0 0
0 0
0 0
0 0
0 0
0 0
0 0
0 0
0 0
0 0
0 0
0 0
0 0
0 0
0 0
0 0
0 0
0 0
0 0
0 0
0 0
0 0
0 0
0 0
0 0
0 0
0 0
0 0
0 0
0 0
0 0
0 0
0 0
0 0
0 0
0 0
0 0
0 0
0 0
0 0
0 0
0 0
0 0
0 0
0 0
0 0
0 0
0 0
0 0
0 0
0 0
0 0
0 0
0 0
0 0
0 0
0 0
0 0
0 0
0 0
0 0
0 0
0 0
0 0
0 0
0 0
0 0
0 0
0 0
0 0
0 0
0 0
0 0
0 0
0 0
0 0
0 0
0 0
0 0
0 0
0 0
0 0
0 0
0 0
0 0
0 0
0 0
0 0
0 0
0 0
0 0
0 0
0 0
0 0
0 0
0 0
0 0
0 0
0 0
0 0
0 0
0 0
0 0
0 0
0 0
0 0
0 0
0 0
0 0
0 0
0 0
0 0
0 0
0 0
0 0
0 0
0 0
0 0
0 0
0 0
0 0
0 0
0 0
0 0
0 0
0 0
0 0
0 0
0 0
0 0
0 0
0 0
0 0
0 0
0 0
0 0
0 0
0 0
0 0
0 0
0 0
0 0
0 0
0 0
0 0
0 0
0 0
0 0
0 0
0 0
0 0
0 0
0 0
0 0
0 0
0 0
0 0
0 0
0 0
0 0
0 0
0 0
0 0
0 0
0 0
0 0
0 0
0 0
0 0
0 0
0 0
0 0
0 0
0 0
0 0
0 0
0 0
0 0
0 0
0 0
0 0
0 0
0 0
0 0
0 0
0 0
0 0
0 0
0 0
0 0
0 0
0 0
0 0
0 0
0 0
0 0
0 0
0 0
0 0
0 0
0 0
0 0
0 0
0 0
0 0
0 0
0 0
0 0
0 0
0 0
0 0
0 0
0 0
0 0
0 0
0 0
0 0
0 0
0 0
0 0
0 0
0 0
0 0
0 0
0 0
0 0
0 0
0 0
0 0
0 0
0 0
0 0
0 0
0 0
0 0
0 0
0 0
0 0
0 0
0 0
0 0
0 0
0 0
0 0
0 0
0 0
0 0
0 0
0 0
0 0
0 0
0 0
0 0
0 0
0 0
0 0
0 0
0 0
0 0
0 0
0 0
0 0
0 0
0 0
0 0
0 0
0 0
0 0
0 0
0 0
0 0
0 0
0 0
0 0
0 0
0 0
0 0
0 0
0 0
0 0
0 0
0 0
0 0
0 0
0 0
0 0
0 0
0 0
0 0
0 0
0 0
0 0
0 0
0 0
0 0
0 0
0 0
0 0
0 0
0 0
0 0
0 0
0 0
0 0
0 0
0 0
0 0
0 0
0 0
0 0
0 0
0 0
0 0
0 0
0 0
0 0
0 0
0 0
0 0
0 0
0 0
0 0
0 0
0 0
0 0
0 0
0 0
0 0
0 0
0 0
0 0
0 0
0 0
0 0
0 0
0 0
0 0
0 0
0 0
0 0
0 0
0 0
0 0
0 0
0 0
0 0
0 0
0 0
0 0
0 0
0 0
0 0
0 0
0 0
0 0
0 0
0 0
0 0
0 0
0 0
0 0
0 0
0 0
0 0
0 0
0 0
0 0
0 0
0 0
0 0
0 0
0 0
0 0
0 0
0 0
0 0
0 0
0 0
0 0
0 0
0 0
0 0
0 0
0 0
0 0
0 0
0 0
0 0
0 0
0 0
0 0
0 0
0 0
0 0
0 0
0 0
0 0
0 0
0 0
0 0
0 0
0 0
0 0
0 0
0 0
0 0
0 0
0 0
0 0
0 0
0 0
0 0
0 0
0 0
0 0
0 0
0 0
0 0
0 0
0 0
0 0
0 0
0 0
0 0
0 0
0 0
0 0
0 0
0 0
0 0
0 0
0 0
0 0
0 0
0 0
0 0
0 0
0 0
0 0
0 0
0 0
0 0
0 0
0 0
0 0
0 0
0 0
0 0
0 0
0 0
0 0
0 0
0 0
0 0
0 0
0 0
0 0
0 0
0 0
0 0
0 0
0 0
0 0
0 0
0 0
0 0
0 0
0 0
0 0
0 0
0 0
0 0
0 0
0 0
0 0
0 0
0 0
0 0
0 0
0 0
0 0
0 0
0 0
0 0
0 0
0 0
0 0
0 0
0 0
0 0
0 0
0 0
0 0
0 0
0 0
0 0
0 0
0 0
0 0
0 0
0 0
0 0
0 0
0 0
0 0
0 0
0 0
0 0
0 0
0 0
0 0
0 0
0 0
0 0
0 0
0 0
0 0
0 0
0 0
0 0
0 0
0 0
0 0
0 0
0 0
0 0
0 0
0 0
0 0
0 0
0 0
0 0
0 0
0 0
0 0
0 0
0 0
0 0
0 0
0 0
0 0
0 0
0 0
0 0
0 0
0 0
0 0
0 0
0 0
0 0
0 0
0 0
0 0
0 0
0 0
0 0
0 0
0 0
0 0
0 0
0 0
0 0
0 0
0 0
0 0
0 0
0 0
0 0
0 0
0 0
0 0
0 0
0 0
0 0
0 0
0 0
0 0
0 0
0 0
0 0
0 0
0 0
0 0
0 0
0 0
0 0
0 0
0 0
0 0
0 0
0 0
0 0
0 0
0 0
0 0
0 0
0 0
0 0
0 0
0 0
0 0
0 0
0 0
0 0
0 0
0 0
0 0
0 0
0 0
0 0
0 0
0 0
0 0
0 0
0 0
0 0
0 0
0 0
0 0
0 0
0 0
0 0
0 0
0 0
0 0
0 0
0 0
0 0
0 0
0 0
0 0
0 0
0 0
0 0
0 0
0 0
0 0
0 0
0 0
0 0
0 0
0 0
0 0
0 0
0 0
0 0
0 0
0 0
0 0
0 0
0 0
0 0
0 0
0 0
0 0
0 0
0 0
0 0
0 0
0 0
0 0
0 0
0 0
0 0
0 0
0 0
0 0
0 0
0 0
0 0
0 0
0 0
0 0
0 0
0 0
0 0
0 0
0 0
0 0
0 0
0 0
0 0
0 0
0 0
0 0
0 0
0 0
0 0
0 0
0 0
0 0
0 0
0 0
0 0
0 0
0 0
0 0
0 0
0 0
0 0
0 0
0 0
0 0
0 0
0 0
0 0
0 0
0 0
0 0
0 0
0 0
0 0
0 0
0 0
0 0
0 0
0 0
0 0
0 0
0 0
0 0
0 0
0 0
0 0
0 0
0 0
0 0
0 0
0 0
0 0
0 0
0 0
0 0
0 0
0 0
0 0
0 0
0 0
0 0
0 0
0 0
0 0
0 0
0 0
0 0
0 0
0 0
0 0
0 0
0 0
0 0
0 0
0 0
0 0
0 0
0 0
0 0
0 0
0 0
0 0
0 0
0 0
0 0
0 0
0 0
0 0
0 0
0 0
0 0
0 0
0 0
0 0
0 0
0 0
0 0
0 0
0 0
0 0
0 0
0 0
0 0
0 0
0 0
0 0
0 0
0 0
0 0
0 0
0 0
0 0
0 0
0 0
0 0
0 0
0 0
0 0
0 0
0 0
0 0
0 0
0 0
0 0
0 0
0 0
0 0
0 0
0 0
0 0
0 0
0 0
0 0
0 0
0 0
0 0
0 0
0 0
0 0
0 0
0 0
0 0
0 0
0 0
0 0
0 0
0 0
0 0
0 0
0 0
0 0
0 0
0 0
0 0
0 0
0 0
0 0
0 0
0 0
0 0
0 0
0 0
0 0
0 0
0 0
0 0
0 0
0 0
0 0
0 0
0 0
0 0
0 0
0 0
0 0
0 0
0 0
0 0
0 0
0 0
0 0
0 0
0 0
0 0
0 0
0 0
0 0
0 0
0 0
0 0
0 0
0 0
0 0
0 0
0 0
0 0
0 0
0 0
0 0
0 0
0 0
0 0
0 0
0 0
0 0
0 0
0 0
0 0
0 0
0 0
0 0
0 0
0 0
0 0
0 0
0 0
0 0
0 0
0 0
0 0
0 0
0 0
0 0
0 0
0 0
0 0
0 0
0 0
0 0
0 0
0 0
0 0
0 0
0 0
0 0
0 0
0 0
0 0
0 0
0 0
0 0
0 0
0 0
0 0
0 0
0 0
0 0
0 0
0 0
0 0
0 0
0 0
0 0
0 0
0 0
0 0
0 0
0 0
0 0
0 0
0 0
0 0
0 0
0 0
0 0
0 0
0 0
0 0
0 0
0 0
0 0
0 0
0 0
0 0
0 0
0 0
0 0
0 0
0 0
0 0
0 0
0 0
0 0
0 0
0 0
0 0
0 0
0 0
0 0
0 0
0 0
0 0
0 0
0 0
0 0
0 0
0 0
0 0
0 0
0 0
0 0
0 0
0 0
0 0
0 0
0 0
0 0
0 0
0 0
0 0
0 0
0 0
0 0
0 0
0 0
0 0
0 0
0 0
0 0
0 0
0 0
0 0
0 0
0 0
0 0
0 0
0 0
0 0
0 0
0 0
0 0
0 0
0 0
0 0
0 0
0 0
0 0
0 0
0 0
0 0
0 0
0 0
0 0
0 0
0 0
0 0
0 0
0 0
0 0
0 0
0 0
0 0
0 0
0 0
0 0
0 0
0 0
0 0
0 0
0 0
0 0
0 0
0 0
0 0
0 0
0 0
0 0
0 0
0 0
0 0
0 0
0 0
0 0
0 0
0 0
0 0
0 0
0 0
0 0
0 0
0 0
0 0
0 0
0 0
0 0
0 0
0 0
0 0
0 0
0 0
0 0
0 0
0 0
0 0
0 0
0 0
0 0
0 0
0 0
0 0
0 0
0 0
0 0
0 0
0 0
0 0
0 0
0 0
0 0
0 0
0 0
0 0
0 0
0 0
0 0
0 0
0 0
0 0
0 0
0 0
0 0
0 0
0 0
0 0
0 0
0 0
0 0
0 0
0 0
0 0
0 0
0 0
0 0
0 0
0 0
0 0
0 0
0 0
0 0
0 0
0 0
0 0
0 0
0 0
0 0
0 0
0 0
0 0
0 0
0 0
0 0
0 0
0 0
0 0
0 0
0 0
0 0
0 0
0 0
0 0
0 0
0 0
0 0
0 0
0 0
0 0
0 0
0 0
0 0
0 0
0 0
0 0
0 0
0 0
0 0
0 0
0 0
0 0
0 0
0 0
0 0
0 0
0 0
0 0
0 0
0 0
0 0
0 0
0 0
0 0
0 0
0 0
0 0
0 0
0 0
0 0
0 0
0 0
0 0
0 0
0 0
0 0
0 0
0 0
0 0
0 0
0 0
0 0
0 0
0 0
0 0
0 0
0 0
0 0
0 0
0 0
0 0
0 0
0 0
0 0
0 0
0 0
0 0
0 0
0 0
0 0
0 0
0 0
0 0
0 0
0 0
0 0
0 0
0 0
0 0
0 0
0 0
0 0
0 0
0 0
0 0
0 0
0 0
0 0
0 0
0 0
0 0
0 0
0 0
0 0
0 0
0 0
0 0
0 0
0 0
0 0
0 0
0 0
0 0
0 0
0 0
0 0
0 0
0 0
0 0
0 0
0 0
0 0
0 0
0 0
0 0
0 0
0 0
0 0
0 0
0 0
0 0
0 0
0 0
0 0
0 0
0 0
0 0
0 0
0 0
0 0
0 0
0 0
0 0
0 0
0 0
0 0
0 0
0 0
0 0
0 0
0 0
0 0
0 0
0 0
0 0
0 0
0 0
0 0
0 0
0 0
0 0
0 0
0 0
0 0
0 0
0 0
0 0
0 0
0 0
0 0
0 0
0 0
0 0
0 0
0 0
0 0
0 0
0 0
0 0
0 0
0 0
0 0
0 0
0 0
0 0
0 0
0 0
0 0
0 0
0 0
0 0
0 0
0 0
0 0
0 0
0 0
0 0
0 0
0 0
0 0
0 0
0 0
0 0
0 0
0 0
0 0
0 0
0 0
0 0
0 0
0 0
0 0
0 0
0 0
0 0
0 0
0 0
0 0
0 0
0 0
0 0
0 0
0 0
0 0
0 0
0 0
0 0
0 0
0 0
0 0
0 0
0 0
0 0
0 0
0 0
0 0
0 0
0 0
0 0
0 0
0 0
0 0
0 0
0 0
0 0
0 0
0 0
0 0
0 0
0 0
0 0
0 0
0 0
0 0
0 0
0 0
0 0
0 0
0 0
0 0
0 0
0 0
0 0
0 0
0 0
0 0
0 0
0 0
0 0
0 0
0 0
0 0
0 0
0 0
0 0
0 0
0 0
0 0
0 0
0 0
0 0
0 0
0 0
0 0
0 0
0 0
0 0
0 0
0 0
0 0
0 0
0 0
0 0
0 0
0 0
0 0
0 0
0 0
0 0
0 0
0 0
0 0
0 0
0 0
0 0
0 0
0 0
0 0
0 0
0 0
0 0
0 0
0 0
0 0
0 0
0 0
0 0
0 0
0 0
0 0
0 0
0 0
0 0
0 0
0 0
0 0
0 0
0 0
0 0
0 0
0 0
0 0
0 0
0 0
0 0
0 0
0 0
0 0
0 0
0 0
0 0
0 0
0 0
0 0
0 0
0 0
0 0
0 0
0 0
0 0
0 0
0 0
0 0
0 0
0 0
0 0
0 0
0 0
0 0
0 0
0 0
0 0
0 0
0 0
0 0
0 0
0 0
0 0
0 0
0 0
0 0
0 0
0 0
0 0
0 0
0 0
0 0
0 0
0 0
0 0
0 0
0 0
0 0
0 0
0 0
0 0
0 0
0 0
0 0
0 0
0 0
0 0
0 0
0 0
0 0
0 0
0 0
0 0
0 0
0 0
0 0
0 0
0 0
0 0
0 0
0 0
0 0
0 0
0 0
0 0
0 0
0 0
0 0
0 0
0 0
0 0
0 0
0 0
0 0
0 0
0 0
0 0
0 0
0 0
0 0
0 0
0 0
0 0
0 0
0 0
0 0
0 0
0 0
0 0
0 0
0 0
0 0
0 0
0 0
0 0
0 0
0 0
0 0
0 0
0 0
0 0
0 0
0 0
0 0
0 0
0 0
0 0
0 0
0 0
0 0
0 0
0 0
0 0
0 0
0 0
0 0
0 0
0 0
0 0
0 0
0 0
0 0
0 0
0 0
0 0
0 0
0 0
0 0
0 0
0 0
0 0
0 0
0 0
0 0
0 0
0 0
0 0
0 0
0 0
0 0
0 0
0 0
0 0
0 0
0 0
0 0
0 0
0 0
0 0
0 0
0 0
0 0
0 0
0 0
0 0
0 0
0 0
0 0
0 0
0 0
0 0
0 0
0 0
0 0
0 0
0 0
0 0
0 0
0 0
0 0
0 0
0 0
0 0
0 0
0 0
0 0
0 0
0 0
0 0
0 0
0 0
0 0
0 0
0 0
0 0
0 0
0 0
0 0
0 0
0 0
0 0
0 0
0 0
0 0
0 0
0 0
0 0
0 0
0 0
0 0
0 0
0 0
0 0
0 0
0 0
0 0
0 0
0 0
0 0
0 0
0 0
0 0
0 0
0 0
0 0
0 0
0 0
0 0
0 0
0 0
0 0
0 0
0 0
0 0
0 0
0 0
0 0
0 0
0 0
0 0
0 0
0 0
0 0
0 0
0 0
0 0
0 0
0 0
0 0
0 0
0 0
0 0
0 0
0 0
0 0
0 0
0 0
0 0
0 0
0 0
0 0
0 0
0 0
0 0
0 0
0 0
0 0
0 0
0 0
0 0
0 0
0 0
0 0
0 0
0 0
0 0
0 0
0 0
0 0
0 0
0 0
0 0
0 0
0 0
0 0
0 0
0 0
0 0
0 0
0 0
0 0
0 0
0 0
0 0
0 0
0 0
0 0
0 0
0 0
0 0
0 0
0 0
0 0
0 0
0 0
0 0
0 0
0 0
0 0
0 0
0 0
0 0
0 0
0 0
0 0
0 0
0 0
0 0
0 0
0 0
0 0
0 0
0 0
0 0
0 0
0 0
0 0
0 0
0 0
0 0
0 0
0 0
0 0
0 0
0 0
0 0
0 0
0 0
0 0
0 0
0 0
0 0
0 0
0 0
0 0
0 0
0 0
0 0
0 0
0 0
0 0
0 0
0 0
0 0
0 0
0 0
0 0
0 0
0 0
0 0
0 0
0 0
0 0
0 0
0 0
0 0
0 0
0 0
0 0
0 0
0 0
0 0
0 0
0 0
0 0
0 0
0 0
0 0
0 0
0 0
0 0
0 0
0 0
0 0
0 0
0 0
0 0
0 0
0 0
0 0
0 0
0 0
0 0
0 0
0 0
0 0
0 0
0 0
0 0
0 0
0 0
0 0
0 0
0 0
0 0
0 0
0 0
0 0
0 0
0 0
0 0
0 0
0 0
0 0
0 0
0 0
0 0
0 0
0 0
0 0
0 0
0 0
0 0
0 0
0 0
0 0
0 0
0 0
0 0
0 0
0 0
0 0
0 0
0 0
0 0
0 0
0 0
0 0
0 0
0 0
0 0
0 0
0 0
0 0
0 0
0 0
0 0
0 0
0 0
0 0
0 0
0 0
0 0
0 0
0 0
0 0
0 0
0 0
0 0
0 0
0 0
0 0
0 0
0 0
0 0
0 0
0 0
0 0
0 0
0 0
0 0
0 0
0 0
0 0
0 0
0 0
0 0
0 0
0 0
0 0
0 0
0 0
0 0
0 0
0 0
0 0
0 0
0 0
0 0
0 0
0 0
0 0
0 0
0 0
0 0
0 0
0 0
0 0
0 0
0 0
0 0
0 0
0 0
0 0
0 0
0 0
0 0
0 0
0 0
0 0
0 0
0 0
0 0
0 0
0 0
0 0
0 0
0 0
0 0
0 0
0 0
0 0
0 0
0 0
0 0
0 0
0 0
0 0
0 0
0 0
0 0
0 0
0 0
0 0
0 0
0 0
0 0
0 0
0 0
0 0
0 0
0 0
0 0
0 0
0 0
0 0
0 0
0 0
0 0
0 0
0 0
0 0
0 0
0 0
0 0
0 0
0 0
0 0
0 0
0 0
0 0
0 0
0 0
0 0
0 0
0 0
0 0
0 0
0 0
0 0
0 0
0 0
0 0
0 0
0 0
0 0
0 0
0 0
0 0
0 0
0 0
0 0
0 0
0 0
0 0
0 0
0 0
0 0
0 0
0 0
0 0
0 0
0 0
0 0
0 0
0 0
0 0
0 0
0 0
0 0
0 0
0 0
0 0
0 0
0 0
0 0
0 0
0 0
0 0
0 0
0 0
0 0
0 0
0 0
0 0
0 0
0 0
0 0
0 0
0 0
0 0
0 0
0 0
0 0
0 0
0 0
0 0
0 0
0 0
0 0
0 0
0 0
0 0
0 0
0 0
0 0
0 0
0 0
0 0
0 0
0 0
0 0
0 0
0 0
0 0
0 0
0 0
0 0
0 0
0 0
0 0
0 0
0 0
0 0
0 0
0 0
0 0
0 0
0 0
0 0
0 0
0 0
0 0
0 0
0 0
0 0
0 0
0 0
0 0
0 0
0 0
0 0
0 0
0 0
0 0
0 0
0 0
0 0
0 0
0 0
0 0
0 0
0 0
0 0
0 0
0 0
0 0
0 0
0 0
0 0
0 0
0 0
0 0
0 0
0 0
0 0
0 0
0 0
0 0
0 0
0 0
0 0
0 0
0 0
0 0
0 0
0 0
0 0
0 0
0 0
0 0
0 0
0 0
0 0
0 0
0 0
0 0
0 0
0 0
0 0
0 0
0 0
0 0
0 0
0 0
0 0
0 0
0 0
0 0
0 0
0 0
0 0
0 0
0 0
0 0
0 0
0 0
0 0
0 0
0 0
0 0
0 0
0 0
0 0
0 0
0 0
0 0
0 0
0 0
0 0
0 0
0 0
0 0
0 0
0 0
0 0
0 0
0 0
0 0
0 0
0 0
0 0
0 0
0 0
0 0
0 0
0 0
0 0
0 0
0 0
0 0
0 0
0 0
0 0
0 0
0 0
0 0
0 0
0 0
0 0
0 0
0 0
0 0
0 0
0 0
0 0
0 0
0 0
0 0
0 0
0 0
0 0
0 0
0 0
0 0
0 0
0 0
0 0
0 0
0 0
0 0
0 0
0 0
0 0
0 0
0 0
0 0
0 0
0 0
0 0
0 0
0 0
0 0
0 0
0 0
0 0
0 0
0 0
0 0
0 0
0 0
0 0
0 0
0 0
0 0
0 0
0 0
0 0
0 0
0 0
0 0
0 0
0 0
0 0
0 0
0 0
0 0
0 0
0 0
0 0
0 0
0 0
0 0
0 0
0 0
0 0
0 0
0 0
0 0
0 0
0 0
0 0
0 0
0 0
0 0
0 0
0 0
0 0
0 0
0 0
0 0
0 0
0 0
0 0
0 0
0 0
0 0
0 0
0 0
0 0
0 0
0 0
0 0
0 0
0 0
0 0
0 0
0 0
0 0
0 0
0 0
0 0
0 0
0 0
0 0
0 0
0 0
0 0
0 0
0 0
0 0
0 0
0 0
0 0
0 0
0 0
0 0
0 0
0 0
0 0
0 0
0 0
0 0
0 0
0 0
0 0
0 0
0 0
0 0
0 0
0 0
0 0
0 0
0 0
0 0
0 0
0 0
0 0
0 0
0 0
0 0
0 0
0 0
0 0
0 0
0 0
0 0
0 0
0 0
0 0
0 0
0 0
0 0
0 0
0 0
0 0
0 0
0 0
0 0
0 0
0 0
0 0
0 0
0 0
0 0
0 0
0 0
0 0
0 0
0 0
0 0
0 0
0 0
0 0
0 0
0 0
0 0
0 0
0 0
0 0
0 0
0 0
0 0
0 0
0 0
0 0
0 0
0 0
0 0
0 0
0 0
0 0
0 0
0 0
0 0
0 0
0 0
0 0
0 0
0 0
0 0
0 0
0 0
0 0
0 0
0 0
0 0
0 0
0 0
0 0
0 0
0 0
0 0
0 0
0 0
0 0
0 0
0 0
0 0
0 0
0 0
0 0
0 0
0 0
0 0
0 0
0 0
0 0
0 0
0 0
0 0
0 0
0 0
0 0
0 0
0 0
0 0
0 0
0 0
0 0
0 0
0 0
0 0
0 0
0 0
0 0
0 0
0 0
0 0
0 0
0 0
0 0
0 0
0 0
0 0
0 0
0 0
0 0
0 0
0 0
0 0
0 0
0 0
0 0
0 0
0 0
0 0
0 0
0 0
0 0
0 0
0 0
0 0
0 0
0 0
0 0
0 0
0 0
0 0
0 0
0 0
0 0
0 0
0 0
0 0
0 0
0 0
0 0
0 0
0 0
0 0
0 0
0 0
0 0
0 0
0 0
0 0
0 0
0 0
0 0
0 0
0 0
0 0
0 0
0 0
0 0
0 0
0 0
0 0
0 0
0 0
0 0
0 0
0 0
0 0
0 0
0 0
0 0
0 0
0 0
0 0
0 0
0 0
0 0
0 0
0 0
0 0
0 0
0 0
0 0
0 0
0 0
0 0
0 0
0 0
0 0
0 0
0 0
0 0
0 0
0 0
0 0
0 0
0 0
0 0
0 0
0 0
0 0
0 0
0 0
0 0
0 0
0 0
0 0
0 0
0 0
0 0
0 0
0 0
0 0
0 0
0 0
0 0
0 0
0 0
0 0
0 0
0 0
0 0
0 0
0 0
0 0
0 0
0 0
0 0
0 0
0 0
0 0
0 0
0 0
0 0
0 0
0 0
0 0
0 0
0 0
0 0
0 0
0 0
0 0
0 0
0 0
0 0
0 0
0 0
0 0
0 0
0 0
0 0
0 0
0 0
0 0
0 0
0 0
0 0
0 0
0 0
0 0
0 0
0 0
0 0
0 0
0 0
0 0
0 0
0 0
0 0
0 0
0 0
0 0
0 0
0 0
0 0
0 0
0 0
0 0
0 0
0 0
0 0
0 0
0 0
0 0
0 0
0 0
0 0
0 0
0 0
0 0
0 0
0 0
0 0
0 0
0 0
0 0
0 0
0 0
0 0
0 0
0 0
0 0
0 0
0 0
0 0
0 0
0 0
0 0
0 0
0 0
0 0
0 0
0 0
0 0
0 0
0 0
0 0
0 0
0 0
0 0
0 0
0 0
0 0
0 0
0 0
0 0
0 0
0 0
0 0
0 0
0 0
0 0
0 0
0 0
0 0
0 0
0 0
0 0
0 0
0 0
0 0
0 0
0 0
0 0
0 0
0 0
0 0
0 0
0 0
0 0
0 0
0 0
0 0
0 0
0 0
0 0
0 0
0 0
0 0
0 0
0 0
0 0
0 0
0 0
0 0
0 0
0 0
0 0
0 0
0 0
0 0
0 0
0 0
0 0
0 0
0 0
0 0
0 0
0 0
0 0
0 0
0 0
0 0
0 0
0 0
0 0
0 0
0 0
0 0
0 0
0 0
0 0
0 0
0 0
0 0
0 0
0 0
0 0
0 0
0 0
0 0
0 0
0 0
0 0
0 0
0 0
0 0
0 0
0 0
0 0
0 0
0 0
0 0
0 0
0 0
0 0
0 0
0 0
0 0
0 0
0 0
0 0
0 0
0 0
0 0
0 0
0 0
0 0
0 0
0 0
0 0
0 0
0 0
0 0
0 0
0 0
0 0
0 0
0 0
0 0
0 0
0 0
0 0
0 0
0 0
0 0
0 0
0 0
0 0
0 0
0 0
0 0
0 0
0 0
0 0
0 0
0 0
0 0
0 0
0 0
0 0
0 0
0 0
0 0
0 0
0 0
0 0
0 0
0 0
0 0
0 0
0 0
0 0
0 0
0 0
0 0
0 0
0 0
0 0
0 0
0 0
0 0
0 0
0 0
0 0
0 0
0 0
0 0
0 0
0 0
0 0
0 0
0 0
0 0
0 0
0 0
0 0
0 0
0 0
0 0
0 0
0 0
0 0
0 0
0 0
0 0
0 0
0 0
0 0
0 0
0 0
0 0
0 0
0 0
0 0
0 0
0 0
0 0
0 0
0 0
0 0
0 0
0 0
0 0
0 0
0 0
0 0
0 0
0 0
0 0
0 0
0 0
0 0
0 0
0 0
0 0
0 0
0 0
0 0
0 0
0 0
0 0
0 0
0 0
0 0
0 0
0 0
0 0
0 0
0 0
0 0
0 0
0 0
0 0
0 0
0 0
0 0
0 0
0 0
0 0
0 0
0 0
0 0
0 0
0 0
0 0
0 0
0 0
0 0
0 0
0 0
0 0
0 0
0 0
0 0
0 0
0 0
0 0
0 0
0 0
0 0
0 0
0 0
0 0
0 0
0 0
0 0
0 0
0 0
0 0
0 0
0 0
0 0
0 0
0 0
0 0
0 0
0 0
0 0
0 0
0 0
0 0
0 0
0 0
0 0
0 0
0 0
0 0
0 0
0 0
0 0
0 0
0 0
0 0
0 0
0 0
0 0
0 0
0 0
0 0
0 0
0 0
0 0
0 0
0 0
0 0
0 0
0 0
0 0
0 0
0 0
0 0
0 0
0 0
0 0
0 0
0 0
0 0
0 0
0 0
0 0
0 0
0 0
0 0
0 0
0 0
0 0
0 0
0 0
0 0
0 0
0 0
0 0
0 0
0 0
0 0
0 0
0 0
0 0
0 0
0 0
0 0
0 0
0 0
0 0
0 0
0 0
0 0
0 0
0 0
0 0
0 0
0 0
0 0
0 0
0 0
0 0
0 0
0 0
0 0
0 0
0 0
0 0
0 0
0 0
0 0
0 0
0 0
0 0
0 0
0 0
0 0
0 0
0 0
0 0
0 0
0 0
0 0
0 0
0 0
0 0
0 0
0 0
0 0
0 0
0 0
0 0
0 0
0 0
0 0
0 0
0 0
0 0
0 0
0 0
0 0
0 0
0 0
0 0
0 0
0 0
0 0
0 0
0 0
0 0
0 0
0 0
0 0
0 0
0 0
0 0
0 0
0 0
0 0
0 0
0 0
0 0
0 0
0 0
0 0
0 0
0 0
0 0
0 0
0 0
0 0
0 0
0 0
0 0
0 0
0 0
0 0
0 0
0 0
0 0
0 0
0 0
0 0
0 0
0 0
0 0
0 0
0 0
0 0
0 0
0 0
0 0
0 0
0 0
0 0
0 0
0 0
0 0
0 0
0 0
0 0
0 0
0 0
0 0
0 0
0 0
0 0
0 0
0 0
0 0
0 0
0 0
0 0
0 0
0 0
0 0
0 0
0 0
0 0
0 0
0 0
0 0
0 0
0 0
0 0
0 0
0 0
0 0
0 0
0 0
0 0
0 0
0 0
0 0
0 0
0 0
0 0
0 0
0 0
0 0
0 0
0 0
0 0
0 0
0 0
0 0
0 0
0 0
0 0
0 0
0 0
0 0
0 0
0 0
0 0
0 0
0 0
0 0
0 0
0 0
0 0
0 0
0 0
0 0
0 0
0 0
0 0
0 0
0 0
0 0
0 0
0 0
0 0
0 0
0 0
0 0
0 0
0 0
0 0
0 0
0 0
0 0
0 0
0 0
0 0
0 0
0 0
0 0
0 0
0 0
0 0
0 0
0 0
0 0
0 0
0 0
0 0
0 0
0 0
0 0
0 0
0 0
0 0
0 0
0 0
0 0
0 0
0 0
0 0
0 0
0 0
0 0
0 0
0 0
0 0
0 0
0 0
0 0
0 0
0 0
0 0
0 0
0 0
0 0
0 0
0 0
0 0
0 0
0 0
0 0
0 0
0 0
0 0
0 0
0 0
0 0
0 0
0 0
0 0
0 0
0 0
0 0
0 0
0 0
0 0
0 0
0 0
0 0
0 0
0 0
0 0
0 0
0 0
0 0
0 0
0 0
0 0
0 0
0 0
0 0
0 0
0 0
0 0
0 0
0 0
0 0
0 0
0 0
0 0
0 0
0 0
0 0
0 0
0 0
0 0
0 0
0 0
0 0
0 0
0 0
0 0
0 0
0 0
0 0
0 0
0 0
0 0
0 0
0 0
0 0
0 0
0 0
0 0
0 0
0 0
0 0
0 0
0 0
0 0
0 0
0 0
0 0
0 0
0 0
0 0
0 0
0 0
0 0
0 0
0 0
0 0
0 0
0 0
0 0
0 0
0 0
0 0
0 0
0 0
0 0
0 0
0 0
0 0
0 0
0 0
0 0
0 0
0 0
0 0
0 0
0 0
0 0
0 0
0 0
0 0
0 0
0 0
0 0
0 0
0 0
0 0
0 0
0 0
0 0
0 0
0 0
0 0
0 0
0 0
0 0
0 0
0 0
0 0
0 0
0 0
0 0
0 0
0 0
0 0
0 0
0 0
0 0
0 0
0 0
0 0
0 0
0 0
0 0
0 0
0 0
0 0
0 0
0 0
0 0
0 0
0 0
0 0
0 0
0 0
0 0
0 0
0 0
0 0
0 0
0 0
0 0
0 0
0 0
0 0
0 0
0 0
0 0
0 0
0 0
0 0
0 0
0 0
0 0
0 0
0 0
0 0
0 0
0 0
0 0
0 0
0 0
0 0
0 0
0 0
0 0
0 0
0 0
0 0
0 0
0 0
0 0
0 0
0 0
0 0
0 0
0 0
0 0
0 0
0 0
0 0
0 0
0 0
0 0
0 0
0 0
0 0
0 0
0 0
0 0
0 0
0 0
0 0
0 0
0 0
0 0
0 0
0 0
0 0
0 0
0 0
0 0
0 0
0 0
0 0
0 0
0 0
0 0
0 0
0 0
0 0
0 0
0 0
0 0
0 0
0 0
0 0
0 0
0 0
0 0
0 0
0 0
0 0
0 0
0 0
0 0
0 0
0 0
0 0
0 0
0 0
0 0
0 0
0 0
0 0
0 0
0 0
0 0
0 0
0 0
0 0
0 0
0 0
0 0
0 0
0 0
0 0
0 0
0 0
0 0
0 0
0 0
0 0
0 0
0 0
0 0
0 0
0 0
0 0
0 0
0 0
0 0
0 0
0 0
0 0
0 0
0 0
0 0
0 0
0 0
0 0
0 0
0 0
0 0
0 0
0 0
0 0
0 0
0 0
0 0
0 0
0 0
0 0
0 0
0 0
0 0
0 0
0 0
0 0
0 0
0 0
0 0
0 0
0 0
0 0
0 0
0 0
0 0
0 0
0 0
0 0
0 0
0 0
0 0
0 0
0 0
0 0
0 0
0 0
0 0
0 0
0 0
0 0
0 0
0 0
0 0
0 0
0 0
0 0
0 0
0 0
0 0
0 0
0 0
0 0
0 0
0 0
0 0
0 0
0 0
0 0
0 0
0 0
0 0
0 0
0 0
0 0
0 0
0 0
0 0
0 0
0 0
0 0
0 0
0 0
0 0
0 0
0 0
0 0
0 0
0 0
0 0
0 0
0 0
0 0
0 0
0 0
0 0
0 0
0 0
0 0
0 0
0 0
0 0
0 0
0 0
0 0
0 0
0 0
0 0
0 0
0 0
0 0
0 0
0 0
0 0
0 0
0 0
0 0
0 0
0 0
0 0
0 0
0 0
0 0
0 0
0 0
0 0
0 0
0 0
0 0
0 0
0 0
0 0
0 0
0 0
0 0
0 0
0 0
0 0
0 0
0 0
0 0
0 0
0 0
0 0
0 0
0 0
0 0
0 0
0 0
0 0
0 0
0 0
0 0
0 0
0 0
0 0
0 0
0 0
0 0
0 0
0 0
0 0
0 0
0 0
0 0
0 0
0 0
0 0
0 0
0 0
0 0
0 0
0 0
0 0
0 0
0 0
0 0
0 0
0 0
0 0
0 0
0 0
0 0
0 0
0 0
0 0
0 0
0 0
0 0
0 0
0 0
0 0
0 0
0 0
0 0
0 0
0 0
0 0
0 0
0 0
0 0
0 0
0 0
0 0
0 0
0 0
0 0
0 0
0 0
0 0
0 0
0 0
0 0
0 0
0 0
0 0
0 0
0 0
0 0
0 0
0 0
0 0
0 0
0 0
0 0
0 0
0 0
0 0
0 0
0 0
0 0
0 0
0 0
0 0
0 0
0 0
0 0
0 0
0 0
0 0
0 0
0 0
0 0
0 0
0 0
0 0
0 0
0 0
0 0
0 0
0 0
0 0
0 0
0 0
0 0
0 0
0 0
0 0
0 0
0 0
0 0
0 0
0 0
0 0
0 0
0 0
0 0
0 0
0 0
0 0
0 0
0 0
0 0
0 0
0 0
0 0
0 0
0 0
0 0
0 0
0 0
0 0
0 0
0 0
0 0
0 0
0 0
0 0
0 0
0 0
0 0
0 0
0 0
0 0
0 0
0 0
0 0
0 0
0 0
0 0
0 0
0 0
0 0
0 0
0 0
0 0
0 0
0 0
0 0
0 0
0 0
0 0
0 0
0 0
0 0
0 0
0 0
0 0
0 0
0 0
0 0
0 0
0 0
0 0
0 0
0 0
0 0
0 0
0 0
0 0
0 0
0 0
0 0
0 0
0 0
0 0
0 0
0 0
0 0
0 0
0 0
0 0
0 0
0 0
0 0
0 0
0 0
0 0
0 0
0 0
0 0
0 0
0 0
0 0
0 0
0 0
0 0
0 0
0 0
0 0
0 0
0 0
0 0
0 0
0 0
0 0
0 0
0 0
0 0
0 0
0 0
0 0
0 0
0 0
0 0
0 0
0 0
0 0
0 0
0 0
0 0
0 0
0 0
0 0
0 0
0 0
0 0
0 0
0 0
0 0
0 0
0 0
0 0
0 0
0 0
0 0
0 0
0 0
0 0
0 0
0 0
0 0
0 0
0 0
0 0
0 0
0 0
0 0
0 0
0 0
0 0
0 0
0 0
0 0
0 0
0 0
0 0
0 0
0 0
0 0
0 0
0 0
0 0
0 0
0 0
0 0
0 0
0 0
0 0
0 0
0 0
0 0
0 0
0 0
0 0
0 0
0 0
0 0
0 0
0 0
0 0
0 0
0 0
0 0
0 0
0 0
0 0
0 0
0 0
0 0
0 0
0 0
0 0
0 0
0 0
0 0
0 0
0 0
0 0
0 0
0 0
0 0
0 0
0 0
0 0
0 0
0 0
0 0
0 0
0 0
0 0
0 0
0 0
0 0
0 0
0 0
0 0
0 0
0 0
0 0
0 0
0 0
0 0
0 0
0 0
0 0
0 0
0 0
0 0
0 0
0 0
0 0
0 0
0 0
0 0
0 0
0 0
0 0
0 0
0 0
0 0
0 0
0 0
0 0
0 0
0 0
0 0
0 0
0 0
0 0
0 0
0 0
0 0
0 0
0 0
0 0
0 0
0 0
0 0
0 0
0 0
0 0
0 0
0 0
0 0
0 0
0 0
0 0
0 0
0 0
0 0
0 0
0 0
0 0
0 0
0 0
0 0
0 0
0 0
0 0
0 0
0 0
0 0
0 0
0 0
0 0
0 0
0 0
0 0
0 0
0 0
0 0
0 0
0 0
0 0
0 0
0 0
0 0
0 0
0 0
0 0
0 0
0 0
0 0
0 0
0 0
0 0
0 0
0 0
0 0
0 0
0 0
0 0
0 0
0 0
0 0
0 0
0 0
0 0
0 0
0 0
0 0
0 0
0 0
0 0
0 0
0 0
0 0
0 0
0 0
0 0
0 0
0 0
0 0
0 0
0 0
0 0
0 0
0 0
0 0
0 0
0 0
0 0
0 0
0 0
0 0
0 0
0 0
0 0
0 0
0 0
0 0
0 0
0 0
0 0
0 0
0 0
0 0
0 0
0 0
0 0
0 0
0 0
0 0
0 0
0 0
0 0
0 0
0 0
0 0
0 0
0 0
0 0
0 0
0 0
0 0
0 0
0 0
0 0
0 0
0 0
0 0
0 0
0 0
0 0
0 0
0 0
0 0
0 0
0 0
0 0
0 0
0 0
0 0
0 0
0 0
0 0
0 0
0 0
0 0
0 0
0 0
0 0
0 0
0 0
0 0
0 0
0 0
0 0
0 0
0 0
0 0
0 0
0 0
0 0
0 0
0 0
0 0
0 0
0 0
0 0
0 0
0 0
0 0
0 0
0 0
0 0
0 0
0 0
0 0
0 0
0 0
0 0
0 0
0 0
0 0
0 0
0 0
0 0
0 0
0 0
0 0
0 0
0 0
0 0
0 0
0 0
0 0
0 0
0 0
0 0
0 0
0 0
0 0
0 0
0 0
0 0
0 0
0 0
0 0
0 0
0 0
0 0
0 0
0 0
0 0
0 0
0 0
0 0
0 0
0 0
0 0
0 0
0 0
0 0
0 0
0 0
0 0
0 0
0 0
0 0
0 0
0 0
0 0
0 0
0 0
0 0
0 0
0 0
0 0
0 0
0 0
0 0
0 0
0 0
0 0
0 0
0 0
0 0
0 0
0 0
0 0
0 0
0 0
0 0
0 0
0 0
0 0
0 0
0 0
0 0
0 0
0 0
0 0
0 0
0 0
0 0
0 0
0 0
0 0
0 0
0 0
0 0
0 0
0 0
0 0
0 0
0 0
0 0
0 0
0 0
0 0
0 0
0 0
0 0
0 0
0 0
0 0
0 0
0 0
0 0
0 0
0 0
0 0
0 0
0 0
0 0
0 0
0 0
0 0
0 0
0 0
0 0
0 0
0 0
0 0
0 0
0 0
0 0
0 0
0 0
0 0
0 0
0 0
0 0
0 0
0 0
0 0
0 0
0 0
0 0
0 0
0 0
0 0
0 0
0 0
0 0
0 0
0 0
0 0
0 0
0 0
0 0
0 0
0 0
0 0
0 0
0 0
0 0
0 0
0 0
0 0
0 0
0 0
0 0
0 0
0 0
0 0
0 0
0 0
0 0
0 0
0 0
0 0
0 0
0 0
0 0
0 0
0 0
0 0
0 0
0 0
0 0
0 0
0 0
0 0
0 0
0 0
0 0
0 0
0 0
0 0
0 0
0 0
0 0
0 0
0 0
0 0
0 0
0 0
0 0
0 0
0 0
0 0
0 0
0 0
0 0
0 0
0 0
0 0
0 0
0 0
0 0
0 0
0 0
0 0
0 0
0 0
0 0
0 0
0 0
0 0
0 0
0 0
0 0
0 0
0 0
0 0
0 0
0 0
0 0
0 0
0 0
0 0
0 0
0 0
0 0
0 0
0 0
0 0
0 0
0 0
0 0
0 0
0 0
0 0
0 0
0 0
0 0
0 0
0 0
0 0
0 0
0 0
0 0
0 0
0 0
0 0
0 0
0 0
0 0
0 0
0 0
0 0
0 0
0 0
0 0
0 0
0 0
0 0
0 0
0 0
0 0
0 0
0 0
0 0
0 0
0 0
0 0
0 0
0 0
0 0
0 0
0 0
0 0
0 0
0 0
0 0
0 0
0 0
0 0
0 0
0 0
0 0
0 0
0 0
0 0
0 0
0 0
0 0
0 0
0 0
0 0
0 0
0 0
0 0
0 0
0 0
0 0
0 0
0 0
0 0
0 0
0 0
0 0
0 0
0 0
0 0
0 0
0 0
0 0
0 0
0 0
0 0
0 0
0 0
0 0
0 0
0 0
0 0
0 0
0 0
0 0
0 0
0 0
0 0
0 0
0 0
0 0
0 0
0 0
0 0
0 0
0 0
0 0
0 0
0 0
0 0
0 0
0 0
0 0
0 0
0 0
0 0
0 0
0 0
0 0
0 0
0 0
0 0
0 0
0 0
0 0
0 0
0 0
0 0
0 0
0 0
0 0
0 0
0 0
0 0
0 0
0 0
0 0
0 0
0 0
0 0
0 0
0 0
0 0
0 0
0 0
0 0
0 0
0 0
0 0
0 0
0 0
0 0
0 0
0 0
0 0
0 0
0 0
0 0
0 0
0 0
0 0
0 0
0 0
0 0
0 0
0 0
0 0
0 0
0 0
0 0
0 0
0 0
0 0
0 0
0 0
0 0
0 0
0 0
0 0
0 0
0 0
0 0
0 0
0 0
0 0
0 0
0 0
0 0
0 0
0 0
0 0
0 0
0 0
0 0
0 0
0 0
0 0
0 0
0 0
0 0
0 0
0 0
0 0
0 0
0 0
0 0
0 0
0 0
0 0
0 0
0 0
0 0
0 0
0 0
0 0
0 0
0 0
0 0
0 0
0 0
0 0
0 0
0 0
0 0
0 0
0 0
0 0
0 0
0 0
0 0
0 0
0 0
0 0
0 0
0 0
0 0
0 0
0 0
0 0
0 0
0 0
0 0
0 0
0 0
0 0
0 0
0 0
0 0
0 0
0 0
0 0
0 0
0 0
0 0
0 0
0 0
0 0
0 0
0 0
0 0
0 0
0 0
0 0
0 0
0 0
0 0
0 0
0 0
0 0
0 0
0 0
0 0
0 0
0 0
0 0
0 0
0 0
0 0
0 0
0 0
0 0
0 0
0 0
0 0
0 0
0 0
0 0
0 0
0 0
0 0
0 0
0 0
0 0
0 0
0 0
0 0
0 0
0 0
0 0
0 0
0 0
0 0
0 0
0 0
0 0
0 0
0 0
0 0
0 0
0 0
0 0
0 0
0 0
0 0
0 0
0 0
0 0
0 0
0 0
0 0
0 0
0 0
0 0
0 0
0 0
0 0
0 0
0 0
0 0
0 0
0 0
0 0
0 0
0 0
0 0
0 0
0 0
0 0
0 0
0 0
0 0
0 0
0 0
0 0
0 0
0 0
0 0
0 0
0 0
0 0
0 0
0 0
0 0
0 0
0 0
0 0
0 0
0 0
0 0
0 0
0 0
0 0
0 0
0 0
0 0
0 0
0 0
0 0
0 0
0 0
0 0
0 0
0 0
0 0
0 0
0 0
0 0
0 0
0 0
0 0
0 0
0 0
0 0
0 0
0 0
0 0
0 0
0 0
0 0
0 0
0 0
0 0
0 0
0 0
0 0
0 0
0 0
0 0
0 0
0 0
0 0
0 0
0 0
0 0
0 0
0 0
0 0
0 0
0 0
0 0
0 0
0 0
0 0
0 0
0 0
0 0
0 0
0 0
0 0
0 0
0 0
0 0
0 0
0 0
0 0
0 0
0 0
0 0
0 0
0 0
0 0
0 0
0 0
0 0
0 0
0 0
0 0
0 0
0 0
0 0
0 0
0 0
0 0
0 0
0 0
0 0
0 0
0 0
0 0
0 0
0 0
0 0
0 0
0 0
0 0
0 0
0 0
0 0
0 0
0 0
0 0
0 0
0 0
0 0
0 0
0 0
0 0
0 0
0 0
0 0
0 0
0 0
0 0
0 0
0 0
0 0
0 0
0 0
0 0
0 0
0 0
0 0
0 0
0 0
0 0
0 0
0 0
0 0
0 0
0 0
0 0
0 0
0 0
0 0
0 0
0 0
0 0
0 0
0 0
0 0
0 0
0 0
0 0
0 0
0 0
0 0
0 0
0 0
0 0
0 0
0 0
0 0
0 0
0 0
0 0
0 0
0 0
0 0
0 0
0 0
0 0
0 0
0 0
0 0
0 0
0 0
0 0
0 0
0 0
0 0
0 0
0 0
0 0
0 0
0 0
0 0
0 0
0 0
0 0
0 0
0 0
0 0
0 0
0 0
0 0
0 0
0 0
0 0
0 0
0 0
0 0
0 0
0 0
0 0
0 0
0 0
0 0
0 0
0 0
0 0
0 0
0 0
0 0
0 0
0 0
0 0
0 0
0 0
0 0
0 0
0 0
0 0
0 0
0 0
0 0
0 0
0 0
0 0
0 0
0 0
0 0
0 0
0 0
0 0
0 0
0 0
0 0
0 0
0 0
0 0
0 0
0 0
0 0
0 0
0 0
0 0
0 0
0 0
0 0
0 0
0 0
0 0
0 0
0 0
0 0
0 0
0 0
0 0
0 0
0 0
0 0
0 0
0 0
0 0
0 0
0 0
0 0
0 0
0 0
0 0
0 0
0 0
0 0
0 0
0 0
0 0
0 0
0 0
0 0
0 0
0 0
0 0
0 0
0 0
0 0
0 0
0 0
0 0
0 0
0 0
0 0
0 0
0 0
0 0
0 0
0 0
0 0
0 0
0 0
0 0
0 0
0 0
0 0
0 0
0 0
0 0
0 0
0 0
0 0
0 0
0 0
0 0
0 0
0 0
0 0
0 0
0 0
0 0
0 0
0 0
0 0
0 0
0 0
0 0
0 0
0 0
0 0
0 0
0 0
0 0
0 0
0 0
0 0
0 0
0 0
0 0
0 0
0 0
0 0
0 0
0 0
0 0
0 0
0 0
0 0
0 0
0 0
0 0
0 0
0 0
0 0
0 0
0 0
0 0
0 0
0 0
0 0
0 0
0 0
0 0
0 0
0 0
0 0
0 0
0 0
0 0
0 0
0 0
0 0
0 0
0 0
0 0
0 0
0 0
0 0
0 0
0 0
0 0
0 0
0 0
0 0
0 0
0 0
0 0
0 0
0 0
0 0
0 0
0 0
0 0
0 0
0 0
0 0
0 0
0 0
0 0
0 0
0 0
0 0
0 0
0 0
0 0
0 0
0 0
0 0
0 0
0 0
0 0
0 0
0 0
0 0
0 0
0 0
0 0
0 0
0 0
0 0
0 0
0 0
0 0
0 0
0 0
0 0
0 0
0 0
0 0
0 0
0 0
0 0
0 0
0 0
0 0
0 0
0 0
0 0
0 0
0 0
0 0
0 0
0 0
0 0
0 0
0 0
0 0
0 0
0 0
0 0
0 0
0 0
0 0
0 0
0 0
0 0
0 0
0 0
0 0
0 0
0 0
0 0
0 0
0 0
0 0
0 0
0 0
0 0
0 0
0 0
0 0
0 0
0 0
0 0
0 0
0 0
0 0
0 0
0 0
0 0
0 0
0 0
0 0
0 0
0 0
0 0
0 0
0 0
0 0
0 0
0 0
0 0
0 0
0 0
0 0
0 0
0 0
0 0
0 0
0 0
0 0
0 0
0 0
0 0
0 0
0 0
0 0
0 0
0 0
0 0
0 0
0 0
0 0
0 0
0 0
0 0
0 0
0 0
0 0
0 0
0 0
0 0
0 0
0 0
0 0
0 0
0 0
0 0
0 0
0 0
0 0
0 0
0 0
0 0
0 0
0 0
0 0
0 0
0 0
0 0
0 0
0 0
0 0
0 0
0 0
0 0
0 0
0 0
0 0
0 0
0 0
0 0
0 0
0 0
0 0
0 0
0 0
0 0
0 0
0 0
0 0
0 0
0 0
0 0
0 0
0 0
0 0
0 0
0 0
0 0
0 0
0 0
0 0
0 0
0 0
0 0
0 0
0 0
0 0
0 0
0 0
0 0
0 0
0 0
0 0
0 0
0 0
0 0
0 0
0 0
0 0
0 0
0 0
0 0
0 0
0 0
0 0
0 0
0 0
0 0
0 0
0 0
0 0
0 0
0 0
0 0
0 0
0 0
0 0
0 0
0 0
0 0
0 0
0 0
0 0
0 0
0 0
0 0
0 0
0 0
0 0
0 0
0 0
0 0
0 0
0 0
0 0
0 0
0 0
0 0
0 0
0 0
0 0
0 0
0 0
0 0
0 0
0 0
0 0
0 0
0 0
0 0
0 0
0 0
0 0
0 0
0 0
0 0
0 0
0 0
0 0
0 0
0 0
0 0
0 0
0 0
0 0
0 0
0 0
0 0
0 0
0 0
0 0
0 0
0 0
0 0
0 0
0 0
0 0
0 0
0 0
0 0
0 0
0 0
0 0
0 0
0 0
0 0
0 0
0 0
0 0
0 0
0 0
0 0
0 0
0 0
0 0
0 0
0 0
0 0
0 0
0 0
0 0
0 0
0 0
0 0
0 0
0 0
0 0
0 0
0 0
0 0
0 0
0 0
0 0
0 0
0 0
0 0
0 0
0 0
0 0
0 0
0 0
0 0
0 0
0 0
0 0
0 0
0 0
0 0
0 0
0 0
0 0
0 0
0 0
0 0
0 0
0 0
0 0
0 0
0 0
0 0
0 0
0 0
0 0
0 0
0 0
0 0
0 0
0 0
0 0
0 0
0 0
0 0
0 0
0 0
0 0
0 0
0 0
0 0
0 0
0 0
0 0
0 0
0 0
0 0
0 0
0 0
0 0
0 0
0 0
0 0
0 0
0 0
0 0
0 0
0 0
0 0
0 0
0 0
0 0
0 0
0 0
0 0
0 0
0 0
0 0
0 0
0 0
0 0
0 0
0 0
0 0
0 0
0 0
0 0
0 0
0 0
0 0
0 0
0 0
0 0
0 0
0 0
0 0
0 0
0 0
0 0
0 0
0 0
0 0
0 0
0 0
0 0
0 0
0 0
0 0
0 0
0 0
0 0
0 0
0 0
0 0
0 0
0 0
0 0
0 0
0 0
0 0
0 0
0 0
0 0
0 0
0 0
0 0
0 0
0 0
0 0
0 0
0 0
0 0
0 0
0 0
0 0
0 0
0 0
0 0
0 0
0 0
0 0
0 0
0 0
0 0
0 0
0 0
0 0
0 0
0 0
0 0
0 0
0 0
0 0
0 0
0 0
0 0
0 0
0 0
0 0
0 0
0 0
0 0
0 0
0 0
0 0
0 0
0 0
0 0
0 0
0 0
0 0
0 0
0 0
0 0
0 0
0 0
0 0
0 0
0 0
0 0
0 0
0 0
0 0
0 0
0 0
0 0
0 0
0 0
0 0
0 0
0 0
0 0
0 0
0 0
0 0
0 0
0 0
0 0
0 0
0 0
0 0
0 0
0 0
0 0
0 0
0 0
0 0
0 0
0 0
0 0
0 0
0 0
0 0
0 0
0 0
0 0
0 0
0 0
0 0
0 0
0 0
0 0
0 0
0 0
0 0
0 0
0 0
0 0
0 0
0 0
0 0
0 0
0 0
0 0
0 0
0 0
0 0
0 0
0 0
0 0
0 0
0 0
0 0
0 0
0 0
0 0
0 0
0 0
0 0
0 0
0 0
0 0
0 0
0 0
0 0
0 0
0 0
0 0
0 0
0 0
0 0
0 0
0 0
0 0
0 0
0 0
0 0
0 0
0 0
0 0
0 0
0 0
0 0
0 0
0 0
0 0
0 0
0 0
0 0
0 0
0 0
0 0
0 0
0 0
0 0
0 0
0 0
0 0
0 0
0 0
0 0
0 0
0 0
0 0
0 0
0 0
0 0
0 0
0 0
0 0
0 0
0 0
0 0
0 0
0 0
0 0
0 0
0 0
0 0
0 0
0 0
0 0
0 0
0 0
0 0
0 0
0 0
0 0
0 0
0 0
0 0
0 0
0 0
0 0
0 0
0 0
0 0
0 0
0 0
0 0
0 0
0 0
0 0
0 0
0 0
0 0
0 0
0 0
0 0
0 0
0 0
0 0
0 0
0 0
0 0
0 0
0 0
0 0
0 0
0 0
0 0
0 0
0 0
0 0
0 0
0 0
0 0
0 0
0 0
0 0
0 0
0 0
0 0
0 0
0 0
0 0
0 0
0 0
0 0
0 0
0 0
0 0
0 0
0 0
0 0
0 0
0 0
0 0
0 0
0 0
0 0
0 0
0 0
0 0
0 0
0 0
0 0
0 0
0 0
0 0
0 0
0 0
0 0
0 0
0 0
0 0
0 0
0 0
0 0
0 0
0 0
0 0
0 0
0 0
0 0
0 0
0 0
0 0
0 0
0 0
0 0
0 0
0 0
0 0
0 0
0 0
0 0
0 0
0 0
0 0
0 0
0 0
0 0
0 0
0 0
0 0
0 0
0 0
0 0
0 0
0 0
0 0
0 0
0 0
0 0
0 0
0 0
0 0
0 0
0 0
0 0
0 0
0 0
0 0
0 0
0 0
0 0
0 0
0 0
0 0
0 0
0 0
0 0
0 0
0 0
0 0
0 0
0 0
0 0
0 0
0 0
0 0
0 0
0 0
0 0
0 0
0 0
0 0
0 0
0 0
0 0
0 0
0 0
0 0
0 0
0 0
0 0
0 0
0 0
0 0
0 0
0 0
0 0
0 0
0 0
0 0
0 0
0 0
0 0
0 0
0 0
0 0
0 0
0 0
0 0
0 0
0 0
0 0
0 0
0 0
0 0
0 0
0 0
0 0
0 0
0 0
0 0
0 0
0 0
0 0
0 0
0 0
0 0
0 0
0 0
0 0
0 0
0 0
0 0
0 0
0 0
0 0
0 0
0 0
0 0
0 0
0 0
0 0
0 0
0 0
0 0
0 0
0 0
0 0
0 0
0 0
0 0
0 0
0 0
0 0
0 0
0 0
0 0
0 0
0 0
0 0
0 0
0 0
0 0
0 0
0 0
0 0
0 0
0 0
0 0
0 0
0 0
0 0
0 0
0 0
0 0
0 0
0 0
0 0
0 0
0 0
0 0
0 0
0 0
0 0
0 0
0 0
0 0
0 0
0 0
0 0
0 0
0 0
0 0
0 0
0 0
0 0
0 0
0 0
0 0
0 0
0 0
0 0
0 0
0 0
0 0
0 0
0 0
0 0
0 0
0 0
0 0
0 0
0 0
0 0
0 0
0 0
0 0
0 0
0 0
0 0
0 0
0 0
0 0
0 0
0 0
0 0
0 0
0 0
0 0
0 0
0 0
0 0
0 0
0 0
0 0
0 0
0 0
0 0
0 0
0 0
0 0
0 0
0 0
0 0
0 0
0 0
0 0
0 0
0 0
0 0
0 0
0 0
0 0
0 0
0 0
0 0
0 0
0 0
0 0
0 0
0 0
0 0
0 0
0 0
0 0
0 0
0 0
0 0
0 0
0 0
0 0
0 0
0 0
0 0
0 0
0 0
0 0
0 0
0 0
0 0
0 0
0 0
0 0
0 0
0 0
0 0
0 0
0 0
0 0
0 0
0 0
0 0
0 0
0 0
0 0
0 0
0 0
0 0
0 0
0 0
0 0
0 0
0 0
0 0
0 0
0 0
0 0
0 0
0 0
0 0
0 0
0 0
0 0
0 0
0 0
0 0
0 0
0 0
0 0
0 0
0 0
0 0
0 0
0 0
0 0
0 0
0 0
0 0
0 0
0 0
0 0
0 0
0 0
0 0
0 0
0 0
0 0
0 0
0 0
0 0
0 0
0 0
0 0
0 0
0 0
0 0
0 0
0 0
0 0
0 0
0 0
0 0
0 0
0 0
0 0
0 0
0 0
0 0
0 0
0 0
0 0
0 0
0 0
0 0
0 0
0 0
0 0
0 0
0 0
0 0
0 0
0 0
0 0
0 0
0 0
0 0
0 0
0 0
0 0
0 0
0 0
0 0
0 0
0 0
0 0
0 0
0 0
0 0
0 0
0 0
0 0
0 0
0 0
0 0
0 0
0 0
0 0
0 0
0 0
0 0
0 0
0 0
0 0
0 0
0 0
0 0
0 0
0 0
0 0
0 0
0 0
0 0
0 0
0 0
0 0
0 0
0 0
0 0
0 0
0 0
0 0
0 0
0 0
0 0
0 0
0 0
0 0
0 0
0 0
0 0
0 0
0 0
0 0
0 0
0 0
0 0
0 0
0 0
0 0
0 0
0 0
0 0
0 0
0 0
0 0
0 0
0 0
0 0
0 0
0 0
0 0
0 0
0 0
0 0
0 0
0 0
0 0
0 0
0 0
0 0
0 0
0 0
0 0
0 0
0 0
0 0
0 0
0 0
0 0
0 0
0 0
0 0
0 0
0 0
0 0
0 0
0 0
0 0
0 0
0 0
0 0
0 0
0 0
0 0
0 0
0 0
0 0
0 0
0 0
0 0
0 0
0 0
0 0
0 0
0 0
0 0
0 0
0 0
0 0
0 0
0 0
0 0
0 0
0 0
0 0
0 0
0 0
0 0
0 0
0 0
0 0
0 0
0 0
0 0
0 0
0 0
0 0
0 0
0 0
0 0
0 0
0 0
0 0
0 0
0 0
0 0
0 0
0 0
0 0
0 0
0 0
0 0
0 0
0 0
0 0
0 0
0 0
0 0
0 0
0 0
0 0
0 0
0 0
0 0
0 0
0 0
0 0
0 0
0 0
0 0
0 0
0 0
0 0
0 0
0 0
0 0
0 0
0 0
0 0
0 0
0 0
0 0
0 0
0 0
0 0
0 0
0 0
0 0
0 0
0 0
0 0
0 0
0 0
0 0
0 0
0 0
0 0
0 0
0 0
0 0
0 0
0 0
0 0
0 0
0 0
0 0
0 0
0 0
0 0
0 0
0 0
0 0
0 0
0 0
0 0
0 0
0 0
0 0
0 0
0 0
0 0
0 0
0 0
0 0
0 0
0 0
0 0
0 0
0 0
0 0
0 0
0 0
0 0
0 0
0 0
0 0
0 0
0 0
0 0
0 0
0 0
0 0
0 0
0 0
0 0
0 0
0 0
0 0
0 0
0 0
0 0
0 0
0 0
0 0
0 0
0 0
0 0
0 0
0 0
0 0
0 0
0 0
0 0
0 0
0 0
0 0
0 0
0 0
0 0
0 0
0 0
0 0
0 0
0 0
0 0
0 0
0 0
0 0
0 0
0 0
0 0
0 0
0 0
0 0
0 0
0 0
0 0
0 0
0 0
0 0
0 0
0 0
0 0
0 0
0 0
0 0
0 0
0 0
0 0
0 0
0 0
0 0
0 0
0 0
0 0
0 0
0 0
0 0
0 0
0 0
0 0
0 0
0 0
0 0
0 0
0 0
0 0
0 0
0 0
0 0
0 0
0 0
0 0
0 0
0 0
0 0
0 0
0 0
0 0
0 0
0 0
0 0
0 0
0 0
0 0
0 0
0 0
0 0
0 0
0 0
0 0
0 0
0 0
0 0
0 0
0 0
0 0
0 0
0 0
0 0
0 0
0 0
0 0
0 0
0 0
0 0
0 0
0 0
0 0
0 0
0 0
0 0
0 0
0 0
0 0
0 0
0 0
0 0
0 0
0 0
0 0
0 0
0 0
0 0
0 0
0 0
0 0
0 0
0 0
0 0
0 0
0 0
0 0
0 0
0 0
0 0
0 0
0 0
0 0
0 0
0 0
0 0
0 0
0 0
0 0
0 0
0 0
0 0
0 0
0 0
0 0
0 0
0 0
0 0
0 0
0 0
0 0
0 0
0 0
0 0
0 0
0 0
0 0
0 0
0 0
0 0
0 0
0 0
0 0
0 0
0 0
0 0
0 0
0 0
0 0
0 0
0 0
0 0
0 0
0 0
0 0
0 0
0 0
0 0
0 0
0 0
0 0
0 0
0 0
0 0
0 0
0 0
0 0
0 0
0 0
0 0
0 0
0 0
0 0
0 0
0 0
0 0
0 0
0 0
0 0
0 0
0 0
0 0
0 0
0 0
0 0
0 0
0 0
0 0
0 0
0 0
0 0
0 0
0 0
0 0
0 0
0 0
0 0
0 0
0 0
0 0
0 0
0 0
0 0
0 0
0 0
0 0
0 0
0 0
0 0
0 0
0 0
0 0
0 0
0 0
0 0
0 0
0 0
0 0
0 0
0 0
0 0
0 0
0 0
0 0
0 0
0 0
0 0
0 0
0 0
0 0
0 0
0 0
0 0
0 0
0 0
0 0
0 0
0 0
0 0
0 0
0 0
0 0
0 0
0 0
0 0
0 0
0 0
0 0
0 0
0 0
0 0
0 0
0 0
0 0
0 0
0 0
0 0
0 0
0 0
0 0
0 0
0 0
0 0
0 0
0 0
0 0
0 0
0 0
0 0
0 0
0 0
0 0
0 0
0 0
0 0
0 0
0 0
0 0
0 0
0 0
0 0
0 0
0 0
0 0
0 0
0 0
0 0
0 0
0 0
0 0
0 0
0 0
0 0
0 0
0 0
0 0
0 0
0 0
0 0
0 0
0 0
0 0
0 0
0 0
0 0
0 0
0 0
0 0
0 0
0 0
0 0
0 0
0 0
0 0
0 0
0 0
0 0
0 0
0 0
0 0
0 0
0 0
0 0
0 0
0 0
0 0
0 0
0 0
0 0
0 0
0 0
0 0
0 0
0 0
0 0
0 0
0 0
0 0
0 0
0 0
0 0
0 0
0 0
0 0
0 0
0 0
0 0
0 0
0 0
0 0
0 0
0 0
0 0
0 0
0 0
0 0
0 0
0 0
0 0
0 0
0 0
0 0
0 0
0 0
0 0
0 0
0 0
0 0
0 0
0 0
0 0
0 0
0 0
0 0
0 0
0 0
0 0
0 0
0 0
0 0
0 0
0 0
0 0
0 0
0 0
0 0
0 0
0 0
0 0
0 0
0 0
0 0
0 0
0 0
0 0
0 0
0 0
0 0
0 0
0 0
0 0
0 0
0 0
0 0
0 0
0 0
0 0
0 0
0 0
0 0
0 0
0 0
0 0
0 0
0 0
0 0
0 0
0 0
0 0
0 0
0 0
0 0
0 0
0 0
0 0
0 0
0 0
0 0
0 0
0 0
0 0
0 0
0 0
0 0
0 0
0 0
0 0
0 0
0 0
0 0
0 0
0 0
0 0
0 0
0 0
0 0
0 0
0 0
0 0
0 0
0 0
0 0
0 0
0 0
0 0
0 0
0 0
0 0
0 0
0 0
0 0
0 0
0 0
0 0
0 0
0 0
0 0
0 0
0 0
0 0
0 0
0 0
0 0
0 0
0 0
0 0
0 0
0 0
0 0
0 0
0 0
0 0
0 0
0 0
0 0
0 0
0 0
0 0
0 0
0 0
0 0
0 0
0 0
0 0
0 0
0 0
0 0
0 0
0 0
0 0
0 0
0 0
0 0
0 0
0 0
0 0
0 0
0 0
0 0
0 0
0 0
0 0
0 0
0 0
0 0
0 0
0 0
0 0
0 0
0 0
0 0
0 0
0 0
0 0
0 0
0 0
0 0
0 0
0 0
0 0
0 0
0 0
0 0
0 0
0 0
0 0
0 0
0 0
0 0
0 0
0 0
0 0
0 0
0 0
0 0
0 0
0 0
0 0
0 0
0 0
0 0
0 0
0 0
0 0
0 0
0 0
0 0
0 0
0 0
0 0
0 0
0 0
0 0
0 0
0 0
0 0
0 0
0 0
0 0
0 0
0 0
0 0
0 0
0 0
0 0
0 0
0 0
0 0
0 0
0 0
0 0
0 0
0 0
0 0
0 0
0 0
0 0
0 0
0 0
0 0
0 0
0 0
0 0
0 0
0 0
0 0
0 0
0 0
0 0
0 0
0 0
0 0
0 0
0 0
0 0
0 0
0 0
0 0
0 0
0 0
0 0
0 0
0 0
0 0
0 0
0 0
0 0
0 0
0 0
0 0
0 0
0 0
0 0
0 0
0 0
0 0
0 0
0 0
0 0
0 0
0 0
0 0
0 0
0 0
0 0
0 0
0 0
0 0
0 0
0 0
0 0
0 0
0 0
0 0
0 0
0 0
0 0
0 0
0 0
0 0
0 0
0 0
0 0
0 0
0 0
0 0
0 0
0 0
0 0
0 0
0 0
0 0
0 0
0 0
0 0
0 0
0 0
0 0
0 0
0 0
0 0
0 0
0 0
0 0
0 0
0 0
0 0
0 0
0 0
0 0
0 0
0 0
0 0
0 0
0 0
0 0
0 0
0 0
0 0
0 0
0 0
0 0
0 0
0 0
0 0
0 0
0 0
0 0
0 0
0 0
0 0
0 0
0 0
0 0
0 0
0 0
0 0
0 0
0 0
0 0
0 0
0 0
0 0
0 0
0 0
0 0
0 0
0 0
0 0
0 0
0 0
0 0
0 0
0 0
0 0
0 0
0 0
0 0
0 0
0 0
0 0
0 0
0 0
0 0
0 0
0 0
0 0
0 0
0 0
0 0
0 0
0 0
0 0
0 0
0 0
0 0
0 0
0 0
0 0
0 0
0 0
0 0
0 0
0 0
0 0
0 0
0 0
0 0
0 0
0 0
0 0
0 0
0 0
0 0
0 0
0 0
0 0
0 0
0 0
0 0
0 0
0 0
0 0
0 0
0 0
0 0
0 0
0 0
0 0
0 0
0 0
0 0
0 0
0 0
0 0
0 0
0 0
0 0
0 0
0 0
0 0
0 0
0 0
0 0
0 0
0 0
0 0
0 0
0 0
0 0
0 0
0 0
0 0
0 0
0 0
0 0
0 0
0 0
0 0
0 0
0 0
0 0
0 0
0 0
0 0
0 0
0 0
0 0
0 0
0 0
0 0
0 0
0 0
0 0
0 0
0 0
0 0
0 0
0 0
0 0
0 0
0 0
0 0
0 0
0 0
0 0
0 0
0 0
0 0
0 0
0 0
0 0
0 0
0 0
0 0
0 0
0 0
0 0
0 0
0 0
0 0
0 0
0 0
0 0
0 0
0 0
0 0
0 0
0 0
0 0
0 0
0 0
0 0
0 0
0 0
0 0
0 0
0 0
0 0
0 0
0 0
0 0
0 0
0 0
0 0
0 0
0 0
0 0
0 0
0 0
0 0
0 0
0 0
0 0
0 0
0 0
0 0
0 0
0 0
0 0
0 0
0 0
0 0
0 0
0 0
0 0
0 0
0 0
0 0
0 0
0 0
0 0
0 0
0 0
0 0
0 0
0 0
0 0
0 0
0 0
0 0
0 0
0 0
0 0
0 0
0 0
0 0
0 0
0 0
0 0
0 0
0 0
0 0
0 0
0 0
0 0
0 0
0 0
0 0
0 0
0 0
0 0
0 0
0 0
0 0
0 0
0 0
0 0
0 0
0 0
0 0
0 0
0 0
0 0
0 0
0 0
0 0
0 0
0 0
0 0
0 0
0 0
0 0
0 0
0 0
0 0
0 0
0 0
0 0
0 0
0 0
0 0
0 0
0 0
0 0
0 0
0 0
0 0
0 0
0 0
0 0
0 0
0 0
0 0
0 0
0 0
0 0
0 0
0 0
0 0
0 0
0 0
0 0
0 0
0 0
0 0
0 0
0 0
0 0
0 0
0 0
0 0
0 0
0 0
0 0
0 0
0 0
0 0
0 0
0 0
0 0
0 0
0 0
0 0
0 0
0 0
0 0
0 0
0 0
0 0
0 0
0 0
0 0
0 0
0 0
0 0
0 0
0 0
0 0
0 0
0 0
0 0
0 0
0 0
0 0
0 0
0 0
0 0
0 0
0 0
0 0
0 0
0 0
0 0
0 0
0 0
0 0
0 0
0 0
0 0
0 0
0 0
0 0
0 0
0 0
0 0
0 0
0 0
0 0
0 0
0 0
0 0
0 0
0 0
0 0
0 0
0 0
0 0
0 0
0 0
0 0
0 0
0 0
0 0
0 0
0 0
0 0
0 0
0 0
0 0
0 0
0 0
0 0
0 0
0 0
0 0
0 0
0 0
0 0
0 0
0 0
0 0
0 0
0 0
0 0
0 0
0 0
0 0
0 0
0 0
0 0
0 0
0 0
0 0
0 0
0 0
0 0
0 0
0 0
0 0
0 0
0 0
0 0
0 0
0 0
0 0
0 0
0 0
0 0
0 0
0 0
0 0
0 0
0 0
0 0
0 0
0 0
0 0
0 0
0 0
0 0
0 0
0 0
0 0
0 0
0 0
0 0
0 0
0 0
0 0
0 0
0 0
0 0
0 0
0 0
0 0
0 0
0 0
0 0
0 0
0 0
0 0
0 0
0 0
0 0
0 0
0 0
0 0
0 0
0 0
0 0
0 0
0 0
0 0
0 0
0 0
0 0
0 0
0 0
0 0
0 0
0 0
0 0
0 0
0 0
0 0
0 0
0 0
0 0
0 0
0 0
0 0
0 0
0 0
0 0
0 0
0 0
0 0
0 0
0 0
0 0
0 0
0 0
0 0
0 0
0 0
0 0
0 0
0 0
0 0
0 0
0 0
0 0
0 0
0 0
0 0
0 0
0 0
0 0
0 0
0 0
0 0
0 0
0 0
0 0
0 0
0 0
0 0
0 0
0 0
0 0
0 0
0 0
0 0
0 0
0 0
0 0
0 0
0 0
0 0
0 0
0 0
0 0
0 0
0 0
0 0
0 0
0 0
0 0
0 0
0 0
0 0
0 0
0 0
0 0
0 0
0 0
0 0
0 0
0 0
0 0
0 0
0 0
0 0
0 0
0 0
0 0
0 0
0 0
0 0
0 0
0 0
0 0
0 0
0 0
0 0
0 0
0 0
0 0
0 0
0 0
0 0
0 0
0 0
0 0
0 0
0 0
0 0
0 0
0 0
0 0
0 0
0 0
0 0
0 0
0 0
0 0
0 0
0 0
0 0
0 0
0 0
0 0
0 0
0 0
0 0
0 0
0 0
0 0
0 0
0 0
0 0
0 0
0 0
0 0
0 0
0 0
0 0
0 0
0 0
0 0
0 0
0 0
0 0
0 0
0 0
0 0
0 0
0 0
0 0
0 0
0 0
0 0
0 0
0 0
0 0
0 0
0 0
0 0
0 0
0 0
0 0
0 0
0 0
0 0
0 0
0 0
0 0
0 0
0 0
0 0
0 0
0 0
0 0
0 0
0 0
0 0
0 0
0 0
0 0
0 0
0 0
0 0
0 0
0 0
0 0
0 0
0 0
0 0
0 0
0 0
0 0
0 0
0 0
0 0
0 0
0 0
0 0
0 0
0 0
0 0
0 0
0 0
0 0
0 0
0 0
0 0
0 0
0 0
0 0
0 0
0 0
0 0
0 0
0 0
0 0
0 0
0 0
0 0
0 0
0 0
0 0
0 0
0 0
0 0
0 0
0 0
0 0
0 0
0 0
0 0
0 0
0 0
0 0
0 0
0 0
0 0
0 0
0 0
0 0
0 0
0 0
0 0
0 0
0 0
0 0
0 0
0 0
0 0
0 0
0 0
0 0
0 0
0 0
0 0
0 0
0 0
0 0
0 0
0 0
0 0
0 0
0 0
0 0
0 0
0 0
0 0
0 0
0 0
0 0
0 0
0 0
0 0
0 0
0 0
0 0
0 0
0 0
0 0
0 0
0 0
0 0
0 0
0 0
0 0
0 0
0 0
0 0
0 0
0 0
0 0
0 0
0 0
0 0
0 0
0 0
0 0
0 0
0 0
0 0
0 0
0 0
0 0
0 0
0 0
0 0
0 0
0 0
0 0
0 0
0 0
0 0
0 0
0 0
0 0
0 0
0 0
0 0
0 0
0 0
0 0
0 0
0 0
0 0
0 0
0 0
0 0
0 0
0 0
0 0
0 0
0 0
0 0
0 0
0 0
0 0
0 0
0 0
0 0
0 0
0 0
0 0
0 0
0 0
0 0
0 0
0 0
0 0
0 0
0 0
0 0
0 0
0 0
0 0
0 0
0 0
0 0
0 0
0 0
0 0
0 0
0 0
0 0
0 0
0 0
0 0
0 0
0 0
0 0
0 0
0 0
0 0
0 0
0 0
0 0
0 0
0 0
0 0
0 0
0 0
0 0
0 0
0 0
0 0
0 0
0 0
0 0
0 0
0 0
0 0
0 0
0 0
0 0
0 0
0 0
0 0
0 0
0 0
0 0
0 0
0 0
0 0
0 0
0 0
0 0
0 0
0 0
0 0
0 0
0 0
0 0
0 0
0 0
0 0
0 0
0 0
0 0
0 0
0 0
0 0
0 0
0 0
0 0
0 0
0 0
0 0
0 0
0 0
0 0
0 0
0 0
0 0
0 0
0 0
0 0
0 0
0 0
0 0
0 0
0 0
0 0
0 0
0 0
0 0
0 0
0 0
0 0
0 0
0 0
0 0
0 0
0 0
0 0
0 0
0 0
0 0
0 0
0 0
0 0
0 0
0 0
0 0
0 0
0 0
0 0
0 0
0 0
0 0
0 0
0 0
0 0
0 0
0 0
0 0
0 0
0 0
0 0
0 0
0 0
0 0
0 0
0 0
0 0
0 0
0 0
0 0
0 0
0 0
0 0
0 0
0 0
0 0
0 0
0 0
0 0
0 0
0 0
0 0
0 0
0 0
0 0
0 0
0 0
0 0
0 0
0 0
0 0
0 0
0 0
0 0
0 0
0 0
0 0
0 0
0 0
0 0
0 0
0 0
0 0
0 0
0 0
0 0
0 0
0 0
0 0
0 0
0 0
0 0
0 0
0 0
0 0
0 0
0 0
0 0
0 0
0 0
0 0
0 0
0 0
0 0
0 0
0 0
0 0
0 0
0 0
0 0
0 0
0 0
0 0
0 0
0 0
0 0
0 0
0 0
0 0
0 0
0 0
0 0
0 0
0 0
0 0
0 0
0 0
0 0
0 0
0 0
0 0
0 0
0 0
0 0
0 0
0 0
0 0
0 0
0 0
0 0
0 0
0 0
0 0
0 0
0 0
0 0
0 0
0 0
0 0
0 0
0 0
0 0
0 0
0 0
0 0
0 0
0 0
0 0
0 0
0 0
0 0
0 0
0 0
0 0
0 0
0 0
0 0
0 0
0 0
0 0
0 0
0 0
0 0
0 0
0 0
0 0
0 0
0 0
0 0
0 0
0 0
0 0
0 0
0 0
0 0
0 0
0 0
0 0
0 0
0 0
0 0
0 0
0 0
0 0
0 0
0 0
0 0
0 0
0 0
0 0
0 0
0 0
0 0
0 0
0 0
0 0
0 0
0 0
0 0
0 0
0 0
0 0
0 0
0 0
0 0
0 0
0 0
0 0
0 0
0 0
0 0
0 0
0 0
0 0
0 0
0 0
0 0
0 0
0 0
0 0
0 0
0 0
0 0
0 0
0 0
0 0
0 0
0 0
0 0
0 0
0 0
0 0
0 0
0 0
0 0
0 0
0 0
0 0
0 0
0 0
0 0
0 0
0 0
0 0
0 0
0 0
0 0
0 0
0 0
0 0
0 0
0 0
0 0
0 0
0 0
0 0
0 0
0 0
0 0
0 0
0 0
0 0
0 0
0 0
0 0
0 0
0 0
0 0
0 0
0 0
0 0
0 0
0 0
0 0
0 0
0 0
0 0
0 0
0 0
0 0
0 0
0 0
0 0
0 0
0 0
0 0
0 0
0 0
0 0
0 0
0 0
0 0
0 0
0 0
0 0
0 0
0 0
0 0
0 0
0 0
0 0
0 0
0 0
0 0
0 0
0 0
0 0
0 0
0 0
0 0
0 0
0 0
0 0
0 0
0 0
0 0
0 0
0 0
0 0
0 0
0 0
0 0
0 0
0 0
0 0
0 0
0 0
0 0
0 0
0 0
0 0
0 0
0 0
0 0
0 0
0 0
0 0
0 0
0 0
0 0
0 0
0 0
0 0
0 0
0 0
0 0
0 0
0 0
0 0
0 0
0 0
0 0
0 0
0 0
0 0
0 0
0 0
0 0
0 0
0 0
0 0
0 0
0 0
0 0
0 0
0 0
0 0
0 0
0 0
0 0
0 0
0 0
0 0
0 0
0 0
0 0
0 0
0 0
0 0
0 0
0 0
0 0
0 0
0 0
0 0
0 0
0 0
0 0
0 0
0 0
0 0
0 0
0 0
0 0
0 0
0 0
0 0
0 0
0 0
0 0
0 0
0 0
0 0
0 0
0 0
0 0
0 0
0 0
0 0
0 0
0 0
0 0
0 0
0 0
0 0
0 0
0 0
0 0
0 0
0 0
0 0
0 0
0 0
0 0
0 0
0 0
0 0
0 0
0 0
0 0
0 0
0 0
0 0
0 0
0 0
0 0
0 0
0 0
0 0
0 0
0 0
0 0
0 0
0 0
0 0
0 0
0 0
0 0
0 0
0 0
0 0
0 0
0 0
0 0
0 0
0 0
0 0
0 0
0 0
0 0
0 0
0 0
0 0
0 0
0 0
0 0
0 0
0 0
0 0
0 0
0 0
0 0
0 0
0 0
0 0
0 0
0 0
0 0
0 0
0 0
0 0
0 0
0 0
0 0
0 0
0 0
0 0
0 0
0 0
0 0
0 0
0 0
0 0
0 0
0 0
0 0
0 0
0 0
0 0
0 0
0 0
0 0
0 0
0 0
0 0
0 0
0 0
0 0
0 0
0 0
0 0
0 0
0 0
0 0
0 0
0 0
0 0
0 0
0 0
0 0
0 0
0 0
0 0
0 0
0 0
0 0
0 0
0 0
0 0
0 0
0 0
0 0
0 0
0 0
0 0
0 0
0 0
0 0
0 0
0 0
0 0
0 0
0 0
0 0
0 0
0 0
0 0
0 0
0 0
0 0
0 0
0 0
0 0
0 0
0 0
0 0
0 0
0 0
0 0
0 0
0 0
0 0
0 0
0 0
0 0
0 0
0 0
0 0
0 0
0 0
0 0
0 0
0 0
0 0
0 0
0 0
0 0
0 0
0 0
0 0
0 0
0 0
0 0
0 0
0 0
0 0
0 0
0 0
0 0
0 0
0 0
0 0
0 0
0 0
0 0
0 0
0 0
0 0
0 0
0 0
0 0
0 0
0 0
0 0
0 0
0 0
0 0
0 0
0 0
0 0
0 0
0 0
0 0
0 0
0 0
0 0
0 0
0 0
0 0
0 0
0 0
0 0
0 0
0 0
0 0
0 0
0 0
0 0
0 0
0 0
0 0
0 0
0 0
0 0
0 0
0 0
0 0
0 0
0 0
0 0
0 0
0 0
0 0
0 0
0 0
0 0
0 0
0 0
0 0
0 0
0 0
0 0
0 0
0 0
0 0
0 0
0 0
0 0
0 0
0 0
0 0
0 0
0 0
0 0
0 0
0 0
0 0
0 0
0 0
0 0
0 0
0 0
0 0
0 0
0 0
0 0
0 0
0 0
0 0
0 0
0 0
0 0
0 0
0 0
0 0
0 0
0 0
0 0
0 0
0 0
0 0
0 0
0 0
0 0
0 0
0 0
0 0
0 0
0 0
0 0
0 0
0 0
0 0
0 0
0 0
0 0
0 0
0 0
0 0
0 0
0 0
0 0
0 0
0 0
0 0
0 0
0 0
0 0
0 0
0 0
0 0
0 0
0 0
0 0
0 0
0 0
0 0
0 0
0 0
0 0
0 0
0 0
0 0
0 0
0 0
0 0
0 0
0 0
0 0
0 0
0 0
0 0
0 0
0 0
0 0
0 0
0 0
0 0
0 0
0 0
0 0
0 0
0 0
0 0
0 0
0 0
0 0
0 0
0 0
0 0
0 0
0 0
0 0
0 0
0 0
0 0
0 0
0 0
0 0
0 0
0 0
0 0
0 0
0 0
0 0
0 0
0 0
0 0
0 0
0 0
0 0
0 0
0 0
0 0
0 0
0 0
0 0
0 0
0 0
0 0
0 0
0 0
0 0
0 0
0 0
0 0
0 0
0 0
0 0
0 0
0 0
0 0
0 0
0 0
0 0
0 0
0 0
0 0
0 0
0 0
0 0
0 0
0 0
0 0
0 0
0 0
0 0
0 0
0 0
0 0
0 0
0 0
0 0
0 0
0 0
0 0
0 0
0 0
0 0
0 0
0 0
0 0
0 0
0 0
0 0
0 0
0 0
0 0
0 0
0 0
0 0
0 0
0 0
0 0
0 0
0 0
0 0
0 0
0 0
0 0
0 0
0 0
0 0
0 0
0 0
0 0
0 0
0 0
0 0
0 0
0 0
0 0
0 0
0 0
0 0
0 0
0 0
0 0
0 0
0 0
0 0
0 0
0 0
0 0
0 0
0 0
0 0
0 0
0 0
0 0
0 0
0 0
0 0
0 0
0 0
0 0
0 0
0 0
0 0
0 0
0 0
0 0
0 0
0 0
0 0
0 0
0 0
0 0
0 0
0 0
0 0
0 0
0 0
0 0
0 0
0 0
0 0
0 0
0 0
0 0
0 0
0 0
0 0
0 0
0 0
0 0
0 0
0 0
0 0
0 0
0 0
0 0
0 0
0 0
0 0
0 0
0 0
0 0
0 0
0 0
0 0
0 0
0 0
0 0
0 0
0 0
0 0
0 0
0 0
0 0
0 0
0 0
0 0
0 0
0 0
0 0
0 0
0 0
0 0
0 0
0 0
0 0
0 0
0 0
0 0
0 0
0 0
0 0
0 0
0 0
0 0
0 0
0 0
0 0
0 0
0 0
0 0
0 0
0 0
0 0
0 0
0 0
0 0
0 0
0 0
0 0
0 0
0 0
0 0
0 0
0 0
0 0
0 0
0 0
0 0
0 0
0 0
0 0
0 0
0 0
0 0
0 0
0 0
0 0
0 0
0 0
0 0
0 0
0 0
0 0
0 0
0 0
0 0
0 0
0 0
0 0
0 0
0 0
0 0
0 0
0 0
0 0
0 0
0 0
0 0
0 0
0 0
0 0
0 0
0 0
0 0
0 0
0 0
0 0
0 0
0 0
0 0
0 0
0 0
0 0
0 0
0 0
0 0
0 0
0 0
0 0
0 0
0 0
0 0
0 0
0 0
0 0
0 0
0 0
0 0
0 0
0 0
0 0
0 0
0 0
0 0
0 0
0 0
0 0
0 0
0 0
0 0
0 0
0 0
0 0
0 0
0 0
0 0
0 0
0 0
0 0
0 0
0 0
0 0
0 0
0 0
0 0
0 0
0 0
0 0
0 0
0 0
0 0
0 0
0 0
0 0
0 0
0 0
0 0
0 0
0 0
0 0
0 0
0 0
0 0
0 0
0 0
0 0
0 0
0 0
0 0
0 0
0 0
0 0
0 0
0 0
0 0
0 0
0 0
0 0
0 0
0 0
0 0
0 0
0 0
0 0
0 0
0 0
0 0
0 0
0 0
0 0
0 0
0 0
0 0
0 0
0 0
0 0
0 0
0 0
0 0
0 0
0 0
0 0
0 0
0 0
0 0
0 0
0 0
0 0
0 0
0 0
0 0
0 0
0 0
0 0
0 0
0 0
0 0
0 0
0 0
0 0
0 0
0 0
0 0
0 0
0 0
0 0
0 0
0 0
0 0
0 0
0 0
0 0
0 0
0 0
0 0
0 0
0 0
0 0
0 0
0 0
0 0
0 0
0 0
0 0
0 0
0 0
0 0
0 0
0 0
0 0
0 0
0 0
0 0
0 0
0 0
0 0
0 0
0 0
0 0
0 0
0 0
0 0
0 0
0 0
0 0
0 0
0 0
0 0
0 0
0 0
0 0
0 0
0 0
0 0
0 0
0 0
0 0
0 0
0 0
0 0
0 0
0 0
0 0
0 0
0 0
0 0
0 0
0 0
0 0
0 0
0 0
0 0
0 0
0 0
0 0
0 0
0 0
0 0
0 0
0 0
0 0
0 0
0 0
0 0
0 0
0 0
0 0
0 0
0 0
0 0
0 0
0 0
0 0
0 0
0 0
0 0
0 0
0 0
0 0
0 0
0 0
0 0
0 0
0 0
0 0
0 0
0 0
0 0
0 0
0 0
0 0
0 0
0 0
0 0
0 0
0 0
0 0
0 0
0 0
0 0
0 0
0 0
0 0
0 0
0 0
0 0
0 0
0 0
0 0
0 0
0 0
0 0
0 0
0 0
0 0
0 0
0 0
0 0
0 0
0 0
0 0
0 0
0 0
0 0
0 0
0 0
0 0
0 0
0 0
0 0
0 0
0 0
0 0
0 0
0 0
0 0
0 0
0 0
0 0
0 0
0 0
0 0
0 0
0 0
0 0
0 0
0 0
0 0
0 0
0 0
0 0
0 0
0 0
0 0
0 0
0 0
0 0
0 0
0 0
0 0
0 0
0 0
0 0
0 0
0 0
0 0
0 0
0 0
0 0
0 0
0 0
0 0
0 0
0 0
0 0
0 0
0 0
0 0
0 0
0 0
0 0
0 0
0 0
0 0
0 0
0 0
0 0
0 0
0 0
0 0
0 0
0 0
0 0
0 0
0 0
0 0
0 0
0 0
0 0
0 0
0 0
0 0
0 0
0 0
0 0
0 0
0 0
0 0
0 0
0 0
0 0
0 0
0 0
0 0
0 0
0 0
0 0
0 0
0 0
0 0
0 0
0 0
0 0
0 0
0 0
0 0
0 0
0 0
0 0
0 0
0 0
0 0
0 0
0 0
0 0
0 0
0 0
0 0
0 0
0 0
0 0
0 0
0 0
0 0
0 0
0 0
0 0
0 0
0 0
0 0
0 0
0 0
0 0
0 0
0 0
0 0
0 0
0 0
0 0
0 0
0 0
0 0
0 0
0 0
0 0
0 0
0 0
0 0
0 0
0 0
0 0
0 0
0 0
0 0
0 0
0 0
0 0
0 0
0 0
0 0
0 0
0 0
0 0
0 0
0 0
0 0
0 0
0 0
0 0
0 0
0 0
0 0
0 0
0 0
0 0
0 0
0 0
0 0
0 0
0 0
0 0
0 0
0 0
0 0
0 0
0 0
0 0
0 0
0 0
0 0
0 0
0 0
0 0
0 0
0 0
0 0
0 0
0 0
0 0
0 0
0 0
0 0
0 0
0 0
0 0
0 0
0 0
0 0
0 0
0 0
0 0
0 0
0 0
0 0
0 0
0 0
0 0
0 0
0 0
0 0
0 0
0 0
0 0
0 0
0 0
0 0
0 0
0 0
0 0
0 0
0 0
0 0
0 0
0 0
0 0
0 0
0 0
0 0
0 0
0 0
0 0
0 0
0 0
0 0
0 0
0 0
0 0
0 0
0 0
0 0
0 0
0 0
0 0
0 0
0 0
0 0
0 0
0 0
0 0
0 0
0 0
0 0
0 0
0 0
0 0
0 0
0 0
0 0
0 0
0 0
0 0
0 0
0 0
0 0
0 0
0 0
0 0
0 0
0 0
0 0
0 0
0 0
0 0
0 0
0 0
0 0
0 0
0 0
0 0
0 0
0 0
0 0
0 0
0 0
0 0
0 0
0 0
0 0
0 0
0 0
0 0
0 0
0 0
0 0
0 0
0 0
0 0
0 0
0 0
0 0
0 0
0 0
0 0
0 0
0 0
0 0
0 0
0 0
0 0
0 0
0 0
0 0
0 0
0 0
0 0
0 0
0 0
0 0
0 0
0 0
0 0
0 0
0 0
0 0
0 0
0 0
0 0
0 0
0 0
0 0
0 0
0 0
0 0
0 0
0 0
0 0
0 0
0 0
0 0
0 0
0 0
0 0
0 0
0 0
0 0
0 0
0 0
0 0
0 0
0 0
0 0
0 0
0 0
0 0
0 0
0 0
0 0
0 0
0 0
0 0
0 0
0 0
0 0
0 0
0 0
0 0
0 0
0 0
0 0
0 0
0 0
0 0
0 0
0 0
0 0
0 0
0 0
0 0
0 0
0 0
0 0
0 0
0 0
0 0
0 0
0 0
0 0
0 0
0 0
0 0
0 0
0 0
0 0
0 0
0 0
0 0
0 0
0 0
0 0
0 0
0 0
0 0
0 0
0 0
0 0
0 0
0 0
0 0
0 0
0 0
0 0
0 0
0 0
0 0
0 0
0 0
0 0
0 0
0 0
0 0
0 0
0 0
0 0
0 0
0 0
0 0
0 0
0 0
0 0
0 0
0 0
0 0
0 0
0 0
0 0
0 0
0 0
0 0
0 0
0 0
0 0
0 0
0 0
0 0
0 0
0 0
0 0
0 0
0 0
0 0
0 0
0 0
0 0
0 0
0 0
0 0
0 0
0 0
0 0
0 0
0 0
0 0
0 0
0 0
0 0
0 0
0 0
0 0
0 0
0 0
0 0
0 0
0 0
0 0
0 0
0 0
0 0
0 0
0 0
0 0
0 0
0 0
0 0
0 0
0 0
0 0
0 0
0 0
0 0
0 0
0 0
0 0
0 0
0 0
0 0
0 0
0 0
0 0
0 0
0 0
0 0
0 0
0 0
0 0
0 0
0 0
0 0
0 0
0 0
0 0
0 0
0 0
0 0
0 0
0 0
0 0
0 0
0 0
0 0
0 0
0 0
0 0
0 0
0 0
0 0
0 0
0 0
0 0
0 0
0 0
0 0
0 0
0 0
0 0
0 0
0 0
0 0
0 0
0 0
0 0
0 0
0 0
0 0
0 0
0 0
0 0
0 0
0 0
0 0
0 0
0 0
0 0
0 0
0 0
0 0
0 0
0 0
0 0
0 0
0 0
0 0
0 0
0 0
0 0
0 0
0 0
0 0
0 0
0 0
0 0
0 0
0 0
0 0
0 0
0 0
0 0
0 0
0 0
0 0
0 0
0 0
0 0
0 0
0 0
0 0
0 0
0 0
0 0
0 0
0 0
0 0
0 0
0 0
0 0
0 0
0 0
0 0
0 0
0 0
0 0
0 0
0 0
0 0
0 0
0 0
0 0
0 0
0 0
0 0
0 0
0 0
0 0
0 0
0 0
0 0
0 0
0 0
0 0
0 0
0 0
0 0
0 0
0 0
0 0
0 0
0 0
0 0
0 0
0 0
0 0
0 0
0 0
0 0
0 0
0 0
0 0
0 0
0 0
0 0
0 0
0 0
0 0
0 0
0 0
0 0
0 0
0 0
0 0
0 0
0 0
0 0
0 0
0 0
0 0
0 0
0 0
0 0
0 0
0 0
0 0
0 0
0 0
0 0
0 0
0 0
0 0
0 0
0 0
0 0
0 0
0 0
0 0
0 0
0 0
0 0
0 0
0 0
0 0
0 0
0 0
0 0
0 0
0 0
0 0
0 0
0 0
0 0
0 0
0 0
0 0
0 0
0 0
0 0
0 0
0 0
0 0
0 0
0 0
0 0
0 0
0 0
0 0
0 0
0 0
0 0
0 0
0 0
0 0
0 0
0 0
0 0
0 0
0 0
0 0
0 0
0 0
0 0
0 0
0 0
0 0
0 0
0 0
0 0
0 0
0 0
0 0
0 0
0 0
0 0
0 0
0 0
0 0
0 0
0 0
0 0
0 0
0 0
0 0
0 0
0 0
0 0
0 0
0 0
0 0
0 0
0 0
0 0
0 0
0 0
0 0
0 0
0 0
0 0
0 0
0 0
0 0
0 0
0 0
0 0
0 0
0 0
0 0
0 0
0 0
0 0
0 0
0 0
0 0
0 0
0 0
0 0
0 0
0 0
0 0
0 0
0 0
0 0
0 0
0 0
0 0
0 0
0 0
0 0
0 0
0 0
0 0
0 0
0 0
0 0
0 0
0 0
0 0
0 0
0 0
0 0
0 0
0 0
0 0
0 0
0 0
0 0
0 0
0 0
0 0
0 0
0 0
0 0
0 0
0 0
0 0
0 0
0 0
0 0
0 0
0 0
0 0
0 0
0 0
0 0
0 0
0 0
0 0
0 0
0 0
0 0
0 0
0 0
0 0
0 0
0 0
0 0
0 0
0 0
0 0
0 0
0 0
0 0
0 0
0 0
0 0
0 0
0 0
0 0
0 0
0 0
0 0
0 0
0 0
0 0
0 0
0 0
0 0
0 0
0 0
0 0
0 0
0 0
0 0
0 0
0 0
0 0
0 0
0 0
0 0
0 0
0 0
0 0
0 0
0 0
0 0
0 0
0 0
0 0
0 0
0 0
0 0
0 0
0 0
0 0
0 0
0 0
0 0
0 0
0 0
0 0
0 0
0 0
0 0
0 0
0 0
0 0
0 0
0 0
0 0
0 0
0 0
0 0
0 0
0 0
0 0
0 0
0 0
0 0
0 0
0 0
0 0
0 0
0 0
0 0
0 0
0 0
0 0
0 0
0 0
0 0
0 0
0 0
0 0
0 0
0 0
0 0
0 0
0 0
0 0
0 0
0 0
0 0
0 0
0 0
0 0
0 0
0 0
0 0
0 0
0 0
0 0
0 0
0 0
0 0
0 0
0 0
0 0
0 0
0 0
0 0
0 0
0 0
0 0
0 0
0 0
0 0
0 0
0 0
0 0
0 0
0 0
0 0
0 0
0 0
0 0
0 0
0 0
0 0
0 0
0 0
0 0
0 0
0 0
0 0
0 0
0 0
0 0
0 0
0 0
0 0
0 0
0 0
0 0
0 0
0 0
0 0
0 0
0 0
0 0
0 0
0 0
0 0
0 0
0 0
0 0
0 0
0 0
0 0
0 0
0 0
0 0
0 0
0 0
0 0
0 0
0 0
0 0
0 0
0 0
0 0
0 0
0 0
0 0
0 0
0 0
0 0
0 0
0 0
0 0
0 0
0 0
0 0
0 0
0 0
0 0
0 0
0 0
0 0
0 0
0 0
0 0
0 0
0 0
0 0
0 0
0 0
0 0
0 0
0 0
0 0
0 0
0 0
0 0
0 0
0 0
0 0
0 0
0 0
0 0
0 0
0 0
0 0
0 0
0 0
0 0
0 0
0 0
0 0
0 0
0 0
0 0
0 0
0 0
0 0
0 0
0 0
0 0
0 0
0 0
0 0
0 0
0 0
0 0
0 0
0 0
0 0
0 0
0 0
0 0
0 0
0 0
0 0
0 0
0 0
0 0
0 0
0 0
0 0
0 0
0 0
0 0
0 0
0 0
0 0
0 0
0 0
0 0
0 0
0 0
0 0
0 0
0 0
0 0
0 0
0 0
0 0
0 0
0 0
0 0
0 0
0 0
0 0
0 0
0 0
0 0
0 0
0 0
0 0
0 0
0 0
0 0
0 0
0 0
0 0
0 0
0 0
0 0
0 0
0 0
0 0
0 0
0 0
0 0
0 0
0 0
0 0
0 0
0 0
0 0
0 0
0 0
0 0
0 0
0 0
0 0
0 0
0 0
0 0
0 0
0 0
0 0
0 0
0 0
0 0
0 0
0 0
0 0
0 0
0 0
0 0
0 0
0 0
0 0
0 0
0 0
0 0
0 0
0 0
0 0
0 0
0 0
0 0
0 0
0 0
0 0
0 0
0 0
0 0
0 0
0 0
0 0
0 0
0 0
0 0
0 0
0 0
0 0
0 0
0 0
0 0
0 0
0 0
0 0
0 0
0 0
0 0
0 0
0 0
0 0
0 0
0 0
0 0
0 0
0 0
0 0
0 0
0 0
0 0
0 0
0 0
0 0
0 0
0 0
0 0
0 0
0 0
0 0
0 0
0 0
0 0
0 0
0 0
0 0
0 0
0 0
0 0
0 0
0 0
0 0
0 0
0 0
0 0
0 0
0 0
0 0
0 0
0 0
0 0
0 0
0 0
0 0
0 0
0 0
0 0
0 0
0 0
0 0
0 0
0 0
0 0
0 0
0 0
0 0
0 0
0 0
0 0
0 0
0 0
0 0
0 0
0 0
0 0
0 0
0 0
0 0
0 0
0 0
0 0
0 0
0 0
0 0
0 0
0 0
0 0
0 0
0 0
0 0
0 0
0 0
0 0
0 0
0 0
0 0
0 0
0 0
0 0
0 0
0 0
0 0
0 0
0 0
0 0
0 0
0 0
0 0
0 0
0 0
0 0
0 0
0 0
0 0
0 0
0 0
0 0
0 0
0 0
0 0
0 0
0 0
0 0
0 0
0 0
0 0
0 0
0 0
0 0
0 0
0 0
0 0
0 0
0 0
0 0
0 0
0 0
0 0
0 0
0 0
0 0
0 0
0 0
0 0
0 0
0 0
0 0
0 0
0 0
0 0
0 0
0 0
0 0
0 0
0 0
0 0
0 0
0 0
0 0
0 0
0 0
0 0
0 0
0 0
0 0
0 0
0 0
0 0
0 0
0 0
0 0
0 0
0 0
0 0
0 0
0 0
0 0
0 0
0 0
0 0
0 0
0 0
0 0
0 0
0 0
0 0
0 0
0 0
0 0
0 0
0 0
0 0
0 0
0 0
0 0
0 0
0 0
0 0
0 0
0 0
0 0
0 0
0 0
0 0
0 0
0 0
0 0
0 0
0 0
0 0
0 0
0 0
0 0
0 0
0 0
0 0
0 0
0 0
0 0
0 0
0 0
0 0
0 0
0 0
0 0
0 0
0 0
0 0
0 0
0 0
0 0
0 0
0 0
0 0
0 0
0 0
0 0
0 0
0 0
0 0
0 0
0 0
0 0
0 0
0 0
0 0
0 0
0 0
0 0
0 0
0 0
0 0
0 0
0 0
0 0
0 0
0 0
0 0
0 0
0 0
0 0
0 0
0 0
0 0
0 0
0 0
0 0
0 0
0 0
0 0
0 0
0 0
0 0
0 0
0 0
0 0
0 0
0 0
0 0
0 0
0 0
0 0
0 0
0 0
0 0
0 0
0 0
0 0
0 0
0 0
0 0
0 0
0 0
0 0
0 0
0 0
0 0
0 0
0 0
0 0
0 0
0 0
0 0
0 0
0 0
0 0
0 0
0 0
0 0
0 0
0 0
0 0
0 0
0 0
0 0
0 0
0 0
0 0
0 0
0 0
0 0
0 0
0 0
0 0
0 0
0 0
0 0
0 0
0 0
0 0
0 0
0 0
0 0
0 0
0 0
0 0
0 0
0 0
0 0
0 0
0 0
0 0
0 0
0 0
0 0
0 0
0 0
0 0
0 0
0 0
0 0
0 0
0 0
0 0
0 0
0 0
0 0
0 0
0 0
0 0
0 0
0 0
0 0
0 0
0 0
0 0
0 0
0 0
0 0
0 0
0 0
0 0
0 0
0 0
0 0
0 0
0 0
0 0
0 0
0 0
0 0
0 0
0 0
0 0
0 0
0 0
0 0
0 0
0 0
0 0
0 0
0 0
0 0
0 0
0 0
0 0
0 0
0 0
0 0
0 0
0 0
0 0
0 0
0 0
0 0
0 0
0 0
0 0
0 0
0 0
0 0
0 0
0 0
0 0
0 0
0 0
0 0
0 0
0 0
0 0
0 0
0 0
0 0
0 0
0 0
0 0
0 0
0 0
0 0
0 0
0 0
0 0
0 0
0 0
0 0
0 0
0 0
0 0
0 0
0 0
0 0
0 0
0 0
0 0
0 0
0 0
0 0
0 0
0 0
0 0
0 0
0 0
0 0
0 0
0 0
0 0
0 0
0 0
0 0
0 0
0 0
0 0
0 0
0 0
0 0
0 0
0 0
0 0
0 0
0 0
0 0
0 0
0 0
0 0
0 0
0 0
0 0
0 0
0 0
0 0
0 0
0 0
0 0
0 0
0 0
0 0
0 0
0 0
0 0
0 0
0 0
0 0
0 0
0 0
0 0
0 0
0 0
0 0
0 0
0 0
0 0
0 0
0 0
0 0
0 0
0 0
0 0
0 0
0 0
0 0
0 0
0 0
0 0
0 0
0 0
0 0
0 0
0 0
0 0
0 0
0 0
0 0
0 0
0 0
0 0
0 0
0 0
0 0
0 0
0 0
0 0
0 0
0 0
0 0
0 0
0 0
0 0
0 0
0 0
0 0
0 0
0 0
0 0
0 0
0 0
0 0
0 0
0 0
0 0
0 0
0 0
0 0
0 0
0 0
0 0
0 0
0 0
0 0
0 0
0 0
0 0
0 0
0 0
0 0
0 0
0 0
0 0
0 0
0 0
0 0
0 0
0 0
0 0
0 0
0 0
0 0
0 0
0 0
0 0
0 0
0 0
0 0
0 0
0 0
0 0
0 0
0 0
0 0
0 0
0 0
0 0
0 0
0 0
0 0
0 0
0 0
0 0
0 0
0 0
0 0
0 0
0 0
0 0
0 0
0 0
0 0
0 0
0 0
0 0
0 0
0 0
0 0
0 0
0 0
0 0
0 0
0 0
0 0
0 0
0 0
0 0
0 0
0 0
0 0
0 0
0 0
0 0
0 0
0 0
0 0
0 0
0 0
0 0
0 0
0 0
0 0
0 0
0 0
0 0
0 0
0 0
0 0
0 0
0 0
0 0
0 0
0 0
0 0
0 0
0 0
0 0
0 0
0 0
0 0
0 0
0 0
0 0
0 0
0 0
0 0
0 0
0 0
0 0
0 0
0 0
0 0
0 0
0 0
0 0
0 0
0 0
0 0
0 0
0 0
0 0
0 0
0 0
0 0
0 0
0 0
0 0
0 0
0 0
0 0
0 0
0 0
0 0
0 0
0 0
0 0
0 0
0 0
0 0
0 0
0 0
0 0
0 0
0 0
0 0
0 0
0 0
0 0
0 0
0 0
0 0
0 0
0 0
0 0
0 0
0 0
0 0
0 0
0 0
0 0
0 0
0 0
0 0
0 0
0 0
0 0
0 0
0 0
0 0
0 0
0 0
0 0
0 0
0 0
0 0
0 0
0 0
0 0
0 0
0 0
0 0
0 0
0 0
0 0
0 0
0 0
0 0
0 0
0 0
0 0
0 0
0 0
0 0
0 0
0 0
0 0
0 0
0 0
0 0
0 0
0 0
0 0
0 0
0 0
0 0
0 0
0 0
0 0
0 0
0 0
0 0
0 0
0 0
0 0
0 0
0 0
0 0
0 0
0 0
0 0
0 0
0 0
0 0
0 0
0 0
0 0
0 0
0 0
0 0
0 0
0 0
0 0
0 0
0 0
0 0
0 0
0 0
0 0
0 0
0 0
0 0
0 0
0 0
0 0
0 0
0 0
0 0
0 0
0 0
0 0
0 0
0 0
0 0
0 0
0 0
0 0
0 0
0 0
0 0
0 0
0 0
0 0
0 0
0 0
0 0
0 0
0 0
0 0
0 0
0 0
0 0
0 0
0 0
0 0
0 0
0 0
0 0
0 0
0 0
0 0
0 0
0 0
0 0
0 0
0 0
0 0
0 0
0 0
0 0
0 0
0 0
0 0
0 0
0 0
0 0
0 0
0 0
0 0
0 0
0 0
0 0
0 0
0 0
0 0
0 0
0 0
0 0
0 0
0 0
0 0
0 0
0 0
0 0
0 0
0 0
0 0
0 0
0 0
0 0
0 0
0 0
0 0
0 0
0 0
0 0
0 0
0 0
0 0
0 0
0 0
0 0
0 0
0 0
0 0
0 0
0 0
0 0
0 0
0 0
0 0
0 0
0 0
0 0
0 0
0 0
0 0
0 0
0 0
0 0
0 0
0 0
0 0
0 0
0 0
0 0
0 0
0 0
0 0
0 0
0 0
0 0
0 0
0 0
0 0
0 0
0 0
0 0
0 0
0 0
0 0
0 0
0 0
0 0
0 0
0 0
0 0
0 0
0 0
0 0
0 0
0 0
0 0
0 0
0 0
0 0
0 0
0 0
0 0
0 0
0 0
0 0
0 0
0 0
0 0
0 0
0 0
0 0
0 0
0 0
0 0
0 0
0 0
0 0
0 0
0 0
0 0
0 0
0 0
0 0
0 0
0 0
0 0
0 0
0 0
0 0
0 0
0 0
0 0
0 0
0 0
0 0
0 0
0 0
0 0
0 0
0 0
0 0
0 0
0 0
0 0
0 0
0 0
0 0
0 0
0 0
0 0
0 0
0 0
0 0
0 0
0 0
0 0
0 0
0 0
0 0
0 0
0 0
0 0
0 0
0 0
0 0
0 0
0 0
0 0
0 0
0 0
0 0
0 0
0 0
0 0
0 0
0 0
0 0
0 0
0 0
0 0
0 0
0 0
0 0
0 0
0 0
0 0
0 0
0 0
0 0
0 0
0 0
0 0
0 0
0 0
0 0
0 0
0 0
0 0
0 0
0 0
0 0
0 0
0 0
0 0
0 0
0 0
0 0
0 0
0 0
0 0
0 0
0 0
0 0
0 0
0 0
0 0
0 0
0 0
0 0
0 0
0 0
0 0
0 0
0 0
0 0
0 0
0 0
0 0
0 0
0 0
0 0
0 0
0 0
0 0
0 0
0 0
0 0
0 0
0 0
0 0
0 0
0 0
0 0
0 0
0 0
0 0
0 0
0 0
0 0
0 0
0 0
0 0
0 0
0 0
0 0
0 0
0 0
0 0
0 0
0 0
0 0
0 0
0 0
0 0
0 0
0 0
0 0
0 0
0 0
0 0
0 0
0 0
0 0
0 0
0 0
0 0
0 0
0 0
0 0
0 0
0 0
0 0
0 0
0 0
0 0
0 0
0 0
0 0
0 0
0 0
0 0
0 0
0 0
0 0
0 0
0 0
0 0
0 0
0 0
0 0
0 0
0 0
0 0
0 0
0 0
0 0
0 0
0 0
0 0
0 0
0 0
0 0
0 0
0 0
0 0
0 0
0 0
0 0
0 0
0 0
0 0
0 0
0 0
0 0
0 0
0 0
0 0
0 0
0 0
0 0
0 0
0 0
0 0
0 0
0 0
0 0
0 0
0 0
0 0
0 0
0 0
0 0
0 0
0 0
0 0
0 0
0 0
0 0
0 0
0 0
0 0
0 0
0 0
0 0
0 0
0 0
0 0
0 0
0 0
0 0
0 0
0 0
0 0
0 0
0 0
0 0
0 0
0 0
0 0
0 0
0 0
0 0
0 0
0 0
0 0
0 0
0 0
0 0
0 0
0 0
0 0
0 0
0 0
0 0
0 0
0 0
0 0
0 0
0 0
0 0
0 0
0 0
0 0
0 0
0 0
0 0
0 0
0 0
0 0
0 0
0 0
0 0
0 0
0 0
0 0
0 0
0 0
0 0
0 0
0 0
0 0
0 0
0 0
0 0
0 0
0 0
0 0
0 0
0 0
0 0
0 0
0 0
0 0
0 0
0 0
0 0
0 0
0 0
0 0
0 0
0 0
0 0
0 0
0 0
0 0
0 0
0 0
0 0
0 0
0 0
0 0
0 0
0 0
0 0
0 0
0 0
0 0
0 0
0 0
0 0
0 0
0 0
0 0
0 0
0 0
0 0
0 0
0 0
0 0
0 0
0 0
0 0
0 0
0 0
0 0
0 0
0 0
0 0
0 0
0 0
0 0
0 0
0 0
0 0
0 0
0 0
0 0
0 0
0 0
0 0
0 0
0 0
0 0
0 0
0 0
0 0
0 0
0 0
0 0
0 0
0 0
0 0
0 0
0 0
0 0
0 0
0 0
0 0
0 0
0 0
0 0
0 0
0 0
0 0
0 0
0 0
0 0
0 0
0 0
0 0
0 0
0 0
0 0
0 0
0 0
0 0
0 0
0 0
0 0
0 0
0 0
0 0
0 0
0 0
0 0
0 0
0 0
0 0
0 0
0 0
0 0
0 0
0 0
0 0
0 0
0 0
0 0
0 0
0 0
0 0
0 0
0 0
0 0
0 0
0 0
0 0
0 0
0 0
0 0
0 0
0 0
0 0
0 0
0 0
0 0
0 0
0 0
0 0
0 0
0 0
0 0
0 0
0 0
0 0
0 0
0 0
0 0
0 0
0 0
0 0
0 0
0 0
0 0
0 0
0 0
0 0
0 0
0 0
0 0
0 0
0 0
0 0
0 0
0 0
0 0
0 0
0 0
0 0
0 0
0 0
0 0
0 0
0 0
0 0
0 0
0 0
0 0
0 0
0 0
0 0
0 0
0 0
0 0
0 0
0 0
0 0
0 0
0 0
0 0
0 0
0 0
0 0
0 0
0 0
0 0
0 0
0 0
0 0
0 0
0 0
0 0
0 0
0 0
0 0
0 0
0 0
0 0
0 0
0 0
0 0
0 0
0 0
0 0
0 0
0 0
0 0
0 0
0 0
0 0
0 0
0 0
0 0
0 0
0 0
0 0
0 0
0 0
0 0
0 0
0 0
0 0
0 0
0 0
0 0
0 0
0 0
0 0
0 0
0 0
0 0
0 0
0 0
0 0
0 0
0 0
0 0
0 0
0 0
0 0
0 0
0 0
0 0
0 0
0 0
0 0
0 0
0 0
0 0
0 0
0 0
0 0
0 0
0 0
0 0
0 0
0 0
0 0
0 0
0 0
0 0
0 0
0 0
0 0
0 0
0 0
0 0
0 0
0 0
0 0
0 0
0 0
0 0
0 0
0 0
0 0
0 0
0 0
0 0
0 0
0 0
0 0
0 0
0 0
0 0
0 0
0 0
0 0
0 0
0 0
0 0
0 0
0 0
0 0
0 0
0 0
0 0
0 0
0 0
0 0
0 0
0 0
0 0
0 0
0 0
0 0
0 0
0 0
0 0
0 0
0 0
0 0
0 0
0 0
0 0
0 0
0 0
0 0
0 0
0 0
0 0
0 0
0 0
0 0
0 0
0 0
0 0
0 0
0 0
0 0
0 0
0 0
0 0
0 0
0 0
0 0
0 0
0 0
0 0
0 0
0 0
0 0
0 0
0 0
0 0
0 0
0 0
0 0
0 0
0 0
0 0
0 0
0 0
0 0
0 0
0 0
0 0
0 0
0 0
0 0
0 0
0 0
0 0
0 0
0 0
0 0
0 0
0 0
0 0
0 0
0 0
0 0
0 0
0 0
0 0
0 0
0 0
0 0
0 0
0 0
0 0
0 0
0 0
0 0
0 0
0 0
0 0
0 0
0 0
0 0
0 0
0 0
0 0
0 0
0 0
0 0
0 0
0 0
0 0
0 0
0 0
0 0
0 0
0 0
0 0
0 0
0 0
0 0
0 0
0 0
0 0
0 0
0 0
0 0
0 0
0 0
0 0
0 0
0 0
0 0
0 0
0 0
0 0
0 0
0 0
0 0
0 0
0 0
0 0
0 0
0 0
0 0
0 0
0 0
0 0
0 0
0 0
0 0
0 0
0 0
0 0
0 0
0 0
0 0
0 0
0 0
0 0
0 0
0 0
0 0
0 0
0 0
0 0
0 0
0 0
0 0
0 0
0 0
0 0
0 0
0 0
0 0
0 0
0 0
0 0
0 0
0 0
0 0
0 0
0 0
0 0
0 0
0 0
0 0
0 0
0 0
0 0
0 0
0 0
0 0
0 0
0 0
0 0
0 0
0 0
0 0
0 0
0 0
0 0
0 0
0 0
0 0
0 0
0 0
0 0
0 0
0 0
0 0
0 0
0 0
0 0
0 0
0 0
0 0
0 0
0 0
0 0
0 0
0 0
0 0
0 0
0 0
0 0
0 0
0 0
0 0
0 0
0 0
0 0
0 0
0 0
0 0
0 0
0 0
0 0
0 0
0 0
0 0
0 0
0 0
0 0
0 0
0 0
0 0
0 0
0 0
0 0
0 0
0 0
0 0
0 0
0 0
0 0
0 0
0 0
0 0
0 0
0 0
0 0
0 0
0 0
0 0
0 0
0 0
0 0
0 0
0 0
0 0
0 0
0 0
0 0
0 0
0 0
0 0
0 0
0 0
0 0
0 0
0 0
0 0
0 0
0 0
0 0
0 0
0 0
0 0
0 0
0 0
0 0
0 0
0 0
0 0
0 0
0 0
0 0
0 0
0 0
0 0
0 0
0 0
0 0
0 0
0 0
0 0
0 0
0 0
0 0
0 0
0 0
0 0
0 0
0 0
0 0
0 0
0 0
0 0
0 0
0 0
0 0
0 0
0 0
0 0
0 0
0 0
0 0
0 0
0 0
0 0
0 0
0 0
0 0
0 0
0 0
0 0
0 0
0 0
0 0
0 0
0 0
0 0
0 0
0 0
0 0
0 0
0 0
0 0
0 0
0 0
0 0
0 0
0 0
0 0
0 0
0 0
0 0
0 0
0 0
0 0
0 0
0 0
0 0
0 0
0 0
0 0
0 0
0 0
0 0
0 0
0 0
0 0
0 0
0 0
0 0
0 0
0 0
0 0
0 0
0 0
0 0
0 0
0 0
0 0
0 0
0 0
0 0
0 0
0 0
0 0
0 0
0 0
0 0
0 0
0 0
0 0
0 0
0 0
0 0
0 0
0 0
0 0
0 0
0 0
0 0
0 0
0 0
0 0
0 0
0 0
0 0
0 0
0 0
0 0
0 0
0 0
0 0
0 0
0 0
0 0
0 0
0 0
0 0
0 0
0 0
0 0
0 0
0 0
0 0
0 0
0 0
0 0
0 0
0 0
0 0
0 0
0 0
0 0
0 0
0 0
0 0
0 0
0 0
0 0
0 0
0 0
0 0
0 0
0 0
0 0
0 0
0 0
0 0
0 0
0 0
0 0
0 0
0 0
0 0
0 0
0 0
0 0
0 0
0 0
0 0
0 0
0 0
0 0
0 0
0 0
0 0
0 0
0 0
0 0
0 0
0 0
0 0
0 0
0 0
0 0
0 0
0 0
0 0
0 0
0 0
0 0
0 0
0 0
0 0
0 0
0 0
0 0
0 0
0 0
0 0
0 0
0 0
0 0
0 0
0 0
0 0
0 0
0 0
0 0
0 0
0 0
0 0
0 0
0 0
0 0
0 0
0 0
0 0
0 0
0 0
0 0
0 0
0 0
0 0
0 0
0 0
0 0
0 0
0 0
0 0
0 0
0 0
0 0
0 0
0 0
0 0
0 0
0 0
0 0
0 0
0 0
0 0
0 0
0 0
0 0
0 0
0 0
0 0
0 0
0 0
0 0
0 0
0 0
0 0
0 0
0 0
0 0
0 0
0 0
0 0
0 0
0 0
0 0
0 0
0 0
0 0
0 0
0 0
0 0
0 0
0 0
0 0
0 0
0 0
0 0
0 0
0 0
0 0
0 0
0 0
0 0
0 0
0 0
0 0
0 0
0 0
0 0
0 0
0 0
0 0
0 0
0 0
0 0
0 0
0 0
0 0
0 0
0 0
0 0
0 0
0 0
0 0
0 0
0 0
0 0
0 0
0 0
0 0
0 0
0 0
0 0
0 0
0 0
0 0
0 0
0 0
0 0
0 0
0 0
0 0
0 0
0 0
0 0
0 0
0 0
0 0
0 0
0 0
0 0
0 0
0 0
0 0
0 0
0 0
0 0
0 0
0 0
0 0
0 0
0 0
0 0
0 0
0 0
0 0
0 0
0 0
0 0
0 0
0 0
0 0
0 0
0 0
0 0
0 0
0 0
0 0
0 0
0 0
0 0
0 0
0 0
0 0
0 0
0 0
0 0
0 0
0 0
0 0
0 0
0 0
0 0
0 0
0 0
0 0
0 0
0 0
0 0
0 0
0 0
0 0
0 0
0 0
0 0
0 0
0 0
0 0
0 0
0 0
0 0
0 0
0 0
0 0
0 0
0 0
0 0
0 0
0 0
0 0
0 0
0 0
0 0
0 0
0 0
0 0
0 0
0 0
0 0
0 0
0 0
0 0
0 0
0 0
0 0
0 0
0 0
0 0
0 0
0 0
0 0
0 0
0 0
0 0
0 0
0 0
0 0
0 0
0 0
0 0
0 0
0 0
0 0
0 0
0 0
0 0
0 0
0 0
0 0
0 0
0 0
0 0
0 0
0 0
0 0
0 0
0 0
0 0
0 0
0 0
0 0
0 0
0 0
0 0
0 0
0 0
0 0
0 0
0 0
0 0
0 0
0 0
0 0
0 0
0 0
0 0
0 0
0 0
0 0
0 0
0 0
0 0
0 0
0 0
0 0
0 0
0 0
0 0
0 0
0 0
0 0
0 0
0 0
0 0
0 0
0 0
0 0
0 0
0 0
0 0
0 0
0 0
0 0
0 0
0 0
0 0
0 0
0 0
0 0
0 0
0 0
0 0
0 0
0 0
0 0
0 0
0 0
0 0
0 0
0 0
0 0
0 0
0 0
0 0
0 0
0 0
0 0
0 0
0 0
0 0
0 0
0 0
0 0
0 0
0 0
0 0
0 0
0 0
0 0
0 0
0 0
0 0
0 0
0 0
0 0
0 0
0 0
0 0
0 0
0 0
0 0
0 0
0 0
0 0
0 0
0 0
0 0
0 0
0 0
0 0
0 0
0 0
0 0
0 0
0 0
0 0
0 0
0 0
0 0
0 0
0 0
0 0
0 0
0 0
0 0
0 0
0 0
0 0
0 0
0 0
0 0
0 0
0 0
0 0
0 0
0 0
0 0
0 0
0 0
0 0
0 0
0 0
0 0
0 0
0 0
0 0
0 0
0 0
0 0
0 0
0 0
0 0
0 0
0 0
0 0
0 0
0 0
0 0
0 0
0 0
0 0
0 0
0 0
0 0
0 0
0 0
0 0
0 0
0 0
0 0
0 0
0 0
0 0
0 0
0 0
0 0
0 0
0 0
0 0
0 0
0 0
0 0
0 0
0 0
0 0
0 0
0 0
0 0
0 0
0 0
0 0
0 0
0 0
0 0
0 0
0 0
0 0
0 0
0 0
0 0
0 0
0 0
0 0
0 0
0 0
0 0
0 0
0 0
0 0
0 0
0 0
0 0
0 0
0 0
0 0
0 0
0 0
0 0
0 0
0 0
0 0
0 0
0 0
0 0
0 0
0 0
0 0
0 0
0 0
0 0
0 0
0 0
0 0
0 0
0 0
0 0
0 0
0 0
0 0
0 0
0 0
0 0
0 0
0 0
0 0
0 0
0 0
0 0
0 0
0 0
0 0
0 0
0 0
0 0
0 0
0 0
0 0
0 0
0 0
0 0
0 0
0 0
0 0
0 0
0 0
0 0
0 0
0 0
0 0
0 0
0 0
0 0
0 0
0 0
0 0
0 0
0 0
0 0
0 0
0 0
0 0
0 0
0 0
0 0
0 0
0 0
0 0
0 0
0 0
0 0
0 0
0 0
0 0
0 0
0 0
0 0
0 0
0 0
0 0
0 0
0 0
0 0
0 0
0 0
0 0
0 0
0 0
0 0
0 0
0 0
0 0
0 0
0 0
0 0
0 0
0 0
0 0
0 0
0 0
0 0
0 0
0 0
0 0
0 0
0 0
0 0
0 0
0 0
0 0
0 0
0 0
0 0
0 0
0 0
0 0
0 0
0 0
0 0
0 0
0 0
0 0
0 0
0 0
0 0
0 0
0 0
0 0
0 0
0 0
0 0
0 0
0 0
0 0
0 0
0 0
0 0
0 0
0 0
0 0
0 0
0 0
0 0
0 0
0 0
0 0
0 0
0 0
0 0
0 0
0 0
0 0
0 0
0 0
0 0
0 0
0 0
0 0
0 0
0 0
0 0
0 0
0 0
0 0
0 0
0 0
0 0
0 0
0 0
0 0
0 0
0 0
0 0
0 0
0 0
0 0
0 0
0 0
0 0
0 0
0 0
0 0
0 0
0 0
0 0
0 0
0 0
0 0
0 0
0 0
0 0
0 0
0 0
0 0
0 0
0 0
0 0
0 0
0 0
0 0
0 0
0 0
0 0
0 0
0 0
0 0
0 0
0 0
0 0
0 0
0 0
0 0
0 0
0 0
0 0
0 0
0 0
0 0
0 0
0 0
0 0
0 0
0 0
0 0
0 0
0 0
0 0
0 0
0 0
0 0
0 0
0 0
0 0
0 0
0 0
0 0
0 0
0 0
0 0
0 0
0 0
0 0
0 0
0 0
0 0
0 0
0 0
0 0
0 0
0 0
0 0
0 0
0 0
0 0
0 0
0 0
0 0
0 0
0 0
0 0
0 0
0 0
0 0
0 0
0 0
0 0
0 0
0 0
0 0
0 0
0 0
0 0
0 0
0 0
0 0
0 0
0 0
0 0
0 0
0 0
0 0
0 0
0 0
0 0
0 0
0 0
0 0
0 0
0 0
0 0
0 0
0 0
0 0
0 0
0 0
0 0
0 0
0 0
0 0
0 0
0 0
0 0
0 0
0 0
0 0
0 0
0 0
0 0
0 0
0 0
0 0
0 0
0 0
0 0
0 0
0 0
0 0
0 0
0 0
0 0
0 0
0 0
0 0
0 0
0 0
0 0
0 0
0 0
0 0
0 0
0 0
0 0
0 0
0 0
0 0
0 0
0 0
0 0
0 0
0 0
0 0
0 0
0 0
0 0
0 0
0 0
0 0
0 0
0 0
0 0
0 0
0 0
0 0
0 0
0 0
0 0
0 0
0 0
0 0
0 0
0 0
0 0
0 0
0 0
0 0
0 0
0 0
0 0
0 0
0 0
0 0
0 0
0 0
0 0
0 0
0 0
0 0
0 0
0 0
0 0
0 0
0 0
0 0
0 0
0 0
0 0
0 0
0 0
0 0
0 0
0 0
0 0
0 0
0 0
0 0
0 0
0 0
0 0
0 0
0 0
0 0
0 0
0 0
0 0
0 0
0 0
0 0
0 0
0 0
0 0
0 0
0 0
0 0
0 0
0 0
0 0
0 0
0 0
0 0
0 0
0 0
0 0
0 0
0 0
0 0
0 0
0 0
0 0
0 0
0 0
0 0
0 0
0 0
0 0
0 0
0 0
0 0
0 0
0 0
0 0
0 0
0 0
0 0
0 0
0 0
0 0
0 0
0 0
0 0
0 0
0 0
0 0
0 0
0 0
0 0
0 0
0 0
0 0
0 0
0 0
0 0
0 0
0 0
0 0
0 0
0 0
0 0
0 0
0 0
0 0
0 0
0 0
0 0
0 0
0 0
0 0
0 0
0 0
0 0
0 0
0 0
0 0
0 0
0 0
0 0
0 0
0 0
0 0
0 0
0 0
0 0
0 0
0 0
0 0
0 0
0 0
0 0
0 0
0 0
0 0
0 0
0 0
0 0
0 0
0 0
0 0
0 0
0 0
0 0
0 0
0 0
0 0
0 0
0 0
0 0
0 0
0 0
0 0
0 0
0 0
0 0
0 0
0 0
0 0
0 0
0 0
0 0
0 0
0 0
0 0
0 0
0 0
0 0
0 0
0 0
0 0
0 0
0 0
0 0
0 0
0 0
0 0
0 0
0 0
0 0
0 0
0 0
0 0
0 0
0 0
0 0
0 0
0 0
0 0
0 0
0 0
0 0
0 0
0 0
0 0
0 0
0 0
0 0
0 0
0 0
0 0
0 0
0 0
0 0
0 0
0 0
0 0
0 0
0 0
0 0
0 0
0 0
0 0
0 0
0 0
0 0
0 0
0 0
0 0
0 0
0 0
0 0
0 0
0 0
0 0
0 0
0 0
0 0
0 0
0 0
0 0
0 0
0 0
0 0
0 0
0 0
0 0
0 0
0 0
0 0
0 0
0 0
0 0
0 0
0 0
0 0
0 0
0 0
0 0
0 0
0 0
0 0
0 0
0 0
0 0
0 0
0 0
0 0
0 0
0 0
0 0
0 0
0 0
0 0
0 0
0 0
0 0
0 0
0 0
0 0
0 0
0 0
0 0
0 0
0 0
0 0
0 0
0 0
0 0
0 0
0 0
0 0
0 0
0 0
0 0
0 0
0 0
0 0
0 0
0 0
0 0
0 0
0 0
0 0
0 0
0 0
0 0
0 0
0 0
0 0
0 0
0 0
0 0
0 0
0 0
0 0
0 0
0 0
0 0
0 0
0 0
0 0
0 0
0 0
0 0
0 0
0 0
0 0
0 0
0 0
0 0
0 0
0 0
0 0
0 0
0 0
0 0
0 0
0 0
0 0
0 0
0 0
0 0
0 0
0 0
0 0
0 0
0 0
0 0
0 0
0 0
0 0
0 0
0 0
0 0
0 0
0 0
0 0
0 0
0 0
0 0
0 0
0 0
0 0
0 0
0 0
0 0
0 0
0 0
0 0
0 0
0 0
0 0
0 0
0 0
0 0
0 0
0 0
0 0
0 0
0 0
0 0
0 0
0 0
0 0
0 0
0 0
0 0
0 0
0 0
0 0
0 0
0 0
0 0
0 0
0 0
0 0
0 0
0 0
0 0
0 0
0 0
0 0
0 0
0 0
0 0
0 0
0 0
0 0
0 0
0 0
0 0
0 0
0 0
0 0
0 0
0 0
0 0
0 0
0 0
0 0
0 0
0 0
0 0
0 0
0 0
0 0
0 0
0 0
0 0
0 0
0 0
0 0
0 0
0 0
0 0
0 0
0 0
0 0
0 0
0 0
0 0
0 0
0 0
0 0
0 0
0 0
0 0
0 0
0 0
0 0
0 0
0 0
0 0
0 0
0 0
0 0
0 0
0 0
0 0
0 0
0 0
0 0
0 0
0 0
0 0
0 0
0 0
0 0
0 0
0 0
0 0
0 0
0 0
0 0
0 0
0 0
0 0
0 0
0 0
0 0
0 0
0 0
0 0
0 0
0 0
0 0
0 0
0 0
0 0
0 0
0 0
0 0
0 0
0 0
0 0
0 0
0 0
0 0
0 0
0 0
0 0
0 0
0 0
0 0
0 0
0 0
0 0
0 0
0 0
0 0
0 0
0 0
0 0
0 0
0 0
0 0
0 0
0 0
0 0
0 0
0 0
0 0
0 0
0 0
0 0
0 0
0 0
0 0
0 0
0 0
0 0
0 0
0 0
0 0
0 0
0 0
0 0
0 0
0 0
0 0
0 0
0 0
0 0
0 0
0 0
0 0
0 0
0 0
0 0
0 0
0 0
0 0
0 0
0 0
0 0
0 0
0 0
0 0
0 0
0 0
0 0
0 0
0 0
0 0
0 0
0 0
0 0
0 0
0 0
0 0
0 0
0 0
0 0
0 0
0 0
0 0
0 0
0 0
0 0
0 0
0 0
0 0
0 0
0 0
0 0
0 0
0 0
0 0
0 0
0 0
0 0
0 0
0 0
0 0
0 0
0 0
0 0
0 0
0 0
0 0
0 0
0 0
0 0
0 0
0 0
0 0
0 0
0 0
0 0
0 0
0 0
0 0
0 0
0 0
0 0
0 0
0 0
0 0
0 0
0 0
0 0
0 0
0 0
0 0
0 0
0 0
0 0
0 0
0 0
0 0
0 0
0 0
0 0
0 0
0 0
0 0
0 0
0 0
0 0
0 0
0 0
0 0
0 0
0 0
0 0
0 0
0 0
0 0
0 0
0 0
0 0
0 0
0 0
0 0
0 0
0 0
0 0
0 0
0 0
0 0
0 0
0 0
0 0
0 0
0 0
0 0
0 0
0 0
0 0
0 0
0 0
0 0
0 0
0 0
0 0
0 0
0 0
0 0
0 0
0 0
0 0
0 0
0 0
0 0
0 0
0 0
0 0
0 0
0 0
0 0
0 0
0 0
0 0
0 0
0 0
0 0
0 0
0 0
0 0
0 0
0 0
0 0
0 0
0 0
0 0
0 0
0 0
0 0
0 0
0 0
0 0
0 0
0 0
0 0
0 0
0 0
0 0
0 0
0 0
0 0
0 0
0 0
0 0
0 0
0 0
0 0
0 0
0 0
0 0
0 0
0 0
0 0
0 0
0 0
0 0
0 0
0 0
0 0
0 0
0 0
0 0
0 0
0 0
0 0
0 0
0 0
0 0
0 0
0 0
0 0
0 0
0 0
0 0
0 0
0 0
0 0
0 0
0 0
0 0
0 0
0 0
0 0
0 0
0 0
0 0
0 0
0 0
0 0
0 0
0 0
0 0
0 0
0 0
0 0
0 0
0 0
0 0
0 0
0 0
0 0
0 0
0 0
0 0
0 0
0 0
0 0
0 0
0 0
0 0
0 0
0 0
0 0
0 0
0 0
0 0
0 0
0 0
0 0
0 0
0 0
0 0
0 0
0 0
0 0
0 0
0 0
0 0
0 0
0 0
0 0
0 0
0 0
0 0
0 0
0 0
0 0
0 0
0 0
0 0
0 0
0 0
0 0
0 0
0 0
0 0
0 0
0 0
0 0
0 0
0 0
0 0
0 0
0 0
0 0
0 0
0 0
0 0
0 0
0 0
0 0
0 0
0 0
0 0
0 0
0 0
0 0
0 0
0 0
0 0
0 0
0 0
0 0
0 0
0 0
0 0
0 0
0 0
0 0
0 0
0 0
0 0
0 0
0 0
0 0
0 0
0 0
0 0
0 0
0 0
0 0
0 0
0 0
0 0
0 0
0 0
0 0
0 0
0 0
0 0
0 0
0 0
0 0
0 0
0 0
0 0
0 0
0 0
0 0
0 0
0 0
0 0
0 0
0 0
0 0
0 0
0 0
0 0
0 0
0 0
0 0
0 0
0 0
0 0
0 0
0 0
0 0
0 0
0 0
0 0
0 0
0 0
0 0
0 0
0 0
0 0
0 0
0 0
0 0
0 0
0 0
0 0
0 0
0 0
0 0
0 0
0 0
0 0
0 0
0 0
0 0
0 0
0 0
0 0
0 0
0 0
0 0
0 0
0 0
0 0
0 0
0 0
0 0
0 0
0 0
0 0
0 0
0 0
0 0
0 0
0 0
0 0
0 0
0 0
0 0
0 0
0 0
0 0
0 0
0 0
0 0
0 0
0 0
0 0
0 0
0 0
0 0
0 0
0 0
0 0
0 0
0 0
0 0
0 0
0 0
0 0
0 0
0 0
0 0
0 0
0 0
0 0
0 0
0 0
0 0
0 0
0 0
0 0
0 0
0 0
0 0
0 0
0 0
0 0
0 0
0 0
0 0
0 0
0 0
0 0
0 0
0 0
0 0
0 0
0 0
0 0
0 0
0 0
0 0
0 0
0 0
0 0
0 0
0 0
0 0
0 0
0 0
0 0
0 0
0 0
0 0
0 0
0 0
0 0
0 0
0 0
0 0
0 0
0 0
0 0
0 0
0 0
0 0
0 0
0 0
0 0
0 0
0 0
0 0
0 0
0 0
0 0
0 0
0 0
0 0
0 0
0 0
0 0
0 0
0 0
0 0
0 0
0 0
0 0
0 0
0 0
0 0
0 0
0 0
0 0
0 0
0 0
0 0
0 0
0 0
0 0
0 0
0 0
0 0
0 0
0 0
0 0
0 0
0 0
0 0
0 0
0 0
0 0
0 0
0 0
0 0
0 0
0 0
0 0
0 0
0 0
0 0
0 0
0 0
0 0
0 0
0 0
0 0
0 0
0 0
0 0
0 0
0 0
0 0
0 0
0 0
0 0
0 0
0 0
0 0
0 0
0 0
0 0
0 0
0 0
0 0
0 0
0 0
0 0
0 0
0 0
0 0
0 0
0 0
0 0
0 0
0 0
0 0
0 0
0 0
0 0
0 0
0 0
0 0
0 0
0 0
0 0
0 0
0 0
0 0
0 0
0 0
0 0
0 0
0 0
0 0
0 0
0 0
0 0
0 0
0 0
0 0
0 0
0 0
0 0
0 0
0 0
0 0
0 0
0 0
0 0
0 0
0 0
0 0
0 0
0 0
0 0
0 0
0 0
0 0
0 0
0 0
0 0
0 0
0 0
0 0
0 0
0 0
0 0
0 0
0 0
0 0
0 0
0 0
0 0
0 0
0 0
0 0
0 0
0 0
0 0
0 0
0 0
0 0
0 0
0 0
0 0
0 0
0 0
0 0
0 0
0 0
0 0
0 0
0 0
0 0
0 0
0 0
0 0
0 0
0 0
0 0
0 0
0 0
0 0
0 0
0 0
0 0
0 0
0 0
0 0
0 0
0 0
0 0
0 0
0 0
0 0
0 0
0 0
0 0
0 0
0 0
0 0
0 0
0 0
0 0
0 0
0 0
0 0
0 0
0 0
0 0
0 0
0 0
0 0
0 0
0 0
0 0
0 0
0 0
0 0
0 0
0 0
0 0
0 0
0 0
0 0
0 0
0 0
0 0
0 0
0 0
0 0
0 0
0 0
0 0
0 0
0 0
0 0
0 0
0 0
0 0
0 0
0 0
0 0
0 0
0 0
0 0
0 0
0 0
0 0
0 0
0 0
0 0
0 0
0 0
0 0
0 0
0 0
0 0
0 0
0 0
0 0
0 0
0 0
0 0
0 0
0 0
0 0
0 0
0 0
0 0
0 0
0 0
0 0
0 0
0 0
0 0
0 0
0 0
0 0
0 0
0 0
0 0
0 0
0 0
0 0
0 0
0 0
0 0
0 0
0 0
0 0
0 0
0 0
0 0
0 0
0 0
0 0
0 0
0 0
0 0
0 0
0 0
0 0
0 0
0 0
0 0
0 0
0 0
0 0
0 0
0 0
0 0
0 0
0 0
0 0
0 0
0 0
0 0
0 0
0 0
0 0
0 0
0 0
0 0
0 0
0 0
0 0
0 0
0 0
0 0
0 0
0 0
0 0
0 0
0 0
0 0
0 0
0 0
0 0
0 0
0 0
0 0
0 0
0 0
0 0
0 0
0 0
0 0
0 0
0 0
0 0
0 0
0 0
0 0
0 0
0 0
0 0
0 0
0 0
0 0
0 0
0 0
0 0
0 0
0 0
0 0
0 0
0 0
0 0
0 0
0 0
0 0
0 0
0 0
0 0
0 0
0 0
0 0
0 0
0 0
0 0
0 0
0 0
0 0
0 0
0 0
0 0
0 0
0 0
0 0
0 0
0 0
0 0
0 0
0 0
0 0
0 0
0 0
0 0
0 0
0 0
0 0
0 0
0 0
0 0
0 0
0 0
0 0
0 0
0 0
0 0
0 0
0 0
0 0
0 0
0 0
0 0
0 0
0 0
0 0
0 0
0 0
0 0
0 0
0 0
0 0
0 0
0 0
0 0
0 0
0 0
0 0
0 0
0 0
0 0
0 0
0 0
0 0
0 0
0 0
0 0
0 0
0 0
0 0
0 0
0 0
0 0
0 0
0 0
0 0
0 0
0 0
0 0
0 0
0 0
0 0
0 0
0 0
0 0
0 0
0 0
0 0
0 0
0 0
0 0
0 0
0 0
0 0
0 0
0 0
0 0
0 0
0 0
0 0
0 0
0 0
0 0
0 0
0 0
0 0
0 0
0 0
0 0
0 0
0 0
0 0
0 0
0 0
0 0
0 0
0 0
0 0
0 0
0 0
0 0
0 0
0 0
0 0
0 0
0 0
0 0
0 0
0 0
0 0
0 0
0 0
0 0
0 0
0 0
0 0
0 0
0 0
0 0
0 0
0 0
0 0
0 0
0 0
0 0
0 0
0 0
0 0
0 0
0 0
0 0
0 0
0 0
0 0
0 0
0 0
0 0
0 0
0 0
0 0
0 0
0 0
0 0
0 0
0 0
0 0
0 0
0 0
0 0
0 0
0 0
0 0
0 0
0 0
0 0
0 0
0 0
0 0
0 0
0 0
0 0
0 0
0 0
0 0
0 0
0 0
0 0
0 0
0 0
0 0
0 0
0 0
0 0
0 0
0 0
0 0
0 0
0 0
0 0
0 0
0 0
0 0
0 0
0 0
0 0
0 0
0 0
0 0
0 0
0 0
0 0
0 0
0 0
0 0
0 0
0 0
0 0
0 0
0 0
0 0
0 0
0 0
0 0
0 0
0 0
0 0
0 0
0 0
0 0
0 0
0 0
0 0
0 0
0 0
0 0
0 0
0 0
0 0
0 0
0 0
0 0
0 0
0 0
0 0
0 0
0 0
0 0
0 0
0 0
0 0
0 0
0 0
0 0
0 0
0 0
0 0
0 0
0 0
0 0
0 0
0 0
0 0
0 0
0 0
0 0
0 0
0 0
0 0
0 0
0 0
0 0
0 0
0 0
0 0
0 0
0 0
0 0
0 0
0 0
0 0
0 0
0 0
0 0
0 0
0 0
0 0
0 0
0 0
0 0
0 0
0 0
0 0
0 0
0 0
0 0
0 0
0 0
0 0
0 0
0 0
0 0
0 0
0 0
0 0
0 0
0 0
0 0
0 0
0 0
0 0
0 0
0 0
0 0
0 0
0 0
0 0
0 0
0 0
0 0
0 0
0 0
0 0
0 0
0 0
0 0
0 0
0 0
0 0
0 0
0 0
0 0
0 0
0 0
0 0
0 0
0 0
0 0
0 0
0 0
0 0
0 0
0 0
0 0
0 0
0 0
0 0
0 0
0 0
0 0
0 0
0 0
0 0
0 0
0 0
0 0
0 0
0 0
0 0
0 0
0 0
0 0
0 0
0 0
0 0
0 0
0 0
0 0
0 0
0 0
0 0
0 0
0 0
0 0
0 0
0 0
0 0
0 0
0 0
0 0
0 0
0 0
0 0
0 0
0 0
0 0
0 0
0 0
0 0
0 0
0 0
0 0
0 0
0 0
0 0
0 0
0 0
0 0
0 0
0 0
0 0
0 0
0 0
0 0
0 0
0 0
0 0
0 0
0 0
0 0
0 0
0 0
0 0
0 0
0 0
0 0
0 0
0 0
0 0
0 0
0 0
0 0
0 0
0 0
0 0
0 0
0 0
0 0
0 0
0 0
0 0
0 0
0 0
0 0
0 0
0 0
0 0
0 0
0 0
0 0
0 0
0 0
0 0
0 0
0 0
0 0
0 0
0 0
0 0
0 0
0 0
0 0
0 0
0 0
0 0
0 0
0 0
0 0
0 0
0 0
0 0
0 0
0 0
0 0
0 0
0 0
0 0
0 0
0 0
0 0
0 0
0 0
0 0
0 0
0 0
0 0
0 0
0 0
0 0
0 0
0 0
0 0
0 0
0 0
0 0
0 0
0 0
0 0
0 0
0 0
0 0
0 0
0 0
0 0
0 0
0 0
0 0
0 0
0 0
0 0
0 0
0 0
0 0
0 0
0 0
0 0
0 0
0 0
0 0
0 0
0 0
0 0
0 0
0 0
0 0
0 0
0 0
0 0
0 0
0 0
0 0
0 0
0 0
0 0
0 0
0 0
0 0
0 0
0 0
0 0
0 0
0 0
0 0
0 0
0 0
0 0
0 0
0 0
0 0
0 0
0 0
0 0
0 0
0 0
0 0
0 0
0 0
0 0
0 0
0 0
0 0
0 0
0 0
0 0
0 0
0 0
0 0
0 0
0 0
0 0
0 0
0 0
0 0
0 0
0 0
0 0
0 0
0 0
0 0
0 0
0 0
0 0
0 0
0 0
0 0
0 0
0 0
0 0
0 0
0 0
0 0
0 0
0 0
0 0
0 0
0 0
0 0
0 0
0 0
0 0
0 0
0 0
0 0
0 0
0 0
0 0
0 0
0 0
0 0
0 0
0 0
0 0
0 0
0 0
0 0
0 0
0 0
0 0
0 0
0 0
0 0
0 0
0 0
0 0
0 0
0 0
0 0
0 0
0 0
0 0
0 0
0 0
0 0
0 0
0 0
0 0
0 0
0 0
0 0
0 0
0 0
0 0
0 0
0 0
0 0
0 0
0 0
0 0
0 0
0 0
0 0
0 0
0 0
0 0
0 0
0 0
0 0
0 0
0 0
0 0
0 0
0 0
0 0
0 0
0 0
0 0
0 0
0 0
0 0
0 0
0 0
0 0
0 0
0 0
0 0
0 0
0 0
0 0
0 0
0 0
0 0
0 0
0 0
0 0
0 0
0 0
0 0
0 0
0 0
0 0
0 0
0 0
0 0
0 0
0 0
0 0
0 0
0 0
0 0
0 0
0 0
0 0
0 0
0 0
0 0
0 0
0 0
0 0
0 0
0 0
0 0
0 0
0 0
0 0
0 0
0 0
0 0
0 0
0 0
0 0
0 0
0 0
0 0
0 0
0 0
0 0
0 0
0 0
0 0
0 0
0 0
0 0
0 0
0 0
0 0
0 0
0 0
0 0
0 0
0 0
0 0
0 0
0 0
0 0
0 0
0 0
0 0
0 0
0 0
0 0
0 0
0 0
0 0
0 0
0 0
0 0
0 0
0 0
0 0
0 0
0 0
0 0
0 0
0 0
0 0
0 0
0 0
0 0
0 0
0 0
0 0
0 0
0 0
0 0
0 0
0 0
0 0
0 0
0 0
0 0
0 0
0 0
0 0
0 0
0 0
0 0
0 0
0 0
0 0
0 0
0 0
0 0
0 0
0 0
0 0
0 0
0 0
0 0
0 0
0 0
0 0
0 0
0 0
0 0
0 0
0 0
0 0
0 0
0 0
0 0
0 0
0 0
0 0
0 0
0 0
0 0
0 0
0 0
0 0
0 0
0 0
0 0
0 0
0 0
0 0
0 0
0 0
0 0
0 0
0 0
0 0
0 0
0 0
0 0
0 0
0 0
0 0
0 0
0 0
0 0
0 0
0 0
0 0
0 0
0 0
0 0
0 0
0 0
0 0
0 0
0 0
0 0
0 0
0 0
0 0
0 0
0 0
0 0
0 0
0 0
0 0
0 0
0 0
0 0
0 0
0 0
0 0
0 0
0 0
0 0
0 0
0 0
0 0
0 0
0 0
0 0
0 0
0 0
0 0
0 0
0 0
0 0
0 0
0 0
0 0
0 0
0 0
0 0
0 0
0 0
0 0
0 0
0 0
0 0
0 0
0 0
0 0
0 0
0 0
0 0
0 0
0 0
0 0
0 0
0 0
0 0
0 0
0 0
0 0
0 0
0 0
0 0
0 0
0 0
0 0
0 0
0 0
0 0
0 0
0 0
0 0
0 0
0 0
0 0
0 0
0 0
0 0
0 0
0 0
0 0
0 0
0 0
0 0
0 0
0 0
0 0
0 0
0 0
0 0
0 0
0 0
0 0
0 0
0 0
0 0
0 0
0 0
0 0
0 0
0 0
0 0
0 0
0 0
0 0
0 0
0 0
0 0
0 0
0 0
0 0
0 0
0 0
0 0
0 0
0 0
0 0
0 0
0 0
0 0
0 0
0 0
0 0
0 0
0 0
0 0
0 0
0 0
0 0
0 0
0 0
0 0
0 0
0 0
0 0
0 0
0 0
0 0
0 0
0 0
0 0
0 0
0 0
0 0
0 0
0 0
0 0
0 0
0 0
0 0
0 0
0 0
0 0
0 0
0 0
0 0
0 0
0 0
0 0
0 0
0 0
0 0
0 0
0 0
0 0
0 0
0 0
0 0
0 0
0 0
0 0
0 0
0 0
0 0
0 0
0 0
0 0
0 0
0 0
0 0
0 0
0 0
0 0
0 0
0 0
0 0
0 0
0 0
0 0
0 0
0 0
0 0
0 0
0 0
0 0
0 0
0 0
0 0
0 0
0 0
0 0
0 0
0 0
0 0
0 0
0 0
0 0
0 0
0 0
0 0
0 0
0 0
0 0
0 0
0 0
0 0
0 0
0 0
0 0
0 0
0 0
0 0
0 0
0 0
0 0
0 0
0 0
0 0
0 0
0 0
0 0
0 0
0 0
0 0
0 0
0 0
0 0
0 0
0 0
0 0
0 0
0 0
0 0
0 0
0 0
0 0
0 0
0 0
0 0
0 0
0 0
0 0
0 0
0 0
0 0
0 0
0 0
0 0
0 0
0 0
0 0
0 0
0 0
0 0
0 0
0 0
0 0
0 0
0 0
0 0
0 0
0 0
0 0
0 0
0 0
0 0
0 0
0 0
0 0
0 0
0 0
0 0
0 0
0 0
0 0
0 0
0 0
0 0
0 0
0 0
0 0
0 0
0 0
0 0
0 0
0 0
0 0
0 0
0 0
0 0
0 0
0 0
0 0
0 0
0 0
0 0
0 0
0 0
0 0
0 0
0 0
0 0
0 0
0 0
0 0
0 0
0 0
0 0
0 0
0 0
0 0
0 0
0 0
0 0
0 0
0 0
0 0
0 0
0 0
0 0
0 0
0 0
0 0
0 0
0 0
0 0
0 0
0 0
0 0
0 0
0 0
0 0
0 0
0 0
0 0
0 0
0 0
0 0
0 0
0 0
0 0
      </DataArray> 
      <DataArray type="Float64" NumberOfComponents="2" Name="CauchyNormalStress" format="ascii">
-235.565 -18.7684
-67.8639 240.998
-8590.01 -1706.91
-8.86185 -9.34071
-489.938 -345.789
16205.7 2630.63
-5.14249 -84.5687
7170.61 185.874
-31.6169 -91.0928
-3919.44 -85.7557
-5.56992 -25.1645
5257.38 134.72
-32.818 2.05824
-2972.54 -75.5472
-2.13689 38.5035
3289.02 87.7144
-61.9039 108.681
-2058.03 -39.4651
-5.30896 100.583
1265.04 66.6977
-11.8173 111.657
-1119.49 -28.5681
-26.045 121.298
13.3704 232.382
-5.59499 217.073
-7.44181 197.168
-10.2919 184.168
-11.0596 185.042
-6.46733 224.105
6.15614 270.08
-18.6313 286.696
-176.622 26.272
-212.215 -29.3686
-203.136 -2.65003
-217.121 -3.25104
-242.856 -0.765121
-275.524 -1.23743
-315.777 -1.00404
-360.837 -1.49404
-406.711 -1.73402
-455.105 -2.18744
-504.501 -2.56894
-554.684 -2.99513
-605.612 -3.46202
-655.953 -3.62737
-706.615 -4.11922
-755.757 -4.33394
-804.458 -5.01286
-849.918 -5.32747
-893.228 -6.45214
-930.363 -6.19904
-962.991 -7.47079
-986.37 -6.04477
-1003.95 -5.77239
-1018.07 -3.96124
-1031.75 -0.144574
-1072.04 -1.01721
-1130.79 7.61167
-1237.19 -1.26656
-1370.18 3.62328
-1531.71 -3.41438
-1684.99 -12.7771
-1803.2 -12.1986
-1884.35 -20.7213
-1922.12 -15.3819
-1940.38 -15.4147
-1946.45 -12.2023
-1953.96 -9.30932
-1967.09 -9.60923
-1987.76 -8.43214
-2017.3 -9.26907
-2051.76 -8.79736
-2092.05 -9.45654
-2134.64 -9.63032
-2180.41 -10.1197
-2227 -10.4839
-2274.07 -10.8182
-2320.81 -11.3858
-2365.38 -11.5187
-2407.9 -12.4571
-2444.93 -12.0805
-2477.4 -13.1522
-2500.96 -11.4404
-2517.81 -10.9156
-2534.28 -8.04501
-2553.84 -2.1339
-2596.86 -7.49882
-2670.62 -1.3478
-2799.28 -9.00805
-2958.26 -9.23132
-3124.29 -12.0095
-3269.63 -22.4334
-3362.42 -18.0458
-3418.32 -25.8408
-3433.62 -18.5813
-3438.54 -17.0539
-3438.28 -14.7909
-3444.12 -11.4084
-3458.91 -11.5902
-3481.48 -10.4809
-3513.74 -11.1757
-3550.39 -10.7881
-3592.44 -11.227
-3636.56 -11.3675
-3683.43 -11.5215
-3730.8 -11.7066
-3778.94 -11.7226
-3826.6 -11.9924
-3872.77 -11.965
-3916.89 -12.5195
-3955.65 -12.1306
-3988.38 -13.1711
-4012.23 -11.458
-4026.43 -12.6626
-4038.31 -9.27105
-4059.08 -6.15744
-4111.09 -7.36894
-4215.86 -0.425341
-4362.62 -4.95601
-4549.48 -3.8993
-4698.92 -13.4951
-4830.13 -23.3633
-4894.77 -15.2909
-4923.2 -15.9644
-4919.51 -12.8608
-4914.17 -8.7319
-4912.02 -8.98807
-4918.6 -6.37536
-4937.38 -7.20048
-4962.69 -6.63606
-4997.93 -7.02608
-5036.4 -7.02706
-5080.31 -7.03763
-5125.83 -7.1825
-5173.64 -6.96166
-5222.78 -7.17169
-5272.14 -6.87842
-5322.7 -7.24155
-5370.43 -7.19585
-5417 -8.30596
-5455.79 -7.24452
-5488.49 -9.46281
-5504.66 -5.11008
-5512.21 -5.96221
-5519.92 0.540896
-5545.98 2.31611
-5622.71 -4.05213
-5769.55 2.19376
-5942.68 -5.78801
-6129.08 -16.0009
-6264.18 -8.36555
-6359.29 -21.3685
-6385.07 -9.76415
-6388.66 -7.20368
-6372.24 -4.29379
-6362.66 -0.689923
-6360.87 -1.14775
-6371.46 -0.156621
-6393.04 -0.54202
-6422.55 -0.68802
-6458.54 -0.660539
-6498.51 -1.18232
-6540.5 -0.934617
-6584.4 -1.63042
-6626.63 -1.06427
-6669.35 -1.88624
-6707.87 -1.01891
-6744.68 -1.97351
-6774.43 -0.532245
-6798.39 -1.2797
-6812.74 2.45748
-6814.47 4.02199
-6807.01 24.1822
-6789.37 18.5859
-6704.35 182.372
-7721.68 -173.184
-6497.03 -1973.5
-5236.81 -1613.38
-4722.26 -1431.76
-4155.7 -1252.23
-3599.04 -1088.66
-3015.86 -900.953
-2268.59 -683.845
-1507.21 -452.459
-758.354 -227.362
-291.176 -258.834
-451.225 -422.245
-425.226 -444.594
-470.337 -381.588
-390.439 -330.591
-376.628 -285.962
-300.593 -323.801
-370.936 -357.823
-290.379 -378.363
-232.508 -28.782
82.1962 31.7429
105.992 2.09648
148.531 4.37497
200.209 -0.111435
259.529 1.1782
332.12 0.784097
412.447 1.94926
495.281 2.41659
582.909 3.35949
672.963 4.14154
764.639 5.12054
857.666 6.12766
949.257 6.72046
1041.25 7.65351
1129.37 8.00072
1216.11 9.13631
1295.37 9.23708
1369.89 10.7063
1432.67 9.40426
1487.15 10.1171
1528.5 6.70098
1562.33 4.28477
1599.05 1.41546
1644.52 -5.17038
1738.23 1.24247
1877.73 -5.06737
2100.97 13.1164
2373.43 14.6032
2674.38 21.2188
2946.48 33.613
3149.89 24.8341
3277.17 31.8748
3336.16 22.3215
3362.33 19.4251
3377.13 17.3891
3399.04 13.4855
3436.85 15.5957
3488.8 14.3004
3557.53 16.596
3634.38 16.5914
3720.48 18.0387
3809.57 18.6212
3901.99 19.5013
3994.36 20.1031
4085.17 20.6554
4173.84 21.3045
4256.81 21.4534
4334.49 22.2221
4403.11 21.3945
4462.14 22.042
4509.76 19.9598
4545.45 19.8369
4589.77 14.5281
4643.52 15.3953
4744.59 15.6309
4908.37 5.4445
5163.42 21.3438
5455.73 34.8193
5767.41 33.9116
6024.47 44.9673
6191.62 33.6691
6284.81 39.3594
6316.35 29.2105
6327.81 23.7644
6335.32 23.3919
6355.21 19.129
6395.36 21.0996
6449.3 19.5593
6520.69 21.5874
6599.28 20.9901
6686.93 22.2486
6777.01 22.2284
6871.18 22.8728
6964.47 22.7573
7058.49 23.069
7149.65 22.9126
7237.83 23.177
7320.45 23.1543
7394.23 22.6614
7456.08 22.6824
7505.24 19.1978
7535.98 19.3847
7575.65 11.6889
7627.45 1.74882
7742.57 13.7142
7939.88 4.40223
8233.92 24.7733
8567.47 33.0041
8873.71 29.6306
9099.07 43.4589
9223.16 28.4879
9274.38 29.2338
9279.74 21.4526
9275.16 14.0811
9281.8 15.6767
9303.4 11.0402
9348.82 14.2456
9405.43 12.6219
9480.96 14.3119
9560.86 13.5809
9651.65 14.5286
9743.26 13.8229
9839.98 14.4091
9936.62 13.6556
10034.6 14.1874
10131.9 13.3136
10225.9 14.0692
10315 13.0899
10391.4 12.4402
10447.1 12.9679
10481.9 5.45149
10502.7 -3.45687
10516.4 -1.1181
10573.7 -10.7861
10732.2 6.83669
11002.6 -1.66869
11332.8 17.6441
11688.3 29.5124
11955 16.6857
12140.6 34.8739
12205.6 16.5762
12220.9 9.87699
12203 7.57332
12192.7 -0.233301
12199.8 2.78582
12226.7 -0.456853
12276.8 1.98321
12338.8 0.617687
12415.7 2.20161
12496.9 1.35274
12585.3 2.60022
12673.7 1.83797
12762.6 2.62885
12849 1.85861
12931.5 2.24913
13007 1.7855
13074.1 1.16735
13127 0.503909
13167.8 -4.16593
13184.5 -7.93722
13192.4 -37.9123
13187 -29.1502
13103.4 -279.011
14823.3 292.12
12403.1 3060.87
10051.2 2524.37
9026.56 2232.23
7927.42 1954.42
6837.71 1695
5715.22 1404.08
4274.15 1063.2
2820.62 700.262
1400.94 350.463
-80.1277 -417.922
-142.496 -516.598
-144.871 -555.298
-55.5035 -91.8352
316.519 265.823
987.274 830.924
2123.98 1123.87
3446.11 1212.13
5090.57 1090.09
6274.83 719.89
7350.57 438.946
6519.43 225.249
4904.94 272.692
3152.61 255.247
1403.52 83.4141
-124.024 -569.399
-836.227 -1163.25
-1387.47 -2177.67
-1197.17 -2555.9
-877.126 -3070.66
-514.951 -2491.73
-227.683 -1441.46
83.8526 804.979
213.482 1338.32
392.003 1644.15
537.048 1366.78
634.049 1181.19
348.41 608.963
-12.3801 283.412
-804.138 -93.4484
-1700.28 -202.994
-2636.93 -212.733
-3525.67 -164.488
-4057.89 -187.505
-3502.65 -291.493
-2882.68 -489.493
-1988.2 -546.022
-1262.54 -531.117
-624.692 -405.242
-218.597 -155.614
9.7252 2.71129
83.1808 228.295
82.9149 196.014
53.0515 143.52
-78.9619 -106.655
-70.041 -115.968
-67.0794 -35.2658
40.6124 334.211
380.295 625.86
906.196 983.599
1796.06 1146.97
2761.92 1132.79
3961.67 978.283
4787.98 632.399
5478.91 370.83
4479.42 123.603
3042.74 142.48
1599.98 47.6919
367.128 -158.038
-697.034 -765.171
-1062.04 -1248.3
-1337.62 -2044.84
-1047.28 -2224.83
-769.334 -2463.89
-414.774 -1874.48
-158.985 -1016.84
57.6364 734.834
172.362 1178.33
338.227 1449.9
453.811 1237.76
568.578 1097.24
372.489 615.022
140.98 335.397
-457.8 -8.03666
-1135.99 -126.435
-1876.25 -165.662
-2608.7 -140.556
-3188.4 -134.713
-2844.41 -198.806
-2424.68 -366.005
-1738.28 -447.903
-1162.17 -494.8
-617.307 -445.874
-273.049 -297.084
-51.3142 -168.289
40.0559 13.7035
44.5456 51.6522
54.2593 50.089
-66.2946 176.125
-42.7593 339.69
9.56024 493.748
167.896 740.316
449.178 932.901
834.963 1104.92
1491.45 1129.91
2119.83 990.949
2873.82 802.943
3329.41 485.944
3612.11 273.728
2571.6 51.8262
1523.92 29.3051
457.975 -119.904
-297.804 -330.822
-1004.11 -900.468
-1056.1 -1261.77
-1143.61 -1819.23
-910.268 -1803.2
-564.098 -2050.44
-291.757 -1532.88
-142.561 -771.147
35.5557 649.129
129.261 1019.06
276.931 1251.7
384.425 1084.52
508.809 990.522
389.587 617.795
292.392 394.816
-130.116 91.1856
-577.108 -22.1446
-1159.34 -88.0567
-1705.72 -75.7664
-2298.64 -92.3211
-2132.19 -148.226
-1912.29 -296.14
-1452.58 -368.448
-1075.69 -457.285
-656.689 -449.579
-379.466 -403.088
-154.694 -319.346
-37.8737 -185.151
5.79222 -115.884
40.1164 -30.8467
-6.43693 521.396
69.1519 834.019
216.883 1086.63
392.481 1136.82
733.462 1264.81
963.857 1064.15
1329.93 1019.44
1530.02 780.239
1867.98 610.642
1808.37 324.594
1743.65 183.649
650.977 9.28238
-58.9349 -42.2448
-696.593 -211.575
-1039.64 -395.029
-1349.36 -796.228
-1219.33 -1061.16
-1146.31 -1465.21
-776.362 -1490.35
-545.882 -1490.12
-257.837 -1064.29
-66.9014 -491.629
11.467 544.476
86.855 835.199
206.558 1025
296.976 940.229
431.189 887.767
419.838 604.376
415.971 430.254
207.216 176.511
-50.6996 65.1398
-418.344 -22.0162
-821.015 -35.6183
-1403.23 -71.9743
-1402.71 -107.811
-1422.14 -238.918
-1186.71 -303.944
-1037.24 -456.33
-726.759 -470.293
-545.64 -545.873
-306.754 -465.955
-188.781 -437.965
-74.2081 -303.129
-6.95095 -137.496
-252.928 20.6696
-196.481 40.9829
-192.971 42.1023
-189.997 49.5181
-185.25 50.469
-180.896 52.614
-176.62 52.4402
-172.707 52.5428
-169.236 51.8977
-165.891 51.2894
-163.04 50.4145
-160.004 49.5701
-157.601 48.6221
-154.666 47.8555
-152.438 47.0672
-149.415 46.6706
-147.169 46.4633
-143.812 46.8562
-141.285 47.88
-136.828 49.2952
-133.155 52.1053
-125.261 53.6747
-117.489 57.3166
-103.958 57.0361
-86.379 57.0255
-64.991 70.694
-29.46 87.5677
2.30751 -50.3327
11.2304 -70.6741
3.9648 -69.7903
-2.53959 -66.9546
-9.76239 -59.0551
-15.2381 -52.9359
-19.5943 -47.5805
-22.0661 -42.8371
-24.6143 -40.3149
-25.1555 -37.0289
-26.9123 -36.0762
-26.6163 -33.8122
-28.0445 -33.5643
-27.526 -31.9618
-28.7096 -31.8702
-28.32 -30.6772
-29.256 -30.3524
-29.2927 -29.1594
-30.0628 -27.8134
-30.9694 -25.7349
-32.0811 -22.1625
-32.2204 -18.2886
-38.7405 -12.4465
-43.7563 -4.36099
-46.0975 0.132384
-77.3187 52.3957
-57.2783 -28.707
3.29292 -64.7478
2.36831 -44.7991
-9.91382 -43.5944
-20.0976 -31.4416
-29.1003 -25.8416
-37.9405 -18.6953
-41.6124 -13.7553
-46.8392 -10.9945
-48.8696 -8.65606
-51.2914 -6.37808
-53.1773 -5.12132
-54.6185 -2.91496
-55.8201 -2.29677
-55.9946 -0.673213
-57.8471 0.876869
-58.5498 3.10201
-60.4283 6.34032
-62.2585 10.4176
-65.5854 17.2504
-68.0904 26.4742
-77.3784 36.797
-84.1557 48.0753
-80.3575 55.2013
-98.4566 109.353
-80.9114 49.5097
0.516994 -18.0647
-15.792 -5.53477
-25.7101 -0.728682
-45.3759 4.34252
-53.1746 9.59013
-64.0546 12.2806
-69.3354 14.7228
-74.2877 16.0632
-77.2389 17.016
-79.3699 17.9728
-81.9792 18.6705
-83.6354 19.8802
-84.7386 20.7294
-85.835 22.0389
-86.7258 23.9371
-88.2639 26.1482
-89.0464 30.2871
-91.5271 35.0377
-94.0095 43.8486
-98.1051 55.0696
-100.387 70.4157
-106.463 95.9459
-96.2881 116.762
-41.8545 119.536
-92.8525 115.261
-11.5845 34.3131
-35.3769 33.1173
-51.4981 35.4179
-71.7941 35.7671
-83.3793 38.738
-94.3297 36.3065
-99.0995 35.3656
-105.58 34.7608
-107.862 34.1926
-109.277 34.2699
-112.195 33.8932
-113.588 34.1714
-114.577 34.4119
-116.133 35.5023
-115.903 36.7862
-115.907 38.7204
-117.306 42.3745
-117.013 47.216
-118.454 54.9006
-115.384 64.4071
-118.649 79.3917
-118.682 95.6021
-105.927 101.453
-103.562 141.681
-74.827 125.374
-945.654 -73.661
-3731.29 -21.8068
-1116.38 136.723
-720.968 -60.4729
-454.357 8.51907
-596.457 -91.7408
-540.809 -64.3093
-2704.98 -207.056
-2210.69 -38.0797
-1862.63 -30.5784
-183.243 -74.9004
-173.304 -27.2721
-107.972 7.24298
-39.4468 37.7077
131.006 310.92
-124.967 -25.382
141.399 323.716
169.027 343.142
188.072 321.654
-2309.1 117.454
-1832.82 189.232
-561.188 24.5506
-852.292 -2.18231
-1864.55 -9.54905
-1257.25 38.4042
-20.6994 71.1928
-1600.26 -330.058
-3770.81 20.0672
-1040.53 -68.0634
-60.8218 38.3651
-6165.61 -187.196
-1340.81 4.60845
-2787.2 6.86896
-4152.86 -5.04736
-5251.16 -25.6971
-4220.7 -108.431
-4405.99 -67.9514
-3944.75 -73.9174
-3168.68 28.7412
-3301.75 -10.7405
-2262.68 41.0039
-1622.3 1.17115
-1088.29 -4.80545
-2050.15 150.365
-1014.16 -71.4165
-214.09 -120.446
-380.697 -101.569
-364.402 -56.44
-308.577 -112.835
-108.972 -31.8741
-135.272 -115.501
-101.004 -56.7261
-257.308 -118.277
-73.1841 -65.6813
-87.2938 -45.0362
-66.1433 -52.3428
-199.791 -101.222
-27.5709 -82.678
-11.3691 28.9258
-15.0421 -44.2919
-1121.35 -190.677
-485.471 -127.185
-1253.03 -346.899
-494.165 -131.896
-17.2184 70.6524
6.23204 156.495
-87.3512 33.8375
-99.7249 -4.66454
-76.4327 10.2118
-115.639 -16.3101
-8.3983 126.029
-32.1437 120.079
-5782.27 -554.275
-5805.51 -993.463
-6515.09 -0.767898
-7506.01 -1026.71
-779.976 23.8969
-1391.65 -22.0391
-1613.75 -13.9638
-901.396 -8.19541
-1627.81 -12.3512
-952.793 25.9596
-553.708 46.0358
-720.112 32.8508
-2014.6 -31.538
-1653.2 -37.7947
-1759.88 -34.8021
-1969.87 -27.2246
-4365.85 -95.877
-471.076 33.0688
-487.358 43.8975
-1443.71 -11.374
-1263.37 -37.7822
-923.236 -16.1811
-1498.22 -33.587
-1782.41 -11.3816
-2074.99 5.16659
-1373.83 -18.7177
-1747.78 46.3932
-2743.09 -64.4814
-2211.03 -16.3665
-760.438 -7.1926
-759.776 -6.20026
-754.304 -9.27889
-754.011 -9.9828
-678.689 -11.7809
-678.943 -14.8121
-563.371 10.2934
-513.742 2.77914
-346.129 25.3758
-346.962 24.7974
-293.402 22.8419
-292.899 21.7889
-491.188 19.4565
-272.301 20.3507
-270.521 20.4252
-352.466 12.0322
-352.555 13.5836
-445.317 14.68
-645.295 13.1517
-687.216 16.5683
-705.701 18.6814
-725.859 21.6583
-513.542 4.93623
-533.613 7.21028
-532.836 8.54414
-563.87 9.60359
-554.934 -3.36333
-718.577 5.72042
-856.322 12.1515
-919.046 18.4522
-993.52 -3.50305
-1042.21 4.32152
-1072.45 8.53803
-2560.27 -52.8817
-111.995 13.8311
-975.428 -21.4161
-845.41 -6.1258
-903.498 -0.105259
-999.065 3.60719
-1054.45 7.51688
-1097.32 10.6796
-1129.84 14.0068
-1149.06 16.4829
-1109.32 23.1238
-1395.85 -15.8314
-1440.72 -8.30631
-1460.81 -3.02026
-1503.64 0.819491
-1534.32 3.83967
-1585.04 6.63783
-2147.93 10.0431
-1909.88 -34.3247
-1981.18 -26.8014
-2056.12 -20.5141
-2122.52 -16.5653
-2271.74 -13.7708
-2289.22 -11.6567
-2152.31 -9.96996
-2119.56 -9.15908
-2926.03 -74.9974
-3023.17 -70.6547
-3105.35 -61.1035
-3169.03 -50.8248
-3228.66 -41.1707
-190.688 11.6492
-160.038 10.4023
-254.009 16.3809
-227.629 14.1619
-313.377 19.4741
-286.751 18.3562
-342.906 20.6523
-3506.97 -97.8479
-3399.06 -50.6502
-3429.97 -22.9625
-3359.9 -27.2962
-3277.02 -33.8015
-2019.2 16.4434
-2111.9 13.1843
-596.32 47.7838
-1361.45 27.8125
-1062.77 28.431
-144.472 9.50471
-229.157 9.17688
-297.655 13.8363
-359.052 16.7126
-387.425 20.2904
-569.775 38.8369
-686.674 37.401
-1113.84 -12.776
-1130.47 -16.9097
-1129.43 -8.01376
-1240.02 2.76017
-1327.56 9.34821
-1323.03 17.5972
-1871.23 -16.7802
-1955.98 -4.65856
-2047.77 2.51291
-2309.71 5.98674
-2486.91 10.1236
-2417.97 20.2616
-2646.58 51.7059
-2561.08 -37.5855
-2583.47 -34.5893
-2716.05 -20.2992
-2799.28 -13.0578
-2785.48 -10.1657
-3385.41 9.39762
-3623.11 -56.7815
-3782.56 -49.9193
-3891.9 -34.3239
-4008.4 -23.0017
-3710.76 -17.7797
-99.9189 21.3867
-161.684 15.003
-217.466 18.753
-268.928 22.6188
-410.659 26.4539
-336.562 24.1495
-503.156 55.7764
-2782.73 -107.47
-3025.1 -29.3642
-3342.69 -10.3523
-3332.75 -13.2863
-3058.97 -21.7352
-2698.91 -34.2959
-2424.46 -78.6496
-2169.11 -98.1462
-2627.66 -2.73968
-2714.29 -7.88083
-2073.54 -9.33887
-1849.51 -45.2082
-2440.48 -53.2918
-2017.57 -58.8938
-1680.59 13.2941
-1937.77 8.69759
-1585.54 8.50227
-1344.14 -23.9168
-1617.79 -34.2563
-1255 -47.1735
-774.61 -12.4941
-918.929 -21.781
-3241.97 3.65549
-1963.48 -14.2789
-639.745 -24.6134
-891.047 -16.0353
-646.541 44.9808
-1142.92 32.9053
-450.477 29.1279
-78.5974 27.7902
-3770.46 -195.801
-61.1245 46.9916
-64.0946 42.6286
-96.752 14.5583
-138.938 6.98023
-189.059 4.11681
-231.954 5.96853
-269.182 8.01604
-309.689 9.97056
-342.301 11.2476
-380.453 12.4846
-409.505 12.7099
-441.849 14.3631
-439.659 17.653
-467.904 19.2507
-497.307 20.9275
-540.967 21.8123
-574.24 24.9956
-618.745 27.1618
-686.406 26.5556
-729.681 26.8198
-778.327 24.0554
-815.549 16.5906
-1252.94 13.5953
-1282.76 -8.9717
-1362.63 -14.4442
-1391.97 -14.9755
-1330.19 -12.9874
-1341.99 -9.55239
-1398.67 -4.28921
-1440.2 -0.857194
-1495.4 1.89096
-1535.45 4.0985
-1568.27 6.09689
-1595.31 8.33188
-1558.3 12.6194
-1592.13 15.8312
-1673.72 17.4793
-1722.27 18.5767
-1793.28 16.0115
-1830.66 8.24124
-2179.45 38.6504
-2204.51 -15.7899
-2304.81 -25.6807
-2409.35 -25.0231
-2438.2 -23.0419
-2291.58 -20.9362
-2292.51 -16.5851
-2336.5 -10.3269
-2377.92 -6.73525
-2420.31 -3.59839
-2468.97 -1.653
-2520.16 0.209081
-2591.5 1.61824
-2804.59 1.27001
-2853.29 3.13612
-2817.29 6.47322
-2837.64 9.43469
-2807.36 14.1059
-2863.54 10.7252
-3020.11 -6.77762
-3137.76 61.057
-3262.77 10.3113
-3243.44 -19.2161
-3027.98 -36.2307
-3034.23 -41.8302
-3109.64 -35.8116
-3162.02 -29.1313
-3231.19 -22.6618
-3284.73 -18.0505
-3350.27 -14.1336
-3390.84 -11.8685
-3408.88 -9.92466
-3426.2 -8.89894
-3394.57 -7.74397
-3388.66 -6.88947
-3350.02 -4.9504
-3289.35 -0.736942
-3502.95 11.7956
-3692.52 18.7137
-4091.61 34.0065
-4219.96 -19.8131
-4272.1 -38.1657
-4366.63 -41.1126
-4406.5 -38.0825
-4469.64 -32.4035
-4505.15 -27.0512
-4553.22 -22.3577
-4586.59 -18.5981
-4656.16 -15.8991
-4580.17 -14.0742
-4213.38 -13.8759
-4133.19 -11.8972
-4126.93 -9.28273
-4197.09 -7.40903
-4217.12 -7.62119
-4342.88 -9.34678
-4717.32 -16.5347
-4892.2 -34.3621
-5152.42 -72.4326
-5346.93 -158.753
-3291.55 -343.99
-2546.15 -283.626
-90.276 24.6349
-69.5878 33.6536
-136.869 19.2045
-120.642 20.2552
-180.796 22.2015
-167.099 20.5705
-219.843 25.3349
-207.054 23.9719
-262.218 27.1023
-246.425 26.3504
-363.017 33.2386
-350.566 30.3777
-322.226 28.2859
-304.983 27.2011
-399.757 42.1306
-395.702 37.4665
-391.758 52.4564
-379.019 47.2168
-436.114 56.8003
-2074.26 -189.977
-2144.29 -118.107
-2041.5 -68.037
-2109.68 -39.4736
-2457.65 -23.7755
-2506.87 -15.4608
-2488.81 -13.9148
-2487.93 -14.8868
-2495.41 -17.4308
-2432.44 -20.5578
-2151.51 -24.7927
-2074.63 -29.2956
-1991.23 -34.8357
-1951.6 -42.3084
-1891.39 -51.292
-1847.9 -62.8638
-1763.87 -75.3974
-1662.43 -90.5831
-2011.79 -13.6448
-2034.71 -9.71313
-713.853 -8.05117
-619.849 -18.9804
-1767.13 -53.7692
-1623.63 -64.2722
-1227.61 11.0271
-1323.01 11.3409
-1420.44 11.4377
-563.449 10.8832
-460.616 0.0841516
-1130.7 -31.1172
-990.554 -37.4371
-281.108 11.4612
-618.424 -16.1897
-544.081 -20.2416
-4739.26 5.39785
-5395.47 -13.1562
-4918.43 -23.088
-4353.83 -30.7586
-3541.63 38.3699
-4005.88 -9.75984
-3082.86 -37.7897
-2538.47 31.234
-1514.43 28.8644
-1238.36 32.246
-1087.57 42.946
-1315.58 42.8983
-2833.77 12.3364
-2247.17 -10.9838
-1989.86 20.7633
-762.51 1.11166
-870.692 38.0611
-1469.01 -100.66
-1260.27 -64.8604
-830.979 -44.431
-410.829 -18.7591
-1209.31 -8.80555
-2605.75 -10.2219
-2075.6 38.2563
-909.113 -59.0758
-886.155 -27.4692
-775.425 9.41915
-701.193 32.9895
-598.265 45.7672
-467.097 56.2406
-1610.18 -19.8555
-1474.33 6.11967
-1150.26 3.63293
-917.884 35.147
-656.917 31.6639
-45.858 49.7305
-49.4215 54.148
-4866.09 -361.264
-4163.78 -334.303
-31.5977 93.2772
-61.5254 32.9339
-151.193 1.70915
-232.002 3.5381
-313.76 6.48922
-392.603 8.33929
-465.005 9.97269
-527.12 12.0173
-598.109 13.8964
-686.048 14.6098
-774.789 13.6732
-853.768 8.93491
-919.72 -5.15912
-979.47 -31.6439
-1468.92 23.1229
-1504.9 -1.57021
-1559.47 -10.4994
-1600.47 -7.38096
-1653.43 -3.28079
-1735.31 -0.107198
-1802.9 2.1689
-1864 5.05585
-1946.07 6.64057
-2030.63 3.07931
-2091.81 -18.1789
-2642.42 -7.98967
-2617.28 42.7903
-2563.28 13.3756
-2602.22 -13.5175
-2728.23 -17.1589
-2757.98 -12.4929
-2800.22 -8.18514
-2890.08 -4.91839
-3010.23 -3.21032
-3131.32 -2.33129
-3199.04 0.67306
-3272.3 0.493762
-3387.68 -17.8535
-3712.3 41.3044
-3717.31 -4.4703
-3702.39 -22.6165
-3759.53 -22.1703
-3865.05 -14.8627
-3958.74 -10.255
-4017.2 -8.17166
-4028.98 -6.65821
-3961.54 -1.90627
-4091.99 6.26908
-4344.58 1.36554
-4879.48 29.9702
-4959.8 -12.2616
-5053.16 -22.6813
-5129.36 -18.3861
-5199.04 -13.5032
-5158.32 -11.0673
-5003.38 -9.79308
-4991.03 -6.86071
-5182.98 -3.68353
-5472.27 -6.60916
-5812.3 -33.2733
-5573.97 -294.072
-2958.38 -498.754
-1726.8 -272.893
-45.3857 48.5783
-96.9739 26.7157
-128.723 24.5323
-157.059 26.2017
-182.843 28.5297
-210.467 30.1555
-272.476 34.9857
-242.739 31.879
-288.966 40.5601
-302.283 48.9919
-338.704 56.326
-1331.68 -120.429
-1477.12 -53.6593
-1596.18 -26.0246
-1645.5 -18.6263
-1581.95 -20.8891
-1443.35 -26.8778
-1329.14 -36.4874
-1250.31 -52.7318
-1117.36 -79.019
-788.92 -115.709
-1084.12 -46.7591
-1373.53 -17.7974
-711.651 -10.3782
-620.811 -23.9613
-1067.22 -61.9357
-735.826 -83.5504
-804.237 -3.27605
-977.065 8.78738
-561.862 10.6135
-461.511 -3.23671
-734.673 -29.3165
-478.722 -39.9828
-281.511 9.55098
-414.487 -12.0851
-238.619 -13.0742
-4493.67 -95.267
-4863.04 -39.3297
-4590.04 -59.6794
-3982.74 -117.251
-3309.13 -65.7605
-3612.89 -26.3878
-3507.12 -38.4181
-3186.32 -68.7997
-2234.83 -14.2209
-2387.84 -15.1341
-1448.47 17.9736
-1309.59 27.0727
-925.279 106.1
-4730.35 64.6492
-3548.66 78.2195
-2553.02 7.61017
-1009.79 145.615
-1296.59 77.6783
-1400.45 45.8482
-1246.88 30.3413
-4062.97 100.937
-4269.46 152.198
-2757.74 20.8708
-2501.71 4.97114
-3111.99 115.507
-3239.74 148.811
-2195.86 26.0822
-1876.36 19.2088
-2232.58 76.2592
-2317.34 110.249
-591.224 32.5963
-1200.81 -103.804
-1709.14 -43.6753
-1047.27 -52.1218
-1385.85 8.62477
-686.478 -38.2582
-967.971 4.08739
-1349.12 104.965
-294.198 -3.03617
-377.955 29.2375
-1077.81 -23.6163
-2334.21 91.3091
-1803.4 128.375
-938.754 -92.1829
-844.272 -62.5262
-741.907 -0.203142
-525.809 39.6566
-320.705 29.7595
-1351.31 -46.9922
-929.45 -28.9942
-1025.79 -5.33796
-735.004 13.7084
-748.733 29.5735
-24.6502 89.6842
-4401.69 -608.458
-25.1712 125.396
-19.4515 157.43
-25.7524 119.851
-13.463 183.806
-142.018 7.21728
-163.836 -0.640347
-202.968 0.916974
-234.137 0.577023
-275.628 1.73784
-317.982 2.22091
-358.725 2.62259
-404.956 2.99726
-443.804 3.02221
-492.521 3.1852
-526.628 3.96804
-575.713 4.03376
-606.066 4.8962
-654.345 4.99644
-698.14 4.50007
-743.903 4.63527
-789.27 4.27709
-828.512 4.21427
-871.898 3.47349
-900.767 2.43776
-935.578 0.440951
-956.502 -2.62852
-988.517 -8.44659
-1022.57 -13.4228
-1056.35 -22.4864
-1135.91 -21.9518
-1434.62 15.941
-1556.56 23.2499
-1618.1 15.3862
-1677.42 12.7795
-1695.07 0.338478
-1713.02 -4.20142
-1737.49 -9.31769
-1751.69 -11.1663
-1780 -9.6011
-1805.95 -9.55251
-1816.99 -7.81668
-1853.67 -7.10874
-1895.32 -6.01435
-1938.36 -5.4441
-1978.99 -5.05351
-2024.59 -4.6178
-2052.19 -4.08507
-2096.55 -3.64361
-2131.02 -3.13833
-2169.89 -2.92376
-2217.57 -2.8924
-2246.75 -3.63716
-2282.82 -5.45066
-2305.18 -8.74696
-2330.85 -19.2859
-2368.12 -23.7344
-2468.7 -24.116
-2564.85 -16.9959
-2856.64 14.0125
-2964.39 20.135
-2980.8 11.0937
-3019.15 6.82773
-2963.15 -6.32219
-2972.51 -11.6358
-3070.12 -15.4245
-3083.23 -15.7938
-3110.98 -13.7173
-3138.66 -13.1964
-3139.02 -11.2929
-3177.36 -10.465
-3219.11 -9.2343
-3263.47 -8.54749
-3312.45 -8.22997
-3359.01 -7.62177
-3431.36 -7.87279
-3477.04 -7.295
-3526.27 -7.16211
-3566.92 -6.44748
-3585.33 -5.54059
-3614.94 -5.5865
-3668.08 -6.22768
-3687.32 -10.7432
-3748.02 -15.9801
-3790.42 -23.4446
-3850.99 -23.0049
-3967.54 -21.7149
-4047.95 31.4172
-4193.6 24.4908
-4277.75 20.8182
-4306.51 4.79541
-4325.53 -4.49637
-4306.95 -12.9736
-4310.03 -16.4065
-4312.65 -16.7265
-4327.43 -16.1095
-4378.76 -13.3709
-4408.57 -11.9692
-4461.32 -10.2082
-4501.41 -9.21781
-4542.17 -8.40079
-4587.68 -7.80021
-4605.86 -7.43197
-4653.88 -6.98178
-4648.59 -6.48059
-4696.47 -5.87698
-4635.57 -3.18051
-4677.06 -1.52283
-4866.17 0.0992509
-4892.91 -0.0531791
-4952.87 -3.8275
-4970.67 -8.49832
-5197.19 -20.8989
-5256.28 -20.0006
-5268.54 13.9006
-5407.87 32.8671
-5543.47 26.8128
-5605.2 20.3351
-5637.1 0.656877
-5640.39 -7.05193
-5692.83 -11.2166
-5691.8 -13.158
-5730.96 -11.2468
-5747.63 -10.457
-5782.76 -8.79099
-5814.6 -7.63884
-5848.22 -6.78282
-5888.02 -5.93889
-5813.52 -6.14789
-5855.26 -5.44585
-5776.4 -5.35879
-5816.11 -4.66514
-5884.28 -3.77569
-5917.97 -3.30369
-6040.78 -2.45662
-6063.62 -3.52251
-6228.83 -4.05186
-6244.76 -11.6043
-6427.62 -14.5877
-6530.45 -86.075
-3936.12 -902.026
-3341.55 -720.101
-2617.36 -652.853
-1848.42 -429.652
-106.792 28.8834
-108.71 32.6654
-119.577 29.0751
-121.653 29.4503
-131.735 30.1751
-134.366 29.8196
-142.773 31.1624
-145.187 30.8814
-153.492 31.4853
-155.546 31.4109
-167.172 31.5251
-169.106 31.383
-181.615 32.4419
-183.817 31.8009
-192.282 35.2186
-194.564 33.5365
-193.057 39.7182
-195.758 36.8609
-200.406 45.8158
-204.766 42.8775
-222.586 44.1239
-224.159 48.7176
-626.259 -121.216
-624.144 -92.2865
-707.832 -69.3716
-706.962 -49.3782
-779.857 -36.9887
-780.523 -28.7305
-832.918 -24.2256
-833.935 -22.0669
-833.24 -21.2798
-834.019 -21.412
-771.362 -22.3115
-771.747 -23.3403
-694.453 -24.7914
-694.877 -26.6551
-654.94 -29.4957
-655.435 -32.8381
-611.917 -37.4945
-613.075 -43.0061
-515.345 -49.9668
-522.006 -55.9483
-283.133 -73.8237
-236.02 -60.5753
-408.917 -34.181
-683.87 -24.3735
-684.425 -14.6889
-476.25 -26.9448
-480.513 -31.8795
-277.36 -42.119
-225.278 -23.1699
-375.373 0.667793
-457.494 5.87142
-461.503 9.87694
-320.585 -2.27807
-324.89 -2.84354
-195.771 -10.5733
-156.179 12.5377
-266.298 25.8145
-267.304 26.8924
-206.417 10.6352
-207.289 11.9905
-101.669 14.5869
-74.7899 33.5337
-4500.35 -91.7446
-3271.74 -88.9887
-3249.36 -91.1608
-2165.49 -62.2018
-2103.71 -84.2093
-1155.43 24.6979
-937.465 6.25831
-773.128 152.288
-4144.19 158.445
-3896.1 -179.732
-3513.17 -263.113
-3104.82 162.178
-2949.3 -132.772
-2822.51 -71.0183
-2356.35 3.28542
-1950.52 -102.433
-1793.14 -169.243
-2008.57 -86.9056
-1071.66 -4.63496
-1265.52 112.13
-1215.91 107.672
-1174.85 59.936
-2839.94 237.236
-3469.76 174.935
-2136.7 3.18799
-1632.76 -43.2259
-2195.97 238.252
-2651.43 185.599
-1669.35 14.4352
-1206.67 -25.9576
-1585.48 191.212
-1939.56 136.499
-456.294 101.279
-597.481 178.577
-669.2 237.68
-255.919 -42.6892
-884.644 -73.63
-227.7 19.6858
-726.884 -14.7625
-111.307 54.1888
-527.997 8.56045
-1044.09 191.436
15.9575 91.4673
-140.34 32.316
-837.088 -105.73
-741.456 -57.6788
-628.309 -15.6607
-3661.35 204.525
-4125.73 107.328
-4262.85 2.57912
-3808.15 42.2332
-4042.08 -119.02
-3737.27 -218.431
-3403.63 -226.832
-3632.13 -126.711
-3992.08 -28.8284
-3834.21 5.38649
-3430.55 -14.1725
-2840.82 30.3708
-2768.96 208.252
-3091.95 128.266
-3175.37 49.1704
-2862.74 91.795
-2965.24 -68.824
-2730.41 -168.904
-2682.44 -176.897
-2711.87 -122.689
-2600.78 -58.562
-2483.43 -26.0807
-2381.95 -64.7296
-2117.62 0.5721
-2320.32 95.3324
-2039.87 19.2109
-1848.15 -113.002
-1761.05 -173.302
-1817.89 -125.203
-1931.03 -72.3719
-1891.65 -41.097
-1704.6 -70.9228
-1488.58 -7.812
-1277.18 -13.1397
-800.057 272.506
-980.128 201.936
-1062.46 115.638
-948.898 -106.341
-1869.6 230.634
-3038.53 328.509
-3319.98 324.489
-3266.56 -322.552
-2322.03 34.2527
-1866.17 -12.0435
-1428.4 233.225
-2312.67 304.363
-2515.61 300.355
-2500.13 -254.892
-1875.11 10.785
-1520.39 -0.8777
-1666.64 245.744
-1812.86 253.855
-1681.61 -219.244
-338.886 184.883
-616.614 310.536
-884.475 -145.067
-575.675 74.742
-1131.71 257.334
-855.129 -104.803
-437.399 120.717
-845.917 258.279
-716.603 -95.3312
-313.534 118.271
-624.054 219.143
-829.804 346.233
-647.386 -87.6935
-0.870889 146.48
-123.804 228.127
-868.309 -180.257
-830.083 -149.131
-798.95 -78.3395
-614.338 -2.98491
-386.597 -131.267
-600.327 -98.4292
-409.887 -54.48
-634.829 -42.4142
-366.662 -12.032
-466.636 8.16342
-260.202 21.245
-3299.42 250.001
-3433.21 95.6614
-3593.04 -58.3814
-3637.12 -195.687
-3353.61 -154.184
-3229.28 -61.9141
-3055.73 10.6311
-2767.35 32.5658
-2499.35 253.944
-2596.32 143.273
-2695.98 30.6408
-2715.98 -90.6839
-2483.33 -183.84
-2347.01 -114.576
-2205.81 -66.6265
-2001.13 -20.7245
-1880.8 89.6785
-1687.25 -164.754
-1630.33 -121.542
-1584.19 -69.1227
-1468.11 -34.6614
-927.217 235.462
-980.85 197.389
-955.624 77.6707
-958.809 -0.0155471
-1588.38 443.491
-2111.53 498.65
-2671.32 411.343
-2368.48 456.473
-3203.24 -368.402
-3105.8 -353.492
-1792.1 -3.24453
-1262.61 -56.6167
-1724.13 3.82767
-1193.68 406.008
-1602.39 447.737
-2034.28 376.367
-1781.76 421.838
-2432.5 -275.983
-2401.59 -302.881
-1390.96 -20.5576
-1001.42 -75.6375
-1367.21 -50.8876
-1113.45 391.939
-1450.08 319.582
-1247.29 371.238
-1680.46 -221.967
-1644.51 -247.551
-1061.27 -32.1697
-835.353 -72.8862
-1058.32 -75.4758
-240.032 313.933
-398.443 355.765
-525.816 364.134
-880.128 -198.493
-217.16 399.117
-759.106 -68.038
-123.057 392.58
-663.228 -107.517
-26.8559 353.592
-564.884 487.195
-636.417 -136.201
133.425 351.685
-885.67 -233.135
-707.115 -144.193
-416.873 -70.5607
-18.2638 117.757
-9.69814 151.868
-5200.16 -1131.81
-4606.67 -932.879
-138.267 5.40489
-156.407 20.0647
97.5956 43.228
-182.702 -83.7962
-192.9 -68.3427
104.329 102.853
-243.907 -50.0069
-255.469 -26.5772
97.5161 136.64
-222.669 -6.58802
-237.13 10.4599
77.5817 146.59
-2743.75 308.198
-3116.12 196.667
-3324.85 -188.264
-3155.56 -309.664
-2951.76 -255.901
-3034.73 -151.668
-2589.19 14.5496
-2170.95 9.97157
-2068.74 307.106
-2355.06 228.26
-2494.86 -65.937
-2372.57 -174.773
-2333.49 -266.028
-2346.17 -201.869
-1986.6 -60.4546
-1723.67 -66.862
-1456.71 273.196
-1669.81 176.324
-1720.05 -87.2634
-1633.36 -156.52
-1593.83 -229.882
-1596.43 -179.421
-1409.62 -83.4286
-1259 -99.4307
-669.468 313.911
-820.729 263.256
-891.447 52.88
-906.885 -125.629
-904.927 -174.751
-2875.69 84.9153
-3099.98 -120.732
-2810.26 -126.607
-2487.94 -35.166
-2162.7 150.516
-2344.65 -18.1872
-2187.75 -187.649
-1943.07 -123.366
-1508.86 114.929
-1645.78 -23.6996
-1529.46 -182.636
-1394.22 -139.296
-729.548 211.622
-844.213 104.733
-855.247 -14.3416
-911.861 -109.199
-1219.01 616.533
-2134.69 422.277
-2826.68 -50.1878
-3180.1 -407.967
-3056.34 -386.52
-2482.69 -153.05
-1640.73 -21.263
-877.255 555.811
-1581.13 407.911
-2117.42 28.8424
-2420.64 -291.321
-2401.39 -344.801
-2020.4 -211.378
-1340.68 -114.301
-1058.09 372.042
-1459.15 54.2239
-1691.61 -212.494
-1689.04 -291.009
-1458.32 -225.438
-1071.36 -147.137
-109.615 450.292
-410.684 379.169
-696.553 152.048
-917.874 -87.9248
-960.2 -236.771
177.936 669.539
232.072 680.869
-105.599 792.203
-323.43 553.653
-777.735 521.312
-1316.25 247.709
-1738.32 72.1672
-2504.23 -26.3641
-2837.81 -183.219
-3367.61 -184.582
-3456.89 -246.179
-3289.88 -328.954
-3030.23 -276.967
-2406.37 -352.946
-1998.53 -278.461
-1395.52 -223.77
-940.03 -203.682
-597.74 -71.6545
-233.978 -82.3013
-138.085 -16.7066
154.907 628.516
208.301 648.056
-35.3607 729.535
-175.801 531.538
-523.692 503.78
-916.559 263.336
-1228.51 122.638
-1819.27 22.9384
-2081.2 -115.249
-2528.67 -119.65
-2635.95 -195.894
-2596.41 -248.054
-2458.08 -243.375
-2013.87 -319.95
-1684.66 -297.013
-1188.25 -285.669
-814.086 -269.135
-525.189 -164.546
-239.516 -155.803
-156.441 -64.1652
137.84 565.536
200.556 586.419
27.2914 638.95
-53.2472 495.927
-289.597 480.35
-543.638 280.43
-770.446 149.521
-1204.43 48.0736
-1407.82 -68.2103
-1773.36 -87.8276
-1852.13 -139.887
-1882.14 -198.504
-1787.37 -200.346
-1511.91 -280.839
-1321.55 -265.153
-980.164 -292.321
-755.729 -272.545
-523.636 -229.787
-300.924 -241.763
-203.763 -160.742
131.853 511.793
196.567 550.738
161.617 596.789
166.105 489.119
50.2221 475.868
-65.5955 311.83
-208.259 220.506
-478.344 121.381
-631.695 20.6946
-923.86 -8.12165
-1011.82 -88.0769
-1119.95 -132.482
-1089.46 -174.7
-1008.03 -247.045
-929.013 -221.182
-759.659 -276.43
-594.801 -229.423
-434.059 -225.779
-257.508 -200.927
-164.997 -138.794
-249.324 -16.5542
-550.028 -57.3332
-795.178 -164.041
-889.157 -242.623
-935.737 -174.515
-815.236 29.6659
-570.448 275.342
-288.818 430.229
5.07887 381.309
182.542 237.673
-418.539 -160.546
-852.242 -120.704
-1268.91 -165.283
-1568.85 -248.335
-1692.99 -269.838
-1594.93 -103.179
-1298.18 214.292
-883.53 460.04
-349.327 394.441
163.752 202.451
-373.723 -139.539
-976.088 -106.129
-1702.58 -136.756
-2240.61 -266.25
-2411.98 -349.341
-2270.68 -143.779
-1884.33 233.336
-1319.64 515.659
-547.051 456.909
147.349 191.712
-382.415 -143.063
-1189.41 -43.0421
-2094.92 -37.7077
-2780.44 -244.247
-3140.17 -434.441
-3017.8 -261.952
-2527.5 200.662
-1778.91 569.384
-781.097 498.078
148.622 138.019
-899.543 -48.3949
-880.137 168.339
-1522.12 -123.291
-1719.02 37.2028
-2183.17 -115.36
-2445.82 86.5977
-2878.91 -28.9095
-3238.39 -2.59083
-884.444 -165.271
-754.788 325.295
-1270.08 -38.044
-1635.18 -222.226
-1697.86 -191.865
-1606.27 302.944
-1758.76 -5.02596
-2454.82 -264.795
-2499.42 -204.171
-2244.94 355.582
-2261.36 47.8949
-3136.89 -269.401
-3345.66 -326.05
-2959.34 380.102
-444.595 -10.4723
-515.269 -66.7222
-376.842 -129.408
-5107.09 -608.045
-18.1518 76.065
-485.43 269.195
-838.772 -27.2899
-1302.66 302.4
-1022.21 -51.422
-1837.39 364.848
-1323.64 -65.4837
-2391.43 402.523
-1019.07 25.6063
-1090.73 180.758
-1662.51 -26.3108
-1741.13 -113.029
-2057.71 106.729
-2246.14 -27.2128
-2502.77 -110.833
-2946.35 -1.33378
-2758.71 177.244
-3258.94 31.7384
-3584.44 -68.7816
-3944.55 -83.0346
-3645.01 156.069
-476.3 26.1175
-720.016 -12.8945
-802.521 -69.1188
-659.541 32.45
-816.234 -16.8892
-862.614 -118.009
-216.61 85.174
-827.49 67.5142
-1061.89 78.5301
-1383.07 35.5257
-2025.46 185.353
-1992.53 27.917
-2784.12 238.016
-2396.33 25.3193
-3680.17 252.075
-1015.51 -51.1008
-855.509 211.74
-1297.22 12.6146
-2120.15 -38.9961
-1891.44 -135.616
-2009.8 -62.3404
-2592.85 56.5428
-2712.84 -20.6571
-2925.19 -118.709
-2968.86 -135.996
-3419.16 86.5213
-4403.48 -5.32186
-3666.46 -192.372
-4131.83 -147.876
-4593.58 62.5194
-99.1202 -8.45981
-294.049 -46.9872
-467.619 -92.2686
-490.245 -143.031
-697.517 95.8135
-1855.01 95.9595
-1352.04 1.40199
-2527.24 127.52
-1899.54 -19.6062
-3263.89 92.9254
-1334.01 54.9173
-1446.75 46.7595
-1020.81 33.7434
-2319.36 -40.1818
-3575.34 -46.0467
-4875.3 -43.3461
-336.337 -16.5497
-591.248 -34.7657
-875.862 7.50466
-915.311 -73.4889
-1343.53 -24.7122
-1011.11 -94.8197
-1203.96 -61.9895
-1288.32 -41.9643
-1366.59 -30.0339
-1519.99 -23.0578
-1644.67 -18.3249
-1646.72 -18.4551
-1543.96 -31.8697
-1406 -74.7064
-1252.08 -163.926
-371.843 59.8188
-315.339 54.0149
-291.76 44.2748
-285.915 37.2341
-260.203 32.5838
-227.124 30.5397
-195.902 29.3358
-170.581 27.4269
-143.585 24.7692
-113.118 23.9249
-78.1759 30.1653
-2206.42 -409.792
-3695.59 -548.311
-6021.15 -68.8259
-5648.64 -7.72716
-5309.28 -1.94551
-5059.82 -4.21787
-4922.64 -7.94489
-5082.16 -10.0009
-5233.16 -11.2834
-5166.08 -15.321
-5094.82 -21.2716
-5013.66 -24.1305
-4906.01 -1.78879
-4845.55 66.2818
-4282.46 10.4767
-3900.82 3.91181
-4022.4 -5.02932
-4034.6 -7.13295
-3999.68 -8.67798
-3918.92 -11.8024
-3812.95 -18.0521
-3707.84 -26.212
-3700.35 -21.0076
-3735.66 13.4013
-3680.77 71.6081
-3451.98 -32.7256
-3327.44 -2.37926
-3218.3 2.90537
-3180.1 -1.1105
-3082.59 -2.97862
-2938.87 -3.7827
-2842.17 -6.01288
-2759.46 -10.3299
-2758.74 -15.7756
-2701.31 -19.7144
-2502.26 -4.39925
-2615.99 39.7456
-2068.32 -0.915713
-1994.09 7.27379
-1898.08 6.65272
-1829.59 3.5319
-1775.79 0.962401
-1695.63 -1.42757
-1612.8 -5.59095
-1590.45 -10.3781
-1531.09 -12.0468
-1479.5 8.62976
-954.281 -18.1134
-889.568 5.74175
-817.572 13.5404
-730.736 14.8939
-640.995 14.0816
-555.198 13.6328
-497.102 11.1864
-431.249 8.87224
-354.604 7.56127
-273.802 4.97332
-189.478 0.962926
-107.549 1.2773
-26.067 83.7795
-31.8259 91.2663
-1157.62 -3.87615
-501.398 -16.0402
-1088.45 -45.6494
-1645.71 -45.9504
-1966.33 -98.2939
-2393.39 27.2329
-3097.52 22.9905
-1150.25 92.6583
-1589.63 22.4962
-2466.71 7.59691
-3645.84 -9.42576
-4303.68 -62.0104
-4862.49 -41.1702
-483.278 -7.81021
-867.14 -22.1196
-1071.83 10.4424
-1198.94 -47.5307
-1394.53 -11.7177
-4637.84 -168.519
-67.9855 29.1505
-831.339 35.4929
-1585.76 14.9728
-549.265 58.5336
-738.592 33.6387
-1030.44 -1.00803
-2581.28 -0.459619
-1447.11 30.8243
-760.604 -27.7579
-1403.24 -42.6216
-1771.91 12.9256
-2355.31 -59.7902
-2674.42 -5.47414
-2335.17 -90.7411
-2497.63 -62.8592
-2615.26 -40.8785
-2779.78 -26.8765
-3340.1 -16.1308
-3325.96 -9.77147
-3363.69 -10.6925
-2677.69 -53.834
-2888.91 -174.019
-465.672 51.3493
-505.273 37.6574
-382.157 24.0913
-439.552 28.7471
-295.579 23.7147
-243.232 21.031
-191.089 16.4693
-130.091 13.6831
-4113.39 -35.38
-4077.95 -18.6543
-3938.22 -26.8317
-3842.64 -40.3732
-3716.49 -56.5878
-3522.81 -49.5916
-2752.16 -8.31018
-2816.22 -10.4644
-2780.3 -15.1959
-2649.25 -24.9941
-2510.78 -42.2728
-2777.11 -6.12024
-2451.15 14.8774
-2523.67 6.49034
-2098.72 5.70826
-1997.09 -0.092994
-1912.75 -8.54481
-1824.35 -24.4984
-2117.23 -29.9565
-1907.44 -30.8407
-1284.55 23.7159
-1360.47 12.3346
-1294.89 6.49175
-1184.67 -1.34185
-1070.4 -14.9894
-1193.09 -18.3257
-639.696 39.665
-388.982 17.2745
-330.051 15.7059
-265.124 11.851
-191.407 6.7859
-93.1752 15.2775
-1487.17 -9.79239
-1763.34 -12.646
-1464.4 -16.5392
-1315.81 -27.0358
-1071.53 7.52654
-1010.38 2.13139
-971.079 -7.87451
-938.888 21.2427
-899.644 15.3473
-814.356 8.40133
-623.68 1.86262
-510.113 21.7479
-471.345 17.9419
-616.233 27.4348
-1653.15 4.17334
-6396.78 -366.539
-19.371 21.0225
-28.3072 47.23
-988.495 -229.819
-60.025 -104.715
-187.309 -118.095
-239.82 -95.379
972.715 253.596
1167.21 443.627
899.986 36.243
7051.31 -34.2489
2803.41 15.6553
5353.7 -295.668
5387.18 176.335
1358.16 144.672
251.053 27.76
615.809 189.609
971.344 235.166
742.204 285.928
8096.02 233.653
1849.61 119.758
9886.05 61.4475
227.457 142.132
100.537 182.809
-193.253 174.565
-369.512 -216.339
138.504 254.004
-351.487 -49.3019
-431.539 -421.837
-436.82 -574.669
3349.55 89.3351
1259.15 71.0611
3867.84 -17.5634
6634.28 -30.1351
1995.87 -126.499
-264.6 -101.06
4583.12 80.3144
3008.02 438.568
1812.5 104.594
1105.76 111.872
-355.175 -12.8196
11789.8 320.968
9506.51 15.3875
1674.89 -165.086
7646.33 73.7123
5600.28 -67.4383
8060.11 147.071
3390.37 236.652
2774.6 166.068
363.695 123.61
604.701 212.447
489.168 230.761
462.367 385.761
105.572 159.894
166.66 335.579
136.753 211.154
386.502 266.063
98.5433 108.368
133.792 77.1199
106.631 84.2852
333.225 99.0813
48.0168 25.8312
17.3763 -190.194
28.5188 -52.1948
2105.25 191.053
929.295 64.7079
2345.76 484.396
919.099 135.508
10982.2 879.445
11104 1572.68
12587.5 33.4635
14198.4 1604.62
-162.831 -22.6656
-62.7263 0.435828
-303.741 -175.703
-358.391 -206.677
-397.976 -93.0344
-418.692 -282.032
-290.801 0.146957
-310.131 -46.1299
1329.05 23.6125
1378.63 32.0941
2476.95 40.285
2906.93 21.3115
1558.38 7.61001
2946.97 13.7869
694.751 5.72808
1772.33 26.1408
1833.49 18.9152
2427.27 17.862
3609.86 84.0842
3063.62 104.255
3502.87 82.7827
4437.48 95.8939
8272.01 103.58
524.601 25.8168
562.934 12.3618
2644.6 5.57068
2210.33 77.1202
1498.66 89.1128
5121.61 57.0445
1306.04 -0.705155
1300.05 1.31805
1276.09 11.4338
1273.69 15.9156
1127.91 22.8814
1126.84 32.6724
862.491 26.9529
731.126 55.444
523.321 38.491
515.912 38.5963
250.783 43.953
245.382 44.9253
602.293 47.2914
203.479 48.4341
197.575 49.4904
351.264 70.6328
351.802 63.7781
483.148 57.1954
847.304 56.4473
978.678 49.0339
1016.22 45.7806
1107.28 39.5252
732.639 46.8494
785.434 39.3813
786.387 34.5826
858.435 30.1592
722.155 98.5603
986.408 70.7185
1252.99 53.7575
1480.44 40.1482
1640.28 57.6302
1760.9 38.5818
1793 27.6376
4775.7 33.4056
2380.18 16.1633
1996.61 17.2726
674.373 34.3451
-192.789 49.9221
1514.71 108.457
1266.94 87.6674
1380.59 74.1458
1517.6 62.7801
1628 54.7373
1761.64 47.5591
1848.54 41.2669
1941.98 36.051
1969.38 29.908
2395.63 77.2862
2491.66 61.9028
2543.92 50.0549
2628.46 41.6572
2700.43 34.6539
2794.4 27.9091
3841.66 16.0606
3481.21 64.956
3601.73 50.1913
3747.71 36.0935
3880.95 27.706
4171.12 20.9527
4214.77 15.8117
3961.2 10.7446
3927.39 7.10862
5471.98 78.8074
5663.22 73.9041
5822.67 56.08
5949.06 38.0598
6065.7 19.4788
-36.846 66.3792
-100.402 64.4777
89.175 61.3323
34.0776 64.7423
208.691 54.3378
152.601 58.1045
266.615 51.017
6613.17 83.7813
6406.18 4.61314
6462.72 -15.7014
6324.17 -7.26945
6162.35 5.5504
3569.1 11.4321
3756.64 11.5004
1882.94 22.7814
1544.12 45.8135
1104.68 35.6963
778.927 4.30331
-103.232 42.8302
58.3846 55.8304
190.256 51.7561
310.473 45.9624
359.54 45.3244
725.487 8.61408
951.776 10.1518
1743.42 82.5138
1803.13 88.4037
1804.21 78.1218
2023.46 55.7303
2220.92 41.8484
2336.73 30.6832
3315.78 69.6241
3490.62 46.3414
3666.4 31.3722
4166.53 20.4815
4491.22 11.4224
4292.5 1.35697
4773.74 61.3823
5018.6 34.7487
5194.91 19.8186
5206.45 11.3208
6346.79 -84.138
6820.78 47.6821
7134.31 40.3936
7351.89 13.1044
7583.6 -7.8495
7008.63 -24.4496
-250.159 53.817
-118.521 75.1907
-1.43909 71.7597
107.064 62.9619
400.929 40.7344
249.437 52.2191
601.699 6.44788
5223.56 84.1119
5686.92 -36.8362
6300.25 -56.0905
6278.44 -43.9501
5745.23 -25.6074
5046.9 -2.60284
4509.9 82.3651
4015.91 117.52
5289.03 -15.7371
5180.26 2.83582
3878.88 4.76529
2923.02 19.7933
3438.83 20.6446
2755.66 23.8874
2304.42 96.4765
2783.61 108.874
1135.62 106.512
1405.02 115.189
3539.97 254.916
3433.61 125.199
4566.26 41.9817
2102.38 144.711
2873.65 111.55
6590.78 -16.3299
3971.75 3.71482
871.322 149.582
1328.02 108.869
2689.88 26.9498
2448.62 47.6754
1941.29 47.4275
1153.56 59.8835
870.74 17.5502
-262.46 17.2766
7110.55 251.286
-276.96 -36.0906
-235.983 -43.8506
-160.562 2.61357
-82.62 27.5327
10.6995 40.1945
89.5671 42.1447
160.022 41.671
234.581 40.4706
297.793 38.8898
368.268 37.4997
426.023 35.9518
483.29 35.681
471.574 38.345
522.909 36.3414
582.337 32.3293
665.702 27.3578
734.215 20.1807
820.086 13.5484
954.233 7.57594
1038.24 6.04954
1128.02 12.1009
1197.72 30.7929
2076.87 -78.5856
2128.22 -26.2336
2023.01 24.3886
2068.41 56.9564
2245.61 63.6987
2295.74 65.5318
2180.55 70.1708
2223.88 65.5162
2335.01 55.4737
2424.2 49.863
2535.17 43.6862
2620.9 39.6869
2708.89 35.4606
2780.64 31.5726
2809.03 27.1331
2882.92 22.2001
2948.07 16.9016
3069.4 15.0812
3377.04 17.8836
3513.53 26.7135
4091.75 45.1403
4188.16 61.891
4372.24 63.1717
4414.55 62.3496
4126.17 65.065
4130.17 59.4809
4224.11 48.7305
4308.55 42.6432
4392.48 36.5842
4488.56 32.4
4584.12 27.8359
4721.74 23.9553
5132.1 20.8327
5226.35 16.2309
5141.2 11.3987
5155.15 5.49052
5046.75 0.915733
5114.76 7.34275
5407.57 28.9965
5434.57 91.7651
5610.73 241.698
5839.14 243.652
6055.39 -59.6648
5973.69 5.3693
5576.85 55.0484
5607.3 70.9839
5829.26 59.4861
5893.85 50.6252
6010.42 39.1602
6118.94 31.6134
6251.64 24.0585
6335.33 19.7499
6380.11 15.4071
6423.78 12.5312
6390.97 9.20582
6404.66 5.96141
6414.56 1.22745
6482.06 -6.12453
6749.22 -45.4611
7709.6 -117.255
7974.64 -12.969
8082.29 22.4685
8267.84 32.0477
8350.58 29.0999
8475.51 19.9165
8549.05 11.1939
8645.01 2.38766
8713.69 -4.69654
8851.96 -9.77709
8705.59 -15.9942
7990.21 -24.1187
7835.63 -31.2421
7825.42 -38.7466
7963.99 -43.6724
8002.7 -46.1223
8248.72 -42.805
8975.95 -24.4024
9313.55 9.13978
9814.19 82.2666
10171.6 227.504
6202.56 483.631
4786.77 371.502
-290.132 57.2894
-333.348 25.7059
-184.274 78.3829
-224.032 72.2799
-85.9552 75.8328
-120.7 78.2763
1.03485 68.3647
-30.8425 72.16
93.641 60.396
56.7258 64.2182
311.362 38.2585
279.875 44.0878
222.358 50.1648
182.504 54.492
392.18 23.7107
378.303 29.2487
393.378 18.2857
356.788 21.2843
476.32 15.9005
3887.16 198.772
4012.1 85.9858
3813.97 4.82226
3936.29 -34.2502
4600.03 -50.3962
4690.93 -58.6487
4656.23 -56.477
4652.11 -50.9227
4664.41 -42.2148
4542.07 -34.5143
4001.26 -26.6694
3853.07 -17.0603
3691.19 -5.33164
3614.17 10.0035
3496.51 28.2244
3411.91 51.8553
3248.35 76.8218
3052.77 109.454
3870.35 7.25757
3888.6 2.66986
1257.44 -2.70004
995.602 46.4428
3113.29 107.253
2819.92 135.92
2075.15 25.9816
2266.15 21.5189
2427.02 20.1681
823.182 24.1185
635.596 67.3394
1862.66 117.233
1616.14 143.842
1348.06 162.651
219.451 79.8772
845.936 123.774
704.278 146.441
6268.77 -125.77
3942 152.197
3582.3 241.411
8829.89 12.9572
10154.1 39.4306
9544.54 22.6237
8014.71 0.537116
5169.34 -137.737
1653.17 -5.39167
3793.33 12.6526
4279.91 -112.649
2620.18 104.134
3193.16 13.826
5498.37 -50.5186
4480.03 -3.8526
3458.96 11.3275
1076.36 94.1828
1241.64 19.6778
2680.25 129.51
2015.33 147.84
438.656 163.743
3390.49 49.4177
2875.68 45.3191
4841.73 -49.4515
2124.85 78.8724
1417.71 154.656
1069.06 175.476
778.524 54.8369
567.068 27.923
1112.05 72.813
962.755 59.6092
1346.62 189.909
1322.82 123.823
3017.28 16.4527
2545.01 48.2532
1941.42 42.2001
-367.972 -25.368
-341.696 -35.508
9229.08 552.705
7879.19 493.174
-299.685 -129.771
-206.797 -44.0872
-29.1577 14.8767
118.242 25.8575
268.046 27.4765
413.218 27.1753
543.988 28.1074
654.452 29.348
787.7 25.2533
957.029 17.6379
1128.32 11.4893
1278.51 16.0186
1403 48.0848
1527.44 104.3
2300.11 -19.3435
2453.31 -9.16014
2532.53 22.7312
2621.34 41.8401
2715.18 43.7111
2846.99 40.4014
3022.5 35.4265
3181.08 31.1044
3326.7 25.5614
3521.05 19.925
3778.18 19.9622
3782.09 42.6134
3775.86 115.672
4733.9 -10.4427
4855.59 29.3987
4992.69 41.4952
5040.17 40.4059
5128.3 36.4921
5308.67 31.0085
5543.33 26.0695
5777.55 21.1277
5882.59 12.5815
5959.84 8.72569
6054.2 57.412
6300.17 124.463
7145.44 -55.0664
7053.02 -9.52235
6987.05 25.7013
7075.77 33.2602
7248.05 24.9287
7439.93 17.6549
7568.36 13.1442
7625.37 8.40872
7701.76 -1.39499
7805.26 -20.6924
7646.76 -35.6173
9234.71 -91.1683
9420.7 -16.3245
9614.19 8.53002
9771.35 4.31754
9914.72 -3.93033
9839.85 -11.749
9539.71 -20.8971
9519.71 -30.5603
9900.58 -35.2719
10470.6 -24.0702
11129.9 34.4014
10621.4 462.414
5572.36 732.726
3244.02 333.513
-383.14 -21.4861
-298.58 59.0385
-220.207 79.1371
-147.867 78.9147
-82.8022 72.6201
-16.4469 65.2561
127.306 47.0795
57.5541 56.8977
171.83 37.1837
214.786 29.5843
327.22 36.3328
2483.34 67.5653
2737.8 -26.8177
2952.72 -56.2656
3040.65 -56.4558
2915.84 -44.5664
2648.99 -28.9057
2428.75 -7.68149
2274.93 26.7695
2015.76 83.5042
1380.13 170.86
2001.75 52.8048
2575.88 10.2805
1259.6 -3.55642
995.667 63.6016
1789.7 135.233
1083.96 204.134
1306.76 46.8805
1595.38 25.7868
826.701 23.1005
634.102 83.0493
1164.72 134.082
670.316 197.6
220.354 93.4049
454.116 136.873
124.559 185.354
6254.83 -180.119
7025.93 -22.5981
6720.48 78.314
5965.92 187.213
4698.08 -35.5689
4534.4 8.93279
4176.53 103.06
3686.26 160.786
8150.97 220.013
8923.85 104.188
8712.39 68.704
7976.93 135.178
4478.18 -271.777
4790.71 -362.636
3839.6 -89.6571
4082.41 -146.524
1333.82 -98.9349
1464.84 -172.283
3053.02 -47.6116
1626.74 77.6476
2382.65 37.7311
6557.99 -50.5709
8904.26 -126.16
4486.85 20.1364
4930.87 -49.1284
4587.08 -22.4628
7635.8 -232.369
7981.32 -312.322
3839.57 15.0412
3266.73 26.375
735.8 56.2331
2168.08 145.348
3140.47 5.63797
1579.81 152.876
2104.89 38.0813
233.875 159.095
363.174 84.6759
3150.94 89.5028
4331.91 -246.643
2387.1 122.83
1414.11 235.357
-68.8742 200.54
840.389 119.989
667.781 89.9984
366.625 122.556
1031.18 138.322
1206.14 219.7
2476.54 63.7416
1575.1 111.876
1735.61 65.5267
-381.617 -114.902
8330.45 934.732
-404.053 -212.153
-395.742 -248.243
-300.639 -182.538
-341.477 -277.653
-54.6223 -7.03219
17.9584 7.31407
90.4608 9.78417
151.479 12.9203
227.993 13.8317
304.472 14.2184
379.428 15.043
463.173 14.7819
534.906 15.6576
623.9 15.4114
683.712 17.4159
773.46 17.0626
827.274 18.1557
914.709 17.4774
998.474 15.6995
1079.7 14.9627
1166.52 11.9195
1234.89 11.5391
1317.79 9.05154
1369.1 10.3519
1434.23 13.9021
1478.24 19.2444
1540.42 36.0773
1617.22 44.6949
1694.92 67.9718
1864.87 67.6042
1985.16 64.5528
2241.29 42.1543
2422.41 16.0981
2643.28 1.15189
2758.14 -2.90326
2857.78 0.297986
2904.15 9.87143
2936.29 18.1409
2974.79 24.2254
3009.69 28.3597
3058.9 29.643
3119 30.0885
3161.71 30.4373
3240.77 29.53
3330.58 28.6792
3418.81 27.7094
3505.85 27.1252
3595.23 26.1649
3668.04 25.3925
3752.21 24.2927
3826.02 22.5819
3898.74 21.7565
4018.89 19.6115
4075.07 20.5827
4209.99 19.8222
4256.07 21.9733
4134.83 39.7071
4216.14 56.2135
4341.8 76.5929
4524.59 81.5894
4803.42 45.8361
5068.9 29.8673
5208.23 7.09285
5406.09 -2.98562
5426.84 -6.20693
5499.06 1.18885
5527.77 16.4704
5550.03 25.0616
5645.08 29.2221
5678.79 31.7147
5720.51 31.5861
5782.3 31.4251
5785.87 31.0679
5866.34 29.7741
5951.86 28.6672
6041.51 27.3027
6138.7 26.5653
6230.06 25.2636
6370.36 24.2715
6458.02 23.0131
6553.07 21.3557
6630.44 19.772
6640.34 16.3212
6699.24 15.474
6764.41 15.0324
6809.92 21.8769
6840.73 50.4835
6926.88 65.3144
7174.11 76.1424
7398.64 61.6207
7577.01 38.1686
7863.77 6.67125
7983.88 -12.4027
8151.33 -20.1546
8163.49 -10.4342
8205.22 -0.486065
8116.13 12.926
8128.88 20.588
8149.64 23.6455
8185.91 24.1665
8249.23 22.4345
8313.92 20.3958
8421.77 18.4005
8504.59 16.6483
8589.23 15.4707
8680.84 14.0992
8726.06 13.2237
8820.8 11.9217
8834.76 10.4829
8927.59 8.57085
8992.96 5.01652
9074.75 1.39748
9115.07 -5.84717
9171.78 -7.92477
8964.7 -9.62084
9709.3 47.8527
9822.62 51.4608
9975.57 -12.7446
10247.6 -52.9492
10524.8 -58.1658
10652.1 -51.0887
10737.6 -20.8398
10753.1 -7.34397
10863.9 2.2039
10870.5 6.54369
10952.2 5.10032
10991.6 4.24139
11064.4 1.95587
11132.1 -0.0358031
11201.4 -1.65405
11283.8 -3.37693
11138.4 -5.98748
11224.3 -7.60252
11070 -11.1433
11152.2 -12.9188
11289.4 -14.7751
11361 -15.957
11605.8 -15.9714
11658.7 -14.1219
11985.4 -9.27456
12027 3.09384
12377.9 15.7883
12567.6 111.786
7467.16 1391.37
6327.44 1107.97
4938.6 985.106
3473.49 635.113
-292.984 56.7209
-305.173 30.2127
-248.086 73.9732
-255.848 67.1459
-204.317 75.423
-209.91 75.2008
-165.487 71.8542
-169.795 73.435
-129.9 67.3021
-133.675 69.2885
-90.1914 62.4326
-93.6485 64.6062
-48.9036 56.867
-51.9335 59.1929
-13.7363 51.0847
-17.079 53.4127
3.97973 48.3787
-0.204626 49.3596
47.7132 50.637
39.2017 47.3119
153.399 80.3758
127.212 59.2259
1183 46.428
1164.68 2.03998
1308.16 -25.8874
1291.58 -45.1878
1419.86 -54.0859
1412.39 -57.6661
1506.92 -57.1443
1504.54 -54.7258
1500.67 -50.6204
1500.23 -46.9326
1379.81 -42.002
1379.7 -38.1214
1231.96 -33.2514
1232.36 -28.4288
1154.93 -20.9501
1155.51 -13.2515
1070.63 -1.27302
1071.89 11.9233
882.217 31.9954
892.118 50.0953
431.249 99.1408
331.458 98.2312
680.662 18.8702
1243.74 9.91161
1233.62 0.284503
693.482 80.5173
700.29 106.611
271.499 145.545
178.404 147.77
531.296 34.1511
670.294 26.7131
663.679 23.1782
386.092 98.0919
386.246 121.519
119.15 156.159
106.879 170.07
285.492 49.3974
271.945 46.0691
74.9178 107.054
79.9079 124.943
-110.344 153.066
-161.196 161.503
6217.73 -199.552
6113.64 -112.91
6125.68 48.443
4062.73 -158.058
4102.39 -112.767
3969.87 -33.4
3883 71.9339
8136.47 187.98
3838.97 -370.028
4767.04 -436.403
5369.47 -82.0508
5246.2 283.39
3220.28 -179.44
3520.16 -215.271
3471.02 -3.45523
3279.77 253.456
1707.2 118.797
1428.68 242.696
2000.73 40.6736
1019.4 -171.812
2513.7 -203.107
3119.52 -428.557
2169.32 -68.3778
2516.37 -234.764
7359.71 304.355
7724.85 -299.309
6688.61 456.792
4739.97 469.63
4134.96 43.3875
2948.82 390.189
3839.42 -15.8296
2939.64 70.1431
5259.64 -523.576
6439.3 -379.837
2903.84 49.3785
2059.38 132.008
3397.05 -573.341
3935.91 -640.987
4547.78 -472.695
4800.16 -276.318
4839.57 74.7275
4853.96 305.777
2751.03 -364.635
3019.8 -406.76
3062.62 -326.31
3142.68 -161.616
3061.2 50.3415
3048.26 242.569
1531.64 175.266
1384.82 -275.518
1889.18 -120.209
1835.28 -48.8577
1558.76 -148.446
1667.6 55.4006
483.906 -57.2305
698.105 -210.581
807.612 -327.415
1015.18 -403.379
360.779 53.0393
1562.57 89.8893
150.539 71.0017
946.645 112.634
2017.67 -384.06
1666.43 -202.301
-321.645 60.5273
-64.4451 120.915
1433.32 158.586
1224.16 175.954
874.59 184.767
6733.86 355.169
7061.86 171.377
7085.92 24.7146
6548.58 -38.0129
6196.44 8.41715
4930.66 -55.6497
6723.51 -400.997
7653.61 -187.929
7859.45 -10.4286
6920.75 -93.8395
7229.77 254.169
6663.3 467.616
4684.69 452.518
4917.94 306.819
4738.67 146.494
4405.45 78.4062
4365.99 172.194
3748.48 69.2707
2915.29 438.336
3039.37 327.827
3271.41 162.917
2527.87 231.402
4072.06 -45.3195
3242.21 30.3361
6106.08 589.059
3411.93 -520.48
5591.71 -673.55
6003.34 -655.795
3257.45 78.5061
2612.06 98.5093
4343.24 568.186
3196.55 -733.286
4056.6 -460.438
4358.1 229.681
1663.05 214.785
2712.54 492.397
2279.39 -502.116
2650.46 -339.194
2738.4 156.954
1238.1 335.23
1192.55 222.996
1251.03 -346.56
1343.08 -293.652
1299.36 -140.246
1299.78 -0.907875
241.177 -195.522
665.604 -463.671
1454.43 171.149
986.087 -192.647
2058.53 -581.785
1170.21 262.92
1630.61 -715.409
2312.02 -871.763
449.791 -131.869
1115.14 -442.026
986.286 369.4
1119.57 -415.101
1601.72 -652.299
819.275 -122.953
856.094 221.42
1100.65 264.76
1148.65 454.012
1123.1 384.876
-288.189 -64.5861
-124.762 -268.189
652.801 181.448
1048.82 122.217
701.905 39.1937
1025.35 116.067
541.123 47.0026
667.825 98.4091
305.964 59.3309
6410.64 284.742
6035.67 102.869
5439.48 -3.53516
4809.58 -52.5955
5933.14 -510.375
6231.63 -200.632
6469.52 74.755
6557.49 332.386
4460.18 382.232
4273.29 260.435
3915.09 184.339
3524.16 120.634
2761.19 406.294
2627.41 328.088
2214.44 281.873
1896.97 270.082
3102.94 20.2186
2162.76 119.605
2990.23 27.6335
5817.13 676.033
5808.22 715.107
2889.89 -928.203
3793.57 -1025.5
4758.08 -848.015
4132.58 -928.758
2369.54 149.56
1652.48 262.711
2316.09 221.689
4188.08 636.64
4114.82 446.935
4267.44 607.766
2836.54 -851.26
3417.64 -660.04
3691.01 -275.388
4078.3 65.0586
1373.93 298.412
1369.39 509.477
2650.88 561.192
2547.07 306.897
2705.01 471.553
1843.5 -680.071
2223.78 -546.068
2291.02 -268.781
2560.65 9.55535
1126.25 343.323
1147.3 435.341
1065.16 218.249
982.302 -423.482
1083.66 -106.926
930.88 14.8568
756.469 -382.739
934.543 -199.568
42.8515 -443.456
268.521 -558.802
456.84 -590.88
671.559 -529.284
1285.58 112.519
315.033 -797.511
1062.97 306.859
1172.25 -1060.25
-69.0212 -620.396
838.634 557.165
556.018 -713.112
-207.011 -210.223
571.748 379.136
974.088 459.207
1136.84 539.1
-558.906 -402.996
-441.324 -207.839
-465.189 -266.658
9907.97 1767.54
8769.42 1457.59
88.9922 186.21
71.3405 141.173
-318.013 -46.0785
313.504 48.8756
307.231 46.2174
-378.967 21.5241
377.702 94.1211
362.257 68.863
-238.761 104.263
-240.819 120.949
266.227 113.802
244 85.1597
-377.86 56.8506
5600.56 523.137
5769.62 307.619
4688.23 -0.347495
3842.09 36.1211
4831.61 -631.867
5541.18 -426.541
5974.66 291.661
5700.21 535.139
4029.4 557.577
4093.46 415.135
3472.22 195.641
2929.41 251.905
2603.69 567.219
2534.4 479.295
2007.55 393.134
1695.39 494.977
5184.55 293.182
4551.09 117.343
5146.51 -199.971
5595.74 188.31
3796.33 425.425
3353.62 321.45
2397.04 510.287
2116.09 493.501
2887.72 96.7162
4561.67 354.76
5592.93 764.854
5765.22 755.594
5076.75 73.7312
2131.99 -1238.69
3750.77 -839.601
2223.12 354.127
3405.3 510.324
4149.7 710.581
4205.71 585.164
2456.78 -842.636
3537.88 -80.1987
1468.96 661.851
2250.03 656.164
2713.74 636.756
2621.29 415.186
1405.19 -747.702
2110.26 -155.791
1165.81 506.124
983.044 166.586
587.14 -297.895
-254.122 -703.911
167.347 -663.209
374.915 80.3637
219.855 -68.0766
1571.36 429.286
983.082 114.013
3522.23 663.754
2418.43 507.478
5505.68 649.93
4363.11 782.402
6276.04 510.641
5934.63 706.341
5170.84 292.023
6102.79 336
3044.55 -201.845
4516.5 -34.842
1227.4 -1044.96
2267.15 -558.078
65.5324 -1537.81
481.753 -1118.83
-459.26 -1267.42
-580.301 -1301.95
350.718 334.362
230.824 143.148
1281.99 638.017
823.093 393.423
2743.21 752.919
1910.89 684.932
4160.34 632.948
3328.5 797.96
4647.73 417.897
4477.13 619.766
3514.35 166.819
4452.36 240.681
1822.02 -343.244
2954.42 -148.88
501.438 -1043.43
1187.47 -634.212
-239.991 -1318.11
-57.4385 -1039.69
-458.581 -966.639
-599.161 -1100.37
466.703 626.159
325.29 467.576
949.519 890.511
609.57 736.654
1927.12 818.703
1358.21 859.756
2840.67 569.95
2353.71 764.429
2953.43 315.565
3002.69 498.051
2007.56 65.8712
2752.03 154.968
856.189 -401.058
1624.9 -206.759
72.6308 -945.225
474.761 -620.226
-344.424 -829.325
-249.909 -754.332
-399.035 -555.213
-602.266 -698.068
316.485 625.427
184.561 492.641
832.141 665.137
618.716 684.087
1185.69 576.808
992.653 666.554
1372.67 454.411
1278.49 618.801
1139.7 196.344
1368.64 320.058
391.751 -77.0673
943.043 9.86106
-259.555 -441.11
156.449 -270.88
-575.273 -821.457
-457.782 -575.367
-606.628 -909.562
-712.722 -796.066
-421.041 -597.196
-591.302 -756.05
-579.039 -167.718
-389.261 -538.543
15.0691 -721.342
417.197 -510.493
779.828 -69.8531
1069.57 357.215
1108.75 567.829
1043.34 423.647
811.301 369.275
283.515 238.811
-448.843 133.253
221.897 -306.518
1102.35 -855.819
1832.58 -485.713
2395.61 175.925
2719.12 567.064
2538.6 627.307
1839.98 635.449
1056.41 671.479
693.958 500.777
-486.217 -213.467
624.942 -816.127
1916.88 -1048.29
3074.75 -499.777
3916.03 310.069
4235.2 715.692
3823.2 591.603
2844.11 391.495
1592.94 338.393
570.626 329.563
-398.814 -276.931
1401.69 -1033.9
3093.53 -1147.84
4473.5 -406.395
5450.71 467.903
5699.57 853.463
5160.37 530.023
3756.42 157.02
2031.14 113.922
637.114 213.132
2345.59 395.945
3851.55 269.934
5822.95 -39.9863
5323.66 81.1643
1619.36 376.106
2661.15 540.067
3037.36 123.129
4252.5 545.348
6024.09 582.115
5189.09 -782.009
3966.64 -59.3176
6090.07 511.615
604.353 144.203
830.659 160.303
643.009 164.05
9690.68 954.613
-418.132 -92.9113
887.125 -507.582
469.649 -373.617
1082.48 -297.289
1092.17 79.557
1233.13 317.943
2738.59 -105.75
2567.38 -538.067
2726.02 400.583
1186.99 244.615
4305.66 -120.656
3751.46 -733.636
4364.35 530.62
1706.21 199.826
4375.06 -845.044
2271.64 123.047
2125.6 179.351
2895.87 277.005
4013.52 106.323
4694.06 239.302
7122.54 135.522
6666.09 -295.776
5619.08 -63.5065
6734.19 97.3136
707.266 52.5366
1164.58 65.6997
1424.86 88.5587
63.924 -4.35524
1217.15 321.241
1173.61 134.672
883.242 105.179
1383.7 -2.11249
2030.41 -430.958
1469.56 -86.4601
2647.65 -651.344
2529.45 -149.233
1499.34 -31.0345
1602.43 -237.93
3481.37 31.8804
6798.03 -501.716
4199.99 -41.8966
3663.16 75.8496
3179.98 351.929
4787.39 53.6152
5130.36 374.345
7313.68 359.377
8626.22 -97.5888
7463.28 -32.1423
7395.93 240.424
-123.248 205.646
566.478 248.351
810.928 238.94
1150.74 -284.323
903.508 -66.2713
1830.46 93.0927
2171.6 -17.8536
3383.95 142.806
3553.76 -155.575
3469.09 -270.995
5372.88 166.231
5329.5 -313.178
4152.97 -512.74
2341.02 68.6902
6101.22 -240.43
3532.78 20.4218
2972.48 -83.4858
3552.46 -240.157
1610.31 143.676
8881.28 111.223
4392.56 47.2305
4660.17 -41.7371
6894.06 14.7807
7121.23 -79.2285
306.393 162.799
344.41 252.578
909.304 163.444
1430.95 28.9822
1481.08 167.547
2545.94 22.6051
1812.35 121.807
2186.69 49.0227
2351.45 6.33506
2503.57 -19.4684
2798.19 -35.8753
3039.06 -49.9599
3047.54 -59.5544
2859.92 -51.0459
2614.54 0.995368
2347.84 136.356
429.928 43.7742
253.464 26.8479
184.671 33.1183
160.678 41.9686
97.4721 52.9257
21.3203 61.8696
-51.0392 69.3268
-114.032 76.3511
-182.913 81.6955
-260.259 76.629
-340.561 36.8404
4151.85 578.36
6982.43 828.259
11519.9 102.853
10815.5 -15.5228
10151.5 -34.9816
9658.88 -33.808
9384.97 -25.7976
9694.15 -15.1929
9986.34 -6.75962
9848.38 1.01838
9701.47 9.98785
9534.17 10.0629
9310.52 -35.3296
9148.37 -145.986
7851.88 -30.2708
7768.52 -7.66274
7638.35 5.71577
7612.89 11.585
7525.22 15.6087
7358.15 21.1404
7142.83 30.1288
7013.89 37.786
6968.07 20.5089
7141.52 -38.9192
6559.29 140.321
6083.98 112.533
6029.27 14.6003
5895.58 7.13599
5872.26 17.7702
5683.51 24.2748
5405.38 28.8938
5213.84 33.6615
5045.25 39.6058
5039.15 43.1811
4953.84 42.3887
4759.47 21.3896
4700.08 -43.6754
3906.64 158.833
3911.92 23.7389
3641.19 17.4319
3399.49 21.9231
3252.35 28.5981
3108.72 33.2711
2936.99 37.6677
2759.31 43.2168
2674.62 45.4498
2573.46 40.4336
2493.24 9.88172
2397.12 -34.0073
1468.75 81.0449
1345.6 24.1742
1210.98 8.0243
1042.97 12.8723
869.891 21.7743
704.957 28.4264
600.622 29.0301
484.618 27.043
343.022 27.4796
194.48 27.7861
39.7309 25.4407
-110.983 6.42246
-271.108 -127.767
-349.941 -121.438
2639.28 77.1954
601.732 150.959
2622.43 116.476
3631.15 118.38
4191.6 -3.79305
5628.94 -63.3367
1825.85 148.802
1760.39 -90.183
5391.75 -246.645
8558.44 35.9615
9000.97 107.237
3978.47 154.344
590.983 115.458
1399.71 107.27
1752.66 24.1461
2072.17 102.181
2592.79 4.85394
8787.85 233.42
-319.65 30.8329
2731.92 23.6165
1046.24 20.3304
690.528 5.81749
1605.91 73.2667
3115.41 22.0045
1559.46 70.6246
5403.42 -25.7243
3421.3 80.3355
4970.65 -34.6918
1113.7 138.165
2340.45 132.854
3108.27 16.4244
4196.65 111.669
5190.12 -2.55319
4338.79 107.793
4655.16 54.8855
4885.7 12.2915
5206.56 -15.4184
6292.83 -33.1171
6269.31 -51.4221
6342.68 -56.6024
5022.41 -3.86776
5428.86 195.931
526.452 8.67231
595.16 16.2169
343.294 46.612
459.726 35.004
162.724 58.9128
52.3928 67.673
-57.1367 75.6647
-184.776 74.4038
7788.92 -3.93522
7722.56 -14.842
7446.12 0.812238
7255.34 25.9803
7005.76 53.1626
6627.42 32.7804
5172.26 7.49638
5238.57 14.8948
5149.49 25.7007
4885.11 45.0035
4652.05 76.7131
4407.17 5.19708
4577.5 16.7261
3762.06 25.0614
3572.81 38.0691
3406.04 54.9284
3217.15 84.8156
3792.35 81.7844
2494.79 10.9931
2364.68 24.7138
2309.08 36.3543
2133.97 47.8319
1912.92 64.5714
1689.12 92.7095
1919.73 84.9827
862.782 1.69945
369.439 43.359
252.91 48.9201
127.014 54.4506
-13.6443 56.4389
-199.371 22.8491
2267.13 23.9515
1494.21 21.9463
2689.89 7.77732
3197.19 17.5577
2619.82 28.6604
2331.23 54.156
1831.87 31.822
1688.47 45.7648
1584.95 69.6709
1575.92 35.0124
1388.35 46.9248
1123.28 61.8797
851.119 82.6935
640.076 43.7264
563.695 50.892
1174.72 28.7429
-350.492 -83.843
-225.816 -66.68
12187.9 619.691
1861.63 261.637
99.7983 72.8035
282.362 231.612
307.99 305.74
0 0
0 0
0 0
0 0
0 0
0 0
0 0
0 0
0 0
0 0
0 0
0 0
0 0
0 0
0 0
0 0
0 0
0 0
0 0
0 0
0 0
0 0
0 0
0 0
0 0
0 0
0 0
0 0
0 0
0 0
0 0
0 0
0 0
0 0
0 0
0 0
0 0
0 0
0 0
0 0
0 0
0 0
0 0
0 0
0 0
0 0
0 0
0 0
0 0
0 0
0 0
0 0
0 0
0 0
0 0
0 0
0 0
0 0
0 0
0 0
0 0
0 0
0 0
0 0
0 0
0 0
0 0
0 0
0 0
0 0
0 0
0 0
0 0
0 0
0 0
0 0
0 0
0 0
0 0
0 0
0 0
0 0
0 0
0 0
0 0
0 0
0 0
0 0
0 0
0 0
0 0
0 0
0 0
0 0
0 0
0 0
0 0
0 0
0 0
0 0
0 0
0 0
0 0
0 0
0 0
0 0
0 0
0 0
0 0
0 0
0 0
0 0
0 0
0 0
0 0
0 0
0 0
0 0
0 0
0 0
0 0
0 0
0 0
0 0
0 0
0 0
0 0
0 0
0 0
0 0
0 0
0 0
0 0
0 0
0 0
0 0
0 0
0 0
0 0
0 0
0 0
0 0
0 0
0 0
0 0
0 0
0 0
0 0
0 0
0 0
0 0
0 0
0 0
0 0
0 0
0 0
0 0
0 0
0 0
0 0
0 0
0 0
0 0
0 0
0 0
0 0
0 0
0 0
0 0
0 0
0 0
0 0
0 0
0 0
0 0
0 0
0 0
0 0
0 0
0 0
0 0
0 0
0 0
0 0
0 0
0 0
0 0
0 0
0 0
0 0
0 0
0 0
0 0
0 0
0 0
0 0
0 0
0 0
0 0
0 0
0 0
0 0
0 0
0 0
0 0
0 0
0 0
0 0
0 0
0 0
0 0
0 0
0 0
0 0
0 0
0 0
0 0
0 0
0 0
0 0
0 0
0 0
0 0
0 0
0 0
0 0
0 0
0 0
0 0
0 0
0 0
0 0
0 0
0 0
0 0
0 0
0 0
0 0
0 0
0 0
0 0
0 0
0 0
0 0
0 0
0 0
0 0
0 0
0 0
0 0
0 0
0 0
0 0
0 0
0 0
0 0
0 0
0 0
0 0
0 0
0 0
0 0
0 0
0 0
0 0
0 0
0 0
0 0
0 0
0 0
0 0
0 0
0 0
0 0
0 0
0 0
0 0
0 0
0 0
0 0
0 0
0 0
0 0
0 0
0 0
0 0
0 0
0 0
0 0
0 0
0 0
0 0
0 0
0 0
0 0
0 0
0 0
0 0
0 0
0 0
0 0
0 0
0 0
0 0
0 0
0 0
0 0
0 0
0 0
0 0
0 0
0 0
0 0
0 0
0 0
0 0
0 0
0 0
0 0
0 0
0 0
0 0
0 0
0 0
0 0
0 0
0 0
0 0
0 0
0 0
0 0
0 0
0 0
0 0
0 0
0 0
0 0
0 0
0 0
0 0
0 0
0 0
0 0
0 0
0 0
0 0
0 0
0 0
0 0
0 0
0 0
0 0
0 0
0 0
0 0
0 0
0 0
0 0
0 0
0 0
0 0
0 0
0 0
0 0
0 0
0 0
0 0
0 0
0 0
0 0
0 0
0 0
0 0
0 0
0 0
0 0
0 0
0 0
0 0
0 0
0 0
0 0
0 0
0 0
0 0
0 0
0 0
0 0
0 0
0 0
0 0
0 0
0 0
0 0
0 0
0 0
0 0
0 0
0 0
0 0
0 0
0 0
0 0
0 0
0 0
0 0
0 0
0 0
0 0
0 0
0 0
0 0
0 0
0 0
0 0
0 0
0 0
0 0
0 0
0 0
0 0
0 0
0 0
0 0
0 0
0 0
0 0
0 0
0 0
0 0
0 0
0 0
0 0
0 0
0 0
0 0
0 0
0 0
0 0
0 0
0 0
0 0
0 0
0 0
0 0
0 0
0 0
0 0
0 0
0 0
0 0
0 0
0 0
0 0
0 0
0 0
0 0
0 0
0 0
0 0
0 0
0 0
0 0
0 0
0 0
0 0
0 0
0 0
0 0
0 0
0 0
0 0
0 0
0 0
0 0
0 0
0 0
0 0
0 0
0 0
0 0
0 0
0 0
0 0
0 0
0 0
0 0
0 0
0 0
0 0
0 0
0 0
0 0
0 0
0 0
0 0
0 0
0 0
0 0
0 0
0 0
0 0
0 0
0 0
0 0
0 0
0 0
0 0
0 0
0 0
0 0
0 0
0 0
0 0
0 0
0 0
0 0
0 0
0 0
0 0
0 0
0 0
0 0
0 0
0 0
0 0
0 0
0 0
0 0
0 0
0 0
0 0
0 0
0 0
0 0
0 0
0 0
0 0
0 0
0 0
0 0
0 0
0 0
0 0
0 0
0 0
0 0
0 0
0 0
0 0
0 0
0 0
0 0
0 0
0 0
0 0
0 0
0 0
0 0
0 0
0 0
0 0
0 0
0 0
0 0
0 0
0 0
0 0
0 0
0 0
0 0
0 0
0 0
0 0
0 0
0 0
0 0
0 0
0 0
0 0
0 0
0 0
0 0
0 0
0 0
0 0
0 0
0 0
0 0
0 0
0 0
0 0
0 0
0 0
0 0
0 0
0 0
0 0
0 0
0 0
0 0
0 0
0 0
0 0
0 0
0 0
0 0
0 0
0 0
0 0
0 0
0 0
0 0
0 0
0 0
0 0
0 0
0 0
0 0
0 0
0 0
0 0
0 0
0 0
0 0
0 0
0 0
0 0
0 0
0 0
0 0
0 0
0 0
0 0
0 0
0 0
0 0
0 0
0 0
0 0
0 0
0 0
0 0
0 0
0 0
0 0
0 0
0 0
0 0
0 0
0 0
0 0
0 0
0 0
0 0
0 0
0 0
0 0
0 0
0 0
0 0
0 0
0 0
0 0
0 0
0 0
0 0
0 0
0 0
0 0
0 0
0 0
0 0
0 0
0 0
0 0
0 0
0 0
0 0
0 0
0 0
0 0
0 0
0 0
0 0
0 0
0 0
0 0
0 0
0 0
0 0
0 0
0 0
0 0
0 0
0 0
0 0
0 0
0 0
0 0
0 0
0 0
0 0
0 0
0 0
0 0
0 0
0 0
0 0
0 0
0 0
0 0
0 0
0 0
0 0
0 0
0 0
0 0
0 0
0 0
0 0
0 0
0 0
0 0
0 0
0 0
0 0
0 0
0 0
0 0
0 0
0 0
0 0
0 0
0 0
0 0
0 0
0 0
0 0
0 0
0 0
0 0
0 0
0 0
0 0
0 0
0 0
0 0
0 0
0 0
0 0
0 0
0 0
0 0
0 0
0 0
0 0
0 0
0 0
0 0
0 0
0 0
0 0
0 0
0 0
0 0
0 0
0 0
0 0
0 0
0 0
0 0
0 0
0 0
0 0
0 0
0 0
0 0
0 0
0 0
0 0
0 0
0 0
0 0
0 0
0 0
0 0
0 0
0 0
0 0
0 0
0 0
0 0
0 0
0 0
0 0
0 0
0 0
0 0
0 0
0 0
0 0
0 0
0 0
0 0
0 0
0 0
0 0
0 0
0 0
0 0
0 0
0 0
0 0
0 0
0 0
0 0
0 0
0 0
0 0
0 0
0 0
0 0
0 0
0 0
0 0
0 0
0 0
0 0
0 0
0 0
0 0
0 0
0 0
0 0
0 0
0 0
0 0
0 0
0 0
0 0
0 0
0 0
0 0
0 0
0 0
0 0
0 0
0 0
0 0
0 0
0 0
0 0
0 0
0 0
0 0
0 0
0 0
0 0
0 0
0 0
0 0
0 0
0 0
0 0
0 0
0 0
0 0
0 0
0 0
0 0
0 0
0 0
0 0
0 0
0 0
0 0
0 0
0 0
0 0
0 0
0 0
0 0
0 0
0 0
0 0
0 0
0 0
0 0
0 0
0 0
0 0
0 0
0 0
0 0
0 0
0 0
0 0
0 0
0 0
0 0
0 0
0 0
0 0
0 0
0 0
0 0
0 0
0 0
0 0
0 0
0 0
0 0
0 0
0 0
0 0
0 0
0 0
0 0
0 0
0 0
0 0
0 0
0 0
0 0
0 0
0 0
0 0
0 0
0 0
0 0
0 0
0 0
0 0
0 0
0 0
0 0
0 0
0 0
0 0
0 0
0 0
0 0
0 0
0 0
0 0
0 0
0 0
0 0
0 0
0 0
0 0
0 0
0 0
0 0
0 0
0 0
0 0
0 0
0 0
0 0
0 0
0 0
0 0
0 0
0 0
0 0
0 0
0 0
0 0
0 0
0 0
0 0
0 0
0 0
0 0
0 0
0 0
0 0
0 0
0 0
0 0
0 0
0 0
0 0
0 0
0 0
0 0
0 0
0 0
0 0
0 0
0 0
0 0
0 0
0 0
0 0
0 0
0 0
0 0
0 0
0 0
0 0
0 0
0 0
0 0
0 0
0 0
0 0
0 0
0 0
0 0
0 0
0 0
0 0
0 0
0 0
0 0
0 0
0 0
0 0
0 0
0 0
0 0
0 0
0 0
0 0
0 0
0 0
0 0
0 0
0 0
0 0
0 0
0 0
0 0
0 0
0 0
0 0
0 0
0 0
0 0
0 0
0 0
0 0
0 0
0 0
0 0
0 0
0 0
0 0
0 0
0 0
0 0
0 0
0 0
0 0
0 0
0 0
0 0
0 0
0 0
0 0
0 0
0 0
0 0
0 0
0 0
0 0
0 0
0 0
0 0
0 0
0 0
0 0
0 0
0 0
0 0
0 0
0 0
0 0
0 0
0 0
0 0
0 0
0 0
0 0
0 0
0 0
0 0
0 0
0 0
0 0
0 0
0 0
0 0
0 0
0 0
0 0
0 0
0 0
0 0
0 0
0 0
0 0
0 0
0 0
0 0
0 0
0 0
0 0
0 0
0 0
0 0
0 0
0 0
0 0
0 0
0 0
0 0
0 0
0 0
0 0
0 0
0 0
0 0
0 0
0 0
0 0
0 0
0 0
0 0
0 0
0 0
0 0
0 0
0 0
0 0
0 0
0 0
0 0
0 0
0 0
0 0
0 0
0 0
0 0
0 0
0 0
0 0
0 0
0 0
0 0
0 0
0 0
0 0
0 0
0 0
0 0
0 0
0 0
0 0
0 0
0 0
0 0
0 0
0 0
0 0
0 0
0 0
0 0
0 0
0 0
0 0
0 0
0 0
0 0
0 0
0 0
0 0
0 0
0 0
0 0
0 0
0 0
0 0
0 0
0 0
0 0
0 0
0 0
0 0
0 0
0 0
0 0
0 0
0 0
0 0
0 0
0 0
0 0
0 0
0 0
0 0
0 0
0 0
0 0
0 0
0 0
0 0
0 0
0 0
0 0
0 0
0 0
0 0
0 0
0 0
0 0
0 0
0 0
0 0
0 0
0 0
0 0
0 0
0 0
0 0
0 0
0 0
0 0
0 0
0 0
0 0
0 0
0 0
0 0
0 0
0 0
0 0
0 0
0 0
0 0
0 0
0 0
0 0
0 0
0 0
0 0
0 0
0 0
0 0
0 0
0 0
0 0
0 0
0 0
0 0
0 0
0 0
0 0
0 0
0 0
0 0
0 0
0 0
0 0
0 0
0 0
0 0
0 0
0 0
0 0
0 0
0 0
0 0
0 0
0 0
0 0
0 0
0 0
0 0
0 0
0 0
0 0
0 0
0 0
0 0
0 0
0 0
0 0
0 0
0 0
0 0
0 0
0 0
0 0
0 0
0 0
0 0
0 0
0 0
0 0
0 0
0 0
0 0
0 0
0 0
0 0
0 0
0 0
0 0
0 0
0 0
0 0
0 0
0 0
0 0
0 0
0 0
0 0
0 0
0 0
0 0
0 0
0 0
0 0
0 0
0 0
0 0
0 0
0 0
0 0
0 0
0 0
0 0
0 0
0 0
0 0
0 0
0 0
0 0
0 0
0 0
0 0
0 0
0 0
0 0
0 0
0 0
0 0
0 0
0 0
0 0
0 0
0 0
0 0
0 0
0 0
0 0
0 0
0 0
0 0
0 0
0 0
0 0
0 0
0 0
0 0
0 0
0 0
0 0
0 0
0 0
0 0
0 0
0 0
0 0
0 0
0 0
0 0
0 0
0 0
0 0
0 0
0 0
0 0
0 0
0 0
0 0
0 0
0 0
0 0
0 0
0 0
0 0
0 0
0 0
0 0
0 0
0 0
0 0
0 0
0 0
0 0
0 0
0 0
0 0
0 0
0 0
0 0
0 0
0 0
0 0
0 0
0 0
0 0
0 0
0 0
0 0
0 0
0 0
0 0
0 0
0 0
0 0
0 0
0 0
0 0
0 0
0 0
0 0
0 0
0 0
0 0
0 0
0 0
0 0
0 0
0 0
0 0
0 0
0 0
0 0
0 0
0 0
0 0
0 0
0 0
0 0
0 0
0 0
0 0
0 0
0 0
0 0
0 0
0 0
0 0
0 0
0 0
0 0
0 0
0 0
0 0
0 0
0 0
0 0
0 0
0 0
0 0
0 0
0 0
0 0
0 0
0 0
0 0
0 0
0 0
0 0
0 0
0 0
0 0
0 0
0 0
0 0
0 0
0 0
0 0
0 0
0 0
0 0
0 0
0 0
0 0
0 0
0 0
0 0
0 0
0 0
0 0
0 0
0 0
0 0
0 0
0 0
0 0
0 0
0 0
0 0
0 0
0 0
0 0
0 0
0 0
0 0
0 0
0 0
0 0
0 0
0 0
0 0
0 0
0 0
0 0
0 0
0 0
0 0
0 0
0 0
0 0
0 0
0 0
0 0
0 0
0 0
0 0
0 0
0 0
0 0
0 0
0 0
0 0
0 0
0 0
0 0
0 0
0 0
0 0
0 0
0 0
0 0
0 0
0 0
0 0
0 0
0 0
0 0
0 0
0 0
0 0
0 0
0 0
0 0
0 0
0 0
0 0
0 0
0 0
0 0
0 0
0 0
0 0
0 0
0 0
0 0
0 0
0 0
0 0
0 0
0 0
0 0
0 0
0 0
0 0
0 0
0 0
0 0
0 0
0 0
0 0
0 0
0 0
0 0
0 0
0 0
0 0
0 0
0 0
0 0
0 0
0 0
0 0
0 0
0 0
0 0
0 0
0 0
0 0
0 0
0 0
0 0
0 0
0 0
0 0
0 0
0 0
0 0
0 0
0 0
0 0
0 0
0 0
0 0
0 0
0 0
0 0
0 0
0 0
0 0
0 0
0 0
0 0
0 0
0 0
0 0
0 0
0 0
0 0
0 0
0 0
0 0
0 0
0 0
0 0
0 0
0 0
0 0
0 0
0 0
0 0
0 0
0 0
0 0
0 0
0 0
0 0
0 0
0 0
0 0
0 0
0 0
0 0
0 0
0 0
0 0
0 0
0 0
0 0
0 0
0 0
0 0
0 0
0 0
0 0
0 0
0 0
0 0
0 0
0 0
0 0
0 0
0 0
0 0
0 0
0 0
0 0
0 0
0 0
0 0
0 0
0 0
0 0
0 0
0 0
0 0
0 0
0 0
0 0
0 0
0 0
0 0
0 0
0 0
0 0
0 0
0 0
0 0
0 0
0 0
0 0
0 0
0 0
0 0
0 0
0 0
0 0
0 0
0 0
0 0
0 0
0 0
0 0
0 0
0 0
0 0
0 0
0 0
0 0
0 0
0 0
0 0
0 0
0 0
0 0
0 0
0 0
0 0
0 0
0 0
0 0
0 0
0 0
0 0
0 0
0 0
0 0
0 0
0 0
0 0
0 0
0 0
0 0
0 0
0 0
0 0
0 0
0 0
0 0
0 0
0 0
0 0
0 0
0 0
0 0
0 0
0 0
0 0
0 0
0 0
0 0
0 0
0 0
0 0
0 0
0 0
0 0
0 0
0 0
0 0
0 0
0 0
0 0
0 0
0 0
0 0
0 0
0 0
0 0
0 0
0 0
0 0
0 0
0 0
0 0
0 0
0 0
0 0
0 0
0 0
0 0
0 0
0 0
0 0
0 0
0 0
0 0
0 0
0 0
0 0
0 0
0 0
0 0
0 0
0 0
0 0
0 0
0 0
0 0
0 0
0 0
0 0
0 0
0 0
0 0
0 0
0 0
0 0
0 0
0 0
0 0
0 0
0 0
0 0
0 0
0 0
0 0
0 0
0 0
0 0
0 0
0 0
0 0
0 0
0 0
0 0
0 0
0 0
0 0
0 0
0 0
0 0
0 0
0 0
0 0
0 0
0 0
0 0
0 0
0 0
0 0
0 0
0 0
0 0
0 0
0 0
0 0
0 0
0 0
0 0
0 0
0 0
0 0
0 0
0 0
0 0
0 0
0 0
0 0
0 0
0 0
0 0
0 0
0 0
0 0
0 0
0 0
0 0
0 0
0 0
0 0
0 0
0 0
0 0
0 0
0 0
0 0
0 0
0 0
0 0
0 0
0 0
0 0
0 0
0 0
0 0
0 0
0 0
0 0
0 0
0 0
0 0
0 0
0 0
0 0
0 0
0 0
0 0
0 0
0 0
0 0
0 0
0 0
0 0
0 0
0 0
0 0
0 0
0 0
0 0
0 0
0 0
0 0
0 0
0 0
0 0
0 0
0 0
0 0
0 0
0 0
0 0
0 0
0 0
0 0
0 0
0 0
0 0
0 0
0 0
0 0
0 0
0 0
0 0
0 0
0 0
0 0
0 0
0 0
0 0
0 0
0 0
0 0
0 0
0 0
0 0
0 0
0 0
0 0
0 0
0 0
0 0
0 0
0 0
0 0
0 0
0 0
0 0
0 0
0 0
0 0
0 0
0 0
0 0
0 0
0 0
0 0
0 0
0 0
0 0
0 0
0 0
0 0
0 0
0 0
0 0
0 0
0 0
0 0
0 0
0 0
0 0
0 0
0 0
0 0
0 0
0 0
0 0
0 0
0 0
0 0
0 0
0 0
0 0
0 0
0 0
0 0
0 0
0 0
0 0
0 0
0 0
0 0
0 0
0 0
0 0
0 0
0 0
0 0
0 0
0 0
0 0
0 0
0 0
0 0
0 0
0 0
0 0
0 0
0 0
0 0
0 0
0 0
0 0
0 0
0 0
0 0
0 0
0 0
0 0
0 0
0 0
0 0
0 0
0 0
0 0
0 0
0 0
0 0
0 0
0 0
0 0
0 0
0 0
0 0
0 0
0 0
0 0
0 0
0 0
0 0
0 0
0 0
0 0
0 0
0 0
0 0
0 0
0 0
0 0
0 0
0 0
0 0
0 0
0 0
0 0
0 0
0 0
0 0
0 0
0 0
0 0
0 0
0 0
0 0
0 0
0 0
0 0
0 0
0 0
0 0
0 0
0 0
0 0
0 0
0 0
0 0
0 0
0 0
0 0
0 0
0 0
0 0
0 0
0 0
0 0
0 0
0 0
0 0
0 0
0 0
0 0
0 0
0 0
0 0
0 0
0 0
0 0
0 0
0 0
0 0
0 0
0 0
0 0
0 0
0 0
0 0
0 0
0 0
0 0
0 0
0 0
0 0
0 0
0 0
0 0
0 0
0 0
0 0
0 0
0 0
0 0
0 0
0 0
0 0
0 0
0 0
0 0
0 0
0 0
0 0
0 0
0 0
0 0
0 0
0 0
0 0
0 0
0 0
0 0
0 0
0 0
0 0
0 0
0 0
0 0
0 0
0 0
0 0
0 0
0 0
0 0
0 0
0 0
0 0
0 0
0 0
0 0
0 0
0 0
0 0
0 0
0 0
0 0
0 0
0 0
0 0
0 0
0 0
0 0
0 0
0 0
0 0
0 0
0 0
0 0
0 0
0 0
0 0
0 0
0 0
0 0
0 0
0 0
0 0
0 0
0 0
0 0
0 0
0 0
0 0
0 0
0 0
0 0
0 0
0 0
0 0
0 0
0 0
0 0
0 0
0 0
0 0
0 0
0 0
0 0
0 0
0 0
0 0
0 0
0 0
0 0
0 0
0 0
0 0
0 0
0 0
0 0
0 0
0 0
0 0
0 0
0 0
0 0
0 0
0 0
0 0
0 0
0 0
0 0
0 0
0 0
0 0
0 0
0 0
0 0
0 0
0 0
0 0
0 0
0 0
0 0
0 0
0 0
0 0
0 0
0 0
0 0
0 0
0 0
0 0
0 0
0 0
0 0
0 0
0 0
0 0
0 0
0 0
0 0
0 0
0 0
0 0
0 0
0 0
0 0
0 0
0 0
0 0
0 0
0 0
0 0
0 0
0 0
0 0
0 0
0 0
0 0
0 0
0 0
0 0
0 0
0 0
0 0
0 0
0 0
0 0
0 0
0 0
0 0
0 0
0 0
0 0
0 0
0 0
0 0
0 0
0 0
0 0
0 0
0 0
0 0
0 0
0 0
0 0
0 0
0 0
0 0
0 0
0 0
0 0
0 0
0 0
0 0
0 0
0 0
0 0
0 0
0 0
0 0
0 0
0 0
0 0
0 0
0 0
0 0
0 0
0 0
0 0
0 0
0 0
0 0
0 0
0 0
0 0
0 0
0 0
0 0
0 0
0 0
0 0
0 0
0 0
0 0
0 0
0 0
0 0
0 0
0 0
0 0
0 0
0 0
0 0
0 0
0 0
0 0
0 0
0 0
0 0
0 0
0 0
0 0
0 0
0 0
0 0
0 0
0 0
0 0
0 0
0 0
0 0
0 0
0 0
0 0
0 0
0 0
0 0
0 0
0 0
0 0
0 0
0 0
0 0
0 0
0 0
0 0
0 0
0 0
0 0
0 0
0 0
0 0
0 0
0 0
0 0
0 0
0 0
0 0
0 0
0 0
0 0
0 0
0 0
0 0
0 0
0 0
0 0
0 0
0 0
0 0
0 0
0 0
0 0
0 0
0 0
0 0
0 0
0 0
0 0
0 0
0 0
0 0
0 0
0 0
0 0
0 0
0 0
0 0
0 0
0 0
0 0
0 0
0 0
0 0
0 0
0 0
0 0
0 0
0 0
0 0
0 0
0 0
0 0
0 0
0 0
0 0
0 0
0 0
0 0
0 0
0 0
0 0
0 0
0 0
0 0
0 0
0 0
0 0
0 0
0 0
0 0
0 0
0 0
0 0
0 0
0 0
0 0
0 0
0 0
0 0
0 0
0 0
0 0
0 0
0 0
0 0
0 0
0 0
0 0
0 0
0 0
0 0
0 0
0 0
0 0
0 0
0 0
0 0
0 0
0 0
0 0
0 0
0 0
0 0
0 0
0 0
0 0
0 0
0 0
0 0
0 0
0 0
0 0
0 0
0 0
0 0
0 0
0 0
0 0
0 0
0 0
0 0
0 0
0 0
0 0
0 0
0 0
0 0
0 0
0 0
0 0
0 0
0 0
0 0
0 0
0 0
0 0
0 0
0 0
0 0
0 0
0 0
0 0
0 0
0 0
0 0
0 0
0 0
0 0
0 0
0 0
0 0
0 0
0 0
0 0
0 0
0 0
0 0
0 0
0 0
0 0
0 0
0 0
0 0
0 0
0 0
0 0
0 0
0 0
0 0
0 0
0 0
0 0
0 0
0 0
0 0
0 0
0 0
0 0
0 0
0 0
0 0
0 0
0 0
0 0
0 0
0 0
0 0
0 0
0 0
0 0
0 0
0 0
0 0
0 0
0 0
0 0
0 0
0 0
0 0
0 0
0 0
0 0
0 0
0 0
0 0
0 0
0 0
0 0
0 0
0 0
0 0
0 0
0 0
0 0
0 0
0 0
0 0
0 0
0 0
0 0
0 0
0 0
0 0
0 0
0 0
0 0
0 0
0 0
0 0
0 0
0 0
0 0
0 0
0 0
0 0
0 0
0 0
0 0
0 0
0 0
0 0
0 0
0 0
0 0
0 0
0 0
0 0
0 0
0 0
0 0
0 0
0 0
0 0
0 0
0 0
0 0
0 0
0 0
0 0
0 0
0 0
0 0
0 0
0 0
0 0
0 0
0 0
0 0
0 0
0 0
0 0
0 0
0 0
0 0
0 0
0 0
0 0
0 0
0 0
0 0
0 0
0 0
0 0
0 0
0 0
0 0
0 0
0 0
0 0
0 0
0 0
0 0
0 0
0 0
0 0
0 0
0 0
0 0
0 0
0 0
0 0
0 0
0 0
0 0
0 0
0 0
0 0
0 0
0 0
0 0
0 0
0 0
0 0
0 0
0 0
0 0
0 0
0 0
0 0
0 0
0 0
0 0
0 0
0 0
0 0
0 0
0 0
0 0
0 0
0 0
0 0
0 0
0 0
0 0
0 0
0 0
0 0
0 0
0 0
0 0
0 0
0 0
0 0
0 0
0 0
0 0
0 0
0 0
0 0
0 0
0 0
0 0
0 0
0 0
0 0
0 0
0 0
0 0
0 0
0 0
0 0
0 0
0 0
0 0
0 0
0 0
0 0
0 0
0 0
0 0
0 0
0 0
0 0
0 0
0 0
0 0
0 0
0 0
0 0
0 0
0 0
0 0
0 0
0 0
0 0
0 0
0 0
0 0
0 0
0 0
0 0
0 0
0 0
0 0
0 0
0 0
0 0
0 0
0 0
0 0
0 0
0 0
0 0
0 0
0 0
0 0
0 0
0 0
0 0
0 0
0 0
0 0
0 0
0 0
0 0
0 0
0 0
0 0
0 0
0 0
0 0
0 0
0 0
0 0
0 0
0 0
0 0
0 0
0 0
0 0
0 0
0 0
0 0
0 0
0 0
0 0
0 0
0 0
0 0
0 0
0 0
0 0
0 0
0 0
0 0
0 0
0 0
0 0
0 0
0 0
0 0
0 0
0 0
0 0
0 0
0 0
0 0
0 0
0 0
0 0
0 0
0 0
0 0
0 0
0 0
0 0
0 0
0 0
0 0
0 0
0 0
0 0
0 0
0 0
0 0
0 0
0 0
0 0
0 0
0 0
0 0
0 0
0 0
0 0
0 0
0 0
0 0
0 0
0 0
0 0
0 0
0 0
0 0
0 0
0 0
0 0
0 0
0 0
0 0
0 0
0 0
0 0
0 0
0 0
0 0
0 0
0 0
0 0
0 0
0 0
0 0
0 0
0 0
0 0
0 0
0 0
0 0
0 0
0 0
0 0
0 0
0 0
0 0
0 0
0 0
0 0
0 0
0 0
0 0
0 0
0 0
0 0
0 0
0 0
0 0
0 0
0 0
0 0
0 0
0 0
0 0
0 0
0 0
0 0
0 0
0 0
0 0
0 0
0 0
0 0
0 0
0 0
0 0
0 0
0 0
0 0
0 0
0 0
0 0
0 0
0 0
0 0
0 0
0 0
0 0
0 0
0 0
0 0
0 0
0 0
0 0
0 0
0 0
0 0
0 0
0 0
0 0
0 0
0 0
0 0
0 0
0 0
0 0
0 0
0 0
0 0
0 0
0 0
0 0
0 0
0 0
0 0
0 0
0 0
0 0
0 0
0 0
0 0
0 0
0 0
0 0
0 0
0 0
0 0
0 0
0 0
0 0
0 0
0 0
0 0
0 0
0 0
0 0
0 0
0 0
0 0
0 0
0 0
0 0
0 0
0 0
0 0
0 0
0 0
0 0
0 0
0 0
0 0
0 0
0 0
0 0
0 0
0 0
0 0
0 0
0 0
0 0
0 0
0 0
0 0
0 0
0 0
0 0
0 0
0 0
0 0
0 0
0 0
0 0
0 0
0 0
0 0
0 0
0 0
0 0
0 0
0 0
0 0
0 0
0 0
0 0
0 0
0 0
0 0
0 0
0 0
0 0
0 0
0 0
0 0
0 0
0 0
0 0
0 0
0 0
0 0
0 0
0 0
0 0
0 0
0 0
0 0
0 0
0 0
0 0
0 0
0 0
0 0
0 0
0 0
0 0
0 0
0 0
0 0
0 0
0 0
0 0
0 0
0 0
0 0
0 0
0 0
0 0
0 0
0 0
0 0
0 0
0 0
0 0
0 0
0 0
0 0
0 0
0 0
0 0
0 0
0 0
0 0
0 0
0 0
0 0
0 0
0 0
0 0
0 0
0 0
0 0
0 0
0 0
0 0
0 0
0 0
0 0
0 0
0 0
0 0
0 0
0 0
0 0
0 0
0 0
0 0
0 0
0 0
0 0
0 0
0 0
0 0
0 0
0 0
0 0
0 0
0 0
0 0
0 0
0 0
0 0
0 0
0 0
0 0
0 0
0 0
0 0
0 0
0 0
0 0
0 0
0 0
0 0
0 0
0 0
0 0
0 0
0 0
0 0
0 0
0 0
0 0
0 0
0 0
0 0
0 0
0 0
0 0
0 0
0 0
0 0
0 0
0 0
0 0
0 0
0 0
0 0
0 0
0 0
0 0
0 0
0 0
0 0
0 0
0 0
0 0
0 0
0 0
0 0
0 0
0 0
0 0
0 0
0 0
0 0
0 0
0 0
0 0
0 0
0 0
0 0
0 0
0 0
0 0
0 0
0 0
0 0
0 0
0 0
0 0
0 0
0 0
0 0
0 0
0 0
0 0
0 0
0 0
0 0
0 0
0 0
0 0
0 0
0 0
0 0
0 0
0 0
0 0
0 0
0 0
0 0
0 0
0 0
0 0
0 0
0 0
0 0
0 0
0 0
0 0
0 0
0 0
0 0
0 0
0 0
0 0
0 0
0 0
0 0
0 0
0 0
0 0
0 0
0 0
0 0
0 0
0 0
0 0
0 0
0 0
0 0
0 0
0 0
0 0
0 0
0 0
0 0
0 0
0 0
0 0
0 0
0 0
0 0
0 0
0 0
0 0
0 0
0 0
0 0
0 0
0 0
0 0
0 0
0 0
0 0
0 0
0 0
0 0
0 0
0 0
0 0
0 0
0 0
0 0
0 0
0 0
0 0
0 0
0 0
0 0
0 0
0 0
0 0
0 0
0 0
0 0
0 0
0 0
0 0
0 0
0 0
0 0
0 0
0 0
0 0
0 0
0 0
0 0
0 0
0 0
0 0
0 0
0 0
0 0
0 0
0 0
0 0
0 0
0 0
0 0
0 0
0 0
0 0
0 0
0 0
0 0
0 0
0 0
0 0
0 0
0 0
0 0
0 0
0 0
0 0
0 0
0 0
0 0
0 0
0 0
0 0
0 0
0 0
0 0
0 0
0 0
0 0
0 0
0 0
0 0
0 0
0 0
0 0
0 0
0 0
0 0
0 0
0 0
0 0
0 0
0 0
0 0
0 0
0 0
0 0
0 0
0 0
0 0
0 0
0 0
0 0
0 0
0 0
0 0
0 0
0 0
0 0
0 0
0 0
0 0
0 0
0 0
0 0
0 0
0 0
0 0
0 0
0 0
0 0
0 0
0 0
0 0
0 0
0 0
0 0
0 0
0 0
0 0
0 0
0 0
0 0
0 0
0 0
0 0
0 0
0 0
0 0
0 0
0 0
0 0
0 0
0 0
0 0
0 0
0 0
0 0
0 0
0 0
0 0
0 0
0 0
0 0
0 0
0 0
0 0
0 0
0 0
0 0
0 0
0 0
0 0
0 0
0 0
0 0
0 0
0 0
0 0
0 0
0 0
0 0
0 0
0 0
0 0
0 0
0 0
0 0
0 0
0 0
0 0
0 0
0 0
0 0
0 0
0 0
0 0
0 0
0 0
0 0
0 0
0 0
0 0
0 0
0 0
0 0
0 0
0 0
0 0
0 0
0 0
0 0
0 0
0 0
0 0
0 0
0 0
0 0
0 0
0 0
0 0
0 0
0 0
0 0
0 0
0 0
0 0
0 0
0 0
0 0
0 0
0 0
0 0
0 0
0 0
0 0
0 0
0 0
0 0
0 0
0 0
0 0
0 0
0 0
0 0
0 0
0 0
0 0
0 0
0 0
0 0
0 0
0 0
0 0
0 0
0 0
0 0
0 0
0 0
0 0
0 0
0 0
0 0
0 0
0 0
0 0
0 0
0 0
0 0
0 0
0 0
0 0
0 0
0 0
0 0
0 0
0 0
0 0
0 0
0 0
0 0
0 0
0 0
0 0
0 0
0 0
0 0
0 0
0 0
0 0
0 0
0 0
0 0
0 0
0 0
0 0
0 0
0 0
0 0
0 0
0 0
0 0
0 0
0 0
0 0
0 0
0 0
0 0
0 0
0 0
0 0
0 0
0 0
0 0
0 0
0 0
0 0
0 0
0 0
0 0
0 0
0 0
0 0
0 0
0 0
0 0
0 0
0 0
0 0
0 0
0 0
0 0
0 0
0 0
0 0
0 0
0 0
0 0
0 0
0 0
0 0
0 0
0 0
0 0
0 0
0 0
0 0
0 0
0 0
0 0
0 0
0 0
0 0
0 0
0 0
0 0
0 0
0 0
0 0
0 0
0 0
0 0
0 0
0 0
0 0
0 0
0 0
0 0
0 0
0 0
0 0
0 0
0 0
0 0
0 0
0 0
0 0
0 0
0 0
0 0
0 0
0 0
0 0
0 0
0 0
0 0
0 0
0 0
0 0
0 0
0 0
0 0
0 0
0 0
0 0
0 0
0 0
0 0
0 0
0 0
0 0
0 0
0 0
0 0
0 0
0 0
0 0
0 0
0 0
0 0
0 0
0 0
0 0
0 0
0 0
0 0
0 0
0 0
0 0
0 0
0 0
0 0
0 0
0 0
0 0
0 0
0 0
0 0
0 0
0 0
0 0
0 0
0 0
0 0
0 0
0 0
0 0
0 0
0 0
0 0
0 0
0 0
0 0
0 0
0 0
0 0
0 0
0 0
0 0
0 0
0 0
0 0
0 0
0 0
0 0
0 0
0 0
0 0
0 0
0 0
0 0
0 0
0 0
0 0
0 0
0 0
0 0
0 0
0 0
0 0
0 0
0 0
0 0
0 0
0 0
0 0
0 0
0 0
0 0
0 0
0 0
0 0
0 0
0 0
0 0
0 0
0 0
0 0
0 0
0 0
0 0
0 0
0 0
0 0
0 0
0 0
0 0
0 0
0 0
0 0
0 0
0 0
0 0
0 0
0 0
0 0
0 0
0 0
0 0
0 0
0 0
0 0
0 0
0 0
0 0
0 0
0 0
0 0
0 0
0 0
0 0
0 0
0 0
0 0
0 0
0 0
0 0
0 0
0 0
0 0
0 0
0 0
0 0
0 0
0 0
0 0
0 0
0 0
0 0
0 0
0 0
0 0
0 0
0 0
0 0
0 0
0 0
0 0
0 0
0 0
0 0
0 0
0 0
0 0
0 0
0 0
0 0
0 0
0 0
0 0
0 0
0 0
0 0
0 0
0 0
0 0
0 0
0 0
0 0
0 0
0 0
0 0
0 0
0 0
0 0
0 0
0 0
0 0
0 0
0 0
0 0
0 0
0 0
0 0
0 0
0 0
0 0
0 0
0 0
0 0
0 0
0 0
0 0
0 0
0 0
0 0
0 0
0 0
0 0
0 0
0 0
0 0
0 0
0 0
0 0
0 0
0 0
0 0
0 0
0 0
0 0
0 0
0 0
0 0
0 0
0 0
0 0
0 0
0 0
0 0
0 0
0 0
0 0
0 0
0 0
0 0
0 0
0 0
0 0
0 0
0 0
0 0
0 0
0 0
0 0
0 0
0 0
0 0
0 0
0 0
0 0
0 0
0 0
0 0
0 0
0 0
0 0
0 0
0 0
0 0
0 0
0 0
0 0
0 0
0 0
0 0
0 0
0 0
0 0
0 0
0 0
0 0
0 0
0 0
0 0
0 0
0 0
0 0
0 0
0 0
0 0
0 0
0 0
0 0
0 0
0 0
0 0
0 0
0 0
0 0
0 0
0 0
0 0
0 0
0 0
0 0
0 0
0 0
0 0
0 0
0 0
0 0
0 0
0 0
0 0
0 0
0 0
0 0
0 0
0 0
0 0
0 0
0 0
0 0
0 0
0 0
0 0
0 0
0 0
0 0
0 0
0 0
0 0
0 0
0 0
0 0
0 0
0 0
0 0
0 0
0 0
0 0
0 0
0 0
0 0
0 0
0 0
0 0
0 0
0 0
0 0
0 0
0 0
0 0
0 0
0 0
0 0
0 0
0 0
0 0
0 0
0 0
0 0
0 0
0 0
0 0
0 0
0 0
0 0
0 0
0 0
0 0
0 0
0 0
0 0
0 0
0 0
0 0
0 0
0 0
0 0
0 0
0 0
0 0
0 0
0 0
0 0
0 0
0 0
0 0
0 0
0 0
0 0
0 0
0 0
0 0
0 0
0 0
0 0
0 0
0 0
0 0
0 0
0 0
0 0
0 0
0 0
0 0
0 0
0 0
0 0
0 0
0 0
0 0
0 0
0 0
0 0
0 0
0 0
0 0
0 0
0 0
0 0
0 0
0 0
0 0
0 0
0 0
0 0
0 0
0 0
0 0
0 0
0 0
0 0
0 0
0 0
0 0
0 0
0 0
0 0
0 0
0 0
0 0
0 0
0 0
0 0
0 0
0 0
0 0
0 0
0 0
0 0
0 0
0 0
0 0
0 0
0 0
0 0
0 0
0 0
0 0
0 0
0 0
0 0
0 0
0 0
0 0
0 0
0 0
0 0
0 0
0 0
0 0
0 0
0 0
0 0
0 0
0 0
0 0
0 0
0 0
0 0
0 0
0 0
0 0
0 0
0 0
0 0
0 0
0 0
0 0
0 0
0 0
0 0
0 0
0 0
0 0
0 0
0 0
0 0
0 0
0 0
0 0
0 0
0 0
0 0
0 0
0 0
0 0
0 0
0 0
0 0
0 0
0 0
0 0
0 0
0 0
0 0
0 0
0 0
0 0
0 0
0 0
0 0
0 0
0 0
0 0
0 0
0 0
0 0
0 0
0 0
0 0
0 0
0 0
0 0
0 0
0 0
0 0
0 0
0 0
0 0
0 0
0 0
0 0
0 0
0 0
0 0
0 0
0 0
0 0
0 0
0 0
0 0
0 0
0 0
0 0
0 0
0 0
0 0
0 0
0 0
0 0
0 0
0 0
0 0
0 0
0 0
0 0
0 0
0 0
0 0
0 0
0 0
0 0
0 0
0 0
0 0
0 0
0 0
0 0
0 0
0 0
0 0
0 0
0 0
0 0
0 0
0 0
0 0
0 0
0 0
0 0
0 0
0 0
0 0
0 0
0 0
0 0
0 0
0 0
0 0
0 0
0 0
0 0
0 0
0 0
0 0
0 0
0 0
0 0
0 0
0 0
0 0
0 0
0 0
0 0
0 0
0 0
0 0
0 0
0 0
0 0
0 0
0 0
0 0
0 0
0 0
0 0
0 0
0 0
0 0
0 0
0 0
0 0
0 0
0 0
0 0
0 0
0 0
0 0
0 0
0 0
0 0
0 0
0 0
0 0
0 0
0 0
0 0
0 0
0 0
0 0
0 0
0 0
0 0
0 0
0 0
0 0
0 0
0 0
0 0
0 0
0 0
0 0
0 0
0 0
0 0
0 0
0 0
0 0
0 0
0 0
0 0
0 0
0 0
0 0
0 0
0 0
0 0
0 0
0 0
0 0
0 0
0 0
0 0
0 0
0 0
0 0
0 0
0 0
0 0
0 0
0 0
0 0
0 0
0 0
0 0
0 0
0 0
0 0
0 0
0 0
0 0
0 0
0 0
0 0
0 0
0 0
0 0
0 0
0 0
0 0
0 0
0 0
0 0
0 0
0 0
0 0
0 0
0 0
0 0
0 0
0 0
0 0
0 0
0 0
0 0
0 0
0 0
0 0
0 0
0 0
0 0
0 0
0 0
0 0
0 0
0 0
0 0
0 0
0 0
0 0
0 0
0 0
0 0
0 0
0 0
0 0
0 0
0 0
0 0
0 0
0 0
0 0
0 0
0 0
0 0
0 0
0 0
0 0
0 0
0 0
0 0
0 0
0 0
0 0
0 0
0 0
0 0
0 0
0 0
0 0
0 0
0 0
0 0
0 0
0 0
0 0
0 0
0 0
0 0
0 0
0 0
0 0
0 0
0 0
0 0
0 0
0 0
0 0
0 0
0 0
0 0
0 0
0 0
0 0
0 0
0 0
0 0
0 0
0 0
0 0
0 0
0 0
0 0
0 0
0 0
0 0
0 0
0 0
0 0
0 0
0 0
0 0
0 0
0 0
0 0
0 0
0 0
0 0
0 0
0 0
0 0
0 0
0 0
0 0
0 0
0 0
0 0
0 0
0 0
0 0
0 0
0 0
0 0
0 0
0 0
0 0
0 0
0 0
0 0
0 0
0 0
0 0
0 0
0 0
0 0
0 0
0 0
0 0
0 0
0 0
0 0
0 0
0 0
0 0
0 0
0 0
0 0
0 0
0 0
0 0
0 0
0 0
0 0
0 0
0 0
0 0
0 0
0 0
0 0
0 0
0 0
0 0
0 0
0 0
0 0
0 0
0 0
0 0
0 0
0 0
0 0
0 0
0 0
0 0
0 0
0 0
0 0
0 0
0 0
0 0
0 0
0 0
0 0
0 0
0 0
0 0
0 0
0 0
0 0
0 0
0 0
0 0
0 0
0 0
0 0
0 0
0 0
0 0
0 0
0 0
0 0
0 0
0 0
0 0
0 0
0 0
0 0
0 0
0 0
0 0
0 0
0 0
0 0
0 0
0 0
0 0
0 0
0 0
0 0
0 0
0 0
0 0
0 0
0 0
0 0
0 0
0 0
0 0
0 0
0 0
0 0
0 0
0 0
0 0
0 0
0 0
0 0
0 0
0 0
0 0
0 0
0 0
0 0
0 0
0 0
0 0
0 0
0 0
0 0
0 0
0 0
0 0
0 0
0 0
0 0
0 0
0 0
0 0
0 0
0 0
0 0
0 0
0 0
0 0
0 0
0 0
0 0
0 0
0 0
0 0
0 0
0 0
0 0
0 0
0 0
0 0
0 0
0 0
0 0
0 0
0 0
0 0
0 0
0 0
0 0
0 0
0 0
0 0
0 0
0 0
0 0
0 0
0 0
0 0
0 0
0 0
0 0
0 0
0 0
0 0
0 0
0 0
0 0
0 0
0 0
0 0
0 0
0 0
0 0
0 0
0 0
0 0
0 0
0 0
0 0
0 0
0 0
0 0
0 0
0 0
0 0
0 0
0 0
0 0
0 0
0 0
0 0
0 0
0 0
0 0
0 0
0 0
0 0
0 0
0 0
0 0
0 0
0 0
0 0
0 0
0 0
0 0
0 0
0 0
0 0
0 0
0 0
0 0
0 0
0 0
0 0
0 0
0 0
0 0
0 0
0 0
0 0
0 0
0 0
0 0
0 0
0 0
0 0
0 0
0 0
0 0
0 0
0 0
0 0
0 0
0 0
0 0
0 0
0 0
0 0
0 0
0 0
0 0
0 0
0 0
0 0
0 0
0 0
0 0
0 0
0 0
0 0
0 0
0 0
0 0
0 0
0 0
0 0
0 0
0 0
0 0
0 0
0 0
0 0
0 0
0 0
0 0
0 0
0 0
0 0
0 0
0 0
0 0
0 0
0 0
0 0
0 0
0 0
0 0
0 0
0 0
0 0
0 0
0 0
0 0
0 0
0 0
0 0
0 0
0 0
0 0
0 0
0 0
0 0
0 0
0 0
0 0
0 0
0 0
0 0
0 0
0 0
0 0
0 0
0 0
0 0
0 0
0 0
0 0
0 0
0 0
0 0
0 0
0 0
0 0
0 0
0 0
0 0
0 0
0 0
0 0
0 0
0 0
0 0
0 0
0 0
0 0
0 0
0 0
0 0
0 0
0 0
0 0
0 0
0 0
0 0
0 0
0 0
0 0
0 0
0 0
0 0
0 0
0 0
0 0
0 0
0 0
0 0
0 0
0 0
0 0
0 0
0 0
0 0
0 0
0 0
0 0
0 0
0 0
0 0
0 0
0 0
0 0
0 0
0 0
0 0
0 0
0 0
0 0
0 0
0 0
0 0
0 0
0 0
0 0
0 0
0 0
0 0
0 0
0 0
0 0
0 0
0 0
0 0
0 0
0 0
0 0
0 0
0 0
0 0
0 0
0 0
0 0
0 0
0 0
0 0
0 0
0 0
0 0
0 0
0 0
0 0
0 0
0 0
0 0
0 0
0 0
0 0
0 0
0 0
0 0
0 0
0 0
0 0
0 0
0 0
0 0
0 0
0 0
0 0
0 0
0 0
0 0
0 0
0 0
0 0
0 0
0 0
0 0
0 0
0 0
0 0
0 0
0 0
0 0
0 0
0 0
0 0
0 0
0 0
0 0
0 0
0 0
0 0
0 0
0 0
0 0
0 0
0 0
0 0
0 0
0 0
0 0
0 0
0 0
0 0
0 0
0 0
0 0
0 0
0 0
0 0
0 0
0 0
0 0
0 0
0 0
0 0
0 0
0 0
0 0
0 0
0 0
0 0
0 0
0 0
0 0
0 0
0 0
0 0
0 0
0 0
0 0
0 0
0 0
0 0
0 0
0 0
0 0
0 0
0 0
0 0
0 0
0 0
0 0
0 0
0 0
0 0
0 0
0 0
0 0
0 0
0 0
0 0
0 0
0 0
0 0
0 0
0 0
0 0
0 0
0 0
0 0
0 0
0 0
0 0
0 0
0 0
0 0
0 0
0 0
0 0
0 0
0 0
0 0
0 0
0 0
0 0
0 0
0 0
0 0
0 0
0 0
0 0
0 0
0 0
0 0
0 0
0 0
0 0
0 0
0 0
0 0
0 0
0 0
0 0
0 0
0 0
0 0
0 0
0 0
0 0
0 0
0 0
0 0
0 0
0 0
0 0
0 0
0 0
0 0
0 0
0 0
0 0
0 0
0 0
0 0
0 0
0 0
0 0
0 0
0 0
0 0
0 0
0 0
0 0
0 0
0 0
0 0
0 0
0 0
0 0
0 0
0 0
0 0
0 0
0 0
0 0
0 0
0 0
0 0
0 0
0 0
0 0
0 0
0 0
0 0
0 0
0 0
0 0
0 0
0 0
0 0
0 0
0 0
0 0
0 0
0 0
0 0
0 0
0 0
0 0
0 0
0 0
0 0
0 0
0 0
0 0
0 0
0 0
0 0
0 0
0 0
0 0
0 0
0 0
0 0
0 0
0 0
0 0
0 0
0 0
0 0
0 0
0 0
0 0
0 0
0 0
0 0
0 0
0 0
0 0
0 0
0 0
0 0
0 0
0 0
0 0
0 0
0 0
0 0
0 0
0 0
0 0
0 0
0 0
0 0
0 0
0 0
0 0
0 0
0 0
0 0
0 0
0 0
0 0
0 0
0 0
0 0
0 0
0 0
0 0
0 0
0 0
0 0
0 0
0 0
0 0
0 0
0 0
0 0
0 0
0 0
0 0
0 0
0 0
0 0
0 0
0 0
0 0
0 0
0 0
0 0
0 0
0 0
0 0
0 0
0 0
0 0
0 0
0 0
0 0
0 0
0 0
0 0
0 0
0 0
0 0
0 0
0 0
0 0
0 0
0 0
0 0
0 0
0 0
0 0
0 0
0 0
0 0
0 0
0 0
0 0
0 0
0 0
0 0
0 0
0 0
0 0
0 0
0 0
0 0
0 0
0 0
0 0
0 0
0 0
0 0
0 0
0 0
0 0
0 0
0 0
0 0
0 0
0 0
0 0
0 0
0 0
0 0
0 0
0 0
0 0
0 0
0 0
0 0
0 0
0 0
0 0
0 0
0 0
0 0
0 0
0 0
0 0
0 0
0 0
0 0
0 0
0 0
0 0
0 0
0 0
0 0
0 0
0 0
0 0
0 0
0 0
0 0
0 0
0 0
0 0
0 0
0 0
0 0
0 0
0 0
0 0
0 0
0 0
0 0
0 0
0 0
0 0
0 0
0 0
0 0
0 0
0 0
0 0
0 0
0 0
0 0
0 0
0 0
0 0
0 0
0 0
0 0
0 0
0 0
0 0
0 0
0 0
0 0
0 0
0 0
0 0
0 0
0 0
0 0
0 0
0 0
0 0
0 0
0 0
0 0
0 0
0 0
0 0
0 0
0 0
0 0
0 0
0 0
0 0
0 0
0 0
0 0
0 0
0 0
0 0
0 0
0 0
0 0
0 0
0 0
0 0
0 0
0 0
0 0
0 0
0 0
0 0
0 0
0 0
0 0
0 0
0 0
0 0
0 0
0 0
0 0
0 0
0 0
0 0
0 0
0 0
0 0
0 0
0 0
0 0
0 0
0 0
0 0
0 0
0 0
0 0
0 0
0 0
0 0
0 0
0 0
0 0
0 0
0 0
0 0
0 0
0 0
0 0
0 0
0 0
0 0
0 0
0 0
0 0
0 0
0 0
0 0
0 0
0 0
0 0
0 0
0 0
0 0
0 0
0 0
0 0
0 0
0 0
0 0
0 0
0 0
0 0
0 0
0 0
0 0
0 0
0 0
0 0
0 0
0 0
0 0
0 0
0 0
0 0
0 0
0 0
0 0
0 0
0 0
0 0
0 0
0 0
0 0
0 0
0 0
0 0
0 0
0 0
0 0
0 0
0 0
0 0
0 0
0 0
0 0
0 0
0 0
0 0
0 0
0 0
0 0
0 0
0 0
0 0
0 0
0 0
0 0
0 0
0 0
0 0
0 0
0 0
0 0
0 0
0 0
0 0
0 0
0 0
0 0
0 0
0 0
0 0
0 0
0 0
0 0
0 0
0 0
0 0
0 0
0 0
0 0
0 0
0 0
0 0
0 0
0 0
0 0
0 0
0 0
0 0
0 0
0 0
0 0
0 0
0 0
0 0
0 0
0 0
0 0
0 0
0 0
0 0
0 0
0 0
0 0
0 0
0 0
0 0
0 0
0 0
0 0
0 0
0 0
0 0
0 0
0 0
0 0
0 0
0 0
0 0
0 0
0 0
0 0
0 0
0 0
0 0
0 0
0 0
0 0
0 0
0 0
0 0
0 0
0 0
0 0
0 0
0 0
0 0
0 0
0 0
0 0
0 0
0 0
0 0
0 0
0 0
0 0
0 0
0 0
0 0
0 0
0 0
0 0
0 0
0 0
0 0
0 0
0 0
0 0
0 0
0 0
0 0
0 0
0 0
0 0
0 0
0 0
0 0
0 0
0 0
0 0
0 0
0 0
0 0
0 0
0 0
0 0
0 0
0 0
0 0
0 0
0 0
0 0
0 0
0 0
0 0
0 0
0 0
0 0
0 0
0 0
0 0
0 0
0 0
0 0
0 0
0 0
0 0
0 0
0 0
0 0
0 0
0 0
0 0
0 0
0 0
0 0
0 0
0 0
0 0
0 0
0 0
0 0
0 0
0 0
0 0
0 0
0 0
0 0
0 0
0 0
0 0
0 0
0 0
0 0
0 0
0 0
0 0
0 0
0 0
0 0
0 0
0 0
0 0
0 0
0 0
0 0
0 0
0 0
0 0
0 0
0 0
0 0
0 0
0 0
0 0
0 0
0 0
0 0
0 0
0 0
0 0
0 0
0 0
0 0
0 0
0 0
0 0
0 0
0 0
0 0
0 0
0 0
0 0
0 0
0 0
0 0
0 0
0 0
0 0
0 0
0 0
0 0
0 0
0 0
0 0
0 0
0 0
0 0
0 0
0 0
0 0
0 0
0 0
0 0
0 0
0 0
0 0
0 0
0 0
0 0
0 0
0 0
0 0
0 0
0 0
0 0
0 0
0 0
0 0
0 0
0 0
0 0
0 0
0 0
0 0
0 0
0 0
0 0
0 0
0 0
0 0
0 0
0 0
0 0
0 0
0 0
0 0
0 0
0 0
0 0
0 0
0 0
0 0
0 0
0 0
0 0
0 0
0 0
0 0
0 0
0 0
0 0
0 0
0 0
0 0
0 0
0 0
0 0
0 0
0 0
0 0
0 0
0 0
0 0
0 0
0 0
0 0
0 0
0 0
0 0
0 0
0 0
0 0
0 0
0 0
0 0
0 0
0 0
0 0
0 0
0 0
0 0
0 0
0 0
0 0
0 0
0 0
0 0
0 0
0 0
0 0
0 0
0 0
0 0
0 0
0 0
0 0
0 0
0 0
0 0
0 0
0 0
0 0
0 0
0 0
0 0
0 0
0 0
0 0
0 0
0 0
0 0
0 0
0 0
0 0
0 0
0 0
0 0
0 0
0 0
0 0
0 0
0 0
0 0
0 0
0 0
0 0
0 0
0 0
0 0
0 0
0 0
0 0
0 0
0 0
0 0
0 0
0 0
0 0
0 0
0 0
0 0
0 0
0 0
0 0
0 0
0 0
0 0
0 0
0 0
0 0
0 0
0 0
0 0
0 0
0 0
0 0
0 0
0 0
0 0
0 0
0 0
0 0
0 0
0 0
0 0
0 0
0 0
0 0
0 0
0 0
0 0
0 0
0 0
0 0
0 0
0 0
0 0
0 0
0 0
0 0
0 0
0 0
0 0
0 0
0 0
0 0
0 0
0 0
0 0
0 0
0 0
0 0
0 0
0 0
0 0
0 0
0 0
0 0
0 0
0 0
0 0
0 0
0 0
0 0
0 0
0 0
0 0
0 0
0 0
0 0
0 0
0 0
0 0
0 0
0 0
0 0
0 0
0 0
0 0
0 0
0 0
0 0
0 0
0 0
0 0
0 0
0 0
0 0
0 0
0 0
0 0
0 0
0 0
0 0
0 0
0 0
0 0
0 0
0 0
0 0
0 0
0 0
0 0
0 0
0 0
0 0
0 0
0 0
0 0
0 0
0 0
0 0
0 0
0 0
0 0
0 0
0 0
0 0
0 0
0 0
0 0
0 0
0 0
0 0
0 0
0 0
0 0
0 0
0 0
0 0
0 0
0 0
0 0
0 0
0 0
0 0
0 0
0 0
0 0
0 0
0 0
0 0
0 0
0 0
0 0
0 0
0 0
0 0
0 0
0 0
0 0
0 0
0 0
0 0
0 0
0 0
0 0
0 0
0 0
0 0
0 0
0 0
0 0
0 0
0 0
0 0
0 0
0 0
0 0
0 0
0 0
0 0
0 0
0 0
0 0
0 0
0 0
0 0
0 0
0 0
0 0
0 0
0 0
0 0
0 0
0 0
0 0
0 0
0 0
0 0
0 0
0 0
0 0
0 0
0 0
0 0
0 0
0 0
0 0
0 0
0 0
0 0
0 0
0 0
0 0
0 0
0 0
0 0
0 0
0 0
0 0
0 0
0 0
0 0
0 0
0 0
0 0
0 0
0 0
0 0
0 0
0 0
0 0
0 0
0 0
0 0
0 0
0 0
0 0
0 0
0 0
0 0
0 0
0 0
0 0
0 0
0 0
0 0
0 0
0 0
0 0
0 0
0 0
0 0
0 0
0 0
0 0
0 0
0 0
0 0
0 0
0 0
0 0
0 0
0 0
0 0
0 0
0 0
0 0
0 0
0 0
0 0
0 0
0 0
0 0
0 0
0 0
0 0
0 0
0 0
0 0
0 0
0 0
0 0
0 0
0 0
0 0
0 0
0 0
0 0
0 0
0 0
0 0
0 0
0 0
0 0
0 0
0 0
0 0
0 0
0 0
0 0
0 0
0 0
0 0
0 0
0 0
0 0
0 0
0 0
0 0
0 0
0 0
0 0
0 0
0 0
0 0
0 0
0 0
0 0
0 0
0 0
0 0
0 0
0 0
0 0
0 0
0 0
0 0
0 0
0 0
0 0
0 0
0 0
0 0
0 0
0 0
0 0
0 0
0 0
0 0
0 0
0 0
0 0
0 0
0 0
0 0
0 0
0 0
0 0
0 0
0 0
0 0
0 0
0 0
0 0
0 0
0 0
0 0
0 0
0 0
0 0
0 0
0 0
0 0
0 0
0 0
0 0
0 0
0 0
0 0
0 0
0 0
0 0
0 0
0 0
0 0
0 0
0 0
0 0
0 0
0 0
0 0
0 0
0 0
0 0
0 0
0 0
0 0
0 0
0 0
0 0
0 0
0 0
0 0
0 0
0 0
0 0
0 0
0 0
0 0
0 0
0 0
0 0
0 0
0 0
0 0
0 0
0 0
0 0
0 0
0 0
0 0
0 0
0 0
0 0
0 0
0 0
0 0
0 0
0 0
0 0
0 0
0 0
0 0
0 0
0 0
0 0
0 0
0 0
0 0
0 0
0 0
0 0
0 0
0 0
0 0
0 0
0 0
0 0
0 0
0 0
0 0
0 0
0 0
0 0
0 0
0 0
0 0
0 0
0 0
0 0
0 0
0 0
0 0
0 0
0 0
0 0
0 0
0 0
0 0
0 0
0 0
0 0
0 0
0 0
0 0
0 0
0 0
0 0
0 0
0 0
0 0
0 0
0 0
0 0
0 0
0 0
0 0
0 0
0 0
0 0
0 0
0 0
0 0
0 0
0 0
0 0
0 0
0 0
0 0
0 0
0 0
0 0
0 0
0 0
0 0
0 0
0 0
0 0
0 0
0 0
0 0
0 0
0 0
0 0
0 0
0 0
0 0
0 0
0 0
0 0
0 0
0 0
0 0
0 0
0 0
0 0
0 0
0 0
0 0
0 0
0 0
0 0
0 0
0 0
0 0
0 0
0 0
0 0
0 0
0 0
0 0
0 0
0 0
0 0
0 0
0 0
0 0
0 0
0 0
0 0
0 0
0 0
0 0
0 0
0 0
0 0
0 0
0 0
0 0
0 0
0 0
0 0
0 0
0 0
0 0
0 0
0 0
0 0
0 0
0 0
0 0
0 0
0 0
0 0
0 0
0 0
0 0
0 0
0 0
0 0
0 0
0 0
0 0
0 0
0 0
0 0
0 0
0 0
0 0
0 0
0 0
0 0
0 0
0 0
0 0
0 0
0 0
0 0
0 0
0 0
0 0
0 0
0 0
0 0
0 0
0 0
0 0
0 0
0 0
0 0
0 0
0 0
0 0
0 0
0 0
0 0
0 0
0 0
0 0
0 0
0 0
0 0
0 0
0 0
0 0
0 0
0 0
0 0
0 0
0 0
0 0
0 0
0 0
0 0
0 0
0 0
0 0
0 0
0 0
0 0
0 0
0 0
0 0
0 0
0 0
0 0
0 0
0 0
0 0
0 0
0 0
0 0
0 0
0 0
0 0
0 0
0 0
0 0
0 0
0 0
0 0
0 0
0 0
0 0
0 0
0 0
0 0
0 0
0 0
0 0
0 0
0 0
0 0
0 0
0 0
0 0
0 0
0 0
0 0
0 0
0 0
0 0
0 0
0 0
0 0
0 0
0 0
0 0
0 0
0 0
0 0
0 0
0 0
0 0
0 0
0 0
0 0
0 0
0 0
0 0
0 0
0 0
0 0
0 0
0 0
0 0
0 0
0 0
0 0
0 0
0 0
0 0
0 0
0 0
0 0
0 0
0 0
0 0
0 0
0 0
0 0
0 0
0 0
0 0
0 0
0 0
0 0
0 0
0 0
0 0
0 0
0 0
0 0
0 0
0 0
0 0
0 0
0 0
0 0
0 0
0 0
0 0
0 0
0 0
0 0
0 0
0 0
0 0
0 0
0 0
0 0
0 0
0 0
0 0
0 0
0 0
0 0
0 0
0 0
0 0
0 0
0 0
0 0
0 0
0 0
0 0
0 0
0 0
0 0
0 0
0 0
0 0
0 0
0 0
0 0
0 0
0 0
0 0
0 0
0 0
0 0
0 0
0 0
0 0
0 0
0 0
0 0
0 0
0 0
0 0
0 0
0 0
0 0
0 0
0 0
0 0
0 0
0 0
0 0
0 0
0 0
0 0
0 0
0 0
0 0
0 0
0 0
0 0
0 0
0 0
0 0
0 0
0 0
0 0
0 0
0 0
0 0
0 0
0 0
0 0
0 0
0 0
0 0
0 0
0 0
0 0
0 0
0 0
0 0
0 0
0 0
0 0
0 0
0 0
0 0
0 0
0 0
0 0
0 0
0 0
0 0
0 0
0 0
0 0
0 0
0 0
0 0
0 0
0 0
0 0
0 0
0 0
0 0
0 0
0 0
0 0
0 0
0 0
0 0
0 0
0 0
0 0
0 0
0 0
0 0
0 0
0 0
0 0
0 0
0 0
0 0
0 0
0 0
0 0
0 0
0 0
0 0
0 0
0 0
0 0
0 0
0 0
0 0
0 0
0 0
0 0
0 0
0 0
0 0
0 0
0 0
0 0
0 0
0 0
0 0
0 0
0 0
0 0
0 0
0 0
0 0
0 0
0 0
0 0
0 0
0 0
0 0
0 0
0 0
0 0
0 0
0 0
0 0
0 0
0 0
0 0
0 0
0 0
0 0
0 0
0 0
0 0
0 0
0 0
0 0
0 0
0 0
0 0
0 0
0 0
0 0
0 0
0 0
0 0
0 0
0 0
0 0
0 0
0 0
0 0
0 0
0 0
0 0
0 0
0 0
0 0
0 0
0 0
0 0
0 0
0 0
0 0
0 0
0 0
0 0
0 0
0 0
0 0
0 0
0 0
0 0
0 0
0 0
0 0
0 0
0 0
0 0
0 0
0 0
0 0
0 0
0 0
0 0
0 0
0 0
0 0
0 0
0 0
0 0
0 0
0 0
0 0
0 0
0 0
0 0
0 0
0 0
0 0
0 0
0 0
0 0
0 0
0 0
0 0
0 0
0 0
0 0
0 0
0 0
0 0
0 0
0 0
0 0
0 0
0 0
0 0
0 0
0 0
0 0
0 0
0 0
0 0
0 0
0 0
0 0
0 0
0 0
0 0
0 0
0 0
0 0
0 0
0 0
0 0
0 0
0 0
0 0
0 0
0 0
0 0
0 0
0 0
0 0
0 0
0 0
0 0
0 0
0 0
0 0
0 0
0 0
0 0
0 0
0 0
0 0
0 0
0 0
0 0
0 0
0 0
0 0
0 0
0 0
0 0
0 0
0 0
0 0
0 0
0 0
0 0
0 0
0 0
0 0
0 0
0 0
0 0
0 0
0 0
0 0
0 0
0 0
0 0
0 0
0 0
0 0
0 0
0 0
0 0
0 0
0 0
0 0
0 0
0 0
0 0
0 0
0 0
0 0
0 0
0 0
0 0
0 0
0 0
0 0
0 0
0 0
0 0
0 0
0 0
0 0
0 0
0 0
0 0
0 0
0 0
0 0
0 0
0 0
0 0
0 0
0 0
0 0
0 0
0 0
0 0
0 0
0 0
0 0
0 0
0 0
0 0
0 0
0 0
0 0
0 0
0 0
0 0
0 0
0 0
0 0
0 0
0 0
0 0
0 0
0 0
0 0
0 0
0 0
0 0
0 0
0 0
0 0
0 0
0 0
0 0
0 0
0 0
0 0
0 0
0 0
0 0
0 0
0 0
0 0
0 0
0 0
0 0
0 0
0 0
0 0
0 0
0 0
0 0
0 0
0 0
0 0
0 0
0 0
0 0
0 0
0 0
0 0
0 0
0 0
0 0
0 0
0 0
0 0
0 0
0 0
0 0
0 0
0 0
0 0
0 0
0 0
0 0
0 0
0 0
0 0
0 0
0 0
0 0
0 0
0 0
0 0
0 0
0 0
0 0
0 0
0 0
0 0
0 0
0 0
0 0
0 0
0 0
0 0
0 0
0 0
0 0
0 0
0 0
0 0
0 0
0 0
0 0
0 0
0 0
0 0
0 0
0 0
0 0
0 0
0 0
0 0
0 0
0 0
0 0
0 0
0 0
0 0
0 0
0 0
0 0
0 0
0 0
0 0
0 0
0 0
0 0
0 0
0 0
0 0
0 0
0 0
0 0
0 0
0 0
0 0
0 0
0 0
0 0
0 0
0 0
0 0
0 0
0 0
0 0
0 0
0 0
0 0
0 0
0 0
0 0
0 0
0 0
0 0
0 0
0 0
0 0
0 0
0 0
0 0
0 0
0 0
0 0
0 0
0 0
0 0
0 0
0 0
0 0
0 0
0 0
0 0
0 0
0 0
0 0
0 0
0 0
0 0
0 0
0 0
0 0
0 0
0 0
0 0
0 0
0 0
0 0
0 0
0 0
0 0
0 0
0 0
0 0
0 0
0 0
0 0
0 0
0 0
0 0
0 0
0 0
0 0
0 0
0 0
0 0
0 0
0 0
0 0
0 0
0 0
0 0
0 0
0 0
0 0
0 0
0 0
0 0
0 0
0 0
0 0
0 0
0 0
0 0
0 0
0 0
0 0
0 0
0 0
0 0
0 0
0 0
0 0
0 0
0 0
0 0
0 0
0 0
0 0
0 0
0 0
0 0
0 0
0 0
0 0
0 0
0 0
0 0
0 0
0 0
0 0
0 0
0 0
0 0
0 0
0 0
0 0
0 0
0 0
0 0
0 0
0 0
0 0
0 0
0 0
0 0
0 0
0 0
0 0
0 0
0 0
0 0
0 0
0 0
0 0
0 0
0 0
0 0
0 0
0 0
0 0
0 0
0 0
0 0
0 0
0 0
0 0
0 0
0 0
0 0
0 0
0 0
0 0
0 0
0 0
0 0
0 0
0 0
0 0
0 0
0 0
0 0
0 0
0 0
0 0
0 0
0 0
0 0
0 0
0 0
0 0
0 0
0 0
0 0
0 0
0 0
0 0
0 0
0 0
0 0
0 0
0 0
0 0
0 0
0 0
0 0
0 0
0 0
0 0
0 0
0 0
0 0
0 0
0 0
0 0
0 0
0 0
0 0
0 0
0 0
0 0
0 0
0 0
0 0
0 0
0 0
0 0
0 0
0 0
0 0
0 0
0 0
0 0
0 0
0 0
0 0
0 0
0 0
0 0
0 0
0 0
0 0
0 0
0 0
0 0
0 0
0 0
0 0
0 0
0 0
0 0
0 0
0 0
0 0
0 0
0 0
0 0
0 0
0 0
0 0
0 0
0 0
0 0
0 0
0 0
0 0
0 0
0 0
0 0
0 0
0 0
0 0
0 0
0 0
0 0
0 0
0 0
0 0
0 0
0 0
0 0
0 0
0 0
0 0
0 0
0 0
0 0
0 0
0 0
0 0
0 0
0 0
0 0
0 0
0 0
0 0
0 0
0 0
0 0
0 0
0 0
0 0
0 0
0 0
0 0
0 0
0 0
0 0
0 0
0 0
0 0
0 0
0 0
0 0
0 0
0 0
0 0
0 0
0 0
0 0
0 0
0 0
0 0
0 0
0 0
0 0
0 0
0 0
0 0
0 0
0 0
0 0
0 0
0 0
0 0
0 0
0 0
0 0
0 0
0 0
0 0
0 0
0 0
0 0
0 0
0 0
0 0
0 0
0 0
0 0
0 0
0 0
0 0
0 0
0 0
0 0
0 0
0 0
0 0
0 0
0 0
0 0
0 0
0 0
0 0
0 0
0 0
0 0
0 0
0 0
0 0
0 0
0 0
0 0
0 0
0 0
0 0
0 0
0 0
0 0
0 0
0 0
0 0
0 0
0 0
0 0
0 0
0 0
0 0
0 0
0 0
0 0
0 0
0 0
0 0
0 0
0 0
0 0
0 0
0 0
0 0
0 0
0 0
0 0
0 0
0 0
0 0
0 0
0 0
0 0
0 0
0 0
0 0
0 0
0 0
0 0
0 0
0 0
0 0
0 0
0 0
0 0
0 0
0 0
0 0
0 0
0 0
0 0
0 0
0 0
0 0
0 0
0 0
0 0
0 0
0 0
0 0
0 0
0 0
0 0
0 0
0 0
0 0
0 0
0 0
0 0
0 0
0 0
0 0
0 0
0 0
0 0
0 0
0 0
0 0
0 0
0 0
0 0
0 0
0 0
0 0
0 0
0 0
0 0
0 0
0 0
0 0
0 0
0 0
0 0
0 0
0 0
0 0
0 0
0 0
0 0
0 0
0 0
0 0
0 0
0 0
0 0
0 0
0 0
0 0
0 0
0 0
0 0
0 0
0 0
0 0
0 0
0 0
0 0
0 0
0 0
0 0
0 0
0 0
0 0
0 0
0 0
0 0
0 0
0 0
0 0
0 0
0 0
0 0
0 0
0 0
0 0
0 0
0 0
0 0
0 0
0 0
0 0
0 0
0 0
0 0
0 0
0 0
0 0
0 0
0 0
0 0
0 0
0 0
0 0
0 0
0 0
0 0
0 0
0 0
0 0
0 0
0 0
0 0
0 0
0 0
0 0
0 0
0 0
0 0
0 0
0 0
0 0
0 0
0 0
0 0
0 0
0 0
0 0
0 0
0 0
0 0
0 0
0 0
0 0
0 0
0 0
0 0
0 0
0 0
0 0
0 0
0 0
0 0
0 0
0 0
0 0
0 0
0 0
0 0
0 0
0 0
0 0
0 0
0 0
0 0
0 0
0 0
0 0
0 0
0 0
0 0
0 0
0 0
0 0
0 0
0 0
0 0
0 0
0 0
0 0
0 0
0 0
0 0
0 0
0 0
0 0
0 0
0 0
0 0
0 0
0 0
0 0
0 0
0 0
0 0
0 0
0 0
0 0
0 0
0 0
0 0
0 0
0 0
0 0
0 0
0 0
0 0
0 0
0 0
0 0
0 0
0 0
0 0
0 0
0 0
0 0
0 0
0 0
0 0
0 0
0 0
0 0
0 0
0 0
0 0
0 0
0 0
0 0
0 0
0 0
0 0
0 0
0 0
0 0
0 0
0 0
0 0
0 0
0 0
0 0
0 0
0 0
0 0
0 0
0 0
0 0
0 0
0 0
0 0
0 0
0 0
0 0
0 0
0 0
0 0
0 0
0 0
0 0
0 0
0 0
0 0
0 0
0 0
0 0
0 0
0 0
0 0
0 0
0 0
0 0
0 0
0 0
0 0
0 0
0 0
0 0
0 0
0 0
0 0
0 0
0 0
0 0
0 0
0 0
0 0
0 0
0 0
0 0
0 0
0 0
0 0
0 0
0 0
0 0
0 0
0 0
0 0
0 0
0 0
0 0
0 0
0 0
0 0
0 0
0 0
0 0
0 0
0 0
0 0
0 0
0 0
0 0
0 0
0 0
0 0
0 0
0 0
0 0
0 0
0 0
0 0
0 0
0 0
0 0
0 0
0 0
0 0
0 0
0 0
0 0
0 0
0 0
0 0
0 0
0 0
0 0
0 0
0 0
0 0
0 0
0 0
0 0
0 0
0 0
0 0
0 0
0 0
0 0
0 0
0 0
0 0
0 0
0 0
0 0
0 0
0 0
0 0
0 0
0 0
0 0
0 0
0 0
0 0
0 0
0 0
0 0
0 0
0 0
0 0
0 0
0 0
0 0
0 0
0 0
0 0
0 0
0 0
0 0
0 0
0 0
0 0
0 0
0 0
0 0
0 0
0 0
0 0
0 0
0 0
0 0
0 0
0 0
0 0
0 0
0 0
0 0
0 0
0 0
0 0
0 0
0 0
0 0
0 0
0 0
0 0
0 0
0 0
0 0
0 0
0 0
0 0
0 0
0 0
0 0
0 0
0 0
0 0
0 0
0 0
0 0
0 0
0 0
0 0
0 0
0 0
0 0
0 0
0 0
0 0
0 0
0 0
0 0
0 0
0 0
0 0
0 0
0 0
0 0
0 0
0 0
0 0
0 0
0 0
0 0
0 0
0 0
0 0
0 0
0 0
0 0
0 0
0 0
0 0
0 0
0 0
0 0
0 0
0 0
0 0
0 0
0 0
0 0
0 0
0 0
0 0
0 0
0 0
0 0
0 0
0 0
0 0
0 0
0 0
0 0
0 0
0 0
0 0
0 0
0 0
0 0
0 0
0 0
0 0
0 0
0 0
0 0
0 0
0 0
0 0
0 0
0 0
0 0
0 0
0 0
0 0
0 0
0 0
0 0
0 0
0 0
0 0
0 0
0 0
0 0
0 0
0 0
0 0
0 0
0 0
0 0
0 0
0 0
0 0
0 0
0 0
0 0
0 0
0 0
0 0
0 0
0 0
0 0
0 0
0 0
0 0
0 0
0 0
0 0
0 0
0 0
0 0
0 0
0 0
0 0
0 0
0 0
0 0
0 0
0 0
0 0
0 0
0 0
0 0
0 0
0 0
0 0
0 0
0 0
0 0
0 0
0 0
0 0
0 0
0 0
0 0
0 0
0 0
0 0
0 0
0 0
0 0
0 0
0 0
0 0
0 0
0 0
0 0
0 0
0 0
0 0
0 0
0 0
0 0
0 0
0 0
0 0
0 0
0 0
0 0
0 0
0 0
0 0
0 0
0 0
0 0
0 0
0 0
0 0
0 0
0 0
0 0
0 0
0 0
0 0
0 0
0 0
0 0
0 0
0 0
0 0
0 0
0 0
0 0
0 0
0 0
0 0
0 0
0 0
0 0
0 0
0 0
0 0
0 0
0 0
0 0
0 0
0 0
0 0
0 0
0 0
0 0
0 0
0 0
0 0
0 0
0 0
0 0
0 0
0 0
0 0
0 0
0 0
0 0
0 0
0 0
0 0
0 0
0 0
0 0
0 0
0 0
0 0
0 0
0 0
0 0
0 0
0 0
0 0
0 0
0 0
0 0
0 0
0 0
0 0
0 0
0 0
0 0
0 0
0 0
0 0
0 0
0 0
0 0
0 0
0 0
0 0
0 0
0 0
0 0
0 0
0 0
0 0
0 0
0 0
0 0
0 0
0 0
0 0
0 0
0 0
0 0
0 0
0 0
0 0
0 0
0 0
0 0
0 0
0 0
0 0
0 0
0 0
0 0
0 0
0 0
0 0
0 0
0 0
0 0
0 0
0 0
0 0
0 0
0 0
0 0
0 0
0 0
0 0
0 0
0 0
0 0
0 0
0 0
0 0
0 0
0 0
0 0
0 0
0 0
0 0
0 0
0 0
0 0
0 0
0 0
0 0
0 0
0 0
0 0
0 0
0 0
0 0
0 0
0 0
0 0
0 0
0 0
0 0
0 0
0 0
0 0
0 0
0 0
0 0
0 0
0 0
0 0
0 0
0 0
0 0
0 0
0 0
0 0
0 0
0 0
0 0
0 0
0 0
0 0
0 0
0 0
0 0
0 0
0 0
0 0
0 0
0 0
0 0
0 0
0 0
0 0
0 0
0 0
0 0
0 0
0 0
0 0
0 0
0 0
0 0
0 0
0 0
0 0
0 0
0 0
0 0
0 0
0 0
0 0
0 0
0 0
0 0
0 0
0 0
0 0
0 0
0 0
0 0
0 0
0 0
0 0
0 0
0 0
0 0
0 0
0 0
0 0
0 0
0 0
0 0
0 0
0 0
0 0
0 0
0 0
0 0
0 0
0 0
0 0
0 0
0 0
0 0
0 0
0 0
0 0
0 0
0 0
0 0
0 0
0 0
0 0
0 0
0 0
0 0
0 0
0 0
0 0
0 0
0 0
0 0
0 0
0 0
0 0
0 0
0 0
0 0
0 0
0 0
0 0
0 0
0 0
0 0
0 0
0 0
0 0
0 0
0 0
0 0
0 0
0 0
0 0
0 0
0 0
0 0
0 0
0 0
0 0
0 0
0 0
0 0
0 0
0 0
0 0
0 0
0 0
0 0
0 0
0 0
0 0
0 0
0 0
0 0
0 0
0 0
0 0
0 0
0 0
0 0
0 0
0 0
0 0
0 0
0 0
0 0
0 0
0 0
0 0
0 0
0 0
0 0
0 0
0 0
0 0
0 0
0 0
0 0
0 0
0 0
0 0
0 0
0 0
0 0
0 0
0 0
0 0
0 0
0 0
0 0
0 0
0 0
0 0
0 0
0 0
0 0
0 0
0 0
0 0
0 0
0 0
0 0
0 0
0 0
0 0
0 0
0 0
0 0
0 0
0 0
0 0
0 0
0 0
0 0
0 0
0 0
0 0
0 0
0 0
0 0
0 0
0 0
0 0
0 0
0 0
0 0
0 0
0 0
0 0
0 0
0 0
0 0
0 0
0 0
0 0
0 0
0 0
0 0
0 0
0 0
0 0
0 0
0 0
0 0
0 0
0 0
0 0
0 0
0 0
0 0
0 0
0 0
0 0
0 0
0 0
0 0
0 0
0 0
0 0
0 0
0 0
0 0
0 0
0 0
0 0
0 0
0 0
0 0
0 0
0 0
0 0
0 0
0 0
0 0
0 0
0 0
0 0
0 0
0 0
0 0
0 0
0 0
0 0
0 0
0 0
0 0
0 0
0 0
0 0
0 0
0 0
0 0
0 0
0 0
0 0
0 0
0 0
0 0
0 0
0 0
0 0
0 0
0 0
0 0
0 0
0 0
0 0
0 0
0 0
0 0
0 0
0 0
0 0
0 0
0 0
0 0
0 0
0 0
0 0
0 0
0 0
0 0
0 0
0 0
0 0
0 0
0 0
0 0
0 0
0 0
0 0
0 0
0 0
0 0
0 0
0 0
0 0
0 0
0 0
0 0
0 0
0 0
0 0
0 0
0 0
0 0
0 0
0 0
0 0
0 0
0 0
0 0
0 0
0 0
0 0
0 0
0 0
0 0
0 0
0 0
0 0
0 0
0 0
0 0
0 0
0 0
0 0
0 0
0 0
0 0
0 0
0 0
0 0
0 0
0 0
0 0
0 0
0 0
0 0
0 0
0 0
0 0
0 0
0 0
0 0
0 0
0 0
0 0
0 0
0 0
0 0
0 0
0 0
0 0
0 0
0 0
0 0
0 0
0 0
0 0
0 0
0 0
0 0
0 0
0 0
0 0
0 0
0 0
0 0
0 0
0 0
0 0
0 0
0 0
0 0
0 0
0 0
0 0
0 0
0 0
0 0
0 0
0 0
0 0
0 0
0 0
0 0
0 0
0 0
0 0
0 0
0 0
0 0
0 0
0 0
0 0
0 0
0 0
0 0
0 0
0 0
0 0
0 0
0 0
0 0
0 0
0 0
0 0
0 0
0 0
0 0
0 0
0 0
0 0
0 0
0 0
0 0
0 0
0 0
0 0
0 0
0 0
0 0
0 0
0 0
0 0
0 0
0 0
0 0
0 0
0 0
0 0
0 0
0 0
0 0
0 0
0 0
0 0
0 0
0 0
0 0
0 0
0 0
0 0
0 0
0 0
0 0
0 0
0 0
0 0
0 0
0 0
0 0
0 0
0 0
0 0
0 0
0 0
0 0
0 0
0 0
0 0
0 0
0 0
0 0
0 0
0 0
0 0
0 0
0 0
0 0
0 0
0 0
0 0
0 0
0 0
0 0
0 0
0 0
0 0
0 0
0 0
0 0
0 0
0 0
0 0
0 0
0 0
0 0
0 0
0 0
0 0
0 0
0 0
0 0
0 0
0 0
0 0
0 0
0 0
0 0
0 0
0 0
0 0
0 0
0 0
0 0
0 0
0 0
0 0
0 0
0 0
0 0
0 0
0 0
0 0
0 0
0 0
0 0
0 0
0 0
0 0
0 0
0 0
0 0
0 0
0 0
0 0
0 0
0 0
0 0
0 0
0 0
0 0
0 0
0 0
0 0
0 0
0 0
0 0
0 0
0 0
0 0
0 0
0 0
0 0
0 0
0 0
0 0
0 0
0 0
0 0
0 0
0 0
0 0
0 0
0 0
0 0
0 0
0 0
0 0
0 0
0 0
0 0
0 0
0 0
0 0
0 0
0 0
0 0
0 0
0 0
0 0
0 0
0 0
0 0
0 0
0 0
0 0
0 0
0 0
0 0
0 0
0 0
0 0
0 0
0 0
0 0
0 0
0 0
0 0
0 0
0 0
0 0
0 0
0 0
0 0
0 0
0 0
0 0
0 0
0 0
0 0
0 0
0 0
0 0
0 0
0 0
0 0
0 0
0 0
0 0
0 0
0 0
0 0
0 0
0 0
0 0
0 0
0 0
0 0
0 0
0 0
0 0
0 0
0 0
0 0
0 0
0 0
0 0
0 0
0 0
0 0
0 0
0 0
0 0
0 0
0 0
0 0
0 0
0 0
0 0
0 0
0 0
0 0
0 0
0 0
0 0
0 0
0 0
0 0
0 0
0 0
0 0
0 0
0 0
0 0
0 0
0 0
0 0
0 0
0 0
0 0
0 0
0 0
0 0
0 0
0 0
0 0
0 0
0 0
0 0
0 0
0 0
0 0
0 0
0 0
0 0
0 0
0 0
0 0
0 0
0 0
0 0
0 0
0 0
0 0
0 0
0 0
0 0
0 0
0 0
0 0
0 0
0 0
0 0
0 0
0 0
0 0
0 0
0 0
0 0
0 0
0 0
0 0
0 0
0 0
0 0
0 0
0 0
0 0
0 0
0 0
0 0
0 0
0 0
0 0
0 0
0 0
0 0
0 0
0 0
0 0
0 0
0 0
0 0
0 0
0 0
0 0
0 0
0 0
0 0
0 0
0 0
0 0
0 0
0 0
0 0
0 0
0 0
0 0
0 0
0 0
0 0
0 0
0 0
0 0
0 0
0 0
0 0
0 0
0 0
0 0
0 0
0 0
0 0
0 0
0 0
0 0
0 0
0 0
0 0
0 0
0 0
0 0
0 0
0 0
0 0
0 0
0 0
0 0
0 0
0 0
0 0
0 0
0 0
0 0
0 0
0 0
0 0
0 0
0 0
0 0
0 0
0 0
0 0
0 0
0 0
0 0
0 0
0 0
0 0
0 0
0 0
0 0
0 0
0 0
0 0
0 0
0 0
0 0
0 0
0 0
0 0
0 0
0 0
0 0
0 0
0 0
0 0
0 0
0 0
0 0
0 0
0 0
0 0
0 0
0 0
0 0
0 0
0 0
0 0
0 0
0 0
0 0
0 0
0 0
0 0
0 0
0 0
0 0
0 0
0 0
0 0
0 0
0 0
0 0
0 0
0 0
0 0
0 0
0 0
0 0
0 0
0 0
0 0
0 0
0 0
0 0
0 0
0 0
0 0
0 0
0 0
0 0
0 0
0 0
0 0
0 0
0 0
0 0
0 0
0 0
0 0
0 0
0 0
0 0
0 0
0 0
0 0
0 0
0 0
0 0
0 0
0 0
0 0
0 0
0 0
0 0
0 0
0 0
0 0
0 0
0 0
0 0
0 0
0 0
0 0
0 0
0 0
0 0
0 0
0 0
0 0
0 0
0 0
0 0
0 0
0 0
0 0
0 0
0 0
0 0
0 0
0 0
0 0
0 0
0 0
0 0
0 0
0 0
0 0
0 0
0 0
0 0
0 0
0 0
0 0
0 0
0 0
0 0
0 0
0 0
0 0
0 0
0 0
0 0
0 0
0 0
0 0
0 0
0 0
0 0
0 0
0 0
0 0
0 0
0 0
0 0
0 0
0 0
0 0
0 0
0 0
0 0
0 0
0 0
0 0
0 0
0 0
0 0
0 0
0 0
0 0
0 0
0 0
0 0
0 0
0 0
0 0
0 0
0 0
0 0
0 0
0 0
0 0
0 0
0 0
0 0
0 0
0 0
0 0
0 0
0 0
0 0
0 0
0 0
0 0
0 0
0 0
0 0
0 0
0 0
0 0
0 0
0 0
0 0
0 0
0 0
0 0
0 0
0 0
0 0
0 0
0 0
0 0
0 0
0 0
0 0
0 0
0 0
0 0
0 0
0 0
0 0
0 0
0 0
0 0
0 0
0 0
0 0
0 0
0 0
0 0
0 0
0 0
0 0
0 0
0 0
0 0
0 0
0 0
0 0
0 0
0 0
0 0
0 0
0 0
0 0
0 0
0 0
0 0
0 0
0 0
0 0
0 0
0 0
0 0
0 0
0 0
0 0
0 0
0 0
0 0
0 0
0 0
0 0
0 0
0 0
0 0
0 0
0 0
0 0
0 0
0 0
0 0
0 0
0 0
0 0
0 0
0 0
0 0
0 0
0 0
0 0
0 0
0 0
0 0
0 0
0 0
0 0
0 0
0 0
0 0
0 0
0 0
0 0
0 0
0 0
0 0
0 0
0 0
0 0
0 0
0 0
0 0
0 0
0 0
0 0
0 0
0 0
0 0
0 0
0 0
0 0
0 0
0 0
0 0
0 0
0 0
0 0
0 0
0 0
0 0
0 0
0 0
0 0
0 0
0 0
0 0
0 0
0 0
0 0
0 0
0 0
0 0
0 0
0 0
0 0
0 0
0 0
0 0
0 0
0 0
0 0
0 0
0 0
0 0
0 0
0 0
0 0
0 0
0 0
0 0
0 0
0 0
0 0
0 0
0 0
0 0
0 0
0 0
0 0
0 0
0 0
0 0
0 0
0 0
0 0
0 0
0 0
0 0
0 0
0 0
0 0
0 0
0 0
0 0
0 0
0 0
0 0
0 0
0 0
0 0
0 0
0 0
0 0
0 0
0 0
0 0
0 0
0 0
0 0
0 0
0 0
0 0
0 0
0 0
0 0
0 0
0 0
0 0
0 0
0 0
0 0
0 0
0 0
0 0
0 0
0 0
0 0
0 0
0 0
0 0
0 0
0 0
0 0
0 0
0 0
0 0
0 0
0 0
0 0
0 0
0 0
0 0
0 0
0 0
0 0
0 0
0 0
0 0
0 0
0 0
0 0
0 0
0 0
0 0
0 0
0 0
0 0
0 0
0 0
0 0
0 0
0 0
0 0
0 0
0 0
0 0
0 0
0 0
0 0
0 0
0 0
0 0
0 0
0 0
0 0
0 0
0 0
0 0
0 0
0 0
0 0
0 0
0 0
0 0
0 0
0 0
0 0
0 0
0 0
0 0
0 0
0 0
0 0
0 0
0 0
0 0
0 0
0 0
0 0
0 0
0 0
0 0
0 0
0 0
0 0
0 0
0 0
0 0
0 0
0 0
0 0
0 0
0 0
0 0
0 0
0 0
0 0
0 0
0 0
0 0
0 0
0 0
0 0
0 0
0 0
0 0
0 0
0 0
0 0
0 0
0 0
0 0
0 0
0 0
0 0
0 0
0 0
0 0
0 0
0 0
0 0
0 0
0 0
0 0
0 0
0 0
0 0
0 0
0 0
0 0
0 0
0 0
0 0
0 0
0 0
0 0
0 0
0 0
0 0
0 0
0 0
0 0
0 0
0 0
0 0
0 0
0 0
0 0
0 0
0 0
0 0
0 0
0 0
0 0
0 0
0 0
0 0
0 0
0 0
0 0
0 0
0 0
0 0
0 0
0 0
0 0
0 0
0 0
0 0
0 0
0 0
0 0
0 0
0 0
0 0
0 0
0 0
0 0
0 0
0 0
0 0
0 0
0 0
0 0
0 0
0 0
0 0
0 0
0 0
0 0
0 0
0 0
0 0
0 0
0 0
0 0
0 0
0 0
0 0
0 0
0 0
0 0
0 0
0 0
0 0
0 0
0 0
0 0
0 0
0 0
0 0
0 0
0 0
0 0
0 0
0 0
0 0
0 0
0 0
0 0
0 0
0 0
0 0
0 0
0 0
0 0
0 0
0 0
0 0
0 0
0 0
0 0
0 0
0 0
0 0
0 0
0 0
0 0
0 0
0 0
0 0
0 0
0 0
0 0
0 0
0 0
0 0
0 0
0 0
0 0
0 0
0 0
0 0
0 0
0 0
0 0
0 0
0 0
0 0
0 0
0 0
0 0
0 0
0 0
0 0
0 0
0 0
0 0
0 0
0 0
0 0
0 0
0 0
0 0
0 0
0 0
0 0
0 0
0 0
0 0
0 0
0 0
0 0
0 0
0 0
0 0
0 0
0 0
0 0
0 0
0 0
0 0
0 0
0 0
0 0
0 0
0 0
0 0
0 0
0 0
0 0
0 0
0 0
0 0
0 0
0 0
0 0
0 0
0 0
0 0
0 0
0 0
0 0
0 0
0 0
0 0
0 0
0 0
0 0
0 0
0 0
0 0
0 0
0 0
0 0
0 0
0 0
0 0
0 0
0 0
0 0
0 0
0 0
0 0
0 0
0 0
0 0
0 0
0 0
0 0
0 0
0 0
0 0
0 0
0 0
0 0
0 0
0 0
0 0
0 0
0 0
0 0
0 0
0 0
0 0
0 0
0 0
0 0
0 0
0 0
0 0
0 0
0 0
0 0
0 0
0 0
0 0
0 0
0 0
0 0
0 0
0 0
0 0
0 0
0 0
0 0
0 0
0 0
0 0
0 0
0 0
0 0
0 0
0 0
0 0
0 0
0 0
0 0
0 0
0 0
0 0
0 0
0 0
0 0
0 0
0 0
0 0
0 0
0 0
0 0
0 0
0 0
0 0
0 0
0 0
0 0
0 0
0 0
0 0
0 0
0 0
0 0
0 0
0 0
0 0
0 0
0 0
0 0
0 0
0 0
0 0
0 0
0 0
0 0
0 0
0 0
0 0
0 0
0 0
0 0
0 0
0 0
0 0
0 0
0 0
0 0
0 0
0 0
0 0
0 0
0 0
0 0
0 0
0 0
0 0
0 0
0 0
0 0
0 0
0 0
0 0
0 0
0 0
0 0
0 0
0 0
0 0
0 0
0 0
0 0
0 0
0 0
0 0
0 0
0 0
0 0
0 0
0 0
0 0
0 0
0 0
0 0
0 0
0 0
0 0
0 0
0 0
0 0
0 0
0 0
0 0
0 0
0 0
0 0
0 0
0 0
0 0
0 0
0 0
0 0
0 0
0 0
0 0
0 0
0 0
0 0
0 0
0 0
0 0
0 0
0 0
0 0
0 0
0 0
0 0
0 0
0 0
0 0
0 0
0 0
0 0
0 0
0 0
0 0
0 0
0 0
0 0
0 0
0 0
0 0
0 0
0 0
0 0
0 0
0 0
0 0
0 0
0 0
0 0
0 0
0 0
0 0
0 0
0 0
0 0
0 0
0 0
0 0
0 0
0 0
0 0
0 0
0 0
0 0
0 0
0 0
0 0
0 0
0 0
0 0
0 0
0 0
0 0
0 0
0 0
0 0
0 0
0 0
0 0
0 0
0 0
0 0
0 0
0 0
0 0
0 0
0 0
0 0
0 0
0 0
0 0
0 0
0 0
0 0
0 0
0 0
0 0
0 0
0 0
0 0
0 0
0 0
0 0
0 0
0 0
0 0
0 0
0 0
0 0
0 0
0 0
0 0
0 0
0 0
0 0
0 0
0 0
0 0
0 0
0 0
0 0
0 0
0 0
0 0
0 0
0 0
0 0
0 0
0 0
0 0
0 0
0 0
0 0
0 0
0 0
0 0
0 0
0 0
0 0
0 0
0 0
0 0
0 0
0 0
0 0
0 0
0 0
0 0
0 0
0 0
0 0
0 0
0 0
0 0
0 0
0 0
0 0
0 0
0 0
0 0
0 0
0 0
0 0
0 0
0 0
0 0
0 0
0 0
0 0
0 0
0 0
0 0
0 0
0 0
0 0
0 0
0 0
0 0
0 0
0 0
0 0
0 0
0 0
0 0
0 0
0 0
0 0
0 0
0 0
0 0
0 0
0 0
0 0
0 0
0 0
0 0
0 0
0 0
0 0
0 0
0 0
0 0
0 0
0 0
0 0
0 0
0 0
0 0
0 0
0 0
0 0
0 0
0 0
0 0
0 0
0 0
0 0
0 0
0 0
0 0
0 0
0 0
0 0
0 0
0 0
0 0
0 0
0 0
0 0
0 0
0 0
0 0
0 0
0 0
0 0
0 0
0 0
0 0
0 0
0 0
0 0
0 0
0 0
0 0
0 0
0 0
0 0
0 0
0 0
0 0
0 0
0 0
0 0
0 0
0 0
0 0
0 0
0 0
0 0
0 0
0 0
0 0
0 0
0 0
0 0
0 0
0 0
0 0
0 0
0 0
0 0
0 0
0 0
0 0
0 0
0 0
0 0
0 0
0 0
0 0
0 0
0 0
0 0
0 0
0 0
0 0
0 0
0 0
0 0
0 0
0 0
0 0
0 0
0 0
0 0
0 0
0 0
0 0
0 0
0 0
0 0
0 0
0 0
0 0
0 0
0 0
0 0
0 0
0 0
0 0
0 0
0 0
0 0
0 0
0 0
0 0
0 0
0 0
0 0
0 0
0 0
0 0
0 0
0 0
0 0
0 0
0 0
0 0
0 0
0 0
0 0
0 0
0 0
0 0
0 0
0 0
0 0
0 0
0 0
0 0
0 0
0 0
0 0
0 0
0 0
0 0
0 0
0 0
0 0
0 0
0 0
0 0
0 0
0 0
0 0
0 0
0 0
0 0
0 0
0 0
0 0
0 0
0 0
0 0
0 0
0 0
0 0
0 0
0 0
0 0
0 0
0 0
0 0
0 0
0 0
0 0
0 0
0 0
0 0
0 0
0 0
0 0
0 0
0 0
0 0
0 0
0 0
0 0
0 0
0 0
0 0
0 0
0 0
0 0
0 0
0 0
0 0
0 0
0 0
0 0
0 0
0 0
0 0
0 0
0 0
0 0
0 0
0 0
0 0
0 0
0 0
0 0
0 0
0 0
0 0
0 0
0 0
0 0
0 0
0 0
0 0
0 0
0 0
0 0
0 0
0 0
0 0
0 0
0 0
0 0
0 0
0 0
0 0
0 0
0 0
0 0
0 0
0 0
0 0
0 0
0 0
0 0
0 0
0 0
0 0
0 0
0 0
0 0
0 0
0 0
0 0
0 0
0 0
0 0
0 0
0 0
0 0
0 0
0 0
0 0
0 0
0 0
0 0
0 0
0 0
0 0
0 0
0 0
0 0
0 0
0 0
0 0
0 0
0 0
0 0
0 0
0 0
0 0
0 0
0 0
0 0
0 0
0 0
0 0
0 0
0 0
0 0
0 0
0 0
0 0
0 0
0 0
0 0
0 0
0 0
0 0
0 0
0 0
0 0
0 0
0 0
0 0
0 0
0 0
0 0
0 0
0 0
0 0
0 0
0 0
0 0
0 0
0 0
0 0
0 0
0 0
0 0
0 0
0 0
0 0
0 0
0 0
0 0
0 0
0 0
0 0
0 0
0 0
0 0
0 0
0 0
0 0
0 0
0 0
0 0
0 0
0 0
0 0
0 0
0 0
0 0
0 0
0 0
0 0
0 0
0 0
0 0
0 0
0 0
0 0
0 0
0 0
0 0
0 0
0 0
0 0
0 0
0 0
0 0
0 0
0 0
0 0
0 0
0 0
0 0
0 0
0 0
0 0
0 0
0 0
0 0
0 0
0 0
0 0
0 0
0 0
0 0
0 0
0 0
0 0
0 0
0 0
0 0
0 0
0 0
0 0
0 0
0 0
0 0
0 0
0 0
0 0
0 0
0 0
0 0
0 0
0 0
0 0
0 0
0 0
0 0
0 0
0 0
0 0
0 0
0 0
0 0
0 0
0 0
0 0
0 0
0 0
0 0
0 0
0 0
0 0
0 0
0 0
0 0
0 0
0 0
0 0
0 0
0 0
0 0
0 0
0 0
0 0
0 0
0 0
0 0
0 0
0 0
0 0
0 0
0 0
0 0
0 0
0 0
0 0
0 0
0 0
0 0
0 0
0 0
0 0
0 0
0 0
0 0
0 0
0 0
0 0
0 0
0 0
0 0
0 0
0 0
0 0
0 0
0 0
0 0
0 0
0 0
0 0
0 0
0 0
0 0
0 0
0 0
0 0
0 0
0 0
0 0
0 0
0 0
0 0
0 0
0 0
0 0
0 0
0 0
0 0
0 0
0 0
0 0
0 0
0 0
0 0
0 0
0 0
0 0
0 0
0 0
0 0
0 0
0 0
0 0
0 0
0 0
0 0
0 0
0 0
0 0
0 0
0 0
0 0
0 0
0 0
0 0
0 0
0 0
0 0
0 0
0 0
0 0
0 0
0 0
0 0
0 0
0 0
0 0
0 0
0 0
0 0
0 0
0 0
0 0
0 0
0 0
0 0
0 0
0 0
0 0
0 0
0 0
0 0
0 0
0 0
0 0
0 0
0 0
0 0
0 0
0 0
0 0
0 0
0 0
0 0
0 0
0 0
0 0
0 0
0 0
0 0
0 0
0 0
0 0
0 0
0 0
0 0
0 0
0 0
0 0
0 0
0 0
0 0
0 0
0 0
0 0
0 0
0 0
0 0
0 0
0 0
0 0
0 0
0 0
0 0
0 0
0 0
0 0
0 0
0 0
0 0
0 0
0 0
0 0
0 0
0 0
0 0
0 0
0 0
0 0
0 0
0 0
0 0
0 0
0 0
0 0
0 0
0 0
0 0
0 0
0 0
0 0
0 0
0 0
0 0
0 0
0 0
0 0
0 0
0 0
0 0
0 0
0 0
0 0
0 0
0 0
0 0
0 0
0 0
0 0
0 0
0 0
0 0
0 0
0 0
0 0
0 0
0 0
0 0
0 0
0 0
0 0
0 0
0 0
0 0
0 0
0 0
0 0
0 0
0 0
0 0
0 0
0 0
0 0
0 0
0 0
0 0
0 0
0 0
0 0
0 0
0 0
0 0
0 0
0 0
0 0
0 0
0 0
0 0
0 0
0 0
0 0
0 0
0 0
0 0
0 0
0 0
0 0
0 0
0 0
0 0
0 0
0 0
0 0
0 0
0 0
0 0
0 0
0 0
0 0
0 0
0 0
0 0
0 0
0 0
0 0
0 0
0 0
0 0
0 0
0 0
0 0
0 0
0 0
0 0
0 0
0 0
0 0
0 0
0 0
0 0
0 0
0 0
0 0
0 0
0 0
0 0
0 0
0 0
0 0
0 0
0 0
0 0
0 0
0 0
0 0
0 0
0 0
0 0
0 0
0 0
0 0
0 0
0 0
0 0
0 0
0 0
0 0
0 0
0 0
0 0
0 0
0 0
0 0
0 0
0 0
0 0
0 0
0 0
0 0
0 0
0 0
0 0
0 0
0 0
0 0
0 0
0 0
0 0
0 0
0 0
0 0
0 0
0 0
0 0
0 0
0 0
0 0
0 0
0 0
0 0
0 0
0 0
0 0
0 0
0 0
0 0
0 0
0 0
0 0
0 0
0 0
0 0
0 0
0 0
0 0
0 0
0 0
0 0
0 0
0 0
0 0
0 0
0 0
0 0
0 0
0 0
0 0
0 0
0 0
0 0
0 0
0 0
0 0
0 0
0 0
0 0
0 0
0 0
0 0
0 0
0 0
0 0
0 0
0 0
0 0
0 0
0 0
0 0
0 0
0 0
0 0
0 0
0 0
0 0
0 0
0 0
0 0
0 0
0 0
0 0
0 0
0 0
0 0
0 0
0 0
0 0
0 0
0 0
0 0
0 0
0 0
0 0
0 0
0 0
0 0
0 0
0 0
0 0
0 0
0 0
0 0
0 0
0 0
0 0
0 0
0 0
0 0
0 0
0 0
0 0
0 0
0 0
0 0
0 0
0 0
0 0
0 0
0 0
0 0
0 0
0 0
0 0
0 0
0 0
0 0
0 0
0 0
0 0
0 0
0 0
0 0
0 0
0 0
0 0
0 0
0 0
0 0
0 0
0 0
0 0
0 0
0 0
0 0
0 0
0 0
0 0
0 0
0 0
0 0
0 0
0 0
0 0
0 0
0 0
0 0
0 0
0 0
0 0
0 0
0 0
0 0
0 0
0 0
0 0
0 0
0 0
0 0
0 0
0 0
0 0
0 0
0 0
0 0
0 0
0 0
0 0
0 0
0 0
0 0
0 0
0 0
0 0
0 0
0 0
0 0
0 0
0 0
0 0
0 0
0 0
0 0
0 0
0 0
0 0
0 0
0 0
0 0
0 0
0 0
0 0
0 0
0 0
0 0
0 0
0 0
0 0
0 0
0 0
0 0
0 0
0 0
0 0
0 0
0 0
0 0
0 0
0 0
0 0
0 0
0 0
0 0
0 0
0 0
0 0
0 0
0 0
0 0
0 0
0 0
0 0
0 0
0 0
0 0
0 0
0 0
0 0
0 0
0 0
0 0
0 0
0 0
0 0
0 0
0 0
0 0
0 0
0 0
0 0
0 0
0 0
0 0
0 0
0 0
0 0
0 0
0 0
0 0
0 0
0 0
0 0
0 0
0 0
0 0
0 0
0 0
0 0
0 0
0 0
0 0
0 0
0 0
0 0
0 0
0 0
0 0
0 0
0 0
0 0
0 0
0 0
0 0
0 0
0 0
0 0
0 0
0 0
0 0
0 0
0 0
0 0
0 0
0 0
0 0
0 0
0 0
0 0
0 0
0 0
0 0
0 0
0 0
0 0
0 0
0 0
0 0
0 0
0 0
0 0
0 0
0 0
0 0
0 0
0 0
0 0
0 0
0 0
0 0
0 0
0 0
0 0
0 0
0 0
0 0
0 0
0 0
0 0
0 0
0 0
0 0
0 0
0 0
0 0
0 0
0 0
0 0
0 0
0 0
0 0
0 0
0 0
0 0
0 0
0 0
0 0
0 0
0 0
0 0
0 0
0 0
0 0
0 0
0 0
0 0
0 0
0 0
0 0
0 0
0 0
0 0
0 0
0 0
0 0
0 0
0 0
0 0
0 0
0 0
0 0
0 0
0 0
0 0
0 0
0 0
0 0
0 0
0 0
0 0
0 0
0 0
0 0
0 0
0 0
0 0
0 0
0 0
0 0
0 0
0 0
0 0
0 0
0 0
0 0
0 0
0 0
0 0
0 0
0 0
0 0
0 0
0 0
0 0
0 0
0 0
0 0
0 0
0 0
0 0
0 0
0 0
0 0
0 0
0 0
0 0
0 0
0 0
0 0
0 0
0 0
0 0
0 0
0 0
0 0
0 0
0 0
0 0
0 0
0 0
0 0
0 0
0 0
0 0
0 0
0 0
0 0
0 0
0 0
0 0
0 0
0 0
0 0
0 0
0 0
0 0
0 0
0 0
0 0
0 0
0 0
0 0
0 0
0 0
0 0
0 0
0 0
0 0
0 0
0 0
0 0
0 0
0 0
0 0
0 0
0 0
0 0
0 0
0 0
0 0
0 0
0 0
0 0
0 0
0 0
0 0
0 0
0 0
0 0
0 0
0 0
0 0
0 0
0 0
0 0
0 0
0 0
0 0
0 0
0 0
0 0
0 0
0 0
0 0
0 0
0 0
0 0
0 0
0 0
0 0
0 0
0 0
0 0
0 0
0 0
0 0
0 0
0 0
0 0
0 0
0 0
0 0
0 0
0 0
0 0
0 0
0 0
0 0
0 0
0 0
0 0
0 0
0 0
0 0
0 0
0 0
0 0
0 0
0 0
0 0
0 0
0 0
0 0
0 0
0 0
0 0
0 0
0 0
0 0
0 0
0 0
0 0
0 0
0 0
0 0
0 0
0 0
0 0
0 0
0 0
0 0
0 0
0 0
0 0
0 0
0 0
0 0
0 0
0 0
0 0
0 0
0 0
0 0
0 0
0 0
0 0
0 0
0 0
0 0
0 0
0 0
0 0
0 0
0 0
0 0
0 0
0 0
0 0
0 0
0 0
0 0
0 0
0 0
0 0
0 0
0 0
0 0
0 0
0 0
0 0
0 0
0 0
0 0
0 0
0 0
0 0
0 0
0 0
0 0
0 0
0 0
0 0
0 0
0 0
0 0
0 0
0 0
0 0
0 0
0 0
0 0
0 0
0 0
0 0
0 0
0 0
0 0
0 0
0 0
0 0
0 0
0 0
0 0
0 0
0 0
0 0
0 0
0 0
0 0
0 0
0 0
0 0
0 0
0 0
0 0
0 0
0 0
0 0
0 0
0 0
0 0
0 0
0 0
0 0
0 0
0 0
0 0
0 0
0 0
0 0
0 0
0 0
0 0
0 0
0 0
0 0
0 0
0 0
0 0
0 0
0 0
0 0
0 0
0 0
0 0
0 0
0 0
0 0
0 0
0 0
0 0
0 0
0 0
0 0
0 0
0 0
0 0
0 0
0 0
0 0
0 0
0 0
0 0
0 0
0 0
0 0
0 0
0 0
0 0
0 0
0 0
0 0
0 0
0 0
0 0
0 0
0 0
0 0
0 0
0 0
0 0
0 0
0 0
0 0
0 0
0 0
0 0
0 0
0 0
0 0
0 0
0 0
0 0
0 0
0 0
0 0
0 0
0 0
0 0
0 0
0 0
0 0
0 0
0 0
0 0
0 0
0 0
0 0
0 0
0 0
0 0
0 0
0 0
0 0
0 0
0 0
0 0
0 0
0 0
0 0
0 0
0 0
0 0
0 0
0 0
0 0
0 0
0 0
0 0
0 0
0 0
0 0
0 0
0 0
0 0
0 0
0 0
0 0
0 0
0 0
0 0
0 0
0 0
0 0
0 0
0 0
0 0
0 0
0 0
0 0
0 0
0 0
0 0
0 0
0 0
0 0
0 0
0 0
0 0
0 0
0 0
0 0
0 0
0 0
0 0
0 0
0 0
0 0
0 0
0 0
0 0
0 0
0 0
0 0
0 0
0 0
0 0
0 0
0 0
0 0
0 0
0 0
0 0
0 0
0 0
0 0
0 0
0 0
0 0
0 0
0 0
0 0
0 0
0 0
0 0
0 0
0 0
0 0
0 0
0 0
0 0
0 0
0 0
0 0
0 0
0 0
0 0
0 0
0 0
0 0
0 0
0 0
0 0
0 0
0 0
0 0
0 0
0 0
0 0
0 0
0 0
0 0
0 0
0 0
0 0
0 0
0 0
0 0
0 0
0 0
0 0
0 0
0 0
0 0
0 0
0 0
0 0
0 0
0 0
0 0
0 0
0 0
0 0
0 0
0 0
0 0
0 0
0 0
0 0
0 0
0 0
0 0
0 0
0 0
0 0
0 0
0 0
0 0
0 0
0 0
0 0
0 0
0 0
0 0
0 0
0 0
0 0
0 0
0 0
0 0
0 0
0 0
0 0
0 0
0 0
0 0
0 0
0 0
0 0
0 0
0 0
0 0
0 0
0 0
0 0
0 0
0 0
0 0
0 0
0 0
0 0
0 0
0 0
0 0
0 0
0 0
0 0
0 0
0 0
0 0
0 0
0 0
0 0
0 0
0 0
0 0
0 0
0 0
0 0
0 0
0 0
0 0
0 0
0 0
0 0
0 0
0 0
0 0
0 0
0 0
0 0
0 0
0 0
0 0
0 0
0 0
0 0
0 0
0 0
0 0
0 0
0 0
0 0
0 0
0 0
0 0
0 0
0 0
0 0
0 0
0 0
0 0
0 0
0 0
0 0
0 0
0 0
0 0
0 0
0 0
0 0
0 0
0 0
0 0
0 0
0 0
0 0
0 0
0 0
0 0
0 0
0 0
0 0
0 0
0 0
0 0
0 0
0 0
0 0
0 0
0 0
0 0
0 0
0 0
0 0
0 0
0 0
0 0
0 0
0 0
0 0
0 0
0 0
0 0
0 0
0 0
0 0
0 0
0 0
0 0
0 0
0 0
0 0
0 0
0 0
0 0
0 0
0 0
0 0
0 0
0 0
0 0
0 0
0 0
0 0
0 0
0 0
0 0
0 0
0 0
0 0
0 0
0 0
0 0
0 0
0 0
0 0
0 0
0 0
0 0
0 0
0 0
0 0
0 0
0 0
0 0
0 0
0 0
0 0
0 0
0 0
0 0
0 0
0 0
0 0
0 0
0 0
0 0
0 0
0 0
0 0
0 0
0 0
0 0
0 0
0 0
0 0
0 0
0 0
0 0
0 0
0 0
0 0
0 0
0 0
0 0
0 0
0 0
0 0
0 0
0 0
0 0
0 0
0 0
0 0
0 0
0 0
0 0
0 0
0 0
0 0
0 0
0 0
0 0
0 0
0 0
0 0
0 0
0 0
0 0
0 0
0 0
0 0
0 0
0 0
0 0
0 0
0 0
0 0
0 0
0 0
0 0
0 0
0 0
0 0
0 0
0 0
0 0
0 0
0 0
0 0
0 0
0 0
0 0
0 0
0 0
0 0
0 0
0 0
0 0
0 0
0 0
0 0
0 0
0 0
0 0
0 0
0 0
0 0
0 0
0 0
0 0
0 0
0 0
0 0
0 0
0 0
0 0
0 0
0 0
0 0
0 0
0 0
0 0
0 0
0 0
0 0
0 0
0 0
0 0
0 0
0 0
0 0
0 0
0 0
0 0
0 0
0 0
0 0
0 0
0 0
0 0
0 0
0 0
0 0
0 0
0 0
0 0
0 0
0 0
0 0
0 0
0 0
0 0
0 0
0 0
0 0
0 0
0 0
0 0
0 0
0 0
0 0
0 0
0 0
0 0
0 0
0 0
0 0
0 0
0 0
0 0
0 0
0 0
0 0
0 0
0 0
0 0
0 0
0 0
0 0
0 0
0 0
0 0
0 0
0 0
0 0
0 0
0 0
0 0
0 0
0 0
0 0
0 0
0 0
0 0
0 0
0 0
0 0
0 0
0 0
0 0
0 0
0 0
0 0
0 0
0 0
0 0
0 0
0 0
0 0
0 0
0 0
0 0
0 0
0 0
0 0
0 0
0 0
0 0
0 0
0 0
0 0
0 0
0 0
0 0
0 0
0 0
0 0
0 0
0 0
0 0
0 0
0 0
0 0
0 0
0 0
0 0
0 0
0 0
0 0
0 0
0 0
0 0
0 0
0 0
0 0
0 0
0 0
0 0
0 0
0 0
0 0
0 0
0 0
0 0
0 0
0 0
0 0
0 0
0 0
0 0
0 0
0 0
0 0
0 0
0 0
0 0
0 0
0 0
0 0
0 0
0 0
0 0
0 0
0 0
0 0
0 0
0 0
0 0
0 0
0 0
0 0
0 0
0 0
0 0
0 0
0 0
0 0
0 0
0 0
0 0
0 0
0 0
0 0
0 0
0 0
0 0
0 0
0 0
0 0
0 0
0 0
0 0
0 0
0 0
0 0
0 0
0 0
0 0
0 0
0 0
0 0
0 0
0 0
0 0
0 0
0 0
0 0
0 0
0 0
0 0
0 0
0 0
0 0
0 0
0 0
0 0
0 0
0 0
0 0
0 0
0 0
0 0
0 0
0 0
0 0
0 0
0 0
0 0
0 0
0 0
0 0
0 0
0 0
0 0
0 0
0 0
0 0
0 0
0 0
0 0
0 0
0 0
0 0
0 0
0 0
0 0
0 0
0 0
0 0
0 0
0 0
0 0
0 0
0 0
0 0
0 0
0 0
0 0
0 0
0 0
0 0
0 0
0 0
0 0
0 0
0 0
0 0
0 0
0 0
0 0
0 0
0 0
0 0
0 0
0 0
0 0
0 0
0 0
0 0
0 0
0 0
0 0
0 0
0 0
0 0
0 0
0 0
0 0
0 0
0 0
0 0
0 0
0 0
0 0
0 0
0 0
0 0
0 0
0 0
0 0
0 0
0 0
0 0
0 0
0 0
0 0
0 0
0 0
0 0
0 0
0 0
0 0
0 0
0 0
0 0
0 0
0 0
0 0
0 0
0 0
0 0
0 0
0 0
0 0
0 0
0 0
0 0
0 0
0 0
0 0
0 0
0 0
0 0
0 0
0 0
0 0
0 0
0 0
0 0
0 0
0 0
0 0
0 0
0 0
0 0
0 0
0 0
0 0
0 0
0 0
0 0
0 0
0 0
0 0
0 0
0 0
0 0
0 0
0 0
0 0
0 0
0 0
0 0
0 0
0 0
0 0
0 0
0 0
0 0
0 0
0 0
0 0
0 0
0 0
0 0
0 0
0 0
0 0
0 0
0 0
0 0
0 0
0 0
0 0
0 0
0 0
0 0
0 0
0 0
0 0
0 0
0 0
0 0
0 0
0 0
0 0
0 0
0 0
0 0
0 0
0 0
0 0
0 0
0 0
0 0
0 0
0 0
0 0
0 0
0 0
0 0
0 0
0 0
0 0
0 0
0 0
0 0
0 0
0 0
0 0
0 0
0 0
0 0
0 0
0 0
0 0
0 0
0 0
0 0
0 0
0 0
0 0
0 0
0 0
0 0
0 0
0 0
0 0
0 0
0 0
0 0
0 0
0 0
0 0
0 0
0 0
0 0
0 0
0 0
0 0
0 0
0 0
0 0
0 0
0 0
0 0
0 0
0 0
0 0
0 0
0 0
0 0
0 0
0 0
0 0
0 0
0 0
0 0
0 0
0 0
0 0
0 0
0 0
0 0
0 0
0 0
0 0
0 0
0 0
0 0
0 0
0 0
0 0
0 0
0 0
0 0
0 0
0 0
0 0
0 0
0 0
0 0
0 0
0 0
0 0
0 0
0 0
0 0
0 0
0 0
0 0
0 0
0 0
0 0
0 0
0 0
0 0
0 0
0 0
0 0
0 0
0 0
0 0
0 0
0 0
0 0
0 0
0 0
0 0
0 0
0 0
0 0
0 0
0 0
0 0
0 0
0 0
0 0
0 0
0 0
0 0
0 0
0 0
0 0
0 0
0 0
0 0
0 0
0 0
0 0
0 0
0 0
0 0
0 0
0 0
0 0
0 0
0 0
0 0
0 0
0 0
0 0
0 0
0 0
0 0
0 0
0 0
0 0
0 0
0 0
0 0
0 0
0 0
0 0
0 0
0 0
0 0
0 0
0 0
0 0
0 0
0 0
0 0
0 0
0 0
0 0
0 0
0 0
0 0
0 0
0 0
0 0
0 0
0 0
0 0
0 0
0 0
0 0
0 0
0 0
0 0
0 0
0 0
0 0
0 0
0 0
0 0
0 0
0 0
0 0
0 0
0 0
0 0
0 0
0 0
0 0
0 0
0 0
0 0
0 0
0 0
0 0
0 0
0 0
0 0
0 0
0 0
0 0
0 0
0 0
0 0
0 0
0 0
0 0
0 0
0 0
0 0
0 0
0 0
0 0
0 0
0 0
0 0
0 0
0 0
0 0
0 0
0 0
0 0
0 0
0 0
0 0
0 0
0 0
0 0
0 0
0 0
0 0
0 0
0 0
0 0
0 0
0 0
0 0
0 0
0 0
0 0
0 0
0 0
0 0
0 0
0 0
0 0
0 0
0 0
0 0
0 0
0 0
0 0
0 0
0 0
0 0
0 0
0 0
0 0
0 0
0 0
0 0
0 0
0 0
0 0
0 0
0 0
0 0
0 0
0 0
0 0
0 0
0 0
0 0
0 0
0 0
0 0
0 0
0 0
0 0
0 0
0 0
0 0
0 0
0 0
0 0
0 0
0 0
0 0
0 0
0 0
0 0
0 0
0 0
0 0
0 0
0 0
0 0
0 0
0 0
0 0
0 0
0 0
0 0
0 0
0 0
0 0
0 0
0 0
0 0
0 0
0 0
0 0
0 0
0 0
0 0
0 0
0 0
0 0
0 0
0 0
0 0
0 0
0 0
0 0
0 0
0 0
0 0
0 0
0 0
0 0
0 0
0 0
0 0
0 0
0 0
0 0
0 0
0 0
0 0
0 0
0 0
0 0
0 0
0 0
0 0
0 0
0 0
0 0
0 0
0 0
0 0
0 0
0 0
0 0
0 0
0 0
0 0
0 0
0 0
0 0
0 0
0 0
0 0
0 0
0 0
0 0
0 0
0 0
0 0
0 0
0 0
0 0
0 0
0 0
0 0
0 0
0 0
0 0
0 0
0 0
0 0
0 0
0 0
0 0
0 0
0 0
0 0
0 0
0 0
0 0
0 0
0 0
0 0
0 0
0 0
0 0
0 0
0 0
0 0
0 0
0 0
0 0
0 0
0 0
0 0
0 0
0 0
0 0
0 0
0 0
0 0
0 0
0 0
0 0
0 0
0 0
0 0
0 0
0 0
0 0
0 0
0 0
0 0
0 0
0 0
0 0
0 0
0 0
0 0
0 0
0 0
0 0
0 0
0 0
0 0
0 0
0 0
0 0
0 0
0 0
0 0
0 0
0 0
0 0
0 0
0 0
0 0
0 0
0 0
0 0
0 0
0 0
0 0
0 0
0 0
0 0
0 0
0 0
0 0
0 0
0 0
0 0
0 0
0 0
0 0
0 0
0 0
0 0
0 0
0 0
0 0
0 0
0 0
0 0
0 0
0 0
0 0
0 0
0 0
0 0
0 0
0 0
0 0
0 0
0 0
0 0
0 0
0 0
0 0
0 0
0 0
0 0
0 0
0 0
0 0
0 0
0 0
0 0
0 0
0 0
0 0
0 0
0 0
0 0
0 0
0 0
0 0
0 0
0 0
0 0
0 0
0 0
0 0
0 0
0 0
0 0
0 0
0 0
0 0
0 0
0 0
0 0
0 0
0 0
0 0
0 0
0 0
0 0
0 0
0 0
0 0
0 0
0 0
0 0
0 0
0 0
0 0
0 0
0 0
0 0
0 0
0 0
0 0
0 0
0 0
0 0
0 0
0 0
0 0
0 0
0 0
0 0
0 0
0 0
0 0
0 0
0 0
0 0
0 0
0 0
0 0
0 0
0 0
0 0
0 0
0 0
0 0
0 0
0 0
0 0
0 0
0 0
0 0
0 0
0 0
0 0
0 0
0 0
0 0
0 0
0 0
0 0
0 0
0 0
0 0
0 0
0 0
0 0
0 0
0 0
0 0
0 0
0 0
0 0
0 0
0 0
0 0
0 0
0 0
0 0
0 0
0 0
0 0
0 0
0 0
0 0
0 0
0 0
0 0
0 0
0 0
0 0
0 0
0 0
0 0
0 0
0 0
0 0
0 0
0 0
0 0
0 0
0 0
0 0
0 0
0 0
0 0
0 0
0 0
0 0
0 0
0 0
0 0
0 0
0 0
0 0
0 0
0 0
0 0
0 0
0 0
0 0
0 0
0 0
0 0
0 0
0 0
0 0
0 0
0 0
0 0
0 0
0 0
0 0
0 0
0 0
0 0
0 0
0 0
0 0
0 0
0 0
0 0
0 0
0 0
0 0
0 0
0 0
0 0
0 0
0 0
0 0
0 0
0 0
0 0
0 0
0 0
0 0
0 0
0 0
0 0
0 0
0 0
0 0
0 0
0 0
0 0
0 0
0 0
0 0
0 0
0 0
0 0
0 0
0 0
0 0
0 0
0 0
0 0
0 0
0 0
0 0
0 0
0 0
0 0
0 0
0 0
0 0
0 0
0 0
0 0
0 0
0 0
0 0
0 0
0 0
0 0
0 0
0 0
0 0
0 0
0 0
0 0
0 0
0 0
0 0
0 0
0 0
0 0
0 0
0 0
0 0
0 0
0 0
0 0
0 0
0 0
0 0
0 0
0 0
0 0
0 0
0 0
0 0
0 0
0 0
0 0
0 0
0 0
0 0
0 0
0 0
0 0
0 0
0 0
0 0
0 0
0 0
0 0
0 0
0 0
0 0
0 0
0 0
0 0
0 0
0 0
0 0
0 0
0 0
0 0
0 0
0 0
0 0
0 0
0 0
0 0
0 0
0 0
0 0
0 0
0 0
0 0
0 0
0 0
0 0
0 0
0 0
0 0
0 0
0 0
0 0
0 0
0 0
0 0
0 0
0 0
0 0
0 0
0 0
0 0
0 0
0 0
0 0
0 0
0 0
0 0
0 0
0 0
0 0
0 0
0 0
0 0
0 0
0 0
0 0
0 0
0 0
0 0
0 0
0 0
0 0
0 0
0 0
0 0
0 0
0 0
0 0
0 0
0 0
0 0
0 0
0 0
0 0
0 0
0 0
0 0
0 0
0 0
0 0
0 0
0 0
0 0
0 0
0 0
0 0
0 0
0 0
0 0
0 0
0 0
0 0
0 0
0 0
0 0
0 0
0 0
0 0
0 0
0 0
0 0
0 0
0 0
0 0
0 0
0 0
0 0
0 0
0 0
0 0
0 0
0 0
0 0
0 0
0 0
0 0
0 0
0 0
0 0
0 0
0 0
0 0
0 0
0 0
0 0
0 0
0 0
0 0
0 0
0 0
0 0
0 0
0 0
0 0
0 0
0 0
0 0
0 0
0 0
0 0
0 0
0 0
0 0
0 0
0 0
0 0
0 0
0 0
0 0
0 0
0 0
0 0
0 0
0 0
0 0
0 0
0 0
0 0
0 0
0 0
0 0
0 0
0 0
0 0
0 0
0 0
0 0
0 0
0 0
0 0
0 0
0 0
0 0
0 0
0 0
0 0
0 0
0 0
0 0
0 0
0 0
0 0
0 0
0 0
0 0
0 0
0 0
0 0
0 0
0 0
0 0
0 0
0 0
0 0
0 0
0 0
0 0
0 0
0 0
0 0
0 0
0 0
0 0
0 0
0 0
0 0
0 0
0 0
0 0
0 0
0 0
0 0
0 0
0 0
0 0
0 0
0 0
0 0
0 0
0 0
0 0
0 0
0 0
0 0
0 0
0 0
0 0
0 0
0 0
0 0
0 0
0 0
0 0
0 0
0 0
0 0
0 0
0 0
0 0
0 0
0 0
0 0
0 0
0 0
0 0
0 0
0 0
0 0
0 0
0 0
0 0
0 0
0 0
0 0
0 0
0 0
0 0
0 0
0 0
0 0
0 0
0 0
0 0
0 0
0 0
0 0
0 0
0 0
0 0
0 0
0 0
0 0
0 0
0 0
0 0
0 0
0 0
0 0
0 0
0 0
0 0
0 0
0 0
0 0
0 0
0 0
0 0
0 0
0 0
0 0
0 0
0 0
0 0
0 0
0 0
0 0
0 0
0 0
0 0
0 0
0 0
0 0
0 0
0 0
0 0
0 0
0 0
0 0
0 0
0 0
0 0
0 0
0 0
0 0
0 0
0 0
0 0
0 0
0 0
0 0
0 0
0 0
0 0
0 0
0 0
0 0
0 0
0 0
0 0
0 0
0 0
0 0
0 0
0 0
0 0
0 0
0 0
0 0
0 0
0 0
0 0
0 0
0 0
0 0
0 0
0 0
0 0
0 0
0 0
0 0
0 0
0 0
0 0
0 0
0 0
0 0
0 0
0 0
0 0
0 0
0 0
0 0
0 0
0 0
0 0
0 0
0 0
0 0
0 0
0 0
0 0
0 0
0 0
0 0
0 0
0 0
0 0
0 0
0 0
0 0
0 0
0 0
0 0
0 0
0 0
0 0
0 0
0 0
0 0
0 0
0 0
0 0
0 0
0 0
0 0
0 0
0 0
0 0
0 0
0 0
0 0
0 0
0 0
0 0
0 0
0 0
0 0
0 0
0 0
0 0
0 0
0 0
0 0
0 0
0 0
0 0
0 0
0 0
0 0
0 0
0 0
0 0
0 0
0 0
0 0
0 0
0 0
0 0
0 0
0 0
0 0
0 0
0 0
0 0
0 0
0 0
0 0
0 0
0 0
0 0
0 0
0 0
0 0
0 0
0 0
0 0
0 0
0 0
0 0
0 0
0 0
0 0
0 0
0 0
0 0
0 0
0 0
0 0
0 0
0 0
0 0
0 0
0 0
0 0
0 0
0 0
0 0
0 0
0 0
0 0
0 0
0 0
0 0
0 0
0 0
0 0
0 0
0 0
0 0
0 0
0 0
0 0
0 0
0 0
0 0
0 0
0 0
0 0
0 0
0 0
0 0
0 0
0 0
0 0
0 0
0 0
0 0
0 0
0 0
0 0
0 0
0 0
0 0
0 0
0 0
0 0
0 0
0 0
0 0
0 0
0 0
0 0
0 0
0 0
0 0
0 0
0 0
0 0
0 0
0 0
0 0
0 0
0 0
0 0
0 0
0 0
0 0
0 0
0 0
0 0
0 0
0 0
0 0
0 0
0 0
0 0
0 0
0 0
0 0
0 0
0 0
0 0
0 0
0 0
0 0
0 0
0 0
0 0
0 0
0 0
0 0
0 0
0 0
0 0
0 0
0 0
0 0
0 0
0 0
0 0
0 0
0 0
0 0
0 0
0 0
0 0
0 0
0 0
0 0
0 0
0 0
0 0
0 0
0 0
0 0
0 0
0 0
0 0
0 0
0 0
0 0
0 0
0 0
0 0
0 0
0 0
0 0
0 0
0 0
0 0
0 0
0 0
0 0
0 0
0 0
0 0
0 0
0 0
0 0
0 0
0 0
0 0
0 0
0 0
0 0
0 0
0 0
0 0
0 0
0 0
0 0
0 0
0 0
0 0
0 0
0 0
0 0
0 0
0 0
0 0
0 0
0 0
0 0
0 0
0 0
0 0
0 0
0 0
0 0
0 0
0 0
0 0
0 0
0 0
0 0
0 0
0 0
0 0
0 0
0 0
0 0
0 0
0 0
0 0
0 0
0 0
0 0
0 0
0 0
0 0
0 0
0 0
0 0
0 0
0 0
0 0
0 0
0 0
0 0
0 0
0 0
0 0
0 0
0 0
0 0
0 0
0 0
0 0
0 0
0 0
0 0
0 0
0 0
0 0
0 0
0 0
0 0
0 0
0 0
0 0
0 0
0 0
0 0
0 0
0 0
0 0
0 0
0 0
0 0
0 0
0 0
0 0
0 0
0 0
0 0
0 0
0 0
0 0
0 0
0 0
0 0
0 0
0 0
0 0
0 0
0 0
0 0
0 0
0 0
0 0
0 0
0 0
0 0
0 0
0 0
0 0
0 0
0 0
0 0
0 0
0 0
0 0
0 0
0 0
0 0
0 0
0 0
0 0
0 0
0 0
0 0
0 0
0 0
0 0
0 0
0 0
0 0
0 0
0 0
0 0
0 0
0 0
0 0
0 0
0 0
0 0
0 0
0 0
0 0
0 0
0 0
0 0
0 0
0 0
0 0
0 0
0 0
0 0
0 0
0 0
0 0
0 0
0 0
0 0
0 0
0 0
0 0
0 0
0 0
0 0
0 0
0 0
0 0
0 0
0 0
0 0
0 0
0 0
0 0
0 0
0 0
0 0
0 0
0 0
0 0
0 0
0 0
0 0
0 0
0 0
0 0
0 0
0 0
0 0
0 0
0 0
0 0
0 0
0 0
0 0
0 0
0 0
0 0
0 0
0 0
0 0
0 0
0 0
0 0
0 0
0 0
0 0
0 0
0 0
0 0
0 0
0 0
0 0
0 0
0 0
0 0
0 0
0 0
0 0
0 0
0 0
0 0
0 0
0 0
0 0
0 0
0 0
0 0
0 0
0 0
0 0
0 0
0 0
0 0
0 0
0 0
0 0
0 0
0 0
0 0
0 0
0 0
0 0
0 0
0 0
0 0
0 0
0 0
0 0
0 0
0 0
0 0
0 0
0 0
0 0
0 0
0 0
0 0
0 0
0 0
0 0
0 0
0 0
0 0
0 0
0 0
0 0
0 0
0 0
0 0
0 0
0 0
0 0
0 0
0 0
0 0
0 0
0 0
0 0
0 0
0 0
0 0
0 0
0 0
0 0
0 0
0 0
0 0
0 0
0 0
0 0
0 0
0 0
0 0
0 0
0 0
0 0
0 0
0 0
0 0
0 0
0 0
0 0
0 0
0 0
0 0
0 0
0 0
0 0
0 0
0 0
0 0
0 0
0 0
0 0
0 0
0 0
0 0
0 0
0 0
0 0
0 0
0 0
0 0
0 0
0 0
0 0
0 0
0 0
0 0
0 0
0 0
0 0
0 0
0 0
0 0
0 0
0 0
0 0
0 0
0 0
0 0
0 0
0 0
0 0
0 0
0 0
0 0
0 0
0 0
0 0
0 0
0 0
0 0
0 0
0 0
0 0
0 0
0 0
0 0
0 0
0 0
0 0
0 0
0 0
0 0
0 0
0 0
0 0
0 0
0 0
0 0
0 0
0 0
0 0
0 0
0 0
0 0
0 0
0 0
0 0
0 0
0 0
0 0
0 0
0 0
0 0
0 0
0 0
0 0
0 0
0 0
0 0
0 0
0 0
0 0
0 0
0 0
0 0
0 0
0 0
0 0
0 0
0 0
0 0
0 0
0 0
0 0
0 0
0 0
0 0
0 0
0 0
0 0
0 0
0 0
0 0
0 0
0 0
0 0
0 0
0 0
0 0
0 0
0 0
0 0
0 0
0 0
0 0
0 0
0 0
0 0
0 0
0 0
0 0
0 0
0 0
0 0
0 0
0 0
0 0
0 0
0 0
0 0
0 0
0 0
0 0
0 0
0 0
0 0
0 0
0 0
0 0
0 0
0 0
0 0
0 0
0 0
0 0
0 0
0 0
0 0
0 0
0 0
0 0
0 0
0 0
0 0
0 0
0 0
0 0
0 0
0 0
0 0
0 0
0 0
0 0
0 0
0 0
0 0
0 0
0 0
0 0
0 0
0 0
0 0
0 0
0 0
0 0
0 0
0 0
0 0
0 0
0 0
0 0
0 0
0 0
0 0
0 0
0 0
0 0
0 0
0 0
0 0
0 0
0 0
0 0
0 0
0 0
0 0
0 0
0 0
0 0
0 0
0 0
0 0
0 0
0 0
0 0
0 0
0 0
0 0
0 0
0 0
0 0
0 0
0 0
0 0
0 0
0 0
0 0
0 0
0 0
0 0
0 0
0 0
0 0
0 0
0 0
0 0
0 0
0 0
0 0
0 0
0 0
0 0
0 0
0 0
0 0
0 0
0 0
0 0
0 0
0 0
0 0
0 0
0 0
0 0
0 0
0 0
0 0
0 0
0 0
0 0
0 0
0 0
0 0
0 0
0 0
0 0
0 0
0 0
0 0
0 0
0 0
0 0
0 0
0 0
0 0
0 0
0 0
0 0
0 0
0 0
0 0
0 0
0 0
0 0
0 0
0 0
0 0
0 0
0 0
0 0
0 0
0 0
0 0
0 0
0 0
0 0
0 0
0 0
0 0
0 0
0 0
0 0
0 0
0 0
0 0
0 0
0 0
0 0
0 0
0 0
0 0
0 0
0 0
0 0
0 0
0 0
0 0
0 0
0 0
0 0
0 0
0 0
0 0
0 0
0 0
0 0
0 0
0 0
0 0
0 0
0 0
0 0
0 0
0 0
0 0
0 0
0 0
0 0
0 0
0 0
0 0
0 0
0 0
0 0
0 0
0 0
0 0
0 0
0 0
0 0
0 0
0 0
0 0
0 0
0 0
0 0
0 0
0 0
0 0
0 0
0 0
0 0
0 0
0 0
0 0
0 0
0 0
0 0
0 0
0 0
0 0
0 0
0 0
0 0
0 0
0 0
0 0
0 0
0 0
0 0
0 0
0 0
0 0
0 0
0 0
0 0
0 0
0 0
0 0
0 0
0 0
0 0
0 0
0 0
0 0
0 0
0 0
0 0
0 0
0 0
0 0
0 0
0 0
0 0
0 0
0 0
0 0
0 0
0 0
0 0
0 0
0 0
0 0
0 0
0 0
0 0
0 0
0 0
0 0
0 0
0 0
0 0
0 0
0 0
0 0
0 0
0 0
0 0
0 0
0 0
0 0
0 0
0 0
0 0
0 0
0 0
0 0
0 0
0 0
0 0
0 0
0 0
0 0
0 0
0 0
0 0
0 0
0 0
0 0
0 0
0 0
0 0
0 0
0 0
0 0
0 0
0 0
0 0
0 0
0 0
0 0
0 0
0 0
0 0
0 0
0 0
0 0
0 0
0 0
0 0
0 0
0 0
0 0
0 0
0 0
0 0
0 0
0 0
0 0
0 0
0 0
0 0
0 0
0 0
0 0
0 0
0 0
0 0
0 0
0 0
0 0
0 0
0 0
0 0
0 0
0 0
0 0
0 0
0 0
0 0
0 0
0 0
0 0
0 0
0 0
0 0
0 0
0 0
0 0
0 0
0 0
0 0
0 0
0 0
0 0
0 0
0 0
0 0
0 0
0 0
0 0
0 0
0 0
0 0
0 0
0 0
0 0
0 0
0 0
0 0
0 0
0 0
0 0
0 0
0 0
0 0
0 0
0 0
0 0
0 0
0 0
0 0
0 0
0 0
0 0
0 0
0 0
0 0
0 0
0 0
0 0
0 0
0 0
0 0
0 0
0 0
0 0
0 0
0 0
0 0
0 0
0 0
0 0
0 0
0 0
0 0
0 0
0 0
0 0
0 0
0 0
0 0
0 0
0 0
0 0
0 0
0 0
0 0
0 0
0 0
0 0
0 0
0 0
0 0
0 0
0 0
0 0
0 0
0 0
0 0
0 0
0 0
0 0
0 0
0 0
0 0
0 0
0 0
0 0
0 0
0 0
0 0
0 0
0 0
0 0
0 0
0 0
0 0
0 0
0 0
0 0
0 0
0 0
0 0
0 0
0 0
0 0
0 0
0 0
0 0
0 0
0 0
0 0
0 0
0 0
0 0
0 0
0 0
0 0
0 0
0 0
0 0
0 0
0 0
0 0
0 0
0 0
0 0
0 0
0 0
0 0
0 0
0 0
0 0
0 0
0 0
0 0
0 0
0 0
0 0
0 0
0 0
0 0
0 0
0 0
0 0
0 0
0 0
0 0
0 0
0 0
0 0
0 0
0 0
0 0
0 0
0 0
0 0
0 0
0 0
0 0
0 0
0 0
0 0
0 0
0 0
0 0
0 0
0 0
0 0
0 0
0 0
0 0
0 0
0 0
0 0
0 0
0 0
0 0
0 0
0 0
0 0
0 0
0 0
0 0
0 0
0 0
0 0
0 0
0 0
0 0
0 0
0 0
0 0
0 0
0 0
0 0
0 0
0 0
0 0
0 0
0 0
0 0
0 0
0 0
0 0
0 0
0 0
0 0
0 0
0 0
0 0
0 0
0 0
0 0
0 0
0 0
0 0
0 0
0 0
0 0
0 0
0 0
0 0
0 0
0 0
0 0
0 0
0 0
0 0
0 0
0 0
0 0
0 0
0 0
0 0
0 0
0 0
0 0
0 0
0 0
0 0
0 0
0 0
0 0
0 0
0 0
0 0
0 0
0 0
0 0
0 0
0 0
0 0
0 0
0 0
0 0
0 0
0 0
0 0
0 0
0 0
0 0
0 0
0 0
0 0
0 0
0 0
0 0
0 0
0 0
0 0
0 0
0 0
0 0
0 0
0 0
0 0
0 0
0 0
0 0
0 0
0 0
0 0
0 0
0 0
0 0
0 0
0 0
0 0
0 0
0 0
0 0
0 0
0 0
0 0
0 0
0 0
0 0
0 0
0 0
0 0
0 0
0 0
0 0
0 0
0 0
0 0
0 0
0 0
0 0
0 0
0 0
0 0
0 0
0 0
0 0
0 0
0 0
0 0
0 0
0 0
0 0
0 0
0 0
0 0
0 0
0 0
0 0
0 0
0 0
0 0
0 0
0 0
0 0
0 0
0 0
0 0
0 0
0 0
0 0
0 0
0 0
0 0
0 0
0 0
0 0
0 0
0 0
0 0
0 0
0 0
0 0
0 0
0 0
0 0
0 0
0 0
0 0
0 0
0 0
0 0
0 0
0 0
0 0
0 0
0 0
0 0
0 0
0 0
0 0
0 0
0 0
0 0
0 0
0 0
0 0
0 0
0 0
0 0
0 0
0 0
0 0
0 0
0 0
0 0
0 0
0 0
0 0
0 0
0 0
0 0
0 0
0 0
0 0
0 0
0 0
0 0
0 0
0 0
0 0
0 0
0 0
0 0
0 0
0 0
0 0
0 0
0 0
0 0
0 0
0 0
0 0
0 0
0 0
0 0
0 0
0 0
0 0
0 0
0 0
0 0
0 0
0 0
0 0
0 0
0 0
0 0
0 0
0 0
0 0
0 0
0 0
0 0
0 0
0 0
0 0
0 0
0 0
0 0
0 0
0 0
0 0
0 0
0 0
0 0
0 0
0 0
0 0
0 0
0 0
0 0
0 0
0 0
0 0
0 0
0 0
0 0
0 0
0 0
0 0
0 0
0 0
0 0
0 0
0 0
0 0
0 0
0 0
0 0
0 0
0 0
0 0
0 0
0 0
0 0
0 0
0 0
0 0
0 0
0 0
0 0
0 0
0 0
0 0
0 0
0 0
0 0
0 0
0 0
0 0
0 0
0 0
0 0
0 0
0 0
0 0
0 0
0 0
0 0
0 0
0 0
0 0
0 0
0 0
0 0
0 0
0 0
0 0
0 0
0 0
0 0
0 0
0 0
0 0
0 0
0 0
0 0
0 0
0 0
0 0
0 0
0 0
0 0
0 0
0 0
0 0
0 0
0 0
0 0
0 0
0 0
0 0
0 0
0 0
0 0
0 0
0 0
0 0
0 0
0 0
0 0
0 0
0 0
0 0
0 0
0 0
0 0
0 0
0 0
0 0
0 0
0 0
0 0
0 0
0 0
0 0
0 0
0 0
0 0
0 0
0 0
0 0
0 0
0 0
0 0
0 0
0 0
0 0
0 0
0 0
0 0
0 0
0 0
0 0
0 0
0 0
0 0
0 0
0 0
0 0
0 0
0 0
0 0
0 0
0 0
0 0
0 0
0 0
0 0
0 0
0 0
0 0
0 0
0 0
0 0
0 0
0 0
0 0
0 0
0 0
0 0
0 0
0 0
0 0
0 0
0 0
0 0
0 0
0 0
0 0
0 0
0 0
0 0
0 0
0 0
0 0
0 0
0 0
0 0
0 0
0 0
0 0
0 0
0 0
0 0
0 0
0 0
0 0
0 0
0 0
0 0
0 0
0 0
0 0
0 0
0 0
0 0
0 0
0 0
0 0
0 0
0 0
0 0
0 0
0 0
0 0
0 0
0 0
0 0
0 0
0 0
0 0
0 0
0 0
0 0
0 0
0 0
0 0
0 0
0 0
0 0
0 0
0 0
0 0
0 0
0 0
0 0
0 0
0 0
0 0
0 0
0 0
0 0
0 0
0 0
0 0
0 0
0 0
0 0
0 0
0 0
0 0
0 0
0 0
0 0
0 0
0 0
0 0
0 0
0 0
0 0
0 0
0 0
0 0
0 0
0 0
0 0
0 0
0 0
0 0
0 0
0 0
0 0
0 0
0 0
0 0
0 0
0 0
0 0
0 0
0 0
0 0
0 0
0 0
0 0
0 0
0 0
0 0
0 0
0 0
0 0
0 0
0 0
0 0
0 0
0 0
0 0
0 0
0 0
0 0
0 0
0 0
0 0
0 0
0 0
0 0
0 0
0 0
0 0
0 0
0 0
0 0
0 0
0 0
0 0
0 0
0 0
0 0
0 0
0 0
0 0
0 0
0 0
0 0
0 0
0 0
0 0
0 0
0 0
0 0
0 0
0 0
0 0
0 0
0 0
0 0
0 0
0 0
0 0
0 0
0 0
0 0
0 0
0 0
0 0
0 0
0 0
0 0
0 0
0 0
0 0
0 0
0 0
0 0
0 0
0 0
0 0
0 0
0 0
0 0
0 0
0 0
0 0
0 0
0 0
0 0
0 0
0 0
0 0
0 0
0 0
0 0
0 0
0 0
0 0
0 0
0 0
0 0
0 0
0 0
0 0
0 0
0 0
0 0
0 0
0 0
0 0
0 0
0 0
0 0
0 0
0 0
0 0
0 0
0 0
0 0
0 0
0 0
0 0
0 0
0 0
0 0
0 0
0 0
0 0
0 0
0 0
0 0
0 0
0 0
0 0
0 0
0 0
0 0
0 0
0 0
0 0
0 0
0 0
0 0
0 0
0 0
0 0
0 0
0 0
0 0
0 0
0 0
0 0
0 0
0 0
0 0
0 0
0 0
0 0
0 0
0 0
0 0
0 0
0 0
0 0
0 0
0 0
0 0
0 0
0 0
0 0
0 0
0 0
0 0
0 0
0 0
0 0
0 0
0 0
0 0
0 0
0 0
0 0
0 0
0 0
0 0
0 0
0 0
0 0
0 0
0 0
0 0
0 0
0 0
0 0
0 0
0 0
0 0
0 0
0 0
0 0
0 0
0 0
0 0
0 0
0 0
0 0
0 0
0 0
0 0
0 0
0 0
0 0
0 0
0 0
0 0
0 0
0 0
0 0
0 0
0 0
0 0
0 0
0 0
0 0
0 0
0 0
0 0
0 0
0 0
0 0
0 0
0 0
0 0
0 0
0 0
0 0
0 0
0 0
0 0
0 0
0 0
0 0
0 0
0 0
0 0
0 0
0 0
0 0
0 0
0 0
0 0
0 0
0 0
0 0
0 0
0 0
0 0
0 0
0 0
0 0
0 0
0 0
0 0
0 0
0 0
0 0
0 0
0 0
0 0
0 0
0 0
0 0
0 0
0 0
0 0
0 0
0 0
0 0
0 0
0 0
0 0
0 0
0 0
0 0
0 0
0 0
0 0
0 0
0 0
0 0
0 0
0 0
0 0
0 0
0 0
0 0
0 0
0 0
0 0
0 0
0 0
0 0
0 0
0 0
0 0
0 0
0 0
0 0
0 0
0 0
0 0
0 0
0 0
0 0
0 0
0 0
0 0
0 0
0 0
0 0
0 0
0 0
0 0
0 0
0 0
0 0
0 0
0 0
0 0
0 0
0 0
0 0
0 0
0 0
0 0
0 0
0 0
0 0
0 0
0 0
0 0
0 0
0 0
0 0
0 0
0 0
0 0
0 0
0 0
0 0
0 0
0 0
0 0
0 0
0 0
0 0
0 0
0 0
0 0
0 0
0 0
0 0
0 0
0 0
0 0
0 0
0 0
0 0
0 0
0 0
0 0
0 0
0 0
0 0
0 0
0 0
0 0
0 0
0 0
0 0
0 0
0 0
0 0
0 0
0 0
0 0
0 0
0 0
0 0
0 0
0 0
0 0
0 0
0 0
0 0
0 0
0 0
0 0
0 0
0 0
0 0
0 0
0 0
0 0
0 0
0 0
0 0
0 0
0 0
0 0
0 0
0 0
0 0
0 0
0 0
0 0
0 0
0 0
0 0
0 0
0 0
0 0
0 0
0 0
0 0
0 0
0 0
0 0
0 0
0 0
0 0
0 0
0 0
0 0
0 0
0 0
0 0
0 0
0 0
0 0
0 0
0 0
0 0
0 0
0 0
0 0
0 0
0 0
0 0
0 0
0 0
0 0
0 0
0 0
0 0
0 0
0 0
0 0
0 0
0 0
0 0
0 0
0 0
0 0
0 0
0 0
0 0
0 0
0 0
0 0
0 0
0 0
0 0
0 0
0 0
0 0
0 0
0 0
0 0
0 0
0 0
0 0
0 0
0 0
0 0
0 0
0 0
0 0
0 0
0 0
0 0
0 0
0 0
0 0
0 0
0 0
0 0
0 0
0 0
0 0
0 0
0 0
0 0
0 0
0 0
0 0
0 0
0 0
0 0
0 0
0 0
0 0
0 0
0 0
0 0
0 0
0 0
0 0
0 0
0 0
0 0
0 0
0 0
0 0
0 0
0 0
0 0
0 0
0 0
0 0
0 0
0 0
0 0
0 0
0 0
0 0
0 0
0 0
0 0
0 0
0 0
0 0
0 0
0 0
0 0
0 0
0 0
0 0
0 0
0 0
0 0
0 0
0 0
0 0
0 0
0 0
0 0
0 0
0 0
0 0
0 0
0 0
0 0
0 0
0 0
0 0
0 0
0 0
0 0
0 0
0 0
0 0
0 0
0 0
0 0
0 0
0 0
0 0
0 0
0 0
0 0
0 0
0 0
0 0
0 0
0 0
0 0
0 0
0 0
0 0
0 0
0 0
0 0
0 0
0 0
0 0
0 0
0 0
0 0
0 0
0 0
0 0
0 0
0 0
0 0
0 0
0 0
0 0
0 0
0 0
0 0
0 0
0 0
0 0
0 0
0 0
0 0
0 0
0 0
0 0
0 0
0 0
0 0
0 0
0 0
0 0
0 0
0 0
0 0
0 0
0 0
0 0
0 0
0 0
0 0
0 0
0 0
0 0
0 0
0 0
0 0
0 0
0 0
0 0
0 0
0 0
0 0
0 0
0 0
0 0
0 0
0 0
0 0
0 0
0 0
0 0
0 0
0 0
0 0
0 0
0 0
0 0
0 0
0 0
0 0
0 0
0 0
0 0
0 0
0 0
0 0
0 0
0 0
0 0
0 0
0 0
0 0
0 0
0 0
0 0
0 0
0 0
0 0
0 0
0 0
0 0
0 0
0 0
0 0
0 0
0 0
0 0
0 0
0 0
0 0
0 0
0 0
0 0
0 0
0 0
0 0
0 0
0 0
0 0
0 0
0 0
0 0
0 0
0 0
0 0
0 0
0 0
0 0
0 0
0 0
0 0
0 0
0 0
0 0
0 0
0 0
0 0
0 0
0 0
0 0
0 0
0 0
0 0
0 0
0 0
0 0
0 0
0 0
0 0
0 0
0 0
0 0
0 0
0 0
0 0
0 0
0 0
0 0
0 0
0 0
0 0
0 0
0 0
0 0
0 0
0 0
0 0
0 0
0 0
0 0
0 0
0 0
0 0
0 0
0 0
0 0
0 0
0 0
0 0
0 0
0 0
0 0
0 0
0 0
0 0
0 0
0 0
0 0
0 0
0 0
0 0
0 0
0 0
0 0
0 0
0 0
0 0
0 0
0 0
0 0
0 0
0 0
0 0
0 0
0 0
0 0
0 0
0 0
0 0
0 0
0 0
0 0
0 0
0 0
0 0
0 0
0 0
0 0
0 0
0 0
0 0
0 0
0 0
0 0
0 0
0 0
0 0
0 0
0 0
0 0
0 0
0 0
0 0
0 0
0 0
0 0
0 0
0 0
0 0
0 0
0 0
0 0
0 0
0 0
0 0
0 0
0 0
0 0
0 0
0 0
0 0
0 0
0 0
0 0
0 0
0 0
0 0
0 0
0 0
0 0
0 0
0 0
0 0
0 0
0 0
0 0
0 0
0 0
0 0
0 0
0 0
0 0
0 0
0 0
0 0
0 0
0 0
0 0
0 0
0 0
0 0
0 0
0 0
0 0
0 0
0 0
0 0
0 0
0 0
0 0
0 0
0 0
0 0
0 0
0 0
0 0
0 0
0 0
0 0
0 0
0 0
0 0
0 0
0 0
0 0
0 0
0 0
0 0
0 0
0 0
0 0
0 0
0 0
0 0
0 0
0 0
0 0
0 0
0 0
0 0
0 0
0 0
0 0
0 0
0 0
0 0
0 0
0 0
0 0
0 0
0 0
0 0
0 0
0 0
0 0
0 0
0 0
0 0
0 0
0 0
0 0
0 0
0 0
0 0
0 0
0 0
0 0
0 0
0 0
0 0
0 0
0 0
0 0
0 0
0 0
0 0
0 0
0 0
0 0
0 0
0 0
0 0
0 0
0 0
0 0
0 0
0 0
0 0
0 0
0 0
0 0
0 0
0 0
0 0
0 0
0 0
0 0
0 0
0 0
0 0
0 0
0 0
0 0
0 0
0 0
0 0
0 0
0 0
0 0
0 0
0 0
0 0
0 0
0 0
0 0
0 0
0 0
0 0
0 0
0 0
0 0
0 0
0 0
0 0
0 0
0 0
0 0
0 0
0 0
0 0
0 0
0 0
0 0
0 0
0 0
0 0
0 0
0 0
0 0
0 0
0 0
0 0
0 0
0 0
0 0
0 0
0 0
0 0
0 0
0 0
0 0
0 0
0 0
0 0
0 0
0 0
0 0
0 0
0 0
0 0
0 0
0 0
0 0
0 0
0 0
0 0
0 0
0 0
0 0
0 0
0 0
0 0
0 0
0 0
0 0
0 0
0 0
0 0
0 0
0 0
0 0
0 0
0 0
0 0
0 0
0 0
0 0
0 0
0 0
0 0
0 0
0 0
0 0
0 0
0 0
0 0
0 0
0 0
0 0
0 0
0 0
0 0
0 0
0 0
0 0
0 0
0 0
0 0
0 0
0 0
0 0
0 0
0 0
0 0
0 0
0 0
0 0
0 0
0 0
0 0
0 0
0 0
0 0
0 0
0 0
0 0
0 0
0 0
0 0
0 0
0 0
0 0
0 0
0 0
0 0
0 0
0 0
0 0
0 0
0 0
0 0
0 0
0 0
0 0
0 0
0 0
0 0
0 0
0 0
0 0
0 0
0 0
0 0
0 0
0 0
0 0
0 0
0 0
0 0
0 0
0 0
0 0
0 0
0 0
0 0
0 0
0 0
0 0
0 0
0 0
0 0
0 0
0 0
0 0
0 0
0 0
0 0
0 0
0 0
0 0
0 0
0 0
0 0
0 0
0 0
0 0
0 0
0 0
0 0
0 0
0 0
0 0
0 0
0 0
0 0
0 0
0 0
0 0
0 0
0 0
0 0
0 0
0 0
0 0
0 0
0 0
0 0
0 0
0 0
0 0
0 0
0 0
0 0
0 0
0 0
0 0
0 0
0 0
0 0
0 0
0 0
0 0
0 0
0 0
0 0
0 0
0 0
0 0
0 0
0 0
0 0
0 0
0 0
0 0
0 0
0 0
0 0
0 0
0 0
0 0
0 0
0 0
0 0
0 0
0 0
0 0
0 0
0 0
0 0
0 0
0 0
0 0
0 0
0 0
0 0
0 0
0 0
0 0
0 0
0 0
0 0
0 0
0 0
0 0
0 0
0 0
0 0
0 0
0 0
0 0
0 0
0 0
0 0
0 0
0 0
0 0
0 0
0 0
0 0
0 0
0 0
0 0
0 0
0 0
0 0
0 0
0 0
0 0
0 0
0 0
0 0
0 0
0 0
0 0
0 0
0 0
0 0
0 0
0 0
0 0
0 0
0 0
0 0
0 0
0 0
0 0
0 0
0 0
0 0
0 0
0 0
0 0
0 0
0 0
0 0
0 0
0 0
0 0
0 0
0 0
0 0
0 0
0 0
0 0
0 0
0 0
0 0
0 0
0 0
0 0
0 0
0 0
0 0
0 0
0 0
0 0
0 0
0 0
0 0
0 0
0 0
0 0
0 0
0 0
0 0
0 0
0 0
0 0
0 0
0 0
0 0
0 0
0 0
0 0
0 0
0 0
0 0
0 0
0 0
0 0
0 0
0 0
0 0
0 0
0 0
0 0
0 0
0 0
0 0
0 0
0 0
0 0
0 0
0 0
0 0
0 0
0 0
0 0
0 0
0 0
0 0
0 0
0 0
0 0
0 0
0 0
0 0
0 0
0 0
0 0
0 0
0 0
0 0
0 0
0 0
0 0
0 0
0 0
0 0
0 0
0 0
0 0
0 0
0 0
0 0
0 0
0 0
0 0
0 0
0 0
0 0
0 0
0 0
0 0
0 0
0 0
0 0
0 0
0 0
0 0
0 0
0 0
0 0
0 0
0 0
0 0
0 0
0 0
0 0
0 0
0 0
0 0
0 0
0 0
0 0
0 0
0 0
0 0
0 0
0 0
0 0
0 0
0 0
0 0
0 0
0 0
0 0
0 0
0 0
0 0
0 0
0 0
0 0
0 0
0 0
0 0
0 0
0 0
0 0
0 0
0 0
0 0
0 0
0 0
0 0
0 0
0 0
0 0
0 0
0 0
0 0
0 0
0 0
0 0
0 0
0 0
0 0
0 0
0 0
0 0
0 0
0 0
0 0
0 0
0 0
0 0
0 0
0 0
0 0
0 0
0 0
0 0
0 0
0 0
0 0
0 0
0 0
0 0
0 0
0 0
0 0
0 0
0 0
0 0
0 0
0 0
0 0
0 0
0 0
0 0
0 0
0 0
0 0
0 0
0 0
0 0
0 0
0 0
0 0
0 0
0 0
0 0
0 0
0 0
0 0
0 0
0 0
0 0
0 0
0 0
0 0
0 0
0 0
0 0
0 0
0 0
0 0
0 0
0 0
0 0
0 0
0 0
0 0
0 0
0 0
0 0
0 0
0 0
0 0
0 0
0 0
0 0
0 0
0 0
0 0
0 0
0 0
0 0
0 0
0 0
0 0
0 0
0 0
0 0
0 0
0 0
0 0
0 0
0 0
0 0
0 0
0 0
0 0
0 0
0 0
0 0
0 0
0 0
0 0
0 0
0 0
0 0
0 0
0 0
0 0
0 0
0 0
0 0
0 0
0 0
0 0
0 0
0 0
0 0
0 0
0 0
0 0
0 0
0 0
0 0
0 0
0 0
0 0
0 0
0 0
0 0
0 0
0 0
0 0
0 0
0 0
0 0
0 0
0 0
0 0
0 0
0 0
0 0
0 0
0 0
0 0
0 0
0 0
0 0
0 0
0 0
0 0
0 0
0 0
0 0
0 0
0 0
0 0
0 0
0 0
0 0
0 0
0 0
0 0
0 0
0 0
0 0
0 0
0 0
0 0
0 0
0 0
0 0
0 0
0 0
0 0
0 0
0 0
0 0
0 0
0 0
0 0
0 0
0 0
0 0
0 0
0 0
0 0
0 0
0 0
0 0
0 0
0 0
0 0
0 0
0 0
0 0
0 0
0 0
0 0
0 0
0 0
0 0
0 0
0 0
0 0
0 0
0 0
0 0
0 0
0 0
0 0
0 0
0 0
0 0
0 0
0 0
0 0
0 0
0 0
0 0
0 0
0 0
0 0
0 0
0 0
0 0
0 0
0 0
0 0
0 0
0 0
0 0
0 0
0 0
0 0
0 0
0 0
0 0
0 0
0 0
0 0
0 0
0 0
0 0
0 0
0 0
0 0
0 0
0 0
0 0
0 0
0 0
0 0
0 0
0 0
0 0
0 0
0 0
0 0
0 0
0 0
0 0
0 0
0 0
0 0
0 0
0 0
0 0
0 0
0 0
0 0
0 0
0 0
0 0
0 0
0 0
0 0
0 0
0 0
0 0
0 0
0 0
0 0
0 0
0 0
0 0
0 0
0 0
0 0
0 0
0 0
0 0
0 0
0 0
0 0
0 0
0 0
0 0
0 0
0 0
0 0
0 0
0 0
0 0
0 0
0 0
0 0
0 0
0 0
0 0
0 0
0 0
0 0
0 0
0 0
0 0
0 0
0 0
0 0
0 0
0 0
0 0
0 0
0 0
0 0
0 0
0 0
0 0
0 0
0 0
0 0
0 0
0 0
0 0
0 0
0 0
0 0
0 0
0 0
0 0
0 0
0 0
0 0
0 0
0 0
0 0
0 0
0 0
0 0
0 0
0 0
0 0
0 0
0 0
0 0
0 0
0 0
0 0
0 0
0 0
0 0
0 0
0 0
0 0
0 0
0 0
0 0
0 0
0 0
0 0
0 0
0 0
0 0
0 0
0 0
0 0
0 0
0 0
0 0
0 0
0 0
0 0
0 0
0 0
0 0
0 0
0 0
0 0
0 0
0 0
0 0
0 0
0 0
0 0
0 0
0 0
0 0
0 0
0 0
0 0
0 0
0 0
0 0
0 0
0 0
0 0
0 0
0 0
0 0
0 0
0 0
0 0
0 0
0 0
0 0
0 0
0 0
0 0
0 0
0 0
0 0
0 0
0 0
0 0
0 0
0 0
0 0
0 0
0 0
0 0
0 0
0 0
0 0
0 0
0 0
0 0
0 0
0 0
0 0
0 0
0 0
0 0
0 0
0 0
0 0
0 0
0 0
0 0
0 0
0 0
0 0
0 0
0 0
0 0
0 0
0 0
0 0
0 0
0 0
0 0
0 0
0 0
0 0
0 0
0 0
0 0
0 0
0 0
0 0
0 0
0 0
0 0
0 0
0 0
0 0
0 0
0 0
0 0
0 0
0 0
0 0
0 0
0 0
0 0
0 0
0 0
0 0
0 0
0 0
0 0
0 0
0 0
0 0
0 0
0 0
0 0
0 0
0 0
0 0
0 0
0 0
0 0
0 0
0 0
0 0
0 0
0 0
0 0
0 0
0 0
0 0
0 0
0 0
0 0
0 0
0 0
0 0
0 0
0 0
0 0
0 0
0 0
0 0
0 0
0 0
0 0
0 0
0 0
0 0
0 0
0 0
0 0
0 0
0 0
0 0
0 0
0 0
0 0
0 0
0 0
0 0
0 0
0 0
0 0
0 0
0 0
0 0
0 0
0 0
0 0
0 0
0 0
0 0
0 0
0 0
0 0
0 0
0 0
0 0
0 0
0 0
0 0
0 0
0 0
0 0
0 0
0 0
0 0
0 0
0 0
0 0
0 0
0 0
0 0
0 0
0 0
0 0
0 0
0 0
0 0
0 0
0 0
0 0
0 0
0 0
0 0
0 0
0 0
0 0
0 0
0 0
0 0
0 0
0 0
0 0
0 0
0 0
0 0
0 0
0 0
0 0
0 0
0 0
0 0
0 0
0 0
0 0
0 0
0 0
0 0
0 0
0 0
0 0
0 0
0 0
0 0
0 0
0 0
0 0
0 0
0 0
0 0
0 0
0 0
0 0
0 0
0 0
0 0
0 0
0 0
0 0
0 0
0 0
0 0
0 0
0 0
0 0
0 0
0 0
0 0
0 0
0 0
0 0
0 0
0 0
0 0
0 0
0 0
0 0
0 0
0 0
0 0
0 0
0 0
0 0
0 0
0 0
0 0
0 0
0 0
0 0
0 0
0 0
0 0
0 0
0 0
0 0
0 0
0 0
0 0
0 0
0 0
0 0
0 0
0 0
0 0
0 0
0 0
0 0
0 0
0 0
0 0
0 0
0 0
0 0
0 0
0 0
0 0
0 0
0 0
0 0
0 0
0 0
0 0
0 0
0 0
0 0
0 0
0 0
0 0
0 0
0 0
0 0
0 0
0 0
0 0
0 0
0 0
0 0
0 0
0 0
0 0
0 0
0 0
0 0
0 0
0 0
0 0
0 0
0 0
0 0
0 0
0 0
0 0
0 0
0 0
0 0
0 0
0 0
0 0
0 0
0 0
0 0
0 0
0 0
0 0
0 0
0 0
0 0
0 0
0 0
0 0
0 0
0 0
0 0
0 0
0 0
0 0
0 0
0 0
0 0
0 0
0 0
0 0
0 0
0 0
0 0
0 0
0 0
0 0
0 0
0 0
0 0
0 0
0 0
0 0
0 0
0 0
0 0
0 0
0 0
0 0
0 0
0 0
0 0
0 0
0 0
0 0
0 0
0 0
0 0
0 0
0 0
0 0
0 0
0 0
0 0
0 0
0 0
0 0
0 0
0 0
0 0
0 0
0 0
0 0
0 0
0 0
0 0
0 0
0 0
0 0
0 0
0 0
0 0
0 0
0 0
0 0
0 0
0 0
0 0
0 0
0 0
0 0
0 0
0 0
0 0
0 0
0 0
0 0
0 0
0 0
0 0
0 0
0 0
0 0
0 0
0 0
0 0
0 0
0 0
0 0
0 0
0 0
0 0
0 0
0 0
0 0
0 0
0 0
0 0
0 0
0 0
0 0
0 0
0 0
0 0
0 0
0 0
0 0
0 0
0 0
0 0
0 0
0 0
0 0
0 0
0 0
0 0
0 0
0 0
0 0
0 0
0 0
0 0
0 0
0 0
0 0
0 0
0 0
0 0
0 0
0 0
0 0
0 0
0 0
0 0
0 0
0 0
0 0
0 0
0 0
0 0
0 0
0 0
0 0
0 0
0 0
0 0
0 0
0 0
0 0
0 0
0 0
0 0
0 0
0 0
0 0
0 0
0 0
0 0
0 0
0 0
0 0
0 0
0 0
0 0
0 0
0 0
0 0
0 0
0 0
0 0
0 0
0 0
0 0
0 0
0 0
0 0
0 0
0 0
0 0
0 0
0 0
0 0
0 0
0 0
0 0
0 0
0 0
0 0
0 0
0 0
0 0
0 0
0 0
0 0
0 0
0 0
0 0
0 0
0 0
0 0
0 0
0 0
0 0
0 0
0 0
0 0
0 0
0 0
0 0
0 0
0 0
0 0
0 0
0 0
0 0
0 0
0 0
0 0
0 0
0 0
0 0
0 0
0 0
0 0
0 0
0 0
0 0
0 0
0 0
0 0
0 0
0 0
0 0
0 0
0 0
0 0
0 0
0 0
0 0
0 0
0 0
0 0
0 0
0 0
0 0
0 0
0 0
0 0
0 0
0 0
0 0
0 0
0 0
0 0
0 0
0 0
0 0
0 0
0 0
0 0
0 0
0 0
0 0
0 0
0 0
0 0
0 0
0 0
0 0
0 0
0 0
0 0
0 0
0 0
0 0
0 0
0 0
0 0
0 0
0 0
0 0
0 0
0 0
0 0
0 0
0 0
0 0
0 0
0 0
0 0
0 0
0 0
0 0
0 0
0 0
0 0
0 0
0 0
0 0
0 0
0 0
0 0
0 0
0 0
0 0
0 0
0 0
0 0
0 0
0 0
0 0
0 0
0 0
0 0
0 0
0 0
0 0
0 0
0 0
0 0
0 0
0 0
0 0
0 0
0 0
0 0
0 0
0 0
0 0
0 0
0 0
0 0
0 0
0 0
0 0
0 0
0 0
0 0
0 0
0 0
0 0
0 0
0 0
0 0
0 0
0 0
0 0
0 0
0 0
0 0
0 0
0 0
0 0
0 0
0 0
0 0
0 0
0 0
0 0
0 0
0 0
0 0
0 0
0 0
0 0
0 0
0 0
0 0
0 0
0 0
0 0
0 0
0 0
0 0
0 0
0 0
0 0
0 0
0 0
0 0
0 0
0 0
0 0
0 0
0 0
0 0
0 0
0 0
0 0
0 0
0 0
0 0
0 0
0 0
0 0
0 0
0 0
0 0
0 0
0 0
0 0
0 0
0 0
0 0
0 0
0 0
0 0
0 0
0 0
0 0
0 0
0 0
0 0
0 0
0 0
0 0
0 0
0 0
0 0
0 0
0 0
0 0
0 0
0 0
0 0
0 0
0 0
0 0
0 0
0 0
0 0
0 0
0 0
0 0
0 0
0 0
0 0
0 0
0 0
0 0
0 0
0 0
0 0
0 0
0 0
0 0
0 0
0 0
0 0
0 0
0 0
0 0
0 0
0 0
0 0
0 0
0 0
0 0
0 0
0 0
0 0
0 0
0 0
0 0
0 0
0 0
0 0
0 0
0 0
0 0
0 0
0 0
0 0
0 0
0 0
0 0
0 0
0 0
0 0
0 0
0 0
0 0
0 0
0 0
0 0
0 0
0 0
0 0
0 0
0 0
0 0
0 0
0 0
0 0
0 0
0 0
0 0
0 0
0 0
0 0
0 0
0 0
0 0
0 0
0 0
0 0
0 0
0 0
0 0
0 0
0 0
0 0
0 0
0 0
0 0
0 0
0 0
0 0
0 0
0 0
0 0
0 0
0 0
0 0
0 0
0 0
0 0
0 0
0 0
0 0
0 0
0 0
0 0
0 0
0 0
0 0
0 0
0 0
0 0
0 0
0 0
0 0
0 0
0 0
0 0
0 0
0 0
0 0
0 0
0 0
0 0
0 0
0 0
0 0
0 0
0 0
0 0
0 0
0 0
0 0
0 0
0 0
0 0
0 0
0 0
0 0
0 0
0 0
0 0
0 0
0 0
0 0
0 0
0 0
0 0
0 0
0 0
0 0
0 0
0 0
0 0
0 0
0 0
0 0
0 0
0 0
0 0
0 0
0 0
0 0
0 0
0 0
0 0
0 0
0 0
0 0
0 0
0 0
0 0
0 0
0 0
0 0
0 0
0 0
0 0
0 0
0 0
0 0
0 0
0 0
0 0
0 0
0 0
0 0
0 0
0 0
0 0
0 0
0 0
0 0
0 0
0 0
0 0
0 0
0 0
0 0
0 0
0 0
0 0
0 0
0 0
0 0
0 0
0 0
0 0
0 0
0 0
0 0
0 0
0 0
0 0
0 0
0 0
0 0
0 0
0 0
0 0
0 0
0 0
0 0
0 0
0 0
0 0
0 0
0 0
0 0
0 0
0 0
0 0
0 0
0 0
0 0
0 0
0 0
0 0
0 0
0 0
0 0
0 0
0 0
0 0
0 0
0 0
0 0
0 0
0 0
0 0
0 0
0 0
0 0
0 0
0 0
0 0
0 0
0 0
0 0
0 0
0 0
0 0
0 0
0 0
0 0
0 0
0 0
0 0
0 0
0 0
0 0
0 0
0 0
0 0
0 0
0 0
0 0
0 0
0 0
0 0
0 0
0 0
0 0
0 0
0 0
0 0
0 0
0 0
0 0
0 0
0 0
0 0
0 0
0 0
0 0
0 0
0 0
0 0
0 0
0 0
0 0
0 0
0 0
0 0
0 0
0 0
0 0
0 0
0 0
0 0
0 0
0 0
0 0
0 0
0 0
0 0
0 0
0 0
0 0
0 0
0 0
0 0
0 0
0 0
0 0
0 0
0 0
0 0
0 0
0 0
0 0
0 0
0 0
0 0
0 0
0 0
0 0
0 0
0 0
0 0
0 0
0 0
0 0
0 0
0 0
0 0
0 0
0 0
0 0
0 0
0 0
0 0
0 0
0 0
0 0
0 0
0 0
0 0
0 0
0 0
0 0
0 0
0 0
0 0
0 0
0 0
0 0
0 0
0 0
0 0
0 0
0 0
0 0
0 0
0 0
0 0
0 0
0 0
0 0
0 0
0 0
0 0
0 0
0 0
0 0
0 0
0 0
0 0
0 0
0 0
0 0
0 0
0 0
0 0
0 0
0 0
0 0
0 0
0 0
0 0
0 0
0 0
0 0
0 0
0 0
0 0
0 0
0 0
0 0
0 0
0 0
0 0
0 0
0 0
0 0
0 0
0 0
0 0
0 0
0 0
0 0
0 0
0 0
0 0
0 0
0 0
0 0
0 0
0 0
0 0
0 0
0 0
0 0
0 0
0 0
0 0
0 0
0 0
0 0
0 0
0 0
0 0
0 0
0 0
0 0
0 0
0 0
0 0
0 0
0 0
0 0
0 0
0 0
0 0
0 0
0 0
0 0
0 0
0 0
0 0
0 0
0 0
0 0
0 0
0 0
0 0
0 0
0 0
0 0
0 0
0 0
0 0
0 0
0 0
0 0
0 0
0 0
0 0
0 0
0 0
0 0
0 0
0 0
0 0
0 0
0 0
0 0
0 0
0 0
0 0
0 0
0 0
0 0
0 0
0 0
0 0
0 0
0 0
0 0
0 0
0 0
0 0
0 0
0 0
0 0
0 0
0 0
0 0
0 0
0 0
0 0
0 0
0 0
0 0
0 0
0 0
0 0
0 0
0 0
0 0
0 0
0 0
0 0
0 0
0 0
0 0
0 0
0 0
0 0
0 0
0 0
0 0
0 0
0 0
0 0
0 0
0 0
0 0
0 0
0 0
0 0
0 0
0 0
0 0
0 0
0 0
0 0
0 0
0 0
0 0
0 0
0 0
0 0
0 0
0 0
0 0
0 0
0 0
0 0
0 0
0 0
0 0
0 0
0 0
0 0
0 0
0 0
0 0
0 0
0 0
0 0
0 0
0 0
0 0
0 0
0 0
0 0
0 0
0 0
0 0
0 0
0 0
0 0
0 0
0 0
0 0
0 0
0 0
0 0
0 0
0 0
0 0
0 0
0 0
0 0
0 0
0 0
0 0
0 0
0 0
0 0
0 0
0 0
0 0
0 0
0 0
0 0
0 0
0 0
0 0
0 0
0 0
0 0
0 0
0 0
0 0
0 0
0 0
0 0
0 0
0 0
0 0
0 0
0 0
0 0
0 0
0 0
0 0
0 0
0 0
0 0
0 0
0 0
0 0
0 0
0 0
0 0
0 0
0 0
0 0
0 0
0 0
0 0
0 0
0 0
0 0
0 0
0 0
0 0
0 0
0 0
0 0
0 0
0 0
0 0
0 0
0 0
0 0
0 0
0 0
0 0
0 0
0 0
0 0
0 0
0 0
0 0
0 0
0 0
0 0
0 0
0 0
0 0
0 0
0 0
0 0
0 0
0 0
0 0
0 0
0 0
0 0
0 0
0 0
0 0
0 0
0 0
0 0
0 0
0 0
0 0
0 0
0 0
0 0
0 0
0 0
0 0
0 0
0 0
0 0
0 0
0 0
0 0
0 0
0 0
0 0
0 0
0 0
0 0
0 0
0 0
0 0
0 0
0 0
0 0
0 0
0 0
0 0
0 0
0 0
0 0
0 0
0 0
0 0
0 0
0 0
0 0
0 0
0 0
0 0
0 0
0 0
0 0
0 0
0 0
0 0
0 0
0 0
0 0
0 0
0 0
0 0
0 0
0 0
0 0
0 0
0 0
0 0
0 0
0 0
0 0
0 0
0 0
0 0
0 0
0 0
0 0
0 0
0 0
0 0
0 0
0 0
0 0
0 0
0 0
0 0
0 0
0 0
0 0
0 0
0 0
0 0
0 0
0 0
0 0
0 0
0 0
0 0
0 0
0 0
0 0
0 0
0 0
0 0
0 0
0 0
0 0
0 0
0 0
0 0
0 0
0 0
0 0
0 0
0 0
0 0
0 0
0 0
0 0
0 0
0 0
0 0
0 0
0 0
0 0
0 0
0 0
0 0
0 0
0 0
0 0
0 0
0 0
0 0
0 0
0 0
0 0
0 0
0 0
0 0
0 0
0 0
0 0
0 0
0 0
0 0
0 0
0 0
0 0
0 0
0 0
0 0
0 0
0 0
0 0
0 0
0 0
0 0
0 0
0 0
0 0
0 0
0 0
0 0
0 0
0 0
0 0
0 0
0 0
0 0
0 0
0 0
0 0
0 0
0 0
0 0
0 0
0 0
0 0
0 0
0 0
0 0
0 0
0 0
0 0
0 0
0 0
0 0
0 0
0 0
0 0
0 0
0 0
0 0
0 0
0 0
0 0
0 0
0 0
0 0
0 0
0 0
0 0
0 0
0 0
0 0
0 0
0 0
0 0
0 0
0 0
0 0
0 0
0 0
0 0
0 0
0 0
0 0
0 0
0 0
0 0
0 0
0 0
0 0
0 0
0 0
0 0
0 0
0 0
0 0
0 0
0 0
0 0
0 0
0 0
0 0
0 0
0 0
0 0
0 0
0 0
0 0
0 0
0 0
0 0
0 0
0 0
0 0
0 0
0 0
0 0
0 0
0 0
0 0
0 0
0 0
0 0
0 0
0 0
0 0
0 0
0 0
0 0
0 0
0 0
0 0
0 0
0 0
0 0
0 0
0 0
0 0
0 0
0 0
0 0
0 0
0 0
0 0
0 0
0 0
0 0
0 0
0 0
0 0
0 0
0 0
0 0
0 0
0 0
0 0
0 0
0 0
0 0
0 0
0 0
0 0
0 0
0 0
0 0
0 0
0 0
0 0
0 0
0 0
0 0
0 0
0 0
0 0
0 0
0 0
0 0
0 0
0 0
0 0
0 0
0 0
0 0
0 0
0 0
0 0
0 0
0 0
0 0
0 0
0 0
0 0
0 0
0 0
0 0
0 0
0 0
0 0
0 0
0 0
0 0
0 0
0 0
0 0
0 0
0 0
0 0
0 0
0 0
0 0
0 0
0 0
0 0
0 0
0 0
0 0
0 0
0 0
0 0
0 0
0 0
0 0
0 0
0 0
0 0
0 0
0 0
0 0
0 0
0 0
0 0
0 0
0 0
0 0
0 0
0 0
0 0
0 0
0 0
0 0
0 0
0 0
0 0
0 0
0 0
0 0
0 0
0 0
0 0
0 0
0 0
0 0
0 0
0 0
0 0
0 0
0 0
0 0
0 0
0 0
0 0
0 0
0 0
0 0
0 0
0 0
0 0
0 0
0 0
0 0
0 0
0 0
0 0
0 0
0 0
0 0
0 0
0 0
0 0
0 0
0 0
0 0
0 0
0 0
0 0
0 0
0 0
0 0
0 0
0 0
0 0
0 0
0 0
0 0
0 0
0 0
0 0
0 0
0 0
0 0
0 0
0 0
0 0
0 0
0 0
0 0
0 0
0 0
0 0
0 0
0 0
0 0
0 0
0 0
0 0
0 0
0 0
0 0
0 0
0 0
0 0
0 0
0 0
0 0
0 0
0 0
0 0
0 0
0 0
0 0
0 0
0 0
0 0
0 0
0 0
0 0
0 0
0 0
0 0
0 0
0 0
0 0
0 0
0 0
0 0
0 0
0 0
0 0
0 0
0 0
0 0
0 0
0 0
0 0
0 0
0 0
0 0
0 0
0 0
0 0
0 0
0 0
0 0
0 0
0 0
0 0
0 0
0 0
0 0
0 0
0 0
0 0
0 0
0 0
0 0
0 0
0 0
0 0
0 0
0 0
0 0
0 0
0 0
0 0
0 0
0 0
0 0
0 0
0 0
0 0
0 0
0 0
0 0
0 0
0 0
0 0
0 0
0 0
0 0
0 0
0 0
0 0
0 0
0 0
0 0
0 0
0 0
0 0
0 0
0 0
0 0
0 0
0 0
0 0
0 0
0 0
0 0
0 0
0 0
0 0
0 0
0 0
0 0
0 0
0 0
0 0
0 0
0 0
0 0
0 0
0 0
0 0
0 0
0 0
0 0
0 0
0 0
0 0
0 0
0 0
0 0
0 0
0 0
0 0
0 0
0 0
0 0
0 0
0 0
0 0
0 0
0 0
0 0
0 0
0 0
0 0
0 0
0 0
0 0
0 0
0 0
0 0
0 0
0 0
0 0
0 0
0 0
0 0
0 0
0 0
0 0
0 0
0 0
0 0
0 0
0 0
0 0
0 0
0 0
0 0
0 0
0 0
0 0
0 0
0 0
0 0
0 0
0 0
0 0
0 0
0 0
0 0
0 0
0 0
0 0
0 0
0 0
0 0
0 0
0 0
0 0
0 0
0 0
0 0
0 0
0 0
0 0
0 0
0 0
0 0
0 0
0 0
0 0
0 0
0 0
0 0
0 0
0 0
0 0
0 0
0 0
0 0
0 0
0 0
0 0
0 0
0 0
0 0
0 0
0 0
0 0
0 0
0 0
0 0
0 0
0 0
0 0
0 0
0 0
0 0
0 0
0 0
0 0
0 0
0 0
0 0
0 0
0 0
0 0
0 0
0 0
0 0
0 0
0 0
0 0
0 0
0 0
0 0
0 0
0 0
0 0
0 0
0 0
0 0
0 0
0 0
0 0
0 0
0 0
0 0
0 0
0 0
0 0
0 0
0 0
0 0
0 0
0 0
0 0
0 0
0 0
0 0
0 0
0 0
0 0
0 0
0 0
0 0
0 0
0 0
0 0
0 0
0 0
0 0
0 0
0 0
0 0
0 0
0 0
0 0
0 0
0 0
0 0
0 0
0 0
0 0
0 0
0 0
0 0
0 0
0 0
0 0
0 0
0 0
0 0
0 0
0 0
0 0
0 0
0 0
0 0
0 0
0 0
0 0
0 0
0 0
0 0
0 0
0 0
0 0
0 0
0 0
0 0
0 0
0 0
0 0
0 0
0 0
0 0
0 0
0 0
0 0
0 0
0 0
0 0
0 0
0 0
0 0
0 0
0 0
0 0
0 0
0 0
0 0
0 0
0 0
0 0
0 0
0 0
0 0
0 0
0 0
0 0
0 0
0 0
0 0
0 0
0 0
0 0
0 0
0 0
0 0
0 0
0 0
0 0
0 0
0 0
0 0
0 0
0 0
0 0
0 0
0 0
0 0
0 0
0 0
0 0
0 0
0 0
0 0
0 0
0 0
0 0
0 0
0 0
0 0
0 0
0 0
0 0
0 0
0 0
0 0
0 0
0 0
0 0
0 0
0 0
0 0
0 0
0 0
0 0
0 0
0 0
0 0
0 0
0 0
0 0
0 0
0 0
0 0
0 0
0 0
0 0
0 0
0 0
0 0
0 0
0 0
0 0
0 0
0 0
0 0
0 0
0 0
0 0
0 0
0 0
0 0
0 0
0 0
0 0
0 0
0 0
0 0
0 0
0 0
0 0
0 0
0 0
0 0
0 0
0 0
0 0
0 0
0 0
0 0
0 0
0 0
0 0
0 0
0 0
0 0
0 0
0 0
0 0
0 0
0 0
0 0
0 0
0 0
0 0
0 0
0 0
0 0
0 0
0 0
0 0
0 0
0 0
0 0
0 0
0 0
0 0
0 0
0 0
0 0
0 0
0 0
0 0
0 0
0 0
0 0
0 0
0 0
0 0
0 0
0 0
0 0
0 0
0 0
0 0
0 0
0 0
0 0
0 0
0 0
0 0
0 0
0 0
0 0
0 0
0 0
0 0
0 0
0 0
0 0
0 0
0 0
0 0
0 0
0 0
0 0
0 0
0 0
0 0
0 0
0 0
0 0
0 0
0 0
0 0
0 0
0 0
0 0
0 0
0 0
0 0
0 0
0 0
0 0
0 0
0 0
0 0
0 0
0 0
0 0
0 0
0 0
0 0
0 0
0 0
0 0
0 0
0 0
0 0
0 0
0 0
0 0
0 0
0 0
0 0
0 0
0 0
0 0
0 0
0 0
0 0
0 0
0 0
0 0
0 0
0 0
0 0
0 0
0 0
0 0
0 0
0 0
0 0
0 0
0 0
0 0
0 0
0 0
0 0
0 0
0 0
0 0
0 0
0 0
0 0
0 0
0 0
0 0
0 0
0 0
0 0
0 0
0 0
0 0
0 0
0 0
0 0
0 0
0 0
0 0
0 0
0 0
0 0
0 0
0 0
0 0
0 0
0 0
0 0
0 0
0 0
0 0
0 0
0 0
0 0
0 0
0 0
0 0
0 0
0 0
0 0
0 0
0 0
0 0
0 0
0 0
0 0
0 0
0 0
0 0
0 0
0 0
0 0
0 0
0 0
0 0
0 0
0 0
0 0
0 0
0 0
0 0
0 0
0 0
0 0
0 0
0 0
0 0
0 0
0 0
0 0
0 0
0 0
0 0
0 0
0 0
0 0
0 0
0 0
0 0
0 0
0 0
0 0
0 0
0 0
0 0
0 0
0 0
0 0
0 0
0 0
0 0
0 0
0 0
0 0
0 0
0 0
0 0
0 0
0 0
0 0
0 0
0 0
0 0
0 0
0 0
0 0
0 0
0 0
0 0
0 0
0 0
0 0
0 0
0 0
0 0
0 0
0 0
0 0
0 0
0 0
0 0
0 0
0 0
0 0
0 0
0 0
0 0
0 0
0 0
0 0
0 0
0 0
0 0
0 0
0 0
0 0
0 0
0 0
0 0
0 0
0 0
0 0
0 0
0 0
0 0
0 0
0 0
0 0
0 0
0 0
0 0
0 0
0 0
0 0
0 0
0 0
0 0
0 0
0 0
0 0
0 0
0 0
0 0
0 0
0 0
0 0
0 0
0 0
0 0
0 0
0 0
0 0
0 0
0 0
0 0
0 0
0 0
0 0
0 0
0 0
0 0
0 0
0 0
0 0
0 0
0 0
0 0
0 0
0 0
0 0
0 0
0 0
0 0
0 0
0 0
0 0
0 0
0 0
0 0
0 0
0 0
0 0
0 0
0 0
0 0
0 0
0 0
0 0
0 0
0 0
0 0
0 0
0 0
0 0
0 0
0 0
0 0
0 0
0 0
0 0
0 0
0 0
0 0
0 0
0 0
0 0
0 0
0 0
0 0
0 0
0 0
0 0
0 0
0 0
0 0
0 0
0 0
0 0
0 0
0 0
0 0
0 0
0 0
0 0
0 0
0 0
0 0
0 0
0 0
0 0
0 0
0 0
0 0
0 0
0 0
0 0
0 0
0 0
0 0
0 0
0 0
0 0
0 0
0 0
0 0
0 0
0 0
0 0
0 0
0 0
0 0
0 0
0 0
0 0
0 0
0 0
0 0
0 0
0 0
0 0
0 0
0 0
0 0
0 0
0 0
0 0
0 0
0 0
0 0
0 0
0 0
0 0
0 0
0 0
0 0
0 0
0 0
0 0
0 0
0 0
0 0
0 0
0 0
0 0
0 0
0 0
0 0
0 0
0 0
0 0
0 0
0 0
0 0
0 0
0 0
0 0
0 0
0 0
0 0
0 0
0 0
0 0
0 0
0 0
0 0
0 0
0 0
0 0
0 0
0 0
0 0
0 0
0 0
0 0
0 0
0 0
0 0
0 0
0 0
0 0
0 0
0 0
0 0
0 0
0 0
0 0
0 0
0 0
0 0
0 0
0 0
0 0
0 0
0 0
0 0
0 0
0 0
0 0
0 0
0 0
0 0
0 0
0 0
0 0
0 0
0 0
0 0
0 0
0 0
0 0
0 0
0 0
0 0
0 0
0 0
0 0
0 0
0 0
0 0
0 0
0 0
0 0
0 0
0 0
0 0
0 0
0 0
0 0
0 0
0 0
0 0
0 0
0 0
0 0
0 0
0 0
0 0
0 0
0 0
0 0
0 0
0 0
0 0
0 0
0 0
0 0
0 0
0 0
0 0
0 0
0 0
0 0
0 0
0 0
0 0
0 0
0 0
0 0
0 0
0 0
0 0
0 0
0 0
0 0
0 0
0 0
0 0
0 0
0 0
0 0
0 0
0 0
0 0
0 0
0 0
0 0
0 0
0 0
0 0
0 0
0 0
0 0
0 0
0 0
0 0
0 0
0 0
0 0
0 0
0 0
0 0
0 0
0 0
0 0
0 0
0 0
0 0
0 0
0 0
0 0
0 0
0 0
0 0
0 0
0 0
0 0
0 0
0 0
0 0
0 0
0 0
0 0
0 0
0 0
0 0
0 0
0 0
0 0
0 0
0 0
0 0
0 0
0 0
0 0
0 0
0 0
0 0
0 0
0 0
0 0
0 0
0 0
0 0
0 0
0 0
0 0
0 0
0 0
0 0
0 0
0 0
0 0
0 0
0 0
0 0
0 0
0 0
0 0
0 0
0 0
0 0
0 0
0 0
0 0
0 0
0 0
0 0
0 0
0 0
0 0
0 0
0 0
0 0
0 0
0 0
0 0
0 0
0 0
0 0
0 0
0 0
0 0
0 0
0 0
0 0
0 0
0 0
0 0
0 0
0 0
0 0
0 0
0 0
0 0
0 0
0 0
0 0
0 0
0 0
0 0
0 0
0 0
0 0
0 0
0 0
0 0
0 0
0 0
0 0
0 0
0 0
0 0
0 0
0 0
0 0
0 0
0 0
0 0
0 0
0 0
0 0
0 0
0 0
0 0
0 0
0 0
0 0
0 0
0 0
0 0
0 0
0 0
0 0
0 0
0 0
0 0
0 0
0 0
0 0
0 0
0 0
0 0
0 0
0 0
0 0
0 0
0 0
0 0
0 0
0 0
0 0
0 0
0 0
0 0
0 0
0 0
0 0
0 0
0 0
0 0
0 0
0 0
0 0
0 0
0 0
0 0
0 0
0 0
0 0
0 0
0 0
0 0
0 0
0 0
0 0
0 0
0 0
0 0
0 0
0 0
0 0
0 0
0 0
0 0
0 0
0 0
0 0
0 0
0 0
0 0
0 0
0 0
0 0
0 0
0 0
0 0
0 0
0 0
0 0
0 0
0 0
0 0
0 0
0 0
0 0
0 0
0 0
0 0
0 0
0 0
0 0
0 0
0 0
0 0
0 0
0 0
0 0
0 0
0 0
0 0
0 0
0 0
0 0
0 0
0 0
0 0
0 0
0 0
0 0
0 0
0 0
0 0
0 0
0 0
0 0
0 0
0 0
0 0
0 0
0 0
0 0
0 0
0 0
0 0
0 0
0 0
0 0
0 0
0 0
0 0
0 0
0 0
0 0
0 0
0 0
0 0
0 0
0 0
0 0
0 0
0 0
0 0
0 0
0 0
0 0
0 0
0 0
0 0
0 0
0 0
0 0
0 0
0 0
0 0
0 0
0 0
0 0
0 0
0 0
0 0
0 0
0 0
0 0
0 0
0 0
0 0
0 0
0 0
0 0
0 0
0 0
0 0
0 0
0 0
0 0
0 0
0 0
0 0
0 0
0 0
0 0
0 0
0 0
0 0
0 0
0 0
0 0
0 0
0 0
0 0
0 0
0 0
0 0
0 0
0 0
0 0
0 0
0 0
0 0
0 0
0 0
0 0
0 0
0 0
0 0
0 0
0 0
0 0
0 0
0 0
0 0
0 0
0 0
0 0
0 0
0 0
0 0
0 0
0 0
0 0
0 0
0 0
0 0
0 0
0 0
0 0
0 0
0 0
0 0
0 0
0 0
0 0
0 0
0 0
0 0
0 0
0 0
0 0
0 0
0 0
0 0
0 0
0 0
0 0
0 0
0 0
0 0
0 0
0 0
0 0
0 0
0 0
0 0
0 0
0 0
0 0
0 0
0 0
0 0
0 0
0 0
0 0
0 0
0 0
0 0
0 0
0 0
0 0
0 0
0 0
0 0
0 0
0 0
0 0
0 0
0 0
0 0
0 0
0 0
0 0
0 0
0 0
0 0
0 0
0 0
0 0
0 0
0 0
0 0
0 0
0 0
0 0
0 0
0 0
0 0
0 0
0 0
0 0
0 0
0 0
0 0
0 0
0 0
0 0
0 0
0 0
0 0
0 0
0 0
0 0
0 0
0 0
0 0
0 0
0 0
0 0
0 0
0 0
0 0
0 0
0 0
0 0
0 0
0 0
0 0
0 0
0 0
0 0
0 0
0 0
0 0
0 0
0 0
0 0
0 0
0 0
0 0
0 0
0 0
0 0
0 0
0 0
0 0
0 0
0 0
0 0
0 0
0 0
0 0
0 0
0 0
0 0
0 0
0 0
0 0
0 0
0 0
0 0
0 0
0 0
0 0
0 0
0 0
0 0
0 0
0 0
0 0
0 0
0 0
0 0
0 0
0 0
0 0
0 0
0 0
0 0
0 0
0 0
0 0
0 0
0 0
0 0
0 0
0 0
0 0
0 0
0 0
0 0
0 0
0 0
0 0
0 0
0 0
0 0
0 0
0 0
0 0
0 0
0 0
0 0
0 0
0 0
0 0
0 0
0 0
0 0
0 0
0 0
0 0
0 0
0 0
0 0
0 0
0 0
0 0
0 0
0 0
0 0
0 0
0 0
0 0
0 0
0 0
0 0
0 0
0 0
0 0
0 0
0 0
0 0
0 0
0 0
0 0
0 0
0 0
0 0
0 0
0 0
0 0
0 0
0 0
0 0
0 0
0 0
0 0
0 0
0 0
0 0
0 0
0 0
0 0
0 0
0 0
0 0
0 0
0 0
0 0
0 0
0 0
0 0
0 0
0 0
0 0
0 0
0 0
0 0
0 0
0 0
0 0
0 0
0 0
0 0
0 0
0 0
0 0
0 0
0 0
0 0
0 0
0 0
0 0
0 0
0 0
0 0
0 0
0 0
0 0
0 0
0 0
0 0
0 0
0 0
0 0
0 0
0 0
0 0
0 0
0 0
0 0
0 0
0 0
0 0
0 0
0 0
0 0
0 0
0 0
0 0
0 0
0 0
0 0
0 0
0 0
0 0
0 0
0 0
0 0
0 0
0 0
0 0
0 0
0 0
0 0
0 0
0 0
0 0
0 0
0 0
0 0
0 0
0 0
0 0
0 0
0 0
0 0
0 0
0 0
0 0
0 0
0 0
0 0
0 0
0 0
0 0
0 0
0 0
0 0
0 0
0 0
0 0
0 0
0 0
0 0
0 0
0 0
0 0
0 0
0 0
0 0
0 0
0 0
0 0
0 0
0 0
0 0
0 0
0 0
0 0
0 0
0 0
0 0
0 0
0 0
0 0
0 0
0 0
0 0
0 0
0 0
0 0
0 0
0 0
0 0
0 0
0 0
0 0
0 0
0 0
0 0
0 0
0 0
0 0
0 0
0 0
0 0
0 0
0 0
0 0
0 0
0 0
0 0
0 0
0 0
0 0
0 0
0 0
0 0
0 0
0 0
0 0
0 0
0 0
0 0
0 0
0 0
0 0
0 0
0 0
0 0
0 0
0 0
0 0
0 0
0 0
0 0
0 0
0 0
0 0
0 0
0 0
0 0
0 0
0 0
0 0
0 0
0 0
0 0
0 0
0 0
0 0
0 0
0 0
0 0
0 0
0 0
0 0
0 0
0 0
0 0
0 0
0 0
0 0
0 0
0 0
0 0
0 0
0 0
0 0
0 0
0 0
0 0
0 0
0 0
0 0
0 0
0 0
0 0
0 0
0 0
0 0
0 0
0 0
0 0
0 0
0 0
0 0
0 0
0 0
0 0
0 0
0 0
0 0
0 0
0 0
0 0
0 0
0 0
0 0
0 0
0 0
0 0
0 0
0 0
0 0
0 0
0 0
0 0
0 0
0 0
0 0
0 0
0 0
0 0
0 0
0 0
0 0
0 0
0 0
0 0
0 0
0 0
0 0
0 0
0 0
0 0
0 0
0 0
0 0
0 0
0 0
0 0
0 0
0 0
0 0
0 0
0 0
0 0
0 0
0 0
0 0
0 0
0 0
0 0
0 0
0 0
0 0
0 0
0 0
0 0
0 0
0 0
0 0
0 0
0 0
0 0
0 0
0 0
0 0
0 0
0 0
0 0
0 0
0 0
0 0
0 0
0 0
0 0
0 0
0 0
0 0
0 0
0 0
0 0
0 0
0 0
0 0
0 0
0 0
0 0
0 0
0 0
0 0
0 0
0 0
0 0
0 0
0 0
0 0
0 0
0 0
0 0
0 0
0 0
0 0
0 0
0 0
0 0
0 0
0 0
0 0
0 0
0 0
0 0
0 0
0 0
0 0
0 0
0 0
0 0
0 0
0 0
0 0
0 0
0 0
0 0
0 0
0 0
0 0
0 0
0 0
0 0
0 0
0 0
0 0
0 0
0 0
0 0
0 0
0 0
0 0
0 0
0 0
0 0
0 0
0 0
0 0
0 0
0 0
0 0
0 0
0 0
0 0
0 0
0 0
0 0
0 0
0 0
0 0
0 0
0 0
0 0
0 0
0 0
0 0
0 0
0 0
0 0
0 0
0 0
0 0
0 0
0 0
0 0
0 0
0 0
0 0
0 0
0 0
0 0
0 0
0 0
0 0
0 0
0 0
0 0
0 0
0 0
0 0
0 0
0 0
0 0
0 0
0 0
0 0
0 0
0 0
0 0
0 0
0 0
0 0
0 0
0 0
0 0
0 0
0 0
0 0
0 0
0 0
0 0
0 0
0 0
0 0
0 0
0 0
0 0
0 0
0 0
0 0
0 0
0 0
0 0
0 0
0 0
0 0
0 0
0 0
0 0
0 0
0 0
0 0
0 0
0 0
0 0
0 0
0 0
0 0
0 0
0 0
0 0
0 0
0 0
0 0
0 0
0 0
0 0
0 0
0 0
0 0
0 0
0 0
0 0
0 0
0 0
0 0
0 0
0 0
0 0
0 0
0 0
0 0
0 0
0 0
0 0
0 0
0 0
0 0
0 0
0 0
0 0
0 0
0 0
0 0
0 0
0 0
0 0
0 0
0 0
0 0
0 0
0 0
0 0
0 0
0 0
0 0
0 0
0 0
0 0
0 0
0 0
0 0
0 0
0 0
0 0
0 0
0 0
0 0
0 0
0 0
0 0
0 0
0 0
0 0
0 0
0 0
0 0
0 0
0 0
0 0
0 0
0 0
0 0
0 0
0 0
0 0
0 0
0 0
0 0
0 0
0 0
0 0
0 0
0 0
0 0
0 0
0 0
0 0
0 0
0 0
0 0
0 0
0 0
0 0
0 0
0 0
0 0
0 0
0 0
0 0
0 0
0 0
0 0
0 0
0 0
0 0
0 0
0 0
0 0
0 0
0 0
0 0
0 0
0 0
0 0
0 0
0 0
0 0
0 0
0 0
0 0
0 0
0 0
0 0
0 0
0 0
0 0
0 0
0 0
0 0
0 0
0 0
0 0
0 0
0 0
0 0
0 0
0 0
0 0
0 0
0 0
0 0
0 0
0 0
0 0
0 0
0 0
0 0
0 0
0 0
0 0
0 0
0 0
0 0
0 0
0 0
0 0
0 0
0 0
0 0
0 0
0 0
0 0
0 0
0 0
0 0
0 0
0 0
0 0
0 0
0 0
0 0
0 0
0 0
0 0
0 0
0 0
0 0
0 0
0 0
0 0
0 0
0 0
0 0
0 0
0 0
0 0
0 0
0 0
0 0
0 0
0 0
0 0
0 0
0 0
0 0
0 0
0 0
0 0
0 0
0 0
0 0
0 0
0 0
0 0
0 0
0 0
0 0
0 0
0 0
0 0
0 0
0 0
0 0
0 0
0 0
0 0
0 0
0 0
0 0
0 0
0 0
0 0
0 0
0 0
0 0
0 0
0 0
0 0
0 0
0 0
0 0
0 0
0 0
0 0
0 0
0 0
0 0
0 0
0 0
0 0
0 0
0 0
0 0
0 0
0 0
0 0
0 0
0 0
0 0
0 0
0 0
0 0
0 0
0 0
0 0
0 0
0 0
0 0
0 0
0 0
0 0
0 0
0 0
0 0
0 0
0 0
0 0
0 0
0 0
0 0
0 0
0 0
0 0
0 0
0 0
0 0
0 0
0 0
0 0
0 0
0 0
0 0
0 0
0 0
0 0
0 0
0 0
0 0
0 0
0 0
0 0
0 0
0 0
0 0
0 0
0 0
0 0
0 0
0 0
0 0
0 0
0 0
0 0
0 0
0 0
0 0
0 0
0 0
0 0
0 0
0 0
0 0
0 0
0 0
0 0
0 0
0 0
0 0
0 0
0 0
0 0
0 0
0 0
0 0
0 0
0 0
0 0
0 0
0 0
0 0
0 0
0 0
0 0
0 0
0 0
0 0
0 0
0 0
0 0
0 0
0 0
0 0
0 0
0 0
0 0
0 0
0 0
0 0
0 0
0 0
0 0
0 0
0 0
0 0
0 0
0 0
0 0
0 0
0 0
0 0
0 0
0 0
0 0
0 0
0 0
0 0
0 0
0 0
0 0
0 0
0 0
0 0
0 0
0 0
0 0
0 0
0 0
0 0
0 0
0 0
0 0
0 0
0 0
0 0
0 0
0 0
0 0
0 0
0 0
0 0
0 0
0 0
0 0
0 0
0 0
0 0
0 0
0 0
0 0
0 0
0 0
0 0
0 0
0 0
0 0
0 0
0 0
0 0
0 0
0 0
0 0
0 0
0 0
0 0
0 0
0 0
0 0
0 0
0 0
0 0
0 0
0 0
0 0
0 0
0 0
0 0
0 0
0 0
0 0
0 0
0 0
0 0
0 0
0 0
0 0
0 0
0 0
0 0
0 0
0 0
0 0
0 0
0 0
0 0
0 0
0 0
0 0
0 0
0 0
0 0
0 0
0 0
0 0
0 0
0 0
0 0
0 0
0 0
0 0
0 0
0 0
0 0
0 0
0 0
0 0
0 0
0 0
0 0
0 0
0 0
0 0
0 0
0 0
0 0
0 0
0 0
0 0
0 0
0 0
0 0
0 0
0 0
0 0
0 0
0 0
0 0
0 0
0 0
0 0
0 0
0 0
0 0
0 0
0 0
0 0
0 0
0 0
0 0
0 0
0 0
0 0
0 0
0 0
0 0
0 0
0 0
0 0
0 0
0 0
0 0
0 0
0 0
0 0
0 0
0 0
0 0
0 0
0 0
0 0
0 0
0 0
0 0
0 0
0 0
0 0
0 0
0 0
0 0
0 0
0 0
0 0
0 0
0 0
0 0
0 0
0 0
0 0
0 0
0 0
0 0
0 0
0 0
0 0
0 0
0 0
0 0
0 0
0 0
0 0
0 0
0 0
0 0
0 0
0 0
0 0
0 0
0 0
0 0
0 0
0 0
0 0
0 0
0 0
0 0
0 0
0 0
0 0
0 0
0 0
0 0
0 0
0 0
0 0
0 0
0 0
0 0
0 0
0 0
0 0
0 0
0 0
0 0
0 0
0 0
0 0
0 0
0 0
0 0
0 0
0 0
0 0
0 0
0 0
0 0
0 0
0 0
0 0
0 0
0 0
0 0
0 0
0 0
0 0
0 0
0 0
0 0
0 0
0 0
0 0
0 0
0 0
0 0
0 0
0 0
0 0
0 0
0 0
0 0
0 0
0 0
0 0
0 0
0 0
0 0
0 0
0 0
0 0
0 0
0 0
0 0
0 0
0 0
0 0
0 0
0 0
0 0
0 0
0 0
0 0
0 0
0 0
0 0
0 0
0 0
0 0
0 0
0 0
0 0
0 0
0 0
0 0
0 0
0 0
0 0
0 0
0 0
0 0
0 0
0 0
0 0
0 0
0 0
0 0
0 0
0 0
0 0
0 0
0 0
0 0
0 0
0 0
0 0
0 0
0 0
0 0
0 0
0 0
0 0
0 0
0 0
0 0
0 0
0 0
0 0
0 0
0 0
0 0
0 0
0 0
0 0
0 0
0 0
0 0
0 0
0 0
0 0
0 0
0 0
0 0
0 0
0 0
0 0
0 0
0 0
0 0
0 0
0 0
0 0
0 0
0 0
0 0
0 0
0 0
0 0
0 0
0 0
0 0
0 0
0 0
0 0
0 0
0 0
0 0
0 0
0 0
0 0
0 0
0 0
0 0
0 0
0 0
0 0
0 0
0 0
0 0
0 0
0 0
0 0
0 0
0 0
0 0
0 0
0 0
0 0
0 0
0 0
0 0
0 0
0 0
0 0
0 0
0 0
0 0
0 0
0 0
0 0
0 0
0 0
0 0
0 0
0 0
0 0
0 0
0 0
0 0
0 0
0 0
0 0
0 0
0 0
0 0
0 0
0 0
0 0
0 0
0 0
0 0
0 0
0 0
0 0
0 0
0 0
0 0
0 0
0 0
0 0
0 0
0 0
0 0
0 0
0 0
0 0
0 0
0 0
0 0
0 0
0 0
0 0
0 0
0 0
0 0
0 0
0 0
0 0
0 0
0 0
0 0
0 0
0 0
0 0
0 0
0 0
0 0
0 0
0 0
0 0
0 0
0 0
0 0
0 0
0 0
0 0
0 0
0 0
0 0
0 0
0 0
0 0
0 0
0 0
0 0
0 0
0 0
0 0
0 0
0 0
0 0
0 0
0 0
0 0
0 0
0 0
0 0
0 0
0 0
0 0
0 0
0 0
0 0
0 0
0 0
0 0
0 0
0 0
0 0
0 0
0 0
0 0
0 0
0 0
0 0
0 0
0 0
0 0
0 0
0 0
0 0
0 0
0 0
0 0
0 0
0 0
0 0
0 0
0 0
0 0
0 0
0 0
0 0
0 0
0 0
0 0
0 0
0 0
0 0
0 0
0 0
0 0
0 0
0 0
0 0
0 0
0 0
0 0
0 0
0 0
0 0
0 0
0 0
0 0
0 0
0 0
0 0
0 0
0 0
0 0
0 0
0 0
0 0
0 0
0 0
0 0
0 0
0 0
0 0
0 0
0 0
0 0
0 0
0 0
0 0
0 0
0 0
0 0
0 0
0 0
0 0
0 0
0 0
0 0
0 0
0 0
0 0
0 0
0 0
0 0
0 0
0 0
0 0
0 0
0 0
0 0
0 0
0 0
0 0
0 0
0 0
0 0
0 0
0 0
0 0
0 0
0 0
0 0
0 0
0 0
0 0
0 0
0 0
0 0
0 0
0 0
0 0
0 0
0 0
0 0
0 0
0 0
0 0
0 0
0 0
0 0
0 0
0 0
0 0
0 0
0 0
0 0
0 0
0 0
0 0
0 0
0 0
0 0
0 0
0 0
0 0
0 0
0 0
0 0
0 0
0 0
0 0
0 0
0 0
0 0
0 0
0 0
0 0
0 0
0 0
0 0
0 0
0 0
0 0
0 0
0 0
0 0
0 0
0 0
0 0
0 0
0 0
0 0
0 0
0 0
0 0
0 0
0 0
0 0
0 0
0 0
0 0
0 0
0 0
0 0
0 0
0 0
0 0
0 0
0 0
0 0
0 0
0 0
0 0
0 0
0 0
0 0
0 0
0 0
0 0
0 0
0 0
0 0
0 0
0 0
0 0
0 0
0 0
0 0
0 0
0 0
0 0
0 0
0 0
0 0
0 0
0 0
0 0
0 0
0 0
0 0
0 0
0 0
0 0
0 0
0 0
0 0
0 0
0 0
0 0
0 0
0 0
0 0
0 0
0 0
0 0
0 0
0 0
0 0
0 0
0 0
0 0
0 0
0 0
0 0
0 0
0 0
0 0
0 0
0 0
0 0
0 0
0 0
0 0
0 0
0 0
0 0
0 0
0 0
0 0
0 0
0 0
0 0
0 0
0 0
0 0
0 0
0 0
0 0
0 0
0 0
0 0
0 0
0 0
0 0
0 0
0 0
0 0
0 0
0 0
0 0
0 0
0 0
0 0
0 0
0 0
0 0
0 0
0 0
0 0
0 0
0 0
0 0
0 0
0 0
0 0
0 0
0 0
0 0
0 0
0 0
0 0
0 0
0 0
0 0
0 0
0 0
0 0
0 0
0 0
0 0
0 0
0 0
0 0
0 0
0 0
0 0
0 0
0 0
0 0
0 0
0 0
0 0
0 0
0 0
0 0
0 0
0 0
0 0
0 0
0 0
0 0
0 0
0 0
0 0
0 0
0 0
0 0
0 0
0 0
0 0
0 0
0 0
0 0
0 0
0 0
0 0
0 0
0 0
0 0
0 0
0 0
0 0
0 0
0 0
0 0
0 0
0 0
0 0
0 0
0 0
0 0
0 0
0 0
0 0
0 0
0 0
0 0
0 0
0 0
0 0
0 0
0 0
0 0
0 0
0 0
0 0
0 0
0 0
0 0
0 0
0 0
0 0
0 0
0 0
0 0
0 0
0 0
0 0
0 0
0 0
0 0
0 0
0 0
0 0
0 0
0 0
0 0
0 0
0 0
0 0
0 0
0 0
0 0
0 0
0 0
0 0
0 0
0 0
0 0
0 0
0 0
0 0
0 0
0 0
0 0
0 0
0 0
0 0
0 0
0 0
0 0
0 0
0 0
0 0
0 0
0 0
0 0
0 0
0 0
0 0
0 0
0 0
0 0
0 0
0 0
0 0
0 0
0 0
0 0
0 0
0 0
0 0
0 0
0 0
0 0
0 0
0 0
0 0
0 0
0 0
0 0
0 0
0 0
0 0
0 0
0 0
0 0
0 0
0 0
0 0
0 0
0 0
0 0
0 0
0 0
0 0
0 0
0 0
0 0
0 0
0 0
0 0
0 0
0 0
0 0
0 0
0 0
0 0
0 0
0 0
0 0
0 0
0 0
0 0
0 0
0 0
0 0
0 0
0 0
0 0
0 0
0 0
0 0
0 0
0 0
0 0
0 0
0 0
0 0
0 0
0 0
0 0
0 0
0 0
0 0
0 0
0 0
0 0
0 0
0 0
0 0
0 0
0 0
0 0
0 0
0 0
0 0
0 0
0 0
0 0
0 0
0 0
0 0
0 0
0 0
0 0
0 0
0 0
0 0
0 0
0 0
0 0
0 0
0 0
0 0
0 0
0 0
0 0
0 0
0 0
0 0
0 0
0 0
0 0
0 0
0 0
0 0
0 0
0 0
0 0
0 0
0 0
0 0
0 0
0 0
0 0
0 0
0 0
0 0
0 0
0 0
0 0
0 0
0 0
0 0
0 0
0 0
0 0
0 0
0 0
0 0
0 0
0 0
0 0
0 0
0 0
0 0
0 0
0 0
0 0
0 0
0 0
0 0
0 0
0 0
0 0
0 0
0 0
0 0
0 0
0 0
0 0
0 0
0 0
0 0
0 0
0 0
0 0
0 0
0 0
0 0
0 0
0 0
0 0
0 0
0 0
0 0
0 0
0 0
0 0
0 0
0 0
0 0
0 0
0 0
0 0
0 0
0 0
0 0
0 0
0 0
0 0
0 0
0 0
0 0
0 0
0 0
0 0
0 0
0 0
0 0
0 0
0 0
0 0
0 0
0 0
0 0
0 0
0 0
0 0
0 0
0 0
0 0
0 0
0 0
0 0
0 0
0 0
0 0
0 0
0 0
0 0
0 0
0 0
0 0
0 0
0 0
0 0
0 0
0 0
0 0
0 0
0 0
0 0
0 0
0 0
0 0
0 0
0 0
0 0
0 0
0 0
0 0
0 0
0 0
0 0
0 0
0 0
0 0
0 0
0 0
0 0
0 0
0 0
0 0
0 0
0 0
0 0
0 0
0 0
0 0
0 0
0 0
0 0
0 0
0 0
0 0
0 0
0 0
0 0
0 0
0 0
0 0
0 0
0 0
0 0
0 0
0 0
0 0
0 0
0 0
0 0
0 0
0 0
0 0
0 0
0 0
0 0
0 0
0 0
0 0
0 0
0 0
0 0
0 0
0 0
0 0
0 0
0 0
0 0
0 0
0 0
0 0
0 0
0 0
0 0
0 0
0 0
0 0
0 0
0 0
0 0
0 0
0 0
0 0
0 0
0 0
0 0
0 0
0 0
0 0
0 0
0 0
0 0
0 0
0 0
0 0
0 0
0 0
0 0
0 0
0 0
0 0
0 0
0 0
0 0
0 0
0 0
0 0
0 0
0 0
0 0
0 0
0 0
0 0
0 0
0 0
0 0
0 0
0 0
0 0
0 0
0 0
0 0
0 0
0 0
0 0
0 0
0 0
0 0
0 0
0 0
0 0
0 0
0 0
0 0
0 0
0 0
0 0
0 0
0 0
0 0
0 0
0 0
0 0
0 0
0 0
0 0
0 0
0 0
0 0
0 0
0 0
0 0
0 0
0 0
0 0
0 0
0 0
0 0
0 0
0 0
0 0
0 0
0 0
0 0
0 0
0 0
0 0
0 0
0 0
0 0
0 0
0 0
0 0
0 0
0 0
0 0
0 0
0 0
0 0
0 0
0 0
0 0
0 0
0 0
0 0
0 0
0 0
0 0
0 0
0 0
0 0
0 0
0 0
0 0
0 0
0 0
0 0
0 0
0 0
0 0
0 0
0 0
0 0
0 0
0 0
0 0
0 0
0 0
0 0
0 0
0 0
0 0
0 0
0 0
0 0
0 0
0 0
0 0
0 0
0 0
0 0
0 0
0 0
0 0
0 0
0 0
0 0
0 0
0 0
0 0
0 0
0 0
0 0
0 0
0 0
0 0
0 0
0 0
0 0
0 0
0 0
0 0
0 0
0 0
0 0
0 0
0 0
0 0
0 0
0 0
0 0
0 0
0 0
0 0
0 0
0 0
0 0
0 0
0 0
0 0
0 0
0 0
0 0
0 0
0 0
0 0
0 0
0 0
0 0
0 0
0 0
0 0
0 0
0 0
0 0
0 0
0 0
0 0
0 0
0 0
0 0
0 0
0 0
0 0
0 0
0 0
0 0
0 0
0 0
0 0
0 0
0 0
0 0
0 0
0 0
0 0
0 0
0 0
0 0
0 0
0 0
0 0
0 0
0 0
0 0
0 0
0 0
0 0
0 0
0 0
0 0
0 0
0 0
0 0
0 0
0 0
0 0
0 0
0 0
0 0
0 0
0 0
0 0
0 0
0 0
0 0
0 0
0 0
0 0
0 0
0 0
0 0
0 0
0 0
0 0
0 0
0 0
0 0
0 0
0 0
0 0
0 0
0 0
0 0
0 0
0 0
0 0
0 0
0 0
0 0
0 0
0 0
0 0
0 0
0 0
0 0
0 0
0 0
0 0
0 0
0 0
0 0
0 0
0 0
0 0
0 0
0 0
0 0
0 0
0 0
0 0
0 0
0 0
0 0
0 0
0 0
0 0
0 0
0 0
0 0
0 0
0 0
0 0
0 0
0 0
0 0
0 0
0 0
0 0
0 0
0 0
0 0
0 0
0 0
0 0
0 0
0 0
0 0
0 0
0 0
0 0
0 0
0 0
0 0
0 0
0 0
0 0
0 0
0 0
0 0
0 0
0 0
0 0
0 0
0 0
0 0
0 0
0 0
0 0
0 0
0 0
0 0
0 0
0 0
0 0
0 0
0 0
0 0
0 0
0 0
0 0
0 0
0 0
0 0
0 0
0 0
0 0
0 0
0 0
0 0
0 0
0 0
0 0
0 0
0 0
0 0
0 0
0 0
0 0
0 0
0 0
0 0
0 0
0 0
0 0
0 0
0 0
0 0
0 0
0 0
0 0
0 0
0 0
0 0
0 0
0 0
0 0
0 0
0 0
0 0
0 0
0 0
0 0
0 0
0 0
0 0
0 0
0 0
0 0
0 0
0 0
0 0
0 0
0 0
0 0
0 0
0 0
0 0
0 0
0 0
0 0
0 0
0 0
0 0
0 0
0 0
0 0
0 0
0 0
0 0
0 0
0 0
0 0
0 0
0 0
0 0
0 0
0 0
0 0
0 0
0 0
0 0
0 0
0 0
0 0
0 0
0 0
0 0
0 0
0 0
0 0
0 0
0 0
0 0
0 0
0 0
0 0
0 0
0 0
0 0
0 0
0 0
0 0
0 0
0 0
0 0
0 0
0 0
0 0
0 0
0 0
0 0
0 0
0 0
0 0
0 0
0 0
0 0
0 0
0 0
0 0
0 0
0 0
0 0
0 0
0 0
0 0
0 0
0 0
0 0
0 0
0 0
0 0
0 0
0 0
0 0
0 0
0 0
0 0
0 0
0 0
0 0
0 0
0 0
0 0
0 0
0 0
0 0
0 0
0 0
0 0
0 0
0 0
0 0
0 0
0 0
0 0
0 0
0 0
0 0
0 0
0 0
0 0
0 0
0 0
0 0
0 0
0 0
0 0
0 0
0 0
0 0
0 0
0 0
0 0
0 0
0 0
0 0
0 0
0 0
0 0
0 0
0 0
0 0
0 0
0 0
0 0
0 0
0 0
0 0
0 0
0 0
0 0
0 0
0 0
0 0
0 0
0 0
0 0
0 0
0 0
0 0
0 0
0 0
0 0
0 0
0 0
0 0
0 0
0 0
0 0
0 0
0 0
0 0
0 0
0 0
0 0
0 0
0 0
0 0
0 0
0 0
0 0
0 0
0 0
0 0
0 0
0 0
0 0
0 0
0 0
0 0
0 0
0 0
0 0
0 0
0 0
0 0
0 0
0 0
0 0
0 0
0 0
0 0
0 0
0 0
0 0
0 0
0 0
0 0
0 0
0 0
0 0
0 0
0 0
0 0
0 0
0 0
0 0
0 0
0 0
0 0
0 0
0 0
0 0
0 0
0 0
0 0
0 0
0 0
0 0
0 0
0 0
0 0
0 0
0 0
0 0
0 0
0 0
0 0
0 0
0 0
0 0
0 0
0 0
0 0
0 0
0 0
0 0
0 0
0 0
0 0
0 0
0 0
0 0
0 0
0 0
0 0
0 0
0 0
0 0
0 0
0 0
0 0
0 0
0 0
0 0
0 0
0 0
0 0
0 0
0 0
0 0
0 0
0 0
0 0
0 0
0 0
0 0
0 0
0 0
0 0
0 0
0 0
0 0
0 0
0 0
0 0
0 0
0 0
0 0
0 0
0 0
0 0
0 0
0 0
0 0
0 0
0 0
0 0
0 0
0 0
0 0
0 0
0 0
0 0
0 0
0 0
0 0
0 0
0 0
0 0
0 0
0 0
0 0
0 0
0 0
0 0
0 0
0 0
0 0
0 0
0 0
0 0
0 0
0 0
0 0
0 0
0 0
0 0
0 0
0 0
0 0
0 0
0 0
0 0
0 0
0 0
0 0
0 0
0 0
0 0
0 0
0 0
0 0
0 0
0 0
0 0
0 0
0 0
0 0
0 0
0 0
0 0
0 0
0 0
0 0
0 0
0 0
0 0
0 0
0 0
0 0
0 0
0 0
0 0
0 0
0 0
0 0
0 0
0 0
0 0
0 0
0 0
0 0
0 0
0 0
0 0
0 0
0 0
0 0
0 0
0 0
0 0
0 0
0 0
0 0
0 0
0 0
0 0
0 0
0 0
0 0
0 0
0 0
0 0
0 0
0 0
0 0
0 0
0 0
0 0
0 0
0 0
0 0
0 0
0 0
0 0
0 0
0 0
0 0
0 0
0 0
0 0
0 0
0 0
0 0
0 0
0 0
0 0
0 0
0 0
0 0
0 0
0 0
0 0
0 0
0 0
0 0
0 0
0 0
0 0
0 0
0 0
0 0
0 0
0 0
0 0
0 0
0 0
0 0
0 0
0 0
0 0
0 0
0 0
0 0
0 0
0 0
0 0
0 0
0 0
0 0
0 0
0 0
0 0
0 0
0 0
0 0
0 0
0 0
0 0
0 0
0 0
0 0
0 0
0 0
0 0
0 0
0 0
0 0
0 0
0 0
0 0
0 0
0 0
0 0
0 0
0 0
0 0
0 0
0 0
0 0
0 0
0 0
0 0
0 0
0 0
0 0
0 0
0 0
0 0
0 0
0 0
0 0
0 0
0 0
0 0
0 0
0 0
0 0
0 0
0 0
0 0
0 0
0 0
0 0
0 0
0 0
0 0
0 0
0 0
0 0
0 0
0 0
0 0
0 0
0 0
0 0
0 0
0 0
0 0
0 0
0 0
0 0
0 0
0 0
0 0
0 0
0 0
0 0
0 0
0 0
0 0
0 0
0 0
0 0
0 0
0 0
0 0
0 0
0 0
0 0
0 0
0 0
0 0
0 0
0 0
0 0
0 0
0 0
0 0
0 0
0 0
0 0
0 0
0 0
0 0
0 0
0 0
0 0
0 0
0 0
0 0
0 0
0 0
0 0
0 0
0 0
0 0
0 0
0 0
0 0
0 0
0 0
0 0
0 0
0 0
0 0
0 0
0 0
0 0
0 0
0 0
0 0
0 0
0 0
0 0
0 0
0 0
0 0
0 0
0 0
0 0
0 0
0 0
0 0
0 0
0 0
0 0
0 0
0 0
0 0
0 0
0 0
0 0
0 0
0 0
0 0
0 0
0 0
0 0
0 0
0 0
0 0
0 0
0 0
0 0
0 0
0 0
0 0
0 0
0 0
0 0
0 0
0 0
0 0
0 0
0 0
0 0
0 0
0 0
0 0
0 0
0 0
0 0
0 0
0 0
0 0
0 0
0 0
0 0
0 0
0 0
0 0
0 0
0 0
0 0
0 0
0 0
0 0
0 0
0 0
0 0
0 0
0 0
0 0
0 0
0 0
0 0
0 0
0 0
0 0
0 0
0 0
0 0
0 0
0 0
0 0
0 0
0 0
0 0
0 0
0 0
0 0
0 0
0 0
0 0
0 0
0 0
0 0
0 0
0 0
0 0
0 0
0 0
0 0
0 0
0 0
0 0
0 0
0 0
0 0
0 0
0 0
0 0
0 0
0 0
0 0
0 0
0 0
0 0
0 0
0 0
0 0
0 0
0 0
0 0
0 0
0 0
0 0
0 0
0 0
0 0
0 0
0 0
0 0
0 0
0 0
0 0
0 0
0 0
0 0
0 0
0 0
0 0
0 0
0 0
0 0
0 0
0 0
0 0
0 0
0 0
0 0
0 0
0 0
0 0
0 0
0 0
0 0
0 0
0 0
0 0
0 0
0 0
0 0
0 0
0 0
0 0
0 0
0 0
0 0
0 0
0 0
0 0
0 0
0 0
0 0
0 0
0 0
0 0
0 0
0 0
0 0
0 0
0 0
0 0
0 0
0 0
0 0
0 0
0 0
0 0
0 0
0 0
0 0
0 0
0 0
0 0
0 0
0 0
0 0
0 0
0 0
0 0
0 0
0 0
0 0
0 0
0 0
0 0
0 0
0 0
0 0
0 0
0 0
0 0
0 0
0 0
0 0
0 0
0 0
0 0
0 0
0 0
0 0
0 0
0 0
0 0
0 0
0 0
0 0
0 0
0 0
0 0
0 0
0 0
0 0
0 0
0 0
0 0
0 0
0 0
0 0
0 0
0 0
0 0
0 0
0 0
0 0
0 0
0 0
0 0
0 0
0 0
0 0
0 0
0 0
0 0
0 0
0 0
0 0
0 0
0 0
0 0
0 0
0 0
0 0
0 0
0 0
0 0
0 0
0 0
0 0
0 0
0 0
0 0
0 0
0 0
0 0
0 0
0 0
0 0
0 0
0 0
0 0
0 0
0 0
0 0
0 0
0 0
0 0
0 0
0 0
0 0
0 0
0 0
0 0
0 0
0 0
0 0
0 0
0 0
0 0
0 0
0 0
0 0
0 0
0 0
0 0
0 0
0 0
0 0
0 0
0 0
0 0
0 0
0 0
0 0
0 0
0 0
0 0
0 0
0 0
0 0
0 0
0 0
0 0
0 0
0 0
0 0
0 0
0 0
0 0
0 0
0 0
0 0
0 0
0 0
0 0
0 0
0 0
0 0
0 0
0 0
0 0
0 0
0 0
0 0
0 0
0 0
0 0
0 0
0 0
0 0
0 0
0 0
0 0
0 0
0 0
0 0
0 0
0 0
0 0
0 0
0 0
0 0
0 0
0 0
0 0
0 0
0 0
0 0
0 0
0 0
0 0
0 0
0 0
0 0
0 0
0 0
0 0
0 0
0 0
0 0
0 0
0 0
0 0
0 0
0 0
0 0
0 0
0 0
0 0
0 0
0 0
0 0
0 0
0 0
0 0
0 0
0 0
0 0
0 0
0 0
0 0
0 0
0 0
0 0
0 0
0 0
0 0
0 0
0 0
0 0
0 0
0 0
0 0
0 0
0 0
0 0
0 0
0 0
0 0
0 0
0 0
0 0
0 0
0 0
0 0
0 0
0 0
0 0
0 0
0 0
0 0
0 0
0 0
0 0
0 0
0 0
0 0
0 0
0 0
0 0
0 0
0 0
0 0
0 0
0 0
0 0
0 0
0 0
0 0
0 0
0 0
0 0
0 0
0 0
0 0
0 0
0 0
0 0
0 0
0 0
0 0
0 0
0 0
0 0
0 0
0 0
0 0
0 0
0 0
0 0
0 0
0 0
0 0
0 0
0 0
0 0
0 0
0 0
0 0
0 0
0 0
0 0
0 0
0 0
0 0
0 0
0 0
0 0
0 0
0 0
0 0
0 0
0 0
0 0
0 0
0 0
0 0
0 0
0 0
0 0
0 0
0 0
0 0
0 0
0 0
0 0
0 0
0 0
0 0
0 0
0 0
0 0
0 0
0 0
0 0
0 0
0 0
0 0
0 0
0 0
0 0
0 0
0 0
0 0
0 0
0 0
0 0
0 0
0 0
0 0
0 0
0 0
0 0
0 0
0 0
0 0
0 0
0 0
0 0
0 0
0 0
0 0
0 0
0 0
0 0
0 0
0 0
0 0
0 0
0 0
0 0
0 0
0 0
0 0
0 0
0 0
0 0
0 0
0 0
0 0
0 0
0 0
0 0
0 0
0 0
0 0
0 0
0 0
0 0
0 0
0 0
0 0
0 0
0 0
0 0
0 0
0 0
0 0
0 0
0 0
0 0
0 0
0 0
0 0
0 0
0 0
0 0
0 0
0 0
0 0
0 0
0 0
0 0
0 0
0 0
0 0
0 0
0 0
0 0
0 0
0 0
0 0
0 0
0 0
0 0
0 0
0 0
0 0
0 0
0 0
0 0
0 0
0 0
0 0
0 0
0 0
0 0
0 0
0 0
0 0
0 0
0 0
0 0
0 0
0 0
0 0
0 0
0 0
0 0
0 0
0 0
0 0
0 0
0 0
0 0
0 0
0 0
0 0
0 0
0 0
0 0
0 0
0 0
0 0
0 0
0 0
0 0
0 0
0 0
0 0
0 0
0 0
0 0
0 0
0 0
0 0
0 0
0 0
0 0
0 0
0 0
0 0
0 0
0 0
0 0
0 0
0 0
0 0
0 0
0 0
0 0
0 0
0 0
0 0
0 0
0 0
0 0
0 0
0 0
0 0
0 0
0 0
0 0
0 0
0 0
0 0
0 0
0 0
0 0
0 0
0 0
0 0
0 0
0 0
0 0
0 0
0 0
0 0
0 0
0 0
0 0
0 0
0 0
0 0
0 0
0 0
0 0
0 0
0 0
0 0
0 0
0 0
0 0
0 0
0 0
0 0
0 0
0 0
0 0
0 0
0 0
0 0
0 0
0 0
0 0
0 0
0 0
0 0
0 0
0 0
0 0
0 0
0 0
0 0
0 0
0 0
0 0
0 0
0 0
0 0
0 0
0 0
0 0
0 0
0 0
0 0
0 0
0 0
0 0
0 0
0 0
0 0
0 0
0 0
0 0
0 0
0 0
0 0
0 0
0 0
0 0
0 0
0 0
0 0
0 0
0 0
0 0
0 0
0 0
0 0
0 0
0 0
0 0
0 0
0 0
0 0
0 0
0 0
0 0
0 0
0 0
0 0
0 0
0 0
0 0
0 0
0 0
0 0
0 0
0 0
0 0
0 0
0 0
0 0
0 0
0 0
0 0
0 0
0 0
0 0
0 0
0 0
0 0
0 0
0 0
0 0
0 0
0 0
0 0
0 0
0 0
0 0
0 0
0 0
0 0
0 0
0 0
0 0
0 0
0 0
0 0
0 0
0 0
0 0
0 0
0 0
0 0
0 0
0 0
0 0
0 0
0 0
0 0
0 0
0 0
0 0
0 0
0 0
0 0
0 0
0 0
0 0
0 0
0 0
0 0
0 0
0 0
0 0
0 0
0 0
0 0
0 0
0 0
0 0
0 0
0 0
0 0
0 0
0 0
0 0
0 0
0 0
0 0
0 0
0 0
0 0
0 0
0 0
0 0
0 0
0 0
0 0
0 0
0 0
0 0
0 0
0 0
0 0
0 0
0 0
0 0
0 0
0 0
0 0
0 0
0 0
0 0
0 0
0 0
0 0
0 0
0 0
0 0
0 0
0 0
0 0
0 0
0 0
0 0
0 0
0 0
0 0
0 0
0 0
0 0
0 0
0 0
0 0
0 0
0 0
0 0
0 0
0 0
0 0
0 0
0 0
0 0
0 0
0 0
0 0
0 0
0 0
0 0
0 0
0 0
0 0
0 0
0 0
0 0
0 0
0 0
0 0
0 0
0 0
0 0
0 0
0 0
0 0
0 0
0 0
0 0
0 0
0 0
0 0
0 0
0 0
0 0
0 0
0 0
0 0
0 0
0 0
0 0
0 0
0 0
0 0
0 0
0 0
0 0
0 0
0 0
0 0
0 0
0 0
0 0
0 0
0 0
0 0
0 0
0 0
0 0
0 0
0 0
0 0
0 0
0 0
0 0
0 0
0 0
0 0
0 0
0 0
0 0
0 0
0 0
0 0
0 0
0 0
0 0
0 0
0 0
0 0
0 0
0 0
0 0
0 0
0 0
0 0
0 0
0 0
0 0
0 0
0 0
0 0
0 0
0 0
0 0
0 0
0 0
0 0
0 0
0 0
0 0
0 0
0 0
0 0
0 0
0 0
0 0
0 0
0 0
0 0
0 0
0 0
0 0
0 0
0 0
0 0
0 0
0 0
0 0
0 0
0 0
0 0
0 0
0 0
0 0
0 0
0 0
0 0
0 0
0 0
0 0
0 0
0 0
0 0
0 0
0 0
0 0
0 0
0 0
0 0
0 0
0 0
0 0
0 0
0 0
0 0
0 0
0 0
0 0
0 0
0 0
0 0
0 0
0 0
0 0
0 0
0 0
0 0
0 0
0 0
0 0
0 0
0 0
0 0
0 0
0 0
0 0
0 0
0 0
0 0
0 0
0 0
0 0
0 0
0 0
0 0
0 0
0 0
0 0
0 0
0 0
0 0
0 0
0 0
0 0
0 0
0 0
0 0
0 0
0 0
0 0
0 0
0 0
0 0
0 0
0 0
0 0
0 0
0 0
0 0
0 0
0 0
0 0
0 0
0 0
0 0
0 0
0 0
0 0
0 0
0 0
0 0
0 0
0 0
0 0
0 0
0 0
0 0
0 0
0 0
0 0
0 0
0 0
0 0
0 0
0 0
0 0
0 0
0 0
0 0
0 0
0 0
0 0
0 0
0 0
0 0
0 0
0 0
0 0
0 0
0 0
0 0
0 0
0 0
0 0
0 0
0 0
0 0
0 0
0 0
0 0
0 0
0 0
0 0
0 0
0 0
0 0
0 0
0 0
0 0
0 0
0 0
0 0
0 0
0 0
0 0
0 0
0 0
0 0
0 0
0 0
0 0
0 0
0 0
0 0
0 0
0 0
0 0
0 0
0 0
0 0
0 0
0 0
0 0
0 0
0 0
0 0
0 0
0 0
0 0
0 0
0 0
0 0
0 0
0 0
0 0
0 0
0 0
0 0
0 0
0 0
0 0
0 0
0 0
0 0
0 0
0 0
0 0
0 0
0 0
0 0
0 0
0 0
0 0
0 0
0 0
0 0
0 0
0 0
0 0
0 0
0 0
0 0
0 0
0 0
0 0
0 0
0 0
0 0
0 0
0 0
0 0
0 0
0 0
0 0
0 0
0 0
0 0
0 0
0 0
0 0
0 0
0 0
0 0
0 0
0 0
0 0
0 0
0 0
0 0
0 0
0 0
0 0
0 0
0 0
0 0
0 0
0 0
0 0
0 0
0 0
0 0
0 0
0 0
0 0
0 0
0 0
0 0
0 0
0 0
0 0
0 0
0 0
0 0
0 0
0 0
0 0
0 0
0 0
0 0
0 0
0 0
0 0
0 0
0 0
0 0
0 0
0 0
0 0
0 0
0 0
0 0
0 0
0 0
0 0
0 0
0 0
0 0
0 0
0 0
0 0
0 0
0 0
0 0
0 0
0 0
0 0
0 0
0 0
0 0
0 0
0 0
0 0
0 0
0 0
0 0
0 0
0 0
0 0
0 0
0 0
0 0
0 0
0 0
0 0
0 0
0 0
0 0
0 0
0 0
0 0
0 0
0 0
0 0
0 0
0 0
0 0
0 0
0 0
0 0
0 0
0 0
0 0
0 0
0 0
0 0
0 0
0 0
0 0
0 0
0 0
0 0
0 0
0 0
0 0
0 0
0 0
0 0
0 0
0 0
0 0
0 0
0 0
0 0
0 0
0 0
0 0
0 0
0 0
0 0
0 0
0 0
0 0
0 0
0 0
0 0
0 0
0 0
0 0
0 0
0 0
0 0
0 0
0 0
0 0
0 0
0 0
0 0
0 0
0 0
0 0
0 0
0 0
0 0
0 0
0 0
0 0
0 0
0 0
0 0
0 0
0 0
0 0
0 0
0 0
0 0
0 0
0 0
0 0
0 0
0 0
0 0
0 0
0 0
0 0
0 0
0 0
0 0
0 0
0 0
0 0
0 0
0 0
0 0
0 0
0 0
0 0
0 0
0 0
0 0
0 0
0 0
0 0
0 0
0 0
0 0
0 0
0 0
0 0
0 0
0 0
0 0
0 0
0 0
0 0
0 0
0 0
0 0
0 0
0 0
0 0
0 0
0 0
0 0
0 0
0 0
0 0
0 0
0 0
0 0
0 0
0 0
0 0
0 0
0 0
0 0
0 0
0 0
0 0
0 0
0 0
0 0
0 0
0 0
0 0
0 0
0 0
0 0
0 0
0 0
0 0
0 0
0 0
0 0
0 0
0 0
0 0
0 0
0 0
0 0
0 0
0 0
0 0
0 0
0 0
0 0
0 0
0 0
0 0
0 0
0 0
0 0
0 0
0 0
0 0
0 0
0 0
0 0
0 0
0 0
0 0
0 0
0 0
0 0
0 0
0 0
0 0
0 0
0 0
0 0
0 0
0 0
0 0
0 0
0 0
0 0
0 0
0 0
0 0
0 0
0 0
0 0
0 0
0 0
0 0
0 0
0 0
0 0
0 0
0 0
0 0
0 0
0 0
0 0
0 0
0 0
0 0
0 0
0 0
0 0
0 0
0 0
0 0
0 0
0 0
0 0
0 0
0 0
0 0
0 0
0 0
0 0
0 0
0 0
0 0
0 0
0 0
0 0
0 0
0 0
0 0
0 0
0 0
0 0
0 0
0 0
0 0
0 0
0 0
0 0
0 0
0 0
0 0
0 0
0 0
0 0
0 0
0 0
0 0
0 0
0 0
0 0
0 0
0 0
0 0
0 0
0 0
0 0
0 0
0 0
0 0
0 0
0 0
0 0
0 0
0 0
0 0
0 0
0 0
0 0
0 0
0 0
0 0
0 0
0 0
0 0
0 0
0 0
0 0
0 0
0 0
0 0
0 0
0 0
0 0
0 0
0 0
0 0
0 0
0 0
0 0
0 0
0 0
0 0
0 0
0 0
0 0
0 0
0 0
0 0
0 0
0 0
0 0
0 0
0 0
0 0
0 0
0 0
0 0
0 0
0 0
0 0
0 0
0 0
0 0
0 0
0 0
0 0
0 0
0 0
0 0
0 0
0 0
0 0
0 0
0 0
0 0
0 0
0 0
0 0
0 0
0 0
0 0
0 0
0 0
0 0
0 0
0 0
0 0
0 0
0 0
0 0
0 0
0 0
0 0
0 0
0 0
0 0
0 0
0 0
0 0
0 0
0 0
0 0
0 0
0 0
0 0
0 0
0 0
0 0
0 0
0 0
0 0
0 0
0 0
0 0
0 0
0 0
0 0
0 0
0 0
0 0
0 0
0 0
0 0
0 0
0 0
0 0
0 0
0 0
0 0
0 0
0 0
0 0
0 0
0 0
0 0
0 0
0 0
0 0
0 0
0 0
0 0
0 0
0 0
0 0
0 0
0 0
0 0
0 0
0 0
0 0
0 0
0 0
0 0
0 0
0 0
0 0
0 0
0 0
0 0
0 0
0 0
0 0
0 0
0 0
0 0
0 0
0 0
0 0
0 0
0 0
0 0
0 0
0 0
0 0
0 0
0 0
0 0
0 0
0 0
0 0
0 0
0 0
0 0
0 0
0 0
0 0
0 0
0 0
0 0
0 0
0 0
0 0
0 0
0 0
0 0
0 0
0 0
0 0
0 0
0 0
0 0
0 0
0 0
0 0
0 0
0 0
0 0
0 0
0 0
0 0
0 0
0 0
0 0
0 0
0 0
0 0
0 0
0 0
0 0
0 0
0 0
0 0
0 0
0 0
0 0
0 0
0 0
0 0
0 0
0 0
0 0
0 0
0 0
0 0
0 0
0 0
0 0
0 0
0 0
0 0
0 0
0 0
0 0
0 0
0 0
0 0
0 0
0 0
0 0
0 0
0 0
0 0
0 0
0 0
0 0
0 0
0 0
0 0
0 0
0 0
0 0
0 0
0 0
0 0
0 0
0 0
0 0
0 0
0 0
0 0
0 0
0 0
0 0
0 0
0 0
0 0
0 0
0 0
0 0
0 0
0 0
0 0
0 0
0 0
0 0
0 0
0 0
0 0
0 0
0 0
0 0
0 0
0 0
0 0
0 0
0 0
0 0
0 0
0 0
0 0
0 0
0 0
0 0
0 0
0 0
0 0
0 0
0 0
0 0
0 0
0 0
0 0
0 0
0 0
0 0
0 0
0 0
0 0
0 0
0 0
0 0
0 0
0 0
0 0
0 0
0 0
0 0
0 0
0 0
0 0
0 0
0 0
0 0
0 0
0 0
0 0
0 0
0 0
0 0
0 0
0 0
0 0
0 0
0 0
0 0
0 0
0 0
0 0
0 0
0 0
0 0
0 0
0 0
0 0
0 0
0 0
0 0
0 0
0 0
0 0
0 0
0 0
0 0
0 0
0 0
0 0
0 0
0 0
0 0
0 0
0 0
0 0
0 0
0 0
0 0
0 0
0 0
0 0
0 0
0 0
0 0
0 0
0 0
0 0
0 0
0 0
0 0
0 0
0 0
0 0
0 0
0 0
0 0
0 0
0 0
0 0
0 0
0 0
0 0
0 0
0 0
0 0
0 0
0 0
0 0
0 0
0 0
0 0
0 0
0 0
0 0
0 0
0 0
0 0
0 0
0 0
0 0
0 0
0 0
0 0
0 0
0 0
0 0
0 0
0 0
0 0
0 0
0 0
0 0
0 0
0 0
0 0
0 0
0 0
0 0
0 0
0 0
0 0
0 0
0 0
0 0
0 0
0 0
0 0
0 0
0 0
0 0
0 0
0 0
0 0
0 0
0 0
0 0
0 0
0 0
0 0
0 0
0 0
0 0
0 0
0 0
0 0
0 0
0 0
0 0
0 0
0 0
0 0
0 0
0 0
0 0
0 0
0 0
0 0
0 0
0 0
0 0
0 0
0 0
0 0
0 0
0 0
0 0
0 0
0 0
0 0
0 0
0 0
0 0
0 0
0 0
0 0
0 0
0 0
0 0
0 0
0 0
0 0
0 0
0 0
0 0
0 0
0 0
0 0
0 0
0 0
0 0
0 0
0 0
0 0
0 0
0 0
0 0
0 0
0 0
0 0
0 0
0 0
0 0
0 0
0 0
0 0
0 0
0 0
0 0
0 0
0 0
0 0
0 0
0 0
0 0
0 0
0 0
0 0
0 0
0 0
0 0
0 0
0 0
0 0
0 0
0 0
0 0
0 0
0 0
0 0
0 0
0 0
0 0
0 0
0 0
0 0
0 0
0 0
0 0
0 0
0 0
0 0
0 0
0 0
0 0
0 0
0 0
0 0
0 0
0 0
0 0
0 0
0 0
0 0
0 0
0 0
0 0
0 0
0 0
0 0
0 0
0 0
0 0
0 0
0 0
0 0
0 0
0 0
0 0
0 0
0 0
0 0
0 0
0 0
0 0
0 0
0 0
0 0
0 0
0 0
0 0
0 0
0 0
0 0
0 0
0 0
0 0
0 0
0 0
0 0
0 0
0 0
0 0
0 0
0 0
0 0
0 0
0 0
0 0
0 0
0 0
0 0
0 0
0 0
0 0
0 0
0 0
0 0
0 0
0 0
0 0
0 0
0 0
0 0
0 0
0 0
0 0
0 0
0 0
0 0
0 0
0 0
0 0
0 0
0 0
0 0
0 0
0 0
0 0
0 0
0 0
0 0
0 0
0 0
0 0
0 0
0 0
0 0
0 0
0 0
0 0
0 0
0 0
0 0
0 0
0 0
0 0
0 0
0 0
0 0
0 0
0 0
0 0
0 0
0 0
0 0
0 0
0 0
0 0
0 0
0 0
0 0
0 0
0 0
0 0
0 0
0 0
0 0
0 0
0 0
0 0
0 0
0 0
0 0
0 0
0 0
0 0
0 0
0 0
0 0
0 0
0 0
0 0
0 0
0 0
0 0
0 0
0 0
0 0
0 0
0 0
0 0
0 0
0 0
0 0
0 0
0 0
0 0
0 0
0 0
0 0
0 0
0 0
0 0
0 0
0 0
0 0
0 0
0 0
0 0
0 0
0 0
0 0
0 0
0 0
0 0
0 0
0 0
0 0
0 0
0 0
0 0
0 0
0 0
0 0
0 0
0 0
0 0
0 0
0 0
0 0
0 0
0 0
0 0
0 0
0 0
0 0
0 0
0 0
0 0
0 0
0 0
0 0
0 0
0 0
0 0
0 0
0 0
0 0
0 0
0 0
0 0
0 0
0 0
0 0
0 0
0 0
0 0
0 0
0 0
0 0
0 0
0 0
0 0
0 0
0 0
0 0
0 0
0 0
0 0
0 0
0 0
0 0
0 0
0 0
0 0
0 0
0 0
0 0
0 0
0 0
0 0
0 0
0 0
0 0
0 0
0 0
0 0
0 0
0 0
0 0
0 0
0 0
0 0
0 0
0 0
0 0
0 0
0 0
0 0
0 0
0 0
0 0
0 0
0 0
0 0
0 0
0 0
0 0
0 0
0 0
0 0
0 0
0 0
0 0
0 0
0 0
0 0
0 0
0 0
0 0
0 0
0 0
0 0
0 0
0 0
0 0
0 0
0 0
0 0
0 0
0 0
0 0
0 0
0 0
0 0
0 0
0 0
0 0
0 0
0 0
0 0
0 0
0 0
0 0
0 0
0 0
0 0
0 0
0 0
0 0
0 0
0 0
0 0
0 0
0 0
0 0
0 0
0 0
0 0
0 0
0 0
0 0
0 0
0 0
0 0
0 0
0 0
0 0
0 0
0 0
0 0
0 0
0 0
0 0
0 0
0 0
0 0
0 0
0 0
0 0
0 0
0 0
0 0
0 0
0 0
0 0
0 0
0 0
0 0
0 0
0 0
0 0
0 0
0 0
0 0
0 0
0 0
0 0
0 0
0 0
0 0
0 0
0 0
0 0
0 0
0 0
0 0
0 0
0 0
0 0
0 0
0 0
0 0
0 0
0 0
0 0
0 0
0 0
0 0
0 0
0 0
0 0
0 0
0 0
0 0
0 0
0 0
0 0
0 0
0 0
0 0
0 0
0 0
0 0
0 0
0 0
0 0
0 0
0 0
0 0
0 0
0 0
0 0
0 0
0 0
0 0
0 0
0 0
0 0
0 0
0 0
0 0
0 0
0 0
0 0
0 0
0 0
0 0
0 0
0 0
0 0
0 0
0 0
0 0
0 0
0 0
0 0
0 0
0 0
0 0
0 0
0 0
0 0
0 0
0 0
0 0
0 0
0 0
0 0
0 0
0 0
0 0
0 0
0 0
0 0
0 0
0 0
0 0
0 0
0 0
0 0
0 0
0 0
0 0
0 0
0 0
0 0
0 0
0 0
0 0
0 0
0 0
0 0
0 0
0 0
0 0
0 0
0 0
0 0
0 0
0 0
0 0
0 0
0 0
0 0
0 0
0 0
0 0
0 0
0 0
0 0
0 0
0 0
0 0
0 0
0 0
0 0
0 0
0 0
0 0
0 0
0 0
0 0
0 0
0 0
0 0
0 0
0 0
0 0
0 0
0 0
0 0
0 0
0 0
0 0
0 0
0 0
0 0
0 0
0 0
0 0
0 0
0 0
0 0
0 0
0 0
0 0
0 0
0 0
0 0
0 0
0 0
0 0
0 0
0 0
0 0
0 0
0 0
0 0
0 0
0 0
0 0
0 0
0 0
0 0
0 0
0 0
0 0
0 0
0 0
0 0
0 0
0 0
0 0
0 0
0 0
0 0
0 0
0 0
0 0
0 0
0 0
0 0
0 0
0 0
0 0
0 0
0 0
0 0
0 0
0 0
0 0
0 0
0 0
0 0
0 0
0 0
0 0
0 0
0 0
0 0
0 0
0 0
0 0
0 0
0 0
0 0
0 0
0 0
0 0
0 0
0 0
0 0
0 0
0 0
0 0
0 0
0 0
0 0
0 0
0 0
0 0
0 0
0 0
0 0
0 0
0 0
0 0
0 0
0 0
0 0
0 0
0 0
0 0
0 0
0 0
0 0
0 0
0 0
0 0
0 0
0 0
0 0
0 0
0 0
0 0
0 0
0 0
0 0
0 0
0 0
0 0
0 0
0 0
0 0
0 0
0 0
0 0
0 0
0 0
0 0
0 0
0 0
0 0
0 0
0 0
0 0
0 0
0 0
0 0
0 0
0 0
0 0
0 0
0 0
0 0
0 0
0 0
0 0
0 0
0 0
0 0
0 0
0 0
0 0
0 0
0 0
0 0
0 0
0 0
0 0
0 0
0 0
0 0
0 0
0 0
0 0
0 0
0 0
0 0
0 0
0 0
0 0
0 0
0 0
0 0
0 0
0 0
0 0
0 0
0 0
0 0
0 0
0 0
0 0
0 0
0 0
0 0
0 0
0 0
0 0
0 0
0 0
0 0
0 0
0 0
0 0
0 0
0 0
0 0
0 0
0 0
0 0
0 0
0 0
0 0
0 0
0 0
0 0
0 0
0 0
0 0
0 0
0 0
0 0
0 0
0 0
0 0
0 0
0 0
0 0
0 0
0 0
0 0
0 0
0 0
0 0
0 0
0 0
0 0
0 0
0 0
0 0
0 0
0 0
0 0
0 0
0 0
0 0
0 0
0 0
0 0
0 0
0 0
0 0
0 0
0 0
0 0
0 0
0 0
0 0
0 0
0 0
0 0
0 0
0 0
0 0
0 0
0 0
0 0
0 0
0 0
0 0
0 0
0 0
0 0
0 0
0 0
0 0
0 0
0 0
0 0
0 0
0 0
0 0
0 0
0 0
0 0
0 0
0 0
0 0
0 0
0 0
0 0
0 0
0 0
0 0
0 0
0 0
0 0
0 0
0 0
0 0
0 0
0 0
0 0
0 0
0 0
0 0
0 0
0 0
0 0
0 0
0 0
0 0
0 0
0 0
0 0
0 0
0 0
0 0
0 0
0 0
0 0
0 0
0 0
0 0
0 0
0 0
0 0
0 0
0 0
0 0
0 0
0 0
0 0
0 0
0 0
0 0
0 0
0 0
0 0
0 0
0 0
0 0
0 0
0 0
0 0
0 0
0 0
0 0
0 0
0 0
0 0
0 0
0 0
0 0
0 0
0 0
0 0
0 0
0 0
0 0
0 0
0 0
0 0
0 0
0 0
0 0
0 0
0 0
0 0
0 0
0 0
0 0
0 0
0 0
0 0
0 0
0 0
0 0
0 0
0 0
0 0
0 0
0 0
0 0
0 0
0 0
0 0
0 0
0 0
0 0
0 0
0 0
0 0
0 0
0 0
0 0
0 0
0 0
0 0
0 0
0 0
0 0
0 0
0 0
0 0
0 0
0 0
0 0
0 0
0 0
0 0
0 0
0 0
0 0
0 0
0 0
0 0
0 0
0 0
0 0
0 0
0 0
0 0
0 0
0 0
0 0
0 0
0 0
0 0
0 0
0 0
0 0
0 0
0 0
0 0
0 0
0 0
0 0
0 0
0 0
0 0
0 0
0 0
0 0
0 0
0 0
0 0
0 0
0 0
0 0
0 0
0 0
0 0
0 0
0 0
0 0
0 0
0 0
0 0
0 0
0 0
0 0
0 0
0 0
0 0
0 0
0 0
0 0
0 0
0 0
0 0
0 0
0 0
0 0
0 0
0 0
0 0
0 0
0 0
0 0
0 0
0 0
0 0
0 0
0 0
0 0
0 0
0 0
0 0
0 0
0 0
0 0
0 0
0 0
0 0
0 0
0 0
0 0
0 0
0 0
0 0
0 0
0 0
0 0
0 0
0 0
0 0
0 0
0 0
0 0
0 0
0 0
0 0
0 0
0 0
0 0
0 0
0 0
0 0
0 0
0 0
0 0
0 0
0 0
0 0
0 0
0 0
0 0
0 0
0 0
0 0
0 0
0 0
0 0
0 0
0 0
0 0
0 0
0 0
0 0
0 0
0 0
0 0
0 0
0 0
0 0
0 0
0 0
0 0
0 0
0 0
0 0
0 0
0 0
0 0
0 0
0 0
0 0
0 0
0 0
0 0
0 0
0 0
0 0
0 0
0 0
0 0
0 0
0 0
0 0
0 0
0 0
0 0
0 0
0 0
0 0
0 0
0 0
0 0
0 0
0 0
0 0
0 0
0 0
0 0
0 0
0 0
0 0
0 0
0 0
0 0
0 0
0 0
0 0
0 0
0 0
0 0
0 0
0 0
0 0
0 0
0 0
0 0
0 0
0 0
0 0
0 0
0 0
0 0
0 0
0 0
0 0
0 0
0 0
0 0
0 0
0 0
0 0
0 0
0 0
0 0
0 0
0 0
0 0
0 0
0 0
0 0
0 0
0 0
0 0
0 0
0 0
0 0
0 0
0 0
0 0
0 0
0 0
0 0
0 0
0 0
0 0
0 0
0 0
0 0
0 0
0 0
0 0
0 0
0 0
0 0
0 0
0 0
0 0
0 0
0 0
0 0
0 0
0 0
0 0
0 0
0 0
0 0
0 0
0 0
0 0
0 0
0 0
0 0
0 0
0 0
0 0
0 0
0 0
0 0
0 0
0 0
0 0
0 0
0 0
0 0
0 0
0 0
0 0
0 0
0 0
0 0
0 0
0 0
0 0
0 0
0 0
0 0
0 0
0 0
0 0
0 0
0 0
0 0
0 0
0 0
0 0
0 0
0 0
0 0
0 0
0 0
0 0
0 0
0 0
0 0
0 0
0 0
0 0
0 0
0 0
0 0
0 0
0 0
0 0
0 0
0 0
0 0
0 0
0 0
0 0
0 0
0 0
0 0
0 0
0 0
0 0
0 0
0 0
0 0
0 0
0 0
0 0
0 0
0 0
0 0
0 0
0 0
0 0
0 0
0 0
0 0
0 0
0 0
0 0
0 0
0 0
0 0
0 0
0 0
0 0
0 0
0 0
0 0
0 0
0 0
0 0
0 0
0 0
0 0
0 0
0 0
0 0
0 0
0 0
0 0
0 0
0 0
0 0
0 0
0 0
0 0
0 0
0 0
0 0
0 0
0 0
0 0
0 0
0 0
0 0
0 0
0 0
0 0
0 0
0 0
0 0
0 0
0 0
0 0
0 0
0 0
0 0
0 0
0 0
0 0
0 0
0 0
0 0
0 0
0 0
0 0
0 0
0 0
0 0
0 0
0 0
0 0
0 0
0 0
0 0
0 0
0 0
0 0
0 0
0 0
0 0
0 0
0 0
0 0
0 0
0 0
0 0
0 0
0 0
0 0
0 0
0 0
0 0
0 0
0 0
0 0
0 0
0 0
0 0
0 0
0 0
0 0
0 0
0 0
0 0
0 0
0 0
0 0
0 0
0 0
0 0
0 0
0 0
0 0
0 0
0 0
0 0
0 0
0 0
0 0
0 0
0 0
0 0
0 0
0 0
0 0
0 0
0 0
0 0
0 0
0 0
0 0
0 0
0 0
0 0
0 0
0 0
0 0
0 0
0 0
0 0
0 0
0 0
0 0
0 0
0 0
0 0
0 0
0 0
0 0
0 0
0 0
0 0
0 0
0 0
0 0
0 0
0 0
0 0
0 0
0 0
0 0
0 0
0 0
0 0
0 0
0 0
0 0
0 0
0 0
0 0
0 0
0 0
0 0
0 0
0 0
0 0
0 0
0 0
0 0
0 0
0 0
0 0
0 0
0 0
0 0
0 0
0 0
0 0
0 0
0 0
0 0
0 0
0 0
0 0
0 0
0 0
0 0
0 0
0 0
0 0
0 0
0 0
0 0
0 0
0 0
0 0
0 0
0 0
0 0
0 0
0 0
0 0
0 0
0 0
0 0
0 0
0 0
0 0
0 0
0 0
0 0
0 0
0 0
0 0
0 0
0 0
0 0
0 0
0 0
0 0
0 0
0 0
0 0
0 0
0 0
0 0
0 0
0 0
0 0
0 0
0 0
0 0
0 0
0 0
0 0
0 0
0 0
0 0
0 0
0 0
0 0
0 0
0 0
0 0
0 0
0 0
0 0
0 0
0 0
0 0
0 0
0 0
0 0
0 0
0 0
0 0
0 0
0 0
0 0
0 0
0 0
0 0
0 0
0 0
0 0
0 0
0 0
0 0
0 0
0 0
0 0
0 0
0 0
0 0
0 0
0 0
0 0
0 0
0 0
0 0
0 0
0 0
0 0
0 0
0 0
0 0
0 0
0 0
0 0
0 0
0 0
0 0
0 0
0 0
0 0
0 0
0 0
0 0
0 0
0 0
0 0
0 0
0 0
0 0
0 0
0 0
0 0
0 0
0 0
0 0
0 0
0 0
0 0
0 0
0 0
0 0
0 0
0 0
0 0
0 0
0 0
0 0
0 0
0 0
0 0
0 0
0 0
0 0
0 0
0 0
0 0
0 0
0 0
0 0
0 0
0 0
0 0
0 0
0 0
0 0
0 0
0 0
0 0
0 0
0 0
0 0
0 0
0 0
0 0
0 0
0 0
0 0
0 0
0 0
0 0
0 0
0 0
0 0
0 0
0 0
0 0
0 0
0 0
0 0
0 0
0 0
0 0
0 0
0 0
0 0
0 0
0 0
0 0
0 0
0 0
0 0
0 0
0 0
0 0
0 0
0 0
0 0
0 0
0 0
0 0
0 0
0 0
0 0
0 0
0 0
0 0
0 0
0 0
0 0
0 0
0 0
0 0
0 0
0 0
0 0
0 0
0 0
0 0
0 0
0 0
0 0
0 0
0 0
0 0
0 0
0 0
0 0
0 0
0 0
0 0
0 0
0 0
0 0
0 0
0 0
0 0
0 0
0 0
0 0
0 0
0 0
0 0
0 0
0 0
0 0
0 0
0 0
0 0
0 0
0 0
0 0
0 0
0 0
0 0
0 0
0 0
0 0
0 0
0 0
0 0
0 0
0 0
0 0
0 0
0 0
0 0
0 0
0 0
0 0
0 0
0 0
0 0
0 0
0 0
0 0
0 0
0 0
0 0
0 0
0 0
0 0
0 0
0 0
0 0
0 0
0 0
0 0
0 0
0 0
0 0
0 0
0 0
0 0
0 0
0 0
0 0
0 0
0 0
0 0
0 0
0 0
0 0
0 0
0 0
0 0
0 0
0 0
0 0
0 0
0 0
0 0
0 0
0 0
0 0
0 0
0 0
0 0
0 0
0 0
0 0
0 0
0 0
0 0
0 0
0 0
0 0
0 0
0 0
0 0
0 0
0 0
0 0
0 0
0 0
0 0
0 0
0 0
0 0
0 0
0 0
0 0
0 0
0 0
0 0
0 0
0 0
0 0
0 0
0 0
0 0
0 0
0 0
0 0
0 0
0 0
0 0
0 0
0 0
0 0
0 0
0 0
0 0
0 0
0 0
0 0
0 0
0 0
0 0
0 0
0 0
0 0
0 0
0 0
0 0
0 0
0 0
0 0
0 0
0 0
0 0
0 0
0 0
0 0
0 0
0 0
0 0
0 0
0 0
0 0
0 0
0 0
0 0
0 0
0 0
0 0
0 0
0 0
0 0
0 0
0 0
0 0
0 0
0 0
0 0
0 0
0 0
0 0
0 0
0 0
0 0
0 0
0 0
0 0
0 0
0 0
0 0
0 0
0 0
0 0
0 0
0 0
0 0
0 0
0 0
0 0
0 0
0 0
0 0
0 0
0 0
0 0
0 0
0 0
0 0
0 0
0 0
0 0
0 0
0 0
0 0
0 0
0 0
0 0
0 0
0 0
0 0
0 0
0 0
0 0
0 0
0 0
0 0
0 0
0 0
0 0
0 0
0 0
0 0
0 0
0 0
0 0
0 0
0 0
0 0
0 0
0 0
0 0
0 0
0 0
0 0
0 0
0 0
0 0
0 0
0 0
0 0
0 0
0 0
0 0
0 0
0 0
0 0
0 0
0 0
0 0
0 0
0 0
0 0
0 0
0 0
0 0
0 0
0 0
0 0
0 0
0 0
0 0
0 0
0 0
0 0
0 0
0 0
0 0
0 0
0 0
0 0
0 0
0 0
0 0
0 0
0 0
0 0
0 0
0 0
0 0
0 0
0 0
0 0
0 0
0 0
0 0
0 0
0 0
0 0
0 0
0 0
0 0
0 0
0 0
0 0
0 0
0 0
0 0
0 0
0 0
0 0
0 0
0 0
0 0
0 0
0 0
0 0
0 0
0 0
0 0
0 0
0 0
0 0
0 0
0 0
0 0
0 0
0 0
0 0
0 0
0 0
0 0
0 0
0 0
0 0
0 0
0 0
0 0
0 0
0 0
0 0
0 0
0 0
0 0
0 0
0 0
0 0
0 0
0 0
0 0
0 0
0 0
0 0
0 0
0 0
0 0
0 0
0 0
0 0
0 0
0 0
0 0
0 0
0 0
0 0
0 0
0 0
0 0
0 0
0 0
0 0
0 0
0 0
0 0
0 0
0 0
0 0
0 0
0 0
0 0
0 0
0 0
0 0
0 0
0 0
0 0
0 0
0 0
0 0
0 0
0 0
0 0
0 0
0 0
0 0
0 0
0 0
0 0
0 0
0 0
0 0
0 0
0 0
0 0
0 0
0 0
0 0
0 0
0 0
0 0
0 0
0 0
0 0
0 0
0 0
0 0
0 0
0 0
0 0
0 0
0 0
0 0
0 0
0 0
0 0
0 0
0 0
0 0
0 0
0 0
0 0
0 0
0 0
0 0
0 0
0 0
0 0
0 0
0 0
0 0
0 0
0 0
0 0
0 0
0 0
0 0
0 0
0 0
0 0
0 0
0 0
0 0
0 0
0 0
0 0
0 0
0 0
0 0
0 0
0 0
0 0
0 0
0 0
0 0
0 0
0 0
0 0
0 0
0 0
0 0
0 0
0 0
0 0
0 0
0 0
0 0
0 0
0 0
0 0
0 0
0 0
0 0
0 0
0 0
0 0
0 0
0 0
0 0
0 0
0 0
0 0
0 0
0 0
0 0
0 0
0 0
0 0
0 0
0 0
0 0
0 0
0 0
0 0
0 0
0 0
0 0
0 0
0 0
0 0
0 0
0 0
0 0
0 0
0 0
0 0
0 0
0 0
0 0
0 0
0 0
0 0
0 0
0 0
0 0
0 0
0 0
0 0
0 0
0 0
0 0
0 0
0 0
0 0
0 0
0 0
0 0
0 0
0 0
0 0
0 0
0 0
0 0
0 0
0 0
0 0
0 0
0 0
0 0
0 0
0 0
0 0
0 0
0 0
0 0
0 0
0 0
0 0
0 0
0 0
0 0
0 0
0 0
0 0
0 0
0 0
0 0
0 0
0 0
0 0
0 0
0 0
0 0
0 0
0 0
0 0
0 0
0 0
0 0
0 0
0 0
0 0
0 0
0 0
0 0
0 0
0 0
0 0
0 0
0 0
0 0
0 0
0 0
0 0
0 0
0 0
0 0
0 0
0 0
0 0
0 0
0 0
0 0
0 0
0 0
0 0
0 0
0 0
0 0
0 0
0 0
0 0
0 0
0 0
0 0
0 0
0 0
0 0
0 0
0 0
0 0
0 0
0 0
0 0
0 0
0 0
0 0
0 0
0 0
0 0
0 0
0 0
0 0
0 0
0 0
0 0
0 0
0 0
0 0
0 0
0 0
0 0
0 0
0 0
0 0
0 0
0 0
0 0
0 0
0 0
0 0
0 0
0 0
0 0
0 0
0 0
0 0
0 0
0 0
0 0
0 0
0 0
0 0
0 0
0 0
0 0
0 0
0 0
0 0
0 0
0 0
0 0
0 0
0 0
0 0
0 0
0 0
0 0
0 0
0 0
0 0
0 0
0 0
0 0
0 0
0 0
0 0
0 0
0 0
0 0
0 0
0 0
0 0
0 0
0 0
0 0
0 0
0 0
0 0
0 0
0 0
0 0
0 0
0 0
0 0
0 0
0 0
0 0
0 0
0 0
0 0
0 0
0 0
0 0
0 0
0 0
0 0
0 0
0 0
0 0
0 0
0 0
0 0
0 0
0 0
0 0
0 0
0 0
      </DataArray> 
      <DataArray type="Float64" NumberOfComponents="1" Name="CauchyShearStress" format="ascii">
-171.067
-67.5877
-1313.53
422.474
-322.356
-2270.52
121.904
-285.134
-321.937
67.4997
78.4565
-311.282
-254.114
110.515
27.6067
-260.088
-217.833
88.3722
-43.9978
-149.786
-120.655
40.1258
-134.067
-115.355
-138.886
-146.333
-138.013
-128.166
-112.752
-120.955
-90.6463
-3.61052
46.7886
22.45
20.7746
20.4644
21.4217
23.7686
26.5365
29.8181
33.2515
36.7869
40.3219
43.8283
47.3374
51.1347
54.8398
58.7598
62.4737
66.2253
69.8451
73.3511
76.9384
80.138
83.7886
84.8277
85.8757
81.4753
77.1507
83.7453
93.2156
112.266
127.711
138.961
145.729
146.221
146.199
144.501
143.336
143.31
143.754
144.919
146.515
148.72
151.068
153.598
156.082
158.653
161.116
163.752
166.337
169.162
172.281
175.327
178.528
177.207
174.861
172.533
169.603
176.73
184.221
200.627
212.388
219.267
222.616
220.468
217.446
213.599
210.772
209.294
208.486
208.285
208.471
209.061
209.762
210.557
211.324
212.13
212.787
213.621
214.215
215.473
216.797
217.056
217.925
212.58
208.557
201.842
196.333
210.8
204.446
218.098
230.825
232.771
232.652
226.992
221.658
215.999
211.156
207.607
204.379
202.03
199.716
197.649
195.511
193.294
190.913
188.601
186.115
184.736
183.805
183.407
184.095
181.976
182.167
175.615
161.951
148.316
132.956
140.714
150.112
156.911
160.044
153.857
146.82
137.792
129.397
122.218
115.138
109.241
103.165
97.5711
91.7364
85.9893
80.1239
74.7575
69.4174
64.5994
60.0434
56.2334
53.6351
53.4363
63.3561
64.9992
227.66
-358.558
-867.868
-410.492
-240.673
-85.4198
24.979
125.333
203.48
268.295
286.946
-271.092
-334.77
-345.247
-346.447
-320.98
-290.853
-283.844
-277.709
-264.382
-82.642
42.2339
2.30261
-1.95185
-11.2696
-18.1657
-25.4781
-32.8336
-39.7278
-46.87
-54.1355
-61.5088
-69.077
-76.3822
-83.1178
-89.3885
-95.0248
-99.959
-104.009
-106.875
-108.602
-108.72
-108.944
-109.148
-115.915
-128.014
-151.89
-183.669
-209.93
-234.487
-238.514
-239.152
-236.84
-232.309
-234.378
-235.146
-239.524
-244.052
-249.094
-254.936
-260.486
-266.31
-271.529
-276.875
-281.86
-286.661
-290.877
-294.612
-297.243
-299.115
-299.879
-299.392
-299.226
-295.264
-307.825
-322.897
-350.463
-379.943
-389.863
-409.637
-405.993
-398.544
-390.069
-380.9
-381.004
-380.831
-383.101
-385.312
-387.352
-389.977
-392.334
-394.734
-396.598
-398.428
-399.899
-401.133
-401.882
-402.264
-401.564
-400.115
-395.813
-389.986
-383.887
-378.501
-387.741
-402.558
-424.554
-451.557
-458.928
-461.991
-447.276
-429.596
-418.444
-406.521
-402.542
-398.97
-397.146
-395.894
-393.852
-392.259
-389.192
-386.486
-383.131
-379.822
-376.262
-372.561
-368.13
-363.291
-355.767
-346.456
-332.199
-315.075
-311.108
-297.797
-306.647
-326.438
-350.923
-376.841
-360.254
-334.189
-304.523
-276.425
-263.318
-250.806
-243.928
-236.614
-228.659
-221.127
-211.811
-202.924
-192.874
-183.007
-172.546
-161.818
-149.697
-136.997
-122.85
-107.814
-91.3764
-72.827
-51.6176
-15.4944
3.03085
263.543
-703.418
-1485.17
-718.751
-439.612
-180.858
4.08534
174.923
316.464
439.295
503.223
175.894
192.047
182.829
-55.7542
-373.691
-973.612
-1509.31
-1990.03
-2123.11
-1873.24
-1201
446.88
920.603
840.313
488.07
-312.284
-829.808
-1453.65
-1404.26
-1373.74
-1081.69
-710.537
-339.332
-504.854
-643.959
-670.939
-698.88
-373.08
-91.7374
347.018
569.348
662.125
443.784
-454.996
-858.125
-1042.56
-1012.84
-797.252
-542.065
-230.666
-58.3598
85.8613
95.0868
91.0858
83.6702
65.8416
21.2027
-210.513
-512.887
-979.918
-1394.31
-1729.94
-1810.62
-1584.68
-1059.04
241.064
566.164
360.337
16.1371
-644.952
-1000.26
-1413.9
-1272.23
-1154.15
-837.966
-540.659
-271.101
-412.682
-551.322
-595.33
-643.505
-398.637
-184.762
176.51
380.428
492.45
372.88
-278.842
-625.611
-819.715
-862.3
-734.152
-549.02
-300.396
-136.317
5.83003
35.7537
45.0872
5.86535
-62.1502
-182.07
-387.959
-648.719
-976.672
-1256.2
-1423.26
-1412.2
-1178.78
-781.171
50.7869
207.433
-22.7788
-308.532
-814.509
-955.342
-1183.17
-1050.32
-922.494
-710.681
-487.094
-215.691
-331.675
-458.609
-514.39
-576.691
-416.788
-277.141
6.79777
177.717
306.622
240.771
-206.949
-460.289
-643.846
-698.49
-660.662
-544.566
-385.068
-246.658
-108.44
-43.0957
-1.28773
-123.694
-225.307
-397.169
-585.357
-826.198
-917.362
-1006.3
-968.31
-909.032
-657.433
-412.461
-64.6905
-97.9787
-350.008
-589.233
-931.41
-1042.99
-1153.94
-957.136
-771.889
-504.132
-293.681
-150.623
-247.147
-363.831
-448.574
-531.184
-456.776
-375.23
-178.865
-37.2281
95.9318
103.863
-120.153
-281.993
-443.643
-520.799
-577.531
-524.146
-465.606
-347.351
-251.619
-148.374
-79.8788
-282.273
-359.585
-366.139
-369.209
-361.424
-353.552
-345.955
-338.859
-334.09
-329.931
-327.935
-326.55
-326.959
-327.968
-330.906
-334.646
-341.29
-349.085
-361.567
-375.995
-396.327
-418.289
-437.431
-446.396
-419.048
-398.731
-237.848
181.41
-41.1374
-161.245
-266.073
-307.894
-340.856
-346.763
-349.945
-346.244
-342.564
-339.387
-337.106
-338.011
-340.141
-347.812
-357.24
-376.348
-398.362
-437.406
-481.933
-557.089
-640.548
-774.152
-901.427
-967.042
-1147.96
-875.295
131.401
88.5724
-41.2434
-147.846
-214.22
-267.689
-292.071
-309.605
-317.127
-323.707
-329.232
-337.065
-344.252
-354.775
-371.424
-392.402
-427.365
-469.027
-537.107
-616.543
-727.585
-829.933
-875.658
-993.217
-734.463
12.8331
-69.8357
-172.808
-251.018
-292.065
-322.067
-329.855
-334.944
-334.733
-334.705
-335.899
-338.067
-343.888
-351.437
-365.526
-382.519
-411.06
-444.797
-501.22
-565.335
-651.442
-770.17
-761.895
-795.879
-587.757
-112.428
-229.443
-298.847
-350.828
-364.189
-373.043
-361.679
-359.799
-351.419
-343.617
-339.26
-337.188
-340.478
-348.95
-359.497
-372.92
-395.229
-422.114
-465.594
-513.792
-575.134
-633.995
-640.207
-678.041
-474.732
-239.216
-128.653
-59.4464
-155.491
-245.004
-232.391
-236.441
-103.367
27.7045
-217.981
-561.322
-469.527
-412.713
-369.459
-213.063
-157.487
-262.761
-305.813
-358.959
-19.1825
-158.231
-182.588
-17.9021
31.1258
6.9109
-99.6197
7.18232
6.74847
-220.78
-230.368
-272.413
-20.0101
66.5181
85.8217
55.0477
-9.88086
-151.431
22.1748
-71.4408
-123.03
-113.979
-25.1045
-191.264
-105.855
-174.806
-32.9231
-167.37
-223.768
-235.192
-166.792
-126.441
-92.7865
-190.732
-72.915
-50.2812
-29.5942
-82.4037
46.6769
44.0458
48.6912
-41.3184
12.5061
162.143
174.355
-192.043
-156.798
-230.545
-203.261
-44.3368
1.50118
-110.603
-72.9435
-453.091
-502.759
-72.6999
-931.111
-153.832
-156.214
-137.791
-177.932
-137.604
-129.286
-131.016
-172.843
37.122
-21.357
-18.1488
2.35676
-147.228
-136.594
-150.533
-151.433
-176.07
-168.475
-22.2519
35.4641
82.8761
-28.0631
50.6746
-25.0032
32.9575
-182.233
-185.343
-187.791
-192.932
-201.846
-213.244
-186.008
-207.213
-209.54
-204.341
-206.509
-204.954
-185.884
-206.443
-209.57
-208.94
-202.136
-188.172
-163.291
-157.754
-157.207
-156.7
-197.728
-193.234
-189.226
-186.716
-182.808
-153.202
-133.379
-128.185
-154.996
-149.658
-150.083
-132.699
-157.026
-53.4356
-116.385
-114.29
-98.4408
-94.7453
-90.7029
-89.69
-89.2693
-100.907
-97.4771
-98.9734
-96.9974
-96.7733
-95.1097
-93.7912
-37.8086
-99.6868
-101.265
-94.1658
-94.2701
-82.6132
-86.0813
-98.1922
-104.628
-49.9759
-65.7001
-74.1813
-85.2732
-88.6091
-148.95
-152.403
-144.616
-147.76
-138.863
-143.057
-136.042
-161.709
-158.953
-99.0319
-96.2444
-95.9048
-65.0357
-45.7728
-123.738
-62.1465
-117.468
-122.835
-118.935
-116.975
-111.815
-123.983
-112.017
-76.5049
-1.27521
-31.3646
-61.5207
-56.8478
-51.685
-62.1264
-37.3081
-41.5002
-40.7399
-13.0914
3.44918
-16.0394
87.6873
40.132
-35.4278
-39.2465
-43.5066
-54.7727
52.4022
6.04918
-28.6016
-50.7948
-61.7817
-89.281
-192.825
-182.233
-174.044
-166.578
-140.191
-151.66
-164.909
-186.384
-162.453
-131.846
-120.486
-123.343
-133.29
-128.16
-110.978
-93.9045
-71.5281
-109.992
-107.729
-20.8824
-24.1744
-105.784
-62.2044
-96.416
-104.685
-54.8536
-84.0707
-129.554
-85.3976
-41.57
-139.829
-119.453
-53.9474
-113.156
-108.834
-204.877
-161.851
-191.54
-143.342
-121.052
-85.3589
-85.9792
-82.6199
-84.0007
-83.8795
-83.9445
-82.3906
-81.53
-77.7713
-81.2911
-98.827
-100.7
-99.6024
-92.5653
-89.2101
-79.4756
-57.2566
-43.8895
-29.7892
-21.4813
40.0347
39.7436
38.6571
31.3246
2.2572
-7.85096
-8.09959
-9.62336
-5.59929
-4.85835
-3.62923
-3.45659
-15.6091
-11.7009
1.93612
11.3627
24.4892
29.6631
91.3783
84.0182
86.1157
85.1482
75.0628
40.7253
29.1047
24.0805
20.9747
20.0586
20.2959
21.9697
27.4329
53.4595
58.4458
50.267
53.3747
45.6057
53.5524
78.2291
108.473
115.326
116.224
72.9281
56.9131
42.1797
32.235
27.5687
21.4057
20.5948
15.9909
12.1858
7.03113
-1.19618
-7.53379
-17.3759
-28.9582
-23.38
-2.65883
81.0547
67.9995
61.525
39.169
23.138
8.22564
-5.11342
-13.9702
-23.0033
-25.8082
-38.4739
-64.4131
-73.7447
-79.5784
-79.6345
-84.8588
-83.1803
-74.9894
-80.589
-103.912
-165.213
-180.941
-127.875
-213.6
-214.487
-203.52
-208.924
-193.857
-198.524
-186.973
-190.319
-180.286
-183.28
-169.077
-167.75
-168.822
-170.702
-173.847
-167.643
-199.084
-190.634
-197.924
-158.564
-192.181
-193.462
-197.914
-176.392
-170.044
-162.861
-158.633
-153.045
-152.805
-161.324
-164.231
-165.361
-170.573
-171.359
-181.704
-181.893
-201.871
-126.592
-118.561
-185.285
-227.606
-100.161
-118.323
-151.598
-132.581
-119.296
-188.156
-219.628
-128.035
-156.514
-224.984
-154.047
-172.532
-109.692
38.4431
117.706
75.672
-63.0065
77.4599
72.5317
-34.6294
-37.7019
-102.242
6.36254
38.282
-93.1482
-144.918
-79.6777
-56.6933
-14.6243
-195.595
-140.041
-173.091
-188.331
-23.8538
-1.33464
37.4557
-46.4488
-26.2766
-56.4443
-102.54
-153.36
-205.443
-173.791
-156.683
-163.314
-161.108
-191.719
-190.54
-174.305
-257.089
-192.853
-138.44
-81.2238
-39.9552
-47.1904
-49.6742
-48.6685
-51.2398
-58.0218
-53.5423
-35.8379
-11.2287
12.8574
17.0943
-31.9609
49.2233
81.0501
72.8101
54.4606
42.3842
41.7264
42.5004
46.7554
62.447
81.3531
76.4405
59.7501
51.2709
119.626
133.371
123.07
100.666
85.0953
82.0186
88.3566
99.2213
107.575
122.326
129.112
109.08
151.473
134.092
105.027
86.8972
75.9037
65.889
53.5246
35.6174
48.7486
84.7583
78.7556
103.182
75.8264
44.1646
21.3092
-0.750149
-23.9751
-33.2456
-28.0062
-21.9313
-58.5088
-243.034
-112.704
-82.4824
-208.039
-234.729
-225.614
-214.626
-206.491
-200.839
-197.79
-197.363
-205.848
-221.843
-244.567
-171.526
-210.045
-206.644
-195.29
-189.896
-192.193
-201.611
-221.287
-262.147
-348.82
-169.276
-160.109
-181.618
-250.335
-214.748
-278.7
-184.906
-164.224
-188.848
-238.414
-209.879
-271.445
-240.218
-220.174
-272.847
-72.5883
-6.34477
49.2238
1.75392
-77.3986
-4.45307
78.889
60.4699
-111.384
-35.043
-73.1569
-95.0971
-8.61283
-52.1899
-10.1074
1.55221
-25.8119
7.15454
-39.8676
-121.068
51.9065
-15.6873
-134.067
-135.76
69.6038
9.79678
-75.6543
-110.662
78.0246
35.4026
-74.4973
-227.247
-36.6554
-145.808
-5.86059
-178.911
-50.7957
33.3985
-201.935
-118.579
-110.935
69.3539
73.1085
-89.1417
-69.6494
-99.1543
-205.335
-264.954
-186.102
-201.807
-190.616
-201.404
-194.398
-164.051
-271.869
-151.201
-142.109
-127.583
-116.624
-6.68162
-8.01887
-11.9191
-11.7821
-13.4591
-11.4773
-11.1533
-8.18657
-6.89584
-3.46904
-7.34843
-3.64964
-7.03889
-3.09801
4.3699
8.44311
18.6371
23.0419
35.6143
40.2769
48.2176
51.645
45.9228
43.8917
5.60096
-5.4811
0.530792
22.482
66.0346
82.47
107.577
110.398
113.644
111.197
105
103.962
94.8204
95.3163
94.3198
96.1146
97.173
99.5827
99.3488
102.128
106.231
109.473
119.322
123.161
129.103
131.989
118.231
111.726
89.9177
81.1718
89.4496
111.15
150.395
162.368
174.445
173.002
175.695
171.489
162.817
160.392
149.503
148.681
145.707
145.963
146.375
146.975
153.249
154.08
158.324
159.618
162.582
164.606
173.692
174.303
168.402
159.434
125.887
113.586
55.2447
126.343
147.477
185.648
189.469
190.236
184.237
170.616
164.044
153.38
149.008
143.162
140.24
135.977
133.668
128.197
126.035
118.87
116.996
106.157
105.929
127.303
128.907
137.075
132.891
117.367
100.926
-6.92998
10.7758
86.2766
99.5386
131.03
126.205
120.319
110.501
94.8202
86.3611
73.6638
66.8801
58.221
52.3745
39.1005
33.8129
22.8691
18.2844
18.3914
14.3957
18.5073
15.5577
14.9737
13.2604
-21.873
-40.8757
-138.889
-40.7528
45.4179
111.028
-241.273
-236.312
-233.363
-238.3
-222.671
-227.629
-214.78
-217.884
-210.367
-211.702
-208.37
-208.19
-209.733
-207.701
-216.463
-211.714
-231.405
-222.593
-254.927
-241.49
-280.975
-268.187
-73.2219
-148.815
-190.926
-214.275
-219.803
-222.002
-217.099
-214.412
-209.883
-207.993
-207.387
-208.268
-211.583
-216.864
-224.105
-236.857
-251.855
-277.33
-309.318
-357.764
-427.279
-516.375
-169.811
-173.59
-183.649
-283.006
-327.804
-378.745
-446.423
-202.085
-196.375
-199.269
-271.854
-308.765
-350.49
-406.576
-236.282
-229.707
-264.29
-292.237
-328.602
-369.066
-18.4626
-40.6916
18.7075
-84.7693
-45.7306
-138.776
-198.698
-31.3891
-106.7
-63.8443
-115.908
-59.1347
-52.1194
21.9468
-49.7003
-132.494
-146.749
-11.1018
-180.565
-55.3603
-115.059
-169.947
84.7425
10.7824
-192.081
-230.164
79.7467
28.4795
-160.107
-236.438
43.0329
17.9913
-56.3489
-27.2876
-37.6553
-400.896
-207.149
-314.673
-144.54
-293.905
-154.104
18.0993
-297.875
-208.721
-207.961
-237.061
-235.799
-154.487
-189.507
-183.332
-239.345
-160.216
-147.396
-61.6791
-20.9044
40.6911
17.107
-27.5313
-132.076
-107.153
-127.094
-135.301
-187.175
-162.431
-179.515
-47.7364
-8.09856
-1.57172
-23.4475
-52.5525
-100.454
-79.8014
-181.223
-188.709
-100.712
-64.0178
5.68511
14.3012
-30.2282
-73.6582
-146.329
-80.0666
-85.6812
-202.322
-143.632
75.7944
15.7102
-103.002
-147.416
-240.358
-250.454
63.8657
21.7777
-71.9088
-160.237
-181.427
-213.424
-1.37924
-82.4786
-170.107
-64.06
-75.6812
-147.432
-125.343
91.4057
-258.322
-108.062
61.8788
-274.99
-119.324
13.153
32.4857
-259.138
-182.244
-94.4041
-156.226
-130.343
-110.877
-185.306
-159.187
-138.252
-135.366
-194.941
-183.052
-228.799
-229.349
-189.959
-264.945
-284.416
-222.349
-48.5695
-60.6132
-104.119
-162.509
-139.471
-205.156
-231.223
-214.114
-52.1539
-69.0031
-105.452
-153.758
-210.594
-83.6217
-70.6149
-67.7666
-91.7385
-131.394
-192.13
-258.263
-270.55
124.655
90.704
-25.6752
-42.0748
-191.922
-160.677
-296.269
-368.408
-357.247
87.154
61.3424
-16.5537
-39.6134
-196.934
-152.549
-270.716
-346.322
-312.839
4.87364
-55.1998
-84.311
-199.684
-171.462
-210.813
-278.282
-239.094
-61.5816
-63.3509
-117.098
-199.699
-126.046
-324.606
-131.431
-323.355
-147.96
-23.3049
-300.61
-199.911
-195.182
-219.458
-252.469
-158.056
-161.783
-405.585
-239.615
-266.371
-281.278
-636.723
-25.0227
-95.5712
-546.358
-125.892
-173.593
-473.817
-198.206
-231.519
-393.135
-121.65
-242.529
-279.135
-230.489
-166.778
-101.11
-205.385
-355.17
-102.347
-189.137
-252.245
-223.154
-144.99
-97.9014
-177.457
-306.502
-142.224
-212.969
-247.785
-214.822
-164.897
-112.344
-136.264
-231.963
-149.151
-198.798
-281.922
-244.566
-236.005
-226.58
-245.908
-217.781
-260.443
-189.548
-208.919
-189.329
-234.317
-210.065
-225.172
-170.766
-186.892
-219.973
-237.204
-259.381
-257.69
76.2738
-40.2711
-158.796
-217.433
-261.648
-356.287
-432.148
36.2751
-52.5293
-149.287
-184.97
-213.522
-321.372
-392.815
-101.985
-179.526
-212.477
-226.957
-267.925
-309.929
-119.448
-156.667
-205.054
-235.146
-233.916
-429.744
-429.969
-236.336
-107.127
-74.6893
168.632
151.014
249.708
209.968
-15.1362
-137.886
-488.023
-569.765
-641.785
-674.645
-519.296
-476.416
-293.101
-156.748
-73.0952
-368.088
-386.93
-233.328
-143.736
-117.8
77.3894
64.2663
165.84
132.98
-13.5356
-80.5976
-359.27
-445.259
-547.539
-597.757
-491.893
-457.511
-296.608
-201.82
-118.979
-316.324
-345.687
-230.532
-179.492
-170.324
-25.1548
-37.5549
66.0949
42.0204
-41.0873
-94.1727
-301.942
-353.97
-449.138
-476.969
-430.172
-414.342
-309.491
-259.457
-172.956
-267.231
-324.961
-269.201
-263.529
-253.852
-156.639
-156.189
-59.4165
-63.5837
-87.6031
-122.457
-242.465
-247.9
-332.181
-328.534
-330.726
-349.552
-286.012
-273.746
-195.86
-255.458
-231.923
-171.93
-203.049
-247.088
-219.751
-178.837
-112.179
-105.996
-284.826
-275.515
-320.928
-292.452
-233.584
-210.992
-198.716
-143.044
-27.958
8.41059
-296.237
-255.412
-399.393
-379.774
-249.947
-186.471
-179.036
-107.004
33.3454
67.9361
-321.153
-218.504
-442.714
-418.909
-291.738
-225.298
-188.644
-109.538
67.0567
119.372
-365.065
-284.734
-259.699
-103.04
-263.042
-119.98
-255.964
-129.623
-318.737
-207.817
-124.699
-169.418
-121.511
-213.834
-139.625
-235.585
-87.2943
-234.351
-107.667
-280.694
-84.1768
-211.108
-144.396
-234.923
-194.676
-104.151
-366.442
-179.486
-27.1014
-244.207
34.7949
-295.734
84.4855
-294.451
104.949
-255.44
-130.681
-24.467
-41.029
-170.575
-77.6107
-23.3356
-200.683
-170.492
-61.5499
-1.72405
-237.384
-233.344
-222.767
-193.884
-169.934
-141.93
-54.3801
-94.8902
-98.1525
0.46999
41.4425
44.5975
-31.6114
-127.235
-37.3766
-198.419
-66.6662
-80.3928
-44.2936
-120.551
56.4287
-84.98
-172.869
0.693175
27.5125
5.12745
-116.718
-80.0519
91.6668
-40.6974
-83.6085
-139.557
-302.225
-296.848
-307.878
-409.78
-21.7099
61.4459
-191.065
88.1303
-186.769
75.5833
-91.8832
14.5325
-160.936
-3.85097
35.8073
43.9739
-244.022
-245.087
-176.433
-244.279
-166.415
-292.095
-235.405
-208.64
-195.705
-189.639
-190.812
-200.462
-212.463
-205.081
-124.885
-256.813
-232.405
-212.66
-199.767
-196.312
-198.549
-203.447
-209.893
-219.736
-231.444
-236.355
-43.4129
-187.563
-123.933
-23.5345
-23.4778
-32.2738
-33.6401
-13.5256
12.5468
30.892
58.673
93.6238
107.153
34.9748
72.696
25.7535
46.8276
60.531
71.4963
80.8123
94.0072
117.538
149.085
146.721
60.9816
117.399
132.067
112.107
104.357
94.6072
82.5105
82.0579
89.0883
113.045
133.75
130.012
99.6112
87.6861
73.6138
51.8465
42.727
42.8009
41.2036
44.4876
65.0923
80.7195
75.8258
6.99396
21.2085
2.92286
-24.8279
-45.9641
-60.6908
-55.1398
-47.5001
-49.5247
-49.1828
-44.4734
-38.3581
-122.821
-154.153
-134.311
-124.034
-87.2657
-27.9779
-86.6736
-26.2874
-76.9698
1.40068
-26.6645
-56.3831
-41.3782
53.6617
-60.6816
-198.703
-179.425
-152.739
-188.491
-155.903
-185.726
-195.856
-164.353
-127.074
-159.753
-62.5625
2.06898
-107.839
-49.7607
-108.522
-76.4824
-86.817
-7.16995
-81.4253
-123.48
-131.496
-133.86
-133.008
-114.782
-126.156
-138.197
-185.671
-190.15
-168.812
-133.688
-141.258
-139.072
-162.732
-170.652
-177.622
-187.037
-125.724
-64.3232
-58.8906
-41.8701
-13.8815
29.1904
-62.4755
-47.1914
-39.7838
-38.6528
-31.5979
87.122
-4.66679
11.9063
-39.0919
-42.0915
-40.7888
-33.0968
37.8105
37.4448
-74.2522
-50.4436
-52.75
-60.5585
-61.81
-1.43821
-90.1783
-108.09
-115.346
-118.379
-119.304
-127.462
-147.629
-126.884
-148.964
-165.101
-147.916
-152.104
-158.897
-127.433
-128.853
-138.361
-168.688
-185.278
-186.93
-180.853
34.0376
-511.173
-70.7096
-216.383
52.7201
23.7454
-128.081
-201.052
-386.924
-646.282
-486.759
-349.791
-415.446
-572.359
-484.836
-695.75
-482.767
-494.424
-496.937
-492.09
-555.332
-534.878
-484.058
-1136.68
-1006.93
-759.689
-472.057
-292.932
-634.121
-670.73
-744.556
-521.528
-246.21
-343.508
-470.909
-405.615
-212.042
-538.876
5.24953
-524.046
-523.254
-436.662
-545.866
-333.629
-378.986
-375.205
-546.232
-779.174
-500.474
-455.515
-61.937
-346.174
-441.395
-452.273
-314.978
-221.501
-164.211
-353.949
-132.988
-90.6308
-51.0483
-144.455
101.29
96.2811
103.512
-83.9298
19.9056
269.511
326.273
-810.691
-874.936
-219.577
-1611.84
-126.127
-48.2872
-194.317
-247.216
-387.201
-405.386
-446.41
-285.877
-501.825
-483.414
-527.126
-515.722
-484.729
-507.762
-368.568
-469.68
-471.236
-441.572
-403.162
-455.062
-454.728
-458.575
-350.135
-360.438
-389.858
-498.155
-555.357
-540.42
-306.57
-467.099
-475.239
-484.937
-496.79
-506.53
-530.256
-480.698
-519.92
-488.115
-479.225
-468.799
-465.115
-479.597
-464.232
-470.218
-496.192
-481.18
-476.78
-480.872
-478.05
-479.009
-480.62
-500.38
-493.143
-484.536
-483.239
-505.089
-486.966
-478.019
-475.745
-522.83
-515.453
-513.413
-444.495
-454.603
-470.371
-499.991
-299.363
-383.634
-456.014
-463.005
-456.689
-459.462
-456.789
-457.637
-455.938
-457.959
-510.303
-516.751
-512.764
-515.455
-513.856
-515.263
-511.268
-509.556
-516.288
-508.289
-510.748
-505.474
-506.328
-504.36
-503.432
-355.22
-377.817
-388.231
-399.996
-398.818
-304.107
-301.296
-315.143
-312.296
-322.478
-322.096
-325.856
-362.209
-377.766
-394.334
-396.498
-402.637
-524.239
-514.341
-485.746
-517.18
-513.316
-362.622
-244.339
-257.638
-274.409
-283.417
-315.064
-338.082
-301.306
-320.038
-375.522
-426.115
-436.835
-438.691
-440.51
-498.19
-511.079
-514.996
-504.768
-500.053
-514.575
-489.45
-500.328
-503.447
-504.505
-225.209
-295.28
-341.931
-362.482
-363.771
-376.837
-364.096
-359.008
-361.073
-363.46
-352.21
-354.437
-416.258
-395.13
-395.163
-381.575
-391.672
-411.382
-433.379
-447.477
-417.873
-516.258
-506.354
-500.495
-533.768
-518.729
-515.007
-516.649
-488.848
-466.462
-424.917
-597.389
-428.342
-370.316
-472.291
-437.637
-479.493
-519.258
-432.749
-366.598
-431.314
-460.463
-497.849
-527.158
-354.446
-303.075
-393.79
-271.113
-236.88
-177.671
-178.627
-182.859
-194.397
-204.956
-216.482
-223.567
-233.095
-234.734
-250.212
-282.636
-293.571
-299.124
-297.098
-298.341
-291.588
-266.939
-254.837
-243.379
-241.365
-311.165
-267.819
-267.874
-278.997
-300.415
-322.959
-360.073
-379.266
-390.118
-399.754
-401.393
-405.644
-405.514
-406.485
-408.455
-405.379
-402.57
-393.087
-371.521
-359.686
-364.432
-375.816
-400.335
-421.411
-450.372
-467.008
-478.904
-486.916
-490.45
-493.091
-492.677
-490.645
-480.207
-474.584
-477.54
-471.862
-477.888
-473.858
-452.03
-477.015
-554.408
-665.756
-363.95
-348.034
-385.456
-409.769
-438.522
-455.459
-465.945
-475.23
-477.291
-480.987
-481.453
-481.962
-482.722
-481.051
-482.533
-477.074
-468.829
-236.806
-250.817
-246.584
-278.943
-293.833
-310.667
-320.721
-325.451
-327.43
-323.393
-326.132
-345.235
-343.307
-337
-322.124
-314.271
-295.913
-268.534
-262.322
-283.018
-372.179
-350.961
-252.048
-405.009
-404.63
-395.902
-400.843
-391.843
-395.372
-391.79
-393.408
-392.014
-392.795
-397.54
-391.963
-386.199
-385.034
-415.078
-402.714
-457.505
-441.74
-463.376
-311.713
-389.537
-410.073
-432.819
-417.606
-418.255
-419.477
-420.789
-424.086
-429.214
-441.839
-450.289
-456.921
-471.398
-478.359
-502.119
-506.247
-544.251
-506.929
-502.053
-462.606
-553.122
-505.777
-527.779
-525.954
-517.345
-517.981
-479.844
-535.13
-520.183
-545.97
-536.504
-510.739
-476.727
-500.282
-413.952
-610.332
-673.319
-722.968
-514.619
-327.762
-369.626
-364.857
-284.637
-354.717
-299.569
-403.292
-349.067
-534.791
-554.4
-540.618
-350.676
-293.86
-528.121
-530.644
-504.482
-382.984
-423.275
-270.085
-497.775
-559.852
-537.128
-403.784
-469.022
-287.431
-344.078
-327.726
-272.72
-539.836
-568.46
-523.766
-367.819
-325.494
-497.033
-380.591
-266.875
-177.351
-106.691
-129.531
-154.901
-175.811
-201.088
-229.962
-239.552
-228.521
-206.963
-190.036
-212.806
-321.122
-408.482
-276.997
-247.276
-283.771
-327.629
-356.77
-369.781
-374.533
-372.181
-357.786
-337.387
-356.897
-449.548
-371.619
-358.332
-396.219
-434.837
-460.033
-470.024
-468.536
-459.201
-446.093
-427.474
-436.592
-570.549
-480.185
-367.354
-373.263
-417.258
-445.285
-457.043
-460.228
-459.059
-450.247
-427.729
-401.146
-312.316
-230.935
-249.348
-276.723
-287.655
-290.935
-291.938
-272.66
-229.913
-185.139
-215.552
-484.615
-213.469
-161.582
-401.17
-448.919
-439.581
-428.357
-422.093
-420.272
-431.863
-422.968
-451.517
-482.969
-520.19
-340.101
-438.6
-456.227
-453.649
-455.22
-465.072
-488.143
-532.482
-613.692
-768.025
-456.222
-493.372
-453.525
-599.581
-610.725
-718.732
-501.409
-510.306
-479.781
-573.504
-583.276
-661.254
-542.131
-547.867
-620.731
-503.628
-680.69
-734.493
-776.901
-499.681
-652.936
-694.942
-746.056
-656.352
-560.529
-396.509
-403.532
-333.082
-410.226
-373.75
-459.072
-281.099
-313.667
-320.832
-388.543
-372.816
-470.003
-581.44
-505.207
-603.571
-578.215
-310.493
-473.079
-569.763
-565.961
-345.883
-575.911
-265.674
-558.091
-352.722
-516.976
-398.216
-414.409
-130.657
-495.197
-405.029
-803.031
-504.235
-467.454
-533.179
-340.766
-340.178
-517.127
-530.609
-540.21
-321.077
-494.01
-288.743
-325.747
-241.64
-301.673
-51.9921
-51.2668
-60.3822
-67.6984
-80.1089
-88.3306
-99.0936
-106.785
-115.489
-122.909
-139.26
-146.037
-159.759
-165.473
-162.71
-167.059
-159.887
-161.674
-151.554
-150.848
-150.533
-152.246
-177.603
-195.234
-261.221
-300.89
-365.507
-394.415
-362.776
-354.745
-289.11
-274.638
-241.132
-240.512
-247.105
-254.133
-274.336
-282.251
-299.868
-306.932
-315.31
-321.092
-324.749
-329.42
-330.887
-334.054
-331.613
-332.59
-323.633
-322.529
-315.713
-316.531
-341.351
-361.435
-423.768
-464.844
-530.324
-549.96
-501.157
-483.453
-414.584
-395.752
-365.956
-365.932
-376.854
-382.048
-399.801
-404.836
-419.491
-423.395
-430.373
-432.94
-434.582
-436.259
-432.278
-432.704
-427.777
-425.955
-419.215
-413.973
-404.769
-400.753
-427.728
-450.709
-528.836
-566.695
-600.674
-599.578
-528.086
-495.856
-420.115
-402.003
-381.281
-380.167
-396.129
-398.264
-413.957
-414.805
-421.69
-420.573
-422.176
-419.815
-419.57
-416.324
-414.653
-410.029
-401.955
-393.45
-377.754
-362.993
-346.847
-373.401
-400.836
-564.718
-528.613
-383.218
-340.222
-262.457
-247.56
-241.063
-237.163
-249.236
-245.116
-251.725
-245.252
-244.304
-235.718
-237.593
-227.407
-225.756
-213.654
-195.147
-180.952
-155.138
-138.696
-121.655
-105.391
-149.553
-174.665
-266.952
-99.0759
50.1948
173.877
-470.102
-461.2
-458.558
-468.027
-442.715
-452.015
-432.253
-438.042
-428.081
-430.497
-428.865
-428.375
-436.065
-432.139
-452.502
-443.475
-482.539
-465.743
-528.023
-503.303
-568.197
-551.136
-141.468
-294.207
-382.242
-432.49
-453.451
-460.561
-460.072
-456.705
-454.274
-452.11
-453.263
-456.439
-463.219
-475.05
-491.131
-517.842
-548.581
-600.704
-660.267
-759.097
-878.904
-1053.27
-376.527
-425.186
-448.218
-644.361
-734.968
-818.766
-957.513
-457.229
-467.841
-476.175
-608.872
-681.379
-742.389
-847.94
-510.827
-500.988
-572.874
-632.321
-682.38
-761.054
-659.18
-765.148
-827.483
-551.699
-669.606
-727.783
-760.716
-457.017
-312.558
-567.825
-864.306
-788.803
-399.802
-639.871
-813.112
-760.338
-489.896
-523.101
-536.902
-294.39
-230.377
-213.812
-306.897
-308.246
-542.996
-644.87
-562.444
-737.817
-550.782
-732.553
-635.799
-620.845
-163.387
-348.67
-606.973
-637.049
-272.574
-454.341
-670.613
-833.393
-931.692
-861.788
-384.763
-550.737
-683.787
-813.925
-846.457
-816.089
-607.891
-406.919
-495.379
-593.862
-608.149
-621.61
-303.832
-275.593
-293.093
-380.027
-847.771
-526.021
-786.652
-530.695
-199.924
-278.259
-660.797
-507.61
-457.75
-544.169
-535.224
-469.894
-430.017
-404.021
-460.251
-469.092
-612.5
-692.263
-798.76
-801.551
-873.887
-782.83
-742.995
-605.332
-569.318
-491.619
-524.618
-529.696
-583.262
-623.837
-564.349
-434.187
-503.963
-740.891
-692.621
-632.297
-102.404
-323.224
-561.92
-677.443
-663.186
-707.679
-355.615
-779.959
-926.535
-575.929
-705.14
-431.379
-757.044
-861.601
-525.28
-699.448
-470.46
-580.725
-689.013
-731.494
-304.925
-357.267
-543.727
-358.878
-16.1936
-591.431
-137.326
-195.474
-443.115
-190.447
-585.961
-230.104
-302.713
-315.554
-435.825
-348.905
-477.667
-389.449
-466.807
-353.253
-309.802
-315.993
-303.342
-466.67
-414.152
-514.803
-494.534
-431.404
-454.515
-556.328
-654.122
-714.724
-869.245
-921.995
-846.678
-541.216
-534.575
-587.483
-640.932
-529.396
-514.425
-561.66
-608.485
-751.554
-799.003
-846.237
-598.046
-711.714
-8.77572
-137.119
-364.993
-370.57
-725.66
-770.935
-786.125
-676.545
-801.018
-750.857
-411.604
-556.732
-776.205
-816.536
-629.113
-718.87
-656.877
-763.363
-730.716
-452.085
-609.39
-744.368
-783.751
-666.387
-582.243
-683.701
-578.63
-733.537
-695.23
-618.311
-657.165
-301.836
-334.492
-425.482
-501.051
-647.942
-362.767
-661.401
-236.472
-460.35
-661.934
-297.718
-544.703
-480.442
-437.818
-471.537
-512.77
-321.687
-383.187
-715.006
-437.124
-513.466
-549.802
-1270.02
-54.5056
-196.528
-1112.61
-267.19
-368.29
-924.187
-1034.53
-400.057
-477.518
-791.647
-550.699
-488.51
-676.265
-900.277
-525.821
-788.863
-897.361
-789.425
-665.918
-585.939
-671.872
-837.12
-658.68
-589.666
-647.065
-768.754
-656.786
-729.991
-744.775
-784.359
-718.227
-745.29
-685.085
-710.737
-955.299
-885.673
-709.06
-688.902
-600.8
-100.791
-368.337
-900.277
-893.783
-791.59
-737.718
-454.384
-664.601
-833.31
-849.611
-751.789
-709.254
-507.152
-682.061
-594.647
-632.962
-609.937
-416.23
-513.129
-273.294
-123.465
-920.605
-554.591
-1417.36
-1055.44
-1297.58
-1361.35
-573.477
-1161.33
48.3653
-400.772
44.4434
176.232
-356.002
83.7767
-595.841
-365.23
-914.582
-915.156
-363.346
-220.656
-891.267
-578.229
-1283.46
-1008.74
-1199.49
-1265.58
-609.453
-1083.79
-107.419
-437.144
-224.108
-45.5601
-518.237
-179.741
-645.522
-531.485
-802.057
-882.1
-488.936
-335.933
-857.465
-602.291
-1125.84
-947.806
-994.731
-1089.34
-534.71
-879.521
-264.029
-440.977
-408.758
-242.043
-543.618
-346.001
-585.655
-523.24
-740.63
-809.469
-480.535
-345.173
-647.043
-531.037
-628.479
-613.168
-598.495
-701.833
-415.43
-596.946
-360.987
-382.332
-533.294
-364.226
-674.658
-521.726
-642.739
-669.22
-584.433
-722.642
-638.998
-369.77
-418.721
-561.687
-626.079
-630.695
-527.516
-381.559
-460.376
-481.609
-833.997
-234.266
-323.966
-619.561
-696.829
-700.554
-788.95
-873.294
-765.878
-575.708
-757.435
-148.115
-263.355
-574.259
-700.498
-744.501
-825.497
-936.811
-850.673
-484.975
-763.017
41.8287
-165.22
-493.992
-675.082
-676.106
-750.744
-987.712
-915.138
-408.037
-583.964
-596.804
-941.72
-540.147
-684.146
-592.622
-737.949
-578.204
-816.291
-586.721
-797.316
-461.067
-499.216
-432.252
-215.507
-658.576
-360.214
-446.985
-260.675
-684.746
-748.004
-654.538
-874.174
-597.597
-805.993
-588.373
-949.843
-559.881
-835.728
-694.326
-112.304
-678.806
-543.042
-469.343
-560.913
-494.327
-890.724
-838.391
-541.104
-398.2
-522.442
-493.039
-411.484
-344.577
-400.127
-294.142
-393.354
-327.674
-261.709
-239.414
-152.881
-100.043
-703.866
-488.587
-615.585
-528.815
-680.022
-385.042
-668.265
-486.592
-650.674
-655.087
-743.799
-392.494
-454.688
-656.882
-779.253
-867.825
-323.01
-273.85
-557.27
-490.281
-830.983
-764.153
-501.532
-905.943
-753.867
-380.67
-597.206
-193.204
-593.734
-321.073
-246.102
-404.616
-459.74
-696.846
-586.83
-758.968
-579.401
-580.168
-690.302
-618.841
-507.726
-650.89
-495.34
-669.453
-562.267
-504.796
-473.212
-458.22
-452.785
-455.268
-456.134
-415.594
-241.571
-534.778
-503.174
-465.157
-438.987
-425.609
-420.711
-420.64
-424.065
-432.915
-445.393
-447.64
-88.8996
-346.745
-312.923
-171.52
-204.67
-254.143
-289.551
-293.224
-287.932
-285.572
-265.445
-232.215
-240.516
-413.341
-410.762
-441.468
-457.022
-460.236
-459.47
-453.427
-434.991
-396.679
-354.432
-397.021
-673.603
-473.044
-418.437
-437.529
-452.874
-464.587
-471.549
-467.311
-450.898
-417.232
-374.138
-347.188
-415.794
-528.747
-331.465
-347.359
-367.984
-374.938
-373.068
-365.362
-346.404
-307.196
-259.751
-242.696
-326.19
-247.922
-190.628
-194.383
-219.497
-235.97
-241.886
-216.98
-184.805
-166.208
-142.62
-115.55
-105.927
-251.952
-292.71
-451.378
-418.119
-404.66
-366.632
-527.029
-542.988
-438.596
-289.876
-421.243
-348.73
-661.103
-682.831
-520
-552.528
-512.9
-574.514
-494.641
-396.007
-364.957
-546.25
-290.397
-413.408
-532.949
-392.311
-295.775
-525.049
-377.936
-326.46
-434.099
-490.329
-524.551
-428.019
-509.109
-442.401
-448.277
-439.775
-426.867
-396.456
-386.666
-377.127
-412.514
-380.86
-417.746
-362.849
-346.464
-357.548
-364.182
-362.98
-359.056
-358.213
-331.958
-359.756
-366.5
-356.352
-324.01
-259.731
-504.964
-504.09
-502.301
-497.501
-478.779
-503.53
-496.512
-515.069
-514.209
-507.148
-486.442
-424.156
-439.487
-442.306
-438.51
-438.39
-434.351
-415.253
-337.796
-314.223
-285.181
-281.213
-266.956
-247.584
-242.124
-467.516
-506.172
-502.481
-512.042
-519.107
-537.378
-514.287
-517.372
-529.335
-474.992
-476.049
-481.611
-493.096
-481.226
-478.597
-495.551
-417.27
-162.911
-912.865
91.7907
62.4753
-232.964
-360.763
0
0
0
0
0
0
0
0
0
0
0
0
0
0
0
0
0
0
0
0
0
0
0
0
0
0
0
0
0
0
0
0
0
0
0
0
0
0
0
0
0
0
0
0
0
0
0
0
0
0
0
0
0
0
0
0
0
0
0
0
0
0
0
0
0
0
0
0
0
0
0
0
0
0
0
0
0
0
0
0
0
0
0
0
0
0
0
0
0
0
0
0
0
0
0
0
0
0
0
0
0
0
0
0
0
0
0
0
0
0
0
0
0
0
0
0
0
0
0
0
0
0
0
0
0
0
0
0
0
0
0
0
0
0
0
0
0
0
0
0
0
0
0
0
0
0
0
0
0
0
0
0
0
0
0
0
0
0
0
0
0
0
0
0
0
0
0
0
0
0
0
0
0
0
0
0
0
0
0
0
0
0
0
0
0
0
0
0
0
0
0
0
0
0
0
0
0
0
0
0
0
0
0
0
0
0
0
0
0
0
0
0
0
0
0
0
0
0
0
0
0
0
0
0
0
0
0
0
0
0
0
0
0
0
0
0
0
0
0
0
0
0
0
0
0
0
0
0
0
0
0
0
0
0
0
0
0
0
0
0
0
0
0
0
0
0
0
0
0
0
0
0
0
0
0
0
0
0
0
0
0
0
0
0
0
0
0
0
0
0
0
0
0
0
0
0
0
0
0
0
0
0
0
0
0
0
0
0
0
0
0
0
0
0
0
0
0
0
0
0
0
0
0
0
0
0
0
0
0
0
0
0
0
0
0
0
0
0
0
0
0
0
0
0
0
0
0
0
0
0
0
0
0
0
0
0
0
0
0
0
0
0
0
0
0
0
0
0
0
0
0
0
0
0
0
0
0
0
0
0
0
0
0
0
0
0
0
0
0
0
0
0
0
0
0
0
0
0
0
0
0
0
0
0
0
0
0
0
0
0
0
0
0
0
0
0
0
0
0
0
0
0
0
0
0
0
0
0
0
0
0
0
0
0
0
0
0
0
0
0
0
0
0
0
0
0
0
0
0
0
0
0
0
0
0
0
0
0
0
0
0
0
0
0
0
0
0
0
0
0
0
0
0
0
0
0
0
0
0
0
0
0
0
0
0
0
0
0
0
0
0
0
0
0
0
0
0
0
0
0
0
0
0
0
0
0
0
0
0
0
0
0
0
0
0
0
0
0
0
0
0
0
0
0
0
0
0
0
0
0
0
0
0
0
0
0
0
0
0
0
0
0
0
0
0
0
0
0
0
0
0
0
0
0
0
0
0
0
0
0
0
0
0
0
0
0
0
0
0
0
0
0
0
0
0
0
0
0
0
0
0
0
0
0
0
0
0
0
0
0
0
0
0
0
0
0
0
0
0
0
0
0
0
0
0
0
0
0
0
0
0
0
0
0
0
0
0
0
0
0
0
0
0
0
0
0
0
0
0
0
0
0
0
0
0
0
0
0
0
0
0
0
0
0
0
0
0
0
0
0
0
0
0
0
0
0
0
0
0
0
0
0
0
0
0
0
0
0
0
0
0
0
0
0
0
0
0
0
0
0
0
0
0
0
0
0
0
0
0
0
0
0
0
0
0
0
0
0
0
0
0
0
0
0
0
0
0
0
0
0
0
0
0
0
0
0
0
0
0
0
0
0
0
0
0
0
0
0
0
0
0
0
0
0
0
0
0
0
0
0
0
0
0
0
0
0
0
0
0
0
0
0
0
0
0
0
0
0
0
0
0
0
0
0
0
0
0
0
0
0
0
0
0
0
0
0
0
0
0
0
0
0
0
0
0
0
0
0
0
0
0
0
0
0
0
0
0
0
0
0
0
0
0
0
0
0
0
0
0
0
0
0
0
0
0
0
0
0
0
0
0
0
0
0
0
0
0
0
0
0
0
0
0
0
0
0
0
0
0
0
0
0
0
0
0
0
0
0
0
0
0
0
0
0
0
0
0
0
0
0
0
0
0
0
0
0
0
0
0
0
0
0
0
0
0
0
0
0
0
0
0
0
0
0
0
0
0
0
0
0
0
0
0
0
0
0
0
0
0
0
0
0
0
0
0
0
0
0
0
0
0
0
0
0
0
0
0
0
0
0
0
0
0
0
0
0
0
0
0
0
0
0
0
0
0
0
0
0
0
0
0
0
0
0
0
0
0
0
0
0
0
0
0
0
0
0
0
0
0
0
0
0
0
0
0
0
0
0
0
0
0
0
0
0
0
0
0
0
0
0
0
0
0
0
0
0
0
0
0
0
0
0
0
0
0
0
0
0
0
0
0
0
0
0
0
0
0
0
0
0
0
0
0
0
0
0
0
0
0
0
0
0
0
0
0
0
0
0
0
0
0
0
0
0
0
0
0
0
0
0
0
0
0
0
0
0
0
0
0
0
0
0
0
0
0
0
0
0
0
0
0
0
0
0
0
0
0
0
0
0
0
0
0
0
0
0
0
0
0
0
0
0
0
0
0
0
0
0
0
0
0
0
0
0
0
0
0
0
0
0
0
0
0
0
0
0
0
0
0
0
0
0
0
0
0
0
0
0
0
0
0
0
0
0
0
0
0
0
0
0
0
0
0
0
0
0
0
0
0
0
0
0
0
0
0
0
0
0
0
0
0
0
0
0
0
0
0
0
0
0
0
0
0
0
0
0
0
0
0
0
0
0
0
0
0
0
0
0
0
0
0
0
0
0
0
0
0
0
0
0
0
0
0
0
0
0
0
0
0
0
0
0
0
0
0
0
0
0
0
0
0
0
0
0
0
0
0
0
0
0
0
0
0
0
0
0
0
0
0
0
0
0
0
0
0
0
0
0
0
0
0
0
0
0
0
0
0
0
0
0
0
0
0
0
0
0
0
0
0
0
0
0
0
0
0
0
0
0
0
0
0
0
0
0
0
0
0
0
0
0
0
0
0
0
0
0
0
0
0
0
0
0
0
0
0
0
0
0
0
0
0
0
0
0
0
0
0
0
0
0
0
0
0
0
0
0
0
0
0
0
0
0
0
0
0
0
0
0
0
0
0
0
0
0
0
0
0
0
0
0
0
0
0
0
0
0
0
0
0
0
0
0
0
0
0
0
0
0
0
0
0
0
0
0
0
0
0
0
0
0
0
0
0
0
0
0
0
0
0
0
0
0
0
0
0
0
0
0
0
0
0
0
0
0
0
0
0
0
0
0
0
0
0
0
0
0
0
0
0
0
0
0
0
0
0
0
0
0
0
0
0
0
0
0
0
0
0
0
0
0
0
0
0
0
0
0
0
0
0
0
0
0
0
0
0
0
0
0
0
0
0
0
0
0
0
0
0
0
0
0
0
0
0
0
0
0
0
0
0
0
0
0
0
0
0
0
0
0
0
0
0
0
0
0
0
0
0
0
0
0
0
0
0
0
0
0
0
0
0
0
0
0
0
0
0
0
0
0
0
0
0
0
0
0
0
0
0
0
0
0
0
0
0
0
0
0
0
0
0
0
0
0
0
0
0
0
0
0
0
0
0
0
0
0
0
0
0
0
0
0
0
0
0
0
0
0
0
0
0
0
0
0
0
0
0
0
0
0
0
0
0
0
0
0
0
0
0
0
0
0
0
0
0
0
0
0
0
0
0
0
0
0
0
0
0
0
0
0
0
0
0
0
0
0
0
0
0
0
0
0
0
0
0
0
0
0
0
0
0
0
0
0
0
0
0
0
0
0
0
0
0
0
0
0
0
0
0
0
0
0
0
0
0
0
0
0
0
0
0
0
0
0
0
0
0
0
0
0
0
0
0
0
0
0
0
0
0
0
0
0
0
0
0
0
0
0
0
0
0
0
0
0
0
0
0
0
0
0
0
0
0
0
0
0
0
0
0
0
0
0
0
0
0
0
0
0
0
0
0
0
0
0
0
0
0
0
0
0
0
0
0
0
0
0
0
0
0
0
0
0
0
0
0
0
0
0
0
0
0
0
0
0
0
0
0
0
0
0
0
0
0
0
0
0
0
0
0
0
0
0
0
0
0
0
0
0
0
0
0
0
0
0
0
0
0
0
0
0
0
0
0
0
0
0
0
0
0
0
0
0
0
0
0
0
0
0
0
0
0
0
0
0
0
0
0
0
0
0
0
0
0
0
0
0
0
0
0
0
0
0
0
0
0
0
0
0
0
0
0
0
0
0
0
0
0
0
0
0
0
0
0
0
0
0
0
0
0
0
0
0
0
0
0
0
0
0
0
0
0
0
0
0
0
0
0
0
0
0
0
0
0
0
0
0
0
0
0
0
0
0
0
0
0
0
0
0
0
0
0
0
0
0
0
0
0
0
0
0
0
0
0
0
0
0
0
0
0
0
0
0
0
0
0
0
0
0
0
0
0
0
0
0
0
0
0
0
0
0
0
0
0
0
0
0
0
0
0
0
0
0
0
0
0
0
0
0
0
0
0
0
0
0
0
0
0
0
0
0
0
0
0
0
0
0
0
0
0
0
0
0
0
0
0
0
0
0
0
0
0
0
0
0
0
0
0
0
0
0
0
0
0
0
0
0
0
0
0
0
0
0
0
0
0
0
0
0
0
0
0
0
0
0
0
0
0
0
0
0
0
0
0
0
0
0
0
0
0
0
0
0
0
0
0
0
0
0
0
0
0
0
0
0
0
0
0
0
0
0
0
0
0
0
0
0
0
0
0
0
0
0
0
0
0
0
0
0
0
0
0
0
0
0
0
0
0
0
0
0
0
0
0
0
0
0
0
0
0
0
0
0
0
0
0
0
0
0
0
0
0
0
0
0
0
0
0
0
0
0
0
0
0
0
0
0
0
0
0
0
0
0
0
0
0
0
0
0
0
0
0
0
0
0
0
0
0
0
0
0
0
0
0
0
0
0
0
0
0
0
0
0
0
0
0
0
0
0
0
0
0
0
0
0
0
0
0
0
0
0
0
0
0
0
0
0
0
0
0
0
0
0
0
0
0
0
0
0
0
0
0
0
0
0
0
0
0
0
0
0
0
0
0
0
0
0
0
0
0
0
0
0
0
0
0
0
0
0
0
0
0
0
0
0
0
0
0
0
0
0
0
0
0
0
0
0
0
0
0
0
0
0
0
0
0
0
0
0
0
0
0
0
0
0
0
0
0
0
0
0
0
0
0
0
0
0
0
0
0
0
0
0
0
0
0
0
0
0
0
0
0
0
0
0
0
0
0
0
0
0
0
0
0
0
0
0
0
0
0
0
0
0
0
0
0
0
0
0
0
0
0
0
0
0
0
0
0
0
0
0
0
0
0
0
0
0
0
0
0
0
0
0
0
0
0
0
0
0
0
0
0
0
0
0
0
0
0
0
0
0
0
0
0
0
0
0
0
0
0
0
0
0
0
0
0
0
0
0
0
0
0
0
0
0
0
0
0
0
0
0
0
0
0
0
0
0
0
0
0
0
0
0
0
0
0
0
0
0
0
0
0
0
0
0
0
0
0
0
0
0
0
0
0
0
0
0
0
0
0
0
0
0
0
0
0
0
0
0
0
0
0
0
0
0
0
0
0
0
0
0
0
0
0
0
0
0
0
0
0
0
0
0
0
0
0
0
0
0
0
0
0
0
0
0
0
0
0
0
0
0
0
0
0
0
0
0
0
0
0
0
0
0
0
0
0
0
0
0
0
0
0
0
0
0
0
0
0
0
0
0
0
0
0
0
0
0
0
0
0
0
0
0
0
0
0
0
0
0
0
0
0
0
0
0
0
0
0
0
0
0
0
0
0
0
0
0
0
0
0
0
0
0
0
0
0
0
0
0
0
0
0
0
0
0
0
0
0
0
0
0
0
0
0
0
0
0
0
0
0
0
0
0
0
0
0
0
0
0
0
0
0
0
0
0
0
0
0
0
0
0
0
0
0
0
0
0
0
0
0
0
0
0
0
0
0
0
0
0
0
0
0
0
0
0
0
0
0
0
0
0
0
0
0
0
0
0
0
0
0
0
0
0
0
0
0
0
0
0
0
0
0
0
0
0
0
0
0
0
0
0
0
0
0
0
0
0
0
0
0
0
0
0
0
0
0
0
0
0
0
0
0
0
0
0
0
0
0
0
0
0
0
0
0
0
0
0
0
0
0
0
0
0
0
0
0
0
0
0
0
0
0
0
0
0
0
0
0
0
0
0
0
0
0
0
0
0
0
0
0
0
0
0
0
0
0
0
0
0
0
0
0
0
0
0
0
0
0
0
0
0
0
0
0
0
0
0
0
0
0
0
0
0
0
0
0
0
0
0
0
0
0
0
0
0
0
0
0
0
0
0
0
0
0
0
0
0
0
0
0
0
0
0
0
0
0
0
0
0
0
0
0
0
0
0
0
0
0
0
0
0
0
0
0
0
0
0
0
0
0
0
0
0
0
0
0
0
0
0
0
0
0
0
0
0
0
0
0
0
0
0
0
0
0
0
0
0
0
0
0
0
0
0
0
0
0
0
0
0
0
0
0
0
0
0
0
0
0
0
0
0
0
0
0
0
0
0
0
0
0
0
0
0
0
0
0
0
0
0
0
0
0
0
0
0
0
0
0
0
0
0
0
0
0
0
0
0
0
0
0
0
0
0
0
0
0
0
0
0
0
0
0
0
0
0
0
0
0
0
0
0
0
0
0
0
0
0
0
0
0
0
0
0
0
0
0
0
0
0
0
0
0
0
0
0
0
0
0
0
0
0
0
0
0
0
0
0
0
0
0
0
0
0
0
0
0
0
0
0
0
0
0
0
0
0
0
0
0
0
0
0
0
0
0
0
0
0
0
0
0
0
0
0
0
0
0
0
0
0
0
0
0
0
0
0
0
0
0
0
0
0
0
0
0
0
0
0
0
0
0
0
0
0
0
0
0
0
0
0
0
0
0
0
0
0
0
0
0
0
0
0
0
0
0
0
0
0
0
0
0
0
0
0
0
0
0
0
0
0
0
0
0
0
0
0
0
0
0
0
0
0
0
0
0
0
0
0
0
0
0
0
0
0
0
0
0
0
0
0
0
0
0
0
0
0
0
0
0
0
0
0
0
0
0
0
0
0
0
0
0
0
0
0
0
0
0
0
0
0
0
0
0
0
0
0
0
0
0
0
0
0
0
0
0
0
0
0
0
0
0
0
0
0
0
0
0
0
0
0
0
0
0
0
0
0
0
0
0
0
0
0
0
0
0
0
0
0
0
0
0
0
0
0
0
0
0
0
0
0
0
0
0
0
0
0
0
0
0
0
0
0
0
0
0
0
0
0
0
0
0
0
0
0
0
0
0
0
0
0
0
0
0
0
0
0
0
0
0
0
0
0
0
0
0
0
0
0
0
0
0
0
0
0
0
0
0
0
0
0
0
0
0
0
0
0
0
0
0
0
0
0
0
0
0
0
0
0
0
0
0
0
0
0
0
0
0
0
0
0
0
0
0
0
0
0
0
0
0
0
0
0
0
0
0
0
0
0
0
0
0
0
0
0
0
0
0
0
0
0
0
0
0
0
0
0
0
0
0
0
0
0
0
0
0
0
0
0
0
0
0
0
0
0
0
0
0
0
0
0
0
0
0
0
0
0
0
0
0
0
0
0
0
0
0
0
0
0
0
0
0
0
0
0
0
0
0
0
0
0
0
0
0
0
0
0
0
0
0
0
0
0
0
0
0
0
0
0
0
0
0
0
0
0
0
0
0
0
0
0
0
0
0
0
0
0
0
0
0
0
0
0
0
0
0
0
0
0
0
0
0
0
0
0
0
0
0
0
0
0
0
0
0
0
0
0
0
0
0
0
0
0
0
0
0
0
0
0
0
0
0
0
0
0
0
0
0
0
0
0
0
0
0
0
0
0
0
0
0
0
0
0
0
0
0
0
0
0
0
0
0
0
0
0
0
0
0
0
0
0
0
0
0
0
0
0
0
0
0
0
0
0
0
0
0
0
0
0
0
0
0
0
0
0
0
0
0
0
0
0
0
0
0
0
0
0
0
0
0
0
0
0
0
0
0
0
0
0
0
0
0
0
0
0
0
0
0
0
0
0
0
0
0
0
0
0
0
0
0
0
0
0
0
0
0
0
0
0
0
0
0
0
0
0
0
0
0
0
0
0
0
0
0
0
0
0
0
0
0
0
0
0
0
0
0
0
0
0
0
0
0
0
0
0
0
0
0
0
0
0
0
0
0
0
0
0
0
0
0
0
0
0
0
0
0
0
0
0
0
0
0
0
0
0
0
0
0
0
0
0
0
0
0
0
0
0
0
0
0
0
0
0
0
0
0
0
0
0
0
0
0
0
0
0
0
0
0
0
0
0
0
0
0
0
0
0
0
0
0
0
0
0
0
0
0
0
0
0
0
0
0
0
0
0
0
0
0
0
0
0
0
0
0
0
0
0
0
0
0
0
0
0
0
0
0
0
0
0
0
0
0
0
0
0
0
0
0
0
0
0
0
0
0
0
0
0
0
0
0
0
0
0
0
0
0
0
0
0
0
0
0
0
0
0
0
0
0
0
0
0
0
0
0
0
0
0
0
0
0
0
0
0
0
0
0
0
0
0
0
0
0
0
0
0
0
0
0
0
0
0
0
0
0
0
0
0
0
0
0
0
0
0
0
0
0
0
0
0
0
0
0
0
0
0
0
0
0
0
0
0
0
0
0
0
0
0
0
0
0
0
0
0
0
0
0
0
0
0
0
0
0
0
0
0
0
0
0
0
0
0
0
0
0
0
0
0
0
0
0
0
0
0
0
0
0
0
0
0
0
0
0
0
0
0
0
0
0
0
0
0
0
0
0
0
0
0
0
0
0
0
0
0
0
0
0
0
0
0
0
0
0
0
0
0
0
0
0
0
0
0
0
0
0
0
0
0
0
0
0
0
0
0
0
0
0
0
0
0
0
0
0
0
0
0
0
0
0
0
0
0
0
0
0
0
0
0
0
0
0
0
0
0
0
0
0
0
0
0
0
0
0
0
0
0
0
0
0
0
0
0
0
0
0
0
0
0
0
0
0
0
0
0
0
0
0
0
0
0
0
0
0
0
0
0
0
0
0
0
0
0
0
0
0
0
0
0
0
0
0
0
0
0
0
0
0
0
0
0
0
0
0
0
0
0
0
0
0
0
0
0
0
0
0
0
0
0
0
0
0
0
0
0
0
0
0
0
0
0
0
0
0
0
0
0
0
0
0
0
0
0
0
0
0
0
0
0
0
0
0
0
0
0
0
0
0
0
0
0
0
0
0
0
0
0
0
0
0
0
0
0
0
0
0
0
0
0
0
0
0
0
0
0
0
0
0
0
0
0
0
0
0
0
0
0
0
0
0
0
0
0
0
0
0
0
0
0
0
0
0
0
0
0
0
0
0
0
0
0
0
0
0
0
0
0
0
0
0
0
0
0
0
0
0
0
0
0
0
0
0
0
0
0
0
0
0
0
0
0
0
0
0
0
0
0
0
0
0
0
0
0
0
0
0
0
0
0
0
0
0
0
0
0
0
0
0
0
0
0
0
0
0
0
0
0
0
0
0
0
0
0
0
0
0
0
0
0
0
0
0
0
0
0
0
0
0
0
0
0
0
0
0
0
0
0
0
0
0
0
0
0
0
0
0
0
0
0
0
0
0
0
0
0
0
0
0
0
0
0
0
0
0
0
0
0
0
0
0
0
0
0
0
0
0
0
0
0
0
0
0
0
0
0
0
0
0
0
0
0
0
0
0
0
0
0
0
0
0
0
0
0
0
0
0
0
0
0
0
0
0
0
0
0
0
0
0
0
0
0
0
0
0
0
0
0
0
0
0
0
0
0
0
0
0
0
0
0
0
0
0
0
0
0
0
0
0
0
0
0
0
0
0
0
0
0
0
0
0
0
0
0
0
0
0
0
0
0
0
0
0
0
0
0
0
0
0
0
0
0
0
0
0
0
0
0
0
0
0
0
0
0
0
0
0
0
0
0
0
0
0
0
0
0
0
0
0
0
0
0
0
0
0
0
0
0
0
0
0
0
0
0
0
0
0
0
0
0
0
0
0
0
0
0
0
0
0
0
0
0
0
0
0
0
0
0
0
0
0
0
0
0
0
0
0
0
0
0
0
0
0
0
0
0
0
0
0
0
0
0
0
0
0
0
0
0
0
0
0
0
0
0
0
0
0
0
0
0
0
0
0
0
0
0
0
0
0
0
0
0
0
0
0
0
0
0
0
0
0
0
0
0
0
0
0
0
0
0
0
0
0
0
0
0
0
0
0
0
0
0
0
0
0
0
0
0
0
0
0
0
0
0
0
0
0
0
0
0
0
0
0
0
0
0
0
0
0
0
0
0
0
0
0
0
0
0
0
0
0
0
0
0
0
0
0
0
0
0
0
0
0
0
0
0
0
0
0
0
0
0
0
0
0
0
0
0
0
0
0
0
0
0
0
0
0
0
0
0
0
0
0
0
0
0
0
0
0
0
0
0
0
0
0
0
0
0
0
0
0
0
0
0
0
0
0
0
0
0
0
0
0
0
0
0
0
0
0
0
0
0
0
0
0
0
0
0
0
0
0
0
0
0
0
0
0
0
0
0
0
0
0
0
0
0
0
0
0
0
0
0
0
0
0
0
0
0
0
0
0
0
0
0
0
0
0
0
0
0
0
0
0
0
0
0
0
0
0
0
0
0
0
0
0
0
0
0
0
0
0
0
0
0
0
0
0
0
0
0
0
0
0
0
0
0
0
0
0
0
0
0
0
0
0
0
0
0
0
0
0
0
0
0
0
0
0
0
0
0
0
0
0
0
0
0
0
0
0
0
0
0
0
0
0
0
0
0
0
0
0
0
0
0
0
0
0
0
0
0
0
0
0
0
0
0
0
0
0
0
0
0
0
0
0
0
0
0
0
0
0
0
0
0
0
0
0
0
0
0
0
0
0
0
0
0
0
0
0
0
0
0
0
0
0
0
0
0
0
0
0
0
0
0
0
0
0
0
0
0
0
0
0
0
0
0
0
0
0
0
0
0
0
0
0
0
0
0
0
0
0
0
0
0
0
0
0
0
0
0
0
0
0
0
0
0
0
0
0
0
0
0
0
0
0
0
0
0
0
0
0
0
0
0
0
0
0
0
0
0
0
0
0
0
0
0
0
0
0
0
0
0
0
0
0
0
0
0
0
0
0
0
0
0
0
0
0
0
0
0
0
0
0
0
0
0
0
0
0
0
0
0
0
0
0
0
0
0
0
0
0
0
0
0
0
0
0
0
0
0
0
0
0
0
0
0
0
0
0
0
0
0
0
0
0
0
0
0
0
0
0
0
0
0
0
0
0
0
0
0
0
0
0
0
0
0
0
0
0
0
0
0
0
0
0
0
0
0
0
0
0
0
0
0
0
0
0
0
0
0
0
0
0
0
0
0
0
0
0
0
0
0
0
0
0
0
0
0
0
0
0
0
0
0
0
0
0
0
0
0
0
0
0
0
0
0
0
0
0
0
0
0
0
0
0
0
0
0
0
0
0
0
0
0
0
0
0
0
0
0
0
0
0
0
0
0
0
0
0
0
0
0
0
0
0
0
0
0
0
0
0
0
0
0
0
0
0
0
0
0
0
0
0
0
0
0
0
0
0
0
0
0
0
0
0
0
0
0
0
0
0
0
0
0
0
0
0
0
0
0
0
0
0
0
0
0
0
0
0
0
0
0
0
0
0
0
0
0
0
0
0
0
0
0
0
0
0
0
0
0
0
0
0
0
0
0
0
0
0
0
0
0
0
0
0
0
0
0
0
0
0
0
0
0
0
0
0
0
0
0
0
0
0
0
0
0
0
0
0
0
0
0
0
0
0
0
0
0
0
0
0
0
0
0
0
0
0
0
0
0
0
0
0
0
0
0
0
0
0
0
0
0
0
0
0
0
0
0
0
0
0
0
0
0
0
0
0
0
0
0
0
0
0
0
0
0
0
0
0
0
0
0
0
0
0
0
0
0
0
0
0
0
0
0
0
0
0
0
0
0
0
0
0
0
0
0
0
0
0
0
0
0
0
0
0
0
0
0
0
0
0
0
0
0
0
0
0
0
0
0
0
0
0
0
0
0
0
0
0
0
0
0
0
0
0
0
0
0
0
0
0
0
0
0
0
0
0
0
0
0
0
0
0
0
0
0
0
0
0
0
0
0
0
0
0
0
0
0
0
0
0
0
0
0
0
0
0
0
0
0
0
0
0
0
0
0
0
0
0
0
0
0
0
0
0
0
0
0
0
0
0
0
0
0
0
0
0
0
0
0
0
0
0
0
0
0
0
0
0
0
0
0
0
0
0
0
0
0
0
0
0
0
0
0
0
0
0
0
0
0
0
0
0
0
0
0
0
0
0
0
0
0
0
0
0
0
0
0
0
0
0
0
0
0
0
0
0
0
0
0
0
0
0
0
0
0
0
0
0
0
0
0
0
0
0
0
0
0
0
0
0
0
0
0
0
0
0
0
0
0
0
0
0
0
0
0
0
0
0
0
0
0
0
0
0
0
0
0
0
0
0
0
0
0
0
0
0
0
0
0
0
0
0
0
0
0
0
0
0
0
0
0
0
0
0
0
0
0
0
0
0
0
0
0
0
0
0
0
0
0
0
0
0
0
0
0
0
0
0
0
0
0
0
0
0
0
0
0
0
0
0
0
0
0
0
0
0
0
0
0
0
0
0
0
0
0
0
0
0
0
0
0
0
0
0
0
0
0
0
0
0
0
0
0
0
0
0
0
0
0
0
0
0
0
0
0
0
0
0
0
0
0
0
0
0
0
0
0
0
0
0
0
0
0
0
0
0
0
0
0
0
0
0
0
0
0
0
0
0
0
0
0
0
0
0
0
0
0
0
0
0
0
0
0
0
0
0
0
0
0
0
0
0
0
0
0
0
0
0
0
0
0
0
0
0
0
0
0
0
0
0
0
0
0
0
0
0
0
0
0
0
0
0
0
0
0
0
0
0
0
0
0
0
0
0
0
0
0
0
0
0
0
0
0
0
0
0
0
0
0
0
0
0
0
0
0
0
0
0
0
0
0
0
0
0
0
0
0
0
0
0
0
0
0
0
0
0
0
0
0
0
0
0
0
0
0
0
0
0
0
0
0
0
0
0
0
0
0
0
0
0
0
0
0
0
0
0
0
0
0
0
0
0
0
0
0
0
0
0
0
0
0
0
0
0
0
0
0
0
0
0
0
0
0
0
0
0
0
0
0
0
0
0
0
0
0
0
0
0
0
0
0
0
0
0
0
0
0
0
0
0
0
0
0
0
0
0
0
0
0
0
0
0
0
0
0
0
0
0
0
0
0
0
0
0
0
0
0
0
0
0
0
0
0
0
0
0
0
0
0
0
0
0
0
0
0
0
0
0
0
0
0
0
0
0
0
0
0
0
0
0
0
0
0
0
0
0
0
0
0
0
0
0
0
0
0
0
0
0
0
0
0
0
0
0
0
0
0
0
0
0
0
0
0
0
0
0
0
0
0
0
0
0
0
0
0
0
0
0
0
0
0
0
0
0
0
0
0
0
0
0
0
0
0
0
0
0
0
0
0
0
0
0
0
0
0
0
0
0
0
0
0
0
0
0
0
0
0
0
0
0
0
0
0
0
0
0
0
0
0
0
0
0
0
0
0
0
0
0
0
0
0
0
0
0
0
0
0
0
0
0
0
0
0
0
0
0
0
0
0
0
0
0
0
0
0
0
0
0
0
0
0
0
0
0
0
0
0
0
0
0
0
0
0
0
0
0
0
0
0
0
0
0
0
0
0
0
0
0
0
0
0
0
0
0
0
0
0
0
0
0
0
0
0
0
0
0
0
0
0
0
0
0
0
0
0
0
0
0
0
0
0
0
0
0
0
0
0
0
0
0
0
0
0
0
0
0
0
0
0
0
0
0
0
0
0
0
0
0
0
0
0
0
0
0
0
0
0
0
0
0
0
0
0
0
0
0
0
0
0
0
0
0
0
0
0
0
0
0
0
0
0
0
0
0
0
0
0
0
0
0
0
0
0
0
0
0
0
0
0
0
0
0
0
0
0
0
0
0
0
0
0
0
0
0
0
0
0
0
0
0
0
0
0
0
0
0
0
0
0
0
0
0
0
0
0
0
0
0
0
0
0
0
0
0
0
0
0
0
0
0
0
0
0
0
0
0
0
0
0
0
0
0
0
0
0
0
0
0
0
0
0
0
0
0
0
0
0
0
0
0
0
0
0
0
0
0
0
0
0
0
0
0
0
0
0
0
0
0
0
0
0
0
0
0
0
0
0
0
0
0
0
0
0
0
0
0
0
0
0
0
0
0
0
0
0
0
0
0
0
0
0
0
0
0
0
0
0
0
0
0
0
0
0
0
0
0
0
0
0
0
0
0
0
0
0
0
0
0
0
0
0
0
0
0
0
0
0
0
0
0
0
0
0
0
0
0
0
0
0
0
0
0
0
0
0
0
0
0
0
0
0
0
0
0
0
0
0
0
0
0
0
0
0
0
0
0
0
0
0
0
0
0
0
0
0
0
0
0
0
0
0
0
0
0
0
0
0
0
0
0
0
0
0
0
0
0
0
0
0
0
0
0
0
0
0
0
0
0
0
0
0
0
0
0
0
0
0
0
0
0
0
0
0
0
0
0
0
0
0
0
0
0
0
0
0
0
0
0
0
0
0
0
0
0
0
0
0
0
0
0
0
0
0
0
0
0
0
0
0
0
0
0
0
0
0
0
0
0
0
0
0
0
0
0
0
0
0
0
0
0
0
0
0
0
0
0
0
0
0
0
0
0
0
0
0
0
0
0
0
0
0
0
0
0
0
0
0
0
0
0
0
0
0
0
0
0
0
0
0
0
0
0
0
0
0
0
0
0
0
0
0
0
0
0
0
0
0
0
0
0
0
0
0
0
0
0
0
0
0
0
0
0
0
0
0
0
0
0
0
0
0
0
0
0
0
0
0
0
0
0
0
0
0
0
0
0
0
0
0
0
0
0
0
0
0
0
0
0
0
0
0
0
0
0
0
0
0
0
0
0
0
0
0
0
0
0
0
0
0
0
0
0
0
0
0
0
0
0
0
0
0
0
0
0
0
0
0
0
0
0
0
0
0
0
0
0
0
0
0
0
0
0
0
0
0
0
0
0
0
0
0
0
0
0
0
0
0
0
0
0
0
0
0
0
0
0
0
0
0
0
0
0
0
0
0
0
0
0
0
0
0
0
0
0
0
0
0
0
0
0
0
0
0
0
0
0
0
0
0
0
0
0
0
0
0
0
0
0
0
0
0
0
0
0
0
0
0
0
0
0
0
0
0
0
0
0
0
0
0
0
0
0
0
0
0
0
0
0
0
0
0
0
0
0
0
0
0
0
0
0
0
0
0
0
0
0
0
0
0
0
0
0
0
0
0
0
0
0
0
0
0
0
0
0
0
0
0
0
0
0
0
0
0
0
0
0
0
0
0
0
0
0
0
0
0
0
0
0
0
0
0
0
0
0
0
0
0
0
0
0
0
0
0
0
0
0
0
0
0
0
0
0
0
0
0
0
0
0
0
0
0
0
0
0
0
0
0
0
0
0
0
0
0
0
0
0
0
0
0
0
0
0
0
0
0
0
0
0
0
0
0
0
0
0
0
0
0
0
0
0
0
0
0
0
0
0
0
0
0
0
0
0
0
0
0
0
0
0
0
0
0
0
0
0
0
0
0
0
0
0
0
0
0
0
0
0
0
0
0
0
0
0
0
0
0
0
0
0
0
0
0
0
0
0
0
0
0
0
0
0
0
0
0
0
0
0
0
0
0
0
0
0
0
0
0
0
0
0
0
0
0
0
0
0
0
0
0
0
0
0
0
0
0
0
0
0
0
0
0
0
0
0
0
0
0
0
0
0
0
0
0
0
0
0
0
0
0
0
0
0
0
0
0
0
0
0
0
0
0
0
0
0
0
0
0
0
0
0
0
0
0
0
0
0
0
0
0
0
0
0
0
0
0
0
0
0
0
0
0
0
0
0
0
0
0
0
0
0
0
0
0
0
0
0
0
0
0
0
0
0
0
0
0
0
0
0
0
0
0
0
0
0
0
0
0
0
0
0
0
0
0
0
0
0
0
0
0
0
0
0
0
0
0
0
0
0
0
0
0
0
0
0
0
0
0
0
0
0
0
0
0
0
0
0
0
0
0
0
0
0
0
0
0
0
0
0
0
0
0
0
0
0
0
0
0
0
0
0
0
0
0
0
0
0
0
0
0
0
0
0
0
0
0
0
0
0
0
0
0
0
0
0
0
0
0
0
0
0
0
0
0
0
0
0
0
0
0
0
0
0
0
0
0
0
0
0
0
0
0
0
0
0
0
0
0
0
0
0
0
0
0
0
0
0
0
0
0
0
0
0
0
0
0
0
0
0
0
0
0
0
0
0
0
0
0
0
0
0
0
0
0
0
0
0
0
0
0
0
0
0
0
0
0
0
0
0
0
0
0
0
0
0
0
0
0
0
0
0
0
0
0
0
0
0
0
0
0
0
0
0
0
0
0
0
0
0
0
0
0
0
0
0
0
0
0
0
0
0
0
0
0
0
0
0
0
0
0
0
0
0
0
0
0
0
0
0
0
0
0
0
0
0
0
0
0
0
0
0
0
0
0
0
0
0
0
0
0
0
0
0
0
0
0
0
0
0
0
0
0
0
0
0
0
0
0
0
0
0
0
0
0
0
0
0
0
0
0
0
0
0
0
0
0
0
0
0
0
0
0
0
0
0
0
0
0
0
0
0
0
0
0
0
0
0
0
0
0
0
0
0
0
0
0
0
0
0
0
0
0
0
0
0
0
0
0
0
0
0
0
0
0
0
0
0
0
0
0
0
0
0
0
0
0
0
0
0
0
0
0
0
0
0
0
0
0
0
0
0
0
0
0
0
0
0
0
0
0
0
0
0
0
0
0
0
0
0
0
0
0
0
0
0
0
0
0
0
0
0
0
0
0
0
0
0
0
0
0
0
0
0
0
0
0
0
0
0
0
0
0
0
0
0
0
0
0
0
0
0
0
0
0
0
0
0
0
0
0
0
0
0
0
0
0
0
0
0
0
0
0
0
0
0
0
0
0
0
0
0
0
0
0
0
0
0
0
0
0
0
0
0
0
0
0
0
0
0
0
0
0
0
0
0
0
0
0
0
0
0
0
0
0
0
0
0
0
0
0
0
0
0
0
0
0
0
0
0
0
0
0
0
0
0
0
0
0
0
0
0
0
0
0
0
0
0
0
0
0
0
0
0
0
0
0
0
0
0
0
0
0
0
0
0
0
0
0
0
0
0
0
0
0
0
0
0
0
0
0
0
0
0
0
0
0
0
0
0
0
0
0
0
0
0
0
0
0
0
0
0
0
0
0
0
0
0
0
0
0
0
0
0
0
0
0
0
0
0
0
0
0
0
0
0
0
0
0
0
0
0
0
0
0
0
0
0
0
0
0
0
0
0
0
0
0
0
0
0
0
0
0
0
0
0
0
0
0
0
0
0
0
0
0
0
0
0
0
0
0
0
0
0
0
0
0
0
0
0
0
0
0
0
0
0
0
0
0
0
0
0
0
0
0
0
0
0
0
0
0
0
0
0
0
0
0
0
0
0
0
0
0
0
0
0
0
0
0
0
0
0
0
0
0
0
0
0
0
0
0
0
0
0
0
0
0
0
0
0
0
0
0
0
0
0
0
0
0
0
0
0
0
0
0
0
0
0
0
0
0
0
0
0
0
0
0
0
0
0
0
0
0
0
0
0
0
0
0
0
0
0
0
0
0
0
0
0
0
0
0
0
0
0
0
0
0
0
0
0
0
0
0
0
0
0
0
0
0
0
0
0
0
0
0
0
0
0
0
0
0
0
0
0
0
0
0
0
0
0
0
0
0
0
0
0
0
0
0
0
0
0
0
0
0
0
0
0
0
0
0
0
0
0
0
0
0
0
0
0
0
0
0
0
0
0
0
0
0
0
0
0
0
0
0
0
0
0
0
0
0
0
0
0
0
0
0
0
0
0
0
0
0
0
0
0
0
0
0
0
0
0
0
0
0
0
0
0
0
0
0
0
0
0
0
0
0
0
0
0
0
0
0
0
0
0
0
0
0
0
0
0
0
0
0
0
0
0
0
0
0
0
0
0
0
0
0
0
0
0
0
0
0
0
0
0
0
0
0
0
0
0
0
0
0
0
0
0
0
0
0
0
0
0
0
0
0
0
0
0
0
0
0
0
0
0
0
0
0
0
0
0
0
0
0
0
0
0
0
0
0
0
0
0
0
0
0
0
0
0
0
0
0
0
0
0
0
0
0
0
0
0
0
0
0
0
0
0
0
0
0
0
0
0
0
0
0
0
0
0
0
0
0
0
0
0
0
0
0
0
0
0
0
0
0
0
0
0
0
0
0
0
0
0
0
0
0
0
0
0
0
0
0
0
0
0
0
0
0
0
0
0
0
0
0
0
0
0
0
0
0
0
0
0
0
0
0
0
0
0
0
0
0
0
0
0
0
0
0
0
0
0
0
0
0
0
0
0
0
0
0
0
0
0
0
0
0
0
0
0
0
0
0
0
0
0
0
0
0
0
0
0
0
0
0
0
0
0
0
0
0
0
0
0
0
0
0
0
0
0
0
0
0
0
0
0
0
0
0
0
0
0
0
0
0
0
0
0
0
0
0
0
0
0
0
0
0
0
0
0
0
0
0
0
0
0
0
0
0
0
0
0
0
0
0
0
0
0
0
0
0
0
0
0
0
0
0
0
0
0
0
0
0
0
0
0
0
0
0
0
0
0
0
0
0
0
0
0
0
0
0
0
0
0
0
0
0
0
0
0
0
0
0
0
0
0
0
0
0
0
0
0
0
0
0
0
0
0
0
0
0
0
0
0
0
0
0
0
0
0
0
0
0
0
0
0
0
0
0
0
0
0
0
0
0
0
0
0
0
0
0
0
0
0
0
0
0
0
0
0
0
0
0
0
0
0
0
0
0
0
0
0
0
0
0
0
0
0
0
0
0
0
0
0
0
0
0
0
0
0
0
0
0
0
0
0
0
0
0
0
0
0
0
0
0
0
0
0
0
0
0
0
0
0
0
0
0
0
0
0
0
0
0
0
0
0
0
0
0
0
0
0
0
0
0
0
0
0
0
0
0
0
0
0
0
0
0
0
0
0
0
0
0
0
0
0
0
0
0
0
0
0
0
0
0
0
0
0
0
0
0
0
0
0
0
0
0
0
0
0
0
0
0
0
0
0
0
0
0
0
0
0
0
0
0
0
0
0
0
0
0
0
0
0
0
0
0
0
0
0
0
0
0
0
0
0
0
0
0
0
0
0
0
0
0
0
0
0
0
0
0
0
0
0
0
0
0
0
0
0
0
0
0
0
0
0
0
0
0
0
0
0
0
0
0
0
0
0
0
0
0
0
0
0
0
0
0
0
0
0
0
0
0
0
0
0
0
0
0
0
0
0
0
0
0
0
0
0
0
0
0
0
0
0
0
0
0
0
0
0
0
0
0
0
0
0
0
0
0
0
0
0
0
0
0
0
0
0
0
0
0
0
0
0
0
0
0
0
0
0
0
0
0
0
0
0
0
0
0
0
0
0
0
0
0
0
0
0
0
0
0
0
0
0
0
0
0
0
0
0
0
0
0
0
0
0
0
0
0
0
0
0
0
0
0
0
0
0
0
0
0
0
0
0
0
0
0
0
0
0
0
0
0
0
0
0
0
0
0
0
0
0
0
0
0
0
0
0
0
0
0
0
0
0
0
0
0
0
0
0
0
0
0
0
0
0
0
0
0
0
0
0
0
0
0
0
0
0
0
0
0
0
0
0
0
0
0
0
0
0
0
0
0
0
0
0
0
0
0
0
0
0
0
0
0
0
0
0
0
0
0
0
0
0
0
0
0
0
0
0
0
0
0
0
0
0
0
0
0
0
0
0
0
0
0
0
0
0
0
0
0
0
0
0
0
0
0
0
0
0
0
0
0
0
0
0
0
0
0
0
0
0
0
0
0
0
0
0
0
0
0
0
0
0
0
0
0
0
0
0
0
0
0
0
0
0
0
0
0
0
0
0
0
0
0
0
0
0
0
0
0
0
0
0
0
0
0
0
0
0
0
0
0
0
0
0
0
0
0
0
0
0
0
0
0
0
0
0
0
0
0
0
0
0
0
0
0
0
0
0
0
0
0
0
0
0
0
0
0
0
0
0
0
0
0
0
0
0
0
0
0
0
0
0
0
0
0
0
0
0
0
0
0
0
0
0
0
0
0
0
0
0
0
0
0
0
0
0
0
0
0
0
0
0
0
0
0
0
0
0
0
0
0
0
0
0
0
0
0
0
0
0
0
0
0
0
0
0
0
0
0
0
0
0
0
0
0
0
0
0
0
0
0
0
0
0
0
0
0
0
0
0
0
0
0
0
0
0
0
0
0
0
0
0
0
0
0
0
0
0
0
0
0
0
0
0
0
0
0
0
0
0
0
0
0
0
0
0
0
0
0
0
0
0
0
0
0
0
0
0
0
0
0
0
0
0
0
0
0
0
0
0
0
0
0
0
0
0
0
0
0
0
0
0
0
0
0
0
0
0
0
0
0
0
0
0
0
0
0
0
0
0
0
0
0
0
0
0
0
0
0
0
0
0
0
0
0
0
0
0
0
0
0
0
0
0
0
0
0
0
0
0
0
0
0
0
0
0
0
0
0
0
0
0
0
0
0
0
0
0
0
0
0
0
0
0
0
0
0
0
0
0
0
0
0
0
0
0
0
0
0
0
0
0
0
0
0
0
0
0
0
0
0
0
0
0
0
0
0
0
0
0
0
0
0
0
0
0
0
0
0
0
0
0
0
0
0
0
0
0
0
0
0
0
0
0
0
0
0
0
0
0
0
0
0
0
0
0
0
0
0
0
0
0
0
0
0
0
0
0
0
0
0
0
0
0
0
0
0
0
0
0
0
0
0
0
0
0
0
0
0
0
0
0
0
0
0
0
0
0
0
0
0
0
0
0
0
0
0
0
0
0
0
0
0
0
0
0
0
0
0
0
0
0
0
0
0
0
0
0
0
0
0
0
0
0
0
0
0
0
0
0
0
0
0
0
0
0
0
0
0
0
0
0
0
0
0
0
0
0
0
0
0
0
0
0
0
0
0
0
0
0
0
0
0
0
0
0
0
0
0
0
0
0
0
0
0
0
0
0
0
0
0
0
0
0
0
0
0
0
0
0
0
0
0
0
0
0
0
0
0
0
0
0
0
0
0
0
0
0
0
0
0
0
0
0
0
0
0
0
0
0
0
0
0
0
0
0
0
0
0
0
0
0
0
0
0
0
0
0
0
0
0
0
0
0
0
0
0
0
0
0
0
0
0
0
0
0
0
0
0
0
0
0
0
0
0
0
0
0
0
0
0
0
0
0
0
0
0
0
0
0
0
0
0
0
0
0
0
0
0
0
0
0
0
0
0
0
0
0
0
0
0
0
0
0
0
0
0
0
0
0
0
0
0
0
0
0
0
0
0
0
0
0
0
0
0
0
0
0
0
0
0
0
0
0
0
0
0
0
0
0
0
0
0
0
0
0
0
0
0
0
0
0
0
0
0
0
0
0
0
0
0
0
0
0
0
0
0
0
0
0
0
0
0
0
0
0
0
0
0
0
0
0
0
0
0
0
0
0
0
0
0
0
0
0
0
0
0
0
0
0
0
0
0
0
0
0
0
0
0
0
0
0
0
0
0
0
0
0
0
0
0
0
0
0
0
0
0
0
0
0
0
0
0
0
0
0
0
0
0
0
0
0
0
0
0
0
0
0
0
0
0
0
0
0
0
0
0
0
0
0
0
0
0
0
0
0
0
0
0
0
0
0
0
0
0
0
0
0
0
0
0
0
0
0
0
0
0
0
0
0
0
0
0
0
0
0
0
0
0
0
0
0
0
0
0
0
0
0
0
0
0
0
0
0
0
0
0
0
0
0
0
0
0
0
0
0
0
0
0
0
0
0
0
0
0
0
0
0
0
0
0
0
0
0
0
0
0
0
0
0
0
0
0
0
0
0
0
0
0
0
0
0
0
0
0
0
0
0
0
0
0
0
0
0
0
0
0
0
0
0
0
0
0
0
0
0
0
0
0
0
0
0
0
0
0
0
0
0
0
0
0
0
0
0
0
0
0
0
0
0
0
0
0
0
0
0
0
0
0
0
0
0
0
0
0
0
0
0
0
0
0
0
0
0
0
0
0
0
0
0
0
0
0
0
0
0
0
0
0
0
0
0
0
0
0
0
0
0
0
0
0
0
0
0
0
0
0
0
0
0
0
0
0
0
0
0
0
0
0
0
0
0
0
0
0
0
0
0
0
0
0
0
0
0
0
0
0
0
0
0
0
0
0
0
0
0
0
0
0
0
0
0
0
0
0
0
0
0
0
0
0
0
0
0
0
0
0
0
0
0
0
0
0
0
0
0
0
0
0
0
0
0
0
0
0
0
0
0
0
0
0
0
0
0
0
0
0
0
0
0
0
0
0
0
0
0
0
0
0
0
0
0
0
0
0
0
0
0
0
0
0
0
0
0
0
0
0
0
0
0
0
0
0
0
0
0
0
0
0
0
0
0
0
0
0
0
0
0
0
0
0
0
0
0
0
0
0
0
0
0
0
0
0
0
0
0
0
0
0
0
0
0
0
0
0
0
0
0
0
0
0
0
0
0
0
0
0
0
0
0
0
0
0
0
0
0
0
0
0
0
0
0
0
0
0
0
0
0
0
0
0
0
0
0
0
0
0
0
0
0
0
0
0
0
0
0
0
0
0
0
0
0
0
0
0
0
0
0
0
0
0
0
0
0
0
0
0
0
0
0
0
0
0
0
0
0
0
0
0
0
0
0
0
0
0
0
0
0
0
0
0
0
0
0
0
0
0
0
0
0
0
0
0
0
0
0
0
0
0
0
0
0
0
0
0
0
0
0
0
0
0
0
0
0
0
0
0
0
0
0
0
0
0
0
0
0
0
0
0
0
0
0
0
0
0
0
0
0
0
0
0
0
0
0
0
0
0
0
0
0
0
0
0
0
0
0
0
0
0
0
0
0
0
0
0
0
0
0
0
0
0
0
0
0
0
0
0
0
0
0
0
0
0
0
0
0
0
0
0
0
0
0
0
0
0
0
0
0
0
0
0
0
0
0
0
0
0
0
0
0
0
0
0
0
0
0
0
0
0
0
0
0
0
0
0
0
0
0
0
0
0
0
0
0
0
0
0
0
0
0
0
0
0
0
0
0
0
0
0
0
0
0
0
0
0
0
0
0
0
0
0
0
0
0
0
0
0
0
0
0
0
0
0
0
0
0
0
0
0
0
0
0
0
0
0
0
0
0
0
0
0
0
0
0
0
0
0
0
0
0
0
0
0
0
0
0
0
0
0
0
0
0
0
0
0
0
0
0
0
0
0
0
0
0
0
0
0
0
0
0
0
0
0
0
0
0
0
0
0
0
0
0
0
0
0
0
0
0
0
0
0
0
0
0
0
0
0
0
0
0
0
0
0
0
0
0
0
0
0
0
0
0
0
0
0
0
0
0
0
0
0
0
0
0
0
0
0
0
0
0
0
0
0
0
0
0
0
0
0
0
0
0
0
0
0
0
0
0
0
0
0
0
0
0
0
0
0
0
0
0
0
0
0
0
0
0
0
0
0
0
0
0
0
0
0
0
0
0
0
0
0
0
0
0
0
0
0
0
0
0
0
0
0
0
0
0
0
0
0
0
0
0
0
0
0
0
0
0
0
0
0
0
0
0
0
0
0
0
0
0
0
0
0
0
0
0
0
0
0
0
0
0
0
0
0
0
0
0
0
0
0
0
0
0
0
0
0
0
0
0
0
0
0
0
0
0
0
0
0
0
0
0
0
0
0
0
0
0
0
0
0
0
0
0
0
0
0
0
0
0
0
0
0
0
0
0
0
0
0
0
0
0
0
0
0
0
0
0
0
0
0
0
0
0
0
0
0
0
0
0
0
0
0
0
0
0
0
0
0
0
0
0
0
0
0
0
0
0
0
0
0
0
0
0
0
0
0
0
0
0
0
0
0
0
0
0
0
0
0
0
0
0
0
0
0
0
0
0
0
0
0
0
0
0
0
0
0
0
0
0
0
0
0
0
0
0
0
0
0
0
0
0
0
0
0
0
0
0
0
0
0
0
0
0
0
0
0
0
0
0
0
0
0
0
0
0
0
0
0
0
0
0
0
0
0
0
0
0
0
0
0
0
0
0
0
0
0
0
0
0
0
0
0
0
0
0
0
0
0
0
0
0
0
0
0
0
0
0
0
0
0
0
0
0
0
0
0
0
0
0
0
0
0
0
0
0
0
0
0
0
0
0
0
0
0
0
0
0
0
0
0
0
0
0
0
0
0
0
0
0
0
0
0
0
0
0
0
0
0
0
0
0
0
0
0
0
0
0
0
0
0
0
0
0
0
0
0
0
0
0
0
0
0
0
0
0
0
0
0
0
0
0
0
0
0
0
0
0
0
0
0
0
0
0
0
0
0
0
0
0
0
0
0
0
0
0
0
0
0
0
0
0
0
0
0
0
0
0
0
0
0
0
0
0
0
0
0
0
0
0
0
0
0
0
0
0
0
0
0
0
0
0
0
0
0
0
0
0
0
0
0
0
0
0
0
0
0
0
0
0
0
0
0
0
0
0
0
0
0
0
0
0
0
0
0
0
0
0
0
0
0
0
0
0
0
0
0
0
0
0
0
0
0
0
0
0
0
0
0
0
0
0
0
0
0
0
0
0
0
0
0
0
0
0
0
0
0
0
0
0
0
0
0
0
0
0
0
0
0
0
0
0
0
0
0
0
0
0
0
0
0
0
0
0
0
0
0
0
0
0
0
0
0
0
0
0
0
0
0
0
0
0
0
0
0
0
0
0
0
0
0
0
0
0
0
0
0
0
0
0
0
0
0
0
0
0
0
0
0
0
0
0
0
0
0
0
0
0
0
0
0
0
0
0
0
0
0
0
0
0
0
0
0
0
0
0
0
0
0
0
0
0
0
0
0
0
0
0
0
0
0
0
0
0
0
0
0
0
0
0
0
0
0
0
0
0
0
0
0
0
0
0
0
0
0
0
0
0
0
0
0
0
0
0
0
0
0
0
0
0
0
0
0
0
0
0
0
0
0
0
0
0
0
0
0
0
0
0
0
0
0
0
0
0
0
0
0
0
0
0
0
0
0
0
0
0
0
0
0
0
0
0
0
0
0
0
0
0
0
0
0
0
0
0
0
0
0
0
0
0
0
0
0
0
0
0
0
0
0
0
0
0
0
0
0
0
0
0
0
0
0
0
0
0
0
0
0
0
0
0
0
0
0
0
0
0
0
0
0
0
0
0
0
0
0
0
0
0
0
0
0
0
0
0
0
0
0
0
0
0
0
0
0
0
0
0
0
0
0
0
0
0
0
0
0
0
0
0
0
0
0
0
0
0
0
0
0
0
0
0
0
0
0
0
0
0
0
0
0
0
0
0
0
0
0
0
0
0
0
0
0
0
0
0
0
0
0
0
0
0
0
0
0
0
0
0
0
0
0
0
0
0
0
0
0
0
0
0
0
0
0
0
0
0
0
0
0
0
0
0
0
0
0
0
0
0
0
0
0
0
0
0
0
0
0
0
0
0
0
0
0
0
0
0
0
0
0
0
0
0
0
0
0
0
0
0
0
0
0
0
0
0
0
0
0
0
0
0
0
0
0
0
0
0
0
0
0
0
0
0
0
0
0
0
0
0
0
0
0
0
0
0
0
0
0
0
0
0
0
0
0
0
0
0
0
0
0
0
0
0
0
0
0
0
0
0
0
0
0
0
0
0
0
0
0
0
0
0
0
0
0
0
0
0
0
0
0
0
0
0
0
0
0
0
0
0
0
0
0
0
0
0
0
0
0
0
0
0
0
0
0
0
0
0
0
0
0
0
0
0
0
0
0
0
0
0
0
0
0
0
0
0
0
0
0
0
0
0
0
0
0
0
0
0
0
0
0
0
0
0
0
0
0
0
0
0
0
0
0
0
0
0
0
0
0
0
0
0
0
0
0
0
0
0
0
0
0
0
0
0
0
0
0
0
0
0
0
0
0
0
0
0
0
0
0
0
0
0
0
0
0
0
0
0
0
0
0
0
0
0
0
0
0
0
0
0
0
0
0
0
0
0
0
0
0
0
0
0
0
0
0
0
0
0
0
0
0
0
0
0
0
0
0
0
0
0
0
0
0
0
0
0
0
0
0
0
0
0
0
0
0
0
0
0
0
0
0
0
0
0
0
0
0
0
0
0
0
0
0
0
0
0
0
0
0
0
0
0
0
0
0
0
0
0
0
0
0
0
0
0
0
0
0
0
0
0
0
0
0
0
0
0
0
0
0
0
0
0
0
0
0
0
0
0
0
0
0
0
0
0
0
0
0
0
0
0
0
0
0
0
0
0
0
0
0
0
0
0
0
0
0
0
0
0
0
0
0
0
0
0
0
0
0
0
0
0
0
0
0
0
0
0
0
0
0
0
0
0
0
0
0
0
0
0
0
0
0
0
0
0
0
0
0
0
0
0
0
0
0
0
0
0
0
0
0
0
0
0
0
0
0
0
0
0
0
0
0
0
0
0
0
0
0
0
0
0
0
0
0
0
0
0
0
0
0
0
0
0
0
0
0
0
0
0
0
0
0
0
0
0
0
0
0
0
0
0
0
0
0
0
0
0
0
0
0
0
0
0
0
0
0
0
0
0
0
0
0
0
0
0
0
0
0
0
0
0
0
0
0
0
0
0
0
0
0
0
0
0
0
0
0
0
0
0
0
0
0
0
0
0
0
0
0
0
0
0
0
0
0
0
0
0
0
0
0
0
0
0
0
0
0
0
0
0
0
0
0
0
0
0
0
0
0
0
0
0
0
0
0
0
0
0
0
0
0
0
0
0
0
0
0
0
0
0
0
0
0
0
0
0
0
0
0
0
0
0
0
0
0
0
0
0
0
0
0
0
0
0
0
0
0
0
0
0
0
0
0
0
0
0
0
0
0
0
0
0
0
0
0
0
0
0
0
0
0
0
0
0
0
0
0
0
0
0
0
0
0
0
0
0
0
0
0
0
0
0
0
0
0
0
0
0
0
0
0
0
0
0
0
0
0
0
0
0
0
0
0
0
0
0
0
0
0
0
0
0
0
0
0
0
0
0
0
0
0
0
0
0
0
0
0
0
0
0
0
0
0
0
0
0
0
0
0
0
0
0
0
0
0
0
0
0
0
0
0
0
0
0
0
0
0
0
0
0
0
0
0
0
0
0
0
0
0
0
0
0
0
0
0
0
0
0
0
0
0
0
0
0
0
0
0
0
0
0
0
0
0
0
0
0
0
0
0
0
0
0
0
0
0
0
0
0
0
0
0
0
0
0
0
0
0
0
0
0
0
0
0
0
0
0
0
0
0
0
0
0
0
0
0
0
0
0
0
0
0
0
0
0
0
0
0
0
0
0
0
0
0
0
0
0
0
0
0
0
0
0
0
0
0
0
0
0
0
0
0
0
0
0
0
0
0
0
0
0
0
0
0
0
0
0
0
0
0
0
0
0
0
0
0
0
0
0
0
0
0
0
0
0
0
0
0
0
0
0
0
0
0
0
0
0
0
0
0
0
0
0
0
0
0
0
0
0
0
0
0
0
0
0
0
0
0
0
0
0
0
0
0
0
0
0
0
0
0
0
0
0
0
0
0
0
0
0
0
0
0
0
0
0
0
0
0
0
0
0
0
0
0
0
0
0
0
0
0
0
0
0
0
0
0
0
0
0
0
0
0
0
0
0
0
0
0
0
0
0
0
0
0
0
0
0
0
0
0
0
0
0
0
0
0
0
0
0
0
0
0
0
0
0
0
0
0
0
0
0
0
0
0
0
0
0
0
0
0
0
0
0
0
0
0
0
0
0
0
0
0
0
0
0
0
0
0
0
0
0
0
0
0
0
0
0
0
0
0
0
0
0
0
0
0
0
0
0
0
0
0
0
0
0
0
0
0
0
0
0
0
0
0
0
0
0
0
0
0
0
0
0
0
0
0
0
0
0
0
0
0
0
0
0
0
0
0
0
0
0
0
0
0
0
0
0
0
0
0
0
0
0
0
0
0
0
0
0
0
0
0
0
0
0
0
0
0
0
0
0
0
0
0
0
0
0
0
0
0
0
0
0
0
0
0
0
0
0
0
0
0
0
0
0
0
0
0
0
0
0
0
0
0
0
0
0
0
0
0
0
0
0
0
0
0
0
0
0
0
0
0
0
0
0
0
0
0
0
0
0
0
0
0
0
0
0
0
0
0
0
0
0
0
0
0
0
0
0
0
0
0
0
0
0
0
0
0
0
0
0
0
0
0
0
0
0
0
0
0
0
0
0
0
0
0
0
0
0
0
0
0
0
0
0
0
0
0
0
0
0
0
0
0
0
0
0
0
0
0
0
0
0
0
0
0
0
0
0
0
0
0
0
0
0
0
0
0
0
0
0
0
0
0
0
0
0
0
0
0
0
0
0
0
0
0
0
0
0
0
0
0
0
0
0
0
0
0
0
0
0
0
0
0
0
0
0
0
0
0
0
0
0
0
0
0
0
0
0
0
0
0
0
0
0
0
0
0
0
0
0
0
0
0
0
0
0
0
0
0
0
0
0
0
0
0
0
0
0
0
0
0
0
0
0
0
0
0
0
0
0
0
0
0
0
0
0
0
0
0
0
0
0
0
0
0
0
0
0
0
0
0
0
0
0
0
0
0
0
0
0
0
0
0
0
0
0
0
0
0
0
0
0
0
0
0
0
0
0
0
0
0
0
0
0
0
0
0
0
0
0
0
0
0
0
0
0
0
0
0
0
0
0
0
0
0
0
0
0
0
0
0
0
0
0
0
0
0
0
0
0
0
0
0
0
0
0
0
0
0
0
0
0
0
0
0
0
0
0
0
0
0
0
0
0
0
0
0
0
0
0
0
0
0
0
0
0
0
0
0
0
0
0
0
0
0
0
0
0
0
0
0
0
0
0
0
0
0
0
0
0
0
0
0
0
0
0
0
0
0
0
0
0
0
0
0
0
0
0
0
0
0
0
0
0
0
0
0
0
0
0
0
0
0
0
0
0
0
0
0
0
0
0
0
0
0
0
0
0
0
0
0
0
0
0
0
0
0
0
0
0
0
0
0
0
0
0
0
0
0
0
0
0
0
0
0
0
0
0
0
0
0
0
0
0
0
0
0
0
0
0
0
0
0
0
0
0
0
0
0
0
0
0
0
0
0
0
0
0
0
0
0
0
0
0
0
0
0
0
0
0
0
0
0
0
0
0
0
0
0
0
0
0
0
0
0
0
0
0
0
0
0
0
0
0
0
0
0
0
0
0
0
0
0
0
0
0
0
0
0
0
0
0
0
0
0
0
0
0
0
0
0
0
0
0
0
0
0
0
0
0
0
0
0
0
0
0
0
0
0
0
0
0
0
0
0
0
0
0
0
0
0
0
0
0
0
0
0
0
0
0
0
0
0
0
0
0
0
0
0
0
0
0
0
0
0
0
0
0
0
0
0
0
0
0
0
0
0
0
0
0
0
0
0
0
0
0
0
0
0
0
0
0
0
0
0
0
0
0
0
0
0
0
0
0
0
0
0
0
0
0
0
0
0
0
0
0
0
0
0
0
0
0
0
0
0
0
0
0
0
0
0
0
0
0
0
0
0
0
0
0
0
0
0
0
0
0
0
0
0
0
0
0
0
0
0
0
0
0
0
0
0
0
0
0
0
0
0
0
0
0
0
0
0
0
0
0
0
0
0
0
0
0
0
0
0
0
0
0
0
0
0
0
0
0
0
0
0
0
0
0
0
0
0
0
0
0
0
0
0
0
0
0
0
0
0
0
0
0
0
0
0
0
0
0
0
0
0
0
0
0
0
0
0
0
0
0
0
0
0
0
0
0
0
0
0
0
0
0
0
0
0
0
0
0
0
0
0
0
0
0
0
0
0
0
0
0
0
0
0
0
0
0
0
0
0
0
0
0
0
0
0
0
0
0
0
0
0
0
0
0
0
0
0
0
0
0
0
0
0
0
0
0
0
0
0
0
0
0
0
0
0
0
0
0
0
0
0
0
0
0
0
0
0
0
0
0
0
0
0
0
0
0
0
0
0
0
0
0
0
0
0
0
0
0
0
0
0
0
0
0
0
0
0
0
0
0
0
0
0
0
0
0
0
0
0
0
0
0
0
0
0
0
0
0
0
0
0
0
0
0
0
0
0
0
0
0
0
0
0
0
0
0
0
0
0
0
0
0
0
0
0
0
0
0
0
0
0
0
0
0
0
0
0
0
0
0
0
0
0
0
0
0
0
0
0
0
0
0
0
0
0
0
0
0
0
0
0
0
0
0
0
0
0
0
0
0
0
0
0
0
0
0
0
0
0
0
0
0
0
0
0
0
0
0
0
0
0
0
0
0
0
0
0
0
0
0
0
0
0
0
0
0
0
0
0
0
0
0
0
0
0
0
0
0
0
0
0
0
0
0
0
0
0
0
0
0
0
0
0
0
0
0
0
0
0
0
0
0
0
0
0
0
0
0
0
0
0
0
0
0
0
0
0
0
0
0
0
0
0
0
0
0
0
0
0
0
0
0
0
0
0
0
0
0
0
0
0
0
0
0
0
0
0
0
0
0
0
0
0
0
0
0
0
0
0
0
0
0
0
0
0
0
0
0
0
0
0
0
0
0
0
0
0
0
0
0
0
0
0
0
0
0
0
0
0
0
0
0
0
0
0
0
0
0
0
0
0
0
0
0
0
0
0
0
0
0
0
0
0
0
0
0
0
0
0
0
0
0
0
0
0
0
0
0
0
0
0
0
0
0
0
0
0
0
0
0
0
0
0
0
0
0
0
0
0
0
0
0
0
0
0
0
0
0
0
0
0
0
0
0
0
0
0
0
0
0
0
0
0
0
0
0
0
0
0
0
0
0
0
0
0
0
0
0
0
0
0
0
0
0
0
0
0
0
0
0
0
0
0
0
0
0
0
0
0
0
0
0
0
0
0
0
0
0
0
0
0
0
0
0
0
0
0
0
0
0
0
0
0
0
0
0
0
0
0
0
0
0
0
0
0
0
0
0
0
0
0
0
0
0
0
0
0
0
0
0
0
0
0
0
0
0
0
0
0
0
0
0
0
0
0
0
0
0
0
0
0
0
0
0
0
0
0
0
0
0
0
0
0
0
0
0
0
0
0
0
0
0
0
0
0
0
0
0
0
0
0
0
0
0
0
0
0
0
0
0
0
0
0
0
0
0
0
0
0
0
0
0
0
0
0
0
0
0
0
0
0
0
0
0
0
0
0
0
0
0
0
0
0
0
0
0
0
0
0
0
0
0
0
0
0
0
0
0
0
0
0
0
0
0
0
0
0
0
0
0
0
0
0
0
0
0
0
0
0
0
0
0
0
0
0
0
0
0
0
0
0
0
0
0
0
0
0
0
0
0
0
0
0
0
0
0
0
0
0
0
0
0
0
0
0
0
0
0
0
0
0
0
0
0
0
0
0
0
0
0
0
0
0
0
0
0
0
0
0
0
0
0
0
0
0
0
0
0
0
0
0
0
0
0
0
0
0
0
0
0
0
0
0
0
0
0
0
0
0
0
0
0
0
0
0
0
0
0
0
0
0
0
0
0
0
0
0
0
0
0
0
0
0
0
0
0
0
0
0
0
0
0
0
0
0
0
0
0
0
0
0
0
0
0
0
0
0
0
0
0
0
0
0
0
0
0
0
0
0
0
0
0
0
0
0
0
0
0
0
0
0
0
0
0
0
0
0
0
0
0
0
0
0
0
0
0
0
0
0
0
0
0
0
0
0
0
0
0
0
0
0
0
0
0
0
0
0
0
0
0
0
0
0
0
0
0
0
0
0
0
0
0
0
0
0
0
0
0
0
0
0
0
0
0
0
0
0
0
0
0
0
0
0
0
0
0
0
0
0
0
0
0
0
0
0
0
0
0
0
0
0
0
0
0
0
0
0
0
0
0
0
0
0
0
0
0
0
0
0
0
0
0
0
0
0
0
0
0
0
0
0
0
0
0
0
0
0
0
0
0
0
0
0
0
0
0
0
0
0
0
0
0
0
0
0
0
0
0
0
0
0
0
0
0
0
0
0
0
0
0
0
0
0
0
0
0
0
0
0
0
0
0
0
0
0
0
0
0
0
0
0
0
0
0
0
0
0
0
0
0
0
0
0
0
0
0
0
0
0
0
0
0
0
0
0
0
0
0
0
0
0
0
0
0
0
0
0
0
0
0
0
0
0
0
0
0
0
0
0
0
0
0
0
0
0
0
0
0
0
0
0
0
0
0
0
0
0
0
0
0
0
0
0
0
0
0
0
0
0
0
0
0
0
0
0
0
0
0
0
0
0
0
0
0
0
0
0
0
0
0
0
0
0
0
0
0
0
0
0
0
0
0
0
0
0
0
0
0
0
0
0
0
0
0
0
0
0
0
0
0
0
0
0
0
0
0
0
0
0
0
0
0
0
0
0
0
0
0
0
0
0
0
0
0
0
0
0
0
0
0
0
0
0
0
0
0
0
0
0
0
0
0
0
0
0
0
0
0
0
0
0
0
0
0
0
0
0
0
0
0
0
0
0
0
0
0
0
0
0
0
0
0
0
0
0
0
0
0
0
0
0
0
0
0
0
0
0
0
0
0
0
0
0
0
0
0
0
0
0
0
0
0
0
0
0
0
0
0
0
0
0
0
0
0
0
0
0
0
0
0
0
0
0
0
0
0
0
0
0
0
0
0
0
0
0
0
0
0
0
0
0
0
0
0
0
0
0
0
0
0
0
0
0
0
0
0
0
0
0
0
0
0
0
0
0
0
0
0
0
0
0
0
0
0
0
0
0
0
0
0
0
0
0
0
0
0
0
0
0
0
0
0
0
0
0
0
0
0
0
0
0
0
0
0
0
0
0
0
0
0
0
0
0
0
0
0
0
0
0
0
0
0
0
0
0
0
0
0
0
0
0
0
0
0
0
0
0
0
0
0
0
0
0
0
0
0
0
0
0
0
0
0
0
0
0
0
0
0
0
0
0
0
0
0
0
0
0
0
0
0
0
0
0
0
0
0
0
0
0
0
0
0
0
0
0
0
0
0
0
0
0
0
0
0
0
0
0
0
0
0
0
0
0
0
0
0
0
0
0
0
0
0
0
0
0
0
0
0
0
0
0
0
0
0
0
0
0
0
0
0
0
0
0
0
0
0
0
0
0
0
0
0
0
0
0
0
0
0
0
0
0
0
0
0
0
0
0
0
0
0
0
0
0
0
0
0
0
0
0
0
0
0
0
0
0
0
0
0
0
0
0
0
0
0
0
0
0
0
0
0
0
0
0
0
0
0
0
0
0
0
0
0
0
0
0
0
0
0
0
0
0
0
0
0
0
0
0
0
0
0
0
0
0
0
0
0
0
0
0
0
0
0
0
0
0
0
0
0
0
0
0
0
0
0
0
0
0
0
0
0
0
0
0
0
0
0
0
0
0
0
0
0
0
0
0
0
0
0
0
0
0
0
0
0
0
0
0
0
0
0
0
0
0
0
0
0
0
0
0
0
0
0
0
0
0
0
0
0
0
0
0
0
0
0
0
0
0
0
0
0
0
0
0
0
0
0
0
0
0
0
0
0
0
0
0
0
0
0
0
0
0
0
0
0
0
0
0
0
0
0
0
0
0
0
0
0
0
0
0
0
0
0
0
0
0
0
0
0
0
0
0
0
0
0
0
0
0
0
0
0
0
0
0
0
0
0
0
0
0
0
0
0
0
0
0
0
0
0
0
0
0
0
0
0
0
0
0
0
0
0
0
0
0
0
0
0
0
0
0
0
0
0
0
0
0
0
0
0
0
0
0
0
0
0
0
0
0
0
0
0
0
0
0
0
0
0
0
0
0
0
0
0
0
0
0
0
0
0
0
0
0
0
0
0
0
0
0
0
0
0
0
0
0
0
0
0
0
0
0
0
0
0
0
0
0
0
0
0
0
0
0
0
0
0
0
0
0
0
0
0
0
0
0
0
0
0
0
0
0
0
0
0
0
0
0
0
0
0
0
0
0
0
0
0
0
0
0
0
0
0
0
0
0
0
0
0
0
0
0
0
0
0
0
0
0
0
0
0
0
0
0
0
0
0
0
0
0
0
0
0
0
0
0
0
0
0
0
0
0
0
0
0
0
0
0
0
0
0
0
0
0
0
0
0
0
0
0
0
0
0
0
0
0
0
0
0
0
0
0
0
0
0
0
0
0
0
0
0
0
0
0
0
0
0
0
0
0
0
0
0
0
0
0
0
0
0
0
0
0
0
0
0
0
0
0
0
0
0
0
0
0
0
0
0
0
0
0
0
0
0
0
0
0
0
0
0
0
0
0
0
0
0
0
0
0
0
0
0
0
0
0
0
0
0
0
0
0
0
0
0
0
0
0
0
0
0
0
0
0
0
0
0
0
0
0
0
0
0
0
0
0
0
0
0
0
0
0
0
0
0
0
0
0
0
0
0
0
0
0
0
0
0
0
0
0
0
0
0
0
0
0
0
0
0
0
0
0
0
0
0
0
0
0
0
0
0
0
0
0
0
0
0
0
0
0
0
0
0
0
0
0
0
0
0
0
0
0
0
0
0
0
0
0
0
0
0
0
0
0
0
0
0
0
0
0
0
0
0
0
0
0
0
0
0
0
0
0
0
0
0
0
0
0
0
0
0
0
0
0
0
0
0
0
0
0
0
0
0
0
0
0
0
0
0
0
0
0
0
0
0
0
0
0
0
0
0
0
0
0
0
0
0
0
0
0
0
0
0
0
0
0
0
0
0
0
0
0
0
0
0
0
0
0
0
0
0
0
0
0
0
0
0
0
0
0
0
0
0
0
0
0
0
0
0
0
0
0
0
0
0
0
0
0
0
0
0
0
0
0
0
0
0
0
0
0
0
0
0
0
0
0
0
0
0
0
0
0
0
0
0
0
0
0
0
0
0
0
0
0
0
0
0
0
0
0
0
0
0
0
0
0
0
0
0
0
0
0
0
0
0
0
0
0
0
0
0
0
0
0
0
0
0
0
0
0
0
0
0
0
0
0
0
0
0
0
0
0
0
0
0
0
0
0
0
0
0
0
0
0
0
0
0
0
0
0
0
0
0
0
0
0
0
0
0
0
0
0
0
0
0
0
0
0
0
0
0
0
0
0
0
0
0
0
0
0
0
0
0
0
0
0
0
0
0
0
0
0
0
0
0
0
0
0
0
0
0
0
0
0
0
0
0
0
0
0
0
0
0
0
0
0
0
0
0
0
0
0
0
0
0
0
0
0
0
0
0
0
0
0
0
0
0
0
0
0
0
0
0
0
0
0
0
0
0
0
0
0
0
0
0
0
0
0
0
0
0
0
0
0
0
0
0
0
0
0
0
0
0
0
0
0
0
0
0
0
0
0
0
0
0
0
0
0
0
0
0
0
0
0
0
0
0
0
0
0
0
0
0
0
0
0
0
0
0
0
0
0
0
0
0
0
0
0
0
0
0
0
0
0
0
0
0
0
0
0
0
0
0
0
0
0
0
0
0
0
0
0
0
0
0
0
0
0
0
0
0
0
0
0
0
0
0
0
0
0
0
0
0
0
0
0
0
0
0
0
0
0
0
0
0
0
0
0
0
0
0
0
0
0
0
0
0
0
0
0
0
0
0
0
0
0
0
0
0
0
0
0
0
0
0
0
0
0
0
0
0
0
0
0
0
0
0
0
0
0
0
0
0
0
0
0
0
0
0
0
0
0
0
0
0
0
0
0
0
0
0
0
0
0
0
0
0
0
0
0
0
0
0
0
0
0
0
0
0
0
0
0
0
0
0
0
0
0
0
0
0
0
0
0
0
0
0
0
0
0
0
0
0
0
0
0
0
0
0
0
0
0
0
0
0
0
0
0
0
0
0
0
0
0
0
0
0
0
0
0
0
0
0
0
0
0
0
0
0
0
0
0
0
0
0
0
0
0
0
0
0
0
0
0
0
0
0
0
0
0
0
0
0
0
0
0
0
0
0
0
0
0
0
0
0
0
0
0
0
0
0
0
0
0
0
0
0
0
0
0
0
0
0
0
0
0
0
0
0
0
0
0
0
0
0
0
0
0
0
0
0
0
0
0
0
0
0
0
0
0
0
0
0
0
0
0
0
0
0
0
0
0
0
0
0
0
0
0
0
0
0
0
0
0
0
0
0
0
0
0
0
0
0
0
0
0
0
0
0
0
0
0
0
0
0
0
0
0
0
0
0
0
0
0
0
0
0
0
0
0
0
0
0
0
0
0
0
0
0
0
0
0
0
0
0
0
0
0
0
0
0
0
0
0
0
0
0
0
0
0
0
0
0
0
0
0
0
0
0
0
0
0
0
0
0
0
0
0
0
0
0
0
0
0
0
0
0
0
0
0
0
0
0
0
0
0
0
0
0
0
0
0
0
0
0
0
0
0
0
0
0
0
0
0
0
0
0
0
0
0
0
0
0
0
0
0
0
0
0
0
0
0
0
0
0
0
0
0
0
0
0
0
0
0
0
0
0
0
0
0
0
0
0
0
0
0
0
0
0
0
0
0
0
0
0
0
0
0
0
0
0
0
0
0
0
0
0
0
0
0
0
0
0
0
0
0
0
0
0
0
0
0
0
0
0
0
0
0
0
0
0
0
0
0
0
0
0
0
0
0
0
0
0
0
0
0
0
0
0
0
0
0
0
0
0
0
0
0
0
0
0
0
0
0
0
0
0
0
0
0
0
0
0
0
0
0
0
0
0
0
0
0
0
0
0
0
0
0
0
0
0
0
0
0
0
0
0
0
0
0
0
0
0
0
0
0
0
0
0
0
0
0
0
0
0
0
0
0
0
0
0
0
0
0
0
0
0
0
0
0
0
0
0
0
0
0
0
0
0
0
0
0
0
0
0
0
0
0
0
0
0
0
0
0
0
0
0
0
0
0
0
0
0
0
0
0
0
0
0
0
0
0
0
0
0
0
0
0
0
0
0
0
0
0
0
0
0
0
0
0
0
0
0
0
0
0
0
0
0
0
0
0
0
0
0
0
0
0
0
0
0
0
0
0
0
0
0
0
0
0
0
0
0
0
0
0
0
0
0
0
0
0
0
0
0
0
0
0
0
0
0
0
0
0
0
0
0
0
0
0
0
0
0
0
0
0
0
0
0
0
0
0
0
0
0
0
0
0
0
0
0
0
0
0
0
0
0
0
0
0
0
0
0
0
0
0
0
0
0
0
0
0
0
0
0
0
0
0
0
0
0
0
0
0
0
0
0
0
0
0
0
0
0
0
0
0
0
0
0
0
0
0
0
0
0
0
0
0
0
0
0
0
0
0
0
0
0
0
0
0
0
0
0
0
0
0
0
0
0
0
0
0
0
0
0
0
0
0
0
0
0
0
0
0
0
0
0
0
0
0
0
0
0
0
0
0
0
0
0
0
0
0
0
0
0
0
0
0
0
0
0
0
0
0
0
0
0
0
0
0
0
0
0
0
0
0
0
0
0
0
0
0
0
0
0
0
0
0
0
0
0
0
0
0
0
0
0
0
0
0
0
0
0
0
0
0
0
0
0
0
0
0
0
0
0
0
0
0
0
0
0
0
0
0
0
0
0
0
0
0
0
0
0
0
0
0
0
0
0
0
0
0
0
0
0
0
0
0
0
0
0
0
0
0
0
0
0
0
0
0
0
0
0
0
0
0
0
0
0
0
0
0
0
0
0
0
0
0
0
0
0
0
0
0
0
0
0
0
0
0
0
0
0
0
0
0
0
0
0
0
0
0
0
0
0
0
0
0
0
0
0
0
0
0
0
0
0
0
0
0
0
0
0
0
0
0
0
0
0
0
0
0
0
0
0
0
0
0
0
0
0
0
0
0
0
0
0
0
0
0
0
0
0
0
0
0
0
0
0
0
0
0
0
0
0
0
0
0
0
0
0
0
0
0
0
0
0
0
0
0
0
0
0
0
0
0
0
0
0
0
0
0
0
0
0
0
0
0
0
0
0
0
0
0
0
0
0
0
0
0
0
0
0
0
0
0
0
0
0
0
0
0
0
0
0
0
0
0
0
0
0
0
0
0
0
0
0
0
0
0
0
0
0
0
0
0
0
0
0
0
0
0
0
0
0
0
0
0
0
0
0
0
0
0
0
0
0
0
0
0
0
0
0
0
0
0
0
0
0
0
0
0
0
0
0
0
0
0
0
0
0
0
0
0
0
0
0
0
0
0
0
0
0
0
0
0
0
0
0
0
0
0
0
0
0
0
0
0
0
0
0
0
0
0
0
0
0
0
0
0
0
0
0
0
0
0
0
0
0
0
0
0
0
0
0
0
0
0
0
0
0
0
0
0
0
0
0
0
0
0
0
0
0
0
0
0
0
0
0
0
0
0
0
0
0
0
0
0
0
0
0
0
0
0
0
0
0
0
0
0
0
0
0
0
0
0
0
0
0
0
0
0
0
0
0
0
0
0
0
0
0
0
0
0
0
0
0
0
0
0
0
0
0
0
0
0
0
0
0
0
0
0
0
0
0
0
0
0
0
0
0
0
0
0
0
0
0
0
0
0
0
0
0
0
0
0
0
0
0
0
0
0
0
0
0
0
0
0
0
0
0
0
0
0
0
0
0
0
0
0
0
0
0
0
0
0
0
0
0
0
0
0
0
0
0
0
0
0
0
0
0
0
0
0
0
0
0
0
0
0
0
0
0
0
0
0
0
0
0
0
0
0
0
0
0
0
0
0
0
0
0
0
0
0
0
0
0
0
0
0
0
0
0
0
0
0
0
0
0
0
0
0
0
0
0
0
0
0
0
0
0
0
0
0
0
0
0
0
0
0
0
0
0
0
0
0
0
0
0
0
0
0
0
0
0
0
0
0
0
0
0
0
0
0
0
0
0
0
0
0
0
0
0
0
0
0
0
0
0
0
0
0
0
0
0
0
0
0
0
0
0
0
0
0
0
0
0
0
0
0
0
0
0
0
0
0
0
0
0
0
0
0
0
0
0
0
0
0
0
0
0
0
0
0
0
0
0
0
0
0
0
0
0
0
0
0
0
0
0
0
0
0
0
0
0
0
0
0
0
0
0
0
0
0
0
0
0
0
0
0
0
0
0
0
0
0
0
0
0
0
0
0
0
0
0
0
0
0
0
0
0
0
0
0
0
0
0
0
0
0
0
0
0
0
0
0
0
0
0
0
0
0
0
0
0
0
0
0
0
0
0
0
0
0
0
0
0
0
0
0
0
0
0
0
0
0
0
0
0
0
0
0
0
0
0
0
0
0
0
0
0
0
0
0
0
0
0
0
0
0
0
0
0
0
0
0
0
0
0
0
0
0
0
0
0
0
0
0
0
0
0
0
0
0
0
0
0
0
0
0
0
0
0
0
0
0
0
0
0
0
0
0
0
0
0
0
0
0
0
0
0
0
0
0
0
0
0
0
0
0
0
0
0
0
0
0
0
0
0
0
0
0
0
0
0
0
0
0
0
0
0
0
0
0
0
0
0
0
0
0
0
0
0
0
0
0
0
0
0
0
0
0
0
0
0
0
0
0
0
0
0
0
0
0
0
0
0
0
0
0
0
0
0
0
0
0
0
0
0
0
0
0
0
0
0
0
0
0
0
0
0
0
0
0
0
0
0
0
0
0
0
0
0
0
0
0
0
0
0
0
0
0
0
0
0
0
0
0
0
0
0
0
0
0
0
0
0
0
0
0
0
0
0
0
0
0
0
0
0
0
0
0
0
0
0
0
0
0
0
0
0
0
0
0
0
0
0
0
0
0
0
0
0
0
0
0
0
0
0
0
0
0
0
0
0
0
0
0
0
0
0
0
0
0
0
0
0
0
0
0
0
0
0
0
0
0
0
0
0
0
0
0
0
0
0
0
0
0
0
0
0
0
0
0
0
0
0
0
0
0
0
0
0
0
0
0
0
0
0
0
0
0
0
0
0
0
0
0
0
0
0
0
0
0
0
0
0
0
0
0
0
0
0
0
0
0
0
0
0
0
0
0
0
0
0
0
0
0
0
0
0
0
0
0
0
0
0
0
0
0
0
0
0
0
0
0
0
0
0
0
0
0
0
0
0
0
0
0
0
0
0
0
0
0
0
0
0
0
0
0
0
0
0
0
0
0
0
0
0
0
0
0
0
0
0
0
0
0
0
0
0
0
0
0
0
0
0
0
0
0
0
0
0
0
0
0
0
0
0
0
0
0
0
0
0
0
0
0
0
0
0
0
0
0
0
0
0
0
0
0
0
0
0
0
0
0
0
0
0
0
0
0
0
0
0
0
0
0
0
0
0
0
0
0
0
0
0
0
0
0
0
0
0
0
0
0
0
0
0
0
0
0
0
0
0
0
0
0
0
0
0
0
0
0
0
0
0
0
0
0
0
0
0
0
0
0
0
0
0
0
0
0
0
0
0
0
0
0
0
0
0
0
0
0
0
0
0
0
0
0
0
0
0
0
0
0
0
0
0
0
0
0
0
0
0
0
0
0
0
0
0
0
0
0
0
0
0
0
0
0
0
0
0
0
0
0
0
0
0
0
0
0
0
0
0
0
0
0
0
0
0
0
0
0
0
0
0
0
0
0
0
0
0
0
0
0
0
0
0
0
0
0
0
0
0
0
0
0
0
0
0
0
0
0
0
0
0
0
0
0
0
0
0
0
0
0
0
0
0
0
0
0
0
0
0
0
0
0
0
0
0
0
0
0
0
0
0
0
0
0
0
0
0
0
0
0
0
0
0
0
0
0
0
0
0
0
0
0
0
0
0
0
0
0
0
0
0
0
0
0
0
0
0
0
0
0
0
0
0
0
0
0
0
0
0
0
0
0
0
0
0
0
0
0
0
0
0
0
0
0
0
0
0
0
0
0
0
0
0
0
0
0
0
0
0
0
0
0
0
0
0
0
0
0
0
0
0
0
0
0
0
0
0
0
0
0
0
0
0
0
0
0
0
0
0
0
0
0
0
0
0
0
0
0
0
0
0
0
0
0
0
0
0
0
0
0
0
0
0
0
0
0
0
0
0
0
0
0
0
0
0
0
0
0
0
0
0
0
0
0
0
0
0
0
0
0
0
0
0
0
0
0
0
0
0
0
0
0
0
0
0
0
0
0
0
0
0
0
0
0
0
0
0
0
0
0
0
0
0
0
0
0
0
0
0
0
0
0
0
0
0
0
0
0
0
0
0
0
0
0
0
0
0
0
0
0
0
0
0
0
0
0
0
0
0
0
0
0
0
0
0
0
0
0
0
0
0
0
0
0
0
0
0
0
0
0
0
0
0
0
0
0
0
0
0
0
0
0
0
0
0
0
0
0
0
0
0
0
0
0
0
0
0
0
0
0
0
0
0
0
0
0
0
0
0
0
0
0
0
0
0
0
0
0
0
0
0
0
0
0
0
0
0
0
0
0
0
0
0
0
0
0
0
0
0
0
0
0
0
0
0
0
0
0
0
0
0
0
0
0
0
0
0
0
0
0
0
0
0
0
0
0
0
0
0
0
0
0
0
0
0
0
0
0
0
0
0
0
0
0
0
0
0
0
0
0
0
0
0
0
0
0
0
0
0
0
0
0
0
0
0
0
0
0
0
0
0
0
0
0
0
0
0
0
0
0
0
0
0
0
0
0
0
0
0
0
0
0
0
0
0
0
0
0
0
0
0
0
0
0
0
0
0
0
0
0
0
0
0
0
0
0
0
0
0
0
0
0
0
0
0
0
0
0
0
0
0
0
0
0
0
0
0
0
0
0
0
0
0
0
0
0
0
0
0
0
0
0
0
0
0
0
0
0
0
0
0
0
0
0
0
0
0
0
0
0
0
0
0
0
0
0
0
0
0
0
0
0
0
0
0
0
0
0
0
0
0
0
0
0
0
0
0
0
0
0
0
0
0
0
0
0
0
0
0
0
0
0
0
0
0
0
0
0
0
0
0
0
0
0
0
0
0
0
0
0
0
0
0
0
0
0
0
0
0
0
0
0
0
0
0
0
0
0
0
0
0
0
0
0
0
0
0
0
0
0
0
0
0
0
0
0
0
0
0
0
0
0
0
0
0
0
0
0
0
0
0
0
0
0
0
0
0
0
0
0
0
0
0
0
0
0
0
0
0
0
0
0
0
0
0
0
0
0
0
0
0
0
0
0
0
0
0
0
0
0
0
0
0
0
0
0
0
0
0
0
0
0
0
0
0
0
0
0
0
0
0
0
0
0
0
0
0
0
0
0
0
0
0
0
0
0
0
0
0
0
0
0
0
0
0
0
0
0
0
0
0
0
0
0
0
0
0
0
0
0
0
0
0
0
0
0
0
0
0
0
0
0
0
0
0
0
0
0
0
0
0
0
0
0
0
0
0
0
0
0
0
0
0
0
0
0
0
0
0
0
0
0
0
0
0
0
0
0
0
0
0
0
0
0
0
0
0
0
0
0
0
0
0
0
0
0
0
0
0
0
0
0
0
0
0
0
0
0
0
0
0
0
0
0
0
0
0
0
0
0
0
0
0
0
0
0
0
0
0
0
0
0
0
0
0
0
0
0
0
0
0
0
0
0
0
0
0
0
0
0
0
0
0
0
0
0
0
0
0
0
0
0
0
0
0
0
0
0
0
0
0
0
0
0
0
0
0
0
0
0
0
0
0
0
0
0
0
0
0
0
0
0
0
0
0
0
0
0
0
0
0
0
0
0
0
0
0
0
0
0
0
0
0
0
0
0
0
0
0
0
0
0
0
0
0
0
0
0
0
0
0
0
0
0
0
0
0
0
0
0
0
0
0
0
0
0
0
0
0
0
0
0
0
0
0
0
0
0
0
0
0
0
0
0
0
0
0
0
0
0
0
0
0
0
0
0
0
0
0
0
0
0
0
0
0
0
0
0
0
0
0
0
0
0
0
0
0
0
0
0
0
0
0
0
0
0
0
0
0
0
0
0
0
0
0
0
0
0
0
0
0
0
0
0
0
0
0
0
0
0
0
0
0
0
0
0
0
0
0
0
0
0
0
0
0
0
0
0
0
0
0
0
0
0
0
0
0
0
0
0
0
0
0
0
0
0
0
0
0
0
0
0
0
0
0
0
0
0
0
0
0
0
0
0
0
0
0
0
0
0
0
0
0
0
0
0
0
0
0
0
0
0
0
0
0
0
0
0
0
0
0
0
0
0
0
0
0
0
0
0
0
0
0
0
0
0
0
0
0
0
0
0
0
0
0
0
0
0
0
0
0
0
0
0
0
0
0
0
0
0
0
0
0
0
0
0
0
0
0
0
0
0
0
0
0
0
0
0
0
0
0
0
0
0
0
0
0
0
0
0
0
0
0
0
0
0
0
0
0
0
0
0
0
0
0
0
0
0
0
0
0
0
0
0
0
0
0
0
0
0
0
0
0
0
0
0
0
0
0
0
0
0
0
0
0
0
0
0
0
0
0
0
0
0
0
0
0
0
0
0
0
0
0
0
0
0
0
0
0
0
0
0
0
0
0
0
0
0
0
0
0
0
0
0
0
0
0
0
0
0
0
0
0
0
0
0
0
0
0
0
0
0
0
0
0
0
0
0
0
0
0
0
0
0
0
0
0
0
0
0
0
0
0
0
0
0
0
0
0
0
0
0
0
0
0
0
0
0
0
0
0
0
0
0
0
0
0
0
0
0
0
0
0
0
0
0
0
0
0
0
0
0
0
0
0
0
0
0
0
0
0
0
0
0
0
0
0
0
0
0
0
0
0
0
0
0
0
0
0
0
0
0
0
0
0
0
0
0
0
0
0
0
0
0
0
0
0
0
0
0
0
0
0
0
0
0
0
0
0
0
0
0
0
0
0
0
0
0
0
0
0
0
0
0
0
0
0
0
0
0
0
0
0
0
0
0
0
0
0
0
0
0
0
0
0
0
0
0
0
0
0
0
0
0
0
0
0
0
0
0
0
0
0
0
0
0
0
0
0
0
0
0
0
0
0
0
0
0
0
0
0
0
0
0
0
0
0
0
0
0
0
0
0
0
0
0
0
0
0
0
0
0
0
0
0
0
0
0
0
0
0
0
0
0
0
0
0
0
0
0
0
0
0
0
0
0
0
0
0
0
0
0
0
0
0
0
0
0
0
0
0
0
0
0
0
0
0
0
0
0
0
0
0
0
0
0
0
0
0
0
0
0
0
0
0
0
0
0
0
0
0
0
0
0
0
0
0
0
0
0
0
0
0
0
0
0
0
0
0
0
0
0
0
0
0
0
0
0
0
0
0
0
0
0
0
0
0
0
0
0
0
0
0
0
0
0
0
0
0
0
0
0
0
0
0
0
0
0
0
0
0
0
0
0
0
0
0
0
0
0
0
0
0
0
0
0
0
0
0
0
0
0
0
0
0
0
0
0
0
0
0
0
0
0
0
0
0
0
0
0
0
0
0
0
0
0
0
0
0
0
0
0
0
0
0
0
0
0
0
0
0
0
0
0
0
0
0
0
0
0
0
0
0
0
0
0
0
0
0
0
0
0
0
0
0
0
0
0
0
0
0
0
0
0
0
0
0
0
0
0
0
0
0
0
0
0
0
0
0
0
0
0
0
0
0
0
0
0
0
0
0
0
0
0
0
0
0
0
0
0
0
0
0
0
0
0
0
0
0
0
0
0
0
0
0
0
0
0
0
0
0
0
0
0
0
0
0
0
0
0
0
0
0
0
0
0
0
0
0
0
0
0
0
0
0
0
0
0
0
0
0
0
0
0
0
0
0
0
0
0
0
0
0
0
0
0
0
0
0
0
0
0
0
0
0
0
0
0
0
0
0
0
0
0
0
0
0
0
0
0
0
0
0
0
0
0
0
0
0
0
0
0
0
0
0
0
0
0
0
0
0
0
0
0
0
0
0
0
0
0
0
0
0
0
0
0
0
0
0
0
0
0
0
0
0
0
0
0
0
0
0
0
0
0
0
0
0
0
0
0
0
0
0
0
0
0
0
0
0
0
0
0
0
0
0
0
0
0
0
0
0
0
0
0
0
0
0
0
0
0
0
0
0
0
0
0
0
0
0
0
0
0
0
0
0
0
0
0
0
0
0
0
0
0
0
0
0
0
0
0
0
0
0
0
0
0
0
0
0
0
0
0
0
0
0
0
0
0
0
0
0
0
0
0
0
0
0
0
0
0
0
0
0
0
0
0
0
0
0
0
0
0
0
0
0
0
0
0
0
0
0
0
0
0
0
0
0
0
0
0
0
0
0
0
0
0
0
0
0
0
0
0
0
0
0
0
0
0
0
0
0
0
0
0
0
0
0
0
0
0
0
0
0
0
0
0
0
0
0
0
0
0
0
0
0
0
0
0
0
0
0
0
0
0
0
0
0
0
0
0
0
0
0
0
0
0
0
0
0
0
0
0
0
0
0
0
0
0
0
0
0
0
0
0
0
0
0
0
0
0
0
0
0
0
0
0
0
0
0
0
0
0
0
0
0
0
0
0
0
0
0
0
0
0
0
0
0
0
0
0
0
0
0
0
0
0
0
0
0
0
0
0
0
0
0
0
0
0
0
0
0
0
0
0
0
0
0
0
0
0
0
0
0
0
0
0
0
0
0
0
0
0
0
0
0
0
0
0
0
0
0
0
0
0
0
0
0
0
0
0
0
0
0
0
0
0
0
0
0
0
0
0
0
0
0
0
0
0
0
0
0
0
0
0
0
0
0
0
0
0
0
0
0
0
0
0
0
0
0
0
0
0
0
0
0
0
0
0
0
0
0
0
0
0
0
0
0
0
0
0
0
0
0
0
0
0
0
0
0
0
0
0
0
0
0
0
0
0
0
0
0
0
0
0
0
0
0
0
0
0
0
0
0
0
0
0
0
0
0
0
0
0
0
0
0
0
0
0
0
0
0
0
0
0
0
0
0
0
0
0
0
0
0
0
0
0
0
0
0
0
0
0
0
0
0
0
0
0
0
0
0
0
0
0
0
0
0
0
0
0
0
0
0
0
0
0
0
0
0
0
0
0
0
0
0
0
0
0
0
0
0
0
0
0
0
0
0
0
0
0
0
0
0
0
0
0
0
0
0
0
0
0
0
0
0
0
0
0
0
0
0
0
0
0
0
0
0
0
0
0
0
0
0
0
0
0
0
0
0
0
0
0
0
0
0
0
0
0
0
0
0
0
0
0
0
0
0
0
0
0
0
0
0
0
0
0
0
0
0
0
0
0
0
0
0
0
0
0
0
0
0
0
0
0
0
0
0
0
0
0
0
0
0
0
0
0
0
0
0
0
0
0
0
0
0
0
0
0
0
0
0
0
0
0
0
0
0
0
0
0
0
0
0
0
0
0
0
0
0
0
0
0
0
0
0
0
0
0
0
0
0
0
0
0
0
0
0
0
0
0
0
0
0
0
0
0
0
0
0
0
0
0
0
0
0
0
0
0
0
0
0
0
0
0
0
0
0
0
0
0
0
0
0
0
0
0
0
0
0
0
0
0
0
0
0
0
0
0
0
0
0
0
0
0
0
0
0
0
0
0
0
0
0
0
0
0
0
0
0
0
0
0
0
0
0
0
0
0
0
0
0
0
0
0
0
0
0
0
0
0
0
0
0
0
0
0
0
0
0
0
0
0
0
0
0
0
0
0
0
0
0
0
0
0
0
0
0
0
0
0
0
0
0
0
0
0
0
0
0
0
0
0
0
0
0
0
0
0
0
0
0
0
0
0
0
0
0
0
0
0
0
0
0
0
0
0
0
0
0
0
0
0
0
0
0
0
0
0
0
0
0
0
0
0
0
0
0
0
0
0
0
0
0
0
0
0
0
0
0
0
0
0
0
0
0
0
0
0
0
0
0
0
0
0
0
0
0
0
0
0
0
0
0
0
0
0
0
0
0
0
0
0
0
0
0
0
0
0
0
0
0
0
0
0
0
0
0
0
0
0
0
0
0
0
0
0
0
0
0
0
0
0
0
0
0
0
0
0
0
0
0
0
0
0
0
0
0
0
0
0
0
0
0
0
0
0
0
0
0
0
0
0
0
0
0
0
0
0
0
0
0
0
0
0
0
0
0
0
0
0
0
0
0
0
0
0
0
0
0
0
0
0
0
0
0
0
0
0
0
0
0
0
0
0
0
0
0
0
0
0
0
0
0
0
0
0
0
0
0
0
0
0
0
0
0
0
0
0
0
0
0
0
0
0
0
0
0
0
0
0
0
0
0
0
0
0
0
0
0
0
0
0
0
0
0
0
0
0
0
0
0
0
0
0
0
0
0
0
0
0
0
0
0
0
0
0
0
0
0
0
0
0
0
0
0
0
0
0
0
0
0
0
0
0
0
0
0
0
0
0
0
0
0
0
0
0
0
0
0
0
0
0
0
0
0
0
0
0
0
0
0
0
0
0
0
0
0
0
0
0
0
0
0
0
0
0
0
0
0
0
0
0
0
0
0
0
0
0
0
0
0
0
0
0
0
0
0
0
0
0
0
0
0
0
0
0
0
0
0
0
0
0
0
0
0
0
0
0
0
0
0
0
0
0
0
0
0
0
0
0
0
0
0
0
0
0
0
0
0
0
0
0
0
0
0
0
0
0
0
0
0
0
0
0
0
0
0
0
0
0
0
0
0
0
0
0
0
0
0
0
0
0
0
0
0
0
0
0
0
0
0
0
0
0
0
0
0
0
0
0
0
0
0
0
0
0
0
0
0
0
0
0
0
0
0
0
0
0
0
0
0
0
0
0
0
0
0
0
0
0
0
0
0
0
0
0
0
0
0
0
0
0
0
0
0
0
0
0
0
0
0
0
0
0
0
0
0
0
0
0
0
0
0
0
0
0
0
0
0
0
0
0
0
0
0
0
0
0
0
0
0
0
0
0
0
0
0
0
0
0
0
0
0
0
0
0
0
0
0
0
0
0
0
0
0
0
0
0
0
0
0
0
0
0
0
0
0
0
0
0
0
0
0
0
0
0
0
0
0
0
0
0
0
0
0
0
0
0
0
0
0
0
0
0
0
0
0
0
0
0
0
0
0
0
0
0
0
0
0
0
0
0
0
0
0
0
0
0
0
0
0
0
0
0
0
0
0
0
0
0
0
0
0
0
0
0
0
0
0
0
0
0
0
0
0
0
0
0
0
0
0
0
0
0
0
0
0
0
0
0
0
0
0
0
0
0
0
0
0
0
0
0
0
0
0
0
0
0
0
0
0
0
0
0
0
0
0
0
0
0
0
0
0
0
0
0
0
0
0
0
0
0
0
0
0
0
0
0
0
0
0
0
0
0
0
0
0
0
0
0
0
0
0
0
0
0
0
0
0
0
0
0
0
0
0
0
0
0
0
0
0
0
0
0
0
0
0
0
0
0
0
0
0
0
0
0
0
0
0
0
0
0
0
0
0
0
0
0
0
0
0
0
0
0
0
0
0
0
0
0
0
0
0
0
0
0
0
0
0
0
0
0
0
0
0
0
0
0
0
0
0
0
0
0
0
0
0
0
0
0
0
0
0
0
0
0
0
0
0
0
0
0
0
0
0
0
0
0
0
0
0
0
0
0
0
0
0
0
0
0
0
0
0
0
0
0
0
0
0
0
0
0
0
0
0
0
0
0
0
0
0
0
0
0
0
0
0
0
0
0
0
0
0
0
0
0
0
0
0
0
0
0
0
0
0
0
0
0
0
0
0
0
0
0
0
0
0
0
0
0
0
0
0
0
0
0
0
0
0
0
0
0
0
0
0
0
0
0
0
0
0
0
0
0
0
0
0
0
0
0
0
0
0
0
0
0
0
0
0
0
0
0
0
0
0
0
0
0
0
0
0
0
0
0
0
0
0
0
0
0
0
0
0
0
0
0
0
0
0
0
0
0
0
0
0
0
0
0
0
0
0
0
0
0
0
0
0
0
0
0
0
0
0
0
0
0
0
0
0
0
0
0
0
0
0
0
0
0
0
0
0
0
0
0
0
0
0
0
0
0
0
0
0
0
0
0
0
0
0
0
0
0
0
0
0
0
0
0
0
0
0
0
0
0
0
0
0
0
0
0
0
0
0
0
0
0
0
0
0
0
0
0
0
0
0
0
0
0
0
0
0
0
0
0
0
0
0
0
0
0
0
0
0
0
0
0
0
0
0
0
0
0
0
0
0
0
0
0
0
0
0
0
0
0
0
0
0
0
0
0
0
0
0
0
0
0
0
0
0
0
0
0
0
0
0
0
0
0
0
0
0
0
0
0
0
0
0
0
0
0
0
0
0
0
0
0
0
0
0
0
0
0
0
0
0
0
0
0
0
0
0
0
0
0
0
0
0
0
0
0
0
0
0
0
0
0
0
0
0
0
0
0
0
0
0
0
0
0
0
0
0
0
0
0
0
0
0
0
0
0
0
0
0
0
0
0
0
0
0
0
0
0
0
0
0
0
0
0
0
0
0
0
0
0
0
0
0
0
0
0
0
0
0
0
0
0
0
0
0
0
0
0
0
0
0
0
0
0
0
0
0
0
0
0
0
0
0
0
0
0
0
0
0
0
0
0
0
0
0
0
0
0
0
0
0
0
0
0
0
0
0
0
0
0
0
0
0
0
0
0
0
0
0
0
0
0
0
0
0
0
0
0
0
0
0
0
0
0
0
0
0
0
0
0
0
0
0
0
0
0
0
0
0
0
0
0
0
0
0
0
0
0
0
0
0
0
0
0
0
0
0
0
0
0
0
0
0
0
0
0
0
0
0
0
0
0
0
0
0
0
0
0
0
0
0
0
0
0
0
0
0
0
0
0
0
0
0
0
0
0
0
0
0
0
0
0
0
0
0
0
0
0
0
0
0
0
0
0
0
0
0
0
0
0
0
0
0
0
0
0
0
0
0
0
0
0
0
0
0
0
0
0
0
0
0
0
0
0
0
0
0
0
0
0
0
0
0
0
0
0
0
0
0
0
0
0
0
0
0
0
0
0
0
0
0
0
0
0
0
0
0
0
0
0
0
0
0
0
0
0
0
0
0
0
0
0
0
0
0
0
0
0
0
0
0
0
0
0
0
0
0
0
0
0
0
0
0
0
0
0
0
0
0
0
0
0
0
0
0
0
0
0
0
0
0
0
0
0
0
0
0
0
0
0
0
0
0
0
0
0
0
0
0
0
0
0
0
0
0
0
0
0
0
0
0
0
0
0
0
0
0
0
0
0
0
0
0
0
0
0
0
0
0
0
0
0
0
0
0
0
0
0
0
0
0
0
0
0
0
0
0
0
0
0
0
0
0
0
0
0
0
0
0
0
0
0
0
0
0
0
0
0
0
0
0
0
0
0
0
0
0
0
0
0
0
0
0
0
0
0
0
0
0
0
0
0
0
0
0
0
0
0
0
0
0
0
0
0
0
0
0
0
0
0
0
0
0
0
0
0
0
0
0
0
0
0
0
0
0
0
0
0
0
0
0
0
0
0
0
0
0
0
0
0
0
0
0
0
0
0
0
0
0
0
0
0
0
0
0
0
0
0
0
0
0
0
0
0
0
0
0
0
0
0
0
0
0
0
0
0
0
0
0
0
0
0
0
0
0
0
0
0
0
0
0
0
0
0
0
0
0
0
0
0
0
0
0
0
0
0
0
0
0
0
0
0
0
0
0
0
0
0
0
0
0
0
0
0
0
0
0
0
0
0
0
0
0
0
0
0
0
0
0
0
0
0
0
0
0
0
0
0
0
0
0
0
0
0
0
0
0
0
0
0
0
0
0
0
0
0
0
0
0
0
0
0
0
0
0
0
0
0
0
0
0
0
0
0
0
0
0
0
0
0
0
0
0
0
0
0
0
0
0
0
0
0
0
0
0
0
0
0
0
0
0
0
0
0
0
0
0
0
0
0
0
0
0
0
0
0
0
0
0
0
0
0
0
0
0
0
0
0
0
0
0
0
0
0
0
0
0
0
0
0
0
0
0
0
0
0
0
0
0
0
0
0
0
0
0
0
0
0
0
0
0
0
0
0
0
0
0
0
0
0
0
0
0
0
0
0
0
0
0
0
0
0
0
0
0
0
0
0
0
0
0
0
0
0
0
0
0
0
0
0
0
0
0
0
0
0
0
0
0
0
0
0
0
0
0
0
0
0
0
0
0
0
0
0
0
0
0
0
0
0
0
0
0
0
0
0
0
0
0
0
0
0
0
0
0
0
0
0
0
0
0
0
0
0
0
0
0
0
0
0
0
0
0
0
0
0
0
0
0
0
0
0
0
0
0
0
0
0
0
0
0
0
0
0
0
0
0
0
0
0
0
0
0
0
0
0
0
0
0
0
0
0
0
0
0
0
0
0
0
0
0
0
0
0
0
0
0
0
0
0
0
0
0
0
0
0
0
0
0
0
0
0
0
0
0
0
0
0
0
0
0
0
0
0
0
0
0
0
0
0
0
0
0
0
0
0
0
0
0
0
0
0
0
0
0
0
0
0
0
0
0
0
0
0
0
0
0
0
0
0
0
0
0
0
0
0
0
0
0
0
0
0
0
0
0
0
0
0
0
0
0
0
0
0
0
0
0
0
0
0
0
0
0
0
0
0
0
0
0
0
0
0
0
0
0
0
0
0
0
0
0
0
0
0
0
0
0
0
0
0
0
0
0
0
0
0
0
0
0
0
0
0
0
0
0
0
0
0
0
0
0
0
0
0
0
0
0
0
0
0
0
0
0
0
0
0
0
0
0
0
0
0
0
0
0
0
0
0
0
0
0
0
0
0
0
0
0
0
0
0
0
0
0
0
0
0
0
0
0
0
0
0
0
0
0
0
0
0
0
0
0
0
0
0
0
0
0
0
0
0
0
0
0
0
0
0
0
0
0
0
0
0
0
0
0
0
0
0
0
0
0
0
0
0
0
0
0
0
0
0
0
0
0
0
0
0
0
0
0
0
0
0
0
0
0
0
0
0
0
0
0
0
0
0
0
0
0
0
0
0
0
0
0
0
0
0
0
0
0
0
0
0
0
0
0
0
0
0
0
0
0
0
0
0
0
0
0
0
0
0
0
0
0
0
0
0
0
0
0
0
0
0
0
0
0
0
0
0
0
0
0
0
0
0
0
0
0
0
0
0
0
0
0
0
0
0
0
0
0
0
0
0
0
0
0
0
0
0
0
0
0
0
0
0
0
0
0
0
0
0
0
0
0
0
0
0
0
0
0
0
0
0
0
0
0
0
0
0
0
0
0
0
0
0
0
0
0
0
0
0
0
0
0
0
0
0
0
0
0
0
0
0
0
0
0
0
0
0
0
0
0
0
0
0
0
0
0
0
0
0
0
0
0
0
0
0
0
0
0
0
0
0
0
0
0
0
0
0
0
0
0
0
0
0
0
0
0
0
0
0
0
0
0
0
0
0
0
0
0
0
0
0
0
0
0
0
0
0
0
0
0
0
0
0
0
0
0
0
0
0
0
0
0
0
0
0
0
0
0
0
0
0
0
0
0
0
0
0
0
0
0
0
0
0
0
0
0
0
0
0
0
0
0
0
0
0
0
0
0
0
0
0
0
0
0
0
0
0
0
0
0
0
0
0
0
0
0
0
0
0
0
0
0
0
0
0
0
0
0
0
0
0
0
0
0
0
0
0
0
0
0
0
0
0
0
0
0
0
0
0
0
0
0
0
0
0
0
0
0
0
0
0
0
0
0
0
0
0
0
0
0
0
0
0
0
0
0
0
0
0
0
0
0
0
0
0
0
0
0
0
0
0
0
0
0
0
0
0
0
0
0
0
0
0
0
0
0
0
0
0
0
0
0
0
0
0
0
0
0
0
0
0
0
0
0
0
0
0
0
0
0
0
0
0
0
0
0
0
0
0
0
0
0
0
0
0
0
0
0
0
0
0
0
0
0
0
0
0
0
0
0
0
0
0
0
0
0
0
0
0
0
0
0
0
0
0
0
0
0
0
0
0
0
0
0
0
0
0
0
0
0
0
0
0
0
0
0
0
0
0
0
0
0
0
0
0
0
0
0
0
0
0
0
0
0
0
0
0
0
0
0
0
0
0
0
0
0
0
0
0
0
0
0
0
0
0
0
0
0
0
0
0
0
0
0
0
0
0
0
0
0
0
0
0
0
0
0
0
0
0
0
0
0
0
0
0
0
0
0
0
0
0
0
0
0
0
0
0
0
0
0
0
0
0
0
0
0
0
0
0
0
0
0
0
0
0
0
0
0
0
0
0
0
0
0
0
0
0
0
0
0
0
0
0
0
0
0
0
0
0
0
0
0
0
0
0
0
0
0
0
0
0
0
0
0
0
0
0
0
0
0
0
0
0
0
0
0
0
0
0
0
0
0
0
0
0
0
0
0
0
0
0
0
0
0
0
0
0
0
0
0
0
0
0
0
0
0
0
0
0
0
0
0
0
0
0
0
0
0
0
0
0
0
0
0
0
0
0
0
0
0
0
0
0
0
0
0
0
0
0
0
0
0
0
0
0
0
0
0
0
0
0
0
0
0
0
0
0
0
0
0
0
0
0
0
0
0
0
0
0
0
0
0
0
0
0
0
0
0
0
0
0
0
0
0
0
0
0
0
0
0
0
0
0
0
0
0
0
0
0
0
0
0
0
0
0
0
0
0
0
0
0
0
0
0
0
0
0
0
0
0
0
0
0
0
0
0
0
0
0
0
0
0
0
0
0
0
0
0
0
0
0
0
0
0
0
0
0
0
0
0
0
0
0
0
0
0
0
0
0
0
0
0
0
0
0
0
0
0
0
0
0
0
0
0
0
0
0
0
0
0
0
0
0
0
0
0
0
0
0
0
0
0
0
0
0
0
0
0
0
0
0
0
0
0
0
0
0
0
0
0
0
0
0
0
0
0
0
0
0
0
0
0
0
0
0
0
0
0
0
0
0
0
0
0
0
0
0
0
0
0
0
0
0
0
0
0
0
0
0
0
0
0
0
0
0
0
0
0
0
0
0
0
0
0
0
0
0
0
0
0
0
0
0
0
0
0
0
0
0
0
0
0
0
0
0
0
0
0
0
0
0
0
0
0
0
0
0
0
0
0
0
0
0
0
0
0
0
0
0
0
0
0
0
0
0
0
0
0
0
0
0
0
0
0
0
0
0
0
0
0
0
0
0
0
0
0
0
0
0
0
0
0
0
0
0
0
0
0
0
0
0
0
0
0
0
0
0
0
0
0
0
0
0
0
0
0
0
0
0
0
0
0
0
0
0
0
0
0
0
0
0
0
0
0
0
0
0
0
0
0
0
0
0
0
0
0
0
0
0
0
0
0
0
0
0
0
0
0
0
0
0
0
0
0
0
0
0
0
0
0
0
0
0
0
0
0
0
0
0
0
0
0
0
0
0
0
0
0
0
0
0
0
0
0
0
0
0
0
0
0
0
0
0
0
0
0
0
0
0
0
0
0
0
0
0
0
0
0
0
0
0
0
0
0
0
0
0
0
0
0
0
0
0
0
0
0
0
0
0
0
0
0
0
0
0
0
0
0
0
0
0
0
0
0
0
0
0
0
0
0
0
0
0
0
0
0
0
0
0
0
0
0
0
0
0
0
0
0
0
0
0
0
0
0
0
0
0
0
0
0
0
0
0
0
0
0
0
0
0
0
0
0
0
0
0
0
0
0
0
0
0
0
0
0
0
0
0
0
0
0
0
0
0
0
0
0
0
0
0
0
0
0
0
0
0
0
0
0
0
0
0
0
0
0
0
0
0
0
0
0
0
0
0
0
0
0
0
0
0
0
0
0
0
0
0
0
0
0
0
0
0
0
0
0
0
0
0
0
0
0
0
0
0
0
0
0
0
0
0
0
0
0
0
0
0
0
0
0
0
0
0
0
0
0
0
0
0
0
0
0
0
0
0
0
0
0
0
0
0
0
0
0
0
0
0
0
0
0
0
0
0
0
0
0
0
0
0
0
0
0
0
0
0
0
0
0
0
0
0
0
0
0
0
0
0
0
0
0
0
0
0
0
0
0
0
0
0
0
0
0
0
0
0
0
0
0
0
0
0
0
0
0
0
0
0
0
0
0
0
0
0
0
0
0
0
0
0
0
0
0
0
0
0
0
0
0
0
0
0
0
0
0
0
0
0
0
0
0
0
0
0
0
0
0
0
0
0
0
0
0
0
0
0
0
0
0
0
0
0
0
0
0
0
0
0
0
0
0
0
0
0
0
0
0
0
0
0
0
0
0
0
0
0
0
0
0
0
0
0
0
0
0
0
0
0
0
0
0
0
0
0
0
0
0
0
0
0
0
0
0
0
0
0
0
0
0
0
0
0
0
0
0
0
0
0
0
0
0
0
0
0
0
0
0
0
0
0
0
0
0
0
0
0
0
0
0
0
0
0
0
0
0
0
0
0
0
0
0
0
0
0
0
0
0
0
0
0
0
0
0
0
0
0
0
0
0
0
0
0
0
0
0
0
0
0
0
0
0
0
0
0
0
0
0
0
0
0
0
0
0
0
0
0
0
0
0
0
0
0
0
0
0
0
0
0
0
0
0
0
0
0
0
0
0
0
0
0
0
0
0
0
0
0
0
0
0
0
0
0
0
0
0
0
0
0
0
0
0
0
0
0
0
0
0
0
0
0
0
0
0
0
0
0
0
0
0
0
0
0
0
0
0
0
0
0
0
0
0
0
0
0
0
0
0
0
0
0
0
0
0
0
0
0
0
0
0
0
0
0
0
0
0
0
0
0
0
0
0
0
0
0
0
0
0
0
0
0
0
0
0
0
0
0
0
0
0
0
0
0
0
0
0
0
0
0
0
0
0
0
0
0
0
0
0
0
0
0
0
0
0
0
0
0
0
0
0
0
0
0
0
0
0
0
0
0
0
0
0
0
0
0
0
0
0
0
0
0
0
0
0
0
0
0
0
0
0
0
0
0
0
0
0
0
0
0
0
0
0
0
0
0
0
0
0
0
0
0
0
0
0
0
0
0
0
0
0
0
0
0
0
0
0
0
0
0
0
0
0
0
0
0
0
0
0
0
0
0
0
0
0
0
0
0
0
0
0
0
0
0
0
0
0
0
0
0
0
0
0
0
0
0
0
0
0
0
0
0
0
0
0
0
0
0
0
0
0
0
0
0
0
0
0
0
0
0
0
0
0
0
0
0
0
0
0
0
0
0
0
0
0
0
0
0
0
0
0
0
0
0
0
0
0
0
0
0
0
0
0
0
0
0
0
0
0
0
0
0
0
0
0
0
0
0
0
0
0
0
0
0
0
0
0
0
0
0
0
0
0
0
0
0
0
0
0
0
0
0
0
0
0
0
0
0
0
0
0
0
0
0
0
0
0
0
0
0
0
0
0
0
0
0
0
0
0
0
0
0
0
0
0
0
0
0
0
0
0
0
0
0
0
0
0
0
0
0
0
0
0
0
0
0
0
0
0
0
0
0
0
0
0
0
0
0
0
0
0
0
0
0
0
0
0
0
0
0
0
0
0
0
0
0
0
0
0
0
0
0
0
0
0
0
0
0
0
0
0
0
0
0
0
0
0
0
0
0
0
0
0
0
0
0
0
0
0
0
0
0
0
0
0
0
0
0
0
0
0
0
0
0
0
0
0
0
0
0
0
0
0
0
0
0
0
0
0
0
0
0
0
0
0
0
0
0
0
0
0
0
0
0
0
0
0
0
0
0
0
0
0
0
0
0
0
0
0
0
0
0
0
0
0
0
0
0
0
0
0
0
0
0
0
0
0
0
0
0
0
0
0
0
0
0
0
0
0
0
0
0
0
0
0
0
0
0
0
0
0
0
0
0
0
0
0
0
0
0
0
0
0
0
0
0
0
0
0
0
0
0
0
0
0
0
0
0
0
0
0
0
0
0
0
0
0
0
0
0
0
0
0
0
0
0
0
0
0
0
0
0
0
0
0
0
0
0
0
0
0
0
0
0
0
0
0
0
0
0
0
0
0
0
0
0
0
0
0
0
0
0
0
0
0
0
0
0
0
0
0
0
0
0
0
0
0
0
0
0
0
0
0
0
0
0
0
0
0
0
0
0
0
0
0
0
0
0
0
0
0
0
0
0
0
0
0
0
0
0
0
0
0
0
0
0
0
0
0
0
0
0
0
0
0
0
0
0
0
0
0
0
0
0
0
0
0
0
0
0
0
0
0
0
0
0
0
0
0
0
0
0
0
0
0
0
0
0
0
0
0
0
0
0
0
0
0
0
0
0
0
0
0
0
0
0
0
0
0
0
0
0
0
0
0
0
0
0
0
0
0
0
0
0
0
0
0
0
0
0
0
0
0
0
0
0
0
0
0
0
0
0
0
0
0
0
0
0
0
0
0
0
0
0
0
0
0
0
0
0
0
0
0
0
0
0
0
0
0
0
0
0
0
0
0
0
0
0
0
0
0
0
0
0
0
0
0
0
0
0
0
0
0
0
0
0
0
0
0
0
0
0
0
0
0
0
0
0
0
0
0
0
0
0
0
0
0
0
0
0
0
0
0
0
0
0
0
0
0
0
0
0
0
0
0
0
0
0
0
0
0
0
0
0
0
0
0
0
0
0
0
0
0
0
0
0
0
0
0
0
0
0
0
0
0
0
0
0
0
0
0
0
0
0
0
0
0
0
0
0
0
0
0
0
0
0
0
0
0
0
0
0
0
0
0
0
0
0
0
0
0
0
0
0
0
0
0
0
0
0
0
0
0
0
0
0
0
0
0
0
0
0
0
0
0
0
0
0
0
0
0
0
0
0
0
0
0
0
0
0
0
0
0
0
0
0
0
0
0
0
0
0
0
0
0
0
0
0
0
0
0
0
0
0
0
0
0
0
0
0
0
0
0
0
0
0
0
0
0
0
0
0
0
0
0
0
0
0
0
0
0
0
0
0
0
0
0
0
0
0
0
0
0
0
0
0
0
0
0
0
0
0
0
0
0
0
0
0
0
0
0
0
0
0
0
0
0
0
0
0
0
0
0
0
0
0
0
0
0
0
0
0
0
0
0
0
0
0
0
0
0
0
0
0
0
0
0
0
0
0
0
0
0
0
0
0
0
0
0
0
0
0
0
0
0
0
0
0
0
0
0
0
0
0
0
0
0
0
0
0
0
0
0
0
0
0
0
0
0
0
0
0
0
0
0
0
0
0
0
0
0
0
0
0
0
0
0
0
0
0
0
0
0
0
0
0
0
0
0
0
0
0
0
0
0
0
0
0
0
0
0
0
0
0
0
0
0
0
0
0
0
0
0
0
0
0
0
0
0
0
0
0
0
0
0
0
0
0
0
0
0
0
0
0
0
0
0
0
0
0
0
0
0
0
0
0
0
0
0
0
0
0
0
0
0
0
0
0
0
0
0
0
0
0
0
0
0
0
0
0
0
0
0
0
0
0
0
0
0
0
0
0
0
0
0
0
0
0
0
0
0
0
0
0
0
0
0
0
0
0
0
0
0
0
0
0
0
0
0
0
0
0
0
0
0
0
0
0
0
0
0
0
0
0
0
0
0
0
0
0
0
0
0
0
0
0
0
0
0
0
0
0
0
0
0
0
0
0
0
0
0
0
0
0
0
0
0
0
0
0
0
0
0
0
0
0
0
0
0
0
0
0
0
0
0
0
0
0
0
0
0
0
0
0
0
0
0
0
0
0
0
0
0
0
0
0
0
0
0
0
0
0
0
0
0
0
0
0
0
0
0
0
0
0
0
0
0
0
0
0
0
0
0
0
0
0
0
0
0
0
0
0
0
0
0
0
0
0
0
0
0
0
0
0
0
0
0
0
0
0
0
0
0
0
0
0
0
0
0
0
0
0
0
0
0
0
0
0
0
0
0
0
0
0
0
0
0
0
0
0
0
0
0
0
0
0
0
0
0
0
0
0
0
0
0
0
0
0
0
0
0
0
0
0
0
0
0
0
0
0
0
0
0
0
0
0
0
0
0
0
0
0
0
0
0
0
0
0
0
0
0
0
0
0
0
0
0
0
0
0
0
0
0
0
0
0
0
0
0
0
0
0
0
0
0
0
0
0
0
0
0
0
0
0
0
0
0
0
0
0
0
0
0
0
0
0
0
0
0
0
0
0
0
0
0
0
0
0
0
0
0
0
0
0
0
0
0
0
0
0
0
0
0
0
0
0
0
0
0
0
0
0
0
0
0
0
0
0
0
0
0
0
0
0
0
0
0
0
0
0
0
0
0
0
0
0
0
0
0
0
0
0
0
0
0
0
0
0
0
0
0
0
0
0
0
0
0
0
0
0
0
0
0
0
0
0
0
0
0
0
0
0
0
0
0
0
0
0
0
0
0
0
0
0
0
0
0
0
0
0
0
0
0
0
0
0
0
0
0
0
0
0
0
0
0
0
0
0
0
0
0
0
0
0
0
0
0
0
0
0
0
0
0
0
0
0
0
0
0
0
0
0
0
0
0
0
0
0
0
0
0
0
0
0
0
0
0
0
0
0
0
0
0
0
0
0
0
0
0
0
0
0
0
0
0
0
0
0
0
0
0
0
0
0
0
0
0
0
0
0
0
0
0
0
0
0
0
0
0
0
0
0
0
0
0
0
0
0
0
0
0
0
0
0
0
0
0
0
0
0
0
0
0
0
0
0
0
0
0
0
0
0
0
0
0
0
0
0
0
0
0
0
0
0
0
0
0
0
0
0
0
0
0
0
0
0
0
0
0
0
0
0
0
0
0
0
0
0
0
0
0
0
0
0
0
0
0
0
0
0
0
0
0
0
0
0
0
0
0
0
0
0
0
0
0
0
0
0
0
0
0
0
0
0
0
0
0
0
0
0
0
0
0
0
0
0
0
0
0
0
0
0
0
0
0
0
0
0
0
0
0
0
0
0
0
0
0
0
0
0
0
0
0
0
0
0
0
0
0
0
0
0
0
0
0
0
0
0
0
0
0
0
0
0
0
0
0
0
0
0
0
0
0
0
0
0
0
0
0
0
0
0
0
0
0
0
0
0
0
0
0
0
0
0
0
0
0
0
0
0
0
0
0
0
0
0
0
0
0
0
0
0
0
0
0
0
0
0
0
0
0
0
0
0
0
0
0
0
0
0
0
0
0
0
0
0
0
0
0
0
0
0
0
0
0
0
0
0
0
0
0
0
0
0
0
0
0
0
0
0
0
0
0
0
0
0
0
0
0
0
0
0
0
0
0
0
0
0
0
0
0
0
0
0
0
0
0
0
0
0
0
0
0
0
0
0
0
0
0
0
0
0
0
0
0
0
0
0
0
0
0
0
0
0
0
0
0
0
0
0
0
0
0
0
0
0
0
0
0
0
0
0
0
0
0
0
0
0
0
0
0
0
0
0
0
0
0
0
0
0
0
0
0
0
0
0
0
0
0
0
0
0
0
0
0
0
0
0
0
0
0
0
0
0
0
0
0
0
0
0
0
0
0
0
0
0
0
0
0
0
0
0
0
0
0
0
0
0
0
0
0
0
0
0
0
0
0
0
0
0
0
0
0
0
0
0
0
0
0
0
0
0
0
0
0
0
0
0
0
0
0
0
0
0
0
0
0
0
0
0
0
0
0
0
0
0
0
0
0
0
0
0
0
0
0
0
0
0
0
0
0
0
0
0
0
0
0
0
0
0
0
0
0
0
0
0
0
0
0
0
0
0
0
0
0
0
0
0
0
0
0
0
0
0
0
0
0
0
0
0
0
0
0
0
0
0
0
0
0
0
0
0
0
0
0
0
0
0
0
0
0
0
0
0
0
0
0
0
0
0
0
0
0
0
0
0
0
0
0
0
0
0
0
0
0
0
0
0
0
0
0
0
0
0
0
0
0
0
0
0
0
0
0
0
0
0
0
0
0
0
0
0
0
0
0
0
0
0
0
0
0
0
0
0
0
0
0
0
0
0
0
0
0
0
0
0
0
0
0
0
0
0
0
0
0
0
0
0
0
0
0
0
0
0
0
0
0
0
0
0
0
0
0
0
0
0
0
0
0
0
0
0
0
0
0
0
0
0
0
0
0
0
0
0
0
0
0
0
0
0
0
0
0
0
0
0
0
0
0
0
0
0
0
0
0
0
0
0
0
0
0
0
0
0
0
0
0
0
0
0
0
0
0
0
0
0
0
0
0
0
0
0
0
0
0
0
0
0
0
0
0
0
0
0
0
0
0
0
0
0
0
0
0
0
0
0
0
0
0
0
0
0
0
0
0
0
0
0
0
0
0
0
0
0
0
0
0
0
0
0
0
0
0
0
0
0
0
0
0
0
0
0
0
0
0
0
0
0
0
0
0
0
0
0
0
0
0
0
0
0
0
0
0
0
0
0
0
0
0
0
0
0
0
0
0
0
0
0
0
0
0
0
0
0
0
0
0
0
0
0
0
0
0
0
0
0
0
0
0
0
0
0
0
0
0
0
0
0
0
0
0
0
0
0
0
0
0
0
0
0
0
0
0
0
0
0
0
0
0
0
0
0
0
0
0
0
0
0
0
0
0
0
0
0
0
0
0
0
0
0
0
0
0
0
0
0
0
0
0
0
0
0
0
0
0
0
0
0
0
0
0
0
0
0
0
0
0
0
0
0
0
0
0
0
0
0
0
0
0
0
0
0
0
0
0
0
0
0
0
0
0
0
0
0
0
0
0
0
0
0
0
0
0
0
0
0
0
0
0
0
0
0
0
0
0
0
0
0
0
0
0
0
0
0
0
0
0
0
0
0
0
0
0
0
0
0
0
0
0
0
0
0
0
0
0
0
0
0
0
0
0
0
0
0
0
0
0
0
0
0
0
0
0
0
0
0
0
0
0
0
0
0
0
0
0
0
0
0
0
0
0
0
0
0
0
0
0
0
0
0
0
0
0
0
0
0
0
0
0
0
0
0
0
0
0
0
0
0
0
0
0
0
0
0
0
0
0
0
0
0
0
0
0
0
0
0
0
0
0
0
0
0
0
0
0
0
0
0
0
0
0
0
0
0
0
0
0
0
0
0
0
0
0
0
0
0
0
0
0
0
0
0
0
0
0
0
0
0
0
0
0
0
0
0
0
0
0
0
0
0
0
0
0
0
0
0
0
0
0
0
0
0
0
0
0
0
0
0
0
0
0
0
0
0
0
0
0
0
0
0
0
0
0
0
0
0
0
0
0
0
0
0
0
0
0
0
0
0
0
0
0
0
0
0
0
0
0
0
0
0
0
0
0
0
0
0
0
0
0
0
0
0
0
0
0
0
0
0
0
0
0
0
0
0
0
0
0
0
0
0
0
0
0
0
0
0
0
0
0
0
0
0
0
0
0
0
0
0
0
0
0
0
0
0
0
0
0
0
0
0
0
0
0
0
0
0
0
0
0
0
0
0
0
0
0
0
0
0
0
0
0
0
0
0
0
0
0
0
0
0
0
0
0
0
0
0
0
0
0
0
0
0
0
0
0
0
0
0
0
0
0
0
0
0
0
0
0
0
0
0
0
0
0
0
0
0
0
0
0
0
0
0
0
0
0
0
0
0
0
0
0
0
0
0
0
0
0
0
0
0
0
0
0
0
0
0
0
0
0
0
0
0
0
0
0
0
0
0
0
0
0
0
0
0
0
0
0
0
0
0
0
0
0
0
0
0
0
0
0
0
0
0
0
0
0
0
0
0
0
0
0
0
0
0
0
0
0
0
0
0
0
0
0
0
0
0
0
0
0
0
0
0
0
0
0
0
0
0
0
0
0
0
0
0
0
0
0
0
0
0
0
0
0
0
0
0
0
0
0
0
0
0
0
0
0
0
0
0
0
0
0
0
0
0
0
0
0
0
0
0
0
0
0
0
0
0
0
0
0
0
0
0
0
0
0
0
0
0
0
0
0
0
0
0
0
0
0
0
0
0
0
0
0
0
0
0
0
0
0
0
0
0
0
0
0
0
0
0
0
0
0
0
0
0
0
0
0
0
0
0
0
0
0
0
0
0
0
0
0
0
0
0
0
0
0
0
0
0
0
0
0
0
0
0
0
0
0
0
0
0
0
0
0
0
0
0
0
0
0
0
0
0
0
0
0
0
0
0
0
0
0
0
0
0
0
0
0
0
0
0
0
0
0
0
0
0
0
0
0
0
0
0
0
0
0
0
0
0
0
0
0
0
0
0
0
0
0
0
0
0
0
0
0
0
0
0
0
0
0
0
0
0
0
0
0
0
0
0
0
0
0
0
0
0
0
0
0
0
0
0
0
0
0
0
0
0
0
0
0
0
0
0
0
0
0
0
0
0
0
0
0
0
0
0
0
0
0
0
0
0
0
0
0
0
0
0
0
0
0
0
0
0
0
0
0
0
0
0
0
0
0
0
0
0
0
0
0
0
0
0
0
0
0
0
0
0
0
0
0
0
0
0
0
0
0
0
0
0
0
0
0
0
0
0
0
0
0
0
0
0
0
0
0
0
0
0
0
0
0
0
0
0
0
0
0
0
0
0
0
0
0
0
0
0
0
0
0
0
0
0
0
0
0
0
0
0
0
0
0
0
0
0
0
0
0
0
0
0
0
0
0
0
0
0
0
0
0
0
0
0
0
0
0
0
0
0
0
0
0
0
0
0
0
0
0
0
0
0
0
0
0
0
0
0
0
0
0
0
0
0
0
0
0
0
0
0
0
0
0
0
0
0
0
0
0
0
0
0
0
0
0
0
0
0
0
0
0
0
0
0
0
0
0
0
0
0
0
0
0
0
0
0
0
0
0
0
0
0
0
0
0
0
0
0
0
0
0
0
0
0
0
0
0
0
0
0
0
0
0
0
      </DataArray> 
      <DataArray type="Float64" NumberOfComponents="1" Name="NormalFibers" format="ascii">
0
0
0
0
0
0
0
0
0
0
0
0
0
0
0
0
0
0
0
0
0
0
0
0
0
0
0
0
0
0
0
0
0
0
0
0
0
0
0
0
0
0
0
0
0
0
0
0
0
0
0
0
0
0
0
0
0
0
0
0
0
0
0
0
0
0
0
0
0
0
0
0
0
0
0
0
0
0
0
0
0
0
0
0
0
0
0
0
0
0
0
0
0
0
0
0
0
0
0
0
0
0
0
0
0
0
0
0
0
0
0
0
0
0
0
0
0
0
0
0
0
0
0
0
0
0
0
0
0
0
0
0
0
0
0
0
0
0
0
0
0
0
0
0
0
0
0
0
0
0
0
0
0
0
0
0
0
0
0
0
0
0
0
0
0
0
0
0
0
0
0
0
0
0
0
0
0
0
0
0
0
0
0
0
0
0
0
0
0
0
0
0
0
0
0
0
0
0
0
0
0
0
0
0
0
0
0
0
0
0
0
0
0
0
0
0
0
0
0
0
0
0
0
0
0
0
0
0
0
0
0
0
0
0
0
0
0
0
0
0
0
0
0
0
0
0
0
0
0
0
0
0
0
0
0
0
0
0
0
0
0
0
0
0
0
0
0
0
0
0
0
0
0
0
0
0
0
0
0
0
0
0
0
0
0
0
0
0
0
0
0
0
0
0
0
0
0
0
0
0
0
0
0
0
0
0
0
0
0
0
0
0
0
0
0
0
0
0
0
0
0
0
0
0
0
0
0
0
0
0
0
0
0
0
0
0
0
0
0
0
0
0
0
0
0
0
0
0
0
0
0
0
0
0
0
0
0
0
0
0
0
0
0
0
0
0
0
0
0
0
0
0
0
0
0
0
0
0
0
0
0
0
0
0
0
0
0
0
0
0
0
0
0
0
0
0
0
0
0
0
0
0
0
0
0
0
0
0
0
0
0
0
0
0
0
0
0
0
0
0
0
0
0
0
0
0
0
0
0
0
0
0
0
0
0
0
0
0
0
0
0
0
0
0
0
0
0
0
0
0
0
0
0
0
0
0
0
0
0
0
0
0
0
0
0
0
0
0
0
0
0
0
0
0
0
0
0
0
0
0
0
0
0
0
0
0
0
0
0
0
0
0
0
0
0
0
0
0
0
0
0
0
0
0
0
0
0
0
0
0
0
0
0
0
0
0
0
0
0
0
0
0
0
0
0
0
0
0
0
0
0
0
0
0
0
0
0
0
0
0
0
0
0
0
0
0
0
0
0
0
0
0
0
0
0
0
0
0
0
0
0
0
0
0
0
0
0
0
0
0
0
0
0
0
0
0
0
0
0
0
0
0
0
0
0
0
0
0
0
0
0
0
0
0
0
0
0
0
0
0
0
0
0
0
0
0
0
0
0
0
0
0
0
0
0
0
0
0
0
0
0
0
0
0
0
0
0
0
0
0
0
0
0
0
0
0
0
0
0
0
0
0
0
0
0
0
0
0
0
0
0
0
0
0
0
0
0
0
0
0
0
0
0
0
0
0
0
0
0
0
0
0
0
0
0
0
0
0
0
0
0
0
0
0
0
0
0
0
0
0
0
0
0
0
0
0
0
0
0
0
0
0
0
0
0
0
0
0
0
0
0
0
0
0
0
0
0
0
0
0
0
0
0
0
0
0
0
0
0
0
0
0
0
0
0
0
0
0
0
0
0
0
0
0
0
0
0
0
0
0
0
0
0
0
0
0
0
0
0
0
0
0
0
0
0
0
0
0
0
0
0
0
0
0
0
0
0
0
0
0
0
0
0
0
0
0
0
0
0
0
0
0
0
0
0
0
0
0
0
0
0
0
0
0
0
0
0
0
0
0
0
0
0
0
0
0
0
0
0
0
0
0
0
0
0
0
0
0
0
0
0
0
0
0
0
0
0
0
0
0
0
0
0
0
0
0
0
0
0
0
0
0
0
0
0
0
0
0
0
0
0
0
0
0
0
0
0
0
0
0
0
0
0
0
0
0
0
0
0
0
0
0
0
0
0
0
0
0
0
0
0
0
0
0
0
0
0
0
0
0
0
0
0
0
0
0
0
0
0
0
0
0
0
0
0
0
0
0
0
0
0
0
0
0
0
0
0
0
0
0
0
0
0
0
0
0
0
0
0
0
0
0
0
0
0
0
0
0
0
0
0
0
0
0
0
0
0
0
0
0
0
0
0
0
0
0
0
0
0
0
0
0
0
0
0
0
0
0
0
0
0
0
0
0
0
0
0
0
0
0
0
0
0
0
0
0
0
0
0
0
0
0
0
0
0
0
0
0
0
0
0
0
0
0
0
0
0
0
0
0
0
0
0
0
0
0
0
0
0
0
0
0
0
0
0
0
0
0
0
0
0
0
0
0
0
0
0
0
0
0
0
0
0
0
0
0
0
0
0
0
0
0
0
0
0
0
0
0
0
0
0
0
0
0
0
0
0
0
0
0
0
0
0
0
0
0
0
0
0
0
0
0
0
0
0
0
0
0
0
0
0
0
0
0
0
0
0
0
0
0
0
0
0
0
0
0
0
0
0
0
0
0
0
0
0
0
0
0
0
0
0
0
0
0
0
0
0
0
0
0
0
0
0
0
0
0
0
0
0
0
0
0
0
0
0
0
0
0
0
0
0
0
0
0
0
0
0
0
0
0
0
0
0
0
0
0
0
0
0
0
0
0
0
0
0
0
0
0
0
0
0
0
0
0
0
0
0
0
0
0
0
0
0
0
0
0
0
0
0
0
0
0
0
0
0
0
0
0
0
0
0
0
0
0
0
0
0
0
0
0
0
0
0
0
0
0
0
0
0
0
0
0
0
0
0
0
0
0
0
0
0
0
0
0
0
0
0
0
0
0
0
0
0
0
0
0
0
0
0
0
0
0
0
0
0
0
0
0
0
0
0
0
0
0
0
0
0
0
0
0
0
0
0
0
0
0
0
0
0
0
0
0
0
0
0
0
0
0
0
0
0
0
0
0
0
0
0
0
0
0
0
0
0
0
0
0
0
0
0
0
0
0
0
0
0
0
0
0
0
0
0
0
0
0
0
0
0
0
0
0
0
0
0
0
0
0
0
0
0
0
0
0
0
0
0
0
0
0
0
0
0
0
0
0
0
0
0
0
0
0
0
0
0
0
0
0
0
0
0
0
0
0
0
0
0
0
0
0
0
0
0
0
0
0
0
0
0
0
0
0
0
0
0
0
0
0
0
0
0
0
0
0
0
0
0
0
0
0
0
0
0
0
0
0
0
0
0
0
0
0
0
0
0
0
0
0
0
0
0
0
0
0
0
0
0
0
0
0
0
0
0
0
0
0
0
0
0
0
0
0
0
0
0
0
0
0
0
0
0
0
0
0
0
0
0
0
0
0
0
0
0
0
0
0
0
0
0
0
0
0
0
0
0
0
0
0
0
0
0
0
0
0
0
0
0
0
0
0
0
0
0
0
0
0
0
0
0
0
0
0
0
0
0
0
0
0
0
0
0
0
0
0
0
0
0
0
0
0
0
0
0
0
0
0
0
0
0
0
0
0
0
0
0
0
0
0
0
0
0
0
0
0
0
0
0
0
0
0
0
0
0
0
0
0
0
0
0
0
0
0
0
0
0
0
0
0
0
0
0
0
0
0
0
0
0
0
0
0
0
0
0
0
0
0
0
0
0
0
0
0
0
0
0
0
0
0
0
0
0
0
0
0
0
0
0
0
0
0
0
0
0
0
0
0
0
0
0
0
0
0
0
0
0
0
0
0
0
0
0
0
0
0
0
0
0
0
0
0
0
0
0
0
0
0
0
0
0
0
0
0
0
0
0
0
0
0
0
0
0
0
0
0
0
0
0
0
0
0
0
0
0
0
0
0
0
0
0
0
0
0
0
0
0
0
0
0
0
0
0
0
0
0
0
0
0
0
0
0
0
0
0
0
0
0
0
0
0
0
0
0
0
0
0
0
0
0
0
0
0
0
0
0
0
0
0
0
0
0
0
0
0
0
0
0
0
0
0
0
0
0
0
0
0
0
0
0
0
0
0
0
0
0
0
0
0
0
0
0
0
0
0
0
0
0
0
0
0
0
0
0
0
0
0
0
0
0
0
0
0
0
0
0
0
0
0
0
0
0
0
0
0
0
0
0
0
0
0
0
0
0
0
0
0
0
0
0
0
0
0
0
0
0
0
0
0
0
0
0
0
0
0
0
0
0
0
0
0
0
0
0
0
0
0
0
0
0
0
0
0
0
0
0
0
0
0
0
0
0
0
0
0
0
0
0
0
0
0
0
0
0
0
0
0
0
0
0
0
0
0
0
0
0
0
0
0
0
0
0
0
0
0
0
0
0
0
0
0
0
0
0
0
0
0
0
0
0
0
0
0
0
0
0
0
0
0
0
0
0
0
0
0
0
0
0
0
0
0
0
0
0
0
0
0
0
0
0
0
0
0
0
0
0
0
0
0
0
0
0
0
0
0
0
0
0
0
0
0
0
0
0
0
0
0
0
0
0
0
0
0
0
0
0
0
0
0
0
0
0
0
0
0
0
0
0
0
0
0
0
0
0
0
0
0
0
0
0
0
0
0
0
0
0
0
0
0
0
0
0
0
0
0
0
0
0
0
0
0
0
0
0
0
0
0
0
0
0
0
0
0
0
0
0
0
0
0
0
0
0
0
0
0
0
0
0
0
0
0
0
0
0
0
0
0
0
0
0
0
0
0
0
0
0
0
0
0
0
0
0
0
0
0
0
0
0
0
0
0
0
0
0
0
0
0
0
0
0
0
0
0
0
0
0
0
0
0
0
0
0
0
0
0
0
0
0
0
0
0
0
0
0
0
0
0
0
0
0
0
0
0
0
0
0
0
0
0
0
0
0
0
0
0
0
0
0
0
0
0
0
0
0
0
0
0
0
0
0
0
0
0
0
0
0
0
0
0
0
0
0
0
0
0
0
0
0
0
0
0
0
0
0
0
0
0
0
0
0
0
0
0
0
0
0
0
0
0
0
0
0
0
0
0
0
0
0
0
0
0
0
0
0
0
0
0
0
0
0
0
0
0
0
0
0
0
0
0
0
0
0
0
0
0
0
0
0
0
0
0
0
0
0
0
0
0
0
0
0
0
0
0
0
0
0
0
0
0
0
0
0
0
0
0
0
0
0
0
0
0
0
0
0
0
0
0
0
0
0
0
0
0
0
0
0
0
0
0
0
0
0
0
0
0
0
0
0
0
0
0
0
0
0
0
0
0
0
0
0
0
0
0
0
0
0
0
0
0
0
0
0
0
0
0
0
0
0
0
0
0
0
0
0
0
0
0
0
0
0
0
0
0
0
0
0
0
0
0
0
0
0
0
0
0
0
0
0
0
0
0
0
0
0
0
0
0
0
0
0
0
0
0
0
0
0
0
0
0
0
0
0
0
0
0
0
0
0
0
0
0
0
0
0
0
0
0
0
0
0
0
0
0
0
0
0
0
0
0
0
0
0
0
0
0
0
0
0
0
0
0
0
0
0
0
0
0
0
0
0
0
0
0
0
0
0
0
0
0
0
0
0
0
0
0
0
0
0
0
0
0
0
0
0
0
0
0
0
0
0
0
0
0
0
0
0
0
0
0
0
0
0
0
0
0
0
0
0
0
0
0
0
0
0
0
0
0
0
0
0
0
0
0
0
0
0
0
0
0
0
0
0
0
0
0
0
0
0
0
0
0
0
0
0
0
0
0
0
0
0
0
0
0
0
0
0
0
0
0
0
0
0
0
0
0
0
0
0
0
0
0
0
0
0
0
0
0
0
0
0
0
0
0
0
0
0
0
0
0
0
0
0
0
0
0
0
0
0
0
0
0
0
0
0
0
0
0
0
0
0
0
0
0
0
0
0
0
0
0
0
0
0
0
0
0
0
0
0
0
0
0
0
0
0
0
0
0
0
0
0
0
0
0
0
0
0
0
0
0
0
0
0
0
0
0
0
0
0
0
0
0
0
0
0
0
0
0
0
0
0
0
0
0
0
0
0
0
0
0
0
0
0
0
0
0
0
0
0
0
0
0
0
0
0
0
0
0
0
0
0
0
0
0
0
0
0
0
0
0
0
0
0
0
0
0
0
0
0
0
0
0
0
0
0
0
0
0
0
0
0
0
0
0
0
0
0
0
0
0
0
0
0
0
0
0
0
0
0
0
0
0
0
0
0
0
0
0
0
0
0
0
0
0
0
0
0
0
0
0
0
0
0
0
0
0
0
0
0
0
0
0
0
0
0
0
0
0
0
0
0
0
0
0
0
0
0
0
0
0
0
0
0
0
0
0
0
0
0
0
0
0
0
0
0
0
0
0
0
0
0
0
0
0
0
0
0
0
0
0
0
0
0
0
0
0
0
0
0
0
0
0
0
0
0
0
0
0
0
0
0
0
0
0
0
0
0
0
0
0
0
0
0
0
0
0
0
0
0
0
0
0
0
0
0
0
0
0
0
0
0
0
0
0
0
0
0
0
0
0
0
0
0
0
0
0
0
0
0
0
0
0
0
0
0
0
0
0
0
0
0
0
0
0
0
0
0
0
0
0
0
0
0
0
0
0
0
0
0
0
0
0
0
0
0
0
0
0
0
0
0
0
0
0
0
0
0
0
0
0
0
0
0
0
0
0
0
0
0
0
0
0
0
0
0
0
0
0
0
0
0
0
0
0
0
0
0
0
0
0
0
0
0
0
0
0
0
0
0
0
0
0
0
0
0
0
0
0
0
0
0
0
0
0
0
0
0
0
0
0
0
0
0
0
0
0
0
0
0
0
0
0
0
0
0
0
0
0
0
0
0
0
0
0
0
0
0
0
0
0
0
0
0
0
0
0
0
0
0
0
0
0
0
0
0
0
0
0
0
0
0
0
0
0
0
0
0
0
0
0
0
0
0
0
0
0
0
0
0
0
0
0
0
0
0
0
0
0
0
0
0
0
0
0
0
0
0
0
0
0
0
0
0
0
0
0
0
0
0
0
0
0
0
0
0
0
0
0
0
0
0
0
0
0
0
0
0
0
0
0
0
0
0
0
0
0
0
0
0
0
0
0
0
0
0
0
0
0
0
0
0
0
0
0
0
0
0
0
0
0
0
0
0
0
0
0
0
0
0
0
0
0
0
0
0
0
0
0
0
0
0
0
0
0
0
0
0
0
0
0
0
0
0
0
0
0
0
0
0
0
0
0
0
0
0
0
0
0
0
0
0
0
0
0
0
0
0
0
0
0
0
0
0
0
0
0
0
0
0
0
0
0
0
0
0
0
0
0
0
0
0
0
0
0
0
0
0
0
0
0
0
0
0
0
0
0
0
0
0
0
0
0
0
0
0
0
0
0
0
0
0
0
0
0
0
0
0
0
0
0
0
0
0
0
0
0
0
0
0
0
0
0
0
0
0
0
0
0
0
0
0
0
0
0
0
0
0
0
0
0
0
0
0
0
0
0
0
0
0
0
0
0
0
0
0
0
0
0
0
0
0
0
0
0
0
0
0
0
0
0
0
0
0
0
0
0
0
0
0
0
0
0
0
0
0
0
0
0
0
0
0
0
0
0
0
0
0
0
0
0
0
0
0
0
0
0
0
0
0
0
0
0
0
0
0
0
0
0
0
0
0
0
0
0
0
0
0
0
0
0
0
0
0
0
0
0
0
0
0
0
0
0
0
0
0
0
0
0
0
0
0
0
0
0
0
0
0
0
0
0
0
0
0
0
0
0
0
0
0
0
0
0
0
0
0
0
0
0
0
0
0
0
0
0
0
0
0
0
0
0
0
0
0
0
0
0
0
0
0
0
0
0
0
0
0
0
0
0
0
0
0
0
0
0
0
0
0
0
0
0
0
0
0
0
0
0
0
0
0
0
0
0
0
0
0
0
0
0
0
0
0
0
0
0
0
0
0
0
0
0
0
0
0
0
0
0
0
0
0
0
0
0
0
0
0
0
0
0
0
0
0
0
0
0
0
0
0
0
0
0
0
0
0
0
0
0
0
0
0
0
0
0
0
0
0
0
0
0
0
0
0
0
0
0
0
0
0
0
0
0
0
0
0
0
0
0
0
0
0
0
0
0
0
0
0
0
0
0
0
0
0
0
0
0
0
0
0
0
0
0
0
0
0
0
0
0
0
0
0
0
0
0
0
0
0
0
0
0
0
0
0
0
0
0
0
0
0
0
0
0
0
0
0
0
0
0
0
0
0
0
0
0
-0.0938231
-0.0938231
-0.00315247
-0.00315247
0.027071
0.027071
0.123678
0.123678
-0.0375238
-0.0375238
0.00782095
0.00782095
0.00310038
0.00310038
0.0280758
0.0280758
-0.0252188
-0.0252188
-0.00734507
-0.00734507
0.0113618
0.0113618
-0.0137823
-0.0137823
0.00138226
0.00138226
0.0341746
0.0341746
0.00513541
0.00513541
-0.0746511
-0.0746511
-0.0411239
-0.0411239
0.0257774
0.0257774
-0.0338221
-0.0338221
0.00691552
0.00691552
0.00167145
0.00167145
-0.00731407
-0.00731407
0.0552778
0.0552778
-0.0712791
-0.0712791
0.0435122
0.0435122
-0.0216145
-0.0216145
0.10133
0.10133
0.0832081
0.0832081
0.0443833
0.0443833
-0.0052648
-0.0052648
-0.00872907
-0.00872907
-0.00501515
-0.00501515
0.0201068
0.0201068
-0.0906484
-0.0906484
-0.192066
-0.192066
-0.0076044
-0.0076044
0.0259375
0.0259375
0.0233494
0.0233494
-0.0161426
-0.0161426
-0.0761484
-0.0761484
-0.0191401
-0.0191401
-0.0253212
-0.0253212
-0.00575427
-0.00575427
0.0042452
0.0042452
0.00216524
0.00216524
-0.00816343
-0.00816343
0.0153552
0.0153552
-0.0440021
-0.0440021
-0.0106285
-0.0106285
0.0860499
0.0860499
-0.0134948
-0.0134948
-0.00988556
-0.00988556
0.0854118
0.0854118
-0.00547851
-0.00547851
0.0253501
0.0253501
0.000166185
0.000166185
-0.00925409
-0.00925409
0.0159324
0.0159324
0.0069129
0.0069129
0.0159706
0.0159706
-0.0075977
-0.0075977
0.00653503
0.00653503
-0.0822207
-0.0822207
0.016512
0.016512
-0.00226975
-0.00226975
-0.0374348
-0.0374348
-0.000176289
-0.000176289
-0.00345949
-0.00345949
0.057214
0.057214
-0.0117396
-0.0117396
-0.125835
-0.125835
0.0260977
0.0260977
0.00213271
0.00213271
0.00849284
0.00849284
-0.0415306
-0.0415306
0.100508
0.100508
-0.0792973
-0.0792973
0.00651381
0.00651381
0.0499258
0.0499258
0.00265385
0.00265385
0.00703612
0.00703612
-0.00657112
-0.00657112
0.00711766
0.00711766
-0.00580126
-0.00580126
-0.0159824
-0.0159824
-0.0170852
-0.0170852
-0.0227126
-0.0227126
-0.042561
-0.042561
0.00425241
0.00425241
0.0554378
0.0554378
0.00319916
0.00319916
0.0394806
0.0394806
0.00285684
0.00285684
0.0549833
0.0549833
0.0223033
0.0223033
-0.00582776
-0.00582776
-0.073009
-0.073009
-0.0118253
-0.0118253
0.0502043
0.0502043
0.0681789
0.0681789
0.0802455
0.0802455
0.0127179
0.0127179
-0.0715322
-0.0715322
0.0108614
0.0108614
0.0191601
0.0191601
-0.00342541
-0.00342541
0.00877067
0.00877067
0.00684382
0.00684382
-0.114219
-0.114219
0.00788151
0.00788151
-0.00420979
-0.00420979
0.00765896
0.00765896
-0.00731539
-0.00731539
-0.0734439
-0.0734439
0.0148223
0.0148223
-0.0277366
-0.0277366
0.0297778
0.0297778
0.00920253
0.00920253
-0.0235658
-0.0235658
-0.00835015
-0.00835015
0.000173301
0.000173301
-0.0063611
-0.0063611
-0.00954121
-0.00954121
-0.00257106
-0.00257106
-0.00366785
-0.00366785
0.00771756
0.00771756
0.00322682
0.00322682
0.00765469
0.00765469
0.0577571
0.0577571
-0.128469
-0.128469
-0.00262035
-0.00262035
-0.000674404
-0.000674404
-0.00399905
-0.00399905
-0.0310724
-0.0310724
-0.00314659
-0.00314659
-0.0144399
-0.0144399
0.0173773
0.0173773
0.00347058
0.00347058
0.00245181
0.00245181
0.0085725
0.0085725
-0.0262063
-0.0262063
-0.00583542
-0.00583542
0.148833
0.148833
-0.0260645
-0.0260645
-0.0269424
-0.0269424
-0.0349122
-0.0349122
-0.0049355
-0.0049355
-0.00152245
-0.00152245
0.0283805
0.0283805
0.0110746
0.0110746
-0.0576213
-0.0576213
-0.00664383
-0.00664383
-0.0186764
-0.0186764
0.0169769
0.0169769
-0.0012641
-0.0012641
0.00580022
0.00580022
0.00145514
0.00145514
-0.00975443
-0.00975443
-0.00394652
-0.00394652
0.00333497
0.00333497
0.0018691
0.0018691
0.00671827
0.00671827
0.00454414
0.00454414
-0.00195018
-0.00195018
0.0214098
0.0214098
-0.00547773
-0.00547773
0.006288
0.006288
-0.0604799
-0.0604799
-0.0206188
-0.0206188
0.0074193
0.0074193
-0.024877
-0.024877
-0.0051508
-0.0051508
0.0240995
0.0240995
-0.00588558
-0.00588558
-0.0488349
-0.0488349
0.041501
0.041501
-0.000269957
-0.000269957
0.0121272
0.0121272
-0.019988
-0.019988
0.0221635
0.0221635
0.00570239
0.00570239
0.0250675
0.0250675
-0.0139759
-0.0139759
0.13501
0.13501
-0.00549283
-0.00549283
-0.00128665
-0.00128665
0.0112691
0.0112691
0.0246607
0.0246607
0.0197702
0.0197702
-0.00972231
-0.00972231
-0.0362775
-0.0362775
-0.0074817
-0.0074817
0.0330724
0.0330724
0.0100083
0.0100083
-0.00606493
-0.00606493
-0.0190244
-0.0190244
0.00562011
0.00562011
-0.00146724
-0.00146724
-0.0822972
-0.0822972
-0.0028097
-0.0028097
-0.0271741
-0.0271741
-0.0240258
-0.0240258
-0.0368381
-0.0368381
0.128798
0.128798
0.00643368
0.00643368
-0.0351009
-0.0351009
-0.0704043
-0.0704043
0.00537509
0.00537509
-0.0129078
-0.0129078
0.0289568
0.0289568
0.0881071
0.0881071
-0.0538658
-0.0538658
0.0175384
0.0175384
0.015189
0.015189
0.101416
0.101416
-0.0799128
-0.0799128
-0.0158738
-0.0158738
0.0170094
0.0170094
0.0505813
0.0505813
-0.0200043
-0.0200043
-0.00325032
-0.00325032
-0.0202078
-0.0202078
0.00141221
0.00141221
-0.00483008
-0.00483008
-0.00188027
-0.00188027
-0.030943
-0.030943
-0.0152857
-0.0152857
0.00633139
0.00633139
0.00948721
0.00948721
-0.0136539
-0.0136539
-0.00882304
-0.00882304
-0.00506306
-0.00506306
-0.0410617
-0.0410617
-0.0460041
-0.0460041
0.00797962
0.00797962
0.003323
0.003323
-0.015164
-0.015164
-0.00734726
-0.00734726
0.0108077
0.0108077
-0.00707705
-0.00707705
0.00959575
0.00959575
0.000541908
0.000541908
-0.00417335
-0.00417335
0.00715489
0.00715489
0.0153409
0.0153409
-0.0161423
-0.0161423
-0.0489442
-0.0489442
0.00631444
0.00631444
0.135332
0.135332
-0.164126
-0.164126
0.0568008
0.0568008
-0.00538568
-0.00538568
0.010671
0.010671
0.00294256
0.00294256
0.0137106
0.0137106
0.0211686
0.0211686
0.00449456
0.00449456
-0.0137471
-0.0137471
0.0112348
0.0112348
0.0166014
0.0166014
0.00705768
0.00705768
0.00906085
0.00906085
-0.0651756
-0.0651756
-0.014855
-0.014855
-0.113003
-0.113003
0.0026765
0.0026765
-0.117697
-0.117697
0.00035824
0.00035824
-0.0100104
-0.0100104
-0.0102226
-0.0102226
0.0200644
0.0200644
0.0180906
0.0180906
-0.0419773
-0.0419773
0.00260772
0.00260772
-0.00274557
-0.00274557
-0.0258959
-0.0258959
-0.0180358
-0.0180358
0.0136201
0.0136201
-0.01451
-0.01451
9.67932e-05
9.67932e-05
-0.00606138
-0.00606138
0.00277286
0.00277286
0.00580274
0.00580274
-0.014776
-0.014776
-0.0953178
-0.0953178
0.0435078
0.0435078
-0.00647788
-0.00647788
-0.00464424
-0.00464424
0.0135381
0.0135381
0.0160698
0.0160698
-0.0251968
-0.0251968
0.00786355
0.00786355
0.00628242
0.00628242
0.00628678
0.00628678
-0.0120713
-0.0120713
-0.00417954
-0.00417954
0.00813038
0.00813038
0.0011512
0.0011512
0.00514331
0.00514331
-0.00519175
-0.00519175
-0.0469715
-0.0469715
-0.00366847
-0.00366847
0.0326095
0.0326095
0.101593
0.101593
0.00976367
0.00976367
-0.0222143
-0.0222143
0.0101901
0.0101901
-0.0114118
-0.0114118
-0.0194937
-0.0194937
-0.0830991
-0.0830991
-0.00604241
-0.00604241
0.0278913
0.0278913
-0.0231395
-0.0231395
-0.0139197
-0.0139197
0.0246436
0.0246436
0.0254918
0.0254918
0.0639606
0.0639606
-0.0149652
-0.0149652
-0.000220928
-0.000220928
0.013639
0.013639
0.0263134
0.0263134
0.0304303
0.0304303
-0.172082
-0.172082
0.0515614
0.0515614
0.0346609
0.0346609
0.00644175
0.00644175
0.0468026
0.0468026
-0.0196471
-0.0196471
0.00672576
0.00672576
-0.0112684
-0.0112684
-0.00329715
-0.00329715
-0.0466106
-0.0466106
0.0153831
0.0153831
0.0051865
0.0051865
-0.059068
-0.059068
0.0148415
0.0148415
-0.0170103
-0.0170103
-0.0336074
-0.0336074
-0.00663461
-0.00663461
0.0764797
0.0764797
0.0353739
0.0353739
0.017443
0.017443
0.0164434
0.0164434
0.185944
0.185944
-0.00392306
-0.00392306
0.00402223
0.00402223
0.0602035
0.0602035
-0.0107724
-0.0107724
0.00172799
0.00172799
0.047071
0.047071
-0.00463236
-0.00463236
0.00179765
0.00179765
-0.00149527
-0.00149527
0.0100493
0.0100493
-0.0249607
-0.0249607
-0.0136711
-0.0136711
0.15992
0.15992
-0.0155605
-0.0155605
-0.104428
-0.104428
0.00968389
0.00968389
0.0445578
0.0445578
0.00191315
0.00191315
-0.00569367
-0.00569367
0.0804195
0.0804195
0.0150231
0.0150231
-0.00745904
-0.00745904
-0.0340956
-0.0340956
-0.0104414
-0.0104414
0.00944131
0.00944131
-0.00636906
-0.00636906
-0.00680027
-0.00680027
-0.000576445
-0.000576445
-0.0180677
-0.0180677
0.0031586
0.0031586
0.0498923
0.0498923
-0.0259767
-0.0259767
0.0713687
0.0713687
-0.0309221
-0.0309221
-0.010847
-0.010847
0.13919
0.13919
0.00021726
0.00021726
0.0335173
0.0335173
0.0843481
0.0843481
-0.108133
-0.108133
0.0260672
0.0260672
-0.0031294
-0.0031294
0.0202215
0.0202215
0.0109604
0.0109604
0.0521844
0.0521844
-0.00464081
-0.00464081
-0.0321409
-0.0321409
-0.0192392
-0.0192392
0.00937472
0.00937472
0.0255477
0.0255477
0.00841718
0.00841718
0.00399526
0.00399526
-0.0359095
-0.0359095
-0.0338465
-0.0338465
0.0774302
0.0774302
0.00194422
0.00194422
-0.103235
-0.103235
-0.0656735
-0.0656735
0.0170013
0.0170013
0.00519424
0.00519424
0.00723715
0.00723715
0.0362085
0.0362085
0.00789249
0.00789249
0.00464468
0.00464468
0.121222
0.121222
0.00307713
0.00307713
-0.001067
-0.001067
0.0410801
0.0410801
0.00866654
0.00866654
-0.00149635
-0.00149635
-0.0201065
-0.0201065
0.132042
0.132042
0.00812486
0.00812486
0.0166721
0.0166721
-0.00195745
-0.00195745
-0.00628529
-0.00628529
0.00204738
0.00204738
0.00332461
0.00332461
-0.0697201
-0.0697201
0.000167947
0.000167947
0.0114809
0.0114809
0.0347713
0.0347713
0.00618776
0.00618776
-0.0124505
-0.0124505
-0.0212363
-0.0212363
-0.00890849
-0.00890849
-0.00869282
-0.00869282
-0.00535837
-0.00535837
-0.00657868
-0.00657868
0.0039548
0.0039548
0.0161472
0.0161472
-0.0466957
-0.0466957
0.0155025
0.0155025
0.00510025
0.00510025
-0.00223225
-0.00223225
0.144079
0.144079
0.00832027
0.00832027
0.0131852
0.0131852
-0.00715498
-0.00715498
0.00820637
0.00820637
-0.00302342
-0.00302342
-0.0180793
-0.0180793
0.0538032
0.0538032
0.0503644
0.0503644
-0.0127332
-0.0127332
-0.0549606
-0.0549606
-0.0564626
-0.0564626
0.0801881
0.0801881
0.133573
0.133573
-0.136937
-0.136937
-0.0793267
-0.0793267
0.000121624
0.000121624
-0.0120807
-0.0120807
-0.00543184
-0.00543184
0.00580419
0.00580419
-0.00215805
-0.00215805
-0.0411101
-0.0411101
0.000751685
0.000751685
-0.00592996
-0.00592996
0.00360646
0.00360646
-0.00350099
-0.00350099
0.062718
0.062718
-0.00960239
-0.00960239
0.0769242
0.0769242
0.00430073
0.00430073
0.00610996
0.00610996
0.0257623
0.0257623
0.0120165
0.0120165
0.0033794
0.0033794
0.0390763
0.0390763
0.111914
0.111914
-0.0603736
-0.0603736
0.00325365
0.00325365
-0.00207934
-0.00207934
0.0126557
0.0126557
-0.00133111
-0.00133111
-0.00832188
-0.00832188
0.0049184
0.0049184
-0.0351317
-0.0351317
-0.0252937
-0.0252937
0.0200842
0.0200842
-0.00243036
-0.00243036
0.031774
0.031774
0.0565828
0.0565828
0.122077
0.122077
0.0163743
0.0163743
0.00809969
0.00809969
0.0140634
0.0140634
-0.0112962
-0.0112962
-0.0562398
-0.0562398
0.00368136
0.00368136
-0.0285059
-0.0285059
-0.00611612
-0.00611612
0.00209049
0.00209049
-0.0208146
-0.0208146
-0.00856703
-0.00856703
0.149417
0.149417
0.134927
0.134927
0.00753362
0.00753362
-0.037468
-0.037468
-0.0181396
-0.0181396
-0.136044
-0.136044
-0.0316803
-0.0316803
-0.0802046
-0.0802046
-0.0167382
-0.0167382
-0.00625231
-0.00625231
-0.0116626
-0.0116626
0.0183202
0.0183202
-0.0100853
-0.0100853
-0.0622905
-0.0622905
0.00962903
0.00962903
0.0147029
0.0147029
-0.00501336
-0.00501336
0.00724592
0.00724592
-0.0666789
-0.0666789
0.0157367
0.0157367
-0.00119158
-0.00119158
0.0526517
0.0526517
-0.055911
-0.055911
0.00264261
0.00264261
-0.00440573
-0.00440573
-0.00420711
-0.00420711
-0.0270133
-0.0270133
0.00852688
0.00852688
0.00547926
0.00547926
0.0338046
0.0338046
-0.00806687
-0.00806687
0.0251532
0.0251532
0.0635123
0.0635123
-0.0367419
-0.0367419
0.021057
0.021057
-0.00725286
-0.00725286
-0.00375561
-0.00375561
-0.00701465
-0.00701465
-0.00203265
-0.00203265
-0.00691131
-0.00691131
-0.0339028
-0.0339028
0.0448393
0.0448393
-0.00782312
-0.00782312
-0.00432166
-0.00432166
0.0566902
0.0566902
0.0148535
0.0148535
0.00720445
0.00720445
0.00883583
0.00883583
-0.00262597
-0.00262597
0.0263588
0.0263588
-0.0416679
-0.0416679
0.0129994
0.0129994
-0.01928
-0.01928
-0.0304494
-0.0304494
-0.0108392
-0.0108392
0.102369
0.102369
-0.0147386
-0.0147386
-0.0108737
-0.0108737
0.0371017
0.0371017
-0.0430693
-0.0430693
0.00187782
0.00187782
-0.00251599
-0.00251599
-0.00722597
-0.00722597
0.0135814
0.0135814
-0.187791
-0.187791
0.00732612
0.00732612
0.010276
0.010276
-0.0145701
-0.0145701
0.0142625
0.0142625
0.00604641
0.00604641
0.0401741
0.0401741
0.0329068
0.0329068
0.0117627
0.0117627
-0.00625545
-0.00625545
0.032804
0.032804
-0.0543013
-0.0543013
0.0139432
0.0139432
0.020997
0.020997
0.0104047
0.0104047
0.00533226
0.00533226
0.00893016
0.00893016
0.0259931
0.0259931
0.0281826
0.0281826
0.0238715
0.0238715
-0.00119184
-0.00119184
0.00669345
0.00669345
0.0105558
0.0105558
0.00149317
0.00149317
0.00361837
0.00361837
-0.00272393
-0.00272393
0.00453722
0.00453722
0.0529255
0.0529255
-0.0159812
-0.0159812
-0.0396451
-0.0396451
-0.00894583
-0.00894583
-0.0186363
-0.0186363
0.0173402
0.0173402
0.0083469
0.0083469
0.0171136
0.0171136
0.0701387
0.0701387
-0.106344
-0.106344
0.031209
0.031209
0.00058475
0.00058475
0.0774531
0.0774531
-0.0722795
-0.0722795
0.0157209
0.0157209
-0.00287361
-0.00287361
-0.0866728
-0.0866728
0.125736
0.125736
-0.00818239
-0.00818239
-0.0284595
-0.0284595
-0.0485986
-0.0485986
-0.037616
-0.037616
0.0179192
0.0179192
-0.00512005
-0.00512005
-0.0323786
-0.0323786
0.0282055
0.0282055
0.00427489
0.00427489
-0.016844
-0.016844
0.00581009
0.00581009
0.0247569
0.0247569
-0.0057
-0.0057
0.0708998
0.0708998
0.149429
0.149429
0.0394528
0.0394528
0.00695162
0.00695162
0.00173459
0.00173459
0.000634285
0.000634285
-0.0168533
-0.0168533
0.00620838
0.00620838
-0.00207224
-0.00207224
-0.000727603
-0.000727603
-0.00443947
-0.00443947
-0.00513943
-0.00513943
-0.00244883
-0.00244883
0.00407831
0.00407831
0.00676314
0.00676314
0.0731724
0.0731724
-0.00330771
-0.00330771
-0.011914
-0.011914
-0.00516344
-0.00516344
-0.00662813
-0.00662813
0.0112271
0.0112271
0.0601447
0.0601447
-0.00716486
-0.00716486
-0.0543333
-0.0543333
0.00684641
0.00684641
-0.00553461
-0.00553461
0.0409362
0.0409362
0.00354113
0.00354113
0.00489808
0.00489808
-0.085252
-0.085252
0.00959807
0.00959807
-0.050205
-0.050205
0.0364949
0.0364949
0.0129728
0.0129728
-0.00353633
-0.00353633
-0.0706369
-0.0706369
0.00481845
0.00481845
0.0133266
0.0133266
-0.0219428
-0.0219428
-0.0229888
-0.0229888
-0.0122169
-0.0122169
0.0200407
0.0200407
0.0142307
0.0142307
0.0144335
0.0144335
0.114897
0.114897
0.023351
0.023351
-0.00294723
-0.00294723
0.0140315
0.0140315
-0.0182204
-0.0182204
-0.0115499
-0.0115499
0.0493645
0.0493645
0.0268937
0.0268937
0.045422
0.045422
-0.0150417
-0.0150417
-0.01693
-0.01693
0.00344355
0.00344355
0.085142
0.085142
-0.00320483
-0.00320483
-0.037217
-0.037217
-0.0166183
-0.0166183
0.0157064
0.0157064
0.090599
0.090599
-0.0762951
-0.0762951
-0.024437
-0.024437
-0.0187489
-0.0187489
0.0133638
0.0133638
-0.00498275
-0.00498275
0.00288015
0.00288015
-0.000497513
-0.000497513
-0.00851112
-0.00851112
0.0374284
0.0374284
0.0558679
0.0558679
-0.0505319
-0.0505319
-0.0166412
-0.0166412
0.0156372
0.0156372
-0.0114119
-0.0114119
-0.0177681
-0.0177681
-0.0108536
-0.0108536
0.0267554
0.0267554
-0.00670159
-0.00670159
-0.00402759
-0.00402759
-0.00117826
-0.00117826
-0.0619258
-0.0619258
-0.00186961
-0.00186961
0.0901752
0.0901752
-0.0578641
-0.0578641
-0.00369358
-0.00369358
-0.0303268
-0.0303268
0.0230635
0.0230635
-0.0422692
-0.0422692
0.00197636
0.00197636
-0.0132692
-0.0132692
-0.00864013
-0.00864013
-0.0245956
-0.0245956
0.0159608
0.0159608
0.0227181
0.0227181
0.018181
0.018181
-0.0224564
-0.0224564
-0.00257588
-0.00257588
-0.00143928
-0.00143928
0.00551535
0.00551535
-0.0208429
-0.0208429
-0.000978851
-0.000978851
0.0131421
0.0131421
0.00167735
0.00167735
0.00727492
0.00727492
0.0221345
0.0221345
0.150787
0.150787
0.00497726
0.00497726
0.0160378
0.0160378
-0.0240504
-0.0240504
0.00166604
0.00166604
-0.108254
-0.108254
0.0387281
0.0387281
0.0196872
0.0196872
-0.0109245
-0.0109245
-0.00249295
-0.00249295
-0.0108101
-0.0108101
0.0658922
0.0658922
-0.00621287
-0.00621287
0.0229437
0.0229437
-0.0222497
-0.0222497
-0.0159317
-0.0159317
-0.00838421
-0.00838421
-0.0093203
-0.0093203
-0.0376868
-0.0376868
-0.00457767
-0.00457767
-0.00828171
-0.00828171
-0.0110648
-0.0110648
0.0163061
0.0163061
-0.00357472
-0.00357472
0.024591
0.024591
-0.0361495
-0.0361495
-0.00895565
-0.00895565
0.020648
0.020648
-0.00383496
-0.00383496
0.00687796
0.00687796
0.0503059
0.0503059
-0.0724825
-0.0724825
0.0203434
0.0203434
0.0201623
0.0201623
-0.0183997
-0.0183997
0.000555054
0.000555054
0.0110187
0.0110187
0.104504
0.104504
-0.00615283
-0.00615283
-0.0152736
-0.0152736
-0.0496211
-0.0496211
-0.0013995
-0.0013995
-0.00640511
-0.00640511
0.0663674
0.0663674
-0.00559443
-0.00559443
-0.056292
-0.056292
0.000990537
0.000990537
-0.0264789
-0.0264789
0.0426114
0.0426114
-0.00268165
-0.00268165
-0.00607935
-0.00607935
-0.00284352
-0.00284352
0.00713894
0.00713894
-0.0272271
-0.0272271
0.00573456
0.00573456
-0.000691729
-0.000691729
0.0164512
0.0164512
-0.0217519
-0.0217519
-0.010209
-0.010209
-0.0205115
-0.0205115
-0.00444296
-0.00444296
-0.0237214
-0.0237214
-0.055188
-0.055188
0.00729163
0.00729163
0.00433179
0.00433179
0.00174306
0.00174306
-0.00746441
-0.00746441
0.0180072
0.0180072
-0.00965578
-0.00965578
-0.0311423
-0.0311423
0.0029348
0.0029348
0.00743713
0.00743713
0.00649676
0.00649676
-0.000366502
-0.000366502
-0.0469987
-0.0469987
0.00265578
0.00265578
-0.00914708
-0.00914708
0.08904
0.08904
-0.109198
-0.109198
0.0380675
0.0380675
0.0574524
0.0574524
-0.0401036
-0.0401036
0.00192885
0.00192885
0.0420705
0.0420705
-0.00358312
-0.00358312
-0.00866312
-0.00866312
0.178914
0.178914
-0.00200195
-0.00200195
0.0229287
0.0229287
0.0396358
0.0396358
0.0403903
0.0403903
-0.00844542
-0.00844542
-0.00629985
-0.00629985
-0.00715497
-0.00715497
-0.0112044
-0.0112044
0.0561746
0.0561746
0.11207
0.11207
-0.00930403
-0.00930403
-0.0727198
-0.0727198
-0.00537689
-0.00537689
0.00645858
0.00645858
0.00666409
0.00666409
0.00808017
0.00808017
-0.0143751
-0.0143751
0.0279413
0.0279413
0.00602621
0.00602621
-0.0479154
-0.0479154
-0.142365
-0.142365
0.0104714
0.0104714
-0.0294754
-0.0294754
-0.0148982
-0.0148982
0.00821148
0.00821148
-0.00769713
-0.00769713
0.0108335
0.0108335
0.153434
0.153434
0.07478
0.07478
-0.030565
-0.030565
0.00214765
0.00214765
0.0121541
0.0121541
-0.0407355
-0.0407355
-0.0225918
-0.0225918
0.0162344
0.0162344
0.0768445
0.0768445
0.0331124
0.0331124
0.012414
0.012414
0.00336271
0.00336271
-0.0258967
-0.0258967
0.0104441
0.0104441
-0.00927743
-0.00927743
0.0322967
0.0322967
-0.0149085
-0.0149085
-0.0288423
-0.0288423
-0.13526
-0.13526
0.0058592
0.0058592
0.00703106
0.00703106
0.00296352
0.00296352
0.0334633
0.0334633
0.0160039
0.0160039
0.00183149
0.00183149
-0.0309495
-0.0309495
0.0700216
0.0700216
-0.0240537
-0.0240537
-0.0154425
-0.0154425
0.0387815
0.0387815
0.0188024
0.0188024
0.0602106
0.0602106
-0.025145
-0.025145
0.0070738
0.0070738
0.0363843
0.0363843
-0.00322412
-0.00322412
-0.0183542
-0.0183542
-0.0231781
-0.0231781
-0.0107623
-0.0107623
-0.0101937
-0.0101937
0.0354553
0.0354553
-0.10178
-0.10178
-0.0176719
-0.0176719
-0.0658504
-0.0658504
0.0670762
0.0670762
0.000886304
0.000886304
-0.0111722
-0.0111722
-0.00408882
-0.00408882
0.00870622
0.00870622
0.000401809
0.000401809
-0.0445674
-0.0445674
-0.0318326
-0.0318326
-0.00556149
-0.00556149
-0.0178608
-0.0178608
0.00102712
0.00102712
-0.0027681
-0.0027681
0.00649033
0.00649033
-0.0080531
-0.0080531
0.0298878
0.0298878
0.00803725
0.00803725
0.0873839
0.0873839
-0.0144817
-0.0144817
0.0432267
0.0432267
0.00847088
0.00847088
3.7842e-05
3.7842e-05
0.000193518
0.000193518
0.0114099
0.0114099
0.0296543
0.0296543
-0.00734316
-0.00734316
0.0112538
0.0112538
-0.0138035
-0.0138035
-0.00312393
-0.00312393
0.0454867
0.0454867
0.00221608
0.00221608
0.0585656
0.0585656
0.000976946
0.000976946
0.0233281
0.0233281
0.0110309
0.0110309
-0.0290998
-0.0290998
0.00622782
0.00622782
-0.00601325
-0.00601325
0.0325863
0.0325863
-0.00840643
-0.00840643
-0.00600455
-0.00600455
0.0361605
0.0361605
-0.0409363
-0.0409363
0.0286477
0.0286477
0.0106561
0.0106561
0.0435178
0.0435178
0.0011792
0.0011792
0.01007
0.01007
-0.00148119
-0.00148119
0.0637396
0.0637396
0.00182857
0.00182857
-0.00433963
-0.00433963
0.0560696
0.0560696
0.0135526
0.0135526
0.0604596
0.0604596
-0.0156466
-0.0156466
-0.0306069
-0.0306069
-0.018503
-0.018503
-0.0122624
-0.0122624
0.0051074
0.0051074
-0.0300005
-0.0300005
-0.00511737
-0.00511737
-0.00581066
-0.00581066
0.0271376
0.0271376
0.0824657
0.0824657
-0.0632943
-0.0632943
0.0160367
0.0160367
0.0181203
0.0181203
-0.000688025
-0.000688025
0.036714
0.036714
0.0338551
0.0338551
-0.0202775
-0.0202775
0.00360609
0.00360609
-0.0450406
-0.0450406
-0.00742651
-0.00742651
0.0204917
0.0204917
0.0419399
0.0419399
-0.0520937
-0.0520937
-0.000621753
-0.000621753
0.0045743
0.0045743
-0.0128393
-0.0128393
0.012997
0.012997
-0.0133561
-0.0133561
-0.0117778
-0.0117778
-0.00966522
-0.00966522
0.0574991
0.0574991
-0.00271243
-0.00271243
-0.0148344
-0.0148344
0.044956
0.044956
-0.0224945
-0.0224945
0.000532074
0.000532074
-0.00908635
-0.00908635
-0.00826301
-0.00826301
-0.0312138
-0.0312138
0.0031614
0.0031614
0.0106519
0.0106519
0.0776092
0.0776092
0.00267241
0.00267241
0.0139574
0.0139574
0.00664574
0.00664574
-0.00100056
-0.00100056
-0.00465818
-0.00465818
-0.00255549
-0.00255549
0.0717069
0.0717069
0.0509626
0.0509626
0.0291518
0.0291518
0.0151791
0.0151791
0.00542728
0.00542728
-0.0780559
-0.0780559
-0.00307179
-0.00307179
0.0158564
0.0158564
0.0421969
0.0421969
0.0104559
0.0104559
-0.155261
-0.155261
-0.00755179
-0.00755179
0.0185114
0.0185114
0.00595512
0.00595512
-0.00753164
-0.00753164
-0.0252488
-0.0252488
-0.0308799
-0.0308799
-0.0113071
-0.0113071
-0.0601172
-0.0601172
-0.00134041
-0.00134041
-0.00448461
-0.00448461
0.0159468
0.0159468
0.0262543
0.0262543
0.0108237
0.0108237
0.00171975
0.00171975
-0.00516028
-0.00516028
0.0493856
0.0493856
-0.00554352
-0.00554352
0.00554089
0.00554089
-0.0189529
-0.0189529
-0.0828826
-0.0828826
-0.00526879
-0.00526879
-0.0233264
-0.0233264
-0.157455
-0.157455
0.00247951
0.00247951
-0.0157953
-0.0157953
-0.00053239
-0.00053239
-0.000392018
-0.000392018
-0.00207353
-0.00207353
-0.00197385
-0.00197385
-0.00312276
-0.00312276
0.0371855
0.0371855
0.15528
0.15528
-0.0399003
-0.0399003
0.00788215
0.00788215
0.00381278
0.00381278
0.0382745
0.0382745
-0.0152821
-0.0152821
-0.029951
-0.029951
-0.0158176
-0.0158176
0.00140137
0.00140137
-0.0337923
-0.0337923
0.00417366
0.00417366
-0.0218317
-0.0218317
0.0254154
0.0254154
0.0197912
0.0197912
-0.0029729
-0.0029729
-0.00837896
-0.00837896
-0.00992734
-0.00992734
-0.144008
-0.144008
0.0314164
0.0314164
-0.0131587
-0.0131587
0.0120455
0.0120455
0.0149389
0.0149389
-0.0542675
-0.0542675
-0.0817065
-0.0817065
-0.00149927
-0.00149927
-0.0483362
-0.0483362
0.00265294
0.00265294
-0.0205914
-0.0205914
0.0489778
0.0489778
0.0342522
0.0342522
0.00860026
0.00860026
-0.015133
-0.015133
-0.0258424
-0.0258424
0.0775076
0.0775076
-0.00118239
-0.00118239
-0.000309642
-0.000309642
-0.0401523
-0.0401523
0.0113339
0.0113339
0.00331305
0.00331305
0.0251616
0.0251616
-0.00944605
-0.00944605
0.0633689
0.0633689
-0.00583189
-0.00583189
0.0215551
0.0215551
0.00675608
0.00675608
-0.014348
-0.014348
-0.114059
-0.114059
0.00818514
0.00818514
-0.00263861
-0.00263861
0.106575
0.106575
0.00654052
0.00654052
-0.0204989
-0.0204989
0.0147938
0.0147938
0.0258561
0.0258561
0.00932808
0.00932808
0.00753627
0.00753627
0.013267
0.013267
0.00893639
0.00893639
0.0154724
0.0154724
0.00386124
0.00386124
-0.0945845
-0.0945845
-0.0101992
-0.0101992
-0.0134624
-0.0134624
0.113228
0.113228
0.0236571
0.0236571
-0.0285496
-0.0285496
-0.0101963
-0.0101963
-0.0556875
-0.0556875
-0.0356619
-0.0356619
0.0406704
0.0406704
0.00244912
0.00244912
-0.00880691
-0.00880691
-0.109125
-0.109125
-0.00682071
-0.00682071
-0.0348789
-0.0348789
-0.0186948
-0.0186948
-0.108015
-0.108015
0.0122925
0.0122925
0.000902725
0.000902725
-0.0570901
-0.0570901
0.00435043
0.00435043
0.00693475
0.00693475
0.00770715
0.00770715
0.0313269
0.0313269
-0.0278158
-0.0278158
0.00321452
0.00321452
0.0100659
0.0100659
-0.00657455
-0.00657455
0.0108204
0.0108204
0.0174783
0.0174783
0.00541845
0.00541845
-0.0371412
-0.0371412
-0.0666929
-0.0666929
0.00128503
0.00128503
-0.00319106
-0.00319106
0.00119269
0.00119269
-0.00590405
-0.00590405
-0.010362
-0.010362
0.137783
0.137783
0.108965
0.108965
0.00280807
0.00280807
0.00970737
0.00970737
0.0257867
0.0257867
0.0200219
0.0200219
-0.0236883
-0.0236883
-0.00335881
-0.00335881
-0.0171497
-0.0171497
-0.0205813
-0.0205813
-0.00585088
-0.00585088
0.000130835
0.000130835
-0.00611245
-0.00611245
0.0100103
0.0100103
-0.00959286
-0.00959286
-0.0368456
-0.0368456
-0.00170998
-0.00170998
0.0066012
0.0066012
-0.0251019
-0.0251019
0.00753987
0.00753987
0.0422315
0.0422315
-0.0213895
-0.0213895
0.0111866
0.0111866
0.012665
0.012665
-0.0421788
-0.0421788
-0.0032922
-0.0032922
0.025512
0.025512
-0.049486
-0.049486
-0.0225485
-0.0225485
0.000429116
0.000429116
-0.00124319
-0.00124319
5.1016e-05
5.1016e-05
0.149215
0.149215
-0.0354015
-0.0354015
-0.0123495
-0.0123495
0.101255
0.101255
0.00162843
0.00162843
0.0164331
0.0164331
0.0150551
0.0150551
-0.0244926
-0.0244926
-0.0448341
-0.0448341
0.0278584
0.0278584
0.00433798
0.00433798
0.00437247
0.00437247
-0.00400389
-0.00400389
-0.0437728
-0.0437728
0.00198821
0.00198821
0.0990643
0.0990643
-0.00939033
-0.00939033
0.051191
0.051191
0.00754622
0.00754622
0.126764
0.126764
0.0149616
0.0149616
-0.00714978
-0.00714978
-0.00890491
-0.00890491
0.0327944
0.0327944
0.0722055
0.0722055
0.00367464
0.00367464
-0.0320862
-0.0320862
0.00755228
0.00755228
-0.0109939
-0.0109939
-0.00148597
-0.00148597
-0.0264722
-0.0264722
-0.0249782
-0.0249782
-0.100915
-0.100915
-0.00445442
-0.00445442
-0.0705442
-0.0705442
-0.187772
-0.187772
-0.01683
-0.01683
0.0543266
0.0543266
-0.00941842
-0.00941842
0.00190992
0.00190992
0.0458798
0.0458798
-0.0158149
-0.0158149
0.0298722
0.0298722
-0.0470089
-0.0470089
-0.00900707
-0.00900707
0.0144374
0.0144374
0.00644181
0.00644181
0.06157
0.06157
-0.0235829
-0.0235829
0.00609864
0.00609864
0.131125
0.131125
0.0146703
0.0146703
-0.010321
-0.010321
-0.13878
-0.13878
0.0253121
0.0253121
-0.0101256
-0.0101256
0.00097144
0.00097144
0.0148393
0.0148393
0.0121356
0.0121356
-0.0937333
-0.0937333
-0.133554
-0.133554
0.00618646
0.00618646
0.00975309
0.00975309
0.00855773
0.00855773
0.00576833
0.00576833
0.0230187
0.0230187
-0.00848725
-0.00848725
0.0124297
0.0124297
0.00232668
0.00232668
-0.0166392
-0.0166392
0.0111331
0.0111331
0.0138762
0.0138762
0.00366523
0.00366523
-0.00970855
-0.00970855
0.0408311
0.0408311
0.0272352
0.0272352
-0.0047719
-0.0047719
-0.0203945
-0.0203945
-0.000751906
-0.000751906
-0.00219719
-0.00219719
-0.0102967
-0.0102967
-0.141727
-0.141727
-0.00516402
-0.00516402
-0.0127031
-0.0127031
0.0105601
0.0105601
-0.00802804
-0.00802804
0.0976756
0.0976756
0.0345442
0.0345442
-0.0262733
-0.0262733
0.0175438
0.0175438
-0.0224362
-0.0224362
0.0846065
0.0846065
-0.0576689
-0.0576689
-0.0103444
-0.0103444
0.00404889
0.00404889
0.0279725
0.0279725
-0.00372771
-0.00372771
0.00563753
0.00563753
0.0830641
0.0830641
-0.0187725
-0.0187725
-0.0140828
-0.0140828
0.0165152
0.0165152
-0.0130216
-0.0130216
0.0137366
0.0137366
-0.0151226
-0.0151226
-0.12544
-0.12544
0.0891848
0.0891848
0.0025443
0.0025443
-0.0101694
-0.0101694
0.00379438
0.00379438
0.0323261
0.0323261
-0.00544703
-0.00544703
-0.00572974
-0.00572974
0.0344764
0.0344764
-0.014192
-0.014192
0.0352504
0.0352504
0.0888607
0.0888607
0.0074029
0.0074029
-0.00195868
-0.00195868
-0.00598935
-0.00598935
-0.00626645
-0.00626645
-0.0298756
-0.0298756
-0.0252452
-0.0252452
0.0151554
0.0151554
0.00952607
0.00952607
-0.0288221
-0.0288221
-0.00319227
-0.00319227
-0.00670147
-0.00670147
0.0504596
0.0504596
0.000899253
0.000899253
0.0343301
0.0343301
-0.110199
-0.110199
0.0170364
0.0170364
-0.0394686
-0.0394686
-0.0143125
-0.0143125
-0.0682161
-0.0682161
-0.0137389
-0.0137389
-0.00133959
-0.00133959
0.0151631
0.0151631
-0.00612709
-0.00612709
-0.00514098
-0.00514098
-0.00783693
-0.00783693
0.00873818
0.00873818
-0.0649009
-0.0649009
-0.0246892
-0.0246892
0.0861266
0.0861266
-0.0267096
-0.0267096
0.0180898
0.0180898
-0.0569759
-0.0569759
0.16601
0.16601
-0.122079
-0.122079
0.0183566
0.0183566
0.157584
0.157584
0.0446238
0.0446238
0.0008613
0.0008613
-0.00231594
-0.00231594
0.00675444
0.00675444
-0.00125792
-0.00125792
0.0440144
0.0440144
-0.00227426
-0.00227426
0.0411787
0.0411787
-0.00313482
-0.00313482
0.00962097
0.00962097
-0.163577
-0.163577
-0.0152635
-0.0152635
0.00486833
0.00486833
0.0253494
0.0253494
-0.00933122
-0.00933122
-0.133076
-0.133076
-0.0733035
-0.0733035
-0.00509562
-0.00509562
0.0188412
0.0188412
-0.0290093
-0.0290093
0.0792674
0.0792674
0.0165489
0.0165489
-0.00157741
-0.00157741
-0.0312995
-0.0312995
-0.0320769
-0.0320769
-0.0270342
-0.0270342
-0.00795132
-0.00795132
0.00772977
0.00772977
-0.000735036
-0.000735036
-0.00959975
-0.00959975
0.00929672
0.00929672
-0.0086356
-0.0086356
-0.00251767
-0.00251767
0.000712579
0.000712579
0.00233286
0.00233286
-0.0356669
-0.0356669
-0.0413508
-0.0413508
0.00155873
0.00155873
-0.0523628
-0.0523628
-0.0788482
-0.0788482
-0.00425749
-0.00425749
0.00145273
0.00145273
-0.0358782
-0.0358782
0.082624
0.082624
-0.0679377
-0.0679377
-0.00815645
-0.00815645
0.0344953
0.0344953
0.018406
0.018406
0.00447802
0.00447802
-0.0106492
-0.0106492
-0.00275002
-0.00275002
-0.00319348
-0.00319348
0.000837677
0.000837677
0.0076079
0.0076079
-0.0478801
-0.0478801
-0.0598376
-0.0598376
0.00213551
0.00213551
-0.0243783
-0.0243783
-0.0205801
-0.0205801
0.0730576
0.0730576
0.0137803
0.0137803
0.0547302
0.0547302
0.00608065
0.00608065
0.00716478
0.00716478
0.0063902
0.0063902
0.0169536
0.0169536
-0.134535
-0.134535
-0.00980381
-0.00980381
0.00276262
0.00276262
-0.0071039
-0.0071039
0.0810659
0.0810659
-0.0197418
-0.0197418
-0.00783039
-0.00783039
0.00468237
0.00468237
0.00354679
0.00354679
-0.00295445
-0.00295445
-0.00905697
-0.00905697
0.0117977
0.0117977
0.0161798
0.0161798
0.0121947
0.0121947
0.00595558
0.00595558
0.00708485
0.00708485
-0.143177
-0.143177
-0.0298519
-0.0298519
-0.00774554
-0.00774554
-0.000495551
-0.000495551
0.0144551
0.0144551
-0.0796253
-0.0796253
0.0115468
0.0115468
0.0148477
0.0148477
-0.00405668
-0.00405668
-0.0111715
-0.0111715
-0.00468347
-0.00468347
0.0725738
0.0725738
0.0604743
0.0604743
-0.0104321
-0.0104321
0.0138658
0.0138658
-0.037063
-0.037063
-0.00339342
-0.00339342
-0.0536953
-0.0536953
-0.0176861
-0.0176861
0.119911
0.119911
0.136716
0.136716
0.00714982
0.00714982
-0.114139
-0.114139
-0.00802237
-0.00802237
0.012444
0.012444
-0.0687237
-0.0687237
0.00463177
0.00463177
-0.0032066
-0.0032066
-0.00748311
-0.00748311
-0.0298876
-0.0298876
-0.000429223
-0.000429223
-0.0202429
-0.0202429
0.00332739
0.00332739
-0.0288518
-0.0288518
-0.0632327
-0.0632327
-0.0161616
-0.0161616
0.0395935
0.0395935
0.000438227
0.000438227
-0.103907
-0.103907
-0.0155798
-0.0155798
-0.00831815
-0.00831815
-0.00174446
-0.00174446
0.0162517
0.0162517
-0.00243701
-0.00243701
-0.0437143
-0.0437143
-0.00795068
-0.00795068
-0.104066
-0.104066
0.013134
0.013134
0.00441829
0.00441829
0.00574526
0.00574526
0.00574468
0.00574468
-0.0149787
-0.0149787
-0.00438367
-0.00438367
0.0546194
0.0546194
0.0211279
0.0211279
-0.00435717
-0.00435717
-0.00957926
-0.00957926
0.0154454
0.0154454
0.00947216
0.00947216
-0.0497717
-0.0497717
0.000668325
0.000668325
-0.0081383
-0.0081383
0.00285577
0.00285577
0.000590777
0.000590777
-0.0511835
-0.0511835
0.000387757
0.000387757
0.0137147
0.0137147
0.0678376
0.0678376
-0.00637275
-0.00637275
-0.0437268
-0.0437268
-0.0103643
-0.0103643
-0.0536771
-0.0536771
0.00440833
0.00440833
0.00744205
0.00744205
-0.0206189
-0.0206189
0.00597274
0.00597274
0.0045052
0.0045052
0.0733658
0.0733658
0.0183501
0.0183501
-0.132406
-0.132406
-0.0390047
-0.0390047
-0.0107354
-0.0107354
-0.026693
-0.026693
-0.00405595
-0.00405595
-0.108761
-0.108761
0.00708195
0.00708195
0.00141082
0.00141082
0.00991488
0.00991488
0.0138969
0.0138969
-0.00657452
-0.00657452
-0.0590085
-0.0590085
-0.026163
-0.026163
0.0704893
0.0704893
-0.0050378
-0.0050378
0.0171969
0.0171969
0.058321
0.058321
-0.0166205
-0.0166205
-0.0103828
-0.0103828
0.0431151
0.0431151
0.0946748
0.0946748
-0.00459035
-0.00459035
-0.0134396
-0.0134396
0.0103278
0.0103278
-0.0860811
-0.0860811
0.0314092
0.0314092
0.00788335
0.00788335
-0.00696964
-0.00696964
-0.0059841
-0.0059841
-0.00548352
-0.00548352
0.00292105
0.00292105
0.0137527
0.0137527
0.0155579
0.0155579
-0.0457698
-0.0457698
-0.0150322
-0.0150322
0.00829904
0.00829904
-0.0426012
-0.0426012
0.00677368
0.00677368
0.00184423
0.00184423
-0.0039032
-0.0039032
-0.00639721
-0.00639721
0.0547137
0.0547137
0.0801691
0.0801691
0.00143136
0.00143136
0.00427636
0.00427636
0.0147778
0.0147778
0.000866223
0.000866223
0.0124928
0.0124928
0.000340698
0.000340698
0.000697435
0.000697435
0.000438443
0.000438443
0.00777455
0.00777455
0.00157773
0.00157773
-0.00154908
-0.00154908
-0.0474893
-0.0474893
0.00865519
0.00865519
-0.0927721
-0.0927721
-0.15418
-0.15418
0.0491429
0.0491429
-0.0744782
-0.0744782
0.00349251
0.00349251
-0.00811334
-0.00811334
0.0674804
0.0674804
0.0228446
0.0228446
-0.00768975
-0.00768975
8.54146e-05
8.54146e-05
-0.0318064
-0.0318064
-0.126226
-0.126226
-0.0253935
-0.0253935
0.004535
0.004535
-0.0772123
-0.0772123
-0.036231
-0.036231
0.116232
0.116232
-0.00032521
-0.00032521
0.00902437
0.00902437
-0.0709464
-0.0709464
-0.0177529
-0.0177529
-0.00233076
-0.00233076
0.00553561
0.00553561
-0.0176491
-0.0176491
0.00901536
0.00901536
-0.0093409
-0.0093409
-0.00580326
-0.00580326
-0.147329
-0.147329
-0.00349115
-0.00349115
-0.00288095
-0.00288095
-0.0946204
-0.0946204
-0.00152236
-0.00152236
-0.00124308
-0.00124308
0.00692422
0.00692422
-0.0074873
-0.0074873
0.113154
0.113154
0.0081906
0.0081906
-0.0194828
-0.0194828
0.0646726
0.0646726
0.00373257
0.00373257
-0.00893714
-0.00893714
0.0200188
0.0200188
-0.0467723
-0.0467723
0.00315644
0.00315644
-0.0350021
-0.0350021
-0.0188481
-0.0188481
-0.00745472
-0.00745472
0.0018352
0.0018352
-0.0552266
-0.0552266
-0.00745496
-0.00745496
0.0593435
0.0593435
0.00250833
0.00250833
-0.0374043
-0.0374043
-0.0071163
-0.0071163
-0.00695599
-0.00695599
0.0075734
0.0075734
0.0178334
0.0178334
-0.00569266
-0.00569266
0.0280981
0.0280981
0.00848234
0.00848234
-0.109559
-0.109559
-0.0102801
-0.0102801
-0.00658475
-0.00658475
-0.0300134
-0.0300134
8.99018e-05
8.99018e-05
0.017335
0.017335
0.00921832
0.00921832
-0.0173594
-0.0173594
-0.00112117
-0.00112117
0.00430436
0.00430436
-0.113492
-0.113492
0.0635284
0.0635284
0.00313933
0.00313933
0.0146526
0.0146526
0.0013793
0.0013793
0.00711133
0.00711133
0.0775098
0.0775098
0.00830975
0.00830975
0.0658138
0.0658138
-0.0418329
-0.0418329
0.117773
0.117773
0.00553883
0.00553883
0.00433092
0.00433092
-0.00906041
-0.00906041
0.0824969
0.0824969
-0.0307947
-0.0307947
0.0398318
0.0398318
0.0450846
0.0450846
0.0464019
0.0464019
-0.0269548
-0.0269548
0.00741742
0.00741742
-0.0393115
-0.0393115
-0.00739593
-0.00739593
0.00183881
0.00183881
0.0978417
0.0978417
-0.0991882
-0.0991882
-0.0224087
-0.0224087
-0.0870891
-0.0870891
-0.0315639
-0.0315639
0.0843233
0.0843233
-0.0241768
-0.0241768
-0.0132124
-0.0132124
-0.00466301
-0.00466301
-0.00472401
-0.00472401
0.0257974
0.0257974
-0.000948767
-0.000948767
-0.000906351
-0.000906351
-0.0020378
-0.0020378
-0.0411893
-0.0411893
-0.0213761
-0.0213761
-0.017744
-0.017744
0.0193886
0.0193886
-0.0253912
-0.0253912
-0.0123794
-0.0123794
-0.034202
-0.034202
-0.0222135
-0.0222135
0.138049
0.138049
-0.0172633
-0.0172633
-0.0658776
-0.0658776
0.097208
0.097208
0.0112479
0.0112479
-0.13906
-0.13906
0.0107291
0.0107291
0.00498234
0.00498234
0.00119262
0.00119262
0.00888495
0.00888495
-0.0192485
-0.0192485
0.00725949
0.00725949
0.0144473
0.0144473
0.160369
0.160369
0.00101819
0.00101819
0.0801681
0.0801681
0.00448287
0.00448287
-0.00148727
-0.00148727
0.134917
0.134917
0.0511222
0.0511222
-0.0271298
-0.0271298
0.0208419
0.0208419
0.00728581
0.00728581
0.0199684
0.0199684
0.0392664
0.0392664
-0.00464353
-0.00464353
-0.0136745
-0.0136745
-0.0102146
-0.0102146
0.00628063
0.00628063
-0.0892179
-0.0892179
-0.0109101
-0.0109101
-0.00763773
-0.00763773
0.000669799
0.000669799
0.0512258
0.0512258
0.0220068
0.0220068
-0.00273837
-0.00273837
0.0343636
0.0343636
0.168145
0.168145
0.0153749
0.0153749
-0.0985868
-0.0985868
-0.0113876
-0.0113876
0.00376934
0.00376934
-0.00193016
-0.00193016
0.159521
0.159521
-0.0011942
-0.0011942
-0.00898529
-0.00898529
-0.0138728
-0.0138728
-0.0211439
-0.0211439
-0.0724584
-0.0724584
-0.0163891
-0.0163891
0.0100497
0.0100497
-0.0154347
-0.0154347
-0.00268278
-0.00268278
0.0397307
0.0397307
0.00840204
0.00840204
-0.0232637
-0.0232637
-0.128631
-0.128631
-0.00524958
-0.00524958
-0.00394772
-0.00394772
-0.105284
-0.105284
0.0542702
0.0542702
-0.00309033
-0.00309033
0.00481738
0.00481738
0.0322741
0.0322741
0.0412082
0.0412082
-0.00546327
-0.00546327
0.0237435
0.0237435
0.00577061
0.00577061
-0.0639717
-0.0639717
-0.0094509
-0.0094509
0.0124951
0.0124951
0.0548588
0.0548588
0.0218984
0.0218984
0.00816747
0.00816747
-0.067464
-0.067464
0.0184133
0.0184133
0.0127358
0.0127358
-0.0881404
-0.0881404
-0.0184447
-0.0184447
0.0139762
0.0139762
-0.0196997
-0.0196997
0.0725931
0.0725931
-0.00345729
-0.00345729
-0.00335148
-0.00335148
-0.00759212
-0.00759212
0.0420414
0.0420414
0.0177518
0.0177518
0.0422387
0.0422387
-0.00629433
-0.00629433
-0.0421023
-0.0421023
-0.0304654
-0.0304654
0.0118393
0.0118393
-0.00984987
-0.00984987
-0.00482455
-0.00482455
0.0117707
0.0117707
0.108217
0.108217
-0.0586516
-0.0586516
-0.0150599
-0.0150599
0.0126841
0.0126841
-0.0081236
-0.0081236
0.00764165
0.00764165
-0.00424346
-0.00424346
0.0549478
0.0549478
0.0210096
0.0210096
0.0233391
0.0233391
-0.0192403
-0.0192403
-0.0278193
-0.0278193
-0.0172507
-0.0172507
0.0112903
0.0112903
0.0675459
0.0675459
-0.00301707
-0.00301707
0.00065305
0.00065305
-0.00247921
-0.00247921
0.194189
0.194189
-0.00859996
-0.00859996
0.00527311
0.00527311
-0.0101957
-0.0101957
-0.00755146
-0.00755146
0.00883635
0.00883635
-0.00795204
-0.00795204
-0.00164958
-0.00164958
0.0924544
0.0924544
-0.00776
-0.00776
0.0716095
0.0716095
-0.00487498
-0.00487498
-0.00825331
-0.00825331
0.0162328
0.0162328
-0.0319952
-0.0319952
-0.00393191
-0.00393191
0.0298361
0.0298361
0.0159903
0.0159903
0.0197671
0.0197671
-0.0306329
-0.0306329
0.00146537
0.00146537
0.0570344
0.0570344
-0.00481273
-0.00481273
0.0189011
0.0189011
0.00229734
0.00229734
0.0108549
0.0108549
-0.0093897
-0.0093897
-0.0720601
-0.0720601
0.00182051
0.00182051
-0.0348242
-0.0348242
-0.0312879
-0.0312879
0.00920177
0.00920177
-0.00154316
-0.00154316
0.00483743
0.00483743
-0.0119074
-0.0119074
0.00649046
0.00649046
0.00639077
0.00639077
0.00419486
0.00419486
-0.0439116
-0.0439116
0.0952504
0.0952504
0.00195604
0.00195604
-0.0253978
-0.0253978
0.0243169
0.0243169
-0.0459893
-0.0459893
-0.0258855
-0.0258855
-0.00348122
-0.00348122
-0.00602375
-0.00602375
0.0131963
0.0131963
-0.00821937
-0.00821937
-0.0133813
-0.0133813
-0.0112755
-0.0112755
-0.00813422
-0.00813422
0.142186
0.142186
0.0243155
0.0243155
0.0315568
0.0315568
-0.00909867
-0.00909867
-0.00910878
-0.00910878
-0.0513355
-0.0513355
0.0210472
0.0210472
0.0386478
0.0386478
0.0183713
0.0183713
0.0033918
0.0033918
0.0159425
0.0159425
-0.0180162
-0.0180162
-0.00365901
-0.00365901
0.0151873
0.0151873
0.00955405
0.00955405
0.00780453
0.00780453
-0.0297707
-0.0297707
-0.00695868
-0.00695868
0.00583007
0.00583007
-0.0178924
-0.0178924
-0.0888074
-0.0888074
0.00542607
0.00542607
-0.00465062
-0.00465062
0.0893417
0.0893417
0.00719177
0.00719177
0.00168767
0.00168767
-0.0304778
-0.0304778
-0.0115044
-0.0115044
0.00258471
0.00258471
0.0158443
0.0158443
0.0149899
0.0149899
-0.000703338
-0.000703338
-0.116683
-0.116683
-0.00473326
-0.00473326
0.0225892
0.0225892
-0.124596
-0.124596
0.0110426
0.0110426
0.0308789
0.0308789
0.0373085
0.0373085
-0.0155618
-0.0155618
0.0775294
0.0775294
0.0150584
0.0150584
0.0185986
0.0185986
-0.0055657
-0.0055657
0.00190014
0.00190014
0.0644204
0.0644204
0.106752
0.106752
0.00513422
0.00513422
-0.00730732
-0.00730732
-0.0103795
-0.0103795
0.00524148
0.00524148
-0.10427
-0.10427
-0.0152204
-0.0152204
0.0600957
0.0600957
0.00183367
0.00183367
0.010122
0.010122
0.0385054
0.0385054
0.0404046
0.0404046
0.0071135
0.0071135
-0.00958107
-0.00958107
0.0836953
0.0836953
-0.0147028
-0.0147028
-0.00853755
-0.00853755
0.00357777
0.00357777
-0.0691118
-0.0691118
-0.00598141
-0.00598141
-0.00318844
-0.00318844
0.0107836
0.0107836
0.00121719
0.00121719
0.0676956
0.0676956
0.0259626
0.0259626
-0.152336
-0.152336
0.00518572
0.00518572
-0.0655338
-0.0655338
0.0331792
0.0331792
0.0156317
0.0156317
-0.0119669
-0.0119669
0.0336335
0.0336335
-0.00785841
-0.00785841
-6.59524e-05
-6.59524e-05
0.00220616
0.00220616
0.0287869
0.0287869
-0.0166255
-0.0166255
-0.00231939
-0.00231939
0.00565219
0.00565219
-0.0226161
-0.0226161
0.125587
0.125587
0.112131
0.112131
0.0521642
0.0521642
0.0639571
0.0639571
-0.013696
-0.013696
-0.000635444
-0.000635444
0.0060111
0.0060111
-0.0507647
-0.0507647
-0.10063
-0.10063
1.15319e-05
1.15319e-05
0.0383497
0.0383497
-0.00407635
-0.00407635
-0.0195925
-0.0195925
-1.52878e-05
-1.52878e-05
0.0921783
0.0921783
-0.0311932
-0.0311932
0.0163793
0.0163793
0.019686
0.019686
-0.00413505
-0.00413505
0.00394657
0.00394657
0.0112654
0.0112654
-0.00242117
-0.00242117
-0.00671603
-0.00671603
0.0252285
0.0252285
0.0101423
0.0101423
0.0579475
0.0579475
-0.143074
-0.143074
-0.00582414
-0.00582414
0.0114383
0.0114383
-0.0593113
-0.0593113
-0.00901534
-0.00901534
0.00577
0.00577
0.0267181
0.0267181
-0.00242197
-0.00242197
0.0487096
0.0487096
0.00550546
0.00550546
0.00878281
0.00878281
-0.0778627
-0.0778627
0.00972631
0.00972631
-0.0829179
-0.0829179
0.0932181
0.0932181
0.0103542
0.0103542
0.0191794
0.0191794
-0.013489
-0.013489
-0.013887
-0.013887
0.032233
0.032233
-0.0137679
-0.0137679
0.0136403
0.0136403
0.0235375
0.0235375
-0.0447894
-0.0447894
-0.0313743
-0.0313743
-0.0189257
-0.0189257
-0.0182942
-0.0182942
0.0132016
0.0132016
0.0709044
0.0709044
0.00372336
0.00372336
0.0143972
0.0143972
0.0138478
0.0138478
-0.00707854
-0.00707854
0.0154469
0.0154469
0.00140517
0.00140517
0.0243674
0.0243674
0.00606501
0.00606501
-0.0137579
-0.0137579
0.00207805
0.00207805
0.0156598
0.0156598
0.00606252
0.00606252
-0.0309767
-0.0309767
0.048984
0.048984
-0.14249
-0.14249
-0.00714548
-0.00714548
-0.00817975
-0.00817975
0.0900071
0.0900071
0.0122869
0.0122869
-0.0382824
-0.0382824
-0.0462435
-0.0462435
-0.000533583
-0.000533583
0.0526899
0.0526899
-0.00598622
-0.00598622
0.00617572
0.00617572
-0.0244563
-0.0244563
0.00314061
0.00314061
-0.00850692
-0.00850692
-0.00662451
-0.00662451
-0.0236254
-0.0236254
-0.0423286
-0.0423286
-0.00807489
-0.00807489
-0.00119322
-0.00119322
-0.00116396
-0.00116396
-0.0414008
-0.0414008
0.00304837
0.00304837
0.00401941
0.00401941
-0.0133833
-0.0133833
-0.0453947
-0.0453947
0.0326211
0.0326211
0.00207539
0.00207539
-0.0109417
-0.0109417
0.0704601
0.0704601
-0.00511536
-0.00511536
-0.0110447
-0.0110447
-0.0350774
-0.0350774
0.00496114
0.00496114
-0.010172
-0.010172
0.0264539
0.0264539
-0.016081
-0.016081
-0.0185215
-0.0185215
-0.00453979
-0.00453979
0.00670173
0.00670173
-0.0107172
-0.0107172
-0.102045
-0.102045
-0.0305072
-0.0305072
0.11478
0.11478
0.00651131
0.00651131
-0.0127583
-0.0127583
-0.0503177
-0.0503177
0.0357998
0.0357998
-0.00956304
-0.00956304
0.0423206
0.0423206
-0.0495575
-0.0495575
-0.0106664
-0.0106664
-0.00134451
-0.00134451
0.0199282
0.0199282
-0.0654233
-0.0654233
0.0046934
0.0046934
-0.00814196
-0.00814196
-0.0071092
-0.0071092
0.0153466
0.0153466
-0.0205364
-0.0205364
0.00139184
0.00139184
-0.0259219
-0.0259219
0.0367193
0.0367193
-0.0163646
-0.0163646
0.0696511
0.0696511
-0.00423138
-0.00423138
-0.0147072
-0.0147072
-0.0820135
-0.0820135
-0.137352
-0.137352
-0.077153
-0.077153
-0.0126413
-0.0126413
-0.0119477
-0.0119477
-0.00625511
-0.00625511
-0.0590319
-0.0590319
0.0519676
0.0519676
-0.0115353
-0.0115353
-0.000514778
-0.000514778
-0.030001
-0.030001
-0.00489125
-0.00489125
-0.059888
-0.059888
0.0072528
0.0072528
-0.0433629
-0.0433629
0.000861073
0.000861073
0.0127512
0.0127512
0.0838545
0.0838545
-0.00959907
-0.00959907
-0.00784378
-0.00784378
-0.078962
-0.078962
-0.000673686
-0.000673686
-0.0236694
-0.0236694
-0.0229056
-0.0229056
0.0249759
0.0249759
-0.0072787
-0.0072787
0.0224543
0.0224543
0.0436549
0.0436549
-0.00770343
-0.00770343
-0.00010032
-0.00010032
0.00520299
0.00520299
-0.0218932
-0.0218932
-0.00257016
-0.00257016
-0.135157
-0.135157
-0.00615076
-0.00615076
0.0206139
0.0206139
-0.00351012
-0.00351012
-0.00993795
-0.00993795
-0.0106148
-0.0106148
-0.0810643
-0.0810643
0.0144711
0.0144711
0.0186527
0.0186527
-0.00837332
-0.00837332
-0.0487222
-0.0487222
0.102204
0.102204
-0.00610853
-0.00610853
-0.0133341
-0.0133341
0.00290823
0.00290823
0.0147042
0.0147042
0.00777981
0.00777981
-0.00200381
-0.00200381
0.00974071
0.00974071
-0.00378689
-0.00378689
-0.0423477
-0.0423477
0.0465975
0.0465975
0.098658
0.098658
0.00481445
0.00481445
-0.0337688
-0.0337688
-0.0531678
-0.0531678
0.0111339
0.0111339
-0.0722677
-0.0722677
0.0224853
0.0224853
-0.0670508
-0.0670508
0.0770888
0.0770888
-0.0114959
-0.0114959
-0.000827157
-0.000827157
0.00899492
0.00899492
-0.0082567
-0.0082567
-0.0216211
-0.0216211
-0.00697672
-0.00697672
-0.00660037
-0.00660037
-0.005344
-0.005344
0.0843883
0.0843883
0.0096535
0.0096535
-0.0132289
-0.0132289
-0.0123343
-0.0123343
-0.0246804
-0.0246804
0.0905376
0.0905376
-0.00506789
-0.00506789
0.0151247
0.0151247
0.0051128
0.0051128
0.00681834
0.00681834
-0.00759002
-0.00759002
0.017213
0.017213
0.0346253
0.0346253
-0.0697396
-0.0697396
-0.000693989
-0.000693989
0.00444106
0.00444106
0.00751449
0.00751449
0.00147571
0.00147571
-0.0529864
-0.0529864
0.153623
0.153623
0.0157232
0.0157232
0.0618411
0.0618411
-0.00112892
-0.00112892
0.00173093
0.00173093
-0.0324042
-0.0324042
0.035706
0.035706
-0.0256801
-0.0256801
-0.0247504
-0.0247504
0.00103373
0.00103373
0.00251457
0.00251457
-0.0351452
-0.0351452
-0.0124437
-0.0124437
0.013813
0.013813
-0.0195063
-0.0195063
-0.00582775
-0.00582775
-0.00487461
-0.00487461
0.013036
0.013036
-0.00956945
-0.00956945
0.0592676
0.0592676
-0.00461082
-0.00461082
0.00873471
0.00873471
-0.0176408
-0.0176408
0.0156308
0.0156308
0.0365853
0.0365853
0.0735434
0.0735434
-0.0112275
-0.0112275
0.0453947
0.0453947
0.00432751
0.00432751
0.0132186
0.0132186
-0.00305502
-0.00305502
0.0218902
0.0218902
-0.0166039
-0.0166039
-0.0231744
-0.0231744
-0.00538245
-0.00538245
-0.00495074
-0.00495074
-0.0538783
-0.0538783
0.00654224
0.00654224
0.0221178
0.0221178
0.00397222
0.00397222
0.0121354
0.0121354
0.042453
0.042453
-0.0428497
-0.0428497
0.0709979
0.0709979
0.0268861
0.0268861
-0.1791
-0.1791
0.00725817
0.00725817
0.0417779
0.0417779
0.0267685
0.0267685
-0.00569182
-0.00569182
-0.0114557
-0.0114557
-0.0821651
-0.0821651
-0.00782904
-0.00782904
0.0869725
0.0869725
-0.00684989
-0.00684989
-0.0167294
-0.0167294
-0.0723936
-0.0723936
-0.0346261
-0.0346261
0.00774121
0.00774121
0.00788626
0.00788626
0.0039967
0.0039967
0.0183443
0.0183443
-0.0382586
-0.0382586
-0.00316636
-0.00316636
-0.00129759
-0.00129759
0.00603426
0.00603426
-0.0223292
-0.0223292
-0.0226686
-0.0226686
-0.000980117
-0.000980117
-0.00925629
-0.00925629
-0.0126954
-0.0126954
0.00240191
0.00240191
-0.00785064
-0.00785064
0.0055079
0.0055079
0.0227039
0.0227039
0.00447432
0.00447432
-0.00864837
-0.00864837
0.011734
0.011734
0.00281646
0.00281646
0.0112008
0.0112008
0.012486
0.012486
0.00489396
0.00489396
-0.015234
-0.015234
-0.00300156
-0.00300156
0.00682156
0.00682156
0.0251242
0.0251242
-0.0958127
-0.0958127
-0.097727
-0.097727
0.00522393
0.00522393
0.0242256
0.0242256
0.0623291
0.0623291
-0.00960621
-0.00960621
-0.0115613
-0.0115613
0.00121915
0.00121915
-0.00092213
-0.00092213
-0.0840102
-0.0840102
0.0398366
0.0398366
0.0285105
0.0285105
-0.0140916
-0.0140916
-0.129881
-0.129881
-0.0324071
-0.0324071
-0.0256013
-0.0256013
-0.0102339
-0.0102339
-0.011346
-0.011346
-0.10922
-0.10922
0.112829
0.112829
0.00857054
0.00857054
0.00810689
0.00810689
0.0163498
0.0163498
-0.00337768
-0.00337768
-0.0658273
-0.0658273
-0.000652556
-0.000652556
0.0467906
0.0467906
0.0134574
0.0134574
-0.0999785
-0.0999785
-0.00060179
-0.00060179
-0.0287667
-0.0287667
0.02162
0.02162
0.0279856
0.0279856
-0.0982231
-0.0982231
0.00332433
0.00332433
0.00257885
0.00257885
0.00210168
0.00210168
0.0168016
0.0168016
-0.0577675
-0.0577675
-0.0180278
-0.0180278
0.0121873
0.0121873
0.00569802
0.00569802
-0.0264454
-0.0264454
0.00144407
0.00144407
0.00506703
0.00506703
-0.0545535
-0.0545535
0.00698313
0.00698313
-0.0072031
-0.0072031
-0.00340292
-0.00340292
0.00992308
0.00992308
-0.00312027
-0.00312027
0.0518498
0.0518498
0.0519151
0.0519151
0.00509967
0.00509967
0.00628705
0.00628705
-0.0109717
-0.0109717
0.0395479
0.0395479
-0.0146209
-0.0146209
0.00833255
0.00833255
-0.012572
-0.012572
-0.0105672
-0.0105672
-0.125439
-0.125439
0.00589017
0.00589017
-0.0396654
-0.0396654
0.00269052
0.00269052
-0.0296793
-0.0296793
-0.0232814
-0.0232814
-0.0383892
-0.0383892
0.0412705
0.0412705
-0.0204458
-0.0204458
0.0369996
0.0369996
-0.0315669
-0.0315669
0.00550693
0.00550693
-0.00738605
-0.00738605
0.0121508
0.0121508
-0.00585766
-0.00585766
-0.00981624
-0.00981624
-0.039514
-0.039514
-0.00936745
-0.00936745
-0.0111745
-0.0111745
-0.0259392
-0.0259392
0.000839396
0.000839396
0.00383985
0.00383985
-0.00750253
-0.00750253
-0.0331387
-0.0331387
0.0304184
0.0304184
-0.00177166
-0.00177166
0.00121006
0.00121006
-0.104102
-0.104102
-0.136034
-0.136034
0.0160207
0.0160207
-0.00648543
-0.00648543
-0.0372384
-0.0372384
0.00504515
0.00504515
0.00371181
0.00371181
0.0295364
0.0295364
-0.00618116
-0.00618116
0.0710483
0.0710483
-0.00531238
-0.00531238
-0.0038377
-0.0038377
-0.0343407
-0.0343407
-0.0224059
-0.0224059
-0.0187323
-0.0187323
0.0374898
0.0374898
0.00111494
0.00111494
-0.00154355
-0.00154355
0.0628816
0.0628816
-0.00419346
-0.00419346
0.00326703
0.00326703
0.00794669
0.00794669
0.0046705
0.0046705
0.0070671
0.0070671
0.0283876
0.0283876
0.025953
0.025953
0.00734382
0.00734382
-0.0394154
-0.0394154
-0.0080027
-0.0080027
0.022933
0.022933
0.00800333
0.00800333
-0.0134867
-0.0134867
-0.0322847
-0.0322847
-0.0332892
-0.0332892
-0.0275313
-0.0275313
-0.0107715
-0.0107715
0.0148424
0.0148424
-0.0538808
-0.0538808
-0.00918219
-0.00918219
0.00719874
0.00719874
0.0288915
0.0288915
0.00243651
0.00243651
0.0289477
0.0289477
-0.00497553
-0.00497553
-0.0617034
-0.0617034
0.149772
0.149772
0.0648243
0.0648243
-0.0296656
-0.0296656
-0.126743
-0.126743
-0.0170187
-0.0170187
0.00352468
0.00352468
-0.0281659
-0.0281659
-0.00113307
-0.00113307
-0.00155266
-0.00155266
-0.0800139
-0.0800139
0.00635466
0.00635466
-0.00864754
-0.00864754
-0.000720918
-0.000720918
-0.0176895
-0.0176895
0.0547799
0.0547799
-0.131702
-0.131702
0.00655419
0.00655419
-0.0346344
-0.0346344
0.011983
0.011983
-0.0401043
-0.0401043
0.0117703
0.0117703
0.0432709
0.0432709
0.00217304
0.00217304
0.0349472
0.0349472
-0.01459
-0.01459
0.00198314
0.00198314
-0.00309939
-0.00309939
0.0898618
0.0898618
0.0127009
0.0127009
0.00260463
0.00260463
0.00823622
0.00823622
-0.00834743
-0.00834743
0.0158604
0.0158604
0.0466465
0.0466465
0.0332259
0.0332259
-0.00310215
-0.00310215
-0.00451385
-0.00451385
-0.00832102
-0.00832102
-0.022344
-0.022344
0.0147082
0.0147082
-0.00237463
-0.00237463
0.0264989
0.0264989
0.0306048
0.0306048
-0.00315319
-0.00315319
-5.97311e-05
-5.97311e-05
0.0147887
0.0147887
-0.0674966
-0.0674966
-0.0505839
-0.0505839
-0.00518722
-0.00518722
0.0286249
0.0286249
0.00442929
0.00442929
-0.00822915
-0.00822915
-0.00282342
-0.00282342
0.000114938
0.000114938
0.0214398
0.0214398
-0.00159912
-0.00159912
-0.0150374
-0.0150374
-0.0137928
-0.0137928
0.00821237
0.00821237
0.00867149
0.00867149
-0.017978
-0.017978
0.0239182
0.0239182
-0.00478829
-0.00478829
0.000149046
0.000149046
-0.00773186
-0.00773186
-0.139487
-0.139487
0.00642849
0.00642849
-0.0145472
-0.0145472
0.0462216
0.0462216
0.140743
0.140743
-0.0866137
-0.0866137
0.000710914
0.000710914
0.0846887
0.0846887
0.0234981
0.0234981
-0.0912399
-0.0912399
0.000376216
0.000376216
-0.00370115
-0.00370115
-0.0527295
-0.0527295
-0.000522202
-0.000522202
-0.016439
-0.016439
-0.00965785
-0.00965785
-0.00107267
-0.00107267
0.00449111
0.00449111
-0.123979
-0.123979
-0.0935113
-0.0935113
-0.0256465
-0.0256465
-0.0236051
-0.0236051
0.0421654
0.0421654
-0.0405006
-0.0405006
0.0671544
0.0671544
0.048832
0.048832
0.00233629
0.00233629
0.141669
0.141669
0.076776
0.076776
-0.0138322
-0.0138322
-0.00357794
-0.00357794
0.00759746
0.00759746
0.00819706
0.00819706
-0.0368228
-0.0368228
-0.0102261
-0.0102261
0.030242
0.030242
0.0191018
0.0191018
-0.00481195
-0.00481195
0.0323092
0.0323092
0.00306396
0.00306396
-0.0544854
-0.0544854
-0.00961573
-0.00961573
-0.00483067
-0.00483067
-0.00526426
-0.00526426
0.00284841
0.00284841
-0.0864071
-0.0864071
-0.0105248
-0.0105248
-0.010565
-0.010565
-0.00812711
-0.00812711
0.00830918
0.00830918
-0.051505
-0.051505
-0.00541719
-0.00541719
-0.0111131
-0.0111131
0.00321001
0.00321001
0.00460981
0.00460981
-0.0718538
-0.0718538
0.00167513
0.00167513
-0.0213828
-0.0213828
-0.0107719
-0.0107719
-0.00882786
-0.00882786
-0.0253332
-0.0253332
-0.00709285
-0.00709285
0.0042185
0.0042185
0.000150943
0.000150943
0.0273057
0.0273057
0.0977851
0.0977851
-0.00748794
-0.00748794
0.0241289
0.0241289
-0.00543424
-0.00543424
0.0399917
0.0399917
0.00144985
0.00144985
-0.0304064
-0.0304064
0.0450618
0.0450618
-0.0169225
-0.0169225
-0.00615999
-0.00615999
0.0195623
0.0195623
0.000465579
0.000465579
-0.111011
-0.111011
0.0272942
0.0272942
-0.0124107
-0.0124107
0.0102527
0.0102527
0.0119018
0.0119018
0.0967019
0.0967019
-0.00598347
-0.00598347
-0.00491398
-0.00491398
0.0906085
0.0906085
0.00473892
0.00473892
-0.0642816
-0.0642816
-0.0411513
-0.0411513
-0.0302864
-0.0302864
-0.010158
-0.010158
-0.00144717
-0.00144717
-0.00563628
-0.00563628
-0.0292048
-0.0292048
-0.0751452
-0.0751452
0.0110708
0.0110708
0.0232559
0.0232559
0.00482384
0.00482384
-0.00246231
-0.00246231
0.0170049
0.0170049
-0.00721177
-0.00721177
0.00732046
0.00732046
0.0269963
0.0269963
-0.0230355
-0.0230355
-0.00185263
-0.00185263
-0.0352148
-0.0352148
-0.00144898
-0.00144898
0.0134861
0.0134861
-0.00592663
-0.00592663
-0.00301117
-0.00301117
0.00421602
0.00421602
0.00121014
0.00121014
0.00338286
0.00338286
-0.00874254
-0.00874254
0.00725732
0.00725732
-0.00848898
-0.00848898
-0.0161043
-0.0161043
-0.00480999
-0.00480999
0.00466414
0.00466414
-0.055899
-0.055899
0.0584446
0.0584446
0.00760605
0.00760605
0.0319252
0.0319252
0.0414439
0.0414439
0.0419813
0.0419813
-0.0239451
-0.0239451
0.172411
0.172411
0.0164272
0.0164272
-0.0150731
-0.0150731
0.0188621
0.0188621
0.091234
0.091234
-0.0211796
-0.0211796
-0.00503704
-0.00503704
-0.0995447
-0.0995447
-0.0758427
-0.0758427
0.0856354
0.0856354
0.0699234
0.0699234
0.0335266
0.0335266
-0.031851
-0.031851
7.58019e-05
7.58019e-05
-0.00678687
-0.00678687
0.0220445
0.0220445
0.0236755
0.0236755
0.00174248
0.00174248
0.00644122
0.00644122
0.00268864
0.00268864
0.00567621
0.00567621
0.0452473
0.0452473
0.00413829
0.00413829
-0.00513374
-0.00513374
-0.00650071
-0.00650071
0.000344895
0.000344895
0.0491309
0.0491309
-0.0240103
-0.0240103
0.00592848
0.00592848
-0.0905968
-0.0905968
0.015376
0.015376
-0.00652574
-0.00652574
0.0534363
0.0534363
-0.00842582
-0.00842582
-0.016878
-0.016878
0.0241097
0.0241097
0.00939444
0.00939444
-0.00422852
-0.00422852
0.0160344
0.0160344
0.0133103
0.0133103
0.00576604
0.00576604
-0.00687837
-0.00687837
0.00259302
0.00259302
-0.102862
-0.102862
-0.00928712
-0.00928712
0.151426
0.151426
0.0233475
0.0233475
0.048701
0.048701
0.016522
0.016522
0.00641225
0.00641225
-0.0132056
-0.0132056
0.0085724
0.0085724
0.0342667
0.0342667
-0.11936
-0.11936
0.0652626
0.0652626
-0.0037584
-0.0037584
0.00687499
0.00687499
-0.0616383
-0.0616383
-0.00340075
-0.00340075
0.0775619
0.0775619
-0.00887586
-0.00887586
0.0511364
0.0511364
-0.0445156
-0.0445156
-0.0706969
-0.0706969
0.0394653
0.0394653
-0.00479122
-0.00479122
0.005908
0.005908
-0.00131894
-0.00131894
-0.00782244
-0.00782244
-0.0130423
-0.0130423
0.0859983
0.0859983
0.0614099
0.0614099
0.0152557
0.0152557
0.0583308
0.0583308
-0.0181328
-0.0181328
-0.014699
-0.014699
-0.00384829
-0.00384829
0.0112233
0.0112233
0.0667945
0.0667945
0.0190448
0.0190448
0.00452763
0.00452763
-0.00541924
-0.00541924
0.0542706
0.0542706
-0.00747155
-0.00747155
0.0323512
0.0323512
-0.0234559
-0.0234559
-0.000751965
-0.000751965
0.0585867
0.0585867
0.025783
0.025783
-0.10161
-0.10161
0.0756564
0.0756564
0.00145508
0.00145508
0.0111434
0.0111434
-0.0991142
-0.0991142
-0.0274833
-0.0274833
0.0999238
0.0999238
-0.0346612
-0.0346612
-0.0155934
-0.0155934
0.0191615
0.0191615
-0.00686942
-0.00686942
0.0379907
0.0379907
-0.0442499
-0.0442499
-0.0302526
-0.0302526
-0.00128712
-0.00128712
-0.00359771
-0.00359771
0.0103442
0.0103442
-0.00857951
-0.00857951
-0.00936183
-0.00936183
0.0562495
0.0562495
-0.0261927
-0.0261927
0.00841204
0.00841204
0.0146494
0.0146494
0.00257966
0.00257966
-0.0067068
-0.0067068
0.0116657
0.0116657
0.00588172
0.00588172
0.00305467
0.00305467
0.00876545
0.00876545
0.017119
0.017119
0.161345
0.161345
-0.0201886
-0.0201886
0.00247467
0.00247467
0.00215037
0.00215037
0.0191965
0.0191965
-0.122431
-0.122431
0.0150081
0.0150081
-0.003209
-0.003209
-0.0584343
-0.0584343
-0.00743002
-0.00743002
0.0248569
0.0248569
0.00566775
0.00566775
-0.0469478
-0.0469478
-0.00727595
-0.00727595
-0.0120659
-0.0120659
0.0411888
0.0411888
0.0159331
0.0159331
0.00640119
0.00640119
0.00740962
0.00740962
-0.00731633
-0.00731633
0.0422837
0.0422837
0.0136706
0.0136706
0.0116376
0.0116376
0.00434547
0.00434547
-0.000724389
-0.000724389
0.0501173
0.0501173
0.00135763
0.00135763
0.0130023
0.0130023
0.0393882
0.0393882
-0.0307136
-0.0307136
-0.020314
-0.020314
-0.132826
-0.132826
0.0401863
0.0401863
-0.0110124
-0.0110124
-0.0112067
-0.0112067
-0.0124826
-0.0124826
-0.00949417
-0.00949417
-0.0169454
-0.0169454
0.0242903
0.0242903
0.0781868
0.0781868
-0.00549032
-0.00549032
-0.00232878
-0.00232878
-0.0143936
-0.0143936
-0.0634785
-0.0634785
0.00675686
0.00675686
0.0267306
0.0267306
0.00540748
0.00540748
-0.0136567
-0.0136567
0.00353856
0.00353856
-0.0283943
-0.0283943
-0.012123
-0.012123
-0.0258
-0.0258
0.0449625
0.0449625
-0.0567928
-0.0567928
0.0357271
0.0357271
-0.0067081
-0.0067081
0.00985594
0.00985594
-0.0254331
-0.0254331
0.0908603
0.0908603
0.0217021
0.0217021
0.0281831
0.0281831
0.0125902
0.0125902
0.00459551
0.00459551
-0.00299205
-0.00299205
0.00258784
0.00258784
0.0174433
0.0174433
0.0714806
0.0714806
-0.0105559
-0.0105559
-0.000960413
-0.000960413
-0.022338
-0.022338
0.00459719
0.00459719
-0.00493674
-0.00493674
-0.00544698
-0.00544698
0.00561554
0.00561554
0.00422895
0.00422895
0.0440925
0.0440925
-0.00165804
-0.00165804
0.00237604
0.00237604
-0.0144139
-0.0144139
0.00516006
0.00516006
0.0255173
0.0255173
-0.00556391
-0.00556391
0.00534871
0.00534871
0.015259
0.015259
-0.0595634
-0.0595634
0.119115
0.119115
-0.00680094
-0.00680094
-0.0131952
-0.0131952
0.0195603
0.0195603
0.0515397
0.0515397
0.00944164
0.00944164
0.0079266
0.0079266
-0.0118282
-0.0118282
0.00162742
0.00162742
-0.0507152
-0.0507152
0.0103605
0.0103605
0.0131154
0.0131154
0.00514985
0.00514985
-0.00354292
-0.00354292
0.112948
0.112948
0.00716491
0.00716491
0.0496891
0.0496891
-0.0121381
-0.0121381
0.0809788
0.0809788
0.0172719
0.0172719
-0.015806
-0.015806
-0.0320207
-0.0320207
-0.0179884
-0.0179884
0.0147447
0.0147447
-0.0678196
-0.0678196
-0.0203796
-0.0203796
-0.0151199
-0.0151199
0.000142817
0.000142817
0.0162321
0.0162321
-0.0074916
-0.0074916
0.0118761
0.0118761
0.0898018
0.0898018
-0.00788635
-0.00788635
0.077341
0.077341
-0.0228845
-0.0228845
-0.00736217
-0.00736217
0.0203637
0.0203637
-0.0171495
-0.0171495
-0.0316149
-0.0316149
0.0402703
0.0402703
-0.0135513
-0.0135513
-1.79321e-05
-1.79321e-05
0.0051153
0.0051153
-0.00486228
-0.00486228
-0.080883
-0.080883
0.0154409
0.0154409
-0.00458629
-0.00458629
-0.00904715
-0.00904715
0.0616786
0.0616786
0.0564778
0.0564778
0.0372174
0.0372174
-0.00138416
-0.00138416
0.00740719
0.00740719
0.00672307
0.00672307
0.0061279
0.0061279
0.0020862
0.0020862
0.0174001
0.0174001
-0.00916599
-0.00916599
0.0190505
0.0190505
-0.0138277
-0.0138277
0.00358557
0.00358557
-0.00416358
-0.00416358
0.00315098
0.00315098
0.0153287
0.0153287
-0.0442416
-0.0442416
-0.00343677
-0.00343677
-0.00038625
-0.00038625
0.00791703
0.00791703
0.0994596
0.0994596
0.0132958
0.0132958
0.0226474
0.0226474
-0.00815525
-0.00815525
0.00134958
0.00134958
0.0530297
0.0530297
-0.0465413
-0.0465413
-0.0150388
-0.0150388
-0.0290698
-0.0290698
0.00699724
0.00699724
-0.00846985
-0.00846985
0.00529767
0.00529767
-0.0255712
-0.0255712
-0.00378057
-0.00378057
-0.00424854
-0.00424854
-0.00573542
-0.00573542
-0.0209293
-0.0209293
0.0251595
0.0251595
0.00882814
0.00882814
-0.0339803
-0.0339803
0.00804825
0.00804825
0.0223158
0.0223158
0.00764043
0.00764043
-0.0171186
-0.0171186
-0.0161704
-0.0161704
-0.00426319
-0.00426319
0.00354397
0.00354397
0.0105743
0.0105743
-0.0970306
-0.0970306
0.0322276
0.0322276
0.00536993
0.00536993
0.00710764
0.00710764
0.00214552
0.00214552
-0.00717717
-0.00717717
0.0131103
0.0131103
0.0142921
0.0142921
-0.00358882
-0.00358882
0.00529648
0.00529648
-0.00439193
-0.00439193
-0.0686423
-0.0686423
-0.0434374
-0.0434374
-0.00769912
-0.00769912
-0.00041757
-0.00041757
0.00144414
0.00144414
0.0136164
0.0136164
0.15657
0.15657
0.0222465
0.0222465
0.00524181
0.00524181
0.0226454
0.0226454
-0.0215225
-0.0215225
0.00979181
0.00979181
-0.0240424
-0.0240424
0.0233494
0.0233494
0.00971367
0.00971367
0.00242261
0.00242261
-0.0191397
-0.0191397
0.0110751
0.0110751
-0.0334816
-0.0334816
0.00764189
0.00764189
0.0157944
0.0157944
0.00369828
0.00369828
0.0477009
0.0477009
0.108255
0.108255
-0.0359518
-0.0359518
0.0201804
0.0201804
-0.007333
-0.007333
-0.00285236
-0.00285236
0.0719252
0.0719252
0.126185
0.126185
0.0101541
0.0101541
0.00762184
0.00762184
-0.00431008
-0.00431008
0.000246686
0.000246686
-0.00635296
-0.00635296
0.00399119
0.00399119
-0.0238867
-0.0238867
-0.061412
-0.061412
-0.0120748
-0.0120748
0.0346745
0.0346745
-0.00274437
-0.00274437
-0.00745785
-0.00745785
0.109524
0.109524
0.00737321
0.00737321
0.0070163
0.0070163
-0.00685638
-0.00685638
0.0156704
0.0156704
0.0445853
0.0445853
-0.00970144
-0.00970144
0.0125459
0.0125459
0.00293155
0.00293155
-0.029129
-0.029129
-0.00164006
-0.00164006
-0.00171461
-0.00171461
0.0047028
0.0047028
0.00236793
0.00236793
-0.00572032
-0.00572032
0.00519915
0.00519915
-0.00710381
-0.00710381
0.132187
0.132187
0.0164811
0.0164811
-0.00142401
-0.00142401
0.16989
0.16989
0.0802373
0.0802373
-0.00821592
-0.00821592
0.0166922
0.0166922
-0.0184504
-0.0184504
-0.0417316
-0.0417316
0.00625573
0.00625573
0.0721458
0.0721458
-0.082543
-0.082543
-0.00200031
-0.00200031
-0.00309978
-0.00309978
0.00755968
0.00755968
-0.00500717
-0.00500717
0.0210327
0.0210327
-0.0418467
-0.0418467
0.0194087
0.0194087
-0.0206631
-0.0206631
-0.0027865
-0.0027865
0.00314163
0.00314163
0.00643502
0.00643502
-0.00375876
-0.00375876
0.0133108
0.0133108
0.0241
0.0241
-0.0312126
-0.0312126
-0.00576126
-0.00576126
0.00874085
0.00874085
0.0188539
0.0188539
-0.00496458
-0.00496458
-0.125065
-0.125065
-0.0305743
-0.0305743
0.00311748
0.00311748
0.0265092
0.0265092
-0.0121962
-0.0121962
2.64896e-05
2.64896e-05
-0.000529249
-0.000529249
-0.00393791
-0.00393791
-0.0252877
-0.0252877
-0.0615818
-0.0615818
0.019754
0.019754
0.0145984
0.0145984
0.00560949
0.00560949
0.0561743
0.0561743
-0.00358062
-0.00358062
0.00451384
0.00451384
0.00292989
0.00292989
-0.00480582
-0.00480582
-0.0846011
-0.0846011
0.0207879
0.0207879
-0.00566931
-0.00566931
-0.0410698
-0.0410698
-0.00212727
-0.00212727
0.0793258
0.0793258
0.0411093
0.0411093
-0.00273531
-0.00273531
0.0121727
0.0121727
-0.0332238
-0.0332238
0.00718282
0.00718282
-0.0190363
-0.0190363
0.138327
0.138327
-0.0522273
-0.0522273
0.00563366
0.00563366
0.0244514
0.0244514
-0.00578751
-0.00578751
-0.000653934
-0.000653934
0.00569022
0.00569022
-0.0035717
-0.0035717
-0.0118279
-0.0118279
-0.0235513
-0.0235513
-0.00265562
-0.00265562
0.0746555
0.0746555
-0.0322375
-0.0322375
-0.0189564
-0.0189564
-0.016198
-0.016198
-0.0256067
-0.0256067
0.00800821
0.00800821
-0.00704727
-0.00704727
-0.0135692
-0.0135692
-0.00345843
-0.00345843
0.00415169
0.00415169
0.00584273
0.00584273
-0.00461971
-0.00461971
-0.0172599
-0.0172599
-0.0224863
-0.0224863
0.0175001
0.0175001
0.0165696
0.0165696
0.00267804
0.00267804
0.064925
0.064925
0.0813184
0.0813184
-0.0204502
-0.0204502
0.132966
0.132966
-0.0112281
-0.0112281
0.0459239
0.0459239
0.00715056
0.00715056
0.00680156
0.00680156
0.00680638
0.00680638
-0.00618112
-0.00618112
-0.00849378
-0.00849378
0.00683606
0.00683606
-0.00251549
-0.00251549
-0.0105299
-0.0105299
-0.00290888
-0.00290888
-0.00238112
-0.00238112
0.0219533
0.0219533
0.053287
0.053287
0.0102606
0.0102606
0.00606572
0.00606572
-0.00286783
-0.00286783
0.0107088
0.0107088
-0.0372279
-0.0372279
0.0377976
0.0377976
-0.0661733
-0.0661733
-0.00881463
-0.00881463
0.0377916
0.0377916
0.014911
0.014911
0.0020751
0.0020751
-0.0064554
-0.0064554
-0.0981099
-0.0981099
0.0364571
0.0364571
0.00735188
0.00735188
-0.075717
-0.075717
-0.0357708
-0.0357708
-0.0366964
-0.0366964
-0.00665636
-0.00665636
-0.00269873
-0.00269873
0.00654221
0.00654221
0.00119293
0.00119293
0.0047296
0.0047296
-0.0252552
-0.0252552
-0.0979492
-0.0979492
-0.0490294
-0.0490294
-0.00669869
-0.00669869
-0.013418
-0.013418
-0.00839424
-0.00839424
-0.00532673
-0.00532673
0.0166107
0.0166107
-0.0171998
-0.0171998
0.0427673
0.0427673
-0.0108463
-0.0108463
-0.101069
-0.101069
0.0162643
0.0162643
-0.00893988
-0.00893988
-0.00183269
-0.00183269
-0.0984487
-0.0984487
0.00685794
0.00685794
0.0651997
0.0651997
-0.000729545
-0.000729545
0.025113
0.025113
0.00765475
0.00765475
0.0134144
0.0134144
0.0914811
0.0914811
-0.170693
-0.170693
-0.00703293
-0.00703293
0.00895179
0.00895179
-0.00732757
-0.00732757
0.0705042
0.0705042
0.0277722
0.0277722
0.0140873
0.0140873
0.00647348
0.00647348
0.0528528
0.0528528
0.0138867
0.0138867
0.00819723
0.00819723
0.00586808
0.00586808
0.0131507
0.0131507
0.00941955
0.00941955
-0.00430523
-0.00430523
0.0508173
0.0508173
0.0462335
0.0462335
-0.0158776
-0.0158776
-0.00277802
-0.00277802
0.00211342
0.00211342
0.0258393
0.0258393
0.133755
0.133755
0.00917264
0.00917264
0.00828289
0.00828289
0.0401018
0.0401018
0.0419342
0.0419342
0.0204483
0.0204483
-0.00891321
-0.00891321
-0.0105348
-0.0105348
0.00855048
0.00855048
0.0114618
0.0114618
-0.00792504
-0.00792504
-0.00473683
-0.00473683
0.00483336
0.00483336
0.0323798
0.0323798
-2.33367e-05
-2.33367e-05
-0.0631117
-0.0631117
0.00197883
0.00197883
0.0267164
0.0267164
-0.0418725
-0.0418725
0.0117891
0.0117891
0.0471627
0.0471627
0.00660494
0.00660494
-0.0017806
-0.0017806
0.00426931
0.00426931
0.0950919
0.0950919
0.120278
0.120278
-0.0477081
-0.0477081
-0.0131654
-0.0131654
0.00615144
0.00615144
-0.00129718
-0.00129718
-0.00601376
-0.00601376
-0.0102097
-0.0102097
-0.0269165
-0.0269165
-0.137395
-0.137395
0.00610886
0.00610886
0.0120115
0.0120115
0.118273
0.118273
0.155796
0.155796
0.0237291
0.0237291
-0.0234721
-0.0234721
-0.105152
-0.105152
0.0162279
0.0162279
0.00932724
0.00932724
-0.00939478
-0.00939478
-0.00145488
-0.00145488
-0.0109225
-0.0109225
0.0108886
0.0108886
0.00140971
0.00140971
-0.0522425
-0.0522425
0.0884792
0.0884792
-0.00980503
-0.00980503
-0.00763552
-0.00763552
0.0152256
0.0152256
0.00783561
0.00783561
-0.00461148
-0.00461148
-0.0496478
-0.0496478
-0.0134533
-0.0134533
0.00163683
0.00163683
-0.0875577
-0.0875577
0.00745872
0.00745872
-0.0216336
-0.0216336
-0.0608863
-0.0608863
0.000500701
0.000500701
0.0085332
0.0085332
-0.000559472
-0.000559472
0.0123374
0.0123374
-0.018744
-0.018744
0.00571296
0.00571296
0.133802
0.133802
-0.00880317
-0.00880317
0.0785997
0.0785997
0.0405259
0.0405259
0.00488411
0.00488411
-0.0123181
-0.0123181
0.0165352
0.0165352
0.00675304
0.00675304
0.140156
0.140156
0.0421976
0.0421976
0.00767101
0.00767101
-0.00844171
-0.00844171
-0.0180674
-0.0180674
-0.118243
-0.118243
0.000366649
0.000366649
-0.00527965
-0.00527965
0.0201652
0.0201652
-0.0518188
-0.0518188
0.0436599
0.0436599
-0.0307398
-0.0307398
-0.0311229
-0.0311229
-0.0217222
-0.0217222
-0.00386553
-0.00386553
0.0261946
0.0261946
-0.00168287
-0.00168287
0.000811323
0.000811323
0.0110644
0.0110644
-0.011712
-0.011712
0.000519566
0.000519566
-0.000943191
-0.000943191
0.023462
0.023462
-0.0352518
-0.0352518
0.0280804
0.0280804
0.121167
0.121167
-0.00160835
-0.00160835
0.0320289
0.0320289
0.11015
0.11015
0.0427073
0.0427073
0.0585521
0.0585521
0.0023542
0.0023542
0.000872169
0.000872169
-0.0276497
-0.0276497
-0.144038
-0.144038
-0.00536699
-0.00536699
-0.0453695
-0.0453695
0.0126068
0.0126068
0.0775768
0.0775768
0.00298267
0.00298267
0.0106758
0.0106758
-0.122774
-0.122774
0.0156724
0.0156724
0.00532968
0.00532968
0.0278203
0.0278203
-0.00877962
-0.00877962
-0.0940883
-0.0940883
0.00720283
0.00720283
-0.0757296
-0.0757296
-0.00282468
-0.00282468
0.0117554
0.0117554
0.00731972
0.00731972
0.0147746
0.0147746
0.00920263
0.00920263
0.0174177
0.0174177
-0.011968
-0.011968
0.0177397
0.0177397
-0.00768652
-0.00768652
-0.00725158
-0.00725158
0.100754
0.100754
0.00722283
0.00722283
0.0645026
0.0645026
0.000593879
0.000593879
0.00329951
0.00329951
-0.00559717
-0.00559717
-0.0280499
-0.0280499
0.0139919
0.0139919
-0.0345169
-0.0345169
-0.0960011
-0.0960011
0.0193316
0.0193316
0.0457306
0.0457306
0.0466197
0.0466197
0.0117212
0.0117212
0.0428197
0.0428197
-0.0312124
-0.0312124
0.00301974
0.00301974
0.0130704
0.0130704
-0.0387049
-0.0387049
0.00943672
0.00943672
0.00380743
0.00380743
-0.0606693
-0.0606693
-0.00405645
-0.00405645
0.0187142
0.0187142
-0.0960825
-0.0960825
-0.104705
-0.104705
0.00851597
0.00851597
0.0392084
0.0392084
-0.00961087
-0.00961087
0.00382444
0.00382444
-0.0395554
-0.0395554
-0.00581323
-0.00581323
-0.0699916
-0.0699916
0.00642039
0.00642039
-0.0173256
-0.0173256
0.00897114
0.00897114
0.0151512
0.0151512
0.00643896
0.00643896
0.00204901
0.00204901
0.0258401
0.0258401
0.0150842
0.0150842
-0.168208
-0.168208
0.0242836
0.0242836
0.0629115
0.0629115
0.0553542
0.0553542
-0.00510864
-0.00510864
-0.00115982
-0.00115982
-0.056241
-0.056241
-0.0389993
-0.0389993
-0.0141599
-0.0141599
-0.0412391
-0.0412391
-0.064293
-0.064293
0.0124337
0.0124337
-0.00129216
-0.00129216
-0.00311963
-0.00311963
0.00848815
0.00848815
-0.0109246
-0.0109246
-0.000861848
-0.000861848
0.00180307
0.00180307
-0.00392772
-0.00392772
0.00823871
0.00823871
0.0561721
0.0561721
0.0522222
0.0522222
0.00434914
0.00434914
-0.0190779
-0.0190779
-0.042008
-0.042008
-0.0146288
-0.0146288
-0.00664179
-0.00664179
0.0005616
0.0005616
-0.0378462
-0.0378462
-0.0067634
-0.0067634
0.00917287
0.00917287
-0.0252554
-0.0252554
0.0133855
0.0133855
-0.0608031
-0.0608031
-0.0118554
-0.0118554
-0.0378461
-0.0378461
0.0182924
0.0182924
-0.00866971
-0.00866971
0.00106878
0.00106878
-0.0267711
-0.0267711
-0.00862179
-0.00862179
-0.00713398
-0.00713398
-0.0143276
-0.0143276
0.0991812
0.0991812
0.00686104
0.00686104
0.0181924
0.0181924
-0.0562624
-0.0562624
-0.0103766
-0.0103766
0.00601366
0.00601366
-0.00437428
-0.00437428
-0.00935901
-0.00935901
-0.0179272
-0.0179272
0.0668003
0.0668003
-0.000640272
-0.000640272
-0.00557097
-0.00557097
0.00670181
0.00670181
-0.00319815
-0.00319815
-0.000848659
-0.000848659
0.00603825
0.00603825
-0.0285873
-0.0285873
0.0219939
0.0219939
-0.00618462
-0.00618462
0.0109167
0.0109167
0.0223063
0.0223063
0.00384955
0.00384955
0.059517
0.059517
-0.00448689
-0.00448689
0.176155
0.176155
-0.0144058
-0.0144058
0.0408937
0.0408937
0.00341785
0.00341785
0.0803031
0.0803031
-0.0150835
-0.0150835
0.00563051
0.00563051
0.0407681
0.0407681
-0.00217518
-0.00217518
-0.0163158
-0.0163158
-0.0191384
-0.0191384
0.00358398
0.00358398
-0.0194226
-0.0194226
0.00143605
0.00143605
0.00348842
0.00348842
-0.0808652
-0.0808652
-0.0128057
-0.0128057
0.0481275
0.0481275
0.00370042
0.00370042
0.0104113
0.0104113
-0.00316385
-0.00316385
0.0179432
0.0179432
-0.0338406
-0.0338406
0.0155346
0.0155346
0.055148
0.055148
0.0315489
0.0315489
-0.0486684
-0.0486684
-0.121077
-0.121077
0.00406141
0.00406141
0.0097767
0.0097767
-0.0195541
-0.0195541
-0.0150533
-0.0150533
-0.0254358
-0.0254358
0.0105707
0.0105707
0.0394107
0.0394107
-0.0102139
-0.0102139
0.00242291
0.00242291
-0.169834
-0.169834
0.0646831
0.0646831
0.00102626
0.00102626
0.0593942
0.0593942
-0.00865766
-0.00865766
0.00660147
0.00660147
0.00685427
0.00685427
-0.00694714
-0.00694714
-0.0231828
-0.0231828
0.0347371
0.0347371
-0.00336951
-0.00336951
0.0115929
0.0115929
-0.0155928
-0.0155928
0.0223905
0.0223905
-0.00596101
-0.00596101
0.0103554
0.0103554
0.00233318
0.00233318
-0.0126182
-0.0126182
-0.00818498
-0.00818498
-0.0363085
-0.0363085
0.0071958
0.0071958
0.0184499
0.0184499
0.00364133
0.00364133
0.0300974
0.0300974
0.00619138
0.00619138
-0.0148268
-0.0148268
-0.00229172
-0.00229172
0.00845355
0.00845355
-0.138328
-0.138328
0.0043027
0.0043027
0.00446019
0.00446019
-0.00216833
-0.00216833
-0.00621593
-0.00621593
-0.133455
-0.133455
0.0049582
0.0049582
0.00916268
0.00916268
0.0567112
0.0567112
-0.148004
-0.148004
0.00403553
0.00403553
-0.031987
-0.031987
0.0254539
0.0254539
0.00269835
0.00269835
0.00739413
0.00739413
-0.0966728
-0.0966728
0.140115
0.140115
-0.0404281
-0.0404281
-0.00488115
-0.00488115
-0.00759144
-0.00759144
0.0146481
0.0146481
-0.0599233
-0.0599233
1.18669e-05
1.18669e-05
-0.0467538
-0.0467538
0.00786126
0.00786126
-0.0679169
-0.0679169
0.0410379
0.0410379
-0.00889903
-0.00889903
0.0236073
0.0236073
-0.0188676
-0.0188676
-0.0676488
-0.0676488
-0.00097436
-0.00097436
0.0118256
0.0118256
0.000485139
0.000485139
0.000113014
0.000113014
0.00372393
0.00372393
0.00269069
0.00269069
-0.00547687
-0.00547687
-0.00536883
-0.00536883
0.044295
0.044295
-0.00814219
-0.00814219
-0.00603242
-0.00603242
-0.115406
-0.115406
-0.0842612
-0.0842612
0.0822355
0.0822355
0.076027
0.076027
-0.0377979
-0.0377979
-0.0166865
-0.0166865
-0.180306
-0.180306
0.0414054
0.0414054
0.0292716
0.0292716
-0.00110175
-0.00110175
0.00728605
0.00728605
0.000290795
0.000290795
-0.00501002
-0.00501002
-0.030696
-0.030696
0.0318035
0.0318035
-0.00500153
-0.00500153
-0.0740469
-0.0740469
0.0485241
0.0485241
-0.0525625
-0.0525625
0.0222112
0.0222112
0.00804136
0.00804136
0.0647521
0.0647521
0.0135665
0.0135665
0.00355676
0.00355676
-0.0237492
-0.0237492
0.00277157
0.00277157
0.00339731
0.00339731
0.0459931
0.0459931
0.00408518
0.00408518
-0.000815878
-0.000815878
-0.00781289
-0.00781289
-0.00595632
-0.00595632
-0.016738
-0.016738
-0.007055
-0.007055
0.00968443
0.00968443
-0.00502394
-0.00502394
-0.0528466
-0.0528466
0.0585836
0.0585836
-0.0129156
-0.0129156
0.00212659
0.00212659
0.0707629
0.0707629
0.00923645
0.00923645
-0.00742026
-0.00742026
0.00950788
0.00950788
-0.0534675
-0.0534675
0.0175959
0.0175959
-0.0132552
-0.0132552
0.0126411
0.0126411
0.0715614
0.0715614
0.0136219
0.0136219
-0.0717029
-0.0717029
-0.0608468
-0.0608468
-0.068044
-0.068044
-0.0441791
-0.0441791
0.0023162
0.0023162
-0.0101168
-0.0101168
0.0175229
0.0175229
-0.0154097
-0.0154097
-0.0199051
-0.0199051
0.011008
0.011008
-0.00831833
-0.00831833
0.0116729
0.0116729
0.0205949
0.0205949
0.0245899
0.0245899
0.0368523
0.0368523
-0.0343498
-0.0343498
0.052151
0.052151
0.0130636
0.0130636
0.000971208
0.000971208
-0.111097
-0.111097
-0.0109552
-0.0109552
-0.178212
-0.178212
0.00830863
0.00830863
0.00849366
0.00849366
0.0281859
0.0281859
0.0871667
0.0871667
-0.138067
-0.138067
-0.000872108
-0.000872108
-0.0292325
-0.0292325
-0.0078697
-0.0078697
-0.112963
-0.112963
0.00789438
0.00789438
0.0310515
0.0310515
0.0236309
0.0236309
0.0363451
0.0363451
-0.0352059
-0.0352059
-0.0523564
-0.0523564
0.00179739
0.00179739
0.0377717
0.0377717
-0.00718767
-0.00718767
-0.00641732
-0.00641732
0.0741464
0.0741464
-0.0288262
-0.0288262
0.143159
0.143159
0.00995337
0.00995337
0.176345
0.176345
-0.1081
-0.1081
0.0334377
0.0334377
0.118668
0.118668
-0.0176367
-0.0176367
-0.00314621
-0.00314621
-0.00560083
-0.00560083
-0.00614221
-0.00614221
-0.0693815
-0.0693815
-0.113414
-0.113414
0.0685528
0.0685528
0.0348455
0.0348455
0.088622
0.088622
-0.00705684
-0.00705684
0.0484005
0.0484005
-0.00518373
-0.00518373
-0.0574675
-0.0574675
0.0334892
0.0334892
0.0507625
0.0507625
-0.0322659
-0.0322659
0.0107269
0.0107269
0.00610265
0.00610265
-0.00882025
-0.00882025
0.0195281
0.0195281
-0.084659
-0.084659
0.00110833
0.00110833
-0.00329627
-0.00329627
0.0232512
0.0232512
0.00411813
0.00411813
-0.0150738
-0.0150738
-0.00189852
-0.00189852
0.0324853
0.0324853
-0.0114337
-0.0114337
0.0101187
0.0101187
0.00561496
0.00561496
-0.0362059
-0.0362059
-0.00372488
-0.00372488
-0.0144491
-0.0144491
-0.0906927
-0.0906927
-0.0053364
-0.0053364
0.0114358
0.0114358
0.00688036
0.00688036
0.00753604
0.00753604
0.0289276
0.0289276
-0.0695731
-0.0695731
-0.0956483
-0.0956483
-0.00779024
-0.00779024
0.00873479
0.00873479
-0.0177456
-0.0177456
-0.00806033
-0.00806033
-0.0632199
-0.0632199
-0.0022538
-0.0022538
0.00438018
0.00438018
0.00222174
0.00222174
-0.0977331
-0.0977331
-0.00288411
-0.00288411
-0.0978032
-0.0978032
-0.0131174
-0.0131174
0.00770198
0.00770198
0.017733
0.017733
0.000879353
0.000879353
0.00693794
0.00693794
0.0156185
0.0156185
0.00873853
0.00873853
0.0627498
0.0627498
0.0285595
0.0285595
0.00378559
0.00378559
-0.00463006
-0.00463006
-0.101952
-0.101952
-0.00455122
-0.00455122
0.00311656
0.00311656
0.110719
0.110719
0.0524483
0.0524483
-0.0313025
-0.0313025
-0.00148715
-0.00148715
-0.00304809
-0.00304809
0.076392
0.076392
0.0948685
0.0948685
0.00120861
0.00120861
0.0938931
0.0938931
0.0112245
0.0112245
0.146012
0.146012
0.00560033
0.00560033
-0.063272
-0.063272
0.000194965
0.000194965
-0.0081416
-0.0081416
-0.0331913
-0.0331913
-0.00639126
-0.00639126
0.064059
0.064059
-0.0412187
-0.0412187
0.0129298
0.0129298
0.0360824
0.0360824
-0.0032368
-0.0032368
-0.00208347
-0.00208347
-0.0135305
-0.0135305
-0.00241655
-0.00241655
-0.0306682
-0.0306682
0.00393161
0.00393161
0.00547316
0.00547316
-0.0666667
-0.0666667
-0.0143425
-0.0143425
0.0504161
0.0504161
-0.0092395
-0.0092395
-0.0105285
-0.0105285
0.00931128
0.00931128
-0.0669996
-0.0669996
0.156352
0.156352
0.0974232
0.0974232
0.0357824
0.0357824
0.00522424
0.00522424
-0.04722
-0.04722
0.00492162
0.00492162
0.112178
0.112178
-0.00382188
-0.00382188
0.00178397
0.00178397
0.0220548
0.0220548
0.00567709
0.00567709
-0.0164874
-0.0164874
0.14118
0.14118
0.0465753
0.0465753
-0.00778742
-0.00778742
0.0173841
0.0173841
0.0187632
0.0187632
-0.00517389
-0.00517389
0.00696596
0.00696596
-0.0124706
-0.0124706
-0.0070607
-0.0070607
-0.0075175
-0.0075175
-0.00280236
-0.00280236
-4.17673e-05
-4.17673e-05
-0.012983
-0.012983
0.0245608
0.0245608
-0.0402814
-0.0402814
0.00475409
0.00475409
0.0453324
0.0453324
0.0762304
0.0762304
0.00670389
0.00670389
0.010759
0.010759
0.00189986
0.00189986
-0.00622361
-0.00622361
-0.0400038
-0.0400038
0.0105022
0.0105022
0.0145625
0.0145625
-0.00107134
-0.00107134
-0.0458624
-0.0458624
-0.00175255
-0.00175255
-0.00552742
-0.00552742
0.012171
0.012171
-0.0201216
-0.0201216
0.00706808
0.00706808
0.0381522
0.0381522
0.107474
0.107474
-0.0105007
-0.0105007
0.0204557
0.0204557
-0.127554
-0.127554
0.0515924
0.0515924
0.00998927
0.00998927
0.026144
0.026144
-0.0300731
-0.0300731
-0.0927862
-0.0927862
0.00976356
0.00976356
-0.00948409
-0.00948409
0.00252337
0.00252337
0.00638415
0.00638415
-0.0271387
-0.0271387
-0.00418614
-0.00418614
0.0344229
0.0344229
-0.0291775
-0.0291775
-0.00703166
-0.00703166
0.0125632
0.0125632
-0.0133061
-0.0133061
-0.0797052
-0.0797052
0.0113835
0.0113835
-0.0582782
-0.0582782
-0.0484019
-0.0484019
0.0110078
0.0110078
0.00462034
0.00462034
-0.00844138
-0.00844138
-0.0417994
-0.0417994
-0.0120268
-0.0120268
0.0212566
0.0212566
0.00246912
0.00246912
-0.0396252
-0.0396252
-0.0338357
-0.0338357
0.0811067
0.0811067
-0.0510494
-0.0510494
0.0270133
0.0270133
0.0368421
0.0368421
0.0507242
0.0507242
-0.0306268
-0.0306268
-0.0126217
-0.0126217
-0.0186221
-0.0186221
-0.023332
-0.023332
-0.0301789
-0.0301789
-0.0119894
-0.0119894
-0.00617669
-0.00617669
0.0320399
0.0320399
0.00227233
0.00227233
-0.0296319
-0.0296319
0.00976438
0.00976438
-0.00998803
-0.00998803
0.111616
0.111616
0.0117839
0.0117839
-4.08049e-05
-4.08049e-05
-0.0954483
-0.0954483
-0.00580696
-0.00580696
0.00625024
0.00625024
0.00637002
0.00637002
-0.0311348
-0.0311348
0.0117977
0.0117977
-0.0336781
-0.0336781
-0.000640905
-0.000640905
-0.0480765
-0.0480765
0.00683481
0.00683481
-0.00693412
-0.00693412
0.0535556
0.0535556
0.0880825
0.0880825
0.00360483
0.00360483
-0.00863117
-0.00863117
0.0187496
0.0187496
0.00296141
0.00296141
0.02303
0.02303
-0.015393
-0.015393
-0.0786725
-0.0786725
0.0500938
0.0500938
0.0593032
0.0593032
-0.000897429
-0.000897429
-0.00553676
-0.00553676
0.0731623
0.0731623
-0.0339477
-0.0339477
-0.00568951
-0.00568951
0.07344
0.07344
0.0107626
0.0107626
0.046026
0.046026
0.013095
0.013095
0.0504905
0.0504905
0.032293
0.032293
-0.0030087
-0.0030087
-0.0113296
-0.0113296
0.00499693
0.00499693
0.00754131
0.00754131
-0.0758469
-0.0758469
0.0975708
0.0975708
0.00896752
0.00896752
-0.0283739
-0.0283739
0.0527195
0.0527195
0.0305094
0.0305094
0.0258333
0.0258333
0.0893951
0.0893951
0.165735
0.165735
0.0103121
0.0103121
0.00378283
0.00378283
-0.0992551
-0.0992551
-0.0956776
-0.0956776
0.00117655
0.00117655
-0.012737
-0.012737
0.0263266
0.0263266
0.00448089
0.00448089
0.0128208
0.0128208
0.00483504
0.00483504
0.0568433
0.0568433
-0.00601026
-0.00601026
0.00300846
0.00300846
0.0683174
0.0683174
0.0212637
0.0212637
0.034586
0.034586
0.0107733
0.0107733
-0.0864663
-0.0864663
0.00469505
0.00469505
-0.045764
-0.045764
-0.00233424
-0.00233424
-0.0113402
-0.0113402
0.0517551
0.0517551
-0.0524585
-0.0524585
-0.0164691
-0.0164691
-0.00956506
-0.00956506
0.0403932
0.0403932
0.0042235
0.0042235
-0.0623788
-0.0623788
-0.0874209
-0.0874209
-0.0258623
-0.0258623
0.00231294
0.00231294
0.00985856
0.00985856
-0.00846357
-0.00846357
0.00930328
0.00930328
0.0144655
0.0144655
0.0465997
0.0465997
-0.0351083
-0.0351083
0.0187873
0.0187873
-0.0471214
-0.0471214
0.0136626
0.0136626
-0.00803554
-0.00803554
0.0337999
0.0337999
-0.00906541
-0.00906541
0.0408152
0.0408152
0.0187636
0.0187636
0.024337
0.024337
0.00512039
0.00512039
0.0148309
0.0148309
0.00279182
0.00279182
0.0191323
0.0191323
-0.0400845
-0.0400845
-0.0202982
-0.0202982
-0.00600172
-0.00600172
0.000747756
0.000747756
0.0671135
0.0671135
-0.0349543
-0.0349543
0.0210654
0.0210654
-0.000934622
-0.000934622
0.00162148
0.00162148
0.00975841
0.00975841
0.0623705
0.0623705
0.0349736
0.0349736
0.0453786
0.0453786
0.0606367
0.0606367
-0.00560327
-0.00560327
-0.00965935
-0.00965935
-0.0101718
-0.0101718
0.116569
0.116569
0.00162119
0.00162119
-0.00855675
-0.00855675
-0.0393476
-0.0393476
-0.0135276
-0.0135276
0.114177
0.114177
-0.113964
-0.113964
-0.0105055
-0.0105055
-0.0558964
-0.0558964
0.000853725
0.000853725
-0.0953266
-0.0953266
-0.000794639
-0.000794639
-0.0065107
-0.0065107
0.127843
0.127843
-0.0115865
-0.0115865
0.0102491
0.0102491
0.000930724
0.000930724
-0.0176504
-0.0176504
-0.00376845
-0.00376845
-0.0248914
-0.0248914
-0.00516434
-0.00516434
0.00390314
0.00390314
0.00996219
0.00996219
-0.0104529
-0.0104529
-0.00722801
-0.00722801
-0.0471041
-0.0471041
0.00974676
0.00974676
0.11421
0.11421
-0.019742
-0.019742
0.0650606
0.0650606
-0.0556809
-0.0556809
0.0109007
0.0109007
0.0197603
0.0197603
0.039115
0.039115
0.00326535
0.00326535
-0.00394455
-0.00394455
0.0252882
0.0252882
0.000924645
0.000924645
-0.00750434
-0.00750434
-0.00129513
-0.00129513
-0.134427
-0.134427
0.0168896
0.0168896
0.0177414
0.0177414
-0.0187008
-0.0187008
-0.159591
-0.159591
0.0138593
0.0138593
0.0151868
0.0151868
-0.0551127
-0.0551127
-0.0676293
-0.0676293
-0.0399642
-0.0399642
0.0894616
0.0894616
-0.0181072
-0.0181072
-0.00114577
-0.00114577
0.00747118
0.00747118
0.00763154
0.00763154
-0.0196759
-0.0196759
-0.0285131
-0.0285131
0.00242667
0.00242667
0.00855314
0.00855314
0.00951518
0.00951518
0.0200827
0.0200827
-0.0319678
-0.0319678
0.00855471
0.00855471
-0.00037329
-0.00037329
-0.0214575
-0.0214575
-0.0164071
-0.0164071
0.0582524
0.0582524
-0.00435707
-0.00435707
-0.066525
-0.066525
-0.0142628
-0.0142628
0.00444987
0.00444987
-0.137402
-0.137402
0.0146026
0.0146026
0.00135512
0.00135512
-0.0210831
-0.0210831
-0.167231
-0.167231
-0.00789825
-0.00789825
0.014873
0.014873
-0.0236307
-0.0236307
-0.00993512
-0.00993512
-0.00331709
-0.00331709
-0.00143111
-0.00143111
-0.0289381
-0.0289381
-0.0108509
-0.0108509
0.0883697
0.0883697
0.0876829
0.0876829
0.00767683
0.00767683
-0.0403801
-0.0403801
-0.00761086
-0.00761086
0.00139055
0.00139055
0.0218195
0.0218195
-0.00221249
-0.00221249
-0.00181299
-0.00181299
0.00911749
0.00911749
0.00115214
0.00115214
-0.061548
-0.061548
0.00632412
0.00632412
-0.0103651
-0.0103651
0.0018749
0.0018749
-0.0248032
-0.0248032
-0.11621
-0.11621
0.0294191
0.0294191
-0.0605044
-0.0605044
-0.00198241
-0.00198241
0.0145905
0.0145905
0.00601247
0.00601247
-0.00425369
-0.00425369
0.00742643
0.00742643
0.0534604
0.0534604
0.00375955
0.00375955
0.0119407
0.0119407
0.00667435
0.00667435
-0.000470386
-0.000470386
0.0191709
0.0191709
-0.0282485
-0.0282485
0.0166672
0.0166672
0.0269029
0.0269029
0.0940913
0.0940913
-0.000805634
-0.000805634
-0.000792686
-0.000792686
0.00820216
0.00820216
2.86975e-06
2.86975e-06
0.00113206
0.00113206
0.074923
0.074923
0.0665709
0.0665709
0.0482039
0.0482039
0.00507411
0.00507411
-0.0487111
-0.0487111
0.111426
0.111426
-0.0185599
-0.0185599
-0.00388972
-0.00388972
-0.0135047
-0.0135047
0.0138933
0.0138933
0.0178969
0.0178969
0.0520207
0.0520207
0.0433177
0.0433177
0.0128561
0.0128561
-0.0267227
-0.0267227
-0.190078
-0.190078
0.0204265
0.0204265
0.00155687
0.00155687
-0.00165725
-0.00165725
-0.0127291
-0.0127291
0.00121327
0.00121327
-0.0497397
-0.0497397
-0.0878768
-0.0878768
0.0258364
0.0258364
-0.0530829
-0.0530829
-0.00121687
-0.00121687
0.00443498
0.00443498
-0.0170141
-0.0170141
-0.00647646
-0.00647646
-0.0965288
-0.0965288
-0.100547
-0.100547
0.0248198
0.0248198
0.00573757
0.00573757
0.121117
0.121117
-9.40489e-05
-9.40489e-05
0.0838431
0.0838431
0.0207516
0.0207516
0.0803593
0.0803593
-0.0563467
-0.0563467
0.0895879
0.0895879
0.0211383
0.0211383
-0.0119981
-0.0119981
-0.0684773
-0.0684773
0.0106926
0.0106926
0.00380716
0.00380716
-0.0207727
-0.0207727
-0.102495
-0.102495
-0.0046145
-0.0046145
0.139345
0.139345
-0.00813283
-0.00813283
0.00452755
0.00452755
0.0387468
0.0387468
0.00891773
0.00891773
-0.01264
-0.01264
-0.00339339
-0.00339339
0.0275748
0.0275748
0.00699658
0.00699658
-0.0372356
-0.0372356
-0.0658671
-0.0658671
-0.0100129
-0.0100129
-0.0690548
-0.0690548
-0.0577054
-0.0577054
0.000669317
0.000669317
-0.00901213
-0.00901213
0.0232517
0.0232517
0.0672795
0.0672795
0.000396073
0.000396073
0.0112166
0.0112166
-0.0134609
-0.0134609
-0.00756587
-0.00756587
0.0076886
0.0076886
-0.0176997
-0.0176997
0.0101694
0.0101694
0.00809789
0.00809789
-0.0578462
-0.0578462
0.0108841
0.0108841
-0.00854715
-0.00854715
-0.0026056
-0.0026056
0.00531068
0.00531068
0.0182919
0.0182919
-0.00251511
-0.00251511
0.013729
0.013729
0.0278559
0.0278559
-0.071295
-0.071295
-0.0121995
-0.0121995
-0.00945013
-0.00945013
-0.00235267
-0.00235267
-0.00668027
-0.00668027
0.00387245
0.00387245
0.0295899
0.0295899
0.00582507
0.00582507
0.00257013
0.00257013
0.0738357
0.0738357
-0.0632539
-0.0632539
0.00392891
0.00392891
-0.0131657
-0.0131657
0.0575255
0.0575255
-0.0534562
-0.0534562
0.0146873
0.0146873
0.0664761
0.0664761
-0.015573
-0.015573
0.02202
0.02202
0.00950645
0.00950645
0.0138215
0.0138215
0.0974618
0.0974618
-0.030837
-0.030837
0.0202975
0.0202975
-0.0122357
-0.0122357
0.0258109
0.0258109
0.108142
0.108142
0.00533083
0.00533083
0.0273646
0.0273646
0.013827
0.013827
-0.0247871
-0.0247871
-0.00731032
-0.00731032
0.00119996
0.00119996
-0.0879941
-0.0879941
-0.160933
-0.160933
0.015094
0.015094
-0.0169786
-0.0169786
-0.0623714
-0.0623714
0.0150947
0.0150947
0.00895755
0.00895755
-0.024008
-0.024008
-0.0106042
-0.0106042
-0.00412514
-0.00412514
0.0302326
0.0302326
0.00740017
0.00740017
0.0296484
0.0296484
0.0102173
0.0102173
0.0606314
0.0606314
0.00729061
0.00729061
-0.00742389
-0.00742389
0.0693741
0.0693741
0.00309241
0.00309241
-0.0451067
-0.0451067
0.0445099
0.0445099
-0.0103856
-0.0103856
-0.189562
-0.189562
0.0177627
0.0177627
0.0338195
0.0338195
-0.012766
-0.012766
0.0115783
0.0115783
0.0184526
0.0184526
-0.0248069
-0.0248069
-0.0846935
-0.0846935
-0.0100551
-0.0100551
0.00614856
0.00614856
-0.0214317
-0.0214317
0.058592
0.058592
0.0123338
0.0123338
0.00534331
0.00534331
0.0149191
0.0149191
0.00249483
0.00249483
-0.10406
-0.10406
0.00224331
0.00224331
-0.0320105
-0.0320105
0.0386936
0.0386936
0.0276506
0.0276506
-0.116076
-0.116076
0.00307352
0.00307352
0.00367109
0.00367109
0.00329548
0.00329548
0.0580691
0.0580691
0.008873
0.008873
-1.03867e-05
-1.03867e-05
-0.0061502
-0.0061502
-0.000337016
-0.000337016
-0.000728395
-0.000728395
0.0123289
0.0123289
-0.104303
-0.104303
0.0714059
0.0714059
0.00469132
0.00469132
-0.04405
-0.04405
0.134571
0.134571
-0.10277
-0.10277
-0.00605497
-0.00605497
-0.0879875
-0.0879875
-0.0043784
-0.0043784
-0.00299513
-0.00299513
-0.000492933
-0.000492933
0.0461944
0.0461944
-0.00328434
-0.00328434
0.013354
0.013354
-0.0464221
-0.0464221
0.0122463
0.0122463
-0.00276102
-0.00276102
-0.052971
-0.052971
0.0819441
0.0819441
-0.00137447
-0.00137447
-0.124067
-0.124067
-0.00706275
-0.00706275
-0.00870925
-0.00870925
-0.0372045
-0.0372045
-0.0671333
-0.0671333
-0.018817
-0.018817
0.00309765
0.00309765
-0.0737972
-0.0737972
-0.00733496
-0.00733496
0.00337658
0.00337658
0.0243169
0.0243169
-0.0410816
-0.0410816
0.101569
0.101569
0.0225287
0.0225287
-0.017676
-0.017676
0.0150393
0.0150393
-0.00630021
-0.00630021
0.0589836
0.0589836
-0.00292341
-0.00292341
0.0336027
0.0336027
0.0129913
0.0129913
-0.031572
-0.031572
0.0184525
0.0184525
0.00710099
0.00710099
0.0809721
0.0809721
-0.00118999
-0.00118999
-0.0233678
-0.0233678
0.126645
0.126645
0.00372087
0.00372087
-0.0508504
-0.0508504
-0.00148614
-0.00148614
0.0046422
0.0046422
-0.0982728
-0.0982728
0.0102975
0.0102975
0.00700906
0.00700906
-0.00339799
-0.00339799
-0.0360434
-0.0360434
-0.00937522
-0.00937522
0.119741
0.119741
-0.144796
-0.144796
0.00490341
0.00490341
0.0020819
0.0020819
0.00641999
0.00641999
-0.0591211
-0.0591211
-0.00702137
-0.00702137
-0.0416661
-0.0416661
-0.00743737
-0.00743737
-0.00379119
-0.00379119
0.0262707
0.0262707
-0.126386
-0.126386
0.00366867
0.00366867
0.0511003
0.0511003
0.0936001
0.0936001
0.052913
0.052913
-0.00742143
-0.00742143
0.00136706
0.00136706
-0.00252953
-0.00252953
-0.0154091
-0.0154091
0.0054782
0.0054782
0.0114812
0.0114812
0.0519455
0.0519455
0.00346337
0.00346337
0.00240486
0.00240486
-0.00497984
-0.00497984
-0.00743903
-0.00743903
-0.00344146
-0.00344146
-0.00628166
-0.00628166
0.00524329
0.00524329
0.00604135
0.00604135
-0.0194943
-0.0194943
-0.0515277
-0.0515277
-0.104934
-0.104934
0.0255786
0.0255786
-0.0141419
-0.0141419
-0.0045533
-0.0045533
-0.0136553
-0.0136553
0.00525741
0.00525741
-0.029402
-0.029402
-9.12628e-06
-9.12628e-06
0.0400326
0.0400326
-0.00268823
-0.00268823
-0.00357658
-0.00357658
-0.00523255
-0.00523255
0.00644009
0.00644009
0.0108889
0.0108889
0.012809
0.012809
-0.00351165
-0.00351165
-0.0690525
-0.0690525
0.0519227
0.0519227
-0.00200973
-0.00200973
0.00607371
0.00607371
0.00436204
0.00436204
0.00632531
0.00632531
-0.026752
-0.026752
0.0390181
0.0390181
0.0645069
0.0645069
-0.0414309
-0.0414309
0.0598657
0.0598657
0.0522521
0.0522521
-0.0395019
-0.0395019
0.0131564
0.0131564
-0.00184272
-0.00184272
-0.00305096
-0.00305096
0.183247
0.183247
0.000830171
0.000830171
0.00703311
0.00703311
-0.0162862
-0.0162862
-0.0094888
-0.0094888
-0.0230739
-0.0230739
-0.0554257
-0.0554257
0.0664372
0.0664372
0.0126001
0.0126001
-0.024926
-0.024926
0.0130465
0.0130465
0.0278722
0.0278722
0.00506559
0.00506559
0.00208449
0.00208449
-0.00354335
-0.00354335
-0.00212598
-0.00212598
0.00823846
0.00823846
-0.0236686
-0.0236686
-0.00699202
-0.00699202
0.0182962
0.0182962
0.0808004
0.0808004
0.052545
0.052545
-0.0131255
-0.0131255
0.00411534
0.00411534
-0.00103295
-0.00103295
-0.00866557
-0.00866557
0.0387571
0.0387571
0.00115899
0.00115899
0.00443852
0.00443852
-0.0248395
-0.0248395
0.00969555
0.00969555
-0.0823449
-0.0823449
-0.04622
-0.04622
-0.00767886
-0.00767886
-0.0210104
-0.0210104
0.0453525
0.0453525
-0.0261307
-0.0261307
-0.118292
-0.118292
0.00128925
0.00128925
0.0485575
0.0485575
0.00279402
0.00279402
0.0184586
0.0184586
0.0347498
0.0347498
0.00894057
0.00894057
0.00307196
0.00307196
-0.0247589
-0.0247589
-0.00480638
-0.00480638
-0.0171273
-0.0171273
-0.00354622
-0.00354622
-0.00876881
-0.00876881
0.000361081
0.000361081
-0.000381424
-0.000381424
0.0103278
0.0103278
-0.0560635
-0.0560635
0.00315765
0.00315765
-0.0282902
-0.0282902
-0.00594898
-0.00594898
0.00869104
0.00869104
0.00965564
0.00965564
0.00690718
0.00690718
-0.00808019
-0.00808019
0.0394119
0.0394119
-0.00788825
-0.00788825
-0.0262078
-0.0262078
0.0342642
0.0342642
0.0358639
0.0358639
0.0387049
0.0387049
-0.00529606
-0.00529606
0.00241944
0.00241944
0.00568507
0.00568507
0.00697167
0.00697167
0.00582247
0.00582247
0.00640417
0.00640417
-0.00923849
-0.00923849
-0.00854851
-0.00854851
0.0018641
0.0018641
-0.00360807
-0.00360807
-0.00270846
-0.00270846
0.0154007
0.0154007
-0.00757447
-0.00757447
-0.00338949
-0.00338949
-0.0192278
-0.0192278
-0.00534949
-0.00534949
0.0295101
0.0295101
1.41165e-05
1.41165e-05
-0.0243441
-0.0243441
-0.0413642
-0.0413642
0.00213728
0.00213728
-0.00150479
-0.00150479
-0.0065173
-0.0065173
0.001401
0.001401
-0.00673761
-0.00673761
0.00714542
0.00714542
-0.00112209
-0.00112209
0.0013606
0.0013606
-0.0261975
-0.0261975
0.0195511
0.0195511
0.000892414
0.000892414
-0.00136771
-0.00136771
0.125436
0.125436
0.116315
0.116315
-0.012592
-0.012592
0.0563982
0.0563982
-0.0183953
-0.0183953
-0.0751115
-0.0751115
0.0254805
0.0254805
-0.00972361
-0.00972361
0.030247
0.030247
0.00574769
0.00574769
0.00283489
0.00283489
0.00377253
0.00377253
0.0142573
0.0142573
0.00310564
0.00310564
-0.0187178
-0.0187178
-0.029928
-0.029928
-0.0163744
-0.0163744
-0.0458803
-0.0458803
0.0584929
0.0584929
-0.0139492
-0.0139492
0.0212083
0.0212083
-0.0719397
-0.0719397
0.00136656
0.00136656
0.00870455
0.00870455
0.0745307
0.0745307
0.00877497
0.00877497
-0.0143142
-0.0143142
0.00117149
0.00117149
-0.0423866
-0.0423866
-0.00876299
-0.00876299
0.0147664
0.0147664
0.0232269
0.0232269
0.0302416
0.0302416
0.0140552
0.0140552
-0.069972
-0.069972
0.0126062
0.0126062
-0.0791045
-0.0791045
-0.0143192
-0.0143192
0.00905141
0.00905141
-0.0190384
-0.0190384
0.0295424
0.0295424
0.00849767
0.00849767
-0.0255656
-0.0255656
-0.00953993
-0.00953993
-0.0113667
-0.0113667
-0.0242404
-0.0242404
-0.00941267
-0.00941267
-0.0604974
-0.0604974
0.0281661
0.0281661
-0.0415507
-0.0415507
0.0247279
0.0247279
0.00038986
0.00038986
-0.00634112
-0.00634112
-0.00618455
-0.00618455
-0.00712442
-0.00712442
-0.00628519
-0.00628519
0.080523
0.080523
0.0208537
0.0208537
-0.00625011
-0.00625011
0.0447918
0.0447918
0.0895956
0.0895956
0.00438786
0.00438786
-0.0559617
-0.0559617
-0.150435
-0.150435
0.00556921
0.00556921
-0.010325
-0.010325
-0.0467645
-0.0467645
0.0224464
0.0224464
0.00102674
0.00102674
0.00449195
0.00449195
0.0145302
0.0145302
0.0120179
0.0120179
0.0277928
0.0277928
-0.0254027
-0.0254027
0.0442141
0.0442141
0.0103818
0.0103818
0.00654353
0.00654353
-0.00398724
-0.00398724
0.137155
0.137155
-0.0229337
-0.0229337
0.0226344
0.0226344
-0.00733955
-0.00733955
0.00286764
0.00286764
0.00041378
0.00041378
0.0465361
0.0465361
-0.0126943
-0.0126943
0.0173106
0.0173106
-0.00594826
-0.00594826
0.000674622
0.000674622
-0.015856
-0.015856
0.0221536
0.0221536
-0.0422913
-0.0422913
-0.076247
-0.076247
-0.0321578
-0.0321578
0.0606253
0.0606253
-0.0117004
-0.0117004
-0.0133244
-0.0133244
0.0022436
0.0022436
-0.068591
-0.068591
-0.00144438
-0.00144438
0.00488865
0.00488865
0.0353165
0.0353165
0.0170665
0.0170665
-0.0093237
-0.0093237
-0.00265431
-0.00265431
0.00245551
0.00245551
0.00071153
0.00071153
0.0117834
0.0117834
-0.0162839
-0.0162839
0.00501994
0.00501994
0.00628344
0.00628344
-0.0106702
-0.0106702
-0.0126719
-0.0126719
0.00803929
0.00803929
0.0361133
0.0361133
0.0100075
0.0100075
0.00046167
0.00046167
-0.00432528
-0.00432528
-0.000541933
-0.000541933
-0.00420437
-0.00420437
-0.00251786
-0.00251786
-0.00504269
-0.00504269
-0.0637022
-0.0637022
0.038705
0.038705
-0.0109603
-0.0109603
-0.0790811
-0.0790811
-0.0274392
-0.0274392
0.050151
0.050151
0.023847
0.023847
0.0308722
0.0308722
0.0846571
0.0846571
0.0411253
0.0411253
-0.00424453
-0.00424453
-0.0119827
-0.0119827
-0.0146382
-0.0146382
-0.0904831
-0.0904831
-0.0259341
-0.0259341
0.00115866
0.00115866
-0.0382739
-0.0382739
0.000540297
0.000540297
-0.0067813
-0.0067813
-0.0775718
-0.0775718
0.0541641
0.0541641
0.0194333
0.0194333
0.00554396
0.00554396
-0.0220866
-0.0220866
-0.0646461
-0.0646461
-0.0149632
-0.0149632
-0.0182879
-0.0182879
-0.0387416
-0.0387416
0.000851087
0.000851087
-0.0127562
-0.0127562
0.0112674
0.0112674
0.00584508
0.00584508
0.00441066
0.00441066
-0.0206206
-0.0206206
0.0395639
0.0395639
-0.01112
-0.01112
-0.0190783
-0.0190783
0.0708908
0.0708908
0.00928839
0.00928839
0.0236804
0.0236804
-0.00195194
-0.00195194
0.0461425
0.0461425
0.0174013
0.0174013
0.00336485
0.00336485
0.102091
0.102091
0.102585
0.102585
0.0191066
0.0191066
0.00845053
0.00845053
0.0433267
0.0433267
-0.00593225
-0.00593225
0.0880772
0.0880772
0.0173158
0.0173158
0.0024473
0.0024473
-0.00833021
-0.00833021
-0.0207671
-0.0207671
0.0139641
0.0139641
0.0108638
0.0108638
-0.111603
-0.111603
0.0913009
0.0913009
0.0403743
0.0403743
-0.0132278
-0.0132278
0.00498721
0.00498721
-0.00545462
-0.00545462
-0.00369594
-0.00369594
0.0128471
0.0128471
0.00739434
0.00739434
-0.0138609
-0.0138609
0.00307357
0.00307357
0.0188789
0.0188789
0.000375564
0.000375564
0.0124748
0.0124748
0.0122385
0.0122385
-0.148409
-0.148409
0.0272718
0.0272718
-0.0141989
-0.0141989
-0.0013128
-0.0013128
0.0240222
0.0240222
0.0110126
0.0110126
-0.0148104
-0.0148104
0.00901476
0.00901476
-0.0355849
-0.0355849
0.0724938
0.0724938
0.0077477
0.0077477
-0.0192427
-0.0192427
0.0652852
0.0652852
0.0325748
0.0325748
0.151276
0.151276
-0.0069887
-0.0069887
0.0105556
0.0105556
0.0203283
0.0203283
0.0140386
0.0140386
0.00907943
0.00907943
-0.0594387
-0.0594387
0.0388889
0.0388889
0.00684695
0.00684695
-0.00516991
-0.00516991
-0.0185728
-0.0185728
0.0173917
0.0173917
-0.0178858
-0.0178858
0.00480881
0.00480881
0.00214818
0.00214818
-0.0751152
-0.0751152
-0.00516988
-0.00516988
-0.0193545
-0.0193545
0.124101
0.124101
-0.0767464
-0.0767464
-0.0121434
-0.0121434
0.0177505
0.0177505
0.00542727
0.00542727
0.0202033
0.0202033
0.00338341
0.00338341
0.0270508
0.0270508
-0.0139638
-0.0139638
-0.014265
-0.014265
-0.00786442
-0.00786442
0.00503112
0.00503112
0.00682143
0.00682143
0.0118646
0.0118646
0.0076282
0.0076282
-0.0477135
-0.0477135
-0.00739191
-0.00739191
0.0436916
0.0436916
0.0712188
0.0712188
-0.0174224
-0.0174224
0.00262429
0.00262429
0.0235392
0.0235392
-0.0171257
-0.0171257
-0.0191887
-0.0191887
0.00959615
0.00959615
0.0425964
0.0425964
-0.00288501
-0.00288501
0.00463299
0.00463299
-0.00878828
-0.00878828
-0.00849812
-0.00849812
-0.00715398
-0.00715398
-0.0366202
-0.0366202
-0.00784111
-0.00784111
-0.000306741
-0.000306741
-0.0281706
-0.0281706
-0.00903686
-0.00903686
0.0922005
0.0922005
-0.00767963
-0.00767963
-0.0104536
-0.0104536
-0.00060782
-0.00060782
0.0190528
0.0190528
-0.00528848
-0.00528848
-0.0353373
-0.0353373
0.00314617
0.00314617
0.0529323
0.0529323
-0.0234395
-0.0234395
-0.010586
-0.010586
0.17997
0.17997
-0.0472521
-0.0472521
-0.0593796
-0.0593796
-0.00479835
-0.00479835
-0.0244018
-0.0244018
0.0945086
0.0945086
-0.0087511
-0.0087511
-0.0264539
-0.0264539
-0.0046819
-0.0046819
0.00646478
0.00646478
0.0643337
0.0643337
-0.0146031
-0.0146031
-0.02009
-0.02009
-0.0228905
-0.0228905
0.00804184
0.00804184
0.0055972
0.0055972
0.0179609
0.0179609
-0.0207416
-0.0207416
0.0120309
0.0120309
-0.077287
-0.077287
-0.0205644
-0.0205644
-0.00406115
-0.00406115
-0.000713137
-0.000713137
0.00768036
0.00768036
-0.00767638
-0.00767638
-0.0205445
-0.0205445
0.0714594
0.0714594
0.0183908
0.0183908
0.000465724
0.000465724
0.0496688
0.0496688
0.00893855
0.00893855
0.0237941
0.0237941
-0.00794851
-0.00794851
-0.0173624
-0.0173624
0.000220789
0.000220789
0.00298866
0.00298866
-0.00733773
-0.00733773
0.00616377
0.00616377
0.0172179
0.0172179
-0.0510105
-0.0510105
0.00477485
0.00477485
0.0266605
0.0266605
0.00538695
0.00538695
-0.00249737
-0.00249737
0.0112349
0.0112349
-0.00522122
-0.00522122
0.0161605
0.0161605
0.0140601
0.0140601
0.042944
0.042944
-0.0077949
-0.0077949
-0.00792162
-0.00792162
-0.0257435
-0.0257435
0.0644658
0.0644658
-0.00218159
-0.00218159
0.0571281
0.0571281
-0.0011001
-0.0011001
-0.0067065
-0.0067065
0.00816345
0.00816345
-0.0324855
-0.0324855
0.0345964
0.0345964
0.0198795
0.0198795
0.0511759
0.0511759
-0.00293986
-0.00293986
-0.0362041
-0.0362041
0.0143574
0.0143574
0.00117751
0.00117751
-0.00927976
-0.00927976
0.000908069
0.000908069
0.0099359
0.0099359
0.0104731
0.0104731
-0.0155152
-0.0155152
-0.0396575
-0.0396575
-0.0282825
-0.0282825
-0.00531192
-0.00531192
0.032824
0.032824
-0.00703552
-0.00703552
-0.0286537
-0.0286537
0.0519221
0.0519221
-0.00572091
-0.00572091
0.00947483
0.00947483
-0.13578
-0.13578
-0.00299497
-0.00299497
0.0144903
0.0144903
-0.00904142
-0.00904142
-0.0147229
-0.0147229
0.000673199
0.000673199
0.00545409
0.00545409
0.0175919
0.0175919
-0.00217175
-0.00217175
-0.00818833
-0.00818833
-0.0804787
-0.0804787
0.000682915
0.000682915
0.0293748
0.0293748
-0.00471377
-0.00471377
0.00410665
0.00410665
-0.0325835
-0.0325835
0.0150356
0.0150356
0.0407303
0.0407303
-0.00141231
-0.00141231
0.0209294
0.0209294
0.00438711
0.00438711
-0.0134084
-0.0134084
-0.020793
-0.020793
0.0236551
0.0236551
-0.0357243
-0.0357243
0.00627981
0.00627981
0.0026383
0.0026383
0.0258218
0.0258218
-0.000613809
-0.000613809
-0.00131915
-0.00131915
0.00764082
0.00764082
-0.0132918
-0.0132918
-0.0189511
-0.0189511
-0.000950594
-0.000950594
-0.00645926
-0.00645926
-0.194281
-0.194281
0.0933778
0.0933778
0.0960137
0.0960137
0.0215624
0.0215624
0.0281606
0.0281606
0.0295363
0.0295363
-0.00108688
-0.00108688
0.149794
0.149794
-0.00315878
-0.00315878
0.00283624
0.00283624
-0.0933087
-0.0933087
0.0172468
0.0172468
0.0329294
0.0329294
0.00729725
0.00729725
-0.00886219
-0.00886219
0.00386707
0.00386707
0.0447324
0.0447324
-0.0589218
-0.0589218
0.0117922
0.0117922
0.00089509
0.00089509
0.0132837
0.0132837
0.00274602
0.00274602
0.0164232
0.0164232
-0.0130402
-0.0130402
0.0535982
0.0535982
0.00184104
0.00184104
0.00573438
0.00573438
-0.09079
-0.09079
0.000448922
0.000448922
0.00949258
0.00949258
-0.0153273
-0.0153273
-0.0508544
-0.0508544
0.00497665
0.00497665
0.0273332
0.0273332
0.182265
0.182265
0.00379959
0.00379959
-0.00732167
-0.00732167
0.00496213
0.00496213
0.0100196
0.0100196
0.0176502
0.0176502
0.000939628
0.000939628
-0.106875
-0.106875
-0.052211
-0.052211
0.0251447
0.0251447
0.00647524
0.00647524
0.00680722
0.00680722
-0.0147865
-0.0147865
-0.00565951
-0.00565951
0.024789
0.024789
-0.0072195
-0.0072195
-0.133949
-0.133949
-0.00127305
-0.00127305
-0.00265815
-0.00265815
-0.0243085
-0.0243085
0.0185151
0.0185151
0.00449946
0.00449946
-0.00468343
-0.00468343
0.00732658
0.00732658
-0.00362648
-0.00362648
-0.00410414
-0.00410414
0.00551715
0.00551715
0.0024584
0.0024584
-0.0242825
-0.0242825
0.0153786
0.0153786
0.0141765
0.0141765
-0.0117594
-0.0117594
-0.0504209
-0.0504209
0.0133257
0.0133257
0.0943939
0.0943939
-0.0219341
-0.0219341
-0.00672482
-0.00672482
0.00537897
0.00537897
-0.0416647
-0.0416647
-0.0273356
-0.0273356
0.00447008
0.00447008
-0.0454074
-0.0454074
0.00361788
0.00361788
-0.00299651
-0.00299651
0.0677682
0.0677682
0.00593849
0.00593849
-0.00486534
-0.00486534
0.00826781
0.00826781
-0.0347654
-0.0347654
0.15184
0.15184
-0.00750817
-0.00750817
-0.00457373
-0.00457373
-0.0447408
-0.0447408
0.043452
0.043452
-0.0287191
-0.0287191
0.0267238
0.0267238
-0.154169
-0.154169
-0.00175314
-0.00175314
-0.00405989
-0.00405989
0.00142182
0.00142182
0.00413558
0.00413558
-8.6454e-05
-8.6454e-05
-0.00614564
-0.00614564
-0.000846433
-0.000846433
0.00376694
0.00376694
0.0174831
0.0174831
0.0796583
0.0796583
0.0798478
0.0798478
-0.00673252
-0.00673252
0.00823266
0.00823266
-0.0120876
-0.0120876
0.0100754
0.0100754
0.00119527
0.00119527
-0.0989517
-0.0989517
0.00235715
0.00235715
-0.00615588
-0.00615588
0.029481
0.029481
-0.00544684
-0.00544684
-0.0290432
-0.0290432
-0.00800133
-0.00800133
-0.0109573
-0.0109573
-0.0439885
-0.0439885
0.131379
0.131379
0.0010899
0.0010899
0.0880357
0.0880357
-0.00401297
-0.00401297
0.0211896
0.0211896
-0.00919855
-0.00919855
-0.00418677
-0.00418677
-0.00582425
-0.00582425
-0.00115208
-0.00115208
0.0342015
0.0342015
0.0133277
0.0133277
0.0384301
0.0384301
0.0184805
0.0184805
-0.00838229
-0.00838229
0.0244143
0.0244143
0.0556306
0.0556306
0.0255005
0.0255005
-0.00399504
-0.00399504
-0.0344865
-0.0344865
0.0359138
0.0359138
-0.00237574
-0.00237574
0.00123327
0.00123327
0.00755589
0.00755589
-0.0128785
-0.0128785
-0.0103782
-0.0103782
-0.0236639
-0.0236639
0.00236107
0.00236107
-0.0172295
-0.0172295
-0.0134966
-0.0134966
0.00984401
0.00984401
0.00686625
0.00686625
0.0071995
0.0071995
0.00375695
0.00375695
0.00462594
0.00462594
0.02829
0.02829
0.0428953
0.0428953
-0.00426289
-0.00426289
-0.000908896
-0.000908896
-0.076425
-0.076425
1.76036e-05
1.76036e-05
-0.0314318
-0.0314318
0.00958726
0.00958726
0.000550477
0.000550477
-0.000457217
-0.000457217
0.055532
0.055532
-0.00610237
-0.00610237
-0.0857469
-0.0857469
-0.00913337
-0.00913337
-0.00290781
-0.00290781
0.010499
0.010499
0.00448376
0.00448376
0.0101938
0.0101938
0.0171833
0.0171833
-0.00275616
-0.00275616
-0.00310861
-0.00310861
-0.009301
-0.009301
-0.131901
-0.131901
0.00774449
0.00774449
0.00643932
0.00643932
-0.0358219
-0.0358219
0.000203555
0.000203555
-0.0173764
-0.0173764
-0.0729981
-0.0729981
-0.0832986
-0.0832986
0.00894214
0.00894214
0.00368168
0.00368168
0.030388
0.030388
0.0820602
0.0820602
-0.0166837
-0.0166837
-0.00596719
-0.00596719
-0.0093278
-0.0093278
0.0453278
0.0453278
0.0123017
0.0123017
-0.000661672
-0.000661672
-0.0365817
-0.0365817
0.0617929
0.0617929
0.0073026
0.0073026
-0.00329535
-0.00329535
0.113377
0.113377
0.0680503
0.0680503
0.0131544
0.0131544
-0.0219196
-0.0219196
-0.0374595
-0.0374595
-0.148402
-0.148402
-0.00472908
-0.00472908
0.00289343
0.00289343
-0.000498047
-0.000498047
0.0154525
0.0154525
-0.0936955
-0.0936955
-0.0048141
-0.0048141
-0.0652446
-0.0652446
-0.0857509
-0.0857509
-0.0110342
-0.0110342
-0.0282582
-0.0282582
-0.0104807
-0.0104807
0.00309249
0.00309249
-0.133528
-0.133528
-0.00365317
-0.00365317
0.0406891
0.0406891
0.00617542
0.00617542
0.0424315
0.0424315
-0.077725
-0.077725
0.00917967
0.00917967
0.000369652
0.000369652
0.0141283
0.0141283
-0.00712824
-0.00712824
-0.0584784
-0.0584784
-0.00174138
-0.00174138
-0.0194954
-0.0194954
0.0184351
0.0184351
-0.0120527
-0.0120527
0.00773485
0.00773485
-0.0319852
-0.0319852
0.00300046
0.00300046
0.107321
0.107321
-0.125426
-0.125426
0.00193866
0.00193866
0.0154563
0.0154563
0.00808663
0.00808663
-0.00872158
-0.00872158
-0.0964048
-0.0964048
0.0113705
0.0113705
0.0288648
0.0288648
-0.0129592
-0.0129592
0.00167964
0.00167964
0.0802486
0.0802486
0.0119338
0.0119338
0.00322677
0.00322677
-0.151108
-0.151108
-0.0020158
-0.0020158
-0.0736785
-0.0736785
0.0109473
0.0109473
-0.00138814
-0.00138814
0.00641846
0.00641846
-0.00572365
-0.00572365
-0.000521325
-0.000521325
-0.0401931
-0.0401931
0.00201973
0.00201973
-0.00608362
-0.00608362
-0.02082
-0.02082
-0.0109032
-0.0109032
0.0108913
0.0108913
0.00708862
0.00708862
-0.0565461
-0.0565461
-0.0148003
-0.0148003
-0.0147783
-0.0147783
-0.018423
-0.018423
-0.0614602
-0.0614602
-0.0116948
-0.0116948
0.0047211
0.0047211
0.0209411
0.0209411
0.00212916
0.00212916
0.0195548
0.0195548
-0.00616863
-0.00616863
-0.0106974
-0.0106974
-0.00420269
-0.00420269
0.0861386
0.0861386
0.071191
0.071191
-0.00990061
-0.00990061
-0.0013718
-0.0013718
0.0174432
0.0174432
0.0093233
0.0093233
-0.0640337
-0.0640337
0.00504449
0.00504449
0.0232062
0.0232062
0.00951411
0.00951411
0.0188059
0.0188059
-0.011572
-0.011572
-0.040252
-0.040252
-0.00193455
-0.00193455
-0.00984629
-0.00984629
-0.00591236
-0.00591236
-0.0162392
-0.0162392
0.0167697
0.0167697
-0.0148191
-0.0148191
0.0531702
0.0531702
0.0291015
0.0291015
0.0118509
0.0118509
0.00290943
0.00290943
-0.0789287
-0.0789287
0.00250646
0.00250646
-0.000112157
-0.000112157
-0.00957488
-0.00957488
0.112339
0.112339
-0.00130373
-0.00130373
-0.0115236
-0.0115236
0.0723987
0.0723987
0.00893153
0.00893153
0.0129337
0.0129337
0.00457799
0.00457799
-0.00359262
-0.00359262
-0.017051
-0.017051
-0.0562264
-0.0562264
-0.0477854
-0.0477854
-0.0560603
-0.0560603
-0.0152111
-0.0152111
0.037502
0.037502
-0.000718434
-0.000718434
0.022731
0.022731
0.00470256
0.00470256
-0.00763847
-0.00763847
-0.0782403
-0.0782403
-0.00309585
-0.00309585
-0.0529566
-0.0529566
-0.004121
-0.004121
0.00834126
0.00834126
-0.00596603
-0.00596603
0.00904887
0.00904887
-0.0682738
-0.0682738
0.0203291
0.0203291
-0.0595341
-0.0595341
0.0279171
0.0279171
-0.0239656
-0.0239656
-0.00710583
-0.00710583
-0.0198231
-0.0198231
-0.00162301
-0.00162301
0.00734581
0.00734581
-0.141861
-0.141861
-0.0337516
-0.0337516
0.0223244
0.0223244
0.00321299
0.00321299
0.0173491
0.0173491
0.0777334
0.0777334
-0.00448334
-0.00448334
0.0114437
0.0114437
0.0198753
0.0198753
0.00862489
0.00862489
0.0870344
0.0870344
-0.00645091
-0.00645091
0.00661332
0.00661332
-0.010943
-0.010943
0.0108522
0.0108522
0.00685999
0.00685999
-0.00891871
-0.00891871
0.0559217
0.0559217
0.0100093
0.0100093
0.00933939
0.00933939
-0.121913
-0.121913
-0.0147063
-0.0147063
-0.0137792
-0.0137792
0.00963079
0.00963079
0.0764272
0.0764272
-0.153036
-0.153036
0.0158648
0.0158648
-0.0188908
-0.0188908
0.00280362
0.00280362
-0.115307
-0.115307
-0.000499239
-0.000499239
-0.0612214
-0.0612214
-0.00358429
-0.00358429
0.0247727
0.0247727
-0.00417991
-0.00417991
0.00589141
0.00589141
-0.00226283
-0.00226283
-0.00209186
-0.00209186
-0.000912458
-0.000912458
-0.00878937
-0.00878937
0.0146574
0.0146574
-0.00558759
-0.00558759
0.0821445
0.0821445
0.00783636
0.00783636
0.0663754
0.0663754
0.0127607
0.0127607
-0.0015693
-0.0015693
0.00351161
0.00351161
0.00379136
0.00379136
0.00494746
0.00494746
-0.0109129
-0.0109129
0.0078696
0.0078696
0.00749987
0.00749987
-0.00160537
-0.00160537
0.036796
0.036796
-0.000919352
-0.000919352
0.00246147
0.00246147
-0.00394281
-0.00394281
0.0215013
0.0215013
0.00685494
0.00685494
0.00414793
0.00414793
0.00365829
0.00365829
-0.00920367
-0.00920367
-0.00621306
-0.00621306
-0.00679464
-0.00679464
0.033834
0.033834
-0.0166341
-0.0166341
0.0177696
0.0177696
0.00503021
0.00503021
0.00404686
0.00404686
0.0306176
0.0306176
0.00461547
0.00461547
-0.0459171
-0.0459171
-0.000373661
-0.000373661
0.010468
0.010468
0.0260724
0.0260724
-0.0121866
-0.0121866
-0.0546688
-0.0546688
0.0242405
0.0242405
-0.0153728
-0.0153728
0.00905821
0.00905821
-0.0081026
-0.0081026
0.0626786
0.0626786
-0.0013673
-0.0013673
0.00587794
0.00587794
-0.0907729
-0.0907729
0.0349458
0.0349458
0.0198926
0.0198926
-0.181729
-0.181729
0.0146609
0.0146609
-0.00349696
-0.00349696
0.00553919
0.00553919
-0.073985
-0.073985
-0.011808
-0.011808
0.0201417
0.0201417
-0.0028788
-0.0028788
0.17738
0.17738
0.00267366
0.00267366
-0.0334937
-0.0334937
0.0689756
0.0689756
0.0278074
0.0278074
0.00486618
0.00486618
0.00637697
0.00637697
-0.0391765
-0.0391765
-0.0103163
-0.0103163
-0.000601238
-0.000601238
0.00738229
0.00738229
0.0338349
0.0338349
0.0140451
0.0140451
-0.00689721
-0.00689721
-0.00202763
-0.00202763
0.109432
0.109432
-0.00236073
-0.00236073
-0.0206498
-0.0206498
-0.00837256
-0.00837256
0.0391258
0.0391258
-0.00653866
-0.00653866
-0.012139
-0.012139
-0.00766954
-0.00766954
0.00432783
0.00432783
0.00723215
0.00723215
0.0711137
0.0711137
0.0254045
0.0254045
0.0160757
0.0160757
0.0290738
0.0290738
-0.0156535
-0.0156535
-0.00511038
-0.00511038
0.0313233
0.0313233
0.00140327
0.00140327
-0.0482803
-0.0482803
0.00652295
0.00652295
0.0117795
0.0117795
0.00628726
0.00628726
0.0202587
0.0202587
0.0110731
0.0110731
-0.0491048
-0.0491048
0.0193784
0.0193784
0.0063702
0.0063702
0.00751239
0.00751239
-0.00514279
-0.00514279
-0.0840093
-0.0840093
-0.0369953
-0.0369953
0.00745691
0.00745691
0.0385467
0.0385467
0.111654
0.111654
-0.0115032
-0.0115032
0.014667
0.014667
-0.0196322
-0.0196322
0.0285151
0.0285151
-0.0692712
-0.0692712
-0.00981122
-0.00981122
-0.028396
-0.028396
-0.0139185
-0.0139185
0.0043512
0.0043512
0.0123319
0.0123319
-0.0240929
-0.0240929
0.00200049
0.00200049
0.00947566
0.00947566
-0.0299346
-0.0299346
0.0199285
0.0199285
-0.00225901
-0.00225901
-0.00286521
-0.00286521
-0.0062446
-0.0062446
0.0597686
0.0597686
0.0731106
0.0731106
-0.0383771
-0.0383771
-0.00378761
-0.00378761
-0.0422015
-0.0422015
-0.00143885
-0.00143885
0.00144208
0.00144208
-0.034912
-0.034912
0.000813991
0.000813991
-0.00870503
-0.00870503
0.0387547
0.0387547
0.0286942
0.0286942
-0.00682046
-0.00682046
-0.12129
-0.12129
0.0608359
0.0608359
-0.0632218
-0.0632218
0.0370895
0.0370895
0.0132753
0.0132753
-0.00926412
-0.00926412
-0.100024
-0.100024
-0.0263819
-0.0263819
-0.00039498
-0.00039498
-0.00294125
-0.00294125
-0.00650366
-0.00650366
0.000826473
0.000826473
0.0211116
0.0211116
0.0260308
0.0260308
0.0985276
0.0985276
-0.0694485
-0.0694485
0.00516735
0.00516735
-0.0340873
-0.0340873
0.00125062
0.00125062
0.0059106
0.0059106
-0.104384
-0.104384
0.0119525
0.0119525
0.000635142
0.000635142
-0.0111539
-0.0111539
-0.0147632
-0.0147632
0.00617979
0.00617979
-0.00832737
-0.00832737
0.00139376
0.00139376
0.0239453
0.0239453
0.00113727
0.00113727
0.000305686
0.000305686
0.0188062
0.0188062
0.143616
0.143616
0.0262572
0.0262572
0.000649047
0.000649047
-0.0836629
-0.0836629
0.00150188
0.00150188
0.0291228
0.0291228
0.0204669
0.0204669
-0.0109599
-0.0109599
-0.0029258
-0.0029258
-0.0196828
-0.0196828
-0.0480553
-0.0480553
0.0612973
0.0612973
0.0167476
0.0167476
0.01015
0.01015
-0.00517349
-0.00517349
-0.01044
-0.01044
0.00678126
0.00678126
0.0380869
0.0380869
0.00170198
0.00170198
-0.173975
-0.173975
-0.0117716
-0.0117716
0.00472737
0.00472737
-0.026432
-0.026432
-0.01305
-0.01305
-0.0216859
-0.0216859
-0.00527479
-0.00527479
-0.00185275
-0.00185275
0.000751647
0.000751647
-0.0214375
-0.0214375
0.157949
0.157949
-0.00408574
-0.00408574
-0.118566
-0.118566
0.000577973
0.000577973
0.00886627
0.00886627
0.0638587
0.0638587
-0.0134986
-0.0134986
-0.00659049
-0.00659049
-0.00349633
-0.00349633
0.0515386
0.0515386
-0.0189741
-0.0189741
0.00434029
0.00434029
0.0301173
0.0301173
0.00941958
0.00941958
0.0879472
0.0879472
0.0128572
0.0128572
-0.0846517
-0.0846517
-0.000598331
-0.000598331
0.00149716
0.00149716
-0.0441113
-0.0441113
-0.00637435
-0.00637435
-0.0453825
-0.0453825
-0.0543243
-0.0543243
-0.0140428
-0.0140428
0.0870471
0.0870471
0.0229845
0.0229845
-0.00110106
-0.00110106
0.0194429
0.0194429
-0.0374584
-0.0374584
-0.004619
-0.004619
-0.0107615
-0.0107615
-0.00909697
-0.00909697
0.0247086
0.0247086
-0.0252198
-0.0252198
-0.0985782
-0.0985782
0.001528
0.001528
-0.000432013
-0.000432013
-0.0142424
-0.0142424
-0.00569327
-0.00569327
0.018874
0.018874
-0.0728221
-0.0728221
0.0151532
0.0151532
-0.0297083
-0.0297083
-0.0290194
-0.0290194
-0.0390716
-0.0390716
-0.00457525
-0.00457525
-0.00389006
-0.00389006
0.00273183
0.00273183
0.0119457
0.0119457
0.0181509
0.0181509
-0.00291284
-0.00291284
0.00381974
0.00381974
0.00167329
0.00167329
0.0190428
0.0190428
0.0321002
0.0321002
-0.035549
-0.035549
0.00696549
0.00696549
0.0204141
0.0204141
0.00688379
0.00688379
0.0609564
0.0609564
0.0103319
0.0103319
-0.0109749
-0.0109749
0.0101258
0.0101258
-0.0702704
-0.0702704
-0.0692486
-0.0692486
-0.00693682
-0.00693682
0.00481379
0.00481379
-0.00146833
-0.00146833
-0.00729257
-0.00729257
0.00423536
0.00423536
0.133594
0.133594
0.042212
0.042212
0.0224641
0.0224641
0.0115915
0.0115915
-0.0477204
-0.0477204
0.0300117
0.0300117
-0.00623085
-0.00623085
-0.00166114
-0.00166114
0.0142345
0.0142345
-0.0111339
-0.0111339
-0.00713353
-0.00713353
-0.00169205
-0.00169205
0.0222831
0.0222831
0.00787321
0.00787321
-0.0157249
-0.0157249
-0.0417099
-0.0417099
-0.00447837
-0.00447837
-0.0704381
-0.0704381
-0.0249636
-0.0249636
-0.0537347
-0.0537347
-0.092912
-0.092912
-0.0545464
-0.0545464
-0.0101289
-0.0101289
-0.00990804
-0.00990804
-0.0234431
-0.0234431
-0.0242731
-0.0242731
0.0160929
0.0160929
-0.0518696
-0.0518696
-0.000958772
-0.000958772
-0.0500701
-0.0500701
0.00214802
0.00214802
-0.0112155
-0.0112155
-0.0459818
-0.0459818
0.0147497
0.0147497
0.00818525
0.00818525
-0.00987732
-0.00987732
0.0104754
0.0104754
-0.0132628
-0.0132628
0.00208135
0.00208135
0.00718162
0.00718162
-0.0578993
-0.0578993
0.000436098
0.000436098
-0.00848944
-0.00848944
0.00773543
0.00773543
0.0215762
0.0215762
-0.00888663
-0.00888663
0.0578037
0.0578037
-0.0527479
-0.0527479
0.00404609
0.00404609
-0.0196924
-0.0196924
0.0122588
0.0122588
-0.00653431
-0.00653431
-0.00463359
-0.00463359
0.0152396
0.0152396
0.0386997
0.0386997
0.00444408
0.00444408
-0.0818909
-0.0818909
-0.0345639
-0.0345639
0.0253334
0.0253334
-0.0111783
-0.0111783
0.0924008
0.0924008
0.00828924
0.00828924
0.0105095
0.0105095
0.0583342
0.0583342
-0.0127659
-0.0127659
-0.0079849
-0.0079849
0.0171949
0.0171949
-0.00695895
-0.00695895
0.00528776
0.00528776
-0.00382935
-0.00382935
0.0563175
0.0563175
0.0546477
0.0546477
-0.0352523
-0.0352523
0.026885
0.026885
0.0288228
0.0288228
0.00956066
0.00956066
0.00823335
0.00823335
-0.0198662
-0.0198662
-0.011467
-0.011467
-0.0111429
-0.0111429
0.0350702
0.0350702
-0.00138863
-0.00138863
-0.00426161
-0.00426161
-0.00967691
-0.00967691
-0.00157742
-0.00157742
-0.00868939
-0.00868939
0.0160392
0.0160392
0.00332866
0.00332866
-0.000473493
-0.000473493
-0.017487
-0.017487
-0.0111729
-0.0111729
-0.0517787
-0.0517787
-0.0533115
-0.0533115
0.086272
0.086272
-0.000486992
-0.000486992
0.0100257
0.0100257
0.00645872
0.00645872
-0.00382044
-0.00382044
0.00223169
0.00223169
-0.000755185
-0.000755185
-0.00898298
-0.00898298
-0.0159705
-0.0159705
0.00808649
0.00808649
0.0628362
0.0628362
-0.0277323
-0.0277323
-0.00363072
-0.00363072
0.000761587
0.000761587
0.118304
0.118304
-0.0477034
-0.0477034
0.0341847
0.0341847
-0.0315547
-0.0315547
-0.0151176
-0.0151176
-0.00261682
-0.00261682
-0.00207824
-0.00207824
-0.0257106
-0.0257106
-0.00650392
-0.00650392
-0.000913046
-0.000913046
0.0112191
0.0112191
0.0373684
0.0373684
-0.00265746
-0.00265746
-0.122873
-0.122873
-0.0119517
-0.0119517
0.00912008
0.00912008
-0.00674529
-0.00674529
-0.0236126
-0.0236126
-0.00121571
-0.00121571
0.00859411
0.00859411
-0.00637506
-0.00637506
0.00434881
0.00434881
-0.00629928
-0.00629928
-0.0267026
-0.0267026
-0.00966402
-0.00966402
-0.000183069
-0.000183069
0.0959099
0.0959099
0.0197605
0.0197605
0.0108193
0.0108193
2.85764e-05
2.85764e-05
0.011232
0.011232
-0.00183699
-0.00183699
0.002308
0.002308
0.0102017
0.0102017
0.00786621
0.00786621
-0.0408413
-0.0408413
-0.00946844
-0.00946844
-0.00447133
-0.00447133
-0.0111317
-0.0111317
-0.00734686
-0.00734686
-0.0422602
-0.0422602
0.01148
0.01148
-0.0117987
-0.0117987
-0.0036884
-0.0036884
0.0141492
0.0141492
0.023235
0.023235
-0.00919044
-0.00919044
-0.0175253
-0.0175253
-0.0278983
-0.0278983
0.00187353
0.00187353
0.0141888
0.0141888
-0.019303
-0.019303
-0.00416693
-0.00416693
0.0344727
0.0344727
0.00109386
0.00109386
-0.003971
-0.003971
-0.00651946
-0.00651946
-0.0414266
-0.0414266
0.00174634
0.00174634
-0.010496
-0.010496
-0.0177725
-0.0177725
0.00491522
0.00491522
-0.0165649
-0.0165649
0.00166876
0.00166876
-0.000973891
-0.000973891
-0.0033455
-0.0033455
-0.0516181
-0.0516181
0.00475576
0.00475576
0.0472545
0.0472545
0.0034896
0.0034896
-0.00798662
-0.00798662
-0.075078
-0.075078
-0.00957674
-0.00957674
0.00303211
0.00303211
0.0385964
0.0385964
0.00641517
0.00641517
0.00582752
0.00582752
-0.152042
-0.152042
0.00658128
0.00658128
-0.021591
-0.021591
0.0488223
0.0488223
-0.0618382
-0.0618382
-0.0522337
-0.0522337
-0.0062916
-0.0062916
-0.0111958
-0.0111958
0.0324593
0.0324593
-0.00124453
-0.00124453
-0.111715
-0.111715
0.0208743
0.0208743
0.00958818
0.00958818
0.0875083
0.0875083
-0.144135
-0.144135
0.0209891
0.0209891
-0.0165938
-0.0165938
-0.0268253
-0.0268253
0.0373756
0.0373756
-0.0283544
-0.0283544
0.00649344
0.00649344
0.0260353
0.0260353
0.00186319
0.00186319
-0.0544587
-0.0544587
-0.0314709
-0.0314709
0.00226548
0.00226548
-0.00231643
-0.00231643
0.00913131
0.00913131
-0.0244418
-0.0244418
0.118832
0.118832
-0.00677076
-0.00677076
0.023438
0.023438
-0.0236628
-0.0236628
-0.00562519
-0.00562519
0.0083769
0.0083769
-0.00194447
-0.00194447
0.0396609
0.0396609
0.0232697
0.0232697
-0.0438239
-0.0438239
-0.0562902
-0.0562902
-0.0106613
-0.0106613
-0.00790034
-0.00790034
-0.0237526
-0.0237526
-0.00654354
-0.00654354
0.0151559
0.0151559
-0.0433291
-0.0433291
-0.0799011
-0.0799011
0.0136989
0.0136989
-0.0308429
-0.0308429
-0.00445476
-0.00445476
0.00296495
0.00296495
0.102175
0.102175
0.0265542
0.0265542
-0.0225759
-0.0225759
-0.0123079
-0.0123079
0.0198307
0.0198307
0.00078598
0.00078598
0.0212648
0.0212648
0.00260756
0.00260756
0.0218516
0.0218516
0.02893
0.02893
0.00121415
0.00121415
0.00215701
0.00215701
0.00725615
0.00725615
-0.0882426
-0.0882426
0.0802858
0.0802858
-0.00976419
-0.00976419
-0.0366283
-0.0366283
0.00784344
0.00784344
-0.0121208
-0.0121208
0.0434647
0.0434647
-0.136153
-0.136153
-0.0131984
-0.0131984
-0.0120498
-0.0120498
-0.00779502
-0.00779502
0.140932
0.140932
-0.15687
-0.15687
-0.00893618
-0.00893618
0.00198362
0.00198362
-0.00766964
-0.00766964
0.0216127
0.0216127
0.0103832
0.0103832
0.0627459
0.0627459
-0.00656811
-0.00656811
-0.0268163
-0.0268163
-0.0266494
-0.0266494
-0.0197766
-0.0197766
-0.00512107
-0.00512107
-0.0843444
-0.0843444
-4.46644e-05
-4.46644e-05
0.0149079
0.0149079
-0.00869256
-0.00869256
0.0105536
0.0105536
0.0118617
0.0118617
-0.0204267
-0.0204267
0.0136732
0.0136732
-0.0127007
-0.0127007
-0.0398569
-0.0398569
0.0174098
0.0174098
0.00581457
0.00581457
0.0193148
0.0193148
-0.0259229
-0.0259229
-0.00774186
-0.00774186
-0.0074466
-0.0074466
-0.0431943
-0.0431943
-0.0101984
-0.0101984
0.0300393
0.0300393
-0.0563404
-0.0563404
0.00471236
0.00471236
-0.00988312
-0.00988312
-0.114503
-0.114503
0.0125594
0.0125594
-0.0153277
-0.0153277
-0.0037701
-0.0037701
0.0236824
0.0236824
-0.00579388
-0.00579388
0.0343018
0.0343018
0.00260964
0.00260964
-0.0164344
-0.0164344
-0.0126661
-0.0126661
-0.0147464
-0.0147464
0.092097
0.092097
-0.0955268
-0.0955268
-0.00714461
-0.00714461
0.0872127
0.0872127
0.00551491
0.00551491
0.0295895
0.0295895
-0.0203272
-0.0203272
0.0105759
0.0105759
-0.00770026
-0.00770026
-0.0631206
-0.0631206
-0.0014837
-0.0014837
0.0101472
0.0101472
-0.00489994
-0.00489994
0.00719084
0.00719084
0.0126522
0.0126522
-0.00367192
-0.00367192
0.0129368
0.0129368
0.0207362
0.0207362
0.0125498
0.0125498
0.00804186
0.00804186
-0.0232665
-0.0232665
0.0524862
0.0524862
-0.0655867
-0.0655867
-0.0105559
-0.0105559
0.00773289
0.00773289
0.0132686
0.0132686
-0.0163546
-0.0163546
-0.00231052
-0.00231052
-0.00329328
-0.00329328
0.120812
0.120812
0.0806339
0.0806339
0.0473819
0.0473819
-0.0138959
-0.0138959
-0.00507669
-0.00507669
0.000645724
0.000645724
0.0298756
0.0298756
-0.0186679
-0.0186679
0.026097
0.026097
-0.00336895
-0.00336895
0.00589249
0.00589249
-0.0595654
-0.0595654
-0.00898967
-0.00898967
0.152942
0.152942
-0.0417967
-0.0417967
0.0160432
0.0160432
-0.0826255
-0.0826255
0.0394957
0.0394957
0.0118507
0.0118507
0.00970901
0.00970901
-0.00289162
-0.00289162
-0.0105388
-0.0105388
-0.0526061
-0.0526061
0.00769365
0.00769365
0.0222119
0.0222119
-0.00469073
-0.00469073
0.0374862
0.0374862
0.172806
0.172806
-0.148479
-0.148479
0.0210106
0.0210106
-0.00226414
-0.00226414
0.0620491
0.0620491
-0.0454112
-0.0454112
-0.0112051
-0.0112051
-0.00590337
-0.00590337
0.00303212
0.00303212
0.0240019
0.0240019
-0.0212624
-0.0212624
-0.00545241
-0.00545241
0.00723651
0.00723651
-0.0361988
-0.0361988
0.00542473
0.00542473
0.00874692
0.00874692
0.0041712
0.0041712
-0.0120927
-0.0120927
-0.00816258
-0.00816258
-0.012829
-0.012829
0.0129905
0.0129905
0.00410802
0.00410802
0.0107505
0.0107505
0.0167903
0.0167903
-0.0398024
-0.0398024
-0.00286373
-0.00286373
0.118018
0.118018
5.15708e-05
5.15708e-05
-0.0297472
-0.0297472
0.00584278
0.00584278
-0.00538098
-0.00538098
-0.0168462
-0.0168462
-0.0864101
-0.0864101
0.00669295
0.00669295
-0.00895567
-0.00895567
-0.000419163
-0.000419163
-0.0783866
-0.0783866
-0.00784179
-0.00784179
0.100467
0.100467
0.0259382
0.0259382
0.0663787
0.0663787
-0.00235809
-0.00235809
0.00328458
0.00328458
0.00356202
0.00356202
-0.0418615
-0.0418615
0.0292314
0.0292314
-0.00540325
-0.00540325
0.00680767
0.00680767
0.0351522
0.0351522
0.000865087
0.000865087
-0.0264502
-0.0264502
-0.0281894
-0.0281894
0.0115597
0.0115597
-0.0109447
-0.0109447
-0.00784241
-0.00784241
0.115007
0.115007
-0.112767
-0.112767
-0.048481
-0.048481
0.0294374
0.0294374
-0.0198007
-0.0198007
0.0312742
0.0312742
-0.00389397
-0.00389397
-0.000171744
-0.000171744
0.00389502
0.00389502
0.00539623
0.00539623
0.000458863
0.000458863
0.019902
0.019902
-0.0256898
-0.0256898
0.00457422
0.00457422
0.00540403
0.00540403
-0.0191052
-0.0191052
0.00626533
0.00626533
-0.0123616
-0.0123616
0.0734262
0.0734262
-0.0165205
-0.0165205
-0.00174424
-0.00174424
0.00167676
0.00167676
-0.0391008
-0.0391008
-0.01059
-0.01059
0.00609783
0.00609783
0.000758449
0.000758449
0.00822235
0.00822235
-0.00754559
-0.00754559
-0.00168716
-0.00168716
0.00664855
0.00664855
-0.02367
-0.02367
0.00884269
0.00884269
0.0452774
0.0452774
-0.00910021
-0.00910021
-0.0105509
-0.0105509
-0.0018625
-0.0018625
-0.0557785
-0.0557785
0.0556337
0.0556337
-0.0175501
-0.0175501
-0.00745418
-0.00745418
0.0300028
0.0300028
0.0509429
0.0509429
0.0140185
0.0140185
-0.019876
-0.019876
0.0194735
0.0194735
0.0851113
0.0851113
-0.0597003
-0.0597003
-0.0183015
-0.0183015
-0.0281524
-0.0281524
0.00458145
0.00458145
-0.00550118
-0.00550118
0.077617
0.077617
-0.0881472
-0.0881472
-0.024898
-0.024898
-0.0146167
-0.0146167
0.00725175
0.00725175
-0.0515095
-0.0515095
-0.00988377
-0.00988377
-0.0355097
-0.0355097
-0.0267144
-0.0267144
-0.0992967
-0.0992967
0.00565292
0.00565292
0.0146279
0.0146279
-0.0162136
-0.0162136
-0.119102
-0.119102
-0.00653416
-0.00653416
-0.011465
-0.011465
-0.00205325
-0.00205325
0.0547504
0.0547504
-0.0107314
-0.0107314
0.00876204
0.00876204
0.0631743
0.0631743
0.0525381
0.0525381
-0.00781994
-0.00781994
0.101592
0.101592
-0.0196019
-0.0196019
-0.00606218
-0.00606218
0.00534266
0.00534266
-0.011588
-0.011588
-0.0574282
-0.0574282
0.00528844
0.00528844
-0.0221699
-0.0221699
0.117402
0.117402
0.00392624
0.00392624
-0.00290996
-0.00290996
0.00577465
0.00577465
0.0248464
0.0248464
0.0081141
0.0081141
-0.0258784
-0.0258784
0.000826301
0.000826301
0.0279531
0.0279531
0.105932
0.105932
-0.000679109
-0.000679109
0.00488519
0.00488519
-0.0181263
-0.0181263
0.0454385
0.0454385
0.00120782
0.00120782
-0.0200235
-0.0200235
-0.00949914
-0.00949914
-0.0726239
-0.0726239
0.0147393
0.0147393
-0.0461655
-0.0461655
-0.0167846
-0.0167846
0.0590219
0.0590219
0.0151784
0.0151784
0.0137189
0.0137189
-0.00173374
-0.00173374
0.0107907
0.0107907
-0.0178716
-0.0178716
0.136441
0.136441
0.0472267
0.0472267
0.0638412
0.0638412
-0.0932483
-0.0932483
-0.0130015
-0.0130015
0.0377675
0.0377675
0.039069
0.039069
0.0031534
0.0031534
0.0175142
0.0175142
0.00392338
0.00392338
0.025753
0.025753
0.0156474
0.0156474
0.00991917
0.00991917
-0.00274164
-0.00274164
-0.019114
-0.019114
0.103858
0.103858
0.00194349
0.00194349
0.00700977
0.00700977
0.00825961
0.00825961
-0.0496045
-0.0496045
-0.0706398
-0.0706398
-0.0138742
-0.0138742
-0.0613672
-0.0613672
0.00836633
0.00836633
0.0079533
0.0079533
-0.016575
-0.016575
0.0108934
0.0108934
-0.00528838
-0.00528838
0.0285845
0.0285845
0.0107611
0.0107611
-0.00281748
-0.00281748
0.0557003
0.0557003
-0.0203752
-0.0203752
-0.053595
-0.053595
-0.00551545
-0.00551545
-0.0153706
-0.0153706
0.00707019
0.00707019
0.00419081
0.00419081
0.00825176
0.00825176
0.00111029
0.00111029
0.0122695
0.0122695
0.0646282
0.0646282
0.00146099
0.00146099
0.0711233
0.0711233
0.0156702
0.0156702
-0.000552031
-0.000552031
0.0173682
0.0173682
-0.00637349
-0.00637349
0.016238
0.016238
-0.00339185
-0.00339185
0.0295252
0.0295252
0.0496754
0.0496754
0.0147284
0.0147284
-0.0162604
-0.0162604
0.00221358
0.00221358
0.00797451
0.00797451
-0.00316861
-0.00316861
0.0174952
0.0174952
0.0197306
0.0197306
-0.00419675
-0.00419675
-0.058573
-0.058573
-0.0333953
-0.0333953
0.00348247
0.00348247
-0.00928337
-0.00928337
-0.0412493
-0.0412493
-0.00767679
-0.00767679
-0.00411518
-0.00411518
0.0381929
0.0381929
-0.0378056
-0.0378056
0.00834781
0.00834781
0.0782903
0.0782903
0.0350458
0.0350458
0.00198114
0.00198114
-0.0435354
-0.0435354
-0.057013
-0.057013
0.0015966
0.0015966
0.097744
0.097744
-0.152727
-0.152727
-0.00276347
-0.00276347
-0.00833246
-0.00833246
0.00630644
0.00630644
-0.104312
-0.104312
-0.0181715
-0.0181715
-0.00302831
-0.00302831
-0.00804216
-0.00804216
0.00793655
0.00793655
-0.00801445
-0.00801445
0.131997
0.131997
0.0175532
0.0175532
-0.0704089
-0.0704089
0.0400127
0.0400127
-0.0335928
-0.0335928
0.01602
0.01602
-0.0191114
-0.0191114
-0.082374
-0.082374
0.00399459
0.00399459
-0.031166
-0.031166
0.00714161
0.00714161
0.00796045
0.00796045
-0.00384099
-0.00384099
-0.00414456
-0.00414456
0.0906032
0.0906032
-0.0563705
-0.0563705
-0.00723461
-0.00723461
0.00294502
0.00294502
-0.00515886
-0.00515886
0.00141848
0.00141848
-0.00229593
-0.00229593
0.00965047
0.00965047
-0.000407109
-0.000407109
0.013872
0.013872
0.00614386
0.00614386
0.0757764
0.0757764
-0.00533609
-0.00533609
0.00741322
0.00741322
0.0683965
0.0683965
0.0216935
0.0216935
-0.0622728
-0.0622728
0.015576
0.015576
0.00220597
0.00220597
0.0410817
0.0410817
0.00540192
0.00540192
0.00135644
0.00135644
0.0157133
0.0157133
-0.00371949
-0.00371949
0.0686839
0.0686839
0.0129658
0.0129658
-0.0796866
-0.0796866
0.0140521
0.0140521
0.0432628
0.0432628
-0.00378861
-0.00378861
0.065632
0.065632
0.167943
0.167943
-0.00657463
-0.00657463
0.00320798
0.00320798
-0.00696765
-0.00696765
-0.0655547
-0.0655547
-0.0631118
-0.0631118
0.0129025
0.0129025
-0.00231071
-0.00231071
0.00813674
0.00813674
-0.00406325
-0.00406325
0.0153943
0.0153943
-0.0961897
-0.0961897
0.127477
0.127477
-0.0312736
-0.0312736
-0.00952609
-0.00952609
0.00471565
0.00471565
0.0353939
0.0353939
-0.00722746
-0.00722746
0.0112345
0.0112345
-0.0132201
-0.0132201
0.00698345
0.00698345
0.0161992
0.0161992
-0.00743909
-0.00743909
0.0182805
0.0182805
-0.0825626
-0.0825626
0.00447931
0.00447931
-0.0182833
-0.0182833
-0.00656032
-0.00656032
0.000526463
0.000526463
0.00378807
0.00378807
-0.00219687
-0.00219687
-0.00202635
-0.00202635
-0.00585348
-0.00585348
-0.0102154
-0.0102154
-0.0366877
-0.0366877
-0.0172417
-0.0172417
-0.00219818
-0.00219818
-0.0192892
-0.0192892
-0.0324721
-0.0324721
-0.155561
-0.155561
-0.0469618
-0.0469618
-0.0109998
-0.0109998
0.00915182
0.00915182
-0.00921112
-0.00921112
0.00633424
0.00633424
0.0625048
0.0625048
-0.0361329
-0.0361329
0.16043
0.16043
6.77222e-05
6.77222e-05
-0.0601536
-0.0601536
0.0104915
0.0104915
0.162248
0.162248
0.0137528
0.0137528
0.00388984
0.00388984
-0.0292922
-0.0292922
0.00783446
0.00783446
-0.0721942
-0.0721942
-0.020309
-0.020309
0.0333646
0.0333646
0.00212285
0.00212285
-0.0225161
-0.0225161
0.0164153
0.0164153
-0.061754
-0.061754
0.0360547
0.0360547
0.00750445
0.00750445
-0.0133293
-0.0133293
-0.0106239
-0.0106239
-0.110128
-0.110128
-0.0130967
-0.0130967
0.0382067
0.0382067
0.00979715
0.00979715
0.0148869
0.0148869
-0.00453082
-0.00453082
-0.0524304
-0.0524304
0.0512633
0.0512633
-0.0120525
-0.0120525
0.00417499
0.00417499
-0.00630481
-0.00630481
-0.00925824
-0.00925824
0.0049621
0.0049621
-0.010571
-0.010571
-0.00304812
-0.00304812
-0.159062
-0.159062
-0.146319
-0.146319
6.87473e-05
6.87473e-05
0.00117244
0.00117244
-0.00422798
-0.00422798
-0.00118169
-0.00118169
0.00826992
0.00826992
-0.02396
-0.02396
-0.0931715
-0.0931715
0.050164
0.050164
-0.00957004
-0.00957004
0.00445068
0.00445068
-0.0102867
-0.0102867
-0.00702972
-0.00702972
-0.158899
-0.158899
0.083168
0.083168
-0.0032169
-0.0032169
-0.0454651
-0.0454651
-0.0756979
-0.0756979
-0.0233901
-0.0233901
0.00366719
0.00366719
-0.040084
-0.040084
0.00817867
0.00817867
0.0115033
0.0115033
0.00374129
0.00374129
-0.0218029
-0.0218029
-0.00646165
-0.00646165
0.0115467
0.0115467
0.018785
0.018785
0.00597153
0.00597153
0.000118653
0.000118653
0.00994699
0.00994699
-0.00778714
-0.00778714
0.0794346
0.0794346
-0.0479516
-0.0479516
0.018444
0.018444
-0.0133679
-0.0133679
0.00162042
0.00162042
-0.00246081
-0.00246081
0.00297943
0.00297943
-0.0189094
-0.0189094
0.00130156
0.00130156
-0.00115905
-0.00115905
-0.0197863
-0.0197863
-0.0630439
-0.0630439
0.0091811
0.0091811
-0.000674073
-0.000674073
-0.0042229
-0.0042229
-0.128737
-0.128737
-0.000952178
-0.000952178
-0.0139223
-0.0139223
0.0028473
0.0028473
0.0100463
0.0100463
0.0406156
0.0406156
-0.00845954
-0.00845954
0.0979794
0.0979794
-0.00226858
-0.00226858
0.139511
0.139511
-0.0416887
-0.0416887
0.0183614
0.0183614
0.0719846
0.0719846
-0.0272991
-0.0272991
-0.00930346
-0.00930346
0.0023751
0.0023751
0.0142238
0.0142238
-8.69315e-05
-8.69315e-05
-0.00766041
-0.00766041
-0.000936963
-0.000936963
0.0455466
0.0455466
0.0372297
0.0372297
-0.146192
-0.146192
0.00890342
0.00890342
0.000828452
0.000828452
-0.00799647
-0.00799647
0.00557738
0.00557738
0.0789175
0.0789175
0.00131231
0.00131231
-0.00279934
-0.00279934
-0.0129055
-0.0129055
-0.0177436
-0.0177436
0.00899316
0.00899316
-0.00576348
-0.00576348
0.0571343
0.0571343
0.00366138
0.00366138
-0.0299786
-0.0299786
-0.0042748
-0.0042748
0.0189404
0.0189404
-0.00213775
-0.00213775
-0.0272803
-0.0272803
-0.0253224
-0.0253224
-0.0118436
-0.0118436
-0.012624
-0.012624
-0.030313
-0.030313
0.0479351
0.0479351
0.0149081
0.0149081
-0.0371993
-0.0371993
-0.0123326
-0.0123326
-0.181658
-0.181658
0.0131219
0.0131219
-0.0343617
-0.0343617
-0.00290367
-0.00290367
0.0173714
0.0173714
0.0012386
0.0012386
-0.000456743
-0.000456743
0.00849461
0.00849461
-0.0247982
-0.0247982
0.142423
0.142423
-0.0242084
-0.0242084
0.00786518
0.00786518
0.0257611
0.0257611
-0.0265365
-0.0265365
-0.00913799
-0.00913799
-0.032441
-0.032441
-0.0323259
-0.0323259
-0.0164129
-0.0164129
-0.00825708
-0.00825708
0.00390745
0.00390745
-0.0137331
-0.0137331
-0.0172894
-0.0172894
0.000479492
0.000479492
-0.0179557
-0.0179557
0.00763793
0.00763793
-0.107976
-0.107976
0.00657543
0.00657543
-0.0326294
-0.0326294
-0.00178725
-0.00178725
-0.0266685
-0.0266685
0.0257591
0.0257591
-0.00566169
-0.00566169
-3.47734e-05
-3.47734e-05
-0.0124048
-0.0124048
-0.0130681
-0.0130681
-0.0202874
-0.0202874
0.0343067
0.0343067
0.00801468
0.00801468
0.00511502
0.00511502
0.0229956
0.0229956
-0.0143318
-0.0143318
-0.0408282
-0.0408282
0.00492577
0.00492577
-0.0299966
-0.0299966
-0.00951793
-0.00951793
0.0221129
0.0221129
-0.0133339
-0.0133339
0.0267011
0.0267011
-0.00267929
-0.00267929
0.00558766
0.00558766
0.000936494
0.000936494
-0.0146813
-0.0146813
-0.00444838
-0.00444838
-0.00426842
-0.00426842
-0.00434035
-0.00434035
-0.00278946
-0.00278946
-0.00532759
-0.00532759
-0.0636026
-0.0636026
-0.0117839
-0.0117839
-0.000231771
-0.000231771
-0.0112098
-0.0112098
-0.00864713
-0.00864713
-0.0101157
-0.0101157
0.00685371
0.00685371
0.0174363
0.0174363
-0.0156094
-0.0156094
0.00250174
0.00250174
-0.0129441
-0.0129441
-0.0798837
-0.0798837
-0.0135267
-0.0135267
-0.0271479
-0.0271479
-0.0132347
-0.0132347
-0.0232591
-0.0232591
-0.0247046
-0.0247046
-0.0847682
-0.0847682
0.00569635
0.00569635
-0.00677084
-0.00677084
-0.0308
-0.0308
9.03263e-05
9.03263e-05
-0.0175624
-0.0175624
-0.012571
-0.012571
-0.000657743
-0.000657743
-0.0438817
-0.0438817
-0.00784341
-0.00784341
0.015684
0.015684
-0.00610443
-0.00610443
0.0012729
0.0012729
-0.00192435
-0.00192435
-0.0358162
-0.0358162
0.111339
0.111339
0.0104968
0.0104968
0.00480403
0.00480403
0.00936086
0.00936086
0.091474
0.091474
0.00315678
0.00315678
-0.021657
-0.021657
0.0208364
0.0208364
0.00808785
0.00808785
-0.134098
-0.134098
-0.021853
-0.021853
-0.0050806
-0.0050806
0.00281684
0.00281684
-0.0162456
-0.0162456
0.0172094
0.0172094
0.0362337
0.0362337
-0.0229939
-0.0229939
0.0520743
0.0520743
-0.0353408
-0.0353408
0.00830978
0.00830978
0.00638868
0.00638868
0.00895538
0.00895538
-0.0317814
-0.0317814
-0.00772941
-0.00772941
-0.0354925
-0.0354925
-0.00779688
-0.00779688
-0.00269591
-0.00269591
0.184331
0.184331
0.00693907
0.00693907
0.0228233
0.0228233
0.00909199
0.00909199
0.0573931
0.0573931
-0.152207
-0.152207
-0.00658533
-0.00658533
0.0663892
0.0663892
-0.00890302
-0.00890302
0.00872138
0.00872138
-0.0380894
-0.0380894
0.00260861
0.00260861
-0.0131942
-0.0131942
0.0682457
0.0682457
-0.0325329
-0.0325329
0.00080291
0.00080291
-0.0151676
-0.0151676
-0.0246756
-0.0246756
-0.00481926
-0.00481926
-0.0338578
-0.0338578
-0.0966513
-0.0966513
-0.0367255
-0.0367255
0.0055356
0.0055356
0.00386079
0.00386079
-0.0344778
-0.0344778
0.00870035
0.00870035
-0.0824815
-0.0824815
-0.00698008
-0.00698008
-0.101144
-0.101144
-0.063213
-0.063213
0.00548751
0.00548751
-0.00557809
-0.00557809
0.0205788
0.0205788
0.00906956
0.00906956
0.0312387
0.0312387
-0.0381553
-0.0381553
0.0214713
0.0214713
-0.00871113
-0.00871113
0.00586961
0.00586961
0.190207
0.190207
-0.0189591
-0.0189591
-0.0106568
-0.0106568
0.0864392
0.0864392
-0.0239893
-0.0239893
0.00829004
0.00829004
0.00820814
0.00820814
0.00621452
0.00621452
-0.164667
-0.164667
0.0536968
0.0536968
-0.00839839
-0.00839839
-0.00343236
-0.00343236
0.0911958
0.0911958
0.014927
0.014927
-0.0592688
-0.0592688
0.0395885
0.0395885
-0.0489092
-0.0489092
-0.00022353
-0.00022353
0.0469454
0.0469454
0.00779852
0.00779852
-0.0150182
-0.0150182
-0.0151577
-0.0151577
-0.00704708
-0.00704708
-0.00796
-0.00796
-0.0103693
-0.0103693
-0.110807
-0.110807
-0.0109618
-0.0109618
0.0719362
0.0719362
-0.0310726
-0.0310726
0.119477
0.119477
0.00108678
0.00108678
-0.00907255
-0.00907255
-0.0807583
-0.0807583
0.145083
0.145083
0.0292451
0.0292451
-0.101484
-0.101484
0.0865064
0.0865064
0.00805268
0.00805268
0.00424577
0.00424577
0.0311154
0.0311154
0.0156134
0.0156134
-0.016346
-0.016346
0.0102564
0.0102564
-0.0461346
-0.0461346
0.0741806
0.0741806
0.0816086
0.0816086
0.0196458
0.0196458
-0.00579263
-0.00579263
0.124568
0.124568
-0.186125
-0.186125
0.0048672
0.0048672
0.0138093
0.0138093
-0.0364044
-0.0364044
-0.00523957
-0.00523957
0.00399115
0.00399115
-0.0080534
-0.0080534
0.00820822
0.00820822
0.0165616
0.0165616
-0.0056802
-0.0056802
0.0408148
0.0408148
-0.0203937
-0.0203937
-0.0166683
-0.0166683
0.0146731
0.0146731
-0.0169692
-0.0169692
-0.0311048
-0.0311048
-0.093073
-0.093073
-0.00747208
-0.00747208
-0.052102
-0.052102
0.0461631
0.0461631
-0.0212285
-0.0212285
-0.00104802
-0.00104802
-0.0172989
-0.0172989
-0.0252173
-0.0252173
-0.0193268
-0.0193268
0.00206396
0.00206396
0.0198896
0.0198896
0.0609293
0.0609293
0.00415174
0.00415174
-0.0883072
-0.0883072
-0.0167061
-0.0167061
0.000743811
0.000743811
0.00632289
0.00632289
-0.00844565
-0.00844565
0.00373333
0.00373333
0.00484733
0.00484733
0.00371044
0.00371044
0.00436645
0.00436645
0.00531457
0.00531457
0.00716652
0.00716652
-0.0197107
-0.0197107
0.011566
0.011566
0.0111781
0.0111781
-0.028762
-0.028762
0.00918777
0.00918777
0.0116379
0.0116379
-0.0384251
-0.0384251
-0.0425372
-0.0425372
0.00379822
0.00379822
0.00134879
0.00134879
0.00359309
0.00359309
-0.0306496
-0.0306496
-0.0260968
-0.0260968
0.135773
0.135773
-0.050941
-0.050941
-0.0212041
-0.0212041
0.0162763
0.0162763
-0.108267
-0.108267
-0.164041
-0.164041
0.0721852
0.0721852
-0.10998
-0.10998
-0.0968235
-0.0968235
0.00833363
0.00833363
0.00637562
0.00637562
-0.00228038
-0.00228038
0.0569536
0.0569536
-0.00631913
-0.00631913
0.00778675
0.00778675
-0.00204928
-0.00204928
0.00672469
0.00672469
-0.0640018
-0.0640018
-0.0370411
-0.0370411
0.00903005
0.00903005
-0.0101751
-0.0101751
0.0157456
0.0157456
-0.011035
-0.011035
-0.0127782
-0.0127782
-0.0571819
-0.0571819
0.0547327
0.0547327
0.0138689
0.0138689
-0.0100437
-0.0100437
0.0343687
0.0343687
-0.0313885
-0.0313885
0.0318687
0.0318687
-0.0757842
-0.0757842
0.0535978
0.0535978
-0.0109327
-0.0109327
0.000670412
0.000670412
0.0293996
0.0293996
-0.1023
-0.1023
-0.00656499
-0.00656499
-0.033278
-0.033278
0.0162795
0.0162795
-0.0342157
-0.0342157
-0.0755677
-0.0755677
-0.0137569
-0.0137569
-0.0179641
-0.0179641
-0.0171175
-0.0171175
0.00486676
0.00486676
-0.162411
-0.162411
-0.183375
-0.183375
0.0940938
0.0940938
0.02143
0.02143
0.0242507
0.0242507
-0.0136006
-0.0136006
-0.0100116
-0.0100116
0.0269673
0.0269673
0.007267
0.007267
-0.020719
-0.020719
-0.0485339
-0.0485339
-0.000444855
-0.000444855
0.0533904
0.0533904
-0.010772
-0.010772
-0.0183568
-0.0183568
0.0158983
0.0158983
0.00954105
0.00954105
-0.0258015
-0.0258015
0.000141023
0.000141023
-0.0387263
-0.0387263
-0.0208096
-0.0208096
0.00631118
0.00631118
-0.00681356
-0.00681356
-0.00962493
-0.00962493
0.00120347
0.00120347
-0.00751253
-0.00751253
-0.00888315
-0.00888315
0.00322799
0.00322799
0.0204739
0.0204739
-0.0186201
-0.0186201
-0.00283216
-0.00283216
0.0150658
0.0150658
-0.0061085
-0.0061085
-0.0326028
-0.0326028
-0.0623557
-0.0623557
0.146571
0.146571
0.0119725
0.0119725
0.0128599
0.0128599
-0.00365514
-0.00365514
0.0285176
0.0285176
-0.00324489
-0.00324489
-0.0157044
-0.0157044
-0.00895674
-0.00895674
0.0087821
0.0087821
0.0550783
0.0550783
-0.00176528
-0.00176528
-0.0186833
-0.0186833
0.122785
0.122785
0.00672222
0.00672222
-0.0437536
-0.0437536
0.0235648
0.0235648
-0.00181937
-0.00181937
0.148195
0.148195
0.0188273
0.0188273
-0.0323945
-0.0323945
0.0833927
0.0833927
0.00541933
0.00541933
0.0180329
0.0180329
-0.000469152
-0.000469152
-0.0466825
-0.0466825
0.0533632
0.0533632
-0.0594304
-0.0594304
-0.00656804
-0.00656804
-0.00471712
-0.00471712
0.0059311
0.0059311
0.00479339
0.00479339
0.109776
0.109776
0.00605175
0.00605175
0.0721981
0.0721981
0.0241831
0.0241831
0.0365585
0.0365585
0.071964
0.071964
0.0033736
0.0033736
0.00643251
0.00643251
-0.024672
-0.024672
0.146677
0.146677
-0.00488631
-0.00488631
0.00701081
0.00701081
-0.126542
-0.126542
0.0112744
0.0112744
0.0785622
0.0785622
0.0188105
0.0188105
-0.00202748
-0.00202748
0.0243064
0.0243064
0.000684079
0.000684079
-0.0102009
-0.0102009
-0.00153125
-0.00153125
-0.0270597
-0.0270597
0.00918368
0.00918368
0.00684279
0.00684279
-0.106913
-0.106913
-0.0801448
-0.0801448
-0.00066888
-0.00066888
-0.0132347
-0.0132347
0.0296507
0.0296507
-0.0146148
-0.0146148
0.00121402
0.00121402
0.0314795
0.0314795
-0.0365892
-0.0365892
0.0398927
0.0398927
0.00825686
0.00825686
-0.00450867
-0.00450867
0.00511972
0.00511972
0.0846346
0.0846346
-0.0287896
-0.0287896
-0.0159675
-0.0159675
-0.00648944
-0.00648944
-0.000274109
-0.000274109
-0.00466193
-0.00466193
0.0820186
0.0820186
0.00713305
0.00713305
0.00158092
0.00158092
0.0170312
0.0170312
-0.00112399
-0.00112399
-0.007148
-0.007148
-0.156404
-0.156404
0.00438832
0.00438832
-0.0266786
-0.0266786
0.00464279
0.00464279
-0.0726516
-0.0726516
-0.0245658
-0.0245658
0.00999119
0.00999119
-0.00614939
-0.00614939
0.0318916
0.0318916
-0.0134729
-0.0134729
0.0131974
0.0131974
0.0745433
0.0745433
0.0588101
0.0588101
-0.00100534
-0.00100534
0.0261612
0.0261612
0.0198125
0.0198125
-0.000897341
-0.000897341
-0.00961009
-0.00961009
0.0352914
0.0352914
0.00161504
0.00161504
0.0113717
0.0113717
-0.00714658
-0.00714658
0.0113319
0.0113319
0.019443
0.019443
-0.00419923
-0.00419923
0.0387629
0.0387629
-0.0102771
-0.0102771
-0.00965408
-0.00965408
-0.132327
-0.132327
0.00643435
0.00643435
0.00451781
0.00451781
0.021272
0.021272
0.0140473
0.0140473
-0.0131878
-0.0131878
-0.0140209
-0.0140209
-0.00868265
-0.00868265
0.0198403
0.0198403
-0.0539509
-0.0539509
-0.05227
-0.05227
0.00716809
0.00716809
-0.0575797
-0.0575797
-0.0243391
-0.0243391
-0.012366
-0.012366
-0.0300873
-0.0300873
0.00842732
0.00842732
-0.0103074
-0.0103074
-0.00491182
-0.00491182
0.014314
0.014314
-0.0267405
-0.0267405
-0.00873652
-0.00873652
-0.0596514
-0.0596514
0.044803
0.044803
0.0228893
0.0228893
0.00717676
0.00717676
-0.0123508
-0.0123508
0.0407545
0.0407545
0.00936195
0.00936195
0.011651
0.011651
-0.00891805
-0.00891805
-0.00522829
-0.00522829
0.00255223
0.00255223
-0.084409
-0.084409
0.133257
0.133257
-0.0300849
-0.0300849
-0.0166402
-0.0166402
-0.0170452
-0.0170452
-0.00255136
-0.00255136
0.035913
0.035913
0.00427128
0.00427128
0.0284603
0.0284603
0.0438392
0.0438392
-0.0195113
-0.0195113
0.00692286
0.00692286
0.0102906
0.0102906
-0.00186888
-0.00186888
0.00357479
0.00357479
-0.00787774
-0.00787774
-0.00606612
-0.00606612
0.0046411
0.0046411
-0.091306
-0.091306
0.00108041
0.00108041
-0.0947937
-0.0947937
-0.0188042
-0.0188042
0.00705029
0.00705029
0.0100457
0.0100457
0.0177329
0.0177329
0.0194596
0.0194596
0.00525249
0.00525249
0.00346633
0.00346633
0.132425
0.132425
-0.0219355
-0.0219355
0.00420962
0.00420962
-0.00089479
-0.00089479
0.0980544
0.0980544
0.0194113
0.0194113
-0.012164
-0.012164
0.017152
0.017152
0.0897192
0.0897192
-0.000860609
-0.000860609
0.165797
0.165797
-0.00931646
-0.00931646
0.0667908
0.0667908
-0.0136297
-0.0136297
-0.0578894
-0.0578894
-0.00997019
-0.00997019
-0.00795652
-0.00795652
-0.043205
-0.043205
0.0161698
0.0161698
0.00938847
0.00938847
0.00793067
0.00793067
-0.00799553
-0.00799553
-0.0768941
-0.0768941
0.0876974
0.0876974
-0.0937241
-0.0937241
0.00221224
0.00221224
-0.00302508
-0.00302508
-0.015653
-0.015653
0.075376
0.075376
-0.0328207
-0.0328207
-0.0122933
-0.0122933
0.0578871
0.0578871
0.0150515
0.0150515
-0.0803558
-0.0803558
0.00265349
0.00265349
0.00118703
0.00118703
0.00756252
0.00756252
0.0476484
0.0476484
0.0105085
0.0105085
-0.00516672
-0.00516672
-0.00603752
-0.00603752
-0.00492109
-0.00492109
-0.0054584
-0.0054584
0.065249
0.065249
0.0080399
0.0080399
0.0496071
0.0496071
0.0426719
0.0426719
0.00963908
0.00963908
-0.0288736
-0.0288736
0.022507
0.022507
0.00444158
0.00444158
0.0347489
0.0347489
0.00485271
0.00485271
-0.0120149
-0.0120149
0.0229844
0.0229844
-0.00598434
-0.00598434
-0.0315969
-0.0315969
0.00489868
0.00489868
0.00325107
0.00325107
0.0322456
0.0322456
-0.121527
-0.121527
-0.0618534
-0.0618534
0.00883586
0.00883586
0.140153
0.140153
-0.0944297
-0.0944297
0.0417143
0.0417143
0.0124677
0.0124677
-0.0187511
-0.0187511
-0.0161384
-0.0161384
0.00583419
0.00583419
0.05578
0.05578
-0.0675369
-0.0675369
-0.123324
-0.123324
0.00356627
0.00356627
-0.00271736
-0.00271736
-0.00620662
-0.00620662
-0.00149193
-0.00149193
0.00671483
0.00671483
0.0226084
0.0226084
-0.000463295
-0.000463295
0.00759455
0.00759455
0.022104
0.022104
0.0121231
0.0121231
-0.00624447
-0.00624447
-0.0346758
-0.0346758
-0.0410064
-0.0410064
-0.00717751
-0.00717751
-0.0104432
-0.0104432
0.0141521
0.0141521
0.053018
0.053018
0.0470927
0.0470927
0.034927
0.034927
0.0104538
0.0104538
-0.000896634
-0.000896634
-0.0342895
-0.0342895
0.109544
0.109544
0.0171222
0.0171222
0.0024087
0.0024087
-0.0204343
-0.0204343
0.0268846
0.0268846
-0.01456
-0.01456
-0.00117941
-0.00117941
-0.0103827
-0.0103827
-0.00948569
-0.00948569
-0.0146264
-0.0146264
0.0046448
0.0046448
-0.0015892
-0.0015892
0.0539616
0.0539616
0.0050526
0.0050526
-0.00947087
-0.00947087
0.000447559
0.000447559
0.00420149
0.00420149
0.0220632
0.0220632
0.00262062
0.00262062
0.0376474
0.0376474
-0.00804133
-0.00804133
0.00851902
0.00851902
0.0143544
0.0143544
-0.00419096
-0.00419096
0.0352631
0.0352631
0.00258816
0.00258816
0.00858916
0.00858916
-0.0161284
-0.0161284
-0.0158766
-0.0158766
0.0110026
0.0110026
-0.0287428
-0.0287428
-0.00774167
-0.00774167
0.0481967
0.0481967
-0.000218955
-0.000218955
-0.0394094
-0.0394094
0.00733159
0.00733159
-0.00265724
-0.00265724
0.0470825
0.0470825
0.00675961
0.00675961
-0.00890433
-0.00890433
0.0128738
0.0128738
0.00617923
0.00617923
-0.00906628
-0.00906628
0.00714162
0.00714162
-0.0158033
-0.0158033
0.051533
0.051533
0.00225318
0.00225318
-0.0129844
-0.0129844
-0.0559925
-0.0559925
0.0148603
0.0148603
0.0329936
0.0329936
-0.00307422
-0.00307422
0.0385632
0.0385632
-0.118888
-0.118888
0.0253647
0.0253647
0.00774623
0.00774623
-0.0157858
-0.0157858
-0.0529807
-0.0529807
0.0169253
0.0169253
-0.0036521
-0.0036521
0.014609
0.014609
-0.0240912
-0.0240912
-0.0245261
-0.0245261
-0.0468345
-0.0468345
0.0369296
0.0369296
0.0302297
0.0302297
0.0890796
0.0890796
-0.0117172
-0.0117172
-0.00228908
-0.00228908
0.000120836
0.000120836
-0.00780772
-0.00780772
-0.00227124
-0.00227124
-0.0307277
-0.0307277
0.0298843
0.0298843
-0.00696548
-0.00696548
0.167381
0.167381
0.00509141
0.00509141
-0.000412254
-0.000412254
-0.038687
-0.038687
0.00270199
0.00270199
-0.0222408
-0.0222408
0.000796583
0.000796583
0.0188475
0.0188475
0.0624826
0.0624826
-0.00643378
-0.00643378
0.000548332
0.000548332
-0.0031488
-0.0031488
-0.004777
-0.004777
0.0866006
0.0866006
-0.0804752
-0.0804752
-0.00648636
-0.00648636
0.000406384
0.000406384
-0.182369
-0.182369
-0.0109103
-0.0109103
0.00695884
0.00695884
-0.0062644
-0.0062644
-0.0139831
-0.0139831
-0.0274671
-0.0274671
0.00348682
0.00348682
-0.00640479
-0.00640479
0.0663271
0.0663271
-0.051503
-0.051503
0.105614
0.105614
-0.00501677
-0.00501677
-0.00676748
-0.00676748
-0.0431671
-0.0431671
-0.00485678
-0.00485678
-0.0562186
-0.0562186
-0.0214134
-0.0214134
0.00539336
0.00539336
-0.00743773
-0.00743773
0.123072
0.123072
-0.0153083
-0.0153083
-0.0498077
-0.0498077
0.0240639
0.0240639
0.00259334
0.00259334
-0.00667464
-0.00667464
0.00922951
0.00922951
-0.0148329
-0.0148329
-0.00689586
-0.00689586
-0.014967
-0.014967
0.0526723
0.0526723
-0.00560877
-0.00560877
-0.062513
-0.062513
-0.00464089
-0.00464089
0.00548005
0.00548005
0.000812427
0.000812427
-0.000426429
-0.000426429
-0.0770191
-0.0770191
0.0188366
0.0188366
2.28484e-05
2.28484e-05
-0.00467478
-0.00467478
-0.0132465
-0.0132465
-0.00444483
-0.00444483
-0.0021481
-0.0021481
0.046075
0.046075
-0.0201149
-0.0201149
0.0070154
0.0070154
-0.0146334
-0.0146334
0.0600509
0.0600509
-0.0100904
-0.0100904
0.00186566
0.00186566
-0.00181666
-0.00181666
0.00300104
0.00300104
0.0152898
0.0152898
-0.00393695
-0.00393695
0.032594
0.032594
0.0121558
0.0121558
0.0116425
0.0116425
0.00251143
0.00251143
0.0241927
0.0241927
-0.00665489
-0.00665489
0.0584189
0.0584189
-0.00804941
-0.00804941
0.0175694
0.0175694
0.00576248
0.00576248
-0.0174051
-0.0174051
0.0245832
0.0245832
0.0126495
0.0126495
-0.0164682
-0.0164682
0.00143356
0.00143356
0.00188093
0.00188093
-0.0999384
-0.0999384
-0.0625761
-0.0625761
-0.00881164
-0.00881164
0.0279118
0.0279118
0.00714529
0.00714529
0.00450262
0.00450262
0.00631221
0.00631221
-0.00895726
-0.00895726
-0.0549118
-0.0549118
-0.0115503
-0.0115503
-0.00644351
-0.00644351
0.0628029
0.0628029
0.0156232
0.0156232
-0.0772429
-0.0772429
0.00423663
0.00423663
-0.0116354
-0.0116354
0.0262298
0.0262298
0.000408688
0.000408688
-0.0260453
-0.0260453
-0.0455234
-0.0455234
-0.0184847
-0.0184847
0.0387825
0.0387825
-0.1488
-0.1488
0.0804227
0.0804227
0.00098287
0.00098287
0.0123299
0.0123299
0.00353072
0.00353072
-0.0415746
-0.0415746
-0.060096
-0.060096
0.00759913
0.00759913
-0.00216156
-0.00216156
0.00539093
0.00539093
-0.0439675
-0.0439675
-0.0522083
-0.0522083
0.0259039
0.0259039
-0.0241769
-0.0241769
0.00833597
0.00833597
-0.0351979
-0.0351979
0.0015386
0.0015386
0.000509851
0.000509851
0.00021863
0.00021863
-0.0267291
-0.0267291
-0.00335518
-0.00335518
-0.0146622
-0.0146622
-0.00165621
-0.00165621
0.0081882
0.0081882
0.011226
0.011226
-0.00731815
-0.00731815
-0.000562435
-0.000562435
0.0408456
0.0408456
-0.064943
-0.064943
0.138685
0.138685
-0.0515926
-0.0515926
-0.00476304
-0.00476304
-0.00285683
-0.00285683
-0.0185817
-0.0185817
-0.140575
-0.140575
-0.0138784
-0.0138784
-0.0203121
-0.0203121
-0.0106663
-0.0106663
-0.00495618
-0.00495618
-0.00301782
-0.00301782
-0.0345659
-0.0345659
-0.000736103
-0.000736103
0.0264409
0.0264409
-0.00351279
-0.00351279
-0.00264801
-0.00264801
0.03112
0.03112
0.0739394
0.0739394
0.00447469
0.00447469
-0.0939616
-0.0939616
0.00445806
0.00445806
-0.123441
-0.123441
0.0267066
0.0267066
0.0307072
0.0307072
-0.0348217
-0.0348217
0.00185584
0.00185584
0.00865772
0.00865772
0.0753568
0.0753568
-0.0171629
-0.0171629
-7.42398e-05
-7.42398e-05
-0.0143607
-0.0143607
0.0118191
0.0118191
-0.00799874
-0.00799874
0.012631
0.012631
-0.0237694
-0.0237694
0.00650495
0.00650495
0.033822
0.033822
0.0183745
0.0183745
0.0801469
0.0801469
-0.00588745
-0.00588745
-0.0455236
-0.0455236
0.0102372
0.0102372
-0.0516844
-0.0516844
0.00827924
0.00827924
0.00173585
0.00173585
0.0251061
0.0251061
0.022482
0.022482
0.0643931
0.0643931
0.0104247
0.0104247
0.0115439
0.0115439
-0.0802219
-0.0802219
0.0158607
0.0158607
0.0744725
0.0744725
-0.00399056
-0.00399056
-0.0439445
-0.0439445
0.00925369
0.00925369
-0.0450522
-0.0450522
0.00835229
0.00835229
-0.0351374
-0.0351374
0.0149258
0.0149258
0.0296638
0.0296638
0.0265142
0.0265142
0.0740564
0.0740564
0.124492
0.124492
0.00914243
0.00914243
0.0159897
0.0159897
-0.000723172
-0.000723172
0.00199954
0.00199954
-0.00210377
-0.00210377
-0.00704622
-0.00704622
0.0195326
0.0195326
0.000417238
0.000417238
0.019457
0.019457
0.00524727
0.00524727
-0.00824324
-0.00824324
0.0103693
0.0103693
0.00156251
0.00156251
-0.00776137
-0.00776137
-0.0380146
-0.0380146
-0.00295696
-0.00295696
-0.0756768
-0.0756768
0.0288183
0.0288183
0.0112046
0.0112046
0.00729167
0.00729167
0.0233828
0.0233828
-0.00598269
-0.00598269
0.0455267
0.0455267
-0.040975
-0.040975
-0.00628282
-0.00628282
-0.0556886
-0.0556886
0.0116429
0.0116429
-0.00365735
-0.00365735
0.0125398
0.0125398
0.0156045
0.0156045
-0.00953377
-0.00953377
-0.0373143
-0.0373143
0.00343569
0.00343569
-0.00847704
-0.00847704
-0.0166734
-0.0166734
-0.00370631
-0.00370631
-0.0533491
-0.0533491
0.00671073
0.00671073
0.0173271
0.0173271
-0.0536544
-0.0536544
-0.00335086
-0.00335086
-0.0096534
-0.0096534
0.0411752
0.0411752
-0.0273805
-0.0273805
-0.0528676
-0.0528676
-0.00336192
-0.00336192
0.00291815
0.00291815
0.00492444
0.00492444
-0.00949371
-0.00949371
0.00140175
0.00140175
0.00999962
0.00999962
0.0737591
0.0737591
-0.027722
-0.027722
0.00429474
0.00429474
0.0705641
0.0705641
0.0406784
0.0406784
-0.0107276
-0.0107276
0.000664648
0.000664648
0.0126501
0.0126501
0.0037906
0.0037906
0.00278334
0.00278334
0.029818
0.029818
0.0032342
0.0032342
0.00146867
0.00146867
-0.0104578
-0.0104578
-0.0240829
-0.0240829
0.00644653
0.00644653
-0.017412
-0.017412
0.0345699
0.0345699
0.00041119
0.00041119
-0.0242757
-0.0242757
-0.0536339
-0.0536339
-0.000740739
-0.000740739
-0.0085991
-0.0085991
0.00865645
0.00865645
-0.00110785
-0.00110785
-0.0028584
-0.0028584
-0.000454521
-0.000454521
-0.0193556
-0.0193556
-0.00458341
-0.00458341
-0.00491355
-0.00491355
-0.011867
-0.011867
-0.0140428
-0.0140428
0.0991045
0.0991045
0.00847032
0.00847032
0.00527229
0.00527229
0.000387432
0.000387432
-0.0436538
-0.0436538
-0.00835052
-0.00835052
-0.0191871
-0.0191871
0.0164429
0.0164429
0.00570213
0.00570213
0.025182
0.025182
0.0727836
0.0727836
-0.0177311
-0.0177311
0.139996
0.139996
-0.0259826
-0.0259826
0.00791879
0.00791879
0.00770027
0.00770027
-0.00814829
-0.00814829
-0.121081
-0.121081
0.017092
0.017092
-0.0390561
-0.0390561
0.000565853
0.000565853
-0.0022446
-0.0022446
0.0120755
0.0120755
-0.030455
-0.030455
0.00576209
0.00576209
0.0202059
0.0202059
0.0121361
0.0121361
0.00115487
0.00115487
0.0035825
0.0035825
0.0143726
0.0143726
0.0748603
0.0748603
0.00639519
0.00639519
-0.0223288
-0.0223288
-0.00246236
-0.00246236
-0.00169031
-0.00169031
-0.0196646
-0.0196646
-0.00964737
-0.00964737
0.00384735
0.00384735
-0.0430344
-0.0430344
0.0108422
0.0108422
-0.0163538
-0.0163538
0.0514781
0.0514781
0.0875312
0.0875312
-0.00796555
-0.00796555
0.00638241
0.00638241
0.00902183
0.00902183
0.00383055
0.00383055
-0.0115791
-0.0115791
-0.00409878
-0.00409878
0.0200735
0.0200735
0.0129984
0.0129984
-0.0953918
-0.0953918
-0.019017
-0.019017
0.00165659
0.00165659
0.0386803
0.0386803
-0.00153513
-0.00153513
-0.00404968
-0.00404968
-0.00417319
-0.00417319
-0.0281634
-0.0281634
-0.0531157
-0.0531157
-0.0159671
-0.0159671
0.00918963
0.00918963
-0.0120103
-0.0120103
0.014676
0.014676
0.016826
0.016826
-0.00884782
-0.00884782
-0.0003579
-0.0003579
0.0793418
0.0793418
0.00704002
0.00704002
0.0156207
0.0156207
-0.00274745
-0.00274745
-0.0142239
-0.0142239
-0.020985
-0.020985
0.0091875
0.0091875
0.0240882
0.0240882
-0.00723085
-0.00723085
-0.0161509
-0.0161509
0.10359
0.10359
0.0161537
0.0161537
-0.0687064
-0.0687064
0.029528
0.029528
0.127098
0.127098
0.0142438
0.0142438
-0.00955053
-0.00955053
0.00650553
0.00650553
-0.00268469
-0.00268469
-0.00654689
-0.00654689
-0.0550009
-0.0550009
-0.0125145
-0.0125145
-0.00390259
-0.00390259
0.0755446
0.0755446
0.00536025
0.00536025
-0.0220485
-0.0220485
-0.0079228
-0.0079228
0.0374589
0.0374589
-0.00315026
-0.00315026
0.00371368
0.00371368
-0.00372502
-0.00372502
0.0193052
0.0193052
-0.000196985
-0.000196985
0.00935439
0.00935439
-0.00510857
-0.00510857
0.0855607
0.0855607
-0.036944
-0.036944
-0.00312981
-0.00312981
0.0130453
0.0130453
0.00558325
0.00558325
-0.0998627
-0.0998627
0.00507588
0.00507588
0.0276034
0.0276034
0.00583932
0.00583932
-0.00906342
-0.00906342
-0.0116499
-0.0116499
-0.0206962
-0.0206962
0.00670084
0.00670084
-0.0293808
-0.0293808
0.0054431
0.0054431
0.0370458
0.0370458
0.0096786
0.0096786
0.00285149
0.00285149
0.0244717
0.0244717
0.168929
0.168929
0.000492057
0.000492057
-0.0279358
-0.0279358
0.00532545
0.00532545
-0.0237597
-0.0237597
-0.00917622
-0.00917622
-0.0172228
-0.0172228
-0.0616934
-0.0616934
-0.0278967
-0.0278967
-0.0314804
-0.0314804
-0.00614945
-0.00614945
0.0137774
0.0137774
0.00438176
0.00438176
-0.0116116
-0.0116116
-0.00610733
-0.00610733
0.0756556
0.0756556
-0.00772544
-0.00772544
-0.0907346
-0.0907346
-0.000271199
-0.000271199
-0.0119503
-0.0119503
-0.0409012
-0.0409012
-0.0145098
-0.0145098
-0.0505316
-0.0505316
0.0767659
0.0767659
0.00558005
0.00558005
0.0383057
0.0383057
-0.13529
-0.13529
-0.0145345
-0.0145345
-0.00662937
-0.00662937
-0.0910248
-0.0910248
-0.121458
-0.121458
0.00783222
0.00783222
-0.0100882
-0.0100882
-0.125763
-0.125763
0.00362761
0.00362761
0.0299565
0.0299565
0.00546351
0.00546351
0.0207479
0.0207479
0.000408632
0.000408632
-0.0452456
-0.0452456
0.00226207
0.00226207
-0.00285184
-0.00285184
0.0213556
0.0213556
-0.0079098
-0.0079098
0.000298367
0.000298367
0.000115364
0.000115364
0.0151229
0.0151229
-0.0226815
-0.0226815
-0.00833259
-0.00833259
-0.068044
-0.068044
-0.0239945
-0.0239945
0.000672164
0.000672164
0.0103976
0.0103976
0.0061399
0.0061399
0.0275578
0.0275578
0.0111029
0.0111029
0.00145421
0.00145421
-0.0702638
-0.0702638
0.0585287
0.0585287
0.00301095
0.00301095
-0.001771
-0.001771
-0.0158049
-0.0158049
0.00428944
0.00428944
-0.00715537
-0.00715537
0.0156177
0.0156177
0.000659689
0.000659689
-0.0365301
-0.0365301
-0.0351505
-0.0351505
0.0412058
0.0412058
0.0134818
0.0134818
0.0174696
0.0174696
0.0351298
0.0351298
0.0228896
0.0228896
-0.0583494
-0.0583494
0.0148195
0.0148195
-0.0027718
-0.0027718
-0.0043735
-0.0043735
-0.00486551
-0.00486551
0.00867374
0.00867374
0.0371138
0.0371138
-0.00381355
-0.00381355
0.00280412
0.00280412
-0.0010471
-0.0010471
0.0518369
0.0518369
-0.0186366
-0.0186366
-0.00685782
-0.00685782
-0.0211917
-0.0211917
-0.012337
-0.012337
0.0882488
0.0882488
-0.0051607
-0.0051607
-0.00477173
-0.00477173
-0.0964453
-0.0964453
0.0418106
0.0418106
-0.0166066
-0.0166066
-0.0540662
-0.0540662
-0.0111649
-0.0111649
-0.00761631
-0.00761631
-0.158295
-0.158295
-0.0313837
-0.0313837
0.110618
0.110618
-0.007784
-0.007784
-0.0525949
-0.0525949
-0.0350983
-0.0350983
-0.0129815
-0.0129815
0.0047427
0.0047427
-0.0371608
-0.0371608
-0.00892901
-0.00892901
-0.0233533
-0.0233533
-0.102286
-0.102286
-0.00698444
-0.00698444
0.0875432
0.0875432
0.0148915
0.0148915
0.0175109
0.0175109
0.0190858
0.0190858
0.153716
0.153716
-0.0113897
-0.0113897
-0.016328
-0.016328
0.0287789
0.0287789
-0.00200974
-0.00200974
0.0876103
0.0876103
0.00290333
0.00290333
0.0626045
0.0626045
0.0184236
0.0184236
0.0203463
0.0203463
-0.00465298
-0.00465298
-0.0333238
-0.0333238
-0.0208399
-0.0208399
0.0630397
0.0630397
0.000302923
0.000302923
-0.00259348
-0.00259348
0.0186657
0.0186657
-0.0216474
-0.0216474
0.0536199
0.0536199
0.00802365
0.00802365
0.00449289
0.00449289
-0.0192267
-0.0192267
-0.0182981
-0.0182981
-0.0366812
-0.0366812
-0.0607332
-0.0607332
0.0727667
0.0727667
0.0643426
0.0643426
0.00609335
0.00609335
0.167268
0.167268
0.0262918
0.0262918
0.0650966
0.0650966
0.0038588
0.0038588
-0.00670475
-0.00670475
-0.00680853
-0.00680853
-0.00172824
-0.00172824
-0.012723
-0.012723
-0.0102887
-0.0102887
-0.0202664
-0.0202664
-0.00973435
-0.00973435
0.0223783
0.0223783
-0.132379
-0.132379
0.0331066
0.0331066
-0.0134374
-0.0134374
-0.00683915
-0.00683915
0.00522726
0.00522726
0.0448145
0.0448145
-0.00706349
-0.00706349
-0.0728695
-0.0728695
0.00328692
0.00328692
-0.0206864
-0.0206864
0.00572866
0.00572866
-0.00604868
-0.00604868
-0.0210026
-0.0210026
0.0480282
0.0480282
0.00805607
0.00805607
0.00412588
0.00412588
0.0156554
0.0156554
0.0094662
0.0094662
-0.000221635
-0.000221635
-0.0679955
-0.0679955
-0.0958504
-0.0958504
0.021912
0.021912
-0.0638489
-0.0638489
-0.0148611
-0.0148611
-0.0778805
-0.0778805
0.0245742
0.0245742
-0.00826662
-0.00826662
-0.0346176
-0.0346176
0.0568321
0.0568321
0.0050132
0.0050132
-0.0833173
-0.0833173
-0.048048
-0.048048
-0.0416877
-0.0416877
0.00836441
0.00836441
-0.00345706
-0.00345706
-0.0926046
-0.0926046
-0.00704006
-0.00704006
-0.000993158
-0.000993158
0.0164433
0.0164433
-0.0729373
-0.0729373
0.0481122
0.0481122
0.0091547
0.0091547
0.00283937
0.00283937
-0.00188903
-0.00188903
-0.0473082
-0.0473082
0.00586252
0.00586252
0.00427489
0.00427489
0.0143095
0.0143095
0.0342425
0.0342425
-0.00851281
-0.00851281
0.0249931
0.0249931
-0.00481747
-0.00481747
-0.0403356
-0.0403356
-0.0144287
-0.0144287
-0.0167933
-0.0167933
0.0111807
0.0111807
-0.00874045
-0.00874045
0.111096
0.111096
-0.00973905
-0.00973905
-0.00683408
-0.00683408
-0.00852518
-0.00852518
-0.00160352
-0.00160352
0.00547573
0.00547573
0.0637926
0.0637926
-0.0401866
-0.0401866
0.0457052
0.0457052
0.0143905
0.0143905
0.0013396
0.0013396
-0.00723112
-0.00723112
0.0262621
0.0262621
0.032365
0.032365
0.0101284
0.0101284
0.0112453
0.0112453
-0.00338372
-0.00338372
-0.0109127
-0.0109127
-0.00692236
-0.00692236
-0.0628026
-0.0628026
-0.0202651
-0.0202651
0.0855574
0.0855574
-0.0222371
-0.0222371
0.0161611
0.0161611
0.0928668
0.0928668
-0.0259885
-0.0259885
-0.0903368
-0.0903368
0.00147336
0.00147336
0.168237
0.168237
-0.00795417
-0.00795417
0.0247909
0.0247909
-0.00279454
-0.00279454
-0.138571
-0.138571
0.00743051
0.00743051
0.00537108
0.00537108
0.161239
0.161239
0.0033686
0.0033686
-0.00217133
-0.00217133
0.00135097
0.00135097
0.0557005
0.0557005
-0.018645
-0.018645
-0.0110459
-0.0110459
-0.0440961
-0.0440961
0.00180671
0.00180671
0.177167
0.177167
0.00694162
0.00694162
0.00473557
0.00473557
0.0113104
0.0113104
0.0205679
0.0205679
0.0278674
0.0278674
0.00101241
0.00101241
0.0597103
0.0597103
0.00486107
0.00486107
-0.0534255
-0.0534255
0.0280498
0.0280498
-0.000486584
-0.000486584
0.0380652
0.0380652
-0.032891
-0.032891
0.0136127
0.0136127
0.00518741
0.00518741
0.0246637
0.0246637
0.0295567
0.0295567
0.00104515
0.00104515
0.00805944
0.00805944
0.0129784
0.0129784
-0.0110723
-0.0110723
0.00446753
0.00446753
-0.0128902
-0.0128902
-0.0138363
-0.0138363
0.00161598
0.00161598
-0.000145935
-0.000145935
-0.0228212
-0.0228212
0.00300462
0.00300462
-0.0251368
-0.0251368
0.00224082
0.00224082
0.0408705
0.0408705
-0.00392747
-0.00392747
0.0203093
0.0203093
0.123272
0.123272
0.0897919
0.0897919
0.0422218
0.0422218
-0.00211293
-0.00211293
0.0554747
0.0554747
-0.00491882
-0.00491882
-0.00346977
-0.00346977
0.0736933
0.0736933
-0.0768858
-0.0768858
-0.12868
-0.12868
0.00101671
0.00101671
-0.00974485
-0.00974485
0.00210614
0.00210614
0.077794
0.077794
-0.0339418
-0.0339418
0.0042915
0.0042915
0.00538258
0.00538258
-0.00835364
-0.00835364
0.0315957
0.0315957
0.0763545
0.0763545
0.0303318
0.0303318
0.00953791
0.00953791
-0.00597236
-0.00597236
-0.00743649
-0.00743649
0.00299826
0.00299826
0.0149762
0.0149762
0.0162336
0.0162336
-0.00319311
-0.00319311
0.0272514
0.0272514
0.00068312
0.00068312
0.0059068
0.0059068
0.170973
0.170973
-0.0242108
-0.0242108
-0.0255949
-0.0255949
-0.0139497
-0.0139497
-0.0156527
-0.0156527
-0.00428104
-0.00428104
-0.0656406
-0.0656406
0.110718
0.110718
0.00343331
0.00343331
-0.0226397
-0.0226397
-0.0210882
-0.0210882
0.00615734
0.00615734
-0.0123941
-0.0123941
0.0132459
0.0132459
-0.0338329
-0.0338329
0.0115476
0.0115476
0.019083
0.019083
-0.00317832
-0.00317832
-0.0102493
-0.0102493
-0.0132168
-0.0132168
-0.000772484
-0.000772484
-0.00835627
-0.00835627
0.0176479
0.0176479
0.0303188
0.0303188
0.00999862
0.00999862
-0.0904131
-0.0904131
0.0491714
0.0491714
0.00814408
0.00814408
0.0204204
0.0204204
0.0210543
0.0210543
0.00274061
0.00274061
0.00546794
0.00546794
0.00487264
0.00487264
0.00725849
0.00725849
0.0675574
0.0675574
-0.00684398
-0.00684398
-0.0124472
-0.0124472
0.0158257
0.0158257
0.122674
0.122674
-0.0129506
-0.0129506
0.00588609
0.00588609
0.0240511
0.0240511
0.0282607
0.0282607
9.56481e-05
9.56481e-05
0.0456213
0.0456213
0.00434304
0.00434304
-0.00704893
-0.00704893
0.0412211
0.0412211
-0.00498665
-0.00498665
0.015875
0.015875
-0.031573
-0.031573
-0.0115169
-0.0115169
0.0793484
0.0793484
-0.00755246
-0.00755246
-0.0868127
-0.0868127
-0.015174
-0.015174
-0.0234641
-0.0234641
-0.00966687
-0.00966687
0.0613284
0.0613284
0.000418031
0.000418031
0.058557
0.058557
-0.0179497
-0.0179497
-0.00762004
-0.00762004
0.0146262
0.0146262
-0.0171142
-0.0171142
-0.0326128
-0.0326128
0.0298455
0.0298455
0.00621104
0.00621104
0.00930838
0.00930838
-0.0684223
-0.0684223
-0.00707828
-0.00707828
-0.0031343
-0.0031343
-0.0284805
-0.0284805
-0.00623983
-0.00623983
-0.00458004
-0.00458004
0.00988186
0.00988186
-0.00191352
-0.00191352
-0.033579
-0.033579
0.00104717
0.00104717
-0.00967086
-0.00967086
-0.0571053
-0.0571053
-0.00636657
-0.00636657
-0.0908162
-0.0908162
-0.0253806
-0.0253806
0.0111997
0.0111997
-0.0218066
-0.0218066
0.0224318
0.0224318
0.0106808
0.0106808
-0.00110934
-0.00110934
0.0101211
0.0101211
-0.0837776
-0.0837776
0.0306376
0.0306376
-0.0206733
-0.0206733
-0.00515158
-0.00515158
0.14136
0.14136
-0.00968649
-0.00968649
-0.0799088
-0.0799088
0.00415106
0.00415106
-0.0110199
-0.0110199
-0.00105812
-0.00105812
0.019882
0.019882
-0.0214554
-0.0214554
-0.023316
-0.023316
-0.000124012
-0.000124012
0.0031026
0.0031026
-0.00643523
-0.00643523
-0.00962479
-0.00962479
-0.0240389
-0.0240389
-0.0173631
-0.0173631
0.00620818
0.00620818
-0.0399478
-0.0399478
0.00195692
0.00195692
0.0914119
0.0914119
-0.0122027
-0.0122027
0.0119627
0.0119627
-0.0121476
-0.0121476
-0.0268166
-0.0268166
-0.0277505
-0.0277505
-0.0068999
-0.0068999
0.00433107
0.00433107
-0.105623
-0.105623
0.119912
0.119912
-0.0284208
-0.0284208
-0.0343999
-0.0343999
0.0302103
0.0302103
-0.0119804
-0.0119804
0.0205736
0.0205736
0.000958046
0.000958046
-0.00763096
-0.00763096
0.186371
0.186371
-0.00830938
-0.00830938
0.0205146
0.0205146
-0.0947916
-0.0947916
0.00786191
0.00786191
-0.00776078
-0.00776078
0.0369223
0.0369223
-0.00909592
-0.00909592
-0.0333531
-0.0333531
-0.00716403
-0.00716403
0.0212188
0.0212188
0.0190968
0.0190968
-0.0100659
-0.0100659
-0.0118675
-0.0118675
-0.00964055
-0.00964055
-0.00868517
-0.00868517
0.00389474
0.00389474
0.0553351
0.0553351
0.0977581
0.0977581
-0.00232738
-0.00232738
0.0115737
0.0115737
0.0388492
0.0388492
0.113368
0.113368
0.0336206
0.0336206
-0.00168332
-0.00168332
-0.102809
-0.102809
-0.0341209
-0.0341209
-0.0139849
-0.0139849
-0.0887006
-0.0887006
0.00572376
0.00572376
-0.00772797
-0.00772797
0.0171623
0.0171623
-0.0123339
-0.0123339
-0.00933269
-0.00933269
0.0174093
0.0174093
-0.0581029
-0.0581029
-0.0474409
-0.0474409
-0.175529
-0.175529
-0.0306236
-0.0306236
0.0106789
0.0106789
-0.00586145
-0.00586145
-0.0025786
-0.0025786
0.013791
0.013791
0.0392318
0.0392318
-0.0850431
-0.0850431
-0.0175306
-0.0175306
0.0376567
0.0376567
0.0414968
0.0414968
0.170422
0.170422
-0.000794883
-0.000794883
-0.0121759
-0.0121759
0.00504686
0.00504686
-0.0464429
-0.0464429
-0.00571234
-0.00571234
-0.149909
-0.149909
-0.0400437
-0.0400437
0.0580969
0.0580969
0.0636219
0.0636219
-0.036401
-0.036401
0.0509076
0.0509076
0.00959071
0.00959071
-0.0045517
-0.0045517
-0.00200657
-0.00200657
-0.00355429
-0.00355429
0.000695263
0.000695263
0.00844984
0.00844984
-0.117311
-0.117311
0.0622202
0.0622202
0.0534407
0.0534407
0.0512388
0.0512388
0.0011642
0.0011642
-0.0282583
-0.0282583
0.102745
0.102745
-0.00477755
-0.00477755
-0.00565604
-0.00565604
-0.00289458
-0.00289458
0.0768553
0.0768553
-0.00461622
-0.00461622
-0.00565698
-0.00565698
-0.0329074
-0.0329074
-0.0136643
-0.0136643
-0.0107492
-0.0107492
0.00574889
0.00574889
0.0460722
0.0460722
0.028416
0.028416
0.0305175
0.0305175
0.00700157
0.00700157
-0.00632664
-0.00632664
-0.0364793
-0.0364793
-0.0224808
-0.0224808
-0.00616096
-0.00616096
-0.0139058
-0.0139058
-0.0121842
-0.0121842
-0.00554025
-0.00554025
0.0141797
0.0141797
0.0243945
0.0243945
0.133649
0.133649
0.0235363
0.0235363
0.00596443
0.00596443
-0.0785584
-0.0785584
0.0016484
0.0016484
-5.92592e-06
-5.92592e-06
0.0138296
0.0138296
-0.0926928
-0.0926928
0.0269065
0.0269065
0.0099821
0.0099821
0.0119845
0.0119845
0.00972713
0.00972713
0.157161
0.157161
-0.169899
-0.169899
-0.0106124
-0.0106124
0.0445699
0.0445699
-0.00411954
-0.00411954
-0.0069297
-0.0069297
-0.00516106
-0.00516106
-0.0364999
-0.0364999
-0.00104413
-0.00104413
-0.0332011
-0.0332011
0.00495826
0.00495826
-0.00781115
-0.00781115
-0.0475875
-0.0475875
-0.0133595
-0.0133595
-0.0172154
-0.0172154
0.0599926
0.0599926
0.012865
0.012865
0.0254184
0.0254184
0.0124838
0.0124838
-0.0074968
-0.0074968
-0.0241247
-0.0241247
-0.00519204
-0.00519204
-0.105096
-0.105096
0.016758
0.016758
-0.0393059
-0.0393059
0.0130938
0.0130938
0.0067681
0.0067681
0.0109776
0.0109776
-0.0277993
-0.0277993
-0.00914107
-0.00914107
0.0196174
0.0196174
-0.022938
-0.022938
-0.0288335
-0.0288335
0.0258922
0.0258922
-0.00571467
-0.00571467
0.0795185
0.0795185
0.0202028
0.0202028
0.0061669
0.0061669
0.00983062
0.00983062
0.0243428
0.0243428
-0.00417025
-0.00417025
-0.00364067
-0.00364067
-0.00326783
-0.00326783
-0.0682474
-0.0682474
0.00194876
0.00194876
0.00701429
0.00701429
-0.00359822
-0.00359822
0.0151347
0.0151347
-0.00981396
-0.00981396
0.0301448
0.0301448
-0.083632
-0.083632
0.00471345
0.00471345
0.0796676
0.0796676
-0.0055158
-0.0055158
-0.0125024
-0.0125024
0.00414573
0.00414573
0.00920341
0.00920341
-0.0411484
-0.0411484
-0.000922679
-0.000922679
-0.0265618
-0.0265618
-0.029775
-0.029775
0.0382237
0.0382237
0.0293182
0.0293182
-0.00267325
-0.00267325
-0.0338815
-0.0338815
-0.0245584
-0.0245584
-0.0330639
-0.0330639
0.0252325
0.0252325
0.00355061
0.00355061
-0.114402
-0.114402
0.0214013
0.0214013
0.00676544
0.00676544
0.0111667
0.0111667
-0.0144891
-0.0144891
0.0073448
0.0073448
-0.00151848
-0.00151848
0.0551942
0.0551942
0.00319359
0.00319359
-0.0407655
-0.0407655
0.0560057
0.0560057
0.00551307
0.00551307
-0.00625883
-0.00625883
-0.0582226
-0.0582226
-0.0150759
-0.0150759
0.0138552
0.0138552
-0.016897
-0.016897
-0.0199065
-0.0199065
-0.0227247
-0.0227247
-0.0104278
-0.0104278
-0.0414434
-0.0414434
0.0392909
0.0392909
-0.154617
-0.154617
0.0301272
0.0301272
-0.00680598
-0.00680598
-0.00371458
-0.00371458
-0.0791609
-0.0791609
0.0104236
0.0104236
-0.118343
-0.118343
-0.0250809
-0.0250809
-0.00446556
-0.00446556
0.0155941
0.0155941
0.0207048
0.0207048
-0.00486085
-0.00486085
-0.00451931
-0.00451931
-0.0206771
-0.0206771
-0.0377404
-0.0377404
-0.000981832
-0.000981832
0.000619427
0.000619427
0.131573
0.131573
0.018666
0.018666
-0.00675456
-0.00675456
0.053547
0.053547
0.00466553
0.00466553
0.064105
0.064105
-0.0110545
-0.0110545
-0.00422316
-0.00422316
-0.0220824
-0.0220824
0.0719867
0.0719867
0.0026203
0.0026203
-0.00173708
-0.00173708
-0.000122001
-0.000122001
-0.0133946
-0.0133946
-0.0466997
-0.0466997
0.00769005
0.00769005
0.0361642
0.0361642
0.0111635
0.0111635
0.00880588
0.00880588
0.00801763
0.00801763
-0.0116508
-0.0116508
-0.0015038
-0.0015038
0.00806057
0.00806057
-0.0185061
-0.0185061
0.00285903
0.00285903
0.030896
0.030896
-4.09501e-05
-4.09501e-05
-0.0809487
-0.0809487
-0.00769234
-0.00769234
-0.0129705
-0.0129705
-0.0317015
-0.0317015
-0.000978838
-0.000978838
0.000550336
0.000550336
0.00693738
0.00693738
0.0376155
0.0376155
0.0781791
0.0781791
-0.0544354
-0.0544354
0.0216376
0.0216376
0.00117874
0.00117874
0.00900075
0.00900075
-0.0177944
-0.0177944
-0.00922853
-0.00922853
-0.0213785
-0.0213785
0.00417767
0.00417767
0.0107795
0.0107795
0.0886988
0.0886988
0.0189497
0.0189497
-0.00238079
-0.00238079
-0.00480758
-0.00480758
-0.0869693
-0.0869693
-0.00667519
-0.00667519
-0.0113321
-0.0113321
-0.0366646
-0.0366646
0.0223883
0.0223883
-0.005934
-0.005934
0.00381654
0.00381654
-0.0221522
-0.0221522
-0.00172047
-0.00172047
-0.0045976
-0.0045976
0.137719
0.137719
-0.0546864
-0.0546864
-0.046231
-0.046231
0.00521917
0.00521917
0.023039
0.023039
-0.021386
-0.021386
-0.0309143
-0.0309143
-0.00887167
-0.00887167
-0.0185306
-0.0185306
0.0148025
0.0148025
-0.097068
-0.097068
0.0194765
0.0194765
0.00329076
0.00329076
-0.0310664
-0.0310664
-0.0116222
-0.0116222
-0.0474521
-0.0474521
0.0113491
0.0113491
-0.0142802
-0.0142802
-0.00644908
-0.00644908
0.00309537
0.00309537
-0.00677923
-0.00677923
-0.00485227
-0.00485227
-0.00358495
-0.00358495
0.0275784
0.0275784
0.00635024
0.00635024
0.0304805
0.0304805
-0.00385603
-0.00385603
-0.00881147
-0.00881147
-0.0674892
-0.0674892
-0.0286799
-0.0286799
-0.0180889
-0.0180889
0.0108792
0.0108792
0.00298645
0.00298645
-0.0994761
-0.0994761
0.0152617
0.0152617
-0.0264309
-0.0264309
0.106285
0.106285
0.04858
0.04858
-0.0121654
-0.0121654
-0.00724486
-0.00724486
0.00627173
0.00627173
0.0105606
0.0105606
0.00125812
0.00125812
-0.104542
-0.104542
-0.0487317
-0.0487317
0.00134199
0.00134199
-0.018735
-0.018735
-0.0354715
-0.0354715
0.0631538
0.0631538
0.0071028
0.0071028
7.2519e-05
7.2519e-05
0.0570442
0.0570442
-0.0264302
-0.0264302
0.0333048
0.0333048
0.0287696
0.0287696
-0.00316103
-0.00316103
0.0321628
0.0321628
-0.0039937
-0.0039937
-0.0692523
-0.0692523
0.0870955
0.0870955
0.0181614
0.0181614
-0.0138936
-0.0138936
0.0679926
0.0679926
-0.145388
-0.145388
-0.0185407
-0.0185407
-0.00965502
-0.00965502
-0.0127706
-0.0127706
0.0787608
0.0787608
-0.00733107
-0.00733107
-0.0205897
-0.0205897
0.096932
0.096932
0.00291364
0.00291364
-0.000409166
-0.000409166
-0.0473546
-0.0473546
0.0669963
0.0669963
0.0378135
0.0378135
-0.0264754
-0.0264754
-0.00352239
-0.00352239
0.0334597
0.0334597
0.036116
0.036116
-0.00818275
-0.00818275
-0.0034461
-0.0034461
-0.0524972
-0.0524972
-0.00887987
-0.00887987
0.00432517
0.00432517
0.0358912
0.0358912
-0.0619253
-0.0619253
-0.00498777
-0.00498777
0.103024
0.103024
-0.00305313
-0.00305313
-0.1029
-0.1029
-0.0100447
-0.0100447
0.000335621
0.000335621
-0.0154606
-0.0154606
0.0319207
0.0319207
0.00919951
0.00919951
-0.0785002
-0.0785002
0.0318059
0.0318059
-0.00504719
-0.00504719
0.00922556
0.00922556
0.0456241
0.0456241
-0.0274674
-0.0274674
-0.00531362
-0.00531362
-0.0720201
-0.0720201
-0.0202922
-0.0202922
-0.0208745
-0.0208745
-0.0144821
-0.0144821
-0.0072644
-0.0072644
0.0829973
0.0829973
-0.0103667
-0.0103667
-0.00195642
-0.00195642
-0.0858732
-0.0858732
0.00844418
0.00844418
0.0262354
0.0262354
-0.0795461
-0.0795461
-0.00124607
-0.00124607
-0.0226982
-0.0226982
0.0125622
0.0125622
-0.0155841
-0.0155841
0.0114981
0.0114981
0.0151071
0.0151071
-0.036713
-0.036713
-0.00899818
-0.00899818
0.00650517
0.00650517
0.0279022
0.0279022
-0.0509877
-0.0509877
-0.0166791
-0.0166791
-0.00337858
-0.00337858
-0.0180279
-0.0180279
-0.00221491
-0.00221491
-0.0222964
-0.0222964
-0.00961265
-0.00961265
0.00694451
0.00694451
0.0116983
0.0116983
-0.00740195
-0.00740195
0.00215842
0.00215842
0.012553
0.012553
0.0181813
0.0181813
-0.0180748
-0.0180748
-0.0129999
-0.0129999
-0.00909547
-0.00909547
0.0172267
0.0172267
-0.00907556
-0.00907556
0.00362442
0.00362442
0.00561007
0.00561007
-0.0102559
-0.0102559
-0.0174535
-0.0174535
-0.00752473
-0.00752473
0.0105327
0.0105327
-0.0301248
-0.0301248
0.00473645
0.00473645
-0.00237673
-0.00237673
0.172367
0.172367
-0.092823
-0.092823
-0.00300581
-0.00300581
0.0307896
0.0307896
-0.00512911
-0.00512911
-0.0161408
-0.0161408
0.00828344
0.00828344
-0.0187475
-0.0187475
0.000168026
0.000168026
0.0206861
0.0206861
0.125117
0.125117
-0.00121409
-0.00121409
0.00333177
0.00333177
-0.00170853
-0.00170853
0.0262966
0.0262966
-0.0310674
-0.0310674
-0.0312725
-0.0312725
0.0479457
0.0479457
0.0249174
0.0249174
-0.00358554
-0.00358554
0.0269719
0.0269719
-0.00758337
-0.00758337
-0.0345161
-0.0345161
-0.0329166
-0.0329166
-0.0124199
-0.0124199
0.0136667
0.0136667
-0.013224
-0.013224
0.0129719
0.0129719
0.0198813
0.0198813
-0.0027407
-0.0027407
-0.0448235
-0.0448235
0.00352697
0.00352697
-0.00148561
-0.00148561
-0.00593129
-0.00593129
0.0283004
0.0283004
0.0399001
0.0399001
0.0131645
0.0131645
-0.00417598
-0.00417598
0.0126924
0.0126924
-0.0349744
-0.0349744
0.00037755
0.00037755
0.0423413
0.0423413
-0.0812673
-0.0812673
0.000681367
0.000681367
0.0462079
0.0462079
-0.00195062
-0.00195062
-0.121332
-0.121332
-0.0515106
-0.0515106
-0.0270155
-0.0270155
-0.0222915
-0.0222915
-0.0295274
-0.0295274
0.0263142
0.0263142
0.00167221
0.00167221
0.00570009
0.00570009
-0.00118081
-0.00118081
-0.00700572
-0.00700572
-0.0355878
-0.0355878
0.180506
0.180506
-0.0138783
-0.0138783
0.000627241
0.000627241
0.0150699
0.0150699
0.00296146
0.00296146
-0.0314297
-0.0314297
-0.0528015
-0.0528015
0.0228692
0.0228692
0.0374317
0.0374317
0.0287904
0.0287904
-0.0243644
-0.0243644
-0.029281
-0.029281
0.0132791
0.0132791
0.0154115
0.0154115
0.00839353
0.00839353
-0.0201592
-0.0201592
0.125016
0.125016
0.0101885
0.0101885
0.00742053
0.00742053
0.0267664
0.0267664
-0.0197405
-0.0197405
-0.00507249
-0.00507249
-0.00683406
-0.00683406
0.0287937
0.0287937
0.00664903
0.00664903
0.00919205
0.00919205
-0.0431618
-0.0431618
0.00923039
0.00923039
0.00786385
0.00786385
-0.0212859
-0.0212859
0.0171952
0.0171952
-0.00481444
-0.00481444
-0.00166821
-0.00166821
-0.007421
-0.007421
-0.0261367
-0.0261367
-0.00903687
-0.00903687
0.0780474
0.0780474
0.0361898
0.0361898
-0.0210918
-0.0210918
-0.0100001
-0.0100001
0.177969
0.177969
-0.0474179
-0.0474179
0.0052816
0.0052816
-0.157369
-0.157369
-0.0246992
-0.0246992
-0.0281128
-0.0281128
0.0362731
0.0362731
0.0371371
0.0371371
0.0623098
0.0623098
-0.0281041
-0.0281041
0.0084632
0.0084632
-0.00497797
-0.00497797
-0.0211159
-0.0211159
0.0509067
0.0509067
0.00666647
0.00666647
-0.00808054
-0.00808054
0.0214214
0.0214214
0.104882
0.104882
-0.00729683
-0.00729683
-0.0099734
-0.0099734
-0.0439553
-0.0439553
0.0145784
0.0145784
-0.0643226
-0.0643226
0.00635608
0.00635608
0.018183
0.018183
0.00568128
0.00568128
-0.0117345
-0.0117345
0.0515409
0.0515409
0.00652005
0.00652005
-0.00433551
-0.00433551
-0.0313213
-0.0313213
-0.00885085
-0.00885085
0.00789079
0.00789079
0.00856948
0.00856948
0.0343145
0.0343145
0.0511558
0.0511558
-0.0439487
-0.0439487
0.007436
0.007436
0.0517203
0.0517203
-0.00645279
-0.00645279
0.0118435
0.0118435
0.0264709
0.0264709
-0.00319049
-0.00319049
-0.00114286
-0.00114286
-0.064619
-0.064619
0.0362941
0.0362941
0.0581312
0.0581312
-0.0135446
-0.0135446
-0.00899999
-0.00899999
0.0395712
0.0395712
-0.00841978
-0.00841978
-0.0420162
-0.0420162
-0.0178099
-0.0178099
-0.0253403
-0.0253403
-0.0405426
-0.0405426
-0.00748122
-0.00748122
0.00916671
0.00916671
-0.00871695
-0.00871695
-0.00244986
-0.00244986
0.0170308
0.0170308
0.0431914
0.0431914
-0.071299
-0.071299
0.179015
0.179015
-0.0289854
-0.0289854
-0.108444
-0.108444
0.0377429
0.0377429
-0.0141936
-0.0141936
-0.00767387
-0.00767387
0.0136931
0.0136931
-0.0724363
-0.0724363
0.00228227
0.00228227
-0.0588691
-0.0588691
-0.000921691
-0.000921691
-0.00662234
-0.00662234
-0.0386873
-0.0386873
0.0114148
0.0114148
-0.000871897
-0.000871897
0.0360569
0.0360569
-0.00302235
-0.00302235
0.0180172
0.0180172
-0.0365832
-0.0365832
-0.0490892
-0.0490892
-0.0267583
-0.0267583
0.00611639
0.00611639
-0.0195673
-0.0195673
0.0222417
0.0222417
0.028557
0.028557
-0.0313055
-0.0313055
-0.0429814
-0.0429814
-0.00175459
-0.00175459
-0.000179499
-0.000179499
-0.0203648
-0.0203648
-0.00616005
-0.00616005
-0.00702512
-0.00702512
-0.0559509
-0.0559509
-0.00214371
-0.00214371
-0.0994824
-0.0994824
0.000253971
0.000253971
-0.0583616
-0.0583616
-0.000646845
-0.000646845
-0.0189085
-0.0189085
-0.00372623
-0.00372623
0.00162135
0.00162135
-0.00411519
-0.00411519
0.00254339
0.00254339
0.0812032
0.0812032
-0.0944893
-0.0944893
-0.0222471
-0.0222471
0.00662675
0.00662675
-0.0152497
-0.0152497
0.0236856
0.0236856
0.0309872
0.0309872
-0.0031949
-0.0031949
0.014545
0.014545
-0.0204267
-0.0204267
0.0594536
0.0594536
0.0137859
0.0137859
0.00801825
0.00801825
0.0159144
0.0159144
-0.0369124
-0.0369124
0.0174242
0.0174242
-0.0107468
-0.0107468
-0.017245
-0.017245
0.0122732
0.0122732
-0.000777844
-0.000777844
0.0623345
0.0623345
-0.00335933
-0.00335933
-0.0465091
-0.0465091
0.0331262
0.0331262
-0.0101378
-0.0101378
-0.0596557
-0.0596557
0.0803622
0.0803622
0.0149401
0.0149401
0.00730237
0.00730237
0.0799409
0.0799409
0.0254959
0.0254959
-0.0152353
-0.0152353
0.001744
0.001744
-0.00245075
-0.00245075
-0.0693414
-0.0693414
0.0126456
0.0126456
-0.0276386
-0.0276386
-0.00311046
-0.00311046
0.00841998
0.00841998
0.0195996
0.0195996
-0.0221156
-0.0221156
0.020596
0.020596
-0.00595031
-0.00595031
-0.0142658
-0.0142658
0.00173214
0.00173214
-0.0125219
-0.0125219
0.102716
0.102716
0.00473888
0.00473888
-0.0079026
-0.0079026
-0.0169714
-0.0169714
-0.00379535
-0.00379535
-0.0182181
-0.0182181
0.0220918
0.0220918
0.0764106
0.0764106
0.0913039
0.0913039
0.0119808
0.0119808
-0.0135582
-0.0135582
-0.00764216
-0.00764216
-0.0663598
-0.0663598
-0.0194363
-0.0194363
-0.00351565
-0.00351565
-0.00408106
-0.00408106
4.14645e-05
4.14645e-05
-0.0203068
-0.0203068
5.80613e-05
5.80613e-05
-0.142827
-0.142827
-0.142345
-0.142345
0.00538717
0.00538717
0.0176204
0.0176204
-0.0226088
-0.0226088
0.0525526
0.0525526
0.0350274
0.0350274
-0.0600138
-0.0600138
0.00829463
0.00829463
-0.0024982
-0.0024982
-0.00690565
-0.00690565
0.0222091
0.0222091
-0.00139646
-0.00139646
-0.00347877
-0.00347877
-0.00094957
-0.00094957
-0.00727933
-0.00727933
0.0156467
0.0156467
0.00578098
0.00578098
-0.0248503
-0.0248503
-0.0121697
-0.0121697
0.0154908
0.0154908
-0.00103397
-0.00103397
-0.0728697
-0.0728697
0.11213
0.11213
0.0111701
0.0111701
-0.00714233
-0.00714233
0.00221901
0.00221901
0.0209197
0.0209197
-0.139817
-0.139817
0.0595329
0.0595329
-0.0149566
-0.0149566
0.0003012
0.0003012
-0.0525544
-0.0525544
-0.00459966
-0.00459966
0.0176634
0.0176634
0.0270583
0.0270583
-0.000572644
-0.000572644
0.0682769
0.0682769
-0.00331525
-0.00331525
-0.0238341
-0.0238341
-0.0280679
-0.0280679
-0.00411696
-0.00411696
-0.0026974
-0.0026974
0.00836128
0.00836128
-0.0435742
-0.0435742
0.049301
0.049301
0.00145298
0.00145298
0.0854432
0.0854432
0.026436
0.026436
0.0268387
0.0268387
-0.0672855
-0.0672855
0.105882
0.105882
-0.0236751
-0.0236751
0.00413322
0.00413322
0.00656831
0.00656831
0.00615796
0.00615796
0.0213119
0.0213119
-0.0296237
-0.0296237
0.00637969
0.00637969
0.120949
0.120949
-0.00856171
-0.00856171
0.00248902
0.00248902
0.00624828
0.00624828
-0.0259739
-0.0259739
-0.0118529
-0.0118529
0.0429217
0.0429217
0.00533027
0.00533027
0.132576
0.132576
0.0284115
0.0284115
-0.000967624
-0.000967624
0.102716
0.102716
0.0142894
0.0142894
0.00826936
0.00826936
-0.00010692
-0.00010692
0.0011207
0.0011207
0.172366
0.172366
0.00246274
0.00246274
0.116331
0.116331
-0.0213798
-0.0213798
0.0520443
0.0520443
-0.0227337
-0.0227337
-0.00676177
-0.00676177
0.0163886
0.0163886
-0.00805345
-0.00805345
-2.34107e-06
-2.34107e-06
-0.0572134
-0.0572134
-0.0262539
-0.0262539
-0.0115699
-0.0115699
-0.189356
-0.189356
0.0095308
0.0095308
0.0387767
0.0387767
-0.00409554
-0.00409554
0.0301323
0.0301323
-0.00775297
-0.00775297
0.0362319
0.0362319
0.0457407
0.0457407
-0.0250265
-0.0250265
0.0536325
0.0536325
-0.00299224
-0.00299224
-0.00955198
-0.00955198
0.00673518
0.00673518
0.00208701
0.00208701
0.0332933
0.0332933
0.0372658
0.0372658
0.00325589
0.00325589
0.0431011
0.0431011
-0.00881007
-0.00881007
-0.0310544
-0.0310544
0.000992993
0.000992993
0.107892
0.107892
-0.000813667
-0.000813667
-0.0160678
-0.0160678
0.0712547
0.0712547
0.0182125
0.0182125
-0.0138725
-0.0138725
0.00842704
0.00842704
0.016985
0.016985
-0.0267726
-0.0267726
0.0108231
0.0108231
0.00545465
0.00545465
-0.00150151
-0.00150151
-0.00190174
-0.00190174
0.0102628
0.0102628
0.0120339
0.0120339
0.0837955
0.0837955
0.010103
0.010103
0.0062253
0.0062253
0.098467
0.098467
0.0625692
0.0625692
-0.0727962
-0.0727962
0.00311901
0.00311901
-0.0206232
-0.0206232
-0.000881026
-0.000881026
-0.0116421
-0.0116421
-0.0103946
-0.0103946
-0.0237002
-0.0237002
-0.000383558
-0.000383558
0.0226914
0.0226914
-0.0472875
-0.0472875
0.00541231
0.00541231
-0.0191261
-0.0191261
0.0198156
0.0198156
0.0237908
0.0237908
-0.0123183
-0.0123183
0.0120399
0.0120399
-0.0153937
-0.0153937
0.0266974
0.0266974
-0.0183667
-0.0183667
-0.108413
-0.108413
0.0067375
0.0067375
0.00243144
0.00243144
-0.0033975
-0.0033975
-0.00657319
-0.00657319
-0.00791393
-0.00791393
-0.0342531
-0.0342531
-0.012798
-0.012798
-0.0196932
-0.0196932
-0.00423607
-0.00423607
0.00704351
0.00704351
-0.0266026
-0.0266026
0.0692156
0.0692156
0.0307719
0.0307719
0.00624589
0.00624589
-0.0537834
-0.0537834
-0.00023121
-0.00023121
0.0541412
0.0541412
0.0457449
0.0457449
-0.0111926
-0.0111926
0.0199026
0.0199026
0.0137402
0.0137402
0.00909131
0.00909131
0.0348736
0.0348736
-0.00382574
-0.00382574
-0.00165217
-0.00165217
-0.00734429
-0.00734429
0.000772945
0.000772945
-0.0081156
-0.0081156
-0.0515788
-0.0515788
-0.00407528
-0.00407528
0.0033007
0.0033007
0.00972864
0.00972864
0.00923468
0.00923468
-0.0101462
-0.0101462
0.0531833
0.0531833
0.000381772
0.000381772
-0.010785
-0.010785
0.121611
0.121611
0.015829
0.015829
-0.00142277
-0.00142277
-0.00745724
-0.00745724
0.00454999
0.00454999
0.00307196
0.00307196
0.00653676
0.00653676
0.00273078
0.00273078
0.000102431
0.000102431
-0.00789086
-0.00789086
0.00477729
0.00477729
0.0384993
0.0384993
0.0219875
0.0219875
-0.0181037
-0.0181037
0.0112067
0.0112067
-0.0460476
-0.0460476
-0.00731745
-0.00731745
-0.016168
-0.016168
0.0489296
0.0489296
-0.0342662
-0.0342662
-0.00777139
-0.00777139
-0.121289
-0.121289
0.0228132
0.0228132
0.00934725
0.00934725
0.00304736
0.00304736
-0.00274454
-0.00274454
-0.00608527
-0.00608527
0.178716
0.178716
0.113627
0.113627
-0.00125209
-0.00125209
0.00894687
0.00894687
-0.005737
-0.005737
-0.0118997
-0.0118997
0.081915
0.081915
0.00181898
0.00181898
0.0878394
0.0878394
-0.0067747
-0.0067747
0.043354
0.043354
0.0984446
0.0984446
0.016326
0.016326
0.0405987
0.0405987
0.0130215
0.0130215
-0.00810029
-0.00810029
0.130591
0.130591
-0.0354883
-0.0354883
0.0566359
0.0566359
0.0160317
0.0160317
-0.0100122
-0.0100122
0.0102047
0.0102047
0.0203707
0.0203707
-0.0104869
-0.0104869
0.0141103
0.0141103
0.0163216
0.0163216
-0.00128844
-0.00128844
0.00204407
0.00204407
0.0990053
0.0990053
0.000272517
0.000272517
0.0186173
0.0186173
-0.01681
-0.01681
0.063553
0.063553
0.0118715
0.0118715
0.00607295
0.00607295
0.00391226
0.00391226
0.0792037
0.0792037
-0.0029273
-0.0029273
-0.00642084
-0.00642084
0.0961413
0.0961413
-0.0042715
-0.0042715
-0.0379894
-0.0379894
0.00648928
0.00648928
-0.0589409
-0.0589409
-0.0361271
-0.0361271
0.00409434
0.00409434
0.0398412
0.0398412
0.123078
0.123078
0.00606604
0.00606604
-0.00063561
-0.00063561
0.00164251
0.00164251
-0.00402467
-0.00402467
0.000370659
0.000370659
0.00613112
0.00613112
-0.00466728
-0.00466728
-0.0243865
-0.0243865
0.00465454
0.00465454
0.00528048
0.00528048
-0.0329941
-0.0329941
-0.0136103
-0.0136103
0.0147616
0.0147616
0.0260627
0.0260627
-0.00105006
-0.00105006
0.0800053
0.0800053
-0.00217211
-0.00217211
0.0760475
0.0760475
0.00188986
0.00188986
-0.0507129
-0.0507129
0.00463224
0.00463224
0.0344852
0.0344852
-0.00214513
-0.00214513
0.00622669
0.00622669
0.0270978
0.0270978
0.00544495
0.00544495
0.133937
0.133937
-0.0211534
-0.0211534
0.00640338
0.00640338
0.0886597
0.0886597
-0.0107153
-0.0107153
-0.0499553
-0.0499553
-0.0149033
-0.0149033
-0.00814968
-0.00814968
0.140888
0.140888
-0.0903134
-0.0903134
-0.0352784
-0.0352784
0.0043447
0.0043447
-0.025676
-0.025676
-0.0392098
-0.0392098
-0.00278311
-0.00278311
-0.0233555
-0.0233555
0.0988904
0.0988904
-0.00539181
-0.00539181
-0.0115505
-0.0115505
-0.00289481
-0.00289481
-0.00163847
-0.00163847
-0.0319921
-0.0319921
-0.0245914
-0.0245914
-0.0441465
-0.0441465
-0.00209495
-0.00209495
0.00687428
0.00687428
0.0567543
0.0567543
0.117364
0.117364
0.0129126
0.0129126
-0.0632327
-0.0632327
0.0122448
0.0122448
0.00766176
0.00766176
0.0452835
0.0452835
-0.00969532
-0.00969532
-0.00106651
-0.00106651
0.00296527
0.00296527
0.0481816
0.0481816
-0.00821596
-0.00821596
-0.0195171
-0.0195171
0.018852
0.018852
-0.0263529
-0.0263529
0.132805
0.132805
8.31249e-05
8.31249e-05
0.0206828
0.0206828
0.00535218
0.00535218
-0.00718581
-0.00718581
-0.0612229
-0.0612229
-0.00512134
-0.00512134
0.0644386
0.0644386
0.00416834
0.00416834
0.0152658
0.0152658
0.017814
0.017814
-0.0433403
-0.0433403
0.0825542
0.0825542
-0.0728725
-0.0728725
-0.0351016
-0.0351016
-0.013526
-0.013526
-0.0368605
-0.0368605
-0.00732523
-0.00732523
-0.014281
-0.014281
0.0264626
0.0264626
0.194334
0.194334
-0.00948046
-0.00948046
-0.00698055
-0.00698055
-0.00146772
-0.00146772
0.00855419
0.00855419
0.0593785
0.0593785
0.00732334
0.00732334
-0.00346234
-0.00346234
0.0162235
0.0162235
-0.00124976
-0.00124976
0.00189887
0.00189887
-0.0412878
-0.0412878
0.0117628
0.0117628
-0.0782598
-0.0782598
0.00817611
0.00817611
-0.0438787
-0.0438787
-0.0542334
-0.0542334
-0.0117737
-0.0117737
-0.00890992
-0.00890992
-0.0120106
-0.0120106
0.0240183
0.0240183
-0.00405875
-0.00405875
-0.0746673
-0.0746673
0.0156226
0.0156226
0.00503486
0.00503486
0.0369308
0.0369308
-0.00150824
-0.00150824
0.0148432
0.0148432
-0.00963305
-0.00963305
0.0320468
0.0320468
-0.00654154
-0.00654154
-0.062845
-0.062845
0.0755674
0.0755674
-0.0271614
-0.0271614
-0.0195171
-0.0195171
0.00736248
0.00736248
0.00968467
0.00968467
0.023009
0.023009
0.000631515
0.000631515
0.0514989
0.0514989
0.0178111
0.0178111
-0.0279197
-0.0279197
0.00552682
0.00552682
0.0165093
0.0165093
0.0143288
0.0143288
0.00517537
0.00517537
-0.143795
-0.143795
-0.00384546
-0.00384546
-0.0243234
-0.0243234
-0.0626652
-0.0626652
0.0136874
0.0136874
0.00475301
0.00475301
-0.0228269
-0.0228269
-0.00369022
-0.00369022
0.00873523
0.00873523
0.00126412
0.00126412
0.00154805
0.00154805
0.00883281
0.00883281
0.0606005
0.0606005
-0.0772047
-0.0772047
-0.00885552
-0.00885552
-0.00155771
-0.00155771
0.0335455
0.0335455
-0.0246749
-0.0246749
-0.0549001
-0.0549001
-0.0119659
-0.0119659
-0.000376125
-0.000376125
-0.00174091
-0.00174091
0.013514
0.013514
-0.00467796
-0.00467796
-0.00287023
-0.00287023
0.150737
0.150737
-0.00858801
-0.00858801
0.0378741
0.0378741
0.0234774
0.0234774
0.0267807
0.0267807
0.0359873
0.0359873
0.0841633
0.0841633
0.0102545
0.0102545
-0.0199308
-0.0199308
0.0389193
0.0389193
-0.0728122
-0.0728122
-0.00630533
-0.00630533
0.0510133
0.0510133
-0.0142209
-0.0142209
-0.00123296
-0.00123296
-0.00712984
-0.00712984
0.0204694
0.0204694
-0.0114534
-0.0114534
-0.00426407
-0.00426407
0.113621
0.113621
-0.0117833
-0.0117833
0.00488537
0.00488537
-0.0171948
-0.0171948
-0.00204071
-0.00204071
-0.0293671
-0.0293671
0.000505116
0.000505116
-0.00557138
-0.00557138
-0.000932867
-0.000932867
0.000103724
0.000103724
0.0558394
0.0558394
-0.0326954
-0.0326954
0.0210968
0.0210968
0.0326367
0.0326367
0.00957551
0.00957551
0.00632703
0.00632703
0.08028
0.08028
0.00692431
0.00692431
0.00226028
0.00226028
0.00243126
0.00243126
0.0859034
0.0859034
-0.0195164
-0.0195164
-0.00371706
-0.00371706
0.0426012
0.0426012
-0.0300747
-0.0300747
0.0635625
0.0635625
0.171006
0.171006
-0.00706752
-0.00706752
0.0560042
0.0560042
0.0448782
0.0448782
0.00630152
0.00630152
-0.00542229
-0.00542229
-0.00142506
-0.00142506
-0.00141374
-0.00141374
0.026673
0.026673
0.00869534
0.00869534
0.00612116
0.00612116
-0.0892781
-0.0892781
-0.0074429
-0.0074429
0.0318441
0.0318441
0.018759
0.018759
0.00633599
0.00633599
-0.0128692
-0.0128692
-0.0251398
-0.0251398
-0.00794021
-0.00794021
0.00363961
0.00363961
0.00162323
0.00162323
0.00394803
0.00394803
-0.00349098
-0.00349098
0.0889131
0.0889131
-0.145526
-0.145526
0.00828047
0.00828047
0.0127931
0.0127931
-0.0701604
-0.0701604
-0.0084809
-0.0084809
0.0259493
0.0259493
-0.0132801
-0.0132801
0.00904584
0.00904584
0.00624251
0.00624251
0.0103158
0.0103158
0.0185398
0.0185398
0.0622264
0.0622264
0.000171189
0.000171189
-0.0657157
-0.0657157
0.0255789
0.0255789
-0.00661788
-0.00661788
0.0421047
0.0421047
-0.00855112
-0.00855112
-0.000865258
-0.000865258
0.0471061
0.0471061
0.00449234
0.00449234
-0.139202
-0.139202
-0.00287477
-0.00287477
-0.0227019
-0.0227019
0.011522
0.011522
-0.00933877
-0.00933877
0.0606447
0.0606447
-0.00610876
-0.00610876
-0.0174948
-0.0174948
0.0144126
0.0144126
0.0340118
0.0340118
-0.0098487
-0.0098487
0.0173324
0.0173324
0.0707736
0.0707736
-0.023694
-0.023694
-0.000243684
-0.000243684
0.0269576
0.0269576
-0.00721904
-0.00721904
-0.0042094
-0.0042094
-0.0494852
-0.0494852
0.101004
0.101004
0.0562519
0.0562519
-0.0250089
-0.0250089
0.0166277
0.0166277
-0.00100651
-0.00100651
0.0376757
0.0376757
-0.0161109
-0.0161109
0.110221
0.110221
-0.0644074
-0.0644074
0.00776735
0.00776735
-0.0071799
-0.0071799
0.0806934
0.0806934
0.00273807
0.00273807
-0.00451324
-0.00451324
-0.0010269
-0.0010269
0.0168055
0.0168055
-0.021942
-0.021942
0.0112527
0.0112527
-0.069423
-0.069423
-0.0291958
-0.0291958
-0.0676769
-0.0676769
-0.0722572
-0.0722572
0.00662833
0.00662833
0.00517429
0.00517429
0.00817002
0.00817002
0.00403522
0.00403522
-0.010471
-0.010471
0.00790296
0.00790296
-0.00101725
-0.00101725
0.0152068
0.0152068
0.116827
0.116827
-0.000920933
-0.000920933
-0.00794868
-0.00794868
-0.0139458
-0.0139458
-0.0477447
-0.0477447
-0.000881365
-0.000881365
0.0121301
0.0121301
-0.0110711
-0.0110711
0.0884028
0.0884028
0.00143308
0.00143308
-0.00128673
-0.00128673
-0.0561271
-0.0561271
0.0142113
0.0142113
-0.00733486
-0.00733486
0.155529
0.155529
0.00730742
0.00730742
0.0100488
0.0100488
-0.0547512
-0.0547512
-0.00643885
-0.00643885
0.039077
0.039077
0.00766608
0.00766608
-0.00400555
-0.00400555
-0.105338
-0.105338
-0.0244742
-0.0244742
-0.0181164
-0.0181164
-0.0151955
-0.0151955
-0.00572483
-0.00572483
0.0143686
0.0143686
0.000568033
0.000568033
0.00889935
0.00889935
-0.0103329
-0.0103329
0.126256
0.126256
-0.061302
-0.061302
-0.0336403
-0.0336403
0.014259
0.014259
-0.0178074
-0.0178074
-0.0197812
-0.0197812
0.0116063
0.0116063
0.00151355
0.00151355
-0.0125911
-0.0125911
0.0150356
0.0150356
-0.0232005
-0.0232005
-0.000693214
-0.000693214
0.00467209
0.00467209
0.0232607
0.0232607
0.0104336
0.0104336
0.0109488
0.0109488
0.0148076
0.0148076
0.00241785
0.00241785
-0.0255738
-0.0255738
-0.00247122
-0.00247122
0.020412
0.020412
0.00965274
0.00965274
0.0508481
0.0508481
0.00321546
0.00321546
0.00552618
0.00552618
0.00852411
0.00852411
0.0313905
0.0313905
-0.00558275
-0.00558275
-0.0539043
-0.0539043
0.114919
0.114919
-0.0108413
-0.0108413
-0.0570088
-0.0570088
-0.00226308
-0.00226308
-0.00416629
-0.00416629
0.0217744
0.0217744
0.0412325
0.0412325
-0.0325667
-0.0325667
0.00778399
0.00778399
0.00702905
0.00702905
0.0781656
0.0781656
-0.0204088
-0.0204088
0.0179328
0.0179328
0.00164043
0.00164043
0.0240533
0.0240533
-0.049646
-0.049646
-0.00328377
-0.00328377
0.00499139
0.00499139
-0.00685372
-0.00685372
-0.00523825
-0.00523825
0.0135164
0.0135164
0.0138685
0.0138685
-0.0172389
-0.0172389
0.0223403
0.0223403
0.0130483
0.0130483
0.0157959
0.0157959
-0.00304461
-0.00304461
0.0311844
0.0311844
-0.0268139
-0.0268139
-0.0282182
-0.0282182
0.00838127
0.00838127
0.00343173
0.00343173
-0.00830544
-0.00830544
0.00984062
0.00984062
-0.0356646
-0.0356646
-0.00245118
-0.00245118
0.0505024
0.0505024
0.0275662
0.0275662
-0.0308844
-0.0308844
0.00386974
0.00386974
0.0209626
0.0209626
-0.0482082
-0.0482082
0.00500113
0.00500113
0.00495922
0.00495922
0.00792769
0.00792769
0.0451787
0.0451787
-0.00773722
-0.00773722
-0.00180738
-0.00180738
-0.0445882
-0.0445882
-0.00383252
-0.00383252
0.0537102
0.0537102
0.0165481
0.0165481
0.00660249
0.00660249
-0.0201818
-0.0201818
0.0306929
0.0306929
-0.00780986
-0.00780986
0.0735597
0.0735597
-0.0566753
-0.0566753
-0.0401137
-0.0401137
-0.0154738
-0.0154738
0.0272747
0.0272747
-0.0657519
-0.0657519
0.0217154
0.0217154
0.000556072
0.000556072
0.0202057
0.0202057
-0.00492398
-0.00492398
-0.0482981
-0.0482981
-0.0273098
-0.0273098
-0.00883444
-0.00883444
0.059604
0.059604
0.052918
0.052918
0.0287965
0.0287965
0.0434232
0.0434232
-0.00514476
-0.00514476
0.0390218
0.0390218
-0.00912437
-0.00912437
0.0234687
0.0234687
0.00788055
0.00788055
-0.106394
-0.106394
0.0626283
0.0626283
0.0359889
0.0359889
-0.00290247
-0.00290247
-0.0251716
-0.0251716
-0.0254026
-0.0254026
0.00696483
0.00696483
-0.00571319
-0.00571319
-0.0570268
-0.0570268
-0.0124156
-0.0124156
-0.0519469
-0.0519469
0.0257866
0.0257866
0.0115873
0.0115873
-0.0173979
-0.0173979
0.00324646
0.00324646
-0.00784701
-0.00784701
0.015363
0.015363
-0.0312151
-0.0312151
0.0340005
0.0340005
0.00332771
0.00332771
0.000929079
0.000929079
-0.0599844
-0.0599844
-0.0734866
-0.0734866
-0.190547
-0.190547
-0.0684763
-0.0684763
0.024118
0.024118
0.00403982
0.00403982
-0.00712888
-0.00712888
-0.0522653
-0.0522653
-0.0049283
-0.0049283
0.0842179
0.0842179
-0.0596933
-0.0596933
-0.00285304
-0.00285304
-0.069724
-0.069724
-0.0560036
-0.0560036
-0.00869036
-0.00869036
0.010474
0.010474
0.013686
0.013686
0.0324941
0.0324941
-0.00704169
-0.00704169
-0.0881311
-0.0881311
-0.0340277
-0.0340277
-0.0242874
-0.0242874
-0.022717
-0.022717
0.000437141
0.000437141
0.0179978
0.0179978
-0.0338759
-0.0338759
0.058274
0.058274
0.0162904
0.0162904
0.0349549
0.0349549
0.0287043
0.0287043
-0.036418
-0.036418
0.0121256
0.0121256
0.00775156
0.00775156
-0.067219
-0.067219
0.00142241
0.00142241
0.0288473
0.0288473
-0.0122267
-0.0122267
-0.113345
-0.113345
0.00723569
0.00723569
0.0631536
0.0631536
0.0114824
0.0114824
0.0432659
0.0432659
-0.0113029
-0.0113029
-0.00478207
-0.00478207
0.0245988
0.0245988
0.0271429
0.0271429
-0.00542423
-0.00542423
0.00895242
0.00895242
-0.0443383
-0.0443383
-0.0514143
-0.0514143
-0.0152383
-0.0152383
-0.0129986
-0.0129986
-0.00781545
-0.00781545
-0.0458574
-0.0458574
0.00112729
0.00112729
-0.0102462
-0.0102462
0.00808476
0.00808476
0.0325524
0.0325524
0.0040233
0.0040233
0.00268959
0.00268959
-0.0330439
-0.0330439
0.00316337
0.00316337
0.00966271
0.00966271
0.0484929
0.0484929
-0.00168781
-0.00168781
0.00403277
0.00403277
-0.00707338
-0.00707338
-0.0257486
-0.0257486
-0.0247719
-0.0247719
-0.00714437
-0.00714437
0.00926032
0.00926032
0.0698218
0.0698218
0.0425406
0.0425406
-0.0410472
-0.0410472
-0.0109578
-0.0109578
-0.00446275
-0.00446275
-0.073576
-0.073576
-0.00244421
-0.00244421
0.00578359
0.00578359
0.00554892
0.00554892
0.0214168
0.0214168
-0.00519356
-0.00519356
0.000193646
0.000193646
-0.0385254
-0.0385254
0.00734865
0.00734865
0.0184327
0.0184327
-0.00612626
-0.00612626
0.0346526
0.0346526
0.118389
0.118389
-0.0567403
-0.0567403
-0.0358306
-0.0358306
-0.0318109
-0.0318109
0.00936515
0.00936515
-0.0221917
-0.0221917
0.0271021
0.0271021
0.0322617
0.0322617
-0.00432806
-0.00432806
0.057813
0.057813
-0.0245326
-0.0245326
0.00435446
0.00435446
-0.0859393
-0.0859393
0.00960676
0.00960676
0.0505385
0.0505385
-0.00764602
-0.00764602
-0.0101686
-0.0101686
0.04646
0.04646
0.0154976
0.0154976
-0.00993097
-0.00993097
0.0799454
0.0799454
0.0107168
0.0107168
-0.00957607
-0.00957607
-0.00769104
-0.00769104
-0.0107652
-0.0107652
-0.0168696
-0.0168696
0.118062
0.118062
0.0289905
0.0289905
-0.00555583
-0.00555583
-0.0203621
-0.0203621
0.00709191
0.00709191
-0.0776486
-0.0776486
0.00303985
0.00303985
0.00657653
0.00657653
0.0100055
0.0100055
0.00591818
0.00591818
-0.0559881
-0.0559881
0.0072334
0.0072334
0.00797085
0.00797085
-0.0106701
-0.0106701
0.0078408
0.0078408
-0.000328283
-0.000328283
0.0124217
0.0124217
-0.0951912
-0.0951912
-0.0132024
-0.0132024
-0.00302691
-0.00302691
-0.00829968
-0.00829968
-0.00276476
-0.00276476
0.00369872
0.00369872
0.00590917
0.00590917
0.0194712
0.0194712
-0.013462
-0.013462
-0.0426217
-0.0426217
-0.00611004
-0.00611004
0.177876
0.177876
-0.00715825
-0.00715825
-0.030474
-0.030474
0.0307762
0.0307762
-0.151559
-0.151559
-0.0271237
-0.0271237
-0.0493543
-0.0493543
0.105453
0.105453
-0.000954965
-0.000954965
0.00673714
0.00673714
-0.0207409
-0.0207409
-0.0129889
-0.0129889
0.00728804
0.00728804
-0.0371846
-0.0371846
-0.0965804
-0.0965804
-0.0263596
-0.0263596
-0.00158222
-0.00158222
0.00289447
0.00289447
-0.00284026
-0.00284026
-0.0122609
-0.0122609
-0.0830152
-0.0830152
-0.00698875
-0.00698875
-0.0893491
-0.0893491
0.00538286
0.00538286
-0.0181768
-0.0181768
0.0104611
0.0104611
-0.0225936
-0.0225936
-0.0192426
-0.0192426
-0.0141823
-0.0141823
-0.0241913
-0.0241913
-0.0866675
-0.0866675
0.0111471
0.0111471
-0.00599617
-0.00599617
0.0244346
0.0244346
-0.00220707
-0.00220707
0.0199772
0.0199772
-0.00582971
-0.00582971
0.0221688
0.0221688
-0.0599097
-0.0599097
-0.0127053
-0.0127053
0.0729586
0.0729586
0.000636828
0.000636828
-0.0162116
-0.0162116
0.0201213
0.0201213
0.0115552
0.0115552
-0.0229846
-0.0229846
0.00722271
0.00722271
0.0989291
0.0989291
-0.0040493
-0.0040493
-0.00771359
-0.00771359
0.0198789
0.0198789
-0.0239147
-0.0239147
-0.0038344
-0.0038344
0.00756753
0.00756753
-0.00351721
-0.00351721
0.0656285
0.0656285
0.00945589
0.00945589
0.0013498
0.0013498
-0.00237913
-0.00237913
-0.00687468
-0.00687468
0.0128062
0.0128062
0.0116317
0.0116317
-0.0100124
-0.0100124
-0.0657786
-0.0657786
0.0174805
0.0174805
-0.00344552
-0.00344552
0.00079314
0.00079314
0.000949744
0.000949744
-0.0626526
-0.0626526
0.00737754
0.00737754
0.0248135
0.0248135
-0.0208214
-0.0208214
-0.00220308
-0.00220308
-0.0409189
-0.0409189
0.0101585
0.0101585
0.0021495
0.0021495
-0.00165161
-0.00165161
0.0054525
0.0054525
0.15143
0.15143
0.0560597
0.0560597
0.0453811
0.0453811
-0.00284119
-0.00284119
-0.0185775
-0.0185775
-0.00668325
-0.00668325
0.0314113
0.0314113
-0.022734
-0.022734
0.00611441
0.00611441
-0.00769785
-0.00769785
-0.0206357
-0.0206357
-0.104082
-0.104082
-0.00425814
-0.00425814
-0.0103559
-0.0103559
-0.0132894
-0.0132894
0.00633949
0.00633949
-0.0585162
-0.0585162
-0.00602206
-0.00602206
0.0127602
0.0127602
-0.013508
-0.013508
-0.0108406
-0.0108406
0.00744276
0.00744276
-0.173484
-0.173484
0.00236656
0.00236656
-0.00183298
-0.00183298
-0.0394774
-0.0394774
0.00072984
0.00072984
-0.014895
-0.014895
0.00614532
0.00614532
-0.0142987
-0.0142987
-0.00512739
-0.00512739
0.00712591
0.00712591
0.00760662
0.00760662
0.00570689
0.00570689
0.044168
0.044168
-0.0291561
-0.0291561
0.0487296
0.0487296
-0.015282
-0.015282
0.0615153
0.0615153
-0.00921553
-0.00921553
-0.0127967
-0.0127967
-0.0154149
-0.0154149
0.00450699
0.00450699
-0.00784561
-0.00784561
-0.00707709
-0.00707709
0.00495426
0.00495426
-0.0125419
-0.0125419
0.00122696
0.00122696
-0.00692782
-0.00692782
0.0929033
0.0929033
0.00614609
0.00614609
-0.00864258
-0.00864258
-0.0185557
-0.0185557
0.00377757
0.00377757
0.0330066
0.0330066
-0.0338911
-0.0338911
-0.00815192
-0.00815192
-0.0077274
-0.0077274
-0.00107768
-0.00107768
-0.0807799
-0.0807799
-0.00314236
-0.00314236
0.0995217
0.0995217
-0.0151705
-0.0151705
-0.00328894
-0.00328894
0.0149819
0.0149819
-0.0163937
-0.0163937
0.0850884
0.0850884
-0.02707
-0.02707
-0.00588846
-0.00588846
-0.0100576
-0.0100576
-0.0106216
-0.0106216
0.00567867
0.00567867
0.0147449
0.0147449
0.0062563
0.0062563
-0.00318366
-0.00318366
-0.0487824
-0.0487824
-0.00760888
-0.00760888
0.00279723
0.00279723
0.00419361
0.00419361
-0.0435582
-0.0435582
0.0706706
0.0706706
0.00366632
0.00366632
0.0495726
0.0495726
0.0172299
0.0172299
0.0470243
0.0470243
-0.00479685
-0.00479685
-0.00990926
-0.00990926
0.0111339
0.0111339
-0.0146216
-0.0146216
0.0983076
0.0983076
-0.00751446
-0.00751446
0.0450783
0.0450783
0.0179141
0.0179141
-0.17167
-0.17167
0.0937997
0.0937997
-0.00393584
-0.00393584
-0.00679523
-0.00679523
0.132593
0.132593
0.0164695
0.0164695
0.00271794
0.00271794
0.0870765
0.0870765
0.00616964
0.00616964
0.0477176
0.0477176
0.0111901
0.0111901
-0.00123629
-0.00123629
-0.0150801
-0.0150801
0.0130156
0.0130156
-0.0149751
-0.0149751
-0.105884
-0.105884
0.0146671
0.0146671
0.00417852
0.00417852
-0.126068
-0.126068
-0.00219393
-0.00219393
-0.0515644
-0.0515644
0.0077483
0.0077483
-0.00646687
-0.00646687
0.0100446
0.0100446
0.0102304
0.0102304
-0.00684423
-0.00684423
0.000854655
0.000854655
-0.0154071
-0.0154071
-0.00419689
-0.00419689
0.0470375
0.0470375
-0.00266802
-0.00266802
0.00559368
0.00559368
0.00325349
0.00325349
0.033302
0.033302
-0.0136876
-0.0136876
-0.00186895
-0.00186895
0.00682137
0.00682137
-0.127603
-0.127603
0.00808433
0.00808433
-0.00419738
-0.00419738
0.0152084
0.0152084
-0.00136441
-0.00136441
0.00234197
0.00234197
-0.00547092
-0.00547092
0.00177891
0.00177891
-0.00434451
-0.00434451
0.033924
0.033924
-0.00950786
-0.00950786
0.0462698
0.0462698
-0.0424533
-0.0424533
-0.048337
-0.048337
0.108617
0.108617
0.000107436
0.000107436
0.144872
0.144872
0.0963163
0.0963163
-0.0036618
-0.0036618
-0.0991657
-0.0991657
-0.00977669
-0.00977669
0.0437455
0.0437455
0.013555
0.013555
-0.05046
-0.05046
0.000599343
0.000599343
-0.00305346
-0.00305346
0.0198442
0.0198442
-0.162607
-0.162607
-0.00412395
-0.00412395
0.12464
0.12464
0.0034679
0.0034679
0.00637756
0.00637756
0.0848688
0.0848688
-0.00993253
-0.00993253
0.00376298
0.00376298
-0.0279258
-0.0279258
0.116033
0.116033
-0.131161
-0.131161
0.034085
0.034085
-0.067612
-0.067612
-0.0224846
-0.0224846
-0.0386753
-0.0386753
0.0174747
0.0174747
0.00435445
0.00435445
-0.0132562
-0.0132562
0.0416519
0.0416519
-0.0472019
-0.0472019
-0.00243236
-0.00243236
0.16474
0.16474
0.0265911
0.0265911
0.00681718
0.00681718
-0.0673723
-0.0673723
-0.0199254
-0.0199254
0.0158452
0.0158452
-0.0290447
-0.0290447
0.0126377
0.0126377
-0.00596728
-0.00596728
0.00867531
0.00867531
0.0902992
0.0902992
0.0137548
0.0137548
-0.0603651
-0.0603651
0.0236294
0.0236294
-0.00317981
-0.00317981
-0.0264499
-0.0264499
0.05312
0.05312
-0.0205145
-0.0205145
0.079825
0.079825
-0.00753083
-0.00753083
0.0471158
0.0471158
-0.12667
-0.12667
-0.0113286
-0.0113286
-0.0186138
-0.0186138
-0.0193616
-0.0193616
-0.00818827
-0.00818827
0.00863051
0.00863051
0.0963018
0.0963018
0.00786321
0.00786321
-0.0293858
-0.0293858
-0.00620479
-0.00620479
-0.00488149
-0.00488149
0.00175961
0.00175961
-0.0858039
-0.0858039
-0.00327594
-0.00327594
-0.0444198
-0.0444198
-0.00227137
-0.00227137
6.29088e-05
6.29088e-05
-0.0151344
-0.0151344
-0.0220095
-0.0220095
-0.0423089
-0.0423089
-0.0996966
-0.0996966
-0.0122451
-0.0122451
0.0358797
0.0358797
0.0195559
0.0195559
0.00248768
0.00248768
0.00283357
0.00283357
0.010823
0.010823
0.00251401
0.00251401
-0.00480437
-0.00480437
-0.00118076
-0.00118076
0.0165323
0.0165323
-0.00693629
-0.00693629
0.00249119
0.00249119
0.00240708
0.00240708
0.000127732
0.000127732
0.0510578
0.0510578
-0.0271661
-0.0271661
0.000264259
0.000264259
-0.0366002
-0.0366002
0.0401701
0.0401701
-0.000424109
-0.000424109
0.00396325
0.00396325
-0.00188127
-0.00188127
-0.0110124
-0.0110124
0.000290522
0.000290522
-0.0169347
-0.0169347
0.0153979
0.0153979
-0.00338322
-0.00338322
0.0125339
0.0125339
7.75665e-05
7.75665e-05
0.00624078
0.00624078
0.0641953
0.0641953
0.00602516
0.00602516
0.0262745
0.0262745
0.000817798
0.000817798
-0.00764701
-0.00764701
0.00151
0.00151
0.0430066
0.0430066
0.0103419
0.0103419
-0.0245706
-0.0245706
-0.00495497
-0.00495497
-0.0605714
-0.0605714
0.00129836
0.00129836
0.0446561
0.0446561
-0.0351601
-0.0351601
0.0135764
0.0135764
-0.0033905
-0.0033905
-0.0315098
-0.0315098
-0.0100189
-0.0100189
-0.0665066
-0.0665066
0.0221874
0.0221874
-0.00148433
-0.00148433
-0.0373871
-0.0373871
-0.00203652
-0.00203652
0.0906722
0.0906722
-0.00761036
-0.00761036
0.0101888
0.0101888
0.0113495
0.0113495
-0.106976
-0.106976
0.0102358
0.0102358
-0.00439305
-0.00439305
0.0149038
0.0149038
-0.0183809
-0.0183809
-0.0078829
-0.0078829
-0.00866805
-0.00866805
0.074106
0.074106
-0.0195952
-0.0195952
0.083534
0.083534
-0.0417817
-0.0417817
2.99833e-05
2.99833e-05
-0.000746429
-0.000746429
0.0599978
0.0599978
0.0180769
0.0180769
0.00475008
0.00475008
-0.0163157
-0.0163157
-0.00474156
-0.00474156
0.0908582
0.0908582
-0.00196662
-0.00196662
0.0366154
0.0366154
-0.0100452
-0.0100452
-0.0138684
-0.0138684
0.00388926
0.00388926
0.0619449
0.0619449
0.000300302
0.000300302
0.0210677
0.0210677
0.00575405
0.00575405
-0.0351592
-0.0351592
0.0159427
0.0159427
-0.107985
-0.107985
-0.00551264
-0.00551264
0.0129243
0.0129243
-0.0438733
-0.0438733
0.05508
0.05508
0.00720045
0.00720045
-0.0149021
-0.0149021
-0.00615532
-0.00615532
-0.0396642
-0.0396642
0.0506908
0.0506908
-0.00626023
-0.00626023
0.0225198
0.0225198
-0.0163376
-0.0163376
-0.00481612
-0.00481612
-0.0116273
-0.0116273
0.00735211
0.00735211
-0.0404549
-0.0404549
-0.0104122
-0.0104122
-0.00789133
-0.00789133
-5.46427e-06
-5.46427e-06
0.0061536
0.0061536
-0.00456248
-0.00456248
-0.00482467
-0.00482467
-0.00990386
-0.00990386
-0.0109661
-0.0109661
-0.0156903
-0.0156903
-0.0326776
-0.0326776
-0.0475357
-0.0475357
0.00183302
0.00183302
0.00699287
0.00699287
0.0124524
0.0124524
0.144944
0.144944
0.0136164
0.0136164
-0.00765082
-0.00765082
0.0151785
0.0151785
-0.0173483
-0.0173483
-0.00655127
-0.00655127
-0.00266852
-0.00266852
0.010344
0.010344
0.00598853
0.00598853
-0.000317169
-0.000317169
-0.0270556
-0.0270556
-0.0262624
-0.0262624
-0.0226924
-0.0226924
0.00925508
0.00925508
-0.0687546
-0.0687546
0.0130032
0.0130032
0.0136735
0.0136735
0.00655176
0.00655176
-0.00964802
-0.00964802
0.0165502
0.0165502
0.0421227
0.0421227
-0.0180321
-0.0180321
-0.0982027
-0.0982027
0.0594981
0.0594981
0.0767609
0.0767609
0.0263653
0.0263653
0.00988006
0.00988006
0.0183121
0.0183121
-0.0341521
-0.0341521
0.00579232
0.00579232
-0.0228544
-0.0228544
-0.045486
-0.045486
0.123527
0.123527
-0.0289941
-0.0289941
0.0112661
0.0112661
-0.00166875
-0.00166875
0.0301024
0.0301024
-0.000232186
-0.000232186
-0.00230838
-0.00230838
-0.00406415
-0.00406415
-0.0447311
-0.0447311
0.00759379
0.00759379
0.00339765
0.00339765
-0.00280815
-0.00280815
-0.00317958
-0.00317958
-0.00408908
-0.00408908
-0.0118001
-0.0118001
-0.0237889
-0.0237889
0.0329907
0.0329907
0.033674
0.033674
-0.00794789
-0.00794789
-0.0106677
-0.0106677
0.012547
0.012547
-0.0689686
-0.0689686
0.0437022
0.0437022
0.0436429
0.0436429
0.0594545
0.0594545
-0.044134
-0.044134
0.0350014
0.0350014
-0.0118987
-0.0118987
0.0086453
0.0086453
-0.00643152
-0.00643152
0.00621472
0.00621472
-0.062921
-0.062921
-0.012101
-0.012101
0.0981738
0.0981738
0.0133113
0.0133113
-0.0188056
-0.0188056
-0.0155963
-0.0155963
0.00437297
0.00437297
0.00411218
0.00411218
-0.0169201
-0.0169201
-0.000503252
-0.000503252
0.0260632
0.0260632
0.0280025
0.0280025
-0.0188694
-0.0188694
0.0262146
0.0262146
-0.0394021
-0.0394021
-0.0125775
-0.0125775
-0.0205628
-0.0205628
-0.059319
-0.059319
-0.0193012
-0.0193012
-0.00847633
-0.00847633
-0.00154008
-0.00154008
-0.113366
-0.113366
-0.00221435
-0.00221435
0.0180713
0.0180713
-0.00886641
-0.00886641
0.106428
0.106428
-0.00512251
-0.00512251
0.00879132
0.00879132
-0.0103665
-0.0103665
0.0135877
0.0135877
-0.0177683
-0.0177683
0.00559851
0.00559851
-0.0129071
-0.0129071
-0.0147377
-0.0147377
0.0310375
0.0310375
-0.0100583
-0.0100583
0.0939473
0.0939473
-0.0282723
-0.0282723
0.0116863
0.0116863
0.00242652
0.00242652
-0.00721932
-0.00721932
-0.0245162
-0.0245162
-0.00230014
-0.00230014
-0.0144892
-0.0144892
-0.0110977
-0.0110977
0.0234192
0.0234192
0.00747686
0.00747686
0.00450079
0.00450079
-0.149902
-0.149902
-0.00349108
-0.00349108
-0.140978
-0.140978
-0.0184594
-0.0184594
0.0162744
0.0162744
-0.0314519
-0.0314519
-0.0167115
-0.0167115
-0.011999
-0.011999
-0.000132191
-0.000132191
-0.00221998
-0.00221998
-0.0175532
-0.0175532
0.068473
0.068473
0.0112839
0.0112839
0.0123768
0.0123768
-0.0306445
-0.0306445
0.0898095
0.0898095
-0.00492285
-0.00492285
0.0015551
0.0015551
-0.00183607
-0.00183607
-0.0180765
-0.0180765
0.02559
0.02559
-0.0152918
-0.0152918
0.0201493
0.0201493
-0.00702381
-0.00702381
-0.00757891
-0.00757891
0.0509933
0.0509933
-0.00662445
-0.00662445
-0.13367
-0.13367
0.0175096
0.0175096
0.00509022
0.00509022
6.12745e-05
6.12745e-05
-0.0821136
-0.0821136
0.0237131
0.0237131
0.0786408
0.0786408
-0.00271383
-0.00271383
-0.00929147
-0.00929147
0.0214581
0.0214581
-0.0156859
-0.0156859
-0.054474
-0.054474
-0.00659278
-0.00659278
0.0385471
0.0385471
0.0953755
0.0953755
0.0183907
0.0183907
-0.0685498
-0.0685498
-0.0117513
-0.0117513
-0.0755092
-0.0755092
0.0440021
0.0440021
-0.0209975
-0.0209975
0.00986876
0.00986876
-0.0103679
-0.0103679
0.0139908
0.0139908
0.0349298
0.0349298
0.00246292
0.00246292
0.0259671
0.0259671
-0.144315
-0.144315
0.00185309
0.00185309
0.00628348
0.00628348
0.0227994
0.0227994
0.00161702
0.00161702
-0.0348703
-0.0348703
0.00326521
0.00326521
0.000748937
0.000748937
-0.071925
-0.071925
0.00673059
0.00673059
0.00140441
0.00140441
0.00311478
0.00311478
0.00359348
0.00359348
-0.0261528
-0.0261528
0.00986122
0.00986122
-0.0234731
-0.0234731
0.00928406
0.00928406
-0.00397321
-0.00397321
0.00919629
0.00919629
0.000572491
0.000572491
0.0367041
0.0367041
-0.0776119
-0.0776119
0.052812
0.052812
0.0130806
0.0130806
-0.0286647
-0.0286647
-0.00645815
-0.00645815
0.0300044
0.0300044
-0.00424612
-0.00424612
-0.00975849
-0.00975849
0.00658919
0.00658919
-0.0984511
-0.0984511
0.181678
0.181678
-0.0536433
-0.0536433
0.0536484
0.0536484
-0.00483741
-0.00483741
-0.0159208
-0.0159208
0.00286747
0.00286747
-0.0756105
-0.0756105
-0.00542369
-0.00542369
-0.00473042
-0.00473042
-0.0434481
-0.0434481
-0.115204
-0.115204
-0.0334654
-0.0334654
-0.00863273
-0.00863273
-0.0662519
-0.0662519
0.0128289
0.0128289
0.0313036
0.0313036
0.0836212
0.0836212
0.108302
0.108302
0.161171
0.161171
0.00291647
0.00291647
-0.0536244
-0.0536244
-0.00787849
-0.00787849
0.000303951
0.000303951
0.0516969
0.0516969
0.015254
0.015254
0.000656011
0.000656011
-0.0103502
-0.0103502
-0.0131614
-0.0131614
0.0590086
0.0590086
-0.0127451
-0.0127451
0.00364952
0.00364952
-0.014451
-0.014451
-0.0873006
-0.0873006
-0.0236995
-0.0236995
0.00836917
0.00836917
0.134671
0.134671
-0.00292064
-0.00292064
0.014663
0.014663
-0.0155181
-0.0155181
-0.077493
-0.077493
1.5104e-05
1.5104e-05
0.0332055
0.0332055
-0.0488507
-0.0488507
0.032936
0.032936
-0.00679882
-0.00679882
0.137348
0.137348
-0.010643
-0.010643
0.0862421
0.0862421
-0.00199328
-0.00199328
-0.00771058
-0.00771058
-0.00149538
-0.00149538
0.0118098
0.0118098
-0.00284611
-0.00284611
-0.0044412
-0.0044412
-0.0509254
-0.0509254
-0.00128291
-0.00128291
0.00827574
0.00827574
-0.0157359
-0.0157359
0.00660701
0.00660701
0.00611278
0.00611278
-0.000568056
-0.000568056
-0.044239
-0.044239
-0.0450383
-0.0450383
-0.031581
-0.031581
0.150752
0.150752
-0.0091005
-0.0091005
-0.00534975
-0.00534975
-0.00993523
-0.00993523
0.0114254
0.0114254
0.0115297
0.0115297
0.0649521
0.0649521
-0.00192935
-0.00192935
0.0382416
0.0382416
-0.00635233
-0.00635233
-0.0177995
-0.0177995
-0.00722655
-0.00722655
-0.000559595
-0.000559595
0.0211593
0.0211593
-0.023793
-0.023793
-0.101638
-0.101638
0.0740822
0.0740822
0.0995796
0.0995796
0.00470081
0.00470081
-0.0306034
-0.0306034
0.0186104
0.0186104
0.0065243
0.0065243
0.0273187
0.0273187
0.0179479
0.0179479
0.000479152
0.000479152
-0.00200505
-0.00200505
-0.00674997
-0.00674997
0.0868827
0.0868827
-0.0202325
-0.0202325
0.0111478
0.0111478
0.0641569
0.0641569
0.0984669
0.0984669
-0.00731249
-0.00731249
0.0160836
0.0160836
0.0242701
0.0242701
0.0771987
0.0771987
0.00489058
0.00489058
-0.00138441
-0.00138441
0.00146469
0.00146469
-0.0762908
-0.0762908
0.15681
0.15681
-0.0193629
-0.0193629
0.00346658
0.00346658
0.0136708
0.0136708
0.0364501
0.0364501
0.0604841
0.0604841
0.00418393
0.00418393
0.0631741
0.0631741
-0.0728628
-0.0728628
0.0229564
0.0229564
0.0499139
0.0499139
-0.016309
-0.016309
0.0118577
0.0118577
-0.0140066
-0.0140066
-0.0546554
-0.0546554
-0.00691907
-0.00691907
-0.0239438
-0.0239438
-0.107492
-0.107492
0.0424152
0.0424152
0.0104466
0.0104466
0.0177273
0.0177273
-0.00201795
-0.00201795
-0.00289453
-0.00289453
-0.00586061
-0.00586061
0.0298306
0.0298306
0.0621842
0.0621842
-0.0236045
-0.0236045
-0.0978662
-0.0978662
0.0209326
0.0209326
0.0820454
0.0820454
-0.000728873
-0.000728873
0.0310396
0.0310396
0.00334952
0.00334952
-0.00383232
-0.00383232
0.0323239
0.0323239
-0.0178708
-0.0178708
0.0169519
0.0169519
-0.00101495
-0.00101495
0.0465763
0.0465763
-0.041007
-0.041007
0.00051991
0.00051991
-0.015208
-0.015208
-0.000384959
-0.000384959
-0.0586139
-0.0586139
0.151225
0.151225
-0.109388
-0.109388
-0.0652082
-0.0652082
0.0391532
0.0391532
0.0375649
0.0375649
0.142063
0.142063
0.0479469
0.0479469
0.00375675
0.00375675
-0.00481135
-0.00481135
-0.0111207
-0.0111207
-0.0151738
-0.0151738
-0.00671572
-0.00671572
0.127257
0.127257
0.109335
0.109335
-0.0602521
-0.0602521
-0.00138314
-0.00138314
-0.0130917
-0.0130917
-0.006488
-0.006488
-0.0477995
-0.0477995
-0.00537851
-0.00537851
0.00350845
0.00350845
0.0272221
0.0272221
0.0138614
0.0138614
0.0122898
0.0122898
0.0503773
0.0503773
0.000483832
0.000483832
0.160538
0.160538
-0.00175639
-0.00175639
0.0162185
0.0162185
-0.00662544
-0.00662544
-0.0431314
-0.0431314
-0.0406292
-0.0406292
-0.0711856
-0.0711856
0.00776045
0.00776045
0.00632408
0.00632408
-0.0276633
-0.0276633
0.00799974
0.00799974
0.112206
0.112206
0.0239242
0.0239242
-0.0263155
-0.0263155
0.00386997
0.00386997
0.0103111
0.0103111
0.0253698
0.0253698
0.133103
0.133103
0.0672534
0.0672534
-0.0792614
-0.0792614
0.0770416
0.0770416
0.0150019
0.0150019
-0.0198023
-0.0198023
-0.00383783
-0.00383783
0.034233
0.034233
-0.0263533
-0.0263533
-0.00486223
-0.00486223
0.000104281
0.000104281
0.0117761
0.0117761
0.0962493
0.0962493
-0.0773093
-0.0773093
0.00800139
0.00800139
0.0507573
0.0507573
0.0400001
0.0400001
0.00393288
0.00393288
0.015667
0.015667
-0.00784991
-0.00784991
-0.0114565
-0.0114565
-0.0346819
-0.0346819
-0.00428276
-0.00428276
-0.00388639
-0.00388639
-0.00954614
-0.00954614
0.00902145
0.00902145
0.021008
0.021008
0.0201575
0.0201575
0.00690245
0.00690245
-0.0250786
-0.0250786
0.0732594
0.0732594
-0.0669578
-0.0669578
-0.0535623
-0.0535623
0.0302498
0.0302498
0.0348517
0.0348517
-0.0051278
-0.0051278
0.0472776
0.0472776
-0.00917022
-0.00917022
-0.121249
-0.121249
-0.00788725
-0.00788725
0.00573819
0.00573819
-0.0185339
-0.0185339
-0.112672
-0.112672
0.05237
0.05237
-0.0142194
-0.0142194
0.00166046
0.00166046
-0.012003
-0.012003
0.0133538
0.0133538
-0.00513722
-0.00513722
0.00625303
0.00625303
-0.115711
-0.115711
0.0405474
0.0405474
0.00685174
0.00685174
-0.161903
-0.161903
0.0107632
0.0107632
-3.15268e-06
-3.15268e-06
-0.0703256
-0.0703256
0.00443982
0.00443982
-0.0937459
-0.0937459
0.0365222
0.0365222
-0.00646217
-0.00646217
0.0103634
0.0103634
0.0203543
0.0203543
0.0795609
0.0795609
-0.011937
-0.011937
-0.00786475
-0.00786475
-0.0161906
-0.0161906
0.000372704
0.000372704
0.00551282
0.00551282
0.149196
0.149196
0.000951733
0.000951733
0.0293033
0.0293033
0.0252389
0.0252389
0.141968
0.141968
-0.0213152
-0.0213152
-0.00560988
-0.00560988
-0.00965927
-0.00965927
-0.00414898
-0.00414898
-1.27773e-06
-1.27773e-06
-0.00785521
-0.00785521
0.0119968
0.0119968
0.0109071
0.0109071
-0.00950089
-0.00950089
-0.00594303
-0.00594303
-0.0167078
-0.0167078
0.121526
0.121526
-0.0283923
-0.0283923
0.00133554
0.00133554
0.0120506
0.0120506
-0.0243496
-0.0243496
-0.00355585
-0.00355585
0.0119053
0.0119053
0.00708938
0.00708938
-0.00337919
-0.00337919
0.00387655
0.00387655
0.0132576
0.0132576
0.00285217
0.00285217
0.0161782
0.0161782
0.0150595
0.0150595
-0.00854485
-0.00854485
0.0240836
0.0240836
-0.0206741
-0.0206741
-0.0200951
-0.0200951
-0.106439
-0.106439
0.00873021
0.00873021
-0.0101288
-0.0101288
0.0428031
0.0428031
-0.0324525
-0.0324525
0.055569
0.055569
-0.00438825
-0.00438825
-0.0100879
-0.0100879
0.0227604
0.0227604
0.000967169
0.000967169
0.0157256
0.0157256
0.00833426
0.00833426
-0.00208799
-0.00208799
-0.00270618
-0.00270618
-0.0458583
-0.0458583
-0.0101021
-0.0101021
0.0389044
0.0389044
0.011079
0.011079
-0.00699625
-0.00699625
-0.00812458
-0.00812458
-0.000568401
-0.000568401
-0.0746615
-0.0746615
0.015825
0.015825
0.0107467
0.0107467
-0.0162925
-0.0162925
0.0223085
0.0223085
0.00530842
0.00530842
-0.00827664
-0.00827664
-0.00931275
-0.00931275
-0.00392908
-0.00392908
-0.0109067
-0.0109067
-0.00859409
-0.00859409
-0.0380423
-0.0380423
-0.0734753
-0.0734753
0.0232539
0.0232539
-0.00314689
-0.00314689
-0.0270118
-0.0270118
-0.0377142
-0.0377142
-0.0611154
-0.0611154
-0.015751
-0.015751
0.00826558
0.00826558
0.0622594
0.0622594
0.0270034
0.0270034
-0.0176286
-0.0176286
-0.00759999
-0.00759999
-0.0127834
-0.0127834
-0.00528226
-0.00528226
0.0106861
0.0106861
0.00496369
0.00496369
0.0133328
0.0133328
-0.0122533
-0.0122533
-0.0267458
-0.0267458
-0.0918204
-0.0918204
-0.0105953
-0.0105953
0.0166365
0.0166365
-0.0235392
-0.0235392
-0.00162333
-0.00162333
0.0812365
0.0812365
-0.0159413
-0.0159413
-0.0230519
-0.0230519
0.0297349
0.0297349
-0.0430893
-0.0430893
-0.00116755
-0.00116755
0.0467856
0.0467856
0.00830071
0.00830071
0.0172672
0.0172672
0.0212735
0.0212735
-0.00327763
-0.00327763
0.00254768
0.00254768
-0.0167635
-0.0167635
-0.0105532
-0.0105532
-0.0101211
-0.0101211
0.00276596
0.00276596
0.0400752
0.0400752
0.00755647
0.00755647
-0.00472529
-0.00472529
0.0112371
0.0112371
0.112604
0.112604
0.0496073
0.0496073
0.0697212
0.0697212
-0.00248882
-0.00248882
-0.00152013
-0.00152013
0.049252
0.049252
-0.00328477
-0.00328477
0.0407288
0.0407288
0.0117377
0.0117377
0.00930646
0.00930646
0.00706772
0.00706772
-0.162178
-0.162178
-0.021901
-0.021901
-0.0458757
-0.0458757
-0.00866493
-0.00866493
-0.00760816
-0.00760816
0.00126189
0.00126189
0.000803578
0.000803578
0.00176975
0.00176975
-0.0076213
-0.0076213
0.0028876
0.0028876
-0.0548944
-0.0548944
-0.0492059
-0.0492059
0.0114595
0.0114595
0.00552046
0.00552046
0.0657032
0.0657032
-0.00318381
-0.00318381
-0.00932799
-0.00932799
0.0306183
0.0306183
0.00578795
0.00578795
0.102708
0.102708
-0.0199501
-0.0199501
0.038354
0.038354
0.0058655
0.0058655
-0.0972551
-0.0972551
0.0181521
0.0181521
-0.00330913
-0.00330913
0.154288
0.154288
-0.00875732
-0.00875732
-0.00670295
-0.00670295
-0.0688353
-0.0688353
-0.0516755
-0.0516755
0.00983279
0.00983279
0.0129211
0.0129211
-0.108903
-0.108903
-0.00270543
-0.00270543
0.054411
0.054411
0.00765253
0.00765253
-0.0774247
-0.0774247
-0.0015355
-0.0015355
0.0103816
0.0103816
0.0763306
0.0763306
-0.000916655
-0.000916655
-0.000495876
-0.000495876
0.0188336
0.0188336
-0.0559167
-0.0559167
0.00722995
0.00722995
-0.0926389
-0.0926389
-0.0110074
-0.0110074
0.00161185
0.00161185
-0.0169785
-0.0169785
-0.0591534
-0.0591534
0.0203
0.0203
0.006688
0.006688
0.00705843
0.00705843
-0.0177009
-0.0177009
-0.00148418
-0.00148418
0.0125157
0.0125157
-0.000696014
-0.000696014
0.0173613
0.0173613
0.00340517
0.00340517
-0.0255292
-0.0255292
0.0260544
0.0260544
0.0179479
0.0179479
-0.0976239
-0.0976239
-0.0510004
-0.0510004
-0.00793578
-0.00793578
-0.0217687
-0.0217687
0.00277515
0.00277515
-0.00397515
-0.00397515
0.0061139
0.0061139
0.00804974
0.00804974
0.0268821
0.0268821
0.0342621
0.0342621
-0.00927363
-0.00927363
0.0133695
0.0133695
0.00749995
0.00749995
0.054672
0.054672
0.050645
0.050645
0.0112069
0.0112069
0.0107915
0.0107915
0.0546679
0.0546679
-0.042351
-0.042351
0.00289327
0.00289327
0.0339797
0.0339797
-0.107588
-0.107588
-0.112708
-0.112708
-0.0066517
-0.0066517
0.0434828
0.0434828
-0.00556708
-0.00556708
0.00523427
0.00523427
-0.00352539
-0.00352539
-0.0464749
-0.0464749
-0.0112881
-0.0112881
-0.0188706
-0.0188706
-0.0296893
-0.0296893
0.0704312
0.0704312
-0.0499099
-0.0499099
-0.0118341
-0.0118341
0.0129758
0.0129758
-0.0203606
-0.0203606
0.007762
0.007762
-0.0708299
-0.0708299
-0.00155084
-0.00155084
-0.00540312
-0.00540312
0.00868416
0.00868416
0.00619488
0.00619488
0.0088463
0.0088463
-0.00114576
-0.00114576
0.0171115
0.0171115
0.00931059
0.00931059
-0.00836114
-0.00836114
0.0784138
0.0784138
0.0294889
0.0294889
0.00917176
0.00917176
0.00831688
0.00831688
-0.0632189
-0.0632189
0.000397664
0.000397664
-0.126419
-0.126419
0.0241242
0.0241242
-0.00907597
-0.00907597
0.0488175
0.0488175
0.0235737
0.0235737
0.0961559
0.0961559
0.0139958
0.0139958
0.0199461
0.0199461
-0.00146538
-0.00146538
-8.08187e-05
-8.08187e-05
0.0774773
0.0774773
-0.000961575
-0.000961575
0.00396756
0.00396756
0.0295435
0.0295435
0.0685642
0.0685642
-0.0365707
-0.0365707
-0.000144342
-0.000144342
0.0635884
0.0635884
0.0168939
0.0168939
0.042276
0.042276
-0.0177744
-0.0177744
0.000350836
0.000350836
-0.218019
-0.218019
0.00856997
0.00856997
0.00104246
0.00104246
-0.0881639
-0.0881639
0.00239419
0.00239419
-0.0144122
-0.0144122
0.0356004
0.0356004
-0.00877774
-0.00877774
0.0366803
0.0366803
0.000110172
0.000110172
0.0423645
0.0423645
-0.0156884
-0.0156884
0.0135617
0.0135617
0.0305413
0.0305413
-0.0240453
-0.0240453
-0.000207332
-0.000207332
0.0085486
0.0085486
-0.0104132
-0.0104132
0.0303141
0.0303141
0.0138686
0.0138686
-0.0375564
-0.0375564
0.00310504
0.00310504
-0.110175
-0.110175
0.00970922
0.00970922
0.173547
0.173547
-0.0853005
-0.0853005
0.019339
0.019339
-0.0069152
-0.0069152
0.0623625
0.0623625
-0.0123208
-0.0123208
-0.000734357
-0.000734357
0.00682943
0.00682943
-0.00923411
-0.00923411
0.021964
0.021964
-0.00615292
-0.00615292
-0.00324526
-0.00324526
0.00122254
0.00122254
-0.0827552
-0.0827552
0.00703039
0.00703039
-0.01933
-0.01933
0.00158994
0.00158994
0.0288685
0.0288685
0.00730109
0.00730109
0.00692369
0.00692369
0.0171046
0.0171046
0.120742
0.120742
0.00254775
0.00254775
0.00754348
0.00754348
0.10996
0.10996
-0.0336367
-0.0336367
0.0370384
0.0370384
0.00139498
0.00139498
-0.00189107
-0.00189107
0.0395895
0.0395895
-0.0098161
-0.0098161
-0.0314334
-0.0314334
0.016396
0.016396
-0.00417157
-0.00417157
-0.000135843
-0.000135843
0.0311265
0.0311265
0.000356897
0.000356897
0.0117462
0.0117462
-0.00382029
-0.00382029
-0.00311064
-0.00311064
-0.00450771
-0.00450771
-0.00387135
-0.00387135
-0.0143553
-0.0143553
-0.0118552
-0.0118552
0.054373
0.054373
0.00564392
0.00564392
-0.0240546
-0.0240546
0.00752258
0.00752258
0.0043688
0.0043688
0.0258095
0.0258095
0.00694362
0.00694362
0.00190166
0.00190166
-0.00457342
-0.00457342
-0.00461376
-0.00461376
-0.00476535
-0.00476535
0.0194541
0.0194541
-0.00881542
-0.00881542
-0.0204088
-0.0204088
-0.0148407
-0.0148407
0.00320552
0.00320552
0.0129532
0.0129532
-0.12818
-0.12818
0.00602805
0.00602805
0.00715288
0.00715288
-0.018231
-0.018231
0.0237157
0.0237157
-0.0467697
-0.0467697
0.00121885
0.00121885
0.0155675
0.0155675
0.00681214
0.00681214
-0.0121453
-0.0121453
0.0177449
0.0177449
0.0464337
0.0464337
-0.0194781
-0.0194781
-0.0030921
-0.0030921
-0.00730075
-0.00730075
0.00259212
0.00259212
-0.00525734
-0.00525734
-0.0330885
-0.0330885
0.0154012
0.0154012
-0.0934543
-0.0934543
0.0575675
0.0575675
0.0101077
0.0101077
-0.00567446
-0.00567446
-0.0255773
-0.0255773
-0.00901364
-0.00901364
0.0441833
0.0441833
-0.025295
-0.025295
0.00153214
0.00153214
0.0727892
0.0727892
0.0519762
0.0519762
-0.0791212
-0.0791212
-0.00755414
-0.00755414
0.0119989
0.0119989
-0.00414151
-0.00414151
-0.010263
-0.010263
0.00155656
0.00155656
-0.002402
-0.002402
0.0072083
0.0072083
0.000821883
0.000821883
-0.00361444
-0.00361444
0.0672957
0.0672957
0.00174903
0.00174903
0.0263697
0.0263697
-0.00456629
-0.00456629
-2.53249e-05
-2.53249e-05
0.0199169
0.0199169
0.0291751
0.0291751
-0.0863656
-0.0863656
0.0481943
0.0481943
0.00264823
0.00264823
-0.013636
-0.013636
-0.00364995
-0.00364995
-0.00117768
-0.00117768
0.038418
0.038418
0.00296199
0.00296199
-0.0667668
-0.0667668
0.00686145
0.00686145
0.0398387
0.0398387
0.00853145
0.00853145
-0.0064227
-0.0064227
-0.0101996
-0.0101996
0.0149523
0.0149523
0.000186193
0.000186193
0.00726357
0.00726357
0.00644656
0.00644656
-0.0865356
-0.0865356
0.0153376
0.0153376
-0.00513172
-0.00513172
0.00203726
0.00203726
-0.000116093
-0.000116093
-0.00856411
-0.00856411
0.114829
0.114829
-0.0893691
-0.0893691
0.131887
0.131887
0.0218847
0.0218847
-0.0148547
-0.0148547
-0.00139517
-0.00139517
0.0152161
0.0152161
0.00862538
0.00862538
-0.00133447
-0.00133447
0.0189397
0.0189397
0.0836913
0.0836913
0.0244264
0.0244264
0.0802706
0.0802706
0.0165316
0.0165316
-0.00488975
-0.00488975
-0.0121384
-0.0121384
0.0791283
0.0791283
0.0305454
0.0305454
-0.0290034
-0.0290034
-0.0306674
-0.0306674
-0.00544925
-0.00544925
0.00646389
0.00646389
-0.0070041
-0.0070041
-0.00997838
-0.00997838
0.0484203
0.0484203
-0.0140131
-0.0140131
0.01221
0.01221
-0.00646933
-0.00646933
-0.00621346
-0.00621346
0.0494228
0.0494228
-0.00501715
-0.00501715
0.0303001
0.0303001
-0.0253777
-0.0253777
-0.00224665
-0.00224665
0.0134964
0.0134964
0.000149362
0.000149362
-0.0124351
-0.0124351
-0.100672
-0.100672
-0.0716183
-0.0716183
-0.00913328
-0.00913328
-0.00261268
-0.00261268
-0.0337506
-0.0337506
-0.00461726
-0.00461726
-0.0305013
-0.0305013
-0.0134946
-0.0134946
0.0151186
0.0151186
-0.0448987
-0.0448987
0.00321793
0.00321793
0.111098
0.111098
0.0060398
0.0060398
-0.032826
-0.032826
-0.0124081
-0.0124081
-0.012683
-0.012683
-0.0345131
-0.0345131
-0.00399947
-0.00399947
0.125963
0.125963
0.01168
0.01168
0.00383178
0.00383178
0.0585429
0.0585429
0.0270136
0.0270136
-0.0333037
-0.0333037
0.152986
0.152986
-0.000934393
-0.000934393
-0.146184
-0.146184
0.0157556
0.0157556
-0.0198291
-0.0198291
-0.00210945
-0.00210945
-0.00461562
-0.00461562
0.0362128
0.0362128
0.0126326
0.0126326
-0.000608207
-0.000608207
0.0165241
0.0165241
-0.0385228
-0.0385228
0.0519233
0.0519233
0.0681152
0.0681152
-0.0178059
-0.0178059
0.0110428
0.0110428
-0.0246325
-0.0246325
-0.00119694
-0.00119694
-0.00677851
-0.00677851
-0.00720864
-0.00720864
-0.0267979
-0.0267979
-0.0150677
-0.0150677
0.00641726
0.00641726
0.0142083
0.0142083
0.00474142
0.00474142
0.100138
0.100138
0.0174073
0.0174073
0.0522991
0.0522991
-0.0452168
-0.0452168
-0.031139
-0.031139
-0.0081291
-0.0081291
-0.00500759
-0.00500759
0.00377209
0.00377209
-0.09348
-0.09348
0.14189
0.14189
-0.0184314
-0.0184314
-0.0951177
-0.0951177
0.0662967
0.0662967
-0.0842545
-0.0842545
-0.024428
-0.024428
0.0310882
0.0310882
0.0846373
0.0846373
0.0117541
0.0117541
-0.145993
-0.145993
-0.00366056
-0.00366056
0.0019119
0.0019119
0.00855826
0.00855826
-0.00477828
-0.00477828
-0.0066487
-0.0066487
0.0115491
0.0115491
0.0548171
0.0548171
0.00885015
0.00885015
0.0993261
0.0993261
0.0310907
0.0310907
0.111301
0.111301
-0.00570165
-0.00570165
-0.00218817
-0.00218817
0.017273
0.017273
0.00622005
0.00622005
0.00186318
0.00186318
-0.0137552
-0.0137552
-0.0634312
-0.0634312
-0.00928504
-0.00928504
0.00989014
0.00989014
0.00124838
0.00124838
0.0556725
0.0556725
-0.0363563
-0.0363563
-0.000534223
-0.000534223
0.0552234
0.0552234
-0.00272817
-0.00272817
-0.00337907
-0.00337907
0.0164193
0.0164193
0.00624469
0.00624469
0.0767943
0.0767943
-0.0223057
-0.0223057
-0.00474709
-0.00474709
0.00120382
0.00120382
-0.0983836
-0.0983836
-0.000136201
-0.000136201
0.0230456
0.0230456
0.0154742
0.0154742
-0.00398782
-0.00398782
-0.00722936
-0.00722936
-0.00244325
-0.00244325
0.126307
0.126307
-0.00458192
-0.00458192
0.0660319
0.0660319
0.0396445
0.0396445
-0.00387357
-0.00387357
-0.0139731
-0.0139731
0.0161585
0.0161585
0.00132733
0.00132733
-0.00364401
-0.00364401
0.0270716
0.0270716
0.124516
0.124516
0.000105844
0.000105844
-0.00714437
-0.00714437
0.0911404
0.0911404
0.00422479
0.00422479
-0.0260666
-0.0260666
0.0555714
0.0555714
0.00674247
0.00674247
-0.0148142
-0.0148142
-0.00379897
-0.00379897
0.000931104
0.000931104
0.00225454
0.00225454
0.0073257
0.0073257
-0.0823732
-0.0823732
0.0881778
0.0881778
-0.0108116
-0.0108116
-0.0196033
-0.0196033
0.0587141
0.0587141
0.00735417
0.00735417
-0.101408
-0.101408
0.00554967
0.00554967
-0.0171384
-0.0171384
0.058029
0.058029
-0.0131041
-0.0131041
0.00453712
0.00453712
-0.092865
-0.092865
0.0109209
0.0109209
0.0244544
0.0244544
-0.0637906
-0.0637906
0.0187177
0.0187177
0.0179668
0.0179668
0.0395495
0.0395495
-0.0648418
-0.0648418
0.00396593
0.00396593
-0.0127056
-0.0127056
-0.00950423
-0.00950423
-0.00544869
-0.00544869
-0.0107255
-0.0107255
-0.00909249
-0.00909249
0.0138059
0.0138059
-0.0109292
-0.0109292
0.0227434
0.0227434
-0.0105033
-0.0105033
0.0142049
0.0142049
-0.00374721
-0.00374721
-0.00144537
-0.00144537
-0.086773
-0.086773
-0.00524867
-0.00524867
-0.0175938
-0.0175938
0.00568793
0.00568793
-0.0193831
-0.0193831
0.0110295
0.0110295
-0.00520695
-0.00520695
0.030009
0.030009
-0.0423437
-0.0423437
0.000983041
0.000983041
0.0126472
0.0126472
0.00757968
0.00757968
-0.00425272
-0.00425272
-0.00593851
-0.00593851
0.0051034
0.0051034
0.00542357
0.00542357
-0.0244955
-0.0244955
0.00484104
0.00484104
0.0314228
0.0314228
-0.0703286
-0.0703286
0.00725333
0.00725333
-0.00712759
-0.00712759
0.0243972
0.0243972
-0.0124285
-0.0124285
0.013517
0.013517
-0.00354341
-0.00354341
-0.00310654
-0.00310654
0.081972
0.081972
0.0221443
0.0221443
0.00359052
0.00359052
0.0564973
0.0564973
0.0299079
0.0299079
-0.0624747
-0.0624747
0.00379524
0.00379524
-0.0025123
-0.0025123
-0.0406004
-0.0406004
-0.0118312
-0.0118312
-0.0668548
-0.0668548
0.0311243
0.0311243
0.00245952
0.00245952
-0.027864
-0.027864
0.0214523
0.0214523
0.0125678
0.0125678
-0.00213514
-0.00213514
0.00601412
0.00601412
-0.00839209
-0.00839209
0.00175989
0.00175989
-0.00911039
-0.00911039
0.0111497
0.0111497
0.0406543
0.0406543
-0.00334491
-0.00334491
0.0321919
0.0321919
0.0740517
0.0740517
-0.00354296
-0.00354296
0.00589245
0.00589245
0.00331926
0.00331926
-0.0085522
-0.0085522
0.0159404
0.0159404
-0.0142505
-0.0142505
-0.0355755
-0.0355755
-0.00970482
-0.00970482
-0.102964
-0.102964
0.0264907
0.0264907
-0.0505153
-0.0505153
-0.0268642
-0.0268642
0.0217295
0.0217295
-0.0948646
-0.0948646
0.00794366
0.00794366
5.65221e-06
5.65221e-06
-0.0532966
-0.0532966
0.00784666
0.00784666
-0.0124963
-0.0124963
0.0673464
0.0673464
-0.0281064
-0.0281064
-0.000875826
-0.000875826
-0.00647456
-0.00647456
-0.0401631
-0.0401631
0.0242076
0.0242076
0.0142145
0.0142145
0.0120531
0.0120531
0.0127097
0.0127097
0.00776893
0.00776893
0.0313252
0.0313252
0.0565734
0.0565734
-0.0126239
-0.0126239
-0.039414
-0.039414
-0.0872727
-0.0872727
-0.0107958
-0.0107958
0.00676999
0.00676999
-0.0159051
-0.0159051
-7.5532e-06
-7.5532e-06
-0.000811986
-0.000811986
-0.0896359
-0.0896359
-0.00225833
-0.00225833
0.00520323
0.00520323
-0.00142873
-0.00142873
-0.0179214
-0.0179214
-0.00627161
-0.00627161
-0.0409044
-0.0409044
-0.00325199
-0.00325199
-0.00596036
-0.00596036
0.00735315
0.00735315
0.00369558
0.00369558
0.0383998
0.0383998
-0.027809
-0.027809
-0.00432863
-0.00432863
0.00173139
0.00173139
0.0113106
0.0113106
-0.0398251
-0.0398251
-0.114032
-0.114032
-0.00472013
-0.00472013
0.131293
0.131293
0.0157658
0.0157658
-0.0154687
-0.0154687
-0.0194289
-0.0194289
0.139288
0.139288
0.00356703
0.00356703
-0.0166136
-0.0166136
0.00791307
0.00791307
-0.0333902
-0.0333902
-0.030457
-0.030457
-0.136455
-0.136455
0.0497701
0.0497701
-0.0572805
-0.0572805
0.0155539
0.0155539
0.00174781
0.00174781
0.00737829
0.00737829
0.00249284
0.00249284
-0.00866401
-0.00866401
0.0413148
0.0413148
-0.0711299
-0.0711299
-0.00653446
-0.00653446
-5.92342e-05
-5.92342e-05
-0.0167093
-0.0167093
-0.0119279
-0.0119279
0.00689618
0.00689618
-0.0146186
-0.0146186
0.0144091
0.0144091
-0.05164
-0.05164
0.0339955
0.0339955
0.0430467
0.0430467
0.00799607
0.00799607
0.000256258
0.000256258
0.0359082
0.0359082
-0.0525124
-0.0525124
0.00795652
0.00795652
0.0515302
0.0515302
-0.00582874
-0.00582874
-0.0100064
-0.0100064
0.00912243
0.00912243
0.0283536
0.0283536
0.0263112
0.0263112
0.0126715
0.0126715
0.0571732
0.0571732
-0.00859085
-0.00859085
0.0113843
0.0113843
0.0162204
0.0162204
-0.00530993
-0.00530993
-0.0119967
-0.0119967
-0.00695272
-0.00695272
0.014222
0.014222
-0.000674078
-0.000674078
0.0212108
0.0212108
-0.0116229
-0.0116229
0.0284149
0.0284149
0.00375395
0.00375395
0.00790961
0.00790961
-0.0109452
-0.0109452
-0.10646
-0.10646
-0.00327624
-0.00327624
-0.0219779
-0.0219779
0.00764228
0.00764228
0.10604
0.10604
-0.00683083
-0.00683083
0.000932769
0.000932769
0.0391824
0.0391824
-0.0199877
-0.0199877
0.00683722
0.00683722
0.00016175
0.00016175
-0.00159523
-0.00159523
0.00203042
0.00203042
-0.00717839
-0.00717839
-0.100524
-0.100524
-0.00408996
-0.00408996
0.0559397
0.0559397
-0.0171881
-0.0171881
-0.0145466
-0.0145466
-8.31821e-06
-8.31821e-06
-0.0189882
-0.0189882
0.0424269
0.0424269
-0.00530466
-0.00530466
0.0111978
0.0111978
-0.0178724
-0.0178724
-0.00648132
-0.00648132
-0.0927549
-0.0927549
0.00893239
0.00893239
-0.171094
-0.171094
-0.0733242
-0.0733242
0.00273187
0.00273187
-0.0420718
-0.0420718
0.0217257
0.0217257
-0.0160147
-0.0160147
-0.0307544
-0.0307544
0.0432757
0.0432757
0.0171294
0.0171294
0.0122876
0.0122876
0.00798564
0.00798564
-0.00717799
-0.00717799
0.00313272
0.00313272
0.0120477
0.0120477
-0.0351177
-0.0351177
0.0177941
0.0177941
0.00106307
0.00106307
0.00477824
0.00477824
-0.0995031
-0.0995031
-0.00565701
-0.00565701
0.0124591
0.0124591
-0.00704727
-0.00704727
0.00331535
0.00331535
-0.0232697
-0.0232697
0.0152946
0.0152946
0.00152516
0.00152516
-0.0171486
-0.0171486
-0.00213486
-0.00213486
-0.00797846
-0.00797846
0.0268038
0.0268038
-0.007768
-0.007768
0.0117774
0.0117774
0.00489567
0.00489567
0.142012
0.142012
-0.0714408
-0.0714408
-0.00725883
-0.00725883
-0.105236
-0.105236
-0.00293159
-0.00293159
0.040907
0.040907
0.0253059
0.0253059
-0.0218646
-0.0218646
0.00594673
0.00594673
-0.0108659
-0.0108659
0.0174475
0.0174475
0.0068398
0.0068398
-0.0024659
-0.0024659
0.00630583
0.00630583
-0.0656838
-0.0656838
0.00982812
0.00982812
-0.0518109
-0.0518109
0.0302121
0.0302121
-0.00534255
-0.00534255
-0.0401694
-0.0401694
0.00107689
0.00107689
-0.032813
-0.032813
-0.00523899
-0.00523899
0.0309962
0.0309962
-0.0139735
-0.0139735
0.0225114
0.0225114
-0.0181914
-0.0181914
0.00718667
0.00718667
0.0674367
0.0674367
0.0160291
0.0160291
-0.000601038
-0.000601038
-0.0013259
-0.0013259
-0.0138732
-0.0138732
0.012725
0.012725
-0.00470103
-0.00470103
0.00766115
0.00766115
-0.00172342
-0.00172342
0.00286842
0.00286842
0.0027946
0.0027946
0.00543057
0.00543057
0.0168596
0.0168596
-0.00518858
-0.00518858
0.0298412
0.0298412
0.0206019
0.0206019
-0.0101259
-0.0101259
-0.0694614
-0.0694614
0.020848
0.020848
-0.014327
-0.014327
-0.00706053
-0.00706053
0.00149007
0.00149007
-0.0151818
-0.0151818
-0.0310097
-0.0310097
0.00365884
0.00365884
-0.0381402
-0.0381402
-0.0861337
-0.0861337
-0.0129075
-0.0129075
0.00655078
0.00655078
0.0382993
0.0382993
0.0108837
0.0108837
0.0181664
0.0181664
0.0124321
0.0124321
0.00448984
0.00448984
0.0389312
0.0389312
0.00292682
0.00292682
0.0352101
0.0352101
0.00315054
0.00315054
-0.0146765
-0.0146765
-0.0223727
-0.0223727
-0.000376633
-0.000376633
-0.0221343
-0.0221343
0.00267158
0.00267158
-0.025318
-0.025318
0.0172638
0.0172638
0.0272686
0.0272686
-0.000673654
-0.000673654
-0.0101708
-0.0101708
0.0133961
0.0133961
-0.124151
-0.124151
0.141149
0.141149
-0.030344
-0.030344
0.0272469
0.0272469
0.0485552
0.0485552
0.00456314
0.00456314
-0.000188455
-0.000188455
-0.0382248
-0.0382248
0.00624455
0.00624455
0.0460059
0.0460059
0.00491886
0.00491886
-2.36467e-05
-2.36467e-05
0.00653533
0.00653533
0.0563402
0.0563402
-0.0141976
-0.0141976
-0.0302174
-0.0302174
-0.0262866
-0.0262866
-0.0185352
-0.0185352
-0.0138217
-0.0138217
-0.0227684
-0.0227684
0.026951
0.026951
0.0145223
0.0145223
0.00452272
0.00452272
-0.120007
-0.120007
-0.00442164
-0.00442164
-0.00665892
-0.00665892
0.130229
0.130229
0.00433102
0.00433102
-0.00011326
-0.00011326
-0.0159889
-0.0159889
0.118482
0.118482
0.00244555
0.00244555
-0.00772466
-0.00772466
0.0385085
0.0385085
-0.0102438
-0.0102438
-0.167001
-0.167001
0.00431034
0.00431034
-0.0223731
-0.0223731
0.0199
0.0199
-0.0569613
-0.0569613
-0.0181867
-0.0181867
-0.0277004
-0.0277004
-0.032673
-0.032673
-0.0359895
-0.0359895
-0.0353393
-0.0353393
0.00701088
0.00701088
-0.00367469
-0.00367469
-0.00890289
-0.00890289
0.0859479
0.0859479
0.0227568
0.0227568
0.00483738
0.00483738
0.0979772
0.0979772
-0.00994972
-0.00994972
0.0028631
0.0028631
-0.0121878
-0.0121878
0.0107975
0.0107975
0.0922686
0.0922686
-0.0139575
-0.0139575
0.0404582
0.0404582
-0.0356535
-0.0356535
-0.0902201
-0.0902201
-0.0042066
-0.0042066
-0.0229991
-0.0229991
-0.0136445
-0.0136445
-0.130659
-0.130659
0.0101516
0.0101516
0.00747785
0.00747785
0.013868
0.013868
0.0122224
0.0122224
0.0317586
0.0317586
0.00366866
0.00366866
0.00152978
0.00152978
0.00527833
0.00527833
-0.00054577
-0.00054577
0.00876354
0.00876354
-0.00205824
-0.00205824
0.0149235
0.0149235
0.00304469
0.00304469
-0.0202676
-0.0202676
0.0163319
0.0163319
-0.0541905
-0.0541905
0.0110283
0.0110283
-0.0113089
-0.0113089
0.00720554
0.00720554
0.0158216
0.0158216
0.00373387
0.00373387
0.0170948
0.0170948
-0.00274789
-0.00274789
-0.0315794
-0.0315794
-0.0256952
-0.0256952
0.00597607
0.00597607
0.0232744
0.0232744
0.00212148
0.00212148
0.00675236
0.00675236
0.0586894
0.0586894
-0.00105318
-0.00105318
0.0115797
0.0115797
0.00407863
0.00407863
-0.137573
-0.137573
0.013929
0.013929
0.00421996
0.00421996
0.00969156
0.00969156
0.00855626
0.00855626
-0.00238616
-0.00238616
-0.0781715
-0.0781715
0.0189707
0.0189707
0.00340092
0.00340092
-0.0355789
-0.0355789
-0.0176505
-0.0176505
0.00893589
0.00893589
-0.00934306
-0.00934306
0.196817
0.196817
-0.0208744
-0.0208744
0.00803479
0.00803479
0.025572
0.025572
-0.0552184
-0.0552184
-0.00229933
-0.00229933
-0.00235001
-0.00235001
-0.0547538
-0.0547538
0.000363434
0.000363434
-0.0220732
-0.0220732
0.0243961
0.0243961
0.00638256
0.00638256
0.021303
0.021303
-0.0735901
-0.0735901
0.0361741
0.0361741
-0.0032466
-0.0032466
0.0081379
0.0081379
0.00385127
0.00385127
-0.00487586
-0.00487586
0.0303471
0.0303471
-0.0614994
-0.0614994
0.00982138
0.00982138
-0.00785261
-0.00785261
0.00557302
0.00557302
-0.00493461
-0.00493461
0.00921751
0.00921751
0.0110017
0.0110017
-0.0189534
-0.0189534
-0.00429704
-0.00429704
-0.0465731
-0.0465731
-0.0587907
-0.0587907
0.0370686
0.0370686
-0.00914831
-0.00914831
0.105431
0.105431
0.000797875
0.000797875
-0.00590974
-0.00590974
0.0637805
0.0637805
-0.00411225
-0.00411225
-0.0236575
-0.0236575
-0.00554291
-0.00554291
-0.0114925
-0.0114925
0.0135675
0.0135675
-0.0284616
-0.0284616
-0.0626102
-0.0626102
0.0142847
0.0142847
0.00762382
0.00762382
0.0361737
0.0361737
0.0408551
0.0408551
0.0348559
0.0348559
0.129189
0.129189
0.026754
0.026754
-0.0237263
-0.0237263
0.104045
0.104045
-0.0350714
-0.0350714
0.00890209
0.00890209
0.00609652
0.00609652
-0.000133522
-0.000133522
0.0146793
0.0146793
-0.0120875
-0.0120875
-0.0559963
-0.0559963
0.00836515
0.00836515
-0.000419469
-0.000419469
-0.0511405
-0.0511405
0.0043765
0.0043765
0.0269867
0.0269867
-0.156065
-0.156065
0.0319081
0.0319081
-0.00624212
-0.00624212
0.00535963
0.00535963
0.0123465
0.0123465
0.00717902
0.00717902
-0.0272679
-0.0272679
0.00142438
0.00142438
0.00323497
0.00323497
0.0495589
0.0495589
0.047556
0.047556
-0.00153006
-0.00153006
0.0708264
0.0708264
-0.0194682
-0.0194682
0.0100252
0.0100252
-0.0124633
-0.0124633
0.00706368
0.00706368
0.0983151
0.0983151
0.0140072
0.0140072
-0.0103126
-0.0103126
0.00115705
0.00115705
0.0306643
0.0306643
-0.0184255
-0.0184255
-0.0175931
-0.0175931
0.00980453
0.00980453
-0.0582712
-0.0582712
-0.0056299
-0.0056299
0.00601436
0.00601436
-0.00694905
-0.00694905
-0.0780469
-0.0780469
0.0507895
0.0507895
0.00639215
0.00639215
0.00460094
0.00460094
0.00339441
0.00339441
0.0265053
0.0265053
0.0856138
0.0856138
-0.000893351
-0.000893351
0.0167925
0.0167925
-0.0149694
-0.0149694
0.0618785
0.0618785
-0.00800013
-0.00800013
0.00700537
0.00700537
-0.0794924
-0.0794924
-0.0866824
-0.0866824
-0.0571928
-0.0571928
-0.0291944
-0.0291944
-0.082946
-0.082946
-0.019392
-0.019392
0.00437864
0.00437864
0.00404409
0.00404409
0.0276446
0.0276446
-0.0981211
-0.0981211
-0.101275
-0.101275
0.123263
0.123263
0.0011923
0.0011923
-0.0233166
-0.0233166
-0.030223
-0.030223
0.0686789
0.0686789
0.00916335
0.00916335
-0.0379744
-0.0379744
0.0271284
0.0271284
0.00211623
0.00211623
0.0637233
0.0637233
0.0725137
0.0725137
0.028527
0.028527
-0.00190144
-0.00190144
-0.0466776
-0.0466776
-0.0279111
-0.0279111
0.031593
0.031593
0.0356384
0.0356384
-0.0464146
-0.0464146
0.0181686
0.0181686
-0.0446297
-0.0446297
0.0607111
0.0607111
-0.0511021
-0.0511021
0.00371941
0.00371941
0.00293953
0.00293953
-0.00546902
-0.00546902
0.0239711
0.0239711
-0.112693
-0.112693
0.00385862
0.00385862
-0.0101285
-0.0101285
-0.00415206
-0.00415206
0.0854692
0.0854692
-0.0104659
-0.0104659
-0.0416052
-0.0416052
-0.00135645
-0.00135645
0.0619242
0.0619242
0.0484463
0.0484463
0.0145997
0.0145997
-0.0263428
-0.0263428
-0.107644
-0.107644
0.0136107
0.0136107
-0.020227
-0.020227
-0.0171313
-0.0171313
-0.0373779
-0.0373779
0.0100397
0.0100397
-0.027651
-0.027651
0.0084963
0.0084963
0.0569613
0.0569613
-0.0187114
-0.0187114
0.0535457
0.0535457
0.0122699
0.0122699
0.00218306
0.00218306
-0.00253373
-0.00253373
-0.00845664
-0.00845664
0.00801868
0.00801868
0.0146227
0.0146227
0.119879
0.119879
0.140333
0.140333
-0.0437074
-0.0437074
-0.00422472
-0.00422472
-0.00396232
-0.00396232
0.000509407
0.000509407
-0.0284488
-0.0284488
-0.00754988
-0.00754988
-0.00968762
-0.00968762
-0.0387721
-0.0387721
0.0102185
0.0102185
0.035847
0.035847
0.0070618
0.0070618
0.00740811
0.00740811
-0.00152774
-0.00152774
0.0114339
0.0114339
0.0578589
0.0578589
0.00263762
0.00263762
0.125698
0.125698
-0.00570867
-0.00570867
0.0180116
0.0180116
-0.00170508
-0.00170508
-0.00188648
-0.00188648
0.00785992
0.00785992
-0.00879801
-0.00879801
-0.000752119
-0.000752119
0.000510033
0.000510033
-0.0342183
-0.0342183
-0.00936799
-0.00936799
0.0142592
0.0142592
-0.00386741
-0.00386741
-0.0155696
-0.0155696
-0.00133554
-0.00133554
0.0613371
0.0613371
0.0097572
0.0097572
-0.0223943
-0.0223943
-0.00472124
-0.00472124
-0.00751326
-0.00751326
-0.0124547
-0.0124547
-0.017556
-0.017556
0.00652142
0.00652142
-0.0160069
-0.0160069
0.0568194
0.0568194
-0.00321482
-0.00321482
-0.0124232
-0.0124232
0.00356132
0.00356132
0.0812643
0.0812643
-0.00626494
-0.00626494
0.0219338
0.0219338
-0.0129408
-0.0129408
-0.00366283
-0.00366283
0.00722548
0.00722548
0.0139777
0.0139777
-0.00887346
-0.00887346
0.0113898
0.0113898
0.000438434
0.000438434
0.106875
0.106875
0.0266213
0.0266213
0.015125
0.015125
0.00135238
0.00135238
0.0456375
0.0456375
0.0476579
0.0476579
-0.0322624
-0.0322624
-0.0949212
-0.0949212
0.00510106
0.00510106
-0.00967107
-0.00967107
0.00835896
0.00835896
-0.0174816
-0.0174816
-0.00293127
-0.00293127
0.00458517
0.00458517
0.106456
0.106456
-0.0133254
-0.0133254
-0.0255724
-0.0255724
0.00386745
0.00386745
-0.0159952
-0.0159952
-0.0244912
-0.0244912
0.00107454
0.00107454
0.0485128
0.0485128
0.010427
0.010427
-0.00395208
-0.00395208
-0.0038128
-0.0038128
-0.00687644
-0.00687644
-0.00860353
-0.00860353
0.00731132
0.00731132
0.12684
0.12684
-0.00480781
-0.00480781
-0.00796735
-0.00796735
-0.0197644
-0.0197644
0.0180303
0.0180303
0.00536186
0.00536186
0.0108944
0.0108944
-0.0387957
-0.0387957
-0.00194193
-0.00194193
-0.00598432
-0.00598432
-0.0130639
-0.0130639
0.0656008
0.0656008
0.0228318
0.0228318
-0.00329418
-0.00329418
0.0449089
0.0449089
-0.0052454
-0.0052454
0.00809534
0.00809534
-0.0100928
-0.0100928
-0.000693316
-0.000693316
-0.0145617
-0.0145617
0.00970007
0.00970007
0.000904984
0.000904984
0.0898798
0.0898798
0.0384145
0.0384145
0.00613542
0.00613542
0.00056637
0.00056637
-0.0131986
-0.0131986
-0.027244
-0.027244
0.0274225
0.0274225
0.00661842
0.00661842
0.00646928
0.00646928
-0.0204527
-0.0204527
-0.0099837
-0.0099837
0.031858
0.031858
-0.0163704
-0.0163704
0.00188546
0.00188546
0.00739713
0.00739713
-0.003823
-0.003823
0.0321117
0.0321117
-0.0107659
-0.0107659
-0.00916623
-0.00916623
-0.000130503
-0.000130503
0.0353653
0.0353653
-0.000799706
-0.000799706
-0.059549
-0.059549
-0.0124973
-0.0124973
-0.0746463
-0.0746463
-0.0159728
-0.0159728
0.00136266
0.00136266
0.0126945
0.0126945
-0.012183
-0.012183
0.0889784
0.0889784
-0.0280993
-0.0280993
-0.0764182
-0.0764182
-0.0138467
-0.0138467
0.015585
0.015585
0.0152148
0.0152148
-0.0453629
-0.0453629
0.0115282
0.0115282
0.0268258
0.0268258
0.0122802
0.0122802
0.00879783
0.00879783
-0.0419329
-0.0419329
-0.00486389
-0.00486389
-0.00274318
-0.00274318
0.00314756
0.00314756
-0.0002161
-0.0002161
-0.00637978
-0.00637978
0.0407212
0.0407212
0.154677
0.154677
0.023305
0.023305
-0.0189144
-0.0189144
0.0184771
0.0184771
-0.00498518
-0.00498518
0.0941477
0.0941477
0.0260822
0.0260822
0.0104783
0.0104783
-0.0201331
-0.0201331
0.00249007
0.00249007
0.0255576
0.0255576
0.00733939
0.00733939
0.0139604
0.0139604
-0.0123126
-0.0123126
0.015677
0.015677
0.00134686
0.00134686
0.0110079
0.0110079
-0.00945747
-0.00945747
0.0374244
0.0374244
0.0302821
0.0302821
-0.00756756
-0.00756756
-0.0134868
-0.0134868
-0.00102107
-0.00102107
-0.0209446
-0.0209446
0.0338244
0.0338244
-0.00486187
-0.00486187
-0.00723148
-0.00723148
0.0107465
0.0107465
-0.00710402
-0.00710402
0.00271928
0.00271928
-0.00633986
-0.00633986
0.00217826
0.00217826
-0.056525
-0.056525
0.00260876
0.00260876
-0.0180325
-0.0180325
-0.0226045
-0.0226045
-0.00799688
-0.00799688
-0.0189467
-0.0189467
0.00471559
0.00471559
0.137
0.137
-0.00692016
-0.00692016
0.0720882
0.0720882
0.0658562
0.0658562
-0.0105946
-0.0105946
-4.93484e-06
-4.93484e-06
0.0379538
0.0379538
-0.0161745
-0.0161745
0.0555947
0.0555947
-0.0213125
-0.0213125
-0.0458206
-0.0458206
-0.0113275
-0.0113275
-0.00737182
-0.00737182
0.00449635
0.00449635
0.0059528
0.0059528
0.0767608
0.0767608
0.036412
0.036412
-0.00406182
-0.00406182
-0.0587786
-0.0587786
-0.00144353
-0.00144353
-0.00510798
-0.00510798
-0.00231139
-0.00231139
0.162937
0.162937
-0.0172742
-0.0172742
0.00672186
0.00672186
-0.0365269
-0.0365269
0.0307025
0.0307025
0.134217
0.134217
-0.00973944
-0.00973944
-0.00605099
-0.00605099
-0.00184225
-0.00184225
-0.0067421
-0.0067421
0.027386
0.027386
0.116527
0.116527
-0.0223778
-0.0223778
0.00183815
0.00183815
0.0283305
0.0283305
0.0157686
0.0157686
-0.00521201
-0.00521201
-0.0732661
-0.0732661
-0.0506751
-0.0506751
0.00140401
0.00140401
-0.0307642
-0.0307642
0.00540756
0.00540756
0.016386
0.016386
0.00687931
0.00687931
0.0103674
0.0103674
0.00444524
0.00444524
0.0524004
0.0524004
-0.00617372
-0.00617372
-0.0160209
-0.0160209
0.0213147
0.0213147
0.0105528
0.0105528
-0.0020439
-0.0020439
0.0114422
0.0114422
0.0146111
0.0146111
0.0927106
0.0927106
-0.00735269
-0.00735269
-0.0318881
-0.0318881
-0.00631735
-0.00631735
0.0106323
0.0106323
-0.0150343
-0.0150343
0.0202815
0.0202815
-0.0717119
-0.0717119
-0.0423791
-0.0423791
0.165048
0.165048
0.00567293
0.00567293
0.0116829
0.0116829
0.00466638
0.00466638
-0.00137145
-0.00137145
0.0550698
0.0550698
0.000832278
0.000832278
-0.083312
-0.083312
0.00910058
0.00910058
-0.00994093
-0.00994093
-0.0035044
-0.0035044
0.0835585
0.0835585
0.000535808
0.000535808
0.0142887
0.0142887
-0.0122041
-0.0122041
-0.0106137
-0.0106137
0.00344566
0.00344566
-0.0119854
-0.0119854
0.0216392
0.0216392
0.0315283
0.0315283
0.0109394
0.0109394
0.00915396
0.00915396
0.00640582
0.00640582
0.00633032
0.00633032
0.00425471
0.00425471
-0.0151066
-0.0151066
-0.0265191
-0.0265191
-0.0290316
-0.0290316
0.00111563
0.00111563
-0.00228932
-0.00228932
0.0124119
0.0124119
-0.0338787
-0.0338787
-0.00890854
-0.00890854
-0.000675763
-0.000675763
-0.0828074
-0.0828074
0.063286
0.063286
0.0038939
0.0038939
0.0231363
0.0231363
0.0455695
0.0455695
-0.0430275
-0.0430275
-0.00745277
-0.00745277
0.00784282
0.00784282
0.00719106
0.00719106
-0.00405287
-0.00405287
0.0163919
0.0163919
-0.0131858
-0.0131858
-0.00235225
-0.00235225
-0.00634326
-0.00634326
-0.0030421
-0.0030421
0.0237313
0.0237313
-0.108726
-0.108726
0.0227687
0.0227687
-0.0576176
-0.0576176
0.0662024
0.0662024
-0.00912287
-0.00912287
-0.129766
-0.129766
-0.00298825
-0.00298825
-0.0119623
-0.0119623
-0.000723535
-0.000723535
-0.036881
-0.036881
0.0239265
0.0239265
-0.011754
-0.011754
0.00381185
0.00381185
0.0424669
0.0424669
-0.0182271
-0.0182271
0.0478205
0.0478205
0.00498001
0.00498001
-0.0140357
-0.0140357
0.00444542
0.00444542
0.0103919
0.0103919
0.0123877
0.0123877
-0.00415101
-0.00415101
-0.0148072
-0.0148072
-0.0211657
-0.0211657
-0.0102599
-0.0102599
-0.100758
-0.100758
-0.0588587
-0.0588587
0.00851549
0.00851549
0.00202232
0.00202232
0.00787529
0.00787529
0.00867475
0.00867475
0.0126421
0.0126421
-0.0102889
-0.0102889
-0.0141823
-0.0141823
-0.00352642
-0.00352642
-0.079064
-0.079064
0.00300109
0.00300109
-0.0287751
-0.0287751
0.00601224
0.00601224
-0.0167231
-0.0167231
-0.0089725
-0.0089725
0.026057
0.026057
-0.0845918
-0.0845918
0.113165
0.113165
0.00773619
0.00773619
0.0127695
0.0127695
-0.00818597
-0.00818597
-0.100424
-0.100424
0.0048924
0.0048924
-0.0792771
-0.0792771
0.0131373
0.0131373
-0.00165759
-0.00165759
0.00684857
0.00684857
0.052229
0.052229
0.0121151
0.0121151
-0.0478091
-0.0478091
0.00274788
0.00274788
-0.00170467
-0.00170467
0.0867856
0.0867856
0.0380301
0.0380301
0.00772141
0.00772141
-0.00184819
-0.00184819
0.0203416
0.0203416
-0.00724485
-0.00724485
0.0134568
0.0134568
0.00268934
0.00268934
0.00085775
0.00085775
0.00387043
0.00387043
0.0118826
0.0118826
0.0689379
0.0689379
-0.00486857
-0.00486857
-0.0652649
-0.0652649
-0.00853732
-0.00853732
-0.0195119
-0.0195119
-0.0103389
-0.0103389
-0.0321523
-0.0321523
0.00344306
0.00344306
-0.0119941
-0.0119941
0.0332519
0.0332519
0.00875767
0.00875767
0.0178623
0.0178623
-0.0311544
-0.0311544
-0.0356881
-0.0356881
-0.0354226
-0.0354226
0.0583553
0.0583553
-0.012359
-0.012359
-0.0840733
-0.0840733
-0.0286301
-0.0286301
-0.00379296
-0.00379296
0.013292
0.013292
-0.0174478
-0.0174478
-0.00270082
-0.00270082
-0.0129325
-0.0129325
0.0466442
0.0466442
-0.0214898
-0.0214898
-0.00255695
-0.00255695
-0.0322094
-0.0322094
0.0170279
0.0170279
-0.0101767
-0.0101767
-0.00134873
-0.00134873
0.0123317
0.0123317
0.0114179
0.0114179
-0.115186
-0.115186
-0.160532
-0.160532
0.00413751
0.00413751
-0.0331593
-0.0331593
0.0208342
0.0208342
-0.011813
-0.011813
0.100313
0.100313
0.114196
0.114196
0.00653193
0.00653193
-0.0195795
-0.0195795
0.00683265
0.00683265
0.00420085
0.00420085
-0.00327378
-0.00327378
0.0112576
0.0112576
-0.00927034
-0.00927034
-0.0183587
-0.0183587
-0.00475067
-0.00475067
-0.00526316
-0.00526316
0.00440575
0.00440575
0.00737014
0.00737014
0.00543667
0.00543667
-0.0110841
-0.0110841
-0.0279583
-0.0279583
0.0131332
0.0131332
-0.002198
-0.002198
0.0082004
0.0082004
-0.0385584
-0.0385584
-0.00557144
-0.00557144
-0.0217819
-0.0217819
0.0148035
0.0148035
0.186834
0.186834
0.0344578
0.0344578
0.0130564
0.0130564
0.011898
0.011898
-0.00411295
-0.00411295
-0.00621531
-0.00621531
0.014204
0.014204
-0.00418813
-0.00418813
0.0178971
0.0178971
0.00732959
0.00732959
-0.00732638
-0.00732638
0.00864291
0.00864291
0.0261865
0.0261865
-0.00230333
-0.00230333
-0.0104674
-0.0104674
-0.00998937
-0.00998937
0.0563806
0.0563806
0.00593254
0.00593254
0.00678606
0.00678606
-0.00203918
-0.00203918
0.00901817
0.00901817
-0.030922
-0.030922
-0.00901443
-0.00901443
-0.00455974
-0.00455974
0.0788941
0.0788941
-0.0177848
-0.0177848
0.0231693
0.0231693
-0.00658714
-0.00658714
0.00703826
0.00703826
-0.0169779
-0.0169779
-0.00582492
-0.00582492
-0.0068191
-0.0068191
-0.0629123
-0.0629123
0.00111517
0.00111517
-0.003553
-0.003553
-0.0168251
-0.0168251
-0.00646499
-0.00646499
0.0205675
0.0205675
0.0308818
0.0308818
-0.0524772
-0.0524772
-0.00491534
-0.00491534
-0.00873139
-0.00873139
-0.145291
-0.145291
-0.00445191
-0.00445191
-0.15264
-0.15264
0.0104303
0.0104303
0.0019048
0.0019048
-0.00439144
-0.00439144
-0.00220549
-0.00220549
0.100887
0.100887
-0.000210512
-0.000210512
-0.00741695
-0.00741695
0.0068817
0.0068817
0.0734324
0.0734324
0.00637487
0.00637487
-0.0376363
-0.0376363
0.084189
0.084189
0.00383437
0.00383437
-0.00615222
-0.00615222
-0.0369039
-0.0369039
0.0311301
0.0311301
-0.0788492
-0.0788492
0.0304076
0.0304076
0.106478
0.106478
-0.00561122
-0.00561122
-0.0279201
-0.0279201
-0.0467672
-0.0467672
-0.0607112
-0.0607112
0.0513803
0.0513803
0.00636891
0.00636891
0.00442323
0.00442323
0.011442
0.011442
0.00936616
0.00936616
0.031759
0.031759
-0.00499535
-0.00499535
-0.00790115
-0.00790115
0.0271309
0.0271309
-0.00172256
-0.00172256
-0.00178021
-0.00178021
-0.00949818
-0.00949818
-0.0247108
-0.0247108
-0.102924
-0.102924
0.0391952
0.0391952
-0.00989685
-0.00989685
0.00745022
0.00745022
0.00602342
0.00602342
-0.00499236
-0.00499236
0.062354
0.062354
-0.00998783
-0.00998783
0.00642561
0.00642561
0.0101472
0.0101472
-0.00139343
-0.00139343
0.0158428
0.0158428
-0.0227246
-0.0227246
-0.0123503
-0.0123503
-0.013752
-0.013752
-0.00412678
-0.00412678
0.0071074
0.0071074
0.0470245
0.0470245
-0.0241098
-0.0241098
0.00114064
0.00114064
-0.000105776
-0.000105776
0.0913665
0.0913665
0.0281856
0.0281856
0.0146212
0.0146212
0.00303036
0.00303036
-0.0110337
-0.0110337
-0.00475946
-0.00475946
-0.00121707
-0.00121707
0.07773
0.07773
-0.0154537
-0.0154537
0.00601123
0.00601123
0.00889287
0.00889287
0.00826361
0.00826361
0.00357777
0.00357777
0.0534744
0.0534744
-0.0204576
-0.0204576
-0.0177405
-0.0177405
0.0276835
0.0276835
0.00149678
0.00149678
-0.00948532
-0.00948532
0.0107875
0.0107875
0.0109856
0.0109856
0.0100461
0.0100461
0.00644206
0.00644206
0.0279327
0.0279327
0.105079
0.105079
0.00473589
0.00473589
-0.0129342
-0.0129342
-0.0198498
-0.0198498
-0.00779724
-0.00779724
0.0140065
0.0140065
0.00716755
0.00716755
-0.0231677
-0.0231677
0.0924914
0.0924914
0.0342575
0.0342575
0.0131798
0.0131798
0.0158688
0.0158688
-0.00563367
-0.00563367
0.00147777
0.00147777
-0.00280678
-0.00280678
-0.00404476
-0.00404476
-0.00150134
-0.00150134
0.0186614
0.0186614
0.00607318
0.00607318
-0.00548682
-0.00548682
-0.0105392
-0.0105392
0.0240721
0.0240721
-0.00873486
-0.00873486
0.00665562
0.00665562
-0.00655777
-0.00655777
0.00382418
0.00382418
0.00810863
0.00810863
0.00512676
0.00512676
0.00287257
0.00287257
-0.0305815
-0.0305815
0.00928576
0.00928576
-0.0371183
-0.0371183
-0.0468373
-0.0468373
0.00727817
0.00727817
-0.00729546
-0.00729546
-0.0141267
-0.0141267
-0.0553849
-0.0553849
-0.123282
-0.123282
-0.0556818
-0.0556818
-0.00231349
-0.00231349
-0.0605656
-0.0605656
0.00115859
0.00115859
0.0220665
0.0220665
-0.131953
-0.131953
-0.0197664
-0.0197664
0.019233
0.019233
-0.0784935
-0.0784935
0.00662885
0.00662885
0.00276987
0.00276987
0.000978242
0.000978242
-0.0217518
-0.0217518
-0.0110165
-0.0110165
0.00246093
0.00246093
0.0267098
0.0267098
0.0100495
0.0100495
-0.0410289
-0.0410289
-0.0176909
-0.0176909
-0.0331718
-0.0331718
-0.00829505
-0.00829505
-0.00881595
-0.00881595
0.0263933
0.0263933
-0.104559
-0.104559
-0.00943546
-0.00943546
-0.00372214
-0.00372214
-0.135275
-0.135275
-0.0699776
-0.0699776
-0.00400166
-0.00400166
-0.00585135
-0.00585135
0.0600409
0.0600409
-0.0247485
-0.0247485
0.0491017
0.0491017
0.000756118
0.000756118
-0.0199588
-0.0199588
-0.00377335
-0.00377335
0.016683
0.016683
0.00537595
0.00537595
-0.00623441
-0.00623441
-0.00947048
-0.00947048
-0.0037617
-0.0037617
0.00172668
0.00172668
0.000554223
0.000554223
0.00820678
0.00820678
0.00396815
0.00396815
0.00904102
0.00904102
0.0316081
0.0316081
-0.00499346
-0.00499346
-0.0654811
-0.0654811
-0.0379059
-0.0379059
-0.065254
-0.065254
0.039017
0.039017
-0.0230947
-0.0230947
0.00505006
0.00505006
-0.00639624
-0.00639624
-0.0370682
-0.0370682
-0.0216344
-0.0216344
-0.000869353
-0.000869353
0.0485752
0.0485752
0.0115868
0.0115868
-0.0504462
-0.0504462
-0.0114741
-0.0114741
-0.00736789
-0.00736789
-0.142902
-0.142902
-0.0110636
-0.0110636
0.00333187
0.00333187
0.0513373
0.0513373
-0.00603963
-0.00603963
0.0177848
0.0177848
-0.000711508
-0.000711508
-0.134024
-0.134024
0.040108
0.040108
0.0169924
0.0169924
-0.00579629
-0.00579629
-0.00779745
-0.00779745
-0.0156392
-0.0156392
-0.0728069
-0.0728069
0.0212521
0.0212521
-0.06713
-0.06713
0.00951475
0.00951475
-0.00886476
-0.00886476
-0.0699499
-0.0699499
-0.0525386
-0.0525386
-0.00718705
-0.00718705
0.00487668
0.00487668
0.0153104
0.0153104
0.121721
0.121721
-0.00101874
-0.00101874
0.0232908
0.0232908
-0.0278194
-0.0278194
0.0793983
0.0793983
-0.0272796
-0.0272796
0.0501002
0.0501002
0.198957
0.198957
0.0110269
0.0110269
0.0115137
0.0115137
0.00862712
0.00862712
-0.0169685
-0.0169685
-0.00628716
-0.00628716
0.00571107
0.00571107
-0.00471414
-0.00471414
0.0488804
0.0488804
-0.00537412
-0.00537412
-0.00973969
-0.00973969
-0.0017601
-0.0017601
0.044284
0.044284
0.0593344
0.0593344
0.0190624
0.0190624
0.0386799
0.0386799
0.0973968
0.0973968
-0.0409999
-0.0409999
-0.0326771
-0.0326771
0.0147886
0.0147886
-0.00648625
-0.00648625
-0.0231536
-0.0231536
-0.115002
-0.115002
0.00782965
0.00782965
0.0121686
0.0121686
0.0387221
0.0387221
-0.0857629
-0.0857629
-0.00243446
-0.00243446
0.0557354
0.0557354
0.0259733
0.0259733
-0.0532532
-0.0532532
0.0378528
0.0378528
-0.0141456
-0.0141456
0.0103182
0.0103182
0.0254938
0.0254938
-0.0531063
-0.0531063
-0.027485
-0.027485
-0.00830885
-0.00830885
0.00408837
0.00408837
-0.00910035
-0.00910035
0.0061373
0.0061373
-0.134935
-0.134935
0.0122776
0.0122776
-0.115679
-0.115679
-0.0345443
-0.0345443
-0.0383401
-0.0383401
-0.0423126
-0.0423126
0.0703506
0.0703506
-0.00882135
-0.00882135
0.0165285
0.0165285
0.00569376
0.00569376
0.00767436
0.00767436
-0.0224731
-0.0224731
0.024036
0.024036
-0.0065057
-0.0065057
-0.0981508
-0.0981508
0.123282
0.123282
-0.0206113
-0.0206113
-0.012019
-0.012019
-0.0403741
-0.0403741
-0.0143189
-0.0143189
0.0103342
0.0103342
-0.0399921
-0.0399921
0.0110848
0.0110848
0.00399888
0.00399888
0.000282735
0.000282735
0.000153663
0.000153663
0.0121294
0.0121294
-0.100322
-0.100322
-0.030854
-0.030854
-0.000759583
-0.000759583
-0.013094
-0.013094
-0.0663133
-0.0663133
0.0113712
0.0113712
-0.0118263
-0.0118263
0.00242596
0.00242596
-0.0206503
-0.0206503
-0.00126073
-0.00126073
-0.0147374
-0.0147374
0.00736857
0.00736857
0.0235199
0.0235199
0.0105396
0.0105396
0.00522448
0.00522448
-0.0746008
-0.0746008
-0.027621
-0.027621
-0.0138078
-0.0138078
-0.000599294
-0.000599294
-0.0191598
-0.0191598
0.00505786
0.00505786
-0.053794
-0.053794
0.0124108
0.0124108
-0.0316408
-0.0316408
0.0708106
0.0708106
-0.00872963
-0.00872963
-0.00303652
-0.00303652
0.0426249
0.0426249
0.0371732
0.0371732
0.057472
0.057472
0.00531387
0.00531387
-0.00105665
-0.00105665
0.0675031
0.0675031
0.00588604
0.00588604
-0.00475776
-0.00475776
0.04298
0.04298
0.00757517
0.00757517
0.0259501
0.0259501
0.0342279
0.0342279
-0.0382308
-0.0382308
-0.0158408
-0.0158408
0.001994
0.001994
-0.065097
-0.065097
-0.00615452
-0.00615452
0.00448054
0.00448054
-0.00761742
-0.00761742
0.00361737
0.00361737
-0.00118213
-0.00118213
0.135425
0.135425
0.00548824
0.00548824
-0.0252094
-0.0252094
0.00842872
0.00842872
0.0119393
0.0119393
-0.0481639
-0.0481639
0.00940659
0.00940659
0.0378882
0.0378882
-0.0138608
-0.0138608
-0.00893434
-0.00893434
-0.0075223
-0.0075223
-0.0568749
-0.0568749
0.0242784
0.0242784
0.0997526
0.0997526
0.00789043
0.00789043
0.00193374
0.00193374
-0.00622142
-0.00622142
-0.0415666
-0.0415666
-0.0108387
-0.0108387
0.00413155
0.00413155
0.0456207
0.0456207
-0.0324541
-0.0324541
0.121082
0.121082
0.00339291
0.00339291
0.027154
0.027154
-0.0363657
-0.0363657
0.000769079
0.000769079
0.00904889
0.00904889
-0.0401591
-0.0401591
-0.00282628
-0.00282628
-0.0200285
-0.0200285
-0.0136181
-0.0136181
-0.0353633
-0.0353633
-0.0910891
-0.0910891
0.0238317
0.0238317
-0.0107527
-0.0107527
0.00666299
0.00666299
0.00509014
0.00509014
-0.0047011
-0.0047011
-0.0260176
-0.0260176
0.0892124
0.0892124
0.124452
0.124452
-0.00849096
-0.00849096
0.1208
0.1208
-0.0423977
-0.0423977
0.0126041
0.0126041
-0.01874
-0.01874
0.00902083
0.00902083
0.0254007
0.0254007
0.00222591
0.00222591
-0.00963248
-0.00963248
0.119673
0.119673
-0.00282587
-0.00282587
-0.00172698
-0.00172698
-0.00278135
-0.00278135
-0.0252656
-0.0252656
0.00923761
0.00923761
0.0023557
0.0023557
0.00425462
0.00425462
-0.00421757
-0.00421757
-0.0202125
-0.0202125
-0.0324487
-0.0324487
0.0909309
0.0909309
-0.0212854
-0.0212854
-0.0178173
-0.0178173
0.0053869
0.0053869
-0.00263664
-0.00263664
-0.0270543
-0.0270543
-0.139955
-0.139955
-0.135155
-0.135155
0.0224793
0.0224793
-0.0073844
-0.0073844
0.00374658
0.00374658
0.01596
0.01596
0.0014821
0.0014821
-0.00559643
-0.00559643
0.00321874
0.00321874
-0.00483607
-0.00483607
-0.138995
-0.138995
-0.0249841
-0.0249841
0.00168514
0.00168514
-0.0801245
-0.0801245
-0.00108001
-0.00108001
0.0637717
0.0637717
-0.00281312
-0.00281312
0.0233765
0.0233765
-0.0457154
-0.0457154
0.00357613
0.00357613
0.00398093
0.00398093
0.0158271
0.0158271
-0.00723501
-0.00723501
-0.00379895
-0.00379895
0.0138062
0.0138062
0.00672852
0.00672852
-0.0707805
-0.0707805
0.0533419
0.0533419
-0.00525936
-0.00525936
0.0240541
0.0240541
0.100295
0.100295
0.00851302
0.00851302
-0.00194819
-0.00194819
-0.0247797
-0.0247797
0.0220985
0.0220985
0.025782
0.025782
0.1098
0.1098
-0.00149362
-0.00149362
0.0347242
0.0347242
-0.108329
-0.108329
0.114967
0.114967
-0.00134105
-0.00134105
-0.0286379
-0.0286379
-0.0383925
-0.0383925
0.0148091
0.0148091
0.00736352
0.00736352
0.000477069
0.000477069
-0.0297518
-0.0297518
0.0143948
0.0143948
-0.0111667
-0.0111667
-0.00092782
-0.00092782
-0.0021549
-0.0021549
-0.0274461
-0.0274461
0.0095559
0.0095559
0.00692316
0.00692316
0.00679998
0.00679998
-0.000819414
-0.000819414
-0.0871181
-0.0871181
-0.00145314
-0.00145314
0.126781
0.126781
0.0546116
0.0546116
-0.0343066
-0.0343066
0.0120794
0.0120794
0.0132759
0.0132759
0.108925
0.108925
0.0056353
0.0056353
-0.129993
-0.129993
0.0758282
0.0758282
0.00705859
0.00705859
0.00466899
0.00466899
-0.0501582
-0.0501582
-0.0152673
-0.0152673
0.160798
0.160798
-0.00234293
-0.00234293
0.0130344
0.0130344
0.00985995
0.00985995
-0.00225122
-0.00225122
0.0253665
0.0253665
-0.0154559
-0.0154559
-0.0593158
-0.0593158
-0.0108806
-0.0108806
-0.0143627
-0.0143627
-0.00122288
-0.00122288
0.0301056
0.0301056
-0.0702081
-0.0702081
-0.0216817
-0.0216817
-0.00211674
-0.00211674
-0.00869314
-0.00869314
-0.0856296
-0.0856296
0.000324381
0.000324381
-0.00369894
-0.00369894
0.00219504
0.00219504
0.103341
0.103341
-0.0295679
-0.0295679
0.0157953
0.0157953
0.0173919
0.0173919
0.0888473
0.0888473
-0.0154664
-0.0154664
-0.0184869
-0.0184869
-0.00692266
-0.00692266
-0.0727621
-0.0727621
-0.0433962
-0.0433962
-0.00455766
-0.00455766
0.134566
0.134566
0.0190126
0.0190126
0.0238303
0.0238303
0.00629228
0.00629228
-0.00244927
-0.00244927
0.00449132
0.00449132
-0.00778055
-0.00778055
0.13341
0.13341
-0.00375301
-0.00375301
-0.0523885
-0.0523885
0.0311557
0.0311557
0.013349
0.013349
0.00269362
0.00269362
0.130828
0.130828
0.0117634
0.0117634
-0.0163425
-0.0163425
-0.0325068
-0.0325068
0.00922994
0.00922994
0.00634923
0.00634923
0.00690537
0.00690537
0.0017185
0.0017185
0.00613815
0.00613815
0.0148531
0.0148531
0.000862888
0.000862888
0.0146664
0.0146664
0.0183035
0.0183035
0.0136024
0.0136024
0.0247426
0.0247426
0.0497911
0.0497911
-0.00782542
-0.00782542
-0.0307326
-0.0307326
-0.0119478
-0.0119478
-0.00318366
-0.00318366
0.0205834
0.0205834
-0.0222275
-0.0222275
0.010216
0.010216
0.00907339
0.00907339
-0.0053208
-0.0053208
0.0238803
0.0238803
0.159091
0.159091
-0.0192692
-0.0192692
0.00454563
0.00454563
0.0336351
0.0336351
0.00969747
0.00969747
0.000536707
0.000536707
-0.0108735
-0.0108735
0.0150867
0.0150867
0.00177508
0.00177508
-0.0290097
-0.0290097
0.0433207
0.0433207
0.0856436
0.0856436
5.31752e-05
5.31752e-05
0.121595
0.121595
-0.0154786
-0.0154786
-0.00687502
-0.00687502
0.0151354
0.0151354
0.0490379
0.0490379
0.0366054
0.0366054
0.0598198
0.0598198
-0.0772644
-0.0772644
-0.00394247
-0.00394247
-0.00939582
-0.00939582
0.017534
0.017534
0.0605352
0.0605352
-0.0112527
-0.0112527
-0.0196204
-0.0196204
-0.0075657
-0.0075657
-0.00694199
-0.00694199
0.0558323
0.0558323
-0.013272
-0.013272
0.00531295
0.00531295
0.00204969
0.00204969
0.00240339
0.00240339
-0.0189424
-0.0189424
0.0141905
0.0141905
-0.0177535
-0.0177535
0.00445275
0.00445275
-0.00379407
-0.00379407
-0.00910336
-0.00910336
0.0120679
0.0120679
0.0269143
0.0269143
0.000828343
0.000828343
0.0381473
0.0381473
0.033999
0.033999
-0.012143
-0.012143
-0.019286
-0.019286
-0.0056232
-0.0056232
0.0663319
0.0663319
0.0229323
0.0229323
-0.00319968
-0.00319968
-0.00276038
-0.00276038
0.0300348
0.0300348
0.0147868
0.0147868
0.101016
0.101016
0.0402369
0.0402369
-0.00655836
-0.00655836
0.0110374
0.0110374
0.00463403
0.00463403
-0.10361
-0.10361
-0.0275883
-0.0275883
0.0249393
0.0249393
0.000216843
0.000216843
0.0954918
0.0954918
-0.00686809
-0.00686809
-0.0373354
-0.0373354
6.41339e-06
6.41339e-06
-0.0767878
-0.0767878
0.0598627
0.0598627
-0.0269862
-0.0269862
0.00530489
0.00530489
-0.0643828
-0.0643828
0.00607673
0.00607673
0.00184839
0.00184839
-0.00473256
-0.00473256
0.0481361
0.0481361
0.0186325
0.0186325
-0.00975285
-0.00975285
-0.00773029
-0.00773029
-0.0934507
-0.0934507
0.0659694
0.0659694
0.0169781
0.0169781
0.0215023
0.0215023
0.00739113
0.00739113
0.0485358
0.0485358
0.0140132
0.0140132
0.00832023
0.00832023
0.0122645
0.0122645
0.01906
0.01906
-0.0134234
-0.0134234
-0.144564
-0.144564
0.0277196
0.0277196
-0.0217145
-0.0217145
-0.116847
-0.116847
-0.0704357
-0.0704357
0.0123091
0.0123091
-0.00985078
-0.00985078
-0.0118105
-0.0118105
0.0135225
0.0135225
-0.00634752
-0.00634752
0.0198653
0.0198653
-0.0476306
-0.0476306
-0.00376611
-0.00376611
0.0135552
0.0135552
0.00483242
0.00483242
-0.0262059
-0.0262059
-0.0152626
-0.0152626
0.0191476
0.0191476
0.0144033
0.0144033
0.2077
0.2077
-0.0167125
-0.0167125
-7.11601e-05
-7.11601e-05
-0.00915224
-0.00915224
-0.00393956
-0.00393956
0.00862261
0.00862261
-0.0119777
-0.0119777
-0.0091796
-0.0091796
-0.00854964
-0.00854964
0.00648597
0.00648597
-0.000868438
-0.000868438
-0.0532099
-0.0532099
0.00187593
0.00187593
-0.00993334
-0.00993334
0.00533769
0.00533769
0.0119902
0.0119902
-0.00163533
-0.00163533
-0.0153679
-0.0153679
-0.00580095
-0.00580095
0.0539726
0.0539726
0.0604878
0.0604878
-0.020758
-0.020758
0.000515623
0.000515623
0.00237532
0.00237532
0.0434566
0.0434566
0.00661806
0.00661806
-0.0173673
-0.0173673
0.00107063
0.00107063
0.0154541
0.0154541
0.0377626
0.0377626
-0.0940567
-0.0940567
0.000651379
0.000651379
-0.0135975
-0.0135975
-0.0802519
-0.0802519
-0.011642
-0.011642
0.0184683
0.0184683
0.00357599
0.00357599
0.0312153
0.0312153
-0.0245191
-0.0245191
0.00723168
0.00723168
-0.0282643
-0.0282643
-0.0693241
-0.0693241
-0.00343373
-0.00343373
0.0034704
0.0034704
-0.00366916
-0.00366916
0.0813907
0.0813907
-0.0227617
-0.0227617
0.0925391
0.0925391
-0.0265217
-0.0265217
-0.0180956
-0.0180956
0.0971239
0.0971239
-0.00168589
-0.00168589
0.0121405
0.0121405
0.00475385
0.00475385
-0.0442723
-0.0442723
0.024693
0.024693
-0.0317218
-0.0317218
0.0469199
0.0469199
0.00515463
0.00515463
-0.0068481
-0.0068481
0.00354334
0.00354334
-0.0189975
-0.0189975
-0.0463053
-0.0463053
-0.0267322
-0.0267322
-0.0104495
-0.0104495
0.00243667
0.00243667
0.152582
0.152582
0.00564531
0.00564531
-0.0341923
-0.0341923
0.101664
0.101664
0.0105429
0.0105429
-0.00355449
-0.00355449
-0.0844064
-0.0844064
0.0105101
0.0105101
0.0034355
0.0034355
0.0759465
0.0759465
-0.0339831
-0.0339831
0.016891
0.016891
-0.00497936
-0.00497936
0.0106155
0.0106155
-0.00175594
-0.00175594
0.0327374
0.0327374
0.01871
0.01871
-0.0145734
-0.0145734
0.00694099
0.00694099
0.0034866
0.0034866
0.00688941
0.00688941
-0.0196275
-0.0196275
0.0429861
0.0429861
-0.0407999
-0.0407999
0.0171504
0.0171504
0.064822
0.064822
0.0048112
0.0048112
-0.0456961
-0.0456961
-0.0158678
-0.0158678
-0.118465
-0.118465
-0.0108423
-0.0108423
0.00657885
0.00657885
-0.0115603
-0.0115603
0.00606507
0.00606507
-0.161384
-0.161384
0.0173042
0.0173042
0.0423876
0.0423876
-0.0292027
-0.0292027
-0.0219235
-0.0219235
-0.00228918
-0.00228918
0.0224139
0.0224139
-0.00363161
-0.00363161
-0.0284155
-0.0284155
-0.0217498
-0.0217498
0.103958
0.103958
0.00721457
0.00721457
0.00990588
0.00990588
-0.0311086
-0.0311086
-0.0251164
-0.0251164
-0.0047792
-0.0047792
0.00218816
0.00218816
-0.0743378
-0.0743378
0.0726855
0.0726855
0.0261998
0.0261998
-0.00108168
-0.00108168
-0.00214006
-0.00214006
0.032241
0.032241
-0.0086473
-0.0086473
-0.000743905
-0.000743905
0.0331194
0.0331194
0.0182607
0.0182607
0.00723202
0.00723202
0.00229938
0.00229938
0.0038037
0.0038037
-0.0577017
-0.0577017
-0.0148374
-0.0148374
0.0358096
0.0358096
0.0502001
0.0502001
0.00154608
0.00154608
-0.0405141
-0.0405141
-0.00849642
-0.00849642
0.0140306
0.0140306
0.0504845
0.0504845
0.011115
0.011115
0.0420472
0.0420472
-0.0181169
-0.0181169
-0.120811
-0.120811
0.00553027
0.00553027
0.0309367
0.0309367
-0.00431415
-0.00431415
0.00918061
0.00918061
-0.0434958
-0.0434958
0.0114991
0.0114991
-0.0147802
-0.0147802
-0.0156356
-0.0156356
-0.0225737
-0.0225737
0.00729328
0.00729328
0.00945198
0.00945198
0.025755
0.025755
-0.0363464
-0.0363464
0.00430054
0.00430054
0.00692316
0.00692316
-0.000549142
-0.000549142
-0.0701424
-0.0701424
0.0106085
0.0106085
-0.00847223
-0.00847223
0.00320534
0.00320534
-0.00797021
-0.00797021
0.0384724
0.0384724
-0.0294072
-0.0294072
0.0158581
0.0158581
-0.0022025
-0.0022025
0.0581631
0.0581631
0.00335418
0.00335418
0.0068587
0.0068587
-0.0141716
-0.0141716
-0.0206185
-0.0206185
0.00836596
0.00836596
-0.00836815
-0.00836815
0.122099
0.122099
0.0309446
0.0309446
-0.00620429
-0.00620429
-0.0063289
-0.0063289
-0.0087005
-0.0087005
-0.0206277
-0.0206277
-0.0155444
-0.0155444
-0.0797322
-0.0797322
0.00116219
0.00116219
-0.0121125
-0.0121125
0.0677004
0.0677004
0.0453199
0.0453199
-0.00525854
-0.00525854
-0.127686
-0.127686
0.0584184
0.0584184
0.0736944
0.0736944
-0.0774481
-0.0774481
0.00975162
0.00975162
0.0197118
0.0197118
0.0206715
0.0206715
0.0234524
0.0234524
0.0738155
0.0738155
-0.00666596
-0.00666596
0.00768068
0.00768068
-0.0242944
-0.0242944
-0.0429626
-0.0429626
0.0448177
0.0448177
0.00378748
0.00378748
0.00309
0.00309
0.00100514
0.00100514
-0.0111859
-0.0111859
0.00018031
0.00018031
-0.00221944
-0.00221944
0.0271925
0.0271925
0.000539636
0.000539636
0.034875
0.034875
-0.00715311
-0.00715311
0.0259481
0.0259481
-0.00958816
-0.00958816
-0.0157979
-0.0157979
-0.0478355
-0.0478355
0.0152148
0.0152148
0.0520097
0.0520097
0.0732476
0.0732476
-0.0097295
-0.0097295
-0.0270422
-0.0270422
0.0195472
0.0195472
-0.0928048
-0.0928048
-0.0023734
-0.0023734
-0.0582576
-0.0582576
-0.0129077
-0.0129077
-0.0949585
-0.0949585
0.00598745
0.00598745
0.00830328
0.00830328
-0.00437662
-0.00437662
0.00379443
0.00379443
0.177228
0.177228
-0.000688401
-0.000688401
0.080647
0.080647
0.00364495
0.00364495
0.0290716
0.0290716
0.00721506
0.00721506
-0.0465068
-0.0465068
0.0185211
0.0185211
0.0105906
0.0105906
-0.00939794
-0.00939794
-0.00296774
-0.00296774
-0.0642888
-0.0642888
0.0109507
0.0109507
-0.0637518
-0.0637518
0.0105187
0.0105187
-0.00604696
-0.00604696
0.0261744
0.0261744
0.00200507
0.00200507
0.0126778
0.0126778
-0.0199346
-0.0199346
0.0134759
0.0134759
-0.00843724
-0.00843724
-0.00376014
-0.00376014
0.00594682
0.00594682
0.0189234
0.0189234
-0.000487481
-0.000487481
-0.0388077
-0.0388077
0.00162046
0.00162046
-0.137307
-0.137307
0.0171053
0.0171053
-0.00337781
-0.00337781
-0.00266567
-0.00266567
0.0135869
0.0135869
-0.0158253
-0.0158253
0.0655762
0.0655762
-0.00043514
-0.00043514
0.0102367
0.0102367
-0.0316008
-0.0316008
-0.00811523
-0.00811523
-0.00721027
-0.00721027
0.058141
0.058141
-0.010816
-0.010816
0.00054105
0.00054105
-0.00369234
-0.00369234
-0.00694568
-0.00694568
-0.0489107
-0.0489107
-0.00241021
-0.00241021
0.00544125
0.00544125
-0.109674
-0.109674
-0.00345357
-0.00345357
0.00158139
0.00158139
-0.00204099
-0.00204099
-0.01359
-0.01359
-0.08754
-0.08754
-0.00536321
-0.00536321
0.0161212
0.0161212
0.0183829
0.0183829
0.109376
0.109376
-0.00683393
-0.00683393
-0.0235631
-0.0235631
0.00135661
0.00135661
-0.00377559
-0.00377559
0.00928807
0.00928807
-0.00235129
-0.00235129
-0.00163235
-0.00163235
0.00587284
0.00587284
-0.00651139
-0.00651139
0.0180252
0.0180252
-0.00815334
-0.00815334
-0.05865
-0.05865
-0.00069168
-0.00069168
0.0120864
0.0120864
-0.00576481
-0.00576481
0.00550129
0.00550129
0.0586126
0.0586126
0.0358273
0.0358273
0.0208549
0.0208549
0.0128328
0.0128328
-0.0126666
-0.0126666
0.0285609
0.0285609
-0.00310696
-0.00310696
0.0307535
0.0307535
-0.129877
-0.129877
-0.00753332
-0.00753332
-0.11025
-0.11025
0.0321208
0.0321208
-0.0128841
-0.0128841
0.136331
0.136331
0.0765234
0.0765234
0.0213873
0.0213873
-0.0121644
-0.0121644
0.00972939
0.00972939
0.0781826
0.0781826
0.01795
0.01795
-0.0279857
-0.0279857
-0.120588
-0.120588
-0.0132835
-0.0132835
0.0862386
0.0862386
-0.126023
-0.126023
-0.0288218
-0.0288218
-0.0659623
-0.0659623
-0.0107403
-0.0107403
-0.00391572
-0.00391572
-0.00343311
-0.00343311
0.0100136
0.0100136
-0.00381168
-0.00381168
0.0961957
0.0961957
-0.033405
-0.033405
-0.0622633
-0.0622633
-0.0039715
-0.0039715
0.00535764
0.00535764
-0.00359942
-0.00359942
0.0122238
0.0122238
0.0231794
0.0231794
-0.0838335
-0.0838335
0.0432963
0.0432963
-0.00865824
-0.00865824
-0.0434741
-0.0434741
-0.041009
-0.041009
0.00294703
0.00294703
-0.00280797
-0.00280797
-0.0270467
-0.0270467
0.00323261
0.00323261
-0.00819599
-0.00819599
-0.00195433
-0.00195433
0.00678463
0.00678463
0.00683016
0.00683016
-0.0100863
-0.0100863
0.00208906
0.00208906
-0.0145776
-0.0145776
-0.0322402
-0.0322402
0.0157325
0.0157325
-0.0403325
-0.0403325
0.00764481
0.00764481
-0.0672512
-0.0672512
0.0284697
0.0284697
-0.0952659
-0.0952659
0.000132143
0.000132143
0.00571156
0.00571156
-0.0435472
-0.0435472
-0.0101465
-0.0101465
-0.0320243
-0.0320243
-0.0214877
-0.0214877
-0.0244491
-0.0244491
-0.000815872
-0.000815872
-0.00530699
-0.00530699
0.00873695
0.00873695
-0.0248988
-0.0248988
0.00431197
0.00431197
-0.00794261
-0.00794261
0.00539604
0.00539604
-0.0036502
-0.0036502
-0.0557769
-0.0557769
-0.0116966
-0.0116966
0.0894711
0.0894711
-0.0183006
-0.0183006
-0.00614112
-0.00614112
0.0425161
0.0425161
0.00804796
0.00804796
0.108279
0.108279
-4.69125e-05
-4.69125e-05
-0.00071193
-0.00071193
0.0151954
0.0151954
0.0350414
0.0350414
0.00846939
0.00846939
-0.00403126
-0.00403126
-0.070393
-0.070393
-0.00959374
-0.00959374
-0.00886379
-0.00886379
0.0100952
0.0100952
0.0274389
0.0274389
0.0281741
0.0281741
-0.00633499
-0.00633499
0.0286074
0.0286074
0.0128568
0.0128568
-0.0106505
-0.0106505
-0.0144027
-0.0144027
-0.00397709
-0.00397709
0.0729606
0.0729606
0.0892551
0.0892551
-0.000198437
-0.000198437
-0.0823573
-0.0823573
0.0258064
0.0258064
-0.00542758
-0.00542758
-0.00459095
-0.00459095
0.00997645
0.00997645
-0.03953
-0.03953
0.0039442
0.0039442
-0.0094879
-0.0094879
0.060154
0.060154
-0.00511438
-0.00511438
-0.00284041
-0.00284041
0.0128239
0.0128239
0.00840528
0.00840528
-0.00186948
-0.00186948
0.0120655
0.0120655
-0.0494725
-0.0494725
0.104005
0.104005
0.0182678
0.0182678
-0.0105877
-0.0105877
-0.0105856
-0.0105856
-0.00553108
-0.00553108
-0.00235269
-0.00235269
0.019105
0.019105
-0.00709202
-0.00709202
0.00827169
0.00827169
0.0574997
0.0574997
-0.000644819
-0.000644819
-0.100859
-0.100859
0.0586314
0.0586314
-0.00200611
-0.00200611
0.0175305
0.0175305
0.115084
0.115084
0.00319048
0.00319048
-0.0572759
-0.0572759
-0.000151705
-0.000151705
-0.0240938
-0.0240938
0.000390615
0.000390615
-0.0111803
-0.0111803
0.000140748
0.000140748
-0.00834446
-0.00834446
-0.00469197
-0.00469197
0.0240032
0.0240032
-0.0215883
-0.0215883
-0.0044513
-0.0044513
0.00926335
0.00926335
-0.0113144
-0.0113144
-0.0241466
-0.0241466
0.00911895
0.00911895
0.0778626
0.0778626
0.00329422
0.00329422
0.0844046
0.0844046
0.0902183
0.0902183
0.0380787
0.0380787
-0.0215278
-0.0215278
-0.000144984
-0.000144984
0.00253145
0.00253145
-0.0121117
-0.0121117
-0.0253105
-0.0253105
0.0140233
0.0140233
0.00939902
0.00939902
0.00475859
0.00475859
-0.00686582
-0.00686582
-0.0389701
-0.0389701
-0.0281903
-0.0281903
0.0133978
0.0133978
-0.0125415
-0.0125415
0.0206679
0.0206679
0.0756682
0.0756682
0.00410377
0.00410377
-0.0357716
-0.0357716
0.0392364
0.0392364
-0.127135
-0.127135
-0.00524939
-0.00524939
0.0120214
0.0120214
0.0285097
0.0285097
-0.00165172
-0.00165172
0.035435
0.035435
0.0270878
0.0270878
0.0219472
0.0219472
0.00457528
0.00457528
0.00857393
0.00857393
0.02087
0.02087
0.0198102
0.0198102
0.0160592
0.0160592
-0.00487015
-0.00487015
-0.00967617
-0.00967617
-0.0146912
-0.0146912
-0.0130348
-0.0130348
-0.0476785
-0.0476785
0.00633828
0.00633828
-0.0447291
-0.0447291
-0.0369348
-0.0369348
0.0377146
0.0377146
0.0468931
0.0468931
-0.010557
-0.010557
0.0758797
0.0758797
0.0281836
0.0281836
-0.00187802
-0.00187802
-0.0371827
-0.0371827
0.0013696
0.0013696
0.00921626
0.00921626
-0.000644892
-0.000644892
0.138586
0.138586
0.00250638
0.00250638
-0.111733
-0.111733
-0.00622369
-0.00622369
-0.0180132
-0.0180132
0.0797101
0.0797101
-0.0631877
-0.0631877
0.0227482
0.0227482
-0.0107352
-0.0107352
0.01111
0.01111
-0.00666491
-0.00666491
-0.00260193
-0.00260193
0.0161636
0.0161636
0.00903663
0.00903663
0.00557894
0.00557894
-0.0119124
-0.0119124
-0.00838458
-0.00838458
-0.0480594
-0.0480594
-0.0050322
-0.0050322
0.00966696
0.00966696
0.0157287
0.0157287
0.00105116
0.00105116
-0.0165233
-0.0165233
0.000984552
0.000984552
0.0619367
0.0619367
0.173943
0.173943
0.00237352
0.00237352
-0.002968
-0.002968
0.00881975
0.00881975
-0.0257869
-0.0257869
-0.00616621
-0.00616621
0.0153186
0.0153186
0.00454505
0.00454505
-0.0319073
-0.0319073
-0.0308532
-0.0308532
0.0792493
0.0792493
0.0700844
0.0700844
-0.00274292
-0.00274292
-0.103235
-0.103235
-0.0194852
-0.0194852
0.0987139
0.0987139
0.0150069
0.0150069
-0.0223958
-0.0223958
0.00758045
0.00758045
-0.0274417
-0.0274417
-0.00976265
-0.00976265
0.0206813
0.0206813
-0.009159
-0.009159
0.00288288
0.00288288
0.00248213
0.00248213
-0.00589364
-0.00589364
0.0310513
0.0310513
-0.0572014
-0.0572014
-0.0214228
-0.0214228
-0.0234211
-0.0234211
0.0568822
0.0568822
-0.0223012
-0.0223012
-0.0142147
-0.0142147
-0.103576
-0.103576
0.0219743
0.0219743
-0.00683465
-0.00683465
-0.0441923
-0.0441923
-0.00834911
-0.00834911
-0.00619162
-0.00619162
0.00672456
0.00672456
-0.00623917
-0.00623917
0.0177816
0.0177816
0.020128
0.020128
0.0118866
0.0118866
-0.0274881
-0.0274881
-0.0613989
-0.0613989
-0.0229073
-0.0229073
-0.04587
-0.04587
-0.00529286
-0.00529286
-0.00245419
-0.00245419
-0.00335244
-0.00335244
0.00370124
0.00370124
-0.0181566
-0.0181566
0.0519848
0.0519848
-0.0127871
-0.0127871
0.00396707
0.00396707
0.172094
0.172094
-0.0858141
-0.0858141
0.00720729
0.00720729
-0.0217252
-0.0217252
-0.0030752
-0.0030752
0.00639113
0.00639113
0.0476634
0.0476634
-0.0125522
-0.0125522
-0.00200362
-0.00200362
-0.154987
-0.154987
0.0395662
0.0395662
0.0175773
0.0175773
-0.0057424
-0.0057424
-0.0199188
-0.0199188
-0.00708443
-0.00708443
0.00596644
0.00596644
-0.00780503
-0.00780503
0.0677811
0.0677811
-0.00241356
-0.00241356
-0.00938693
-0.00938693
-0.000704158
-0.000704158
0.0156578
0.0156578
0.0264388
0.0264388
0.0166276
0.0166276
0.0327439
0.0327439
0.00680807
0.00680807
0.00490789
0.00490789
0.00790467
0.00790467
0.00985507
0.00985507
0.00935916
0.00935916
0.0156587
0.0156587
0.00324151
0.00324151
-0.13603
-0.13603
-0.00793988
-0.00793988
-0.035595
-0.035595
0.0171573
0.0171573
0.0250415
0.0250415
0.0141195
0.0141195
0.0585823
0.0585823
-0.0119966
-0.0119966
-0.0039927
-0.0039927
0.0134732
0.0134732
-0.0802531
-0.0802531
-0.0867007
-0.0867007
0.00732834
0.00732834
-0.0144303
-0.0144303
0.00721375
0.00721375
-0.0400843
-0.0400843
0.0593559
0.0593559
-0.0457442
-0.0457442
-0.121559
-0.121559
-0.0911158
-0.0911158
0.0306202
0.0306202
-0.0589384
-0.0589384
-0.132603
-0.132603
0.0943649
0.0943649
-0.0179088
-0.0179088
0.0133685
0.0133685
0.00207911
0.00207911
-0.0301436
-0.0301436
-0.00812479
-0.00812479
0.00582447
0.00582447
-0.0397278
-0.0397278
0.178955
0.178955
-0.020231
-0.020231
-0.00212285
-0.00212285
0.0342434
0.0342434
-0.0371121
-0.0371121
-0.0044709
-0.0044709
0.00686439
0.00686439
0.00276913
0.00276913
0.0252408
0.0252408
0.00442413
0.00442413
0.0192774
0.0192774
-0.0216478
-0.0216478
0.00317261
0.00317261
-0.0220064
-0.0220064
-0.00132684
-0.00132684
0.000213993
0.000213993
-0.0556932
-0.0556932
0.009517
0.009517
-0.0258079
-0.0258079
-0.000941687
-0.000941687
-0.0241227
-0.0241227
0.00825549
0.00825549
-0.069105
-0.069105
0.0739845
0.0739845
-0.0828548
-0.0828548
0.00341226
0.00341226
-0.0220354
-0.0220354
-0.0925567
-0.0925567
-0.0185747
-0.0185747
0.00532921
0.00532921
0.00192053
0.00192053
-0.0141849
-0.0141849
-0.0193367
-0.0193367
0.0154271
0.0154271
0.00476772
0.00476772
-0.0893025
-0.0893025
-0.00251163
-0.00251163
0.00107152
0.00107152
-0.0746803
-0.0746803
0.00344385
0.00344385
-0.0138674
-0.0138674
0.0126993
0.0126993
0.0408642
0.0408642
0.0435965
0.0435965
-0.00913044
-0.00913044
-0.0139912
-0.0139912
0.00972509
0.00972509
-0.0321715
-0.0321715
0.00100782
0.00100782
0.0198946
0.0198946
-0.043857
-0.043857
0.0068295
0.0068295
0.00753058
0.00753058
0.00622611
0.00622611
0.0220046
0.0220046
-0.000175297
-0.000175297
0.0335689
0.0335689
0.0192598
0.0192598
0.00687416
0.00687416
-0.0008127
-0.0008127
0.00704005
0.00704005
-0.0403048
-0.0403048
-0.00995795
-0.00995795
0.0363076
0.0363076
0.0344774
0.0344774
0.00287941
0.00287941
0.0105441
0.0105441
-0.015562
-0.015562
0.0567468
0.0567468
0.0352844
0.0352844
0.00774303
0.00774303
-0.0076302
-0.0076302
-0.00913189
-0.00913189
0.0102603
0.0102603
0.00100145
0.00100145
0.0498224
0.0498224
0.0138396
0.0138396
-0.00693161
-0.00693161
-0.00836038
-0.00836038
0.00488453
0.00488453
0.0249276
0.0249276
0.0147685
0.0147685
0.00994699
0.00994699
0.00254439
0.00254439
0.0190942
0.0190942
0.0275929
0.0275929
-0.00533266
-0.00533266
-0.0443746
-0.0443746
0.0411283
0.0411283
0.0187368
0.0187368
-0.00687387
-0.00687387
-0.00909669
-0.00909669
0.0269702
0.0269702
-0.00741462
-0.00741462
-0.00246002
-0.00246002
0.00665971
0.00665971
0.0167627
0.0167627
-0.00540098
-0.00540098
-0.00727882
-0.00727882
-0.00484669
-0.00484669
0.0469618
0.0469618
0.0326163
0.0326163
0.0143172
0.0143172
0.0220998
0.0220998
0.0172258
0.0172258
-0.0136382
-0.0136382
-0.0142093
-0.0142093
0.0159135
0.0159135
-0.0281457
-0.0281457
-0.0314034
-0.0314034
-0.0270827
-0.0270827
-0.00837042
-0.00837042
-0.00872936
-0.00872936
-0.0143414
-0.0143414
-0.00646382
-0.00646382
0.012351
0.012351
0.0518355
0.0518355
0.00596292
0.00596292
-0.00853949
-0.00853949
-0.00402005
-0.00402005
0.00310372
0.00310372
-0.0160088
-0.0160088
-0.00788053
-0.00788053
0.00529233
0.00529233
0.00112868
0.00112868
-0.0410768
-0.0410768
-0.0245851
-0.0245851
-0.0917005
-0.0917005
-0.0211716
-0.0211716
0.00613905
0.00613905
-0.0194111
-0.0194111
-0.0211596
-0.0211596
0.167559
0.167559
-0.131851
-0.131851
-0.00114306
-0.00114306
-0.0565423
-0.0565423
0.0136008
0.0136008
-0.10014
-0.10014
0.034233
0.034233
-0.0439143
-0.0439143
-0.0064085
-0.0064085
-0.00335981
-0.00335981
-0.0669845
-0.0669845
-0.0201048
-0.0201048
-0.00967957
-0.00967957
-0.0028883
-0.0028883
-0.00810952
-0.00810952
-0.0629742
-0.0629742
-0.00799672
-0.00799672
-0.00570132
-0.00570132
-0.0770876
-0.0770876
-0.00414308
-0.00414308
-0.0511804
-0.0511804
-0.00976356
-0.00976356
-0.000548855
-0.000548855
-0.00771626
-0.00771626
0.00578038
0.00578038
0.005364
0.005364
-0.00261616
-0.00261616
0.0132206
0.0132206
-0.00873329
-0.00873329
-0.079845
-0.079845
-0.0733799
-0.0733799
-0.122491
-0.122491
-0.013303
-0.013303
-0.0580937
-0.0580937
-0.000674156
-0.000674156
0.0499865
0.0499865
-0.0115726
-0.0115726
0.108579
0.108579
0.0236484
0.0236484
0.00528314
0.00528314
8.25784e-05
8.25784e-05
0.0524121
0.0524121
-0.0146121
-0.0146121
-0.00801687
-0.00801687
-0.00324878
-0.00324878
0.0130334
0.0130334
-0.0768564
-0.0768564
0.000611004
0.000611004
0.020485
0.020485
-0.0100469
-0.0100469
0.00883733
0.00883733
-0.00100989
-0.00100989
0.000115031
0.000115031
0.0186364
0.0186364
-0.0118563
-0.0118563
-0.159306
-0.159306
0.0240856
0.0240856
0.00905819
0.00905819
-0.0273017
-0.0273017
0.000727946
0.000727946
-0.028092
-0.028092
-0.0998675
-0.0998675
-0.0176404
-0.0176404
-0.00770901
-0.00770901
0.0159217
0.0159217
0.00872968
0.00872968
-0.0571867
-0.0571867
0.00664135
0.00664135
-0.118883
-0.118883
-0.00769935
-0.00769935
0.0103232
0.0103232
-0.0107825
-0.0107825
0.0333281
0.0333281
-0.0217243
-0.0217243
-0.0409383
-0.0409383
0.0397861
0.0397861
-0.0233579
-0.0233579
-0.0448857
-0.0448857
-0.00760017
-0.00760017
0.0863693
0.0863693
0.00707896
0.00707896
0.00190063
0.00190063
0.00947951
0.00947951
0.0835596
0.0835596
0.0199358
0.0199358
-0.0135404
-0.0135404
0.0157029
0.0157029
-0.00601197
-0.00601197
-0.00710393
-0.00710393
-0.0366201
-0.0366201
0.0189616
0.0189616
-0.048296
-0.048296
-0.0721785
-0.0721785
0.0100452
0.0100452
-0.00338105
-0.00338105
-0.0136035
-0.0136035
0.0133618
0.0133618
0.0670699
0.0670699
0.0512734
0.0512734
0.0987574
0.0987574
-0.00885863
-0.00885863
0.00343553
0.00343553
0.0151856
0.0151856
-0.0255946
-0.0255946
-0.0172545
-0.0172545
-0.0084386
-0.0084386
0.0160302
0.0160302
0.00993029
0.00993029
0.00211739
0.00211739
-0.000552481
-0.000552481
-0.02052
-0.02052
0.00536081
0.00536081
-0.0188365
-0.0188365
-0.00760772
-0.00760772
-0.0258352
-0.0258352
-0.0166044
-0.0166044
-0.0108458
-0.0108458
-0.00312463
-0.00312463
0.0149677
0.0149677
-0.0171801
-0.0171801
-0.00713583
-0.00713583
0.000800478
0.000800478
-0.0209357
-0.0209357
0.0120809
0.0120809
-0.0165129
-0.0165129
0.00761819
0.00761819
0.00808967
0.00808967
-0.00499838
-0.00499838
-0.00632434
-0.00632434
0.00615079
0.00615079
0.0481489
0.0481489
-0.0853226
-0.0853226
-0.00899386
-0.00899386
-0.0501504
-0.0501504
-0.0223968
-0.0223968
0.0400257
0.0400257
-0.0167673
-0.0167673
-0.0343946
-0.0343946
-0.00224914
-0.00224914
0.0034589
0.0034589
0.00141755
0.00141755
0.0342186
0.0342186
0.000450508
0.000450508
0.0293958
0.0293958
0.0187441
0.0187441
-0.0805482
-0.0805482
-0.0827027
-0.0827027
-0.0235938
-0.0235938
0.0118713
0.0118713
0.00876184
0.00876184
0.00302931
0.00302931
0.00641445
0.00641445
-0.00482552
-0.00482552
-0.0030666
-0.0030666
0.0125576
0.0125576
0.0613143
0.0613143
0.0297088
0.0297088
-0.00732629
-0.00732629
-0.0215302
-0.0215302
0.00649117
0.00649117
-0.0777921
-0.0777921
-0.0775351
-0.0775351
-0.0134139
-0.0134139
0.0237689
0.0237689
0.0233717
0.0233717
-0.0150012
-0.0150012
-0.00450866
-0.00450866
-0.00241502
-0.00241502
-0.17042
-0.17042
0.0948134
0.0948134
0.00292234
0.00292234
-0.0382534
-0.0382534
0.00313723
0.00313723
-0.0956263
-0.0956263
-0.0201719
-0.0201719
-0.00464768
-0.00464768
-0.0186028
-0.0186028
0.0121934
0.0121934
-0.0740031
-0.0740031
0.00369101
0.00369101
-0.115495
-0.115495
0.00578573
0.00578573
-0.0559557
-0.0559557
-0.1305
-0.1305
-0.0165766
-0.0165766
-0.0326933
-0.0326933
-0.0246069
-0.0246069
-0.00349681
-0.00349681
0.002056
0.002056
0.00965039
0.00965039
0.00349362
0.00349362
0.018259
0.018259
0.00779928
0.00779928
0.0196187
0.0196187
-0.0158976
-0.0158976
-0.0535416
-0.0535416
-0.0159801
-0.0159801
-0.0155058
-0.0155058
0.00807944
0.00807944
-0.0720482
-0.0720482
-0.0906605
-0.0906605
-0.010974
-0.010974
0.00792857
0.00792857
0.0103991
0.0103991
0.0368261
0.0368261
-0.076424
-0.076424
0.00909744
0.00909744
-0.0703893
-0.0703893
-0.0113783
-0.0113783
-0.00503889
-0.00503889
0.04823
0.04823
-0.0115796
-0.0115796
0.0081106
0.0081106
-0.00487408
-0.00487408
0.0239876
0.0239876
0.0408036
0.0408036
-0.00817748
-0.00817748
0.00742846
0.00742846
-0.0719696
-0.0719696
0.00416938
0.00416938
0.000684057
0.000684057
0.0100098
0.0100098
0.00941444
0.00941444
-0.0987955
-0.0987955
0.0245126
0.0245126
-0.022618
-0.022618
0.00629597
0.00629597
0.046577
0.046577
-0.0147439
-0.0147439
0.112481
0.112481
0.00707356
0.00707356
0.125865
0.125865
-0.00476967
-0.00476967
0.00333419
0.00333419
0.108015
0.108015
-0.00328067
-0.00328067
-0.0143122
-0.0143122
0.00172057
0.00172057
-0.0340485
-0.0340485
-0.00442423
-0.00442423
0.00543423
0.00543423
-0.0163471
-0.0163471
0.0375139
0.0375139
-0.0425641
-0.0425641
0.0277205
0.0277205
-0.0840023
-0.0840023
-0.0115828
-0.0115828
-0.039843
-0.039843
0.0120851
0.0120851
-0.00163659
-0.00163659
0.000233204
0.000233204
-0.00749286
-0.00749286
-0.0276967
-0.0276967
0.00621785
0.00621785
0.00669397
0.00669397
-0.0387771
-0.0387771
-0.0125078
-0.0125078
-0.0577477
-0.0577477
-0.060913
-0.060913
0.028328
0.028328
-0.0304512
-0.0304512
0.00114497
0.00114497
0.0190534
0.0190534
-0.100343
-0.100343
-0.0466744
-0.0466744
-0.0102624
-0.0102624
-0.0151717
-0.0151717
0.00859354
0.00859354
0.0397395
0.0397395
0.0131381
0.0131381
-0.0207702
-0.0207702
0.00294981
0.00294981
0.0123304
0.0123304
0.00379511
0.00379511
0.0396236
0.0396236
-0.00142735
-0.00142735
-0.0136162
-0.0136162
0.00376063
0.00376063
0.00416963
0.00416963
-0.00384584
-0.00384584
0.00222562
0.00222562
0.0518584
0.0518584
0.113865
0.113865
-0.0624259
-0.0624259
0.00994065
0.00994065
-0.0385944
-0.0385944
0.037542
0.037542
-0.00716966
-0.00716966
-0.00693333
-0.00693333
-0.00872978
-0.00872978
-0.114019
-0.114019
0.00302901
0.00302901
0.0122451
0.0122451
0.0879046
0.0879046
-0.0403812
-0.0403812
0.00971901
0.00971901
-0.00555724
-0.00555724
-0.0106072
-0.0106072
-0.00349941
-0.00349941
0.00995564
0.00995564
-0.0341514
-0.0341514
0.0333855
0.0333855
-0.03004
-0.03004
-0.0192232
-0.0192232
0.0114758
0.0114758
-0.0609206
-0.0609206
-0.0197252
-0.0197252
-0.00327436
-0.00327436
0.00844262
0.00844262
0.0435976
0.0435976
-0.0149681
-0.0149681
-0.0112209
-0.0112209
0.0434532
0.0434532
-0.0365386
-0.0365386
-0.00596317
-0.00596317
-0.0714579
-0.0714579
-0.0024097
-0.0024097
0.00743661
0.00743661
-0.00140342
-0.00140342
0.00195948
0.00195948
0.00848203
0.00848203
-0.0316499
-0.0316499
-0.000855368
-0.000855368
0.105
0.105
0.00922276
0.00922276
0.000787274
0.000787274
-0.0203355
-0.0203355
0.00395304
0.00395304
-0.197871
-0.197871
0.0125171
0.0125171
0.0309882
0.0309882
-0.00202558
-0.00202558
-0.0181597
-0.0181597
0.000573378
0.000573378
-0.0265059
-0.0265059
-0.0189492
-0.0189492
-0.113728
-0.113728
0.0371252
0.0371252
0.0167466
0.0167466
-0.00446885
-0.00446885
-0.00387519
-0.00387519
-0.0232019
-0.0232019
-0.0426823
-0.0426823
0.00953639
0.00953639
0.0143971
0.0143971
-0.0113896
-0.0113896
-0.0948446
-0.0948446
0.0920859
0.0920859
0.0231903
0.0231903
-0.0111881
-0.0111881
0.00110915
0.00110915
-0.0247288
-0.0247288
-0.0227599
-0.0227599
0.0619979
0.0619979
0.00841098
0.00841098
-0.0274774
-0.0274774
-0.0172679
-0.0172679
0.00356932
0.00356932
0.00577841
0.00577841
0.0502167
0.0502167
-0.0034918
-0.0034918
0.0511582
0.0511582
0.00360895
0.00360895
0.0599589
0.0599589
0.0214226
0.0214226
0.0454914
0.0454914
0.127236
0.127236
-0.00374639
-0.00374639
0.00588202
0.00588202
0.0132808
0.0132808
-0.0139648
-0.0139648
-0.00743214
-0.00743214
0.0481314
0.0481314
-0.0410288
-0.0410288
-0.0333231
-0.0333231
0.00531336
0.00531336
-0.0416184
-0.0416184
0.0198824
0.0198824
-0.0123835
-0.0123835
-0.00547215
-0.00547215
0.0196421
0.0196421
0.00205927
0.00205927
-0.0184408
-0.0184408
0.0210704
0.0210704
0.031525
0.031525
0.00708633
0.00708633
-0.0178676
-0.0178676
0.00251098
0.00251098
0.00966119
0.00966119
0.0200741
0.0200741
-0.091177
-0.091177
0.0427687
0.0427687
0.0296561
0.0296561
0.0255145
0.0255145
-0.0145454
-0.0145454
-0.0144574
-0.0144574
-0.00601015
-0.00601015
-0.0450422
-0.0450422
0.0208098
0.0208098
0.0162112
0.0162112
-0.0093034
-0.0093034
0.0251761
0.0251761
0.00886521
0.00886521
-0.00937031
-0.00937031
0.00610307
0.00610307
0.0972806
0.0972806
0.0335534
0.0335534
0.0170765
0.0170765
0.020029
0.020029
-0.000770956
-0.000770956
-0.0066042
-0.0066042
-0.00101596
-0.00101596
-0.0712936
-0.0712936
0.00211938
0.00211938
-0.0176957
-0.0176957
-0.00449727
-0.00449727
0.0179375
0.0179375
-0.00487418
-0.00487418
0.0162778
0.0162778
0.0104421
0.0104421
-0.00450565
-0.00450565
0.0305087
0.0305087
0.0591034
0.0591034
-0.0327716
-0.0327716
0.0051703
0.0051703
0.0148966
0.0148966
0.00866748
0.00866748
0.00452252
0.00452252
0.0160345
0.0160345
0.0398186
0.0398186
-0.00115523
-0.00115523
-0.00403233
-0.00403233
-0.00933253
-0.00933253
-0.0160436
-0.0160436
0.0257047
0.0257047
-0.0154288
-0.0154288
-0.00140193
-0.00140193
0.00578906
0.00578906
0.0487412
0.0487412
0.0395557
0.0395557
0.0372983
0.0372983
-0.00449886
-0.00449886
-0.0241543
-0.0241543
0.00661294
0.00661294
0.0240284
0.0240284
-0.0427446
-0.0427446
-0.01346
-0.01346
0.00773388
0.00773388
0.00926102
0.00926102
0.0885326
0.0885326
-0.0493279
-0.0493279
0.0316498
0.0316498
-0.0158812
-0.0158812
-0.0551905
-0.0551905
-0.0684633
-0.0684633
-0.00262769
-0.00262769
0.00820634
0.00820634
-0.0793949
-0.0793949
0.0354378
0.0354378
0.0794157
0.0794157
0.00803182
0.00803182
0.0371946
0.0371946
-0.0597566
-0.0597566
0.133009
0.133009
-0.0491601
-0.0491601
0.0433444
0.0433444
-0.0585599
-0.0585599
0.0523044
0.0523044
-0.0182682
-0.0182682
0.00852976
0.00852976
-0.0582062
-0.0582062
0.0743276
0.0743276
0.0802485
0.0802485
0.0346675
0.0346675
0.0553254
0.0553254
-0.0100561
-0.0100561
0.0508458
0.0508458
0.0195911
0.0195911
0.00275244
0.00275244
-0.00392395
-0.00392395
0.0947662
0.0947662
-0.0204634
-0.0204634
-0.0317173
-0.0317173
0.0108942
0.0108942
-0.0160173
-0.0160173
0.00847132
0.00847132
-0.00390016
-0.00390016
0.0254966
0.0254966
-0.0125275
-0.0125275
-0.0405873
-0.0405873
0.0330089
0.0330089
-0.0173808
-0.0173808
0.0276896
0.0276896
0.0177489
0.0177489
0.00538145
0.00538145
-0.0153885
-0.0153885
0.053008
0.053008
0.105867
0.105867
-0.0256963
-0.0256963
-0.00489955
-0.00489955
0.00540188
0.00540188
0.00489276
0.00489276
-0.00708674
-0.00708674
-0.0198118
-0.0198118
-0.0554066
-0.0554066
-0.00235462
-0.00235462
-0.0448564
-0.0448564
0.0191229
0.0191229
0.00768772
0.00768772
0.00872763
0.00872763
-0.00729999
-0.00729999
0.0126062
0.0126062
-0.0111638
-0.0111638
0.127311
0.127311
-0.00966499
-0.00966499
-0.00921676
-0.00921676
0.0147053
0.0147053
0.0576416
0.0576416
-0.00508059
-0.00508059
0.104305
0.104305
0.118797
0.118797
-0.0192525
-0.0192525
-0.0153924
-0.0153924
0.0294594
0.0294594
-0.0412603
-0.0412603
-0.0151254
-0.0151254
-0.00461736
-0.00461736
-0.0122634
-0.0122634
-0.0723748
-0.0723748
0.00548577
0.00548577
0.00938772
0.00938772
0.0420153
0.0420153
0.00274404
0.00274404
-0.0291359
-0.0291359
-0.0220471
-0.0220471
-0.0293157
-0.0293157
0.00378698
0.00378698
0.00118313
0.00118313
-0.00251436
-0.00251436
-0.0789518
-0.0789518
0.0113787
0.0113787
0.00482504
0.00482504
0.000497185
0.000497185
0.0050406
0.0050406
0.0134096
0.0134096
-0.000516551
-0.000516551
-0.00597642
-0.00597642
0.0255648
0.0255648
0.00934187
0.00934187
0.000637257
0.000637257
0.0192218
0.0192218
0.0219795
0.0219795
0.00962688
0.00962688
-0.00803394
-0.00803394
-0.0050733
-0.0050733
-0.0137708
-0.0137708
0.00577088
0.00577088
0.00646205
0.00646205
-0.00996828
-0.00996828
0.00128221
0.00128221
0.0101347
0.0101347
-0.0207545
-0.0207545
-0.00393269
-0.00393269
0.126605
0.126605
0.0183645
0.0183645
0.017672
0.017672
0.176371
0.176371
-0.0166205
-0.0166205
-0.0110319
-0.0110319
-0.0122056
-0.0122056
-0.00299313
-0.00299313
-0.0069328
-0.0069328
-0.00104853
-0.00104853
0.0253292
0.0253292
-0.0062728
-0.0062728
0.00224036
0.00224036
-0.0167619
-0.0167619
-0.00948958
-0.00948958
-0.00453921
-0.00453921
-0.00794825
-0.00794825
-0.0242203
-0.0242203
-0.0237895
-0.0237895
-0.124595
-0.124595
-0.00443752
-0.00443752
-0.011619
-0.011619
0.0995265
0.0995265
0.00700133
0.00700133
0.00108346
0.00108346
0.0102049
0.0102049
0.12876
0.12876
0.0174141
0.0174141
-0.00474205
-0.00474205
-0.0721597
-0.0721597
0.0193015
0.0193015
0.00660183
0.00660183
-0.0320766
-0.0320766
0.0911455
0.0911455
0.0132125
0.0132125
0.00407848
0.00407848
-0.00508819
-0.00508819
-0.0850245
-0.0850245
-0.00511001
-0.00511001
0.0125199
0.0125199
0.011031
0.011031
0.00338904
0.00338904
0.024009
0.024009
-0.00750444
-0.00750444
0.0190956
0.0190956
0.00573765
0.00573765
0.00682285
0.00682285
-0.0174724
-0.0174724
-0.00464508
-0.00464508
0.00978762
0.00978762
0.0384531
0.0384531
0.000408845
0.000408845
-0.0366984
-0.0366984
-0.0105776
-0.0105776
-0.0604763
-0.0604763
0.00573093
0.00573093
0.0127697
0.0127697
0.00595605
0.00595605
-0.0155658
-0.0155658
0.0171474
0.0171474
0.093205
0.093205
0.000218471
0.000218471
0.00902979
0.00902979
0.00664723
0.00664723
0.00681502
0.00681502
-0.0123969
-0.0123969
0.00466088
0.00466088
-0.0375078
-0.0375078
0.00704577
0.00704577
-0.0565223
-0.0565223
0.00643114
0.00643114
-0.134232
-0.134232
-0.000248823
-0.000248823
-0.00384404
-0.00384404
-0.0151464
-0.0151464
-0.0441438
-0.0441438
0.0395702
0.0395702
0.0268229
0.0268229
-0.0513185
-0.0513185
-0.00132899
-0.00132899
-0.0489416
-0.0489416
-0.00581478
-0.00581478
-0.0100078
-0.0100078
0.135597
0.135597
-0.00667586
-0.00667586
0.049073
0.049073
0.00762146
0.00762146
-0.00804736
-0.00804736
-0.128618
-0.128618
0.0797089
0.0797089
0.019545
0.019545
0.027711
0.027711
0.0143439
0.0143439
-0.0386115
-0.0386115
-0.00400117
-0.00400117
0.112865
0.112865
-0.0282825
-0.0282825
-0.0378753
-0.0378753
-0.052262
-0.052262
0.0140894
0.0140894
0.0120744
0.0120744
0.114809
0.114809
0.00455423
0.00455423
-0.0127893
-0.0127893
-0.00937799
-0.00937799
-0.00798248
-0.00798248
-0.0439401
-0.0439401
-0.0236207
-0.0236207
0.0078686
0.0078686
0.00619295
0.00619295
-0.0907992
-0.0907992
0.00345467
0.00345467
-0.133833
-0.133833
-0.011477
-0.011477
-0.0185278
-0.0185278
-0.0279507
-0.0279507
0.0031629
0.0031629
0.00863602
0.00863602
-0.00743636
-0.00743636
-0.0140251
-0.0140251
-0.0160104
-0.0160104
0.0213186
0.0213186
-0.0199546
-0.0199546
-0.0218573
-0.0218573
0.0237987
0.0237987
0.0077525
0.0077525
0.0312818
0.0312818
-0.0315349
-0.0315349
-0.00445496
-0.00445496
0.0225038
0.0225038
0.119816
0.119816
-0.0480766
-0.0480766
-0.0401051
-0.0401051
0.00871257
0.00871257
0.00561881
0.00561881
0.00100706
0.00100706
0.0171975
0.0171975
-0.00874064
-0.00874064
-0.012992
-0.012992
0.0241444
0.0241444
-0.0496991
-0.0496991
0.00397271
0.00397271
-0.00372557
-0.00372557
-0.0139576
-0.0139576
-0.147415
-0.147415
0.00259304
0.00259304
-0.00374931
-0.00374931
-0.0572788
-0.0572788
0.0165143
0.0165143
0.0155073
0.0155073
-0.0101308
-0.0101308
0.0912437
0.0912437
-0.0672889
-0.0672889
0.00611953
0.00611953
-0.0148293
-0.0148293
0.0516157
0.0516157
0.00108304
0.00108304
-0.0105536
-0.0105536
-0.113693
-0.113693
-0.0235063
-0.0235063
0.0609275
0.0609275
-0.00451486
-0.00451486
-0.00504264
-0.00504264
-0.0360131
-0.0360131
0.00745377
0.00745377
-0.00341767
-0.00341767
0.0115712
0.0115712
0.0370144
0.0370144
-0.0122731
-0.0122731
-0.00310674
-0.00310674
-0.00378611
-0.00378611
0.00166752
0.00166752
0.104086
0.104086
0.0125369
0.0125369
-0.0384375
-0.0384375
-0.0107074
-0.0107074
0.0722026
0.0722026
0.000292324
0.000292324
0.0145269
0.0145269
0.0731864
0.0731864
-0.0580806
-0.0580806
-0.0612469
-0.0612469
0.000328255
0.000328255
0.0187918
0.0187918
0.0530568
0.0530568
-0.0217103
-0.0217103
0.00584628
0.00584628
-0.00374427
-0.00374427
0.00114501
0.00114501
0.0443527
0.0443527
0.0224382
0.0224382
0.00533891
0.00533891
-0.00555477
-0.00555477
0.0439105
0.0439105
-0.00597223
-0.00597223
-0.00535619
-0.00535619
-0.027309
-0.027309
-0.035775
-0.035775
-0.0927296
-0.0927296
-0.0144244
-0.0144244
0.00148552
0.00148552
0.00270842
0.00270842
0.00418023
0.00418023
-0.0809946
-0.0809946
-0.00446707
-0.00446707
-0.0069562
-0.0069562
-0.064652
-0.064652
0.0265501
0.0265501
0.0330957
0.0330957
0.00810344
0.00810344
0.0283214
0.0283214
-0.00674986
-0.00674986
-0.0120571
-0.0120571
-0.0163452
-0.0163452
-0.00205241
-0.00205241
-0.0551096
-0.0551096
0.0392205
0.0392205
-0.0209326
-0.0209326
-0.0116096
-0.0116096
0.0122459
0.0122459
0.0524806
0.0524806
-0.0284959
-0.0284959
0.00685231
0.00685231
-0.0252788
-0.0252788
-0.00319985
-0.00319985
-0.0106978
-0.0106978
0.00952809
0.00952809
-0.000244983
-0.000244983
0.00377112
0.00377112
-0.0211648
-0.0211648
0.00944594
0.00944594
-0.000890304
-0.000890304
-0.00828855
-0.00828855
0.00796386
0.00796386
-0.0110489
-0.0110489
-0.00272717
-0.00272717
0.0161005
0.0161005
      </DataArray> 
    </PointData>
    <CellData>
    </CellData>
  </Piece>
  </UnstructuredGrid>
</VTKFile>
