<?xml version="1.0"?>
<VTKFile type="UnstructuredGrid">
  <UnstructuredGrid>
  <Piece NumberOfPoints="3487"  NumberOfCells="1698">
    <Points>
      <DataArray type="Float64" NumberOfComponents="3" format="ascii">
39.9735 48.7463 0
60.0269 48.7457 0
40.6342 48.8771 0
41.2965 48.999 0
41.9601 49.1119 0
42.6252 49.2158 0
43.2915 49.3107 0
43.959 49.3966 0
44.6275 49.4735 0
45.2971 49.5414 0
45.9674 49.6002 0
46.6385 49.65 0
47.3101 49.6908 0
47.9823 49.7225 0
48.6547 49.7451 0
49.3275 49.7587 0
50.0003 49.7632 0
50.6732 49.7586 0
51.3459 49.745 0
52.0184 49.7223 0
52.6905 49.6906 0
53.3621 49.6498 0
54.0332 49.6 0
54.7035 49.5411 0
55.373 49.4732 0
56.0416 49.3963 0
56.709 49.3103 0
57.3753 49.2154 0
58.0404 49.1114 0
58.704 48.9985 0
59.3662 48.8765 0
39.9959 49.7622 0
39.9951 49.5082 0
39.991 49.2542 0
39.9838 49.0002 0
19.9325 69.6989 0
39.9935 50.0238 0
39.9876 50.2854 0
39.973 50.6638 0
39.9512 51.0418 0
39.907 51.588 0
39.8479 52.1328 0
39.7358 52.9178 0
39.5927 53.6978 0
39.3311 54.815 0
39.0056 55.9155 0
38.731 56.6991 0
38.4241 57.4707 0
38.0853 58.2289 0
37.7154 58.9724 0
37.1261 60.0197 0
36.4749 61.0296 0
35.7643 61.9987 0
-0.0353219 49.6666 0
17.3225 69.5218 0
14.7579 69.0061 0
12.2824 68.1606 0
9.93823 66.9995 0
7.76547 65.5428 0
11.5406 31.6894 0
0.170295 46.8477 0
0.772539 44.0866 0
1.75959 41.4385 0
0 0 0
0.122618 3.71418 0
0.532768 7.41273 0
1.2243 11.0718 0
2.19242 14.667 0
3.09839 17.3148 0
49.9998 -0.226601 0
5.1116 0 0
10.2232 0 0
15.3348 0 0
100 0 0
57.4016 -0.219526 0
64.8033 -0.193691 0
72.1999 -0.139586 0
88.4598 31.6889 0
99.8774 3.71417 0
99.4673 7.41258 0
98.7758 11.0716 0
97.8077 14.6668 0
96.9017 17.3146 0
100.035 49.6663 0
99.8298 46.8475 0
99.2276 44.0863 0
98.2405 41.4382 0
80.0675 69.6985 0
99.869 52.2767 0
99.3626 54.8431 0
98.5253 57.3212 0
97.3714 59.6689 0
95.921 61.8457 0
60.0043 49.7616 0
77.5566 69.5466 0
75.0844 69.0811 0
72.6902 68.3095 0
70.4115 67.2438 0
68.9236 66.3442 0
67.5192 65.3189 0
66.2092 64.1755 0
65.0033 62.9228 0
64.2358 61.9981 0
63.5251 61.0291 0
62.874 60.0191 0
62.2847 58.9719 0
61.5761 57.4702 0
60.9945 55.9149 0
60.6691 54.8145 0
60.4074 53.6972 0
60.2643 52.9172 0
60.0052 49.5076 0
60.0092 49.2536 0
60.0165 48.9996 0
52.8178 30.0182 0
26.5344 36.8414 0
40.3373 24.1464 0
24.9438 22.4268 0
71.9266 22.4511 0
72.7041 43.895 0
54.8008 23.969 0
15.2962 47.3492 0
38.3596 49.3739 0
23.5826 65.1755 0
7.69102 7.73258 0
91.9505 7.71081 0
29.1547 56.8264 0
37.1802 51.8448 0
28.0874 47.1393 0
29.726 48.1005 0
71.5159 46.6241 0
30.984 48.999 0
70.5164 48.102 0
31.6367 45.5866 0
30.8866 47.0417 0
70.0644 46.6127 0
68.9824 44.9369 0
31.2873 50.094 0
30.8987 51.3168 0
28.1846 49.0958 0
45.3089 41.2216 0
53.8433 40.8427 0
56.0267 40.3916 0
73.1293 47.3788 0
70.1174 49.3425 0
68.3302 42.3666 0
32.3132 42.6968 0
26.1361 45.6218 0
27.6775 44.6264 0
30.3061 43.2548 0
70.4111 42.5656 0
72.6772 45.8901 0
44.8495 43.014 0
51.4305 41.9205 0
55.4093 42.5069 0
32.4479 49.0351 0
68.558 49.5787 0
39.4783 42.0053 0
35.4409 43.3216 0
32.8946 46.4847 0
33.5759 48.2327 0
67.1053 48.1775 0
67.9827 46.415 0
65.0715 42.9848 0
60.4179 41.6428 0
32.3627 51.3534 0
28.2109 50.9544 0
41.7796 37.2278 0
46.8239 37.6323 0
52.0488 39.8052 0
58.6769 39.1748 0
26.5985 51.8508 0
24.294 50.2849 0
74.2323 49.8918 0
71.1702 50.5939 0
69.1485 52.1742 0
67.9231 52.3079 0
59.7608 36.2949 0
66.5009 40.6125 0
34.1096 40.9889 0
36.0279 35.7267 0
23.1804 47.1157 0
21.6463 43.22 0
28.3552 41.7384 0
74.3174 44.65 0
76.6413 48.4986 0
43.0548 43.602 0
46.269 42.8877 0
49.9681 42.9357 0
48.4329 42.7185 0
51.763 43.9732 0
54.0881 44.0889 0
52.9059 44.3845 0
56.2722 43.6377 0
33.8794 49.328 0
33.7788 50.8415 0
66.5416 51.6567 0
66.5983 49.6657 0
41.8325 43.8395 0
40.7035 43.5771 0
38.4615 43.1844 0
37.1431 43.7896 0
35.3467 45.4976 0
34.3259 46.7771 0
66.0234 46.5011 0
65.0181 45.2276 0
63.1889 43.4733 0
61.7033 43.024 0
58.8779 43.4374 0
57.5386 43.7536 0
33.3901 52.0647 0
29.1585 53.6749 0
40.8364 30.9511 0
50.8852 35.9464 0
55.6664 34.2286 0
23.5508 53.3971 0
76.9265 51.8659 0
70.2458 53.2814 0
66.4136 52.898 0
65.4696 35.1114 0
30.9566 34.5298 0
19.4414 47.2367 0
26.131 39.9758 0
71.9983 34.051 0
72.051 41.3262 0
77.4864 45.2531 0
43.1675 45.0441 0
45.8097 44.6803 0
48.7648 44.7712 0
51.4433 45.3997 0
53.7687 45.5154 0
56.2176 45.3359 0
34.9069 50.0391 0
65.0887 50.2554 0
40.8159 45.0191 0
38.3682 45.3616 0
36.0286 47.2461 0
64.1401 46.9908 0
61.649 45.2682 0
58.8238 45.1355 0
36.0627 52.3136 0
34.9107 53.0764 0
33.4946 53.588 0
31.892 55.3797 0
26.0785 58.847 0
22.9826 57.2508 0
32.4031 22.6576 0
47.0379 26.6371 0
63.1334 22.9997 0
19.9765 54.9597 0
80.2009 54.2251 0
75.8131 55.7337 0
71.9495 56.0865 0
69.1012 55.4078 0
65.782 53.9068 0
64.1057 53.7515 0
68.1475 28.9549 0
26.7834 30.0445 0
17.2278 51.6913 0
14.5974 42.3931 0
22.4089 34.0212 0
84.9025 46.8109 0
84.7329 51.9625 0
75.1654 37.8877 0
81.2152 43.8892 0
42.4569 46.3747 0
41.4164 46.183 0
44.9657 46.2201 0
43.6795 46.1371 0
47.7364 46.1613 0
46.3857 46.0939 0
50.62 46.4746 0
49.2721 46.3785 0
53.0506 46.8697 0
51.7631 46.8859 0
55.513 46.482 0
54.2331 46.5741 0
58.0613 46.4358 0
56.7798 46.598 0
36.3722 48.5685 0
36.0245 49.57 0
35.9238 51.084 0
63.3905 52.0178 0
63.833 51.0049 0
63.8898 49.0132 0
63.8379 48.1105 0
40.287 45.9204 0
39.3713 46.0999 0
38.0524 46.7047 0
37.3934 47.2888 0
62.8325 46.8368 0
62.0166 46.5123 0
60.5306 46.0635 0
59.401 46.1193 0
38.054 52.5155 0
36.167 53.8374 0
34.0609 56.6979 0
29.5796 59.7649 0
22.851 61.3095 0
21.7436 15.3863 0
39.969 16.1735 0
48.9013 11.454 0
56.94 16.9028 0
76.6391 15.6218 0
15.6157 57.0051 0
84.5436 57.4401 0
73.4305 59.4285 0
66.5319 55.5666 0
62.4641 53.5229 0
82.9403 7.82609 0
79.7348 22.5749 0
16.3075 7.90809 0
18.3545 22.2922 0
10.7083 46.7079 0
16.5866 35.9571 0
15.5337 30.3657 0
89.4209 49.5827 0
83.2995 31.2084 0
81.5728 39.2498 0
41.9281 47.2761 0
44.2554 47.5508 0
46.8927 47.7012 0
49.5916 47.8648 0
52.2273 47.9446 0
54.795 47.8363 0
57.3567 47.5821 0
37.3894 49.6133 0
37.9153 51.2854 0
62.1913 50.7756 0
62.5819 48.8597 0
39.9716 47.2641 0
38.3965 48.0275 0
38.511 48.7975 0
61.7658 48.4958 0
61.7141 47.6324 0
59.7683 47.3641 0
38.8854 51.0465 0
61.3517 50.9806 0
39.1909 52.8269 0
38.4559 53.3861 0
38.1624 54.4948 0
37.0105 55.2573 0
36.5041 57.0301 0
34.8541 58.5511 0
33.3444 60.4069 0
30.7253 62.5146 0
27.9627 64.6636 0
27.1733 7.80012 0
38.6577 8.31096 0
59.8751 8.5343 0
71.7628 7.87844 0
19.2082 64.6173 0
14.9124 62.881 0
10.7143 60.0912 0
6.26819 57.0455 0
5.98093 51.1142 0
94.2535 52.2108 0
93.3412 57.2643 0
89.3584 60.6104 0
84.6072 63.1249 0
79.5008 64.7998 0
74.6006 63.8366 0
70.2909 62.5588 0
66.852 61.1084 0
65.2342 58.4381 0
62.732 57.114 0
62.087 55.5856 0
61.7934 54.4769 0
61.0781 52.7429 0
93.4967 14.5346 0
89.7942 20.6977 0
86.1029 25.0352 0
6.24969 14.5278 0
13.0154 24.5017 0
9.79046 20.6877 0
5.74798 45.5481 0
5.64853 40.6065 0
12.3099 34.6855 0
94.2427 47.0936 0
88.117 37.0285 0
93.3667 42.368 0
41.0917 48.0417 0
40.4306 47.9154 0
42.1327 48.2334 0
43.4638 48.4321 0
42.7969 48.3417 0
44.7504 48.5152 0
46.0901 48.6419 0
45.4194 48.5875 0
47.441 48.7093 0
48.7855 48.7636 0
48.1129 48.7455 0
50.1336 48.8597 0
51.479 48.8416 0
50.8064 48.8597 0
52.7667 48.8253 0
54.1092 48.7347 0
53.4386 48.789 0
55.3894 48.6427 0
56.7252 48.4798 0
56.0584 48.5702 0
58.0071 48.3176 0
59.3324 48.0828 0
58.6713 48.2091 0
39.3701 51.499 0
39.3184 52.0444 0
60.9506 51.9604 0
60.8989 51.415 0
38.0116 50.3758 0
39.1333 49.5601 0
61.7942 49.9674 0
61.8177 49.3989 0
60.978 49.6036 0
39.5145 48.0947 0
39.1704 48.2134 0
60.9495 48.1715 0
60.4625 48.0267 0
39.4665 50.5892 0
60.5018 50.6067 0
39.4889 49.9494 0
39.4847 50.211 0
60.4836 50.2285 0
60.4794 49.9669 0
39.6404 49.3727 0
39.6291 48.8649 0
39.638 49.1187 0
60.5028 49.3981 0
60.5052 49.1442 0
60.5142 48.8904 0
61.0014 49.035 0
39.2848 48.9835 0
60.9546 50.1723 0
38.9817 50.1367 0
60.8981 47.3079 0
39.0556 47.4433 0
62.634 49.7626 0
37.0414 50.615 0
61.749 51.7889 0
38.789 51.9562 0
58.6384 47.4198 0
56.075 47.7443 0
53.515 47.9283 0
50.9397 47.9609 0
48.2436 47.7687 0
45.5419 47.6337 0
42.9689 47.4677 0
40.8875 47.0844 0
89.1616 44.7392 0
10.9211 40.8697 0
13.2808 16.1624 0
85.8808 16.3697 0
63.1795 55.2567 0
68.9327 58.4219 0
78.9633 59.8139 0
89.309 54.8641 0
11.7545 52.8131 0
19.2144 59.6401 0
66.7077 15.7261 0
30.7639 15.4483 0
26.3363 62.0843 0
32.1478 57.9375 0
35.015 54.6001 0
37.3189 53.0747 0
62.5302 47.9568 0
37.7371 48.6115 0
75.9351 28.6507 0
20.5187 28.5603 0
47.9155 19.2562 0
60.1633 44.8189 0
63.135 45.717 0
37.0493 45.9663 0
39.6867 44.7565 0
65.1458 48.2641 0
65.0322 52.247 0
34.8061 51.5529 0
35.0073 48.5255 0
57.4842 45.4518 0
54.9511 45.2198 0
52.5864 45.8111 0
50.3004 44.9884 0
47.2294 44.554 0
44.3899 44.8065 0
41.9451 45.2816 0
74.3441 42.6556 0
80.2712 48.8378 0
17.9948 43.2966 0
21.304 50.7486 0
34.446 29.6731 0
59.9827 30.2234 0
67.795 53.549 0
73.4089 52.9855 0
54.4611 38.7275 0
46.5093 32.884 0
26.2245 55.3543 0
31.974 52.5765 0
69.7591 39.9958 0
30.9824 40.3655 0
57.593 42.0555 0
63.2431 41.2299 0
66.9012 44.7386 0
33.6442 45.0292 0
37.2365 41.613 0
41.7199 42.3975 0
68.0513 51.0669 0
32.7513 50.1304 0
53.2254 42.958 0
49.636 40.883 0
74.2908 46.6448 0
25.7264 43.1099 0
71.9679 48.1131 0
26.5459 48.1344 0
69.0649 48.0909 0
32.1445 47.9401 0
71.064 45.1351 0
29.6286 46.1438 0
29.8232 50.0576 0
88.1502 34.3715 0
96.8881 38.9572 0
91.2984 35.7273 0
92.2301 38.588 0
96.083 37.7951 0
88.4986 40.762 0
3.112 38.9574 0
11.8772 33.1451 0
10.0066 35.0096 0
3.91719 37.7954 0
8.31802 37.5076 0
11.6933 37.0228 0
11.4026 22.5955 0
10.9901 26.4502 0
9.37742 24.5465 0
11.87 28.932 0
4.15329 19.9056 0
5.35379 22.4309 0
8.24146 22.7828 0
11.5349 18.4239 0
13.1468 20.3327 0
8.01918 17.6098 0
6.97103 20.2972 0
5.20027 17.2152 0
6.69566 24.8823 0
7.79451 26.6707 0
4.22063 14.5976 0
9.76419 15.3465 0
87.9489 22.8671 0
90.4151 24.5508 0
88.5692 26.7153 0
91.551 22.7874 0
95.8468 19.9054 0
94.6463 22.4307 0
87.7115 29.2462 0
85.9932 20.7032 0
87.8382 18.5326 0
91.6464 17.6182 0
94.673 17.2183 0
92.8215 20.3021 0
95.6527 14.6009 0
93.3044 24.882 0
92.2055 26.6704 0
89.6899 15.4537 0
65.8197 8.19711 0
62.3338 4.16832 0
68.282 3.83824 0
54.9425 4.14928 0
79.5536 0 0
84.6652 0 0
75.6579 3.92411 0
69.234 11.7995 0
63.291 12.1299 0
32.915 8.04598 0
31.1861 3.79809 0
36.9319 4.05754 0
23.8102 3.88783 0
20.4464 0 0
27.8006 -0.139086 0
44.3231 4.03638 0
34.7118 11.8793 0
28.9694 11.6223 0
81.6518 35.0657 0
85.4228 34.5619 0
85.0526 38.1415 0
86.2883 31.6176 0
85.0289 42.216 0
77.289 34.0009 0
80.0285 31.18 0
16.0662 32.882 0
14.1092 35.2874 0
13.9222 32.8339 0
14.1617 38.5098 0
13.5359 31.0306 0
17.6221 30.015 0
18.7529 32.9802 0
16.5272 27.3363 0
14.1101 28.2959 0
15.6849 23.3957 0
15.8175 19.2268 0
19.438 25.4245 0
81.6127 27.2693 0
82.9187 23.8041 0
84.8488 28.6816 0
82.8073 19.4708 0
77.833 25.6106 0
79.7888 11.7216 0
74.1981 11.7558 0
77.3463 7.86104 0
71.6705 15.6723 0
81.2492 3.90968 0
84.4113 12.0969 0
81.2588 15.9967 0
52.9216 14.1767 0
54.387 9.98967 0
58.4059 12.718 0
49.45 5.61272 0
61.8233 16.3109 0
52.4273 18.0772 0
48.4084 15.3553 0
44.4344 13.8118 0
39.3149 12.2422 0
43.7807 9.87837 0
35.3672 15.8075 0
43.9428 17.7128 0
19.0258 11.6461 0
21.7445 7.86438 0
24.461 11.5992 0
18.3748 3.95041 0
26.2564 15.4168 0
17.5127 15.7751 0
14.7933 12.0342 0
74.6436 34.026 0
78.7592 37.437 0
78.0984 41.0262 0
74.7546 40.2714 0
21.4655 31.29 0
19.3724 36.709 0
17.0677 39.5234 0
19.7412 40.3272 0
73.9657 31.3498 0
73.5811 35.9698 0
72.4622 38.9413 0
70.8784 37.0227 0
68.7337 34.5808 0
66.8081 32.0323 0
70.0721 31.5038 0
62.7254 32.6679 0
64.0646 29.5882 0
72.0407 28.8029 0
67.6134 37.5544 0
32.7019 32.1019 0
35.2373 32.6994 0
33.4924 35.128 0
33.5062 38.0469 0
36.6324 38.6695 0
30.9699 37.4476 0
59.8715 33.259 0
62.6151 35.7028 0
64.3563 38.17 0
61.5013 38.7628 0
57.8245 32.2255 0
57.7134 35.2619 0
57.1111 37.5109 0
55.0638 36.4779 0
46.6666 35.258 0
48.697 34.4149 0
48.8547 36.7893 0
50.2607 38.4146 0
52.6729 37.3369 0
48.2298 39.2576 0
38.9038 36.477 0
38.4328 33.3393 0
41.3081 34.0891 0
37.6414 30.3114 0
43.6728 31.9172 0
44.1449 35.056 0
39.5087 39.4209 0
44.3018 37.4301 0
46.0666 39.4269 0
43.5145 41.8096 0
47.4725 41.0523 0
43.5441 39.2245 0
41.7499 39.8125 0
90.866 3.8551 0
87.4465 7.77107 0
86.3659 3.9198 0
88.9188 12.0445 0
89.7768 0 0
94.8884 0 0
95.9801 3.85831 0
96.4848 10.9782 0
92.725 11.1218 0
95.7092 7.56365 0
91.0314 28.4079 0
90.4155 29.2558 0
4.11166 7.5745 0
6.9689 11.1293 0
3.38852 10.9746 0
10.4829 11.9514 0
8.96875 28.4084 0
9.58456 29.2566 0
3.84076 3.86894 0
13.2584 3.95993 0
11.9983 7.82258 0
8.95484 3.86584 0
35.1965 -0.193393 0
42.5981 -0.219303 0
58.9667 23.4828 0
55.87 20.4358 0
60.0364 19.9515 0
51.3583 21.6118 0
64.9198 19.3618 0
61.5575 26.611 0
57.3913 27.0967 0
67.5288 22.7242 0
70.036 25.7016 0
65.6398 25.9785 0
73.9306 25.5521 0
69.3164 19.0909 0
78.1876 19.0993 0
75.8294 22.5128 0
74.2814 19.0333 0
23.3446 18.9042 0
21.6502 22.3591 0
20.0482 18.84 0
22.7311 25.4948 0
27.8545 18.9406 0
29.594 26.353 0
25.8651 26.2344 0
28.6745 22.5417 0
23.6515 29.3022 0
31.584 19.0524 0
33.4252 26.1648 0
30.6152 29.8587 0
40.5872 27.5489 0
43.6878 25.3908 0
43.9376 28.7943 0
44.1265 21.7008 0
47.4768 22.947 0
46.7737 29.7608 0
37.3923 26.9106 0
36.1868 19.4164 0
40.1538 20.1602 0
36.3709 23.4004 0
26.6602 33.4428 0
24.4716 35.4308 0
24.597 32.0338 0
22.5938 38.9882 0
28.8704 32.2861 0
28.746 35.686 0
28.7583 38.6027 0
51.8516 32.9821 0
54.2419 32.1234 0
53.2759 35.0873 0
56.4 30.1203 0
49.6638 31.4508 0
50.9193 25.3019 0
53.8092 26.9937 0
49.9277 28.3274 0
6.5603 37.1 0
6.98291 39.0559 0
5.22477 38.6507 0
9.61867 39.1901 0
8.28396 40.7381 0
4.38002 39.7819 0
4.80304 36.6938 0
5.76542 35.6586 0
7.55746 36.1021 0
10.8492 36.0175 0
10.005 37.2653 0
9.16178 36.2574 0
11.3066 38.9453 0
8.40256 34.8509 0
11.1576 34.8482 0
12.0011 35.8534 0
11.7045 30.3153 0
10.2187 30.0896 0
11.0431 29.5083 0
12.4417 26.7172 0
10.4185 28.6697 0
10.8697 30.9037 0
89.7815 30.0887 0
88.0859 30.471 0
88.7479 29.6643 0
89.3724 28.8261 0
86.9083 27.1411 0
89.131 30.9028 0
85.855 33.0894 0
87.2162 32.9981 0
86.786 34.4692 0
87.3739 31.6548 0
88.3064 33.0285 0
88.134 35.6994 0
86.7699 35.7966 0
84.3587 32.8866 0
84.7941 31.4134 0
86.7761 39.4521 0
86.7639 41.49 0
85.0412 40.1781 0
88.8304 42.75 0
87.0957 43.4776 0
83.3008 40.7337 0
83.3125 38.6963 0
86.5848 37.5865 0
88.3083 38.8945 0
79.47 34.5339 0
78.6584 32.5901 0
80.8387 33.1233 0
76.6108 31.3258 0
77.9817 29.9158 0
81.6641 31.1943 0
82.4747 33.1366 0
81.6123 37.1576 0
80.2057 36.2511 0
14.1349 36.898 0
12.9274 37.7673 0
12.9011 36.1559 0
12.5409 39.6897 0
13.2096 34.9873 0
15.348 35.6227 0
15.3744 37.2343 0
12.9005 32.9917 0
12.7109 32.0914 0
13.7303 31.9321 0
11.7087 32.4168 0
12.5386 31.3619 0
14.5347 30.6984 0
14.7298 31.6006 0
13.117 33.7614 0
12.0933 33.9149 0
16.8454 31.4489 0
18.1884 31.4973 0
17.4095 32.9312 0
19.0703 29.288 0
19.6371 30.7704 0
17.6709 34.4695 0
16.3267 34.4195 0
15.8012 31.6236 0
16.5778 30.1905 0
13.8233 29.6635 0
12.7047 29.9783 0
12.9902 28.6122 0
13.5624 26.399 0
14.823 29.3298 0
16.0308 28.8512 0
17.0755 28.6752 0
18.5237 27.9477 0
17.4404 24.8147 0
86.2798 28.9621 0
86.9969 30.429 0
85.5677 30.1501 0
84.0728 29.9441 0
85.4758 26.8579 0
82.4553 29.239 0
80.8192 29.224 0
80.6741 24.9224 0
78.7731 27.9594 0
80.1656 38.344 0
79.8356 40.138 0
78.4288 39.2314 0
76.6314 39.4575 0
76.2212 41.8408 0
76.9622 37.6624 0
15.6148 39.0172 0
15.8324 40.9585 0
14.3791 40.4509 0
17.5309 41.4095 0
16.2962 42.8454 0
12.7591 41.6325 0
16.8268 37.7399 0
19.5567 38.5179 0
18.4045 39.9255 0
18.2204 38.1168 0
18.868 41.812 0
17.9795 36.3332 0
20.8914 35.3658 0
20.983 37.8484 0
20.6936 41.7733 0
21.1678 39.6581 0
24.5647 37.9153 0
22.5019 36.5046 0
19.8207 43.2587 0
22.1202 41.1041 0
24.1599 41.0485 0
23.6866 43.1652 0
79.6566 42.4582 0
79.3507 44.5713 0
77.7925 43.1393 0
80.7434 46.3629 0
78.8788 47.0456 0
75.915 43.9547 0
81.3943 41.569 0
90.3652 39.6764 0
92.7989 40.4775 0
90.9334 41.5643 0
94.5593 38.7709 0
95.1282 40.6629 0
91.2647 43.5544 0
90.1744 37.8074 0
93.2478 36.2082 0
93.7142 37.6408 0
91.7648 37.1572 0
95.1971 36.6937 0
89.7088 36.3797 0
92.2499 35.2109 0
94.2349 35.6583 0
89.5472 33.6919 0
91.1205 34.3668 0
89.7252 35.048 0
93.2008 34.6949 0
92.1001 33.8087 0
93.8051 44.7304 0
96.2975 43.2252 0
96.7356 45.5899 0
90.9379 33.0055 0
89.7233 32.2942 0
97.1394 48.3784 0
91.7027 45.9155 0
10.4673 33.0752 0
10.9407 34.0747 0
9.53214 34.0089 0
6.79919 34.6952 0
7.89994 33.8089 0
5.69755 43.0774 0
3.25991 44.8168 0
3.21014 42.3446 0
2.85577 47.6052 0
9.06153 33.0055 0
10.2775 32.2939 0
8.33354 43.2063 0
66.0431 59.7733 0
65.1885 61.0686 0
64.3795 59.7334 0
65.9276 62.0154 0
60.1523 52.1322 0
60.0932 51.5874 0
63.7593 58.7048 0
67.0833 58.4299 0
67.8922 59.7649 0
68.5714 61.8336 0
68.9049 63.9385 0
67.1856 63.2135 0
70.3512 64.901 0
60.049 51.0412 0
60.0272 50.6632 0
69.6118 60.4902 0
77.0507 64.318 0
77.2922 66.9399 0
74.8426 66.4585 0
79.7842 67.2488 0
60.0127 50.2848 0
60.0068 50.0232 0
72.5058 65.5397 0
76.7816 61.8248 0
79.2321 62.3064 0
82.0538 63.9621 0
84.9247 66.0648 0
82.3719 66.9021 0
87.335 65.0613 0
94.1988 63.8149 0
92.2345 65.5425 0
81.7856 61.469 0
91.3498 58.9374 0
93.7702 60.539 0
91.779 62.2119 0
95.3566 58.466 0
90.0618 66.9992 0
87.7175 68.1602 0
89.7102 63.8042 0
89.3338 57.7368 0
91.3254 56.0637 0
93.7974 54.7374 0
96.8084 53.5259 0
96.3521 56.0534 0
97.1448 50.9383 0
85.242 69.0057 0
82.6774 69.5214 0
91.7814 53.5376 0
6.12439 54.0796 0
3.45262 55.9441 0
3.30871 52.9773 0
4.44818 58.3568 0
5.80118 63.8152 0
4.07902 61.846 0
2.97243 50.3898 0
8.86746 51.9638 0
9.01076 54.9282 0
8.49128 58.5684 0
8.25732 61.9524 0
6.03454 60.4298 0
10.3262 63.5446 0
2.62864 59.6692 0
1.47475 57.3215 0
11.2342 56.4512 0
17.0604 63.749 0
16.9827 66.8111 0
14.8351 65.943 0
19.5704 67.1577 0
0.637442 54.8433 0
0.131093 52.277 0
12.4249 64.9395 0
17.0631 61.2602 0
19.2113 62.1283 0
29.344 63.5891 0
31.6032 63.9168 0
30.2219 64.9912 0
32.8612 62.7187 0
34.9967 62.9233 0
33.7909 64.1761 0
28.7757 65.9537 0
27.1496 63.3738 0
28.5309 62.2993 0
34.0992 59.479 0
35.6646 59.7902 0
34.9097 60.7181 0
36.2848 58.7616 0
32.4808 65.3194 0
31.0764 66.3447 0
34.1706 61.6649 0
32.7461 59.172 0
33.501 58.2442 0
29.5885 67.2443 0
37.1098 58.0011 0
37.4641 57.2503 0
37.7549 56.4728 0
35.7596 55.8149 0
27.3098 68.31 0
83.5371 34.8145 0
85.2383 36.3511 0
83.3512 36.6053 0
91.8376 50.896 0
91.8321 48.3386 0
94.2483 49.652 0
89.2915 47.1605 0
89.3651 52.223 0
15.089 34.0861 0
14.0156 34.0605 0
14.9942 32.8582 0
8.34402 48.9097 0
5.86408 48.331 0
8.22773 46.1283 0
10.8142 43.788 0
11.2313 49.7602 0
15.3187 27.816 0
14.7721 25.9173 0
83.2309 27.9756 0
83.8564 26.1501 0
67.7323 56.9943 0
65.8829 57.0021 0
64.2068 56.8475 0
64.8556 55.4115 0
74.0156 61.6323 0
72.4458 63.1976 0
71.8605 60.9933 0
71.1816 58.9252 0
76.1968 59.6211 0
86.9514 59.0248 0
86.9827 61.8676 0
84.5754 60.282 0
81.7532 58.627 0
86.9262 56.1522 0
15.2639 59.9425 0
12.8135 61.486 0
13.1646 58.5477 0
13.6852 54.9092 0
17.4152 58.3225 0
31.4621 60.0857 0
32.0348 61.4608 0
30.1525 61.1396 0
27.9579 60.9245 0
30.8637 58.8512 0
35.2826 56.8639 0
35.6791 57.7906 0
34.4575 57.6244 0
33.1044 57.3177 0
34.538 55.649 0
78.0235 35.7193 0
76.2271 35.9439 0
84.8179 49.3862 0
87.1621 48.1966 0
87.0769 50.7731 0
87.0322 45.7758 0
87.0213 53.4129 0
82.5023 50.4002 0
82.5867 47.8248 0
19.0631 34.8445 0
20.5808 33.5005 0
69.0169 56.9147 0
67.8165 55.4871 0
67.1634 54.5577 0
68.4481 54.4784 0
73.8812 55.9101 0
74.6216 57.5808 0
72.6901 57.7575 0
77.3884 57.7736 0
70.441 57.2539 0
72.6791 54.5358 0
74.611 54.3596 0
82.4668 53.094 0
84.6383 54.7008 0
82.3725 55.8324 0
79.582 57.019 0
80.2361 51.5309 0
18.6023 53.3254 0
17.7959 55.9823 0
16.4215 54.3476 0
19.5954 57.2995 0
14.4909 52.2523 0
19.2659 51.2202 0
20.6402 52.8539 0
24.5307 58.0487 0
24.4646 60.0782 0
22.9168 59.2799 0
26.2074 60.4654 0
24.5937 61.6968 0
21.0328 60.4747 0
21.0984 58.4454 0
24.6035 56.3026 0
26.1515 57.1004 0
32.0199 56.6585 0
32.9765 56.0386 0
33.4535 54.9899 0
31.933 53.978 0
84.966 44.5129 0
83.059 45.3503 0
83.1219 43.0531 0
71.0977 54.684 0
70.5253 55.7472 0
69.6734 54.3445 0
69.0204 53.4152 0
71.8273 53.1334 0
78.5637 53.0455 0
78.0068 54.9794 0
76.3697 53.7995 0
75.1676 52.4256 0
78.5987 50.3517 0
23.2667 55.3237 0
21.4797 56.1051 0
21.7636 54.1785 0
22.4275 52.0727 0
24.8877 54.3756 0
78.4561 48.6684 0
77.0639 46.8756 0
75.8885 45.9489 0
75.466 47.5718 0
22.4133 45.1675 0
21.311 47.1765 0
20.5438 45.2284 0
22.2422 48.9321 0
20.3727 48.9924 0
18.718 45.2663 0
24.4536 45.1131 0
72.2895 51.7898 0
70.7079 51.9375 0
69.6107 50.8303 0
71.569 49.3534 0
75.4368 49.1951 0
76.7839 50.1821 0
75.5794 50.8789 0
73.8205 51.4384 0
74.2615 48.2682 0
25.4463 51.0678 0
25.0747 52.6241 0
23.9224 51.8409 0
26.4115 53.6024 0
22.7991 50.5168 0
25.42 49.2097 0
26.5722 49.9924 0
27.6915 54.5146 0
27.8786 52.7627 0
29.4909 51.8662 0
30.5663 53.1257 0
23.7372 48.7 0
24.8632 47.625 0
72.7012 50.2428 0
73.1 49.0025 0
27.6166 57.8367 0
29.3672 58.2955 0
27.8291 59.3058 0
30.6513 57.3818 0
27.6897 56.0902 0
30.5253 54.5271 0
30.5233 56.1031 0
29.1566 55.2505 0
23.2168 63.2422 0
21.3955 64.8962 0
21.0294 62.9632 0
21.7572 67.4368 0
24.9593 63.6297 0
26.4389 66.8723 0
24.2491 67.1283 0
25.7727 64.9194 0
24.9155 69.0816 0
22.4434 69.547 0
14.9465 44.8706 0
13.0021 47.0291 0
12.6522 44.5497 0
13.5248 50.0802 0
16.6452 45.3227 0
18.3344 49.4637 0
16.262 49.52 0
17.3688 47.2934 0
58.4031 8.23587 0
60.0064 10.1547 0
79.5373 20.2612 0
77.0422 20.4535 0
69.2474 13.9618 0
67.5947 15.8265 0
37.1882 13.3427 0
34.8423 12.4909 0
72.2306 44.5216 0
70.3965 42.8231 0
36.7079 22.0747 0
37.306 24.498 0
46.045 8.21925 0
45.1578 10.5568 0
1.84298 10.417 0
4.04841 9.23575 0
16.1401 3.99579 0
14.3604 2.25465 0
37.8059 13.4131 0
37.7715 10.9147 0
72.2774 1.15976 0
69.8124 1.55547 0
65.3698 25.0699 0
65.8267 22.6172 0
17.0811 0.163041 0
19.0984 1.62488 0
30.758 0.386134 0
29.0205 2.18679 0
20.1655 28.9703 0
18.0396 27.6626 0
87.2253 22.8918 0
89.7039 23.2607 0
80.4451 11.8785 0
79.0312 9.82099 0
53.4961 14.3645 0
52.9697 16.8082 0
79.8725 20.6688 0
77.3697 20.6157 0
95.4282 2.46813 0
96.8363 4.53125 0
40.4088 38.4227 0
38.2013 39.5936 0
34.3723 27.0871 0
35.0333 29.4928 0
88.3699 30.4778 0
87.7513 28.0763 0
42.4453 31.9497 0
44.3249 30.3044 0
26.0733 12.8796 0
26.9081 10.5259 0
40.5557 37.4981 0
42.7855 36.3716 0
65.917 38.6715 0
67.4454 40.6484 0
21.6631 36.5488 0
24.1548 36.7486 0
87.3001 18.0042 0
88.9268 16.1191 0
31.3048 9.96888 0
28.8725 10.5507 0
60.2773 8.29585 0
61.5787 10.4314 0
62.4187 9.37129 0
60.9663 7.3353 0
18.7625 6.9816 0
18.1829 9.39953 0
63.0444 43.8264 0
62.3508 46.2259 0
84.2872 25.8424 0
83.5992 28.2301 0
47.3529 44.2706 0
49.2163 42.6052 0
30.7343 4.79736 0
33.1074 5.57345 0
37.1921 2.305 0
36.8973 -0.176408 0
39.5201 0.547203 0
37.8507 2.40905 0
66.855 34.5282 0
64.5975 35.5931 0
25.239 21.3489 0
23.6666 23.2887 0
89.2226 30.2162 0
86.9608 29.1399 0
74.2849 10.0689 0
76.6636 9.31471 0
80.3499 12.8066 0
81.7533 14.8705 0
81.0961 16.9461 0
80.1835 19.258 0
78.4118 10.753 0
79.7567 12.8557 0
67.6697 27.491 0
65.1745 27.3799 0
62.4307 24.9008 0
60.0021 24.3181 0
61.7215 24.7251 0
62.4918 27.1018 0
69.5148 32.8808 0
67.0289 32.6316 0
82.579 12.5032 0
85.0226 13.0642 0
51.4582 18.1673 0
53.5378 19.5507 0
66.9877 16.0021 0
65.1639 14.2903 0
20.0241 22.4119 0
20.4782 19.9657 0
53.0633 24.062 0
52.9551 21.5648 0
62.0782 33.9531 0
64.0432 35.4967 0
67.9458 28.2535 0
69.9112 26.7181 0
27.3565 19.3837 0
25.428 17.8045 0
43.3834 3.98029 0
43.9155 1.53807 0
90.2239 10.2901 0
88.4262 8.55508 0
67.9636 36.799 0
68.6454 34.3998 0
9.52653 8.20317 0
11.9831 7.71679 0
49.9622 6.57675 0
52.3371 7.35786 0
81.1401 29.2041 0
83.0826 27.6396 0
43.1412 20.0212 0
45.5337 20.7317 0
73.0186 25.5581 0
75.2424 24.4251 0
59.3092 18.5746 0
57.064 19.6645 0
94.8288 14.9026 0
92.4084 14.2608 0
8.74748 19.4823 0
11.2083 19.0106 0
17.4548 22.7667 0
15.7942 20.9104 0
16.9433 36.4909 0
18.1515 34.3096 0
59.7821 41.9868 0
57.5895 43.1836 0
84.6123 20.424 0
84.6607 22.9081 0
9.9031 20.0972 0
7.80168 21.4584 0
16.8396 30.0584 0
15.2136 31.9471 0
46.6524 3.45188 0
48.1058 5.48598 0
57.7849 40.4003 0
55.7466 41.8438 0
67.5192 37.0914 0
69.5921 38.4884 0
68.3618 7.56644 0
70.2486 5.93544 0
24.8 8.56806 0
27.226 9.15357 0
16.1225 15.5319 0
15.2185 17.852 0
96.9801 4.64993 0
94.5092 5.03626 0
25.2263 33.8887 0
26.0439 31.5319 0
16.8132 15.7311 0
17.9385 17.9476 0
86.8939 15.7047 0
88.6008 13.8903 0
26.9769 36.4565 0
28.2524 38.5982 0
45.0572 37.1199 0
42.7615 38.1045 0
25.981 33.7394 0
28.4585 33.4092 0
70.5515 16.0042 0
72.5221 17.546 0
49.8256 47.7246 0
50.9704 45.5026 0
82.7672 18.3873 0
81.087 16.5388 0
12.4122 5.6083 0
9.987 5.00187 0
18.2995 2.66592 0
20.5317 1.53203 0
98.8991 4.27133 0
97.7035 6.45829 0
80.2991 37.4732 0
80.8913 35.0566 0
48.5364 3.64752 0
48.4436 1.15011 0
46.0841 5.31325 0
43.9282 6.58016 0
61.1096 38.106 0
59.0224 39.4765 0
81.2053 11.1327 0
81.7894 8.72111 0
79.3279 30.5033 0
77.0008 31.406 0
52.3969 8.16949 0
50.932 6.1438 0
25.893 30.025 0
23.759 28.7324 0
94.5645 17.4705 0
96.8444 16.45 0
29.5668 32.1628 0
31.8745 33.1136 0
65.8288 4.43906 0
65.8077 6.93821 0
53.2574 1.95097 0
51.4515 3.68079 0
14.5748 9.08055 0
15.1045 6.65167 0
7.219 18.866 0
5.02386 17.6768 0
61.2161 40.3903 0
59.8975 42.5114 0
74.2113 7.32873 0
73.7998 4.86562 0
23.5734 30.3458 0
23.8142 27.8662 0
78.8053 6.92894 0
76.6469 5.65396 0
79.0439 11.3264 0
81.1602 12.6656 0
7.63747 2.53587 0
5.13745 2.60709 0
76.4544 16.0073 0
74.4716 14.4791 0
47.9015 9.3857 0
49.6883 11.133 0
80.0438 2.04471 0
82.5016 1.5899 0
29.1687 29.992 0
27.2145 28.4426 0
70.9793 16.4099 0
71.5317 13.9816 0
4.52252 13.5798 0
6.48007 12.0232 0
40.5611 0.245233 0
39.5225 2.51877 0
60.4128 12.4195 0
59.8419 14.8515 0
41.2077 3.58687 0
39.1703 5.03744 0
33.6476 29.5002 0
36.1377 29.6844 0
33.1886 21.0098 0
32.97 18.5243 0
79.6039 15.5873 0
80.1594 18.0133 0
72.6664 34.7588 0
70.5315 33.4587 0
56.7302 8.3126 0
54.3225 7.64158 0
44.536 8.94047 0
43.2058 11.0575 0
82.5726 16.5517 0
83.6843 14.3287 0
11.588 0.312706 0
10.6937 2.63928 0
78.0204 16.1687 0
80.0527 17.6289 0
59.4281 3.04735 0
60.7525 5.16818 0
72.2891 1.2876 0
72.1977 3.78399 0
66.8127 2.71762 0
68.098 0.568558 0
13.3317 3.77048 0
15.1514 2.06004 0
71.9755 26.5855 0
74.4322 27.0461 0
16.8407 17.5194 0
15.4296 19.5764 0
72.2167 38.3642 0
72.1419 35.8717 0
43.479 20.8074 0
41.2162 21.8651 0
57.261 19.2779 0
57.5268 21.763 0
64.6872 28.8249 0
67.1696 28.5568 0
24.65 31.9303 0
27.0557 31.2523 0
50.1167 28.8123 0
49.1081 31.0981 0
59.8108 37.2116 0
58.5458 35.0566 0
22.4414 29.1035 0
24.8565 28.4603 0
39.6959 35.9283 0
37.2457 36.4148 0
5.90405 10.067 0
3.87532 11.53 0
54.8032 20.8098 0
56.8357 22.2624 0
68.5172 19.6724 0
68.8256 17.1978 0
42.0136 42.7125 0
42.7785 45.0913 0
19.0807 24.5844 0
16.931 25.8592 0
69.2649 4.17775 0
66.9182 3.31074 0
18.7298 12.8435 0
19.4325 10.4568 0
97.8432 0.5486 0
97.0284 2.90114 0
21.3132 0.605538 0
21.7814 3.03241 0
13.4419 5.97995 0
14.5795 8.19038 0
94.8211 5.80683 0
95.3503 3.37443 0
58.6738 11.6299 0
59.4744 13.9984 0
26.7308 39.9695 0
25.2338 41.9693 0
62.4308 18.766 0
64.5375 17.4301 0
9.52439 7.75008 0
11.9385 7.08596 0
44.2803 18.1039 0
41.8939 18.84 0
89.0227 10.8228 0
91.4864 10.3826 0
65.4958 41.6297 0
63.0713 41.0222 0
51.2708 34.413 0
53.6814 33.7639 0
12.7494 8.58294 0
14.74 10.0858 0
75.0577 18.4502 0
72.5631 18.2585 0
69.1719 26.4412 0
69.626 28.8947 0
19.5747 11.8162 0
21.8347 12.8784 0
36.8916 40.0528 0
34.4849 39.3841 0
29.3102 28.2984 0
30.9265 30.1966 0
12.3796 19.5941 0
13.5806 17.4089 0
42.0358 43.157 0
39.6425 43.8769 0
34.2184 5.15942 0
33.7256 7.61079 0
94.9573 17.0649 0
93.8715 14.8175 0
53.7767 26.2848 0
54.3563 28.7155 0
68.2961 36.3134 0
67.5214 38.6846 0
71.2492 37.0314 0
69.3077 38.5987 0
30.4646 15.5601 0
32.6207 16.8123 0
62.7527 8.0687 0
65.2362 8.34708 0
52.3944 17.3309 0
51.1254 19.4834 0
68.8503 3.64412 0
68.9129 6.14322 0
24.0088 7.75053 0
26.0455 9.17832 0
31.7708 14.6679 0
33.4871 16.4758 0
72.4515 6.01905 0
74.7243 5.01288 0
47.2228 15.2467 0
45.681 17.2138 0
36.6628 41.8341 0
38.6947 40.3788 0
22.8133 10.4473 0
24.4544 8.55797 0
22.9638 37.7579 0
25.3451 36.9927 0
79.5572 20.5023 0
81.8102 21.5926 0
80.4451 16.124 0
78.1689 15.078 0
68.1836 34.2174 0
68.4299 36.7007 0
32.7752 26.964 0
35.0047 28.0843 0
49.0967 3.59922 0
47.4571 5.48679 0
34.1812 40.6268 0
32.8196 42.7216 0
47.6796 12.5817 0
48.2004 15.0267 0
50.2585 18.7987 0
51.6312 16.7107 0
33.8237 30.6372 0
34.5094 28.2363 0
2.35536 13.8175 0
4.84151 14.0939 0
40.0845 40.232 0
40.8288 42.6166 0
10.1248 16.1613 0
9.50824 18.5741 0
32.9289 16.1029 0
31.8856 18.3739 0
43.2559 0.952979 0
45.674 0.305555 0
37.1223 36.8356 0
39.364 35.7321 0
81.256 10.0961 0
81.7513 7.66538 0
30.4458 3.64819 0
28.2958 4.93021 0
49.4063 1.35751 0
47.6091 3.0965 0
60.7739 31.2497 0
62.549 33.0081 0
26.1707 37.2535 0
24.4956 35.4075 0
33.9251 3.20999 0
36.4139 3.44307 0
46.8669 29.0661 0
45.844 31.3458 0
19.4762 36.1778 0
21.2001 37.9771 0
56.1206 28.2626 0
58.6165 28.298 0
92.8271 9.46581 0
95.2449 10.1141 0
22.077 29.0334 0
24.5483 29.3992 0
48.2787 17.7027 0
50.7283 18.1832 0
28.8027 21.6783 0
27.7493 19.4213 0
88.6623 18.0323 0
91.0182 18.8847 0
85.3198 15.5215 0
82.8182 15.6585 0
59.545 45.1996 0
60.828 47.345 0
89.5285 2.52446 0
89.738 5.00432 0
95.4612 9.79754 0
93.3669 8.42999 0
64.4623 41.4477 0
62.9764 43.4546 0
56.0188 26.0536 0
58.3394 25.1354 0
71.0255 1.89179 0
71.0294 4.39097 0
51.4189 11.8055 0
50.504 9.47885 0
58.3337 27.8297 0
57.6592 25.4236 0
9.32689 7.85385 0
7.78071 5.90068 0
51.6901 13.4144 0
49.2104 13.1189 0
49.7137 24.3494 0
50.1426 26.8115 0
72.6062 28.3885 0
70.204 27.6987 0
81.297 36.3408 0
78.984 37.2821 0
80.7679 18.2838 0
81.4218 20.6848 0
63.0484 6.30662 0
60.7624 5.29389 0
49.6093 11.7819 0
47.1175 11.6117 0
44.4744 28.4874 0
42.0206 28.9474 0
88.6371 7.81514 0
88.1066 10.2433 0
72.3088 6.37582 0
71.0174 8.50445 0
87.6939 13.9176 0
88.6397 16.2222 0
36.5613 40.8693 0
38.2822 42.6791 0
62.5559 3.60337 0
63.7333 1.39863 0
39.9481 15.0913 0
40.0935 12.5961 0
19.3809 6.44174 0
21.5243 5.14363 0
36.3614 45.8399 0
38.7252 46.653 0
34.5729 31.3256 0
32.3403 32.448 0
58.9142 19.5387 0
60.7053 21.2817 0
78.2558 16.1972 0
75.829 15.5747 0
15.8583 28.9327 0
17.2197 26.8482 0
80.5536 1.66677 0
78.149 2.33388 0
37.6428 41.6721 0
35.1607 41.9642 0
84.0754 21.3984 0
84.5668 23.8355 0
86.5659 7.32767 0
86.2228 4.86557 0
44.7636 6.00906 0
46.5618 7.74509 0
84.1613 19.7475 0
84.0285 22.2283 0
71.9623 17.5587 0
74.4462 17.2768 0
77.121 24.9985 0
76.5101 22.5837 0
97.1507 15.282 0
94.6862 14.8459 0
38.3414 23.5985 0
40.4256 22.2204 0
40.9178 1.73027 0
39.8541 3.99265 0
60.1752 22.4946 0
57.8423 21.6024 0
23.1276 0.950156 0
24.5962 2.94707 0
71.9121 32.2061 0
69.4472 32.6071 0
44.205 38.19 0
42.2591 39.7576 0
34.1398 4.36228 0
35.5932 6.39307 0
19.9518 15.5785 0
21.7024 17.35 0
1.48744 8.36026 0
3.17754 10.1964 0
85.6116 24.9919 0
87.7334 23.6779 0
82.6862 14.8699 0
80.2562 14.2558 0
60.7655 3.23909 0
60.1662 5.66532 0
17.2894 24.2799 0
15.7968 22.2878 0
51.8055 38.8737 0
50.5936 36.6886 0
59.7307 46.8372 0
62.0331 45.8644 0
81.6955 19.2045 0
81.9908 21.6729 0
60.0599 15.0911 0
57.6506 14.4311 0
21.5965 24.4744 0
21.4881 26.9607 0
50.5584 36.655 0
51.5019 34.3414 0
68.8329 24.1216 0
66.7689 22.7115 0
85.4114 32.0342 0
83.0656 32.8828 0
10.0227 12.7205 0
7.95912 14.1354 0
90.6774 3.18631 0
88.5793 1.82668 0
85.5579 8.46151 0
87.7165 7.20708 0
32.9615 40.4444 0
33.1261 42.9347 0
16.5731 0.844573 0
18.9342 1.65727 0
80.4214 27.5396 0
82.3641 25.9746 0
21.4131 11.0563 0
19.7307 9.22442 0
93.5284 17.1108 0
91.2301 16.1166 0
19.4031 35.6681 0
19.2605 33.1835 0
17.9797 35.299 0
20.2312 34.211 0
76.6274 12.0956 0
75.0589 14.0253 0
20.8965 4.73508 0
18.5503 3.88315 0
26.3247 33.8065 0
24.1694 32.5502 0
55.327 7.03914 0
57.4756 5.7625 0
69.346 3.8342 0
70.427 6.09098 0
22.4123 17.0533 0
21.7182 14.6675 0
89.495 6.15411 0
86.992 6.13678 0
60.1576 4.2267 0
57.669 3.97668 0
86.6795 11.3458 0
84.2723 10.6493 0
80.9262 22.5504 0
82.1022 20.3588 0
69.7797 32.4697 0
68.9799 30.1051 0
42.4534 48.9216 0
40.5295 47.3256 0
30.6502 29.3845 0
31.5748 31.6999 0
19.9356 37.5023 0
20.2442 35.031 0
64.2202 5.61191 0
62.4865 7.40944 0
91.4359 1.97425 0
90.9785 4.42012 0
85.7592 10.1336 0
87.239 12.1429 0
16.1105 1.27663 0
14.0707 2.71964 0
71.947 36.6095 0
74.3705 36.0045 0
14.8982 16.2607 0
17.326 16.867 0
85.8579 30.8662 0
87.546 32.6959 0
8.11778 22.0554 0
10.6181 21.9187 0
49.9335 35.5583 0
52.4232 35.3716 0
9.11166 20.5417 0
10.8335 18.7291 0
62.5306 31.9215 0
60.2638 32.9659 0
37.5405 6.77711 0
39.0277 4.76677 0
9.76391 9.20333 0
11.9425 7.97254 0
60.1454 25.9465 0
57.6507 26.0295 0
32.8458 17.1649 0
33.7922 19.4718 0
92.6223 11.4765 0
92.9505 13.945 0
50.0439 4.36779 0
52.1271 5.75092 0
21.7681 11.8316 0
23.2345 13.8388 0
16.4429 4.91347 0
18.7598 3.96693 0
38.9489 33.7356 0
41.0841 32.4387 0
2.04462 4.98797 0
2.95384 2.66528 0
17.4283 17.1062 0
16.4007 19.3753 0
81.4606 37.5437 0
82.481 35.275 0
72.9061 12.5324 0
74.7406 10.851 0
66.3149 41.4096 0
63.924 42.1347 0
63.7418 26.4096 0
65.7271 24.8993 0
49.8632 6.01835 0
48.3249 7.98895 0
60.1789 40.6794 0
62.4008 41.8235 0
23.3911 10.8685 0
24.495 13.0942 0
60.0846 31.1884 0
61.0307 33.5007 0
85.0525 22.4019 0
87.5566 22.3378 0
74.5749 19.7811 0
72.148 19.1713 0
56.048 12.3339 0
58.4894 12.8633 0
61.6826 4.1941 0
60.6378 1.92302 0
60.7164 47.4447 0
58.2182 47.5424 0
50.6462 16.7545 0
50.9622 19.2344 0
26.146 33.1696 0
27.136 30.8789 0
43.6976 22.5405 0
41.6459 21.1195 0
70.2434 18.5131 0
72.7166 18.886 0
72.5495 1.50994 0
72.7235 4.00316 0
33.4173 17.0145 0
35.0528 18.8967 0
55.2438 3.45857 0
57.6872 3.99395 0
62.7314 26.9204 0
60.2349 26.9422 0
59.5631 35.4381 0
59.7081 32.9446 0
41.7399 31.2773 0
39.3592 32.0315 0
65.7058 33.7781 0
63.6836 32.3102 0
41.2789 36.0974 0
39.9757 38.2295 0
73.2305 29.6946 0
72.7987 32.1489 0
50.7631 40.0942 0
51.8562 42.3416 0
59.8183 9.99275 0
58.3212 7.98994 0
82.5585 19.9602 0
84.8606 18.9864 0
66.259 0.662287 0
68.7538 0.432621 0
72.7744 32.5931 0
74.6497 30.9497 0
66.5217 33.471 0
65.2458 35.6148 0
67.8025 46.1816 0
68.525 43.7931 0
63.7233 22.9513 0
64.8209 20.7111 0
80.4303 11.2592 0
82.0389 13.1705 0
30.9983 20.3964 0
30.0488 18.0926 0
25.3104 20.6392 0
26.8832 22.5712 0
53.9855 28.6269 0
56.4682 28.3711 0
85.7229 28.2677 0
85.1968 25.841 0
37.9026 1.74872 0
40.3842 2.07227 0
42.1031 29.4709 0
43.0877 27.1743 0
19.9594 35.3178 0
22.4458 35.5704 0
84.4659 11.5146 0
86.9708 11.4621 0
30.5192 1.22806 0
32.9861 0.80657 0
61.9914 42.3913 0
59.8269 41.1418 0
40.0273 13.3877 0
38.0343 14.8969 0
71.9104 29.0982 0
70.0649 27.414 0
60.3599 30.2161 0
59.5984 27.8366 0
6.59767 10.6596 0
5.72795 12.9966 0
33.6197 6.78131 0
32.0019 4.881 0
57.2908 24.6854 0
59.7248 24.1341 0
61.7457 27.9781 0
59.2614 28.2202 0
12.9856 2.03405 0
15.1412 3.28893 0
72.4139 4.93715 0
69.9283 4.68198 0
30.5141 6.19281 0
28.1195 6.91584 0
80.7938 3.73572 0
78.2917 3.83299 0
54.3834 35.9035 0
52.3734 37.3855 0
30.5932 14.2424 0
33.0146 14.8473 0
80.5803 9.18177 0
82.868 8.17792 0
12.0105 31.5259 0
12.9958 29.2549 0
46.3782 5.29562 0
48.828 5.79745 0
2.73384 5.32051 0
5.23453 5.22177 0
10.2147 9.55304 0
11.2175 11.829 0
4.34004 17.8565 0
6.58948 16.7584 0
29.3853 8.43773 0
26.8875 8.40562 0
43.6909 1.97268 0
45.9994 2.93659 0
77.3473 2.79596 0
75.576 4.52839 0
55.2118 26.7108 0
57.4598 27.7985 0
24.8098 19.3027 0
26.997 18.0867 0
12.7959 30.8554 0
14.0449 28.7082 0
13.7559 17.8431 0
15.6159 19.5023 0
31.5447 36.0015 0
33.6478 37.3456 0
85.1118 18.9301 0
85.4415 16.4681 0
54.9602 42.3264 0
56.1351 40.1215 0
56.8609 42.9813 0
54.3728 42.7536 0
69.3559 41.0548 0
68.4347 43.3732 0
81.6148 5.21718 0
81.1835 7.65716 0
67.3073 28.7095 0
69.399 27.3502 0
23.3783 28.2205 0
20.8846 28.3899 0
76.5686 33.056 0
74.6747 31.4267 0
40.3993 1.77481 0
41.9491 -0.187427 0
21.4833 3.47549 0
19.2766 2.32445 0
32.7182 27.9817 0
34.5233 29.703 0
39.7584 2.22228 0
37.9719 3.97241 0
68.5852 6.22593 0
66.5215 7.62815 0
7.18534 2.10889 0
8.72603 0.142565 0
59.0777 33.3773 0
57.1213 31.8237 0
22.6548 35.3624 0
24.1862 37.3278 0
76.7039 24.8994 0
76.1517 22.4705 0
8.87462 16.7127 0
9.71806 19.0523 0
27.0257 16.6417 0
28.4501 14.5875 0
31.9431 36.9297 0
32.7732 34.5747 0
22.2045 34.8783 0
19.9659 33.7767 0
73.3256 37.0466 0
71.9995 34.9305 0
15.0329 2.08643 0
16.9732 0.515082 0
52.2286 12.12 0
52.0961 9.62317 0
33.8252 8.71671 0
32.6873 6.4956 0
24.9723 41.7424 0
27.3633 41.0064 0
57.5761 12.4912 0
59.7976 11.3514 0
84.1891 35.1167 0
82.3837 33.391 0
40.3985 47.0978 0
38.8869 45.1078 0
18.0757 12.1508 0
20.5348 12.6178 0
92.7058 8.16893 0
94.3886 6.32967 0
81.3637 32.9606 0
80.6484 30.5745 0
38.8316 14.8039 0
38.6959 17.2993 0
28.5844 11.5416 0
29.9701 13.6101 0
51.9107 39.4846 0
54.3995 39.6938 0
86.5512 28.041 0
85.8855 25.6479 0
22.1618 2.33245 0
23.5648 4.36937 0
49.3547 3.14944 0
47.2344 1.82193 0
18.8601 19.6738 0
21.3431 19.9892 0
2.10321 9.02469 0
4.28679 7.80409 0
20.2605 3.59155 0
18.8561 5.65207 0
62.9407 44.3746 0
65.1608 45.5242 0
34.4914 21.1598 0
36.5779 19.7834 0
94.5945 1.03325 0
93.9553 3.43884 0
49.7445 42.3576 0
49.3586 39.8883 0
58.6762 10.7687 0
56.3254 9.92037 0
36.6112 10.6852 0
34.3269 11.7021 0
56.8248 43.8177 0
56.7509 46.3161 0
2.43836 12.609 0
1.77652 10.2048 0
82.424 4.96257 0
83.3173 2.64657 0
37.6744 47.2619 0
35.417 46.1884 0
65.9734 39.4906 0
68.3023 40.3994 0
24.6547 34.0383 0
27.1305 34.3721 0
68.4626 39.4012 0
70.8638 38.7125 0
13.8163 30.5868 0
12.1972 28.6995 0
58.8619 44.3849 0
61.2963 44.9509 0
24.3269 5.61648 0
24.1962 8.10292 0
81.1232 20.8801 0
78.7414 21.6416 0
29.874 39.6925 0
29.5112 42.1612 0
23.7123 17.0181 0
21.4536 15.954 0
2.73891 8.22464 0
4.96439 7.08167 0
48.0271 30.8157 0
49.9852 29.2657 0
87.054 23.121 0
84.6692 23.8747 0
34.6652 10.8932 0
32.3309 11.7909 0
47.5584 25.9928 0
46.102 23.964 0
67.4271 24.2646 0
65.4363 22.7532 0
58.2119 30.1152 0
56.869 32.2198 0
32.3253 34.859 0
34.6165 35.85 0
57.4106 36.3185 0
56.0501 34.2225 0
26.6834 3.35231 0
28.7915 2.00295 0
11.1788 26.6174 0
12.7146 24.6484 0
63.5101 33.0642 0
61.9141 34.9828 0
28.4912 11.3776 0
26.0437 11.9019 0
44.5048 45.7555 0
42.0064 45.8222 0
30.8435 14.4423 0
31.9725 16.664 0
13.2065 1.82632 0
15.3324 0.511511 0
76.1272 14.987 0
73.8693 16.0483 0
12.6763 6.52554 0
13.3244 8.92436 0
35.4822 4.91715 0
36.3459 7.26106 0
53.9954 17.662 0
51.5384 18.1027 0
31.3157 8.47098 0
29.0122 7.51681 0
24.2898 6.62274 0
21.7953 6.84577 0
48.6122 3.60325 0
51.049 4.16937 0
32.1629 13.7654 0
32.0968 11.2699 0
1.58323 3.45891 0
4.06343 3.78175 0
62.8138 44.2651 0
60.4958 43.33 0
42.64 24.4348 0
40.1494 24.2727 0
48.3462 30.7503 0
50.5233 31.9721 0
58.8767 35.2946 0
56.3893 35.5108 0
50.016 46.5719 0
52.0706 45.1491 0
26.951 5.68387 0
26.3225 8.10361 0
43.5155 36.0353 0
42.0972 33.9802 0
52.8762 27.9449 0
50.9808 29.5703 0
60.9512 39.9522 0
62.0874 42.1779 0
46.9347 23.6472 0
45.6691 21.4937 0
19.2545 2.9506 0
18.5406 0.577675 0
48.2294 41.8927 0
49.1914 39.586 0
47.819 39.4822 0
45.3679 39.004 0
73.2159 11.5213 0
72.687 9.0813 0
52.5247 17.826 0
50.7824 16.0351 0
25.0112 41.7935 0
27.4959 41.503 0
51.9692 24.0852 0
50.557 26.1458 0
25.8465 30.3133 0
28.2725 30.9037 0
5.36208 8.00595 0
2.88026 7.69283 0
20.8815 35.2336 0
18.7619 36.5601 0
31.8957 19.17 0
34.1695 20.1964 0
30.1056 19.2561 0
27.7564 18.4126 0
78.7268 17.5074 0
79.4641 19.8859 0
41.9172 32.1341 0
42.4635 29.6962 0
44.7922 12.5364 0
45.2513 10.0785 0
44.1992 20.0746 0
46.0467 18.3921 0
36.1266 2.43954 0
35.78 4.91439 0
94.4766 4.86061 0
95.2883 7.21881 0
41.9132 21.7847 0
40.3635 23.7455 0
57.7772 26.1566 0
55.738 24.714 0
62.6943 26.9511 0
65.1019 27.6171 0
8.55447 15.6399 0
8.47502 18.1274 0
70.8215 30.9327 0
68.3783 30.4085 0
45.883 35.6758 0
46.1291 33.1893 0
87.0759 2.7446 0
88.7665 4.58223 0
22.5152 38.4857 0
22.8833 40.9489 0
66.2413 43.1446 0
64.2093 41.6887 0
77.342 11.9598 0
77.8782 14.3907 0
50.8449 46.9923 0
49.1601 48.8389 0
14.9018 13.383 0
15.4078 10.9487 0
75.612 18.9441 0
75.4022 21.4239 0
59.0486 45.5801 0
61.1005 47.0082 0
83.7404 9.44572 0
86.1891 8.92802 0
6.96575 1.80103 0
4.4666 1.89469 0
80.7389 18.9623 0
82.5431 17.2437 0
13.6043 0.199189 0
11.1063 0.105413 0
14.9121 32.1387 0
17.2898 31.3745 0
14.2054 12.8427 0
15.5763 14.9179 0
66.7177 0.922249 0
64.251 1.35006 0
72.2547 24.4395 0
71.2982 26.7404 0
52.0187 31.4049 0
50.0645 29.8503 0
29.3223 29.1496 0
28.0554 27.0034 0
76.0563 25.3406 0
76.2915 22.8625 0
88.1034 17.2327 0
90.3451 18.3499 0
56.5889 9.02381 0
54.2998 10.0245 0
30.6029 42.2863 0
32.0879 44.2921 0
49.561 38.2237 0
50.1525 35.7957 0
33.5789 30.6096 0
35.8135 31.7204 0
51.295 20.1547 0
50.1621 22.382 0
48.0077 20.1605 0
46.7625 17.9944 0
56.3087 36.7089 0
54.2174 38.0734 0
27.9265 27.9894 0
28.5069 30.4129 0
32.574 34.4471 0
33.2067 36.8604 0
91.7405 14.7055 0
93.5739 16.4059 0
6.68851 6.16356 0
6.36359 8.63349 0
30.5943 35.7666 0
31.2635 33.3617 0
65.2013 34.8702 0
64.2668 37.1842 0
70.8929 2.20013 0
72.4878 0.283716 0
72.2017 25.0384 0
72.6805 22.5935 0
12.9615 14.6168 0
14.9621 16.107 0
48.3611 3.41916 0
50.7927 4.00734 0
17.3685 5.85797 0
17.5673 8.33007 0
6.48392 18.5767 0
3.99643 18.3167 0
31.8397 33.8756 0
32.0216 36.3639 0
59.3222 32.8441 0
59.0257 35.3241 0
80.581 24.4299 0
80.9645 26.8877 0
96.0368 18.393 0
96.4517 15.9351 0
81.64 13.148 0
84.1086 12.7303 0
31.4154 34.4033 0
30.3369 32.1551 0
95.0576 8.64759 0
94.1863 10.9807 0
92.6746 17.8929 0
94.8933 16.747 0
25.323 37.8832 0
25.0332 35.4084 0
11.1177 27.171 0
12.9281 28.8757 0
25.2057 17.0826 0
22.7445 17.5442 0
33.0529 22.2274 0
35.5431 22.4116 0
75.0932 23.0388 0
72.5935 23.0801 0
50.0607 27.5629 0
49.68 30.0326 0
20.9893 18.6656 0
20.4767 21.1008 0
93.0723 7.22372 0
92.249 9.57254 0
49.1251 48.0911 0
47.6821 46.0503 0
60.2985 39.0369 0
62.1766 37.3919 0
68.5014 12.5948 0
66.4429 11.1724 0
74.7541 11.477 0
72.5851 12.7041 0
59.6103 41.8733 0
61.2454 43.7636 0
83.0194 12.0245 0
83.7006 9.63792 0
12.3135 9.75879 0
11.2303 7.5201 0
46.2369 43.0114 0
44.2339 41.5188 0
78.0952 4.19214 0
75.6317 4.60572 0
79.2431 34.598 0
79.7039 32.1519 0
50.3184 26.2818 0
47.8564 25.8731 0
15.8997 14.9264 0
18.3753 14.5343 0
24.6537 1.82199 0
27.1369 2.01544 0
21.7843 5.92312 0
23.7413 4.35784 0
38.4429 26.7405 0
35.9999 27.2595 0
39.6009 37.9302 0
37.1074 37.7855 0
20.4434 23.2434 0
19.0452 21.1837 0
55.8216 8.64955 0
53.5439 9.67667 0
30.7985 38.7095 0
33.2457 38.2002 0
56.7814 41.7587 0
59.2514 41.3862 0
59.0558 12.3739 0
61.5051 11.8885 0
84.7883 1.94685 0
82.4301 2.76932 0
54.6859 35.6884 0
52.9172 37.4517 0
27.9062 39.3429 0
30.4009 39.1784 0
56.9112 32.572 0
56.6233 30.0903 0
77.6154 21.2545 0
75.7336 22.8902 0
36.6821 36.53 0
36.0457 38.9453 0
70.6666 32.3686 0
68.2001 32.7599 0
48.943 32.3996 0
50.2822 30.2908 0
64.3788 19.3584 0
65.386 21.6455 0
36.921 30.5414 0
39.4173 30.5861 0
52.1003 3.01393 0
54.2092 4.35873 0
16.1137 26.9264 0
13.9057 25.7587 0
28.8288 37.6441 0
26.3597 38.0387 0
66.3093 34.7881 0
64.7202 32.8598 0
86.843 13.7628 0
85.7549 15.9975 0
79.902 37.4387 0
77.6011 38.4099 0
1.08115 9.64745 0
2.76782 11.4869 0
22.3131 7.01494 0
19.8239 6.75883 0
28.015 24.1598 0
25.5407 23.8107 0
48.782 5.44796 0
46.4113 4.6516 0
39.4136 8.35792 0
37.1198 7.36995 0
13.1971 16.177 0
11.7636 14.143 0
35.1988 37.8499 0
33.384 39.5681 0
76.1326 7.99873 0
78.2007 6.61144 0
38.8906 43.8399 0
38.0771 41.4783 0
46.1938 9.48292 0
48.2303 8.03367 0
39.9007 30.9523 0
37.4786 31.5613 0
37.324 29.1939 0
36.6573 31.6007 0
36.7141 26.9277 0
34.2401 27.2704 0
30.6692 4.47877 0
33.0172 5.32772 0
71.8377 31.923 0
74.0137 30.7022 0
24.1653 12.3782 0
26.5559 11.6303 0
33.2183 43.6609 0
35.5055 42.6513 0
26.0836 22.4668 0
24.0624 23.9374 0
5.63468 2.56279 0
6.55655 0.244369 0
94.3868 5.89171 0
96.7964 6.56905 0
53.4093 18.9366 0
51.7036 17.1107 0
53.8045 45.4294 0
52.3226 47.4419 0
94.7304 5.23588 0
93.328 3.16964 0
30.2306 21.1491 0
27.7839 20.647 0
57.5009 2.14703 0
58.113 4.57055 0
94.6101 11.48 0
92.969 9.59635 0
43.7257 7.21603 0
46.1877 6.7826 0
49.393 42.3674 0
47.4346 43.9198 0
42.4222 27.3099 0
44.8334 26.6622 0
24.2463 22.6191 0
21.7731 22.2492 0
69.9943 34.1592 0
70.1625 31.6712 0
18.3818 13.5039 0
20.6022 14.646 0
9.39667 28.7441 0
11.6817 27.7146 0
62.0326 24.5123 0
60.8014 22.3374 0
81.7369 25.153 0
79.2359 25.0837 0
22.8289 29.2738 0
20.7092 30.5956 0
14.2277 29.6221 0
14.3397 32.1025 0
12.6312 13.0108 0
13.6604 15.2732 0
67.3713 22.8001 0
67.8179 20.3466 0
79.3304 21.8456 0
81.7418 22.5194 0
15.2634 21.6896 0
14.1929 23.9382 0
21.2527 13.5736 0
18.9014 12.725 0
44.9062 45.0188 0
42.4099 44.9043 0
62.2363 38.0758 0
60.8187 36.018 0
59.6106 47.2751 0
61.9419 46.3731 0
39.972 37.8026 0
42.469 37.7533 0
55.729 30.2973 0
53.3896 29.4247 0
67.6242 40.7774 0
65.1377 41.0274 0
71.0764 5.67778 0
73.5714 5.72058 0
80.9135 3.28817 0
80.8431 0.810545 0
59.6892 7.11221 0
57.9483 8.90413 0
32.3692 19.5508 0
31.566 21.9156 0
43.9492 32.4914 0
44.0611 34.9871 0
97.807 14.1348 0
97.9581 11.6452 0
74.1166 18.5765 0
72.1652 17.0109 0
77.0789 31.5658 0
76.3666 33.9522 0
55.96 48.673 0
56.3203 46.1996 0
40.1818 1.24617 0
37.7648 1.89544 0
72.0465 20.0797 0
74.5218 19.7327 0
41.8347 44.7256 0
44.3142 45.0362 0
87.0914 2.75185 0
86.5186 5.17002 0
19.368 21.9748 0
18.9262 19.5293 0
17.5208 36.316 0
16.2835 34.1585 0
26.0699 38.0622 0
24.1877 39.7072 0
61.6707 6.35309 0
59.6986 4.81561 0
39.7275 30.1294 0
40.0436 32.6064 0
63.2618 5.57445 0
60.7917 5.9551 0
60.5821 6.70494 0
61.4313 4.35465 0
79.322 36.9621 0
76.8856 37.5176 0
46.824 23.4432 0
47.7816 21.1345 0
81.9601 12.3572 0
79.4816 12.7098 0
17.6934 12.9875 0
18.5094 15.3337 0
48.2088 40.6695 0
46.3954 42.389 0
65.3782 19.8446 0
64.1494 17.6676 0
42.9248 40.0808 0
41.7483 42.286 0
54.5076 17.0164 0
53.4356 19.2734 0
22.91 29.4197 0
25.3008 28.6913 0
23.2359 14.9511 0
20.7958 14.4016 0
92.329 7.80177 0
90.8105 9.77649 0
32.1368 32.1243 0
33.602 30.101 0
68.728 28.6048 0
68.9628 31.0886 0
97.6732 2.41706 0
96.1849 4.41368 0
67.3652 15.0584 0
69.8271 14.6427 0
78.3593 23.3788 0
78.8179 20.9344 0
37.5681 16.0833 0
35.188 15.3327 0
68.9116 9.36928 0
69.4646 6.93549 0
32.9381 20.2953 0
34.2843 18.1891 0
33.2712 31.6924 0
34.921 29.8161 0
87.8962 26.0051 0
89.8712 27.5434 0
84.2722 23.6906 0
86.6958 24.324 0
38.5166 11.2694 0
36.0883 11.8598 0
65.687 40.4221 0
63.5176 39.1808 0
37.7107 1.64237 0
35.534 2.87415 0
75.4788 39.9918 0
75.9048 42.4484 0
67.3431 2.25619 0
67.1268 4.74617 0
71.9908 15.2413 0
70.1461 13.5503 0
63.3735 31.9696 0
65.8663 32.1251 0
39.5878 3.24908 0
38.8508 5.63796 0
46.2241 18.7776 0
47.7925 16.8321 0
37.514 38.8077 0
36.3061 40.995 0
90.1737 7.32223 0
90.8988 4.9427 0
92.5924 20.0684 0
90.188 19.366 0
55.8965 19.2996 0
56.1487 16.813 0
22.8604 18.8388 0
21.4798 20.9175 0
32.731 16.1023 0
34.513 17.8458 0
72.9763 38.4127 0
73.3361 35.9463 0
61.7449 40.788 0
63.1753 42.8371 0
27.4509 32.9277 0
29.7456 31.9369 0
27.6373 16.662 0
25.7953 14.9855 0
39.4979 2.45243 0
37.4683 3.91431 0
18.6103 28.5034 0
17.7826 26.1575 0
73.4858 2.70004 0
75.2139 0.91589 0
75.7724 42.101 0
73.2748 42.2365 0
57.3545 43.955 0
54.9335 43.3357 0
27.2472 9.07618 0
28.8764 10.9573 0
24.2025 7.83519 0
23.0386 10.0453 0
76.6155 41.5866 0
74.5046 42.9208 0
30.375 38.5957 0
32.0611 40.4351 0
47.7291 27.5104 0
48.5118 29.883 0
78.4352 6.9982 0
80.915 6.66101 0
76.0145 10.4085 0
76.2813 12.8834 0
69.5362 34.1154 0
68.9244 31.6958 0
77.7313 17.1091 0
79.7155 18.6325 0
84.4933 32.5525 0
85.6568 34.7546 0
64.9091 34.4626 0
64.2266 32.0603 0
32.4068 10.204 0
29.9095 10.1508 0
29.5274 44.4539 0
31.8219 45.444 0
20.0539 29.0639 0
22.5158 28.6337 0
45.1474 28.3527 0
47.3584 27.1923 0
19.2804 33.8465 0
20.553 31.7011 0
66.1319 9.38656 0
66.1543 6.88774 0
61.6984 1.6977 0
64.0508 0.843342 0
80.951 1.39426 0
79.813 3.59075 0
40.5924 47.5213 0
38.0951 47.3972 0
58.8055 26.0722 0
59.6238 28.433 0
14.8057 23.4169 0
16.9025 24.7714 0
4.10834 14.4379 0
6.15631 13.0012 0
84.2767 21.6703 0
82.6484 19.7781 0
8.18309 0.607259 0
5.72144 0.181207 0
75.4454 20.0891 0
73.0959 20.9362 0
52.4328 9.87928 0
50.7795 8.00451 0
43.3135 5.77019 0
45.7121 5.06269 0
39.2743 2.79514 0
37.8603 4.85751 0
3.33229 8.64887 0
0.894773 8.08927 0
87.8901 12.1136 0
88.2155 14.5791 0
39.6967 11.3299 0
37.4317 10.2803 0
57.9434 7.32108 0
56.0196 5.72373 0
16.2517 26.8275 0
13.7646 27.113 0
52.5469 5.34492 0
55.0201 5.71476 0
89.8304 6.9683 0
92.2121 7.73893 0
93.4981 4.64576 0
91.8513 2.76691 0
95.0964 0.409702 0
96.8586 2.18414 0
16.0408 29.3424 0
18.409 28.5463 0
62.4892 9.54938 0
61.7829 11.9456 0
18.581 7.17282 0
17.9437 4.77859 0
70.1861 45.0865 0
67.8075 44.3128 0
79.6847 8.36029 0
80.5727 6.04346 0
91.894 15.6612 0
89.7362 14.3925 0
59.5387 8.73622 0
59.3378 6.24409 0
21.388 28.4948 0
23.6915 29.4573 0
24.8621 41.9962 0
26.3617 39.9983 0
22.3713 13.2539 0
24.569 14.4328 0
9.86303 12.0797 0
11.0428 9.88326 0
33.5156 45.3576 0
34.4731 43.0506 0
67.6261 35.8171 0
69.8896 36.8779 0
25.3345 10.6772 0
26.8493 8.68401 0
84.0277 24.4908 0
82.6866 22.3904 0
87.5734 2.0404 0
89.3539 3.79246 0
51.1093 40.9056 0
53.4452 41.7916 0
82.2014 9.41525 0
80.1149 8.02963 0
65.1184 14.5156 0
66.1244 16.8044 0
42.9475 6.70562 0
42.765 4.21272 0
53.5115 5.42666 0
55.4247 3.81732 0
44.3429 38.8209 0
42.8755 40.8439 0
90.5798 10.8348 0
92.5532 9.30817 0
23.2552 16.859 0
24.788 18.8205 0
23.7668 10.0532 0
23.8087 7.56577 0
60.7181 35.6456 0
60.956 38.1323 0
44.6503 1.13335 0
42.2949 1.97881 0
78.3021 24.2312 0
79.0349 21.854 0
68.8688 37.8216 0
68.7656 35.3287 0
27.5511 6.43102 0
29.4612 4.81099 0
58.9329 13.1764 0
59.026 15.674 0
57.7201 9.45137 0
59.6513 11.0392 0
51.7603 19.4426 0
54.1728 20.0852 0
50.6771 38.0982 0
48.1798 38.0968 0
47.4641 22.7525 0
46.4134 25.0201 0
22.6215 21.0683 0
22.8273 23.5479 0
81.0249 2.11111 0
78.5683 1.61024 0
95.2665 4.86772 0
95.4134 7.35485 0
48.3787 41.0533 0
46.7832 42.9769 0
26.3646 16.6141 0
25.2244 18.8348 0
89.3224 21.4634 0
88.3603 23.7539 0
43.8464 3.50969 0
46.1162 4.55893 0
53.2846 27.7666 0
55.5208 28.8777 0
78.286 8.32277 0
79.9495 6.4749 0
13.6848 13.9953 0
16.1806 14.2103 0
54.0797 47.4159 0
53.9842 44.9181 0
52.4093 5.92297 0
49.9861 5.30538 0
54.1088 40.4688 0
51.8116 41.4495 0
8.32708 21.9028 0
6.37185 23.4654 0
11.1179 27.6115 0
8.62588 27.4139 0
49.7341 47.0997 0
47.2349 47.1278 0
43.5598 18.2868 0
45.9058 19.1389 0
28.4255 43.3681 0
27.7377 40.9714 0
87.1449 31.4129 0
86.4256 29.0395 0
85.7985 22.413 0
86.6603 20.0829 0
85.9762 0.789927 0
88.4103 1.36801 0
83.5157 35.5893 0
84.5477 33.3285 0
24.1482 32.5768 0
25.7135 30.6311 0
45.6003 42.1749 0
47.1173 44.1602 0
21.3968 34.8551 0
23.6747 33.8244 0
6.27663 12.08 0
4.3639 10.4775 0
34.5385 14.6178 0
36.1531 12.7077 0
31.2784 45.837 0
33.0037 44.0287 0
18.2808 22.9214 0
20.6975 23.5651 0
10.2877 22.4977 0
11.9896 20.6671 0
50.2245 7.51932 0
47.8898 6.62559 0
47.4971 30.6943 0
45.1652 29.8043 0
38.8639 20.9053 0
41.2742 20.2508 0
43.5961 9.86151 0
41.3898 11.0361 0
77.4915 36.8436 0
79.2641 35.0919 0
39.9097 8.83282 0
39.0792 11.1912 0
74.8677 40.2743 0
73.6154 38.114 0
60.787 11.7503 0
58.9167 13.4038 0
96.2506 12.5111 0
94.0269 11.363 0
43.7674 25.2529 0
41.2714 25.2672 0
54.2785 42.7693 0
56.7523 42.4213 0
84.578 23.4785 0
82.0783 23.6259 0
2.51459 9.59619 0
4.57947 8.185 0
82.1225 4.929 0
84.6108 5.20631 0
36.5607 16.3476 0
38.6811 17.6628 0
44.0116 9.29805 0
42.0238 10.8139 0
21.1999 26.4099 0
22.2021 28.6892 0
43.0574 27.1229 0
45.3717 26.1855 0
15.0505 19.5796 0
14.8759 22.0586 0
20.1574 8.55903 0
21.0235 6.22252 0
12.237 24.77 0
10.9762 22.6286 0
49.877 41.4185 0
48.6857 39.222 0
9.59701 24.3882 0
9.40192 26.8701 0
35.0953 43.9395 0
32.8844 45.1072 0
13.4079 18.27 0
11.2205 17.0652 0
12.2664 23.7463 0
12.7027 21.298 0
84.2169 17.3818 0
84.057 14.9019 0
97.1078 15.4302 0
94.9024 14.2482 0
76.1813 36.6398 0
77.5684 38.7161 0
4.72197 2.93899 0
2.26667 3.42403 0
13.904 26.7414 0
11.4157 26.4654 0
9.90702 5.17464 0
8.63933 7.32301 0
87.0091 9.95993 0
86.7006 7.49309 0
50.8092 18.8631 0
49.885 16.5407 0
22.827 2.94549 0
23.51 0.53923 0
24.059 40.3341 0
21.5785 40.0151 0
4.30747 10.5069 0
1.89796 11.1835 0
74.0014 28.0368 0
72.4323 29.9734 0
51.6087 16.5114 0
49.44 17.7497 0
94.6861 5.51113 0
96.5616 7.1646 0
92.4061 0.898776 0
90.0068 1.5912 0
54.6816 27.9654 0
57.0079 28.8727 0
3.93065 2.10767 0
2.80937 4.33782 0
25.619 41.9828 0
28.1033 41.6903 0
24.3058 33.1352 0
25.7745 35.1481 0
64.8621 37.7871 0
63.0486 36.0678 0
45.7841 38.9167 0
46.3302 36.478 0
59.1411 39.3536 0
58.3374 41.7189 0
42.8407 19.3804 0
41.6405 17.1904 0
48.5257 16.8587 0
47.467 14.5948 0
92.8721 4.85617 0
91.349 6.82726 0
17.6605 6.59909 0
16.0867 4.67329 0
31.5605 30.6606 0
33.0758 28.6746 0
49.5582 45.1071 0
50.5154 47.416 0
51.6932 13.7823 0
49.2481 14.2893 0
35.2079 5.52279 0
34.5545 7.93656 0
90.6911 7.74542 0
90.2585 10.1941 0
55.2543 45.7313 0
54.0046 43.5663 0
16.7238 18.1782 0
18.9113 16.9602 0
14.6166 7.05693 0
14.2779 4.59635 0
24.2998 34.321 0
21.8075 34.5145 0
62.6174 33.5695 0
60.6502 35.1056 0
11.5572 19.6604 0
13.6616 21.0015 0
76.8232 0.395247 0
74.3354 0.297197 0
59.914 26.037 0
57.6618 24.9571 0
70.4574 27.0266 0
67.9716 27.2689 0
46.2308 22.7992 0
46.9765 20.4134 0
76.5773 3.85085 0
74.1806 4.52056 0
47.8505 15.1118 0
50.133 16.1246 0
88.1761 13.5671 0
89.9503 11.8167 0
71.0101 0.106621 0
73.322 1.05839 0
56.2773 45.6647 0
57.2076 43.3455 0
68.1706 3.29182 0
65.9465 2.14728 0
22.855 17.661 0
24.7738 16.0554 0
81.1805 38.6797 0
83.1591 37.1605 0
49.4125 2.96977 0
51.1126 4.80315 0
66.019 3.35761 0
63.686 2.45825 0
53.2983 12.1596 0
53.0645 9.67028 0
12.6043 15.414 0
10.7853 17.1291 0
43.1763 4.67324 0
43.6216 7.13276 0
56.1576 20.5842 0
58.6057 21.0749 0
60.833 22.3859 0
58.3552 22.0782 0
28.8313 27.1914 0
27.0147 25.4837 0
40.7079 6.94811 0
38.2316 7.28387 0
17.401 2.34972 0
19.8826 2.02292 0
42.8451 25.8485 0
40.3705 26.1787 0
7.02246 17.6967 0
8.35056 19.8024 0
20.3022 11.9887 0
22.1461 10.2971 0
67.3898 40.0372 0
65.481 41.6464 0
45.1285 41.5228 0
45.984 43.8707 0
70.796 17.2509 0
73.178 16.5024 0
88.2853 4.8724 0
90.0254 6.66407 0
49.8863 20.184 0
48.1642 21.9937 0
56.3513 37.713 0
56.3523 40.2119 0
82.3558 26.0252 0
80.8346 27.9981 0
39.578 4.44764 0
41.5661 5.96136 0
55.1623 43.5817 0
57.0039 41.8938 0
55.3759 43.4667 0
57.0568 41.6186 0
25.0601 15.3936 0
23.241 13.6945 0
14.3705 27.8123 0
13.5365 30.1504 0
52.999 17.0561 0
51.1959 18.7845 0
32.5364 42.8401 0
34.8878 43.6856 0
19.7151 10.8668 0
21.4723 12.6293 0
61.513 41.1467 0
63.7485 40.0332 0
32.9721 27.4694 0
31.0253 29.0362 0
31.0207 21.215 0
31.9924 23.5105 0
72.048 27.4598 0
71.2167 29.8092 0
38.0917 13.1162 0
40.5642 13.4637 0
47.3032 47.9792 0
45.4835 46.2661 0
70.6053 11.5439 0
70.4694 14.0341 0
98.6644 10.1958 0
96.6018 8.78125 0
96.4704 15.9217 0
93.9691 15.9864 0
58.9452 10.2443 0
59.6808 12.6338 0
54.9915 18.3988 0
56.4721 20.4124 0
53.9059 41.6632 0
56.369 41.248 0
5.04298 4.43078 0
7.524 4.1067 0
84.5003 18.8189 0
86.8257 19.7516 0
19.2993 30.2499 0
19.5269 32.7282 0
64.402 35.8387 0
63.1547 33.6739 0
66.4695 23.5275 0
68.966 23.4458 0
60.3792 25.4875 0
62.6734 24.5064 0
55.9115 21.1864 0
57.6028 19.3501 0
21.5877 36.3781 0
19.0942 36.5748 0
55.9442 32.3518 0
58.3754 31.7865 0
67.9402 1.7189 0
70.1288 2.9315 0
16.2202 6.26853 0
17.6171 4.20622 0
91.8116 24.2395 0
91.138 26.6334 0
89.1991 19.1572 0
86.7282 18.7384 0
88.0883 12.5967 0
86.5286 14.5371 0
76.4019 18.8936 0
77.5953 16.7112 0
70.9968 21.0219 0
70.0854 23.3409 0
26.6374 25.5284 0
25.4195 27.7066 0
55.7978 26.3734 0
55.5507 28.8595 0
59.1622 43.1163 0
57.52 44.9991 0
66.211 18.795 0
68.2547 17.3662 0
81.2514 33.5994 0
79.7156 31.6325 0
50.428 9.04178 0
49.7704 11.4538 0
26.0789 27.5333 0
24.0465 28.9866 0
49.6499 27.3352 0
49.8898 24.8475 0
89.298 25.5004 0
91.7981 25.4199 0
78.9625 32.1341 0
76.6312 33.0258 0
76.1882 37.4567 0
76.6286 35.0051 0
22.684 1.48146 0
23.5158 3.81867 0
17.2416 11.9666 0
15.7628 9.96731 0
76.5228 35.8078 0
78.3867 34.1529 0
25.5398 42.825 0
23.7555 41.0812 0
24.9575 3.57253 0
23.1383 1.89123 0
86.8917 24.4729 0
85.0359 22.7994 0
84.0596 33.5159 0
83.1742 31.1885 0
67.9978 9.18514 0
65.8965 7.82634 0
6.42503 3.79037 0
4.65451 5.5549 0
88.4824 7.26993 0
89.3656 4.94533 0
68.0747 40.874 0
69.9112 39.1843 0
33.5956 18.8946 0
33.4963 21.3887 0
18.4015 18.3844 0
20.002 20.2917 0
51.0058 20.696 0
51.994 18.4005 0
81.1926 27.26 0
78.9946 26.0717 0
33.66 33.7195 0
31.4802 34.9419 0
42.0833 36.6979 0
44.2716 35.4931 0
9.48906 8.09951 0
8.11609 6.02225 0
46.396 9.0891 0
43.9202 9.42721 0
38.9233 45.8429 0
36.7402 44.6268 0
56.6697 44.8207 0
57.0825 42.356 0
50.8193 7.82636 0
52.1413 9.948 0
69.3031 9.61985 0
68.1917 11.8508 0
52.7861 10.7082 0
53.9929 8.51922 0
87.9565 0.590994 0
87.4373 3.02246 0
87.5684 29.709 0
88.4925 27.4103 0
27.7871 27.858 0
29.3418 25.9031 0
41.1442 3.24213 0
43.5666 2.61652 0
47.3852 29.3161 0
44.8905 29.238 0
44.904 23.2076 0
42.4306 22.874 0
57.5492 36.2374 0
55.6877 34.5711 0
79.9241 4.78382 0
81.314 6.85498 0
32.9925 1.53352 0
31.3301 3.40217 0
37.9956 49.7574 0
37.9226 51.3253 0
37.9226 51.3253 0
37.713 52.881 0
37.713 52.881 0
37.3682 54.4126 0
37.3682 54.4126 0
36.8911 55.9083 0
36.8911 55.9083 0
36.2854 57.3567 0
36.2854 57.3567 0
35.5556 58.7469 0
35.5556 58.7469 0
34.7074 60.0681 0
34.7074 60.0681 0
33.7472 61.3105 0
33.7472 61.3105 0
32.6824 62.4645 0
32.6824 62.4645 0
31.521 63.5215 0
31.521 63.5215 0
30.2721 64.4733 0
30.2721 64.4733 0
28.9449 65.3127 0
28.9449 65.3127 0
27.5498 66.0334 0
27.5498 66.0334 0
26.0971 66.63 0
26.0971 66.63 0
24.598 67.0979 0
24.598 67.0979 0
23.0639 67.4336 0
23.0639 67.4336 0
21.5064 67.6345 0
21.5064 67.6345 0
19.9373 67.6991 0
19.9373 67.6991 0
18.3685 67.6269 0
18.3685 67.6269 0
16.812 67.4185 0
16.812 67.4185 0
15.2795 67.0755 0
15.2795 67.0755 0
13.7827 66.6004 0
13.7827 66.6004 0
12.3329 65.9968 0
12.3329 65.9968 0
10.9412 65.2694 0
10.9412 65.2694 0
9.61815 64.4235 0
9.61815 64.4235 0
8.37378 63.4657 0
8.37378 63.4657 0
7.21755 62.4032 0
7.21755 62.4032 0
6.1583 61.2441 0
6.1583 61.2441 0
5.20411 59.9971 0
5.20411 59.9971 0
4.36221 58.6718 0
4.36221 58.6718 0
3.63906 57.2782 0
3.63906 57.2782 0
3.04023 55.8269 0
3.04023 55.8269 0
2.57027 54.329 0
2.57027 54.329 0
2.2328 52.7958 0
2.2328 52.7958 0
2.03047 51.2392 0
2.03047 51.2392 0
1.96486 49.6709 0
1.96486 49.6709 0
2.03649 48.1029 0
2.03649 48.1029 0
2.24489 46.5474 0
2.24489 46.5474 0
2.58853 45.0162 0
2.58853 45.0162 0
3.06479 43.5211 0
3.06479 43.5211 0
3.67012 42.0736 0
3.67012 42.0736 0
4.3999 40.685 0
4.3999 40.685 0
5.24858 39.3661 0
5.24858 39.3661 0
6.20979 38.1273 0
6.20979 38.1273 0
7.27601 36.9786 0
7.27601 36.9786 0
8.43925 35.9292 0
8.43925 35.9292 0
9.6906 34.9891 0
9.6906 34.9891 0
11.0208 34.1658 0
11.0208 34.1658 0
12.4217 33.4629 0
12.4217 33.4629 0
13.8772 32.8727 0
13.8772 32.8727 0
15.3752 32.4043 0
15.3752 32.4043 0
16.9073 32.0659 0
16.9073 32.0659 0
18.4632 31.861 0
18.4632 31.861 0
20.031 31.7916 0
20.031 31.7916 0
21.599 31.8584 0
21.599 31.8584 0
23.1549 32.0612 0
23.1549 32.0612 0
24.6867 32.3983 0
24.6867 32.3983 0
26.183 32.8675 0
26.183 32.8675 0
27.6324 33.4652 0
27.6324 33.4652 0
29.0236 34.1873 0
29.0236 34.1873 0
30.3461 35.0282 0
30.3461 35.0282 0
31.5899 35.9816 0
31.5899 35.9816 0
32.7455 37.0402 0
32.7455 37.0402 0
33.8043 38.1959 0
33.8043 38.1959 0
34.758 39.44 0
34.758 39.44 0
35.5996 40.7629 0
35.5996 40.7629 0
36.3225 42.1545 0
36.3225 42.1545 0
36.9213 43.6043 0
36.9213 43.6043 0
37.3912 45.1011 0
37.3912 45.1011 0
37.7288 46.6334 0
37.7288 46.6334 0
37.9309 48.1895 0
37.9309 48.1895 0
37.9956 49.7574 0
98.0352 49.6706 0
97.9696 51.2389 0
97.9696 51.2389 0
97.7673 52.7956 0
97.7673 52.7956 0
97.4298 54.3287 0
97.4298 54.3287 0
96.9598 55.8266 0
96.9598 55.8266 0
96.361 57.2779 0
96.361 57.2779 0
95.6378 58.6715 0
95.6378 58.6715 0
94.7959 59.9968 0
94.7959 59.9968 0
93.8417 61.2438 0
93.8417 61.2438 0
92.7825 62.4029 0
92.7825 62.4029 0
91.6262 63.4654 0
91.6262 63.4654 0
90.3819 64.4232 0
90.3819 64.4232 0
89.0588 65.269 0
89.0588 65.269 0
87.6671 65.9964 0
87.6671 65.9964 0
86.2173 66.6 0
86.2173 66.6 0
84.7205 67.0751 0
84.7205 67.0751 0
83.188 67.4181 0
83.188 67.4181 0
81.6315 67.6265 0
81.6315 67.6265 0
80.0627 67.6987 0
80.0627 67.6987 0
78.4936 67.6341 0
78.4936 67.6341 0
76.9361 67.4332 0
76.9361 67.4332 0
75.402 67.0975 0
75.402 67.0975 0
73.9029 66.6296 0
73.9029 66.6296 0
72.4502 66.033 0
72.4502 66.033 0
71.0551 65.3122 0
71.0551 65.3122 0
69.7279 64.4728 0
69.7279 64.4728 0
68.479 63.5209 0
68.479 63.5209 0
67.3177 62.464 0
67.3177 62.464 0
66.2529 61.31 0
66.2529 61.31 0
65.2927 60.0676 0
65.2927 60.0676 0
64.4445 58.7463 0
64.4445 58.7463 0
63.7147 57.3562 0
63.7147 57.3562 0
63.109 55.9077 0
63.109 55.9077 0
62.6319 54.412 0
62.6319 54.412 0
62.2872 52.8805 0
62.2872 52.8805 0
62.0775 51.3248 0
62.0775 51.3248 0
62.0046 49.7569 0
62.0046 49.7569 0
62.0694 48.1889 0
62.0694 48.1889 0
62.2715 46.6328 0
62.2715 46.6328 0
62.609 45.1005 0
62.609 45.1005 0
63.0789 43.6037 0
63.0789 43.6037 0
63.6777 42.1539 0
63.6777 42.1539 0
64.4006 40.7623 0
64.4006 40.7623 0
65.2421 39.4394 0
65.2421 39.4394 0
66.1958 38.1953 0
66.1958 38.1953 0
67.2546 37.0396 0
67.2546 37.0396 0
68.4102 35.9811 0
68.4102 35.9811 0
69.6541 35.0278 0
69.6541 35.0278 0
70.9766 34.187 0
70.9766 34.187 0
72.3678 33.465 0
72.3678 33.465 0
73.8171 32.8669 0
73.8171 32.8669 0
75.3134 32.3975 0
75.3134 32.3975 0
76.8454 32.0602 0
76.8454 32.0602 0
78.4013 31.8576 0
78.4013 31.8576 0
79.9691 31.7909 0
79.9691 31.7909 0
81.537 31.8604 0
81.537 31.8604 0
83.0929 32.0655 0
83.0929 32.0655 0
84.6254 32.4038 0
84.6254 32.4038 0
86.1233 32.8723 0
86.1233 32.8723 0
87.5781 33.4628 0
87.5781 33.4628 0
88.9796 34.1657 0
88.9796 34.1657 0
90.3099 34.9894 0
90.3099 34.9894 0
91.5609 35.9293 0
91.5609 35.9293 0
92.7241 36.9782 0
92.7241 36.9782 0
93.7904 38.127 0
93.7904 38.127 0
94.7515 39.3658 0
94.7515 39.3658 0
95.6002 40.6848 0
95.6002 40.6848 0
96.33 42.0734 0
96.33 42.0734 0
96.9353 43.5208 0
96.9353 43.5208 0
97.4116 45.0159 0
97.4116 45.0159 0
97.7552 46.5472 0
97.7552 46.5472 0
97.9636 48.1027 0
97.9636 48.1027 0
98.0352 49.6706 0
      </DataArray>
    </Points>
    <Cells>
      <DataArray type="Int32" Name="connectivity" format="ascii">
247 120 114 753 754 755 
213 114 214 748 749 750 
487 220 257 647 745 730 
257 115 260 741 742 743 
246 300 116 738 739 740 
212 116 247 731 732 733 
246 257 117 724 725 726 
299 117 312 719 720 721 
303 310 118 716 717 718 
248 118 256 711 712 713 
513 495 483 150 224 119 
507 513 483 151 119 184 
248 120 302 704 705 706 
221 258 121 1196 1197 1198 
259 121 313 1191 1192 1193 
464 430 432 332 409 122 
436 464 432 326 122 408 
346 1189 123 1186 1187 1188 
298 123 351 1181 1182 1183 
71 311 124 699 700 701 
65 124 372 692 693 694 
79 369 125 687 688 689 
684 125 309 680 681 682 
211 243 126 1178 1179 1180 
244 126 297 1173 1174 1175 
462 474 436 240 281 127 
438 462 436 294 127 327 
512 515 514 131 129 134 
513 509 511 130 132 135 
514 515 510 129 139 128 
508 514 510 148 128 147 
496 500 514 146 133 149 
513 499 495 136 145 150 
507 509 513 143 130 151 
505 491 497 141 142 154 
504 515 512 137 131 155 
174 503 511 1151 156 144 
512 514 500 134 133 159 
499 513 511 136 135 162 
494 515 504 138 137 165 
171 510 515 1164 139 166 
140 167 168 678 674 675 
167 492 168 672 661 674 
491 505 506 141 153 169 
177 498 497 656 164 170 
173 490 174 1156 1149 1171 
217 489 503 1126 176 175 
495 499 498 145 163 178 
501 500 496 158 146 179 
172 486 181 1162 1145 1169 
496 514 508 149 148 183 
480 481 140 227 152 187 
479 506 505 188 153 190 
477 505 497 191 154 193 
504 512 475 155 160 194 
472 511 503 161 156 197 
501 502 471 157 199 200 
500 501 470 158 201 202 
475 512 500 160 159 203 
499 511 472 162 161 204 
498 499 469 163 205 206 
497 498 468 164 207 208 
494 504 474 165 195 210 
211 493 171 1165 1161 1166 
167 180 212 667 668 669 
168 492 213 661 662 663 
214 488 177 657 653 658 
172 171 215 1158 1159 1160 
173 185 216 1153 1154 1155 
174 490 217 1149 1127 1150 
473 503 489 196 176 218 
177 488 219 653 643 654 
220 487 180 647 648 649 
182 181 221 1142 1143 1144 
496 508 115 183 222 747 
225 484 185 886 1138 1139 
482 502 481 198 186 226 
506 480 140 189 187 677 
480 506 479 189 188 228 
479 505 478 190 192 229 
478 505 477 192 191 230 
477 497 476 193 209 231 
474 504 475 195 194 232 
472 503 473 197 196 233 
471 502 482 199 198 234 
470 501 471 201 200 235 
475 500 470 203 202 236 
469 499 472 205 204 237 
468 498 469 207 206 238 
476 497 468 209 208 239 
494 474 461 210 241 242 
215 245 249 1133 1134 1135 
216 250 251 1128 1129 1130 
217 252 253 1123 1124 1125 
307 451 473 1047 255 254 
223 219 256 640 641 642 
583 263 223 1074 637 628 
582 261 264 1120 1121 1122 
445 482 481 265 226 268 
444 481 480 267 227 270 
443 480 479 269 228 272 
442 479 478 271 229 274 
441 478 477 273 230 276 
440 477 476 275 231 278 
474 475 436 232 280 281 
472 473 435 233 283 284 
471 482 446 234 266 286 
470 471 434 235 287 288 
464 475 470 279 236 289 
469 472 463 237 285 290 
468 469 433 238 291 292 
439 476 468 277 239 293 
461 474 462 241 240 295 
296 460 243 1071 1116 1117 
245 244 298 1107 1108 1109 
258 249 304 1100 1101 1102 
250 262 305 1095 1096 1097 
252 251 306 1088 1089 1090 
253 452 307 1084 1044 1085 
437 473 451 282 255 308 
633 314 591 871 832 1082 
262 261 316 1075 1076 1077 
318 629 578 854 810 809 
446 482 445 266 265 319 
445 481 444 268 267 320 
444 480 443 270 269 321 
443 479 442 272 271 322 
442 478 441 274 273 323 
441 477 440 276 275 324 
440 476 439 278 277 325 
436 475 464 280 279 326 
435 473 437 283 282 328 
463 472 435 285 284 329 
434 471 446 287 286 330 
464 470 434 289 288 331 
433 469 463 291 290 334 
439 468 433 293 292 335 
462 438 43 294 338 339 
461 462 45 295 340 341 
296 342 343 1068 1069 1070 
297 344 345 1063 1064 1065 
299 311 347 621 622 623 
301 300 348 616 617 618 
302 301 349 609 610 611 
309 303 350 602 603 604 
304 352 353 1058 1059 1060 
305 358 359 1053 1054 1055 
306 361 362 1048 1049 1050 
307 452 364 1044 934 1045 
437 451 109 308 367 368 
599 317 597 848 850 1042 
592 315 593 841 840 1040 
313 355 375 1035 1036 1037 
585 586 587 1032 1033 1034 
356 316 378 1027 1028 1029 
578 579 580 1024 1025 1026 
3 446 445 381 319 383 
7 445 444 384 320 386 
11 444 443 387 321 389 
15 443 442 390 322 392 
19 442 441 393 323 395 
23 441 440 396 324 398 
27 440 439 399 325 401 
432 438 436 336 327 408 
435 437 431 328 337 410 
429 463 435 333 329 411 
434 446 0 330 382 413 
430 464 434 332 331 414 
433 463 429 334 333 415 
1 439 433 402 335 416 
39 438 432 404 336 417 
431 437 940 337 407 418 
43 438 41 338 405 42 
45 462 43 340 339 44 
47 49 342 48 1019 1020 
344 343 51 1009 1010 1011 
346 345 1013 1000 1001 1002 
348 347 702 569 570 571 
350 349 75 560 561 562 
352 351 55 991 992 993 
354 353 979 984 985 986 
355 354 995 975 976 977 
357 356 89 968 969 970 
358 357 956 959 960 961 
360 359 972 952 953 954 
361 360 95 943 944 945 
363 362 99 936 937 938 
364 363 103 927 928 929 
107 451 105 366 365 106 
109 451 107 367 366 108 
931 437 109 406 368 110 
370 369 548 553 554 555 
371 370 690 544 545 546 
372 374 532 537 538 539 
374 373 696 528 529 530 
376 375 61 920 921 922 
924 523 524 915 916 917 
378 380 85 908 909 910 
516 911 518 903 904 905 
0 446 3 382 381 2 
3 445 5 383 385 4 
5 445 7 385 384 6 
7 444 9 386 388 8 
9 444 11 388 387 10 
11 443 13 389 391 12 
13 443 15 391 390 14 
15 442 17 392 394 16 
17 442 19 394 393 18 
19 441 21 395 397 20 
21 441 23 397 396 22 
23 440 25 398 400 24 
25 440 27 400 399 26 
27 439 29 401 403 28 
29 439 1 403 402 30 
41 438 39 405 404 40 
940 437 931 407 406 932 
432 430 31 409 423 419 
429 435 431 411 410 412 
93 429 431 426 412 422 
430 434 0 414 413 424 
1 433 429 416 415 428 
39 432 37 417 420 38 
947 431 940 421 418 941 
37 432 31 420 419 36 
93 431 947 422 421 948 
31 430 33 423 425 32 
33 430 0 425 424 34 
112 429 93 427 426 111 
1 429 112 428 427 113 
220 115 257 746 741 745 
518 899 519 896 897 898 
521 519 380 889 890 891 
630 264 225 882 883 884 
491 177 497 659 170 142 
481 502 140 186 676 152 
744 182 635 879 874 875 
120 247 467 753 735 707 
247 114 492 755 752 736 
114 120 488 754 710 751 
114 213 492 748 662 752 
213 214 491 750 660 665 
214 114 488 749 751 657 
115 220 496 746 652 747 
257 260 466 743 632 727 
182 485 635 878 870 874 
300 246 458 738 728 619 
246 116 487 740 737 729 
116 300 467 739 620 734 
116 212 487 731 670 737 
212 247 492 733 736 671 
247 116 467 732 734 735 
257 246 487 724 729 730 
246 117 458 726 723 728 
117 257 466 725 727 722 
117 299 458 719 625 723 
299 312 449 721 595 626 
312 117 466 720 722 596 
310 303 450 716 608 600 
303 118 457 718 715 605 
118 310 465 717 601 714 
118 248 457 711 708 715 
248 256 488 713 644 709 
256 118 465 712 714 645 
120 248 488 704 709 710 
248 302 457 706 613 708 
302 120 467 705 707 614 
311 71 573 699 72 624 
71 124 63 701 698 70 
124 311 449 700 627 695 
124 65 63 692 64 698 
65 372 67 694 542 66 
372 124 449 693 695 543 
369 79 81 687 80 556 
79 125 73 689 686 78 
125 369 450 688 559 683 
125 684 73 680 685 686 
684 309 564 682 606 565 
309 125 450 681 683 607 
167 140 502 678 676 679 
501 167 502 673 679 157 
140 168 506 675 666 677 
180 167 501 667 673 651 
167 212 492 669 671 672 
212 180 487 668 648 670 
506 168 213 666 663 664 
491 506 213 169 664 665 
491 214 177 660 658 659 
498 177 219 656 654 655 
495 498 219 178 655 646 
496 220 180 652 649 650 
501 496 180 179 650 651 
219 223 495 640 639 646 
223 256 465 642 645 636 
256 219 488 641 643 644 
495 223 263 639 637 638 
483 495 263 224 638 631 
633 635 634 867 868 869 
588 634 259 860 861 862 
629 318 630 854 855 856 
311 299 449 621 626 627 
299 347 458 623 577 625 
347 311 573 622 624 572 
300 301 467 616 615 620 
301 348 69 618 575 612 
348 300 458 617 619 576 
301 302 467 609 614 615 
302 349 457 611 568 613 
349 301 69 610 612 563 
303 309 450 602 607 608 
309 350 564 604 566 606 
350 303 457 603 605 567 
597 317 584 850 807 851 
599 550 581 845 846 847 
371 310 450 598 600 551 
590 315 592 835 841 842 
312 373 449 594 536 595 
593 589 531 836 837 838 
585 590 591 827 828 829 
587 523 589 818 819 820 
586 588 527 811 812 813 
578 583 584 802 803 804 
580 521 582 793 794 795 
579 581 516 784 785 786 
347 348 458 569 576 577 
348 702 69 571 703 575 
702 347 573 570 572 574 
349 350 457 560 567 568 
350 75 564 562 76 566 
75 349 69 561 563 74 
369 370 450 553 552 559 
370 548 557 555 549 547 
548 369 81 554 556 82 
370 371 450 544 551 552 
778 77 550 783 779 780 
690 370 557 545 547 558 
374 372 449 537 543 535 
372 532 67 539 68 542 
532 374 540 538 534 533 
373 374 449 528 535 536 
374 696 540 530 541 534 
531 59 773 772 777 774 
524 527 526 765 766 767 
762 526 376 756 757 758 
744 635 633 875 867 873 
260 744 633 877 873 872 
211 171 515 1166 166 1167 
494 211 515 1168 1167 138 
509 174 511 1152 144 132 
174 217 503 1150 175 1151 
629 583 578 1073 802 810 
465 583 223 805 628 636 
489 307 473 1086 254 218 
258 221 486 1196 1146 1105 
221 121 485 1198 1195 1147 
121 258 455 1197 1104 1194 
121 259 485 1191 864 1195 
259 313 448 1193 1038 865 
313 121 455 1192 1194 1039 
1189 346 1018 1186 1006 1023 
346 123 459 1188 1185 1007 
123 1189 35 1187 1190 1184 
123 298 459 1181 1111 1185 
298 351 456 1183 999 1112 
351 123 35 1182 1184 994 
243 211 494 1178 1168 1119 
211 126 493 1180 1177 1165 
126 243 460 1179 1116 1176 
126 244 493 1173 1115 1177 
244 297 459 1175 1066 1110 
297 126 460 1174 1176 1067 
173 174 509 1171 1152 1172 
507 173 509 1157 1172 143 
510 172 181 1163 1169 1170 
508 510 181 147 1170 1148 
171 172 510 1158 1163 1164 
172 215 486 1160 1136 1162 
215 171 493 1159 1161 1137 
185 173 507 1153 1157 1141 
173 216 490 1155 1131 1156 
216 185 484 1154 1138 1132 
181 182 508 1142 881 1148 
182 221 485 1144 1147 878 
221 181 486 1143 1145 1146 
225 185 507 1139 1141 1140 
483 225 507 887 1140 184 
245 215 493 1133 1137 1114 
215 249 486 1135 1106 1136 
249 245 456 1134 1113 1103 
250 216 484 1128 1132 1099 
216 251 490 1130 1094 1131 
251 250 453 1129 1098 1091 
252 217 490 1123 1127 1093 
217 253 489 1125 1087 1126 
253 252 452 1124 1092 1084 
261 582 447 1120 797 1078 
582 264 318 1122 888 798 
264 261 484 1121 1081 885 
461 296 243 1072 1117 1118 
494 461 243 242 1118 1119 
244 245 493 1107 1114 1115 
245 298 456 1109 1112 1113 
298 244 459 1108 1110 1111 
249 258 486 1100 1105 1106 
258 304 455 1102 1061 1104 
304 249 456 1101 1103 1062 
262 250 484 1095 1099 1080 
250 305 453 1097 1056 1098 
305 262 454 1096 1079 1057 
251 252 490 1088 1093 1094 
252 306 452 1090 1051 1092 
306 251 453 1089 1091 1052 
489 253 307 1087 1085 1086 
260 633 591 872 1082 1083 
466 260 591 632 1083 831 
261 262 484 1075 1080 1081 
262 316 454 1077 1031 1079 
316 261 447 1076 1078 1030 
583 629 263 1073 859 1074 
342 296 461 1068 1072 1022 
296 343 460 1070 1017 1071 
343 342 49 1069 1019 1012 
344 297 460 1063 1067 1016 
297 345 459 1065 1008 1066 
345 344 1004 1064 1015 1003 
352 304 456 1058 1062 998 
304 353 455 1060 990 1061 
353 352 57 1059 997 987 
358 305 454 1053 1057 966 
305 359 453 1055 958 1056 
359 358 963 1054 965 955 
361 306 453 1048 1052 950 
306 362 452 1050 942 1051 
362 361 97 1049 949 939 
451 307 364 1047 1045 1046 
105 451 364 365 1046 933 
371 599 597 849 1042 1043 
310 371 597 598 1043 852 
592 593 373 1040 839 1041 
312 592 373 844 1041 594 
355 313 455 1035 1039 982 
313 375 448 1037 926 1038 
375 355 53 1036 981 923 
586 585 314 1032 833 816 
585 587 315 1034 824 834 
587 586 377 1033 815 825 
316 356 454 1027 974 1031 
356 378 83 1029 913 971 
378 316 447 1028 1030 914 
579 578 317 1024 808 791 
578 580 318 1026 799 809 
580 579 379 1025 790 800 
45 47 342 46 1020 1021 
461 45 342 341 1021 1022 
343 344 460 1009 1016 1017 
344 51 1004 1011 52 1015 
51 343 49 1010 1012 50 
345 346 459 1000 1007 1008 
346 1013 1018 1002 1014 1006 
1013 345 1004 1001 1003 1005 
351 352 456 991 998 999 
352 55 57 993 56 997 
55 351 35 992 994 54 
353 354 455 984 983 990 
354 979 988 986 980 978 
979 353 57 985 987 58 
354 355 455 975 982 983 
355 995 53 977 996 981 
995 354 988 976 978 989 
356 357 454 968 967 974 
357 89 91 970 90 962 
89 356 83 969 971 88 
357 358 454 959 966 967 
358 956 963 961 957 965 
956 357 91 960 962 92 
359 360 453 952 951 958 
360 972 87 954 973 946 
972 359 963 953 955 964 
360 361 453 943 950 951 
361 95 97 945 96 949 
95 360 87 944 946 94 
362 363 452 936 935 942 
363 99 101 938 100 930 
99 362 97 937 939 98 
363 364 452 927 934 935 
364 103 105 929 104 933 
103 363 101 928 930 102 
375 376 448 920 760 926 
376 61 522 922 62 761 
61 375 53 921 923 60 
523 924 59 915 925 821 
924 524 918 917 769 919 
524 523 377 916 826 770 
380 378 447 908 914 894 
378 85 83 910 84 913 
85 380 517 909 893 86 
911 516 77 903 788 912 
516 518 379 905 900 789 
518 911 906 904 907 901 
899 518 906 896 901 902 
518 519 379 898 895 900 
519 899 517 897 520 892 
519 521 379 889 801 895 
521 380 447 891 894 796 
380 519 517 890 892 893 
264 630 318 882 855 888 
630 225 483 884 887 858 
225 264 484 883 885 886 
508 182 744 881 879 880 
115 508 744 222 880 876 
115 744 260 876 877 742 
633 634 314 869 866 871 
634 635 485 868 870 863 
634 588 314 860 817 866 
588 259 448 862 865 814 
259 634 485 861 863 864 
263 629 630 859 856 857 
483 263 630 631 857 858 
597 584 465 851 806 853 
310 597 465 852 853 601 
550 599 371 845 849 782 
599 581 317 847 792 848 
581 550 77 846 779 787 
466 590 592 830 842 843 
312 466 592 596 843 844 
589 593 315 836 840 823 
593 531 373 838 775 839 
531 589 59 837 822 772 
590 585 315 827 834 835 
585 591 314 829 832 833 
591 590 466 828 830 831 
523 587 377 818 825 826 
587 589 315 820 823 824 
589 523 59 819 821 822 
588 586 314 811 816 817 
586 527 377 813 771 815 
527 588 448 812 814 768 
578 584 317 804 807 808 
584 583 465 803 805 806 
521 580 379 793 800 801 
580 582 318 795 798 799 
582 521 447 794 796 797 
581 579 317 784 791 792 
579 516 379 786 789 790 
516 581 77 785 787 788 
690 778 550 691 780 781 
371 690 550 546 781 782 
531 773 696 774 697 776 
373 531 696 775 776 529 
527 524 377 765 770 771 
524 526 918 767 764 769 
526 527 448 766 768 759 
526 762 918 756 763 764 
762 376 522 758 761 525 
376 526 448 757 759 760 
1199 1200
1201 1202
1203 1204
1205 1206
1207 1208
1209 1210
1211 1212
1213 1214
1215 1216
1217 1218
1219 1220
1221 1222
1223 1224
1225 1226
1227 1228
1229 1230
1231 1232
1233 1234
1235 1236
1237 1238
1239 1240
1241 1242
1243 1244
1245 1246
1247 1248
1249 1250
1251 1252
1253 1254
1255 1256
1257 1258
1259 1260
1261 1262
1263 1264
1265 1266
1267 1268
1269 1270
1271 1272
1273 1274
1275 1276
1277 1278
1279 1280
1281 1282
1283 1284
1285 1286
1287 1288
1289 1290
1291 1292
1293 1294
1295 1296
1297 1298
1299 1300
1301 1302
1303 1304
1305 1306
1307 1308
1309 1310
1311 1312
1313 1314
1315 1316
1317 1318
1319 1320
1321 1322
1323 1324
1325 1326
1327 1328
1329 1330
1331 1332
1333 1334
1335 1336
1337 1338
1339 1340
1341 1342
1343 1344
1345 1346
1347 1348
1349 1350
1351 1352
1353 1354
1355 1356
1357 1358
1359 1360
1361 1362
1363 1364
1365 1366
1367 1368
1369 1370
1371 1372
1373 1374
1375 1376
1377 1378
1379 1380
1381 1382
1383 1384
1385 1386
1387 1388
1389 1390
1391 1392
1393 1394
1395 1396
1397 1398
1399 1400
1401 1402
1403 1404
1405 1406
1407 1408
1409 1410
1411 1412
1413 1414
1415 1416
1417 1418
1419 1420
1421 1422
1423 1424
1425 1426
1427 1428
1429 1430
1431 1432
1433 1434
1435 1436
1437 1438
1439 1440
1441 1442
1443 1444
1445 1446
1447 1448
1449 1450
1451 1452
1453 1454
1455 1456
1457 1458
1459 1460
1461 1462
1463 1464
1465 1466
1467 1468
1469 1470
1471 1472
1473 1474
1475 1476
1477 1478
1479 1480
1481 1482
1483 1484
1485 1486
1487 1488
1489 1490
1491 1492
1493 1494
1495 1496
1497 1498
1499 1500
1501 1502
1503 1504
1505 1506
1507 1508
1509 1510
1511 1512
1513 1514
1515 1516
1517 1518
1519 1520
1521 1522
1523 1524
1525 1526
1527 1528
1529 1530
1531 1532
1533 1534
1535 1536
1537 1538
1539 1540
1541 1542
1543 1544
1545 1546
1547 1548
1549 1550
1551 1552
1553 1554
1555 1556
1557 1558
1559 1560
1561 1562
1563 1564
1565 1566
1567 1568
1569 1570
1571 1572
1573 1574
1575 1576
1577 1578
1579 1580
1581 1582
1583 1584
1585 1586
1587 1588
1589 1590
1591 1592
1593 1594
1595 1596
1597 1598
1599 1600
1601 1602
1603 1604
1605 1606
1607 1608
1609 1610
1611 1612
1613 1614
1615 1616
1617 1618
1619 1620
1621 1622
1623 1624
1625 1626
1627 1628
1629 1630
1631 1632
1633 1634
1635 1636
1637 1638
1639 1640
1641 1642
1643 1644
1645 1646
1647 1648
1649 1650
1651 1652
1653 1654
1655 1656
1657 1658
1659 1660
1661 1662
1663 1664
1665 1666
1667 1668
1669 1670
1671 1672
1673 1674
1675 1676
1677 1678
1679 1680
1681 1682
1683 1684
1685 1686
1687 1688
1689 1690
1691 1692
1693 1694
1695 1696
1697 1698
1699 1700
1701 1702
1703 1704
1705 1706
1707 1708
1709 1710
1711 1712
1713 1714
1715 1716
1717 1718
1719 1720
1721 1722
1723 1724
1725 1726
1727 1728
1729 1730
1731 1732
1733 1734
1735 1736
1737 1738
1739 1740
1741 1742
1743 1744
1745 1746
1747 1748
1749 1750
1751 1752
1753 1754
1755 1756
1757 1758
1759 1760
1761 1762
1763 1764
1765 1766
1767 1768
1769 1770
1771 1772
1773 1774
1775 1776
1777 1778
1779 1780
1781 1782
1783 1784
1785 1786
1787 1788
1789 1790
1791 1792
1793 1794
1795 1796
1797 1798
1799 1800
1801 1802
1803 1804
1805 1806
1807 1808
1809 1810
1811 1812
1813 1814
1815 1816
1817 1818
1819 1820
1821 1822
1823 1824
1825 1826
1827 1828
1829 1830
1831 1832
1833 1834
1835 1836
1837 1838
1839 1840
1841 1842
1843 1844
1845 1846
1847 1848
1849 1850
1851 1852
1853 1854
1855 1856
1857 1858
1859 1860
1861 1862
1863 1864
1865 1866
1867 1868
1869 1870
1871 1872
1873 1874
1875 1876
1877 1878
1879 1880
1881 1882
1883 1884
1885 1886
1887 1888
1889 1890
1891 1892
1893 1894
1895 1896
1897 1898
1899 1900
1901 1902
1903 1904
1905 1906
1907 1908
1909 1910
1911 1912
1913 1914
1915 1916
1917 1918
1919 1920
1921 1922
1923 1924
1925 1926
1927 1928
1929 1930
1931 1932
1933 1934
1935 1936
1937 1938
1939 1940
1941 1942
1943 1944
1945 1946
1947 1948
1949 1950
1951 1952
1953 1954
1955 1956
1957 1958
1959 1960
1961 1962
1963 1964
1965 1966
1967 1968
1969 1970
1971 1972
1973 1974
1975 1976
1977 1978
1979 1980
1981 1982
1983 1984
1985 1986
1987 1988
1989 1990
1991 1992
1993 1994
1995 1996
1997 1998
1999 2000
2001 2002
2003 2004
2005 2006
2007 2008
2009 2010
2011 2012
2013 2014
2015 2016
2017 2018
2019 2020
2021 2022
2023 2024
2025 2026
2027 2028
2029 2030
2031 2032
2033 2034
2035 2036
2037 2038
2039 2040
2041 2042
2043 2044
2045 2046
2047 2048
2049 2050
2051 2052
2053 2054
2055 2056
2057 2058
2059 2060
2061 2062
2063 2064
2065 2066
2067 2068
2069 2070
2071 2072
2073 2074
2075 2076
2077 2078
2079 2080
2081 2082
2083 2084
2085 2086
2087 2088
2089 2090
2091 2092
2093 2094
2095 2096
2097 2098
2099 2100
2101 2102
2103 2104
2105 2106
2107 2108
2109 2110
2111 2112
2113 2114
2115 2116
2117 2118
2119 2120
2121 2122
2123 2124
2125 2126
2127 2128
2129 2130
2131 2132
2133 2134
2135 2136
2137 2138
2139 2140
2141 2142
2143 2144
2145 2146
2147 2148
2149 2150
2151 2152
2153 2154
2155 2156
2157 2158
2159 2160
2161 2162
2163 2164
2165 2166
2167 2168
2169 2170
2171 2172
2173 2174
2175 2176
2177 2178
2179 2180
2181 2182
2183 2184
2185 2186
2187 2188
2189 2190
2191 2192
2193 2194
2195 2196
2197 2198
2199 2200
2201 2202
2203 2204
2205 2206
2207 2208
2209 2210
2211 2212
2213 2214
2215 2216
2217 2218
2219 2220
2221 2222
2223 2224
2225 2226
2227 2228
2229 2230
2231 2232
2233 2234
2235 2236
2237 2238
2239 2240
2241 2242
2243 2244
2245 2246
2247 2248
2249 2250
2251 2252
2253 2254
2255 2256
2257 2258
2259 2260
2261 2262
2263 2264
2265 2266
2267 2268
2269 2270
2271 2272
2273 2274
2275 2276
2277 2278
2279 2280
2281 2282
2283 2284
2285 2286
2287 2288
2289 2290
2291 2292
2293 2294
2295 2296
2297 2298
2299 2300
2301 2302
2303 2304
2305 2306
2307 2308
2309 2310
2311 2312
2313 2314
2315 2316
2317 2318
2319 2320
2321 2322
2323 2324
2325 2326
2327 2328
2329 2330
2331 2332
2333 2334
2335 2336
2337 2338
2339 2340
2341 2342
2343 2344
2345 2346
2347 2348
2349 2350
2351 2352
2353 2354
2355 2356
2357 2358
2359 2360
2361 2362
2363 2364
2365 2366
2367 2368
2369 2370
2371 2372
2373 2374
2375 2376
2377 2378
2379 2380
2381 2382
2383 2384
2385 2386
2387 2388
2389 2390
2391 2392
2393 2394
2395 2396
2397 2398
2399 2400
2401 2402
2403 2404
2405 2406
2407 2408
2409 2410
2411 2412
2413 2414
2415 2416
2417 2418
2419 2420
2421 2422
2423 2424
2425 2426
2427 2428
2429 2430
2431 2432
2433 2434
2435 2436
2437 2438
2439 2440
2441 2442
2443 2444
2445 2446
2447 2448
2449 2450
2451 2452
2453 2454
2455 2456
2457 2458
2459 2460
2461 2462
2463 2464
2465 2466
2467 2468
2469 2470
2471 2472
2473 2474
2475 2476
2477 2478
2479 2480
2481 2482
2483 2484
2485 2486
2487 2488
2489 2490
2491 2492
2493 2494
2495 2496
2497 2498
2499 2500
2501 2502
2503 2504
2505 2506
2507 2508
2509 2510
2511 2512
2513 2514
2515 2516
2517 2518
2519 2520
2521 2522
2523 2524
2525 2526
2527 2528
2529 2530
2531 2532
2533 2534
2535 2536
2537 2538
2539 2540
2541 2542
2543 2544
2545 2546
2547 2548
2549 2550
2551 2552
2553 2554
2555 2556
2557 2558
2559 2560
2561 2562
2563 2564
2565 2566
2567 2568
2569 2570
2571 2572
2573 2574
2575 2576
2577 2578
2579 2580
2581 2582
2583 2584
2585 2586
2587 2588
2589 2590
2591 2592
2593 2594
2595 2596
2597 2598
2599 2600
2601 2602
2603 2604
2605 2606
2607 2608
2609 2610
2611 2612
2613 2614
2615 2616
2617 2618
2619 2620
2621 2622
2623 2624
2625 2626
2627 2628
2629 2630
2631 2632
2633 2634
2635 2636
2637 2638
2639 2640
2641 2642
2643 2644
2645 2646
2647 2648
2649 2650
2651 2652
2653 2654
2655 2656
2657 2658
2659 2660
2661 2662
2663 2664
2665 2666
2667 2668
2669 2670
2671 2672
2673 2674
2675 2676
2677 2678
2679 2680
2681 2682
2683 2684
2685 2686
2687 2688
2689 2690
2691 2692
2693 2694
2695 2696
2697 2698
2699 2700
2701 2702
2703 2704
2705 2706
2707 2708
2709 2710
2711 2712
2713 2714
2715 2716
2717 2718
2719 2720
2721 2722
2723 2724
2725 2726
2727 2728
2729 2730
2731 2732
2733 2734
2735 2736
2737 2738
2739 2740
2741 2742
2743 2744
2745 2746
2747 2748
2749 2750
2751 2752
2753 2754
2755 2756
2757 2758
2759 2760
2761 2762
2763 2764
2765 2766
2767 2768
2769 2770
2771 2772
2773 2774
2775 2776
2777 2778
2779 2780
2781 2782
2783 2784
2785 2786
2787 2788
2789 2790
2791 2792
2793 2794
2795 2796
2797 2798
2799 2800
2801 2802
2803 2804
2805 2806
2807 2808
2809 2810
2811 2812
2813 2814
2815 2816
2817 2818
2819 2820
2821 2822
2823 2824
2825 2826
2827 2828
2829 2830
2831 2832
2833 2834
2835 2836
2837 2838
2839 2840
2841 2842
2843 2844
2845 2846
2847 2848
2849 2850
2851 2852
2853 2854
2855 2856
2857 2858
2859 2860
2861 2862
2863 2864
2865 2866
2867 2868
2869 2870
2871 2872
2873 2874
2875 2876
2877 2878
2879 2880
2881 2882
2883 2884
2885 2886
2887 2888
2889 2890
2891 2892
2893 2894
2895 2896
2897 2898
2899 2900
2901 2902
2903 2904
2905 2906
2907 2908
2909 2910
2911 2912
2913 2914
2915 2916
2917 2918
2919 2920
2921 2922
2923 2924
2925 2926
2927 2928
2929 2930
2931 2932
2933 2934
2935 2936
2937 2938
2939 2940
2941 2942
2943 2944
2945 2946
2947 2948
2949 2950
2951 2952
2953 2954
2955 2956
2957 2958
2959 2960
2961 2962
2963 2964
2965 2966
2967 2968
2969 2970
2971 2972
2973 2974
2975 2976
2977 2978
2979 2980
2981 2982
2983 2984
2985 2986
2987 2988
2989 2990
2991 2992
2993 2994
2995 2996
2997 2998
2999 3000
3001 3002
3003 3004
3005 3006
3007 3008
3009 3010
3011 3012
3013 3014
3015 3016
3017 3018
3019 3020
3021 3022
3023 3024
3025 3026
3027 3028
3029 3030
3031 3032
3033 3034
3035 3036
3037 3038
3039 3040
3041 3042
3043 3044
3045 3046
3047 3048
3049 3050
3051 3052
3053 3054
3055 3056
3057 3058
3059 3060
3061 3062
3063 3064
3065 3066
3067 3068
3069 3070
3071 3072
3073 3074
3075 3076
3077 3078
3079 3080
3081 3082
3083 3084
3085 3086
3087 3088
3089 3090
3091 3092
3093 3094
3095 3096
3097 3098
3099 3100
3101 3102
3103 3104
3105 3106
3107 3108
3109 3110
3111 3112
3113 3114
3115 3116
3117 3118
3119 3120
3121 3122
3123 3124
3125 3126
3127 3128
3129 3130
3131 3132
3133 3134
3135 3136
3137 3138
3139 3140
3141 3142
3143 3144
3145 3146
3147 3148
3149 3150
3151 3152
3153 3154
3155 3156
3157 3158
3159 3160
3161 3162
3163 3164
3165 3166
3167 3168
3169 3170
3171 3172
3173 3174
3175 3176
3177 3178
3179 3180
3181 3182
3183 3184
3185 3186
3187 3188
3189 3190
3191 3192
3193 3194
3195 3196
3197 3198
3199 3200
3201 3202
3203 3204
3205 3206
3207 3208
3209 3210
3211 3212
3213 3214
3215 3216
3217 3218
3219 3220
3221 3222
3223 3224
3225 3226
3227 3228
3229 3230
3231 3232
3233 3234
3235 3236
3237 3238
3239 3240
3241 3242
3243 3244
3245 3246
3247 3248
3249 3250
3251 3252
3253 3254
3255 3256
3257 3258
3259 3260
3261 3262
3263 3264
3265 3266
3267 3268
3269 3270
3271 3272
3273 3274
3275 3276
3277 3278
3279 3280
3281 3282
3283 3284
3285 3286
3287 3288
3289 3290
3291 3292
3293 3294
3295 3296
3297 3298
3299 3300
3301 3302
3303 3304
3305 3306
3307 3308
3309 3310
3311 3312
3313 3314
3315 3316
3317 3318
3319 3320
3321 3322
3323 3324
3325 3326
3327 3328
3329 3330
3331 3332
3333 3334
3335 3336
3337 3338
3339 3340
3341 3342
3343 3344
3345 3346
3347 3348
3349 3350
3351 3352
3353 3354
3355 3356
3357 3358
3359 3360
3361 3362
3363 3364
3365 3366
3367 3368
3369 3370
3371 3372
3373 3374
3375 3376
3377 3378
3379 3380
3381 3382
3383 3384
3385 3386
3387 3388
3389 3390
3391 3392
3393 3394
3395 3396
3397 3398
3399 3400
3401 3402
3403 3404
3405 3406
3407 3408
3409 3410
3411 3412
3413 3414
3415 3416
3417 3418
3419 3420
3421 3422
3423 3424
3425 3426
3427 3428
3429 3430
3431 3432
3433 3434
3435 3436
3437 3438
3439 3440
3441 3442
3443 3444
3445 3446
3447 3448
3449 3450
3451 3452
3453 3454
3455 3456
3457 3458
3459 3460
3461 3462
3463 3464
3465 3466
3467 3468
3469 3470
3471 3472
3473 3474
3475 3476
3477 3478
3479 3480
3481 3482
3483 3484
3485 3486
      </DataArray>
      <DataArray type="Int32" Name="offsets" format="ascii">
6
12
18
24
30
36
42
48
54
60
66
72
78
84
90
96
102
108
114
120
126
132
138
144
150
156
162
168
174
180
186
192
198
204
210
216
222
228
234
240
246
252
258
264
270
276
282
288
294
300
306
312
318
324
330
336
342
348
354
360
366
372
378
384
390
396
402
408
414
420
426
432
438
444
450
456
462
468
474
480
486
492
498
504
510
516
522
528
534
540
546
552
558
564
570
576
582
588
594
600
606
612
618
624
630
636
642
648
654
660
666
672
678
684
690
696
702
708
714
720
726
732
738
744
750
756
762
768
774
780
786
792
798
804
810
816
822
828
834
840
846
852
858
864
870
876
882
888
894
900
906
912
918
924
930
936
942
948
954
960
966
972
978
984
990
996
1002
1008
1014
1020
1026
1032
1038
1044
1050
1056
1062
1068
1074
1080
1086
1092
1098
1104
1110
1116
1122
1128
1134
1140
1146
1152
1158
1164
1170
1176
1182
1188
1194
1200
1206
1212
1218
1224
1230
1236
1242
1248
1254
1260
1266
1272
1278
1284
1290
1296
1302
1308
1314
1320
1326
1332
1338
1344
1350
1356
1362
1368
1374
1380
1386
1392
1398
1404
1410
1416
1422
1428
1434
1440
1446
1452
1458
1464
1470
1476
1482
1488
1494
1500
1506
1512
1518
1524
1530
1536
1542
1548
1554
1560
1566
1572
1578
1584
1590
1596
1602
1608
1614
1620
1626
1632
1638
1644
1650
1656
1662
1668
1674
1680
1686
1692
1698
1704
1710
1716
1722
1728
1734
1740
1746
1752
1758
1764
1770
1776
1782
1788
1794
1800
1806
1812
1818
1824
1830
1836
1842
1848
1854
1860
1866
1872
1878
1884
1890
1896
1902
1908
1914
1920
1926
1932
1938
1944
1950
1956
1962
1968
1974
1980
1986
1992
1998
2004
2010
2016
2022
2028
2034
2040
2046
2052
2058
2064
2070
2076
2082
2088
2094
2100
2106
2112
2118
2124
2130
2136
2142
2148
2154
2160
2166
2172
2178
2184
2190
2196
2202
2208
2214
2220
2226
2232
2238
2244
2250
2256
2262
2268
2274
2280
2286
2292
2298
2304
2310
2316
2322
2328
2334
2340
2346
2352
2358
2364
2370
2376
2382
2388
2394
2400
2406
2412
2418
2424
2430
2436
2442
2448
2454
2460
2466
2472
2478
2484
2490
2496
2502
2508
2514
2520
2526
2532
2538
2544
2550
2556
2562
2568
2574
2580
2586
2592
2598
2604
2610
2616
2622
2628
2634
2640
2646
2652
2658
2664
2670
2676
2682
2688
2694
2700
2706
2712
2718
2724
2730
2736
2742
2748
2754
2760
2766
2772
2778
2784
2790
2796
2802
2808
2814
2820
2826
2832
2838
2844
2850
2856
2862
2868
2874
2880
2886
2892
2898
2904
2910
2916
2922
2928
2934
2940
2946
2952
2958
2964
2970
2976
2982
2988
2994
3000
3006
3012
3018
3024
3030
3036
3042
3048
3054
3060
3066
3072
3078
3084
3090
3096
3102
3108
3114
3120
3126
3132
3138
3144
3150
3156
3162
3168
3174
3180
3186
3192
3198
3204
3210
3216
3222
3228
3234
3240
3246
3252
3258
3264
3270
3276
3282
3288
3294
3300
3306
3312
3318
3324
3326
3328
3330
3332
3334
3336
3338
3340
3342
3344
3346
3348
3350
3352
3354
3356
3358
3360
3362
3364
3366
3368
3370
3372
3374
3376
3378
3380
3382
3384
3386
3388
3390
3392
3394
3396
3398
3400
3402
3404
3406
3408
3410
3412
3414
3416
3418
3420
3422
3424
3426
3428
3430
3432
3434
3436
3438
3440
3442
3444
3446
3448
3450
3452
3454
3456
3458
3460
3462
3464
3466
3468
3470
3472
3474
3476
3478
3480
3482
3484
3486
3488
3490
3492
3494
3496
3498
3500
3502
3504
3506
3508
3510
3512
3514
3516
3518
3520
3522
3524
3526
3528
3530
3532
3534
3536
3538
3540
3542
3544
3546
3548
3550
3552
3554
3556
3558
3560
3562
3564
3566
3568
3570
3572
3574
3576
3578
3580
3582
3584
3586
3588
3590
3592
3594
3596
3598
3600
3602
3604
3606
3608
3610
3612
3614
3616
3618
3620
3622
3624
3626
3628
3630
3632
3634
3636
3638
3640
3642
3644
3646
3648
3650
3652
3654
3656
3658
3660
3662
3664
3666
3668
3670
3672
3674
3676
3678
3680
3682
3684
3686
3688
3690
3692
3694
3696
3698
3700
3702
3704
3706
3708
3710
3712
3714
3716
3718
3720
3722
3724
3726
3728
3730
3732
3734
3736
3738
3740
3742
3744
3746
3748
3750
3752
3754
3756
3758
3760
3762
3764
3766
3768
3770
3772
3774
3776
3778
3780
3782
3784
3786
3788
3790
3792
3794
3796
3798
3800
3802
3804
3806
3808
3810
3812
3814
3816
3818
3820
3822
3824
3826
3828
3830
3832
3834
3836
3838
3840
3842
3844
3846
3848
3850
3852
3854
3856
3858
3860
3862
3864
3866
3868
3870
3872
3874
3876
3878
3880
3882
3884
3886
3888
3890
3892
3894
3896
3898
3900
3902
3904
3906
3908
3910
3912
3914
3916
3918
3920
3922
3924
3926
3928
3930
3932
3934
3936
3938
3940
3942
3944
3946
3948
3950
3952
3954
3956
3958
3960
3962
3964
3966
3968
3970
3972
3974
3976
3978
3980
3982
3984
3986
3988
3990
3992
3994
3996
3998
4000
4002
4004
4006
4008
4010
4012
4014
4016
4018
4020
4022
4024
4026
4028
4030
4032
4034
4036
4038
4040
4042
4044
4046
4048
4050
4052
4054
4056
4058
4060
4062
4064
4066
4068
4070
4072
4074
4076
4078
4080
4082
4084
4086
4088
4090
4092
4094
4096
4098
4100
4102
4104
4106
4108
4110
4112
4114
4116
4118
4120
4122
4124
4126
4128
4130
4132
4134
4136
4138
4140
4142
4144
4146
4148
4150
4152
4154
4156
4158
4160
4162
4164
4166
4168
4170
4172
4174
4176
4178
4180
4182
4184
4186
4188
4190
4192
4194
4196
4198
4200
4202
4204
4206
4208
4210
4212
4214
4216
4218
4220
4222
4224
4226
4228
4230
4232
4234
4236
4238
4240
4242
4244
4246
4248
4250
4252
4254
4256
4258
4260
4262
4264
4266
4268
4270
4272
4274
4276
4278
4280
4282
4284
4286
4288
4290
4292
4294
4296
4298
4300
4302
4304
4306
4308
4310
4312
4314
4316
4318
4320
4322
4324
4326
4328
4330
4332
4334
4336
4338
4340
4342
4344
4346
4348
4350
4352
4354
4356
4358
4360
4362
4364
4366
4368
4370
4372
4374
4376
4378
4380
4382
4384
4386
4388
4390
4392
4394
4396
4398
4400
4402
4404
4406
4408
4410
4412
4414
4416
4418
4420
4422
4424
4426
4428
4430
4432
4434
4436
4438
4440
4442
4444
4446
4448
4450
4452
4454
4456
4458
4460
4462
4464
4466
4468
4470
4472
4474
4476
4478
4480
4482
4484
4486
4488
4490
4492
4494
4496
4498
4500
4502
4504
4506
4508
4510
4512
4514
4516
4518
4520
4522
4524
4526
4528
4530
4532
4534
4536
4538
4540
4542
4544
4546
4548
4550
4552
4554
4556
4558
4560
4562
4564
4566
4568
4570
4572
4574
4576
4578
4580
4582
4584
4586
4588
4590
4592
4594
4596
4598
4600
4602
4604
4606
4608
4610
4612
4614
4616
4618
4620
4622
4624
4626
4628
4630
4632
4634
4636
4638
4640
4642
4644
4646
4648
4650
4652
4654
4656
4658
4660
4662
4664
4666
4668
4670
4672
4674
4676
4678
4680
4682
4684
4686
4688
4690
4692
4694
4696
4698
4700
4702
4704
4706
4708
4710
4712
4714
4716
4718
4720
4722
4724
4726
4728
4730
4732
4734
4736
4738
4740
4742
4744
4746
4748
4750
4752
4754
4756
4758
4760
4762
4764
4766
4768
4770
4772
4774
4776
4778
4780
4782
4784
4786
4788
4790
4792
4794
4796
4798
4800
4802
4804
4806
4808
4810
4812
4814
4816
4818
4820
4822
4824
4826
4828
4830
4832
4834
4836
4838
4840
4842
4844
4846
4848
4850
4852
4854
4856
4858
4860
4862
4864
4866
4868
4870
4872
4874
4876
4878
4880
4882
4884
4886
4888
4890
4892
4894
4896
4898
4900
4902
4904
4906
4908
4910
4912
4914
4916
4918
4920
4922
4924
4926
4928
4930
4932
4934
4936
4938
4940
4942
4944
4946
4948
4950
4952
4954
4956
4958
4960
4962
4964
4966
4968
4970
4972
4974
4976
4978
4980
4982
4984
4986
4988
4990
4992
4994
4996
4998
5000
5002
5004
5006
5008
5010
5012
5014
5016
5018
5020
5022
5024
5026
5028
5030
5032
5034
5036
5038
5040
5042
5044
5046
5048
5050
5052
5054
5056
5058
5060
5062
5064
5066
5068
5070
5072
5074
5076
5078
5080
5082
5084
5086
5088
5090
5092
5094
5096
5098
5100
5102
5104
5106
5108
5110
5112
5114
5116
5118
5120
5122
5124
5126
5128
5130
5132
5134
5136
5138
5140
5142
5144
5146
5148
5150
5152
5154
5156
5158
5160
5162
5164
5166
5168
5170
5172
5174
5176
5178
5180
5182
5184
5186
5188
5190
5192
5194
5196
5198
5200
5202
5204
5206
5208
5210
5212
5214
5216
5218
5220
5222
5224
5226
5228
5230
5232
5234
5236
5238
5240
5242
5244
5246
5248
5250
5252
5254
5256
5258
5260
5262
5264
5266
5268
5270
5272
5274
5276
5278
5280
5282
5284
5286
5288
5290
5292
5294
5296
5298
5300
5302
5304
5306
5308
5310
5312
5314
5316
5318
5320
5322
5324
5326
5328
5330
5332
5334
5336
5338
5340
5342
5344
5346
5348
5350
5352
5354
5356
5358
5360
5362
5364
5366
5368
5370
5372
5374
5376
5378
5380
5382
5384
5386
5388
5390
5392
5394
5396
5398
5400
5402
5404
5406
5408
5410
5412
5414
5416
5418
5420
5422
5424
5426
5428
5430
5432
5434
5436
5438
5440
5442
5444
5446
5448
5450
5452
5454
5456
5458
5460
5462
5464
5466
5468
5470
5472
5474
5476
5478
5480
5482
5484
5486
5488
5490
5492
5494
5496
5498
5500
5502
5504
5506
5508
5510
5512
5514
5516
5518
5520
5522
5524
5526
5528
5530
5532
5534
5536
5538
5540
5542
5544
5546
5548
5550
5552
5554
5556
5558
5560
5562
5564
5566
5568
5570
5572
5574
5576
5578
5580
5582
5584
5586
5588
5590
5592
5594
5596
5598
5600
5602
5604
5606
5608
5610
5612
      </DataArray>
      <DataArray type="UInt8" Name="types" format="ascii">
69
69
69
69
69
69
69
69
69
69
69
69
69
69
69
69
69
69
69
69
69
69
69
69
69
69
69
69
69
69
69
69
69
69
69
69
69
69
69
69
69
69
69
69
69
69
69
69
69
69
69
69
69
69
69
69
69
69
69
69
69
69
69
69
69
69
69
69
69
69
69
69
69
69
69
69
69
69
69
69
69
69
69
69
69
69
69
69
69
69
69
69
69
69
69
69
69
69
69
69
69
69
69
69
69
69
69
69
69
69
69
69
69
69
69
69
69
69
69
69
69
69
69
69
69
69
69
69
69
69
69
69
69
69
69
69
69
69
69
69
69
69
69
69
69
69
69
69
69
69
69
69
69
69
69
69
69
69
69
69
69
69
69
69
69
69
69
69
69
69
69
69
69
69
69
69
69
69
69
69
69
69
69
69
69
69
69
69
69
69
69
69
69
69
69
69
69
69
69
69
69
69
69
69
69
69
69
69
69
69
69
69
69
69
69
69
69
69
69
69
69
69
69
69
69
69
69
69
69
69
69
69
69
69
69
69
69
69
69
69
69
69
69
69
69
69
69
69
69
69
69
69
69
69
69
69
69
69
69
69
69
69
69
69
69
69
69
69
69
69
69
69
69
69
69
69
69
69
69
69
69
69
69
69
69
69
69
69
69
69
69
69
69
69
69
69
69
69
69
69
69
69
69
69
69
69
69
69
69
69
69
69
69
69
69
69
69
69
69
69
69
69
69
69
69
69
69
69
69
69
69
69
69
69
69
69
69
69
69
69
69
69
69
69
69
69
69
69
69
69
69
69
69
69
69
69
69
69
69
69
69
69
69
69
69
69
69
69
69
69
69
69
69
69
69
69
69
69
69
69
69
69
69
69
69
69
69
69
69
69
69
69
69
69
69
69
69
69
69
69
69
69
69
69
69
69
69
69
69
69
69
69
69
69
69
69
69
69
69
69
69
69
69
69
69
69
69
69
69
69
69
69
69
69
69
69
69
69
69
69
69
69
69
69
69
69
69
69
69
69
69
69
69
69
69
69
69
69
69
69
69
69
69
69
69
69
69
69
69
69
69
69
69
69
69
69
69
69
69
69
69
69
69
69
69
69
69
69
69
69
69
69
69
69
69
69
69
69
69
69
69
69
69
69
69
69
69
69
69
69
69
69
69
69
69
69
69
69
69
69
69
69
69
69
69
69
69
69
69
69
69
69
69
69
69
69
69
69
69
69
69
69
69
69
69
69
69
69
69
69
69
69
69
69
3
3
3
3
3
3
3
3
3
3
3
3
3
3
3
3
3
3
3
3
3
3
3
3
3
3
3
3
3
3
3
3
3
3
3
3
3
3
3
3
3
3
3
3
3
3
3
3
3
3
3
3
3
3
3
3
3
3
3
3
3
3
3
3
3
3
3
3
3
3
3
3
3
3
3
3
3
3
3
3
3
3
3
3
3
3
3
3
3
3
3
3
3
3
3
3
3
3
3
3
3
3
3
3
3
3
3
3
3
3
3
3
3
3
3
3
3
3
3
3
3
3
3
3
3
3
3
3
3
3
3
3
3
3
3
3
3
3
3
3
3
3
3
3
3
3
3
3
3
3
3
3
3
3
3
3
3
3
3
3
3
3
3
3
3
3
3
3
3
3
3
3
3
3
3
3
3
3
3
3
3
3
3
3
3
3
3
3
3
3
3
3
3
3
3
3
3
3
3
3
3
3
3
3
3
3
3
3
3
3
3
3
3
3
3
3
3
3
3
3
3
3
3
3
3
3
3
3
3
3
3
3
3
3
3
3
3
3
3
3
3
3
3
3
3
3
3
3
3
3
3
3
3
3
3
3
3
3
3
3
3
3
3
3
3
3
3
3
3
3
3
3
3
3
3
3
3
3
3
3
3
3
3
3
3
3
3
3
3
3
3
3
3
3
3
3
3
3
3
3
3
3
3
3
3
3
3
3
3
3
3
3
3
3
3
3
3
3
3
3
3
3
3
3
3
3
3
3
3
3
3
3
3
3
3
3
3
3
3
3
3
3
3
3
3
3
3
3
3
3
3
3
3
3
3
3
3
3
3
3
3
3
3
3
3
3
3
3
3
3
3
3
3
3
3
3
3
3
3
3
3
3
3
3
3
3
3
3
3
3
3
3
3
3
3
3
3
3
3
3
3
3
3
3
3
3
3
3
3
3
3
3
3
3
3
3
3
3
3
3
3
3
3
3
3
3
3
3
3
3
3
3
3
3
3
3
3
3
3
3
3
3
3
3
3
3
3
3
3
3
3
3
3
3
3
3
3
3
3
3
3
3
3
3
3
3
3
3
3
3
3
3
3
3
3
3
3
3
3
3
3
3
3
3
3
3
3
3
3
3
3
3
3
3
3
3
3
3
3
3
3
3
3
3
3
3
3
3
3
3
3
3
3
3
3
3
3
3
3
3
3
3
3
3
3
3
3
3
3
3
3
3
3
3
3
3
3
3
3
3
3
3
3
3
3
3
3
3
3
3
3
3
3
3
3
3
3
3
3
3
3
3
3
3
3
3
3
3
3
3
3
3
3
3
3
3
3
3
3
3
3
3
3
3
3
3
3
3
3
3
3
3
3
3
3
3
3
3
3
3
3
3
3
3
3
3
3
3
3
3
3
3
3
3
3
3
3
3
3
3
3
3
3
3
3
3
3
3
3
3
3
3
3
3
3
3
3
3
3
3
3
3
3
3
3
3
3
3
3
3
3
3
3
3
3
3
3
3
3
3
3
3
3
3
3
3
3
3
3
3
3
3
3
3
3
3
3
3
3
3
3
3
3
3
3
3
3
3
3
3
3
3
3
3
3
3
3
3
3
3
3
3
3
3
3
3
3
3
3
3
3
3
3
3
3
3
3
3
3
3
3
3
3
3
3
3
3
3
3
3
3
3
3
3
3
3
3
3
3
3
3
3
3
3
3
3
3
3
3
3
3
3
3
3
3
3
3
3
3
3
3
3
3
3
3
3
3
3
3
3
3
3
3
3
3
3
3
3
3
3
3
3
3
3
3
3
3
3
3
3
3
3
3
3
3
3
3
3
3
3
3
3
3
3
3
3
3
3
3
3
3
3
3
3
3
3
3
3
3
3
3
3
3
3
3
3
3
3
3
3
3
3
3
3
3
3
3
3
3
3
3
3
3
3
3
3
3
3
3
3
3
3
3
3
3
3
3
3
3
3
3
3
3
3
3
3
3
3
3
3
3
3
3
3
3
3
3
3
3
3
3
3
3
3
3
3
3
3
3
3
3
3
3
3
3
3
3
3
3
3
3
3
3
3
3
3
3
3
3
3
3
3
3
3
3
3
3
3
3
3
3
3
3
3
3
3
3
3
3
3
3
3
3
3
3
3
3
3
3
3
3
3
3
3
3
3
3
3
3
3
3
3
3
3
3
3
3
3
3
3
3
3
3
3
3
3
3
3
3
3
3
3
3
3
3
3
3
3
3
3
3
3
3
3
3
3
3
3
3
3
3
3
3
3
3
3
3
3
3
3
3
3
3
3
3
3
3
3
3
3
3
3
3
3
3
3
3
3
3
3
3
3
3
3
3
3
3
3
3
3
3
3
3
3
3
3
3
3
3
3
3
3
3
3
3
3
3
3
3
3
3
3
3
3
3
3
3
3
3
3
3
3
3
3
3
3
3
3
3
3
3
3
3
3
3
3
3
3
3
3
3
3
3
3
3
3
3
3
3
3
3
3
3
3
3
3
3
3
3
3
3
3
3
3
3
3
3
3
3
3
3
3
3
3
3
3
3
3
3
3
3
3
3
3
3
3
3
3
3
3
3
3
3
3
3
3
3
3
3
3
3
3
3
3
      </DataArray>
    </Cells>
    <PointData>
      <DataArray type="Float64" NumberOfComponents="2" Name="Displacement" format="ascii">
-0.000705996 -0.238248
0.00106546 -0.238837
-0.000158389 -0.237943
0.000226874 -0.237625
0.00043145 -0.237407
0.00057346 -0.237224
0.000659638 -0.237088
0.000714107 -0.236994
0.000734123 -0.236914
0.000732746 -0.236857
0.000710118 -0.236822
0.000672437 -0.236806
0.000619342 -0.236793
0.000556028 -0.236791
0.000483423 -0.2368
0.000405466 -0.236818
0.000322745 -0.236835
0.000239019 -0.236858
0.000156243 -0.23689
7.71009e-05 -0.23693
4.52917e-06 -0.236971
-5.98569e-05 -0.237023
-0.00011282 -0.237087
-0.000152078 -0.237167
-0.000171207 -0.237254
-0.000170963 -0.237367
-0.000144252 -0.237507
-8.85259e-05 -0.237682
3.21183e-05 -0.237874
0.000205272 -0.238131
0.000531155 -0.238485
-0.00406053 -0.237814
-0.00328158 -0.237841
-0.00250756 -0.237895
-0.00170537 -0.238022
-0.0675433 -0.301093
-0.00481697 -0.23782
-0.00557583 -0.237843
-0.00668341 -0.237896
-0.00780227 -0.237976
-0.00942756 -0.238138
-0.0110749 -0.238351
-0.0134943 -0.238752
-0.0159469 -0.239262
-0.0195353 -0.240197
-0.0231507 -0.24136
-0.0257595 -0.24234
-0.0283571 -0.243438
-0.0309293 -0.244661
-0.0334653 -0.245995
-0.0370469 -0.248118
-0.0405105 -0.250455
-0.0438203 -0.252996
-0.0353219 -0.333413
-0.0669641 -0.307085
-0.0657083 -0.312425
-0.0639426 -0.317058
-0.0617718 -0.320994
-0.0593464 -0.324287
0.0442318 -0.208442
-0.0294647 -0.332591
-0.02251 -0.330433
-0.0143813 -0.326719
0 0
-0.0166516 -0.0151017
-0.023533 -0.0250593
-0.0244743 -0.0331004
-0.0203718 -0.0429297
-0.0147402 -0.0524648
-0.000202349 -0.226601
0 0
0 0
0 0
0 0
0.0131538 -0.219526
0.0264744 -0.193691
0.0346716 -0.139586
-0.0437808 -0.20895
0.0167167 -0.0150787
0.0236349 -0.0251466
0.0245928 -0.0332368
0.0205031 -0.043109
0.0148714 -0.0526496
0.0354197 -0.333675
0.0295613 -0.332848
0.0226473 -0.330682
0.0144938 -0.327015
0.0675025 -0.301508
0.0400712 -0.333802
0.0440903 -0.333298
0.0476735 -0.332431
0.0508865 -0.331107
0.0538909 -0.32945
0.00430271 -0.23842
0.0672932 -0.29521
0.0661955 -0.288498
0.0641091 -0.281514
0.0609945 -0.274454
0.0582137 -0.269639
0.0549429 -0.264949
0.0511861 -0.26047
0.0469963 -0.256257
0.0438583 -0.253545
0.0405582 -0.251014
0.0371048 -0.248684
0.0335336 -0.246567
0.0284475 -0.244028
0.0232599 -0.241938
0.0196587 -0.240789
0.0160936 -0.239865
0.0136514 -0.239356
0.00354694 -0.238456
0.00279469 -0.238517
0.00199897 -0.238644
-0.00458708 -0.230879
0.0201882 -0.229872
0.0158735 -0.221644
0.0267935 -0.179625
-0.0270646 -0.190295
-0.00419398 -0.248971
-0.00821567 -0.227293
-0.0190937 -0.28172
-0.00322689 -0.241629
-0.0556582 -0.29083
-0.0176634 -0.0321454
0.0173573 -0.0327577
-0.0292626 -0.269413
-0.0105658 -0.245522
-0.0032012 -0.255108
-0.00445747 -0.25468
0.00177687 -0.253955
-0.00590416 -0.254317
0.00480363 -0.255569
0.00261074 -0.247459
-0.0011088 -0.25103
0.000811984 -0.25202
-0.00359582 -0.247509
-0.00856885 -0.255582
-0.0121532 -0.25819
-0.00820615 -0.259086
0.0040302 -0.235304
-0.0031668 -0.235554
-0.00532234 -0.235516
0.00495775 -0.25792
0.00771845 -0.257252
-0.00904401 -0.242179
0.00864084 -0.241783
-0.00085464 -0.254135
0.00279996 -0.249856
0.00718052 -0.244351
-0.00827646 -0.243968
0.000767204 -0.253796
0.00345961 -0.23583
-0.000901373 -0.235749
-0.00358804 -0.236122
-0.00510187 -0.251957
0.00728609 -0.255022
0.00767207 -0.236585
0.00747496 -0.24028
0.00115609 -0.247386
-0.00252562 -0.248964
0.002934 -0.250495
-0.000732604 -0.24896
-0.00787335 -0.240848
-0.00776611 -0.236919
-0.0113192 -0.255397
-0.0131844 -0.262651
0.00964673 -0.233336
0.00383321 -0.234104
-0.00181659 -0.235191
-0.00859896 -0.235141
-0.0170434 -0.267447
-0.0150641 -0.268633
0.0126415 -0.265462
0.0118487 -0.261353
0.0147293 -0.260064
0.0143352 -0.257744
-0.0118158 -0.233156
-0.0119373 -0.23829
0.0113429 -0.238049
0.0166319 -0.230838
-0.0077644 -0.262596
0.00134044 -0.25289
0.00992444 -0.24234
-0.00114655 -0.252654
0.0114194 -0.266498
0.00413419 -0.236154
0.00261876 -0.235791
0.000212515 -0.235931
0.00124254 -0.235813
-0.000755838 -0.236239
-0.00196199 -0.236384
-0.00124579 -0.236378
-0.00341483 -0.236524
-0.00505931 -0.249923
-0.0091052 -0.251978
0.0117155 -0.254101
0.00637105 -0.251737
0.0045838 -0.236489
0.00540593 -0.236823
0.00687533 -0.23785
0.00650051 -0.239313
0.00383377 -0.242933
0.00106859 -0.245867
-0.00130678 -0.246524
-0.00404685 -0.243602
-0.00679525 -0.239893
-0.00690591 -0.238433
-0.00504869 -0.237153
-0.00402502 -0.236807
-0.0127453 -0.254183
-0.0200531 -0.265282
0.0140411 -0.227929
-0.000993002 -0.233805
-0.00780292 -0.232709
-0.024175 -0.276831
0.0207066 -0.275142
0.0186245 -0.263938
0.0152201 -0.255182
-0.0184812 -0.22996
0.0219201 -0.226346
-0.0128184 -0.270342
0.0133092 -0.238751
-0.0240686 -0.223339
-0.0105425 -0.242078
0.00353548 -0.258717
0.00299666 -0.236479
0.00212666 -0.236205
0.000775591 -0.236281
-0.000354005 -0.236503
-0.00121566 -0.236646
-0.00220298 -0.23688
-0.00637622 -0.248897
0.0071513 -0.24966
0.00388626 -0.23724
0.00411378 -0.239326
0.00067183 -0.243954
-0.000885993 -0.244496
-0.00397519 -0.239874
-0.00332303 -0.237631
-0.0122971 -0.24848
-0.0150026 -0.251781
-0.0171589 -0.255557
-0.0233713 -0.261165
-0.0370398 -0.279332
-0.0349099 -0.284763
0.0251536 -0.203247
0.00498835 -0.228735
-0.0205189 -0.215185
-0.0318215 -0.28805
0.0302611 -0.287504
0.0299278 -0.280055
0.0279032 -0.271649
0.0241083 -0.264098
0.0179355 -0.254667
0.016854 -0.250394
-0.0252553 -0.215822
0.0286248 -0.21035
-0.0270084 -0.287944
-0.00668137 -0.266475
0.0264767 -0.218792
0.0181086 -0.281074
0.0300375 -0.294211
-0.0177582 -0.23331
0.00445461 -0.260926
0.00215247 -0.236872
0.00252124 -0.237187
0.00172275 -0.236525
0.00207441 -0.236613
0.000957155 -0.236503
0.00138324 -0.236474
4.9503e-05 -0.236645
0.000458865 -0.236581
-0.000552544 -0.236817
-0.000224076 -0.236751
-0.00128551 -0.236975
-0.000939706 -0.236858
-0.00182843 -0.237534
-0.00147157 -0.237203
-0.00204401 -0.244724
-0.00464898 -0.246307
-0.00877702 -0.247852
0.0114166 -0.247541
0.00865144 -0.247819
0.00344717 -0.246168
0.0013356 -0.245188
0.00305298 -0.237787
0.00300188 -0.238631
0.0021443 -0.240523
0.000993375 -0.241915
-0.0014968 -0.242452
-0.00216194 -0.241067
-0.00273103 -0.239101
-0.00243208 -0.238168
-0.0124029 -0.243578
-0.0168957 -0.249195
-0.0265586 -0.256621
-0.037891 -0.271124
-0.0456788 -0.289998
0.0157761 -0.131765
0.0134373 -0.216333
0.0008711 -0.22875
-0.00988657 -0.223042
-0.0185298 -0.142206
-0.0405896 -0.302151
0.041706 -0.303558
0.0384662 -0.279195
0.0233288 -0.257915
0.0157487 -0.245925
0.00207426 -0.0580561
-0.023506 -0.165254
-0.00346359 -0.0555451
0.0203043 -0.156267
-0.0237296 -0.296008
0.0203374 -0.228217
0.0351298 -0.197439
0.0301636 -0.303205
-0.0339894 -0.203555
-0.0098667 -0.242434
0.00145375 -0.237155
0.00122639 -0.236786
0.000862305 -0.236703
0.00034869 -0.23677
-0.000153782 -0.236889
-0.000564204 -0.237078
-0.00083395 -0.237487
-0.00420119 -0.243711
-0.00873908 -0.243469
0.00748837 -0.244052
0.00256194 -0.243669
0.00144763 -0.238292
-9.38547e-05 -0.240805
-0.00169563 -0.241038
0.00141376 -0.241939
-0.000326474 -0.241323
-0.000994318 -0.238628
-0.00787398 -0.240956
0.00791259 -0.242126
-0.013237 -0.240416
-0.0150426 -0.242697
-0.0185844 -0.243841
-0.021194 -0.247506
-0.0270503 -0.249642
-0.0323474 -0.255265
-0.0387331 -0.260636
-0.0460575 -0.269468
-0.0532305 -0.278483
0.0118846 -0.139613
0.00451323 -0.210089
-0.0042431 -0.215143
-0.0113603 -0.150343
-0.0555281 -0.301455
-0.0532757 -0.31009
-0.0497437 -0.316967
-0.0464125 -0.32393
-0.0364879 -0.319553
0.0386529 -0.321602
0.0466701 -0.323593
0.0507153 -0.317846
0.0536076 -0.309593
0.055563 -0.298875
0.0514789 -0.285757
0.0464668 -0.272999
0.0411127 -0.262028
0.0320748 -0.256031
0.0273278 -0.247819
0.0222504 -0.245437
0.0186494 -0.244278
0.0131599 -0.241786
0.0165878 -0.0582461
-0.000491724 -0.105474
-0.0186187 -0.154975
-0.0168148 -0.0570652
0.0153656 -0.145755
-0.000147296 -0.102441
-0.0251278 -0.313815
-0.0111937 -0.308485
0.0200477 -0.235417
0.0287512 -0.316016
-0.00720988 -0.25469
0.0165622 -0.305722
0.000696777 -0.237566
0.000632552 -0.237883
0.000812841 -0.237245
0.000889504 -0.236992
0.000863826 -0.237104
0.000893099 -0.236856
0.000799933 -0.236794
0.000853802 -0.23682
0.000656239 -0.236783
0.000473256 -0.236802
0.00056812 -0.236791
0.000274754 -0.236845
7.37775e-05 -0.236901
0.000173919 -0.236872
-0.000100739 -0.236975
-0.000257147 -0.237081
-0.00018341 -0.237025
-0.000350804 -0.237227
-0.000387712 -0.237454
-0.000378914 -0.237332
-0.000308782 -0.237778
-0.000141103 -0.238294
-0.000239554 -0.238009
-0.00918303 -0.239704
-0.0108293 -0.239926
0.0107744 -0.241275
0.00914113 -0.241032
-0.00608281 -0.242844
-0.0035031 -0.240062
0.00512464 -0.242793
0.00360154 -0.242564
0.00391374 -0.240886
0.000192734 -0.238939
-0.000157161 -0.239565
0.000432647 -0.240329
8.62613e-06 -0.239464
-0.00647871 -0.239332
0.0067487 -0.23984
-0.00460786 -0.239227
-0.00537548 -0.239252
0.00565704 -0.23976
0.0048994 -0.239734
-0.00287493 -0.238843
-0.00129501 -0.238911
-0.00211449 -0.238866
0.00324385 -0.239778
0.00250241 -0.239772
0.00174973 -0.239778
0.00237138 -0.240771
-0.00182853 -0.23961
0.00552699 -0.240956
-0.00519713 -0.240522
-0.00101723 -0.239941
0.00111391 -0.239475
0.00484157 -0.244417
-0.00704482 -0.245111
0.0103547 -0.243386
-0.010604 -0.241411
-0.000933368 -0.2379
-0.000709528 -0.237242
-0.000372233 -0.236971
8.99239e-05 -0.236828
0.000616055 -0.236726
0.00107448 -0.236718
0.00131794 -0.236943
0.0016481 -0.237573
0.0189768 -0.290653
-0.00813307 -0.277624
-0.00146735 -0.0958829
-0.000789044 -0.101404
0.0213491 -0.248623
0.033199 -0.266546
0.0429922 -0.293294
0.0403516 -0.311791
-0.0354674 -0.305366
-0.0437681 -0.29705
-0.0204601 -0.194639
0.0217727 -0.182006
-0.0461419 -0.281654
-0.031169 -0.262732
-0.0196263 -0.252672
-0.0142531 -0.245765
0.000546419 -0.242888
-0.00158685 -0.242349
-0.0303436 -0.202012
0.0314632 -0.195094
0.00322116 -0.227782
-0.00417049 -0.238361
-0.00337291 -0.241887
0.00323102 -0.241301
0.00457312 -0.237865
0.00221492 -0.247502
0.0126845 -0.251477
-0.0105893 -0.250649
-0.00254059 -0.24701
-0.00255898 -0.237185
-0.00179407 -0.236686
-0.000696058 -0.236625
8.20201e-05 -0.23638
0.00152499 -0.23619
0.00266752 -0.236282
0.00324109 -0.236823
-0.00628404 -0.247171
0.0167606 -0.27485
-0.00377001 -0.259998
-0.0196779 -0.275896
0.0225836 -0.220415
-0.0153648 -0.227497
0.0178519 -0.258972
0.0202958 -0.270058
-0.00460669 -0.234877
0.00526395 -0.231594
-0.0270928 -0.274326
-0.0150163 -0.25778
-0.0135463 -0.238146
0.0129685 -0.238181
-0.00545223 -0.236291
-0.00984633 -0.237745
-0.00464181 -0.244982
0.00438959 -0.24428
0.00932451 -0.237279
0.00590739 -0.236021
0.010943 -0.256333
-0.00775938 -0.253004
-0.00190857 -0.236084
0.000492907 -0.235392
0.00405319 -0.257835
0.00532973 -0.247856
0.00591638 -0.257796
-0.00706642 -0.259665
0.00382721 -0.253357
-0.00256926 -0.250744
-0.00214327 -0.250158
0.000304345 -0.250943
-0.00949098 -0.258109
-0.0207619 -0.237362
0.00509526 -0.320722
-0.010329 -0.2789
0.00335861 -0.292394
-0.000111015 -0.316512
0.00704146 -0.274315
-0.00498588 -0.32049
0.0300926 -0.22461
0.0148521 -0.262337
0.000281064 -0.31623
0.00145019 -0.285834
0.00703853 -0.255746
0.00724828 -0.123281
0.0174265 -0.143338
0.00949588 -0.118382
0.0282877 -0.170511
-0.0077696 -0.0641875
0.000476989 -0.0784922
0.00307723 -0.101348
-0.00148879 -0.100337
0.00565504 -0.120161
-0.00937722 -0.0777299
-0.00480319 -0.0827406
-0.0135093 -0.062148
0.00950211 -0.0959075
0.0164513 -0.111884
-0.0190143 -0.049813
-0.0101679 -0.0751296
-0.00917624 -0.129591
-0.00970175 -0.120535
-0.0189624 -0.149557
-0.00324253 -0.103263
0.00787374 -0.0643792
-0.000428243 -0.0787432
-0.0305557 -0.177921
-0.0082959 -0.127472
1.29481e-05 -0.104603
0.00897386 -0.0797525
0.0135178 -0.0629795
0.00467407 -0.0843526
0.0190178 -0.0504614
-0.0094739 -0.0962376
-0.0163902 -0.112309
0.00908729 -0.0783061
-0.00704672 -0.192004
0.00567279 -0.206404
0.00646529 -0.176156
0.00280282 -0.225441
0 0
0 0
-0.0059437 -0.0902861
-0.0171037 -0.17522
-0.0127008 -0.205228
0.00763023 -0.184411
-0.00625406 -0.171772
-0.00630926 -0.202979
0.00633079 -0.0820381
0 0
-0.0342308 -0.139086
-0.00353758 -0.224145
0.0141183 -0.196351
0.0176401 -0.162658
-0.0243872 -0.222832
-0.0248509 -0.223799
-0.00873921 -0.245083
-0.03794 -0.204442
0.00557643 -0.264794
-0.0263606 -0.219741
-0.0314936 -0.206488
0.0319189 -0.211585
0.0204284 -0.229866
0.0337828 -0.212489
0.00583501 -0.249762
0.0384324 -0.199898
0.0333609 -0.197927
0.0300549 -0.212689
0.0290325 -0.180875
0.0296053 -0.179788
0.0178285 -0.152264
0.00931882 -0.12659
0.0273393 -0.17742
-0.0297266 -0.185367
-0.0211854 -0.161037
-0.0316839 -0.186383
-0.0126917 -0.134832
-0.028844 -0.18581
-0.00913706 -0.102479
-0.0177882 -0.140598
-0.0099458 -0.0954212
-0.0223376 -0.170074
0.00327339 -0.0323881
0.00142065 -0.0807744
-0.0107356 -0.12088
-0.00359234 -0.227574
-0.00290811 -0.226439
-0.00874668 -0.219604
-0.000249382 -0.228664
-0.0157679 -0.212416
-0.00375089 -0.227747
0.00203628 -0.22808
0.00642763 -0.224568
0.010442 -0.213222
0.00390214 -0.223535
0.018368 -0.202532
0.0089236 -0.224153
0.00635134 -0.0947045
0.008292 -0.0873068
0.0164107 -0.129679
-0.00388579 -0.0314039
0.0214061 -0.15737
0.0076789 -0.113097
-0.00328352 -0.0768142
-0.0253003 -0.221518
-0.0179556 -0.232316
-0.00786223 -0.245361
-0.012098 -0.240511
0.0307485 -0.20769
0.0194712 -0.229395
0.00711138 -0.245835
0.00794255 -0.244657
-0.0281601 -0.213757
-0.0216257 -0.227836
-0.0156794 -0.236141
-0.0191073 -0.231465
-0.0215562 -0.227064
-0.0223634 -0.223797
-0.0255067 -0.218773
-0.0176525 -0.228244
-0.0208416 -0.222672
-0.0283642 -0.208812
-0.0169894 -0.23328
0.0228646 -0.222919
0.019942 -0.226162
0.0193975 -0.228918
0.0158337 -0.233696
0.0131257 -0.23444
0.0178909 -0.232363
-0.0138452 -0.230549
-0.0152773 -0.231885
-0.0142648 -0.234495
-0.0114634 -0.235037
-0.0115836 -0.230672
-0.010039 -0.232864
-0.00809519 -0.23427
-0.00618837 -0.233939
0.00458904 -0.23298
0.00197261 -0.232933
0.00157478 -0.233983
-0.00011568 -0.234677
-0.00301648 -0.23438
0.00197312 -0.234819
0.013206 -0.23236
0.0159461 -0.229027
0.0119785 -0.230952
0.0185524 -0.224806
0.00964069 -0.230123
0.00791006 -0.232394
0.0101682 -0.234823
0.00674424 -0.233732
0.00408874 -0.234728
0.00509958 -0.235549
0.00230873 -0.23533
0.00665324 -0.234527
0.0079381 -0.234833
0.0110162 -0.0166818
0.0108067 -0.0427883
0.00842593 -0.0222704
0.0114055 -0.06287
0 0
0 0
0.013498 -0.0134794
0.0228851 -0.0371069
0.0183769 -0.0463959
0.0207357 -0.0269978
-0.0234203 -0.131674
-0.0282984 -0.143145
-0.0208262 -0.0267507
-0.0186941 -0.0454732
-0.0228865 -0.0366944
-0.0125245 -0.0601438
0.0235185 -0.131103
0.0283144 -0.142383
-0.0135829 -0.0134194
-0.00874363 -0.021887
-0.0115884 -0.041594
-0.0110985 -0.0165172
-0.0267427 -0.193393
-0.0135019 -0.219303
-0.0147573 -0.22282
-0.00950689 -0.225265
-0.0155028 -0.218843
-0.0023527 -0.228335
-0.0212456 -0.206053
-0.0184534 -0.221938
-0.0122548 -0.226927
-0.0249728 -0.203973
-0.0272763 -0.204489
-0.0235187 -0.214361
-0.0289776 -0.194913
-0.0245154 -0.190154
-0.0203238 -0.152825
-0.0265964 -0.177966
-0.024232 -0.1694
0.0221681 -0.158034
0.0245946 -0.168382
0.017249 -0.14326
0.0289646 -0.186079
0.0248949 -0.177748
0.0276376 -0.204904
0.0292402 -0.19628
0.0270389 -0.191912
0.0305301 -0.202901
0.0239311 -0.193136
0.0245515 -0.212386
0.0261068 -0.215541
0.015335 -0.224634
0.0106439 -0.226182
0.00996319 -0.228149
0.00966628 -0.225221
0.00422526 -0.227947
0.00525545 -0.22992
0.0198843 -0.220189
0.0200148 -0.208981
0.0153008 -0.218749
0.0211653 -0.214116
0.0257399 -0.220263
0.0233266 -0.224811
0.0284213 -0.213678
0.0143523 -0.236941
0.0256907 -0.219381
0.0215528 -0.227702
0.0164818 -0.234718
-0.00263559 -0.232515
-0.0063896 -0.231825
-0.00430126 -0.233448
-0.0101508 -0.229758
0.000576064 -0.231554
-0.00165967 -0.229104
-0.00649671 -0.229032
4.90821e-05 -0.230102
0.0033883 -0.299112
-0.00523623 -0.29835
-0.00371508 -0.309154
-0.00423088 -0.280313
-0.010519 -0.293073
-0.00833786 -0.314551
0.00578442 -0.310932
0.0118119 -0.304319
0.00857134 -0.290203
0.0102463 -0.257764
0.00358886 -0.270781
0.0076353 -0.275325
-0.00118155 -0.26771
0.0161031 -0.280679
0.0168004 -0.248199
0.0130784 -0.246372
0.0354343 -0.184925
0.0332713 -0.155992
0.0295248 -0.165802
0.0208233 -0.157798
0.0250871 -0.151307
0.0374964 -0.174978
-0.0332173 -0.156862
-0.0369697 -0.189989
-0.0304387 -0.170509
-0.025977 -0.155721
-0.0235059 -0.166092
-0.0369053 -0.175803
-0.0319731 -0.214483
-0.0324292 -0.217328
-0.023287 -0.228027
-0.0409905 -0.205178
-0.0309196 -0.224825
-0.0135542 -0.246688
-0.0160331 -0.237878
-0.0319075 -0.212185
-0.0357463 -0.203639
-0.000394094 -0.259364
0.00639703 -0.268601
-0.00108272 -0.255611
0.0133379 -0.283079
0.0127305 -0.277736
-0.00219941 -0.252897
-0.00946066 -0.243121
-0.00796528 -0.248377
0.000426323 -0.265288
-0.0257771 -0.22073
-0.0292324 -0.213524
-0.0294104 -0.214233
-0.0295393 -0.210826
-0.0310362 -0.203767
-0.0326227 -0.204889
-0.0301808 -0.213626
-0.0171446 -0.232819
-0.0209777 -0.227856
0.0125635 -0.24045
0.00631405 -0.251744
0.0135292 -0.24202
-0.00167266 -0.263713
0.0203381 -0.231789
0.020497 -0.228546
0.0133005 -0.23815
0.0327368 -0.216399
0.0385448 -0.208716
0.0373375 -0.206342
0.036978 -0.216945
0.0417123 -0.202252
0.0366499 -0.198409
0.0362773 -0.204194
0.0278381 -0.222224
0.0248474 -0.230418
0.0338528 -0.204378
0.0326076 -0.205606
0.0309239 -0.212006
0.0323268 -0.196212
0.0320882 -0.203675
0.0263347 -0.219595
0.0264117 -0.219989
0.0348089 -0.204725
0.0341695 -0.197559
0.0343621 -0.189562
0.0350982 -0.188205
0.0290805 -0.176911
0.0221149 -0.162634
0.033453 -0.18962
0.0323949 -0.189017
0.0320388 -0.189898
0.030966 -0.188634
0.0241688 -0.168148
-0.03147 -0.184028
-0.0372122 -0.194104
-0.035567 -0.194926
-0.034204 -0.195843
-0.0252029 -0.171232
-0.0326709 -0.194271
-0.0320829 -0.196621
-0.0263372 -0.175053
-0.0308427 -0.194299
-0.0143313 -0.236806
-0.00889103 -0.243886
-0.0128944 -0.23903
-0.0133253 -0.2388
-0.00711894 -0.246363
-0.0179573 -0.232732
0.00656567 -0.247166
5.60197e-05 -0.255962
-0.000865812 -0.258712
0.00137821 -0.253354
-0.005149 -0.262705
-0.00757254 -0.271018
0.0133917 -0.237414
0.0136213 -0.237244
0.00760589 -0.245022
0.0136646 -0.236999
0.00206865 -0.252208
0.019942 -0.228646
0.0237525 -0.223457
0.0167885 -0.233411
0.00453038 -0.24903
0.0114206 -0.240401
0.0178304 -0.232837
0.0209999 -0.227969
-0.00104043 -0.256027
0.00797736 -0.244879
0.00969391 -0.242991
0.00357101 -0.250109
-0.00190945 -0.252657
0.00388254 -0.259655
-0.00204701 -0.252361
0.0108083 -0.268452
0.0101777 -0.266665
-0.00162728 -0.252577
-0.0023578 -0.25221
0.0060028 -0.281926
0.0104217 -0.299496
0.012496 -0.290736
0.00440878 -0.308204
0.0116342 -0.312877
0.0182983 -0.297336
-0.00107977 -0.274381
-0.00797548 -0.297297
-0.000630228 -0.301843
-0.00294528 -0.286036
-0.00572074 -0.311115
-0.00771183 -0.265033
-0.013857 -0.287845
-0.0116018 -0.304667
-0.0236767 -0.251232
-0.0193004 -0.275007
-0.0146208 -0.259507
-0.0179496 -0.296308
-0.0250429 -0.285937
0.023057 -0.311214
0.0199342 -0.320164
0.0262016 -0.323428
-0.0329046 -0.272042
-0.0383118 -0.249823
0.0324896 -0.326447
0.0244185 -0.304261
0.0290686 -0.248412
0.0212447 -0.246124
0.0216778 -0.265778
0.0179852 -0.296069
0.0250456 -0.285743
-0.0188709 -0.311026
-0.024172 -0.32264
-0.017244 -0.321367
-0.030781 -0.325715
0.0323068 -0.272048
0.0391451 -0.25014
-0.0176372 -0.29828
0.0366014 -0.259034
0.0407601 -0.256684
0.0362211 -0.253747
0.0439786 -0.259305
0.0112469 -0.238955
0.0096119 -0.238746
0.0327196 -0.251492
0.0325357 -0.261443
0.0370332 -0.26455
0.0437862 -0.267577
0.0505362 -0.269295
0.0480309 -0.263647
0.0537193 -0.274007
0.00800425 -0.238589
0.00689879 -0.238506
0.0398666 -0.269902
0.0535703 -0.292482
0.0604971 -0.294208
0.0588739 -0.287507
0.0615941 -0.300562
0.00580411 -0.238451
0.00505269 -0.238428
0.0559181 -0.28061
0.046883 -0.289993
0.0493386 -0.296479
0.0544565 -0.304415
0.0597211 -0.311736
0.061124 -0.306477
0.0581714 -0.316214
0.0566908 -0.327283
0.0593385 -0.324619
0.0486829 -0.301814
0.0486406 -0.320721
0.0518443 -0.326055
0.0540872 -0.323285
0.0490263 -0.327968
0.0617574 -0.321345
0.0639208 -0.317419
0.0563418 -0.320213
0.045601 -0.315297
0.0437814 -0.318185
0.0427387 -0.322706
0.0417271 -0.328512
0.045597 -0.328764
0.0373805 -0.327925
0.0656796 -0.312809
0.0669277 -0.307474
0.0396348 -0.316519
-0.041618 -0.322024
-0.0454177 -0.32877
-0.0407335 -0.327703
-0.0488616 -0.327946
-0.0566888 -0.326962
-0.0538774 -0.329145
-0.0362803 -0.327047
-0.0362605 -0.312311
-0.0415431 -0.315804
-0.0480567 -0.320439
-0.0536498 -0.322791
-0.0516887 -0.326022
-0.0558857 -0.319706
-0.0508569 -0.330817
-0.0476316 -0.332142
-0.0428518 -0.312141
-0.0542949 -0.305904
-0.0610228 -0.307491
-0.0595219 -0.311811
-0.0614686 -0.301661
-0.0440276 -0.333014
-0.0400066 -0.333528
-0.0579892 -0.316273
-0.048823 -0.303902
-0.049661 -0.29965
-0.0496972 -0.274023
-0.050395 -0.267171
-0.0539342 -0.271749
-0.0463751 -0.262869
-0.046966 -0.255718
-0.0511667 -0.259935
-0.0570315 -0.276401
-0.0495989 -0.280239
-0.0459775 -0.275757
-0.0355454 -0.257948
-0.036344 -0.253064
-0.0395292 -0.255746
-0.0328314 -0.250805
-0.0549381 -0.264429
-0.0582184 -0.269124
-0.0427635 -0.258376
-0.0348866 -0.261842
-0.0316839 -0.259135
-0.061013 -0.273957
-0.0302071 -0.247942
-0.0276669 -0.246638
-0.0250611 -0.245544
-0.0232478 -0.251365
-0.0641307 -0.281038
-0.0248156 -0.222604
-0.0161637 -0.235035
-0.0175747 -0.232225
0.0348324 -0.313178
0.0297804 -0.309154
0.0339424 -0.318987
0.0248096 -0.297412
0.0353781 -0.307909
0.02748 -0.219369
0.0270318 -0.221317
0.032844 -0.211781
-0.0307273 -0.309173
-0.0311841 -0.316801
-0.024867 -0.304665
-0.0164712 -0.287637
-0.0297731 -0.301068
0.0293652 -0.180495
0.0229258 -0.165001
-0.030598 -0.185755
-0.0255874 -0.172355
0.0282619 -0.2622
0.027608 -0.257189
0.0266781 -0.252283
0.0222499 -0.253395
0.0450393 -0.282714
0.0489859 -0.279494
0.0422514 -0.276467
0.0357791 -0.272926
0.0406694 -0.286321
0.0465932 -0.311209
0.0520547 -0.313817
0.0476885 -0.307098
0.042152 -0.298499
0.0409734 -0.307567
-0.0470506 -0.306724
-0.0513953 -0.313599
-0.045559 -0.31005
-0.0379029 -0.30372
-0.0420441 -0.299667
-0.0381888 -0.266084
-0.0424204 -0.265072
-0.0419086 -0.270466
-0.0420775 -0.276422
-0.0345407 -0.266925
-0.0267459 -0.253249
-0.0296904 -0.252447
-0.0294168 -0.256029
-0.0288562 -0.259671
-0.023076 -0.25464
-0.0227526 -0.22569
-0.0221411 -0.226907
0.0242474 -0.288209
0.0245592 -0.292415
0.030134 -0.298298
0.0186476 -0.285115
0.0355653 -0.303389
0.0236425 -0.284504
0.0173212 -0.277553
0.0252115 -0.221169
0.0281837 -0.215873
0.0286095 -0.265449
0.0236651 -0.261074
0.0205259 -0.258582
0.0209663 -0.261519
0.028822 -0.275884
0.0340317 -0.279967
0.0332176 -0.275504
0.0366449 -0.286852
0.0303887 -0.269376
0.024016 -0.271086
0.0251421 -0.275048
0.0300287 -0.290716
0.0359396 -0.299416
0.0362672 -0.29574
0.0365498 -0.290953
0.0236273 -0.281742
-0.0293013 -0.28813
-0.0363913 -0.295174
-0.0340355 -0.295659
-0.037882 -0.292937
-0.0314766 -0.296575
-0.0233496 -0.281727
-0.0258514 -0.28225
-0.0358624 -0.282163
-0.0414575 -0.284719
-0.0403051 -0.287646
-0.0415689 -0.280661
-0.0458285 -0.285925
-0.044605 -0.293623
-0.0394801 -0.290982
-0.0310388 -0.279519
-0.0320556 -0.277008
-0.0272339 -0.262046
-0.0248902 -0.259044
-0.0214391 -0.256944
-0.019137 -0.259559
0.0121605 -0.273539
0.0114395 -0.270778
0.00491859 -0.262334
0.0232558 -0.267793
0.0259688 -0.267868
0.0213118 -0.264146
0.0181903 -0.2615
0.0193887 -0.267024
0.0255589 -0.281287
0.0299535 -0.283797
0.0252676 -0.277898
0.0203994 -0.272639
0.0186207 -0.275159
-0.0295704 -0.28102
-0.0332432 -0.286517
-0.0280339 -0.282375
-0.0218488 -0.276523
-0.0255352 -0.27571
0.0139957 -0.270457
0.00752373 -0.262828
0.00373529 -0.258318
0.00766631 -0.262032
-0.00328994 -0.25811
-0.0101666 -0.2662
-0.00576745 -0.26157
-0.0137471 -0.269287
-0.0162302 -0.273377
-0.00841805 -0.265539
-0.00100009 -0.25496
0.0160326 -0.26564
0.015177 -0.262801
0.0113276 -0.258902
0.00884496 -0.259697
0.0119843 -0.26604
0.0160768 -0.270981
0.0166485 -0.27021
0.016431 -0.267948
0.00832938 -0.261784
-0.0160005 -0.268127
-0.0205881 -0.272052
-0.0196304 -0.27284
-0.0220484 -0.27104
-0.0173196 -0.272153
-0.0110139 -0.264047
-0.0120133 -0.263735
-0.0235577 -0.269748
-0.0184623 -0.266522
-0.0146859 -0.26179
-0.0174886 -0.261487
-0.0114125 -0.265832
-0.00733058 -0.261128
0.0121753 -0.263444
0.00920971 -0.261534
-0.0331785 -0.27436
-0.0335385 -0.270414
-0.037354 -0.275366
-0.0301114 -0.266234
-0.028071 -0.272011
-0.0216013 -0.263421
-0.0263 -0.265263
-0.0246174 -0.267483
-0.0506164 -0.290663
-0.0555321 -0.296296
-0.0508221 -0.295946
-0.0619026 -0.296337
-0.0510284 -0.286362
-0.0599316 -0.283501
-0.0608388 -0.289709
-0.0544263 -0.284811
-0.0662247 -0.288043
-0.0673208 -0.29477
-0.0131735 -0.274698
-0.0215539 -0.288314
-0.0158847 -0.282059
-0.0278432 -0.294511
-0.0117259 -0.27106
-0.0201257 -0.279464
-0.0230404 -0.285084
-0.0159116 -0.275602
-0.00289327 -0.219123
-0.00698602 -0.215058
-0.0199209 -0.153228
-0.0233638 -0.164382
-0.0202228 -0.178717
-0.0212931 -0.190691
0.0140145 -0.207012
0.0149504 -0.197434
-0.00293813 -0.250022
-0.00772382 -0.244513
0.0204521 -0.21325
0.0201362 -0.21724
0.000916229 -0.226977
0.00355236 -0.225718
-0.0242032 -0.0326092
-0.0219111 -0.0322179
-0.0060268 -0.0275335
-0.00539578 -0.0135795
0.0134795 -0.209101
0.0100278 -0.207757
0.0236772 -0.138817
0.022671 -0.165646
-0.0233011 -0.213386
-0.0234696 -0.208234
-0.000373994 -0.00118699
-0.00231393 -0.0134212
-0.0313784 -0.170533
-0.0173479 -0.153744
0.0318196 -0.196357
0.0303777 -0.186119
-0.0106929 -0.134207
-0.00686709 -0.120066
-0.00786941 -0.0999524
-0.00938555 -0.0946533
-0.00433413 -0.227142
-0.00424036 -0.227419
-0.0200266 -0.154094
-0.0232389 -0.16388
0.00912441 -0.00875674
0.0163937 -0.016307
0.0102261 -0.234031
0.0110082 -0.235177
0.0234532 -0.21582
0.0220035 -0.220833
-0.035963 -0.184937
-0.0253318 -0.166914
0.0113853 -0.229645
0.00904857 -0.229278
0.0189291 -0.146202
0.0162523 -0.144422
0.0107708 -0.233402
0.00898464 -0.232958
-0.0145723 -0.235202
-0.0120946 -0.238687
0.0207608 -0.228135
0.0205539 -0.22903
-0.000193773 -0.104342
0.00655317 -0.0853219
0.0128684 -0.176205
0.0158581 -0.159772
-0.00408995 -0.21411
-0.00871304 -0.210319
-0.00724922 -0.207549
-0.00272976 -0.21199
0.00115203 -0.0613954
0.00262053 -0.0749877
-0.00625611 -0.240092
-0.00259349 -0.24131
-0.0242225 -0.168745
-0.0310586 -0.186454
0.00154344 -0.236134
0.00072646 -0.235818
-0.00175365 -0.168863
0.00016135 -0.184941
-0.0126213 -0.20344
-0.0235915 -0.201009
-0.016238 -0.211188
-0.0116032 -0.206078
-0.0202375 -0.228205
-0.0172325 -0.231037
0.0260622 -0.176276
0.027145 -0.179212
-0.0331402 -0.166852
-0.0313752 -0.182023
-0.0154294 -0.132688
-0.0125666 -0.108823
-0.00899917 -0.106357
-0.00831453 -0.111838
-0.0122976 -0.127277
-0.0172869 -0.144811
-0.0114271 -0.104348
-0.0102859 -0.109799
-0.0253004 -0.213512
-0.0227633 -0.217496
-0.0197266 -0.218665
-0.0163342 -0.222005
-0.0187664 -0.219699
-0.0196125 -0.221163
-0.0238907 -0.222666
-0.0221212 -0.224654
-0.00364648 -0.0928165
0.00175003 -0.0843542
-0.00229846 -0.228144
-0.00570892 -0.227206
-0.0209099 -0.193796
-0.0172787 -0.19966
0.0228968 -0.162986
0.0196657 -0.151463
-0.00526543 -0.228258
-0.00500369 -0.227842
-0.0160474 -0.230148
-0.0168275 -0.231122
-0.0253326 -0.21464
-0.027199 -0.207322
0.0251913 -0.17712
0.0230673 -0.162709
-0.0039728 -0.222474
-0.00748897 -0.222737
0.0147031 -0.0494477
0.0122431 -0.0446781
-0.0182415 -0.23182
-0.0217026 -0.226744
-0.0153425 -0.037833
-0.011651 -0.0409388
-5.09131e-05 -0.22894
-0.000178612 -0.228439
-0.0321649 -0.196029
-0.0298467 -0.184048
0.0108944 -0.223578
0.00729325 -0.226283
-0.0286727 -0.197044
-0.0285169 -0.187501
-0.0139473 -0.219505
-0.0111257 -0.223534
0.0177265 -0.0545128
0.015361 -0.0612959
-0.0045134 -0.0902006
-0.00102632 -0.101801
0.0196908 -0.155821
0.0125059 -0.136938
0.0184641 -0.230651
0.0268292 -0.218714
-0.00701738 -0.236899
-0.00452818 -0.236656
-0.0107285 -0.132466
-0.0159707 -0.147852
-0.00125635 -0.100077
-0.00099882 -0.0927663
0.0338727 -0.197149
0.0350972 -0.206341
-0.00268894 -0.22691
-0.000759012 -0.228329
-0.00688112 -0.235693
-0.00422125 -0.235963
-0.0175961 -0.232466
-0.0162645 -0.234956
-0.00733344 -0.176418
-0.00310533 -0.162478
0.012443 -0.117813
0.014178 -0.14329
0.00428307 -0.105065
0.00567309 -0.115326
0.0168579 -0.0167769
0.0155482 -0.018953
0.0257116 -0.220343
0.0281057 -0.213817
0.00609429 -0.109507
0.0116764 -0.128213
0.00277762 -0.0923829
0.00903304 -0.0743608
0.0208386 -0.228954
0.0165281 -0.234722
0.00601326 -0.233667
0.00807034 -0.233928
0.0256328 -0.220515
0.0248421 -0.221829
-0.0226872 -0.176798
-0.0237952 -0.172008
0.000301621 -0.236764
-0.000156137 -0.236503
-0.0110277 -0.128339
-0.0117759 -0.124921
-0.0108654 -0.0297852
-0.0125555 -0.0227001
-0.00357455 -0.0210487
5.77965e-05 -0.0219526
0.0175597 -0.0161716
0.02125 -0.022801
-0.0170259 -0.233205
-0.0244479 -0.222751
-0.00120762 -0.228063
-0.00217142 -0.22717
-0.0015149 -0.226762
-0.000433746 -0.223846
-0.0117452 -0.234458
-0.00868495 -0.235321
-0.00542574 -0.0909799
-0.00189123 -0.0708999
-0.0315086 -0.20443
-0.0296445 -0.210677
-0.000598767 -0.228435
0.000159038 -0.22885
0.0292046 -0.208878
0.0303912 -0.20096
0.0129036 -0.0643534
0.0166758 -0.0508521
0.0253296 -0.219828
0.0227038 -0.224151
0.00446689 -0.191055
-0.0038577 -0.191875
0.00342718 -0.226664
0.000986854 -0.228177
-0.00632965 -0.0570505
-0.00705247 -0.0428632
-0.00792365 -0.0787019
-0.0126942 -0.0627323
-0.00959608 -0.236288
-0.00655693 -0.23722
-0.0109881 -0.122934
-0.00410134 -0.121309
0.030367 -0.206596
0.030153 -0.197811
-0.00601127 -0.0788787
-0.00691596 -0.0908522
-0.0106047 -0.104023
-0.00709399 -0.101216
-0.00834895 -0.0102359
-0.00936347 -0.00950245
-0.0191979 -0.145167
-0.0201999 -0.149511
0.000901673 -0.228515
0.00017355 -0.228983
0.00136073 -0.0220023
0.00279458 -0.0121571
0.027141 -0.213786
0.0288583 -0.206177
-0.0230527 -0.175843
-0.0208469 -0.165452
-0.0200613 -0.0476836
-0.0188648 -0.0477928
-0.01561 -0.21427
-0.00971002 -0.212044
-0.0104473 -0.214544
-0.0123267 -0.216894
-0.00569572 -0.217378
-0.00286232 -0.211577
0.0234906 -0.219025
0.0206434 -0.222407
0.0237529 -0.202577
0.0225075 -0.197515
-0.0134633 -0.126759
-0.0155201 -0.137836
-0.0233658 -0.224838
-0.0239674 -0.22307
-0.00226199 -0.222808
-0.000688906 -0.226637
0.00226803 -0.224909
0.00561338 -0.222449
-0.00873743 -0.117921
-0.00324367 -0.0990136
-0.00111506 -0.00146455
-0.00785396 -0.0120141
-0.0169022 -0.137965
-0.0151841 -0.136142
0.0072916 -0.21581
0.00236742 -0.212277
0.0226561 -0.138708
0.00574859 -0.14121
0.0118053 -0.18485
0.0290604 -0.179417
-0.00844702 -0.0209601
-0.00464583 -0.0131726
-0.0284012 -0.202511
-0.0295413 -0.198935
0.00870751 -0.12057
0.00913672 -0.126975
-0.0168713 -0.234634
-0.0214024 -0.22813
0.0105583 -0.224248
0.0142309 -0.221567
-0.0112977 -0.223129
-0.0123369 -0.223745
-0.0218202 -0.220629
-0.0244927 -0.216518
0.028512 -0.213395
0.0277101 -0.214334
-0.000237611 -0.230325
0.00145287 -0.231271
-0.0112084 -0.233824
-0.0111891 -0.232523
0.0310225 -0.200274
0.0299077 -0.201907
0.0127736 -0.232028
0.0148683 -0.231968
-0.0201326 -0.0385012
-0.0222489 -0.0393848
-0.00790758 -0.226434
-0.0113586 -0.224807
-0.0243917 -0.194347
-0.0230596 -0.187883
0.00544931 -0.236069
0.00310668 -0.236567
0.025666 -0.171887
0.0258973 -0.172903
0.0054015 -0.169656
0.00905407 -0.184491
0.00688426 -0.100973
0.00648712 -0.0886319
0.00239668 -0.00170354
0.0110969 -0.00961927
-0.00125995 -0.0224389
0.00296749 -0.0521567
-0.00971353 -0.0341942
-0.00681954 -0.0514145
0.0175188 -0.0217973
0.0118532 -0.0120934
-0.00780241 -0.218812
-0.0111647 -0.217477
0.013478 -0.238548
0.00796254 -0.245008
-0.0180181 -0.212674
-0.0196106 -0.205012
-0.0153223 -0.0355098
-0.0118352 -0.037191
0.00858472 -0.224656
0.0123235 -0.221284
0.0123687 -0.0557232
0.0167842 -0.0464593
-0.0100939 -0.239331
-0.0100177 -0.237474
-0.00164321 -0.23318
-0.00515872 -0.232769
-0.0100858 -0.0481002
-0.00526336 -0.0640691
-0.023139 -0.163535
-0.0243657 -0.174251
-0.0267111 -0.208252
-0.0265699 -0.213129
0.00786538 -0.0984612
0.0137876 -0.117571
0.0113905 -0.235877
0.0135161 -0.235638
0.0275688 -0.209451
0.0256744 -0.21678
0.00250197 -0.111516
0.00119328 -0.104788
0.00506283 -0.236219
0.00558223 -0.237525
-0.00173292 -0.191092
0.00597574 -0.189093
0.0140788 -0.0611141
0.016713 -0.0579169
-0.00647624 -0.22873
-0.00722701 -0.229694
-0.0190883 -0.230783
-0.0152716 -0.235295
-0.0191967 -0.231393
-0.0159966 -0.235186
0.0219873 -0.180679
0.0215691 -0.193179
-0.0048694 -0.206199
-0.00696105 -0.195151
-0.00353666 -0.227753
-0.00192194 -0.228244
0.00818897 -0.172629
-0.00310194 -0.172438
0.0106389 -0.106318
0.0140655 -0.133115
0.0201671 -0.185895
0.0206025 -0.196198
-0.00605272 -0.140393
-0.00744396 -0.108222
0.00355522 -0.227456
0.0062076 -0.226183
0.00929405 -0.237805
0.00984616 -0.235724
0.012879 -0.110421
0.0121798 -0.11446
0.0179068 -0.23246
0.02 -0.230015
-0.0202706 -0.154481
-0.0183681 -0.151762
-0.0125014 -0.125621
-0.0155028 -0.131239
-0.0215775 -0.226701
-0.0186225 -0.231497
0.0250534 -0.212667
0.0225276 -0.2185
-0.000793395 -0.228162
-0.000971699 -0.227975
0.0118654 -0.2375
0.00861782 -0.241459
0.00236923 -0.227955
0.00225668 -0.228018
-0.000513846 -0.228341
-0.00233522 -0.228084
0.0227677 -0.221378
0.0230361 -0.218011
-0.0215659 -0.0416722
-0.0191017 -0.0504152
0.00897841 -0.235286
0.00627132 -0.236394
-0.00825023 -0.0809053
-0.00510551 -0.0900753
0.0207641 -0.193289
0.0232621 -0.193006
-0.0095416 -0.221254
-0.00710745 -0.22484
0.0145939 -0.232419
0.0132696 -0.231772
-0.00431729 -0.0836816
-0.00100088 -0.0633138
-0.00780209 -0.166616
-0.000396809 -0.147702
-0.00089612 -0.227391
-0.00217503 -0.227503
-0.0160276 -0.227966
-0.0172246 -0.228777
0.0193843 -0.230954
0.0233654 -0.224747
-0.00946768 -0.188733
-0.0086609 -0.200686
0.00516179 -0.229627
0.00651945 -0.230489
0.0212428 -0.227023
0.0165216 -0.233817
-0.0100851 -0.228557
-0.0139083 -0.226853
0.0187638 -0.0388993
0.0214786 -0.0365141
0.0311453 -0.19944
0.0300859 -0.204666
0.00249844 -0.227931
-0.00118949 -0.2283
0.0265444 -0.189688
0.0252375 -0.178835
0.00272113 -0.0972622
0.00552325 -0.0890595
-0.000904635 -0.0987213
-0.00699653 -0.111356
-0.00350451 -0.238052
-0.000968666 -0.239852
0.00762898 -0.0113513
0.0123892 -0.023091
0.0216645 -0.0350203
0.0190846 -0.0333837
-0.0100582 -0.238568
-0.00677201 -0.239695
-0.0101881 -0.227313
-0.0138816 -0.224745
0.0197568 -0.153733
0.00387789 -0.154468
-0.00147288 -0.228628
-0.000296499 -0.229119
-0.0135803 -0.226712
-0.0128307 -0.225634
-0.0156048 -0.0356431
-0.0154948 -0.0243807
-0.00203644 -0.228282
0.000779986 -0.228548
0.000436423 -0.228849
-0.000352118 -0.229576
-0.0287589 -0.206635
-0.0272942 -0.209163
-0.0201701 -0.228753
-0.0183135 -0.231776
-0.0147927 -0.136617
-0.017385 -0.147833
-0.000988416 -0.204598
0.00204545 -0.212267
0.000220246 -0.228825
0.00258246 -0.227717
0.009155 -0.228261
0.0129122 -0.227032
0.0127416 -0.0399622
0.0109859 -0.0552562
-0.0072279 -0.142492
-0.0121075 -0.157444
0.00708829 -0.0781539
0.00579716 -0.0872382
0.0105752 -0.236855
0.00754949 -0.237606
0.00769596 -0.205365
0.0173996 -0.199528
0.0127024 -0.215891
0.0101215 -0.215509
0.00165196 -0.0615308
0.00410641 -0.0687546
0.00337164 -0.242058
0.00226256 -0.239612
0.0215532 -0.223378
0.0229042 -0.223247
-0.0137875 -0.220618
-0.0168324 -0.218478
-0.0165409 -0.136931
-0.0195173 -0.146683
0.0325788 -0.189205
0.028373 -0.179623
0.0020617 -0.0144012
-0.00230348 -0.0465449
0.0090475 -0.237134
0.00960036 -0.238823
-0.0137913 -0.140994
-0.0183702 -0.154217
0.00953811 -0.0425086
0.00900909 -0.0281982
-0.0010994 -0.225157
0.000414039 -0.2275
-0.0103966 -0.130418
-0.0156465 -0.146394
-0.0239313 -0.17468
-0.0225608 -0.161572
-0.028561 -0.184886
-0.0263191 -0.176045
0.0190691 -0.0468219
0.0176525 -0.0548633
0.0186782 -0.218103
0.0154931 -0.220488
-0.0105882 -0.215965
-0.00535906 -0.213558
-0.0163687 -0.220289
-0.0127817 -0.223251
-0.00933004 -0.0625619
-0.00236362 -0.0938243
-0.0262041 -0.218486
-0.0240989 -0.222108
0.00650717 -0.234094
0.00752351 -0.234779
-0.0046871 -0.190376
0.00168535 -0.198296
0.0125077 -0.12384
0.0180611 -0.142562
-0.0237249 -0.0273776
-0.0230641 -0.0339955
-0.0194907 -0.157088
-0.0115785 -0.13625
-0.00626278 -0.107241
-0.0107223 -0.115707
0.00772837 -0.211736
0.00116586 -0.21422
0.022751 -0.164403
0.0154657 -0.145664
-0.00173173 -0.234891
-0.000571865 -0.234077
-0.00164574 -0.238515
-0.00314987 -0.240674
-0.0144432 -0.137939
-0.0182113 -0.151536
-0.0127732 -0.216458
-0.00943322 -0.221439
0.0274797 -0.178534
0.0301015 -0.189693
-0.000529784 -0.234062
-0.00197564 -0.233151
-0.0262974 -0.203605
-0.0243547 -0.205968
-0.035225 -0.207307
-0.0311766 -0.212128
-0.012797 -0.0626435
-0.0148506 -0.0619485
0.00944041 -0.0138315
0.00580223 -0.00847329
0.00707823 -0.0527626
0.0114105 -0.038738
0.0124927 -0.237659
0.00823936 -0.241574
-0.00188806 -0.00595396
-0.00241121 -0.0135602
-0.0303655 -0.189167
-0.0268027 -0.176195
0.0112174 -0.104082
0.00612397 -0.0820624
0.012526 -0.0682073
0.0108394 -0.0746964
0.0228125 -0.224803
0.0293871 -0.213859
0.0236591 -0.22356
0.0267107 -0.218643
-0.0156802 -0.123721
-0.0194218 -0.143829
0.00257187 -0.0597573
-0.00348904 -0.0320015
0.0254028 -0.221018
0.0280162 -0.214976
-0.000241794 -0.225252
0.00128555 -0.221261
0.0073846 -0.169065
-0.00382505 -0.161066
0.018882 -0.144365
0.0151313 -0.127408
0.013388 -0.0292392
0.0103721 -0.0341479
0.00466115 -0.213974
0.00418563 -0.220563
0.00736609 -0.0666867
0.00265459 -0.071788
-0.0216861 -0.160938
-0.015577 -0.143134
-0.024465 -0.221433
-0.0255459 -0.217008
0.000611184 -0.237246
0.00138539 -0.237813
0.026256 -0.21443
0.0241585 -0.220943
0.0172233 -0.232565
0.0246508 -0.222053
0.000709507 -0.199413
-0.00343058 -0.207046
0.00649843 -0.00826442
0.0122148 -0.0191105
0.00639103 -0.0625965
0.00786903 -0.069399
-0.00284975 -0.00872815
-0.00636404 -0.0160263
-0.0201041 -0.230137
-0.0217162 -0.227682
0.00250389 -0.103843
0.00877707 -0.118831
-0.0368409 -0.199493
-0.0340557 -0.216302
0.00091081 -0.097447
0.00412451 -0.114383
0.000257231 -0.233596
-0.00310267 -0.233609
-0.00154728 -0.0973517
-0.00232597 -0.0981622
-0.0178986 -0.227454
-0.0145 -0.230067
0.0019054 -0.206183
-0.00357336 -0.211041
-0.0149092 -0.0435326
-0.0116521 -0.0423046
-0.0165202 -0.223225
-0.0127822 -0.226026
0.021657 -0.194713
0.0223891 -0.201961
0.0180614 -0.0482561
0.0165201 -0.0578642
-4.18102e-05 -0.228485
0.000558218 -0.228375
0.0126502 -0.110996
0.0171814 -0.131887
-0.00586579 -0.0346255
-0.00287571 -0.0345298
0.0150782 -0.229684
0.0130646 -0.229453
-0.018534 -0.0181208
-0.0102705 -0.00880335
0.00934218 -0.120761
0.0108275 -0.130052
-0.0159267 -0.234478
-0.0233703 -0.224221
-0.0191061 -0.152271
-0.0162614 -0.132108
-0.010622 -0.239431
-0.00890509 -0.239057
-0.0212783 -0.218326
-0.023693 -0.212371
-8.51394e-05 -0.228835
0.000212514 -0.228704
-0.00856763 -0.236228
-0.00868542 -0.23789
0.0141809 -0.117204
0.0179836 -0.136492
-0.0151254 -0.228415
-0.0151333 -0.230193
-0.0140316 -0.142817
-0.0086658 -0.128771
-0.0246477 -0.171247
-0.0251313 -0.17909
-0.00610905 -0.224076
-0.00898602 -0.219447
0.00533448 -0.208843
0.0116796 -0.211651
-0.000833942 -0.239724
-0.000843129 -0.237755
-0.000952144 -0.228311
-0.0016472 -0.228268
0.0263108 -0.218947
0.0279166 -0.213355
0.0104381 -0.225056
0.0134208 -0.221852
-0.0245303 -0.185036
-0.0248108 -0.175726
0.0204517 -0.135397
0.00342372 -0.134868
0.0210736 -0.196754
0.0208646 -0.20515
0.00366112 -0.224895
0.00416229 -0.220526
-0.0199489 -0.220584
-0.0165471 -0.224031
-0.0121742 -0.232531
-0.0138017 -0.230343
0.01263 -0.228723
0.015562 -0.22812
-0.0199611 -0.227766
-0.0189947 -0.227094
0.0108991 -0.232491
0.0107838 -0.233907
-0.0287824 -0.2096
-0.0268145 -0.217411
-0.000546445 -0.235229
-0.00113983 -0.235874
-0.00658129 -0.215558
-0.0024196 -0.219341
-0.0140176 -0.138836
-0.00749671 -0.122434
0.0242996 -0.18851
0.0309825 -0.174951
-0.0263468 -0.218705
-0.0288203 -0.211702
-0.0209739 -0.226617
-0.0177671 -0.230811
-0.0013281 -0.248344
-0.00616868 -0.244944
-0.0212513 -0.213809
-0.0217752 -0.208074
-0.00730981 -0.0960007
-0.00567172 -0.0998904
0.0250176 -0.193857
0.0239721 -0.184661
0.0255054 -0.173699
0.0272529 -0.186421
-0.00664255 -0.229782
-0.0106094 -0.228424
-0.0295184 -0.180885
-0.0227234 -0.165034
-0.0140031 -0.206005
-0.0102026 -0.214562
0.0126563 -0.227497
0.0115511 -0.226631
0.0238742 -0.223247
0.0231997 -0.224535
0.00221156 -0.0766872
0.00788643 -0.0663113
-0.0246029 -0.167967
-0.0246618 -0.184463
-0.00779909 -0.23814
-0.00787187 -0.236426
0.0110548 -0.215554
0.0147849 -0.210654
-0.0282006 -0.209869
-0.027237 -0.208728
-0.0158971 -0.22719
-0.0154716 -0.225562
-0.0192792 -0.0425132
-0.019157 -0.0493485
0.00378178 -0.188287
-0.00195468 -0.177747
-0.0122666 -0.225553
-0.015923 -0.222252
-0.0184631 -0.223227
-0.0148924 -0.22623
-0.00565417 -0.0109223
-0.00636054 -0.021074
-0.000965641 -0.139631
0.00284985 -0.164594
0.00373332 -0.167632
0.00803332 -0.148155
0.00227065 -0.0345137
-0.00285326 -0.060019
-0.00553573 -0.233741
-0.00264814 -0.234393
0.0203786 -0.178679
0.0194648 -0.191933
-0.00540157 -0.0809447
0.00155605 -0.061081
0.04308 -0.204884
0.0321838 -0.182986
-0.0014388 -0.227062
-0.000422245 -0.228622
-0.0186853 -0.0191335
-0.0160609 -0.0194085
-0.0141176 -0.0464994
-0.0111942 -0.0619023
-0.0128053 -0.059832
-0.012896 -0.06718
0.0112858 -0.160011
0.0129519 -0.138507
-0.00695169 -0.222488
-0.00359657 -0.226126
-0.00360797 -0.060672
-0.00651304 -0.095425
-0.00882159 -0.228174
-0.0122454 -0.22736
0.0239891 -0.166188
0.0241031 -0.171094
0.0389652 -0.196628
0.0311285 -0.182748
0.00232752 -0.108281
0.00939422 -0.127374
0.0196797 -0.22964
0.0166843 -0.232585
-0.00682725 -0.120855
-0.00202864 -0.104067
-0.00337193 -0.236029
-0.00558559 -0.235435
-0.00423538 -0.236443
-0.00275247 -0.236096
-0.0115171 -0.240204
-0.00704346 -0.244099
0.00282683 -0.0432186
-0.00245155 -0.0666667
-0.0245715 -0.216616
-0.0267704 -0.209931
0.0304008 -0.198364
0.0312473 -0.194902
-0.0275606 -0.216958
-0.0284796 -0.213239
-0.0110541 -0.21449
-0.0145757 -0.217792
0.00266603 -0.0535918
-0.00268317 -0.0198154
0.0248967 -0.214617
0.0224849 -0.220562
-0.0103929 -0.212694
-0.00618071 -0.20706
-0.00319768 -0.174725
-0.006157 -0.187989
-0.00723613 -0.00834279
-0.000515741 -0.000592427
-0.0127686 -0.231022
-0.0107208 -0.23071
0.0236597 -0.22384
0.0192059 -0.230939
-0.028607 -0.185547
-0.0263868 -0.176729
-0.00958003 -0.0777612
-0.00378235 -0.0936462
0.0229066 -0.166072
0.021403 -0.166893
0.0182002 -0.231552
0.0205415 -0.227566
0.0247773 -0.221882
0.0277942 -0.216733
-0.0195569 -0.230985
-0.0228176 -0.225697
-0.00475002 -0.0132251
-0.00114695 -0.00372634
-0.00232605 -0.22821
-0.00117802 -0.228585
0.00846182 -0.190103
0.00344437 -0.182643
0.00838393 -0.244538
0.0112864 -0.241051
-0.00771371 -0.221331
-0.00850404 -0.215916
-0.0230509 -0.225233
-0.0295412 -0.214883
0.00165796 -0.23789
0.0043654 -0.238682
0.00470059 -0.0932883
0.0107759 -0.108566
0.018314 -0.0334454
0.0180552 -0.0241281
-0.0299701 -0.213249
-0.0321915 -0.203124
0.0138015 -0.21288
0.0158335 -0.2137
0.017629 -0.159694
0.0199422 -0.17361
-0.00173754 -0.235089
-0.00414276 -0.235205
-0.0275321 -0.175349
-0.0208572 -0.160594
0.00338897 -0.0488179
0.0063451 -0.0831195
-0.000663108 -0.228043
-0.00326557 -0.226846
0.0163449 -0.142748
0.0209529 -0.155167
-0.0236576 -0.0294553
-0.0208603 -0.0276862
0.000324371 -0.0431766
-0.000704187 -0.0515617
-0.00543751 -0.240484
-0.00348008 -0.244138
0.0226137 -0.206623
0.0197484 -0.210404
0.0039974 -0.00376817
0.0114354 -0.0131116
0.000369094 -0.235782
0.000791347 -0.235095
-0.00676058 -0.218666
-0.00413823 -0.223493
0.0106545 -0.203327
0.0140377 -0.194569
-0.00359039 -0.236668
-0.00166293 -0.237153
-0.0228265 -0.0390836
-0.0242484 -0.0320112
0.00431037 -0.0381352
0.00448554 -0.0191372
0.00111949 -0.241459
0.00257515 -0.243652
-0.013452 -0.236436
-0.0126626 -0.238534
0.0256912 -0.220382
0.0242804 -0.223302
-0.0144094 -0.236699
-0.0160968 -0.235456
0.0370473 -0.196737
0.0279578 -0.171588
-0.00409695 -0.237444
-0.00433716 -0.239348
0.00816795 -0.0997581
0.0113137 -0.109727
-0.0182515 -0.150182
-0.0231837 -0.163845
0.0143077 -0.237074
0.00931402 -0.242604
0.020636 -0.150801
0.0158882 -0.133494
-0.0225412 -0.0277209
-0.0196158 -0.026038
0.00317016 -0.230871
8.03842e-06 -0.230505
-0.0116145 -0.136686
-0.0182783 -0.154012
0.0123444 -0.195524
0.0154754 -0.184728
0.00410537 -0.228754
0.0065864 -0.227461
-0.0252641 -0.207389
-0.0231202 -0.209448
-0.0128474 -0.228706
-0.0102251 -0.231107
0.0205814 -0.227827
0.017737 -0.230524
-0.00909821 -0.233564
-0.00833826 -0.232621
-0.00638524 -0.126515
-0.0184927 -0.151289
0.0182205 -0.146086
0.015051 -0.14501
-0.0182689 -0.228239
-0.0151224 -0.231349
0.0174146 -0.158632
0.0177999 -0.142409
0.00208428 -0.236467
0.00272432 -0.236903
0.0204761 -0.180509
0.0219478 -0.190117
-0.0050802 -0.00999177
-0.00134024 -0.00330269
-0.0189276 -0.141834
-0.021762 -0.159702
-0.0107879 -0.0356658
-0.00887824 -0.051905
-0.00296276 -0.197281
0.00359773 -0.201815
-0.00597559 -0.226641
-0.00240993 -0.228118
0.00978653 -0.17442
0.00929116 -0.155983
0.00926362 -0.104579
0.0067006 -0.0825806
-0.00116485 -0.228072
0.000597988 -0.228407
0.0186958 -0.186528
0.0147241 -0.182753
-0.0144325 -0.0127849
-0.0132349 -0.0132422
-0.00557922 -0.240265
-0.00599708 -0.237929
0.0122882 -0.224706
0.0161655 -0.221468
0.00266857 -0.230919
-0.000729279 -0.231944
-0.0114509 -0.232609
-0.00824807 -0.233268
0.000235094 -0.236634
-0.000657073 -0.236485
0.00496813 -0.133275
0.0123617 -0.131326
0.00827956 -0.232869
0.0110225 -0.23114
-0.00489185 -0.229779
-0.00161723 -0.230728
-0.00985103 -0.235894
-0.00810191 -0.238024
0.00517006 -0.227836
0.00714927 -0.226544
-0.00241452 -0.0271911
-0.00105986 -0.00460947
0.0015259 -0.235596
0.000973276 -0.234992
0.00234484 -0.234863
0.00494974 -0.234532
-0.017788 -0.146962
-0.0140064 -0.144336
-0.00383904 -0.22769
-0.00109451 -0.228316
0.00827564 -0.24466
0.0101894 -0.242256
-0.00340348 -0.228622
-0.00105622 -0.229373
0.0291114 -0.209721
0.0271757 -0.214991
-0.0200301 -0.0296344
-0.0219719 -0.0262616
0.0240956 -0.222929
0.0196305 -0.229102
0.0237727 -0.194604
0.0224529 -0.204272
0.0247273 -0.187765
0.0244981 -0.17562
-0.0173308 -0.141732
-0.0194571 -0.151461
0.0120547 -0.229568
0.0120483 -0.227905
0.00535182 -0.225069
0.00303074 -0.225901
0.00929162 -0.224895
0.00601484 -0.226588
-0.0129641 -0.199017
-0.00304587 -0.198624
0.0151504 -0.018296
0.0200687 -0.026345
0.0131535 -0.22257
0.0158048 -0.221401
-0.0129675 -0.225995
-0.00978662 -0.226895
-0.0198967 -0.220678
-0.0226276 -0.218007
-0.0118336 -0.0712657
-0.00770053 -0.0824242
-0.0265197 -0.216411
-0.0248329 -0.218569
0.00548992 -0.233057
0.00576028 -0.231688
0.00722737 -0.0146047
0.0110906 -0.0222231
0.0157596 -0.235166
0.00905187 -0.243651
-0.00768357 -0.241967
-0.00963013 -0.238719
-0.0144282 -0.118222
-0.0153372 -0.128878
2.60632e-05 -0.236723
0.000416973 -0.236814
-0.00138716 -0.0860681
-0.00294403 -0.0724555
-0.0230874 -0.163294
-0.0256761 -0.174886
-0.00293008 -0.237852
-0.00144981 -0.240109
0.00255686 -0.0659311
0.00805298 -0.0535708
-0.00633618 -0.00705061
-0.00722385 -0.00667662
-0.0158512 -0.140678
-0.00977728 -0.122314
-0.0006205 -0.00112227
-0.00039372 -0.000469397
0.0350463 -0.207482
0.0335076 -0.204306
-0.00375432 -0.0794526
0.00220528 -0.0987922
0.0234574 -0.186375
0.0179834 -0.197241
-0.0280527 -0.195436
-0.0280472 -0.204398
-0.00309404 -0.231693
-9.49711e-05 -0.230783
0.027334 -0.211748
0.0285683 -0.203501
-0.0290702 -0.189023
-0.0267631 -0.177975
0.00297244 -0.0955974
0.00539274 -0.0900377
-0.00320085 -0.223027
-0.00287631 -0.226545
0.00925247 -0.242191
0.00548432 -0.24472
0.000656126 -0.234569
-3.19971e-05 -0.233706
0.0230321 -0.22104
0.0199749 -0.22517
-0.00223 -0.228238
-0.000327203 -0.228498
0.00315766 -0.227842
0.00482593 -0.227128
-0.00759498 -0.233921
-0.00459039 -0.234647
0.0285315 -0.206097
0.027349 -0.213968
0.0208291 -0.227213
0.0175748 -0.231715
0.0137623 -0.0659511
0.013856 -0.0652967
-0.0167169 -0.0244432
-0.0193786 -0.0336559
0.0205261 -0.228751
0.0229561 -0.224152
-0.0184669 -0.229746
-0.0153035 -0.233253
0.0176486 -0.155163
0.0304759 -0.135814
-0.0282201 -0.197389
-0.0272654 -0.188379
-0.00452524 -0.0849613
0.00243114 -0.103167
-0.00142226 -0.227943
0.000461763 -0.228397
-0.00423257 -0.0439272
0.000283598 -0.0642607
-0.00938723 -0.0735006
-0.0119508 -0.0593228
0.0219832 -0.225633
0.0189258 -0.23051
-0.0133509 -0.230447
-0.0116116 -0.232591
-0.0255982 -0.17267
-0.0293027 -0.184728
0.0119089 -0.0595426
0.0174298 -0.0511955
-0.00654939 -0.101792
-0.000147811 -0.0865608
0.0217409 -0.226389
0.0247791 -0.220632
0.020856 -0.0315621
0.0202069 -0.0419882
0.00994422 -0.0756209
0.0146471 -0.0603973
0.0180029 -0.232725
0.0232393 -0.22501
0.0200695 -0.149018
0.030282 -0.178999
0.0222156 -0.158622
0.0199336 -0.148528
0.0244166 -0.204327
0.0219028 -0.211003
-0.0274073 -0.182477
-0.0275494 -0.19025
-0.000201939 -0.229829
0.000537128 -0.23082
0.0185992 -0.146503
0.0213867 -0.15763
0.0180035 -0.0290379
0.0180813 -0.040724
0.000433335 -0.236775
0.000995383 -0.236483
-0.0101847 -0.235128
-0.0133544 -0.233768
-0.0177658 -0.180936
-0.013487 -0.190888
-0.0170583 -0.134786
-0.01936 -0.154962
-0.00701915 -0.23678
-0.00582278 -0.238613
-0.00203071 -0.0873849
0.0022969 -0.0673901
-0.0103681 -0.0536666
-0.0128563 -0.0379838
0.00259216 -0.235822
0.00473522 -0.235406
-0.00345698 -0.0652798
-0.00655028 -0.0952874
-0.0255806 -0.221055
-0.0303865 -0.210863
-0.000650686 -0.229414
0.00359381 -0.228835
0.00296499 -0.100352
0.00799317 -0.109788
-0.00996988 -0.092822
-0.0160591 -0.13129
0.00542065 -0.0767683
0.00653968 -0.0849655
0.0185036 -0.221378
0.021565 -0.218703
0.0113751 -0.233679
0.0136866 -0.233466
0.0248091 -0.168887
0.0193903 -0.152505
-0.00229886 -0.224441
-0.00207438 -0.227434
0.0159156 -0.234909
0.0157556 -0.233942
-0.00506517 -0.236062
-0.00723506 -0.236412
-0.00904485 -0.218044
-0.0107887 -0.211121
0.00438531 -0.0126206
0.00397455 -0.0212759
-0.00599368 -0.233611
-0.0032791 -0.234426
0.0150121 -0.236623
0.0151859 -0.235902
-0.010164 -0.231335
-0.0104945 -0.229622
-0.0238119 -0.166045
-0.0270463 -0.179865
0.0152746 -0.23199
0.013208 -0.23482
-0.025169 -0.220209
-0.0230064 -0.223724
0.00167589 -0.231963
-0.000429552 -0.231019
-0.020631 -0.207741
-0.0227239 -0.207809
0.0193345 -0.224458
0.0161362 -0.226607
0.00172488 -0.227725
0.00224123 -0.226394
0.0275306 -0.176954
0.0208675 -0.159711
0.0182298 -0.232445
0.0176908 -0.233235
-0.0195245 -0.228987
-0.0197247 -0.227086
0.00530169 -0.0807533
-0.000529052 -0.0996795
-0.0173803 -0.232812
-0.0157016 -0.235575
-0.0246152 -0.0299117
-0.0232766 -0.0369395
0.00768454 -0.0878895
0.00308894 -0.0668674
0.0280484 -0.194919
0.0280712 -0.186748
-0.000529712 -0.228549
-0.00192632 -0.226973
0.00416419 -0.212604
0.0034696 -0.204864
-0.00164558 -0.0955684
-0.00788023 -0.0770557
0.0150576 -0.23346
0.0137153 -0.236134
-0.0113427 -0.106525
-0.00642438 -0.0820038
0.0059287 -0.237978
0.00903951 -0.236789
0.00187689 -0.227114
0.000246323 -0.228667
0.0153379 -0.22734
0.0181518 -0.226311
0.019372 -0.223005
0.0190956 -0.225711
0.0207502 -0.21928
0.0235614 -0.215907
-0.0030686 -0.168277
-0.000676817 -0.18432
-0.026425 -0.217799
-0.028652 -0.211667
0.016968 -0.130975
0.0176623 -0.145186
0.00691512 -0.242637
0.00849543 -0.239436
0.0270987 -0.183497
0.0278691 -0.183053
-0.00906678 -0.00953884
-0.000945553 -0.000932604
0.0172626 -0.0224556
0.0206281 -0.0233574
-0.0053999 -0.227221
-0.00249755 -0.228054
-0.00126362 -0.236632
-0.000259718 -0.236845
0.0161736 -0.0195904
0.0104552 -0.0123875
0.0257885 -0.193008
0.0260616 -0.182908
0.00768703 -0.220396
0.00325482 -0.219656
0.0205783 -0.042857
0.0189292 -0.0391472
0.000423769 -0.223516
-0.000286875 -0.22706
0.000618823 -0.235768
0.00159469 -0.23606
0.0125821 -0.226175
0.00875067 -0.227612
0.0267117 -0.178183
0.0245591 -0.168269
-0.0228489 -0.225214
-0.0254376 -0.219069
0.00682798 -0.103435
0.0127469 -0.121532
0.0252836 -0.137996
0.022958 -0.158508
-0.0191849 -0.218944
-0.0172199 -0.219096
-0.0257653 -0.173337
-0.027572 -0.179727
0.0308888 -0.201526
0.0315459 -0.204058
0.0342382 -0.190216
0.0358074 -0.207396
-0.0071932 -0.0739331
-0.00186477 -0.0922051
-0.0248758 -0.204552
-0.0242713 -0.198136
-0.022818 -0.162782
-0.0203213 -0.157689
0.0130729 -0.139382
0.0162565 -0.148447
0.013184 -0.118346
0.00713958 -0.101068
0.00233809 -0.236301
0.00340257 -0.236614
-0.0127475 -0.234442
-0.0131721 -0.232709
-0.00110678 -0.23848
-0.00237926 -0.240886
0.0111239 -0.233591
0.00858286 -0.233712
-0.00908963 -0.2302
-0.00558477 -0.230417
-0.0119064 -0.238976
-0.0108941 -0.238352
-0.00251296 -0.154839
-0.00752502 -0.125734
0.0028854 -0.0283148
0.00124226 -0.00688351
-0.00165548 -0.215747
-0.00381529 -0.220148
0.0236377 -0.197133
0.0254489 -0.199183
0.00907394 -0.230651
0.00804608 -0.232337
0.0213446 -0.0420308
0.0238647 -0.0360302
-0.023952 -0.168348
-0.0234331 -0.17192
-0.029536 -0.211177
-0.0261066 -0.220162
-0.00034737 -0.237322
-0.00164018 -0.23705
-0.0129382 -0.213611
-0.0136014 -0.205538
-0.0257529 -0.182424
-0.0246404 -0.171264
0.00378802 -0.236731
0.00255899 -0.236336
0.00725222 -0.0146217
0.00948884 -0.0294126
0.0212602 -0.158212
0.0162261 -0.142184
0.0196621 -0.229023
0.0273865 -0.218574
0.0176389 -0.233284
0.0132451 -0.23868
-0.00076257 -0.209534
0.00309554 -0.215486
0.0158867 -0.226339
0.0143697 -0.229073
0.00104119 -0.203502
0.000396268 -0.212267
-0.00127639 -0.213014
0.00475851 -0.209784
-0.0191253 -0.230594
-0.0183595 -0.232213
0.00535082 -0.227733
0.00361277 -0.227825
-0.00494236 -0.0950613
-0.0107058 -0.11036
0.00471946 -0.0968053
0.0092447 -0.115279
0.00175998 -0.235255
0.00272045 -0.235665
-0.0219571 -0.205203
-0.0193476 -0.20656
0.00671578 -0.234909
0.00598347 -0.235971
-0.00648719 -0.226151
-0.00550272 -0.227241
0.0308617 -0.202208
0.0297282 -0.203511
0.0179535 -0.137875
0.0128704 -0.121031
0.0177728 -0.0324823
0.0158127 -0.0452736
0.0233485 -0.222408
0.0232716 -0.220109
-0.025911 -0.214056
-0.0249301 -0.219247
0.00977286 -0.0079129
0.0154276 -0.0158105
-0.020263 -0.19059
-0.0212666 -0.176951
-0.0260542 -0.173847
-0.0220611 -0.15988
0.0162787 -0.210035
0.0181049 -0.20141
-0.012068 -0.174171
-0.00621577 -0.168584
0.0235962 -0.2005
0.0211405 -0.2017
0.0226375 -0.222709
0.0219921 -0.22123
-0.01769 -0.15063
-0.0205608 -0.141317
-0.018556 -0.154592
-0.0154632 -0.146587
0.00988068 -0.210431
0.0129863 -0.202013
-0.0119779 -0.237726
-0.0125192 -0.235662
-0.0146361 -0.205219
-0.0110475 -0.196642
-0.0124944 -0.239982
-0.00570075 -0.247988
0.0149769 -0.182116
0.00295661 -0.183768
-0.0219448 -0.166867
-0.0201089 -0.172615
-0.0188621 -0.22687
-0.0214084 -0.224911
-0.00750697 -0.212502
-0.00135108 -0.210594
0.00583961 -0.226745
0.00309453 -0.227736
0.0123287 -0.234524
0.0105334 -0.237101
0.0148965 -0.0339866
0.0131086 -0.0215263
0.00500948 -0.0848698
0.00309691 -0.0961282
-0.00925198 -0.224958
-0.0087232 -0.224201
0.0215144 -0.155639
0.0224061 -0.160534
0.0209206 -0.192438
0.020698 -0.20201
-0.0167768 -0.234781
-0.0216133 -0.227859
-0.00951869 -0.23676
-0.00768946 -0.239278
0.0259486 -0.219572
0.0253933 -0.219474
0.0231071 -0.169241
0.0207386 -0.152941
-0.00993559 -0.21194
-0.00658382 -0.205102
0.0317463 -0.191655
0.0273438 -0.177035
0.00967484 -0.123288
0.0170684 -0.0938106
-0.00674952 -0.246779
-0.00794173 -0.245184
-0.00376171 -0.236817
-0.0028152 -0.236289
0.0140514 -0.143277
0.0165791 -0.160608
0.0109249 -0.108426
0.0127054 -0.109957
-0.00751579 -0.245895
-0.00548937 -0.248066
0.016209 -0.234684
0.0126981 -0.237951
0.00377715 -0.229285
0.00243273 -0.23052
-0.00674476 -0.0822919
-0.00117934 -0.0611418
-0.0146081 -0.119597
-0.0169388 -0.130149
-0.0226134 -0.225466
-0.0244608 -0.220648
-0.0184575 -0.144411
-0.0171774 -0.143362
-0.0329003 -0.210321
-0.0234451 -0.225871
-0.0185711 -0.229316
-0.0197589 -0.226296
0.0125228 -0.183319
0.0142892 -0.16684
0.00424384 -0.24753
0.00299313 -0.246994
0.0319006 -0.196608
0.0308424 -0.198519
0.00807577 -0.228537
0.00442025 -0.229044
0.0278204 -0.216783
0.0308397 -0.208515
-0.00980691 -0.191085
-0.00390448 -0.18996
0.0136751 -0.207854
0.0202973 -0.197816
0.00196534 -0.0117639
0.000146995 -0.0422088
0.00115171 -0.23777
0.000981474 -0.240904
-0.0145401 -0.224919
-0.0153782 -0.226082
0.0161645 -0.148185
0.0232949 -0.16607
-0.0193577 -0.0489489
-0.0185803 -0.0507163
-0.0139626 -0.14178
-0.0135283 -0.137359
-0.00218365 -0.00247775
-0.000722287 -0.000667506
-0.0243325 -0.169048
-0.026139 -0.181354
-0.00150667 -0.228356
-0.000177238 -0.22907
-0.00154764 -0.222625
-0.0018543 -0.226297
-0.00907481 -0.211323
-0.00346906 -0.206858
-0.0223028 -0.0294905
-0.0239368 -0.026513
0.00927172 -0.066826
0.00737136 -0.0798509
0.00888005 -0.214073
0.00926612 -0.206249
-0.00113679 -0.220264
0.00133994 -0.224048
0.0274419 -0.176781
0.0248406 -0.169042
0.000876725 -0.22806
0.00119666 -0.225593
0.0142958 -0.0328283
0.0176273 -0.0324061
0.0141026 -0.0182027
0.00882904 -0.0114513
0.00166001 -0.00145407
0.00858522 -0.00722439
0.0332989 -0.191975
0.0318136 -0.191526
-0.00763762 -0.207319
-0.0111167 -0.210266
0.00106864 -0.0616346
-0.00414813 -0.0370752
-0.00272541 -0.249097
-0.00528264 -0.245199
-0.00670886 -0.0810067
-0.000962989 -0.0586874
0.0126291 -0.0696368
0.0106564 -0.0725286
-0.00441023 -0.216114
0.000111314 -0.216707
0.0311587 -0.196143
0.0305121 -0.203531
0.0076386 -0.24539
0.0133203 -0.238742
0.0151834 -0.123082
0.0192117 -0.143185
-0.0135824 -0.0587737
-0.0126097 -0.0505528
0.00371486 -0.244912
0.0080066 -0.240709
-0.0193325 -0.23011
-0.0190076 -0.231427
0.0159108 -0.132656
0.0134154 -0.138882
-0.0210207 -0.16086
-0.0184501 -0.153137
0.00600172 -0.0103422
0.010238 -0.0175586
-0.000783715 -0.235473
-0.00248621 -0.235806
-0.00134681 -0.0737421
-0.00549242 -0.0759611
-0.0175125 -0.200023
-0.0207982 -0.198469
-0.000178006 -0.221966
-0.00385721 -0.221268
0.00111633 -0.227312
0.00335476 -0.224709
0.00606754 -0.234392
0.00625167 -0.235239
0.0151389 -0.0512289
0.0184487 -0.0388197
0.0198827 -0.14769
0.0235239 -0.164039
0.013607 -0.115962
0.0101802 -0.103785
-0.0133383 -0.232396
-0.011582 -0.234475
-0.00726692 -0.223794
-0.00843019 -0.219582
-0.0271705 -0.178144
-0.0231722 -0.163887
-0.0171352 -0.23363
-0.0206553 -0.228593
0.00695419 -0.141489
-0.00157996 -0.15883
-0.00977877 -0.218516
-0.0119716 -0.21903
-0.00445851 -0.220685
-0.00794876 -0.216237
-0.00292022 -0.228084
-0.00678979 -0.22682
-0.000590035 -0.234589
0.00220233 -0.234416
0.00423924 -0.227906
0.00608267 -0.227947
0.0238408 -0.165602
0.0270398 -0.177821
0.00262521 -0.0177322
-0.00150494 -0.0333548
0.0157805 -0.0178331
0.020308 -0.0266493
0.00154813 -0.235372
0.00225781 -0.235825
0.0225744 -0.162598
0.0238674 -0.166019
-0.00310472 -0.112731
-0.0105109 -0.132788
-0.00439619 -0.223224
-0.00213581 -0.226655
-0.00557949 -0.229581
-0.0090458 -0.229285
-0.00920142 -0.0906866
-0.00303978 -0.0668349
-0.00358268 -0.0843847
0.00269159 -0.0972576
-0.00060783 -0.236958
-0.00154945 -0.236548
0.000541863 -0.228241
-6.1349e-05 -0.228709
-0.00354919 -0.235447
-0.00128676 -0.235649
0.000708348 -0.098308
0.00425 -0.0891684
0.0216903 -0.151977
0.0194373 -0.12331
0.0003189 -0.236693
0.000911003 -0.236634
0.00970905 -0.223716
0.00642362 -0.226477
0.00625485 -0.246137
0.0114684 -0.240785
-0.0398908 -0.202426
-0.0316637 -0.184019
-0.0125328 -0.139322
-0.00553835 -0.120063
0.00225484 -0.00464354
0.00455269 -0.00635322
-0.0214819 -0.226994
-0.0305204 -0.214888
0.0279922 -0.215045
0.0290179 -0.210533
0.00336987 -0.235591
0.00169545 -0.236106
0.0249808 -0.221519
0.0263803 -0.218939
-0.01909 -0.0474232
-0.0218267 -0.0368925
0.0179505 -0.198171
0.0141585 -0.202857
0.00190194 -0.248332
0.00619253 -0.24341
0.0214474 -0.159724
0.0255615 -0.171373
0.00490748 -0.115427
0.00393282 -0.115603
-5.6684e-05 -0.22907
-0.000314364 -0.228392
0.00401698 -0.230649
0.00782911 -0.229337
0.0173468 -0.2167
0.0137267 -0.220831
0.00401231 -0.223192
0.00709093 -0.218503
-0.0199834 -0.22986
-0.0243323 -0.223038
0.00483148 -0.214158
0.00920512 -0.2122
-0.0120453 -0.24057
-0.0173892 -0.23397
-0.00994806 -0.213246
-0.00998773 -0.218608
0.0219508 -0.0422981
0.0199014 -0.0438807
0.0105082 -0.226191
0.0144811 -0.223631
-0.00268202 -0.236094
-0.00457369 -0.236267
-0.0174803 -0.151874
-0.0221459 -0.163215
-0.0235551 -0.0314027
-0.0208662 -0.0293162
0.00394109 -0.0386341
0.00712488 -0.0342164
0.0175811 -0.207138
0.0160742 -0.213904
0.00299999 -0.224003
0.00630864 -0.219962
0.0295143 -0.186586
0.0309776 -0.19824
0.0116041 -0.226577
0.00785599 -0.22777
0.00833205 -0.125218
0.013103 -0.139853
0.00637429 -0.0803289
0.00455737 -0.0723352
0.0143676 -0.142761
0.00646953 -0.120824
0.000280275 -0.235548
0.0015141 -0.234843
0.0092231 -0.119652
0.017538 -0.129452
0.00649769 -0.241332
0.00404689 -0.245238
0.00226221 -0.109024
-0.00459766 -0.0910464
0.0118179 -0.136
0.00679288 -0.123554
-0.00632101 -0.115589
-0.00311756 -0.100806
0.0187781 -0.0473355
0.0187429 -0.0520086
-0.0205966 -0.22923
-0.0148675 -0.236666
-0.0105204 -0.0105415
-0.0136435 -0.01216
0.0238544 -0.166873
0.0180428 -0.147283
-0.0128522 -0.0234355
-0.0162535 -0.031811
0.00904973 -0.0571341
0.00968112 -0.0431604
-0.00137908 -0.228291
0.00012303 -0.228341
0.00462449 -0.0625395
-0.0144297 -0.0693978
0.011538 -0.240766
0.0106957 -0.241398
-0.0218886 -0.0368856
-0.0240282 -0.0345145
-0.0294889 -0.203084
-0.0281853 -0.211587
-0.00227595 -0.228096
0.000770912 -0.228273
0.016764 -0.0207302
0.0211273 -0.0252249
0.00325404 -0.00359532
0.00514155 -0.00696806
-0.00784022 -0.229126
-0.0113462 -0.228454
-0.00809069 -0.00725943
-0.0160696 -0.0155361
0.00817383 -0.244746
0.00995733 -0.242373
0.0271698 -0.217094
0.0235155 -0.224615
-0.0150617 -0.233964
-0.015373 -0.232169
0.0045596 -0.234524
0.00471704 -0.233529
-0.00889018 -0.235256
-0.00627984 -0.23634
0.011152 -0.222961
0.0118904 -0.220251
0.00205355 -0.228044
0.00309561 -0.227649
0.0141631 -0.0195488
0.0159485 -0.0296225
-0.00224479 -0.0519814
-0.00627442 -0.0321286
0.0248737 -0.218668
0.0243598 -0.216588
0.000400573 -0.236375
0.000138745 -0.236758
-0.00207261 -0.228241
0.0008559 -0.228415
-0.000828199 -0.196216
0.00621248 -0.193653
0.0157462 -0.0351242
0.0147888 -0.0488561
-0.00162041 -0.236814
-0.00214947 -0.236265
0.00949316 -0.124088
0.0122102 -0.126869
-0.00760968 -0.0441125
-0.00825772 -0.0276611
0.0253533 -0.221064
0.0256687 -0.22034
-0.0169167 -0.229415
-0.0136446 -0.231922
0.000953357 -0.107347
0.0082108 -0.127052
0.0138975 -0.0625461
0.0254967 -0.108212
-0.0161789 -0.223601
-0.0128447 -0.225343
-0.0275356 -0.206938
-0.0256286 -0.212501
0.00631764 -0.227238
0.00489653 -0.227299
-0.00510155 -0.0789774
-0.00350831 -0.115247
0.00271958 -0.227841
-0.000215789 -0.228363
0.00851796 -0.0741932
0.013515 -0.0582212
0.0339745 -0.154025
0.0222023 -0.12442
-0.00199103 -0.236951
-0.00416968 -0.236618
0.00958288 -0.177027
0.014483 -0.189406
0.0202177 -0.14966
0.020805 -0.151942
-0.0122823 -0.239336
-0.0156396 -0.234819
-0.000638779 -0.227986
0.000498129 -0.228555
0.00889876 -0.189596
0.0126207 -0.200328
-0.00336792 -0.22745
-0.00177416 -0.227885
-0.00427001 -0.0881456
-0.00536827 -0.089214
-0.00311006 -0.222201
0.000331511 -0.22332
-0.00998911 -0.224975
-0.0137948 -0.221886
-0.0172742 -0.219078
-0.0136403 -0.222796
0.0280784 -0.205567
0.0287907 -0.19651
0.000650242 -0.216523
0.00278484 -0.208568
-0.00385338 -0.0175395
-0.00132082 -0.0216923
0.0120099 -0.225651
0.0158155 -0.223253
-0.0105941 -0.0729941
-0.0043648 -0.0892492
0.00973335 -0.103323
0.011697 -0.104609
-0.0130944 -0.237624
-0.0100645 -0.239346
0.00403117 -0.235395
0.0023941 -0.236027
-0.0237254 -0.179151
-0.0226076 -0.165069
0.0110371 -0.0244628
0.0143511 -0.0309305
5.37744e-05 -0.228295
0.00302331 -0.228066
-0.00714669 -0.234424
-0.00573119 -0.235486
-0.0269145 -0.176514
-0.0309705 -0.190635
-0.00429 -0.212792
-0.0012662 -0.218743
-0.00281481 -0.236371
-0.00513751 -0.23614
-0.00300564 -0.236367
-0.00537765 -0.236055
0.0204153 -0.150603
0.0170792 -0.131171
0.0281984 -0.177016
0.0359408 -0.192868
-0.00434447 -0.227399
-0.00197363 -0.22822
0.0083871 -0.241863
0.00692795 -0.241199
0.00747407 -0.0928713
0.0128268 -0.113909
-0.00897602 -0.23696
-0.0116369 -0.236646
0.0247797 -0.214032
0.0260691 -0.214172
0.0254385 -0.19583
0.0256727 -0.203899
-0.0284765 -0.204915
-0.027459 -0.212912
0.0128307 -0.209858
0.010547 -0.216959
0.00075162 -0.236732
0.00156925 -0.236515
-0.0174897 -0.165512
-0.0207787 -0.17185
0.0246477 -0.0315243
0.0224124 -0.0301067
0.0174675 -0.0510837
0.0150528 -0.0619424
-0.00626894 -0.217924
-0.00997337 -0.216561
-0.00764552 -0.22579
-0.0104334 -0.224546
-0.00289358 -0.235785
-0.00508316 -0.235841
-0.0144093 -0.0162593
-0.0123357 -0.0166432
-0.00800971 -0.12316
-0.00450839 -0.117164
0.0324472 -0.200958
0.0300481 -0.212061
-0.016816 -0.231446
-0.0174289 -0.229239
-0.0242959 -0.208264
-0.0262067 -0.201678
-0.0168798 -0.222495
-0.0200404 -0.217784
-0.00973273 -0.225429
-0.0118267 -0.222646
0.0211958 -0.227481
0.0197771 -0.228951
-0.00884504 -0.231536
-0.0125217 -0.230031
0.0198782 -0.179377
0.013035 -0.16262
-0.00558196 -0.0436312
-0.00461947 -0.0319404
-0.00762386 -0.106976
-0.0164094 -0.123036
0.0016336 -0.100591
-0.0027745 -0.111567
0.00927356 -0.0689137
0.00358498 -0.0868657
-0.0222474 -0.159617
-0.0182074 -0.142983
-0.0262095 -0.189057
-0.0267969 -0.198316
0.0288911 -0.195731
0.029628 -0.200375
-0.00980272 -0.227632
-0.00909553 -0.229258
-0.00552477 -0.237171
-0.00296183 -0.237103
-0.022179 -0.200905
-0.0228215 -0.190705
-0.0285311 -0.216192
-0.0309241 -0.208706
-0.00021549 -0.229132
8.86683e-05 -0.228925
0.0294057 -0.201157
0.0303071 -0.202377
0.000489939 -0.229701
0.000124194 -0.22899
-0.0140543 -0.135911
-0.0117305 -0.111663
-0.0299483 -0.211466
-0.0276284 -0.216804
-0.0186536 -0.23195
-0.0241727 -0.223592
-0.00307218 -0.0546486
0.00594566 -0.0781576
0.00258066 -0.0880132
-0.00304148 -0.0674454
-0.0224717 -0.22636
-0.0264254 -0.219661
0.00593763 -0.247226
0.00933198 -0.243394
-2.47805e-05 -0.10104
-0.00262513 -0.0647657
-0.0153873 -0.146624
-0.0149858 -0.145431
-0.0298065 -0.215664
-0.0338791 -0.203552
-0.0108867 -0.17997
-0.00623165 -0.191539
-0.0121383 -0.0146801
-0.0173875 -0.020409
0.0125484 -0.0372657
0.0120221 -0.0232771
-0.0117979 -0.239324
-0.015096 -0.236451
0.0222127 -0.200383
0.0236648 -0.20417
0.0133047 -0.132965
0.0194292 -0.151301
-0.00177411 -0.228308
-0.00315098 -0.227958
-0.0298192 -0.186185
-0.0288764 -0.185127
0.0206295 -0.226635
0.0210708 -0.227508
0.00962178 -0.233048
0.00757884 -0.232677
-0.0153936 -0.0372238
-0.0154197 -0.0252166
0.00146442 -0.227344
0.00322198 -0.22383
0.00339354 -0.239009
0.00532507 -0.240466
-0.00275973 -0.236869
-0.00485202 -0.236299
-0.00015307 -0.229053
-0.00135561 -0.228535
-0.0129478 -0.171794
-0.0162129 -0.181816
-0.00221707 -0.228008
-0.0013661 -0.22702
0.00201631 -0.00288014
0.00794792 -0.0156211
-0.0335709 -0.183841
-0.0214841 -0.15483
0.0286369 -0.205464
0.0278193 -0.203186
-0.00651556 -0.217111
-0.00594872 -0.222468
0.00429338 -0.229927
0.00835942 -0.228892
0.0085373 -0.226385
0.0124822 -0.223778
-0.00930688 -0.233495
-0.00770864 -0.232891
-0.000716812 -0.0530017
-0.00053775 -0.0599334
-0.0187565 -0.183437
-0.00851595 -0.172834
-0.00436273 -0.242577
-0.00885491 -0.243468
-0.00885491 -0.243468
-0.0135813 -0.24463
-0.0135813 -0.24463
-0.0184343 -0.246154
-0.0184343 -0.246154
-0.0233182 -0.248092
-0.0233182 -0.248092
-0.0281606 -0.250424
-0.0281606 -0.250424
-0.0328734 -0.253149
-0.0328734 -0.253149
-0.0373861 -0.256241
-0.0373861 -0.256241
-0.0416356 -0.259667
-0.0416356 -0.259667
-0.0455638 -0.263384
-0.0455638 -0.263384
-0.0491312 -0.267342
-0.0491312 -0.267342
-0.0523014 -0.271484
-0.0523014 -0.271484
-0.0550532 -0.275754
-0.0550532 -0.275754
-0.0573775 -0.280093
-0.0573775 -0.280093
-0.0592608 -0.284435
-0.0592608 -0.284435
-0.0607207 -0.288743
-0.0607207 -0.288743
-0.0617703 -0.29295
-0.0617703 -0.29295
-0.0624275 -0.297013
-0.0624275 -0.297013
-0.0627252 -0.300905
-0.0627252 -0.300905
-0.0626902 -0.304575
-0.0626902 -0.304575
-0.0623644 -0.308007
-0.0623644 -0.308007
-0.0617748 -0.31119
-0.0617748 -0.31119
-0.0609576 -0.3141
-0.0609576 -0.3141
-0.0599547 -0.316737
-0.0599547 -0.316737
-0.0587869 -0.319106
-0.0587869 -0.319106
-0.0574751 -0.321221
-0.0574751 -0.321221
-0.0560471 -0.32307
-0.0560471 -0.32307
-0.0545248 -0.324672
-0.0545248 -0.324672
-0.0528954 -0.326064
-0.0528954 -0.326064
-0.0511566 -0.327233
-0.0511566 -0.327233
-0.0493337 -0.328187
-0.0493337 -0.328187
-0.047396 -0.328906
-0.047396 -0.328906
-0.0453057 -0.329443
-0.0453057 -0.329443
-0.0430653 -0.329777
-0.0430653 -0.329777
-0.0406641 -0.329824
-0.0406641 -0.329824
-0.0380221 -0.329602
-0.0380221 -0.329602
-0.0351406 -0.329128
-0.0351406 -0.329128
-0.032003 -0.328281
-0.032003 -0.328281
-0.028567 -0.326904
-0.028567 -0.326904
-0.0248098 -0.325037
-0.0248098 -0.325037
-0.0207441 -0.322585
-0.0207441 -0.322585
-0.0163423 -0.319266
-0.0163423 -0.319266
-0.0116467 -0.314978
-0.0116467 -0.314978
-0.00668615 -0.309533
-0.00668615 -0.309533
-0.00140708 -0.30253
-0.00140708 -0.30253
0.00393415 -0.2935
0.00393415 -0.2935
0.00942393 -0.281956
0.00942393 -0.281956
0.0149798 -0.266211
0.0149798 -0.266211
0.0207882 -0.245705
0.0207882 -0.245705
0.0288259 -0.223572
0.0288259 -0.223572
0.0335786 -0.212834
0.0335786 -0.212834
0.0339069 -0.208998
0.0339069 -0.208998
0.0329915 -0.207548
0.0329915 -0.207548
0.03203 -0.207499
0.03203 -0.207499
0.031022 -0.208447
0.031022 -0.208447
0.0301801 -0.210068
0.0301801 -0.210068
0.0292097 -0.212298
0.0292097 -0.212298
0.0279507 -0.214997
0.0279507 -0.214997
0.0266581 -0.218073
0.0266581 -0.218073
0.0252365 -0.221225
0.0252365 -0.221225
0.0235787 -0.224238
0.0235787 -0.224238
0.0216797 -0.22703
0.0216797 -0.22703
0.0196802 -0.229619
0.0196802 -0.229619
0.017614 -0.231927
0.017614 -0.231927
0.0154719 -0.233934
0.0154719 -0.233934
0.0133096 -0.235664
0.0133096 -0.235664
0.0111474 -0.237129
0.0111474 -0.237129
0.00899049 -0.238337
0.00899049 -0.238337
0.00680728 -0.23934
0.00680728 -0.23934
0.0045724 -0.240175
0.0045724 -0.240175
0.00221958 -0.240923
0.00221958 -0.240923
-0.000595232 -0.2417
-0.000595232 -0.2417
-0.00436273 -0.242577
0.0352122 -0.329416
0.0380853 -0.329887
0.0380853 -0.329887
0.0407244 -0.330098
0.0407244 -0.330098
0.0431232 -0.330056
0.0431232 -0.330056
0.0453544 -0.329736
0.0453544 -0.329736
0.0474366 -0.329203
0.0474366 -0.329203
0.0493701 -0.328492
0.0493701 -0.328492
0.0511814 -0.327546
0.0511814 -0.327546
0.0529123 -0.32639
0.0529123 -0.32639
0.0545364 -0.325003
0.0545364 -0.325003
0.0560533 -0.323405
0.0560533 -0.323405
0.0574748 -0.321565
0.0574748 -0.321565
0.0587801 -0.319457
0.0587801 -0.319457
0.0599449 -0.317094
0.0599449 -0.317094
0.0609437 -0.314469
0.0609437 -0.314469
0.061757 -0.311576
0.061757 -0.311576
0.0623442 -0.30839
0.0623442 -0.30839
0.0626722 -0.304974
0.0626722 -0.304974
0.0627062 -0.301333
0.0627062 -0.301333
0.0624158 -0.297451
0.0624158 -0.297451
0.0617554 -0.293388
0.0617554 -0.293388
0.0607102 -0.289193
0.0607102 -0.289193
0.0592572 -0.284903
0.0592572 -0.284903
0.0573734 -0.280567
0.0573734 -0.280567
0.0550592 -0.276238
0.0550592 -0.276238
0.0523181 -0.271986
0.0523181 -0.271986
0.049152 -0.267851
0.049152 -0.267851
0.0455981 -0.263907
0.0455981 -0.263907
0.0416791 -0.260201
0.0416791 -0.260201
0.0374435 -0.256783
0.0374435 -0.256783
0.0329463 -0.253698
0.0329463 -0.253698
0.0282493 -0.250976
0.0282493 -0.250976
0.023433 -0.248652
0.023433 -0.248652
0.0185595 -0.246725
0.0185595 -0.246725
0.0137419 -0.2452
0.0137419 -0.2452
0.00904101 -0.244034
0.00904101 -0.244034
0.00461316 -0.243135
0.00461316 -0.243135
0.000858624 -0.242276
0.000858624 -0.242276
-0.00194199 -0.241494
-0.00194199 -0.241494
-0.0043245 -0.240751
-0.0043245 -0.240751
-0.00658388 -0.239919
-0.00658388 -0.239919
-0.008797 -0.238928
-0.008797 -0.238928
-0.0109908 -0.237716
-0.0109908 -0.237716
-0.0131893 -0.236235
-0.0131893 -0.236235
-0.015365 -0.234476
-0.015365 -0.234476
-0.0175195 -0.232431
-0.0175195 -0.232431
-0.0195981 -0.230085
-0.0195981 -0.230085
-0.0215575 -0.22743
-0.0215575 -0.22743
-0.0233792 -0.224518
-0.0233792 -0.224518
-0.0250824 -0.22149
-0.0250824 -0.22149
-0.0265744 -0.218593
-0.0265744 -0.218593
-0.027846 -0.215796
-0.027846 -0.215796
-0.0289253 -0.213215
-0.0289253 -0.213215
-0.0299232 -0.210912
-0.0299232 -0.210912
-0.0309496 -0.20912
-0.0309496 -0.20912
-0.0318413 -0.208092
-0.0318413 -0.208092
-0.0327339 -0.208008
-0.0327339 -0.208008
-0.0333837 -0.209488
-0.0333837 -0.209488
-0.0330417 -0.213214
-0.0330417 -0.213214
-0.0290586 -0.223643
-0.0290586 -0.223643
-0.0204251 -0.24588
-0.0204251 -0.24588
-0.0144501 -0.265901
-0.0144501 -0.265901
-0.00924393 -0.281893
-0.00924393 -0.281893
-0.00383128 -0.293863
-0.00383128 -0.293863
0.00161374 -0.30278
0.00161374 -0.30278
0.00678143 -0.309843
0.00678143 -0.309843
0.0117739 -0.31521
0.0117739 -0.31521
0.0165041 -0.319479
0.0165041 -0.319479
0.02088 -0.322854
0.02088 -0.322854
0.0249174 -0.325333
0.0249174 -0.325333
0.0286675 -0.327155
0.0286675 -0.327155
0.0321029 -0.328519
0.0321029 -0.328519
0.0352122 -0.329416
      </DataArray> 
      <DataArray type="Float64" NumberOfComponents="2" Name="Velocity" format="ascii">
0 0
0 0
0 0
0 0
0 0
0 0
0 0
0 0
0 0
0 0
0 0
0 0
0 0
0 0
0 0
0 0
0 0
0 0
0 0
0 0
0 0
0 0
0 0
0 0
0 0
0 0
0 0
0 0
0 0
0 0
0 0
0 0
0 0
0 0
0 0
0 0
0 0
0 0
0 0
0 0
0 0
0 0
0 0
0 0
0 0
0 0
0 0
0 0
0 0
0 0
0 0
0 0
0 0
0 0
0 0
0 0
0 0
0 0
0 0
0 0
0 0
0 0
0 0
0 0
0 0
0 0
0 0
0 0
0 0
0 0
0 0
0 0
0 0
0 0
0 0
0 0
0 0
0 0
0 0
0 0
0 0
0 0
0 0
0 0
0 0
0 0
0 0
0 0
0 0
0 0
0 0
0 0
0 0
0 0
0 0
0 0
0 0
0 0
0 0
0 0
0 0
0 0
0 0
0 0
0 0
0 0
0 0
0 0
0 0
0 0
0 0
0 0
0 0
0 0
0 0
0 0
0 0
0 0
0 0
0 0
0 0
0 0
0 0
0 0
0 0
0 0
0 0
0 0
0 0
0 0
0 0
0 0
0 0
0 0
0 0
0 0
0 0
0 0
0 0
0 0
0 0
0 0
0 0
0 0
0 0
0 0
0 0
0 0
0 0
0 0
0 0
0 0
0 0
0 0
0 0
0 0
0 0
0 0
0 0
0 0
0 0
0 0
0 0
0 0
0 0
0 0
0 0
0 0
0 0
0 0
0 0
0 0
0 0
0 0
0 0
0 0
0 0
0 0
0 0
0 0
0 0
0 0
0 0
0 0
0 0
0 0
0 0
0 0
0 0
0 0
0 0
0 0
0 0
0 0
0 0
0 0
0 0
0 0
0 0
0 0
0 0
0 0
0 0
0 0
0 0
0 0
0 0
0 0
0 0
0 0
0 0
0 0
0 0
0 0
0 0
0 0
0 0
0 0
0 0
0 0
0 0
0 0
0 0
0 0
0 0
0 0
0 0
0 0
0 0
0 0
0 0
0 0
0 0
0 0
0 0
0 0
0 0
0 0
0 0
0 0
0 0
0 0
0 0
0 0
0 0
0 0
0 0
0 0
0 0
0 0
0 0
0 0
0 0
0 0
0 0
0 0
0 0
0 0
0 0
0 0
0 0
0 0
0 0
0 0
0 0
0 0
0 0
0 0
0 0
0 0
0 0
0 0
0 0
0 0
0 0
0 0
0 0
0 0
0 0
0 0
0 0
0 0
0 0
0 0
0 0
0 0
0 0
0 0
0 0
0 0
0 0
0 0
0 0
0 0
0 0
0 0
0 0
0 0
0 0
0 0
0 0
0 0
0 0
0 0
0 0
0 0
0 0
0 0
0 0
0 0
0 0
0 0
0 0
0 0
0 0
0 0
0 0
0 0
0 0
0 0
0 0
0 0
0 0
0 0
0 0
0 0
0 0
0 0
0 0
0 0
0 0
0 0
0 0
0 0
0 0
0 0
0 0
0 0
0 0
0 0
0 0
0 0
0 0
0 0
0 0
0 0
0 0
0 0
0 0
0 0
0 0
0 0
0 0
0 0
0 0
0 0
0 0
0 0
0 0
0 0
0 0
0 0
0 0
0 0
0 0
0 0
0 0
0 0
0 0
0 0
0 0
0 0
0 0
0 0
0 0
0 0
0 0
0 0
0 0
0 0
0 0
0 0
0 0
0 0
0 0
0 0
0 0
0 0
0 0
0 0
0 0
0 0
0 0
0 0
0 0
0 0
0 0
0 0
0 0
0 0
0 0
0 0
0 0
0 0
0 0
0 0
0 0
0 0
0 0
0 0
0 0
0 0
0 0
0 0
0 0
0 0
0 0
0 0
0 0
0 0
0 0
0 0
0 0
0 0
0 0
0 0
0 0
0 0
0 0
0 0
0 0
0 0
0 0
0 0
0 0
0 0
0 0
0 0
0 0
0 0
0 0
0 0
0 0
0 0
0 0
0 0
0 0
0 0
0 0
0 0
0 0
0 0
0 0
0 0
0 0
0 0
0 0
0 0
0 0
0 0
0 0
0 0
0 0
0 0
0 0
0 0
0 0
0 0
0 0
0 0
0 0
0 0
0 0
0 0
0 0
0 0
0 0
0 0
0 0
0 0
0 0
0 0
0 0
0 0
0 0
0 0
0 0
0 0
0 0
0 0
0 0
0 0
0 0
0 0
0 0
0 0
0 0
0 0
0 0
0 0
0 0
0 0
0 0
0 0
0 0
0 0
0 0
0 0
0 0
0 0
0 0
0 0
0 0
0 0
0 0
0 0
0 0
0 0
0 0
0 0
0 0
0 0
0 0
0 0
0 0
0 0
0 0
0 0
0 0
0 0
0 0
0 0
0 0
0 0
0 0
0 0
0 0
0 0
0 0
0 0
0 0
0 0
0 0
0 0
0 0
0 0
0 0
0 0
0 0
0 0
0 0
0 0
0 0
0 0
0 0
0 0
0 0
0 0
0 0
0 0
0 0
0 0
0 0
0 0
0 0
0 0
0 0
0 0
0 0
0 0
0 0
0 0
0 0
0 0
0 0
0 0
0 0
0 0
0 0
0 0
0 0
0 0
0 0
0 0
0 0
0 0
0 0
0 0
0 0
0 0
0 0
0 0
0 0
0 0
0 0
0 0
0 0
0 0
0 0
0 0
0 0
0 0
0 0
0 0
0 0
0 0
0 0
0 0
0 0
0 0
0 0
0 0
0 0
0 0
0 0
0 0
0 0
0 0
0 0
0 0
0 0
0 0
0 0
0 0
0 0
0 0
0 0
0 0
0 0
0 0
0 0
0 0
0 0
0 0
0 0
0 0
0 0
0 0
0 0
0 0
0 0
0 0
0 0
0 0
0 0
0 0
0 0
0 0
0 0
0 0
0 0
0 0
0 0
0 0
0 0
0 0
0 0
0 0
0 0
0 0
0 0
0 0
0 0
0 0
0 0
0 0
0 0
0 0
0 0
0 0
0 0
0 0
0 0
0 0
0 0
0 0
0 0
0 0
0 0
0 0
0 0
0 0
0 0
0 0
0 0
0 0
0 0
0 0
0 0
0 0
0 0
0 0
0 0
0 0
0 0
0 0
0 0
0 0
0 0
0 0
0 0
0 0
0 0
0 0
0 0
0 0
0 0
0 0
0 0
0 0
0 0
0 0
0 0
0 0
0 0
0 0
0 0
0 0
0 0
0 0
0 0
0 0
0 0
0 0
0 0
0 0
0 0
0 0
0 0
0 0
0 0
0 0
0 0
0 0
0 0
0 0
0 0
0 0
0 0
0 0
0 0
0 0
0 0
0 0
0 0
0 0
0 0
0 0
0 0
0 0
0 0
0 0
0 0
0 0
0 0
0 0
0 0
0 0
0 0
0 0
0 0
0 0
0 0
0 0
0 0
0 0
0 0
0 0
0 0
0 0
0 0
0 0
0 0
0 0
0 0
0 0
0 0
0 0
0 0
0 0
0 0
0 0
0 0
0 0
0 0
0 0
0 0
0 0
0 0
0 0
0 0
0 0
0 0
0 0
0 0
0 0
0 0
0 0
0 0
0 0
0 0
0 0
0 0
0 0
0 0
0 0
0 0
0 0
0 0
0 0
0 0
0 0
0 0
0 0
0 0
0 0
0 0
0 0
0 0
0 0
0 0
0 0
0 0
0 0
0 0
0 0
0 0
0 0
0 0
0 0
0 0
0 0
0 0
0 0
0 0
0 0
0 0
0 0
0 0
0 0
0 0
0 0
0 0
0 0
0 0
0 0
0 0
0 0
0 0
0 0
0 0
0 0
0 0
0 0
0 0
0 0
0 0
0 0
0 0
0 0
0 0
0 0
0 0
0 0
0 0
0 0
0 0
0 0
0 0
0 0
0 0
0 0
0 0
0 0
0 0
0 0
0 0
0 0
0 0
0 0
0 0
0 0
0 0
0 0
0 0
0 0
0 0
0 0
0 0
0 0
0 0
0 0
0 0
0 0
0 0
0 0
0 0
0 0
0 0
0 0
0 0
0 0
0 0
0 0
0 0
0 0
0 0
0 0
0 0
0 0
0 0
0 0
0 0
0 0
0 0
0 0
0 0
0 0
0 0
0 0
0 0
0 0
0 0
0 0
0 0
0 0
0 0
0 0
0 0
0 0
0 0
0 0
0 0
0 0
0 0
0 0
0 0
0 0
0 0
0 0
0 0
0 0
0 0
0 0
0 0
0 0
0 0
0 0
0 0
0 0
0 0
0 0
0 0
0 0
0 0
0 0
0 0
0 0
0 0
0 0
0 0
0 0
0 0
0 0
0 0
0 0
0 0
0 0
0 0
0 0
0 0
0 0
0 0
0 0
0 0
0 0
0 0
0 0
0 0
0 0
0 0
0 0
0 0
0 0
0 0
0 0
0 0
0 0
0 0
0 0
0 0
0 0
0 0
0 0
0 0
0 0
0 0
0 0
0 0
0 0
0 0
0 0
0 0
0 0
0 0
0 0
0 0
0 0
0 0
0 0
0 0
0 0
0 0
0 0
0 0
0 0
0 0
0 0
0 0
0 0
0 0
0 0
0 0
0 0
0 0
0 0
0 0
0 0
0 0
0 0
0 0
0 0
0 0
0 0
0 0
0 0
0 0
0 0
0 0
0 0
0 0
0 0
0 0
0 0
0 0
0 0
0 0
0 0
0 0
0 0
0 0
0 0
0 0
0 0
0 0
0 0
0 0
0 0
0 0
0 0
0 0
0 0
0 0
0 0
0 0
0 0
0 0
0 0
0 0
0 0
0 0
0 0
0 0
0 0
0 0
0 0
0 0
0 0
0 0
0 0
0 0
0 0
0 0
0 0
0 0
0 0
0 0
0 0
0 0
0 0
0 0
0 0
0 0
0 0
0 0
0 0
0 0
0 0
0 0
0 0
0 0
0 0
0 0
0 0
0 0
0 0
0 0
0 0
0 0
0 0
0 0
0 0
0 0
0 0
0 0
0 0
0 0
0 0
0 0
0 0
0 0
0 0
0 0
0 0
0 0
0 0
0 0
0 0
0 0
0 0
0 0
0 0
0 0
0 0
0 0
0 0
0 0
0 0
0 0
0 0
0 0
0 0
0 0
0 0
0 0
0 0
0 0
0 0
0 0
0 0
0 0
0 0
0 0
0 0
0 0
0 0
0 0
0 0
0 0
0 0
0 0
0 0
0 0
0 0
0 0
0 0
0 0
0 0
0 0
0 0
0 0
0 0
0 0
0 0
0 0
0 0
0 0
0 0
0 0
0 0
0 0
0 0
0 0
0 0
0 0
0 0
0 0
0 0
0 0
0 0
0 0
0 0
0 0
0 0
0 0
0 0
0 0
0 0
0 0
0 0
0 0
0 0
0 0
0 0
0 0
0 0
0 0
0 0
0 0
0 0
0 0
0 0
0 0
0 0
0 0
0 0
0 0
0 0
0 0
0 0
0 0
0 0
0 0
0 0
0 0
0 0
0 0
0 0
0 0
0 0
0 0
0 0
0 0
0 0
0 0
0 0
0 0
0 0
0 0
0 0
0 0
0 0
0 0
0 0
0 0
0 0
0 0
0 0
0 0
0 0
0 0
0 0
0 0
0 0
0 0
0 0
0 0
0 0
0 0
0 0
0 0
0 0
0 0
0 0
0 0
0 0
0 0
0 0
0 0
0 0
0 0
0 0
0 0
0 0
0 0
0 0
0 0
0 0
0 0
0 0
0 0
0 0
0 0
0 0
0 0
0 0
0 0
0 0
0 0
0 0
0 0
0 0
0 0
0 0
0 0
0 0
0 0
0 0
0 0
0 0
0 0
0 0
0 0
0 0
0 0
0 0
0 0
0 0
0 0
0 0
0 0
0 0
0 0
0 0
0 0
0 0
0 0
0 0
0 0
0 0
0 0
0 0
0 0
0 0
0 0
0 0
0 0
0 0
0 0
0 0
0 0
0 0
0 0
0 0
0 0
0 0
0 0
0 0
0 0
0 0
0 0
0 0
0 0
0 0
0 0
0 0
0 0
0 0
0 0
0 0
0 0
0 0
0 0
0 0
0 0
0 0
0 0
0 0
0 0
0 0
0 0
0 0
0 0
0 0
0 0
0 0
0 0
0 0
0 0
0 0
0 0
0 0
0 0
0 0
0 0
0 0
0 0
0 0
0 0
0 0
0 0
0 0
0 0
0 0
0 0
0 0
0 0
0 0
0 0
0 0
0 0
0 0
0 0
0 0
0 0
0 0
0 0
0 0
0 0
0 0
0 0
0 0
0 0
0 0
0 0
0 0
0 0
0 0
0 0
0 0
0 0
0 0
0 0
0 0
0 0
0 0
0 0
0 0
0 0
0 0
0 0
0 0
0 0
0 0
0 0
0 0
0 0
0 0
0 0
0 0
0 0
0 0
0 0
0 0
0 0
0 0
0 0
0 0
0 0
0 0
0 0
0 0
0 0
0 0
0 0
0 0
0 0
0 0
0 0
0 0
0 0
0 0
0 0
0 0
0 0
0 0
0 0
0 0
0 0
0 0
0 0
0 0
0 0
0 0
0 0
0 0
0 0
0 0
0 0
0 0
0 0
0 0
0 0
0 0
0 0
0 0
0 0
0 0
0 0
0 0
0 0
0 0
0 0
0 0
0 0
0 0
0 0
0 0
0 0
0 0
0 0
0 0
0 0
0 0
0 0
0 0
0 0
0 0
0 0
0 0
0 0
0 0
0 0
0 0
0 0
0 0
0 0
0 0
0 0
0 0
0 0
0 0
0 0
0 0
0 0
0 0
0 0
0 0
0 0
0 0
0 0
0 0
0 0
0 0
0 0
0 0
0 0
0 0
0 0
0 0
0 0
0 0
0 0
0 0
0 0
0 0
0 0
0 0
0 0
0 0
0 0
0 0
0 0
0 0
0 0
0 0
0 0
0 0
0 0
0 0
0 0
0 0
0 0
0 0
0 0
0 0
0 0
0 0
0 0
0 0
0 0
0 0
0 0
0 0
0 0
0 0
0 0
0 0
0 0
0 0
0 0
0 0
0 0
0 0
0 0
0 0
0 0
0 0
0 0
0 0
0 0
0 0
0 0
0 0
0 0
0 0
0 0
0 0
0 0
0 0
0 0
0 0
0 0
0 0
0 0
0 0
0 0
0 0
0 0
0 0
0 0
0 0
0 0
0 0
0 0
0 0
0 0
0 0
0 0
0 0
0 0
0 0
0 0
0 0
0 0
0 0
0 0
0 0
0 0
0 0
0 0
0 0
0 0
0 0
0 0
0 0
0 0
0 0
0 0
0 0
0 0
0 0
0 0
0 0
0 0
0 0
0 0
0 0
0 0
0 0
0 0
0 0
0 0
0 0
0 0
0 0
0 0
0 0
0 0
0 0
0 0
0 0
0 0
0 0
0 0
0 0
0 0
0 0
0 0
0 0
0 0
0 0
0 0
0 0
0 0
0 0
0 0
0 0
0 0
0 0
0 0
0 0
0 0
0 0
0 0
0 0
0 0
0 0
0 0
0 0
0 0
0 0
0 0
0 0
0 0
0 0
0 0
0 0
0 0
0 0
0 0
0 0
0 0
0 0
0 0
0 0
0 0
0 0
0 0
0 0
0 0
0 0
0 0
0 0
0 0
0 0
0 0
0 0
0 0
0 0
0 0
0 0
0 0
0 0
0 0
0 0
0 0
0 0
0 0
0 0
0 0
0 0
0 0
0 0
0 0
0 0
0 0
0 0
0 0
0 0
0 0
0 0
0 0
0 0
0 0
0 0
0 0
0 0
0 0
0 0
0 0
0 0
0 0
0 0
0 0
0 0
0 0
0 0
0 0
0 0
0 0
0 0
0 0
0 0
0 0
0 0
0 0
0 0
0 0
0 0
0 0
0 0
0 0
0 0
0 0
0 0
0 0
0 0
0 0
0 0
0 0
0 0
0 0
0 0
0 0
0 0
0 0
0 0
0 0
0 0
0 0
0 0
0 0
0 0
0 0
0 0
0 0
0 0
0 0
0 0
0 0
0 0
0 0
0 0
0 0
0 0
0 0
0 0
0 0
0 0
0 0
0 0
0 0
0 0
0 0
0 0
0 0
0 0
0 0
0 0
0 0
0 0
0 0
0 0
0 0
0 0
0 0
0 0
0 0
0 0
0 0
0 0
0 0
0 0
0 0
0 0
0 0
0 0
0 0
0 0
0 0
0 0
0 0
0 0
0 0
0 0
0 0
0 0
0 0
0 0
0 0
0 0
0 0
0 0
0 0
0 0
0 0
0 0
0 0
0 0
0 0
0 0
0 0
0 0
0 0
0 0
0 0
0 0
0 0
0 0
0 0
0 0
0 0
0 0
0 0
0 0
0 0
0 0
0 0
0 0
0 0
0 0
0 0
0 0
0 0
0 0
0 0
0 0
0 0
0 0
0 0
0 0
0 0
0 0
0 0
0 0
0 0
0 0
0 0
0 0
0 0
0 0
0 0
0 0
0 0
0 0
0 0
0 0
0 0
0 0
0 0
0 0
0 0
0 0
0 0
0 0
0 0
0 0
0 0
0 0
0 0
0 0
0 0
0 0
0 0
0 0
0 0
0 0
0 0
0 0
0 0
0 0
0 0
0 0
0 0
0 0
0 0
0 0
0 0
0 0
0 0
0 0
0 0
0 0
0 0
0 0
0 0
0 0
0 0
0 0
0 0
0 0
0 0
0 0
0 0
0 0
0 0
0 0
0 0
0 0
0 0
0 0
0 0
0 0
0 0
0 0
0 0
0 0
0 0
0 0
0 0
0 0
0 0
0 0
0 0
0 0
0 0
0 0
0 0
0 0
0 0
0 0
0 0
0 0
0 0
0 0
0 0
0 0
0 0
0 0
0 0
0 0
0 0
0 0
0 0
0 0
0 0
0 0
0 0
0 0
0 0
0 0
0 0
0 0
0 0
0 0
0 0
0 0
0 0
0 0
0 0
0 0
0 0
0 0
0 0
0 0
0 0
0 0
0 0
0 0
0 0
0 0
0 0
0 0
0 0
0 0
0 0
0 0
0 0
0 0
0 0
0 0
0 0
0 0
0 0
0 0
0 0
0 0
0 0
0 0
0 0
0 0
0 0
0 0
0 0
0 0
0 0
0 0
0 0
0 0
0 0
0 0
0 0
0 0
0 0
0 0
0 0
0 0
0 0
0 0
0 0
0 0
0 0
0 0
0 0
0 0
0 0
0 0
0 0
0 0
0 0
0 0
0 0
0 0
0 0
0 0
0 0
0 0
0 0
0 0
0 0
0 0
0 0
0 0
0 0
0 0
0 0
0 0
0 0
0 0
0 0
0 0
0 0
0 0
0 0
0 0
0 0
0 0
0 0
0 0
0 0
0 0
0 0
0 0
0 0
0 0
0 0
0 0
0 0
0 0
0 0
0 0
0 0
0 0
0 0
0 0
0 0
0 0
0 0
0 0
0 0
0 0
0 0
0 0
0 0
0 0
0 0
0 0
0 0
0 0
0 0
0 0
0 0
0 0
0 0
0 0
0 0
0 0
0 0
0 0
0 0
0 0
0 0
0 0
0 0
0 0
0 0
0 0
0 0
0 0
0 0
0 0
0 0
0 0
0 0
0 0
0 0
0 0
0 0
0 0
0 0
0 0
0 0
0 0
0 0
0 0
0 0
0 0
0 0
0 0
0 0
0 0
0 0
0 0
0 0
0 0
0 0
0 0
0 0
0 0
0 0
0 0
0 0
0 0
0 0
0 0
0 0
0 0
0 0
0 0
0 0
0 0
0 0
0 0
0 0
0 0
0 0
0 0
0 0
0 0
0 0
0 0
0 0
0 0
0 0
0 0
0 0
0 0
0 0
0 0
0 0
0 0
0 0
0 0
0 0
0 0
0 0
0 0
0 0
0 0
0 0
0 0
0 0
0 0
0 0
0 0
0 0
0 0
0 0
0 0
0 0
0 0
0 0
0 0
0 0
0 0
0 0
0 0
0 0
0 0
0 0
0 0
0 0
0 0
0 0
0 0
0 0
0 0
0 0
0 0
0 0
0 0
0 0
0 0
0 0
0 0
0 0
0 0
0 0
0 0
0 0
0 0
0 0
0 0
0 0
0 0
0 0
0 0
0 0
0 0
0 0
0 0
0 0
0 0
0 0
0 0
0 0
0 0
0 0
0 0
0 0
0 0
0 0
0 0
0 0
0 0
0 0
0 0
0 0
0 0
0 0
0 0
0 0
0 0
0 0
0 0
0 0
0 0
0 0
0 0
0 0
0 0
0 0
0 0
0 0
0 0
0 0
0 0
0 0
0 0
0 0
0 0
0 0
0 0
0 0
0 0
0 0
0 0
0 0
0 0
0 0
0 0
0 0
0 0
0 0
0 0
0 0
0 0
0 0
0 0
0 0
0 0
0 0
0 0
0 0
0 0
0 0
0 0
0 0
0 0
0 0
0 0
0 0
0 0
0 0
0 0
0 0
0 0
0 0
0 0
0 0
0 0
0 0
0 0
0 0
0 0
0 0
0 0
0 0
0 0
0 0
0 0
0 0
0 0
0 0
0 0
0 0
0 0
0 0
0 0
0 0
0 0
0 0
0 0
0 0
0 0
0 0
0 0
0 0
0 0
0 0
0 0
0 0
0 0
0 0
0 0
0 0
0 0
0 0
0 0
0 0
0 0
0 0
0 0
0 0
0 0
0 0
0 0
0 0
0 0
0 0
0 0
0 0
0 0
0 0
0 0
0 0
0 0
0 0
0 0
0 0
0 0
0 0
0 0
0 0
0 0
0 0
0 0
0 0
0 0
0 0
0 0
0 0
0 0
0 0
0 0
0 0
0 0
0 0
0 0
0 0
0 0
0 0
0 0
0 0
0 0
0 0
0 0
0 0
0 0
0 0
0 0
0 0
0 0
0 0
0 0
0 0
0 0
0 0
0 0
0 0
0 0
0 0
0 0
0 0
0 0
0 0
0 0
0 0
0 0
0 0
0 0
0 0
0 0
0 0
0 0
0 0
0 0
0 0
0 0
0 0
0 0
0 0
0 0
0 0
0 0
0 0
0 0
0 0
0 0
0 0
0 0
0 0
0 0
0 0
0 0
0 0
0 0
0 0
0 0
0 0
0 0
0 0
0 0
0 0
0 0
0 0
0 0
0 0
0 0
0 0
0 0
0 0
0 0
0 0
0 0
0 0
0 0
0 0
0 0
0 0
0 0
0 0
0 0
0 0
0 0
0 0
0 0
0 0
0 0
0 0
0 0
0 0
0 0
0 0
0 0
0 0
0 0
0 0
0 0
0 0
0 0
0 0
0 0
0 0
0 0
0 0
0 0
0 0
0 0
0 0
0 0
0 0
0 0
0 0
0 0
0 0
0 0
0 0
0 0
0 0
0 0
0 0
0 0
0 0
0 0
0 0
0 0
0 0
0 0
0 0
0 0
0 0
0 0
0 0
0 0
0 0
0 0
0 0
0 0
0 0
0 0
0 0
0 0
0 0
0 0
0 0
0 0
0 0
0 0
0 0
0 0
0 0
0 0
0 0
0 0
0 0
0 0
0 0
0 0
0 0
0 0
0 0
0 0
0 0
0 0
0 0
0 0
0 0
0 0
0 0
0 0
0 0
0 0
0 0
0 0
0 0
0 0
0 0
0 0
0 0
0 0
0 0
0 0
0 0
0 0
0 0
0 0
0 0
0 0
0 0
0 0
0 0
0 0
0 0
0 0
0 0
0 0
0 0
0 0
0 0
0 0
0 0
0 0
0 0
0 0
0 0
0 0
0 0
0 0
0 0
0 0
0 0
0 0
0 0
0 0
0 0
0 0
0 0
0 0
0 0
0 0
0 0
0 0
0 0
0 0
0 0
0 0
0 0
0 0
0 0
0 0
0 0
0 0
0 0
0 0
0 0
0 0
0 0
0 0
0 0
0 0
0 0
0 0
0 0
0 0
0 0
0 0
0 0
0 0
0 0
0 0
0 0
0 0
0 0
0 0
0 0
0 0
0 0
0 0
0 0
0 0
0 0
0 0
0 0
0 0
0 0
0 0
0 0
0 0
0 0
0 0
0 0
0 0
0 0
0 0
0 0
0 0
0 0
0 0
0 0
0 0
0 0
0 0
0 0
0 0
0 0
0 0
0 0
0 0
0 0
0 0
0 0
0 0
0 0
0 0
0 0
0 0
0 0
0 0
0 0
0 0
0 0
0 0
0 0
0 0
0 0
0 0
0 0
0 0
0 0
0 0
0 0
0 0
0 0
0 0
0 0
0 0
0 0
0 0
0 0
0 0
0 0
0 0
0 0
0 0
0 0
0 0
0 0
0 0
0 0
0 0
0 0
0 0
0 0
0 0
0 0
0 0
0 0
0 0
0 0
0 0
0 0
0 0
0 0
0 0
0 0
0 0
0 0
0 0
0 0
0 0
0 0
0 0
0 0
0 0
0 0
0 0
0 0
0 0
0 0
0 0
0 0
0 0
0 0
0 0
0 0
0 0
0 0
0 0
0 0
0 0
0 0
0 0
0 0
0 0
0 0
0 0
0 0
0 0
0 0
0 0
0 0
0 0
0 0
0 0
0 0
0 0
0 0
0 0
0 0
0 0
0 0
0 0
0 0
0 0
0 0
0 0
0 0
0 0
0 0
0 0
0 0
0 0
0 0
0 0
0 0
0 0
0 0
0 0
0 0
0 0
0 0
0 0
0 0
0 0
0 0
0 0
0 0
0 0
0 0
0 0
0 0
0 0
0 0
0 0
0 0
0 0
0 0
0 0
0 0
0 0
0 0
0 0
0 0
0 0
0 0
0 0
0 0
0 0
0 0
0 0
0 0
0 0
0 0
0 0
0 0
0 0
0 0
0 0
0 0
0 0
0 0
0 0
0 0
0 0
0 0
0 0
0 0
0 0
0 0
0 0
0 0
0 0
0 0
0 0
0 0
0 0
0 0
0 0
0 0
0 0
0 0
0 0
0 0
0 0
0 0
0 0
0 0
0 0
0 0
0 0
0 0
0 0
0 0
0 0
0 0
0 0
0 0
0 0
0 0
0 0
0 0
0 0
0 0
0 0
0 0
0 0
0 0
0 0
0 0
0 0
0 0
0 0
0 0
0 0
0 0
0 0
0 0
0 0
0 0
0 0
0 0
0 0
0 0
0 0
0 0
0 0
0 0
0 0
0 0
0 0
0 0
0 0
0 0
0 0
0 0
0 0
0 0
0 0
0 0
0 0
0 0
0 0
0 0
0 0
0 0
0 0
0 0
0 0
0 0
0 0
0 0
0 0
0 0
0 0
0 0
0 0
0 0
0 0
0 0
0 0
0 0
0 0
0 0
0 0
0 0
0 0
0 0
0 0
0 0
0 0
0 0
0 0
0 0
0 0
0 0
0 0
0 0
0 0
0 0
0 0
0 0
0 0
0 0
0 0
0 0
0 0
0 0
0 0
0 0
0 0
0 0
0 0
0 0
0 0
0 0
0 0
0 0
0 0
0 0
0 0
0 0
0 0
0 0
0 0
0 0
0 0
0 0
0 0
0 0
0 0
0 0
0 0
0 0
0 0
0 0
0 0
0 0
0 0
0 0
0 0
0 0
0 0
0 0
0 0
0 0
0 0
0 0
0 0
0 0
0 0
0 0
0 0
0 0
0 0
0 0
0 0
0 0
0 0
0 0
0 0
0 0
0 0
0 0
0 0
0 0
0 0
0 0
0 0
0 0
0 0
0 0
0 0
0 0
0 0
0 0
0 0
0 0
0 0
0 0
0 0
0 0
0 0
0 0
0 0
0 0
0 0
0 0
0 0
0 0
0 0
0 0
0 0
0 0
0 0
0 0
0 0
0 0
0 0
0 0
0 0
0 0
0 0
0 0
0 0
0 0
0 0
0 0
0 0
0 0
0 0
0 0
0 0
0 0
0 0
0 0
0 0
0 0
0 0
0 0
0 0
0 0
0 0
0 0
0 0
0 0
0 0
0 0
0 0
0 0
0 0
0 0
0 0
0 0
0 0
0 0
0 0
0 0
0 0
0 0
0 0
0 0
0 0
0 0
0 0
0 0
0 0
0 0
0 0
0 0
0 0
0 0
0 0
0 0
0 0
0 0
0 0
0 0
0 0
0 0
0 0
0 0
0 0
0 0
0 0
0 0
0 0
0 0
0 0
0 0
0 0
0 0
0 0
0 0
0 0
0 0
0 0
0 0
0 0
0 0
0 0
0 0
0 0
0 0
0 0
0 0
0 0
0 0
0 0
0 0
0 0
0 0
0 0
0 0
0 0
0 0
0 0
0 0
0 0
0 0
0 0
0 0
0 0
0 0
0 0
0 0
0 0
0 0
0 0
0 0
0 0
0 0
0 0
0 0
0 0
0 0
0 0
0 0
0 0
0 0
0 0
0 0
0 0
0 0
0 0
0 0
0 0
0 0
0 0
0 0
0 0
0 0
0 0
0 0
0 0
0 0
0 0
0 0
0 0
0 0
0 0
0 0
0 0
0 0
0 0
0 0
0 0
0 0
0 0
0 0
0 0
0 0
0 0
0 0
0 0
0 0
0 0
0 0
0 0
0 0
0 0
0 0
0 0
0 0
0 0
0 0
0 0
0 0
0 0
0 0
0 0
0 0
0 0
0 0
0 0
0 0
0 0
0 0
0 0
0 0
0 0
0 0
0 0
0 0
0 0
0 0
0 0
0 0
0 0
0 0
0 0
0 0
0 0
0 0
0 0
0 0
0 0
0 0
0 0
0 0
0 0
0 0
0 0
0 0
0 0
0 0
0 0
0 0
0 0
0 0
0 0
0 0
0 0
0 0
0 0
0 0
0 0
0 0
0 0
0 0
0 0
0 0
0 0
0 0
0 0
0 0
0 0
0 0
0 0
0 0
0 0
0 0
0 0
0 0
0 0
0 0
0 0
0 0
0 0
0 0
0 0
0 0
0 0
0 0
0 0
0 0
0 0
0 0
0 0
0 0
0 0
0 0
0 0
0 0
0 0
0 0
0 0
0 0
0 0
0 0
0 0
0 0
0 0
0 0
0 0
0 0
0 0
0 0
0 0
0 0
0 0
0 0
0 0
0 0
0 0
0 0
0 0
0 0
0 0
0 0
0 0
0 0
0 0
0 0
0 0
0 0
0 0
0 0
0 0
0 0
0 0
0 0
0 0
0 0
0 0
0 0
0 0
0 0
0 0
0 0
0 0
0 0
0 0
0 0
0 0
0 0
0 0
0 0
0 0
0 0
0 0
0 0
0 0
0 0
0 0
0 0
0 0
0 0
0 0
0 0
0 0
0 0
0 0
0 0
0 0
0 0
0 0
0 0
0 0
0 0
0 0
0 0
0 0
0 0
0 0
0 0
0 0
0 0
0 0
0 0
0 0
0 0
0 0
0 0
0 0
0 0
0 0
0 0
0 0
0 0
0 0
0 0
0 0
0 0
0 0
0 0
0 0
0 0
0 0
0 0
0 0
0 0
0 0
0 0
0 0
0 0
0 0
0 0
0 0
0 0
0 0
0 0
0 0
0 0
0 0
0 0
0 0
0 0
0 0
0 0
0 0
0 0
0 0
0 0
0 0
0 0
0 0
0 0
0 0
0 0
0 0
0 0
0 0
0 0
0 0
0 0
      </DataArray> 
      <DataArray type="Float64" NumberOfComponents="2" Name="Acceleration" format="ascii">
0 0
0 0
0 0
0 0
0 0
0 0
0 0
0 0
0 0
0 0
0 0
0 0
0 0
0 0
0 0
0 0
0 0
0 0
0 0
0 0
0 0
0 0
0 0
0 0
0 0
0 0
0 0
0 0
0 0
0 0
0 0
0 0
0 0
0 0
0 0
0 0
0 0
0 0
0 0
0 0
0 0
0 0
0 0
0 0
0 0
0 0
0 0
0 0
0 0
0 0
0 0
0 0
0 0
0 0
0 0
0 0
0 0
0 0
0 0
0 0
0 0
0 0
0 0
0 0
0 0
0 0
0 0
0 0
0 0
0 0
0 0
0 0
0 0
0 0
0 0
0 0
0 0
0 0
0 0
0 0
0 0
0 0
0 0
0 0
0 0
0 0
0 0
0 0
0 0
0 0
0 0
0 0
0 0
0 0
0 0
0 0
0 0
0 0
0 0
0 0
0 0
0 0
0 0
0 0
0 0
0 0
0 0
0 0
0 0
0 0
0 0
0 0
0 0
0 0
0 0
0 0
0 0
0 0
0 0
0 0
0 0
0 0
0 0
0 0
0 0
0 0
0 0
0 0
0 0
0 0
0 0
0 0
0 0
0 0
0 0
0 0
0 0
0 0
0 0
0 0
0 0
0 0
0 0
0 0
0 0
0 0
0 0
0 0
0 0
0 0
0 0
0 0
0 0
0 0
0 0
0 0
0 0
0 0
0 0
0 0
0 0
0 0
0 0
0 0
0 0
0 0
0 0
0 0
0 0
0 0
0 0
0 0
0 0
0 0
0 0
0 0
0 0
0 0
0 0
0 0
0 0
0 0
0 0
0 0
0 0
0 0
0 0
0 0
0 0
0 0
0 0
0 0
0 0
0 0
0 0
0 0
0 0
0 0
0 0
0 0
0 0
0 0
0 0
0 0
0 0
0 0
0 0
0 0
0 0
0 0
0 0
0 0
0 0
0 0
0 0
0 0
0 0
0 0
0 0
0 0
0 0
0 0
0 0
0 0
0 0
0 0
0 0
0 0
0 0
0 0
0 0
0 0
0 0
0 0
0 0
0 0
0 0
0 0
0 0
0 0
0 0
0 0
0 0
0 0
0 0
0 0
0 0
0 0
0 0
0 0
0 0
0 0
0 0
0 0
0 0
0 0
0 0
0 0
0 0
0 0
0 0
0 0
0 0
0 0
0 0
0 0
0 0
0 0
0 0
0 0
0 0
0 0
0 0
0 0
0 0
0 0
0 0
0 0
0 0
0 0
0 0
0 0
0 0
0 0
0 0
0 0
0 0
0 0
0 0
0 0
0 0
0 0
0 0
0 0
0 0
0 0
0 0
0 0
0 0
0 0
0 0
0 0
0 0
0 0
0 0
0 0
0 0
0 0
0 0
0 0
0 0
0 0
0 0
0 0
0 0
0 0
0 0
0 0
0 0
0 0
0 0
0 0
0 0
0 0
0 0
0 0
0 0
0 0
0 0
0 0
0 0
0 0
0 0
0 0
0 0
0 0
0 0
0 0
0 0
0 0
0 0
0 0
0 0
0 0
0 0
0 0
0 0
0 0
0 0
0 0
0 0
0 0
0 0
0 0
0 0
0 0
0 0
0 0
0 0
0 0
0 0
0 0
0 0
0 0
0 0
0 0
0 0
0 0
0 0
0 0
0 0
0 0
0 0
0 0
0 0
0 0
0 0
0 0
0 0
0 0
0 0
0 0
0 0
0 0
0 0
0 0
0 0
0 0
0 0
0 0
0 0
0 0
0 0
0 0
0 0
0 0
0 0
0 0
0 0
0 0
0 0
0 0
0 0
0 0
0 0
0 0
0 0
0 0
0 0
0 0
0 0
0 0
0 0
0 0
0 0
0 0
0 0
0 0
0 0
0 0
0 0
0 0
0 0
0 0
0 0
0 0
0 0
0 0
0 0
0 0
0 0
0 0
0 0
0 0
0 0
0 0
0 0
0 0
0 0
0 0
0 0
0 0
0 0
0 0
0 0
0 0
0 0
0 0
0 0
0 0
0 0
0 0
0 0
0 0
0 0
0 0
0 0
0 0
0 0
0 0
0 0
0 0
0 0
0 0
0 0
0 0
0 0
0 0
0 0
0 0
0 0
0 0
0 0
0 0
0 0
0 0
0 0
0 0
0 0
0 0
0 0
0 0
0 0
0 0
0 0
0 0
0 0
0 0
0 0
0 0
0 0
0 0
0 0
0 0
0 0
0 0
0 0
0 0
0 0
0 0
0 0
0 0
0 0
0 0
0 0
0 0
0 0
0 0
0 0
0 0
0 0
0 0
0 0
0 0
0 0
0 0
0 0
0 0
0 0
0 0
0 0
0 0
0 0
0 0
0 0
0 0
0 0
0 0
0 0
0 0
0 0
0 0
0 0
0 0
0 0
0 0
0 0
0 0
0 0
0 0
0 0
0 0
0 0
0 0
0 0
0 0
0 0
0 0
0 0
0 0
0 0
0 0
0 0
0 0
0 0
0 0
0 0
0 0
0 0
0 0
0 0
0 0
0 0
0 0
0 0
0 0
0 0
0 0
0 0
0 0
0 0
0 0
0 0
0 0
0 0
0 0
0 0
0 0
0 0
0 0
0 0
0 0
0 0
0 0
0 0
0 0
0 0
0 0
0 0
0 0
0 0
0 0
0 0
0 0
0 0
0 0
0 0
0 0
0 0
0 0
0 0
0 0
0 0
0 0
0 0
0 0
0 0
0 0
0 0
0 0
0 0
0 0
0 0
0 0
0 0
0 0
0 0
0 0
0 0
0 0
0 0
0 0
0 0
0 0
0 0
0 0
0 0
0 0
0 0
0 0
0 0
0 0
0 0
0 0
0 0
0 0
0 0
0 0
0 0
0 0
0 0
0 0
0 0
0 0
0 0
0 0
0 0
0 0
0 0
0 0
0 0
0 0
0 0
0 0
0 0
0 0
0 0
0 0
0 0
0 0
0 0
0 0
0 0
0 0
0 0
0 0
0 0
0 0
0 0
0 0
0 0
0 0
0 0
0 0
0 0
0 0
0 0
0 0
0 0
0 0
0 0
0 0
0 0
0 0
0 0
0 0
0 0
0 0
0 0
0 0
0 0
0 0
0 0
0 0
0 0
0 0
0 0
0 0
0 0
0 0
0 0
0 0
0 0
0 0
0 0
0 0
0 0
0 0
0 0
0 0
0 0
0 0
0 0
0 0
0 0
0 0
0 0
0 0
0 0
0 0
0 0
0 0
0 0
0 0
0 0
0 0
0 0
0 0
0 0
0 0
0 0
0 0
0 0
0 0
0 0
0 0
0 0
0 0
0 0
0 0
0 0
0 0
0 0
0 0
0 0
0 0
0 0
0 0
0 0
0 0
0 0
0 0
0 0
0 0
0 0
0 0
0 0
0 0
0 0
0 0
0 0
0 0
0 0
0 0
0 0
0 0
0 0
0 0
0 0
0 0
0 0
0 0
0 0
0 0
0 0
0 0
0 0
0 0
0 0
0 0
0 0
0 0
0 0
0 0
0 0
0 0
0 0
0 0
0 0
0 0
0 0
0 0
0 0
0 0
0 0
0 0
0 0
0 0
0 0
0 0
0 0
0 0
0 0
0 0
0 0
0 0
0 0
0 0
0 0
0 0
0 0
0 0
0 0
0 0
0 0
0 0
0 0
0 0
0 0
0 0
0 0
0 0
0 0
0 0
0 0
0 0
0 0
0 0
0 0
0 0
0 0
0 0
0 0
0 0
0 0
0 0
0 0
0 0
0 0
0 0
0 0
0 0
0 0
0 0
0 0
0 0
0 0
0 0
0 0
0 0
0 0
0 0
0 0
0 0
0 0
0 0
0 0
0 0
0 0
0 0
0 0
0 0
0 0
0 0
0 0
0 0
0 0
0 0
0 0
0 0
0 0
0 0
0 0
0 0
0 0
0 0
0 0
0 0
0 0
0 0
0 0
0 0
0 0
0 0
0 0
0 0
0 0
0 0
0 0
0 0
0 0
0 0
0 0
0 0
0 0
0 0
0 0
0 0
0 0
0 0
0 0
0 0
0 0
0 0
0 0
0 0
0 0
0 0
0 0
0 0
0 0
0 0
0 0
0 0
0 0
0 0
0 0
0 0
0 0
0 0
0 0
0 0
0 0
0 0
0 0
0 0
0 0
0 0
0 0
0 0
0 0
0 0
0 0
0 0
0 0
0 0
0 0
0 0
0 0
0 0
0 0
0 0
0 0
0 0
0 0
0 0
0 0
0 0
0 0
0 0
0 0
0 0
0 0
0 0
0 0
0 0
0 0
0 0
0 0
0 0
0 0
0 0
0 0
0 0
0 0
0 0
0 0
0 0
0 0
0 0
0 0
0 0
0 0
0 0
0 0
0 0
0 0
0 0
0 0
0 0
0 0
0 0
0 0
0 0
0 0
0 0
0 0
0 0
0 0
0 0
0 0
0 0
0 0
0 0
0 0
0 0
0 0
0 0
0 0
0 0
0 0
0 0
0 0
0 0
0 0
0 0
0 0
0 0
0 0
0 0
0 0
0 0
0 0
0 0
0 0
0 0
0 0
0 0
0 0
0 0
0 0
0 0
0 0
0 0
0 0
0 0
0 0
0 0
0 0
0 0
0 0
0 0
0 0
0 0
0 0
0 0
0 0
0 0
0 0
0 0
0 0
0 0
0 0
0 0
0 0
0 0
0 0
0 0
0 0
0 0
0 0
0 0
0 0
0 0
0 0
0 0
0 0
0 0
0 0
0 0
0 0
0 0
0 0
0 0
0 0
0 0
0 0
0 0
0 0
0 0
0 0
0 0
0 0
0 0
0 0
0 0
0 0
0 0
0 0
0 0
0 0
0 0
0 0
0 0
0 0
0 0
0 0
0 0
0 0
0 0
0 0
0 0
0 0
0 0
0 0
0 0
0 0
0 0
0 0
0 0
0 0
0 0
0 0
0 0
0 0
0 0
0 0
0 0
0 0
0 0
0 0
0 0
0 0
0 0
0 0
0 0
0 0
0 0
0 0
0 0
0 0
0 0
0 0
0 0
0 0
0 0
0 0
0 0
0 0
0 0
0 0
0 0
0 0
0 0
0 0
0 0
0 0
0 0
0 0
0 0
0 0
0 0
0 0
0 0
0 0
0 0
0 0
0 0
0 0
0 0
0 0
0 0
0 0
0 0
0 0
0 0
0 0
0 0
0 0
0 0
0 0
0 0
0 0
0 0
0 0
0 0
0 0
0 0
0 0
0 0
0 0
0 0
0 0
0 0
0 0
0 0
0 0
0 0
0 0
0 0
0 0
0 0
0 0
0 0
0 0
0 0
0 0
0 0
0 0
0 0
0 0
0 0
0 0
0 0
0 0
0 0
0 0
0 0
0 0
0 0
0 0
0 0
0 0
0 0
0 0
0 0
0 0
0 0
0 0
0 0
0 0
0 0
0 0
0 0
0 0
0 0
0 0
0 0
0 0
0 0
0 0
0 0
0 0
0 0
0 0
0 0
0 0
0 0
0 0
0 0
0 0
0 0
0 0
0 0
0 0
0 0
0 0
0 0
0 0
0 0
0 0
0 0
0 0
0 0
0 0
0 0
0 0
0 0
0 0
0 0
0 0
0 0
0 0
0 0
0 0
0 0
0 0
0 0
0 0
0 0
0 0
0 0
0 0
0 0
0 0
0 0
0 0
0 0
0 0
0 0
0 0
0 0
0 0
0 0
0 0
0 0
0 0
0 0
0 0
0 0
0 0
0 0
0 0
0 0
0 0
0 0
0 0
0 0
0 0
0 0
0 0
0 0
0 0
0 0
0 0
0 0
0 0
0 0
0 0
0 0
0 0
0 0
0 0
0 0
0 0
0 0
0 0
0 0
0 0
0 0
0 0
0 0
0 0
0 0
0 0
0 0
0 0
0 0
0 0
0 0
0 0
0 0
0 0
0 0
0 0
0 0
0 0
0 0
0 0
0 0
0 0
0 0
0 0
0 0
0 0
0 0
0 0
0 0
0 0
0 0
0 0
0 0
0 0
0 0
0 0
0 0
0 0
0 0
0 0
0 0
0 0
0 0
0 0
0 0
0 0
0 0
0 0
0 0
0 0
0 0
0 0
0 0
0 0
0 0
0 0
0 0
0 0
0 0
0 0
0 0
0 0
0 0
0 0
0 0
0 0
0 0
0 0
0 0
0 0
0 0
0 0
0 0
0 0
0 0
0 0
0 0
0 0
0 0
0 0
0 0
0 0
0 0
0 0
0 0
0 0
0 0
0 0
0 0
0 0
0 0
0 0
0 0
0 0
0 0
0 0
0 0
0 0
0 0
0 0
0 0
0 0
0 0
0 0
0 0
0 0
0 0
0 0
0 0
0 0
0 0
0 0
0 0
0 0
0 0
0 0
0 0
0 0
0 0
0 0
0 0
0 0
0 0
0 0
0 0
0 0
0 0
0 0
0 0
0 0
0 0
0 0
0 0
0 0
0 0
0 0
0 0
0 0
0 0
0 0
0 0
0 0
0 0
0 0
0 0
0 0
0 0
0 0
0 0
0 0
0 0
0 0
0 0
0 0
0 0
0 0
0 0
0 0
0 0
0 0
0 0
0 0
0 0
0 0
0 0
0 0
0 0
0 0
0 0
0 0
0 0
0 0
0 0
0 0
0 0
0 0
0 0
0 0
0 0
0 0
0 0
0 0
0 0
0 0
0 0
0 0
0 0
0 0
0 0
0 0
0 0
0 0
0 0
0 0
0 0
0 0
0 0
0 0
0 0
0 0
0 0
0 0
0 0
0 0
0 0
0 0
0 0
0 0
0 0
0 0
0 0
0 0
0 0
0 0
0 0
0 0
0 0
0 0
0 0
0 0
0 0
0 0
0 0
0 0
0 0
0 0
0 0
0 0
0 0
0 0
0 0
0 0
0 0
0 0
0 0
0 0
0 0
0 0
0 0
0 0
0 0
0 0
0 0
0 0
0 0
0 0
0 0
0 0
0 0
0 0
0 0
0 0
0 0
0 0
0 0
0 0
0 0
0 0
0 0
0 0
0 0
0 0
0 0
0 0
0 0
0 0
0 0
0 0
0 0
0 0
0 0
0 0
0 0
0 0
0 0
0 0
0 0
0 0
0 0
0 0
0 0
0 0
0 0
0 0
0 0
0 0
0 0
0 0
0 0
0 0
0 0
0 0
0 0
0 0
0 0
0 0
0 0
0 0
0 0
0 0
0 0
0 0
0 0
0 0
0 0
0 0
0 0
0 0
0 0
0 0
0 0
0 0
0 0
0 0
0 0
0 0
0 0
0 0
0 0
0 0
0 0
0 0
0 0
0 0
0 0
0 0
0 0
0 0
0 0
0 0
0 0
0 0
0 0
0 0
0 0
0 0
0 0
0 0
0 0
0 0
0 0
0 0
0 0
0 0
0 0
0 0
0 0
0 0
0 0
0 0
0 0
0 0
0 0
0 0
0 0
0 0
0 0
0 0
0 0
0 0
0 0
0 0
0 0
0 0
0 0
0 0
0 0
0 0
0 0
0 0
0 0
0 0
0 0
0 0
0 0
0 0
0 0
0 0
0 0
0 0
0 0
0 0
0 0
0 0
0 0
0 0
0 0
0 0
0 0
0 0
0 0
0 0
0 0
0 0
0 0
0 0
0 0
0 0
0 0
0 0
0 0
0 0
0 0
0 0
0 0
0 0
0 0
0 0
0 0
0 0
0 0
0 0
0 0
0 0
0 0
0 0
0 0
0 0
0 0
0 0
0 0
0 0
0 0
0 0
0 0
0 0
0 0
0 0
0 0
0 0
0 0
0 0
0 0
0 0
0 0
0 0
0 0
0 0
0 0
0 0
0 0
0 0
0 0
0 0
0 0
0 0
0 0
0 0
0 0
0 0
0 0
0 0
0 0
0 0
0 0
0 0
0 0
0 0
0 0
0 0
0 0
0 0
0 0
0 0
0 0
0 0
0 0
0 0
0 0
0 0
0 0
0 0
0 0
0 0
0 0
0 0
0 0
0 0
0 0
0 0
0 0
0 0
0 0
0 0
0 0
0 0
0 0
0 0
0 0
0 0
0 0
0 0
0 0
0 0
0 0
0 0
0 0
0 0
0 0
0 0
0 0
0 0
0 0
0 0
0 0
0 0
0 0
0 0
0 0
0 0
0 0
0 0
0 0
0 0
0 0
0 0
0 0
0 0
0 0
0 0
0 0
0 0
0 0
0 0
0 0
0 0
0 0
0 0
0 0
0 0
0 0
0 0
0 0
0 0
0 0
0 0
0 0
0 0
0 0
0 0
0 0
0 0
0 0
0 0
0 0
0 0
0 0
0 0
0 0
0 0
0 0
0 0
0 0
0 0
0 0
0 0
0 0
0 0
0 0
0 0
0 0
0 0
0 0
0 0
0 0
0 0
0 0
0 0
0 0
0 0
0 0
0 0
0 0
0 0
0 0
0 0
0 0
0 0
0 0
0 0
0 0
0 0
0 0
0 0
0 0
0 0
0 0
0 0
0 0
0 0
0 0
0 0
0 0
0 0
0 0
0 0
0 0
0 0
0 0
0 0
0 0
0 0
0 0
0 0
0 0
0 0
0 0
0 0
0 0
0 0
0 0
0 0
0 0
0 0
0 0
0 0
0 0
0 0
0 0
0 0
0 0
0 0
0 0
0 0
0 0
0 0
0 0
0 0
0 0
0 0
0 0
0 0
0 0
0 0
0 0
0 0
0 0
0 0
0 0
0 0
0 0
0 0
0 0
0 0
0 0
0 0
0 0
0 0
0 0
0 0
0 0
0 0
0 0
0 0
0 0
0 0
0 0
0 0
0 0
0 0
0 0
0 0
0 0
0 0
0 0
0 0
0 0
0 0
0 0
0 0
0 0
0 0
0 0
0 0
0 0
0 0
0 0
0 0
0 0
0 0
0 0
0 0
0 0
0 0
0 0
0 0
0 0
0 0
0 0
0 0
0 0
0 0
0 0
0 0
0 0
0 0
0 0
0 0
0 0
0 0
0 0
0 0
0 0
0 0
0 0
0 0
0 0
0 0
0 0
0 0
0 0
0 0
0 0
0 0
0 0
0 0
0 0
0 0
0 0
0 0
0 0
0 0
0 0
0 0
0 0
0 0
0 0
0 0
0 0
0 0
0 0
0 0
0 0
0 0
0 0
0 0
0 0
0 0
0 0
0 0
0 0
0 0
0 0
0 0
0 0
0 0
0 0
0 0
0 0
0 0
0 0
0 0
0 0
0 0
0 0
0 0
0 0
0 0
0 0
0 0
0 0
0 0
0 0
0 0
0 0
0 0
0 0
0 0
0 0
0 0
0 0
0 0
0 0
0 0
0 0
0 0
0 0
0 0
0 0
0 0
0 0
0 0
0 0
0 0
0 0
0 0
0 0
0 0
0 0
0 0
0 0
0 0
0 0
0 0
0 0
0 0
0 0
0 0
0 0
0 0
0 0
0 0
0 0
0 0
0 0
0 0
0 0
0 0
0 0
0 0
0 0
0 0
0 0
0 0
0 0
0 0
0 0
0 0
0 0
0 0
0 0
0 0
0 0
0 0
0 0
0 0
0 0
0 0
0 0
0 0
0 0
0 0
0 0
0 0
0 0
0 0
0 0
0 0
0 0
0 0
0 0
0 0
0 0
0 0
0 0
0 0
0 0
0 0
0 0
0 0
0 0
0 0
0 0
0 0
0 0
0 0
0 0
0 0
0 0
0 0
0 0
0 0
0 0
0 0
0 0
0 0
0 0
0 0
0 0
0 0
0 0
0 0
0 0
0 0
0 0
0 0
0 0
0 0
0 0
0 0
0 0
0 0
0 0
0 0
0 0
0 0
0 0
0 0
0 0
0 0
0 0
0 0
0 0
0 0
0 0
0 0
0 0
0 0
0 0
0 0
0 0
0 0
0 0
0 0
0 0
0 0
0 0
0 0
0 0
0 0
0 0
0 0
0 0
0 0
0 0
0 0
0 0
0 0
0 0
0 0
0 0
0 0
0 0
0 0
0 0
0 0
0 0
0 0
0 0
0 0
0 0
0 0
0 0
0 0
0 0
0 0
0 0
0 0
0 0
0 0
0 0
0 0
0 0
0 0
0 0
0 0
0 0
0 0
0 0
0 0
0 0
0 0
0 0
0 0
0 0
0 0
0 0
0 0
0 0
0 0
0 0
0 0
0 0
0 0
0 0
0 0
0 0
0 0
0 0
0 0
0 0
0 0
0 0
0 0
0 0
0 0
0 0
0 0
0 0
0 0
0 0
0 0
0 0
0 0
0 0
0 0
0 0
0 0
0 0
0 0
0 0
0 0
0 0
0 0
0 0
0 0
0 0
0 0
0 0
0 0
0 0
0 0
0 0
0 0
0 0
0 0
0 0
0 0
0 0
0 0
0 0
0 0
0 0
0 0
0 0
0 0
0 0
0 0
0 0
0 0
0 0
0 0
0 0
0 0
0 0
0 0
0 0
0 0
0 0
0 0
0 0
0 0
0 0
0 0
0 0
0 0
0 0
0 0
0 0
0 0
0 0
0 0
0 0
0 0
0 0
0 0
0 0
0 0
0 0
0 0
0 0
0 0
0 0
0 0
0 0
0 0
0 0
0 0
0 0
0 0
0 0
0 0
0 0
0 0
0 0
0 0
0 0
0 0
0 0
0 0
0 0
0 0
0 0
0 0
0 0
0 0
0 0
0 0
0 0
0 0
0 0
0 0
0 0
0 0
0 0
0 0
0 0
0 0
0 0
0 0
0 0
0 0
0 0
0 0
0 0
0 0
0 0
0 0
0 0
0 0
0 0
0 0
0 0
0 0
0 0
0 0
0 0
0 0
0 0
0 0
0 0
0 0
0 0
0 0
0 0
0 0
0 0
0 0
0 0
0 0
0 0
0 0
0 0
0 0
0 0
0 0
0 0
0 0
0 0
0 0
0 0
0 0
0 0
0 0
0 0
0 0
0 0
0 0
0 0
0 0
0 0
0 0
0 0
0 0
0 0
0 0
0 0
0 0
0 0
0 0
0 0
0 0
0 0
0 0
0 0
0 0
0 0
0 0
0 0
0 0
0 0
0 0
0 0
0 0
0 0
0 0
0 0
0 0
0 0
0 0
0 0
0 0
0 0
0 0
0 0
0 0
0 0
0 0
0 0
0 0
0 0
0 0
0 0
0 0
0 0
0 0
0 0
0 0
0 0
0 0
0 0
0 0
0 0
0 0
0 0
0 0
0 0
0 0
0 0
0 0
0 0
0 0
0 0
0 0
0 0
0 0
0 0
0 0
0 0
0 0
0 0
0 0
0 0
0 0
0 0
0 0
0 0
0 0
0 0
0 0
0 0
0 0
0 0
0 0
0 0
0 0
0 0
0 0
0 0
0 0
0 0
0 0
0 0
0 0
0 0
0 0
0 0
0 0
0 0
0 0
0 0
0 0
0 0
0 0
0 0
0 0
0 0
0 0
0 0
0 0
0 0
0 0
0 0
0 0
0 0
0 0
0 0
0 0
0 0
0 0
0 0
0 0
0 0
0 0
0 0
0 0
0 0
0 0
0 0
0 0
0 0
0 0
0 0
0 0
0 0
0 0
0 0
0 0
0 0
0 0
0 0
0 0
0 0
0 0
0 0
0 0
0 0
0 0
0 0
0 0
0 0
0 0
0 0
0 0
0 0
0 0
0 0
0 0
0 0
0 0
0 0
0 0
0 0
0 0
0 0
0 0
0 0
0 0
0 0
0 0
0 0
0 0
0 0
0 0
0 0
0 0
0 0
0 0
0 0
0 0
0 0
0 0
0 0
0 0
0 0
0 0
0 0
0 0
0 0
0 0
0 0
0 0
0 0
0 0
0 0
0 0
0 0
0 0
0 0
0 0
0 0
0 0
0 0
0 0
0 0
0 0
0 0
0 0
0 0
0 0
0 0
0 0
0 0
0 0
0 0
0 0
0 0
0 0
0 0
0 0
0 0
0 0
0 0
0 0
0 0
0 0
0 0
0 0
0 0
0 0
0 0
0 0
0 0
0 0
0 0
0 0
0 0
0 0
0 0
0 0
0 0
0 0
0 0
0 0
0 0
0 0
0 0
0 0
0 0
0 0
0 0
0 0
0 0
0 0
0 0
0 0
0 0
0 0
0 0
0 0
0 0
0 0
0 0
0 0
0 0
0 0
0 0
0 0
0 0
0 0
0 0
0 0
0 0
0 0
0 0
0 0
0 0
0 0
0 0
0 0
0 0
0 0
0 0
0 0
0 0
0 0
0 0
0 0
0 0
0 0
0 0
0 0
0 0
0 0
0 0
0 0
0 0
0 0
0 0
0 0
0 0
0 0
0 0
0 0
0 0
0 0
0 0
0 0
0 0
0 0
0 0
0 0
0 0
0 0
0 0
0 0
0 0
0 0
0 0
0 0
0 0
0 0
0 0
0 0
0 0
0 0
0 0
0 0
0 0
0 0
0 0
0 0
0 0
0 0
0 0
0 0
0 0
0 0
0 0
0 0
0 0
0 0
0 0
0 0
0 0
0 0
0 0
0 0
0 0
0 0
0 0
0 0
0 0
0 0
0 0
0 0
0 0
0 0
0 0
0 0
0 0
0 0
0 0
0 0
0 0
0 0
0 0
0 0
0 0
0 0
0 0
0 0
0 0
0 0
0 0
0 0
0 0
0 0
0 0
0 0
0 0
0 0
0 0
0 0
0 0
0 0
0 0
0 0
0 0
0 0
0 0
0 0
0 0
0 0
0 0
0 0
0 0
0 0
0 0
0 0
0 0
0 0
0 0
0 0
0 0
0 0
0 0
0 0
0 0
0 0
0 0
0 0
0 0
0 0
0 0
0 0
0 0
0 0
0 0
0 0
0 0
0 0
0 0
0 0
0 0
0 0
0 0
0 0
0 0
0 0
0 0
0 0
0 0
0 0
0 0
0 0
0 0
0 0
0 0
0 0
0 0
0 0
0 0
0 0
0 0
0 0
0 0
0 0
0 0
0 0
0 0
0 0
0 0
0 0
0 0
0 0
0 0
0 0
0 0
0 0
0 0
0 0
0 0
0 0
0 0
0 0
0 0
0 0
0 0
0 0
0 0
0 0
0 0
0 0
0 0
0 0
0 0
0 0
0 0
0 0
0 0
0 0
0 0
0 0
0 0
0 0
0 0
0 0
0 0
0 0
0 0
0 0
0 0
0 0
0 0
0 0
0 0
0 0
0 0
0 0
0 0
0 0
0 0
0 0
0 0
0 0
0 0
0 0
0 0
0 0
0 0
0 0
0 0
0 0
0 0
0 0
0 0
0 0
0 0
0 0
0 0
0 0
0 0
0 0
0 0
0 0
0 0
0 0
0 0
0 0
0 0
0 0
0 0
0 0
0 0
0 0
0 0
0 0
0 0
0 0
0 0
0 0
0 0
0 0
0 0
0 0
0 0
0 0
0 0
0 0
0 0
0 0
0 0
0 0
0 0
0 0
0 0
0 0
0 0
0 0
0 0
0 0
0 0
0 0
0 0
0 0
0 0
0 0
0 0
0 0
0 0
0 0
0 0
0 0
0 0
0 0
0 0
0 0
0 0
0 0
0 0
0 0
0 0
0 0
0 0
0 0
0 0
0 0
0 0
0 0
0 0
0 0
0 0
0 0
0 0
0 0
0 0
0 0
0 0
0 0
0 0
0 0
0 0
0 0
0 0
0 0
0 0
0 0
0 0
0 0
0 0
0 0
0 0
0 0
0 0
0 0
0 0
0 0
0 0
0 0
0 0
0 0
0 0
0 0
0 0
0 0
0 0
0 0
0 0
0 0
0 0
0 0
0 0
0 0
0 0
0 0
0 0
0 0
0 0
0 0
0 0
0 0
0 0
0 0
0 0
0 0
0 0
0 0
0 0
0 0
0 0
0 0
0 0
0 0
0 0
0 0
0 0
0 0
0 0
0 0
0 0
0 0
0 0
0 0
0 0
0 0
0 0
0 0
0 0
0 0
0 0
0 0
0 0
0 0
0 0
0 0
0 0
0 0
0 0
0 0
0 0
0 0
0 0
0 0
0 0
0 0
0 0
0 0
0 0
0 0
0 0
0 0
0 0
0 0
0 0
0 0
0 0
0 0
0 0
0 0
0 0
0 0
0 0
0 0
0 0
0 0
0 0
0 0
0 0
0 0
0 0
0 0
0 0
0 0
0 0
0 0
0 0
0 0
0 0
0 0
0 0
0 0
0 0
0 0
0 0
0 0
0 0
0 0
0 0
0 0
0 0
0 0
0 0
0 0
0 0
0 0
0 0
0 0
0 0
0 0
0 0
0 0
0 0
0 0
0 0
0 0
0 0
0 0
0 0
0 0
0 0
0 0
0 0
0 0
0 0
0 0
0 0
0 0
0 0
0 0
0 0
0 0
0 0
0 0
0 0
0 0
0 0
0 0
0 0
0 0
0 0
0 0
0 0
0 0
0 0
0 0
0 0
0 0
0 0
0 0
0 0
0 0
0 0
0 0
0 0
0 0
0 0
0 0
0 0
0 0
0 0
0 0
0 0
0 0
0 0
0 0
0 0
0 0
0 0
0 0
0 0
0 0
0 0
0 0
0 0
0 0
0 0
0 0
0 0
0 0
0 0
0 0
0 0
0 0
0 0
0 0
0 0
0 0
0 0
0 0
0 0
0 0
0 0
0 0
0 0
0 0
0 0
0 0
0 0
0 0
0 0
0 0
0 0
0 0
0 0
0 0
0 0
0 0
0 0
0 0
0 0
0 0
0 0
0 0
0 0
0 0
0 0
0 0
0 0
0 0
0 0
0 0
0 0
0 0
0 0
0 0
0 0
0 0
0 0
0 0
0 0
0 0
0 0
0 0
0 0
0 0
0 0
0 0
0 0
0 0
0 0
0 0
0 0
0 0
0 0
0 0
0 0
0 0
0 0
0 0
0 0
0 0
0 0
0 0
0 0
0 0
0 0
0 0
0 0
0 0
0 0
0 0
0 0
0 0
0 0
0 0
0 0
0 0
0 0
0 0
0 0
0 0
0 0
0 0
0 0
0 0
0 0
0 0
0 0
0 0
0 0
0 0
0 0
0 0
0 0
0 0
0 0
0 0
0 0
0 0
0 0
0 0
0 0
0 0
0 0
0 0
0 0
0 0
0 0
0 0
0 0
0 0
0 0
0 0
0 0
0 0
0 0
0 0
0 0
0 0
0 0
0 0
0 0
0 0
0 0
0 0
0 0
0 0
0 0
0 0
0 0
0 0
0 0
0 0
0 0
0 0
0 0
0 0
0 0
0 0
0 0
0 0
0 0
0 0
0 0
0 0
0 0
0 0
0 0
0 0
0 0
0 0
0 0
0 0
0 0
0 0
0 0
0 0
0 0
0 0
0 0
0 0
0 0
0 0
0 0
0 0
0 0
0 0
0 0
0 0
0 0
0 0
0 0
0 0
0 0
0 0
0 0
0 0
0 0
0 0
0 0
0 0
0 0
0 0
0 0
0 0
0 0
0 0
0 0
0 0
0 0
0 0
0 0
0 0
0 0
0 0
0 0
0 0
0 0
0 0
0 0
0 0
0 0
0 0
0 0
0 0
0 0
0 0
0 0
0 0
0 0
0 0
0 0
0 0
0 0
0 0
0 0
0 0
      </DataArray> 
      <DataArray type="Float64" NumberOfComponents="2" Name="CauchyNormalStress" format="ascii">
9.63315 5.64003
8.7407 4.54684
9.38914 0.943593
4.85329 -0.212541
3.28633 0.0390082
2.02026 -0.0167168
1.29708 -0.108376
0.81382 -0.106565
0.259874 -0.0488722
-0.141109 -0.00537492
-0.456398 -0.052423
-0.647868 -0.0716071
-0.918795 -0.0378707
-1.09438 -0.00183171
-1.21134 -0.0418394
-1.23881 -0.051701
-1.32534 -0.019358
-1.32993 0.00461391
-1.27815 -0.038634
-1.13432 -0.0520306
-1.04998 -0.0193271
-0.882144 0.00309793
-0.642297 -0.0483573
-0.281237 -0.0702491
0.00508481 -0.0260471
0.413237 0.0145308
0.961998 -0.0512995
1.85159 -0.212175
2.71383 -0.305452
4.08026 -0.142846
8.42736 0.405797
-0.839545 0.817717
-1.10769 0.970345
-1.00706 1.95951
2.92423 7.36617
-0.838903 -0.0307454
-0.202024 -0.194898
-0.0437406 -0.327759
-0.107605 -0.438166
-0.103653 -0.473485
-0.0282937 -0.676086
-0.019803 -0.730685
-0.0182304 -0.795458
-0.0462797 -0.801838
-0.0738409 -0.866125
-0.0835094 -0.729654
-0.0935371 -0.78475
-0.119645 -0.757595
-0.16031 -0.76495
-0.199778 -0.694699
-0.235495 -0.681058
-0.267779 -0.564108
-0.324745 -0.590089
-0.00799713 -0.791497
-0.669549 -0.0485707
-0.791646 -0.062436
-0.602696 -0.146994
-0.649042 -0.19152
-0.460301 -0.331045
-83.9094 -221.564
-0.485328 -2.1479
-0.159971 -0.866977
-1.06156 -2.70088
-8.48978 -42.4793
-2.93132 -37.5373
0.00971596 -21.5133
-1.65692 -22.6113
-1.91522 -22.2036
-3.4546 -25.7675
18.6501 1.15158
-14.143 -42.5231
-18.6678 -50.8465
-25.6427 -76.1222
-8.5815 -42.1702
19.5421 0.555223
26.5397 10.9448
-21.2576 -8.00409
-76.3195 -212.343
-3.13034 -37.6846
0.00314054 -21.7448
-1.71327 -22.7363
-1.91596 -22.2679
-3.43955 -25.7518
0.0183419 -0.992269
-0.46963 -2.11725
-0.239676 -0.871009
-1.38413 -2.41402
-0.906914 0.116961
-0.233149 -1.66429
-0.0449609 -0.941987
-0.229356 -1.15989
-0.255882 -0.675152
-0.313812 -0.59399
-0.615704 0.852435
-0.665721 -0.0157979
-0.771276 -0.102415
-0.575278 -0.123306
-0.642807 -0.227093
-0.503613 -0.227678
-0.497042 -0.33208
-0.404671 -0.382439
-0.386597 -0.459392
-0.333182 -0.550822
-0.277027 -0.563141
-0.242992 -0.684239
-0.169555 -0.651939
-0.132443 -0.79006
-0.0767716 -0.788552
-0.0893091 -0.837427
-0.0716475 -0.773004
-0.0456813 -0.82647
-0.825485 1.418
-0.307334 2.7203
3.17397 6.8459
-21.6945 -13.2
-13.1378 -34.0575
-20.9996 -14.2506
-11.4854 -46.1252
-14.6765 -37.3449
-2.6206 -27.4344
-21.4441 -10.4206
5.66798 -30.3969
1.63753 -4.64607
1.16584 -4.61416
-3.89683 -47.3343
-4.11375 -48.6879
2.69415 -11.2792
1.03939 -5.40976
0.465057 -22.9566
0.53924 -20.0624
-0.35577 -23.0824
1.09449 -17.5382
0.661607 -20.3859
-2.08233 -19.4289
-0.300012 -19.5133
-0.612977 -21.1192
-2.78989 -20.8685
1.60841 -16.1837
2.08853 -15.4557
1.78434 -21.045
-11.0774 -6.95193
-11.5349 -6.95325
-12.2417 -7.67486
0.990911 -24.4289
1.38277 -18.6127
-6.32192 -21.582
-6.04362 -20.2884
-0.381233 -27.2094
-1.80995 -26.2413
-4.91699 -23.1216
-5.51939 -24.8032
-0.490749 -25.2409
-8.51893 -5.6767
-10.1283 -6.02946
-9.40195 -6.11096
0.862217 -15.6008
1.20261 -16.4352
-9.46337 -9.82063
-6.24432 -14.7536
-1.41042 -16.8898
0.404008 -14.6999
0.269485 -15.7183
-1.47274 -18.2436
-6.6539 -15.803
-10.0743 -10.2033
1.87495 -13.5515
2.60146 -18.7848
-15.7034 -11.8036
-15.3047 -9.40723
-12.8692 -7.55924
-13.4524 -10.3363
3.29185 -19.4237
3.54988 -23.3752
2.8546 -22.6034
2.27022 -18.642
2.25126 -14.5778
1.97873 -12.9488
-16.4425 -13.5136
-9.42702 -19.6603
-9.10549 -18.3302
-16.269 -18.8739
2.58898 -28.8889
0.176459 -36.5743
-5.98411 -27.3261
-1.20459 -28.8806
3.13001 -26.5943
-7.66267 -5.54995
-8.75421 -5.63637
-8.74529 -5.40662
-8.98142 -5.5849
-7.35302 -4.69875
-7.12399 -4.62751
-6.81292 -4.4113
-7.78153 -5.26801
1.15034 -13.2949
1.63195 -12.0662
1.73998 -11.7747
1.19182 -13.6672
-7.2445 -5.61186
-7.56008 -6.41765
-7.6945 -9.59051
-5.94686 -11.4126
-2.89065 -13.3927
-1.00474 -14.4474
-1.3976 -15.1859
-3.35335 -14.1899
-6.43855 -12.1962
-7.94376 -9.92588
-8.00435 -6.15586
-7.51334 -5.39319
1.80571 -11.4197
2.88637 -14.8503
-20.8076 -16.9712
-17.2858 -9.85867
-18.7537 -11.9868
4.25747 -19.5438
4.25596 -21.9776
2.66 -14.6678
1.75118 -10.3638
-16.5622 -21.3349
-16.5911 -27.5019
4.53836 -31.355
-7.87426 -32.5479
-16.861 -33.8995
-6.37807 -28.3156
1.48723 -32.2983
-5.39194 -3.8839
-6.14294 -4.29156
-6.23621 -4.23782
-5.45813 -3.76187
-5.09916 -3.67088
-5.12154 -3.62377
1.37014 -11.0216
1.1494 -10.8457
-5.31669 -4.81034
-3.97228 -7.96994
-0.447943 -11.2192
-1.03795 -11.693
-4.33614 -8.14735
-5.31622 -4.45194
1.20789 -7.20705
1.49801 -8.3167
1.79124 -9.90454
2.13555 -10.1131
3.00321 -11.0756
3.91776 -14.4856
-17.8967 -26.8077
-22.0634 -10.5591
-19.9817 -18.4898
4.74409 -18.3498
4.84124 -19.4512
3.96807 -16.0299
3.04748 -13.0498
2.35247 -11.1404
1.55872 -8.63836
1.12187 -6.40004
-19.7334 -29.3413
-19.798 -38.6858
5.39996 -23.2646
4.93197 -42.2993
-18.8466 -44.8537
5.60959 -31.5067
5.26508 -21.8884
-10.8846 -36.6138
3.07261 -38.4399
-2.8403 -2.71728
-3.09595 -2.64515
-3.83961 -3.11241
-3.32349 -3.10154
-4.44476 -3.17018
-4.13391 -3.20653
-4.22699 -2.9218
-4.22876 -2.99096
-3.42545 -2.59776
-3.64176 -2.58862
-3.24002 -2.84423
-3.68062 -2.80171
-2.67966 -2.44889
-2.96128 -2.63452
1.20518 -9.85985
1.34374 -9.57286
1.42976 -8.3658
1.04623 -6.27015
1.43645 -8.08763
1.2473 -9.87571
0.558409 -10.5482
-3.6235 -3.46027
-2.83257 -4.59596
-1.22563 -7.03874
0.163743 -8.48921
-0.814442 -9.25347
-1.78123 -7.30256
-3.26872 -4.46913
-3.36537 -2.98696
0.463577 -3.39197
0.980616 -5.76457
1.32719 -6.41778
1.9737 -7.73504
2.73902 -9.30038
0.484216 -60.6988
-17.0314 -9.20852
-10.2845 -1.26868
-17.4782 -7.10509
-2.27785 -55.5161
4.14033 -14.4557
3.98579 -13.8222
2.75727 -10.1154
1.65986 -8.14053
0.560245 -3.89594
0.891738 -78.0983
-6.15466 -59.7089
0.54031 -75.4185
-2.76481 -63.9619
4.2936 -24.5092
-10.967 -62.1032
-35.5764 -72.6424
4.16408 -20.2131
-34.0661 -63.8895
-2.92094 -49.2746
-0.457181 -1.55639
-1.3644 -2.00952
-2.37273 -2.00537
-2.69873 -1.87011
-2.47925 -1.76202
-1.72832 -1.79939
-0.499434 -1.65263
1.98335 -6.83703
0.765645 -4.43325
1.04074 -4.92688
1.37616 -7.4664
-0.297497 -2.06027
2.09303 -5.49106
3.04978 -4.75303
2.33562 -5.84926
0.771502 -6.0619
-0.393838 -1.9123
0.466552 -2.17601
0.451083 -2.79016
0.11246 -1.56231
0.310847 -2.53766
0.290538 -2.52609
0.573523 -3.79243
0.494092 -3.23134
0.744082 -4.01184
0.784856 -3.96161
0.896412 -4.13012
0.751346 -3.62905
-15.3661 -26.0255
-8.13654 -2.63591
-7.34673 -2.35476
-15.8341 -18.3649
1.57899 -5.64319
1.97081 -6.76847
2.11092 -7.56945
1.45948 -6.41274
1.83499 -10.4623
1.7183 -9.43751
1.53824 -6.69775
1.91813 -7.01587
1.94055 -6.69906
1.50244 -5.49456
1.50052 -5.59524
1.12919 -4.75472
0.667653 -3.55045
0.804578 -4.21952
0.214118 -2.31362
0.303074 -2.35325
0.275076 -2.41194
0.196982 -2.0547
0.828216 -42.2286
0.995638 -56.3262
-0.98066 -74.9762
0.678258 -41.056
0.608625 -71.8892
0.416119 -54.1753
0.636725 -12.6304
-2.18677 -11.4974
-1.63547 -87.6615
1.13257 -12.3708
2.33152 -59.2544
-0.595916 -16.0285
1.5554 -0.852631
3.51602 0.987553
1.92263 -1.15092
0.232144 -1.01554
0.799939 -1.00833
-0.488604 -1.07335
-1.23039 -1.03508
-0.917178 -1.01415
-1.5878 -1.00791
-1.89253 -0.989693
-1.77097 -0.964943
-1.88159 -0.901735
-1.83712 -0.908099
-1.89439 -0.876376
-1.60807 -0.890562
-1.1594 -0.919876
-1.4316 -0.873643
-0.640848 -0.936905
0.489049 -1.02373
-0.213214 -0.912335
1.3703 -0.674213
3.87165 0.68691
1.81701 -0.759015
0.116121 -1.32047
0.117934 -1.48564
0.248988 -1.94135
0.212615 -1.87827
1.12136 -4.37775
2.29138 -1.58991
1.35135 -4.33145
2.1153 -5.0995
1.80232 -2.12027
3.86064 -0.25129
2.41636 -2.93229
1.73882 -3.47183
3.4181 -0.214441
0.16494 -1.05199
0.142138 -0.971212
0.191428 -0.0228938
0.325308 -0.669734
0.256315 -0.72723
0.114875 -0.208533
1.54019 0.643581
7.39216 2.79677
1.86503 0.6905
1.70786 -0.217219
1.88614 -0.406861
5.81844 0.770225
3.52731 -3.15871
4.42167 -1.30239
0.625998 -1.5966
0.765872 -1.67745
-0.377561 -3.63851
0.24366 -3.72227
1.6428 -6.86347
1.44071 -6.64887
0.478592 -3.41602
0.252232 -2.30163
-0.354548 -1.10147
-1.05243 -1.82791
-2.11718 -1.75358
-2.5771 -1.76246
-2.59106 -1.94516
-1.88947 -2.02819
-0.593153 -1.95309
-1.32109 -1.20287
4.14045 -28.4648
2.95254 -36.6999
5.04845 -62.1363
5.46294 -64.0594
0.642589 -4.03495
1.90189 -7.91684
3.44411 -11.5797
3.48838 -13.5436
4.31288 -17.2913
3.51164 -11.7724
-16.3596 -19.2922
-14.5537 -26.0878
1.98477 -7.15989
1.67848 -7.33791
1.31665 -6.92873
0.702866 -4.42115
1.09275 -8.16159
2.26435 -7.24108
-19.76 -45.1266
-21.1865 -53.7418
-19.4202 -6.16397
-5.9035 -5.55877
-2.93503 -10.5562
-2.34574 -10.017
-5.76763 -5.91091
0.515913 -12.7977
1.50443 -9.06965
1.6081 -9.87804
0.890437 -12.3516
-4.83914 -3.5769
-5.39299 -3.7998
-4.8204 -3.44356
-5.97709 -4.05501
-6.42947 -4.37124
-5.85886 -4.17245
-4.99315 -3.78509
-3.40897 -31.095
4.8366 -28.3535
3.23887 -40.2317
4.66605 -24.567
-20.1248 -25.2766
-21.0847 -17.8809
2.0746 -11.5778
3.42227 -17.9959
-14.3181 -8.47486
-20.0528 -13.1292
3.5747 -15.3021
2.17251 -12.8721
-9.20097 -25.4337
-8.99487 -23.8508
-10.1576 -6.9107
-9.92179 -13.8804
-3.54976 -17.7688
-3.18163 -16.6838
-9.49546 -12.8832
-9.44682 -7.15966
1.86998 -14.4454
1.51651 -14.2485
-8.76211 -5.38718
-11.4885 -6.72063
0.902384 -26.6566
-2.72923 -30.5975
1.11849 -22.2095
1.7444 -23.9655
0.418416 -18.5472
0.229477 -17.0148
-1.84177 -23.8735
-0.872906 -22.0575
1.91277 -18.0975
2.20603 -91.4757
-1.69008 -1.26844
-9.83041 -21.8895
-3.89653 -19.7892
-2.97457 -2.65255
3.74453 -40.1453
-1.25953 -1.72348
-15.6765 -123.59
-10.4071 -38.9203
-1.87667 -2.29126
-5.43675 -22.2188
1.61499 -57.2361
-0.117122 -63.5606
-8.85018 -63.5129
-7.94968 -51.7927
-5.25148 -100.454
-4.99549 -27.3462
-8.14778 -30.1002
-5.54129 -44.2103
2.52881 -57.8671
2.17989 -63.7229
0.512957 -46.722
-2.99448 -40.6
-2.2763 -34.7404
-11.0417 -33.0397
-14.4033 -41.0718
-0.727519 -31.7111
2.04284 -52.3786
-0.132339 -66.5164
-7.25774 -53.5811
-8.90217 -67.0642
-5.33162 -45.3921
-5.01476 -27.3777
-8.13062 -30.1879
-8.78673 -110.769
1.77688 -65.5243
2.91902 -60.0841
0.826746 -48.2883
-2.22258 -35.4022
-2.80603 -41.6324
-0.661656 -32.3328
-11.0718 -33.2813
-14.3938 -41.8004
2.33378 -54.1229
-10.0749 -6.93803
1.12487 -3.77524
5.8789 1.8512
4.62063 -0.473899
-54.8642 -106.497
-26.0191 -77.2182
-40.3498 -60.0523
-15.7229 -20.0056
-11.4298 -9.20544
-10.8683 -8.50471
4.69492 1.05218
0.247 -3.83869
-40.2389 -67.485
-54.074 -108.064
-21.7748 -8.94283
4.46678 -0.719517
-11.1974 -11.8471
-14.9538 -27.0673
-17.3381 -55.3115
-15.6001 -78.3061
0.992116 -59.6903
-55.435 -89.2382
4.75974 -43.5125
-18.7237 -43.4236
-24.8514 -52.9778
-31.7829 -66.9729
-6.9572 -77.7243
-38.7593 -88.4606
2.74728 -57.5444
-55.7175 -93.3549
-28.222 -62.0831
-25.1754 -55.1201
-16.1693 -70.612
-15.1518 -87.2632
-2.48113 -69.1279
1.13906 -64.584
-11.7422 -59.2962
-17.9005 -61.9299
-4.87189 -67.9338
-21.8214 -78.6784
0.0513547 -63.5749
-13.3807 -51.9321
2.11252 -67.2722
-9.19619 -43.6347
-4.48624 -51.2836
-10.9335 -38.5191
-16.7561 -106.359
3.94131 -68.8541
1.20996 -60.7353
-14.1304 -3.83329
-8.05001 -1.81212
-12.9325 -6.11627
3.612 -0.912684
-16.5883 -12.4051
-18.1444 -6.40944
-15.3184 -4.31481
-13.9163 -4.90755
-13.2953 -7.70618
-8.46831 -2.07496
-15.7497 -16.1766
-17.9205 -7.37721
2.68473 -69.1847
-3.39272 -55.4851
-6.39489 -50.3499
-15.8656 -103.556
-8.14362 -45.2406
2.24353 -62.0044
3.50847 -67.0653
-17.2982 -38.4066
-10.3989 -44.6454
-3.28614 -39.2754
-7.0868 -33.9
-21.189 -49.1669
-11.2675 -50.7414
-0.265692 -51.1415
-2.43579 -44.4226
-18.8146 -39.4424
-14.018 -35.2034
-9.79444 -30.9035
-13.0271 -29.6246
-16.3162 -27.6271
-18.3574 -25.4761
-18.8611 -31.8804
-18.8962 -19.4956
-20.2074 -23.7941
-19.2053 -36.8004
-13.09 -23.4344
-18.5581 -26.5047
-18.4026 -22.2247
-16.1745 -23.1523
-12.7851 -21.2958
-12.9973 -16.136
-12.8147 -25.7713
-18.7964 -16.0002
-16.3509 -17.3439
-13.3334 -17.8333
-13.2922 -13.4933
-19.9169 -14.834
-17.543 -12.6469
-15.3782 -10.9387
-16.5685 -10.3812
-17.6331 -11.3856
-18.6017 -11.2892
-16.2603 -9.56149
-14.4255 -8.388
-15.7695 -9.10685
-13.4434 -7.99347
-15.8476 -15.1766
-18.6009 -17.8228
-18.388 -14.732
-20.3269 -20.97
-20.3872 -14.8594
-17.822 -12.353
-12.6725 -12.1027
-15.3845 -10.4907
-13.2422 -8.22942
-10.2299 -6.98302
-11.1888 -6.83081
-13.4236 -9.30539
-12.7028 -9.76673
-12.4486 -50.6911
-3.24103 -63.4465
-11.9229 -64.6668
1.58027 -57.9886
-18.6704 -50.6609
-14.0971 -42.3886
-6.68581 -43.9065
0.329069 -32.4404
-1.38419 -46.5608
-2.11305 -33.989
-17.2515 -47.21
-23.0272 -37.7348
-1.99095 -33.2768
-1.37535 -45.3028
0.260803 -31.8227
1.40539 -56.1288
-17.5248 -45.6085
-22.479 -38.6255
-6.45766 -43.4665
-11.9464 -63.4555
-3.13983 -61.5945
-12.2471 -49.986
25.9219 13.0582
19.5852 0.96854
-20.5698 -14.2473
-19.6499 -9.3281
-18.6183 -12.3422
-20.4211 -7.91827
-17.894 -19.0763
-20.6292 -18.2956
-21.3182 -14.1254
-17.5848 -28.2393
-17.1786 -32.6376
-19.8517 -24.3098
-17.1316 -41.5003
-15.3341 -29.3627
-3.67548 -56.8267
-11.1248 -48.0904
-8.22591 -45.1436
-5.13323 -52.3693
-8.28875 -54.8992
-0.885676 -61.0224
-15.6089 -49.7594
-12.4626 -37.4897
-18.5696 -33.3704
-15.5242 -41.748
-15.014 -37.216
-20.3984 -45.752
-15.9014 -26.8873
-19.0199 -26.0453
-19.4327 -32.3081
-21.0074 -16.0435
-21.4064 -12.05
-21.4436 -13.4716
-20.3165 -9.86434
-21.0143 -8.97084
-21.3253 -12.3289
-20.4587 -19.5881
-17.3477 -17.2172
-19.2547 -12.5634
-19.4642 -19.9582
-16.9211 -36.3809
-15.3478 -39.4744
-20.1236 -41.9069
-7.54607 -40.4268
-18.1768 -32.9861
-15.0282 -30.7309
-10.8031 -28.8285
-19.6813 -11.7596
-20.2832 -12.6711
-17.9763 -10.9737
-21.2207 -15.4809
-20.8931 -12.9863
-21.6155 -10.2439
-21.6194 -12.0795
-21.776 -11.5046
-5.09985 -11.8201
-3.12874 -15.6238
-2.97362 -7.9446
-1.34598 -32.0694
-0.234811 -23.9383
-1.88506 -6.72938
-2.85894 -2.02398
-4.43385 -1.471
-7.08776 -12.4978
-5.13545 -53.1163
-2.67115 -40.8305
-6.90624 -28.6044
2.7876 -44.6908
-10.6415 -19.986
-5.34208 -60.6688
1.46699 -68.0233
-27.9429 -165.416
-32.0357 -39.8358
-18.8495 -72.5207
-3.34845 -81.2904
-17.051 -76.8346
-44.2123 -144.947
-31.9909 -38.0252
-34.3583 -173.326
-18.6801 -78.9421
-17.5344 -83.9565
-4.83592 -85.8065
-42.5897 -156.176
-34.0115 -82.5127
-25.3293 -98.5418
-9.72152 -90.152
-76.4742 -138.798
-32.7217 -137.535
1.24224 -69.0663
-4.93103 -73.5881
-27.1387 -69.4328
-40.8843 -75.5347
2.50112 -51.1734
3.87689 -42.8944
3.36767 -50.0572
4.14441 -33.1573
4.33555 -36.6299
1.42454 -46.877
-1.79538 -54.848
0.885128 -61.9982
3.269 -47.1049
-18.2101 -48.8636
-22.2827 -48.2136
-22.3382 -53.925
-19.8169 -44.5425
-22.0808 -49.1068
-27.893 -58.6036
-26.935 -59.6884
-9.37918 -52.6207
-13.2924 -49.8894
-0.910535 -65.8126
1.36243 -59.0799
-1.48013 -68.6967
2.91003 -47.9931
-5.5239 -85.6953
-9.79625 -69.9244
-3.17885 -60.3499
-29.1123 -106.97
-44.4656 -110.659
-52.6893 -89.8659
-60.6353 -169.926
-77.5979 -145.847
-40.0732 -82.7197
-41.2629 -78.7538
-18.2791 -92.8654
-7.65342 -105.092
-32.1166 -64.474
-28.6272 -58.669
-26.7197 -60.5032
-23.2784 -57.3691
-24.7094 -54.6306
-18.5634 -58.3652
-21.2976 -64.9638
-36.971 -70.213
-29.9788 -67.1745
-30.0627 -91.4727
-26.409 -99.4576
-12.7741 -96.7301
-6.44739 -80.8417
-25.6661 -80.0614
-25.4074 -71.8817
-22.3501 -66.4661
-19.7466 -61.9954
-7.96503 -65.8671
-18.0622 -93.6758
-33.9763 -99.3151
-37.7578 -81.7122
-29.7254 -71.0896
-10.8044 -80.1214
-26.3798 -63.6097
-22.0125 -57.5163
-11.6667 -60.0852
-19.1457 -53.3184
-6.92531 -46.6966
-3.31929 -44.2182
-6.97818 -41.9285
-7.12886 -37.9844
-3.4298 -35.2011
-10.6452 -40.6912
0.408983 -54.9108
2.49621 -47.2682
4.18411 -48.7517
1.7707 -45.0946
3.7532 -41.5665
3.87075 -40.2766
-4.8493 -56.2102
-6.52621 -47.6513
-1.7228 -47.8974
-5.44084 -51.103
0.555431 -42.5815
-11.2106 -56.1615
-15.828 -47.6567
-8.94643 -45.2823
-0.854993 -40.2467
-5.25568 -42.3691
-10.7855 -37.357
-13.1339 -42.9122
1.38536 -38.5323
-3.60473 -38.7432
-4.81389 -35.2931
-1.5925 -33.6166
0.107728 -38.9065
1.97809 -35.4982
-0.751842 -35.6325
4.13735 -32.9138
3.31489 -30.4533
-0.892157 -31.708
0.541387 -43.4089
0.0905128 -31.0163
-2.08337 -17.814
1.00468 -28.5346
-3.00148 -10.0484
-1.27012 -8.41497
1.85427 -22.6908
-2.01376 -39.7671
-5.93644 -10.1191
-3.53264 -9.38238
-6.60106 -21.1604
-2.94727 -0.619793
-3.6481 -41.2404
-8.49019 -9.9853
-5.15378 -3.26172
-11.1677 -32.1707
-17.5291 -14.6356
-6.78507 -53.6696
-5.04791 0.0724373
-7.83179 -1.55455
0.274062 -14.2788
-0.54722 -8.35577
0.342701 -6.48344
-19.1558 15.6602
-40.9836 -66.5242
0.484632 -6.63422
2.40227 -20.614
-15.7485 -35.7184
-6.97451 -69.4036
-20.9731 -24.0397
-6.41123 0.25916
-10.2523 4.83298
-1.1834 -12.8989
0.0884098 -6.52582
-0.928967 -6.31815
0.360888 -6.72782
-17.8851 32.523
-41.2641 -56.2747
1.83963 -23.481
0.714403 -3.93384
0.195406 -2.02212
0.259837 -2.35446
0.158496 -1.98063
-0.012157 -0.73483
-0.0612743 -0.646388
0.31046 -2.40779
1.32392 -6.07717
1.29809 -5.67602
0.892648 -4.14512
0.345487 -2.48449
0.0795788 -1.92919
0.256594 -2.43695
-0.110053 -0.463678
-0.0842641 -0.511772
1.51764 -6.3535
1.50245 -5.55048
0.427369 -2.7462
0.385651 -2.76419
0.283184 -2.68414
-0.0233881 -0.381456
-0.117612 -0.221537
0.474948 -2.82353
2.45268 -8.61695
2.52594 -8.31939
1.70085 -6.22495
0.593415 -3.26339
0.461755 -2.75105
0.69827 -3.35831
-0.464766 -0.435695
-0.471992 -0.349059
2.66842 -9.2826
1.7575 -6.89767
0.499254 -3.52205
0.74861 -3.61228
0.63426 -3.61097
-0.647647 -0.227267
-0.608555 -0.195419
0.625989 -3.52277
2.74839 -10.0935
2.44436 -10.1702
1.62168 -8.18245
0.758716 -5.16491
0.72952 -3.70986
0.81809 -5.04596
-0.780667 -0.10303
-0.672356 -0.0883039
2.66654 -11.5597
1.61884 -8.58905
0.666755 -3.518
0.842794 -5.65381
0.596839 -3.4919
-0.458269 -0.451932
-0.311631 -0.581134
0.851044 -5.40332
3.11854 -13.8799
2.83259 -11.7782
1.81259 -7.0493
0.855048 -3.90855
0.467002 -3.40527
0.706916 -3.79672
-0.249451 -0.6706
-0.239549 -1.15554
3.21397 -12.132
1.75504 -6.27391
0.467556 -2.80485
0.597344 -3.32959
0.403454 -2.76252
-0.0420182 -0.870331
-0.302252 -1.63255
0.714516 -3.40881
2.74402 -9.32872
2.59405 -8.55143
0.803147 -3.93639
0.201857 -2.17757
0.150584 -1.91051
0.279015 -2.23199
-0.367489 -0.501944
-0.415496 -0.476141
0.0483788 -1.88145
1.39581 -5.29027
1.42495 -5.6778
0.750741 -4.03346
0.232228 -2.26055
0.25642 -2.20459
0.271816 -2.30242
-0.488018 -0.323163
-0.529319 -0.283269
0.21473 -2.17463
1.25912 -5.57972
1.20233 -5.67659
-0.684376 -0.155196
0.149236 -1.93703
0.182692 -1.99989
0.189317 -2.02684
0.916315 -4.99679
-0.587379 -0.126371
-17.0458 -65.637
-5.2302 -67.3161
-7.55821 -58.0529
2.83406 -14.8991
2.74704 -16.4423
1.40832 -11.0742
4.23771 -23.8557
3.87899 -16.6443
-19.1495 -71.9362
-20.6958 -82.888
-33.8337 -75.8853
3.00679 -17.3125
1.1207 -12.126
2.53303 -18.2103
3.59393 -30.234
4.27928 -20.989
-15.699 -79.8502
-7.0842 -73.6709
-18.6058 -70.3578
-10.139 -70.413
1.76299 -8.09102
1.26721 -6.09885
0.710195 -4.21154
1.12547 -6.07214
2.13741 -7.81075
1.31743 -5.17266
1.94291 -7.44113
2.32211 -9.05886
3.06904 -10.9186
2.89653 -10.5274
1.92463 -6.94176
3.03805 -10.0253
3.66797 -12.8554
3.72812 -13.8128
3.10974 -10.3957
2.02822 -7.28064
3.12253 -11.1007
4.19277 -16.112
3.75531 -13.2285
1.36179 -5.8758
0.824024 -4.12131
1.47345 -5.83485
1.9715 -7.52336
1.81595 -7.59263
0.903778 -4.81941
0.602751 -3.66752
1.05512 -5.16564
1.48841 -6.8993
1.31173 -6.71516
-14.4963 -44.2151
-14.8281 -40.0389
5.57898 -26.1935
4.7958 -26.2277
4.68489 -21.3066
4.768 -30.5099
4.30024 -17.9126
5.10338 -25.3981
4.98088 -30.2371
-18.4218 -53.2461
-20.9328 -49.4702
2.13779 -9.47898
1.99204 -9.67598
1.89928 -9.82382
2.2277 -11.4026
3.44611 -14.5333
3.38673 -13.0167
2.89775 -11.608
3.72863 -13.8769
2.48433 -10.4724
3.27684 -15.4425
3.70234 -17.0715
4.96281 -20.884
4.69361 -17.5186
4.42096 -16.843
4.22073 -15.2831
4.96087 -23.5895
5.03043 -20.8917
4.45512 -16.4131
4.83068 -18.6552
4.18173 -14.911
4.92698 -20.363
5.03694 -23.9424
4.70035 -21.4049
3.42207 -12.8288
2.87051 -10.2259
3.37357 -11.7813
2.53192 -9.0211
2.32528 -8.26013
3.08107 -10.6088
3.72214 -13.1675
3.74782 -14.9146
3.3161 -13.1077
1.9197 -8.67562
1.72578 -8.27003
1.70158 -8.5757
2.16573 -11.4563
5.40286 -36.6186
4.46945 -35.3526
3.4548 -41.454
2.86937 -13.8929
2.67617 -12.1094
2.53159 -12.8632
2.34228 -13.1449
2.97769 -16.3546
4.57797 -20.7653
4.31837 -17.7815
4.16927 -18.8619
3.75899 -20.0137
4.46759 -25.1618
4.10725 -16.9379
4.2826 -16.4898
4.50626 -18.9588
4.45578 -22.0478
3.89614 -17.4575
3.84255 -27.5904
2.41519 -29.3313
1.03916 -29.5158
2.10395 -26.6683
1.57628 -32.4994
3.39275 -30.2119
2.42095 -34.2264
3.6116 -26.8306
4.63766 -27.8351
4.05093 -35.517
0.0261854 -29.9269
2.86232 -18.3556
2.50058 -16.5924
1.97619 -16.5774
1.74738 -20.3683
2.9473 -24.6623
3.6692 -24.2409
3.56819 -22.329
3.17944 -20.2189
1.91688 -24.591
3.39124 -21.4382
3.77678 -19.5044
3.87561 -21.4541
3.4472 -17.3214
4.05996 -24.0056
2.71127 -23.7197
2.53907 -21.6576
3.21953 -15.0943
3.09646 -17.1502
2.43898 -16.4659
2.47693 -13.8791
3.11193 -26.004
2.03129 -26.5262
2.47802 -20.6538
2.0231 -22.4124
2.84526 -11.223
2.36521 -9.42128
2.46024 -9.45795
2.17426 -9.34576
3.11833 -13.3291
2.52821 -12.5035
2.3996 -10.73
2.80895 -13.006
1.98766 -6.84551
1.35956 -5.16536
2.15953 -7.52379
0.237675 -2.29495
1.5658 -5.92882
0.0440183 -1.8436
0.232523 -2.28856
0.953314 -4.12597
-0.791541 -0.0961576
-0.661542 -0.0460193
5.33632 -35.8521
5.04401 -27.602
4.53153 -33.8019
4.97318 -23.8236
4.51241 -35.6627
4.92745 -27.3858
5.47973 -26.8146
5.03885 -30.9964
0 0
0 0
0 0
0 0
0 0
0 0
0 0
0 0
0 0
0 0
0 0
0 0
0 0
0 0
0 0
0 0
0 0
0 0
0 0
0 0
0 0
0 0
0 0
0 0
0 0
0 0
0 0
0 0
0 0
0 0
0 0
0 0
0 0
0 0
0 0
0 0
0 0
0 0
0 0
0 0
0 0
0 0
0 0
0 0
0 0
0 0
0 0
0 0
0 0
0 0
0 0
0 0
0 0
0 0
0 0
0 0
0 0
0 0
0 0
0 0
0 0
0 0
0 0
0 0
0 0
0 0
0 0
0 0
0 0
0 0
0 0
0 0
0 0
0 0
0 0
0 0
0 0
0 0
0 0
0 0
0 0
0 0
0 0
0 0
0 0
0 0
0 0
0 0
0 0
0 0
0 0
0 0
0 0
0 0
0 0
0 0
0 0
0 0
0 0
0 0
0 0
0 0
0 0
0 0
0 0
0 0
0 0
0 0
0 0
0 0
0 0
0 0
0 0
0 0
0 0
0 0
0 0
0 0
0 0
0 0
0 0
0 0
0 0
0 0
0 0
0 0
0 0
0 0
0 0
0 0
0 0
0 0
0 0
0 0
0 0
0 0
0 0
0 0
0 0
0 0
0 0
0 0
0 0
0 0
0 0
0 0
0 0
0 0
0 0
0 0
0 0
0 0
0 0
0 0
0 0
0 0
0 0
0 0
0 0
0 0
0 0
0 0
0 0
0 0
0 0
0 0
0 0
0 0
0 0
0 0
0 0
0 0
0 0
0 0
0 0
0 0
0 0
0 0
0 0
0 0
0 0
0 0
0 0
0 0
0 0
0 0
0 0
0 0
0 0
0 0
0 0
0 0
0 0
0 0
0 0
0 0
0 0
0 0
0 0
0 0
0 0
0 0
0 0
0 0
0 0
0 0
0 0
0 0
0 0
0 0
0 0
0 0
0 0
0 0
0 0
0 0
0 0
0 0
0 0
0 0
0 0
0 0
0 0
0 0
0 0
0 0
0 0
0 0
0 0
0 0
0 0
0 0
0 0
0 0
0 0
0 0
0 0
0 0
0 0
0 0
0 0
0 0
0 0
0 0
0 0
0 0
0 0
0 0
0 0
0 0
0 0
0 0
0 0
0 0
0 0
0 0
0 0
0 0
0 0
0 0
0 0
0 0
0 0
0 0
0 0
0 0
0 0
0 0
0 0
0 0
0 0
0 0
0 0
0 0
0 0
0 0
0 0
0 0
0 0
0 0
0 0
0 0
0 0
0 0
0 0
0 0
0 0
0 0
0 0
0 0
0 0
0 0
0 0
0 0
0 0
0 0
0 0
0 0
0 0
0 0
0 0
0 0
0 0
0 0
0 0
0 0
0 0
0 0
0 0
0 0
0 0
0 0
0 0
0 0
0 0
0 0
0 0
0 0
0 0
0 0
0 0
0 0
0 0
0 0
0 0
0 0
0 0
0 0
0 0
0 0
0 0
0 0
0 0
0 0
0 0
0 0
0 0
0 0
0 0
0 0
0 0
0 0
0 0
0 0
0 0
0 0
0 0
0 0
0 0
0 0
0 0
0 0
0 0
0 0
0 0
0 0
0 0
0 0
0 0
0 0
0 0
0 0
0 0
0 0
0 0
0 0
0 0
0 0
0 0
0 0
0 0
0 0
0 0
0 0
0 0
0 0
0 0
0 0
0 0
0 0
0 0
0 0
0 0
0 0
0 0
0 0
0 0
0 0
0 0
0 0
0 0
0 0
0 0
0 0
0 0
0 0
0 0
0 0
0 0
0 0
0 0
0 0
0 0
0 0
0 0
0 0
0 0
0 0
0 0
0 0
0 0
0 0
0 0
0 0
0 0
0 0
0 0
0 0
0 0
0 0
0 0
0 0
0 0
0 0
0 0
0 0
0 0
0 0
0 0
0 0
0 0
0 0
0 0
0 0
0 0
0 0
0 0
0 0
0 0
0 0
0 0
0 0
0 0
0 0
0 0
0 0
0 0
0 0
0 0
0 0
0 0
0 0
0 0
0 0
0 0
0 0
0 0
0 0
0 0
0 0
0 0
0 0
0 0
0 0
0 0
0 0
0 0
0 0
0 0
0 0
0 0
0 0
0 0
0 0
0 0
0 0
0 0
0 0
0 0
0 0
0 0
0 0
0 0
0 0
0 0
0 0
0 0
0 0
0 0
0 0
0 0
0 0
0 0
0 0
0 0
0 0
0 0
0 0
0 0
0 0
0 0
0 0
0 0
0 0
0 0
0 0
0 0
0 0
0 0
0 0
0 0
0 0
0 0
0 0
0 0
0 0
0 0
0 0
0 0
0 0
0 0
0 0
0 0
0 0
0 0
0 0
0 0
0 0
0 0
0 0
0 0
0 0
0 0
0 0
0 0
0 0
0 0
0 0
0 0
0 0
0 0
0 0
0 0
0 0
0 0
0 0
0 0
0 0
0 0
0 0
0 0
0 0
0 0
0 0
0 0
0 0
0 0
0 0
0 0
0 0
0 0
0 0
0 0
0 0
0 0
0 0
0 0
0 0
0 0
0 0
0 0
0 0
0 0
0 0
0 0
0 0
0 0
0 0
0 0
0 0
0 0
0 0
0 0
0 0
0 0
0 0
0 0
0 0
0 0
0 0
0 0
0 0
0 0
0 0
0 0
0 0
0 0
0 0
0 0
0 0
0 0
0 0
0 0
0 0
0 0
0 0
0 0
0 0
0 0
0 0
0 0
0 0
0 0
0 0
0 0
0 0
0 0
0 0
0 0
0 0
0 0
0 0
0 0
0 0
0 0
0 0
0 0
0 0
0 0
0 0
0 0
0 0
0 0
0 0
0 0
0 0
0 0
0 0
0 0
0 0
0 0
0 0
0 0
0 0
0 0
0 0
0 0
0 0
0 0
0 0
0 0
0 0
0 0
0 0
0 0
0 0
0 0
0 0
0 0
0 0
0 0
0 0
0 0
0 0
0 0
0 0
0 0
0 0
0 0
0 0
0 0
0 0
0 0
0 0
0 0
0 0
0 0
0 0
0 0
0 0
0 0
0 0
0 0
0 0
0 0
0 0
0 0
0 0
0 0
0 0
0 0
0 0
0 0
0 0
0 0
0 0
0 0
0 0
0 0
0 0
0 0
0 0
0 0
0 0
0 0
0 0
0 0
0 0
0 0
0 0
0 0
0 0
0 0
0 0
0 0
0 0
0 0
0 0
0 0
0 0
0 0
0 0
0 0
0 0
0 0
0 0
0 0
0 0
0 0
0 0
0 0
0 0
0 0
0 0
0 0
0 0
0 0
0 0
0 0
0 0
0 0
0 0
0 0
0 0
0 0
0 0
0 0
0 0
0 0
0 0
0 0
0 0
0 0
0 0
0 0
0 0
0 0
0 0
0 0
0 0
0 0
0 0
0 0
0 0
0 0
0 0
0 0
0 0
0 0
0 0
0 0
0 0
0 0
0 0
0 0
0 0
0 0
0 0
0 0
0 0
0 0
0 0
0 0
0 0
0 0
0 0
0 0
0 0
0 0
0 0
0 0
0 0
0 0
0 0
0 0
0 0
0 0
0 0
0 0
0 0
0 0
0 0
0 0
0 0
0 0
0 0
0 0
0 0
0 0
0 0
0 0
0 0
0 0
0 0
0 0
0 0
0 0
0 0
0 0
0 0
0 0
0 0
0 0
0 0
0 0
0 0
0 0
0 0
0 0
0 0
0 0
0 0
0 0
0 0
0 0
0 0
0 0
0 0
0 0
0 0
0 0
0 0
0 0
0 0
0 0
0 0
0 0
0 0
0 0
0 0
0 0
0 0
0 0
0 0
0 0
0 0
0 0
0 0
0 0
0 0
0 0
0 0
0 0
0 0
0 0
0 0
0 0
0 0
0 0
0 0
0 0
0 0
0 0
0 0
0 0
0 0
0 0
0 0
0 0
0 0
0 0
0 0
0 0
0 0
0 0
0 0
0 0
0 0
0 0
0 0
0 0
0 0
0 0
0 0
0 0
0 0
0 0
0 0
0 0
0 0
0 0
0 0
0 0
0 0
0 0
0 0
0 0
0 0
0 0
0 0
0 0
0 0
0 0
0 0
0 0
0 0
0 0
0 0
0 0
0 0
0 0
0 0
0 0
0 0
0 0
0 0
0 0
0 0
0 0
0 0
0 0
0 0
0 0
0 0
0 0
0 0
0 0
0 0
0 0
0 0
0 0
0 0
0 0
0 0
0 0
0 0
0 0
0 0
0 0
0 0
0 0
0 0
0 0
0 0
0 0
0 0
0 0
0 0
0 0
0 0
0 0
0 0
0 0
0 0
0 0
0 0
0 0
0 0
0 0
0 0
0 0
0 0
0 0
0 0
0 0
0 0
0 0
0 0
0 0
0 0
0 0
0 0
0 0
0 0
0 0
0 0
0 0
0 0
0 0
0 0
0 0
0 0
0 0
0 0
0 0
0 0
0 0
0 0
0 0
0 0
0 0
0 0
0 0
0 0
0 0
0 0
0 0
0 0
0 0
0 0
0 0
0 0
0 0
0 0
0 0
0 0
0 0
0 0
0 0
0 0
0 0
0 0
0 0
0 0
0 0
0 0
0 0
0 0
0 0
0 0
0 0
0 0
0 0
0 0
0 0
0 0
0 0
0 0
0 0
0 0
0 0
0 0
0 0
0 0
0 0
0 0
0 0
0 0
0 0
0 0
0 0
0 0
0 0
0 0
0 0
0 0
0 0
0 0
0 0
0 0
0 0
0 0
0 0
0 0
0 0
0 0
0 0
0 0
0 0
0 0
0 0
0 0
0 0
0 0
0 0
0 0
0 0
0 0
0 0
0 0
0 0
0 0
0 0
0 0
0 0
0 0
0 0
0 0
0 0
0 0
0 0
0 0
0 0
0 0
0 0
0 0
0 0
0 0
0 0
0 0
0 0
0 0
0 0
0 0
0 0
0 0
0 0
0 0
0 0
0 0
0 0
0 0
0 0
0 0
0 0
0 0
0 0
0 0
0 0
0 0
0 0
0 0
0 0
0 0
0 0
0 0
0 0
0 0
0 0
0 0
0 0
0 0
0 0
0 0
0 0
0 0
0 0
0 0
0 0
0 0
0 0
0 0
0 0
0 0
0 0
0 0
0 0
0 0
0 0
0 0
0 0
0 0
0 0
0 0
0 0
0 0
0 0
0 0
0 0
0 0
0 0
0 0
0 0
0 0
0 0
0 0
0 0
0 0
0 0
0 0
0 0
0 0
0 0
0 0
0 0
0 0
0 0
0 0
0 0
0 0
0 0
0 0
0 0
0 0
0 0
0 0
0 0
0 0
0 0
0 0
0 0
0 0
0 0
0 0
0 0
0 0
0 0
0 0
0 0
0 0
0 0
0 0
0 0
0 0
0 0
0 0
0 0
0 0
0 0
0 0
0 0
0 0
0 0
0 0
0 0
0 0
0 0
0 0
0 0
0 0
0 0
0 0
0 0
0 0
0 0
0 0
0 0
0 0
0 0
0 0
0 0
0 0
0 0
0 0
0 0
0 0
0 0
0 0
0 0
0 0
0 0
0 0
0 0
0 0
0 0
0 0
0 0
0 0
0 0
0 0
0 0
0 0
0 0
0 0
0 0
0 0
0 0
0 0
0 0
0 0
0 0
0 0
0 0
0 0
0 0
0 0
0 0
0 0
0 0
0 0
0 0
0 0
0 0
0 0
0 0
0 0
0 0
0 0
0 0
0 0
0 0
0 0
0 0
0 0
0 0
0 0
0 0
0 0
0 0
0 0
0 0
0 0
0 0
0 0
0 0
0 0
0 0
0 0
0 0
0 0
0 0
0 0
0 0
0 0
0 0
0 0
0 0
0 0
0 0
0 0
0 0
0 0
0 0
0 0
0 0
0 0
0 0
0 0
0 0
0 0
0 0
0 0
0 0
0 0
0 0
0 0
0 0
0 0
0 0
0 0
0 0
0 0
0 0
0 0
0 0
0 0
0 0
0 0
0 0
0 0
0 0
0 0
0 0
0 0
0 0
0 0
0 0
0 0
0 0
0 0
0 0
0 0
0 0
0 0
0 0
0 0
0 0
0 0
0 0
0 0
0 0
0 0
0 0
0 0
0 0
0 0
0 0
0 0
0 0
0 0
0 0
0 0
0 0
0 0
0 0
0 0
0 0
0 0
0 0
0 0
0 0
0 0
0 0
0 0
0 0
0 0
0 0
0 0
0 0
0 0
0 0
0 0
0 0
0 0
0 0
0 0
0 0
0 0
0 0
0 0
0 0
0 0
0 0
0 0
0 0
0 0
0 0
0 0
0 0
0 0
0 0
0 0
0 0
0 0
0 0
0 0
0 0
0 0
0 0
0 0
0 0
0 0
0 0
0 0
0 0
0 0
0 0
0 0
0 0
0 0
0 0
0 0
0 0
0 0
0 0
0 0
0 0
0 0
0 0
0 0
0 0
0 0
0 0
0 0
0 0
0 0
0 0
0 0
0 0
0 0
0 0
0 0
0 0
0 0
0 0
0 0
0 0
0 0
0 0
0 0
0 0
0 0
0 0
0 0
0 0
0 0
0 0
0 0
0 0
0 0
0 0
0 0
0 0
0 0
0 0
0 0
0 0
0 0
0 0
0 0
0 0
0 0
0 0
0 0
0 0
0 0
0 0
0 0
0 0
0 0
0 0
0 0
0 0
0 0
0 0
0 0
0 0
0 0
0 0
0 0
0 0
0 0
0 0
0 0
0 0
0 0
0 0
0 0
0 0
0 0
0 0
0 0
0 0
0 0
0 0
0 0
0 0
0 0
0 0
0 0
0 0
0 0
0 0
0 0
0 0
0 0
0 0
0 0
0 0
0 0
0 0
0 0
0 0
0 0
0 0
0 0
0 0
0 0
0 0
0 0
0 0
0 0
0 0
0 0
0 0
0 0
0 0
0 0
0 0
0 0
0 0
0 0
0 0
0 0
0 0
0 0
0 0
0 0
0 0
0 0
0 0
0 0
0 0
0 0
0 0
0 0
0 0
0 0
0 0
0 0
0 0
0 0
0 0
0 0
0 0
0 0
0 0
0 0
0 0
0 0
0 0
0 0
0 0
0 0
0 0
0 0
0 0
0 0
0 0
0 0
0 0
0 0
0 0
0 0
0 0
0 0
0 0
0 0
0 0
0 0
0 0
0 0
0 0
0 0
0 0
0 0
0 0
0 0
0 0
0 0
0 0
0 0
0 0
0 0
0 0
0 0
0 0
0 0
0 0
0 0
0 0
0 0
0 0
0 0
0 0
0 0
0 0
0 0
0 0
0 0
0 0
0 0
0 0
0 0
0 0
0 0
0 0
0 0
0 0
0 0
0 0
0 0
0 0
0 0
0 0
0 0
0 0
0 0
0 0
0 0
0 0
0 0
0 0
0 0
0 0
0 0
0 0
0 0
0 0
0 0
0 0
0 0
0 0
0 0
0 0
0 0
0 0
0 0
0 0
0 0
0 0
0 0
0 0
0 0
0 0
0 0
0 0
0 0
0 0
0 0
0 0
0 0
0 0
0 0
0 0
0 0
0 0
0 0
0 0
0 0
0 0
0 0
0 0
0 0
0 0
0 0
0 0
0 0
0 0
0 0
0 0
0 0
0 0
0 0
0 0
0 0
0 0
0 0
0 0
0 0
0 0
0 0
0 0
0 0
0 0
0 0
0 0
0 0
0 0
0 0
0 0
0 0
0 0
0 0
0 0
0 0
0 0
0 0
0 0
0 0
0 0
0 0
0 0
0 0
0 0
0 0
0 0
0 0
0 0
0 0
0 0
0 0
0 0
0 0
0 0
0 0
0 0
0 0
0 0
0 0
0 0
0 0
0 0
0 0
0 0
0 0
0 0
0 0
0 0
0 0
0 0
0 0
0 0
0 0
0 0
0 0
0 0
0 0
0 0
0 0
0 0
0 0
0 0
0 0
0 0
0 0
0 0
0 0
0 0
0 0
0 0
0 0
0 0
0 0
0 0
0 0
0 0
0 0
0 0
0 0
0 0
0 0
0 0
0 0
0 0
0 0
0 0
0 0
0 0
0 0
0 0
0 0
0 0
0 0
0 0
0 0
0 0
0 0
0 0
0 0
0 0
0 0
0 0
0 0
0 0
0 0
0 0
0 0
0 0
0 0
0 0
0 0
0 0
0 0
0 0
0 0
0 0
0 0
0 0
0 0
0 0
0 0
0 0
0 0
0 0
0 0
0 0
0 0
0 0
0 0
0 0
0 0
0 0
0 0
0 0
0 0
0 0
0 0
0 0
0 0
0 0
0 0
0 0
0 0
0 0
0 0
0 0
0 0
0 0
0 0
0 0
0 0
0 0
0 0
0 0
0 0
0 0
0 0
0 0
0 0
0 0
0 0
0 0
0 0
0 0
0 0
0 0
0 0
0 0
0 0
0 0
0 0
0 0
0 0
0 0
0 0
0 0
0 0
0 0
0 0
0 0
0 0
0 0
0 0
0 0
0 0
0 0
0 0
0 0
0 0
0 0
0 0
0 0
0 0
0 0
0 0
0 0
0 0
0 0
0 0
0 0
0 0
0 0
0 0
0 0
0 0
0 0
0 0
0 0
0 0
0 0
0 0
0 0
0 0
0 0
0 0
0 0
0 0
0 0
0 0
0 0
0 0
0 0
0 0
0 0
0 0
0 0
0 0
0 0
0 0
0 0
0 0
0 0
0 0
0 0
0 0
0 0
0 0
0 0
0 0
0 0
0 0
0 0
0 0
0 0
0 0
0 0
0 0
0 0
0 0
0 0
0 0
0 0
0 0
0 0
0 0
0 0
0 0
0 0
0 0
0 0
0 0
0 0
0 0
0 0
0 0
0 0
0 0
0 0
0 0
0 0
0 0
0 0
0 0
0 0
0 0
0 0
0 0
0 0
0 0
0 0
0 0
0 0
0 0
0 0
0 0
0 0
0 0
0 0
0 0
0 0
0 0
0 0
0 0
0 0
0 0
0 0
0 0
0 0
0 0
0 0
0 0
0 0
0 0
0 0
0 0
0 0
0 0
0 0
0 0
0 0
0 0
0 0
0 0
0 0
0 0
0 0
0 0
0 0
0 0
0 0
0 0
0 0
0 0
0 0
0 0
0 0
0 0
0 0
0 0
0 0
0 0
0 0
0 0
0 0
0 0
0 0
0 0
0 0
0 0
0 0
0 0
0 0
0 0
0 0
0 0
0 0
0 0
0 0
0 0
0 0
0 0
0 0
0 0
0 0
0 0
0 0
0 0
0 0
0 0
0 0
0 0
0 0
0 0
0 0
0 0
0 0
0 0
0 0
0 0
0 0
0 0
0 0
0 0
0 0
0 0
0 0
0 0
0 0
0 0
0 0
0 0
0 0
0 0
0 0
0 0
0 0
0 0
0 0
0 0
0 0
0 0
0 0
0 0
0 0
0 0
0 0
0 0
0 0
0 0
0 0
0 0
0 0
0 0
0 0
0 0
0 0
0 0
0 0
0 0
0 0
0 0
0 0
0 0
0 0
0 0
0 0
0 0
0 0
0 0
0 0
0 0
0 0
0 0
0 0
0 0
0 0
0 0
0 0
0 0
0 0
0 0
0 0
0 0
0 0
0 0
0 0
0 0
0 0
0 0
0 0
0 0
0 0
0 0
0 0
0 0
0 0
0 0
0 0
0 0
0 0
0 0
0 0
0 0
0 0
0 0
0 0
0 0
0 0
0 0
0 0
0 0
0 0
0 0
0 0
0 0
0 0
0 0
0 0
0 0
0 0
0 0
0 0
0 0
0 0
0 0
0 0
0 0
0 0
0 0
0 0
0 0
0 0
0 0
0 0
0 0
0 0
0 0
0 0
0 0
0 0
0 0
0 0
0 0
0 0
0 0
0 0
0 0
0 0
0 0
0 0
0 0
0 0
0 0
0 0
0 0
0 0
0 0
0 0
0 0
0 0
0 0
0 0
0 0
0 0
0 0
0 0
0 0
0 0
0 0
0 0
0 0
0 0
0 0
0 0
0 0
0 0
0 0
0 0
0 0
0 0
0 0
0 0
0 0
0 0
0 0
0 0
0 0
0 0
0 0
0 0
0 0
0 0
0 0
0 0
0 0
0 0
0 0
0 0
0 0
0 0
0 0
0 0
0 0
0 0
0 0
0 0
0 0
0 0
0 0
0 0
0 0
0 0
0 0
0 0
0 0
0 0
0 0
0 0
0 0
0 0
0 0
0 0
0 0
0 0
0 0
0 0
0 0
      </DataArray> 
      <DataArray type="Float64" NumberOfComponents="1" Name="CauchyShearStress" format="ascii">
-3.36132
2.94371
-0.969999
0.274613
0.151636
0.201451
0.141392
0.0636542
-0.0276668
-0.0426949
-0.0398317
-0.0606947
-0.0815792
-0.060272
-0.029496
-0.0223653
-0.0233273
0.0129239
0.0433234
0.0426689
0.0335972
0.0600581
0.0688695
0.0270969
-0.0269617
-0.0358522
-0.0812555
-0.300728
-0.378615
-0.490815
0.318578
0.0156141
0.149445
0.340152
-3.82367
0.0231618
0.126838
0.149656
0.139574
0.0603265
0.0571189
0.103837
0.156835
0.153722
0.215174
0.177774
0.236946
0.298624
0.337923
0.33766
0.36267
0.370782
0.386616
0.161505
-0.0862646
-0.170907
-0.263277
-0.333689
-0.402146
0.0456319
0.51321
0.727875
1.44133
-16.8367
-8.45893
-3.60709
-5.42052
-6.70168
-9.60869
0.123975
-16.1558
-14.0462
-10.7377
17.0492
-1.47225
-11.3972
16.9692
-3.56757
8.72517
3.7379
5.48044
6.72535
9.62537
-0.207904
-0.674496
-0.815304
-1.7002
5.49301e-05
-0.0646059
0.162595
0.281412
0.49715
0.512687
0.0857478
-0.0971327
-0.17185
-0.251149
-0.318762
-0.359729
-0.388462
-0.401935
-0.430466
-0.381767
-0.370295
-0.358632
-0.322204
-0.327858
-0.247493
-0.158702
-0.122592
-0.147315
0.359827
0.708001
3.98677
1.13242
-9.12555
-5.35888
-9.30866
10.396
5.92847
2.57013
2.49056
-2.19508
-0.207859
-8.81128
8.81347
-2.08175
-2.243
-4.35336
-4.10257
4.65908
-3.6365
4.07563
-3.99158
-4.09264
4.42367
4.44557
-3.51494
-3.34547
-3.94988
-1.9457
1.45648
2.02533
4.48463
3.7283
5.05888
-4.58653
-5.31079
-5.56691
-5.33034
5.85075
4.91281
-2.04005
0.449285
1.88847
-3.41634
3.54681
-2.57063
-3.01299
-3.46662
-3.17211
3.35485
3.82405
3.43598
2.72242
-3.24876
-3.35498
-2.89212
-1.4738
0.632222
2.94125
-3.02987
-2.96818
3.46305
3.56325
3.14598
3.08302
3.54749
4.85843
-4.31222
-5.02889
-3.90551
-5.77899
-6.44183
5.74745
3.31926
-2.33158
-1.5924
-0.156281
-0.780647
0.609682
1.50865
1.05689
2.12695
-3.06278
-3.14651
3.08509
3.13057
-2.43526
-2.07718
-2.29603
-2.03453
-2.30773
-2.87114
3.07079
2.61458
2.32223
2.44002
2.11218
2.41505
-2.99355
-2.86559
-3.97082
0.0837879
2.25295
-1.86835
2.10641
2.95728
2.77492
5.99642
-7.30155
-1.61479
-7.97108
8.34759
6.7259
4.75207
-2.35189
-1.74118
-0.616223
0.433237
1.31985
2.13327
-2.92543
2.85374
-2.03821
-1.43316
-2.04262
2.13754
1.56061
2.09932
-2.37042
-2.58396
-2.6397
-2.42063
-1.3482
-1.00276
-9.97434
-1.78365
7.80031
-0.255008
0.262252
1.57923
2.18068
2.43387
2.46292
1.99528
8.00426
-7.92235
0.977062
2.98209
-9.90412
-2.57971
-2.11522
9.21062
3.02163
-2.22488
-2.21535
-1.64779
-2.02674
-0.834333
-1.21383
0.103636
-0.256811
0.788288
0.482985
1.60604
1.231
2.22706
1.90123
-2.29717
-2.67315
-2.78977
2.31718
2.65539
2.64138
2.06814
-1.93519
-0.88064
-0.833683
-1.33747
1.35803
0.996942
0.946532
2.05629
-1.39011
-1.92641
-1.69413
-1.35223
-0.498112
-17.3981
-6.68659
-0.534413
4.25513
18.4419
1.3074
-1.28713
1.29776
2.15254
1.40748
12.9708
6.74305
-10.9635
-6.89443
6.859
-11.3477
0.867946
-5.22066
5.42811
7.7859
-2.25856
-1.435
-0.774986
-0.153243
0.412464
0.983029
1.80963
-2.52589
-1.90977
2.15736
2.13041
-1.18708
-0.909016
-2.24198
1.75853
0.704519
1.22694
-1.48324
1.65893
-0.434211
-0.809391
-0.717466
-1.02864
-0.786286
-0.918588
-0.753722
-0.604655
-0.325621
-32.5507
-4.85456
3.95081
29.266
0.0853794
0.612296
1.38941
1.90144
4.27971
-3.68871
-1.89609
-1.23595
-0.551783
0.0416631
0.471185
0.665043
0.583847
0.976299
0.392125
0.517694
0.604521
0.66811
10.0686
16.5423
9.24814
-9.83835
-13.107
-16.4851
6.88917
8.67738
9.28311
-6.18936
-13.6266
-9.71293
-1.22953
-2.17736
-0.887886
-0.769677
-0.780205
-0.544544
-0.508089
-0.542344
-0.290187
-0.196506
-0.251381
0.0296429
0.125113
0.0784302
0.324026
0.39144
0.367985
0.573113
0.563042
0.598504
1.00923
2.11684
1.10167
-0.535346
-0.491614
0.77081
0.848451
-2.45892
-2.66847
2.33752
2.37968
2.50431
-0.468639
-0.804921
0.916215
0.692521
-0.859386
0.789847
-1.22547
-0.977261
0.858289
1.087
-1.90146
-3.93876
-1.96738
1.92594
2.05813
3.21152
2.67779
-3.13593
1.883
-2.11492
0.0922269
-0.0176953
2.58062
-2.71557
1.6314
-1.07197
2.36544
1.31272
0.686427
0.150178
-0.456064
-1.08937
-1.82783
-2.38839
-7.90994
11.4819
-12.6366
12.8339
1.24405
1.63653
0.283876
-2.99683
3.58938
0.146058
13.7006
-16.9241
-0.779001
-1.66093
-2.15348
-1.72172
1.4205
-1.90846
6.15755
-3.34256
-1.41776
1.73818
1.52337
-1.28191
-1.68283
2.74845
2.80451
-2.96676
-2.72903
2.37595
1.79854
0.854779
0.00318207
-1.24245
-2.17563
-2.41195
6.8244
1.25991
-2.42382
-1.59699
-6.78917
4.60605
2.81471
2.73253
1.6033
-1.74717
-2.10206
-3.08786
6.58116
-5.99687
2.41163
3.25732
3.6662
-3.25222
-2.89062
-2.45768
3.33528
-3.33275
1.2479
-0.344716
4.74197
-6.63063
4.22224
-4.20463
3.87701
-3.60201
5.08516
-4.58247
-3.67502
-17.4226
-1.88526
-20.4309
-14.3644
-2.29456
-10.4695
1.68894
13.4572
26.6685
2.53139
16.2096
14.2662
-15.4164
-23.3694
-23.946
-24.028
-12.5976
-16.0509
-18.3785
-13.949
-13.4741
-12.8554
-14.929
-11.2999
-19.4165
-24.3148
-8.24678
-11.382
14.101
24.3633
22.224
18.4665
12.6835
16.1453
14.369
12.1886
14.0053
12.9673
11.4642
15.0167
8.36559
19.5611
24.4403
11.5512
12.7471
1.14282
4.40527
1.44835
38.883
10.6087
44.6347
19.368
8.05421
-15.0053
-5.92013
-1.29302
-45.7894
-38.0624
-17.4934
-1.89324
-10.2653
-22.8962
12.9015
13.2182
2.45484
7.76354
-1.93625
9.84892
7.06094
-12.1073
-6.9145
-16.5942
1.65147
2.48857
-2.54642
-10.1852
-0.0260402
0.844168
-8.75173
-10.4644
-4.64029
1.07267
6.69211
-3.92139
10.2995
6.26128
17.9562
26.0853
25.9766
17.4961
18.9888
14.1301
14.4242
1.84268
1.54211
4.68038
-0.112588
8.36096
1.22367
-0.992619
-3.6838
-6.42589
-2.49284
-11.1594
-3.78884
-15.7956
-25.0123
-26.4607
-16.4645
-18.5507
-13.8415
-13.2277
8.96472
10.3297
7.7477
8.07975
-6.95605
-11.134
-5.20346
-7.30647
7.47025
8.56898
7.92368
7.66405
7.30276
7.06307
8.15643
5.26325
6.16995
7.34178
6.27557
-6.96467
-5.96962
-6.13474
-5.51035
-4.05783
-6.77446
4.10624
4.64398
4.74706
3.45863
3.43171
2.9972
2.52707
1.91443
-1.63254
-0.876113
-0.740002
-0.111566
0.877893
-0.912996
-3.81666
-4.50488
-3.46323
-5.25558
-2.65119
-2.29599
-3.02288
-2.17403
-1.65648
-2.30847
-1.18132
-2.36557
-2.68009
10.8049
9.38713
11.5433
10.473
14.0195
16.186
13.0685
6.99413
9.65813
6.64318
33.9656
38.5967
-6.5266
-9.50471
-6.83448
-10.3478
-32.7559
-37.4668
-12.9182
-11.3072
-9.17544
-10.8913
12.4942
1.96873
5.03157
3.5588
5.86647
0.638265
10.6756
6.20339
3.59634
9.43957
9.16563
7.87129
7.84959
12.7221
12.2882
8.60469
14.1336
-13.1465
-7.86172
-11.9931
-6.04528
-13.7642
-8.59244
-8.23795
-9.92366
-5.83958
-13.323
-8.34303
-7.44347
-4.71256
-3.3854
-2.92588
-3.54715
-1.6234
-1.78393
-6.01319
-8.40542
-6.20031
-7.53318
-8.74531
-9.46774
-8.95169
-9.38883
-7.79104
-8.22076
-7.48955
0.579539
1.72112
1.10181
2.91722
-0.54212
0.199332
1.89099
-0.330664
9.59033
11.9707
6.1768
13.8823
11.1117
5.06836
3.22059
4.06165
10.9116
19.3024
16.6608
20.1651
12.6066
16.0764
20.568
12.9406
-27.8075
-42.7719
-32.137
-18.4112
-31.6108
-68.6608
46.2236
17.1053
31.2803
30.194
12.6613
64.6519
13.6603
2.96604
3.46786
2.17761
-24.4183
-16.4184
-0.459579
9.74082
5.63643
-4.6034
-5.70664
-0.239676
-9.12223
-5.22679
2.7791
5.70426
-4.25278
-12.0521
11.2028
8.34465
9.77431
7.75499
6.8851
6.20966
10.3171
10.3768
11.189
-1.77022
6.91997
4.76774
7.0345
-0.478097
-9.75631
-4.67421
-11.0211
-4.82229
-9.7189
22.2051
4.75075
2.20547
-6.19794
-6.27472
11.6689
-6.54336
-6.36018
-10.7949
-3.25569
-6.33975
-11.1427
-12.4577
-6.07481
-0.80489
4.33314
-9.53485
-8.43134
-7.17733
0.343053
0.846548
-0.890763
-1.26903
-3.82981
0.516418
5.74714
-2.92667
1.35789
2.88862
1.99743
4.00426
4.02944
3.71639
9.09748
7.81157
9.05692
8.53984
7.31877
9.81122
-2.38803
-0.995436
2.55618
-3.58721
-0.0202686
6.75394
-7.97459
-9.18041
-6.42399
-8.14394
-4.83328
-11.2716
-10.4655
-10.136
-6.44038
-8.30672
-9.37264
-9.96967
-4.25393
-7.56487
-7.8184
-6.31286
5.33082
4.04535
6.14979
2.01163
2.94335
5.76412
5.16547
-12.6152
-11.9098
-10.5858
-7.68406
-5.84496
-8.90315
-15.281
-9.79307
-8.11821
-16.8666
-2.0571
-17.4299
-11.7403
-3.26836
-19.0161
-17.8661
-23.5388
-3.46039
-4.50385
-7.86837
-4.93757
-3.55431
-12.0854
-45.2188
-3.00697
-7.18196
23.4233
28.5846
21.7367
4.3538
5.28726
7.89063
3.955
4.0642
3.2246
11.7497
42.5816
9.27766
0.781499
0.136193
0.26794
0.087835
-0.09145
-0.0294289
0.349729
1.34042
1.08925
0.626805
0.172447
0.0747726
0.152472
-0.0141419
-0.103846
1.14896
0.226911
0.026345
0.115903
0.0192883
-0.106348
-0.0570531
0.151161
0.434804
0.153865
-0.220436
-0.165596
-0.0179979
-0.224999
0.42906
0.40383
-0.202484
-1.48148
-0.634884
-0.501001
-0.75665
0.326177
0.26383
-0.394571
-2.09363
-2.41987
-2.77024
-1.67311
-0.934548
-1.99792
0.151781
0.0682778
-3.32057
3.06517
0.893352
1.9188
0.724101
-0.42809
-0.505966
2.33181
3.98457
2.80789
1.57223
0.566928
0.638573
0.456168
-0.500639
-0.301334
2.44473
0.30483
0.0417023
0.178544
0.0240167
-0.192593
0.00993003
0.240321
0.434538
0.133647
-0.461517
-0.0965646
-0.0348279
-0.159339
0.364956
0.363985
0.00550647
-0.542122
-0.720057
-0.820806
-0.248988
-0.215238
-0.313873
0.357508
0.327862
-0.173058
-1.20013
-1.30728
0.361484
-0.201443
-0.241849
-0.312014
-1.46021
0.253155
13.2824
6.76568
8.14351
-4.4749
-5.73154
-4.90355
-6.50396
-4.07498
-10.6209
-12.1666
-13.2946
5.4684
5.52703
6.97456
8.94634
5.14175
-0.161327
-6.97537
-0.477223
4.7281
1.87067
1.55438
1.08492
1.74802
0.892985
0.560191
0.97902
1.4819
0.814261
-1.33344
-0.840711
-0.922096
-0.426897
-2.0866
0.969596
0.953499
1.44411
2.30267
0.654133
-1.0853
-0.668295
-0.970618
-1.04629
-1.49702
-1.27129
-0.848523
-1.30532
-1.65855
-1.90181
10.2641
9.66392
-2.38808
-4.07483
-3.55312
-5.04268
-2.63674
-0.514237
-0.424939
-11.2924
-9.92858
2.03214
2.30518
2.4552
2.62877
1.90411
1.4155
1.74974
0.904497
1.91408
2.43178
2.13598
-0.820297
-1.71245
-0.563008
0.243602
0.704018
0.30586
0.604929
1.16114
-0.033358
2.37251
-0.34166
-0.927087
-1.21042
-0.893032
-0.733414
-1.04558
-0.66922
-0.228172
-0.385622
-1.53333
-1.71496
-2.0351
-2.05116
-2.27702
-2.77596
-2.36742
0.114164
0.920066
2.56652
2.29747
2.67356
2.90619
2.8733
1.11932
1.0041
1.80822
2.4703
1.7482
-1.42839
-0.676253
-1.05332
-1.72612
-2.00471
2.35545
3.97426
4.79167
4.00956
-4.72407
-2.87113
-3.65127
-2.76436
-1.55058
-1.93037
-5.25364
3.14368
3.22921
3.46978
3.8561
3.39868
2.73995
2.78057
3.07134
4.07925
-3.00121
-2.45415
-2.44025
-2.57093
-2.32504
-3.5896
-3.60738
-2.4672
-2.95758
-3.28507
-2.96551
-3.36926
-4.10204
3.55106
3.83374
-1.69822
-1.70359
-1.3775
-1.89282
-2.11364
-2.65093
-2.23808
-2.46974
-0.334407
-0.0909739
-0.179455
-0.0338909
-0.481915
-0.0184304
-0.0282127
-0.28021
0.203155
0.0949608
2.84517
4.61255
5.14115
3.0616
0.116343
-0.320885
1.74747
0.348509
0
0
0
0
0
0
0
0
0
0
0
0
0
0
0
0
0
0
0
0
0
0
0
0
0
0
0
0
0
0
0
0
0
0
0
0
0
0
0
0
0
0
0
0
0
0
0
0
0
0
0
0
0
0
0
0
0
0
0
0
0
0
0
0
0
0
0
0
0
0
0
0
0
0
0
0
0
0
0
0
0
0
0
0
0
0
0
0
0
0
0
0
0
0
0
0
0
0
0
0
0
0
0
0
0
0
0
0
0
0
0
0
0
0
0
0
0
0
0
0
0
0
0
0
0
0
0
0
0
0
0
0
0
0
0
0
0
0
0
0
0
0
0
0
0
0
0
0
0
0
0
0
0
0
0
0
0
0
0
0
0
0
0
0
0
0
0
0
0
0
0
0
0
0
0
0
0
0
0
0
0
0
0
0
0
0
0
0
0
0
0
0
0
0
0
0
0
0
0
0
0
0
0
0
0
0
0
0
0
0
0
0
0
0
0
0
0
0
0
0
0
0
0
0
0
0
0
0
0
0
0
0
0
0
0
0
0
0
0
0
0
0
0
0
0
0
0
0
0
0
0
0
0
0
0
0
0
0
0
0
0
0
0
0
0
0
0
0
0
0
0
0
0
0
0
0
0
0
0
0
0
0
0
0
0
0
0
0
0
0
0
0
0
0
0
0
0
0
0
0
0
0
0
0
0
0
0
0
0
0
0
0
0
0
0
0
0
0
0
0
0
0
0
0
0
0
0
0
0
0
0
0
0
0
0
0
0
0
0
0
0
0
0
0
0
0
0
0
0
0
0
0
0
0
0
0
0
0
0
0
0
0
0
0
0
0
0
0
0
0
0
0
0
0
0
0
0
0
0
0
0
0
0
0
0
0
0
0
0
0
0
0
0
0
0
0
0
0
0
0
0
0
0
0
0
0
0
0
0
0
0
0
0
0
0
0
0
0
0
0
0
0
0
0
0
0
0
0
0
0
0
0
0
0
0
0
0
0
0
0
0
0
0
0
0
0
0
0
0
0
0
0
0
0
0
0
0
0
0
0
0
0
0
0
0
0
0
0
0
0
0
0
0
0
0
0
0
0
0
0
0
0
0
0
0
0
0
0
0
0
0
0
0
0
0
0
0
0
0
0
0
0
0
0
0
0
0
0
0
0
0
0
0
0
0
0
0
0
0
0
0
0
0
0
0
0
0
0
0
0
0
0
0
0
0
0
0
0
0
0
0
0
0
0
0
0
0
0
0
0
0
0
0
0
0
0
0
0
0
0
0
0
0
0
0
0
0
0
0
0
0
0
0
0
0
0
0
0
0
0
0
0
0
0
0
0
0
0
0
0
0
0
0
0
0
0
0
0
0
0
0
0
0
0
0
0
0
0
0
0
0
0
0
0
0
0
0
0
0
0
0
0
0
0
0
0
0
0
0
0
0
0
0
0
0
0
0
0
0
0
0
0
0
0
0
0
0
0
0
0
0
0
0
0
0
0
0
0
0
0
0
0
0
0
0
0
0
0
0
0
0
0
0
0
0
0
0
0
0
0
0
0
0
0
0
0
0
0
0
0
0
0
0
0
0
0
0
0
0
0
0
0
0
0
0
0
0
0
0
0
0
0
0
0
0
0
0
0
0
0
0
0
0
0
0
0
0
0
0
0
0
0
0
0
0
0
0
0
0
0
0
0
0
0
0
0
0
0
0
0
0
0
0
0
0
0
0
0
0
0
0
0
0
0
0
0
0
0
0
0
0
0
0
0
0
0
0
0
0
0
0
0
0
0
0
0
0
0
0
0
0
0
0
0
0
0
0
0
0
0
0
0
0
0
0
0
0
0
0
0
0
0
0
0
0
0
0
0
0
0
0
0
0
0
0
0
0
0
0
0
0
0
0
0
0
0
0
0
0
0
0
0
0
0
0
0
0
0
0
0
0
0
0
0
0
0
0
0
0
0
0
0
0
0
0
0
0
0
0
0
0
0
0
0
0
0
0
0
0
0
0
0
0
0
0
0
0
0
0
0
0
0
0
0
0
0
0
0
0
0
0
0
0
0
0
0
0
0
0
0
0
0
0
0
0
0
0
0
0
0
0
0
0
0
0
0
0
0
0
0
0
0
0
0
0
0
0
0
0
0
0
0
0
0
0
0
0
0
0
0
0
0
0
0
0
0
0
0
0
0
0
0
0
0
0
0
0
0
0
0
0
0
0
0
0
0
0
0
0
0
0
0
0
0
0
0
0
0
0
0
0
0
0
0
0
0
0
0
0
0
0
0
0
0
0
0
0
0
0
0
0
0
0
0
0
0
0
0
0
0
0
0
0
0
0
0
0
0
0
0
0
0
0
0
0
0
0
0
0
0
0
0
0
0
0
0
0
0
0
0
0
0
0
0
0
0
0
0
0
0
0
0
0
0
0
0
0
0
0
0
0
0
0
0
0
0
0
0
0
0
0
0
0
0
0
0
0
0
0
0
0
0
0
0
0
0
0
0
0
0
0
0
0
0
0
0
0
0
0
0
0
0
0
0
0
0
0
0
0
0
0
0
0
0
0
0
0
0
0
0
0
0
0
0
0
0
0
0
0
0
0
0
0
0
0
0
0
0
0
0
0
0
0
0
0
0
0
0
0
0
0
0
0
0
0
0
0
0
0
0
0
0
0
0
0
0
0
0
0
0
0
0
0
0
0
0
0
0
0
0
0
0
0
0
0
0
0
0
0
0
0
0
0
0
0
0
0
0
0
0
0
0
0
0
0
0
0
0
0
0
0
0
0
0
0
0
0
0
0
0
0
0
0
0
0
0
0
0
0
0
0
0
0
0
0
0
0
0
0
0
0
0
0
0
0
0
0
0
0
0
0
0
0
0
0
0
0
0
0
0
0
0
0
0
0
0
0
0
0
0
0
0
0
0
0
0
0
0
0
0
0
0
0
0
0
0
0
0
0
0
0
0
0
0
0
0
0
0
0
0
0
0
0
0
0
0
0
0
0
0
0
0
0
0
0
0
0
0
0
0
0
0
0
0
0
0
0
0
0
0
0
0
0
0
0
0
0
0
0
0
0
0
0
0
0
0
0
0
0
0
0
0
0
0
0
0
0
0
0
0
0
0
0
0
0
0
0
0
0
0
0
0
0
0
0
0
0
0
0
0
0
0
0
0
0
0
0
0
0
0
0
0
0
0
0
0
0
0
0
0
0
0
0
0
0
0
0
0
0
0
0
0
0
0
0
0
0
0
0
0
0
0
0
0
0
0
0
0
0
0
0
0
0
0
0
0
0
0
0
0
0
0
0
0
0
0
0
0
0
0
0
0
0
0
0
0
0
0
0
0
0
0
0
0
0
0
0
0
0
0
0
0
0
0
0
0
0
0
0
0
0
0
0
0
0
0
0
0
0
0
0
0
0
0
0
0
0
0
0
0
0
0
0
0
0
0
0
0
0
0
0
0
0
0
0
0
0
0
0
0
0
0
0
0
0
0
0
0
0
0
0
0
0
0
0
0
0
0
0
0
0
0
0
0
0
0
0
0
0
0
0
0
0
0
0
0
0
0
0
0
0
0
0
0
0
0
0
0
0
0
0
0
0
0
0
0
0
0
0
0
0
0
0
0
0
0
0
0
0
0
0
0
0
0
0
0
0
0
0
0
0
0
0
0
0
0
0
0
0
0
0
0
0
0
0
0
0
0
0
0
0
0
0
0
0
0
0
0
0
0
0
0
0
0
0
0
0
0
0
0
0
0
0
0
0
0
0
0
0
0
0
0
0
0
0
0
0
0
0
0
0
0
0
0
0
0
0
0
0
0
0
0
0
0
0
0
0
0
0
0
0
0
0
0
0
0
0
0
0
0
0
0
0
0
0
0
0
0
0
0
0
0
0
0
0
0
0
0
0
0
0
0
0
0
0
0
0
0
0
0
0
0
0
0
0
0
0
0
0
0
0
0
0
0
0
0
0
0
0
0
0
0
0
0
0
0
0
0
0
0
0
0
0
0
0
0
0
0
0
0
0
0
0
0
0
0
0
0
0
0
0
0
0
0
0
0
0
0
0
0
0
0
0
0
0
0
0
0
0
0
0
0
0
0
0
0
0
0
0
0
0
0
0
0
0
0
0
0
0
0
0
0
0
0
0
0
0
0
0
0
0
0
0
0
0
0
0
0
0
0
0
0
0
0
0
0
0
0
0
0
0
0
0
0
0
0
0
0
0
0
0
0
0
0
0
0
0
0
0
0
0
0
0
0
0
0
0
0
0
0
0
0
0
0
0
0
0
0
0
0
0
0
0
0
0
0
0
0
0
0
0
0
0
0
0
0
0
0
0
0
0
0
0
0
0
0
0
0
0
0
0
0
0
0
0
0
0
0
0
0
0
0
0
0
0
0
0
0
0
0
0
0
0
0
0
0
0
0
0
0
0
0
0
0
0
0
0
0
0
0
0
0
0
0
0
0
0
0
0
0
0
0
0
0
0
0
0
0
0
0
0
0
0
0
0
0
0
0
0
0
0
0
0
0
0
0
0
0
0
0
0
0
0
0
0
0
0
0
0
0
0
0
0
0
0
0
0
0
0
0
0
0
0
0
0
0
0
0
0
0
0
0
0
0
0
0
0
0
0
0
0
0
0
0
0
0
0
0
0
0
0
0
0
0
0
0
0
0
0
0
0
0
0
0
0
0
0
0
0
0
0
0
0
0
0
0
0
0
0
0
0
0
0
0
0
0
0
0
0
0
0
0
0
0
0
0
0
0
0
0
0
0
0
0
0
0
0
0
0
0
0
0
0
0
0
0
0
0
0
0
0
0
0
0
0
0
0
0
0
0
0
0
0
0
0
0
0
0
0
0
0
0
0
0
0
0
0
0
0
0
0
0
0
0
0
0
0
0
0
0
0
0
0
0
0
0
0
0
0
0
0
0
0
0
0
0
0
0
0
0
0
0
0
0
0
0
0
0
0
0
0
0
0
0
0
0
0
0
0
0
0
0
0
0
0
0
0
0
0
0
0
0
0
0
0
0
0
0
0
0
0
0
0
0
0
0
0
0
0
0
0
0
0
0
0
0
0
0
0
0
0
0
0
0
0
0
0
0
0
0
0
0
0
0
0
0
0
0
0
0
0
0
0
0
0
0
0
0
0
0
0
0
0
0
0
0
0
0
0
0
0
0
0
0
0
0
0
0
      </DataArray> 
      <DataArray type="Float64" NumberOfComponents="1" Name="NormalFibers" format="ascii">
0
0
0
0
0
0
0
0
0
0
0
0
0
0
0
0
0
0
0
0
0
0
0
0
0
0
0
0
0
0
0
0
0
0
0
0
0
0
0
0
0
0
0
0
0
0
0
0
0
0
0
0
0
0
0
0
0
0
0
0
0
0
0
0
0
0
0
0
0
0
0
0
0
0
0
0
0
0
0
0
0
0
0
0
0
0
0
0
0
0
0
0
0
0
0
0
0
0
0
0
0
0
0
0
0
0
0
0
0
0
0
0
0
0
0
0
0
0
0
0
0
0
0
0
0
0
0
0
0
0
0
0
0
0
0
0
0
0
0
0
0
0
0
0
0
0
0
0
0
0
0
0
0
0
0
0
0
0
0
0
0
0
0
0
0
0
0
0
0
0
0
0
0
0
0
0
0
0
0
0
0
0
0
0
0
0
0
0
0
0
0
0
0
0
0
0
0
0
0
0
0
0
0
0
0
0
0
0
0
0
0
0
0
0
0
0
0
0
0
0
0
0
0
0
0
0
0
0
0
0
0
0
0
0
0
0
0
0
0
0
0
0
0
0
0
0
0
0
0
0
0
0
0
0
0
0
0
0
0
0
0
0
0
0
0
0
0
0
0
0
0
0
0
0
0
0
0
0
0
0
0
0
0
0
0
0
0
0
0
0
0
0
0
0
0
0
0
0
0
0
0
0
0
0
0
0
0
0
0
0
0
0
0
0
0
0
0
0
0
0
0
0
0
0
0
0
0
0
0
0
0
0
0
0
0
0
0
0
0
0
0
0
0
0
0
0
0
0
0
0
0
0
0
0
0
0
0
0
0
0
0
0
0
0
0
0
0
0
0
0
0
0
0
0
0
0
0
0
0
0
0
0
0
0
0
0
0
0
0
0
0
0
0
0
0
0
0
0
0
0
0
0
0
0
0
0
0
0
0
0
0
0
0
0
0
0
0
0
0
0
0
0
0
0
0
0
0
0
0
0
0
0
0
0
0
0
0
0
0
0
0
0
0
0
0
0
0
0
0
0
0
0
0
0
0
0
0
0
0
0
0
0
0
0
0
0
0
0
0
0
0
0
0
0
0
0
0
0
0
0
0
0
0
0
0
0
0
0
0
0
0
0
0
0
0
0
0
0
0
0
0
0
0
0
0
0
0
0
0
0
0
0
0
0
0
0
0
0
0
0
0
0
0
0
0
0
0
0
0
0
0
0
0
0
0
0
0
0
0
0
0
0
0
0
0
0
0
0
0
0
0
0
0
0
0
0
0
0
0
0
0
0
0
0
0
0
0
0
0
0
0
0
0
0
0
0
0
0
0
0
0
0
0
0
0
0
0
0
0
0
0
0
0
0
0
0
0
0
0
0
0
0
0
0
0
0
0
0
0
0
0
0
0
0
0
0
0
0
0
0
0
0
0
0
0
0
0
0
0
0
0
0
0
0
0
0
0
0
0
0
0
0
0
0
0
0
0
0
0
0
0
0
0
0
0
0
0
0
0
0
0
0
0
0
0
0
0
0
0
0
0
0
0
0
0
0
0
0
0
0
0
0
0
0
0
0
0
0
0
0
0
0
0
0
0
0
0
0
0
0
0
0
0
0
0
0
0
0
0
0
0
0
0
0
0
0
0
0
0
0
0
0
0
0
0
0
0
0
0
0
0
0
0
0
0
0
0
0
0
0
0
0
0
0
0
0
0
0
0
0
0
0
0
0
0
0
0
0
0
0
0
0
0
0
0
0
0
0
0
0
0
0
0
0
0
0
0
0
0
0
0
0
0
0
0
0
0
0
0
0
0
0
0
0
0
0
0
0
0
0
0
0
0
0
0
0
0
0
0
0
0
0
0
0
0
0
0
0
0
0
0
0
0
0
0
0
0
0
0
0
0
0
0
0
0
0
0
0
0
0
0
0
0
0
0
0
0
0
0
0
0
0
0
0
0
0
0
0
0
0
0
0
0
0
0
0
0
0
0
0
0
0
0
0
0
0
0
0
0
0
0
0
0
0
0
0
0
0
0
0
0
0
0
0
0
0
0
0
0
0
0
0
0
0
0
0
0
0
0
0
0
0
0
0
0
0
0
0
0
0
0
0
0
0
0
0
0
0
0
0
0
0
0
0
0
0
0
0
0
0
0
0
0
0
0
0
0
0
0
0
0
0
0
0
0
0
0
0
0
0
0
0
0
0
0
0
0
0
0
0
0
0
0
0
0
0
0
0
0
0
0
0
0
0
0
0
0
0
0
0
0
0
0
0
0
0
0
0
0
0
0
0
0
0
0
0
0
0
0
0
0
0
0
0
0
0
0
0
0
0
0
0
0
0
0
0
0
0
0
0
0
0
0
0
0
0
0
0
0
0
0
0
0
0
0
0
0
0
0
0
0
0
0
0
0
0
0
0
0
0
0
0
0
0
0
0
0
0
0
0
0
0
0
0
0
0
0
0
0
0
0
0
0
0
0
0
0
0
0
0
0
0
0
0
0
0
0
0
0
0
0
0
0
0
0
0
0
0
0
0
0
0
0
0
0
0
0
0
0
0
0
0
0
0
0
0
0
0
0
0
0
0
0
0
0
0
0
0
0
0
0
0
0
0
0
0
0
0
0
0
0
0
0
0
0
0
0
0
0
0
0
0
0
0
0
0
0
0
0
0
0
0
0
0
0
0
0
0
0
0
0
0
0
0
0
0
0
0
0
0
0
0
0
0
0
0
0
0
0
0.00460365
0.00460365
0.0240381
0.0240381
-0.0777716
-0.0777716
-0.0392077
-0.0392077
-0.00228033
-0.00228033
-0.0371916
-0.0371916
0.00226197
0.00226197
0.0173026
0.0173026
-0.0961869
-0.0961869
-0.0122289
-0.0122289
-0.0320283
-0.0320283
-0.0479799
-0.0479799
-0.0824577
-0.0824577
0.0211652
0.0211652
-0.0391158
-0.0391158
0.0549995
0.0549995
-0.0330755
-0.0330755
-0.0027363
-0.0027363
0.0320676
0.0320676
-0.0203415
-0.0203415
-0.0115696
-0.0115696
-0.0491218
-0.0491218
-0.188779
-0.188779
-0.0188427
-0.0188427
-0.0242367
-0.0242367
-0.0169052
-0.0169052
-0.0117256
-0.0117256
-0.00261978
-0.00261978
-0.0945509
-0.0945509
0.00810159
0.00810159
0.00776458
0.00776458
0.00926703
0.00926703
-0.127449
-0.127449
-0.0206236
-0.0206236
-0.142343
-0.142343
-0.0077185
-0.0077185
-0.0304014
-0.0304014
-0.0107951
-0.0107951
0.00660456
0.00660456
-0.0369714
-0.0369714
-0.0279044
-0.0279044
0.0460668
0.0460668
-0.043267
-0.043267
-0.0390814
-0.0390814
-0.136268
-0.136268
-0.0374759
-0.0374759
-0.0222372
-0.0222372
-0.023762
-0.023762
-0.0155721
-0.0155721
-0.014727
-0.014727
0.0674163
0.0674163
-0.021869
-0.021869
0.012785
0.012785
-0.112058
-0.112058
-0.0040253
-0.0040253
-0.0114542
-0.0114542
-0.0562875
-0.0562875
-0.0707417
-0.0707417
-0.0046602
-0.0046602
-0.0145792
-0.0145792
-0.0548691
-0.0548691
0.0398338
0.0398338
0.000334072
0.000334072
-0.0539631
-0.0539631
-0.0397612
-0.0397612
-0.0396263
-0.0396263
-0.0404762
-0.0404762
0.0378952
0.0378952
0.0526954
0.0526954
-0.0879279
-0.0879279
-0.0604589
-0.0604589
-0.0194868
-0.0194868
-0.145527
-0.145527
0.0353695
0.0353695
-0.0731094
-0.0731094
-0.000314443
-0.000314443
-0.0219212
-0.0219212
-0.0027226
-0.0027226
-0.0560338
-0.0560338
-0.0415938
-0.0415938
-0.094679
-0.094679
0.00901769
0.00901769
-0.0506902
-0.0506902
-0.133327
-0.133327
-0.0836941
-0.0836941
-0.0673973
-0.0673973
-0.0187765
-0.0187765
-0.00575367
-0.00575367
0.0195655
0.0195655
-0.00416326
-0.00416326
-0.019102
-0.019102
-0.000844956
-0.000844956
0.0344008
0.0344008
-0.0713921
-0.0713921
-0.112109
-0.112109
-0.0080797
-0.0080797
0.00512221
0.00512221
-0.0285575
-0.0285575
-0.175544
-0.175544
-0.0376891
-0.0376891
-0.0010138
-0.0010138
-0.0482433
-0.0482433
-0.0198891
-0.0198891
-0.0383862
-0.0383862
-0.00719189
-0.00719189
0.00673239
0.00673239
-0.131721
-0.131721
-0.0326333
-0.0326333
-0.0225771
-0.0225771
-0.0258664
-0.0258664
-0.0824596
-0.0824596
0.0646354
0.0646354
0.0421414
0.0421414
0.00975484
0.00975484
0.0324804
0.0324804
-0.00798874
-0.00798874
-0.00378058
-0.00378058
-0.0572101
-0.0572101
-0.090735
-0.090735
0.00946731
0.00946731
-0.00409907
-0.00409907
-0.0175173
-0.0175173
0.00988051
0.00988051
-0.0291119
-0.0291119
-0.0464516
-0.0464516
-0.105847
-0.105847
-0.00382593
-0.00382593
-0.00462501
-0.00462501
0.00282091
0.00282091
-0.136153
-0.136153
-0.0700982
-0.0700982
0.0231853
0.0231853
0.00358929
0.00358929
-0.0182709
-0.0182709
0.0389803
0.0389803
-0.0242777
-0.0242777
-0.00437447
-0.00437447
-0.0520252
-0.0520252
-0.0599464
-0.0599464
-0.0206782
-0.0206782
-0.00681272
-0.00681272
-0.029208
-0.029208
-0.00487431
-0.00487431
-0.0145807
-0.0145807
-0.0106642
-0.0106642
-0.00619599
-0.00619599
-0.0192453
-0.0192453
0.0113016
0.0113016
-0.0175599
-0.0175599
-0.0588255
-0.0588255
-0.0112262
-0.0112262
-0.00675982
-0.00675982
0.0157354
0.0157354
-0.112375
-0.112375
-0.0971828
-0.0971828
-0.266107
-0.266107
-0.131651
-0.131651
-0.100518
-0.100518
0.00174128
0.00174128
-0.0177093
-0.0177093
-0.0513428
-0.0513428
0.0359142
0.0359142
-0.0243245
-0.0243245
0.0254336
0.0254336
-0.00495379
-0.00495379
-0.0329748
-0.0329748
-0.054804
-0.054804
0.0190635
0.0190635
-0.0449065
-0.0449065
-0.0268201
-0.0268201
-0.0198945
-0.0198945
-0.0641009
-0.0641009
-0.0614315
-0.0614315
-0.00823257
-0.00823257
0.00403194
0.00403194
-0.0379004
-0.0379004
-0.0104797
-0.0104797
-0.0515418
-0.0515418
-0.0458784
-0.0458784
-0.0626984
-0.0626984
-0.00822734
-0.00822734
-0.0117184
-0.0117184
-0.00110491
-0.00110491
-0.119294
-0.119294
-0.0675944
-0.0675944
-0.135893
-0.135893
-0.0059917
-0.0059917
-0.00719444
-0.00719444
0.0244125
0.0244125
0.0117156
0.0117156
0.0273131
0.0273131
0.0478296
0.0478296
-0.0422071
-0.0422071
-0.0459336
-0.0459336
0.0024294
0.0024294
-0.0146448
-0.0146448
-0.000806355
-0.000806355
-0.0114481
-0.0114481
-0.0298
-0.0298
0.0138285
0.0138285
-0.0175732
-0.0175732
-0.0908897
-0.0908897
-0.00740517
-0.00740517
0.0309044
0.0309044
-0.0138835
-0.0138835
-0.181238
-0.181238
0.0306133
0.0306133
0.00792622
0.00792622
-0.0133865
-0.0133865
-0.0684367
-0.0684367
-0.00320378
-0.00320378
-0.0126467
-0.0126467
-0.0768914
-0.0768914
-0.0357771
-0.0357771
0.0305476
0.0305476
-0.0171288
-0.0171288
-0.0347493
-0.0347493
-0.0873718
-0.0873718
0.0511015
0.0511015
0.0505545
0.0505545
-0.00231445
-0.00231445
-0.106287
-0.106287
0.0119136
0.0119136
-0.0269549
-0.0269549
-0.0412382
-0.0412382
-0.00763499
-0.00763499
0.00024922
0.00024922
-0.0116895
-0.0116895
-0.0838013
-0.0838013
-0.0260454
-0.0260454
-0.00802563
-0.00802563
-0.00670574
-0.00670574
-0.0269378
-0.0269378
-0.108157
-0.108157
0.00300389
0.00300389
-0.0229117
-0.0229117
-0.0326521
-0.0326521
-0.136924
-0.136924
-0.0966813
-0.0966813
-0.0836806
-0.0836806
-0.024776
-0.024776
-0.00568261
-0.00568261
-0.00501907
-0.00501907
0.0550702
0.0550702
-0.00239813
-0.00239813
-0.0108165
-0.0108165
-0.00652325
-0.00652325
0.0499163
0.0499163
-0.0970834
-0.0970834
-0.0432495
-0.0432495
-0.00703832
-0.00703832
-0.130327
-0.130327
-0.13252
-0.13252
-0.00508721
-0.00508721
-0.147302
-0.147302
-0.00142656
-0.00142656
-0.0858023
-0.0858023
0.0262538
0.0262538
-0.0126639
-0.0126639
-0.000502281
-0.000502281
-0.0216208
-0.0216208
-0.198696
-0.198696
-0.0250685
-0.0250685
-0.0115058
-0.0115058
-0.025906
-0.025906
-0.0890997
-0.0890997
-0.0416799
-0.0416799
-0.0408653
-0.0408653
0.0602744
0.0602744
-0.00799244
-0.00799244
-0.100495
-0.100495
-0.0120057
-0.0120057
-0.00515182
-0.00515182
-0.131096
-0.131096
-0.0180112
-0.0180112
-0.105903
-0.105903
-0.0130937
-0.0130937
-0.0025684
-0.0025684
-0.0512948
-0.0512948
0.0196732
0.0196732
0.0012331
0.0012331
-0.0314716
-0.0314716
-0.0394506
-0.0394506
-0.0280679
-0.0280679
-0.0507803
-0.0507803
-0.120714
-0.120714
0.0388469
0.0388469
-0.106347
-0.106347
0.00566771
0.00566771
-0.124933
-0.124933
-0.0370534
-0.0370534
-0.0499315
-0.0499315
-0.00686761
-0.00686761
0.0220098
0.0220098
-0.143259
-0.143259
0.028714
0.028714
0.0105891
0.0105891
0.0560561
0.0560561
-0.120666
-0.120666
-0.036219
-0.036219
-0.00220308
-0.00220308
-0.0642397
-0.0642397
-0.0896018
-0.0896018
-0.0248079
-0.0248079
-0.110141
-0.110141
-0.0433694
-0.0433694
-0.0127998
-0.0127998
-0.0203432
-0.0203432
0.0226608
0.0226608
-0.0987609
-0.0987609
0.0384576
0.0384576
-0.0315446
-0.0315446
0.000480765
0.000480765
-0.039361
-0.039361
0.00599976
0.00599976
0.0210286
0.0210286
-0.0360708
-0.0360708
-0.0605185
-0.0605185
-0.0914931
-0.0914931
0.00528602
0.00528602
-0.133883
-0.133883
0.0257557
0.0257557
-0.0173432
-0.0173432
-0.05355
-0.05355
-0.0853883
-0.0853883
-0.116651
-0.116651
-0.108903
-0.108903
-0.0144584
-0.0144584
-0.0520515
-0.0520515
-0.000754845
-0.000754845
-0.00816123
-0.00816123
-0.14673
-0.14673
-0.0155314
-0.0155314
0.0468306
0.0468306
0.0223353
0.0223353
-0.0172951
-0.0172951
-0.00104154
-0.00104154
0.000804435
0.000804435
-0.000427076
-0.000427076
-0.0423594
-0.0423594
-0.040267
-0.040267
0.0103064
0.0103064
-0.00674495
-0.00674495
-0.060995
-0.060995
0.0133962
0.0133962
-0.0323415
-0.0323415
-0.0214681
-0.0214681
-0.0246149
-0.0246149
-0.0110884
-0.0110884
-0.0108205
-0.0108205
-0.0755922
-0.0755922
-0.00790574
-0.00790574
0.00501329
0.00501329
-0.00420562
-0.00420562
0.0506807
0.0506807
-0.0609677
-0.0609677
-0.0493712
-0.0493712
-0.0438642
-0.0438642
-0.0506555
-0.0506555
-0.0181246
-0.0181246
-0.0762839
-0.0762839
-0.0826046
-0.0826046
-0.0384683
-0.0384683
-0.159033
-0.159033
0.0249509
0.0249509
-0.0116026
-0.0116026
-0.00755234
-0.00755234
0.0512683
0.0512683
0.0251504
0.0251504
-0.00748285
-0.00748285
-0.000222233
-0.000222233
-0.0139523
-0.0139523
-0.0158223
-0.0158223
-0.0607039
-0.0607039
-0.0407936
-0.0407936
-0.0404538
-0.0404538
-0.036221
-0.036221
-0.0539563
-0.0539563
-0.0129405
-0.0129405
0.0135183
0.0135183
0.0377005
0.0377005
-0.025536
-0.025536
-0.0388968
-0.0388968
-0.0160003
-0.0160003
-0.229066
-0.229066
0.00643019
0.00643019
0.0248283
0.0248283
-0.121561
-0.121561
0.0295439
0.0295439
-0.0191677
-0.0191677
0.0159341
0.0159341
-0.209852
-0.209852
-0.0257
-0.0257
0.0233778
0.0233778
-0.149719
-0.149719
-0.0706473
-0.0706473
-0.0387011
-0.0387011
-0.150414
-0.150414
-0.0147515
-0.0147515
-0.0142107
-0.0142107
-0.0496439
-0.0496439
-0.208176
-0.208176
-0.051687
-0.051687
-0.00577105
-0.00577105
-0.0163089
-0.0163089
0.00380936
0.00380936
-0.104261
-0.104261
-0.0550582
-0.0550582
0.00870586
0.00870586
-0.0474408
-0.0474408
-0.0186155
-0.0186155
-0.0169341
-0.0169341
-0.0784368
-0.0784368
-0.0855167
-0.0855167
-0.122201
-0.122201
-0.0017223
-0.0017223
-0.0280963
-0.0280963
-0.0469094
-0.0469094
-0.0259482
-0.0259482
-0.0301054
-0.0301054
0.00294921
0.00294921
-0.0410908
-0.0410908
0.0164484
0.0164484
-0.0299398
-0.0299398
-0.0234429
-0.0234429
-0.00950266
-0.00950266
0.0289109
0.0289109
-0.0664049
-0.0664049
-0.0852804
-0.0852804
-0.00875506
-0.00875506
-0.0967942
-0.0967942
-0.0226684
-0.0226684
-0.150354
-0.150354
-0.249981
-0.249981
0.0147939
0.0147939
0.0280334
0.0280334
0.0148646
0.0148646
-0.0598191
-0.0598191
0.000513823
0.000513823
-0.00295968
-0.00295968
-0.102917
-0.102917
-0.0070141
-0.0070141
-0.00785834
-0.00785834
0.00427232
0.00427232
-0.00511738
-0.00511738
-0.060645
-0.060645
-0.165951
-0.165951
-0.00352554
-0.00352554
-0.000265393
-0.000265393
-0.0168621
-0.0168621
-0.0185088
-0.0185088
-0.124794
-0.124794
-0.00627462
-0.00627462
-0.0951945
-0.0951945
0.00466731
0.00466731
-0.0447398
-0.0447398
-0.0296014
-0.0296014
0.0172695
0.0172695
-0.0254941
-0.0254941
0.0100296
0.0100296
0.00874405
0.00874405
-0.0235308
-0.0235308
-0.00437452
-0.00437452
-0.0323444
-0.0323444
-0.0346679
-0.0346679
-0.0113511
-0.0113511
0.028368
0.028368
-0.0263588
-0.0263588
-0.0414644
-0.0414644
0.0280071
0.0280071
-0.00613889
-0.00613889
-0.0743742
-0.0743742
-0.00329205
-0.00329205
-0.0479748
-0.0479748
-0.142683
-0.142683
-0.0188173
-0.0188173
-0.0355062
-0.0355062
-0.0626544
-0.0626544
0.04167
0.04167
0.0154705
0.0154705
-0.0345761
-0.0345761
0.0106374
0.0106374
-0.00459335
-0.00459335
-0.0384301
-0.0384301
-0.032629
-0.032629
-0.0305886
-0.0305886
-0.00771046
-0.00771046
0.000149721
0.000149721
-0.0280812
-0.0280812
-0.0292332
-0.0292332
-0.0103966
-0.0103966
-0.0199455
-0.0199455
-0.206602
-0.206602
-0.0072536
-0.0072536
-0.024679
-0.024679
-0.0317307
-0.0317307
-0.013813
-0.013813
0.0152746
0.0152746
-0.0183388
-0.0183388
-0.0294877
-0.0294877
0.0141563
0.0141563
0.00469873
0.00469873
-0.0488993
-0.0488993
-0.0368679
-0.0368679
-0.0933224
-0.0933224
-0.0153035
-0.0153035
0.00367581
0.00367581
-0.0121133
-0.0121133
-0.00947651
-0.00947651
-0.0566697
-0.0566697
-0.00686294
-0.00686294
-0.0195797
-0.0195797
-0.0181051
-0.0181051
-0.106134
-0.106134
-0.0112854
-0.0112854
-0.0125838
-0.0125838
-0.0282914
-0.0282914
-0.0883156
-0.0883156
-0.00293935
-0.00293935
-0.0997035
-0.0997035
-0.00311716
-0.00311716
-0.128238
-0.128238
-0.10658
-0.10658
-0.00071776
-0.00071776
0.026265
0.026265
0.00849286
0.00849286
-0.0783623
-0.0783623
-0.00236715
-0.00236715
-0.0229642
-0.0229642
-0.121256
-0.121256
0.0330974
0.0330974
-0.0778967
-0.0778967
-0.0274464
-0.0274464
-0.0727521
-0.0727521
-0.10139
-0.10139
0.0437971
0.0437971
-0.0160959
-0.0160959
-0.0402615
-0.0402615
-0.00943442
-0.00943442
-0.0430947
-0.0430947
-0.0103157
-0.0103157
-0.0136658
-0.0136658
-0.0274408
-0.0274408
-0.0746199
-0.0746199
-0.048775
-0.048775
0.00484158
0.00484158
-0.0826895
-0.0826895
-0.0356165
-0.0356165
-0.0417784
-0.0417784
-0.0636778
-0.0636778
-0.0814763
-0.0814763
-0.0505267
-0.0505267
0.0162561
0.0162561
-0.186918
-0.186918
0.00975222
0.00975222
-0.047902
-0.047902
-0.0219957
-0.0219957
-0.11737
-0.11737
-0.0688929
-0.0688929
0.0350764
0.0350764
-0.0612162
-0.0612162
-0.0897693
-0.0897693
-0.0269045
-0.0269045
-0.0778546
-0.0778546
-0.124862
-0.124862
0.0385322
0.0385322
-0.0283274
-0.0283274
1.52483e-05
1.52483e-05
-0.0102824
-0.0102824
-0.107771
-0.107771
-0.103969
-0.103969
-0.00529789
-0.00529789
-0.0308965
-0.0308965
0.0199367
0.0199367
-0.0752851
-0.0752851
-0.00570165
-0.00570165
-0.169561
-0.169561
-0.122662
-0.122662
-0.0185285
-0.0185285
-0.0197726
-0.0197726
-0.102566
-0.102566
-0.0403202
-0.0403202
0.0606525
0.0606525
-0.0879084
-0.0879084
0.0564935
0.0564935
-0.0229904
-0.0229904
-0.0218533
-0.0218533
-0.0991926
-0.0991926
-0.0135326
-0.0135326
-0.0033342
-0.0033342
-0.0197222
-0.0197222
-0.0288622
-0.0288622
-0.0233248
-0.0233248
-0.0235326
-0.0235326
0.00118569
0.00118569
-0.0156738
-0.0156738
-0.0626483
-0.0626483
-0.0208301
-0.0208301
-0.0253226
-0.0253226
-0.018145
-0.018145
-0.00853659
-0.00853659
-0.0304866
-0.0304866
0.010852
0.010852
-0.0210827
-0.0210827
0.00384051
0.00384051
-0.0126294
-0.0126294
-0.136255
-0.136255
-0.0246961
-0.0246961
-0.0403179
-0.0403179
0.0219536
0.0219536
-0.01109
-0.01109
0.0077421
0.0077421
-0.0229339
-0.0229339
-0.108971
-0.108971
-0.00815589
-0.00815589
-0.0910679
-0.0910679
-0.0201514
-0.0201514
-0.00404196
-0.00404196
-0.0233482
-0.0233482
-0.0238764
-0.0238764
-0.0218965
-0.0218965
-0.0306653
-0.0306653
-0.0465687
-0.0465687
0.0459418
0.0459418
0.00142021
0.00142021
-0.00340838
-0.00340838
-0.0472565
-0.0472565
0.0282446
0.0282446
-0.0129435
-0.0129435
-0.00722007
-0.00722007
-0.0260305
-0.0260305
-0.0218257
-0.0218257
-0.00350826
-0.00350826
-0.0161716
-0.0161716
-0.000829803
-0.000829803
-0.00891455
-0.00891455
-0.0313468
-0.0313468
0.00604836
0.00604836
-0.0593561
-0.0593561
-0.0290519
-0.0290519
0.0587653
0.0587653
-0.00788117
-0.00788117
0.0186169
0.0186169
-0.01788
-0.01788
-0.160539
-0.160539
-0.135844
-0.135844
-0.0583975
-0.0583975
0.0355703
0.0355703
-0.089865
-0.089865
-0.00232529
-0.00232529
-0.00988437
-0.00988437
-0.0111766
-0.0111766
-0.00301369
-0.00301369
-0.0239079
-0.0239079
-0.0302182
-0.0302182
-0.00890257
-0.00890257
-0.0440865
-0.0440865
-0.200596
-0.200596
-0.0156006
-0.0156006
-0.0237723
-0.0237723
-0.0163032
-0.0163032
-0.0549578
-0.0549578
0.0172433
0.0172433
-0.0902076
-0.0902076
-0.00429481
-0.00429481
0.0256778
0.0256778
-0.00444987
-0.00444987
-0.011028
-0.011028
-0.140078
-0.140078
-0.139898
-0.139898
-0.121323
-0.121323
-0.00237501
-0.00237501
0.00572023
0.00572023
-0.0273567
-0.0273567
-0.00671761
-0.00671761
-0.00938241
-0.00938241
-0.010431
-0.010431
-0.0054794
-0.0054794
0.0330104
0.0330104
-0.15014
-0.15014
-0.00922372
-0.00922372
-0.000963613
-0.000963613
-0.00558754
-0.00558754
-0.0132564
-0.0132564
-0.00664239
-0.00664239
0.0112779
0.0112779
-0.0843133
-0.0843133
-0.0179653
-0.0179653
-0.0477875
-0.0477875
-0.0913433
-0.0913433
-0.0310405
-0.0310405
-0.122182
-0.122182
-0.0409331
-0.0409331
-0.0391815
-0.0391815
-0.00294374
-0.00294374
-0.0144832
-0.0144832
0.0324486
0.0324486
0.0472316
0.0472316
-0.00984393
-0.00984393
-0.00524174
-0.00524174
0.0102144
0.0102144
-0.0634371
-0.0634371
-0.00597655
-0.00597655
0.0238067
0.0238067
-0.0227978
-0.0227978
-2.96923e-06
-2.96923e-06
-0.00897402
-0.00897402
-0.0130914
-0.0130914
-0.116954
-0.116954
0.0469
0.0469
-0.00659824
-0.00659824
-0.0430472
-0.0430472
-0.0645847
-0.0645847
-0.0710453
-0.0710453
-0.00960282
-0.00960282
-0.00517236
-0.00517236
-0.0870801
-0.0870801
0.0119284
0.0119284
-0.115986
-0.115986
-0.151831
-0.151831
0.0120317
0.0120317
-0.00987296
-0.00987296
-0.107949
-0.107949
-0.0205769
-0.0205769
-0.0270631
-0.0270631
-0.0450125
-0.0450125
-0.0150249
-0.0150249
0.024239
0.024239
-0.10101
-0.10101
-0.0397324
-0.0397324
0.0155917
0.0155917
-0.0882304
-0.0882304
-0.024309
-0.024309
-0.0204482
-0.0204482
-0.0088228
-0.0088228
-0.00672865
-0.00672865
-0.0282737
-0.0282737
-0.0525324
-0.0525324
-0.0101611
-0.0101611
0.0261217
0.0261217
-0.246033
-0.246033
0.00305058
0.00305058
-0.0129358
-0.0129358
-0.035659
-0.035659
0.0155658
0.0155658
-0.0342362
-0.0342362
-0.0164782
-0.0164782
-0.0235876
-0.0235876
-0.003245
-0.003245
0.00699438
0.00699438
0.00473229
0.00473229
0.00871091
0.00871091
-0.123709
-0.123709
-0.0343707
-0.0343707
0.00478485
0.00478485
0.0325935
0.0325935
0.00641026
0.00641026
0.0311155
0.0311155
-0.0152183
-0.0152183
0.00725133
0.00725133
-0.0146138
-0.0146138
-0.0174014
-0.0174014
-0.210312
-0.210312
0.0115177
0.0115177
-0.176692
-0.176692
0.0298531
0.0298531
0.00210351
0.00210351
-0.0325249
-0.0325249
-0.018097
-0.018097
-0.0567599
-0.0567599
-0.063869
-0.063869
-0.0211267
-0.0211267
-0.00249879
-0.00249879
0.0324453
0.0324453
-0.0742723
-0.0742723
-0.0193615
-0.0193615
-0.0161073
-0.0161073
0.0441547
0.0441547
0.000923522
0.000923522
-0.00405409
-0.00405409
0.000325288
0.000325288
-0.0074761
-0.0074761
-0.0471017
-0.0471017
-0.100376
-0.100376
-0.11502
-0.11502
-0.0179204
-0.0179204
0.0237175
0.0237175
-0.117125
-0.117125
-0.0460373
-0.0460373
0.0437428
0.0437428
-0.00561983
-0.00561983
0.00115541
0.00115541
-0.0321586
-0.0321586
-0.0263015
-0.0263015
-0.00765615
-0.00765615
-0.112028
-0.112028
0.0672512
0.0672512
-0.0803345
-0.0803345
-0.00755456
-0.00755456
-0.034216
-0.034216
-0.147176
-0.147176
0.00573712
0.00573712
-0.0280033
-0.0280033
-0.128651
-0.128651
0.0482139
0.0482139
-0.0035282
-0.0035282
0.0065992
0.0065992
-0.0203499
-0.0203499
0.0275511
0.0275511
-0.00174475
-0.00174475
-0.0055727
-0.0055727
-0.0379582
-0.0379582
-0.0619801
-0.0619801
-0.18775
-0.18775
-0.147236
-0.147236
0.0173432
0.0173432
-0.138771
-0.138771
-0.0270804
-0.0270804
-0.0134335
-0.0134335
0.00197494
0.00197494
-0.0441062
-0.0441062
0.0105941
0.0105941
-0.00572354
-0.00572354
0.00892703
0.00892703
-0.00503915
-0.00503915
-1.84044e-05
-1.84044e-05
-0.0379427
-0.0379427
-0.0227544
-0.0227544
-0.00490114
-0.00490114
-0.0742334
-0.0742334
0.00367661
0.00367661
-0.0286561
-0.0286561
-0.0331972
-0.0331972
0.0240154
0.0240154
-0.0372849
-0.0372849
-0.0174189
-0.0174189
0.0373808
0.0373808
0.0098087
0.0098087
0.034425
0.034425
-0.0456831
-0.0456831
-0.00175536
-0.00175536
-0.0948594
-0.0948594
-0.028511
-0.028511
-0.14034
-0.14034
-0.0764646
-0.0764646
-0.140577
-0.140577
-0.0113867
-0.0113867
-0.0981089
-0.0981089
0.00319437
0.00319437
-0.025783
-0.025783
-0.123476
-0.123476
-0.140559
-0.140559
0.0210737
0.0210737
-0.0284065
-0.0284065
0.0259235
0.0259235
0.0333421
0.0333421
-0.0517295
-0.0517295
-0.131045
-0.131045
-0.00480081
-0.00480081
0.0123805
0.0123805
0.00863437
0.00863437
0.0254619
0.0254619
-0.0699282
-0.0699282
-0.025752
-0.025752
0.00275885
0.00275885
-0.0259031
-0.0259031
-0.0284712
-0.0284712
-0.0361039
-0.0361039
0.0140697
0.0140697
-0.0774301
-0.0774301
-0.0095174
-0.0095174
-0.00882033
-0.00882033
-0.0175908
-0.0175908
-0.0257283
-0.0257283
-0.00753852
-0.00753852
-0.0852975
-0.0852975
-0.120988
-0.120988
-0.018516
-0.018516
-0.00428139
-0.00428139
-0.0273416
-0.0273416
0.00587435
0.00587435
-0.125551
-0.125551
-0.00198501
-0.00198501
0.0351484
0.0351484
-0.152277
-0.152277
-0.00243592
-0.00243592
-0.0388139
-0.0388139
-0.0428772
-0.0428772
-0.0960856
-0.0960856
-0.0212406
-0.0212406
-0.0230146
-0.0230146
-0.00344838
-0.00344838
-0.10844
-0.10844
-0.0272647
-0.0272647
-0.0724907
-0.0724907
0.00170681
0.00170681
-0.0105542
-0.0105542
0.0119952
0.0119952
0.018047
0.018047
-0.0509688
-0.0509688
0.00335316
0.00335316
0.00340692
0.00340692
0.00266714
0.00266714
0.000618884
0.000618884
-0.00461619
-0.00461619
-0.0294506
-0.0294506
-0.0296817
-0.0296817
-0.0633307
-0.0633307
-0.00998474
-0.00998474
0.0287626
0.0287626
-0.0325533
-0.0325533
-0.0984122
-0.0984122
0.0218386
0.0218386
-0.0322682
-0.0322682
-0.0108771
-0.0108771
-0.0300715
-0.0300715
-0.0220424
-0.0220424
-0.0177276
-0.0177276
-0.0100086
-0.0100086
-0.0821645
-0.0821645
-0.011379
-0.011379
-0.0176056
-0.0176056
-0.0172111
-0.0172111
-0.102316
-0.102316
-0.164651
-0.164651
-0.0214756
-0.0214756
-0.0108226
-0.0108226
-0.105206
-0.105206
-0.0237538
-0.0237538
-0.0102922
-0.0102922
-0.0690862
-0.0690862
-0.0741295
-0.0741295
-0.03069
-0.03069
-0.00701084
-0.00701084
-0.0579091
-0.0579091
0.0098074
0.0098074
0.0198884
0.0198884
0.00197785
0.00197785
-0.00614138
-0.00614138
-0.0202524
-0.0202524
0.019854
0.019854
0.0516824
0.0516824
-0.106025
-0.106025
-0.0151356
-0.0151356
-0.0201008
-0.0201008
-0.044816
-0.044816
-0.0326371
-0.0326371
0.012237
0.012237
-0.0369329
-0.0369329
0.0195204
0.0195204
-0.0860758
-0.0860758
-0.123246
-0.123246
0.0581254
0.0581254
-0.0985338
-0.0985338
-0.119215
-0.119215
-0.0790785
-0.0790785
-0.0415637
-0.0415637
-0.015907
-0.015907
-0.0153967
-0.0153967
-0.0600815
-0.0600815
-0.0417632
-0.0417632
0.00112765
0.00112765
-0.0135907
-0.0135907
-0.00699885
-0.00699885
0.0134245
0.0134245
-0.0383928
-0.0383928
-0.0865891
-0.0865891
-0.180042
-0.180042
-0.124525
-0.124525
-0.0696822
-0.0696822
-0.0480701
-0.0480701
-0.214559
-0.214559
-0.0103369
-0.0103369
-0.0929774
-0.0929774
0.0220947
0.0220947
-0.00318575
-0.00318575
-0.1247
-0.1247
-0.0411653
-0.0411653
-0.03618
-0.03618
-0.0955822
-0.0955822
-0.00816192
-0.00816192
-0.0125542
-0.0125542
-0.0076541
-0.0076541
-0.0185439
-0.0185439
-0.0941581
-0.0941581
-0.0119535
-0.0119535
-0.00922886
-0.00922886
-0.00856291
-0.00856291
-0.00185313
-0.00185313
-0.0708191
-0.0708191
-0.00428564
-0.00428564
-0.128762
-0.128762
-0.211147
-0.211147
-0.0215866
-0.0215866
0.017756
0.017756
-0.0385749
-0.0385749
-0.0400998
-0.0400998
-0.015016
-0.015016
-0.0532707
-0.0532707
0.0101063
0.0101063
-0.0103187
-0.0103187
-0.00791341
-0.00791341
-0.00644082
-0.00644082
-0.00556365
-0.00556365
-0.00438753
-0.00438753
-0.00347233
-0.00347233
-0.00260342
-0.00260342
-0.00181865
-0.00181865
-0.00116707
-0.00116707
-0.000514591
-0.000514591
3.18176e-05
3.18176e-05
0.000519398
0.000519398
0.000989854
0.000989854
0.00128417
0.00128417
0.0015532
0.0015532
0.00180273
0.00180273
0.00189845
0.00189845
0.00198754
0.00198754
0.00194163
0.00194163
0.00193046
0.00193046
0.00175227
0.00175227
0.00147984
0.00147984
0.00127602
0.00127602
0.00090122
0.00090122
0.000486551
0.000486551
-8.93992e-05
-8.93992e-05
-0.00057484
-0.00057484
-0.00110111
-0.00110111
-0.00193778
-0.00193778
-0.00261387
-0.00261387
-0.00383361
-0.00383361
-0.00453208
-0.00453208
-0.0052976
-0.0052976
-0.00708844
-0.00708844
-0.00844579
-0.00844579
-0.00894134
-0.00894134
-0.0105972
-0.0105972
-0.0136912
-0.0136912
-0.0150574
-0.0150574
-0.0166358
-0.0166358
-0.0205892
-0.0205892
-0.0243391
-0.0243391
-0.0286541
-0.0286541
-0.0347697
-0.0347697
-0.0452263
-0.0452263
-0.0555081
-0.0555081
-0.0763426
-0.0763426
-0.0896405
-0.0896405
-0.0437113
-0.0437113
0.00488163
0.00488163
-0.0125382
-0.0125382
-0.0181044
-0.0181044
-0.0143926
-0.0143926
-0.0144799
-0.0144799
-0.0136638
-0.0136638
-0.0187733
-0.0187733
-0.0271647
-0.0271647
-0.0323197
-0.0323197
-0.0377483
-0.0377483
-0.0428794
-0.0428794
-0.0464837
-0.0464837
-0.0473941
-0.0473941
-0.0462016
-0.0462016
-0.0438758
-0.0438758
-0.0403037
-0.0403037
-0.035931
-0.035931
-0.0309918
-0.0309918
-0.0264171
-0.0264171
-0.0219968
-0.0219968
-0.0185654
-0.0185654
-0.0170369
-0.0170369
-0.0155408
-0.0155408
-0.00890447
-0.00890447
-0.00826309
-0.00826309
-0.00715495
-0.00715495
-0.00546097
-0.00546097
-0.00454025
-0.00454025
-0.00391733
-0.00391733
-0.00260684
-0.00260684
-0.00203445
-0.00203445
-0.0010947
-0.0010947
-0.000563013
-0.000563013
-8.70026e-05
-8.70026e-05
0.000508544
0.000508544
0.000899174
0.000899174
0.00126701
0.00126701
0.00145821
0.00145821
0.00179205
0.00179205
0.00186978
0.00186978
0.00193529
0.00193529
0.00188594
0.00188594
0.00194682
0.00194682
0.00177554
0.00177554
0.00153405
0.00153405
0.00132282
0.00132282
0.00092322
0.00092322
0.000533971
0.000533971
4.90183e-05
4.90183e-05
-0.000534417
-0.000534417
-0.00112927
-0.00112927
-0.00185962
-0.00185962
-0.00263867
-0.00263867
-0.00354758
-0.00354758
-0.0044269
-0.0044269
-0.0054581
-0.0054581
-0.00656102
-0.00656102
-0.00802549
-0.00802549
-0.01048
-0.01048
-0.0152682
-0.0152682
-0.0170779
-0.0170779
-0.0185878
-0.0185878
-0.0220737
-0.0220737
-0.0264137
-0.0264137
-0.0312971
-0.0312971
-0.0364338
-0.0364338
-0.0407708
-0.0407708
-0.0444113
-0.0444113
-0.0467314
-0.0467314
-0.0475147
-0.0475147
-0.0464699
-0.0464699
-0.0435926
-0.0435926
-0.0372611
-0.0372611
-0.0307685
-0.0307685
-0.0241555
-0.0241555
-0.0193232
-0.0193232
-0.0165383
-0.0165383
-0.0126837
-0.0126837
-0.0131112
-0.0131112
-0.0143111
-0.0143111
-0.0118467
-0.0118467
-0.00407464
-0.00407464
-0.0364415
-0.0364415
-0.0836989
-0.0836989
-0.082749
-0.082749
-0.0606329
-0.0606329
-0.0429183
-0.0429183
-0.0365119
-0.0365119
-0.0274103
-0.0274103
-0.0238458
-0.0238458
-0.0215176
-0.0215176
-0.0171477
-0.0171477
-0.0144226
-0.0144226
-0.0134992
-0.0134992
-0.011358
-0.011358
      </DataArray> 
    </PointData>
    <CellData>
    </CellData>
  </Piece>
  </UnstructuredGrid>
</VTKFile>
