<?xml version="1.0"?>
<VTKFile type="UnstructuredGrid">
  <UnstructuredGrid>
  <Piece NumberOfPoints="3487"  NumberOfCells="1698">
    <Points>
      <DataArray type="Float64" NumberOfComponents="3" format="ascii">
39.9742 48.9845 0
60.0258 48.9845 0
40.6344 49.115 0
41.2962 49.2366 0
41.9597 49.3493 0
42.6246 49.453 0
43.2908 49.5478 0
43.9583 49.6336 0
44.6268 49.7104 0
45.2963 49.7783 0
45.9667 49.8371 0
46.6378 49.8868 0
47.3095 49.9276 0
47.9817 49.9592 0
48.6543 49.9819 0
49.3271 49.9955 0
50 50 0
50.6729 49.9955 0
51.3457 49.9819 0
52.0183 49.9592 0
52.6905 49.9276 0
53.3622 49.8868 0
54.0333 49.8371 0
54.7037 49.7783 0
55.3732 49.7104 0
56.0417 49.6336 0
56.7092 49.5478 0
57.3754 49.453 0
58.0403 49.3493 0
58.7038 49.2366 0
59.3656 49.115 0
40 50 0
39.9984 49.746 0
39.9935 49.4921 0
39.9855 49.2382 0
20 70 0
39.9983 50.2617 0
39.9932 50.5233 0
39.9797 50.9017 0
39.959 51.2798 0
39.9165 51.8262 0
39.8589 52.3711 0
39.7493 53.1566 0
39.6087 53.9371 0
39.3506 55.0552 0
39.0287 56.1569 0
38.7568 56.9414 0
38.4524 57.7141 0
38.1163 58.4736 0
37.7488 59.2184 0
37.1631 60.2678 0
36.5154 61.2801 0
35.8081 62.2517 0
0 50 0
17.3895 69.8289 0
14.8236 69.3185 0
12.3464 68.4776 0
10 67.3205 0
7.82481 65.8671 0
11.4964 31.8978 0
0.19976 47.1803 0
0.795049 44.417 0
1.77398 41.7652 0
0 0 0
0.139269 3.72928 0
0.556301 7.43778 0
1.24877 11.1049 0
2.21279 14.71 0
3.11313 17.3673 0
50 0 0
5.1116 0 0
10.2232 0 0
15.3348 0 0
100 0 0
57.3884 0 0
64.7768 0 0
72.1652 0 0
88.5036 31.8978 0
99.8607 3.72925 0
99.4437 7.43773 0
98.7512 11.1048 0
97.7872 14.71 0
96.8869 17.3673 0
100 50 0
99.8002 47.1803 0
99.205 44.417 0
98.226 41.7652 0
80 70 0
99.8289 52.6105 0
99.3185 55.1764 0
98.4776 57.6536 0
97.3205 60 0
95.8671 62.1752 0
60 50 0
77.4893 69.8418 0
75.0182 69.3696 0
72.6261 68.591 0
70.3505 67.5182 0
68.8654 66.6138 0
67.4643 65.5838 0
66.158 64.436 0
64.9563 63.179 0
64.1919 62.2517 0
63.4846 61.2801 0
62.8369 60.2678 0
62.2512 59.2184 0
61.5476 57.7142 0
60.9713 56.1569 0
60.6494 55.0553 0
60.3913 53.9371 0
60.2507 53.1566 0
60.0016 49.746 0
60.0065 49.4921 0
60.0145 49.2382 0
52.8224 30.2491 0
26.5142 37.0712 0
40.3214 24.3681 0
24.917 22.6064 0
71.9537 22.6414 0
72.7082 44.144 0
54.809 24.1963 0
15.3153 47.6309 0
38.3628 49.6156 0
23.6382 65.4663 0
7.70868 7.76472 0
91.9332 7.74357 0
29.184 57.0958 0
37.1908 52.0903 0
28.0906 47.3944 0
29.7305 48.3552 0
71.5141 46.8781 0
30.9899 49.2533 0
70.5116 48.3576 0
31.6341 45.8341 0
30.8877 47.2927 0
70.0636 46.8648 0
68.986 45.1844 0
31.2959 50.3496 0
30.9108 51.575 0
28.1928 49.3549 0
45.3048 41.4569 0
53.8465 41.0782 0
56.0321 40.6271 0
73.1244 47.6368 0
70.1097 49.5998 0
68.3392 42.6087 0
32.3046 42.9386 0
26.137 45.8759 0
27.6747 44.8762 0
30.2989 43.4992 0
70.4194 42.8096 0
72.6764 46.1439 0
44.846 43.2498 0
51.4314 42.1563 0
55.4129 42.743 0
32.4531 49.2871 0
68.5507 49.8338 0
39.4706 42.2419 0
35.4335 43.5618 0
32.8934 46.7321 0
33.5784 48.4817 0
67.1023 48.428 0
67.9834 46.6639 0
65.0794 43.2256 0
60.4257 41.8797 0
32.374 51.6088 0
28.2241 51.217 0
41.7699 37.4612 0
46.8201 37.8664 0
52.0506 40.0404 0
58.6855 39.41 0
26.6155 52.1183 0
24.309 50.5535 0
74.2196 50.1573 0
71.1583 50.8553 0
69.1338 52.4343 0
67.9088 52.5656 0
59.7726 36.5281 0
66.5128 40.8508 0
34.0983 41.227 0
36.0113 35.9576 0
23.1882 47.3782 0
21.645 43.4729 0
28.3452 41.9807 0
74.3185 44.9027 0
76.6299 48.7651 0
43.0506 43.8381 0
46.2664 43.1235 0
49.9679 43.1716 0
48.4317 42.9543 0
51.7638 44.2094 0
54.0901 44.3253 0
52.9072 44.6209 0
56.2756 43.8742 0
33.8844 49.5779 0
33.7879 51.0935 0
66.5299 51.9108 0
66.5919 49.9174 0
41.8279 44.076 0
40.6981 43.8139 0
38.4547 43.4223 0
37.1366 44.0289 0
35.3429 45.7405 0
34.3248 47.023 0
66.0247 46.7476 0
65.0221 45.4712 0
63.1957 43.7132 0
61.7102 43.2624 0
58.883 43.6746 0
57.5426 43.9904 0
33.4029 52.3189 0
29.1785 53.9401 0
40.8224 31.179 0
50.8861 36.1802 0
55.6742 34.4614 0
23.575 53.674 0
76.9058 52.141 0
70.2272 53.5454 0
66.3983 53.1532 0
65.4881 35.3414 0
30.9346 34.7562 0
19.4542 47.5071 0
26.1176 40.2145 0
72.0224 34.2743 0
72.0615 41.5683 0
77.4829 45.5118 0
43.1645 45.2806 0
45.8075 44.9165 0
48.7641 45.0075 0
51.4437 45.6362 0
53.77 45.7521 0
56.2198 45.5727 0
34.9133 50.288 0
65.0815 50.5051 0
40.812 45.2564 0
38.3641 45.601 0
36.0279 47.49 0
64.141 47.2353 0
61.653 45.5081 0
58.8271 45.3731 0
36.075 52.562 0
34.9257 53.3282 0
33.5118 53.8435 0
31.9153 55.6409 0
26.1155 59.1263 0
23.0176 57.5355 0
32.378 22.8609 0
47.0329 26.8658 0
63.1539 23.2149 0
20.0083 55.2477 0
80.1706 54.5126 0
75.7832 56.0137 0
71.9216 56.3582 0
69.0771 55.6719 0
65.7641 54.1615 0
64.0888 54.0019 0
68.1728 29.1708 0
26.7548 30.2549 0
17.2548 51.9793 0
14.6041 42.6596 0
22.3824 34.24 0
84.8844 47.092 0
84.7028 52.2568 0
75.1831 38.121 0
81.2107 44.1501 0
42.4547 46.6115 0
41.4138 46.4202 0
44.964 46.4566 0
43.6774 46.3737 0
47.7354 46.3978 0
46.3843 46.3303 0
50.62 46.7112 0
49.2716 46.6151 0
53.0512 47.1065 0
51.7633 47.1227 0
55.5143 46.719 0
54.2341 46.8109 0
58.0631 46.6733 0
56.7813 46.8352 0
36.3742 48.8132 0
36.0291 49.8163 0
35.9326 51.3318 0
63.3791 52.2654 0
63.8243 51.2528 0
63.8863 49.2594 0
63.8366 48.3557 0
40.284 46.1581 0
39.3683 46.3385 0
38.0502 46.9452 0
37.3924 47.5307 0
62.834 47.0793 0
62.0188 46.7533 0
60.5333 46.3026 0
59.4034 46.3575 0
38.0664 52.7591 0
36.1839 54.0866 0
34.0875 56.9545 0
29.6175 60.036 0
22.8967 61.5995 0
21.7278 15.518 0
39.9556 16.3899 0
48.9004 11.6828 0
56.9499 17.1258 0
76.6576 15.764 0
15.6563 57.3073 0
84.5019 57.7437 0
73.3921 59.7077 0
66.5086 55.8245 0
62.4484 53.7688 0
82.9382 7.88415 0
79.7583 22.7402 0
16.311 7.96363 0
18.3342 22.4485 0
10.7321 47.004 0
16.5662 36.1853 0
15.4985 30.5632 0
89.3907 49.886 0
83.3335 31.4119 0
81.5827 39.4923 0
41.9267 47.5133 0
44.2542 47.7875 0
46.8919 47.9379 0
49.5913 48.1016 0
52.2275 48.1815 0
54.7955 48.0734 0
57.3576 47.8196 0
37.3936 49.857 0
37.924 51.5288 0
62.1839 51.0197 0
62.5794 49.1034 0
39.9701 47.5024 0
38.3966 48.2683 0
38.5127 49.0385 0
61.7643 48.7377 0
61.7144 47.8737 0
59.7693 47.6028 0
38.8932 51.2874 0
61.3438 51.2228 0
39.2041 53.0673 0
38.4709 53.6288 0
38.181 54.7387 0
37.0317 55.5048 0
36.5312 57.2797 0
34.8864 58.8064 0
33.3831 60.6675 0
30.7714 62.7841 0
28.0159 64.9421 0
27.1614 7.93973 0
38.6532 8.52105 0
59.8794 8.74944 0
71.7742 8.02879 0
19.2637 64.9188 0
14.9657 63.1911 0
10.7641 60.4082 0
6.3146 57.3695 0
6.01742 51.4337 0
94.2149 52.5324 0
93.2946 57.5879 0
89.3077 60.9283 0
84.5536 63.4345 0
79.4452 65.0986 0
74.5492 64.1223 0
70.2444 62.8318 0
66.8109 61.3705 0
65.2021 58.6942 0
62.7047 57.3619 0
62.0647 55.8311 0
61.7747 54.7212 0
61.065 52.9847 0
93.4801 14.5928 0
89.7947 20.8032 0
86.1215 25.1902 0
6.2665 14.5849 0
13.0001 24.6475 0
9.79061 20.7901 0
5.77311 45.8619 0
5.65973 40.915 0
12.2898 34.9209 0
94.2139 47.4096 0
88.1242 37.2832 0
93.3502 42.6737 0
41.091 48.2793 0
40.43 48.1532 0
42.1319 48.4706 0
43.4629 48.6691 0
42.7961 48.5788 0
44.7495 48.752 0
46.0893 48.8786 0
45.4186 48.8244 0
47.4404 48.9461 0
48.785 49.0004 0
48.1123 48.9823 0
50.1333 49.0966 0
51.479 49.0785 0
50.8063 49.0966 0
52.7668 49.0623 0
54.1095 48.9718 0
53.4388 49.0261 0
55.3897 48.8799 0
56.7256 48.7173 0
56.0587 48.8076 0
58.0074 48.5554 0
59.3326 48.3211 0
58.6716 48.4471 0
39.3793 51.7387 0
39.3293 52.2844 0
60.9398 52.2017 0
60.8898 51.656 0
38.0177 50.6187 0
39.1368 49.8002 0
61.7891 50.2102 0
61.8141 49.6414 0
60.9741 49.8445 0
39.5143 48.3336 0
39.1705 48.4529 0
60.9491 48.4118 0
60.4625 48.2662 0
39.473 50.8285 0
60.495 50.8465 0
39.4935 50.1886 0
39.49 50.4503 0
60.478 50.4683 0
60.4745 50.2066 0
39.6433 49.6116 0
39.6304 49.1038 0
39.6401 49.3576 0
60.4995 49.6379 0
60.5027 49.3839 0
60.5124 49.1301 0
60.999 49.2758 0
39.2866 49.2231 0
60.9491 50.4132 0
38.9869 50.3772 0
60.8991 47.5478 0
39.0544 47.6828 0
62.6291 50.0071 0
37.0484 50.8601 0
61.7386 52.0323 0
38.7996 52.1976 0
58.6394 47.6577 0
56.0758 47.9815 0
53.5153 48.1653 0
50.9396 48.1977 0
48.243 48.0054 0
45.5408 47.8705 0
42.9676 47.7046 0
40.8858 47.322 0
89.1426 45.0299 0
10.9292 41.1473 0
13.2822 16.2583 0
85.8816 16.4712 0
63.1581 55.5053 0
68.8995 58.6885 0
78.9203 60.1072 0
89.2686 55.1759 0
11.79 53.1185 0
19.2582 59.9372 0
66.7281 15.9207 0
30.7422 15.6303 0
26.3824 62.3659 0
32.179 58.2002 0
35.0346 54.8528 0
37.3332 53.3205 0
62.5296 48.1997 0
37.7387 48.8539 0
75.9654 28.8527 0
20.4872 28.7554 0
47.9123 19.484 0
60.1675 45.0573 0
63.1384 45.9589 0
37.046 46.2076 0
39.6822 44.9943 0
65.1436 48.5116 0
65.0195 52.4985 0
34.8167 51.8036 0
35.0098 48.7725 0
57.4868 45.689 0
54.9529 45.4565 0
52.5871 46.0477 0
50.3003 45.2247 0
47.2279 44.7902 0
44.3872 45.0427 0
41.9418 45.5184 0
74.3503 42.9027 0
80.2544 49.1127 0
17.9986 43.5565 0
21.3237 51.0245 0
34.4234 29.8935 0
59.998 30.4509 0
67.7772 53.808 0
73.3886 53.2555 0
54.4657 38.9623 0
46.504 33.1156 0
26.2516 55.6286 0
31.989 52.8343 0
69.7727 40.2339 0
30.9694 40.6037 0
57.5984 42.2918 0
63.253 41.4676 0
66.9058 44.9836 0
33.6398 45.2734 0
37.2272 41.8502 0
41.714 42.6335 0
68.0403 51.3232 0
32.759 50.3834 0
53.2273 43.1941 0
49.6355 41.1184 0
74.2867 46.9026 0
25.7211 43.3578 0
71.962 48.3709 0
26.5529 48.3941 0
69.0611 48.3443 0
32.1471 48.1908 0
71.0661 45.3852 0
29.6283 46.3947 0
29.8327 50.3157 0
88.171 34.6089 0
96.883 39.2779 0
91.3087 36.0062 0
92.2268 38.8804 0
96.0831 38.1116 0
88.4916 41.0364 0
3.11699 39.2779 0
11.8472 33.3697 0
9.99171 35.2719 0
3.91691 38.1116 0
8.31657 37.7935 0
11.6863 37.2786 0
11.3953 22.7188 0
10.9726 26.5935 0
9.36792 24.6648 0
11.8417 29.1025 0
4.16106 19.9698 0
5.35331 22.5094 0
8.23839 22.8842 0
11.5364 18.5242 0
13.1411 20.4529 0
8.02856 17.6875 0
6.97584 20.3799 0
5.21378 17.2773 0
6.68616 24.9782 0
7.77806 26.7826 0
4.23965 14.6474 0
9.77436 15.4216 0
87.9581 22.9967 0
90.4248 24.6713 0
88.5881 26.8649 0
91.5543 22.8907 0
95.8389 19.9698 0
94.6467 22.5094 0
87.742 29.4242 0
86.0015 20.8307 0
87.8381 18.6372 0
91.6374 17.698 0
94.6595 17.2813 0
92.8168 20.3865 0
95.6336 14.6514 0
93.3138 24.9782 0
92.2219 26.7827 0
89.6808 15.532 0
65.8268 8.38911 0
62.3281 4.37472 0
68.2755 4.01439 0
54.9397 4.37472 0
79.5536 0 0
84.6652 0 0
75.6639 4.01439 0
69.2511 11.9748 0
63.3037 12.3351 0
32.9073 8.23039 0
31.1923 3.96987 0
36.9382 4.26052 0
23.8039 3.96987 0
20.4464 0 0
27.8348 0 0
44.3266 4.26052 0
34.6977 12.0757 0
28.9518 11.785 0
81.6762 35.2886 0
85.4477 34.7857 0
85.0613 38.3866 0
86.3262 31.8221 0
85.0233 42.4808 0
77.3154 34.2206 0
80.06 31.3865 0
16.0343 33.0936 0
14.0888 35.5173 0
13.8884 33.0464 0
14.1559 38.7596 0
13.4975 31.2305 0
17.5888 30.213 0
18.7228 33.1928 0
16.4982 27.5172 0
14.0805 28.4757 0
15.6671 23.548 0
15.8082 19.3534 0
19.4107 25.6019 0
81.6425 27.4547 0
82.9399 23.9652 0
84.8804 28.868 0
82.8199 19.6057 0
77.8619 25.7964 0
79.7979 11.8241 0
74.2159 11.8964 0
77.3562 7.95647 0
71.6929 15.8424 0
81.2459 3.94207 0
84.4099 12.1776 0
81.2696 16.1176 0
52.9252 14.4043 0
54.3899 10.2161 0
58.4147 12.9376 0
49.4502 5.84139 0
61.839 16.5233 0
52.4311 18.3049 0
48.4063 15.5834 0
44.428 14.0363 0
39.3044 12.4555 0
43.7768 10.1019 0
35.3489 16.0101 0
43.9339 17.9369 0
19.0194 11.7408 0
21.7362 7.95168 0
24.4446 11.7289 0
18.3787 3.98182 0
26.235 15.5741 0
17.505 15.8882 0
14.7966 12.111 0
74.6689 34.2475 0
78.7772 37.6693 0
78.1063 41.2716 0
74.7667 40.5119 0
21.4348 31.4977 0
19.3529 36.9384 0
17.0605 39.7692 0
19.7333 40.5718 0
73.9939 31.5635 0
73.6028 36.1977 0
72.4779 39.1775 0
70.8975 37.2541 0
68.7552 34.8079 0
66.8304 32.2561 0
70.0976 31.7226 0
62.7431 32.8962 0
64.0854 29.8108 0
72.0691 29.0117 0
67.6304 37.7876 0
32.679 32.3248 0
35.2174 32.9255 0
33.473 35.3569 0
33.4904 38.2806 0
36.6192 38.9039 0
30.952 37.6799 0
59.8853 33.4895 0
62.6304 35.9347 0
64.3705 38.4045 0
61.5128 38.9979 0
57.8361 32.4561 0
57.7234 35.4947 0
57.1192 37.7452 0
55.07 36.7118 0
46.662 35.491 0
48.6951 34.6479 0
48.8531 37.0233 0
50.2608 38.6493 0
52.6759 37.5712 0
48.2278 39.4924 0
38.8906 36.7094 0
38.4168 33.5683 0
41.2962 34.3201 0
37.6229 30.5362 0
43.6632 32.1473 0
44.137 35.2884 0
39.4986 39.6557 0
44.295 37.6638 0
46.0625 39.6617 0
43.5094 42.0452 0
47.4702 41.2876 0
43.5374 39.459 0
41.742 40.0473 0
90.855 3.87179 0
87.4357 7.81386 0
86.3575 3.94207 0
88.9074 12.1074 0
89.7768 0 0
94.8884 0 0
95.9666 3.87179 0
96.4619 11.0153 0
92.7066 11.1682 0
95.6884 7.59065 0
91.0548 28.5395 0
90.4438 29.399 0
4.13249 7.60125 0
6.98759 11.1748 0
3.4114 11.0113 0
10.4954 12.0115 0
8.94523 28.5395 0
9.55625 29.399 0
3.85434 3.88236 0
13.2671 3.98182 0
12.0098 7.86418 0
8.96594 3.88236 0
35.2233 0 0
42.6116 0 0
58.9814 23.7056 0
55.8795 20.661 0
60.0519 20.1704 0
51.3606 21.8401 0
64.941 19.5678 0
61.576 26.8329 0
57.4035 27.3236 0
67.5538 22.9282 0
70.0632 25.9061 0
65.6633 26.1928 0
73.9595 25.747 0
69.3409 19.2811 0
78.208 19.2521 0
75.856 22.6908 0
74.3056 19.2027 0
23.3224 19.0622 0
21.6256 22.5274 0
20.031 18.9832 0
22.7021 25.6809 0
27.8296 19.1183 0
29.5664 26.5579 0
25.8359 26.4307 0
28.6475 22.7336 0
23.621 29.5051 0
31.5601 19.2456 0
33.4007 26.3772 0
30.5891 30.0742 0
40.5719 27.7735 0
43.6772 25.617 0
43.9277 29.0224 0
44.1168 21.926 0
47.4726 23.1749 0
46.7685 29.9907 0
37.3724 27.1308 0
36.1668 19.6254 0
40.1385 20.379 0
36.3497 23.6145 0
26.6345 33.6631 0
24.4483 35.6556 0
24.5686 32.2474 0
22.5794 39.2251 0
28.8447 32.5055 0
28.7244 35.9137 0
28.7418 38.8374 0
51.8543 33.2146 0
54.2483 32.3552 0
53.2802 35.3208 0
56.4102 30.35 0
49.6632 31.6823 0
50.921 25.531 0
53.8157 27.2227 0
49.9277 28.5575 0
6.55691 37.3991 0
6.98815 39.3542 0
5.22849 38.9599 0
9.62291 39.4704 0
8.29448 41.0312 0
4.38836 40.0964 0
4.79725 37.0048 0
5.75361 35.9629 0
7.54889 36.3923 0
10.839 36.2752 0
10.0014 37.536 0
9.15414 36.5327 0
11.3078 39.213 0
8.38646 35.1316 0
11.1408 35.0964 0
11.988 36.0997 0
11.669 30.5002 0
10.1854 30.2456 0
11.0135 29.6741 0
12.4209 26.875 0
10.3935 28.821 0
10.8322 31.0786 0
89.8147 30.2455 0
88.1228 30.661 0
88.7784 29.8348 0
89.3984 28.9818 0
86.9318 27.3072 0
89.1679 31.0786 0
85.8869 33.3039 0
87.2486 33.2155 0
86.8093 34.6973 0
87.4149 31.86 0
88.3373 33.2533 0
88.1476 35.946 0
86.7859 36.0344 0
84.3906 33.0988 0
84.8298 31.617 0
86.7765 39.7115 0
86.7575 41.7586 0
85.0423 40.4337 0
88.8171 43.0331 0
87.083 43.7553 0
83.303 40.9865 0
83.322 38.9394 0
86.5928 37.8349 0
88.3079 39.1598 0
79.4958 34.7546 0
78.6877 32.8036 0
80.8681 33.3376 0
76.6404 31.5367 0
78.0127 30.1196 0
81.6967 31.3992 0
82.5049 33.3503 0
81.6294 37.3904 0
80.2267 36.4789 0
14.1223 37.1384 0
12.9211 38.0191 0
12.8875 36.3979 0
12.5425 39.9534 0
13.1893 35.2191 0
15.3275 35.8513 0
15.3611 37.4724 0
12.8678 33.2081 0
12.6723 32.3001 0
13.693 32.1384 0
11.6718 32.6338 0
12.4969 31.5642 0
14.498 30.8968 0
14.6935 31.8048 0
13.0891 33.9836 0
12.0685 34.1453 0
16.8115 31.6533 0
18.1558 31.7029 0
17.3785 33.1432 0
19.038 29.4842 0
19.605 30.9741 0
17.6445 34.6891 0
16.3003 34.6395 0
15.7664 31.8284 0
16.5437 30.3881 0
13.789 29.8531 0
12.6696 30.1665 0
12.9611 28.7891 0
13.5403 26.5616 0
14.7895 29.5194 0
15.9984 29.0402 0
17.0435 28.8651 0
18.4927 28.1363 0
17.4162 24.9828 0
86.3112 29.1461 0
87.0341 30.6231 0
85.6033 30.345 0
84.107 30.14 0
85.501 27.0291 0
82.488 29.4333 0
80.8512 29.4206 0
80.7004 25.0974 0
78.8039 28.1537 0
80.1799 38.5808 0
79.8445 40.3819 0
78.4417 39.4704 0
76.6447 39.6963 0
76.2283 42.0872 0
76.9801 37.8952 0
15.6082 39.2644 0
15.8323 41.2144 0
14.38 40.7096 0
17.5296 41.6629 0
16.3013 43.1081 0
12.7666 41.9035 0
16.8134 37.9773 0
19.5431 38.7551 0
18.3969 40.1705 0
18.2067 38.3538 0
18.8659 42.0642 0
17.9596 36.5619 0
20.8677 35.5892 0
20.9662 38.0818 0
20.6891 42.0224 0
21.1564 39.8985 0
24.5468 38.1482 0
22.4809 36.7325 0
19.8218 43.5147 0
22.1122 41.349 0
24.1502 41.2914 0
23.683 43.4153 0
79.6585 42.7108 0
79.3468 44.8309 0
77.7946 43.3917 0
80.7326 46.6314 0
78.8686 47.3123 0
75.9166 44.2073 0
81.3967 41.8212 0
90.3592 39.9584 0
92.7885 40.777 0
90.9209 41.855 0
94.5549 39.0791 0
95.1166 40.9758 0
91.2464 43.8518 0
90.1755 38.0818 0
93.2558 36.5055 0
93.7148 37.9426 0
91.7678 37.4433 0
95.2028 37.0048 0
89.7165 36.6447 0
92.2638 35.4987 0
94.2465 35.963 0
89.5709 33.9432 0
91.1398 34.6418 0
89.7399 35.3075 0
93.2188 34.9912 0
92.1252 34.0947 0
93.782 45.0417 0
96.2776 43.5454 0
96.7094 45.9133 0
90.9708 33.2775 0
89.7616 32.544 0
97.107 48.7048 0
91.6783 46.2197 0
10.4382 33.3236 0
10.9194 34.3208 0
9.51046 34.2747 0
6.78121 34.9912 0
7.8749 34.0946 0
5.71642 43.3884 0
3.28408 45.1395 0
3.22739 42.666 0
2.88655 47.931 0
9.02922 33.2775 0
10.2384 32.544 0
8.35117 43.5046 0
66.0065 60.0323 0
65.1477 61.3253 0
64.3433 59.9871 0
65.8836 62.2747 0
60.1411 52.3711 0
60.0835 51.8262 0
63.7266 58.9563 0
67.0508 58.6913 0
67.8552 60.0295 0
68.5276 62.1011 0
68.8543 64.2078 0
67.1376 63.4771 0
70.2975 65.175 0
60.041 51.2798 0
60.0203 50.9017 0
69.572 60.7601 0
76.9972 64.6105 0
77.2317 67.2341 0
74.7837 66.746 0
79.7226 67.5493 0
60.0068 50.5233 0
60.0017 50.2617 0
72.4498 65.8203 0
76.7347 62.1148 0
79.1827 62.6029 0
81.9994 64.2666 0
84.865 66.3765 0
82.3108 67.2086 0
87.2768 65.3775 0
94.1421 64.1421 0
92.1752 65.8671 0
81.7369 61.7709 0
91.3011 59.2581 0
93.7183 60.865 0
91.7249 62.5352 0
95.3075 58.794 0
90 67.3205 0
87.6536 68.4776 0
89.6538 64.1244 0
89.2882 58.0521 0
91.2816 56.3819 0
93.7547 55.0601 0
96.7667 53.8544 0
96.3065 56.3822 0
97.1074 51.2662 0
85.1763 69.3185 0
82.6105 69.8289 0
91.7417 53.8541 0
6.16601 54.4016 0
3.49803 56.2729 0
3.34944 53.305 0
4.49705 58.6847 0
5.85786 64.1421 0
4.1329 62.1752 0
3.00871 50.7169 0
8.90372 52.2761 0
9.05231 55.244 0
8.53934 58.8888 0
8.31097 62.2751 0
6.08623 60.7558 0
10.382 63.8643 0
2.67949 60 0
1.52238 57.6536 0
11.277 56.7633 0
17.1147 64.0549 0
17.0437 67.1186 0
14.8947 66.2548 0
19.6319 67.4594 0
0.68147 55.1763 0
0.171099 52.6105 0
12.4829 65.2558 0
17.112 61.5641 0
19.261 62.428 0
29.3937 63.8631 0
31.6536 64.184 0
30.2758 65.2629 0
32.9075 62.9816 0
35.0437 63.179 0
33.842 64.436 0
28.8327 66.2301 0
27.1992 63.654 0
28.5769 62.575 0
34.1348 59.737 0
35.7009 60.0432 0
34.9493 60.9738 0
36.3176 59.0124 0
32.5357 65.5838 0
31.1346 66.6138 0
34.2134 61.9233 0
32.781 59.4339 0
33.5327 58.5033 0
29.6495 67.5182 0
37.14 58.2491 0
37.4918 57.4969 0
37.78 56.7183 0
35.7829 56.0662 0
27.3739 68.591 0
83.562 35.0371 0
85.2545 36.5861 0
83.3688 36.8376 0
91.8028 51.2092 0
91.8023 48.6478 0
94.2144 49.971 0
89.2667 47.4579 0
89.3297 52.5309 0
15.0615 34.3054 0
13.9886 34.2818 0
14.9614 33.07 0
8.37475 49.2188 0
5.89526 48.6478 0
8.25259 46.4329 0
10.8307 44.0756 0
11.261 50.0612 0
15.2894 27.9965 0
14.7491 26.0823 0
83.2615 28.1613 0
83.882 26.3225 0
67.704 57.2565 0
65.8553 57.2593 0
64.1801 57.0997 0
64.8334 55.6649 0
73.9706 61.915 0
72.3968 63.4771 0
71.8182 61.2698 0
71.1458 59.1981 0
76.1562 59.9075 0
86.9048 59.336 0
86.9306 62.1814 0
84.5277 60.5891 0
81.7111 58.9254 0
86.8852 56.4598 0
15.311 60.2492 0
12.8649 61.7996 0
13.2102 58.8577 0
13.7231 55.2129 0
17.4572 58.6222 0
31.5003 60.3518 0
32.0773 61.7258 0
30.1944 61.41 0
27.9999 61.2009 0
30.8982 59.1181 0
35.3093 57.1171 0
35.7088 58.0431 0
34.4869 57.8804 0
33.1332 57.5773 0
34.561 55.9036 0
78.0463 35.945 0
76.2492 36.1708 0
84.7936 49.6744 0
87.1376 48.489 0
87.0468 51.0714 0
87.0135 46.0609 0
86.9857 53.7163 0
82.4786 50.6847 0
82.5694 48.1023 0
19.0379 35.0656 0
20.5526 33.7164 0
68.9883 57.1802 0
67.7928 55.7482 0
67.1429 54.8162 0
68.4271 54.74 0
73.8524 56.186 0
74.5876 57.8607 0
72.6568 58.033 0
77.3517 58.0605 0
70.4106 57.5233 0
72.6551 54.8069 0
74.5859 54.6346 0
82.4367 53.3847 0
84.6024 55.0002 0
82.3362 56.1282 0
79.5454 57.3099 0
80.2125 51.8127 0
18.6316 53.6135 0
17.8323 56.2775 0
16.4555 54.6433 0
19.6333 57.5924 0
14.5224 52.5489 0
19.2893 51.5019 0
20.666 53.1361 0
24.5665 58.3309 0
24.5061 60.3629 0
22.9571 59.5675 0
26.249 60.7461 0
24.6395 61.9827 0
21.0774 60.7683 0
21.1379 58.7364 0
24.6346 56.5821 0
26.1836 57.3775 0
32.0471 56.9205 0
33.0014 56.2977 0
33.475 55.2468 0
31.9522 54.2376 0
84.9539 44.7864 0
83.0476 45.621 0
83.117 43.3155 0
71.0744 54.9518 0
70.4994 56.0151 0
69.6521 54.6086 0
69.0022 53.6767 0
71.8079 53.4004 0
78.5382 53.3268 0
77.9769 55.2632 0
76.3445 54.0774 0
75.1472 52.6983 0
78.5801 50.6269 0
23.2963 55.6048 0
21.5129 56.3916 0
21.7917 54.4608 0
22.4493 52.3492 0
24.9133 54.6513 0
78.4422 48.9389 0
77.0564 47.1385 0
75.8848 46.2072 0
75.4583 47.8339 0
22.4166 45.4256 0
21.3212 47.4427 0
20.5496 45.49 0
22.2559 49.2014 0
20.389 49.2658 0
18.7264 45.5318 0
24.4546 45.368 0
72.2735 52.0554 0
70.6928 52.2003 0
69.5993 51.0892 0
71.5602 49.6131 0
75.4248 49.4612 0
76.7678 50.4531 0
75.5627 51.1492 0
73.8041 51.7064 0
74.2532 48.5299 0
25.4623 51.3359 0
25.0953 52.8961 0
23.942 52.1137 0
26.4336 53.8734 0
22.8164 50.789 0
25.431 49.4738 0
26.5842 50.2562 0
27.715 54.7844 0
27.897 53.0292 0
29.5056 52.1279 0
30.5838 53.3872 0
23.7486 48.9659 0
24.8706 47.8862 0
72.689 50.5063 0
73.0908 49.2641 0
27.6498 58.1111 0
29.4007 58.5659 0
27.8665 59.5811 0
30.6815 57.648 0
27.7178 56.3622 0
30.5469 54.7905 0
30.5496 56.3684 0
29.1812 55.518 0
23.2674 63.5329 0
21.451 65.1925 0
21.0802 63.2591 0
21.8191 67.7331 0
25.0103 63.9161 0
26.4988 67.1558 0
24.31 67.418 0
25.8271 65.2042 0
24.9817 69.3696 0
22.5107 69.8418 0
14.9597 45.1453 0
13.0237 47.3174 0
12.6681 44.8318 0
13.5526 50.3747 0
16.6569 45.5937 0
18.3545 49.7432 0
16.285 49.8051 0
17.3848 47.569 0
58.406 8.45499 0
60.0134 10.3698 0
79.5572 20.4144 0
77.0655 20.6179 0
69.2677 14.1405 0
67.616 16.0172 0
37.1742 13.5497 0
34.8273 12.6883 0
72.2336 44.7716 0
70.4042 43.0676 0
36.6874 22.2879 0
37.2858 24.7153 0
46.0441 8.44622 0
45.1542 10.7825 0
1.86718 10.4496 0
4.07032 9.26796 0
16.1461 4.02332 0
14.3658 2.26823 0
37.7924 13.6222 0
37.7614 11.1224 0
72.2538 1.29858 0
69.7897 1.72112 0
65.3931 25.2833 0
65.8501 22.8254 0
17.0815 0.164228 0
19.1007 1.6383 0
30.7893 0.556667 0
29.0378 2.34054 0
20.1337 29.1666 0
18.0093 27.8487 0
87.236 23.026 0
89.7107 23.3807 0
80.4529 11.9784 0
79.0406 9.91565 0
53.5005 14.5917 0
52.974 17.0356 0
79.8925 20.8229 0
77.3929 20.7796 0
95.4191 2.47689 0
96.8199 4.54755 0
40.3986 38.6568 0
38.1903 39.8287 0
34.3489 27.3029 0
35.0113 29.7136 0
88.4058 30.6627 0
87.7766 28.2432 0
42.4339 32.1793 0
44.3159 30.5337 0
26.0544 13.0258 0
26.8919 10.6703 0
40.5449 37.7315 0
42.7765 36.6046 0
65.9316 38.9067 0
67.4575 40.8871 0
21.6423 36.7769 0
24.1343 36.9777 0
87.3003 18.1085 0
88.9202 16.2044 0
31.2919 10.1451 0
28.8567 10.7104 0
60.2814 8.50996 0
61.5874 10.6417 0
62.426 9.57884 0
60.969 7.54729 0
18.7613 7.043 0
18.1802 9.47452 0
63.0507 44.0664 0
62.3534 46.4672 0
84.3114 26.0111 0
83.6302 28.4165 0
47.3514 44.5068 0
49.2156 42.841 0
30.7361 4.96622 0
33.1072 5.75839 0
37.2047 2.50844 0
36.9209 0.0246003 0
39.5364 0.75839 0
37.8623 2.61513 0
66.8753 34.7564 0
64.6147 35.8241 0
25.2129 21.5252 0
23.6394 23.4679 0
89.2557 30.3831 0
86.9921 29.3219 0
74.3003 10.2016 0
76.6762 9.42353 0
80.3589 12.9129 0
81.7616 14.9823 0
81.1084 17.0734 0
80.2008 19.4028 0
78.4232 10.8573 0
79.767 12.9655 0
67.695 27.7045 0
65.1973 27.5974 0
62.4504 25.1195 0
60.0185 24.5401 0
61.7403 24.9448 0
62.5114 27.3229 0
69.5387 33.1035 0
67.051 32.8562 0
82.5827 12.596 0
85.0208 13.1486 0
51.4605 18.3954 0
53.5435 19.7779 0
67.0086 16.1959 0
65.1812 14.4899 0
20.0012 22.5749 0
20.4586 20.1171 0
53.0685 24.2902 0
52.9601 21.7926 0
62.0942 34.1833 0
64.06 35.7279 0
67.9712 28.4681 0
69.9384 26.9254 0
27.3313 19.5608 0
25.405 17.9673 0
43.3874 4.20276 0
43.923 1.7608 0
90.2092 10.3396 0
88.4139 8.59975 0
67.9818 37.0308 0
68.6671 34.6265 0
9.54187 8.241 0
11.9947 7.75773 0
49.9623 6.80569 0
52.3373 7.5863 0
81.1722 29.4001 0
83.1125 27.8236 0
43.1303 20.2448 0
45.5264 20.958 0
73.0473 25.7552 0
75.2709 24.6126 0
59.3231 18.7941 0
57.0751 19.888 0
94.811 14.9571 0
92.393 14.3221 0
8.75199 19.5725 0
11.2093 19.1124 0
17.4351 22.9226 0
15.7817 21.0474 0
16.9249 36.7215 0
18.1247 34.5283 0
59.7891 42.2237 0
57.5941 43.4202 0
84.623 20.5565 0
84.6767 23.0559 0
9.90435 20.1973 0
7.80268 21.5511 0
16.8057 30.2555 0
15.1785 32.1535 0
46.6551 3.67879 0
48.1065 5.71431 0
57.7918 40.636 0
55.7508 42.0798 0
67.5368 37.3239 0
69.6084 38.7233 0
68.3691 7.74285 0
70.2517 6.09792 0
24.7876 8.68587 0
27.2118 9.29686 0
16.1182 15.637 0
15.2129 17.9673 0
96.9633 4.6667 0
94.4936 5.05522 0
25.2006 34.109 0
26.0158 31.7457 0
16.8071 15.8406 0
17.9269 18.0758 0
86.8911 15.797 0
88.5918 13.9647 0
26.956 36.6854 0
28.2359 38.833 0
45.0512 37.3536 0
42.7534 38.3385 0
25.9554 33.9599 0
28.4337 33.6311 0
70.5741 16.181 0
72.5458 17.718 0
49.8253 47.9614 0
50.9706 45.7391 0
82.7782 18.5157 0
81.0988 16.6638 0
12.4231 5.63808 0
9.99956 5.02457 0
18.3031 2.68697 0
20.5316 1.55399 0
98.8815 4.28751 0
97.6823 6.48109 0
80.3161 37.7064 0
80.9157 35.2794 0
48.5376 3.87559 0
48.4457 1.37728 0
46.0856 5.54001 0
43.9287 6.80401 0
61.1214 38.3405 0
59.0311 39.7119 0
81.2107 11.2237 0
81.7912 8.79201 0
79.3594 30.7077 0
77.0304 31.6167 0
52.3975 8.39793 0
50.9318 6.37265 0
25.8638 30.2338 0
23.7287 28.9334 0
94.5516 17.5349 0
96.8277 16.5008 0
29.5415 32.3826 0
31.8518 33.3378 0
65.8244 4.63012 0
65.8115 7.13008 0
53.2539 2.17763 0
51.4505 3.90897 0
14.5811 9.1376 0
15.1116 6.69453 0
7.22693 18.9447 0
5.03656 17.7396 0
61.2257 40.6266 0
59.904 42.7487 0
74.2223 7.45166 0
73.8039 4.98693 0
23.543 30.5524 0
23.784 28.064 0
78.8113 7.00782 0
76.6538 5.74481 0
79.0545 11.4304 0
81.1673 12.7668 0
7.64582 2.5461 0
5.14681 2.6166 0
76.4736 16.1525 0
74.4918 14.6286 0
47.9006 9.61422 0
49.6882 11.362 0
80.0424 2.06671 0
82.4988 1.60206 0
29.1416 30.2058 0
27.1857 28.6488 0
71.0023 16.5858 0
71.5525 14.1471 0
4.54258 13.6275 0
6.49893 12.071 0
40.5767 0.459502 0
39.5322 2.73082 0
60.4233 12.634 0
59.8542 15.0684 0
41.2134 3.80424 0
39.1732 5.24902 0
33.6241 29.7192 0
36.117 29.9068 0
33.1649 21.2123 0
32.9475 18.7218 0
79.6174 15.7141 0
80.1749 18.1511 0
72.6898 34.9836 0
70.5555 33.6818 0
56.7325 8.53541 0
54.3232 7.86822 0
44.5337 9.16538 0
43.2001 11.28 0
82.5813 16.6696 0
83.6875 14.4277 0
11.5892 0.314171 0
10.7015 2.65129 0
78.0373 16.3067 0
80.0678 17.7651 0
59.4208 3.26316 0
60.7501 5.38046 0
72.2665 1.42631 0
72.1919 3.9252 0
66.8008 2.90247 0
68.069 0.747976 0
13.3401 3.79144 0
15.1561 2.07321 0
72.0039 26.788 0
74.4618 27.2451 0
16.832 17.64 0
15.4205 19.7034 0
72.2336 38.5989 0
72.1633 36.0998 0
43.4685 21.0317 0
41.2019 22.0866 0
57.2723 19.501 0
57.5392 21.9868 0
64.709 29.0455 0
67.1941 28.7734 0
24.6215 32.1437 0
27.028 31.4666 0
50.117 29.0427 0
49.1066 31.3294 0
59.822 37.4454 0
58.5569 35.2891 0
22.4103 29.3038 0
24.8266 28.6622 0
39.6831 36.1603 0
37.2309 36.6468 0
5.92419 10.1055 0
3.89757 11.5694 0
54.8111 21.0363 0
56.847 22.4872 0
68.5416 19.8668 0
68.8487 17.3857 0
42.0081 42.9485 0
42.7754 45.3279 0
19.0551 24.7563 0
16.9051 26.0321 0
69.2595 4.3474 0
66.9092 3.49523 0
18.7229 12.9445 0
19.426 10.5454 0
97.8408 0.550303 0
97.0173 2.91076 0
21.3145 0.627977 0
21.7784 3.08456 0
13.4516 6.01414 0
14.5863 8.24179 0
94.8036 5.82863 0
95.3384 3.38652 0
58.6816 11.8487 0
59.4856 14.2159 0
26.7173 40.208 0
25.2258 42.2144 0
62.4488 18.9787 0
64.5571 17.6352 0
9.53972 7.78559 0
11.9504 7.12315 0
44.2718 18.3286 0
41.8815 19.0613 0
89.0104 10.8786 0
91.4696 10.429 0
65.5059 41.869 0
63.0813 41.2597 0
51.2724 34.6462 0
53.6865 33.9966 0
12.7595 8.63104 0
14.7453 10.1498 0
75.0809 18.6138 0
72.5874 18.4327 0
69.1986 26.6494 0
69.6526 29.1079 0
19.5668 11.9147 0
21.8209 12.996 0
36.8802 40.2887 0
34.4714 39.6198 0
29.2826 28.5078 0
30.9008 30.4134 0
12.3771 19.7056 0
13.5794 17.5137 0
42.0307 43.3933 0
39.637 44.1144 0
34.2202 5.35051 0
33.7196 7.79988 0
94.9433 17.1261 0
93.8548 14.8755 0
53.7832 26.5135 0
54.3636 28.9452 0
68.3151 36.5442 0
67.5366 38.9199 0
71.2684 37.2628 0
69.3237 38.8339 0
30.4426 15.7408 0
32.5991 17.0055 0
62.7575 8.2749 0
65.2432 8.54223 0
52.3979 17.5586 0
51.1273 19.7117 0
68.8421 3.81675 0
68.916 6.31566 0
23.9982 7.85685 0
26.0314 9.31144 0
31.7506 14.8537 0
33.4665 16.672 0
72.4576 6.15945 0
74.7318 5.12111 0
47.2192 15.4741 0
45.6747 17.44 0
36.6535 42.0719 0
38.6848 40.6146 0
22.8004 10.5578 0
24.4422 8.67243 0
22.9459 37.9904 0
25.3251 37.2227 0
79.5775 20.6567 0
81.8285 21.7443 0
80.4576 16.2497 0
78.1844 15.2092 0
68.2051 34.4441 0
68.4486 36.9322 0
32.7502 27.1766 0
34.9822 28.3028 0
49.0975 3.82738 0
47.4581 5.71476 0
34.1693 40.8643 0
32.811 42.9631 0
47.6772 12.8097 0
48.1982 15.2548 0
50.2591 19.0271 0
51.6335 16.9388 0
33.8009 30.8585 0
34.4863 28.4543 0
2.37693 13.8591 0
4.86061 14.1443 0
40.0755 40.4672 0
40.8225 42.853 0
10.1331 16.2422 0
9.51334 18.6642 0
32.9081 16.2962 0
31.8623 18.5669 0
43.2654 1.17423 0
45.6811 0.530395 0
37.1077 37.068 0
39.3507 35.9639 0
81.2603 10.1798 0
81.7523 7.7287 0
30.4536 3.81481 0
28.2962 5.07791 0
49.4072 1.5849 0
47.6112 3.32401 0
60.7899 31.4777 0
62.5662 33.2369 0
26.1513 37.4845 0
24.4722 35.6322 0
33.9346 3.39872 0
36.4225 3.64376 0
46.8617 29.2957 0
45.8374 31.5763 0
19.455 36.4048 0
21.1836 38.2109 0
56.1307 28.4912 0
58.6304 28.5249 0
92.8083 9.50471 0
95.2234 10.1506 0
22.0459 29.2328 0
24.5182 29.6039 0
48.2762 17.9306 0
50.7295 18.4115 0
28.7761 21.868 0
27.7241 19.6001 0
88.6596 18.1295 0
91.0127 18.9738 0
85.3207 15.6203 0
82.8252 15.7698 0
59.5485 45.4377 0
60.829 47.5848 0
89.5209 2.53581 0
89.7256 5.02742 0
95.4396 9.83256 0
93.3478 8.46338 0
64.4723 41.6862 0
62.9831 43.6943 0
56.029 26.2809 0
58.3532 25.3601 0
71.0058 2.04552 0
71.0255 4.54544 0
51.4204 12.0341 0
50.5043 9.70797 0
58.3473 28.0564 0
57.672 25.6493 0
9.3425 7.88949 0
7.79621 5.92506 0
51.6921 13.6427 0
49.2096 13.3475 0
49.7133 24.5783 0
50.1429 27.0411 0
72.635 28.5951 0
70.2313 27.9079 0
81.3171 36.5695 0
79.0023 37.5138 0
80.7827 18.4204 0
81.4392 20.8327 0
63.0494 6.51122 0
60.7603 5.50616 0
49.6091 12.0108 0
47.115 11.8395 0
44.4652 28.7156 0
42.0077 29.1744 0
88.6244 7.8551 0
88.0956 10.2985 0
72.316 6.51831 0
71.0295 8.6619 0
87.6868 13.9958 0
88.6339 16.3094 0
36.5507 41.1062 0
38.2746 42.9167 0
62.5482 3.80873 0
63.7159 1.59816 0
39.9354 15.3072 0
40.0834 12.8116 0
19.3793 6.50327 0
21.5202 5.21239 0
36.3581 46.082 0
38.723 46.8926 0
34.5514 31.549 0
32.3174 32.6712 0
58.9279 19.7593 0
60.7222 21.5002 0
78.2723 16.3341 0
75.8486 15.7214 0
15.8258 29.1219 0
17.1913 27.0278 0
80.5515 1.68117 0
78.1513 2.38043 0
37.6338 41.9092 0
35.1511 42.203 0
84.0892 21.5394 0
84.5852 23.9897 0
86.5564 7.37018 0
86.2138 4.89377 0
44.7647 6.23422 0
46.5614 7.97259 0
84.1717 19.878 0
84.0441 22.3747 0
71.9862 17.7334 0
74.4687 17.4383 0
77.1496 25.1834 0
76.5364 22.7597 0
97.1316 15.3288 0
94.6685 14.9007 0
38.3227 23.8166 0
40.4101 22.4409 0
40.9284 1.94623 0
39.8595 4.2062 0
60.1915 22.7149 0
57.855 21.8257 0
23.1369 1.01272 0
24.5986 3.0409 0
71.9383 32.4246 0
69.4713 32.8292 0
44.1985 38.4241 0
42.2516 39.9923 0
34.1445 4.55266 0
35.5915 6.59136 0
19.9393 15.7024 0
21.6843 17.4926 0
1.51116 8.38764 0
3.2006 10.2304 0
85.6311 25.149 0
87.745 23.8142 0
82.6925 14.9771 0
80.2669 14.3715 0
60.7578 3.45082 0
60.1651 5.87954 0
17.2666 24.4443 0
15.7813 22.4334 0
51.8073 39.1086 0
50.5942 36.9226 0
59.7324 47.0757 0
62.0363 46.105 0
81.7099 19.3424 0
82.009 21.8245 0
60.0727 15.3076 0
57.66 14.6525 0
21.569 24.6529 0
21.458 27.1504 0
50.559 36.8891 0
51.5039 34.5745 0
68.8592 24.3252 0
66.7933 22.9175 0
85.4466 32.2415 0
83.0968 33.0949 0
10.0355 12.7831 0
7.97397 14.1974 0
90.6679 3.20015 0
88.5735 1.83515 0
85.5508 8.51428 0
87.7051 7.24582 0
32.949 40.682 0
33.1179 43.1763 0
16.575 0.850527 0
18.9366 1.67083 0
80.4518 27.7287 0
82.3909 26.1508 0
21.4018 11.1604 0
19.7246 9.30648 0
93.5158 17.179 0
91.2192 16.1913 0
19.3803 35.8929 0
19.2311 33.3974 0
17.9561 35.5226 0
20.2045 34.4297 0
76.6431 12.2193 0
75.0783 14.1691 0
20.8939 4.79484 0
18.5538 3.91515 0
26.2993 34.0275 0
24.1414 32.7652 0
55.3272 7.2644 0
57.4743 5.98376 0
69.3386 4.00327 0
70.4308 6.25205 0
22.3934 17.1977 0
21.7031 14.7949 0
89.4816 6.18335 0
86.9816 6.17093 0
60.153 4.44068 0
57.6648 4.19724 0
86.6721 11.4125 0
84.2697 10.7211 0
80.9479 22.7113 0
82.1178 20.502 0
69.8042 32.6911 0
69.0055 30.3221 0
42.4528 49.1589 0
40.5281 47.5634 0
30.6239 29.5989 0
31.5506 31.9208 0
19.9184 37.7349 0
20.2196 35.2531 0
64.2195 5.81133 0
62.49 7.61649 0
91.4294 1.98251 0
90.9662 4.43923 0
85.7528 10.1962 0
87.2312 12.2123 0
16.1134 1.28536 0
14.077 2.73566 0
71.9671 36.8396 0
74.3922 36.2321 0
14.8957 16.3645 0
17.3172 16.9858 0
85.8947 31.0657 0
87.58 32.9122 0
8.11686 22.1528 0
10.614 22.0331 0
49.9333 35.7919 0
52.4263 35.6052 0
9.11321 20.639 0
10.8359 18.8273 0
62.5485 32.149 0
60.2783 33.1959 0
37.5386 6.9833 0
39.0313 4.97781 0
9.77882 9.24686 0
11.9542 8.01484 0
60.162 26.1697 0
57.6634 26.2555 0
32.8241 17.3596 0
33.7698 19.6738 0
92.6042 11.5247 0
92.934 14.0029 0
50.0439 4.59627 0
52.1266 5.97929 0
21.7555 11.9426 0
23.2173 13.9707 0
16.4488 4.94809 0
18.7627 4.00146 0
38.9339 33.9653 0
41.071 32.6681 0
2.06315 5.00609 0
2.96411 2.67408 0
17.419 17.227 0
16.3899 19.5053 0
81.4765 37.7782 0
82.5044 35.4992 0
72.9252 12.6847 0
74.7568 10.9831 0
66.3256 41.6491 0
63.9329 42.3738 0
63.7631 26.6279 0
65.7508 25.1117 0
49.8633 6.24718 0
48.3247 8.21766 0
60.1875 40.9156 0
62.4095 42.0614 0
23.377 10.9857 0
24.477 13.2307 0
60.0997 31.4169 0
61.0458 33.7309 0
85.0665 22.5447 0
87.5653 22.4665 0
74.5996 19.9524 0
72.1731 19.3504 0
56.0541 12.558 0
58.4984 13.0828 0
61.6773 4.40294 0
60.6261 2.13467 0
60.7172 47.6844 0
58.2191 47.7801 0
50.6471 16.9828 0
50.9639 19.4627 0
26.1197 33.3886 0
27.1081 31.0923 0
43.6871 22.7656 0
41.6325 21.3413 0
70.268 18.6982 0
72.7414 19.0617 0
72.5291 1.64534 0
72.7201 4.13803 0
33.3962 17.2112 0
35.0319 19.1018 0
55.2401 3.68346 0
57.6831 4.21448 0
62.7513 27.141 0
60.2515 27.1663 0
59.5753 35.6707 0
59.7219 33.175 0
41.7273 31.506 0
39.3436 32.2596 0
65.7258 34.0058 0
63.7025 32.5373 0
41.268 36.3299 0
39.965 38.4635 0
73.2592 29.9042 0
72.8255 32.3663 0
50.7636 40.3294 0
51.8574 42.5775 0
59.8249 10.2083 0
58.3236 8.20928 0
82.5725 20.099 0
84.8681 19.1089 0
66.2347 0.850797 0
68.7228 0.607573 0
72.8007 32.8118 0
74.6785 31.1614 0
66.5427 33.6977 0
65.2636 35.8457 0
67.8039 46.4299 0
68.5312 44.0381 0
63.7445 23.1651 0
64.8427 20.9192 0
80.4376 11.3552 0
82.0445 13.2704 0
30.9733 20.5903 0
30.0248 18.2772 0
25.2849 20.8129 0
26.856 22.7576 0
53.9921 28.8567 0
56.4789 28.5996 0
85.7524 28.4486 0
85.2196 26.006 0
37.9166 1.95472 0
40.3944 2.28683 0
42.0904 29.6984 0
43.0762 27.4009 0
19.9355 35.5411 0
22.4226 35.795 0
84.4637 11.5913 0
86.9629 11.5284 0
30.5438 1.39603 0
33.0108 0.991034 0
61.9992 42.6294 0
59.8348 41.3782 0
40.0163 13.6033 0
38.0195 15.1076 0
71.9386 29.3081 0
70.0921 27.6227 0
60.3758 30.4433 0
59.6139 28.0622 0
6.61695 10.7021 0
5.7471 13.0459 0
33.6159 6.9696 0
32.0039 5.05875 0
57.303 24.9109 0
59.7407 24.3563 0
61.7642 28.2014 0
59.2762 28.4464 0
12.9912 2.04497 0
15.1476 3.31001 0
72.4148 5.07678 0
69.9255 4.84658 0
30.5104 6.36044 0
28.1115 7.064 0
80.7915 3.77023 0
78.2945 3.89301 0
54.3889 36.1373 0
52.376 37.6199 0
30.5728 14.4211 0
32.9952 15.0393 0
80.5857 9.26272 0
82.8664 8.239 0
11.9674 31.7308 0
12.9637 29.4379 0
46.3796 5.52268 0
48.8284 6.02607 0
2.75253 5.33965 0
5.25059 5.24117 0
10.2288 9.59953 0
11.2287 11.8909 0
4.35285 17.9163 0
6.60238 16.8256 0
29.374 8.59774 0
26.8746 8.54412 0
43.6978 2.19517 0
46.003 3.16272 0
77.3509 2.85663 0
75.5825 4.62381 0
55.2207 26.939 0
57.4721 28.0258 0
24.7858 19.4689 0
26.9729 18.2578 0
12.757 31.052 0
14.0138 28.8909 0
13.7536 17.9514 0
15.6065 19.6296 0
31.525 36.2312 0
33.6311 37.5782 0
85.1187 19.051 0
85.4435 16.5722 0
54.9635 42.5624 0
56.1407 40.3569 0
56.8652 43.2178 0
54.3756 42.9897 0
69.3674 41.295 0
68.4417 43.6173 0
81.612 5.2604 0
81.1859 7.72383 0
67.3319 28.9261 0
69.4257 27.5601 0
23.3479 28.4189 0
20.8534 28.5848 0
76.5962 33.273 0
74.7032 31.64 0
40.4104 1.9893 0
41.9637 0.0303648 0
21.4807 3.52908 0
19.2792 2.34427 0
32.6933 28.1964 0
34.5008 29.9235 0
39.7688 2.43497 0
37.9781 4.17947 0
68.5884 6.40065 0
66.5277 7.81614 0
7.19258 2.11723 0
8.72654 0.143157 0
59.0905 33.6083 0
57.1321 32.0544 0
22.6311 35.5862 0
24.167 37.5588 0
76.7325 25.085 0
76.1781 22.6472 0
8.8842 16.7905 0
9.72184 19.146 0
27.0028 16.8078 0
28.4287 14.7544 0
31.9249 37.1613 0
32.7526 34.8023 0
22.1798 35.1001 0
19.9381 33.9934 0
73.3451 37.2775 0
72.0224 35.1562 0
15.0377 2.09966 0
16.9744 0.518808 0
52.231 12.3482 0
52.0973 9.85176 0
33.8168 8.90681 0
32.6839 6.67824 0
24.9639 41.987 0
27.3521 41.2475 0
57.5838 12.7125 0
59.8061 11.5673 0
84.2122 35.342 0
82.4133 33.6059 0
40.3968 47.3357 0
38.8826 45.3465 0
18.071 12.2441 0
20.524 12.7264 0
92.6875 8.20237 0
94.3705 6.3538 0
81.3937 33.1738 0
80.6805 30.7777 0
38.8178 15.0168 0
38.68 17.513 0
28.5668 11.7013 0
29.9502 13.7837 0
51.9124 39.7197 0
54.4037 39.929 0
86.5788 28.2164 0
85.9063 25.8085 0
22.1585 2.38127 0
23.5585 4.45249 0
49.3553 3.37749 0
47.2377 2.04878 0
18.8437 19.8166 0
21.3222 20.1444 0
2.12687 9.05415 0
4.30765 7.83178 0
20.2602 3.63472 0
18.8568 5.70363 0
62.9461 44.615 0
65.1642 45.7683 0
34.4688 21.3665 0
36.5582 19.9938 0
94.5905 1.03701 0
93.9439 3.45195 0
49.7441 42.5934 0
49.3578 40.1234 0
58.6829 10.9874 0
56.3295 10.1439 0
36.6006 10.8886 0
34.3128 11.8967 0
56.8284 44.0544 0
56.7526 46.5532 0
2.46119 12.648 0
1.80077 10.2369 0
82.4196 5.00071 0
83.3128 2.66571 0
37.6733 47.5033 0
35.4144 46.4321 0
65.9868 39.727 0
68.3149 40.638 0
24.629 34.2587 0
27.1062 34.5954 0
68.477 39.6379 0
70.8799 38.948 0
13.7793 30.7836 0
12.1692 28.8711 0
58.866 44.6224 0
61.3007 45.1903 0
24.3187 5.71624 0
24.1849 8.21265 0
81.1414 21.0303 0
78.7646 21.8055 0
29.8597 39.9296 0
29.5019 42.4038 0
23.6917 17.1689 0
21.4377 16.0875 0
2.76145 8.25236 0
4.98401 7.10771 0
48.0239 31.0465 0
49.9852 29.4962 0
87.0656 23.2577 0
84.6875 24.0287 0
34.6529 11.0887 0
32.3155 11.9756 0
47.5543 26.2216 0
46.0954 24.1914 0
67.4524 24.472 0
65.4594 22.9626 0
58.2247 30.3439 0
56.8792 32.4509 0
32.3047 35.0869 0
34.5988 36.0805 0
57.4197 36.5521 0
56.0584 34.4552 0
26.6898 3.47882 0
28.81 2.15424 0
11.1605 26.7635 0
12.6996 24.7934 0
63.5283 33.2924 0
61.9292 35.2141 0
28.4738 11.5363 0
26.0259 12.0443 0
44.5027 45.9919 0
42.0037 46.0591 0
30.823 14.6228 0
31.9505 16.8541 0
13.2116 1.83631 0
15.3338 0.514813 0
76.1461 15.1288 0
73.891 16.208 0
12.6871 6.56121 0
13.3333 8.97626 0
35.4851 5.11443 0
36.3423 7.46287 0
54.0014 17.8887 0
51.5408 18.3308 0
31.3059 8.6454 0
29.0029 7.67279 0
24.2805 6.72732 0
21.7886 6.92835 0
48.6134 3.83132 0
51.0484 4.39778 0
32.1442 13.9519 0
32.0821 11.4527 0
1.59766 3.47169 0
4.07667 3.79499 0
62.8194 44.5054 0
60.5018 43.568 0
42.6277 24.6595 0
40.1332 24.4942 0
48.3435 30.9812 0
50.524 32.2041 0
58.8882 35.5272 0
56.3976 35.744 0
50.0158 46.8086 0
52.0713 45.3856 0
26.946 5.81715 0
26.3102 8.23493 0
43.5072 36.2682 0
42.0862 34.2113 0
52.8811 28.1747 0
50.9824 29.8011 0
60.961 40.1881 0
62.0955 42.4159 0
46.9295 23.875 0
45.6619 21.7202 0
19.2569 2.97779 0
18.5417 0.582284 0
48.2279 42.1282 0
49.1905 39.821 0
47.8167 39.7171 0
45.3629 39.2385 0
73.2337 11.6682 0
72.701 9.22564 0
52.5285 18.0537 0
50.7835 16.2634 0
25.0029 42.0381 0
27.4857 41.7452 0
51.9726 24.3138 0
50.558 26.3751 0
25.8173 30.5231 0
28.2454 31.1186 0
5.38211 8.03558 0
2.90223 7.71909 0
20.8574 35.4565 0
18.7422 36.7892 0
31.8719 19.3646 0
34.1471 20.4007 0
30.0809 19.4439 0
27.7319 18.5882 0
78.7441 17.6492 0
79.4835 20.0373 0
41.9052 32.3637 0
42.4514 29.9241 0
44.7868 12.7615 0
45.2483 10.3044 0
44.1899 20.2995 0
46.0407 18.6187 0
36.1396 2.63856 0
35.7831 5.11302 0
94.4615 4.87891 0
95.2682 7.24515 0
41.9 22.0073 0
40.3477 23.9669 0
57.7902 26.3826 0
55.7477 24.9409 0
62.7142 27.1717 0
65.1245 27.8351 0
8.56631 15.7112 0
8.48272 18.2098 0
70.848 31.1491 0
68.4031 30.627 0
45.8775 35.9088 0
46.1233 33.421 0
87.0687 2.7592 0
88.7554 4.60445 0
22.4994 38.7208 0
22.8742 41.1926 0
66.2489 43.3865 0
64.2189 41.9274 0
77.3564 12.078 0
77.8935 14.5196 0
50.8449 47.2291 0
49.1597 49.0757 0
14.9032 13.4691 0
15.4108 11.0212 0
75.635 19.1074 0
75.4278 21.5988 0
59.0515 45.818 0
61.102 47.2483 0
83.7379 9.51165 0
86.181 8.98159 0
6.97208 1.80808 0
4.47382 1.90136 0
80.7548 19.103 0
82.5528 17.3661 0
13.6049 0.200311 0
11.1067 0.105882 0
14.877 32.3462 0
17.2563 31.5788 0
14.2092 12.9222 0
15.5741 15.0167 0
66.6942 1.10862 0
64.233 1.5473 0
72.2827 24.635 0
71.3262 26.9448 0
52.0218 31.6365 0
50.0646 30.0811 0
29.295 29.3613 0
28.0268 27.2069 0
76.0854 25.5296 0
76.3183 23.0405 0
88.1004 17.3283 0
90.3397 18.44 0
56.5921 9.24683 0
54.3027 10.251 0
30.5936 42.5285 0
32.0824 44.5369 0
49.5604 38.4583 0
50.1526 36.0294 0
33.5558 30.8306 0
35.7935 31.9455 0
51.2972 20.3829 0
50.1624 22.6105 0
48.0046 20.3883 0
46.7577 18.2215 0
56.3163 36.9428 0
54.222 38.308 0
27.898 28.1955 0
28.4796 30.6269 0
32.5531 34.6743 0
33.1891 37.0921 0
91.7267 14.7715 0
93.56 16.4712 0
6.70522 6.188 0
6.38296 8.66714 0
30.5737 35.9953 0
31.2405 33.5859 0
65.2197 35.1 0
64.2821 37.4175 0
70.8753 2.3553 0
72.4573 0.41953 0
72.2299 25.2358 0
72.7078 22.7819 0
12.966 14.7017 0
14.9596 16.2102 0
48.3625 3.6471 0
50.7922 4.23574 0
17.3727 5.9019 0
17.5671 8.39434 0
6.4933 18.6502 0
4.00838 18.376 0
31.8177 34.1013 0
32.0027 36.5944 0
59.3355 33.0745 0
59.0373 35.5567 0
80.6066 24.6026 0
80.9938 27.0724 0
96.0249 18.4526 0
96.4343 15.9863 0
81.6465 13.2498 0
84.1088 12.8169 0
31.3936 34.6297 0
30.3121 32.3757 0
95.0367 8.67915 0
94.1661 11.0227 0
92.6646 17.9685 0
94.8786 16.8074 0
25.305 38.1159 0
25.01 35.6334 0
11.0976 27.32 0
12.8978 29.0547 0
25.1835 17.2412 0
22.7246 17.6927 0
33.0284 22.4318 0
35.5212 22.6226 0
75.1206 23.2213 0
72.6211 23.2703 0
50.0609 27.7927 0
49.6794 30.2634 0
20.9707 18.8121 0
20.4553 21.2584 0
93.0543 7.25276 0
92.2309 9.61327 0
49.1247 48.3279 0
47.6811 46.2868 0
60.3086 39.2721 0
62.19 37.6257 0
68.5191 12.7757 0
66.4564 11.3633 0
74.7711 11.6118 0
72.6045 12.8591 0
59.6173 42.11 0
61.2512 44.0022 0
83.0214 12.1119 0
83.6983 9.70531 0
12.3238 9.81246 0
11.2432 7.55809 0
46.2343 43.2472 0
44.2291 41.7542 0
78.0986 4.25742 0
75.6383 4.701 0
79.2687 34.819 0
79.7343 32.3628 0
50.319 26.5113 0
47.8528 26.1019 0
15.8967 15.0268 0
18.3673 14.6441 0
24.6637 1.91481 0
27.1529 2.14673 0
21.7789 5.99989 0
23.7348 4.44281 0
38.4244 26.9618 0
35.9783 27.4782 0
39.5895 38.1639 0
37.0937 38.019 0
20.4186 23.4123 0
19.0258 21.3362 0
55.8239 8.87399 0
53.546 9.90411 0
30.7826 38.9444 0
33.23 38.4341 0
56.7865 41.9947 0
59.2586 41.6226 0
59.0649 12.5919 0
61.5159 12.0997 0
84.7839 1.95947 0
82.4261 2.79059 0
54.6919 35.922 0
52.9205 37.6861 0
27.8912 39.5796 0
30.3857 39.4143 0
56.9213 32.8034 0
56.6338 30.32 0
77.6392 21.4206 0
75.7606 23.07 0
36.6668 36.762 0
36.0324 39.1801 0
70.6917 32.5889 0
68.2231 32.9836 0
48.9414 32.6315 0
50.2826 30.5218 0
64.3995 19.5661 0
65.4087 21.8533 0
36.9016 30.7659 0
39.4012 30.8127 0
52.0986 3.24166 0
54.2069 4.58512 0
16.0861 27.1034 0
13.8848 25.9184 0
28.8105 37.8766 0
26.342 38.2719 0
66.3288 35.0171 0
64.7399 33.0869 0
86.8377 13.8436 0
85.7555 16.0972 0
79.9193 37.6715 0
77.6168 38.6454 0
1.10576 9.67736 0
2.7911 11.5239 0
22.3054 7.10283 0
19.8208 6.8257 0
27.987 24.3547 0
25.5126 23.9974 0
48.7825 5.67651 0
46.4132 4.87858 0
39.4095 8.57052 0
37.1163 7.57481 0
13.1987 16.2725 0
11.7714 14.22 0
35.1837 38.0833 0
33.3703 39.8042 0
76.144 8.10525 0
78.2072 6.69344 0
38.8847 44.0779 0
38.0681 41.7151 0
46.1919 9.71003 0
48.2301 8.26234 0
39.8854 31.1796 0
37.4605 31.7876 0
37.3047 29.4169 0
36.6383 31.8265 0
36.6934 27.147 0
34.2165 27.4863 0
30.6723 4.64705 0
33.0179 5.51204 0
71.8641 32.1408 0
74.0423 30.9139 0
24.1483 12.5092 0
26.5382 11.7755 0
33.2114 43.9035 0
35.497 42.8907 0
26.0565 22.6503 0
24.0345 24.1205 0
5.64375 2.57233 0
6.5575 0.245302 0
94.3695 5.91416 0
96.7758 6.59241 0
53.4147 19.1638 0
51.7061 17.3387 0
53.8058 45.666 0
52.3229 47.6787 0
94.7143 5.25547 0
93.3175 3.18203 0
30.2048 21.3421 0
27.7579 20.8299 0
57.4932 2.36743 0
58.1097 4.79021 0
94.5895 11.5229 0
92.9501 9.6355 0
43.7253 7.43955 0
46.188 7.00966 0
49.3923 42.6031 0
47.433 44.1559 0
42.4096 27.5361 0
44.8246 26.8898 0
24.2196 22.7973 0
21.7486 22.4175 0
70.0172 34.3844 0
70.1879 31.8903 0
18.375 13.6073 0
20.5895 14.7675 0
9.37139 28.8821 0
11.6587 27.8731 0
62.0518 24.7312 0
60.8186 22.5565 0
81.7627 25.3263 0
79.2635 25.2635 0
22.7981 29.4754 0
20.6776 30.7996 0
14.1935 29.8123 0
14.3039 32.3099 0
12.6384 13.0847 0
13.6623 15.3654 0
67.3962 23.0046 0
67.8421 20.5447 0
79.3532 22.0084 0
81.7621 22.6771 0
15.2503 21.8289 0
14.1766 24.0866 0
21.2396 13.6919 0
18.8943 12.8261 0
44.9039 45.2551 0
42.4065 45.141 0
62.2491 38.3102 0
60.8319 36.2507 0
59.6117 47.5136 0
61.9443 46.614 0
39.9609 38.0361 0
42.4604 37.987 0
55.7381 30.5275 0
53.3952 29.6551 0
67.6361 41.0164 0
65.1486 41.2657 0
71.0789 5.83261 0
73.5789 5.84631 0
80.9106 3.31649 0
80.8419 0.817429 0
59.6908 7.32796 0
57.9521 9.12428 0
32.3456 19.748 0
31.5406 22.1148 0
43.9401 32.722 0
44.0531 35.2194 0
97.7856 14.1768 0
97.9343 11.6812 0
74.1406 18.7449 0
72.1887 17.1828 0
77.1084 31.777 0
76.3927 34.1724 0
55.9604 48.9103 0
56.3219 46.4366 0
40.1948 1.45978 0
37.7784 2.10098 0
72.0723 20.2621 0
74.5465 19.904 0
41.8309 44.9623 0
44.3116 45.2725 0
87.0841 2.76647 0
86.5091 5.19943 0
19.3467 22.133 0
18.9099 19.6715 0
17.5011 36.545 0
16.2561 34.377 0
26.0523 38.2955 0
24.1744 39.9459 0
61.6715 6.56263 0
59.6955 5.0311 0
39.7116 30.3557 0
40.0292 32.8354 0
63.2608 5.77795 0
60.7913 6.16737 0
60.5833 6.91796 0
61.4265 4.56444 0
79.3411 37.1927 0
76.904 37.7498 0
46.8187 23.6709 0
47.778 21.3623 0
81.965 12.4522 0
79.4923 12.8201 0
17.6887 13.0843 0
18.5002 15.449 0
48.207 40.9048 0
46.3926 42.6246 0
65.4001 20.0498 0
64.1688 17.8741 0
42.9181 40.3158 0
41.7424 42.522 0
54.5141 17.2426 0
53.4411 19.5006 0
22.8791 29.6219 0
25.271 28.8948 0
23.2179 15.089 0
20.7829 14.5226 0
92.3112 7.83425 0
90.7947 9.82176 0
32.1134 32.3467 0
33.5788 30.3211 0
68.7539 28.8188 0
68.9877 31.3079 0
97.6634 2.42497 0
96.1695 4.42949 0
67.3855 15.249 0
69.8484 14.8196 0
78.3854 23.5526 0
78.84 21.0943 0
37.5518 16.2933 0
35.1698 15.5341 0
68.9236 9.54345 0
69.4708 7.10407 0
32.9145 20.4958 0
34.2632 18.3908 0
33.2486 31.9151 0
34.899 30.0373 0
87.9139 26.1558 0
89.8918 27.6847 0
84.2908 23.8451 0
86.7113 24.4706 0
38.5067 11.4798 0
36.0754 12.0618 0
65.699 40.6598 0
63.5301 39.4165 0
37.7253 1.84759 0
35.545 3.07079 0
75.4912 40.2318 0
75.9105 42.6964 0
67.3282 2.43831 0
67.1238 4.92994 0
72.0128 15.4082 0
70.1662 13.7229 0
63.3924 32.1965 0
65.8877 32.35 0
39.5954 3.46158 0
38.8521 5.84855 0
46.2182 19.0044 0
47.7894 17.0598 0
37.5017 39.0423 0
36.2955 41.2321 0
90.1588 7.35621 0
90.8857 4.96423 0
92.5874 20.1533 0
90.1849 19.4621 0
55.9057 19.5245 0
56.1575 17.0372 0
22.8389 18.9945 0
21.4574 21.0781 0
32.71 16.2947 0
34.4923 18.0478 0
72.9931 38.6475 0
73.3577 36.1742 0
61.7544 41.0247 0
63.183 43.0764 0
27.4249 33.1472 0
29.7202 32.1564 0
27.6142 16.8312 0
25.7746 15.1384 0
39.5079 2.66437 0
37.4749 4.11941 0
18.5786 28.6951 0
17.7553 26.3346 0
73.4762 2.82333 0
75.1968 1.0097 0
75.7791 42.3477 0
73.2827 42.4817 0
57.3583 44.1918 0
54.9363 43.572 0
27.2332 9.21946 0
28.8598 11.1179 0
24.1915 7.94362 0
23.0259 10.1552 0
76.623 41.8325 0
74.5101 43.1688 0
30.3588 38.8304 0
32.0484 40.673 0
47.7254 27.7397 0
48.5094 30.1135 0
78.442 7.08049 0
80.9162 6.72215 0
76.0291 10.5281 0
76.2982 13.0135 0
69.5588 34.3409 0
68.9488 31.9165 0
77.7497 17.2535 0
79.7327 18.7759 0
84.5262 32.7628 0
85.6802 34.9805 0
64.9277 34.6919 0
64.2464 32.2866 0
32.3943 10.3873 0
29.8952 10.3177 0
29.5231 44.7014 0
31.8189 45.691 0
20.022 29.2605 0
22.485 28.8322 0
45.1393 28.5812 0
47.3539 27.4214 0
19.2526 34.0633 0
20.5221 31.9096 0
66.1417 9.57765 0
66.1582 7.0777 0
61.6847 1.90556 0
64.0305 1.04116 0
80.949 1.40603 0
79.8129 3.63295 0
40.5912 47.7591 0
38.0942 47.6381 0
58.82 26.2972 0
59.6392 28.6591 0
14.7896 23.5651 0
16.8792 24.9375 0
4.1277 14.4868 0
6.17489 13.0519 0
84.2907 21.8121 0
82.662 19.9155 0
8.18527 0.609737 0
5.72216 0.181875 0
75.4697 20.2582 0
73.122 21.1175 0
52.4343 10.1076 0
50.7797 8.23358 0
43.3151 5.99282 0
45.714 5.28899 0
39.2833 3.00646 0
37.8638 5.06437 0
3.35459 8.67836 0
0.91871 8.11578 0
87.8808 12.1804 0
88.2081 14.6589 0
39.6878 11.544 0
37.4224 10.4865 0
57.9446 7.54134 0
56.0183 5.94778 0
16.2243 27.0042 0
13.7397 27.2821 0
52.546 5.57298 0
55.0189 5.94036 0
89.8161 7.00113 0
92.1945 7.77134 0
93.484 4.66396 0
91.8425 2.77836 0
95.0948 0.411156 0
96.85 2.19137 0
16.0075 29.5343 0
18.3772 28.7378 0
62.4968 9.75669 0
61.794 12.1559 0
18.5799 7.23446 0
17.9479 4.81567 0
70.1888 45.3356 0
67.8128 44.558 0
79.6914 8.44129 0
80.5737 6.10215 0
91.8814 15.7308 0
89.7256 14.465 0
59.5431 8.95234 0
59.3377 6.46079 0
21.3568 28.6909 0
23.661 29.6608 0
24.8545 42.2416 0
26.3483 40.237 0
22.3561 13.377 0
24.5498 14.576 0
9.87662 12.1384 0
11.0554 9.93381 0
33.5119 45.6025 0
34.4651 43.2913 0
67.6454 36.0472 0
69.9086 37.1093 0
25.3186 10.8098 0
26.8359 8.8229 0
84.0487 24.6517 0
82.705 22.5435 0
87.5674 2.05074 0
89.3436 3.81001 0
51.1101 41.1411 0
53.4477 42.0274 0
82.2027 9.48899 0
80.1204 8.1056 0
65.1359 14.7156 0
66.1452 17.0029 0
42.9477 6.92758 0
42.7689 4.43399 0
53.5104 5.65398 0
55.4213 4.04203 0
44.3369 39.0553 0
42.8692 41.0791 0
90.5647 10.886 0
92.5348 9.34699 0
23.2353 17.0067 0
24.7644 18.9845 0
23.7532 10.1691 0
23.7985 7.66956 0
60.7315 35.878 0
60.9676 38.3668 0
44.6575 1.35714 0
42.3033 2.19839 0
78.3293 24.4093 0
79.0581 22.0179 0
68.8859 38.0553 0
68.7863 35.5572 0
27.5441 6.57251 0
29.4628 4.96982 0
58.9426 13.3949 0
59.0379 15.8931 0
57.7246 9.67206 0
59.6592 11.2554 0
51.7633 19.6707 0
54.1796 20.312 0
50.6776 38.3328 0
48.1776 38.3312 0
47.4599 22.9804 0
46.4073 25.248 0
22.5977 21.2339 0
22.8002 23.7257 0
81.0223 2.12884 0
78.5698 1.6436 0
95.2508 4.88556 0
95.3931 7.3815 0
48.3772 41.2887 0
46.781 43.2127 0
26.342 16.7767 0
25.2005 19.0009 0
89.3255 21.5762 0
88.3708 23.8867 0
43.8508 3.73292 0
46.1183 4.78558 0
53.2902 27.9961 0
55.5299 29.1069 0
78.2952 8.41345 0
79.9526 6.54174 0
13.6883 14.0797 0
16.1779 14.3075 0
54.0803 47.6528 0
53.9858 45.1546 0
52.4088 6.15121 0
49.9862 5.53409 0
54.1124 40.7042 0
51.8128 41.6852 0
8.32637 22.0011 0
6.3676 23.5546 0
11.0962 27.7635 0
8.60645 27.5372 0
49.7338 47.3364 0
47.234 47.3644 0
43.5501 18.5105 0
45.8994 19.3654 0
28.4192 43.6142 0
27.7262 41.2122 0
87.1848 31.6154 0
86.4573 29.2235 0
85.8111 22.5523 0
86.6658 20.203 0
85.9739 0.79457 0
88.4058 1.37437 0
83.5371 35.8163 0
84.5782 33.5433 0
24.1202 32.7918 0
25.6845 30.8417 0
45.5969 42.4105 0
47.1156 44.3963 0
21.3719 35.0766 0
23.6483 34.0433 0
6.29572 12.1275 0
4.38573 10.5144 0
34.5206 14.816 0
36.139 12.9105 0
31.2765 46.0854 0
32.9975 44.2721 0
18.2594 23.0812 0
20.672 23.7365 0
10.2828 22.6131 0
11.9856 20.7827 0
50.2246 7.74839 0
47.8901 6.85399 0
47.4931 30.9249 0
45.1574 30.0336 0
38.8466 21.122 0
41.2605 20.4717 0
43.5921 10.0847 0
41.3827 11.2546 0
77.5114 37.0735 0
79.2884 35.3149 0
39.9049 9.04698 0
39.0699 11.4034 0
74.8797 40.5148 0
73.6328 38.348 0
60.797 11.9635 0
58.9266 13.6224 0
96.2287 12.5534 0
94.007 11.4069 0
43.7569 25.4791 0
41.2569 25.4908 0
54.2812 43.0054 0
56.7569 42.6575 0
84.5955 23.6304 0
82.1005 23.7891 0
2.53814 9.62759 0
4.60034 8.21432 0
82.1186 4.96764 0
84.6036 5.24053 0
36.5432 16.5548 0
38.6651 17.8767 0
44.0086 9.52205 0
42.0175 11.0338 0
21.1704 26.5965 0
22.1712 28.8874 0
43.0458 27.3495 0
45.3639 26.4133 0
15.0421 19.7049 0
14.8628 22.1984 0
20.151 8.63936 0
21.019 6.29486 0
12.2226 24.9128 0
10.9697 22.7494 0
49.8767 41.6541 0
48.6842 39.4568 0
9.58778 24.5079 0
9.38438 26.9996 0
35.0888 44.1808 0
32.8804 45.3524 0
13.4056 18.3791 0
11.2251 17.1562 0
12.2546 23.8823 0
12.6959 21.4215 0
84.2232 17.4973 0
84.0601 15.0027 0
97.0891 15.4776 0
94.8837 14.3002 0
76.2019 36.869 0
77.5833 38.9527 0
4.73249 2.94953 0
2.28032 3.43619 0
13.8801 26.9083 0
11.3977 26.6127 0
9.91987 5.19807 0
8.65558 7.35482 0
87 10.0171 0
86.6909 7.53625 0
50.8106 19.0914 0
49.8849 16.7691 0
22.8224 3.00803 0
23.5245 0.608627 0
24.0474 40.5749 0
21.5678 40.2564 0
4.32936 10.5438 0
1.92199 11.2181 0
74.0309 28.2399 0
72.4605 30.185 0
51.6109 16.7395 0
49.4393 17.9779 0
94.6693 5.53186 0
96.5404 7.18982 0
92.4029 0.902371 0
90.0016 1.59816 0
54.6894 28.1945 0
57.0192 29.1012 0
3.93874 2.11493 0
2.82544 4.35336 0
25.6108 42.2275 0
28.0934 41.9327 0
24.2786 33.3523 0
25.751 35.3727 0
64.8772 38.0211 0
63.0639 36.3 0
45.7796 39.1512 0
46.3255 36.7115 0
59.15 39.5888 0
58.3436 41.9552 0
42.8295 19.6033 0
41.6286 17.4107 0
48.5236 17.0867 0
47.4639 14.8224 0
92.8579 4.87572 0
91.3331 6.85689 0
17.6628 6.65107 0
16.0929 4.70542 0
31.5356 30.8792 0
33.0514 28.8912 0
49.5578 45.3434 0
50.5153 47.6528 0
51.6952 14.0106 0
49.2472 14.5177 0
35.2087 5.719 0
34.5483 8.13021 0
90.6754 7.78054 0
90.2437 10.243 0
55.2559 45.9681 0
54.0067 43.8026 0
16.7143 18.3023 0
18.8991 17.0871 0
14.6242 7.10105 0
14.2861 4.62402 0
24.2744 34.5421 0
21.7819 34.7348 0
62.6343 33.799 0
60.6638 35.3375 0
11.5562 19.7677 0
13.6534 21.1286 0
76.8093 0.457793 0
74.3099 0.405409 0
59.9302 26.2606 0
57.6746 25.1824 0
70.485 27.2336 0
67.9973 27.4814 0
46.2245 23.0264 0
46.9716 20.6407 0
76.5824 3.92983 0
74.1841 4.6358 0
47.8478 15.3396 0
50.1332 16.353 0
88.1676 13.6413 0
89.9368 11.875 0
70.9761 0.260646 0
73.2998 1.18281 0
56.2793 45.9016 0
57.2118 43.5821 0
68.161 3.46884 0
65.932 2.33668 0
22.8348 17.8106 0
24.753 16.2074 0
81.1928 38.9191 0
83.1748 37.3953 0
49.4131 3.19775 0
51.1121 5.03171 0
66.0101 3.54721 0
63.6734 2.65857 0
53.3016 12.3871 0
53.0663 9.89816 0
12.6086 15.5022 0
10.7907 17.2183 0
43.1794 4.89544 0
43.6213 7.35608 0
56.1676 20.8091 0
58.6195 21.2968 0
60.8503 22.6049 0
58.3688 22.301 0
28.8032 27.397 0
26.9859 25.6802 0
40.7072 7.16463 0
38.2288 7.49244 0
17.4048 2.36726 0
19.8839 2.04462 0
42.8331 26.0742 0
40.3547 26.4019 0
7.03306 17.7697 0
8.35492 19.8917 0
20.2924 12.092 0
22.1344 10.4017 0
67.4029 40.2748 0
65.4911 41.8858 0
45.1245 41.7582 0
45.9816 44.1067 0
70.8198 17.43 0
73.2006 16.6675 0
88.2742 4.89687 0
90.0111 6.695 0
49.8862 20.4123 0
48.1611 22.2218 0
56.3584 37.9474 0
56.3581 40.4474 0
82.3828 26.2018 0
80.8656 28.1888 0
39.5823 4.66044 0
41.5674 6.18011 0
55.1651 43.8181 0
57.009 42.1299 0
55.3789 43.703 0
57.0622 41.8547 0
25.0396 15.5442 0
23.224 13.8257 0
14.3423 27.9893 0
13.5005 30.3433 0
53.0033 17.2835 0
51.1979 19.0128 0
32.528 43.0819 0
34.8809 43.9268 0
19.7076 10.9597 0
21.4594 12.7432 0
61.522 41.3837 0
63.7601 40.2699 0
32.9473 27.6835 0
30.9993 29.2504 0
30.9952 21.4109 0
31.9667 23.7144 0
72.0764 27.6647 0
71.2442 30.0221 0
38.0789 13.3261 0
40.5536 13.6806 0
47.3025 48.216 0
45.4819 46.5026 0
70.6228 11.7094 0
70.4902 14.2059 0
98.6398 10.2273 0
96.5794 8.81136 0
96.4529 15.9728 0
93.9541 16.0483 0
58.9515 10.4622 0
59.6908 12.8504 0
54.9991 18.6246 0
56.4825 20.6369 0
53.9088 41.899 0
56.3741 41.4839 0
5.05738 4.44704 0
7.53634 4.12334 0
84.5083 18.9421 0
86.8302 19.8687 0
19.2669 30.4509 0
19.4968 32.9403 0
64.4188 36.0701 0
63.1722 33.9031 0
66.4938 23.7358 0
68.9922 23.6475 0
60.396 25.71 0
62.6935 24.7242 0
55.9212 21.4118 0
57.6147 19.5728 0
21.5665 36.6056 0
19.0744 36.8037 0
55.953 32.5834 0
58.3879 32.0166 0
67.9203 1.89827 0
70.1158 3.09412 0
16.2258 6.31216 0
17.6217 4.23816 0
91.8193 24.3465 0
91.1544 26.7565 0
89.1974 19.2578 0
86.7309 18.8499 0
88.079 12.6656 0
86.525 14.6239 0
76.4241 19.0532 0
77.6135 16.8542 0
71.023 21.211 0
70.1122 23.5392 0
26.6085 25.7241 0
25.3899 27.907 0
55.8076 26.6011 0
55.5598 29.0887 0
59.1677 43.3534 0
57.523 45.2362 0
66.2332 18.9959 0
68.2775 17.5569 0
81.28 33.8156 0
79.7465 31.8412 0
50.4282 9.27091 0
49.7703 11.6828 0
26.0495 27.7345 0
24.0162 29.189 0
49.6494 27.5649 0
49.8897 25.0765 0
89.312 25.6363 0
91.8098 25.5316 0
78.9924 32.3456 0
76.6589 33.2426 0
76.2068 37.6886 0
76.6527 35.2287 0
22.6871 1.53611 0
23.5098 3.89683 0
17.239 12.0546 0
15.7659 10.0348 0
76.5452 36.0342 0
78.4131 34.3726 0
25.5339 43.0722 0
23.7462 41.3246 0
24.9575 3.67357 0
23.141 1.956 0
86.9071 24.6195 0
85.0509 22.9448 0
84.0894 33.7316 0
83.208 31.3921 0
68.0086 9.36511 0
65.9027 8.01788 0
6.43717 3.80505 0
4.67189 5.57531 0
88.4698 7.3072 0
89.3536 4.96861 0
68.0865 41.1134 0
69.9263 39.4207 0
33.5734 19.0949 0
33.4726 21.5929 0
18.3882 18.5174 0
19.9826 20.443 0
51.0075 20.9243 0
51.9971 18.6285 0
81.2224 27.4462 0
79.0235 26.2568 0
33.6394 33.9462 0
31.4591 35.1694 0
42.0736 36.9309 0
44.264 35.7258 0
9.50445 8.13673 0
8.13151 6.04747 0
46.3945 9.31644 0
43.917 9.65104 0
38.9199 46.0819 0
36.7348 44.8673 0
56.6725 45.0576 0
57.0874 42.5923 0
50.8194 8.05541 0
52.1426 10.1765 0
69.316 9.79164 0
68.2079 12.0327 0
52.7884 10.9362 0
53.9943 8.74624 0
87.9545 0.593874 0
87.4293 3.03808 0
87.602 29.8928 0
88.514 27.5651 0
27.7584 28.0635 0
29.3139 26.1063 0
41.1507 3.45924 0
43.5725 2.83899 0
47.3809 29.546 0
44.8821 29.4668 0
44.8955 23.434 0
42.4182 23.0978 0
57.5585 36.4709 0
55.6954 34.804 0
79.9248 4.83682 0
81.3146 6.91491 0
33.0112 1.71696 0
31.3386 3.57501 0
38 50 0
37.9315 51.5688 0
37.9315 51.5688 0
37.7265 53.1257 0
37.7265 53.1257 0
37.3867 54.6587 0
37.3867 54.6587 0
36.9145 56.1564 0
36.9145 56.1564 0
36.3135 57.6071 0
36.3135 57.6071 0
35.5885 59 0
35.5885 59 0
34.7447 60.3244 0
34.7447 60.3244 0
33.7888 61.5702 0
33.7888 61.5702 0
32.7279 62.7279 0
32.7279 62.7279 0
31.5702 63.7888 0
31.5702 63.7888 0
30.3244 64.7447 0
30.3244 64.7447 0
29 65.5885 0
29 65.5885 0
27.6071 66.3135 0
27.6071 66.3135 0
26.1564 66.9145 0
26.1564 66.9145 0
24.6587 67.3867 0
24.6587 67.3867 0
23.1257 67.7265 0
23.1257 67.7265 0
21.5688 67.9315 0
21.5688 67.9315 0
20 68 0
20 68 0
18.4312 67.9315 0
18.4312 67.9315 0
16.8743 67.7265 0
16.8743 67.7265 0
15.3413 67.3867 0
15.3413 67.3867 0
13.8436 66.9145 0
13.8436 66.9145 0
12.3929 66.3135 0
12.3929 66.3135 0
11 65.5885 0
11 65.5885 0
9.67562 64.7447 0
9.67562 64.7447 0
8.42982 63.7888 0
8.42982 63.7888 0
7.27208 62.7279 0
7.27208 62.7279 0
6.2112 61.5702 0
6.2112 61.5702 0
5.25526 60.3244 0
5.25526 60.3244 0
4.41154 59 0
4.41154 59 0
3.68646 57.6071 0
3.68646 57.6071 0
3.08553 56.1564 0
3.08553 56.1564 0
2.61334 54.6587 0
2.61334 54.6587 0
2.27346 53.1257 0
2.27346 53.1257 0
2.0685 51.5688 0
2.0685 51.5688 0
2 50 0
2 50 0
2.0685 48.4312 0
2.0685 48.4312 0
2.27346 46.8743 0
2.27346 46.8743 0
2.61334 45.3413 0
2.61334 45.3413 0
3.08553 43.8436 0
3.08553 43.8436 0
3.68646 42.3929 0
3.68646 42.3929 0
4.41154 41 0
4.41154 41 0
5.25526 39.6756 0
5.25526 39.6756 0
6.2112 38.4298 0
6.2112 38.4298 0
7.27208 37.2721 0
7.27208 37.2721 0
8.42982 36.2112 0
8.42982 36.2112 0
9.67562 35.2553 0
9.67562 35.2553 0
11 34.4115 0
11 34.4115 0
12.3929 33.6865 0
12.3929 33.6865 0
13.8436 33.0855 0
13.8436 33.0855 0
15.3413 32.6133 0
15.3413 32.6133 0
16.8743 32.2735 0
16.8743 32.2735 0
18.4312 32.0685 0
18.4312 32.0685 0
20 32 0
20 32 0
21.5688 32.0685 0
21.5688 32.0685 0
23.1257 32.2735 0
23.1257 32.2735 0
24.6587 32.6133 0
24.6587 32.6133 0
26.1564 33.0855 0
26.1564 33.0855 0
27.6071 33.6865 0
27.6071 33.6865 0
29 34.4115 0
29 34.4115 0
30.3244 35.2553 0
30.3244 35.2553 0
31.5702 36.2112 0
31.5702 36.2112 0
32.7279 37.2721 0
32.7279 37.2721 0
33.7888 38.4298 0
33.7888 38.4298 0
34.7447 39.6756 0
34.7447 39.6756 0
35.5885 41 0
35.5885 41 0
36.3135 42.3929 0
36.3135 42.3929 0
36.9145 43.8436 0
36.9145 43.8436 0
37.3867 45.3413 0
37.3867 45.3413 0
37.7265 46.8743 0
37.7265 46.8743 0
37.9315 48.4312 0
37.9315 48.4312 0
38 50 0
98 50 0
97.9315 51.5688 0
97.9315 51.5688 0
97.7265 53.1257 0
97.7265 53.1257 0
97.3867 54.6587 0
97.3867 54.6587 0
96.9145 56.1564 0
96.9145 56.1564 0
96.3135 57.6071 0
96.3135 57.6071 0
95.5885 59 0
95.5885 59 0
94.7447 60.3244 0
94.7447 60.3244 0
93.7888 61.5702 0
93.7888 61.5702 0
92.7279 62.7279 0
92.7279 62.7279 0
91.5702 63.7888 0
91.5702 63.7888 0
90.3244 64.7447 0
90.3244 64.7447 0
89 65.5885 0
89 65.5885 0
87.6071 66.3135 0
87.6071 66.3135 0
86.1564 66.9145 0
86.1564 66.9145 0
84.6587 67.3867 0
84.6587 67.3867 0
83.1257 67.7265 0
83.1257 67.7265 0
81.5688 67.9315 0
81.5688 67.9315 0
80 68 0
80 68 0
78.4312 67.9315 0
78.4312 67.9315 0
76.8743 67.7265 0
76.8743 67.7265 0
75.3413 67.3867 0
75.3413 67.3867 0
73.8436 66.9145 0
73.8436 66.9145 0
72.3929 66.3135 0
72.3929 66.3135 0
71 65.5885 0
71 65.5885 0
69.6756 64.7447 0
69.6756 64.7447 0
68.4298 63.7888 0
68.4298 63.7888 0
67.2721 62.7279 0
67.2721 62.7279 0
66.2112 61.5702 0
66.2112 61.5702 0
65.2553 60.3244 0
65.2553 60.3244 0
64.4115 59 0
64.4115 59 0
63.6865 57.6071 0
63.6865 57.6071 0
63.0855 56.1564 0
63.0855 56.1564 0
62.6133 54.6587 0
62.6133 54.6587 0
62.2735 53.1257 0
62.2735 53.1257 0
62.0685 51.5688 0
62.0685 51.5688 0
62 50 0
62 50 0
62.0685 48.4312 0
62.0685 48.4312 0
62.2735 46.8743 0
62.2735 46.8743 0
62.6133 45.3413 0
62.6133 45.3413 0
63.0855 43.8436 0
63.0855 43.8436 0
63.6865 42.3929 0
63.6865 42.3929 0
64.4115 41 0
64.4115 41 0
65.2553 39.6756 0
65.2553 39.6756 0
66.2112 38.4298 0
66.2112 38.4298 0
67.2721 37.2721 0
67.2721 37.2721 0
68.4298 36.2112 0
68.4298 36.2112 0
69.6756 35.2553 0
69.6756 35.2553 0
71 34.4115 0
71 34.4115 0
72.3929 33.6865 0
72.3929 33.6865 0
73.8436 33.0855 0
73.8436 33.0855 0
75.3413 32.6133 0
75.3413 32.6133 0
76.8743 32.2735 0
76.8743 32.2735 0
78.4312 32.0685 0
78.4312 32.0685 0
80 32 0
80 32 0
81.5688 32.0685 0
81.5688 32.0685 0
83.1257 32.2735 0
83.1257 32.2735 0
84.6587 32.6133 0
84.6587 32.6133 0
86.1564 33.0855 0
86.1564 33.0855 0
87.6071 33.6865 0
87.6071 33.6865 0
89 34.4115 0
89 34.4115 0
90.3244 35.2553 0
90.3244 35.2553 0
91.5702 36.2112 0
91.5702 36.2112 0
92.7279 37.2721 0
92.7279 37.2721 0
93.7888 38.4298 0
93.7888 38.4298 0
94.7447 39.6756 0
94.7447 39.6756 0
95.5885 41 0
95.5885 41 0
96.3135 42.3929 0
96.3135 42.3929 0
96.9145 43.8436 0
96.9145 43.8436 0
97.3867 45.3413 0
97.3867 45.3413 0
97.7265 46.8743 0
97.7265 46.8743 0
97.9315 48.4312 0
97.9315 48.4312 0
98 50 0
      </DataArray>
    </Points>
    <Cells>
      <DataArray type="Int32" Name="connectivity" format="ascii">
247 120 114 753 754 755 
213 114 214 748 749 750 
487 220 257 647 745 730 
257 115 260 741 742 743 
246 300 116 738 739 740 
212 116 247 731 732 733 
246 257 117 724 725 726 
299 117 312 719 720 721 
303 310 118 716 717 718 
248 118 256 711 712 713 
513 495 483 150 224 119 
507 513 483 151 119 184 
248 120 302 704 705 706 
221 258 121 1196 1197 1198 
259 121 313 1191 1192 1193 
464 430 432 332 409 122 
436 464 432 326 122 408 
346 1189 123 1186 1187 1188 
298 123 351 1181 1182 1183 
71 311 124 699 700 701 
65 124 372 692 693 694 
79 369 125 687 688 689 
684 125 309 680 681 682 
211 243 126 1178 1179 1180 
244 126 297 1173 1174 1175 
462 474 436 240 281 127 
438 462 436 294 127 327 
512 515 514 131 129 134 
513 509 511 130 132 135 
514 515 510 129 139 128 
508 514 510 148 128 147 
496 500 514 146 133 149 
513 499 495 136 145 150 
507 509 513 143 130 151 
505 491 497 141 142 154 
504 515 512 137 131 155 
174 503 511 1151 156 144 
512 514 500 134 133 159 
499 513 511 136 135 162 
494 515 504 138 137 165 
171 510 515 1164 139 166 
140 167 168 678 674 675 
167 492 168 672 661 674 
491 505 506 141 153 169 
177 498 497 656 164 170 
173 490 174 1156 1149 1171 
217 489 503 1126 176 175 
495 499 498 145 163 178 
501 500 496 158 146 179 
172 486 181 1162 1145 1169 
496 514 508 149 148 183 
480 481 140 227 152 187 
479 506 505 188 153 190 
477 505 497 191 154 193 
504 512 475 155 160 194 
472 511 503 161 156 197 
501 502 471 157 199 200 
500 501 470 158 201 202 
475 512 500 160 159 203 
499 511 472 162 161 204 
498 499 469 163 205 206 
497 498 468 164 207 208 
494 504 474 165 195 210 
211 493 171 1165 1161 1166 
167 180 212 667 668 669 
168 492 213 661 662 663 
214 488 177 657 653 658 
172 171 215 1158 1159 1160 
173 185 216 1153 1154 1155 
174 490 217 1149 1127 1150 
473 503 489 196 176 218 
177 488 219 653 643 654 
220 487 180 647 648 649 
182 181 221 1142 1143 1144 
496 508 115 183 222 747 
225 484 185 886 1138 1139 
482 502 481 198 186 226 
506 480 140 189 187 677 
480 506 479 189 188 228 
479 505 478 190 192 229 
478 505 477 192 191 230 
477 497 476 193 209 231 
474 504 475 195 194 232 
472 503 473 197 196 233 
471 502 482 199 198 234 
470 501 471 201 200 235 
475 500 470 203 202 236 
469 499 472 205 204 237 
468 498 469 207 206 238 
476 497 468 209 208 239 
494 474 461 210 241 242 
215 245 249 1133 1134 1135 
216 250 251 1128 1129 1130 
217 252 253 1123 1124 1125 
307 451 473 1047 255 254 
223 219 256 640 641 642 
583 263 223 1074 637 628 
582 261 264 1120 1121 1122 
445 482 481 265 226 268 
444 481 480 267 227 270 
443 480 479 269 228 272 
442 479 478 271 229 274 
441 478 477 273 230 276 
440 477 476 275 231 278 
474 475 436 232 280 281 
472 473 435 233 283 284 
471 482 446 234 266 286 
470 471 434 235 287 288 
464 475 470 279 236 289 
469 472 463 237 285 290 
468 469 433 238 291 292 
439 476 468 277 239 293 
461 474 462 241 240 295 
296 460 243 1071 1116 1117 
245 244 298 1107 1108 1109 
258 249 304 1100 1101 1102 
250 262 305 1095 1096 1097 
252 251 306 1088 1089 1090 
253 452 307 1084 1044 1085 
437 473 451 282 255 308 
633 314 591 871 832 1082 
262 261 316 1075 1076 1077 
318 629 578 854 810 809 
446 482 445 266 265 319 
445 481 444 268 267 320 
444 480 443 270 269 321 
443 479 442 272 271 322 
442 478 441 274 273 323 
441 477 440 276 275 324 
440 476 439 278 277 325 
436 475 464 280 279 326 
435 473 437 283 282 328 
463 472 435 285 284 329 
434 471 446 287 286 330 
464 470 434 289 288 331 
433 469 463 291 290 334 
439 468 433 293 292 335 
462 438 43 294 338 339 
461 462 45 295 340 341 
296 342 343 1068 1069 1070 
297 344 345 1063 1064 1065 
299 311 347 621 622 623 
301 300 348 616 617 618 
302 301 349 609 610 611 
309 303 350 602 603 604 
304 352 353 1058 1059 1060 
305 358 359 1053 1054 1055 
306 361 362 1048 1049 1050 
307 452 364 1044 934 1045 
437 451 109 308 367 368 
599 317 597 848 850 1042 
592 315 593 841 840 1040 
313 355 375 1035 1036 1037 
585 586 587 1032 1033 1034 
356 316 378 1027 1028 1029 
578 579 580 1024 1025 1026 
3 446 445 381 319 383 
7 445 444 384 320 386 
11 444 443 387 321 389 
15 443 442 390 322 392 
19 442 441 393 323 395 
23 441 440 396 324 398 
27 440 439 399 325 401 
432 438 436 336 327 408 
435 437 431 328 337 410 
429 463 435 333 329 411 
434 446 0 330 382 413 
430 464 434 332 331 414 
433 463 429 334 333 415 
1 439 433 402 335 416 
39 438 432 404 336 417 
431 437 940 337 407 418 
43 438 41 338 405 42 
45 462 43 340 339 44 
47 49 342 48 1019 1020 
344 343 51 1009 1010 1011 
346 345 1013 1000 1001 1002 
348 347 702 569 570 571 
350 349 75 560 561 562 
352 351 55 991 992 993 
354 353 979 984 985 986 
355 354 995 975 976 977 
357 356 89 968 969 970 
358 357 956 959 960 961 
360 359 972 952 953 954 
361 360 95 943 944 945 
363 362 99 936 937 938 
364 363 103 927 928 929 
107 451 105 366 365 106 
109 451 107 367 366 108 
931 437 109 406 368 110 
370 369 548 553 554 555 
371 370 690 544 545 546 
372 374 532 537 538 539 
374 373 696 528 529 530 
376 375 61 920 921 922 
924 523 524 915 916 917 
378 380 85 908 909 910 
516 911 518 903 904 905 
0 446 3 382 381 2 
3 445 5 383 385 4 
5 445 7 385 384 6 
7 444 9 386 388 8 
9 444 11 388 387 10 
11 443 13 389 391 12 
13 443 15 391 390 14 
15 442 17 392 394 16 
17 442 19 394 393 18 
19 441 21 395 397 20 
21 441 23 397 396 22 
23 440 25 398 400 24 
25 440 27 400 399 26 
27 439 29 401 403 28 
29 439 1 403 402 30 
41 438 39 405 404 40 
940 437 931 407 406 932 
432 430 31 409 423 419 
429 435 431 411 410 412 
93 429 431 426 412 422 
430 434 0 414 413 424 
1 433 429 416 415 428 
39 432 37 417 420 38 
947 431 940 421 418 941 
37 432 31 420 419 36 
93 431 947 422 421 948 
31 430 33 423 425 32 
33 430 0 425 424 34 
112 429 93 427 426 111 
1 429 112 428 427 113 
220 115 257 746 741 745 
518 899 519 896 897 898 
521 519 380 889 890 891 
630 264 225 882 883 884 
491 177 497 659 170 142 
481 502 140 186 676 152 
744 182 635 879 874 875 
120 247 467 753 735 707 
247 114 492 755 752 736 
114 120 488 754 710 751 
114 213 492 748 662 752 
213 214 491 750 660 665 
214 114 488 749 751 657 
115 220 496 746 652 747 
257 260 466 743 632 727 
182 485 635 878 870 874 
300 246 458 738 728 619 
246 116 487 740 737 729 
116 300 467 739 620 734 
116 212 487 731 670 737 
212 247 492 733 736 671 
247 116 467 732 734 735 
257 246 487 724 729 730 
246 117 458 726 723 728 
117 257 466 725 727 722 
117 299 458 719 625 723 
299 312 449 721 595 626 
312 117 466 720 722 596 
310 303 450 716 608 600 
303 118 457 718 715 605 
118 310 465 717 601 714 
118 248 457 711 708 715 
248 256 488 713 644 709 
256 118 465 712 714 645 
120 248 488 704 709 710 
248 302 457 706 613 708 
302 120 467 705 707 614 
311 71 573 699 72 624 
71 124 63 701 698 70 
124 311 449 700 627 695 
124 65 63 692 64 698 
65 372 67 694 542 66 
372 124 449 693 695 543 
369 79 81 687 80 556 
79 125 73 689 686 78 
125 369 450 688 559 683 
125 684 73 680 685 686 
684 309 564 682 606 565 
309 125 450 681 683 607 
167 140 502 678 676 679 
501 167 502 673 679 157 
140 168 506 675 666 677 
180 167 501 667 673 651 
167 212 492 669 671 672 
212 180 487 668 648 670 
506 168 213 666 663 664 
491 506 213 169 664 665 
491 214 177 660 658 659 
498 177 219 656 654 655 
495 498 219 178 655 646 
496 220 180 652 649 650 
501 496 180 179 650 651 
219 223 495 640 639 646 
223 256 465 642 645 636 
256 219 488 641 643 644 
495 223 263 639 637 638 
483 495 263 224 638 631 
633 635 634 867 868 869 
588 634 259 860 861 862 
629 318 630 854 855 856 
311 299 449 621 626 627 
299 347 458 623 577 625 
347 311 573 622 624 572 
300 301 467 616 615 620 
301 348 69 618 575 612 
348 300 458 617 619 576 
301 302 467 609 614 615 
302 349 457 611 568 613 
349 301 69 610 612 563 
303 309 450 602 607 608 
309 350 564 604 566 606 
350 303 457 603 605 567 
597 317 584 850 807 851 
599 550 581 845 846 847 
371 310 450 598 600 551 
590 315 592 835 841 842 
312 373 449 594 536 595 
593 589 531 836 837 838 
585 590 591 827 828 829 
587 523 589 818 819 820 
586 588 527 811 812 813 
578 583 584 802 803 804 
580 521 582 793 794 795 
579 581 516 784 785 786 
347 348 458 569 576 577 
348 702 69 571 703 575 
702 347 573 570 572 574 
349 350 457 560 567 568 
350 75 564 562 76 566 
75 349 69 561 563 74 
369 370 450 553 552 559 
370 548 557 555 549 547 
548 369 81 554 556 82 
370 371 450 544 551 552 
778 77 550 783 779 780 
690 370 557 545 547 558 
374 372 449 537 543 535 
372 532 67 539 68 542 
532 374 540 538 534 533 
373 374 449 528 535 536 
374 696 540 530 541 534 
531 59 773 772 777 774 
524 527 526 765 766 767 
762 526 376 756 757 758 
744 635 633 875 867 873 
260 744 633 877 873 872 
211 171 515 1166 166 1167 
494 211 515 1168 1167 138 
509 174 511 1152 144 132 
174 217 503 1150 175 1151 
629 583 578 1073 802 810 
465 583 223 805 628 636 
489 307 473 1086 254 218 
258 221 486 1196 1146 1105 
221 121 485 1198 1195 1147 
121 258 455 1197 1104 1194 
121 259 485 1191 864 1195 
259 313 448 1193 1038 865 
313 121 455 1192 1194 1039 
1189 346 1018 1186 1006 1023 
346 123 459 1188 1185 1007 
123 1189 35 1187 1190 1184 
123 298 459 1181 1111 1185 
298 351 456 1183 999 1112 
351 123 35 1182 1184 994 
243 211 494 1178 1168 1119 
211 126 493 1180 1177 1165 
126 243 460 1179 1116 1176 
126 244 493 1173 1115 1177 
244 297 459 1175 1066 1110 
297 126 460 1174 1176 1067 
173 174 509 1171 1152 1172 
507 173 509 1157 1172 143 
510 172 181 1163 1169 1170 
508 510 181 147 1170 1148 
171 172 510 1158 1163 1164 
172 215 486 1160 1136 1162 
215 171 493 1159 1161 1137 
185 173 507 1153 1157 1141 
173 216 490 1155 1131 1156 
216 185 484 1154 1138 1132 
181 182 508 1142 881 1148 
182 221 485 1144 1147 878 
221 181 486 1143 1145 1146 
225 185 507 1139 1141 1140 
483 225 507 887 1140 184 
245 215 493 1133 1137 1114 
215 249 486 1135 1106 1136 
249 245 456 1134 1113 1103 
250 216 484 1128 1132 1099 
216 251 490 1130 1094 1131 
251 250 453 1129 1098 1091 
252 217 490 1123 1127 1093 
217 253 489 1125 1087 1126 
253 252 452 1124 1092 1084 
261 582 447 1120 797 1078 
582 264 318 1122 888 798 
264 261 484 1121 1081 885 
461 296 243 1072 1117 1118 
494 461 243 242 1118 1119 
244 245 493 1107 1114 1115 
245 298 456 1109 1112 1113 
298 244 459 1108 1110 1111 
249 258 486 1100 1105 1106 
258 304 455 1102 1061 1104 
304 249 456 1101 1103 1062 
262 250 484 1095 1099 1080 
250 305 453 1097 1056 1098 
305 262 454 1096 1079 1057 
251 252 490 1088 1093 1094 
252 306 452 1090 1051 1092 
306 251 453 1089 1091 1052 
489 253 307 1087 1085 1086 
260 633 591 872 1082 1083 
466 260 591 632 1083 831 
261 262 484 1075 1080 1081 
262 316 454 1077 1031 1079 
316 261 447 1076 1078 1030 
583 629 263 1073 859 1074 
342 296 461 1068 1072 1022 
296 343 460 1070 1017 1071 
343 342 49 1069 1019 1012 
344 297 460 1063 1067 1016 
297 345 459 1065 1008 1066 
345 344 1004 1064 1015 1003 
352 304 456 1058 1062 998 
304 353 455 1060 990 1061 
353 352 57 1059 997 987 
358 305 454 1053 1057 966 
305 359 453 1055 958 1056 
359 358 963 1054 965 955 
361 306 453 1048 1052 950 
306 362 452 1050 942 1051 
362 361 97 1049 949 939 
451 307 364 1047 1045 1046 
105 451 364 365 1046 933 
371 599 597 849 1042 1043 
310 371 597 598 1043 852 
592 593 373 1040 839 1041 
312 592 373 844 1041 594 
355 313 455 1035 1039 982 
313 375 448 1037 926 1038 
375 355 53 1036 981 923 
586 585 314 1032 833 816 
585 587 315 1034 824 834 
587 586 377 1033 815 825 
316 356 454 1027 974 1031 
356 378 83 1029 913 971 
378 316 447 1028 1030 914 
579 578 317 1024 808 791 
578 580 318 1026 799 809 
580 579 379 1025 790 800 
45 47 342 46 1020 1021 
461 45 342 341 1021 1022 
343 344 460 1009 1016 1017 
344 51 1004 1011 52 1015 
51 343 49 1010 1012 50 
345 346 459 1000 1007 1008 
346 1013 1018 1002 1014 1006 
1013 345 1004 1001 1003 1005 
351 352 456 991 998 999 
352 55 57 993 56 997 
55 351 35 992 994 54 
353 354 455 984 983 990 
354 979 988 986 980 978 
979 353 57 985 987 58 
354 355 455 975 982 983 
355 995 53 977 996 981 
995 354 988 976 978 989 
356 357 454 968 967 974 
357 89 91 970 90 962 
89 356 83 969 971 88 
357 358 454 959 966 967 
358 956 963 961 957 965 
956 357 91 960 962 92 
359 360 453 952 951 958 
360 972 87 954 973 946 
972 359 963 953 955 964 
360 361 453 943 950 951 
361 95 97 945 96 949 
95 360 87 944 946 94 
362 363 452 936 935 942 
363 99 101 938 100 930 
99 362 97 937 939 98 
363 364 452 927 934 935 
364 103 105 929 104 933 
103 363 101 928 930 102 
375 376 448 920 760 926 
376 61 522 922 62 761 
61 375 53 921 923 60 
523 924 59 915 925 821 
924 524 918 917 769 919 
524 523 377 916 826 770 
380 378 447 908 914 894 
378 85 83 910 84 913 
85 380 517 909 893 86 
911 516 77 903 788 912 
516 518 379 905 900 789 
518 911 906 904 907 901 
899 518 906 896 901 902 
518 519 379 898 895 900 
519 899 517 897 520 892 
519 521 379 889 801 895 
521 380 447 891 894 796 
380 519 517 890 892 893 
264 630 318 882 855 888 
630 225 483 884 887 858 
225 264 484 883 885 886 
508 182 744 881 879 880 
115 508 744 222 880 876 
115 744 260 876 877 742 
633 634 314 869 866 871 
634 635 485 868 870 863 
634 588 314 860 817 866 
588 259 448 862 865 814 
259 634 485 861 863 864 
263 629 630 859 856 857 
483 263 630 631 857 858 
597 584 465 851 806 853 
310 597 465 852 853 601 
550 599 371 845 849 782 
599 581 317 847 792 848 
581 550 77 846 779 787 
466 590 592 830 842 843 
312 466 592 596 843 844 
589 593 315 836 840 823 
593 531 373 838 775 839 
531 589 59 837 822 772 
590 585 315 827 834 835 
585 591 314 829 832 833 
591 590 466 828 830 831 
523 587 377 818 825 826 
587 589 315 820 823 824 
589 523 59 819 821 822 
588 586 314 811 816 817 
586 527 377 813 771 815 
527 588 448 812 814 768 
578 584 317 804 807 808 
584 583 465 803 805 806 
521 580 379 793 800 801 
580 582 318 795 798 799 
582 521 447 794 796 797 
581 579 317 784 791 792 
579 516 379 786 789 790 
516 581 77 785 787 788 
690 778 550 691 780 781 
371 690 550 546 781 782 
531 773 696 774 697 776 
373 531 696 775 776 529 
527 524 377 765 770 771 
524 526 918 767 764 769 
526 527 448 766 768 759 
526 762 918 756 763 764 
762 376 522 758 761 525 
376 526 448 757 759 760 
1199 1200
1201 1202
1203 1204
1205 1206
1207 1208
1209 1210
1211 1212
1213 1214
1215 1216
1217 1218
1219 1220
1221 1222
1223 1224
1225 1226
1227 1228
1229 1230
1231 1232
1233 1234
1235 1236
1237 1238
1239 1240
1241 1242
1243 1244
1245 1246
1247 1248
1249 1250
1251 1252
1253 1254
1255 1256
1257 1258
1259 1260
1261 1262
1263 1264
1265 1266
1267 1268
1269 1270
1271 1272
1273 1274
1275 1276
1277 1278
1279 1280
1281 1282
1283 1284
1285 1286
1287 1288
1289 1290
1291 1292
1293 1294
1295 1296
1297 1298
1299 1300
1301 1302
1303 1304
1305 1306
1307 1308
1309 1310
1311 1312
1313 1314
1315 1316
1317 1318
1319 1320
1321 1322
1323 1324
1325 1326
1327 1328
1329 1330
1331 1332
1333 1334
1335 1336
1337 1338
1339 1340
1341 1342
1343 1344
1345 1346
1347 1348
1349 1350
1351 1352
1353 1354
1355 1356
1357 1358
1359 1360
1361 1362
1363 1364
1365 1366
1367 1368
1369 1370
1371 1372
1373 1374
1375 1376
1377 1378
1379 1380
1381 1382
1383 1384
1385 1386
1387 1388
1389 1390
1391 1392
1393 1394
1395 1396
1397 1398
1399 1400
1401 1402
1403 1404
1405 1406
1407 1408
1409 1410
1411 1412
1413 1414
1415 1416
1417 1418
1419 1420
1421 1422
1423 1424
1425 1426
1427 1428
1429 1430
1431 1432
1433 1434
1435 1436
1437 1438
1439 1440
1441 1442
1443 1444
1445 1446
1447 1448
1449 1450
1451 1452
1453 1454
1455 1456
1457 1458
1459 1460
1461 1462
1463 1464
1465 1466
1467 1468
1469 1470
1471 1472
1473 1474
1475 1476
1477 1478
1479 1480
1481 1482
1483 1484
1485 1486
1487 1488
1489 1490
1491 1492
1493 1494
1495 1496
1497 1498
1499 1500
1501 1502
1503 1504
1505 1506
1507 1508
1509 1510
1511 1512
1513 1514
1515 1516
1517 1518
1519 1520
1521 1522
1523 1524
1525 1526
1527 1528
1529 1530
1531 1532
1533 1534
1535 1536
1537 1538
1539 1540
1541 1542
1543 1544
1545 1546
1547 1548
1549 1550
1551 1552
1553 1554
1555 1556
1557 1558
1559 1560
1561 1562
1563 1564
1565 1566
1567 1568
1569 1570
1571 1572
1573 1574
1575 1576
1577 1578
1579 1580
1581 1582
1583 1584
1585 1586
1587 1588
1589 1590
1591 1592
1593 1594
1595 1596
1597 1598
1599 1600
1601 1602
1603 1604
1605 1606
1607 1608
1609 1610
1611 1612
1613 1614
1615 1616
1617 1618
1619 1620
1621 1622
1623 1624
1625 1626
1627 1628
1629 1630
1631 1632
1633 1634
1635 1636
1637 1638
1639 1640
1641 1642
1643 1644
1645 1646
1647 1648
1649 1650
1651 1652
1653 1654
1655 1656
1657 1658
1659 1660
1661 1662
1663 1664
1665 1666
1667 1668
1669 1670
1671 1672
1673 1674
1675 1676
1677 1678
1679 1680
1681 1682
1683 1684
1685 1686
1687 1688
1689 1690
1691 1692
1693 1694
1695 1696
1697 1698
1699 1700
1701 1702
1703 1704
1705 1706
1707 1708
1709 1710
1711 1712
1713 1714
1715 1716
1717 1718
1719 1720
1721 1722
1723 1724
1725 1726
1727 1728
1729 1730
1731 1732
1733 1734
1735 1736
1737 1738
1739 1740
1741 1742
1743 1744
1745 1746
1747 1748
1749 1750
1751 1752
1753 1754
1755 1756
1757 1758
1759 1760
1761 1762
1763 1764
1765 1766
1767 1768
1769 1770
1771 1772
1773 1774
1775 1776
1777 1778
1779 1780
1781 1782
1783 1784
1785 1786
1787 1788
1789 1790
1791 1792
1793 1794
1795 1796
1797 1798
1799 1800
1801 1802
1803 1804
1805 1806
1807 1808
1809 1810
1811 1812
1813 1814
1815 1816
1817 1818
1819 1820
1821 1822
1823 1824
1825 1826
1827 1828
1829 1830
1831 1832
1833 1834
1835 1836
1837 1838
1839 1840
1841 1842
1843 1844
1845 1846
1847 1848
1849 1850
1851 1852
1853 1854
1855 1856
1857 1858
1859 1860
1861 1862
1863 1864
1865 1866
1867 1868
1869 1870
1871 1872
1873 1874
1875 1876
1877 1878
1879 1880
1881 1882
1883 1884
1885 1886
1887 1888
1889 1890
1891 1892
1893 1894
1895 1896
1897 1898
1899 1900
1901 1902
1903 1904
1905 1906
1907 1908
1909 1910
1911 1912
1913 1914
1915 1916
1917 1918
1919 1920
1921 1922
1923 1924
1925 1926
1927 1928
1929 1930
1931 1932
1933 1934
1935 1936
1937 1938
1939 1940
1941 1942
1943 1944
1945 1946
1947 1948
1949 1950
1951 1952
1953 1954
1955 1956
1957 1958
1959 1960
1961 1962
1963 1964
1965 1966
1967 1968
1969 1970
1971 1972
1973 1974
1975 1976
1977 1978
1979 1980
1981 1982
1983 1984
1985 1986
1987 1988
1989 1990
1991 1992
1993 1994
1995 1996
1997 1998
1999 2000
2001 2002
2003 2004
2005 2006
2007 2008
2009 2010
2011 2012
2013 2014
2015 2016
2017 2018
2019 2020
2021 2022
2023 2024
2025 2026
2027 2028
2029 2030
2031 2032
2033 2034
2035 2036
2037 2038
2039 2040
2041 2042
2043 2044
2045 2046
2047 2048
2049 2050
2051 2052
2053 2054
2055 2056
2057 2058
2059 2060
2061 2062
2063 2064
2065 2066
2067 2068
2069 2070
2071 2072
2073 2074
2075 2076
2077 2078
2079 2080
2081 2082
2083 2084
2085 2086
2087 2088
2089 2090
2091 2092
2093 2094
2095 2096
2097 2098
2099 2100
2101 2102
2103 2104
2105 2106
2107 2108
2109 2110
2111 2112
2113 2114
2115 2116
2117 2118
2119 2120
2121 2122
2123 2124
2125 2126
2127 2128
2129 2130
2131 2132
2133 2134
2135 2136
2137 2138
2139 2140
2141 2142
2143 2144
2145 2146
2147 2148
2149 2150
2151 2152
2153 2154
2155 2156
2157 2158
2159 2160
2161 2162
2163 2164
2165 2166
2167 2168
2169 2170
2171 2172
2173 2174
2175 2176
2177 2178
2179 2180
2181 2182
2183 2184
2185 2186
2187 2188
2189 2190
2191 2192
2193 2194
2195 2196
2197 2198
2199 2200
2201 2202
2203 2204
2205 2206
2207 2208
2209 2210
2211 2212
2213 2214
2215 2216
2217 2218
2219 2220
2221 2222
2223 2224
2225 2226
2227 2228
2229 2230
2231 2232
2233 2234
2235 2236
2237 2238
2239 2240
2241 2242
2243 2244
2245 2246
2247 2248
2249 2250
2251 2252
2253 2254
2255 2256
2257 2258
2259 2260
2261 2262
2263 2264
2265 2266
2267 2268
2269 2270
2271 2272
2273 2274
2275 2276
2277 2278
2279 2280
2281 2282
2283 2284
2285 2286
2287 2288
2289 2290
2291 2292
2293 2294
2295 2296
2297 2298
2299 2300
2301 2302
2303 2304
2305 2306
2307 2308
2309 2310
2311 2312
2313 2314
2315 2316
2317 2318
2319 2320
2321 2322
2323 2324
2325 2326
2327 2328
2329 2330
2331 2332
2333 2334
2335 2336
2337 2338
2339 2340
2341 2342
2343 2344
2345 2346
2347 2348
2349 2350
2351 2352
2353 2354
2355 2356
2357 2358
2359 2360
2361 2362
2363 2364
2365 2366
2367 2368
2369 2370
2371 2372
2373 2374
2375 2376
2377 2378
2379 2380
2381 2382
2383 2384
2385 2386
2387 2388
2389 2390
2391 2392
2393 2394
2395 2396
2397 2398
2399 2400
2401 2402
2403 2404
2405 2406
2407 2408
2409 2410
2411 2412
2413 2414
2415 2416
2417 2418
2419 2420
2421 2422
2423 2424
2425 2426
2427 2428
2429 2430
2431 2432
2433 2434
2435 2436
2437 2438
2439 2440
2441 2442
2443 2444
2445 2446
2447 2448
2449 2450
2451 2452
2453 2454
2455 2456
2457 2458
2459 2460
2461 2462
2463 2464
2465 2466
2467 2468
2469 2470
2471 2472
2473 2474
2475 2476
2477 2478
2479 2480
2481 2482
2483 2484
2485 2486
2487 2488
2489 2490
2491 2492
2493 2494
2495 2496
2497 2498
2499 2500
2501 2502
2503 2504
2505 2506
2507 2508
2509 2510
2511 2512
2513 2514
2515 2516
2517 2518
2519 2520
2521 2522
2523 2524
2525 2526
2527 2528
2529 2530
2531 2532
2533 2534
2535 2536
2537 2538
2539 2540
2541 2542
2543 2544
2545 2546
2547 2548
2549 2550
2551 2552
2553 2554
2555 2556
2557 2558
2559 2560
2561 2562
2563 2564
2565 2566
2567 2568
2569 2570
2571 2572
2573 2574
2575 2576
2577 2578
2579 2580
2581 2582
2583 2584
2585 2586
2587 2588
2589 2590
2591 2592
2593 2594
2595 2596
2597 2598
2599 2600
2601 2602
2603 2604
2605 2606
2607 2608
2609 2610
2611 2612
2613 2614
2615 2616
2617 2618
2619 2620
2621 2622
2623 2624
2625 2626
2627 2628
2629 2630
2631 2632
2633 2634
2635 2636
2637 2638
2639 2640
2641 2642
2643 2644
2645 2646
2647 2648
2649 2650
2651 2652
2653 2654
2655 2656
2657 2658
2659 2660
2661 2662
2663 2664
2665 2666
2667 2668
2669 2670
2671 2672
2673 2674
2675 2676
2677 2678
2679 2680
2681 2682
2683 2684
2685 2686
2687 2688
2689 2690
2691 2692
2693 2694
2695 2696
2697 2698
2699 2700
2701 2702
2703 2704
2705 2706
2707 2708
2709 2710
2711 2712
2713 2714
2715 2716
2717 2718
2719 2720
2721 2722
2723 2724
2725 2726
2727 2728
2729 2730
2731 2732
2733 2734
2735 2736
2737 2738
2739 2740
2741 2742
2743 2744
2745 2746
2747 2748
2749 2750
2751 2752
2753 2754
2755 2756
2757 2758
2759 2760
2761 2762
2763 2764
2765 2766
2767 2768
2769 2770
2771 2772
2773 2774
2775 2776
2777 2778
2779 2780
2781 2782
2783 2784
2785 2786
2787 2788
2789 2790
2791 2792
2793 2794
2795 2796
2797 2798
2799 2800
2801 2802
2803 2804
2805 2806
2807 2808
2809 2810
2811 2812
2813 2814
2815 2816
2817 2818
2819 2820
2821 2822
2823 2824
2825 2826
2827 2828
2829 2830
2831 2832
2833 2834
2835 2836
2837 2838
2839 2840
2841 2842
2843 2844
2845 2846
2847 2848
2849 2850
2851 2852
2853 2854
2855 2856
2857 2858
2859 2860
2861 2862
2863 2864
2865 2866
2867 2868
2869 2870
2871 2872
2873 2874
2875 2876
2877 2878
2879 2880
2881 2882
2883 2884
2885 2886
2887 2888
2889 2890
2891 2892
2893 2894
2895 2896
2897 2898
2899 2900
2901 2902
2903 2904
2905 2906
2907 2908
2909 2910
2911 2912
2913 2914
2915 2916
2917 2918
2919 2920
2921 2922
2923 2924
2925 2926
2927 2928
2929 2930
2931 2932
2933 2934
2935 2936
2937 2938
2939 2940
2941 2942
2943 2944
2945 2946
2947 2948
2949 2950
2951 2952
2953 2954
2955 2956
2957 2958
2959 2960
2961 2962
2963 2964
2965 2966
2967 2968
2969 2970
2971 2972
2973 2974
2975 2976
2977 2978
2979 2980
2981 2982
2983 2984
2985 2986
2987 2988
2989 2990
2991 2992
2993 2994
2995 2996
2997 2998
2999 3000
3001 3002
3003 3004
3005 3006
3007 3008
3009 3010
3011 3012
3013 3014
3015 3016
3017 3018
3019 3020
3021 3022
3023 3024
3025 3026
3027 3028
3029 3030
3031 3032
3033 3034
3035 3036
3037 3038
3039 3040
3041 3042
3043 3044
3045 3046
3047 3048
3049 3050
3051 3052
3053 3054
3055 3056
3057 3058
3059 3060
3061 3062
3063 3064
3065 3066
3067 3068
3069 3070
3071 3072
3073 3074
3075 3076
3077 3078
3079 3080
3081 3082
3083 3084
3085 3086
3087 3088
3089 3090
3091 3092
3093 3094
3095 3096
3097 3098
3099 3100
3101 3102
3103 3104
3105 3106
3107 3108
3109 3110
3111 3112
3113 3114
3115 3116
3117 3118
3119 3120
3121 3122
3123 3124
3125 3126
3127 3128
3129 3130
3131 3132
3133 3134
3135 3136
3137 3138
3139 3140
3141 3142
3143 3144
3145 3146
3147 3148
3149 3150
3151 3152
3153 3154
3155 3156
3157 3158
3159 3160
3161 3162
3163 3164
3165 3166
3167 3168
3169 3170
3171 3172
3173 3174
3175 3176
3177 3178
3179 3180
3181 3182
3183 3184
3185 3186
3187 3188
3189 3190
3191 3192
3193 3194
3195 3196
3197 3198
3199 3200
3201 3202
3203 3204
3205 3206
3207 3208
3209 3210
3211 3212
3213 3214
3215 3216
3217 3218
3219 3220
3221 3222
3223 3224
3225 3226
3227 3228
3229 3230
3231 3232
3233 3234
3235 3236
3237 3238
3239 3240
3241 3242
3243 3244
3245 3246
3247 3248
3249 3250
3251 3252
3253 3254
3255 3256
3257 3258
3259 3260
3261 3262
3263 3264
3265 3266
3267 3268
3269 3270
3271 3272
3273 3274
3275 3276
3277 3278
3279 3280
3281 3282
3283 3284
3285 3286
3287 3288
3289 3290
3291 3292
3293 3294
3295 3296
3297 3298
3299 3300
3301 3302
3303 3304
3305 3306
3307 3308
3309 3310
3311 3312
3313 3314
3315 3316
3317 3318
3319 3320
3321 3322
3323 3324
3325 3326
3327 3328
3329 3330
3331 3332
3333 3334
3335 3336
3337 3338
3339 3340
3341 3342
3343 3344
3345 3346
3347 3348
3349 3350
3351 3352
3353 3354
3355 3356
3357 3358
3359 3360
3361 3362
3363 3364
3365 3366
3367 3368
3369 3370
3371 3372
3373 3374
3375 3376
3377 3378
3379 3380
3381 3382
3383 3384
3385 3386
3387 3388
3389 3390
3391 3392
3393 3394
3395 3396
3397 3398
3399 3400
3401 3402
3403 3404
3405 3406
3407 3408
3409 3410
3411 3412
3413 3414
3415 3416
3417 3418
3419 3420
3421 3422
3423 3424
3425 3426
3427 3428
3429 3430
3431 3432
3433 3434
3435 3436
3437 3438
3439 3440
3441 3442
3443 3444
3445 3446
3447 3448
3449 3450
3451 3452
3453 3454
3455 3456
3457 3458
3459 3460
3461 3462
3463 3464
3465 3466
3467 3468
3469 3470
3471 3472
3473 3474
3475 3476
3477 3478
3479 3480
3481 3482
3483 3484
3485 3486
      </DataArray>
      <DataArray type="Int32" Name="offsets" format="ascii">
6
12
18
24
30
36
42
48
54
60
66
72
78
84
90
96
102
108
114
120
126
132
138
144
150
156
162
168
174
180
186
192
198
204
210
216
222
228
234
240
246
252
258
264
270
276
282
288
294
300
306
312
318
324
330
336
342
348
354
360
366
372
378
384
390
396
402
408
414
420
426
432
438
444
450
456
462
468
474
480
486
492
498
504
510
516
522
528
534
540
546
552
558
564
570
576
582
588
594
600
606
612
618
624
630
636
642
648
654
660
666
672
678
684
690
696
702
708
714
720
726
732
738
744
750
756
762
768
774
780
786
792
798
804
810
816
822
828
834
840
846
852
858
864
870
876
882
888
894
900
906
912
918
924
930
936
942
948
954
960
966
972
978
984
990
996
1002
1008
1014
1020
1026
1032
1038
1044
1050
1056
1062
1068
1074
1080
1086
1092
1098
1104
1110
1116
1122
1128
1134
1140
1146
1152
1158
1164
1170
1176
1182
1188
1194
1200
1206
1212
1218
1224
1230
1236
1242
1248
1254
1260
1266
1272
1278
1284
1290
1296
1302
1308
1314
1320
1326
1332
1338
1344
1350
1356
1362
1368
1374
1380
1386
1392
1398
1404
1410
1416
1422
1428
1434
1440
1446
1452
1458
1464
1470
1476
1482
1488
1494
1500
1506
1512
1518
1524
1530
1536
1542
1548
1554
1560
1566
1572
1578
1584
1590
1596
1602
1608
1614
1620
1626
1632
1638
1644
1650
1656
1662
1668
1674
1680
1686
1692
1698
1704
1710
1716
1722
1728
1734
1740
1746
1752
1758
1764
1770
1776
1782
1788
1794
1800
1806
1812
1818
1824
1830
1836
1842
1848
1854
1860
1866
1872
1878
1884
1890
1896
1902
1908
1914
1920
1926
1932
1938
1944
1950
1956
1962
1968
1974
1980
1986
1992
1998
2004
2010
2016
2022
2028
2034
2040
2046
2052
2058
2064
2070
2076
2082
2088
2094
2100
2106
2112
2118
2124
2130
2136
2142
2148
2154
2160
2166
2172
2178
2184
2190
2196
2202
2208
2214
2220
2226
2232
2238
2244
2250
2256
2262
2268
2274
2280
2286
2292
2298
2304
2310
2316
2322
2328
2334
2340
2346
2352
2358
2364
2370
2376
2382
2388
2394
2400
2406
2412
2418
2424
2430
2436
2442
2448
2454
2460
2466
2472
2478
2484
2490
2496
2502
2508
2514
2520
2526
2532
2538
2544
2550
2556
2562
2568
2574
2580
2586
2592
2598
2604
2610
2616
2622
2628
2634
2640
2646
2652
2658
2664
2670
2676
2682
2688
2694
2700
2706
2712
2718
2724
2730
2736
2742
2748
2754
2760
2766
2772
2778
2784
2790
2796
2802
2808
2814
2820
2826
2832
2838
2844
2850
2856
2862
2868
2874
2880
2886
2892
2898
2904
2910
2916
2922
2928
2934
2940
2946
2952
2958
2964
2970
2976
2982
2988
2994
3000
3006
3012
3018
3024
3030
3036
3042
3048
3054
3060
3066
3072
3078
3084
3090
3096
3102
3108
3114
3120
3126
3132
3138
3144
3150
3156
3162
3168
3174
3180
3186
3192
3198
3204
3210
3216
3222
3228
3234
3240
3246
3252
3258
3264
3270
3276
3282
3288
3294
3300
3306
3312
3318
3324
3326
3328
3330
3332
3334
3336
3338
3340
3342
3344
3346
3348
3350
3352
3354
3356
3358
3360
3362
3364
3366
3368
3370
3372
3374
3376
3378
3380
3382
3384
3386
3388
3390
3392
3394
3396
3398
3400
3402
3404
3406
3408
3410
3412
3414
3416
3418
3420
3422
3424
3426
3428
3430
3432
3434
3436
3438
3440
3442
3444
3446
3448
3450
3452
3454
3456
3458
3460
3462
3464
3466
3468
3470
3472
3474
3476
3478
3480
3482
3484
3486
3488
3490
3492
3494
3496
3498
3500
3502
3504
3506
3508
3510
3512
3514
3516
3518
3520
3522
3524
3526
3528
3530
3532
3534
3536
3538
3540
3542
3544
3546
3548
3550
3552
3554
3556
3558
3560
3562
3564
3566
3568
3570
3572
3574
3576
3578
3580
3582
3584
3586
3588
3590
3592
3594
3596
3598
3600
3602
3604
3606
3608
3610
3612
3614
3616
3618
3620
3622
3624
3626
3628
3630
3632
3634
3636
3638
3640
3642
3644
3646
3648
3650
3652
3654
3656
3658
3660
3662
3664
3666
3668
3670
3672
3674
3676
3678
3680
3682
3684
3686
3688
3690
3692
3694
3696
3698
3700
3702
3704
3706
3708
3710
3712
3714
3716
3718
3720
3722
3724
3726
3728
3730
3732
3734
3736
3738
3740
3742
3744
3746
3748
3750
3752
3754
3756
3758
3760
3762
3764
3766
3768
3770
3772
3774
3776
3778
3780
3782
3784
3786
3788
3790
3792
3794
3796
3798
3800
3802
3804
3806
3808
3810
3812
3814
3816
3818
3820
3822
3824
3826
3828
3830
3832
3834
3836
3838
3840
3842
3844
3846
3848
3850
3852
3854
3856
3858
3860
3862
3864
3866
3868
3870
3872
3874
3876
3878
3880
3882
3884
3886
3888
3890
3892
3894
3896
3898
3900
3902
3904
3906
3908
3910
3912
3914
3916
3918
3920
3922
3924
3926
3928
3930
3932
3934
3936
3938
3940
3942
3944
3946
3948
3950
3952
3954
3956
3958
3960
3962
3964
3966
3968
3970
3972
3974
3976
3978
3980
3982
3984
3986
3988
3990
3992
3994
3996
3998
4000
4002
4004
4006
4008
4010
4012
4014
4016
4018
4020
4022
4024
4026
4028
4030
4032
4034
4036
4038
4040
4042
4044
4046
4048
4050
4052
4054
4056
4058
4060
4062
4064
4066
4068
4070
4072
4074
4076
4078
4080
4082
4084
4086
4088
4090
4092
4094
4096
4098
4100
4102
4104
4106
4108
4110
4112
4114
4116
4118
4120
4122
4124
4126
4128
4130
4132
4134
4136
4138
4140
4142
4144
4146
4148
4150
4152
4154
4156
4158
4160
4162
4164
4166
4168
4170
4172
4174
4176
4178
4180
4182
4184
4186
4188
4190
4192
4194
4196
4198
4200
4202
4204
4206
4208
4210
4212
4214
4216
4218
4220
4222
4224
4226
4228
4230
4232
4234
4236
4238
4240
4242
4244
4246
4248
4250
4252
4254
4256
4258
4260
4262
4264
4266
4268
4270
4272
4274
4276
4278
4280
4282
4284
4286
4288
4290
4292
4294
4296
4298
4300
4302
4304
4306
4308
4310
4312
4314
4316
4318
4320
4322
4324
4326
4328
4330
4332
4334
4336
4338
4340
4342
4344
4346
4348
4350
4352
4354
4356
4358
4360
4362
4364
4366
4368
4370
4372
4374
4376
4378
4380
4382
4384
4386
4388
4390
4392
4394
4396
4398
4400
4402
4404
4406
4408
4410
4412
4414
4416
4418
4420
4422
4424
4426
4428
4430
4432
4434
4436
4438
4440
4442
4444
4446
4448
4450
4452
4454
4456
4458
4460
4462
4464
4466
4468
4470
4472
4474
4476
4478
4480
4482
4484
4486
4488
4490
4492
4494
4496
4498
4500
4502
4504
4506
4508
4510
4512
4514
4516
4518
4520
4522
4524
4526
4528
4530
4532
4534
4536
4538
4540
4542
4544
4546
4548
4550
4552
4554
4556
4558
4560
4562
4564
4566
4568
4570
4572
4574
4576
4578
4580
4582
4584
4586
4588
4590
4592
4594
4596
4598
4600
4602
4604
4606
4608
4610
4612
4614
4616
4618
4620
4622
4624
4626
4628
4630
4632
4634
4636
4638
4640
4642
4644
4646
4648
4650
4652
4654
4656
4658
4660
4662
4664
4666
4668
4670
4672
4674
4676
4678
4680
4682
4684
4686
4688
4690
4692
4694
4696
4698
4700
4702
4704
4706
4708
4710
4712
4714
4716
4718
4720
4722
4724
4726
4728
4730
4732
4734
4736
4738
4740
4742
4744
4746
4748
4750
4752
4754
4756
4758
4760
4762
4764
4766
4768
4770
4772
4774
4776
4778
4780
4782
4784
4786
4788
4790
4792
4794
4796
4798
4800
4802
4804
4806
4808
4810
4812
4814
4816
4818
4820
4822
4824
4826
4828
4830
4832
4834
4836
4838
4840
4842
4844
4846
4848
4850
4852
4854
4856
4858
4860
4862
4864
4866
4868
4870
4872
4874
4876
4878
4880
4882
4884
4886
4888
4890
4892
4894
4896
4898
4900
4902
4904
4906
4908
4910
4912
4914
4916
4918
4920
4922
4924
4926
4928
4930
4932
4934
4936
4938
4940
4942
4944
4946
4948
4950
4952
4954
4956
4958
4960
4962
4964
4966
4968
4970
4972
4974
4976
4978
4980
4982
4984
4986
4988
4990
4992
4994
4996
4998
5000
5002
5004
5006
5008
5010
5012
5014
5016
5018
5020
5022
5024
5026
5028
5030
5032
5034
5036
5038
5040
5042
5044
5046
5048
5050
5052
5054
5056
5058
5060
5062
5064
5066
5068
5070
5072
5074
5076
5078
5080
5082
5084
5086
5088
5090
5092
5094
5096
5098
5100
5102
5104
5106
5108
5110
5112
5114
5116
5118
5120
5122
5124
5126
5128
5130
5132
5134
5136
5138
5140
5142
5144
5146
5148
5150
5152
5154
5156
5158
5160
5162
5164
5166
5168
5170
5172
5174
5176
5178
5180
5182
5184
5186
5188
5190
5192
5194
5196
5198
5200
5202
5204
5206
5208
5210
5212
5214
5216
5218
5220
5222
5224
5226
5228
5230
5232
5234
5236
5238
5240
5242
5244
5246
5248
5250
5252
5254
5256
5258
5260
5262
5264
5266
5268
5270
5272
5274
5276
5278
5280
5282
5284
5286
5288
5290
5292
5294
5296
5298
5300
5302
5304
5306
5308
5310
5312
5314
5316
5318
5320
5322
5324
5326
5328
5330
5332
5334
5336
5338
5340
5342
5344
5346
5348
5350
5352
5354
5356
5358
5360
5362
5364
5366
5368
5370
5372
5374
5376
5378
5380
5382
5384
5386
5388
5390
5392
5394
5396
5398
5400
5402
5404
5406
5408
5410
5412
5414
5416
5418
5420
5422
5424
5426
5428
5430
5432
5434
5436
5438
5440
5442
5444
5446
5448
5450
5452
5454
5456
5458
5460
5462
5464
5466
5468
5470
5472
5474
5476
5478
5480
5482
5484
5486
5488
5490
5492
5494
5496
5498
5500
5502
5504
5506
5508
5510
5512
5514
5516
5518
5520
5522
5524
5526
5528
5530
5532
5534
5536
5538
5540
5542
5544
5546
5548
5550
5552
5554
5556
5558
5560
5562
5564
5566
5568
5570
5572
5574
5576
5578
5580
5582
5584
5586
5588
5590
5592
5594
5596
5598
5600
5602
5604
5606
5608
5610
5612
      </DataArray>
      <DataArray type="UInt8" Name="types" format="ascii">
69
69
69
69
69
69
69
69
69
69
69
69
69
69
69
69
69
69
69
69
69
69
69
69
69
69
69
69
69
69
69
69
69
69
69
69
69
69
69
69
69
69
69
69
69
69
69
69
69
69
69
69
69
69
69
69
69
69
69
69
69
69
69
69
69
69
69
69
69
69
69
69
69
69
69
69
69
69
69
69
69
69
69
69
69
69
69
69
69
69
69
69
69
69
69
69
69
69
69
69
69
69
69
69
69
69
69
69
69
69
69
69
69
69
69
69
69
69
69
69
69
69
69
69
69
69
69
69
69
69
69
69
69
69
69
69
69
69
69
69
69
69
69
69
69
69
69
69
69
69
69
69
69
69
69
69
69
69
69
69
69
69
69
69
69
69
69
69
69
69
69
69
69
69
69
69
69
69
69
69
69
69
69
69
69
69
69
69
69
69
69
69
69
69
69
69
69
69
69
69
69
69
69
69
69
69
69
69
69
69
69
69
69
69
69
69
69
69
69
69
69
69
69
69
69
69
69
69
69
69
69
69
69
69
69
69
69
69
69
69
69
69
69
69
69
69
69
69
69
69
69
69
69
69
69
69
69
69
69
69
69
69
69
69
69
69
69
69
69
69
69
69
69
69
69
69
69
69
69
69
69
69
69
69
69
69
69
69
69
69
69
69
69
69
69
69
69
69
69
69
69
69
69
69
69
69
69
69
69
69
69
69
69
69
69
69
69
69
69
69
69
69
69
69
69
69
69
69
69
69
69
69
69
69
69
69
69
69
69
69
69
69
69
69
69
69
69
69
69
69
69
69
69
69
69
69
69
69
69
69
69
69
69
69
69
69
69
69
69
69
69
69
69
69
69
69
69
69
69
69
69
69
69
69
69
69
69
69
69
69
69
69
69
69
69
69
69
69
69
69
69
69
69
69
69
69
69
69
69
69
69
69
69
69
69
69
69
69
69
69
69
69
69
69
69
69
69
69
69
69
69
69
69
69
69
69
69
69
69
69
69
69
69
69
69
69
69
69
69
69
69
69
69
69
69
69
69
69
69
69
69
69
69
69
69
69
69
69
69
69
69
69
69
69
69
69
69
69
69
69
69
69
69
69
69
69
69
69
69
69
69
69
69
69
69
69
69
69
69
69
69
69
69
69
69
69
69
69
69
69
69
69
69
69
69
69
69
69
69
69
69
69
69
69
69
69
69
69
69
69
69
69
69
69
69
69
69
69
69
69
69
69
69
69
69
69
69
69
69
69
69
69
69
69
3
3
3
3
3
3
3
3
3
3
3
3
3
3
3
3
3
3
3
3
3
3
3
3
3
3
3
3
3
3
3
3
3
3
3
3
3
3
3
3
3
3
3
3
3
3
3
3
3
3
3
3
3
3
3
3
3
3
3
3
3
3
3
3
3
3
3
3
3
3
3
3
3
3
3
3
3
3
3
3
3
3
3
3
3
3
3
3
3
3
3
3
3
3
3
3
3
3
3
3
3
3
3
3
3
3
3
3
3
3
3
3
3
3
3
3
3
3
3
3
3
3
3
3
3
3
3
3
3
3
3
3
3
3
3
3
3
3
3
3
3
3
3
3
3
3
3
3
3
3
3
3
3
3
3
3
3
3
3
3
3
3
3
3
3
3
3
3
3
3
3
3
3
3
3
3
3
3
3
3
3
3
3
3
3
3
3
3
3
3
3
3
3
3
3
3
3
3
3
3
3
3
3
3
3
3
3
3
3
3
3
3
3
3
3
3
3
3
3
3
3
3
3
3
3
3
3
3
3
3
3
3
3
3
3
3
3
3
3
3
3
3
3
3
3
3
3
3
3
3
3
3
3
3
3
3
3
3
3
3
3
3
3
3
3
3
3
3
3
3
3
3
3
3
3
3
3
3
3
3
3
3
3
3
3
3
3
3
3
3
3
3
3
3
3
3
3
3
3
3
3
3
3
3
3
3
3
3
3
3
3
3
3
3
3
3
3
3
3
3
3
3
3
3
3
3
3
3
3
3
3
3
3
3
3
3
3
3
3
3
3
3
3
3
3
3
3
3
3
3
3
3
3
3
3
3
3
3
3
3
3
3
3
3
3
3
3
3
3
3
3
3
3
3
3
3
3
3
3
3
3
3
3
3
3
3
3
3
3
3
3
3
3
3
3
3
3
3
3
3
3
3
3
3
3
3
3
3
3
3
3
3
3
3
3
3
3
3
3
3
3
3
3
3
3
3
3
3
3
3
3
3
3
3
3
3
3
3
3
3
3
3
3
3
3
3
3
3
3
3
3
3
3
3
3
3
3
3
3
3
3
3
3
3
3
3
3
3
3
3
3
3
3
3
3
3
3
3
3
3
3
3
3
3
3
3
3
3
3
3
3
3
3
3
3
3
3
3
3
3
3
3
3
3
3
3
3
3
3
3
3
3
3
3
3
3
3
3
3
3
3
3
3
3
3
3
3
3
3
3
3
3
3
3
3
3
3
3
3
3
3
3
3
3
3
3
3
3
3
3
3
3
3
3
3
3
3
3
3
3
3
3
3
3
3
3
3
3
3
3
3
3
3
3
3
3
3
3
3
3
3
3
3
3
3
3
3
3
3
3
3
3
3
3
3
3
3
3
3
3
3
3
3
3
3
3
3
3
3
3
3
3
3
3
3
3
3
3
3
3
3
3
3
3
3
3
3
3
3
3
3
3
3
3
3
3
3
3
3
3
3
3
3
3
3
3
3
3
3
3
3
3
3
3
3
3
3
3
3
3
3
3
3
3
3
3
3
3
3
3
3
3
3
3
3
3
3
3
3
3
3
3
3
3
3
3
3
3
3
3
3
3
3
3
3
3
3
3
3
3
3
3
3
3
3
3
3
3
3
3
3
3
3
3
3
3
3
3
3
3
3
3
3
3
3
3
3
3
3
3
3
3
3
3
3
3
3
3
3
3
3
3
3
3
3
3
3
3
3
3
3
3
3
3
3
3
3
3
3
3
3
3
3
3
3
3
3
3
3
3
3
3
3
3
3
3
3
3
3
3
3
3
3
3
3
3
3
3
3
3
3
3
3
3
3
3
3
3
3
3
3
3
3
3
3
3
3
3
3
3
3
3
3
3
3
3
3
3
3
3
3
3
3
3
3
3
3
3
3
3
3
3
3
3
3
3
3
3
3
3
3
3
3
3
3
3
3
3
3
3
3
3
3
3
3
3
3
3
3
3
3
3
3
3
3
3
3
3
3
3
3
3
3
3
3
3
3
3
3
3
3
3
3
3
3
3
3
3
3
3
3
3
3
3
3
3
3
3
3
3
3
3
3
3
3
3
3
3
3
3
3
3
3
3
3
3
3
3
3
3
3
3
3
3
3
3
3
3
3
3
3
3
3
3
3
3
3
3
3
3
3
3
3
3
3
3
3
3
3
3
3
3
3
3
3
3
3
3
3
3
3
3
3
3
3
3
3
3
3
3
3
3
3
3
3
3
3
3
3
3
3
3
3
3
3
3
3
3
3
3
3
3
3
3
3
3
3
3
3
3
3
3
3
3
3
3
3
3
3
3
3
3
3
3
3
3
3
3
3
3
3
3
3
3
3
3
3
3
3
3
3
3
3
3
3
3
3
3
3
3
3
3
3
3
3
3
3
3
3
3
3
3
3
3
3
3
3
3
3
3
3
3
3
3
3
3
3
3
3
3
3
3
3
3
3
3
3
3
3
3
3
3
3
3
3
3
3
3
3
3
3
3
3
3
3
3
3
3
3
3
3
3
3
3
3
3
3
3
3
3
3
3
3
3
3
3
3
3
3
3
3
3
3
3
3
3
3
3
3
3
3
3
3
3
3
3
3
3
3
3
3
3
3
3
      </DataArray>
    </Cells>
    <PointData>
      <DataArray type="Float64" NumberOfComponents="2" Name="Displacement" format="ascii">
0 0
0 0
0 0
0 0
0 0
0 0
0 0
0 0
0 0
0 0
0 0
0 0
0 0
0 0
0 0
0 0
0 0
0 0
0 0
0 0
0 0
0 0
0 0
0 0
0 0
0 0
0 0
0 0
0 0
0 0
0 0
0 0
0 0
0 0
0 0
0 0
0 0
0 0
0 0
0 0
0 0
0 0
0 0
0 0
0 0
0 0
0 0
0 0
0 0
0 0
0 0
0 0
0 0
0 0
0 0
0 0
0 0
0 0
0 0
0 0
0 0
0 0
0 0
0 0
0 0
0 0
0 0
0 0
0 0
0 0
0 0
0 0
0 0
0 0
0 0
0 0
0 0
0 0
0 0
0 0
0 0
0 0
0 0
0 0
0 0
0 0
0 0
0 0
0 0
0 0
0 0
0 0
0 0
0 0
0 0
0 0
0 0
0 0
0 0
0 0
0 0
0 0
0 0
0 0
0 0
0 0
0 0
0 0
0 0
0 0
0 0
0 0
0 0
0 0
0 0
0 0
0 0
0 0
0 0
0 0
0 0
0 0
0 0
0 0
0 0
0 0
0 0
0 0
0 0
0 0
0 0
0 0
0 0
0 0
0 0
0 0
0 0
0 0
0 0
0 0
0 0
0 0
0 0
0 0
0 0
0 0
0 0
0 0
0 0
0 0
0 0
0 0
0 0
0 0
0 0
0 0
0 0
0 0
0 0
0 0
0 0
0 0
0 0
0 0
0 0
0 0
0 0
0 0
0 0
0 0
0 0
0 0
0 0
0 0
0 0
0 0
0 0
0 0
0 0
0 0
0 0
0 0
0 0
0 0
0 0
0 0
0 0
0 0
0 0
0 0
0 0
0 0
0 0
0 0
0 0
0 0
0 0
0 0
0 0
0 0
0 0
0 0
0 0
0 0
0 0
0 0
0 0
0 0
0 0
0 0
0 0
0 0
0 0
0 0
0 0
0 0
0 0
0 0
0 0
0 0
0 0
0 0
0 0
0 0
0 0
0 0
0 0
0 0
0 0
0 0
0 0
0 0
0 0
0 0
0 0
0 0
0 0
0 0
0 0
0 0
0 0
0 0
0 0
0 0
0 0
0 0
0 0
0 0
0 0
0 0
0 0
0 0
0 0
0 0
0 0
0 0
0 0
0 0
0 0
0 0
0 0
0 0
0 0
0 0
0 0
0 0
0 0
0 0
0 0
0 0
0 0
0 0
0 0
0 0
0 0
0 0
0 0
0 0
0 0
0 0
0 0
0 0
0 0
0 0
0 0
0 0
0 0
0 0
0 0
0 0
0 0
0 0
0 0
0 0
0 0
0 0
0 0
0 0
0 0
0 0
0 0
0 0
0 0
0 0
0 0
0 0
0 0
0 0
0 0
0 0
0 0
0 0
0 0
0 0
0 0
0 0
0 0
0 0
0 0
0 0
0 0
0 0
0 0
0 0
0 0
0 0
0 0
0 0
0 0
0 0
0 0
0 0
0 0
0 0
0 0
0 0
0 0
0 0
0 0
0 0
0 0
0 0
0 0
0 0
0 0
0 0
0 0
0 0
0 0
0 0
0 0
0 0
0 0
0 0
0 0
0 0
0 0
0 0
0 0
0 0
0 0
0 0
0 0
0 0
0 0
0 0
0 0
0 0
0 0
0 0
0 0
0 0
0 0
0 0
0 0
0 0
0 0
0 0
0 0
0 0
0 0
0 0
0 0
0 0
0 0
0 0
0 0
0 0
0 0
0 0
0 0
0 0
0 0
0 0
0 0
0 0
0 0
0 0
0 0
0 0
0 0
0 0
0 0
0 0
0 0
0 0
0 0
0 0
0 0
0 0
0 0
0 0
0 0
0 0
0 0
0 0
0 0
0 0
0 0
0 0
0 0
0 0
0 0
0 0
0 0
0 0
0 0
0 0
0 0
0 0
0 0
0 0
0 0
0 0
0 0
0 0
0 0
0 0
0 0
0 0
0 0
0 0
0 0
0 0
0 0
0 0
0 0
0 0
0 0
0 0
0 0
0 0
0 0
0 0
0 0
0 0
0 0
0 0
0 0
0 0
0 0
0 0
0 0
0 0
0 0
0 0
0 0
0 0
0 0
0 0
0 0
0 0
0 0
0 0
0 0
0 0
0 0
0 0
0 0
0 0
0 0
0 0
0 0
0 0
0 0
0 0
0 0
0 0
0 0
0 0
0 0
0 0
0 0
0 0
0 0
0 0
0 0
0 0
0 0
0 0
0 0
0 0
0 0
0 0
0 0
0 0
0 0
0 0
0 0
0 0
0 0
0 0
0 0
0 0
0 0
0 0
0 0
0 0
0 0
0 0
0 0
0 0
0 0
0 0
0 0
0 0
0 0
0 0
0 0
0 0
0 0
0 0
0 0
0 0
0 0
0 0
0 0
0 0
0 0
0 0
0 0
0 0
0 0
0 0
0 0
0 0
0 0
0 0
0 0
0 0
0 0
0 0
0 0
0 0
0 0
0 0
0 0
0 0
0 0
0 0
0 0
0 0
0 0
0 0
0 0
0 0
0 0
0 0
0 0
0 0
0 0
0 0
0 0
0 0
0 0
0 0
0 0
0 0
0 0
0 0
0 0
0 0
0 0
0 0
0 0
0 0
0 0
0 0
0 0
0 0
0 0
0 0
0 0
0 0
0 0
0 0
0 0
0 0
0 0
0 0
0 0
0 0
0 0
0 0
0 0
0 0
0 0
0 0
0 0
0 0
0 0
0 0
0 0
0 0
0 0
0 0
0 0
0 0
0 0
0 0
0 0
0 0
0 0
0 0
0 0
0 0
0 0
0 0
0 0
0 0
0 0
0 0
0 0
0 0
0 0
0 0
0 0
0 0
0 0
0 0
0 0
0 0
0 0
0 0
0 0
0 0
0 0
0 0
0 0
0 0
0 0
0 0
0 0
0 0
0 0
0 0
0 0
0 0
0 0
0 0
0 0
0 0
0 0
0 0
0 0
0 0
0 0
0 0
0 0
0 0
0 0
0 0
0 0
0 0
0 0
0 0
0 0
0 0
0 0
0 0
0 0
0 0
0 0
0 0
0 0
0 0
0 0
0 0
0 0
0 0
0 0
0 0
0 0
0 0
0 0
0 0
0 0
0 0
0 0
0 0
0 0
0 0
0 0
0 0
0 0
0 0
0 0
0 0
0 0
0 0
0 0
0 0
0 0
0 0
0 0
0 0
0 0
0 0
0 0
0 0
0 0
0 0
0 0
0 0
0 0
0 0
0 0
0 0
0 0
0 0
0 0
0 0
0 0
0 0
0 0
0 0
0 0
0 0
0 0
0 0
0 0
0 0
0 0
0 0
0 0
0 0
0 0
0 0
0 0
0 0
0 0
0 0
0 0
0 0
0 0
0 0
0 0
0 0
0 0
0 0
0 0
0 0
0 0
0 0
0 0
0 0
0 0
0 0
0 0
0 0
0 0
0 0
0 0
0 0
0 0
0 0
0 0
0 0
0 0
0 0
0 0
0 0
0 0
0 0
0 0
0 0
0 0
0 0
0 0
0 0
0 0
0 0
0 0
0 0
0 0
0 0
0 0
0 0
0 0
0 0
0 0
0 0
0 0
0 0
0 0
0 0
0 0
0 0
0 0
0 0
0 0
0 0
0 0
0 0
0 0
0 0
0 0
0 0
0 0
0 0
0 0
0 0
0 0
0 0
0 0
0 0
0 0
0 0
0 0
0 0
0 0
0 0
0 0
0 0
0 0
0 0
0 0
0 0
0 0
0 0
0 0
0 0
0 0
0 0
0 0
0 0
0 0
0 0
0 0
0 0
0 0
0 0
0 0
0 0
0 0
0 0
0 0
0 0
0 0
0 0
0 0
0 0
0 0
0 0
0 0
0 0
0 0
0 0
0 0
0 0
0 0
0 0
0 0
0 0
0 0
0 0
0 0
0 0
0 0
0 0
0 0
0 0
0 0
0 0
0 0
0 0
0 0
0 0
0 0
0 0
0 0
0 0
0 0
0 0
0 0
0 0
0 0
0 0
0 0
0 0
0 0
0 0
0 0
0 0
0 0
0 0
0 0
0 0
0 0
0 0
0 0
0 0
0 0
0 0
0 0
0 0
0 0
0 0
0 0
0 0
0 0
0 0
0 0
0 0
0 0
0 0
0 0
0 0
0 0
0 0
0 0
0 0
0 0
0 0
0 0
0 0
0 0
0 0
0 0
0 0
0 0
0 0
0 0
0 0
0 0
0 0
0 0
0 0
0 0
0 0
0 0
0 0
0 0
0 0
0 0
0 0
0 0
0 0
0 0
0 0
0 0
0 0
0 0
0 0
0 0
0 0
0 0
0 0
0 0
0 0
0 0
0 0
0 0
0 0
0 0
0 0
0 0
0 0
0 0
0 0
0 0
0 0
0 0
0 0
0 0
0 0
0 0
0 0
0 0
0 0
0 0
0 0
0 0
0 0
0 0
0 0
0 0
0 0
0 0
0 0
0 0
0 0
0 0
0 0
0 0
0 0
0 0
0 0
0 0
0 0
0 0
0 0
0 0
0 0
0 0
0 0
0 0
0 0
0 0
0 0
0 0
0 0
0 0
0 0
0 0
0 0
0 0
0 0
0 0
0 0
0 0
0 0
0 0
0 0
0 0
0 0
0 0
0 0
0 0
0 0
0 0
0 0
0 0
0 0
0 0
0 0
0 0
0 0
0 0
0 0
0 0
0 0
0 0
0 0
0 0
0 0
0 0
0 0
0 0
0 0
0 0
0 0
0 0
0 0
0 0
0 0
0 0
0 0
0 0
0 0
0 0
0 0
0 0
0 0
0 0
0 0
0 0
0 0
0 0
0 0
0 0
0 0
0 0
0 0
0 0
0 0
0 0
0 0
0 0
0 0
0 0
0 0
0 0
0 0
0 0
0 0
0 0
0 0
0 0
0 0
0 0
0 0
0 0
0 0
0 0
0 0
0 0
0 0
0 0
0 0
0 0
0 0
0 0
0 0
0 0
0 0
0 0
0 0
0 0
0 0
0 0
0 0
0 0
0 0
0 0
0 0
0 0
0 0
0 0
0 0
0 0
0 0
0 0
0 0
0 0
0 0
0 0
0 0
0 0
0 0
0 0
0 0
0 0
0 0
0 0
0 0
0 0
0 0
0 0
0 0
0 0
0 0
0 0
0 0
0 0
0 0
0 0
0 0
0 0
0 0
0 0
0 0
0 0
0 0
0 0
0 0
0 0
0 0
0 0
0 0
0 0
0 0
0 0
0 0
0 0
0 0
0 0
0 0
0 0
0 0
0 0
0 0
0 0
0 0
0 0
0 0
0 0
0 0
0 0
0 0
0 0
0 0
0 0
0 0
0 0
0 0
0 0
0 0
0 0
0 0
0 0
0 0
0 0
0 0
0 0
0 0
0 0
0 0
0 0
0 0
0 0
0 0
0 0
0 0
0 0
0 0
0 0
0 0
0 0
0 0
0 0
0 0
0 0
0 0
0 0
0 0
0 0
0 0
0 0
0 0
0 0
0 0
0 0
0 0
0 0
0 0
0 0
0 0
0 0
0 0
0 0
0 0
0 0
0 0
0 0
0 0
0 0
0 0
0 0
0 0
0 0
0 0
0 0
0 0
0 0
0 0
0 0
0 0
0 0
0 0
0 0
0 0
0 0
0 0
0 0
0 0
0 0
0 0
0 0
0 0
0 0
0 0
0 0
0 0
0 0
0 0
0 0
0 0
0 0
0 0
0 0
0 0
0 0
0 0
0 0
0 0
0 0
0 0
0 0
0 0
0 0
0 0
0 0
0 0
0 0
0 0
0 0
0 0
0 0
0 0
0 0
0 0
0 0
0 0
0 0
0 0
0 0
0 0
0 0
0 0
0 0
0 0
0 0
0 0
0 0
0 0
0 0
0 0
0 0
0 0
0 0
0 0
0 0
0 0
0 0
0 0
0 0
0 0
0 0
0 0
0 0
0 0
0 0
0 0
0 0
0 0
0 0
0 0
0 0
0 0
0 0
0 0
0 0
0 0
0 0
0 0
0 0
0 0
0 0
0 0
0 0
0 0
0 0
0 0
0 0
0 0
0 0
0 0
0 0
0 0
0 0
0 0
0 0
0 0
0 0
0 0
0 0
0 0
0 0
0 0
0 0
0 0
0 0
0 0
0 0
0 0
0 0
0 0
0 0
0 0
0 0
0 0
0 0
0 0
0 0
0 0
0 0
0 0
0 0
0 0
0 0
0 0
0 0
0 0
0 0
0 0
0 0
0 0
0 0
0 0
0 0
0 0
0 0
0 0
0 0
0 0
0 0
0 0
0 0
0 0
0 0
0 0
0 0
0 0
0 0
0 0
0 0
0 0
0 0
0 0
0 0
0 0
0 0
0 0
0 0
0 0
0 0
0 0
0 0
0 0
0 0
0 0
0 0
0 0
0 0
0 0
0 0
0 0
0 0
0 0
0 0
0 0
0 0
0 0
0 0
0 0
0 0
0 0
0 0
0 0
0 0
0 0
0 0
0 0
0 0
0 0
0 0
0 0
0 0
0 0
0 0
0 0
0 0
0 0
0 0
0 0
0 0
0 0
0 0
0 0
0 0
0 0
0 0
0 0
0 0
0 0
0 0
0 0
0 0
0 0
0 0
0 0
0 0
0 0
0 0
0 0
0 0
0 0
0 0
0 0
0 0
0 0
0 0
0 0
0 0
0 0
0 0
0 0
0 0
0 0
0 0
0 0
0 0
0 0
0 0
0 0
0 0
0 0
0 0
0 0
0 0
0 0
0 0
0 0
0 0
0 0
0 0
0 0
0 0
0 0
0 0
0 0
0 0
0 0
0 0
0 0
0 0
0 0
0 0
0 0
0 0
0 0
0 0
0 0
0 0
0 0
0 0
0 0
0 0
0 0
0 0
0 0
0 0
0 0
0 0
0 0
0 0
0 0
0 0
0 0
0 0
0 0
0 0
0 0
0 0
0 0
0 0
0 0
0 0
0 0
0 0
0 0
0 0
0 0
0 0
0 0
0 0
0 0
0 0
0 0
0 0
0 0
0 0
0 0
0 0
0 0
0 0
0 0
0 0
0 0
0 0
0 0
0 0
0 0
0 0
0 0
0 0
0 0
0 0
0 0
0 0
0 0
0 0
0 0
0 0
0 0
0 0
0 0
0 0
0 0
0 0
0 0
0 0
0 0
0 0
0 0
0 0
0 0
0 0
0 0
0 0
0 0
0 0
0 0
0 0
0 0
0 0
0 0
0 0
0 0
0 0
0 0
0 0
0 0
0 0
0 0
0 0
0 0
0 0
0 0
0 0
0 0
0 0
0 0
0 0
0 0
0 0
0 0
0 0
0 0
0 0
0 0
0 0
0 0
0 0
0 0
0 0
0 0
0 0
0 0
0 0
0 0
0 0
0 0
0 0
0 0
0 0
0 0
0 0
0 0
0 0
0 0
0 0
0 0
0 0
0 0
0 0
0 0
0 0
0 0
0 0
0 0
0 0
0 0
0 0
0 0
0 0
0 0
0 0
0 0
0 0
0 0
0 0
0 0
0 0
0 0
0 0
0 0
0 0
0 0
0 0
0 0
0 0
0 0
0 0
0 0
0 0
0 0
0 0
0 0
0 0
0 0
0 0
0 0
0 0
0 0
0 0
0 0
0 0
0 0
0 0
0 0
0 0
0 0
0 0
0 0
0 0
0 0
0 0
0 0
0 0
0 0
0 0
0 0
0 0
0 0
0 0
0 0
0 0
0 0
0 0
0 0
0 0
0 0
0 0
0 0
0 0
0 0
0 0
0 0
0 0
0 0
0 0
0 0
0 0
0 0
0 0
0 0
0 0
0 0
0 0
0 0
0 0
0 0
0 0
0 0
0 0
0 0
0 0
0 0
0 0
0 0
0 0
0 0
0 0
0 0
0 0
0 0
0 0
0 0
0 0
0 0
0 0
0 0
0 0
0 0
0 0
0 0
0 0
0 0
0 0
0 0
0 0
0 0
0 0
0 0
0 0
0 0
0 0
0 0
0 0
0 0
0 0
0 0
0 0
0 0
0 0
0 0
0 0
0 0
0 0
0 0
0 0
0 0
0 0
0 0
0 0
0 0
0 0
0 0
0 0
0 0
0 0
0 0
0 0
0 0
0 0
0 0
0 0
0 0
0 0
0 0
0 0
0 0
0 0
0 0
0 0
0 0
0 0
0 0
0 0
0 0
0 0
0 0
0 0
0 0
0 0
0 0
0 0
0 0
0 0
0 0
0 0
0 0
0 0
0 0
0 0
0 0
0 0
0 0
0 0
0 0
0 0
0 0
0 0
0 0
0 0
0 0
0 0
0 0
0 0
0 0
0 0
0 0
0 0
0 0
0 0
0 0
0 0
0 0
0 0
0 0
0 0
0 0
0 0
0 0
0 0
0 0
0 0
0 0
0 0
0 0
0 0
0 0
0 0
0 0
0 0
0 0
0 0
0 0
0 0
0 0
0 0
0 0
0 0
0 0
0 0
0 0
0 0
0 0
0 0
0 0
0 0
0 0
0 0
0 0
0 0
0 0
0 0
0 0
0 0
0 0
0 0
0 0
0 0
0 0
0 0
0 0
0 0
0 0
0 0
0 0
0 0
0 0
0 0
0 0
0 0
0 0
0 0
0 0
0 0
0 0
0 0
0 0
0 0
0 0
0 0
0 0
0 0
0 0
0 0
0 0
0 0
0 0
0 0
0 0
0 0
0 0
0 0
0 0
0 0
0 0
0 0
0 0
0 0
0 0
0 0
0 0
0 0
0 0
0 0
0 0
0 0
0 0
0 0
0 0
0 0
0 0
0 0
0 0
0 0
0 0
0 0
0 0
0 0
0 0
0 0
0 0
0 0
0 0
0 0
0 0
0 0
0 0
0 0
0 0
0 0
0 0
0 0
0 0
0 0
0 0
0 0
0 0
0 0
0 0
0 0
0 0
0 0
0 0
0 0
0 0
0 0
0 0
0 0
0 0
0 0
0 0
0 0
0 0
0 0
0 0
0 0
0 0
0 0
0 0
0 0
0 0
0 0
0 0
0 0
0 0
0 0
0 0
0 0
0 0
0 0
0 0
0 0
0 0
0 0
0 0
0 0
0 0
0 0
0 0
0 0
0 0
0 0
0 0
0 0
0 0
0 0
0 0
0 0
0 0
0 0
0 0
0 0
0 0
0 0
0 0
0 0
0 0
0 0
0 0
0 0
0 0
0 0
0 0
0 0
0 0
0 0
0 0
0 0
0 0
0 0
0 0
0 0
0 0
0 0
0 0
0 0
0 0
0 0
0 0
0 0
0 0
0 0
0 0
0 0
0 0
0 0
0 0
0 0
0 0
0 0
0 0
0 0
0 0
0 0
0 0
0 0
0 0
0 0
0 0
0 0
0 0
0 0
0 0
0 0
0 0
0 0
0 0
0 0
0 0
0 0
0 0
0 0
0 0
0 0
0 0
0 0
0 0
0 0
0 0
0 0
0 0
0 0
0 0
0 0
0 0
0 0
0 0
0 0
0 0
0 0
0 0
0 0
0 0
0 0
0 0
0 0
0 0
0 0
0 0
0 0
0 0
0 0
0 0
0 0
0 0
0 0
0 0
0 0
0 0
0 0
0 0
0 0
0 0
0 0
0 0
0 0
0 0
0 0
0 0
0 0
0 0
0 0
0 0
0 0
0 0
0 0
0 0
0 0
0 0
0 0
0 0
0 0
0 0
0 0
0 0
0 0
0 0
0 0
0 0
0 0
0 0
0 0
0 0
0 0
0 0
0 0
0 0
0 0
0 0
0 0
0 0
0 0
0 0
0 0
0 0
0 0
0 0
0 0
0 0
0 0
0 0
0 0
0 0
0 0
0 0
0 0
0 0
0 0
0 0
0 0
0 0
0 0
0 0
0 0
0 0
0 0
0 0
0 0
0 0
0 0
0 0
0 0
0 0
0 0
0 0
0 0
0 0
0 0
0 0
0 0
0 0
0 0
0 0
0 0
0 0
0 0
0 0
0 0
0 0
0 0
0 0
0 0
0 0
0 0
0 0
0 0
0 0
0 0
0 0
0 0
0 0
0 0
0 0
0 0
0 0
0 0
0 0
0 0
0 0
0 0
0 0
0 0
0 0
0 0
0 0
0 0
0 0
0 0
0 0
0 0
0 0
0 0
0 0
0 0
0 0
0 0
0 0
0 0
0 0
0 0
0 0
0 0
0 0
0 0
0 0
0 0
0 0
0 0
0 0
0 0
0 0
0 0
0 0
0 0
0 0
0 0
0 0
0 0
0 0
0 0
0 0
0 0
0 0
0 0
0 0
0 0
0 0
0 0
0 0
0 0
0 0
0 0
0 0
0 0
0 0
0 0
0 0
0 0
0 0
0 0
0 0
0 0
0 0
0 0
0 0
0 0
0 0
0 0
0 0
0 0
0 0
0 0
0 0
0 0
0 0
0 0
0 0
0 0
0 0
0 0
0 0
0 0
0 0
0 0
0 0
0 0
0 0
0 0
0 0
0 0
0 0
0 0
0 0
0 0
0 0
0 0
0 0
0 0
0 0
0 0
0 0
0 0
0 0
0 0
0 0
0 0
0 0
0 0
0 0
0 0
0 0
0 0
0 0
0 0
0 0
0 0
0 0
0 0
0 0
0 0
0 0
0 0
0 0
0 0
0 0
0 0
0 0
0 0
0 0
0 0
0 0
0 0
0 0
0 0
0 0
0 0
0 0
0 0
0 0
0 0
0 0
0 0
0 0
0 0
0 0
0 0
0 0
0 0
0 0
0 0
0 0
0 0
0 0
0 0
0 0
0 0
0 0
0 0
0 0
0 0
0 0
0 0
0 0
0 0
0 0
0 0
0 0
0 0
0 0
0 0
0 0
0 0
0 0
0 0
0 0
0 0
0 0
0 0
0 0
0 0
0 0
0 0
0 0
0 0
0 0
0 0
0 0
0 0
0 0
0 0
0 0
0 0
0 0
0 0
0 0
0 0
0 0
0 0
0 0
0 0
0 0
0 0
0 0
0 0
0 0
0 0
0 0
0 0
0 0
0 0
0 0
0 0
0 0
0 0
0 0
0 0
0 0
0 0
0 0
0 0
0 0
0 0
0 0
0 0
0 0
0 0
0 0
0 0
0 0
0 0
0 0
0 0
0 0
0 0
0 0
0 0
0 0
0 0
0 0
0 0
0 0
0 0
0 0
0 0
0 0
0 0
0 0
0 0
0 0
0 0
0 0
0 0
0 0
0 0
0 0
0 0
0 0
0 0
0 0
0 0
0 0
0 0
0 0
0 0
0 0
0 0
0 0
0 0
0 0
0 0
0 0
0 0
0 0
0 0
0 0
0 0
0 0
0 0
0 0
0 0
0 0
0 0
0 0
0 0
0 0
0 0
0 0
0 0
0 0
0 0
0 0
0 0
0 0
0 0
0 0
0 0
0 0
0 0
0 0
0 0
0 0
0 0
0 0
0 0
0 0
0 0
0 0
0 0
0 0
0 0
0 0
0 0
0 0
0 0
0 0
0 0
0 0
0 0
0 0
0 0
0 0
0 0
0 0
0 0
0 0
0 0
0 0
0 0
0 0
0 0
0 0
0 0
0 0
0 0
0 0
0 0
0 0
0 0
0 0
0 0
0 0
0 0
0 0
0 0
0 0
0 0
0 0
0 0
0 0
0 0
0 0
0 0
0 0
0 0
0 0
0 0
0 0
0 0
0 0
0 0
0 0
0 0
0 0
0 0
0 0
0 0
0 0
0 0
0 0
0 0
0 0
0 0
0 0
0 0
0 0
0 0
0 0
0 0
0 0
0 0
0 0
0 0
0 0
0 0
0 0
0 0
0 0
0 0
0 0
0 0
0 0
0 0
0 0
0 0
0 0
0 0
0 0
0 0
0 0
0 0
0 0
0 0
0 0
0 0
0 0
0 0
0 0
0 0
0 0
0 0
0 0
0 0
0 0
0 0
0 0
0 0
0 0
0 0
0 0
0 0
0 0
0 0
0 0
0 0
0 0
0 0
0 0
0 0
0 0
0 0
0 0
0 0
0 0
0 0
0 0
0 0
0 0
0 0
0 0
0 0
0 0
0 0
0 0
0 0
0 0
0 0
0 0
0 0
0 0
0 0
0 0
0 0
0 0
0 0
0 0
0 0
0 0
0 0
0 0
0 0
0 0
0 0
0 0
0 0
0 0
0 0
0 0
0 0
0 0
0 0
0 0
0 0
0 0
0 0
0 0
0 0
0 0
0 0
0 0
0 0
0 0
0 0
0 0
0 0
0 0
0 0
0 0
0 0
0 0
0 0
0 0
0 0
0 0
0 0
0 0
0 0
0 0
0 0
0 0
0 0
0 0
0 0
0 0
0 0
0 0
0 0
0 0
0 0
0 0
0 0
0 0
0 0
0 0
0 0
0 0
0 0
0 0
0 0
0 0
0 0
0 0
0 0
0 0
0 0
0 0
0 0
0 0
0 0
0 0
0 0
0 0
0 0
0 0
0 0
0 0
0 0
0 0
0 0
0 0
0 0
0 0
0 0
0 0
0 0
0 0
0 0
0 0
0 0
0 0
0 0
0 0
0 0
0 0
0 0
0 0
0 0
0 0
0 0
0 0
0 0
0 0
0 0
0 0
0 0
0 0
0 0
0 0
0 0
0 0
0 0
0 0
0 0
0 0
0 0
0 0
0 0
0 0
0 0
0 0
0 0
0 0
0 0
0 0
0 0
0 0
0 0
0 0
0 0
0 0
0 0
0 0
0 0
0 0
0 0
0 0
0 0
0 0
0 0
0 0
0 0
0 0
0 0
0 0
0 0
0 0
0 0
0 0
0 0
0 0
0 0
0 0
0 0
0 0
0 0
0 0
0 0
0 0
0 0
0 0
0 0
0 0
0 0
0 0
0 0
0 0
0 0
0 0
0 0
0 0
0 0
0 0
0 0
0 0
0 0
0 0
0 0
0 0
0 0
0 0
0 0
0 0
0 0
0 0
0 0
0 0
0 0
0 0
0 0
0 0
0 0
0 0
0 0
0 0
0 0
0 0
0 0
0 0
0 0
0 0
0 0
0 0
0 0
0 0
0 0
0 0
0 0
0 0
0 0
0 0
0 0
0 0
0 0
0 0
0 0
0 0
0 0
0 0
0 0
0 0
0 0
0 0
0 0
0 0
0 0
0 0
0 0
0 0
0 0
0 0
0 0
0 0
0 0
0 0
0 0
0 0
0 0
0 0
0 0
0 0
0 0
0 0
0 0
0 0
0 0
0 0
0 0
0 0
0 0
0 0
0 0
0 0
0 0
0 0
0 0
0 0
0 0
0 0
0 0
0 0
0 0
0 0
0 0
0 0
0 0
0 0
0 0
0 0
0 0
0 0
0 0
0 0
0 0
0 0
0 0
0 0
0 0
0 0
0 0
0 0
0 0
0 0
0 0
0 0
0 0
0 0
0 0
0 0
0 0
0 0
0 0
0 0
0 0
0 0
0 0
0 0
0 0
0 0
0 0
0 0
0 0
0 0
0 0
0 0
0 0
0 0
0 0
0 0
0 0
0 0
0 0
0 0
0 0
0 0
0 0
0 0
0 0
0 0
0 0
0 0
0 0
0 0
0 0
0 0
0 0
0 0
0 0
0 0
0 0
0 0
0 0
0 0
0 0
0 0
0 0
0 0
0 0
0 0
0 0
0 0
0 0
0 0
0 0
0 0
0 0
0 0
0 0
0 0
0 0
0 0
0 0
0 0
0 0
0 0
0 0
0 0
0 0
0 0
0 0
0 0
0 0
0 0
0 0
0 0
0 0
0 0
0 0
0 0
0 0
0 0
0 0
0 0
0 0
0 0
0 0
0 0
0 0
0 0
0 0
0 0
0 0
0 0
0 0
0 0
0 0
0 0
0 0
0 0
0 0
0 0
0 0
0 0
0 0
0 0
0 0
0 0
0 0
0 0
0 0
0 0
0 0
0 0
0 0
0 0
0 0
0 0
0 0
0 0
0 0
0 0
0 0
0 0
0 0
0 0
0 0
0 0
0 0
0 0
0 0
0 0
0 0
0 0
0 0
0 0
0 0
0 0
0 0
0 0
0 0
0 0
0 0
0 0
0 0
0 0
0 0
0 0
0 0
0 0
0 0
0 0
0 0
0 0
0 0
0 0
0 0
0 0
0 0
0 0
0 0
0 0
0 0
0 0
0 0
0 0
0 0
0 0
0 0
0 0
0 0
0 0
0 0
0 0
0 0
0 0
0 0
0 0
0 0
0 0
0 0
0 0
0 0
0 0
0 0
0 0
0 0
0 0
0 0
0 0
0 0
0 0
0 0
0 0
0 0
0 0
0 0
0 0
0 0
0 0
0 0
0 0
0 0
0 0
0 0
0 0
0 0
0 0
0 0
0 0
0 0
0 0
0 0
0 0
0 0
0 0
0 0
0 0
0 0
0 0
0 0
0 0
0 0
0 0
0 0
0 0
0 0
0 0
0 0
0 0
0 0
0 0
0 0
0 0
0 0
0 0
0 0
0 0
0 0
0 0
0 0
0 0
0 0
0 0
0 0
0 0
0 0
0 0
0 0
0 0
0 0
0 0
0 0
0 0
0 0
0 0
0 0
0 0
0 0
0 0
0 0
0 0
0 0
0 0
0 0
0 0
0 0
0 0
0 0
0 0
0 0
0 0
0 0
0 0
0 0
0 0
0 0
0 0
0 0
0 0
0 0
0 0
0 0
0 0
0 0
0 0
0 0
0 0
0 0
0 0
0 0
0 0
0 0
0 0
0 0
0 0
0 0
0 0
0 0
0 0
0 0
0 0
0 0
0 0
0 0
0 0
0 0
0 0
0 0
0 0
0 0
0 0
0 0
0 0
0 0
0 0
0 0
0 0
0 0
0 0
0 0
0 0
0 0
0 0
0 0
0 0
0 0
0 0
0 0
0 0
0 0
0 0
0 0
0 0
0 0
0 0
0 0
0 0
0 0
0 0
0 0
0 0
0 0
0 0
0 0
0 0
0 0
0 0
0 0
0 0
0 0
0 0
0 0
0 0
0 0
0 0
0 0
0 0
0 0
0 0
0 0
0 0
0 0
0 0
0 0
0 0
0 0
0 0
0 0
0 0
0 0
0 0
0 0
0 0
0 0
0 0
0 0
0 0
0 0
0 0
0 0
0 0
0 0
0 0
0 0
0 0
0 0
0 0
0 0
0 0
0 0
0 0
0 0
0 0
0 0
0 0
0 0
0 0
0 0
0 0
0 0
0 0
0 0
0 0
0 0
0 0
0 0
0 0
0 0
0 0
0 0
0 0
0 0
0 0
0 0
0 0
0 0
0 0
0 0
0 0
0 0
0 0
0 0
0 0
0 0
0 0
0 0
0 0
0 0
0 0
0 0
0 0
0 0
0 0
0 0
0 0
0 0
0 0
0 0
0 0
0 0
0 0
0 0
0 0
0 0
0 0
0 0
0 0
0 0
0 0
0 0
0 0
0 0
0 0
0 0
0 0
0 0
0 0
0 0
0 0
0 0
0 0
0 0
0 0
0 0
0 0
0 0
0 0
0 0
0 0
0 0
0 0
0 0
0 0
0 0
0 0
0 0
0 0
0 0
0 0
0 0
0 0
0 0
      </DataArray> 
      <DataArray type="Float64" NumberOfComponents="2" Name="Velocity" format="ascii">
0 0
0 0
0 0
0 0
0 0
0 0
0 0
0 0
0 0
0 0
0 0
0 0
0 0
0 0
0 0
0 0
0 0
0 0
0 0
0 0
0 0
0 0
0 0
0 0
0 0
0 0
0 0
0 0
0 0
0 0
0 0
0 0
0 0
0 0
0 0
0 0
0 0
0 0
0 0
0 0
0 0
0 0
0 0
0 0
0 0
0 0
0 0
0 0
0 0
0 0
0 0
0 0
0 0
0 0
0 0
0 0
0 0
0 0
0 0
0 0
0 0
0 0
0 0
0 0
0 0
0 0
0 0
0 0
0 0
0 0
0 0
0 0
0 0
0 0
0 0
0 0
0 0
0 0
0 0
0 0
0 0
0 0
0 0
0 0
0 0
0 0
0 0
0 0
0 0
0 0
0 0
0 0
0 0
0 0
0 0
0 0
0 0
0 0
0 0
0 0
0 0
0 0
0 0
0 0
0 0
0 0
0 0
0 0
0 0
0 0
0 0
0 0
0 0
0 0
0 0
0 0
0 0
0 0
0 0
0 0
0 0
0 0
0 0
0 0
0 0
0 0
0 0
0 0
0 0
0 0
0 0
0 0
0 0
0 0
0 0
0 0
0 0
0 0
0 0
0 0
0 0
0 0
0 0
0 0
0 0
0 0
0 0
0 0
0 0
0 0
0 0
0 0
0 0
0 0
0 0
0 0
0 0
0 0
0 0
0 0
0 0
0 0
0 0
0 0
0 0
0 0
0 0
0 0
0 0
0 0
0 0
0 0
0 0
0 0
0 0
0 0
0 0
0 0
0 0
0 0
0 0
0 0
0 0
0 0
0 0
0 0
0 0
0 0
0 0
0 0
0 0
0 0
0 0
0 0
0 0
0 0
0 0
0 0
0 0
0 0
0 0
0 0
0 0
0 0
0 0
0 0
0 0
0 0
0 0
0 0
0 0
0 0
0 0
0 0
0 0
0 0
0 0
0 0
0 0
0 0
0 0
0 0
0 0
0 0
0 0
0 0
0 0
0 0
0 0
0 0
0 0
0 0
0 0
0 0
0 0
0 0
0 0
0 0
0 0
0 0
0 0
0 0
0 0
0 0
0 0
0 0
0 0
0 0
0 0
0 0
0 0
0 0
0 0
0 0
0 0
0 0
0 0
0 0
0 0
0 0
0 0
0 0
0 0
0 0
0 0
0 0
0 0
0 0
0 0
0 0
0 0
0 0
0 0
0 0
0 0
0 0
0 0
0 0
0 0
0 0
0 0
0 0
0 0
0 0
0 0
0 0
0 0
0 0
0 0
0 0
0 0
0 0
0 0
0 0
0 0
0 0
0 0
0 0
0 0
0 0
0 0
0 0
0 0
0 0
0 0
0 0
0 0
0 0
0 0
0 0
0 0
0 0
0 0
0 0
0 0
0 0
0 0
0 0
0 0
0 0
0 0
0 0
0 0
0 0
0 0
0 0
0 0
0 0
0 0
0 0
0 0
0 0
0 0
0 0
0 0
0 0
0 0
0 0
0 0
0 0
0 0
0 0
0 0
0 0
0 0
0 0
0 0
0 0
0 0
0 0
0 0
0 0
0 0
0 0
0 0
0 0
0 0
0 0
0 0
0 0
0 0
0 0
0 0
0 0
0 0
0 0
0 0
0 0
0 0
0 0
0 0
0 0
0 0
0 0
0 0
0 0
0 0
0 0
0 0
0 0
0 0
0 0
0 0
0 0
0 0
0 0
0 0
0 0
0 0
0 0
0 0
0 0
0 0
0 0
0 0
0 0
0 0
0 0
0 0
0 0
0 0
0 0
0 0
0 0
0 0
0 0
0 0
0 0
0 0
0 0
0 0
0 0
0 0
0 0
0 0
0 0
0 0
0 0
0 0
0 0
0 0
0 0
0 0
0 0
0 0
0 0
0 0
0 0
0 0
0 0
0 0
0 0
0 0
0 0
0 0
0 0
0 0
0 0
0 0
0 0
0 0
0 0
0 0
0 0
0 0
0 0
0 0
0 0
0 0
0 0
0 0
0 0
0 0
0 0
0 0
0 0
0 0
0 0
0 0
0 0
0 0
0 0
0 0
0 0
0 0
0 0
0 0
0 0
0 0
0 0
0 0
0 0
0 0
0 0
0 0
0 0
0 0
0 0
0 0
0 0
0 0
0 0
0 0
0 0
0 0
0 0
0 0
0 0
0 0
0 0
0 0
0 0
0 0
0 0
0 0
0 0
0 0
0 0
0 0
0 0
0 0
0 0
0 0
0 0
0 0
0 0
0 0
0 0
0 0
0 0
0 0
0 0
0 0
0 0
0 0
0 0
0 0
0 0
0 0
0 0
0 0
0 0
0 0
0 0
0 0
0 0
0 0
0 0
0 0
0 0
0 0
0 0
0 0
0 0
0 0
0 0
0 0
0 0
0 0
0 0
0 0
0 0
0 0
0 0
0 0
0 0
0 0
0 0
0 0
0 0
0 0
0 0
0 0
0 0
0 0
0 0
0 0
0 0
0 0
0 0
0 0
0 0
0 0
0 0
0 0
0 0
0 0
0 0
0 0
0 0
0 0
0 0
0 0
0 0
0 0
0 0
0 0
0 0
0 0
0 0
0 0
0 0
0 0
0 0
0 0
0 0
0 0
0 0
0 0
0 0
0 0
0 0
0 0
0 0
0 0
0 0
0 0
0 0
0 0
0 0
0 0
0 0
0 0
0 0
0 0
0 0
0 0
0 0
0 0
0 0
0 0
0 0
0 0
0 0
0 0
0 0
0 0
0 0
0 0
0 0
0 0
0 0
0 0
0 0
0 0
0 0
0 0
0 0
0 0
0 0
0 0
0 0
0 0
0 0
0 0
0 0
0 0
0 0
0 0
0 0
0 0
0 0
0 0
0 0
0 0
0 0
0 0
0 0
0 0
0 0
0 0
0 0
0 0
0 0
0 0
0 0
0 0
0 0
0 0
0 0
0 0
0 0
0 0
0 0
0 0
0 0
0 0
0 0
0 0
0 0
0 0
0 0
0 0
0 0
0 0
0 0
0 0
0 0
0 0
0 0
0 0
0 0
0 0
0 0
0 0
0 0
0 0
0 0
0 0
0 0
0 0
0 0
0 0
0 0
0 0
0 0
0 0
0 0
0 0
0 0
0 0
0 0
0 0
0 0
0 0
0 0
0 0
0 0
0 0
0 0
0 0
0 0
0 0
0 0
0 0
0 0
0 0
0 0
0 0
0 0
0 0
0 0
0 0
0 0
0 0
0 0
0 0
0 0
0 0
0 0
0 0
0 0
0 0
0 0
0 0
0 0
0 0
0 0
0 0
0 0
0 0
0 0
0 0
0 0
0 0
0 0
0 0
0 0
0 0
0 0
0 0
0 0
0 0
0 0
0 0
0 0
0 0
0 0
0 0
0 0
0 0
0 0
0 0
0 0
0 0
0 0
0 0
0 0
0 0
0 0
0 0
0 0
0 0
0 0
0 0
0 0
0 0
0 0
0 0
0 0
0 0
0 0
0 0
0 0
0 0
0 0
0 0
0 0
0 0
0 0
0 0
0 0
0 0
0 0
0 0
0 0
0 0
0 0
0 0
0 0
0 0
0 0
0 0
0 0
0 0
0 0
0 0
0 0
0 0
0 0
0 0
0 0
0 0
0 0
0 0
0 0
0 0
0 0
0 0
0 0
0 0
0 0
0 0
0 0
0 0
0 0
0 0
0 0
0 0
0 0
0 0
0 0
0 0
0 0
0 0
0 0
0 0
0 0
0 0
0 0
0 0
0 0
0 0
0 0
0 0
0 0
0 0
0 0
0 0
0 0
0 0
0 0
0 0
0 0
0 0
0 0
0 0
0 0
0 0
0 0
0 0
0 0
0 0
0 0
0 0
0 0
0 0
0 0
0 0
0 0
0 0
0 0
0 0
0 0
0 0
0 0
0 0
0 0
0 0
0 0
0 0
0 0
0 0
0 0
0 0
0 0
0 0
0 0
0 0
0 0
0 0
0 0
0 0
0 0
0 0
0 0
0 0
0 0
0 0
0 0
0 0
0 0
0 0
0 0
0 0
0 0
0 0
0 0
0 0
0 0
0 0
0 0
0 0
0 0
0 0
0 0
0 0
0 0
0 0
0 0
0 0
0 0
0 0
0 0
0 0
0 0
0 0
0 0
0 0
0 0
0 0
0 0
0 0
0 0
0 0
0 0
0 0
0 0
0 0
0 0
0 0
0 0
0 0
0 0
0 0
0 0
0 0
0 0
0 0
0 0
0 0
0 0
0 0
0 0
0 0
0 0
0 0
0 0
0 0
0 0
0 0
0 0
0 0
0 0
0 0
0 0
0 0
0 0
0 0
0 0
0 0
0 0
0 0
0 0
0 0
0 0
0 0
0 0
0 0
0 0
0 0
0 0
0 0
0 0
0 0
0 0
0 0
0 0
0 0
0 0
0 0
0 0
0 0
0 0
0 0
0 0
0 0
0 0
0 0
0 0
0 0
0 0
0 0
0 0
0 0
0 0
0 0
0 0
0 0
0 0
0 0
0 0
0 0
0 0
0 0
0 0
0 0
0 0
0 0
0 0
0 0
0 0
0 0
0 0
0 0
0 0
0 0
0 0
0 0
0 0
0 0
0 0
0 0
0 0
0 0
0 0
0 0
0 0
0 0
0 0
0 0
0 0
0 0
0 0
0 0
0 0
0 0
0 0
0 0
0 0
0 0
0 0
0 0
0 0
0 0
0 0
0 0
0 0
0 0
0 0
0 0
0 0
0 0
0 0
0 0
0 0
0 0
0 0
0 0
0 0
0 0
0 0
0 0
0 0
0 0
0 0
0 0
0 0
0 0
0 0
0 0
0 0
0 0
0 0
0 0
0 0
0 0
0 0
0 0
0 0
0 0
0 0
0 0
0 0
0 0
0 0
0 0
0 0
0 0
0 0
0 0
0 0
0 0
0 0
0 0
0 0
0 0
0 0
0 0
0 0
0 0
0 0
0 0
0 0
0 0
0 0
0 0
0 0
0 0
0 0
0 0
0 0
0 0
0 0
0 0
0 0
0 0
0 0
0 0
0 0
0 0
0 0
0 0
0 0
0 0
0 0
0 0
0 0
0 0
0 0
0 0
0 0
0 0
0 0
0 0
0 0
0 0
0 0
0 0
0 0
0 0
0 0
0 0
0 0
0 0
0 0
0 0
0 0
0 0
0 0
0 0
0 0
0 0
0 0
0 0
0 0
0 0
0 0
0 0
0 0
0 0
0 0
0 0
0 0
0 0
0 0
0 0
0 0
0 0
0 0
0 0
0 0
0 0
0 0
0 0
0 0
0 0
0 0
0 0
0 0
0 0
0 0
0 0
0 0
0 0
0 0
0 0
0 0
0 0
0 0
0 0
0 0
0 0
0 0
0 0
0 0
0 0
0 0
0 0
0 0
0 0
0 0
0 0
0 0
0 0
0 0
0 0
0 0
0 0
0 0
0 0
0 0
0 0
0 0
0 0
0 0
0 0
0 0
0 0
0 0
0 0
0 0
0 0
0 0
0 0
0 0
0 0
0 0
0 0
0 0
0 0
0 0
0 0
0 0
0 0
0 0
0 0
0 0
0 0
0 0
0 0
0 0
0 0
0 0
0 0
0 0
0 0
0 0
0 0
0 0
0 0
0 0
0 0
0 0
0 0
0 0
0 0
0 0
0 0
0 0
0 0
0 0
0 0
0 0
0 0
0 0
0 0
0 0
0 0
0 0
0 0
0 0
0 0
0 0
0 0
0 0
0 0
0 0
0 0
0 0
0 0
0 0
0 0
0 0
0 0
0 0
0 0
0 0
0 0
0 0
0 0
0 0
0 0
0 0
0 0
0 0
0 0
0 0
0 0
0 0
0 0
0 0
0 0
0 0
0 0
0 0
0 0
0 0
0 0
0 0
0 0
0 0
0 0
0 0
0 0
0 0
0 0
0 0
0 0
0 0
0 0
0 0
0 0
0 0
0 0
0 0
0 0
0 0
0 0
0 0
0 0
0 0
0 0
0 0
0 0
0 0
0 0
0 0
0 0
0 0
0 0
0 0
0 0
0 0
0 0
0 0
0 0
0 0
0 0
0 0
0 0
0 0
0 0
0 0
0 0
0 0
0 0
0 0
0 0
0 0
0 0
0 0
0 0
0 0
0 0
0 0
0 0
0 0
0 0
0 0
0 0
0 0
0 0
0 0
0 0
0 0
0 0
0 0
0 0
0 0
0 0
0 0
0 0
0 0
0 0
0 0
0 0
0 0
0 0
0 0
0 0
0 0
0 0
0 0
0 0
0 0
0 0
0 0
0 0
0 0
0 0
0 0
0 0
0 0
0 0
0 0
0 0
0 0
0 0
0 0
0 0
0 0
0 0
0 0
0 0
0 0
0 0
0 0
0 0
0 0
0 0
0 0
0 0
0 0
0 0
0 0
0 0
0 0
0 0
0 0
0 0
0 0
0 0
0 0
0 0
0 0
0 0
0 0
0 0
0 0
0 0
0 0
0 0
0 0
0 0
0 0
0 0
0 0
0 0
0 0
0 0
0 0
0 0
0 0
0 0
0 0
0 0
0 0
0 0
0 0
0 0
0 0
0 0
0 0
0 0
0 0
0 0
0 0
0 0
0 0
0 0
0 0
0 0
0 0
0 0
0 0
0 0
0 0
0 0
0 0
0 0
0 0
0 0
0 0
0 0
0 0
0 0
0 0
0 0
0 0
0 0
0 0
0 0
0 0
0 0
0 0
0 0
0 0
0 0
0 0
0 0
0 0
0 0
0 0
0 0
0 0
0 0
0 0
0 0
0 0
0 0
0 0
0 0
0 0
0 0
0 0
0 0
0 0
0 0
0 0
0 0
0 0
0 0
0 0
0 0
0 0
0 0
0 0
0 0
0 0
0 0
0 0
0 0
0 0
0 0
0 0
0 0
0 0
0 0
0 0
0 0
0 0
0 0
0 0
0 0
0 0
0 0
0 0
0 0
0 0
0 0
0 0
0 0
0 0
0 0
0 0
0 0
0 0
0 0
0 0
0 0
0 0
0 0
0 0
0 0
0 0
0 0
0 0
0 0
0 0
0 0
0 0
0 0
0 0
0 0
0 0
0 0
0 0
0 0
0 0
0 0
0 0
0 0
0 0
0 0
0 0
0 0
0 0
0 0
0 0
0 0
0 0
0 0
0 0
0 0
0 0
0 0
0 0
0 0
0 0
0 0
0 0
0 0
0 0
0 0
0 0
0 0
0 0
0 0
0 0
0 0
0 0
0 0
0 0
0 0
0 0
0 0
0 0
0 0
0 0
0 0
0 0
0 0
0 0
0 0
0 0
0 0
0 0
0 0
0 0
0 0
0 0
0 0
0 0
0 0
0 0
0 0
0 0
0 0
0 0
0 0
0 0
0 0
0 0
0 0
0 0
0 0
0 0
0 0
0 0
0 0
0 0
0 0
0 0
0 0
0 0
0 0
0 0
0 0
0 0
0 0
0 0
0 0
0 0
0 0
0 0
0 0
0 0
0 0
0 0
0 0
0 0
0 0
0 0
0 0
0 0
0 0
0 0
0 0
0 0
0 0
0 0
0 0
0 0
0 0
0 0
0 0
0 0
0 0
0 0
0 0
0 0
0 0
0 0
0 0
0 0
0 0
0 0
0 0
0 0
0 0
0 0
0 0
0 0
0 0
0 0
0 0
0 0
0 0
0 0
0 0
0 0
0 0
0 0
0 0
0 0
0 0
0 0
0 0
0 0
0 0
0 0
0 0
0 0
0 0
0 0
0 0
0 0
0 0
0 0
0 0
0 0
0 0
0 0
0 0
0 0
0 0
0 0
0 0
0 0
0 0
0 0
0 0
0 0
0 0
0 0
0 0
0 0
0 0
0 0
0 0
0 0
0 0
0 0
0 0
0 0
0 0
0 0
0 0
0 0
0 0
0 0
0 0
0 0
0 0
0 0
0 0
0 0
0 0
0 0
0 0
0 0
0 0
0 0
0 0
0 0
0 0
0 0
0 0
0 0
0 0
0 0
0 0
0 0
0 0
0 0
0 0
0 0
0 0
0 0
0 0
0 0
0 0
0 0
0 0
0 0
0 0
0 0
0 0
0 0
0 0
0 0
0 0
0 0
0 0
0 0
0 0
0 0
0 0
0 0
0 0
0 0
0 0
0 0
0 0
0 0
0 0
0 0
0 0
0 0
0 0
0 0
0 0
0 0
0 0
0 0
0 0
0 0
0 0
0 0
0 0
0 0
0 0
0 0
0 0
0 0
0 0
0 0
0 0
0 0
0 0
0 0
0 0
0 0
0 0
0 0
0 0
0 0
0 0
0 0
0 0
0 0
0 0
0 0
0 0
0 0
0 0
0 0
0 0
0 0
0 0
0 0
0 0
0 0
0 0
0 0
0 0
0 0
0 0
0 0
0 0
0 0
0 0
0 0
0 0
0 0
0 0
0 0
0 0
0 0
0 0
0 0
0 0
0 0
0 0
0 0
0 0
0 0
0 0
0 0
0 0
0 0
0 0
0 0
0 0
0 0
0 0
0 0
0 0
0 0
0 0
0 0
0 0
0 0
0 0
0 0
0 0
0 0
0 0
0 0
0 0
0 0
0 0
0 0
0 0
0 0
0 0
0 0
0 0
0 0
0 0
0 0
0 0
0 0
0 0
0 0
0 0
0 0
0 0
0 0
0 0
0 0
0 0
0 0
0 0
0 0
0 0
0 0
0 0
0 0
0 0
0 0
0 0
0 0
0 0
0 0
0 0
0 0
0 0
0 0
0 0
0 0
0 0
0 0
0 0
0 0
0 0
0 0
0 0
0 0
0 0
0 0
0 0
0 0
0 0
0 0
0 0
0 0
0 0
0 0
0 0
0 0
0 0
0 0
0 0
0 0
0 0
0 0
0 0
0 0
0 0
0 0
0 0
0 0
0 0
0 0
0 0
0 0
0 0
0 0
0 0
0 0
0 0
0 0
0 0
0 0
0 0
0 0
0 0
0 0
0 0
0 0
0 0
0 0
0 0
0 0
0 0
0 0
0 0
0 0
0 0
0 0
0 0
0 0
0 0
0 0
0 0
0 0
0 0
0 0
0 0
0 0
0 0
0 0
0 0
0 0
0 0
0 0
0 0
0 0
0 0
0 0
0 0
0 0
0 0
0 0
0 0
0 0
0 0
0 0
0 0
0 0
0 0
0 0
0 0
0 0
0 0
0 0
0 0
0 0
0 0
0 0
0 0
0 0
0 0
0 0
0 0
0 0
0 0
0 0
0 0
0 0
0 0
0 0
0 0
0 0
0 0
0 0
0 0
0 0
0 0
0 0
0 0
0 0
0 0
0 0
0 0
0 0
0 0
0 0
0 0
0 0
0 0
0 0
0 0
0 0
0 0
0 0
0 0
0 0
0 0
0 0
0 0
0 0
0 0
0 0
0 0
0 0
0 0
0 0
0 0
0 0
0 0
0 0
0 0
0 0
0 0
0 0
0 0
0 0
0 0
0 0
0 0
0 0
0 0
0 0
0 0
0 0
0 0
0 0
0 0
0 0
0 0
0 0
0 0
0 0
0 0
0 0
0 0
0 0
0 0
0 0
0 0
0 0
0 0
0 0
0 0
0 0
0 0
0 0
0 0
0 0
0 0
0 0
0 0
0 0
0 0
0 0
0 0
0 0
0 0
0 0
0 0
0 0
0 0
0 0
0 0
0 0
0 0
0 0
0 0
0 0
0 0
0 0
0 0
0 0
0 0
0 0
0 0
0 0
0 0
0 0
0 0
0 0
0 0
0 0
0 0
0 0
0 0
0 0
0 0
0 0
0 0
0 0
0 0
0 0
0 0
0 0
0 0
0 0
0 0
0 0
0 0
0 0
0 0
0 0
0 0
0 0
0 0
0 0
0 0
0 0
0 0
0 0
0 0
0 0
0 0
0 0
0 0
0 0
0 0
0 0
0 0
0 0
0 0
0 0
0 0
0 0
0 0
0 0
0 0
0 0
0 0
0 0
0 0
0 0
0 0
0 0
0 0
0 0
0 0
0 0
0 0
0 0
0 0
0 0
0 0
0 0
0 0
0 0
0 0
0 0
0 0
0 0
0 0
0 0
0 0
0 0
0 0
0 0
0 0
0 0
0 0
0 0
0 0
0 0
0 0
0 0
0 0
0 0
0 0
0 0
0 0
0 0
0 0
0 0
0 0
0 0
0 0
0 0
0 0
0 0
0 0
0 0
0 0
0 0
0 0
0 0
0 0
0 0
0 0
0 0
0 0
0 0
0 0
0 0
0 0
0 0
0 0
0 0
0 0
0 0
0 0
0 0
0 0
0 0
0 0
0 0
0 0
0 0
0 0
0 0
0 0
0 0
0 0
0 0
0 0
0 0
0 0
0 0
0 0
0 0
0 0
0 0
0 0
0 0
0 0
0 0
0 0
0 0
0 0
0 0
0 0
0 0
0 0
0 0
0 0
0 0
0 0
0 0
0 0
0 0
0 0
0 0
0 0
0 0
0 0
0 0
0 0
0 0
0 0
0 0
0 0
0 0
0 0
0 0
0 0
0 0
0 0
0 0
0 0
0 0
0 0
0 0
0 0
0 0
0 0
0 0
0 0
0 0
0 0
0 0
0 0
0 0
0 0
0 0
0 0
0 0
0 0
0 0
0 0
0 0
0 0
0 0
0 0
0 0
0 0
0 0
0 0
0 0
0 0
0 0
0 0
0 0
0 0
0 0
0 0
0 0
0 0
0 0
0 0
0 0
0 0
0 0
0 0
0 0
0 0
0 0
0 0
0 0
0 0
0 0
0 0
0 0
0 0
0 0
0 0
0 0
0 0
0 0
0 0
0 0
0 0
0 0
0 0
0 0
0 0
0 0
0 0
0 0
0 0
0 0
0 0
0 0
0 0
0 0
0 0
0 0
0 0
0 0
0 0
0 0
0 0
0 0
0 0
0 0
0 0
0 0
0 0
0 0
0 0
0 0
0 0
0 0
0 0
0 0
0 0
0 0
0 0
0 0
0 0
0 0
0 0
0 0
0 0
0 0
0 0
0 0
0 0
0 0
0 0
0 0
0 0
0 0
0 0
0 0
0 0
0 0
0 0
0 0
0 0
0 0
0 0
0 0
0 0
0 0
0 0
0 0
0 0
0 0
0 0
0 0
0 0
0 0
0 0
0 0
0 0
0 0
0 0
0 0
0 0
0 0
0 0
0 0
0 0
0 0
0 0
0 0
0 0
0 0
0 0
0 0
0 0
0 0
0 0
0 0
0 0
0 0
0 0
0 0
0 0
0 0
0 0
0 0
0 0
0 0
0 0
0 0
0 0
0 0
0 0
0 0
0 0
0 0
0 0
0 0
0 0
0 0
0 0
0 0
0 0
0 0
0 0
0 0
0 0
0 0
0 0
0 0
0 0
0 0
0 0
0 0
0 0
0 0
0 0
0 0
0 0
0 0
0 0
0 0
0 0
0 0
0 0
0 0
0 0
0 0
0 0
0 0
0 0
0 0
0 0
0 0
0 0
0 0
0 0
0 0
0 0
0 0
0 0
0 0
0 0
0 0
0 0
0 0
0 0
0 0
0 0
0 0
0 0
0 0
0 0
0 0
0 0
0 0
0 0
0 0
0 0
0 0
0 0
0 0
0 0
0 0
0 0
0 0
0 0
0 0
0 0
0 0
0 0
0 0
0 0
0 0
0 0
0 0
0 0
0 0
0 0
0 0
0 0
0 0
0 0
0 0
0 0
0 0
0 0
0 0
0 0
0 0
0 0
0 0
0 0
0 0
0 0
0 0
0 0
0 0
0 0
0 0
0 0
0 0
0 0
0 0
0 0
0 0
0 0
0 0
0 0
0 0
0 0
0 0
0 0
0 0
0 0
0 0
0 0
0 0
0 0
0 0
0 0
0 0
0 0
0 0
0 0
0 0
0 0
0 0
0 0
0 0
0 0
0 0
0 0
0 0
0 0
0 0
0 0
0 0
0 0
0 0
0 0
0 0
0 0
0 0
0 0
0 0
0 0
0 0
0 0
0 0
0 0
0 0
0 0
0 0
0 0
0 0
0 0
0 0
0 0
0 0
0 0
0 0
0 0
0 0
0 0
0 0
0 0
0 0
0 0
0 0
0 0
0 0
0 0
0 0
0 0
0 0
0 0
0 0
0 0
0 0
0 0
0 0
0 0
0 0
0 0
0 0
0 0
0 0
0 0
0 0
0 0
0 0
0 0
0 0
0 0
0 0
0 0
0 0
0 0
0 0
0 0
0 0
0 0
0 0
0 0
0 0
0 0
0 0
0 0
0 0
0 0
0 0
0 0
0 0
0 0
0 0
0 0
0 0
0 0
0 0
0 0
0 0
0 0
0 0
0 0
0 0
0 0
0 0
0 0
0 0
0 0
0 0
0 0
0 0
0 0
0 0
0 0
0 0
0 0
0 0
0 0
0 0
0 0
0 0
0 0
0 0
0 0
0 0
0 0
0 0
0 0
0 0
0 0
0 0
0 0
0 0
0 0
0 0
0 0
0 0
0 0
0 0
0 0
0 0
0 0
0 0
0 0
0 0
0 0
0 0
0 0
0 0
0 0
0 0
0 0
0 0
0 0
0 0
0 0
0 0
0 0
0 0
0 0
0 0
0 0
0 0
0 0
0 0
0 0
0 0
0 0
0 0
0 0
0 0
0 0
0 0
0 0
0 0
0 0
0 0
0 0
0 0
0 0
0 0
0 0
0 0
0 0
0 0
0 0
0 0
0 0
0 0
0 0
0 0
0 0
0 0
0 0
0 0
0 0
0 0
0 0
0 0
0 0
0 0
0 0
0 0
0 0
0 0
0 0
0 0
0 0
0 0
0 0
0 0
0 0
0 0
0 0
0 0
0 0
0 0
0 0
0 0
0 0
0 0
0 0
0 0
0 0
0 0
0 0
0 0
0 0
0 0
0 0
0 0
0 0
0 0
0 0
0 0
0 0
0 0
0 0
0 0
0 0
0 0
0 0
0 0
0 0
0 0
0 0
0 0
0 0
0 0
0 0
0 0
0 0
0 0
0 0
0 0
0 0
0 0
0 0
0 0
0 0
0 0
0 0
0 0
0 0
0 0
0 0
0 0
0 0
0 0
0 0
0 0
0 0
0 0
0 0
0 0
0 0
0 0
0 0
0 0
0 0
0 0
0 0
0 0
0 0
0 0
0 0
0 0
0 0
0 0
0 0
0 0
0 0
0 0
0 0
0 0
0 0
0 0
0 0
0 0
0 0
0 0
0 0
0 0
0 0
0 0
0 0
0 0
0 0
0 0
0 0
0 0
0 0
0 0
0 0
0 0
0 0
0 0
0 0
0 0
0 0
0 0
0 0
0 0
0 0
0 0
0 0
0 0
0 0
0 0
0 0
0 0
0 0
0 0
0 0
0 0
0 0
0 0
0 0
0 0
0 0
0 0
0 0
0 0
0 0
0 0
0 0
0 0
0 0
0 0
0 0
0 0
0 0
0 0
0 0
0 0
0 0
0 0
0 0
0 0
0 0
0 0
0 0
0 0
0 0
0 0
0 0
0 0
0 0
0 0
0 0
0 0
0 0
0 0
0 0
0 0
0 0
0 0
0 0
0 0
0 0
0 0
0 0
0 0
0 0
0 0
0 0
0 0
0 0
0 0
0 0
0 0
0 0
0 0
0 0
0 0
0 0
0 0
0 0
0 0
0 0
0 0
0 0
0 0
0 0
0 0
0 0
0 0
0 0
0 0
0 0
0 0
0 0
0 0
0 0
0 0
0 0
0 0
0 0
0 0
0 0
0 0
0 0
0 0
0 0
0 0
0 0
0 0
0 0
0 0
0 0
0 0
0 0
0 0
0 0
0 0
0 0
0 0
0 0
0 0
0 0
0 0
0 0
0 0
0 0
0 0
0 0
0 0
0 0
0 0
0 0
0 0
0 0
0 0
0 0
0 0
0 0
0 0
0 0
0 0
0 0
0 0
0 0
0 0
0 0
0 0
0 0
0 0
0 0
0 0
0 0
0 0
0 0
0 0
0 0
0 0
0 0
0 0
0 0
0 0
0 0
0 0
0 0
0 0
0 0
0 0
0 0
0 0
0 0
0 0
0 0
0 0
0 0
0 0
0 0
0 0
0 0
0 0
0 0
0 0
0 0
0 0
0 0
0 0
0 0
0 0
0 0
0 0
0 0
0 0
0 0
0 0
0 0
0 0
0 0
0 0
0 0
0 0
0 0
0 0
0 0
0 0
0 0
0 0
0 0
0 0
0 0
0 0
0 0
0 0
0 0
0 0
0 0
0 0
0 0
0 0
0 0
0 0
0 0
0 0
0 0
0 0
0 0
0 0
0 0
0 0
0 0
0 0
0 0
0 0
0 0
0 0
0 0
0 0
0 0
0 0
0 0
0 0
0 0
0 0
0 0
0 0
0 0
0 0
0 0
0 0
0 0
0 0
0 0
0 0
0 0
0 0
0 0
0 0
0 0
0 0
0 0
0 0
0 0
0 0
0 0
0 0
0 0
0 0
0 0
0 0
0 0
0 0
0 0
0 0
0 0
0 0
0 0
0 0
0 0
0 0
0 0
0 0
0 0
0 0
0 0
0 0
0 0
0 0
0 0
0 0
0 0
0 0
0 0
0 0
0 0
0 0
0 0
0 0
0 0
0 0
0 0
0 0
0 0
0 0
0 0
0 0
0 0
0 0
0 0
0 0
0 0
0 0
0 0
0 0
0 0
0 0
0 0
0 0
0 0
0 0
0 0
0 0
0 0
0 0
0 0
0 0
0 0
0 0
0 0
0 0
0 0
0 0
0 0
0 0
0 0
0 0
0 0
0 0
0 0
0 0
0 0
0 0
0 0
0 0
0 0
0 0
0 0
0 0
0 0
0 0
0 0
0 0
0 0
0 0
0 0
0 0
0 0
0 0
0 0
0 0
0 0
0 0
0 0
0 0
0 0
0 0
0 0
0 0
0 0
0 0
0 0
0 0
0 0
0 0
0 0
0 0
0 0
0 0
0 0
0 0
0 0
0 0
0 0
0 0
0 0
0 0
0 0
0 0
0 0
0 0
0 0
0 0
0 0
0 0
0 0
0 0
0 0
0 0
0 0
0 0
0 0
0 0
0 0
0 0
0 0
0 0
0 0
0 0
0 0
0 0
0 0
0 0
0 0
0 0
0 0
0 0
0 0
0 0
0 0
0 0
0 0
0 0
0 0
0 0
0 0
0 0
0 0
0 0
0 0
0 0
0 0
0 0
0 0
0 0
0 0
0 0
0 0
0 0
0 0
0 0
0 0
0 0
0 0
0 0
0 0
0 0
0 0
0 0
0 0
0 0
0 0
0 0
0 0
0 0
0 0
0 0
0 0
0 0
0 0
0 0
0 0
0 0
0 0
0 0
0 0
0 0
0 0
0 0
0 0
0 0
0 0
0 0
0 0
0 0
0 0
0 0
0 0
0 0
0 0
0 0
0 0
0 0
0 0
0 0
0 0
0 0
0 0
0 0
0 0
0 0
0 0
0 0
0 0
0 0
0 0
0 0
0 0
0 0
0 0
0 0
0 0
0 0
0 0
0 0
0 0
0 0
0 0
0 0
0 0
0 0
0 0
      </DataArray> 
      <DataArray type="Float64" NumberOfComponents="2" Name="Acceleration" format="ascii">
0 0
0 0
0 0
0 0
0 0
0 0
0 0
0 0
0 0
0 0
0 0
0 0
0 0
0 0
0 0
0 0
0 0
0 0
0 0
0 0
0 0
0 0
0 0
0 0
0 0
0 0
0 0
0 0
0 0
0 0
0 0
0 0
0 0
0 0
0 0
0 0
0 0
0 0
0 0
0 0
0 0
0 0
0 0
0 0
0 0
0 0
0 0
0 0
0 0
0 0
0 0
0 0
0 0
0 0
0 0
0 0
0 0
0 0
0 0
0 0
0 0
0 0
0 0
0 0
0 0
0 0
0 0
0 0
0 0
0 0
0 0
0 0
0 0
0 0
0 0
0 0
0 0
0 0
0 0
0 0
0 0
0 0
0 0
0 0
0 0
0 0
0 0
0 0
0 0
0 0
0 0
0 0
0 0
0 0
0 0
0 0
0 0
0 0
0 0
0 0
0 0
0 0
0 0
0 0
0 0
0 0
0 0
0 0
0 0
0 0
0 0
0 0
0 0
0 0
0 0
0 0
0 0
0 0
0 0
0 0
0 0
0 0
0 0
0 0
0 0
0 0
0 0
0 0
0 0
0 0
0 0
0 0
0 0
0 0
0 0
0 0
0 0
0 0
0 0
0 0
0 0
0 0
0 0
0 0
0 0
0 0
0 0
0 0
0 0
0 0
0 0
0 0
0 0
0 0
0 0
0 0
0 0
0 0
0 0
0 0
0 0
0 0
0 0
0 0
0 0
0 0
0 0
0 0
0 0
0 0
0 0
0 0
0 0
0 0
0 0
0 0
0 0
0 0
0 0
0 0
0 0
0 0
0 0
0 0
0 0
0 0
0 0
0 0
0 0
0 0
0 0
0 0
0 0
0 0
0 0
0 0
0 0
0 0
0 0
0 0
0 0
0 0
0 0
0 0
0 0
0 0
0 0
0 0
0 0
0 0
0 0
0 0
0 0
0 0
0 0
0 0
0 0
0 0
0 0
0 0
0 0
0 0
0 0
0 0
0 0
0 0
0 0
0 0
0 0
0 0
0 0
0 0
0 0
0 0
0 0
0 0
0 0
0 0
0 0
0 0
0 0
0 0
0 0
0 0
0 0
0 0
0 0
0 0
0 0
0 0
0 0
0 0
0 0
0 0
0 0
0 0
0 0
0 0
0 0
0 0
0 0
0 0
0 0
0 0
0 0
0 0
0 0
0 0
0 0
0 0
0 0
0 0
0 0
0 0
0 0
0 0
0 0
0 0
0 0
0 0
0 0
0 0
0 0
0 0
0 0
0 0
0 0
0 0
0 0
0 0
0 0
0 0
0 0
0 0
0 0
0 0
0 0
0 0
0 0
0 0
0 0
0 0
0 0
0 0
0 0
0 0
0 0
0 0
0 0
0 0
0 0
0 0
0 0
0 0
0 0
0 0
0 0
0 0
0 0
0 0
0 0
0 0
0 0
0 0
0 0
0 0
0 0
0 0
0 0
0 0
0 0
0 0
0 0
0 0
0 0
0 0
0 0
0 0
0 0
0 0
0 0
0 0
0 0
0 0
0 0
0 0
0 0
0 0
0 0
0 0
0 0
0 0
0 0
0 0
0 0
0 0
0 0
0 0
0 0
0 0
0 0
0 0
0 0
0 0
0 0
0 0
0 0
0 0
0 0
0 0
0 0
0 0
0 0
0 0
0 0
0 0
0 0
0 0
0 0
0 0
0 0
0 0
0 0
0 0
0 0
0 0
0 0
0 0
0 0
0 0
0 0
0 0
0 0
0 0
0 0
0 0
0 0
0 0
0 0
0 0
0 0
0 0
0 0
0 0
0 0
0 0
0 0
0 0
0 0
0 0
0 0
0 0
0 0
0 0
0 0
0 0
0 0
0 0
0 0
0 0
0 0
0 0
0 0
0 0
0 0
0 0
0 0
0 0
0 0
0 0
0 0
0 0
0 0
0 0
0 0
0 0
0 0
0 0
0 0
0 0
0 0
0 0
0 0
0 0
0 0
0 0
0 0
0 0
0 0
0 0
0 0
0 0
0 0
0 0
0 0
0 0
0 0
0 0
0 0
0 0
0 0
0 0
0 0
0 0
0 0
0 0
0 0
0 0
0 0
0 0
0 0
0 0
0 0
0 0
0 0
0 0
0 0
0 0
0 0
0 0
0 0
0 0
0 0
0 0
0 0
0 0
0 0
0 0
0 0
0 0
0 0
0 0
0 0
0 0
0 0
0 0
0 0
0 0
0 0
0 0
0 0
0 0
0 0
0 0
0 0
0 0
0 0
0 0
0 0
0 0
0 0
0 0
0 0
0 0
0 0
0 0
0 0
0 0
0 0
0 0
0 0
0 0
0 0
0 0
0 0
0 0
0 0
0 0
0 0
0 0
0 0
0 0
0 0
0 0
0 0
0 0
0 0
0 0
0 0
0 0
0 0
0 0
0 0
0 0
0 0
0 0
0 0
0 0
0 0
0 0
0 0
0 0
0 0
0 0
0 0
0 0
0 0
0 0
0 0
0 0
0 0
0 0
0 0
0 0
0 0
0 0
0 0
0 0
0 0
0 0
0 0
0 0
0 0
0 0
0 0
0 0
0 0
0 0
0 0
0 0
0 0
0 0
0 0
0 0
0 0
0 0
0 0
0 0
0 0
0 0
0 0
0 0
0 0
0 0
0 0
0 0
0 0
0 0
0 0
0 0
0 0
0 0
0 0
0 0
0 0
0 0
0 0
0 0
0 0
0 0
0 0
0 0
0 0
0 0
0 0
0 0
0 0
0 0
0 0
0 0
0 0
0 0
0 0
0 0
0 0
0 0
0 0
0 0
0 0
0 0
0 0
0 0
0 0
0 0
0 0
0 0
0 0
0 0
0 0
0 0
0 0
0 0
0 0
0 0
0 0
0 0
0 0
0 0
0 0
0 0
0 0
0 0
0 0
0 0
0 0
0 0
0 0
0 0
0 0
0 0
0 0
0 0
0 0
0 0
0 0
0 0
0 0
0 0
0 0
0 0
0 0
0 0
0 0
0 0
0 0
0 0
0 0
0 0
0 0
0 0
0 0
0 0
0 0
0 0
0 0
0 0
0 0
0 0
0 0
0 0
0 0
0 0
0 0
0 0
0 0
0 0
0 0
0 0
0 0
0 0
0 0
0 0
0 0
0 0
0 0
0 0
0 0
0 0
0 0
0 0
0 0
0 0
0 0
0 0
0 0
0 0
0 0
0 0
0 0
0 0
0 0
0 0
0 0
0 0
0 0
0 0
0 0
0 0
0 0
0 0
0 0
0 0
0 0
0 0
0 0
0 0
0 0
0 0
0 0
0 0
0 0
0 0
0 0
0 0
0 0
0 0
0 0
0 0
0 0
0 0
0 0
0 0
0 0
0 0
0 0
0 0
0 0
0 0
0 0
0 0
0 0
0 0
0 0
0 0
0 0
0 0
0 0
0 0
0 0
0 0
0 0
0 0
0 0
0 0
0 0
0 0
0 0
0 0
0 0
0 0
0 0
0 0
0 0
0 0
0 0
0 0
0 0
0 0
0 0
0 0
0 0
0 0
0 0
0 0
0 0
0 0
0 0
0 0
0 0
0 0
0 0
0 0
0 0
0 0
0 0
0 0
0 0
0 0
0 0
0 0
0 0
0 0
0 0
0 0
0 0
0 0
0 0
0 0
0 0
0 0
0 0
0 0
0 0
0 0
0 0
0 0
0 0
0 0
0 0
0 0
0 0
0 0
0 0
0 0
0 0
0 0
0 0
0 0
0 0
0 0
0 0
0 0
0 0
0 0
0 0
0 0
0 0
0 0
0 0
0 0
0 0
0 0
0 0
0 0
0 0
0 0
0 0
0 0
0 0
0 0
0 0
0 0
0 0
0 0
0 0
0 0
0 0
0 0
0 0
0 0
0 0
0 0
0 0
0 0
0 0
0 0
0 0
0 0
0 0
0 0
0 0
0 0
0 0
0 0
0 0
0 0
0 0
0 0
0 0
0 0
0 0
0 0
0 0
0 0
0 0
0 0
0 0
0 0
0 0
0 0
0 0
0 0
0 0
0 0
0 0
0 0
0 0
0 0
0 0
0 0
0 0
0 0
0 0
0 0
0 0
0 0
0 0
0 0
0 0
0 0
0 0
0 0
0 0
0 0
0 0
0 0
0 0
0 0
0 0
0 0
0 0
0 0
0 0
0 0
0 0
0 0
0 0
0 0
0 0
0 0
0 0
0 0
0 0
0 0
0 0
0 0
0 0
0 0
0 0
0 0
0 0
0 0
0 0
0 0
0 0
0 0
0 0
0 0
0 0
0 0
0 0
0 0
0 0
0 0
0 0
0 0
0 0
0 0
0 0
0 0
0 0
0 0
0 0
0 0
0 0
0 0
0 0
0 0
0 0
0 0
0 0
0 0
0 0
0 0
0 0
0 0
0 0
0 0
0 0
0 0
0 0
0 0
0 0
0 0
0 0
0 0
0 0
0 0
0 0
0 0
0 0
0 0
0 0
0 0
0 0
0 0
0 0
0 0
0 0
0 0
0 0
0 0
0 0
0 0
0 0
0 0
0 0
0 0
0 0
0 0
0 0
0 0
0 0
0 0
0 0
0 0
0 0
0 0
0 0
0 0
0 0
0 0
0 0
0 0
0 0
0 0
0 0
0 0
0 0
0 0
0 0
0 0
0 0
0 0
0 0
0 0
0 0
0 0
0 0
0 0
0 0
0 0
0 0
0 0
0 0
0 0
0 0
0 0
0 0
0 0
0 0
0 0
0 0
0 0
0 0
0 0
0 0
0 0
0 0
0 0
0 0
0 0
0 0
0 0
0 0
0 0
0 0
0 0
0 0
0 0
0 0
0 0
0 0
0 0
0 0
0 0
0 0
0 0
0 0
0 0
0 0
0 0
0 0
0 0
0 0
0 0
0 0
0 0
0 0
0 0
0 0
0 0
0 0
0 0
0 0
0 0
0 0
0 0
0 0
0 0
0 0
0 0
0 0
0 0
0 0
0 0
0 0
0 0
0 0
0 0
0 0
0 0
0 0
0 0
0 0
0 0
0 0
0 0
0 0
0 0
0 0
0 0
0 0
0 0
0 0
0 0
0 0
0 0
0 0
0 0
0 0
0 0
0 0
0 0
0 0
0 0
0 0
0 0
0 0
0 0
0 0
0 0
0 0
0 0
0 0
0 0
0 0
0 0
0 0
0 0
0 0
0 0
0 0
0 0
0 0
0 0
0 0
0 0
0 0
0 0
0 0
0 0
0 0
0 0
0 0
0 0
0 0
0 0
0 0
0 0
0 0
0 0
0 0
0 0
0 0
0 0
0 0
0 0
0 0
0 0
0 0
0 0
0 0
0 0
0 0
0 0
0 0
0 0
0 0
0 0
0 0
0 0
0 0
0 0
0 0
0 0
0 0
0 0
0 0
0 0
0 0
0 0
0 0
0 0
0 0
0 0
0 0
0 0
0 0
0 0
0 0
0 0
0 0
0 0
0 0
0 0
0 0
0 0
0 0
0 0
0 0
0 0
0 0
0 0
0 0
0 0
0 0
0 0
0 0
0 0
0 0
0 0
0 0
0 0
0 0
0 0
0 0
0 0
0 0
0 0
0 0
0 0
0 0
0 0
0 0
0 0
0 0
0 0
0 0
0 0
0 0
0 0
0 0
0 0
0 0
0 0
0 0
0 0
0 0
0 0
0 0
0 0
0 0
0 0
0 0
0 0
0 0
0 0
0 0
0 0
0 0
0 0
0 0
0 0
0 0
0 0
0 0
0 0
0 0
0 0
0 0
0 0
0 0
0 0
0 0
0 0
0 0
0 0
0 0
0 0
0 0
0 0
0 0
0 0
0 0
0 0
0 0
0 0
0 0
0 0
0 0
0 0
0 0
0 0
0 0
0 0
0 0
0 0
0 0
0 0
0 0
0 0
0 0
0 0
0 0
0 0
0 0
0 0
0 0
0 0
0 0
0 0
0 0
0 0
0 0
0 0
0 0
0 0
0 0
0 0
0 0
0 0
0 0
0 0
0 0
0 0
0 0
0 0
0 0
0 0
0 0
0 0
0 0
0 0
0 0
0 0
0 0
0 0
0 0
0 0
0 0
0 0
0 0
0 0
0 0
0 0
0 0
0 0
0 0
0 0
0 0
0 0
0 0
0 0
0 0
0 0
0 0
0 0
0 0
0 0
0 0
0 0
0 0
0 0
0 0
0 0
0 0
0 0
0 0
0 0
0 0
0 0
0 0
0 0
0 0
0 0
0 0
0 0
0 0
0 0
0 0
0 0
0 0
0 0
0 0
0 0
0 0
0 0
0 0
0 0
0 0
0 0
0 0
0 0
0 0
0 0
0 0
0 0
0 0
0 0
0 0
0 0
0 0
0 0
0 0
0 0
0 0
0 0
0 0
0 0
0 0
0 0
0 0
0 0
0 0
0 0
0 0
0 0
0 0
0 0
0 0
0 0
0 0
0 0
0 0
0 0
0 0
0 0
0 0
0 0
0 0
0 0
0 0
0 0
0 0
0 0
0 0
0 0
0 0
0 0
0 0
0 0
0 0
0 0
0 0
0 0
0 0
0 0
0 0
0 0
0 0
0 0
0 0
0 0
0 0
0 0
0 0
0 0
0 0
0 0
0 0
0 0
0 0
0 0
0 0
0 0
0 0
0 0
0 0
0 0
0 0
0 0
0 0
0 0
0 0
0 0
0 0
0 0
0 0
0 0
0 0
0 0
0 0
0 0
0 0
0 0
0 0
0 0
0 0
0 0
0 0
0 0
0 0
0 0
0 0
0 0
0 0
0 0
0 0
0 0
0 0
0 0
0 0
0 0
0 0
0 0
0 0
0 0
0 0
0 0
0 0
0 0
0 0
0 0
0 0
0 0
0 0
0 0
0 0
0 0
0 0
0 0
0 0
0 0
0 0
0 0
0 0
0 0
0 0
0 0
0 0
0 0
0 0
0 0
0 0
0 0
0 0
0 0
0 0
0 0
0 0
0 0
0 0
0 0
0 0
0 0
0 0
0 0
0 0
0 0
0 0
0 0
0 0
0 0
0 0
0 0
0 0
0 0
0 0
0 0
0 0
0 0
0 0
0 0
0 0
0 0
0 0
0 0
0 0
0 0
0 0
0 0
0 0
0 0
0 0
0 0
0 0
0 0
0 0
0 0
0 0
0 0
0 0
0 0
0 0
0 0
0 0
0 0
0 0
0 0
0 0
0 0
0 0
0 0
0 0
0 0
0 0
0 0
0 0
0 0
0 0
0 0
0 0
0 0
0 0
0 0
0 0
0 0
0 0
0 0
0 0
0 0
0 0
0 0
0 0
0 0
0 0
0 0
0 0
0 0
0 0
0 0
0 0
0 0
0 0
0 0
0 0
0 0
0 0
0 0
0 0
0 0
0 0
0 0
0 0
0 0
0 0
0 0
0 0
0 0
0 0
0 0
0 0
0 0
0 0
0 0
0 0
0 0
0 0
0 0
0 0
0 0
0 0
0 0
0 0
0 0
0 0
0 0
0 0
0 0
0 0
0 0
0 0
0 0
0 0
0 0
0 0
0 0
0 0
0 0
0 0
0 0
0 0
0 0
0 0
0 0
0 0
0 0
0 0
0 0
0 0
0 0
0 0
0 0
0 0
0 0
0 0
0 0
0 0
0 0
0 0
0 0
0 0
0 0
0 0
0 0
0 0
0 0
0 0
0 0
0 0
0 0
0 0
0 0
0 0
0 0
0 0
0 0
0 0
0 0
0 0
0 0
0 0
0 0
0 0
0 0
0 0
0 0
0 0
0 0
0 0
0 0
0 0
0 0
0 0
0 0
0 0
0 0
0 0
0 0
0 0
0 0
0 0
0 0
0 0
0 0
0 0
0 0
0 0
0 0
0 0
0 0
0 0
0 0
0 0
0 0
0 0
0 0
0 0
0 0
0 0
0 0
0 0
0 0
0 0
0 0
0 0
0 0
0 0
0 0
0 0
0 0
0 0
0 0
0 0
0 0
0 0
0 0
0 0
0 0
0 0
0 0
0 0
0 0
0 0
0 0
0 0
0 0
0 0
0 0
0 0
0 0
0 0
0 0
0 0
0 0
0 0
0 0
0 0
0 0
0 0
0 0
0 0
0 0
0 0
0 0
0 0
0 0
0 0
0 0
0 0
0 0
0 0
0 0
0 0
0 0
0 0
0 0
0 0
0 0
0 0
0 0
0 0
0 0
0 0
0 0
0 0
0 0
0 0
0 0
0 0
0 0
0 0
0 0
0 0
0 0
0 0
0 0
0 0
0 0
0 0
0 0
0 0
0 0
0 0
0 0
0 0
0 0
0 0
0 0
0 0
0 0
0 0
0 0
0 0
0 0
0 0
0 0
0 0
0 0
0 0
0 0
0 0
0 0
0 0
0 0
0 0
0 0
0 0
0 0
0 0
0 0
0 0
0 0
0 0
0 0
0 0
0 0
0 0
0 0
0 0
0 0
0 0
0 0
0 0
0 0
0 0
0 0
0 0
0 0
0 0
0 0
0 0
0 0
0 0
0 0
0 0
0 0
0 0
0 0
0 0
0 0
0 0
0 0
0 0
0 0
0 0
0 0
0 0
0 0
0 0
0 0
0 0
0 0
0 0
0 0
0 0
0 0
0 0
0 0
0 0
0 0
0 0
0 0
0 0
0 0
0 0
0 0
0 0
0 0
0 0
0 0
0 0
0 0
0 0
0 0
0 0
0 0
0 0
0 0
0 0
0 0
0 0
0 0
0 0
0 0
0 0
0 0
0 0
0 0
0 0
0 0
0 0
0 0
0 0
0 0
0 0
0 0
0 0
0 0
0 0
0 0
0 0
0 0
0 0
0 0
0 0
0 0
0 0
0 0
0 0
0 0
0 0
0 0
0 0
0 0
0 0
0 0
0 0
0 0
0 0
0 0
0 0
0 0
0 0
0 0
0 0
0 0
0 0
0 0
0 0
0 0
0 0
0 0
0 0
0 0
0 0
0 0
0 0
0 0
0 0
0 0
0 0
0 0
0 0
0 0
0 0
0 0
0 0
0 0
0 0
0 0
0 0
0 0
0 0
0 0
0 0
0 0
0 0
0 0
0 0
0 0
0 0
0 0
0 0
0 0
0 0
0 0
0 0
0 0
0 0
0 0
0 0
0 0
0 0
0 0
0 0
0 0
0 0
0 0
0 0
0 0
0 0
0 0
0 0
0 0
0 0
0 0
0 0
0 0
0 0
0 0
0 0
0 0
0 0
0 0
0 0
0 0
0 0
0 0
0 0
0 0
0 0
0 0
0 0
0 0
0 0
0 0
0 0
0 0
0 0
0 0
0 0
0 0
0 0
0 0
0 0
0 0
0 0
0 0
0 0
0 0
0 0
0 0
0 0
0 0
0 0
0 0
0 0
0 0
0 0
0 0
0 0
0 0
0 0
0 0
0 0
0 0
0 0
0 0
0 0
0 0
0 0
0 0
0 0
0 0
0 0
0 0
0 0
0 0
0 0
0 0
0 0
0 0
0 0
0 0
0 0
0 0
0 0
0 0
0 0
0 0
0 0
0 0
0 0
0 0
0 0
0 0
0 0
0 0
0 0
0 0
0 0
0 0
0 0
0 0
0 0
0 0
0 0
0 0
0 0
0 0
0 0
0 0
0 0
0 0
0 0
0 0
0 0
0 0
0 0
0 0
0 0
0 0
0 0
0 0
0 0
0 0
0 0
0 0
0 0
0 0
0 0
0 0
0 0
0 0
0 0
0 0
0 0
0 0
0 0
0 0
0 0
0 0
0 0
0 0
0 0
0 0
0 0
0 0
0 0
0 0
0 0
0 0
0 0
0 0
0 0
0 0
0 0
0 0
0 0
0 0
0 0
0 0
0 0
0 0
0 0
0 0
0 0
0 0
0 0
0 0
0 0
0 0
0 0
0 0
0 0
0 0
0 0
0 0
0 0
0 0
0 0
0 0
0 0
0 0
0 0
0 0
0 0
0 0
0 0
0 0
0 0
0 0
0 0
0 0
0 0
0 0
0 0
0 0
0 0
0 0
0 0
0 0
0 0
0 0
0 0
0 0
0 0
0 0
0 0
0 0
0 0
0 0
0 0
0 0
0 0
0 0
0 0
0 0
0 0
0 0
0 0
0 0
0 0
0 0
0 0
0 0
0 0
0 0
0 0
0 0
0 0
0 0
0 0
0 0
0 0
0 0
0 0
0 0
0 0
0 0
0 0
0 0
0 0
0 0
0 0
0 0
0 0
0 0
0 0
0 0
0 0
0 0
0 0
0 0
0 0
0 0
0 0
0 0
0 0
0 0
0 0
0 0
0 0
0 0
0 0
0 0
0 0
0 0
0 0
0 0
0 0
0 0
0 0
0 0
0 0
0 0
0 0
0 0
0 0
0 0
0 0
0 0
0 0
0 0
0 0
0 0
0 0
0 0
0 0
0 0
0 0
0 0
0 0
0 0
0 0
0 0
0 0
0 0
0 0
0 0
0 0
0 0
0 0
0 0
0 0
0 0
0 0
0 0
0 0
0 0
0 0
0 0
0 0
0 0
0 0
0 0
0 0
0 0
0 0
0 0
0 0
0 0
0 0
0 0
0 0
0 0
0 0
0 0
0 0
0 0
0 0
0 0
0 0
0 0
0 0
0 0
0 0
0 0
0 0
0 0
0 0
0 0
0 0
0 0
0 0
0 0
0 0
0 0
0 0
0 0
0 0
0 0
0 0
0 0
0 0
0 0
0 0
0 0
0 0
0 0
0 0
0 0
0 0
0 0
0 0
0 0
0 0
0 0
0 0
0 0
0 0
0 0
0 0
0 0
0 0
0 0
0 0
0 0
0 0
0 0
0 0
0 0
0 0
0 0
0 0
0 0
0 0
0 0
0 0
0 0
0 0
0 0
0 0
0 0
0 0
0 0
0 0
0 0
0 0
0 0
0 0
0 0
0 0
0 0
0 0
0 0
0 0
0 0
0 0
0 0
0 0
0 0
0 0
0 0
0 0
0 0
0 0
0 0
0 0
0 0
0 0
0 0
0 0
0 0
0 0
0 0
0 0
0 0
0 0
0 0
0 0
0 0
0 0
0 0
0 0
0 0
0 0
0 0
0 0
0 0
0 0
0 0
0 0
0 0
0 0
0 0
0 0
0 0
0 0
0 0
0 0
0 0
0 0
0 0
0 0
0 0
0 0
0 0
0 0
0 0
0 0
0 0
0 0
0 0
0 0
0 0
0 0
0 0
0 0
0 0
0 0
0 0
0 0
0 0
0 0
0 0
0 0
0 0
0 0
0 0
0 0
0 0
0 0
0 0
0 0
0 0
0 0
0 0
0 0
0 0
0 0
0 0
0 0
0 0
0 0
0 0
0 0
0 0
0 0
0 0
0 0
0 0
0 0
0 0
0 0
0 0
0 0
0 0
0 0
0 0
0 0
0 0
0 0
0 0
0 0
0 0
0 0
0 0
0 0
0 0
0 0
0 0
0 0
0 0
0 0
0 0
0 0
0 0
0 0
0 0
0 0
0 0
0 0
0 0
0 0
0 0
0 0
0 0
0 0
0 0
0 0
0 0
0 0
0 0
0 0
0 0
0 0
0 0
0 0
0 0
0 0
0 0
0 0
0 0
0 0
0 0
0 0
0 0
0 0
0 0
0 0
0 0
0 0
0 0
0 0
0 0
0 0
0 0
0 0
0 0
0 0
0 0
0 0
0 0
0 0
0 0
0 0
0 0
0 0
0 0
0 0
0 0
0 0
0 0
0 0
0 0
0 0
0 0
0 0
0 0
0 0
0 0
0 0
0 0
0 0
0 0
0 0
0 0
0 0
0 0
0 0
0 0
0 0
0 0
0 0
0 0
0 0
0 0
0 0
0 0
0 0
0 0
0 0
0 0
0 0
0 0
0 0
0 0
0 0
0 0
0 0
0 0
0 0
0 0
0 0
0 0
0 0
0 0
0 0
0 0
0 0
0 0
0 0
0 0
0 0
0 0
0 0
0 0
0 0
0 0
0 0
0 0
0 0
0 0
0 0
0 0
0 0
0 0
0 0
0 0
0 0
0 0
0 0
0 0
0 0
0 0
0 0
0 0
0 0
0 0
0 0
0 0
0 0
0 0
0 0
0 0
0 0
0 0
0 0
0 0
0 0
0 0
0 0
0 0
0 0
0 0
0 0
0 0
0 0
0 0
0 0
0 0
0 0
0 0
0 0
0 0
0 0
0 0
0 0
0 0
0 0
0 0
0 0
0 0
0 0
0 0
0 0
0 0
0 0
0 0
0 0
0 0
0 0
0 0
0 0
0 0
0 0
0 0
0 0
0 0
0 0
0 0
0 0
0 0
0 0
0 0
0 0
0 0
0 0
0 0
0 0
0 0
0 0
0 0
0 0
0 0
0 0
0 0
0 0
0 0
0 0
0 0
0 0
0 0
0 0
0 0
0 0
0 0
0 0
0 0
0 0
0 0
0 0
0 0
0 0
0 0
0 0
0 0
0 0
0 0
0 0
0 0
0 0
0 0
0 0
0 0
0 0
0 0
0 0
0 0
0 0
0 0
0 0
0 0
0 0
0 0
0 0
0 0
0 0
0 0
0 0
0 0
0 0
0 0
0 0
0 0
0 0
0 0
0 0
0 0
0 0
0 0
0 0
0 0
0 0
0 0
0 0
0 0
0 0
0 0
0 0
0 0
0 0
0 0
0 0
0 0
0 0
0 0
0 0
0 0
0 0
0 0
0 0
0 0
0 0
0 0
0 0
0 0
0 0
0 0
0 0
0 0
0 0
0 0
0 0
0 0
0 0
0 0
0 0
0 0
0 0
0 0
0 0
0 0
0 0
0 0
0 0
0 0
0 0
0 0
0 0
0 0
0 0
0 0
0 0
0 0
0 0
0 0
0 0
0 0
0 0
0 0
0 0
0 0
0 0
0 0
0 0
0 0
0 0
0 0
0 0
0 0
0 0
0 0
0 0
0 0
0 0
0 0
0 0
0 0
0 0
0 0
0 0
0 0
0 0
0 0
0 0
0 0
0 0
0 0
0 0
0 0
0 0
0 0
0 0
0 0
0 0
0 0
0 0
0 0
0 0
0 0
0 0
0 0
0 0
0 0
0 0
0 0
0 0
0 0
0 0
0 0
0 0
0 0
0 0
0 0
0 0
0 0
0 0
0 0
0 0
0 0
0 0
0 0
0 0
0 0
0 0
0 0
0 0
0 0
0 0
0 0
0 0
0 0
0 0
0 0
0 0
0 0
0 0
0 0
0 0
0 0
0 0
0 0
0 0
0 0
0 0
0 0
0 0
0 0
0 0
0 0
0 0
0 0
0 0
0 0
0 0
0 0
0 0
0 0
0 0
0 0
0 0
0 0
0 0
0 0
0 0
0 0
0 0
0 0
0 0
0 0
0 0
0 0
0 0
0 0
0 0
0 0
0 0
0 0
0 0
0 0
0 0
0 0
0 0
0 0
0 0
0 0
0 0
0 0
0 0
0 0
0 0
0 0
0 0
0 0
0 0
0 0
0 0
0 0
0 0
0 0
0 0
0 0
0 0
0 0
0 0
0 0
0 0
0 0
0 0
0 0
0 0
0 0
0 0
0 0
0 0
0 0
0 0
0 0
0 0
0 0
0 0
0 0
0 0
0 0
0 0
0 0
0 0
0 0
0 0
0 0
0 0
0 0
0 0
0 0
0 0
0 0
0 0
0 0
0 0
0 0
0 0
0 0
0 0
0 0
0 0
0 0
0 0
0 0
0 0
0 0
0 0
0 0
0 0
0 0
0 0
0 0
0 0
0 0
0 0
0 0
0 0
0 0
0 0
0 0
0 0
0 0
0 0
0 0
0 0
0 0
0 0
0 0
0 0
0 0
0 0
0 0
0 0
0 0
0 0
0 0
0 0
0 0
0 0
0 0
0 0
0 0
0 0
0 0
0 0
0 0
0 0
0 0
0 0
0 0
0 0
0 0
0 0
0 0
0 0
0 0
0 0
0 0
0 0
0 0
0 0
0 0
0 0
0 0
0 0
0 0
0 0
0 0
0 0
0 0
0 0
0 0
0 0
0 0
0 0
0 0
0 0
0 0
0 0
0 0
0 0
0 0
0 0
0 0
0 0
0 0
0 0
0 0
0 0
0 0
0 0
0 0
0 0
0 0
0 0
0 0
0 0
0 0
0 0
0 0
0 0
0 0
0 0
0 0
0 0
0 0
0 0
0 0
0 0
0 0
0 0
0 0
0 0
0 0
0 0
0 0
0 0
0 0
0 0
0 0
0 0
0 0
0 0
0 0
0 0
0 0
0 0
0 0
0 0
0 0
0 0
0 0
0 0
0 0
0 0
0 0
0 0
0 0
0 0
0 0
0 0
0 0
0 0
0 0
0 0
0 0
0 0
0 0
0 0
0 0
0 0
0 0
0 0
0 0
0 0
0 0
0 0
0 0
0 0
0 0
0 0
0 0
0 0
0 0
0 0
0 0
0 0
0 0
0 0
0 0
0 0
0 0
0 0
0 0
0 0
0 0
0 0
0 0
0 0
0 0
0 0
0 0
0 0
0 0
0 0
0 0
0 0
0 0
0 0
0 0
0 0
0 0
0 0
0 0
0 0
0 0
0 0
0 0
0 0
0 0
0 0
0 0
0 0
0 0
0 0
0 0
0 0
0 0
0 0
0 0
0 0
0 0
0 0
0 0
0 0
0 0
0 0
0 0
0 0
0 0
0 0
0 0
0 0
0 0
0 0
0 0
0 0
0 0
0 0
0 0
0 0
0 0
0 0
0 0
0 0
0 0
0 0
0 0
0 0
0 0
0 0
0 0
0 0
0 0
0 0
0 0
0 0
0 0
0 0
0 0
0 0
0 0
0 0
0 0
0 0
0 0
0 0
0 0
0 0
0 0
0 0
0 0
0 0
0 0
0 0
0 0
0 0
0 0
0 0
0 0
0 0
0 0
0 0
0 0
0 0
0 0
0 0
0 0
0 0
0 0
0 0
0 0
0 0
0 0
0 0
0 0
0 0
0 0
0 0
0 0
0 0
0 0
0 0
0 0
0 0
0 0
0 0
0 0
0 0
0 0
0 0
0 0
0 0
0 0
0 0
0 0
0 0
0 0
0 0
0 0
0 0
0 0
0 0
0 0
0 0
0 0
0 0
0 0
0 0
0 0
0 0
0 0
0 0
0 0
0 0
0 0
0 0
0 0
0 0
0 0
0 0
0 0
0 0
0 0
0 0
0 0
0 0
0 0
0 0
0 0
0 0
0 0
0 0
0 0
0 0
0 0
0 0
0 0
0 0
0 0
0 0
0 0
0 0
0 0
0 0
0 0
0 0
0 0
0 0
0 0
0 0
0 0
0 0
0 0
0 0
0 0
0 0
0 0
0 0
0 0
0 0
0 0
0 0
0 0
0 0
0 0
0 0
0 0
0 0
0 0
0 0
0 0
0 0
0 0
0 0
0 0
0 0
0 0
0 0
0 0
0 0
0 0
0 0
0 0
0 0
0 0
0 0
0 0
0 0
0 0
0 0
0 0
0 0
0 0
0 0
0 0
0 0
0 0
0 0
0 0
0 0
0 0
0 0
0 0
0 0
0 0
0 0
0 0
0 0
      </DataArray> 
      <DataArray type="Float64" NumberOfComponents="2" Name="CauchyNormalStress" format="ascii">
0 0
0 0
0 0
0 0
0 0
0 0
0 0
0 0
0 0
0 0
0 0
0 0
0 0
0 0
0 0
0 0
0 0
0 0
0 0
0 0
0 0
0 0
0 0
0 0
0 0
0 0
0 0
0 0
0 0
0 0
0 0
0 0
0 0
0 0
0 0
0 0
0 0
0 0
0 0
0 0
0 0
0 0
0 0
0 0
0 0
0 0
0 0
0 0
0 0
0 0
0 0
0 0
0 0
0 0
0 0
0 0
0 0
0 0
0 0
0 0
0 0
0 0
0 0
0 0
0 0
0 0
0 0
0 0
0 0
0 0
0 0
0 0
0 0
0 0
0 0
0 0
0 0
0 0
0 0
0 0
0 0
0 0
0 0
0 0
0 0
0 0
0 0
0 0
0 0
0 0
0 0
0 0
0 0
0 0
0 0
0 0
0 0
0 0
0 0
0 0
0 0
0 0
0 0
0 0
0 0
0 0
0 0
0 0
0 0
0 0
0 0
0 0
0 0
0 0
0 0
0 0
0 0
0 0
0 0
0 0
0 0
0 0
0 0
0 0
0 0
0 0
0 0
0 0
0 0
0 0
0 0
0 0
0 0
0 0
0 0
0 0
0 0
0 0
0 0
0 0
0 0
0 0
0 0
0 0
0 0
0 0
0 0
0 0
0 0
0 0
0 0
0 0
0 0
0 0
0 0
0 0
0 0
0 0
0 0
0 0
0 0
0 0
0 0
0 0
0 0
0 0
0 0
0 0
0 0
0 0
0 0
0 0
0 0
0 0
0 0
0 0
0 0
0 0
0 0
0 0
0 0
0 0
0 0
0 0
0 0
0 0
0 0
0 0
0 0
0 0
0 0
0 0
0 0
0 0
0 0
0 0
0 0
0 0
0 0
0 0
0 0
0 0
0 0
0 0
0 0
0 0
0 0
0 0
0 0
0 0
0 0
0 0
0 0
0 0
0 0
0 0
0 0
0 0
0 0
0 0
0 0
0 0
0 0
0 0
0 0
0 0
0 0
0 0
0 0
0 0
0 0
0 0
0 0
0 0
0 0
0 0
0 0
0 0
0 0
0 0
0 0
0 0
0 0
0 0
0 0
0 0
0 0
0 0
0 0
0 0
0 0
0 0
0 0
0 0
0 0
0 0
0 0
0 0
0 0
0 0
0 0
0 0
0 0
0 0
0 0
0 0
0 0
0 0
0 0
0 0
0 0
0 0
0 0
0 0
0 0
0 0
0 0
0 0
0 0
0 0
0 0
0 0
0 0
0 0
0 0
0 0
0 0
0 0
0 0
0 0
0 0
0 0
0 0
0 0
0 0
0 0
0 0
0 0
0 0
0 0
0 0
0 0
0 0
0 0
0 0
0 0
0 0
0 0
0 0
0 0
0 0
0 0
0 0
0 0
0 0
0 0
0 0
0 0
0 0
0 0
0 0
0 0
0 0
0 0
0 0
0 0
0 0
0 0
0 0
0 0
0 0
0 0
0 0
0 0
0 0
0 0
0 0
0 0
0 0
0 0
0 0
0 0
0 0
0 0
0 0
0 0
0 0
0 0
0 0
0 0
0 0
0 0
0 0
0 0
0 0
0 0
0 0
0 0
0 0
0 0
0 0
0 0
0 0
0 0
0 0
0 0
0 0
0 0
0 0
0 0
0 0
0 0
0 0
0 0
0 0
0 0
0 0
0 0
0 0
0 0
0 0
0 0
0 0
0 0
0 0
0 0
0 0
0 0
0 0
0 0
0 0
0 0
0 0
0 0
0 0
0 0
0 0
0 0
0 0
0 0
0 0
0 0
0 0
0 0
0 0
0 0
0 0
0 0
0 0
0 0
0 0
0 0
0 0
0 0
0 0
0 0
0 0
0 0
0 0
0 0
0 0
0 0
0 0
0 0
0 0
0 0
0 0
0 0
0 0
0 0
0 0
0 0
0 0
0 0
0 0
0 0
0 0
0 0
0 0
0 0
0 0
0 0
0 0
0 0
0 0
0 0
0 0
0 0
0 0
0 0
0 0
0 0
0 0
0 0
0 0
0 0
0 0
0 0
0 0
0 0
0 0
0 0
0 0
0 0
0 0
0 0
0 0
0 0
0 0
0 0
0 0
0 0
0 0
0 0
0 0
0 0
0 0
0 0
0 0
0 0
0 0
0 0
0 0
0 0
0 0
0 0
0 0
0 0
0 0
0 0
0 0
0 0
0 0
0 0
0 0
0 0
0 0
0 0
0 0
0 0
0 0
0 0
0 0
0 0
0 0
0 0
0 0
0 0
0 0
0 0
0 0
0 0
0 0
0 0
0 0
0 0
0 0
0 0
0 0
0 0
0 0
0 0
0 0
0 0
0 0
0 0
0 0
0 0
0 0
0 0
0 0
0 0
0 0
0 0
0 0
0 0
0 0
0 0
0 0
0 0
0 0
0 0
0 0
0 0
0 0
0 0
0 0
0 0
0 0
0 0
0 0
0 0
0 0
0 0
0 0
0 0
0 0
0 0
0 0
0 0
0 0
0 0
0 0
0 0
0 0
0 0
0 0
0 0
0 0
0 0
0 0
0 0
0 0
0 0
0 0
0 0
0 0
0 0
0 0
0 0
0 0
0 0
0 0
0 0
0 0
0 0
0 0
0 0
0 0
0 0
0 0
0 0
0 0
0 0
0 0
0 0
0 0
0 0
0 0
0 0
0 0
0 0
0 0
0 0
0 0
0 0
0 0
0 0
0 0
0 0
0 0
0 0
0 0
0 0
0 0
0 0
0 0
0 0
0 0
0 0
0 0
0 0
0 0
0 0
0 0
0 0
0 0
0 0
0 0
0 0
0 0
0 0
0 0
0 0
0 0
0 0
0 0
0 0
0 0
0 0
0 0
0 0
0 0
0 0
0 0
0 0
0 0
0 0
0 0
0 0
0 0
0 0
0 0
0 0
0 0
0 0
0 0
0 0
0 0
0 0
0 0
0 0
0 0
0 0
0 0
0 0
0 0
0 0
0 0
0 0
0 0
0 0
0 0
0 0
0 0
0 0
0 0
0 0
0 0
0 0
0 0
0 0
0 0
0 0
0 0
0 0
0 0
0 0
0 0
0 0
0 0
0 0
0 0
0 0
0 0
0 0
0 0
0 0
0 0
0 0
0 0
0 0
0 0
0 0
0 0
0 0
0 0
0 0
0 0
0 0
0 0
0 0
0 0
0 0
0 0
0 0
0 0
0 0
0 0
0 0
0 0
0 0
0 0
0 0
0 0
0 0
0 0
0 0
0 0
0 0
0 0
0 0
0 0
0 0
0 0
0 0
0 0
0 0
0 0
0 0
0 0
0 0
0 0
0 0
0 0
0 0
0 0
0 0
0 0
0 0
0 0
0 0
0 0
0 0
0 0
0 0
0 0
0 0
0 0
0 0
0 0
0 0
0 0
0 0
0 0
0 0
0 0
0 0
0 0
0 0
0 0
0 0
0 0
0 0
0 0
0 0
0 0
0 0
0 0
0 0
0 0
0 0
0 0
0 0
0 0
0 0
0 0
0 0
0 0
0 0
0 0
0 0
0 0
0 0
0 0
0 0
0 0
0 0
0 0
0 0
0 0
0 0
0 0
0 0
0 0
0 0
0 0
0 0
0 0
0 0
0 0
0 0
0 0
0 0
0 0
0 0
0 0
0 0
0 0
0 0
0 0
0 0
0 0
0 0
0 0
0 0
0 0
0 0
0 0
0 0
0 0
0 0
0 0
0 0
0 0
0 0
0 0
0 0
0 0
0 0
0 0
0 0
0 0
0 0
0 0
0 0
0 0
0 0
0 0
0 0
0 0
0 0
0 0
0 0
0 0
0 0
0 0
0 0
0 0
0 0
0 0
0 0
0 0
0 0
0 0
0 0
0 0
0 0
0 0
0 0
0 0
0 0
0 0
0 0
0 0
0 0
0 0
0 0
0 0
0 0
0 0
0 0
0 0
0 0
0 0
0 0
0 0
0 0
0 0
0 0
0 0
0 0
0 0
0 0
0 0
0 0
0 0
0 0
0 0
0 0
0 0
0 0
0 0
0 0
0 0
0 0
0 0
0 0
0 0
0 0
0 0
0 0
0 0
0 0
0 0
0 0
0 0
0 0
0 0
0 0
0 0
0 0
0 0
0 0
0 0
0 0
0 0
0 0
0 0
0 0
0 0
0 0
0 0
0 0
0 0
0 0
0 0
0 0
0 0
0 0
0 0
0 0
0 0
0 0
0 0
0 0
0 0
0 0
0 0
0 0
0 0
0 0
0 0
0 0
0 0
0 0
0 0
0 0
0 0
0 0
0 0
0 0
0 0
0 0
0 0
0 0
0 0
0 0
0 0
0 0
0 0
0 0
0 0
0 0
0 0
0 0
0 0
0 0
0 0
0 0
0 0
0 0
0 0
0 0
0 0
0 0
0 0
0 0
0 0
0 0
0 0
0 0
0 0
0 0
0 0
0 0
0 0
0 0
0 0
0 0
0 0
0 0
0 0
0 0
0 0
0 0
0 0
0 0
0 0
0 0
0 0
0 0
0 0
0 0
0 0
0 0
0 0
0 0
0 0
0 0
0 0
0 0
0 0
0 0
0 0
0 0
0 0
0 0
0 0
0 0
0 0
0 0
0 0
0 0
0 0
0 0
0 0
0 0
0 0
0 0
0 0
0 0
0 0
0 0
0 0
0 0
0 0
0 0
0 0
0 0
0 0
0 0
0 0
0 0
0 0
0 0
0 0
0 0
0 0
0 0
0 0
0 0
0 0
0 0
0 0
0 0
0 0
0 0
0 0
0 0
0 0
0 0
0 0
0 0
0 0
0 0
0 0
0 0
0 0
0 0
0 0
0 0
0 0
0 0
0 0
0 0
0 0
0 0
0 0
0 0
0 0
0 0
0 0
0 0
0 0
0 0
0 0
0 0
0 0
0 0
0 0
0 0
0 0
0 0
0 0
0 0
0 0
0 0
0 0
0 0
0 0
0 0
0 0
0 0
0 0
0 0
0 0
0 0
0 0
0 0
0 0
0 0
0 0
0 0
0 0
0 0
0 0
0 0
0 0
0 0
0 0
0 0
0 0
0 0
0 0
0 0
0 0
0 0
0 0
0 0
0 0
0 0
0 0
0 0
0 0
0 0
0 0
0 0
0 0
0 0
0 0
0 0
0 0
0 0
0 0
0 0
0 0
0 0
0 0
0 0
0 0
0 0
0 0
0 0
0 0
0 0
0 0
0 0
0 0
0 0
0 0
0 0
0 0
0 0
0 0
0 0
0 0
0 0
0 0
0 0
0 0
0 0
0 0
0 0
0 0
0 0
0 0
0 0
0 0
0 0
0 0
0 0
0 0
0 0
0 0
0 0
0 0
0 0
0 0
0 0
0 0
0 0
0 0
0 0
0 0
0 0
0 0
0 0
0 0
0 0
0 0
0 0
0 0
0 0
0 0
0 0
0 0
0 0
0 0
0 0
0 0
0 0
0 0
0 0
0 0
0 0
0 0
0 0
0 0
0 0
0 0
0 0
0 0
0 0
0 0
0 0
0 0
0 0
0 0
0 0
0 0
0 0
0 0
0 0
0 0
0 0
0 0
0 0
0 0
0 0
0 0
0 0
0 0
0 0
0 0
0 0
0 0
0 0
0 0
0 0
0 0
0 0
0 0
0 0
0 0
0 0
0 0
0 0
0 0
0 0
0 0
0 0
0 0
0 0
0 0
0 0
0 0
0 0
0 0
0 0
0 0
0 0
0 0
0 0
0 0
0 0
0 0
0 0
0 0
0 0
0 0
0 0
0 0
0 0
0 0
0 0
0 0
0 0
0 0
0 0
0 0
0 0
0 0
0 0
0 0
0 0
0 0
0 0
0 0
0 0
0 0
0 0
0 0
0 0
0 0
0 0
0 0
0 0
0 0
0 0
0 0
0 0
0 0
0 0
0 0
0 0
0 0
0 0
0 0
0 0
0 0
0 0
0 0
0 0
0 0
0 0
0 0
0 0
0 0
0 0
0 0
0 0
0 0
0 0
0 0
0 0
0 0
0 0
0 0
0 0
0 0
0 0
0 0
0 0
0 0
0 0
0 0
0 0
0 0
0 0
0 0
0 0
0 0
0 0
0 0
0 0
0 0
0 0
0 0
0 0
0 0
0 0
0 0
0 0
0 0
0 0
0 0
0 0
0 0
0 0
0 0
0 0
0 0
0 0
0 0
0 0
0 0
0 0
0 0
0 0
0 0
0 0
0 0
0 0
0 0
0 0
0 0
0 0
0 0
0 0
0 0
0 0
0 0
0 0
0 0
0 0
0 0
0 0
0 0
0 0
0 0
0 0
0 0
0 0
0 0
0 0
0 0
0 0
0 0
0 0
0 0
0 0
0 0
0 0
0 0
0 0
0 0
0 0
0 0
0 0
0 0
0 0
0 0
0 0
0 0
0 0
0 0
0 0
0 0
0 0
0 0
0 0
0 0
0 0
0 0
0 0
0 0
0 0
0 0
0 0
0 0
0 0
0 0
0 0
0 0
0 0
0 0
0 0
0 0
0 0
0 0
0 0
0 0
0 0
0 0
0 0
0 0
0 0
0 0
0 0
0 0
0 0
0 0
0 0
0 0
0 0
0 0
0 0
0 0
0 0
0 0
0 0
0 0
0 0
0 0
0 0
0 0
0 0
0 0
0 0
0 0
0 0
0 0
0 0
0 0
0 0
0 0
0 0
0 0
0 0
0 0
0 0
0 0
0 0
0 0
0 0
0 0
0 0
0 0
0 0
0 0
0 0
0 0
0 0
0 0
0 0
0 0
0 0
0 0
0 0
0 0
0 0
0 0
0 0
0 0
0 0
0 0
0 0
0 0
0 0
0 0
0 0
0 0
0 0
0 0
0 0
0 0
0 0
0 0
0 0
0 0
0 0
0 0
0 0
0 0
0 0
0 0
0 0
0 0
0 0
0 0
0 0
0 0
0 0
0 0
0 0
0 0
0 0
0 0
0 0
0 0
0 0
0 0
0 0
0 0
0 0
0 0
0 0
0 0
0 0
0 0
0 0
0 0
0 0
0 0
0 0
0 0
0 0
0 0
0 0
0 0
0 0
0 0
0 0
0 0
0 0
0 0
0 0
0 0
0 0
0 0
0 0
0 0
0 0
0 0
0 0
0 0
0 0
0 0
0 0
0 0
0 0
0 0
0 0
0 0
0 0
0 0
0 0
0 0
0 0
0 0
0 0
0 0
0 0
0 0
0 0
0 0
0 0
0 0
0 0
0 0
0 0
0 0
0 0
0 0
0 0
0 0
0 0
0 0
0 0
0 0
0 0
0 0
0 0
0 0
0 0
0 0
0 0
0 0
0 0
0 0
0 0
0 0
0 0
0 0
0 0
0 0
0 0
0 0
0 0
0 0
0 0
0 0
0 0
0 0
0 0
0 0
0 0
0 0
0 0
0 0
0 0
0 0
0 0
0 0
0 0
0 0
0 0
0 0
0 0
0 0
0 0
0 0
0 0
0 0
0 0
0 0
0 0
0 0
0 0
0 0
0 0
0 0
0 0
0 0
0 0
0 0
0 0
0 0
0 0
0 0
0 0
0 0
0 0
0 0
0 0
0 0
0 0
0 0
0 0
0 0
0 0
0 0
0 0
0 0
0 0
0 0
0 0
0 0
0 0
0 0
0 0
0 0
0 0
0 0
0 0
0 0
0 0
0 0
0 0
0 0
0 0
0 0
0 0
0 0
0 0
0 0
0 0
0 0
0 0
0 0
0 0
0 0
0 0
0 0
0 0
0 0
0 0
0 0
0 0
0 0
0 0
0 0
0 0
0 0
0 0
0 0
0 0
0 0
0 0
0 0
0 0
0 0
0 0
0 0
0 0
0 0
0 0
0 0
0 0
0 0
0 0
0 0
0 0
0 0
0 0
0 0
0 0
0 0
0 0
0 0
0 0
0 0
0 0
0 0
0 0
0 0
0 0
0 0
0 0
0 0
0 0
0 0
0 0
0 0
0 0
0 0
0 0
0 0
0 0
0 0
0 0
0 0
0 0
0 0
0 0
0 0
0 0
0 0
0 0
0 0
0 0
0 0
0 0
0 0
0 0
0 0
0 0
0 0
0 0
0 0
0 0
0 0
0 0
0 0
0 0
0 0
0 0
0 0
0 0
0 0
0 0
0 0
0 0
0 0
0 0
0 0
0 0
0 0
0 0
0 0
0 0
0 0
0 0
0 0
0 0
0 0
0 0
0 0
0 0
0 0
0 0
0 0
0 0
0 0
0 0
0 0
0 0
0 0
0 0
0 0
0 0
0 0
0 0
0 0
0 0
0 0
0 0
0 0
0 0
0 0
0 0
0 0
0 0
0 0
0 0
0 0
0 0
0 0
0 0
0 0
0 0
0 0
0 0
0 0
0 0
0 0
0 0
0 0
0 0
0 0
0 0
0 0
0 0
0 0
0 0
0 0
0 0
0 0
0 0
0 0
0 0
0 0
0 0
0 0
0 0
0 0
0 0
0 0
0 0
0 0
0 0
0 0
0 0
0 0
0 0
0 0
0 0
0 0
0 0
0 0
0 0
0 0
0 0
0 0
0 0
0 0
0 0
0 0
0 0
0 0
0 0
0 0
0 0
0 0
0 0
0 0
0 0
0 0
0 0
0 0
0 0
0 0
0 0
0 0
0 0
0 0
0 0
0 0
0 0
0 0
0 0
0 0
0 0
0 0
0 0
0 0
0 0
0 0
0 0
0 0
0 0
0 0
0 0
0 0
0 0
0 0
0 0
0 0
0 0
0 0
0 0
0 0
0 0
0 0
0 0
0 0
0 0
0 0
0 0
0 0
0 0
0 0
0 0
0 0
0 0
0 0
0 0
0 0
0 0
0 0
0 0
0 0
0 0
0 0
0 0
0 0
0 0
0 0
0 0
0 0
0 0
0 0
0 0
0 0
0 0
0 0
0 0
0 0
0 0
0 0
0 0
0 0
0 0
0 0
0 0
0 0
0 0
0 0
0 0
0 0
0 0
0 0
0 0
0 0
0 0
0 0
0 0
0 0
0 0
0 0
0 0
0 0
0 0
0 0
0 0
0 0
0 0
0 0
0 0
0 0
0 0
0 0
0 0
0 0
0 0
0 0
0 0
0 0
0 0
0 0
0 0
0 0
0 0
0 0
0 0
0 0
0 0
0 0
0 0
0 0
0 0
0 0
0 0
0 0
0 0
0 0
0 0
0 0
0 0
0 0
0 0
0 0
0 0
0 0
0 0
0 0
0 0
0 0
0 0
0 0
0 0
0 0
0 0
0 0
0 0
0 0
0 0
0 0
0 0
0 0
0 0
0 0
0 0
0 0
0 0
0 0
0 0
0 0
0 0
0 0
0 0
0 0
0 0
0 0
0 0
0 0
0 0
0 0
0 0
0 0
0 0
0 0
0 0
0 0
0 0
0 0
0 0
0 0
0 0
0 0
0 0
0 0
0 0
0 0
0 0
0 0
0 0
0 0
0 0
0 0
0 0
0 0
0 0
0 0
0 0
0 0
0 0
0 0
0 0
0 0
0 0
0 0
0 0
0 0
0 0
0 0
0 0
0 0
0 0
0 0
0 0
0 0
0 0
0 0
0 0
0 0
0 0
0 0
0 0
0 0
0 0
0 0
0 0
0 0
0 0
0 0
0 0
0 0
0 0
0 0
0 0
0 0
0 0
0 0
0 0
0 0
0 0
0 0
0 0
0 0
0 0
0 0
0 0
0 0
0 0
0 0
0 0
0 0
0 0
0 0
0 0
0 0
0 0
0 0
0 0
0 0
0 0
0 0
0 0
0 0
0 0
0 0
0 0
0 0
0 0
0 0
0 0
0 0
0 0
0 0
0 0
0 0
0 0
0 0
0 0
0 0
0 0
0 0
0 0
0 0
0 0
0 0
0 0
0 0
0 0
0 0
0 0
0 0
0 0
0 0
0 0
0 0
0 0
0 0
0 0
0 0
0 0
0 0
0 0
0 0
0 0
0 0
0 0
0 0
0 0
0 0
0 0
0 0
0 0
0 0
0 0
0 0
0 0
0 0
0 0
0 0
0 0
0 0
0 0
0 0
0 0
0 0
0 0
0 0
0 0
0 0
0 0
0 0
0 0
0 0
0 0
0 0
0 0
0 0
0 0
0 0
0 0
0 0
0 0
0 0
0 0
0 0
0 0
0 0
0 0
0 0
0 0
0 0
0 0
0 0
0 0
0 0
0 0
0 0
0 0
0 0
0 0
0 0
0 0
0 0
0 0
0 0
0 0
0 0
0 0
0 0
0 0
0 0
0 0
0 0
0 0
0 0
0 0
0 0
0 0
0 0
0 0
0 0
0 0
0 0
0 0
0 0
0 0
0 0
0 0
0 0
0 0
0 0
0 0
0 0
0 0
0 0
0 0
0 0
0 0
0 0
0 0
0 0
0 0
0 0
0 0
0 0
0 0
0 0
0 0
0 0
0 0
0 0
0 0
0 0
0 0
0 0
0 0
0 0
0 0
0 0
0 0
0 0
0 0
0 0
0 0
0 0
0 0
0 0
0 0
0 0
0 0
0 0
0 0
0 0
0 0
0 0
0 0
0 0
0 0
0 0
0 0
0 0
0 0
0 0
0 0
0 0
0 0
0 0
0 0
0 0
0 0
0 0
0 0
0 0
0 0
0 0
0 0
0 0
0 0
0 0
0 0
0 0
0 0
0 0
0 0
0 0
0 0
0 0
0 0
0 0
0 0
0 0
0 0
0 0
0 0
0 0
0 0
0 0
0 0
0 0
0 0
0 0
0 0
0 0
0 0
0 0
0 0
0 0
0 0
0 0
0 0
0 0
0 0
0 0
0 0
0 0
0 0
0 0
0 0
0 0
0 0
0 0
0 0
0 0
0 0
0 0
0 0
0 0
0 0
0 0
0 0
0 0
0 0
0 0
0 0
0 0
0 0
0 0
0 0
0 0
0 0
0 0
0 0
0 0
0 0
0 0
0 0
0 0
0 0
0 0
0 0
0 0
0 0
0 0
0 0
0 0
0 0
0 0
0 0
0 0
0 0
0 0
0 0
0 0
0 0
0 0
0 0
0 0
0 0
0 0
0 0
0 0
0 0
0 0
0 0
0 0
0 0
0 0
0 0
0 0
0 0
0 0
0 0
0 0
0 0
0 0
0 0
0 0
0 0
0 0
0 0
0 0
0 0
0 0
0 0
0 0
0 0
0 0
0 0
0 0
0 0
0 0
0 0
0 0
0 0
0 0
0 0
0 0
0 0
0 0
0 0
0 0
0 0
0 0
0 0
0 0
0 0
0 0
0 0
0 0
0 0
0 0
0 0
0 0
0 0
0 0
0 0
0 0
0 0
0 0
0 0
0 0
0 0
0 0
0 0
0 0
0 0
0 0
0 0
0 0
0 0
0 0
0 0
0 0
0 0
0 0
0 0
0 0
0 0
0 0
0 0
0 0
0 0
0 0
0 0
0 0
0 0
0 0
0 0
0 0
0 0
0 0
0 0
0 0
0 0
0 0
0 0
0 0
0 0
0 0
0 0
0 0
0 0
0 0
0 0
0 0
0 0
0 0
0 0
0 0
0 0
0 0
0 0
0 0
0 0
0 0
0 0
0 0
0 0
0 0
0 0
0 0
0 0
0 0
0 0
0 0
0 0
0 0
0 0
0 0
0 0
0 0
0 0
0 0
0 0
0 0
0 0
0 0
0 0
0 0
0 0
0 0
0 0
0 0
0 0
0 0
0 0
0 0
0 0
0 0
0 0
0 0
0 0
0 0
0 0
0 0
0 0
0 0
0 0
0 0
0 0
0 0
0 0
0 0
0 0
0 0
0 0
0 0
0 0
0 0
0 0
0 0
0 0
0 0
0 0
0 0
0 0
0 0
0 0
0 0
0 0
0 0
0 0
0 0
0 0
0 0
0 0
0 0
0 0
0 0
0 0
0 0
0 0
0 0
0 0
0 0
0 0
0 0
0 0
0 0
0 0
0 0
0 0
0 0
0 0
0 0
0 0
0 0
0 0
0 0
0 0
0 0
0 0
0 0
0 0
0 0
0 0
0 0
0 0
0 0
0 0
0 0
0 0
0 0
0 0
0 0
0 0
0 0
0 0
0 0
0 0
0 0
0 0
0 0
0 0
0 0
0 0
0 0
0 0
0 0
0 0
0 0
0 0
0 0
0 0
0 0
0 0
0 0
0 0
0 0
0 0
0 0
0 0
0 0
0 0
0 0
0 0
0 0
0 0
0 0
0 0
0 0
0 0
0 0
0 0
0 0
0 0
0 0
0 0
0 0
0 0
0 0
0 0
0 0
0 0
0 0
0 0
0 0
0 0
0 0
0 0
0 0
0 0
0 0
0 0
0 0
0 0
0 0
0 0
0 0
0 0
0 0
0 0
0 0
0 0
0 0
0 0
0 0
0 0
0 0
0 0
0 0
0 0
0 0
0 0
0 0
0 0
0 0
0 0
0 0
0 0
0 0
0 0
0 0
0 0
0 0
0 0
0 0
0 0
0 0
0 0
0 0
0 0
0 0
0 0
0 0
0 0
0 0
0 0
0 0
0 0
0 0
0 0
0 0
0 0
0 0
0 0
0 0
0 0
0 0
0 0
0 0
0 0
0 0
0 0
0 0
0 0
0 0
0 0
0 0
0 0
0 0
0 0
0 0
0 0
0 0
0 0
0 0
0 0
0 0
0 0
0 0
0 0
0 0
0 0
0 0
0 0
0 0
0 0
0 0
0 0
0 0
0 0
0 0
0 0
0 0
0 0
0 0
0 0
0 0
0 0
0 0
0 0
0 0
0 0
0 0
0 0
0 0
0 0
0 0
0 0
0 0
0 0
0 0
0 0
0 0
0 0
0 0
0 0
0 0
0 0
0 0
0 0
0 0
0 0
0 0
0 0
0 0
0 0
0 0
0 0
0 0
0 0
0 0
0 0
0 0
0 0
0 0
0 0
0 0
0 0
0 0
0 0
0 0
0 0
0 0
0 0
0 0
0 0
0 0
0 0
0 0
0 0
0 0
0 0
0 0
0 0
0 0
0 0
0 0
0 0
0 0
0 0
0 0
0 0
0 0
0 0
0 0
0 0
0 0
0 0
0 0
0 0
0 0
0 0
0 0
0 0
0 0
0 0
0 0
0 0
0 0
0 0
0 0
0 0
0 0
0 0
0 0
0 0
0 0
0 0
0 0
0 0
0 0
0 0
0 0
0 0
0 0
0 0
0 0
0 0
0 0
0 0
0 0
0 0
0 0
0 0
0 0
0 0
0 0
0 0
0 0
0 0
0 0
0 0
0 0
0 0
0 0
0 0
0 0
0 0
0 0
0 0
0 0
0 0
0 0
0 0
0 0
0 0
0 0
0 0
0 0
0 0
0 0
0 0
0 0
0 0
0 0
0 0
0 0
0 0
0 0
0 0
0 0
0 0
0 0
0 0
0 0
0 0
0 0
0 0
0 0
0 0
0 0
0 0
0 0
0 0
0 0
0 0
0 0
0 0
0 0
0 0
0 0
0 0
0 0
0 0
0 0
0 0
0 0
0 0
0 0
0 0
0 0
0 0
0 0
0 0
0 0
0 0
0 0
0 0
0 0
0 0
0 0
0 0
0 0
0 0
0 0
0 0
0 0
0 0
0 0
0 0
0 0
0 0
0 0
0 0
0 0
0 0
0 0
0 0
0 0
0 0
0 0
0 0
0 0
0 0
0 0
0 0
0 0
0 0
0 0
0 0
0 0
0 0
0 0
0 0
0 0
0 0
0 0
0 0
0 0
0 0
0 0
0 0
0 0
0 0
0 0
0 0
0 0
0 0
0 0
0 0
0 0
0 0
0 0
0 0
0 0
0 0
0 0
0 0
0 0
0 0
0 0
0 0
0 0
0 0
0 0
0 0
0 0
0 0
0 0
0 0
0 0
0 0
0 0
0 0
0 0
0 0
0 0
0 0
0 0
0 0
0 0
0 0
0 0
0 0
0 0
0 0
0 0
0 0
0 0
0 0
0 0
0 0
0 0
0 0
0 0
0 0
0 0
0 0
0 0
0 0
0 0
0 0
0 0
0 0
0 0
0 0
0 0
0 0
0 0
0 0
0 0
0 0
0 0
0 0
0 0
0 0
0 0
0 0
0 0
0 0
0 0
0 0
0 0
0 0
0 0
0 0
0 0
0 0
0 0
0 0
0 0
0 0
0 0
0 0
0 0
0 0
0 0
0 0
0 0
0 0
0 0
0 0
0 0
0 0
0 0
0 0
0 0
0 0
0 0
0 0
0 0
0 0
0 0
0 0
0 0
0 0
0 0
0 0
0 0
0 0
0 0
0 0
0 0
0 0
0 0
0 0
0 0
0 0
0 0
0 0
0 0
0 0
0 0
0 0
0 0
0 0
0 0
0 0
0 0
0 0
0 0
0 0
0 0
0 0
0 0
0 0
0 0
0 0
0 0
0 0
0 0
0 0
0 0
0 0
0 0
0 0
0 0
0 0
0 0
0 0
0 0
0 0
0 0
0 0
0 0
0 0
0 0
0 0
0 0
0 0
0 0
0 0
0 0
0 0
0 0
0 0
0 0
0 0
0 0
0 0
0 0
0 0
0 0
0 0
0 0
0 0
0 0
0 0
0 0
0 0
0 0
0 0
0 0
0 0
0 0
0 0
0 0
0 0
0 0
0 0
0 0
0 0
0 0
0 0
0 0
0 0
0 0
0 0
0 0
0 0
0 0
0 0
0 0
0 0
0 0
0 0
0 0
0 0
0 0
0 0
0 0
0 0
0 0
0 0
0 0
0 0
0 0
0 0
0 0
0 0
0 0
0 0
0 0
0 0
0 0
0 0
0 0
0 0
0 0
0 0
0 0
0 0
0 0
0 0
0 0
0 0
0 0
0 0
0 0
0 0
0 0
0 0
0 0
0 0
0 0
0 0
0 0
0 0
0 0
0 0
0 0
0 0
0 0
0 0
0 0
0 0
0 0
0 0
0 0
0 0
0 0
0 0
0 0
0 0
0 0
0 0
0 0
0 0
0 0
0 0
0 0
0 0
0 0
0 0
0 0
0 0
0 0
0 0
0 0
0 0
0 0
0 0
0 0
0 0
0 0
0 0
0 0
0 0
0 0
0 0
0 0
0 0
0 0
0 0
0 0
0 0
0 0
0 0
0 0
0 0
0 0
0 0
0 0
0 0
0 0
0 0
0 0
0 0
0 0
0 0
0 0
0 0
0 0
0 0
0 0
0 0
0 0
0 0
0 0
0 0
0 0
0 0
0 0
0 0
0 0
0 0
0 0
0 0
0 0
0 0
0 0
0 0
0 0
0 0
0 0
0 0
0 0
0 0
0 0
0 0
0 0
0 0
0 0
0 0
0 0
0 0
0 0
0 0
0 0
0 0
0 0
0 0
0 0
0 0
0 0
0 0
0 0
0 0
0 0
0 0
0 0
0 0
0 0
0 0
0 0
0 0
0 0
0 0
0 0
0 0
0 0
0 0
0 0
0 0
0 0
0 0
0 0
0 0
0 0
0 0
0 0
0 0
0 0
0 0
0 0
0 0
0 0
0 0
0 0
0 0
0 0
0 0
0 0
0 0
0 0
0 0
0 0
      </DataArray> 
      <DataArray type="Float64" NumberOfComponents="1" Name="CauchyShearStress" format="ascii">
0
0
0
0
0
0
0
0
0
0
0
0
0
0
0
0
0
0
0
0
0
0
0
0
0
0
0
0
0
0
0
0
0
0
0
0
0
0
0
0
0
0
0
0
0
0
0
0
0
0
0
0
0
0
0
0
0
0
0
0
0
0
0
0
0
0
0
0
0
0
0
0
0
0
0
0
0
0
0
0
0
0
0
0
0
0
0
0
0
0
0
0
0
0
0
0
0
0
0
0
0
0
0
0
0
0
0
0
0
0
0
0
0
0
0
0
0
0
0
0
0
0
0
0
0
0
0
0
0
0
0
0
0
0
0
0
0
0
0
0
0
0
0
0
0
0
0
0
0
0
0
0
0
0
0
0
0
0
0
0
0
0
0
0
0
0
0
0
0
0
0
0
0
0
0
0
0
0
0
0
0
0
0
0
0
0
0
0
0
0
0
0
0
0
0
0
0
0
0
0
0
0
0
0
0
0
0
0
0
0
0
0
0
0
0
0
0
0
0
0
0
0
0
0
0
0
0
0
0
0
0
0
0
0
0
0
0
0
0
0
0
0
0
0
0
0
0
0
0
0
0
0
0
0
0
0
0
0
0
0
0
0
0
0
0
0
0
0
0
0
0
0
0
0
0
0
0
0
0
0
0
0
0
0
0
0
0
0
0
0
0
0
0
0
0
0
0
0
0
0
0
0
0
0
0
0
0
0
0
0
0
0
0
0
0
0
0
0
0
0
0
0
0
0
0
0
0
0
0
0
0
0
0
0
0
0
0
0
0
0
0
0
0
0
0
0
0
0
0
0
0
0
0
0
0
0
0
0
0
0
0
0
0
0
0
0
0
0
0
0
0
0
0
0
0
0
0
0
0
0
0
0
0
0
0
0
0
0
0
0
0
0
0
0
0
0
0
0
0
0
0
0
0
0
0
0
0
0
0
0
0
0
0
0
0
0
0
0
0
0
0
0
0
0
0
0
0
0
0
0
0
0
0
0
0
0
0
0
0
0
0
0
0
0
0
0
0
0
0
0
0
0
0
0
0
0
0
0
0
0
0
0
0
0
0
0
0
0
0
0
0
0
0
0
0
0
0
0
0
0
0
0
0
0
0
0
0
0
0
0
0
0
0
0
0
0
0
0
0
0
0
0
0
0
0
0
0
0
0
0
0
0
0
0
0
0
0
0
0
0
0
0
0
0
0
0
0
0
0
0
0
0
0
0
0
0
0
0
0
0
0
0
0
0
0
0
0
0
0
0
0
0
0
0
0
0
0
0
0
0
0
0
0
0
0
0
0
0
0
0
0
0
0
0
0
0
0
0
0
0
0
0
0
0
0
0
0
0
0
0
0
0
0
0
0
0
0
0
0
0
0
0
0
0
0
0
0
0
0
0
0
0
0
0
0
0
0
0
0
0
0
0
0
0
0
0
0
0
0
0
0
0
0
0
0
0
0
0
0
0
0
0
0
0
0
0
0
0
0
0
0
0
0
0
0
0
0
0
0
0
0
0
0
0
0
0
0
0
0
0
0
0
0
0
0
0
0
0
0
0
0
0
0
0
0
0
0
0
0
0
0
0
0
0
0
0
0
0
0
0
0
0
0
0
0
0
0
0
0
0
0
0
0
0
0
0
0
0
0
0
0
0
0
0
0
0
0
0
0
0
0
0
0
0
0
0
0
0
0
0
0
0
0
0
0
0
0
0
0
0
0
0
0
0
0
0
0
0
0
0
0
0
0
0
0
0
0
0
0
0
0
0
0
0
0
0
0
0
0
0
0
0
0
0
0
0
0
0
0
0
0
0
0
0
0
0
0
0
0
0
0
0
0
0
0
0
0
0
0
0
0
0
0
0
0
0
0
0
0
0
0
0
0
0
0
0
0
0
0
0
0
0
0
0
0
0
0
0
0
0
0
0
0
0
0
0
0
0
0
0
0
0
0
0
0
0
0
0
0
0
0
0
0
0
0
0
0
0
0
0
0
0
0
0
0
0
0
0
0
0
0
0
0
0
0
0
0
0
0
0
0
0
0
0
0
0
0
0
0
0
0
0
0
0
0
0
0
0
0
0
0
0
0
0
0
0
0
0
0
0
0
0
0
0
0
0
0
0
0
0
0
0
0
0
0
0
0
0
0
0
0
0
0
0
0
0
0
0
0
0
0
0
0
0
0
0
0
0
0
0
0
0
0
0
0
0
0
0
0
0
0
0
0
0
0
0
0
0
0
0
0
0
0
0
0
0
0
0
0
0
0
0
0
0
0
0
0
0
0
0
0
0
0
0
0
0
0
0
0
0
0
0
0
0
0
0
0
0
0
0
0
0
0
0
0
0
0
0
0
0
0
0
0
0
0
0
0
0
0
0
0
0
0
0
0
0
0
0
0
0
0
0
0
0
0
0
0
0
0
0
0
0
0
0
0
0
0
0
0
0
0
0
0
0
0
0
0
0
0
0
0
0
0
0
0
0
0
0
0
0
0
0
0
0
0
0
0
0
0
0
0
0
0
0
0
0
0
0
0
0
0
0
0
0
0
0
0
0
0
0
0
0
0
0
0
0
0
0
0
0
0
0
0
0
0
0
0
0
0
0
0
0
0
0
0
0
0
0
0
0
0
0
0
0
0
0
0
0
0
0
0
0
0
0
0
0
0
0
0
0
0
0
0
0
0
0
0
0
0
0
0
0
0
0
0
0
0
0
0
0
0
0
0
0
0
0
0
0
0
0
0
0
0
0
0
0
0
0
0
0
0
0
0
0
0
0
0
0
0
0
0
0
0
0
0
0
0
0
0
0
0
0
0
0
0
0
0
0
0
0
0
0
0
0
0
0
0
0
0
0
0
0
0
0
0
0
0
0
0
0
0
0
0
0
0
0
0
0
0
0
0
0
0
0
0
0
0
0
0
0
0
0
0
0
0
0
0
0
0
0
0
0
0
0
0
0
0
0
0
0
0
0
0
0
0
0
0
0
0
0
0
0
0
0
0
0
0
0
0
0
0
0
0
0
0
0
0
0
0
0
0
0
0
0
0
0
0
0
0
0
0
0
0
0
0
0
0
0
0
0
0
0
0
0
0
0
0
0
0
0
0
0
0
0
0
0
0
0
0
0
0
0
0
0
0
0
0
0
0
0
0
0
0
0
0
0
0
0
0
0
0
0
0
0
0
0
0
0
0
0
0
0
0
0
0
0
0
0
0
0
0
0
0
0
0
0
0
0
0
0
0
0
0
0
0
0
0
0
0
0
0
0
0
0
0
0
0
0
0
0
0
0
0
0
0
0
0
0
0
0
0
0
0
0
0
0
0
0
0
0
0
0
0
0
0
0
0
0
0
0
0
0
0
0
0
0
0
0
0
0
0
0
0
0
0
0
0
0
0
0
0
0
0
0
0
0
0
0
0
0
0
0
0
0
0
0
0
0
0
0
0
0
0
0
0
0
0
0
0
0
0
0
0
0
0
0
0
0
0
0
0
0
0
0
0
0
0
0
0
0
0
0
0
0
0
0
0
0
0
0
0
0
0
0
0
0
0
0
0
0
0
0
0
0
0
0
0
0
0
0
0
0
0
0
0
0
0
0
0
0
0
0
0
0
0
0
0
0
0
0
0
0
0
0
0
0
0
0
0
0
0
0
0
0
0
0
0
0
0
0
0
0
0
0
0
0
0
0
0
0
0
0
0
0
0
0
0
0
0
0
0
0
0
0
0
0
0
0
0
0
0
0
0
0
0
0
0
0
0
0
0
0
0
0
0
0
0
0
0
0
0
0
0
0
0
0
0
0
0
0
0
0
0
0
0
0
0
0
0
0
0
0
0
0
0
0
0
0
0
0
0
0
0
0
0
0
0
0
0
0
0
0
0
0
0
0
0
0
0
0
0
0
0
0
0
0
0
0
0
0
0
0
0
0
0
0
0
0
0
0
0
0
0
0
0
0
0
0
0
0
0
0
0
0
0
0
0
0
0
0
0
0
0
0
0
0
0
0
0
0
0
0
0
0
0
0
0
0
0
0
0
0
0
0
0
0
0
0
0
0
0
0
0
0
0
0
0
0
0
0
0
0
0
0
0
0
0
0
0
0
0
0
0
0
0
0
0
0
0
0
0
0
0
0
0
0
0
0
0
0
0
0
0
0
0
0
0
0
0
0
0
0
0
0
0
0
0
0
0
0
0
0
0
0
0
0
0
0
0
0
0
0
0
0
0
0
0
0
0
0
0
0
0
0
0
0
0
0
0
0
0
0
0
0
0
0
0
0
0
0
0
0
0
0
0
0
0
0
0
0
0
0
0
0
0
0
0
0
0
0
0
0
0
0
0
0
0
0
0
0
0
0
0
0
0
0
0
0
0
0
0
0
0
0
0
0
0
0
0
0
0
0
0
0
0
0
0
0
0
0
0
0
0
0
0
0
0
0
0
0
0
0
0
0
0
0
0
0
0
0
0
0
0
0
0
0
0
0
0
0
0
0
0
0
0
0
0
0
0
0
0
0
0
0
0
0
0
0
0
0
0
0
0
0
0
0
0
0
0
0
0
0
0
0
0
0
0
0
0
0
0
0
0
0
0
0
0
0
0
0
0
0
0
0
0
0
0
0
0
0
0
0
0
0
0
0
0
0
0
0
0
0
0
0
0
0
0
0
0
0
0
0
0
0
0
0
0
0
0
0
0
0
0
0
0
0
0
0
0
0
0
0
0
0
0
0
0
0
0
0
0
0
0
0
0
0
0
0
0
0
0
0
0
0
0
0
0
0
0
0
0
0
0
0
0
0
0
0
0
0
0
0
0
0
0
0
0
0
0
0
0
0
0
0
0
0
0
0
0
0
0
0
0
0
0
0
0
0
0
0
0
0
0
0
0
0
0
0
0
0
0
0
0
0
0
0
0
0
0
0
0
0
0
0
0
0
0
0
0
0
0
0
0
0
0
0
0
0
0
0
0
0
0
0
0
0
0
0
0
0
0
0
0
0
0
0
0
0
0
0
0
0
0
0
0
0
0
0
0
0
0
0
0
0
0
0
0
0
0
0
0
0
0
0
0
0
0
0
0
0
0
0
0
0
0
0
0
0
0
0
0
0
0
0
0
0
0
0
0
0
0
0
0
0
0
0
0
0
0
0
0
0
0
0
0
0
0
0
0
0
0
0
0
0
0
0
0
0
0
0
0
0
0
0
0
0
0
0
0
0
0
0
0
0
0
0
0
0
0
0
0
0
0
0
0
0
0
0
0
0
0
0
0
0
0
0
0
0
0
0
0
0
0
0
0
0
0
0
0
0
0
0
0
0
0
0
0
0
0
0
0
0
0
0
0
0
0
0
0
0
0
0
0
0
0
0
0
0
0
0
0
0
0
0
0
0
0
0
0
0
0
0
0
0
0
0
0
0
0
0
0
0
0
0
0
0
0
0
0
0
0
0
0
0
0
0
0
0
0
0
0
0
0
0
0
0
0
0
0
0
0
0
0
0
0
0
0
0
0
0
0
0
0
0
0
0
0
0
0
0
0
0
0
0
0
0
0
0
0
0
0
0
0
0
0
0
0
0
0
0
0
0
0
0
0
0
0
0
0
0
0
0
0
0
0
0
0
0
0
0
0
0
0
0
0
0
0
0
0
0
0
0
0
0
0
0
0
0
0
0
0
0
0
0
0
0
0
0
0
0
0
0
0
0
0
0
0
0
0
0
0
0
0
0
0
0
0
0
0
0
0
0
0
0
0
0
0
0
0
0
0
0
0
0
0
0
0
0
0
0
0
0
0
0
0
0
0
0
0
0
0
0
0
0
0
0
0
0
0
0
0
0
0
0
0
0
0
0
0
0
0
0
0
0
0
0
0
0
0
0
0
0
0
0
0
0
0
0
0
0
0
0
0
0
0
0
0
0
0
0
0
0
0
0
0
0
0
0
0
0
0
0
0
0
0
0
0
0
0
0
0
0
0
0
0
0
0
0
0
0
0
0
0
0
0
0
0
0
0
0
0
0
0
0
0
0
0
0
0
0
0
0
0
0
0
0
0
0
0
0
0
0
0
0
0
0
0
0
0
0
0
0
0
0
0
0
0
0
0
0
0
0
0
0
0
0
0
0
0
0
0
0
0
0
0
0
0
0
0
0
0
0
0
0
0
0
0
0
0
0
0
0
0
0
0
0
0
0
0
0
0
0
0
0
0
0
0
0
0
0
0
0
0
0
0
0
0
0
0
0
0
0
0
0
0
0
0
0
0
0
0
0
0
0
0
0
0
0
0
0
0
0
0
0
0
0
0
0
0
0
0
0
0
0
0
0
0
0
0
0
0
0
0
0
0
0
0
0
0
0
0
0
0
0
0
0
0
0
0
0
0
0
0
0
0
0
0
0
0
0
0
0
0
0
0
0
0
0
0
0
0
0
0
0
0
0
0
0
0
0
0
0
0
0
0
0
0
0
0
0
0
0
0
0
0
0
0
0
0
0
0
0
0
0
0
0
0
0
0
0
0
0
0
0
0
0
0
0
0
0
0
0
0
0
0
0
0
0
0
0
0
0
0
0
0
0
0
0
0
0
0
0
0
0
0
0
0
0
0
0
0
0
0
0
0
0
0
0
0
0
0
0
0
0
0
0
0
0
0
0
0
0
0
0
0
0
0
0
0
0
0
0
0
0
0
0
0
0
0
0
0
0
0
0
0
0
0
0
0
0
0
0
0
0
0
0
0
0
0
0
0
0
0
0
0
0
0
0
0
0
0
0
0
0
0
0
0
0
0
0
0
0
0
0
0
0
0
0
0
0
0
0
0
0
0
0
0
0
0
0
0
0
0
0
0
0
0
0
0
0
0
0
0
0
0
0
0
0
0
0
0
0
0
0
0
0
0
0
0
0
0
0
0
0
0
0
0
0
0
0
0
0
0
0
0
0
0
0
0
0
0
0
0
0
0
0
0
0
0
0
0
0
0
0
0
0
0
0
0
0
0
0
0
0
0
0
0
0
0
0
0
0
0
0
0
0
0
0
0
0
0
0
0
0
0
0
0
0
0
0
0
0
0
0
0
0
0
0
0
0
0
0
0
0
0
0
0
0
0
0
0
0
0
0
0
0
0
0
0
0
0
0
0
0
0
0
0
0
0
0
0
0
0
0
0
0
0
0
0
0
0
0
0
0
0
0
0
0
0
0
0
0
0
0
0
0
0
0
0
0
0
0
0
0
0
0
0
0
0
0
0
0
0
0
0
0
0
0
0
0
0
0
0
0
0
0
0
0
0
0
0
0
0
0
0
0
0
0
0
0
0
0
0
0
0
0
0
0
0
0
0
0
0
0
0
0
0
0
0
0
0
0
0
0
0
0
0
0
0
0
0
0
0
0
0
0
0
0
0
0
0
0
0
0
0
0
0
0
0
0
0
0
0
0
0
0
0
0
0
0
0
0
0
0
0
0
0
0
0
0
0
0
0
0
0
0
0
0
0
0
0
0
0
0
0
0
0
0
0
0
0
0
0
0
0
0
0
0
0
0
0
0
0
0
0
0
0
0
0
0
0
0
0
0
0
0
0
0
0
0
0
0
0
0
0
0
0
0
0
0
0
0
0
0
0
0
0
0
0
0
0
0
0
0
0
0
0
0
0
0
0
0
0
0
0
0
0
0
0
0
0
0
0
0
0
0
0
0
0
0
0
0
0
0
0
0
0
0
0
0
0
0
0
0
0
0
0
0
0
0
0
0
0
0
0
0
0
0
0
0
0
0
0
0
0
0
0
0
0
0
0
0
0
0
0
0
0
0
0
0
0
0
0
0
0
0
0
0
0
0
0
0
0
0
0
0
0
0
0
0
0
0
0
0
0
0
0
0
0
0
0
0
0
0
0
0
0
0
0
0
0
0
0
0
0
0
0
0
0
0
0
0
0
0
0
0
0
      </DataArray> 
      <DataArray type="Float64" NumberOfComponents="1" Name="NormalFibers" format="ascii">
0
0
0
0
0
0
0
0
0
0
0
0
0
0
0
0
0
0
0
0
0
0
0
0
0
0
0
0
0
0
0
0
0
0
0
0
0
0
0
0
0
0
0
0
0
0
0
0
0
0
0
0
0
0
0
0
0
0
0
0
0
0
0
0
0
0
0
0
0
0
0
0
0
0
0
0
0
0
0
0
0
0
0
0
0
0
0
0
0
0
0
0
0
0
0
0
0
0
0
0
0
0
0
0
0
0
0
0
0
0
0
0
0
0
0
0
0
0
0
0
0
0
0
0
0
0
0
0
0
0
0
0
0
0
0
0
0
0
0
0
0
0
0
0
0
0
0
0
0
0
0
0
0
0
0
0
0
0
0
0
0
0
0
0
0
0
0
0
0
0
0
0
0
0
0
0
0
0
0
0
0
0
0
0
0
0
0
0
0
0
0
0
0
0
0
0
0
0
0
0
0
0
0
0
0
0
0
0
0
0
0
0
0
0
0
0
0
0
0
0
0
0
0
0
0
0
0
0
0
0
0
0
0
0
0
0
0
0
0
0
0
0
0
0
0
0
0
0
0
0
0
0
0
0
0
0
0
0
0
0
0
0
0
0
0
0
0
0
0
0
0
0
0
0
0
0
0
0
0
0
0
0
0
0
0
0
0
0
0
0
0
0
0
0
0
0
0
0
0
0
0
0
0
0
0
0
0
0
0
0
0
0
0
0
0
0
0
0
0
0
0
0
0
0
0
0
0
0
0
0
0
0
0
0
0
0
0
0
0
0
0
0
0
0
0
0
0
0
0
0
0
0
0
0
0
0
0
0
0
0
0
0
0
0
0
0
0
0
0
0
0
0
0
0
0
0
0
0
0
0
0
0
0
0
0
0
0
0
0
0
0
0
0
0
0
0
0
0
0
0
0
0
0
0
0
0
0
0
0
0
0
0
0
0
0
0
0
0
0
0
0
0
0
0
0
0
0
0
0
0
0
0
0
0
0
0
0
0
0
0
0
0
0
0
0
0
0
0
0
0
0
0
0
0
0
0
0
0
0
0
0
0
0
0
0
0
0
0
0
0
0
0
0
0
0
0
0
0
0
0
0
0
0
0
0
0
0
0
0
0
0
0
0
0
0
0
0
0
0
0
0
0
0
0
0
0
0
0
0
0
0
0
0
0
0
0
0
0
0
0
0
0
0
0
0
0
0
0
0
0
0
0
0
0
0
0
0
0
0
0
0
0
0
0
0
0
0
0
0
0
0
0
0
0
0
0
0
0
0
0
0
0
0
0
0
0
0
0
0
0
0
0
0
0
0
0
0
0
0
0
0
0
0
0
0
0
0
0
0
0
0
0
0
0
0
0
0
0
0
0
0
0
0
0
0
0
0
0
0
0
0
0
0
0
0
0
0
0
0
0
0
0
0
0
0
0
0
0
0
0
0
0
0
0
0
0
0
0
0
0
0
0
0
0
0
0
0
0
0
0
0
0
0
0
0
0
0
0
0
0
0
0
0
0
0
0
0
0
0
0
0
0
0
0
0
0
0
0
0
0
0
0
0
0
0
0
0
0
0
0
0
0
0
0
0
0
0
0
0
0
0
0
0
0
0
0
0
0
0
0
0
0
0
0
0
0
0
0
0
0
0
0
0
0
0
0
0
0
0
0
0
0
0
0
0
0
0
0
0
0
0
0
0
0
0
0
0
0
0
0
0
0
0
0
0
0
0
0
0
0
0
0
0
0
0
0
0
0
0
0
0
0
0
0
0
0
0
0
0
0
0
0
0
0
0
0
0
0
0
0
0
0
0
0
0
0
0
0
0
0
0
0
0
0
0
0
0
0
0
0
0
0
0
0
0
0
0
0
0
0
0
0
0
0
0
0
0
0
0
0
0
0
0
0
0
0
0
0
0
0
0
0
0
0
0
0
0
0
0
0
0
0
0
0
0
0
0
0
0
0
0
0
0
0
0
0
0
0
0
0
0
0
0
0
0
0
0
0
0
0
0
0
0
0
0
0
0
0
0
0
0
0
0
0
0
0
0
0
0
0
0
0
0
0
0
0
0
0
0
0
0
0
0
0
0
0
0
0
0
0
0
0
0
0
0
0
0
0
0
0
0
0
0
0
0
0
0
0
0
0
0
0
0
0
0
0
0
0
0
0
0
0
0
0
0
0
0
0
0
0
0
0
0
0
0
0
0
0
0
0
0
0
0
0
0
0
0
0
0
0
0
0
0
0
0
0
0
0
0
0
0
0
0
0
0
0
0
0
0
0
0
0
0
0
0
0
0
0
0
0
0
0
0
0
0
0
0
0
0
0
0
0
0
0
0
0
0
0
0
0
0
0
0
0
0
0
0
0
0
0
0
0
0
0
0
0
0
0
0
0
0
0
0
0
0
0
0
0
0
0
0
0
0
0
0
0
0
0
0
0
0
0
0
0
0
0
0
0
0
0
0
0
0
0
0
0
0
0
0
0
0
0
0
0
0
0
0
0
0
0
0
0
0
0
0
0
0
0
0
0
0
0
0
0
0
0
0
0
0
0
0
0
0
0
0
0
0
0
0
0
0
0
0
0
0
0
0
0
0
0
0
0
0
0
0
0
0
0
0
0
0
0
0
0
0
0
0
0
0
0
0
0
0
0
0
0
0
0
0
0
0
0
0
0
0
0
0
0
0
0
0
0
0
0
0
0
0
0
0
0
0
0
0
0
0
0
0
0
0
0
0
0
0
0
0
0
0
0
0
0
0
0
0
0
0
0
0
0
0
0
0
0
0
0
0
0
0
0
0
0
0
0
0
0
0
0
0
0
0
0
0
0
0
0
0
0
0
0
0
0
0
0
0
0
0
0
0
0
0
0
0
0
0
0
0
0
0
0
0
0
0
0
0
0
0
0
0
0
0
0
0
0
0
0
0
0
0
0
0
0
0
0
0
0
0
0
0
0
0
0
0
0
0
0
0
0
0
0
0
0
0
0
0
0
0
0
0
0
0
0
0
0
0
0
0
0
0
0
0
0
0
0
0
0
0
0
0
0
0
0
0
0
0
0
0
0
0
0
0
0
0
0
0
0
0
0
0
0
0
0
0
0
0
0
0
0
0
0
0
0
0
0
0
0
0
0
0
0
0
0
0
0
0
0
0
0
0
0
0
0
0
0
0
0
0
0
0
0
0
0
0
0
0
0
0
0
0
0
0
0
0
0
0
0
0
0
0
0
0
0
0
0
0
0
0
0
0
0
0
0
0
0
0
0
0
0
0
0
0
0
0
0
0
0
0
0
0
0
0
0
0
0
0
0
0
0
0
0
0
0
0
0
0
0
0
0
0
0
0
0
0
0
0
0
0
0
0
0
0
0
0
0
0
0
0
0
0
0
0
0
0
0
0
0
0
0
0
0
0
0
0
0
0
0
0
0
0
0
0
0
0
0
0
0
0
0
0
0
0
0
0
0
0
0
0
0
0
0
0
0
0
0
0
0
0
0
0
0
0
0
0
0
0
0
0
0
0
0
0
0
0
0
0
0
0
0
0
0
0
0
0
0
0
0
0
0
0
0
0
0
0
0
0
0
0
0
0
0
0
0
0
0
0
0
0
0
0
0
0
0
0
0
0
0
0
0
0
0
0
0
0
0
0
0
0
0
0
0
0
0
0
0
0
0
0
0
0
0
0
0
0
0
0
0
0
0
0
0
0
0
0
0
0
0
0
0
0
0
0
0
0
0
0
0
0
0
0
0
0
0
0
0
0
0
0
0
0
0
0
0
0
0
0
0
0
0
0
0
0
0
0
0
0
0
0
0
0
0
0
0
0
0
0
0
0
0
0
0
0
0
0
0
0
0
0
0
0
0
0
0
0
0
0
0
0
0
0
0
0
0
0
0
0
0
0
0
0
0
0
0
0
0
0
0
0
0
0
0
0
0
0
0
0
0
0
0
0
0
0
0
0
0
0
0
0
0
0
0
0
0
0
0
0
0
0
0
0
0
0
0
0
0
0
0
0
0
0
0
0
0
0
0
0
0
0
0
0
0
0
0
0
0
0
0
0
0
0
0
0
0
0
0
0
0
0
0
0
0
0
0
0
0
0
0
0
0
0
0
0
0
0
0
0
0
0
0
0
0
0
0
0
0
0
0
0
0
0
0
0
0
0
0
0
0
0
0
0
0
0
0
0
0
0
0
0
0
0
0
0
0
0
0
0
0
0
0
0
0
0
0
0
0
0
0
0
0
0
0
0
0
0
0
0
0
0
0
0
0
0
0
0
0
0
0
0
0
0
0
0
0
0
0
0
0
0
0
0
0
0
0
0
0
0
0
0
0
0
0
0
0
0
0
0
0
0
0
0
0
0
0
0
0
0
0
0
0
0
0
0
0
0
0
0
0
0
0
0
0
0
0
0
0
0
0
0
0
0
0
0
0
0
0
0
0
0
0
0
0
0
0
0
0
0
0
0
0
0
0
0
0
0
0
0
0
0
0
0
0
0
0
0
0
0
0
0
0
0
0
0
0
0
0
0
0
0
0
0
0
0
0
0
0
0
0
0
0
0
0
0
0
0
0
0
0
0
0
0
0
0
0
0
0
0
0
0
0
0
0
0
0
0
0
0
0
0
0
0
0
0
0
0
0
0
0
0
0
0
0
0
0
0
0
0
0
0
0
0
0
0
0
0
0
0
0
0
0
0
0
0
0
0
0
0
0
0
0
0
0
0
0
0
0
0
0
0
0
0
0
0
0
0
0
0
0
0
0
0
0
0
0
0
0
0
0
0
0
0
0
0
0
0
0
0
0
0
0
0
0
0
0
0
0
0
0
0
0
0
0
0
0
0
0
0
0
0
0
0
0
0
0
0
0
0
0
0
0
0
0
0
0
0
0
0
0
0
0
0
0
0
0
0
0
0
0
0
0
0
0
0
0
0
0
0
0
0
0
0
0
0
0
0
0
0
0
0
0
0
0
0
0
0
0
0
0
0
0
0
0
0
0
0
0
0
0
0
0
0
0
0
0
0
0
0
0
0
0
0
0
0
0
0
0
0
0
0
0
0
0
0
0
0
0
0
0
0
0
0
0
0
0
0
0
0
0
0
0
0
0
0
0
0
0
0
0
0
0
0
0
0
0
0
0
0
0
0
0
0
0
0
0
0
0
0
0
0
0
0
0
0
0
0
0
0
0
0
0
0
0
0
0
0
0
0
0
0
0
0
0
0
0
0
0
0
0
0
0
0
0
0
0
0
0
0
0
0
0
0
0
0
0
0
0
0
0
0
0
0
0
0
0
0
0
0
0
0
0
0
0
0
0
0
0
0
0
0
0
0
0
0
0
0
0
0
0
0
0
0
0
0
0
0
0
0
0
0
0
0
0
0
0
0
0
0
0
0
0
0
0
0
0
0
0
0
0
0
0
0
0
0
0
0
0
0
0
0
0
0
0
0
0
0
0
0
0
0
0
0
0
0
0
0
0
0
0
0
0
0
0
0
0
0
0
0
0
0
0
0
0
0
0
0
0
0
0
0
0
0
0
0
0
0
0
0
0
0
0
0
0
0
0
0
0
0
0
0
0
0
0
0
0
0
0
0
0
0
0
0
0
0
0
0
0
0
0
0
0
0
0
0
0
0
0
0
0
0
0
0
0
0
0
0
0
0
0
0
0
0
0
0
0
0
0
0
0
0
0
0
0
0
0
0
0
0
0
0
0
0
0
0
0
0
0
0
0
0
0
0
0
0
0
0
0
0
0
0
0
0
0
0
0
0
0
0
0
0
0
0
0
0
0
0
0
0
0
0
0
0
0
0
0
0
0
0
0
0
0
0
0
0
0
0
0
0
0
0
0
0
0
0
0
0
0
0
0
0
0
0
0
0
0
0
0
0
0
0
0
0
0
0
0
0
0
0
0
0
0
0
0
0
0
0
0
0
0
0
0
0
0
0
0
0
0
0
0
0
0
0
0
0
0
0
0
0
0
0
0
0
0
0
0
0
0
0
0
0
0
0
0
0
0
0
0
0
0
0
0
0
0
0
0
0
0
0
0
0
0
0
0
0
0
0
0
0
0
0
0
0
0
0
0
0
0
0
0
0
0
0
0
0
0
0
0
0
0
0
0
0
0
0
0
0
0
0
0
0
0
0
0
0
0
0
0
0
0
0
0
0
0
0
0
0
0
0
0
0
0
0
0
0
0
0
0
0
0
0
0
0
0
0
0
0
0
0
0
0
0
0
0
0
0
0
0
0
0
0
0
0
0
0
0
0
0
0
0
0
0
0
0
0
0
0
0
0
0
0
0
0
0
0
0
0
0
0
0
0
0
0
0
0
0
0
0
0
0
0
0
0
0
0
0
0
0
0
0
0
0
0
0
0
0
0
0
0
0
0
0
0
0
0
0
0
0
0
0
0
0
0
0
0
0
0
0
0
0
0
0
0
0
0
0
0
0
0
0
0
0
0
0
0
0
0
0
0
0
0
0
0
0
0
0
0
0
0
0
0
0
0
0
0
0
0
0
0
0
0
0
0
0
0
0
0
0
0
0
0
0
0
0
0
0
0
0
0
0
0
0
0
0
0
0
0
0
0
0
0
0
0
0
0
0
0
0
0
0
0
0
0
0
0
0
0
0
0
0
0
0
0
0
0
0
0
0
0
0
0
0
0
0
0
0
0
0
0
0
0
0
0
0
0
0
0
0
0
0
0
0
0
0
0
0
0
0
0
0
0
0
0
0
0
0
0
0
0
0
0
0
0
0
0
0
0
0
0
0
0
0
0
0
0
0
0
0
0
0
0
0
0
0
0
0
0
0
0
0
0
0
0
0
0
0
0
0
0
0
0
0
0
0
0
0
0
0
0
0
0
0
0
0
0
0
0
0
0
0
0
0
0
0
0
0
0
0
0
0
0
0
0
0
0
0
0
0
0
0
0
0
0
0
0
0
0
0
0
0
0
0
0
0
0
0
0
0
0
0
0
0
0
0
0
0
0
0
0
0
0
0
0
0
0
0
0
0
0
0
0
0
0
0
0
0
0
0
0
0
0
0
0
0
0
0
0
0
0
0
0
0
0
0
0
0
0
0
0
0
0
0
0
0
0
0
0
0
0
0
0
0
0
0
0
0
0
0
0
0
0
0
0
0
0
0
0
0
0
0
0
0
0
0
0
0
0
0
0
0
0
0
0
0
0
0
0
0
0
0
0
0
0
0
0
0
0
0
0
0
0
0
0
0
0
0
0
0
0
0
0
0
0
0
0
0
0
0
0
0
0
0
0
0
0
0
0
0
0
0
0
0
0
0
0
0
0
0
0
0
0
0
0
0
0
0
0
0
0
0
0
0
0
0
0
0
0
0
0
0
0
0
0
0
0
0
0
0
0
0
0
0
0
0
0
0
0
0
0
0
0
0
0
0
0
0
0
0
0
0
0
0
0
0
0
0
0
0
0
0
0
0
0
0
0
0
0
0
0
0
0
0
0
0
0
0
0
0
0
0
0
0
0
0
0
0
0
0
0
0
0
0
0
0
0
0
0
0
0
0
0
0
0
0
0
0
0
0
0
0
0
0
0
0
0
0
0
0
0
0
0
0
0
0
0
0
0
0
0
0
0
0
0
0
0
0
0
0
0
0
0
0
0
0
0
0
0
0
0
0
0
0
0
0
0
0
0
0
0
0
0
0
0
0
0
0
0
0
0
0
0
0
0
0
0
0
0
0
0
0
0
0
0
0
0
0
0
0
0
0
0
0
0
0
0
0
0
0
0
0
0
0
0
0
0
0
0
0
0
0
0
0
0
0
0
0
0
0
0
0
0
0
0
0
0
0
0
0
0
0
0
0
0
0
0
0
0
0
0
0
0
0
0
0
0
0
0
0
0
0
0
0
0
0
0
0
0
0
0
0
0
0
0
      </DataArray> 
    </PointData>
    <CellData>
    </CellData>
  </Piece>
  </UnstructuredGrid>
</VTKFile>
