<?xml version="1.0"?>
<VTKFile type="UnstructuredGrid">
  <UnstructuredGrid>
  <Piece NumberOfPoints="3487"  NumberOfCells="1698">
    <Points>
      <DataArray type="Float64" NumberOfComponents="3" format="ascii">
39.9733 48.6926 0
60.0271 48.6919 0
40.6342 48.8235 0
41.2965 48.9455 0
41.9602 49.0584 0
42.6253 49.1624 0
43.2916 49.2573 0
43.9591 49.3432 0
44.6277 49.4201 0
45.2972 49.488 0
45.9676 49.5469 0
46.6386 49.5966 0
47.3103 49.6374 0
47.9824 49.6691 0
48.6549 49.6917 0
49.3276 49.7053 0
50.0004 49.7098 0
50.6732 49.7052 0
51.3459 49.6916 0
52.0184 49.6689 0
52.6905 49.6372 0
53.3621 49.5964 0
54.0332 49.5465 0
54.7035 49.4876 0
55.373 49.4197 0
56.0415 49.3428 0
56.709 49.2568 0
57.3753 49.1618 0
58.0404 49.0578 0
58.704 48.9448 0
59.3663 48.8228 0
39.9949 49.7086 0
39.9943 49.4546 0
39.9904 49.2006 0
39.9833 48.9466 0
19.9169 69.6309 0
39.9923 49.9703 0
39.9862 50.2319 0
39.9714 50.6103 0
39.9493 50.9883 0
39.9048 51.5344 0
39.8452 52.0791 0
39.7327 52.8641 0
39.589 53.6439 0
39.3265 54.7609 0
39.0002 55.8612 0
38.725 56.6445 0
38.4175 57.4159 0
38.0781 58.1738 0
37.7076 58.917 0
37.1175 59.9638 0
36.4655 60.9732 0
35.7541 61.9417 0
-0.043312 49.5909 0
17.307 69.4524 0
14.7427 68.9354 0
12.2677 68.0888 0
9.92397 66.9268 0
7.75178 65.4694 0
11.551 31.6422 0
0.163678 46.7722 0
0.767541 44.0116 0
1.75648 41.3643 0
0 0 0
0.118871 3.71079 0
0.527488 7.40712 0
1.21884 11.0644 0
2.18793 14.6574 0
3.0952 17.3031 0
49.9998 -0.277874 0
5.1116 0 0
10.2232 0 0
15.3348 0 0
100 0 0
57.4045 -0.269208 0
64.8093 -0.237564 0
72.2078 -0.171228 0
88.4496 31.6416 0
99.8812 3.71079 0
99.4726 7.40696 0
98.7813 11.0642 0
97.8122 14.6572 0
96.905 17.3028 0
100.043 49.5906 0
99.8364 46.7719 0
99.2326 44.0113 0
98.2437 41.3639 0
80.0831 69.6304 0
99.8781 52.201 0
99.3727 54.7674 0
98.5362 57.2458 0
97.3831 59.5938 0
95.9334 61.771 0
60.0054 49.7079 0
77.5721 69.4799 0
75.0997 69.016 0
72.705 68.246 0
70.4256 67.1819 0
68.937 66.2834 0
67.5319 65.2592 0
66.221 64.1168 0
65.0142 62.8651 0
64.2459 61.941 0
63.5345 60.9726 0
62.8826 59.9631 0
62.2925 58.9163 0
61.5827 57.4153 0
61 55.8605 0
60.6737 54.7603 0
60.4112 53.6432 0
60.2675 52.8634 0
60.006 49.4539 0
60.0099 49.1999 0
60.017 48.9459 0
52.8167 29.9661 0
26.5391 36.7894 0
40.3409 24.0963 0
24.95 22.3861 0
71.9204 22.408 0
72.7031 43.8388 0
54.7989 23.9176 0
15.2918 47.2855 0
38.3588 49.3195 0
23.5697 65.1098 0
7.68705 7.72536 0
91.9544 7.70345 0
29.1479 56.7657 0
37.1777 51.7895 0
28.0867 47.0817 0
29.725 48.0431 0
71.5163 46.5668 0
30.9826 48.9416 0
70.5175 48.0444 0
31.6372 45.5308 0
30.8863 46.9851 0
70.0646 46.5559 0
68.9816 44.8811 0
31.2853 50.0363 0
30.8958 51.2586 0
28.1827 49.0374 0
45.3098 41.1685 0
53.8426 40.7896 0
56.0255 40.3385 0
73.1305 47.3206 0
70.1193 49.2845 0
68.3281 42.3119 0
32.3152 42.6422 0
26.1359 45.5644 0
27.6781 44.57 0
30.3077 43.1997 0
70.4093 42.5105 0
72.6774 45.8328 0
44.8503 42.9608 0
51.4303 41.8674 0
55.4085 42.4536 0
32.4467 48.9783 0
68.5597 49.5212 0
39.48 41.952 0
35.4426 43.2674 0
32.8948 46.429 0
33.5753 48.1766 0
67.106 48.121 0
67.9826 46.3588 0
65.0697 42.9305 0
60.4162 41.5894 0
32.3601 51.2958 0
28.2079 50.8951 0
41.7818 37.1752 0
46.8248 37.5795 0
52.0484 39.7522 0
58.675 39.1218 0
26.5946 51.7905 0
24.2905 50.2242 0
74.2352 49.8319 0
71.173 50.535 0
69.1519 52.1156 0
67.9264 52.2497 0
59.7581 36.2423 0
66.4982 40.5587 0
34.1122 40.9352 0
36.0317 35.6746 0
23.1786 47.0563 0
21.6466 43.1629 0
28.3574 41.6837 0
74.3171 44.593 0
76.6439 48.4384 0
43.0557 43.5487 0
46.2696 42.8346 0
49.9681 42.8825 0
48.4332 42.6653 0
51.7629 43.9199 0
54.0877 44.0356 0
52.9057 44.3312 0
56.2715 43.5843 0
33.8782 49.2717 0
33.7766 50.7847 0
66.5444 51.5995 0
66.5998 49.6089 0
41.8335 43.7862 0
40.7047 43.5237 0
38.4631 43.1308 0
37.1446 43.7357 0
35.3476 45.4428 0
34.3261 46.7217 0
66.0231 46.4455 0
65.0172 45.1727 0
63.1874 43.4193 0
61.7018 42.9703 0
58.8768 43.384 0
57.5377 43.7002 0
33.3871 52.0074 0
29.1538 53.615 0
40.8396 30.8996 0
50.8849 35.8936 0
55.6646 34.1761 0
23.5452 53.3346 0
76.9312 51.8038 0
70.2501 53.2219 0
66.4171 52.8405 0
65.4654 35.0595 0
30.9616 34.4787 0
19.4385 47.1756 0
26.134 39.9218 0
71.9928 34.0005 0
72.0486 41.2716 0
77.4872 45.1947 0
43.1682 44.9908 0
45.8101 44.627 0
48.765 44.7179 0
51.4433 45.3464 0
53.7685 45.4621 0
56.2171 45.2825 0
34.9054 49.9831 0
65.0904 50.1991 0
40.8167 44.9657 0
38.3691 45.3077 0
36.0287 47.1911 0
64.1399 46.9357 0
61.6481 45.2141 0
58.8231 45.0819 0
36.0598 52.2576 0
34.9071 53.0197 0
33.4906 53.5304 0
31.8865 55.3209 0
26.0699 58.7839 0
22.9746 57.1865 0
32.4089 22.6116 0
47.0391 26.5854 0
63.1287 22.9511 0
19.9692 54.8946 0
80.2079 54.1601 0
75.82 55.6704 0
71.956 56.0253 0
69.1068 55.3483 0
65.7862 53.8494 0
64.1096 53.6951 0
68.1417 28.9061 0
26.79 29.997 0
17.2216 51.6262 0
14.5959 42.3328 0
22.415 33.9717 0
84.9067 46.7473 0
84.7397 51.896 0
75.1613 37.835 0
81.2162 43.8301 0
42.4573 46.3213 0
41.4169 46.1296 0
44.9661 46.1668 0
43.6799 46.0837 0
47.7366 46.108 0
46.386 46.0406 0
50.62 46.4212 0
49.2722 46.3252 0
53.0505 46.8163 0
51.7631 46.8326 0
55.5127 46.4286 0
54.2329 46.5207 0
58.0609 46.3823 0
56.7795 46.5446 0
36.3717 48.5133 0
36.0233 49.5145 0
35.9217 51.0281 0
63.3932 51.9621 0
63.835 50.9491 0
63.8906 48.9577 0
63.8383 48.0552 0
40.2877 45.8668 0
39.3719 46.0461 0
38.0528 46.6505 0
37.3935 47.2343 0
62.8322 46.7822 0
62.0161 46.458 0
60.53 46.0096 0
59.4005 46.0656 0
38.0511 52.4606 0
36.163 53.7813 0
34.0547 56.64 0
29.5708 59.7037 0
22.8404 61.244 0
21.7472 15.3564 0
39.9721 16.1246 0
48.9015 11.4023 0
56.9378 16.8523 0
76.6348 15.5896 0
15.6063 56.9368 0
84.5532 57.3715 0
73.4394 59.3655 0
66.5374 55.5085 0
62.4678 53.4675 0
82.9408 7.81294 0
79.7294 22.5375 0
16.3068 7.89551 0
18.3592 22.2568 0
10.703 46.6409 0
16.5913 35.9055 0
15.5419 30.321 0
89.4278 49.5141 0
83.2916 31.1623 0
81.5705 39.195 0
41.9284 47.2227 0
44.2557 47.4974 0
46.8929 47.6479 0
49.5917 47.8114 0
52.2273 47.8912 0
54.7949 47.7829 0
57.3566 47.5286 0
37.3883 49.5584 0
37.9132 51.2305 0
62.1931 50.7207 0
62.5826 48.8048 0
39.9719 47.2104 0
38.3964 47.9733 0
38.5105 48.7432 0
61.7661 48.4413 0
61.714 47.5781 0
59.7681 47.3104 0
38.8835 50.9922 0
61.3536 50.9261 0
39.1878 52.7728 0
38.4523 53.3314 0
38.158 54.4399 0
37.0055 55.2016 0
36.4978 56.9739 0
34.8465 58.4936 0
33.3354 60.3482 0
30.7147 62.4539 0
27.9504 64.6008 0
27.176 7.7684 0
38.6587 8.26337 0
59.8742 8.48558 0
71.7603 7.8443 0
19.1954 64.5492 0
14.9002 62.8109 0
10.7029 60.0194 0
6.25756 56.9721 0
5.97264 51.0417 0
94.2623 52.1378 0
93.3519 57.191 0
89.3701 60.5385 0
84.6196 63.0549 0
79.5136 64.7322 0
74.6125 63.7721 0
70.3016 62.4973 0
66.8615 61.0494 0
65.2416 58.3805 0
62.7384 57.0582 0
62.0922 55.5304 0
61.7978 54.4219 0
61.0812 52.6885 0
93.5003 14.5215 0
89.794 20.6739 0
86.0985 25.0002 0
6.24598 14.515 0
13.0191 24.4688 0
9.79057 20.6646 0
5.74235 45.4769 0
5.64614 40.5365 0
12.3146 34.6321 0
94.2492 47.0219 0
88.1152 36.9708 0
93.3704 42.2986 0
41.0919 47.9882 0
40.4308 47.8618 0
42.1329 48.1799 0
43.464 48.3787 0
42.7971 48.2883 0
44.7506 48.4618 0
46.0903 48.5885 0
45.4196 48.5342 0
47.4412 48.656 0
48.7856 48.7103 0
48.113 48.6922 0
50.1337 48.8063 0
51.4791 48.7882 0
50.8065 48.8063 0
52.7667 48.7719 0
54.1092 48.6813 0
53.4385 48.7356 0
55.3893 48.5892 0
56.7251 48.4263 0
56.0583 48.5168 0
58.007 48.264 0
59.3324 48.0291 0
58.6713 48.1555 0
39.3679 51.445 0
39.3159 51.9904 0
60.9532 51.9061 0
60.9011 51.3608 0
38.0101 50.3211 0
39.1324 49.5061 0
61.7954 49.9127 0
61.8186 49.3442 0
60.9789 49.5494 0
39.5145 48.0409 0
39.1703 48.1594 0
60.9497 48.1173 0
60.4625 47.9728 0
39.4649 50.5353 0
60.5034 50.5527 0
39.4877 49.8955 0
39.4834 50.1571 0
60.485 50.1745 0
60.4806 49.9129 0
39.6397 49.3189 0
39.6288 48.8111 0
39.6374 49.065 0
60.5036 49.3441 0
60.5059 49.0902 0
60.5146 48.8364 0
61.002 48.9808 0
39.2843 48.9296 0
60.9559 50.118 0
38.9805 50.0826 0
60.8979 47.2538 0
39.0558 47.3893 0
62.6351 49.7076 0
37.0397 50.5597 0
61.7514 51.7341 0
38.7864 51.9018 0
58.6383 47.3662 0
56.0749 47.6908 0
53.5149 47.8749 0
50.9397 47.9075 0
48.2437 47.7153 0
45.5421 47.5804 0
42.9692 47.4143 0
40.8878 47.0309 0
89.1659 44.6733 0
10.9194 40.8068 0
13.2805 16.1408 0
85.8805 16.3468 0
63.1845 55.2007 0
68.9404 58.3618 0
78.9732 59.7477 0
89.3182 54.7935 0
11.7464 52.744 0
19.2044 59.573 0
66.703 15.682 0
30.7689 15.407 0
26.3256 62.0207 0
32.1405 57.8782 0
35.0104 54.5432 0
37.3156 53.0194 0
62.5304 47.9021 0
37.7367 48.5569 0
75.9281 28.605 0
20.526 28.5161 0
47.9162 19.2047 0
60.1624 44.7652 0
63.1343 45.6625 0
37.05 45.9119 0
39.6877 44.7029 0
65.1463 48.2084 0
65.0352 52.1903 0
34.8036 51.4964 0
35.0066 48.4698 0
57.4837 45.3983 0
54.9507 45.1665 0
52.5862 45.7577 0
50.3004 44.9351 0
47.2297 44.5008 0
44.3905 44.7532 0
41.9458 45.2282 0
74.3426 42.5998 0
80.275 48.7757 0
17.994 43.2377 0
21.2995 50.6863 0
34.4512 29.6233 0
59.9791 30.1721 0
67.7992 53.4906 0
73.4136 52.9245 0
54.46 38.6745 0
46.5105 32.8317 0
26.2182 55.2924 0
31.9705 52.5184 0
69.756 39.942 0
30.9854 40.3117 0
57.5917 42.0023 0
63.2409 41.1763 0
66.9001 44.6834 0
33.6451 44.9741 0
37.2386 41.5595 0
41.7213 42.3443 0
68.0538 51.0091 0
32.7495 50.0733 0
53.225 42.9048 0
49.6361 40.83 0
74.2917 46.5866 0
25.7276 43.054 0
71.9693 48.0549 0
26.5442 48.0758 0
69.0658 48.0338 0
32.1439 47.8835 0
71.0635 45.0786 0
29.6287 46.0871 0
29.8209 49.9994 0
88.1453 34.3177 0
96.8891 38.8844 0
91.2959 35.664 0
92.2307 38.5216 0
96.0828 37.7233 0
88.5001 40.6999 0
3.11105 38.8846 0
11.8843 33.0942 0
10.0101 34.95 0
3.91745 37.7236 0
8.31852 37.4428 0
11.6951 36.9648 0
11.4044 22.5677 0
10.9942 26.4179 0
9.37976 24.5198 0
11.8766 28.8935 0
4.15171 19.8912 0
5.3541 22.4133 0
8.24234 22.76 0
11.5347 18.4013 0
13.1482 20.3056 0
8.01718 17.5923 0
6.97011 20.2786 0
5.19735 17.2012 0
6.69804 24.8608 0
7.79849 26.6456 0
4.21644 14.5864 0
9.76198 15.3295 0
87.9467 22.8379 0
90.4127 24.5237 0
88.5647 26.6816 0
91.5501 22.7642 0
95.8484 19.891 0
94.646 22.413 0
87.7043 29.206 0
85.9912 20.6744 0
87.838 18.5089 0
91.6483 17.6003 0
94.676 17.2042 0
92.8224 20.2832 0
95.6569 14.5896 0
93.302 24.8604 0
92.2015 26.6451 0
89.6919 15.436 0
65.8182 8.15358 0
62.3351 4.12156 0
68.2835 3.79827 0
54.9431 4.09826 0
79.5536 0 0
84.6652 0 0
75.6566 3.90356 0
69.2302 11.7598 0
63.2882 12.0834 0
32.9166 8.00415 0
31.1846 3.75911 0
36.9304 4.01156 0
23.8117 3.86915 0
20.4464 0 0
27.7927 -0.170619 0
44.3223 3.98565 0
34.715 11.8348 0
28.9734 11.5854 0
81.6462 35.0153 0
85.417 34.5112 0
85.0505 38.086 0
86.2794 31.5714 0
85.0301 42.1561 0
77.2829 33.9512 0
80.0212 31.1333 0
16.0736 32.8341 0
14.114 35.2353 0
13.9301 32.7858 0
14.1631 38.4532 0
13.5449 30.9854 0
17.6299 29.9702 0
18.7599 32.932 0
16.534 27.2954 0
14.117 28.2553 0
15.6891 23.3613 0
15.8197 19.1982 0
19.4443 25.3843 0
81.6058 27.2274 0
82.9138 23.7677 0
84.8414 28.6394 0
82.8043 19.4403 0
77.8264 25.5685 0
79.7867 11.6984 0
74.1941 11.7239 0
77.344 7.83934 0
71.6654 15.6337 0
81.2499 3.90234 0
84.4116 12.0786 0
81.2564 15.9693 0
52.9208 14.1252 0
54.3864 9.93842 0
58.4039 12.6683 0
49.4499 5.56098 0
61.8197 16.2628 0
52.4265 18.0257 0
48.4088 15.3037 0
44.4359 13.7609 0
39.3172 12.1939 0
43.7816 9.82777 0
35.3714 15.7616 0
43.9449 17.6621 0
19.0273 11.6246 0
21.7464 7.84452 0
24.4648 11.5697 0
18.374 3.9433 0
26.2613 15.3811 0
17.5145 15.7495 0
14.7926 12.0168 0
74.6377 33.9759 0
78.7551 37.3845 0
78.0966 40.9708 0
74.7518 40.2171 0
21.4727 31.243 0
19.3769 36.6572 0
17.0693 39.4678 0
19.7431 40.2719 0
73.9592 31.3014 0
73.5761 35.9184 0
72.4586 38.888 0
70.874 36.9704 0
68.7287 34.5295 0
66.8029 31.9817 0
70.0662 31.4543 0
62.7214 32.6164 0
64.0598 29.5379 0
72.0342 28.7557 0
67.6095 37.5017 0
32.7071 32.0516 0
35.2419 32.6483 0
33.4968 35.0763 0
33.5098 37.9942 0
36.6354 38.6166 0
30.974 37.3951 0
59.8683 33.2069 0
62.6116 35.6505 0
64.353 38.1171 0
61.4987 38.7098 0
57.8219 32.1734 0
57.7111 35.2093 0
57.1092 37.4581 0
55.0624 36.4251 0
46.6677 35.2055 0
48.6975 34.3624 0
48.855 36.7365 0
50.2607 38.3617 0
52.6722 37.284 0
48.2302 39.2047 0
38.9068 36.4246 0
38.4364 33.2876 0
41.3109 34.037 0
37.6457 30.2607 0
43.675 31.8652 0
44.1467 35.0035 0
39.511 39.3679 0
44.3033 37.3774 0
46.0675 39.374 0
43.5157 41.7565 0
47.473 40.9993 0
43.5456 39.1716 0
41.7517 39.7595 0
90.8685 3.85135 0
87.4489 7.76141 0
86.3678 3.91478 0
88.9213 12.0303 0
89.7768 0 0
94.8884 0 0
95.9831 3.85528 0
96.4899 10.9699 0
92.7291 11.1114 0
95.7138 7.5576 0
91.0258 28.3783 0
90.4088 29.2237 0
4.10699 7.56851 0
6.96473 11.1191 0
3.38341 10.9664 0
10.4801 11.9378 0
8.97434 28.379 0
9.59126 29.2246 0
3.83769 3.86593 0
13.2564 3.95499 0
11.9957 7.8132 0
8.95233 3.86213 0
35.1904 -0.237198 0
42.5951 -0.268936 0
58.9633 23.4324 0
55.8678 20.3848 0
60.0329 19.902 0
51.3577 21.5602 0
64.9149 19.3151 0
61.5533 26.5608 0
57.3885 27.0454 0
67.5231 22.678 0
70.0297 25.6553 0
65.6344 25.93 0
73.9239 25.508 0
69.3108 19.0478 0
78.183 19.0646 0
75.8233 22.4725 0
74.2759 18.9949 0
23.3497 18.8684 0
21.6559 22.3209 0
20.0522 18.8075 0
22.7378 25.4527 0
27.8602 18.9003 0
29.6003 26.3066 0
25.8719 26.1899 0
28.6807 22.4983 0
23.6586 29.2563 0
31.5894 19.0087 0
33.4309 26.1168 0
30.6212 29.8099 0
40.5907 27.4981 0
43.6902 25.3397 0
43.9399 28.7427 0
44.1287 21.6499 0
47.4778 22.8954 0
46.7749 29.7089 0
37.3968 26.8608 0
36.1914 19.3691 0
40.1573 20.1107 0
36.3757 23.3519 0
26.6662 33.393 0
24.477 35.38 0
24.6036 31.9855 0
22.5971 38.9346 0
28.8763 32.2366 0
28.7509 35.6346 0
28.7621 38.5497 0
51.851 32.9297 0
54.2405 32.0711 0
53.2749 35.0346 0
56.3977 30.0684 0
49.6639 31.3985 0
50.9189 25.2502 0
53.8077 26.9419 0
49.9277 28.2754 0
6.56127 37.0321 0
6.98188 38.9882 0
5.22411 38.5805 0
9.61784 39.1265 0
8.2817 40.6716 0
4.37829 39.7105 0
4.80456 36.6232 0
5.76833 35.5895 0
7.55962 36.0363 0
10.8517 35.959 0
10.006 37.2038 0
9.16369 36.1949 0
11.3064 38.8845 0
8.40645 34.7872 0
11.1615 34.7919 0
12.0042 35.7975 0
11.7128 30.2735 0
10.2265 30.0545 0
11.05 29.4709 0
12.4466 26.6816 0
10.4245 28.6357 0
10.8785 30.8642 0
89.7736 30.0534 0
88.0772 30.428 0
88.7408 29.6259 0
89.3663 28.791 0
86.9028 27.1036 0
89.1223 30.8632 0
85.8475 33.0409 0
87.2086 32.9489 0
86.7806 34.4176 0
87.3643 31.6083 0
88.2991 32.9776 0
88.1308 35.6434 0
86.7661 35.7427 0
84.3512 32.8386 0
84.7858 31.3673 0
86.7759 39.3933 0
86.7652 41.4291 0
85.0409 40.1202 0
88.8334 42.6859 0
87.0986 43.4147 0
83.3002 40.6764 0
83.3103 38.6413 0
86.5829 37.5302 0
88.3083 38.8344 0
79.464 34.484 0
78.6517 32.5418 0
80.8319 33.0749 0
76.604 31.2781 0
77.9745 29.8697 0
81.6565 31.148 0
82.4677 33.0883 0
81.6083 37.1049 0
80.2009 36.1996 0
14.1378 36.8435 0
12.9289 37.7103 0
12.9043 36.1011 0
12.5406 39.63 0
13.2144 34.9348 0
15.3528 35.571 0
15.3775 37.1804 0
12.9082 32.9427 0
12.7199 32.0442 0
13.739 31.8854 0
11.7174 32.3677 0
12.5484 31.3161 0
14.5432 30.6535 0
14.7382 31.5544 0
13.1235 33.7111 0
12.0991 33.8627 0
16.8533 31.4027 0
18.196 31.4508 0
17.4167 32.8833 0
19.0778 29.2436 0
19.6446 30.7244 0
17.677 34.4198 0
16.3328 34.3697 0
15.8093 31.5773 0
16.5858 30.1458 0
13.8314 29.6206 0
12.7129 29.9357 0
12.997 28.5722 0
13.5676 26.3622 0
14.8308 29.2869 0
16.0383 28.8084 0
17.083 28.6322 0
18.5309 27.905 0
17.446 24.7766 0
86.2724 28.9204 0
86.9882 30.3851 0
85.5595 30.106 0
84.0648 29.8998 0
85.4699 26.8191 0
82.4477 29.1951 0
80.8117 29.1795 0
80.668 24.8827 0
78.766 27.9154 0
80.1623 38.2904 0
79.8335 40.0829 0
78.4258 39.1774 0
76.6283 39.4035 0
76.2195 41.7851 0
76.958 37.6098 0
15.6163 38.9613 0
15.8324 40.9005 0
14.379 40.3923 0
17.5313 41.3522 0
16.295 42.7859 0
12.7574 41.571 0
16.8299 37.6861 0
19.5599 38.4642 0
18.4063 39.8701 0
18.2236 38.0632 0
18.8685 41.7549 0
17.9842 36.2815 0
20.8969 35.3152 0
20.9869 37.7956 0
20.6947 41.717 0
21.1704 39.6037 0
24.5688 37.8627 0
22.5068 36.4531 0
19.8205 43.2008 0
22.122 41.0488 0
24.1622 40.9936 0
23.6874 43.1087 0
79.6561 42.401 0
79.3516 44.5126 0
77.792 43.0823 0
80.7458 46.3022 0
78.8812 46.9853 0
75.9146 43.8977 0
81.3938 41.5119 0
90.3664 39.6125 0
92.8011 40.4096 0
90.9361 41.4984 0
94.5601 38.701 0
95.1307 40.5919 0
91.2688 43.487 0
90.174 37.7452 0
93.2458 36.1407 0
93.7138 37.5722 0
91.764 37.0923 0
95.1956 36.6231 0
89.7069 36.3195 0
92.2465 35.1455 0
94.232 35.5892 0
89.5416 33.6349 0
91.1158 34.3044 0
89.7217 34.9891 0
93.1965 34.6276 0
92.0942 33.7438 0
93.8103 44.6599 0
96.3019 43.1525 0
96.7415 45.5165 0
90.9301 32.9437 0
89.7143 32.2375 0
97.1468 48.3043 0
91.7082 45.8465 0
10.4741 33.0188 0
10.9457 34.0188 0
9.5373 33.9486 0
6.80352 34.6279 0
7.90589 33.744 0
5.69337 43.0069 0
3.25451 44.7436 0
3.20636 42.2717 0
2.84884 47.5313 0
9.06915 32.9437 0
10.2868 32.2371 0
8.32962 43.1387 0
66.0516 59.7149 0
65.1979 61.0108 0
64.388 59.6762 0
65.9378 61.957 0
60.155 52.0784 0
60.0954 51.5337 0
63.767 58.6482 0
67.0909 58.3709 0
67.9008 59.7053 0
68.5816 61.7732 0
68.9166 63.8778 0
67.1967 63.1541 0
70.3636 64.8392 0
60.0509 50.9875 0
60.0289 50.6095 0
69.6211 60.4294 0
77.0631 64.252 0
77.3062 66.8735 0
74.8562 66.3936 0
79.7984 67.1808 0
60.014 50.2311 0
60.008 49.9696 0
72.5187 65.4764 0
76.7924 61.7593 0
79.2435 62.2395 0
82.0664 63.8933 0
84.9385 65.9943 0
82.386 66.8328 0
87.3484 64.9897 0
94.2119 63.7407 0
92.2482 65.4689 0
81.7968 61.4008 0
91.3609 58.8647 0
93.7821 60.4651 0
91.7915 62.1387 0
95.3678 58.3916 0
90.076 66.9264 0
87.7323 68.0884 0
89.7232 63.7317 0
89.3442 57.6654 0
91.3354 55.9916 0
93.8072 54.6643 0
96.8179 53.4513 0
96.3626 55.9788 0
97.1533 50.8639 0
85.2572 68.935 0
82.6929 69.4519 0
91.7904 53.4659 0
6.11489 54.0066 0
3.44223 55.8696 0
3.29943 52.903 0
4.43698 58.2824 0
5.78811 63.7411 0
4.06663 61.7714 0
2.9642 50.3156 0
8.85919 51.893 0
9.00126 54.8566 0
8.48025 58.4958 0
8.24497 61.8792 0
6.02266 60.3559 0
10.3133 63.4722 0
2.61696 59.5942 0
1.46384 57.2461 0
11.2244 56.3805 0
17.0479 63.6799 0
16.9686 66.7416 0
14.8214 65.8725 0
19.5562 67.0896 0
0.627394 54.7677 0
0.121998 52.2013 0
12.4115 64.868 0
17.0519 61.1915 0
19.1999 62.0606 0
29.3325 63.5273 0
31.5915 63.8566 0
30.2094 64.9299 0
32.8504 62.6595 0
34.9859 62.8657 0
33.779 64.1175 0
28.7625 65.8914 0
27.1381 63.3105 0
28.5203 62.237 0
34.091 59.4209 0
35.6561 59.7332 0
34.9006 60.6605 0
36.2772 58.7051 0
32.4681 65.2598 0
31.063 66.284 0
34.1607 61.6067 0
32.7381 59.113 0
33.4936 58.1858 0
29.5744 67.1825 0
37.1028 57.9453 0
37.4577 57.1948 0
37.7491 56.4175 0
35.7542 55.7583 0
27.2949 68.2466 0
83.5314 34.7642 0
85.2346 36.2979 0
83.3471 36.5528 0
91.8456 50.825 0
91.8389 48.2686 0
94.256 49.5797 0
89.2971 47.0931 0
89.3731 52.1533 0
15.0954 34.0364 0
14.022 34.0104 0
15.0019 32.8103 0
8.33706 48.8396 0
5.85703 48.2592 0
8.22213 46.0592 0
10.8105 43.7228 0
11.2245 49.692 0
15.3256 27.7751 0
14.7774 25.88 0
83.2237 27.9335 0
83.8504 26.1111 0
67.7389 56.9352 0
65.8894 56.9442 0
64.213 56.7906 0
64.8608 55.3544 0
74.0261 61.5685 0
72.4571 63.1345 0
71.8703 60.9309 0
71.1898 58.8636 0
76.2062 59.5565 0
86.9621 58.9544 0
86.9947 61.7966 0
84.5864 60.2125 0
81.7629 58.5595 0
86.9356 56.0826 0
15.2531 59.8731 0
12.8017 61.4151 0
13.1541 58.4775 0
13.6765 54.8404 0
17.4055 58.2548 0
31.4532 60.0257 0
32.025 61.401 0
30.1428 61.0786 0
27.9481 60.8622 0
30.8557 58.791 0
35.2763 56.8068 0
35.6722 57.7338 0
34.4507 57.5667 0
33.0976 57.2591 0
34.5326 55.5916 0
78.0183 35.6683 0
76.222 35.8926 0
84.8234 49.3209 0
87.1677 48.1303 0
87.0838 50.7055 0
87.0364 45.7112 0
87.0294 53.3442 0
82.5077 50.3359 0
82.5907 47.762 0
19.069 34.7945 0
20.5873 33.4517 0
69.0235 56.8549 0
67.822 55.4283 0
67.1682 54.4994 0
68.453 54.4195 0
73.8879 55.8478 0
74.6295 57.5176 0
72.6978 57.6953 0
77.3968 57.7088 0
70.448 57.1932 0
72.6847 54.4746 0
74.6168 54.2975 0
82.4737 53.0282 0
84.6465 54.6331 0
82.3809 55.7655 0
79.5904 56.9532 0
80.2416 51.4672 0
18.5955 53.2602 0
17.7875 55.9156 0
16.4137 54.2807 0
19.5867 57.2333 0
14.4837 52.1852 0
19.2605 51.1565 0
20.6342 52.7901 0
24.5224 57.985 0
24.4551 60.0139 0
22.9075 59.2149 0
26.1978 60.4021 0
24.5831 61.6322 0
21.0225 60.4084 0
21.0893 58.3796 0
24.5964 56.2395 0
26.1441 57.0379 0
32.0136 56.5994 0
32.9707 55.9803 0
33.4485 54.932 0
31.9286 53.9195 0
84.9688 44.451 0
83.0616 45.289 0
83.123 42.9938 0
71.1031 54.6236 0
70.5314 55.6868 0
69.6784 54.2849 0
69.0246 53.3562 0
71.8318 53.0732 0
78.5696 52.982 0
78.0138 54.9153 0
76.3756 53.7367 0
75.1723 52.3641 0
78.603 50.2895 0
23.2599 55.2603 0
21.472 56.0404 0
21.7572 54.1147 0
22.4225 52.0103 0
24.8818 54.3134 0
78.4594 48.6073 0
77.0656 46.8163 0
75.8894 45.8906 0
75.4677 47.5126 0
22.4125 45.1091 0
21.3087 47.1163 0
20.5425 45.1693 0
22.239 48.8712 0
20.369 48.9306 0
18.7161 45.2062 0
24.4534 45.0555 0
72.2932 51.7298 0
70.7115 51.8782 0
69.6133 50.772 0
71.5711 49.2948 0
75.4395 49.1351 0
76.7876 50.1209 0
75.5832 50.8179 0
73.8244 51.378 0
74.2635 48.2091 0
25.4426 51.0072 0
25.0699 52.5627 0
23.9178 51.7793 0
26.4064 53.5412 0
22.7951 50.4554 0
25.4174 49.1501 0
26.5694 49.9329 0
27.686 54.4538 0
27.8743 52.7025 0
29.4875 51.8071 0
30.5622 53.0667 0
23.7346 48.64 0
24.8615 47.5661 0
72.704 50.1834 0
73.1022 48.9435 0
27.6089 57.7748 0
29.3594 58.2345 0
27.8205 59.2436 0
30.6444 57.3218 0
27.6832 56.0289 0
30.5203 54.4677 0
30.5172 56.0433 0
29.1509 55.1902 0
23.2051 63.1766 0
21.3826 64.8293 0
21.0176 62.8963 0
21.7429 67.3699 0
24.9475 63.5651 0
26.425 66.8084 0
24.2351 67.0628 0
25.7601 64.8551 0
24.9002 69.0166 0
22.4278 69.4804 0
14.9435 44.8084 0
12.9972 46.9638 0
12.6486 44.4858 0
13.5185 50.0135 0
16.6425 45.2614 0
18.3298 49.4005 0
16.2567 49.4555 0
17.3652 47.2311 0
58.4025 8.18625 0
60.0048 10.106 0
79.5327 20.2265 0
77.0368 20.4163 0
69.2429 13.9213 0
67.5899 15.7833 0
37.1914 13.2958 0
34.8456 12.4461 0
72.23 44.4652 0
70.3948 42.7679 0
36.7125 22.0264 0
37.3106 24.4489 0
46.0452 8.16788 0
45.1586 10.5057 0
1.83757 10.4097 0
4.0435 9.22853 0
16.1387 3.98956 0
14.3591 2.25158 0
37.8089 13.3658 0
37.7737 10.8676 0
72.2829 1.12827 0
69.8176 1.5179 0
65.3644 25.0216 0
65.8213 22.5701 0
17.0811 0.162773 0
19.0979 1.62183 0
30.7507 0.347472 0
29.0164 2.1519 0
20.1729 28.9258 0
18.0467 27.6205 0
87.2228 22.8615 0
89.7022 23.2336 0
80.4433 11.8558 0
79.029 9.79949 0
53.4951 14.3131 0
52.9688 16.7568 0
79.8679 20.6339 0
77.3643 20.5786 0
95.4303 2.46617 0
96.84 4.52759 0
40.4112 38.37 0
38.2039 39.5405 0
34.3777 27.0383 0
35.0383 29.4429 0
88.3614 30.436 0
87.7453 28.0386 0
42.4479 31.8978 0
44.327 30.2526 0
26.0776 12.8464 0
26.9118 10.4931 0
40.5582 37.4455 0
42.7876 36.3191 0
65.9137 38.6185 0
67.4426 40.5945 0
21.6679 36.4972 0
24.1596 36.6969 0
87.2999 17.9806 0
88.9282 16.0998 0
31.3077 9.92891 0
28.8761 10.5144 0
60.2764 8.24736 0
61.5768 10.3837 0
62.4171 9.32427 0
60.9657 7.28728 0
18.7628 6.96766 0
18.1835 9.38252 0
63.043 43.7722 0
62.3502 46.1716 0
84.2815 25.8042 0
83.5919 28.1879 0
47.3533 44.2174 0
49.2165 42.5521 0
30.7338 4.75904 0
33.1074 5.5315 0
37.1892 2.25892 0
36.8919 -0.221926 0
39.5164 0.499391 0
37.848 2.36238 0
66.8504 34.4766 0
64.5936 35.5409 0
25.2449 21.309 0
23.6728 23.2481 0
89.2148 30.1786 0
86.9534 29.0987 0
74.2814 10.0388 0
76.6608 9.28997 0
80.3478 12.7824 0
81.7513 14.8451 0
81.0933 16.9172 0
80.1795 19.2252 0
78.4092 10.7293 0
79.7543 12.8308 0
67.6639 27.4427 0
65.1693 27.3307 0
62.4262 24.8513 0
59.9984 24.2679 0
61.7173 24.6754 0
62.4873 27.0518 0
69.5093 32.8305 0
67.0238 32.5808 0
82.5782 12.4821 0
85.0229 13.0451 0
51.4577 18.1157 0
53.5365 19.4993 0
66.983 15.9582 0
65.16 14.245 0
20.0294 22.375 0
20.4828 19.9313 0
53.0621 24.0104 0
52.954 21.5132 0
62.0745 33.9012 0
64.0393 35.4446 0
67.94 28.205 0
69.9049 26.6712 0
27.3622 19.3435 0
25.4333 17.7677 0
43.3825 3.92993 0
43.9138 1.48766 0
90.2272 10.279 0
88.4289 8.545 0
67.9594 36.7466 0
68.6404 34.3486 0
9.52308 8.19465 0
11.9805 7.70756 0
49.9622 6.52494 0
52.3371 7.30616 0
81.1326 29.1597 0
83.0757 27.5979 0
43.1437 19.9706 0
45.5354 20.6806 0
73.012 25.5135 0
75.2358 24.3826 0
59.306 18.5249 0
57.0615 19.6139 0
94.8327 14.8903 0
92.4118 14.247 0
8.7466 19.462 0
11.2082 18.9877 0
17.4594 22.7315 0
15.7972 20.8795 0
16.9476 36.4387 0
18.1578 34.2601 0
59.7805 41.9334 0
57.5885 43.1302 0
84.6098 20.3941 0
84.657 22.8746 0
9.90295 20.0747 0
7.80162 21.4375 0
16.8475 30.0137 0
15.2218 31.9004 0
46.6518 3.40053 0
48.1056 5.43431 0
57.7833 40.3472 0
55.7456 41.7906 0
67.5152 37.039 0
69.5884 38.4354 0
68.3602 7.52641 0
70.248 5.89856 0
24.8028 8.54128 0
27.2291 9.12102 0
16.1235 15.5081 0
15.2199 17.8259 0
96.9839 4.64616 0
94.5127 5.03201 0
25.2322 33.8389 0
26.0504 31.4835 0
16.8146 15.7063 0
17.9413 17.9186 0
86.8944 15.6838 0
88.6028 13.8735 0
26.9816 36.4048 0
28.2562 38.5453 0
45.0586 37.0672 0
42.7633 38.0518 0
25.987 33.6896 0
28.4642 33.3591 0
70.5463 15.9641 0
72.5166 17.507 0
49.8257 47.6713 0
50.9704 45.4493 0
82.7646 18.3583 0
81.0843 16.5105 0
12.4098 5.60158 0
9.98417 4.99677 0
18.2987 2.66115 0
20.5317 1.52704 0
98.9031 4.26771 0
97.7083 6.45318 0
80.2951 37.4205 0
80.8856 35.0062 0
48.5362 3.59591 0
48.4431 1.0987 0
46.0837 5.26193 0
43.9281 6.52949 0
61.1069 38.0531 0
59.0204 39.4235 0
81.2041 11.1121 0
81.7889 8.70503 0
79.3205 30.457 0
76.9939 31.3583 0
52.3968 8.1178 0
50.932 6.09201 0
25.8997 29.9777 0
23.7661 28.6869 0
94.5673 17.4561 0
96.848 16.4386 0
29.5726 32.1131 0
31.8797 33.063 0
65.8299 4.39575 0
65.8069 6.8947 0
53.2581 1.89968 0
51.4517 3.62916 0
14.5734 9.06765 0
15.103 6.64198 0
7.21735 18.8483 0
5.02113 17.6628 0
61.2139 40.337 0
59.896 42.458 0
74.2089 7.30078 0
73.7989 4.83804 0
23.5804 30.299 0
23.8212 27.8214 0
78.8039 6.911 0
76.6453 5.63329 0
79.0414 11.3027 0
81.1585 12.6427 0
7.63558 2.53357 0
5.13533 2.60496 0
76.45 15.9744 0
74.467 14.4452 0
47.9017 9.33399 0
49.6884 11.0812 0
80.0441 2.03971 0
82.5023 1.58715 0
29.175 29.9437 0
27.2212 28.3959 0
70.974 16.3701 0
71.527 13.9441 0
4.51807 13.5692 0
6.47587 12.0125 0
40.5576 0.19673 0
39.5202 2.47076 0
60.4105 12.3709 0
59.8391 14.8024 0
41.2064 3.53765 0
39.1696 4.98953 0
33.6529 29.4507 0
36.1424 29.6341 0
33.1941 20.9639 0
32.9752 18.4795 0
79.6008 15.5586 0
80.1558 17.982 0
72.6611 34.708 0
70.526 33.4083 0
56.7298 8.26216 0
54.3223 7.59029 0
44.5365 8.88956 0
43.207 11.0072 0
82.5705 16.525 0
83.6835 14.3062 0
11.5878 0.312377 0
10.6919 2.63657 0
78.0166 16.1374 0
80.0492 17.5981 0
59.4298 2.99849 0
60.753 5.12011 0
72.2944 1.25613 0
72.1991 3.75191 0
66.8154 2.67571 0
68.1047 0.527888 0
13.3298 3.76575 0
15.1504 2.05706 0
71.969 26.5396 0
74.4254 27.0011 0
16.8428 17.4921 0
15.4318 19.5477 0
72.2128 38.3112 0
72.137 35.8202 0
43.4814 20.7567 0
41.2194 21.815 0
57.2585 19.2274 0
57.524 21.7124 0
64.6822 28.775 0
67.164 28.5079 0
24.6566 31.8821 0
27.0621 31.2038 0
50.1167 28.7603 0
49.1084 31.0459 0
59.8082 37.1588 0
58.5432 35.0041 0
22.4485 29.0582 0
24.8634 28.4146 0
39.6988 35.8759 0
37.2491 36.3625 0
5.89955 10.0584 0
3.87036 11.5212 0
54.8014 20.7586 0
56.8331 22.2115 0
68.5117 19.6284 0
68.8204 17.1553 0
42.0148 42.6592 0
42.7792 45.038 0
19.0867 24.5455 0
16.937 25.82 0
69.2662 4.13925 0
66.9204 3.2689 0
18.7314 12.8206 0
19.434 10.4367 0
97.8438 0.548218 0
97.0309 2.89899 0
21.313 0.600431 0
21.782 3.02053 0
13.4397 5.97223 0
14.578 8.17875 0
94.825 5.80194 0
95.353 3.37172 0
58.672 11.5804 0
59.4719 13.9492 0
26.7339 39.9156 0
25.2356 41.914 0
62.4267 18.7178 0
64.5331 17.3837 0
9.52095 7.74209 0
11.9359 7.07757 0
44.2823 18.0531 0
41.8967 18.79 0
89.0255 10.8103 0
91.4901 10.3721 0
65.4935 41.5757 0
63.069 40.9687 0
51.2704 34.3604 0
53.6802 33.7113 0
12.7472 8.57208 0
14.7389 10.0713 0
75.0524 18.4131 0
72.5575 18.219 0
69.1658 26.3941 0
69.6199 28.8466 0
19.5765 11.7939 0
21.8378 12.8517 0
36.8942 39.9996 0
34.488 39.331 0
29.3165 28.251 0
30.9324 30.1476 0
12.3803 19.5689 0
13.581 17.3852 0
42.0369 43.1038 0
39.6438 43.8233 0
34.218 5.11609 0
33.7269 7.56791 0
94.9604 17.0512 0
93.8752 14.8046 0
53.7752 26.2331 0
54.3547 28.6636 0
68.2917 36.2613 0
67.5179 38.6315 0
71.2448 36.9792 0
69.3041 38.5456 0
30.4696 15.5191 0
32.6256 16.7685 0
62.7516 8.02198 0
65.2347 8.30284 0
52.3936 17.2793 0
51.125 19.4318 0
68.8522 3.60495 0
68.9122 6.10409 0
24.0112 7.72635 0
26.0487 9.14808 0
31.7754 14.6257 0
33.4917 16.4313 0
72.4502 5.98715 0
74.7227 4.98827 0
47.2236 15.1952 0
45.6824 17.1626 0
36.6649 41.7805 0
38.6969 40.3257 0
22.8162 10.4223 0
24.4572 8.53195 0
22.9679 37.7054 0
25.3497 36.9407 0
79.5525 20.4673 0
81.8059 21.5582 0
80.4422 16.0956 0
78.1654 15.0482 0
68.1786 34.1662 0
68.4257 36.6485 0
32.781 26.9159 0
35.0099 28.0349 0
49.0965 3.54759 0
47.4569 5.4352 0
34.1839 40.5732 0
32.8216 42.6672 0
47.6801 12.5301 0
48.2009 14.9752 0
50.2584 18.7471 0
51.6307 16.6591 0
33.8289 30.5871 0
34.5147 28.187 0
2.35059 13.8082 0
4.83729 14.0826 0
40.0865 40.1789 0
40.8302 42.5634 0
10.123 16.143 0
9.50721 18.5538 0
32.9336 16.0591 0
31.8909 18.3302 0
43.2537 0.902903 0
45.6724 0.254676 0
37.1257 36.7831 0
39.367 35.6798 0
81.255 10.0771 0
81.7511 7.65101 0
30.444 3.61037 0
28.2956 4.89666 0
49.4061 1.30606 0
47.6086 3.04502 0
60.7702 31.1982 0
62.545 32.9564 0
26.1751 37.2014 0
24.501 35.3567 0
33.9229 3.1672 0
36.4119 3.39761 0
46.8681 29.0142 0
45.8454 31.2937 0
19.4812 36.1265 0
21.204 37.9242 0
56.1183 28.211 0
58.6134 28.2468 0
92.8313 9.45707 0
95.2497 10.1059 0
22.0842 28.9883 0
24.5552 29.3529 0
48.2792 17.6511 0
50.728 18.1316 0
28.8087 21.6353 0
27.7551 19.3807 0
88.6628 18.0103 0
91.0194 18.8647 0
85.3195 15.4992 0
82.8166 15.6333 0
59.5442 45.146 0
60.8278 47.291 0
89.5302 2.52191 0
89.7408 4.99913 0
95.4661 9.78969 0
93.3712 8.4225 0
64.46 41.3939 0
62.9749 43.4006 0
56.0165 26.0022 0
58.3362 25.0846 0
71.0301 1.8569 0
71.0304 4.3559 0
51.4186 11.7537 0
50.5039 9.427 0
58.3306 27.7784 0
57.6563 25.3726 0
9.32339 7.84583 0
7.77722 5.8952 0
51.6896 13.3628 0
49.2106 13.0672 0
49.7138 24.2977 0
50.1425 26.7596 0
72.5996 28.3417 0
70.1977 27.6514 0
81.2923 36.289 0
78.9798 37.2297 0
80.7645 18.2528 0
81.4178 20.6514 0
63.0482 6.26026 0
60.7629 5.24582 0
49.6093 11.7302 0
47.1181 11.5602 0
44.4765 28.4358 0
42.0236 28.8961 0
88.64 7.80613 0
88.1091 10.2308 0
72.3072 6.34344 0
71.0147 8.46871 0
87.6954 13.9 0
88.6409 16.2025 0
36.5637 40.8159 0
38.2839 42.6256 0
62.5577 3.55685 0
63.7373 1.35344 0
39.951 15.0425 0
40.0958 12.5473 0
19.3813 6.42776 0
21.5253 5.12799 0
36.3622 45.7854 0
38.7257 46.5991 0
34.5779 31.2751 0
32.3456 32.3975 0
58.911 19.4888 0
60.7015 21.2323 0
78.252 16.1662 0
75.8246 15.5414 0
15.8659 28.8899 0
17.2263 26.8075 0
80.554 1.6635 0
78.1485 2.32328 0
37.6449 41.6186 0
35.1629 41.9103 0
84.0722 21.3665 0
84.5625 23.8006 0
86.568 7.31808 0
86.2248 4.8592 0
44.7634 5.9581 0
46.5619 7.6936 0
84.1589 19.718 0
84.0248 22.1952 0
71.9568 17.5191 0
74.441 17.2401 0
77.1145 24.9566 0
76.504 22.5438 0
97.1549 15.2715 0
94.6901 14.8336 0
38.3456 23.5491 0
40.4291 22.1705 0
40.9154 1.68138 0
39.8529 3.94429 0
60.1714 22.4448 0
57.8394 21.5519 0
23.1254 0.935942 0
24.5956 2.92574 0
71.9061 32.1568 0
69.4416 32.5569 0
44.2065 38.1372 0
42.2608 39.7046 0
34.1387 4.31911 0
35.5935 6.34812 0
19.9547 15.5505 0
21.7065 17.3177 0
1.48212 8.35414 0
3.17238 10.1888 0
85.6071 24.9564 0
87.7306 23.6472 0
82.6847 14.8456 0
80.2537 14.2295 0
60.7673 3.19114 0
60.1666 5.61681 0
17.2947 24.2427 0
15.8004 22.2548 0
51.8051 38.8208 0
50.5935 36.6358 0
59.7304 46.7834 0
62.0324 45.8101 0
81.6921 19.1733 0
81.9866 21.6386 0
60.0571 15.0421 0
57.6485 14.381 0
21.6029 24.4339 0
21.4951 26.9178 0
50.5583 36.6022 0
51.5015 34.2888 0
68.8269 24.0755 0
66.7633 22.6649 0
85.4032 31.9873 0
83.0584 32.8348 0
10.0199 12.7064 0
7.95584 14.1215 0
90.6795 3.1832 0
88.5806 1.82477 0
85.5595 8.44959 0
87.7191 7.19835 0
32.9643 40.3908 0
33.128 42.8803 0
16.5727 0.843225 0
18.9336 1.6542 0
80.4144 27.4967 0
82.3579 25.9347 0
21.4156 11.0326 0
19.7321 9.20578 0
93.5311 17.0955 0
91.2324 16.0998 0
19.4084 35.6173 0
19.2673 33.1351 0
17.9852 35.2485 0
20.2374 34.1616 0
76.6239 12.0675 0
75.0545 13.9926 0
20.8971 4.72148 0
18.5496 3.87589 0
26.3305 33.7566 0
24.1759 32.5016 0
55.327 6.98816 0
57.4759 5.71241 0
69.3477 3.79584 0
70.4262 6.05441 0
22.4166 17.0206 0
21.7217 14.6386 0
89.498 6.14753 0
86.9944 6.12907 0
60.1587 4.17825 0
57.67 3.92675 0
86.6811 11.3307 0
84.2729 10.633 0
80.9212 22.5139 0
82.0986 20.3264 0
69.7741 32.4197 0
68.9741 30.0561 0
42.4536 48.8682 0
40.5298 47.272 0
30.6562 29.336 0
31.5803 31.65 0
19.9396 37.4497 0
20.25 34.9808 0
64.2205 5.56672 0
62.4858 7.36253 0
91.4374 1.97239 0
90.9812 4.41583 0
85.7606 10.1195 0
87.2408 12.1272 0
16.1099 1.27465 0
14.0692 2.71602 0
71.9424 36.5575 0
74.3655 35.953 0
14.8988 16.2372 0
17.3281 16.8401 0
85.8493 30.821 0
87.538 32.6469 0
8.11815 22.0335 0
10.6192 21.8929 0
49.9336 35.5056 0
52.4225 35.3189 0
9.11146 20.5197 0
10.8331 18.707 0
62.5265 31.8702 0
60.2605 32.9139 0
37.5409 6.7304 0
39.0269 4.71898 0
9.76057 9.19353 0
11.9399 7.963 0
60.1417 25.896 0
57.6477 25.9784 0
32.8507 17.1208 0
33.7973 19.4261 0
92.6263 11.4656 0
92.9541 13.932 0
50.0439 4.31608 0
52.1272 5.69923 0
21.771 11.8064 0
23.2384 13.8089 0
16.4416 4.90563 0
18.7591 3.9591 0
38.9524 33.6838 0
41.087 32.3869 0
2.04044 4.98391 0
2.95153 2.66331 0
17.4305 17.0789 0
16.4032 19.3458 0
81.4569 37.4907 0
82.4756 35.2243 0
72.9018 12.4978 0
74.7369 10.821 0
66.3125 41.3556 0
63.922 42.0808 0
63.7369 26.3602 0
65.7217 24.8513 0
49.8632 5.96656 0
48.325 7.9372 0
60.177 40.6261 0
62.3988 41.7699 0
23.3944 10.8419 0
24.4991 13.0632 0
60.0811 31.1369 0
61.0272 33.4488 0
85.0492 22.3696 0
87.5545 22.3087 0
74.5693 19.7423 0
72.1423 19.1307 0
56.0466 12.2832 0
58.4874 12.8136 0
61.6839 4.1468 0
60.6405 1.87509 0
60.7162 47.3907 0
58.2181 47.4888 0
50.646 16.7029 0
50.9619 19.1828 0
26.152 33.1202 0
27.1424 30.8307 0
43.6999 22.4896 0
41.6489 21.0693 0
70.2378 18.4712 0
72.7109 18.8462 0
72.5543 1.47922 0
72.7244 3.97252 0
33.4221 16.9699 0
35.0575 18.8502 0
55.2446 3.40767 0
57.6882 3.94403 0
62.7268 26.8705 0
60.2311 26.8916 0
59.5603 35.3857 0
59.7049 32.8926 0
41.7428 31.2256 0
39.3627 31.98 0
65.7012 33.7266 0
63.6792 32.2589 0
41.2814 36.0449 0
39.9782 38.1768 0
73.2238 29.6472 0
72.7926 32.0997 0
50.763 40.0412 0
51.856 42.2884 0
59.8169 9.94393 0
58.3207 7.94028 0
82.5553 19.9288 0
84.8588 18.9587 0
66.2646 0.619566 0
68.7609 0.392963 0
72.7683 32.5436 0
74.6431 30.9018 0
66.5169 33.4199 0
65.2418 35.5628 0
67.8023 46.1256 0
68.5236 43.7379 0
63.7184 22.9029 0
64.8159 20.664 0
80.4286 11.2374 0
82.0375 13.1478 0
31.004 20.3525 0
30.0542 18.0507 0
25.3163 20.5998 0
26.8895 22.5289 0
53.984 28.575 0
56.4658 28.3195 0
85.716 28.2268 0
85.1915 25.8037 0
37.8993 1.70206 0
40.3819 2.02369 0
42.106 29.4195 0
43.0904 27.1231 0
19.965 35.2674 0
22.4512 35.5197 0
84.4663 11.4972 0
86.9725 11.4471 0
30.5135 1.18997 0
32.9804 0.764757 0
61.9896 42.3376 0
59.8252 41.0885 0
40.0298 13.3389 0
38.0377 14.8492 0
71.9039 29.0507 0
70.0586 27.3668 0
60.3562 30.1648 0
59.5949 27.7857 0
6.59336 10.6501 0
5.72369 12.9855 0
33.6205 6.73861 0
32.0014 4.84067 0
57.288 24.6344 0
59.7212 24.0838 0
61.7415 27.9277 0
59.258 28.1691 0
12.9843 2.03159 0
15.1398 3.28417 0
72.4137 4.90542 0
69.929 4.64462 0
30.5149 6.15476 0
28.1213 6.88219 0
80.7943 3.72788 0
78.291 3.81933 0
54.3821 35.8508 0
52.3728 37.3326 0
30.5978 14.2019 0
33.019 14.8038 0
80.579 9.16339 0
82.8683 8.16408 0
12.0206 31.4796 0
13.0034 29.2135 0
46.3778 5.24423 0
48.8279 5.74571 0
2.72964 5.31622 0
5.23091 5.21741 0
10.2116 9.54256 0
11.215 11.815 0
4.33729 17.8431 0
6.58669 16.7433 0
29.3878 8.4014 0
26.8904 8.37415 0
43.6893 1.92233 0
45.9986 2.88542 0
77.3465 2.78214 0
75.5746 4.50667 0
55.2098 26.6593 0
57.457 27.7471 0
24.8153 19.265 0
27.0025 18.0479 0
12.805 30.8109 0
14.0521 28.6668 0
13.7566 17.8186 0
15.6182 19.4735 0
31.5492 35.9497 0
33.6516 37.2931 0
85.1102 18.9028 0
85.441 16.4446 0
54.9594 42.2732 0
56.1339 40.0684 0
56.86 42.928 0
54.3722 42.7004 0
69.3533 41.0006 0
68.4331 43.3182 0
81.6155 5.20738 0
81.1829 7.64202 0
67.3017 28.6605 0
69.3928 27.3027 0
23.3853 28.1756 0
20.8919 28.3458 0
76.5622 33.007 0
74.6681 31.3785 0
40.3968 1.72625 0
41.9458 -0.23672 0
21.4839 3.46329 0
19.276 2.31996 0
32.7239 27.9332 0
34.5284 29.6531 0
39.756 2.17412 0
37.9704 3.92551 0
68.5845 6.18628 0
66.5202 7.58552 0
7.18371 2.10701 0
8.72591 0.142432 0
59.0748 33.3251 0
57.1189 31.7716 0
22.6603 35.3118 0
24.1907 37.2757 0
76.6973 24.8574 0
76.1457 22.4305 0
8.87256 16.6952 0
9.71733 19.0313 0
27.0309 16.6041 0
28.455 14.5496 0
31.9473 36.8775 0
32.7779 34.5233 0
22.2103 34.8281 0
19.9723 33.7277 0
73.3211 36.9944 0
71.9943 34.8795 0
15.0318 2.08345 0
16.973 0.514239 0
52.2281 12.0683 0
52.0959 9.57144 0
33.8271 8.6736 0
32.688 6.45417 0
24.9742 41.6872 0
27.3659 40.952 0
57.5743 12.4411 0
59.7957 11.3025 0
84.1837 35.0658 0
82.3768 33.3424 0
40.3989 47.0442 0
38.8879 45.054 0
18.0768 12.1296 0
20.5373 12.5932 0
92.7099 8.16142 0
94.3927 6.32426 0
81.3567 32.9123 0
80.6409 30.5286 0
38.8347 14.7557 0
38.6995 17.2509 0
28.5884 11.5054 0
29.9747 13.5707 0
51.9103 39.4316 0
54.3986 39.6408 0
86.5448 28.0014 0
85.8806 25.6116 0
22.1626 2.32133 0
23.5662 4.35045 0
49.3545 3.09784 0
47.2336 1.7706 0
18.8639 19.6415 0
21.3479 19.9541 0
2.09791 9.01811 0
4.2821 7.79789 0
20.2606 3.58173 0
18.8559 5.64036 0
62.9395 44.3203 0
65.16 45.4691 0
34.4965 21.1131 0
36.5824 19.7357 0
94.5954 1.0324 0
93.9579 3.43589 0
49.7446 42.3045 0
49.3588 39.8353 0
58.6747 10.7192 0
56.3245 9.86978 0
36.6136 10.6392 0
34.33 11.658 0
56.824 43.7644 0
56.7505 46.2626 0
2.43329 12.6002 0
1.7711 10.1977 0
82.4249 4.95393 0
83.3183 2.64224 0
37.6746 47.2075 0
35.4175 46.1335 0
65.9703 39.4372 0
68.2994 40.3456 0
24.6607 33.9885 0
27.1361 34.3217 0
68.4593 39.3478 0
70.8601 38.6594 0
13.825 30.5423 0
12.2037 28.6607 0
58.861 44.3314 0
61.2954 44.897 0
24.3287 5.59378 0
24.1988 8.07798 0
81.1189 20.8461 0
78.7361 21.6045 0
29.8773 39.639 0
29.5133 42.1065 0
23.7171 16.9839 0
21.4572 15.9238 0
2.73385 8.21844 0
4.95998 7.07583 0
48.0278 30.7635 0
49.9852 29.2137 0
87.0512 23.0901 0
84.6649 23.8399 0
34.668 10.8489 0
32.3344 11.749 0
47.5594 25.9412 0
46.1035 23.9125 0
67.4213 24.2176 0
65.431 22.7058 0
58.2089 30.0635 0
56.8666 32.1677 0
32.33 34.8076 0
34.6205 35.798 0
57.4085 36.2658 0
56.0482 34.17 0
26.6819 3.32356 0
28.7873 1.96861 0
11.1831 26.5845 0
12.7182 24.6157 0
63.5059 33.0127 0
61.9106 34.9305 0
28.4951 11.3416 0
26.0478 11.8695 0
44.5053 45.7022 0
42.007 45.7688 0
30.8481 14.4014 0
31.9775 16.6209 0
13.2054 1.82406 0
15.3321 0.510764 0
76.1229 14.9548 0
73.8643 16.012 0
12.6739 6.51749 0
13.3224 8.91263 0
35.4814 4.87244 0
36.3467 7.21532 0
53.994 17.6108 0
51.5378 18.0511 0
31.3179 8.43141 0
29.0142 7.48139 0
24.2919 6.59896 0
21.7968 6.82699 0
48.612 3.55163 0
51.0491 4.11769 0
32.1671 13.7231 0
32.1001 11.2285 0
1.57998 3.45604 0
4.06045 3.77878 0
62.8126 44.211 0
60.4945 43.2764 0
42.6428 24.384 0
40.1531 24.2226 0
48.3468 30.6981 0
50.5231 31.9198 0
58.8741 35.2421 0
56.3875 35.4581 0
50.016 46.5186 0
52.0705 45.0958 0
26.9521 5.65358 0
26.3253 8.07377 0
43.5174 35.9828 0
42.0998 33.928 0
52.8751 27.893 0
50.9804 29.5182 0
60.9489 39.899 0
62.0855 42.1242 0
46.9358 23.5957 0
45.6707 21.4424 0
19.2539 2.94443 0
18.5404 0.57663 0
48.2298 41.8395 0
49.1917 39.533 0
47.8196 39.4293 0
45.369 38.9511 0
73.2119 11.4879 0
72.6839 9.04852 0
52.5238 17.7745 0
50.7821 15.9835 0
25.0131 41.7382 0
27.4982 41.4483 0
51.9684 24.0335 0
50.5567 26.0939 0
25.8532 30.2659 0
28.2788 30.8551 0
5.35758 7.99931 0
2.87532 7.68695 0
20.8871 35.1832 0
18.7664 36.5083 0
31.9011 19.1259 0
34.1747 20.1502 0
30.1113 19.2136 0
27.762 18.3728 0
78.7228 17.4753 0
79.4596 19.8515 0
41.92 32.0823 0
42.4662 29.6447 0
44.7934 12.4855 0
45.252 10.0274 0
44.2013 20.0237 0
46.048 18.3409 0
36.1236 2.39446 0
35.7793 4.86938 0
94.48 4.8565 0
95.2928 7.2129 0
41.9162 21.7344 0
40.3671 23.6954 0
57.7743 26.1055 0
55.7357 24.6628 0
62.6897 26.9012 0
65.0967 27.5678 0
8.5519 15.6239 0
8.4734 18.1088 0
70.8154 30.8838 0
68.3726 30.3591 0
45.8842 35.6232 0
46.1304 33.137 0
87.0776 2.7413 0
88.769 4.57723 0
22.5188 38.4325 0
22.8854 40.8939 0
66.2395 43.09 0
64.2071 41.6348 0
77.3387 11.9329 0
77.8747 14.3615 0
50.8449 46.939 0
49.1602 48.7855 0
14.9015 13.3636 0
15.4072 10.9323 0
75.6067 18.9071 0
75.3963 21.3843 0
59.048 45.5266 0
61.1002 46.9541 0
83.741 9.43079 0
86.1909 8.91591 0
6.96431 1.79945 0
4.46497 1.89319 0
80.7353 18.9304 0
82.5408 17.216 0
13.6042 0.198936 0
11.1062 0.105307 0
14.9202 32.0918 0
17.2976 31.3282 0
14.2046 12.8248 0
15.5769 14.8955 0
66.7231 0.880005 0
64.2551 1.30537 0
72.2482 24.3953 0
71.2918 26.6941 0
52.018 31.3525 0
50.0645 29.7982 0
29.3286 29.1017 0
28.0619 26.9573 0
76.0496 25.2978 0
76.2853 22.8222 0
88.104 17.2111 0
90.3462 18.3296 0
56.5882 8.97332 0
54.2992 9.97318 0
30.605 42.2317 0
32.0892 44.237 0
49.5612 38.1708 0
50.1525 35.743 0
33.5842 30.5597 0
35.818 31.6695 0
51.2945 20.103 0
50.162 22.3304 0
48.0084 20.109 0
46.7636 17.943 0
56.307 36.6561 0
54.2163 38.0204 0
27.9331 27.9427 0
28.5132 30.3645 0
32.5787 34.3958 0
33.2107 36.8081 0
91.7435 14.6907 0
93.5769 16.3912 0
6.68474 6.15807 0
6.35924 8.62594 0
30.599 35.7149 0
31.2688 33.3111 0
65.197 34.8184 0
64.2633 37.1316 0
70.897 2.16492 0
72.4948 0.252919 0
72.1952 24.9937 0
72.6742 22.5508 0
12.9605 14.5976 0
14.9627 16.0837 0
48.3607 3.36757 0
50.7928 3.95566 0
17.3676 5.84802 0
17.5674 8.3155 0
6.48194 18.5602 0
3.99388 18.3035 0
31.8447 33.8247 0
32.026 36.3119 0
59.3191 32.7921 0
59.023 35.2716 0
80.5751 24.3908 0
80.9577 26.8458 0
96.0393 18.3797 0
96.4555 15.9237 0
81.6384 13.1249 0
84.1085 12.7108 0
31.4204 34.3522 0
30.3426 32.1053 0
95.0622 8.64051 0
94.1908 10.9713 0
92.6767 17.8759 0
94.8965 16.7334 0
25.3271 37.8306 0
25.0386 35.3575 0
11.1224 27.1374 0
12.9352 28.8353 0
25.2108 17.0466 0
22.7491 17.5105 0
33.0584 22.1812 0
35.5481 22.3638 0
75.0869 22.9975 0
72.5872 23.037 0
50.0606 27.5109 0
49.6801 29.9805 0
20.9935 18.6324 0
20.4816 21.0651 0
93.0764 7.2172 0
92.253 9.56339 0
49.1252 48.0377 0
47.6823 45.997 0
60.2961 38.9839 0
62.1736 37.3392 0
68.4974 12.5537 0
66.4399 11.1291 0
74.7502 11.4464 0
72.5807 12.6689 0
59.6087 41.8199 0
61.2441 43.7099 0
83.0189 12.0047 0
83.7011 9.62266 0
12.3112 9.74668 0
11.2274 7.51154 0
46.2375 42.9583 0
44.2349 41.4657 0
78.0944 4.17728 0
75.6303 4.58403 0
79.2372 34.548 0
79.6969 32.1042 0
50.3182 26.23 0
47.8572 25.8213 0
15.9004 14.9037 0
18.3771 14.5094 0
24.6514 1.8009 0
27.1331 1.98563 0
21.7855 5.90565 0
23.7428 4.3385 0
38.4471 26.6904 0
36.0048 27.21 0
39.6035 37.8775 0
37.1105 37.7329 0
20.4492 23.2052 0
19.0497 21.1492 0
55.8211 8.59874 0
53.5435 9.6252 0
30.8022 38.6565 0
33.2493 38.1474 0
56.7803 41.7055 0
59.2497 41.3329 0
59.0538 12.3245 0
61.5027 11.8407 0
84.7893 1.944 0
82.431 2.7645 0
54.6845 35.6357 0
52.9164 37.3988 0
27.9096 39.2895 0
30.4044 39.1252 0
56.9088 32.5198 0
56.6209 30.0385 0
77.6099 21.2169 0
75.7273 22.8494 0
36.6856 36.4776 0
36.0487 38.8924 0
70.6608 32.3189 0
68.1948 32.7094 0
48.9434 32.3472 0
50.2821 30.2386 0
64.3742 19.3113 0
65.3808 21.5985 0
36.9254 30.4907 0
39.421 30.5349 0
52.1007 2.9624 0
54.2097 4.30749 0
16.1201 26.8864 0
13.9105 25.7226 0
28.8329 37.5917 0
26.3637 37.986 0
66.3048 34.7364 0
64.7157 32.8085 0
86.8442 13.7446 0
85.7547 15.9749 0
79.8979 37.3861 0
77.5975 38.3566 0
1.07564 9.64077 0
2.76263 11.4787 0
22.3148 6.99495 0
19.8246 6.74363 0
28.0215 24.1156 0
25.5471 23.7684 0
48.7818 5.39624 0
46.4109 4.60024 0
39.4146 8.30977 0
37.1205 7.32353 0
13.1968 16.1554 0
11.7618 14.1256 0
35.2022 37.7972 0
33.3871 39.5148 0
76.13 7.9745 0
78.1993 6.59278 0
38.892 43.7863 0
38.0791 41.4249 0
46.1942 9.43151 0
48.2304 7.98192 0
39.9042 30.9009 0
37.4828 31.5102 0
37.3285 29.1435 0
36.6617 31.5498 0
36.7189 26.8781 0
34.2455 27.2215 0
30.6684 4.44058 0
33.017 5.28591 0
71.8316 31.8738 0
74.0071 30.6544 0
24.1692 12.3484 0
26.5599 11.5973 0
33.2198 43.6062 0
35.5074 42.5973 0
26.0898 22.4252 0
24.0688 23.896 0
5.63263 2.56065 0
6.55634 0.24416 0
94.3907 5.88667 0
96.801 6.56382 0
53.4081 18.8852 0
51.7031 17.0591 0
53.8042 45.3761 0
52.3226 47.3885 0
94.7341 5.23148 0
93.3303 3.16686 0
30.2365 21.1054 0
27.7899 20.6055 0
57.5026 2.09715 0
58.1138 4.52082 0
94.6147 11.4704 0
92.9733 9.58756 0
43.7258 7.16544 0
46.1877 6.73121 0
49.3931 42.3142 0
47.4349 43.8666 0
42.4251 27.2588 0
44.8354 26.6108 0
24.2524 22.5788 0
21.7788 22.2111 0
69.9891 34.1084 0
70.1566 31.6217 0
18.3834 13.4804 0
20.6051 14.6184 0
9.40267 28.7131 0
11.6871 27.6789 0
62.0282 24.4628 0
60.7975 22.2878 0
81.731 25.1137 0
79.2296 25.043 0
22.8361 29.2282 0
20.7165 30.5494 0
14.2357 29.579 0
14.3481 32.0555 0
12.6297 12.9941 0
13.6601 15.2524 0
67.3657 22.7538 0
67.8123 20.3017 0
79.3251 21.8087 0
81.7371 22.4837 0
15.2665 21.658 0
14.1967 23.9046 0
21.2558 13.5467 0
18.9031 12.7021 0
44.9067 44.9655 0
42.4106 44.851 0
62.2334 38.0229 0
60.8157 35.9655 0
59.6104 47.2214 0
61.9414 46.3189 0
39.9745 37.7499 0
42.4709 37.7006 0
55.7269 30.2453 0
53.3883 29.3726 0
67.6215 40.7235 0
65.1352 40.9736 0
71.0759 5.64261 0
73.5697 5.69199 0
80.9141 3.28175 0
80.8434 0.808984 0
59.6888 7.06336 0
57.9474 8.85429 0
32.3746 19.5062 0
31.5718 21.8705 0
43.9512 32.4393 0
44.0629 34.9347 0
97.8117 14.1254 0
97.9635 11.6372 0
74.1112 18.5384 0
72.1599 16.9719 0
77.072 31.5181 0
76.3606 33.9024 0
55.96 48.6195 0
56.3199 46.1462 0
40.1789 1.19781 0
37.7617 1.84889 0
72.0406 20.0383 0
74.5162 19.6939 0
41.8356 44.6723 0
44.3147 44.9829 0
87.093 2.74855 0
86.5207 5.16338 0
19.3729 21.939 0
18.9299 19.4971 0
17.5254 36.2642 0
16.2899 34.109 0
26.074 38.0095 0
24.1907 39.6533 0
61.6706 6.30563 0
59.6993 4.76682 0
39.7311 30.0782 0
40.0469 32.5547 0
63.2621 5.52833 0
60.7918 5.90703 0
60.5818 6.6567 0
61.4324 4.30714 0
79.3176 36.9099 0
76.8814 37.4651 0
46.8253 23.3917 0
47.7825 21.0829 0
81.9589 12.3356 0
79.4791 12.6847 0
17.6945 12.9656 0
18.5116 15.3076 0
48.2092 40.6165 0
46.396 42.3358 0
65.3732 19.7982 0
64.1451 17.6208 0
42.9264 40.0279 0
41.7497 42.2329 0
54.5062 16.9652 0
53.4344 19.222 0
22.9171 29.374 0
25.3076 28.6452 0
23.24 14.9198 0
20.7987 14.3741 0
92.333 7.79447 0
90.814 9.7663 0
32.1421 32.074 0
33.6074 30.0513 0
68.7221 28.5564 0
68.957 31.0391 0
97.6754 2.41528 0
96.1884 4.41013 0
67.3607 15.0152 0
69.8223 14.6025 0
78.3533 23.3394 0
78.8128 20.8982 0
37.5717 16.0357 0
35.192 15.2871 0
68.9089 9.32977 0
69.4633 6.89723 0
32.9435 20.2499 0
34.2891 18.1434 0
33.2764 31.6421 0
34.926 29.7661 0
87.892 25.9711 0
89.8664 27.5116 0
84.2679 23.6556 0
86.6922 24.2909 0
38.5188 11.2217 0
36.0913 11.814 0
65.6843 40.3685 0
63.5147 39.1276 0
37.7073 1.59589 0
35.5314 2.82959 0
75.4759 39.9376 0
75.9034 42.3924 0
67.3466 2.21489 0
67.1275 4.70449 0
71.9858 15.2034 0
70.1416 13.5111 0
63.3692 31.9184 0
65.8614 32.0743 0
39.5861 3.20096 0
38.8504 5.59026 0
46.2254 18.7263 0
47.7932 16.7805 0
37.5168 38.7549 0
36.3085 40.9415 0
90.177 7.31458 0
90.9018 4.93786 0
92.5934 20.0493 0
90.1885 19.3443 0
55.8944 19.2487 0
56.1468 16.7623 0
22.8654 18.8035 0
21.4849 20.8811 0
32.7357 16.0587 0
34.5177 17.8001 0
72.9725 38.3597 0
73.3311 35.8949 0
61.7428 40.7346 0
63.1736 42.7831 0
27.4568 32.878 0
29.7514 31.8873 0
27.6426 16.6236 0
25.8 14.9508 0
39.4957 2.40444 0
37.4668 3.86785 0
18.6177 28.4601 0
17.789 26.1174 0
73.4881 2.67204 0
75.2178 0.894596 0
75.7708 42.0452 0
73.273 42.1811 0
57.3537 43.9017 0
54.9329 43.2825 0
27.2504 9.04364 0
28.8801 10.9209 0
24.2049 7.81054 0
23.0415 10.0203 0
76.6137 41.5311 0
74.5034 42.8648 0
30.3787 38.5427 0
32.064 40.3814 0
47.73 27.4586 0
48.5124 29.831 0
78.4337 6.97948 0
80.9147 6.64712 0
76.0112 10.3813 0
76.2774 12.8538 0
69.531 34.0645 0
68.9187 31.646 0
77.727 17.0763 0
79.7116 18.6001 0
84.4856 32.5049 0
85.6513 34.7035 0
64.9049 34.4109 0
64.2221 32.0092 0
32.4096 10.1624 0
29.9127 10.113 0
29.5283 44.3981 0
31.8226 45.3883 0
20.0613 29.0194 0
22.523 28.5887 0
45.1492 28.3011 0
47.3594 27.1406 0
19.2868 33.7975 0
20.5601 31.654 0
66.1297 9.34324 0
66.1535 6.84467 0
61.7015 1.65064 0
64.0554 0.798535 0
80.9514 1.3916 0
79.8131 3.58115 0
40.5926 47.4678 0
38.0953 47.3429 0
58.8021 26.0214 0
59.6203 28.382 0
14.8095 23.3834 0
16.9079 24.7338 0
4.10407 14.4269 0
6.15219 12.9898 0
84.2734 21.6383 0
82.6453 19.747 0
8.18259 0.606702 0
5.72127 0.181058 0
75.4398 20.0508 0
73.0899 20.8951 0
52.4325 9.8276 0
50.7795 7.95267 0
43.3132 5.7198 0
45.7117 5.01148 0
39.2722 2.74729 0
37.8595 4.81065 0
3.32728 8.64227 0
0.889407 8.08334 0
87.8922 12.0985 0
88.2171 14.561 0
39.6987 11.2814 0
37.4338 10.2335 0
57.9432 7.27121 0
56.02 5.67302 0
16.2581 26.7874 0
13.7704 27.0748 0
52.5471 5.29331 0
55.0204 5.66371 0
89.8336 6.96091 0
92.2161 7.73165 0
93.5013 4.64167 0
91.8533 2.76434 0
95.0968 0.409376 0
96.8605 2.18252 0
16.0486 29.2989 0
18.4164 28.503 0
62.4875 9.5024 0
61.7804 11.898 0
18.5812 7.15883 0
17.9428 4.77019 0
70.1855 45.0303 0
67.8063 44.2575 0
79.6832 8.34188 0
80.5725 6.03013 0
91.8968 15.6456 0
89.7385 14.3762 0
59.5378 8.68728 0
59.3379 6.19502 0
21.3952 28.4504 0
23.6986 29.4112 0
24.8639 41.9408 0
26.3647 39.9444 0
22.3747 13.2259 0
24.5734 14.4003 0
9.86002 12.0664 0
11.04 9.87186 0
33.5164 45.3023 0
34.4749 42.9964 0
67.6217 35.7652 0
69.8852 36.8256 0
25.3381 10.6471 0
26.8523 8.65246 0
84.0228 24.4544 0
82.6823 22.3557 0
87.5748 2.03807 0
89.3562 3.7885 0
51.1091 40.8525 0
53.4446 41.7385 0
82.2011 9.39853 0
80.1136 8.01237 0
65.1145 14.4703 0
66.1197 16.7594 0
42.9475 6.65537 0
42.7641 4.16263 0
53.5118 5.37522 0
55.4254 3.76647 0
44.3443 38.768 0
42.8769 40.7909 0
90.5832 10.8233 0
92.5574 9.29945 0
23.2598 16.8255 0
24.7934 18.7833 0
23.7699 10.0268 0
23.811 7.54217 0
60.7151 35.5931 0
60.9534 38.0794 0
44.6486 1.0827 0
42.293 1.9291 0
78.2959 24.1909 0
79.0296 21.8169 0
68.8648 37.7689 0
68.7609 35.277 0
27.5526 6.39887 0
29.4608 4.77493 0
58.9307 13.1269 0
59.0233 15.6245 0
57.7191 9.40141 0
59.6495 10.9902 0
51.7597 19.391 0
54.1713 20.0339 0
50.6769 38.0453 0
48.1803 38.0439 0
47.4651 22.701 0
46.4148 24.9685 0
22.627 21.0308 0
22.8335 23.5076 0
81.0255 2.10709 0
78.568 1.60264 0
95.2701 4.86372 0
95.418 7.34888 0
48.3791 41.0002 0
46.7837 42.9238 0
26.3697 16.5772 0
25.2299 18.7972 0
89.3215 21.438 0
88.3578 23.724 0
43.8454 3.45917 0
46.1157 4.50763 0
53.2833 27.7147 0
55.5188 28.8259 0
78.2839 8.30215 0
79.9488 6.45971 0
13.684 13.9763 0
16.1813 14.1883 0
54.0796 47.3624 0
53.9839 44.8647 0
52.4095 5.87132 0
49.9861 5.25362 0
54.108 40.4157 0
51.8113 41.3964 0
8.3274 21.8807 0
6.37302 23.4454 0
11.123 27.5773 0
8.63054 27.3862 0
49.7342 47.0464 0
47.2351 47.0745 0
43.562 18.2362 0
45.9073 19.0876 0
28.4269 43.3125 0
27.7403 40.917 0
87.1355 31.3671 0
86.4183 28.9979 0
85.7956 22.3815 0
86.6589 20.0558 0
85.9767 0.788878 0
88.4114 1.36658 0
83.5107 35.5379 0
84.5406 33.2798 0
24.1547 32.5282 0
25.7202 30.5835 0
45.601 42.1218 0
47.1177 44.107 0
21.4026 34.805 0
23.6808 33.7749 0
6.27238 12.0694 0
4.35902 10.4692 0
34.5426 14.5729 0
36.1563 12.6617 0
31.2788 45.781 0
33.0051 43.9738 0
18.2858 22.8853 0
20.7035 23.5263 0
10.2889 22.4717 0
11.9906 20.641 0
50.2245 7.46748 0
47.8897 6.57391 0
47.4981 30.6422 0
45.167 29.7525 0
38.8678 20.8563 0
41.2773 20.2009 0
43.597 9.81099 0
41.3914 10.9866 0
77.4868 36.7916 0
79.2584 35.0415 0
39.9108 8.78432 0
39.0812 11.1432 0
74.8649 40.2199 0
73.6114 38.0612 0
60.7848 11.702 0
58.9144 13.3543 0
96.2555 12.5016 0
94.0313 11.3532 0
43.7698 25.2018 0
41.2747 25.2166 0
54.2779 42.7161 0
56.7513 42.368 0
84.5739 23.4442 0
82.0732 23.5889 0
2.50932 9.58916 0
4.57479 8.17843 0
82.1234 4.92025 0
84.6124 5.19858 0
36.5647 16.3007 0
38.6848 17.6144 0
44.0123 9.24734 0
42.0252 10.7641 0
21.2067 26.3676 0
22.2093 28.6443 0
43.06 27.0717 0
45.3735 26.134 0
15.0524 19.5513 0
14.879 22.0269 0
20.1589 8.54078 0
21.0246 6.20607 0
12.2404 24.7378 0
10.9778 22.6013 0
49.8771 41.3654 0
48.686 39.169 0
9.59928 24.3613 0
9.40612 26.841 0
35.0968 43.8851 0
32.8853 45.0519 0
13.4085 18.2454 0
11.2195 17.0447 0
12.2693 23.7156 0
12.7043 21.2701 0
84.2154 17.3556 0
84.0562 14.879 0
97.112 15.4196 0
94.9065 14.2365 0
76.1765 36.588 0
77.565 38.6626 0
4.7196 2.93663 0
2.2636 3.42131 0
13.9096 26.7037 0
11.42 26.4322 0
9.90412 5.16937 0
8.63567 7.31586 0
87.0111 9.94703 0
86.7028 7.48334 0
50.8089 18.8115 0
49.8851 16.4891 0
22.8281 2.93125 0
23.5067 0.523476 0
24.0616 40.2798 0
21.581 39.9605 0
4.30258 10.4987 0
1.8926 11.1758 0
73.9946 27.9908 0
72.4258 29.9256 0
51.6081 16.4598 0
49.4402 17.698 0
94.6898 5.50648 0
96.5663 7.15895 0
92.4068 0.897968 0
90.0079 1.58963 0
54.6798 27.9137 0
57.0053 28.8211 0
3.92883 2.10605 0
2.80575 4.33434 0
25.6209 41.9275 0
28.1056 41.6356 0
24.312 33.0861 0
25.78 35.0973 0
64.8587 37.7344 0
63.0451 36.0154 0
45.7851 38.8638 0
46.3313 36.4253 0
59.1391 39.3005 0
58.3359 41.6656 0
42.8432 19.3299 0
41.6432 17.1406 0
48.5262 16.8071 0
47.4677 14.5433 0
92.8752 4.85178 0
91.3526 6.8206 0
17.6601 6.58731 0
16.0853 4.66602 0
31.5662 30.6111 0
33.0814 28.6256 0
49.5583 45.0538 0
50.5155 47.3627 0
51.6927 13.7307 0
49.2483 14.2376 0
35.2076 5.47831 0
34.5559 7.89265 0
90.6947 7.73752 0
90.2618 10.1831 0
55.254 45.6779 0
54.0041 43.5131 0
16.726 18.1501 0
18.9141 16.9315 0
14.6149 7.04696 0
14.276 4.59011 0
24.3056 34.2711 0
21.8135 34.4647 0
62.6135 33.5177 0
60.6471 35.0533 0
11.5575 19.6361 0
13.6636 20.9728 0
76.8264 0.381052 0
74.3413 0.272654 0
59.9103 25.9865 0
57.6589 24.9062 0
70.4511 26.9798 0
67.9658 27.2209 0
46.2322 22.7478 0
46.9776 20.362 0
76.5761 3.83287 0
74.1799 4.49435 0
47.8512 15.0602 0
50.133 16.073 0
88.178 13.5503 0
89.9533 11.8036 0
71.0179 0.0717034 0
73.3272 1.03016 0
56.2769 45.6113 0
57.2067 43.2921 0
68.1728 3.25166 0
65.9499 2.10434 0
22.8597 17.627 0
24.7786 16.021 0
81.1777 38.6256 0
83.1555 37.1074 0
49.4123 2.91818 0
51.1128 4.75143 0
66.0211 3.31463 0
63.6889 2.41286 0
53.2975 12.1081 0
53.0642 9.61871 0
12.6034 15.3941 0
10.7842 17.109 0
43.1755 4.62294 0
43.6216 7.08221 0
56.1553 20.5333 0
58.6026 21.0247 0
60.8291 22.3363 0
58.3521 22.0278 0
28.8378 27.1449 0
27.0213 25.4392 0
40.708 6.89908 0
38.2322 7.23662 0
17.4001 2.34574 0
19.8823 2.01799 0
42.8478 25.7975 0
40.3741 26.1282 0
7.0202 17.6803 0
8.34971 19.7824 0
20.3044 11.9653 0
22.1488 10.2733 0
67.3868 39.9836 0
65.4788 41.5925 0
45.1294 41.4697 0
45.9845 43.8174 0
70.7906 17.2103 0
73.1729 16.465 0
88.2878 4.86689 0
90.0287 6.6571 0
49.8863 20.1324 0
48.1648 21.9421 0
56.3496 37.6601 0
56.351 40.1588 0
82.3496 25.9853 0
80.8274 27.955 0
39.577 4.39946 0
41.5658 5.91184 0
55.1616 43.5284 0
57.0027 41.8406 0
55.3752 43.4134 0
57.0556 41.5654 0
25.0647 15.3595 0
23.2449 13.6648 0
14.3771 27.7722 0
13.5449 30.1068 0
52.998 17.0047 0
51.1955 18.7329 0
32.5383 42.7855 0
34.8894 43.6312 0
19.7168 10.8457 0
21.4752 12.6035 0
61.511 41.0933 0
63.7459 39.9799 0
32.9778 27.421 0
31.0313 28.9878 0
31.0265 21.1707 0
31.9982 23.4643 0
72.0414 27.4134 0
71.2104 29.761 0
38.0946 13.0687 0
40.5666 13.4145 0
47.3034 47.9259 0
45.4838 46.2128 0
70.6014 11.5064 0
70.4647 13.9951 0
98.6699 10.1888 0
96.6069 8.77451 0
96.4742 15.9103 0
93.9724 15.9725 0
58.9438 10.1949 0
59.6785 12.5848 0
54.9897 18.3477 0
56.4697 20.3616 0
53.9052 41.6101 0
56.3678 41.1948 0
5.03973 4.42713 0
7.52122 4.10296 0
84.4984 18.7911 0
86.8246 19.7251 0
19.3069 30.2045 0
19.5339 32.6803 0
64.3982 35.7865 0
63.1508 33.6221 0
66.4639 23.4804 0
68.96 23.4001 0
60.3753 25.4372 0
62.6689 24.4571 0
55.9093 21.1354 0
57.6002 19.2997 0
21.5927 36.3267 0
19.0988 36.523 0
55.9421 32.2996 0
58.3725 31.7346 0
67.9448 1.67822 0
70.1318 2.89459 0
16.2189 6.25865 0
17.616 4.19899 0
91.8097 24.2155 0
91.1341 26.6058 0
89.1993 19.1345 0
86.7274 18.7132 0
88.0903 12.5811 0
86.5294 14.5175 0
76.3968 18.8574 0
77.5911 16.6788 0
70.9908 20.9791 0
70.0793 23.296 0
26.6441 25.4841 0
25.4264 27.6613 0
55.7956 26.322 0
55.5486 28.8077 0
59.161 43.0628 0
57.5194 44.9457 0
66.206 18.7495 0
68.2495 17.323 0
81.2448 33.5505 0
79.7084 31.5852 0
50.428 8.98992 0
49.7704 11.402 0
26.0857 27.4878 0
24.0535 28.9408 0
49.65 27.2833 0
49.8898 24.7957 0
89.2946 25.4698 0
91.7952 25.3948 0
78.9555 32.0863 0
76.6249 32.9767 0
76.1839 37.4043 0
76.623 34.9546 0
22.6833 1.46903 0
23.5171 3.80088 0
17.2422 11.9466 0
15.7622 9.95205 0
76.5176 35.7567 0
78.3806 34.1033 0
25.5412 42.7691 0
23.7576 41.0262 0
24.9575 3.54955 0
23.1377 1.8765 0
86.8881 24.4398 0
85.0324 22.7665 0
84.0527 33.4671 0
83.1663 31.1425 0
67.9953 9.14432 0
65.8951 7.78291 0
6.42229 3.78708 0
4.65059 5.55032 0
88.4852 7.26153 0
89.3683 4.94009 0
68.072 40.82 0
69.9078 39.1309 0
33.6006 18.8492 0
33.5017 21.3425 0
18.4046 18.3543 0
20.0065 20.2574 0
51.0054 20.6444 0
51.9933 18.349 0
81.1857 27.2179 0
78.9879 26.0298 0
33.6648 33.6684 0
31.485 34.8905 0
42.0854 36.6453 0
44.2733 35.4406 0
9.4856 8.09113 0
8.11261 6.01659 0
46.3963 9.03765 0
43.921 9.37655 0
38.9241 45.7891 0
36.7413 44.5726 0
56.6691 44.7673 0
57.0815 42.3027 0
50.8192 7.77453 0
52.141 9.89629 0
69.3002 9.58087 0
68.188 11.8096 0
52.7856 10.6566 0
53.9926 8.46784 0
87.957 0.590346 0
87.4391 3.01894 0
87.5606 29.6674 0
88.4874 27.3753 0
27.7936 27.8115 0
29.3481 25.8572 0
41.1427 3.19298 0
43.5652 2.56617 0
47.3861 29.2642 0
44.8924 29.1863 0
44.9059 23.1564 0
42.4335 22.8234 0
57.5471 36.1847 0
55.6859 34.5185 0
79.9239 4.77177 0
81.3139 6.84138 0
32.9882 1.49193 0
31.3281 3.36295 0
37.9946 49.7028 0
37.9205 51.2705 0
37.9205 51.2705 0
37.7098 52.8259 0
37.7098 52.8259 0
37.3639 54.3572 0
37.3639 54.3572 0
36.8857 55.8524 0
36.8857 55.8524 0
36.2788 57.3003 0
36.2788 57.3003 0
35.5479 58.6898 0
35.5479 58.6898 0
34.6987 60.0104 0
34.6987 60.0104 0
33.7375 61.252 0
33.7375 61.252 0
32.6718 62.4052 0
32.6718 62.4052 0
31.5097 63.4612 0
31.5097 63.4612 0
30.26 64.412 0
30.26 64.412 0
28.9322 65.2505 0
28.9322 65.2505 0
27.5365 65.9703 0
27.5365 65.9703 0
26.0834 66.5658 0
26.0834 66.5658 0
24.584 67.0327 0
24.584 67.0327 0
23.0496 67.3674 0
23.0496 67.3674 0
21.492 67.5674 0
21.492 67.5674 0
19.9228 67.6311 0
19.9228 67.6311 0
18.354 67.5581 0
18.354 67.5581 0
16.7976 67.3489 0
16.7976 67.3489 0
15.2652 67.0051 0
15.2652 67.0051 0
13.7686 66.5293 0
13.7686 66.5293 0
12.3191 65.9251 0
12.3191 65.9251 0
10.9277 65.1971 0
10.9277 65.1971 0
9.6049 64.3508 0
9.6049 64.3508 0
8.36086 63.3926 0
8.36086 63.3926 0
7.205 62.3297 0
7.205 62.3297 0
6.14614 61.1702 0
6.14614 61.1702 0
5.19236 59.923 0
5.19236 59.923 0
4.35089 58.5974 0
4.35089 58.5974 0
3.62821 57.2036 0
3.62821 57.2036 0
3.02987 55.7522 0
3.02987 55.7522 0
2.56045 54.2542 0
2.56045 54.2542 0
2.22354 52.721 0
2.22354 52.721 0
2.02184 51.1644 0
2.02184 51.1644 0
1.95691 49.5962 0
1.95691 49.5962 0
2.02928 48.0284 0
2.02928 48.0284 0
2.23848 46.4732 0
2.23848 46.4732 0
2.58299 44.9425 0
2.58299 44.9425 0
3.06019 43.4478 0
3.06019 43.4478 0
3.66654 42.0011 0
3.66654 42.0011 0
4.3974 40.6135 0
4.3974 40.6135 0
5.24723 39.2958 0
5.24723 39.2958 0
6.20966 38.0586 0
6.20966 38.0586 0
7.2771 36.912 0
7.2771 36.912 0
8.44159 35.8652 0
8.44159 35.8652 0
9.69421 34.9286 0
9.69421 34.9286 0
11.0257 34.1101 0
11.0257 34.1101 0
12.4284 33.4122 0
12.4284 33.4122 0
13.8851 32.8245 0
13.8851 32.8245 0
15.3831 32.357 0
15.3831 32.357 0
16.915 32.019 0
16.915 32.019 0
18.4707 31.8141 0
18.4707 31.8141 0
20.0382 31.7444 0
20.0382 31.7444 0
21.606 31.8109 0
21.606 31.8109 0
23.1616 32.0132 0
23.1616 32.0132 0
24.6931 32.3497 0
24.6931 32.3497 0
26.1892 32.8182 0
26.1892 32.8182 0
27.6382 33.4152 0
27.6382 33.4152 0
29.029 34.1366 0
29.029 34.1366 0
30.351 34.977 0
30.351 34.977 0
31.5944 35.9297 0
31.5944 35.9297 0
32.7496 36.9878 0
32.7496 36.9878 0
33.8078 38.1431 0
33.8078 38.1431 0
34.7611 39.3868 0
34.7611 39.3868 0
35.6021 40.7094 0
35.6021 40.7094 0
36.3246 42.1008 0
36.3246 42.1008 0
36.9228 43.5503 0
36.9228 43.5503 0
37.3923 45.047 0
37.3923 45.047 0
37.7292 46.5791 0
37.7292 46.5791 0
37.9307 48.135 0
37.9307 48.135 0
37.9946 49.7028 0
98.0432 49.5958 0
97.9782 51.1641 0
97.9782 51.1641 0
97.7765 52.7207 0
97.7765 52.7207 0
97.4396 54.2538 0
97.4396 54.2538 0
96.9702 55.7518 0
96.9702 55.7518 0
96.3718 57.2033 0
96.3718 57.2033 0
95.6492 58.597 0
95.6492 58.597 0
94.8077 59.9226 0
94.8077 59.9226 0
93.8539 61.1698 0
93.8539 61.1698 0
92.795 62.3293 0
92.795 62.3293 0
91.6391 63.3921 0
91.6391 63.3921 0
90.3951 64.3504 0
90.3951 64.3504 0
89.0723 65.1967 0
89.0723 65.1967 0
87.6809 65.9247 0
87.6809 65.9247 0
86.2314 66.5289 0
86.2314 66.5289 0
84.7348 67.0046 0
84.7348 67.0046 0
83.2024 67.3484 0
83.2024 67.3484 0
81.646 67.5576 0
81.646 67.5576 0
80.0772 67.6306 0
80.0772 67.6306 0
78.508 67.5669 0
78.508 67.5669 0
76.9504 67.3669 0
76.9504 67.3669 0
75.416 67.0322 0
75.416 67.0322 0
73.9166 66.5653 0
73.9166 66.5653 0
72.4635 65.9697 0
72.4635 65.9697 0
71.0678 65.2499 0
71.0678 65.2499 0
69.74 64.4114 0
69.74 64.4114 0
68.4903 63.4606 0
68.4903 63.4606 0
67.3282 62.4045 0
67.3282 62.4045 0
66.2625 61.2513 0
66.2625 61.2513 0
65.3014 60.0097 0
65.3014 60.0097 0
64.4521 58.6892 0
64.4521 58.6892 0
63.7213 57.2996 0
63.7213 57.2996 0
63.1144 55.8517 0
63.1144 55.8517 0
62.6362 54.3565 0
62.6362 54.3565 0
62.2904 52.8253 0
62.2904 52.8253 0
62.0797 51.2698 0
62.0797 51.2698 0
62.0057 49.7021 0
62.0057 49.7021 0
62.0696 48.1343 0
62.0696 48.1343 0
62.2711 46.5784 0
62.2711 46.5784 0
62.6081 45.0463 0
62.6081 45.0463 0
63.0775 43.5496 0
63.0775 43.5496 0
63.6757 42.1001 0
63.6757 42.1001 0
64.3981 40.7087 0
64.3981 40.7087 0
65.2391 39.3861 0
65.2391 39.3861 0
66.1923 38.1424 0
66.1923 38.1424 0
67.2505 36.9872 0
67.2505 36.9872 0
68.4057 35.9292 0
68.4057 35.9292 0
69.6491 34.9765 0
69.6491 34.9765 0
70.9712 34.1363 0
70.9712 34.1363 0
72.362 33.4149 0
72.362 33.4149 0
73.8109 32.8175 0
73.8109 32.8175 0
75.307 32.3488 0
75.307 32.3488 0
76.8387 32.012 0
76.8387 32.012 0
78.3943 31.8099 0
78.3943 31.8099 0
79.9619 31.7436 0
79.9619 31.7436 0
81.5296 31.8133 0
81.5296 31.8133 0
83.0853 32.0184 0
83.0853 32.0184 0
84.6176 32.3564 0
84.6176 32.3564 0
86.1156 32.8241 0
86.1156 32.8241 0
87.5713 33.4122 0
87.5713 33.4122 0
88.9747 34.1099 0
88.9747 34.1099 0
90.3064 34.929 0
90.3064 34.929 0
91.5586 35.8653 0
91.5586 35.8653 0
92.723 36.9115 0
92.723 36.9115 0
93.7906 38.0583 0
93.7906 38.0583 0
94.7529 39.2955 0
94.7529 39.2955 0
95.6028 40.6133 0
95.6028 40.6133 0
96.3337 42.0009 0
96.3337 42.0009 0
96.94 43.4475 0
96.94 43.4475 0
97.4171 44.9421 0
97.4171 44.9421 0
97.7616 46.4729 0
97.7616 46.4729 0
97.9708 48.0281 0
97.9708 48.0281 0
98.0432 49.5958 0
      </DataArray>
    </Points>
    <Cells>
      <DataArray type="Int32" Name="connectivity" format="ascii">
247 120 114 753 754 755 
213 114 214 748 749 750 
487 220 257 647 745 730 
257 115 260 741 742 743 
246 300 116 738 739 740 
212 116 247 731 732 733 
246 257 117 724 725 726 
299 117 312 719 720 721 
303 310 118 716 717 718 
248 118 256 711 712 713 
513 495 483 150 224 119 
507 513 483 151 119 184 
248 120 302 704 705 706 
221 258 121 1196 1197 1198 
259 121 313 1191 1192 1193 
464 430 432 332 409 122 
436 464 432 326 122 408 
346 1189 123 1186 1187 1188 
298 123 351 1181 1182 1183 
71 311 124 699 700 701 
65 124 372 692 693 694 
79 369 125 687 688 689 
684 125 309 680 681 682 
211 243 126 1178 1179 1180 
244 126 297 1173 1174 1175 
462 474 436 240 281 127 
438 462 436 294 127 327 
512 515 514 131 129 134 
513 509 511 130 132 135 
514 515 510 129 139 128 
508 514 510 148 128 147 
496 500 514 146 133 149 
513 499 495 136 145 150 
507 509 513 143 130 151 
505 491 497 141 142 154 
504 515 512 137 131 155 
174 503 511 1151 156 144 
512 514 500 134 133 159 
499 513 511 136 135 162 
494 515 504 138 137 165 
171 510 515 1164 139 166 
140 167 168 678 674 675 
167 492 168 672 661 674 
491 505 506 141 153 169 
177 498 497 656 164 170 
173 490 174 1156 1149 1171 
217 489 503 1126 176 175 
495 499 498 145 163 178 
501 500 496 158 146 179 
172 486 181 1162 1145 1169 
496 514 508 149 148 183 
480 481 140 227 152 187 
479 506 505 188 153 190 
477 505 497 191 154 193 
504 512 475 155 160 194 
472 511 503 161 156 197 
501 502 471 157 199 200 
500 501 470 158 201 202 
475 512 500 160 159 203 
499 511 472 162 161 204 
498 499 469 163 205 206 
497 498 468 164 207 208 
494 504 474 165 195 210 
211 493 171 1165 1161 1166 
167 180 212 667 668 669 
168 492 213 661 662 663 
214 488 177 657 653 658 
172 171 215 1158 1159 1160 
173 185 216 1153 1154 1155 
174 490 217 1149 1127 1150 
473 503 489 196 176 218 
177 488 219 653 643 654 
220 487 180 647 648 649 
182 181 221 1142 1143 1144 
496 508 115 183 222 747 
225 484 185 886 1138 1139 
482 502 481 198 186 226 
506 480 140 189 187 677 
480 506 479 189 188 228 
479 505 478 190 192 229 
478 505 477 192 191 230 
477 497 476 193 209 231 
474 504 475 195 194 232 
472 503 473 197 196 233 
471 502 482 199 198 234 
470 501 471 201 200 235 
475 500 470 203 202 236 
469 499 472 205 204 237 
468 498 469 207 206 238 
476 497 468 209 208 239 
494 474 461 210 241 242 
215 245 249 1133 1134 1135 
216 250 251 1128 1129 1130 
217 252 253 1123 1124 1125 
307 451 473 1047 255 254 
223 219 256 640 641 642 
583 263 223 1074 637 628 
582 261 264 1120 1121 1122 
445 482 481 265 226 268 
444 481 480 267 227 270 
443 480 479 269 228 272 
442 479 478 271 229 274 
441 478 477 273 230 276 
440 477 476 275 231 278 
474 475 436 232 280 281 
472 473 435 233 283 284 
471 482 446 234 266 286 
470 471 434 235 287 288 
464 475 470 279 236 289 
469 472 463 237 285 290 
468 469 433 238 291 292 
439 476 468 277 239 293 
461 474 462 241 240 295 
296 460 243 1071 1116 1117 
245 244 298 1107 1108 1109 
258 249 304 1100 1101 1102 
250 262 305 1095 1096 1097 
252 251 306 1088 1089 1090 
253 452 307 1084 1044 1085 
437 473 451 282 255 308 
633 314 591 871 832 1082 
262 261 316 1075 1076 1077 
318 629 578 854 810 809 
446 482 445 266 265 319 
445 481 444 268 267 320 
444 480 443 270 269 321 
443 479 442 272 271 322 
442 478 441 274 273 323 
441 477 440 276 275 324 
440 476 439 278 277 325 
436 475 464 280 279 326 
435 473 437 283 282 328 
463 472 435 285 284 329 
434 471 446 287 286 330 
464 470 434 289 288 331 
433 469 463 291 290 334 
439 468 433 293 292 335 
462 438 43 294 338 339 
461 462 45 295 340 341 
296 342 343 1068 1069 1070 
297 344 345 1063 1064 1065 
299 311 347 621 622 623 
301 300 348 616 617 618 
302 301 349 609 610 611 
309 303 350 602 603 604 
304 352 353 1058 1059 1060 
305 358 359 1053 1054 1055 
306 361 362 1048 1049 1050 
307 452 364 1044 934 1045 
437 451 109 308 367 368 
599 317 597 848 850 1042 
592 315 593 841 840 1040 
313 355 375 1035 1036 1037 
585 586 587 1032 1033 1034 
356 316 378 1027 1028 1029 
578 579 580 1024 1025 1026 
3 446 445 381 319 383 
7 445 444 384 320 386 
11 444 443 387 321 389 
15 443 442 390 322 392 
19 442 441 393 323 395 
23 441 440 396 324 398 
27 440 439 399 325 401 
432 438 436 336 327 408 
435 437 431 328 337 410 
429 463 435 333 329 411 
434 446 0 330 382 413 
430 464 434 332 331 414 
433 463 429 334 333 415 
1 439 433 402 335 416 
39 438 432 404 336 417 
431 437 940 337 407 418 
43 438 41 338 405 42 
45 462 43 340 339 44 
47 49 342 48 1019 1020 
344 343 51 1009 1010 1011 
346 345 1013 1000 1001 1002 
348 347 702 569 570 571 
350 349 75 560 561 562 
352 351 55 991 992 993 
354 353 979 984 985 986 
355 354 995 975 976 977 
357 356 89 968 969 970 
358 357 956 959 960 961 
360 359 972 952 953 954 
361 360 95 943 944 945 
363 362 99 936 937 938 
364 363 103 927 928 929 
107 451 105 366 365 106 
109 451 107 367 366 108 
931 437 109 406 368 110 
370 369 548 553 554 555 
371 370 690 544 545 546 
372 374 532 537 538 539 
374 373 696 528 529 530 
376 375 61 920 921 922 
924 523 524 915 916 917 
378 380 85 908 909 910 
516 911 518 903 904 905 
0 446 3 382 381 2 
3 445 5 383 385 4 
5 445 7 385 384 6 
7 444 9 386 388 8 
9 444 11 388 387 10 
11 443 13 389 391 12 
13 443 15 391 390 14 
15 442 17 392 394 16 
17 442 19 394 393 18 
19 441 21 395 397 20 
21 441 23 397 396 22 
23 440 25 398 400 24 
25 440 27 400 399 26 
27 439 29 401 403 28 
29 439 1 403 402 30 
41 438 39 405 404 40 
940 437 931 407 406 932 
432 430 31 409 423 419 
429 435 431 411 410 412 
93 429 431 426 412 422 
430 434 0 414 413 424 
1 433 429 416 415 428 
39 432 37 417 420 38 
947 431 940 421 418 941 
37 432 31 420 419 36 
93 431 947 422 421 948 
31 430 33 423 425 32 
33 430 0 425 424 34 
112 429 93 427 426 111 
1 429 112 428 427 113 
220 115 257 746 741 745 
518 899 519 896 897 898 
521 519 380 889 890 891 
630 264 225 882 883 884 
491 177 497 659 170 142 
481 502 140 186 676 152 
744 182 635 879 874 875 
120 247 467 753 735 707 
247 114 492 755 752 736 
114 120 488 754 710 751 
114 213 492 748 662 752 
213 214 491 750 660 665 
214 114 488 749 751 657 
115 220 496 746 652 747 
257 260 466 743 632 727 
182 485 635 878 870 874 
300 246 458 738 728 619 
246 116 487 740 737 729 
116 300 467 739 620 734 
116 212 487 731 670 737 
212 247 492 733 736 671 
247 116 467 732 734 735 
257 246 487 724 729 730 
246 117 458 726 723 728 
117 257 466 725 727 722 
117 299 458 719 625 723 
299 312 449 721 595 626 
312 117 466 720 722 596 
310 303 450 716 608 600 
303 118 457 718 715 605 
118 310 465 717 601 714 
118 248 457 711 708 715 
248 256 488 713 644 709 
256 118 465 712 714 645 
120 248 488 704 709 710 
248 302 457 706 613 708 
302 120 467 705 707 614 
311 71 573 699 72 624 
71 124 63 701 698 70 
124 311 449 700 627 695 
124 65 63 692 64 698 
65 372 67 694 542 66 
372 124 449 693 695 543 
369 79 81 687 80 556 
79 125 73 689 686 78 
125 369 450 688 559 683 
125 684 73 680 685 686 
684 309 564 682 606 565 
309 125 450 681 683 607 
167 140 502 678 676 679 
501 167 502 673 679 157 
140 168 506 675 666 677 
180 167 501 667 673 651 
167 212 492 669 671 672 
212 180 487 668 648 670 
506 168 213 666 663 664 
491 506 213 169 664 665 
491 214 177 660 658 659 
498 177 219 656 654 655 
495 498 219 178 655 646 
496 220 180 652 649 650 
501 496 180 179 650 651 
219 223 495 640 639 646 
223 256 465 642 645 636 
256 219 488 641 643 644 
495 223 263 639 637 638 
483 495 263 224 638 631 
633 635 634 867 868 869 
588 634 259 860 861 862 
629 318 630 854 855 856 
311 299 449 621 626 627 
299 347 458 623 577 625 
347 311 573 622 624 572 
300 301 467 616 615 620 
301 348 69 618 575 612 
348 300 458 617 619 576 
301 302 467 609 614 615 
302 349 457 611 568 613 
349 301 69 610 612 563 
303 309 450 602 607 608 
309 350 564 604 566 606 
350 303 457 603 605 567 
597 317 584 850 807 851 
599 550 581 845 846 847 
371 310 450 598 600 551 
590 315 592 835 841 842 
312 373 449 594 536 595 
593 589 531 836 837 838 
585 590 591 827 828 829 
587 523 589 818 819 820 
586 588 527 811 812 813 
578 583 584 802 803 804 
580 521 582 793 794 795 
579 581 516 784 785 786 
347 348 458 569 576 577 
348 702 69 571 703 575 
702 347 573 570 572 574 
349 350 457 560 567 568 
350 75 564 562 76 566 
75 349 69 561 563 74 
369 370 450 553 552 559 
370 548 557 555 549 547 
548 369 81 554 556 82 
370 371 450 544 551 552 
778 77 550 783 779 780 
690 370 557 545 547 558 
374 372 449 537 543 535 
372 532 67 539 68 542 
532 374 540 538 534 533 
373 374 449 528 535 536 
374 696 540 530 541 534 
531 59 773 772 777 774 
524 527 526 765 766 767 
762 526 376 756 757 758 
744 635 633 875 867 873 
260 744 633 877 873 872 
211 171 515 1166 166 1167 
494 211 515 1168 1167 138 
509 174 511 1152 144 132 
174 217 503 1150 175 1151 
629 583 578 1073 802 810 
465 583 223 805 628 636 
489 307 473 1086 254 218 
258 221 486 1196 1146 1105 
221 121 485 1198 1195 1147 
121 258 455 1197 1104 1194 
121 259 485 1191 864 1195 
259 313 448 1193 1038 865 
313 121 455 1192 1194 1039 
1189 346 1018 1186 1006 1023 
346 123 459 1188 1185 1007 
123 1189 35 1187 1190 1184 
123 298 459 1181 1111 1185 
298 351 456 1183 999 1112 
351 123 35 1182 1184 994 
243 211 494 1178 1168 1119 
211 126 493 1180 1177 1165 
126 243 460 1179 1116 1176 
126 244 493 1173 1115 1177 
244 297 459 1175 1066 1110 
297 126 460 1174 1176 1067 
173 174 509 1171 1152 1172 
507 173 509 1157 1172 143 
510 172 181 1163 1169 1170 
508 510 181 147 1170 1148 
171 172 510 1158 1163 1164 
172 215 486 1160 1136 1162 
215 171 493 1159 1161 1137 
185 173 507 1153 1157 1141 
173 216 490 1155 1131 1156 
216 185 484 1154 1138 1132 
181 182 508 1142 881 1148 
182 221 485 1144 1147 878 
221 181 486 1143 1145 1146 
225 185 507 1139 1141 1140 
483 225 507 887 1140 184 
245 215 493 1133 1137 1114 
215 249 486 1135 1106 1136 
249 245 456 1134 1113 1103 
250 216 484 1128 1132 1099 
216 251 490 1130 1094 1131 
251 250 453 1129 1098 1091 
252 217 490 1123 1127 1093 
217 253 489 1125 1087 1126 
253 252 452 1124 1092 1084 
261 582 447 1120 797 1078 
582 264 318 1122 888 798 
264 261 484 1121 1081 885 
461 296 243 1072 1117 1118 
494 461 243 242 1118 1119 
244 245 493 1107 1114 1115 
245 298 456 1109 1112 1113 
298 244 459 1108 1110 1111 
249 258 486 1100 1105 1106 
258 304 455 1102 1061 1104 
304 249 456 1101 1103 1062 
262 250 484 1095 1099 1080 
250 305 453 1097 1056 1098 
305 262 454 1096 1079 1057 
251 252 490 1088 1093 1094 
252 306 452 1090 1051 1092 
306 251 453 1089 1091 1052 
489 253 307 1087 1085 1086 
260 633 591 872 1082 1083 
466 260 591 632 1083 831 
261 262 484 1075 1080 1081 
262 316 454 1077 1031 1079 
316 261 447 1076 1078 1030 
583 629 263 1073 859 1074 
342 296 461 1068 1072 1022 
296 343 460 1070 1017 1071 
343 342 49 1069 1019 1012 
344 297 460 1063 1067 1016 
297 345 459 1065 1008 1066 
345 344 1004 1064 1015 1003 
352 304 456 1058 1062 998 
304 353 455 1060 990 1061 
353 352 57 1059 997 987 
358 305 454 1053 1057 966 
305 359 453 1055 958 1056 
359 358 963 1054 965 955 
361 306 453 1048 1052 950 
306 362 452 1050 942 1051 
362 361 97 1049 949 939 
451 307 364 1047 1045 1046 
105 451 364 365 1046 933 
371 599 597 849 1042 1043 
310 371 597 598 1043 852 
592 593 373 1040 839 1041 
312 592 373 844 1041 594 
355 313 455 1035 1039 982 
313 375 448 1037 926 1038 
375 355 53 1036 981 923 
586 585 314 1032 833 816 
585 587 315 1034 824 834 
587 586 377 1033 815 825 
316 356 454 1027 974 1031 
356 378 83 1029 913 971 
378 316 447 1028 1030 914 
579 578 317 1024 808 791 
578 580 318 1026 799 809 
580 579 379 1025 790 800 
45 47 342 46 1020 1021 
461 45 342 341 1021 1022 
343 344 460 1009 1016 1017 
344 51 1004 1011 52 1015 
51 343 49 1010 1012 50 
345 346 459 1000 1007 1008 
346 1013 1018 1002 1014 1006 
1013 345 1004 1001 1003 1005 
351 352 456 991 998 999 
352 55 57 993 56 997 
55 351 35 992 994 54 
353 354 455 984 983 990 
354 979 988 986 980 978 
979 353 57 985 987 58 
354 355 455 975 982 983 
355 995 53 977 996 981 
995 354 988 976 978 989 
356 357 454 968 967 974 
357 89 91 970 90 962 
89 356 83 969 971 88 
357 358 454 959 966 967 
358 956 963 961 957 965 
956 357 91 960 962 92 
359 360 453 952 951 958 
360 972 87 954 973 946 
972 359 963 953 955 964 
360 361 453 943 950 951 
361 95 97 945 96 949 
95 360 87 944 946 94 
362 363 452 936 935 942 
363 99 101 938 100 930 
99 362 97 937 939 98 
363 364 452 927 934 935 
364 103 105 929 104 933 
103 363 101 928 930 102 
375 376 448 920 760 926 
376 61 522 922 62 761 
61 375 53 921 923 60 
523 924 59 915 925 821 
924 524 918 917 769 919 
524 523 377 916 826 770 
380 378 447 908 914 894 
378 85 83 910 84 913 
85 380 517 909 893 86 
911 516 77 903 788 912 
516 518 379 905 900 789 
518 911 906 904 907 901 
899 518 906 896 901 902 
518 519 379 898 895 900 
519 899 517 897 520 892 
519 521 379 889 801 895 
521 380 447 891 894 796 
380 519 517 890 892 893 
264 630 318 882 855 888 
630 225 483 884 887 858 
225 264 484 883 885 886 
508 182 744 881 879 880 
115 508 744 222 880 876 
115 744 260 876 877 742 
633 634 314 869 866 871 
634 635 485 868 870 863 
634 588 314 860 817 866 
588 259 448 862 865 814 
259 634 485 861 863 864 
263 629 630 859 856 857 
483 263 630 631 857 858 
597 584 465 851 806 853 
310 597 465 852 853 601 
550 599 371 845 849 782 
599 581 317 847 792 848 
581 550 77 846 779 787 
466 590 592 830 842 843 
312 466 592 596 843 844 
589 593 315 836 840 823 
593 531 373 838 775 839 
531 589 59 837 822 772 
590 585 315 827 834 835 
585 591 314 829 832 833 
591 590 466 828 830 831 
523 587 377 818 825 826 
587 589 315 820 823 824 
589 523 59 819 821 822 
588 586 314 811 816 817 
586 527 377 813 771 815 
527 588 448 812 814 768 
578 584 317 804 807 808 
584 583 465 803 805 806 
521 580 379 793 800 801 
580 582 318 795 798 799 
582 521 447 794 796 797 
581 579 317 784 791 792 
579 516 379 786 789 790 
516 581 77 785 787 788 
690 778 550 691 780 781 
371 690 550 546 781 782 
531 773 696 774 697 776 
373 531 696 775 776 529 
527 524 377 765 770 771 
524 526 918 767 764 769 
526 527 448 766 768 759 
526 762 918 756 763 764 
762 376 522 758 761 525 
376 526 448 757 759 760 
1199 1200
1201 1202
1203 1204
1205 1206
1207 1208
1209 1210
1211 1212
1213 1214
1215 1216
1217 1218
1219 1220
1221 1222
1223 1224
1225 1226
1227 1228
1229 1230
1231 1232
1233 1234
1235 1236
1237 1238
1239 1240
1241 1242
1243 1244
1245 1246
1247 1248
1249 1250
1251 1252
1253 1254
1255 1256
1257 1258
1259 1260
1261 1262
1263 1264
1265 1266
1267 1268
1269 1270
1271 1272
1273 1274
1275 1276
1277 1278
1279 1280
1281 1282
1283 1284
1285 1286
1287 1288
1289 1290
1291 1292
1293 1294
1295 1296
1297 1298
1299 1300
1301 1302
1303 1304
1305 1306
1307 1308
1309 1310
1311 1312
1313 1314
1315 1316
1317 1318
1319 1320
1321 1322
1323 1324
1325 1326
1327 1328
1329 1330
1331 1332
1333 1334
1335 1336
1337 1338
1339 1340
1341 1342
1343 1344
1345 1346
1347 1348
1349 1350
1351 1352
1353 1354
1355 1356
1357 1358
1359 1360
1361 1362
1363 1364
1365 1366
1367 1368
1369 1370
1371 1372
1373 1374
1375 1376
1377 1378
1379 1380
1381 1382
1383 1384
1385 1386
1387 1388
1389 1390
1391 1392
1393 1394
1395 1396
1397 1398
1399 1400
1401 1402
1403 1404
1405 1406
1407 1408
1409 1410
1411 1412
1413 1414
1415 1416
1417 1418
1419 1420
1421 1422
1423 1424
1425 1426
1427 1428
1429 1430
1431 1432
1433 1434
1435 1436
1437 1438
1439 1440
1441 1442
1443 1444
1445 1446
1447 1448
1449 1450
1451 1452
1453 1454
1455 1456
1457 1458
1459 1460
1461 1462
1463 1464
1465 1466
1467 1468
1469 1470
1471 1472
1473 1474
1475 1476
1477 1478
1479 1480
1481 1482
1483 1484
1485 1486
1487 1488
1489 1490
1491 1492
1493 1494
1495 1496
1497 1498
1499 1500
1501 1502
1503 1504
1505 1506
1507 1508
1509 1510
1511 1512
1513 1514
1515 1516
1517 1518
1519 1520
1521 1522
1523 1524
1525 1526
1527 1528
1529 1530
1531 1532
1533 1534
1535 1536
1537 1538
1539 1540
1541 1542
1543 1544
1545 1546
1547 1548
1549 1550
1551 1552
1553 1554
1555 1556
1557 1558
1559 1560
1561 1562
1563 1564
1565 1566
1567 1568
1569 1570
1571 1572
1573 1574
1575 1576
1577 1578
1579 1580
1581 1582
1583 1584
1585 1586
1587 1588
1589 1590
1591 1592
1593 1594
1595 1596
1597 1598
1599 1600
1601 1602
1603 1604
1605 1606
1607 1608
1609 1610
1611 1612
1613 1614
1615 1616
1617 1618
1619 1620
1621 1622
1623 1624
1625 1626
1627 1628
1629 1630
1631 1632
1633 1634
1635 1636
1637 1638
1639 1640
1641 1642
1643 1644
1645 1646
1647 1648
1649 1650
1651 1652
1653 1654
1655 1656
1657 1658
1659 1660
1661 1662
1663 1664
1665 1666
1667 1668
1669 1670
1671 1672
1673 1674
1675 1676
1677 1678
1679 1680
1681 1682
1683 1684
1685 1686
1687 1688
1689 1690
1691 1692
1693 1694
1695 1696
1697 1698
1699 1700
1701 1702
1703 1704
1705 1706
1707 1708
1709 1710
1711 1712
1713 1714
1715 1716
1717 1718
1719 1720
1721 1722
1723 1724
1725 1726
1727 1728
1729 1730
1731 1732
1733 1734
1735 1736
1737 1738
1739 1740
1741 1742
1743 1744
1745 1746
1747 1748
1749 1750
1751 1752
1753 1754
1755 1756
1757 1758
1759 1760
1761 1762
1763 1764
1765 1766
1767 1768
1769 1770
1771 1772
1773 1774
1775 1776
1777 1778
1779 1780
1781 1782
1783 1784
1785 1786
1787 1788
1789 1790
1791 1792
1793 1794
1795 1796
1797 1798
1799 1800
1801 1802
1803 1804
1805 1806
1807 1808
1809 1810
1811 1812
1813 1814
1815 1816
1817 1818
1819 1820
1821 1822
1823 1824
1825 1826
1827 1828
1829 1830
1831 1832
1833 1834
1835 1836
1837 1838
1839 1840
1841 1842
1843 1844
1845 1846
1847 1848
1849 1850
1851 1852
1853 1854
1855 1856
1857 1858
1859 1860
1861 1862
1863 1864
1865 1866
1867 1868
1869 1870
1871 1872
1873 1874
1875 1876
1877 1878
1879 1880
1881 1882
1883 1884
1885 1886
1887 1888
1889 1890
1891 1892
1893 1894
1895 1896
1897 1898
1899 1900
1901 1902
1903 1904
1905 1906
1907 1908
1909 1910
1911 1912
1913 1914
1915 1916
1917 1918
1919 1920
1921 1922
1923 1924
1925 1926
1927 1928
1929 1930
1931 1932
1933 1934
1935 1936
1937 1938
1939 1940
1941 1942
1943 1944
1945 1946
1947 1948
1949 1950
1951 1952
1953 1954
1955 1956
1957 1958
1959 1960
1961 1962
1963 1964
1965 1966
1967 1968
1969 1970
1971 1972
1973 1974
1975 1976
1977 1978
1979 1980
1981 1982
1983 1984
1985 1986
1987 1988
1989 1990
1991 1992
1993 1994
1995 1996
1997 1998
1999 2000
2001 2002
2003 2004
2005 2006
2007 2008
2009 2010
2011 2012
2013 2014
2015 2016
2017 2018
2019 2020
2021 2022
2023 2024
2025 2026
2027 2028
2029 2030
2031 2032
2033 2034
2035 2036
2037 2038
2039 2040
2041 2042
2043 2044
2045 2046
2047 2048
2049 2050
2051 2052
2053 2054
2055 2056
2057 2058
2059 2060
2061 2062
2063 2064
2065 2066
2067 2068
2069 2070
2071 2072
2073 2074
2075 2076
2077 2078
2079 2080
2081 2082
2083 2084
2085 2086
2087 2088
2089 2090
2091 2092
2093 2094
2095 2096
2097 2098
2099 2100
2101 2102
2103 2104
2105 2106
2107 2108
2109 2110
2111 2112
2113 2114
2115 2116
2117 2118
2119 2120
2121 2122
2123 2124
2125 2126
2127 2128
2129 2130
2131 2132
2133 2134
2135 2136
2137 2138
2139 2140
2141 2142
2143 2144
2145 2146
2147 2148
2149 2150
2151 2152
2153 2154
2155 2156
2157 2158
2159 2160
2161 2162
2163 2164
2165 2166
2167 2168
2169 2170
2171 2172
2173 2174
2175 2176
2177 2178
2179 2180
2181 2182
2183 2184
2185 2186
2187 2188
2189 2190
2191 2192
2193 2194
2195 2196
2197 2198
2199 2200
2201 2202
2203 2204
2205 2206
2207 2208
2209 2210
2211 2212
2213 2214
2215 2216
2217 2218
2219 2220
2221 2222
2223 2224
2225 2226
2227 2228
2229 2230
2231 2232
2233 2234
2235 2236
2237 2238
2239 2240
2241 2242
2243 2244
2245 2246
2247 2248
2249 2250
2251 2252
2253 2254
2255 2256
2257 2258
2259 2260
2261 2262
2263 2264
2265 2266
2267 2268
2269 2270
2271 2272
2273 2274
2275 2276
2277 2278
2279 2280
2281 2282
2283 2284
2285 2286
2287 2288
2289 2290
2291 2292
2293 2294
2295 2296
2297 2298
2299 2300
2301 2302
2303 2304
2305 2306
2307 2308
2309 2310
2311 2312
2313 2314
2315 2316
2317 2318
2319 2320
2321 2322
2323 2324
2325 2326
2327 2328
2329 2330
2331 2332
2333 2334
2335 2336
2337 2338
2339 2340
2341 2342
2343 2344
2345 2346
2347 2348
2349 2350
2351 2352
2353 2354
2355 2356
2357 2358
2359 2360
2361 2362
2363 2364
2365 2366
2367 2368
2369 2370
2371 2372
2373 2374
2375 2376
2377 2378
2379 2380
2381 2382
2383 2384
2385 2386
2387 2388
2389 2390
2391 2392
2393 2394
2395 2396
2397 2398
2399 2400
2401 2402
2403 2404
2405 2406
2407 2408
2409 2410
2411 2412
2413 2414
2415 2416
2417 2418
2419 2420
2421 2422
2423 2424
2425 2426
2427 2428
2429 2430
2431 2432
2433 2434
2435 2436
2437 2438
2439 2440
2441 2442
2443 2444
2445 2446
2447 2448
2449 2450
2451 2452
2453 2454
2455 2456
2457 2458
2459 2460
2461 2462
2463 2464
2465 2466
2467 2468
2469 2470
2471 2472
2473 2474
2475 2476
2477 2478
2479 2480
2481 2482
2483 2484
2485 2486
2487 2488
2489 2490
2491 2492
2493 2494
2495 2496
2497 2498
2499 2500
2501 2502
2503 2504
2505 2506
2507 2508
2509 2510
2511 2512
2513 2514
2515 2516
2517 2518
2519 2520
2521 2522
2523 2524
2525 2526
2527 2528
2529 2530
2531 2532
2533 2534
2535 2536
2537 2538
2539 2540
2541 2542
2543 2544
2545 2546
2547 2548
2549 2550
2551 2552
2553 2554
2555 2556
2557 2558
2559 2560
2561 2562
2563 2564
2565 2566
2567 2568
2569 2570
2571 2572
2573 2574
2575 2576
2577 2578
2579 2580
2581 2582
2583 2584
2585 2586
2587 2588
2589 2590
2591 2592
2593 2594
2595 2596
2597 2598
2599 2600
2601 2602
2603 2604
2605 2606
2607 2608
2609 2610
2611 2612
2613 2614
2615 2616
2617 2618
2619 2620
2621 2622
2623 2624
2625 2626
2627 2628
2629 2630
2631 2632
2633 2634
2635 2636
2637 2638
2639 2640
2641 2642
2643 2644
2645 2646
2647 2648
2649 2650
2651 2652
2653 2654
2655 2656
2657 2658
2659 2660
2661 2662
2663 2664
2665 2666
2667 2668
2669 2670
2671 2672
2673 2674
2675 2676
2677 2678
2679 2680
2681 2682
2683 2684
2685 2686
2687 2688
2689 2690
2691 2692
2693 2694
2695 2696
2697 2698
2699 2700
2701 2702
2703 2704
2705 2706
2707 2708
2709 2710
2711 2712
2713 2714
2715 2716
2717 2718
2719 2720
2721 2722
2723 2724
2725 2726
2727 2728
2729 2730
2731 2732
2733 2734
2735 2736
2737 2738
2739 2740
2741 2742
2743 2744
2745 2746
2747 2748
2749 2750
2751 2752
2753 2754
2755 2756
2757 2758
2759 2760
2761 2762
2763 2764
2765 2766
2767 2768
2769 2770
2771 2772
2773 2774
2775 2776
2777 2778
2779 2780
2781 2782
2783 2784
2785 2786
2787 2788
2789 2790
2791 2792
2793 2794
2795 2796
2797 2798
2799 2800
2801 2802
2803 2804
2805 2806
2807 2808
2809 2810
2811 2812
2813 2814
2815 2816
2817 2818
2819 2820
2821 2822
2823 2824
2825 2826
2827 2828
2829 2830
2831 2832
2833 2834
2835 2836
2837 2838
2839 2840
2841 2842
2843 2844
2845 2846
2847 2848
2849 2850
2851 2852
2853 2854
2855 2856
2857 2858
2859 2860
2861 2862
2863 2864
2865 2866
2867 2868
2869 2870
2871 2872
2873 2874
2875 2876
2877 2878
2879 2880
2881 2882
2883 2884
2885 2886
2887 2888
2889 2890
2891 2892
2893 2894
2895 2896
2897 2898
2899 2900
2901 2902
2903 2904
2905 2906
2907 2908
2909 2910
2911 2912
2913 2914
2915 2916
2917 2918
2919 2920
2921 2922
2923 2924
2925 2926
2927 2928
2929 2930
2931 2932
2933 2934
2935 2936
2937 2938
2939 2940
2941 2942
2943 2944
2945 2946
2947 2948
2949 2950
2951 2952
2953 2954
2955 2956
2957 2958
2959 2960
2961 2962
2963 2964
2965 2966
2967 2968
2969 2970
2971 2972
2973 2974
2975 2976
2977 2978
2979 2980
2981 2982
2983 2984
2985 2986
2987 2988
2989 2990
2991 2992
2993 2994
2995 2996
2997 2998
2999 3000
3001 3002
3003 3004
3005 3006
3007 3008
3009 3010
3011 3012
3013 3014
3015 3016
3017 3018
3019 3020
3021 3022
3023 3024
3025 3026
3027 3028
3029 3030
3031 3032
3033 3034
3035 3036
3037 3038
3039 3040
3041 3042
3043 3044
3045 3046
3047 3048
3049 3050
3051 3052
3053 3054
3055 3056
3057 3058
3059 3060
3061 3062
3063 3064
3065 3066
3067 3068
3069 3070
3071 3072
3073 3074
3075 3076
3077 3078
3079 3080
3081 3082
3083 3084
3085 3086
3087 3088
3089 3090
3091 3092
3093 3094
3095 3096
3097 3098
3099 3100
3101 3102
3103 3104
3105 3106
3107 3108
3109 3110
3111 3112
3113 3114
3115 3116
3117 3118
3119 3120
3121 3122
3123 3124
3125 3126
3127 3128
3129 3130
3131 3132
3133 3134
3135 3136
3137 3138
3139 3140
3141 3142
3143 3144
3145 3146
3147 3148
3149 3150
3151 3152
3153 3154
3155 3156
3157 3158
3159 3160
3161 3162
3163 3164
3165 3166
3167 3168
3169 3170
3171 3172
3173 3174
3175 3176
3177 3178
3179 3180
3181 3182
3183 3184
3185 3186
3187 3188
3189 3190
3191 3192
3193 3194
3195 3196
3197 3198
3199 3200
3201 3202
3203 3204
3205 3206
3207 3208
3209 3210
3211 3212
3213 3214
3215 3216
3217 3218
3219 3220
3221 3222
3223 3224
3225 3226
3227 3228
3229 3230
3231 3232
3233 3234
3235 3236
3237 3238
3239 3240
3241 3242
3243 3244
3245 3246
3247 3248
3249 3250
3251 3252
3253 3254
3255 3256
3257 3258
3259 3260
3261 3262
3263 3264
3265 3266
3267 3268
3269 3270
3271 3272
3273 3274
3275 3276
3277 3278
3279 3280
3281 3282
3283 3284
3285 3286
3287 3288
3289 3290
3291 3292
3293 3294
3295 3296
3297 3298
3299 3300
3301 3302
3303 3304
3305 3306
3307 3308
3309 3310
3311 3312
3313 3314
3315 3316
3317 3318
3319 3320
3321 3322
3323 3324
3325 3326
3327 3328
3329 3330
3331 3332
3333 3334
3335 3336
3337 3338
3339 3340
3341 3342
3343 3344
3345 3346
3347 3348
3349 3350
3351 3352
3353 3354
3355 3356
3357 3358
3359 3360
3361 3362
3363 3364
3365 3366
3367 3368
3369 3370
3371 3372
3373 3374
3375 3376
3377 3378
3379 3380
3381 3382
3383 3384
3385 3386
3387 3388
3389 3390
3391 3392
3393 3394
3395 3396
3397 3398
3399 3400
3401 3402
3403 3404
3405 3406
3407 3408
3409 3410
3411 3412
3413 3414
3415 3416
3417 3418
3419 3420
3421 3422
3423 3424
3425 3426
3427 3428
3429 3430
3431 3432
3433 3434
3435 3436
3437 3438
3439 3440
3441 3442
3443 3444
3445 3446
3447 3448
3449 3450
3451 3452
3453 3454
3455 3456
3457 3458
3459 3460
3461 3462
3463 3464
3465 3466
3467 3468
3469 3470
3471 3472
3473 3474
3475 3476
3477 3478
3479 3480
3481 3482
3483 3484
3485 3486
      </DataArray>
      <DataArray type="Int32" Name="offsets" format="ascii">
6
12
18
24
30
36
42
48
54
60
66
72
78
84
90
96
102
108
114
120
126
132
138
144
150
156
162
168
174
180
186
192
198
204
210
216
222
228
234
240
246
252
258
264
270
276
282
288
294
300
306
312
318
324
330
336
342
348
354
360
366
372
378
384
390
396
402
408
414
420
426
432
438
444
450
456
462
468
474
480
486
492
498
504
510
516
522
528
534
540
546
552
558
564
570
576
582
588
594
600
606
612
618
624
630
636
642
648
654
660
666
672
678
684
690
696
702
708
714
720
726
732
738
744
750
756
762
768
774
780
786
792
798
804
810
816
822
828
834
840
846
852
858
864
870
876
882
888
894
900
906
912
918
924
930
936
942
948
954
960
966
972
978
984
990
996
1002
1008
1014
1020
1026
1032
1038
1044
1050
1056
1062
1068
1074
1080
1086
1092
1098
1104
1110
1116
1122
1128
1134
1140
1146
1152
1158
1164
1170
1176
1182
1188
1194
1200
1206
1212
1218
1224
1230
1236
1242
1248
1254
1260
1266
1272
1278
1284
1290
1296
1302
1308
1314
1320
1326
1332
1338
1344
1350
1356
1362
1368
1374
1380
1386
1392
1398
1404
1410
1416
1422
1428
1434
1440
1446
1452
1458
1464
1470
1476
1482
1488
1494
1500
1506
1512
1518
1524
1530
1536
1542
1548
1554
1560
1566
1572
1578
1584
1590
1596
1602
1608
1614
1620
1626
1632
1638
1644
1650
1656
1662
1668
1674
1680
1686
1692
1698
1704
1710
1716
1722
1728
1734
1740
1746
1752
1758
1764
1770
1776
1782
1788
1794
1800
1806
1812
1818
1824
1830
1836
1842
1848
1854
1860
1866
1872
1878
1884
1890
1896
1902
1908
1914
1920
1926
1932
1938
1944
1950
1956
1962
1968
1974
1980
1986
1992
1998
2004
2010
2016
2022
2028
2034
2040
2046
2052
2058
2064
2070
2076
2082
2088
2094
2100
2106
2112
2118
2124
2130
2136
2142
2148
2154
2160
2166
2172
2178
2184
2190
2196
2202
2208
2214
2220
2226
2232
2238
2244
2250
2256
2262
2268
2274
2280
2286
2292
2298
2304
2310
2316
2322
2328
2334
2340
2346
2352
2358
2364
2370
2376
2382
2388
2394
2400
2406
2412
2418
2424
2430
2436
2442
2448
2454
2460
2466
2472
2478
2484
2490
2496
2502
2508
2514
2520
2526
2532
2538
2544
2550
2556
2562
2568
2574
2580
2586
2592
2598
2604
2610
2616
2622
2628
2634
2640
2646
2652
2658
2664
2670
2676
2682
2688
2694
2700
2706
2712
2718
2724
2730
2736
2742
2748
2754
2760
2766
2772
2778
2784
2790
2796
2802
2808
2814
2820
2826
2832
2838
2844
2850
2856
2862
2868
2874
2880
2886
2892
2898
2904
2910
2916
2922
2928
2934
2940
2946
2952
2958
2964
2970
2976
2982
2988
2994
3000
3006
3012
3018
3024
3030
3036
3042
3048
3054
3060
3066
3072
3078
3084
3090
3096
3102
3108
3114
3120
3126
3132
3138
3144
3150
3156
3162
3168
3174
3180
3186
3192
3198
3204
3210
3216
3222
3228
3234
3240
3246
3252
3258
3264
3270
3276
3282
3288
3294
3300
3306
3312
3318
3324
3326
3328
3330
3332
3334
3336
3338
3340
3342
3344
3346
3348
3350
3352
3354
3356
3358
3360
3362
3364
3366
3368
3370
3372
3374
3376
3378
3380
3382
3384
3386
3388
3390
3392
3394
3396
3398
3400
3402
3404
3406
3408
3410
3412
3414
3416
3418
3420
3422
3424
3426
3428
3430
3432
3434
3436
3438
3440
3442
3444
3446
3448
3450
3452
3454
3456
3458
3460
3462
3464
3466
3468
3470
3472
3474
3476
3478
3480
3482
3484
3486
3488
3490
3492
3494
3496
3498
3500
3502
3504
3506
3508
3510
3512
3514
3516
3518
3520
3522
3524
3526
3528
3530
3532
3534
3536
3538
3540
3542
3544
3546
3548
3550
3552
3554
3556
3558
3560
3562
3564
3566
3568
3570
3572
3574
3576
3578
3580
3582
3584
3586
3588
3590
3592
3594
3596
3598
3600
3602
3604
3606
3608
3610
3612
3614
3616
3618
3620
3622
3624
3626
3628
3630
3632
3634
3636
3638
3640
3642
3644
3646
3648
3650
3652
3654
3656
3658
3660
3662
3664
3666
3668
3670
3672
3674
3676
3678
3680
3682
3684
3686
3688
3690
3692
3694
3696
3698
3700
3702
3704
3706
3708
3710
3712
3714
3716
3718
3720
3722
3724
3726
3728
3730
3732
3734
3736
3738
3740
3742
3744
3746
3748
3750
3752
3754
3756
3758
3760
3762
3764
3766
3768
3770
3772
3774
3776
3778
3780
3782
3784
3786
3788
3790
3792
3794
3796
3798
3800
3802
3804
3806
3808
3810
3812
3814
3816
3818
3820
3822
3824
3826
3828
3830
3832
3834
3836
3838
3840
3842
3844
3846
3848
3850
3852
3854
3856
3858
3860
3862
3864
3866
3868
3870
3872
3874
3876
3878
3880
3882
3884
3886
3888
3890
3892
3894
3896
3898
3900
3902
3904
3906
3908
3910
3912
3914
3916
3918
3920
3922
3924
3926
3928
3930
3932
3934
3936
3938
3940
3942
3944
3946
3948
3950
3952
3954
3956
3958
3960
3962
3964
3966
3968
3970
3972
3974
3976
3978
3980
3982
3984
3986
3988
3990
3992
3994
3996
3998
4000
4002
4004
4006
4008
4010
4012
4014
4016
4018
4020
4022
4024
4026
4028
4030
4032
4034
4036
4038
4040
4042
4044
4046
4048
4050
4052
4054
4056
4058
4060
4062
4064
4066
4068
4070
4072
4074
4076
4078
4080
4082
4084
4086
4088
4090
4092
4094
4096
4098
4100
4102
4104
4106
4108
4110
4112
4114
4116
4118
4120
4122
4124
4126
4128
4130
4132
4134
4136
4138
4140
4142
4144
4146
4148
4150
4152
4154
4156
4158
4160
4162
4164
4166
4168
4170
4172
4174
4176
4178
4180
4182
4184
4186
4188
4190
4192
4194
4196
4198
4200
4202
4204
4206
4208
4210
4212
4214
4216
4218
4220
4222
4224
4226
4228
4230
4232
4234
4236
4238
4240
4242
4244
4246
4248
4250
4252
4254
4256
4258
4260
4262
4264
4266
4268
4270
4272
4274
4276
4278
4280
4282
4284
4286
4288
4290
4292
4294
4296
4298
4300
4302
4304
4306
4308
4310
4312
4314
4316
4318
4320
4322
4324
4326
4328
4330
4332
4334
4336
4338
4340
4342
4344
4346
4348
4350
4352
4354
4356
4358
4360
4362
4364
4366
4368
4370
4372
4374
4376
4378
4380
4382
4384
4386
4388
4390
4392
4394
4396
4398
4400
4402
4404
4406
4408
4410
4412
4414
4416
4418
4420
4422
4424
4426
4428
4430
4432
4434
4436
4438
4440
4442
4444
4446
4448
4450
4452
4454
4456
4458
4460
4462
4464
4466
4468
4470
4472
4474
4476
4478
4480
4482
4484
4486
4488
4490
4492
4494
4496
4498
4500
4502
4504
4506
4508
4510
4512
4514
4516
4518
4520
4522
4524
4526
4528
4530
4532
4534
4536
4538
4540
4542
4544
4546
4548
4550
4552
4554
4556
4558
4560
4562
4564
4566
4568
4570
4572
4574
4576
4578
4580
4582
4584
4586
4588
4590
4592
4594
4596
4598
4600
4602
4604
4606
4608
4610
4612
4614
4616
4618
4620
4622
4624
4626
4628
4630
4632
4634
4636
4638
4640
4642
4644
4646
4648
4650
4652
4654
4656
4658
4660
4662
4664
4666
4668
4670
4672
4674
4676
4678
4680
4682
4684
4686
4688
4690
4692
4694
4696
4698
4700
4702
4704
4706
4708
4710
4712
4714
4716
4718
4720
4722
4724
4726
4728
4730
4732
4734
4736
4738
4740
4742
4744
4746
4748
4750
4752
4754
4756
4758
4760
4762
4764
4766
4768
4770
4772
4774
4776
4778
4780
4782
4784
4786
4788
4790
4792
4794
4796
4798
4800
4802
4804
4806
4808
4810
4812
4814
4816
4818
4820
4822
4824
4826
4828
4830
4832
4834
4836
4838
4840
4842
4844
4846
4848
4850
4852
4854
4856
4858
4860
4862
4864
4866
4868
4870
4872
4874
4876
4878
4880
4882
4884
4886
4888
4890
4892
4894
4896
4898
4900
4902
4904
4906
4908
4910
4912
4914
4916
4918
4920
4922
4924
4926
4928
4930
4932
4934
4936
4938
4940
4942
4944
4946
4948
4950
4952
4954
4956
4958
4960
4962
4964
4966
4968
4970
4972
4974
4976
4978
4980
4982
4984
4986
4988
4990
4992
4994
4996
4998
5000
5002
5004
5006
5008
5010
5012
5014
5016
5018
5020
5022
5024
5026
5028
5030
5032
5034
5036
5038
5040
5042
5044
5046
5048
5050
5052
5054
5056
5058
5060
5062
5064
5066
5068
5070
5072
5074
5076
5078
5080
5082
5084
5086
5088
5090
5092
5094
5096
5098
5100
5102
5104
5106
5108
5110
5112
5114
5116
5118
5120
5122
5124
5126
5128
5130
5132
5134
5136
5138
5140
5142
5144
5146
5148
5150
5152
5154
5156
5158
5160
5162
5164
5166
5168
5170
5172
5174
5176
5178
5180
5182
5184
5186
5188
5190
5192
5194
5196
5198
5200
5202
5204
5206
5208
5210
5212
5214
5216
5218
5220
5222
5224
5226
5228
5230
5232
5234
5236
5238
5240
5242
5244
5246
5248
5250
5252
5254
5256
5258
5260
5262
5264
5266
5268
5270
5272
5274
5276
5278
5280
5282
5284
5286
5288
5290
5292
5294
5296
5298
5300
5302
5304
5306
5308
5310
5312
5314
5316
5318
5320
5322
5324
5326
5328
5330
5332
5334
5336
5338
5340
5342
5344
5346
5348
5350
5352
5354
5356
5358
5360
5362
5364
5366
5368
5370
5372
5374
5376
5378
5380
5382
5384
5386
5388
5390
5392
5394
5396
5398
5400
5402
5404
5406
5408
5410
5412
5414
5416
5418
5420
5422
5424
5426
5428
5430
5432
5434
5436
5438
5440
5442
5444
5446
5448
5450
5452
5454
5456
5458
5460
5462
5464
5466
5468
5470
5472
5474
5476
5478
5480
5482
5484
5486
5488
5490
5492
5494
5496
5498
5500
5502
5504
5506
5508
5510
5512
5514
5516
5518
5520
5522
5524
5526
5528
5530
5532
5534
5536
5538
5540
5542
5544
5546
5548
5550
5552
5554
5556
5558
5560
5562
5564
5566
5568
5570
5572
5574
5576
5578
5580
5582
5584
5586
5588
5590
5592
5594
5596
5598
5600
5602
5604
5606
5608
5610
5612
      </DataArray>
      <DataArray type="UInt8" Name="types" format="ascii">
69
69
69
69
69
69
69
69
69
69
69
69
69
69
69
69
69
69
69
69
69
69
69
69
69
69
69
69
69
69
69
69
69
69
69
69
69
69
69
69
69
69
69
69
69
69
69
69
69
69
69
69
69
69
69
69
69
69
69
69
69
69
69
69
69
69
69
69
69
69
69
69
69
69
69
69
69
69
69
69
69
69
69
69
69
69
69
69
69
69
69
69
69
69
69
69
69
69
69
69
69
69
69
69
69
69
69
69
69
69
69
69
69
69
69
69
69
69
69
69
69
69
69
69
69
69
69
69
69
69
69
69
69
69
69
69
69
69
69
69
69
69
69
69
69
69
69
69
69
69
69
69
69
69
69
69
69
69
69
69
69
69
69
69
69
69
69
69
69
69
69
69
69
69
69
69
69
69
69
69
69
69
69
69
69
69
69
69
69
69
69
69
69
69
69
69
69
69
69
69
69
69
69
69
69
69
69
69
69
69
69
69
69
69
69
69
69
69
69
69
69
69
69
69
69
69
69
69
69
69
69
69
69
69
69
69
69
69
69
69
69
69
69
69
69
69
69
69
69
69
69
69
69
69
69
69
69
69
69
69
69
69
69
69
69
69
69
69
69
69
69
69
69
69
69
69
69
69
69
69
69
69
69
69
69
69
69
69
69
69
69
69
69
69
69
69
69
69
69
69
69
69
69
69
69
69
69
69
69
69
69
69
69
69
69
69
69
69
69
69
69
69
69
69
69
69
69
69
69
69
69
69
69
69
69
69
69
69
69
69
69
69
69
69
69
69
69
69
69
69
69
69
69
69
69
69
69
69
69
69
69
69
69
69
69
69
69
69
69
69
69
69
69
69
69
69
69
69
69
69
69
69
69
69
69
69
69
69
69
69
69
69
69
69
69
69
69
69
69
69
69
69
69
69
69
69
69
69
69
69
69
69
69
69
69
69
69
69
69
69
69
69
69
69
69
69
69
69
69
69
69
69
69
69
69
69
69
69
69
69
69
69
69
69
69
69
69
69
69
69
69
69
69
69
69
69
69
69
69
69
69
69
69
69
69
69
69
69
69
69
69
69
69
69
69
69
69
69
69
69
69
69
69
69
69
69
69
69
69
69
69
69
69
69
69
69
69
69
69
69
69
69
69
69
69
69
69
69
69
69
69
69
69
69
69
69
69
69
69
69
69
69
69
69
69
69
69
69
69
69
69
69
69
69
69
69
69
69
69
69
69
69
69
69
69
69
69
69
69
69
69
69
69
69
3
3
3
3
3
3
3
3
3
3
3
3
3
3
3
3
3
3
3
3
3
3
3
3
3
3
3
3
3
3
3
3
3
3
3
3
3
3
3
3
3
3
3
3
3
3
3
3
3
3
3
3
3
3
3
3
3
3
3
3
3
3
3
3
3
3
3
3
3
3
3
3
3
3
3
3
3
3
3
3
3
3
3
3
3
3
3
3
3
3
3
3
3
3
3
3
3
3
3
3
3
3
3
3
3
3
3
3
3
3
3
3
3
3
3
3
3
3
3
3
3
3
3
3
3
3
3
3
3
3
3
3
3
3
3
3
3
3
3
3
3
3
3
3
3
3
3
3
3
3
3
3
3
3
3
3
3
3
3
3
3
3
3
3
3
3
3
3
3
3
3
3
3
3
3
3
3
3
3
3
3
3
3
3
3
3
3
3
3
3
3
3
3
3
3
3
3
3
3
3
3
3
3
3
3
3
3
3
3
3
3
3
3
3
3
3
3
3
3
3
3
3
3
3
3
3
3
3
3
3
3
3
3
3
3
3
3
3
3
3
3
3
3
3
3
3
3
3
3
3
3
3
3
3
3
3
3
3
3
3
3
3
3
3
3
3
3
3
3
3
3
3
3
3
3
3
3
3
3
3
3
3
3
3
3
3
3
3
3
3
3
3
3
3
3
3
3
3
3
3
3
3
3
3
3
3
3
3
3
3
3
3
3
3
3
3
3
3
3
3
3
3
3
3
3
3
3
3
3
3
3
3
3
3
3
3
3
3
3
3
3
3
3
3
3
3
3
3
3
3
3
3
3
3
3
3
3
3
3
3
3
3
3
3
3
3
3
3
3
3
3
3
3
3
3
3
3
3
3
3
3
3
3
3
3
3
3
3
3
3
3
3
3
3
3
3
3
3
3
3
3
3
3
3
3
3
3
3
3
3
3
3
3
3
3
3
3
3
3
3
3
3
3
3
3
3
3
3
3
3
3
3
3
3
3
3
3
3
3
3
3
3
3
3
3
3
3
3
3
3
3
3
3
3
3
3
3
3
3
3
3
3
3
3
3
3
3
3
3
3
3
3
3
3
3
3
3
3
3
3
3
3
3
3
3
3
3
3
3
3
3
3
3
3
3
3
3
3
3
3
3
3
3
3
3
3
3
3
3
3
3
3
3
3
3
3
3
3
3
3
3
3
3
3
3
3
3
3
3
3
3
3
3
3
3
3
3
3
3
3
3
3
3
3
3
3
3
3
3
3
3
3
3
3
3
3
3
3
3
3
3
3
3
3
3
3
3
3
3
3
3
3
3
3
3
3
3
3
3
3
3
3
3
3
3
3
3
3
3
3
3
3
3
3
3
3
3
3
3
3
3
3
3
3
3
3
3
3
3
3
3
3
3
3
3
3
3
3
3
3
3
3
3
3
3
3
3
3
3
3
3
3
3
3
3
3
3
3
3
3
3
3
3
3
3
3
3
3
3
3
3
3
3
3
3
3
3
3
3
3
3
3
3
3
3
3
3
3
3
3
3
3
3
3
3
3
3
3
3
3
3
3
3
3
3
3
3
3
3
3
3
3
3
3
3
3
3
3
3
3
3
3
3
3
3
3
3
3
3
3
3
3
3
3
3
3
3
3
3
3
3
3
3
3
3
3
3
3
3
3
3
3
3
3
3
3
3
3
3
3
3
3
3
3
3
3
3
3
3
3
3
3
3
3
3
3
3
3
3
3
3
3
3
3
3
3
3
3
3
3
3
3
3
3
3
3
3
3
3
3
3
3
3
3
3
3
3
3
3
3
3
3
3
3
3
3
3
3
3
3
3
3
3
3
3
3
3
3
3
3
3
3
3
3
3
3
3
3
3
3
3
3
3
3
3
3
3
3
3
3
3
3
3
3
3
3
3
3
3
3
3
3
3
3
3
3
3
3
3
3
3
3
3
3
3
3
3
3
3
3
3
3
3
3
3
3
3
3
3
3
3
3
3
3
3
3
3
3
3
3
3
3
3
3
3
3
3
3
3
3
3
3
3
3
3
3
3
3
3
3
3
3
3
3
3
3
3
3
3
3
3
3
3
3
3
3
3
3
3
3
3
3
3
3
3
3
3
3
3
3
3
3
3
3
3
3
3
3
3
3
3
3
3
3
3
3
3
3
3
3
3
3
3
3
3
3
3
3
3
3
3
3
3
3
3
3
3
3
3
3
3
3
3
3
3
3
3
3
3
3
3
3
3
3
3
3
3
3
3
3
3
3
3
3
3
3
3
3
3
3
3
3
3
3
3
3
3
3
3
3
3
3
3
3
3
3
3
3
3
3
3
3
3
3
3
3
3
3
3
3
3
3
3
3
3
3
3
3
3
3
3
3
3
3
3
3
3
3
3
3
3
3
3
3
3
3
3
3
3
3
3
3
3
3
3
3
3
3
3
3
3
3
3
3
3
3
3
3
3
3
3
3
3
3
3
3
3
3
3
3
3
3
3
3
3
3
3
3
3
3
3
3
3
3
3
3
3
3
3
3
3
3
3
3
3
3
3
3
3
3
3
3
3
3
3
3
3
3
3
3
3
3
3
3
3
3
3
3
3
3
3
3
3
3
      </DataArray>
    </Cells>
    <PointData>
      <DataArray type="Float64" NumberOfComponents="2" Name="Displacement" format="ascii">
-0.00090409 -0.291905
0.00134729 -0.292627
-0.000220217 -0.291548
0.000259726 -0.291168
0.00051415 -0.290906
0.000690748 -0.290686
0.000798392 -0.290523
0.000866818 -0.29041
0.000892773 -0.290314
0.000892316 -0.290246
0.000865721 -0.290205
0.00082057 -0.290186
0.000756457 -0.290171
0.000679757 -0.290169
0.000591636 -0.29018
0.000496931 -0.290202
0.000396373 -0.290223
0.000294585 -0.290252
0.000193976 -0.290291
9.78531e-05 -0.29034
9.82038e-06 -0.290389
-6.81087e-05 -0.290451
-0.000131979 -0.290529
-0.000178935 -0.290626
-0.000201094 -0.290731
-0.000199304 -0.290866
-0.000164981 -0.291036
-9.47953e-05 -0.291247
5.59569e-05 -0.291477
0.000272047 -0.291786
0.00067835 -0.292212
-0.00505213 -0.291351
-0.0040899 -0.291387
-0.0031336 -0.291458
-0.00214197 -0.29162
-0.0831439 -0.369125
-0.00598542 -0.291356
-0.00692139 -0.291382
-0.0082871 -0.291444
-0.00966628 -0.291541
-0.0116688 -0.291737
-0.0136978 -0.291996
-0.0166767 -0.292486
-0.0196955 -0.293111
-0.0241112 -0.294258
-0.0285589 -0.295685
-0.0317676 -0.296888
-0.034962 -0.298237
-0.0381249 -0.299739
-0.0412431 -0.301378
-0.0456464 -0.303987
-0.0499043 -0.306858
-0.0539729 -0.30998
-0.043312 -0.409098
-0.0824325 -0.376507
-0.0808869 -0.383091
-0.0787109 -0.388809
-0.0760331 -0.393673
-0.0730376 -0.397746
0.0546119 -0.255643
-0.036082 -0.408095
-0.0275081 -0.405447
-0.0174968 -0.400888
0 0
-0.020398 -0.0184905
-0.0288127 -0.0306624
-0.0299349 -0.0404847
-0.024866 -0.0525076
-0.0179288 -0.0641845
-0.000246607 -0.277874
0 0
0 0
0 0
0 0
0.0161484 -0.269208
0.0325078 -0.237564
0.0426364 -0.171228
-0.0540476 -0.256269
0.0204783 -0.0184626
0.0289385 -0.0307699
0.0300814 -0.0406523
0.0250284 -0.0527279
0.0180913 -0.0644114
0.0434342 -0.409419
0.0362029 -0.408409
0.0276786 -0.405752
0.0176373 -0.401251
0.0830963 -0.369634
0.0491828 -0.409565
0.0541554 -0.408934
0.0585918 -0.407851
0.0625716 -0.406204
0.0662919 -0.404144
0.00535092 -0.292093
0.082837 -0.36188
0.081485 -0.353621
0.0789179 -0.345032
0.0750874 -0.336351
0.0716684 -0.330432
0.0676474 -0.324667
0.0630293 -0.319163
0.057879 -0.313985
0.0540218 -0.310652
0.049965 -0.307543
0.0457196 -0.304679
0.041329 -0.302078
0.0350751 -0.29896
0.0286948 -0.296393
0.0242646 -0.294982
0.0198776 -0.29385
0.0168714 -0.293226
0.00441736 -0.292141
0.00348793 -0.29222
0.00250388 -0.292382
-0.00563192 -0.283012
0.0248356 -0.281794
0.0194931 -0.271761
0.0329497 -0.22032
-0.0332647 -0.233396
-0.00513982 -0.305167
-0.010085 -0.278673
-0.0234356 -0.345479
-0.00401818 -0.296053
-0.0685143 -0.356494
-0.0216354 -0.0393663
0.0212619 -0.0401184
-0.0360483 -0.33018
-0.013061 -0.300823
-0.00396509 -0.312675
-0.00551766 -0.312131
0.0022147 -0.311258
-0.00730278 -0.311671
0.00594432 -0.313222
0.00317824 -0.303268
-0.00139888 -0.307647
0.00103194 -0.308872
-0.00439116 -0.303337
-0.0105844 -0.313217
-0.0149958 -0.316414
-0.0101264 -0.317546
0.00493888 -0.288354
-0.00387964 -0.288663
-0.0065238 -0.288616
0.00612348 -0.316134
0.00953404 -0.315279
-0.0110966 -0.296809
0.0106002 -0.296318
-0.00106818 -0.311508
0.00342364 -0.306247
0.00880725 -0.299479
-0.0101572 -0.299018
0.000967229 -0.311077
0.0042344 -0.288991
-0.00110254 -0.2889
-0.00439111 -0.289351
-0.00631917 -0.308765
0.00900689 -0.312529
0.00940432 -0.289917
0.00916071 -0.294452
0.00138481 -0.303164
-0.00314951 -0.305087
0.0036521 -0.30697
-0.000864027 -0.305102
-0.0096504 -0.295152
-0.00951946 -0.290328
-0.013974 -0.312976
-0.0162545 -0.321912
0.0118426 -0.285968
0.00470394 -0.286904
-0.00222617 -0.288224
-0.0105494 -0.288164
-0.0209972 -0.327809
-0.0185483 -0.329294
0.0155762 -0.325388
0.0146145 -0.320314
0.0181685 -0.318709
0.0176878 -0.315852
-0.014508 -0.285756
-0.0146551 -0.29204
0.013924 -0.291739
0.0204346 -0.282934
-0.00955679 -0.321913
0.00165852 -0.31004
0.0121914 -0.297038
-0.00139579 -0.309698
0.0140581 -0.326691
0.00505749 -0.289383
0.00320572 -0.288946
0.000261362 -0.28912
0.00152187 -0.288976
-0.000922264 -0.289495
-0.00239616 -0.289669
-0.0015203 -0.289663
-0.00417435 -0.289837
-0.00627009 -0.306257
-0.0112522 -0.308773
0.0144667 -0.311375
0.00788551 -0.308483
0.00560668 -0.289789
0.00661589 -0.290198
0.00842211 -0.29146
0.00796036 -0.293254
0.00467829 -0.297692
0.00127492 -0.30129
-0.00156755 -0.302098
-0.00493987 -0.298514
-0.00832226 -0.293967
-0.0084588 -0.292175
-0.0061765 -0.290603
-0.00492048 -0.29018
-0.0157333 -0.311476
-0.0247137 -0.325122
0.0172488 -0.2794
-0.00121809 -0.286548
-0.00958032 -0.28522
-0.0297589 -0.339348
0.0254882 -0.337286
0.0229592 -0.323468
0.0187823 -0.312696
-0.02271 -0.28187
0.0269522 -0.277463
-0.0157503 -0.331463
0.0163674 -0.292665
-0.0296061 -0.273798
-0.0129525 -0.296722
0.00434938 -0.317168
0.00365829 -0.289776
0.00259876 -0.289449
0.000949025 -0.289545
-0.000429836 -0.289817
-0.00148051 -0.289988
-0.00268432 -0.290269
-0.00789404 -0.304988
0.00884978 -0.305922
0.00474509 -0.2907
0.00502234 -0.293255
0.000785108 -0.29893
-0.00104799 -0.299595
-0.00485104 -0.293926
-0.00405233 -0.291179
-0.0151898 -0.304458
-0.0185174 -0.308513
-0.0211673 -0.313155
-0.0288083 -0.320042
-0.0456073 -0.342373
-0.0429712 -0.349072
0.030902 -0.249257
0.00612662 -0.280416
-0.0251978 -0.263867
-0.03915 -0.353148
0.0372292 -0.352481
0.0368463 -0.343287
0.0343727 -0.332934
0.0297135 -0.323647
0.0221274 -0.312055
0.0208016 -0.3068
-0.031048 -0.264614
0.0352207 -0.257921
-0.0332006 -0.353066
-0.00815193 -0.326816
0.0326042 -0.268255
0.0222226 -0.344692
0.0369156 -0.360778
-0.0218505 -0.286014
0.00545385 -0.319934
0.00261815 -0.290252
0.00306728 -0.290633
0.00210011 -0.289838
0.00252709 -0.289941
0.00116897 -0.289815
0.00168792 -0.289778
6.29096e-05 -0.28999
0.000561711 -0.289912
-0.00066944 -0.290198
-0.000269912 -0.290119
-0.00156072 -0.290387
-0.00114076 -0.290247
-0.00221705 -0.29106
-0.0017843 -0.290662
-0.00255961 -0.299866
-0.00576846 -0.301806
-0.0108537 -0.303695
0.0141083 -0.303303
0.0107006 -0.303651
0.00428878 -0.301635
0.00168772 -0.300438
0.00371834 -0.291364
0.00365432 -0.292396
0.00259831 -0.294713
0.00118118 -0.296421
-0.00180013 -0.297081
-0.00261926 -0.295382
-0.00332041 -0.292972
-0.00295445 -0.291831
-0.0153269 -0.298426
-0.0208524 -0.305328
-0.0327378 -0.314446
-0.0466669 -0.332269
-0.0562282 -0.355486
0.0193959 -0.161654
0.0164774 -0.265307
0.00106657 -0.280514
-0.0121225 -0.273514
-0.0227656 -0.174468
-0.0499203 -0.370494
0.0512974 -0.372219
0.0473667 -0.342198
0.0287632 -0.31604
0.0194463 -0.301305
0.00251752 -0.0712086
-0.028936 -0.202688
-0.00422028 -0.0681207
0.0250128 -0.191652
-0.0290911 -0.363078
0.0250785 -0.279852
0.043321 -0.242127
0.037022 -0.37189
-0.0419059 -0.249617
-0.0121726 -0.297266
0.00175821 -0.290596
0.00148994 -0.290155
0.00105128 -0.29006
0.000427456 -0.290143
-0.000183231 -0.290288
-0.000679977 -0.290516
-0.00100047 -0.291006
-0.00521839 -0.298612
-0.0108129 -0.298302
0.0092719 -0.29902
0.00319864 -0.298562
0.00174272 -0.291973
-0.000156545 -0.29505
-0.00212971 -0.295331
0.00178311 -0.296438
-0.000360336 -0.295687
-0.00118532 -0.292385
-0.00975028 -0.29521
0.00979765 -0.296648
-0.0163581 -0.294534
-0.0185788 -0.297338
-0.0229376 -0.298739
-0.0261456 -0.303244
-0.0333498 -0.305864
-0.0398618 -0.312773
-0.0477127 -0.319371
-0.0567159 -0.330225
-0.0655343 -0.341307
0.0145418 -0.171331
0.00549524 -0.257679
-0.00516762 -0.263865
-0.0138896 -0.184484
-0.068345 -0.369578
-0.0655563 -0.380226
-0.0611809 -0.388728
-0.0570433 -0.397343
-0.0447798 -0.392001
0.0474537 -0.394511
0.0573657 -0.396923
0.0623823 -0.389804
0.0659696 -0.379609
0.0683934 -0.366396
0.0633769 -0.350253
0.0572195 -0.334563
0.0506411 -0.321078
0.0395282 -0.313712
0.0336951 -0.30362
0.0274499 -0.300696
0.0230193 -0.299274
0.0162635 -0.296217
0.0202462 -0.071321
-0.00074123 -0.129235
-0.0229817 -0.190001
-0.0205223 -0.069871
0.0189933 -0.178672
-3.75294e-05 -0.12551
-0.0307611 -0.384995
-0.01359 -0.37849
0.0247558 -0.288782
0.0352313 -0.387685
-0.00896969 -0.312441
0.0202134 -0.375078
0.000826061 -0.291091
0.000741859 -0.291471
0.000976088 -0.290708
0.00107654 -0.290406
0.00104221 -0.290539
0.00108504 -0.290243
0.000974194 -0.29017
0.00103866 -0.290201
0.000800787 -0.290158
0.000578879 -0.290183
0.000693999 -0.290169
0.000337811 -0.290236
9.36797e-05 -0.290303
0.000215308 -0.290269
-0.000117986 -0.290393
-0.000306962 -0.290521
-0.000218018 -0.290453
-0.000418567 -0.290697
-0.000459211 -0.290971
-0.000450942 -0.290824
-0.000355752 -0.291359
-0.000138934 -0.291976
-0.000266213 -0.291636
-0.0113655 -0.293666
-0.0133935 -0.293936
0.0133258 -0.295592
0.0113137 -0.295297
-0.00753917 -0.29754
-0.00435986 -0.294124
0.00635875 -0.297477
0.00448021 -0.2972
0.00486649 -0.295134
0.0001987 -0.292757
-0.000232885 -0.293524
0.00057277 -0.294461
4.94564e-05 -0.2934
-0.00803253 -0.293214
0.0083662 -0.293836
-0.00572497 -0.293092
-0.00667209 -0.29312
0.00701991 -0.293741
0.00608502 -0.293711
-0.0035857 -0.292625
-0.00163283 -0.292717
-0.00264618 -0.292657
0.00404058 -0.293772
0.00312445 -0.293768
0.0021941 -0.293778
0.00296268 -0.294998
-0.00229264 -0.293573
0.00685736 -0.295215
-0.00644989 -0.294684
-0.0012114 -0.293991
0.00133099 -0.29342
0.00600833 -0.299476
-0.00872238 -0.300326
0.0128058 -0.298192
-0.0131139 -0.295764
-0.00111529 -0.291503
-0.000853839 -0.290713
-0.000448169 -0.290387
0.00011291 -0.290215
0.000752462 -0.290089
0.00130791 -0.290075
0.00159694 -0.290342
0.00199191 -0.291099
0.0232397 -0.356521
-0.00988831 -0.340568
-0.00171503 -0.117542
-0.00104874 -0.124325
0.0263376 -0.304614
0.0409007 -0.326641
0.0529148 -0.359552
0.0495899 -0.382394
-0.0435723 -0.374508
-0.0538591 -0.364182
-0.0250962 -0.238747
0.0267133 -0.223271
-0.0568094 -0.345213
-0.0384046 -0.321956
-0.0242097 -0.3096
-0.0176028 -0.301113
0.00071541 -0.297609
-0.00199639 -0.296944
-0.0373481 -0.247724
0.0387546 -0.239254
0.00395287 -0.279301
-0.00509267 -0.292073
-0.00410947 -0.296398
0.00393563 -0.295678
0.00558868 -0.291467
0.00276973 -0.303284
0.0156647 -0.308142
-0.0130828 -0.307132
-0.00317011 -0.30268
-0.00311704 -0.290638
-0.00218669 -0.290035
-0.000846399 -0.289965
0.000102086 -0.289666
0.00186449 -0.289433
0.00325827 -0.28954
0.0039545 -0.290193
-0.0077198 -0.302981
0.0206068 -0.336981
-0.00460325 -0.318809
-0.0242081 -0.338237
0.0277573 -0.270226
-0.0188741 -0.278879
0.0220175 -0.317354
0.0250023 -0.331006
-0.00564984 -0.287843
0.00646465 -0.283865
-0.0333652 -0.33624
-0.0185244 -0.315898
-0.016643 -0.291891
0.015931 -0.291926
-0.00667743 -0.289555
-0.0120785 -0.291351
-0.00567456 -0.300222
0.00536437 -0.299358
0.0114373 -0.290776
0.00723627 -0.289223
0.0135108 -0.314127
-0.00959213 -0.310041
-0.0023338 -0.289305
0.000604946 -0.288466
0.00500453 -0.316044
0.00654605 -0.30382
0.00730855 -0.315968
-0.00871607 -0.318276
0.00474696 -0.310496
-0.00320021 -0.307283
-0.00260925 -0.306602
0.000344549 -0.307556
-0.0117145 -0.316329
-0.0256417 -0.291185
0.00607131 -0.393527
-0.0128759 -0.342218
0.00396388 -0.35875
-0.000332341 -0.388361
0.00855585 -0.336498
-0.00593511 -0.393242
0.0371286 -0.275513
0.0184201 -0.321894
0.000543166 -0.388015
0.00195112 -0.350708
0.00876445 -0.313745
0.0090348 -0.151081
0.0215657 -0.175643
0.0118364 -0.145022
0.0349132 -0.208998
-0.00935182 -0.0785482
0.000787992 -0.0960794
0.00395391 -0.124131
-0.00171584 -0.12297
0.00704988 -0.147298
-0.0113759 -0.0952052
-0.00572863 -0.101319
-0.0164314 -0.076075
0.0118836 -0.117427
0.020428 -0.137012
-0.0232103 -0.0609625
-0.0123774 -0.0920499
-0.0113945 -0.158832
-0.0120845 -0.147666
-0.0234448 -0.183282
-0.00415283 -0.126483
0.00948115 -0.0787836
-0.000726697 -0.0963874
-0.037697 -0.218114
-0.0102851 -0.156278
-8.98107e-05 -0.12821
0.0108848 -0.0976892
0.016444 -0.0770958
0.00557351 -0.103298
0.0232164 -0.0617586
-0.0118475 -0.117832
-0.0203516 -0.137533
0.0110551 -0.0959509
-0.00858986 -0.235536
0.00700953 -0.253157
0.00801655 -0.216121
0.00345745 -0.276462
0 0
0 0
-0.00726778 -0.110835
-0.0209564 -0.214966
-0.0155511 -0.251726
0.00930514 -0.226238
-0.00775822 -0.210753
-0.00779137 -0.248963
0.00775175 -0.100716
0 0
-0.0420929 -0.170619
-0.00435899 -0.274875
0.0172897 -0.240857
0.0216213 -0.199572
-0.030055 -0.273228
-0.0306502 -0.274455
-0.0108125 -0.300577
-0.0468123 -0.250708
0.00679849 -0.324746
-0.0324579 -0.269417
-0.0388004 -0.253204
0.0393589 -0.259456
0.0252068 -0.281917
0.041672 -0.260577
0.00724944 -0.306335
0.0474211 -0.245142
0.041121 -0.242724
0.0370403 -0.260797
0.0357847 -0.221818
0.0365097 -0.220458
0.0219929 -0.186708
0.0115227 -0.155228
0.0336721 -0.217596
-0.0366246 -0.227335
-0.0261092 -0.197487
-0.0390656 -0.228566
-0.0156546 -0.165355
-0.0355036 -0.227886
-0.0112416 -0.125736
-0.0218181 -0.172523
-0.0122059 -0.117122
-0.0274136 -0.208647
0.00400594 -0.0397323
0.00169306 -0.0990532
-0.0132285 -0.148273
-0.00439992 -0.279069
-0.00355166 -0.277689
-0.0107096 -0.269321
-0.000306635 -0.280411
-0.0193361 -0.260512
-0.00459932 -0.279265
0.00249673 -0.279684
0.00787487 -0.275392
0.0127858 -0.261511
0.00476714 -0.274135
0.0225278 -0.248415
0.0109457 -0.274869
0.00783072 -0.116187
0.0101861 -0.107158
0.0201382 -0.15913
-0.0047573 -0.0385215
0.0262805 -0.193072
0.00948406 -0.138713
-0.00397532 -0.094187
-0.0311362 -0.271581
-0.0221132 -0.284828
-0.00968255 -0.300808
-0.014879 -0.294829
0.037873 -0.254671
0.0239934 -0.281265
0.00879337 -0.30146
0.00979677 -0.299973
-0.0346522 -0.262087
-0.0266053 -0.279304
-0.0192784 -0.289459
-0.0234931 -0.283727
-0.0265012 -0.278341
-0.0274895 -0.274351
-0.0313673 -0.268216
-0.0216886 -0.279778
-0.0256107 -0.272985
-0.0348888 -0.256041
-0.0208767 -0.285929
0.028109 -0.273278
0.0245087 -0.277236
0.0238413 -0.280598
0.0194539 -0.286429
0.0161178 -0.287321
0.0219914 -0.284814
-0.0170058 -0.282589
-0.0187656 -0.284212
-0.0175188 -0.287396
-0.0140709 -0.288046
-0.0142264 -0.282745
-0.0123259 -0.285404
-0.00993446 -0.287108
-0.00759493 -0.28671
0.00563424 -0.285544
0.00242239 -0.285492
0.00193321 -0.286762
-0.000141097 -0.287602
-0.00370058 -0.287244
0.00242034 -0.287772
0.0162189 -0.284783
0.0195912 -0.280729
0.0147126 -0.283074
0.0227962 -0.275588
0.0118412 -0.282074
0.00971276 -0.284829
0.0124787 -0.287776
0.00827744 -0.28645
0.00501477 -0.287658
0.00624789 -0.28865
0.00282965 -0.288389
0.00816181 -0.287412
0.00973764 -0.287783
0.0135091 -0.0204329
0.013231 -0.0524437
0.0103349 -0.0272973
0.0139301 -0.0770448
0 0
0 0
0.0165431 -0.016502
0.0279964 -0.0454094
0.0224785 -0.056818
0.025396 -0.0330475
-0.0289918 -0.161273
-0.0349925 -0.17534
-0.0255054 -0.0327436
-0.0228654 -0.0556846
-0.0279966 -0.0449027
-0.0153005 -0.0736966
0.0291141 -0.160573
0.0350149 -0.174403
-0.0166463 -0.0164281
-0.010724 -0.0268254
-0.0141881 -0.0509752
-0.0136094 -0.0202308
-0.0328334 -0.237198
-0.0165724 -0.268936
-0.0181184 -0.273206
-0.0116652 -0.276215
-0.0190245 -0.268361
-0.00288615 -0.279964
-0.0260776 -0.252709
-0.0226673 -0.272105
-0.0150495 -0.278202
-0.0306781 -0.250145
-0.0335314 -0.250762
-0.0288981 -0.262841
-0.0356425 -0.23904
-0.0301018 -0.233239
-0.0249977 -0.187466
-0.0327101 -0.218286
-0.0297746 -0.207803
0.027254 -0.193862
0.0302659 -0.20653
0.0212325 -0.175724
0.0356495 -0.228217
0.0305798 -0.218038
0.0339813 -0.251268
0.0359718 -0.240711
0.0332322 -0.235376
0.0375844 -0.248809
0.0293834 -0.236891
0.0301725 -0.260423
0.0321029 -0.264266
0.0188371 -0.275396
0.013071 -0.277303
0.0122374 -0.279683
0.0118654 -0.276153
0.00518772 -0.27948
0.00645516 -0.281841
0.0244294 -0.269964
0.0245671 -0.256295
0.0187793 -0.268245
0.0259959 -0.262556
0.0316715 -0.27004
0.0287113 -0.275613
0.0349851 -0.261992
0.0176697 -0.290482
0.0316002 -0.268958
0.026507 -0.279129
0.0202631 -0.287708
-0.00323547 -0.284992
-0.00784564 -0.284154
-0.00527965 -0.286118
-0.0124661 -0.281643
0.00070836 -0.283827
-0.00203643 -0.280878
-0.00797665 -0.280777
6.1601e-05 -0.282076
0.00435539 -0.36701
-0.00626558 -0.366058
-0.00437909 -0.379326
-0.00506395 -0.343904
-0.0127864 -0.359558
-0.0100653 -0.385946
0.0073112 -0.381513
0.0147217 -0.373402
0.0107268 -0.356083
0.0127285 -0.316251
0.00455394 -0.332224
0.00955262 -0.337823
-0.00134051 -0.328415
0.0199896 -0.344407
0.020785 -0.304517
0.0161874 -0.302239
0.0437258 -0.22671
0.0411239 -0.191097
0.0364606 -0.203175
0.0257162 -0.193425
0.0310096 -0.18538
0.0463422 -0.214408
-0.0410533 -0.192168
-0.0456135 -0.232949
-0.037579 -0.208963
-0.0320971 -0.190802
-0.0290063 -0.203621
-0.0456054 -0.215422
-0.0394348 -0.263022
-0.0400038 -0.266536
-0.028733 -0.279676
-0.0505913 -0.251617
-0.0381542 -0.275782
-0.0167747 -0.302628
-0.0198044 -0.291774
-0.0393453 -0.260193
-0.0440891 -0.249722
-0.000566974 -0.318131
0.00778733 -0.329451
-0.00139381 -0.313488
0.0163006 -0.347239
0.0155765 -0.340651
-0.00275108 -0.310126
-0.0116857 -0.298136
-0.00987651 -0.304652
0.000419713 -0.325435
-0.0317531 -0.270638
-0.0360047 -0.261812
-0.0362406 -0.262689
-0.0363673 -0.258507
-0.038219 -0.249871
-0.0402064 -0.251249
-0.0372025 -0.261951
-0.0211325 -0.285475
-0.0258447 -0.279375
0.0155269 -0.294911
0.00785368 -0.308798
0.0167285 -0.29687
-0.00196402 -0.323481
0.0251029 -0.2843
0.025283 -0.280274
0.0164231 -0.292062
0.0403843 -0.265393
0.0475598 -0.255956
0.0460636 -0.253038
0.0456282 -0.266091
0.0514862 -0.248031
0.0452084 -0.243315
0.0447474 -0.250402
0.0343423 -0.272548
0.0306678 -0.282647
0.0417376 -0.250624
0.0401907 -0.252127
0.0381219 -0.259966
0.0398324 -0.240623
0.0395372 -0.24976
0.0324612 -0.269266
0.0325649 -0.26976
0.0429263 -0.251052
0.0421274 -0.242273
0.0423809 -0.232456
0.0432963 -0.23077
0.0358729 -0.2169
0.0272902 -0.199391
0.0412521 -0.232536
0.0399375 -0.231802
0.0394903 -0.232884
0.0381542 -0.231338
0.0297824 -0.206214
-0.0388111 -0.225657
-0.0459063 -0.238022
-0.0438662 -0.239042
-0.0421729 -0.24017
-0.0310804 -0.209962
-0.0402673 -0.238246
-0.0395293 -0.241125
-0.0324359 -0.214695
-0.0379808 -0.238282
-0.0176592 -0.290346
-0.0109598 -0.299022
-0.0158793 -0.293053
-0.0163996 -0.292752
-0.00875692 -0.302014
-0.022105 -0.285321
0.00813408 -0.303119
0.000123748 -0.313902
-0.000995017 -0.317305
0.00173521 -0.310673
-0.00628444 -0.32216
-0.00922525 -0.332426
0.0165243 -0.291133
0.0167883 -0.290887
0.0093918 -0.300441
0.0168505 -0.290605
0.00257415 -0.309245
0.0245823 -0.280362
0.0292576 -0.273976
0.0206793 -0.286172
0.00559071 -0.305322
0.0140687 -0.294738
0.0219417 -0.285437
0.0258568 -0.279491
-0.00125889 -0.313912
0.00982441 -0.300215
0.011926 -0.297878
0.0043917 -0.306605
-0.00236593 -0.309772
0.00476403 -0.318345
-0.00252309 -0.309383
0.0132766 -0.329148
0.0125148 -0.32693
-0.00199566 -0.309624
-0.00293032 -0.309251
0.00724745 -0.345876
0.0126553 -0.36745
0.015234 -0.356673
0.00523588 -0.378158
0.0141287 -0.383884
0.0223764 -0.364757
-0.00146701 -0.336636
-0.00999804 -0.364786
-0.000961091 -0.370357
-0.00379096 -0.35096
-0.0072307 -0.381739
-0.00962092 -0.325177
-0.0172288 -0.353195
-0.0144623 -0.373828
-0.0292756 -0.308274
-0.0239179 -0.33745
-0.0181257 -0.318414
-0.0222662 -0.363574
-0.0309904 -0.350854
0.0282134 -0.381803
0.0243463 -0.392819
0.0320701 -0.396816
-0.0406641 -0.33381
-0.0473425 -0.306543
0.0398258 -0.400513
0.0299135 -0.37324
0.0359238 -0.304825
0.0262629 -0.301986
0.0268387 -0.32613
0.022313 -0.363281
0.0309941 -0.350615
-0.0230478 -0.381591
-0.0295658 -0.395855
-0.0210276 -0.394305
-0.0377155 -0.399619
0.0399282 -0.333814
0.0483618 -0.306937
-0.0215552 -0.365923
0.0450943 -0.3174
0.0502106 -0.31451
0.04463 -0.310902
0.0541673 -0.317731
0.0139107 -0.292736
0.0118968 -0.292481
0.0403249 -0.308131
0.0400902 -0.320365
0.0456209 -0.324181
0.0539259 -0.327899
0.0622272 -0.330008
0.0591485 -0.323066
0.0661402 -0.335801
0.00991598 -0.292291
0.00855327 -0.292192
0.0491019 -0.330761
0.0659455 -0.358527
0.0744717 -0.360646
0.0724763 -0.352401
0.0758201 -0.368468
0.00720336 -0.292126
0.00627642 -0.2921
0.0688423 -0.343919
0.0577141 -0.355474
0.0607288 -0.363457
0.0670239 -0.373224
0.0735069 -0.38224
0.0752389 -0.375755
0.0715918 -0.387767
0.069757 -0.401454
0.0730304 -0.398152
0.059911 -0.370033
0.0598107 -0.393365
0.0637618 -0.399943
0.0665394 -0.396511
0.0602718 -0.40232
0.0760181 -0.394102
0.0786867 -0.389251
0.0693291 -0.392709
0.0560687 -0.386685
0.0538087 -0.390262
0.0525045 -0.39585
0.0512388 -0.403023
0.0560263 -0.403318
0.0458656 -0.402317
0.0808542 -0.38356
0.0823904 -0.376984
0.0486849 -0.388235
-0.0511173 -0.395017
-0.0558019 -0.403329
-0.0500092 -0.402031
-0.0600654 -0.402297
-0.0697519 -0.401062
-0.0662728 -0.40377
-0.0445053 -0.401241
-0.0445234 -0.383072
-0.0510453 -0.387341
-0.0590863 -0.393023
-0.0659966 -0.395905
-0.0635666 -0.399907
-0.0687635 -0.392088
-0.0625327 -0.405849
-0.0585379 -0.407497
-0.0526775 -0.382811
-0.0668198 -0.375062
-0.0751109 -0.377009
-0.0732583 -0.382336
-0.0756625 -0.369825
-0.054076 -0.408587
-0.0491012 -0.40923
-0.071364 -0.387844
-0.0600763 -0.372611
-0.0611179 -0.367367
-0.0611903 -0.335823
-0.0620519 -0.3274
-0.0664027 -0.333027
-0.0571102 -0.322113
-0.0578396 -0.313326
-0.0630032 -0.318508
-0.0702106 -0.338746
-0.0610651 -0.343468
-0.0566128 -0.337959
-0.0437936 -0.316069
-0.0447793 -0.310065
-0.048695 -0.31336
-0.0404605 -0.30729
-0.0676391 -0.32403
-0.0716717 -0.329802
-0.0526711 -0.316591
-0.0429799 -0.320857
-0.039042 -0.317532
-0.0751076 -0.335743
-0.0372345 -0.303772
-0.0341109 -0.302171
-0.030906 -0.300827
-0.0286692 -0.307986
-0.078942 -0.344449
-0.0305951 -0.272966
-0.0199504 -0.288249
-0.0216738 -0.284768
0.0427564 -0.384149
0.0365235 -0.379228
0.0416373 -0.391316
0.0304241 -0.364797
0.0434534 -0.377644
0.0338893 -0.269011
0.0333428 -0.271417
0.0405075 -0.259702
-0.0376915 -0.379247
-0.0382322 -0.38864
-0.0304638 -0.373736
-0.0201517 -0.352828
-0.0365458 -0.369259
0.0362042 -0.22134
0.0282758 -0.202318
-0.0377129 -0.227804
-0.0315397 -0.21136
0.0348298 -0.321303
0.034031 -0.31514
0.0328918 -0.309109
0.0274408 -0.310482
0.0554538 -0.346516
0.0603141 -0.34255
0.0520297 -0.338833
0.0440681 -0.334487
0.0500675 -0.350967
0.057308 -0.381633
0.0640455 -0.384826
0.0586721 -0.376554
0.051865 -0.365973
0.0503764 -0.377174
-0.0578826 -0.3761
-0.0632289 -0.384563
-0.0560307 -0.380212
-0.0465931 -0.372452
-0.0517248 -0.367419
-0.0470387 -0.32607
-0.052245 -0.324822
-0.0516112 -0.331455
-0.051813 -0.338781
-0.0425489 -0.327109
-0.032972 -0.310299
-0.0365955 -0.30931
-0.0362556 -0.313714
-0.0355619 -0.318194
-0.0284539 -0.312014
-0.0280175 -0.276704
-0.0272537 -0.278183
0.0297824 -0.35343
0.0301407 -0.358629
0.0370109 -0.36583
0.0228615 -0.349687
0.0437067 -0.372061
0.02906 -0.348847
0.0212767 -0.340334
0.0310676 -0.271185
0.0347204 -0.26469
0.0352533 -0.3253
0.0291727 -0.319926
0.0253112 -0.316867
0.0258487 -0.32048
0.0354949 -0.338149
0.0419039 -0.343161
0.0409102 -0.337666
0.0451072 -0.351637
0.0374375 -0.330128
0.029585 -0.332255
0.0309616 -0.337137
0.0369252 -0.356456
0.0441893 -0.36715
0.0446109 -0.362606
0.0449777 -0.356695
0.0290603 -0.345424
-0.0360362 -0.353269
-0.0447629 -0.36191
-0.0418499 -0.36253
-0.0466112 -0.359139
-0.0386795 -0.363689
-0.0287127 -0.345415
-0.0318036 -0.346032
-0.0441515 -0.345864
-0.0510381 -0.348995
-0.0496129 -0.352604
-0.0511816 -0.343999
-0.0564185 -0.35047
-0.0548986 -0.359955
-0.0485881 -0.356719
-0.0382142 -0.342624
-0.0394732 -0.339525
-0.0335622 -0.321119
-0.0306813 -0.317429
-0.0264357 -0.314852
-0.0235968 -0.318076
0.0149005 -0.335461
0.0140329 -0.332041
0.00600825 -0.321693
0.0286563 -0.3282
0.0319978 -0.328284
0.0262693 -0.323714
0.0224296 -0.320466
0.0238932 -0.327269
0.031451 -0.34484
0.0368652 -0.347904
0.0311063 -0.340653
0.0251205 -0.334193
0.0229091 -0.337332
-0.0363993 -0.344484
-0.0409105 -0.351245
-0.0344984 -0.346167
-0.0268883 -0.338987
-0.031441 -0.337954
0.0172172 -0.331569
0.0092606 -0.3222
0.0046048 -0.316657
0.00944556 -0.321203
-0.00404499 -0.316427
-0.0125008 -0.326357
-0.00708128 -0.320695
-0.0169142 -0.330125
-0.0199572 -0.335166
-0.0103288 -0.325589
-0.0012387 -0.312539
0.01976 -0.32558
0.0187135 -0.322082
0.0139791 -0.317293
0.0109152 -0.318291
0.0147606 -0.326112
0.01979 -0.332185
0.0205009 -0.331223
0.0202428 -0.328428
0.0102682 -0.320882
-0.0197075 -0.328657
-0.0253524 -0.333471
-0.0241669 -0.334453
-0.027157 -0.332213
-0.0213154 -0.333628
-0.0135692 -0.32366
-0.0148053 -0.323262
-0.0290208 -0.330612
-0.0227498 -0.326658
-0.0181083 -0.320841
-0.0215626 -0.320456
-0.0140503 -0.32587
-0.00903262 -0.320091
0.0150097 -0.322895
0.0113575 -0.32056
-0.0408614 -0.336261
-0.0413109 -0.331403
-0.0460005 -0.33749
-0.0370983 -0.326266
-0.0345758 -0.333383
-0.0266247 -0.322824
-0.0324077 -0.325079
-0.0303315 -0.327817
-0.0623076 -0.356295
-0.0683548 -0.363223
-0.0625543 -0.362801
-0.0761986 -0.36327
-0.0628192 -0.351001
-0.0737762 -0.347476
-0.0748909 -0.355113
-0.067002 -0.34909
-0.0815184 -0.353064
-0.0828684 -0.361342
-0.0161443 -0.336884
-0.026439 -0.353605
-0.019454 -0.345953
-0.0341925 -0.361181
-0.0143806 -0.332393
-0.0247356 -0.342659
-0.0283051 -0.349581
-0.0195393 -0.337944
-0.0035177 -0.268735
-0.00853744 -0.263762
-0.0245175 -0.187947
-0.028733 -0.201636
-0.0247992 -0.219246
-0.0261208 -0.233911
0.0171714 -0.253908
0.0183144 -0.242182
-0.003592 -0.306449
-0.00947681 -0.299686
0.0251143 -0.261504
0.0247337 -0.266372
0.00111196 -0.278347
0.00434355 -0.276806
-0.0296113 -0.0398917
-0.0268201 -0.0394326
-0.00738685 -0.0337641
-0.00661899 -0.0166468
0.0165157 -0.256465
0.0122691 -0.254825
0.0291401 -0.170312
0.027906 -0.203219
-0.0286274 -0.261654
-0.0288261 -0.255362
-0.000458784 -0.0014557
-0.00283611 -0.0164638
-0.0385845 -0.209195
-0.0213718 -0.188637
0.0391979 -0.240801
0.037432 -0.228254
-0.0132496 -0.164507
-0.00858171 -0.147115
-0.00968945 -0.12263
-0.0115356 -0.116156
-0.00530916 -0.27854
-0.0051981 -0.27887
-0.0246515 -0.189005
-0.0285824 -0.201019
0.0111861 -0.0107212
0.0200875 -0.0199638
0.0125521 -0.286812
0.0135113 -0.288212
0.0288223 -0.26462
0.0270425 -0.270737
-0.0443883 -0.226711
-0.0312683 -0.204598
0.0139848 -0.28149
0.0111139 -0.281053
0.0232267 -0.179388
0.019922 -0.177216
0.0132233 -0.286049
0.0110308 -0.285511
-0.0178986 -0.288266
-0.0148502 -0.292533
0.0255676 -0.279701
0.0252978 -0.280779
-0.000336232 -0.1279
0.00794487 -0.104561
0.0157466 -0.216179
0.0194275 -0.196036
-0.0049769 -0.262601
-0.0106532 -0.257962
-0.00884992 -0.254573
-0.00330201 -0.260007
0.00143477 -0.0753377
0.00324759 -0.0919987
-0.00765855 -0.294208
-0.00315024 -0.295683
-0.0298626 -0.206926
-0.0382844 -0.228659
0.00188763 -0.289364
0.000890383 -0.288983
-0.00223478 -0.207189
0.000123099 -0.226888
-0.0155249 -0.249519
-0.0289632 -0.246526
-0.0199417 -0.258999
-0.0142739 -0.25275
-0.0248737 -0.279731
-0.0211723 -0.283181
0.0320421 -0.216221
0.033394 -0.21981
-0.0409431 -0.204436
-0.0387001 -0.223178
-0.0189176 -0.162831
-0.0154219 -0.133558
-0.0110789 -0.130484
-0.0102545 -0.137183
-0.015149 -0.156117
-0.0212809 -0.177622
-0.0140406 -0.12805
-0.0126553 -0.134711
-0.0310984 -0.261795
-0.0279718 -0.266668
-0.0242291 -0.268113
-0.0200579 -0.272202
-0.0230482 -0.269379
-0.0240937 -0.271154
-0.029377 -0.272971
-0.0271922 -0.275397
-0.00451919 -0.11385
0.00209007 -0.103434
-0.00281787 -0.27975
-0.00700325 -0.278596
-0.0256504 -0.237713
-0.0211805 -0.244902
0.0281894 -0.199905
0.0242041 -0.185784
-0.0064629 -0.279853
-0.00613983 -0.279361
-0.0197137 -0.282097
-0.0206736 -0.283284
-0.0311408 -0.263171
-0.0334393 -0.254226
0.0309488 -0.217266
0.0283391 -0.199605
-0.00489658 -0.272831
-0.00920294 -0.273147
0.0179862 -0.0605815
0.0149863 -0.0547521
-0.0224188 -0.284147
-0.0266812 -0.27795
-0.0187874 -0.0463467
-0.0142659 -0.0501719
-6.15023e-05 -0.28075
-0.000210187 -0.280136
-0.0396329 -0.240399
-0.0367844 -0.225711
0.0133697 -0.274154
0.00895113 -0.277459
-0.0352623 -0.241649
-0.0350784 -0.229965
-0.0171104 -0.269179
-0.0136503 -0.274102
0.0216326 -0.0667301
0.0187493 -0.0750714
-0.00539602 -0.110493
-0.00114174 -0.124757
0.0242665 -0.191095
0.0154445 -0.167916
0.022769 -0.282835
0.0330674 -0.268182
-0.00859869 -0.290301
-0.00553961 -0.289997
-0.013261 -0.162427
-0.0197107 -0.181292
-0.00140438 -0.122616
-0.00105703 -0.113613
0.0417586 -0.241771
0.0432874 -0.253032
-0.00330913 -0.27826
-0.000936313 -0.28
-0.00843666 -0.288832
-0.00516922 -0.289157
-0.0216233 -0.284934
-0.019989 -0.287988
-0.00893564 -0.216442
-0.00373354 -0.199363
0.0152564 -0.14459
0.0173652 -0.175834
0.005323 -0.128845
0.00704456 -0.14141
0.0206556 -0.0205389
0.0190541 -0.0232066
0.0316445 -0.270142
0.0345873 -0.262159
0.00754304 -0.134302
0.0143985 -0.157249
0.00332631 -0.113248
0.0110063 -0.0911321
0.0256347 -0.280668
0.0203219 -0.287717
0.0073805 -0.286373
0.00990431 -0.286686
0.0315433 -0.270351
0.0305578 -0.27195
-0.0278408 -0.216888
-0.029219 -0.211008
0.000370226 -0.290136
-0.000188358 -0.289817
-0.0136064 -0.157396
-0.0145067 -0.153229
-0.0133184 -0.0365028
-0.0153931 -0.0278076
-0.00438037 -0.0258187
7.11375e-05 -0.0269489
0.0215122 -0.0197984
0.0260274 -0.0279082
-0.0209777 -0.285933
-0.0301247 -0.273123
-0.00148519 -0.279673
-0.00266778 -0.278573
-0.00187077 -0.278081
-0.000552336 -0.274514
-0.0144184 -0.287339
-0.0106543 -0.288383
-0.00669123 -0.111617
-0.00234788 -0.0869834
-0.0388125 -0.250684
-0.0364995 -0.258325
-0.000725475 -0.280131
0.000199297 -0.280639
0.0359397 -0.25612
0.0374107 -0.246435
0.0156883 -0.0787793
0.0203158 -0.0622144
0.0311527 -0.269504
0.0279137 -0.274782
0.00555413 -0.234371
-0.0046666 -0.23538
0.00421634 -0.277956
0.00121685 -0.279811
-0.0077299 -0.0699498
-0.00863407 -0.0525567
-0.00957391 -0.0963793
-0.0154251 -0.0767867
-0.0117717 -0.289565
-0.00803146 -0.290691
-0.0134563 -0.15088
-0.00498606 -0.148889
0.0373864 -0.25333
0.0371142 -0.24258
-0.00738329 -0.0968172
-0.00847395 -0.111524
-0.0130372 -0.127642
-0.00874414 -0.124169
-0.0102383 -0.012536
-0.0114791 -0.0116349
-0.023587 -0.178097
-0.0247961 -0.183438
0.00110062 -0.280229
0.00021318 -0.2808
0.00166694 -0.0270013
0.00342668 -0.0149112
0.0333818 -0.262122
0.0355013 -0.252819
-0.0282937 -0.215715
-0.0255733 -0.202988
-0.0245077 -0.0583617
-0.0230641 -0.0585201
-0.0191664 -0.262773
-0.0119458 -0.260057
-0.0127912 -0.263129
-0.0151073 -0.266
-0.00701837 -0.266591
-0.00355408 -0.259494
0.0288744 -0.268527
0.0253684 -0.27266
0.0291708 -0.248445
0.0276286 -0.242258
-0.0165648 -0.155501
-0.0191048 -0.169071
-0.0287438 -0.275633
-0.0294753 -0.273466
-0.00274995 -0.273246
-0.000829131 -0.277931
0.00276501 -0.275816
0.00686719 -0.272805
-0.0107859 -0.144627
-0.00403859 -0.121431
-0.00136847 -0.001794
-0.00963487 -0.0147172
-0.0207791 -0.169255
-0.0186896 -0.166996
0.00897903 -0.26467
0.00294946 -0.260351
0.0278866 -0.170181
0.00712727 -0.173283
0.0145584 -0.226765
0.0357348 -0.220087
-0.0103605 -0.0256896
-0.00569862 -0.0161502
-0.0349269 -0.248338
-0.0363449 -0.24396
0.0107584 -0.147864
0.0113035 -0.155695
-0.0207451 -0.287612
-0.0263239 -0.279657
0.0129588 -0.274969
0.0174702 -0.271683
-0.0138604 -0.273609
-0.0151418 -0.274348
-0.0268139 -0.270491
-0.030106 -0.265467
0.0350964 -0.261645
0.0340941 -0.262791
-0.000290431 -0.282345
0.00178524 -0.283483
-0.0137598 -0.286567
-0.0137395 -0.284989
0.0381987 -0.245594
0.0368072 -0.247593
0.0156878 -0.284379
0.0182637 -0.284309
-0.0246369 -0.0471379
-0.0272107 -0.0481992
-0.00970301 -0.277643
-0.0139417 -0.275644
-0.0299509 -0.238372
-0.0283007 -0.230466
0.00667304 -0.28928
0.00379217 -0.289882
0.0316123 -0.210811
0.0319168 -0.212042
0.00671255 -0.208157
0.0111858 -0.226328
0.00849033 -0.123869
0.00799171 -0.108749
0.00293839 -0.00208507
0.0136013 -0.0117749
-0.00155551 -0.0275454
0.00363736 -0.0640339
-0.0119034 -0.0419145
-0.00833629 -0.0630385
0.0214651 -0.0266882
0.0145293 -0.0148063
-0.00954728 -0.268354
-0.0136787 -0.266716
0.0165726 -0.292411
0.00978933 -0.300337
-0.0221094 -0.260818
-0.0240602 -0.251443
-0.0187666 -0.0434997
-0.0144972 -0.0455776
0.0105309 -0.275483
0.0151207 -0.271353
0.0151213 -0.0682845
0.0205353 -0.0569077
-0.0123845 -0.293303
-0.0122896 -0.29102
-0.00201677 -0.285795
-0.00633331 -0.285297
-0.0123398 -0.0589579
-0.00641584 -0.0785581
-0.0284329 -0.200613
-0.0299245 -0.213755
-0.0328354 -0.255365
-0.0326704 -0.261321
0.00968709 -0.120802
0.0169457 -0.144259
0.0139813 -0.28907
0.0165994 -0.288794
0.0339038 -0.256823
0.03157 -0.265781
0.00318198 -0.136685
0.00155465 -0.128463
0.00619716 -0.289462
0.00683111 -0.291056
-0.00219783 -0.23442
0.00727084 -0.231974
0.0171325 -0.0748072
0.0203949 -0.0709123
-0.00795116 -0.280413
-0.00887418 -0.281574
-0.023462 -0.282882
-0.0187618 -0.28839
-0.0236046 -0.283642
-0.0196584 -0.288268
0.0269783 -0.221645
0.0264674 -0.236954
-0.00592248 -0.252921
-0.00848601 -0.239392
-0.00433579 -0.279276
-0.0023568 -0.279866
0.010133 -0.211799
-0.00373013 -0.211568
0.0130477 -0.130492
0.0172358 -0.163356
0.024734 -0.228041
0.025277 -0.240653
-0.00737175 -0.172292
-0.00910314 -0.132841
0.00435811 -0.278921
0.00761323 -0.277355
0.0113998 -0.291421
0.0120808 -0.288875
0.0158152 -0.135507
0.0149369 -0.140477
0.0220447 -0.284989
0.0246096 -0.281976
-0.0249484 -0.189482
-0.0226308 -0.186125
-0.0153915 -0.154095
-0.0190575 -0.161011
-0.026526 -0.277897
-0.0228888 -0.283754
0.0307936 -0.260764
0.0276849 -0.267892
-0.000975133 -0.279793
-0.00119947 -0.279567
0.0145673 -0.291068
0.0105709 -0.295917
0.00290145 -0.279539
0.00276653 -0.27961
-0.000629068 -0.279988
-0.00286195 -0.279684
0.0279862 -0.271399
0.0283115 -0.267294
-0.0263415 -0.0509745
-0.0233261 -0.0617094
0.0110144 -0.288336
0.00768196 -0.289678
-0.0100198 -0.0991327
-0.00613699 -0.110356
0.0254742 -0.237093
0.028557 -0.236735
-0.01172 -0.27133
-0.00872559 -0.27572
0.0179258 -0.284858
0.016298 -0.284069
-0.00532754 -0.102666
-0.00125181 -0.0776814
-0.00965824 -0.204433
-0.000559166 -0.181251
-0.00109994 -0.278845
-0.00267523 -0.278986
-0.0196895 -0.279445
-0.0211622 -0.280427
0.0238474 -0.28312
0.0287589 -0.275534
-0.0116861 -0.231523
-0.0106773 -0.246154
0.00634016 -0.281489
0.0080072 -0.282525
0.026175 -0.278356
0.0203492 -0.286668
-0.0123848 -0.280187
-0.0170824 -0.278104
0.0229687 -0.0476358
0.0262846 -0.0446961
0.0383524 -0.244574
0.0370317 -0.250969
0.00306514 -0.279491
-0.00145767 -0.279941
0.032619 -0.232656
0.0310042 -0.219368
0.00323069 -0.119198
0.00664404 -0.109101
-0.00118267 -0.121045
-0.00864654 -0.136575
-0.00427381 -0.291692
-0.00115172 -0.293882
0.00935906 -0.0139048
0.0151898 -0.0282877
0.026515 -0.0428662
0.0233703 -0.0408776
-0.0123397 -0.292364
-0.00829364 -0.293723
-0.0125097 -0.278683
-0.0170459 -0.275548
0.0243303 -0.188616
0.00483693 -0.189542
-0.00180147 -0.280364
-0.000361 -0.280968
-0.0166789 -0.277935
-0.0157552 -0.276634
-0.019112 -0.0436617
-0.0189891 -0.0298584
-0.00249296 -0.279938
0.000956236 -0.280264
0.000537233 -0.280573
-0.000431204 -0.281444
-0.0353762 -0.253379
-0.0335607 -0.256474
-0.0248568 -0.280486
-0.0225553 -0.284168
-0.0182166 -0.16757
-0.0214161 -0.181312
-0.00115324 -0.250958
0.00255471 -0.260339
0.000270417 -0.280605
0.00316072 -0.27925
0.0112445 -0.279823
0.0158608 -0.278318
0.0156033 -0.0489697
0.0134317 -0.0677218
-0.00881468 -0.174867
-0.0148083 -0.193186
0.00862395 -0.0957942
0.00701815 -0.106914
0.0129774 -0.290264
0.00925207 -0.291166
0.00949027 -0.251883
0.0213859 -0.244724
0.0155713 -0.264769
0.0123954 -0.264309
0.00204387 -0.0755118
0.00504111 -0.0843993
0.00410887 -0.296611
0.0027441 -0.293595
0.0264913 -0.27384
0.0281589 -0.273677
-0.0169173 -0.270535
-0.0206617 -0.267907
-0.0203371 -0.167984
-0.0239723 -0.179961
0.0401656 -0.232032
0.0349663 -0.220286
0.00252618 -0.0176677
-0.0028179 -0.0571447
0.0110963 -0.290596
0.0117776 -0.292676
-0.0170231 -0.172893
-0.0226615 -0.1891
0.0116789 -0.0521082
0.0110463 -0.0345655
-0.00136587 -0.276119
0.000497632 -0.278987
-0.0128469 -0.159924
-0.0193052 -0.179514
-0.0293837 -0.214284
-0.0277116 -0.198213
-0.0351476 -0.226757
-0.0323737 -0.215929
0.0232645 -0.0572798
0.0215432 -0.0671614
0.0229385 -0.267434
0.0190212 -0.270361
-0.0130144 -0.264855
-0.006612 -0.261916
-0.0200955 -0.270115
-0.0156877 -0.273745
-0.0114878 -0.0767757
-0.00294128 -0.115161
-0.0322341 -0.267866
-0.029633 -0.272289
0.00798489 -0.286888
0.00922873 -0.287717
-0.00582264 -0.233541
0.00200459 -0.243243
0.0153956 -0.151916
0.0222118 -0.174887
-0.0290432 -0.033497
-0.0282215 -0.0415997
-0.02405 -0.192604
-0.0143455 -0.167
-0.00774139 -0.131534
-0.0131989 -0.141947
0.00952082 -0.259682
0.00147298 -0.262731
0.0280368 -0.201619
0.0190856 -0.178616
-0.00212295 -0.287861
-0.000701057 -0.286877
-0.00198644 -0.29225
-0.00383504 -0.294904
-0.0177975 -0.169179
-0.0224397 -0.185847
-0.015656 -0.265466
-0.0115583 -0.271562
0.0338251 -0.218972
0.037064 -0.232641
-0.000649427 -0.286859
-0.0024249 -0.285759
-0.0323167 -0.249687
-0.0299164 -0.252588
-0.0434481 -0.254219
-0.0384347 -0.260117
-0.0156267 -0.0767541
-0.0181246 -0.0758753
0.0115784 -0.016942
0.00711983 -0.0103795
0.00865335 -0.0646904
0.0139764 -0.0474763
0.0153412 -0.291272
0.0101045 -0.296054
-0.00231599 -0.00730137
-0.00295547 -0.0166341
-0.0374036 -0.231994
-0.0330241 -0.216084
0.0137882 -0.127719
0.00754082 -0.100699
0.0152352 -0.0835161
0.0131905 -0.0915036
0.0281093 -0.275636
0.0362133 -0.262228
0.0291619 -0.274125
0.0329071 -0.268083
-0.019253 -0.151817
-0.0238418 -0.176473
0.0031603 -0.0733527
-0.00427099 -0.0392577
0.0312583 -0.270965
0.034489 -0.26358
-0.000276765 -0.276235
0.00160627 -0.27135
0.0091463 -0.207432
-0.0046185 -0.197633
0.0232138 -0.177104
0.0186019 -0.156314
0.0164085 -0.0358222
0.0127108 -0.0418547
0.00575861 -0.262426
0.0051642 -0.270492
0.00898637 -0.0817505
0.00321501 -0.0880351
-0.0267066 -0.197386
-0.019198 -0.175543
-0.0300846 -0.271464
-0.0314102 -0.26606
0.000734568 -0.290711
0.00166762 -0.291389
0.0322854 -0.26291
0.029704 -0.270865
0.0212213 -0.285146
0.0303686 -0.27226
0.000936357 -0.244609
-0.00415486 -0.253957
0.00797083 -0.0101225
0.0149771 -0.0234073
0.00779982 -0.0767465
0.00959631 -0.0850686
-0.00349558 -0.0107027
-0.0078064 -0.0196453
-0.0247245 -0.28211
-0.0267206 -0.27912
0.00314986 -0.127328
0.010838 -0.145739
-0.0454453 -0.244641
-0.042016 -0.265285
0.00128905 -0.119352
0.00520445 -0.140158
0.000316419 -0.286295
-0.00380796 -0.286313
-0.00175011 -0.11926
-0.00273552 -0.12029
-0.0219912 -0.278817
-0.017811 -0.282001
0.00228537 -0.252897
-0.00442672 -0.258837
-0.0182476 -0.0533329
-0.0142651 -0.0518459
-0.0202896 -0.273684
-0.0156964 -0.277109
0.0265768 -0.238832
0.0274865 -0.247699
0.0220883 -0.0590974
0.0201718 -0.070861
-4.99885e-05 -0.28019
0.000693154 -0.280056
0.0155467 -0.136199
0.0211039 -0.16182
-0.00718506 -0.0424635
-0.00351863 -0.0423643
0.0185236 -0.281529
0.0160484 -0.281253
-0.0227051 -0.0221827
-0.0125884 -0.010776
0.0115322 -0.148106
0.0133723 -0.159482
-0.0196317 -0.287507
-0.028807 -0.274939
-0.0234337 -0.186833
-0.0199458 -0.162116
-0.0130355 -0.293433
-0.0109199 -0.292956
-0.0261415 -0.267689
-0.0291093 -0.260413
-0.000103806 -0.280621
0.00025642 -0.280461
-0.010507 -0.289487
-0.0106493 -0.291521
0.0174094 -0.143828
0.0220767 -0.167478
-0.01858 -0.279994
-0.0185896 -0.282153
-0.0173295 -0.175111
-0.0107611 -0.157835
-0.0302916 -0.210063
-0.0308688 -0.219682
-0.00747788 -0.274795
-0.0110035 -0.269129
0.00659152 -0.256143
0.0143613 -0.259573
-0.00098615 -0.293725
-0.0010072 -0.291329
-0.00116616 -0.279961
-0.00201961 -0.279896
0.0323772 -0.268433
0.0343476 -0.261594
0.0128143 -0.275946
0.0164737 -0.272035
-0.030119 -0.226972
-0.030476 -0.21556
0.0251793 -0.166124
0.00426823 -0.165508
0.0258586 -0.241332
0.0256094 -0.251607
0.00451115 -0.275793
0.00513568 -0.270447
-0.0245071 -0.270448
-0.0203244 -0.274663
-0.0149497 -0.284997
-0.0169525 -0.282339
0.0155145 -0.280368
0.019119 -0.279627
-0.0245318 -0.279194
-0.0233403 -0.278376
0.0133836 -0.284942
0.0132379 -0.286663
-0.0354116 -0.257004
-0.0329899 -0.266554
-0.000668844 -0.28827
-0.00139407 -0.289051
-0.00804093 -0.264374
-0.00293688 -0.269002
-0.0172837 -0.170268
-0.00928766 -0.150124
0.0298713 -0.231231
0.0380985 -0.21461
-0.0324143 -0.268135
-0.0354687 -0.259576
-0.0257795 -0.277793
-0.0218308 -0.282907
-0.00159676 -0.304346
-0.0075573 -0.300193
-0.0260982 -0.262183
-0.0267342 -0.255176
-0.00900046 -0.117785
-0.00700496 -0.122532
0.0307274 -0.237768
0.0294329 -0.226513
0.0313528 -0.213065
0.0335042 -0.228649
-0.00815632 -0.281683
-0.0130289 -0.280025
-0.036401 -0.221808
-0.0280247 -0.20236
-0.0172137 -0.252657
-0.0125448 -0.263138
0.0155466 -0.278882
0.0141873 -0.27784
0.0294137 -0.273725
0.0285667 -0.275286
0.00266646 -0.0940405
0.00962319 -0.0812868
-0.0302728 -0.206063
-0.0303234 -0.226277
-0.00955829 -0.291821
-0.00965089 -0.289726
0.0135433 -0.264362
0.0181246 -0.258363
-0.0346874 -0.257334
-0.0334889 -0.255943
-0.0195285 -0.278503
-0.0190035 -0.27653
-0.0235866 -0.0520563
-0.0234098 -0.060416
0.00457247 -0.230988
-0.00247852 -0.218074
-0.0150612 -0.27654
-0.0195521 -0.272506
-0.0226815 -0.273673
-0.0182919 -0.277343
-0.00693724 -0.0133853
-0.00779976 -0.0258383
-0.00112111 -0.171355
0.00357942 -0.201955
0.0045068 -0.20568
0.00979698 -0.181807
0.00277778 -0.0423481
-0.00349575 -0.0736797
-0.00679448 -0.286471
-0.00324853 -0.287259
0.024994 -0.219199
0.023871 -0.235436
-0.00665229 -0.0993234
0.00188067 -0.0749207
0.0531826 -0.251266
0.0396976 -0.224365
-0.00177634 -0.278449
-0.000520739 -0.280359
-0.0228908 -0.0234224
-0.0196806 -0.0237633
-0.0172745 -0.0569726
-0.0136721 -0.0758606
-0.0155554 -0.0732235
-0.0156922 -0.0822601
0.0138005 -0.196334
0.0158577 -0.169972
-0.00854603 -0.272844
-0.00442505 -0.277298
-0.00441337 -0.0744883
-0.00796721 -0.11714
-0.0108318 -0.27973
-0.0150386 -0.278727
0.0294842 -0.203863
0.0296052 -0.209885
0.0480799 -0.241118
0.0383879 -0.224092
0.00294777 -0.132748
0.0116181 -0.156186
0.0241924 -0.281485
0.0205009 -0.285072
-0.00846728 -0.148183
-0.00256793 -0.127598
-0.00412703 -0.289237
-0.00684757 -0.288519
-0.00518192 -0.289739
-0.00336713 -0.289319
-0.0141436 -0.294404
-0.00863399 -0.299159
0.00345372 -0.0530203
-0.00302981 -0.0818045
-0.0302037 -0.265586
-0.032912 -0.257415
0.0374234 -0.243257
0.0384852 -0.23902
-0.0339311 -0.26601
-0.0350499 -0.261455
-0.0135879 -0.263048
-0.0178913 -0.267085
0.00326985 -0.0657924
-0.00328717 -0.0243093
0.0306036 -0.263144
0.0276358 -0.270404
-0.0127812 -0.260851
-0.00762844 -0.25396
-0.00384839 -0.214369
-0.00749237 -0.230619
-0.00887377 -0.0102172
-0.000632745 -0.000725649
-0.0156823 -0.283166
-0.0131664 -0.282794
0.029132 -0.274434
0.0236376 -0.283116
-0.0352009 -0.227567
-0.0324541 -0.216768
-0.0116391 -0.0952594
-0.00451105 -0.114734
0.0281266 -0.203737
0.0262619 -0.204753
0.02237 -0.283818
0.0252507 -0.278949
0.0305117 -0.272039
0.0342445 -0.265745
-0.0240567 -0.283155
-0.0280658 -0.276681
-0.00582649 -0.0162143
-0.00140691 -0.00456986
-0.00284609 -0.279853
-0.00143718 -0.280315
0.0103294 -0.23321
0.00415519 -0.224073
0.0103093 -0.299764
0.0138718 -0.295469
-0.00944345 -0.271435
-0.0104044 -0.26481
-0.028425 -0.276201
-0.0364132 -0.26349
0.00200247 -0.291484
0.00533233 -0.292466
0.00581058 -0.114437
0.0132569 -0.133204
0.0224293 -0.0409569
0.0221208 -0.0295427
-0.0369342 -0.261485
-0.0396648 -0.249087
0.0169179 -0.261087
0.019423 -0.262079
0.021609 -0.195939
0.0244562 -0.212989
-0.00212955 -0.2881
-0.00507872 -0.288241
-0.033961 -0.214995
-0.0257336 -0.196901
0.00415143 -0.0599397
0.00777221 -0.102041
-0.000814411 -0.279647
-0.00401439 -0.278178
0.0201338 -0.175082
0.0257801 -0.190332
-0.0289568 -0.0360397
-0.0255457 -0.0338891
0.000402439 -0.0529969
-0.000848783 -0.0632708
-0.00665084 -0.294685
-0.0042423 -0.299171
0.0277694 -0.253398
0.0242411 -0.258034
0.00490203 -0.004614
0.014019 -0.0160554
0.000453049 -0.288939
0.00097098 -0.288106
-0.00826659 -0.268177
-0.00505436 -0.274084
0.013035 -0.249401
0.0171895 -0.238675
-0.0043883 -0.290011
-0.00201916 -0.2906
-0.0279018 -0.0478122
-0.0296687 -0.0391603
0.00527557 -0.0467764
0.00549971 -0.02347
0.00133667 -0.295859
0.00312882 -0.298568
-0.0165193 -0.289773
-0.0155513 -0.292352
0.0316227 -0.270192
0.0298723 -0.273755
-0.0177022 -0.290112
-0.0197865 -0.288609
0.045703 -0.241262
0.0345016 -0.210336
-0.00500477 -0.290954
-0.0052968 -0.293283
0.0100055 -0.122455
0.0138751 -0.134672
-0.0224796 -0.184196
-0.0285287 -0.200967
0.0175828 -0.290581
0.0114361 -0.29735
0.0253587 -0.185002
0.0195381 -0.163769
-0.0275977 -0.0339234
-0.024027 -0.0318766
0.00389422 -0.282996
1.12357e-05 -0.282561
-0.0143806 -0.167551
-0.0225494 -0.188846
0.0151069 -0.239847
0.0189556 -0.226619
0.00504213 -0.280445
0.00808692 -0.278878
-0.0310425 -0.254319
-0.0283966 -0.256848
-0.0157798 -0.280357
-0.0125573 -0.283276
0.0253008 -0.279269
0.0217958 -0.282554
-0.0111686 -0.286253
-0.0102379 -0.285113
-0.00790039 -0.15526
-0.0227765 -0.185625
0.0225391 -0.179017
0.0186109 -0.17775
-0.0224474 -0.279771
-0.0185754 -0.28356
0.0213452 -0.194637
0.0218351 -0.174742
0.00254223 -0.289765
0.00331915 -0.290289
0.0251143 -0.221442
0.0269329 -0.233204
-0.00623306 -0.0122455
-0.00164433 -0.00404928
-0.0232471 -0.174018
-0.0267197 -0.195927
-0.0132173 -0.0437133
-0.0108566 -0.0636281
-0.0036998 -0.241996
0.00435712 -0.247553
-0.00732749 -0.277914
-0.00295455 -0.279719
0.0119555 -0.213995
0.0113454 -0.1914
0.0113533 -0.128365
0.00822862 -0.101363
-0.00143247 -0.279683
0.000738342 -0.280094
0.0229211 -0.22882
0.0180306 -0.224202
-0.0176836 -0.0156523
-0.0162204 -0.0162115
-0.00682528 -0.294416
-0.0073411 -0.291554
0.0150893 -0.275506
0.0198522 -0.271545
0.00327826 -0.283056
-0.000894765 -0.2843
-0.0140609 -0.285092
-0.0101255 -0.285895
0.000289076 -0.289978
-0.00079997 -0.289795
0.00604338 -0.163564
0.0151386 -0.161167
0.0101652 -0.285404
0.0135378 -0.283304
-0.00600617 -0.281684
-0.00198469 -0.282831
-0.0120861 -0.289084
-0.00993106 -0.291682
0.00634791 -0.279339
0.00877535 -0.277773
-0.00295634 -0.0333628
-0.00129971 -0.00565403
0.00186956 -0.288712
0.00119413 -0.287982
0.00287597 -0.287824
0.00607184 -0.28742
-0.021811 -0.180327
-0.0171515 -0.177116
-0.00470717 -0.279196
-0.00134045 -0.27997
0.0101758 -0.299914
0.0125208 -0.296944
-0.00417694 -0.280298
-0.00129571 -0.281201
0.0358256 -0.257151
0.0334298 -0.263593
-0.0245292 -0.0362793
-0.026905 -0.0321396
0.0296804 -0.273329
0.0241935 -0.280913
0.0291886 -0.23869
0.0275678 -0.250525
0.0303672 -0.230312
0.0300893 -0.215432
-0.0213167 -0.173863
-0.0239454 -0.18578
0.0148074 -0.281395
0.0147994 -0.279378
0.00655329 -0.276009
0.00370356 -0.27703
0.0114027 -0.275765
0.00737888 -0.277845
-0.0159514 -0.244104
-0.00379984 -0.24364
0.0185674 -0.0224023
0.0245817 -0.0322514
0.016147 -0.27291
0.0194079 -0.271468
-0.0159243 -0.27707
-0.0120152 -0.278181
-0.024443 -0.270563
-0.0278053 -0.267292
-0.014412 -0.0872972
-0.0093171 -0.100963
-0.0326166 -0.26533
-0.0305311 -0.267968
0.00673989 -0.285636
0.00707406 -0.283978
0.00886718 -0.0178977
0.0135999 -0.0272282
0.0194031 -0.288307
0.0111426 -0.298701
-0.00941805 -0.29653
-0.0118126 -0.292546
-0.0177212 -0.145069
-0.0188501 -0.158121
3.461e-05 -0.290086
0.000510535 -0.290198
-0.00164123 -0.105537
-0.00356646 -0.0888508
-0.0283759 -0.200313
-0.0315701 -0.214515
-0.00356812 -0.291447
-0.00174345 -0.294201
0.00310188 -0.0808586
0.00984583 -0.0656751
-0.00777031 -0.00863455
-0.00885646 -0.00817438
-0.0195197 -0.172549
-0.012065 -0.150013
-0.000761431 -0.00137548
-0.000483219 -0.000574888
0.0432267 -0.254432
0.0413081 -0.250537
-0.00454644 -0.0974141
0.00277266 -0.121148
0.0288456 -0.228619
0.0221057 -0.241924
-0.034491 -0.239684
-0.0344887 -0.250646
-0.00379853 -0.283998
-0.000115311 -0.282896
0.0336168 -0.259631
0.0351355 -0.249548
-0.0357684 -0.231826
-0.0329199 -0.218295
0.00354841 -0.117168
0.00649391 -0.110313
-0.00390242 -0.273513
-0.00351298 -0.277819
0.0113572 -0.296833
0.00671475 -0.299913
0.000805585 -0.287471
-3.85909e-05 -0.286429
0.0283119 -0.270985
0.0245482 -0.276026
-0.00273508 -0.279854
-0.000400176 -0.280157
0.00387567 -0.279369
0.00591993 -0.278508
-0.00932164 -0.286686
-0.00563103 -0.287567
0.035094 -0.252722
0.0336414 -0.262344
0.0256051 -0.278519
0.0215978 -0.284012
0.0167869 -0.0807829
0.0168743 -0.079952
-0.0204829 -0.0299317
-0.0237272 -0.0412087
0.025237 -0.280403
0.0282261 -0.274784
-0.0226921 -0.281608
-0.0187974 -0.285882
0.0217427 -0.190374
0.0374857 -0.166611
-0.0346992 -0.242073
-0.0335161 -0.231048
-0.00547591 -0.104149
0.00305959 -0.1265
-0.00174912 -0.279525
0.000570355 -0.280081
-0.00517472 -0.0538782
0.000377859 -0.0788341
-0.0113673 -0.0899961
-0.0144996 -0.0725932
0.0270272 -0.276591
0.0232631 -0.282545
-0.0163983 -0.282467
-0.0142584 -0.285071
-0.0315238 -0.211774
-0.0360964 -0.226553
0.0144487 -0.0728622
0.0212488 -0.0626423
-0.00808005 -0.124869
-0.000233445 -0.106155
0.0267302 -0.277515
0.0304722 -0.270486
0.0255357 -0.0386369
0.0247199 -0.0514067
0.0120652 -0.0926094
0.0178336 -0.0739312
0.0221503 -0.285294
0.0286006 -0.275854
0.0248163 -0.182606
0.037354 -0.219464
0.0272899 -0.194597
0.0245058 -0.182209
0.0299926 -0.250582
0.0268995 -0.258752
-0.0337059 -0.223813
-0.0338673 -0.233338
-0.000246777 -0.281748
0.00066091 -0.28294
0.0228841 -0.17971
0.0263242 -0.193343
0.022055 -0.0355584
0.0221321 -0.049875
0.000530338 -0.290149
0.00121572 -0.289792
-0.0124981 -0.288151
-0.0163984 -0.286503
-0.0217724 -0.221969
-0.0165094 -0.234166
-0.0209263 -0.165396
-0.0237449 -0.190132
-0.00860124 -0.290155
-0.00712566 -0.292391
-0.00253618 -0.107182
0.00278201 -0.0826485
-0.0126771 -0.0657778
-0.0157456 -0.0465441
0.00317286 -0.288984
0.00580219 -0.288477
-0.00423601 -0.0801373
-0.0080136 -0.116971
-0.0315094 -0.271035
-0.0374344 -0.258558
-0.000797773 -0.28125
0.00441398 -0.280544
0.0037034 -0.123066
0.00985963 -0.13467
-0.0122867 -0.113913
-0.0197828 -0.161099
0.00665469 -0.0942337
0.00800952 -0.104307
0.0227311 -0.271419
0.0264981 -0.268145
0.0139653 -0.286386
0.0168087 -0.286133
0.0305422 -0.207143
0.0238805 -0.187047
-0.00279875 -0.275244
-0.00253182 -0.278906
0.0195599 -0.287928
0.019358 -0.286731
-0.006204 -0.289278
-0.00886802 -0.289707
-0.011073 -0.267413
-0.0132061 -0.25894
0.00537926 -0.0154741
0.00487157 -0.0260963
-0.00735697 -0.286313
-0.00402274 -0.2873
0.0184566 -0.290045
0.0186626 -0.289144
-0.0124821 -0.283552
-0.0128885 -0.281476
-0.0292915 -0.203671
-0.0332649 -0.220613
0.0187638 -0.284337
0.0162192 -0.287787
-0.0309545 -0.269969
-0.0282846 -0.274261
0.00205862 -0.28432
-0.000526264 -0.283182
-0.0253222 -0.254776
-0.0279047 -0.254847
0.0237587 -0.275161
0.0198244 -0.277787
0.00212466 -0.279257
0.00276566 -0.277629
0.0339361 -0.217003
0.0257512 -0.195812
0.0224152 -0.284928
0.0217611 -0.285911
-0.0239952 -0.280684
-0.0242395 -0.278365
0.00643666 -0.0989931
-0.000726765 -0.122213
-0.0214117 -0.285447
-0.0193309 -0.28881
-0.0301215 -0.036589
-0.0284674 -0.0451953
0.00943318 -0.10788
0.0038068 -0.0820654
0.0344849 -0.239053
0.0345249 -0.229044
-0.000652734 -0.28027
-0.00237437 -0.27834
0.00507038 -0.260757
0.00420369 -0.251285
-0.00193318 -0.117155
-0.00959026 -0.0944405
0.0184968 -0.286133
0.0168459 -0.289407
-0.0139113 -0.130747
-0.00788525 -0.100657
0.00725691 -0.291612
0.0110867 -0.290173
0.00229124 -0.278515
0.000297588 -0.280416
0.0188431 -0.27868
0.0223043 -0.277421
0.0238031 -0.273393
0.0234658 -0.276688
0.0254947 -0.268853
0.028956 -0.264725
-0.00384956 -0.206471
-0.000906372 -0.226126
-0.0325055 -0.267027
-0.0352572 -0.259532
0.0208284 -0.160713
0.0216616 -0.178149
0.0084741 -0.297353
0.010417 -0.293421
0.0333184 -0.225066
0.0342856 -0.224515
-0.0111161 -0.0116801
-0.00115976 -0.0011421
0.0211515 -0.0274954
0.0252672 -0.0285911
-0.0066233 -0.278617
-0.0030613 -0.279646
-0.00153928 -0.289972
-0.000312529 -0.290234
0.0198193 -0.0239865
0.0128189 -0.0151697
0.0316815 -0.236725
0.0320242 -0.224354
0.00945427 -0.270283
0.00402491 -0.269383
0.025169 -0.0524659
0.0231699 -0.0479383
0.000499012 -0.274111
-0.0003637 -0.278449
0.000758735 -0.288922
0.00195094 -0.289275
0.0154541 -0.277281
0.0107471 -0.279043
0.0328543 -0.218552
0.030221 -0.206393
-0.0280964 -0.276084
-0.0312828 -0.268576
0.00842543 -0.126883
0.0156823 -0.149097
0.031279 -0.169028
0.0283589 -0.194264
-0.0235621 -0.268457
-0.021141 -0.268657
-0.0317401 -0.212584
-0.0339461 -0.220429
0.0380318 -0.247127
0.0388601 -0.250228
0.0422254 -0.233261
0.04417 -0.254329
-0.00875926 -0.0906255
-0.00221043 -0.11304
-0.0305588 -0.250853
-0.0298047 -0.243009
-0.0280842 -0.199661
-0.0250345 -0.193395
0.016148 -0.170904
0.0200756 -0.182
0.0162113 -0.145201
0.00880247 -0.123988
0.00285532 -0.289564
0.00415485 -0.28994
-0.0156511 -0.287324
-0.0161759 -0.285214
-0.00132409 -0.292204
-0.00288671 -0.29516
0.0136568 -0.286279
0.0105345 -0.286424
-0.0111624 -0.282181
-0.00685726 -0.282452
-0.0146189 -0.292887
-0.0133693 -0.292106
-0.00301149 -0.190001
-0.00919175 -0.154319
0.00353226 -0.0347376
0.00152287 -0.0084445
-0.00199128 -0.264603
-0.00465083 -0.26999
0.0290236 -0.241785
0.0312637 -0.244284
0.0111447 -0.282716
0.00987993 -0.28476
0.026067 -0.0514107
0.0291854 -0.0440756
-0.0294267 -0.206515
-0.0287694 -0.210904
-0.0363667 -0.258938
-0.0321393 -0.269929
-0.000412897 -0.290812
-0.0019928 -0.290476
-0.0158967 -0.261971
-0.0167225 -0.252087
-0.0316377 -0.223763
-0.030282 -0.210084
0.00462715 -0.290082
0.00312456 -0.289605
0.00889769 -0.0179184
0.0116332 -0.0360526
0.0261799 -0.194047
0.0199868 -0.174391
0.0242406 -0.28083
0.0337669 -0.268025
0.0216986 -0.285973
0.0162979 -0.292596
-0.000883776 -0.256998
0.00383701 -0.264279
0.0195174 -0.277462
0.0176529 -0.280788
0.00133823 -0.249614
0.000532373 -0.260341
-0.00152068 -0.261257
0.00588425 -0.257297
-0.0235574 -0.282722
-0.0225999 -0.284685
0.00656964 -0.279214
0.00443481 -0.279342
-0.00610609 -0.116611
-0.0131687 -0.135403
0.00583879 -0.118744
0.0113982 -0.141402
0.0021577 -0.288299
0.00333141 -0.288793
-0.0269545 -0.251665
-0.0237381 -0.253337
0.00823628 -0.287875
0.00733007 -0.289162
-0.00795374 -0.277317
-0.00674989 -0.27864
0.0379982 -0.247961
0.0365841 -0.249556
0.0220569 -0.169159
0.0158321 -0.148486
0.0217698 -0.0397792
0.0193505 -0.0554613
0.0287059 -0.272653
0.028606 -0.26985
-0.0318558 -0.262456
-0.0306533 -0.268795
0.0119785 -0.00968582
0.0189055 -0.0193563
-0.0248511 -0.233789
-0.0260864 -0.21708
-0.0320646 -0.213227
-0.027146 -0.196108
0.0199636 -0.2576
0.0222021 -0.247043
-0.01476 -0.213685
-0.00755837 -0.206843
0.0289752 -0.245905
0.0259457 -0.247386
0.027828 -0.273022
0.0270292 -0.27122
-0.021866 -0.18462
-0.0254412 -0.173137
-0.0228872 -0.189564
-0.0191091 -0.1797
0.0120916 -0.258097
0.0159014 -0.247791
-0.0147041 -0.291346
-0.0153695 -0.288815
-0.0179902 -0.251694
-0.0136094 -0.241202
-0.0153706 -0.294188
-0.00700956 -0.304001
0.018452 -0.223414
0.00370656 -0.225447
-0.0269303 -0.204717
-0.0246596 -0.211769
-0.0231769 -0.278103
-0.0263126 -0.275711
-0.00924592 -0.26062
-0.00170223 -0.258292
0.00716456 -0.278035
0.00379528 -0.279258
0.0151369 -0.28742
0.0129259 -0.290566
0.0182494 -0.0416353
0.0160711 -0.0263665
0.00598928 -0.103936
0.0036696 -0.117777
-0.0113501 -0.275846
-0.0106955 -0.274932
0.0264538 -0.190923
0.0275697 -0.196911
0.0256667 -0.236049
0.0254002 -0.247767
-0.0206318 -0.287798
-0.0265889 -0.279332
-0.0116758 -0.290142
-0.0094231 -0.293217
0.0319244 -0.269194
0.0312302 -0.269071
0.0283702 -0.207621
0.0254611 -0.187642
-0.0122223 -0.259929
-0.0081251 -0.251562
0.0391173 -0.235041
0.0336929 -0.217116
0.0119405 -0.151293
0.0210088 -0.115105
-0.00829983 -0.302517
-0.00975567 -0.300537
-0.00459712 -0.290192
-0.00344196 -0.289552
0.0172092 -0.175819
0.020315 -0.197061
0.0133972 -0.133078
0.0155991 -0.134941
-0.00924757 -0.301444
-0.00674234 -0.30408
0.0199223 -0.287655
0.0155958 -0.291636
0.00463957 -0.281082
0.0029888 -0.282575
-0.00828138 -0.101008
-0.00146378 -0.0750283
-0.0179261 -0.146771
-0.0207982 -0.159699
-0.027805 -0.276391
-0.0300761 -0.270506
-0.0226917 -0.177158
-0.0211403 -0.175851
-0.0405705 -0.257909
-0.0289199 -0.277005
-0.0228202 -0.281083
-0.0242808 -0.277403
0.0153222 -0.224897
0.0174953 -0.204701
0.00519444 -0.303379
0.00364855 -0.302698
0.0392989 -0.241108
0.0379749 -0.243447
0.00991884 -0.280161
0.0054292 -0.28079
0.0342815 -0.26581
0.0379928 -0.255683
-0.0119831 -0.234409
-0.00472305 -0.233034
0.0168117 -0.254922
0.0249372 -0.242624
0.00240885 -0.0144315
0.000177052 -0.0518059
0.0013805 -0.291336
0.00116709 -0.295176
-0.0178564 -0.275755
-0.0188892 -0.27716
0.0199557 -0.18169
0.0287104 -0.203659
-0.0236329 -0.0599034
-0.0227039 -0.062096
-0.0172362 -0.173852
-0.0166825 -0.168456
-0.00267871 -0.00303477
-0.000885841 -0.000817382
-0.0299113 -0.207363
-0.0321229 -0.222448
-0.00183923 -0.280034
-0.000213809 -0.280908
-0.00192143 -0.273018
-0.00228854 -0.277512
-0.0111687 -0.259175
-0.00430479 -0.253716
-0.0273036 -0.036091
-0.0293032 -0.0324381
0.0113153 -0.0819063
0.00896402 -0.0978665
0.0108668 -0.262554
0.0113311 -0.252978
-0.0013645 -0.270131
0.00166663 -0.27476
0.0338258 -0.216792
0.0306439 -0.207259
0.00108543 -0.279671
0.00148699 -0.276652
0.0175158 -0.0402182
0.0215922 -0.0396865
0.0172858 -0.0222903
0.0108276 -0.0140252
0.00203574 -0.00178036
0.0105241 -0.00884348
0.0410541 -0.235429
0.039202 -0.234882
-0.00932712 -0.25429
-0.0136084 -0.257894
0.00133386 -0.0756289
-0.00507592 -0.0454766
-0.00332302 -0.305295
-0.00646503 -0.300497
-0.0082496 -0.0994156
-0.00119473 -0.0720208
0.0153866 -0.0852952
0.0129888 -0.0888705
-0.00537445 -0.265053
0.000174978 -0.265776
0.0383725 -0.240539
0.0375623 -0.249581
0.00939234 -0.300809
0.01638 -0.292651
0.018656 -0.15102
0.0235907 -0.175679
-0.0165952 -0.0720101
-0.0154237 -0.0619482
0.00453392 -0.300131
0.00981609 -0.294984
-0.0237611 -0.282057
-0.0233669 -0.283676
0.0195137 -0.162786
0.0164286 -0.170431
-0.0259175 -0.197256
-0.022741 -0.187801
0.00736438 -0.0126721
0.0125565 -0.0215104
-0.000959199 -0.288565
-0.00304369 -0.288968
-0.00168351 -0.0904618
-0.00675798 -0.093222
-0.0214687 -0.245346
-0.0255168 -0.243433
-0.000242416 -0.272213
-0.0047574 -0.271355
0.00138285 -0.278755
0.00413621 -0.275566
0.00744392 -0.28725
0.00766441 -0.288274
0.0185152 -0.0627604
0.0225845 -0.0475402
0.0244358 -0.181186
0.0289099 -0.20123
0.0166992 -0.142309
0.0124859 -0.127385
-0.0163806 -0.284834
-0.0142176 -0.28736
-0.00892708 -0.274441
-0.010364 -0.269285
-0.0334417 -0.218493
-0.0285176 -0.201016
-0.021059 -0.286363
-0.0253922 -0.280208
0.008477 -0.173636
-0.00201937 -0.194893
-0.0119762 -0.267989
-0.0146753 -0.268611
-0.00544173 -0.270647
-0.00972248 -0.265203
-0.00358156 -0.27967
-0.00833024 -0.27812
-0.000722996 -0.287496
0.00270242 -0.287284
0.00520474 -0.279431
0.00746932 -0.279465
0.0293263 -0.203131
0.0332713 -0.218103
0.00321666 -0.0217532
-0.00184032 -0.0409521
0.0193381 -0.0218339
0.0248738 -0.032623
0.00189769 -0.288441
0.00276381 -0.288988
0.0277217 -0.199477
0.0293294 -0.203658
-0.00394754 -0.138137
-0.0130417 -0.162739
-0.00541388 -0.273748
-0.00263245 -0.27795
-0.00685058 -0.281443
-0.0111083 -0.281073
-0.0113002 -0.111305
-0.00374159 -0.082027
-0.00432667 -0.103453
0.00336279 -0.119276
-0.000734874 -0.29037
-0.00188969 -0.289868
0.000674067 -0.279893
-7.41958e-05 -0.280466
-0.00434919 -0.288533
-0.00157503 -0.288779
0.00103696 -0.120411
0.00542155 -0.109172
0.0268114 -0.186232
0.0240928 -0.151025
0.000391208 -0.290049
0.00111142 -0.289975
0.0119109 -0.274332
0.00788165 -0.277706
0.00767379 -0.301686
0.0140944 -0.29514
-0.0492259 -0.248236
-0.0390513 -0.225643
-0.0154941 -0.170812
-0.00690205 -0.147181
0.00276673 -0.00569193
0.00558704 -0.00778222
-0.0264874 -0.278353
-0.0376359 -0.263509
0.0344596 -0.263665
0.0357118 -0.258145
0.00412721 -0.288703
0.00207357 -0.28933
0.0307676 -0.271599
0.0324773 -0.26843
-0.0233392 -0.0580653
-0.0267055 -0.0451549
0.022009 -0.243078
0.0173442 -0.248822
0.00230654 -0.30434
0.0075849 -0.298301
0.0264215 -0.19589
0.0314674 -0.210191
0.0061726 -0.14143
0.00494787 -0.141686
-6.77322e-05 -0.280909
-0.0003915 -0.280078
0.00493417 -0.282726
0.00961601 -0.281129
0.0212943 -0.265733
0.0168471 -0.270792
0.00490166 -0.273716
0.00867499 -0.267975
-0.0246034 -0.281808
-0.0299715 -0.273464
0.00589175 -0.262659
0.0112637 -0.260261
-0.0148147 -0.294902
-0.0213886 -0.28681
-0.0121754 -0.261542
-0.0122334 -0.268101
0.0268353 -0.0517623
0.0243419 -0.0537252
0.0129042 -0.277315
0.0177846 -0.274184
-0.00328085 -0.289316
-0.00559894 -0.289526
-0.0215669 -0.186226
-0.0272837 -0.200168
-0.0288271 -0.0384234
-0.0255504 -0.0358854
0.00482211 -0.0473901
0.00873174 -0.0419558
0.021564 -0.254052
0.01972 -0.262328
0.0036611 -0.274708
0.00771631 -0.269762
0.0363405 -0.228835
0.0381439 -0.243105
0.0142524 -0.277774
0.00964787 -0.27924
0.0103183 -0.153534
0.0161895 -0.171474
0.00784397 -0.0985808
0.00560085 -0.0887874
0.0177779 -0.174979
0.00808329 -0.14806
0.000344395 -0.288656
0.00185746 -0.2878
0.0114962 -0.146584
0.0217382 -0.158574
0.00795786 -0.295739
0.00494368 -0.300537
0.00287248 -0.133651
-0.00553798 -0.111578
0.0146417 -0.166693
0.00845556 -0.151446
-0.00783263 -0.141743
-0.00388863 -0.123622
0.0229059 -0.0579086
0.0228867 -0.063664
-0.0253512 -0.281027
-0.0183036 -0.290147
-0.0128962 -0.0129064
-0.0167185 -0.0148865
0.0294282 -0.2046
0.0223156 -0.180492
-0.015756 -0.0287082
-0.0199113 -0.0389623
0.0110607 -0.0700355
0.0118529 -0.0529063
-0.00169051 -0.279927
0.000152075 -0.279999
0.00566396 -0.0767844
-0.0177562 -0.0851518
0.0141969 -0.295153
0.0131739 -0.295955
-0.0267808 -0.0451459
-0.029389 -0.0422205
-0.0362814 -0.249035
-0.0346728 -0.259433
-0.00278912 -0.2797
0.000946671 -0.279911
0.0205418 -0.0253822
0.0258762 -0.0308756
0.00399146 -0.00440332
0.00630812 -0.00853532
-0.00962713 -0.280885
-0.0139345 -0.280058
-0.00991839 -0.00888734
-0.0196898 -0.0190195
0.0100476 -0.300012
0.0122328 -0.297081
0.0334458 -0.266171
0.028937 -0.275367
-0.0185001 -0.286751
-0.0188832 -0.284558
0.00559333 -0.28741
0.00579012 -0.286208
-0.0109067 -0.288305
-0.00769422 -0.289617
0.0136844 -0.273403
0.0145838 -0.270098
0.00251902 -0.279635
0.00379399 -0.279159
0.0173603 -0.0239401
0.0195421 -0.0362817
-0.00273268 -0.0637688
-0.00768804 -0.0393992
0.0305832 -0.268087
0.0299436 -0.265551
0.000490931 -0.28966
0.000171988 -0.290129
-0.00253761 -0.279887
0.00104977 -0.280098
-0.00108267 -0.240694
0.00756496 -0.23756
0.0192874 -0.0430255
0.0180921 -0.0598562
-0.00197233 -0.29019
-0.00262691 -0.289525
0.0117266 -0.152174
0.0150433 -0.155616
-0.00931458 -0.0540847
-0.0101244 -0.0339102
0.0312086 -0.271028
0.0316125 -0.270153
-0.0207834 -0.281204
-0.0167579 -0.284256
0.00128883 -0.131559
0.0101868 -0.155756
0.0171009 -0.0767409
0.0313652 -0.132756
-0.0198703 -0.274143
-0.0157718 -0.276281
-0.0338566 -0.253754
-0.0315024 -0.260559
0.00775592 -0.278613
0.00600951 -0.278703
-0.00624199 -0.0969557
-0.0042608 -0.141452
0.00333386 -0.279393
-0.000263283 -0.280028
0.0103786 -0.0909327
0.0165166 -0.0713354
0.0417802 -0.188943
0.0273252 -0.152653
-0.00242369 -0.290355
-0.00509976 -0.289951
0.011841 -0.217186
0.0178341 -0.232341
0.0248546 -0.183597
0.0255542 -0.186409
-0.0151432 -0.293461
-0.0192898 -0.287948
-0.000784359 -0.279578
0.000615998 -0.280276
0.0109902 -0.23258
0.0155326 -0.24571
-0.00412149 -0.278923
-0.0021652 -0.279458
-0.0051554 -0.108047
-0.00648024 -0.109325
-0.00383906 -0.272498
0.000385407 -0.27387
-0.0122573 -0.27586
-0.0169303 -0.272078
-0.0212078 -0.268635
-0.0167431 -0.273185
0.0345297 -0.252075
0.0354089 -0.240996
0.000764537 -0.265551
0.00336924 -0.255815
-0.00472413 -0.0215117
-0.00161768 -0.0266214
0.0147496 -0.276651
0.0194257 -0.273716
-0.012861 -0.0893867
-0.00520724 -0.109319
0.0119765 -0.126773
0.0143692 -0.128375
-0.0160811 -0.291233
-0.0123482 -0.293321
0.0049392 -0.288465
0.00292824 -0.289233
-0.0291244 -0.219766
-0.0277573 -0.202506
0.0135332 -0.0299752
0.0175857 -0.0378916
6.71463e-05 -0.279924
0.00371196 -0.279631
-0.00876936 -0.287295
-0.00702597 -0.288581
-0.0331619 -0.216476
-0.0381544 -0.233792
-0.00530269 -0.260979
-0.00158344 -0.268267
-0.00344055 -0.289652
-0.00629219 -0.289372
-0.00367446 -0.289647
-0.00658766 -0.28927
0.0250703 -0.184772
0.0209776 -0.160944
0.0347742 -0.217058
0.0443332 -0.236512
-0.0053261 -0.278844
-0.00241983 -0.27984
0.0102874 -0.296414
0.00848775 -0.295579
0.00920302 -0.113951
0.0157681 -0.139765
-0.0110078 -0.290384
-0.0142832 -0.290015
0.0304577 -0.262431
0.0320534 -0.262596
0.031249 -0.240181
0.0315454 -0.25005
-0.0350229 -0.251277
-0.0337728 -0.261053
0.0157185 -0.257392
0.0129213 -0.266082
0.000916764 -0.290096
0.00191341 -0.289827
-0.0214332 -0.203068
-0.0254859 -0.21083
0.030158 -0.0385621
0.0274379 -0.0368459
0.0212952 -0.0625052
0.0183449 -0.0758388
-0.00766113 -0.267269
-0.0122118 -0.265598
-0.00937734 -0.276869
-0.0128022 -0.275337
-0.00354297 -0.288943
-0.00622783 -0.289009
-0.0176592 -0.0199073
-0.0151229 -0.0203825
-0.00991411 -0.15102
-0.00563736 -0.143624
0.0399815 -0.246434
0.0370258 -0.260026
-0.0206595 -0.283679
-0.0214137 -0.28099
-0.0298469 -0.255394
-0.0322027 -0.247332
-0.0207308 -0.272794
-0.0246139 -0.267038
-0.0119437 -0.276412
-0.0145098 -0.273018
0.0261037 -0.2789
0.024372 -0.280724
-0.0108617 -0.2838
-0.0153795 -0.281965
0.0244695 -0.220053
0.0160808 -0.199526
-0.00683021 -0.0535072
-0.00565736 -0.0391763
-0.00955004 -0.131022
-0.0203576 -0.150701
0.00188386 -0.123266
-0.00350309 -0.136766
0.0113133 -0.0844628
0.00432653 -0.106491
-0.0273485 -0.195802
-0.0223817 -0.175409
-0.0322006 -0.231887
-0.032932 -0.243216
0.0355348 -0.240041
0.0364569 -0.245721
-0.0120367 -0.27907
-0.0111694 -0.28104
-0.00676205 -0.290627
-0.0036124 -0.290539
-0.0272232 -0.246407
-0.0280081 -0.233922
-0.0351599 -0.265089
-0.0380965 -0.255919
-0.000261876 -0.280984
0.000109381 -0.280728
0.0361786 -0.246679
0.0373061 -0.248168
0.000602834 -0.281592
0.000153891 -0.280741
-0.0174186 -0.166539
-0.0146064 -0.136759
-0.0368887 -0.259294
-0.0340151 -0.265821
-0.0229584 -0.284357
-0.0297585 -0.274128
-0.00379443 -0.0670799
0.0072814 -0.0959533
0.00321154 -0.107957
-0.00369186 -0.0827111
-0.0276626 -0.277514
-0.0325448 -0.269324
0.00729521 -0.303051
0.0114826 -0.298376
-7.09356e-05 -0.124019
-0.0032491 -0.079499
-0.019018 -0.179739
-0.0185031 -0.178317
-0.0367523 -0.264457
-0.0417687 -0.249613
-0.0133079 -0.220792
-0.00758616 -0.234968
-0.0148799 -0.0179766
-0.0213036 -0.0249868
0.0153711 -0.0456657
0.0147402 -0.0285172
-0.0144863 -0.293316
-0.0185513 -0.289819
0.0272672 -0.245769
0.0290637 -0.250393
0.016397 -0.163081
0.0239181 -0.18558
-0.00217585 -0.279937
-0.00386378 -0.279522
-0.0367356 -0.228338
-0.0355539 -0.227047
0.0253573 -0.277811
0.0259052 -0.278882
0.0118129 -0.285619
0.00930536 -0.285172
-0.0188509 -0.0455997
-0.0188973 -0.0308828
0.00178586 -0.278796
0.00393313 -0.274496
0.00413606 -0.292861
0.00651339 -0.294663
-0.00336709 -0.290255
-0.00594031 -0.289564
-0.000184027 -0.280888
-0.0016549 -0.280254
-0.0158422 -0.210772
-0.019861 -0.223049
-0.00270977 -0.279608
-0.00166121 -0.2784
0.00247447 -0.00352847
0.00975084 -0.0191418
-0.0414146 -0.225398
-0.026547 -0.189747
0.035224 -0.251948
0.0342043 -0.249167
-0.00802351 -0.266263
-0.00731789 -0.272821
0.00527375 -0.281853
0.0102674 -0.280588
0.0104813 -0.277567
0.0153249 -0.274381
-0.011425 -0.286169
-0.00946417 -0.28544
-0.00088595 -0.0650511
-0.000678799 -0.0735395
-0.023081 -0.225028
-0.0105328 -0.212052
-0.00541822 -0.297216
-0.0109557 -0.2983
-0.0109557 -0.2983
-0.016777 -0.299719
-0.016777 -0.299719
-0.0227503 -0.301585
-0.0227503 -0.301585
-0.0287592 -0.303962
-0.0287592 -0.303962
-0.0347151 -0.306825
-0.0347151 -0.306825
-0.0405105 -0.310171
-0.0405105 -0.310171
-0.046059 -0.313969
-0.046059 -0.313969
-0.0512832 -0.318178
-0.0512832 -0.318178
-0.0561122 -0.322746
-0.0561122 -0.322746
-0.0604976 -0.32761
-0.0604976 -0.32761
-0.0643947 -0.332701
-0.0643947 -0.332701
-0.0677776 -0.337951
-0.0677776 -0.337951
-0.0706352 -0.343286
-0.0706352 -0.343286
-0.0729507 -0.348625
-0.0729507 -0.348625
-0.0747459 -0.353924
-0.0747459 -0.353924
-0.0760366 -0.3591
-0.0760366 -0.3591
-0.0768447 -0.364102
-0.0768447 -0.364102
-0.0772104 -0.368894
-0.0772104 -0.368894
-0.0771665 -0.373414
-0.0771665 -0.373414
-0.0767642 -0.377643
-0.0767642 -0.377643
-0.0760367 -0.381568
-0.0760367 -0.381568
-0.0750279 -0.385159
-0.0750279 -0.385159
-0.0737895 -0.388414
-0.0737895 -0.388414
-0.0723469 -0.39134
-0.0723469 -0.39134
-0.0707255 -0.393956
-0.0707255 -0.393956
-0.0689596 -0.396244
-0.0689596 -0.396244
-0.067076 -0.398229
-0.067076 -0.398229
-0.0650593 -0.399955
-0.0650593 -0.399955
-0.0629067 -0.401407
-0.0629067 -0.401407
-0.0606494 -0.402593
-0.0606494 -0.402593
-0.0582499 -0.40349
-0.0582499 -0.40349
-0.0556622 -0.404162
-0.0556622 -0.404162
-0.0528895 -0.404584
-0.0528895 -0.404584
-0.0499191 -0.40465
-0.0499191 -0.40465
-0.0466532 -0.404386
-0.0466532 -0.404386
-0.0430935 -0.403811
-0.0430935 -0.403811
-0.0392199 -0.402776
-0.0392199 -0.402776
-0.034981 -0.40109
-0.034981 -0.40109
-0.0303491 -0.398802
-0.0303491 -0.398802
-0.0253397 -0.395795
-0.0253397 -0.395795
-0.0199191 -0.391724
-0.0199191 -0.391724
-0.0141396 -0.386465
-0.0141396 -0.386465
-0.0080365 -0.379787
-0.0080365 -0.379787
-0.00154412 -0.371198
-0.00154412 -0.371198
0.0050213 -0.360123
0.0050213 -0.360123
0.0117673 -0.345966
0.0117673 -0.345966
0.0185849 -0.32665
0.0185849 -0.32665
0.0256985 -0.301467
0.0256985 -0.301467
0.035566 -0.274222
0.035566 -0.274222
0.0414199 -0.261
0.0414199 -0.261
0.0418172 -0.256288
0.0418172 -0.256288
0.0406754 -0.254507
0.0406754 -0.254507
0.0394767 -0.254444
0.0394767 -0.254444
0.0382214 -0.255601
0.0382214 -0.255601
0.0371723 -0.257582
0.0371723 -0.257582
0.0359658 -0.260306
0.0359658 -0.260306
0.034405 -0.263605
0.034405 -0.263605
0.0328045 -0.267363
0.0328045 -0.267363
0.0310471 -0.271214
0.0310471 -0.271214
0.0290002 -0.274893
0.0290002 -0.274893
0.026658 -0.278301
0.026658 -0.278301
0.0241929 -0.281459
0.0241929 -0.281459
0.0216468 -0.284273
0.0216468 -0.284273
0.0190081 -0.286718
0.0190081 -0.286718
0.0163449 -0.288824
0.0163449 -0.288824
0.0136821 -0.290605
0.0136821 -0.290605
0.0110261 -0.292072
0.0110261 -0.292072
0.00833805 -0.293289
0.00833805 -0.293289
0.00558675 -0.2943
0.00558675 -0.2943
0.00269086 -0.295206
0.00269086 -0.295206
-0.000774632 -0.296149
-0.000774632 -0.296149
-0.00541822 -0.297216
0.0431837 -0.404163
0.0467332 -0.404735
0.0467332 -0.404735
0.0499956 -0.404985
0.0499956 -0.404985
0.052963 -0.404925
0.052963 -0.404925
0.0557244 -0.404521
0.0557244 -0.404521
0.0583022 -0.403853
0.0583022 -0.403853
0.0606965 -0.402967
0.0606965 -0.402967
0.0629396 -0.40179
0.0629396 -0.40179
0.0650826 -0.400354
0.0650826 -0.400354
0.0670929 -0.398634
0.0670929 -0.398634
0.0689698 -0.396655
0.0689698 -0.396655
0.0707277 -0.394377
0.0707277 -0.394377
0.0723411 -0.39177
0.0723411 -0.39177
0.0737801 -0.388851
0.0737801 -0.388851
0.0750135 -0.385609
0.0750135 -0.385609
0.0760173 -0.38204
0.0760173 -0.38204
0.076742 -0.378113
0.076742 -0.378113
0.0771469 -0.373902
0.0771469 -0.373902
0.0771896 -0.369417
0.0771896 -0.369417
0.0768327 -0.364638
0.0768327 -0.364638
0.0760208 -0.359637
0.0760208 -0.359637
0.0747355 -0.354475
0.0747355 -0.354475
0.0729488 -0.349198
0.0729488 -0.349198
0.0706325 -0.343866
0.0706325 -0.343866
0.0677874 -0.338543
0.0677874 -0.338543
0.0644175 -0.333316
0.0644175 -0.333316
0.0605254 -0.328234
0.0605254 -0.328234
0.0561566 -0.323386
0.0561566 -0.323386
0.0513389 -0.318832
0.0513389 -0.318832
0.0461316 -0.314633
0.0461316 -0.314633
0.0406022 -0.310843
0.0406022 -0.310843
0.0348262 -0.3075
0.0348262 -0.3075
0.0289022 -0.304647
0.0289022 -0.304647
0.022906 -0.302283
0.022906 -0.302283
0.0169759 -0.300417
0.0169759 -0.300417
0.0111858 -0.298993
0.0111858 -0.298993
0.00572762 -0.2979
0.00572762 -0.2979
0.00109943 -0.296854
0.00109943 -0.296854
-0.00234846 -0.295905
-0.00234846 -0.295905
-0.00528076 -0.295006
-0.00528076 -0.295006
-0.00806205 -0.293998
-0.00806205 -0.293998
-0.0107867 -0.292796
-0.0107867 -0.292796
-0.0134879 -0.291324
-0.0134879 -0.291324
-0.0161952 -0.289523
-0.0161952 -0.289523
-0.0188747 -0.287381
-0.0188747 -0.287381
-0.0215286 -0.284891
-0.0215286 -0.284891
-0.0240898 -0.28203
-0.0240898 -0.28203
-0.0265055 -0.278791
-0.0265055 -0.278791
-0.028753 -0.275237
-0.028753 -0.275237
-0.030856 -0.271538
-0.030856 -0.271538
-0.0327002 -0.268001
-0.0327002 -0.268001
-0.0342745 -0.264584
-0.0342745 -0.264584
-0.0356133 -0.26143
-0.0356133 -0.26143
-0.0368533 -0.258615
-0.0368533 -0.258615
-0.0381301 -0.256425
-0.0381301 -0.256425
-0.039242 -0.25517
-0.039242 -0.25517
-0.0403554 -0.255071
-0.0403554 -0.255071
-0.0411679 -0.256889
-0.0411679 -0.256889
-0.0407543 -0.261467
-0.0407543 -0.261467
-0.0358521 -0.274304
-0.0358521 -0.274304
-0.025255 -0.301684
-0.025255 -0.301684
-0.0179302 -0.326272
-0.0179302 -0.326272
-0.0115433 -0.345888
-0.0115433 -0.345888
-0.00489272 -0.360568
-0.00489272 -0.360568
0.00180046 -0.371504
0.00180046 -0.371504
0.00815576 -0.380167
0.00815576 -0.380167
0.0142981 -0.386749
0.0142981 -0.386749
0.02012 -0.391985
0.02012 -0.391985
0.0255085 -0.396125
0.0255085 -0.396125
0.0304834 -0.399165
0.0304834 -0.399165
0.0351068 -0.401397
0.0351068 -0.401397
0.0393448 -0.403068
0.0393448 -0.403068
0.0431837 -0.404163
      </DataArray> 
      <DataArray type="Float64" NumberOfComponents="2" Name="Velocity" format="ascii">
0 0
0 0
0 0
0 0
0 0
0 0
0 0
0 0
0 0
0 0
0 0
0 0
0 0
0 0
0 0
0 0
0 0
0 0
0 0
0 0
0 0
0 0
0 0
0 0
0 0
0 0
0 0
0 0
0 0
0 0
0 0
0 0
0 0
0 0
0 0
0 0
0 0
0 0
0 0
0 0
0 0
0 0
0 0
0 0
0 0
0 0
0 0
0 0
0 0
0 0
0 0
0 0
0 0
0 0
0 0
0 0
0 0
0 0
0 0
0 0
0 0
0 0
0 0
0 0
0 0
0 0
0 0
0 0
0 0
0 0
0 0
0 0
0 0
0 0
0 0
0 0
0 0
0 0
0 0
0 0
0 0
0 0
0 0
0 0
0 0
0 0
0 0
0 0
0 0
0 0
0 0
0 0
0 0
0 0
0 0
0 0
0 0
0 0
0 0
0 0
0 0
0 0
0 0
0 0
0 0
0 0
0 0
0 0
0 0
0 0
0 0
0 0
0 0
0 0
0 0
0 0
0 0
0 0
0 0
0 0
0 0
0 0
0 0
0 0
0 0
0 0
0 0
0 0
0 0
0 0
0 0
0 0
0 0
0 0
0 0
0 0
0 0
0 0
0 0
0 0
0 0
0 0
0 0
0 0
0 0
0 0
0 0
0 0
0 0
0 0
0 0
0 0
0 0
0 0
0 0
0 0
0 0
0 0
0 0
0 0
0 0
0 0
0 0
0 0
0 0
0 0
0 0
0 0
0 0
0 0
0 0
0 0
0 0
0 0
0 0
0 0
0 0
0 0
0 0
0 0
0 0
0 0
0 0
0 0
0 0
0 0
0 0
0 0
0 0
0 0
0 0
0 0
0 0
0 0
0 0
0 0
0 0
0 0
0 0
0 0
0 0
0 0
0 0
0 0
0 0
0 0
0 0
0 0
0 0
0 0
0 0
0 0
0 0
0 0
0 0
0 0
0 0
0 0
0 0
0 0
0 0
0 0
0 0
0 0
0 0
0 0
0 0
0 0
0 0
0 0
0 0
0 0
0 0
0 0
0 0
0 0
0 0
0 0
0 0
0 0
0 0
0 0
0 0
0 0
0 0
0 0
0 0
0 0
0 0
0 0
0 0
0 0
0 0
0 0
0 0
0 0
0 0
0 0
0 0
0 0
0 0
0 0
0 0
0 0
0 0
0 0
0 0
0 0
0 0
0 0
0 0
0 0
0 0
0 0
0 0
0 0
0 0
0 0
0 0
0 0
0 0
0 0
0 0
0 0
0 0
0 0
0 0
0 0
0 0
0 0
0 0
0 0
0 0
0 0
0 0
0 0
0 0
0 0
0 0
0 0
0 0
0 0
0 0
0 0
0 0
0 0
0 0
0 0
0 0
0 0
0 0
0 0
0 0
0 0
0 0
0 0
0 0
0 0
0 0
0 0
0 0
0 0
0 0
0 0
0 0
0 0
0 0
0 0
0 0
0 0
0 0
0 0
0 0
0 0
0 0
0 0
0 0
0 0
0 0
0 0
0 0
0 0
0 0
0 0
0 0
0 0
0 0
0 0
0 0
0 0
0 0
0 0
0 0
0 0
0 0
0 0
0 0
0 0
0 0
0 0
0 0
0 0
0 0
0 0
0 0
0 0
0 0
0 0
0 0
0 0
0 0
0 0
0 0
0 0
0 0
0 0
0 0
0 0
0 0
0 0
0 0
0 0
0 0
0 0
0 0
0 0
0 0
0 0
0 0
0 0
0 0
0 0
0 0
0 0
0 0
0 0
0 0
0 0
0 0
0 0
0 0
0 0
0 0
0 0
0 0
0 0
0 0
0 0
0 0
0 0
0 0
0 0
0 0
0 0
0 0
0 0
0 0
0 0
0 0
0 0
0 0
0 0
0 0
0 0
0 0
0 0
0 0
0 0
0 0
0 0
0 0
0 0
0 0
0 0
0 0
0 0
0 0
0 0
0 0
0 0
0 0
0 0
0 0
0 0
0 0
0 0
0 0
0 0
0 0
0 0
0 0
0 0
0 0
0 0
0 0
0 0
0 0
0 0
0 0
0 0
0 0
0 0
0 0
0 0
0 0
0 0
0 0
0 0
0 0
0 0
0 0
0 0
0 0
0 0
0 0
0 0
0 0
0 0
0 0
0 0
0 0
0 0
0 0
0 0
0 0
0 0
0 0
0 0
0 0
0 0
0 0
0 0
0 0
0 0
0 0
0 0
0 0
0 0
0 0
0 0
0 0
0 0
0 0
0 0
0 0
0 0
0 0
0 0
0 0
0 0
0 0
0 0
0 0
0 0
0 0
0 0
0 0
0 0
0 0
0 0
0 0
0 0
0 0
0 0
0 0
0 0
0 0
0 0
0 0
0 0
0 0
0 0
0 0
0 0
0 0
0 0
0 0
0 0
0 0
0 0
0 0
0 0
0 0
0 0
0 0
0 0
0 0
0 0
0 0
0 0
0 0
0 0
0 0
0 0
0 0
0 0
0 0
0 0
0 0
0 0
0 0
0 0
0 0
0 0
0 0
0 0
0 0
0 0
0 0
0 0
0 0
0 0
0 0
0 0
0 0
0 0
0 0
0 0
0 0
0 0
0 0
0 0
0 0
0 0
0 0
0 0
0 0
0 0
0 0
0 0
0 0
0 0
0 0
0 0
0 0
0 0
0 0
0 0
0 0
0 0
0 0
0 0
0 0
0 0
0 0
0 0
0 0
0 0
0 0
0 0
0 0
0 0
0 0
0 0
0 0
0 0
0 0
0 0
0 0
0 0
0 0
0 0
0 0
0 0
0 0
0 0
0 0
0 0
0 0
0 0
0 0
0 0
0 0
0 0
0 0
0 0
0 0
0 0
0 0
0 0
0 0
0 0
0 0
0 0
0 0
0 0
0 0
0 0
0 0
0 0
0 0
0 0
0 0
0 0
0 0
0 0
0 0
0 0
0 0
0 0
0 0
0 0
0 0
0 0
0 0
0 0
0 0
0 0
0 0
0 0
0 0
0 0
0 0
0 0
0 0
0 0
0 0
0 0
0 0
0 0
0 0
0 0
0 0
0 0
0 0
0 0
0 0
0 0
0 0
0 0
0 0
0 0
0 0
0 0
0 0
0 0
0 0
0 0
0 0
0 0
0 0
0 0
0 0
0 0
0 0
0 0
0 0
0 0
0 0
0 0
0 0
0 0
0 0
0 0
0 0
0 0
0 0
0 0
0 0
0 0
0 0
0 0
0 0
0 0
0 0
0 0
0 0
0 0
0 0
0 0
0 0
0 0
0 0
0 0
0 0
0 0
0 0
0 0
0 0
0 0
0 0
0 0
0 0
0 0
0 0
0 0
0 0
0 0
0 0
0 0
0 0
0 0
0 0
0 0
0 0
0 0
0 0
0 0
0 0
0 0
0 0
0 0
0 0
0 0
0 0
0 0
0 0
0 0
0 0
0 0
0 0
0 0
0 0
0 0
0 0
0 0
0 0
0 0
0 0
0 0
0 0
0 0
0 0
0 0
0 0
0 0
0 0
0 0
0 0
0 0
0 0
0 0
0 0
0 0
0 0
0 0
0 0
0 0
0 0
0 0
0 0
0 0
0 0
0 0
0 0
0 0
0 0
0 0
0 0
0 0
0 0
0 0
0 0
0 0
0 0
0 0
0 0
0 0
0 0
0 0
0 0
0 0
0 0
0 0
0 0
0 0
0 0
0 0
0 0
0 0
0 0
0 0
0 0
0 0
0 0
0 0
0 0
0 0
0 0
0 0
0 0
0 0
0 0
0 0
0 0
0 0
0 0
0 0
0 0
0 0
0 0
0 0
0 0
0 0
0 0
0 0
0 0
0 0
0 0
0 0
0 0
0 0
0 0
0 0
0 0
0 0
0 0
0 0
0 0
0 0
0 0
0 0
0 0
0 0
0 0
0 0
0 0
0 0
0 0
0 0
0 0
0 0
0 0
0 0
0 0
0 0
0 0
0 0
0 0
0 0
0 0
0 0
0 0
0 0
0 0
0 0
0 0
0 0
0 0
0 0
0 0
0 0
0 0
0 0
0 0
0 0
0 0
0 0
0 0
0 0
0 0
0 0
0 0
0 0
0 0
0 0
0 0
0 0
0 0
0 0
0 0
0 0
0 0
0 0
0 0
0 0
0 0
0 0
0 0
0 0
0 0
0 0
0 0
0 0
0 0
0 0
0 0
0 0
0 0
0 0
0 0
0 0
0 0
0 0
0 0
0 0
0 0
0 0
0 0
0 0
0 0
0 0
0 0
0 0
0 0
0 0
0 0
0 0
0 0
0 0
0 0
0 0
0 0
0 0
0 0
0 0
0 0
0 0
0 0
0 0
0 0
0 0
0 0
0 0
0 0
0 0
0 0
0 0
0 0
0 0
0 0
0 0
0 0
0 0
0 0
0 0
0 0
0 0
0 0
0 0
0 0
0 0
0 0
0 0
0 0
0 0
0 0
0 0
0 0
0 0
0 0
0 0
0 0
0 0
0 0
0 0
0 0
0 0
0 0
0 0
0 0
0 0
0 0
0 0
0 0
0 0
0 0
0 0
0 0
0 0
0 0
0 0
0 0
0 0
0 0
0 0
0 0
0 0
0 0
0 0
0 0
0 0
0 0
0 0
0 0
0 0
0 0
0 0
0 0
0 0
0 0
0 0
0 0
0 0
0 0
0 0
0 0
0 0
0 0
0 0
0 0
0 0
0 0
0 0
0 0
0 0
0 0
0 0
0 0
0 0
0 0
0 0
0 0
0 0
0 0
0 0
0 0
0 0
0 0
0 0
0 0
0 0
0 0
0 0
0 0
0 0
0 0
0 0
0 0
0 0
0 0
0 0
0 0
0 0
0 0
0 0
0 0
0 0
0 0
0 0
0 0
0 0
0 0
0 0
0 0
0 0
0 0
0 0
0 0
0 0
0 0
0 0
0 0
0 0
0 0
0 0
0 0
0 0
0 0
0 0
0 0
0 0
0 0
0 0
0 0
0 0
0 0
0 0
0 0
0 0
0 0
0 0
0 0
0 0
0 0
0 0
0 0
0 0
0 0
0 0
0 0
0 0
0 0
0 0
0 0
0 0
0 0
0 0
0 0
0 0
0 0
0 0
0 0
0 0
0 0
0 0
0 0
0 0
0 0
0 0
0 0
0 0
0 0
0 0
0 0
0 0
0 0
0 0
0 0
0 0
0 0
0 0
0 0
0 0
0 0
0 0
0 0
0 0
0 0
0 0
0 0
0 0
0 0
0 0
0 0
0 0
0 0
0 0
0 0
0 0
0 0
0 0
0 0
0 0
0 0
0 0
0 0
0 0
0 0
0 0
0 0
0 0
0 0
0 0
0 0
0 0
0 0
0 0
0 0
0 0
0 0
0 0
0 0
0 0
0 0
0 0
0 0
0 0
0 0
0 0
0 0
0 0
0 0
0 0
0 0
0 0
0 0
0 0
0 0
0 0
0 0
0 0
0 0
0 0
0 0
0 0
0 0
0 0
0 0
0 0
0 0
0 0
0 0
0 0
0 0
0 0
0 0
0 0
0 0
0 0
0 0
0 0
0 0
0 0
0 0
0 0
0 0
0 0
0 0
0 0
0 0
0 0
0 0
0 0
0 0
0 0
0 0
0 0
0 0
0 0
0 0
0 0
0 0
0 0
0 0
0 0
0 0
0 0
0 0
0 0
0 0
0 0
0 0
0 0
0 0
0 0
0 0
0 0
0 0
0 0
0 0
0 0
0 0
0 0
0 0
0 0
0 0
0 0
0 0
0 0
0 0
0 0
0 0
0 0
0 0
0 0
0 0
0 0
0 0
0 0
0 0
0 0
0 0
0 0
0 0
0 0
0 0
0 0
0 0
0 0
0 0
0 0
0 0
0 0
0 0
0 0
0 0
0 0
0 0
0 0
0 0
0 0
0 0
0 0
0 0
0 0
0 0
0 0
0 0
0 0
0 0
0 0
0 0
0 0
0 0
0 0
0 0
0 0
0 0
0 0
0 0
0 0
0 0
0 0
0 0
0 0
0 0
0 0
0 0
0 0
0 0
0 0
0 0
0 0
0 0
0 0
0 0
0 0
0 0
0 0
0 0
0 0
0 0
0 0
0 0
0 0
0 0
0 0
0 0
0 0
0 0
0 0
0 0
0 0
0 0
0 0
0 0
0 0
0 0
0 0
0 0
0 0
0 0
0 0
0 0
0 0
0 0
0 0
0 0
0 0
0 0
0 0
0 0
0 0
0 0
0 0
0 0
0 0
0 0
0 0
0 0
0 0
0 0
0 0
0 0
0 0
0 0
0 0
0 0
0 0
0 0
0 0
0 0
0 0
0 0
0 0
0 0
0 0
0 0
0 0
0 0
0 0
0 0
0 0
0 0
0 0
0 0
0 0
0 0
0 0
0 0
0 0
0 0
0 0
0 0
0 0
0 0
0 0
0 0
0 0
0 0
0 0
0 0
0 0
0 0
0 0
0 0
0 0
0 0
0 0
0 0
0 0
0 0
0 0
0 0
0 0
0 0
0 0
0 0
0 0
0 0
0 0
0 0
0 0
0 0
0 0
0 0
0 0
0 0
0 0
0 0
0 0
0 0
0 0
0 0
0 0
0 0
0 0
0 0
0 0
0 0
0 0
0 0
0 0
0 0
0 0
0 0
0 0
0 0
0 0
0 0
0 0
0 0
0 0
0 0
0 0
0 0
0 0
0 0
0 0
0 0
0 0
0 0
0 0
0 0
0 0
0 0
0 0
0 0
0 0
0 0
0 0
0 0
0 0
0 0
0 0
0 0
0 0
0 0
0 0
0 0
0 0
0 0
0 0
0 0
0 0
0 0
0 0
0 0
0 0
0 0
0 0
0 0
0 0
0 0
0 0
0 0
0 0
0 0
0 0
0 0
0 0
0 0
0 0
0 0
0 0
0 0
0 0
0 0
0 0
0 0
0 0
0 0
0 0
0 0
0 0
0 0
0 0
0 0
0 0
0 0
0 0
0 0
0 0
0 0
0 0
0 0
0 0
0 0
0 0
0 0
0 0
0 0
0 0
0 0
0 0
0 0
0 0
0 0
0 0
0 0
0 0
0 0
0 0
0 0
0 0
0 0
0 0
0 0
0 0
0 0
0 0
0 0
0 0
0 0
0 0
0 0
0 0
0 0
0 0
0 0
0 0
0 0
0 0
0 0
0 0
0 0
0 0
0 0
0 0
0 0
0 0
0 0
0 0
0 0
0 0
0 0
0 0
0 0
0 0
0 0
0 0
0 0
0 0
0 0
0 0
0 0
0 0
0 0
0 0
0 0
0 0
0 0
0 0
0 0
0 0
0 0
0 0
0 0
0 0
0 0
0 0
0 0
0 0
0 0
0 0
0 0
0 0
0 0
0 0
0 0
0 0
0 0
0 0
0 0
0 0
0 0
0 0
0 0
0 0
0 0
0 0
0 0
0 0
0 0
0 0
0 0
0 0
0 0
0 0
0 0
0 0
0 0
0 0
0 0
0 0
0 0
0 0
0 0
0 0
0 0
0 0
0 0
0 0
0 0
0 0
0 0
0 0
0 0
0 0
0 0
0 0
0 0
0 0
0 0
0 0
0 0
0 0
0 0
0 0
0 0
0 0
0 0
0 0
0 0
0 0
0 0
0 0
0 0
0 0
0 0
0 0
0 0
0 0
0 0
0 0
0 0
0 0
0 0
0 0
0 0
0 0
0 0
0 0
0 0
0 0
0 0
0 0
0 0
0 0
0 0
0 0
0 0
0 0
0 0
0 0
0 0
0 0
0 0
0 0
0 0
0 0
0 0
0 0
0 0
0 0
0 0
0 0
0 0
0 0
0 0
0 0
0 0
0 0
0 0
0 0
0 0
0 0
0 0
0 0
0 0
0 0
0 0
0 0
0 0
0 0
0 0
0 0
0 0
0 0
0 0
0 0
0 0
0 0
0 0
0 0
0 0
0 0
0 0
0 0
0 0
0 0
0 0
0 0
0 0
0 0
0 0
0 0
0 0
0 0
0 0
0 0
0 0
0 0
0 0
0 0
0 0
0 0
0 0
0 0
0 0
0 0
0 0
0 0
0 0
0 0
0 0
0 0
0 0
0 0
0 0
0 0
0 0
0 0
0 0
0 0
0 0
0 0
0 0
0 0
0 0
0 0
0 0
0 0
0 0
0 0
0 0
0 0
0 0
0 0
0 0
0 0
0 0
0 0
0 0
0 0
0 0
0 0
0 0
0 0
0 0
0 0
0 0
0 0
0 0
0 0
0 0
0 0
0 0
0 0
0 0
0 0
0 0
0 0
0 0
0 0
0 0
0 0
0 0
0 0
0 0
0 0
0 0
0 0
0 0
0 0
0 0
0 0
0 0
0 0
0 0
0 0
0 0
0 0
0 0
0 0
0 0
0 0
0 0
0 0
0 0
0 0
0 0
0 0
0 0
0 0
0 0
0 0
0 0
0 0
0 0
0 0
0 0
0 0
0 0
0 0
0 0
0 0
0 0
0 0
0 0
0 0
0 0
0 0
0 0
0 0
0 0
0 0
0 0
0 0
0 0
0 0
0 0
0 0
0 0
0 0
0 0
0 0
0 0
0 0
0 0
0 0
0 0
0 0
0 0
0 0
0 0
0 0
0 0
0 0
0 0
0 0
0 0
0 0
0 0
0 0
0 0
0 0
0 0
0 0
0 0
0 0
0 0
0 0
0 0
0 0
0 0
0 0
0 0
0 0
0 0
0 0
0 0
0 0
0 0
0 0
0 0
0 0
0 0
0 0
0 0
0 0
0 0
0 0
0 0
0 0
0 0
0 0
0 0
0 0
0 0
0 0
0 0
0 0
0 0
0 0
0 0
0 0
0 0
0 0
0 0
0 0
0 0
0 0
0 0
0 0
0 0
0 0
0 0
0 0
0 0
0 0
0 0
0 0
0 0
0 0
0 0
0 0
0 0
0 0
0 0
0 0
0 0
0 0
0 0
0 0
0 0
0 0
0 0
0 0
0 0
0 0
0 0
0 0
0 0
0 0
0 0
0 0
0 0
0 0
0 0
0 0
0 0
0 0
0 0
0 0
0 0
0 0
0 0
0 0
0 0
0 0
0 0
0 0
0 0
0 0
0 0
0 0
0 0
0 0
0 0
0 0
0 0
0 0
0 0
0 0
0 0
0 0
0 0
0 0
0 0
0 0
0 0
0 0
0 0
0 0
0 0
0 0
0 0
0 0
0 0
0 0
0 0
0 0
0 0
0 0
0 0
0 0
0 0
0 0
0 0
0 0
0 0
0 0
0 0
0 0
0 0
0 0
0 0
0 0
0 0
0 0
0 0
0 0
0 0
0 0
0 0
0 0
0 0
0 0
0 0
0 0
0 0
0 0
0 0
0 0
0 0
0 0
0 0
0 0
0 0
0 0
0 0
0 0
0 0
0 0
0 0
0 0
0 0
0 0
0 0
0 0
0 0
0 0
0 0
0 0
0 0
0 0
0 0
0 0
0 0
0 0
0 0
0 0
0 0
0 0
0 0
0 0
0 0
0 0
0 0
0 0
0 0
0 0
0 0
0 0
0 0
0 0
0 0
0 0
0 0
0 0
0 0
0 0
0 0
0 0
0 0
0 0
0 0
0 0
0 0
0 0
0 0
0 0
0 0
0 0
0 0
0 0
0 0
0 0
0 0
0 0
0 0
0 0
0 0
0 0
0 0
0 0
0 0
0 0
0 0
0 0
0 0
0 0
0 0
0 0
0 0
0 0
0 0
0 0
0 0
0 0
0 0
0 0
0 0
0 0
0 0
0 0
0 0
0 0
0 0
0 0
0 0
0 0
0 0
0 0
0 0
0 0
0 0
0 0
0 0
0 0
0 0
0 0
0 0
0 0
0 0
0 0
0 0
0 0
0 0
0 0
0 0
0 0
0 0
0 0
0 0
0 0
0 0
0 0
0 0
0 0
0 0
0 0
0 0
0 0
0 0
0 0
0 0
0 0
0 0
0 0
0 0
0 0
0 0
0 0
0 0
0 0
0 0
0 0
0 0
0 0
0 0
0 0
0 0
0 0
0 0
0 0
0 0
0 0
0 0
0 0
0 0
0 0
0 0
0 0
0 0
0 0
0 0
0 0
0 0
0 0
0 0
0 0
0 0
0 0
0 0
0 0
0 0
0 0
0 0
0 0
0 0
0 0
0 0
0 0
0 0
0 0
0 0
0 0
0 0
0 0
0 0
0 0
0 0
0 0
0 0
0 0
0 0
0 0
0 0
0 0
0 0
0 0
0 0
0 0
0 0
0 0
0 0
0 0
0 0
0 0
0 0
0 0
0 0
0 0
0 0
0 0
0 0
0 0
0 0
0 0
0 0
0 0
0 0
0 0
0 0
0 0
0 0
0 0
0 0
0 0
0 0
0 0
0 0
0 0
0 0
0 0
0 0
0 0
0 0
0 0
0 0
0 0
0 0
0 0
0 0
0 0
0 0
0 0
0 0
0 0
0 0
0 0
0 0
0 0
0 0
0 0
0 0
0 0
0 0
0 0
0 0
0 0
0 0
0 0
0 0
0 0
0 0
0 0
0 0
0 0
0 0
0 0
0 0
0 0
0 0
0 0
0 0
0 0
0 0
0 0
0 0
0 0
0 0
0 0
0 0
0 0
0 0
0 0
0 0
0 0
0 0
0 0
0 0
0 0
0 0
0 0
0 0
0 0
0 0
0 0
0 0
0 0
0 0
0 0
0 0
0 0
0 0
0 0
0 0
0 0
0 0
0 0
0 0
0 0
0 0
0 0
0 0
0 0
0 0
0 0
0 0
0 0
0 0
0 0
0 0
0 0
0 0
0 0
0 0
0 0
0 0
0 0
0 0
0 0
0 0
0 0
0 0
0 0
0 0
0 0
0 0
0 0
0 0
0 0
0 0
0 0
0 0
0 0
0 0
0 0
0 0
0 0
0 0
0 0
0 0
0 0
0 0
0 0
0 0
0 0
0 0
0 0
0 0
0 0
0 0
0 0
0 0
0 0
0 0
0 0
0 0
0 0
0 0
0 0
0 0
0 0
0 0
0 0
0 0
0 0
0 0
0 0
0 0
0 0
0 0
0 0
0 0
0 0
0 0
0 0
0 0
0 0
0 0
0 0
0 0
0 0
0 0
0 0
0 0
0 0
0 0
0 0
0 0
0 0
0 0
0 0
0 0
0 0
0 0
0 0
0 0
0 0
0 0
0 0
0 0
0 0
0 0
0 0
0 0
0 0
0 0
0 0
0 0
0 0
0 0
0 0
0 0
0 0
0 0
0 0
0 0
0 0
0 0
0 0
0 0
0 0
0 0
0 0
0 0
0 0
0 0
0 0
0 0
0 0
0 0
0 0
0 0
0 0
0 0
0 0
0 0
0 0
0 0
0 0
0 0
0 0
0 0
0 0
0 0
0 0
0 0
0 0
0 0
0 0
0 0
0 0
0 0
0 0
0 0
0 0
0 0
0 0
0 0
0 0
0 0
0 0
0 0
0 0
0 0
0 0
0 0
0 0
0 0
0 0
0 0
0 0
0 0
0 0
0 0
0 0
0 0
0 0
0 0
0 0
0 0
0 0
0 0
0 0
0 0
0 0
0 0
0 0
0 0
0 0
0 0
0 0
0 0
0 0
0 0
0 0
0 0
0 0
0 0
0 0
0 0
0 0
0 0
0 0
0 0
0 0
0 0
0 0
0 0
0 0
0 0
0 0
0 0
0 0
0 0
0 0
0 0
0 0
0 0
0 0
0 0
0 0
0 0
0 0
0 0
0 0
0 0
0 0
0 0
0 0
0 0
0 0
0 0
0 0
0 0
0 0
0 0
0 0
0 0
0 0
0 0
0 0
0 0
0 0
0 0
0 0
0 0
0 0
0 0
0 0
0 0
0 0
0 0
0 0
0 0
0 0
0 0
0 0
0 0
0 0
0 0
0 0
0 0
0 0
0 0
0 0
0 0
0 0
0 0
0 0
0 0
0 0
0 0
0 0
0 0
0 0
0 0
0 0
0 0
0 0
0 0
0 0
0 0
0 0
0 0
0 0
0 0
0 0
0 0
0 0
0 0
0 0
0 0
0 0
0 0
0 0
0 0
0 0
0 0
0 0
0 0
0 0
0 0
0 0
0 0
0 0
0 0
0 0
0 0
0 0
0 0
0 0
0 0
0 0
0 0
0 0
0 0
0 0
0 0
0 0
0 0
0 0
0 0
0 0
0 0
0 0
0 0
0 0
0 0
0 0
0 0
0 0
0 0
0 0
0 0
0 0
0 0
0 0
0 0
0 0
0 0
0 0
0 0
0 0
0 0
0 0
0 0
0 0
0 0
0 0
0 0
0 0
0 0
0 0
0 0
0 0
0 0
0 0
0 0
0 0
0 0
0 0
0 0
0 0
0 0
0 0
0 0
0 0
0 0
0 0
0 0
0 0
0 0
0 0
0 0
0 0
0 0
0 0
0 0
0 0
0 0
0 0
0 0
0 0
0 0
0 0
0 0
0 0
0 0
0 0
0 0
0 0
0 0
0 0
0 0
0 0
0 0
0 0
0 0
0 0
0 0
0 0
0 0
0 0
0 0
0 0
0 0
0 0
0 0
0 0
0 0
0 0
0 0
0 0
0 0
0 0
0 0
0 0
0 0
0 0
0 0
0 0
0 0
0 0
0 0
0 0
0 0
0 0
0 0
0 0
0 0
0 0
0 0
0 0
0 0
0 0
0 0
0 0
0 0
0 0
0 0
0 0
0 0
0 0
0 0
0 0
0 0
0 0
0 0
0 0
0 0
0 0
0 0
0 0
0 0
0 0
0 0
0 0
0 0
0 0
0 0
0 0
0 0
0 0
0 0
0 0
0 0
0 0
0 0
0 0
0 0
0 0
0 0
0 0
0 0
0 0
0 0
0 0
0 0
0 0
0 0
0 0
0 0
0 0
0 0
0 0
0 0
0 0
0 0
0 0
0 0
0 0
0 0
0 0
0 0
0 0
0 0
0 0
0 0
0 0
0 0
0 0
0 0
0 0
0 0
0 0
0 0
0 0
0 0
0 0
0 0
0 0
0 0
0 0
0 0
0 0
0 0
0 0
0 0
0 0
0 0
0 0
0 0
0 0
0 0
0 0
0 0
0 0
0 0
0 0
0 0
0 0
0 0
0 0
0 0
0 0
0 0
0 0
0 0
0 0
0 0
0 0
0 0
0 0
0 0
0 0
0 0
0 0
0 0
0 0
0 0
0 0
0 0
0 0
0 0
0 0
0 0
0 0
0 0
0 0
0 0
0 0
0 0
0 0
0 0
0 0
0 0
0 0
0 0
0 0
0 0
0 0
0 0
0 0
0 0
0 0
0 0
0 0
0 0
0 0
0 0
0 0
0 0
0 0
0 0
0 0
0 0
0 0
0 0
0 0
0 0
0 0
0 0
0 0
0 0
0 0
0 0
0 0
0 0
0 0
0 0
0 0
0 0
0 0
0 0
0 0
0 0
0 0
0 0
0 0
0 0
0 0
0 0
0 0
0 0
0 0
0 0
0 0
0 0
0 0
0 0
0 0
0 0
0 0
0 0
0 0
0 0
0 0
0 0
0 0
0 0
0 0
0 0
0 0
0 0
0 0
0 0
0 0
0 0
0 0
0 0
0 0
0 0
0 0
0 0
0 0
0 0
0 0
0 0
0 0
0 0
0 0
0 0
0 0
0 0
0 0
0 0
0 0
0 0
0 0
0 0
0 0
0 0
0 0
0 0
0 0
0 0
0 0
0 0
0 0
0 0
0 0
0 0
0 0
0 0
0 0
0 0
0 0
0 0
0 0
0 0
0 0
0 0
0 0
0 0
0 0
0 0
0 0
0 0
0 0
0 0
0 0
0 0
0 0
0 0
0 0
0 0
0 0
0 0
0 0
0 0
0 0
0 0
0 0
0 0
0 0
0 0
0 0
0 0
0 0
0 0
0 0
0 0
0 0
0 0
0 0
0 0
0 0
0 0
0 0
0 0
0 0
0 0
0 0
0 0
0 0
0 0
0 0
0 0
0 0
0 0
0 0
0 0
0 0
0 0
0 0
0 0
0 0
0 0
0 0
0 0
0 0
0 0
0 0
0 0
0 0
0 0
0 0
0 0
0 0
0 0
0 0
0 0
0 0
0 0
0 0
0 0
0 0
0 0
0 0
0 0
0 0
0 0
0 0
0 0
0 0
0 0
0 0
0 0
0 0
0 0
0 0
0 0
0 0
0 0
0 0
0 0
0 0
0 0
0 0
0 0
0 0
0 0
0 0
0 0
0 0
0 0
0 0
0 0
0 0
0 0
0 0
0 0
0 0
0 0
0 0
0 0
0 0
0 0
0 0
0 0
0 0
0 0
0 0
0 0
0 0
0 0
0 0
0 0
0 0
0 0
0 0
0 0
0 0
0 0
0 0
0 0
0 0
0 0
0 0
0 0
0 0
0 0
0 0
0 0
0 0
0 0
0 0
0 0
0 0
0 0
0 0
0 0
0 0
0 0
0 0
0 0
0 0
0 0
0 0
0 0
0 0
0 0
0 0
0 0
0 0
0 0
0 0
0 0
0 0
0 0
0 0
0 0
0 0
0 0
0 0
0 0
0 0
0 0
0 0
0 0
0 0
0 0
0 0
0 0
0 0
0 0
0 0
0 0
0 0
0 0
0 0
0 0
0 0
0 0
0 0
0 0
0 0
0 0
0 0
0 0
0 0
0 0
0 0
0 0
0 0
0 0
0 0
0 0
0 0
0 0
0 0
0 0
0 0
0 0
0 0
0 0
0 0
0 0
0 0
0 0
0 0
0 0
0 0
0 0
0 0
0 0
0 0
0 0
0 0
0 0
0 0
0 0
0 0
0 0
0 0
0 0
0 0
0 0
0 0
0 0
0 0
0 0
0 0
0 0
0 0
0 0
0 0
0 0
0 0
0 0
0 0
0 0
0 0
0 0
0 0
0 0
0 0
0 0
0 0
0 0
0 0
0 0
0 0
0 0
0 0
0 0
0 0
0 0
0 0
0 0
0 0
0 0
0 0
0 0
0 0
0 0
0 0
0 0
0 0
0 0
0 0
0 0
0 0
0 0
0 0
0 0
0 0
0 0
0 0
0 0
0 0
0 0
0 0
0 0
0 0
0 0
0 0
0 0
0 0
0 0
0 0
0 0
0 0
0 0
0 0
0 0
0 0
0 0
0 0
0 0
0 0
0 0
0 0
0 0
0 0
0 0
0 0
0 0
0 0
0 0
0 0
0 0
0 0
0 0
0 0
0 0
0 0
0 0
0 0
0 0
0 0
0 0
0 0
0 0
0 0
0 0
0 0
0 0
0 0
0 0
0 0
0 0
0 0
0 0
0 0
0 0
0 0
0 0
0 0
0 0
0 0
0 0
0 0
0 0
0 0
0 0
0 0
0 0
0 0
0 0
0 0
0 0
0 0
0 0
0 0
0 0
0 0
0 0
0 0
0 0
0 0
0 0
0 0
0 0
0 0
0 0
0 0
0 0
0 0
0 0
0 0
0 0
0 0
0 0
0 0
0 0
0 0
0 0
0 0
0 0
0 0
0 0
0 0
0 0
0 0
0 0
0 0
0 0
0 0
0 0
      </DataArray> 
      <DataArray type="Float64" NumberOfComponents="2" Name="Acceleration" format="ascii">
0 0
0 0
0 0
0 0
0 0
0 0
0 0
0 0
0 0
0 0
0 0
0 0
0 0
0 0
0 0
0 0
0 0
0 0
0 0
0 0
0 0
0 0
0 0
0 0
0 0
0 0
0 0
0 0
0 0
0 0
0 0
0 0
0 0
0 0
0 0
0 0
0 0
0 0
0 0
0 0
0 0
0 0
0 0
0 0
0 0
0 0
0 0
0 0
0 0
0 0
0 0
0 0
0 0
0 0
0 0
0 0
0 0
0 0
0 0
0 0
0 0
0 0
0 0
0 0
0 0
0 0
0 0
0 0
0 0
0 0
0 0
0 0
0 0
0 0
0 0
0 0
0 0
0 0
0 0
0 0
0 0
0 0
0 0
0 0
0 0
0 0
0 0
0 0
0 0
0 0
0 0
0 0
0 0
0 0
0 0
0 0
0 0
0 0
0 0
0 0
0 0
0 0
0 0
0 0
0 0
0 0
0 0
0 0
0 0
0 0
0 0
0 0
0 0
0 0
0 0
0 0
0 0
0 0
0 0
0 0
0 0
0 0
0 0
0 0
0 0
0 0
0 0
0 0
0 0
0 0
0 0
0 0
0 0
0 0
0 0
0 0
0 0
0 0
0 0
0 0
0 0
0 0
0 0
0 0
0 0
0 0
0 0
0 0
0 0
0 0
0 0
0 0
0 0
0 0
0 0
0 0
0 0
0 0
0 0
0 0
0 0
0 0
0 0
0 0
0 0
0 0
0 0
0 0
0 0
0 0
0 0
0 0
0 0
0 0
0 0
0 0
0 0
0 0
0 0
0 0
0 0
0 0
0 0
0 0
0 0
0 0
0 0
0 0
0 0
0 0
0 0
0 0
0 0
0 0
0 0
0 0
0 0
0 0
0 0
0 0
0 0
0 0
0 0
0 0
0 0
0 0
0 0
0 0
0 0
0 0
0 0
0 0
0 0
0 0
0 0
0 0
0 0
0 0
0 0
0 0
0 0
0 0
0 0
0 0
0 0
0 0
0 0
0 0
0 0
0 0
0 0
0 0
0 0
0 0
0 0
0 0
0 0
0 0
0 0
0 0
0 0
0 0
0 0
0 0
0 0
0 0
0 0
0 0
0 0
0 0
0 0
0 0
0 0
0 0
0 0
0 0
0 0
0 0
0 0
0 0
0 0
0 0
0 0
0 0
0 0
0 0
0 0
0 0
0 0
0 0
0 0
0 0
0 0
0 0
0 0
0 0
0 0
0 0
0 0
0 0
0 0
0 0
0 0
0 0
0 0
0 0
0 0
0 0
0 0
0 0
0 0
0 0
0 0
0 0
0 0
0 0
0 0
0 0
0 0
0 0
0 0
0 0
0 0
0 0
0 0
0 0
0 0
0 0
0 0
0 0
0 0
0 0
0 0
0 0
0 0
0 0
0 0
0 0
0 0
0 0
0 0
0 0
0 0
0 0
0 0
0 0
0 0
0 0
0 0
0 0
0 0
0 0
0 0
0 0
0 0
0 0
0 0
0 0
0 0
0 0
0 0
0 0
0 0
0 0
0 0
0 0
0 0
0 0
0 0
0 0
0 0
0 0
0 0
0 0
0 0
0 0
0 0
0 0
0 0
0 0
0 0
0 0
0 0
0 0
0 0
0 0
0 0
0 0
0 0
0 0
0 0
0 0
0 0
0 0
0 0
0 0
0 0
0 0
0 0
0 0
0 0
0 0
0 0
0 0
0 0
0 0
0 0
0 0
0 0
0 0
0 0
0 0
0 0
0 0
0 0
0 0
0 0
0 0
0 0
0 0
0 0
0 0
0 0
0 0
0 0
0 0
0 0
0 0
0 0
0 0
0 0
0 0
0 0
0 0
0 0
0 0
0 0
0 0
0 0
0 0
0 0
0 0
0 0
0 0
0 0
0 0
0 0
0 0
0 0
0 0
0 0
0 0
0 0
0 0
0 0
0 0
0 0
0 0
0 0
0 0
0 0
0 0
0 0
0 0
0 0
0 0
0 0
0 0
0 0
0 0
0 0
0 0
0 0
0 0
0 0
0 0
0 0
0 0
0 0
0 0
0 0
0 0
0 0
0 0
0 0
0 0
0 0
0 0
0 0
0 0
0 0
0 0
0 0
0 0
0 0
0 0
0 0
0 0
0 0
0 0
0 0
0 0
0 0
0 0
0 0
0 0
0 0
0 0
0 0
0 0
0 0
0 0
0 0
0 0
0 0
0 0
0 0
0 0
0 0
0 0
0 0
0 0
0 0
0 0
0 0
0 0
0 0
0 0
0 0
0 0
0 0
0 0
0 0
0 0
0 0
0 0
0 0
0 0
0 0
0 0
0 0
0 0
0 0
0 0
0 0
0 0
0 0
0 0
0 0
0 0
0 0
0 0
0 0
0 0
0 0
0 0
0 0
0 0
0 0
0 0
0 0
0 0
0 0
0 0
0 0
0 0
0 0
0 0
0 0
0 0
0 0
0 0
0 0
0 0
0 0
0 0
0 0
0 0
0 0
0 0
0 0
0 0
0 0
0 0
0 0
0 0
0 0
0 0
0 0
0 0
0 0
0 0
0 0
0 0
0 0
0 0
0 0
0 0
0 0
0 0
0 0
0 0
0 0
0 0
0 0
0 0
0 0
0 0
0 0
0 0
0 0
0 0
0 0
0 0
0 0
0 0
0 0
0 0
0 0
0 0
0 0
0 0
0 0
0 0
0 0
0 0
0 0
0 0
0 0
0 0
0 0
0 0
0 0
0 0
0 0
0 0
0 0
0 0
0 0
0 0
0 0
0 0
0 0
0 0
0 0
0 0
0 0
0 0
0 0
0 0
0 0
0 0
0 0
0 0
0 0
0 0
0 0
0 0
0 0
0 0
0 0
0 0
0 0
0 0
0 0
0 0
0 0
0 0
0 0
0 0
0 0
0 0
0 0
0 0
0 0
0 0
0 0
0 0
0 0
0 0
0 0
0 0
0 0
0 0
0 0
0 0
0 0
0 0
0 0
0 0
0 0
0 0
0 0
0 0
0 0
0 0
0 0
0 0
0 0
0 0
0 0
0 0
0 0
0 0
0 0
0 0
0 0
0 0
0 0
0 0
0 0
0 0
0 0
0 0
0 0
0 0
0 0
0 0
0 0
0 0
0 0
0 0
0 0
0 0
0 0
0 0
0 0
0 0
0 0
0 0
0 0
0 0
0 0
0 0
0 0
0 0
0 0
0 0
0 0
0 0
0 0
0 0
0 0
0 0
0 0
0 0
0 0
0 0
0 0
0 0
0 0
0 0
0 0
0 0
0 0
0 0
0 0
0 0
0 0
0 0
0 0
0 0
0 0
0 0
0 0
0 0
0 0
0 0
0 0
0 0
0 0
0 0
0 0
0 0
0 0
0 0
0 0
0 0
0 0
0 0
0 0
0 0
0 0
0 0
0 0
0 0
0 0
0 0
0 0
0 0
0 0
0 0
0 0
0 0
0 0
0 0
0 0
0 0
0 0
0 0
0 0
0 0
0 0
0 0
0 0
0 0
0 0
0 0
0 0
0 0
0 0
0 0
0 0
0 0
0 0
0 0
0 0
0 0
0 0
0 0
0 0
0 0
0 0
0 0
0 0
0 0
0 0
0 0
0 0
0 0
0 0
0 0
0 0
0 0
0 0
0 0
0 0
0 0
0 0
0 0
0 0
0 0
0 0
0 0
0 0
0 0
0 0
0 0
0 0
0 0
0 0
0 0
0 0
0 0
0 0
0 0
0 0
0 0
0 0
0 0
0 0
0 0
0 0
0 0
0 0
0 0
0 0
0 0
0 0
0 0
0 0
0 0
0 0
0 0
0 0
0 0
0 0
0 0
0 0
0 0
0 0
0 0
0 0
0 0
0 0
0 0
0 0
0 0
0 0
0 0
0 0
0 0
0 0
0 0
0 0
0 0
0 0
0 0
0 0
0 0
0 0
0 0
0 0
0 0
0 0
0 0
0 0
0 0
0 0
0 0
0 0
0 0
0 0
0 0
0 0
0 0
0 0
0 0
0 0
0 0
0 0
0 0
0 0
0 0
0 0
0 0
0 0
0 0
0 0
0 0
0 0
0 0
0 0
0 0
0 0
0 0
0 0
0 0
0 0
0 0
0 0
0 0
0 0
0 0
0 0
0 0
0 0
0 0
0 0
0 0
0 0
0 0
0 0
0 0
0 0
0 0
0 0
0 0
0 0
0 0
0 0
0 0
0 0
0 0
0 0
0 0
0 0
0 0
0 0
0 0
0 0
0 0
0 0
0 0
0 0
0 0
0 0
0 0
0 0
0 0
0 0
0 0
0 0
0 0
0 0
0 0
0 0
0 0
0 0
0 0
0 0
0 0
0 0
0 0
0 0
0 0
0 0
0 0
0 0
0 0
0 0
0 0
0 0
0 0
0 0
0 0
0 0
0 0
0 0
0 0
0 0
0 0
0 0
0 0
0 0
0 0
0 0
0 0
0 0
0 0
0 0
0 0
0 0
0 0
0 0
0 0
0 0
0 0
0 0
0 0
0 0
0 0
0 0
0 0
0 0
0 0
0 0
0 0
0 0
0 0
0 0
0 0
0 0
0 0
0 0
0 0
0 0
0 0
0 0
0 0
0 0
0 0
0 0
0 0
0 0
0 0
0 0
0 0
0 0
0 0
0 0
0 0
0 0
0 0
0 0
0 0
0 0
0 0
0 0
0 0
0 0
0 0
0 0
0 0
0 0
0 0
0 0
0 0
0 0
0 0
0 0
0 0
0 0
0 0
0 0
0 0
0 0
0 0
0 0
0 0
0 0
0 0
0 0
0 0
0 0
0 0
0 0
0 0
0 0
0 0
0 0
0 0
0 0
0 0
0 0
0 0
0 0
0 0
0 0
0 0
0 0
0 0
0 0
0 0
0 0
0 0
0 0
0 0
0 0
0 0
0 0
0 0
0 0
0 0
0 0
0 0
0 0
0 0
0 0
0 0
0 0
0 0
0 0
0 0
0 0
0 0
0 0
0 0
0 0
0 0
0 0
0 0
0 0
0 0
0 0
0 0
0 0
0 0
0 0
0 0
0 0
0 0
0 0
0 0
0 0
0 0
0 0
0 0
0 0
0 0
0 0
0 0
0 0
0 0
0 0
0 0
0 0
0 0
0 0
0 0
0 0
0 0
0 0
0 0
0 0
0 0
0 0
0 0
0 0
0 0
0 0
0 0
0 0
0 0
0 0
0 0
0 0
0 0
0 0
0 0
0 0
0 0
0 0
0 0
0 0
0 0
0 0
0 0
0 0
0 0
0 0
0 0
0 0
0 0
0 0
0 0
0 0
0 0
0 0
0 0
0 0
0 0
0 0
0 0
0 0
0 0
0 0
0 0
0 0
0 0
0 0
0 0
0 0
0 0
0 0
0 0
0 0
0 0
0 0
0 0
0 0
0 0
0 0
0 0
0 0
0 0
0 0
0 0
0 0
0 0
0 0
0 0
0 0
0 0
0 0
0 0
0 0
0 0
0 0
0 0
0 0
0 0
0 0
0 0
0 0
0 0
0 0
0 0
0 0
0 0
0 0
0 0
0 0
0 0
0 0
0 0
0 0
0 0
0 0
0 0
0 0
0 0
0 0
0 0
0 0
0 0
0 0
0 0
0 0
0 0
0 0
0 0
0 0
0 0
0 0
0 0
0 0
0 0
0 0
0 0
0 0
0 0
0 0
0 0
0 0
0 0
0 0
0 0
0 0
0 0
0 0
0 0
0 0
0 0
0 0
0 0
0 0
0 0
0 0
0 0
0 0
0 0
0 0
0 0
0 0
0 0
0 0
0 0
0 0
0 0
0 0
0 0
0 0
0 0
0 0
0 0
0 0
0 0
0 0
0 0
0 0
0 0
0 0
0 0
0 0
0 0
0 0
0 0
0 0
0 0
0 0
0 0
0 0
0 0
0 0
0 0
0 0
0 0
0 0
0 0
0 0
0 0
0 0
0 0
0 0
0 0
0 0
0 0
0 0
0 0
0 0
0 0
0 0
0 0
0 0
0 0
0 0
0 0
0 0
0 0
0 0
0 0
0 0
0 0
0 0
0 0
0 0
0 0
0 0
0 0
0 0
0 0
0 0
0 0
0 0
0 0
0 0
0 0
0 0
0 0
0 0
0 0
0 0
0 0
0 0
0 0
0 0
0 0
0 0
0 0
0 0
0 0
0 0
0 0
0 0
0 0
0 0
0 0
0 0
0 0
0 0
0 0
0 0
0 0
0 0
0 0
0 0
0 0
0 0
0 0
0 0
0 0
0 0
0 0
0 0
0 0
0 0
0 0
0 0
0 0
0 0
0 0
0 0
0 0
0 0
0 0
0 0
0 0
0 0
0 0
0 0
0 0
0 0
0 0
0 0
0 0
0 0
0 0
0 0
0 0
0 0
0 0
0 0
0 0
0 0
0 0
0 0
0 0
0 0
0 0
0 0
0 0
0 0
0 0
0 0
0 0
0 0
0 0
0 0
0 0
0 0
0 0
0 0
0 0
0 0
0 0
0 0
0 0
0 0
0 0
0 0
0 0
0 0
0 0
0 0
0 0
0 0
0 0
0 0
0 0
0 0
0 0
0 0
0 0
0 0
0 0
0 0
0 0
0 0
0 0
0 0
0 0
0 0
0 0
0 0
0 0
0 0
0 0
0 0
0 0
0 0
0 0
0 0
0 0
0 0
0 0
0 0
0 0
0 0
0 0
0 0
0 0
0 0
0 0
0 0
0 0
0 0
0 0
0 0
0 0
0 0
0 0
0 0
0 0
0 0
0 0
0 0
0 0
0 0
0 0
0 0
0 0
0 0
0 0
0 0
0 0
0 0
0 0
0 0
0 0
0 0
0 0
0 0
0 0
0 0
0 0
0 0
0 0
0 0
0 0
0 0
0 0
0 0
0 0
0 0
0 0
0 0
0 0
0 0
0 0
0 0
0 0
0 0
0 0
0 0
0 0
0 0
0 0
0 0
0 0
0 0
0 0
0 0
0 0
0 0
0 0
0 0
0 0
0 0
0 0
0 0
0 0
0 0
0 0
0 0
0 0
0 0
0 0
0 0
0 0
0 0
0 0
0 0
0 0
0 0
0 0
0 0
0 0
0 0
0 0
0 0
0 0
0 0
0 0
0 0
0 0
0 0
0 0
0 0
0 0
0 0
0 0
0 0
0 0
0 0
0 0
0 0
0 0
0 0
0 0
0 0
0 0
0 0
0 0
0 0
0 0
0 0
0 0
0 0
0 0
0 0
0 0
0 0
0 0
0 0
0 0
0 0
0 0
0 0
0 0
0 0
0 0
0 0
0 0
0 0
0 0
0 0
0 0
0 0
0 0
0 0
0 0
0 0
0 0
0 0
0 0
0 0
0 0
0 0
0 0
0 0
0 0
0 0
0 0
0 0
0 0
0 0
0 0
0 0
0 0
0 0
0 0
0 0
0 0
0 0
0 0
0 0
0 0
0 0
0 0
0 0
0 0
0 0
0 0
0 0
0 0
0 0
0 0
0 0
0 0
0 0
0 0
0 0
0 0
0 0
0 0
0 0
0 0
0 0
0 0
0 0
0 0
0 0
0 0
0 0
0 0
0 0
0 0
0 0
0 0
0 0
0 0
0 0
0 0
0 0
0 0
0 0
0 0
0 0
0 0
0 0
0 0
0 0
0 0
0 0
0 0
0 0
0 0
0 0
0 0
0 0
0 0
0 0
0 0
0 0
0 0
0 0
0 0
0 0
0 0
0 0
0 0
0 0
0 0
0 0
0 0
0 0
0 0
0 0
0 0
0 0
0 0
0 0
0 0
0 0
0 0
0 0
0 0
0 0
0 0
0 0
0 0
0 0
0 0
0 0
0 0
0 0
0 0
0 0
0 0
0 0
0 0
0 0
0 0
0 0
0 0
0 0
0 0
0 0
0 0
0 0
0 0
0 0
0 0
0 0
0 0
0 0
0 0
0 0
0 0
0 0
0 0
0 0
0 0
0 0
0 0
0 0
0 0
0 0
0 0
0 0
0 0
0 0
0 0
0 0
0 0
0 0
0 0
0 0
0 0
0 0
0 0
0 0
0 0
0 0
0 0
0 0
0 0
0 0
0 0
0 0
0 0
0 0
0 0
0 0
0 0
0 0
0 0
0 0
0 0
0 0
0 0
0 0
0 0
0 0
0 0
0 0
0 0
0 0
0 0
0 0
0 0
0 0
0 0
0 0
0 0
0 0
0 0
0 0
0 0
0 0
0 0
0 0
0 0
0 0
0 0
0 0
0 0
0 0
0 0
0 0
0 0
0 0
0 0
0 0
0 0
0 0
0 0
0 0
0 0
0 0
0 0
0 0
0 0
0 0
0 0
0 0
0 0
0 0
0 0
0 0
0 0
0 0
0 0
0 0
0 0
0 0
0 0
0 0
0 0
0 0
0 0
0 0
0 0
0 0
0 0
0 0
0 0
0 0
0 0
0 0
0 0
0 0
0 0
0 0
0 0
0 0
0 0
0 0
0 0
0 0
0 0
0 0
0 0
0 0
0 0
0 0
0 0
0 0
0 0
0 0
0 0
0 0
0 0
0 0
0 0
0 0
0 0
0 0
0 0
0 0
0 0
0 0
0 0
0 0
0 0
0 0
0 0
0 0
0 0
0 0
0 0
0 0
0 0
0 0
0 0
0 0
0 0
0 0
0 0
0 0
0 0
0 0
0 0
0 0
0 0
0 0
0 0
0 0
0 0
0 0
0 0
0 0
0 0
0 0
0 0
0 0
0 0
0 0
0 0
0 0
0 0
0 0
0 0
0 0
0 0
0 0
0 0
0 0
0 0
0 0
0 0
0 0
0 0
0 0
0 0
0 0
0 0
0 0
0 0
0 0
0 0
0 0
0 0
0 0
0 0
0 0
0 0
0 0
0 0
0 0
0 0
0 0
0 0
0 0
0 0
0 0
0 0
0 0
0 0
0 0
0 0
0 0
0 0
0 0
0 0
0 0
0 0
0 0
0 0
0 0
0 0
0 0
0 0
0 0
0 0
0 0
0 0
0 0
0 0
0 0
0 0
0 0
0 0
0 0
0 0
0 0
0 0
0 0
0 0
0 0
0 0
0 0
0 0
0 0
0 0
0 0
0 0
0 0
0 0
0 0
0 0
0 0
0 0
0 0
0 0
0 0
0 0
0 0
0 0
0 0
0 0
0 0
0 0
0 0
0 0
0 0
0 0
0 0
0 0
0 0
0 0
0 0
0 0
0 0
0 0
0 0
0 0
0 0
0 0
0 0
0 0
0 0
0 0
0 0
0 0
0 0
0 0
0 0
0 0
0 0
0 0
0 0
0 0
0 0
0 0
0 0
0 0
0 0
0 0
0 0
0 0
0 0
0 0
0 0
0 0
0 0
0 0
0 0
0 0
0 0
0 0
0 0
0 0
0 0
0 0
0 0
0 0
0 0
0 0
0 0
0 0
0 0
0 0
0 0
0 0
0 0
0 0
0 0
0 0
0 0
0 0
0 0
0 0
0 0
0 0
0 0
0 0
0 0
0 0
0 0
0 0
0 0
0 0
0 0
0 0
0 0
0 0
0 0
0 0
0 0
0 0
0 0
0 0
0 0
0 0
0 0
0 0
0 0
0 0
0 0
0 0
0 0
0 0
0 0
0 0
0 0
0 0
0 0
0 0
0 0
0 0
0 0
0 0
0 0
0 0
0 0
0 0
0 0
0 0
0 0
0 0
0 0
0 0
0 0
0 0
0 0
0 0
0 0
0 0
0 0
0 0
0 0
0 0
0 0
0 0
0 0
0 0
0 0
0 0
0 0
0 0
0 0
0 0
0 0
0 0
0 0
0 0
0 0
0 0
0 0
0 0
0 0
0 0
0 0
0 0
0 0
0 0
0 0
0 0
0 0
0 0
0 0
0 0
0 0
0 0
0 0
0 0
0 0
0 0
0 0
0 0
0 0
0 0
0 0
0 0
0 0
0 0
0 0
0 0
0 0
0 0
0 0
0 0
0 0
0 0
0 0
0 0
0 0
0 0
0 0
0 0
0 0
0 0
0 0
0 0
0 0
0 0
0 0
0 0
0 0
0 0
0 0
0 0
0 0
0 0
0 0
0 0
0 0
0 0
0 0
0 0
0 0
0 0
0 0
0 0
0 0
0 0
0 0
0 0
0 0
0 0
0 0
0 0
0 0
0 0
0 0
0 0
0 0
0 0
0 0
0 0
0 0
0 0
0 0
0 0
0 0
0 0
0 0
0 0
0 0
0 0
0 0
0 0
0 0
0 0
0 0
0 0
0 0
0 0
0 0
0 0
0 0
0 0
0 0
0 0
0 0
0 0
0 0
0 0
0 0
0 0
0 0
0 0
0 0
0 0
0 0
0 0
0 0
0 0
0 0
0 0
0 0
0 0
0 0
0 0
0 0
0 0
0 0
0 0
0 0
0 0
0 0
0 0
0 0
0 0
0 0
0 0
0 0
0 0
0 0
0 0
0 0
0 0
0 0
0 0
0 0
0 0
0 0
0 0
0 0
0 0
0 0
0 0
0 0
0 0
0 0
0 0
0 0
0 0
0 0
0 0
0 0
0 0
0 0
0 0
0 0
0 0
0 0
0 0
0 0
0 0
0 0
0 0
0 0
0 0
0 0
0 0
0 0
0 0
0 0
0 0
0 0
0 0
0 0
0 0
0 0
0 0
0 0
0 0
0 0
0 0
0 0
0 0
0 0
0 0
0 0
0 0
0 0
0 0
0 0
0 0
0 0
0 0
0 0
0 0
0 0
0 0
0 0
0 0
0 0
0 0
0 0
0 0
0 0
0 0
0 0
0 0
0 0
0 0
0 0
0 0
0 0
0 0
0 0
0 0
0 0
0 0
0 0
0 0
0 0
0 0
0 0
0 0
0 0
0 0
0 0
0 0
0 0
0 0
0 0
0 0
0 0
0 0
0 0
0 0
0 0
0 0
0 0
0 0
0 0
0 0
0 0
0 0
0 0
0 0
0 0
0 0
0 0
0 0
0 0
0 0
0 0
0 0
0 0
0 0
0 0
0 0
0 0
0 0
0 0
0 0
0 0
0 0
0 0
0 0
0 0
0 0
0 0
0 0
0 0
0 0
0 0
0 0
0 0
0 0
0 0
0 0
0 0
0 0
0 0
0 0
0 0
0 0
0 0
0 0
0 0
0 0
0 0
0 0
0 0
0 0
0 0
0 0
0 0
0 0
0 0
0 0
0 0
0 0
0 0
0 0
0 0
0 0
0 0
0 0
0 0
0 0
0 0
0 0
0 0
0 0
0 0
0 0
0 0
0 0
0 0
0 0
0 0
0 0
0 0
0 0
0 0
0 0
0 0
0 0
0 0
0 0
0 0
0 0
0 0
0 0
0 0
0 0
0 0
0 0
0 0
0 0
0 0
0 0
0 0
0 0
0 0
0 0
0 0
0 0
0 0
0 0
0 0
0 0
0 0
0 0
0 0
0 0
0 0
0 0
0 0
0 0
0 0
0 0
0 0
0 0
0 0
0 0
0 0
0 0
0 0
0 0
0 0
0 0
0 0
0 0
0 0
0 0
0 0
0 0
0 0
0 0
0 0
0 0
0 0
0 0
0 0
0 0
0 0
0 0
0 0
0 0
0 0
0 0
0 0
0 0
0 0
0 0
0 0
0 0
0 0
0 0
0 0
0 0
0 0
0 0
0 0
0 0
0 0
0 0
0 0
0 0
0 0
0 0
0 0
0 0
0 0
0 0
0 0
0 0
0 0
0 0
0 0
0 0
0 0
0 0
0 0
0 0
0 0
0 0
0 0
0 0
0 0
0 0
0 0
0 0
0 0
0 0
0 0
0 0
0 0
0 0
0 0
0 0
0 0
0 0
0 0
0 0
0 0
0 0
0 0
0 0
0 0
0 0
0 0
0 0
0 0
0 0
0 0
0 0
0 0
0 0
0 0
0 0
0 0
0 0
0 0
0 0
0 0
0 0
0 0
0 0
0 0
0 0
0 0
0 0
0 0
0 0
0 0
0 0
0 0
0 0
0 0
0 0
0 0
0 0
0 0
0 0
0 0
0 0
0 0
0 0
0 0
0 0
0 0
0 0
0 0
0 0
0 0
0 0
0 0
0 0
0 0
0 0
0 0
0 0
0 0
0 0
0 0
0 0
0 0
0 0
0 0
0 0
0 0
0 0
0 0
0 0
0 0
0 0
0 0
0 0
0 0
0 0
0 0
0 0
0 0
0 0
0 0
0 0
0 0
0 0
0 0
0 0
0 0
0 0
0 0
0 0
0 0
0 0
0 0
0 0
0 0
0 0
0 0
0 0
0 0
0 0
0 0
0 0
0 0
0 0
0 0
0 0
0 0
0 0
0 0
0 0
0 0
0 0
0 0
0 0
0 0
0 0
0 0
0 0
0 0
0 0
0 0
0 0
0 0
0 0
0 0
0 0
0 0
0 0
0 0
0 0
0 0
0 0
0 0
0 0
0 0
0 0
0 0
0 0
0 0
0 0
0 0
0 0
0 0
0 0
0 0
0 0
0 0
0 0
0 0
0 0
0 0
0 0
0 0
0 0
0 0
0 0
0 0
0 0
0 0
0 0
0 0
0 0
0 0
0 0
0 0
0 0
0 0
0 0
0 0
0 0
0 0
0 0
0 0
0 0
0 0
0 0
0 0
0 0
0 0
0 0
0 0
0 0
0 0
0 0
0 0
0 0
0 0
0 0
0 0
0 0
0 0
0 0
0 0
0 0
0 0
0 0
0 0
0 0
0 0
0 0
0 0
0 0
0 0
0 0
0 0
0 0
0 0
0 0
0 0
0 0
0 0
0 0
0 0
0 0
0 0
0 0
0 0
0 0
0 0
0 0
0 0
0 0
0 0
0 0
0 0
0 0
0 0
0 0
0 0
0 0
0 0
0 0
0 0
0 0
0 0
0 0
0 0
0 0
0 0
0 0
0 0
0 0
0 0
0 0
0 0
0 0
0 0
0 0
0 0
0 0
0 0
0 0
0 0
0 0
0 0
0 0
0 0
0 0
0 0
0 0
0 0
0 0
0 0
0 0
0 0
0 0
0 0
0 0
0 0
0 0
0 0
0 0
0 0
0 0
0 0
0 0
0 0
0 0
0 0
0 0
0 0
0 0
0 0
0 0
0 0
0 0
0 0
0 0
0 0
0 0
0 0
0 0
0 0
0 0
0 0
0 0
0 0
0 0
0 0
0 0
0 0
0 0
0 0
0 0
0 0
0 0
0 0
0 0
0 0
0 0
0 0
0 0
0 0
0 0
0 0
0 0
0 0
0 0
0 0
0 0
0 0
0 0
0 0
0 0
0 0
0 0
0 0
0 0
0 0
0 0
0 0
0 0
0 0
0 0
0 0
0 0
0 0
0 0
0 0
0 0
0 0
0 0
0 0
0 0
0 0
0 0
0 0
0 0
0 0
0 0
0 0
0 0
0 0
0 0
0 0
0 0
0 0
0 0
0 0
0 0
0 0
0 0
0 0
0 0
0 0
0 0
0 0
0 0
0 0
0 0
0 0
0 0
0 0
0 0
0 0
0 0
0 0
0 0
0 0
0 0
0 0
0 0
0 0
0 0
0 0
0 0
0 0
0 0
0 0
0 0
0 0
0 0
0 0
0 0
0 0
0 0
0 0
0 0
0 0
0 0
0 0
0 0
0 0
0 0
0 0
0 0
0 0
0 0
0 0
0 0
0 0
0 0
0 0
0 0
0 0
0 0
0 0
0 0
0 0
0 0
0 0
0 0
0 0
0 0
0 0
0 0
0 0
0 0
0 0
0 0
0 0
0 0
0 0
0 0
0 0
0 0
0 0
0 0
0 0
0 0
0 0
0 0
0 0
0 0
0 0
0 0
0 0
0 0
0 0
0 0
0 0
0 0
0 0
0 0
0 0
0 0
0 0
0 0
0 0
0 0
0 0
0 0
0 0
0 0
0 0
0 0
0 0
0 0
0 0
0 0
0 0
0 0
0 0
0 0
0 0
0 0
0 0
0 0
0 0
0 0
0 0
0 0
0 0
0 0
0 0
0 0
0 0
0 0
0 0
0 0
0 0
0 0
0 0
0 0
0 0
0 0
0 0
0 0
0 0
0 0
0 0
0 0
0 0
0 0
0 0
0 0
0 0
0 0
0 0
0 0
0 0
0 0
0 0
0 0
0 0
0 0
0 0
0 0
0 0
0 0
0 0
0 0
0 0
0 0
0 0
0 0
0 0
0 0
0 0
0 0
0 0
0 0
0 0
0 0
0 0
0 0
0 0
0 0
0 0
0 0
0 0
0 0
0 0
0 0
0 0
0 0
0 0
0 0
0 0
0 0
0 0
0 0
0 0
0 0
0 0
0 0
0 0
0 0
0 0
0 0
0 0
0 0
0 0
0 0
0 0
0 0
0 0
0 0
0 0
0 0
0 0
0 0
0 0
0 0
0 0
0 0
0 0
0 0
0 0
0 0
0 0
0 0
0 0
0 0
0 0
0 0
0 0
0 0
0 0
0 0
0 0
0 0
0 0
0 0
0 0
0 0
0 0
0 0
0 0
0 0
0 0
0 0
0 0
0 0
0 0
0 0
0 0
0 0
0 0
0 0
0 0
0 0
0 0
0 0
0 0
0 0
0 0
0 0
0 0
0 0
0 0
0 0
0 0
0 0
0 0
0 0
0 0
0 0
0 0
0 0
0 0
0 0
0 0
0 0
0 0
0 0
0 0
0 0
0 0
0 0
0 0
0 0
0 0
0 0
0 0
0 0
0 0
0 0
0 0
0 0
0 0
0 0
0 0
0 0
0 0
0 0
0 0
0 0
0 0
0 0
0 0
0 0
0 0
0 0
0 0
0 0
0 0
0 0
0 0
0 0
0 0
0 0
0 0
0 0
0 0
0 0
0 0
0 0
0 0
0 0
0 0
0 0
0 0
0 0
0 0
0 0
0 0
0 0
0 0
0 0
0 0
0 0
0 0
0 0
0 0
0 0
0 0
0 0
0 0
0 0
0 0
0 0
0 0
0 0
0 0
0 0
0 0
0 0
0 0
0 0
0 0
0 0
0 0
0 0
0 0
0 0
0 0
0 0
0 0
0 0
0 0
0 0
0 0
0 0
0 0
0 0
0 0
0 0
0 0
0 0
0 0
0 0
0 0
0 0
0 0
0 0
0 0
0 0
0 0
0 0
0 0
0 0
0 0
0 0
0 0
0 0
0 0
0 0
0 0
0 0
0 0
0 0
0 0
0 0
0 0
0 0
0 0
0 0
0 0
0 0
0 0
0 0
0 0
0 0
0 0
0 0
0 0
0 0
0 0
0 0
0 0
0 0
0 0
0 0
0 0
0 0
0 0
0 0
0 0
0 0
0 0
0 0
0 0
0 0
0 0
0 0
0 0
0 0
0 0
0 0
0 0
0 0
0 0
0 0
0 0
0 0
0 0
0 0
0 0
0 0
0 0
0 0
0 0
0 0
0 0
0 0
0 0
0 0
0 0
0 0
0 0
0 0
0 0
0 0
0 0
0 0
0 0
0 0
0 0
0 0
0 0
0 0
0 0
0 0
0 0
0 0
0 0
0 0
0 0
0 0
0 0
0 0
0 0
      </DataArray> 
      <DataArray type="Float64" NumberOfComponents="2" Name="CauchyNormalStress" format="ascii">
12.0196 7.15421
10.9213 5.78698
11.6681 1.18557
6.00961 -0.273558
4.06431 0.0488611
2.49908 -0.0194918
1.6106 -0.133449
1.01791 -0.13198
0.335786 -0.0601061
-0.157062 -0.00625824
-0.544094 -0.0642878
-0.779005 -0.088153
-1.11205 -0.0465599
-1.3278 -0.00219785
-1.47128 -0.0514214
-1.50495 -0.0635922
-1.61118 -0.0237717
-1.61684 0.00565237
-1.55307 -0.0475078
-1.37632 -0.0639607
-1.27257 -0.0236404
-1.06648 0.00387042
-0.771656 -0.0594817
-0.327656 -0.086352
0.0242772 -0.0314373
0.525136 0.0184198
1.1988 -0.0632998
2.29771 -0.266562
3.35827 -0.382875
5.03827 -0.18016
10.4817 0.511847
-1.04981 1.14024
-1.38469 1.34209
-1.25561 2.59733
3.66589 9.3782
-1.01574 -0.0373532
-0.253144 -0.134713
-0.0550434 -0.307159
-0.135176 -0.450996
-0.130082 -0.500929
-0.0348803 -0.760511
-0.0240348 -0.834783
-0.0210775 -0.919823
-0.0559702 -0.934765
-0.0886242 -1.01895
-0.100319 -0.857835
-0.111124 -0.930244
-0.142357 -0.900106
-0.191564 -0.911338
-0.239542 -0.827854
-0.282397 -0.814018
-0.321272 -0.673795
-0.390272 -0.707871
-0.00950799 -0.939007
-0.808742 -0.0589266
-0.958599 -0.0754838
-0.72796 -0.177951
-0.785452 -0.231326
-0.555341 -0.400283
-103.311 -269.763
-0.593323 -2.59452
-0.192491 -1.01876
-1.29011 -3.25672
-10.3372 -51.8992
-3.57711 -45.8608
0.0185845 -26.2291
-2.02736 -27.5874
-2.34414 -27.0898
-4.23814 -31.4513
22.9184 1.41121
-17.2781 -51.9769
-22.845 -62.1672
-31.4413 -93.1128
-10.4487 -51.5215
24.0177 0.668233
32.7954 13.4239
-25.9359 -9.76217
-93.9412 -258.603
-3.82055 -46.0416
0.0105385 -26.5127
-2.09642 -27.7405
-2.34504 -27.1684
-4.21975 -31.432
0.0224687 -1.18476
-0.575554 -2.55719
-0.290227 -1.02199
-1.6891 -2.90601
-1.09877 0.143182
-0.28544 -2.01348
-0.0535246 -1.13332
-0.27819 -1.4044
-0.308797 -0.814685
-0.378316 -0.717788
-0.770184 1.18568
-0.803682 -0.0186718
-0.932979 -0.123992
-0.693301 -0.14804
-0.776565 -0.273716
-0.60646 -0.272675
-0.599252 -0.399157
-0.486592 -0.458305
-0.465476 -0.550247
-0.400679 -0.659953
-0.332641 -0.672618
-0.291598 -0.817953
-0.202789 -0.775793
-0.15805 -0.938519
-0.0912601 -0.931851
-0.107601 -0.98525
-0.0874809 -0.89879
-0.0558023 -0.958181
-1.03247 1.90507
-0.381778 3.55044
3.98389 8.73266
-26.5892 -16.0848
-16.1357 -41.6472
-25.7465 -17.3778
-14.1044 -56.3938
-18.0204 -45.6452
-3.19681 -33.5587
-26.2814 -12.6911
6.95413 -37.1669
2.05609 -5.60839
1.43911 -5.64142
-4.7609 -57.8568
-5.02608 -59.5134
3.31837 -13.7886
1.29373 -6.56373
0.595214 -28.0787
0.68795 -24.5352
-0.412668 -28.2323
1.37229 -21.4431
0.838445 -24.9316
-2.52908 -23.7508
-0.338956 -23.8594
-0.7255 -25.8263
-3.40003 -25.5137
2.00194 -19.7853
2.58738 -18.8953
2.21463 -25.7411
-13.5553 -8.46595
-14.1159 -8.46858
-14.9887 -9.34219
1.23949 -29.8838
1.72387 -22.7608
-7.74285 -26.3782
-7.3996 -24.7932
-0.447232 -33.2869
-2.19957 -32.0987
-6.01819 -28.2697
-6.75973 -30.3285
-0.57999 -30.8751
-10.4115 -6.91372
-12.3877 -7.34827
-11.4979 -7.43986
1.08897 -19.068
1.50395 -20.0923
-11.5897 -11.9595
-7.64182 -18.0065
-1.7004 -20.6401
0.531928 -17.9612
0.365208 -19.21
-1.77886 -22.3
-8.14563 -19.2928
-12.3393 -12.4295
2.32784 -16.5605
3.21512 -22.9745
-19.2479 -14.382
-18.7466 -11.4591
-15.7541 -9.20771
-16.4831 -12.5897
4.05934 -23.7583
4.37497 -28.5951
3.52424 -27.6506
2.81024 -22.7993
2.78563 -17.821
2.45111 -15.8237
-20.1598 -16.4727
-11.558 -24.0144
-11.1619 -22.3847
-19.9604 -23.0354
3.19707 -35.3441
0.236134 -44.7533
-7.33228 -33.4189
-1.45908 -35.3325
3.86006 -32.5351
-9.36422 -6.75239
-10.7022 -6.86858
-10.6912 -6.59164
-10.9795 -6.808
-8.98162 -5.73002
-8.69802 -5.64069
-8.31965 -5.37921
-9.50797 -6.41175
1.44753 -16.2408
2.03189 -14.7365
2.16076 -14.3806
1.49637 -16.6985
-8.85034 -6.8174
-9.24703 -7.79077
-9.41936 -11.6705
-7.27282 -13.9069
-3.51609 -16.3426
-1.19667 -17.6449
-1.68024 -18.55
-4.08533 -17.3203
-7.87735 -14.8681
-9.72482 -12.0813
-9.79123 -7.47285
-9.17702 -6.55528
2.23883 -13.9464
3.56035 -18.158
-25.5153 -20.6989
-21.1769 -12.0071
-22.9856 -14.604
5.23807 -23.9054
5.23768 -26.884
3.28366 -17.9336
2.16837 -12.6535
-20.3252 -26.049
-20.3742 -33.6032
5.58237 -38.3564
-9.66139 -39.8123
-20.7174 -41.4363
-7.81705 -34.6291
1.84485 -39.518
-6.57073 -4.71911
-7.49535 -5.23176
-7.61279 -5.17107
-6.659 -4.59193
-6.21532 -4.4786
-6.23729 -4.40953
1.71724 -13.4519
1.44273 -13.2373
-6.4853 -5.82755
-4.84258 -9.68731
-0.506961 -13.6836
-1.23354 -14.2646
-5.28912 -9.90546
-6.481 -5.3921
1.49883 -8.77696
1.85668 -10.1424
2.21481 -12.0936
2.63456 -12.3551
3.69464 -13.5431
4.81605 -17.7157
-21.9613 -32.7478
-27.0408 -12.856
-24.5054 -22.5673
5.82797 -22.4418
5.94759 -23.789
4.88074 -19.6053
3.75306 -15.9564
2.9012 -13.6147
1.92791 -10.5411
1.38902 -7.79378
-24.2317 -35.843
-24.339 -47.2869
6.62921 -28.4499
6.05303 -51.7227
-23.1764 -54.8619
6.88242 -38.5239
6.45922 -26.7618
-13.3642 -44.7874
3.78733 -47.0302
-3.43363 -3.30026
-3.74571 -3.18973
-4.66969 -3.79664
-4.02662 -3.77908
-5.41789 -3.86962
-5.03242 -3.9131
-5.15305 -3.56734
-5.15405 -3.65147
-4.16722 -3.17208
-4.43489 -3.16094
-3.92849 -3.46955
-4.47696 -3.41942
-3.22851 -2.96485
-3.58604 -3.2087
1.52955 -12.0217
1.68876 -11.6713
1.78193 -10.1928
1.30088 -7.62108
1.7923 -9.85206
1.57825 -12.0407
0.734044 -12.8653
-4.40216 -4.16158
-3.43842 -5.53963
-1.46051 -8.53714
0.255007 -10.3284
-0.950141 -11.266
-2.14317 -8.86024
-3.97475 -5.38463
-4.07867 -3.58955
0.574709 -4.08983
1.21276 -7.01225
1.63765 -7.82925
2.43121 -9.4531
3.36773 -11.3727
0.625234 -74.145
-20.8578 -11.2234
-12.5701 -1.53106
-21.4044 -8.65129
-2.77056 -67.8099
5.08048 -17.6738
4.89099 -16.8992
3.39264 -12.368
2.04861 -9.93689
0.693339 -4.71863
1.17012 -95.4389
-7.54505 -73.0216
0.737768 -92.1816
-3.36943 -78.2157
5.25142 -29.9395
-13.4402 -76.0356
-43.8144 -88.9143
5.09698 -24.6958
-41.9565 -78.1774
-3.56312 -60.3082
-0.495082 -1.87605
-1.63142 -2.45514
-2.88079 -2.45109
-3.28443 -2.2855
-3.01438 -2.15347
-2.08523 -2.19975
-0.553886 -2.01116
2.48664 -8.30794
0.953797 -5.36102
1.30205 -5.96166
1.74347 -9.08006
-0.308725 -2.43675
2.6405 -6.6413
3.8251 -5.73595
2.9432 -7.0863
1.00892 -7.34252
-0.422098 -2.26991
0.582003 -2.578
0.562543 -3.33158
0.140129 -1.85511
0.385081 -3.05615
0.360984 -3.04823
0.709444 -4.60642
0.611974 -3.92538
0.920176 -4.88783
0.971057 -4.83217
1.10882 -5.04388
0.931418 -4.43457
-18.8071 -31.6111
-9.91152 -3.20068
-8.94775 -2.86173
-19.379 -22.2603
1.94416 -6.89993
2.42209 -8.27429
2.59055 -9.24972
1.78874 -7.82909
2.24171 -12.7682
2.10014 -11.5183
1.88545 -8.17833
2.35466 -8.57336
2.38532 -8.18974
1.85086 -6.71824
1.84963 -6.84033
1.39437 -5.80885
0.827383 -4.33058
0.994359 -5.14176
0.268025 -2.80242
0.3762 -2.84454
0.341394 -2.90932
0.24466 -2.45618
1.02792 -51.5886
1.21761 -68.778
-1.17287 -91.6539
0.843331 -50.1555
0.765219 -87.8355
0.50489 -66.1491
0.765026 -15.3962
-2.69727 -13.9793
-1.9581 -107.171
1.37446 -15.0875
2.84085 -72.3643
-0.754763 -19.5285
1.96795 -1.02736
4.42884 1.30118
2.42059 -1.40932
0.322803 -1.24168
1.02439 -1.23061
-0.57029 -1.31187
-1.48441 -1.26547
-1.09852 -1.23919
-1.92565 -1.23174
-2.30054 -1.20954
-2.15095 -1.17896
-2.28774 -1.10202
-2.23299 -1.10981
-2.30342 -1.07084
-1.95048 -1.08859
-1.39796 -1.12424
-1.73309 -1.06762
-0.756419 -1.1462
0.640342 -1.2528
-0.228164 -1.11517
1.74099 -0.815583
4.87673 0.90579
2.28847 -0.916271
0.144184 -1.53946
0.14635 -1.75313
0.309836 -2.30865
0.264755 -2.2224
1.40357 -5.27838
2.86958 -1.83044
1.6955 -5.21894
2.65599 -6.16633
2.26244 -2.48572
4.83533 -0.164092
3.04111 -3.48733
2.20547 -4.15256
4.29648 -0.115374
0.206146 -1.19152
0.177851 -1.09056
0.240827 0.107814
0.40766 -0.707655
0.321286 -0.77957
0.145129 -0.123564
1.93077 0.944016
9.2366 3.64454
2.33605 1.00867
2.14321 -0.123999
2.36507 -0.355865
7.28196 1.12152
4.42355 -3.77523
5.53511 -1.47164
0.784985 -1.84103
0.959657 -1.94171
-0.413883 -4.35131
0.34779 -4.45674
2.06184 -8.34099
1.79939 -8.07905
0.59461 -4.11189
0.312234 -2.74696
-0.359783 -1.31839
-1.24574 -2.23548
-2.56711 -2.14338
-3.1353 -2.15372
-3.15063 -2.37703
-2.28248 -2.479
-0.669325 -2.38494
-1.55948 -1.41598
5.05998 -34.7693
3.59192 -44.8073
6.22769 -75.9144
6.7405 -78.2636
0.794014 -4.90113
2.34359 -9.67224
4.23189 -14.1605
4.2747 -16.5504
5.28486 -21.1313
4.31315 -14.3955
-20.0436 -23.547
-17.8325 -31.8493
2.44374 -8.75345
2.06931 -8.96135
1.62671 -8.44556
0.870162 -5.35839
1.40302 -9.93185
2.84743 -8.80491
-24.3043 -55.1784
-26.0687 -65.7425
-23.7876 -7.49387
-7.21403 -6.72844
-3.56644 -12.8605
-2.84183 -12.1989
-7.04875 -7.16044
0.67554 -15.6283
1.86692 -11.0626
1.99905 -12.0526
1.13579 -15.0817
-5.88781 -4.34376
-6.57145 -4.63263
-5.87586 -4.20336
-7.29493 -4.94887
-7.84756 -5.33214
-7.14333 -5.08217
-6.08101 -4.58863
-4.16734 -38.0411
5.94723 -34.6829
3.98998 -49.2206
5.73899 -30.0514
-24.7004 -30.8667
-25.8574 -21.8119
2.56411 -14.1453
4.21754 -22.0107
-17.5354 -10.32
-24.5761 -15.9999
4.40022 -18.7141
2.68794 -15.7301
-11.2857 -31.0903
-11.0309 -29.1517
-12.4308 -8.40498
-12.1603 -16.9278
-4.33026 -21.711
-3.87684 -20.381
-11.6362 -15.7056
-11.561 -8.70686
2.32203 -17.6562
1.89195 -17.4126
-10.7095 -6.56532
-14.0569 -8.18907
1.12962 -32.6112
-3.33125 -37.4326
1.39744 -27.166
2.16417 -29.3171
0.542968 -22.6781
0.313541 -20.7991
-2.23737 -29.1979
-1.04532 -26.9754
2.37376 -22.1312
2.78964 -111.684
-2.05088 -1.48831
-12.0842 -26.5314
-4.8117 -24.0712
-3.61718 -3.18587
4.56856 -49.0316
-1.52434 -2.0508
-19.1661 -150.97
-12.8415 -47.2367
-2.27364 -2.73818
-6.70704 -27.0145
1.95573 -69.886
-0.142148 -77.6303
-10.8965 -77.482
-9.78851 -63.1632
-6.35538 -122.603
-6.12838 -33.3673
-10.0075 -36.7113
-6.81522 -53.9557
3.11379 -70.6821
2.69112 -77.8549
0.629119 -57.0666
-3.67868 -49.5687
-2.79002 -42.4242
-13.5549 -40.2663
-17.6807 -50.0232
-0.886517 -38.7274
2.523 -64.0029
-0.154684 -81.2571
-8.94073 -65.346
-10.9568 -81.8366
-6.55851 -55.4014
-6.15222 -33.4047
-9.98735 -36.8174
-10.6709 -135.36
2.20195 -80.0716
3.59503 -73.3911
1.01549 -58.9811
-2.72404 -43.2329
-3.44733 -50.8313
-0.805567 -39.4879
-13.593 -40.5596
-17.6705 -50.9104
2.88156 -66.135
-12.3118 -8.42743
1.46866 -4.62593
7.31571 2.33156
5.71381 -0.574369
-67.0857 -129.795
-31.9052 -94.4547
-49.3654 -73.1572
-19.257 -24.3974
-13.9798 -11.2212
-13.2865 -10.3308
5.85715 1.35695
0.398647 -4.70239
-49.226 -82.2203
-66.1235 -131.729
-26.5695 -10.9097
5.52706 -0.875089
-13.6958 -14.4469
-18.3174 -33.0171
-21.3012 -67.7035
-19.1023 -95.8897
1.25007 -73.0356
-68.2841 -109.273
5.84619 -53.2131
-23.0242 -53.1126
-30.5896 -64.8034
-39.1127 -81.9862
-8.47782 -95.1521
-47.6495 -108.347
3.38997 -70.383
-68.646 -114.298
-34.7485 -75.9703
-30.9795 -67.4458
-19.8635 -86.4245
-18.5736 -106.803
-3.03022 -84.5161
1.41992 -78.9384
-14.4335 -72.536
-22.0091 -75.7837
-5.96561 -83.0824
-26.8108 -96.3203
0.0836299 -77.7101
-16.4507 -63.5141
2.64457 -82.1743
-11.2608 -53.2529
-5.47096 -62.6092
-13.3978 -47.0634
-20.5136 -129.917
4.89048 -84.1396
1.51288 -74.2057
-17.2933 -4.66014
-9.82852 -2.20318
-15.8205 -7.45678
4.46982 -1.10992
-20.3221 -15.1334
-22.2234 -7.79969
-18.7494 -5.24567
-17.031 -5.97507
-16.2643 -9.39956
-10.3385 -2.52271
-19.2963 -19.7419
-21.9504 -8.98382
3.35213 -84.5221
-4.12595 -67.7499
-7.82349 -61.4574
-19.4219 -126.524
-9.9737 -55.2733
2.78435 -75.7547
4.35651 -81.9603
-21.2628 -46.9615
-12.7643 -54.6337
-4.01685 -48.0615
-8.69221 -41.471
-26.074 -60.1421
-13.829 -62.1064
-0.301649 -62.5859
-2.97123 -54.3651
-23.1325 -48.2229
-17.2211 -43.0472
-12.0199 -37.7922
-15.9975 -36.2149
-20.0344 -33.7555
-22.5369 -31.117
-23.1694 -38.9587
-23.1821 -23.793
-24.7962 -29.0527
-23.6019 -44.9833
-16.0633 -28.6307
-22.784 -32.3763
-22.5836 -27.1359
-19.8527 -28.2753
-15.6861 -26.0121
-15.9401 -19.6882
-15.7301 -31.4952
-23.0499 -19.5145
-20.0563 -21.1633
-16.3556 -21.7674
-16.2965 -16.4506
-24.4189 -18.0863
-21.5054 -15.4123
-18.8449 -13.3283
-20.3001 -12.6454
-21.6056 -13.8726
-22.7943 -13.7538
-19.9187 -11.6459
-17.6639 -10.2175
-19.3172 -11.0913
-16.4598 -9.73815
-19.4337 -18.5102
-22.8159 -21.7451
-22.5446 -17.9627
-24.9364 -25.5949
-24.9926 -18.1165
-21.8439 -15.0531
-15.5327 -14.7486
-18.85 -12.7803
-16.2144 -10.0238
-12.5186 -8.4973
-13.6908 -8.32134
-16.4425 -11.3349
-15.5619 -11.8945
-15.2481 -61.9798
-3.93557 -77.5668
-14.5865 -79.0763
1.96655 -70.8739
-22.8473 -61.9389
-17.2213 -51.8119
-8.16862 -53.6635
0.409737 -39.6211
-1.67943 -56.9034
-2.58222 -41.5186
-21.1989 -57.3438
-28.356 -45.6247
-2.43265 -40.6463
-1.66931 -55.3646
0.325733 -38.8652
1.74996 -68.6004
-21.5271 -55.4124
-27.6625 -46.7295
-7.88928 -53.1241
-14.6165 -77.5961
-3.81341 -75.3039
-15.0012 -61.1166
32.0451 16.0159
24.0703 1.17244
-25.218 -17.3759
-24.0751 -11.3646
-22.8181 -15.0518
-25.0217 -9.63598
-21.9378 -23.2901
-25.3007 -22.326
-26.1366 -17.2212
-21.5794 -34.5047
-21.0961 -39.884
-24.3621 -29.6887
-21.054 -50.7379
-18.8039 -35.8733
-4.4958 -69.4606
-13.6642 -58.8104
-10.0932 -55.1715
-6.29524 -64.0092
-10.1758 -67.1416
-1.06375 -74.5871
-19.1883 -60.857
-15.2848 -45.8151
-22.8087 -40.7821
-19.0798 -51.0403
-18.4339 -45.4924
-25.0913 -55.9512
-19.5017 -32.8444
-23.3439 -31.8134
-23.8692 -39.4786
-25.7588 -19.5688
-26.2408 -14.6838
-26.2883 -16.4192
-24.8977 -12.0173
-25.7481 -10.9208
-26.1356 -15.0208
-25.0978 -23.9082
-21.2664 -21.0177
-23.5966 -15.3233
-23.8746 -24.3659
-20.7971 -44.4789
-18.861 -48.2774
-24.7477 -51.2444
-9.25513 -49.4672
-22.3343 -40.3144
-18.4581 -37.5672
-13.2586 -35.2462
-24.1173 -14.3269
-24.8606 -15.4401
-22.0275 -13.3682
-26.015 -18.8756
-25.606 -15.8245
-26.4913 -12.4735
-26.4973 -14.7177
-26.6897 -14.0126
-6.25018 -14.3472
-3.86568 -18.9976
-3.63432 -9.63776
-1.68899 -39.1102
-0.317364 -29.2
-2.31022 -8.16242
-3.46194 -2.39923
-5.37947 -1.71849
-8.66486 -15.148
-6.36808 -64.7729
-3.32405 -49.8128
-8.53115 -34.7742
3.3877 -54.5719
-13.0317 -24.2519
-6.5984 -73.9914
1.81227 -83.0997
-34.4666 -201.905
-39.2893 -47.8073
-23.1482 -88.2005
-4.1152 -99.3055
-20.951 -93.6525
-54.4628 -176.185
-39.2465 -45.4792
-42.3553 -211.702
-22.9448 -96.0896
-21.543 -102.387
-5.92062 -104.906
-52.4529 -189.956
-41.809 -101.039
-31.141 -120.609
-11.8984 -110.352
-94.2925 -170.032
-40.2544 -167.843
1.51714 -84.3562
-6.04892 -90.048
-33.3804 -85.0014
-50.3845 -92.4632
3.06361 -62.5779
4.74708 -52.4323
4.14781 -61.232
5.06007 -40.5018
5.30917 -44.7788
1.76163 -57.3574
-2.1823 -67.1294
1.08858 -75.8182
3.98274 -57.5351
-22.3895 -59.7899
-27.4176 -58.9771
-27.4848 -65.9843
-24.3748 -54.4724
-27.1694 -60.0567
-34.3438 -71.7012
-33.1489 -73.0532
-11.5033 -64.4089
-16.3258 -61.0606
-1.07855 -80.5297
1.66195 -72.2208
-1.80841 -84.0207
3.5577 -58.668
-6.73966 -104.876
-11.9956 -85.6186
-3.87948 -73.8613
-35.7296 -130.986
-54.731 -135.463
-64.9025 -110.044
-74.6258 -207.341
-95.7448 -178.631
-49.3786 -101.26
-50.8282 -96.4353
-22.4437 -113.702
-9.33219 -128.478
-39.5557 -78.9157
-35.2519 -71.7953
-32.8787 -74.0462
-28.6464 -70.185
-30.4172 -66.8402
-22.8162 -71.4421
-26.174 -79.5385
-45.5469 -85.9562
-36.9106 -82.2087
-36.9536 -111.996
-32.4819 -121.689
-15.6781 -118.318
-7.89714 -98.8597
-31.5655 -98.0091
-31.2608 -87.9884
-27.4996 -81.3475
-24.2916 -75.8706
-9.76033 -80.5769
-22.1678 -114.66
-41.8112 -121.574
-46.4794 -100.039
-36.5953 -87.0215
-13.26 -98.0273
-32.4775 -77.846
-27.0921 -70.3724
-14.3281 -73.5028
-23.5543 -65.2281
-8.49062 -57.1492
-4.05778 -54.1172
-8.55784 -51.3089
-8.74413 -46.474
-4.1943 -43.072
-13.0699 -49.7879
0.518257 -67.1892
3.07405 -57.8285
5.14117 -59.6224
2.192 -55.1779
4.61388 -50.8429
4.73512 -49.221
-5.92595 -68.8034
-7.99842 -58.3211
-2.09594 -58.6198
-6.66317 -62.547
0.698368 -52.1059
-13.7541 -68.7528
-19.4554 -58.3148
-10.9758 -55.4162
-1.02973 -49.2507
-6.43959 -51.8488
-13.2435 -45.7001
-16.1396 -52.502
1.71668 -47.1471
-4.41141 -47.4092
-5.8945 -43.1812
-1.93719 -41.1317
0.149276 -47.6067
2.44426 -43.4341
-0.90439 -43.6004
5.09114 -40.2655
4.08387 -37.2571
-1.07658 -38.7937
0.684411 -53.119
0.0786452 -37.8323
-2.58718 -21.6951
1.20536 -34.8296
-3.68253 -12.2027
-1.5619 -10.2229
2.25251 -27.6915
-2.50811 -48.5146
-7.26022 -12.2517
-4.32701 -11.3739
-8.13545 -25.7225
-3.56233 -0.682588
-4.51512 -50.2542
-10.3813 -12.0592
-6.24759 -3.91829
-13.6864 -39.0846
-21.4673 -17.6702
-8.36372 -65.3795
-6.08802 0.193637
-9.45151 -1.7445
0.315849 -17.4103
-0.680105 -10.1668
0.413082 -7.88734
-23.2229 19.7179
-50.1498 -80.7433
0.587232 -8.0814
2.9291 -25.1701
-19.2778 -43.4086
-8.63639 -84.563
-25.685 -29.0946
-7.75587 0.430809
-12.4345 6.04056
-1.46749 -15.7136
0.10025 -7.93742
-1.14463 -7.67317
0.43468 -8.19362
-21.6104 40.5332
-50.4493 -68.2324
2.23132 -28.6587
0.88412 -4.79635
0.247554 -2.45932
0.32593 -2.86208
0.202852 -2.41091
-0.0146438 -0.839342
-0.0764006 -0.722877
0.387163 -2.92484
1.63323 -7.41823
1.60153 -6.93085
1.104 -5.06048
0.433318 -3.03238
0.107029 -2.35049
0.325108 -2.97572
-0.137988 -0.48834
-0.105872 -0.543076
1.87133 -7.76275
1.85148 -6.78617
0.534231 -3.35789
0.483771 -3.37907
0.357764 -3.28222
-0.0295244 -0.374089
-0.147187 -0.167208
0.592573 -3.45056
3.01645 -10.5372
3.10552 -10.1734
2.09295 -7.61108
0.736101 -3.98974
0.575721 -3.36385
0.863486 -4.10499
-0.561875 -0.526645
-0.569634 -0.422362
3.2787 -11.3509
2.1562 -8.42581
0.615645 -4.299
0.922556 -4.41212
0.779456 -4.40488
-0.783723 -0.275063
-0.735139 -0.237205
0.773711 -4.30434
3.36964 -12.335
2.99521 -12.4256
1.98445 -9.98994
0.927629 -6.29696
0.894444 -4.52173
0.998742 -6.14557
-0.945147 -0.12511
-0.812223 -0.10772
3.26485 -14.1189
1.9799 -10.4858
0.817515 -4.28676
1.02983 -6.89397
0.733572 -4.25907
-0.553917 -0.546512
-0.375687 -0.702088
1.03818 -6.58161
3.81733 -16.9536
3.47031 -14.3912
2.22339 -8.6104
1.05271 -4.77428
0.576004 -4.15599
0.872631 -4.63924
-0.300957 -0.809167
-0.290685 -1.39919
3.93967 -14.8274
2.159 -7.67053
0.582632 -3.42965
0.740738 -4.07063
0.504675 -3.37805
-0.0498918 -1.04562
-0.36971 -1.97456
0.883227 -4.16664
3.37051 -11.4068
3.18804 -10.4568
0.994636 -4.80899
0.257428 -2.65607
0.194826 -2.33146
0.351142 -2.72051
-0.441947 -0.602226
-0.499932 -0.573136
0.0700573 -2.29743
1.72147 -6.46654
1.75713 -6.93913
0.928744 -4.91737
0.292067 -2.74732
0.322178 -2.68192
0.339726 -2.79573
-0.588026 -0.388264
-0.638021 -0.341224
0.271888 -2.64734
1.55376 -6.81098
1.48371 -6.927
-0.827382 -0.186025
0.188615 -2.34498
0.229085 -2.41938
0.23656 -2.44817
1.13215 -6.08353
-0.70811 -0.15224
-20.9269 -80.3694
-6.37935 -82.3983
-9.26587 -71.0592
3.46677 -18.1985
3.3564 -20.0752
1.71584 -13.5133
5.18244 -29.1446
4.75008 -20.3384
-23.517 -88.0781
-25.3876 -101.504
-41.6253 -92.9174
3.67587 -21.1439
1.3614 -14.7951
3.08966 -22.2277
4.38557 -36.9291
5.23824 -25.6476
-19.2789 -97.7422
-8.68451 -90.1022
-22.87 -86.121
-12.4436 -86.1402
2.17389 -9.88131
1.56429 -7.43957
0.877673 -5.12542
1.39027 -7.39954
2.63132 -9.55009
1.62535 -6.32161
2.3927 -9.09626
2.85925 -11.0726
3.77375 -13.3513
3.55417 -12.8697
2.36447 -8.48467
3.72954 -12.2573
4.50422 -15.7191
4.5722 -16.8837
3.8172 -12.7101
2.49109 -8.89876
3.83097 -13.5705
5.14139 -19.6954
4.61035 -16.1751
1.67963 -7.17664
1.01953 -5.03057
1.81701 -7.12885
2.42788 -9.1964
2.23775 -9.27619
1.11642 -5.87144
0.746064 -4.46306
1.3029 -6.29838
1.83575 -8.4216
1.61959 -8.18915
-17.8149 -54.0952
-18.2234 -48.9759
6.84393 -32.0273
5.87665 -32.0611
5.74212 -26.0422
5.84037 -37.2897
5.27237 -21.8974
6.26695 -31.0625
6.11765 -36.981
-22.6495 -65.1666
-25.7486 -60.5172
2.63524 -11.5827
2.45789 -11.8196
2.3453 -11.9979
2.74987 -13.9335
4.24147 -17.7729
4.16582 -15.9186
3.56702 -14.1936
4.58354 -16.9716
3.05997 -12.8012
4.03657 -18.8854
4.55773 -20.88
6.09294 -25.5382
5.75821 -21.4195
5.42781 -20.5972
5.18504 -18.691
6.09664 -28.8535
6.17756 -25.5501
5.46964 -20.0707
5.92899 -22.8115
5.13646 -18.2353
6.04305 -24.8948
6.18886 -29.2833
5.77769 -26.1812
4.20831 -15.6888
3.53023 -12.5045
4.14714 -14.4077
3.11559 -11.03
2.86095 -10.1
3.78635 -12.973
4.57342 -16.1029
4.60987 -18.2404
4.08068 -16.0293
2.3674 -10.5971
2.12899 -10.0979
2.10089 -10.4681
2.67567 -13.998
6.63073 -44.7791
5.49149 -43.2433
4.24909 -50.7112
3.53738 -16.9869
3.29797 -14.8031
3.12332 -15.7241
2.89353 -16.0667
3.67287 -20.0002
5.62835 -25.3991
5.3086 -21.7477
5.1293 -23.0712
4.62936 -24.4806
5.49587 -30.7796
5.05115 -20.7166
5.2628 -20.1674
5.53955 -23.1884
5.48111 -26.9695
4.79474 -21.3525
4.73066 -33.7526
2.98319 -35.8858
1.2954 -36.1124
2.6027 -32.6258
1.9544 -39.7641
4.17967 -36.9611
2.98676 -41.8763
4.44829 -32.8238
5.70388 -34.0503
4.98477 -43.4508
0.0509464 -36.6142
3.5335 -22.45
3.09028 -20.2899
2.45076 -20.2695
2.169 -24.9123
3.63674 -30.171
4.51966 -29.6546
4.3967 -27.3145
3.92116 -24.7319
2.3741 -30.0832
4.18077 -26.2244
4.65111 -23.8573
4.77207 -26.2438
4.24692 -21.1855
4.99799 -29.3658
3.34833 -29.0167
3.13743 -26.4926
3.96647 -18.4584
3.81908 -20.9747
3.01554 -20.1348
3.0593 -16.9663
3.83792 -31.8129
2.51397 -32.4527
3.06352 -25.2634
2.50577 -27.4155
3.50215 -13.7218
2.91309 -11.5156
3.02836 -11.5629
2.67902 -11.4209
3.83963 -16.2988
3.11868 -15.2837
2.95761 -13.1134
3.46228 -15.9012
2.44636 -8.37052
1.67605 -6.31567
2.65624 -9.20035
0.302135 -2.80614
1.92956 -7.2489
0.0651285 -2.25262
0.295877 -2.79779
1.17892 -5.04345
-0.95781 -0.11654
-0.798557 -0.0556708
6.54634 -43.8403
6.18036 -33.7354
5.55007 -41.3195
6.09768 -29.1251
5.54322 -43.6216
6.05427 -33.4966
6.72468 -32.7903
6.18969 -37.9098
0 0
0 0
0 0
0 0
0 0
0 0
0 0
0 0
0 0
0 0
0 0
0 0
0 0
0 0
0 0
0 0
0 0
0 0
0 0
0 0
0 0
0 0
0 0
0 0
0 0
0 0
0 0
0 0
0 0
0 0
0 0
0 0
0 0
0 0
0 0
0 0
0 0
0 0
0 0
0 0
0 0
0 0
0 0
0 0
0 0
0 0
0 0
0 0
0 0
0 0
0 0
0 0
0 0
0 0
0 0
0 0
0 0
0 0
0 0
0 0
0 0
0 0
0 0
0 0
0 0
0 0
0 0
0 0
0 0
0 0
0 0
0 0
0 0
0 0
0 0
0 0
0 0
0 0
0 0
0 0
0 0
0 0
0 0
0 0
0 0
0 0
0 0
0 0
0 0
0 0
0 0
0 0
0 0
0 0
0 0
0 0
0 0
0 0
0 0
0 0
0 0
0 0
0 0
0 0
0 0
0 0
0 0
0 0
0 0
0 0
0 0
0 0
0 0
0 0
0 0
0 0
0 0
0 0
0 0
0 0
0 0
0 0
0 0
0 0
0 0
0 0
0 0
0 0
0 0
0 0
0 0
0 0
0 0
0 0
0 0
0 0
0 0
0 0
0 0
0 0
0 0
0 0
0 0
0 0
0 0
0 0
0 0
0 0
0 0
0 0
0 0
0 0
0 0
0 0
0 0
0 0
0 0
0 0
0 0
0 0
0 0
0 0
0 0
0 0
0 0
0 0
0 0
0 0
0 0
0 0
0 0
0 0
0 0
0 0
0 0
0 0
0 0
0 0
0 0
0 0
0 0
0 0
0 0
0 0
0 0
0 0
0 0
0 0
0 0
0 0
0 0
0 0
0 0
0 0
0 0
0 0
0 0
0 0
0 0
0 0
0 0
0 0
0 0
0 0
0 0
0 0
0 0
0 0
0 0
0 0
0 0
0 0
0 0
0 0
0 0
0 0
0 0
0 0
0 0
0 0
0 0
0 0
0 0
0 0
0 0
0 0
0 0
0 0
0 0
0 0
0 0
0 0
0 0
0 0
0 0
0 0
0 0
0 0
0 0
0 0
0 0
0 0
0 0
0 0
0 0
0 0
0 0
0 0
0 0
0 0
0 0
0 0
0 0
0 0
0 0
0 0
0 0
0 0
0 0
0 0
0 0
0 0
0 0
0 0
0 0
0 0
0 0
0 0
0 0
0 0
0 0
0 0
0 0
0 0
0 0
0 0
0 0
0 0
0 0
0 0
0 0
0 0
0 0
0 0
0 0
0 0
0 0
0 0
0 0
0 0
0 0
0 0
0 0
0 0
0 0
0 0
0 0
0 0
0 0
0 0
0 0
0 0
0 0
0 0
0 0
0 0
0 0
0 0
0 0
0 0
0 0
0 0
0 0
0 0
0 0
0 0
0 0
0 0
0 0
0 0
0 0
0 0
0 0
0 0
0 0
0 0
0 0
0 0
0 0
0 0
0 0
0 0
0 0
0 0
0 0
0 0
0 0
0 0
0 0
0 0
0 0
0 0
0 0
0 0
0 0
0 0
0 0
0 0
0 0
0 0
0 0
0 0
0 0
0 0
0 0
0 0
0 0
0 0
0 0
0 0
0 0
0 0
0 0
0 0
0 0
0 0
0 0
0 0
0 0
0 0
0 0
0 0
0 0
0 0
0 0
0 0
0 0
0 0
0 0
0 0
0 0
0 0
0 0
0 0
0 0
0 0
0 0
0 0
0 0
0 0
0 0
0 0
0 0
0 0
0 0
0 0
0 0
0 0
0 0
0 0
0 0
0 0
0 0
0 0
0 0
0 0
0 0
0 0
0 0
0 0
0 0
0 0
0 0
0 0
0 0
0 0
0 0
0 0
0 0
0 0
0 0
0 0
0 0
0 0
0 0
0 0
0 0
0 0
0 0
0 0
0 0
0 0
0 0
0 0
0 0
0 0
0 0
0 0
0 0
0 0
0 0
0 0
0 0
0 0
0 0
0 0
0 0
0 0
0 0
0 0
0 0
0 0
0 0
0 0
0 0
0 0
0 0
0 0
0 0
0 0
0 0
0 0
0 0
0 0
0 0
0 0
0 0
0 0
0 0
0 0
0 0
0 0
0 0
0 0
0 0
0 0
0 0
0 0
0 0
0 0
0 0
0 0
0 0
0 0
0 0
0 0
0 0
0 0
0 0
0 0
0 0
0 0
0 0
0 0
0 0
0 0
0 0
0 0
0 0
0 0
0 0
0 0
0 0
0 0
0 0
0 0
0 0
0 0
0 0
0 0
0 0
0 0
0 0
0 0
0 0
0 0
0 0
0 0
0 0
0 0
0 0
0 0
0 0
0 0
0 0
0 0
0 0
0 0
0 0
0 0
0 0
0 0
0 0
0 0
0 0
0 0
0 0
0 0
0 0
0 0
0 0
0 0
0 0
0 0
0 0
0 0
0 0
0 0
0 0
0 0
0 0
0 0
0 0
0 0
0 0
0 0
0 0
0 0
0 0
0 0
0 0
0 0
0 0
0 0
0 0
0 0
0 0
0 0
0 0
0 0
0 0
0 0
0 0
0 0
0 0
0 0
0 0
0 0
0 0
0 0
0 0
0 0
0 0
0 0
0 0
0 0
0 0
0 0
0 0
0 0
0 0
0 0
0 0
0 0
0 0
0 0
0 0
0 0
0 0
0 0
0 0
0 0
0 0
0 0
0 0
0 0
0 0
0 0
0 0
0 0
0 0
0 0
0 0
0 0
0 0
0 0
0 0
0 0
0 0
0 0
0 0
0 0
0 0
0 0
0 0
0 0
0 0
0 0
0 0
0 0
0 0
0 0
0 0
0 0
0 0
0 0
0 0
0 0
0 0
0 0
0 0
0 0
0 0
0 0
0 0
0 0
0 0
0 0
0 0
0 0
0 0
0 0
0 0
0 0
0 0
0 0
0 0
0 0
0 0
0 0
0 0
0 0
0 0
0 0
0 0
0 0
0 0
0 0
0 0
0 0
0 0
0 0
0 0
0 0
0 0
0 0
0 0
0 0
0 0
0 0
0 0
0 0
0 0
0 0
0 0
0 0
0 0
0 0
0 0
0 0
0 0
0 0
0 0
0 0
0 0
0 0
0 0
0 0
0 0
0 0
0 0
0 0
0 0
0 0
0 0
0 0
0 0
0 0
0 0
0 0
0 0
0 0
0 0
0 0
0 0
0 0
0 0
0 0
0 0
0 0
0 0
0 0
0 0
0 0
0 0
0 0
0 0
0 0
0 0
0 0
0 0
0 0
0 0
0 0
0 0
0 0
0 0
0 0
0 0
0 0
0 0
0 0
0 0
0 0
0 0
0 0
0 0
0 0
0 0
0 0
0 0
0 0
0 0
0 0
0 0
0 0
0 0
0 0
0 0
0 0
0 0
0 0
0 0
0 0
0 0
0 0
0 0
0 0
0 0
0 0
0 0
0 0
0 0
0 0
0 0
0 0
0 0
0 0
0 0
0 0
0 0
0 0
0 0
0 0
0 0
0 0
0 0
0 0
0 0
0 0
0 0
0 0
0 0
0 0
0 0
0 0
0 0
0 0
0 0
0 0
0 0
0 0
0 0
0 0
0 0
0 0
0 0
0 0
0 0
0 0
0 0
0 0
0 0
0 0
0 0
0 0
0 0
0 0
0 0
0 0
0 0
0 0
0 0
0 0
0 0
0 0
0 0
0 0
0 0
0 0
0 0
0 0
0 0
0 0
0 0
0 0
0 0
0 0
0 0
0 0
0 0
0 0
0 0
0 0
0 0
0 0
0 0
0 0
0 0
0 0
0 0
0 0
0 0
0 0
0 0
0 0
0 0
0 0
0 0
0 0
0 0
0 0
0 0
0 0
0 0
0 0
0 0
0 0
0 0
0 0
0 0
0 0
0 0
0 0
0 0
0 0
0 0
0 0
0 0
0 0
0 0
0 0
0 0
0 0
0 0
0 0
0 0
0 0
0 0
0 0
0 0
0 0
0 0
0 0
0 0
0 0
0 0
0 0
0 0
0 0
0 0
0 0
0 0
0 0
0 0
0 0
0 0
0 0
0 0
0 0
0 0
0 0
0 0
0 0
0 0
0 0
0 0
0 0
0 0
0 0
0 0
0 0
0 0
0 0
0 0
0 0
0 0
0 0
0 0
0 0
0 0
0 0
0 0
0 0
0 0
0 0
0 0
0 0
0 0
0 0
0 0
0 0
0 0
0 0
0 0
0 0
0 0
0 0
0 0
0 0
0 0
0 0
0 0
0 0
0 0
0 0
0 0
0 0
0 0
0 0
0 0
0 0
0 0
0 0
0 0
0 0
0 0
0 0
0 0
0 0
0 0
0 0
0 0
0 0
0 0
0 0
0 0
0 0
0 0
0 0
0 0
0 0
0 0
0 0
0 0
0 0
0 0
0 0
0 0
0 0
0 0
0 0
0 0
0 0
0 0
0 0
0 0
0 0
0 0
0 0
0 0
0 0
0 0
0 0
0 0
0 0
0 0
0 0
0 0
0 0
0 0
0 0
0 0
0 0
0 0
0 0
0 0
0 0
0 0
0 0
0 0
0 0
0 0
0 0
0 0
0 0
0 0
0 0
0 0
0 0
0 0
0 0
0 0
0 0
0 0
0 0
0 0
0 0
0 0
0 0
0 0
0 0
0 0
0 0
0 0
0 0
0 0
0 0
0 0
0 0
0 0
0 0
0 0
0 0
0 0
0 0
0 0
0 0
0 0
0 0
0 0
0 0
0 0
0 0
0 0
0 0
0 0
0 0
0 0
0 0
0 0
0 0
0 0
0 0
0 0
0 0
0 0
0 0
0 0
0 0
0 0
0 0
0 0
0 0
0 0
0 0
0 0
0 0
0 0
0 0
0 0
0 0
0 0
0 0
0 0
0 0
0 0
0 0
0 0
0 0
0 0
0 0
0 0
0 0
0 0
0 0
0 0
0 0
0 0
0 0
0 0
0 0
0 0
0 0
0 0
0 0
0 0
0 0
0 0
0 0
0 0
0 0
0 0
0 0
0 0
0 0
0 0
0 0
0 0
0 0
0 0
0 0
0 0
0 0
0 0
0 0
0 0
0 0
0 0
0 0
0 0
0 0
0 0
0 0
0 0
0 0
0 0
0 0
0 0
0 0
0 0
0 0
0 0
0 0
0 0
0 0
0 0
0 0
0 0
0 0
0 0
0 0
0 0
0 0
0 0
0 0
0 0
0 0
0 0
0 0
0 0
0 0
0 0
0 0
0 0
0 0
0 0
0 0
0 0
0 0
0 0
0 0
0 0
0 0
0 0
0 0
0 0
0 0
0 0
0 0
0 0
0 0
0 0
0 0
0 0
0 0
0 0
0 0
0 0
0 0
0 0
0 0
0 0
0 0
0 0
0 0
0 0
0 0
0 0
0 0
0 0
0 0
0 0
0 0
0 0
0 0
0 0
0 0
0 0
0 0
0 0
0 0
0 0
0 0
0 0
0 0
0 0
0 0
0 0
0 0
0 0
0 0
0 0
0 0
0 0
0 0
0 0
0 0
0 0
0 0
0 0
0 0
0 0
0 0
0 0
0 0
0 0
0 0
0 0
0 0
0 0
0 0
0 0
0 0
0 0
0 0
0 0
0 0
0 0
0 0
0 0
0 0
0 0
0 0
0 0
0 0
0 0
0 0
0 0
0 0
0 0
0 0
0 0
0 0
0 0
0 0
0 0
0 0
0 0
0 0
0 0
0 0
0 0
0 0
0 0
0 0
0 0
0 0
0 0
0 0
0 0
0 0
0 0
0 0
0 0
0 0
0 0
0 0
0 0
0 0
0 0
0 0
0 0
0 0
0 0
0 0
0 0
0 0
0 0
0 0
0 0
0 0
0 0
0 0
0 0
0 0
0 0
0 0
0 0
0 0
0 0
0 0
0 0
0 0
0 0
0 0
0 0
0 0
0 0
0 0
0 0
0 0
0 0
0 0
0 0
0 0
0 0
0 0
0 0
0 0
0 0
0 0
0 0
0 0
0 0
0 0
0 0
0 0
0 0
0 0
0 0
0 0
0 0
0 0
0 0
0 0
0 0
0 0
0 0
0 0
0 0
0 0
0 0
0 0
0 0
0 0
0 0
0 0
0 0
0 0
0 0
0 0
0 0
0 0
0 0
0 0
0 0
0 0
0 0
0 0
0 0
0 0
0 0
0 0
0 0
0 0
0 0
0 0
0 0
0 0
0 0
0 0
0 0
0 0
0 0
0 0
0 0
0 0
0 0
0 0
0 0
0 0
0 0
0 0
0 0
0 0
0 0
0 0
0 0
0 0
0 0
0 0
0 0
0 0
0 0
0 0
0 0
0 0
0 0
0 0
0 0
0 0
0 0
0 0
0 0
0 0
0 0
0 0
0 0
0 0
0 0
0 0
0 0
0 0
0 0
0 0
0 0
0 0
0 0
0 0
0 0
0 0
0 0
0 0
0 0
0 0
0 0
0 0
0 0
0 0
0 0
0 0
0 0
0 0
0 0
0 0
0 0
0 0
0 0
0 0
0 0
0 0
0 0
0 0
0 0
0 0
0 0
0 0
0 0
0 0
0 0
0 0
0 0
0 0
0 0
0 0
0 0
0 0
0 0
0 0
0 0
0 0
0 0
0 0
0 0
0 0
0 0
0 0
0 0
0 0
0 0
0 0
0 0
0 0
0 0
0 0
0 0
0 0
0 0
0 0
0 0
0 0
0 0
0 0
0 0
0 0
0 0
0 0
0 0
0 0
0 0
0 0
0 0
0 0
0 0
0 0
0 0
0 0
0 0
0 0
0 0
0 0
0 0
0 0
0 0
0 0
0 0
0 0
0 0
0 0
0 0
0 0
0 0
0 0
0 0
0 0
0 0
0 0
0 0
0 0
0 0
0 0
0 0
0 0
0 0
0 0
0 0
0 0
0 0
0 0
0 0
0 0
0 0
0 0
0 0
0 0
0 0
0 0
0 0
0 0
0 0
0 0
0 0
0 0
0 0
0 0
0 0
0 0
0 0
0 0
0 0
0 0
0 0
0 0
0 0
0 0
0 0
0 0
0 0
0 0
0 0
0 0
0 0
0 0
0 0
0 0
0 0
0 0
0 0
0 0
0 0
0 0
0 0
0 0
0 0
0 0
0 0
0 0
0 0
0 0
0 0
0 0
0 0
0 0
0 0
0 0
0 0
0 0
0 0
0 0
0 0
0 0
0 0
0 0
0 0
0 0
0 0
0 0
0 0
0 0
0 0
0 0
0 0
0 0
0 0
0 0
0 0
0 0
0 0
0 0
0 0
0 0
0 0
0 0
0 0
0 0
0 0
0 0
0 0
0 0
0 0
0 0
0 0
0 0
0 0
0 0
0 0
0 0
0 0
0 0
0 0
0 0
0 0
0 0
0 0
0 0
0 0
0 0
0 0
0 0
0 0
0 0
0 0
0 0
0 0
0 0
0 0
0 0
0 0
0 0
0 0
0 0
0 0
0 0
0 0
0 0
0 0
0 0
0 0
0 0
0 0
0 0
0 0
0 0
0 0
0 0
0 0
0 0
0 0
0 0
0 0
0 0
0 0
0 0
0 0
0 0
0 0
0 0
0 0
0 0
0 0
0 0
0 0
0 0
0 0
0 0
0 0
0 0
0 0
0 0
0 0
0 0
0 0
0 0
0 0
0 0
0 0
0 0
0 0
0 0
0 0
0 0
0 0
0 0
0 0
0 0
0 0
0 0
0 0
0 0
0 0
0 0
0 0
0 0
0 0
0 0
0 0
0 0
0 0
0 0
0 0
0 0
0 0
0 0
0 0
0 0
0 0
0 0
0 0
0 0
0 0
0 0
0 0
0 0
0 0
0 0
0 0
0 0
0 0
0 0
0 0
0 0
0 0
0 0
0 0
0 0
0 0
0 0
0 0
0 0
0 0
0 0
0 0
0 0
0 0
0 0
0 0
0 0
0 0
0 0
0 0
0 0
0 0
0 0
0 0
0 0
0 0
0 0
0 0
0 0
0 0
0 0
0 0
0 0
0 0
0 0
0 0
0 0
0 0
0 0
0 0
0 0
0 0
0 0
0 0
0 0
0 0
0 0
0 0
0 0
0 0
0 0
0 0
0 0
0 0
0 0
0 0
0 0
0 0
0 0
0 0
0 0
0 0
0 0
0 0
0 0
0 0
0 0
0 0
0 0
0 0
0 0
0 0
0 0
0 0
0 0
0 0
0 0
0 0
0 0
0 0
0 0
0 0
0 0
0 0
0 0
0 0
0 0
0 0
0 0
0 0
0 0
0 0
0 0
0 0
0 0
0 0
0 0
0 0
0 0
0 0
0 0
0 0
0 0
0 0
0 0
0 0
0 0
0 0
0 0
0 0
0 0
0 0
0 0
0 0
0 0
0 0
0 0
0 0
0 0
0 0
0 0
0 0
0 0
0 0
0 0
0 0
0 0
0 0
0 0
0 0
0 0
0 0
0 0
0 0
0 0
0 0
0 0
0 0
0 0
0 0
0 0
0 0
0 0
0 0
0 0
0 0
0 0
0 0
0 0
0 0
0 0
0 0
0 0
0 0
0 0
0 0
0 0
0 0
0 0
0 0
0 0
0 0
0 0
0 0
0 0
0 0
0 0
0 0
0 0
0 0
0 0
0 0
0 0
0 0
0 0
0 0
0 0
0 0
0 0
0 0
0 0
0 0
0 0
0 0
0 0
0 0
0 0
0 0
0 0
0 0
0 0
0 0
0 0
0 0
0 0
0 0
0 0
0 0
0 0
0 0
0 0
0 0
0 0
0 0
0 0
0 0
0 0
0 0
0 0
0 0
0 0
0 0
0 0
0 0
0 0
0 0
0 0
0 0
0 0
0 0
0 0
0 0
0 0
0 0
0 0
0 0
0 0
0 0
0 0
0 0
0 0
0 0
0 0
0 0
0 0
0 0
0 0
0 0
0 0
0 0
0 0
0 0
0 0
0 0
0 0
0 0
0 0
0 0
0 0
0 0
0 0
0 0
0 0
0 0
0 0
0 0
0 0
0 0
0 0
0 0
0 0
0 0
0 0
0 0
0 0
0 0
0 0
0 0
0 0
0 0
0 0
0 0
0 0
0 0
0 0
0 0
0 0
0 0
0 0
0 0
0 0
0 0
0 0
0 0
0 0
0 0
0 0
0 0
0 0
0 0
0 0
0 0
0 0
0 0
0 0
0 0
0 0
0 0
0 0
0 0
0 0
0 0
0 0
0 0
0 0
0 0
0 0
0 0
0 0
0 0
0 0
0 0
0 0
0 0
0 0
0 0
0 0
0 0
0 0
0 0
0 0
0 0
0 0
0 0
0 0
0 0
0 0
0 0
0 0
0 0
0 0
0 0
0 0
0 0
0 0
0 0
0 0
0 0
0 0
0 0
0 0
0 0
0 0
0 0
0 0
0 0
0 0
0 0
0 0
0 0
0 0
0 0
0 0
0 0
0 0
0 0
0 0
0 0
0 0
0 0
0 0
0 0
0 0
0 0
0 0
0 0
0 0
0 0
0 0
0 0
0 0
0 0
0 0
0 0
0 0
0 0
0 0
0 0
0 0
0 0
0 0
0 0
0 0
0 0
0 0
0 0
0 0
0 0
0 0
0 0
0 0
0 0
0 0
0 0
0 0
0 0
0 0
0 0
0 0
0 0
0 0
0 0
0 0
0 0
0 0
0 0
0 0
0 0
0 0
0 0
0 0
0 0
0 0
0 0
0 0
0 0
0 0
0 0
0 0
0 0
0 0
0 0
0 0
0 0
0 0
0 0
0 0
0 0
0 0
0 0
0 0
0 0
0 0
0 0
0 0
0 0
0 0
0 0
0 0
0 0
0 0
0 0
0 0
0 0
0 0
0 0
0 0
0 0
0 0
0 0
0 0
0 0
0 0
0 0
0 0
0 0
0 0
0 0
0 0
0 0
0 0
0 0
0 0
0 0
0 0
0 0
0 0
0 0
0 0
0 0
0 0
0 0
0 0
0 0
0 0
0 0
0 0
0 0
0 0
0 0
0 0
0 0
0 0
0 0
0 0
0 0
0 0
0 0
0 0
0 0
0 0
0 0
0 0
0 0
0 0
0 0
0 0
0 0
0 0
0 0
0 0
0 0
0 0
0 0
0 0
0 0
0 0
0 0
0 0
0 0
0 0
0 0
0 0
0 0
0 0
0 0
0 0
0 0
0 0
0 0
0 0
0 0
0 0
0 0
0 0
0 0
0 0
      </DataArray> 
      <DataArray type="Float64" NumberOfComponents="1" Name="CauchyShearStress" format="ascii">
-4.23335
3.71232
-1.22717
0.349316
0.189109
0.253177
0.179015
0.0822211
-0.0312926
-0.0500524
-0.0468246
-0.0729674
-0.099067
-0.0731547
-0.0355949
-0.027168
-0.0286594
0.0156115
0.0526809
0.0515399
0.0400175
0.0721916
0.0827083
0.0308872
-0.0364906
-0.0480921
-0.104554
-0.378941
-0.477485
-0.619852
0.414515
0.016021
0.182274
0.416888
-4.7927
0.0278318
0.156252
0.184619
0.170753
0.0699746
0.0643432
0.121289
0.185418
0.18064
0.254887
0.207769
0.279644
0.35508
0.403167
0.402628
0.433337
0.443422
0.463153
0.197072
-0.104615
-0.206909
-0.318711
-0.403814
-0.486715
-0.165908
0.623007
0.87904
1.7432
-20.5767
-10.3248
-4.39553
-6.61941
-8.19162
-11.7563
0.15124
-19.7656
-17.1848
-13.1171
20.8379
-1.79197
-14.0101
20.7389
-4.23163
10.6509
4.55551
6.69269
8.2205
11.7767
-0.254168
-0.820512
-0.985028
-2.05876
0.00069105
-0.0821515
0.193842
0.338082
0.601595
0.620822
0.111313
-0.116896
-0.206889
-0.302496
-0.383841
-0.433029
-0.467381
-0.482924
-0.517195
-0.457097
-0.442745
-0.428368
-0.383852
-0.391194
-0.293276
-0.184442
-0.141185
-0.174013
0.456352
0.894634
5.00223
1.38523
-11.1836
-6.53526
-11.3603
12.6835
7.26364
3.13364
3.0827
-2.72877
-0.255461
-10.7666
10.77
-2.55716
-2.77737
-5.33397
-5.03179
5.70989
-4.46427
4.99826
-4.89517
-5.02089
5.42438
5.45043
-4.31836
-4.1102
-4.84199
-2.39908
1.79633
2.4981
5.49309
4.57461
6.202
-5.62385
-6.50402
-6.82093
-6.53418
7.17092
6.01776
-2.51807
0.555611
2.33268
-4.19834
4.35657
-3.1679
-3.69941
-4.25517
-3.90016
4.12259
4.69196
4.21653
3.35302
-3.99633
-4.11418
-3.55274
-1.81146
0.78038
3.61832
-3.71212
-3.62943
4.23951
4.37105
3.8662
3.79272
4.35169
5.95783
-5.2895
-6.16062
-4.77267
-7.06472
-7.89402
7.03843
4.05586
-2.88087
-1.96296
-0.191102
-0.96132
0.752988
1.86285
1.30363
2.62776
-3.76982
-3.87574
3.79988
3.85223
-3.01445
-2.57076
-2.83148
-2.50208
-2.83424
-3.52801
3.77153
3.20979
2.85329
3.00716
2.61398
2.98894
-3.6874
-3.5183
-4.85527
0.104728
2.76252
-2.28276
2.572
3.63219
3.41924
7.3423
-8.9388
-1.95433
-9.76722
10.2201
8.24168
5.8082
-2.90958
-2.14779
-0.758805
0.534179
1.62818
2.63771
-3.60696
3.51879
-2.52997
-1.77351
-2.51504
2.63041
1.92997
2.60592
-2.92789
-3.1879
-3.2514
-2.97854
-1.65311
-1.22447
-12.1685
-2.17725
9.51391
-0.301795
0.309488
1.93174
2.67643
2.99278
3.03664
2.46475
9.77403
-9.67572
1.21613
3.70563
-12.1384
-3.1939
-2.61072
11.289
3.67189
-2.75351
-2.75549
-2.03129
-2.50396
-1.02672
-1.4945
0.127861
-0.315119
0.96996
0.594841
1.98142
1.51714
2.76618
2.34911
-2.83659
-3.3015
-3.44807
2.86588
3.28374
3.2627
2.54996
-2.41022
-1.10104
-1.03324
-1.65145
1.67367
1.23388
1.1836
2.56014
-1.72362
-2.38026
-2.08904
-1.66294
-0.608608
-21.3284
-8.14635
-0.649774
5.18116
22.5879
1.61227
-1.58695
1.59222
2.65205
1.7435
15.9374
8.24955
-13.4706
-8.46175
8.42722
-13.8946
1.1173
-6.41443
6.63572
9.51621
-2.80437
-1.76753
-0.952113
-0.18807
0.506471
1.20864
2.23911
-3.13027
-2.36768
2.67702
2.63935
-1.49515
-1.131
-2.78897
2.18532
0.875413
1.54362
-1.84544
2.06333
-0.545048
-1.00632
-0.894061
-1.27477
-0.976446
-1.13701
-0.933039
-0.747664
-0.403324
-39.822
-5.89424
4.79491
35.7871
0.107
0.755268
1.7092
2.33628
5.24944
-4.52557
-2.32999
-1.52098
-0.680903
0.0495115
0.579173
0.820653
0.724423
1.20771
0.493349
0.647106
0.753781
0.83402
12.3296
20.3093
11.4148
-12.0463
-16.1497
-20.2339
8.43973
10.6085
11.552
-7.58589
-16.8044
-11.8948
-1.52638
-2.73839
-1.09439
-0.946539
-0.959405
-0.667695
-0.623362
-0.665264
-0.355655
-0.240972
-0.308193
0.0364984
0.153301
0.0961978
0.397471
0.479806
0.451228
0.703514
0.689905
0.734232
1.24984
2.65646
1.36389
-0.668452
-0.614915
0.960047
1.05636
-3.05401
-3.32967
2.90569
2.95946
3.12597
-0.606621
-1.00757
1.14563
0.887637
-1.07274
0.987092
-1.53064
-1.21952
1.07187
1.35872
-2.37813
-4.93321
-2.46143
2.40885
2.57493
4.02528
3.3418
-3.91525
2.34832
-2.63583
0.127562
-0.0335933
3.19976
-3.36364
2.02443
-1.33236
2.94433
1.61561
0.842866
0.184466
-0.559821
-1.33888
-2.25602
-2.98187
-9.72119
14.1111
-15.5273
15.7743
1.53966
2.01378
0.343407
-3.68287
4.41235
0.184933
16.7241
-20.6764
-0.956697
-2.04533
-2.65689
-2.13097
1.7565
-2.36528
7.50427
-4.05041
-1.72749
2.15798
1.87376
-1.57779
-2.08843
3.38372
3.46095
-3.66006
-3.36127
2.94428
2.22045
1.05323
0.00480126
-1.53088
-2.68698
-2.99059
8.3594
1.52276
-2.93498
-1.94232
-8.29307
5.62936
3.46384
3.34855
1.97524
-2.1394
-2.57612
-3.7985
8.06605
-7.35058
2.97935
3.99987
4.49672
-3.98996
-3.55255
-3.03645
4.10115
-4.09935
1.54065
-0.422987
5.80522
-8.12142
5.17453
-5.14915
4.75798
-4.42312
6.23194
-5.61745
-4.51025
-21.5895
-2.26843
-24.9603
-17.5756
-2.7607
-12.8814
2.03337
16.7109
32.6517
3.05481
19.83
17.5812
-18.9478
-28.6665
-29.3439
-29.6551
-15.4161
-19.6385
-22.5216
-17.1278
-16.5691
-15.7625
-18.2972
-13.8335
-23.7495
-29.7396
-10.0907
-13.962
17.341
29.8633
27.2733
22.6327
15.5212
19.7544
17.7832
14.9944
17.2012
15.9023
14.0353
18.4069
10.2366
23.9272
29.8952
14.1726
15.5562
1.38007
5.35928
1.76162
47.4121
12.9583
54.535
23.668
9.81518
-18.3204
-7.21832
-1.56026
-55.9488
-46.4126
-21.3814
-2.30525
-12.521
-27.9964
15.8243
16.1736
2.93926
9.5181
-2.42496
12.0689
8.63304
-14.8664
-8.40147
-20.3794
2.10326
3.09596
-3.08036
-12.4902
-0.0116528
1.00598
-10.7686
-12.8576
-5.6636
1.26995
8.22334
-4.83989
12.6461
7.63684
22.034
31.925
31.8392
21.3935
23.266
17.3552
17.6996
2.24485
1.87199
5.6959
-0.136322
10.1966
1.4883
-1.2086
-4.48884
-7.82405
-3.02931
-13.619
-4.61487
-19.3916
-30.6645
-32.404
-20.1774
-22.698
-16.9921
-16.2435
10.981
12.6594
9.48377
9.90067
-8.50288
-13.6456
-6.33583
-8.93405
9.13125
10.4975
9.71172
9.38892
8.94086
8.63612
9.9725
6.4392
7.53625
8.95927
7.68826
-8.51635
-7.30193
-7.51231
-6.75297
-4.97769
-8.2995
5.02688
5.68988
5.81943
4.24554
4.19919
3.676
3.10506
2.35232
-2.00262
-1.07218
-0.908193
-0.135817
1.08143
-1.122
-4.68033
-5.51389
-4.2431
-6.42195
-3.2436
-2.81686
-3.71522
-2.6717
-2.03991
-2.84878
-1.45544
-2.91086
-3.30076
13.2089
11.4945
14.1301
12.8404
17.1525
19.8034
15.9709
8.55116
11.8157
8.11474
41.5571
47.1377
-7.97185
-11.6268
-8.35533
-12.6839
-40.0653
-45.747
-15.7865
-13.8386
-11.2321
-13.3145
15.3645
2.39799
6.13583
4.33692
7.15008
0.778764
13.028
7.57271
4.39082
11.5155
11.1865
9.60583
9.56968
15.5297
15.0494
10.5047
17.2819
-16.0883
-9.61161
-14.7093
-7.36183
-16.8137
-10.4841
-10.0525
-12.108
-7.11652
-16.2686
-10.1837
-9.09144
-5.75397
-4.12917
-3.5757
-4.32571
-1.97993
-2.1809
-7.33979
-10.2497
-7.55822
-9.1884
-10.7033
-11.6025
-10.9544
-11.5036
-9.52862
-10.0704
-9.17903
0.710465
2.10788
1.35276
3.566
-0.663643
0.241199
2.30854
-0.402511
11.7003
14.6425
7.5251
17.0223
13.6232
6.17994
3.88204
4.89156
13.2911
23.7024
20.4461
24.6807
15.5144
19.6146
25.2985
15.9971
-34.2726
-52.0887
-39.3309
-22.6941
-38.7666
-84.0466
56.363
21.1521
38.3103
37.0454
15.6426
79.1716
16.7703
3.59208
4.14495
2.66044
-30.0159
-20.2661
-0.640534
11.9435
6.90177
-5.70299
-7.04582
-0.353026
-11.2171
-6.44498
3.36596
6.94695
-5.30043
-14.8431
13.7362
10.2148
11.978
9.48237
8.40715
7.59145
12.6517
12.7093
13.7168
-2.0912
8.56828
5.93886
8.68109
-0.468371
-11.9214
-5.67981
-13.4815
-5.90079
-11.9383
27.1862
5.7931
2.76123
-7.60088
-7.63617
14.4965
-8.01051
-7.77613
-13.2464
-3.94676
-7.74741
-13.6614
-15.2798
-7.43339
-0.939612
5.34465
-11.729
-10.4367
-8.85357
0.442174
1.08005
-1.05367
-1.51443
-4.69247
0.672485
7.04796
-3.64179
1.62673
3.56286
2.40594
4.86932
4.91044
4.50757
11.1377
9.55621
11.0938
10.4618
8.96201
12.0247
-2.86883
-1.17373
3.19581
-4.35843
0.0181519
8.325
-9.74455
-11.2404
-7.84329
-9.96042
-5.89557
-13.8098
-12.8282
-12.4211
-7.87421
-10.1688
-11.4865
-12.2186
-5.18732
-9.26056
-9.57746
-7.72618
6.51159
4.935
7.5231
2.43951
3.58857
7.05432
6.30181
-15.4751
-14.5799
-12.9914
-9.38047
-7.13781
-10.9217
-18.7576
-11.9273
-9.90002
-20.6218
-2.45186
-21.379
-14.2973
-3.92465
-23.2375
-21.72
-28.8912
-4.13498
-5.34818
-9.63996
-6.03948
-4.3493
-14.4175
-55.1288
-3.68502
-8.81425
28.6199
35.1526
26.4385
5.21168
6.29375
9.65657
4.83937
4.96273
3.95008
13.8944
51.8461
11.3833
0.967756
0.177007
0.339437
0.117175
-0.106518
-0.0301859
0.439809
1.65265
1.34345
0.775542
0.218363
0.100398
0.193042
-0.0123924
-0.126293
1.4148
0.278224
0.0331272
0.144797
0.0232172
-0.130567
-0.0688516
0.189313
0.531502
0.185705
-0.273461
-0.206491
-0.0239129
-0.280317
0.518807
0.488702
-0.252837
-1.82204
-0.78478
-0.620299
-0.934063
0.394549
0.319331
-0.489266
-2.57389
-2.97371
-3.40081
-2.05552
-1.15118
-2.45077
0.183422
0.0825018
-4.07729
3.76191
1.10066
2.35628
0.894147
-0.517631
-0.61258
2.8597
4.89263
3.45032
1.93312
0.701156
0.789202
0.564821
-0.605877
-0.362528
3.00558
0.377312
0.0533521
0.222495
0.0303682
-0.230749
0.0149983
0.299207
0.537931
0.167763
-0.571009
-0.126091
-0.049201
-0.203798
0.436945
0.436531
0.00121632
-0.667633
-0.886776
-1.01613
-0.316214
-0.273999
-0.395956
0.429351
0.393974
-0.221921
-1.48039
-1.61269
0.436036
-0.258791
-0.308239
-0.394301
-1.80445
0.304996
16.283
8.23919
9.95573
-5.49422
-7.03322
-6.01267
-7.99225
-5.00712
-13.0106
-14.8976
-16.3319
6.71371
6.77488
8.55724
10.9929
6.31854
-0.201785
-8.58622
-0.621841
5.80597
2.30341
1.91782
1.34244
2.15737
1.09605
0.690264
1.20348
1.82114
0.996497
-1.64196
-1.03593
-1.13693
-0.530372
-2.56718
1.19545
1.17435
1.77786
2.83397
0.809708
-1.33765
-0.826946
-1.19577
-1.28602
-1.84234
-1.57091
-1.05192
-1.61181
-2.04388
-2.34564
12.5802
11.8443
-2.95153
-5.0179
-4.37223
-6.21064
-3.24548
-0.650325
-0.547596
-13.8472
-12.1722
2.49959
2.83706
3.02288
3.23361
2.33378
1.73386
2.14714
1.10428
2.35191
2.98217
2.61563
-1.02062
-2.11228
-0.700812
0.290621
0.846596
0.389429
0.751892
1.43711
-0.0327278
2.92412
-0.401781
-1.12352
-1.48161
-1.09384
-0.8958
-1.2829
-0.820198
-0.275683
-0.467282
-1.87678
-2.10225
-2.50498
-2.52616
-2.80555
-3.41528
-2.94231
0.107886
1.08674
3.15119
2.82258
3.28551
3.57285
3.52523
1.36089
1.22282
2.20964
3.02264
2.12742
-1.74496
-0.821202
-1.28191
-2.10457
-2.45337
2.87014
4.85678
5.8617
4.90469
-5.77383
-3.49984
-4.45334
-3.37362
-1.88068
-2.33599
-6.4293
3.85456
3.96362
4.26119
4.72776
4.15692
3.34736
3.40057
3.76169
4.99391
-3.67341
-3.00354
-2.98316
-3.15036
-2.83797
-4.39325
-4.4187
-3.02668
-3.6273
-4.03257
-3.64454
-4.1182
-5.01857
4.35181
4.69603
-2.08446
-2.09369
-1.69143
-2.32756
-2.59327
-3.25795
-2.75167
-3.03299
-0.409383
-0.110604
-0.217775
-0.0422407
-0.591888
-0.0265479
-0.0367178
-0.345905
0.245243
0.114336
3.52646
5.67947
6.33559
3.77334
0.175469
-0.371716
2.16583
0.454847
0
0
0
0
0
0
0
0
0
0
0
0
0
0
0
0
0
0
0
0
0
0
0
0
0
0
0
0
0
0
0
0
0
0
0
0
0
0
0
0
0
0
0
0
0
0
0
0
0
0
0
0
0
0
0
0
0
0
0
0
0
0
0
0
0
0
0
0
0
0
0
0
0
0
0
0
0
0
0
0
0
0
0
0
0
0
0
0
0
0
0
0
0
0
0
0
0
0
0
0
0
0
0
0
0
0
0
0
0
0
0
0
0
0
0
0
0
0
0
0
0
0
0
0
0
0
0
0
0
0
0
0
0
0
0
0
0
0
0
0
0
0
0
0
0
0
0
0
0
0
0
0
0
0
0
0
0
0
0
0
0
0
0
0
0
0
0
0
0
0
0
0
0
0
0
0
0
0
0
0
0
0
0
0
0
0
0
0
0
0
0
0
0
0
0
0
0
0
0
0
0
0
0
0
0
0
0
0
0
0
0
0
0
0
0
0
0
0
0
0
0
0
0
0
0
0
0
0
0
0
0
0
0
0
0
0
0
0
0
0
0
0
0
0
0
0
0
0
0
0
0
0
0
0
0
0
0
0
0
0
0
0
0
0
0
0
0
0
0
0
0
0
0
0
0
0
0
0
0
0
0
0
0
0
0
0
0
0
0
0
0
0
0
0
0
0
0
0
0
0
0
0
0
0
0
0
0
0
0
0
0
0
0
0
0
0
0
0
0
0
0
0
0
0
0
0
0
0
0
0
0
0
0
0
0
0
0
0
0
0
0
0
0
0
0
0
0
0
0
0
0
0
0
0
0
0
0
0
0
0
0
0
0
0
0
0
0
0
0
0
0
0
0
0
0
0
0
0
0
0
0
0
0
0
0
0
0
0
0
0
0
0
0
0
0
0
0
0
0
0
0
0
0
0
0
0
0
0
0
0
0
0
0
0
0
0
0
0
0
0
0
0
0
0
0
0
0
0
0
0
0
0
0
0
0
0
0
0
0
0
0
0
0
0
0
0
0
0
0
0
0
0
0
0
0
0
0
0
0
0
0
0
0
0
0
0
0
0
0
0
0
0
0
0
0
0
0
0
0
0
0
0
0
0
0
0
0
0
0
0
0
0
0
0
0
0
0
0
0
0
0
0
0
0
0
0
0
0
0
0
0
0
0
0
0
0
0
0
0
0
0
0
0
0
0
0
0
0
0
0
0
0
0
0
0
0
0
0
0
0
0
0
0
0
0
0
0
0
0
0
0
0
0
0
0
0
0
0
0
0
0
0
0
0
0
0
0
0
0
0
0
0
0
0
0
0
0
0
0
0
0
0
0
0
0
0
0
0
0
0
0
0
0
0
0
0
0
0
0
0
0
0
0
0
0
0
0
0
0
0
0
0
0
0
0
0
0
0
0
0
0
0
0
0
0
0
0
0
0
0
0
0
0
0
0
0
0
0
0
0
0
0
0
0
0
0
0
0
0
0
0
0
0
0
0
0
0
0
0
0
0
0
0
0
0
0
0
0
0
0
0
0
0
0
0
0
0
0
0
0
0
0
0
0
0
0
0
0
0
0
0
0
0
0
0
0
0
0
0
0
0
0
0
0
0
0
0
0
0
0
0
0
0
0
0
0
0
0
0
0
0
0
0
0
0
0
0
0
0
0
0
0
0
0
0
0
0
0
0
0
0
0
0
0
0
0
0
0
0
0
0
0
0
0
0
0
0
0
0
0
0
0
0
0
0
0
0
0
0
0
0
0
0
0
0
0
0
0
0
0
0
0
0
0
0
0
0
0
0
0
0
0
0
0
0
0
0
0
0
0
0
0
0
0
0
0
0
0
0
0
0
0
0
0
0
0
0
0
0
0
0
0
0
0
0
0
0
0
0
0
0
0
0
0
0
0
0
0
0
0
0
0
0
0
0
0
0
0
0
0
0
0
0
0
0
0
0
0
0
0
0
0
0
0
0
0
0
0
0
0
0
0
0
0
0
0
0
0
0
0
0
0
0
0
0
0
0
0
0
0
0
0
0
0
0
0
0
0
0
0
0
0
0
0
0
0
0
0
0
0
0
0
0
0
0
0
0
0
0
0
0
0
0
0
0
0
0
0
0
0
0
0
0
0
0
0
0
0
0
0
0
0
0
0
0
0
0
0
0
0
0
0
0
0
0
0
0
0
0
0
0
0
0
0
0
0
0
0
0
0
0
0
0
0
0
0
0
0
0
0
0
0
0
0
0
0
0
0
0
0
0
0
0
0
0
0
0
0
0
0
0
0
0
0
0
0
0
0
0
0
0
0
0
0
0
0
0
0
0
0
0
0
0
0
0
0
0
0
0
0
0
0
0
0
0
0
0
0
0
0
0
0
0
0
0
0
0
0
0
0
0
0
0
0
0
0
0
0
0
0
0
0
0
0
0
0
0
0
0
0
0
0
0
0
0
0
0
0
0
0
0
0
0
0
0
0
0
0
0
0
0
0
0
0
0
0
0
0
0
0
0
0
0
0
0
0
0
0
0
0
0
0
0
0
0
0
0
0
0
0
0
0
0
0
0
0
0
0
0
0
0
0
0
0
0
0
0
0
0
0
0
0
0
0
0
0
0
0
0
0
0
0
0
0
0
0
0
0
0
0
0
0
0
0
0
0
0
0
0
0
0
0
0
0
0
0
0
0
0
0
0
0
0
0
0
0
0
0
0
0
0
0
0
0
0
0
0
0
0
0
0
0
0
0
0
0
0
0
0
0
0
0
0
0
0
0
0
0
0
0
0
0
0
0
0
0
0
0
0
0
0
0
0
0
0
0
0
0
0
0
0
0
0
0
0
0
0
0
0
0
0
0
0
0
0
0
0
0
0
0
0
0
0
0
0
0
0
0
0
0
0
0
0
0
0
0
0
0
0
0
0
0
0
0
0
0
0
0
0
0
0
0
0
0
0
0
0
0
0
0
0
0
0
0
0
0
0
0
0
0
0
0
0
0
0
0
0
0
0
0
0
0
0
0
0
0
0
0
0
0
0
0
0
0
0
0
0
0
0
0
0
0
0
0
0
0
0
0
0
0
0
0
0
0
0
0
0
0
0
0
0
0
0
0
0
0
0
0
0
0
0
0
0
0
0
0
0
0
0
0
0
0
0
0
0
0
0
0
0
0
0
0
0
0
0
0
0
0
0
0
0
0
0
0
0
0
0
0
0
0
0
0
0
0
0
0
0
0
0
0
0
0
0
0
0
0
0
0
0
0
0
0
0
0
0
0
0
0
0
0
0
0
0
0
0
0
0
0
0
0
0
0
0
0
0
0
0
0
0
0
0
0
0
0
0
0
0
0
0
0
0
0
0
0
0
0
0
0
0
0
0
0
0
0
0
0
0
0
0
0
0
0
0
0
0
0
0
0
0
0
0
0
0
0
0
0
0
0
0
0
0
0
0
0
0
0
0
0
0
0
0
0
0
0
0
0
0
0
0
0
0
0
0
0
0
0
0
0
0
0
0
0
0
0
0
0
0
0
0
0
0
0
0
0
0
0
0
0
0
0
0
0
0
0
0
0
0
0
0
0
0
0
0
0
0
0
0
0
0
0
0
0
0
0
0
0
0
0
0
0
0
0
0
0
0
0
0
0
0
0
0
0
0
0
0
0
0
0
0
0
0
0
0
0
0
0
0
0
0
0
0
0
0
0
0
0
0
0
0
0
0
0
0
0
0
0
0
0
0
0
0
0
0
0
0
0
0
0
0
0
0
0
0
0
0
0
0
0
0
0
0
0
0
0
0
0
0
0
0
0
0
0
0
0
0
0
0
0
0
0
0
0
0
0
0
0
0
0
0
0
0
0
0
0
0
0
0
0
0
0
0
0
0
0
0
0
0
0
0
0
0
0
0
0
0
0
0
0
0
0
0
0
0
0
0
0
0
0
0
0
0
0
0
0
0
0
0
0
0
0
0
0
0
0
0
0
0
0
0
0
0
0
0
0
0
0
0
0
0
0
0
0
0
0
0
0
0
0
0
0
0
0
0
0
0
0
0
0
0
0
0
0
0
0
0
0
0
0
0
0
0
0
0
0
0
0
0
0
0
0
0
0
0
0
0
0
0
0
0
0
0
0
0
0
0
0
0
0
0
0
0
0
0
0
0
0
0
0
0
0
0
0
0
0
0
0
0
0
0
0
0
0
0
0
0
0
0
0
0
0
0
0
0
0
0
0
0
0
0
0
0
0
0
0
0
0
0
0
0
0
0
0
0
0
0
0
0
0
0
0
0
0
0
0
0
0
0
0
0
0
0
0
0
0
0
0
0
0
0
0
0
0
0
0
0
0
0
0
0
0
0
0
0
0
0
0
0
0
0
0
0
0
0
0
0
0
0
0
0
0
0
0
0
0
0
0
0
0
0
0
0
0
0
0
0
0
0
0
0
0
0
0
0
0
0
0
0
0
0
0
0
0
0
0
0
0
0
0
0
0
0
0
0
0
0
0
0
0
0
0
0
0
0
0
0
0
0
0
0
0
0
0
0
0
0
0
0
0
0
0
0
0
0
0
0
0
0
0
0
0
0
0
0
0
0
0
0
0
0
0
0
0
0
0
0
0
0
0
0
0
0
0
0
0
0
0
0
0
0
0
0
0
0
0
0
0
0
0
0
0
0
0
0
0
0
0
0
0
0
0
0
0
0
0
0
0
0
0
0
0
0
0
0
0
0
0
0
0
0
0
0
0
0
0
0
0
0
0
0
0
0
0
0
0
0
0
0
0
0
0
0
0
0
0
0
0
0
0
0
0
0
0
0
0
0
0
0
0
0
0
0
0
0
0
0
0
0
0
0
0
0
0
0
0
0
0
0
0
0
0
0
0
0
0
0
0
0
0
0
0
0
0
0
0
0
0
0
0
0
0
0
0
0
0
0
0
0
0
0
0
0
0
0
0
0
0
0
0
0
0
0
0
0
0
0
0
0
0
0
0
0
0
0
0
0
0
0
0
0
0
0
0
0
0
0
0
0
0
0
0
0
0
0
0
0
0
0
0
0
0
0
0
0
0
0
0
0
0
0
0
0
0
0
0
0
0
0
0
0
0
0
0
0
0
0
0
0
0
0
0
0
0
0
0
0
0
0
0
0
0
0
0
0
0
0
0
0
0
0
0
0
0
0
0
0
0
0
0
0
0
0
0
0
0
0
0
0
0
      </DataArray> 
      <DataArray type="Float64" NumberOfComponents="1" Name="NormalFibers" format="ascii">
0
0
0
0
0
0
0
0
0
0
0
0
0
0
0
0
0
0
0
0
0
0
0
0
0
0
0
0
0
0
0
0
0
0
0
0
0
0
0
0
0
0
0
0
0
0
0
0
0
0
0
0
0
0
0
0
0
0
0
0
0
0
0
0
0
0
0
0
0
0
0
0
0
0
0
0
0
0
0
0
0
0
0
0
0
0
0
0
0
0
0
0
0
0
0
0
0
0
0
0
0
0
0
0
0
0
0
0
0
0
0
0
0
0
0
0
0
0
0
0
0
0
0
0
0
0
0
0
0
0
0
0
0
0
0
0
0
0
0
0
0
0
0
0
0
0
0
0
0
0
0
0
0
0
0
0
0
0
0
0
0
0
0
0
0
0
0
0
0
0
0
0
0
0
0
0
0
0
0
0
0
0
0
0
0
0
0
0
0
0
0
0
0
0
0
0
0
0
0
0
0
0
0
0
0
0
0
0
0
0
0
0
0
0
0
0
0
0
0
0
0
0
0
0
0
0
0
0
0
0
0
0
0
0
0
0
0
0
0
0
0
0
0
0
0
0
0
0
0
0
0
0
0
0
0
0
0
0
0
0
0
0
0
0
0
0
0
0
0
0
0
0
0
0
0
0
0
0
0
0
0
0
0
0
0
0
0
0
0
0
0
0
0
0
0
0
0
0
0
0
0
0
0
0
0
0
0
0
0
0
0
0
0
0
0
0
0
0
0
0
0
0
0
0
0
0
0
0
0
0
0
0
0
0
0
0
0
0
0
0
0
0
0
0
0
0
0
0
0
0
0
0
0
0
0
0
0
0
0
0
0
0
0
0
0
0
0
0
0
0
0
0
0
0
0
0
0
0
0
0
0
0
0
0
0
0
0
0
0
0
0
0
0
0
0
0
0
0
0
0
0
0
0
0
0
0
0
0
0
0
0
0
0
0
0
0
0
0
0
0
0
0
0
0
0
0
0
0
0
0
0
0
0
0
0
0
0
0
0
0
0
0
0
0
0
0
0
0
0
0
0
0
0
0
0
0
0
0
0
0
0
0
0
0
0
0
0
0
0
0
0
0
0
0
0
0
0
0
0
0
0
0
0
0
0
0
0
0
0
0
0
0
0
0
0
0
0
0
0
0
0
0
0
0
0
0
0
0
0
0
0
0
0
0
0
0
0
0
0
0
0
0
0
0
0
0
0
0
0
0
0
0
0
0
0
0
0
0
0
0
0
0
0
0
0
0
0
0
0
0
0
0
0
0
0
0
0
0
0
0
0
0
0
0
0
0
0
0
0
0
0
0
0
0
0
0
0
0
0
0
0
0
0
0
0
0
0
0
0
0
0
0
0
0
0
0
0
0
0
0
0
0
0
0
0
0
0
0
0
0
0
0
0
0
0
0
0
0
0
0
0
0
0
0
0
0
0
0
0
0
0
0
0
0
0
0
0
0
0
0
0
0
0
0
0
0
0
0
0
0
0
0
0
0
0
0
0
0
0
0
0
0
0
0
0
0
0
0
0
0
0
0
0
0
0
0
0
0
0
0
0
0
0
0
0
0
0
0
0
0
0
0
0
0
0
0
0
0
0
0
0
0
0
0
0
0
0
0
0
0
0
0
0
0
0
0
0
0
0
0
0
0
0
0
0
0
0
0
0
0
0
0
0
0
0
0
0
0
0
0
0
0
0
0
0
0
0
0
0
0
0
0
0
0
0
0
0
0
0
0
0
0
0
0
0
0
0
0
0
0
0
0
0
0
0
0
0
0
0
0
0
0
0
0
0
0
0
0
0
0
0
0
0
0
0
0
0
0
0
0
0
0
0
0
0
0
0
0
0
0
0
0
0
0
0
0
0
0
0
0
0
0
0
0
0
0
0
0
0
0
0
0
0
0
0
0
0
0
0
0
0
0
0
0
0
0
0
0
0
0
0
0
0
0
0
0
0
0
0
0
0
0
0
0
0
0
0
0
0
0
0
0
0
0
0
0
0
0
0
0
0
0
0
0
0
0
0
0
0
0
0
0
0
0
0
0
0
0
0
0
0
0
0
0
0
0
0
0
0
0
0
0
0
0
0
0
0
0
0
0
0
0
0
0
0
0
0
0
0
0
0
0
0
0
0
0
0
0
0
0
0
0
0
0
0
0
0
0
0
0
0
0
0
0
0
0
0
0
0
0
0
0
0
0
0
0
0
0
0
0
0
0
0
0
0
0
0
0
0
0
0
0
0
0
0
0
0
0
0
0
0
0
0
0
0
0
0
0
0
0
0
0
0
0
0
0
0
0
0
0
0
0
0
0
0
0
0
0
0
0
0
0
0
0
0
0
0
0
0
0
0
0
0
0
0
0
0
0
0
0
0
0
0
0
0
0
0
0
0
0
0
0
0
0
0
0
0
0
0
0
0
0
0
0
0
0
0
0
0
0
0
0
0
0
0
0
0
0
0
0
0
0
0
0
0
0
0
0
0
0
0
0
0
0
0
0
0
0
0
0
0
0
0
0
0
0
0
0
0
0
0
0
0
0
0
0
0
0
0
0
0
0
0
0
0
0
0
0
0
0
0
0
0
0
0
0
0
0
0
0
0
0
0
0
0
0
0
0
0
0
0
0
0
0
0
0
0
0
0
0
0
0
0
0
0
0
0
0
0
0
0
0
0
0
0
0
0
0
0
0
0
0
0
0
0
0
0
0
0
0
0
0
0
0
0
0
0
0
0
0.00558078
0.00558078
0.0294786
0.0294786
-0.0951084
-0.0951084
-0.0479274
-0.0479274
-0.00271297
-0.00271297
-0.045353
-0.045353
0.00275895
0.00275895
0.0211505
0.0211505
-0.117848
-0.117848
-0.0149202
-0.0149202
-0.0389068
-0.0389068
-0.0585655
-0.0585655
-0.101055
-0.101055
0.02595
0.02595
-0.0478903
-0.0478903
0.0674096
0.0674096
-0.0404245
-0.0404245
-0.0032536
-0.0032536
0.0393035
0.0393035
-0.0248287
-0.0248287
-0.0141659
-0.0141659
-0.0599562
-0.0599562
-0.231559
-0.231559
-0.0230631
-0.0230631
-0.0296882
-0.0296882
-0.0207191
-0.0207191
-0.0142599
-0.0142599
-0.00334679
-0.00334679
-0.1158
-0.1158
0.00992713
0.00992713
0.00943736
0.00943736
0.0112563
0.0112563
-0.156154
-0.156154
-0.0251519
-0.0251519
-0.174418
-0.174418
-0.0093999
-0.0093999
-0.0370053
-0.0370053
-0.0132898
-0.0132898
0.00810271
0.00810271
-0.0453793
-0.0453793
-0.0342759
-0.0342759
0.0565068
0.0565068
-0.0529092
-0.0529092
-0.0478159
-0.0478159
-0.166912
-0.166912
-0.045833
-0.045833
-0.027407
-0.027407
-0.0292423
-0.0292423
-0.0189394
-0.0189394
-0.0182059
-0.0182059
0.0827278
0.0827278
-0.0268107
-0.0268107
0.0155739
0.0155739
-0.137294
-0.137294
-0.00476215
-0.00476215
-0.0140228
-0.0140228
-0.0689076
-0.0689076
-0.0865349
-0.0865349
-0.00575218
-0.00575218
-0.0178495
-0.0178495
-0.0670634
-0.0670634
0.0488413
0.0488413
0.000476861
0.000476861
-0.0660329
-0.0660329
-0.0487388
-0.0487388
-0.0485254
-0.0485254
-0.0495524
-0.0495524
0.0463954
0.0463954
0.0645614
0.0645614
-0.107703
-0.107703
-0.0739587
-0.0739587
-0.0239241
-0.0239241
-0.178301
-0.178301
0.0433452
0.0433452
-0.0897018
-0.0897018
-0.000353332
-0.000353332
-0.0268865
-0.0268865
-0.00332732
-0.00332732
-0.0683822
-0.0683822
-0.0508425
-0.0508425
-0.11594
-0.11594
0.0110208
0.0110208
-0.0619427
-0.0619427
-0.163325
-0.163325
-0.102495
-0.102495
-0.0825453
-0.0825453
-0.0230099
-0.0230099
-0.00721747
-0.00721747
0.0238883
0.0238883
-0.00508709
-0.00508709
-0.0233579
-0.0233579
-0.00100519
-0.00100519
0.0422625
0.0422625
-0.0873089
-0.0873089
-0.137403
-0.137403
-0.00994404
-0.00994404
0.0063073
0.0063073
-0.0350267
-0.0350267
-0.215122
-0.215122
-0.0463641
-0.0463641
-0.00123191
-0.00123191
-0.05914
-0.05914
-0.0243051
-0.0243051
-0.0471405
-0.0471405
-0.00881086
-0.00881086
0.00830461
0.00830461
-0.161416
-0.161416
-0.039905
-0.039905
-0.0276085
-0.0276085
-0.0317165
-0.0317165
-0.100865
-0.100865
0.0792999
0.0792999
0.051743
0.051743
0.0119327
0.0119327
0.0397723
0.0397723
-0.00973983
-0.00973983
-0.00460033
-0.00460033
-0.0700572
-0.0700572
-0.111043
-0.111043
0.0115797
0.0115797
-0.00506578
-0.00506578
-0.0213438
-0.0213438
0.0121309
0.0121309
-0.0358159
-0.0358159
-0.0567464
-0.0567464
-0.129646
-0.129646
-0.0047371
-0.0047371
-0.00561288
-0.00561288
0.00342889
0.00342889
-0.166798
-0.166798
-0.0857509
-0.0857509
0.0284275
0.0284275
0.0043581
0.0043581
-0.0225625
-0.0225625
0.0479233
0.0479233
-0.0296621
-0.0296621
-0.00555486
-0.00555486
-0.0636978
-0.0636978
-0.0732895
-0.0732895
-0.0254177
-0.0254177
-0.00820945
-0.00820945
-0.0359269
-0.0359269
-0.00616269
-0.00616269
-0.0177092
-0.0177092
-0.0129208
-0.0129208
-0.00782779
-0.00782779
-0.023669
-0.023669
0.0138208
0.0138208
-0.0215547
-0.0215547
-0.0719076
-0.0719076
-0.0137128
-0.0137128
-0.00838356
-0.00838356
0.0193997
0.0193997
-0.137631
-0.137631
-0.118931
-0.118931
-0.326256
-0.326256
-0.161263
-0.161263
-0.12301
-0.12301
0.00212505
0.00212505
-0.0215995
-0.0215995
-0.0628064
-0.0628064
0.0440274
0.0440274
-0.0298739
-0.0298739
0.0312095
0.0312095
-0.0061018
-0.0061018
-0.0404652
-0.0404652
-0.0670827
-0.0670827
0.0233185
0.0233185
-0.0548449
-0.0548449
-0.0328038
-0.0328038
-0.0244567
-0.0244567
-0.0784218
-0.0784218
-0.0751752
-0.0751752
-0.0100473
-0.0100473
0.00489278
0.00489278
-0.046382
-0.046382
-0.0126584
-0.0126584
-0.0630147
-0.0630147
-0.0562568
-0.0562568
-0.0766989
-0.0766989
-0.0100293
-0.0100293
-0.0142596
-0.0142596
-0.00132285
-0.00132285
-0.146034
-0.146034
-0.0826333
-0.0826333
-0.16632
-0.16632
-0.00732459
-0.00732459
-0.00875804
-0.00875804
0.0299328
0.0299328
0.0143146
0.0143146
0.033461
0.033461
0.0586537
0.0586537
-0.0515121
-0.0515121
-0.0563015
-0.0563015
0.00299545
0.00299545
-0.0178225
-0.0178225
-0.000915341
-0.000915341
-0.0139463
-0.0139463
-0.0363325
-0.0363325
0.0169267
0.0169267
-0.021426
-0.021426
-0.11127
-0.11127
-0.00907537
-0.00907537
0.0379746
0.0379746
-0.0170418
-0.0170418
-0.222084
-0.222084
0.0375446
0.0375446
0.0097497
0.0097497
-0.0163676
-0.0163676
-0.0839052
-0.0839052
-0.00364789
-0.00364789
-0.0153433
-0.0153433
-0.0943531
-0.0943531
-0.0439517
-0.0439517
0.0373821
0.0373821
-0.0211726
-0.0211726
-0.0426026
-0.0426026
-0.106854
-0.106854
0.0626233
0.0626233
0.0620172
0.0620172
-0.00262637
-0.00262637
-0.130134
-0.130134
0.0145584
0.0145584
-0.0329724
-0.0329724
-0.0505652
-0.0505652
-0.00946188
-0.00946188
0.000324269
0.000324269
-0.0141562
-0.0141562
-0.102572
-0.102572
-0.0318927
-0.0318927
-0.00964941
-0.00964941
-0.00840842
-0.00840842
-0.0331567
-0.0331567
-0.132508
-0.132508
0.00373817
0.00373817
-0.0280299
-0.0280299
-0.0401176
-0.0401176
-0.167722
-0.167722
-0.118267
-0.118267
-0.102476
-0.102476
-0.0303381
-0.0303381
-0.00692987
-0.00692987
-0.00608612
-0.00608612
0.0676027
0.0676027
-0.00293182
-0.00293182
-0.0133516
-0.0133516
-0.00803669
-0.00803669
0.0611723
0.0611723
-0.119176
-0.119176
-0.0527146
-0.0527146
-0.00866971
-0.00866971
-0.159686
-0.159686
-0.162366
-0.162366
-0.00615727
-0.00615727
-0.180473
-0.180473
-0.0017354
-0.0017354
-0.105104
-0.105104
0.0321162
0.0321162
-0.0156028
-0.0156028
-0.000663421
-0.000663421
-0.0265927
-0.0265927
-0.243466
-0.243466
-0.0308855
-0.0308855
-0.0140265
-0.0140265
-0.0315763
-0.0315763
-0.109099
-0.109099
-0.0509274
-0.0509274
-0.0500863
-0.0500863
0.0739331
0.0739331
-0.00979712
-0.00979712
-0.123101
-0.123101
-0.0146033
-0.0146033
-0.00632467
-0.00632467
-0.160624
-0.160624
-0.0221133
-0.0221133
-0.129673
-0.129673
-0.0159085
-0.0159085
-0.00327316
-0.00327316
-0.0632714
-0.0632714
0.0241096
0.0241096
0.00155309
0.00155309
-0.0384711
-0.0384711
-0.0482005
-0.0482005
-0.0343868
-0.0343868
-0.062111
-0.062111
-0.147873
-0.147873
0.0475701
0.0475701
-0.130229
-0.130229
0.00694744
0.00694744
-0.152958
-0.152958
-0.0452121
-0.0452121
-0.0613006
-0.0613006
-0.00829114
-0.00829114
0.0269295
0.0269295
-0.175447
-0.175447
0.035224
0.035224
0.0131005
0.0131005
0.068785
0.068785
-0.147799
-0.147799
-0.0442089
-0.0442089
-0.00269122
-0.00269122
-0.0785094
-0.0785094
-0.109698
-0.109698
-0.0302077
-0.0302077
-0.134836
-0.134836
-0.053098
-0.053098
-0.0156137
-0.0156137
-0.0250688
-0.0250688
0.0278131
0.0278131
-0.121085
-0.121085
0.047095
0.047095
-0.0387151
-0.0387151
0.000643053
0.000643053
-0.0482897
-0.0482897
0.0072898
0.0072898
0.0257848
0.0257848
-0.0443067
-0.0443067
-0.0739569
-0.0739569
-0.112006
-0.112006
0.00653336
0.00653336
-0.163965
-0.163965
0.0316508
0.0316508
-0.0212782
-0.0212782
-0.0654759
-0.0654759
-0.104585
-0.104585
-0.143062
-0.143062
-0.133283
-0.133283
-0.0177708
-0.0177708
-0.063708
-0.063708
-0.000906079
-0.000906079
-0.00996973
-0.00996973
-0.179685
-0.179685
-0.0188618
-0.0188618
0.0574248
0.0574248
0.0272805
0.0272805
-0.0211935
-0.0211935
-0.00132775
-0.00132775
0.00107366
0.00107366
-0.000408324
-0.000408324
-0.0517573
-0.0517573
-0.0492847
-0.0492847
0.0125565
0.0125565
-0.00844848
-0.00844848
-0.0745604
-0.0745604
0.0165072
0.0165072
-0.039752
-0.039752
-0.0260949
-0.0260949
-0.0302572
-0.0302572
-0.0136114
-0.0136114
-0.0131135
-0.0131135
-0.0924083
-0.0924083
-0.00960488
-0.00960488
0.00608425
0.00608425
-0.00511112
-0.00511112
0.062575
0.062575
-0.0747124
-0.0747124
-0.0603747
-0.0603747
-0.053683
-0.053683
-0.061861
-0.061861
-0.02213
-0.02213
-0.0932704
-0.0932704
-0.101034
-0.101034
-0.0472332
-0.0472332
-0.195038
-0.195038
0.0307365
0.0307365
-0.0140714
-0.0140714
-0.00942816
-0.00942816
0.0629155
0.0629155
0.0311603
0.0311603
-0.00911763
-0.00911763
-0.000353791
-0.000353791
-0.0171723
-0.0171723
-0.0192106
-0.0192106
-0.0743071
-0.0743071
-0.0497638
-0.0497638
-0.0496326
-0.0496326
-0.0444972
-0.0444972
-0.066102
-0.066102
-0.015749
-0.015749
0.016602
0.016602
0.0464738
0.0464738
-0.031286
-0.031286
-0.0475935
-0.0475935
-0.0195476
-0.0195476
-0.281456
-0.281456
0.00797507
0.00797507
0.0303761
0.0303761
-0.148871
-0.148871
0.0361471
0.0361471
-0.0233925
-0.0233925
0.0196325
0.0196325
-0.256985
-0.256985
-0.0315591
-0.0315591
0.0285592
0.0285592
-0.183897
-0.183897
-0.0865448
-0.0865448
-0.0474716
-0.0474716
-0.184262
-0.184262
-0.0180317
-0.0180317
-0.0173858
-0.0173858
-0.0607574
-0.0607574
-0.25524
-0.25524
-0.0633126
-0.0633126
-0.00729745
-0.00729745
-0.0200094
-0.0200094
0.00467268
0.00467268
-0.127537
-0.127537
-0.0673763
-0.0673763
0.0106744
0.0106744
-0.0578763
-0.0578763
-0.02268
-0.02268
-0.0207349
-0.0207349
-0.0961651
-0.0961651
-0.104742
-0.104742
-0.149606
-0.149606
-0.00215107
-0.00215107
-0.0342486
-0.0342486
-0.0576995
-0.0576995
-0.03167
-0.03167
-0.0368332
-0.0368332
0.00363603
0.00363603
-0.0501648
-0.0501648
0.0201578
0.0201578
-0.0365621
-0.0365621
-0.0285865
-0.0285865
-0.0116218
-0.0116218
0.0355058
0.0355058
-0.0812505
-0.0812505
-0.104337
-0.104337
-0.0106241
-0.0106241
-0.118426
-0.118426
-0.02779
-0.02779
-0.184344
-0.184344
-0.30624
-0.30624
0.0182063
0.0182063
0.0344029
0.0344029
0.0181622
0.0181622
-0.0733039
-0.0733039
0.000683885
0.000683885
-0.00373795
-0.00373795
-0.125973
-0.125973
-0.00851033
-0.00851033
-0.00962663
-0.00962663
0.00518115
0.00518115
-0.00621982
-0.00621982
-0.0740933
-0.0740933
-0.203365
-0.203365
-0.00430087
-0.00430087
-0.000346737
-0.000346737
-0.020839
-0.020839
-0.0227748
-0.0227748
-0.15294
-0.15294
-0.00765679
-0.00765679
-0.11661
-0.11661
0.00579192
0.00579192
-0.0546837
-0.0546837
-0.0361823
-0.0361823
0.0211161
0.0211161
-0.03122
-0.03122
0.0123148
0.0123148
0.010669
0.010669
-0.0287176
-0.0287176
-0.00546771
-0.00546771
-0.0394982
-0.0394982
-0.0425702
-0.0425702
-0.0137812
-0.0137812
0.0348743
0.0348743
-0.0321663
-0.0321663
-0.0507298
-0.0507298
0.0343244
0.0343244
-0.00745015
-0.00745015
-0.0909351
-0.0909351
-0.00395422
-0.00395422
-0.0586803
-0.0586803
-0.174793
-0.174793
-0.0229797
-0.0229797
-0.0435263
-0.0435263
-0.0765815
-0.0765815
0.051206
0.051206
0.0190563
0.0190563
-0.0422776
-0.0422776
0.0129967
0.0129967
-0.0055914
-0.0055914
-0.0471833
-0.0471833
-0.0399998
-0.0399998
-0.0375733
-0.0375733
-0.00941637
-0.00941637
0.000219513
0.000219513
-0.0343178
-0.0343178
-0.0357858
-0.0357858
-0.0125752
-0.0125752
-0.024307
-0.024307
-0.253228
-0.253228
-0.00879804
-0.00879804
-0.0302704
-0.0302704
-0.0388594
-0.0388594
-0.0168994
-0.0168994
0.0186945
0.0186945
-0.0223616
-0.0223616
-0.0363022
-0.0363022
0.0173138
0.0173138
0.00581552
0.00581552
-0.059857
-0.059857
-0.0451143
-0.0451143
-0.114331
-0.114331
-0.0185496
-0.0185496
0.00451765
0.00451765
-0.0148562
-0.0148562
-0.011719
-0.011719
-0.0693098
-0.0693098
-0.00839819
-0.00839819
-0.0240307
-0.0240307
-0.0223295
-0.0223295
-0.129922
-0.129922
-0.0140079
-0.0140079
-0.0152258
-0.0152258
-0.0346036
-0.0346036
-0.108179
-0.108179
-0.00354644
-0.00354644
-0.122095
-0.122095
-0.00380165
-0.00380165
-0.157123
-0.157123
-0.130479
-0.130479
-0.000724987
-0.000724987
0.0322914
0.0322914
0.0103932
0.0103932
-0.0959624
-0.0959624
-0.00290362
-0.00290362
-0.0284433
-0.0284433
-0.148562
-0.148562
0.0409497
0.0409497
-0.0952283
-0.0952283
-0.0336062
-0.0336062
-0.0889538
-0.0889538
-0.124095
-0.124095
0.053693
0.053693
-0.0196238
-0.0196238
-0.0493101
-0.0493101
-0.0114184
-0.0114184
-0.0528589
-0.0528589
-0.0125265
-0.0125265
-0.0166315
-0.0166315
-0.0336402
-0.0336402
-0.0911963
-0.0911963
-0.0595869
-0.0595869
0.00592961
0.00592961
-0.101187
-0.101187
-0.0434498
-0.0434498
-0.0510395
-0.0510395
-0.077983
-0.077983
-0.0996221
-0.0996221
-0.0618682
-0.0618682
0.0200202
0.0200202
-0.229173
-0.229173
0.0119451
0.0119451
-0.0584889
-0.0584889
-0.0267466
-0.0267466
-0.143817
-0.143817
-0.0842332
-0.0842332
0.0430665
0.0430665
-0.0748557
-0.0748557
-0.109824
-0.109824
-0.0328911
-0.0328911
-0.0952713
-0.0952713
-0.153089
-0.153089
0.0471946
0.0471946
-0.0347977
-0.0347977
-6.97244e-05
-6.97244e-05
-0.0124011
-0.0124011
-0.132032
-0.132032
-0.127244
-0.127244
-0.00647867
-0.00647867
-0.0378551
-0.0378551
0.0243488
0.0243488
-0.0921094
-0.0921094
-0.00684619
-0.00684619
-0.207812
-0.207812
-0.150235
-0.150235
-0.0227115
-0.0227115
-0.0239712
-0.0239712
-0.125565
-0.125565
-0.0494898
-0.0494898
0.0743965
0.0743965
-0.107288
-0.107288
0.06931
0.06931
-0.0283143
-0.0283143
-0.0268734
-0.0268734
-0.121445
-0.121445
-0.0164889
-0.0164889
-0.00416123
-0.00416123
-0.0242111
-0.0242111
-0.0352855
-0.0352855
-0.0285539
-0.0285539
-0.0288007
-0.0288007
0.00137675
0.00137675
-0.0189925
-0.0189925
-0.0766341
-0.0766341
-0.0253326
-0.0253326
-0.031184
-0.031184
-0.0221115
-0.0221115
-0.0104238
-0.0104238
-0.0374907
-0.0374907
0.0133455
0.0133455
-0.0257603
-0.0257603
0.00462346
0.00462346
-0.0154018
-0.0154018
-0.166917
-0.166917
-0.03038
-0.03038
-0.049252
-0.049252
0.0270442
0.0270442
-0.0136628
-0.0136628
0.0095823
0.0095823
-0.0278898
-0.0278898
-0.133468
-0.133468
-0.00992817
-0.00992817
-0.111496
-0.111496
-0.0245769
-0.0245769
-0.00492932
-0.00492932
-0.0287281
-0.0287281
-0.0290634
-0.0290634
-0.0269831
-0.0269831
-0.037319
-0.037319
-0.0571385
-0.0571385
0.0563029
0.0563029
0.00176365
0.00176365
-0.00431554
-0.00431554
-0.0577488
-0.0577488
0.0345646
0.0345646
-0.0158386
-0.0158386
-0.00883938
-0.00883938
-0.031815
-0.031815
-0.0267573
-0.0267573
-0.00434875
-0.00434875
-0.0198123
-0.0198123
-0.00094369
-0.00094369
-0.0108679
-0.0108679
-0.0385106
-0.0385106
0.00740956
0.00740956
-0.0725087
-0.0725087
-0.0355454
-0.0355454
0.0720204
0.0720204
-0.00960382
-0.00960382
0.0227661
0.0227661
-0.022081
-0.022081
-0.196698
-0.196698
-0.166408
-0.166408
-0.0713515
-0.0713515
0.04358
0.04358
-0.110066
-0.110066
-0.00278721
-0.00278721
-0.0120691
-0.0120691
-0.0135685
-0.0135685
-0.00369524
-0.00369524
-0.0293733
-0.0293733
-0.0370957
-0.0370957
-0.0109788
-0.0109788
-0.0539282
-0.0539282
-0.245862
-0.245862
-0.0189823
-0.0189823
-0.0290732
-0.0290732
-0.0197721
-0.0197721
-0.0671369
-0.0671369
0.0210447
0.0210447
-0.110389
-0.110389
-0.00527836
-0.00527836
0.0315967
0.0315967
-0.00546325
-0.00546325
-0.0134894
-0.0134894
-0.171609
-0.171609
-0.171384
-0.171384
-0.148874
-0.148874
-0.00283905
-0.00283905
0.00701249
0.00701249
-0.0332914
-0.0332914
-0.00802719
-0.00802719
-0.0114642
-0.0114642
-0.0129096
-0.0129096
-0.00659893
-0.00659893
0.0405327
0.0405327
-0.183933
-0.183933
-0.0112296
-0.0112296
-0.00118868
-0.00118868
-0.00668954
-0.00668954
-0.0161174
-0.0161174
-0.00836902
-0.00836902
0.0138781
0.0138781
-0.103187
-0.103187
-0.0219451
-0.0219451
-0.0583326
-0.0583326
-0.111816
-0.111816
-0.037985
-0.037985
-0.149614
-0.149614
-0.0500936
-0.0500936
-0.0478744
-0.0478744
-0.00363284
-0.00363284
-0.0177156
-0.0177156
0.0397997
0.0397997
0.0579396
0.0579396
-0.0120807
-0.0120807
-0.00641216
-0.00641216
0.0126167
0.0126167
-0.0776413
-0.0776413
-0.00731759
-0.00731759
0.0290985
0.0290985
-0.0280818
-0.0280818
-6.83491e-05
-6.83491e-05
-0.0109692
-0.0109692
-0.0158893
-0.0158893
-0.143196
-0.143196
0.0574414
0.0574414
-0.00794944
-0.00794944
-0.0527751
-0.0527751
-0.0789693
-0.0789693
-0.0869223
-0.0869223
-0.0116295
-0.0116295
-0.00646491
-0.00646491
-0.106553
-0.106553
0.0146582
0.0146582
-0.142008
-0.142008
-0.185964
-0.185964
0.0147115
0.0147115
-0.0120368
-0.0120368
-0.132101
-0.132101
-0.0251946
-0.0251946
-0.0332083
-0.0332083
-0.0551452
-0.0551452
-0.0182288
-0.0182288
0.0298517
0.0298517
-0.12371
-0.12371
-0.0484889
-0.0484889
0.0191064
0.0191064
-0.108006
-0.108006
-0.0295908
-0.0295908
-0.024996
-0.024996
-0.0108339
-0.0108339
-0.00850043
-0.00850043
-0.0346911
-0.0346911
-0.064238
-0.064238
-0.0124044
-0.0124044
0.0321858
0.0321858
-0.301544
-0.301544
0.00378847
0.00378847
-0.0156955
-0.0156955
-0.0436376
-0.0436376
0.0190397
0.0190397
-0.0419279
-0.0419279
-0.0202077
-0.0202077
-0.0288557
-0.0288557
-0.00395827
-0.00395827
0.00864054
0.00864054
0.00576094
0.00576094
0.0106474
0.0106474
-0.151525
-0.151525
-0.041961
-0.041961
0.00585495
0.00585495
0.0399744
0.0399744
0.00794191
0.00794191
0.0381223
0.0381223
-0.0185789
-0.0185789
0.00899534
0.00899534
-0.0181797
-0.0181797
-0.0211939
-0.0211939
-0.257862
-0.257862
0.0141432
0.0141432
-0.216586
-0.216586
0.0365813
0.0365813
0.00254777
0.00254777
-0.0399387
-0.0399387
-0.0220749
-0.0220749
-0.0694547
-0.0694547
-0.0782212
-0.0782212
-0.0257562
-0.0257562
-0.00311426
-0.00311426
0.0397425
0.0397425
-0.0910346
-0.0910346
-0.0236509
-0.0236509
-0.0197046
-0.0197046
0.0542896
0.0542896
0.00112881
0.00112881
-0.00498314
-0.00498314
0.000486752
0.000486752
-0.00903591
-0.00903591
-0.0576133
-0.0576133
-0.122855
-0.122855
-0.140894
-0.140894
-0.0217547
-0.0217547
0.0291546
0.0291546
-0.143394
-0.143394
-0.0562193
-0.0562193
0.0535679
0.0535679
-0.00681305
-0.00681305
0.00136558
0.00136558
-0.0394586
-0.0394586
-0.0322602
-0.0322602
-0.00926476
-0.00926476
-0.137174
-0.137174
0.082612
0.082612
-0.0982638
-0.0982638
-0.00918086
-0.00918086
-0.041936
-0.041936
-0.180259
-0.180259
0.00714801
0.00714801
-0.0343636
-0.0343636
-0.15763
-0.15763
0.0591588
0.0591588
-0.00430939
-0.00430939
0.0081684
0.0081684
-0.0249405
-0.0249405
0.0337199
0.0337199
-0.00216152
-0.00216152
-0.00677801
-0.00677801
-0.046502
-0.046502
-0.0758833
-0.0758833
-0.230448
-0.230448
-0.180405
-0.180405
0.0213087
0.0213087
-0.170287
-0.170287
-0.033139
-0.033139
-0.0164457
-0.0164457
0.00235225
0.00235225
-0.0539304
-0.0539304
0.012907
0.012907
-0.00691824
-0.00691824
0.0109964
0.0109964
-0.00609162
-0.00609162
5.05454e-05
5.05454e-05
-0.0465441
-0.0465441
-0.0279797
-0.0279797
-0.00602413
-0.00602413
-0.0910848
-0.0910848
0.00446098
0.00446098
-0.0349892
-0.0349892
-0.0405256
-0.0405256
0.0293837
0.0293837
-0.0457905
-0.0457905
-0.0213473
-0.0213473
0.0458563
0.0458563
0.0119833
0.0119833
0.042299
0.042299
-0.0558587
-0.0558587
-0.0021746
-0.0021746
-0.116042
-0.116042
-0.035017
-0.035017
-0.171929
-0.171929
-0.0937011
-0.0937011
-0.172202
-0.172202
-0.0138798
-0.0138798
-0.120001
-0.120001
0.00396539
0.00396539
-0.0315622
-0.0315622
-0.15121
-0.15121
-0.172183
-0.172183
0.0257654
0.0257654
-0.0346852
-0.0346852
0.0317351
0.0317351
0.0408873
0.0408873
-0.0633324
-0.0633324
-0.160556
-0.160556
-0.00578938
-0.00578938
0.0148689
0.0148689
0.0105286
0.0105286
0.0311328
0.0311328
-0.0855592
-0.0855592
-0.0315408
-0.0315408
0.00340334
0.00340334
-0.031765
-0.031765
-0.0349639
-0.0349639
-0.0441138
-0.0441138
0.0172169
0.0172169
-0.0948605
-0.0948605
-0.0116044
-0.0116044
-0.0106523
-0.0106523
-0.0214509
-0.0214509
-0.0313697
-0.0313697
-0.00914667
-0.00914667
-0.104414
-0.104414
-0.148245
-0.148245
-0.0226489
-0.0226489
-0.00522911
-0.00522911
-0.0334847
-0.0334847
0.00712483
0.00712483
-0.153749
-0.153749
-0.00235028
-0.00235028
0.0431229
0.0431229
-0.186577
-0.186577
-0.00315692
-0.00315692
-0.0475565
-0.0475565
-0.0525326
-0.0525326
-0.117039
-0.117039
-0.0261168
-0.0261168
-0.028337
-0.028337
-0.00410097
-0.00410097
-0.132588
-0.132588
-0.0333882
-0.0333882
-0.0887522
-0.0887522
0.00240679
0.00240679
-0.0129209
-0.0129209
0.0148237
0.0148237
0.0220736
0.0220736
-0.0625568
-0.0625568
0.00414486
0.00414486
0.0043355
0.0043355
0.00328785
0.00328785
0.000815079
0.000815079
-0.00565726
-0.00565726
-0.0361712
-0.0361712
-0.0364735
-0.0364735
-0.0774889
-0.0774889
-0.0121124
-0.0121124
0.0353122
0.0353122
-0.0400033
-0.0400033
-0.120441
-0.120441
0.0268347
0.0268347
-0.0395464
-0.0395464
-0.0132877
-0.0132877
-0.0367799
-0.0367799
-0.0269772
-0.0269772
-0.0216807
-0.0216807
-0.0121111
-0.0121111
-0.100534
-0.100534
-0.0137905
-0.0137905
-0.021587
-0.021587
-0.0210956
-0.0210956
-0.125247
-0.125247
-0.202082
-0.202082
-0.0262529
-0.0262529
-0.013296
-0.013296
-0.128866
-0.128866
-0.0291608
-0.0291608
-0.0126866
-0.0126866
-0.0844277
-0.0844277
-0.09061
-0.09061
-0.0375501
-0.0375501
-0.00857512
-0.00857512
-0.0708697
-0.0708697
0.0119851
0.0119851
0.0243475
0.0243475
0.00240328
0.00240328
-0.00750452
-0.00750452
-0.0248328
-0.0248328
0.0242931
0.0242931
0.0634064
0.0634064
-0.129748
-0.129748
-0.0184089
-0.0184089
-0.0247386
-0.0247386
-0.0549288
-0.0549288
-0.0398763
-0.0398763
0.0149182
0.0149182
-0.0453432
-0.0453432
0.0240369
0.0240369
-0.10548
-0.10548
-0.150739
-0.150739
0.0712413
0.0712413
-0.120682
-0.120682
-0.145945
-0.145945
-0.0966693
-0.0966693
-0.0509106
-0.0509106
-0.0192794
-0.0192794
-0.0188847
-0.0188847
-0.0734809
-0.0734809
-0.0511014
-0.0511014
0.00140365
0.00140365
-0.016801
-0.016801
-0.00838298
-0.00838298
0.0164066
0.0164066
-0.0472488
-0.0472488
-0.106003
-0.106003
-0.220789
-0.220789
-0.152597
-0.152597
-0.0855091
-0.0855091
-0.0589393
-0.0589393
-0.262728
-0.262728
-0.0125808
-0.0125808
-0.113777
-0.113777
0.0270122
0.0270122
-0.00386452
-0.00386452
-0.15272
-0.15272
-0.0504535
-0.0504535
-0.0441857
-0.0441857
-0.117054
-0.117054
-0.00988224
-0.00988224
-0.0155813
-0.0155813
-0.0094353
-0.0094353
-0.0227213
-0.0227213
-0.115257
-0.115257
-0.0145869
-0.0145869
-0.0113151
-0.0113151
-0.0104293
-0.0104293
-0.00226004
-0.00226004
-0.0866118
-0.0866118
-0.00520402
-0.00520402
-0.157703
-0.157703
-0.258902
-0.258902
-0.0264783
-0.0264783
0.021856
0.021856
-0.0473639
-0.0473639
-0.049205
-0.049205
-0.0183422
-0.0183422
-0.0652733
-0.0652733
0.0123838
0.0123838
-0.0124701
-0.0124701
-0.00953088
-0.00953088
-0.00775211
-0.00775211
-0.00670416
-0.00670416
-0.0052774
-0.0052774
-0.00417054
-0.00417054
-0.00311724
-0.00311724
-0.00216542
-0.00216542
-0.00137491
-0.00137491
-0.000582392
-0.000582392
8.16644e-05
8.16644e-05
0.000673632
0.000673632
0.0012458
0.0012458
0.00160304
0.00160304
0.0019295
0.0019295
0.0022325
0.0022325
0.00234813
0.00234813
0.00245541
0.00245541
0.00239828
0.00239828
0.00238401
0.00238401
0.00216533
0.00216533
0.00183217
0.00183217
0.001583
0.001583
0.00112479
0.00112479
0.000618505
0.000618505
-8.49783e-05
-8.49783e-05
-0.000677587
-0.000677587
-0.00131978
-0.00131978
-0.00234088
-0.00234088
-0.00316592
-0.00316592
-0.00465503
-0.00465503
-0.00550675
-0.00550675
-0.0064383
-0.0064383
-0.00862575
-0.00862575
-0.0102823
-0.0102823
-0.0108821
-0.0108821
-0.0128994
-0.0128994
-0.0166806
-0.0166806
-0.0183432
-0.0183432
-0.0202639
-0.0202639
-0.0250851
-0.0250851
-0.029657
-0.029657
-0.0349178
-0.0349178
-0.0423754
-0.0423754
-0.0551689
-0.0551689
-0.0677081
-0.0677081
-0.0932663
-0.0932663
-0.109721
-0.109721
-0.0534205
-0.0534205
0.00622543
0.00622543
-0.0154649
-0.0154649
-0.0224888
-0.0224888
-0.0179457
-0.0179457
-0.018045
-0.018045
-0.0169977
-0.0169977
-0.0232411
-0.0232411
-0.0335083
-0.0335083
-0.0397783
-0.0397783
-0.0463882
-0.0463882
-0.0526434
-0.0526434
-0.0570288
-0.0570288
-0.0581097
-0.0581097
-0.0566135
-0.0566135
-0.0537351
-0.0537351
-0.0493337
-0.0493337
-0.0439558
-0.0439558
-0.0378827
-0.0378827
-0.0322643
-0.0322643
-0.0268352
-0.0268352
-0.0226217
-0.0226217
-0.0207581
-0.0207581
-0.0189289
-0.0189289
-0.0108359
-0.0108359
-0.0100585
-0.0100585
-0.00870713
-0.00870713
-0.00663833
-0.00663833
-0.00551674
-0.00551674
-0.00475739
-0.00475739
-0.00315718
-0.00315718
-0.00245896
-0.00245896
-0.00131174
-0.00131174
-0.000663056
-0.000663056
-8.19688e-05
-8.19688e-05
0.000645523
0.000645523
0.00112233
0.00112233
0.00157205
0.00157205
0.00180583
0.00180583
0.00221404
0.00221404
0.00230979
0.00230979
0.00239057
0.00239057
0.00233155
0.00233155
0.00240706
0.00240706
0.00219919
0.00219919
0.00190657
0.00190657
0.00165023
0.00165023
0.001164
0.001164
0.000692047
0.000692047
0.00010227
0.00010227
-0.000606463
-0.000606463
-0.0013287
-0.0013287
-0.00221575
-0.00221575
-0.00316042
-0.00316042
-0.00426383
-0.00426383
-0.00532587
-0.00532587
-0.00657225
-0.00657225
-0.00789941
-0.00789941
-0.00966863
-0.00966863
-0.0126694
-0.0126694
-0.0185926
-0.0185926
-0.0208116
-0.0208116
-0.0226488
-0.0226488
-0.0269308
-0.0269308
-0.0322584
-0.0322584
-0.0382555
-0.0382555
-0.0445718
-0.0445718
-0.0499055
-0.0499055
-0.0543898
-0.0543898
-0.0572594
-0.0572594
-0.0582544
-0.0582544
-0.0570105
-0.0570105
-0.0535218
-0.0535218
-0.0457983
-0.0457983
-0.0378729
-0.0378729
-0.0297977
-0.0297977
-0.0239127
-0.0239127
-0.0205409
-0.0205409
-0.0158311
-0.0158311
-0.0163625
-0.0163625
-0.017787
-0.017787
-0.0146347
-0.0146347
-0.0048538
-0.0048538
-0.0445334
-0.0445334
-0.102383
-0.102383
-0.101111
-0.101111
-0.07399
-0.07399
-0.0523357
-0.0523357
-0.0445184
-0.0445184
-0.0333948
-0.0333948
-0.0290563
-0.0290563
-0.0262255
-0.0262255
-0.0208844
-0.0208844
-0.017565
-0.017565
-0.0164453
-0.0164453
-0.0138314
-0.0138314
      </DataArray> 
    </PointData>
    <CellData>
    </CellData>
  </Piece>
  </UnstructuredGrid>
</VTKFile>
