<?xml version="1.0"?>
<VTKFile type="UnstructuredGrid">
  <UnstructuredGrid>
  <Piece NumberOfPoints="3487"  NumberOfCells="1698">
    <Points>
      <DataArray type="Float64" NumberOfComponents="3" format="ascii">
39.9726 48.53 0
60.0281 48.5289 0
40.6339 48.661 0
41.2966 48.7831 0
41.9604 48.8962 0
42.6256 49.0003 0
43.292 49.0953 0
43.9596 49.1813 0
44.6282 49.2582 0
45.2977 49.3261 0
45.968 49.385 0
46.6391 49.4348 0
47.3107 49.4755 0
47.9828 49.5072 0
48.6552 49.5298 0
49.3278 49.5434 0
50.0006 49.5479 0
50.6734 49.5433 0
51.346 49.5297 0
52.0185 49.5069 0
52.6905 49.4752 0
53.3621 49.4344 0
54.0331 49.3845 0
54.7034 49.3255 0
55.3729 49.2576 0
56.0415 49.1806 0
56.709 49.0945 0
57.3753 48.9994 0
58.0405 48.8953 0
58.7043 48.7822 0
59.3668 48.66 0
39.9918 49.5465 0
39.9917 49.2924 0
39.9884 49.0384 0
39.9819 48.7842 0
19.8687 69.4242 0
39.9886 49.8081 0
39.9819 50.0697 0
39.9663 50.4481 0
39.9434 50.826 0
39.8977 51.3721 0
39.837 51.9167 0
39.7227 52.7013 0
39.5772 53.4809 0
39.3122 54.5972 0
38.9833 55.6966 0
38.7063 56.4793 0
38.3969 57.2499 0
38.0558 58.007 0
37.6834 58.7493 0
37.0908 59.7945 0
36.4364 60.8023 0
35.7227 61.769 0
-0.0676135 49.3601 0
17.2592 69.2414 0
14.6958 68.7206 0
12.222 67.8706 0
9.87992 66.7057 0
7.70951 65.2457 0
11.5834 31.4985 0
0.143663 46.542 0
0.752558 43.7828 0
1.74732 41.1382 0
0 0 0
0.107528 3.70055 0
0.511538 7.39024 0
1.20241 11.0422 0
2.17453 14.6286 0
3.08584 17.2678 0
49.9996 -0.433794 0
5.1116 0 0
10.2232 0 0
15.3348 0 0
100 0 0
57.4137 -0.420318 0
64.8277 -0.37109 0
72.2323 -0.267581 0
88.4175 31.4976 0
99.8926 3.70056 0
99.4887 7.39001 0
98.7978 11.0419 0
97.8257 14.6283 0
96.9144 17.2674 0
100.068 49.3596 0
99.8565 46.5415 0
99.2477 43.7824 0
98.2529 41.1376 0
80.1313 69.4234 0
99.9059 51.97 0
99.4035 54.5369 0
98.5697 57.0159 0
97.419 59.365 0
95.9716 61.5435 0
60.0087 49.5453 0
77.6201 69.2774 0
75.147 68.8183 0
72.7508 68.0532 0
70.4692 66.9941 0
68.9786 66.099 0
67.5712 65.0781 0
66.2576 63.9389 0
65.0479 62.6901 0
64.2774 61.768 0
63.5637 60.8013 0
62.9093 59.7934 0
62.3167 58.7482 0
61.6033 57.2489 0
61.0169 55.6955 0
60.6881 54.5962 0
60.4231 53.4797 0
60.2776 52.7002 0
60.0088 49.2913 0
60.0122 49.0372 0
60.0187 48.783 0
52.8136 29.8078 0
26.5534 36.6317 0
40.352 23.944 0
24.9689 22.2622 0
71.9014 22.2768 0
72.7002 43.6682 0
54.7932 23.7615 0
15.2786 47.0915 0
38.3562 49.1546 0
23.53 64.9104 0
7.67502 7.70352 0
91.9663 7.68119 0
29.1269 56.5813 0
37.1699 51.6219 0
28.0843 46.907 0
29.7216 47.8688 0
71.5177 46.3929 0
30.9782 48.7676 0
70.5211 47.8694 0
31.6389 45.3615 0
30.8853 46.8133 0
70.0654 46.3834 0
68.9792 44.7117 0
31.279 49.8615 0
30.887 51.082 0
28.1767 48.8599 0
45.3125 41.0076 0
53.8405 40.6285 0
56.0219 40.1774 0
73.1341 47.1439 0
70.1249 49.1085 0
68.3219 42.1462 0
32.3212 42.4768 0
26.1352 45.3902 0
27.68 44.3988 0
30.3126 43.0324 0
70.4035 42.3435 0
72.6781 45.659 0
44.8526 42.7996 0
51.4297 41.7062 0
55.406 42.2922 0
32.4429 48.806 0
68.5651 49.3468 0
39.4853 41.7902 0
35.4477 43.1031 0
32.8954 46.2598 0
33.5733 48.0064 0
67.1083 47.9497 0
67.9823 46.1885 0
65.0643 42.7658 0
60.4109 41.4274 0
32.3518 51.1212 0
28.1983 50.7153 0
41.7885 37.0155 0
46.8274 37.4194 0
52.0471 39.5913 0
58.669 38.961 0
26.5823 51.6072 0
24.2797 50.04 0
74.2443 49.6499 0
71.1816 50.3561 0
69.1626 51.9377 0
67.9369 52.0735 0
59.7499 36.0827 0
66.4899 40.3956 0
34.1201 40.7723 0
36.0434 35.5165 0
23.1731 46.8762 0
21.6476 42.9892 0
28.3644 41.5177 0
74.3164 44.4198 0
76.6521 48.2556 0
43.0585 43.3873 0
46.2713 42.6734 0
49.9683 42.7212 0
48.434 42.5041 0
51.7624 43.7584 0
54.0864 43.8741 0
52.9048 44.1697 0
56.2692 43.4227 0
33.8743 49.1009 0
33.7699 50.6125 0
66.553 51.4258 0
66.6046 49.4369 0
41.8366 43.6246 0
40.7084 43.3619 0
38.4678 42.9683 0
37.149 43.5721 0
35.3501 45.2768 0
34.3266 46.5536 0
66.0224 46.277 0
65.0145 45.0062 0
63.1827 43.2553 0
61.6971 42.8073 0
58.8734 43.2219 0
57.535 43.5384 0
33.3778 51.8337 0
29.1393 53.4335 0
40.8494 30.7433 0
50.8842 35.7336 0
55.6592 34.0168 0
23.528 53.1448 0
76.946 51.615 0
70.2636 53.0413 0
66.4282 52.6661 0
65.4524 34.9019 0
30.9771 34.3235 0
19.4295 46.9898 0
26.1434 39.7581 0
71.9757 33.8473 0
72.0412 41.1057 0
77.4897 45.0171 0
43.1702 44.8292 0
45.8116 44.4656 0
48.7655 44.5564 0
51.443 45.1847 0
53.7677 45.3004 0
56.2157 45.1206 0
34.9006 49.813 0
65.0958 50.0286 0
40.8193 44.8036 0
38.3718 45.1442 0
36.0289 47.0244 0
64.1395 46.7686 0
61.6455 45.0503 0
58.8209 44.9196 0
36.0507 52.0879 0
34.8962 52.8477 0
33.4781 53.3557 0
31.8696 55.1423 0
26.0434 58.5926 0
22.9497 56.9912 0
32.4265 22.4716 0
47.0426 26.4284 0
63.1144 22.803 0
19.9466 54.6968 0
80.2293 53.9627 0
75.8414 55.4784 0
71.9761 55.8393 0
69.1242 55.1677 0
65.7992 53.6754 0
64.122 53.5241 0
68.1239 28.7579 0
26.8103 29.8524 0
17.2026 51.4282 0
14.5915 42.1492 0
22.4339 33.8214 0
84.9192 46.5538 0
84.7609 51.6935 0
75.1486 37.6749 0
81.2192 43.6508 0
42.4587 46.1594 0
41.4185 45.9675 0
44.9672 46.0051 0
43.6813 45.922 0
47.7372 45.9463 0
46.3869 45.8789 0
50.6201 46.2595 0
49.2725 46.1634 0
53.0502 46.6544 0
51.763 46.6707 0
55.5119 46.2667 0
54.2324 46.3588 0
58.0597 46.22 0
56.7786 46.3825 0
36.37 48.3462 0
36.0198 49.3462 0
35.9152 50.8589 0
63.4016 51.7931 0
63.8415 50.7799 0
63.8933 48.7896 0
63.8395 47.8877 0
40.2897 45.7044 0
39.3739 45.8832 0
38.0541 46.4862 0
37.394 47.0691 0
62.8314 46.6166 0
62.0148 46.2933 0
60.5283 45.8463 0
59.399 45.903 0
38.0419 52.2944 0
36.1507 53.6112 0
34.0355 56.4647 0
29.5436 59.5182 0
22.8078 61.0451 0
21.7583 15.2653 0
39.9813 15.9756 0
48.9021 11.2448 0
56.931 16.6988 0
76.6219 15.4913 0
15.5776 56.729 0
84.5827 57.1627 0
73.467 59.1743 0
66.5543 55.3322 0
62.4794 53.2997 0
82.942 7.7729 0
79.7126 22.4235 0
16.3046 7.85725 0
18.3737 22.1491 0
10.6867 46.4367 0
16.6061 35.7484 0
15.5673 30.1851 0
89.4487 49.305 0
83.267 31.0222 0
81.5633 39.0283 0
41.9293 47.0607 0
44.2564 47.3356 0
46.8935 47.4861 0
49.592 47.6496 0
52.2272 47.7293 0
54.7945 47.6209 0
57.3561 47.3663 0
37.3851 49.392 0
37.9066 51.0644 0
62.1988 50.5541 0
62.5847 48.6384 0
39.9727 47.0477 0
38.3961 47.8089 0
38.5091 48.5786 0
61.7674 48.2761 0
61.714 47.4133 0
59.7676 47.1474 0
38.8776 50.8278 0
61.3596 50.7609 0
39.178 52.6089 0
38.4413 53.1659 0
38.1444 54.2736 0
36.9901 55.0327 0
36.4782 56.8035 0
34.8232 58.3193 0
33.3076 60.1701 0
30.6817 62.2696 0
27.9124 64.4101 0
27.184 7.67165 0
38.6616 8.11853 0
59.8715 8.33732 0
71.7527 7.7402 0
19.1558 64.3422 0
14.8623 62.5976 0
10.6677 59.8011 0
6.22491 56.7486 0
5.94733 50.821 0
94.2892 51.9158 0
93.3848 56.9677 0
89.406 60.3195 0
84.6577 62.842 0
79.5532 64.5271 0
74.6493 63.5763 0
70.3349 62.3105 0
66.891 60.8703 0
65.2647 58.2056 0
62.7582 56.8892 0
62.1084 55.363 0
61.8114 54.2553 0
61.091 52.5236 0
93.5112 14.482 0
89.7929 20.6019 0
86.0849 24.8938 0
6.23493 14.4763 0
13.0304 24.3689 0
9.79124 20.5947 0
5.72533 45.26 0
5.63916 40.3231 0
12.3293 34.4696 0
94.2688 46.8036 0
88.1096 36.7949 0
93.3813 42.0873 0
41.0922 47.826 0
40.431 47.6994 0
42.1333 48.0178 0
43.4645 48.2168 0
42.7976 48.1263 0
44.7512 48.2999 0
46.0908 48.4266 0
45.4201 48.3723 0
47.4416 48.4941 0
48.7859 48.5484 0
48.1134 48.5303 0
50.1339 48.6444 0
51.4791 48.6262 0
50.8066 48.6444 0
52.7667 48.6099 0
54.1091 48.5192 0
53.4385 48.5736 0
55.3891 48.4271 0
56.7249 48.2641 0
56.0581 48.3546 0
58.007 48.1016 0
59.3325 47.8664 0
58.6713 47.9929 0
39.361 51.2816 0
39.3078 51.8268 0
60.9612 51.7416 0
60.908 51.1964 0
38.0055 50.1554 0
39.1297 49.3422 0
61.7994 49.747 0
61.8214 49.1786 0
60.982 49.385 0
39.5144 47.8778 0
39.17 47.9959 0
60.9502 47.9533 0
60.4627 47.8093 0
39.46 50.3721 0
60.5085 50.3891 0
39.4842 49.7323 0
39.4792 49.9939 0
60.4893 50.011 0
60.4844 49.7494 0
39.6374 49.156 0
39.6276 48.6481 0
39.6357 48.902 0
60.5061 49.1805 0
60.5079 48.9266 0
60.5161 48.6727 0
61.0039 48.8164 0
39.2828 48.766 0
60.9602 49.9536 0
38.9765 49.9184 0
60.8974 47.09 0
39.0563 47.2258 0
62.6388 49.5407 0
37.0344 50.3924 0
61.7591 51.568 0
38.7786 51.7372 0
58.6378 47.2037 0
56.0745 47.5287 0
53.5147 47.713 0
50.9398 47.7456 0
48.2441 47.5535 0
45.5428 47.4186 0
42.97 47.2524 0
40.8888 46.8686 0
89.1788 44.4728 0
10.9142 40.615 0
13.2799 16.075 0
85.8795 16.2772 0
63.2 55.031 0
68.9643 58.1796 0
79.0038 59.5464 0
89.3466 54.5786 0
11.7216 52.5336 0
19.1732 59.369 0
66.6889 15.5477 0
30.7839 15.2813 0
26.2926 61.8278 0
32.1181 57.6986 0
34.9961 54.3706 0
37.3051 52.8517 0
62.531 47.7362 0
37.7353 48.3915 0
75.9064 28.4659 0
20.5485 28.3818 0
47.9184 19.0481 0
60.1597 44.6024 0
63.1321 45.4972 0
37.052 45.7471 0
39.6908 44.5404 0
65.1482 48.0392 0
65.0445 52.0185 0
34.7958 51.3252 0
35.0046 48.301 0
57.482 45.2363 0
54.9495 45.0047 0
52.5858 45.596 0
50.3005 44.7735 0
47.2307 44.3393 0
44.3923 44.5917 0
41.9479 45.0664 0
74.3382 42.4303 0
80.2869 48.5869 0
17.9915 43.0589 0
21.2855 50.4969 0
34.4671 29.4719 0
59.9684 30.016 0
67.8122 53.3136 0
73.4282 52.7395 0
54.4569 38.5138 0
46.5141 32.673 0
26.1988 55.1045 0
31.9596 52.3421 0
69.7465 39.7789 0
30.9944 40.1486 0
57.588 41.8408 0
63.2341 41.0137 0
66.897 44.5158 0
33.6481 44.807 0
37.245 41.3972 0
41.7253 42.1829 0
68.0619 50.8338 0
32.7437 49.9004 0
53.2237 42.7434 0
49.6364 40.669 0
74.2947 46.4098 0
25.7313 42.884 0
71.9737 47.8784 0
26.5391 47.8979 0
69.0688 47.8605 0
32.1418 47.712 0
71.0622 44.9073 0
29.6287 45.9154 0
29.814 49.8228 0
88.1301 34.1537 0
96.8916 38.6624 0
91.2876 35.4709 0
92.2322 38.3193 0
96.0817 37.5042 0
88.5046 40.5105 0
3.10858 38.6628 0
11.9062 32.9392 0
10.0215 34.7684 0
3.91871 37.5047 0
8.32045 37.245 0
11.7006 36.7881 0
11.4101 22.4834 0
11.0073 26.3199 0
9.38732 24.4391 0
11.8973 28.7767 0
4.1473 19.8479 0
5.35551 22.3602 0
8.24542 22.6911 0
11.5343 18.3326 0
13.1527 20.2232 0
8.01139 17.5394 0
6.96767 20.2225 0
5.18878 17.1592 0
6.70582 24.7958 0
7.81117 26.5696 0
4.20392 14.5528 0
9.75548 15.2783 0
87.9396 22.7491 0
90.405 24.4415 0
88.5506 26.5793 0
91.547 22.6939 0
95.8529 19.8476 0
94.6446 22.3598 0
87.6821 29.084 0
85.9849 20.5869 0
87.8375 18.4373 0
91.6538 17.546 0
94.6846 17.1616 0
92.8248 20.2259 0
95.6694 14.5555 0
93.2942 24.7951 0
92.1889 26.5689 0
89.6977 15.3825 0
65.8136 8.021 0
62.3393 3.97927 0
68.2884 3.6765 0
54.9452 3.94308 0
79.5536 0 0
84.6652 0 0
75.6526 3.84079 0
69.2185 11.6387 0
63.2796 11.9418 0
32.9216 7.87673 0
31.1798 3.64032 0
36.9258 3.8716 0
23.816 3.81208 0
20.4464 0 0
27.7686 -0.26665 0
44.3197 3.83135 0
34.7246 11.6993 0
28.9855 11.4729 0
81.6286 34.8621 0
85.399 34.3571 0
85.044 37.9171 0
86.2517 31.4307 0
85.0338 41.9737 0
77.2641 33.8002 0
79.9986 30.9913 0
16.0968 32.6886 0
14.1289 35.0769 0
13.9547 32.6396 0
14.1676 38.281 0
13.5729 30.8477 0
17.654 29.834 0
18.7815 32.7858 0
16.555 27.1708 0
14.1385 28.1316 0
15.7021 23.2565 0
15.8266 19.1111 0
19.4639 25.2621 0
81.5845 27.0997 0
82.8985 23.6568 0
84.8184 28.5111 0
82.7951 19.3474 0
77.8058 25.4405 0
79.7802 11.6275 0
74.1818 11.6265 0
77.3371 7.7731 0
71.65 15.5162 0
81.2521 3.87997 0
84.4123 12.023 0
81.2486 15.8859 0
52.9183 13.9686 0
54.3844 9.78254 0
58.398 12.5171 0
49.4497 5.4036 0
61.8088 16.1164 0
52.4239 17.869 0
48.4102 15.1468 0
44.4403 13.6063 0
39.3243 12.047 0
43.7842 9.67385 0
35.3841 15.622 0
43.951 17.5078 0
19.0318 11.5592 0
21.7522 7.78393 0
24.4761 11.4799 0
18.3713 3.92162 0
26.2762 15.2723 0
17.5202 15.6715 0
14.7907 11.964 0
74.6197 33.8238 0
78.7422 37.2249 0
78.091 40.8023 0
74.7433 40.0521 0
21.4947 31.1002 0
19.391 36.4995 0
17.0746 39.2986 0
19.7488 40.1037 0
73.9392 31.1545 0
73.5608 35.762 0
72.4476 38.7261 0
70.8606 36.8117 0
68.7136 34.3738 0
66.7872 31.8282 0
70.0482 31.3041 0
62.709 32.4599 0
64.0452 29.385 0
72.0141 28.6121 0
67.5976 37.3419 0
32.7232 31.8986 0
35.2559 32.4932 0
33.5105 34.9194 0
33.5209 37.8342 0
36.6445 38.4562 0
30.9866 37.2359 0
59.8586 33.049 0
62.6009 35.4917 0
64.3431 37.9566 0
61.4908 38.549 0
57.8138 32.0153 0
57.7041 35.0499 0
57.1036 37.2978 0
55.0581 36.265 0
46.6709 35.046 0
48.6989 34.2029 0
48.8561 36.5764 0
50.2606 38.2012 0
52.6701 37.1236 0
48.2316 39.044 0
38.9161 36.2655 0
38.4476 33.1306 0
41.3192 33.8788 0
37.6587 30.1064 0
43.6818 31.7075 0
44.1522 34.8444 0
39.5181 39.2073 0
44.308 37.2174 0
46.0703 39.2134 0
43.5192 41.5955 0
47.4746 40.8383 0
43.5502 39.0112 0
41.7572 39.599 0
90.8761 3.84 0
87.4563 7.73211 0
86.3736 3.89952 0
88.9288 11.9873 0
89.7768 0 0
94.8884 0 0
95.9924 3.84616 0
96.5053 10.9448 0
92.7415 11.0799 0
95.7279 7.53934 0
91.0082 28.2887 0
90.3878 29.1262 0
4.09283 7.55042 0
6.95218 11.0882 0
3.36803 10.9417 0
10.4718 11.8967 0
8.992 28.2898 0
9.61233 29.1277 0
3.8284 3.85685 0
13.2504 3.94001 0
11.9878 7.78474 0
8.9447 3.85089 0
35.1718 -0.370514 0
42.5857 -0.419893 0
58.9531 23.2792 0
55.8612 20.2299 0
60.0221 19.7514 0
51.3561 21.4032 0
64.9002 19.1732 0
61.5404 26.4084 0
57.3799 26.8896 0
67.5056 22.5376 0
70.0105 25.5146 0
65.6179 25.7826 0
73.9034 25.3738 0
69.2937 18.9167 0
78.1686 18.9591 0
75.8045 22.3498 0
74.2589 18.878 0
23.3653 18.7592 0
21.6734 22.2048 0
20.0645 18.7087 0
22.7584 25.3245 0
27.8776 18.7776 0
29.6198 26.1656 0
25.8926 26.0548 0
28.6997 22.366 0
23.6804 29.1167 0
31.6061 18.8755 0
33.4481 25.9707 0
30.6396 29.6618 0
40.6015 27.3439 0
43.6977 25.1843 0
43.9469 28.5862 0
44.1354 21.4951 0
47.4807 22.7388 0
46.7786 29.5512 0
37.4108 26.7096 0
36.2052 19.2251 0
40.1679 19.9602 0
36.3905 23.2046 0
26.6845 33.2418 0
24.4936 35.2257 0
24.6238 31.8386 0
22.6074 38.772 0
28.8945 32.0859 0
28.7662 35.4784 0
28.7737 38.3889 0
51.8492 32.7704 0
54.236 31.9122 0
53.2719 34.8748 0
56.3906 29.9108 0
49.6643 31.2398 0
50.9178 25.0929 0
53.8032 26.7847 0
49.9278 28.1176 0
6.56467 36.8251 0
6.97911 38.7818 0
5.2225 38.3666 0
9.61559 38.9327 0
8.27506 40.469 0
4.37341 39.4928 0
4.80971 36.408 0
5.77773 35.3789 0
7.56667 35.8354 0
10.8597 35.7807 0
10.0093 37.0165 0
9.16997 36.0043 0
11.3062 38.6996 0
8.41883 34.5928 0
11.1741 34.6202 0
12.014 35.6273 0
11.7386 30.1465 0
10.2511 29.9482 0
11.0717 29.3576 0
12.4619 26.5734 0
10.4431 28.5324 0
10.9063 30.7447 0
89.749 29.9464 0
88.0503 30.2975 0
88.7185 29.5092 0
89.3471 28.6847 0
86.8856 26.9896 0
89.095 30.7431 0
85.8243 32.8932 0
87.185 32.7992 0
86.7636 34.2604 0
87.3344 31.4671 0
88.2766 32.8224 0
88.1207 35.473 0
86.7543 35.5786 0
84.3281 32.6926 0
84.7598 31.2271 0
86.7752 39.2144 0
86.7693 41.2439 0
85.0398 39.9441 0
88.8423 42.4905 0
87.1071 43.2232 0
83.2984 40.5024 0
83.3033 38.4739 0
86.5768 37.3589 0
88.3081 38.6511 0
79.4455 34.3323 0
78.6307 32.395 0
80.8107 32.9275 0
76.5829 31.1332 0
77.9523 29.7295 0
81.633 31.007 0
82.4459 32.9414 0
81.5959 36.9449 0
80.1858 36.043 0
14.1471 36.6777 0
12.9339 37.5365 0
12.9143 35.934 0
12.5399 39.448 0
13.2293 34.7749 0
15.3677 35.4137 0
15.3872 37.0163 0
12.932 32.7936 0
12.748 31.9005 0
13.7662 31.7434 0
11.7444 32.2181 0
12.5789 31.1769 0
14.5699 30.5169 0
14.7646 31.4138 0
13.1437 33.5579 0
12.1173 33.7036 0
16.8778 31.262 0
18.2195 31.3093 0
17.439 32.7374 0
19.1011 29.1085 0
19.6676 30.5842 0
17.696 34.2688 0
16.3519 34.2183 0
15.8346 31.4364 0
16.6105 30.0098 0
13.8563 29.4902 0
12.7384 29.8063 0
13.0181 28.4507 0
13.5837 26.2505 0
14.855 29.1564 0
16.0617 28.6782 0
17.1061 28.5014 0
18.5531 27.775 0
17.4634 24.6608 0
86.2496 28.7938 0
86.9611 30.2515 0
85.5336 29.9718 0
84.04 29.765 0
85.4516 26.7014 0
82.4241 29.0613 0
80.7886 29.0441 0
80.6491 24.7621 0
78.7439 27.7816 0
80.1519 38.1277 0
79.8271 39.9153 0
78.4166 39.0132 0
76.6188 39.2396 0
76.2145 41.6161 0
76.9452 37.4501 0
15.6213 38.791 0
15.8328 40.7243 0
14.3787 40.214 0
17.5325 41.1779 0
16.2916 42.6051 0
12.7525 41.3841 0
16.8397 37.5228 0
19.5697 38.3012 0
18.4119 39.7016 0
18.2335 37.9002 0
18.8701 41.5815 0
17.9986 36.1243 0
20.914 35.1617 0
20.9989 37.6353 0
20.698 41.546 0
21.1786 39.4386 0
24.5815 37.703 0
22.5218 36.2965 0
19.8199 43.0249 0
22.1277 40.8807 0
24.169 40.8269 0
23.6899 42.9371 0
79.6547 42.2275 0
79.3542 44.3343 0
77.7906 42.9091 0
80.7534 46.1177 0
78.8884 46.8022 0
75.9135 43.7244 0
81.3919 41.3385 0
90.3699 39.4176 0
92.8076 40.2025 0
90.9442 41.2975 0
94.5622 38.4877 0
95.138 40.3755 0
91.281 43.2816 0
90.1725 37.5554 0
93.2391 35.935 0
93.7124 37.3634 0
91.761 36.8944 0
95.1905 36.4078 0
89.7007 36.1362 0
92.2357 34.9462 0
94.2228 35.3783 0
89.524 33.461 0
91.1012 34.114 0
89.7106 34.8095 0
93.1828 34.4226 0
92.0755 33.5459 0
93.8258 44.4448 0
96.3151 42.9311 0
96.7592 45.2928 0
90.9058 32.7553 0
89.6859 32.0645 0
97.1691 48.0786 0
91.7248 45.6364 0
10.4956 32.8467 0
10.9614 33.8485 0
9.5536 33.7645 0
6.81728 34.423 0
7.92464 33.5462 0
5.68088 42.7918 0
3.23828 44.5204 0
3.19512 42.0493 0
2.82781 47.3061 0
9.09305 32.7553 0
10.3156 32.0639 0
8.31787 42.9326 0
66.0779 59.538 0
65.2272 60.8355 0
64.414 59.503 0
65.9693 61.7799 0
60.1633 51.9155 0
60.1027 51.3709 0
63.7906 58.4765 0
67.1143 58.1923 0
67.9274 59.5244 0
68.6129 61.5903 0
68.9527 63.6937 0
67.2311 62.9739 0
70.402 64.6518 0
60.057 50.8249 0
60.0341 50.4469 0
69.6497 60.2448 0
77.1014 64.0514 0
77.3494 66.6717 0
74.8982 66.1966 0
79.8424 66.9746 0
60.0185 50.0685 0
60.0119 49.807 0
72.5586 65.2842 0
76.8259 61.5605 0
79.2786 62.036 0
82.1052 63.6842 0
84.981 65.7799 0
82.4296 66.6223 0
87.3898 64.7721 0
94.2522 63.5148 0
92.2905 65.2451 0
81.8315 61.1935 0
91.3953 58.6436 0
93.8188 60.2401 0
91.8298 61.9158 0
95.4024 58.1652 0
90.1201 66.705 0
87.7779 67.8699 0
89.7632 63.5111 0
89.3764 57.4482 0
91.3662 55.7722 0
93.8371 54.4415 0
96.847 53.2243 0
96.3946 55.7517 0
97.1792 50.6372 0
85.3041 68.7198 0
82.7407 69.2407 0
91.8181 53.2475 0
6.0858 53.7843 0
3.41039 55.6424 0
3.27108 52.6765 0
4.40255 58.056 0
5.74782 63.5154 0
4.02844 61.5441 0
2.93915 50.0895 0
8.83392 51.6776 0
8.97212 54.6389 0
8.44633 58.2748 0
8.20693 61.6567 0
5.98611 60.1309 0
10.2736 63.252 0
2.58105 59.3655 0
1.43036 57.0164 0
11.1942 56.1655 0
17.0093 63.4697 0
16.9251 66.5303 0
14.779 65.658 0
19.5124 66.8825 0
0.596625 54.5374 0
0.0942333 51.9705 0
12.3702 64.6503 0
17.0172 60.9827 0
19.1645 61.8548 0
29.2969 63.3398 0
31.5554 63.6739 0
30.1709 64.744 0
32.8172 62.4798 0
34.9522 62.6911 0
33.7424 63.9399 0
28.7218 65.7022 0
27.1027 63.1186 0
28.4874 62.0483 0
34.0654 59.2447 0
35.63 59.5604 0
34.8722 60.4858 0
36.2535 58.5339 0
32.4288 65.0791 0
31.0214 66.1 0
34.1301 61.4302 0
32.713 58.9341 0
33.4708 58.0087 0
29.5308 66.995 0
37.0809 57.7761 0
37.4377 57.0265 0
37.7309 56.25 0
35.7373 55.5867 0
27.2492 68.0541 0
83.5134 34.611 0
85.2227 36.136 0
83.3344 36.393 0
91.8698 50.6089 0
91.8594 48.0552 0
94.2795 49.3593 0
89.3142 46.888 0
89.3979 51.941 0
15.1153 33.8854 0
14.0416 33.858 0
15.0257 32.6646 0
8.31584 48.6262 0
5.83561 48.0403 0
8.20517 45.8488 0
10.7994 43.5243 0
11.2038 49.4844 0
15.3468 27.6509 0
14.7941 25.7666 0
83.2017 27.8056 0
83.832 25.9925 0
67.7593 56.756 0
65.9093 56.7685 0
64.2323 56.6184 0
64.877 55.1814 0
74.0583 61.3749 0
72.4921 62.9432 0
71.9005 60.7417 0
71.2155 58.6768 0
76.2353 59.3602 0
86.9951 58.7402 0
87.0317 61.5806 0
84.6203 60.0014 0
81.7929 58.3544 0
86.9645 55.8709 0
15.2197 59.6621 0
12.7652 61.1992 0
13.1219 58.2641 0
13.6498 54.6314 0
17.3757 58.0489 0
31.4258 59.8438 0
31.9946 61.2198 0
30.1128 60.8936 0
27.918 60.6729 0
30.8308 58.6084 0
35.257 56.6339 0
35.6507 57.5614 0
34.4294 57.3919 0
33.0768 57.0817 0
34.5158 55.4177 0
78.002 35.5132 0
76.2062 35.7368 0
84.8404 49.1226 0
87.1848 47.9288 0
87.1049 50.5 0
87.0492 45.5147 0
87.0544 53.1353 0
82.5243 50.1403 0
82.6028 47.5711 0
19.0871 34.6424 0
20.6076 33.3033 0
69.0442 56.6734 0
67.8391 55.2498 0
67.1831 54.3226 0
68.4682 54.2406 0
73.9085 55.6588 0
74.6539 57.3257 0
72.7216 57.5066 0
77.423 57.5121 0
70.4699 57.0089 0
72.7019 54.289 0
74.6348 54.109 0
82.4949 52.8284 0
84.6719 54.4271 0
82.4066 55.5623 0
79.6164 56.7535 0
80.2583 51.2737 0
18.5748 53.0622 0
17.7617 55.7127 0
16.3896 54.0774 0
19.5597 57.0321 0
14.4616 51.9811 0
19.244 50.9629 0
20.6159 52.5963 0
24.4968 57.7916 0
24.4254 59.8187 0
22.8787 59.0176 0
26.1681 60.2099 0
24.5504 61.4363 0
20.9908 60.2069 0
21.0612 58.1799 0
24.5742 56.0479 0
26.1211 56.8482 0
31.9939 56.4203 0
32.9527 55.8032 0
33.433 54.7564 0
31.9147 53.742 0
84.9771 44.2626 0
83.0695 45.1027 0
83.1263 42.8132 0
71.1198 54.4403 0
70.5501 55.5035 0
69.6938 54.1042 0
69.0378 53.1773 0
71.8458 52.8903 0
78.5878 52.7889 0
78.0351 54.7205 0
76.3936 53.5462 0
75.1869 52.1772 0
78.6162 50.1006 0
23.2388 55.0675 0
21.4484 55.8438 0
21.7372 53.9209 0
22.4069 51.8205 0
24.8636 54.1244 0
78.4693 48.4217 0
77.071 46.6359 0
75.8921 45.7134 0
75.4733 47.333 0
22.4102 44.932 0
21.3015 46.9335 0
20.5385 44.9896 0
22.2293 48.6864 0
20.3576 48.7429 0
18.7102 45.0237 0
24.4526 44.8806 0
72.3048 51.5479 0
70.7225 51.6984 0
69.6216 50.5948 0
71.5776 49.117 0
75.4481 48.9527 0
76.7991 49.935 0
75.5951 50.6327 0
73.8362 51.1944 0
74.2695 48.0296 0
25.4311 50.8234 0
25.0552 52.3762 0
23.9038 51.5922 0
26.3906 53.3556 0
22.7827 50.2686 0
25.4095 48.9691 0
26.5608 49.7522 0
27.6691 54.2691 0
27.861 52.52 0
29.4768 51.6279 0
30.5495 52.8879 0
23.7264 48.4577 0
24.8562 47.387 0
72.7128 50.0029 0
73.1089 48.7644 0
27.5851 57.587 0
29.3353 58.0495 0
27.7937 59.0551 0
30.6227 57.1397 0
27.663 55.8426 0
30.5047 54.2875 0
30.4983 55.8619 0
29.1332 55.0071 0
23.169 62.9773 0
21.343 64.626 0
20.9814 62.6932 0
21.6988 67.1666 0
24.9111 63.3689 0
26.3823 66.6142 0
24.1917 66.8643 0
25.7212 64.66 0
24.8529 68.8192 0
22.3798 69.2783 0
14.9345 44.6192 0
12.9824 46.7651 0
12.6378 44.2913 0
13.499 49.8107 0
16.6345 45.0748 0
18.3156 49.2084 0
16.2406 49.2594 0
17.3541 47.0415 0
58.4007 8.03531 0
60.0002 9.95782 0
79.5185 20.1208 0
77.0203 20.3029 0
69.2289 13.7978 0
67.5752 15.6517 0
37.201 13.1531 0
34.8558 12.3099 0
72.228 44.2939 0
70.3894 42.6005 0
36.7268 21.8797 0
37.3246 24.2995 0
46.0458 8.01163 0
45.161 10.3503 0
1.82128 10.3878 0
4.02868 9.20677 0
16.1346 3.97061 0
14.3554 2.24226 0
37.8181 13.2216 0
37.7805 10.7243 0
72.2998 1.0323 0
69.8338 1.40343 0
65.3481 24.8749 0
65.8049 22.4267 0
17.0808 0.161955 0
19.0963 1.61257 0
30.7286 0.229728 0
29.004 2.04555 0
20.1957 28.7906 0
18.0686 27.4923 0
87.2147 22.7696 0
89.6966 23.1516 0
80.4376 11.7867 0
79.0224 9.7339 0
53.4922 14.1568 0
52.9659 16.6003 0
79.8536 20.5276 0
77.3479 20.4655 0
95.4365 2.46023 0
96.8512 4.51655 0
40.4183 38.2098 0
38.2115 39.3797 0
34.3942 26.89 0
35.0538 29.2912 0
88.3351 30.3091 0
87.7268 27.9242 0
42.4558 31.7405 0
44.3333 30.0954 0
26.0907 12.7453 0
26.9229 10.3931 0
40.5657 37.2858 0
42.7938 36.1596 0
65.9035 38.4575 0
67.4342 40.4311 0
21.6828 36.3405 0
24.1742 36.5397 0
87.2993 17.9091 0
88.9322 16.0415 0
31.3163 9.80711 0
28.8869 10.4039 0
60.2738 8.09979 0
61.571 10.2387 0
62.4123 9.18113 0
60.964 7.14116 0
18.7637 6.92514 0
18.1855 9.33069 0
63.0388 43.6081 0
62.3486 46.0067 0
84.264 25.6881 0
83.5695 28.0595 0
47.3543 44.056 0
49.217 42.3908 0
30.7322 4.64222 0
33.1071 5.40371 0
37.1802 2.11869 0
36.8755 -0.360428 0
39.5051 0.353939 0
37.8398 2.22035 0
66.8362 34.3202 0
64.5815 35.3826 0
25.2633 21.1873 0
23.6921 23.1245 0
89.1903 30.0647 0
86.9306 28.9736 0
74.2708 9.94682 0
76.6521 9.21449 0
80.3414 12.7089 0
81.7453 14.7679 0
81.0844 16.8294 0
80.1672 19.1253 0
78.4012 10.657 0
79.747 12.7549 0
67.6461 27.2959 0
65.1533 27.1813 0
62.4124 24.701 0
59.987 24.1153 0
61.7042 24.5244 0
62.4736 26.8999 0
69.4925 32.6777 0
67.0082 32.4267 0
82.5754 12.4181 0
85.0238 12.9871 0
51.4561 17.9588 0
53.5326 19.3431 0
66.9686 15.8245 0
65.1481 14.1073 0
20.0457 22.2627 0
20.4968 19.8269 0
53.0584 23.8536 0
52.9505 21.3567 0
62.0633 33.7435 0
64.0276 35.2863 0
67.9222 28.0574 0
69.8858 26.5285 0
27.3799 19.2213 0
25.4495 17.6553 0
43.3796 3.77676 0
43.9085 1.33434 0
90.2371 10.2453 0
88.4372 8.51445 0
67.9466 36.5878 0
68.6252 34.1931 0
9.51267 8.16887 0
11.9725 7.67955 0
49.9622 6.36737 0
52.337 7.14894 0
81.1094 29.0248 0
83.0542 27.4712 0
43.1512 19.8169 0
45.5404 20.525 0
72.9917 25.3778 0
75.2156 24.2534 0
59.2964 18.3739 0
57.0538 19.4601 0
94.8443 14.8535 0
92.4219 14.2053 0
8.74423 19.4005 0
11.2081 18.918 0
17.4736 22.6242 0
15.8064 20.7853 0
16.961 36.28 0
18.1771 34.1097 0
59.7758 41.7715 0
57.5855 42.9685 0
84.6018 20.303 0
84.6453 22.773 0
9.90281 20.0064 0
7.80183 21.3745 0
16.872 29.878 0
15.2473 31.7584 0
46.6499 3.24436 0
48.105 5.27716 0
57.7786 40.186 0
55.7428 41.6293 0
67.5028 36.8797 0
69.577 38.2744 0
68.3554 7.40446 0
70.2462 5.78611 0
24.8114 8.45958 0
27.2388 9.02177 0
16.1268 15.4358 0
15.2243 17.7466 0
96.9954 4.6348 0
94.5233 5.01915 0
25.2505 33.6875 0
26.0704 31.3366 0
16.8192 15.6309 0
17.9497 17.8302 0
86.8959 15.6204 0
88.6086 13.8227 0
26.9964 36.2477 0
28.2679 38.3844 0
45.0627 36.9073 0
42.7689 37.8917 0
26.0052 33.5382 0
28.4818 33.2068 0
70.5306 15.842 0
72.5 17.3882 0
49.8259 47.5094 0
50.9703 45.2877 0
82.7566 18.2699 0
81.0758 16.4243 0
12.4023 5.5812 0
9.97555 4.9813 0
18.2963 2.64663 0
20.5317 1.51178 0
98.915 4.25675 0
97.7228 6.43777 0
80.2829 37.2602 0
80.868 34.8531 0
48.5353 3.43896 0
48.4416 0.942384 0
46.0826 5.10584 0
43.9277 6.37537 0
61.0988 37.8927 0
59.0144 39.2625 0
81.2001 11.0492 0
81.7874 8.65602 0
79.2979 30.3164 0
76.9728 31.2135 0
52.3964 7.96057 0
50.9321 5.93451 0
25.9205 29.8341 0
23.7877 28.5486 0
94.5754 17.4125 0
96.8588 16.4044 0
29.5906 31.9622 0
31.8958 32.9092 0
65.8334 4.26383 0
65.8046 6.7622 0
53.2606 1.74369 0
51.4524 3.47213 0
14.5692 9.02845 0
15.0982 6.61251 0
7.21266 18.7948 0
5.01316 17.6204 0
61.2073 40.1754 0
59.8915 42.2958 0
74.2014 7.2155 0
73.7963 4.75387 0
23.6021 30.1569 0
23.8426 27.6853 0
78.7997 6.85624 0
76.6406 5.57016 0
79.034 11.2307 0
81.1534 12.5727 0
7.62983 2.52661 0
5.1289 2.59852 0
76.4366 15.8741 0
74.4529 14.3418 0
47.9023 9.17671 0
49.6885 10.9236 0
80.045 2.02446 0
82.5042 1.57877 0
29.1942 29.7968 0
27.2416 28.2541 0
70.958 16.2486 0
71.5126 13.8297 0
4.50477 13.5369 0
6.46326 11.9801 0
40.5467 0.0491879 0
39.5133 2.32468 0
60.4034 12.223 0
59.8306 14.653 0
41.2023 3.38793 0
39.1674 4.84372 0
33.6695 29.3002 0
36.1569 29.4815 0
33.2106 20.8243 0
32.9908 18.3434 0
79.5913 15.471 0
80.1447 17.8869 0
72.6445 34.5537 0
70.5091 33.2552 0
56.7283 8.10873 0
54.322 7.43428 0
44.538 8.73471 0
43.2108 10.854 0
82.5641 16.4437 0
83.6809 14.238 0
11.587 0.311379 0
10.6865 2.62839 0
78.0046 16.0421 0
80.0383 17.5041 0
59.435 2.84984 0
60.7549 4.97382 0
72.3105 1.16022 0
72.2034 3.6541 0
66.824 2.54804 0
68.1252 0.404046 0
13.324 3.7514 0
15.1472 2.04801 0
71.9489 26.4003 0
74.4045 26.8641 0
16.8492 17.4091 0
15.4386 19.4604 0
72.2009 38.1504 0
72.1219 35.6637 0
43.4887 20.6025 0
41.2293 21.6626 0
57.2507 19.0739 0
57.5155 21.5586 0
64.6669 28.6235 0
67.1468 28.3591 0
24.6769 31.7354 0
27.0818 31.0565 0
50.1165 28.6023 0
49.1094 30.8874 0
59.8004 36.9988 0
58.5354 34.8449 0
22.4707 28.9204 0
24.8847 28.2756 0
39.7077 35.7171 0
37.2595 36.2037 0
5.88597 10.0323 0
3.85544 11.4946 0
54.796 20.6029 0
56.8252 22.057 0
68.4947 19.4944 0
68.8044 17.0256 0
42.0185 42.4979 0
42.7812 44.8763 0
19.1051 24.427 0
16.9557 25.701 0
69.2704 4.02191 0
66.9271 3.14146 0
18.7364 12.7509 0
19.4387 10.3754 0
97.8454 0.547067 0
97.0385 2.89248 0
21.312 0.584835 0
21.7841 2.98423 0
13.433 5.94879 0
14.5734 8.14342 0
94.837 5.78716 0
95.3611 3.36352 0
58.6668 11.4297 0
59.4643 13.7994 0
26.7434 39.7521 0
25.2412 41.746 0
62.4142 18.5714 0
64.5195 17.2424 0
9.51053 7.71789 0
11.9278 7.05213 0
44.2882 17.8985 0
41.9052 18.6377 0
89.0337 10.7722 0
91.5014 10.3405 0
65.4865 41.412 0
63.0621 40.8063 0
51.2693 34.2008 0
53.6766 33.5519 0
12.7404 8.53912 0
14.7354 10.0272 0
75.0362 18.3002 0
72.5405 18.0986 0
69.147 26.2508 0
69.6011 28.7001 0
19.5821 11.7258 0
21.8475 12.7704 0
36.9021 39.8383 0
34.4974 39.1697 0
29.336 28.107 0
30.9505 29.9987 0
12.3826 19.4925 0
13.5823 17.3133 0
42.0403 42.9424 0
39.6476 43.661 0
34.2164 4.98413 0
33.7307 7.43729 0
94.9694 17.0099 0
93.8861 14.7653 0
53.7707 26.0761 0
54.3497 28.506 0
68.2783 36.1031 0
67.5072 38.4703 0
71.2312 36.8205 0
69.2928 38.3845 0
30.4848 15.3944 0
32.6406 16.6353 0
62.7485 7.87975 0
65.2302 8.16811 0
52.3911 17.1227 0
51.1236 19.2749 0
68.8584 3.48559 0
68.9105 5.98485 0
24.0185 7.65257 0
26.0583 9.05584 0
31.7893 14.4974 0
33.506 16.296 0
72.4463 5.88984 0
74.7177 4.91309 0
47.226 15.0387 0
45.6866 17.007 0
36.6714 41.6179 0
38.7037 40.1645 0
22.8252 10.3457 0
24.4656 8.45256 0
22.9807 37.5458 0
25.3639 36.7829 0
79.5381 20.3607 0
81.7927 21.4536 0
80.4333 16.0089 0
78.1545 14.9575 0
68.1634 34.0107 0
68.4126 36.4898 0
32.7986 26.7697 0
35.0257 27.8848 0
49.096 3.39056 0
47.4562 5.27829 0
34.1921 40.4107 0
32.8275 42.5019 0
47.6817 12.3732 0
48.2025 14.8183 0
50.2581 18.5901 0
51.6291 16.5022 0
33.8449 30.4352 0
34.5308 28.0373 0
2.33631 13.7802 0
4.82467 14.0485 0
40.0927 40.018 0
40.8345 42.4018 0
10.1179 16.0878 0
9.50436 18.4924 0
32.9479 15.9257 0
31.9071 18.1971 0
43.2471 0.750596 0
45.6674 0.0999429 0
37.1359 36.624 0
39.3763 35.5211 0
81.2518 10.0193 0
81.7503 7.60722 0
30.4381 3.49511 0
28.295 4.79434 0
49.4055 1.14958 0
47.607 2.88845 0
60.759 31.0419 0
62.533 32.7996 0
26.1889 37.0429 0
24.5176 35.2024 0
33.916 3.03688 0
36.4056 3.25921 0
46.8717 28.8568 0
45.85 31.1358 0
19.4965 35.9704 0
21.2158 37.7636 0
56.1113 28.0542 0
58.6036 28.0911 0
92.844 9.43066 0
95.2642 10.0812 0
22.1065 28.851 0
24.5767 29.2121 0
48.281 17.4943 0
50.7272 17.9746 0
28.8274 21.5046 0
27.7728 19.2573 0
88.6641 17.9438 0
91.0225 18.804 0
85.3185 15.4314 0
82.8114 15.5565 0
59.5419 44.9834 0
60.8274 47.1272 0
89.5355 2.51418 0
89.7493 4.98339 0
95.4807 9.76601 0
93.3842 8.39985 0
64.453 41.2307 0
62.9703 43.2367 0
56.0094 25.8462 0
58.3265 24.9302 0
71.0443 1.7506 0
71.0335 4.24896 0
51.4176 11.5964 0
50.5037 9.26931 0
58.3211 27.6228 0
57.6473 25.2177 0
9.31278 7.82155 0
7.76662 5.87864 0
51.6883 13.2057 0
49.2111 12.9099 0
49.7142 24.1405 0
50.1423 26.6021 0
72.5792 28.1996 0
70.1784 27.5076 0
81.2777 36.1318 0
78.9667 37.0705 0
80.7539 18.1586 0
81.4053 20.5495 0
63.0479 6.11913 0
60.7645 5.09953 0
49.6095 11.5727 0
47.1199 11.4035 0
44.4829 28.2792 0
42.0326 28.7403 0
88.6487 7.77882 0
88.1164 10.193 0
72.3025 6.24469 0
71.0066 8.35974 0
87.7 13.8464 0
88.6444 16.1428 0
36.571 40.6539 0
38.2891 42.4632 0
62.5633 3.41528 0
63.7495 1.21589 0
39.9597 14.8938 0
40.1026 12.3988 0
19.3825 6.3851 0
21.5281 5.08021 0
36.3644 45.62 0
38.7271 46.4354 0
34.593 31.1219 0
32.3617 32.2444 0
58.9015 19.337 0
60.6898 21.082 0
78.2403 16.0716 0
75.8109 15.44 0
15.8895 28.7596 0
17.2467 26.6838 0
80.5554 1.65355 0
78.1469 2.29089 0
37.6511 41.4565 0
35.1695 41.747 0
84.0621 21.2695 0
84.5492 23.6945 0
86.5745 7.28893 0
86.231 4.83987 0
44.7625 5.80309 0
46.5621 7.53701 0
84.1512 19.6283 0
84.0134 22.0945 0
71.9401 17.3985 0
74.4252 17.1285 0
77.0941 24.8292 0
76.4854 22.4224 0
97.1674 15.24 0
94.7017 14.7964 0
38.3587 23.3992 0
40.4399 22.0189 0
40.9079 1.53265 0
39.849 3.79715 0
60.1601 22.2933 0
57.8305 21.3984 0
23.1188 0.892585 0
24.5938 2.86061 0
71.8875 32.0067 0
69.4246 32.4045 0
44.211 37.977 0
42.266 39.5441 0
34.1351 4.18765 0
35.5943 6.21125 0
19.9636 15.4649 0
21.7193 17.2193 0
1.46606 8.33571 0
3.15684 10.1659 0
85.5929 24.8485 0
87.7219 23.5539 0
82.6801 14.7716 0
80.2461 14.1496 0
60.7729 3.04525 0
60.1676 5.4692 0
17.3111 24.1295 0
15.8117 22.1546 0
51.8039 38.6601 0
50.5931 36.4756 0
59.7294 46.6205 0
62.0304 45.6457 0
81.6817 19.0782 0
81.9735 21.5342 0
60.0483 14.893 0
57.642 14.2285 0
21.6225 24.3108 0
21.5166 26.7871 0
50.5579 36.442 0
51.5001 34.1291 0
68.8084 23.9354 0
66.7463 22.5231 0
85.3776 31.8446 0
83.0358 32.6889 0
10.0114 12.6636 0
7.94609 14.0794 0
90.686 3.17379 0
88.5846 1.819 0
85.5642 8.41334 0
87.7268 7.17183 0
32.973 40.2281 0
33.1337 42.715 0
16.5714 0.839127 0
18.932 1.64484 0
80.3926 27.3664 0
82.3386 25.8133 0
21.4235 10.9606 0
19.7365 9.14895 0
93.539 17.0492 0
91.2393 16.0489 0
19.4249 35.4628 0
19.2885 32.9881 0
18.0023 35.0947 0
20.2566 34.0113 0
76.6129 11.9819 0
75.041 13.8931 0
20.8989 4.67997 0
18.5472 3.85379 0
26.3486 33.6048 0
24.1959 32.3539 0
55.3269 6.83309 0
57.477 5.56004 0
69.3533 3.67891 0
70.424 5.94294 0
22.4299 16.9209 0
21.7323 14.5505 0
89.5072 6.12759 0
87.0015 6.10568 0
60.1621 4.03083 0
57.673 3.77487 0
86.6859 11.285 0
84.2745 10.5836 0
80.9056 22.403 0
82.0873 20.2278 0
69.7568 32.2677 0
68.9561 29.907 0
42.4539 48.7061 0
40.5306 47.1096 0
30.6748 29.1887 0
31.5974 31.4983 0
19.952 37.2899 0
20.2677 34.8282 0
64.2213 5.42911 0
62.4837 7.21973 0
91.4419 1.96677 0
90.9896 4.40282 0
85.7648 10.0765 0
87.2459 12.0797 0
16.1079 1.26865 0
14.0649 2.70503 0
71.9282 36.3997 0
74.3501 35.7968 0
14.901 16.1658 0
17.3345 16.7582 0
85.8225 30.6837 0
87.5132 32.4978 0
8.1197 21.9672 0
10.6228 21.8148 0
49.9338 35.3457 0
52.4203 35.159 0
9.11118 20.4534 0
10.8322 18.6399 0
62.514 31.7142 0
60.2503 32.7563 0
37.542 6.58821 0
39.0242 4.57353 0
9.7505 9.16384 0
11.932 7.93405 0
60.1301 25.7427 0
57.6388 25.8232 0
32.8657 16.9865 0
33.8129 19.2869 0
92.6384 11.4329 0
92.965 13.8927 0
50.0439 4.15883 0
52.1277 5.54206 0
21.7799 11.7295 0
23.2504 13.7176 0
16.4376 4.88179 0
18.7572 3.93522 0
38.9629 33.5264 0
41.0962 32.2296 0
2.02781 4.97164 0
2.94449 2.65735 0
17.4374 16.9957 0
16.4112 19.2563 0
81.4454 37.3294 0
82.4587 35.0701 0
72.8886 12.3925 0
74.7257 10.7295 0
66.3052 41.1918 0
63.9159 41.9174 0
63.722 26.2102 0
65.7051 24.7052 0
49.8631 5.80907 0
48.3251 7.77979 0
60.1711 40.4646 0
62.3929 41.6072 0
23.4042 10.7607 0
24.5116 12.9688 0
60.0706 30.9802 0
61.0167 33.291 0
85.0389 22.2714 0
87.5478 22.2205 0
74.552 19.6241 0
72.1247 19.0071 0
56.0425 12.1289 0
58.4813 12.6625 0
61.6878 4.00285 0
60.6487 1.72929 0
60.7159 47.227 0
58.2176 47.3264 0
50.6453 16.5458 0
50.9607 19.0258 0
26.1707 32.9698 0
27.1623 30.6841 0
43.7072 22.3349 0
41.6583 20.9167 0
70.2208 18.3435 0
72.6936 18.7249 0
72.5689 1.38557 0
72.7271 3.87906 0
33.4367 16.8342 0
35.072 18.7089 0
55.2473 3.25286 0
57.6912 3.79217 0
62.7129 26.719 0
60.2196 26.7378 0
59.5518 35.2265 0
59.6953 32.7348 0
41.7517 31.0688 0
39.3736 31.8236 0
65.6872 33.5705 0
63.6659 32.1032 0
41.289 35.8858 0
39.9857 38.0168 0
73.2034 29.5031 0
72.7735 31.9504 0
50.7626 39.8803 0
51.8552 42.1272 0
59.8125 9.79539 0
58.3192 7.78919 0
82.5451 19.8331 0
84.8531 18.8746 0
66.2817 0.489499 0
68.7828 0.272197 0
72.7496 32.3934 0
74.6225 30.7563 0
66.5022 33.2645 0
65.2293 35.4046 0
67.8015 45.9557 0
68.5194 43.5702 0
63.7036 22.7558 0
64.8008 20.5207 0
80.4234 11.1711 0
82.0334 13.0789 0
31.0215 20.2189 0
30.0709 17.9233 0
25.3342 20.48 0
26.9087 22.4004 0
53.9793 28.4174 0
56.4584 28.1628 0
85.6946 28.1023 0
85.175 25.6902 0
37.8895 1.5601 0
40.3747 1.87591 0
42.1148 29.2634 0
43.0984 26.9675 0
19.9821 35.1139 0
22.4678 35.3655 0
84.4676 11.4445 0
86.9777 11.4017 0
30.496 1.07391 0
32.963 0.637431 0
61.9843 42.1748 0
59.8198 40.9269 0
40.0374 13.1904 0
38.0478 14.704 0
71.884 28.9064 0
70.0394 27.2232 0
60.3451 30.0089 0
59.5841 27.6308 0
6.58039 10.6212 0
5.71095 12.9521 0
33.6227 6.60854 0
31.9996 4.71779 0
57.2794 24.4795 0
59.7101 23.9311 0
61.7286 27.7744 0
59.2475 28.0138 0
12.9804 2.02412 0
15.1354 3.26969 0
72.4134 4.80865 0
69.9315 4.53073 0
30.5171 6.03879 0
28.1265 6.77956 0
80.7958 3.704 0
78.2891 3.7776 0
54.3783 35.6908 0
52.3709 37.1722 0
30.6118 14.0785 0
33.0324 14.6714 0
80.5751 9.10736 0
82.8692 8.12194 0
12.0522 31.3384 0
13.0267 29.0878 0
46.3768 5.08794 0
48.8276 5.58836 0
2.7169 5.30328 0
5.21994 5.20425 0
10.2021 9.51082 0
11.2076 11.7727 0
4.32927 17.8027 0
6.57847 16.6978 0
29.3954 8.29067 0
26.8992 8.27818 0
43.6844 1.76917 0
45.996 2.72979 0
77.3441 2.73992 0
75.5702 4.44035 0
55.2037 26.5027 0
57.4485 27.5911 0
24.8321 19.1503 0
27.0193 17.9298 0
12.8335 30.6756 0
14.0747 28.5411 0
13.7587 17.7443 0
15.6251 19.3859 0
31.5631 35.7923 0
33.6633 37.1338 0
85.105 18.8198 0
85.4391 16.3731 0
54.9571 42.1118 0
56.1301 39.9074 0
56.8571 42.7664 0
54.3704 42.539 0
69.3453 40.8361 0
68.4283 43.1511 0
81.6173 5.17752 0
81.1811 7.59586 0
67.2844 28.5117 0
69.3739 27.1584 0
23.407 28.039 0
20.9143 28.2116 0
76.5425 32.8579 0
74.6479 31.232 0
40.389 1.57852 0
41.9356 -0.386648 0
21.4858 3.42602 0
19.2741 2.30627 0
32.7415 27.7857 0
34.5442 29.5017 0
39.7487 2.0276 0
37.9659 3.78278 0
68.5827 6.06547 0
66.5163 7.45567 0
7.17873 2.10134 0
8.72555 0.142028 0
59.0659 33.1669 0
57.1114 31.6135 0
22.6772 35.158 0
24.2043 37.1172 0
76.677 24.7295 0
76.127 22.3086 0
8.86655 16.6422 0
9.71541 18.9674 0
27.0468 16.4893 0
28.4698 14.4343 0
31.9601 36.7188 0
32.7924 34.3673 0
22.228 34.6757 0
19.9923 33.5787 0
73.3072 36.836 0
71.9781 34.7246 0
15.0286 2.07436 0
16.9722 0.511672 0
52.2266 11.9113 0
52.0951 9.41411 0
33.8327 8.5423 0
32.69 6.32795 0
24.9801 41.5195 0
27.3739 40.7868 0
57.5691 12.2887 0
59.7899 11.1538 0
84.167 34.9107 0
82.3555 33.1946 0
40.3998 46.8817 0
38.8908 44.8909 0
18.0803 12.0652 0
20.5449 12.5181 0
92.7223 8.1387 0
94.405 6.30789 0
81.3351 32.7657 0
80.6177 30.3888 0
38.8442 14.6091 0
38.7104 17.1038 0
28.6005 11.3949 0
29.9884 13.4507 0
51.9091 39.2708 0
54.3957 39.4799 0
86.5248 27.8809 0
85.8654 25.5012 0
22.1649 2.28733 0
23.5706 4.29265 0
49.354 2.9409 0
47.2313 1.61449 0
18.8756 19.5431 0
21.3628 19.847 0
2.08192 8.99827 0
4.26794 7.77917 0
20.2608 3.55174 0
18.8555 5.60466 0
62.9358 44.156 0
65.1577 45.3022 0
34.5123 20.9708 0
36.5962 19.5908 0
94.5981 1.02984 0
93.9657 3.42699 0
49.7448 42.1432 0
49.3593 39.6745 0
58.6701 10.5686 0
56.3218 9.71589 0
36.6208 10.4989 0
34.3396 11.5237 0
56.8216 43.6026 0
56.7495 46.1006 0
2.41806 12.574 0
1.75477 10.1762 0
82.4278 4.92762 0
83.3214 2.62905 0
37.6752 47.0426 0
35.4192 45.967 0
65.9609 39.2754 0
68.2906 40.1823 0
24.679 33.8371 0
27.1534 34.1684 0
68.4492 39.1857 0
70.8488 38.498 0
13.8519 30.4069 0
12.2241 28.5431 0
58.8583 44.1692 0
61.2925 44.7335 0
24.3343 5.52447 0
24.2066 8.00185 0
81.1058 20.7426 0
78.7196 21.4915 0
29.8873 39.4766 0
29.5198 41.9403 0
23.7315 16.8797 0
21.4684 15.8315 0
2.71858 8.19974 0
4.94663 7.0582 0
48.0301 30.6053 0
49.9852 29.0556 0
87.0425 22.9964 0
84.6516 23.734 0
34.6763 10.7139 0
32.345 11.6214 0
47.5622 25.7841 0
46.1081 23.7563 0
67.4036 24.0749 0
65.4149 22.5616 0
58.1999 29.9067 0
56.8595 32.0093 0
32.3445 34.6514 0
34.633 35.64 0
57.4022 36.1059 0
56.0424 34.0107 0
26.6771 3.23587 0
28.774 1.86396 0
11.1967 26.4847 0
12.7294 24.5163 0
63.4931 32.8562 0
61.9 34.7721 0
28.507 11.2319 0
26.06 11.7709 0
44.5067 45.5406 0
42.0087 45.607 0
30.8622 14.2767 0
31.9927 16.4897 0
13.2019 1.81722 0
15.3312 0.508495 0
76.1097 14.8567 0
73.8492 15.9017 0
12.6666 6.49307 0
13.3165 8.87703 0
35.479 4.73629 0
36.3489 7.07606 0
53.9899 17.4549 0
51.5362 17.8942 0
31.3244 8.31081 0
29.0204 7.37341 0
24.2982 6.52634 0
21.8015 6.76964 0
48.6112 3.39467 0
51.0496 3.9605 0
32.1799 13.5943 0
32.1101 11.1022 0
1.57012 3.44738 0
4.05139 3.76981 0
62.8088 44.0468 0
60.4904 43.1138 0
42.6514 24.2296 0
40.1643 24.0704 0
48.3487 30.5399 0
50.5226 31.7608 0
58.8661 35.0829 0
56.3817 35.2985 0
50.0162 46.3568 0
52.0701 44.9341 0
26.9552 5.56117 0
26.3337 7.98273 0
43.5231 35.8234 0
42.1075 33.7697 0
52.8717 27.7354 0
50.9793 29.36 0
60.9421 39.7377 0
62.08 41.9615 0
46.9394 23.4392 0
45.6757 21.2867 0
19.2523 2.92561 0
18.5396 0.57345 0
48.2308 41.6785 0
49.1923 39.3723 0
47.8212 39.2686 0
45.3724 38.7907 0
73.1997 11.3862 0
72.6744 8.94855 0
52.5212 17.6179 0
50.7814 15.8264 0
25.0189 41.5704 0
27.5054 41.2823 0
51.9661 23.8765 0
50.556 25.9365 0
25.8739 30.1217 0
28.2981 30.7073 0
5.34398 7.97924 0
2.86041 7.66923 0
20.9044 35.03 0
18.7806 36.3508 0
31.9176 18.9917 0
34.1903 20.0094 0
30.1285 19.0841 0
27.7791 18.2516 0
78.7105 17.3775 0
79.4457 19.7471 0
41.9284 31.925 0
42.4747 29.4884 0
44.797 12.3306 0
45.254 9.8719 0
44.2078 19.869 0
46.0522 18.185 0
36.1144 2.25722 0
35.7769 4.73232 0
94.4904 4.84409 0
95.3065 7.19507 0
41.9253 21.5813 0
40.3781 23.5433 0
57.7652 25.9503 0
55.7289 24.5069 0
62.6758 26.7496 0
65.0809 27.4181 0
8.54429 15.5754 0
8.46877 18.0527 0
70.7966 30.7351 0
68.3551 30.209 0
45.888 35.4637 0
46.1344 32.9783 0
87.0826 2.73132 0
88.7767 4.56206 0
22.5301 38.2711 0
22.8918 40.7266 0
66.2343 42.9245 0
64.2005 41.4716 0
77.3286 11.8511 0
77.8639 14.2724 0
50.845 46.7772 0
49.1605 48.6236 0
14.9009 13.3044 0
15.4054 10.8825 0
75.5904 18.7943 0
75.3781 21.2636 0
59.0461 45.3641 0
61.0994 46.7902 0
83.7426 9.38538 0
86.1963 8.87914 0
6.95995 1.79466 0
4.46001 1.88866 0
80.7239 18.8334 0
82.5337 17.1318 0
13.6038 0.198168 0
11.106 0.104988 0
14.9457 31.949 0
17.3218 31.1876 0
14.2023 12.7702 0
15.5788 14.8275 0
66.7396 0.751375 0
64.2678 1.16937 0
72.2284 24.2607 0
71.2719 26.5535 0
52.0158 31.1938 0
50.0644 29.64 0
29.3479 28.9562 0
28.0821 26.8173 0
76.029 25.1675 0
76.2664 22.6994 0
88.1055 17.1457 0
90.3492 18.2682 0
56.5862 8.81974 0
54.2973 9.81723 0
30.6114 42.0659 0
32.0929 44.0695 0
49.5616 38.0103 0
50.1525 35.583 0
33.6004 30.4079 0
35.8321 31.5151 0
51.2929 19.9461 0
50.1618 22.1734 0
48.0106 19.9523 0
46.7669 17.7868 0
56.3017 36.496 0
54.2132 37.8599 0
27.9533 27.801 0
28.5326 30.2175 0
32.5934 34.24 0
33.223 36.6494 0
91.7525 14.6458 0
93.5858 16.3469 0
6.67333 6.14148 0
6.3461 8.60311 0
30.6135 35.5581 0
31.285 33.1573 0
65.1841 34.6609 0
64.2526 36.9719 0
70.9097 2.05761 0
72.5163 0.159114 0
72.1753 24.8578 0
72.655 22.421 0
12.9578 14.5393 0
14.9648 16.0127 0
48.3597 3.2107 0
50.7931 3.79847 0
17.3647 5.81773 0
17.5678 8.2711 0
6.47625 18.5104 0
3.98649 18.2635 0
31.8602 33.6699 0
32.0393 36.1539 0
59.3098 32.6341 0
59.0149 35.1123 0
80.5567 24.2718 0
80.9367 26.7186 0
96.0467 18.3396 0
96.4669 15.8892 0
81.6337 13.0547 0
84.1081 12.6512 0
31.4357 34.1969 0
30.3601 31.9538 0
95.0764 8.61915 0
94.2044 10.9428 0
92.6829 17.8245 0
94.9059 16.6926 0
25.3399 37.6709 0
25.0551 35.2031 0
11.1373 27.0356 0
12.9572 28.7123 0
25.2263 16.937 0
22.7631 17.4079 0
33.0755 22.0405 0
35.5633 22.2186 0
75.0675 22.8716 0
72.5678 22.9059 0
50.0605 27.3533 0
49.6805 29.8222 0
21.0067 18.5313 0
20.4969 20.9564 0
93.0886 7.19749 0
92.2653 9.53571 0
49.1255 47.8759 0
47.683 45.8353 0
60.2891 38.8231 0
62.1642 37.1792 0
68.4852 12.4287 0
66.4307 10.9973 0
74.7384 11.3531 0
72.5674 12.5617 0
59.6039 41.658 0
61.2401 43.5468 0
83.0172 11.9445 0
83.7025 9.57623 0
12.3042 9.70992 0
11.2187 7.48559 0
46.2392 42.7971 0
44.2382 41.3048 0
78.092 4.1319 0
75.6259 4.51781 0
79.2188 34.3961 0
79.675 31.9592 0
50.3178 26.0725 0
47.8597 25.6643 0
15.9028 14.8346 0
18.3829 14.4337 0
24.6442 1.73655 0
27.1216 1.89475 0
21.7893 5.85232 0
23.7472 4.27941 0
38.4601 26.5384 0
36.0199 27.0598 0
39.6114 37.7176 0
37.1201 37.5731 0
20.4669 23.0887 0
19.0636 21.0441 0
55.8196 8.44421 0
53.5421 9.46865 0
30.8134 38.4956 0
33.2604 37.9872 0
56.7768 41.5441 0
59.2448 41.1712 0
59.0477 12.1743 0
61.4954 11.6952 0
84.7923 1.93532 0
82.4337 2.74982 0
54.6803 35.4758 0
52.9142 37.2384 0
27.9202 39.1273 0
30.4151 38.9636 0
56.9017 32.3613 0
56.6136 29.881 0
77.5931 21.1023 0
75.7082 22.7254 0
36.6963 36.3188 0
36.0579 38.7317 0
70.643 32.1677 0
68.1786 32.5559 0
48.9446 32.1883 0
50.2818 30.0802 0
64.3598 19.1682 0
65.365 21.4554 0
36.9389 30.3367 0
39.4323 30.3795 0
52.102 2.80568 0
54.2113 4.15167 0
16.14 26.7645 0
13.9258 25.6129 0
28.8458 37.4323 0
26.3763 37.826 0
66.2911 34.5794 0
64.7018 32.6528 0
86.8475 13.6892 0
85.7539 15.9065 0
79.8854 37.2261 0
77.5863 38.1949 0
1.05905 9.62067 0
2.74702 11.4538 0
22.3201 6.93392 0
19.8268 6.69726 0
28.0412 23.9813 0
25.567 23.6397 0
48.7815 5.23894 0
46.4095 4.44401 0
39.4172 8.16323 0
37.1227 7.18221 0
13.1961 16.0898 0
11.7568 14.0728 0
35.2127 37.6374 0
33.3967 39.3532 0
76.1222 7.90056 0
78.1948 6.53583 0
38.896 43.6237 0
38.0854 41.263 0
46.1954 9.27518 0
48.2305 7.82454 0
39.915 30.745 0
37.4955 31.355 0
37.342 28.9905 0
36.6751 31.395 0
36.7334 26.7275 0
34.262 27.0732 0
30.6658 4.32416 0
33.0161 5.15855 0
71.8129 31.7242 0
73.9867 30.5089 0
24.1809 12.2578 0
26.5721 11.4968 0
33.2246 43.4402 0
35.5133 42.4336 0
26.109 22.2987 0
24.0886 23.7698 0
5.62641 2.55418 0
6.55568 0.243526 0
94.4025 5.87144 0
96.8151 6.54802 0
53.4043 18.7289 0
51.7014 16.9022 0
53.8034 45.2143 0
52.3224 47.2266 0
94.7451 5.2182 0
93.3375 3.15845 0
30.2546 20.9723 0
27.8082 20.4794 0
57.5081 1.9454 0
58.1162 4.36954 0
94.6285 11.4414 0
92.9861 9.56098 0
43.726 7.01153 0
46.1874 6.57491 0
49.3935 42.153 0
47.436 43.7052 0
42.4339 27.1036 0
44.8415 26.4545 0
24.2713 22.4559 0
21.7963 22.095 0
69.9729 33.9539 0
70.1386 31.4713 0
18.3884 13.409 0
20.6142 14.5344 0
9.42154 28.6192 0
11.704 27.5704 0
62.0148 24.3122 0
60.7855 22.1372 0
81.7125 24.9943 0
79.2099 24.9192 0
22.8582 29.0895 0
20.7391 30.409 0
14.2606 29.4481 0
14.3741 31.9128 0
12.625 12.9434 0
13.6592 15.1891 0
67.3482 22.6129 0
67.7954 20.1652 0
79.3089 21.6965 0
81.7225 22.3751 0
15.2761 21.5622 0
14.2086 23.8027 0
21.2651 13.4649 0
18.9083 12.6323 0
44.9083 44.804 0
42.4129 44.6893 0
62.2245 37.8624 0
60.8065 35.8062 0
59.6098 47.0585 0
61.9399 46.1543 0
39.9822 37.59 0
42.4769 37.5407 0
55.7205 30.0875 0
53.3845 29.2146 0
67.6132 40.56 0
65.1277 40.8106 0
71.0746 5.5354 0
73.5647 5.60475 0
80.916 3.26218 0
80.8443 0.804229 0
59.6879 6.9147 0
57.9449 8.70265 0
32.3911 19.3703 0
31.5896 21.7333 0
43.9576 32.2812 0
44.0686 34.7756 0
97.8258 14.0972 0
97.9795 11.6129 0
74.0944 18.4221 0
72.1436 16.8532 0
77.0509 31.3729 0
76.3419 33.7512 0
55.9598 48.4574 0
56.3189 45.9842 0
40.1698 1.05069 0
37.7521 1.70725 0
72.0226 19.9125 0
74.4989 19.5757 0
41.8381 44.5105 0
44.3164 44.8214 0
87.0981 2.73855 0
86.5272 5.14322 0
19.3881 21.8299 0
18.9416 19.3991 0
17.5396 36.1066 0
16.3097 33.9586 0
26.0865 37.8495 0
24.2001 39.4895 0
61.6703 6.16117 0
59.7017 4.61836 0
39.7422 29.923 0
40.0569 32.3977 0
63.2632 5.38796 0
60.7923 5.76073 0
60.5812 6.50989 0
61.4359 4.16255 0
79.3038 36.7515 0
76.8683 37.3057 0
46.829 23.2352 0
47.785 20.9264 0
81.9553 12.27 0
79.4715 12.6084 0
17.698 12.8988 0
18.5183 15.228 0
48.2104 40.4556 0
46.3978 42.1747 0
65.3579 19.6568 0
64.1317 17.4784 0
42.931 39.8672 0
41.7538 42.0716 0
54.5017 16.8097 0
53.4306 19.0657 0
22.9392 29.2348 0
25.3288 28.5052 0
23.2525 14.8245 0
20.8079 14.2904 0
92.345 7.7724 0
90.8247 9.73545 0
32.1586 31.9214 0
33.6238 29.9002 0
68.7038 28.4093 0
68.9394 30.8886 0
97.6821 2.40993 0
96.1989 4.39942 0
67.3467 14.8837 0
69.8076 14.4803 0
78.3348 23.2196 0
78.7972 20.7879 0
37.583 15.891 0
35.2045 15.1482 0
68.9008 9.20936 0
69.4593 6.78062 0
32.96 20.1117 0
34.3038 18.0043 0
33.2924 31.4893 0
34.9415 29.6142 0
87.8789 25.868 0
89.851 27.4152 0
84.2544 23.5492 0
86.6807 24.1903 0
38.5254 11.0767 0
36.1001 11.6746 0
65.6759 40.2058 0
63.506 38.9664 0
37.697 1.45447 0
35.5235 2.69393 0
75.467 39.773 0
75.8994 42.2223 0
67.3574 2.0891 0
67.13 4.57752 0
71.9706 15.0881 0
70.1277 13.3918 0
63.356 31.7628 0
65.8463 31.92 0
39.5807 3.05455 0
38.8493 5.4451 0
46.2294 18.5704 0
47.7954 16.6239 0
37.5254 38.5944 0
36.3158 40.7794 0
90.1872 7.29141 0
90.9108 4.92321 0
92.596 19.9917 0
90.19 19.2787 0
55.888 19.0939 0
56.1408 16.608 0
22.8806 18.6961 0
21.5009 20.7704 0
32.7502 15.9259 0
34.5321 17.6608 0
72.9606 38.1987 0
73.3158 35.7385 0
61.7362 40.5727 0
63.1683 42.6196 0
27.4752 32.7273 0
29.7694 31.7366 0
27.6587 16.5067 0
25.8145 14.845 0
39.4886 2.25843 0
37.462 3.72645 0
18.6406 28.3281 0
17.8086 25.9955 0
73.4952 2.58663 0
75.23 0.829684 0
75.7661 41.8759 0
73.2674 42.0131 0
57.3512 43.7398 0
54.931 43.121 0
27.2599 8.9444 0
28.8914 10.8098 0
24.2125 7.7353 0
23.0503 9.94407 0
76.6084 41.3623 0
74.4995 42.6947 0
30.3901 38.3819 0
32.0728 40.2185 0
47.7326 27.3012 0
48.5141 29.6729 0
78.429 6.92234 0
80.9138 6.60477 0
76.0011 10.2984 0
76.2656 12.7637 0
69.5151 33.9099 0
68.9015 31.4945 0
77.714 16.9766 0
79.6993 18.5011 0
84.4617 32.3602 0
85.6343 34.5479 0
64.8918 34.2537 0
64.2082 31.854 0
32.418 10.0357 0
29.9224 9.99757 0
29.5312 44.2286 0
31.8245 45.2193 0
20.0842 28.8841 0
22.545 28.4521 0
45.1548 28.1443 0
47.3625 26.9834 0
19.3069 33.6484 0
20.5823 31.5105 0
66.1232 9.21129 0
66.1512 6.71347 0
61.7111 1.50742 0
64.0697 0.662167 0
80.9528 1.38347 0
79.8132 3.55185 0
40.5932 47.3054 0
38.0958 47.1784 0
58.792 25.8669 0
59.6096 28.2268 0
14.8214 23.2816 0
16.9247 24.6195 0
4.09131 14.3939 0
6.13983 12.9554 0
84.2632 21.5407 0
82.6355 19.6524 0
8.18109 0.605016 0
5.72077 0.180604 0
75.4227 19.9341 0
73.0716 20.77 0
52.4315 9.67043 0
50.7793 7.79502 0
43.312 5.56651 0
45.7103 4.85571 0
39.2657 2.60169 0
37.8569 4.66804 0
3.31218 8.62236 0
0.873203 8.0655 0
87.8982 12.0527 0
88.2218 14.5064 0
39.7047 11.1339 0
37.44 10.0913 0
57.9426 7.1195 0
56.021 5.51877 0
16.2779 26.6657 0
13.7885 26.9587 0
52.5478 5.13634 0
55.0213 5.50841 0
89.8434 6.93853 0
92.2281 7.70963 0
93.511 4.62931 0
91.8594 2.75655 0
95.0979 0.40839 0
96.8664 2.17763 0
16.0726 29.1667 0
18.4393 28.371 0
62.4824 9.35942 0
61.7729 11.753 0
18.5821 7.11616 0
17.94 4.74461 0
70.1837 44.8597 0
67.8027 44.0898 0
79.6784 8.28571 0
80.5718 5.98945 0
91.9049 15.5982 0
89.7455 14.3266 0
59.5349 8.53837 0
59.3382 6.04572 0
21.4175 28.3153 0
23.7204 29.2712 0
24.8692 41.7725 0
26.3741 39.7807 0
22.3854 13.1408 0
24.5868 14.3013 0
9.851 12.0263 0
11.0315 9.83731 0
33.5188 45.1349 0
34.4804 42.8317 0
67.6081 35.6075 0
69.8718 36.667 0
25.3491 10.5552 0
26.8614 8.55624 0
84.0076 24.3437 0
82.669 22.2502 0
87.5789 2.031 0
89.3632 3.77654 0
51.1086 40.6915 0
53.4429 41.5772 0
82.2 9.3476 0
80.1097 7.95971 0
65.1025 14.3323 0
66.1053 16.6226 0
42.9472 6.50252 0
42.7613 4.01027 0
53.5126 5.21876 0
55.4279 3.61178 0
44.3485 38.6077 0
42.8812 40.63 0
90.5934 10.7883 0
92.5699 9.27307 0
23.2737 16.7235 0
24.8099 18.67 0
23.7793 9.94646 0
23.818 7.47014 0
60.7058 35.434 0
60.9454 37.919 0
44.6435 0.928666 0
42.287 1.77791 0
78.2765 24.0681 0
79.0131 21.7039 0
68.8528 37.6088 0
68.7463 35.1203 0
27.5571 6.30081 0
29.4593 4.66497 0
58.924 12.9764 0
59.015 15.4736 0
57.7162 9.24941 0
59.6442 10.8412 0
51.7577 19.2342 0
54.1666 19.8779 0
50.6765 37.8848 0
48.1819 37.8835 0
47.468 22.5444 0
46.419 24.812 0
22.6439 20.9165 0
22.8527 23.385 0
81.0273 2.09484 0
78.567 1.57942 0
95.2809 4.85164 0
95.4318 7.33084 0
48.3802 40.8393 0
46.7853 42.7625 0
26.3855 16.4648 0
25.2466 18.6826 0
89.3186 21.361 0
88.3497 23.6331 0
43.8422 3.3055 0
46.1142 4.35163 0
53.2795 27.5572 0
55.5124 28.6686 0
78.2775 8.23922 0
79.9466 6.41335 0
13.6819 13.9183 0
16.1835 14.1213 0
54.0792 47.2005 0
53.9829 44.703 0
52.4099 5.71423 0
49.9861 5.09622 0
54.1056 40.2547 0
51.8104 41.2353 0
8.32879 21.8138 0
6.37707 23.385 0
11.1391 27.4734 0
8.64529 27.3024 0
49.7344 46.8846 0
47.2357 46.9127 0
43.5687 18.0823 0
45.9117 18.9319 0
28.4312 43.1439 0
27.7484 40.752 0
87.1064 31.2278 0
86.3953 28.8714 0
85.7863 22.2858 0
86.6545 19.9734 0
85.9783 0.785695 0
88.4145 1.36226 0
83.4951 35.3817 0
84.5184 33.132 0
24.1747 32.3804 0
25.7409 30.4388 0
45.6033 41.9607 0
47.1188 43.9456 0
21.4205 34.6528 0
23.6996 33.6245 0
6.25962 12.0372 0
4.34433 10.4443 0
34.5549 14.4362 0
36.166 12.5218 0
31.2799 45.6111 0
33.0093 43.8073 0
18.3012 22.7752 0
20.7217 23.4081 0
10.2931 22.3929 0
11.9939 20.5619 0
50.2245 7.30983 0
47.8894 6.41671 0
47.5009 30.4841 0
45.1725 29.5953 0
38.8799 20.7072 0
41.2868 20.0489 0
43.5997 9.6573 0
41.3961 10.8361 0
77.4726 36.6338 0
79.241 34.8882 0
39.914 8.63673 0
39.0874 10.9969 0
74.8564 40.0549 0
73.5991 37.9007 0
60.7781 11.555 0
58.9076 13.2037 0
96.2701 12.4731 0
94.0447 11.3235 0
43.7771 25.0465 0
41.2848 25.063 0
54.2761 42.5547 0
56.7482 42.2065 0
84.5612 23.3397 0
82.0573 23.4765 0
2.49342 9.56801 0
4.56063 8.1586 0
82.126 4.89358 0
84.6172 5.17505 0
36.5769 16.158 0
38.6959 17.4671 0
44.0142 9.0931 0
42.0294 10.6125 0
21.2278 26.2391 0
22.2315 28.5079 0
43.0681 26.9162 0
45.379 25.9777 0
15.0587 19.4653 0
14.8887 21.9308 0
20.1634 8.4851 0
21.0278 6.15584 0
12.2511 24.64 0
10.983 22.5188 0
49.8773 41.2043 0
48.6871 39.0084 0
9.60662 24.2797 0
9.41943 26.7528 0
35.1012 43.7201 0
32.888 44.8842 0
13.4106 18.1706 0
11.2169 16.9824 0
12.2782 23.6224 0
12.7097 21.1854 0
84.2106 17.2761 0
84.0537 14.8096 0
97.1242 15.3878 0
94.9189 14.2014 0
76.1618 36.4307 0
77.5543 38.5001 0
4.71238 2.92948 0
2.25428 3.41307 0
13.9269 26.589 0
11.4334 26.3315 0
9.8953 5.1534 0
8.62459 7.29422 0
87.0171 9.90786 0
86.7093 7.45375 0
50.8079 18.6545 0
49.8852 16.332 0
22.8312 2.88771 0
23.4964 0.47545 0
24.0698 40.1146 0
21.5886 39.7947 0
4.28784 10.4738 0
1.87648 11.1526 0
73.9737 27.8511 0
72.4058 29.7801 0
51.6066 16.3029 0
49.4407 17.541 0
94.7013 5.49242 0
96.5807 7.1419 0
92.4091 0.895523 0
90.0115 1.58488 0
54.6743 27.7564 0
56.9973 28.6644 0
3.92328 2.10113 0
2.79478 4.32382 0
25.6266 41.7597 0
28.1126 41.4695 0
24.3314 32.937 0
25.7967 34.9431 0
64.8481 37.5742 0
63.0343 35.8564 0
45.7883 38.7034 0
46.3345 36.2655 0
59.1329 39.1396 0
58.3317 41.504 0
42.8509 19.1766 0
41.6514 16.989 0
48.5276 16.6502 0
47.4698 14.3866 0
92.885 4.8385 0
91.3635 6.80045 0
17.6586 6.5514 0
16.081 4.64391 0
31.5838 30.461 0
33.0985 28.4768 0
49.5585 44.8922 0
50.5156 47.2008 0
51.6913 13.5736 0
49.2488 14.0804 0
35.2067 5.34287 0
34.5599 7.75893 0
90.7054 7.7136 0
90.2718 10.1498 0
55.2529 45.5161 0
54.0027 43.3516 0
16.733 18.0647 0
18.9229 16.8439 0
14.6098 7.01666 0
14.2703 4.57112 0
24.3237 34.1192 0
21.8319 34.3133 0
62.6017 33.3605 0
60.6376 34.8945 0
11.5588 19.5627 0
13.6699 20.8856 0
76.8363 0.337789 0
74.3593 0.197885 0
59.899 25.8329 0
57.6499 24.7514 0
70.4317 26.8375 0
67.9477 27.0748 0
46.2366 22.5917 0
46.981 20.2057 0
76.5727 3.77795 0
74.1777 4.41436 0
47.853 14.9035 0
50.1328 15.9159 0
88.1835 13.4995 0
89.9623 11.7639 0
71.0419 -0.0346308 0
73.343 0.944117 0
56.2756 45.4494 0
57.2039 43.1304 0
68.1799 3.1293 0
65.9602 1.9736 0
22.8739 17.5236 0
24.7931 15.9159 0
81.1688 38.4611 0
83.1441 36.9458 0
49.4119 2.76128 0
51.1131 4.59413 0
66.0277 3.18372 0
63.6979 2.27473 0
53.2953 11.9516 0
53.063 9.46185 0
12.6009 15.3337 0
10.7811 17.048 0
43.1733 4.46995 0
43.6218 6.92844 0
56.1484 20.3786 0
58.593 20.8721 0
60.8171 22.1856 0
58.3426 21.8747 0
28.8576 27.0034 0
27.0416 25.3039 0
40.7083 6.7499 0
38.2339 7.09282 0
17.3974 2.33366 0
19.8814 2.00296 0
42.8562 25.6426 0
40.3851 25.9749 0
7.01361 17.6308 0
8.34749 19.7216 0
20.3113 11.8938 0
22.1569 10.2008 0
67.3776 39.8209 0
65.4718 41.4287 0
45.1321 41.3088 0
45.9861 43.6561 0
70.7742 17.0866 0
73.1571 16.3509 0
88.2953 4.85018 0
90.0385 6.63602 0
49.8863 19.9755 0
48.1669 21.7854 0
56.3447 37.4997 0
56.3471 39.9978 0
82.3302 25.8637 0
80.8052 27.8237 0
39.5738 4.25283 0
41.5647 5.76117 0
55.1598 43.3669 0
56.9992 41.6791 0
55.3732 43.2518 0
57.052 41.404 0
25.0789 15.2553 0
23.2569 13.574 0
14.3975 27.6505 0
13.571 29.974 0
52.995 16.8482 0
51.1941 18.576 0
32.544 42.62 0
34.8941 43.4663 0
19.7221 10.7815 0
21.4842 12.5247 0
61.5048 40.9313 0
63.7378 39.818 0
32.9952 27.2739 0
31.0497 28.8406 0
31.0443 21.0357 0
32.0162 23.3239 0
72.0213 27.2724 0
71.191 29.6147 0
38.1034 12.924 0
40.5738 13.2651 0
47.3039 47.7641 0
45.4848 46.0512 0
70.5894 11.3919 0
70.4504 13.8763 0
98.6865 10.1676 0
96.622 8.75419 0
96.4856 15.8759 0
93.9822 15.9305 0
58.9396 10.0448 0
59.6718 12.4356 0
54.9844 18.1924 0
56.4625 20.2072 0
53.9033 41.4488 0
56.3644 41.0336 0
5.02987 4.41611 0
7.51275 4.09165 0
84.4924 18.7064 0
86.8209 19.6448 0
19.3302 30.0661 0
19.5555 32.5344 0
64.3864 35.6279 0
63.1386 33.465 0
66.4469 23.3371 0
68.9416 23.2613 0
60.3635 25.2843 0
62.6549 24.3074 0
55.9025 20.9805 0
57.592 19.1466 0
21.6078 36.1705 0
19.113 36.3656 0
55.936 32.1409 0
58.3638 31.5769 0
67.959 1.55433 0
70.1413 2.78212 0
16.2152 6.22861 0
17.6129 4.17696 0
91.8034 24.1427 0
91.1215 26.522 0
89.1998 19.0658 0
86.725 18.6366 0
88.0964 12.5339 0
86.5315 14.4578 0
76.3811 18.7472 0
77.5783 16.58 0
70.9724 20.8487 0
70.0604 23.1594 0
26.6645 25.3493 0
25.4474 27.5233 0
55.7888 26.1657 0
55.5422 28.6504 0
59.1572 42.9007 0
57.5174 44.7837 0
66.1906 18.6111 0
68.2336 17.1914 0
81.2242 33.4019 0
79.6862 31.4417 0
50.4278 8.83223 0
49.7704 11.2445 0
26.1066 27.3493 0
24.0751 28.8015 0
49.6504 27.1257 0
49.8899 24.6385 0
89.284 25.3769 0
91.786 25.3189 0
78.934 31.9409 0
76.6051 32.8278 0
76.1706 37.2451 0
76.6057 34.8011 0
22.681 1.43107 0
23.5212 3.7465 0
17.2443 11.8859 0
15.7603 9.90561 0
76.5015 35.6012 0
78.3617 33.9523 0
25.5453 42.5996 0
23.7643 40.8592 0
24.9572 3.4794 0
23.1358 1.83151 0
86.8767 24.3392 0
85.0214 22.6665 0
84.0311 33.3187 0
83.1417 31.0024 0
67.9881 9.01995 0
65.8911 7.65064 0
6.41396 3.77711 0
4.63872 5.53649 0
88.4937 7.23606 0
89.3766 4.92422 0
68.0638 40.6562 0
69.8972 38.9689 0
33.6161 18.711 0
33.5182 21.2019 0
18.4142 18.2626 0
20.0204 20.1531 0
51.0041 20.4874 0
51.9911 18.1922 0
81.1643 27.0896 0
78.9673 25.9022 0
33.6793 33.513 0
31.4999 34.7345 0
42.0921 36.4858 0
44.2786 35.2813 0
9.47515 8.06577 0
8.10206 5.99945 0
46.3973 8.88116 0
43.9231 9.22243 0
38.9263 45.6258 0
36.7449 44.4083 0
56.6673 44.6055 0
57.0782 42.1412 0
50.8192 7.61688 0
52.1401 9.73899 0
69.2914 9.46209 0
68.177 11.684 0
52.7842 10.4996 0
53.9918 8.31157 0
87.9584 0.588382 0
87.4446 3.00827 0
87.5361 29.5411 0
88.4715 27.2694 0
27.8139 27.6702 0
29.3678 25.7173 0
41.138 3.04344 0
43.561 2.41302 0
47.3891 29.1065 0
44.8982 29.0293 0
44.9119 23.0009 0
42.4422 22.6696 0
57.5407 36.0249 0
55.6806 34.3591 0
79.9234 4.73499 0
81.3134 6.79989 0
32.9748 1.36526 0
31.3217 3.24344 0
37.9912 49.5372 0
37.9139 51.1043 0
37.9139 51.1043 0
37.6998 52.659 0
37.6998 52.659 0
37.3504 54.1892 0
37.3504 54.1892 0
36.8688 55.6831 0
36.8688 55.6831 0
36.2585 57.1294 0
36.2585 57.1294 0
35.5242 58.517 0
35.5242 58.517 0
34.6718 59.8354 0
34.6718 59.8354 0
33.7076 61.0746 0
33.7076 61.0746 0
32.6392 62.2252 0
32.6392 62.2252 0
31.4745 63.2784 0
31.4745 63.2784 0
30.2226 64.2263 0
30.2226 64.2263 0
28.8929 65.0618 0
28.8929 65.0618 0
27.4955 65.7785 0
27.4955 65.7785 0
26.0411 66.371 0
26.0411 66.371 0
24.5407 66.8349 0
24.5407 66.8349 0
23.0056 67.1666 0
23.0056 67.1666 0
21.4474 67.3636 0
21.4474 67.3636 0
19.878 67.4246 0
19.878 67.4246 0
18.3093 67.3489 0
18.3093 67.3489 0
16.7531 67.1372 0
16.7531 67.1372 0
15.2212 66.7911 0
15.2212 66.7911 0
13.7252 66.3132 0
13.7252 66.3132 0
12.2764 65.7071 0
12.2764 65.7071 0
10.8858 64.9773 0
10.8858 64.9773 0
9.56402 64.1294 0
9.56402 64.1294 0
8.32104 63.1698 0
8.32104 63.1698 0
7.16632 62.1058 0
7.16632 62.1058 0
6.10868 60.9452 0
6.10868 60.9452 0
5.1562 59.6971 0
5.1562 59.6971 0
4.31611 58.3708 0
4.31611 58.3708 0
3.59489 56.9764 0
3.59489 56.9764 0
2.99812 55.5245 0
2.99812 55.5245 0
2.53037 54.0262 0
2.53037 54.0262 0
2.19526 52.493 0
2.19526 52.493 0
1.99552 50.9365 0
1.99552 50.9365 0
1.93271 49.3686 0
1.93271 49.3686 0
2.00738 47.8013 0
2.00738 47.8013 0
2.21908 46.2471 0
2.21908 46.2471 0
2.56631 44.7176 0
2.56631 44.7176 0
3.04644 43.2247 0
3.04644 43.2247 0
3.65594 41.7803 0
3.65594 41.7803 0
4.39015 40.3956 0
4.39015 40.3956 0
5.2435 39.0817 0
5.2435 39.0817 0
6.20966 37.8493 0
6.20966 37.8493 0
7.28086 36.7088 0
7.28086 36.7088 0
8.44921 35.6701 0
8.44921 35.6701 0
9.70568 34.7443 0
9.70568 34.7443 0
11.0411 33.9401 0
11.0411 33.9401 0
12.4494 33.258 0
12.4494 33.258 0
13.9095 32.678 0
13.9095 32.678 0
15.4077 32.2132 0
15.4077 32.2132 0
16.9389 31.8761 0
16.9389 31.8761 0
18.4938 31.6713 0
18.4938 31.6713 0
20.0605 31.601 0
20.0605 31.601 0
21.6276 31.6665 0
21.6276 31.6665 0
23.1825 31.8672 0
23.1825 31.8672 0
24.7131 32.202 0
24.7131 32.202 0
26.2081 32.6684 0
26.2081 32.6684 0
27.6561 33.2634 0
27.6561 33.2634 0
29.0457 33.9828 0
29.0457 33.9828 0
30.3663 34.8213 0
30.3663 34.8213 0
31.6082 35.7724 0
31.6082 35.7724 0
32.7619 36.8289 0
32.7619 36.8289 0
33.8186 37.9829 0
33.8186 37.9829 0
34.7704 39.2255 0
34.7704 39.2255 0
35.6099 40.5472 0
35.6099 40.5472 0
36.3308 41.9378 0
36.3308 41.9378 0
36.9274 43.3868 0
36.9274 43.3868 0
37.3953 44.8829 0
37.3953 44.8829 0
37.7306 46.4146 0
37.7306 46.4146 0
37.9301 47.97 0
37.9301 47.97 0
37.9912 49.5372 0
98.0674 49.368 0
98.0046 50.9359 0
98.0046 50.9359 0
97.8049 52.4925 0
97.8049 52.4925 0
97.4698 54.0257 0
97.4698 54.0257 0
97.002 55.524 0
97.002 55.524 0
96.4052 56.9759 0
96.4052 56.9759 0
95.684 58.3702 0
95.684 58.3702 0
94.8439 59.6965 0
94.8439 59.6965 0
93.8914 60.9446 0
93.8914 60.9446 0
92.8337 62.1051 0
92.8337 62.1051 0
91.679 63.1692 0
91.679 63.1692 0
90.436 64.1288 0
90.436 64.1288 0
89.1142 64.9767 0
89.1142 64.9767 0
87.7236 65.7064 0
87.7236 65.7064 0
86.2748 66.3125 0
86.2748 66.3125 0
84.7788 66.7904 0
84.7788 66.7904 0
83.2469 67.1365 0
83.2469 67.1365 0
81.6907 67.3481 0
81.6907 67.3481 0
80.1219 67.4237 0
80.1219 67.4237 0
78.5526 67.3628 0
78.5526 67.3628 0
76.9944 67.1657 0
76.9944 67.1657 0
75.4593 66.834 0
75.4593 66.834 0
73.9589 66.3701 0
73.9589 66.3701 0
72.5045 65.7776 0
72.5045 65.7776 0
71.1071 65.0609 0
71.1071 65.0609 0
69.7775 64.2254 0
69.7775 64.2254 0
68.5255 63.2774 0
68.5255 63.2774 0
67.3609 62.2242 0
67.3609 62.2242 0
66.2925 61.0736 0
66.2925 61.0736 0
65.3283 59.8344 0
65.3283 59.8344 0
64.4759 58.516 0
64.4759 58.516 0
63.7417 57.1283 0
63.7417 57.1283 0
63.1315 55.682 0
63.1315 55.682 0
62.6498 54.1881 0
62.6498 54.1881 0
62.3006 52.6579 0
62.3006 52.6579 0
62.0864 51.1033 0
62.0864 51.1033 0
62.0093 49.5361 0
62.0093 49.5361 0
62.0704 47.9689 0
62.0704 47.9689 0
62.27 46.4135 0
62.27 46.4135 0
62.6052 44.8818 0
62.6052 44.8818 0
63.073 43.3857 0
63.073 43.3857 0
63.6696 41.9367 0
63.6696 41.9367 0
64.3904 40.5461 0
64.3904 40.5461 0
65.2299 39.2244 0
65.2299 39.2244 0
66.1816 37.9819 0
66.1816 37.9819 0
67.2383 36.828 0
67.2383 36.828 0
68.3919 35.7715 0
68.3919 35.7715 0
69.6339 34.8205 0
69.6339 34.8205 0
70.9547 33.9823 0
70.9547 33.9823 0
72.3442 33.2629 0
72.3442 33.2629 0
73.792 32.6674 0
73.792 32.6674 0
75.2871 32.2005 0
75.2871 32.2005 0
76.818 31.8655 0
76.818 31.8655 0
78.3729 31.6648 0
78.3729 31.6648 0
79.9396 31.5997 0
79.9396 31.5997 0
81.5066 31.6702 0
81.5066 31.6702 0
83.0616 31.8753 0
83.0616 31.8753 0
84.5934 32.2123 0
84.5934 32.2123 0
86.0916 32.6773 0
86.0916 32.6773 0
87.5501 33.2579 0
87.5501 33.2579 0
88.9596 33.9397 0
88.9596 33.9397 0
90.2954 34.7449 0
90.2954 34.7449 0
91.5512 35.6702 0
91.5512 35.6702 0
92.7193 36.7081 0
92.7193 36.7081 0
93.7908 37.8488 0
93.7908 37.8488 0
94.7567 39.0811 0
94.7567 39.0811 0
95.6101 40.3952 0
95.6101 40.3952 0
96.3444 41.7799 0
96.3444 41.7799 0
96.9538 43.2242 0
96.9538 43.2242 0
97.4339 44.717 0
97.4339 44.717 0
97.7811 46.2466 0
97.7811 46.2466 0
97.9928 47.8009 0
97.9928 47.8009 0
98.0674 49.368 0
      </DataArray>
    </Points>
    <Cells>
      <DataArray type="Int32" Name="connectivity" format="ascii">
247 120 114 753 754 755 
213 114 214 748 749 750 
487 220 257 647 745 730 
257 115 260 741 742 743 
246 300 116 738 739 740 
212 116 247 731 732 733 
246 257 117 724 725 726 
299 117 312 719 720 721 
303 310 118 716 717 718 
248 118 256 711 712 713 
513 495 483 150 224 119 
507 513 483 151 119 184 
248 120 302 704 705 706 
221 258 121 1196 1197 1198 
259 121 313 1191 1192 1193 
464 430 432 332 409 122 
436 464 432 326 122 408 
346 1189 123 1186 1187 1188 
298 123 351 1181 1182 1183 
71 311 124 699 700 701 
65 124 372 692 693 694 
79 369 125 687 688 689 
684 125 309 680 681 682 
211 243 126 1178 1179 1180 
244 126 297 1173 1174 1175 
462 474 436 240 281 127 
438 462 436 294 127 327 
512 515 514 131 129 134 
513 509 511 130 132 135 
514 515 510 129 139 128 
508 514 510 148 128 147 
496 500 514 146 133 149 
513 499 495 136 145 150 
507 509 513 143 130 151 
505 491 497 141 142 154 
504 515 512 137 131 155 
174 503 511 1151 156 144 
512 514 500 134 133 159 
499 513 511 136 135 162 
494 515 504 138 137 165 
171 510 515 1164 139 166 
140 167 168 678 674 675 
167 492 168 672 661 674 
491 505 506 141 153 169 
177 498 497 656 164 170 
173 490 174 1156 1149 1171 
217 489 503 1126 176 175 
495 499 498 145 163 178 
501 500 496 158 146 179 
172 486 181 1162 1145 1169 
496 514 508 149 148 183 
480 481 140 227 152 187 
479 506 505 188 153 190 
477 505 497 191 154 193 
504 512 475 155 160 194 
472 511 503 161 156 197 
501 502 471 157 199 200 
500 501 470 158 201 202 
475 512 500 160 159 203 
499 511 472 162 161 204 
498 499 469 163 205 206 
497 498 468 164 207 208 
494 504 474 165 195 210 
211 493 171 1165 1161 1166 
167 180 212 667 668 669 
168 492 213 661 662 663 
214 488 177 657 653 658 
172 171 215 1158 1159 1160 
173 185 216 1153 1154 1155 
174 490 217 1149 1127 1150 
473 503 489 196 176 218 
177 488 219 653 643 654 
220 487 180 647 648 649 
182 181 221 1142 1143 1144 
496 508 115 183 222 747 
225 484 185 886 1138 1139 
482 502 481 198 186 226 
506 480 140 189 187 677 
480 506 479 189 188 228 
479 505 478 190 192 229 
478 505 477 192 191 230 
477 497 476 193 209 231 
474 504 475 195 194 232 
472 503 473 197 196 233 
471 502 482 199 198 234 
470 501 471 201 200 235 
475 500 470 203 202 236 
469 499 472 205 204 237 
468 498 469 207 206 238 
476 497 468 209 208 239 
494 474 461 210 241 242 
215 245 249 1133 1134 1135 
216 250 251 1128 1129 1130 
217 252 253 1123 1124 1125 
307 451 473 1047 255 254 
223 219 256 640 641 642 
583 263 223 1074 637 628 
582 261 264 1120 1121 1122 
445 482 481 265 226 268 
444 481 480 267 227 270 
443 480 479 269 228 272 
442 479 478 271 229 274 
441 478 477 273 230 276 
440 477 476 275 231 278 
474 475 436 232 280 281 
472 473 435 233 283 284 
471 482 446 234 266 286 
470 471 434 235 287 288 
464 475 470 279 236 289 
469 472 463 237 285 290 
468 469 433 238 291 292 
439 476 468 277 239 293 
461 474 462 241 240 295 
296 460 243 1071 1116 1117 
245 244 298 1107 1108 1109 
258 249 304 1100 1101 1102 
250 262 305 1095 1096 1097 
252 251 306 1088 1089 1090 
253 452 307 1084 1044 1085 
437 473 451 282 255 308 
633 314 591 871 832 1082 
262 261 316 1075 1076 1077 
318 629 578 854 810 809 
446 482 445 266 265 319 
445 481 444 268 267 320 
444 480 443 270 269 321 
443 479 442 272 271 322 
442 478 441 274 273 323 
441 477 440 276 275 324 
440 476 439 278 277 325 
436 475 464 280 279 326 
435 473 437 283 282 328 
463 472 435 285 284 329 
434 471 446 287 286 330 
464 470 434 289 288 331 
433 469 463 291 290 334 
439 468 433 293 292 335 
462 438 43 294 338 339 
461 462 45 295 340 341 
296 342 343 1068 1069 1070 
297 344 345 1063 1064 1065 
299 311 347 621 622 623 
301 300 348 616 617 618 
302 301 349 609 610 611 
309 303 350 602 603 604 
304 352 353 1058 1059 1060 
305 358 359 1053 1054 1055 
306 361 362 1048 1049 1050 
307 452 364 1044 934 1045 
437 451 109 308 367 368 
599 317 597 848 850 1042 
592 315 593 841 840 1040 
313 355 375 1035 1036 1037 
585 586 587 1032 1033 1034 
356 316 378 1027 1028 1029 
578 579 580 1024 1025 1026 
3 446 445 381 319 383 
7 445 444 384 320 386 
11 444 443 387 321 389 
15 443 442 390 322 392 
19 442 441 393 323 395 
23 441 440 396 324 398 
27 440 439 399 325 401 
432 438 436 336 327 408 
435 437 431 328 337 410 
429 463 435 333 329 411 
434 446 0 330 382 413 
430 464 434 332 331 414 
433 463 429 334 333 415 
1 439 433 402 335 416 
39 438 432 404 336 417 
431 437 940 337 407 418 
43 438 41 338 405 42 
45 462 43 340 339 44 
47 49 342 48 1019 1020 
344 343 51 1009 1010 1011 
346 345 1013 1000 1001 1002 
348 347 702 569 570 571 
350 349 75 560 561 562 
352 351 55 991 992 993 
354 353 979 984 985 986 
355 354 995 975 976 977 
357 356 89 968 969 970 
358 357 956 959 960 961 
360 359 972 952 953 954 
361 360 95 943 944 945 
363 362 99 936 937 938 
364 363 103 927 928 929 
107 451 105 366 365 106 
109 451 107 367 366 108 
931 437 109 406 368 110 
370 369 548 553 554 555 
371 370 690 544 545 546 
372 374 532 537 538 539 
374 373 696 528 529 530 
376 375 61 920 921 922 
924 523 524 915 916 917 
378 380 85 908 909 910 
516 911 518 903 904 905 
0 446 3 382 381 2 
3 445 5 383 385 4 
5 445 7 385 384 6 
7 444 9 386 388 8 
9 444 11 388 387 10 
11 443 13 389 391 12 
13 443 15 391 390 14 
15 442 17 392 394 16 
17 442 19 394 393 18 
19 441 21 395 397 20 
21 441 23 397 396 22 
23 440 25 398 400 24 
25 440 27 400 399 26 
27 439 29 401 403 28 
29 439 1 403 402 30 
41 438 39 405 404 40 
940 437 931 407 406 932 
432 430 31 409 423 419 
429 435 431 411 410 412 
93 429 431 426 412 422 
430 434 0 414 413 424 
1 433 429 416 415 428 
39 432 37 417 420 38 
947 431 940 421 418 941 
37 432 31 420 419 36 
93 431 947 422 421 948 
31 430 33 423 425 32 
33 430 0 425 424 34 
112 429 93 427 426 111 
1 429 112 428 427 113 
220 115 257 746 741 745 
518 899 519 896 897 898 
521 519 380 889 890 891 
630 264 225 882 883 884 
491 177 497 659 170 142 
481 502 140 186 676 152 
744 182 635 879 874 875 
120 247 467 753 735 707 
247 114 492 755 752 736 
114 120 488 754 710 751 
114 213 492 748 662 752 
213 214 491 750 660 665 
214 114 488 749 751 657 
115 220 496 746 652 747 
257 260 466 743 632 727 
182 485 635 878 870 874 
300 246 458 738 728 619 
246 116 487 740 737 729 
116 300 467 739 620 734 
116 212 487 731 670 737 
212 247 492 733 736 671 
247 116 467 732 734 735 
257 246 487 724 729 730 
246 117 458 726 723 728 
117 257 466 725 727 722 
117 299 458 719 625 723 
299 312 449 721 595 626 
312 117 466 720 722 596 
310 303 450 716 608 600 
303 118 457 718 715 605 
118 310 465 717 601 714 
118 248 457 711 708 715 
248 256 488 713 644 709 
256 118 465 712 714 645 
120 248 488 704 709 710 
248 302 457 706 613 708 
302 120 467 705 707 614 
311 71 573 699 72 624 
71 124 63 701 698 70 
124 311 449 700 627 695 
124 65 63 692 64 698 
65 372 67 694 542 66 
372 124 449 693 695 543 
369 79 81 687 80 556 
79 125 73 689 686 78 
125 369 450 688 559 683 
125 684 73 680 685 686 
684 309 564 682 606 565 
309 125 450 681 683 607 
167 140 502 678 676 679 
501 167 502 673 679 157 
140 168 506 675 666 677 
180 167 501 667 673 651 
167 212 492 669 671 672 
212 180 487 668 648 670 
506 168 213 666 663 664 
491 506 213 169 664 665 
491 214 177 660 658 659 
498 177 219 656 654 655 
495 498 219 178 655 646 
496 220 180 652 649 650 
501 496 180 179 650 651 
219 223 495 640 639 646 
223 256 465 642 645 636 
256 219 488 641 643 644 
495 223 263 639 637 638 
483 495 263 224 638 631 
633 635 634 867 868 869 
588 634 259 860 861 862 
629 318 630 854 855 856 
311 299 449 621 626 627 
299 347 458 623 577 625 
347 311 573 622 624 572 
300 301 467 616 615 620 
301 348 69 618 575 612 
348 300 458 617 619 576 
301 302 467 609 614 615 
302 349 457 611 568 613 
349 301 69 610 612 563 
303 309 450 602 607 608 
309 350 564 604 566 606 
350 303 457 603 605 567 
597 317 584 850 807 851 
599 550 581 845 846 847 
371 310 450 598 600 551 
590 315 592 835 841 842 
312 373 449 594 536 595 
593 589 531 836 837 838 
585 590 591 827 828 829 
587 523 589 818 819 820 
586 588 527 811 812 813 
578 583 584 802 803 804 
580 521 582 793 794 795 
579 581 516 784 785 786 
347 348 458 569 576 577 
348 702 69 571 703 575 
702 347 573 570 572 574 
349 350 457 560 567 568 
350 75 564 562 76 566 
75 349 69 561 563 74 
369 370 450 553 552 559 
370 548 557 555 549 547 
548 369 81 554 556 82 
370 371 450 544 551 552 
778 77 550 783 779 780 
690 370 557 545 547 558 
374 372 449 537 543 535 
372 532 67 539 68 542 
532 374 540 538 534 533 
373 374 449 528 535 536 
374 696 540 530 541 534 
531 59 773 772 777 774 
524 527 526 765 766 767 
762 526 376 756 757 758 
744 635 633 875 867 873 
260 744 633 877 873 872 
211 171 515 1166 166 1167 
494 211 515 1168 1167 138 
509 174 511 1152 144 132 
174 217 503 1150 175 1151 
629 583 578 1073 802 810 
465 583 223 805 628 636 
489 307 473 1086 254 218 
258 221 486 1196 1146 1105 
221 121 485 1198 1195 1147 
121 258 455 1197 1104 1194 
121 259 485 1191 864 1195 
259 313 448 1193 1038 865 
313 121 455 1192 1194 1039 
1189 346 1018 1186 1006 1023 
346 123 459 1188 1185 1007 
123 1189 35 1187 1190 1184 
123 298 459 1181 1111 1185 
298 351 456 1183 999 1112 
351 123 35 1182 1184 994 
243 211 494 1178 1168 1119 
211 126 493 1180 1177 1165 
126 243 460 1179 1116 1176 
126 244 493 1173 1115 1177 
244 297 459 1175 1066 1110 
297 126 460 1174 1176 1067 
173 174 509 1171 1152 1172 
507 173 509 1157 1172 143 
510 172 181 1163 1169 1170 
508 510 181 147 1170 1148 
171 172 510 1158 1163 1164 
172 215 486 1160 1136 1162 
215 171 493 1159 1161 1137 
185 173 507 1153 1157 1141 
173 216 490 1155 1131 1156 
216 185 484 1154 1138 1132 
181 182 508 1142 881 1148 
182 221 485 1144 1147 878 
221 181 486 1143 1145 1146 
225 185 507 1139 1141 1140 
483 225 507 887 1140 184 
245 215 493 1133 1137 1114 
215 249 486 1135 1106 1136 
249 245 456 1134 1113 1103 
250 216 484 1128 1132 1099 
216 251 490 1130 1094 1131 
251 250 453 1129 1098 1091 
252 217 490 1123 1127 1093 
217 253 489 1125 1087 1126 
253 252 452 1124 1092 1084 
261 582 447 1120 797 1078 
582 264 318 1122 888 798 
264 261 484 1121 1081 885 
461 296 243 1072 1117 1118 
494 461 243 242 1118 1119 
244 245 493 1107 1114 1115 
245 298 456 1109 1112 1113 
298 244 459 1108 1110 1111 
249 258 486 1100 1105 1106 
258 304 455 1102 1061 1104 
304 249 456 1101 1103 1062 
262 250 484 1095 1099 1080 
250 305 453 1097 1056 1098 
305 262 454 1096 1079 1057 
251 252 490 1088 1093 1094 
252 306 452 1090 1051 1092 
306 251 453 1089 1091 1052 
489 253 307 1087 1085 1086 
260 633 591 872 1082 1083 
466 260 591 632 1083 831 
261 262 484 1075 1080 1081 
262 316 454 1077 1031 1079 
316 261 447 1076 1078 1030 
583 629 263 1073 859 1074 
342 296 461 1068 1072 1022 
296 343 460 1070 1017 1071 
343 342 49 1069 1019 1012 
344 297 460 1063 1067 1016 
297 345 459 1065 1008 1066 
345 344 1004 1064 1015 1003 
352 304 456 1058 1062 998 
304 353 455 1060 990 1061 
353 352 57 1059 997 987 
358 305 454 1053 1057 966 
305 359 453 1055 958 1056 
359 358 963 1054 965 955 
361 306 453 1048 1052 950 
306 362 452 1050 942 1051 
362 361 97 1049 949 939 
451 307 364 1047 1045 1046 
105 451 364 365 1046 933 
371 599 597 849 1042 1043 
310 371 597 598 1043 852 
592 593 373 1040 839 1041 
312 592 373 844 1041 594 
355 313 455 1035 1039 982 
313 375 448 1037 926 1038 
375 355 53 1036 981 923 
586 585 314 1032 833 816 
585 587 315 1034 824 834 
587 586 377 1033 815 825 
316 356 454 1027 974 1031 
356 378 83 1029 913 971 
378 316 447 1028 1030 914 
579 578 317 1024 808 791 
578 580 318 1026 799 809 
580 579 379 1025 790 800 
45 47 342 46 1020 1021 
461 45 342 341 1021 1022 
343 344 460 1009 1016 1017 
344 51 1004 1011 52 1015 
51 343 49 1010 1012 50 
345 346 459 1000 1007 1008 
346 1013 1018 1002 1014 1006 
1013 345 1004 1001 1003 1005 
351 352 456 991 998 999 
352 55 57 993 56 997 
55 351 35 992 994 54 
353 354 455 984 983 990 
354 979 988 986 980 978 
979 353 57 985 987 58 
354 355 455 975 982 983 
355 995 53 977 996 981 
995 354 988 976 978 989 
356 357 454 968 967 974 
357 89 91 970 90 962 
89 356 83 969 971 88 
357 358 454 959 966 967 
358 956 963 961 957 965 
956 357 91 960 962 92 
359 360 453 952 951 958 
360 972 87 954 973 946 
972 359 963 953 955 964 
360 361 453 943 950 951 
361 95 97 945 96 949 
95 360 87 944 946 94 
362 363 452 936 935 942 
363 99 101 938 100 930 
99 362 97 937 939 98 
363 364 452 927 934 935 
364 103 105 929 104 933 
103 363 101 928 930 102 
375 376 448 920 760 926 
376 61 522 922 62 761 
61 375 53 921 923 60 
523 924 59 915 925 821 
924 524 918 917 769 919 
524 523 377 916 826 770 
380 378 447 908 914 894 
378 85 83 910 84 913 
85 380 517 909 893 86 
911 516 77 903 788 912 
516 518 379 905 900 789 
518 911 906 904 907 901 
899 518 906 896 901 902 
518 519 379 898 895 900 
519 899 517 897 520 892 
519 521 379 889 801 895 
521 380 447 891 894 796 
380 519 517 890 892 893 
264 630 318 882 855 888 
630 225 483 884 887 858 
225 264 484 883 885 886 
508 182 744 881 879 880 
115 508 744 222 880 876 
115 744 260 876 877 742 
633 634 314 869 866 871 
634 635 485 868 870 863 
634 588 314 860 817 866 
588 259 448 862 865 814 
259 634 485 861 863 864 
263 629 630 859 856 857 
483 263 630 631 857 858 
597 584 465 851 806 853 
310 597 465 852 853 601 
550 599 371 845 849 782 
599 581 317 847 792 848 
581 550 77 846 779 787 
466 590 592 830 842 843 
312 466 592 596 843 844 
589 593 315 836 840 823 
593 531 373 838 775 839 
531 589 59 837 822 772 
590 585 315 827 834 835 
585 591 314 829 832 833 
591 590 466 828 830 831 
523 587 377 818 825 826 
587 589 315 820 823 824 
589 523 59 819 821 822 
588 586 314 811 816 817 
586 527 377 813 771 815 
527 588 448 812 814 768 
578 584 317 804 807 808 
584 583 465 803 805 806 
521 580 379 793 800 801 
580 582 318 795 798 799 
582 521 447 794 796 797 
581 579 317 784 791 792 
579 516 379 786 789 790 
516 581 77 785 787 788 
690 778 550 691 780 781 
371 690 550 546 781 782 
531 773 696 774 697 776 
373 531 696 775 776 529 
527 524 377 765 770 771 
524 526 918 767 764 769 
526 527 448 766 768 759 
526 762 918 756 763 764 
762 376 522 758 761 525 
376 526 448 757 759 760 
1199 1200
1201 1202
1203 1204
1205 1206
1207 1208
1209 1210
1211 1212
1213 1214
1215 1216
1217 1218
1219 1220
1221 1222
1223 1224
1225 1226
1227 1228
1229 1230
1231 1232
1233 1234
1235 1236
1237 1238
1239 1240
1241 1242
1243 1244
1245 1246
1247 1248
1249 1250
1251 1252
1253 1254
1255 1256
1257 1258
1259 1260
1261 1262
1263 1264
1265 1266
1267 1268
1269 1270
1271 1272
1273 1274
1275 1276
1277 1278
1279 1280
1281 1282
1283 1284
1285 1286
1287 1288
1289 1290
1291 1292
1293 1294
1295 1296
1297 1298
1299 1300
1301 1302
1303 1304
1305 1306
1307 1308
1309 1310
1311 1312
1313 1314
1315 1316
1317 1318
1319 1320
1321 1322
1323 1324
1325 1326
1327 1328
1329 1330
1331 1332
1333 1334
1335 1336
1337 1338
1339 1340
1341 1342
1343 1344
1345 1346
1347 1348
1349 1350
1351 1352
1353 1354
1355 1356
1357 1358
1359 1360
1361 1362
1363 1364
1365 1366
1367 1368
1369 1370
1371 1372
1373 1374
1375 1376
1377 1378
1379 1380
1381 1382
1383 1384
1385 1386
1387 1388
1389 1390
1391 1392
1393 1394
1395 1396
1397 1398
1399 1400
1401 1402
1403 1404
1405 1406
1407 1408
1409 1410
1411 1412
1413 1414
1415 1416
1417 1418
1419 1420
1421 1422
1423 1424
1425 1426
1427 1428
1429 1430
1431 1432
1433 1434
1435 1436
1437 1438
1439 1440
1441 1442
1443 1444
1445 1446
1447 1448
1449 1450
1451 1452
1453 1454
1455 1456
1457 1458
1459 1460
1461 1462
1463 1464
1465 1466
1467 1468
1469 1470
1471 1472
1473 1474
1475 1476
1477 1478
1479 1480
1481 1482
1483 1484
1485 1486
1487 1488
1489 1490
1491 1492
1493 1494
1495 1496
1497 1498
1499 1500
1501 1502
1503 1504
1505 1506
1507 1508
1509 1510
1511 1512
1513 1514
1515 1516
1517 1518
1519 1520
1521 1522
1523 1524
1525 1526
1527 1528
1529 1530
1531 1532
1533 1534
1535 1536
1537 1538
1539 1540
1541 1542
1543 1544
1545 1546
1547 1548
1549 1550
1551 1552
1553 1554
1555 1556
1557 1558
1559 1560
1561 1562
1563 1564
1565 1566
1567 1568
1569 1570
1571 1572
1573 1574
1575 1576
1577 1578
1579 1580
1581 1582
1583 1584
1585 1586
1587 1588
1589 1590
1591 1592
1593 1594
1595 1596
1597 1598
1599 1600
1601 1602
1603 1604
1605 1606
1607 1608
1609 1610
1611 1612
1613 1614
1615 1616
1617 1618
1619 1620
1621 1622
1623 1624
1625 1626
1627 1628
1629 1630
1631 1632
1633 1634
1635 1636
1637 1638
1639 1640
1641 1642
1643 1644
1645 1646
1647 1648
1649 1650
1651 1652
1653 1654
1655 1656
1657 1658
1659 1660
1661 1662
1663 1664
1665 1666
1667 1668
1669 1670
1671 1672
1673 1674
1675 1676
1677 1678
1679 1680
1681 1682
1683 1684
1685 1686
1687 1688
1689 1690
1691 1692
1693 1694
1695 1696
1697 1698
1699 1700
1701 1702
1703 1704
1705 1706
1707 1708
1709 1710
1711 1712
1713 1714
1715 1716
1717 1718
1719 1720
1721 1722
1723 1724
1725 1726
1727 1728
1729 1730
1731 1732
1733 1734
1735 1736
1737 1738
1739 1740
1741 1742
1743 1744
1745 1746
1747 1748
1749 1750
1751 1752
1753 1754
1755 1756
1757 1758
1759 1760
1761 1762
1763 1764
1765 1766
1767 1768
1769 1770
1771 1772
1773 1774
1775 1776
1777 1778
1779 1780
1781 1782
1783 1784
1785 1786
1787 1788
1789 1790
1791 1792
1793 1794
1795 1796
1797 1798
1799 1800
1801 1802
1803 1804
1805 1806
1807 1808
1809 1810
1811 1812
1813 1814
1815 1816
1817 1818
1819 1820
1821 1822
1823 1824
1825 1826
1827 1828
1829 1830
1831 1832
1833 1834
1835 1836
1837 1838
1839 1840
1841 1842
1843 1844
1845 1846
1847 1848
1849 1850
1851 1852
1853 1854
1855 1856
1857 1858
1859 1860
1861 1862
1863 1864
1865 1866
1867 1868
1869 1870
1871 1872
1873 1874
1875 1876
1877 1878
1879 1880
1881 1882
1883 1884
1885 1886
1887 1888
1889 1890
1891 1892
1893 1894
1895 1896
1897 1898
1899 1900
1901 1902
1903 1904
1905 1906
1907 1908
1909 1910
1911 1912
1913 1914
1915 1916
1917 1918
1919 1920
1921 1922
1923 1924
1925 1926
1927 1928
1929 1930
1931 1932
1933 1934
1935 1936
1937 1938
1939 1940
1941 1942
1943 1944
1945 1946
1947 1948
1949 1950
1951 1952
1953 1954
1955 1956
1957 1958
1959 1960
1961 1962
1963 1964
1965 1966
1967 1968
1969 1970
1971 1972
1973 1974
1975 1976
1977 1978
1979 1980
1981 1982
1983 1984
1985 1986
1987 1988
1989 1990
1991 1992
1993 1994
1995 1996
1997 1998
1999 2000
2001 2002
2003 2004
2005 2006
2007 2008
2009 2010
2011 2012
2013 2014
2015 2016
2017 2018
2019 2020
2021 2022
2023 2024
2025 2026
2027 2028
2029 2030
2031 2032
2033 2034
2035 2036
2037 2038
2039 2040
2041 2042
2043 2044
2045 2046
2047 2048
2049 2050
2051 2052
2053 2054
2055 2056
2057 2058
2059 2060
2061 2062
2063 2064
2065 2066
2067 2068
2069 2070
2071 2072
2073 2074
2075 2076
2077 2078
2079 2080
2081 2082
2083 2084
2085 2086
2087 2088
2089 2090
2091 2092
2093 2094
2095 2096
2097 2098
2099 2100
2101 2102
2103 2104
2105 2106
2107 2108
2109 2110
2111 2112
2113 2114
2115 2116
2117 2118
2119 2120
2121 2122
2123 2124
2125 2126
2127 2128
2129 2130
2131 2132
2133 2134
2135 2136
2137 2138
2139 2140
2141 2142
2143 2144
2145 2146
2147 2148
2149 2150
2151 2152
2153 2154
2155 2156
2157 2158
2159 2160
2161 2162
2163 2164
2165 2166
2167 2168
2169 2170
2171 2172
2173 2174
2175 2176
2177 2178
2179 2180
2181 2182
2183 2184
2185 2186
2187 2188
2189 2190
2191 2192
2193 2194
2195 2196
2197 2198
2199 2200
2201 2202
2203 2204
2205 2206
2207 2208
2209 2210
2211 2212
2213 2214
2215 2216
2217 2218
2219 2220
2221 2222
2223 2224
2225 2226
2227 2228
2229 2230
2231 2232
2233 2234
2235 2236
2237 2238
2239 2240
2241 2242
2243 2244
2245 2246
2247 2248
2249 2250
2251 2252
2253 2254
2255 2256
2257 2258
2259 2260
2261 2262
2263 2264
2265 2266
2267 2268
2269 2270
2271 2272
2273 2274
2275 2276
2277 2278
2279 2280
2281 2282
2283 2284
2285 2286
2287 2288
2289 2290
2291 2292
2293 2294
2295 2296
2297 2298
2299 2300
2301 2302
2303 2304
2305 2306
2307 2308
2309 2310
2311 2312
2313 2314
2315 2316
2317 2318
2319 2320
2321 2322
2323 2324
2325 2326
2327 2328
2329 2330
2331 2332
2333 2334
2335 2336
2337 2338
2339 2340
2341 2342
2343 2344
2345 2346
2347 2348
2349 2350
2351 2352
2353 2354
2355 2356
2357 2358
2359 2360
2361 2362
2363 2364
2365 2366
2367 2368
2369 2370
2371 2372
2373 2374
2375 2376
2377 2378
2379 2380
2381 2382
2383 2384
2385 2386
2387 2388
2389 2390
2391 2392
2393 2394
2395 2396
2397 2398
2399 2400
2401 2402
2403 2404
2405 2406
2407 2408
2409 2410
2411 2412
2413 2414
2415 2416
2417 2418
2419 2420
2421 2422
2423 2424
2425 2426
2427 2428
2429 2430
2431 2432
2433 2434
2435 2436
2437 2438
2439 2440
2441 2442
2443 2444
2445 2446
2447 2448
2449 2450
2451 2452
2453 2454
2455 2456
2457 2458
2459 2460
2461 2462
2463 2464
2465 2466
2467 2468
2469 2470
2471 2472
2473 2474
2475 2476
2477 2478
2479 2480
2481 2482
2483 2484
2485 2486
2487 2488
2489 2490
2491 2492
2493 2494
2495 2496
2497 2498
2499 2500
2501 2502
2503 2504
2505 2506
2507 2508
2509 2510
2511 2512
2513 2514
2515 2516
2517 2518
2519 2520
2521 2522
2523 2524
2525 2526
2527 2528
2529 2530
2531 2532
2533 2534
2535 2536
2537 2538
2539 2540
2541 2542
2543 2544
2545 2546
2547 2548
2549 2550
2551 2552
2553 2554
2555 2556
2557 2558
2559 2560
2561 2562
2563 2564
2565 2566
2567 2568
2569 2570
2571 2572
2573 2574
2575 2576
2577 2578
2579 2580
2581 2582
2583 2584
2585 2586
2587 2588
2589 2590
2591 2592
2593 2594
2595 2596
2597 2598
2599 2600
2601 2602
2603 2604
2605 2606
2607 2608
2609 2610
2611 2612
2613 2614
2615 2616
2617 2618
2619 2620
2621 2622
2623 2624
2625 2626
2627 2628
2629 2630
2631 2632
2633 2634
2635 2636
2637 2638
2639 2640
2641 2642
2643 2644
2645 2646
2647 2648
2649 2650
2651 2652
2653 2654
2655 2656
2657 2658
2659 2660
2661 2662
2663 2664
2665 2666
2667 2668
2669 2670
2671 2672
2673 2674
2675 2676
2677 2678
2679 2680
2681 2682
2683 2684
2685 2686
2687 2688
2689 2690
2691 2692
2693 2694
2695 2696
2697 2698
2699 2700
2701 2702
2703 2704
2705 2706
2707 2708
2709 2710
2711 2712
2713 2714
2715 2716
2717 2718
2719 2720
2721 2722
2723 2724
2725 2726
2727 2728
2729 2730
2731 2732
2733 2734
2735 2736
2737 2738
2739 2740
2741 2742
2743 2744
2745 2746
2747 2748
2749 2750
2751 2752
2753 2754
2755 2756
2757 2758
2759 2760
2761 2762
2763 2764
2765 2766
2767 2768
2769 2770
2771 2772
2773 2774
2775 2776
2777 2778
2779 2780
2781 2782
2783 2784
2785 2786
2787 2788
2789 2790
2791 2792
2793 2794
2795 2796
2797 2798
2799 2800
2801 2802
2803 2804
2805 2806
2807 2808
2809 2810
2811 2812
2813 2814
2815 2816
2817 2818
2819 2820
2821 2822
2823 2824
2825 2826
2827 2828
2829 2830
2831 2832
2833 2834
2835 2836
2837 2838
2839 2840
2841 2842
2843 2844
2845 2846
2847 2848
2849 2850
2851 2852
2853 2854
2855 2856
2857 2858
2859 2860
2861 2862
2863 2864
2865 2866
2867 2868
2869 2870
2871 2872
2873 2874
2875 2876
2877 2878
2879 2880
2881 2882
2883 2884
2885 2886
2887 2888
2889 2890
2891 2892
2893 2894
2895 2896
2897 2898
2899 2900
2901 2902
2903 2904
2905 2906
2907 2908
2909 2910
2911 2912
2913 2914
2915 2916
2917 2918
2919 2920
2921 2922
2923 2924
2925 2926
2927 2928
2929 2930
2931 2932
2933 2934
2935 2936
2937 2938
2939 2940
2941 2942
2943 2944
2945 2946
2947 2948
2949 2950
2951 2952
2953 2954
2955 2956
2957 2958
2959 2960
2961 2962
2963 2964
2965 2966
2967 2968
2969 2970
2971 2972
2973 2974
2975 2976
2977 2978
2979 2980
2981 2982
2983 2984
2985 2986
2987 2988
2989 2990
2991 2992
2993 2994
2995 2996
2997 2998
2999 3000
3001 3002
3003 3004
3005 3006
3007 3008
3009 3010
3011 3012
3013 3014
3015 3016
3017 3018
3019 3020
3021 3022
3023 3024
3025 3026
3027 3028
3029 3030
3031 3032
3033 3034
3035 3036
3037 3038
3039 3040
3041 3042
3043 3044
3045 3046
3047 3048
3049 3050
3051 3052
3053 3054
3055 3056
3057 3058
3059 3060
3061 3062
3063 3064
3065 3066
3067 3068
3069 3070
3071 3072
3073 3074
3075 3076
3077 3078
3079 3080
3081 3082
3083 3084
3085 3086
3087 3088
3089 3090
3091 3092
3093 3094
3095 3096
3097 3098
3099 3100
3101 3102
3103 3104
3105 3106
3107 3108
3109 3110
3111 3112
3113 3114
3115 3116
3117 3118
3119 3120
3121 3122
3123 3124
3125 3126
3127 3128
3129 3130
3131 3132
3133 3134
3135 3136
3137 3138
3139 3140
3141 3142
3143 3144
3145 3146
3147 3148
3149 3150
3151 3152
3153 3154
3155 3156
3157 3158
3159 3160
3161 3162
3163 3164
3165 3166
3167 3168
3169 3170
3171 3172
3173 3174
3175 3176
3177 3178
3179 3180
3181 3182
3183 3184
3185 3186
3187 3188
3189 3190
3191 3192
3193 3194
3195 3196
3197 3198
3199 3200
3201 3202
3203 3204
3205 3206
3207 3208
3209 3210
3211 3212
3213 3214
3215 3216
3217 3218
3219 3220
3221 3222
3223 3224
3225 3226
3227 3228
3229 3230
3231 3232
3233 3234
3235 3236
3237 3238
3239 3240
3241 3242
3243 3244
3245 3246
3247 3248
3249 3250
3251 3252
3253 3254
3255 3256
3257 3258
3259 3260
3261 3262
3263 3264
3265 3266
3267 3268
3269 3270
3271 3272
3273 3274
3275 3276
3277 3278
3279 3280
3281 3282
3283 3284
3285 3286
3287 3288
3289 3290
3291 3292
3293 3294
3295 3296
3297 3298
3299 3300
3301 3302
3303 3304
3305 3306
3307 3308
3309 3310
3311 3312
3313 3314
3315 3316
3317 3318
3319 3320
3321 3322
3323 3324
3325 3326
3327 3328
3329 3330
3331 3332
3333 3334
3335 3336
3337 3338
3339 3340
3341 3342
3343 3344
3345 3346
3347 3348
3349 3350
3351 3352
3353 3354
3355 3356
3357 3358
3359 3360
3361 3362
3363 3364
3365 3366
3367 3368
3369 3370
3371 3372
3373 3374
3375 3376
3377 3378
3379 3380
3381 3382
3383 3384
3385 3386
3387 3388
3389 3390
3391 3392
3393 3394
3395 3396
3397 3398
3399 3400
3401 3402
3403 3404
3405 3406
3407 3408
3409 3410
3411 3412
3413 3414
3415 3416
3417 3418
3419 3420
3421 3422
3423 3424
3425 3426
3427 3428
3429 3430
3431 3432
3433 3434
3435 3436
3437 3438
3439 3440
3441 3442
3443 3444
3445 3446
3447 3448
3449 3450
3451 3452
3453 3454
3455 3456
3457 3458
3459 3460
3461 3462
3463 3464
3465 3466
3467 3468
3469 3470
3471 3472
3473 3474
3475 3476
3477 3478
3479 3480
3481 3482
3483 3484
3485 3486
      </DataArray>
      <DataArray type="Int32" Name="offsets" format="ascii">
6
12
18
24
30
36
42
48
54
60
66
72
78
84
90
96
102
108
114
120
126
132
138
144
150
156
162
168
174
180
186
192
198
204
210
216
222
228
234
240
246
252
258
264
270
276
282
288
294
300
306
312
318
324
330
336
342
348
354
360
366
372
378
384
390
396
402
408
414
420
426
432
438
444
450
456
462
468
474
480
486
492
498
504
510
516
522
528
534
540
546
552
558
564
570
576
582
588
594
600
606
612
618
624
630
636
642
648
654
660
666
672
678
684
690
696
702
708
714
720
726
732
738
744
750
756
762
768
774
780
786
792
798
804
810
816
822
828
834
840
846
852
858
864
870
876
882
888
894
900
906
912
918
924
930
936
942
948
954
960
966
972
978
984
990
996
1002
1008
1014
1020
1026
1032
1038
1044
1050
1056
1062
1068
1074
1080
1086
1092
1098
1104
1110
1116
1122
1128
1134
1140
1146
1152
1158
1164
1170
1176
1182
1188
1194
1200
1206
1212
1218
1224
1230
1236
1242
1248
1254
1260
1266
1272
1278
1284
1290
1296
1302
1308
1314
1320
1326
1332
1338
1344
1350
1356
1362
1368
1374
1380
1386
1392
1398
1404
1410
1416
1422
1428
1434
1440
1446
1452
1458
1464
1470
1476
1482
1488
1494
1500
1506
1512
1518
1524
1530
1536
1542
1548
1554
1560
1566
1572
1578
1584
1590
1596
1602
1608
1614
1620
1626
1632
1638
1644
1650
1656
1662
1668
1674
1680
1686
1692
1698
1704
1710
1716
1722
1728
1734
1740
1746
1752
1758
1764
1770
1776
1782
1788
1794
1800
1806
1812
1818
1824
1830
1836
1842
1848
1854
1860
1866
1872
1878
1884
1890
1896
1902
1908
1914
1920
1926
1932
1938
1944
1950
1956
1962
1968
1974
1980
1986
1992
1998
2004
2010
2016
2022
2028
2034
2040
2046
2052
2058
2064
2070
2076
2082
2088
2094
2100
2106
2112
2118
2124
2130
2136
2142
2148
2154
2160
2166
2172
2178
2184
2190
2196
2202
2208
2214
2220
2226
2232
2238
2244
2250
2256
2262
2268
2274
2280
2286
2292
2298
2304
2310
2316
2322
2328
2334
2340
2346
2352
2358
2364
2370
2376
2382
2388
2394
2400
2406
2412
2418
2424
2430
2436
2442
2448
2454
2460
2466
2472
2478
2484
2490
2496
2502
2508
2514
2520
2526
2532
2538
2544
2550
2556
2562
2568
2574
2580
2586
2592
2598
2604
2610
2616
2622
2628
2634
2640
2646
2652
2658
2664
2670
2676
2682
2688
2694
2700
2706
2712
2718
2724
2730
2736
2742
2748
2754
2760
2766
2772
2778
2784
2790
2796
2802
2808
2814
2820
2826
2832
2838
2844
2850
2856
2862
2868
2874
2880
2886
2892
2898
2904
2910
2916
2922
2928
2934
2940
2946
2952
2958
2964
2970
2976
2982
2988
2994
3000
3006
3012
3018
3024
3030
3036
3042
3048
3054
3060
3066
3072
3078
3084
3090
3096
3102
3108
3114
3120
3126
3132
3138
3144
3150
3156
3162
3168
3174
3180
3186
3192
3198
3204
3210
3216
3222
3228
3234
3240
3246
3252
3258
3264
3270
3276
3282
3288
3294
3300
3306
3312
3318
3324
3326
3328
3330
3332
3334
3336
3338
3340
3342
3344
3346
3348
3350
3352
3354
3356
3358
3360
3362
3364
3366
3368
3370
3372
3374
3376
3378
3380
3382
3384
3386
3388
3390
3392
3394
3396
3398
3400
3402
3404
3406
3408
3410
3412
3414
3416
3418
3420
3422
3424
3426
3428
3430
3432
3434
3436
3438
3440
3442
3444
3446
3448
3450
3452
3454
3456
3458
3460
3462
3464
3466
3468
3470
3472
3474
3476
3478
3480
3482
3484
3486
3488
3490
3492
3494
3496
3498
3500
3502
3504
3506
3508
3510
3512
3514
3516
3518
3520
3522
3524
3526
3528
3530
3532
3534
3536
3538
3540
3542
3544
3546
3548
3550
3552
3554
3556
3558
3560
3562
3564
3566
3568
3570
3572
3574
3576
3578
3580
3582
3584
3586
3588
3590
3592
3594
3596
3598
3600
3602
3604
3606
3608
3610
3612
3614
3616
3618
3620
3622
3624
3626
3628
3630
3632
3634
3636
3638
3640
3642
3644
3646
3648
3650
3652
3654
3656
3658
3660
3662
3664
3666
3668
3670
3672
3674
3676
3678
3680
3682
3684
3686
3688
3690
3692
3694
3696
3698
3700
3702
3704
3706
3708
3710
3712
3714
3716
3718
3720
3722
3724
3726
3728
3730
3732
3734
3736
3738
3740
3742
3744
3746
3748
3750
3752
3754
3756
3758
3760
3762
3764
3766
3768
3770
3772
3774
3776
3778
3780
3782
3784
3786
3788
3790
3792
3794
3796
3798
3800
3802
3804
3806
3808
3810
3812
3814
3816
3818
3820
3822
3824
3826
3828
3830
3832
3834
3836
3838
3840
3842
3844
3846
3848
3850
3852
3854
3856
3858
3860
3862
3864
3866
3868
3870
3872
3874
3876
3878
3880
3882
3884
3886
3888
3890
3892
3894
3896
3898
3900
3902
3904
3906
3908
3910
3912
3914
3916
3918
3920
3922
3924
3926
3928
3930
3932
3934
3936
3938
3940
3942
3944
3946
3948
3950
3952
3954
3956
3958
3960
3962
3964
3966
3968
3970
3972
3974
3976
3978
3980
3982
3984
3986
3988
3990
3992
3994
3996
3998
4000
4002
4004
4006
4008
4010
4012
4014
4016
4018
4020
4022
4024
4026
4028
4030
4032
4034
4036
4038
4040
4042
4044
4046
4048
4050
4052
4054
4056
4058
4060
4062
4064
4066
4068
4070
4072
4074
4076
4078
4080
4082
4084
4086
4088
4090
4092
4094
4096
4098
4100
4102
4104
4106
4108
4110
4112
4114
4116
4118
4120
4122
4124
4126
4128
4130
4132
4134
4136
4138
4140
4142
4144
4146
4148
4150
4152
4154
4156
4158
4160
4162
4164
4166
4168
4170
4172
4174
4176
4178
4180
4182
4184
4186
4188
4190
4192
4194
4196
4198
4200
4202
4204
4206
4208
4210
4212
4214
4216
4218
4220
4222
4224
4226
4228
4230
4232
4234
4236
4238
4240
4242
4244
4246
4248
4250
4252
4254
4256
4258
4260
4262
4264
4266
4268
4270
4272
4274
4276
4278
4280
4282
4284
4286
4288
4290
4292
4294
4296
4298
4300
4302
4304
4306
4308
4310
4312
4314
4316
4318
4320
4322
4324
4326
4328
4330
4332
4334
4336
4338
4340
4342
4344
4346
4348
4350
4352
4354
4356
4358
4360
4362
4364
4366
4368
4370
4372
4374
4376
4378
4380
4382
4384
4386
4388
4390
4392
4394
4396
4398
4400
4402
4404
4406
4408
4410
4412
4414
4416
4418
4420
4422
4424
4426
4428
4430
4432
4434
4436
4438
4440
4442
4444
4446
4448
4450
4452
4454
4456
4458
4460
4462
4464
4466
4468
4470
4472
4474
4476
4478
4480
4482
4484
4486
4488
4490
4492
4494
4496
4498
4500
4502
4504
4506
4508
4510
4512
4514
4516
4518
4520
4522
4524
4526
4528
4530
4532
4534
4536
4538
4540
4542
4544
4546
4548
4550
4552
4554
4556
4558
4560
4562
4564
4566
4568
4570
4572
4574
4576
4578
4580
4582
4584
4586
4588
4590
4592
4594
4596
4598
4600
4602
4604
4606
4608
4610
4612
4614
4616
4618
4620
4622
4624
4626
4628
4630
4632
4634
4636
4638
4640
4642
4644
4646
4648
4650
4652
4654
4656
4658
4660
4662
4664
4666
4668
4670
4672
4674
4676
4678
4680
4682
4684
4686
4688
4690
4692
4694
4696
4698
4700
4702
4704
4706
4708
4710
4712
4714
4716
4718
4720
4722
4724
4726
4728
4730
4732
4734
4736
4738
4740
4742
4744
4746
4748
4750
4752
4754
4756
4758
4760
4762
4764
4766
4768
4770
4772
4774
4776
4778
4780
4782
4784
4786
4788
4790
4792
4794
4796
4798
4800
4802
4804
4806
4808
4810
4812
4814
4816
4818
4820
4822
4824
4826
4828
4830
4832
4834
4836
4838
4840
4842
4844
4846
4848
4850
4852
4854
4856
4858
4860
4862
4864
4866
4868
4870
4872
4874
4876
4878
4880
4882
4884
4886
4888
4890
4892
4894
4896
4898
4900
4902
4904
4906
4908
4910
4912
4914
4916
4918
4920
4922
4924
4926
4928
4930
4932
4934
4936
4938
4940
4942
4944
4946
4948
4950
4952
4954
4956
4958
4960
4962
4964
4966
4968
4970
4972
4974
4976
4978
4980
4982
4984
4986
4988
4990
4992
4994
4996
4998
5000
5002
5004
5006
5008
5010
5012
5014
5016
5018
5020
5022
5024
5026
5028
5030
5032
5034
5036
5038
5040
5042
5044
5046
5048
5050
5052
5054
5056
5058
5060
5062
5064
5066
5068
5070
5072
5074
5076
5078
5080
5082
5084
5086
5088
5090
5092
5094
5096
5098
5100
5102
5104
5106
5108
5110
5112
5114
5116
5118
5120
5122
5124
5126
5128
5130
5132
5134
5136
5138
5140
5142
5144
5146
5148
5150
5152
5154
5156
5158
5160
5162
5164
5166
5168
5170
5172
5174
5176
5178
5180
5182
5184
5186
5188
5190
5192
5194
5196
5198
5200
5202
5204
5206
5208
5210
5212
5214
5216
5218
5220
5222
5224
5226
5228
5230
5232
5234
5236
5238
5240
5242
5244
5246
5248
5250
5252
5254
5256
5258
5260
5262
5264
5266
5268
5270
5272
5274
5276
5278
5280
5282
5284
5286
5288
5290
5292
5294
5296
5298
5300
5302
5304
5306
5308
5310
5312
5314
5316
5318
5320
5322
5324
5326
5328
5330
5332
5334
5336
5338
5340
5342
5344
5346
5348
5350
5352
5354
5356
5358
5360
5362
5364
5366
5368
5370
5372
5374
5376
5378
5380
5382
5384
5386
5388
5390
5392
5394
5396
5398
5400
5402
5404
5406
5408
5410
5412
5414
5416
5418
5420
5422
5424
5426
5428
5430
5432
5434
5436
5438
5440
5442
5444
5446
5448
5450
5452
5454
5456
5458
5460
5462
5464
5466
5468
5470
5472
5474
5476
5478
5480
5482
5484
5486
5488
5490
5492
5494
5496
5498
5500
5502
5504
5506
5508
5510
5512
5514
5516
5518
5520
5522
5524
5526
5528
5530
5532
5534
5536
5538
5540
5542
5544
5546
5548
5550
5552
5554
5556
5558
5560
5562
5564
5566
5568
5570
5572
5574
5576
5578
5580
5582
5584
5586
5588
5590
5592
5594
5596
5598
5600
5602
5604
5606
5608
5610
5612
      </DataArray>
      <DataArray type="UInt8" Name="types" format="ascii">
69
69
69
69
69
69
69
69
69
69
69
69
69
69
69
69
69
69
69
69
69
69
69
69
69
69
69
69
69
69
69
69
69
69
69
69
69
69
69
69
69
69
69
69
69
69
69
69
69
69
69
69
69
69
69
69
69
69
69
69
69
69
69
69
69
69
69
69
69
69
69
69
69
69
69
69
69
69
69
69
69
69
69
69
69
69
69
69
69
69
69
69
69
69
69
69
69
69
69
69
69
69
69
69
69
69
69
69
69
69
69
69
69
69
69
69
69
69
69
69
69
69
69
69
69
69
69
69
69
69
69
69
69
69
69
69
69
69
69
69
69
69
69
69
69
69
69
69
69
69
69
69
69
69
69
69
69
69
69
69
69
69
69
69
69
69
69
69
69
69
69
69
69
69
69
69
69
69
69
69
69
69
69
69
69
69
69
69
69
69
69
69
69
69
69
69
69
69
69
69
69
69
69
69
69
69
69
69
69
69
69
69
69
69
69
69
69
69
69
69
69
69
69
69
69
69
69
69
69
69
69
69
69
69
69
69
69
69
69
69
69
69
69
69
69
69
69
69
69
69
69
69
69
69
69
69
69
69
69
69
69
69
69
69
69
69
69
69
69
69
69
69
69
69
69
69
69
69
69
69
69
69
69
69
69
69
69
69
69
69
69
69
69
69
69
69
69
69
69
69
69
69
69
69
69
69
69
69
69
69
69
69
69
69
69
69
69
69
69
69
69
69
69
69
69
69
69
69
69
69
69
69
69
69
69
69
69
69
69
69
69
69
69
69
69
69
69
69
69
69
69
69
69
69
69
69
69
69
69
69
69
69
69
69
69
69
69
69
69
69
69
69
69
69
69
69
69
69
69
69
69
69
69
69
69
69
69
69
69
69
69
69
69
69
69
69
69
69
69
69
69
69
69
69
69
69
69
69
69
69
69
69
69
69
69
69
69
69
69
69
69
69
69
69
69
69
69
69
69
69
69
69
69
69
69
69
69
69
69
69
69
69
69
69
69
69
69
69
69
69
69
69
69
69
69
69
69
69
69
69
69
69
69
69
69
69
69
69
69
69
69
69
69
69
69
69
69
69
69
69
69
69
69
69
69
69
69
69
69
69
69
69
69
69
69
69
69
69
69
69
69
69
69
69
69
69
69
69
69
69
69
69
69
69
69
69
69
69
69
69
69
69
69
69
69
69
69
69
69
69
69
69
69
69
69
69
69
69
69
69
69
69
69
69
69
69
69
69
69
69
69
69
69
69
3
3
3
3
3
3
3
3
3
3
3
3
3
3
3
3
3
3
3
3
3
3
3
3
3
3
3
3
3
3
3
3
3
3
3
3
3
3
3
3
3
3
3
3
3
3
3
3
3
3
3
3
3
3
3
3
3
3
3
3
3
3
3
3
3
3
3
3
3
3
3
3
3
3
3
3
3
3
3
3
3
3
3
3
3
3
3
3
3
3
3
3
3
3
3
3
3
3
3
3
3
3
3
3
3
3
3
3
3
3
3
3
3
3
3
3
3
3
3
3
3
3
3
3
3
3
3
3
3
3
3
3
3
3
3
3
3
3
3
3
3
3
3
3
3
3
3
3
3
3
3
3
3
3
3
3
3
3
3
3
3
3
3
3
3
3
3
3
3
3
3
3
3
3
3
3
3
3
3
3
3
3
3
3
3
3
3
3
3
3
3
3
3
3
3
3
3
3
3
3
3
3
3
3
3
3
3
3
3
3
3
3
3
3
3
3
3
3
3
3
3
3
3
3
3
3
3
3
3
3
3
3
3
3
3
3
3
3
3
3
3
3
3
3
3
3
3
3
3
3
3
3
3
3
3
3
3
3
3
3
3
3
3
3
3
3
3
3
3
3
3
3
3
3
3
3
3
3
3
3
3
3
3
3
3
3
3
3
3
3
3
3
3
3
3
3
3
3
3
3
3
3
3
3
3
3
3
3
3
3
3
3
3
3
3
3
3
3
3
3
3
3
3
3
3
3
3
3
3
3
3
3
3
3
3
3
3
3
3
3
3
3
3
3
3
3
3
3
3
3
3
3
3
3
3
3
3
3
3
3
3
3
3
3
3
3
3
3
3
3
3
3
3
3
3
3
3
3
3
3
3
3
3
3
3
3
3
3
3
3
3
3
3
3
3
3
3
3
3
3
3
3
3
3
3
3
3
3
3
3
3
3
3
3
3
3
3
3
3
3
3
3
3
3
3
3
3
3
3
3
3
3
3
3
3
3
3
3
3
3
3
3
3
3
3
3
3
3
3
3
3
3
3
3
3
3
3
3
3
3
3
3
3
3
3
3
3
3
3
3
3
3
3
3
3
3
3
3
3
3
3
3
3
3
3
3
3
3
3
3
3
3
3
3
3
3
3
3
3
3
3
3
3
3
3
3
3
3
3
3
3
3
3
3
3
3
3
3
3
3
3
3
3
3
3
3
3
3
3
3
3
3
3
3
3
3
3
3
3
3
3
3
3
3
3
3
3
3
3
3
3
3
3
3
3
3
3
3
3
3
3
3
3
3
3
3
3
3
3
3
3
3
3
3
3
3
3
3
3
3
3
3
3
3
3
3
3
3
3
3
3
3
3
3
3
3
3
3
3
3
3
3
3
3
3
3
3
3
3
3
3
3
3
3
3
3
3
3
3
3
3
3
3
3
3
3
3
3
3
3
3
3
3
3
3
3
3
3
3
3
3
3
3
3
3
3
3
3
3
3
3
3
3
3
3
3
3
3
3
3
3
3
3
3
3
3
3
3
3
3
3
3
3
3
3
3
3
3
3
3
3
3
3
3
3
3
3
3
3
3
3
3
3
3
3
3
3
3
3
3
3
3
3
3
3
3
3
3
3
3
3
3
3
3
3
3
3
3
3
3
3
3
3
3
3
3
3
3
3
3
3
3
3
3
3
3
3
3
3
3
3
3
3
3
3
3
3
3
3
3
3
3
3
3
3
3
3
3
3
3
3
3
3
3
3
3
3
3
3
3
3
3
3
3
3
3
3
3
3
3
3
3
3
3
3
3
3
3
3
3
3
3
3
3
3
3
3
3
3
3
3
3
3
3
3
3
3
3
3
3
3
3
3
3
3
3
3
3
3
3
3
3
3
3
3
3
3
3
3
3
3
3
3
3
3
3
3
3
3
3
3
3
3
3
3
3
3
3
3
3
3
3
3
3
3
3
3
3
3
3
3
3
3
3
3
3
3
3
3
3
3
3
3
3
3
3
3
3
3
3
3
3
3
3
3
3
3
3
3
3
3
3
3
3
3
3
3
3
3
3
3
3
3
3
3
3
3
3
3
3
3
3
3
3
3
3
3
3
3
3
3
3
3
3
3
3
3
3
3
3
3
3
3
3
3
3
3
3
3
3
3
3
3
3
3
3
3
3
3
3
3
3
3
3
3
3
3
3
3
3
3
3
3
3
3
3
3
3
3
3
3
3
3
3
3
3
3
3
3
3
3
3
3
3
3
3
3
3
3
3
3
3
3
3
3
3
3
3
3
3
3
3
3
3
3
3
3
3
3
3
3
3
3
3
3
3
3
3
3
3
3
3
3
3
3
3
3
3
3
3
3
3
3
3
3
3
3
3
3
3
3
3
3
3
3
3
3
3
3
3
3
3
3
3
3
3
3
3
3
3
3
3
3
3
3
3
3
3
3
3
3
3
3
3
3
3
3
3
3
3
3
3
3
3
3
3
3
3
3
3
3
3
3
3
3
3
3
3
3
3
3
3
3
3
3
3
3
3
3
3
3
3
3
3
3
3
3
3
3
3
3
3
3
3
3
3
3
3
3
3
3
3
3
3
3
3
3
3
3
3
3
3
3
3
      </DataArray>
    </Cells>
    <PointData>
      <DataArray type="Float64" NumberOfComponents="2" Name="Displacement" format="ascii">
-0.00159967 -0.4545
0.00230286 -0.455623
-0.000472238 -0.454027
0.000313507 -0.453476
0.00072813 -0.453097
0.00101592 -0.452774
0.00119369 -0.452537
0.00130861 -0.452374
0.00135613 -0.452233
0.00136157 -0.452135
0.00132581 -0.452078
0.0012606 -0.452054
0.00116551 -0.452033
0.00105049 -0.452033
0.000917497 -0.452053
0.00077413 -0.452089
0.000621568 -0.452121
0.000467105 -0.452166
0.00031454 -0.452225
0.000169131 -0.452299
3.65123e-05 -0.452372
-8.00133e-05 -0.452465
-0.000174341 -0.452581
-0.000241737 -0.452726
-0.000269868 -0.452881
-0.000259679 -0.453082
-0.000198312 -0.453334
-7.95839e-05 -0.453648
0.000169565 -0.453982
0.0005253 -0.454434
0.00119211 -0.455058
-0.00824217 -0.453531
-0.00670602 -0.453603
-0.0051785 -0.453732
-0.00359201 -0.454014
-0.131343 -0.575819
-0.00972673 -0.453528
-0.0112141 -0.453558
-0.0133826 -0.453644
-0.0155704 -0.453785
-0.0187423 -0.454079
-0.0219529 -0.454476
-0.0266621 -0.455234
-0.0314297 -0.456206
-0.0383977 -0.457997
-0.0454102 -0.460232
-0.0504659 -0.462118
-0.0554974 -0.464235
-0.0604774 -0.466593
-0.0653857 -0.469166
-0.072315 -0.473264
-0.0790137 -0.477775
-0.0854136 -0.48268
-0.0676135 -0.63986
-0.130227 -0.587506
-0.127786 -0.597956
-0.124338 -0.60706
-0.12008 -0.61483
-0.1153 -0.621364
0.0870557 -0.39929
-0.0560965 -0.638312
-0.0424908 -0.634174
-0.0266521 -0.627034
0 0
-0.0317408 -0.0287295
-0.0447636 -0.0475452
-0.0463615 -0.0626966
-0.0382656 -0.0813208
-0.0272866 -0.0994746
-0.000377563 -0.433794
0 0
0 0
0 0
0 0
0.0252959 -0.420318
0.050952 -0.37109
0.0671271 -0.267581
-0.0861177 -0.400276
0.0318691 -0.0286878
0.0449636 -0.0477153
0.0465957 -0.0629606
0.038526 -0.0816664
0.0275478 -0.0998304
0.0678153 -0.640358
0.0562969 -0.638798
0.0427675 -0.634646
0.0268834 -0.627596
0.13128 -0.576608
0.0770052 -0.640543
0.0849808 -0.639491
0.0921117 -0.637707
0.0985168 -0.63502
0.104499 -0.631667
0.00871704 -0.454684
0.130863 -0.564356
0.128724 -0.551327
0.124675 -0.537794
0.11864 -0.524129
0.113259 -0.514816
0.106932 -0.505752
0.099668 -0.497098
0.0915672 -0.48896
0.0855003 -0.483723
0.0791189 -0.478837
0.0724395 -0.474339
0.0655299 -0.470254
0.055684 -0.465358
0.0456321 -0.461332
0.0386469 -0.459122
0.0317244 -0.457354
0.0269758 -0.456384
0.00722684 -0.454775
0.00574212 -0.454919
0.00416575 -0.455202
-0.00882545 -0.441305
0.0391516 -0.439487
0.0305657 -0.424093
0.0518868 -0.344199
-0.0522956 -0.364571
-0.00800481 -0.475756
-0.0157944 -0.434806
-0.0366967 -0.53943
-0.00657157 -0.460989
-0.108237 -0.555877
-0.0336564 -0.0612032
0.0330822 -0.062384
-0.0570773 -0.514546
-0.020899 -0.468416
-0.00638548 -0.487388
-0.00886735 -0.486447
0.00363424 -0.48516
-0.0117077 -0.485658
0.00954362 -0.488157
0.00484589 -0.472571
-0.00237708 -0.479412
0.00178973 -0.481368
-0.00676355 -0.472713
-0.0168983 -0.488042
-0.0238633 -0.493034
-0.0161197 -0.49496
0.00769403 -0.449241
-0.00603835 -0.449732
-0.0101703 -0.449661
0.00977615 -0.492842
0.015222 -0.49133
-0.0173501 -0.462562
0.0165658 -0.461769
-0.00176954 -0.485687
0.00529296 -0.477415
0.0137554 -0.466763
-0.015892 -0.466085
0.00164177 -0.484945
0.00657096 -0.450197
-0.00170765 -0.450091
-0.00681206 -0.450761
-0.0101729 -0.481058
0.0144136 -0.486964
0.014662 -0.451642
0.0142716 -0.458738
0.00199969 -0.472341
-0.00517373 -0.475285
0.00596684 -0.478246
-0.00117964 -0.475398
-0.0150418 -0.459851
-0.0148411 -0.45229
-0.0222723 -0.487602
-0.0258005 -0.501751
0.01855 -0.445646
0.00735951 -0.44708
-0.00346812 -0.449077
-0.016491 -0.448994
-0.0332553 -0.511031
-0.0293274 -0.513498
0.0246799 -0.507316
0.0232293 -0.499226
0.0288821 -0.496603
0.0281433 -0.492086
-0.022738 -0.445358
-0.0229571 -0.455116
0.0218049 -0.45462
0.0320899 -0.441052
-0.0150964 -0.502081
0.00265525 -0.483684
0.0191318 -0.46307
-0.00212547 -0.482896
0.0222165 -0.509507
0.00783569 -0.450779
0.00497701 -0.45014
0.000411599 -0.450422
0.00236672 -0.450199
-0.00141741 -0.450992
-0.003693 -0.451248
-0.00233743 -0.451245
-0.00645239 -0.451492
-0.0101112 -0.477081
-0.0179893 -0.480988
0.0230735 -0.485047
0.0126661 -0.480565
0.00868246 -0.451393
0.0102629 -0.452027
0.0131033 -0.454015
0.0123718 -0.456813
0.0071898 -0.463734
0.00181581 -0.469356
-0.00227553 -0.470631
-0.00759976 -0.465032
-0.0129393 -0.457939
-0.0131568 -0.455133
-0.0095709 -0.452661
-0.00760672 -0.452008
-0.0250689 -0.485205
-0.0391816 -0.506683
0.0270748 -0.435689
-0.00190349 -0.446578
-0.0150129 -0.444578
-0.0470143 -0.529201
0.0402612 -0.526023
0.0364297 -0.50407
0.0298978 -0.487083
-0.0356784 -0.439445
0.0424218 -0.432691
-0.0247464 -0.517237
0.025773 -0.456379
-0.0466578 -0.427074
-0.0203351 -0.462598
0.00686224 -0.494731
0.00563053 -0.451371
0.0040123 -0.450901
0.00147131 -0.451068
-0.000650261 -0.451487
-0.00226141 -0.451739
-0.00410691 -0.452146
-0.0126902 -0.475048
0.0142074 -0.476497
0.00730709 -0.452772
0.00773083 -0.456742
0.00103547 -0.465603
-0.00144739 -0.466648
-0.00745714 -0.457787
-0.00621575 -0.453517
-0.0242503 -0.474132
-0.0294937 -0.480499
-0.0336583 -0.487799
-0.045698 -0.498601
-0.0721072 -0.533723
-0.0678745 -0.544372
0.0485152 -0.389223
0.00961044 -0.437409
-0.0395105 -0.411891
-0.0617451 -0.550949
0.0587105 -0.549924
0.0582371 -0.535281
0.0544192 -0.518903
0.0471176 -0.50427
0.0351941 -0.48604
0.0331261 -0.477764
-0.0488455 -0.412899
0.0555553 -0.402532
-0.052229 -0.551054
-0.0125332 -0.510439
0.0515543 -0.418582
0.0347786 -0.538223
0.0580313 -0.563226
-0.034465 -0.446098
0.00847767 -0.499317
0.00398258 -0.452086
0.00466873 -0.452654
0.00321733 -0.45149
0.0038632 -0.45163
0.0018014 -0.451479
0.00259416 -0.451413
0.000108872 -0.451756
0.000871917 -0.451634
-0.00100532 -0.45207
-0.000397621 -0.451953
-0.00235988 -0.452336
-0.00172424 -0.452135
-0.00333848 -0.453327
-0.00268653 -0.45274
-0.00425573 -0.467026
-0.00933529 -0.470047
-0.0173862 -0.47297
0.022553 -0.472304
0.0171512 -0.472889
0.00699618 -0.469783
0.00287884 -0.467929
0.00568014 -0.453773
0.00557334 -0.455369
0.0039031 -0.458978
0.0016626 -0.461643
-0.00263699 -0.462687
-0.00393285 -0.460023
-0.0050438 -0.456264
-0.00447578 -0.454497
-0.0245 -0.464616
-0.033204 -0.475456
-0.0519344 -0.489749
-0.0738383 -0.517761
-0.08882 -0.554359
0.0305169 -0.252722
0.0257227 -0.414292
0.0016575 -0.43794
-0.0189202 -0.427008
-0.0357437 -0.272774
-0.0786483 -0.578295
0.0808363 -0.580989
0.0749031 -0.533413
0.0456607 -0.492272
0.0310108 -0.469109
0.00380546 -0.111245
-0.0457046 -0.316626
-0.00645895 -0.106382
0.0395932 -0.299326
-0.0453843 -0.567282
0.0398174 -0.436882
0.068796 -0.378067
0.0579643 -0.58097
-0.066506 -0.389714
-0.0193517 -0.463971
0.00262475 -0.452602
0.00225723 -0.451975
0.0016107 -0.451855
0.000666468 -0.451994
-0.000259827 -0.452215
-0.00100313 -0.452548
-0.00145325 -0.453262
-0.00847184 -0.465012
-0.0173503 -0.46446
0.0149087 -0.465596
0.0052719 -0.464944
0.0025616 -0.454674
-0.000447532 -0.459456
-0.00357142 -0.459872
0.00302538 -0.461611
-0.000366754 -0.460459
-0.00168433 -0.455318
-0.0156825 -0.45959
0.0157562 -0.461845
-0.0261499 -0.458467
-0.0296484 -0.462876
-0.0365288 -0.465061
-0.041576 -0.472139
-0.0529335 -0.476236
-0.0631789 -0.487085
-0.0755342 -0.497445
-0.0896942 -0.514505
-0.10357 -0.531938
0.0225471 -0.268078
0.00839292 -0.402518
-0.0078986 -0.412122
-0.0214852 -0.288589
-0.107925 -0.576563
-0.103443 -0.593479
-0.096398 -0.607077
-0.0896845 -0.620904
-0.0700888 -0.612678
0.074354 -0.61659
0.090219 -0.620211
0.0983216 -0.608754
0.104118 -0.592476
0.108027 -0.571511
0.100155 -0.546031
0.0904883 -0.521321
0.0801555 -0.500112
0.062661 -0.48855
0.0534958 -0.472689
0.0436547 -0.468108
0.0366658 -0.465888
0.0260015 -0.461108
0.0311518 -0.110841
-0.00181883 -0.20125
-0.0365948 -0.296428
-0.0315713 -0.108568
0.0303718 -0.278629
0.000626576 -0.195403
-0.0477762 -0.601887
-0.0205631 -0.591881
0.0394709 -0.451318
0.0548859 -0.606042
-0.0146178 -0.488372
0.0310968 -0.586439
0.00115026 -0.453337
0.00099243 -0.453886
0.00142185 -0.452788
0.0016101 -0.452354
0.00154263 -0.452546
0.00164346 -0.452122
0.00148721 -0.452022
0.00157998 -0.452064
0.00123036 -0.452012
0.000896235 -0.452056
0.00106995 -0.452033
0.000531567 -0.452139
0.000161985 -0.452242
0.000346036 -0.45219
-0.000156836 -0.452376
-0.000437888 -0.452565
-0.000306337 -0.452466
-0.000596122 -0.452825
-0.000636933 -0.453228
-0.000636365 -0.453013
-0.000442892 -0.453794
-5.00988e-05 -0.454681
-0.000280519 -0.454198
-0.0182525 -0.457133
-0.0214626 -0.457543
0.0213556 -0.460143
0.0181689 -0.459694
-0.0121598 -0.463293
-0.00711937 -0.457941
0.0102902 -0.463194
0.00730524 -0.462779
0.00792482 -0.459515
0.000125632 -0.455854
-0.000560417 -0.45705
0.00110072 -0.458512
0.00026742 -0.456854
-0.012968 -0.456452
0.013501 -0.457414
-0.00930065 -0.456287
-0.0108074 -0.456319
0.0113624 -0.45728
0.00987474 -0.457245
-0.0058921 -0.45558
-0.00276858 -0.455759
-0.00439142 -0.455647
0.00661388 -0.457375
0.0051502 -0.457383
0.0036622 -0.457413
0.00489239 -0.459325
-0.00382561 -0.457099
0.0110938 -0.459617
-0.0104436 -0.458797
-0.00171503 -0.457809
0.00190639 -0.456919
0.00972721 -0.466353
-0.0140241 -0.467678
0.0205177 -0.464252
-0.0210105 -0.460431
-0.00159798 -0.453991
-0.00125328 -0.452835
-0.000658926 -0.45236
0.000189109 -0.452104
0.00115975 -0.451906
0.00199385 -0.451867
0.00239856 -0.452238
0.00296706 -0.453348
0.0361372 -0.557085
-0.0150321 -0.532299
-0.002274 -0.183328
-0.00202496 -0.193972
0.0418838 -0.474282
0.0647747 -0.508906
0.0835552 -0.560821
0.0779462 -0.597254
-0.0684152 -0.584906
-0.0849954 -0.568171
-0.0392099 -0.373031
0.0417696 -0.348951
-0.0897923 -0.538123
-0.0608449 -0.501551
-0.0384887 -0.482166
-0.0280868 -0.468835
0.00133867 -0.463474
-0.00336368 -0.462418
-0.0589705 -0.386747
0.0613279 -0.373595
0.00618489 -0.435923
-0.00784512 -0.454906
-0.00628451 -0.461659
0.00601355 -0.460528
0.00863021 -0.453967
0.00458624 -0.472415
0.0249905 -0.479925
-0.0208989 -0.478373
-0.00521657 -0.471467
-0.00476376 -0.452695
-0.00334868 -0.4518
-0.00128642 -0.45171
0.000166597 -0.451256
0.00288333 -0.450888
0.00502361 -0.451026
0.00607575 -0.451996
-0.0121144 -0.472444
0.0324351 -0.525805
-0.00709649 -0.497634
-0.0381734 -0.527639
0.043639 -0.421557
-0.0296219 -0.434914
0.0349869 -0.494408
0.0395887 -0.516004
-0.00882362 -0.448507
0.0101383 -0.442521
-0.0527801 -0.524174
-0.0294571 -0.492163
-0.0261311 -0.455008
0.0250034 -0.45503
-0.0103826 -0.451074
-0.0188751 -0.453936
-0.00877106 -0.467775
0.00828233 -0.466403
0.0178674 -0.453021
0.011258 -0.450546
0.0215397 -0.489416
-0.0153509 -0.483022
-0.00361108 -0.4507
0.000946736 -0.449435
0.00798254 -0.492773
0.0102649 -0.473747
0.0116722 -0.492513
-0.0138568 -0.496197
0.00767417 -0.483836
-0.0052394 -0.478775
-0.00397795 -0.477897
0.00039546 -0.479341
-0.0186598 -0.492969
-0.0409031 -0.455155
0.00863006 -0.615503
-0.02111 -0.535283
0.00544637 -0.561019
-0.0014606 -0.607419
0.0129815 -0.525887
-0.00840752 -0.615062
0.0590513 -0.430522
0.0297547 -0.503494
0.00180071 -0.606881
0.00387556 -0.548482
0.014321 -0.490446
0.014805 -0.235403
0.034607 -0.273585
0.0193978 -0.225691
0.0555818 -0.325816
-0.0137569 -0.121844
0.00220302 -0.149162
0.00703668 -0.19307
-0.00215316 -0.191631
0.0115566 -0.2297
-0.0171694 -0.148088
-0.00816992 -0.157484
-0.025006 -0.118115
0.019661 -0.182449
0.0331106 -0.21299
-0.0357236 -0.0945868
-0.0188857 -0.143322
-0.0184671 -0.247563
-0.0197638 -0.22984
-0.0375183 -0.285575
-0.00732884 -0.196758
0.0139668 -0.122213
-0.00209987 -0.149644
-0.0599404 -0.340193
-0.0165916 -0.243791
-0.000645582 -0.199857
0.0164196 -0.151983
0.0250363 -0.119714
0.00794332 -0.160585
0.0357423 -0.0958347
-0.0195971 -0.183083
-0.0329837 -0.213806
0.016835 -0.149439
-0.0131656 -0.368119
0.0111951 -0.395447
0.0129353 -0.337897
0.00549434 -0.431642
0 0
0 0
-0.011245 -0.173603
-0.0326319 -0.336062
-0.0241656 -0.393267
0.0142808 -0.353662
-0.0125354 -0.329548
-0.0124219 -0.388927
0.0120451 -0.157785
0 0
-0.0662646 -0.26665
-0.00690396 -0.429177
0.0268817 -0.376381
0.0337036 -0.312076
-0.0476371 -0.426438
-0.0486933 -0.428559
-0.0173367 -0.469441
-0.0744678 -0.391431
0.0104274 -0.50717
-0.0513073 -0.420386
-0.0614408 -0.395265
0.0624907 -0.40503
0.0400982 -0.440313
0.066234 -0.406839
0.0117659 -0.478533
0.0754415 -0.382772
0.065212 -0.378995
0.0587128 -0.407067
0.0567412 -0.346374
0.0579811 -0.344114
0.0349565 -0.291434
0.0184435 -0.24231
0.0532688 -0.339852
-0.0579991 -0.355026
-0.0413816 -0.308365
-0.0620063 -0.356871
-0.0248733 -0.258214
-0.0560632 -0.355924
-0.0177251 -0.196627
-0.0340822 -0.269866
-0.0190986 -0.18337
-0.0428991 -0.326154
0.00621452 -0.0621039
0.00240887 -0.154646
-0.0209543 -0.231673
-0.00684404 -0.435671
-0.00547599 -0.433569
-0.0166426 -0.420571
-0.000482442 -0.437788
-0.0301889 -0.406851
-0.00717897 -0.435898
0.00389656 -0.436604
0.0122603 -0.429974
0.0198706 -0.408455
0.00735733 -0.428057
0.0351868 -0.38807
0.0171024 -0.429092
0.0124256 -0.181643
0.0159852 -0.167754
0.0315043 -0.248937
-0.00738932 -0.060195
0.0411734 -0.301859
0.0151283 -0.216672
-0.00596124 -0.147001
-0.0491405 -0.423691
-0.0349745 -0.444403
-0.0153104 -0.469272
-0.0234343 -0.459784
0.0599267 -0.397523
0.0380137 -0.438936
0.0140736 -0.470633
0.0155641 -0.468112
-0.0546742 -0.408983
-0.041948 -0.435634
-0.0303401 -0.451344
-0.0369742 -0.442411
-0.0416951 -0.434048
-0.0432311 -0.427897
-0.0493966 -0.418436
-0.0340598 -0.436243
-0.0402372 -0.425827
-0.0549778 -0.399628
-0.0327973 -0.445726
0.0442222 -0.426236
0.0385229 -0.432322
0.0374813 -0.43749
0.0305486 -0.446461
0.0252677 -0.447757
0.0345818 -0.444037
-0.026682 -0.440553
-0.0294462 -0.443015
-0.0274744 -0.447909
-0.022031 -0.448848
-0.0223142 -0.440822
-0.0193163 -0.444835
-0.0155449 -0.447402
-0.0118868 -0.446813
0.00882845 -0.445042
0.00379814 -0.444989
0.00302798 -0.446884
-0.000216649 -0.448144
-0.00578445 -0.447617
0.00378192 -0.448387
0.0254381 -0.443854
0.0307623 -0.437681
0.023082 -0.441267
0.0358081 -0.429824
0.0185773 -0.439786
0.0152246 -0.443943
0.0195269 -0.448396
0.0129563 -0.446381
0.00783245 -0.448203
0.009726 -0.449679
0.00440998 -0.449308
0.0127561 -0.447822
0.0152171 -0.448382
0.0210899 -0.031786
0.0205542 -0.081746
0.0161451 -0.0425564
0.0214777 -0.120034
0 0
0 0
0.0257818 -0.0256302
0.0433846 -0.0704404
0.0348202 -0.0883366
0.0394939 -0.0513078
-0.0465669 -0.25083
-0.0560269 -0.272787
-0.0396575 -0.0508297
-0.0354139 -0.086558
-0.0433774 -0.0696454
-0.0236084 -0.114782
0.0467674 -0.249735
0.0560753 -0.271315
-0.0259384 -0.0255133
-0.0167503 -0.0418115
-0.0220415 -0.0794344
-0.0212432 -0.0314691
-0.0514436 -0.370514
-0.0259441 -0.419893
-0.0283909 -0.426354
-0.0182456 -0.431109
-0.0297672 -0.418948
-0.00451103 -0.436882
-0.0408299 -0.394663
-0.0355716 -0.42455
-0.0235996 -0.43397
-0.0481549 -0.390602
-0.0527467 -0.391492
-0.0453917 -0.410218
-0.056161 -0.37329
-0.0471803 -0.364399
-0.0393828 -0.292953
-0.0515229 -0.341022
-0.0467659 -0.324755
0.0428805 -0.302979
0.0477567 -0.322659
0.0335302 -0.274563
0.0562818 -0.356446
0.0479869 -0.340727
0.0534821 -0.392263
0.0567097 -0.375876
0.0522402 -0.367648
0.0593762 -0.38842
0.0460503 -0.370081
0.047419 -0.406464
0.0505438 -0.412344
0.029562 -0.429608
0.020496 -0.432634
0.0191997 -0.436197
0.0185809 -0.430975
0.00812966 -0.436087
0.0101281 -0.439499
0.0383582 -0.421223
0.0384656 -0.400236
0.0293964 -0.41876
0.0407824 -0.409848
0.049959 -0.421278
0.0453323 -0.429956
0.0552541 -0.408839
0.0279171 -0.453146
0.049795 -0.419585
0.041752 -0.435302
0.0318811 -0.448581
-0.00506788 -0.444263
-0.0122974 -0.442999
-0.0082668 -0.445938
-0.0195505 -0.439186
0.00111521 -0.442512
-0.00318502 -0.438172
-0.0125004 -0.437956
0.00010297 -0.439916
0.00776197 -0.57402
-0.00903632 -0.572456
-0.00598937 -0.593257
-0.00731082 -0.537689
-0.0194228 -0.562164
-0.0149505 -0.603604
0.0124606 -0.59671
0.0241223 -0.58403
0.0177847 -0.556958
0.0206577 -0.494514
0.00784367 -0.519502
0.0158248 -0.528371
-0.00157467 -0.513348
0.032375 -0.53874
0.0333283 -0.47618
0.0259885 -0.472436
0.0695781 -0.353646
0.0657633 -0.297397
0.0581459 -0.316488
0.0410136 -0.301585
0.0495916 -0.288613
0.0740979 -0.333933
-0.0656319 -0.299091
-0.0725489 -0.363533
-0.0598804 -0.3256
-0.0512709 -0.297127
-0.0461521 -0.317624
-0.0728886 -0.335523
-0.0626535 -0.410662
-0.0635881 -0.416274
-0.0457025 -0.436883
-0.0805534 -0.392883
-0.0607089 -0.430965
-0.0269238 -0.473052
-0.031604 -0.455855
-0.0624707 -0.406192
-0.0700543 -0.389886
-0.00128368 -0.49705
0.0118868 -0.514694
-0.00248932 -0.489608
0.0251866 -0.542627
0.0241564 -0.532167
-0.00454982 -0.484191
-0.0186441 -0.465464
-0.0159386 -0.475984
0.000162797 -0.508645
-0.0502583 -0.422335
-0.0569661 -0.40861
-0.0574186 -0.410006
-0.0574656 -0.40346
-0.0604343 -0.39008
-0.0637386 -0.39224
-0.0590031 -0.40889
-0.0335089 -0.445559
-0.040923 -0.435967
0.0248153 -0.46067
0.0127906 -0.482535
0.0267761 -0.463894
-0.0026511 -0.505486
0.0399684 -0.444154
0.0401786 -0.437631
0.0261781 -0.456088
0.0641983 -0.414467
0.0756608 -0.39966
0.0732494 -0.395067
0.0725935 -0.415697
0.0819989 -0.387291
0.0718562 -0.379912
0.0711162 -0.390947
0.0545969 -0.425699
0.0488266 -0.441716
0.0662401 -0.391277
0.0637281 -0.393604
0.0604781 -0.4058
0.0631015 -0.375722
0.0626281 -0.389915
0.0514807 -0.420288
0.0516865 -0.421112
0.0681745 -0.391951
0.0668548 -0.378289
0.0673322 -0.362909
0.0688229 -0.360172
0.0570196 -0.338418
0.0434229 -0.311073
0.0655024 -0.363076
0.0633678 -0.361958
0.062619 -0.36366
0.0604347 -0.361263
0.0471871 -0.322024
-0.0616455 -0.35223
-0.0729844 -0.371586
-0.0696898 -0.373234
-0.066941 -0.375014
-0.0493564 -0.327711
-0.0638419 -0.372022
-0.0626085 -0.376501
-0.0513035 -0.335328
-0.0600571 -0.372086
-0.0279736 -0.453079
-0.0173798 -0.466596
-0.0251097 -0.457204
-0.0258833 -0.456642
-0.0137974 -0.471042
-0.0349125 -0.445092
0.0130921 -0.473354
0.000453063 -0.490173
-0.00123719 -0.495633
0.00292108 -0.48498
-0.00967372 -0.50301
-0.0141145 -0.519389
0.0262852 -0.454511
0.0266129 -0.453943
0.0149695 -0.468936
0.0267537 -0.453587
0.00419366 -0.482643
0.0389887 -0.437599
0.0463008 -0.427516
0.032722 -0.446511
0.00889264 -0.476392
0.0222669 -0.459856
0.0346206 -0.445211
0.0408695 -0.436043
-0.00188898 -0.489852
0.015535 -0.468338
0.0188004 -0.464584
0.00691237 -0.478201
-0.00380629 -0.483353
0.007457 -0.496697
-0.00399625 -0.48262
0.0208419 -0.513642
0.0197079 -0.51004
-0.00311173 -0.482876
-0.00475755 -0.482667
0.0107709 -0.540743
0.0191611 -0.574563
0.0233558 -0.55757
0.0073564 -0.591421
0.0213968 -0.600336
0.0346382 -0.570144
-0.00297565 -0.526381
-0.0166558 -0.57056
-0.00240422 -0.579238
-0.00677919 -0.548894
-0.0123233 -0.597062
-0.0158079 -0.508505
-0.0280337 -0.55246
-0.023709 -0.584695
-0.0468668 -0.482219
-0.0385447 -0.527873
-0.0292426 -0.498013
-0.0359876 -0.568669
-0.0497321 -0.548795
0.0437592 -0.596893
0.0375392 -0.614288
0.0497828 -0.620503
-0.0649945 -0.522161
-0.0756558 -0.479496
0.062108 -0.626247
0.0465602 -0.583345
0.0574225 -0.476884
0.0420158 -0.472289
0.0431315 -0.510191
0.0360755 -0.56821
0.0497398 -0.548421
-0.0355384 -0.596646
-0.0457988 -0.619022
-0.0322635 -0.616659
-0.0587401 -0.62487
0.0638319 -0.522155
0.0772344 -0.480138
-0.0333055 -0.57201
0.071424 -0.494337
0.0794926 -0.489785
0.07071 -0.484119
0.0857176 -0.494845
0.0222945 -0.455627
0.0191073 -0.455236
0.0639336 -0.47977
0.063523 -0.499022
0.0722322 -0.505009
0.0853144 -0.510837
0.0983903 -0.514145
0.0935528 -0.50323
0.104546 -0.523256
0.0159696 -0.454951
0.0138077 -0.454806
0.0776986 -0.515358
0.104184 -0.559083
0.117651 -0.562404
0.114512 -0.549397
0.119772 -0.574762
0.0116638 -0.454715
0.0101902 -0.454683
0.108793 -0.536034
0.0911841 -0.554311
0.0959078 -0.566916
0.105828 -0.582333
0.11608 -0.596595
0.118841 -0.5863
0.113019 -0.605398
0.110062 -0.627315
0.115301 -0.621993
0.0945648 -0.577349
0.094174 -0.614481
0.100451 -0.624931
0.104919 -0.619401
0.0948365 -0.628788
0.120068 -0.615495
0.124311 -0.607744
0.109395 -0.613296
0.0882613 -0.603913
0.0845947 -0.60967
0.0824354 -0.618604
0.0803373 -0.630059
0.0880143 -0.630452
0.0717408 -0.62902
0.127747 -0.598684
0.130173 -0.588245
0.0764075 -0.606581
-0.0802079 -0.617324
-0.0876425 -0.630492
-0.0783639 -0.628512
-0.0944932 -0.628775
-0.110042 -0.626706
-0.104457 -0.631088
-0.0695634 -0.627344
-0.0697962 -0.598506
-0.0801911 -0.605106
-0.0930035 -0.613968
-0.10404 -0.618458
-0.100125 -0.624897
-0.108481 -0.612329
-0.0984445 -0.634471
-0.0920158 -0.637159
-0.0828711 -0.597845
-0.105481 -0.585267
-0.118623 -0.588304
-0.115672 -0.596768
-0.119508 -0.576925
-0.0848453 -0.638952
-0.0768661 -0.640023
-0.112643 -0.605541
-0.0947916 -0.581456
-0.0964851 -0.573123
-0.0967333 -0.52331
-0.0981072 -0.510056
-0.104952 -0.518905
-0.0903332 -0.501745
-0.0914952 -0.487937
-0.0996166 -0.496081
-0.110945 -0.527904
-0.0965155 -0.535353
-0.0895092 -0.526686
-0.0693668 -0.492259
-0.0709363 -0.482815
-0.0770969 -0.487991
-0.0641387 -0.478459
-0.106909 -0.504763
-0.113253 -0.513838
-0.0833524 -0.493067
-0.0680678 -0.499798
-0.0618693 -0.494579
-0.118661 -0.523185
-0.0590644 -0.472934
-0.0541454 -0.470423
-0.049096 -0.468317
-0.0455402 -0.479596
-0.124701 -0.536888
-0.0485508 -0.426116
-0.0317635 -0.450162
-0.0344207 -0.444564
0.0669615 -0.600259
0.0570486 -0.592636
0.0650807 -0.611651
0.0475065 -0.569948
0.0681837 -0.589892
0.0538234 -0.420003
0.0529847 -0.42384
0.0643522 -0.405442
-0.0589051 -0.592642
-0.0596556 -0.6075
-0.047421 -0.584123
-0.0312422 -0.551356
-0.0572343 -0.576815
0.0574514 -0.345573
0.044919 -0.315765
-0.0597931 -0.355728
-0.0500155 -0.329996
0.0552159 -0.500528
0.0539835 -0.490822
0.0522101 -0.48133
0.0435997 -0.48352
0.087658 -0.540173
0.0953456 -0.533894
0.082286 -0.52807
0.069736 -0.521262
0.079115 -0.547256
0.090305 -0.595835
0.101018 -0.600796
0.0925364 -0.587726
0.0818221 -0.571034
0.0792894 -0.588911
-0.0912688 -0.587036
-0.0997047 -0.600408
-0.088268 -0.593619
-0.0732962 -0.581519
-0.0815664 -0.573355
-0.0744499 -0.507991
-0.082662 -0.506011
-0.0816423 -0.516455
-0.0819319 -0.528003
-0.0673623 -0.509649
-0.0523214 -0.483216
-0.0580403 -0.481646
-0.0574885 -0.48858
-0.0563752 -0.495638
-0.0451817 -0.485943
-0.0442978 -0.431726
-0.0430389 -0.433969
0.0467355 -0.551807
0.0471792 -0.560129
0.0580686 -0.571308
0.0356696 -0.546216
0.0686939 -0.580981
0.045701 -0.544465
0.0333965 -0.531221
0.0492268 -0.423232
0.0549691 -0.413087
0.0558632 -0.50683
0.0462861 -0.498399
0.0402002 -0.493604
0.0410268 -0.499306
0.0561495 -0.527149
0.0662543 -0.534997
0.0647252 -0.526313
0.0712498 -0.548388
0.0592858 -0.514435
0.0468434 -0.517898
0.0489718 -0.525625
0.0581442 -0.556298
0.0695609 -0.57312
0.0703146 -0.565853
0.0709854 -0.556427
0.0457932 -0.538945
-0.0567708 -0.551251
-0.0705521 -0.564758
-0.0658873 -0.565844
-0.0735359 -0.560297
-0.0607812 -0.567827
-0.0452165 -0.538975
-0.0501527 -0.539825
-0.0697762 -0.539267
-0.0806513 -0.544142
-0.0783682 -0.549871
-0.0809088 -0.536243
-0.0891499 -0.546427
-0.0866824 -0.561451
-0.0767046 -0.556413
-0.0603998 -0.534222
-0.0624238 -0.529289
-0.0532034 -0.500261
-0.0486725 -0.494463
-0.0419785 -0.490432
-0.0374696 -0.495547
0.0232116 -0.523857
0.0219368 -0.518347
0.00927302 -0.502223
0.0454104 -0.511484
0.0506977 -0.511574
0.0416686 -0.504414
0.0356162 -0.499323
0.0378727 -0.510085
0.0496308 -0.537903
0.0582059 -0.542629
0.0491535 -0.531224
0.0397308 -0.521084
0.0361329 -0.526221
-0.0574976 -0.537213
-0.0645762 -0.547869
-0.0544493 -0.539947
-0.042445 -0.528722
-0.0497081 -0.526935
0.0271477 -0.517235
0.0146286 -0.502542
0.00731094 -0.493829
0.014966 -0.500881
-0.00637141 -0.493586
-0.0196849 -0.509138
-0.0111031 -0.500371
-0.0266846 -0.514937
-0.0314252 -0.52293
-0.0161595 -0.508144
-0.00199813 -0.487396
0.031334 -0.507487
0.029714 -0.501946
0.0222542 -0.494432
0.0173774 -0.496102
0.0233602 -0.508523
0.0312647 -0.518073
0.0324226 -0.51649
0.0320611 -0.51202
0.0162959 -0.500303
-0.0311895 -0.512428
-0.0400957 -0.519945
-0.0381913 -0.521555
-0.0429798 -0.517896
-0.0336533 -0.520352
-0.0214942 -0.504651
-0.0234749 -0.503955
-0.0459527 -0.515318
-0.0360529 -0.509155
-0.0287547 -0.500004
-0.0342319 -0.499336
-0.0222078 -0.508205
-0.0143156 -0.499131
0.0238214 -0.503337
0.0180436 -0.499729
-0.0646451 -0.524109
-0.0653858 -0.516431
-0.0727595 -0.526004
-0.0587606 -0.508356
-0.054724 -0.519627
-0.042226 -0.503019
-0.0513558 -0.506522
-0.0480527 -0.510873
-0.0984301 -0.555591
-0.107964 -0.566508
-0.0987886 -0.565877
-0.120364 -0.566561
-0.0992594 -0.547228
-0.116556 -0.54165
-0.118307 -0.553686
-0.105868 -0.544199
-0.128765 -0.550463
-0.130901 -0.563521
-0.0251614 -0.526086
-0.0413204 -0.552304
-0.0302562 -0.540446
-0.0536241 -0.564025
-0.0224632 -0.518926
-0.0388932 -0.534763
-0.0444426 -0.54572
-0.0306419 -0.527507
-0.00534822 -0.419678
-0.013189 -0.411964
-0.0386997 -0.293639
-0.0452499 -0.31507
-0.0387164 -0.342702
-0.0408239 -0.365509
0.0267395 -0.396647
0.0285016 -0.378434
-0.00555085 -0.477723
-0.0148168 -0.46712
0.0393728 -0.408254
0.0388108 -0.415733
0.0016813 -0.434591
0.0067214 -0.432197
-0.045899 -0.0618156
-0.0416349 -0.0611981
-0.0115139 -0.0527139
-0.0103437 -0.0259625
0.0257177 -0.400615
0.0190225 -0.398088
0.0459916 -0.266283
0.0440644 -0.317686
-0.0449504 -0.408403
-0.0452224 -0.398705
-0.000716979 -0.0022732
-0.00442058 -0.0257306
-0.0607378 -0.326938
-0.0338322 -0.294989
0.0620498 -0.375998
0.0593032 -0.356448
-0.0213399 -0.256497
-0.0141667 -0.229093
-0.0153134 -0.191738
-0.0181327 -0.181748
-0.00826167 -0.434849
-0.00810692 -0.435314
-0.0389303 -0.295273
-0.0450275 -0.314098
0.0174483 -0.0166558
0.031284 -0.0310073
0.0196525 -0.446923
0.0211511 -0.449085
0.0452948 -0.412944
0.0425064 -0.422351
-0.0706835 -0.353577
-0.0497939 -0.319
0.0219444 -0.438884
0.0174366 -0.438262
0.0363268 -0.280554
0.0310618 -0.277215
0.0207168 -0.445768
0.0172834 -0.44496
-0.0280797 -0.449283
-0.0232726 -0.455911
0.0404366 -0.436401
0.0399392 -0.437987
-0.000996321 -0.199424
0.0119669 -0.162911
0.024422 -0.337983
0.0302378 -0.306579
-0.00758694 -0.410165
-0.0164825 -0.402962
-0.0136278 -0.397711
-0.00493924 -0.406134
0.00234478 -0.117856
0.00523223 -0.143833
-0.0118906 -0.458299
-0.0047704 -0.460509
-0.0473805 -0.323038
-0.0607174 -0.357054
0.00292198 -0.450783
0.00138763 -0.450213
-0.00389046 -0.324007
-0.000163533 -0.354674
-0.0244623 -0.389752
-0.0453735 -0.385028
-0.0312711 -0.404451
-0.0224979 -0.394778
-0.0391047 -0.43617
-0.0332471 -0.44145
0.0504175 -0.337833
0.0526443 -0.343385
-0.0653854 -0.318326
-0.0614981 -0.348263
-0.029516 -0.25477
-0.0241297 -0.209038
-0.0175019 -0.203998
-0.0162877 -0.21435
-0.023977 -0.243913
-0.0336151 -0.277503
-0.0220504 -0.20034
-0.0199557 -0.210631
-0.0489002 -0.408564
-0.0439456 -0.41611
-0.0380119 -0.418417
-0.0314463 -0.424773
-0.0361518 -0.420385
-0.0378222 -0.423061
-0.0462478 -0.425771
-0.0427657 -0.429505
-0.0072817 -0.177887
0.00299564 -0.161443
-0.00439601 -0.436648
-0.0109456 -0.434822
-0.040088 -0.371419
-0.0330283 -0.382633
0.0445408 -0.312275
0.0382081 -0.290273
-0.0101187 -0.436629
-0.0096042 -0.435949
-0.0309452 -0.439786
-0.0324585 -0.441603
-0.0489806 -0.410679
-0.0526159 -0.396846
0.0485896 -0.339513
0.0444902 -0.311995
-0.00776165 -0.426005
-0.0144586 -0.42647
0.0278686 -0.0943136
0.0232657 -0.0853064
-0.0352367 -0.442987
-0.0419784 -0.433445
-0.0292009 -0.0721288
-0.0221677 -0.0781812
-9.14694e-05 -0.438317
-0.000286208 -0.437364
-0.0627845 -0.375371
-0.0583087 -0.352458
0.0209217 -0.427925
0.0140109 -0.433027
-0.0555375 -0.377342
-0.055284 -0.359191
-0.0267469 -0.420251
-0.0213448 -0.427855
0.0332687 -0.103612
0.0288503 -0.116746
-0.00775986 -0.171931
-0.00122343 -0.194382
0.0384571 -0.298407
0.0246303 -0.262108
0.0361527 -0.441526
0.0524264 -0.41858
-0.0133911 -0.452234
-0.00858362 -0.451734
-0.0212027 -0.253513
-0.031374 -0.282954
-0.00154007 -0.190913
-0.000846358 -0.176677
0.0662555 -0.377508
0.0687743 -0.395041
-0.00522142 -0.434429
-0.0014878 -0.437148
-0.0131629 -0.449994
-0.0080346 -0.45047
-0.0339759 -0.44419
-0.0314165 -0.448964
-0.0136771 -0.338396
-0.00547331 -0.311808
0.0238053 -0.226295
0.0270079 -0.275083
0.00864773 -0.201183
0.0114166 -0.220707
0.0321653 -0.0318999
0.0296866 -0.0360614
0.0499535 -0.421459
0.0545814 -0.409086
0.0121085 -0.209743
0.0228601 -0.245609
0.00481117 -0.176614
0.0168435 -0.142009
0.0404062 -0.43773
0.0319823 -0.448613
0.0115534 -0.44627
0.0154992 -0.446728
0.0497737 -0.421769
0.0481587 -0.424209
-0.0435589 -0.338997
-0.0458036 -0.329797
0.000579539 -0.451983
-0.00027898 -0.451487
-0.0216388 -0.245801
-0.0229621 -0.239411
-0.0207648 -0.0568812
-0.0240134 -0.0432734
-0.00682361 -0.0403418
0.000112136 -0.0422108
0.0334833 -0.0307519
0.0404839 -0.0433186
-0.0332234 -0.446201
-0.0477231 -0.426248
-0.00233886 -0.436629
-0.00418832 -0.434893
-0.00298228 -0.434167
-0.00095887 -0.428636
-0.0225831 -0.447768
-0.0166519 -0.449325
-0.0106254 -0.174497
-0.00380188 -0.13599
-0.061429 -0.39135
-0.0576881 -0.403181
-0.00109095 -0.437359
0.000331458 -0.438143
0.056716 -0.399744
0.0590891 -0.384737
0.0238443 -0.122336
0.0310767 -0.096435
0.0490738 -0.420425
0.0439262 -0.428554
0.00903446 -0.36629
-0.00698071 -0.36788
0.0066471 -0.433943
0.0019315 -0.436842
-0.0119141 -0.109156
-0.0134107 -0.0820241
-0.0142626 -0.149835
-0.0234026 -0.119203
-0.018397 -0.451152
-0.012493 -0.452826
-0.0209181 -0.236164
-0.00757625 -0.233062
0.0590769 -0.395427
0.0586042 -0.378758
-0.0115812 -0.15158
-0.0131943 -0.174654
-0.0205084 -0.199657
-0.0138644 -0.194092
-0.015984 -0.0194943
-0.0179055 -0.0180789
-0.0370364 -0.278435
-0.0388305 -0.286838
0.00169441 -0.43751
0.000334642 -0.438388
0.00259419 -0.0422519
0.00534812 -0.0232942
0.0525916 -0.409027
0.0559655 -0.394641
-0.044288 -0.337162
-0.0399664 -0.317361
-0.037814 -0.0905771
-0.0356736 -0.0909421
-0.0300356 -0.410315
-0.0188318 -0.406139
-0.0198739 -0.410971
-0.0235442 -0.415396
-0.0111169 -0.416311
-0.00575745 -0.405305
0.0454064 -0.418935
0.0398628 -0.425318
0.0457474 -0.388005
0.0432678 -0.378442
-0.0261217 -0.243049
-0.0301721 -0.26417
-0.045309 -0.429924
-0.0464212 -0.426544
-0.00417993 -0.426676
-0.0012202 -0.433944
0.00423997 -0.430665
0.0106434 -0.425988
-0.0171785 -0.225897
-0.0065955 -0.189636
-0.00214159 -0.00279142
-0.0150589 -0.0229021
-0.0326875 -0.264576
-0.0295093 -0.260941
0.0141954 -0.413319
0.00482449 -0.406641
0.0440279 -0.266089
0.0114978 -0.271096
0.0231169 -0.354431
0.0562546 -0.34393
-0.0161839 -0.0400428
-0.00890342 -0.0251993
-0.0550021 -0.387712
-0.0573118 -0.380913
0.01718 -0.230894
0.018121 -0.24301
-0.0326543 -0.44847
-0.0414724 -0.436142
0.0202862 -0.429166
0.0273666 -0.424042
-0.0216692 -0.4271
-0.0237034 -0.428177
-0.0421315 -0.42199
-0.0473421 -0.414224
0.0554285 -0.408301
0.0537733 -0.41006
-0.000448859 -0.440314
0.00280444 -0.441993
-0.0215541 -0.446585
-0.0215384 -0.444203
0.0603859 -0.383435
0.0580959 -0.386537
0.0246057 -0.443239
0.0286613 -0.443142
-0.0382159 -0.073229
-0.0421315 -0.0747791
-0.0151777 -0.433311
-0.0218271 -0.430171
-0.0469489 -0.372369
-0.0442924 -0.360122
0.0103715 -0.450629
0.00583445 -0.45153
0.0500151 -0.32926
0.0505909 -0.331107
0.0109021 -0.325499
0.0178574 -0.353765
0.0134846 -0.193612
0.0126505 -0.170072
0.00458423 -0.00323617
0.0212015 -0.0182817
-0.00247832 -0.0431418
0.00566994 -0.100329
-0.0185436 -0.065354
-0.0128877 -0.0983668
0.0334244 -0.0414661
0.0226533 -0.0230023
-0.014807 -0.41908
-0.0212964 -0.41652
0.0260848 -0.455957
0.0153992 -0.468353
-0.034585 -0.407272
-0.0376204 -0.392739
-0.0291876 -0.0676938
-0.0225552 -0.0710157
0.0164589 -0.430035
0.0236478 -0.423612
0.0233853 -0.106375
0.0318335 -0.0885338
-0.0193634 -0.457023
-0.0192089 -0.453424
-0.00315688 -0.445458
-0.00992228 -0.44471
-0.019129 -0.0919173
-0.00983171 -0.122602
-0.044665 -0.313543
-0.0469328 -0.334065
-0.0516463 -0.398619
-0.051428 -0.407802
0.0153222 -0.188884
0.0266356 -0.225615
0.0218899 -0.450425
0.0260323 -0.450073
0.0533935 -0.400844
0.0496995 -0.414682
0.00551203 -0.213076
0.00286368 -0.200378
0.00961919 -0.450902
0.010594 -0.453355
-0.0037772 -0.366382
0.0110793 -0.362594
0.0261134 -0.116136
0.0313608 -0.110179
-0.0124588 -0.437418
-0.0139111 -0.439128
-0.0368883 -0.441044
-0.0294549 -0.449519
-0.0371569 -0.442288
-0.0308903 -0.449388
0.0421922 -0.346416
0.0414044 -0.370226
-0.00901426 -0.39515
-0.0130093 -0.374118
-0.00676362 -0.435932
-0.00367927 -0.436792
0.0162521 -0.331161
-0.00547192 -0.330816
0.0203745 -0.204277
0.0268462 -0.255601
0.0386306 -0.356397
0.0395222 -0.375987
-0.0112661 -0.269604
-0.0140893 -0.208012
0.00679658 -0.435424
0.0118907 -0.432958
0.0178079 -0.454031
0.018891 -0.450083
0.0247926 -0.212029
0.0233215 -0.219866
0.0348254 -0.444578
0.0388209 -0.439807
-0.0393829 -0.296034
-0.0358379 -0.290686
-0.0243202 -0.240802
-0.0299738 -0.251726
-0.0417276 -0.433358
-0.0359842 -0.442392
0.0484156 -0.406972
0.0435077 -0.417985
-0.0015326 -0.436816
-0.0019097 -0.436476
0.0228215 -0.453584
0.0165151 -0.461123
0.00451146 -0.436419
0.00431553 -0.436494
-0.000977036 -0.437
-0.00446005 -0.436579
0.0440112 -0.423352
0.0445004 -0.417056
-0.0406228 -0.0789702
-0.0359461 -0.0957932
0.0172154 -0.449235
0.0119508 -0.451247
-0.0151767 -0.15438
-0.00898793 -0.171796
0.0398253 -0.370454
0.0447317 -0.369853
-0.018388 -0.423637
-0.0136683 -0.430452
0.0281268 -0.443982
0.0255673 -0.442766
-0.0084754 -0.160516
-0.00207048 -0.121472
-0.0155096 -0.319696
-0.00121906 -0.283572
-0.00172195 -0.435322
-0.00421428 -0.435554
-0.0309076 -0.435758
-0.0332298 -0.437235
0.0375967 -0.441556
0.0454071 -0.429833
-0.0186053 -0.361842
-0.0169378 -0.384553
0.00994787 -0.438979
0.0125608 -0.440502
0.0414637 -0.434395
0.0321936 -0.447273
-0.0194196 -0.437
-0.026798 -0.433779
0.0356609 -0.0740529
0.0407741 -0.0693928
0.060641 -0.381852
0.0584748 -0.391767
0.00479194 -0.436257
-0.00227101 -0.436943
0.0512501 -0.363433
0.0486698 -0.342788
0.00453564 -0.185738
0.0097546 -0.169794
-0.00219657 -0.188904
-0.0138171 -0.213324
-0.00655625 -0.454305
-0.00162127 -0.457637
0.0146287 -0.0216361
0.0236996 -0.0440259
0.0411451 -0.0665448
0.0363269 -0.0635283
-0.0192891 -0.455536
-0.012894 -0.457554
-0.0196083 -0.434748
-0.0267229 -0.42993
0.038472 -0.29492
0.00793979 -0.296484
-0.00279011 -0.437707
-0.000551213 -0.438656
-0.0261621 -0.433533
-0.0246986 -0.431601
-0.0297215 -0.0679396
-0.0295876 -0.0464262
-0.00387163 -0.437029
0.00149185 -0.437536
0.000848626 -0.437734
-0.000670334 -0.438994
-0.055755 -0.395508
-0.0528272 -0.400314
-0.039392 -0.437752
-0.0356805 -0.443385
-0.0288041 -0.261794
-0.0338978 -0.283193
-0.00152089 -0.392087
0.00420862 -0.406623
0.000423889 -0.438079
0.00490571 -0.435981
0.0176409 -0.436423
0.0248906 -0.434081
0.0242563 -0.0762818
0.020777 -0.105544
-0.0135274 -0.273619
-0.0229311 -0.302151
0.0131365 -0.149339
0.0105219 -0.166601
0.0203022 -0.452263
0.0144147 -0.453576
0.0150668 -0.393455
0.0336193 -0.382273
0.0242844 -0.413477
0.0192737 -0.412794
0.00327665 -0.118166
0.00789521 -0.13218
0.00628777 -0.462007
0.00413463 -0.457225
0.0416504 -0.427107
0.044306 -0.426851
-0.0264589 -0.42233
-0.0323551 -0.418208
-0.0320029 -0.262584
-0.0376075 -0.281364
0.063737 -0.362314
0.0554172 -0.343995
0.00393376 -0.0276202
-0.00436581 -0.0895366
0.0173287 -0.452732
0.018408 -0.456019
-0.0271063 -0.269887
-0.0360203 -0.295152
0.0181486 -0.0812583
0.0172379 -0.0538991
-0.00221588 -0.431124
0.000729318 -0.435584
-0.0205229 -0.249644
-0.0307029 -0.280227
-0.0460503 -0.334906
-0.0434803 -0.309832
-0.0554642 -0.354178
-0.0510148 -0.337339
0.0357465 -0.0887675
0.0331352 -0.104293
0.0359733 -0.417407
0.0298032 -0.421982
-0.0204608 -0.413584
-0.0105133 -0.409054
-0.0314832 -0.421595
-0.0245574 -0.427248
-0.0181553 -0.120133
-0.00479617 -0.180293
-0.0508054 -0.417905
-0.0466505 -0.424719
0.0124907 -0.447038
0.0144202 -0.448281
-0.00944632 -0.365002
0.00283425 -0.380107
0.0243093 -0.237426
0.0349803 -0.273344
-0.0450999 -0.0519316
-0.0437627 -0.0645203
-0.0382574 -0.300541
-0.0230986 -0.260325
-0.0123784 -0.205472
-0.0208445 -0.221882
0.0150707 -0.405571
0.00250508 -0.410343
0.0444284 -0.314836
0.0303697 -0.27881
-0.00331112 -0.448534
-0.00109346 -0.447065
-0.00294626 -0.455123
-0.00585182 -0.4593
-0.0281952 -0.264248
-0.0355453 -0.290242
-0.0244061 -0.414564
-0.018 -0.424027
0.0534156 -0.342043
0.058588 -0.363315
-0.00101273 -0.447038
-0.00379627 -0.445406
-0.0507817 -0.389858
-0.0469479 -0.394396
-0.0690449 -0.396899
-0.0609803 -0.406042
-0.0240795 -0.119518
-0.0278812 -0.118019
0.0180837 -0.0263572
0.0111372 -0.0161512
0.013382 -0.100939
0.0217415 -0.0739881
0.0240523 -0.453943
0.0157756 -0.461321
-0.00361876 -0.0113996
-0.00460724 -0.0259954
-0.0591943 -0.362293
-0.0523053 -0.337444
0.0216789 -0.199801
0.0119199 -0.157537
0.0231851 -0.129783
0.0201053 -0.142397
0.0445288 -0.430157
0.0573823 -0.409284
0.0462417 -0.427858
0.0521044 -0.41837
-0.0301729 -0.237496
-0.0373395 -0.275971
0.00496384 -0.11487
-0.00663124 -0.0613605
0.0493144 -0.422714
0.0544828 -0.411304
-0.000338526 -0.431309
0.00264906 -0.423722
0.0147106 -0.324362
-0.00686617 -0.309112
0.036522 -0.276835
0.0292623 -0.244399
0.0255729 -0.0557659
0.0198032 -0.0652462
0.00919288 -0.40985
0.00821127 -0.422376
0.0138064 -0.127502
0.00482677 -0.137453
-0.0422343 -0.308307
-0.0304301 -0.274154
-0.0473689 -0.423448
-0.0494386 -0.415116
0.00107255 -0.452808
0.00245032 -0.45378
0.0508266 -0.410252
0.0467518 -0.42252
0.0336105 -0.444964
0.0480808 -0.424868
0.00177693 -0.382217
-0.00623941 -0.396755
0.0124527 -0.0157455
0.0233726 -0.0364114
0.0119979 -0.119747
0.014726 -0.132644
-0.00546162 -0.0167069
-0.0121977 -0.0306344
-0.0389402 -0.439936
-0.0421484 -0.435371
0.00529664 -0.198721
0.0172767 -0.227614
-0.0722382 -0.381971
-0.0668153 -0.414358
0.00283699 -0.185631
0.00882675 -0.218296
0.000498673 -0.446197
-0.00596021 -0.446231
-0.00202679 -0.185605
-0.00371167 -0.18739
-0.0345358 -0.434776
-0.0279496 -0.439656
0.00332491 -0.39509
-0.00712312 -0.404281
-0.0283175 -0.0830212
-0.0221564 -0.0807903
-0.0318261 -0.427016
-0.0246101 -0.432315
0.0415836 -0.37314
0.0430612 -0.386881
0.0341953 -0.091887
0.0310767 -0.110162
-7.1823e-05 -0.437438
0.00112302 -0.437235
0.0244315 -0.213045
0.0331101 -0.253064
-0.0111781 -0.0663079
-0.0054556 -0.0662398
0.0290797 -0.438901
0.0251868 -0.438504
-0.0353365 -0.0344457
-0.0196229 -0.0167304
0.0183661 -0.231314
0.0213283 -0.248988
-0.0311308 -0.448724
-0.0456837 -0.429148
-0.0366027 -0.292186
-0.0311592 -0.253635
-0.0203966 -0.457256
-0.0170445 -0.456423
-0.0410436 -0.417716
-0.045709 -0.406484
-0.000159079 -0.438115
0.000380714 -0.437871
-0.0164053 -0.451009
-0.016617 -0.454164
0.0272706 -0.225034
0.0345767 -0.261938
-0.0291607 -0.436607
-0.0291746 -0.439879
-0.0276408 -0.273271
-0.0174424 -0.246054
-0.0476081 -0.32826
-0.0484334 -0.343284
-0.0116102 -0.429065
-0.0171033 -0.420272
0.0105275 -0.400088
0.0226047 -0.405375
-0.00136105 -0.457387
-0.00144171 -0.453737
-0.00181374 -0.437007
-0.0031515 -0.436846
0.0510874 -0.418796
0.0541704 -0.408211
0.0200739 -0.430628
0.0257959 -0.42461
-0.0472021 -0.354656
-0.047821 -0.336865
0.0397823 -0.259773
0.00699616 -0.258971
0.0404488 -0.377033
0.040094 -0.392968
0.00714492 -0.4306
0.00816715 -0.422306
-0.0384721 -0.421974
-0.0318883 -0.428499
-0.0234386 -0.444209
-0.0265988 -0.440176
0.0243485 -0.437173
0.0300189 -0.43601
-0.0385567 -0.435341
-0.036666 -0.434093
0.020981 -0.444095
0.0207328 -0.446701
-0.0558417 -0.401115
-0.0520205 -0.415885
-0.00103813 -0.449144
-0.00215841 -0.450318
-0.0124129 -0.412913
-0.00444161 -0.420091
-0.0274321 -0.265895
-0.0149509 -0.234297
0.0469807 -0.361298
0.0599766 -0.335376
-0.0511119 -0.418329
-0.0559818 -0.405101
-0.040532 -0.433188
-0.0342889 -0.441036
-0.00233564 -0.474215
-0.0117602 -0.467814
-0.0409272 -0.409282
-0.0418888 -0.398463
-0.0142246 -0.184176
-0.011173 -0.191475
0.0482046 -0.371415
0.0461234 -0.353946
0.0493102 -0.332928
0.0527103 -0.357175
-0.0127849 -0.439299
-0.0204311 -0.436745
-0.0578017 -0.346246
-0.0445134 -0.315837
-0.0270722 -0.394618
-0.0197434 -0.41092
0.0243977 -0.434937
0.0222572 -0.433403
0.0465772 -0.427159
0.04516 -0.429506
0.00394527 -0.146817
0.0147945 -0.126762
-0.0477482 -0.322118
-0.0477245 -0.353603
-0.0148936 -0.454607
-0.0150548 -0.451365
0.0210819 -0.412868
0.0282685 -0.403542
-0.0546599 -0.401627
-0.0527073 -0.399495
-0.0306516 -0.434334
-0.0298164 -0.431359
-0.0365576 -0.0809011
-0.0361528 -0.0938449
0.00682887 -0.361058
-0.0042575 -0.340954
-0.0236037 -0.431479
-0.0306498 -0.425249
-0.0356049 -0.426935
-0.0286993 -0.432604
-0.0108472 -0.0208559
-0.012176 -0.0403183
-0.00144914 -0.268125
0.0059916 -0.315842
0.00669585 -0.321656
0.0150355 -0.284437
0.00430457 -0.066232
-0.00544142 -0.115409
-0.0106365 -0.44646
-0.00507698 -0.447638
0.0390393 -0.342628
0.0372747 -0.367903
-0.0105199 -0.155362
0.00280476 -0.117053
0.0847412 -0.392386
0.063083 -0.350145
-0.00282962 -0.434738
-0.000826722 -0.437709
-0.0356271 -0.0363705
-0.0306536 -0.0369213
-0.026787 -0.0887109
-0.0210796 -0.118197
-0.0235776 -0.113609
-0.0239139 -0.12784
0.0213579 -0.307065
0.0246351 -0.265947
-0.0134424 -0.426004
-0.00697729 -0.432929
-0.00683626 -0.116708
-0.0123429 -0.183461
-0.016978 -0.436347
-0.0235852 -0.434759
0.0463483 -0.318599
0.0464477 -0.328035
0.0764964 -0.376421
0.0609636 -0.349809
0.00504905 -0.207076
0.0186059 -0.24379
0.0380534 -0.438885
0.0322022 -0.444369
-0.013673 -0.231247
-0.00439219 -0.199115
-0.00640432 -0.450591
-0.0106803 -0.449516
-0.00803189 -0.451345
-0.00521676 -0.450716
-0.0221764 -0.458883
-0.0134603 -0.466207
0.00533059 -0.0828811
-0.00484141 -0.127964
-0.0474996 -0.414406
-0.0517848 -0.401779
0.0591134 -0.379807
0.0608846 -0.373229
-0.0536161 -0.415091
-0.0553236 -0.408011
-0.0213662 -0.410776
-0.0280125 -0.417013
0.00510662 -0.103068
-0.00511644 -0.0379998
0.0481289 -0.410637
0.0434471 -0.421833
-0.0201266 -0.407368
-0.0121423 -0.396691
-0.00566067 -0.335179
-0.0114214 -0.36047
-0.0138542 -0.0158866
-0.000989232 -0.00112888
-0.0246 -0.441438
-0.0206496 -0.44091
0.0460486 -0.428176
0.0373121 -0.441617
-0.0555325 -0.355444
-0.051128 -0.338653
-0.0176494 -0.148248
-0.0064335 -0.17863
0.0440847 -0.318477
0.0410737 -0.320106
0.0351693 -0.442475
0.0397132 -0.434961
0.0482464 -0.424466
0.0542342 -0.41474
-0.0379124 -0.441596
-0.044223 -0.431534
-0.00910354 -0.0252977
-0.00219835 -0.00713602
-0.00441333 -0.436913
-0.00220858 -0.437643
0.0159015 -0.364512
0.00616049 -0.350297
0.0162268 -0.467476
0.0218045 -0.460679
-0.0146684 -0.423853
-0.0161296 -0.413587
-0.0451332 -0.431218
-0.0577473 -0.411284
0.00297604 -0.453928
0.0082219 -0.455514
0.00929188 -0.178849
0.0208984 -0.208295
0.0348771 -0.0636699
0.0344378 -0.0459049
-0.0585371 -0.408144
-0.0628317 -0.388877
0.0263805 -0.407771
0.0303551 -0.409262
0.0336908 -0.306411
0.0381869 -0.332961
-0.00331885 -0.448892
-0.00792132 -0.4491
-0.053971 -0.335489
-0.0409234 -0.307241
0.00645914 -0.0939375
0.0120909 -0.159847
-0.00127717 -0.436587
-0.00631365 -0.434284
0.0318627 -0.27349
0.0406571 -0.297402
-0.0449462 -0.0558766
-0.0397133 -0.0526101
0.000650231 -0.0829794
-0.00125483 -0.0989777
-0.0102986 -0.459022
-0.00649831 -0.466054
0.0435385 -0.395696
0.0379602 -0.402928
0.00765316 -0.00717048
0.0218663 -0.0249547
0.00070927 -0.450148
0.00151846 -0.448893
-0.0127928 -0.41881
-0.0077946 -0.427978
0.0202053 -0.389668
0.0267186 -0.37299
-0.00677986 -0.451753
-0.00305425 -0.452646
-0.0431283 -0.0740902
-0.0459976 -0.060683
0.00818715 -0.0730845
0.00858165 -0.0366531
0.00190942 -0.460759
0.00474147 -0.465083
-0.0259004 -0.451604
-0.0243887 -0.455665
0.0499346 -0.421546
0.0471043 -0.42702
-0.0277895 -0.452209
-0.0311156 -0.449967
0.0726631 -0.3767
0.054905 -0.327988
-0.00771918 -0.453182
-0.00816231 -0.456791
0.0155672 -0.191768
0.0216658 -0.210803
-0.0355629 -0.287708
-0.0450111 -0.313974
0.0276277 -0.452992
0.0179202 -0.463499
0.0398423 -0.289196
0.0307621 -0.256002
-0.0428726 -0.0526231
-0.0373779 -0.049509
0.00611181 -0.441249
2.41718e-05 -0.440633
-0.0231101 -0.261267
-0.0358484 -0.294748
0.0234382 -0.37482
0.0294895 -0.354226
0.00790923 -0.437477
0.012674 -0.435122
-0.0487587 -0.397046
-0.0445467 -0.401009
-0.0247563 -0.4372
-0.0196923 -0.441641
0.0397969 -0.435458
0.0342436 -0.440482
-0.0174914 -0.446114
-0.0160447 -0.444413
-0.0126685 -0.242948
-0.0360291 -0.290276
0.0361252 -0.278867
0.0297912 -0.277146
-0.0352579 -0.436228
-0.0291485 -0.442018
0.0332748 -0.304383
0.0341216 -0.273322
0.00390167 -0.451372
0.00507579 -0.452139
0.0392304 -0.34612
0.0421365 -0.364391
-0.0097463 -0.0190828
-0.0025709 -0.00631816
-0.0364654 -0.272099
-0.041872 -0.306295
-0.0205777 -0.0681342
-0.0168018 -0.0992298
-0.00609246 -0.378146
0.00654229 -0.386809
-0.0114386 -0.433814
-0.00460935 -0.436601
0.0184469 -0.334591
0.0174814 -0.299383
0.0176917 -0.200986
0.0129011 -0.15871
-0.00225521 -0.436644
0.00117665 -0.437286
0.035759 -0.357625
0.0280279 -0.350467
-0.0275361 -0.0243126
-0.0252776 -0.0251792
-0.0105742 -0.458604
-0.0113966 -0.454146
0.0236559 -0.429883
0.0311313 -0.423754
0.00514605 -0.441344
-0.00139912 -0.443226
-0.0220421 -0.444357
-0.0158607 -0.445583
0.000454981 -0.451736
-0.00122071 -0.451451
0.0092003 -0.255983
0.0235348 -0.252202
0.0159278 -0.444803
0.0212365 -0.441624
-0.00941219 -0.439325
-0.00310571 -0.44104
-0.018896 -0.450415
-0.0154825 -0.454398
0.00994863 -0.435847
0.0137402 -0.43349
-0.00459345 -0.0521771
-0.00202907 -0.00883438
0.0029106 -0.449799
0.00186709 -0.448707
0.00449219 -0.448463
0.00948869 -0.447842
-0.0340389 -0.282052
-0.0266585 -0.277083
-0.00734621 -0.435797
-0.00208444 -0.437036
0.0160149 -0.467707
0.0196674 -0.462963
-0.0065369 -0.437317
-0.00202519 -0.438642
0.0565394 -0.401339
0.0526925 -0.411299
-0.0381333 -0.0563468
-0.0418172 -0.0498662
0.0469705 -0.42651
0.0383492 -0.438417
0.0457438 -0.372876
0.0432028 -0.391256
0.0476221 -0.359836
0.0472021 -0.336677
-0.0335845 -0.271721
-0.03779 -0.290265
0.0232367 -0.438731
0.023224 -0.435696
0.0101859 -0.430946
0.00572067 -0.432547
0.017843 -0.430421
0.0115345 -0.43369
-0.0251577 -0.381339
-0.00623968 -0.380697
0.0289318 -0.0348121
0.0382399 -0.0500863
0.0252913 -0.425947
0.0304275 -0.423651
-0.0249687 -0.432251
-0.0188255 -0.434018
-0.0383713 -0.42215
-0.0436852 -0.417069
-0.0220231 -0.135833
-0.0139423 -0.157084
-0.051381 -0.413983
-0.0480436 -0.41806
0.010559 -0.44517
0.0110934 -0.442686
0.0138638 -0.0278852
0.0212292 -0.0423951
0.0306603 -0.449763
0.0175958 -0.465935
-0.0146805 -0.462033
-0.0184556 -0.455806
-0.027798 -0.226939
-0.0296293 -0.247243
6.68878e-05 -0.451904
0.000792888 -0.45208
-0.00227633 -0.164728
-0.00535857 -0.138713
-0.0446055 -0.313057
-0.0496877 -0.335163
-0.0054484 -0.453919
-0.00255341 -0.45815
0.00468221 -0.126277
0.01523 -0.102446
-0.0121322 -0.0134251
-0.0138164 -0.0126992
-0.0308621 -0.26956
-0.0191943 -0.234299
-0.00119117 -0.00214386
-0.000756308 -0.000894031
0.0686883 -0.397228
0.0655391 -0.391137
-0.00682308 -0.151999
0.004655 -0.189137
0.0454135 -0.357248
0.0347619 -0.377925
-0.0542804 -0.374308
-0.0542985 -0.391291
-0.00595112 -0.44278
-0.000174488 -0.44113
0.0529506 -0.405181
0.0553456 -0.389587
-0.0564166 -0.362072
-0.051876 -0.341027
0.00507743 -0.182625
0.00956782 -0.171746
-0.00598464 -0.427092
-0.00541708 -0.433771
0.0177805 -0.462646
0.0104286 -0.467345
0.00126234 -0.447945
-5.71602e-05 -0.446397
0.0445271 -0.422714
0.0385803 -0.430472
-0.00427232 -0.436755
-0.000619603 -0.437156
0.00606752 -0.436002
0.00925196 -0.434727
-0.0145911 -0.44677
-0.00879999 -0.448095
0.0552985 -0.394495
0.0530186 -0.409369
0.0402748 -0.434301
0.0339383 -0.442746
0.0257778 -0.125677
0.0257825 -0.124243
-0.0318966 -0.0465249
-0.0368673 -0.0640327
0.039716 -0.437234
0.0444277 -0.42856
-0.035649 -0.439043
-0.0294946 -0.445587
0.0344217 -0.297685
0.0590599 -0.260416
-0.0546197 -0.37801
-0.0527121 -0.360915
-0.00819799 -0.162417
0.00515066 -0.197435
-0.00275422 -0.436396
0.000909963 -0.437265
-0.00800353 -0.0841682
0.000733316 -0.123231
-0.0170556 -0.139846
-0.0218915 -0.112596
0.0425281 -0.431339
0.0365799 -0.44051
-0.0257273 -0.440376
-0.0223523 -0.444323
-0.0498506 -0.330775
-0.0571342 -0.353811
0.0218141 -0.113014
0.032574 -0.0971358
-0.0128457 -0.19515
-0.000613506 -0.165759
0.042065 -0.432766
0.0479852 -0.421938
0.0396747 -0.059997
0.0383063 -0.0798586
0.0182168 -0.14399
0.0272285 -0.114783
0.0349325 -0.44496
0.0451429 -0.430316
0.0397278 -0.284444
0.0593688 -0.342439
0.0428295 -0.304193
0.0385505 -0.284804
0.0470681 -0.391294
0.0421895 -0.403974
-0.0530841 -0.349634
-0.0532749 -0.364468
-0.00038113 -0.439437
0.00104257 -0.44119
0.0360892 -0.280827
0.0415651 -0.30206
0.0343234 -0.0552725
0.0343563 -0.0775564
0.000822546 -0.452003
0.00187372 -0.451442
-0.0195533 -0.448988
-0.0257069 -0.446509
-0.0339255 -0.346961
-0.0256332 -0.365969
-0.0327058 -0.258743
-0.0370876 -0.297329
-0.013397 -0.452009
-0.0110518 -0.45544
-0.0041784 -0.167446
0.00417768 -0.129074
-0.0196131 -0.102535
-0.0244858 -0.0724969
0.00492452 -0.450197
0.00903564 -0.449421
-0.00659658 -0.125521
-0.0124188 -0.183195
-0.049865 -0.422947
-0.0592674 -0.403571
-0.00124473 -0.438713
0.00692455 -0.437635
0.00610374 -0.192153
0.0156675 -0.210434
-0.0194705 -0.178255
-0.0313108 -0.251982
0.0104234 -0.147568
0.0124552 -0.163395
0.0356819 -0.42348
0.0416243 -0.418399
0.0218798 -0.446286
0.0263608 -0.445932
0.0482516 -0.323579
0.0377706 -0.292174
-0.00427311 -0.429776
-0.00389598 -0.435458
0.0307409 -0.448853
0.0303987 -0.446933
-0.00964946 -0.450654
-0.0138232 -0.451325
-0.0171989 -0.417616
-0.0205038 -0.404474
0.00840543 -0.024147
0.0075938 -0.0407704
-0.0115191 -0.446223
-0.00628791 -0.447699
0.02904 -0.452236
0.0293276 -0.450747
-0.0195734 -0.442057
-0.0202137 -0.438929
-0.0461659 -0.318221
-0.0524038 -0.344644
0.0294502 -0.443191
0.0254279 -0.448484
-0.0487584 -0.421145
-0.0445038 -0.427756
0.00323068 -0.443242
-0.000819244 -0.441555
-0.039642 -0.397874
-0.0437505 -0.397929
0.0373276 -0.42916
0.031127 -0.433211
0.00336186 -0.435974
0.00439951 -0.433456
0.0538221 -0.33882
0.0409755 -0.305512
0.035282 -0.444274
0.0342939 -0.445881
-0.037713 -0.437631
-0.0380892 -0.434069
0.0097391 -0.154387
-0.00150722 -0.190688
-0.0338978 -0.445422
-0.0305426 -0.450553
-0.0467192 -0.0566846
-0.044076 -0.0700644
0.0147718 -0.168913
0.00603242 -0.128443
0.0542668 -0.373335
0.0543869 -0.357764
-0.00103378 -0.437568
-0.00376409 -0.434563
0.0077447 -0.407295
0.00632047 -0.392601
-0.00261261 -0.182717
-0.0146218 -0.147192
0.0290291 -0.445965
0.0264277 -0.451052
-0.0217249 -0.204685
-0.0123426 -0.15761
0.0112631 -0.454226
0.017315 -0.452073
0.00352821 -0.434851
0.000443612 -0.437801
0.0295831 -0.434579
0.0350377 -0.432623
0.037389 -0.426462
0.0368704 -0.431494
0.0400378 -0.419503
0.0455086 -0.413102
-0.00642226 -0.322889
-0.00177851 -0.353487
-0.0512315 -0.416608
-0.0556273 -0.405028
0.0326143 -0.251388
0.0338278 -0.278649
0.0131987 -0.463325
0.0162566 -0.457149
0.0524359 -0.351595
0.0540537 -0.350706
-0.0173422 -0.0181522
-0.00181169 -0.00177566
0.0329376 -0.042726
0.0393084 -0.0443876
-0.0103476 -0.434872
-0.0047727 -0.43651
-0.00235294 -0.451714
-0.000458753 -0.452129
0.0308729 -0.0372706
0.0200014 -0.0235829
0.0497358 -0.369776
0.0503075 -0.350528
0.0148914 -0.422028
0.00644287 -0.42066
0.0389769 -0.0814827
0.0359674 -0.0745184
0.000681465 -0.428015
-0.000623944 -0.434745
0.00118379 -0.450121
0.00302304 -0.450647
0.0242466 -0.432533
0.0168564 -0.435282
0.0517609 -0.341438
0.0476796 -0.322448
-0.0442339 -0.430579
-0.0492654 -0.418993
0.0134029 -0.198289
0.0247251 -0.233078
0.0501497 -0.262943
0.0452599 -0.302741
-0.0369577 -0.418963
-0.0331228 -0.41934
-0.0502428 -0.332003
-0.0536424 -0.344291
0.0601109 -0.385812
0.0615129 -0.390634
0.0670724 -0.364185
0.0702087 -0.397076
-0.0133795 -0.141304
-0.00308594 -0.176338
-0.0479671 -0.391699
-0.0467284 -0.379565
-0.0443355 -0.31192
-0.0396312 -0.302039
0.0257684 -0.26673
0.0320124 -0.283949
0.0255171 -0.227048
0.0139672 -0.193808
0.00439957 -0.451068
0.00639987 -0.451615
-0.0245254 -0.447761
-0.0253642 -0.444536
-0.00190522 -0.455043
-0.00435504 -0.459681
0.0213956 -0.44612
0.0164916 -0.446332
-0.0175035 -0.440013
-0.0107476 -0.440461
-0.0229086 -0.456466
-0.0209181 -0.455166
-0.00436678 -0.297217
-0.0141764 -0.241559
0.00548522 -0.0543077
0.00237497 -0.0131999
-0.00292459 -0.41326
-0.00712896 -0.421627
0.0454892 -0.377683
0.0490775 -0.381514
0.0174829 -0.440759
0.0154874 -0.443839
0.0401792 -0.0796342
0.0451819 -0.068294
-0.0462011 -0.322758
-0.0450745 -0.329647
-0.0574813 -0.404132
-0.0507753 -0.421163
-0.00058006 -0.452995
-0.0030206 -0.452461
-0.0249633 -0.409089
-0.0263114 -0.393735
-0.0496665 -0.349624
-0.0475901 -0.328295
0.00713539 -0.45183
0.00481186 -0.451124
0.0139115 -0.0279172
0.0181475 -0.0562104
0.0413911 -0.303109
0.0316268 -0.272417
0.0384623 -0.438356
0.0535955 -0.418402
0.0342014 -0.445987
0.0257085 -0.456361
-0.00113587 -0.401457
0.00618479 -0.412737
0.0306423 -0.432722
0.0277107 -0.437783
0.00238108 -0.389989
0.00105158 -0.406634
-0.00216263 -0.408064
0.00941877 -0.401883
-0.0372759 -0.441147
-0.0356932 -0.444099
0.0102952 -0.43566
0.00694554 -0.435931
-0.00974837 -0.182242
-0.02075 -0.211727
0.00936022 -0.185544
0.0180877 -0.220938
0.00336572 -0.449176
0.00517804 -0.44991
-0.0422194 -0.393029
-0.0371197 -0.395677
0.0128616 -0.448516
0.0114069 -0.450455
-0.012411 -0.432903
-0.0105477 -0.434898
0.0600569 -0.387105
0.0577335 -0.38958
0.0346279 -0.264494
0.024951 -0.232139
0.0338673 -0.0618474
0.0300156 -0.0863122
0.0451708 -0.425275
0.0449876 -0.420969
-0.0501243 -0.409565
-0.0482489 -0.419331
0.0186721 -0.0150367
0.0294512 -0.0300658
-0.0388107 -0.365329
-0.0407605 -0.339318
-0.0506076 -0.333091
-0.042823 -0.306399
0.031174 -0.402338
0.0346643 -0.385947
-0.022858 -0.334089
-0.0114948 -0.323452
0.0454256 -0.384073
0.0406091 -0.386422
0.0437715 -0.425843
0.0424886 -0.423091
-0.0349645 -0.28777
-0.0408113 -0.269538
-0.0363624 -0.2959
-0.0305336 -0.28027
0.0187591 -0.403165
0.0247133 -0.387158
-0.02303 -0.454017
-0.0240771 -0.450064
-0.0282856 -0.393118
-0.0215412 -0.376857
-0.0242282 -0.458821
-0.0110296 -0.47412
0.0292158 -0.349208
0.00617162 -0.352417
-0.0421363 -0.320034
-0.0384985 -0.331058
-0.0364069 -0.433677
-0.041366 -0.429992
-0.0146251 -0.407027
-0.00287287 -0.403446
0.0112026 -0.433975
0.00592789 -0.435915
0.0237188 -0.44789
0.0202208 -0.452735
0.0284037 -0.0647995
0.0250712 -0.0410157
0.00861376 -0.161601
0.00511571 -0.183378
-0.017742 -0.430568
-0.0166902 -0.429209
0.0416379 -0.298383
0.0434873 -0.307662
0.0401286 -0.36883
0.0397438 -0.387023
-0.0324898 -0.448786
-0.0419166 -0.435669
-0.0182423 -0.452042
-0.0146786 -0.45679
0.0503393 -0.419959
0.049192 -0.419756
0.0444544 -0.324537
0.0398897 -0.29339
-0.0192629 -0.405939
-0.0129288 -0.392962
0.0619686 -0.367033
0.0533741 -0.339059
0.0190048 -0.236705
0.033169 -0.180017
-0.0130641 -0.471801
-0.0153078 -0.468586
-0.0070997 -0.452025
-0.00532334 -0.451066
0.0267606 -0.275061
0.0316397 -0.30817
0.0209142 -0.208317
0.0244397 -0.21116
-0.0145826 -0.470177
-0.010574 -0.474164
0.0313189 -0.448445
0.0244623 -0.454539
0.00728035 -0.438407
0.0046929 -0.440631
-0.0129765 -0.158149
-0.00236848 -0.117379
-0.0280426 -0.229666
-0.0325937 -0.249793
-0.0437664 -0.431049
-0.0473396 -0.421969
-0.0356999 -0.276909
-0.0333654 -0.274767
-0.0644212 -0.402633
-0.0459616 -0.432582
-0.0358503 -0.438237
-0.0381509 -0.432598
0.0237565 -0.35156
0.0271821 -0.320093
0.00805882 -0.472855
0.00558695 -0.471677
0.0622154 -0.376473
0.0600218 -0.380103
0.0155604 -0.436951
0.00851795 -0.437967
0.0543157 -0.414857
0.0601519 -0.399104
-0.0185033 -0.366361
-0.00706438 -0.364231
0.0264457 -0.39814
0.039154 -0.378991
0.0037546 -0.0225579
0.000261431 -0.0811
0.00199935 -0.453696
0.00164308 -0.459678
-0.028003 -0.430219
-0.0296395 -0.432315
0.0317917 -0.283525
0.0455118 -0.318003
-0.0363907 -0.0929361
-0.0350569 -0.0964807
-0.0274531 -0.27137
-0.0264875 -0.263062
-0.0041863 -0.00472038
-0.00138345 -0.00127048
-0.0470443 -0.324034
-0.0504799 -0.347551
-0.00283165 -0.437207
-0.00031696 -0.438564
-0.00311117 -0.426309
-0.00364191 -0.433281
-0.0176277 -0.404773
-0.00696125 -0.396327
-0.0424045 -0.0559959
-0.0455072 -0.0502844
0.0174043 -0.127673
0.0136336 -0.152532
0.0168577 -0.41008
0.0175391 -0.395224
-0.00199027 -0.421839
0.0027132 -0.429013
0.0536424 -0.338498
0.0487129 -0.323407
0.00174344 -0.436634
0.0024141 -0.431949
0.0272732 -0.0626034
0.0335939 -0.061706
0.0269468 -0.0346492
0.0169069 -0.0218132
0.00317856 -0.00276638
0.0164115 -0.0137311
0.0651501 -0.367619
0.0621109 -0.366785
-0.0143771 -0.397272
-0.0211321 -0.402849
0.00219369 -0.118299
-0.00787197 -0.0710551
-0.00509199 -0.475817
-0.0100274 -0.468248
-0.0129855 -0.155584
-0.00193061 -0.112695
0.0235409 -0.132685
0.0198994 -0.138407
-0.00823039 -0.413967
0.000455729 -0.415075
0.0606892 -0.375589
0.0593421 -0.389616
0.0147806 -0.469108
0.0257881 -0.456347
0.0292993 -0.236186
0.0369787 -0.274712
-0.0256168 -0.112119
-0.0238899 -0.096503
0.0069711 -0.467608
0.0153112 -0.459606
-0.0373539 -0.43976
-0.0367587 -0.442306
0.0304742 -0.254676
0.0255387 -0.266657
-0.0411312 -0.307934
-0.036056 -0.293255
0.0115186 -0.0197341
0.0196111 -0.033479
-0.00148847 -0.449587
-0.00472673 -0.450191
-0.00278031 -0.141387
-0.0106573 -0.145884
-0.0334858 -0.383318
-0.0398955 -0.380299
-0.000492544 -0.425066
-0.00755655 -0.423715
0.00222482 -0.435213
0.00656319 -0.43025
0.0116371 -0.447581
0.0119554 -0.449117
0.0286686 -0.0976897
0.0350714 -0.0739134
0.0384051 -0.283233
0.0454331 -0.314502
0.0261311 -0.222687
0.0195007 -0.199423
-0.0256886 -0.443958
-0.0222668 -0.447796
-0.014011 -0.428475
-0.0163036 -0.420474
-0.0527972 -0.341294
-0.0450078 -0.314042
-0.0330981 -0.446431
-0.0399434 -0.436928
0.0129907 -0.271698
-0.00354294 -0.304848
-0.0186247 -0.418503
-0.0228863 -0.419434
-0.0083738 -0.422646
-0.0150602 -0.414197
-0.00559423 -0.436491
-0.0130247 -0.43407
-0.00112605 -0.447988
0.00422716 -0.447657
0.00815571 -0.436019
0.0117103 -0.435995
0.0462171 -0.317391
0.0524823 -0.340714
0.0050091 -0.0340024
-0.0028478 -0.0641719
0.0301256 -0.0339208
0.0386899 -0.0506586
0.00295872 -0.449391
0.00429057 -0.450208
0.0434639 -0.311828
0.04608 -0.318293
-0.00683393 -0.215161
-0.0210887 -0.253604
-0.00856023 -0.427424
-0.00417265 -0.433957
-0.0107361 -0.438958
-0.0174171 -0.438348
-0.0177189 -0.174236
-0.00590685 -0.128389
-0.00643556 -0.161385
0.00554643 -0.186263
-0.0010958 -0.452328
-0.00289948 -0.451553
0.00109781 -0.436982
-0.000110788 -0.437872
-0.00677442 -0.449537
-0.00244472 -0.449908
0.00242514 -0.187303
0.00946947 -0.169601
0.0428785 -0.290094
0.0388474 -0.234869
0.000611285 -0.451847
0.00170677 -0.451724
0.0186188 -0.428245
0.0123266 -0.433454
0.0119936 -0.470283
0.0221492 -0.46015
-0.078339 -0.387575
-0.0620335 -0.352195
-0.0247874 -0.266493
-0.011303 -0.229534
0.00432707 -0.00887497
0.00874197 -0.0121083
-0.0420432 -0.434545
-0.0597613 -0.411378
0.0544369 -0.411437
0.0563655 -0.402876
0.00641756 -0.449768
0.00320995 -0.45073
0.0486764 -0.423803
0.0513147 -0.418832
-0.0360974 -0.0902245
-0.0414025 -0.0700842
0.0343439 -0.379795
0.0269916 -0.388753
0.00347277 -0.474255
0.0117954 -0.464802
0.0418263 -0.30594
0.0497081 -0.32834
0.0103766 -0.220236
0.00832279 -0.220829
-9.72008e-05 -0.438565
-0.000639392 -0.437275
0.00774261 -0.440836
0.0150859 -0.438396
0.0333518 -0.414846
0.0263702 -0.422706
0.0075646 -0.427406
0.0134463 -0.418494
-0.0388793 -0.439647
-0.0474296 -0.426727
0.00904163 -0.410249
0.0174689 -0.406523
-0.0233353 -0.459902
-0.0336996 -0.447277
-0.0188955 -0.408513
-0.0190305 -0.418675
0.0414982 -0.0802972
0.0377 -0.0834679
0.0202335 -0.432658
0.0278934 -0.427808
-0.00508257 -0.450711
-0.00869339 -0.451026
-0.0342957 -0.290664
-0.0431992 -0.312599
-0.0447247 -0.0595769
-0.0397082 -0.0557142
0.00747625 -0.0740522
0.0136057 -0.0654858
0.0336875 -0.396821
0.0308276 -0.409641
0.00563182 -0.428946
0.0119526 -0.421268
0.0574417 -0.357392
0.0603011 -0.379572
0.0223592 -0.433302
0.0151305 -0.435605
0.0165899 -0.239608
0.0258549 -0.267587
0.0123747 -0.154263
0.00880116 -0.139017
0.0285157 -0.272755
0.0133362 -0.230643
0.000540939 -0.44972
0.00290327 -0.448433
0.018839 -0.228156
0.0350482 -0.246741
0.0123721 -0.460739
0.00762323 -0.46827
0.00495456 -0.208449
-0.00816681 -0.173857
0.0235734 -0.259846
0.0138008 -0.236121
-0.0126158 -0.221279
-0.00638388 -0.193026
0.0351784 -0.0897446
0.0352628 -0.0988481
-0.0400274 -0.438384
-0.0289177 -0.452632
-0.02011 -0.0200514
-0.0260413 -0.0231196
0.0467843 -0.319256
0.0357484 -0.281208
-0.0245756 -0.0446739
-0.0309879 -0.0606027
0.0170909 -0.109209
0.0184136 -0.082498
-0.00263619 -0.436903
0.00024325 -0.43707
0.00880796 -0.120322
-0.0280113 -0.133177
0.0223912 -0.460346
0.0208414 -0.46173
-0.0415178 -0.0700676
-0.0455152 -0.0654151
-0.0572158 -0.388778
-0.0546571 -0.404872
-0.00434568 -0.436607
0.00148433 -0.436907
0.0319933 -0.0394395
0.0402434 -0.0479273
0.00623641 -0.00684778
0.00986278 -0.0132798
-0.0150913 -0.438089
-0.0218543 -0.436779
-0.0154691 -0.0138039
-0.030661 -0.0295382
0.0157986 -0.467827
0.0192015 -0.463147
0.0528286 -0.415319
0.045657 -0.429544
-0.0290261 -0.446929
-0.0296308 -0.443545
0.00874127 -0.44783
0.00906659 -0.446033
-0.0170496 -0.449208
-0.0119791 -0.451176
0.0214069 -0.426777
0.022782 -0.421703
0.00393663 -0.436498
0.00591346 -0.435804
0.0270651 -0.0372205
0.0304347 -0.0564323
-0.00417017 -0.0996751
-0.0119723 -0.0615123
0.0481349 -0.41824
0.0470912 -0.414349
0.000764875 -0.451246
0.000277425 -0.451971
-0.00394271 -0.436944
0.00163998 -0.437264
-0.00200894 -0.376137
0.0115567 -0.371282
0.0300049 -0.0669473
0.0280376 -0.0931822
-0.00300714 -0.452035
-0.0040574 -0.451029
0.0187142 -0.237609
0.0238194 -0.243126
-0.0144597 -0.0843902
-0.0157964 -0.0528918
0.0492891 -0.422849
0.0500018 -0.421543
-0.0326322 -0.438421
-0.0262852 -0.443081
0.00258496 -0.205008
0.016467 -0.242946
0.0269756 -0.120004
0.0494357 -0.207525
-0.0311676 -0.427724
-0.0247211 -0.431071
-0.0532889 -0.396108
-0.0495383 -0.406654
0.0121504 -0.43475
0.00940609 -0.434964
-0.0096768 -0.151878
-0.00645339 -0.221441
0.00519976 -0.436158
-0.000404609 -0.437123
0.0158825 -0.141727
0.0255135 -0.111079
0.0657846 -0.295277
0.0431286 -0.238692
-0.00369651 -0.452275
-0.00789581 -0.451664
0.0189126 -0.339543
0.0281929 -0.36308
0.0390971 -0.286971
0.040091 -0.291431
-0.0240298 -0.458003
-0.0306458 -0.449522
-0.00122923 -0.436477
0.000986168 -0.437572
0.0175271 -0.363485
0.0245149 -0.383843
-0.00639399 -0.43547
-0.00333086 -0.436313
-0.00766164 -0.168466
-0.00962468 -0.170309
-0.00611279 -0.425493
0.000501881 -0.427641
-0.0191737 -0.430555
-0.0264993 -0.424679
-0.0332284 -0.419304
-0.0262174 -0.426366
0.0543758 -0.393502
0.0557754 -0.376331
0.00103806 -0.414728
0.00504288 -0.399619
-0.00736903 -0.0336004
-0.00251576 -0.0416597
0.0231331 -0.431609
0.0304783 -0.427054
-0.0194534 -0.138951
-0.00743361 -0.170064
0.0188904 -0.19825
0.0225522 -0.200869
-0.0252174 -0.453903
-0.0193061 -0.45705
0.00769028 -0.449406
0.0045341 -0.450573
-0.0456126 -0.343459
-0.0434951 -0.316555
0.0211203 -0.0466863
0.0273924 -0.0589741
0.000110654 -0.436863
0.00581691 -0.436353
-0.0137166 -0.447684
-0.0109581 -0.44961
-0.0525235 -0.338057
-0.0604092 -0.365089
-0.00847718 -0.407605
-0.00261743 -0.418936
-0.00531665 -0.451215
-0.00978459 -0.450795
-0.00568125 -0.451207
-0.0102507 -0.450643
0.0393067 -0.288892
0.0329088 -0.251698
0.0552221 -0.338804
0.0704605 -0.369253
-0.00830835 -0.435269
-0.00377594 -0.436771
0.0160695 -0.461906
0.0132103 -0.460503
0.0145463 -0.178209
0.0248007 -0.218588
-0.0171871 -0.452404
-0.0223601 -0.451908
0.0478901 -0.409544
0.0504507 -0.40977
0.0490451 -0.375151
0.0495519 -0.390435
-0.0551696 -0.39226
-0.053207 -0.407377
0.0244656 -0.402058
0.0201148 -0.415536
0.00140666 -0.451913
0.00293341 -0.451479
-0.0333926 -0.317523
-0.0398121 -0.329587
0.0467596 -0.0597434
0.0426137 -0.0571706
0.0326468 -0.0969217
0.0280926 -0.117822
-0.0118354 -0.417403
-0.0189778 -0.414799
-0.0146486 -0.432175
-0.0200251 -0.429748
-0.00550487 -0.450151
-0.00969526 -0.45025
-0.0275173 -0.0309293
-0.0235892 -0.0316927
-0.0159163 -0.235727
-0.00932073 -0.223972
0.0633411 -0.38475
0.0586604 -0.405861
-0.0324366 -0.442211
-0.0336268 -0.438092
-0.0468524 -0.398733
-0.0505901 -0.386215
-0.0325157 -0.425652
-0.0386129 -0.416762
-0.018688 -0.431392
-0.0226865 -0.426183
0.0412873 -0.435157
0.0386215 -0.438106
-0.0170298 -0.442446
-0.0241267 -0.439631
0.0386437 -0.343949
0.0255621 -0.312003
-0.0105917 -0.0835505
-0.00879615 -0.061202
-0.0158724 -0.203776
-0.0329094 -0.234425
0.00236972 -0.192022
-0.00595038 -0.21329
0.0173804 -0.131647
0.00642127 -0.166104
-0.0430144 -0.306007
-0.0351995 -0.274191
-0.0505598 -0.362254
-0.0517552 -0.37982
0.0559849 -0.374846
0.0575134 -0.383638
-0.0188673 -0.435337
-0.017513 -0.438298
-0.0104935 -0.452707
-0.00554362 -0.452546
-0.0426225 -0.384882
-0.0438332 -0.365496
-0.0557197 -0.413749
-0.0603152 -0.399475
-0.000397478 -0.438681
0.000173968 -0.438274
0.057052 -0.385128
0.0589184 -0.387425
0.000950914 -0.439204
0.000247937 -0.437977
-0.0280748 -0.259384
-0.0238651 -0.212681
-0.0583756 -0.404706
-0.0537509 -0.414799
-0.0362423 -0.443561
-0.0470142 -0.427684
-0.00605273 -0.105036
0.01132 -0.150328
0.00523743 -0.168677
-0.00558254 -0.129147
-0.0436939 -0.432939
-0.0514788 -0.420265
0.0114523 -0.47256
0.0181099 -0.465381
-0.000304574 -0.194168
-0.00521527 -0.124485
-0.0304018 -0.280305
-0.0294895 -0.278277
-0.058342 -0.41284
-0.0662825 -0.389707
-0.0205745 -0.345159
-0.0115787 -0.367237
-0.0232054 -0.0279431
-0.0331699 -0.0388153
0.0239163 -0.0711371
0.0230004 -0.0443909
-0.0227035 -0.457146
-0.029149 -0.451807
0.0427046 -0.383893
0.045585 -0.391023
0.0259881 -0.254738
0.0377811 -0.289933
-0.00339837 -0.436868
-0.00603125 -0.436288
-0.0581597 -0.356593
-0.0561922 -0.354601
0.0398734 -0.433206
0.0407608 -0.434872
0.0185086 -0.44512
0.0145826 -0.44446
-0.0293044 -0.0709639
-0.0294456 -0.0480233
0.00274123 -0.435288
0.00605557 -0.428618
0.00633243 -0.456106
0.0100858 -0.458994
-0.00517305 -0.452121
-0.00922657 -0.451084
-0.000269776 -0.438533
-0.00254821 -0.437547
-0.0245623 -0.329549
-0.030908 -0.348653
-0.00418779 -0.436543
-0.00252704 -0.434672
0.00387207 -0.00549234
0.0152435 -0.029817
-0.0658425 -0.351684
-0.0424098 -0.295657
0.0555051 -0.393297
0.0538308 -0.389013
-0.012685 -0.415797
-0.0115335 -0.425976
0.00827583 -0.439534
0.0161079 -0.43758
0.0164221 -0.433117
0.0240127 -0.428193
-0.0178946 -0.445987
-0.0148289 -0.444908
-0.00141567 -0.101826
-0.00115168 -0.115022
-0.0364141 -0.351697
-0.0168712 -0.331562
-0.00879212 -0.462807
-0.0175765 -0.464457
-0.0175765 -0.464457
-0.0267878 -0.466643
-0.0267878 -0.466643
-0.0362213 -0.469544
-0.0362213 -0.469544
-0.0456984 -0.473259
-0.0456984 -0.473259
-0.0550834 -0.477742
-0.0550834 -0.477742
-0.0642095 -0.482991
-0.0642095 -0.482991
-0.0729428 -0.488953
-0.0729428 -0.488953
-0.081163 -0.495563
-0.081163 -0.495563
-0.08876 -0.502741
-0.08876 -0.502741
-0.0956586 -0.510386
-0.0956586 -0.510386
-0.101789 -0.518393
-0.101789 -0.518393
-0.107112 -0.526652
-0.107112 -0.526652
-0.111608 -0.53505
-0.111608 -0.53505
-0.115253 -0.54346
-0.115253 -0.54346
-0.11808 -0.551812
-0.11808 -0.551812
-0.120112 -0.559977
-0.120112 -0.559977
-0.121384 -0.567875
-0.121384 -0.567875
-0.121958 -0.575449
-0.121958 -0.575449
-0.121885 -0.582603
-0.121885 -0.582603
-0.121243 -0.589307
-0.121243 -0.589307
-0.120085 -0.595538
-0.120085 -0.595538
-0.118479 -0.601249
-0.118479 -0.601249
-0.116504 -0.606437
-0.116504 -0.606437
-0.1142 -0.611111
-0.1142 -0.611111
-0.111607 -0.615299
-0.111607 -0.615299
-0.108779 -0.618972
-0.108779 -0.618972
-0.105757 -0.622169
-0.105757 -0.622169
-0.102519 -0.624956
-0.102519 -0.624956
-0.0990596 -0.627311
-0.0990596 -0.627311
-0.0954293 -0.629241
-0.0954293 -0.629241
-0.0915706 -0.630714
-0.0915706 -0.630714
-0.0874128 -0.631828
-0.0874128 -0.631828
-0.0829618 -0.632541
-0.0829618 -0.632541
-0.0781994 -0.632692
-0.0781994 -0.632692
-0.0729746 -0.632316
-0.0729746 -0.632316
-0.0672908 -0.631446
-0.0672908 -0.631446
-0.0611174 -0.629851
-0.0611174 -0.629851
-0.0543768 -0.627231
-0.0543768 -0.627231
-0.0470265 -0.623664
-0.0470265 -0.623664
-0.0390917 -0.618968
-0.0390917 -0.618968
-0.0305194 -0.612609
-0.0305194 -0.612609
-0.0213923 -0.604393
-0.0213923 -0.604393
-0.0117672 -0.59396
-0.0117672 -0.59396
-0.00154038 -0.580546
-0.00154038 -0.580546
0.00878509 -0.563249
0.00878509 -0.563249
0.0193853 -0.54114
0.0193853 -0.54114
0.0300514 -0.510946
0.0300514 -0.510946
0.0411125 -0.471458
0.0411125 -0.471458
0.0565673 -0.428413
0.0565673 -0.428413
0.065832 -0.407505
0.065832 -0.407505
0.0664281 -0.400111
0.0664281 -0.400111
0.0645524 -0.397315
0.0645524 -0.397315
0.0625865 -0.397201
0.0625865 -0.397201
0.060534 -0.398983
0.060534 -0.398983
0.0588154 -0.402038
0.0588154 -0.402038
0.0568519 -0.406245
0.0568519 -0.406245
0.0543343 -0.411337
0.0543343 -0.411337
0.0517617 -0.41714
0.0517617 -0.41714
0.0489494 -0.423082
0.0489494 -0.423082
0.0456875 -0.428751
0.0456875 -0.428751
0.0419654 -0.433993
0.0419654 -0.433993
0.0380537 -0.438844
0.0380537 -0.438844
0.0340192 -0.443157
0.0340192 -0.443157
0.0298424 -0.446898
0.0298424 -0.446898
0.0256291 -0.450111
0.0256291 -0.450111
0.0214172 -0.45282
0.0214172 -0.45282
0.0172176 -0.455043
0.0172176 -0.455043
0.0129687 -0.456879
0.0129687 -0.456879
0.00862154 -0.458397
0.00862154 -0.458397
0.00404873 -0.459755
0.00404873 -0.459755
-0.00142834 -0.46118
-0.00142834 -0.46118
-0.00879212 -0.462807
0.0674428 -0.631992
0.0731112 -0.632857
0.0731112 -0.632857
0.0783306 -0.633211
0.0783306 -0.633211
0.0830882 -0.63307
0.0830882 -0.63307
0.0875215 -0.632383
0.0875215 -0.632383
0.0916639 -0.631277
0.0916639 -0.631277
0.0955145 -0.62982
0.0955145 -0.62982
0.0991225 -0.627903
0.0991225 -0.627903
0.102566 -0.625575
0.102566 -0.625575
0.105795 -0.622796
0.105795 -0.622796
0.108806 -0.619608
0.108806 -0.619608
0.111622 -0.615951
0.111622 -0.615951
0.114202 -0.611777
0.114202 -0.611777
0.116501 -0.607114
0.116501 -0.607114
0.118468 -0.601947
0.118468 -0.601947
0.120067 -0.596269
0.120067 -0.596269
0.12122 -0.590035
0.12122 -0.590035
0.121866 -0.58336
0.121866 -0.58336
0.121937 -0.576261
0.121937 -0.576261
0.121377 -0.568706
0.121377 -0.568706
0.120098 -0.56081
0.120098 -0.56081
0.118074 -0.552667
0.118074 -0.552667
0.115261 -0.544349
0.115261 -0.544349
0.111615 -0.535949
0.111615 -0.535949
0.107138 -0.527571
0.107138 -0.527571
0.101836 -0.519348
0.101836 -0.519348
0.0957126 -0.511355
0.0957126 -0.511355
0.0888398 -0.503734
0.0888398 -0.503734
0.0812604 -0.496579
0.0812604 -0.496579
0.0730665 -0.489983
0.0730665 -0.489983
0.064363 -0.484034
0.064363 -0.484034
0.0552671 -0.478791
0.0552671 -0.478791
0.0459318 -0.474323
0.0459318 -0.474323
0.0364744 -0.47063
0.0364744 -0.47063
0.0271076 -0.467728
0.0271076 -0.467728
0.0179446 -0.465534
0.0179446 -0.465534
0.00928596 -0.463869
0.00928596 -0.463869
0.00194383 -0.462277
0.00194383 -0.462277
-0.00350474 -0.460841
-0.00350474 -0.460841
-0.00813446 -0.459493
-0.00813446 -0.459493
-0.0125281 -0.457979
-0.0125281 -0.457979
-0.0168337 -0.456167
-0.0168337 -0.456167
-0.0211036 -0.453938
-0.0211036 -0.453938
-0.0253849 -0.451196
-0.0253849 -0.451196
-0.0296238 -0.447928
-0.0296238 -0.447928
-0.0338241 -0.444117
-0.0338241 -0.444117
-0.0378815 -0.439731
-0.0378815 -0.439731
-0.0417148 -0.434755
-0.0417148 -0.434755
-0.0452887 -0.429283
-0.0452887 -0.429283
-0.0486412 -0.423587
-0.0486412 -0.423587
-0.0515911 -0.418135
-0.0515911 -0.418135
-0.0541204 -0.412864
-0.0541204 -0.412864
-0.0562837 -0.407994
-0.0562837 -0.407994
-0.0582985 -0.403646
-0.0582985 -0.403646
-0.0603788 -0.400262
-0.0603788 -0.400262
-0.0622035 -0.398329
-0.0622035 -0.398329
-0.0640324 -0.398191
-0.0640324 -0.398191
-0.0653764 -0.401046
-0.0653764 -0.401046
-0.0647579 -0.408241
-0.0647579 -0.408241
-0.0570174 -0.428519
-0.0570174 -0.428519
-0.0404287 -0.471799
-0.0404287 -0.471799
-0.0290044 -0.510367
-0.0290044 -0.510367
-0.0190195 -0.541014
-0.0190195 -0.541014
-0.00857268 -0.563938
-0.00857268 -0.563938
0.00195456 -0.581018
0.00195456 -0.581018
0.0119649 -0.594549
0.0119649 -0.594549
0.021652 -0.604833
0.021652 -0.604833
0.0308447 -0.613015
0.0308447 -0.613015
0.0393653 -0.619482
0.0393653 -0.619482
0.0472479 -0.624227
0.0472479 -0.624227
0.0545853 -0.627707
0.0545853 -0.627707
0.0613242 -0.630302
0.0613242 -0.630302
0.0674428 -0.631992
      </DataArray> 
      <DataArray type="Float64" NumberOfComponents="2" Name="Velocity" format="ascii">
0 0
0 0
0 0
0 0
0 0
0 0
0 0
0 0
0 0
0 0
0 0
0 0
0 0
0 0
0 0
0 0
0 0
0 0
0 0
0 0
0 0
0 0
0 0
0 0
0 0
0 0
0 0
0 0
0 0
0 0
0 0
0 0
0 0
0 0
0 0
0 0
0 0
0 0
0 0
0 0
0 0
0 0
0 0
0 0
0 0
0 0
0 0
0 0
0 0
0 0
0 0
0 0
0 0
0 0
0 0
0 0
0 0
0 0
0 0
0 0
0 0
0 0
0 0
0 0
0 0
0 0
0 0
0 0
0 0
0 0
0 0
0 0
0 0
0 0
0 0
0 0
0 0
0 0
0 0
0 0
0 0
0 0
0 0
0 0
0 0
0 0
0 0
0 0
0 0
0 0
0 0
0 0
0 0
0 0
0 0
0 0
0 0
0 0
0 0
0 0
0 0
0 0
0 0
0 0
0 0
0 0
0 0
0 0
0 0
0 0
0 0
0 0
0 0
0 0
0 0
0 0
0 0
0 0
0 0
0 0
0 0
0 0
0 0
0 0
0 0
0 0
0 0
0 0
0 0
0 0
0 0
0 0
0 0
0 0
0 0
0 0
0 0
0 0
0 0
0 0
0 0
0 0
0 0
0 0
0 0
0 0
0 0
0 0
0 0
0 0
0 0
0 0
0 0
0 0
0 0
0 0
0 0
0 0
0 0
0 0
0 0
0 0
0 0
0 0
0 0
0 0
0 0
0 0
0 0
0 0
0 0
0 0
0 0
0 0
0 0
0 0
0 0
0 0
0 0
0 0
0 0
0 0
0 0
0 0
0 0
0 0
0 0
0 0
0 0
0 0
0 0
0 0
0 0
0 0
0 0
0 0
0 0
0 0
0 0
0 0
0 0
0 0
0 0
0 0
0 0
0 0
0 0
0 0
0 0
0 0
0 0
0 0
0 0
0 0
0 0
0 0
0 0
0 0
0 0
0 0
0 0
0 0
0 0
0 0
0 0
0 0
0 0
0 0
0 0
0 0
0 0
0 0
0 0
0 0
0 0
0 0
0 0
0 0
0 0
0 0
0 0
0 0
0 0
0 0
0 0
0 0
0 0
0 0
0 0
0 0
0 0
0 0
0 0
0 0
0 0
0 0
0 0
0 0
0 0
0 0
0 0
0 0
0 0
0 0
0 0
0 0
0 0
0 0
0 0
0 0
0 0
0 0
0 0
0 0
0 0
0 0
0 0
0 0
0 0
0 0
0 0
0 0
0 0
0 0
0 0
0 0
0 0
0 0
0 0
0 0
0 0
0 0
0 0
0 0
0 0
0 0
0 0
0 0
0 0
0 0
0 0
0 0
0 0
0 0
0 0
0 0
0 0
0 0
0 0
0 0
0 0
0 0
0 0
0 0
0 0
0 0
0 0
0 0
0 0
0 0
0 0
0 0
0 0
0 0
0 0
0 0
0 0
0 0
0 0
0 0
0 0
0 0
0 0
0 0
0 0
0 0
0 0
0 0
0 0
0 0
0 0
0 0
0 0
0 0
0 0
0 0
0 0
0 0
0 0
0 0
0 0
0 0
0 0
0 0
0 0
0 0
0 0
0 0
0 0
0 0
0 0
0 0
0 0
0 0
0 0
0 0
0 0
0 0
0 0
0 0
0 0
0 0
0 0
0 0
0 0
0 0
0 0
0 0
0 0
0 0
0 0
0 0
0 0
0 0
0 0
0 0
0 0
0 0
0 0
0 0
0 0
0 0
0 0
0 0
0 0
0 0
0 0
0 0
0 0
0 0
0 0
0 0
0 0
0 0
0 0
0 0
0 0
0 0
0 0
0 0
0 0
0 0
0 0
0 0
0 0
0 0
0 0
0 0
0 0
0 0
0 0
0 0
0 0
0 0
0 0
0 0
0 0
0 0
0 0
0 0
0 0
0 0
0 0
0 0
0 0
0 0
0 0
0 0
0 0
0 0
0 0
0 0
0 0
0 0
0 0
0 0
0 0
0 0
0 0
0 0
0 0
0 0
0 0
0 0
0 0
0 0
0 0
0 0
0 0
0 0
0 0
0 0
0 0
0 0
0 0
0 0
0 0
0 0
0 0
0 0
0 0
0 0
0 0
0 0
0 0
0 0
0 0
0 0
0 0
0 0
0 0
0 0
0 0
0 0
0 0
0 0
0 0
0 0
0 0
0 0
0 0
0 0
0 0
0 0
0 0
0 0
0 0
0 0
0 0
0 0
0 0
0 0
0 0
0 0
0 0
0 0
0 0
0 0
0 0
0 0
0 0
0 0
0 0
0 0
0 0
0 0
0 0
0 0
0 0
0 0
0 0
0 0
0 0
0 0
0 0
0 0
0 0
0 0
0 0
0 0
0 0
0 0
0 0
0 0
0 0
0 0
0 0
0 0
0 0
0 0
0 0
0 0
0 0
0 0
0 0
0 0
0 0
0 0
0 0
0 0
0 0
0 0
0 0
0 0
0 0
0 0
0 0
0 0
0 0
0 0
0 0
0 0
0 0
0 0
0 0
0 0
0 0
0 0
0 0
0 0
0 0
0 0
0 0
0 0
0 0
0 0
0 0
0 0
0 0
0 0
0 0
0 0
0 0
0 0
0 0
0 0
0 0
0 0
0 0
0 0
0 0
0 0
0 0
0 0
0 0
0 0
0 0
0 0
0 0
0 0
0 0
0 0
0 0
0 0
0 0
0 0
0 0
0 0
0 0
0 0
0 0
0 0
0 0
0 0
0 0
0 0
0 0
0 0
0 0
0 0
0 0
0 0
0 0
0 0
0 0
0 0
0 0
0 0
0 0
0 0
0 0
0 0
0 0
0 0
0 0
0 0
0 0
0 0
0 0
0 0
0 0
0 0
0 0
0 0
0 0
0 0
0 0
0 0
0 0
0 0
0 0
0 0
0 0
0 0
0 0
0 0
0 0
0 0
0 0
0 0
0 0
0 0
0 0
0 0
0 0
0 0
0 0
0 0
0 0
0 0
0 0
0 0
0 0
0 0
0 0
0 0
0 0
0 0
0 0
0 0
0 0
0 0
0 0
0 0
0 0
0 0
0 0
0 0
0 0
0 0
0 0
0 0
0 0
0 0
0 0
0 0
0 0
0 0
0 0
0 0
0 0
0 0
0 0
0 0
0 0
0 0
0 0
0 0
0 0
0 0
0 0
0 0
0 0
0 0
0 0
0 0
0 0
0 0
0 0
0 0
0 0
0 0
0 0
0 0
0 0
0 0
0 0
0 0
0 0
0 0
0 0
0 0
0 0
0 0
0 0
0 0
0 0
0 0
0 0
0 0
0 0
0 0
0 0
0 0
0 0
0 0
0 0
0 0
0 0
0 0
0 0
0 0
0 0
0 0
0 0
0 0
0 0
0 0
0 0
0 0
0 0
0 0
0 0
0 0
0 0
0 0
0 0
0 0
0 0
0 0
0 0
0 0
0 0
0 0
0 0
0 0
0 0
0 0
0 0
0 0
0 0
0 0
0 0
0 0
0 0
0 0
0 0
0 0
0 0
0 0
0 0
0 0
0 0
0 0
0 0
0 0
0 0
0 0
0 0
0 0
0 0
0 0
0 0
0 0
0 0
0 0
0 0
0 0
0 0
0 0
0 0
0 0
0 0
0 0
0 0
0 0
0 0
0 0
0 0
0 0
0 0
0 0
0 0
0 0
0 0
0 0
0 0
0 0
0 0
0 0
0 0
0 0
0 0
0 0
0 0
0 0
0 0
0 0
0 0
0 0
0 0
0 0
0 0
0 0
0 0
0 0
0 0
0 0
0 0
0 0
0 0
0 0
0 0
0 0
0 0
0 0
0 0
0 0
0 0
0 0
0 0
0 0
0 0
0 0
0 0
0 0
0 0
0 0
0 0
0 0
0 0
0 0
0 0
0 0
0 0
0 0
0 0
0 0
0 0
0 0
0 0
0 0
0 0
0 0
0 0
0 0
0 0
0 0
0 0
0 0
0 0
0 0
0 0
0 0
0 0
0 0
0 0
0 0
0 0
0 0
0 0
0 0
0 0
0 0
0 0
0 0
0 0
0 0
0 0
0 0
0 0
0 0
0 0
0 0
0 0
0 0
0 0
0 0
0 0
0 0
0 0
0 0
0 0
0 0
0 0
0 0
0 0
0 0
0 0
0 0
0 0
0 0
0 0
0 0
0 0
0 0
0 0
0 0
0 0
0 0
0 0
0 0
0 0
0 0
0 0
0 0
0 0
0 0
0 0
0 0
0 0
0 0
0 0
0 0
0 0
0 0
0 0
0 0
0 0
0 0
0 0
0 0
0 0
0 0
0 0
0 0
0 0
0 0
0 0
0 0
0 0
0 0
0 0
0 0
0 0
0 0
0 0
0 0
0 0
0 0
0 0
0 0
0 0
0 0
0 0
0 0
0 0
0 0
0 0
0 0
0 0
0 0
0 0
0 0
0 0
0 0
0 0
0 0
0 0
0 0
0 0
0 0
0 0
0 0
0 0
0 0
0 0
0 0
0 0
0 0
0 0
0 0
0 0
0 0
0 0
0 0
0 0
0 0
0 0
0 0
0 0
0 0
0 0
0 0
0 0
0 0
0 0
0 0
0 0
0 0
0 0
0 0
0 0
0 0
0 0
0 0
0 0
0 0
0 0
0 0
0 0
0 0
0 0
0 0
0 0
0 0
0 0
0 0
0 0
0 0
0 0
0 0
0 0
0 0
0 0
0 0
0 0
0 0
0 0
0 0
0 0
0 0
0 0
0 0
0 0
0 0
0 0
0 0
0 0
0 0
0 0
0 0
0 0
0 0
0 0
0 0
0 0
0 0
0 0
0 0
0 0
0 0
0 0
0 0
0 0
0 0
0 0
0 0
0 0
0 0
0 0
0 0
0 0
0 0
0 0
0 0
0 0
0 0
0 0
0 0
0 0
0 0
0 0
0 0
0 0
0 0
0 0
0 0
0 0
0 0
0 0
0 0
0 0
0 0
0 0
0 0
0 0
0 0
0 0
0 0
0 0
0 0
0 0
0 0
0 0
0 0
0 0
0 0
0 0
0 0
0 0
0 0
0 0
0 0
0 0
0 0
0 0
0 0
0 0
0 0
0 0
0 0
0 0
0 0
0 0
0 0
0 0
0 0
0 0
0 0
0 0
0 0
0 0
0 0
0 0
0 0
0 0
0 0
0 0
0 0
0 0
0 0
0 0
0 0
0 0
0 0
0 0
0 0
0 0
0 0
0 0
0 0
0 0
0 0
0 0
0 0
0 0
0 0
0 0
0 0
0 0
0 0
0 0
0 0
0 0
0 0
0 0
0 0
0 0
0 0
0 0
0 0
0 0
0 0
0 0
0 0
0 0
0 0
0 0
0 0
0 0
0 0
0 0
0 0
0 0
0 0
0 0
0 0
0 0
0 0
0 0
0 0
0 0
0 0
0 0
0 0
0 0
0 0
0 0
0 0
0 0
0 0
0 0
0 0
0 0
0 0
0 0
0 0
0 0
0 0
0 0
0 0
0 0
0 0
0 0
0 0
0 0
0 0
0 0
0 0
0 0
0 0
0 0
0 0
0 0
0 0
0 0
0 0
0 0
0 0
0 0
0 0
0 0
0 0
0 0
0 0
0 0
0 0
0 0
0 0
0 0
0 0
0 0
0 0
0 0
0 0
0 0
0 0
0 0
0 0
0 0
0 0
0 0
0 0
0 0
0 0
0 0
0 0
0 0
0 0
0 0
0 0
0 0
0 0
0 0
0 0
0 0
0 0
0 0
0 0
0 0
0 0
0 0
0 0
0 0
0 0
0 0
0 0
0 0
0 0
0 0
0 0
0 0
0 0
0 0
0 0
0 0
0 0
0 0
0 0
0 0
0 0
0 0
0 0
0 0
0 0
0 0
0 0
0 0
0 0
0 0
0 0
0 0
0 0
0 0
0 0
0 0
0 0
0 0
0 0
0 0
0 0
0 0
0 0
0 0
0 0
0 0
0 0
0 0
0 0
0 0
0 0
0 0
0 0
0 0
0 0
0 0
0 0
0 0
0 0
0 0
0 0
0 0
0 0
0 0
0 0
0 0
0 0
0 0
0 0
0 0
0 0
0 0
0 0
0 0
0 0
0 0
0 0
0 0
0 0
0 0
0 0
0 0
0 0
0 0
0 0
0 0
0 0
0 0
0 0
0 0
0 0
0 0
0 0
0 0
0 0
0 0
0 0
0 0
0 0
0 0
0 0
0 0
0 0
0 0
0 0
0 0
0 0
0 0
0 0
0 0
0 0
0 0
0 0
0 0
0 0
0 0
0 0
0 0
0 0
0 0
0 0
0 0
0 0
0 0
0 0
0 0
0 0
0 0
0 0
0 0
0 0
0 0
0 0
0 0
0 0
0 0
0 0
0 0
0 0
0 0
0 0
0 0
0 0
0 0
0 0
0 0
0 0
0 0
0 0
0 0
0 0
0 0
0 0
0 0
0 0
0 0
0 0
0 0
0 0
0 0
0 0
0 0
0 0
0 0
0 0
0 0
0 0
0 0
0 0
0 0
0 0
0 0
0 0
0 0
0 0
0 0
0 0
0 0
0 0
0 0
0 0
0 0
0 0
0 0
0 0
0 0
0 0
0 0
0 0
0 0
0 0
0 0
0 0
0 0
0 0
0 0
0 0
0 0
0 0
0 0
0 0
0 0
0 0
0 0
0 0
0 0
0 0
0 0
0 0
0 0
0 0
0 0
0 0
0 0
0 0
0 0
0 0
0 0
0 0
0 0
0 0
0 0
0 0
0 0
0 0
0 0
0 0
0 0
0 0
0 0
0 0
0 0
0 0
0 0
0 0
0 0
0 0
0 0
0 0
0 0
0 0
0 0
0 0
0 0
0 0
0 0
0 0
0 0
0 0
0 0
0 0
0 0
0 0
0 0
0 0
0 0
0 0
0 0
0 0
0 0
0 0
0 0
0 0
0 0
0 0
0 0
0 0
0 0
0 0
0 0
0 0
0 0
0 0
0 0
0 0
0 0
0 0
0 0
0 0
0 0
0 0
0 0
0 0
0 0
0 0
0 0
0 0
0 0
0 0
0 0
0 0
0 0
0 0
0 0
0 0
0 0
0 0
0 0
0 0
0 0
0 0
0 0
0 0
0 0
0 0
0 0
0 0
0 0
0 0
0 0
0 0
0 0
0 0
0 0
0 0
0 0
0 0
0 0
0 0
0 0
0 0
0 0
0 0
0 0
0 0
0 0
0 0
0 0
0 0
0 0
0 0
0 0
0 0
0 0
0 0
0 0
0 0
0 0
0 0
0 0
0 0
0 0
0 0
0 0
0 0
0 0
0 0
0 0
0 0
0 0
0 0
0 0
0 0
0 0
0 0
0 0
0 0
0 0
0 0
0 0
0 0
0 0
0 0
0 0
0 0
0 0
0 0
0 0
0 0
0 0
0 0
0 0
0 0
0 0
0 0
0 0
0 0
0 0
0 0
0 0
0 0
0 0
0 0
0 0
0 0
0 0
0 0
0 0
0 0
0 0
0 0
0 0
0 0
0 0
0 0
0 0
0 0
0 0
0 0
0 0
0 0
0 0
0 0
0 0
0 0
0 0
0 0
0 0
0 0
0 0
0 0
0 0
0 0
0 0
0 0
0 0
0 0
0 0
0 0
0 0
0 0
0 0
0 0
0 0
0 0
0 0
0 0
0 0
0 0
0 0
0 0
0 0
0 0
0 0
0 0
0 0
0 0
0 0
0 0
0 0
0 0
0 0
0 0
0 0
0 0
0 0
0 0
0 0
0 0
0 0
0 0
0 0
0 0
0 0
0 0
0 0
0 0
0 0
0 0
0 0
0 0
0 0
0 0
0 0
0 0
0 0
0 0
0 0
0 0
0 0
0 0
0 0
0 0
0 0
0 0
0 0
0 0
0 0
0 0
0 0
0 0
0 0
0 0
0 0
0 0
0 0
0 0
0 0
0 0
0 0
0 0
0 0
0 0
0 0
0 0
0 0
0 0
0 0
0 0
0 0
0 0
0 0
0 0
0 0
0 0
0 0
0 0
0 0
0 0
0 0
0 0
0 0
0 0
0 0
0 0
0 0
0 0
0 0
0 0
0 0
0 0
0 0
0 0
0 0
0 0
0 0
0 0
0 0
0 0
0 0
0 0
0 0
0 0
0 0
0 0
0 0
0 0
0 0
0 0
0 0
0 0
0 0
0 0
0 0
0 0
0 0
0 0
0 0
0 0
0 0
0 0
0 0
0 0
0 0
0 0
0 0
0 0
0 0
0 0
0 0
0 0
0 0
0 0
0 0
0 0
0 0
0 0
0 0
0 0
0 0
0 0
0 0
0 0
0 0
0 0
0 0
0 0
0 0
0 0
0 0
0 0
0 0
0 0
0 0
0 0
0 0
0 0
0 0
0 0
0 0
0 0
0 0
0 0
0 0
0 0
0 0
0 0
0 0
0 0
0 0
0 0
0 0
0 0
0 0
0 0
0 0
0 0
0 0
0 0
0 0
0 0
0 0
0 0
0 0
0 0
0 0
0 0
0 0
0 0
0 0
0 0
0 0
0 0
0 0
0 0
0 0
0 0
0 0
0 0
0 0
0 0
0 0
0 0
0 0
0 0
0 0
0 0
0 0
0 0
0 0
0 0
0 0
0 0
0 0
0 0
0 0
0 0
0 0
0 0
0 0
0 0
0 0
0 0
0 0
0 0
0 0
0 0
0 0
0 0
0 0
0 0
0 0
0 0
0 0
0 0
0 0
0 0
0 0
0 0
0 0
0 0
0 0
0 0
0 0
0 0
0 0
0 0
0 0
0 0
0 0
0 0
0 0
0 0
0 0
0 0
0 0
0 0
0 0
0 0
0 0
0 0
0 0
0 0
0 0
0 0
0 0
0 0
0 0
0 0
0 0
0 0
0 0
0 0
0 0
0 0
0 0
0 0
0 0
0 0
0 0
0 0
0 0
0 0
0 0
0 0
0 0
0 0
0 0
0 0
0 0
0 0
0 0
0 0
0 0
0 0
0 0
0 0
0 0
0 0
0 0
0 0
0 0
0 0
0 0
0 0
0 0
0 0
0 0
0 0
0 0
0 0
0 0
0 0
0 0
0 0
0 0
0 0
0 0
0 0
0 0
0 0
0 0
0 0
0 0
0 0
0 0
0 0
0 0
0 0
0 0
0 0
0 0
0 0
0 0
0 0
0 0
0 0
0 0
0 0
0 0
0 0
0 0
0 0
0 0
0 0
0 0
0 0
0 0
0 0
0 0
0 0
0 0
0 0
0 0
0 0
0 0
0 0
0 0
0 0
0 0
0 0
0 0
0 0
0 0
0 0
0 0
0 0
0 0
0 0
0 0
0 0
0 0
0 0
0 0
0 0
0 0
0 0
0 0
0 0
0 0
0 0
0 0
0 0
0 0
0 0
0 0
0 0
0 0
0 0
0 0
0 0
0 0
0 0
0 0
0 0
0 0
0 0
0 0
0 0
0 0
0 0
0 0
0 0
0 0
0 0
0 0
0 0
0 0
0 0
0 0
0 0
0 0
0 0
0 0
0 0
0 0
0 0
0 0
0 0
0 0
0 0
0 0
0 0
0 0
0 0
0 0
0 0
0 0
0 0
0 0
0 0
0 0
0 0
0 0
0 0
0 0
0 0
0 0
0 0
0 0
0 0
0 0
0 0
0 0
0 0
0 0
0 0
0 0
0 0
0 0
0 0
0 0
0 0
0 0
0 0
0 0
0 0
0 0
0 0
0 0
0 0
0 0
0 0
0 0
0 0
0 0
0 0
0 0
0 0
0 0
0 0
0 0
0 0
0 0
0 0
0 0
0 0
0 0
0 0
0 0
0 0
0 0
0 0
0 0
0 0
0 0
0 0
0 0
0 0
0 0
0 0
0 0
0 0
0 0
0 0
0 0
0 0
0 0
0 0
0 0
0 0
0 0
0 0
0 0
0 0
0 0
0 0
0 0
0 0
0 0
0 0
0 0
0 0
0 0
0 0
0 0
0 0
0 0
0 0
0 0
0 0
0 0
0 0
0 0
0 0
0 0
0 0
0 0
0 0
0 0
0 0
0 0
0 0
0 0
0 0
0 0
0 0
0 0
0 0
0 0
0 0
0 0
0 0
0 0
0 0
0 0
0 0
0 0
0 0
0 0
0 0
0 0
0 0
0 0
0 0
0 0
0 0
0 0
0 0
0 0
0 0
0 0
0 0
0 0
0 0
0 0
0 0
0 0
0 0
0 0
0 0
0 0
0 0
0 0
0 0
0 0
0 0
0 0
0 0
0 0
0 0
0 0
0 0
0 0
0 0
0 0
0 0
0 0
0 0
0 0
0 0
0 0
0 0
0 0
0 0
0 0
0 0
0 0
0 0
0 0
0 0
0 0
0 0
0 0
0 0
0 0
0 0
0 0
0 0
0 0
0 0
0 0
0 0
0 0
0 0
0 0
0 0
0 0
0 0
0 0
0 0
0 0
0 0
0 0
0 0
0 0
0 0
0 0
0 0
0 0
0 0
0 0
0 0
0 0
0 0
0 0
0 0
0 0
0 0
0 0
0 0
0 0
0 0
0 0
0 0
0 0
0 0
0 0
0 0
0 0
0 0
0 0
0 0
0 0
0 0
0 0
0 0
0 0
0 0
0 0
0 0
0 0
0 0
0 0
0 0
0 0
0 0
0 0
0 0
0 0
0 0
0 0
0 0
0 0
0 0
0 0
0 0
0 0
0 0
0 0
0 0
0 0
0 0
0 0
0 0
0 0
0 0
0 0
0 0
0 0
0 0
0 0
0 0
0 0
0 0
0 0
0 0
0 0
0 0
0 0
0 0
0 0
0 0
0 0
0 0
0 0
0 0
0 0
0 0
0 0
0 0
0 0
0 0
0 0
0 0
0 0
0 0
0 0
0 0
0 0
0 0
0 0
0 0
0 0
0 0
0 0
0 0
0 0
0 0
0 0
0 0
0 0
0 0
0 0
0 0
0 0
0 0
0 0
0 0
0 0
0 0
0 0
0 0
0 0
0 0
0 0
0 0
0 0
0 0
0 0
0 0
0 0
0 0
0 0
0 0
0 0
0 0
0 0
0 0
0 0
0 0
0 0
0 0
0 0
0 0
0 0
0 0
0 0
0 0
0 0
0 0
0 0
0 0
0 0
0 0
0 0
0 0
0 0
0 0
0 0
0 0
0 0
0 0
0 0
0 0
0 0
0 0
0 0
0 0
0 0
0 0
0 0
0 0
0 0
0 0
0 0
0 0
0 0
0 0
0 0
0 0
0 0
0 0
0 0
0 0
0 0
0 0
0 0
0 0
0 0
0 0
0 0
0 0
0 0
0 0
0 0
0 0
0 0
0 0
0 0
0 0
0 0
0 0
0 0
0 0
0 0
0 0
0 0
0 0
0 0
0 0
0 0
0 0
0 0
0 0
0 0
0 0
0 0
0 0
0 0
0 0
0 0
0 0
0 0
0 0
0 0
0 0
0 0
0 0
0 0
0 0
0 0
0 0
0 0
0 0
0 0
0 0
0 0
0 0
0 0
0 0
0 0
0 0
0 0
0 0
0 0
0 0
0 0
0 0
0 0
0 0
0 0
0 0
0 0
0 0
0 0
0 0
0 0
0 0
0 0
0 0
0 0
0 0
0 0
0 0
0 0
0 0
0 0
0 0
0 0
0 0
0 0
0 0
0 0
0 0
0 0
0 0
0 0
0 0
0 0
0 0
0 0
0 0
0 0
0 0
0 0
0 0
0 0
0 0
0 0
0 0
0 0
0 0
0 0
0 0
0 0
0 0
0 0
0 0
0 0
0 0
0 0
0 0
0 0
0 0
0 0
0 0
0 0
0 0
0 0
0 0
0 0
0 0
0 0
0 0
0 0
0 0
0 0
0 0
0 0
0 0
0 0
0 0
0 0
0 0
0 0
0 0
0 0
0 0
0 0
0 0
0 0
0 0
0 0
0 0
0 0
0 0
0 0
0 0
0 0
0 0
0 0
0 0
0 0
0 0
0 0
0 0
0 0
0 0
0 0
0 0
0 0
0 0
0 0
0 0
0 0
0 0
0 0
0 0
0 0
0 0
0 0
0 0
0 0
0 0
0 0
0 0
0 0
0 0
0 0
0 0
0 0
0 0
0 0
0 0
0 0
0 0
0 0
0 0
0 0
0 0
0 0
0 0
0 0
0 0
0 0
0 0
0 0
0 0
0 0
0 0
0 0
0 0
0 0
0 0
0 0
0 0
0 0
0 0
0 0
0 0
0 0
0 0
0 0
0 0
0 0
0 0
0 0
0 0
0 0
0 0
0 0
0 0
0 0
0 0
0 0
0 0
0 0
0 0
0 0
0 0
0 0
0 0
0 0
0 0
0 0
0 0
0 0
0 0
0 0
0 0
0 0
0 0
0 0
0 0
0 0
0 0
0 0
0 0
0 0
0 0
0 0
0 0
0 0
0 0
0 0
0 0
0 0
0 0
0 0
0 0
0 0
0 0
0 0
0 0
0 0
0 0
0 0
0 0
0 0
0 0
0 0
0 0
0 0
0 0
0 0
0 0
0 0
0 0
0 0
0 0
0 0
0 0
0 0
0 0
0 0
0 0
0 0
0 0
0 0
0 0
0 0
0 0
0 0
0 0
0 0
0 0
0 0
0 0
0 0
0 0
0 0
0 0
0 0
0 0
0 0
0 0
0 0
0 0
0 0
0 0
0 0
0 0
0 0
0 0
0 0
0 0
0 0
0 0
0 0
0 0
0 0
0 0
0 0
0 0
0 0
0 0
0 0
0 0
0 0
0 0
0 0
0 0
0 0
0 0
0 0
0 0
0 0
0 0
0 0
0 0
0 0
0 0
0 0
0 0
0 0
0 0
0 0
0 0
0 0
0 0
0 0
0 0
0 0
0 0
0 0
0 0
0 0
0 0
0 0
0 0
0 0
0 0
0 0
0 0
0 0
0 0
0 0
0 0
0 0
0 0
0 0
0 0
0 0
0 0
0 0
0 0
0 0
0 0
0 0
0 0
0 0
0 0
0 0
0 0
0 0
0 0
0 0
0 0
0 0
0 0
0 0
0 0
0 0
0 0
0 0
0 0
0 0
0 0
0 0
0 0
0 0
0 0
0 0
0 0
0 0
0 0
0 0
0 0
0 0
0 0
0 0
0 0
0 0
0 0
0 0
0 0
0 0
0 0
0 0
0 0
0 0
0 0
0 0
0 0
0 0
0 0
0 0
0 0
0 0
0 0
0 0
0 0
0 0
0 0
0 0
0 0
0 0
0 0
0 0
0 0
0 0
0 0
0 0
0 0
0 0
0 0
0 0
0 0
0 0
0 0
0 0
0 0
0 0
0 0
0 0
0 0
0 0
0 0
0 0
0 0
0 0
0 0
0 0
0 0
0 0
0 0
0 0
0 0
0 0
0 0
0 0
0 0
0 0
0 0
0 0
0 0
0 0
0 0
0 0
0 0
0 0
0 0
0 0
0 0
0 0
0 0
0 0
0 0
0 0
0 0
0 0
0 0
0 0
0 0
0 0
0 0
0 0
0 0
0 0
0 0
0 0
0 0
0 0
0 0
0 0
0 0
0 0
0 0
0 0
0 0
0 0
0 0
0 0
0 0
0 0
0 0
0 0
0 0
0 0
0 0
0 0
0 0
0 0
0 0
0 0
0 0
0 0
0 0
0 0
0 0
0 0
0 0
0 0
0 0
0 0
0 0
0 0
0 0
0 0
0 0
0 0
0 0
0 0
0 0
0 0
0 0
0 0
0 0
0 0
0 0
0 0
0 0
0 0
0 0
0 0
0 0
0 0
0 0
0 0
0 0
0 0
0 0
0 0
0 0
0 0
0 0
0 0
0 0
0 0
0 0
0 0
0 0
0 0
0 0
0 0
0 0
0 0
0 0
0 0
0 0
0 0
0 0
0 0
0 0
0 0
0 0
0 0
0 0
0 0
0 0
0 0
0 0
0 0
0 0
0 0
0 0
0 0
0 0
0 0
0 0
0 0
0 0
0 0
0 0
0 0
0 0
0 0
0 0
0 0
0 0
0 0
0 0
0 0
0 0
0 0
0 0
0 0
0 0
0 0
0 0
0 0
0 0
0 0
0 0
0 0
0 0
0 0
0 0
0 0
0 0
0 0
0 0
0 0
0 0
0 0
0 0
0 0
0 0
0 0
0 0
0 0
0 0
0 0
0 0
0 0
0 0
0 0
0 0
0 0
0 0
0 0
0 0
0 0
0 0
0 0
0 0
0 0
0 0
0 0
0 0
0 0
0 0
0 0
0 0
0 0
0 0
0 0
0 0
0 0
0 0
0 0
0 0
0 0
0 0
0 0
0 0
0 0
0 0
0 0
0 0
0 0
0 0
0 0
0 0
0 0
0 0
0 0
0 0
0 0
0 0
0 0
0 0
0 0
0 0
0 0
0 0
0 0
0 0
0 0
0 0
0 0
0 0
0 0
0 0
0 0
0 0
0 0
0 0
0 0
0 0
0 0
0 0
0 0
0 0
0 0
0 0
0 0
0 0
0 0
0 0
0 0
0 0
0 0
0 0
0 0
0 0
0 0
0 0
0 0
0 0
0 0
0 0
0 0
0 0
0 0
0 0
0 0
0 0
0 0
0 0
0 0
0 0
0 0
0 0
0 0
0 0
0 0
0 0
0 0
0 0
0 0
0 0
0 0
0 0
0 0
0 0
0 0
0 0
0 0
0 0
0 0
0 0
0 0
0 0
0 0
0 0
0 0
0 0
0 0
0 0
0 0
0 0
0 0
0 0
0 0
0 0
0 0
0 0
0 0
0 0
0 0
0 0
0 0
0 0
0 0
0 0
0 0
0 0
0 0
0 0
0 0
0 0
0 0
0 0
0 0
0 0
0 0
0 0
0 0
0 0
0 0
0 0
0 0
0 0
0 0
0 0
0 0
0 0
0 0
0 0
0 0
0 0
0 0
0 0
0 0
0 0
0 0
0 0
0 0
0 0
0 0
0 0
0 0
0 0
0 0
0 0
0 0
0 0
0 0
0 0
0 0
0 0
0 0
0 0
0 0
0 0
0 0
0 0
0 0
0 0
0 0
0 0
0 0
0 0
0 0
0 0
0 0
0 0
0 0
0 0
0 0
0 0
0 0
0 0
0 0
0 0
0 0
0 0
0 0
0 0
0 0
0 0
0 0
0 0
0 0
0 0
0 0
0 0
0 0
0 0
0 0
0 0
0 0
0 0
0 0
0 0
0 0
0 0
0 0
0 0
0 0
0 0
0 0
0 0
0 0
0 0
0 0
0 0
0 0
0 0
0 0
0 0
0 0
0 0
0 0
0 0
0 0
0 0
0 0
0 0
0 0
0 0
0 0
0 0
0 0
0 0
0 0
0 0
0 0
0 0
0 0
0 0
0 0
0 0
0 0
0 0
0 0
0 0
0 0
0 0
0 0
0 0
0 0
0 0
0 0
0 0
0 0
0 0
0 0
0 0
0 0
0 0
0 0
0 0
0 0
0 0
0 0
0 0
0 0
0 0
0 0
0 0
0 0
0 0
0 0
0 0
0 0
0 0
0 0
0 0
0 0
0 0
0 0
0 0
0 0
      </DataArray> 
      <DataArray type="Float64" NumberOfComponents="2" Name="Acceleration" format="ascii">
0 0
0 0
0 0
0 0
0 0
0 0
0 0
0 0
0 0
0 0
0 0
0 0
0 0
0 0
0 0
0 0
0 0
0 0
0 0
0 0
0 0
0 0
0 0
0 0
0 0
0 0
0 0
0 0
0 0
0 0
0 0
0 0
0 0
0 0
0 0
0 0
0 0
0 0
0 0
0 0
0 0
0 0
0 0
0 0
0 0
0 0
0 0
0 0
0 0
0 0
0 0
0 0
0 0
0 0
0 0
0 0
0 0
0 0
0 0
0 0
0 0
0 0
0 0
0 0
0 0
0 0
0 0
0 0
0 0
0 0
0 0
0 0
0 0
0 0
0 0
0 0
0 0
0 0
0 0
0 0
0 0
0 0
0 0
0 0
0 0
0 0
0 0
0 0
0 0
0 0
0 0
0 0
0 0
0 0
0 0
0 0
0 0
0 0
0 0
0 0
0 0
0 0
0 0
0 0
0 0
0 0
0 0
0 0
0 0
0 0
0 0
0 0
0 0
0 0
0 0
0 0
0 0
0 0
0 0
0 0
0 0
0 0
0 0
0 0
0 0
0 0
0 0
0 0
0 0
0 0
0 0
0 0
0 0
0 0
0 0
0 0
0 0
0 0
0 0
0 0
0 0
0 0
0 0
0 0
0 0
0 0
0 0
0 0
0 0
0 0
0 0
0 0
0 0
0 0
0 0
0 0
0 0
0 0
0 0
0 0
0 0
0 0
0 0
0 0
0 0
0 0
0 0
0 0
0 0
0 0
0 0
0 0
0 0
0 0
0 0
0 0
0 0
0 0
0 0
0 0
0 0
0 0
0 0
0 0
0 0
0 0
0 0
0 0
0 0
0 0
0 0
0 0
0 0
0 0
0 0
0 0
0 0
0 0
0 0
0 0
0 0
0 0
0 0
0 0
0 0
0 0
0 0
0 0
0 0
0 0
0 0
0 0
0 0
0 0
0 0
0 0
0 0
0 0
0 0
0 0
0 0
0 0
0 0
0 0
0 0
0 0
0 0
0 0
0 0
0 0
0 0
0 0
0 0
0 0
0 0
0 0
0 0
0 0
0 0
0 0
0 0
0 0
0 0
0 0
0 0
0 0
0 0
0 0
0 0
0 0
0 0
0 0
0 0
0 0
0 0
0 0
0 0
0 0
0 0
0 0
0 0
0 0
0 0
0 0
0 0
0 0
0 0
0 0
0 0
0 0
0 0
0 0
0 0
0 0
0 0
0 0
0 0
0 0
0 0
0 0
0 0
0 0
0 0
0 0
0 0
0 0
0 0
0 0
0 0
0 0
0 0
0 0
0 0
0 0
0 0
0 0
0 0
0 0
0 0
0 0
0 0
0 0
0 0
0 0
0 0
0 0
0 0
0 0
0 0
0 0
0 0
0 0
0 0
0 0
0 0
0 0
0 0
0 0
0 0
0 0
0 0
0 0
0 0
0 0
0 0
0 0
0 0
0 0
0 0
0 0
0 0
0 0
0 0
0 0
0 0
0 0
0 0
0 0
0 0
0 0
0 0
0 0
0 0
0 0
0 0
0 0
0 0
0 0
0 0
0 0
0 0
0 0
0 0
0 0
0 0
0 0
0 0
0 0
0 0
0 0
0 0
0 0
0 0
0 0
0 0
0 0
0 0
0 0
0 0
0 0
0 0
0 0
0 0
0 0
0 0
0 0
0 0
0 0
0 0
0 0
0 0
0 0
0 0
0 0
0 0
0 0
0 0
0 0
0 0
0 0
0 0
0 0
0 0
0 0
0 0
0 0
0 0
0 0
0 0
0 0
0 0
0 0
0 0
0 0
0 0
0 0
0 0
0 0
0 0
0 0
0 0
0 0
0 0
0 0
0 0
0 0
0 0
0 0
0 0
0 0
0 0
0 0
0 0
0 0
0 0
0 0
0 0
0 0
0 0
0 0
0 0
0 0
0 0
0 0
0 0
0 0
0 0
0 0
0 0
0 0
0 0
0 0
0 0
0 0
0 0
0 0
0 0
0 0
0 0
0 0
0 0
0 0
0 0
0 0
0 0
0 0
0 0
0 0
0 0
0 0
0 0
0 0
0 0
0 0
0 0
0 0
0 0
0 0
0 0
0 0
0 0
0 0
0 0
0 0
0 0
0 0
0 0
0 0
0 0
0 0
0 0
0 0
0 0
0 0
0 0
0 0
0 0
0 0
0 0
0 0
0 0
0 0
0 0
0 0
0 0
0 0
0 0
0 0
0 0
0 0
0 0
0 0
0 0
0 0
0 0
0 0
0 0
0 0
0 0
0 0
0 0
0 0
0 0
0 0
0 0
0 0
0 0
0 0
0 0
0 0
0 0
0 0
0 0
0 0
0 0
0 0
0 0
0 0
0 0
0 0
0 0
0 0
0 0
0 0
0 0
0 0
0 0
0 0
0 0
0 0
0 0
0 0
0 0
0 0
0 0
0 0
0 0
0 0
0 0
0 0
0 0
0 0
0 0
0 0
0 0
0 0
0 0
0 0
0 0
0 0
0 0
0 0
0 0
0 0
0 0
0 0
0 0
0 0
0 0
0 0
0 0
0 0
0 0
0 0
0 0
0 0
0 0
0 0
0 0
0 0
0 0
0 0
0 0
0 0
0 0
0 0
0 0
0 0
0 0
0 0
0 0
0 0
0 0
0 0
0 0
0 0
0 0
0 0
0 0
0 0
0 0
0 0
0 0
0 0
0 0
0 0
0 0
0 0
0 0
0 0
0 0
0 0
0 0
0 0
0 0
0 0
0 0
0 0
0 0
0 0
0 0
0 0
0 0
0 0
0 0
0 0
0 0
0 0
0 0
0 0
0 0
0 0
0 0
0 0
0 0
0 0
0 0
0 0
0 0
0 0
0 0
0 0
0 0
0 0
0 0
0 0
0 0
0 0
0 0
0 0
0 0
0 0
0 0
0 0
0 0
0 0
0 0
0 0
0 0
0 0
0 0
0 0
0 0
0 0
0 0
0 0
0 0
0 0
0 0
0 0
0 0
0 0
0 0
0 0
0 0
0 0
0 0
0 0
0 0
0 0
0 0
0 0
0 0
0 0
0 0
0 0
0 0
0 0
0 0
0 0
0 0
0 0
0 0
0 0
0 0
0 0
0 0
0 0
0 0
0 0
0 0
0 0
0 0
0 0
0 0
0 0
0 0
0 0
0 0
0 0
0 0
0 0
0 0
0 0
0 0
0 0
0 0
0 0
0 0
0 0
0 0
0 0
0 0
0 0
0 0
0 0
0 0
0 0
0 0
0 0
0 0
0 0
0 0
0 0
0 0
0 0
0 0
0 0
0 0
0 0
0 0
0 0
0 0
0 0
0 0
0 0
0 0
0 0
0 0
0 0
0 0
0 0
0 0
0 0
0 0
0 0
0 0
0 0
0 0
0 0
0 0
0 0
0 0
0 0
0 0
0 0
0 0
0 0
0 0
0 0
0 0
0 0
0 0
0 0
0 0
0 0
0 0
0 0
0 0
0 0
0 0
0 0
0 0
0 0
0 0
0 0
0 0
0 0
0 0
0 0
0 0
0 0
0 0
0 0
0 0
0 0
0 0
0 0
0 0
0 0
0 0
0 0
0 0
0 0
0 0
0 0
0 0
0 0
0 0
0 0
0 0
0 0
0 0
0 0
0 0
0 0
0 0
0 0
0 0
0 0
0 0
0 0
0 0
0 0
0 0
0 0
0 0
0 0
0 0
0 0
0 0
0 0
0 0
0 0
0 0
0 0
0 0
0 0
0 0
0 0
0 0
0 0
0 0
0 0
0 0
0 0
0 0
0 0
0 0
0 0
0 0
0 0
0 0
0 0
0 0
0 0
0 0
0 0
0 0
0 0
0 0
0 0
0 0
0 0
0 0
0 0
0 0
0 0
0 0
0 0
0 0
0 0
0 0
0 0
0 0
0 0
0 0
0 0
0 0
0 0
0 0
0 0
0 0
0 0
0 0
0 0
0 0
0 0
0 0
0 0
0 0
0 0
0 0
0 0
0 0
0 0
0 0
0 0
0 0
0 0
0 0
0 0
0 0
0 0
0 0
0 0
0 0
0 0
0 0
0 0
0 0
0 0
0 0
0 0
0 0
0 0
0 0
0 0
0 0
0 0
0 0
0 0
0 0
0 0
0 0
0 0
0 0
0 0
0 0
0 0
0 0
0 0
0 0
0 0
0 0
0 0
0 0
0 0
0 0
0 0
0 0
0 0
0 0
0 0
0 0
0 0
0 0
0 0
0 0
0 0
0 0
0 0
0 0
0 0
0 0
0 0
0 0
0 0
0 0
0 0
0 0
0 0
0 0
0 0
0 0
0 0
0 0
0 0
0 0
0 0
0 0
0 0
0 0
0 0
0 0
0 0
0 0
0 0
0 0
0 0
0 0
0 0
0 0
0 0
0 0
0 0
0 0
0 0
0 0
0 0
0 0
0 0
0 0
0 0
0 0
0 0
0 0
0 0
0 0
0 0
0 0
0 0
0 0
0 0
0 0
0 0
0 0
0 0
0 0
0 0
0 0
0 0
0 0
0 0
0 0
0 0
0 0
0 0
0 0
0 0
0 0
0 0
0 0
0 0
0 0
0 0
0 0
0 0
0 0
0 0
0 0
0 0
0 0
0 0
0 0
0 0
0 0
0 0
0 0
0 0
0 0
0 0
0 0
0 0
0 0
0 0
0 0
0 0
0 0
0 0
0 0
0 0
0 0
0 0
0 0
0 0
0 0
0 0
0 0
0 0
0 0
0 0
0 0
0 0
0 0
0 0
0 0
0 0
0 0
0 0
0 0
0 0
0 0
0 0
0 0
0 0
0 0
0 0
0 0
0 0
0 0
0 0
0 0
0 0
0 0
0 0
0 0
0 0
0 0
0 0
0 0
0 0
0 0
0 0
0 0
0 0
0 0
0 0
0 0
0 0
0 0
0 0
0 0
0 0
0 0
0 0
0 0
0 0
0 0
0 0
0 0
0 0
0 0
0 0
0 0
0 0
0 0
0 0
0 0
0 0
0 0
0 0
0 0
0 0
0 0
0 0
0 0
0 0
0 0
0 0
0 0
0 0
0 0
0 0
0 0
0 0
0 0
0 0
0 0
0 0
0 0
0 0
0 0
0 0
0 0
0 0
0 0
0 0
0 0
0 0
0 0
0 0
0 0
0 0
0 0
0 0
0 0
0 0
0 0
0 0
0 0
0 0
0 0
0 0
0 0
0 0
0 0
0 0
0 0
0 0
0 0
0 0
0 0
0 0
0 0
0 0
0 0
0 0
0 0
0 0
0 0
0 0
0 0
0 0
0 0
0 0
0 0
0 0
0 0
0 0
0 0
0 0
0 0
0 0
0 0
0 0
0 0
0 0
0 0
0 0
0 0
0 0
0 0
0 0
0 0
0 0
0 0
0 0
0 0
0 0
0 0
0 0
0 0
0 0
0 0
0 0
0 0
0 0
0 0
0 0
0 0
0 0
0 0
0 0
0 0
0 0
0 0
0 0
0 0
0 0
0 0
0 0
0 0
0 0
0 0
0 0
0 0
0 0
0 0
0 0
0 0
0 0
0 0
0 0
0 0
0 0
0 0
0 0
0 0
0 0
0 0
0 0
0 0
0 0
0 0
0 0
0 0
0 0
0 0
0 0
0 0
0 0
0 0
0 0
0 0
0 0
0 0
0 0
0 0
0 0
0 0
0 0
0 0
0 0
0 0
0 0
0 0
0 0
0 0
0 0
0 0
0 0
0 0
0 0
0 0
0 0
0 0
0 0
0 0
0 0
0 0
0 0
0 0
0 0
0 0
0 0
0 0
0 0
0 0
0 0
0 0
0 0
0 0
0 0
0 0
0 0
0 0
0 0
0 0
0 0
0 0
0 0
0 0
0 0
0 0
0 0
0 0
0 0
0 0
0 0
0 0
0 0
0 0
0 0
0 0
0 0
0 0
0 0
0 0
0 0
0 0
0 0
0 0
0 0
0 0
0 0
0 0
0 0
0 0
0 0
0 0
0 0
0 0
0 0
0 0
0 0
0 0
0 0
0 0
0 0
0 0
0 0
0 0
0 0
0 0
0 0
0 0
0 0
0 0
0 0
0 0
0 0
0 0
0 0
0 0
0 0
0 0
0 0
0 0
0 0
0 0
0 0
0 0
0 0
0 0
0 0
0 0
0 0
0 0
0 0
0 0
0 0
0 0
0 0
0 0
0 0
0 0
0 0
0 0
0 0
0 0
0 0
0 0
0 0
0 0
0 0
0 0
0 0
0 0
0 0
0 0
0 0
0 0
0 0
0 0
0 0
0 0
0 0
0 0
0 0
0 0
0 0
0 0
0 0
0 0
0 0
0 0
0 0
0 0
0 0
0 0
0 0
0 0
0 0
0 0
0 0
0 0
0 0
0 0
0 0
0 0
0 0
0 0
0 0
0 0
0 0
0 0
0 0
0 0
0 0
0 0
0 0
0 0
0 0
0 0
0 0
0 0
0 0
0 0
0 0
0 0
0 0
0 0
0 0
0 0
0 0
0 0
0 0
0 0
0 0
0 0
0 0
0 0
0 0
0 0
0 0
0 0
0 0
0 0
0 0
0 0
0 0
0 0
0 0
0 0
0 0
0 0
0 0
0 0
0 0
0 0
0 0
0 0
0 0
0 0
0 0
0 0
0 0
0 0
0 0
0 0
0 0
0 0
0 0
0 0
0 0
0 0
0 0
0 0
0 0
0 0
0 0
0 0
0 0
0 0
0 0
0 0
0 0
0 0
0 0
0 0
0 0
0 0
0 0
0 0
0 0
0 0
0 0
0 0
0 0
0 0
0 0
0 0
0 0
0 0
0 0
0 0
0 0
0 0
0 0
0 0
0 0
0 0
0 0
0 0
0 0
0 0
0 0
0 0
0 0
0 0
0 0
0 0
0 0
0 0
0 0
0 0
0 0
0 0
0 0
0 0
0 0
0 0
0 0
0 0
0 0
0 0
0 0
0 0
0 0
0 0
0 0
0 0
0 0
0 0
0 0
0 0
0 0
0 0
0 0
0 0
0 0
0 0
0 0
0 0
0 0
0 0
0 0
0 0
0 0
0 0
0 0
0 0
0 0
0 0
0 0
0 0
0 0
0 0
0 0
0 0
0 0
0 0
0 0
0 0
0 0
0 0
0 0
0 0
0 0
0 0
0 0
0 0
0 0
0 0
0 0
0 0
0 0
0 0
0 0
0 0
0 0
0 0
0 0
0 0
0 0
0 0
0 0
0 0
0 0
0 0
0 0
0 0
0 0
0 0
0 0
0 0
0 0
0 0
0 0
0 0
0 0
0 0
0 0
0 0
0 0
0 0
0 0
0 0
0 0
0 0
0 0
0 0
0 0
0 0
0 0
0 0
0 0
0 0
0 0
0 0
0 0
0 0
0 0
0 0
0 0
0 0
0 0
0 0
0 0
0 0
0 0
0 0
0 0
0 0
0 0
0 0
0 0
0 0
0 0
0 0
0 0
0 0
0 0
0 0
0 0
0 0
0 0
0 0
0 0
0 0
0 0
0 0
0 0
0 0
0 0
0 0
0 0
0 0
0 0
0 0
0 0
0 0
0 0
0 0
0 0
0 0
0 0
0 0
0 0
0 0
0 0
0 0
0 0
0 0
0 0
0 0
0 0
0 0
0 0
0 0
0 0
0 0
0 0
0 0
0 0
0 0
0 0
0 0
0 0
0 0
0 0
0 0
0 0
0 0
0 0
0 0
0 0
0 0
0 0
0 0
0 0
0 0
0 0
0 0
0 0
0 0
0 0
0 0
0 0
0 0
0 0
0 0
0 0
0 0
0 0
0 0
0 0
0 0
0 0
0 0
0 0
0 0
0 0
0 0
0 0
0 0
0 0
0 0
0 0
0 0
0 0
0 0
0 0
0 0
0 0
0 0
0 0
0 0
0 0
0 0
0 0
0 0
0 0
0 0
0 0
0 0
0 0
0 0
0 0
0 0
0 0
0 0
0 0
0 0
0 0
0 0
0 0
0 0
0 0
0 0
0 0
0 0
0 0
0 0
0 0
0 0
0 0
0 0
0 0
0 0
0 0
0 0
0 0
0 0
0 0
0 0
0 0
0 0
0 0
0 0
0 0
0 0
0 0
0 0
0 0
0 0
0 0
0 0
0 0
0 0
0 0
0 0
0 0
0 0
0 0
0 0
0 0
0 0
0 0
0 0
0 0
0 0
0 0
0 0
0 0
0 0
0 0
0 0
0 0
0 0
0 0
0 0
0 0
0 0
0 0
0 0
0 0
0 0
0 0
0 0
0 0
0 0
0 0
0 0
0 0
0 0
0 0
0 0
0 0
0 0
0 0
0 0
0 0
0 0
0 0
0 0
0 0
0 0
0 0
0 0
0 0
0 0
0 0
0 0
0 0
0 0
0 0
0 0
0 0
0 0
0 0
0 0
0 0
0 0
0 0
0 0
0 0
0 0
0 0
0 0
0 0
0 0
0 0
0 0
0 0
0 0
0 0
0 0
0 0
0 0
0 0
0 0
0 0
0 0
0 0
0 0
0 0
0 0
0 0
0 0
0 0
0 0
0 0
0 0
0 0
0 0
0 0
0 0
0 0
0 0
0 0
0 0
0 0
0 0
0 0
0 0
0 0
0 0
0 0
0 0
0 0
0 0
0 0
0 0
0 0
0 0
0 0
0 0
0 0
0 0
0 0
0 0
0 0
0 0
0 0
0 0
0 0
0 0
0 0
0 0
0 0
0 0
0 0
0 0
0 0
0 0
0 0
0 0
0 0
0 0
0 0
0 0
0 0
0 0
0 0
0 0
0 0
0 0
0 0
0 0
0 0
0 0
0 0
0 0
0 0
0 0
0 0
0 0
0 0
0 0
0 0
0 0
0 0
0 0
0 0
0 0
0 0
0 0
0 0
0 0
0 0
0 0
0 0
0 0
0 0
0 0
0 0
0 0
0 0
0 0
0 0
0 0
0 0
0 0
0 0
0 0
0 0
0 0
0 0
0 0
0 0
0 0
0 0
0 0
0 0
0 0
0 0
0 0
0 0
0 0
0 0
0 0
0 0
0 0
0 0
0 0
0 0
0 0
0 0
0 0
0 0
0 0
0 0
0 0
0 0
0 0
0 0
0 0
0 0
0 0
0 0
0 0
0 0
0 0
0 0
0 0
0 0
0 0
0 0
0 0
0 0
0 0
0 0
0 0
0 0
0 0
0 0
0 0
0 0
0 0
0 0
0 0
0 0
0 0
0 0
0 0
0 0
0 0
0 0
0 0
0 0
0 0
0 0
0 0
0 0
0 0
0 0
0 0
0 0
0 0
0 0
0 0
0 0
0 0
0 0
0 0
0 0
0 0
0 0
0 0
0 0
0 0
0 0
0 0
0 0
0 0
0 0
0 0
0 0
0 0
0 0
0 0
0 0
0 0
0 0
0 0
0 0
0 0
0 0
0 0
0 0
0 0
0 0
0 0
0 0
0 0
0 0
0 0
0 0
0 0
0 0
0 0
0 0
0 0
0 0
0 0
0 0
0 0
0 0
0 0
0 0
0 0
0 0
0 0
0 0
0 0
0 0
0 0
0 0
0 0
0 0
0 0
0 0
0 0
0 0
0 0
0 0
0 0
0 0
0 0
0 0
0 0
0 0
0 0
0 0
0 0
0 0
0 0
0 0
0 0
0 0
0 0
0 0
0 0
0 0
0 0
0 0
0 0
0 0
0 0
0 0
0 0
0 0
0 0
0 0
0 0
0 0
0 0
0 0
0 0
0 0
0 0
0 0
0 0
0 0
0 0
0 0
0 0
0 0
0 0
0 0
0 0
0 0
0 0
0 0
0 0
0 0
0 0
0 0
0 0
0 0
0 0
0 0
0 0
0 0
0 0
0 0
0 0
0 0
0 0
0 0
0 0
0 0
0 0
0 0
0 0
0 0
0 0
0 0
0 0
0 0
0 0
0 0
0 0
0 0
0 0
0 0
0 0
0 0
0 0
0 0
0 0
0 0
0 0
0 0
0 0
0 0
0 0
0 0
0 0
0 0
0 0
0 0
0 0
0 0
0 0
0 0
0 0
0 0
0 0
0 0
0 0
0 0
0 0
0 0
0 0
0 0
0 0
0 0
0 0
0 0
0 0
0 0
0 0
0 0
0 0
0 0
0 0
0 0
0 0
0 0
0 0
0 0
0 0
0 0
0 0
0 0
0 0
0 0
0 0
0 0
0 0
0 0
0 0
0 0
0 0
0 0
0 0
0 0
0 0
0 0
0 0
0 0
0 0
0 0
0 0
0 0
0 0
0 0
0 0
0 0
0 0
0 0
0 0
0 0
0 0
0 0
0 0
0 0
0 0
0 0
0 0
0 0
0 0
0 0
0 0
0 0
0 0
0 0
0 0
0 0
0 0
0 0
0 0
0 0
0 0
0 0
0 0
0 0
0 0
0 0
0 0
0 0
0 0
0 0
0 0
0 0
0 0
0 0
0 0
0 0
0 0
0 0
0 0
0 0
0 0
0 0
0 0
0 0
0 0
0 0
0 0
0 0
0 0
0 0
0 0
0 0
0 0
0 0
0 0
0 0
0 0
0 0
0 0
0 0
0 0
0 0
0 0
0 0
0 0
0 0
0 0
0 0
0 0
0 0
0 0
0 0
0 0
0 0
0 0
0 0
0 0
0 0
0 0
0 0
0 0
0 0
0 0
0 0
0 0
0 0
0 0
0 0
0 0
0 0
0 0
0 0
0 0
0 0
0 0
0 0
0 0
0 0
0 0
0 0
0 0
0 0
0 0
0 0
0 0
0 0
0 0
0 0
0 0
0 0
0 0
0 0
0 0
0 0
0 0
0 0
0 0
0 0
0 0
0 0
0 0
0 0
0 0
0 0
0 0
0 0
0 0
0 0
0 0
0 0
0 0
0 0
0 0
0 0
0 0
0 0
0 0
0 0
0 0
0 0
0 0
0 0
0 0
0 0
0 0
0 0
0 0
0 0
0 0
0 0
0 0
0 0
0 0
0 0
0 0
0 0
0 0
0 0
0 0
0 0
0 0
0 0
0 0
0 0
0 0
0 0
0 0
0 0
0 0
0 0
0 0
0 0
0 0
0 0
0 0
0 0
0 0
0 0
0 0
0 0
0 0
0 0
0 0
0 0
0 0
0 0
0 0
0 0
0 0
0 0
0 0
0 0
0 0
0 0
0 0
0 0
0 0
0 0
0 0
0 0
0 0
0 0
0 0
0 0
0 0
0 0
0 0
0 0
0 0
0 0
0 0
0 0
0 0
0 0
0 0
0 0
0 0
0 0
0 0
0 0
0 0
0 0
0 0
0 0
0 0
0 0
0 0
0 0
0 0
0 0
0 0
0 0
0 0
0 0
0 0
0 0
0 0
0 0
0 0
0 0
0 0
0 0
0 0
0 0
0 0
0 0
0 0
0 0
0 0
0 0
0 0
0 0
0 0
0 0
0 0
0 0
0 0
0 0
0 0
0 0
0 0
0 0
0 0
0 0
0 0
0 0
0 0
0 0
0 0
0 0
0 0
0 0
0 0
0 0
0 0
0 0
0 0
0 0
0 0
0 0
0 0
0 0
0 0
0 0
0 0
0 0
0 0
0 0
0 0
0 0
0 0
0 0
0 0
0 0
0 0
0 0
0 0
0 0
0 0
0 0
0 0
0 0
0 0
0 0
0 0
0 0
0 0
0 0
0 0
0 0
0 0
0 0
0 0
0 0
0 0
0 0
0 0
0 0
0 0
0 0
0 0
0 0
0 0
0 0
0 0
0 0
0 0
0 0
0 0
0 0
0 0
0 0
0 0
0 0
0 0
0 0
0 0
0 0
0 0
0 0
0 0
0 0
0 0
0 0
0 0
0 0
0 0
0 0
0 0
0 0
0 0
0 0
0 0
0 0
0 0
0 0
0 0
0 0
0 0
0 0
0 0
0 0
0 0
0 0
0 0
0 0
0 0
0 0
0 0
0 0
0 0
0 0
0 0
0 0
0 0
0 0
0 0
0 0
0 0
0 0
0 0
0 0
0 0
0 0
0 0
0 0
0 0
0 0
0 0
0 0
0 0
0 0
0 0
0 0
0 0
0 0
0 0
0 0
0 0
0 0
0 0
0 0
0 0
0 0
0 0
0 0
0 0
0 0
0 0
0 0
0 0
0 0
0 0
0 0
0 0
0 0
0 0
0 0
0 0
0 0
0 0
0 0
0 0
0 0
0 0
0 0
0 0
0 0
0 0
0 0
0 0
0 0
0 0
0 0
0 0
0 0
0 0
0 0
0 0
0 0
0 0
0 0
0 0
0 0
0 0
0 0
0 0
0 0
0 0
0 0
0 0
0 0
0 0
0 0
0 0
0 0
0 0
0 0
0 0
0 0
0 0
0 0
0 0
0 0
0 0
0 0
0 0
0 0
0 0
0 0
0 0
0 0
0 0
0 0
0 0
0 0
0 0
0 0
0 0
0 0
0 0
0 0
0 0
0 0
0 0
0 0
0 0
0 0
0 0
0 0
0 0
0 0
0 0
0 0
0 0
0 0
0 0
0 0
0 0
0 0
0 0
0 0
0 0
0 0
0 0
0 0
0 0
0 0
0 0
0 0
0 0
0 0
0 0
0 0
0 0
0 0
0 0
0 0
0 0
0 0
0 0
0 0
0 0
0 0
0 0
0 0
0 0
0 0
0 0
0 0
0 0
0 0
0 0
0 0
0 0
0 0
0 0
0 0
0 0
0 0
0 0
0 0
0 0
0 0
0 0
0 0
0 0
0 0
0 0
0 0
0 0
0 0
0 0
0 0
0 0
0 0
0 0
0 0
0 0
0 0
0 0
0 0
0 0
0 0
0 0
0 0
0 0
0 0
0 0
0 0
0 0
0 0
0 0
0 0
0 0
0 0
0 0
0 0
0 0
0 0
0 0
0 0
0 0
0 0
0 0
0 0
0 0
0 0
0 0
0 0
0 0
0 0
0 0
0 0
0 0
0 0
0 0
0 0
0 0
0 0
0 0
0 0
0 0
0 0
0 0
0 0
0 0
0 0
0 0
0 0
0 0
0 0
0 0
0 0
0 0
0 0
0 0
0 0
0 0
0 0
0 0
0 0
0 0
0 0
0 0
0 0
0 0
0 0
0 0
0 0
0 0
0 0
0 0
0 0
0 0
0 0
0 0
0 0
0 0
0 0
0 0
0 0
0 0
0 0
0 0
0 0
0 0
0 0
0 0
0 0
0 0
0 0
0 0
0 0
0 0
0 0
0 0
0 0
0 0
0 0
0 0
0 0
0 0
0 0
0 0
0 0
0 0
0 0
0 0
0 0
0 0
0 0
0 0
0 0
0 0
0 0
0 0
0 0
0 0
0 0
0 0
0 0
0 0
0 0
0 0
0 0
0 0
0 0
0 0
0 0
0 0
0 0
0 0
0 0
0 0
0 0
0 0
0 0
0 0
0 0
0 0
0 0
0 0
0 0
0 0
0 0
0 0
0 0
0 0
0 0
0 0
0 0
0 0
0 0
0 0
0 0
0 0
0 0
0 0
0 0
0 0
0 0
0 0
0 0
0 0
0 0
0 0
0 0
0 0
0 0
0 0
0 0
0 0
0 0
0 0
0 0
0 0
0 0
0 0
0 0
0 0
0 0
0 0
0 0
0 0
0 0
0 0
0 0
0 0
0 0
0 0
0 0
0 0
0 0
0 0
0 0
0 0
0 0
0 0
0 0
0 0
0 0
0 0
0 0
0 0
0 0
0 0
0 0
0 0
0 0
0 0
0 0
0 0
0 0
0 0
0 0
0 0
0 0
0 0
0 0
0 0
0 0
0 0
0 0
0 0
0 0
0 0
0 0
0 0
0 0
0 0
0 0
0 0
0 0
0 0
0 0
0 0
0 0
0 0
0 0
0 0
0 0
0 0
0 0
0 0
0 0
0 0
0 0
0 0
0 0
0 0
0 0
0 0
0 0
0 0
0 0
0 0
0 0
0 0
0 0
0 0
0 0
0 0
0 0
0 0
0 0
0 0
0 0
0 0
0 0
0 0
0 0
0 0
0 0
0 0
0 0
0 0
0 0
0 0
0 0
0 0
0 0
0 0
0 0
0 0
0 0
0 0
0 0
0 0
0 0
0 0
0 0
0 0
0 0
0 0
0 0
0 0
0 0
0 0
0 0
0 0
0 0
0 0
0 0
0 0
0 0
0 0
0 0
0 0
0 0
0 0
0 0
0 0
0 0
0 0
0 0
0 0
0 0
0 0
0 0
0 0
0 0
0 0
0 0
0 0
0 0
0 0
0 0
0 0
0 0
0 0
0 0
0 0
0 0
0 0
0 0
0 0
0 0
0 0
0 0
0 0
0 0
0 0
0 0
0 0
0 0
0 0
0 0
0 0
0 0
0 0
0 0
0 0
0 0
0 0
0 0
0 0
0 0
0 0
0 0
0 0
0 0
0 0
0 0
0 0
0 0
0 0
0 0
0 0
0 0
0 0
0 0
0 0
0 0
0 0
0 0
0 0
0 0
0 0
0 0
0 0
0 0
0 0
0 0
0 0
0 0
0 0
0 0
0 0
0 0
0 0
0 0
0 0
0 0
0 0
0 0
0 0
0 0
0 0
0 0
0 0
0 0
0 0
0 0
0 0
0 0
0 0
0 0
0 0
0 0
0 0
0 0
0 0
0 0
0 0
0 0
0 0
0 0
0 0
0 0
0 0
0 0
0 0
0 0
0 0
0 0
0 0
0 0
0 0
0 0
0 0
0 0
0 0
0 0
0 0
0 0
0 0
0 0
0 0
0 0
0 0
0 0
0 0
0 0
0 0
0 0
0 0
0 0
0 0
0 0
0 0
0 0
0 0
0 0
0 0
0 0
0 0
0 0
0 0
0 0
0 0
0 0
0 0
0 0
0 0
0 0
0 0
0 0
0 0
0 0
0 0
0 0
0 0
0 0
0 0
0 0
0 0
0 0
0 0
0 0
0 0
0 0
0 0
0 0
0 0
0 0
0 0
0 0
0 0
0 0
0 0
0 0
0 0
0 0
0 0
0 0
0 0
0 0
0 0
0 0
0 0
0 0
0 0
0 0
0 0
0 0
0 0
0 0
0 0
0 0
0 0
0 0
0 0
0 0
0 0
0 0
0 0
0 0
0 0
0 0
0 0
0 0
0 0
0 0
0 0
0 0
0 0
0 0
0 0
0 0
0 0
0 0
0 0
0 0
0 0
0 0
0 0
0 0
0 0
0 0
0 0
0 0
0 0
0 0
0 0
0 0
0 0
0 0
0 0
0 0
0 0
0 0
0 0
0 0
0 0
0 0
0 0
0 0
0 0
0 0
0 0
0 0
0 0
0 0
0 0
0 0
0 0
0 0
0 0
0 0
0 0
0 0
0 0
0 0
0 0
0 0
0 0
0 0
0 0
0 0
0 0
0 0
0 0
0 0
0 0
0 0
0 0
0 0
0 0
0 0
0 0
0 0
0 0
0 0
0 0
0 0
0 0
0 0
0 0
0 0
0 0
0 0
0 0
0 0
0 0
0 0
0 0
0 0
0 0
0 0
0 0
0 0
0 0
0 0
0 0
0 0
0 0
0 0
0 0
0 0
0 0
      </DataArray> 
      <DataArray type="Float64" NumberOfComponents="2" Name="CauchyNormalStress" format="ascii">
19.7678 12.3122
18.0337 10.0494
18.9669 1.98805
9.66794 -0.488738
6.51563 0.0813479
4.01032 -0.0255356
2.61482 -0.210973
1.68886 -0.212278
0.610106 -0.0946455
-0.164921 -0.0081409
-0.771195 -0.100373
-1.13856 -0.13928
-1.66249 -0.0732652
-2.00145 -0.00319538
-2.22581 -0.0808405
-2.27825 -0.100223
-2.44475 -0.0372804
-2.45368 0.00879821
-2.35285 -0.074811
-2.07506 -0.10062
-1.91149 -0.0366149
-1.58832 0.00640381
-1.12456 -0.0937257
-0.42529 -0.135801
0.12823 -0.0466295
0.912032 0.0317056
1.96757 -0.100643
3.7222 -0.446718
5.39399 -0.637619
8.03899 -0.305079
17.0812 0.867668
-1.73644 2.44023
-2.28858 2.82612
-2.05928 4.98998
6.11243 16.3002
-1.52323 -0.0566921
-0.421236 0.289556
-0.0927273 -0.0254739
-0.22655 -0.29066
-0.217298 -0.400505
-0.0551878 -0.859339
-0.0361768 -1.01041
-0.0265913 -1.17005
-0.0834409 -1.22752
-0.128898 -1.38455
-0.146356 -1.1629
-0.156036 -1.29915
-0.201039 -1.26723
-0.274698 -1.29534
-0.347578 -1.17774
-0.409957 -1.16996
-0.467224 -0.966283
-0.57084 -1.03007
-0.0134852 -1.31495
-1.20333 -0.0889619
-1.43798 -0.112665
-1.08303 -0.266737
-1.17601 -0.34418
-0.823208 -0.597679
-163.253 -411.901
-0.917472 -3.86231
-0.282765 -1.37872
-1.95757 -4.82083
-15.7888 -80.1104
-5.50232 -70.7878
0.0604894 -40.226
-3.1438 -42.4027
-3.63828 -41.6372
-6.62503 -48.4043
36.007 2.19851
-26.6627 -80.3469
-35.4401 -96.1785
-49.0676 -144.257
-15.9578 -79.527
37.7496 0.983787
52.3938 20.9682
-39.8658 -14.9991
-148.326 -395.173
-5.8795 -71.0713
0.0480006 -40.6669
-3.25141 -42.6408
-3.63965 -41.7589
-6.59673 -48.3741
0.0348981 -1.69645
-0.896853 -3.80526
-0.435284 -1.37555
-2.59694 -4.27845
-1.65112 0.222355
-0.443481 -3.0123
-0.0759369 -1.66479
-0.419691 -2.10654
-0.458237 -1.20834
-0.559448 -1.06969
-1.27509 2.52464
-1.19364 -0.0258525
-1.39483 -0.186048
-1.02383 -0.216089
-1.15602 -0.4047
-0.893238 -0.394661
-0.886067 -0.584767
-0.713107 -0.664663
-0.68517 -0.796618
-0.587381 -0.956378
-0.485114 -0.964493
-0.424357 -1.17627
-0.291693 -1.09828
-0.225557 -1.32051
-0.128394 -1.28707
-0.158531 -1.33918
-0.134532 -1.16845
-0.0859269 -1.23155
-1.70847 3.77201
-0.618351 6.57394
6.66578 15.2555
-41.442 -24.6255
-25.3108 -64.4693
-40.1726 -26.6675
-22.1158 -87.2479
-28.2429 -70.5542
-4.90933 -51.9981
-40.9588 -19.3969
10.8732 -57.5128
3.44291 -8.33139
2.29269 -8.72781
-7.34935 -89.4337
-7.7594 -92.005
5.25152 -21.3237
2.11308 -9.91304
1.05 -43.4952
1.20345 -37.9884
-0.529801 -43.7318
2.28853 -33.1764
1.44049 -38.6064
-3.82976 -36.7277
-0.3888 -36.9221
-1.00566 -39.982
-5.20534 -39.4689
3.2689 -30.6036
4.16678 -29.2268
3.58596 -39.8763
-21.0236 -12.9354
-21.8967 -12.9444
-23.289 -14.2543
2.05304 -46.3111
2.82804 -35.2343
-12.0409 -40.7689
-11.4956 -38.3004
-0.600031 -51.5936
-3.33721 -49.7338
-9.33977 -43.7392
-10.5111 -46.9374
-0.799812 -47.8379
-16.0847 -10.5672
-19.1829 -11.2552
-17.798 -11.3581
1.8536 -29.4715
2.48965 -31.0764
-18.0204 -18.2743
-11.8548 -27.7059
-2.51312 -31.885
1.00743 -27.7337
0.738626 -29.6832
-2.64546 -34.4759
-12.6489 -29.7115
-19.1928 -19.011
3.77313 -25.5824
5.14058 -35.5806
-30.0065 -22.0128
-29.1648 -17.5241
-24.4642 -14.0794
-25.6688 -19.2472
6.44693 -36.8056
6.93572 -44.3159
5.61669 -42.8497
4.51485 -35.3066
4.46995 -27.5601
3.94625 -24.4433
-31.4571 -25.2469
-18.0328 -37.0428
-17.4058 -34.5045
-31.2102 -35.4441
5.09867 -54.7943
0.463819 -69.4127
-11.4179 -51.7469
-2.19024 -54.7692
6.13148 -50.4316
-14.4624 -10.2869
-16.5488 -10.5175
-16.531 -10.1082
-16.9757 -10.4351
-13.8512 -8.79363
-13.3952 -8.64457
-12.8192 -8.25395
-14.6772 -9.77955
2.43872 -25.0596
3.321 -22.7221
3.50469 -22.1738
2.50519 -25.7796
-13.6548 -10.3361
-14.3208 -11.7854
-14.6259 -17.7902
-11.2582 -21.2921
-5.35007 -25.132
-1.69645 -27.2078
-2.46017 -28.6184
-6.24769 -26.6587
-12.2096 -22.7943
-15.1019 -18.4299
-15.1676 -11.3038
-14.1505 -9.9557
3.61435 -21.5016
5.65956 -28.0998
-39.8306 -31.7801
-32.9633 -18.353
-35.8285 -22.3467
8.26093 -37.0345
8.26728 -41.6568
5.23201 -27.7462
3.487 -19.4922
-31.8046 -40.1285
-31.9467 -51.8853
8.79695 -59.4404
-15.1084 -61.6816
-32.5411 -64.0573
-12.1827 -53.6216
2.98181 -61.2776
-10.0577 -7.15893
-11.5191 -8.02063
-11.7172 -7.95096
-10.2297 -7.06832
-9.52019 -6.88294
-9.52822 -6.72073
2.86074 -20.6991
2.41364 -20.3691
-9.95732 -8.75731
-7.4211 -14.7137
-0.586175 -21.0101
-1.73532 -21.9175
-8.11992 -15.0571
-9.93271 -8.09674
2.42575 -13.4131
2.99449 -15.5676
3.54651 -18.6334
4.18978 -19.0688
5.82575 -20.9606
7.576 -27.4327
-34.3572 -50.5316
-42.1441 -19.6305
-38.2689 -34.7283
9.14894 -34.752
9.33795 -36.8392
7.69141 -30.3632
5.9369 -24.6923
4.60911 -21.0352
3.09003 -16.2102
2.23332 -11.9086
-37.9884 -55.3067
-38.2918 -73.1036
10.3848 -44.0425
9.4719 -80.0478
-36.4961 -84.985
10.7605 -59.6132
10.0972 -41.4046
-20.9438 -69.3984
6.0057 -72.9148
-5.12074 -4.99983
-5.60121 -4.72134
-7.10174 -5.83189
-6.04881 -5.78407
-8.2993 -5.95617
-7.67686 -6.0188
-7.89638 -5.49524
-7.89233 -5.62335
-6.34312 -4.88821
-6.77265 -4.87106
-5.91581 -5.32962
-6.81149 -5.26105
-4.76137 -4.44587
-5.3781 -4.90452
2.63821 -18.4398
2.83512 -17.8995
2.92118 -15.5991
2.11821 -11.5748
2.94777 -15.0691
2.70001 -18.4673
1.38467 -19.7543
-6.67205 -6.10618
-5.19702 -8.18828
-2.07394 -12.8785
0.660611 -15.7355
-1.24797 -17.2012
-3.14623 -13.381
-6.04149 -7.94871
-6.13353 -5.25311
0.927945 -6.05241
1.94346 -10.6775
2.60612 -12.0296
3.84859 -14.6057
5.30119 -17.6031
1.12497 -114.388
-32.4328 -17.1964
-19.4279 -2.27279
-33.2801 -13.2144
-4.21779 -104.596
7.9477 -27.3419
7.65197 -26.1433
5.35229 -19.1374
3.26233 -15.2968
1.11353 -7.08595
2.19277 -147.425
-11.7671 -113.067
1.51128 -142.477
-5.15818 -121.074
8.13132 -46.1926
-20.9394 -118.145
-69.3108 -138.037
7.91194 -38.1225
-66.3816 -121.256
-5.47221 -93.6073
-0.45453 -2.77285
-2.34334 -3.78976
-4.35602 -3.78853
-5.00492 -3.53136
-4.57887 -3.32764
-3.0882 -3.40201
-0.57988 -3.06603
4.14632 -12.6078
1.56181 -8.01006
2.15831 -8.92554
2.9928 -13.815
-0.209269 -3.37483
4.47991 -9.92823
6.3843 -8.51334
4.97762 -10.6507
1.87949 -11.0289
-0.363391 -3.18422
0.957153 -3.59264
0.924473 -4.77153
0.229854 -2.60608
0.62041 -4.50525
0.586679 -4.52286
1.13766 -6.98122
0.985111 -5.95141
1.47419 -7.47961
1.55782 -7.4211
1.77752 -7.77586
1.50288 -6.84911
-29.1891 -47.9194
-15.1595 -4.84884
-13.6778 -4.34662
-30.072 -33.5268
3.07349 -10.6767
3.80737 -12.7959
4.05407 -14.2862
2.78784 -12.0574
3.45865 -19.6413
3.24504 -17.722
2.93942 -12.6014
3.68832 -13.242
3.75158 -12.6666
2.93065 -10.3957
2.93409 -10.5798
2.22384 -8.96562
1.33371 -6.65039
1.58999 -7.87252
0.445073 -4.2096
0.609586 -4.24443
0.553001 -4.31116
0.397382 -3.53142
1.66224 -79.6128
1.88225 -105.981
-1.68821 -141.723
1.3708 -77.3985
1.28338 -135.603
0.7598 -101.917
1.11805 -23.5981
-4.28641 -21.255
-2.83505 -165.751
2.07622 -23.1612
4.33935 -111.553
-1.29446 -29.8843
3.36757 -1.51655
7.48245 2.46435
4.08579 -2.19061
0.690876 -1.92111
1.81195 -1.89316
-0.74811 -2.02741
-2.19707 -1.95755
-1.5858 -1.91351
-2.90023 -1.90293
-3.49142 -1.86893
-3.25538 -1.82009
-3.47442 -1.70271
-3.38788 -1.71475
-3.49878 -1.65364
-2.93888 -1.68303
-2.06498 -1.73725
-2.59465 -1.64919
-1.03603 -1.77664
1.19889 -1.94371
-0.192626 -1.72385
3.01347 -1.21952
8.23878 1.71903
3.86701 -1.36095
0.234093 -2.02168
0.237195 -2.40861
0.505904 -3.26022
0.433279 -3.08288
2.32988 -7.81125
4.76986 -2.28766
2.83334 -7.70579
4.44711 -9.21176
3.78609 -3.33431
8.03845 0.433454
5.12509 -4.92606
3.7975 -5.982
7.21585 0.526612
0.341175 -1.3887
0.295353 -1.22196
0.406229 0.819606
0.679261 -0.560629
0.535801 -0.67972
0.247948 0.440322
3.21859 2.21548
15.2524 6.71945
3.88494 2.35089
3.58307 0.488035
3.94539 0.129381
12.0802 2.59801
7.38119 -5.42489
9.18853 -1.69772
1.31039 -2.31508
1.59844 -2.47969
-0.407398 -6.26505
0.781213 -6.44273
3.44842 -12.6624
2.96803 -12.2592
0.966347 -6.05134
0.502175 -3.9278
-0.197971 -1.90291
-1.72611 -3.46137
-3.86479 -3.31309
-4.77211 -3.32664
-4.78751 -3.67183
-3.39448 -3.8317
-0.762676 -3.67521
-2.14075 -1.92705
7.81439 -53.6335
5.46627 -69.0164
9.89671 -117.179
10.7191 -120.803
1.26913 -7.42852
3.71399 -14.9297
6.64791 -21.9209
6.65912 -25.5635
8.23165 -32.646
6.76736 -22.2818
-31.2066 -36.2414
-27.7708 -49.0571
3.86312 -13.5402
3.28426 -13.8152
2.59881 -12.9428
1.39899 -8.06429
2.49534 -15.1415
4.78766 -13.3909
-38.2953 -85.393
-41.1221 -101.885
-37.009 -11.3905
-11.139 -10.0832
-5.40895 -19.677
-4.26809 -18.6416
-10.8874 -10.7586
1.26248 -24.0896
3.02197 -16.9892
3.25246 -18.5285
1.98581 -23.2387
-8.96733 -6.57815
-10.0561 -7.10392
-9.00155 -6.47007
-11.2203 -7.61353
-12.0731 -8.19023
-10.952 -7.77008
-9.28988 -6.91047
-6.44277 -58.9664
9.36261 -53.7395
6.3159 -76.3019
9.04213 -46.5641
-38.6663 -47.5758
-40.3763 -33.5053
4.10058 -21.8363
6.68553 -34.0929
-27.2672 -15.7655
-38.2993 -24.502
6.95031 -28.978
4.31212 -24.2991
-17.6317 -48.0727
-17.2235 -45.0575
-19.2847 -12.7903
-18.9521 -25.9829
-6.64985 -33.5235
-5.9324 -31.4493
-18.1272 -24.0783
-17.9352 -13.2452
3.76543 -27.2913
3.1103 -26.9005
-16.5489 -10.0551
-21.7949 -12.5356
1.87504 -50.5492
-5.12519 -58.0237
2.30693 -42.0863
3.49996 -45.4341
0.992521 -35.094
0.645351 -32.1606
-3.39029 -45.2176
-1.51015 -41.7684
3.84248 -34.2616
4.75714 -172.002
-3.0969 -2.00444
-19.0059 -39.9412
-7.67355 -36.6481
-5.49904 -4.65653
7.01668 -75.6077
-2.28196 -2.90378
-29.6276 -232.867
-20.4341 -71.4041
-3.41528 -3.9353
-10.6644 -41.0721
2.92679 -107.667
-0.216788 -119.709
-17.2211 -119.044
-15.4743 -96.9491
-9.4994 -188.617
-9.57883 -51.3007
-15.6995 -56.364
-10.7364 -83.0065
4.91972 -109.023
4.28535 -120.183
0.980589 -88.0116
-5.77524 -76.349
-4.34956 -65.3907
-21.2298 -61.677
-27.6861 -76.467
-1.35776 -59.7049
4.02263 -98.8401
-0.206376 -125.382
-14.155 -100.308
-17.2987 -125.841
-10.3377 -85.2475
-9.61711 -51.3531
-15.6722 -56.5222
-16.1361 -209.065
3.54647 -123.681
5.68407 -113.207
1.59127 -90.9712
-4.24614 -66.6403
-5.41291 -78.3043
-1.23055 -60.8836
-21.2948 -62.121
-27.6771 -77.8225
4.59084 -102.136
-19.0173 -12.7808
2.71722 -7.20466
11.9286 3.92973
9.14617 -0.864997
-103.805 -198.848
-49.8033 -146.342
-76.515 -111.932
-29.9508 -37.4551
-21.6523 -17.2024
-20.5472 -15.6688
9.61951 2.43274
1.07794 -7.31791
-76.2807 -125.837
-102.335 -201.929
-40.8518 -16.7738
8.86383 -1.33238
-21.2137 -22.1743
-28.5004 -50.7233
-33.4442 -105.119
-29.6799 -149.07
2.11091 -113.26
-108.076 -169.862
9.17006 -82.3876
-36.2517 -82.275
-48.31 -100.407
-61.7254 -127.338
-12.9737 -147.798
-74.9539 -168.547
5.3903 -109.016
-108.721 -177.597
-54.9265 -117.849
-48.8821 -104.607
-31.177 -134.151
-28.9549 -165.771
-4.67155 -130.743
2.32616 -122.009
-22.6979 -112.407
-34.6378 -117.565
-9.27059 -128.652
-42.0986 -149.622
0.228348 -120.135
-25.886 -98.3619
4.38494 -126.772
-17.5027 -81.9322
-8.39623 -96.4236
-20.8702 -72.6648
-31.8601 -200.41
7.90776 -129.959
2.49972 -114.556
-26.8348 -7.08253
-15.1403 -3.34969
-24.5171 -11.4359
7.16947 -1.68878
-31.6324 -23.2546
-34.5685 -11.8909
-29.1046 -7.97306
-26.4262 -9.12442
-25.2048 -14.4372
-15.9224 -3.83561
-30.043 -30.3731
-34.1493 -13.7277
5.51813 -130.449
-6.27725 -104.394
-12.1267 -94.5963
-30.1585 -195.323
-15.5107 -85.3284
4.50381 -116.94
7.05889 -126.625
-33.4371 -72.676
-19.986 -84.759
-6.20864 -74.5586
-13.5782 -64.2748
-41.1424 -93.1872
-21.6454 -96.4143
-0.355247 -97.1068
-4.56274 -84.3608
-36.4054 -74.6043
-27.0343 -66.6304
-18.8089 -58.5108
-25.0836 -56.0045
-31.4025 -52.1168
-35.3072 -47.9934
-36.3662 -60.1813
-36.2398 -36.6042
-38.7896 -44.762
-37.0913 -69.5466
-25.1317 -44.1947
-35.698 -49.9496
-35.3378 -41.8059
-31.0813 -43.5943
-24.5265 -40.1246
-24.8934 -30.2664
-24.6327 -48.6612
-35.9866 -29.9607
-31.3377 -32.54
-25.5575 -33.5032
-25.4243 -25.2259
-38.0999 -27.7393
-33.5389 -23.603
-29.3575 -20.4006
-31.6081 -19.3379
-33.6463 -21.2319
-35.5065 -21.0436
-30.9962 -17.8045
-27.4523 -15.6252
-30.0585 -16.9525
-25.5736 -14.8978
-30.3399 -28.4192
-35.6483 -33.4227
-35.1758 -27.5536
-38.978 -39.3881
-38.9808 -27.7825
-34.0507 -23.0478
-24.2139 -22.5839
-29.3525 -19.5508
-25.1966 -15.3258
-19.4176 -12.9518
-21.2299 -12.7285
-25.5802 -17.3329
-24.2209 -18.1775
-23.7229 -95.9017
-5.95923 -119.977
-22.6083 -122.395
3.20538 -109.528
-35.4394 -95.8182
-26.5721 -80.0883
-12.611 -82.9339
0.668295 -61.0977
-2.53728 -87.9217
-3.98949 -64.0535
-33.3024 -86.9091
-44.8399 -68.1368
-3.75676 -62.6966
-2.52485 -85.5374
0.535809 -59.925
2.857 -106.013
-33.7806 -84.0497
-43.6517 -69.9211
-12.177 -82.0928
-22.6603 -120.109
-5.77784 -116.483
-23.3382 -94.5608
51.2576 25.0165
37.831 1.75854
-39.3405 -26.6749
-37.4856 -17.3893
-35.5615 -23.1043
-38.9675 -14.691
-34.2242 -35.8758
-39.5163 -34.3358
-40.778 -26.4075
-33.7639 -53.2806
-33.0805 -61.6117
-38.1222 -45.7731
-33.0889 -78.4906
-29.3559 -55.3757
-6.96452 -107.38
-21.4382 -91.0533
-15.7865 -85.2516
-9.83151 -98.9395
-15.9409 -103.973
-1.55418 -115.294
-30.184 -94.2475
-23.8723 -70.7832
-35.7876 -63.0111
-29.9932 -78.9566
-28.8874 -70.3403
-39.5439 -86.6276
-30.4564 -50.679
-36.5412 -49.0736
-37.4528 -60.9712
-40.2042 -30.0514
-40.922 -22.4828
-41.0053 -25.1538
-38.794 -18.3849
-40.0968 -16.6685
-40.7302 -22.9841
-39.2292 -36.793
-33.1691 -32.3623
-36.7672 -23.5298
-37.3023 -37.5267
-32.6948 -68.8069
-29.639 -74.7619
-38.9759 -79.3185
-14.4555 -76.7248
-35.0816 -62.297
-28.9575 -58.0949
-20.7512 -54.5279
-37.5679 -21.9208
-38.7532 -23.6369
-34.3096 -20.4477
-40.5786 -28.9534
-39.9047 -24.2273
-41.2852 -19.0522
-41.3004 -22.5237
-41.6023 -21.4227
-9.73878 -21.6973
-6.17488 -28.8903
-5.61428 -14.5495
-2.82351 -60.0317
-0.638402 -44.8492
-3.59955 -12.3163
-5.19164 -3.35384
-8.11786 -2.28097
-13.3957 -22.8054
-10.2874 -99.3933
-5.42663 -76.545
-13.6198 -52.8479
5.1356 -84.0946
-20.2553 -36.642
-10.5387 -113.575
2.88512 -128.225
-54.799 -310.704
-61.3286 -69.6122
-36.2783 -134.189
-6.47166 -153.225
-32.9018 -143.494
-86.228 -267.634
-61.3265 -65.4396
-67.2196 -326.467
-35.9839 -146.579
-33.821 -157.138
-9.19732 -162.271
-82.9908 -289.136
-65.7505 -157.069
-49.006 -187.205
-18.4681 -171.337
-149.695 -264.665
-63.455 -258.135
2.32915 -130.078
-9.4565 -139.676
-52.5947 -132.038
-79.8687 -143.591
4.76296 -96.867
7.37434 -81.0583
6.56014 -94.875
7.79069 -62.4794
8.25096 -69.2468
2.81992 -88.9484
-3.31477 -104.192
1.71011 -117.374
6.08714 -88.7347
-35.2367 -92.7314
-43.251 -91.3864
-43.3515 -102.345
-38.4085 -84.3399
-42.8605 -92.9976
-54.2895 -111.173
-52.3245 -113.388
-17.9659 -99.9988
-25.6095 -94.7762
-1.50209 -124.895
2.54706 -111.667
-2.79588 -130.125
5.49857 -90.7144
-10.3599 -162.73
-18.6416 -133.068
-5.96734 -114.632
-55.9109 -203.609
-86.4292 -210.376
-102.726 -171.072
-117.782 -318.735
-152.338 -277.883
-78.2451 -157.257
-80.4561 -149.911
-35.1752 -176.68
-14.3124 -198.683
-62.5846 -122.514
-55.7459 -111.387
-51.873 -114.909
-45.2065 -108.794
-48.0502 -103.636
-35.8704 -110.928
-41.1346 -123.591
-72.1251 -133.521
-58.3405 -127.566
-58.1084 -174.035
-51.1753 -188.687
-24.5394 -183.295
-12.2823 -153.038
-49.7173 -152.224
-49.3046 -136.626
-43.3747 -126.257
-38.2922 -117.732
-15.2005 -124.88
-34.6898 -178.01
-65.9831 -188.8
-73.4187 -155.418
-57.8244 -135.139
-20.7503 -151.984
-51.3239 -120.796
-42.771 -109.12
-22.4696 -113.913
-37.1399 -101.106
-13.2463 -88.6873
-6.27416 -83.9872
-13.3627 -79.6005
-13.6609 -72.0595
-6.4918 -66.8006
-20.4802 -77.2082
0.887637 -104.202
4.85996 -89.6417
8.07262 -92.3207
3.52046 -85.5748
7.2566 -78.7653
7.3344 -76.0397
-9.1512 -106.825
-12.4643 -90.5224
-3.19211 -90.9728
-10.3595 -97.0872
1.1729 -80.8261
-21.5035 -106.791
-30.5934 -90.4519
-17.1581 -85.9881
-1.51734 -76.4059
-10.0271 -80.4415
-20.7589 -70.8298
-25.3586 -81.4008
2.76562 -73.1148
-6.84331 -73.5418
-9.15998 -66.9535
-2.94854 -63.7842
0.315565 -73.8361
3.90513 -67.3544
-1.32702 -67.6226
8.03251 -62.4095
6.46657 -57.7551
-1.59631 -60.1457
1.16689 -82.4006
-0.034935 -58.1007
-4.1956 -33.1574
1.75184 -53.6061
-5.7576 -18.4826
-2.45934 -15.5023
3.4128 -42.5955
-4.1051 -74.5445
-11.2384 -18.3817
-6.73038 -17.132
-12.897 -39.0842
-5.3101 -0.69941
-7.25195 -76.9397
-16.0588 -17.9473
-9.40181 -5.73278
-21.3225 -59.2786
-33.3678 -26.2795
-13.273 -99.996
-9.00866 0.794773
-14.0106 -1.96256
0.395303 -26.7073
-1.1054 -15.4923
0.610352 -12.0126
-34.9373 33.223
-77.7495 -122.111
0.882725 -12.359
4.49146 -38.7802
-29.926 -65.9125
-13.9062 -129.41
-39.9168 -43.5996
-11.5925 1.20342
-18.7394 9.95501
-2.36959 -24.0367
0.117136 -12.0817
-1.81304 -11.6234
0.640682 -12.5219
-32.149 66.3697
-77.9942 -102.848
3.36377 -44.0969
1.41949 -7.35676
0.424934 -3.74256
0.544276 -4.34856
0.357822 -3.67875
-0.0214553 -1.01504
-0.125187 -0.794792
0.635819 -4.43393
2.59719 -11.4196
2.54749 -10.6804
1.769 -7.79317
0.723238 -4.66622
0.21278 -3.59716
0.558116 -4.58569
-0.229878 -0.378237
-0.177488 -0.443276
2.97151 -11.9846
2.93454 -10.4987
0.8832 -5.19632
0.80777 -5.22525
0.609315 -5.08028
-0.0501558 -0.13531
-0.243996 0.239458
0.974291 -5.33073
4.75201 -16.3108
4.88737 -15.7483
3.30269 -11.7762
1.18989 -6.17142
0.944689 -5.20564
1.38299 -6.34582
-0.838555 -0.785507
-0.84532 -0.632092
5.1503 -17.5688
3.37126 -12.9991
0.977617 -6.61607
1.46231 -6.80457
1.22495 -6.76617
-1.17323 -0.411984
-1.09422 -0.358639
1.23728 -6.64586
5.25772 -19.0563
4.66535 -19.181
3.07798 -15.3866
1.43485 -9.65576
1.39566 -6.92751
1.5377 -9.39317
-1.41704 -0.189414
-1.20896 -0.16547
5.0726 -21.7734
3.06569 -16.1475
1.27573 -6.56214
1.59009 -10.5759
1.15334 -6.53948
-0.826174 -0.816314
-0.555553 -1.04548
1.59459 -10.0635
5.9264 -26.1496
5.40229 -22.2198
3.47438 -13.2809
1.66373 -7.36454
0.915287 -6.39372
1.39019 -7.16379
-0.44621 -1.20003
-0.43917 -2.09892
6.14326 -22.9121
3.40385 -11.8662
0.954508 -5.30752
1.19627 -6.29635
0.835942 -5.22855
-0.0701454 -1.52872
-0.572783 -2.95158
1.41295 -6.44074
5.28934 -17.6528
5.01136 -16.1852
1.60013 -7.42187
0.449782 -4.07902
0.353345 -3.58596
0.591757 -4.16872
-0.647967 -0.876811
-0.734247 -0.843589
0.16125 -3.54048
2.73525 -9.99706
2.79061 -10.7224
1.48947 -7.54021
0.491381 -4.17129
0.540512 -4.08456
0.561533 -4.2329
-0.867757 -0.567941
-0.942686 -0.503481
0.466001 -4.0409
2.47306 -10.4847
2.3617 -10.6526
-1.23458 -0.270029
0.321789 -3.51625
0.382303 -3.6196
0.390861 -3.64412
1.80901 -9.2886
-1.04679 -0.224735
-32.7822 -124.915
-9.79293 -127.934
-14.4529 -110.329
5.37081 -28.069
5.18067 -30.9248
2.62483 -20.7793
8.02162 -44.9819
7.38362 -31.4099
-36.8761 -136.874
-39.6679 -157.817
-65.6344 -144.416
5.68393 -32.6008
2.06313 -22.7425
4.74321 -34.2111
6.74092 -56.9588
8.13235 -39.6104
-30.2265 -151.769
-13.5432 -139.537
-35.9616 -133.717
-19.4741 -133.512
3.4521 -15.2346
2.49255 -11.4279
1.40332 -7.81569
2.21992 -11.3306
4.15786 -14.7769
2.58509 -9.76741
3.78485 -14.0656
4.5207 -17.1156
5.94141 -20.6651
5.55976 -19.9029
3.71259 -13.1141
5.84237 -18.9632
7.06254 -24.3271
7.14057 -26.0998
5.97802 -19.6633
3.90827 -13.7536
5.99022 -20.9869
8.02625 -30.4532
7.22347 -25.0316
2.66935 -11.0679
1.63561 -7.74307
2.88601 -11.0049
3.8403 -14.2186
3.54653 -14.3186
1.78264 -8.98338
1.19851 -6.80429
2.07805 -9.66126
2.91735 -12.9634
2.58239 -12.5687
-27.9969 -83.8669
-28.6418 -75.8827
10.6964 -49.5596
9.15298 -49.5737
8.95047 -40.2513
9.08526 -57.6289
8.22673 -33.8621
9.82602 -48.104
9.59698 -57.2709
-35.6444 -101.138
-40.5796 -93.7877
4.18079 -17.8882
3.91066 -18.2353
3.74045 -18.4996
4.3809 -21.5201
6.69733 -27.5161
6.5655 -24.6467
5.63471 -21.9652
7.21021 -26.282
4.84274 -19.792
6.39036 -29.2408
7.20092 -32.3412
9.54671 -39.5325
9.00203 -33.141
8.50534 -31.8872
8.13977 -28.9428
9.58172 -44.6976
9.68712 -39.5629
8.57031 -31.0681
9.28159 -35.3061
8.06031 -28.2336
9.43999 -38.5062
9.72057 -45.3547
9.0865 -40.5573
6.62774 -24.2903
5.56095 -19.3551
6.52413 -22.3067
4.91629 -17.0668
4.5128 -15.6299
5.95069 -20.0816
7.184 -24.9318
7.2648 -28.2457
6.43974 -24.815
3.76067 -16.3467
3.3856 -15.5589
3.34935 -16.1143
4.27381 -21.614
10.3757 -69.3152
8.62385 -66.997
6.69262 -78.5892
5.6134 -26.2856
5.22761 -22.891
4.96774 -24.3131
4.62044 -24.8342
5.83775 -30.9641
8.85694 -39.3467
8.35103 -33.6816
8.08823 -35.7417
7.3231 -37.9281
8.66374 -47.6958
7.95613 -32.0882
8.27027 -31.2321
8.71421 -35.9168
8.63957 -41.7877
7.56782 -33.0744
7.47513 -52.3128
4.76098 -55.6359
2.12435 -55.9918
4.17281 -50.5728
3.15456 -61.6601
6.61776 -57.2935
4.74938 -64.931
7.03847 -50.8766
8.98567 -52.7666
7.8643 -67.3498
0.17064 -56.7645
5.63028 -34.7701
4.94023 -31.4077
3.95899 -31.3657
3.51333 -38.5873
5.78655 -46.7639
7.15358 -45.9598
6.96616 -42.3273
6.22953 -38.3183
3.81998 -46.6259
6.63421 -40.6364
7.35674 -36.9604
7.54439 -40.6659
6.72569 -32.8131
7.89626 -45.5075
5.34134 -44.9699
5.01343 -41.0505
6.28179 -28.5744
6.06874 -32.4799
4.82746 -31.1652
4.88243 -26.2356
6.09712 -49.3118
4.03616 -50.3086
4.90275 -39.1395
4.03244 -42.4792
5.531 -21.2299
4.60954 -17.8009
4.78338 -17.8855
4.24458 -17.643
6.07054 -25.2264
4.95818 -23.6289
4.69042 -20.262
5.49135 -24.5994
3.86268 -12.9546
2.65963 -9.77253
4.18614 -14.241
0.523337 -4.34259
3.05838 -11.2154
0.155557 -3.47818
0.51386 -4.32709
1.88848 -7.79745
-1.43349 -0.175455
-1.18563 -0.0833233
10.2306 -67.8546
9.62363 -52.1353
8.63017 -63.8866
9.51524 -45.0469
8.7 -67.5784
9.5087 -51.8885
10.5221 -50.7571
9.71388 -58.7101
0 0
0 0
0 0
0 0
0 0
0 0
0 0
0 0
0 0
0 0
0 0
0 0
0 0
0 0
0 0
0 0
0 0
0 0
0 0
0 0
0 0
0 0
0 0
0 0
0 0
0 0
0 0
0 0
0 0
0 0
0 0
0 0
0 0
0 0
0 0
0 0
0 0
0 0
0 0
0 0
0 0
0 0
0 0
0 0
0 0
0 0
0 0
0 0
0 0
0 0
0 0
0 0
0 0
0 0
0 0
0 0
0 0
0 0
0 0
0 0
0 0
0 0
0 0
0 0
0 0
0 0
0 0
0 0
0 0
0 0
0 0
0 0
0 0
0 0
0 0
0 0
0 0
0 0
0 0
0 0
0 0
0 0
0 0
0 0
0 0
0 0
0 0
0 0
0 0
0 0
0 0
0 0
0 0
0 0
0 0
0 0
0 0
0 0
0 0
0 0
0 0
0 0
0 0
0 0
0 0
0 0
0 0
0 0
0 0
0 0
0 0
0 0
0 0
0 0
0 0
0 0
0 0
0 0
0 0
0 0
0 0
0 0
0 0
0 0
0 0
0 0
0 0
0 0
0 0
0 0
0 0
0 0
0 0
0 0
0 0
0 0
0 0
0 0
0 0
0 0
0 0
0 0
0 0
0 0
0 0
0 0
0 0
0 0
0 0
0 0
0 0
0 0
0 0
0 0
0 0
0 0
0 0
0 0
0 0
0 0
0 0
0 0
0 0
0 0
0 0
0 0
0 0
0 0
0 0
0 0
0 0
0 0
0 0
0 0
0 0
0 0
0 0
0 0
0 0
0 0
0 0
0 0
0 0
0 0
0 0
0 0
0 0
0 0
0 0
0 0
0 0
0 0
0 0
0 0
0 0
0 0
0 0
0 0
0 0
0 0
0 0
0 0
0 0
0 0
0 0
0 0
0 0
0 0
0 0
0 0
0 0
0 0
0 0
0 0
0 0
0 0
0 0
0 0
0 0
0 0
0 0
0 0
0 0
0 0
0 0
0 0
0 0
0 0
0 0
0 0
0 0
0 0
0 0
0 0
0 0
0 0
0 0
0 0
0 0
0 0
0 0
0 0
0 0
0 0
0 0
0 0
0 0
0 0
0 0
0 0
0 0
0 0
0 0
0 0
0 0
0 0
0 0
0 0
0 0
0 0
0 0
0 0
0 0
0 0
0 0
0 0
0 0
0 0
0 0
0 0
0 0
0 0
0 0
0 0
0 0
0 0
0 0
0 0
0 0
0 0
0 0
0 0
0 0
0 0
0 0
0 0
0 0
0 0
0 0
0 0
0 0
0 0
0 0
0 0
0 0
0 0
0 0
0 0
0 0
0 0
0 0
0 0
0 0
0 0
0 0
0 0
0 0
0 0
0 0
0 0
0 0
0 0
0 0
0 0
0 0
0 0
0 0
0 0
0 0
0 0
0 0
0 0
0 0
0 0
0 0
0 0
0 0
0 0
0 0
0 0
0 0
0 0
0 0
0 0
0 0
0 0
0 0
0 0
0 0
0 0
0 0
0 0
0 0
0 0
0 0
0 0
0 0
0 0
0 0
0 0
0 0
0 0
0 0
0 0
0 0
0 0
0 0
0 0
0 0
0 0
0 0
0 0
0 0
0 0
0 0
0 0
0 0
0 0
0 0
0 0
0 0
0 0
0 0
0 0
0 0
0 0
0 0
0 0
0 0
0 0
0 0
0 0
0 0
0 0
0 0
0 0
0 0
0 0
0 0
0 0
0 0
0 0
0 0
0 0
0 0
0 0
0 0
0 0
0 0
0 0
0 0
0 0
0 0
0 0
0 0
0 0
0 0
0 0
0 0
0 0
0 0
0 0
0 0
0 0
0 0
0 0
0 0
0 0
0 0
0 0
0 0
0 0
0 0
0 0
0 0
0 0
0 0
0 0
0 0
0 0
0 0
0 0
0 0
0 0
0 0
0 0
0 0
0 0
0 0
0 0
0 0
0 0
0 0
0 0
0 0
0 0
0 0
0 0
0 0
0 0
0 0
0 0
0 0
0 0
0 0
0 0
0 0
0 0
0 0
0 0
0 0
0 0
0 0
0 0
0 0
0 0
0 0
0 0
0 0
0 0
0 0
0 0
0 0
0 0
0 0
0 0
0 0
0 0
0 0
0 0
0 0
0 0
0 0
0 0
0 0
0 0
0 0
0 0
0 0
0 0
0 0
0 0
0 0
0 0
0 0
0 0
0 0
0 0
0 0
0 0
0 0
0 0
0 0
0 0
0 0
0 0
0 0
0 0
0 0
0 0
0 0
0 0
0 0
0 0
0 0
0 0
0 0
0 0
0 0
0 0
0 0
0 0
0 0
0 0
0 0
0 0
0 0
0 0
0 0
0 0
0 0
0 0
0 0
0 0
0 0
0 0
0 0
0 0
0 0
0 0
0 0
0 0
0 0
0 0
0 0
0 0
0 0
0 0
0 0
0 0
0 0
0 0
0 0
0 0
0 0
0 0
0 0
0 0
0 0
0 0
0 0
0 0
0 0
0 0
0 0
0 0
0 0
0 0
0 0
0 0
0 0
0 0
0 0
0 0
0 0
0 0
0 0
0 0
0 0
0 0
0 0
0 0
0 0
0 0
0 0
0 0
0 0
0 0
0 0
0 0
0 0
0 0
0 0
0 0
0 0
0 0
0 0
0 0
0 0
0 0
0 0
0 0
0 0
0 0
0 0
0 0
0 0
0 0
0 0
0 0
0 0
0 0
0 0
0 0
0 0
0 0
0 0
0 0
0 0
0 0
0 0
0 0
0 0
0 0
0 0
0 0
0 0
0 0
0 0
0 0
0 0
0 0
0 0
0 0
0 0
0 0
0 0
0 0
0 0
0 0
0 0
0 0
0 0
0 0
0 0
0 0
0 0
0 0
0 0
0 0
0 0
0 0
0 0
0 0
0 0
0 0
0 0
0 0
0 0
0 0
0 0
0 0
0 0
0 0
0 0
0 0
0 0
0 0
0 0
0 0
0 0
0 0
0 0
0 0
0 0
0 0
0 0
0 0
0 0
0 0
0 0
0 0
0 0
0 0
0 0
0 0
0 0
0 0
0 0
0 0
0 0
0 0
0 0
0 0
0 0
0 0
0 0
0 0
0 0
0 0
0 0
0 0
0 0
0 0
0 0
0 0
0 0
0 0
0 0
0 0
0 0
0 0
0 0
0 0
0 0
0 0
0 0
0 0
0 0
0 0
0 0
0 0
0 0
0 0
0 0
0 0
0 0
0 0
0 0
0 0
0 0
0 0
0 0
0 0
0 0
0 0
0 0
0 0
0 0
0 0
0 0
0 0
0 0
0 0
0 0
0 0
0 0
0 0
0 0
0 0
0 0
0 0
0 0
0 0
0 0
0 0
0 0
0 0
0 0
0 0
0 0
0 0
0 0
0 0
0 0
0 0
0 0
0 0
0 0
0 0
0 0
0 0
0 0
0 0
0 0
0 0
0 0
0 0
0 0
0 0
0 0
0 0
0 0
0 0
0 0
0 0
0 0
0 0
0 0
0 0
0 0
0 0
0 0
0 0
0 0
0 0
0 0
0 0
0 0
0 0
0 0
0 0
0 0
0 0
0 0
0 0
0 0
0 0
0 0
0 0
0 0
0 0
0 0
0 0
0 0
0 0
0 0
0 0
0 0
0 0
0 0
0 0
0 0
0 0
0 0
0 0
0 0
0 0
0 0
0 0
0 0
0 0
0 0
0 0
0 0
0 0
0 0
0 0
0 0
0 0
0 0
0 0
0 0
0 0
0 0
0 0
0 0
0 0
0 0
0 0
0 0
0 0
0 0
0 0
0 0
0 0
0 0
0 0
0 0
0 0
0 0
0 0
0 0
0 0
0 0
0 0
0 0
0 0
0 0
0 0
0 0
0 0
0 0
0 0
0 0
0 0
0 0
0 0
0 0
0 0
0 0
0 0
0 0
0 0
0 0
0 0
0 0
0 0
0 0
0 0
0 0
0 0
0 0
0 0
0 0
0 0
0 0
0 0
0 0
0 0
0 0
0 0
0 0
0 0
0 0
0 0
0 0
0 0
0 0
0 0
0 0
0 0
0 0
0 0
0 0
0 0
0 0
0 0
0 0
0 0
0 0
0 0
0 0
0 0
0 0
0 0
0 0
0 0
0 0
0 0
0 0
0 0
0 0
0 0
0 0
0 0
0 0
0 0
0 0
0 0
0 0
0 0
0 0
0 0
0 0
0 0
0 0
0 0
0 0
0 0
0 0
0 0
0 0
0 0
0 0
0 0
0 0
0 0
0 0
0 0
0 0
0 0
0 0
0 0
0 0
0 0
0 0
0 0
0 0
0 0
0 0
0 0
0 0
0 0
0 0
0 0
0 0
0 0
0 0
0 0
0 0
0 0
0 0
0 0
0 0
0 0
0 0
0 0
0 0
0 0
0 0
0 0
0 0
0 0
0 0
0 0
0 0
0 0
0 0
0 0
0 0
0 0
0 0
0 0
0 0
0 0
0 0
0 0
0 0
0 0
0 0
0 0
0 0
0 0
0 0
0 0
0 0
0 0
0 0
0 0
0 0
0 0
0 0
0 0
0 0
0 0
0 0
0 0
0 0
0 0
0 0
0 0
0 0
0 0
0 0
0 0
0 0
0 0
0 0
0 0
0 0
0 0
0 0
0 0
0 0
0 0
0 0
0 0
0 0
0 0
0 0
0 0
0 0
0 0
0 0
0 0
0 0
0 0
0 0
0 0
0 0
0 0
0 0
0 0
0 0
0 0
0 0
0 0
0 0
0 0
0 0
0 0
0 0
0 0
0 0
0 0
0 0
0 0
0 0
0 0
0 0
0 0
0 0
0 0
0 0
0 0
0 0
0 0
0 0
0 0
0 0
0 0
0 0
0 0
0 0
0 0
0 0
0 0
0 0
0 0
0 0
0 0
0 0
0 0
0 0
0 0
0 0
0 0
0 0
0 0
0 0
0 0
0 0
0 0
0 0
0 0
0 0
0 0
0 0
0 0
0 0
0 0
0 0
0 0
0 0
0 0
0 0
0 0
0 0
0 0
0 0
0 0
0 0
0 0
0 0
0 0
0 0
0 0
0 0
0 0
0 0
0 0
0 0
0 0
0 0
0 0
0 0
0 0
0 0
0 0
0 0
0 0
0 0
0 0
0 0
0 0
0 0
0 0
0 0
0 0
0 0
0 0
0 0
0 0
0 0
0 0
0 0
0 0
0 0
0 0
0 0
0 0
0 0
0 0
0 0
0 0
0 0
0 0
0 0
0 0
0 0
0 0
0 0
0 0
0 0
0 0
0 0
0 0
0 0
0 0
0 0
0 0
0 0
0 0
0 0
0 0
0 0
0 0
0 0
0 0
0 0
0 0
0 0
0 0
0 0
0 0
0 0
0 0
0 0
0 0
0 0
0 0
0 0
0 0
0 0
0 0
0 0
0 0
0 0
0 0
0 0
0 0
0 0
0 0
0 0
0 0
0 0
0 0
0 0
0 0
0 0
0 0
0 0
0 0
0 0
0 0
0 0
0 0
0 0
0 0
0 0
0 0
0 0
0 0
0 0
0 0
0 0
0 0
0 0
0 0
0 0
0 0
0 0
0 0
0 0
0 0
0 0
0 0
0 0
0 0
0 0
0 0
0 0
0 0
0 0
0 0
0 0
0 0
0 0
0 0
0 0
0 0
0 0
0 0
0 0
0 0
0 0
0 0
0 0
0 0
0 0
0 0
0 0
0 0
0 0
0 0
0 0
0 0
0 0
0 0
0 0
0 0
0 0
0 0
0 0
0 0
0 0
0 0
0 0
0 0
0 0
0 0
0 0
0 0
0 0
0 0
0 0
0 0
0 0
0 0
0 0
0 0
0 0
0 0
0 0
0 0
0 0
0 0
0 0
0 0
0 0
0 0
0 0
0 0
0 0
0 0
0 0
0 0
0 0
0 0
0 0
0 0
0 0
0 0
0 0
0 0
0 0
0 0
0 0
0 0
0 0
0 0
0 0
0 0
0 0
0 0
0 0
0 0
0 0
0 0
0 0
0 0
0 0
0 0
0 0
0 0
0 0
0 0
0 0
0 0
0 0
0 0
0 0
0 0
0 0
0 0
0 0
0 0
0 0
0 0
0 0
0 0
0 0
0 0
0 0
0 0
0 0
0 0
0 0
0 0
0 0
0 0
0 0
0 0
0 0
0 0
0 0
0 0
0 0
0 0
0 0
0 0
0 0
0 0
0 0
0 0
0 0
0 0
0 0
0 0
0 0
0 0
0 0
0 0
0 0
0 0
0 0
0 0
0 0
0 0
0 0
0 0
0 0
0 0
0 0
0 0
0 0
0 0
0 0
0 0
0 0
0 0
0 0
0 0
0 0
0 0
0 0
0 0
0 0
0 0
0 0
0 0
0 0
0 0
0 0
0 0
0 0
0 0
0 0
0 0
0 0
0 0
0 0
0 0
0 0
0 0
0 0
0 0
0 0
0 0
0 0
0 0
0 0
0 0
0 0
0 0
0 0
0 0
0 0
0 0
0 0
0 0
0 0
0 0
0 0
0 0
0 0
0 0
0 0
0 0
0 0
0 0
0 0
0 0
0 0
0 0
0 0
0 0
0 0
0 0
0 0
0 0
0 0
0 0
0 0
0 0
0 0
0 0
0 0
0 0
0 0
0 0
0 0
0 0
0 0
0 0
0 0
0 0
0 0
0 0
0 0
0 0
0 0
0 0
0 0
0 0
0 0
0 0
0 0
0 0
0 0
0 0
0 0
0 0
0 0
0 0
0 0
0 0
0 0
0 0
0 0
0 0
0 0
0 0
0 0
0 0
0 0
0 0
0 0
0 0
0 0
0 0
0 0
0 0
0 0
0 0
0 0
0 0
0 0
0 0
0 0
0 0
0 0
0 0
0 0
0 0
0 0
0 0
0 0
0 0
0 0
0 0
0 0
0 0
0 0
0 0
0 0
0 0
0 0
0 0
0 0
0 0
0 0
0 0
0 0
0 0
0 0
0 0
0 0
0 0
0 0
0 0
0 0
0 0
0 0
0 0
0 0
0 0
0 0
0 0
0 0
0 0
0 0
0 0
0 0
0 0
0 0
0 0
0 0
0 0
0 0
0 0
0 0
0 0
0 0
0 0
0 0
0 0
0 0
0 0
0 0
0 0
0 0
0 0
0 0
0 0
0 0
0 0
0 0
0 0
0 0
0 0
0 0
0 0
0 0
0 0
0 0
0 0
0 0
0 0
0 0
0 0
0 0
0 0
0 0
0 0
0 0
0 0
0 0
0 0
0 0
0 0
0 0
0 0
0 0
0 0
0 0
0 0
0 0
0 0
0 0
0 0
0 0
0 0
0 0
0 0
0 0
0 0
0 0
0 0
0 0
0 0
0 0
0 0
0 0
0 0
0 0
0 0
0 0
0 0
0 0
0 0
0 0
0 0
0 0
0 0
0 0
0 0
0 0
0 0
0 0
0 0
0 0
0 0
0 0
0 0
0 0
0 0
0 0
0 0
0 0
0 0
0 0
0 0
0 0
0 0
0 0
0 0
0 0
0 0
0 0
0 0
0 0
0 0
0 0
0 0
0 0
0 0
0 0
0 0
0 0
0 0
0 0
0 0
0 0
0 0
0 0
0 0
0 0
0 0
0 0
0 0
0 0
0 0
0 0
0 0
0 0
0 0
0 0
0 0
0 0
0 0
0 0
0 0
0 0
0 0
0 0
0 0
0 0
0 0
0 0
0 0
0 0
0 0
0 0
0 0
0 0
0 0
0 0
0 0
0 0
0 0
0 0
0 0
0 0
0 0
0 0
0 0
0 0
0 0
0 0
0 0
0 0
0 0
0 0
0 0
0 0
0 0
0 0
0 0
0 0
0 0
0 0
0 0
0 0
0 0
0 0
0 0
0 0
0 0
0 0
0 0
0 0
0 0
0 0
0 0
0 0
0 0
0 0
0 0
0 0
0 0
0 0
0 0
0 0
0 0
0 0
0 0
0 0
0 0
0 0
0 0
0 0
0 0
0 0
0 0
0 0
0 0
0 0
0 0
0 0
0 0
0 0
0 0
0 0
0 0
0 0
0 0
0 0
0 0
0 0
0 0
0 0
0 0
0 0
0 0
0 0
0 0
0 0
0 0
0 0
0 0
0 0
0 0
0 0
0 0
0 0
0 0
0 0
0 0
0 0
0 0
0 0
0 0
0 0
0 0
0 0
0 0
0 0
0 0
0 0
0 0
0 0
0 0
0 0
0 0
0 0
0 0
0 0
0 0
0 0
0 0
0 0
0 0
0 0
0 0
0 0
0 0
0 0
0 0
0 0
0 0
0 0
0 0
0 0
0 0
0 0
0 0
0 0
0 0
0 0
0 0
0 0
0 0
0 0
0 0
0 0
0 0
0 0
0 0
0 0
0 0
0 0
0 0
0 0
0 0
0 0
0 0
0 0
0 0
0 0
0 0
0 0
0 0
0 0
0 0
0 0
0 0
0 0
0 0
0 0
0 0
0 0
0 0
0 0
0 0
0 0
0 0
0 0
0 0
0 0
0 0
0 0
0 0
0 0
0 0
0 0
0 0
0 0
0 0
0 0
0 0
0 0
0 0
0 0
0 0
0 0
0 0
0 0
0 0
0 0
0 0
0 0
0 0
0 0
0 0
0 0
0 0
0 0
0 0
0 0
0 0
0 0
0 0
0 0
0 0
0 0
0 0
0 0
0 0
0 0
0 0
0 0
0 0
0 0
0 0
0 0
0 0
0 0
0 0
0 0
0 0
0 0
0 0
0 0
0 0
0 0
0 0
0 0
0 0
0 0
0 0
0 0
0 0
0 0
0 0
0 0
0 0
0 0
0 0
0 0
0 0
0 0
0 0
0 0
0 0
0 0
0 0
0 0
0 0
0 0
0 0
0 0
0 0
0 0
0 0
0 0
0 0
0 0
0 0
0 0
0 0
0 0
0 0
0 0
0 0
0 0
0 0
0 0
0 0
0 0
0 0
0 0
0 0
0 0
0 0
0 0
0 0
0 0
0 0
0 0
0 0
0 0
0 0
0 0
0 0
0 0
0 0
0 0
0 0
0 0
0 0
0 0
0 0
0 0
0 0
0 0
0 0
0 0
0 0
0 0
0 0
0 0
0 0
0 0
0 0
0 0
0 0
0 0
0 0
0 0
0 0
0 0
0 0
0 0
0 0
0 0
0 0
0 0
0 0
0 0
0 0
0 0
0 0
0 0
0 0
0 0
0 0
0 0
0 0
0 0
0 0
0 0
0 0
0 0
0 0
0 0
0 0
0 0
0 0
0 0
0 0
0 0
0 0
0 0
0 0
0 0
0 0
0 0
0 0
0 0
0 0
0 0
0 0
0 0
0 0
0 0
0 0
0 0
0 0
0 0
0 0
0 0
0 0
0 0
0 0
0 0
0 0
0 0
0 0
0 0
0 0
0 0
0 0
0 0
0 0
0 0
0 0
0 0
0 0
0 0
0 0
0 0
0 0
0 0
0 0
0 0
0 0
0 0
0 0
0 0
0 0
0 0
0 0
0 0
0 0
0 0
0 0
0 0
0 0
0 0
0 0
0 0
0 0
0 0
0 0
0 0
0 0
0 0
0 0
0 0
0 0
0 0
0 0
0 0
0 0
0 0
0 0
0 0
0 0
0 0
0 0
0 0
0 0
0 0
0 0
0 0
0 0
0 0
0 0
0 0
0 0
0 0
0 0
0 0
0 0
0 0
0 0
0 0
0 0
0 0
0 0
0 0
0 0
0 0
0 0
0 0
0 0
0 0
0 0
0 0
0 0
0 0
0 0
0 0
0 0
0 0
0 0
0 0
0 0
0 0
0 0
0 0
0 0
0 0
0 0
0 0
0 0
0 0
0 0
0 0
0 0
0 0
0 0
0 0
0 0
0 0
0 0
0 0
0 0
0 0
0 0
0 0
0 0
0 0
0 0
0 0
0 0
0 0
0 0
0 0
0 0
0 0
0 0
0 0
0 0
0 0
0 0
0 0
0 0
0 0
0 0
0 0
0 0
0 0
0 0
0 0
0 0
0 0
0 0
0 0
0 0
0 0
0 0
0 0
0 0
0 0
0 0
0 0
0 0
0 0
0 0
0 0
0 0
0 0
0 0
0 0
0 0
0 0
0 0
0 0
0 0
0 0
0 0
0 0
0 0
0 0
0 0
0 0
0 0
0 0
0 0
0 0
0 0
0 0
0 0
0 0
0 0
      </DataArray> 
      <DataArray type="Float64" NumberOfComponents="1" Name="CauchyShearStress" format="ascii">
-7.14867
6.29165
-2.0971
0.606002
0.31092
0.425307
0.307012
0.148804
-0.0358273
-0.0667501
-0.0631194
-0.106675
-0.149827
-0.110452
-0.0527204
-0.0411357
-0.0450108
0.0231861
0.0800148
0.0765592
0.0566046
0.105475
0.120462
0.0366309
-0.0738462
-0.095365
-0.187324
-0.641023
-0.80941
-1.05457
0.761519
0.00766245
0.277118
0.646182
-7.98798
0.0408397
0.245958
0.292333
0.263565
0.0890152
0.0722697
0.159652
0.255735
0.243767
0.354434
0.27492
0.38393
0.500806
0.575416
0.573565
0.621735
0.638181
0.670517
0.302829
-0.157579
-0.310069
-0.477568
-0.604482
-0.728911
-1.31377
0.942121
1.30724
2.60497
-31.7952
-15.8923
-6.73128
-10.2029
-12.6623
-18.2266
0.232364
-30.6406
-26.6402
-20.2387
32.2059
-2.73339
-22.0305
32.0529
-5.93317
16.3992
6.97895
10.3163
12.7066
18.2581
-0.392905
-1.24912
-1.46683
-3.0885
0.00394643
-0.142186
0.27611
0.49424
0.900615
0.931426
0.205627
-0.171982
-0.304629
-0.446036
-0.565493
-0.637244
-0.686623
-0.706181
-0.756227
-0.660547
-0.636749
-0.613905
-0.545105
-0.55845
-0.408541
-0.238744
-0.175996
-0.239227
0.787849
1.52741
8.36055
2.14629
-17.4273
-10.0298
-17.473
19.4904
11.3096
4.80614
4.95071
-4.43887
-0.401541
-16.6271
16.6359
-4.01343
-4.46578
-8.30591
-7.85997
8.89773
-6.99335
7.80524
-7.64423
-7.84916
8.46728
8.50414
-6.78083
-6.45418
-7.55132
-3.80849
2.85384
3.96958
8.54532
7.15479
9.67506
-8.77767
-10.1131
-10.6216
-10.1903
11.1775
9.36256
-4.01
0.889803
3.72291
-6.59771
6.83621
-5.02044
-5.79787
-6.66317
-6.1385
6.47775
7.33778
6.59766
5.30455
-6.29918
-6.42331
-5.57634
-2.8482
1.2428
5.70423
-5.7793
-5.61614
6.58426
6.83144
6.07632
5.97958
6.80114
9.3017
-8.26538
-9.5884
-7.37104
-10.9233
-12.298
10.9423
6.26209
-4.60187
-3.11381
-0.295776
-1.52023
1.20126
2.96989
2.07171
4.19621
-5.95305
-6.13406
6.01302
6.07817
-4.8412
-4.12644
-4.49677
-3.94072
-4.4457
-5.54263
5.91658
5.02848
4.48139
4.76674
4.19533
4.79793
-5.83638
-5.51357
-7.51294
0.172977
4.31192
-3.52359
3.96215
5.69843
5.41745
11.4104
-13.884
-2.92617
-15.2124
15.8777
12.8374
8.97514
-4.66502
-3.4138
-1.19981
0.847952
2.58846
4.22239
-5.72567
5.58673
-4.09635
-2.84579
-3.97577
4.1509
3.09087
4.21982
-4.67304
-5.06999
-5.14567
-4.69939
-2.58021
-1.88664
-18.6962
-3.35142
14.6072
-0.418437
0.424713
2.9926
4.18978
4.71195
4.82014
3.93492
15.0607
-14.9169
1.98553
6.02053
-18.9183
-5.13332
-4.15751
17.5965
5.57066
-4.41988
-4.48839
-3.22243
-3.99874
-1.62022
-2.36214
0.203325
-0.492931
1.53016
0.940997
3.15093
2.40503
4.48753
3.75241
-4.5231
-5.26757
-5.5137
4.59209
5.25928
5.20773
4.04772
-3.941
-1.82023
-1.66565
-2.63292
2.6532
1.98096
1.95753
4.18197
-2.7829
-3.8029
-3.3174
-2.61918
-0.939501
-33.2667
-12.4642
-0.987939
7.91343
35.135
2.56091
-2.51917
2.48977
4.20053
2.8069
25.0351
12.7869
-21.1588
-13.2467
13.2349
-21.5892
2.00276
-10.0748
10.2596
14.7036
-4.54526
-2.79712
-1.49493
-0.294354
0.793907
1.90214
3.59186
-5.04532
-3.82123
4.33161
4.2502
-2.52353
-1.84428
-4.54555
3.55097
1.42197
2.59717
-3.01002
3.3619
-0.912091
-1.6379
-1.46479
-2.05481
-1.5836
-1.82617
-1.499
-1.19715
-0.649064
-61.72
-8.92329
7.24916
55.3872
0.178259
1.20071
2.69485
3.66998
8.20243
-7.07641
-3.66148
-2.40083
-1.08382
0.0696064
0.910846
1.30598
1.17181
1.93622
0.830521
1.06958
1.2372
1.37358
19.1673
31.8209
18.1807
-18.7207
-25.5855
-31.6785
13.1366
16.406
18.8546
-11.8244
-26.6889
-18.4936
-2.47248
-4.60385
-1.73533
-1.49053
-1.5104
-1.04188
-0.974523
-1.03941
-0.554209
-0.376179
-0.480749
0.0576899
0.238671
0.150245
0.621027
0.747892
0.704201
1.10156
1.0742
1.14749
2.00989
4.43893
2.19138
-1.1021
-1.01877
1.57088
1.7267
-4.95505
-5.47566
4.72606
4.81963
5.14605
-1.10096
-1.67218
1.89531
1.57075
-1.76691
1.6314
-2.5257
-2.00706
1.76799
2.247
-3.93805
-8.20075
-4.08016
3.98906
4.26757
6.70481
5.49736
-6.44905
3.85647
-4.32033
0.268629
-0.109711
5.16533
-5.41358
3.27624
-2.16673
4.80647
2.55044
1.32119
0.289435
-0.876686
-2.10476
-3.59236
-4.90999
-15.2799
22.1795
-24.393
24.8026
2.47199
3.17758
0.513424
-5.78842
6.94106
0.316926
25.7438
-31.911
-1.50056
-3.23464
-4.22598
-3.42212
2.81249
-3.81308
11.491
-6.08883
-2.64417
3.49598
2.95269
-2.4912
-3.37934
5.34707
5.50876
-5.82029
-5.31863
4.74409
3.53839
1.66853
0.0117975
-2.42516
-4.28656
-4.82668
13.0062
2.26993
-4.40164
-2.95493
-12.7923
8.69811
5.46685
5.2168
3.12766
-3.32532
-4.01431
-5.98789
12.5724
-11.4603
4.75698
6.27095
7.02496
-6.23805
-5.58387
-4.84913
6.45664
-6.46011
2.45516
-0.661708
9.01601
-12.6329
8.06351
-8.00557
7.44601
-6.93462
9.71063
-8.76068
-7.05907
-34.7973
-3.33312
-38.512
-27.2492
-4.05579
-20.3163
2.9934
27.1046
50.7171
4.53229
30.7274
27.8643
-29.7889
-44.7948
-45.7092
-47.23
-23.9135
-30.4447
-35.0848
-26.8479
-26.0908
-24.6001
-28.5178
-21.4851
-36.7843
-46.055
-15.6481
-21.8204
27.3104
46.5567
42.6752
35.2735
24.0762
30.6267
28.5615
23.6405
26.9833
24.8316
21.8019
28.6999
15.8774
37.0638
46.3066
22.1645
23.9277
2.05444
8.16407
2.6814
72.7499
19.9885
84.1943
36.5566
15.0306
-28.2197
-11.0731
-2.31712
-86.3905
-71.2217
-33.0541
-3.52095
-19.2286
-43.3215
24.7214
25.0716
4.24373
14.8474
-4.03004
18.801
13.3542
-23.3038
-12.7347
-31.9591
3.66178
5.04643
-4.60374
-19.5016
0.0786943
1.42489
-16.9893
-20.1964
-8.71348
1.76293
12.9215
-7.7064
19.821
11.724
34.4704
49.5398
49.6344
33.1048
36.23
27.2296
27.6885
3.43417
2.83196
8.68535
-0.204526
15.6504
2.26512
-1.84575
-6.87203
-11.9492
-4.59825
-20.9494
-7.05551
-30.3794
-47.8375
-50.3769
-31.4416
-35.1954
-26.6181
-25.4707
17.0853
19.7264
14.7233
15.4215
-13.1435
-21.2647
-9.67252
-13.8229
14.1146
16.3387
15.1385
14.6134
13.8899
13.3622
15.4275
9.98127
11.6228
13.7767
11.968
-13.1796
-11.3113
-11.6776
-10.5226
-7.77922
-12.9197
7.80737
8.85955
9.0769
6.64879
6.51268
5.74206
4.87723
3.69504
-3.12984
-1.66351
-1.42153
-0.207302
1.7118
-1.76329
-7.30722
-8.55893
-6.6064
-9.91662
-5.0282
-4.40425
-5.84018
-4.19868
-3.22608
-4.53373
-2.305
-4.59254
-5.22138
20.428
17.868
21.9413
20.0373
26.5924
30.7034
24.6753
13.2293
18.3155
12.5193
64.4172
72.6416
-12.2965
-18.0167
-12.9232
-19.7787
-62.0491
-70.447
-24.387
-21.4768
-17.4446
-20.5916
24.1887
3.66615
9.41546
6.64135
10.9534
1.19705
20.0372
11.6582
6.76285
17.6901
17.2099
14.7737
14.6704
23.9043
23.4023
16.1738
26.741
-24.9582
-14.8665
-22.9769
-11.2457
-25.9376
-16.1153
-15.4555
-18.6094
-10.896
-25.0677
-15.673
-14.0193
-8.86401
-6.34004
-5.52393
-6.63829
-3.03953
-3.37289
-11.296
-15.7261
-11.5848
-14.1086
-16.6098
-18.0779
-16.9921
-17.9125
-14.7545
-15.6719
-14.3054
1.10819
3.27809
2.11986
5.51322
-1.03067
0.361096
3.55475
-0.614208
17.9768
22.6813
11.5111
26.5671
21.2545
9.47851
5.73809
7.20977
20.3193
37.1531
31.9917
38.2979
24.4859
30.1406
39.8607
25.5957
-54.3345
-79.5382
-61.0142
-35.9977
-60.5365
-130.476
86.4145
33.8712
59.5671
57.9278
24.9894
123.068
26.2713
5.38616
5.94268
4.09688
-47.1998
-32.2791
-1.37438
18.6378
10.7263
-9.18336
-11.2305
-0.837432
-17.6599
-10.2331
5.05157
10.6118
-8.6872
-23.4798
21.4376
15.8604
18.6613
14.672
12.9521
11.739
19.7525
19.7659
21.3949
-2.87693
13.7744
9.71936
13.8174
-0.154876
-18.4017
-8.61371
-20.8732
-9.14496
-18.7367
42.2232
8.88257
4.58754
-11.8686
-11.6326
23.546
-12.4409
-12.0275
-20.7236
-5.94036
-11.9654
-21.3146
-23.8695
-11.5271
-1.23584
8.49493
-18.4906
-16.7719
-14.0761
0.793933
1.89015
-1.45769
-2.16241
-7.30824
1.24428
11.0062
-5.94402
2.3527
5.66301
3.54519
7.40334
7.5181
6.79667
17.2991
14.8077
17.2587
16.2827
13.9293
18.7414
-4.18994
-1.60516
5.28536
-6.60803
0.236152
13.203
-15.0445
-17.4643
-12.0782
-15.4219
-9.05213
-21.4988
-20.001
-19.351
-12.1793
-15.7901
-17.899
-19.0422
-7.95725
-14.3797
-14.9036
-11.9888
10.0425
7.58012
11.6567
3.67656
5.50198
10.945
9.68075
-24.1842
-22.6418
-20.3311
-14.4409
-11.0007
-17.07
-29.373
-18.2269
-15.1905
-31.8969
-3.4893
-33.3975
-21.8412
-5.72942
-35.884
-32.9982
-45.2255
-5.93786
-7.51196
-15.0076
-9.35503
-6.74573
-20.5581
-84.5152
-5.74187
-13.7958
44.1863
55.3542
40.2267
7.52798
8.91806
14.982
7.50454
7.64632
6.14696
19.1953
79.1539
17.8021
1.55636
0.324458
0.582285
0.228462
-0.138618
-0.0179577
0.739395
2.62327
2.13479
1.24411
0.374077
0.198597
0.330548
0.00543338
-0.191089
2.23716
0.434184
0.0555865
0.23884
0.0340369
-0.203434
-0.100779
0.314526
0.821659
0.275513
-0.442242
-0.339045
-0.0463445
-0.459052
0.774659
0.731643
-0.416753
-2.8707
-1.25542
-0.997206
-1.48828
0.589764
0.478268
-0.790129
-4.05028
-4.67337
-5.32784
-3.22768
-1.82222
-3.83001
0.273245
0.122786
-6.39181
5.88886
1.74332
3.69478
1.42594
-0.772884
-0.918551
4.466
7.67001
5.42127
3.04316
1.12352
1.26184
0.908197
-0.907315
-0.532477
4.72977
0.606141
0.094103
0.364643
0.0519505
-0.3343
0.0368499
0.489031
0.864454
0.280723
-0.915887
-0.233762
-0.108005
-0.358612
0.63132
0.634425
-0.0246785
-1.05605
-1.40277
-1.63273
-0.546121
-0.476202
-0.671499
0.626894
0.576377
-0.393171
-2.35326
-2.5642
0.646057
-0.460771
-0.537519
-0.672049
-2.88396
0.450134
25.3944
12.5817
15.394
-8.61073
-11.0037
-9.38539
-12.5578
-7.86616
-20.2433
-23.1457
-25.6371
10.5202
10.5641
13.3816
17.2689
9.92922
-0.336775
-13.5633
-1.14748
9.10424
3.6418
3.05079
2.15403
3.43493
1.71607
1.09366
1.89314
2.86222
1.54608
-2.5966
-1.64161
-1.80506
-0.861344
-4.04899
1.89775
1.85827
2.80968
4.47426
1.30078
-2.12113
-1.32691
-1.89361
-2.02222
-2.90815
-2.51033
-1.69732
-2.57021
-3.23952
-3.72733
19.6098
18.4612
-4.71947
-7.9357
-6.89919
-9.82594
-5.12564
-1.11065
-0.982877
-21.6164
-18.9891
3.93932
4.47896
4.77797
5.09674
3.63785
2.69768
3.35934
1.70045
3.6947
4.65655
4.06587
-1.66453
-3.35753
-1.14451
0.414578
1.24091
0.677379
1.22267
2.30771
-0.0115477
4.63671
-0.544215
-1.68956
-2.30016
-1.7017
-1.38134
-2.00651
-1.27838
-0.4105
-0.702493
-2.91324
-3.27847
-3.95621
-3.99644
-4.44436
-5.38599
-4.78282
0.013244
1.49601
4.93874
4.43207
5.16312
5.62176
5.51219
2.0681
1.86813
3.41241
4.68701
3.24236
-2.69226
-1.24312
-1.95424
-3.22715
-3.80638
4.39249
7.50134
9.08254
7.59853
-8.92125
-5.36267
-6.83586
-5.18838
-2.8358
-3.49614
-9.97399
6.0156
6.20595
6.68293
7.37673
6.43763
5.16516
5.26466
5.85049
7.756
-5.70165
-4.66058
-4.61264
-4.90723
-4.36706
-6.81729
-6.87461
-4.73121
-5.66538
-6.31581
-5.7286
-6.36437
-7.77858
6.78071
7.30635
-3.26391
-3.29111
-2.6516
-3.66503
-4.05535
-5.12107
-4.33066
-4.75651
-0.635786
-0.168008
-0.328919
-0.0691241
-0.928561
-0.0603674
-0.0674563
-0.551055
0.364353
0.168479
5.6865
8.97894
10.0414
5.98284
0.432501
-0.475072
3.49221
0.842859
0
0
0
0
0
0
0
0
0
0
0
0
0
0
0
0
0
0
0
0
0
0
0
0
0
0
0
0
0
0
0
0
0
0
0
0
0
0
0
0
0
0
0
0
0
0
0
0
0
0
0
0
0
0
0
0
0
0
0
0
0
0
0
0
0
0
0
0
0
0
0
0
0
0
0
0
0
0
0
0
0
0
0
0
0
0
0
0
0
0
0
0
0
0
0
0
0
0
0
0
0
0
0
0
0
0
0
0
0
0
0
0
0
0
0
0
0
0
0
0
0
0
0
0
0
0
0
0
0
0
0
0
0
0
0
0
0
0
0
0
0
0
0
0
0
0
0
0
0
0
0
0
0
0
0
0
0
0
0
0
0
0
0
0
0
0
0
0
0
0
0
0
0
0
0
0
0
0
0
0
0
0
0
0
0
0
0
0
0
0
0
0
0
0
0
0
0
0
0
0
0
0
0
0
0
0
0
0
0
0
0
0
0
0
0
0
0
0
0
0
0
0
0
0
0
0
0
0
0
0
0
0
0
0
0
0
0
0
0
0
0
0
0
0
0
0
0
0
0
0
0
0
0
0
0
0
0
0
0
0
0
0
0
0
0
0
0
0
0
0
0
0
0
0
0
0
0
0
0
0
0
0
0
0
0
0
0
0
0
0
0
0
0
0
0
0
0
0
0
0
0
0
0
0
0
0
0
0
0
0
0
0
0
0
0
0
0
0
0
0
0
0
0
0
0
0
0
0
0
0
0
0
0
0
0
0
0
0
0
0
0
0
0
0
0
0
0
0
0
0
0
0
0
0
0
0
0
0
0
0
0
0
0
0
0
0
0
0
0
0
0
0
0
0
0
0
0
0
0
0
0
0
0
0
0
0
0
0
0
0
0
0
0
0
0
0
0
0
0
0
0
0
0
0
0
0
0
0
0
0
0
0
0
0
0
0
0
0
0
0
0
0
0
0
0
0
0
0
0
0
0
0
0
0
0
0
0
0
0
0
0
0
0
0
0
0
0
0
0
0
0
0
0
0
0
0
0
0
0
0
0
0
0
0
0
0
0
0
0
0
0
0
0
0
0
0
0
0
0
0
0
0
0
0
0
0
0
0
0
0
0
0
0
0
0
0
0
0
0
0
0
0
0
0
0
0
0
0
0
0
0
0
0
0
0
0
0
0
0
0
0
0
0
0
0
0
0
0
0
0
0
0
0
0
0
0
0
0
0
0
0
0
0
0
0
0
0
0
0
0
0
0
0
0
0
0
0
0
0
0
0
0
0
0
0
0
0
0
0
0
0
0
0
0
0
0
0
0
0
0
0
0
0
0
0
0
0
0
0
0
0
0
0
0
0
0
0
0
0
0
0
0
0
0
0
0
0
0
0
0
0
0
0
0
0
0
0
0
0
0
0
0
0
0
0
0
0
0
0
0
0
0
0
0
0
0
0
0
0
0
0
0
0
0
0
0
0
0
0
0
0
0
0
0
0
0
0
0
0
0
0
0
0
0
0
0
0
0
0
0
0
0
0
0
0
0
0
0
0
0
0
0
0
0
0
0
0
0
0
0
0
0
0
0
0
0
0
0
0
0
0
0
0
0
0
0
0
0
0
0
0
0
0
0
0
0
0
0
0
0
0
0
0
0
0
0
0
0
0
0
0
0
0
0
0
0
0
0
0
0
0
0
0
0
0
0
0
0
0
0
0
0
0
0
0
0
0
0
0
0
0
0
0
0
0
0
0
0
0
0
0
0
0
0
0
0
0
0
0
0
0
0
0
0
0
0
0
0
0
0
0
0
0
0
0
0
0
0
0
0
0
0
0
0
0
0
0
0
0
0
0
0
0
0
0
0
0
0
0
0
0
0
0
0
0
0
0
0
0
0
0
0
0
0
0
0
0
0
0
0
0
0
0
0
0
0
0
0
0
0
0
0
0
0
0
0
0
0
0
0
0
0
0
0
0
0
0
0
0
0
0
0
0
0
0
0
0
0
0
0
0
0
0
0
0
0
0
0
0
0
0
0
0
0
0
0
0
0
0
0
0
0
0
0
0
0
0
0
0
0
0
0
0
0
0
0
0
0
0
0
0
0
0
0
0
0
0
0
0
0
0
0
0
0
0
0
0
0
0
0
0
0
0
0
0
0
0
0
0
0
0
0
0
0
0
0
0
0
0
0
0
0
0
0
0
0
0
0
0
0
0
0
0
0
0
0
0
0
0
0
0
0
0
0
0
0
0
0
0
0
0
0
0
0
0
0
0
0
0
0
0
0
0
0
0
0
0
0
0
0
0
0
0
0
0
0
0
0
0
0
0
0
0
0
0
0
0
0
0
0
0
0
0
0
0
0
0
0
0
0
0
0
0
0
0
0
0
0
0
0
0
0
0
0
0
0
0
0
0
0
0
0
0
0
0
0
0
0
0
0
0
0
0
0
0
0
0
0
0
0
0
0
0
0
0
0
0
0
0
0
0
0
0
0
0
0
0
0
0
0
0
0
0
0
0
0
0
0
0
0
0
0
0
0
0
0
0
0
0
0
0
0
0
0
0
0
0
0
0
0
0
0
0
0
0
0
0
0
0
0
0
0
0
0
0
0
0
0
0
0
0
0
0
0
0
0
0
0
0
0
0
0
0
0
0
0
0
0
0
0
0
0
0
0
0
0
0
0
0
0
0
0
0
0
0
0
0
0
0
0
0
0
0
0
0
0
0
0
0
0
0
0
0
0
0
0
0
0
0
0
0
0
0
0
0
0
0
0
0
0
0
0
0
0
0
0
0
0
0
0
0
0
0
0
0
0
0
0
0
0
0
0
0
0
0
0
0
0
0
0
0
0
0
0
0
0
0
0
0
0
0
0
0
0
0
0
0
0
0
0
0
0
0
0
0
0
0
0
0
0
0
0
0
0
0
0
0
0
0
0
0
0
0
0
0
0
0
0
0
0
0
0
0
0
0
0
0
0
0
0
0
0
0
0
0
0
0
0
0
0
0
0
0
0
0
0
0
0
0
0
0
0
0
0
0
0
0
0
0
0
0
0
0
0
0
0
0
0
0
0
0
0
0
0
0
0
0
0
0
0
0
0
0
0
0
0
0
0
0
0
0
0
0
0
0
0
0
0
0
0
0
0
0
0
0
0
0
0
0
0
0
0
0
0
0
0
0
0
0
0
0
0
0
0
0
0
0
0
0
0
0
0
0
0
0
0
0
0
0
0
0
0
0
0
0
0
0
0
0
0
0
0
0
0
0
0
0
0
0
0
0
0
0
0
0
0
0
0
0
0
0
0
0
0
0
0
0
0
0
0
0
0
0
0
0
0
0
0
0
0
0
0
0
0
0
0
0
0
0
0
0
0
0
0
0
0
0
0
0
0
0
0
0
0
0
0
0
0
0
0
0
0
0
0
0
0
0
0
0
0
0
0
0
0
0
0
0
0
0
0
0
0
0
0
0
0
0
0
0
0
0
0
0
0
0
0
0
0
0
0
0
0
0
0
0
0
0
0
0
0
0
0
0
0
0
0
0
0
0
0
0
0
0
0
0
0
0
0
0
0
0
0
0
0
0
0
0
0
0
0
0
0
0
0
0
0
0
0
0
0
0
0
0
0
0
0
0
0
0
0
0
0
0
0
0
0
0
0
0
0
0
0
0
0
0
0
0
0
0
0
0
0
0
0
0
0
0
0
0
0
0
0
0
0
0
0
0
0
0
0
0
0
0
0
0
0
0
0
0
0
0
0
0
0
0
0
0
0
0
0
0
0
0
0
0
0
0
0
0
0
0
0
0
0
0
0
0
0
0
0
0
0
0
0
0
0
0
0
0
0
0
0
0
0
0
0
0
0
0
0
0
0
0
0
0
0
0
0
0
0
0
0
0
0
0
0
0
0
0
0
0
0
0
0
0
0
0
0
0
0
0
0
0
0
0
0
0
0
0
0
0
0
0
0
0
0
0
0
0
0
0
0
0
0
0
0
0
0
0
0
0
0
0
0
0
0
0
0
0
0
0
0
0
0
0
0
0
0
0
0
0
0
0
0
0
0
0
0
0
0
0
0
0
0
0
0
0
0
0
0
0
0
0
0
0
0
0
0
0
0
0
0
0
0
0
0
0
0
0
0
0
0
0
0
0
0
0
0
0
0
0
0
0
0
0
0
0
0
0
0
0
0
0
0
0
0
0
0
0
0
0
0
0
0
0
0
0
0
0
0
0
0
0
0
0
0
0
0
0
0
0
0
0
0
0
0
0
0
0
0
0
0
0
0
0
0
0
0
0
0
0
0
0
0
0
0
0
0
0
0
0
0
0
0
0
0
0
0
0
0
0
0
0
0
0
0
0
0
0
0
0
0
0
0
0
0
0
0
0
0
0
0
0
0
0
0
0
0
0
0
0
0
0
0
0
0
0
0
0
0
0
0
0
0
0
0
0
0
0
0
0
0
0
0
0
0
0
0
0
0
0
0
0
0
0
0
0
0
0
0
0
0
0
0
0
0
0
0
0
0
0
0
0
0
0
0
0
0
0
0
0
0
0
0
0
0
0
0
0
0
0
0
0
0
0
0
0
0
0
0
0
0
0
0
0
0
0
0
0
0
0
0
0
0
0
0
0
0
0
0
0
0
0
0
0
0
0
0
0
0
0
0
0
0
0
0
0
0
0
0
0
0
0
0
0
0
0
0
0
0
0
0
0
0
0
0
0
0
0
0
0
0
0
0
0
0
0
0
0
0
0
0
0
0
0
0
0
0
0
0
0
0
0
0
0
0
0
0
0
0
0
0
0
0
0
0
0
0
0
0
0
0
0
0
0
0
0
0
0
0
0
0
0
0
0
0
0
0
0
0
0
0
0
0
0
0
0
0
0
0
0
0
0
0
0
0
0
0
0
0
0
0
0
0
0
0
0
0
0
0
0
0
0
0
0
0
0
0
0
0
0
0
0
0
0
0
0
0
0
0
0
0
0
0
0
0
0
0
0
0
0
0
0
0
0
0
0
0
0
0
0
0
0
0
0
0
0
0
0
0
0
0
0
0
0
0
0
0
0
0
0
0
0
0
0
0
0
0
0
0
0
0
0
0
0
0
0
0
0
0
0
0
0
0
0
0
0
0
0
0
0
0
0
0
0
0
0
0
0
0
0
0
0
0
0
0
0
0
0
0
0
0
0
0
0
0
0
0
      </DataArray> 
      <DataArray type="Float64" NumberOfComponents="1" Name="NormalFibers" format="ascii">
0
0
0
0
0
0
0
0
0
0
0
0
0
0
0
0
0
0
0
0
0
0
0
0
0
0
0
0
0
0
0
0
0
0
0
0
0
0
0
0
0
0
0
0
0
0
0
0
0
0
0
0
0
0
0
0
0
0
0
0
0
0
0
0
0
0
0
0
0
0
0
0
0
0
0
0
0
0
0
0
0
0
0
0
0
0
0
0
0
0
0
0
0
0
0
0
0
0
0
0
0
0
0
0
0
0
0
0
0
0
0
0
0
0
0
0
0
0
0
0
0
0
0
0
0
0
0
0
0
0
0
0
0
0
0
0
0
0
0
0
0
0
0
0
0
0
0
0
0
0
0
0
0
0
0
0
0
0
0
0
0
0
0
0
0
0
0
0
0
0
0
0
0
0
0
0
0
0
0
0
0
0
0
0
0
0
0
0
0
0
0
0
0
0
0
0
0
0
0
0
0
0
0
0
0
0
0
0
0
0
0
0
0
0
0
0
0
0
0
0
0
0
0
0
0
0
0
0
0
0
0
0
0
0
0
0
0
0
0
0
0
0
0
0
0
0
0
0
0
0
0
0
0
0
0
0
0
0
0
0
0
0
0
0
0
0
0
0
0
0
0
0
0
0
0
0
0
0
0
0
0
0
0
0
0
0
0
0
0
0
0
0
0
0
0
0
0
0
0
0
0
0
0
0
0
0
0
0
0
0
0
0
0
0
0
0
0
0
0
0
0
0
0
0
0
0
0
0
0
0
0
0
0
0
0
0
0
0
0
0
0
0
0
0
0
0
0
0
0
0
0
0
0
0
0
0
0
0
0
0
0
0
0
0
0
0
0
0
0
0
0
0
0
0
0
0
0
0
0
0
0
0
0
0
0
0
0
0
0
0
0
0
0
0
0
0
0
0
0
0
0
0
0
0
0
0
0
0
0
0
0
0
0
0
0
0
0
0
0
0
0
0
0
0
0
0
0
0
0
0
0
0
0
0
0
0
0
0
0
0
0
0
0
0
0
0
0
0
0
0
0
0
0
0
0
0
0
0
0
0
0
0
0
0
0
0
0
0
0
0
0
0
0
0
0
0
0
0
0
0
0
0
0
0
0
0
0
0
0
0
0
0
0
0
0
0
0
0
0
0
0
0
0
0
0
0
0
0
0
0
0
0
0
0
0
0
0
0
0
0
0
0
0
0
0
0
0
0
0
0
0
0
0
0
0
0
0
0
0
0
0
0
0
0
0
0
0
0
0
0
0
0
0
0
0
0
0
0
0
0
0
0
0
0
0
0
0
0
0
0
0
0
0
0
0
0
0
0
0
0
0
0
0
0
0
0
0
0
0
0
0
0
0
0
0
0
0
0
0
0
0
0
0
0
0
0
0
0
0
0
0
0
0
0
0
0
0
0
0
0
0
0
0
0
0
0
0
0
0
0
0
0
0
0
0
0
0
0
0
0
0
0
0
0
0
0
0
0
0
0
0
0
0
0
0
0
0
0
0
0
0
0
0
0
0
0
0
0
0
0
0
0
0
0
0
0
0
0
0
0
0
0
0
0
0
0
0
0
0
0
0
0
0
0
0
0
0
0
0
0
0
0
0
0
0
0
0
0
0
0
0
0
0
0
0
0
0
0
0
0
0
0
0
0
0
0
0
0
0
0
0
0
0
0
0
0
0
0
0
0
0
0
0
0
0
0
0
0
0
0
0
0
0
0
0
0
0
0
0
0
0
0
0
0
0
0
0
0
0
0
0
0
0
0
0
0
0
0
0
0
0
0
0
0
0
0
0
0
0
0
0
0
0
0
0
0
0
0
0
0
0
0
0
0
0
0
0
0
0
0
0
0
0
0
0
0
0
0
0
0
0
0
0
0
0
0
0
0
0
0
0
0
0
0
0
0
0
0
0
0
0
0
0
0
0
0
0
0
0
0
0
0
0
0
0
0
0
0
0
0
0
0
0
0
0
0
0
0
0
0
0
0
0
0
0
0
0
0
0
0
0
0
0
0
0
0
0
0
0
0
0
0
0
0
0
0
0
0
0
0
0
0
0
0
0
0
0
0
0
0
0
0
0
0
0
0
0
0
0
0
0
0
0
0
0
0
0
0
0
0
0
0
0
0
0
0
0
0
0
0
0
0
0
0
0
0
0
0
0
0
0
0
0
0
0
0
0
0
0
0
0
0
0
0
0
0
0
0
0
0
0
0
0
0
0
0
0
0
0
0
0
0
0
0
0
0
0
0
0
0
0
0
0
0
0
0
0
0
0
0
0
0
0
0
0
0
0
0
0
0
0
0
0
0
0
0
0
0
0
0
0
0
0
0
0
0
0
0
0
0
0
0
0
0
0
0
0
0
0
0
0
0
0
0
0
0
0
0
0
0
0
0
0
0
0
0
0
0
0
0
0
0
0
0
0
0
0
0
0
0
0
0
0
0
0
0
0
0
0
0
0
0
0
0
0
0
0
0
0
0
0
0
0
0
0
0
0
0
0
0
0
0
0
0
0
0
0
0
0
0
0
0
0
0
0
0
0
0
0
0
0
0
0
0
0
0
0
0
0
0
0
0
0
0
0
0
0
0
0
0
0
0
0
0
0
0
0
0
0
0
0
0
0
0
0
0
0
0
0
0
0
0
0
0
0
0
0
0
0
0
0
0
0
0
0
0
0
0
0
0
0
0
0
0
0
0
0
0
0
0
0
0
0
0
0
0
0
0
0
0.0084036
0.0084036
0.0460295
0.0460295
-0.147234
-0.147234
-0.0740975
-0.0740975
-0.00383894
-0.00383894
-0.069592
-0.069592
0.00423619
0.00423619
0.0326977
0.0326977
-0.183489
-0.183489
-0.0229338
-0.0229338
-0.0589878
-0.0589878
-0.0901393
-0.0901393
-0.157472
-0.157472
0.040485
0.040485
-0.0743929
-0.0743929
0.105069
0.105069
-0.0624655
-0.0624655
-0.00459436
-0.00459436
0.0612651
0.0612651
-0.0382119
-0.0382119
-0.0220122
-0.0220122
-0.0922629
-0.0922629
-0.361839
-0.361839
-0.0358011
-0.0358011
-0.0462002
-0.0462002
-0.032292
-0.032292
-0.0216975
-0.0216975
-0.00586696
-0.00586696
-0.180089
-0.180089
0.0154613
0.0154613
0.0143311
0.0143311
0.0170593
0.0170593
-0.243142
-0.243142
-0.0386086
-0.0386086
-0.271675
-0.271675
-0.0143615
-0.0143615
-0.0564623
-0.0564623
-0.0209937
-0.0209937
0.0126663
0.0126663
-0.0710468
-0.0710468
-0.0537968
-0.0537968
0.0883038
0.0883038
-0.0818926
-0.0818926
-0.0741305
-0.0741305
-0.259673
-0.259673
-0.0709692
-0.0709692
-0.0434495
-0.0434495
-0.0461495
-0.0461495
-0.0288259
-0.0288259
-0.0291254
-0.0291254
0.12942
0.12942
-0.0418262
-0.0418262
0.0238123
0.0238123
-0.213778
-0.213778
-0.00660566
-0.00660566
-0.0217838
-0.0217838
-0.107019
-0.107019
-0.134071
-0.134071
-0.00915823
-0.00915823
-0.0277305
-0.0277305
-0.103644
-0.103644
0.0762192
0.0762192
0.00106188
0.00106188
-0.10241
-0.10241
-0.0759987
-0.0759987
-0.075431
-0.075431
-0.0769661
-0.0769661
0.072073
0.072073
0.100512
0.100512
-0.167571
-0.167571
-0.114611
-0.114611
-0.0374817
-0.0374817
-0.277621
-0.277621
0.0675385
0.0675385
-0.140296
-0.140296
-0.000398403
-0.000398403
-0.0419989
-0.0419989
-0.00514245
-0.00514245
-0.105183
-0.105183
-0.0785957
-0.0785957
-0.180224
-0.180224
0.0170252
0.0170252
-0.0956703
-0.0956703
-0.254168
-0.254168
-0.159359
-0.159359
-0.128384
-0.128384
-0.0358488
-0.0358488
-0.0120449
-0.0120449
0.0367888
0.0367888
-0.00785607
-0.00785607
-0.036148
-0.036148
-0.00142277
-0.00142277
0.0663443
0.0663443
-0.13517
-0.13517
-0.214173
-0.214173
-0.0156951
-0.0156951
0.00996885
0.00996885
-0.0547174
-0.0547174
-0.335156
-0.335156
-0.0730896
-0.0730896
-0.00187013
-0.00187013
-0.0922334
-0.0922334
-0.0375416
-0.0375416
-0.0739231
-0.0739231
-0.0137178
-0.0137178
0.0131963
0.0131963
-0.251469
-0.251469
-0.0617622
-0.0617622
-0.0427342
-0.0427342
-0.0495086
-0.0495086
-0.156262
-0.156262
0.123984
0.123984
0.0810915
0.0810915
0.0184872
0.0184872
0.0618095
0.0618095
-0.0149373
-0.0149373
-0.00701269
-0.00701269
-0.108902
-0.108902
-0.172296
-0.172296
0.0179354
0.0179354
-0.00809438
-0.00809438
-0.0326688
-0.0326688
0.0190059
0.0190059
-0.0564745
-0.0564745
-0.0875636
-0.0875636
-0.201675
-0.201675
-0.00761677
-0.00761677
-0.00848555
-0.00848555
0.00520764
0.00520764
-0.259624
-0.259624
-0.132878
-0.132878
0.0443575
0.0443575
0.0065966
0.0065966
-0.0359808
-0.0359808
0.0753988
0.0753988
-0.0457892
-0.0457892
-0.00958798
-0.00958798
-0.0989658
-0.0989658
-0.113367
-0.113367
-0.0399729
-0.0399729
-0.0121275
-0.0121275
-0.0566145
-0.0566145
-0.0105139
-0.0105139
-0.0268333
-0.0268333
-0.0194266
-0.0194266
-0.0133282
-0.0133282
-0.0372814
-0.0372814
0.0213936
0.0213936
-0.0337551
-0.0337551
-0.111173
-0.111173
-0.0211547
-0.0211547
-0.0135406
-0.0135406
0.0307756
0.0307756
-0.214046
-0.214046
-0.184515
-0.184515
-0.509036
-0.509036
-0.250913
-0.250913
-0.19083
-0.19083
0.00326731
0.00326731
-0.0331664
-0.0331664
-0.0973152
-0.0973152
0.0686687
0.0686687
-0.0468576
-0.0468576
0.0488194
0.0488194
-0.00965364
-0.00965364
-0.0633116
-0.0633116
-0.104148
-0.104148
0.0361241
0.0361241
-0.0845642
-0.0845642
-0.0508107
-0.0508107
-0.038469
-0.038469
-0.121553
-0.121553
-0.116606
-0.116606
-0.0154519
-0.0154519
0.00738989
0.00738989
-0.071958
-0.071958
-0.0188444
-0.0188444
-0.0974746
-0.0974746
-0.0878152
-0.0878152
-0.118846
-0.118846
-0.015374
-0.015374
-0.0217368
-0.0217368
-0.00191421
-0.00191421
-0.226775
-0.226775
-0.127782
-0.127782
-0.258115
-0.258115
-0.0113277
-0.0113277
-0.0133655
-0.0133655
0.0467074
0.0467074
0.0220995
0.0220995
0.0520837
0.0520837
0.0915721
0.0915721
-0.0792517
-0.0792517
-0.0877727
-0.0877727
0.00475312
0.00475312
-0.0271776
-0.0271776
-0.00107925
-0.00107925
-0.0213337
-0.0213337
-0.0557202
-0.0557202
0.0262768
0.0262768
-0.0328608
-0.0328608
-0.172816
-0.172816
-0.0141508
-0.0141508
0.0596493
0.0596493
-0.0266867
-0.0266867
-0.345923
-0.345923
0.0586268
0.0586268
0.0153621
0.0153621
-0.0253272
-0.0253272
-0.130915
-0.130915
-0.0043623
-0.0043623
-0.0231671
-0.0231671
-0.14761
-0.14761
-0.0689961
-0.0689961
0.0579869
0.0579869
-0.0338604
-0.0338604
-0.066466
-0.066466
-0.165443
-0.165443
0.0975669
0.0975669
0.0969262
0.0969262
-0.00308653
-0.00308653
-0.202192
-0.202192
0.0224839
0.0224839
-0.0510864
-0.0510864
-0.078922
-0.078922
-0.0152475
-0.0152475
0.000594915
0.000594915
-0.0212512
-0.0212512
-0.159217
-0.159217
-0.0495723
-0.0495723
-0.0141483
-0.0141483
-0.0140188
-0.0140188
-0.0523543
-0.0523543
-0.206285
-0.206285
0.00609379
0.00609379
-0.0434462
-0.0434462
-0.0630007
-0.0630007
-0.26096
-0.26096
-0.183248
-0.183248
-0.159311
-0.159311
-0.0471525
-0.0471525
-0.0106344
-0.0106344
-0.0091763
-0.0091763
0.105878
0.105878
-0.00452934
-0.00452934
-0.021267
-0.021267
-0.0127292
-0.0127292
0.0953113
0.0953113
-0.186677
-0.186677
-0.0807577
-0.0807577
-0.0137178
-0.0137178
-0.248675
-0.248675
-0.252813
-0.252813
-0.00922746
-0.00922746
-0.280991
-0.280991
-0.00264097
-0.00264097
-0.163557
-0.163557
0.0497643
0.0497643
-0.0247132
-0.0247132
-0.00126166
-0.00126166
-0.0418986
-0.0418986
-0.379182
-0.379182
-0.0489113
-0.0489113
-0.0215014
-0.0215014
-0.0483854
-0.0483854
-0.169549
-0.169549
-0.0786301
-0.0786301
-0.078081
-0.078081
0.115514
0.115514
-0.015276
-0.015276
-0.191558
-0.191558
-0.022231
-0.022231
-0.00990306
-0.00990306
-0.25012
-0.25012
-0.034652
-0.034652
-0.201526
-0.201526
-0.024131
-0.024131
-0.00570742
-0.00570742
-0.100569
-0.100569
0.0375664
0.0375664
0.00261732
0.00261732
-0.059482
-0.059482
-0.0744103
-0.0744103
-0.0535299
-0.0535299
-0.0961977
-0.0961977
-0.230109
-0.230109
0.0739443
0.0739443
-0.202449
-0.202449
0.0108323
0.0108323
-0.237626
-0.237626
-0.0695065
-0.0695065
-0.0960434
-0.0960434
-0.0123243
-0.0123243
0.041751
0.041751
-0.272815
-0.272815
0.055049
0.055049
0.0209988
0.0209988
0.107597
0.107597
-0.229926
-0.229926
-0.0680416
-0.0680416
-0.00414723
-0.00414723
-0.121297
-0.121297
-0.170417
-0.170417
-0.0461443
-0.0461443
-0.20942
-0.20942
-0.0824886
-0.0824886
-0.0239852
-0.0239852
-0.0397234
-0.0397234
0.0435339
0.0435339
-0.188947
-0.188947
0.0732092
0.0732092
-0.060596
-0.060596
0.00126341
0.00126341
-0.0754956
-0.0754956
0.0110582
0.0110582
0.040243
0.040243
-0.0695254
-0.0695254
-0.114242
-0.114242
-0.173951
-0.173951
0.0104416
0.0104416
-0.254961
-0.254961
0.0497318
0.0497318
-0.0332721
-0.0332721
-0.101306
-0.101306
-0.162678
-0.162678
-0.223438
-0.223438
-0.206824
-0.206824
-0.0279361
-0.0279361
-0.0988783
-0.0988783
-0.00132231
-0.00132231
-0.015381
-0.015381
-0.279337
-0.279337
-0.0285706
-0.0285706
0.0896374
0.0896374
0.042067
0.042067
-0.033017
-0.033017
-0.00231337
-0.00231337
0.0021023
0.0021023
-8.81552e-05
-8.81552e-05
-0.0799153
-0.0799153
-0.0764948
-0.0764948
0.0192105
0.0192105
-0.0140426
-0.0140426
-0.115273
-0.115273
0.0261479
0.0261479
-0.0625029
-0.0625029
-0.0396378
-0.0396378
-0.0475856
-0.0475856
-0.0213201
-0.0213201
-0.0197315
-0.0197315
-0.14289
-0.14289
-0.0145676
-0.0145676
0.00919512
0.00919512
-0.00776375
-0.00776375
0.0997098
0.0997098
-0.116398
-0.116398
-0.093455
-0.093455
-0.0833048
-0.0833048
-0.0953511
-0.0953511
-0.0340923
-0.0340923
-0.144301
-0.144301
-0.156481
-0.156481
-0.0740297
-0.0740297
-0.304604
-0.304604
0.0486472
0.0486472
-0.0212228
-0.0212228
-0.0155188
-0.0155188
0.0984395
0.0984395
0.0501563
0.0501563
-0.0139539
-0.0139539
-0.000942778
-0.000942778
-0.0271189
-0.0271189
-0.0290778
-0.0290778
-0.115372
-0.115372
-0.0764515
-0.0764515
-0.077606
-0.077606
-0.0698528
-0.0698528
-0.102894
-0.102894
-0.02402
-0.02402
0.0260362
0.0260362
0.0737123
0.0737123
-0.0487085
-0.0487085
-0.0737993
-0.0737993
-0.0301747
-0.0301747
-0.44219
-0.44219
0.0128756
0.0128756
0.0470851
0.0470851
-0.231476
-0.231476
0.0560392
0.0560392
-0.035981
-0.035981
0.0310899
0.0310899
-0.399517
-0.399517
-0.0494811
-0.0494811
0.0440629
0.0440629
-0.288595
-0.288595
-0.134697
-0.134697
-0.0741763
-0.0741763
-0.286775
-0.286775
-0.0278769
-0.0278769
-0.0269443
-0.0269443
-0.0942863
-0.0942863
-0.398284
-0.398284
-0.0985069
-0.0985069
-0.0124533
-0.0124533
-0.0312943
-0.0312943
0.00730125
0.00730125
-0.197599
-0.197599
-0.104516
-0.104516
0.0166561
0.0166561
-0.0889311
-0.0889311
-0.0347058
-0.0347058
-0.0322253
-0.0322253
-0.150042
-0.150042
-0.162937
-0.162937
-0.232382
-0.232382
-0.00355281
-0.00355281
-0.0524922
-0.0524922
-0.0909262
-0.0909262
-0.048733
-0.048733
-0.0571044
-0.0571044
0.00576935
0.00576935
-0.0772531
-0.0772531
0.0314122
0.0314122
-0.0563555
-0.0563555
-0.0438628
-0.0438628
-0.0179941
-0.0179941
0.0556783
0.0556783
-0.125986
-0.125986
-0.161747
-0.161747
-0.0160557
-0.0160557
-0.183589
-0.183589
-0.0433457
-0.0433457
-0.287652
-0.287652
-0.476629
-0.476629
0.0287295
0.0287295
0.0538356
0.0538356
0.028039
0.028039
-0.114202
-0.114202
0.00132742
0.00132742
-0.00635921
-0.00635921
-0.195562
-0.195562
-0.0128549
-0.0128549
-0.0149843
-0.0149843
0.00781107
0.00781107
-0.00944774
-0.00944774
-0.114364
-0.114364
-0.31684
-0.31684
-0.00660358
-0.00660358
-0.000642642
-0.000642642
-0.0333076
-0.0333076
-0.0359269
-0.0359269
-0.238335
-0.238335
-0.0117694
-0.0117694
-0.181452
-0.181452
0.0093716
0.0093716
-0.0845195
-0.0845195
-0.0559265
-0.0559265
0.0326732
0.0326732
-0.0485367
-0.0485367
0.0192955
0.0192955
0.0163988
0.0163988
-0.044177
-0.044177
-0.00903648
-0.00903648
-0.0608768
-0.0608768
-0.0667364
-0.0667364
-0.0208555
-0.0208555
0.0548545
0.0548545
-0.0494508
-0.0494508
-0.0786406
-0.0786406
0.0534883
0.0534883
-0.0112514
-0.0112514
-0.140687
-0.140687
-0.00578156
-0.00578156
-0.0908902
-0.0908902
-0.272042
-0.272042
-0.0354215
-0.0354215
-0.0678866
-0.0678866
-0.118362
-0.118362
0.0804491
0.0804491
0.0301526
0.0301526
-0.0654251
-0.0654251
0.0200607
0.0200607
-0.00852882
-0.00852882
-0.0739375
-0.0739375
-0.0623888
-0.0623888
-0.0589608
-0.0589608
-0.0145117
-0.0145117
0.000509636
0.000509636
-0.0530158
-0.0530158
-0.0555726
-0.0555726
-0.0188031
-0.0188031
-0.0372245
-0.0372245
-0.39475
-0.39475
-0.0132742
-0.0132742
-0.0472893
-0.0472893
-0.0604297
-0.0604297
-0.0261975
-0.0261975
0.0290139
0.0290139
-0.034306
-0.034306
-0.0573565
-0.0573565
0.0268104
0.0268104
0.00933339
0.00933339
-0.092933
-0.092933
-0.0699691
-0.0699691
-0.17798
-0.17798
-0.0279261
-0.0279261
0.00710042
0.00710042
-0.023205
-0.023205
-0.0187583
-0.0187583
-0.107332
-0.107332
-0.0130307
-0.0130307
-0.037617
-0.037617
-0.0354739
-0.0354739
-0.201735
-0.201735
-0.0226802
-0.0226802
-0.0227914
-0.0227914
-0.0535979
-0.0535979
-0.168324
-0.168324
-0.00525942
-0.00525942
-0.189804
-0.189804
-0.00583374
-0.00583374
-0.244663
-0.244663
-0.202667
-0.202667
-0.000385401
-0.000385401
0.0508059
0.0508059
0.0161225
0.0161225
-0.14919
-0.14919
-0.00453684
-0.00453684
-0.045776
-0.045776
-0.231308
-0.231308
0.0656508
0.0656508
-0.147262
-0.147262
-0.0522248
-0.0522248
-0.137628
-0.137628
-0.192609
-0.192609
0.083755
0.083755
-0.0300936
-0.0300936
-0.0766905
-0.0766905
-0.0171082
-0.0171082
-0.0825845
-0.0825845
-0.0189686
-0.0189686
-0.0253618
-0.0253618
-0.0524713
-0.0524713
-0.140903
-0.140903
-0.0919555
-0.0919555
0.00922182
0.00922182
-0.156954
-0.156954
-0.0667589
-0.0667589
-0.0787652
-0.0787652
-0.121255
-0.121255
-0.154144
-0.154144
-0.0961563
-0.0961563
0.0316595
0.0316595
-0.357594
-0.357594
0.0185807
0.0185807
-0.090111
-0.090111
-0.0406781
-0.0406781
-0.224007
-0.224007
-0.130314
-0.130314
0.0674823
0.0674823
-0.115851
-0.115851
-0.170221
-0.170221
-0.0508661
-0.0508661
-0.147788
-0.147788
-0.238895
-0.238895
0.0734069
0.0734069
-0.0546151
-0.0546151
-0.00053034
-0.00053034
-0.0183685
-0.0183685
-0.205537
-0.205537
-0.197452
-0.197452
-0.0100283
-0.0100283
-0.0589433
-0.0589433
0.0375364
0.0375364
-0.142788
-0.142788
-0.00999202
-0.00999202
-0.323876
-0.323876
-0.233673
-0.233673
-0.0354099
-0.0354099
-0.0361073
-0.0361073
-0.195037
-0.195037
-0.077484
-0.077484
0.116237
0.116237
-0.165048
-0.165048
0.108357
0.108357
-0.044788
-0.044788
-0.0423127
-0.0423127
-0.188679
-0.188679
-0.0252396
-0.0252396
-0.00684293
-0.00684293
-0.0379205
-0.0379205
-0.0545752
-0.0545752
-0.0443456
-0.0443456
-0.0446928
-0.0446928
0.00178171
0.00178171
-0.0285646
-0.0285646
-0.118729
-0.118729
-0.0385449
-0.0385449
-0.0493137
-0.0493137
-0.0338563
-0.0338563
-0.0160678
-0.0160678
-0.0590359
-0.0590359
0.0210133
0.0210133
-0.0397717
-0.0397717
0.00680704
0.00680704
-0.0236419
-0.0236419
-0.259781
-0.259781
-0.0478856
-0.0478856
-0.0759892
-0.0759892
0.0428056
0.0428056
-0.021632
-0.021632
0.0153776
0.0153776
-0.0424313
-0.0424313
-0.2076
-0.2076
-0.0151523
-0.0151523
-0.173216
-0.173216
-0.0377291
-0.0377291
-0.00756758
-0.00756758
-0.0453148
-0.0453148
-0.0443473
-0.0443473
-0.0427582
-0.0427582
-0.0569055
-0.0569055
-0.0893599
-0.0893599
0.0877314
0.0877314
0.00286087
0.00286087
-0.00739616
-0.00739616
-0.0892
-0.0892
0.0536197
0.0536197
-0.024568
-0.024568
-0.0137311
-0.0137311
-0.0491674
-0.0491674
-0.0417367
-0.0417367
-0.00701078
-0.00701078
-0.0308423
-0.0308423
-0.00112386
-0.00112386
-0.0166594
-0.0166594
-0.0604623
-0.0604623
0.011536
0.011536
-0.111873
-0.111873
-0.0551133
-0.0551133
0.112237
0.112237
-0.0147086
-0.0147086
0.0352441
0.0352441
-0.0352269
-0.0352269
-0.306301
-0.306301
-0.258957
-0.258957
-0.110154
-0.110154
0.0678519
0.0678519
-0.171192
-0.171192
-0.00404921
-0.00404921
-0.0185877
-0.0185877
-0.0205307
-0.0205307
-0.00576158
-0.00576158
-0.0461222
-0.0461222
-0.0581053
-0.0581053
-0.0174329
-0.0174329
-0.0835508
-0.0835508
-0.383245
-0.383245
-0.0289293
-0.0289293
-0.0450232
-0.0450232
-0.0298183
-0.0298183
-0.103588
-0.103588
0.0323679
0.0323679
-0.171242
-0.171242
-0.00830019
-0.00830019
0.0498413
0.0498413
-0.00855792
-0.00855792
-0.0208913
-0.0208913
-0.267125
-0.267125
-0.266763
-0.266763
-0.232907
-0.232907
-0.00408491
-0.00408491
0.0109361
0.0109361
-0.0507554
-0.0507554
-0.0115334
-0.0115334
-0.0177011
-0.0177011
-0.0207188
-0.0207188
-0.00972965
-0.00972965
0.0635262
0.0635262
-0.286288
-0.286288
-0.0171419
-0.0171419
-0.00189591
-0.00189591
-0.00966815
-0.00966815
-0.0245019
-0.0245019
-0.0141438
-0.0141438
0.0218945
0.0218945
-0.160119
-0.160119
-0.0338581
-0.0338581
-0.0897911
-0.0897911
-0.173623
-0.173623
-0.0589202
-0.0589202
-0.232552
-0.232552
-0.0777187
-0.0777187
-0.0739231
-0.0739231
-0.00578892
-0.00578892
-0.0274484
-0.0274484
0.0621801
0.0621801
0.0905597
0.0905597
-0.0189059
-0.0189059
-0.00993617
-0.00993617
0.0201285
0.0201285
-0.120504
-0.120504
-0.0113699
-0.0113699
0.044968
0.044968
-0.0444421
-0.0444421
-0.000414834
-0.000414834
-0.0169581
-0.0169581
-0.0240236
-0.0240236
-0.222498
-0.222498
0.0893348
0.0893348
-0.0117353
-0.0117353
-0.082339
-0.082339
-0.122188
-0.122188
-0.134758
-0.134758
-0.0174588
-0.0174588
-0.0106819
-0.0106819
-0.165238
-0.165238
0.0230277
0.0230277
-0.220641
-0.220641
-0.289253
-0.289253
0.0227666
0.0227666
-0.0184509
-0.0184509
-0.204916
-0.204916
-0.0391532
-0.0391532
-0.0519464
-0.0519464
-0.0858428
-0.0858428
-0.0275245
-0.0275245
0.047211
0.047211
-0.192389
-0.192389
-0.0745867
-0.0745867
0.0297612
0.0297612
-0.167727
-0.167727
-0.0451557
-0.0451557
-0.038644
-0.038644
-0.0169816
-0.0169816
-0.0144717
-0.0144717
-0.0542552
-0.0542552
-0.0994263
-0.0994263
-0.019105
-0.019105
0.0509741
0.0509741
-0.469996
-0.469996
0.00615038
0.00615038
-0.0237074
-0.0237074
-0.0676996
-0.0676996
0.0294931
0.0294931
-0.0651921
-0.0651921
-0.0315513
-0.0315513
-0.0447144
-0.0447144
-0.00608054
-0.00608054
0.0137892
0.0137892
0.00879218
0.00879218
0.0164573
0.0164573
-0.235717
-0.235717
-0.0646183
-0.0646183
0.0090789
0.0090789
0.0624473
0.0624473
0.0127825
0.0127825
0.0593512
0.0593512
-0.0286117
-0.0286117
0.0145323
0.0145323
-0.0296342
-0.0296342
-0.0323988
-0.0323988
-0.402388
-0.402388
0.0221757
0.0221757
-0.337715
-0.337715
0.056981
0.056981
0.0038259
0.0038259
-0.06261
-0.06261
-0.0339088
-0.0339088
-0.107719
-0.107719
-0.121639
-0.121639
-0.0394927
-0.0394927
-0.00510311
-0.00510311
0.0618241
0.0618241
-0.141913
-0.141913
-0.0364888
-0.0364888
-0.0305323
-0.0305323
0.0854385
0.0854385
0.00173776
0.00173776
-0.00783514
-0.00783514
0.00117708
0.00117708
-0.0134766
-0.0134766
-0.0892469
-0.0892469
-0.19068
-0.19068
-0.219232
-0.219232
-0.0329111
-0.0329111
0.0458479
0.0458479
-0.222754
-0.222754
-0.0866501
-0.0866501
0.0832747
0.0832747
-0.0102643
-0.0102643
0.00188569
0.00188569
-0.0617146
-0.0617146
-0.0503964
-0.0503964
-0.013875
-0.013875
-0.213194
-0.213194
0.129653
0.129653
-0.15222
-0.15222
-0.0139351
-0.0139351
-0.0653717
-0.0653717
-0.280363
-0.280363
0.011694
0.011694
-0.0537634
-0.0537634
-0.24546
-0.24546
0.0925199
0.0925199
-0.00664928
-0.00664928
0.013111
0.013111
-0.0388672
-0.0388672
0.0523291
0.0523291
-0.00348622
-0.00348622
-0.0103079
-0.0103079
-0.0723827
-0.0723827
-0.117894
-0.117894
-0.360852
-0.360852
-0.28095
-0.28095
0.0334615
0.0334615
-0.266424
-0.266424
-0.0514127
-0.0514127
-0.0255441
-0.0255441
0.00333647
0.00333647
-0.083451
-0.083451
0.0197431
0.0197431
-0.010322
-0.010322
0.0174081
0.0174081
-0.00908373
-0.00908373
0.000424481
0.000424481
-0.0727402
-0.0727402
-0.0440485
-0.0440485
-0.00947323
-0.00947323
-0.142466
-0.142466
0.00673617
0.00673617
-0.0539085
-0.0539085
-0.0623946
-0.0623946
0.0455579
0.0455579
-0.0718178
-0.0718178
-0.0332603
-0.0332603
0.0716749
0.0716749
0.0184931
0.0184931
0.0664399
0.0664399
-0.0864347
-0.0864347
-0.00350168
-0.00350168
-0.179815
-0.179815
-0.0549307
-0.0549307
-0.267613
-0.267613
-0.145971
-0.145971
-0.267957
-0.267957
-0.0212718
-0.0212718
-0.185853
-0.185853
0.00642328
0.00642328
-0.0490191
-0.0490191
-0.23508
-0.23508
-0.267943
-0.267943
0.0398572
0.0398572
-0.053444
-0.053444
0.0492828
0.0492828
0.0638335
0.0638335
-0.0983863
-0.0983863
-0.249985
-0.249985
-0.00857321
-0.00857321
0.0217014
0.0217014
0.0161559
0.0161559
0.0481709
0.0481709
-0.132654
-0.132654
-0.0490598
-0.0490598
0.00540832
0.00540832
-0.0495922
-0.0495922
-0.0548273
-0.0548273
-0.0681084
-0.0681084
0.0267071
0.0267071
-0.147668
-0.147668
-0.0178009
-0.0178009
-0.0158496
-0.0158496
-0.0329156
-0.0329156
-0.0481142
-0.0481142
-0.0138147
-0.0138147
-0.162129
-0.162129
-0.230868
-0.230868
-0.0350941
-0.0350941
-0.00806498
-0.00806498
-0.0520698
-0.0520698
0.0107455
0.0107455
-0.239019
-0.239019
-0.00326801
-0.00326801
0.0674241
0.0674241
-0.290537
-0.290537
-0.00574328
-0.00574328
-0.0740534
-0.0740534
-0.0817981
-0.0817981
-0.178947
-0.178947
-0.0411101
-0.0411101
-0.0447881
-0.0447881
-0.00579486
-0.00579486
-0.205124
-0.205124
-0.0519081
-0.0519081
-0.137885
-0.137885
0.00524744
0.00524744
-0.0200718
-0.0200718
0.0236828
0.0236828
0.0341816
0.0341816
-0.0979237
-0.0979237
0.00662662
0.00662662
0.00751701
0.00751701
0.00521473
0.00521473
0.00154343
0.00154343
-0.00881507
-0.00881507
-0.0567423
-0.0567423
-0.0573045
-0.0573045
-0.120149
-0.120149
-0.0182849
-0.0182849
0.0553236
0.0553236
-0.0628556
-0.0628556
-0.186884
-0.186884
0.0421506
0.0421506
-0.061628
-0.061628
-0.0205055
-0.0205055
-0.0569584
-0.0569584
-0.0418656
-0.0418656
-0.0335713
-0.0335713
-0.0181345
-0.0181345
-0.155887
-0.155887
-0.0207529
-0.0207529
-0.0336899
-0.0336899
-0.0328871
-0.0328871
-0.194472
-0.194472
-0.316364
-0.316364
-0.0405948
-0.0405948
-0.0208719
-0.0208719
-0.200491
-0.200491
-0.0456773
-0.0456773
-0.0201264
-0.0201264
-0.130417
-0.130417
-0.140058
-0.140058
-0.0582214
-0.0582214
-0.0132794
-0.0132794
-0.109964
-0.109964
0.0185123
0.0185123
0.0378129
0.0378129
0.00364553
0.00364553
-0.0115919
-0.0115919
-0.0387544
-0.0387544
0.0376686
0.0376686
0.0991315
0.0991315
-0.201281
-0.201281
-0.0280192
-0.0280192
-0.039049
-0.039049
-0.0856199
-0.0856199
-0.0615588
-0.0615588
0.022872
0.022872
-0.0710439
-0.0710439
0.0379927
0.0379927
-0.164328
-0.164328
-0.233425
-0.233425
0.111041
0.111041
-0.187706
-0.187706
-0.226673
-0.226673
-0.149472
-0.149472
-0.0792147
-0.0792147
-0.0290163
-0.0290163
-0.0295021
-0.0295021
-0.11378
-0.11378
-0.0792505
-0.0792505
0.00229062
0.00229062
-0.0268858
-0.0268858
-0.0121362
-0.0121362
0.0253411
0.0253411
-0.0745756
-0.0745756
-0.164644
-0.164644
-0.344729
-0.344729
-0.237734
-0.237734
-0.133786
-0.133786
-0.0919792
-0.0919792
-0.408342
-0.408342
-0.019176
-0.019176
-0.176492
-0.176492
0.0417769
0.0417769
-0.00583486
-0.00583486
-0.237483
-0.237483
-0.0786415
-0.0786415
-0.0681227
-0.0681227
-0.182002
-0.182002
-0.0148254
-0.0148254
-0.0252265
-0.0252265
-0.014969
-0.014969
-0.0353831
-0.0353831
-0.178951
-0.178951
-0.022435
-0.022435
-0.0176515
-0.0176515
-0.0159443
-0.0159443
-0.00346976
-0.00346976
-0.134111
-0.134111
-0.00788009
-0.00788009
-0.245274
-0.245274
-0.404109
-0.404109
-0.041381
-0.041381
0.0345099
0.0345099
-0.074233
-0.074233
-0.0769702
-0.0769702
-0.0282946
-0.0282946
-0.101661
-0.101661
0.0192882
0.0192882
-0.0185904
-0.0185904
-0.0140508
-0.0140508
-0.0114032
-0.0114032
-0.00989993
-0.00989993
-0.00774658
-0.00774658
-0.0060923
-0.0060923
-0.00450629
-0.00450629
-0.00307053
-0.00307053
-0.00187697
-0.00187697
-0.000675926
-0.000675926
0.000332268
0.000332268
0.00122814
0.00122814
0.00209885
0.00209885
0.00263909
0.00263909
0.00313236
0.00313236
0.00359119
0.00359119
0.00376341
0.00376341
0.0039215
0.0039215
0.00382833
0.00382833
0.00380338
0.00380338
0.00346113
0.00346113
0.00294533
0.00294533
0.00255995
0.00255995
0.00185117
0.00185117
0.00107128
0.00107128
-1.37645e-05
-1.37645e-05
-0.000926231
-0.000926231
-0.00191383
-0.00191383
-0.0034847
-0.0034847
-0.00475364
-0.00475364
-0.00704687
-0.00704687
-0.00835378
-0.00835378
-0.00977386
-0.00977386
-0.0131478
-0.0131478
-0.0156961
-0.0156961
-0.0165952
-0.0165952
-0.0196808
-0.0196808
-0.0255222
-0.0255222
-0.0280574
-0.0280574
-0.0309848
-0.0309848
-0.0383839
-0.0383839
-0.0453947
-0.0453947
-0.0534607
-0.0534607
-0.0649026
-0.0649026
-0.0847346
-0.0847346
-0.103976
-0.103976
-0.143919
-0.143919
-0.170326
-0.170326
-0.0825428
-0.0825428
0.0108781
0.0108781
-0.0245657
-0.0245657
-0.0365006
-0.0365006
-0.0294486
-0.0294486
-0.0295639
-0.0295639
-0.0277018
-0.0277018
-0.0373415
-0.0373415
-0.0532591
-0.0532591
-0.0627994
-0.0627994
-0.0728928
-0.0728928
-0.0824814
-0.0824814
-0.0891634
-0.0891634
-0.0906808
-0.0906808
-0.0881823
-0.0881823
-0.0835637
-0.0835637
-0.0765918
-0.0765918
-0.0681207
-0.0681207
-0.0585619
-0.0585619
-0.0497498
-0.0497498
-0.0412331
-0.0412331
-0.0346284
-0.0346284
-0.0317709
-0.0317709
-0.0289407
-0.0289407
-0.016518
-0.016518
-0.0153481
-0.0153481
-0.013274
-0.013274
-0.0100847
-0.0100847
-0.00836923
-0.00836923
-0.00720525
-0.00720525
-0.00473946
-0.00473946
-0.00366691
-0.00366691
-0.00190044
-0.00190044
-0.000903436
-0.000903436
-8.7521e-06
-8.7521e-06
0.00111368
0.00111368
0.0018476
0.0018476
0.00254327
0.00254327
0.002905
0.002905
0.00353676
0.00353676
0.0036883
0.0036883
0.00381658
0.00381658
0.00373156
0.00373156
0.00385352
0.00385352
0.00353929
0.00353929
0.00309923
0.00309923
0.00271178
0.00271178
0.00197073
0.00197073
0.00125948
0.00125948
0.000362082
0.000362082
-0.000712381
-0.000712381
-0.00180554
-0.00180554
-0.00314958
-0.00314958
-0.00457354
-0.00457354
-0.00624287
-0.00624287
-0.00782319
-0.00782319
-0.00968219
-0.00968219
-0.0116328
-0.0116328
-0.0142674
-0.0142674
-0.0189094
-0.0189094
-0.0284055
-0.0284055
-0.0318705
-0.0318705
-0.0346698
-0.0346698
-0.0413892
-0.0413892
-0.0497325
-0.0497325
-0.0591364
-0.0591364
-0.0690793
-0.0690793
-0.0774792
-0.0774792
-0.084576
-0.084576
-0.0891725
-0.0891725
-0.0908906
-0.0908906
-0.0891279
-0.0891279
-0.0838715
-0.0838715
-0.0720084
-0.0720084
-0.0598092
-0.0598092
-0.0473665
-0.0473665
-0.0383758
-0.0383758
-0.0333217
-0.0333217
-0.0260526
-0.0260526
-0.0269179
-0.0269179
-0.0289134
-0.0289134
-0.023359
-0.023359
-0.00688359
-0.00688359
-0.0688102
-0.0688102
-0.158614
-0.158614
-0.156109
-0.156109
-0.113771
-0.113771
-0.080298
-0.080298
-0.0682795
-0.0682795
-0.0510936
-0.0510936
-0.0444768
-0.0444768
-0.0401729
-0.0401729
-0.0319197
-0.0319197
-0.026844
-0.026844
-0.0251563
-0.0251563
-0.0211321
-0.0211321
      </DataArray> 
    </PointData>
    <CellData>
    </CellData>
  </Piece>
  </UnstructuredGrid>
</VTKFile>
