<?xml version="1.0"?>
<VTKFile type="UnstructuredGrid">
  <UnstructuredGrid>
  <Piece NumberOfPoints="3487"  NumberOfCells="1698">
    <Points>
      <DataArray type="Float64" NumberOfComponents="3" format="ascii">
39.9723 48.4753 0
60.0285 48.474 0
40.6338 48.6063 0
41.2966 48.7285 0
41.9605 48.8416 0
42.6257 48.9457 0
43.2921 49.0407 0
43.9597 49.1267 0
44.6283 49.2037 0
45.2978 49.2716 0
45.9682 49.3304 0
46.6392 49.3802 0
47.3108 49.421 0
47.9829 49.4527 0
48.6553 49.4753 0
49.3279 49.4888 0
50.0007 49.4933 0
50.6735 49.4887 0
51.3461 49.4751 0
52.0185 49.4524 0
52.6905 49.4206 0
53.3621 49.3798 0
54.0331 49.3299 0
54.7034 49.2709 0
55.3729 49.2029 0
56.0415 49.1259 0
56.709 49.0398 0
57.3754 48.9447 0
58.0405 48.8406 0
58.7044 48.7274 0
59.367 48.6051 0
39.9906 49.4919 0
39.9907 49.2378 0
39.9876 48.9837 0
39.9814 48.7296 0
19.8521 69.3544 0
39.9872 49.7535 0
39.9804 50.0151 0
39.9645 50.3935 0
39.9414 50.7714 0
39.8952 51.3174 0
39.8341 51.862 0
39.7192 52.6466 0
39.5731 53.426 0
39.3072 54.542 0
38.9775 55.6412 0
38.6998 56.4237 0
38.3898 57.194 0
38.0481 57.9508 0
37.6751 58.6928 0
37.0816 59.7375 0
36.4264 60.7448 0
35.7119 61.7108 0
-0.0758295 49.2819 0
17.2428 69.1701 0
14.6797 68.6479 0
12.2064 67.7968 0
9.8648 66.6309 0
7.69501 65.1701 0
11.5947 31.45 0
0.136935 46.464 0
0.747568 43.7053 0
1.74434 41.0615 0
0 0 0
0.103712 3.69711 0
0.506183 7.38459 0
1.19692 11.0347 0
2.17009 14.619 0
3.0828 17.256 0
49.9996 -0.486489 0
5.1116 0 0
10.2232 0 0
15.3348 0 0
100 0 0
57.4168 -0.471396 0
64.834 -0.416253 0
72.2407 -0.300189 0
88.4064 31.4488 0
99.8964 3.69713 0
99.4941 7.38434 0
98.8033 11.0344 0
97.8302 14.6186 0
96.9175 17.2556 0
100.076 49.2814 0
99.8633 46.4635 0
99.2527 43.7048 0
98.2559 41.0609 0
80.1478 69.3535 0
99.9153 51.8917 0
99.414 54.4588 0
98.5812 56.938 0
97.4313 59.2875 0
95.9847 61.4665 0
60.0099 49.4906 0
77.6366 69.2091 0
75.1632 68.7516 0
72.7665 67.9882 0
70.4841 66.9308 0
68.9929 66.0369 0
67.5847 65.0171 0
66.2702 63.879 0
65.0595 62.6311 0
64.2882 61.7097 0
63.5737 60.7436 0
62.9185 59.7363 0
62.3251 58.6915 0
61.6104 57.1929 0
61.0228 55.64 0
60.6931 54.5409 0
60.4272 53.4247 0
60.2812 52.6453 0
60.0098 49.2365 0
60.013 48.9824 0
60.0193 48.7282 0
52.8125 29.7544 0
26.5583 36.5785 0
40.3557 23.8925 0
24.9754 22.2203 0
71.8949 22.2325 0
72.6993 43.6107 0
54.7913 23.7087 0
15.2741 47.0259 0
38.3553 49.099 0
23.5164 64.8431 0
7.67098 7.69618 0
91.9702 7.6737 0
29.1196 56.5191 0
37.1672 51.5654 0
28.0834 46.8481 0
29.7205 47.81 0
71.5182 46.3343 0
30.9766 48.709 0
70.5224 47.8105 0
31.6394 45.3044 0
30.885 46.7554 0
70.0657 46.3252 0
68.9784 44.6546 0
31.2768 49.8026 0
30.8839 51.0224 0
28.1746 48.8001 0
45.3135 40.9534 0
53.8397 40.5742 0
56.0207 40.1231 0
73.1354 47.0843 0
70.1269 49.0491 0
68.3198 42.0903 0
32.3232 42.421 0
26.135 45.3315 0
27.6806 44.3411 0
30.3143 42.976 0
70.4016 42.2871 0
72.6783 45.6003 0
44.8534 42.7453 0
51.4295 41.6519 0
55.4052 42.2378 0
32.4415 48.748 0
68.567 49.288 0
39.487 41.7357 0
35.4495 43.0477 0
32.8956 46.2028 0
33.5725 47.949 0
67.1091 47.892 0
67.9822 46.1311 0
65.0625 42.7102 0
60.4091 41.3729 0
32.3489 51.0624 0
28.195 50.6546 0
41.7908 36.9617 0
46.8283 37.3654 0
52.0467 39.5371 0
58.667 38.9068 0
26.5781 51.5454 0
24.276 49.9778 0
74.2475 49.5886 0
71.1846 50.2957 0
69.1663 51.8777 0
67.9405 52.0141 0
59.7471 36.0289 0
66.487 40.3407 0
34.1228 40.7174 0
36.0474 35.4632 0
23.1712 46.8153 0
21.648 42.9306 0
28.3667 41.4616 0
74.3162 44.3613 0
76.6549 48.1939 0
43.0594 43.333 0
46.2719 42.6191 0
49.9683 42.6668 0
48.4343 42.4498 0
51.7622 43.704 0
54.0859 43.8196 0
52.9046 44.1152 0
56.2684 43.3682 0
33.873 49.0433 0
33.7675 50.5545 0
66.556 51.3673 0
66.6063 49.3789 0
41.8377 43.5701 0
40.7096 43.3074 0
38.4693 42.9135 0
37.1504 43.517 0
35.3509 45.2208 0
34.3268 46.497 0
66.0222 46.2202 0
65.0136 44.9501 0
63.1812 43.2 0
61.6955 42.7524 0
58.8723 43.1673 0
57.5341 43.4839 0
33.3746 51.7752 0
29.1343 53.3722 0
40.8528 30.6906 0
50.884 35.6796 0
55.6574 33.963 0
23.522 53.0807 0
76.9511 51.5513 0
70.2683 52.9804 0
66.4321 52.6074 0
65.448 34.8488 0
30.9823 34.2711 0
19.4264 46.9271 0
26.1466 39.7029 0
71.9699 33.7955 0
72.0387 41.0498 0
77.4906 44.9571 0
43.1708 44.7748 0
45.812 44.4112 0
48.7657 44.502 0
51.443 45.1302 0
53.7674 45.2458 0
56.2152 45.066 0
34.8989 49.7557 0
65.0976 49.9711 0
40.8202 44.749 0
38.3727 45.0891 0
36.029 46.9683 0
64.1394 46.7123 0
61.6446 44.9951 0
58.8202 44.8649 0
36.0475 52.0308 0
34.8923 52.7897 0
33.4738 53.2969 0
31.8638 55.0821 0
26.0343 58.528 0
22.9411 56.9252 0
32.4325 22.4243 0
47.0437 26.3754 0
63.1095 22.753 0
19.9388 54.63 0
80.2367 53.896 0
75.8487 55.4136 0
71.983 55.7766 0
69.1302 55.1068 0
65.8038 53.6168 0
64.1262 53.4665 0
68.1179 28.7078 0
26.8173 29.8035 0
17.1961 51.3613 0
14.5901 42.0871 0
22.4405 33.7706 0
84.9235 46.4883 0
84.7681 51.6251 0
75.1443 37.6209 0
81.2202 43.5902 0
42.4591 46.1049 0
41.419 45.913 0
44.9676 45.9506 0
43.6817 45.8676 0
47.7374 45.8919 0
46.3872 45.8245 0
50.6201 46.2049 0
49.2726 46.1089 0
53.0501 46.5999 0
51.7629 46.6162 0
55.5117 46.2121 0
54.2322 46.3042 0
58.0594 46.1653 0
56.7783 46.3279 0
36.3694 48.2899 0
36.0185 49.2896 0
35.9129 50.8018 0
63.4046 51.7361 0
63.8437 50.7229 0
63.8943 48.7329 0
63.8399 47.8313 0
40.2903 45.6497 0
39.3745 45.8283 0
38.0545 46.4309 0
37.3942 47.0134 0
62.8311 46.5608 0
62.0144 46.2379 0
60.5277 45.7913 0
59.3985 45.8482 0
38.0387 52.2385 0
36.1464 53.5539 0
34.0289 56.4057 0
29.5343 59.4557 0
22.7966 60.978 0
21.7621 15.2345 0
39.9844 15.9252 0
48.9023 11.1916 0
56.9287 16.6469 0
76.6174 15.458 0
15.5678 56.6587 0
84.5928 57.0921 0
73.4764 59.1098 0
66.5601 55.2728 0
62.4834 53.2432 0
82.9425 7.75936 0
79.7069 22.385 0
16.3038 7.84431 0
18.3788 22.1127 0
10.6812 46.3676 0
16.6112 35.6954 0
15.5761 30.1391 0
89.4558 49.2342 0
83.2585 30.9749 0
81.5608 38.972 0
41.9296 47.0061 0
44.2567 47.281 0
46.8937 47.4316 0
49.592 47.595 0
52.2272 47.6747 0
54.7944 47.5663 0
57.356 47.3117 0
37.3839 49.3359 0
37.9044 51.0084 0
62.2007 50.498 0
62.5854 48.5824 0
39.9729 46.9929 0
38.396 47.7535 0
38.5086 48.5232 0
61.7678 48.2205 0
61.7141 47.3578 0
59.7674 47.0926 0
38.8755 50.7725 0
61.3617 50.7053 0
39.1745 52.5537 0
38.4374 53.1102 0
38.1397 54.2176 0
36.9847 54.9758 0
36.4715 56.7461 0
34.8152 58.2606 0
33.298 60.1101 0
30.6704 62.2075 0
27.8993 64.3458 0
27.1867 7.63885 0
38.6626 8.06954 0
59.8706 8.28718 0
71.7502 7.70492 0
19.1422 64.2723 0
14.8493 62.5256 0
10.6556 59.7272 0
6.21377 56.6729 0
5.93874 50.7463 0
94.2984 51.8406 0
93.396 56.8922 0
89.4183 60.2455 0
84.6708 62.7701 0
79.5668 64.4579 0
74.662 63.5103 0
70.3463 62.2476 0
66.9012 60.81 0
65.2727 58.1467 0
62.765 56.8322 0
62.114 55.3066 0
61.8161 54.1992 0
61.0944 52.4681 0
93.5149 14.4687 0
89.7924 20.5777 0
86.0802 24.8579 0
6.23128 14.4633 0
13.0344 24.3351 0
9.79157 20.5712 0
5.71962 45.1866 0
5.63692 40.2508 0
12.3344 34.4145 0
94.2754 46.7296 0
88.1076 36.7353 0
93.3849 42.0157 0
41.0923 47.7713 0
40.4311 47.6446 0
42.1335 47.9632 0
43.4647 48.1622 0
42.7978 48.0717 0
44.7514 48.2454 0
46.091 48.3721 0
45.4203 48.3178 0
47.4417 48.4396 0
48.786 48.4938 0
48.1135 48.4758 0
50.1339 48.5899 0
51.4791 48.5716 0
50.8067 48.5898 0
52.7666 48.5553 0
54.109 48.4646 0
53.4384 48.519 0
55.3891 48.3724 0
56.7249 48.2094 0
56.0581 48.2999 0
58.0069 48.0468 0
59.3326 47.8116 0
58.6713 47.9382 0
39.3586 51.2265 0
39.305 51.7717 0
60.964 51.6862 0
60.9104 51.141 0
38.0039 50.0995 0
39.1287 49.2871 0
61.8008 49.6912 0
61.8224 49.1229 0
60.9831 49.3296 0
39.5144 47.8229 0
39.1698 47.9408 0
60.9504 47.898 0
60.4628 47.7543 0
39.4583 50.3171 0
60.5103 50.334 0
39.4829 49.6774 0
39.4778 49.939 0
60.4909 49.9559 0
60.4858 49.6943 0
39.6366 49.1011 0
39.6272 48.5932 0
39.6351 48.8471 0
60.5071 49.1254 0
60.5086 48.8715 0
60.5166 48.6176 0
61.0046 48.7611 0
39.2822 48.711 0
60.9617 49.8983 0
38.9751 49.8632 0
60.8973 47.0349 0
39.0565 47.1708 0
62.6402 49.4845 0
37.0325 50.336 0
61.7618 51.5121 0
38.7758 51.6817 0
58.6376 47.1489 0
56.0744 47.4741 0
53.5146 47.6584 0
50.9398 47.691 0
48.2443 47.499 0
45.543 47.3641 0
42.9702 47.1978 0
40.8891 46.814 0
89.1831 44.4049 0
10.9125 40.5501 0
13.2798 16.0528 0
85.8791 16.2537 0
63.2054 54.9739 0
68.9725 58.1181 0
79.0143 59.4784 0
89.3562 54.5059 0
11.7131 52.4624 0
19.1625 59.3001 0
66.6841 15.5023 0
30.789 15.2388 0
26.2813 61.7627 0
32.1104 57.6381 0
34.9912 54.3125 0
37.3015 52.7952 0
62.5312 47.6803 0
37.7348 48.3357 0
75.899 28.419 0
20.5563 28.3364 0
47.9192 18.9952 0
60.1588 44.5475 0
63.1314 45.4415 0
37.0527 45.6915 0
39.6918 44.4856 0
65.1488 47.9822 0
65.0477 51.9607 0
34.7931 51.2675 0
35.0038 48.2442 0
57.4815 45.1817 0
54.9491 44.9502 0
52.5856 45.5415 0
50.3005 44.719 0
47.2311 44.2849 0
44.3928 44.5373 0
41.9486 45.0119 0
74.3367 42.3731 0
80.2909 48.5231 0
17.9906 42.9985 0
21.2808 50.4329 0
34.4725 29.4208 0
59.9647 29.9634 0
67.8167 53.2539 0
73.4332 52.6771 0
54.4558 38.4597 0
46.5154 32.6195 0
26.1921 55.0411 0
31.9558 52.2827 0
69.7433 39.7239 0
30.9975 40.0936 0
57.5868 41.7863 0
63.2318 40.9589 0
66.896 44.4593 0
33.649 44.7507 0
37.2472 41.3425 0
41.7266 42.1286 0
68.0646 50.7747 0
32.7417 49.8421 0
53.2232 42.689 0
49.6365 40.6147 0
74.2957 46.3502 0
25.7326 42.8267 0
71.9752 47.8188 0
26.5373 47.8378 0
69.0698 47.802 0
32.1411 47.6542 0
71.0617 44.8496 0
29.6287 45.8574 0
29.8116 49.7632 0
88.1248 34.0982 0
96.8924 38.5872 0
91.2847 35.4055 0
92.2326 38.2508 0
96.0811 37.43 0
88.506 40.4464 0
3.10789 38.5876 0
11.9138 32.8867 0
10.0255 34.7069 0
3.91929 37.4305 0
8.32124 37.178 0
11.7026 36.7283 0
11.4122 22.455 0
11.0118 26.2869 0
9.39003 24.412 0
11.9044 28.7373 0
4.14595 19.8334 0
5.35615 22.3424 0
8.24661 22.6679 0
11.5342 18.3094 0
13.1543 20.1954 0
8.00953 17.5216 0
6.96697 20.2036 0
5.18599 17.1451 0
6.70863 24.7739 0
7.81566 26.5441 0
4.19978 14.5416 0
9.75335 15.261 0
87.9371 22.7192 0
90.4022 24.4138 0
88.5457 26.5448 0
91.5457 22.6703 0
95.8543 19.833 0
94.644 22.3419 0
87.6744 29.0428 0
85.9827 20.5573 0
87.8372 18.4131 0
91.6556 17.5277 0
94.6873 17.1473 0
92.8255 20.2066 0
95.6735 14.5441 0
93.2914 24.7732 0
92.1844 26.5432 0
89.6995 15.3645 0
65.8121 7.97612 0
62.3407 3.93115 0
68.2902 3.63526 0
54.9459 3.89063 0
79.5536 0 0
84.6652 0 0
75.6513 3.81948 0
69.2146 11.5977 0
63.2767 11.8939 0
32.9232 7.83358 0
31.1781 3.60008 0
36.9242 3.82425 0
23.8174 3.7927 0
20.4464 0 0
27.7603 -0.299153 0
44.3188 3.77919 0
34.7278 11.6534 0
28.9896 11.4348 0
81.6225 34.8104 0
85.3928 34.305 0
85.0417 37.86 0
86.2421 31.3831 0
85.0349 41.912 0
77.2576 33.7492 0
79.9908 30.9433 0
16.1048 32.6394 0
14.134 35.0234 0
13.9632 32.5901 0
14.1692 38.2228 0
13.5826 30.8012 0
17.6623 29.7879 0
18.789 32.7364 0
16.5622 27.1287 0
14.1459 28.0898 0
15.7066 23.2212 0
15.829 19.0817 0
19.4707 25.2207 0
81.5771 27.0565 0
82.8933 23.6193 0
84.8105 28.4678 0
82.7919 19.316 0
77.7987 25.3972 0
79.778 11.6034 0
74.1777 11.5936 0
77.3348 7.75062 0
71.6447 15.4764 0
81.2529 3.87239 0
84.4125 12.0042 0
81.246 15.8577 0
52.9175 13.9157 0
54.3838 9.72985 0
58.396 12.4659 0
49.4497 5.35041 0
61.8052 16.067 0
52.423 17.8161 0
48.4107 15.0938 0
44.4418 13.5541 0
39.3267 11.9973 0
43.7851 9.62182 0
35.3883 15.5748 0
43.9531 17.4557 0
19.0334 11.537 0
21.7542 7.76337 0
24.48 11.4495 0
18.3704 3.91429 0
26.2812 15.2354 0
17.5221 15.6451 0
14.79 11.9461 0
74.6136 33.7724 0
78.7378 37.171 0
78.089 40.7454 0
74.7404 39.9964 0
21.5023 31.0519 0
19.3958 36.4462 0
17.0765 39.2414 0
19.7508 40.0469 0
73.9324 31.1049 0
73.5555 35.7093 0
72.4438 38.6715 0
70.856 36.7582 0
68.7084 34.3213 0
66.7818 31.7763 0
70.042 31.2534 0
62.7048 32.4071 0
64.0402 29.3334 0
72.0072 28.5636 0
67.5935 37.288 0
32.7288 31.847 0
35.2607 32.4409 0
33.5151 34.8664 0
33.5247 37.7802 0
36.6476 38.4021 0
30.9909 37.1822 0
59.8553 32.9957 0
62.5973 35.4382 0
64.3397 37.9025 0
61.4881 38.4948 0
57.8111 31.962 0
57.7017 34.9961 0
57.1017 37.2438 0
55.0566 36.211 0
46.672 34.9922 0
48.6993 34.1491 0
48.8565 36.5224 0
50.2606 38.147 0
52.6694 37.0696 0
48.232 38.9899 0
38.9192 36.2119 0
38.4514 33.0777 0
41.3221 33.8255 0
37.6631 30.0544 0
43.6841 31.6543 0
44.1541 34.7908 0
39.5205 39.1532 0
44.3096 37.1635 0
46.0713 39.1593 0
43.5203 41.5412 0
47.4751 40.7841 0
43.5517 38.9571 0
41.7591 39.5448 0
90.8786 3.83618 0
87.4587 7.72223 0
86.3756 3.89437 0
88.9314 11.9728 0
89.7768 0 0
94.8884 0 0
95.9955 3.84309 0
96.5104 10.9364 0
92.7456 11.0693 0
95.7327 7.53322 0
91.0021 28.2586 0
90.3804 29.0934 0
4.08808 7.54436 0
6.94799 11.0779 0
3.36288 10.9334 0
10.4691 11.8829 0
8.99818 28.2598 0
9.61968 29.0951 0
3.82527 3.8538 0
13.2483 3.93495 0
11.9852 7.77515 0
8.94212 3.84711 0
35.1655 -0.415606 0
42.5825 -0.470919 0
58.9496 23.2275 0
55.859 20.1776 0
60.0185 19.7005 0
51.3556 21.3502 0
64.8952 19.1252 0
61.536 26.3569 0
57.377 26.837 0
67.4997 22.4901 0
70.0039 25.467 0
65.6123 25.7328 0
73.8964 25.3284 0
69.2879 18.8723 0
78.1637 18.9234 0
75.7981 22.3082 0
74.2531 18.8384 0
23.3707 18.7223 0
21.6793 22.1655 0
20.0687 18.6752 0
22.7655 25.2811 0
27.8835 18.7361 0
29.6265 26.118 0
25.8997 26.0091 0
28.7062 22.3213 0
23.6878 29.0695 0
31.6118 18.8304 0
33.454 25.9214 0
30.6459 29.6118 0
40.6051 27.2919 0
43.7002 25.1319 0
43.9492 28.5334 0
44.1377 21.4428 0
47.4817 22.6859 0
46.7799 29.498 0
37.4155 26.6585 0
36.21 19.1765 0
40.1715 19.9093 0
36.3955 23.1548 0
26.6907 33.1907 0
24.4993 35.1735 0
24.6308 31.789 0
22.6109 38.717 0
28.9007 32.0351 0
28.7714 35.4257 0
28.7777 38.3346 0
51.8486 32.7167 0
54.2345 31.8587 0
53.2709 34.8209 0
56.3882 29.8577 0
49.6644 31.1863 0
50.9174 25.0398 0
53.8017 26.7317 0
49.9278 28.0643 0
6.56599 36.7549 0
6.9783 38.7118 0
5.2221 38.2941 0
9.61493 38.8671 0
8.27291 40.4004 0
4.37188 39.4191 0
4.81163 36.3351 0
5.7811 35.3075 0
7.56923 35.7673 0
10.8625 35.7203 0
10.0105 36.9531 0
9.17224 35.9397 0
11.3062 38.637 0
8.42321 34.527 0
11.1785 34.5621 0
12.0175 35.5697 0
11.7476 30.1037 0
10.2597 29.9124 0
11.0792 29.3194 0
12.4672 26.5369 0
10.4495 28.4977 0
10.9159 30.7044 0
89.7405 29.9104 0
88.0409 30.2533 0
88.7107 29.4699 0
89.3405 28.6489 0
86.8797 26.9511 0
89.0855 30.7026 0
85.8163 32.8433 0
87.1768 32.7486 0
86.7578 34.2072 0
87.324 31.4193 0
88.2688 32.7698 0
88.1171 35.4153 0
86.7502 35.5231 0
84.3201 32.6433 0
84.7508 31.1797 0
86.7749 39.1539 0
86.7707 41.1812 0
85.0394 39.8845 0
88.8453 42.4243 0
87.11 43.1584 0
83.2978 40.4435 0
83.3009 38.4174 0
86.5747 37.3009 0
88.3079 38.5891 0
79.4392 34.281 0
78.6235 32.3454 0
80.8034 32.8778 0
76.5757 31.0842 0
77.9446 29.6821 0
81.6249 30.9593 0
82.4383 32.8917 0
81.5917 36.8908 0
80.1806 35.9901 0
14.1504 36.6217 0
12.9356 37.4777 0
12.9178 35.8775 0
12.5397 39.3864 0
13.2344 34.7208 0
15.3728 35.3605 0
15.3906 36.9609 0
12.9402 32.7432 0
12.7577 31.8519 0
13.7756 31.6954 0
11.7537 32.1675 0
12.5895 31.1298 0
14.5791 30.4707 0
14.7737 31.3663 0
13.1507 33.5061 0
12.1236 33.6497 0
16.8862 31.2145 0
18.2277 31.2615 0
17.4467 32.6881 0
19.1091 29.0628 0
19.6756 30.5368 0
17.7026 34.2178 0
16.3585 34.1672 0
15.8433 31.3888 0
16.6191 29.9638 0
13.8649 29.4461 0
12.7472 29.7626 0
13.0254 28.4097 0
13.5893 26.2128 0
14.8634 29.1122 0
16.0698 28.6342 0
17.1141 28.4572 0
18.5608 27.7311 0
17.4694 24.6217 0
86.2417 28.7511 0
86.9518 30.2064 0
85.5247 29.9264 0
84.0315 29.7194 0
85.4453 26.6616 0
82.416 29.0161 0
80.7807 28.9983 0
80.6426 24.7213 0
78.7363 27.7364 0
80.1484 38.0727 0
79.8249 39.8587 0
78.4134 38.9578 0
76.6156 39.1843 0
76.2128 41.5591 0
76.9408 37.3961 0
15.623 38.7335 0
15.8329 40.6646 0
14.3787 40.1536 0
17.5329 41.119 0
16.2905 42.5439 0
12.7509 41.3208 0
16.8431 37.4675 0
19.5731 38.2461 0
18.4138 39.6447 0
18.2369 37.8452 0
18.8707 41.523 0
18.0036 36.0711 0
20.9198 35.1098 0
21.0031 37.5811 0
20.6991 41.4882 0
21.1814 39.3828 0
24.5858 37.649 0
22.5269 36.2436 0
19.8197 42.9654 0
22.1297 40.8239 0
24.1714 40.7706 0
23.6908 42.8792 0
79.6542 42.1688 0
79.3552 44.274 0
77.7901 42.8506 0
80.756 46.0554 0
78.8908 46.7404 0
75.9131 43.6659 0
81.3913 41.2799 0
90.371 39.3516 0
92.8097 40.1323 0
90.9469 41.2294 0
94.5628 38.4154 0
95.1403 40.3021 0
91.2851 43.2121 0
90.1719 37.4911 0
93.2367 35.8652 0
93.7117 37.2926 0
91.7598 36.8273 0
95.1886 36.3348 0
89.6984 36.0741 0
92.2319 34.8787 0
94.2195 35.3069 0
89.5179 33.402 0
91.0961 34.0494 0
89.7067 34.7486 0
93.178 34.353 0
92.0689 33.4788 0
93.831 44.3719 0
96.3195 42.856 0
96.7652 45.217 0
90.8973 32.6915 0
89.6761 32.0059 0
97.1766 48.0021 0
91.7304 45.5653 0
10.5031 32.7884 0
10.9669 33.7908 0
9.55931 33.7021 0
6.82214 34.3536 0
7.9312 33.4791 0
5.67673 42.719 0
3.23285 44.4448 0
3.19142 41.974 0
2.82073 47.2298 0
9.10138 32.6915 0
10.3257 32.0052 0
8.31395 42.8628 0
66.087 59.4784 0
65.2373 60.7764 0
64.423 59.4447 0
65.9802 61.7202 0
60.1663 51.8607 0
60.1052 51.3161 0
63.7987 58.4187 0
67.1224 58.1321 0
67.9366 59.4635 0
68.6238 61.5287 0
68.9652 63.6316 0
67.243 62.9132 0
70.4152 64.5886 0
60.0591 50.7701 0
60.036 50.3922 0
69.6595 60.1826 0
77.1145 63.9837 0
77.3642 66.6036 0
74.9127 66.1301 0
79.8575 66.9049 0
60.0201 50.0138 0
60.0133 49.7522 0
72.5724 65.2194 0
76.8374 61.4934 0
79.2907 61.9673 0
82.1185 63.6136 0
84.9957 65.7075 0
82.4446 66.5512 0
87.404 64.6985 0
94.266 63.4384 0
92.305 65.1694 0
81.8434 61.1235 0
91.4071 58.5688 0
93.8314 60.164 0
91.843 61.8404 0
95.4142 58.0885 0
90.1352 66.6301 0
87.7936 67.796 0
89.777 63.4365 0
89.3874 57.3747 0
91.3767 55.698 0
93.8473 54.3661 0
96.8569 53.1474 0
96.4055 55.6748 0
97.1879 50.5604 0
85.3202 68.6471 0
82.7571 69.1693 0
91.8276 53.1736 0
6.0759 53.709 0
3.39954 55.5655 0
3.26144 52.5998 0
4.39079 57.9793 0
5.73401 63.4391 0
4.01537 61.4671 0
2.93066 50.0129 0
8.82533 51.6047 0
8.96218 54.5652 0
8.43474 58.2001 0
8.1939 61.5814 0
5.9736 60.0548 0
10.2599 63.1775 0
2.56877 59.2881 0
1.41894 56.9386 0
11.1839 56.0928 0
16.996 63.3986 0
16.9101 66.459 0
14.7644 65.5856 0
19.4973 66.8125 0
0.58615 54.4593 0
0.0848101 51.8923 0
12.3561 64.5767 0
17.0053 60.9121 0
19.1524 61.7854 0
29.2847 63.2766 0
31.543 63.6123 0
30.1576 64.6814 0
32.8058 62.4193 0
34.9406 62.6323 0
33.7298 63.8801 0
28.7078 65.6385 0
27.0905 63.0539 0
28.4761 61.9847 0
34.0566 59.1854 0
35.621 59.5022 0
34.8624 60.427 0
36.2453 58.4763 0
32.4153 65.0182 0
31.0071 66.038 0
34.1195 61.3708 0
32.7043 58.8738 0
33.4629 57.9491 0
29.5158 66.9318 0
37.0734 57.7192 0
37.4307 56.9699 0
37.7246 56.1936 0
35.7315 55.5289 0
27.2335 67.9892 0
83.5072 34.5592 0
85.2186 36.0812 0
83.33 36.339 0
91.878 50.5358 0
91.8663 47.9829 0
94.2874 49.2847 0
89.32 46.8185 0
89.4063 51.8692 0
15.1222 33.8344 0
14.0484 33.8065 0
15.034 32.6153 0
8.30866 48.554 0
5.82837 47.9662 0
8.19946 45.7776 0
10.7957 43.4571 0
11.1968 49.4142 0
15.3541 27.6089 0
14.7998 25.7283 0
83.194 27.7624 0
83.8256 25.9524 0
67.7663 56.6956 0
65.9162 56.7093 0
64.239 56.5604 0
64.8826 55.1231 0
74.0693 61.3095 0
72.5042 62.8787 0
71.9109 60.6779 0
71.2244 58.6139 0
76.2453 59.294 0
87.0064 58.6677 0
87.0443 61.5076 0
84.6319 59.93 0
81.8032 58.2852 0
86.9744 55.7993 0
15.2083 59.5909 0
12.7527 61.1263 0
13.1109 58.1919 0
13.6407 54.5607 0
17.3654 57.9793 0
31.4164 59.7825 0
31.9841 61.1588 0
30.1024 60.8312 0
27.9076 60.6091 0
30.8223 58.5469 0
35.2503 56.5756 0
35.6433 57.5034 0
34.4221 57.3329 0
33.0696 57.0219 0
34.5101 55.3591 0
77.9964 35.4609 0
76.2008 35.6842 0
84.8461 49.0555 0
87.1906 47.8607 0
87.112 50.4306 0
87.0535 45.4482 0
87.0629 53.0647 0
82.53 50.0742 0
82.607 47.5066 0
19.0934 34.591 0
20.6145 33.2532 0
69.0513 56.6122 0
67.845 55.1897 0
67.1882 54.2631 0
68.4734 54.1804 0
73.9157 55.595 0
74.6622 57.261 0
72.7298 57.443 0
77.4319 57.4457 0
70.4774 56.9467 0
72.7079 54.2263 0
74.641 54.0454 0
82.5021 52.7609 0
84.6806 54.3575 0
82.4154 55.4936 0
79.6254 56.6861 0
80.264 51.2084 0
18.5677 52.9954 0
17.7529 55.6442 0
16.3814 54.0087 0
19.5505 56.9642 0
14.4541 51.912 0
19.2384 50.8975 0
20.6096 52.5308 0
24.488 57.7264 0
24.4153 59.7529 0
22.8689 58.9511 0
26.1578 60.145 0
24.5391 61.3702 0
20.9798 60.1388 0
21.0515 58.1125 0
24.5665 55.9832 0
26.1132 56.7842 0
31.9872 56.3599 0
32.9465 55.7436 0
33.4276 54.6972 0
31.9099 53.6822 0
84.9799 44.1989 0
83.0722 45.0397 0
83.1274 42.7522 0
71.1256 54.3785 0
70.5565 55.4417 0
69.6991 54.0433 0
69.0424 53.1171 0
71.8506 52.8287 0
78.5941 52.7237 0
78.0424 54.6548 0
76.3998 53.4818 0
75.1919 52.1141 0
78.6208 50.0369 0
23.2315 55.0025 0
21.4402 55.7774 0
21.7304 53.8555 0
22.4016 51.7565 0
24.8573 54.0606 0
78.4727 48.359 0
77.0729 46.575 0
75.893 45.6536 0
75.4752 47.2723 0
22.4094 44.8722 0
21.2991 46.8718 0
20.5371 44.9289 0
22.2259 48.624 0
20.3536 48.6794 0
18.7083 44.962 0
24.4523 44.8216 0
72.3088 51.4866 0
70.7263 51.6377 0
69.6245 50.5351 0
71.5798 49.057 0
75.4511 48.8911 0
76.803 49.8722 0
75.5992 50.5701 0
73.8402 51.1324 0
74.2716 47.9691 0
25.4272 50.7614 0
25.0501 52.3133 0
23.899 51.529 0
26.3851 53.2929 0
22.7785 50.2056 0
25.4068 48.9081 0
26.5578 49.6913 0
27.6633 54.2068 0
27.8564 52.4585 0
29.4731 51.5675 0
30.5451 52.8276 0
23.7236 48.3961 0
24.8544 47.3266 0
72.7159 49.9421 0
73.1112 48.7039 0
27.5769 57.5236 0
29.327 57.9871 0
27.7845 58.9916 0
30.6152 57.0783 0
27.6561 55.7798 0
30.4993 54.2268 0
30.4918 55.8007 0
29.1271 54.9454 0
23.1566 62.91 0
21.3294 64.5574 0
20.969 62.6247 0
21.6836 67.098 0
24.8985 63.3027 0
26.3676 66.5487 0
24.1768 66.7973 0
25.7079 64.5942 0
24.8367 68.7526 0
22.3633 69.21 0
14.9315 44.5552 0
12.9773 46.6979 0
12.6342 44.2255 0
13.4924 49.7421 0
16.6317 45.0118 0
18.3108 49.1435 0
16.2351 49.1931 0
17.3503 46.9774 0
58.4001 7.98427 0
59.9986 9.9077 0
79.5137 20.085 0
77.0146 20.2645 0
69.2242 13.756 0
67.5702 15.6071 0
37.2042 13.1048 0
34.8592 12.2638 0
72.2274 44.2361 0
70.3876 42.544 0
36.7316 21.8301 0
37.3294 24.2491 0
46.046 7.95882 0
45.1618 10.2978 0
1.81583 10.3804 0
4.02371 9.19947 0
16.1332 3.96421 0
14.3541 2.23912 0
37.8212 13.1729 0
37.7827 10.6759 0
72.3055 0.999798 0
69.8393 1.36467 0
65.3426 24.8253 0
65.7993 22.3783 0
17.0807 0.161679 0
19.0958 1.60943 0
30.721 0.189877 0
28.9997 2.00952 0
20.2036 28.7449 0
18.0761 27.4489 0
87.2118 22.7385 0
89.6946 23.124 0
80.4357 11.7633 0
79.0202 9.71166 0
53.4912 14.104 0
52.9649 16.5474 0
79.8487 20.4917 0
77.3423 20.4272 0
95.4387 2.45824 0
96.855 4.51284 0
40.4207 38.1559 0
38.2141 39.3254 0
34.3998 26.8399 0
35.0591 29.2401 0
88.326 30.2663 0
87.7204 27.8856 0
42.4585 31.6874 0
44.3355 30.0424 0
26.0952 12.711 0
26.9267 10.3592 0
40.5682 37.2319 0
42.7959 36.1059 0
65.9 38.4032 0
67.4314 40.376 0
21.6879 36.2876 0
24.1792 36.4866 0
87.299 17.885 0
88.9335 16.0218 0
31.3192 9.76586 0
28.8906 10.3664 0
60.2729 8.04989 0
61.569 10.1897 0
62.4108 9.1327 0
60.9635 7.09173 0
18.764 6.91073 0
18.1862 9.31313 0
63.0373 43.5529 0
62.3481 45.9512 0
84.258 25.6488 0
83.5618 28.016 0
47.3546 44.0016 0
49.2172 42.3365 0
30.7315 4.60265 0
33.1069 5.36045 0
37.1772 2.07126 0
36.8699 -0.407265 0
39.5012 0.304761 0
37.837 2.17232 0
66.8313 34.2674 0
64.5774 35.3293 0
25.2696 21.1462 0
23.6987 23.0827 0
89.1818 30.0264 0
86.9227 28.9314 0
74.2673 9.91565 0
76.6491 9.1889 0
80.3391 12.684 0
81.7432 14.7418 0
81.0814 16.7997 0
80.1629 19.0915 0
78.3985 10.6325 0
79.7445 12.7291 0
67.64 27.2463 0
65.1479 27.1308 0
62.4077 24.6503 0
59.9832 24.0637 0
61.6997 24.4734 0
62.4689 26.8486 0
69.4867 32.6262 0
67.0029 32.3747 0
82.5744 12.3964 0
85.0241 12.9675 0
51.4556 17.9058 0
53.5312 19.2903 0
66.9637 15.7792 0
65.1441 14.0607 0
20.0513 22.2246 0
20.5016 19.7915 0
53.0572 23.8007 0
52.9493 21.3038 0
62.0595 33.6903 0
64.0235 35.2329 0
67.9161 28.0076 0
69.8792 26.4803 0
27.3859 19.1799 0
25.455 17.6172 0
43.3786 3.72498 0
43.9067 1.28251 0
90.2404 10.2339 0
88.44 8.50415 0
67.9422 36.5342 0
68.6199 34.1406 0
9.50917 8.16019 0
11.9699 7.67011 0
49.9622 6.31412 0
52.337 7.09579 0
81.1015 28.9791 0
83.0468 27.4283 0
43.1538 19.7649 0
45.5422 20.4724 0
72.9848 25.332 0
75.2087 24.2097 0
59.2931 18.3228 0
57.0512 19.4082 0
94.8482 14.8411 0
92.4252 14.1913 0
8.74355 19.3799 0
11.2081 18.8946 0
17.4784 22.5879 0
15.8095 20.7534 0
16.9656 36.2264 0
18.1838 34.0589 0
59.7741 41.7169 0
57.5845 42.914 0
84.599 20.2722 0
84.6413 22.7386 0
9.90288 19.9834 0
7.80204 21.3533 0
16.8804 29.8321 0
15.2561 31.7104 0
46.6492 3.19158 0
48.1048 5.22405 0
57.777 40.1317 0
55.7418 41.5749 0
67.4986 36.826 0
69.5731 38.2201 0
68.3539 7.36316 0
70.2457 5.74801 0
24.8143 8.43187 0
27.242 8.98813 0
16.128 15.4113 0
15.2258 17.7198 0
96.9993 4.63099 0
94.5269 5.01484 0
25.2568 33.6365 0
26.0773 31.287 0
16.8208 15.6054 0
17.9527 17.8003 0
86.8963 15.599 0
88.6106 13.8055 0
27.0015 36.1947 0
28.2719 38.3301 0
45.0642 36.8534 0
42.7708 37.8378 0
26.0114 33.4871 0
28.4879 33.1554 0
70.5253 15.8006 0
72.4944 17.348 0
49.826 47.4549 0
50.9703 45.2332 0
82.7538 18.24 0
81.0729 16.3952 0
12.3998 5.57433 0
9.97264 4.9761 0
18.2955 2.64171 0
20.5318 1.50659 0
98.9191 4.25308 0
97.7276 6.43261 0
80.2787 37.206 0
80.862 34.8014 0
48.535 3.38591 0
48.441 0.889553 0
46.0822 5.05308 0
43.9276 6.32327 0
61.096 37.8386 0
59.0124 39.2083 0
81.1988 11.0279 0
81.7869 8.63942 0
79.2901 30.2688 0
76.9655 31.1645 0
52.3963 7.90743 0
50.9322 5.88127 0
25.9276 29.7856 0
23.7952 28.5019 0
94.5781 17.3979 0
96.8623 16.393 0
29.5967 31.9113 0
31.9012 32.8573 0
65.8346 4.21918 0
65.8038 6.71735 0
53.2614 1.69097 0
51.4526 3.41905 0
14.5678 9.0152 0
15.0966 6.60255 0
7.21119 18.7769 0
5.01057 17.6061 0
61.205 40.121 0
59.89 42.2412 0
74.1989 7.18657 0
73.7955 4.72532 0
23.6095 30.1089 0
23.85 27.6392 0
78.7983 6.83765 0
76.639 5.54873 0
79.0314 11.2063 0
81.1516 12.5491 0
7.62789 2.52427 0
5.12674 2.59635 0
76.432 15.8401 0
74.4482 14.3068 0
47.9025 9.12355 0
49.6885 10.8703 0
80.0453 2.01929 0
82.5048 1.57593 0
29.2007 29.7472 0
27.2487 28.2062 0
70.9526 16.2075 0
71.5077 13.791 0
4.50035 13.5261 0
6.45905 11.9692 0
40.543 -0.000691425 0
39.511 2.27528 0
60.401 12.173 0
59.8278 14.6025 0
41.2009 3.33731 0
39.1667 4.7944 0
33.6751 29.2495 0
36.1618 29.4299 0
33.2163 20.7771 0
32.9961 18.2973 0
79.588 15.4414 0
80.1409 17.8548 0
72.6388 34.5016 0
70.5033 33.2036 0
56.7279 8.05686 0
54.3218 7.38154 0
44.5384 8.68237 0
43.212 10.8022 0
82.5619 16.4162 0
83.68 14.215 0
11.5868 0.311044 0
10.6846 2.62563 0
78.0006 16.0098 0
80.0346 17.4724 0
59.4368 2.79958 0
60.7556 4.92434 0
72.316 1.12774 0
72.205 3.62095 0
66.8269 2.50483 0
68.1322 0.362135 0
13.322 3.74656 0
15.1461 2.04495 0
71.942 26.3531 0
74.3973 26.8178 0
16.8514 17.381 0
15.441 19.4309 0
72.1968 38.0961 0
72.1167 35.6109 0
43.4912 20.5504 0
41.2327 21.6111 0
57.248 19.0221 0
57.5126 21.5066 0
64.6616 28.5724 0
67.1409 28.3089 0
24.6839 31.6859 0
27.0885 31.0068 0
50.1165 28.549 0
49.1098 30.8339 0
59.7978 36.9449 0
58.5328 34.7912 0
22.4784 28.8738 0
24.892 28.2287 0
39.7107 35.6635 0
37.2631 36.1501 0
5.88142 10.0235 0
3.85045 11.4857 0
54.7941 20.5504 0
56.8225 22.0048 0
68.4889 19.4491 0
68.799 16.9817 0
42.0198 42.4435 0
42.7819 44.8219 0
19.1114 24.387 0
16.9621 25.6607 0
69.2719 3.98216 0
66.9294 3.09832 0
18.7381 12.7273 0
19.4403 10.3546 0
97.846 0.546681 0
97.041 2.8903 0
21.3117 0.579541 0
21.7847 2.97191 0
13.4308 5.94088 0
14.5719 8.13149 0
94.841 5.7822 0
95.3638 3.36077 0
58.665 11.3787 0
59.4617 13.7487 0
26.7467 39.6969 0
25.2431 41.6893 0
62.41 18.5219 0
64.5149 17.1946 0
9.50702 7.70975 0
11.9251 7.04356 0
44.2902 17.8463 0
41.9081 18.5862 0
89.0365 10.7593 0
91.5052 10.3298 0
65.4842 41.3568 0
63.0597 40.7515 0
51.2689 34.1469 0
53.6754 33.4982 0
12.7381 8.52801 0
14.7343 10.0124 0
75.0307 18.262 0
72.5347 18.0579 0
69.1405 26.2024 0
69.5947 28.6506 0
19.5841 11.7027 0
21.8508 12.7428 0
36.9048 39.7839 0
34.5006 39.1153 0
29.3427 28.0583 0
30.9567 29.9484 0
12.3835 19.4667 0
13.5828 17.289 0
42.0415 42.888 0
39.6488 43.6063 0
34.2158 4.93946 0
33.7319 7.39307 0
94.9723 16.9961 0
93.8897 14.7521 0
53.7692 26.0231 0
54.3479 28.4529 0
68.2737 36.0498 0
67.5035 38.416 0
71.2266 36.767 0
69.289 38.3302 0
30.49 15.3521 0
32.6456 16.5902 0
62.7475 7.83163 0
65.2287 8.12252 0
52.3903 17.0697 0
51.1232 19.2218 0
68.8605 3.44517 0
68.91 5.94446 0
24.021 7.62754 0
26.0615 9.02456 0
31.794 14.4539 0
33.5108 16.2502 0
72.4451 5.85685 0
74.716 4.88759 0
47.2268 14.9858 0
45.6881 16.9545 0
36.6735 41.5631 0
38.706 40.1101 0
22.8283 10.3198 0
24.4684 8.42564 0
22.9851 37.4919 0
25.3688 36.7296 0
79.5332 20.3247 0
81.7881 21.4183 0
80.4303 15.9795 0
78.1507 14.9268 0
68.1582 33.9583 0
68.4081 36.4363 0
32.8046 26.7203 0
35.0311 27.8341 0
49.0958 3.33749 0
47.4559 5.22525 0
34.1949 40.3559 0
32.8295 42.4462 0
47.6822 12.3202 0
48.203 14.7652 0
50.258 18.537 0
51.6285 16.4492 0
33.8504 30.3839 0
34.5364 27.9867 0
2.33156 13.7708 0
4.82048 14.0371 0
40.0948 39.9638 0
40.8359 42.3473 0
10.1162 16.0692 0
9.50349 18.4717 0
32.9528 15.8806 0
31.9126 18.1521 0
43.2448 0.699113 0
45.6658 0.0476456 0
37.1393 36.5704 0
39.3794 35.4676 0
81.2507 9.99969 0
81.75 7.59239 0
30.4361 3.45606 0
28.2947 4.75965 0
49.4053 1.09669 0
47.6065 2.83553 0
60.7552 30.9892 0
62.5288 32.7467 0
26.1936 36.9894 0
24.5234 35.1503 0
33.9136 2.99277 0
36.4035 3.21239 0
46.8729 28.8036 0
45.8515 31.0825 0
19.5017 35.9177 0
21.2199 37.7094 0
56.1089 28.0013 0
58.6003 28.0386 0
92.8482 9.42178 0
95.2691 10.0729 0
22.1142 28.8046 0
24.584 29.1645 0
48.2815 17.4414 0
50.7269 17.9215 0
28.8337 21.4603 0
27.7788 19.2156 0
88.6645 17.9214 0
91.0234 18.7835 0
85.3181 15.4084 0
82.8096 15.5305 0
59.5412 44.9286 0
60.8272 47.072 0
89.5373 2.51158 0
89.7522 4.97809 0
95.4856 9.75807 0
93.3885 8.39224 0
64.4507 41.1757 0
62.9687 43.1815 0
56.007 25.7935 0
58.3232 24.8781 0
71.0491 1.7146 0
71.0346 4.21272 0
51.4172 11.5432 0
50.5036 9.21602 0
58.3179 27.5703 0
57.6443 25.1653 0
9.30921 7.81338 0
7.76305 5.87307 0
51.6878 13.1526 0
49.2113 12.8568 0
49.7143 24.0875 0
50.1422 26.5489 0
72.5722 28.1516 0
70.1719 27.459 0
81.2727 36.0786 0
78.9622 37.0167 0
80.7503 18.1267 0
81.401 20.515 0
63.0478 6.07138 0
60.7651 5.05006 0
49.6096 11.5195 0
47.1204 11.3505 0
44.4851 28.2263 0
42.0357 28.6878 0
88.6516 7.76961 0
88.1189 10.1802 0
72.3009 6.21121 0
71.0039 8.32283 0
87.7014 13.8284 0
88.6456 16.1227 0
36.5735 40.5993 0
38.2908 42.4084 0
62.5652 3.36739 0
63.7537 1.16937 0
39.9627 14.8435 0
40.105 12.3486 0
19.383 6.37064 0
21.5291 5.06399 0
36.3651 45.5642 0
38.7276 46.3803 0
34.5982 31.0701 0
32.3672 32.1926 0
58.8983 19.2857 0
60.6859 21.0312 0
78.2363 16.0395 0
75.8063 15.4056 0
15.8976 28.7156 0
17.2538 26.642 0
80.5559 1.65018 0
78.1464 2.27989 0
37.6532 41.4019 0
35.1717 41.6919 0
84.0586 21.2367 0
84.5446 23.6587 0
86.5767 7.27909 0
86.2331 4.83334 0
44.7622 5.75069 0
46.5622 7.48407 0
84.1485 19.598 0
84.0095 22.0604 0
71.9345 17.3577 0
74.4199 17.0907 0
77.0872 24.7861 0
76.479 22.3813 0
97.1715 15.2295 0
94.7055 14.784 0
38.3631 23.3485 0
40.4436 21.9677 0
40.9054 1.48237 0
39.8476 3.7474 0
60.1562 22.2422 0
57.8275 21.3465 0
23.1165 0.877887 0
24.5931 2.83851 0
71.8811 31.9561 0
69.4188 32.353 0
44.2125 37.923 0
42.2678 39.4899 0
34.1338 4.14316 0
35.5945 6.16494 0
19.9666 15.436 0
21.7236 17.1859 0
1.46067 8.32954 0
3.15163 10.1582 0
85.588 24.812 0
87.7188 23.5224 0
82.6785 14.7466 0
80.2435 14.1225 0
60.7748 2.99592 0
60.168 5.41928 0
17.3167 24.0912 0
15.8156 22.1208 0
51.8035 38.6059 0
50.593 36.4216 0
59.7291 46.5657 0
62.0297 45.5904 0
81.6781 19.046 0
81.9689 21.4989 0
60.0454 14.8426 0
57.6399 14.177 0
21.6292 24.2692 0
21.524 26.7429 0
50.5578 36.388 0
51.4997 34.0753 0
68.8022 23.888 0
66.7405 22.4751 0
85.3687 31.7964 0
83.028 32.6395 0
10.0086 12.6492 0
7.94286 14.0652 0
90.6882 3.17062 0
88.586 1.81706 0
85.5658 8.40109 0
87.7295 7.1629 0
32.976 40.1732 0
33.1356 42.6593 0
16.5709 0.837742 0
18.9314 1.64167 0
80.3851 27.3224 0
82.3319 25.7723 0
21.4262 10.9361 0
19.738 9.12968 0
93.5416 17.0337 0
91.2416 16.0317 0
19.4305 35.4106 0
19.2958 32.9384 0
18.0082 35.0428 0
20.2632 33.9605 0
76.6092 11.9528 0
75.0364 13.8594 0
20.8995 4.66587 0
18.5464 3.84631 0
26.3548 33.5536 0
24.2028 32.304 0
55.3269 6.78067 0
57.4773 5.50853 0
69.3553 3.6393 0
70.4233 5.90516 0
22.4345 16.8871 0
21.736 14.5207 0
89.5103 6.12087 0
87.0038 6.09779 0
60.1633 3.98097 0
57.6741 3.72352 0
86.6875 11.2695 0
84.275 10.5669 0
80.9003 22.3655 0
82.0835 20.1945 0
69.7509 32.2164 0
68.9499 29.8567 0
42.454 48.6514 0
40.5308 47.0549 0
30.6811 29.1389 0
31.6032 31.4471 0
19.9563 37.2359 0
20.2738 34.7767 0
64.2216 5.38254 0
62.4831 7.17142 0
91.4434 1.96488 0
90.9924 4.39845 0
85.7662 10.062 0
87.2476 12.0636 0
16.1072 1.26662 0
14.0634 2.70132 0
71.9233 36.3464 0
74.3448 35.744 0
14.9018 16.1417 0
17.3368 16.7305 0
85.8132 30.6373 0
87.5046 32.4474 0
8.12036 21.9449 0
10.6242 21.7884 0
49.9338 35.2917 0
52.4196 35.1051 0
9.1112 20.4311 0
10.8319 18.6172 0
62.5097 31.6616 0
60.2469 32.7031 0
37.5423 6.5401 0
39.0232 4.52434 0
9.74713 9.15385 0
11.9294 7.9243 0
60.1262 25.6909 0
57.6358 25.7708 0
32.8708 16.941 0
33.8182 19.2399 0
92.6425 11.4218 0
92.9686 13.8795 0
50.0439 4.10568 0
52.1278 5.48893 0
21.783 11.7035 0
23.2545 13.6867 0
16.4363 4.87372 0
18.7566 3.92714 0
38.9665 33.4733 0
41.0993 32.1766 0
2.02356 4.96753 0
2.94212 2.65535 0
17.4397 16.9675 0
16.414 19.2261 0
81.4414 37.275 0
82.4529 35.018 0
72.8842 12.3568 0
74.7219 10.6985 0
66.3027 41.1366 0
63.9138 41.8623 0
63.7169 26.1595 0
65.6994 24.6558 0
49.8631 5.75583 0
48.3251 7.72658 0
60.1691 40.4102 0
62.3908 41.5524 0
23.4076 10.7332 0
24.5159 12.9367 0
60.067 30.9274 0
61.013 33.2378 0
85.0353 22.2383 0
87.5455 22.1907 0
74.5461 19.5841 0
72.1187 18.9653 0
56.0411 12.0768 0
58.4793 12.6114 0
61.6892 3.95417 0
60.6516 1.67999 0
60.7158 47.1719 0
58.2175 47.2717 0
50.6451 16.4927 0
50.9604 18.9728 0
26.1772 32.919 0
27.169 30.6346 0
43.7097 22.2827 0
41.6614 20.8652 0
70.215 18.3003 0
72.6877 18.6838 0
72.5739 1.35385 0
72.7281 3.84737 0
33.4416 16.7883 0
35.0769 18.6611 0
55.2482 3.20053 0
57.6923 3.74084 0
62.7081 26.6678 0
60.2156 26.6858 0
59.549 35.1728 0
59.692 32.6815 0
41.7547 31.0159 0
39.3773 31.7708 0
65.6824 33.5178 0
63.6613 32.0506 0
41.2916 35.8321 0
39.9882 37.9628 0
73.1964 29.4544 0
72.767 31.9 0
50.7625 39.8261 0
51.855 42.0728 0
59.8111 9.74516 0
58.3187 7.7381 0
82.5416 19.8008 0
84.8512 18.8461 0
66.2875 0.445489 0
68.7903 0.231327 0
72.7432 32.3427 0
74.6155 30.7071 0
66.4971 33.212 0
65.2251 35.3513 0
67.8013 45.8984 0
68.518 43.5137 0
63.6986 22.7061 0
64.7956 20.4723 0
80.4216 11.1486 0
82.0319 13.0556 0
31.0274 20.1737 0
30.0766 17.8801 0
25.3404 20.4394 0
26.9152 22.3569 0
53.9778 28.3642 0
56.4559 28.1099 0
85.6872 28.0603 0
85.1693 25.6518 0
37.8861 1.51209 0
40.3722 1.82594 0
42.1178 29.2108 0
43.1012 26.915 0
19.988 35.0621 0
22.4735 35.3134 0
84.468 11.4266 0
86.9794 11.3863 0
30.49 1.03462 0
32.9571 0.594342 0
61.9825 42.12 0
59.8179 40.8724 0
40.0399 13.1402 0
38.0512 14.6549 0
71.8771 28.8577 0
70.0329 27.1747 0
60.3413 29.9563 0
59.5804 27.5786 0
6.57605 10.6116 0
5.70671 12.9409 0
33.6234 6.56451 0
31.999 4.67618 0
57.2765 24.4271 0
59.7063 23.8795 0
61.7242 27.7227 0
59.244 27.9614 0
12.9791 2.0216 0
15.1339 3.2648 0
72.4133 4.77584 0
69.9323 4.49215 0
30.5178 5.9995 0
28.1282 6.74478 0
80.7963 3.69591 0
78.2884 3.76343 0
54.377 35.6368 0
52.3703 37.1182 0
30.6166 14.0367 0
33.037 14.6265 0
80.5738 9.08836 0
82.8695 8.10769 0
12.0631 31.2907 0
13.0348 29.0453 0
46.3764 5.03511 0
48.8275 5.53518 0
2.71262 5.29893 0
5.21624 5.19984 0
10.1989 9.50014 0
11.2051 11.7584 0
4.32668 17.7891 0
6.57578 16.6825 0
29.3979 8.25316 0
26.9022 8.24564 0
43.6827 1.7174 0
45.9952 2.67719 0
77.3432 2.72559 0
75.5687 4.41784 0
55.2016 26.4498 0
57.4456 27.5384 0
24.8379 19.1114 0
27.0251 17.8898 0
12.8433 30.6299 0
14.0825 28.4986 0
13.7594 17.7192 0
15.6276 19.3563 0
31.5678 35.7392 0
33.6673 37.0801 0
85.1032 18.7917 0
85.4385 16.3489 0
54.9564 42.0575 0
56.1288 39.8532 0
56.8562 42.712 0
54.3697 42.4846 0
69.3425 40.7807 0
68.4266 43.0948 0
81.618 5.16741 0
81.1805 7.58022 0
67.2785 28.4615 0
69.3675 27.1096 0
23.4144 27.9929 0
20.922 28.1662 0
76.5358 32.8075 0
74.6409 31.1824 0
40.3864 1.52857 0
41.9322 -0.437329 0
21.4864 3.41336 0
19.2735 2.30163 0
32.7474 27.7359 0
34.5496 29.4506 0
39.7462 1.97806 0
37.9644 3.73451 0
68.5822 6.02456 0
66.515 7.41171 0
7.17704 2.09944 0
8.72543 0.141893 0
59.0628 33.1135 0
57.1089 31.5601 0
22.683 35.1061 0
24.209 37.0637 0
76.67 24.6863 0
76.1206 22.2673 0
8.86461 16.6244 0
9.71486 18.9458 0
27.0523 16.4505 0
28.4748 14.3952 0
31.9645 36.6653 0
32.7973 34.3147 0
22.2341 34.6242 0
19.9992 33.5284 0
73.3025 36.7825 0
71.9726 34.6724 0
15.0275 2.07129 0
16.9719 0.510805 0
52.226 11.8582 0
52.0949 9.36094 0
33.8345 8.49785 0
32.6906 6.28521 0
24.9822 41.4629 0
27.3766 40.7311 0
57.5673 12.2371 0
59.788 11.1035 0
84.1613 34.8583 0
82.3481 33.1447 0
40.4001 46.827 0
38.8917 44.836 0
18.0815 12.0434 0
20.5476 12.4926 0
92.7265 8.13107 0
94.4091 6.3024 0
81.3277 32.7161 0
80.6097 30.3415 0
38.8474 14.5594 0
38.7141 17.054 0
28.6045 11.3575 0
29.993 13.4101 0
51.9087 39.2166 0
54.3948 39.4257 0
86.5179 27.8402 0
85.8602 25.464 0
22.1657 2.27578 0
23.572 4.27302 0
49.3539 2.88786 0
47.2306 1.56173 0
18.8796 19.5098 0
21.3679 19.8108 0
2.07656 8.99163 0
4.26318 7.77289 0
20.2609 3.54157 0
18.8554 5.59255 0
62.9346 44.1006 0
65.157 45.246 0
34.5177 20.9226 0
36.6008 19.5418 0
94.5991 1.02898 0
93.9684 3.424 0
49.7449 42.0889 0
49.3595 39.6203 0
58.6686 10.5176 0
56.3208 9.66386 0
36.6232 10.4514 0
34.3428 11.4782 0
56.8208 43.5481 0
56.7492 46.046 0
2.41299 12.5652 0
1.74931 10.169 0
82.4288 4.91872 0
83.3224 2.6246 0
37.6753 46.987 0
35.4197 45.9109 0
65.9577 39.2208 0
68.2876 40.1272 0
24.6853 33.786 0
27.1593 34.1167 0
68.4458 39.131 0
70.8449 38.4436 0
13.8613 30.3611 0
12.2312 28.5034 0
58.8574 44.1145 0
61.2915 44.6784 0
24.3362 5.50094 0
24.2092 7.97602 0
81.1013 20.7076 0
78.714 21.4532 0
29.8907 39.4218 0
29.522 41.8843 0
23.7365 16.8444 0
21.4723 15.8003 0
2.71345 8.19347 0
4.94214 7.05228 0
48.0308 30.5519 0
49.9852 29.0022 0
87.0394 22.9648 0
84.647 23.6982 0
34.6791 10.6682 0
32.3485 11.5782 0
47.5632 25.7311 0
46.1097 23.7035 0
67.3976 24.0267 0
65.4094 22.5129 0
58.1969 29.8538 0
56.8571 31.9559 0
32.3494 34.5987 0
34.6372 35.5868 0
57.4 36.052 0
56.0404 33.957 0
26.6754 3.20614 0
28.7694 1.82851 0
11.2014 26.451 0
12.7333 24.4827 0
63.4887 32.8034 0
61.8964 34.7186 0
28.5111 11.1947 0
26.0642 11.7375 0
44.5071 45.4861 0
42.0093 45.5524 0
30.867 14.2345 0
31.9978 16.4453 0
13.2007 1.81492 0
15.3309 0.507729 0
76.1052 14.8235 0
73.844 15.8643 0
12.6641 6.48484 0
13.3145 8.86502 0
35.4782 4.69021 0
36.3496 7.02894 0
53.9885 17.4022 0
51.5356 17.8412 0
31.3265 8.26997 0
29.0224 7.33682 0
24.3003 6.5017 0
21.8031 6.75018 0
48.6109 3.34162 0
51.0497 3.90737 0
32.1843 13.5507 0
32.1135 11.0595 0
1.56681 3.44448 0
4.04834 3.7668 0
62.8076 43.9915 0
60.4891 43.059 0
42.6543 24.1775 0
40.1682 24.019 0
48.3493 30.4865 0
50.5224 31.7072 0
58.8634 35.0292 0
56.3798 35.2446 0
50.0163 46.3023 0
52.0699 44.8797 0
26.9563 5.52983 0
26.3365 7.95186 0
43.5251 35.7697 0
42.1101 33.7163 0
52.8705 27.6822 0
50.9789 29.3066 0
60.9398 39.6833 0
62.0781 41.9067 0
46.9407 23.3863 0
45.6773 21.2341 0
19.2517 2.91924 0
18.5394 0.572373 0
48.2311 41.6242 0
49.1926 39.3181 0
47.8217 39.2145 0
45.3736 38.7366 0
73.1955 11.3517 0
72.6712 8.91467 0
52.5203 17.5649 0
50.7811 15.7733 0
25.0209 41.5138 0
27.5078 41.2262 0
51.9653 23.8235 0
50.5558 25.8833 0
25.881 30.073 0
28.3046 30.6575 0
5.33941 7.9725 0
2.8554 7.66329 0
20.9103 34.9783 0
18.7855 36.2976 0
31.9233 18.9463 0
34.1956 19.9618 0
30.1344 19.0402 0
27.7849 18.2105 0
78.7063 17.3443 0
79.441 19.7117 0
41.9313 31.8719 0
42.4775 29.4357 0
44.7983 12.2782 0
45.2546 9.81933 0
44.21 19.8168 0
46.0536 18.1324 0
36.1112 2.2108 0
35.776 4.68594 0
94.4939 4.83993 0
95.3111 7.18908 0
41.9284 21.5296 0
40.3819 23.4919 0
57.7622 25.8979 0
55.7266 24.4543 0
62.6711 26.6984 0
65.0754 27.3675 0
8.54179 15.559 0
8.46731 18.0338 0
70.7902 30.6849 0
68.3491 30.1583 0
45.8893 35.4099 0
46.1358 32.9247 0
87.0843 2.72795 0
88.7792 4.55695 0
22.5339 38.2165 0
22.894 40.6702 0
66.2325 42.8687 0
64.1982 41.4166 0
77.3252 11.8233 0
77.8602 14.2422 0
50.845 46.7226 0
49.1606 48.5691 0
14.9007 13.2844 0
15.4048 10.8656 0
75.5849 18.7562 0
75.372 21.2228 0
59.0455 45.3093 0
61.0992 46.7349 0
83.7431 9.37002 0
86.1981 8.86673 0
6.95848 1.79305 0
4.45833 1.88714 0
80.72 18.8006 0
82.5312 17.1033 0
13.6036 0.197908 0
11.1059 0.104881 0
14.9545 31.9007 0
17.3302 31.1401 0
14.2016 12.7518 0
15.5795 14.8046 0
66.7453 0.707847 0
64.2721 1.12337 0
72.2217 24.2151 0
71.2652 26.506 0
52.0151 31.1402 0
50.0644 29.5866 0
29.3545 28.907 0
28.089 26.77 0
76.0219 25.1235 0
76.2599 22.6579 0
88.1059 17.1236 0
90.3502 18.2475 0
56.5855 8.76782 0
54.2966 9.76452 0
30.6136 42.01 0
32.0941 44.0131 0
49.5618 37.9562 0
50.1525 35.5291 0
33.6059 30.3567 0
35.8368 31.4629 0
51.2924 19.8931 0
50.1617 22.1203 0
48.0114 19.8994 0
46.7681 17.734 0
56.2999 36.442 0
54.2121 37.8058 0
27.9602 27.7531 0
28.5392 30.1678 0
32.5984 34.1875 0
33.2272 36.5958 0
91.7555 14.6307 0
93.5887 16.3321 0
6.66948 6.1359 0
6.34168 8.59545 0
30.6184 35.5052 0
31.2905 33.1054 0
65.1797 34.6078 0
64.2489 36.918 0
70.914 2.02126 0
72.5237 0.12736 0
72.1685 24.8118 0
72.6485 22.377 0
12.9569 14.5196 0
14.9656 15.9888 0
48.3594 3.15768 0
50.7932 3.74535 0
17.3638 5.80748 0
17.5679 8.25607 0
6.47444 18.4936 0
3.98412 18.2501 0
31.8655 33.6177 0
32.0438 36.1006 0
59.3066 32.5809 0
59.0122 35.0586 0
80.5504 24.2315 0
80.9295 26.6755 0
96.0491 18.3261 0
96.4706 15.8776 0
81.632 13.0309 0
84.108 12.631 0
31.441 34.1445 0
30.3661 31.9027 0
95.0811 8.61199 0
94.2089 10.9333 0
92.6848 17.8072 0
94.9089 16.6789 0
25.3443 37.6171 0
25.0608 35.1509 0
11.1426 27.0012 0
12.9648 28.6708 0
25.2316 16.8999 0
22.7679 17.3732 0
33.0813 21.9929 0
35.5685 22.1695 0
75.0609 22.8291 0
72.5612 22.8615 0
50.0605 27.3 0
49.6806 29.7688 0
21.0113 18.4971 0
20.5021 20.9196 0
93.0928 7.19087 0
92.2694 9.52641 0
49.1256 47.8213 0
47.6832 45.7808 0
60.2867 38.7689 0
62.1611 37.1252 0
68.4811 12.3864 0
66.4277 10.9527 0
74.7344 11.3214 0
72.5629 12.5254 0
59.6023 41.6035 0
61.2388 43.4919 0
83.0166 11.9241 0
83.7029 9.56053 0
12.3019 9.69752 0
11.2158 7.47685 0
46.2398 42.7427 0
44.2393 41.2505 0
78.0912 4.11649 0
75.6244 4.49533 0
79.2125 34.3448 0
79.6675 31.9102 0
50.3176 26.0194 0
47.8606 25.6112 0
15.9037 14.8112 0
18.3849 14.408 0
24.6418 1.71474 0
27.1176 1.86395 0
21.7906 5.83422 0
23.7487 4.25935 0
38.4645 26.487 0
36.0251 27.009 0
39.6141 37.6637 0
37.1233 37.5192 0
20.473 23.0493 0
19.0684 21.0085 0
55.8191 8.39197 0
53.5416 9.41573 0
30.8172 38.4413 0
33.2642 37.9332 0
56.7757 41.4897 0
59.2431 41.1168 0
59.0456 12.1235 0
61.493 11.646 0
84.7934 1.93239 0
82.4346 2.74486 0
54.6789 35.4219 0
52.9134 37.1844 0
27.9238 39.0726 0
30.4187 38.9091 0
56.8993 32.3078 0
56.6111 29.8279 0
77.5873 21.0636 0
75.7017 22.6834 0
36.6999 36.2652 0
36.061 38.6775 0
70.6369 32.1167 0
68.1731 32.504 0
48.945 32.1347 0
50.2817 30.0268 0
64.355 19.1198 0
65.3596 21.407 0
36.9436 30.2847 0
39.4362 30.327 0
52.1024 2.75272 0
54.2119 4.099 0
16.1468 26.7234 0
13.931 25.5759 0
28.8502 37.3785 0
26.3806 37.772 0
66.2864 34.5265 0
64.6971 32.6003 0
86.8485 13.6705 0
85.7536 15.8833 0
79.8811 37.1721 0
77.5825 38.1403 0
1.05349 9.61395 0
2.74181 11.4455 0
22.322 6.91321 0
19.8276 6.68153 0
28.048 23.9359 0
25.5738 23.5961 0
48.7813 5.18577 0
46.409 4.39121 0
39.4181 8.11367 0
37.1233 7.1344 0
13.196 16.0677 0
11.7552 14.055 0
35.2163 37.5835 0
33.3999 39.2987 0
76.1196 7.87548 0
78.1933 6.5165 0
38.8973 43.5689 0
38.0875 41.2084 0
46.1958 9.22233 0
48.2306 7.77134 0
39.9186 30.6924 0
37.4998 31.3026 0
37.3467 28.9388 0
36.6797 31.3427 0
36.7384 26.6766 0
34.2677 27.023 0
30.6649 4.28472 0
33.0157 5.11543 0
71.8065 31.6737 0
73.9797 30.4597 0
24.1849 12.227 0
26.5762 11.4628 0
33.2262 43.3843 0
35.5153 42.3784 0
26.1155 22.2559 0
24.0953 23.7271 0
5.62431 2.55201 0
6.55546 0.243313 0
94.4064 5.86632 0
96.8198 6.54273 0
53.4031 18.6761 0
51.7008 16.8492 0
53.8031 45.1598 0
52.3224 47.1721 0
94.7489 5.21374 0
93.34 3.15562 0
30.2607 20.9273 0
27.8144 20.4367 0
57.5099 1.8941 0
58.117 4.3184 0
94.6331 11.4317 0
92.9903 9.55205 0
43.726 6.9595 0
46.1873 6.52208 0
49.3937 42.0987 0
47.4364 43.6508 0
42.4368 27.0512 0
44.8436 26.4018 0
24.2778 22.4143 0
21.8023 22.0557 0
69.9674 33.9017 0
70.1325 31.4205 0
18.3901 13.3849 0
20.6173 14.506 0
9.42813 28.5876 0
11.7099 27.5338 0
62.0103 24.2614 0
60.7814 22.0863 0
81.7061 24.9539 0
79.2031 24.8773 0
22.8658 29.0427 0
20.7469 30.3616 0
14.2691 29.4039 0
14.3831 31.8645 0
12.6235 12.9263 0
13.659 15.1677 0
67.3423 22.5653 0
67.7897 20.119 0
79.3033 21.6585 0
81.7174 22.3383 0
15.2794 21.5298 0
14.2128 23.7683 0
21.2683 13.4371 0
18.91 12.6086 0
44.9088 44.7496 0
42.4136 44.6349 0
62.2215 37.8083 0
60.8034 35.7524 0
59.6096 47.0037 0
61.9395 46.0989 0
39.9849 37.5361 0
42.4789 37.4868 0
55.7184 30.0342 0
53.3831 29.1613 0
67.6104 40.5048 0
65.1251 40.7556 0
71.0742 5.49906 0
73.5631 5.57516 0
80.9167 3.25555 0
80.8446 0.802619 0
59.6876 6.86443 0
57.9441 8.65138 0
32.3967 19.3243 0
31.5957 21.6869 0
43.9597 32.2279 0
44.0705 34.722 0
97.8305 14.0877 0
97.9848 11.6048 0
74.0887 18.3828 0
72.1381 16.813 0
77.0437 31.3238 0
76.3355 33.7001 0
55.9597 48.4027 0
56.3186 45.9296 0
40.1667 1.00095 0
37.7488 1.65934 0
72.0165 19.8699 0
74.493 19.5357 0
41.8389 44.456 0
44.317 44.767 0
87.0998 2.73518 0
86.5294 5.13642 0
19.3933 21.793 0
18.9456 19.3659 0
17.5445 36.0534 0
16.3166 33.9078 0
26.0907 37.7955 0
24.2033 39.4342 0
61.6703 6.11231 0
59.7025 4.56816 0
39.746 29.8706 0
40.0603 32.3447 0
63.2636 5.34047 0
60.7926 5.71126 0
60.581 6.46024 0
61.4372 4.11366 0
79.2991 36.698 0
76.8638 37.2519 0
46.8302 23.1824 0
47.7858 20.8735 0
81.954 12.2478 0
79.4689 12.5825 0
17.6993 12.8762 0
18.5206 15.2011 0
48.2108 40.4014 0
46.3984 42.1204 0
65.3527 19.609 0
64.1271 17.4303 0
42.9325 39.8131 0
41.7551 42.0172 0
54.5002 16.7571 0
53.4293 19.0129 0
22.9468 29.1878 0
25.336 28.4579 0
23.2568 14.7922 0
20.811 14.2621 0
92.3491 7.76499 0
90.8283 9.72507 0
32.1642 31.8699 0
33.6293 29.8491 0
68.6976 28.3596 0
68.9334 30.8377 0
97.6843 2.40814 0
96.2025 4.39583 0
67.342 14.8391 0
69.8026 14.4389 0
78.3284 23.179 0
78.7918 20.7506 0
37.5867 15.842 0
35.2087 15.1012 0
68.8981 9.16859 0
69.4581 6.74112 0
32.9656 20.065 0
34.3088 17.9573 0
33.2978 31.4377 0
34.9467 29.5629 0
87.8743 25.8332 0
89.8456 27.3827 0
84.2498 23.5133 0
86.6768 24.1564 0
38.5277 11.0276 0
36.103 11.6275 0
65.6731 40.151 0
63.503 38.912 0
37.6935 1.40664 0
35.5207 2.64803 0
75.464 39.7174 0
75.8981 42.1649 0
67.3611 2.04651 0
67.1309 4.53453 0
71.9655 15.0491 0
70.123 13.3514 0
63.3515 31.7103 0
65.8412 31.8679 0
39.5789 3.00504 0
38.8488 5.39601 0
46.2308 18.5177 0
47.7961 16.5709 0
37.5283 38.5403 0
36.3182 40.7247 0
90.1906 7.28362 0
90.9138 4.91829 0
92.5968 19.9723 0
90.1904 19.2566 0
55.8858 19.0417 0
56.1387 16.5559 0
22.8857 18.6597 0
21.5063 20.7329 0
32.7551 15.8809 0
34.5369 17.6137 0
72.9565 38.1444 0
73.3105 35.6858 0
61.734 40.5181 0
63.1666 42.5644 0
27.4816 32.6764 0
29.7755 31.6858 0
27.6642 16.4671 0
25.8194 14.8092 0
39.4862 2.20906 0
37.4603 3.67862 0
18.6484 28.2834 0
17.8154 25.9543 0
73.4976 2.55767 0
75.2342 0.807694 0
75.7644 41.8188 0
73.2655 41.9564 0
57.3504 43.6853 0
54.9304 43.0665 0
27.2632 8.91076 0
28.8952 10.7721 0
24.215 7.70978 0
23.0533 9.91822 0
76.6066 41.3054 0
74.4982 42.6373 0
30.394 38.3277 0
32.0759 40.1635 0
47.7335 27.2481 0
48.5147 29.6196 0
78.4274 6.90295 0
80.9135 6.59042 0
75.9976 10.2703 0
76.2616 12.7332 0
69.5096 33.8577 0
68.8956 31.4434 0
77.7096 16.9428 0
79.6951 18.4677 0
84.4535 32.3113 0
85.6284 34.4953 0
64.8874 34.2007 0
64.2035 31.8016 0
32.4208 9.99286 0
29.9257 9.95848 0
29.5321 44.1714 0
31.8251 45.1624 0
20.0921 28.8383 0
22.5526 28.4059 0
45.1568 28.0914 0
47.3635 26.9303 0
19.3138 33.5981 0
20.5899 31.4621 0
66.121 9.16662 0
66.1504 6.66906 0
61.7144 1.45899 0
64.0745 0.616043 0
80.9532 1.38072 0
79.8132 3.54192 0
40.5934 47.2507 0
38.0959 47.123 0
58.7886 25.8148 0
59.6059 28.1744 0
14.8255 23.2472 0
16.9305 24.5808 0
4.08708 14.3828 0
6.13572 12.9439 0
84.2597 21.5078 0
82.6321 19.6204 0
8.18058 0.60445 0
5.72061 0.180452 0
75.4168 19.8946 0
73.0653 20.7277 0
52.4312 9.61731 0
50.7793 7.74173 0
43.3115 5.51469 0
45.7098 4.80306 0
39.2635 2.55246 0
37.8559 4.6198 0
3.30712 8.6157 0
0.867766 8.05952 0
87.9003 12.0373 0
88.2233 14.4879 0
39.7067 11.084 0
37.4421 10.0432 0
57.9424 7.06821 0
56.0214 5.46662 0
16.2847 26.6246 0
13.7947 26.9194 0
52.548 5.08329 0
55.0216 5.45591 0
89.8467 6.93099 0
92.2321 7.70223 0
93.5142 4.62516 0
91.8615 2.75393 0
95.0983 0.408059 0
96.8684 2.17599 0
16.081 29.122 0
18.4472 28.3264 0
62.4807 9.31105 0
61.7704 11.704 0
18.5824 7.1017 0
17.9391 4.73596 0
70.1831 44.8022 0
67.8015 44.0332 0
79.6768 8.26666 0
80.5715 5.97566 0
91.9076 15.5822 0
89.7477 14.3099 0
59.534 8.48801 0
59.3383 5.99523 0
21.4252 28.2697 0
23.7278 29.2239 0
24.8711 41.7157 0
26.3773 39.7254 0
22.389 13.1119 0
24.5913 14.2677 0
9.848 12.0128 0
11.0287 9.82566 0
33.5196 45.0784 0
34.4823 42.7763 0
67.6034 35.5542 0
69.8673 36.6135 0
25.3528 10.524 0
26.8645 8.52362 0
84.0024 24.3063 0
82.6644 22.2146 0
87.5803 2.02863 0
89.3656 3.77251 0
51.1084 40.6372 0
53.4424 41.5229 0
82.1996 9.33036 0
80.1084 7.94185 0
65.0984 14.2857 0
66.1004 16.5763 0
42.9471 6.45084 0
42.7603 3.95877 0
53.5129 5.16588 0
55.4287 3.5595 0
44.3499 38.5536 0
42.8826 40.5758 0
90.5967 10.7766 0
92.5741 9.26421 0
23.2785 16.6889 0
24.8155 18.6317 0
23.7825 9.91921 0
23.8204 7.4457 0
60.7026 35.3804 0
60.9426 37.8649 0
44.6418 0.876602 0
42.285 1.7268 0
78.2699 24.0265 0
79.0074 21.6657 0
68.8487 37.5548 0
68.7414 35.0674 0
27.5586 6.26756 0
29.4587 4.62772 0
58.9218 12.9255 0
59.0123 15.4226 0
57.7152 9.19802 0
59.6424 10.7909 0
51.757 19.1812 0
54.165 19.8252 0
50.6764 37.8307 0
48.1824 37.8295 0
47.469 22.4915 0
46.4204 24.7592 0
22.6497 20.8778 0
22.8593 23.3435 0
81.0279 2.09069 0
78.5666 1.57154 0
95.2845 4.84758 0
95.4364 7.32479 0
48.3805 40.785 0
46.7858 42.7082 0
26.3908 16.4268 0
25.2523 18.6438 0
89.3175 21.3351 0
88.3469 23.6025 0
43.8411 3.25355 0
46.1136 4.2989 0
53.2781 27.504 0
55.5103 28.6155 0
78.2753 8.21787 0
79.9459 6.39762 0
13.6812 13.8988 0
16.1843 14.0986 0
54.0791 47.1459 0
53.9826 44.6486 0
52.41 5.66113 0
49.986 5.04301 0
54.1048 40.2004 0
51.8101 41.181 0
8.32939 21.7913 0
6.37861 23.3647 0
11.1447 27.4384 0
8.65049 27.2742 0
49.7345 46.8301 0
47.2359 46.8582 0
43.571 18.0303 0
45.9132 18.8793 0
28.4327 43.0871 0
27.7511 40.6964 0
87.0963 31.1807 0
86.3873 28.8286 0
85.783 22.2535 0
86.6529 19.9457 0
85.9788 0.784621 0
88.4156 1.3608 0
83.4897 35.3289 0
84.5108 33.082 0
24.1815 32.3305 0
25.7479 30.3899 0
45.6041 41.9064 0
47.1192 43.8912 0
21.4267 34.6014 0
23.7061 33.5737 0
6.25536 12.0264 0
4.33941 10.436 0
34.5591 14.3899 0
36.1692 12.4745 0
31.2803 45.5538 0
33.0107 43.7512 0
18.3065 22.738 0
20.728 23.3682 0
10.2947 22.3663 0
11.9952 20.5352 0
50.2245 7.25654 0
47.8893 6.36358 0
47.5018 30.4307 0
45.1743 29.5422 0
38.884 20.6568 0
41.2901 19.9976 0
43.6005 9.60534 0
41.3977 10.7852 0
77.4677 36.5805 0
79.235 34.8364 0
39.915 8.58682 0
39.0895 10.9474 0
74.8535 39.9993 0
73.5949 37.8466 0
60.7758 11.5053 0
58.9053 13.1528 0
96.275 12.4635 0
94.0492 11.3135 0
43.7796 24.994 0
41.2882 25.0111 0
54.2755 42.5003 0
56.7472 42.1521 0
84.5568 23.3045 0
82.0518 23.4384 0
2.48809 9.56093 0
4.55588 8.15195 0
82.1269 4.88456 0
84.6189 5.16709 0
36.581 16.1097 0
38.6997 17.4173 0
44.0149 9.04096 0
42.0309 10.5613 0
21.2351 26.1956 0
22.2391 28.4617 0
43.0709 26.8637 0
45.3808 25.9249 0
15.0609 19.4362 0
14.892 21.8984 0
20.165 8.46622 0
21.0289 6.1388 0
12.2549 24.6071 0
10.9849 22.4909 0
49.8773 41.1501 0
48.6874 38.9542 0
9.60925 24.2523 0
9.42411 26.7232 0
35.1027 43.6645 0
32.8889 44.8276 0
13.4114 18.1454 0
11.2161 16.9614 0
12.2813 23.591 0
12.7116 21.1568 0
84.2089 17.2492 0
84.0529 14.7862 0
97.1283 15.3772 0
94.923 14.1896 0
76.1568 36.3775 0
77.5507 38.4452 0
4.70995 2.92708 0
2.25114 3.41031 0
13.9329 26.5503 0
11.4381 26.2975 0
9.89232 5.14803 0
8.62087 7.28694 0
87.0191 9.89464 0
86.7115 7.44376 0
50.8076 18.6015 0
49.8852 16.2789 0
22.8323 2.87292 0
23.4929 0.45918 0
24.0726 40.0588 0
21.5913 39.7387 0
4.28291 10.4654 0
1.87109 11.1449 0
73.9665 27.8038 0
72.399 29.731 0
51.6061 16.2498 0
49.4409 17.488 0
94.7051 5.4877 0
96.5855 7.13618 0
92.4098 0.894702 0
90.0127 1.58329 0
54.6724 27.7034 0
56.9947 28.6115 0
3.9214 2.09948 0
2.79109 4.32029 0
25.6286 41.7031 0
28.115 41.4135 0
24.3381 32.8866 0
25.8024 34.8911 0
64.8446 37.5202 0
63.0307 35.8028 0
45.7894 38.6493 0
46.3357 36.2116 0
59.1308 39.0854 0
58.3302 41.4496 0
42.8535 19.1247 0
41.6542 16.9377 0
48.5281 16.5972 0
47.4705 14.3337 0
92.8882 4.83404 0
91.3672 6.79368 0
17.6581 6.53924 0
16.0795 4.63643 0
31.5898 30.4103 0
33.1044 28.4266 0
49.5586 44.8377 0
50.5156 47.1463 0
51.6908 13.5205 0
49.249 14.0273 0
35.2063 5.29703 0
34.5612 7.71367 0
90.709 7.70555 0
90.2751 10.1386 0
55.2526 45.4616 0
54.0022 43.2971 0
16.7355 18.0358 0
18.9259 16.8143 0
14.608 7.00642 0
14.2684 4.56472 0
24.3299 34.068 0
21.8382 34.2622 0
62.5976 33.3075 0
60.6343 34.8409 0
11.5593 19.5379 0
13.6721 20.8562 0
76.8397 0.323135 0
74.3655 0.172571 0
59.8952 25.7811 0
57.6469 24.6991 0
70.425 26.7894 0
67.9416 27.0254 0
46.2381 22.539 0
46.9822 20.1529 0
76.5716 3.7593 0
74.177 4.38723 0
47.8536 14.8505 0
50.1328 15.8628 0
88.1853 13.4824 0
89.9653 11.7505 0
71.0501 -0.0706186 0
73.3484 0.914977 0
56.2752 45.3948 0
57.203 43.0759 0
68.1824 3.08787 0
65.9638 1.92936 0
22.8788 17.4887 0
24.7981 15.8804 0
81.1657 38.4055 0
83.1402 36.8912 0
49.4118 2.70825 0
51.1133 4.54097 0
66.0299 3.13942 0
63.701 2.22801 0
53.2945 11.8987 0
53.0626 9.40883 0
12.6001 15.3133 0
10.7801 17.0275 0
43.1725 4.41823 0
43.6218 6.87645 0
56.146 20.3263 0
58.5898 20.8206 0
60.813 22.1347 0
58.3394 21.8229 0
28.8644 26.9557 0
27.0486 25.2581 0
40.7083 6.69946 0
38.2344 7.04418 0
17.3965 2.32957 0
19.8811 1.99786 0
42.8591 25.5902 0
40.3889 25.9231 0
7.01148 17.6141 0
8.34685 19.7012 0
20.3137 11.8696 0
22.1597 10.1763 0
67.3745 39.766 0
65.4694 41.3735 0
45.1331 41.2546 0
45.9866 43.6017 0
70.7686 17.0447 0
73.1518 16.3123 0
88.2979 4.84455 0
90.0418 6.62893 0
49.8864 19.9225 0
48.1677 21.7325 0
56.343 37.4456 0
56.3458 39.9435 0
82.3236 25.8226 0
80.7975 27.7793 0
39.5727 4.20325 0
41.5644 5.71023 0
55.1591 43.3124 0
56.998 41.6247 0
55.3725 43.1974 0
57.0507 41.3496 0
25.0838 15.2201 0
23.2609 13.5433 0
14.4046 27.6093 0
13.58 29.9292 0
52.994 16.7954 0
51.1937 18.523 0
32.546 42.5642 0
34.8957 43.4107 0
19.724 10.7597 0
21.4873 12.498 0
61.5027 40.8767 0
63.735 39.7634 0
33.0011 27.2242 0
31.056 28.7909 0
31.0503 20.9901 0
32.0224 23.2765 0
72.0144 27.2248 0
71.1843 29.5653 0
38.1063 12.8751 0
40.5762 13.2146 0
47.304 47.7095 0
45.4852 45.9967 0
70.5854 11.3532 0
70.4456 13.8361 0
98.6921 10.1605 0
96.6271 8.74738 0
96.4893 15.8644 0
93.9854 15.9164 0
58.9382 9.99404 0
59.6695 12.3851 0
54.9827 18.1399 0
56.4601 20.155 0
53.9026 41.3945 0
56.3632 40.9793 0
5.02654 4.41241 0
7.50989 4.08784 0
84.4903 18.6777 0
86.8195 19.6177 0
19.3383 30.0194 0
19.563 32.4852 0
64.3824 35.5745 0
63.1344 33.412 0
66.4411 23.2886 0
68.9354 23.2143 0
60.3595 25.2327 0
62.6501 24.2568 0
55.9003 20.9281 0
57.5892 19.0948 0
21.6131 36.1177 0
19.1179 36.3124 0
55.9339 32.0874 0
58.3608 31.5237 0
67.9638 1.51239 0
70.1446 2.74402 0
16.2139 6.21845 0
17.6118 4.16951 0
91.8011 24.1182 0
91.1171 26.4939 0
89.1999 19.0426 0
86.7241 18.6108 0
88.0984 12.518 0
86.5321 14.4377 0
76.3758 18.7099 0
77.5739 16.5466 0
70.9661 20.8046 0
70.054 23.1132 0
26.6715 25.3037 0
25.4546 27.4767 0
55.7865 26.113 0
55.5401 28.5974 0
59.156 42.8461 0
57.5168 44.7291 0
66.1853 18.5642 0
68.2283 17.1469 0
81.2172 33.3516 0
79.6785 31.3932 0
50.4278 8.77893 0
49.7705 11.1912 0
26.1137 27.3025 0
24.0825 28.7545 0
49.6505 27.0725 0
49.89 24.5854 0
89.2802 25.3456 0
91.7827 25.2934 0
78.9267 31.8918 0
76.5983 32.7774 0
76.166 37.1913 0
76.5998 34.7492 0
22.6802 1.41819 0
23.5225 3.72804 0
17.245 11.8654 0
15.7597 9.88991 0
76.496 35.5488 0
78.3551 33.9013 0
25.5468 42.5424 0
23.7665 40.8029 0
24.9571 3.4556 0
23.1351 1.81625 0
86.8727 24.3053 0
85.0176 22.6328 0
84.0236 33.2686 0
83.1333 30.955 0
67.9857 8.97784 0
65.8898 7.60587 0
6.41115 3.77376 0
4.63473 5.53185 0
88.4966 7.22748 0
89.3794 4.91887 0
68.061 40.601 0
69.8935 38.9143 0
33.6213 18.6643 0
33.5238 21.1543 0
18.4175 18.2316 0
20.0251 20.1178 0
51.0037 20.4344 0
51.9904 18.1392 0
81.1569 27.0463 0
78.9602 25.8591 0
33.6842 33.4605 0
31.505 34.6819 0
42.0944 36.432 0
44.2804 35.2276 0
9.47164 8.05724 0
8.09851 5.99368 0
46.3976 8.82826 0
43.9238 9.17032 0
38.927 45.5708 0
36.7461 44.3529 0
56.6667 44.5509 0
57.0771 42.0868 0
50.8191 7.5636 0
52.1398 9.68583 0
69.2885 9.42186 0
68.1733 11.6415 0
52.7837 10.4466 0
53.9915 8.25874 0
87.9589 0.587721 0
87.4464 3.00467 0
87.5277 29.4985 0
88.466 27.2337 0
27.8209 27.6224 0
29.3745 25.67 0
41.1364 2.99289 0
43.5595 2.36124 0
47.3902 29.0533 0
44.9002 28.9763 0
44.9139 22.9483 0
42.4451 22.6176 0
57.5385 35.971 0
55.6788 34.3053 0
79.9232 4.72252 0
81.3133 6.78584 0
32.9703 1.32239 0
31.3195 3.20297 0
37.99 49.4814 0
37.9116 51.0484 0
37.9116 51.0484 0
37.6963 52.6028 0
37.6963 52.6028 0
37.3458 54.1326 0
37.3458 54.1326 0
36.8629 55.6261 0
36.8629 55.6261 0
36.2514 57.0718 0
36.2514 57.0718 0
35.5161 58.4588 0
35.5161 58.4588 0
34.6625 59.7765 0
34.6625 59.7765 0
33.6973 61.0149 0
33.6973 61.0149 0
32.6279 62.1645 0
32.6279 62.1645 0
31.4624 63.2168 0
31.4624 63.2168 0
30.2097 64.1637 0
30.2097 64.1637 0
28.8794 64.9982 0
28.8794 64.9982 0
27.4814 65.7138 0
27.4814 65.7138 0
26.0266 66.3053 0
26.0266 66.3053 0
24.5258 66.7681 0
24.5258 66.7681 0
22.9904 67.0988 0
22.9904 67.0988 0
21.4321 67.2948 0
21.4321 67.2948 0
19.8627 67.3548 0
19.8627 67.3548 0
18.294 67.2782 0
18.294 67.2782 0
16.7378 67.0657 0
16.7378 67.0657 0
15.206 66.7188 0
15.206 66.7188 0
13.7102 66.2402 0
13.7102 66.2402 0
12.2617 65.6334 0
12.2617 65.6334 0
10.8714 64.903 0
10.8714 64.903 0
9.54999 64.0546 0
9.54999 64.0546 0
8.30739 63.0945 0
8.30739 63.0945 0
7.15307 62.03 0
7.15307 62.03 0
6.09586 60.8691 0
6.09586 60.8691 0
5.14384 59.6206 0
5.14384 59.6206 0
4.30423 58.294 0
4.30423 58.294 0
3.58352 56.8995 0
3.58352 56.8995 0
2.9873 55.4474 0
2.9873 55.4474 0
2.52014 53.949 0
2.52014 53.949 0
2.18565 52.4157 0
2.18565 52.4157 0
1.9866 50.8593 0
1.9866 50.8593 0
1.92453 49.2914 0
1.92453 49.2914 0
1.99999 47.7244 0
1.99999 47.7244 0
2.21256 46.1705 0
2.21256 46.1705 0
2.56073 44.6414 0
2.56073 44.6414 0
3.04187 43.1491 0
3.04187 43.1491 0
3.65245 41.7054 0
3.65245 41.7054 0
4.38781 40.3218 0
4.38781 40.3218 0
5.24236 39.0091 0
5.24236 39.0091 0
6.20981 37.7783 0
6.20981 37.7783 0
7.28229 36.64 0
7.28229 36.64 0
8.45195 35.6039 0
8.45195 35.6039 0
9.70973 34.6819 0
9.70973 34.6819 0
11.0465 33.8825 0
11.0465 33.8825 0
12.4567 33.2059 0
12.4567 33.2059 0
13.9179 32.6285 0
13.9179 32.6285 0
15.4162 32.1646 0
15.4162 32.1646 0
16.9471 31.8279 0
16.9471 31.8279 0
18.5018 31.623 0
18.5018 31.623 0
20.0682 31.5526 0
20.0682 31.5526 0
21.6351 31.6176 0
21.6351 31.6176 0
23.1897 31.8179 0
23.1897 31.8179 0
24.7199 32.1521 0
24.7199 32.1521 0
26.2146 32.6178 0
26.2146 32.6178 0
27.6622 33.2121 0
27.6622 33.2121 0
29.0514 33.9309 0
29.0514 33.9309 0
30.3716 34.7687 0
30.3716 34.7687 0
31.613 35.7193 0
31.613 35.7193 0
32.7662 36.7753 0
32.7662 36.7753 0
33.8223 37.9289 0
33.8223 37.9289 0
34.7735 39.1711 0
34.7735 39.1711 0
35.6125 40.4925 0
35.6125 40.4925 0
36.3329 41.8829 0
36.3329 41.8829 0
36.929 43.3316 0
36.929 43.3316 0
37.3963 44.8276 0
37.3963 44.8276 0
37.731 46.3591 0
37.731 46.3591 0
37.9298 47.9144 0
37.9298 47.9144 0
37.99 49.4814 0
98.0756 49.2908 0
98.0136 50.8587 0
98.0136 50.8587 0
97.8145 52.4151 0
97.8145 52.4151 0
97.48 53.9484 0
97.48 53.9484 0
97.0128 55.4468 0
97.0128 55.4468 0
96.4166 56.8988 0
96.4166 56.8988 0
95.6959 58.2934 0
95.6959 58.2934 0
94.8562 59.6199 0
94.8562 59.6199 0
93.9042 60.8684 0
93.9042 60.8684 0
92.847 62.0293 0
92.847 62.0293 0
91.6926 63.0938 0
91.6926 63.0938 0
90.45 64.0538 0
90.45 64.0538 0
89.1286 64.9023 0
89.1286 64.9023 0
87.7383 65.6326 0
87.7383 65.6326 0
86.2898 66.2394 0
86.2898 66.2394 0
84.7939 66.718 0
84.7939 66.718 0
83.2622 67.0649 0
83.2622 67.0649 0
81.706 67.2774 0
81.706 67.2774 0
80.1373 67.3539 0
80.1373 67.3539 0
78.5679 67.2939 0
78.5679 67.2939 0
77.0096 67.0978 0
77.0096 67.0978 0
75.4742 66.7671 0
75.4742 66.7671 0
73.9734 66.3043 0
73.9734 66.3043 0
72.5186 65.7128 0
72.5186 65.7128 0
71.1207 64.9971 0
71.1207 64.9971 0
69.7903 64.1627 0
69.7903 64.1627 0
68.5376 63.2157 0
68.5376 63.2157 0
67.3722 62.1634 0
67.3722 62.1634 0
66.3028 61.0137 0
66.3028 61.0137 0
65.3376 59.7753 0
65.3376 59.7753 0
64.4841 58.4576 0
64.4841 58.4576 0
63.7488 57.0707 0
63.7488 57.0707 0
63.1374 55.6249 0
63.1374 55.6249 0
62.6545 54.1314 0
62.6545 54.1314 0
62.3041 52.6016 0
62.3041 52.6016 0
62.0888 51.0472 0
62.0888 51.0472 0
62.0105 49.4802 0
62.0105 49.4802 0
62.0708 47.9132 0
62.0708 47.9132 0
62.2696 46.3579 0
62.2696 46.3579 0
62.6043 44.8263 0
62.6043 44.8263 0
63.0715 43.3304 0
63.0715 43.3304 0
63.6676 41.8816 0
63.6676 41.8816 0
64.3879 40.4912 0
64.3879 40.4912 0
65.2268 39.1699 0
65.2268 39.1699 0
66.1779 37.9278 0
66.1779 37.9278 0
67.2341 36.7742 0
67.2341 36.7742 0
68.3872 35.7183 0
68.3872 35.7183 0
69.6287 34.7679 0
69.6287 34.7679 0
70.9491 33.9303 0
70.9491 33.9303 0
72.3381 33.2115 0
72.3381 33.2115 0
73.7856 32.6167 0
73.7856 32.6167 0
75.2803 32.1504 0
75.2803 32.1504 0
76.8109 31.816 0
76.8109 31.816 0
78.3655 31.6158 0
78.3655 31.6158 0
79.932 31.5511 0
79.932 31.5511 0
81.4987 31.6218 0
81.4987 31.6218 0
83.0535 31.8269 0
83.0535 31.8269 0
84.585 32.1636 0
84.585 32.1636 0
86.0833 32.6277 0
86.0833 32.6277 0
87.5428 33.2058 0
87.5428 33.2058 0
88.9543 33.8821 0
88.9543 33.8821 0
90.2915 34.6825 0
90.2915 34.6825 0
91.5485 35.6041 0
91.5485 35.6041 0
92.7179 36.6392 0
92.7179 36.6392 0
93.7907 37.7778 0
93.7907 37.7778 0
94.7579 39.0084 0
94.7579 39.0084 0
95.6125 40.3213 0
95.6125 40.3213 0
96.3479 41.705 0
96.3479 41.705 0
96.9584 43.1485 0
96.9584 43.1485 0
97.4395 44.6408 0
97.4395 44.6408 0
97.7877 46.1699 0
97.7877 46.1699 0
98.0002 47.7239 0
98.0002 47.7239 0
98.0756 49.2908 0
      </DataArray>
    </Points>
    <Cells>
      <DataArray type="Int32" Name="connectivity" format="ascii">
247 120 114 753 754 755 
213 114 214 748 749 750 
487 220 257 647 745 730 
257 115 260 741 742 743 
246 300 116 738 739 740 
212 116 247 731 732 733 
246 257 117 724 725 726 
299 117 312 719 720 721 
303 310 118 716 717 718 
248 118 256 711 712 713 
513 495 483 150 224 119 
507 513 483 151 119 184 
248 120 302 704 705 706 
221 258 121 1196 1197 1198 
259 121 313 1191 1192 1193 
464 430 432 332 409 122 
436 464 432 326 122 408 
346 1189 123 1186 1187 1188 
298 123 351 1181 1182 1183 
71 311 124 699 700 701 
65 124 372 692 693 694 
79 369 125 687 688 689 
684 125 309 680 681 682 
211 243 126 1178 1179 1180 
244 126 297 1173 1174 1175 
462 474 436 240 281 127 
438 462 436 294 127 327 
512 515 514 131 129 134 
513 509 511 130 132 135 
514 515 510 129 139 128 
508 514 510 148 128 147 
496 500 514 146 133 149 
513 499 495 136 145 150 
507 509 513 143 130 151 
505 491 497 141 142 154 
504 515 512 137 131 155 
174 503 511 1151 156 144 
512 514 500 134 133 159 
499 513 511 136 135 162 
494 515 504 138 137 165 
171 510 515 1164 139 166 
140 167 168 678 674 675 
167 492 168 672 661 674 
491 505 506 141 153 169 
177 498 497 656 164 170 
173 490 174 1156 1149 1171 
217 489 503 1126 176 175 
495 499 498 145 163 178 
501 500 496 158 146 179 
172 486 181 1162 1145 1169 
496 514 508 149 148 183 
480 481 140 227 152 187 
479 506 505 188 153 190 
477 505 497 191 154 193 
504 512 475 155 160 194 
472 511 503 161 156 197 
501 502 471 157 199 200 
500 501 470 158 201 202 
475 512 500 160 159 203 
499 511 472 162 161 204 
498 499 469 163 205 206 
497 498 468 164 207 208 
494 504 474 165 195 210 
211 493 171 1165 1161 1166 
167 180 212 667 668 669 
168 492 213 661 662 663 
214 488 177 657 653 658 
172 171 215 1158 1159 1160 
173 185 216 1153 1154 1155 
174 490 217 1149 1127 1150 
473 503 489 196 176 218 
177 488 219 653 643 654 
220 487 180 647 648 649 
182 181 221 1142 1143 1144 
496 508 115 183 222 747 
225 484 185 886 1138 1139 
482 502 481 198 186 226 
506 480 140 189 187 677 
480 506 479 189 188 228 
479 505 478 190 192 229 
478 505 477 192 191 230 
477 497 476 193 209 231 
474 504 475 195 194 232 
472 503 473 197 196 233 
471 502 482 199 198 234 
470 501 471 201 200 235 
475 500 470 203 202 236 
469 499 472 205 204 237 
468 498 469 207 206 238 
476 497 468 209 208 239 
494 474 461 210 241 242 
215 245 249 1133 1134 1135 
216 250 251 1128 1129 1130 
217 252 253 1123 1124 1125 
307 451 473 1047 255 254 
223 219 256 640 641 642 
583 263 223 1074 637 628 
582 261 264 1120 1121 1122 
445 482 481 265 226 268 
444 481 480 267 227 270 
443 480 479 269 228 272 
442 479 478 271 229 274 
441 478 477 273 230 276 
440 477 476 275 231 278 
474 475 436 232 280 281 
472 473 435 233 283 284 
471 482 446 234 266 286 
470 471 434 235 287 288 
464 475 470 279 236 289 
469 472 463 237 285 290 
468 469 433 238 291 292 
439 476 468 277 239 293 
461 474 462 241 240 295 
296 460 243 1071 1116 1117 
245 244 298 1107 1108 1109 
258 249 304 1100 1101 1102 
250 262 305 1095 1096 1097 
252 251 306 1088 1089 1090 
253 452 307 1084 1044 1085 
437 473 451 282 255 308 
633 314 591 871 832 1082 
262 261 316 1075 1076 1077 
318 629 578 854 810 809 
446 482 445 266 265 319 
445 481 444 268 267 320 
444 480 443 270 269 321 
443 479 442 272 271 322 
442 478 441 274 273 323 
441 477 440 276 275 324 
440 476 439 278 277 325 
436 475 464 280 279 326 
435 473 437 283 282 328 
463 472 435 285 284 329 
434 471 446 287 286 330 
464 470 434 289 288 331 
433 469 463 291 290 334 
439 468 433 293 292 335 
462 438 43 294 338 339 
461 462 45 295 340 341 
296 342 343 1068 1069 1070 
297 344 345 1063 1064 1065 
299 311 347 621 622 623 
301 300 348 616 617 618 
302 301 349 609 610 611 
309 303 350 602 603 604 
304 352 353 1058 1059 1060 
305 358 359 1053 1054 1055 
306 361 362 1048 1049 1050 
307 452 364 1044 934 1045 
437 451 109 308 367 368 
599 317 597 848 850 1042 
592 315 593 841 840 1040 
313 355 375 1035 1036 1037 
585 586 587 1032 1033 1034 
356 316 378 1027 1028 1029 
578 579 580 1024 1025 1026 
3 446 445 381 319 383 
7 445 444 384 320 386 
11 444 443 387 321 389 
15 443 442 390 322 392 
19 442 441 393 323 395 
23 441 440 396 324 398 
27 440 439 399 325 401 
432 438 436 336 327 408 
435 437 431 328 337 410 
429 463 435 333 329 411 
434 446 0 330 382 413 
430 464 434 332 331 414 
433 463 429 334 333 415 
1 439 433 402 335 416 
39 438 432 404 336 417 
431 437 940 337 407 418 
43 438 41 338 405 42 
45 462 43 340 339 44 
47 49 342 48 1019 1020 
344 343 51 1009 1010 1011 
346 345 1013 1000 1001 1002 
348 347 702 569 570 571 
350 349 75 560 561 562 
352 351 55 991 992 993 
354 353 979 984 985 986 
355 354 995 975 976 977 
357 356 89 968 969 970 
358 357 956 959 960 961 
360 359 972 952 953 954 
361 360 95 943 944 945 
363 362 99 936 937 938 
364 363 103 927 928 929 
107 451 105 366 365 106 
109 451 107 367 366 108 
931 437 109 406 368 110 
370 369 548 553 554 555 
371 370 690 544 545 546 
372 374 532 537 538 539 
374 373 696 528 529 530 
376 375 61 920 921 922 
924 523 524 915 916 917 
378 380 85 908 909 910 
516 911 518 903 904 905 
0 446 3 382 381 2 
3 445 5 383 385 4 
5 445 7 385 384 6 
7 444 9 386 388 8 
9 444 11 388 387 10 
11 443 13 389 391 12 
13 443 15 391 390 14 
15 442 17 392 394 16 
17 442 19 394 393 18 
19 441 21 395 397 20 
21 441 23 397 396 22 
23 440 25 398 400 24 
25 440 27 400 399 26 
27 439 29 401 403 28 
29 439 1 403 402 30 
41 438 39 405 404 40 
940 437 931 407 406 932 
432 430 31 409 423 419 
429 435 431 411 410 412 
93 429 431 426 412 422 
430 434 0 414 413 424 
1 433 429 416 415 428 
39 432 37 417 420 38 
947 431 940 421 418 941 
37 432 31 420 419 36 
93 431 947 422 421 948 
31 430 33 423 425 32 
33 430 0 425 424 34 
112 429 93 427 426 111 
1 429 112 428 427 113 
220 115 257 746 741 745 
518 899 519 896 897 898 
521 519 380 889 890 891 
630 264 225 882 883 884 
491 177 497 659 170 142 
481 502 140 186 676 152 
744 182 635 879 874 875 
120 247 467 753 735 707 
247 114 492 755 752 736 
114 120 488 754 710 751 
114 213 492 748 662 752 
213 214 491 750 660 665 
214 114 488 749 751 657 
115 220 496 746 652 747 
257 260 466 743 632 727 
182 485 635 878 870 874 
300 246 458 738 728 619 
246 116 487 740 737 729 
116 300 467 739 620 734 
116 212 487 731 670 737 
212 247 492 733 736 671 
247 116 467 732 734 735 
257 246 487 724 729 730 
246 117 458 726 723 728 
117 257 466 725 727 722 
117 299 458 719 625 723 
299 312 449 721 595 626 
312 117 466 720 722 596 
310 303 450 716 608 600 
303 118 457 718 715 605 
118 310 465 717 601 714 
118 248 457 711 708 715 
248 256 488 713 644 709 
256 118 465 712 714 645 
120 248 488 704 709 710 
248 302 457 706 613 708 
302 120 467 705 707 614 
311 71 573 699 72 624 
71 124 63 701 698 70 
124 311 449 700 627 695 
124 65 63 692 64 698 
65 372 67 694 542 66 
372 124 449 693 695 543 
369 79 81 687 80 556 
79 125 73 689 686 78 
125 369 450 688 559 683 
125 684 73 680 685 686 
684 309 564 682 606 565 
309 125 450 681 683 607 
167 140 502 678 676 679 
501 167 502 673 679 157 
140 168 506 675 666 677 
180 167 501 667 673 651 
167 212 492 669 671 672 
212 180 487 668 648 670 
506 168 213 666 663 664 
491 506 213 169 664 665 
491 214 177 660 658 659 
498 177 219 656 654 655 
495 498 219 178 655 646 
496 220 180 652 649 650 
501 496 180 179 650 651 
219 223 495 640 639 646 
223 256 465 642 645 636 
256 219 488 641 643 644 
495 223 263 639 637 638 
483 495 263 224 638 631 
633 635 634 867 868 869 
588 634 259 860 861 862 
629 318 630 854 855 856 
311 299 449 621 626 627 
299 347 458 623 577 625 
347 311 573 622 624 572 
300 301 467 616 615 620 
301 348 69 618 575 612 
348 300 458 617 619 576 
301 302 467 609 614 615 
302 349 457 611 568 613 
349 301 69 610 612 563 
303 309 450 602 607 608 
309 350 564 604 566 606 
350 303 457 603 605 567 
597 317 584 850 807 851 
599 550 581 845 846 847 
371 310 450 598 600 551 
590 315 592 835 841 842 
312 373 449 594 536 595 
593 589 531 836 837 838 
585 590 591 827 828 829 
587 523 589 818 819 820 
586 588 527 811 812 813 
578 583 584 802 803 804 
580 521 582 793 794 795 
579 581 516 784 785 786 
347 348 458 569 576 577 
348 702 69 571 703 575 
702 347 573 570 572 574 
349 350 457 560 567 568 
350 75 564 562 76 566 
75 349 69 561 563 74 
369 370 450 553 552 559 
370 548 557 555 549 547 
548 369 81 554 556 82 
370 371 450 544 551 552 
778 77 550 783 779 780 
690 370 557 545 547 558 
374 372 449 537 543 535 
372 532 67 539 68 542 
532 374 540 538 534 533 
373 374 449 528 535 536 
374 696 540 530 541 534 
531 59 773 772 777 774 
524 527 526 765 766 767 
762 526 376 756 757 758 
744 635 633 875 867 873 
260 744 633 877 873 872 
211 171 515 1166 166 1167 
494 211 515 1168 1167 138 
509 174 511 1152 144 132 
174 217 503 1150 175 1151 
629 583 578 1073 802 810 
465 583 223 805 628 636 
489 307 473 1086 254 218 
258 221 486 1196 1146 1105 
221 121 485 1198 1195 1147 
121 258 455 1197 1104 1194 
121 259 485 1191 864 1195 
259 313 448 1193 1038 865 
313 121 455 1192 1194 1039 
1189 346 1018 1186 1006 1023 
346 123 459 1188 1185 1007 
123 1189 35 1187 1190 1184 
123 298 459 1181 1111 1185 
298 351 456 1183 999 1112 
351 123 35 1182 1184 994 
243 211 494 1178 1168 1119 
211 126 493 1180 1177 1165 
126 243 460 1179 1116 1176 
126 244 493 1173 1115 1177 
244 297 459 1175 1066 1110 
297 126 460 1174 1176 1067 
173 174 509 1171 1152 1172 
507 173 509 1157 1172 143 
510 172 181 1163 1169 1170 
508 510 181 147 1170 1148 
171 172 510 1158 1163 1164 
172 215 486 1160 1136 1162 
215 171 493 1159 1161 1137 
185 173 507 1153 1157 1141 
173 216 490 1155 1131 1156 
216 185 484 1154 1138 1132 
181 182 508 1142 881 1148 
182 221 485 1144 1147 878 
221 181 486 1143 1145 1146 
225 185 507 1139 1141 1140 
483 225 507 887 1140 184 
245 215 493 1133 1137 1114 
215 249 486 1135 1106 1136 
249 245 456 1134 1113 1103 
250 216 484 1128 1132 1099 
216 251 490 1130 1094 1131 
251 250 453 1129 1098 1091 
252 217 490 1123 1127 1093 
217 253 489 1125 1087 1126 
253 252 452 1124 1092 1084 
261 582 447 1120 797 1078 
582 264 318 1122 888 798 
264 261 484 1121 1081 885 
461 296 243 1072 1117 1118 
494 461 243 242 1118 1119 
244 245 493 1107 1114 1115 
245 298 456 1109 1112 1113 
298 244 459 1108 1110 1111 
249 258 486 1100 1105 1106 
258 304 455 1102 1061 1104 
304 249 456 1101 1103 1062 
262 250 484 1095 1099 1080 
250 305 453 1097 1056 1098 
305 262 454 1096 1079 1057 
251 252 490 1088 1093 1094 
252 306 452 1090 1051 1092 
306 251 453 1089 1091 1052 
489 253 307 1087 1085 1086 
260 633 591 872 1082 1083 
466 260 591 632 1083 831 
261 262 484 1075 1080 1081 
262 316 454 1077 1031 1079 
316 261 447 1076 1078 1030 
583 629 263 1073 859 1074 
342 296 461 1068 1072 1022 
296 343 460 1070 1017 1071 
343 342 49 1069 1019 1012 
344 297 460 1063 1067 1016 
297 345 459 1065 1008 1066 
345 344 1004 1064 1015 1003 
352 304 456 1058 1062 998 
304 353 455 1060 990 1061 
353 352 57 1059 997 987 
358 305 454 1053 1057 966 
305 359 453 1055 958 1056 
359 358 963 1054 965 955 
361 306 453 1048 1052 950 
306 362 452 1050 942 1051 
362 361 97 1049 949 939 
451 307 364 1047 1045 1046 
105 451 364 365 1046 933 
371 599 597 849 1042 1043 
310 371 597 598 1043 852 
592 593 373 1040 839 1041 
312 592 373 844 1041 594 
355 313 455 1035 1039 982 
313 375 448 1037 926 1038 
375 355 53 1036 981 923 
586 585 314 1032 833 816 
585 587 315 1034 824 834 
587 586 377 1033 815 825 
316 356 454 1027 974 1031 
356 378 83 1029 913 971 
378 316 447 1028 1030 914 
579 578 317 1024 808 791 
578 580 318 1026 799 809 
580 579 379 1025 790 800 
45 47 342 46 1020 1021 
461 45 342 341 1021 1022 
343 344 460 1009 1016 1017 
344 51 1004 1011 52 1015 
51 343 49 1010 1012 50 
345 346 459 1000 1007 1008 
346 1013 1018 1002 1014 1006 
1013 345 1004 1001 1003 1005 
351 352 456 991 998 999 
352 55 57 993 56 997 
55 351 35 992 994 54 
353 354 455 984 983 990 
354 979 988 986 980 978 
979 353 57 985 987 58 
354 355 455 975 982 983 
355 995 53 977 996 981 
995 354 988 976 978 989 
356 357 454 968 967 974 
357 89 91 970 90 962 
89 356 83 969 971 88 
357 358 454 959 966 967 
358 956 963 961 957 965 
956 357 91 960 962 92 
359 360 453 952 951 958 
360 972 87 954 973 946 
972 359 963 953 955 964 
360 361 453 943 950 951 
361 95 97 945 96 949 
95 360 87 944 946 94 
362 363 452 936 935 942 
363 99 101 938 100 930 
99 362 97 937 939 98 
363 364 452 927 934 935 
364 103 105 929 104 933 
103 363 101 928 930 102 
375 376 448 920 760 926 
376 61 522 922 62 761 
61 375 53 921 923 60 
523 924 59 915 925 821 
924 524 918 917 769 919 
524 523 377 916 826 770 
380 378 447 908 914 894 
378 85 83 910 84 913 
85 380 517 909 893 86 
911 516 77 903 788 912 
516 518 379 905 900 789 
518 911 906 904 907 901 
899 518 906 896 901 902 
518 519 379 898 895 900 
519 899 517 897 520 892 
519 521 379 889 801 895 
521 380 447 891 894 796 
380 519 517 890 892 893 
264 630 318 882 855 888 
630 225 483 884 887 858 
225 264 484 883 885 886 
508 182 744 881 879 880 
115 508 744 222 880 876 
115 744 260 876 877 742 
633 634 314 869 866 871 
634 635 485 868 870 863 
634 588 314 860 817 866 
588 259 448 862 865 814 
259 634 485 861 863 864 
263 629 630 859 856 857 
483 263 630 631 857 858 
597 584 465 851 806 853 
310 597 465 852 853 601 
550 599 371 845 849 782 
599 581 317 847 792 848 
581 550 77 846 779 787 
466 590 592 830 842 843 
312 466 592 596 843 844 
589 593 315 836 840 823 
593 531 373 838 775 839 
531 589 59 837 822 772 
590 585 315 827 834 835 
585 591 314 829 832 833 
591 590 466 828 830 831 
523 587 377 818 825 826 
587 589 315 820 823 824 
589 523 59 819 821 822 
588 586 314 811 816 817 
586 527 377 813 771 815 
527 588 448 812 814 768 
578 584 317 804 807 808 
584 583 465 803 805 806 
521 580 379 793 800 801 
580 582 318 795 798 799 
582 521 447 794 796 797 
581 579 317 784 791 792 
579 516 379 786 789 790 
516 581 77 785 787 788 
690 778 550 691 780 781 
371 690 550 546 781 782 
531 773 696 774 697 776 
373 531 696 775 776 529 
527 524 377 765 770 771 
524 526 918 767 764 769 
526 527 448 766 768 759 
526 762 918 756 763 764 
762 376 522 758 761 525 
376 526 448 757 759 760 
1199 1200
1201 1202
1203 1204
1205 1206
1207 1208
1209 1210
1211 1212
1213 1214
1215 1216
1217 1218
1219 1220
1221 1222
1223 1224
1225 1226
1227 1228
1229 1230
1231 1232
1233 1234
1235 1236
1237 1238
1239 1240
1241 1242
1243 1244
1245 1246
1247 1248
1249 1250
1251 1252
1253 1254
1255 1256
1257 1258
1259 1260
1261 1262
1263 1264
1265 1266
1267 1268
1269 1270
1271 1272
1273 1274
1275 1276
1277 1278
1279 1280
1281 1282
1283 1284
1285 1286
1287 1288
1289 1290
1291 1292
1293 1294
1295 1296
1297 1298
1299 1300
1301 1302
1303 1304
1305 1306
1307 1308
1309 1310
1311 1312
1313 1314
1315 1316
1317 1318
1319 1320
1321 1322
1323 1324
1325 1326
1327 1328
1329 1330
1331 1332
1333 1334
1335 1336
1337 1338
1339 1340
1341 1342
1343 1344
1345 1346
1347 1348
1349 1350
1351 1352
1353 1354
1355 1356
1357 1358
1359 1360
1361 1362
1363 1364
1365 1366
1367 1368
1369 1370
1371 1372
1373 1374
1375 1376
1377 1378
1379 1380
1381 1382
1383 1384
1385 1386
1387 1388
1389 1390
1391 1392
1393 1394
1395 1396
1397 1398
1399 1400
1401 1402
1403 1404
1405 1406
1407 1408
1409 1410
1411 1412
1413 1414
1415 1416
1417 1418
1419 1420
1421 1422
1423 1424
1425 1426
1427 1428
1429 1430
1431 1432
1433 1434
1435 1436
1437 1438
1439 1440
1441 1442
1443 1444
1445 1446
1447 1448
1449 1450
1451 1452
1453 1454
1455 1456
1457 1458
1459 1460
1461 1462
1463 1464
1465 1466
1467 1468
1469 1470
1471 1472
1473 1474
1475 1476
1477 1478
1479 1480
1481 1482
1483 1484
1485 1486
1487 1488
1489 1490
1491 1492
1493 1494
1495 1496
1497 1498
1499 1500
1501 1502
1503 1504
1505 1506
1507 1508
1509 1510
1511 1512
1513 1514
1515 1516
1517 1518
1519 1520
1521 1522
1523 1524
1525 1526
1527 1528
1529 1530
1531 1532
1533 1534
1535 1536
1537 1538
1539 1540
1541 1542
1543 1544
1545 1546
1547 1548
1549 1550
1551 1552
1553 1554
1555 1556
1557 1558
1559 1560
1561 1562
1563 1564
1565 1566
1567 1568
1569 1570
1571 1572
1573 1574
1575 1576
1577 1578
1579 1580
1581 1582
1583 1584
1585 1586
1587 1588
1589 1590
1591 1592
1593 1594
1595 1596
1597 1598
1599 1600
1601 1602
1603 1604
1605 1606
1607 1608
1609 1610
1611 1612
1613 1614
1615 1616
1617 1618
1619 1620
1621 1622
1623 1624
1625 1626
1627 1628
1629 1630
1631 1632
1633 1634
1635 1636
1637 1638
1639 1640
1641 1642
1643 1644
1645 1646
1647 1648
1649 1650
1651 1652
1653 1654
1655 1656
1657 1658
1659 1660
1661 1662
1663 1664
1665 1666
1667 1668
1669 1670
1671 1672
1673 1674
1675 1676
1677 1678
1679 1680
1681 1682
1683 1684
1685 1686
1687 1688
1689 1690
1691 1692
1693 1694
1695 1696
1697 1698
1699 1700
1701 1702
1703 1704
1705 1706
1707 1708
1709 1710
1711 1712
1713 1714
1715 1716
1717 1718
1719 1720
1721 1722
1723 1724
1725 1726
1727 1728
1729 1730
1731 1732
1733 1734
1735 1736
1737 1738
1739 1740
1741 1742
1743 1744
1745 1746
1747 1748
1749 1750
1751 1752
1753 1754
1755 1756
1757 1758
1759 1760
1761 1762
1763 1764
1765 1766
1767 1768
1769 1770
1771 1772
1773 1774
1775 1776
1777 1778
1779 1780
1781 1782
1783 1784
1785 1786
1787 1788
1789 1790
1791 1792
1793 1794
1795 1796
1797 1798
1799 1800
1801 1802
1803 1804
1805 1806
1807 1808
1809 1810
1811 1812
1813 1814
1815 1816
1817 1818
1819 1820
1821 1822
1823 1824
1825 1826
1827 1828
1829 1830
1831 1832
1833 1834
1835 1836
1837 1838
1839 1840
1841 1842
1843 1844
1845 1846
1847 1848
1849 1850
1851 1852
1853 1854
1855 1856
1857 1858
1859 1860
1861 1862
1863 1864
1865 1866
1867 1868
1869 1870
1871 1872
1873 1874
1875 1876
1877 1878
1879 1880
1881 1882
1883 1884
1885 1886
1887 1888
1889 1890
1891 1892
1893 1894
1895 1896
1897 1898
1899 1900
1901 1902
1903 1904
1905 1906
1907 1908
1909 1910
1911 1912
1913 1914
1915 1916
1917 1918
1919 1920
1921 1922
1923 1924
1925 1926
1927 1928
1929 1930
1931 1932
1933 1934
1935 1936
1937 1938
1939 1940
1941 1942
1943 1944
1945 1946
1947 1948
1949 1950
1951 1952
1953 1954
1955 1956
1957 1958
1959 1960
1961 1962
1963 1964
1965 1966
1967 1968
1969 1970
1971 1972
1973 1974
1975 1976
1977 1978
1979 1980
1981 1982
1983 1984
1985 1986
1987 1988
1989 1990
1991 1992
1993 1994
1995 1996
1997 1998
1999 2000
2001 2002
2003 2004
2005 2006
2007 2008
2009 2010
2011 2012
2013 2014
2015 2016
2017 2018
2019 2020
2021 2022
2023 2024
2025 2026
2027 2028
2029 2030
2031 2032
2033 2034
2035 2036
2037 2038
2039 2040
2041 2042
2043 2044
2045 2046
2047 2048
2049 2050
2051 2052
2053 2054
2055 2056
2057 2058
2059 2060
2061 2062
2063 2064
2065 2066
2067 2068
2069 2070
2071 2072
2073 2074
2075 2076
2077 2078
2079 2080
2081 2082
2083 2084
2085 2086
2087 2088
2089 2090
2091 2092
2093 2094
2095 2096
2097 2098
2099 2100
2101 2102
2103 2104
2105 2106
2107 2108
2109 2110
2111 2112
2113 2114
2115 2116
2117 2118
2119 2120
2121 2122
2123 2124
2125 2126
2127 2128
2129 2130
2131 2132
2133 2134
2135 2136
2137 2138
2139 2140
2141 2142
2143 2144
2145 2146
2147 2148
2149 2150
2151 2152
2153 2154
2155 2156
2157 2158
2159 2160
2161 2162
2163 2164
2165 2166
2167 2168
2169 2170
2171 2172
2173 2174
2175 2176
2177 2178
2179 2180
2181 2182
2183 2184
2185 2186
2187 2188
2189 2190
2191 2192
2193 2194
2195 2196
2197 2198
2199 2200
2201 2202
2203 2204
2205 2206
2207 2208
2209 2210
2211 2212
2213 2214
2215 2216
2217 2218
2219 2220
2221 2222
2223 2224
2225 2226
2227 2228
2229 2230
2231 2232
2233 2234
2235 2236
2237 2238
2239 2240
2241 2242
2243 2244
2245 2246
2247 2248
2249 2250
2251 2252
2253 2254
2255 2256
2257 2258
2259 2260
2261 2262
2263 2264
2265 2266
2267 2268
2269 2270
2271 2272
2273 2274
2275 2276
2277 2278
2279 2280
2281 2282
2283 2284
2285 2286
2287 2288
2289 2290
2291 2292
2293 2294
2295 2296
2297 2298
2299 2300
2301 2302
2303 2304
2305 2306
2307 2308
2309 2310
2311 2312
2313 2314
2315 2316
2317 2318
2319 2320
2321 2322
2323 2324
2325 2326
2327 2328
2329 2330
2331 2332
2333 2334
2335 2336
2337 2338
2339 2340
2341 2342
2343 2344
2345 2346
2347 2348
2349 2350
2351 2352
2353 2354
2355 2356
2357 2358
2359 2360
2361 2362
2363 2364
2365 2366
2367 2368
2369 2370
2371 2372
2373 2374
2375 2376
2377 2378
2379 2380
2381 2382
2383 2384
2385 2386
2387 2388
2389 2390
2391 2392
2393 2394
2395 2396
2397 2398
2399 2400
2401 2402
2403 2404
2405 2406
2407 2408
2409 2410
2411 2412
2413 2414
2415 2416
2417 2418
2419 2420
2421 2422
2423 2424
2425 2426
2427 2428
2429 2430
2431 2432
2433 2434
2435 2436
2437 2438
2439 2440
2441 2442
2443 2444
2445 2446
2447 2448
2449 2450
2451 2452
2453 2454
2455 2456
2457 2458
2459 2460
2461 2462
2463 2464
2465 2466
2467 2468
2469 2470
2471 2472
2473 2474
2475 2476
2477 2478
2479 2480
2481 2482
2483 2484
2485 2486
2487 2488
2489 2490
2491 2492
2493 2494
2495 2496
2497 2498
2499 2500
2501 2502
2503 2504
2505 2506
2507 2508
2509 2510
2511 2512
2513 2514
2515 2516
2517 2518
2519 2520
2521 2522
2523 2524
2525 2526
2527 2528
2529 2530
2531 2532
2533 2534
2535 2536
2537 2538
2539 2540
2541 2542
2543 2544
2545 2546
2547 2548
2549 2550
2551 2552
2553 2554
2555 2556
2557 2558
2559 2560
2561 2562
2563 2564
2565 2566
2567 2568
2569 2570
2571 2572
2573 2574
2575 2576
2577 2578
2579 2580
2581 2582
2583 2584
2585 2586
2587 2588
2589 2590
2591 2592
2593 2594
2595 2596
2597 2598
2599 2600
2601 2602
2603 2604
2605 2606
2607 2608
2609 2610
2611 2612
2613 2614
2615 2616
2617 2618
2619 2620
2621 2622
2623 2624
2625 2626
2627 2628
2629 2630
2631 2632
2633 2634
2635 2636
2637 2638
2639 2640
2641 2642
2643 2644
2645 2646
2647 2648
2649 2650
2651 2652
2653 2654
2655 2656
2657 2658
2659 2660
2661 2662
2663 2664
2665 2666
2667 2668
2669 2670
2671 2672
2673 2674
2675 2676
2677 2678
2679 2680
2681 2682
2683 2684
2685 2686
2687 2688
2689 2690
2691 2692
2693 2694
2695 2696
2697 2698
2699 2700
2701 2702
2703 2704
2705 2706
2707 2708
2709 2710
2711 2712
2713 2714
2715 2716
2717 2718
2719 2720
2721 2722
2723 2724
2725 2726
2727 2728
2729 2730
2731 2732
2733 2734
2735 2736
2737 2738
2739 2740
2741 2742
2743 2744
2745 2746
2747 2748
2749 2750
2751 2752
2753 2754
2755 2756
2757 2758
2759 2760
2761 2762
2763 2764
2765 2766
2767 2768
2769 2770
2771 2772
2773 2774
2775 2776
2777 2778
2779 2780
2781 2782
2783 2784
2785 2786
2787 2788
2789 2790
2791 2792
2793 2794
2795 2796
2797 2798
2799 2800
2801 2802
2803 2804
2805 2806
2807 2808
2809 2810
2811 2812
2813 2814
2815 2816
2817 2818
2819 2820
2821 2822
2823 2824
2825 2826
2827 2828
2829 2830
2831 2832
2833 2834
2835 2836
2837 2838
2839 2840
2841 2842
2843 2844
2845 2846
2847 2848
2849 2850
2851 2852
2853 2854
2855 2856
2857 2858
2859 2860
2861 2862
2863 2864
2865 2866
2867 2868
2869 2870
2871 2872
2873 2874
2875 2876
2877 2878
2879 2880
2881 2882
2883 2884
2885 2886
2887 2888
2889 2890
2891 2892
2893 2894
2895 2896
2897 2898
2899 2900
2901 2902
2903 2904
2905 2906
2907 2908
2909 2910
2911 2912
2913 2914
2915 2916
2917 2918
2919 2920
2921 2922
2923 2924
2925 2926
2927 2928
2929 2930
2931 2932
2933 2934
2935 2936
2937 2938
2939 2940
2941 2942
2943 2944
2945 2946
2947 2948
2949 2950
2951 2952
2953 2954
2955 2956
2957 2958
2959 2960
2961 2962
2963 2964
2965 2966
2967 2968
2969 2970
2971 2972
2973 2974
2975 2976
2977 2978
2979 2980
2981 2982
2983 2984
2985 2986
2987 2988
2989 2990
2991 2992
2993 2994
2995 2996
2997 2998
2999 3000
3001 3002
3003 3004
3005 3006
3007 3008
3009 3010
3011 3012
3013 3014
3015 3016
3017 3018
3019 3020
3021 3022
3023 3024
3025 3026
3027 3028
3029 3030
3031 3032
3033 3034
3035 3036
3037 3038
3039 3040
3041 3042
3043 3044
3045 3046
3047 3048
3049 3050
3051 3052
3053 3054
3055 3056
3057 3058
3059 3060
3061 3062
3063 3064
3065 3066
3067 3068
3069 3070
3071 3072
3073 3074
3075 3076
3077 3078
3079 3080
3081 3082
3083 3084
3085 3086
3087 3088
3089 3090
3091 3092
3093 3094
3095 3096
3097 3098
3099 3100
3101 3102
3103 3104
3105 3106
3107 3108
3109 3110
3111 3112
3113 3114
3115 3116
3117 3118
3119 3120
3121 3122
3123 3124
3125 3126
3127 3128
3129 3130
3131 3132
3133 3134
3135 3136
3137 3138
3139 3140
3141 3142
3143 3144
3145 3146
3147 3148
3149 3150
3151 3152
3153 3154
3155 3156
3157 3158
3159 3160
3161 3162
3163 3164
3165 3166
3167 3168
3169 3170
3171 3172
3173 3174
3175 3176
3177 3178
3179 3180
3181 3182
3183 3184
3185 3186
3187 3188
3189 3190
3191 3192
3193 3194
3195 3196
3197 3198
3199 3200
3201 3202
3203 3204
3205 3206
3207 3208
3209 3210
3211 3212
3213 3214
3215 3216
3217 3218
3219 3220
3221 3222
3223 3224
3225 3226
3227 3228
3229 3230
3231 3232
3233 3234
3235 3236
3237 3238
3239 3240
3241 3242
3243 3244
3245 3246
3247 3248
3249 3250
3251 3252
3253 3254
3255 3256
3257 3258
3259 3260
3261 3262
3263 3264
3265 3266
3267 3268
3269 3270
3271 3272
3273 3274
3275 3276
3277 3278
3279 3280
3281 3282
3283 3284
3285 3286
3287 3288
3289 3290
3291 3292
3293 3294
3295 3296
3297 3298
3299 3300
3301 3302
3303 3304
3305 3306
3307 3308
3309 3310
3311 3312
3313 3314
3315 3316
3317 3318
3319 3320
3321 3322
3323 3324
3325 3326
3327 3328
3329 3330
3331 3332
3333 3334
3335 3336
3337 3338
3339 3340
3341 3342
3343 3344
3345 3346
3347 3348
3349 3350
3351 3352
3353 3354
3355 3356
3357 3358
3359 3360
3361 3362
3363 3364
3365 3366
3367 3368
3369 3370
3371 3372
3373 3374
3375 3376
3377 3378
3379 3380
3381 3382
3383 3384
3385 3386
3387 3388
3389 3390
3391 3392
3393 3394
3395 3396
3397 3398
3399 3400
3401 3402
3403 3404
3405 3406
3407 3408
3409 3410
3411 3412
3413 3414
3415 3416
3417 3418
3419 3420
3421 3422
3423 3424
3425 3426
3427 3428
3429 3430
3431 3432
3433 3434
3435 3436
3437 3438
3439 3440
3441 3442
3443 3444
3445 3446
3447 3448
3449 3450
3451 3452
3453 3454
3455 3456
3457 3458
3459 3460
3461 3462
3463 3464
3465 3466
3467 3468
3469 3470
3471 3472
3473 3474
3475 3476
3477 3478
3479 3480
3481 3482
3483 3484
3485 3486
      </DataArray>
      <DataArray type="Int32" Name="offsets" format="ascii">
6
12
18
24
30
36
42
48
54
60
66
72
78
84
90
96
102
108
114
120
126
132
138
144
150
156
162
168
174
180
186
192
198
204
210
216
222
228
234
240
246
252
258
264
270
276
282
288
294
300
306
312
318
324
330
336
342
348
354
360
366
372
378
384
390
396
402
408
414
420
426
432
438
444
450
456
462
468
474
480
486
492
498
504
510
516
522
528
534
540
546
552
558
564
570
576
582
588
594
600
606
612
618
624
630
636
642
648
654
660
666
672
678
684
690
696
702
708
714
720
726
732
738
744
750
756
762
768
774
780
786
792
798
804
810
816
822
828
834
840
846
852
858
864
870
876
882
888
894
900
906
912
918
924
930
936
942
948
954
960
966
972
978
984
990
996
1002
1008
1014
1020
1026
1032
1038
1044
1050
1056
1062
1068
1074
1080
1086
1092
1098
1104
1110
1116
1122
1128
1134
1140
1146
1152
1158
1164
1170
1176
1182
1188
1194
1200
1206
1212
1218
1224
1230
1236
1242
1248
1254
1260
1266
1272
1278
1284
1290
1296
1302
1308
1314
1320
1326
1332
1338
1344
1350
1356
1362
1368
1374
1380
1386
1392
1398
1404
1410
1416
1422
1428
1434
1440
1446
1452
1458
1464
1470
1476
1482
1488
1494
1500
1506
1512
1518
1524
1530
1536
1542
1548
1554
1560
1566
1572
1578
1584
1590
1596
1602
1608
1614
1620
1626
1632
1638
1644
1650
1656
1662
1668
1674
1680
1686
1692
1698
1704
1710
1716
1722
1728
1734
1740
1746
1752
1758
1764
1770
1776
1782
1788
1794
1800
1806
1812
1818
1824
1830
1836
1842
1848
1854
1860
1866
1872
1878
1884
1890
1896
1902
1908
1914
1920
1926
1932
1938
1944
1950
1956
1962
1968
1974
1980
1986
1992
1998
2004
2010
2016
2022
2028
2034
2040
2046
2052
2058
2064
2070
2076
2082
2088
2094
2100
2106
2112
2118
2124
2130
2136
2142
2148
2154
2160
2166
2172
2178
2184
2190
2196
2202
2208
2214
2220
2226
2232
2238
2244
2250
2256
2262
2268
2274
2280
2286
2292
2298
2304
2310
2316
2322
2328
2334
2340
2346
2352
2358
2364
2370
2376
2382
2388
2394
2400
2406
2412
2418
2424
2430
2436
2442
2448
2454
2460
2466
2472
2478
2484
2490
2496
2502
2508
2514
2520
2526
2532
2538
2544
2550
2556
2562
2568
2574
2580
2586
2592
2598
2604
2610
2616
2622
2628
2634
2640
2646
2652
2658
2664
2670
2676
2682
2688
2694
2700
2706
2712
2718
2724
2730
2736
2742
2748
2754
2760
2766
2772
2778
2784
2790
2796
2802
2808
2814
2820
2826
2832
2838
2844
2850
2856
2862
2868
2874
2880
2886
2892
2898
2904
2910
2916
2922
2928
2934
2940
2946
2952
2958
2964
2970
2976
2982
2988
2994
3000
3006
3012
3018
3024
3030
3036
3042
3048
3054
3060
3066
3072
3078
3084
3090
3096
3102
3108
3114
3120
3126
3132
3138
3144
3150
3156
3162
3168
3174
3180
3186
3192
3198
3204
3210
3216
3222
3228
3234
3240
3246
3252
3258
3264
3270
3276
3282
3288
3294
3300
3306
3312
3318
3324
3326
3328
3330
3332
3334
3336
3338
3340
3342
3344
3346
3348
3350
3352
3354
3356
3358
3360
3362
3364
3366
3368
3370
3372
3374
3376
3378
3380
3382
3384
3386
3388
3390
3392
3394
3396
3398
3400
3402
3404
3406
3408
3410
3412
3414
3416
3418
3420
3422
3424
3426
3428
3430
3432
3434
3436
3438
3440
3442
3444
3446
3448
3450
3452
3454
3456
3458
3460
3462
3464
3466
3468
3470
3472
3474
3476
3478
3480
3482
3484
3486
3488
3490
3492
3494
3496
3498
3500
3502
3504
3506
3508
3510
3512
3514
3516
3518
3520
3522
3524
3526
3528
3530
3532
3534
3536
3538
3540
3542
3544
3546
3548
3550
3552
3554
3556
3558
3560
3562
3564
3566
3568
3570
3572
3574
3576
3578
3580
3582
3584
3586
3588
3590
3592
3594
3596
3598
3600
3602
3604
3606
3608
3610
3612
3614
3616
3618
3620
3622
3624
3626
3628
3630
3632
3634
3636
3638
3640
3642
3644
3646
3648
3650
3652
3654
3656
3658
3660
3662
3664
3666
3668
3670
3672
3674
3676
3678
3680
3682
3684
3686
3688
3690
3692
3694
3696
3698
3700
3702
3704
3706
3708
3710
3712
3714
3716
3718
3720
3722
3724
3726
3728
3730
3732
3734
3736
3738
3740
3742
3744
3746
3748
3750
3752
3754
3756
3758
3760
3762
3764
3766
3768
3770
3772
3774
3776
3778
3780
3782
3784
3786
3788
3790
3792
3794
3796
3798
3800
3802
3804
3806
3808
3810
3812
3814
3816
3818
3820
3822
3824
3826
3828
3830
3832
3834
3836
3838
3840
3842
3844
3846
3848
3850
3852
3854
3856
3858
3860
3862
3864
3866
3868
3870
3872
3874
3876
3878
3880
3882
3884
3886
3888
3890
3892
3894
3896
3898
3900
3902
3904
3906
3908
3910
3912
3914
3916
3918
3920
3922
3924
3926
3928
3930
3932
3934
3936
3938
3940
3942
3944
3946
3948
3950
3952
3954
3956
3958
3960
3962
3964
3966
3968
3970
3972
3974
3976
3978
3980
3982
3984
3986
3988
3990
3992
3994
3996
3998
4000
4002
4004
4006
4008
4010
4012
4014
4016
4018
4020
4022
4024
4026
4028
4030
4032
4034
4036
4038
4040
4042
4044
4046
4048
4050
4052
4054
4056
4058
4060
4062
4064
4066
4068
4070
4072
4074
4076
4078
4080
4082
4084
4086
4088
4090
4092
4094
4096
4098
4100
4102
4104
4106
4108
4110
4112
4114
4116
4118
4120
4122
4124
4126
4128
4130
4132
4134
4136
4138
4140
4142
4144
4146
4148
4150
4152
4154
4156
4158
4160
4162
4164
4166
4168
4170
4172
4174
4176
4178
4180
4182
4184
4186
4188
4190
4192
4194
4196
4198
4200
4202
4204
4206
4208
4210
4212
4214
4216
4218
4220
4222
4224
4226
4228
4230
4232
4234
4236
4238
4240
4242
4244
4246
4248
4250
4252
4254
4256
4258
4260
4262
4264
4266
4268
4270
4272
4274
4276
4278
4280
4282
4284
4286
4288
4290
4292
4294
4296
4298
4300
4302
4304
4306
4308
4310
4312
4314
4316
4318
4320
4322
4324
4326
4328
4330
4332
4334
4336
4338
4340
4342
4344
4346
4348
4350
4352
4354
4356
4358
4360
4362
4364
4366
4368
4370
4372
4374
4376
4378
4380
4382
4384
4386
4388
4390
4392
4394
4396
4398
4400
4402
4404
4406
4408
4410
4412
4414
4416
4418
4420
4422
4424
4426
4428
4430
4432
4434
4436
4438
4440
4442
4444
4446
4448
4450
4452
4454
4456
4458
4460
4462
4464
4466
4468
4470
4472
4474
4476
4478
4480
4482
4484
4486
4488
4490
4492
4494
4496
4498
4500
4502
4504
4506
4508
4510
4512
4514
4516
4518
4520
4522
4524
4526
4528
4530
4532
4534
4536
4538
4540
4542
4544
4546
4548
4550
4552
4554
4556
4558
4560
4562
4564
4566
4568
4570
4572
4574
4576
4578
4580
4582
4584
4586
4588
4590
4592
4594
4596
4598
4600
4602
4604
4606
4608
4610
4612
4614
4616
4618
4620
4622
4624
4626
4628
4630
4632
4634
4636
4638
4640
4642
4644
4646
4648
4650
4652
4654
4656
4658
4660
4662
4664
4666
4668
4670
4672
4674
4676
4678
4680
4682
4684
4686
4688
4690
4692
4694
4696
4698
4700
4702
4704
4706
4708
4710
4712
4714
4716
4718
4720
4722
4724
4726
4728
4730
4732
4734
4736
4738
4740
4742
4744
4746
4748
4750
4752
4754
4756
4758
4760
4762
4764
4766
4768
4770
4772
4774
4776
4778
4780
4782
4784
4786
4788
4790
4792
4794
4796
4798
4800
4802
4804
4806
4808
4810
4812
4814
4816
4818
4820
4822
4824
4826
4828
4830
4832
4834
4836
4838
4840
4842
4844
4846
4848
4850
4852
4854
4856
4858
4860
4862
4864
4866
4868
4870
4872
4874
4876
4878
4880
4882
4884
4886
4888
4890
4892
4894
4896
4898
4900
4902
4904
4906
4908
4910
4912
4914
4916
4918
4920
4922
4924
4926
4928
4930
4932
4934
4936
4938
4940
4942
4944
4946
4948
4950
4952
4954
4956
4958
4960
4962
4964
4966
4968
4970
4972
4974
4976
4978
4980
4982
4984
4986
4988
4990
4992
4994
4996
4998
5000
5002
5004
5006
5008
5010
5012
5014
5016
5018
5020
5022
5024
5026
5028
5030
5032
5034
5036
5038
5040
5042
5044
5046
5048
5050
5052
5054
5056
5058
5060
5062
5064
5066
5068
5070
5072
5074
5076
5078
5080
5082
5084
5086
5088
5090
5092
5094
5096
5098
5100
5102
5104
5106
5108
5110
5112
5114
5116
5118
5120
5122
5124
5126
5128
5130
5132
5134
5136
5138
5140
5142
5144
5146
5148
5150
5152
5154
5156
5158
5160
5162
5164
5166
5168
5170
5172
5174
5176
5178
5180
5182
5184
5186
5188
5190
5192
5194
5196
5198
5200
5202
5204
5206
5208
5210
5212
5214
5216
5218
5220
5222
5224
5226
5228
5230
5232
5234
5236
5238
5240
5242
5244
5246
5248
5250
5252
5254
5256
5258
5260
5262
5264
5266
5268
5270
5272
5274
5276
5278
5280
5282
5284
5286
5288
5290
5292
5294
5296
5298
5300
5302
5304
5306
5308
5310
5312
5314
5316
5318
5320
5322
5324
5326
5328
5330
5332
5334
5336
5338
5340
5342
5344
5346
5348
5350
5352
5354
5356
5358
5360
5362
5364
5366
5368
5370
5372
5374
5376
5378
5380
5382
5384
5386
5388
5390
5392
5394
5396
5398
5400
5402
5404
5406
5408
5410
5412
5414
5416
5418
5420
5422
5424
5426
5428
5430
5432
5434
5436
5438
5440
5442
5444
5446
5448
5450
5452
5454
5456
5458
5460
5462
5464
5466
5468
5470
5472
5474
5476
5478
5480
5482
5484
5486
5488
5490
5492
5494
5496
5498
5500
5502
5504
5506
5508
5510
5512
5514
5516
5518
5520
5522
5524
5526
5528
5530
5532
5534
5536
5538
5540
5542
5544
5546
5548
5550
5552
5554
5556
5558
5560
5562
5564
5566
5568
5570
5572
5574
5576
5578
5580
5582
5584
5586
5588
5590
5592
5594
5596
5598
5600
5602
5604
5606
5608
5610
5612
      </DataArray>
      <DataArray type="UInt8" Name="types" format="ascii">
69
69
69
69
69
69
69
69
69
69
69
69
69
69
69
69
69
69
69
69
69
69
69
69
69
69
69
69
69
69
69
69
69
69
69
69
69
69
69
69
69
69
69
69
69
69
69
69
69
69
69
69
69
69
69
69
69
69
69
69
69
69
69
69
69
69
69
69
69
69
69
69
69
69
69
69
69
69
69
69
69
69
69
69
69
69
69
69
69
69
69
69
69
69
69
69
69
69
69
69
69
69
69
69
69
69
69
69
69
69
69
69
69
69
69
69
69
69
69
69
69
69
69
69
69
69
69
69
69
69
69
69
69
69
69
69
69
69
69
69
69
69
69
69
69
69
69
69
69
69
69
69
69
69
69
69
69
69
69
69
69
69
69
69
69
69
69
69
69
69
69
69
69
69
69
69
69
69
69
69
69
69
69
69
69
69
69
69
69
69
69
69
69
69
69
69
69
69
69
69
69
69
69
69
69
69
69
69
69
69
69
69
69
69
69
69
69
69
69
69
69
69
69
69
69
69
69
69
69
69
69
69
69
69
69
69
69
69
69
69
69
69
69
69
69
69
69
69
69
69
69
69
69
69
69
69
69
69
69
69
69
69
69
69
69
69
69
69
69
69
69
69
69
69
69
69
69
69
69
69
69
69
69
69
69
69
69
69
69
69
69
69
69
69
69
69
69
69
69
69
69
69
69
69
69
69
69
69
69
69
69
69
69
69
69
69
69
69
69
69
69
69
69
69
69
69
69
69
69
69
69
69
69
69
69
69
69
69
69
69
69
69
69
69
69
69
69
69
69
69
69
69
69
69
69
69
69
69
69
69
69
69
69
69
69
69
69
69
69
69
69
69
69
69
69
69
69
69
69
69
69
69
69
69
69
69
69
69
69
69
69
69
69
69
69
69
69
69
69
69
69
69
69
69
69
69
69
69
69
69
69
69
69
69
69
69
69
69
69
69
69
69
69
69
69
69
69
69
69
69
69
69
69
69
69
69
69
69
69
69
69
69
69
69
69
69
69
69
69
69
69
69
69
69
69
69
69
69
69
69
69
69
69
69
69
69
69
69
69
69
69
69
69
69
69
69
69
69
69
69
69
69
69
69
69
69
69
69
69
69
69
69
69
69
69
69
69
69
69
69
69
69
69
69
69
69
69
69
69
69
69
69
69
69
69
69
69
69
69
69
69
69
69
69
69
69
69
69
69
69
69
69
69
69
69
69
69
69
69
69
69
69
69
69
69
69
69
69
69
69
69
69
69
69
3
3
3
3
3
3
3
3
3
3
3
3
3
3
3
3
3
3
3
3
3
3
3
3
3
3
3
3
3
3
3
3
3
3
3
3
3
3
3
3
3
3
3
3
3
3
3
3
3
3
3
3
3
3
3
3
3
3
3
3
3
3
3
3
3
3
3
3
3
3
3
3
3
3
3
3
3
3
3
3
3
3
3
3
3
3
3
3
3
3
3
3
3
3
3
3
3
3
3
3
3
3
3
3
3
3
3
3
3
3
3
3
3
3
3
3
3
3
3
3
3
3
3
3
3
3
3
3
3
3
3
3
3
3
3
3
3
3
3
3
3
3
3
3
3
3
3
3
3
3
3
3
3
3
3
3
3
3
3
3
3
3
3
3
3
3
3
3
3
3
3
3
3
3
3
3
3
3
3
3
3
3
3
3
3
3
3
3
3
3
3
3
3
3
3
3
3
3
3
3
3
3
3
3
3
3
3
3
3
3
3
3
3
3
3
3
3
3
3
3
3
3
3
3
3
3
3
3
3
3
3
3
3
3
3
3
3
3
3
3
3
3
3
3
3
3
3
3
3
3
3
3
3
3
3
3
3
3
3
3
3
3
3
3
3
3
3
3
3
3
3
3
3
3
3
3
3
3
3
3
3
3
3
3
3
3
3
3
3
3
3
3
3
3
3
3
3
3
3
3
3
3
3
3
3
3
3
3
3
3
3
3
3
3
3
3
3
3
3
3
3
3
3
3
3
3
3
3
3
3
3
3
3
3
3
3
3
3
3
3
3
3
3
3
3
3
3
3
3
3
3
3
3
3
3
3
3
3
3
3
3
3
3
3
3
3
3
3
3
3
3
3
3
3
3
3
3
3
3
3
3
3
3
3
3
3
3
3
3
3
3
3
3
3
3
3
3
3
3
3
3
3
3
3
3
3
3
3
3
3
3
3
3
3
3
3
3
3
3
3
3
3
3
3
3
3
3
3
3
3
3
3
3
3
3
3
3
3
3
3
3
3
3
3
3
3
3
3
3
3
3
3
3
3
3
3
3
3
3
3
3
3
3
3
3
3
3
3
3
3
3
3
3
3
3
3
3
3
3
3
3
3
3
3
3
3
3
3
3
3
3
3
3
3
3
3
3
3
3
3
3
3
3
3
3
3
3
3
3
3
3
3
3
3
3
3
3
3
3
3
3
3
3
3
3
3
3
3
3
3
3
3
3
3
3
3
3
3
3
3
3
3
3
3
3
3
3
3
3
3
3
3
3
3
3
3
3
3
3
3
3
3
3
3
3
3
3
3
3
3
3
3
3
3
3
3
3
3
3
3
3
3
3
3
3
3
3
3
3
3
3
3
3
3
3
3
3
3
3
3
3
3
3
3
3
3
3
3
3
3
3
3
3
3
3
3
3
3
3
3
3
3
3
3
3
3
3
3
3
3
3
3
3
3
3
3
3
3
3
3
3
3
3
3
3
3
3
3
3
3
3
3
3
3
3
3
3
3
3
3
3
3
3
3
3
3
3
3
3
3
3
3
3
3
3
3
3
3
3
3
3
3
3
3
3
3
3
3
3
3
3
3
3
3
3
3
3
3
3
3
3
3
3
3
3
3
3
3
3
3
3
3
3
3
3
3
3
3
3
3
3
3
3
3
3
3
3
3
3
3
3
3
3
3
3
3
3
3
3
3
3
3
3
3
3
3
3
3
3
3
3
3
3
3
3
3
3
3
3
3
3
3
3
3
3
3
3
3
3
3
3
3
3
3
3
3
3
3
3
3
3
3
3
3
3
3
3
3
3
3
3
3
3
3
3
3
3
3
3
3
3
3
3
3
3
3
3
3
3
3
3
3
3
3
3
3
3
3
3
3
3
3
3
3
3
3
3
3
3
3
3
3
3
3
3
3
3
3
3
3
3
3
3
3
3
3
3
3
3
3
3
3
3
3
3
3
3
3
3
3
3
3
3
3
3
3
3
3
3
3
3
3
3
3
3
3
3
3
3
3
3
3
3
3
3
3
3
3
3
3
3
3
3
3
3
3
3
3
3
3
3
3
3
3
3
3
3
3
3
3
3
3
3
3
3
3
3
3
3
3
3
3
3
3
3
3
3
3
3
3
3
3
3
3
3
3
3
3
3
3
3
3
3
3
3
3
3
3
3
3
3
3
3
3
3
3
3
3
3
3
3
3
3
3
3
3
3
3
3
3
3
3
3
3
3
3
3
3
3
3
3
3
3
3
3
3
3
3
3
3
3
3
3
3
3
3
3
3
3
3
3
3
3
3
3
3
3
3
3
3
3
3
3
3
3
3
3
3
3
3
3
3
3
3
3
3
3
3
3
3
3
3
3
3
3
3
3
3
3
3
3
3
3
3
3
3
3
3
3
3
3
3
3
3
3
3
3
3
3
3
3
3
3
3
3
3
3
3
3
3
3
3
3
3
3
3
3
3
3
3
3
3
3
3
3
3
3
3
3
3
3
3
3
3
3
3
3
3
3
3
3
3
3
3
3
3
3
3
3
3
3
3
3
3
3
3
3
3
3
3
3
3
3
3
3
3
3
3
3
3
3
3
3
3
3
3
3
3
3
3
3
3
3
3
      </DataArray>
    </Cells>
    <PointData>
      <DataArray type="Float64" NumberOfComponents="2" Name="Displacement" format="ascii">
-0.00186783 -0.509255
0.00266068 -0.510512
-0.000580305 -0.508756
0.00031506 -0.508154
0.000786876 -0.50774
0.00111439 -0.507387
0.00131759 -0.507127
0.00144968 -0.506949
0.00150576 -0.506795
0.0015143 -0.506689
0.00147649 -0.506627
0.00140547 -0.506602
0.00130083 -0.50658
0.00117372 -0.506581
0.00102641 -0.506603
0.000867421 -0.506644
0.000698099 -0.506681
0.000526652 -0.506731
0.000357359 -0.506796
0.000196147 -0.506878
4.93432e-05 -0.506959
-7.92885e-05 -0.507062
-0.000182928 -0.50719
-0.000256159 -0.50735
-0.000285139 -0.50752
-0.000270782 -0.507742
-0.000198876 -0.50802
-6.21062e-05 -0.508365
0.000222727 -0.508731
0.000628865 -0.509226
0.00138933 -0.50991
-0.00938177 -0.508128
-0.00764587 -0.508214
-0.0059194 -0.508366
-0.00412531 -0.508693
-0.147899 -0.645614
-0.0110573 -0.50812
-0.0127355 -0.50815
-0.0151815 -0.508242
-0.0176486 -0.508396
-0.0212236 -0.508723
-0.0248409 -0.509165
-0.030145 -0.510012
-0.0355129 -0.511101
-0.0433564 -0.513109
-0.0512474 -0.515619
-0.0569355 -0.517738
-0.0625955 -0.520115
-0.068197 -0.522765
-0.0737171 -0.525657
-0.0815097 -0.530262
-0.0890423 -0.535332
-0.0962385 -0.540846
-0.0758295 -0.718066
-0.146645 -0.658783
-0.143897 -0.67057
-0.140009 -0.680847
-0.135205 -0.68963
-0.129804 -0.697025
0.0983268 -0.447878
-0.0628246 -0.716336
-0.0474808 -0.711694
-0.0296368 -0.703676
0 0
-0.035557 -0.0321668
-0.0501182 -0.0531971
-0.0518513 -0.0701194
-0.0427021 -0.0909508
-0.0303324 -0.111281
-0.000420549 -0.486489
0 0
0 0
0 0
0 0
0.0284013 -0.471396
0.0572183 -0.416253
0.0754955 -0.300189
-0.0972519 -0.448988
0.0357019 -0.0321208
0.0503439 -0.0533888
0.0521161 -0.0704164
0.0429968 -0.0913392
0.0306283 -0.111681
0.07606 -0.718623
0.0630537 -0.71688
0.047795 -0.712222
0.0299007 -0.704305
0.147833 -0.646496
0.0864495 -0.718813
0.0954761 -0.717608
0.103552 -0.715571
0.11081 -0.712514
0.117586 -0.708701
0.00991745 -0.509419
0.14736 -0.632699
0.14495 -0.618033
0.140393 -0.602808
0.133604 -0.587439
0.127552 -0.576968
0.120437 -0.566776
0.112269 -0.557048
0.103161 -0.5479
0.0963395 -0.542013
0.089164 -0.536522
0.0816531 -0.531466
0.0738826 -0.526875
0.0628084 -0.521373
0.0514999 -0.516851
0.0436394 -0.514369
0.0358472 -0.512386
0.0305002 -0.511299
0.00823354 -0.509528
0.0065554 -0.509697
0.004772 -0.510026
-0.00991036 -0.494718
0.0440529 -0.492714
0.0343306 -0.475549
0.0583611 -0.38611
-0.058788 -0.40894
-0.00896833 -0.533306
-0.0177324 -0.487534
-0.0412 -0.605004
-0.00748643 -0.516537
-0.121882 -0.623162
-0.037699 -0.0685415
0.0370584 -0.0698683
-0.0643227 -0.57671
-0.0236358 -0.52486
-0.00723832 -0.546318
-0.0100441 -0.545227
0.0041455 -0.543813
-0.0132501 -0.544315
0.0108063 -0.547147
0.00538853 -0.52965
-0.00274193 -0.537324
0.00207756 -0.539534
-0.00754855 -0.529822
-0.0190975 -0.546978
-0.0269388 -0.552577
-0.0181998 -0.554798
0.00862221 -0.503465
-0.00676472 -0.504019
-0.0114001 -0.503939
0.011049 -0.552455
0.0172032 -0.550692
-0.019467 -0.518453
0.0185838 -0.517552
-0.00202563 -0.544457
0.00591435 -0.535156
0.0154275 -0.523177
-0.0178349 -0.522432
0.00189367 -0.543598
0.00735366 -0.504523
-0.00190984 -0.504417
-0.00762276 -0.505156
-0.0115291 -0.539132
0.0163021 -0.545766
0.0164351 -0.506143
0.015993 -0.514109
0.00217869 -0.529366
-0.0059028 -0.532644
0.00679545 -0.535975
-0.00125636 -0.532805
-0.016859 -0.515364
-0.0166359 -0.506872
-0.025156 -0.546459
-0.0291007 -0.562405
0.0208271 -0.499482
0.0082596 -0.501081
-0.0038866 -0.503296
-0.0185025 -0.503207
-0.037481 -0.57284
-0.0330355 -0.575665
0.0278202 -0.568699
0.0262127 -0.55956
0.0325926 -0.556574
0.0317686 -0.551486
-0.0255342 -0.499175
-0.0257753 -0.5101
0.0244789 -0.509534
0.0360604 -0.494385
-0.0170006 -0.562901
0.00300125 -0.542321
0.0214929 -0.519079
-0.00236133 -0.541339
0.0250215 -0.571217
0.00876413 -0.505164
0.00557077 -0.504464
0.000462942 -0.504784
0.0026506 -0.504534
-0.00158091 -0.505417
-0.00412303 -0.505698
-0.00260738 -0.505697
-0.00721113 -0.505964
-0.0114655 -0.534647
-0.0203395 -0.539021
0.0260668 -0.543572
0.0143435 -0.538558
0.0097096 -0.505844
0.0114839 -0.506554
0.0146771 -0.508791
0.0138526 -0.511928
0.00801829 -0.519688
0.00196779 -0.525994
-0.00248458 -0.52743
-0.00847875 -0.521149
-0.01449 -0.513195
-0.0147358 -0.510045
-0.0107056 -0.507266
-0.00850158 -0.506536
-0.0283118 -0.543751
-0.0441752 -0.567905
0.0304204 -0.488429
-0.00213545 -0.500537
-0.0168584 -0.498323
-0.0529428 -0.593278
0.045336 -0.58973
0.0410838 -0.564963
0.0337538 -0.545846
-0.0400988 -0.492604
0.0477076 -0.485079
-0.027816 -0.579994
0.0289878 -0.511628
-0.0524937 -0.478819
-0.0228483 -0.518559
0.00772569 -0.55468
0.00628299 -0.50582
0.00448216 -0.505308
0.00164597 -0.505501
-0.000721189 -0.505969
-0.00251669 -0.506246
-0.00457319 -0.50669
-0.0143748 -0.532348
0.016086 -0.53397
0.00815533 -0.507375
0.00862682 -0.51182
0.00108668 -0.521759
-0.00154936 -0.522933
-0.00831756 -0.512992
-0.00692773 -0.508209
-0.0274052 -0.531286
-0.0333044 -0.53844
-0.0379858 -0.546649
-0.0515312 -0.558783
-0.0812202 -0.598274
-0.076428 -0.61029
0.0545135 -0.436545
0.0107956 -0.490408
-0.0443769 -0.461912
-0.0694906 -0.617748
0.0660733 -0.616605
0.0655902 -0.600071
0.0613251 -0.58162
0.0531256 -0.565156
0.0397222 -0.54466
0.0374036 -0.53535
-0.0549233 -0.462983
0.0625232 -0.451389
-0.0587304 -0.617956
-0.0139836 -0.572545
0.058068 -0.469358
0.0390392 -0.603657
0.0652385 -0.631657
-0.0387866 -0.500138
0.00949561 -0.559927
0.0044254 -0.506611
0.00518907 -0.507237
0.00358414 -0.505961
0.00430041 -0.50611
0.00201096 -0.505959
0.00289322 -0.505882
0.000126214 -0.506271
0.000975813 -0.506134
-0.00111191 -0.506618
-0.000436668 -0.50649
-0.00261664 -0.506906
-0.00191158 -0.506687
-0.0036962 -0.507995
-0.00297424 -0.507349
-0.00487429 -0.52334
-0.0105981 -0.526726
-0.0196705 -0.529995
0.025498 -0.529227
0.0194083 -0.529899
0.0079634 -0.526431
0.00332389 -0.524357
0.00632136 -0.508485
0.00619885 -0.510268
0.00431715 -0.514312
0.00179348 -0.517301
-0.00288951 -0.518477
-0.00434949 -0.515485
-0.0056019 -0.511271
-0.00496623 -0.509295
-0.0276989 -0.520575
-0.0374906 -0.532759
-0.0585647 -0.548811
-0.0831913 -0.5803
-0.100015 -0.62148
0.034314 -0.28356
0.0288475 -0.464662
0.00185606 -0.491148
-0.0212171 -0.478887
-0.0401628 -0.306066
-0.0884821 -0.64852
0.0909505 -0.651541
0.0843745 -0.597912
0.0515019 -0.551653
0.0350314 -0.525615
0.00422015 -0.124789
-0.0514596 -0.355169
-0.00719406 -0.11932
0.0446106 -0.33574
-0.0508886 -0.636385
0.044909 -0.489959
0.0776015 -0.424026
0.0650736 -0.651711
-0.075002 -0.437072
-0.0218349 -0.520301
0.00289658 -0.507182
0.00250436 -0.506501
0.00179429 -0.506377
0.000747021 -0.506537
-0.000281125 -0.506783
-0.00110208 -0.507149
-0.00158729 -0.507929
-0.00962786 -0.52106
-0.0196408 -0.520416
0.0168887 -0.521695
0.00602091 -0.520988
0.00281056 -0.509475
-0.000581411 -0.514831
-0.00410169 -0.515289
0.00348726 -0.517242
-0.000334795 -0.515959
-0.00182411 -0.510197
-0.017767 -0.514937
0.0178494 -0.51747
-0.0295648 -0.513651
-0.0335005 -0.518608
-0.0412462 -0.521058
-0.0469217 -0.529015
-0.059702 -0.533611
-0.0712229 -0.545803
-0.0851175 -0.557446
-0.101039 -0.576623
-0.116642 -0.596226
0.0252265 -0.300876
0.00934213 -0.451509
-0.00879422 -0.46226
-0.0240192 -0.32387
-0.121514 -0.646462
-0.116438 -0.665547
-0.108454 -0.680922
-0.100827 -0.696574
-0.0786766 -0.687392
0.083495 -0.691776
0.101438 -0.695781
0.11063 -0.682801
0.117206 -0.664406
0.121638 -0.640763
0.112794 -0.61208
0.101932 -0.584283
0.0903194 -0.560437
0.0706428 -0.547446
0.0603413 -0.529617
0.0492692 -0.524473
0.0414033 -0.521983
0.0293978 -0.516618
0.0347618 -0.124115
-0.00229266 -0.225505
-0.0413137 -0.332366
-0.0352278 -0.121561
0.0343364 -0.312361
0.000964659 -0.218935
-0.0534882 -0.675345
-0.0228118 -0.664181
0.0445812 -0.506341
0.061512 -0.679988
-0.0166288 -0.547942
0.0347 -0.658033
0.00123535 -0.507992
0.00104814 -0.50859
0.00155444 -0.507395
0.0017778 -0.506921
0.00169672 -0.507131
0.0018231 -0.50667
0.00165448 -0.506564
0.00175541 -0.506608
0.00137191 -0.506556
0.00100206 -0.506607
0.0011945 -0.50658
0.000597727 -0.506701
0.000187828 -0.506815
0.000391925 -0.506757
-0.000165117 -0.506963
-0.000474792 -0.507171
-0.000330144 -0.507062
-0.000645949 -0.507456
-0.00068285 -0.5079
-0.000687041 -0.507663
-0.000452564 -0.508519
8.98243e-06 -0.509485
-0.000261695 -0.50896
-0.0206678 -0.512163
-0.0242851 -0.512619
0.0241643 -0.51554
0.020573 -0.515041
-0.013789 -0.519115
-0.00810632 -0.513105
0.0116817 -0.519004
0.00831389 -0.518546
0.00901511 -0.514869
6.86193e-05 -0.510781
-0.000705561 -0.512123
0.00131514 -0.513762
0.000374232 -0.511902
-0.01471 -0.511409
0.0153123 -0.512484
-0.010572 -0.511234
-0.0122727 -0.511265
0.0128996 -0.512339
0.0112203 -0.512306
-0.0067227 -0.510449
-0.00319081 -0.510664
-0.00502658 -0.510531
0.00753655 -0.512463
0.00588212 -0.512478
0.00419959 -0.512518
0.00559097 -0.514665
-0.00438668 -0.512167
0.0125926 -0.514974
-0.0118582 -0.514059
-0.00185456 -0.512985
0.00207083 -0.511988
0.0110442 -0.522561
-0.0158863 -0.524046
0.0232147 -0.520169
-0.0237721 -0.515872
-0.00173622 -0.508729
-0.00137431 -0.507463
-0.000722995 -0.506943
0.000217073 -0.50666
0.00129467 -0.506438
0.00221713 -0.506387
0.00265285 -0.506786
0.00327173 -0.508003
0.0404745 -0.624965
-0.0167043 -0.597214
-0.0023962 -0.205533
-0.00241885 -0.217492
0.0472698 -0.531419
0.0730023 -0.570342
0.0940743 -0.628771
0.0876226 -0.66993
-0.0768811 -0.656067
-0.0956768 -0.637061
-0.0439853 -0.418467
0.0468691 -0.391492
-0.10113 -0.603196
-0.0685824 -0.562077
-0.0434342 -0.540299
-0.0317346 -0.525317
0.00158795 -0.519346
-0.00386887 -0.518155
-0.0663892 -0.433738
0.069095 -0.419016
0.00694167 -0.488838
-0.00875699 -0.509765
-0.00699656 -0.517339
0.00669274 -0.516069
0.0096415 -0.508714
0.00524584 -0.529406
0.0282348 -0.537799
-0.0236226 -0.536068
-0.00595491 -0.52834
-0.00530255 -0.507296
-0.00373012 -0.50631
-0.00142909 -0.506217
0.000189599 -0.505712
0.00322282 -0.505297
0.00560921 -0.505441
0.00677557 -0.50651
-0.0136086 -0.529631
0.0364799 -0.589585
-0.00792622 -0.558067
-0.0429602 -0.591593
0.0490578 -0.472654
-0.0332806 -0.487574
0.0394762 -0.554082
0.0446149 -0.578411
-0.00989672 -0.502665
0.0113877 -0.496038
-0.0594616 -0.587573
-0.0332451 -0.551575
-0.029362 -0.510028
0.0280909 -0.51004
-0.0116274 -0.505504
-0.0211746 -0.508737
-0.00980163 -0.524254
0.00925173 -0.522708
0.0200419 -0.507704
0.0126102 -0.504909
0.0243307 -0.5485
-0.0173626 -0.541323
-0.00403717 -0.505091
0.0010626 -0.503689
0.00901953 -0.552406
0.0115278 -0.53109
0.0131931 -0.552059
-0.0156384 -0.556223
0.00870958 -0.542275
-0.00597133 -0.536583
-0.00442292 -0.535669
0.000386996 -0.537271
-0.0210719 -0.552529
-0.0462066 -0.510677
0.00935366 -0.690729
-0.0240621 -0.600715
0.0058239 -0.629551
-0.00199906 -0.681655
0.0144159 -0.589999
-0.00910032 -0.690236
0.0666419 -0.482988
0.0337531 -0.565043
0.00238468 -0.681053
0.00466449 -0.615498
0.0163051 -0.550283
0.0168711 -0.263825
0.0391708 -0.306582
0.0221061 -0.252836
0.0627465 -0.365219
-0.0151058 -0.136347
0.00284281 -0.166965
0.00822203 -0.21625
-0.00221395 -0.21478
0.0131706 -0.257508
-0.0190294 -0.16587
-0.00886655 -0.176352
-0.0277966 -0.132215
0.0224739 -0.204279
0.0376002 -0.238517
-0.0398677 -0.105854
-0.0210126 -0.160588
-0.0209695 -0.277485
-0.0225083 -0.257498
-0.0424272 -0.320053
-0.00854256 -0.220393
0.0153443 -0.136761
-0.0027242 -0.167506
-0.0676394 -0.3814
-0.0188112 -0.273339
-0.000916964 -0.224023
0.018195 -0.170246
0.0278348 -0.134011
0.00861845 -0.179834
0.0398922 -0.107255
-0.0223993 -0.204992
-0.0374549 -0.239433
0.0187182 -0.167458
-0.014672 -0.412995
0.0126507 -0.443575
0.0146664 -0.379134
0.0061984 -0.484095
0 0
0 0
-0.012572 -0.194912
-0.0365638 -0.377066
-0.0270589 -0.44115
0.0159221 -0.396804
-0.0142192 -0.369784
-0.0140287 -0.436273
0.0134862 -0.177164
0 0
-0.0745229 -0.299153
-0.00777997 -0.481336
0.0301055 -0.422244
0.0377784 -0.350184
-0.0536986 -0.478204
-0.0549315 -0.480664
-0.0196166 -0.526552
-0.0840487 -0.439003
0.0116246 -0.568864
-0.0577839 -0.471378
-0.0692378 -0.443278
0.0704837 -0.454231
0.0452547 -0.493887
0.0747325 -0.456284
0.0133659 -0.536789
0.0851499 -0.429303
0.0735241 -0.425066
0.0661859 -0.456493
0.0639695 -0.388487
0.0654013 -0.385901
0.0394404 -0.326822
0.0208573 -0.271738
0.0600084 -0.381199
-0.06536 -0.398205
-0.0466456 -0.34585
-0.0699295 -0.400246
-0.0280603 -0.289611
-0.0631176 -0.399226
-0.0199446 -0.220642
-0.0382298 -0.302853
-0.0214344 -0.205848
-0.0481493 -0.36594
0.00695433 -0.0696781
0.00261219 -0.173437
-0.0236149 -0.259893
-0.0076661 -0.488598
-0.00611524 -0.486261
-0.0186354 -0.471709
-0.000542398 -0.490981
-0.0338575 -0.456334
-0.00805071 -0.488822
0.00436958 -0.489634
0.0137372 -0.482226
0.0222507 -0.458151
0.00821911 -0.480092
0.0394684 -0.435312
0.0191859 -0.481211
0.0140113 -0.20381
0.0179583 -0.188312
0.0353558 -0.279375
-0.0082725 -0.06753
0.0462303 -0.338701
0.0170888 -0.243041
-0.00659193 -0.164845
-0.0553142 -0.475055
-0.039396 -0.498297
-0.0172435 -0.526159
-0.0263591 -0.515457
0.0675143 -0.445797
0.0428442 -0.492203
0.0159144 -0.527818
0.0175568 -0.524913
-0.0615374 -0.458604
-0.047202 -0.488405
-0.0341186 -0.505969
-0.0415797 -0.495956
-0.046884 -0.486594
-0.0486041 -0.479726
-0.0555614 -0.469161
-0.0382745 -0.489037
-0.0452234 -0.477428
-0.0618527 -0.448143
-0.03686 -0.499628
0.0497249 -0.477869
0.043303 -0.484658
0.0421348 -0.490423
0.0343277 -0.500434
0.0283773 -0.501849
0.0388783 -0.497753
-0.0299746 -0.49384
-0.0330809 -0.496574
-0.0308596 -0.502033
-0.0247317 -0.503058
-0.0250651 -0.494152
-0.0216911 -0.4986
-0.0174469 -0.501442
-0.0133423 -0.500795
0.0099134 -0.498827
0.00426583 -0.498778
0.00339961 -0.50087
-0.000241587 -0.502263
-0.00648991 -0.501684
0.00424258 -0.502528
0.0285735 -0.497496
0.0345674 -0.490631
0.0259295 -0.494625
0.0402427 -0.481884
0.0208692 -0.492995
0.0170977 -0.497601
0.0219162 -0.502539
0.0145431 -0.5003
0.00878519 -0.502318
0.0108965 -0.503947
0.00494267 -0.503544
0.014311 -0.501893
0.0170712 -0.502513
0.0236519 -0.0356044
0.0230122 -0.0916287
0.0181104 -0.0477041
0.0239837 -0.134523
0 0
0 0
0.0288966 -0.0286934
0.0485316 -0.0788254
0.0389458 -0.0989285
0.0442328 -0.0574321
-0.0527251 -0.280939
-0.0633704 -0.305563
-0.0444136 -0.0568944
-0.0396077 -0.0969304
-0.0485207 -0.0779323
-0.0263699 -0.128624
0.0529538 -0.27971
0.0634298 -0.303907
-0.0290705 -0.0285616
-0.0187882 -0.0468655
-0.0246776 -0.089029
-0.0238225 -0.0352486
-0.0577632 -0.415606
-0.0291229 -0.470919
-0.0318806 -0.478088
-0.0204755 -0.483441
-0.0334094 -0.469841
-0.00506112 -0.489885
-0.0458358 -0.442663
-0.0399638 -0.476032
-0.0265069 -0.486559
-0.0541053 -0.438087
-0.0593075 -0.439059
-0.0510125 -0.460009
-0.063182 -0.418684
-0.0529833 -0.408774
-0.0443033 -0.328655
-0.0579568 -0.382546
-0.0525551 -0.36434
0.0482165 -0.339914
0.0537519 -0.361948
0.0377494 -0.308008
0.0633594 -0.399814
0.0539108 -0.382249
0.060145 -0.439917
0.0638106 -0.421575
0.0587243 -0.412386
0.0668585 -0.435606
0.0517129 -0.415138
0.0533006 -0.455807
0.0568475 -0.462357
0.0332128 -0.481674
0.0230207 -0.485086
0.0215688 -0.489023
0.0208604 -0.483277
0.0091292 -0.488979
0.011378 -0.492702
0.0431027 -0.472307
0.043182 -0.448905
0.0329981 -0.469628
0.0458132 -0.459622
0.0562256 -0.472345
0.0510345 -0.482071
0.0622109 -0.458444
0.0314349 -0.508071
0.0560216 -0.470446
0.046966 -0.488011
0.0358482 -0.50286
-0.00569001 -0.497985
-0.0138102 -0.496584
-0.00928044 -0.499832
-0.0219597 -0.49235
0.00125427 -0.496047
-0.0035742 -0.491281
-0.0140374 -0.491016
0.000118095 -0.493188
0.00907418 -0.644173
-0.00984886 -0.642389
-0.00639254 -0.665751
-0.00797162 -0.603328
-0.021577 -0.630791
-0.016475 -0.677359
0.0143759 -0.669638
0.0274902 -0.65541
0.0203441 -0.625036
0.023469 -0.554906
0.009078 -0.58295
0.0180973 -0.592945
-0.00156822 -0.575968
0.0367572 -0.604608
0.0377148 -0.534338
0.0294203 -0.530067
0.0785361 -0.396502
0.0743545 -0.333165
0.06568 -0.354666
0.0463273 -0.338076
0.0560692 -0.323369
0.0837774 -0.374195
-0.0741988 -0.335073
-0.0818771 -0.407648
-0.0676207 -0.364914
-0.0579451 -0.332936
-0.0520908 -0.356112
-0.0823979 -0.375981
-0.0706829 -0.460573
-0.0717485 -0.466916
-0.0515783 -0.490067
-0.0909461 -0.440645
-0.0685231 -0.483493
-0.0304764 -0.53076
-0.0357056 -0.511377
-0.0704616 -0.455539
-0.0790359 -0.437268
-0.00159115 -0.557596
0.0132288 -0.577372
-0.00291034 -0.549174
0.028148 -0.608762
0.0270314 -0.596964
-0.00519867 -0.543035
-0.0210615 -0.522028
-0.0180731 -0.53396
-5.29928e-06 -0.570674
-0.0566269 -0.47358
-0.0641769 -0.458207
-0.0647168 -0.459784
-0.0647117 -0.452435
-0.0680709 -0.437469
-0.0718544 -0.439895
-0.0665257 -0.458547
-0.0377772 -0.49965
-0.0461144 -0.488865
0.0280494 -0.516745
0.0145465 -0.541338
0.0302813 -0.520425
-0.0028153 -0.567089
0.0451217 -0.498242
0.0453301 -0.490833
0.0295639 -0.511553
0.0724392 -0.464881
0.0853958 -0.448246
0.0826624 -0.44308
0.0819354 -0.466316
0.0925866 -0.434375
0.0810778 -0.426093
0.0802398 -0.438458
0.0616061 -0.477502
0.055122 -0.495564
0.0747027 -0.43882
0.071848 -0.441422
0.0681952 -0.455084
0.0711191 -0.421398
0.0705835 -0.437288
0.0580427 -0.471322
0.0582903 -0.472266
0.0769025 -0.43958
0.0753942 -0.424274
0.0759605 -0.407003
0.077656 -0.403893
0.0643354 -0.379456
0.0490107 -0.348785
0.0738824 -0.407207
0.0714568 -0.405964
0.0705976 -0.407878
0.0681099 -0.405196
0.0531838 -0.361182
-0.0695386 -0.395001
-0.0823572 -0.41673
-0.07862 -0.4186
-0.0754967 -0.420603
-0.0556713 -0.367497
-0.0719731 -0.417252
-0.0705586 -0.422269
-0.0577906 -0.376128
-0.0676455 -0.417326
-0.0315261 -0.508051
-0.0195932 -0.5232
-0.0282815 -0.512638
-0.0291344 -0.511973
-0.0155206 -0.5281
-0.0393075 -0.499039
0.0148319 -0.53092
0.000606016 -0.549776
-0.00126785 -0.555957
0.0033555 -0.543893
-0.0107983 -0.564152
-0.0157206 -0.582657
0.0296643 -0.509737
0.0299996 -0.509028
0.0169044 -0.525873
0.0301742 -0.508661
0.00476842 -0.541232
0.043959 -0.490732
0.0521649 -0.479379
0.0368643 -0.500665
0.0100344 -0.534172
0.025087 -0.515622
0.0389661 -0.499148
0.0460267 -0.48891
-0.0020912 -0.549286
0.0174965 -0.525108
0.0211527 -0.520856
0.00777193 -0.536126
-0.00431013 -0.541983
0.00837254 -0.556934
-0.00450194 -0.541113
0.0234205 -0.575969
0.02217 -0.571876
-0.0034865 -0.541354
-0.0054039 -0.541265
0.0118719 -0.606743
0.0212614 -0.644726
0.0260309 -0.625604
0.00793695 -0.663686
0.0237439 -0.673676
0.0387351 -0.639688
-0.00359969 -0.590659
-0.0190813 -0.640296
-0.00304284 -0.650021
-0.00793304 -0.615966
-0.0142175 -0.670032
-0.0180307 -0.570619
-0.0318762 -0.619995
-0.0270235 -0.656155
-0.053008 -0.541177
-0.0436907 -0.592418
-0.0331585 -0.558877
-0.0408307 -0.638175
-0.056293 -0.615881
0.0489676 -0.669741
0.0419215 -0.689324
0.0557241 -0.696285
-0.0734715 -0.586001
-0.0855209 -0.538115
0.0696307 -0.702718
0.0521656 -0.654477
0.064915 -0.535214
0.0475104 -0.529998
0.0488455 -0.572585
0.040935 -0.637661
0.0563025 -0.615461
-0.0396877 -0.669496
-0.0512276 -0.694632
-0.0359682 -0.692003
-0.0658254 -0.70118
0.0721624 -0.585989
0.0872862 -0.538846
-0.037221 -0.641797
0.0804991 -0.553948
0.0895793 -0.548827
0.0797024 -0.54246
0.0965793 -0.554514
0.0252274 -0.510453
0.0216362 -0.510018
0.0720812 -0.537573
0.0716037 -0.559223
0.0814001 -0.565949
0.096117 -0.572494
0.110827 -0.57621
0.105389 -0.563939
0.117748 -0.586455
0.0180997 -0.509703
0.0156619 -0.509544
0.0875431 -0.577586
0.11732 -0.626769
0.132483 -0.630499
0.128954 -0.61586
0.134868 -0.644415
0.0132434 -0.509446
0.0115805 -0.509414
0.122522 -0.600826
0.102683 -0.621415
0.107987 -0.635607
0.119148 -0.652963
0.130697 -0.66903
0.133815 -0.657418
0.127237 -0.67897
0.123884 -0.703761
0.129809 -0.697729
0.106456 -0.647372
0.105927 -0.689288
0.113008 -0.701078
0.11807 -0.69481
0.106648 -0.70546
0.135196 -0.690374
0.139984 -0.681613
0.123136 -0.687898
0.0992685 -0.677382
0.0951031 -0.683905
0.0926339 -0.694006
0.0902338 -0.706951
0.0989217 -0.707366
0.0805126 -0.705811
0.143857 -0.671383
0.146588 -0.65961
0.0858486 -0.680469
-0.0901121 -0.692578
-0.0984967 -0.70742
-0.088 -0.705217
-0.106255 -0.705454
-0.123857 -0.703081
-0.117535 -0.708054
-0.0780501 -0.703932
-0.07839 -0.671408
-0.0901301 -0.678786
-0.104599 -0.688721
-0.117073 -0.693754
-0.112636 -0.701048
-0.1221 -0.686814
-0.110725 -0.7119
-0.103441 -0.71496
-0.0931866 -0.670569
-0.118749 -0.656278
-0.133564 -0.659684
-0.130232 -0.669233
-0.134566 -0.646859
-0.0953199 -0.717006
-0.0862892 -0.718232
-0.126808 -0.679139
-0.106698 -0.65201
-0.108623 -0.642608
-0.108954 -0.586523
-0.110506 -0.571618
-0.118203 -0.581567
-0.101764 -0.562275
-0.103076 -0.546755
-0.112208 -0.55591
-0.124942 -0.591687
-0.108701 -0.600072
-0.100822 -0.590325
-0.0781818 -0.551618
-0.0799539 -0.540999
-0.0868814 -0.546816
-0.072309 -0.536104
-0.120407 -0.56567
-0.127542 -0.575873
-0.0939157 -0.552521
-0.0767139 -0.560097
-0.0697426 -0.554232
-0.133623 -0.586383
-0.0666034 -0.529895
-0.0610702 -0.527074
-0.0553896 -0.524709
-0.051377 -0.537397
-0.140418 -0.601795
-0.0547502 -0.477877
-0.0358581 -0.504918
-0.0388254 -0.498577
0.0751813 -0.673401
0.0639936 -0.664874
0.0730204 -0.686256
0.0532844 -0.639368
0.0766037 -0.661693
0.0607133 -0.471045
0.0597782 -0.475381
0.0725976 -0.454705
-0.0660886 -0.664873
-0.0668943 -0.681611
-0.0531317 -0.655351
-0.0349563 -0.618553
-0.0642602 -0.647032
0.064787 -0.387568
0.0506723 -0.354095
-0.0674084 -0.398981
-0.0563883 -0.370098
0.0622506 -0.560929
0.0608741 -0.55001
0.0588872 -0.539335
0.0491917 -0.54181
0.0987293 -0.6055
0.10739 -0.598424
0.0926944 -0.591884
0.0785728 -0.584241
0.0890966 -0.613496
0.101603 -0.66825
0.113693 -0.673804
0.104144 -0.659085
0.0920945 -0.640299
0.0891735 -0.660497
-0.102709 -0.65832
-0.112205 -0.673378
-0.0993017 -0.665765
-0.0824189 -0.6522
-0.0917936 -0.642926
-0.0838892 -0.569307
-0.0931316 -0.567074
-0.0919764 -0.578822
-0.0922914 -0.591815
-0.0759101 -0.57118
-0.0590068 -0.541462
-0.0654446 -0.539691
-0.0648176 -0.547489
-0.0635573 -0.55543
-0.0509664 -0.544538
-0.0498928 -0.484082
-0.0484555 -0.486572
0.0525086 -0.618872
0.0529616 -0.628283
0.0652375 -0.640797
0.0399974 -0.612697
0.07722 -0.651624
0.0513843 -0.610564
0.0375256 -0.595729
0.0554849 -0.474603
0.0619403 -0.463222
0.0629714 -0.56802
0.052198 -0.558549
0.0453503 -0.553164
0.0462726 -0.559582
0.0632575 -0.590907
0.0746284 -0.599719
0.072922 -0.589939
0.0802288 -0.614798
0.0668147 -0.576575
0.0527898 -0.580513
0.0551689 -0.589221
0.0654028 -0.623818
0.0782362 -0.642733
0.0791183 -0.634517
0.0799084 -0.623869
0.0515231 -0.604307
-0.0638683 -0.618131
-0.0793849 -0.633286
-0.0741082 -0.634548
-0.082769 -0.628231
-0.0683213 -0.636839
-0.0508634 -0.604357
-0.0564421 -0.605266
-0.0785834 -0.604526
-0.0908279 -0.60999
-0.0882449 -0.616452
-0.0911295 -0.601093
-0.100397 -0.612545
-0.0975934 -0.629478
-0.0863547 -0.623834
-0.0680263 -0.598874
-0.0703188 -0.593305
-0.0599808 -0.560637
-0.0548866 -0.554119
-0.0473537 -0.549595
-0.0422673 -0.555364
0.0260143 -0.587565
0.0246154 -0.581318
0.0103606 -0.563247
0.0511891 -0.573288
0.0571461 -0.573374
0.0469867 -0.565334
0.0401765 -0.559617
0.0426963 -0.57174
0.0558675 -0.603088
0.0655318 -0.608366
0.0553556 -0.595541
0.044758 -0.584148
0.0406668 -0.59
-0.064745 -0.602263
-0.0726976 -0.614252
-0.0612952 -0.605369
-0.0477846 -0.592774
-0.0559902 -0.590703
0.0305517 -0.579927
0.0164738 -0.563422
0.00824808 -0.553628
0.0168709 -0.561519
-0.00716931 -0.5534
-0.0221438 -0.570861
-0.0124727 -0.561057
-0.0300362 -0.577334
-0.035349 -0.586345
-0.0181384 -0.569825
-0.00226759 -0.546412
0.0353299 -0.568842
0.0335183 -0.562595
0.0251257 -0.554154
0.0196202 -0.556071
0.0263223 -0.570082
0.0352076 -0.580818
0.0365247 -0.579012
0.0361351 -0.573959
0.0183799 -0.560842
-0.0351439 -0.574436
-0.0451685 -0.582867
-0.043012 -0.584702
-0.0484287 -0.580536
-0.0378894 -0.583385
-0.0242273 -0.565722
-0.0264682 -0.564914
-0.0517871 -0.577615
-0.0406421 -0.570707
-0.0324371 -0.560417
-0.0386123 -0.559641
-0.0250133 -0.569748
-0.0161394 -0.559551
0.0268673 -0.564202
0.0203581 -0.56017
-0.0728309 -0.587462
-0.0736765 -0.578815
-0.0819666 -0.589579
-0.0662275 -0.569738
-0.0616625 -0.582441
-0.047613 -0.563766
-0.0578914 -0.567688
-0.054163 -0.572597
-0.110838 -0.622851
-0.121567 -0.635134
-0.11123 -0.634437
-0.135533 -0.635185
-0.11178 -0.613434
-0.131253 -0.607149
-0.13322 -0.620692
-0.119222 -0.610019
-0.144992 -0.617067
-0.147398 -0.631764
-0.0282043 -0.590067
-0.0463604 -0.619516
-0.0338903 -0.60625
-0.0602359 -0.632618
-0.0251995 -0.58198
-0.0437276 -0.599668
-0.0499425 -0.612015
-0.0344202 -0.59157
-0.00594365 -0.470715
-0.0147386 -0.462083
-0.0435626 -0.3294
-0.050897 -0.353456
-0.0434201 -0.384498
-0.0458007 -0.410042
0.0299624 -0.444931
0.0319301 -0.424541
-0.00620176 -0.535499
-0.0166241 -0.52359
0.0442196 -0.457853
0.0436018 -0.466194
0.00186499 -0.487405
0.00751552 -0.484725
-0.0513489 -0.0691486
-0.0466024 -0.0684942
-0.0129056 -0.0591193
-0.0116041 -0.0291069
0.0288172 -0.449373
0.0212836 -0.446551
0.0517678 -0.298783
0.0496065 -0.356443
-0.0505104 -0.457987
-0.0508008 -0.44716
-0.000804352 -0.00254962
-0.00495483 -0.0288674
-0.068306 -0.36679
-0.0381195 -0.331015
0.0699162 -0.421706
0.0668393 -0.399796
-0.0241823 -0.287534
-0.0161816 -0.256703
-0.0172444 -0.215144
-0.020382 -0.203985
-0.00925527 -0.487677
-0.00908881 -0.48818
-0.0438294 -0.331225
-0.0506524 -0.352363
0.0195622 -0.018648
0.0350553 -0.0347131
0.0220616 -0.500899
0.0237423 -0.503315
0.0509121 -0.463047
0.0477812 -0.473542
-0.079804 -0.396397
-0.0562177 -0.357597
0.0246532 -0.491986
0.019588 -0.491311
0.0407647 -0.314829
0.0348197 -0.311103
0.0232614 -0.499619
0.019407 -0.498724
-0.0315432 -0.503582
-0.0261333 -0.511002
0.0455484 -0.489323
0.0449614 -0.491065
-0.00129729 -0.223556
0.013254 -0.182578
0.0273276 -0.37923
0.0338759 -0.344027
-0.00843941 -0.46007
-0.0184285 -0.452008
-0.015212 -0.446135
-0.00545753 -0.455558
0.00266942 -0.132267
0.00592949 -0.161387
-0.0133091 -0.513593
-0.00529211 -0.516036
-0.0534267 -0.362283
-0.0684573 -0.400465
0.00326716 -0.505182
0.0015552 -0.504551
-0.00451582 -0.363579
-0.000318498 -0.397938
-0.0275194 -0.437182
-0.0509449 -0.431865
-0.0351223 -0.453629
-0.025312 -0.442811
-0.0439599 -0.488956
-0.0373602 -0.494836
0.0566932 -0.378983
0.0592351 -0.38519
-0.0738942 -0.356676
-0.0693831 -0.390515
-0.0330943 -0.285937
-0.0270806 -0.234638
-0.0197061 -0.228893
-0.0183724 -0.240462
-0.0270141 -0.273619
-0.0378481 -0.311296
-0.0247783 -0.224845
-0.0224552 -0.236345
-0.0549755 -0.458146
-0.0493908 -0.466585
-0.0427015 -0.469191
-0.0353177 -0.476309
-0.0406091 -0.471396
-0.042497 -0.474361
-0.0520142 -0.477354
-0.0480816 -0.481519
-0.00825243 -0.199555
0.0032576 -0.181044
-0.00492892 -0.489661
-0.0122802 -0.487605
-0.0449748 -0.416659
-0.0370266 -0.429232
0.0501551 -0.350288
0.0430105 -0.325629
-0.0113592 -0.489571
-0.0107783 -0.488843
-0.0347693 -0.492981
-0.0364721 -0.495006
-0.055071 -0.460505
-0.0591658 -0.445042
0.054597 -0.380885
0.0499895 -0.350044
-0.00874884 -0.477785
-0.0162495 -0.478296
0.0311734 -0.105671
0.026042 -0.0956051
-0.0396082 -0.496573
-0.0472027 -0.48592
-0.0326987 -0.0808052
-0.0248209 -0.0876239
-0.00010081 -0.491574
-0.000305106 -0.490508
-0.0707614 -0.421004
-0.0657302 -0.395313
0.0234826 -0.479883
0.0157273 -0.485583
-0.0624712 -0.42322
-0.0621996 -0.402899
-0.0300099 -0.471313
-0.0239514 -0.479809
0.0371176 -0.115984
0.0321943 -0.130755
-0.00844852 -0.192602
-0.00115847 -0.21785
0.0433477 -0.334691
0.0278203 -0.293938
0.0407764 -0.495162
0.0591032 -0.4694
-0.0150048 -0.506804
-0.00960115 -0.506233
-0.0239692 -0.284288
-0.0354151 -0.317302
-0.00147775 -0.213911
-0.000641706 -0.197877
0.0747131 -0.423399
0.0775892 -0.443043
-0.00587655 -0.487214
-0.0016783 -0.490264
-0.0147587 -0.504312
-0.00899682 -0.504834
-0.0381869 -0.497912
-0.0353133 -0.503268
-0.0152347 -0.379694
-0.00600288 -0.349905
0.0266917 -0.254004
0.0302495 -0.308723
0.00982696 -0.225638
0.0129633 -0.2475
0.0360415 -0.0357121
0.0332698 -0.0403781
0.0562334 -0.472557
0.0614367 -0.458716
0.0137062 -0.235254
0.0257826 -0.275493
0.00524991 -0.198
0.01876 -0.15916
0.0454627 -0.490744
0.0359654 -0.502903
0.0129688 -0.500178
0.0173962 -0.500681
0.0560234 -0.472899
0.054183 -0.475614
-0.0488867 -0.380334
-0.0514396 -0.370009
0.000650484 -0.506525
-0.000307034 -0.50597
-0.0244188 -0.275693
-0.0258712 -0.268572
-0.0232766 -0.0637513
-0.0269236 -0.0484775
-0.00764677 -0.0452564
0.0001261 -0.0473923
0.0375124 -0.0344276
0.0453448 -0.048485
-0.0374403 -0.500342
-0.0537864 -0.477982
-0.00263055 -0.489678
-0.00470592 -0.487724
-0.0033678 -0.486926
-0.00111178 -0.480738
-0.0253546 -0.501855
-0.0186819 -0.503574
-0.0119842 -0.195791
-0.00431553 -0.152587
-0.0692126 -0.438893
-0.0649674 -0.452125
-0.00120772 -0.490502
0.000379447 -0.491378
0.0638396 -0.448272
0.0665303 -0.431485
0.0264932 -0.13695
0.0346073 -0.107886
0.055204 -0.471383
0.0493961 -0.480456
0.01027 -0.41094
-0.00771307 -0.412729
0.00747911 -0.486665
0.0021782 -0.489917
-0.0133027 -0.122399
-0.0150136 -0.0919797
-0.0157337 -0.167797
-0.0259861 -0.133427
-0.020639 -0.505615
-0.0139927 -0.507461
-0.0234245 -0.26509
-0.0084171 -0.261614
0.0665266 -0.443445
0.0659779 -0.424794
-0.0130083 -0.170161
-0.0147832 -0.196082
-0.0230584 -0.224062
-0.0156297 -0.217766
-0.0179258 -0.0218334
-0.0200747 -0.0202427
-0.0416166 -0.312414
-0.0435928 -0.321861
0.00189133 -0.490672
0.000376042 -0.49165
0.00290621 -0.0474229
0.00599718 -0.0261303
0.0591638 -0.458649
0.0629725 -0.442568
-0.0497128 -0.378274
-0.0448375 -0.356093
-0.0422368 -0.101376
-0.0398797 -0.101831
-0.0337273 -0.460194
-0.0211886 -0.455535
-0.0222523 -0.460968
-0.0263892 -0.465909
-0.0125279 -0.466932
-0.00653597 -0.454617
0.0510488 -0.469724
0.044805 -0.476856
0.0513845 -0.435196
0.048576 -0.424508
-0.0293942 -0.272687
-0.0339694 -0.29635
-0.0509801 -0.48201
-0.0522162 -0.47822
-0.0046449 -0.478547
-0.00134036 -0.48668
0.00472617 -0.483012
0.0119073 -0.477776
-0.0193948 -0.253383
-0.0075074 -0.212699
-0.00240371 -0.003127
-0.0168948 -0.0256563
-0.0367525 -0.296851
-0.0332203 -0.292732
0.0159873 -0.463579
0.00549393 -0.456113
0.0495631 -0.29857
0.0130357 -0.304248
0.0260729 -0.397646
0.0632653 -0.385841
-0.0181534 -0.0448836
-0.00998758 -0.0282555
-0.0618663 -0.434821
-0.0644934 -0.42721
0.0194135 -0.258967
0.0205031 -0.272512
-0.0367234 -0.50275
-0.0466547 -0.488959
0.0227721 -0.481263
0.030727 -0.475519
-0.0243138 -0.478969
-0.026608 -0.480148
-0.0473538 -0.473146
-0.0532246 -0.464467
0.0624067 -0.457842
0.0605157 -0.459803
-0.000501641 -0.493627
0.00315181 -0.495471
-0.0242004 -0.500537
-0.024189 -0.497896
0.0680103 -0.430029
0.0653968 -0.433499
0.0276387 -0.496811
0.0322001 -0.496708
-0.042764 -0.0819874
-0.0471161 -0.0836848
-0.0170331 -0.4859
-0.0245027 -0.482372
-0.0527256 -0.417697
-0.0497155 -0.403997
0.0116133 -0.505
0.0065097 -0.505995
0.0563446 -0.36932
0.0570287 -0.371363
0.0123872 -0.365244
0.0201766 -0.396905
0.01521 -0.217222
0.0142533 -0.190848
0.00513994 -0.00362206
0.0237647 -0.020464
-0.00279841 -0.0484361
0.00635516 -0.112657
-0.020781 -0.0732629
-0.0144048 -0.1103
0.0374517 -0.0464277
0.025394 -0.0257537
-0.0165689 -0.470044
-0.0238617 -0.467171
0.0293341 -0.511146
0.0173133 -0.525057
-0.0388131 -0.456786
-0.0422134 -0.440525
-0.032691 -0.075835
-0.0252655 -0.0795905
0.0184657 -0.482263
0.0265371 -0.47507
0.0261414 -0.119211
0.0356144 -0.0991717
-0.0217263 -0.512214
-0.0215507 -0.508165
-0.00354361 -0.499304
-0.0111411 -0.498476
-0.021401 -0.103036
-0.0109556 -0.137482
-0.0501964 -0.35177
-0.0527167 -0.374787
-0.0580682 -0.447029
-0.0578386 -0.457283
0.0172591 -0.211944
0.0299396 -0.25318
0.0245729 -0.504818
0.0292397 -0.504455
0.0600581 -0.449505
0.055896 -0.464969
0.00638953 -0.238844
0.00337819 -0.224655
0.0107659 -0.505301
0.0118533 -0.50804
-0.00436739 -0.411049
0.012322 -0.406812
0.0290435 -0.129997
0.0349873 -0.123362
-0.0139899 -0.490424
-0.015623 -0.492303
-0.0414693 -0.494405
-0.0330959 -0.503863
-0.0417879 -0.495823
-0.0347194 -0.503739
0.0473464 -0.388651
0.0464669 -0.415318
-0.0100215 -0.443269
-0.014499 -0.419715
-0.00758339 -0.488867
-0.00412625 -0.489809
0.018391 -0.371585
-0.00600295 -0.371205
0.0228508 -0.229308
0.0300834 -0.286873
0.0433301 -0.399842
0.044347 -0.421774
-0.0125421 -0.302596
-0.0157537 -0.233521
0.00761972 -0.488315
0.0133375 -0.485542
0.0199749 -0.508838
0.0211974 -0.50442
0.027843 -0.237973
0.026155 -0.246791
0.0392127 -0.498464
0.0436904 -0.493087
-0.0443329 -0.332084
-0.0403851 -0.326046
-0.0273855 -0.270148
-0.0336992 -0.282446
-0.0469181 -0.485821
-0.0404517 -0.495912
0.0544286 -0.456368
0.0489036 -0.468675
-0.00172258 -0.489888
-0.00215564 -0.489511
0.0256238 -0.508376
0.018525 -0.516821
0.00505277 -0.489442
0.00483861 -0.489514
-0.0010938 -0.490048
-0.00499893 -0.489597
0.0494808 -0.474652
0.0500225 -0.467634
-0.0453662 -0.0883309
-0.0401331 -0.107222
0.0193141 -0.503466
0.0133861 -0.505691
-0.0168422 -0.172989
-0.00985311 -0.19248
0.0446851 -0.415579
0.0502233 -0.414888
-0.0206561 -0.47512
-0.0153461 -0.48275
0.0315979 -0.497644
0.0287205 -0.496286
-0.00956502 -0.180108
-0.00236608 -0.136306
-0.0175578 -0.358741
-0.00149895 -0.318254
-0.00193285 -0.488207
-0.00474044 -0.488473
-0.0347274 -0.488507
-0.0373404 -0.490141
0.0423044 -0.495034
0.0511185 -0.481932
-0.0210027 -0.40595
-0.0190973 -0.431373
0.0111756 -0.492129
0.0141099 -0.493801
0.0467305 -0.487109
0.0362667 -0.501515
-0.0218115 -0.48993
-0.0301034 -0.48633
0.0399175 -0.0829291
0.0456276 -0.0776757
0.068302 -0.428257
0.0658328 -0.439351
0.00537679 -0.489228
-0.00254515 -0.48999
0.0576012 -0.40767
0.0546845 -0.384555
0.0048926 -0.20817
0.0107034 -0.190218
-0.00259697 -0.211827
-0.0156169 -0.239282
-0.00730751 -0.509087
-0.00174919 -0.512792
0.0164125 -0.0242372
0.0265732 -0.0493227
0.0460481 -0.0744851
0.0406793 -0.0711359
-0.0216413 -0.510539
-0.014439 -0.512761
-0.0220206 -0.487442
-0.0300123 -0.482066
0.043331 -0.330923
0.00905215 -0.332722
-0.00312062 -0.490887
-0.000613462 -0.491953
-0.029388 -0.486061
-0.0277384 -0.483931
-0.0332878 -0.076108
-0.0331598 -0.0519947
-0.00433431 -0.490121
0.00167278 -0.49069
0.000955544 -0.490804
-0.000750674 -0.492179
-0.0627305 -0.443537
-0.0594113 -0.448916
-0.0444016 -0.490887
-0.0401937 -0.497161
-0.0324423 -0.293672
-0.0381925 -0.31765
-0.00159964 -0.439834
0.00480339 -0.456095
0.000476095 -0.491303
0.00549094 -0.488956
0.0198173 -0.48928
0.0279641 -0.486657
0.0271634 -0.085485
0.0232275 -0.118298
-0.0150813 -0.307098
-0.0256452 -0.33907
0.0146075 -0.167401
0.0116341 -0.186723
0.0227844 -0.50687
0.0161539 -0.508306
0.0169923 -0.44134
0.0377915 -0.428797
0.0272255 -0.463758
0.021586 -0.463005
0.00370721 -0.132629
0.00886356 -0.148399
0.00700168 -0.517736
0.00457839 -0.512344
0.0468228 -0.478843
0.049821 -0.478555
-0.029692 -0.473629
-0.0363239 -0.468999
-0.0359869 -0.294612
-0.0422454 -0.315705
0.0718759 -0.406363
0.0624669 -0.385824
0.00440774 -0.0309906
-0.00488314 -0.100538
0.0194355 -0.507377
0.0206516 -0.51108
-0.0306014 -0.302666
-0.0406411 -0.330986
0.020321 -0.0910956
0.0193291 -0.0604232
-0.00251655 -0.483521
0.000800038 -0.488516
-0.023194 -0.279964
-0.034648 -0.314263
-0.0517123 -0.375736
-0.0488453 -0.347622
-0.0624293 -0.397274
-0.0573934 -0.378414
0.0398698 -0.0993009
0.0369703 -0.11675
0.0404062 -0.468077
0.0334655 -0.473211
-0.0230006 -0.463867
-0.0118627 -0.458809
-0.0353507 -0.472776
-0.0275664 -0.47911
-0.0204447 -0.134831
-0.00545669 -0.20239
-0.0571627 -0.468571
-0.0524669 -0.476178
0.0140175 -0.501026
0.0161767 -0.502401
-0.0107291 -0.409499
0.00306658 -0.426424
0.0273667 -0.266371
0.0393454 -0.306674
-0.0504864 -0.0581015
-0.0489659 -0.0721966
-0.0431764 -0.336999
-0.026173 -0.291802
-0.0139936 -0.230483
-0.0234674 -0.248946
0.01698 -0.454904
0.00288728 -0.460261
0.050077 -0.353116
0.0342781 -0.312668
-0.00371212 -0.502696
-0.00122591 -0.501074
-0.00324374 -0.509985
-0.00650974 -0.514683
-0.0317767 -0.296403
-0.0400591 -0.325544
-0.027358 -0.464977
-0.0201701 -0.475568
0.0601377 -0.383673
0.0659834 -0.407503
-0.00113532 -0.501044
-0.00426153 -0.499246
-0.0570776 -0.437242
-0.0527448 -0.442335
-0.0779001 -0.44513
-0.0687637 -0.455359
-0.0268836 -0.13392
-0.0311097 -0.13219
0.0202834 -0.0295242
0.0124984 -0.0180932
0.0149589 -0.113183
0.0243528 -0.0829273
0.0270128 -0.508796
0.0176913 -0.517037
-0.00405952 -0.0127849
-0.00516428 -0.029164
-0.0666924 -0.406353
-0.058946 -0.378481
0.0243703 -0.224232
0.0134237 -0.176802
0.0257724 -0.145321
0.0223614 -0.159522
0.0501855 -0.48236
0.0646786 -0.458974
0.0521331 -0.479806
0.0587144 -0.469142
-0.0338818 -0.266534
-0.0419203 -0.309678
0.00557804 -0.128961
-0.00742278 -0.0688434
0.0555028 -0.473954
0.061347 -0.461204
-0.000344265 -0.483731
0.0030244 -0.475236
0.0166617 -0.363967
-0.0075692 -0.346883
0.0410658 -0.3106
0.0329012 -0.274232
0.0286628 -0.0624803
0.0221934 -0.0731364
0.0103865 -0.459702
0.00926527 -0.473724
0.0153985 -0.142945
0.00533976 -0.154158
-0.0475715 -0.345824
-0.0343017 -0.3075
-0.0532777 -0.474759
-0.055599 -0.465454
0.00117336 -0.507423
0.00268812 -0.508479
0.0571639 -0.46002
0.0525769 -0.473721
0.037877 -0.498951
0.0541786 -0.476422
0.00211236 -0.428781
-0.00690376 -0.445064
0.0139688 -0.0176365
0.0262083 -0.0407849
0.013387 -0.134269
0.0164174 -0.148697
-0.00612674 -0.018736
-0.0136834 -0.0343429
-0.0438013 -0.4932
-0.0474346 -0.48812
0.00608472 -0.222841
0.0195114 -0.255303
-0.0815107 -0.428397
-0.0754015 -0.464781
0.00349704 -0.207916
0.0101672 -0.244619
0.000561044 -0.500116
-0.00669017 -0.500156
-0.00200324 -0.207931
-0.00394898 -0.210001
-0.0388098 -0.487404
-0.0314003 -0.492842
0.00363681 -0.443193
-0.00806882 -0.453469
-0.0316925 -0.0930154
-0.0248043 -0.0905483
-0.0357504 -0.478797
-0.0276405 -0.484722
0.0466711 -0.418581
0.0483502 -0.433952
0.0382391 -0.102907
0.0346933 -0.123368
-7.81407e-05 -0.490586
0.00127494 -0.490361
0.0274602 -0.239088
0.0371941 -0.283975
-0.012521 -0.0743699
-0.00610395 -0.0743268
0.0326743 -0.491989
0.0282975 -0.491557
-0.0395871 -0.0385594
-0.0219953 -0.0187275
0.0207353 -0.259453
0.0240916 -0.279242
-0.0350967 -0.503197
-0.0515057 -0.481259
-0.0410559 -0.327877
-0.0349515 -0.284658
-0.0228915 -0.512487
-0.0191132 -0.511519
-0.0461191 -0.468391
-0.0513636 -0.455842
-0.000177223 -0.491347
0.000419638 -0.491076
-0.0183987 -0.505448
-0.0186319 -0.508979
0.0306178 -0.252563
0.038819 -0.293944
-0.0327625 -0.489455
-0.0327777 -0.493086
-0.0312224 -0.30643
-0.0198065 -0.275811
-0.053513 -0.368262
-0.0544097 -0.385113
-0.0129966 -0.481216
-0.0191528 -0.471374
0.0118963 -0.448771
0.0254206 -0.454676
-0.00145667 -0.512511
-0.00156579 -0.50845
-0.0020315 -0.490075
-0.00353383 -0.489872
0.0575014 -0.469574
0.0609616 -0.457736
0.0225392 -0.482878
0.0289598 -0.476163
-0.0530057 -0.397864
-0.0537232 -0.37792
0.0447945 -0.291494
0.00797276 -0.290655
0.0453932 -0.422942
0.0450086 -0.440772
0.00805162 -0.482928
0.00921595 -0.473646
-0.0432275 -0.473147
-0.0358233 -0.480444
-0.0263241 -0.497901
-0.0298814 -0.493423
0.0273556 -0.490083
0.0337315 -0.488777
-0.0433399 -0.488029
-0.0412079 -0.48664
0.0235632 -0.497762
0.0232767 -0.500655
-0.0628399 -0.449805
-0.0585388 -0.466316
-0.00116192 -0.503368
-0.00241365 -0.504669
-0.0138679 -0.463145
-0.00492695 -0.471177
-0.0309358 -0.298229
-0.0169393 -0.262734
0.0528195 -0.405308
0.0674515 -0.376246
-0.0575159 -0.469049
-0.0630165 -0.454264
-0.0455658 -0.485629
-0.0385339 -0.494377
-0.00255749 -0.531478
-0.0131731 -0.524331
-0.0459698 -0.458994
-0.0470362 -0.446907
-0.0160183 -0.206665
-0.0126205 -0.214808
0.0541505 -0.416622
0.0517932 -0.397069
0.0554393 -0.37349
0.0592687 -0.400652
-0.0143579 -0.492495
-0.0229482 -0.489643
-0.0651965 -0.3883
-0.0502121 -0.354177
-0.0304363 -0.442626
-0.022202 -0.460887
0.0274105 -0.487606
0.0250028 -0.485922
0.0524874 -0.478992
0.0508616 -0.48159
0.0043416 -0.164656
0.0165044 -0.142109
-0.0537335 -0.36141
-0.0536679 -0.396692
-0.0166914 -0.509465
-0.0168789 -0.505841
0.0236201 -0.463085
0.0316928 -0.452641
-0.0614948 -0.450378
-0.0592738 -0.448002
-0.0344386 -0.486926
-0.033496 -0.483631
-0.0408971 -0.090589
-0.040394 -0.105064
0.00754093 -0.405092
-0.00492219 -0.382567
-0.0265063 -0.483805
-0.0344217 -0.476844
-0.0400055 -0.478682
-0.0322407 -0.485018
-0.0121713 -0.0233742
-0.0136548 -0.0452092
-0.00151038 -0.300931
0.00687297 -0.354424
0.00737988 -0.360944
0.016763 -0.319223
0.00481526 -0.0743247
-0.00609598 -0.129576
-0.0119399 -0.500406
-0.00569583 -0.501708
0.0437894 -0.384414
0.0418063 -0.412731
-0.0118487 -0.174353
0.00309545 -0.131308
0.0956988 -0.440107
0.0711714 -0.392638
-0.00319461 -0.487565
-0.000932282 -0.490892
-0.0399132 -0.040714
-0.0343502 -0.041339
-0.0299717 -0.0993993
-0.023539 -0.132467
-0.0261714 -0.127142
-0.0265955 -0.143148
0.023881 -0.344581
0.027581 -0.298481
-0.0151134 -0.477777
-0.00785093 -0.485532
-0.00764585 -0.131047
-0.0138055 -0.205973
-0.0190668 -0.48922
-0.0264918 -0.487431
0.0521004 -0.357434
0.0521777 -0.368029
0.0863427 -0.422154
0.0687655 -0.392296
0.00583303 -0.232169
0.0210447 -0.273392
0.0427855 -0.491992
0.0361896 -0.498097
-0.0155071 -0.259306
-0.0050719 -0.223272
-0.00716726 -0.504968
-0.0119738 -0.50378
-0.00898501 -0.505802
-0.00583497 -0.505107
-0.0249064 -0.514356
-0.0150872 -0.522531
0.00595474 -0.0929919
-0.00547169 -0.143608
-0.0534032 -0.464669
-0.0582308 -0.450558
0.0665591 -0.425968
0.0685892 -0.418606
-0.0603766 -0.465448
-0.0622767 -0.457519
-0.0240197 -0.460723
-0.0314462 -0.467694
0.00572739 -0.115725
-0.00573203 -0.0426354
0.0541109 -0.460459
0.0488416 -0.472962
-0.0226371 -0.45691
-0.0137057 -0.444966
-0.00621623 -0.376093
-0.0127042 -0.404427
-0.0155374 -0.0177921
-0.00110994 -0.00126451
-0.0276336 -0.494827
-0.0231947 -0.494255
0.0518606 -0.480097
0.0420016 -0.495129
-0.0625001 -0.398695
-0.0575157 -0.379889
-0.0195942 -0.166079
-0.00698223 -0.200144
0.0495066 -0.357325
0.0460918 -0.359168
0.0395359 -0.495998
0.0446501 -0.487604
0.0543424 -0.475948
0.0611192 -0.465079
-0.0426542 -0.495074
-0.0497516 -0.483805
-0.0102122 -0.0283653
-0.00246612 -0.00800368
-0.00493818 -0.489997
-0.00246361 -0.490819
0.0177481 -0.408959
0.00678485 -0.393037
0.0182474 -0.524079
0.0245092 -0.516421
-0.0164224 -0.475382
-0.0180463 -0.463898
-0.0509058 -0.48362
-0.0651081 -0.461228
0.00327887 -0.508645
0.00918035 -0.510445
0.0105046 -0.200652
0.0235138 -0.233732
0.0390608 -0.0713015
0.0385842 -0.051399
-0.0659849 -0.457702
-0.0708135 -0.436128
0.029574 -0.457375
0.0340558 -0.459024
0.0377664 -0.343834
0.0428285 -0.373583
-0.00371979 -0.503091
-0.00888067 -0.50332
-0.060892 -0.37619
-0.0461807 -0.344509
0.00723513 -0.105489
0.0135429 -0.179475
-0.00143443 -0.48963
-0.00709815 -0.487045
0.0358976 -0.306777
0.0457526 -0.333634
-0.0503068 -0.0625165
-0.0444733 -0.0588881
0.00073746 -0.0931537
-0.00138056 -0.11108
-0.0115165 -0.514397
-0.00723867 -0.522294
0.0488992 -0.443807
0.0426166 -0.451915
0.00858295 -0.00802909
0.024515 -0.0279441
0.000796156 -0.504479
0.00170389 -0.50309
-0.0143044 -0.469743
-0.00870519 -0.480004
0.0226052 -0.437125
0.0299202 -0.418447
-0.00757582 -0.506254
-0.00338706 -0.507245
-0.0482026 -0.0828799
-0.0514629 -0.0678819
0.00916299 -0.0819865
0.00962243 -0.0411111
0.00207188 -0.516307
0.00526114 -0.521193
-0.029089 -0.506173
-0.0273932 -0.510741
0.0562179 -0.472659
0.0530064 -0.478764
-0.0312238 -0.50688
-0.0349816 -0.504406
0.0819961 -0.422487
0.0619741 -0.367688
-0.00862021 -0.50784
-0.00911203 -0.511878
0.0174376 -0.215294
0.0242989 -0.236627
-0.0400617 -0.322719
-0.0506597 -0.352208
0.0310517 -0.507777
0.0201216 -0.519538
0.0447787 -0.324475
0.0345979 -0.28723
-0.0479996 -0.0588871
-0.0418679 -0.0554259
0.00686672 -0.494643
2.96558e-05 -0.493976
-0.0261692 -0.292889
-0.0404494 -0.33053
0.0262301 -0.420499
0.0330328 -0.397425
0.00888459 -0.490494
0.0142327 -0.487887
-0.0547959 -0.445288
-0.0500411 -0.449737
-0.0278106 -0.49013
-0.0221185 -0.495067
0.0447459 -0.488161
0.0384866 -0.493755
-0.0196376 -0.500016
-0.0180175 -0.498139
-0.0143347 -0.272677
-0.0405848 -0.325724
0.0408729 -0.312512
0.0336916 -0.310681
-0.0396232 -0.489018
-0.0327468 -0.495465
0.0372982 -0.341562
0.038279 -0.306726
0.00434935 -0.505827
0.00565099 -0.506668
0.0440051 -0.388326
0.0472898 -0.408783
-0.0109361 -0.0213881
-0.00288466 -0.00708446
-0.0409607 -0.305321
-0.0470188 -0.343667
-0.0230556 -0.0763701
-0.0187867 -0.111246
-0.00695262 -0.424218
0.00723855 -0.433929
-0.0128281 -0.486494
-0.00516817 -0.489608
0.0206051 -0.375433
0.019517 -0.335974
0.0198279 -0.225628
0.0144887 -0.178169
-0.00253624 -0.489695
0.0013287 -0.490415
0.0400938 -0.401225
0.0313869 -0.393215
-0.030854 -0.0272189
-0.0283309 -0.0281885
-0.0118268 -0.513927
-0.0127558 -0.508932
0.0265679 -0.482022
0.0349667 -0.475169
0.00578204 -0.49475
-0.00156996 -0.496839
-0.0247546 -0.498067
-0.0178079 -0.499431
0.000511634 -0.506249
-0.00135805 -0.505928
0.0102284 -0.287322
0.0263555 -0.283069
0.017885 -0.498551
0.0238554 -0.495024
-0.0105693 -0.492533
-0.00348581 -0.494427
-0.0212018 -0.504794
-0.0173545 -0.509235
0.0111721 -0.488702
0.0154251 -0.486093
-0.00514305 -0.0585516
-0.00227553 -0.0099106
0.00326097 -0.504089
0.00209496 -0.502884
0.00503873 -0.502611
0.0106449 -0.501918
-0.038169 -0.316521
-0.0298515 -0.310964
-0.00823784 -0.488712
-0.00233455 -0.490113
0.0180085 -0.524338
0.0221017 -0.518976
-0.00733723 -0.490341
-0.00227213 -0.491794
0.0636421 -0.450055
0.0592869 -0.461188
-0.0427041 -0.0630808
-0.0468259 -0.055806
0.0529197 -0.478253
0.0432293 -0.491632
0.0513683 -0.418269
0.0485148 -0.438845
0.0534894 -0.40366
0.0530234 -0.377714
-0.0377807 -0.304844
-0.042536 -0.325618
0.0261057 -0.491814
0.0260914 -0.488452
0.0114065 -0.48332
0.00639262 -0.485117
0.0200269 -0.482675
0.0129418 -0.486349
-0.0283105 -0.427763
-0.00711431 -0.427074
0.0324254 -0.0389795
0.0428331 -0.0560703
0.0283959 -0.477652
0.0341736 -0.475059
-0.0280437 -0.484649
-0.0211387 -0.486644
-0.0431142 -0.473344
-0.0490985 -0.467655
-0.0245164 -0.152162
-0.0154054 -0.175963
-0.0577999 -0.464186
-0.0540259 -0.468743
0.0118558 -0.498966
0.0124602 -0.496218
0.0155557 -0.0312516
0.0238072 -0.0475027
0.0345255 -0.504281
0.0198088 -0.522397
-0.0164543 -0.517823
-0.0207025 -0.510836
-0.0312247 -0.254686
-0.0333049 -0.27743
7.99957e-05 -0.506436
0.000887489 -0.506633
-0.00244378 -0.184728
-0.00592966 -0.155566
-0.050141 -0.351219
-0.0558775 -0.375985
-0.0060627 -0.508654
-0.0027978 -0.513373
0.00518987 -0.141635
0.0170263 -0.114861
-0.0136065 -0.0150351
-0.0154909 -0.0142181
-0.0347594 -0.30238
-0.0216627 -0.262804
-0.00133681 -0.00240299
-0.000848915 -0.00100132
0.077496 -0.445496
0.0739047 -0.438663
-0.00754708 -0.170435
0.00534496 -0.212117
0.0510747 -0.400776
0.0390801 -0.42393
-0.0610411 -0.41983
-0.0610698 -0.438826
-0.00668217 -0.496347
-0.000193562 -0.494524
0.0595634 -0.454352
0.0622586 -0.436919
-0.063491 -0.40612
-0.0583626 -0.382548
0.00551772 -0.2047
0.0105122 -0.192431
-0.00667095 -0.479013
-0.00604975 -0.486487
0.0199586 -0.518565
0.0116734 -0.523793
0.00141747 -0.502043
-6.29285e-05 -0.500337
0.0500622 -0.47394
0.0433658 -0.482598
-0.00479231 -0.48976
-0.0006929 -0.490182
0.00681125 -0.488918
0.01038 -0.487514
-0.0163783 -0.500744
-0.00987243 -0.502211
0.0622126 -0.442405
0.0596511 -0.459031
0.045283 -0.486868
0.0381457 -0.49629
0.0287451 -0.140777
0.0286999 -0.139117
-0.0357404 -0.0520993
-0.0412789 -0.0716968
0.0446623 -0.490155
0.0499639 -0.480464
-0.0400653 -0.492156
-0.0331346 -0.499445
0.0387846 -0.334031
0.0664385 -0.29217
-0.0614271 -0.423971
-0.0592644 -0.404843
-0.00905989 -0.182081
0.00591908 -0.221401
-0.00309764 -0.489417
0.00102795 -0.490391
-0.00894704 -0.0944154
0.000876972 -0.138263
-0.0188633 -0.156586
-0.024266 -0.125995
0.0478229 -0.483566
0.0411242 -0.493803
-0.0289015 -0.493647
-0.0251033 -0.498029
-0.05615 -0.371023
-0.0643745 -0.396845
0.0241801 -0.126462
0.036302 -0.108685
-0.0144941 -0.21894
-0.000782935 -0.18591
0.0473035 -0.48516
0.0539732 -0.473072
0.0444213 -0.0671628
0.0428504 -0.089409
0.0201931 -0.161257
0.0303019 -0.128484
0.0393107 -0.498855
0.0508157 -0.482469
0.0449316 -0.318756
0.0669844 -0.383973
0.0481184 -0.3413
0.0433452 -0.319537
0.0528803 -0.438867
0.04739 -0.453059
-0.0597104 -0.392197
-0.0599012 -0.40882
-0.000425843 -0.492663
0.00117337 -0.494588
0.0406119 -0.315048
0.0467934 -0.338842
0.0384515 -0.0618956
0.0384551 -0.0868612
0.000920267 -0.506547
0.0020918 -0.505918
-0.0219444 -0.503205
-0.0288705 -0.500461
-0.0380222 -0.389276
-0.0286938 -0.41058
-0.0366921 -0.290381
-0.0415996 -0.333643
-0.0150121 -0.506553
-0.0123659 -0.510377
-0.00476933 -0.187833
0.00462208 -0.144774
-0.0219276 -0.114933
-0.0274236 -0.0812411
0.00551145 -0.504526
0.0101244 -0.503661
-0.00739123 -0.140928
-0.0138919 -0.205674
-0.056181 -0.474264
-0.0667846 -0.452572
-0.00139567 -0.491872
0.00777873 -0.490672
0.00696803 -0.215508
0.0176755 -0.236073
-0.0219455 -0.20007
-0.0352764 -0.282776
0.0117023 -0.16567
0.013949 -0.183458
0.0400917 -0.474833
0.0467796 -0.469145
0.0245675 -0.500196
0.0296088 -0.499814
0.0543312 -0.362967
0.0425456 -0.327734
-0.00475584 -0.482017
-0.00434788 -0.488375
0.0345535 -0.503137
0.0341595 -0.500964
-0.0108076 -0.505038
-0.015494 -0.505792
-0.0192553 -0.468404
-0.0229519 -0.453697
0.00942933 -0.0270766
0.0085118 -0.0457353
-0.0129314 -0.500144
-0.00705473 -0.501775
0.0326538 -0.506962
0.0329635 -0.50526
-0.0219847 -0.495527
-0.0227051 -0.492063
-0.0519411 -0.356981
-0.0589505 -0.386604
0.033088 -0.496765
0.0285576 -0.502665
-0.054848 -0.472188
-0.0500434 -0.479568
0.00362962 -0.496851
-0.000917875 -0.494994
-0.0445003 -0.44626
-0.0491372 -0.4463
0.0419532 -0.481141
0.0349768 -0.485665
0.00378729 -0.488942
0.00496495 -0.486127
0.0606829 -0.380002
0.0462487 -0.342559
0.0396783 -0.498042
0.0385826 -0.499872
-0.0423914 -0.490585
-0.0428114 -0.486611
0.010804 -0.173083
-0.00183246 -0.213814
-0.0381955 -0.499461
-0.0343917 -0.505168
-0.0522778 -0.0634037
-0.0492902 -0.0783876
0.016583 -0.189623
0.00679901 -0.144172
0.0610243 -0.418743
0.0611809 -0.401301
-0.00116487 -0.490734
-0.00424293 -0.487368
0.0086209 -0.456856
0.00699654 -0.440412
-0.0027752 -0.204846
-0.0162642 -0.16498
0.0326139 -0.499865
0.029687 -0.505561
-0.024366 -0.229769
-0.0138538 -0.176938
0.0126052 -0.509018
0.0194206 -0.506639
0.00393849 -0.487696
0.00048966 -0.490997
0.0332408 -0.48719
0.0393776 -0.485
0.0420191 -0.478139
0.0414404 -0.483739
0.0449928 -0.470384
0.0511539 -0.463222
-0.0073593 -0.362325
-0.00213263 -0.396608
-0.0576415 -0.467122
-0.0626097 -0.454182
0.0366129 -0.282116
0.0379408 -0.312703
0.0147892 -0.519274
0.0182284 -0.512335
0.0589669 -0.394399
0.0608226 -0.393391
-0.0194444 -0.0203259
-0.00203219 -0.00198858
0.0369069 -0.0478405
0.0440308 -0.0496851
-0.0116077 -0.487666
-0.00535011 -0.489516
-0.00261925 -0.506218
-0.000503089 -0.506686
0.0345971 -0.041731
0.0224269 -0.0264099
0.0558836 -0.41478
0.0565385 -0.393219
0.0167503 -0.473326
0.00728591 -0.471806
0.0435909 -0.0912191
0.0402583 -0.0834485
0.000727452 -0.480044
-0.000720869 -0.487576
0.00132727 -0.504449
0.00338137 -0.50503
0.0272385 -0.484947
0.0189345 -0.48803
0.0582288 -0.383013
0.0536628 -0.361714
-0.0497499 -0.482726
-0.0554145 -0.469783
0.015126 -0.222458
0.0278209 -0.261515
0.0567481 -0.294526
0.0511362 -0.339314
-0.0415143 -0.469807
-0.0371923 -0.470254
-0.0566107 -0.372387
-0.0604067 -0.386184
0.0676963 -0.432689
0.0693105 -0.438089
0.0756626 -0.408442
0.0792196 -0.44533
-0.0148921 -0.158403
-0.00332151 -0.197708
-0.053894 -0.439315
-0.0524813 -0.42575
-0.0499091 -0.349899
-0.0446548 -0.33878
0.0291119 -0.299104
0.0361574 -0.318377
0.028696 -0.254772
0.0157496 -0.217447
0.00491131 -0.505491
0.0071435 -0.506089
-0.0275397 -0.501854
-0.028488 -0.498264
-0.0020735 -0.509893
-0.00482479 -0.515104
0.0240235 -0.50001
0.0185123 -0.500243
-0.0196595 -0.493271
-0.0120695 -0.493783
-0.025724 -0.511625
-0.0234765 -0.510136
-0.00476974 -0.333551
-0.015832 -0.27115
0.00614033 -0.0609351
0.00266249 -0.01481
-0.00321014 -0.463531
-0.00794517 -0.472897
0.0510841 -0.423649
0.0551432 -0.42792
0.0196391 -0.494074
0.0173931 -0.497486
0.0448631 -0.0890691
0.0505248 -0.0763936
-0.0519134 -0.362105
-0.0506115 -0.369845
-0.0647357 -0.453189
-0.057174 -0.47224
-0.000625092 -0.507644
-0.00335226 -0.507041
-0.028051 -0.45883
-0.0295853 -0.441638
-0.0558052 -0.392211
-0.0534917 -0.368301
0.00796765 -0.506327
0.00537055 -0.50555
0.0156093 -0.0312873
0.0203467 -0.0630113
0.0466179 -0.34
0.0356306 -0.305576
0.0433713 -0.491591
0.0604437 -0.469227
0.0384808 -0.499994
0.0289321 -0.511643
-0.00118142 -0.450319
0.00700987 -0.462937
0.0344313 -0.485124
0.0311354 -0.49075
0.00278104 -0.43748
0.00126288 -0.45611
-0.00234525 -0.457713
0.0106511 -0.450782
-0.0419949 -0.494657
-0.0401863 -0.497924
0.0115609 -0.488495
0.00779788 -0.488827
-0.0110146 -0.204456
-0.0233432 -0.237581
0.0105905 -0.208149
0.0203967 -0.247851
0.00377343 -0.503401
0.00579809 -0.504208
-0.0474019 -0.440831
-0.0416526 -0.443813
0.0144251 -0.502661
0.0127781 -0.504809
-0.0139166 -0.485481
-0.011833 -0.487692
0.0676351 -0.434135
0.0649849 -0.436904
0.0389079 -0.296784
0.028071 -0.260467
0.0379359 -0.0692638
0.0335877 -0.0966942
0.050795 -0.476796
0.0505792 -0.471993
-0.0563643 -0.459258
-0.0542617 -0.470161
0.0209296 -0.0168311
0.0330047 -0.03366
-0.0435311 -0.409843
-0.0457256 -0.380702
-0.0569657 -0.373638
-0.0481944 -0.343716
0.0349644 -0.451286
0.038877 -0.432938
-0.0255644 -0.374864
-0.012775 -0.36295
0.0510173 -0.4308
0.0455825 -0.433449
0.0492148 -0.47743
0.0477623 -0.474366
-0.0395287 -0.322557
-0.0461882 -0.301992
-0.0410207 -0.331834
-0.0345105 -0.314215
0.0209935 -0.452233
0.0276735 -0.434313
-0.0258558 -0.508862
-0.0270335 -0.504428
-0.0317974 -0.440945
-0.0242698 -0.422755
-0.0272595 -0.514392
-0.0124011 -0.531542
0.0329203 -0.391791
0.00706765 -0.395404
-0.0472907 -0.359081
-0.0431756 -0.37145
-0.0409158 -0.486178
-0.0465018 -0.482064
-0.016474 -0.456535
-0.00330343 -0.452539
0.0125705 -0.486664
0.00664928 -0.488853
0.0266335 -0.501991
0.0226926 -0.507399
0.031821 -0.0725954
0.0281097 -0.0459426
0.00937852 -0.180981
0.00550282 -0.205467
-0.0199063 -0.482848
-0.0187154 -0.48135
0.0468254 -0.334757
0.0489406 -0.345136
0.0450263 -0.41376
0.0446068 -0.434124
-0.0365436 -0.503115
-0.0471646 -0.488442
-0.0204635 -0.506611
-0.0164486 -0.511914
0.0566466 -0.470867
0.0553356 -0.470635
0.0499173 -0.36412
0.0447889 -0.329205
-0.0216718 -0.455311
-0.014592 -0.44079
0.069842 -0.411663
0.0601544 -0.380293
0.0214517 -0.265657
0.037339 -0.202007
-0.0146907 -0.528941
-0.017196 -0.525287
-0.0079321 -0.506555
-0.00595051 -0.505494
0.0299707 -0.308698
0.0354543 -0.345809
0.0234539 -0.23384
0.0274413 -0.237003
-0.0164086 -0.52714
-0.0118755 -0.53156
0.0352064 -0.502687
0.0274773 -0.509475
0.00817914 -0.491512
0.00527336 -0.493965
-0.0145706 -0.177538
-0.00268771 -0.131735
-0.0314702 -0.257772
-0.0366 -0.280323
-0.0492206 -0.483248
-0.0532387 -0.473106
-0.0401411 -0.310679
-0.0375565 -0.308238
-0.0726637 -0.45155
-0.0518562 -0.485193
-0.0402916 -0.491257
-0.0428796 -0.484973
0.0265802 -0.394445
0.0304343 -0.359178
0.0090169 -0.530011
0.00622228 -0.528645
0.0701049 -0.422238
0.0675962 -0.426299
0.0174799 -0.489872
0.00956898 -0.491024
0.0612198 -0.465216
0.0677815 -0.447571
-0.0206735 -0.411024
-0.00780519 -0.408641
0.0297341 -0.446571
0.0439949 -0.425115
0.00420836 -0.0253093
0.000287617 -0.0910383
0.00218129 -0.508384
0.00177259 -0.51509
-0.0314535 -0.482378
-0.0332982 -0.484692
0.0358971 -0.317923
0.0513042 -0.356661
-0.0406186 -0.104004
-0.0391673 -0.108025
-0.0309958 -0.304322
-0.0298742 -0.295051
-0.00469652 -0.00528721
-0.0015517 -0.0014227
-0.0528922 -0.363518
-0.0567389 -0.38988
-0.00316064 -0.490332
-0.000349066 -0.491851
-0.0035312 -0.478132
-0.00411037 -0.485933
-0.0198417 -0.454008
-0.00789811 -0.444565
-0.0474713 -0.0626655
-0.0509437 -0.0562565
0.019419 -0.143109
0.0151521 -0.170966
0.0188653 -0.459971
0.0196129 -0.443346
-0.0021791 -0.473132
0.00308493 -0.481158
0.0604784 -0.379643
0.0549643 -0.362638
0.00197376 -0.489688
0.00274243 -0.484444
0.0305587 -0.0701387
0.0376307 -0.0691064
0.0302053 -0.0388014
0.0189618 -0.0244318
0.00356485 -0.00309747
0.0183981 -0.0153705
0.0734709 -0.412312
0.0700054 -0.411384
-0.016054 -0.445642
-0.0236566 -0.451878
0.00250243 -0.13276
-0.00880814 -0.0797104
-0.00567228 -0.533321
-0.0112191 -0.524802
-0.014603 -0.174631
-0.00218985 -0.126486
0.0262171 -0.148624
0.0221721 -0.155094
-0.00916969 -0.464325
0.00058024 -0.46556
0.0683625 -0.421247
0.0668203 -0.436944
0.0166198 -0.525911
0.0290029 -0.511589
0.0329246 -0.26504
0.0415277 -0.308258
-0.0286174 -0.125625
-0.0267197 -0.108147
0.00777546 -0.524057
0.0171652 -0.515095
-0.041991 -0.492966
-0.041331 -0.49583
0.0341795 -0.285823
0.0285991 -0.299276
-0.0463836 -0.34534
-0.0406473 -0.328908
0.012926 -0.0221128
0.0219966 -0.0375073
-0.00166582 -0.503859
-0.00529122 -0.504527
-0.00317586 -0.158627
-0.0119923 -0.163742
-0.0375425 -0.429997
-0.0447652 -0.426599
-0.000595438 -0.476742
-0.00852345 -0.475223
0.00252006 -0.488097
0.00740059 -0.482537
0.0130568 -0.501627
0.0134037 -0.503326
0.0320607 -0.109447
0.0392604 -0.0827765
0.0431683 -0.317785
0.0510668 -0.352844
0.0293282 -0.249939
0.0218721 -0.223863
-0.0288537 -0.497622
-0.0249988 -0.501886
-0.0157411 -0.480539
-0.0183309 -0.471585
-0.0594365 -0.382832
-0.0506614 -0.352281
-0.0372036 -0.500428
-0.0449116 -0.489811
0.0144758 -0.304944
-0.00412188 -0.342106
-0.0208602 -0.469394
-0.0256577 -0.470423
-0.00934507 -0.474038
-0.0168452 -0.464581
-0.006275 -0.489472
-0.0146147 -0.486758
-0.00126182 -0.502092
0.0047438 -0.501722
0.00915822 -0.488905
0.0131521 -0.488849
0.0519974 -0.356055
0.0590646 -0.382193
0.00561271 -0.0381496
-0.00318391 -0.0720596
0.0337606 -0.0379783
0.0433355 -0.0567092
0.00331657 -0.503638
0.00480229 -0.50454
0.0488147 -0.34987
0.0517893 -0.357097
-0.00792057 -0.241111
-0.0239289 -0.284237
-0.00964102 -0.479372
-0.00470326 -0.486689
-0.0120563 -0.492126
-0.019562 -0.491428
-0.0199002 -0.195585
-0.00664906 -0.144114
-0.00709551 -0.180945
0.00633324 -0.208913
-0.00120878 -0.506904
-0.003232 -0.506038
0.00124839 -0.490078
-0.000122285 -0.491074
-0.00759136 -0.503803
-0.00273622 -0.504214
0.00302815 -0.209797
0.0110046 -0.189886
0.0484789 -0.325088
0.0440402 -0.263055
0.000685692 -0.506373
0.00190292 -0.506232
0.0208902 -0.480259
0.0138328 -0.486078
0.0134544 -0.527154
0.0248947 -0.515822
-0.0884302 -0.43468
-0.0699787 -0.394957
-0.028027 -0.298803
-0.0128774 -0.257328
0.00485565 -0.00994899
0.00981142 -0.0135636
-0.0474154 -0.487339
-0.0674072 -0.461359
0.0612956 -0.461352
0.0634485 -0.451774
0.00718707 -0.504049
0.00358922 -0.505121
0.0548362 -0.475214
0.0577835 -0.469629
-0.0403528 -0.101023
-0.0463214 -0.0784416
0.0385105 -0.426053
0.0302384 -0.436096
0.00384383 -0.531542
0.0132096 -0.52093
0.0471281 -0.343156
0.0559694 -0.368307
0.0119202 -0.246778
0.00956238 -0.247517
-0.000105734 -0.491853
-0.000727637 -0.490408
0.00869843 -0.494183
0.016947 -0.491467
0.0374452 -0.465241
0.0296006 -0.474042
0.00845052 -0.479364
0.0150433 -0.469389
-0.0437819 -0.492946
-0.0534363 -0.478498
0.0100809 -0.460163
0.0195475 -0.455991
-0.0262485 -0.515592
-0.0379112 -0.501434
-0.0211485 -0.458219
-0.0213169 -0.469585
0.0463879 -0.0898563
0.0421643 -0.093453
0.0227255 -0.485115
0.0313317 -0.47969
-0.00568468 -0.505102
-0.00973093 -0.505449
-0.0387009 -0.325952
-0.048678 -0.350618
-0.0500511 -0.0666584
-0.044463 -0.0623645
0.00836459 -0.0830753
0.0152485 -0.0734366
0.037789 -0.445107
0.0345889 -0.459446
0.00628442 -0.481087
0.0133693 -0.472493
0.0646912 -0.400868
0.0679153 -0.425705
0.0251174 -0.48581
0.016995 -0.488397
0.0187888 -0.268686
0.0292172 -0.300052
0.0139268 -0.173144
0.0098918 -0.156062
0.0322708 -0.305731
0.0152303 -0.258471
0.000607885 -0.504005
0.00325724 -0.502579
0.0214688 -0.25561
0.039732 -0.276403
0.0138544 -0.516349
0.0085116 -0.524811
0.00573588 -0.233696
-0.00897594 -0.19485
0.0267104 -0.291264
0.0157065 -0.264688
-0.0142961 -0.24816
-0.00727868 -0.216489
0.0392295 -0.100395
0.0393679 -0.11065
-0.0450622 -0.491514
-0.0325613 -0.507498
-0.0225441 -0.02245
-0.0291822 -0.025882
0.0527896 -0.357983
0.0404396 -0.315152
-0.0275525 -0.0500462
-0.0347151 -0.0678796
0.0190996 -0.122428
0.0206158 -0.0924836
-0.00295534 -0.48994
0.000275058 -0.490147
0.00986445 -0.135111
-0.0315244 -0.149448
0.0251974 -0.51611
0.0234773 -0.517713
-0.0464499 -0.0784221
-0.0509044 -0.0731715
-0.064387 -0.436009
-0.0614994 -0.454004
-0.0048704 -0.48963
0.00166716 -0.489954
0.0358507 -0.0441596
0.0450734 -0.0536447
0.00699592 -0.00766957
0.0110665 -0.0148759
-0.0169484 -0.491152
-0.0245479 -0.489675
-0.0173425 -0.0154538
-0.0343559 -0.0330675
0.0177597 -0.52446
0.021573 -0.519171
0.059482 -0.465694
0.051388 -0.481598
-0.0326074 -0.500946
-0.0332883 -0.497165
0.00980658 -0.501906
0.0101784 -0.499921
-0.0191293 -0.503444
-0.0134213 -0.505621
0.0240245 -0.478606
0.0255556 -0.472948
0.00441652 -0.489505
0.00662838 -0.488744
0.0303387 -0.0416834
0.0341036 -0.0632081
-0.00464014 -0.111832
-0.0134152 -0.0689871
0.054132 -0.468942
0.0529444 -0.464604
0.00085713 -0.505701
0.000314568 -0.506511
-0.00441454 -0.490024
0.00183971 -0.490379
-0.00237389 -0.421974
0.0128645 -0.416545
0.0336093 -0.0749955
0.0313643 -0.104402
-0.00334439 -0.506571
-0.00453332 -0.505455
0.0211428 -0.266492
0.0268404 -0.272735
-0.0161849 -0.0946258
-0.0177116 -0.0592996
0.0554945 -0.474119
0.0563252 -0.472679
-0.0366679 -0.491461
-0.0295257 -0.496647
0.00311783 -0.22977
0.0186825 -0.272379
0.0303581 -0.134658
0.055619 -0.232839
-0.0350106 -0.479588
-0.0277625 -0.483345
-0.0599289 -0.444215
-0.0556939 -0.456012
0.0136429 -0.487486
0.0105582 -0.487753
-0.0108259 -0.170526
-0.00716141 -0.248576
0.00582972 -0.489137
-0.000451297 -0.490209
0.0176895 -0.158856
0.028509 -0.124464
0.0739878 -0.331265
0.0485459 -0.267832
-0.00411155 -0.506834
-0.00882936 -0.506155
0.0213723 -0.380974
0.031751 -0.407325
0.0439589 -0.321967
0.0450361 -0.326995
-0.0270968 -0.513597
-0.0345714 -0.504135
-0.00138027 -0.489507
0.00111527 -0.490737
0.0197966 -0.40779
0.0275939 -0.430569
-0.00715553 -0.488383
-0.00371683 -0.489332
-0.00844462 -0.188852
-0.0106059 -0.19086
-0.00690046 -0.477214
0.000525208 -0.479625
-0.0215179 -0.48282
-0.029745 -0.476242
-0.0373113 -0.470213
-0.0294328 -0.478118
0.0611617 -0.441298
0.0627416 -0.422089
0.0011054 -0.465171
0.00557333 -0.448262
-0.0082618 -0.0376892
-0.00281766 -0.0467592
0.0259845 -0.483933
0.0342394 -0.478835
-0.0215776 -0.155603
-0.00807056 -0.190495
0.0212585 -0.222465
0.0253369 -0.225447
-0.0283233 -0.508758
-0.0216617 -0.512245
0.00861636 -0.503647
0.00507027 -0.504943
-0.0512089 -0.385326
-0.0488404 -0.355169
0.0236831 -0.0523162
0.0306962 -0.0660697
0.00012635 -0.48988
0.00653208 -0.489289
-0.0153928 -0.501755
-0.012285 -0.503884
-0.0591919 -0.379168
-0.0680715 -0.409485
-0.00958226 -0.457189
-0.00299035 -0.469879
-0.00594125 -0.505659
-0.0109581 -0.505195
-0.00634993 -0.50565
-0.0114827 -0.505026
0.0441454 -0.324155
0.0369668 -0.282445
0.0622881 -0.379944
0.0795004 -0.414123
-0.00931533 -0.488128
-0.00423401 -0.489792
0.0180241 -0.517701
0.0147986 -0.516089
0.0163813 -0.199979
0.0278831 -0.245294
-0.0192754 -0.50701
-0.0250998 -0.506484
0.0538389 -0.45924
0.0567371 -0.459482
0.0551031 -0.4208
0.0556886 -0.437893
-0.062061 -0.439906
-0.0598559 -0.456805
0.0274102 -0.450989
0.022537 -0.46607
0.00156779 -0.506444
0.00326867 -0.505951
-0.037423 -0.356289
-0.0446578 -0.369798
0.0523168 -0.0668259
0.0477057 -0.0639813
0.0363839 -0.108444
0.0312962 -0.131916
-0.013226 -0.46817
-0.0212506 -0.465251
-0.0164319 -0.484654
-0.022473 -0.48192
-0.00616337 -0.504482
-0.0108623 -0.504591
-0.0308403 -0.0346296
-0.0264471 -0.0354941
-0.018017 -0.26435
-0.0106514 -0.251087
0.0713907 -0.431505
0.0661158 -0.455139
-0.0364476 -0.495684
-0.0377873 -0.491095
-0.0526428 -0.447182
-0.0568574 -0.433169
-0.0365241 -0.477278
-0.0433756 -0.467345
-0.0209747 -0.48375
-0.025456 -0.477942
0.0465078 -0.487931
0.0435323 -0.491277
-0.0191267 -0.495963
-0.0271027 -0.492826
0.0435061 -0.385889
0.0288411 -0.350101
-0.011851 -0.0937079
-0.00985088 -0.0686536
-0.0181693 -0.228236
-0.0373396 -0.262581
0.00243933 -0.215191
-0.00685696 -0.239117
0.0193843 -0.147559
0.00707417 -0.186228
-0.0483614 -0.343309
-0.0395737 -0.307635
-0.0568127 -0.406356
-0.0581742 -0.42601
0.0629815 -0.420426
0.0647298 -0.430257
-0.0211887 -0.488096
-0.0196697 -0.491373
-0.0117435 -0.50732
-0.00617969 -0.507131
-0.0478476 -0.431716
-0.0491996 -0.410016
-0.0628069 -0.46398
-0.0679651 -0.447988
-0.000441433 -0.491982
0.000196367 -0.491521
0.0642021 -0.431926
0.066336 -0.434493
0.00107021 -0.492405
0.000281019 -0.491069
-0.0318226 -0.290661
-0.027171 -0.238204
-0.0657691 -0.45384
-0.0605292 -0.465122
-0.0407982 -0.497312
-0.0529388 -0.47954
-0.00683714 -0.117917
0.0126767 -0.168793
0.00595883 -0.189223
-0.0061916 -0.144845
-0.0491965 -0.485422
-0.0579899 -0.471251
0.0128664 -0.529764
0.0203791 -0.521758
-0.000415554 -0.217969
-0.00590327 -0.139752
-0.0343666 -0.314244
-0.033302 -0.312045
-0.0658001 -0.462991
-0.0747478 -0.437063
-0.0229974 -0.387269
-0.0128848 -0.412008
-0.0260149 -0.0312914
-0.0371654 -0.0434569
0.0267907 -0.0797204
0.02579 -0.0497345
-0.0254945 -0.512393
-0.0327614 -0.50645
0.0479448 -0.430611
0.0512043 -0.438573
0.0292937 -0.28574
0.042539 -0.325238
-0.00381182 -0.48988
-0.00676375 -0.489256
-0.0655353 -0.399963
-0.0632816 -0.397738
0.0448273 -0.485644
0.0458348 -0.487511
0.0207826 -0.498899
0.0163753 -0.498174
-0.0328163 -0.0794993
-0.0330009 -0.0537849
0.00305666 -0.488185
0.0067593 -0.48072
0.00705284 -0.5111
0.0112783 -0.514367
-0.00576893 -0.506661
-0.010329 -0.505514
-0.000295889 -0.491816
-0.0028444 -0.490712
-0.0274813 -0.369775
-0.0346254 -0.391176
-0.00468043 -0.489587
-0.00280893 -0.487496
0.00434587 -0.00615343
0.0171032 -0.033414
-0.0742968 -0.394334
-0.0479316 -0.331356
0.0624455 -0.441066
0.0605363 -0.436283
-0.0142862 -0.466354
-0.0129759 -0.477748
0.00929762 -0.492747
0.0180951 -0.490563
0.01844 -0.485655
0.0269639 -0.480151
-0.0200908 -0.499875
-0.016651 -0.498687
-0.00159985 -0.114301
-0.00132646 -0.129079
-0.0409822 -0.394572
-0.0190832 -0.372038
-0.00999026 -0.518578
-0.0198959 -0.520411
-0.0198959 -0.520411
-0.0302739 -0.522852
-0.0302739 -0.522852
-0.0408955 -0.526102
-0.0408955 -0.526102
-0.0515612 -0.530269
-0.0515612 -0.530269
-0.0621203 -0.535303
-0.0621203 -0.535303
-0.0723856 -0.541199
-0.0723856 -0.541199
-0.0822075 -0.547898
-0.0822075 -0.547898
-0.0914514 -0.555327
-0.0914514 -0.555327
-0.0999941 -0.563395
-0.0999941 -0.563395
-0.107751 -0.57199
-0.107751 -0.57199
-0.114645 -0.580992
-0.114645 -0.580992
-0.12063 -0.590279
-0.12063 -0.590279
-0.125687 -0.599724
-0.125687 -0.599724
-0.129786 -0.609185
-0.129786 -0.609185
-0.132965 -0.618582
-0.132965 -0.618582
-0.135251 -0.627773
-0.135251 -0.627773
-0.136682 -0.636665
-0.136682 -0.636665
-0.137327 -0.645196
-0.137327 -0.645196
-0.137242 -0.653257
-0.137242 -0.653257
-0.136518 -0.660814
-0.136518 -0.660814
-0.13521 -0.667841
-0.13521 -0.667841
-0.133396 -0.674287
-0.133396 -0.674287
-0.131165 -0.680146
-0.131165 -0.680146
-0.128562 -0.685429
-0.128562 -0.685429
-0.12563 -0.690166
-0.12563 -0.690166
-0.122431 -0.694325
-0.122431 -0.694325
-0.119011 -0.697948
-0.119011 -0.697948
-0.115344 -0.701109
-0.115344 -0.701109
-0.111426 -0.703783
-0.111426 -0.703783
-0.107314 -0.705979
-0.107314 -0.705979
-0.102943 -0.707659
-0.102943 -0.707659
-0.0982346 -0.708932
-0.0982346 -0.708932
-0.0931957 -0.709753
-0.0931957 -0.709753
-0.0878064 -0.70994
-0.0878064 -0.70994
-0.081898 -0.709533
-0.081898 -0.709533
-0.0754748 -0.708568
-0.0754748 -0.708568
-0.0685027 -0.706786
-0.0685027 -0.706786
-0.0608957 -0.703852
-0.0608957 -0.703852
-0.0526064 -0.699854
-0.0526064 -0.699854
-0.0436634 -0.694587
-0.0436634 -0.694587
-0.034007 -0.687454
-0.034007 -0.687454
-0.0237307 -0.678236
-0.0237307 -0.678236
-0.0128986 -0.666533
-0.0128986 -0.666533
-0.00139401 -0.651486
-0.00139401 -0.651486
0.0102153 -0.632085
0.0102153 -0.632085
0.0221301 -0.607287
0.0221301 -0.607287
0.0341011 -0.57341
0.0341011 -0.57341
0.0464886 -0.529059
0.0464886 -0.529059
0.063839 -0.480585
0.063839 -0.480585
0.0742784 -0.457033
0.0742784 -0.457033
0.0749381 -0.448726
0.0749381 -0.448726
0.0727986 -0.445584
0.0727986 -0.445584
0.0705573 -0.445449
0.0705573 -0.445449
0.0682197 -0.447438
0.0682197 -0.447438
0.0662612 -0.45085
0.0662612 -0.45085
0.0640285 -0.455549
0.0640285 -0.455549
0.0611738 -0.461238
0.0611738 -0.461238
0.0582604 -0.467721
0.0582604 -0.467721
0.05508 -0.474357
0.05508 -0.474357
0.0513964 -0.480687
0.0513964 -0.480687
0.0471969 -0.486536
0.0471969 -0.486536
0.0427857 -0.491946
0.0427857 -0.491946
0.038238 -0.496753
0.038238 -0.496753
0.0335318 -0.500919
0.0335318 -0.500919
0.0287851 -0.504493
0.0287851 -0.504493
0.0240404 -0.507505
0.0240404 -0.507505
0.0193101 -0.509971
0.0193101 -0.509971
0.0145248 -0.512006
0.0145248 -0.512006
0.00962937 -0.513686
0.00962937 -0.513686
0.00448089 -0.515187
0.00448089 -0.515187
-0.00168755 -0.516767
-0.00168755 -0.516767
-0.00999026 -0.518578
0.0756495 -0.709178
0.0820555 -0.710138
0.0820555 -0.710138
0.0879578 -0.71052
0.0879578 -0.71052
0.0933416 -0.710344
0.0933416 -0.710344
0.0983608 -0.709553
0.0983608 -0.709553
0.103052 -0.708288
0.103052 -0.708288
0.107414 -0.706626
0.107414 -0.706626
0.111501 -0.704445
0.111501 -0.704445
0.115402 -0.701801
0.115402 -0.701801
0.119057 -0.698649
0.119057 -0.698649
0.122466 -0.695036
0.122466 -0.695036
0.125651 -0.690895
0.125651 -0.690895
0.128569 -0.686173
0.128569 -0.686173
0.131166 -0.680903
0.131166 -0.680903
0.133388 -0.675068
0.133388 -0.675068
0.135194 -0.668659
0.135194 -0.668659
0.136496 -0.661628
0.136496 -0.661628
0.137225 -0.654103
0.137225 -0.654103
0.137307 -0.646103
0.137307 -0.646103
0.136677 -0.637595
0.136677 -0.637595
0.13524 -0.628705
0.13524 -0.628705
0.132963 -0.619539
0.132963 -0.619539
0.129799 -0.61018
0.129799 -0.61018
0.125698 -0.600731
0.125698 -0.600731
0.120663 -0.591308
0.120663 -0.591308
0.114701 -0.58206
0.114701 -0.58206
0.107815 -0.573073
0.107815 -0.573073
0.100087 -0.564507
0.100087 -0.564507
0.0915644 -0.556464
0.0915644 -0.556464
0.08235 -0.549051
0.08235 -0.549051
0.0725615 -0.542367
0.0725615 -0.542367
0.06233 -0.536477
0.06233 -0.536477
0.0518268 -0.53146
0.0518268 -0.53146
0.0411831 -0.527317
0.0411831 -0.527317
0.0306361 -0.524067
0.0306361 -0.524067
0.0203119 -0.521617
0.0203119 -0.521617
0.0105481 -0.519767
0.0105481 -0.519767
0.0022688 -0.517996
0.0022688 -0.517996
-0.00386727 -0.516404
-0.00386727 -0.516404
-0.00907959 -0.514913
-0.00907959 -0.514913
-0.014027 -0.513237
-0.014027 -0.513237
-0.0188757 -0.51123
-0.0188757 -0.51123
-0.0236847 -0.508756
-0.0236847 -0.508756
-0.0285073 -0.505709
-0.0285073 -0.505709
-0.0332825 -0.502072
-0.0332825 -0.502072
-0.0380151 -0.497828
-0.0380151 -0.497828
-0.0425881 -0.492939
-0.0425881 -0.492939
-0.046911 -0.487389
-0.046911 -0.487389
-0.0509442 -0.481283
-0.0509442 -0.481283
-0.0547306 -0.474924
-0.0547306 -0.474924
-0.058066 -0.468837
-0.058066 -0.468837
-0.0609301 -0.46295
-0.0609301 -0.46295
-0.0633842 -0.457509
-0.0633842 -0.457509
-0.0656741 -0.452651
-0.0656741 -0.452651
-0.0680407 -0.44887
-0.0680407 -0.44887
-0.0701214 -0.446712
-0.0701214 -0.446712
-0.0722074 -0.446563
-0.0722074 -0.446563
-0.0737437 -0.449773
-0.0737437 -0.449773
-0.0730602 -0.45786
-0.0730602 -0.45786
-0.0643451 -0.480695
-0.0643451 -0.480695
-0.0457253 -0.529442
-0.0457253 -0.529442
-0.0329173 -0.572764
-0.0329173 -0.572764
-0.0217137 -0.607144
-0.0217137 -0.607144
-0.00997263 -0.632856
-0.00997263 -0.632856
0.00186385 -0.652013
0.00186385 -0.652013
0.0131248 -0.667191
0.0131248 -0.667191
0.0240266 -0.678729
0.0240266 -0.678729
0.0343762 -0.687908
0.0343762 -0.687908
0.043974 -0.695162
0.043974 -0.695162
0.0528589 -0.700483
0.0528589 -0.700483
0.061134 -0.704385
0.061134 -0.704385
0.068739 -0.707291
0.068739 -0.707291
0.0756495 -0.709178
      </DataArray> 
      <DataArray type="Float64" NumberOfComponents="2" Name="Velocity" format="ascii">
0 0
0 0
0 0
0 0
0 0
0 0
0 0
0 0
0 0
0 0
0 0
0 0
0 0
0 0
0 0
0 0
0 0
0 0
0 0
0 0
0 0
0 0
0 0
0 0
0 0
0 0
0 0
0 0
0 0
0 0
0 0
0 0
0 0
0 0
0 0
0 0
0 0
0 0
0 0
0 0
0 0
0 0
0 0
0 0
0 0
0 0
0 0
0 0
0 0
0 0
0 0
0 0
0 0
0 0
0 0
0 0
0 0
0 0
0 0
0 0
0 0
0 0
0 0
0 0
0 0
0 0
0 0
0 0
0 0
0 0
0 0
0 0
0 0
0 0
0 0
0 0
0 0
0 0
0 0
0 0
0 0
0 0
0 0
0 0
0 0
0 0
0 0
0 0
0 0
0 0
0 0
0 0
0 0
0 0
0 0
0 0
0 0
0 0
0 0
0 0
0 0
0 0
0 0
0 0
0 0
0 0
0 0
0 0
0 0
0 0
0 0
0 0
0 0
0 0
0 0
0 0
0 0
0 0
0 0
0 0
0 0
0 0
0 0
0 0
0 0
0 0
0 0
0 0
0 0
0 0
0 0
0 0
0 0
0 0
0 0
0 0
0 0
0 0
0 0
0 0
0 0
0 0
0 0
0 0
0 0
0 0
0 0
0 0
0 0
0 0
0 0
0 0
0 0
0 0
0 0
0 0
0 0
0 0
0 0
0 0
0 0
0 0
0 0
0 0
0 0
0 0
0 0
0 0
0 0
0 0
0 0
0 0
0 0
0 0
0 0
0 0
0 0
0 0
0 0
0 0
0 0
0 0
0 0
0 0
0 0
0 0
0 0
0 0
0 0
0 0
0 0
0 0
0 0
0 0
0 0
0 0
0 0
0 0
0 0
0 0
0 0
0 0
0 0
0 0
0 0
0 0
0 0
0 0
0 0
0 0
0 0
0 0
0 0
0 0
0 0
0 0
0 0
0 0
0 0
0 0
0 0
0 0
0 0
0 0
0 0
0 0
0 0
0 0
0 0
0 0
0 0
0 0
0 0
0 0
0 0
0 0
0 0
0 0
0 0
0 0
0 0
0 0
0 0
0 0
0 0
0 0
0 0
0 0
0 0
0 0
0 0
0 0
0 0
0 0
0 0
0 0
0 0
0 0
0 0
0 0
0 0
0 0
0 0
0 0
0 0
0 0
0 0
0 0
0 0
0 0
0 0
0 0
0 0
0 0
0 0
0 0
0 0
0 0
0 0
0 0
0 0
0 0
0 0
0 0
0 0
0 0
0 0
0 0
0 0
0 0
0 0
0 0
0 0
0 0
0 0
0 0
0 0
0 0
0 0
0 0
0 0
0 0
0 0
0 0
0 0
0 0
0 0
0 0
0 0
0 0
0 0
0 0
0 0
0 0
0 0
0 0
0 0
0 0
0 0
0 0
0 0
0 0
0 0
0 0
0 0
0 0
0 0
0 0
0 0
0 0
0 0
0 0
0 0
0 0
0 0
0 0
0 0
0 0
0 0
0 0
0 0
0 0
0 0
0 0
0 0
0 0
0 0
0 0
0 0
0 0
0 0
0 0
0 0
0 0
0 0
0 0
0 0
0 0
0 0
0 0
0 0
0 0
0 0
0 0
0 0
0 0
0 0
0 0
0 0
0 0
0 0
0 0
0 0
0 0
0 0
0 0
0 0
0 0
0 0
0 0
0 0
0 0
0 0
0 0
0 0
0 0
0 0
0 0
0 0
0 0
0 0
0 0
0 0
0 0
0 0
0 0
0 0
0 0
0 0
0 0
0 0
0 0
0 0
0 0
0 0
0 0
0 0
0 0
0 0
0 0
0 0
0 0
0 0
0 0
0 0
0 0
0 0
0 0
0 0
0 0
0 0
0 0
0 0
0 0
0 0
0 0
0 0
0 0
0 0
0 0
0 0
0 0
0 0
0 0
0 0
0 0
0 0
0 0
0 0
0 0
0 0
0 0
0 0
0 0
0 0
0 0
0 0
0 0
0 0
0 0
0 0
0 0
0 0
0 0
0 0
0 0
0 0
0 0
0 0
0 0
0 0
0 0
0 0
0 0
0 0
0 0
0 0
0 0
0 0
0 0
0 0
0 0
0 0
0 0
0 0
0 0
0 0
0 0
0 0
0 0
0 0
0 0
0 0
0 0
0 0
0 0
0 0
0 0
0 0
0 0
0 0
0 0
0 0
0 0
0 0
0 0
0 0
0 0
0 0
0 0
0 0
0 0
0 0
0 0
0 0
0 0
0 0
0 0
0 0
0 0
0 0
0 0
0 0
0 0
0 0
0 0
0 0
0 0
0 0
0 0
0 0
0 0
0 0
0 0
0 0
0 0
0 0
0 0
0 0
0 0
0 0
0 0
0 0
0 0
0 0
0 0
0 0
0 0
0 0
0 0
0 0
0 0
0 0
0 0
0 0
0 0
0 0
0 0
0 0
0 0
0 0
0 0
0 0
0 0
0 0
0 0
0 0
0 0
0 0
0 0
0 0
0 0
0 0
0 0
0 0
0 0
0 0
0 0
0 0
0 0
0 0
0 0
0 0
0 0
0 0
0 0
0 0
0 0
0 0
0 0
0 0
0 0
0 0
0 0
0 0
0 0
0 0
0 0
0 0
0 0
0 0
0 0
0 0
0 0
0 0
0 0
0 0
0 0
0 0
0 0
0 0
0 0
0 0
0 0
0 0
0 0
0 0
0 0
0 0
0 0
0 0
0 0
0 0
0 0
0 0
0 0
0 0
0 0
0 0
0 0
0 0
0 0
0 0
0 0
0 0
0 0
0 0
0 0
0 0
0 0
0 0
0 0
0 0
0 0
0 0
0 0
0 0
0 0
0 0
0 0
0 0
0 0
0 0
0 0
0 0
0 0
0 0
0 0
0 0
0 0
0 0
0 0
0 0
0 0
0 0
0 0
0 0
0 0
0 0
0 0
0 0
0 0
0 0
0 0
0 0
0 0
0 0
0 0
0 0
0 0
0 0
0 0
0 0
0 0
0 0
0 0
0 0
0 0
0 0
0 0
0 0
0 0
0 0
0 0
0 0
0 0
0 0
0 0
0 0
0 0
0 0
0 0
0 0
0 0
0 0
0 0
0 0
0 0
0 0
0 0
0 0
0 0
0 0
0 0
0 0
0 0
0 0
0 0
0 0
0 0
0 0
0 0
0 0
0 0
0 0
0 0
0 0
0 0
0 0
0 0
0 0
0 0
0 0
0 0
0 0
0 0
0 0
0 0
0 0
0 0
0 0
0 0
0 0
0 0
0 0
0 0
0 0
0 0
0 0
0 0
0 0
0 0
0 0
0 0
0 0
0 0
0 0
0 0
0 0
0 0
0 0
0 0
0 0
0 0
0 0
0 0
0 0
0 0
0 0
0 0
0 0
0 0
0 0
0 0
0 0
0 0
0 0
0 0
0 0
0 0
0 0
0 0
0 0
0 0
0 0
0 0
0 0
0 0
0 0
0 0
0 0
0 0
0 0
0 0
0 0
0 0
0 0
0 0
0 0
0 0
0 0
0 0
0 0
0 0
0 0
0 0
0 0
0 0
0 0
0 0
0 0
0 0
0 0
0 0
0 0
0 0
0 0
0 0
0 0
0 0
0 0
0 0
0 0
0 0
0 0
0 0
0 0
0 0
0 0
0 0
0 0
0 0
0 0
0 0
0 0
0 0
0 0
0 0
0 0
0 0
0 0
0 0
0 0
0 0
0 0
0 0
0 0
0 0
0 0
0 0
0 0
0 0
0 0
0 0
0 0
0 0
0 0
0 0
0 0
0 0
0 0
0 0
0 0
0 0
0 0
0 0
0 0
0 0
0 0
0 0
0 0
0 0
0 0
0 0
0 0
0 0
0 0
0 0
0 0
0 0
0 0
0 0
0 0
0 0
0 0
0 0
0 0
0 0
0 0
0 0
0 0
0 0
0 0
0 0
0 0
0 0
0 0
0 0
0 0
0 0
0 0
0 0
0 0
0 0
0 0
0 0
0 0
0 0
0 0
0 0
0 0
0 0
0 0
0 0
0 0
0 0
0 0
0 0
0 0
0 0
0 0
0 0
0 0
0 0
0 0
0 0
0 0
0 0
0 0
0 0
0 0
0 0
0 0
0 0
0 0
0 0
0 0
0 0
0 0
0 0
0 0
0 0
0 0
0 0
0 0
0 0
0 0
0 0
0 0
0 0
0 0
0 0
0 0
0 0
0 0
0 0
0 0
0 0
0 0
0 0
0 0
0 0
0 0
0 0
0 0
0 0
0 0
0 0
0 0
0 0
0 0
0 0
0 0
0 0
0 0
0 0
0 0
0 0
0 0
0 0
0 0
0 0
0 0
0 0
0 0
0 0
0 0
0 0
0 0
0 0
0 0
0 0
0 0
0 0
0 0
0 0
0 0
0 0
0 0
0 0
0 0
0 0
0 0
0 0
0 0
0 0
0 0
0 0
0 0
0 0
0 0
0 0
0 0
0 0
0 0
0 0
0 0
0 0
0 0
0 0
0 0
0 0
0 0
0 0
0 0
0 0
0 0
0 0
0 0
0 0
0 0
0 0
0 0
0 0
0 0
0 0
0 0
0 0
0 0
0 0
0 0
0 0
0 0
0 0
0 0
0 0
0 0
0 0
0 0
0 0
0 0
0 0
0 0
0 0
0 0
0 0
0 0
0 0
0 0
0 0
0 0
0 0
0 0
0 0
0 0
0 0
0 0
0 0
0 0
0 0
0 0
0 0
0 0
0 0
0 0
0 0
0 0
0 0
0 0
0 0
0 0
0 0
0 0
0 0
0 0
0 0
0 0
0 0
0 0
0 0
0 0
0 0
0 0
0 0
0 0
0 0
0 0
0 0
0 0
0 0
0 0
0 0
0 0
0 0
0 0
0 0
0 0
0 0
0 0
0 0
0 0
0 0
0 0
0 0
0 0
0 0
0 0
0 0
0 0
0 0
0 0
0 0
0 0
0 0
0 0
0 0
0 0
0 0
0 0
0 0
0 0
0 0
0 0
0 0
0 0
0 0
0 0
0 0
0 0
0 0
0 0
0 0
0 0
0 0
0 0
0 0
0 0
0 0
0 0
0 0
0 0
0 0
0 0
0 0
0 0
0 0
0 0
0 0
0 0
0 0
0 0
0 0
0 0
0 0
0 0
0 0
0 0
0 0
0 0
0 0
0 0
0 0
0 0
0 0
0 0
0 0
0 0
0 0
0 0
0 0
0 0
0 0
0 0
0 0
0 0
0 0
0 0
0 0
0 0
0 0
0 0
0 0
0 0
0 0
0 0
0 0
0 0
0 0
0 0
0 0
0 0
0 0
0 0
0 0
0 0
0 0
0 0
0 0
0 0
0 0
0 0
0 0
0 0
0 0
0 0
0 0
0 0
0 0
0 0
0 0
0 0
0 0
0 0
0 0
0 0
0 0
0 0
0 0
0 0
0 0
0 0
0 0
0 0
0 0
0 0
0 0
0 0
0 0
0 0
0 0
0 0
0 0
0 0
0 0
0 0
0 0
0 0
0 0
0 0
0 0
0 0
0 0
0 0
0 0
0 0
0 0
0 0
0 0
0 0
0 0
0 0
0 0
0 0
0 0
0 0
0 0
0 0
0 0
0 0
0 0
0 0
0 0
0 0
0 0
0 0
0 0
0 0
0 0
0 0
0 0
0 0
0 0
0 0
0 0
0 0
0 0
0 0
0 0
0 0
0 0
0 0
0 0
0 0
0 0
0 0
0 0
0 0
0 0
0 0
0 0
0 0
0 0
0 0
0 0
0 0
0 0
0 0
0 0
0 0
0 0
0 0
0 0
0 0
0 0
0 0
0 0
0 0
0 0
0 0
0 0
0 0
0 0
0 0
0 0
0 0
0 0
0 0
0 0
0 0
0 0
0 0
0 0
0 0
0 0
0 0
0 0
0 0
0 0
0 0
0 0
0 0
0 0
0 0
0 0
0 0
0 0
0 0
0 0
0 0
0 0
0 0
0 0
0 0
0 0
0 0
0 0
0 0
0 0
0 0
0 0
0 0
0 0
0 0
0 0
0 0
0 0
0 0
0 0
0 0
0 0
0 0
0 0
0 0
0 0
0 0
0 0
0 0
0 0
0 0
0 0
0 0
0 0
0 0
0 0
0 0
0 0
0 0
0 0
0 0
0 0
0 0
0 0
0 0
0 0
0 0
0 0
0 0
0 0
0 0
0 0
0 0
0 0
0 0
0 0
0 0
0 0
0 0
0 0
0 0
0 0
0 0
0 0
0 0
0 0
0 0
0 0
0 0
0 0
0 0
0 0
0 0
0 0
0 0
0 0
0 0
0 0
0 0
0 0
0 0
0 0
0 0
0 0
0 0
0 0
0 0
0 0
0 0
0 0
0 0
0 0
0 0
0 0
0 0
0 0
0 0
0 0
0 0
0 0
0 0
0 0
0 0
0 0
0 0
0 0
0 0
0 0
0 0
0 0
0 0
0 0
0 0
0 0
0 0
0 0
0 0
0 0
0 0
0 0
0 0
0 0
0 0
0 0
0 0
0 0
0 0
0 0
0 0
0 0
0 0
0 0
0 0
0 0
0 0
0 0
0 0
0 0
0 0
0 0
0 0
0 0
0 0
0 0
0 0
0 0
0 0
0 0
0 0
0 0
0 0
0 0
0 0
0 0
0 0
0 0
0 0
0 0
0 0
0 0
0 0
0 0
0 0
0 0
0 0
0 0
0 0
0 0
0 0
0 0
0 0
0 0
0 0
0 0
0 0
0 0
0 0
0 0
0 0
0 0
0 0
0 0
0 0
0 0
0 0
0 0
0 0
0 0
0 0
0 0
0 0
0 0
0 0
0 0
0 0
0 0
0 0
0 0
0 0
0 0
0 0
0 0
0 0
0 0
0 0
0 0
0 0
0 0
0 0
0 0
0 0
0 0
0 0
0 0
0 0
0 0
0 0
0 0
0 0
0 0
0 0
0 0
0 0
0 0
0 0
0 0
0 0
0 0
0 0
0 0
0 0
0 0
0 0
0 0
0 0
0 0
0 0
0 0
0 0
0 0
0 0
0 0
0 0
0 0
0 0
0 0
0 0
0 0
0 0
0 0
0 0
0 0
0 0
0 0
0 0
0 0
0 0
0 0
0 0
0 0
0 0
0 0
0 0
0 0
0 0
0 0
0 0
0 0
0 0
0 0
0 0
0 0
0 0
0 0
0 0
0 0
0 0
0 0
0 0
0 0
0 0
0 0
0 0
0 0
0 0
0 0
0 0
0 0
0 0
0 0
0 0
0 0
0 0
0 0
0 0
0 0
0 0
0 0
0 0
0 0
0 0
0 0
0 0
0 0
0 0
0 0
0 0
0 0
0 0
0 0
0 0
0 0
0 0
0 0
0 0
0 0
0 0
0 0
0 0
0 0
0 0
0 0
0 0
0 0
0 0
0 0
0 0
0 0
0 0
0 0
0 0
0 0
0 0
0 0
0 0
0 0
0 0
0 0
0 0
0 0
0 0
0 0
0 0
0 0
0 0
0 0
0 0
0 0
0 0
0 0
0 0
0 0
0 0
0 0
0 0
0 0
0 0
0 0
0 0
0 0
0 0
0 0
0 0
0 0
0 0
0 0
0 0
0 0
0 0
0 0
0 0
0 0
0 0
0 0
0 0
0 0
0 0
0 0
0 0
0 0
0 0
0 0
0 0
0 0
0 0
0 0
0 0
0 0
0 0
0 0
0 0
0 0
0 0
0 0
0 0
0 0
0 0
0 0
0 0
0 0
0 0
0 0
0 0
0 0
0 0
0 0
0 0
0 0
0 0
0 0
0 0
0 0
0 0
0 0
0 0
0 0
0 0
0 0
0 0
0 0
0 0
0 0
0 0
0 0
0 0
0 0
0 0
0 0
0 0
0 0
0 0
0 0
0 0
0 0
0 0
0 0
0 0
0 0
0 0
0 0
0 0
0 0
0 0
0 0
0 0
0 0
0 0
0 0
0 0
0 0
0 0
0 0
0 0
0 0
0 0
0 0
0 0
0 0
0 0
0 0
0 0
0 0
0 0
0 0
0 0
0 0
0 0
0 0
0 0
0 0
0 0
0 0
0 0
0 0
0 0
0 0
0 0
0 0
0 0
0 0
0 0
0 0
0 0
0 0
0 0
0 0
0 0
0 0
0 0
0 0
0 0
0 0
0 0
0 0
0 0
0 0
0 0
0 0
0 0
0 0
0 0
0 0
0 0
0 0
0 0
0 0
0 0
0 0
0 0
0 0
0 0
0 0
0 0
0 0
0 0
0 0
0 0
0 0
0 0
0 0
0 0
0 0
0 0
0 0
0 0
0 0
0 0
0 0
0 0
0 0
0 0
0 0
0 0
0 0
0 0
0 0
0 0
0 0
0 0
0 0
0 0
0 0
0 0
0 0
0 0
0 0
0 0
0 0
0 0
0 0
0 0
0 0
0 0
0 0
0 0
0 0
0 0
0 0
0 0
0 0
0 0
0 0
0 0
0 0
0 0
0 0
0 0
0 0
0 0
0 0
0 0
0 0
0 0
0 0
0 0
0 0
0 0
0 0
0 0
0 0
0 0
0 0
0 0
0 0
0 0
0 0
0 0
0 0
0 0
0 0
0 0
0 0
0 0
0 0
0 0
0 0
0 0
0 0
0 0
0 0
0 0
0 0
0 0
0 0
0 0
0 0
0 0
0 0
0 0
0 0
0 0
0 0
0 0
0 0
0 0
0 0
0 0
0 0
0 0
0 0
0 0
0 0
0 0
0 0
0 0
0 0
0 0
0 0
0 0
0 0
0 0
0 0
0 0
0 0
0 0
0 0
0 0
0 0
0 0
0 0
0 0
0 0
0 0
0 0
0 0
0 0
0 0
0 0
0 0
0 0
0 0
0 0
0 0
0 0
0 0
0 0
0 0
0 0
0 0
0 0
0 0
0 0
0 0
0 0
0 0
0 0
0 0
0 0
0 0
0 0
0 0
0 0
0 0
0 0
0 0
0 0
0 0
0 0
0 0
0 0
0 0
0 0
0 0
0 0
0 0
0 0
0 0
0 0
0 0
0 0
0 0
0 0
0 0
0 0
0 0
0 0
0 0
0 0
0 0
0 0
0 0
0 0
0 0
0 0
0 0
0 0
0 0
0 0
0 0
0 0
0 0
0 0
0 0
0 0
0 0
0 0
0 0
0 0
0 0
0 0
0 0
0 0
0 0
0 0
0 0
0 0
0 0
0 0
0 0
0 0
0 0
0 0
0 0
0 0
0 0
0 0
0 0
0 0
0 0
0 0
0 0
0 0
0 0
0 0
0 0
0 0
0 0
0 0
0 0
0 0
0 0
0 0
0 0
0 0
0 0
0 0
0 0
0 0
0 0
0 0
0 0
0 0
0 0
0 0
0 0
0 0
0 0
0 0
0 0
0 0
0 0
0 0
0 0
0 0
0 0
0 0
0 0
0 0
0 0
0 0
0 0
0 0
0 0
0 0
0 0
0 0
0 0
0 0
0 0
0 0
0 0
0 0
0 0
0 0
0 0
0 0
0 0
0 0
0 0
0 0
0 0
0 0
0 0
0 0
0 0
0 0
0 0
0 0
0 0
0 0
0 0
0 0
0 0
0 0
0 0
0 0
0 0
0 0
0 0
0 0
0 0
0 0
0 0
0 0
0 0
0 0
0 0
0 0
0 0
0 0
0 0
0 0
0 0
0 0
0 0
0 0
0 0
0 0
0 0
0 0
0 0
0 0
0 0
0 0
0 0
0 0
0 0
0 0
0 0
0 0
0 0
0 0
0 0
0 0
0 0
0 0
0 0
0 0
0 0
0 0
0 0
0 0
0 0
0 0
0 0
0 0
0 0
0 0
0 0
0 0
0 0
0 0
0 0
0 0
0 0
0 0
0 0
0 0
0 0
0 0
0 0
0 0
0 0
0 0
0 0
0 0
0 0
0 0
0 0
0 0
0 0
0 0
0 0
0 0
0 0
0 0
0 0
0 0
0 0
0 0
0 0
0 0
0 0
0 0
0 0
0 0
0 0
0 0
0 0
0 0
0 0
0 0
0 0
0 0
0 0
0 0
0 0
0 0
0 0
0 0
0 0
0 0
0 0
0 0
0 0
0 0
0 0
0 0
0 0
0 0
0 0
0 0
0 0
0 0
0 0
0 0
0 0
0 0
0 0
0 0
0 0
0 0
0 0
0 0
0 0
0 0
0 0
0 0
0 0
0 0
0 0
0 0
0 0
0 0
0 0
0 0
0 0
0 0
0 0
0 0
0 0
0 0
0 0
0 0
0 0
0 0
0 0
0 0
0 0
0 0
0 0
0 0
0 0
0 0
0 0
0 0
0 0
0 0
0 0
0 0
0 0
0 0
0 0
0 0
0 0
0 0
0 0
0 0
0 0
0 0
0 0
0 0
0 0
0 0
0 0
0 0
0 0
0 0
0 0
0 0
0 0
0 0
0 0
0 0
0 0
0 0
0 0
0 0
0 0
0 0
0 0
0 0
0 0
0 0
0 0
0 0
0 0
0 0
0 0
0 0
0 0
0 0
0 0
0 0
0 0
0 0
0 0
0 0
0 0
0 0
0 0
0 0
0 0
0 0
0 0
0 0
0 0
0 0
0 0
0 0
0 0
0 0
0 0
0 0
0 0
0 0
0 0
0 0
0 0
0 0
0 0
0 0
0 0
0 0
0 0
0 0
0 0
0 0
0 0
0 0
0 0
0 0
0 0
0 0
0 0
0 0
0 0
0 0
0 0
0 0
0 0
0 0
0 0
0 0
0 0
0 0
0 0
0 0
0 0
0 0
0 0
0 0
0 0
0 0
0 0
0 0
0 0
0 0
0 0
0 0
0 0
0 0
0 0
0 0
0 0
0 0
0 0
0 0
0 0
0 0
0 0
0 0
0 0
0 0
0 0
0 0
0 0
0 0
0 0
0 0
0 0
0 0
0 0
0 0
0 0
0 0
0 0
0 0
0 0
0 0
0 0
0 0
0 0
0 0
0 0
0 0
0 0
0 0
0 0
0 0
0 0
0 0
0 0
0 0
0 0
0 0
0 0
0 0
0 0
0 0
0 0
0 0
0 0
0 0
0 0
0 0
0 0
0 0
0 0
0 0
0 0
0 0
0 0
0 0
0 0
0 0
0 0
0 0
0 0
0 0
0 0
0 0
0 0
0 0
0 0
0 0
0 0
0 0
0 0
0 0
0 0
0 0
0 0
0 0
0 0
0 0
0 0
0 0
0 0
0 0
0 0
0 0
0 0
0 0
0 0
0 0
0 0
0 0
0 0
0 0
0 0
0 0
0 0
0 0
0 0
0 0
0 0
0 0
0 0
0 0
0 0
0 0
0 0
0 0
0 0
0 0
0 0
0 0
0 0
0 0
0 0
0 0
0 0
0 0
0 0
0 0
0 0
0 0
0 0
0 0
0 0
0 0
0 0
0 0
0 0
0 0
0 0
0 0
0 0
0 0
0 0
0 0
0 0
0 0
0 0
0 0
0 0
0 0
0 0
0 0
0 0
0 0
0 0
0 0
0 0
0 0
0 0
0 0
0 0
0 0
0 0
0 0
0 0
0 0
0 0
0 0
0 0
0 0
0 0
0 0
0 0
0 0
0 0
0 0
0 0
0 0
0 0
0 0
0 0
0 0
0 0
0 0
0 0
0 0
0 0
0 0
0 0
0 0
0 0
0 0
0 0
0 0
0 0
0 0
0 0
0 0
0 0
0 0
0 0
0 0
0 0
0 0
0 0
0 0
0 0
0 0
0 0
0 0
0 0
0 0
0 0
0 0
0 0
0 0
0 0
0 0
0 0
0 0
0 0
0 0
0 0
0 0
0 0
0 0
0 0
0 0
0 0
0 0
0 0
0 0
0 0
0 0
0 0
0 0
0 0
0 0
0 0
0 0
0 0
0 0
0 0
0 0
0 0
0 0
0 0
0 0
0 0
0 0
0 0
0 0
0 0
0 0
0 0
0 0
0 0
0 0
0 0
0 0
0 0
0 0
0 0
0 0
0 0
0 0
0 0
0 0
0 0
0 0
0 0
0 0
0 0
0 0
0 0
0 0
0 0
0 0
0 0
0 0
0 0
0 0
0 0
0 0
0 0
0 0
0 0
0 0
0 0
0 0
0 0
0 0
0 0
0 0
0 0
0 0
0 0
0 0
0 0
0 0
0 0
0 0
0 0
0 0
0 0
0 0
0 0
0 0
0 0
0 0
0 0
0 0
0 0
0 0
0 0
0 0
0 0
0 0
0 0
0 0
0 0
0 0
0 0
0 0
0 0
0 0
0 0
0 0
0 0
0 0
0 0
0 0
0 0
0 0
0 0
0 0
0 0
0 0
0 0
0 0
0 0
0 0
0 0
0 0
0 0
0 0
0 0
0 0
0 0
0 0
0 0
0 0
0 0
0 0
0 0
0 0
0 0
0 0
0 0
0 0
0 0
0 0
0 0
0 0
0 0
0 0
0 0
0 0
0 0
0 0
0 0
0 0
0 0
0 0
0 0
0 0
0 0
0 0
0 0
0 0
0 0
0 0
0 0
0 0
0 0
0 0
0 0
0 0
0 0
0 0
0 0
0 0
0 0
0 0
0 0
0 0
0 0
0 0
0 0
0 0
0 0
0 0
0 0
0 0
0 0
0 0
0 0
0 0
0 0
0 0
0 0
0 0
0 0
0 0
0 0
0 0
0 0
0 0
0 0
0 0
0 0
0 0
0 0
0 0
0 0
0 0
0 0
0 0
0 0
0 0
0 0
0 0
0 0
0 0
0 0
0 0
0 0
0 0
0 0
0 0
0 0
0 0
0 0
0 0
0 0
0 0
0 0
0 0
0 0
0 0
0 0
0 0
0 0
0 0
0 0
0 0
0 0
0 0
0 0
0 0
0 0
0 0
0 0
0 0
0 0
0 0
0 0
0 0
0 0
0 0
0 0
0 0
0 0
0 0
0 0
0 0
0 0
0 0
0 0
0 0
0 0
0 0
0 0
0 0
0 0
0 0
0 0
0 0
0 0
0 0
0 0
0 0
0 0
0 0
0 0
0 0
0 0
0 0
0 0
0 0
0 0
0 0
0 0
0 0
0 0
0 0
0 0
0 0
0 0
0 0
0 0
0 0
0 0
0 0
0 0
0 0
0 0
0 0
0 0
0 0
0 0
0 0
0 0
0 0
0 0
0 0
0 0
0 0
0 0
0 0
0 0
0 0
0 0
0 0
0 0
0 0
0 0
0 0
0 0
0 0
0 0
0 0
0 0
0 0
0 0
0 0
0 0
0 0
0 0
0 0
0 0
0 0
0 0
0 0
0 0
0 0
0 0
0 0
0 0
0 0
0 0
0 0
0 0
0 0
0 0
0 0
0 0
0 0
0 0
0 0
0 0
0 0
0 0
0 0
0 0
0 0
0 0
0 0
0 0
0 0
0 0
0 0
0 0
0 0
0 0
0 0
0 0
0 0
0 0
0 0
0 0
0 0
0 0
0 0
0 0
0 0
0 0
0 0
0 0
0 0
0 0
0 0
0 0
0 0
0 0
0 0
0 0
0 0
0 0
0 0
0 0
0 0
0 0
0 0
0 0
0 0
0 0
0 0
0 0
0 0
0 0
0 0
0 0
0 0
0 0
0 0
0 0
0 0
0 0
0 0
0 0
0 0
0 0
0 0
0 0
0 0
0 0
0 0
0 0
0 0
0 0
0 0
0 0
0 0
0 0
0 0
0 0
0 0
0 0
0 0
0 0
0 0
0 0
0 0
0 0
0 0
0 0
0 0
0 0
0 0
0 0
0 0
0 0
0 0
0 0
0 0
0 0
0 0
0 0
0 0
0 0
0 0
0 0
0 0
0 0
0 0
0 0
0 0
0 0
0 0
0 0
0 0
0 0
0 0
0 0
0 0
0 0
0 0
0 0
0 0
0 0
0 0
0 0
0 0
0 0
0 0
0 0
0 0
0 0
0 0
0 0
0 0
0 0
0 0
0 0
0 0
0 0
0 0
0 0
0 0
0 0
0 0
0 0
0 0
0 0
0 0
0 0
0 0
0 0
0 0
0 0
0 0
0 0
0 0
0 0
0 0
0 0
0 0
0 0
0 0
0 0
0 0
0 0
0 0
0 0
0 0
0 0
0 0
0 0
0 0
0 0
0 0
0 0
0 0
0 0
0 0
0 0
0 0
0 0
0 0
0 0
0 0
0 0
0 0
0 0
0 0
0 0
0 0
0 0
0 0
0 0
0 0
0 0
0 0
0 0
0 0
0 0
0 0
0 0
0 0
0 0
0 0
0 0
0 0
0 0
0 0
0 0
0 0
0 0
0 0
0 0
0 0
0 0
0 0
0 0
0 0
0 0
0 0
0 0
0 0
0 0
0 0
0 0
0 0
0 0
0 0
0 0
0 0
0 0
0 0
0 0
0 0
0 0
0 0
0 0
0 0
0 0
0 0
0 0
0 0
0 0
0 0
0 0
0 0
0 0
0 0
0 0
0 0
0 0
0 0
0 0
0 0
0 0
0 0
0 0
0 0
0 0
0 0
0 0
0 0
0 0
0 0
0 0
0 0
0 0
0 0
0 0
0 0
0 0
0 0
0 0
0 0
0 0
0 0
0 0
0 0
0 0
0 0
0 0
0 0
0 0
0 0
0 0
0 0
0 0
0 0
0 0
0 0
0 0
0 0
0 0
0 0
0 0
0 0
0 0
0 0
0 0
0 0
0 0
0 0
0 0
0 0
0 0
0 0
0 0
0 0
0 0
0 0
0 0
0 0
0 0
0 0
0 0
0 0
0 0
0 0
0 0
0 0
0 0
0 0
0 0
0 0
0 0
0 0
0 0
0 0
0 0
0 0
0 0
0 0
0 0
0 0
0 0
0 0
0 0
0 0
0 0
0 0
0 0
0 0
0 0
0 0
0 0
0 0
0 0
0 0
0 0
0 0
0 0
0 0
0 0
0 0
0 0
0 0
0 0
0 0
0 0
0 0
0 0
0 0
0 0
0 0
0 0
0 0
0 0
0 0
0 0
0 0
0 0
0 0
0 0
0 0
0 0
0 0
0 0
0 0
0 0
0 0
0 0
0 0
0 0
0 0
0 0
0 0
0 0
0 0
0 0
0 0
0 0
0 0
0 0
0 0
0 0
0 0
0 0
0 0
0 0
0 0
0 0
0 0
0 0
0 0
0 0
0 0
0 0
0 0
0 0
0 0
0 0
0 0
0 0
0 0
0 0
0 0
0 0
0 0
0 0
0 0
0 0
0 0
0 0
0 0
0 0
0 0
0 0
0 0
0 0
0 0
0 0
0 0
0 0
0 0
0 0
0 0
0 0
0 0
0 0
0 0
0 0
0 0
0 0
0 0
0 0
0 0
0 0
0 0
0 0
0 0
0 0
0 0
0 0
0 0
0 0
0 0
0 0
0 0
0 0
0 0
0 0
0 0
0 0
0 0
0 0
0 0
0 0
0 0
0 0
0 0
0 0
0 0
0 0
0 0
0 0
0 0
0 0
0 0
0 0
0 0
0 0
0 0
0 0
0 0
0 0
0 0
0 0
0 0
0 0
0 0
0 0
0 0
0 0
      </DataArray> 
      <DataArray type="Float64" NumberOfComponents="2" Name="Acceleration" format="ascii">
0 0
0 0
0 0
0 0
0 0
0 0
0 0
0 0
0 0
0 0
0 0
0 0
0 0
0 0
0 0
0 0
0 0
0 0
0 0
0 0
0 0
0 0
0 0
0 0
0 0
0 0
0 0
0 0
0 0
0 0
0 0
0 0
0 0
0 0
0 0
0 0
0 0
0 0
0 0
0 0
0 0
0 0
0 0
0 0
0 0
0 0
0 0
0 0
0 0
0 0
0 0
0 0
0 0
0 0
0 0
0 0
0 0
0 0
0 0
0 0
0 0
0 0
0 0
0 0
0 0
0 0
0 0
0 0
0 0
0 0
0 0
0 0
0 0
0 0
0 0
0 0
0 0
0 0
0 0
0 0
0 0
0 0
0 0
0 0
0 0
0 0
0 0
0 0
0 0
0 0
0 0
0 0
0 0
0 0
0 0
0 0
0 0
0 0
0 0
0 0
0 0
0 0
0 0
0 0
0 0
0 0
0 0
0 0
0 0
0 0
0 0
0 0
0 0
0 0
0 0
0 0
0 0
0 0
0 0
0 0
0 0
0 0
0 0
0 0
0 0
0 0
0 0
0 0
0 0
0 0
0 0
0 0
0 0
0 0
0 0
0 0
0 0
0 0
0 0
0 0
0 0
0 0
0 0
0 0
0 0
0 0
0 0
0 0
0 0
0 0
0 0
0 0
0 0
0 0
0 0
0 0
0 0
0 0
0 0
0 0
0 0
0 0
0 0
0 0
0 0
0 0
0 0
0 0
0 0
0 0
0 0
0 0
0 0
0 0
0 0
0 0
0 0
0 0
0 0
0 0
0 0
0 0
0 0
0 0
0 0
0 0
0 0
0 0
0 0
0 0
0 0
0 0
0 0
0 0
0 0
0 0
0 0
0 0
0 0
0 0
0 0
0 0
0 0
0 0
0 0
0 0
0 0
0 0
0 0
0 0
0 0
0 0
0 0
0 0
0 0
0 0
0 0
0 0
0 0
0 0
0 0
0 0
0 0
0 0
0 0
0 0
0 0
0 0
0 0
0 0
0 0
0 0
0 0
0 0
0 0
0 0
0 0
0 0
0 0
0 0
0 0
0 0
0 0
0 0
0 0
0 0
0 0
0 0
0 0
0 0
0 0
0 0
0 0
0 0
0 0
0 0
0 0
0 0
0 0
0 0
0 0
0 0
0 0
0 0
0 0
0 0
0 0
0 0
0 0
0 0
0 0
0 0
0 0
0 0
0 0
0 0
0 0
0 0
0 0
0 0
0 0
0 0
0 0
0 0
0 0
0 0
0 0
0 0
0 0
0 0
0 0
0 0
0 0
0 0
0 0
0 0
0 0
0 0
0 0
0 0
0 0
0 0
0 0
0 0
0 0
0 0
0 0
0 0
0 0
0 0
0 0
0 0
0 0
0 0
0 0
0 0
0 0
0 0
0 0
0 0
0 0
0 0
0 0
0 0
0 0
0 0
0 0
0 0
0 0
0 0
0 0
0 0
0 0
0 0
0 0
0 0
0 0
0 0
0 0
0 0
0 0
0 0
0 0
0 0
0 0
0 0
0 0
0 0
0 0
0 0
0 0
0 0
0 0
0 0
0 0
0 0
0 0
0 0
0 0
0 0
0 0
0 0
0 0
0 0
0 0
0 0
0 0
0 0
0 0
0 0
0 0
0 0
0 0
0 0
0 0
0 0
0 0
0 0
0 0
0 0
0 0
0 0
0 0
0 0
0 0
0 0
0 0
0 0
0 0
0 0
0 0
0 0
0 0
0 0
0 0
0 0
0 0
0 0
0 0
0 0
0 0
0 0
0 0
0 0
0 0
0 0
0 0
0 0
0 0
0 0
0 0
0 0
0 0
0 0
0 0
0 0
0 0
0 0
0 0
0 0
0 0
0 0
0 0
0 0
0 0
0 0
0 0
0 0
0 0
0 0
0 0
0 0
0 0
0 0
0 0
0 0
0 0
0 0
0 0
0 0
0 0
0 0
0 0
0 0
0 0
0 0
0 0
0 0
0 0
0 0
0 0
0 0
0 0
0 0
0 0
0 0
0 0
0 0
0 0
0 0
0 0
0 0
0 0
0 0
0 0
0 0
0 0
0 0
0 0
0 0
0 0
0 0
0 0
0 0
0 0
0 0
0 0
0 0
0 0
0 0
0 0
0 0
0 0
0 0
0 0
0 0
0 0
0 0
0 0
0 0
0 0
0 0
0 0
0 0
0 0
0 0
0 0
0 0
0 0
0 0
0 0
0 0
0 0
0 0
0 0
0 0
0 0
0 0
0 0
0 0
0 0
0 0
0 0
0 0
0 0
0 0
0 0
0 0
0 0
0 0
0 0
0 0
0 0
0 0
0 0
0 0
0 0
0 0
0 0
0 0
0 0
0 0
0 0
0 0
0 0
0 0
0 0
0 0
0 0
0 0
0 0
0 0
0 0
0 0
0 0
0 0
0 0
0 0
0 0
0 0
0 0
0 0
0 0
0 0
0 0
0 0
0 0
0 0
0 0
0 0
0 0
0 0
0 0
0 0
0 0
0 0
0 0
0 0
0 0
0 0
0 0
0 0
0 0
0 0
0 0
0 0
0 0
0 0
0 0
0 0
0 0
0 0
0 0
0 0
0 0
0 0
0 0
0 0
0 0
0 0
0 0
0 0
0 0
0 0
0 0
0 0
0 0
0 0
0 0
0 0
0 0
0 0
0 0
0 0
0 0
0 0
0 0
0 0
0 0
0 0
0 0
0 0
0 0
0 0
0 0
0 0
0 0
0 0
0 0
0 0
0 0
0 0
0 0
0 0
0 0
0 0
0 0
0 0
0 0
0 0
0 0
0 0
0 0
0 0
0 0
0 0
0 0
0 0
0 0
0 0
0 0
0 0
0 0
0 0
0 0
0 0
0 0
0 0
0 0
0 0
0 0
0 0
0 0
0 0
0 0
0 0
0 0
0 0
0 0
0 0
0 0
0 0
0 0
0 0
0 0
0 0
0 0
0 0
0 0
0 0
0 0
0 0
0 0
0 0
0 0
0 0
0 0
0 0
0 0
0 0
0 0
0 0
0 0
0 0
0 0
0 0
0 0
0 0
0 0
0 0
0 0
0 0
0 0
0 0
0 0
0 0
0 0
0 0
0 0
0 0
0 0
0 0
0 0
0 0
0 0
0 0
0 0
0 0
0 0
0 0
0 0
0 0
0 0
0 0
0 0
0 0
0 0
0 0
0 0
0 0
0 0
0 0
0 0
0 0
0 0
0 0
0 0
0 0
0 0
0 0
0 0
0 0
0 0
0 0
0 0
0 0
0 0
0 0
0 0
0 0
0 0
0 0
0 0
0 0
0 0
0 0
0 0
0 0
0 0
0 0
0 0
0 0
0 0
0 0
0 0
0 0
0 0
0 0
0 0
0 0
0 0
0 0
0 0
0 0
0 0
0 0
0 0
0 0
0 0
0 0
0 0
0 0
0 0
0 0
0 0
0 0
0 0
0 0
0 0
0 0
0 0
0 0
0 0
0 0
0 0
0 0
0 0
0 0
0 0
0 0
0 0
0 0
0 0
0 0
0 0
0 0
0 0
0 0
0 0
0 0
0 0
0 0
0 0
0 0
0 0
0 0
0 0
0 0
0 0
0 0
0 0
0 0
0 0
0 0
0 0
0 0
0 0
0 0
0 0
0 0
0 0
0 0
0 0
0 0
0 0
0 0
0 0
0 0
0 0
0 0
0 0
0 0
0 0
0 0
0 0
0 0
0 0
0 0
0 0
0 0
0 0
0 0
0 0
0 0
0 0
0 0
0 0
0 0
0 0
0 0
0 0
0 0
0 0
0 0
0 0
0 0
0 0
0 0
0 0
0 0
0 0
0 0
0 0
0 0
0 0
0 0
0 0
0 0
0 0
0 0
0 0
0 0
0 0
0 0
0 0
0 0
0 0
0 0
0 0
0 0
0 0
0 0
0 0
0 0
0 0
0 0
0 0
0 0
0 0
0 0
0 0
0 0
0 0
0 0
0 0
0 0
0 0
0 0
0 0
0 0
0 0
0 0
0 0
0 0
0 0
0 0
0 0
0 0
0 0
0 0
0 0
0 0
0 0
0 0
0 0
0 0
0 0
0 0
0 0
0 0
0 0
0 0
0 0
0 0
0 0
0 0
0 0
0 0
0 0
0 0
0 0
0 0
0 0
0 0
0 0
0 0
0 0
0 0
0 0
0 0
0 0
0 0
0 0
0 0
0 0
0 0
0 0
0 0
0 0
0 0
0 0
0 0
0 0
0 0
0 0
0 0
0 0
0 0
0 0
0 0
0 0
0 0
0 0
0 0
0 0
0 0
0 0
0 0
0 0
0 0
0 0
0 0
0 0
0 0
0 0
0 0
0 0
0 0
0 0
0 0
0 0
0 0
0 0
0 0
0 0
0 0
0 0
0 0
0 0
0 0
0 0
0 0
0 0
0 0
0 0
0 0
0 0
0 0
0 0
0 0
0 0
0 0
0 0
0 0
0 0
0 0
0 0
0 0
0 0
0 0
0 0
0 0
0 0
0 0
0 0
0 0
0 0
0 0
0 0
0 0
0 0
0 0
0 0
0 0
0 0
0 0
0 0
0 0
0 0
0 0
0 0
0 0
0 0
0 0
0 0
0 0
0 0
0 0
0 0
0 0
0 0
0 0
0 0
0 0
0 0
0 0
0 0
0 0
0 0
0 0
0 0
0 0
0 0
0 0
0 0
0 0
0 0
0 0
0 0
0 0
0 0
0 0
0 0
0 0
0 0
0 0
0 0
0 0
0 0
0 0
0 0
0 0
0 0
0 0
0 0
0 0
0 0
0 0
0 0
0 0
0 0
0 0
0 0
0 0
0 0
0 0
0 0
0 0
0 0
0 0
0 0
0 0
0 0
0 0
0 0
0 0
0 0
0 0
0 0
0 0
0 0
0 0
0 0
0 0
0 0
0 0
0 0
0 0
0 0
0 0
0 0
0 0
0 0
0 0
0 0
0 0
0 0
0 0
0 0
0 0
0 0
0 0
0 0
0 0
0 0
0 0
0 0
0 0
0 0
0 0
0 0
0 0
0 0
0 0
0 0
0 0
0 0
0 0
0 0
0 0
0 0
0 0
0 0
0 0
0 0
0 0
0 0
0 0
0 0
0 0
0 0
0 0
0 0
0 0
0 0
0 0
0 0
0 0
0 0
0 0
0 0
0 0
0 0
0 0
0 0
0 0
0 0
0 0
0 0
0 0
0 0
0 0
0 0
0 0
0 0
0 0
0 0
0 0
0 0
0 0
0 0
0 0
0 0
0 0
0 0
0 0
0 0
0 0
0 0
0 0
0 0
0 0
0 0
0 0
0 0
0 0
0 0
0 0
0 0
0 0
0 0
0 0
0 0
0 0
0 0
0 0
0 0
0 0
0 0
0 0
0 0
0 0
0 0
0 0
0 0
0 0
0 0
0 0
0 0
0 0
0 0
0 0
0 0
0 0
0 0
0 0
0 0
0 0
0 0
0 0
0 0
0 0
0 0
0 0
0 0
0 0
0 0
0 0
0 0
0 0
0 0
0 0
0 0
0 0
0 0
0 0
0 0
0 0
0 0
0 0
0 0
0 0
0 0
0 0
0 0
0 0
0 0
0 0
0 0
0 0
0 0
0 0
0 0
0 0
0 0
0 0
0 0
0 0
0 0
0 0
0 0
0 0
0 0
0 0
0 0
0 0
0 0
0 0
0 0
0 0
0 0
0 0
0 0
0 0
0 0
0 0
0 0
0 0
0 0
0 0
0 0
0 0
0 0
0 0
0 0
0 0
0 0
0 0
0 0
0 0
0 0
0 0
0 0
0 0
0 0
0 0
0 0
0 0
0 0
0 0
0 0
0 0
0 0
0 0
0 0
0 0
0 0
0 0
0 0
0 0
0 0
0 0
0 0
0 0
0 0
0 0
0 0
0 0
0 0
0 0
0 0
0 0
0 0
0 0
0 0
0 0
0 0
0 0
0 0
0 0
0 0
0 0
0 0
0 0
0 0
0 0
0 0
0 0
0 0
0 0
0 0
0 0
0 0
0 0
0 0
0 0
0 0
0 0
0 0
0 0
0 0
0 0
0 0
0 0
0 0
0 0
0 0
0 0
0 0
0 0
0 0
0 0
0 0
0 0
0 0
0 0
0 0
0 0
0 0
0 0
0 0
0 0
0 0
0 0
0 0
0 0
0 0
0 0
0 0
0 0
0 0
0 0
0 0
0 0
0 0
0 0
0 0
0 0
0 0
0 0
0 0
0 0
0 0
0 0
0 0
0 0
0 0
0 0
0 0
0 0
0 0
0 0
0 0
0 0
0 0
0 0
0 0
0 0
0 0
0 0
0 0
0 0
0 0
0 0
0 0
0 0
0 0
0 0
0 0
0 0
0 0
0 0
0 0
0 0
0 0
0 0
0 0
0 0
0 0
0 0
0 0
0 0
0 0
0 0
0 0
0 0
0 0
0 0
0 0
0 0
0 0
0 0
0 0
0 0
0 0
0 0
0 0
0 0
0 0
0 0
0 0
0 0
0 0
0 0
0 0
0 0
0 0
0 0
0 0
0 0
0 0
0 0
0 0
0 0
0 0
0 0
0 0
0 0
0 0
0 0
0 0
0 0
0 0
0 0
0 0
0 0
0 0
0 0
0 0
0 0
0 0
0 0
0 0
0 0
0 0
0 0
0 0
0 0
0 0
0 0
0 0
0 0
0 0
0 0
0 0
0 0
0 0
0 0
0 0
0 0
0 0
0 0
0 0
0 0
0 0
0 0
0 0
0 0
0 0
0 0
0 0
0 0
0 0
0 0
0 0
0 0
0 0
0 0
0 0
0 0
0 0
0 0
0 0
0 0
0 0
0 0
0 0
0 0
0 0
0 0
0 0
0 0
0 0
0 0
0 0
0 0
0 0
0 0
0 0
0 0
0 0
0 0
0 0
0 0
0 0
0 0
0 0
0 0
0 0
0 0
0 0
0 0
0 0
0 0
0 0
0 0
0 0
0 0
0 0
0 0
0 0
0 0
0 0
0 0
0 0
0 0
0 0
0 0
0 0
0 0
0 0
0 0
0 0
0 0
0 0
0 0
0 0
0 0
0 0
0 0
0 0
0 0
0 0
0 0
0 0
0 0
0 0
0 0
0 0
0 0
0 0
0 0
0 0
0 0
0 0
0 0
0 0
0 0
0 0
0 0
0 0
0 0
0 0
0 0
0 0
0 0
0 0
0 0
0 0
0 0
0 0
0 0
0 0
0 0
0 0
0 0
0 0
0 0
0 0
0 0
0 0
0 0
0 0
0 0
0 0
0 0
0 0
0 0
0 0
0 0
0 0
0 0
0 0
0 0
0 0
0 0
0 0
0 0
0 0
0 0
0 0
0 0
0 0
0 0
0 0
0 0
0 0
0 0
0 0
0 0
0 0
0 0
0 0
0 0
0 0
0 0
0 0
0 0
0 0
0 0
0 0
0 0
0 0
0 0
0 0
0 0
0 0
0 0
0 0
0 0
0 0
0 0
0 0
0 0
0 0
0 0
0 0
0 0
0 0
0 0
0 0
0 0
0 0
0 0
0 0
0 0
0 0
0 0
0 0
0 0
0 0
0 0
0 0
0 0
0 0
0 0
0 0
0 0
0 0
0 0
0 0
0 0
0 0
0 0
0 0
0 0
0 0
0 0
0 0
0 0
0 0
0 0
0 0
0 0
0 0
0 0
0 0
0 0
0 0
0 0
0 0
0 0
0 0
0 0
0 0
0 0
0 0
0 0
0 0
0 0
0 0
0 0
0 0
0 0
0 0
0 0
0 0
0 0
0 0
0 0
0 0
0 0
0 0
0 0
0 0
0 0
0 0
0 0
0 0
0 0
0 0
0 0
0 0
0 0
0 0
0 0
0 0
0 0
0 0
0 0
0 0
0 0
0 0
0 0
0 0
0 0
0 0
0 0
0 0
0 0
0 0
0 0
0 0
0 0
0 0
0 0
0 0
0 0
0 0
0 0
0 0
0 0
0 0
0 0
0 0
0 0
0 0
0 0
0 0
0 0
0 0
0 0
0 0
0 0
0 0
0 0
0 0
0 0
0 0
0 0
0 0
0 0
0 0
0 0
0 0
0 0
0 0
0 0
0 0
0 0
0 0
0 0
0 0
0 0
0 0
0 0
0 0
0 0
0 0
0 0
0 0
0 0
0 0
0 0
0 0
0 0
0 0
0 0
0 0
0 0
0 0
0 0
0 0
0 0
0 0
0 0
0 0
0 0
0 0
0 0
0 0
0 0
0 0
0 0
0 0
0 0
0 0
0 0
0 0
0 0
0 0
0 0
0 0
0 0
0 0
0 0
0 0
0 0
0 0
0 0
0 0
0 0
0 0
0 0
0 0
0 0
0 0
0 0
0 0
0 0
0 0
0 0
0 0
0 0
0 0
0 0
0 0
0 0
0 0
0 0
0 0
0 0
0 0
0 0
0 0
0 0
0 0
0 0
0 0
0 0
0 0
0 0
0 0
0 0
0 0
0 0
0 0
0 0
0 0
0 0
0 0
0 0
0 0
0 0
0 0
0 0
0 0
0 0
0 0
0 0
0 0
0 0
0 0
0 0
0 0
0 0
0 0
0 0
0 0
0 0
0 0
0 0
0 0
0 0
0 0
0 0
0 0
0 0
0 0
0 0
0 0
0 0
0 0
0 0
0 0
0 0
0 0
0 0
0 0
0 0
0 0
0 0
0 0
0 0
0 0
0 0
0 0
0 0
0 0
0 0
0 0
0 0
0 0
0 0
0 0
0 0
0 0
0 0
0 0
0 0
0 0
0 0
0 0
0 0
0 0
0 0
0 0
0 0
0 0
0 0
0 0
0 0
0 0
0 0
0 0
0 0
0 0
0 0
0 0
0 0
0 0
0 0
0 0
0 0
0 0
0 0
0 0
0 0
0 0
0 0
0 0
0 0
0 0
0 0
0 0
0 0
0 0
0 0
0 0
0 0
0 0
0 0
0 0
0 0
0 0
0 0
0 0
0 0
0 0
0 0
0 0
0 0
0 0
0 0
0 0
0 0
0 0
0 0
0 0
0 0
0 0
0 0
0 0
0 0
0 0
0 0
0 0
0 0
0 0
0 0
0 0
0 0
0 0
0 0
0 0
0 0
0 0
0 0
0 0
0 0
0 0
0 0
0 0
0 0
0 0
0 0
0 0
0 0
0 0
0 0
0 0
0 0
0 0
0 0
0 0
0 0
0 0
0 0
0 0
0 0
0 0
0 0
0 0
0 0
0 0
0 0
0 0
0 0
0 0
0 0
0 0
0 0
0 0
0 0
0 0
0 0
0 0
0 0
0 0
0 0
0 0
0 0
0 0
0 0
0 0
0 0
0 0
0 0
0 0
0 0
0 0
0 0
0 0
0 0
0 0
0 0
0 0
0 0
0 0
0 0
0 0
0 0
0 0
0 0
0 0
0 0
0 0
0 0
0 0
0 0
0 0
0 0
0 0
0 0
0 0
0 0
0 0
0 0
0 0
0 0
0 0
0 0
0 0
0 0
0 0
0 0
0 0
0 0
0 0
0 0
0 0
0 0
0 0
0 0
0 0
0 0
0 0
0 0
0 0
0 0
0 0
0 0
0 0
0 0
0 0
0 0
0 0
0 0
0 0
0 0
0 0
0 0
0 0
0 0
0 0
0 0
0 0
0 0
0 0
0 0
0 0
0 0
0 0
0 0
0 0
0 0
0 0
0 0
0 0
0 0
0 0
0 0
0 0
0 0
0 0
0 0
0 0
0 0
0 0
0 0
0 0
0 0
0 0
0 0
0 0
0 0
0 0
0 0
0 0
0 0
0 0
0 0
0 0
0 0
0 0
0 0
0 0
0 0
0 0
0 0
0 0
0 0
0 0
0 0
0 0
0 0
0 0
0 0
0 0
0 0
0 0
0 0
0 0
0 0
0 0
0 0
0 0
0 0
0 0
0 0
0 0
0 0
0 0
0 0
0 0
0 0
0 0
0 0
0 0
0 0
0 0
0 0
0 0
0 0
0 0
0 0
0 0
0 0
0 0
0 0
0 0
0 0
0 0
0 0
0 0
0 0
0 0
0 0
0 0
0 0
0 0
0 0
0 0
0 0
0 0
0 0
0 0
0 0
0 0
0 0
0 0
0 0
0 0
0 0
0 0
0 0
0 0
0 0
0 0
0 0
0 0
0 0
0 0
0 0
0 0
0 0
0 0
0 0
0 0
0 0
0 0
0 0
0 0
0 0
0 0
0 0
0 0
0 0
0 0
0 0
0 0
0 0
0 0
0 0
0 0
0 0
0 0
0 0
0 0
0 0
0 0
0 0
0 0
0 0
0 0
0 0
0 0
0 0
0 0
0 0
0 0
0 0
0 0
0 0
0 0
0 0
0 0
0 0
0 0
0 0
0 0
0 0
0 0
0 0
0 0
0 0
0 0
0 0
0 0
0 0
0 0
0 0
0 0
0 0
0 0
0 0
0 0
0 0
0 0
0 0
0 0
0 0
0 0
0 0
0 0
0 0
0 0
0 0
0 0
0 0
0 0
0 0
0 0
0 0
0 0
0 0
0 0
0 0
0 0
0 0
0 0
0 0
0 0
0 0
0 0
0 0
0 0
0 0
0 0
0 0
0 0
0 0
0 0
0 0
0 0
0 0
0 0
0 0
0 0
0 0
0 0
0 0
0 0
0 0
0 0
0 0
0 0
0 0
0 0
0 0
0 0
0 0
0 0
0 0
0 0
0 0
0 0
0 0
0 0
0 0
0 0
0 0
0 0
0 0
0 0
0 0
0 0
0 0
0 0
0 0
0 0
0 0
0 0
0 0
0 0
0 0
0 0
0 0
0 0
0 0
0 0
0 0
0 0
0 0
0 0
0 0
0 0
0 0
0 0
0 0
0 0
0 0
0 0
0 0
0 0
0 0
0 0
0 0
0 0
0 0
0 0
0 0
0 0
0 0
0 0
0 0
0 0
0 0
0 0
0 0
0 0
0 0
0 0
0 0
0 0
0 0
0 0
0 0
0 0
0 0
0 0
0 0
0 0
0 0
0 0
0 0
0 0
0 0
0 0
0 0
0 0
0 0
0 0
0 0
0 0
0 0
0 0
0 0
0 0
0 0
0 0
0 0
0 0
0 0
0 0
0 0
0 0
0 0
0 0
0 0
0 0
0 0
0 0
0 0
0 0
0 0
0 0
0 0
0 0
0 0
0 0
0 0
0 0
0 0
0 0
0 0
0 0
0 0
0 0
0 0
0 0
0 0
0 0
0 0
0 0
0 0
0 0
0 0
0 0
0 0
0 0
0 0
0 0
0 0
0 0
0 0
0 0
0 0
0 0
0 0
0 0
0 0
0 0
0 0
0 0
0 0
0 0
0 0
0 0
0 0
0 0
0 0
0 0
0 0
0 0
0 0
0 0
0 0
0 0
0 0
0 0
0 0
0 0
0 0
0 0
0 0
0 0
0 0
0 0
0 0
0 0
0 0
0 0
0 0
0 0
0 0
0 0
0 0
0 0
0 0
0 0
0 0
0 0
0 0
0 0
0 0
0 0
0 0
0 0
0 0
0 0
0 0
0 0
0 0
0 0
0 0
0 0
0 0
0 0
0 0
0 0
0 0
0 0
0 0
0 0
0 0
0 0
0 0
0 0
0 0
0 0
0 0
0 0
0 0
0 0
0 0
0 0
0 0
0 0
0 0
0 0
0 0
0 0
0 0
0 0
0 0
0 0
0 0
0 0
0 0
0 0
0 0
0 0
0 0
0 0
0 0
0 0
0 0
0 0
0 0
0 0
0 0
0 0
0 0
0 0
0 0
0 0
0 0
0 0
0 0
0 0
0 0
0 0
0 0
0 0
0 0
0 0
0 0
0 0
0 0
0 0
0 0
0 0
0 0
0 0
0 0
0 0
0 0
0 0
0 0
0 0
0 0
0 0
0 0
0 0
0 0
0 0
0 0
0 0
0 0
0 0
0 0
0 0
0 0
0 0
0 0
0 0
0 0
0 0
0 0
0 0
0 0
0 0
0 0
0 0
0 0
0 0
0 0
0 0
0 0
0 0
0 0
0 0
0 0
0 0
0 0
0 0
0 0
0 0
0 0
0 0
0 0
0 0
0 0
0 0
0 0
0 0
0 0
0 0
0 0
0 0
0 0
0 0
0 0
0 0
0 0
0 0
0 0
0 0
0 0
0 0
0 0
0 0
0 0
0 0
0 0
0 0
0 0
0 0
0 0
0 0
0 0
0 0
0 0
0 0
0 0
0 0
0 0
0 0
0 0
0 0
0 0
0 0
0 0
0 0
0 0
0 0
0 0
0 0
0 0
0 0
0 0
0 0
0 0
0 0
0 0
0 0
0 0
0 0
0 0
0 0
0 0
0 0
0 0
0 0
0 0
0 0
0 0
0 0
0 0
0 0
0 0
0 0
0 0
0 0
0 0
0 0
0 0
0 0
0 0
0 0
0 0
0 0
0 0
0 0
0 0
0 0
0 0
0 0
0 0
0 0
0 0
0 0
0 0
0 0
0 0
0 0
0 0
0 0
0 0
0 0
0 0
0 0
0 0
0 0
0 0
0 0
0 0
0 0
0 0
0 0
0 0
0 0
0 0
0 0
0 0
0 0
0 0
0 0
0 0
0 0
0 0
0 0
0 0
0 0
0 0
0 0
0 0
0 0
0 0
0 0
0 0
0 0
0 0
0 0
0 0
0 0
0 0
0 0
0 0
0 0
0 0
0 0
0 0
0 0
0 0
0 0
0 0
0 0
0 0
0 0
0 0
0 0
0 0
0 0
0 0
0 0
0 0
0 0
0 0
0 0
0 0
0 0
0 0
0 0
0 0
0 0
0 0
0 0
0 0
0 0
0 0
0 0
0 0
0 0
0 0
0 0
0 0
0 0
0 0
0 0
0 0
0 0
0 0
0 0
0 0
0 0
0 0
0 0
0 0
0 0
0 0
0 0
0 0
0 0
0 0
0 0
0 0
0 0
0 0
0 0
0 0
0 0
0 0
0 0
0 0
0 0
0 0
0 0
0 0
0 0
0 0
0 0
0 0
0 0
0 0
0 0
0 0
0 0
0 0
0 0
0 0
0 0
0 0
0 0
0 0
0 0
0 0
0 0
0 0
0 0
0 0
0 0
0 0
0 0
0 0
0 0
0 0
0 0
0 0
0 0
0 0
0 0
0 0
0 0
0 0
0 0
0 0
0 0
0 0
0 0
0 0
0 0
0 0
0 0
0 0
0 0
0 0
0 0
0 0
0 0
0 0
0 0
0 0
0 0
0 0
0 0
0 0
0 0
0 0
0 0
0 0
0 0
0 0
0 0
0 0
0 0
0 0
0 0
0 0
0 0
0 0
0 0
0 0
0 0
0 0
0 0
0 0
0 0
0 0
0 0
0 0
0 0
0 0
0 0
0 0
0 0
0 0
0 0
0 0
0 0
0 0
0 0
0 0
0 0
0 0
0 0
0 0
0 0
0 0
0 0
0 0
0 0
0 0
0 0
0 0
0 0
0 0
0 0
0 0
0 0
0 0
0 0
0 0
0 0
0 0
0 0
0 0
0 0
0 0
0 0
0 0
0 0
0 0
0 0
0 0
0 0
0 0
0 0
0 0
0 0
0 0
0 0
0 0
0 0
0 0
0 0
0 0
0 0
0 0
0 0
0 0
0 0
0 0
0 0
0 0
0 0
0 0
0 0
0 0
0 0
0 0
0 0
0 0
0 0
0 0
0 0
0 0
0 0
0 0
0 0
0 0
0 0
0 0
0 0
0 0
0 0
0 0
0 0
0 0
0 0
0 0
0 0
0 0
0 0
0 0
0 0
0 0
0 0
0 0
0 0
0 0
0 0
0 0
0 0
0 0
0 0
0 0
0 0
0 0
0 0
0 0
0 0
0 0
0 0
0 0
0 0
0 0
0 0
0 0
0 0
0 0
0 0
0 0
0 0
0 0
0 0
0 0
0 0
0 0
0 0
0 0
0 0
0 0
0 0
0 0
0 0
0 0
0 0
0 0
0 0
0 0
0 0
0 0
0 0
0 0
0 0
0 0
0 0
0 0
0 0
0 0
0 0
0 0
0 0
0 0
0 0
0 0
0 0
0 0
0 0
0 0
0 0
0 0
0 0
0 0
0 0
0 0
0 0
0 0
0 0
0 0
0 0
0 0
0 0
0 0
0 0
0 0
0 0
0 0
0 0
0 0
0 0
0 0
0 0
0 0
0 0
0 0
0 0
0 0
0 0
0 0
0 0
0 0
0 0
0 0
0 0
0 0
0 0
0 0
0 0
0 0
0 0
0 0
0 0
0 0
0 0
0 0
0 0
0 0
0 0
0 0
0 0
0 0
0 0
0 0
0 0
0 0
0 0
0 0
0 0
0 0
0 0
0 0
0 0
0 0
0 0
0 0
0 0
0 0
0 0
0 0
0 0
0 0
0 0
0 0
0 0
0 0
0 0
0 0
0 0
0 0
0 0
0 0
0 0
0 0
0 0
0 0
0 0
0 0
0 0
0 0
0 0
0 0
0 0
0 0
0 0
0 0
0 0
0 0
0 0
0 0
0 0
0 0
0 0
0 0
0 0
0 0
0 0
0 0
0 0
0 0
0 0
0 0
0 0
0 0
0 0
0 0
0 0
0 0
0 0
0 0
0 0
0 0
0 0
0 0
0 0
0 0
0 0
0 0
0 0
0 0
0 0
0 0
0 0
0 0
0 0
0 0
0 0
0 0
0 0
0 0
0 0
0 0
0 0
0 0
0 0
0 0
0 0
0 0
0 0
0 0
0 0
0 0
0 0
0 0
0 0
0 0
0 0
0 0
0 0
0 0
0 0
0 0
0 0
0 0
0 0
0 0
0 0
0 0
0 0
0 0
0 0
0 0
0 0
0 0
0 0
0 0
0 0
0 0
0 0
0 0
0 0
0 0
0 0
0 0
0 0
0 0
0 0
0 0
0 0
0 0
0 0
0 0
0 0
0 0
0 0
0 0
0 0
0 0
0 0
0 0
0 0
0 0
0 0
0 0
0 0
0 0
0 0
0 0
0 0
0 0
0 0
0 0
0 0
0 0
0 0
0 0
0 0
0 0
0 0
0 0
0 0
0 0
0 0
0 0
0 0
0 0
0 0
0 0
0 0
0 0
0 0
0 0
0 0
0 0
0 0
0 0
0 0
0 0
0 0
0 0
0 0
0 0
0 0
0 0
0 0
0 0
0 0
0 0
0 0
0 0
0 0
0 0
0 0
0 0
0 0
0 0
0 0
0 0
0 0
0 0
0 0
0 0
0 0
0 0
0 0
0 0
0 0
0 0
0 0
0 0
0 0
0 0
0 0
0 0
0 0
0 0
0 0
0 0
0 0
0 0
0 0
0 0
0 0
0 0
0 0
0 0
0 0
0 0
0 0
0 0
0 0
0 0
0 0
0 0
0 0
0 0
0 0
0 0
0 0
0 0
0 0
0 0
0 0
0 0
0 0
0 0
0 0
0 0
0 0
0 0
0 0
0 0
0 0
0 0
0 0
0 0
0 0
0 0
0 0
0 0
0 0
0 0
0 0
0 0
0 0
      </DataArray> 
      <DataArray type="Float64" NumberOfComponents="2" Name="CauchyNormalStress" format="ascii">
22.5582 14.2468
20.6058 11.6596
21.5632 2.28239
10.9548 -0.571614
7.37481 0.0932292
4.54113 -0.0267396
2.9727 -0.237614
1.93388 -0.240454
0.718639 -0.106443
-0.15277 -0.00849315
-0.833537 -0.11257
-1.24581 -0.156842
-1.83496 -0.0823885
-2.21596 -0.00349169
-2.46771 -0.0908828
-2.52649 -0.112769
-2.71348 -0.0418774
-2.72353 0.00985738
-2.60995 -0.0841508
-2.29767 -0.113144
-2.1136 -0.04095
-1.75061 0.00732755
-1.22912 -0.10544
-0.442487 -0.152678
0.179903 -0.0513435
1.05973 0.0367133
2.24509 -0.113544
4.2281 -0.512697
6.10941 -0.730386
9.08478 -0.351222
19.4353 0.999497
-1.98482 2.98986
-2.61536 3.44987
-2.34734 5.9555
7.00648 18.9175
-1.68428 -0.0629779
-0.482424 0.516108
-0.106616 0.145196
-0.260038 -0.167823
-0.249122 -0.303282
-0.0621136 -0.838455
-0.0399965 -1.02133
-0.0273303 -1.21065
-0.0919951 -1.28819
-0.140846 -1.47409
-0.16011 -1.23694
-0.168198 -1.39863
-0.21723 -1.3686
-0.298628 -1.40416
-0.379587 -1.27714
-0.447809 -1.27368
-0.510724 -1.05107
-0.625357 -1.12665
-0.0146312 -1.41705
-1.32675 -0.0986122
-1.5902 -0.124369
-1.19409 -0.294891
-1.29963 -0.379485
-0.906436 -0.659844
-183.828 -458.418
-1.02554 -4.25977
-0.310277 -1.46559
-2.17352 -5.30631
-17.5746 -89.4968
-6.14004 -79.0815
0.0796967 -44.8394
-3.5177 -47.3019
-4.07214 -46.4478
-7.43312 -54.0211
40.4675 2.4638
-29.7833 -89.8062
-39.6596 -107.532
-55.0224 -161.365
-17.7623 -88.8449
42.432 1.08097
59.2143 23.5198
-44.473 -16.7341
-166.976 -439.919
-6.56195 -79.4
0.0657145 -45.3332
-3.6383 -47.5686
-4.07366 -46.5839
-7.40153 -53.9872
0.0390442 -1.84407
-1.00515 -4.19627
-0.481287 -1.45889
-2.8969 -4.70002
-1.82705 0.248918
-0.496575 -3.32819
-0.0822809 -1.82708
-0.465118 -2.32957
-0.504801 -1.3308
-0.615489 -1.18014
-1.45783 3.08957
-1.31518 -0.027755
-1.54057 -0.205822
-1.12569 -0.236651
-1.2748 -0.445291
-0.981145 -0.430821
-0.97467 -0.641222
-0.781808 -0.72608
-0.752404 -0.86965
-0.644023 -1.04443
-0.530843 -1.04909
-0.463975 -1.28084
-0.317488 -1.18872
-0.244739 -1.42581
-0.138503 -1.3795
-0.174068 -1.42601
-0.150008 -1.22085
-0.095849 -1.28026
-1.95292 4.53619
-0.701548 7.76834
7.64905 17.7315
-46.451 -27.4326
-28.4319 -72.0957
-45.0452 -29.7323
-24.8395 -97.5506
-31.7164 -78.861
-5.47419 -58.1682
-45.9083 -21.5954
12.2002 -64.3074
3.95147 -9.18206
2.58908 -9.75824
-8.21103 -99.9627
-8.66937 -102.841
5.9171 -23.8381
2.40615 -10.9903
1.22431 -48.6517
1.39979 -42.4853
-0.549849 -48.9159
2.62318 -37.0943
1.66643 -43.1781
-4.24909 -41.0575
-0.381661 -41.2851
-1.07867 -44.7127
-5.79793 -44.1278
3.72166 -34.2146
4.72241 -32.6753
4.07139 -44.6046
-23.5244 -14.3999
-24.5028 -14.4119
-26.0757 -15.8604
2.34811 -51.8091
3.22459 -39.4025
-13.4854 -45.5668
-12.8701 -42.8005
-0.634943 -57.722
-3.70519 -55.6345
-10.4528 -48.9048
-11.7717 -52.4856
-0.856093 -53.5136
-17.9734 -11.7649
-21.4531 -12.5403
-19.9016 -12.6403
2.13828 -32.9403
2.84702 -34.7423
-20.1813 -20.3437
-13.2657 -30.9186
-2.76362 -35.6315
1.19838 -30.9875
0.893612 -33.1738
-2.91585 -38.5372
-14.1592 -33.167
-21.497 -21.171
4.28541 -28.5882
5.81207 -39.7957
-33.6356 -24.5199
-32.669 -19.5142
-27.3861 -15.6777
-28.7626 -21.4307
7.2726 -41.1701
7.81917 -49.5776
6.34344 -47.9365
5.11277 -39.4882
5.05997 -30.81
4.47209 -27.3148
-35.2727 -28.1358
-20.2191 -41.3741
-19.5125 -38.5296
-35.0206 -39.554
5.75957 -61.3074
0.556804 -77.6756
-12.7937 -57.8739
-2.42242 -61.2768
6.91701 -56.4231
-16.1588 -11.4396
-18.4979 -11.7171
-18.4777 -11.2669
-18.9743 -11.6294
-15.4679 -9.80432
-14.9514 -9.63344
-14.3111 -9.20208
-16.396 -10.88
2.8043 -27.9928
3.7822 -25.3754
3.98145 -24.7633
2.87506 -28.8024
-15.251 -11.4748
-16.0159 -13.0733
-16.3719 -19.7883
-12.5886 -23.7199
-5.9461 -28.0409
-1.83604 -30.3854
-2.69596 -31.9665
-6.95623 -29.7534
-13.6587 -25.4054
-16.9054 -20.5051
-16.9644 -12.5389
-15.8015 -11.0592
4.09972 -24.0114
6.38642 -31.4205
-44.6687 -35.4383
-36.9309 -20.4336
-40.1601 -24.8895
9.29684 -41.4265
9.30661 -46.6
5.90861 -31.0227
3.95018 -21.7612
-35.6966 -44.8001
-35.8813 -57.9721
9.8971 -66.4965
-16.9535 -68.9985
-36.5705 -71.6019
-13.6545 -59.9709
3.38325 -68.5662
-11.2021 -7.94917
-12.8479 -8.93919
-13.0757 -8.87069
-11.4079 -7.88901
-10.6058 -7.67782
-10.6048 -7.47501
3.27799 -23.0998
2.7694 -22.7316
-11.1021 -9.69134
-8.26864 -16.3453
-0.577901 -23.4293
-1.8724 -24.447
-9.05305 -16.7316
-11.0676 -8.95783
2.75385 -14.9329
3.39557 -17.358
4.01189 -20.8039
4.72864 -21.3026
6.556 -23.4385
8.51869 -30.681
-38.5591 -56.4476
-47.2374 -21.8482
-42.9231 -38.7576
10.28 -38.8674
10.4928 -41.2022
8.65367 -33.9603
6.68834 -27.61
5.20008 -23.5079
3.49665 -18.0864
2.5299 -13.2572
-42.6646 -61.7807
-43.0572 -81.7145
11.66 -49.253
10.6303 -89.5086
-41.0507 -95.0611
12.0736 -66.656
11.329 -46.2934
-23.5188 -77.6341
6.77087 -81.583
-5.64987 -5.54906
-6.18619 -5.19614
-7.89133 -6.50421
-6.69161 -6.44272
-9.24574 -6.64761
-8.53971 -6.71582
-8.79788 -6.13486
-8.79118 -6.27729
-7.05036 -5.45787
-7.53658 -5.43875
-6.55017 -5.9441
-7.56986 -5.87093
-5.23178 -4.91612
-5.94595 -5.46045
3.05562 -20.5558
3.25654 -19.9525
3.33017 -17.3754
2.40954 -12.8583
3.36398 -16.7817
3.11944 -20.5858
1.64524 -22.0291
-7.40484 -6.69874
-5.76193 -9.00759
-2.24594 -14.2722
0.842391 -17.4995
-1.30854 -19.1441
-3.45103 -14.8349
-6.71176 -8.7398
-6.78799 -5.75723
1.05278 -6.66099
2.19917 -11.8722
2.94201 -13.4179
4.3368 -16.3227
5.96222 -19.6847
1.31791 -127.771
-36.3241 -19.1629
-21.7142 -2.50433
-37.2722 -14.7093
-4.68959 -116.826
8.91966 -30.5695
8.58804 -29.2293
6.02424 -21.398
3.68361 -17.0734
1.26105 -7.84001
2.59881 -164.741
-13.1916 -126.453
1.83209 -159.244
-5.74518 -135.394
9.09308 -51.5972
-23.4656 -132.291
-78.0827 -154.519
8.8556 -42.5906
-74.7864 -135.691
-6.10223 -104.776
-0.386234 -3.04997
-2.54868 -4.23383
-4.82988 -4.23445
-5.56485 -3.94655
-5.08531 -3.71898
-3.39803 -3.80318
-0.539667 -3.41036
4.75239 -14.0019
1.77994 -8.84637
2.46932 -9.86466
3.46127 -15.3565
-0.128792 -3.62074
5.16249 -10.9669
7.31954 -9.37956
5.73036 -11.7879
2.22561 -12.2035
-0.292877 -3.43365
1.0925 -3.86417
1.05498 -5.18732
0.262198 -2.81202
0.703366 -4.95127
0.667034 -4.98247
1.28766 -7.74947
1.11639 -6.60725
1.66794 -8.33098
1.76333 -8.27619
2.0115 -8.68333
1.70435 -7.65329
-32.6697 -53.2026
-16.8822 -5.38279
-15.2293 -4.82949
-33.6561 -37.1395
3.4618 -11.9379
4.28012 -14.3045
4.55047 -15.9635
3.12476 -13.4596
3.86302 -21.9166
3.62632 -19.7763
3.295 -14.0692
4.14125 -14.7969
4.21818 -14.1605
3.30269 -11.6238
3.30862 -11.8278
2.51224 -10.016
1.51204 -7.41653
1.79781 -8.7703
0.509533 -4.65808
0.69236 -4.68534
0.628046 -4.74703
0.451781 -3.84487
1.88561 -88.935
2.10273 -118.328
-1.83843 -158.425
1.55756 -86.4603
1.47257 -151.5
0.840222 -113.787
1.22442 -26.2987
-4.83623 -23.6212
-3.0969 -185.292
2.3016 -25.8259
4.82665 -124.565
-1.4966 -33.286
3.89162 -1.66734
8.61156 2.92983
4.70172 -2.45315
0.848005 -2.14793
2.11527 -2.11249
-0.78306 -2.26593
-2.41657 -2.18856
-1.72761 -2.13802
-3.2107 -2.12656
-3.87603 -2.08868
-3.61033 -2.03348
-3.85811 -1.90288
-3.76063 -1.91634
-3.88539 -1.8477
-3.25401 -1.8813
-2.26951 -1.94156
-2.86607 -1.84293
-1.10496 -1.98769
1.42255 -2.17531
-0.151842 -1.9268
3.49463 -1.34707
9.48187 2.04494
4.45155 -1.49968
0.266149 -2.12148
0.269516 -2.57591
0.576099 -3.52506
0.493807 -3.30982
2.6669 -8.59674
5.46183 -2.34798
3.24988 -8.47365
5.10378 -10.173
4.34464 -3.53089
9.20448 0.74977
5.89364 -5.3268
4.39592 -6.51776
8.28916 0.860858
0.390321 -1.3772
0.338284 -1.18671
0.467605 1.16849
0.77855 -0.420616
0.614312 -0.556816
0.28664 0.736145
3.68891 2.76846
17.4277 7.9298
4.44926 2.93366
4.11025 0.80795
4.52288 0.407009
13.8232 3.23742
8.4619 -5.90525
10.5167 -1.67498
1.5028 -2.38271
1.83183 -2.57019
-0.364195 -6.82467
0.968665 -7.02898
3.95632 -14.0643
3.39032 -13.6142
1.09873 -6.64624
0.569095 -4.26736
-0.0811231 -2.07447
-1.8506 -3.87111
-4.27835 -3.70312
-5.30375 -3.71734
-5.31774 -4.10316
-3.74092 -4.28271
-0.745703 -4.10341
-2.28691 -2.05248
8.73049 -59.9044
6.07485 -77.0466
11.1648 -130.909
12.0954 -134.957
1.43489 -8.24625
4.18668 -16.6792
7.47164 -24.514
7.46266 -28.5655
9.22445 -36.4823
7.60275 -24.9165
-34.9656 -40.4497
-31.1185 -54.7677
4.35112 -15.138
3.70416 -15.4274
2.93763 -14.4235
1.58484 -8.92945
2.91644 -16.8429
5.50171 -14.8829
-43.0832 -95.486
-46.2813 -113.982
-41.4573 -12.657
-12.4443 -11.1476
-6.00448 -21.9156
-4.72129 -20.7535
-12.1646 -11.9055
1.49632 -26.8997
3.43085 -18.9467
3.6987 -20.6708
2.30939 -25.9462
-9.96984 -7.29978
-11.1992 -7.91817
-10.0285 -7.22123
-12.5182 -8.49588
-13.4708 -9.13437
-12.2051 -8.65162
-10.3396 -7.65335
-7.20099 -65.9722
10.53 -60.1156
7.11629 -85.3692
10.1725 -52.0893
-43.4042 -53.1243
-45.2851 -37.3685
4.63665 -24.396
7.53697 -38.1336
-30.5382 -17.5493
-42.9263 -27.2975
7.82605 -32.4091
4.88093 -27.1539
-19.7785 -53.7384
-19.3167 -50.3609
-21.5805 -14.218
-21.2419 -28.9712
-7.41491 -37.4564
-6.60659 -35.131
-20.3142 -26.8363
-20.0703 -14.722
4.27729 -30.5041
3.54888 -30.0619
-18.4936 -11.2028
-24.3849 -13.964
2.14594 -56.5547
-5.7186 -64.9178
2.63569 -47.0777
3.97209 -50.8283
1.1692 -39.241
0.784127 -35.9511
-3.76241 -50.5741
-1.64646 -46.7135
4.36223 -38.3155
5.4878 -191.995
-3.43254 -2.12689
-21.3685 -44.2326
-8.66818 -40.7471
-6.10974 -5.10219
7.82333 -84.4374
-2.52137 -3.14351
-33.1076 -260.071
-23.0665 -79.1875
-3.77822 -4.28478
-12.0346 -45.6438
3.23079 -120.2
-0.241922 -133.69
-19.3939 -132.777
-17.4285 -108.098
-10.4846 -210.463
-10.7467 -57.2336
-17.6355 -62.8522
-12.0781 -92.6257
5.53883 -121.767
4.83737 -134.269
1.09834 -98.2957
-6.4894 -85.232
-4.87579 -73.0169
-23.8343 -68.7207
-31.0801 -85.139
-1.51295 -66.6727
4.54263 -110.44
-0.218523 -140.055
-15.9508 -111.847
-19.4744 -140.398
-11.6317 -95.1328
-10.79 -57.29
-17.6066 -63.0268
-17.8867 -233.604
4.01849 -138.206
6.40102 -126.442
1.78605 -101.604
-4.75965 -74.4134
-6.08262 -87.4189
-1.36997 -67.9915
-23.9094 -69.2132
-31.0727 -86.6478
5.18305 -114.124
-21.2506 -14.1936
3.20844 -8.07334
13.5708 4.51618
10.3429 -0.958234
-116.061 -221.579
-55.852 -163.7
-85.5984 -124.675
-33.5466 -41.7685
-24.2174 -19.1739
-22.9694 -17.4011
10.969 2.84658
1.38194 -8.19812
-85.329 -140.176
-114.425 -225.057
-45.5775 -18.718
10.0298 -1.48167
-23.7273 -24.7261
-31.9262 -56.5774
-37.5794 -117.676
-33.2278 -166.946
2.42792 -126.733
-121.774 -190.23
10.2999 -92.1378
-40.774 -92.0297
-54.393 -112.32
-69.4794 -142.565
-14.448 -165.473
-84.2726 -188.804
6.08153 -121.934
-122.53 -198.863
-61.8614 -131.886
-55.0202 -117.059
-35.0274 -150.161
-32.4529 -185.548
-5.21645 -146.173
2.65011 -136.368
-25.5186 -125.752
-38.9521 -131.57
-10.3801 -143.886
-47.3038 -167.521
0.293055 -134.284
-29.1092 -110.014
5.01476 -141.6
-19.5997 -91.4328
-9.36122 -107.639
-23.3883 -81.1888
-35.6671 -223.844
8.97217 -145.219
2.85549 -127.986
-30.0335 -7.86983
-16.9028 -3.72269
-27.4272 -12.7479
8.11266 -1.87733
-35.4401 -25.9402
-38.7208 -13.2271
-32.5779 -8.85957
-29.5756 -10.1559
-28.1963 -16.1022
-17.7744 -4.26285
-33.662 -33.8953
-38.2533 -15.2828
6.2967 -145.728
-6.97751 -116.557
-13.567 -105.58
-33.7599 -218.218
-17.3724 -95.3327
5.1103 -130.646
8.01433 -141.506
-37.5925 -81.2654
-22.4363 -94.8574
-6.93882 -83.4398
-15.2308 -71.9083
-46.3091 -104.245
-24.2961 -107.925
-0.354196 -108.679
-5.08786 -94.4185
-40.9406 -83.4125
-30.376 -74.51
-21.1106 -65.4357
-28.1728 -62.608
-35.2657 -58.2293
-39.644 -53.603
-40.8592 -67.2517
-40.6613 -40.8464
-43.5324 -49.9754
-41.6916 -77.7402
-28.2057 -49.3743
-40.0843 -55.7932
-39.6622 -46.674
-34.8911 -48.6834
-27.5206 -44.8163
-27.9207 -33.7654
-27.6541 -54.3817
-40.3594 -33.4091
-35.1551 -36.304
-28.6714 -37.3921
-28.5064 -28.1175
-42.7203 -30.9208
-37.6004 -26.2964
-32.9001 -22.7243
-35.4161 -21.5337
-37.702 -23.6496
-39.79 -23.4373
-34.7235 -19.8243
-30.7399 -17.3995
-33.6724 -18.8741
-28.6333 -16.5917
-34.026 -31.6904
-39.9904 -37.2842
-39.4417 -30.7154
-43.732 -43.9576
-43.7026 -30.9677
-38.1679 -25.6758
-27.142 -25.1601
-32.8896 -21.7734
-28.2129 -17.0649
-21.728 -14.4058
-23.7538 -14.175
-28.6536 -19.3007
-27.135 -20.2368
-26.574 -107.228
-6.61299 -134.131
-25.2925 -136.866
3.64568 -122.412
-39.6572 -107.127
-29.6811 -89.5158
-14.0898 -92.6902
0.760011 -68.2339
-2.81376 -98.2579
-4.45866 -71.5466
-37.4269 -96.4733
-50.5081 -75.2386
-4.19794 -70.0267
-2.80109 -95.5908
0.610938 -66.9215
3.25108 -118.482
-37.9494 -93.3265
-49.1339 -77.262
-13.6039 -91.7472
-25.3528 -134.311
-6.41313 -130.227
-26.1429 -105.727
57.9535 28.0604
42.5229 1.94521
-44.1092 -29.7445
-42.0022 -19.3681
-39.8589 -25.7623
-43.6658 -16.3418
-38.373 -40.0523
-44.3241 -38.3109
-45.7226 -29.4345
-37.8948 -59.5329
-37.1555 -68.851
-42.788 -51.1168
-37.1934 -87.7562
-32.9224 -61.8673
-7.79 -120.027
-24.0834 -101.831
-17.716 -95.2781
-11.0278 -110.588
-17.8984 -116.287
-1.70244 -128.868
-33.9384 -105.413
-26.7765 -79.1043
-40.2043 -70.4193
-33.7165 -88.2767
-32.4389 -78.6304
-44.4914 -96.8814
-34.1609 -56.6121
-41.0182 -54.8122
-42.0757 -68.1293
-45.0851 -33.5132
-45.877 -25.0468
-45.9738 -28.0277
-43.4788 -20.4757
-44.9304 -18.5489
-45.6512 -25.5994
-44.0136 -41.0618
-37.1872 -36.1245
-41.2073 -26.2401
-41.8459 -41.8924
-36.7542 -76.9288
-33.3142 -83.617
-43.8423 -88.6987
-16.2141 -85.8587
-39.4259 -69.6242
-32.5297 -64.9447
-23.2922 -60.9655
-42.1004 -24.4144
-43.4392 -26.3308
-38.4478 -22.7714
-45.4952 -32.2755
-44.726 -26.9891
-46.2737 -21.2068
-46.2929 -25.0879
-46.632 -23.853
-10.9142 -24.0674
-6.97901 -32.1085
-6.27311 -16.1287
-3.23897 -66.9355
-0.771428 -50.0183
-4.03396 -13.6506
-5.73985 -3.61319
-8.99521 -2.40704
-14.9714 -25.2568
-11.6724 -110.811
-6.17862 -85.3805
-15.3911 -58.7212
5.69849 -93.8931
-22.6803 -40.6309
-11.9139 -126.633
3.25377 -143.228
-61.8473 -346.732
-68.7633 -76.1351
-40.7311 -149.145
-7.27745 -171.153
-36.9707 -159.892
-97.1733 -297.33
-68.7886 -71.2413
-75.8177 -364.588
-40.4108 -163.07
-37.9991 -175.197
-10.2973 -181.415
-93.5036 -321.447
-73.9195 -175.903
-55.1109 -209.542
-20.6717 -191.798
-168.843 -296.537
-71.396 -288.004
2.59318 -145.264
-10.6116 -156.305
-59.1689 -147.834
-90.0417 -160.755
5.33271 -108.323
8.25516 -90.6045
7.38874 -106.131
8.69437 -69.7856
9.23824 -77.4101
3.18882 -99.5311
-3.68241 -116.623
1.92015 -131.259
6.77429 -99.1024
-39.6262 -103.77
-48.6779 -102.232
-48.7889 -114.529
-43.2116 -94.3234
-48.2388 -104.01
-61.1451 -124.394
-58.9021 -126.917
-20.1508 -111.941
-28.7673 -106.086
-1.61529 -139.757
2.83613 -124.823
-3.1269 -145.538
6.14383 -101.404
-11.5575 -182.123
-20.8728 -149.013
-6.65835 -128.305
-62.7491 -228.016
-97.3095 -235.523
-115.746 -191.587
-132.574 -355.564
-171.96 -311.285
-88.2011 -176.056
-90.6574 -167.889
-39.5013 -197.836
-15.952 -222.094
-70.5095 -137.143
-62.7936 -124.66
-58.3843 -128.613
-50.8852 -121.72
-54.1054 -115.961
-40.3241 -124.18
-46.2357 -138.391
-81.2821 -149.494
-65.705 -142.774
-65.3255 -194.878
-57.5711 -211.125
-27.5446 -205.027
-13.7557 -171.14
-55.9246 -170.427
-55.4869 -152.95
-48.8145 -141.321
-43.086 -131.77
-17.0318 -139.709
-38.9334 -199.266
-74.2727 -211.366
-82.6678 -174.018
-65.1166 -151.291
-23.2892 -170.054
-57.7989 -135.198
-48.1506 -122.1
-25.2375 -127.439
-41.7934 -113.117
-14.852 -99.2633
-7.01303 -94.0047
-14.9868 -89.084
-15.3242 -80.6293
-7.25872 -74.7509
-22.9973 -86.3943
1.02489 -116.602
5.47313 -100.292
9.06999 -103.25
3.98562 -95.7586
8.15824 -88.1052
8.20219 -84.974
-10.2241 -119.583
-13.9697 -101.324
-3.5493 -101.822
-11.6014 -108.674
1.34698 -90.451
-24.1273 -119.563
-34.3948 -101.222
-19.2512 -96.2388
-1.66696 -85.508
-11.2351 -90.0265
-23.3128 -79.242
-28.5016 -91.0796
3.13441 -81.8141
-7.6578 -82.3001
-10.2563 -74.9159
-3.27749 -71.3727
0.385571 -82.6246
4.4138 -75.3674
-1.4555 -75.6716
9.04068 -69.8221
7.28718 -64.6182
-1.75764 -67.2963
1.34635 -92.2141
-0.100581 -64.7942
-4.76577 -36.9154
1.91409 -59.8271
-6.46017 -20.5124
-2.76612 -17.212
3.78715 -47.5295
-4.67798 -83.1468
-12.5659 -20.3326
-7.5382 -18.9765
-14.5394 -43.4259
-5.85795 -0.64612
-8.21229 -85.7105
-17.9515 -19.7951
-10.4075 -6.28454
-23.8942 -65.8199
-37.3613 -28.9805
-14.9714 -111.355
-9.91095 1.07603
-15.4222 -1.91538
0.405574 -29.7724
-1.25647 -17.23
0.671209 -13.3575
-38.6633 38.1836
-86.9765 -135.457
0.97686 -13.7624
5.00558 -43.2965
-33.4948 -73.2195
-15.7666 -144.137
-44.6892 -48.2075
-12.8006 1.54868
-20.7534 11.357
-2.6877 -26.769
0.116204 -13.4315
-2.04327 -12.9002
0.70392 -13.9405
-35.4281 75.6041
-87.1619 -113.955
3.72589 -49.2098
1.60718 -8.20082
0.491452 -4.16047
0.624151 -4.83142
0.417209 -4.09338
-0.0234677 -1.02559
-0.142607 -0.763861
0.725265 -4.92236
2.93118 -12.7459
2.87535 -11.925
2.00156 -8.69946
0.829188 -5.20745
0.256285 -4.00674
0.645461 -5.12016
-0.263308 -0.277343
-0.203731 -0.342433
3.35197 -13.3899
3.30817 -11.7382
1.00951 -5.81033
0.926202 -5.8412
0.702953 -5.68097
-0.05781 0.0199037
-0.279083 0.460087
1.11168 -5.95715
5.34601 -18.2399
5.4964 -17.611
3.71765 -13.1669
1.3502 -6.89956
1.0772 -5.82075
1.56453 -7.09301
-0.925646 -0.866874
-0.931159 -0.698418
5.78841 -19.646
3.78286 -14.5196
1.10273 -7.38354
1.64849 -7.59953
1.37689 -7.54606
-1.29648 -0.455348
-1.20663 -0.397733
1.39894 -7.4252
5.89549 -21.2955
5.22811 -21.4289
3.44421 -17.1764
1.60404 -10.7622
1.56495 -7.71897
1.71624 -10.4578
-1.56674 -0.210169
-1.33314 -0.184543
5.67952 -24.3169
3.42843 -18.0247
1.43051 -7.30975
1.77648 -11.7896
1.29658 -7.29218
-0.911774 -0.901346
-0.611201 -1.1531
1.77824 -11.2056
6.63365 -29.2062
6.05273 -24.8256
3.89783 -14.8332
1.87371 -8.22548
1.03266 -7.13451
1.56986 -8.00421
-0.491391 -1.32159
-0.48695 -2.32122
6.88693 -25.6065
3.83035 -13.2668
1.08784 -5.9347
1.35702 -7.03915
0.956079 -5.84674
-0.0757383 -1.67479
-0.64072 -3.2601
1.59781 -7.19895
5.94268 -19.7391
5.63359 -18.099
1.81287 -8.29116
0.52294 -4.54899
0.415277 -4.00125
0.680511 -4.64542
-0.710497 -0.959223
-0.805636 -0.926615
0.200869 -3.95315
3.08609 -11.1745
3.14807 -11.9833
1.68581 -8.40447
0.564819 -4.63332
0.620729 -4.54192
0.641867 -4.69708
-0.95383 -0.622418
-1.03667 -0.553547
0.538696 -4.4969
2.79194 -11.7023
2.66629 -11.8856
-1.36261 -0.295095
0.371517 -3.8884
0.438361 -3.99941
0.446766 -4.01912
2.045 -10.3378
-1.15138 -0.247136
-36.8065 -139.886
-10.9184 -143.213
-16.2039 -123.507
6.00735 -31.3496
5.78716 -34.5242
2.92294 -23.1833
8.9693 -50.2508
8.26831 -35.0966
-41.4172 -153.268
-44.4969 -176.75
-73.8571 -161.725
6.35329 -36.4067
2.28978 -25.3706
5.28836 -38.1816
7.51856 -63.616
9.10275 -44.2602
-33.9468 -169.901
-15.1821 -156.065
-40.4286 -149.691
-21.8573 -149.369
3.89418 -17.0129
2.815 -12.7456
1.58674 -8.69461
2.5089 -12.6232
4.68241 -16.5222
2.91765 -10.9157
4.26389 -15.7234
5.09206 -19.1307
6.68267 -23.1085
6.23964 -22.2497
4.17195 -14.6575
6.56001 -21.2019
7.93256 -27.2024
8.0092 -29.173
6.71167 -21.9846
4.39063 -15.372
6.72175 -23.4615
9.00133 -34.0418
8.11122 -27.9897
3.01199 -12.3612
1.85137 -8.64196
3.2558 -12.2949
4.3263 -15.8938
3.99803 -15.9966
2.0147 -10.0054
1.35728 -7.56893
2.34765 -10.77
3.29181 -14.4686
2.91714 -14.0139
-31.4692 -93.8373
-32.1953 -84.8856
12.0002 -55.4146
10.2565 -55.4156
10.0324 -44.9885
10.1761 -64.4086
9.22457 -37.8539
11.036 -53.8016
10.7806 -64.0546
-40.0841 -113.203
-45.6565 -104.924
4.71465 -19.9881
4.41433 -20.3688
4.2256 -20.6599
4.94727 -24.047
7.54034 -30.7724
7.38721 -27.5639
6.3449 -24.561
8.10738 -29.3947
5.45658 -22.1239
7.20107 -32.7022
8.1089 -36.1741
10.7199 -44.2085
10.1006 -37.0548
9.55096 -35.6601
9.1462 -32.3699
10.7704 -49.9972
10.8806 -44.2471
9.62371 -34.7426
10.4191 -39.48
9.05569 -31.5754
10.5891 -43.0491
10.9242 -50.7289
10.2162 -45.3659
7.45545 -27.1652
6.2559 -21.6439
7.33612 -24.9467
5.53394 -19.0827
5.07912 -17.4769
6.68907 -22.4568
8.07398 -27.8826
8.1738 -31.5906
7.24895 -27.751
4.24275 -18.2583
3.82099 -17.3715
3.78332 -17.9858
4.83055 -24.1497
11.6449 -77.5128
9.69075 -74.9436
7.52792 -87.9191
6.33065 -29.391
5.89335 -25.5895
5.60686 -27.1785
5.2218 -27.7577
6.5872 -34.6285
9.96009 -44.0121
9.39018 -37.672
9.10204 -39.9802
8.24988 -42.427
9.7486 -53.3566
8.95004 -35.8912
9.29605 -34.9316
9.79848 -40.1736
9.72113 -46.7457
8.51917 -36.9947
8.41786 -58.5254
5.37937 -62.2497
2.42182 -62.6499
4.72207 -56.5815
3.57765 -68.9945
7.45737 -64.1007
5.35962 -72.6527
7.92981 -56.9201
10.1085 -59.0301
8.85112 -75.3504
0.226567 -63.5124
6.3584 -38.8899
5.58529 -35.1226
4.49147 -35.0716
3.98938 -43.1607
6.53167 -52.3186
8.06038 -51.4173
7.85197 -47.3514
7.02812 -42.8639
4.32799 -52.1634
7.48173 -45.4592
8.2875 -41.3438
8.49746 -45.4919
7.57982 -36.7016
8.8917 -50.9096
6.03435 -50.3095
5.66715 -45.9219
7.07966 -31.9549
6.8473 -36.3264
5.46034 -34.8505
5.51685 -29.3282
6.87857 -55.1702
4.56956 -56.2874
5.54486 -43.7817
4.56896 -47.5196
6.22767 -23.7369
5.19354 -19.8969
5.38614 -19.9959
4.78443 -19.7159
6.83764 -28.2088
5.59525 -26.4123
5.28867 -22.6444
6.19192 -27.5032
4.34889 -14.4858
2.99946 -10.9269
4.71003 -15.9252
0.60687 -4.85576
3.44782 -12.5397
0.195251 -3.88621
0.596358 -4.83744
2.13652 -8.71602
-1.58388 -0.194331
-1.30619 -0.0920971
11.4771 -75.8767
10.7829 -58.2685
9.66486 -71.4139
10.6695 -50.3603
9.77436 -75.592
10.6858 -58.0401
11.8095 -56.7601
10.9133 -65.6646
0 0
0 0
0 0
0 0
0 0
0 0
0 0
0 0
0 0
0 0
0 0
0 0
0 0
0 0
0 0
0 0
0 0
0 0
0 0
0 0
0 0
0 0
0 0
0 0
0 0
0 0
0 0
0 0
0 0
0 0
0 0
0 0
0 0
0 0
0 0
0 0
0 0
0 0
0 0
0 0
0 0
0 0
0 0
0 0
0 0
0 0
0 0
0 0
0 0
0 0
0 0
0 0
0 0
0 0
0 0
0 0
0 0
0 0
0 0
0 0
0 0
0 0
0 0
0 0
0 0
0 0
0 0
0 0
0 0
0 0
0 0
0 0
0 0
0 0
0 0
0 0
0 0
0 0
0 0
0 0
0 0
0 0
0 0
0 0
0 0
0 0
0 0
0 0
0 0
0 0
0 0
0 0
0 0
0 0
0 0
0 0
0 0
0 0
0 0
0 0
0 0
0 0
0 0
0 0
0 0
0 0
0 0
0 0
0 0
0 0
0 0
0 0
0 0
0 0
0 0
0 0
0 0
0 0
0 0
0 0
0 0
0 0
0 0
0 0
0 0
0 0
0 0
0 0
0 0
0 0
0 0
0 0
0 0
0 0
0 0
0 0
0 0
0 0
0 0
0 0
0 0
0 0
0 0
0 0
0 0
0 0
0 0
0 0
0 0
0 0
0 0
0 0
0 0
0 0
0 0
0 0
0 0
0 0
0 0
0 0
0 0
0 0
0 0
0 0
0 0
0 0
0 0
0 0
0 0
0 0
0 0
0 0
0 0
0 0
0 0
0 0
0 0
0 0
0 0
0 0
0 0
0 0
0 0
0 0
0 0
0 0
0 0
0 0
0 0
0 0
0 0
0 0
0 0
0 0
0 0
0 0
0 0
0 0
0 0
0 0
0 0
0 0
0 0
0 0
0 0
0 0
0 0
0 0
0 0
0 0
0 0
0 0
0 0
0 0
0 0
0 0
0 0
0 0
0 0
0 0
0 0
0 0
0 0
0 0
0 0
0 0
0 0
0 0
0 0
0 0
0 0
0 0
0 0
0 0
0 0
0 0
0 0
0 0
0 0
0 0
0 0
0 0
0 0
0 0
0 0
0 0
0 0
0 0
0 0
0 0
0 0
0 0
0 0
0 0
0 0
0 0
0 0
0 0
0 0
0 0
0 0
0 0
0 0
0 0
0 0
0 0
0 0
0 0
0 0
0 0
0 0
0 0
0 0
0 0
0 0
0 0
0 0
0 0
0 0
0 0
0 0
0 0
0 0
0 0
0 0
0 0
0 0
0 0
0 0
0 0
0 0
0 0
0 0
0 0
0 0
0 0
0 0
0 0
0 0
0 0
0 0
0 0
0 0
0 0
0 0
0 0
0 0
0 0
0 0
0 0
0 0
0 0
0 0
0 0
0 0
0 0
0 0
0 0
0 0
0 0
0 0
0 0
0 0
0 0
0 0
0 0
0 0
0 0
0 0
0 0
0 0
0 0
0 0
0 0
0 0
0 0
0 0
0 0
0 0
0 0
0 0
0 0
0 0
0 0
0 0
0 0
0 0
0 0
0 0
0 0
0 0
0 0
0 0
0 0
0 0
0 0
0 0
0 0
0 0
0 0
0 0
0 0
0 0
0 0
0 0
0 0
0 0
0 0
0 0
0 0
0 0
0 0
0 0
0 0
0 0
0 0
0 0
0 0
0 0
0 0
0 0
0 0
0 0
0 0
0 0
0 0
0 0
0 0
0 0
0 0
0 0
0 0
0 0
0 0
0 0
0 0
0 0
0 0
0 0
0 0
0 0
0 0
0 0
0 0
0 0
0 0
0 0
0 0
0 0
0 0
0 0
0 0
0 0
0 0
0 0
0 0
0 0
0 0
0 0
0 0
0 0
0 0
0 0
0 0
0 0
0 0
0 0
0 0
0 0
0 0
0 0
0 0
0 0
0 0
0 0
0 0
0 0
0 0
0 0
0 0
0 0
0 0
0 0
0 0
0 0
0 0
0 0
0 0
0 0
0 0
0 0
0 0
0 0
0 0
0 0
0 0
0 0
0 0
0 0
0 0
0 0
0 0
0 0
0 0
0 0
0 0
0 0
0 0
0 0
0 0
0 0
0 0
0 0
0 0
0 0
0 0
0 0
0 0
0 0
0 0
0 0
0 0
0 0
0 0
0 0
0 0
0 0
0 0
0 0
0 0
0 0
0 0
0 0
0 0
0 0
0 0
0 0
0 0
0 0
0 0
0 0
0 0
0 0
0 0
0 0
0 0
0 0
0 0
0 0
0 0
0 0
0 0
0 0
0 0
0 0
0 0
0 0
0 0
0 0
0 0
0 0
0 0
0 0
0 0
0 0
0 0
0 0
0 0
0 0
0 0
0 0
0 0
0 0
0 0
0 0
0 0
0 0
0 0
0 0
0 0
0 0
0 0
0 0
0 0
0 0
0 0
0 0
0 0
0 0
0 0
0 0
0 0
0 0
0 0
0 0
0 0
0 0
0 0
0 0
0 0
0 0
0 0
0 0
0 0
0 0
0 0
0 0
0 0
0 0
0 0
0 0
0 0
0 0
0 0
0 0
0 0
0 0
0 0
0 0
0 0
0 0
0 0
0 0
0 0
0 0
0 0
0 0
0 0
0 0
0 0
0 0
0 0
0 0
0 0
0 0
0 0
0 0
0 0
0 0
0 0
0 0
0 0
0 0
0 0
0 0
0 0
0 0
0 0
0 0
0 0
0 0
0 0
0 0
0 0
0 0
0 0
0 0
0 0
0 0
0 0
0 0
0 0
0 0
0 0
0 0
0 0
0 0
0 0
0 0
0 0
0 0
0 0
0 0
0 0
0 0
0 0
0 0
0 0
0 0
0 0
0 0
0 0
0 0
0 0
0 0
0 0
0 0
0 0
0 0
0 0
0 0
0 0
0 0
0 0
0 0
0 0
0 0
0 0
0 0
0 0
0 0
0 0
0 0
0 0
0 0
0 0
0 0
0 0
0 0
0 0
0 0
0 0
0 0
0 0
0 0
0 0
0 0
0 0
0 0
0 0
0 0
0 0
0 0
0 0
0 0
0 0
0 0
0 0
0 0
0 0
0 0
0 0
0 0
0 0
0 0
0 0
0 0
0 0
0 0
0 0
0 0
0 0
0 0
0 0
0 0
0 0
0 0
0 0
0 0
0 0
0 0
0 0
0 0
0 0
0 0
0 0
0 0
0 0
0 0
0 0
0 0
0 0
0 0
0 0
0 0
0 0
0 0
0 0
0 0
0 0
0 0
0 0
0 0
0 0
0 0
0 0
0 0
0 0
0 0
0 0
0 0
0 0
0 0
0 0
0 0
0 0
0 0
0 0
0 0
0 0
0 0
0 0
0 0
0 0
0 0
0 0
0 0
0 0
0 0
0 0
0 0
0 0
0 0
0 0
0 0
0 0
0 0
0 0
0 0
0 0
0 0
0 0
0 0
0 0
0 0
0 0
0 0
0 0
0 0
0 0
0 0
0 0
0 0
0 0
0 0
0 0
0 0
0 0
0 0
0 0
0 0
0 0
0 0
0 0
0 0
0 0
0 0
0 0
0 0
0 0
0 0
0 0
0 0
0 0
0 0
0 0
0 0
0 0
0 0
0 0
0 0
0 0
0 0
0 0
0 0
0 0
0 0
0 0
0 0
0 0
0 0
0 0
0 0
0 0
0 0
0 0
0 0
0 0
0 0
0 0
0 0
0 0
0 0
0 0
0 0
0 0
0 0
0 0
0 0
0 0
0 0
0 0
0 0
0 0
0 0
0 0
0 0
0 0
0 0
0 0
0 0
0 0
0 0
0 0
0 0
0 0
0 0
0 0
0 0
0 0
0 0
0 0
0 0
0 0
0 0
0 0
0 0
0 0
0 0
0 0
0 0
0 0
0 0
0 0
0 0
0 0
0 0
0 0
0 0
0 0
0 0
0 0
0 0
0 0
0 0
0 0
0 0
0 0
0 0
0 0
0 0
0 0
0 0
0 0
0 0
0 0
0 0
0 0
0 0
0 0
0 0
0 0
0 0
0 0
0 0
0 0
0 0
0 0
0 0
0 0
0 0
0 0
0 0
0 0
0 0
0 0
0 0
0 0
0 0
0 0
0 0
0 0
0 0
0 0
0 0
0 0
0 0
0 0
0 0
0 0
0 0
0 0
0 0
0 0
0 0
0 0
0 0
0 0
0 0
0 0
0 0
0 0
0 0
0 0
0 0
0 0
0 0
0 0
0 0
0 0
0 0
0 0
0 0
0 0
0 0
0 0
0 0
0 0
0 0
0 0
0 0
0 0
0 0
0 0
0 0
0 0
0 0
0 0
0 0
0 0
0 0
0 0
0 0
0 0
0 0
0 0
0 0
0 0
0 0
0 0
0 0
0 0
0 0
0 0
0 0
0 0
0 0
0 0
0 0
0 0
0 0
0 0
0 0
0 0
0 0
0 0
0 0
0 0
0 0
0 0
0 0
0 0
0 0
0 0
0 0
0 0
0 0
0 0
0 0
0 0
0 0
0 0
0 0
0 0
0 0
0 0
0 0
0 0
0 0
0 0
0 0
0 0
0 0
0 0
0 0
0 0
0 0
0 0
0 0
0 0
0 0
0 0
0 0
0 0
0 0
0 0
0 0
0 0
0 0
0 0
0 0
0 0
0 0
0 0
0 0
0 0
0 0
0 0
0 0
0 0
0 0
0 0
0 0
0 0
0 0
0 0
0 0
0 0
0 0
0 0
0 0
0 0
0 0
0 0
0 0
0 0
0 0
0 0
0 0
0 0
0 0
0 0
0 0
0 0
0 0
0 0
0 0
0 0
0 0
0 0
0 0
0 0
0 0
0 0
0 0
0 0
0 0
0 0
0 0
0 0
0 0
0 0
0 0
0 0
0 0
0 0
0 0
0 0
0 0
0 0
0 0
0 0
0 0
0 0
0 0
0 0
0 0
0 0
0 0
0 0
0 0
0 0
0 0
0 0
0 0
0 0
0 0
0 0
0 0
0 0
0 0
0 0
0 0
0 0
0 0
0 0
0 0
0 0
0 0
0 0
0 0
0 0
0 0
0 0
0 0
0 0
0 0
0 0
0 0
0 0
0 0
0 0
0 0
0 0
0 0
0 0
0 0
0 0
0 0
0 0
0 0
0 0
0 0
0 0
0 0
0 0
0 0
0 0
0 0
0 0
0 0
0 0
0 0
0 0
0 0
0 0
0 0
0 0
0 0
0 0
0 0
0 0
0 0
0 0
0 0
0 0
0 0
0 0
0 0
0 0
0 0
0 0
0 0
0 0
0 0
0 0
0 0
0 0
0 0
0 0
0 0
0 0
0 0
0 0
0 0
0 0
0 0
0 0
0 0
0 0
0 0
0 0
0 0
0 0
0 0
0 0
0 0
0 0
0 0
0 0
0 0
0 0
0 0
0 0
0 0
0 0
0 0
0 0
0 0
0 0
0 0
0 0
0 0
0 0
0 0
0 0
0 0
0 0
0 0
0 0
0 0
0 0
0 0
0 0
0 0
0 0
0 0
0 0
0 0
0 0
0 0
0 0
0 0
0 0
0 0
0 0
0 0
0 0
0 0
0 0
0 0
0 0
0 0
0 0
0 0
0 0
0 0
0 0
0 0
0 0
0 0
0 0
0 0
0 0
0 0
0 0
0 0
0 0
0 0
0 0
0 0
0 0
0 0
0 0
0 0
0 0
0 0
0 0
0 0
0 0
0 0
0 0
0 0
0 0
0 0
0 0
0 0
0 0
0 0
0 0
0 0
0 0
0 0
0 0
0 0
0 0
0 0
0 0
0 0
0 0
0 0
0 0
0 0
0 0
0 0
0 0
0 0
0 0
0 0
0 0
0 0
0 0
0 0
0 0
0 0
0 0
0 0
0 0
0 0
0 0
0 0
0 0
0 0
0 0
0 0
0 0
0 0
0 0
0 0
0 0
0 0
0 0
0 0
0 0
0 0
0 0
0 0
0 0
0 0
0 0
0 0
0 0
0 0
0 0
0 0
0 0
0 0
0 0
0 0
0 0
0 0
0 0
0 0
0 0
0 0
0 0
0 0
0 0
0 0
0 0
0 0
0 0
0 0
0 0
0 0
0 0
0 0
0 0
0 0
0 0
0 0
0 0
0 0
0 0
0 0
0 0
0 0
0 0
0 0
0 0
0 0
0 0
0 0
0 0
0 0
0 0
0 0
0 0
0 0
0 0
0 0
0 0
0 0
0 0
0 0
0 0
0 0
0 0
0 0
0 0
0 0
0 0
0 0
0 0
0 0
0 0
0 0
0 0
0 0
0 0
0 0
0 0
0 0
0 0
0 0
0 0
0 0
0 0
0 0
0 0
0 0
0 0
0 0
0 0
0 0
0 0
0 0
0 0
0 0
0 0
0 0
0 0
0 0
0 0
0 0
0 0
0 0
0 0
0 0
0 0
0 0
0 0
0 0
0 0
0 0
0 0
0 0
0 0
0 0
0 0
0 0
0 0
0 0
0 0
0 0
0 0
0 0
0 0
0 0
0 0
0 0
0 0
0 0
0 0
0 0
0 0
0 0
0 0
0 0
0 0
0 0
0 0
0 0
0 0
0 0
0 0
0 0
0 0
0 0
0 0
0 0
0 0
0 0
0 0
0 0
0 0
0 0
0 0
0 0
0 0
0 0
0 0
0 0
0 0
0 0
0 0
0 0
0 0
0 0
0 0
0 0
0 0
0 0
0 0
0 0
0 0
0 0
0 0
0 0
0 0
0 0
0 0
0 0
0 0
0 0
0 0
0 0
0 0
0 0
0 0
0 0
0 0
0 0
0 0
0 0
0 0
0 0
0 0
0 0
0 0
0 0
0 0
0 0
0 0
0 0
0 0
0 0
0 0
0 0
0 0
0 0
0 0
0 0
0 0
0 0
0 0
0 0
0 0
0 0
0 0
0 0
0 0
0 0
0 0
0 0
0 0
0 0
0 0
0 0
0 0
0 0
0 0
0 0
0 0
0 0
0 0
0 0
0 0
0 0
0 0
0 0
0 0
0 0
0 0
0 0
0 0
0 0
0 0
0 0
0 0
0 0
0 0
0 0
0 0
0 0
0 0
0 0
0 0
0 0
0 0
0 0
0 0
0 0
0 0
0 0
0 0
0 0
0 0
0 0
0 0
0 0
0 0
0 0
0 0
0 0
0 0
0 0
0 0
0 0
0 0
0 0
0 0
0 0
0 0
0 0
0 0
0 0
0 0
0 0
0 0
0 0
0 0
0 0
0 0
0 0
0 0
0 0
0 0
0 0
0 0
0 0
0 0
0 0
0 0
0 0
0 0
0 0
0 0
0 0
0 0
0 0
0 0
0 0
0 0
0 0
0 0
0 0
0 0
0 0
0 0
0 0
0 0
0 0
0 0
0 0
0 0
0 0
0 0
0 0
0 0
0 0
0 0
0 0
0 0
0 0
0 0
0 0
0 0
0 0
0 0
0 0
0 0
0 0
0 0
0 0
0 0
0 0
0 0
0 0
0 0
0 0
0 0
0 0
0 0
0 0
0 0
0 0
0 0
0 0
0 0
0 0
0 0
0 0
0 0
0 0
0 0
0 0
0 0
0 0
0 0
0 0
0 0
0 0
0 0
0 0
0 0
0 0
0 0
0 0
0 0
0 0
0 0
0 0
0 0
0 0
0 0
0 0
0 0
0 0
0 0
0 0
0 0
0 0
0 0
0 0
0 0
0 0
0 0
0 0
0 0
0 0
0 0
0 0
0 0
0 0
0 0
0 0
0 0
0 0
0 0
0 0
0 0
0 0
0 0
0 0
0 0
0 0
0 0
0 0
0 0
0 0
0 0
0 0
0 0
0 0
0 0
0 0
0 0
0 0
0 0
0 0
0 0
0 0
0 0
0 0
0 0
0 0
0 0
0 0
0 0
0 0
0 0
0 0
0 0
0 0
0 0
0 0
0 0
0 0
0 0
0 0
0 0
0 0
0 0
0 0
0 0
0 0
0 0
0 0
0 0
0 0
0 0
0 0
0 0
0 0
0 0
0 0
0 0
0 0
0 0
0 0
0 0
0 0
0 0
0 0
0 0
0 0
0 0
0 0
0 0
0 0
0 0
0 0
0 0
0 0
0 0
0 0
0 0
0 0
0 0
0 0
0 0
0 0
0 0
0 0
0 0
0 0
0 0
0 0
0 0
0 0
0 0
0 0
0 0
0 0
0 0
0 0
0 0
0 0
0 0
0 0
0 0
0 0
0 0
0 0
0 0
0 0
0 0
0 0
0 0
0 0
0 0
0 0
0 0
0 0
0 0
0 0
0 0
0 0
0 0
0 0
0 0
0 0
0 0
0 0
0 0
0 0
0 0
0 0
0 0
0 0
0 0
0 0
0 0
0 0
0 0
0 0
0 0
0 0
0 0
0 0
0 0
0 0
0 0
0 0
0 0
0 0
0 0
0 0
0 0
0 0
0 0
0 0
0 0
0 0
0 0
0 0
0 0
0 0
0 0
0 0
0 0
0 0
0 0
0 0
0 0
0 0
0 0
0 0
0 0
0 0
0 0
0 0
0 0
0 0
0 0
0 0
0 0
0 0
0 0
0 0
0 0
0 0
0 0
0 0
0 0
0 0
0 0
0 0
0 0
0 0
0 0
0 0
0 0
0 0
0 0
0 0
0 0
0 0
0 0
0 0
0 0
0 0
0 0
0 0
0 0
0 0
0 0
0 0
0 0
0 0
0 0
0 0
0 0
0 0
0 0
0 0
0 0
0 0
0 0
0 0
0 0
0 0
0 0
0 0
0 0
0 0
0 0
0 0
0 0
0 0
0 0
0 0
0 0
0 0
0 0
0 0
0 0
0 0
0 0
0 0
0 0
0 0
0 0
0 0
0 0
0 0
0 0
0 0
0 0
0 0
0 0
0 0
0 0
0 0
0 0
0 0
0 0
0 0
0 0
0 0
0 0
0 0
0 0
0 0
0 0
0 0
0 0
0 0
0 0
0 0
0 0
0 0
0 0
0 0
0 0
0 0
0 0
0 0
0 0
0 0
0 0
0 0
0 0
0 0
0 0
0 0
0 0
0 0
0 0
0 0
0 0
0 0
0 0
0 0
0 0
0 0
0 0
0 0
0 0
0 0
0 0
0 0
0 0
0 0
0 0
0 0
0 0
0 0
0 0
0 0
0 0
0 0
0 0
0 0
0 0
0 0
0 0
0 0
0 0
0 0
0 0
0 0
0 0
0 0
0 0
0 0
0 0
0 0
0 0
0 0
0 0
0 0
0 0
0 0
0 0
0 0
0 0
0 0
0 0
0 0
0 0
0 0
0 0
0 0
0 0
0 0
0 0
0 0
0 0
0 0
0 0
0 0
0 0
0 0
0 0
0 0
0 0
0 0
0 0
0 0
0 0
0 0
0 0
0 0
0 0
0 0
0 0
0 0
0 0
0 0
0 0
0 0
0 0
0 0
0 0
0 0
0 0
0 0
0 0
0 0
0 0
0 0
0 0
0 0
0 0
0 0
0 0
0 0
0 0
0 0
0 0
0 0
0 0
0 0
0 0
0 0
0 0
0 0
0 0
0 0
0 0
0 0
0 0
0 0
0 0
0 0
0 0
0 0
0 0
0 0
0 0
0 0
0 0
0 0
0 0
0 0
0 0
0 0
0 0
0 0
0 0
0 0
0 0
0 0
0 0
0 0
0 0
0 0
0 0
0 0
0 0
0 0
0 0
0 0
0 0
0 0
0 0
0 0
0 0
0 0
0 0
0 0
0 0
0 0
0 0
0 0
0 0
0 0
0 0
0 0
0 0
0 0
0 0
0 0
0 0
0 0
0 0
0 0
0 0
0 0
0 0
0 0
0 0
0 0
0 0
0 0
0 0
0 0
0 0
0 0
0 0
0 0
0 0
0 0
0 0
0 0
0 0
0 0
0 0
0 0
0 0
0 0
0 0
0 0
0 0
0 0
0 0
0 0
0 0
0 0
0 0
0 0
0 0
0 0
0 0
0 0
0 0
0 0
0 0
0 0
0 0
0 0
0 0
0 0
0 0
0 0
0 0
0 0
0 0
0 0
0 0
0 0
0 0
0 0
0 0
0 0
0 0
0 0
0 0
0 0
0 0
0 0
0 0
0 0
0 0
0 0
0 0
0 0
0 0
0 0
0 0
0 0
0 0
0 0
0 0
0 0
0 0
0 0
0 0
0 0
0 0
0 0
0 0
0 0
0 0
0 0
0 0
      </DataArray> 
      <DataArray type="Float64" NumberOfComponents="1" Name="CauchyShearStress" format="ascii">
-8.22598
7.2478
-2.42154
0.703013
0.354911
0.488724
0.355072
0.1749
-0.0350374
-0.0703622
-0.0668494
-0.116771
-0.16611
-0.122382
-0.0579989
-0.0456278
-0.0505866
0.0255288
0.0888461
0.0843091
0.0611548
0.115425
0.131665
0.0365003
-0.0894544
-0.114913
-0.219524
-0.738103
-0.932517
-1.21622
0.897861
0.00101339
0.306857
0.721498
-9.15529
0.0448521
0.276061
0.328967
0.29401
0.091677
0.0699259
0.167393
0.273644
0.258531
0.380667
0.28924
0.410302
0.541059
0.624571
0.62212
0.676246
0.694974
0.731836
0.33771
-0.174473
-0.342723
-0.527879
-0.667934
-0.805578
-1.87322
1.04485
1.44106
2.87681
-35.5345
-17.7381
-7.4998
-11.3927
-14.1526
-20.3924
0.25917
-34.2815
-29.8056
-22.6067
35.9963
-3.04098
-24.7661
35.8276
-6.40193
18.3057
7.77678
11.5197
14.2021
20.4277
-0.439087
-1.38863
-1.61778
-3.41558
0.00547555
-0.164755
0.299535
0.541448
0.995268
1.03011
0.243718
-0.188894
-0.334642
-0.490219
-0.621293
-0.69983
-0.753574
-0.773698
-0.828491
-0.720462
-0.693227
-0.66744
-0.590532
-0.606187
-0.439169
-0.248742
-0.180151
-0.255629
0.913627
1.76463
9.59042
2.40086
-19.5325
-11.1825
-19.4952
21.7393
12.6721
5.35731
5.60549
-5.04718
-0.451365
-18.5788
18.5901
-4.50932
-5.05852
-9.30687
-8.8167
9.97249
-7.85225
8.75439
-8.57381
-8.80695
9.49564
9.53552
-7.61979
-7.25282
-8.46578
-4.29545
3.21956
4.47856
9.57188
8.02913
10.8478
-9.8434
-11.3262
-11.9018
-11.4243
12.5289
10.4877
-4.52749
1.0065
4.20638
-7.41606
7.68025
-5.65904
-6.51095
-7.48052
-6.90347
7.28085
8.23427
7.40503
5.97581
-7.08777
-7.20391
-6.26535
-3.20203
1.40318
6.41854
-6.47536
-6.27922
7.37101
7.66436
6.83023
6.72867
7.63035
10.4321
-9.27257
-10.7422
-8.23578
-12.2095
-13.7823
12.254
6.99601
-5.20101
-3.51107
-0.330739
-1.71241
1.35708
3.3544
2.33745
4.74204
-6.70243
-6.9115
6.77474
6.84139
-5.48119
-4.67109
-5.07234
-4.43275
-4.99393
-6.22947
6.64645
5.64617
5.03619
5.37346
4.74889
5.43136
-6.57626
-6.19158
-8.40023
0.197616
4.83555
-3.93624
4.42306
6.40161
6.10634
12.7769
-15.5438
-3.23351
-17.047
17.7771
14.3859
10.0299
-5.27889
-3.85193
-1.35143
0.956356
2.92085
4.77552
-6.4578
6.30148
-4.65022
-3.22104
-4.47784
4.67232
3.4962
4.79057
-5.28025
-5.72195
-5.79779
-5.28946
-2.89354
-2.10627
-20.8527
-3.74047
16.2881
-0.448939
0.453769
3.3473
4.70329
5.29981
5.43645
4.44663
16.8147
-16.6569
2.26035
6.84277
-21.2047
-5.81375
-4.69424
19.7239
6.185
-5.00342
-5.10527
-3.63365
-4.51901
-1.82375
-2.66028
0.229448
-0.553204
1.72216
1.06006
3.55589
2.71126
5.09761
4.24097
-5.10913
-5.95127
-6.23402
5.19558
5.9495
5.8844
4.56524
-4.48811
-2.08018
-1.88825
-2.97389
2.99107
2.24264
2.23736
4.76103
-3.15667
-4.29856
-3.74214
-2.94635
-1.04956
-37.2968
-13.8821
-1.09791
8.80824
39.3546
2.88909
-2.84142
2.7939
4.73417
3.18082
28.1367
14.3053
-23.78
-14.8708
14.8733
-24.1717
2.34682
-11.3224
11.4674
16.4306
-5.1617
-3.15145
-1.67984
-0.33041
0.891588
2.13909
4.06524
-5.71938
-4.3338
4.91671
4.81659
-2.90269
-2.09863
-5.17162
4.03607
1.61602
2.98445
-3.42573
3.82484
-1.04666
-1.8628
-1.66944
-2.32947
-1.79886
-2.06778
-1.69748
-1.35414
-0.735394
-69.0474
-9.90199
8.04035
61.9326
0.204281
1.35502
3.03264
4.12476
9.20201
-7.94073
-4.11574
-2.70281
-1.22362
0.0750713
1.02409
1.47423
1.32993
2.19108
0.954679
1.22244
1.41089
1.56821
21.4655
35.731
20.5296
-20.963
-28.8385
-35.5617
14.7178
18.3394
21.4642
-13.2541
-30.1058
-20.7113
-2.80723
-5.28949
-1.95641
-1.67648
-1.69867
-1.1682
-1.0934
-1.16595
-0.621111
-0.421866
-0.538985
0.0649704
0.267388
0.16851
0.696634
0.83824
0.789612
1.23657
1.20352
1.28728
2.27654
5.09036
2.48145
-1.25886
-1.16544
1.78973
1.96665
-5.6294
-6.24808
5.37353
5.48206
5.87392
-1.29396
-1.91366
2.16679
1.83274
-2.01752
1.86484
-2.88566
-2.29115
2.01972
2.56909
-4.50394
-9.38996
-4.66803
4.56217
4.88195
7.68173
6.27324
-7.36243
4.39875
-4.92475
0.327917
-0.145061
5.85842
-6.13397
3.71911
-2.46363
5.471
2.87113
1.48375
0.325149
-0.984245
-2.36607
-4.05587
-5.60426
-17.1762
24.9315
-27.4157
27.8842
2.79874
3.57672
0.567054
-6.50688
7.80488
0.366344
28.7324
-35.6476
-1.68561
-3.64372
-4.76963
-3.87478
3.18127
-4.32276
12.8007
-6.73798
-2.94536
3.96934
3.32197
-2.80464
-3.83544
6.02158
6.21883
-6.56847
-5.99223
5.3771
3.99592
1.88057
0.0148742
-2.73335
-4.84261
-5.47365
14.5694
2.50432
-4.86675
-3.28412
-14.2875
9.7205
6.15394
5.84649
3.52454
-3.7238
-4.49923
-6.73774
14.0924
-12.847
5.37545
7.043
7.88037
-6.99948
-6.27675
-5.47994
7.26197
-7.26826
2.77263
-0.742642
10.0933
-14.1501
9.03751
-8.96548
8.35763
-7.7885
10.8834
-9.82161
-7.92362
-39.4491
-3.65828
-43.0143
-30.4866
-4.45134
-22.8638
3.28773
30.7928
56.7756
4.99225
34.3712
31.4095
-33.4884
-50.2519
-51.2223
-53.3343
-26.7599
-34.0609
-39.3182
-30.1518
-29.3472
-27.5862
-31.9644
-24.053
-41.1403
-51.5057
-17.5094
-24.481
30.7205
52.1868
47.8964
39.5357
26.9418
34.2653
32.3449
26.6025
30.3115
27.8509
24.409
32.1728
17.7671
41.4546
51.7911
24.8728
26.6989
2.26658
9.07932
2.98106
81.1117
22.3252
94.0666
40.8484
16.7456
-31.5035
-12.3444
-2.55422
-96.5254
-79.4097
-36.9496
-3.91915
-21.4436
-48.4379
27.7313
28.0465
4.62553
16.6459
-4.61389
21.0699
14.9291
-26.1719
-14.1322
-35.8957
4.25297
5.74134
-5.08344
-21.8721
0.125203
1.54
-19.1224
-22.6981
-9.72279
1.89229
14.5242
-8.70069
22.2597
13.0721
38.6862
55.4437
55.6376
37.0147
40.597
30.5905
31.0746
3.8246
3.1417
9.66205
-0.226219
17.4498
2.51812
-2.05437
-7.65527
-13.3002
-5.10723
-23.3757
-7.85599
-34.1115
-53.6366
-56.4165
-35.2398
-39.3798
-29.8872
-28.6089
19.139
22.1088
16.4802
17.2818
-14.6899
-23.8333
-10.7628
-15.454
15.7755
18.3049
16.969
16.3721
15.5515
14.9397
17.248
11.1668
12.9805
15.3698
13.4089
-14.7366
-12.6519
-13.0773
-11.7935
-8.72756
-14.4753
8.74056
9.92711
10.1766
7.46461
7.2876
6.441
5.48122
4.15271
-3.51147
-1.8617
-1.59568
-0.230689
1.9288
-1.98203
-8.19525
-9.58009
-7.40232
-11.0798
-5.62556
-4.94197
-6.56512
-4.71946
-3.63395
-5.11768
-2.59766
-5.16903
-5.88195
22.8369
20.0105
24.5629
22.4693
29.753
34.3533
27.576
14.7911
20.4916
13.9842
72.0636
81.0939
-13.7344
-20.1549
-14.4477
-22.1739
-69.3929
-78.6241
-27.2525
-24.0382
-19.5305
-23.0199
27.203
4.08197
10.497
7.39904
12.2045
1.33534
22.3565
13.0121
7.54948
19.7295
19.2035
16.4836
16.3492
26.6787
26.2104
18.0523
29.8984
-27.9299
-16.6197
-25.7739
-12.5168
-28.9698
-17.9766
-17.2419
-20.7581
-12.1374
-27.9871
-17.4909
-15.656
-9.89562
-7.06981
-6.17285
-7.40104
-3.38923
-3.77058
-12.6063
-17.5317
-12.9105
-15.7326
-18.5897
-20.2609
-19.0147
-20.0709
-16.5007
-17.5571
-16.0342
1.24248
3.67158
2.38049
6.16253
-1.15387
0.399071
3.96789
-0.683432
20.0496
25.3682
12.8188
29.7915
23.8315
10.5651
6.31187
7.92253
22.6227
41.7224
35.9053
42.8593
27.5625
33.6167
44.8428
28.9458
-61.2533
-88.4999
-68.2724
-40.5921
-67.8974
-146.041
96.2913
38.3129
66.7069
65.0023
28.2472
137.813
29.4971
5.95355
6.45753
4.56934
-53.0617
-36.4474
-1.68683
20.8985
12.0108
-10.4071
-12.6838
-1.04991
-19.8625
-11.5425
5.5867
11.8105
-9.90174
-26.4503
24.0395
17.7541
20.9138
16.4041
14.4592
13.1218
22.1529
22.1379
23.9866
-3.07551
15.6011
11.0737
15.5981
0.0512969
-20.5548
-9.56166
-23.3371
-10.2277
-21.0518
47.2649
9.89795
5.25277
-13.3115
-12.9318
26.7633
-13.9274
-13.4453
-23.2586
-6.5764
-13.3691
-23.899
-26.7749
-12.8974
-1.29603
9.58569
-20.8076
-18.997
-15.8851
0.930265
2.19904
-1.56234
-2.3472
-8.18997
1.47245
12.3452
-6.76715
2.56591
6.39037
3.89416
8.22605
8.3747
7.52963
19.3663
16.5636
19.3322
18.2417
15.5977
21.0064
-4.58714
-1.71232
6.04192
-7.33492
0.345048
14.8864
-16.8066
-19.5536
-13.481
-17.2459
-10.0932
-24.0869
-22.421
-21.6864
-13.615
-17.6756
-20.061
-21.3431
-8.86952
-16.0968
-16.6957
-13.4173
11.215
8.45309
13.0389
4.07232
6.13172
12.2486
10.796
-27.1316
-25.3464
-22.8202
-16.1171
-12.2825
-19.1515
-32.9754
-20.2899
-16.9342
-35.6569
-3.78387
-37.4619
-24.3106
-6.27389
-40.0918
-36.6567
-50.7649
-6.462
-8.10421
-16.815
-10.4634
-7.54841
-22.3014
-94.1867
-6.43533
-15.4857
49.3664
62.2594
44.7089
8.21042
9.65524
16.7665
8.39698
8.53641
6.88627
20.5593
88.0826
19.9769
1.76302
0.382374
0.67318
0.273711
-0.144587
-0.00862979
0.849553
2.9587
2.40862
1.40813
0.43227
0.238797
0.381911
0.0159945
-0.211567
2.51997
0.486858
0.0637943
0.27275
0.0372784
-0.227545
-0.109907
0.360022
0.918375
0.303417
-0.501931
-0.386722
-0.0554957
-0.523146
0.855227
0.808503
-0.475932
-3.22972
-1.41966
-1.12953
-1.68073
0.651331
0.528562
-0.896329
-4.55489
-5.25328
-5.98252
-3.6271
-2.0533
-4.29695
0.301364
0.135347
-7.17882
6.61067
1.9648
4.15001
1.61081
-0.853256
-1.01566
5.00929
8.61438
6.09354
3.42278
1.27124
1.42667
1.02879
-1.00279
-0.584358
5.3191
0.686438
0.109753
0.415669
0.0600572
-0.365012
0.0464332
0.55696
0.979057
0.322126
-1.03659
-0.276338
-0.133096
-0.417726
0.688542
0.693473
-0.0378655
-1.18967
-1.5803
-1.849
-0.632659
-0.552692
-0.773628
0.686446
0.631604
-0.458898
-2.65546
-2.89373
0.7113
-0.538614
-0.62453
-0.7755
-3.26022
0.494891
28.4687
14.0004
17.2064
-9.66998
-12.35
-10.5254
-14.1147
-8.84106
-22.6751
-25.9122
-28.8058
11.8136
11.843
15.0162
19.4083
11.1608
-0.387148
-15.273
-1.35495
10.2264
4.10199
3.44337
2.43824
3.87813
1.92651
1.23274
2.1287
3.2174
1.73025
-2.92503
-1.85057
-2.03609
-0.978901
-4.55696
2.14056
2.09378
3.16436
5.03729
1.47303
-2.39154
-1.50199
-2.13404
-2.27356
-3.27386
-2.8377
-1.92482
-2.90331
-3.65194
-4.20547
21.9808
20.6928
-5.33599
-8.93927
-7.76587
-11.0699
-5.77126
-1.28243
-1.15166
-24.2421
-21.2912
4.43227
5.04241
5.38119
5.73474
4.07775
3.02195
3.77037
1.89801
4.15252
5.2227
4.55313
-1.89425
-3.78866
-1.30306
0.449849
1.36051
0.786478
1.39012
2.6129
0.00232381
5.22782
-0.578293
-1.86999
-2.5747
-1.90618
-1.54258
-2.25176
-1.43293
-0.452702
-0.777427
-3.26078
-3.67551
-4.4545
-4.50237
-5.00924
-6.06131
-5.43697
-0.0450488
1.60036
5.54624
4.98047
5.80355
6.32178
6.18531
2.2976
2.07935
3.81269
5.24423
3.60588
-3.00708
-1.37917
-2.17355
-3.59672
-4.25974
4.89211
8.38151
10.1596
8.49916
-9.96936
-5.97518
-7.62138
-5.78852
-3.14166
-3.8627
-11.1614
6.74573
6.96696
7.50666
8.27142
7.19973
5.76934
5.88728
6.55281
8.68278
-6.38163
-5.21589
-5.1559
-5.49925
-4.87317
-7.62966
-7.70074
-5.30843
-6.35474
-7.09103
-6.43964
-7.11263
-8.70197
7.59948
8.18446
-3.66428
-3.69971
-2.97806
-4.12247
-4.55076
-5.75678
-4.87032
-5.34277
-0.711748
-0.186599
-0.364601
-0.0787051
-1.04313
-0.0749445
-0.0795163
-0.622252
0.401568
0.185155
6.44725
10.1132
11.3195
6.74535
0.546275
-0.492168
3.95935
0.996498
0
0
0
0
0
0
0
0
0
0
0
0
0
0
0
0
0
0
0
0
0
0
0
0
0
0
0
0
0
0
0
0
0
0
0
0
0
0
0
0
0
0
0
0
0
0
0
0
0
0
0
0
0
0
0
0
0
0
0
0
0
0
0
0
0
0
0
0
0
0
0
0
0
0
0
0
0
0
0
0
0
0
0
0
0
0
0
0
0
0
0
0
0
0
0
0
0
0
0
0
0
0
0
0
0
0
0
0
0
0
0
0
0
0
0
0
0
0
0
0
0
0
0
0
0
0
0
0
0
0
0
0
0
0
0
0
0
0
0
0
0
0
0
0
0
0
0
0
0
0
0
0
0
0
0
0
0
0
0
0
0
0
0
0
0
0
0
0
0
0
0
0
0
0
0
0
0
0
0
0
0
0
0
0
0
0
0
0
0
0
0
0
0
0
0
0
0
0
0
0
0
0
0
0
0
0
0
0
0
0
0
0
0
0
0
0
0
0
0
0
0
0
0
0
0
0
0
0
0
0
0
0
0
0
0
0
0
0
0
0
0
0
0
0
0
0
0
0
0
0
0
0
0
0
0
0
0
0
0
0
0
0
0
0
0
0
0
0
0
0
0
0
0
0
0
0
0
0
0
0
0
0
0
0
0
0
0
0
0
0
0
0
0
0
0
0
0
0
0
0
0
0
0
0
0
0
0
0
0
0
0
0
0
0
0
0
0
0
0
0
0
0
0
0
0
0
0
0
0
0
0
0
0
0
0
0
0
0
0
0
0
0
0
0
0
0
0
0
0
0
0
0
0
0
0
0
0
0
0
0
0
0
0
0
0
0
0
0
0
0
0
0
0
0
0
0
0
0
0
0
0
0
0
0
0
0
0
0
0
0
0
0
0
0
0
0
0
0
0
0
0
0
0
0
0
0
0
0
0
0
0
0
0
0
0
0
0
0
0
0
0
0
0
0
0
0
0
0
0
0
0
0
0
0
0
0
0
0
0
0
0
0
0
0
0
0
0
0
0
0
0
0
0
0
0
0
0
0
0
0
0
0
0
0
0
0
0
0
0
0
0
0
0
0
0
0
0
0
0
0
0
0
0
0
0
0
0
0
0
0
0
0
0
0
0
0
0
0
0
0
0
0
0
0
0
0
0
0
0
0
0
0
0
0
0
0
0
0
0
0
0
0
0
0
0
0
0
0
0
0
0
0
0
0
0
0
0
0
0
0
0
0
0
0
0
0
0
0
0
0
0
0
0
0
0
0
0
0
0
0
0
0
0
0
0
0
0
0
0
0
0
0
0
0
0
0
0
0
0
0
0
0
0
0
0
0
0
0
0
0
0
0
0
0
0
0
0
0
0
0
0
0
0
0
0
0
0
0
0
0
0
0
0
0
0
0
0
0
0
0
0
0
0
0
0
0
0
0
0
0
0
0
0
0
0
0
0
0
0
0
0
0
0
0
0
0
0
0
0
0
0
0
0
0
0
0
0
0
0
0
0
0
0
0
0
0
0
0
0
0
0
0
0
0
0
0
0
0
0
0
0
0
0
0
0
0
0
0
0
0
0
0
0
0
0
0
0
0
0
0
0
0
0
0
0
0
0
0
0
0
0
0
0
0
0
0
0
0
0
0
0
0
0
0
0
0
0
0
0
0
0
0
0
0
0
0
0
0
0
0
0
0
0
0
0
0
0
0
0
0
0
0
0
0
0
0
0
0
0
0
0
0
0
0
0
0
0
0
0
0
0
0
0
0
0
0
0
0
0
0
0
0
0
0
0
0
0
0
0
0
0
0
0
0
0
0
0
0
0
0
0
0
0
0
0
0
0
0
0
0
0
0
0
0
0
0
0
0
0
0
0
0
0
0
0
0
0
0
0
0
0
0
0
0
0
0
0
0
0
0
0
0
0
0
0
0
0
0
0
0
0
0
0
0
0
0
0
0
0
0
0
0
0
0
0
0
0
0
0
0
0
0
0
0
0
0
0
0
0
0
0
0
0
0
0
0
0
0
0
0
0
0
0
0
0
0
0
0
0
0
0
0
0
0
0
0
0
0
0
0
0
0
0
0
0
0
0
0
0
0
0
0
0
0
0
0
0
0
0
0
0
0
0
0
0
0
0
0
0
0
0
0
0
0
0
0
0
0
0
0
0
0
0
0
0
0
0
0
0
0
0
0
0
0
0
0
0
0
0
0
0
0
0
0
0
0
0
0
0
0
0
0
0
0
0
0
0
0
0
0
0
0
0
0
0
0
0
0
0
0
0
0
0
0
0
0
0
0
0
0
0
0
0
0
0
0
0
0
0
0
0
0
0
0
0
0
0
0
0
0
0
0
0
0
0
0
0
0
0
0
0
0
0
0
0
0
0
0
0
0
0
0
0
0
0
0
0
0
0
0
0
0
0
0
0
0
0
0
0
0
0
0
0
0
0
0
0
0
0
0
0
0
0
0
0
0
0
0
0
0
0
0
0
0
0
0
0
0
0
0
0
0
0
0
0
0
0
0
0
0
0
0
0
0
0
0
0
0
0
0
0
0
0
0
0
0
0
0
0
0
0
0
0
0
0
0
0
0
0
0
0
0
0
0
0
0
0
0
0
0
0
0
0
0
0
0
0
0
0
0
0
0
0
0
0
0
0
0
0
0
0
0
0
0
0
0
0
0
0
0
0
0
0
0
0
0
0
0
0
0
0
0
0
0
0
0
0
0
0
0
0
0
0
0
0
0
0
0
0
0
0
0
0
0
0
0
0
0
0
0
0
0
0
0
0
0
0
0
0
0
0
0
0
0
0
0
0
0
0
0
0
0
0
0
0
0
0
0
0
0
0
0
0
0
0
0
0
0
0
0
0
0
0
0
0
0
0
0
0
0
0
0
0
0
0
0
0
0
0
0
0
0
0
0
0
0
0
0
0
0
0
0
0
0
0
0
0
0
0
0
0
0
0
0
0
0
0
0
0
0
0
0
0
0
0
0
0
0
0
0
0
0
0
0
0
0
0
0
0
0
0
0
0
0
0
0
0
0
0
0
0
0
0
0
0
0
0
0
0
0
0
0
0
0
0
0
0
0
0
0
0
0
0
0
0
0
0
0
0
0
0
0
0
0
0
0
0
0
0
0
0
0
0
0
0
0
0
0
0
0
0
0
0
0
0
0
0
0
0
0
0
0
0
0
0
0
0
0
0
0
0
0
0
0
0
0
0
0
0
0
0
0
0
0
0
0
0
0
0
0
0
0
0
0
0
0
0
0
0
0
0
0
0
0
0
0
0
0
0
0
0
0
0
0
0
0
0
0
0
0
0
0
0
0
0
0
0
0
0
0
0
0
0
0
0
0
0
0
0
0
0
0
0
0
0
0
0
0
0
0
0
0
0
0
0
0
0
0
0
0
0
0
0
0
0
0
0
0
0
0
0
0
0
0
0
0
0
0
0
0
0
0
0
0
0
0
0
0
0
0
0
0
0
0
0
0
0
0
0
0
0
0
0
0
0
0
0
0
0
0
0
0
0
0
0
0
0
0
0
0
0
0
0
0
0
0
0
0
0
0
0
0
0
0
0
0
0
0
0
0
0
0
0
0
0
0
0
0
0
0
0
0
0
0
0
0
0
0
0
0
0
0
0
0
0
0
0
0
0
0
0
0
0
0
0
0
0
0
0
0
0
0
0
0
0
0
0
0
0
0
0
0
0
0
0
0
0
0
0
0
0
0
0
0
0
0
0
0
0
0
0
0
0
0
0
0
0
0
0
0
0
0
0
0
0
0
0
0
0
0
0
0
0
0
0
0
0
0
0
0
0
0
0
0
0
0
0
0
0
0
0
0
0
0
0
0
0
0
0
0
0
0
0
0
0
0
0
0
0
0
0
0
0
0
0
0
0
0
0
0
0
0
0
0
0
0
0
0
0
0
0
0
0
0
0
0
0
0
0
0
0
0
0
0
0
0
0
0
0
0
0
0
0
0
0
0
0
0
0
0
0
0
0
0
0
0
0
0
0
0
0
0
0
0
0
0
0
0
0
0
0
0
0
0
0
0
0
0
0
0
0
0
0
0
0
0
0
0
0
0
0
0
0
0
0
0
0
0
0
0
0
0
0
0
0
0
0
0
0
0
0
0
0
0
0
0
0
0
0
0
0
0
0
0
0
0
0
0
0
0
0
0
0
0
0
0
0
0
0
0
0
0
0
0
0
0
0
0
0
0
0
0
0
0
0
0
0
0
0
0
0
0
0
0
0
0
0
0
0
0
0
0
0
0
0
0
0
0
0
0
0
0
0
0
0
0
0
0
0
0
0
0
0
0
0
0
0
0
0
0
0
0
0
0
0
0
0
0
0
0
0
0
0
0
0
0
0
0
0
0
0
0
0
0
0
0
0
0
0
0
0
0
0
0
0
0
0
0
0
0
0
0
0
0
0
0
0
0
0
0
0
0
0
0
0
0
0
0
0
0
0
0
0
0
0
0
0
0
0
0
0
0
0
0
0
0
0
0
0
0
0
0
0
0
0
0
0
0
0
0
0
0
0
0
0
0
0
0
0
0
0
0
0
0
0
0
0
0
0
0
0
0
0
0
0
0
0
0
0
0
0
0
0
0
0
0
0
0
0
0
0
0
0
0
0
0
0
0
0
0
0
0
0
0
0
0
0
0
0
0
0
0
0
0
0
0
0
0
0
0
0
0
0
0
0
0
0
0
0
0
0
0
0
0
0
0
0
0
0
0
0
0
0
0
0
0
0
0
0
0
0
0
0
0
0
0
0
0
0
0
0
0
0
0
0
0
0
0
0
0
0
0
0
0
0
0
0
0
0
0
0
0
0
0
0
0
0
0
0
0
0
0
0
0
0
0
0
0
0
0
0
0
0
0
0
0
0
0
0
0
0
0
0
0
0
0
0
0
0
0
0
0
0
0
0
0
0
0
0
0
0
0
0
0
0
0
0
0
0
0
0
0
0
0
0
0
0
0
0
0
0
0
0
0
0
0
0
0
0
0
0
0
0
0
0
0
0
0
0
0
0
0
0
0
0
0
0
0
0
0
0
0
0
0
0
0
0
0
0
0
0
0
0
0
0
0
0
0
0
0
0
0
0
0
0
0
0
0
0
0
0
0
0
0
0
0
0
0
0
0
0
0
0
0
0
0
0
0
0
0
0
0
0
0
0
0
0
0
      </DataArray> 
      <DataArray type="Float64" NumberOfComponents="1" Name="NormalFibers" format="ascii">
0
0
0
0
0
0
0
0
0
0
0
0
0
0
0
0
0
0
0
0
0
0
0
0
0
0
0
0
0
0
0
0
0
0
0
0
0
0
0
0
0
0
0
0
0
0
0
0
0
0
0
0
0
0
0
0
0
0
0
0
0
0
0
0
0
0
0
0
0
0
0
0
0
0
0
0
0
0
0
0
0
0
0
0
0
0
0
0
0
0
0
0
0
0
0
0
0
0
0
0
0
0
0
0
0
0
0
0
0
0
0
0
0
0
0
0
0
0
0
0
0
0
0
0
0
0
0
0
0
0
0
0
0
0
0
0
0
0
0
0
0
0
0
0
0
0
0
0
0
0
0
0
0
0
0
0
0
0
0
0
0
0
0
0
0
0
0
0
0
0
0
0
0
0
0
0
0
0
0
0
0
0
0
0
0
0
0
0
0
0
0
0
0
0
0
0
0
0
0
0
0
0
0
0
0
0
0
0
0
0
0
0
0
0
0
0
0
0
0
0
0
0
0
0
0
0
0
0
0
0
0
0
0
0
0
0
0
0
0
0
0
0
0
0
0
0
0
0
0
0
0
0
0
0
0
0
0
0
0
0
0
0
0
0
0
0
0
0
0
0
0
0
0
0
0
0
0
0
0
0
0
0
0
0
0
0
0
0
0
0
0
0
0
0
0
0
0
0
0
0
0
0
0
0
0
0
0
0
0
0
0
0
0
0
0
0
0
0
0
0
0
0
0
0
0
0
0
0
0
0
0
0
0
0
0
0
0
0
0
0
0
0
0
0
0
0
0
0
0
0
0
0
0
0
0
0
0
0
0
0
0
0
0
0
0
0
0
0
0
0
0
0
0
0
0
0
0
0
0
0
0
0
0
0
0
0
0
0
0
0
0
0
0
0
0
0
0
0
0
0
0
0
0
0
0
0
0
0
0
0
0
0
0
0
0
0
0
0
0
0
0
0
0
0
0
0
0
0
0
0
0
0
0
0
0
0
0
0
0
0
0
0
0
0
0
0
0
0
0
0
0
0
0
0
0
0
0
0
0
0
0
0
0
0
0
0
0
0
0
0
0
0
0
0
0
0
0
0
0
0
0
0
0
0
0
0
0
0
0
0
0
0
0
0
0
0
0
0
0
0
0
0
0
0
0
0
0
0
0
0
0
0
0
0
0
0
0
0
0
0
0
0
0
0
0
0
0
0
0
0
0
0
0
0
0
0
0
0
0
0
0
0
0
0
0
0
0
0
0
0
0
0
0
0
0
0
0
0
0
0
0
0
0
0
0
0
0
0
0
0
0
0
0
0
0
0
0
0
0
0
0
0
0
0
0
0
0
0
0
0
0
0
0
0
0
0
0
0
0
0
0
0
0
0
0
0
0
0
0
0
0
0
0
0
0
0
0
0
0
0
0
0
0
0
0
0
0
0
0
0
0
0
0
0
0
0
0
0
0
0
0
0
0
0
0
0
0
0
0
0
0
0
0
0
0
0
0
0
0
0
0
0
0
0
0
0
0
0
0
0
0
0
0
0
0
0
0
0
0
0
0
0
0
0
0
0
0
0
0
0
0
0
0
0
0
0
0
0
0
0
0
0
0
0
0
0
0
0
0
0
0
0
0
0
0
0
0
0
0
0
0
0
0
0
0
0
0
0
0
0
0
0
0
0
0
0
0
0
0
0
0
0
0
0
0
0
0
0
0
0
0
0
0
0
0
0
0
0
0
0
0
0
0
0
0
0
0
0
0
0
0
0
0
0
0
0
0
0
0
0
0
0
0
0
0
0
0
0
0
0
0
0
0
0
0
0
0
0
0
0
0
0
0
0
0
0
0
0
0
0
0
0
0
0
0
0
0
0
0
0
0
0
0
0
0
0
0
0
0
0
0
0
0
0
0
0
0
0
0
0
0
0
0
0
0
0
0
0
0
0
0
0
0
0
0
0
0
0
0
0
0
0
0
0
0
0
0
0
0
0
0
0
0
0
0
0
0
0
0
0
0
0
0
0
0
0
0
0
0
0
0
0
0
0
0
0
0
0
0
0
0
0
0
0
0
0
0
0
0
0
0
0
0
0
0
0
0
0
0
0
0
0
0
0
0
0
0
0
0
0
0
0
0
0
0
0
0
0
0
0
0
0
0
0
0
0
0
0
0
0
0
0
0
0
0
0
0
0
0
0
0
0
0
0
0
0
0
0
0
0
0
0
0
0
0
0
0
0
0
0
0
0
0
0
0
0
0
0
0
0
0
0
0
0
0
0
0
0
0
0
0
0
0
0
0
0
0
0
0
0
0
0
0
0
0
0
0
0
0
0
0
0
0
0
0
0
0
0
0
0
0
0
0
0
0
0
0
0
0
0
0
0
0
0
0
0
0
0
0
0
0
0
0
0
0
0
0
0
0
0
0
0
0
0
0
0
0
0
0
0
0
0
0
0
0
0
0
0
0
0
0
0
0
0
0
0
0
0
0
0
0
0
0
0
0
0
0
0
0
0
0
0
0
0
0
0
0
0
0
0
0
0
0
0
0
0
0
0
0
0
0
0
0
0
0
0
0
0
0
0
0
0
0
0
0
0
0
0
0
0
0
0
0
0
0
0
0
0
0
0
0
0
0
0
0
0
0
0
0
0
0
0
0
0
0
0
0
0
0
0
0
0
0
0
0
0
0
0
0
0
0
0
0
0
0
0
0
0
0
0
0
0
0
0
0
0
0
0
0
0.00930657
0.00930657
0.051626
0.051626
-0.164646
-0.164646
-0.0828236
-0.0828236
-0.00415475
-0.00415475
-0.0775858
-0.0775858
0.00472375
0.00472375
0.0365474
0.0365474
-0.205596
-0.205596
-0.0255844
-0.0255844
-0.0654895
-0.0654895
-0.100599
-0.100599
-0.176492
-0.176492
0.0453908
0.0453908
-0.0832866
-0.0832866
0.117769
0.117769
-0.0698099
-0.0698099
-0.00496809
-0.00496809
0.0686734
0.0686734
-0.0426455
-0.0426455
-0.0246472
-0.0246472
-0.102962
-0.102962
-0.405939
-0.405939
-0.0400738
-0.0400738
-0.0517599
-0.0517599
-0.0361948
-0.0361948
-0.0241196
-0.0241196
-0.00682502
-0.00682502
-0.201706
-0.201706
0.0173257
0.0173257
0.0159188
0.0159188
0.0189362
0.0189362
-0.272437
-0.272437
-0.0430495
-0.0430495
-0.304453
-0.304453
-0.0159859
-0.0159859
-0.0628249
-0.0628249
-0.0236373
-0.0236373
0.0142111
0.0142111
-0.079756
-0.079756
-0.0604467
-0.0604467
0.0990691
0.0990691
-0.0915721
-0.0915721
-0.0829394
-0.0829394
-0.290878
-0.290878
-0.0793699
-0.0793699
-0.0489823
-0.0489823
-0.0519473
-0.0519473
-0.0320469
-0.0320469
-0.0329333
-0.0329333
0.145244
0.145244
-0.0468973
-0.0468973
0.0265123
0.0265123
-0.23954
-0.23954
-0.00709288
-0.00709288
-0.0243903
-0.0243903
-0.119809
-0.119809
-0.149967
-0.149967
-0.0103385
-0.0103385
-0.0310481
-0.0310481
-0.115836
-0.115836
0.0854669
0.0854669
0.00131056
0.00131056
-0.11459
-0.11459
-0.085198
-0.085198
-0.0844698
-0.0844698
-0.0861674
-0.0861674
0.0806921
0.0806921
0.112615
0.112615
-0.187716
-0.187716
-0.128215
-0.128215
-0.0420854
-0.0420854
-0.311071
-0.311071
0.0756945
0.0756945
-0.157447
-0.157447
-0.000388716
-0.000388716
-0.0471108
-0.0471108
-0.0057482
-0.0057482
-0.117365
-0.117365
-0.0878479
-0.0878479
-0.201822
-0.201822
0.0190244
0.0190244
-0.106902
-0.106902
-0.28474
-0.28474
-0.178474
-0.178474
-0.1438
-0.1438
-0.0401759
-0.0401759
-0.0138062
-0.0138062
0.0410633
0.0410633
-0.00877834
-0.00877834
-0.0404184
-0.0404184
-0.00154028
-0.00154028
0.0745421
0.0745421
-0.151159
-0.151159
-0.240072
-0.240072
-0.0176664
-0.0176664
0.0112257
0.0112257
-0.0613786
-0.0613786
-0.375614
-0.375614
-0.0822416
-0.0822416
-0.00207741
-0.00207741
-0.103403
-0.103403
-0.0419491
-0.0419491
-0.0830305
-0.0830305
-0.0153711
-0.0153711
0.014887
0.014887
-0.281819
-0.281819
-0.0690616
-0.0690616
-0.0477865
-0.0477865
-0.055524
-0.055524
-0.174791
-0.174791
0.139115
0.139115
0.091061
0.091061
0.0206789
0.0206789
0.069209
0.069209
-0.0166505
-0.0166505
-0.00780067
-0.00780067
-0.121953
-0.121953
-0.192826
-0.192826
0.02006
0.02006
-0.00914814
-0.00914814
-0.0363901
-0.0363901
0.0213399
0.0213399
-0.0635502
-0.0635502
-0.0978123
-0.0978123
-0.225903
-0.225903
-0.00862824
-0.00862824
-0.00941203
-0.00941203
0.00578466
0.00578466
-0.290872
-0.290872
-0.148644
-0.148644
0.0497368
0.0497368
0.00731905
0.00731905
-0.0406428
-0.0406428
0.0847798
0.0847798
-0.0511556
-0.0511556
-0.0111044
-0.0111044
-0.110807
-0.110807
-0.126742
-0.126742
-0.0449417
-0.0449417
-0.0133393
-0.0133393
-0.0636944
-0.0636944
-0.0121346
-0.0121346
-0.0297838
-0.0297838
-0.0215033
-0.0215033
-0.0153739
-0.0153739
-0.0419371
-0.0419371
0.0239229
0.0239229
-0.0378971
-0.0378971
-0.124267
-0.124267
-0.0236291
-0.0236291
-0.0153593
-0.0153593
0.0346989
0.0346989
-0.239738
-0.239738
-0.206491
-0.206491
-0.570766
-0.570766
-0.281076
-0.281076
-0.213553
-0.213553
0.00364459
0.00364459
-0.0369866
-0.0369866
-0.108858
-0.108858
0.0769857
0.0769857
-0.052635
-0.052635
0.0547858
0.0547858
-0.0108745
-0.0108745
-0.0710565
-0.0710565
-0.116583
-0.116583
0.0404061
0.0404061
-0.0944371
-0.0944371
-0.0568322
-0.0568322
-0.0432521
-0.0432521
-0.135986
-0.135986
-0.130482
-0.130482
-0.0172385
-0.0172385
0.00819191
0.00819191
-0.0805274
-0.0805274
-0.0207848
-0.0207848
-0.108975
-0.108975
-0.0984808
-0.0984808
-0.132942
-0.132942
-0.0171345
-0.0171345
-0.0241782
-0.0241782
-0.00209007
-0.00209007
-0.253865
-0.253865
-0.142841
-0.142841
-0.288886
-0.288886
-0.0126639
-0.0126639
-0.0148721
-0.0148721
0.0523714
0.0523714
0.0246897
0.0246897
0.0583527
0.0583527
0.102698
0.102698
-0.0884369
-0.0884369
-0.0983893
-0.0983893
0.00535935
0.00535935
-0.0302343
-0.0302343
-0.00107742
-0.00107742
-0.0237589
-0.0237589
-0.06211
-0.06211
0.0294122
0.0294122
-0.0366294
-0.0366294
-0.193469
-0.193469
-0.0158666
-0.0158666
0.0670337
0.0670337
-0.0299606
-0.0299606
-0.38765
-0.38765
0.0657519
0.0657519
0.0172816
0.0172816
-0.0283197
-0.0283197
-0.146794
-0.146794
-0.00438746
-0.00438746
-0.0256827
-0.0256827
-0.165664
-0.165664
-0.0775243
-0.0775243
0.0648891
0.0648891
-0.0382833
-0.0382833
-0.0745253
-0.0745253
-0.185019
-0.185019
0.109344
0.109344
0.108741
0.108741
-0.00307408
-0.00307408
-0.226388
-0.226388
0.025122
0.025122
-0.0571451
-0.0571451
-0.0885039
-0.0885039
-0.0172821
-0.0172821
0.000700861
0.000700861
-0.0235105
-0.0235105
-0.178212
-0.178212
-0.0555131
-0.0555131
-0.0155187
-0.0155187
-0.0160648
-0.0160648
-0.0589408
-0.0589408
-0.231127
-0.231127
0.00693142
0.00693142
-0.0486063
-0.0486063
-0.0707969
-0.0707969
-0.29233
-0.29233
-0.204983
-0.204983
-0.178408
-0.178408
-0.052801
-0.052801
-0.0118562
-0.0118562
-0.0101682
-0.0101682
0.118869
0.118869
-0.00505945
-0.00505945
-0.0240139
-0.0240139
-0.0143469
-0.0143469
0.106818
0.106818
-0.209605
-0.209605
-0.0899807
-0.0899807
-0.0154533
-0.0154533
-0.278652
-0.278652
-0.283275
-0.283275
-0.0102025
-0.0102025
-0.314842
-0.314842
-0.00293513
-0.00293513
-0.183232
-0.183232
0.0556671
0.0556671
-0.0278527
-0.0278527
-0.00150078
-0.00150078
-0.0471363
-0.0471363
-0.424902
-0.424902
-0.0551195
-0.0551195
-0.0239622
-0.0239622
-0.0539186
-0.0539186
-0.189854
-0.189854
-0.0878493
-0.0878493
-0.087529
-0.087529
0.129583
0.129583
-0.0171244
-0.0171244
-0.214597
-0.214597
-0.0247161
-0.0247161
-0.0111154
-0.0111154
-0.280266
-0.280266
-0.0389121
-0.0389121
-0.225665
-0.225665
-0.0267947
-0.0267947
-0.00663147
-0.00663147
-0.113482
-0.113482
0.0421027
0.0421027
0.00300764
0.00300764
-0.0664898
-0.0664898
-0.0831329
-0.0831329
-0.0599747
-0.0599747
-0.10759
-0.10759
-0.257782
-0.257782
0.0828051
0.0828051
-0.226723
-0.226723
0.0121429
0.0121429
-0.266049
-0.266049
-0.0775402
-0.0775402
-0.107845
-0.107845
-0.0135866
-0.0135866
0.0467125
0.0467125
-0.305547
-0.305547
0.0617586
0.0617586
0.0237567
0.0237567
0.120749
0.120749
-0.257554
-0.257554
-0.0759381
-0.0759381
-0.00462854
-0.00462854
-0.13555
-0.13555
-0.190806
-0.190806
-0.0513654
-0.0513654
-0.234451
-0.234451
-0.0923549
-0.0923549
-0.0267516
-0.0267516
-0.0447739
-0.0447739
0.048864
0.048864
-0.211879
-0.211879
0.0819818
0.0819818
-0.0680171
-0.0680171
0.00151745
0.00151745
-0.0847091
-0.0847091
0.0122788
0.0122788
0.0451273
0.0451273
-0.0781085
-0.0781085
-0.127658
-0.127658
-0.194737
-0.194737
0.0118014
0.0118014
-0.285549
-0.285549
0.0558953
0.0558953
-0.0373358
-0.0373358
-0.113266
-0.113266
-0.182215
-0.182215
-0.250625
-0.250625
-0.231473
-0.231473
-0.0314029
-0.0314029
-0.11067
-0.11067
-0.00144825
-0.00144825
-0.0171794
-0.0171794
-0.312824
-0.312824
-0.031709
-0.031709
0.100523
0.100523
0.0469777
0.0469777
-0.0370028
-0.0370028
-0.00268584
-0.00268584
0.00252405
0.00252405
0.000109948
0.000109948
-0.0892888
-0.0892888
-0.0856183
-0.0856183
0.0213946
0.0213946
-0.0160764
-0.0160764
-0.128847
-0.128847
0.0294672
0.0294672
-0.0702663
-0.0702663
-0.0440346
-0.0440346
-0.053501
-0.053501
-0.0239387
-0.0239387
-0.0218468
-0.0218468
-0.159727
-0.159727
-0.0161751
-0.0161751
0.0101964
0.0101964
-0.00862663
-0.00862663
0.112588
0.112588
-0.130448
-0.130448
-0.104505
-0.104505
-0.0932362
-0.0932362
-0.106469
-0.106469
-0.0380607
-0.0380607
-0.161333
-0.161333
-0.175014
-0.175014
-0.0831353
-0.0831353
-0.341665
-0.341665
0.0548078
0.0548078
-0.0235182
-0.0235182
-0.0177102
-0.0177102
0.110481
0.110481
0.0568206
0.0568206
-0.0155418
-0.0155418
-0.00120711
-0.00120711
-0.0305355
-0.0305355
-0.0322636
-0.0322636
-0.129147
-0.129147
-0.0852701
-0.0852701
-0.0870813
-0.0870813
-0.0784871
-0.0784871
-0.11528
-0.11528
-0.0267239
-0.0267239
0.0292439
0.0292439
0.0831098
0.0831098
-0.0545752
-0.0545752
-0.0825731
-0.0825731
-0.0337129
-0.0337129
-0.497026
-0.497026
0.0146004
0.0146004
0.0526764
0.0526764
-0.259242
-0.259242
0.0626975
0.0626975
-0.0401463
-0.0401463
0.0350336
0.0350336
-0.447414
-0.447414
-0.0555747
-0.0555747
0.0492148
0.0492148
-0.324253
-0.324253
-0.150906
-0.150906
-0.0832136
-0.0832136
-0.321277
-0.321277
-0.0311602
-0.0311602
-0.0301405
-0.0301405
-0.105528
-0.105528
-0.446601
-0.446601
-0.110347
-0.110347
-0.0143737
-0.0143737
-0.0351207
-0.0351207
0.00819069
0.00819069
-0.221028
-0.221028
-0.116958
-0.116958
0.0186759
0.0186759
-0.0991951
-0.0991951
-0.0386564
-0.0386564
-0.0360858
-0.0360858
-0.16824
-0.16824
-0.182516
-0.182516
-0.260164
-0.260164
-0.00406178
-0.00406178
-0.0584994
-0.0584994
-0.1023
-0.1023
-0.0543853
-0.0543853
-0.0638921
-0.0638921
0.00650566
0.00650566
-0.0862363
-0.0862363
0.0352073
0.0352073
-0.0629275
-0.0629275
-0.048901
-0.048901
-0.0201229
-0.0201229
0.0625352
0.0625352
-0.140964
-0.140964
-0.180965
-0.180965
-0.0178057
-0.0178057
-0.205401
-0.205401
-0.0485959
-0.0485959
-0.322551
-0.322551
-0.533977
-0.533977
0.0323356
0.0323356
0.0604254
0.0604254
0.0313251
0.0313251
-0.127988
-0.127988
0.00158887
0.00158887
-0.00733349
-0.00733349
-0.2189
-0.2189
-0.0142534
-0.0142534
-0.0167888
-0.0167888
0.0086538
0.0086538
-0.0104965
-0.0104965
-0.12776
-0.12776
-0.35509
-0.35509
-0.00736216
-0.00736216
-0.000759216
-0.000759216
-0.0376509
-0.0376509
-0.0404333
-0.0404333
-0.267131
-0.267131
-0.0131273
-0.0131273
-0.203271
-0.203271
0.0106367
0.0106367
-0.0944663
-0.0944663
-0.0625072
-0.0625072
0.0365308
0.0365308
-0.0543568
-0.0543568
0.0216646
0.0216646
0.0182926
0.0182926
-0.0492946
-0.0492946
-0.0103279
-0.0103279
-0.0679734
-0.0679734
-0.0749506
-0.0749506
-0.0231385
-0.0231385
0.0616726
0.0616726
-0.05516
-0.05516
-0.0879828
-0.0879828
0.0599489
0.0599489
-0.0124706
-0.0124706
-0.157293
-0.157293
-0.00633597
-0.00633597
-0.101657
-0.101657
-0.304775
-0.304775
-0.0395529
-0.0395529
-0.0761102
-0.0761102
-0.132287
-0.132287
0.0904155
0.0904155
0.0339677
0.0339677
-0.0731562
-0.0731562
0.02241
0.02241
-0.00948745
-0.00948745
-0.0830266
-0.0830266
-0.0699472
-0.0699472
-0.0662396
-0.0662396
-0.0162013
-0.0162013
0.000633447
0.000633447
-0.0592439
-0.0592439
-0.0622123
-0.0622123
-0.0207721
-0.0207721
-0.0414719
-0.0414719
-0.44249
-0.44249
-0.0147117
-0.0147117
-0.0530461
-0.0530461
-0.0676844
-0.0676844
-0.0293104
-0.0293104
0.0324747
0.0324747
-0.0382443
-0.0382443
-0.0645869
-0.0645869
0.0299837
0.0299837
0.0105637
0.0105637
-0.104027
-0.104027
-0.0782922
-0.0782922
-0.199412
-0.199412
-0.030926
-0.030926
0.00798104
0.00798104
-0.0260299
-0.0260299
-0.0212116
-0.0212116
-0.12004
-0.12004
-0.0145847
-0.0145847
-0.042227
-0.042227
-0.0400193
-0.0400193
-0.225826
-0.225826
-0.0257472
-0.0257472
-0.0251879
-0.0251879
-0.0599491
-0.0599491
-0.188564
-0.188564
-0.00579268
-0.00579268
-0.212558
-0.212558
-0.00650317
-0.00650317
-0.274146
-0.274146
-0.226898
-0.226898
-0.000145484
-0.000145484
0.0571268
0.0571268
0.0180417
0.0180417
-0.167079
-0.167079
-0.0050894
-0.0050894
-0.0518683
-0.0518683
-0.259175
-0.259175
0.0742781
0.0742781
-0.164618
-0.164618
-0.0584788
-0.0584788
-0.153874
-0.153874
-0.215584
-0.215584
0.0939043
0.0939043
-0.0335441
-0.0335441
-0.0858983
-0.0858983
-0.0189137
-0.0189137
-0.0926422
-0.0926422
-0.0210499
-0.0210499
-0.0282139
-0.0282139
-0.0588285
-0.0588285
-0.157462
-0.157462
-0.102721
-0.102721
0.010329
0.010329
-0.175636
-0.175636
-0.0744622
-0.0744622
-0.0879863
-0.0879863
-0.135802
-0.135802
-0.172345
-0.172345
-0.107677
-0.107677
0.0356584
0.0356584
-0.40097
-0.40097
0.0208119
0.0208119
-0.100603
-0.100603
-0.0452099
-0.0452099
-0.251032
-0.251032
-0.145692
-0.145692
0.0757736
0.0757736
-0.129542
-0.129542
-0.190432
-0.190432
-0.0568625
-0.0568625
-0.165385
-0.165385
-0.267889
-0.267889
0.082221
0.082221
-0.0613613
-0.0613613
-0.000755162
-0.000755162
-0.0202227
-0.0202227
-0.230288
-0.230288
-0.220985
-0.220985
-0.0112138
-0.0112138
-0.0660456
-0.0660456
0.0419143
0.0419143
-0.159749
-0.159749
-0.0109403
-0.0109403
-0.363014
-0.363014
-0.261732
-0.261732
-0.039694
-0.039694
-0.0399922
-0.0399922
-0.218358
-0.218358
-0.0869832
-0.0869832
0.130392
0.130392
-0.184166
-0.184166
0.121577
0.121577
-0.0504537
-0.0504537
-0.0475902
-0.0475902
-0.211255
-0.211255
-0.0281157
-0.0281157
-0.00780643
-0.00780643
-0.0425735
-0.0425735
-0.0610116
-0.0610116
-0.049645
-0.049645
-0.0500201
-0.0500201
0.00185846
0.00185846
-0.0316217
-0.0316217
-0.132806
-0.132806
-0.0428465
-0.0428465
-0.0555463
-0.0555463
-0.0377173
-0.0377173
-0.0179443
-0.0179443
-0.0664024
-0.0664024
0.0236334
0.0236334
-0.0444338
-0.0444338
0.00747738
0.00747738
-0.0263623
-0.0263623
-0.291037
-0.291037
-0.0538777
-0.0538777
-0.0848779
-0.0848779
0.0482281
0.0482281
-0.0243749
-0.0243749
0.0174038
0.0174038
-0.0471656
-0.0471656
-0.232531
-0.232531
-0.0168616
-0.0168616
-0.193938
-0.193938
-0.0420697
-0.0420697
-0.00843903
-0.00843903
-0.0509989
-0.0509989
-0.0493456
-0.0493456
-0.0481958
-0.0481958
-0.0633043
-0.0633043
-0.100277
-0.100277
0.0983254
0.0983254
0.00325026
0.00325026
-0.00854977
-0.00854977
-0.0996741
-0.0996741
0.0600033
0.0600033
-0.0274931
-0.0274931
-0.0153732
-0.0153732
-0.0549507
-0.0549507
-0.0467928
-0.0467928
-0.00794659
-0.00794659
-0.0345559
-0.0345559
-0.00112852
-0.00112852
-0.0185651
-0.0185651
-0.0679389
-0.0679389
0.0129271
0.0129271
-0.124962
-0.124962
-0.0616661
-0.0616661
0.125797
0.125797
-0.016389
-0.016389
0.0394147
0.0394147
-0.0397999
-0.0397999
-0.343226
-0.343226
-0.290102
-0.290102
-0.123067
-0.123067
0.0760264
0.0760264
-0.191744
-0.191744
-0.00442776
-0.00442776
-0.0207465
-0.0207465
-0.0227773
-0.0227773
-0.00645659
-0.00645659
-0.051827
-0.051827
-0.0652389
-0.0652389
-0.0196618
-0.0196618
-0.0934575
-0.0934575
-0.429586
-0.429586
-0.0321763
-0.0321763
-0.0503575
-0.0503575
-0.0330417
-0.0330417
-0.115706
-0.115706
0.0361119
0.0361119
-0.191632
-0.191632
-0.00933288
-0.00933288
0.0560905
0.0560905
-0.00960782
-0.00960782
-0.0233633
-0.0233633
-0.29928
-0.29928
-0.298873
-0.298873
-0.261398
-0.261398
-0.00444994
-0.00444994
0.0122598
0.0122598
-0.0564582
-0.0564582
-0.0125566
-0.0125566
-0.0197767
-0.0197767
-0.0234514
-0.0234514
-0.0106943
-0.0106943
0.071337
0.071337
-0.320741
-0.320741
-0.0190753
-0.0190753
-0.00214416
-0.00214416
-0.010547
-0.010547
-0.0272276
-0.0272276
-0.0162775
-0.0162775
0.0246408
0.0246408
-0.179201
-0.179201
-0.0378206
-0.0378206
-0.100215
-0.100215
-0.194357
-0.194357
-0.0659326
-0.0659326
-0.26042
-0.26042
-0.0869756
-0.0869756
-0.0825961
-0.0825961
-0.00653999
-0.00653999
-0.0307059
-0.0307059
0.069754
0.069754
0.101606
0.101606
-0.0212207
-0.0212207
-0.0111152
-0.0111152
0.0227373
0.0227373
-0.134879
-0.134879
-0.0127306
-0.0127306
0.0502538
0.0502538
-0.0500719
-0.0500719
-0.000582373
-0.000582373
-0.0189558
-0.0189558
-0.026645
-0.026645
-0.249128
-0.249128
0.100057
0.100057
-0.0129044
-0.0129044
-0.0923261
-0.0923261
-0.136615
-0.136615
-0.150774
-0.150774
-0.0193148
-0.0193148
-0.0122065
-0.0122065
-0.18489
-0.18489
0.0258791
0.0258791
-0.247047
-0.247047
-0.323989
-0.323989
0.0254574
0.0254574
-0.0205605
-0.0205605
-0.229311
-0.229311
-0.0438426
-0.0438426
-0.0582965
-0.0582965
-0.0961786
-0.0961786
-0.0305132
-0.0305132
0.053177
0.053177
-0.21548
-0.21548
-0.0832261
-0.0832261
0.03335
0.03335
-0.187773
-0.187773
-0.0502466
-0.0502466
-0.043194
-0.043194
-0.0190698
-0.0190698
-0.0166923
-0.0166923
-0.0608844
-0.0608844
-0.11118
-0.11118
-0.0213293
-0.0213293
0.0574419
0.0574419
-0.526806
-0.526806
0.00699094
0.00699094
-0.0262855
-0.0262855
-0.075764
-0.075764
0.0329881
0.0329881
-0.0730112
-0.0730112
-0.0353856
-0.0353856
-0.0500181
-0.0500181
-0.00678203
-0.00678203
0.0155776
0.0155776
0.00978336
0.00978336
0.0183936
0.0183936
-0.264033
-0.264033
-0.0721309
-0.0721309
0.0101578
0.0101578
0.0700549
0.0700549
0.0144803
0.0144803
0.0664985
0.0664985
-0.0319392
-0.0319392
0.0164828
0.0164828
-0.0337182
-0.0337182
-0.0360742
-0.0360742
-0.45121
-0.45121
0.0249078
0.0249078
-0.378589
-0.378589
0.0638547
0.0638547
0.00423288
0.00423288
-0.0703154
-0.0703154
-0.0378193
-0.0378193
-0.120535
-0.120535
-0.136235
-0.136235
-0.044019
-0.044019
-0.00581596
-0.00581596
0.0692478
0.0692478
-0.159076
-0.159076
-0.0407576
-0.0407576
-0.0341527
-0.0341527
0.096078
0.096078
0.00193688
0.00193688
-0.00880814
-0.00880814
0.00147822
0.00147822
-0.0148736
-0.0148736
-0.0998249
-0.0998249
-0.21342
-0.21342
-0.245589
-0.245589
-0.0365094
-0.0365094
0.0515436
0.0515436
-0.249397
-0.249397
-0.0967533
-0.0967533
0.0932549
0.0932549
-0.0113705
-0.0113705
0.00202038
0.00202038
-0.0692565
-0.0692565
-0.056531
-0.056531
-0.0153371
-0.0153371
-0.238734
-0.238734
0.145663
0.145663
-0.170261
-0.170261
-0.0154761
-0.0154761
-0.0732804
-0.0732804
-0.314023
-0.314023
0.0133173
0.0133173
-0.0603404
-0.0603404
-0.275045
-0.275045
0.103821
0.103821
-0.0074286
-0.0074286
0.0148392
0.0148392
-0.0435621
-0.0435621
0.0585667
0.0585667
-0.00395511
-0.00395511
-0.0114527
-0.0114527
-0.0810954
-0.0810954
-0.132002
-0.132002
-0.405131
-0.405131
-0.314822
-0.314822
0.0376007
0.0376007
-0.299023
-0.299023
-0.0575388
-0.0575388
-0.0285981
-0.0285981
0.00361238
0.00361238
-0.0933068
-0.0933068
0.021985
0.021985
-0.011394
-0.011394
0.019617
0.019617
-0.0100219
-0.0100219
0.000606422
0.000606422
-0.0816075
-0.0816075
-0.0495412
-0.0495412
-0.010651
-0.010651
-0.15988
-0.15988
0.00746718
0.00746718
-0.0601875
-0.0601875
-0.0696435
-0.0696435
0.0509724
0.0509724
-0.0806703
-0.0806703
-0.0372743
-0.0372743
0.080417
0.080417
0.0206577
0.0206577
0.0746662
0.0746662
-0.0966424
-0.0966424
-0.00396838
-0.00396838
-0.201148
-0.201148
-0.0617058
-0.0617058
-0.299823
-0.299823
-0.163587
-0.163587
-0.300176
-0.300176
-0.0237055
-0.0237055
-0.207857
-0.207857
0.00729334
0.00729334
-0.05488
-0.05488
-0.263263
-0.263263
-0.300167
-0.300167
0.0445595
0.0445595
-0.0596706
-0.0596706
0.0551699
0.0551699
0.0715884
0.0715884
-0.110155
-0.110155
-0.280101
-0.280101
-0.00943815
-0.00943815
0.0237551
0.0237551
0.0180127
0.0180127
0.0538582
0.0538582
-0.148421
-0.148421
-0.0549522
-0.0549522
0.00610111
0.00610111
-0.0556175
-0.0556175
-0.061582
-0.061582
-0.0760936
-0.0760936
0.0298876
0.0298876
-0.165448
-0.165448
-0.0198442
-0.0198442
-0.0174783
-0.0174783
-0.0366969
-0.0366969
-0.0536329
-0.0536329
-0.0153164
-0.0153164
-0.181491
-0.181491
-0.258703
-0.258703
-0.0392594
-0.0392594
-0.00900802
-0.00900802
-0.0583186
-0.0583186
0.0119065
0.0119065
-0.267673
-0.267673
-0.00351185
-0.00351185
0.0756546
0.0756546
-0.325553
-0.325553
-0.00675328
-0.00675328
-0.0829781
-0.0829781
-0.0916576
-0.0916576
-0.199248
-0.199248
-0.0462347
-0.0462347
-0.0504396
-0.0504396
-0.00626816
-0.00626816
-0.229332
-0.229332
-0.0581329
-0.0581329
-0.154383
-0.154383
0.00644985
0.00644985
-0.0224733
-0.0224733
0.0267643
0.0267643
0.0382254
0.0382254
-0.10992
-0.10992
0.00749048
0.00749048
0.00871395
0.00871395
0.00587939
0.00587939
0.00183538
0.00183538
-0.00987946
-0.00987946
-0.063741
-0.063741
-0.0644059
-0.0644059
-0.134432
-0.134432
-0.02027
-0.02027
0.0621187
0.0621187
-0.070647
-0.070647
-0.209151
-0.209151
0.0473684
0.0473684
-0.0690734
-0.0690734
-0.0229068
-0.0229068
-0.0637014
-0.0637014
-0.0468574
-0.0468574
-0.0375457
-0.0375457
-0.0200437
-0.0200437
-0.174421
-0.174421
-0.0229795
-0.0229795
-0.0377789
-0.0377789
-0.0368652
-0.0368652
-0.217694
-0.217694
-0.355155
-0.355155
-0.0453787
-0.0453787
-0.0234504
-0.0234504
-0.224587
-0.224587
-0.0512846
-0.0512846
-0.0226967
-0.0226967
-0.145733
-0.145733
-0.156541
-0.156541
-0.0651429
-0.0651429
-0.0148508
-0.0148508
-0.123069
-0.123069
0.0206856
0.0206856
0.0423309
0.0423309
0.00404757
0.00404757
-0.012954
-0.012954
-0.0434563
-0.0434563
0.0421465
0.0421465
0.111231
0.111231
-0.225251
-0.225251
-0.0311501
-0.0311501
-0.0439568
-0.0439568
-0.0959715
-0.0959715
-0.0687734
-0.0687734
0.025492
0.025492
-0.0797731
-0.0797731
0.0427836
0.0427836
-0.184162
-0.184162
-0.26105
-0.26105
0.124462
0.124462
-0.210246
-0.210246
-0.253767
-0.253767
-0.167082
-0.167082
-0.088742
-0.088742
-0.0321297
-0.0321297
-0.0330943
-0.0330943
-0.127245
-0.127245
-0.0886804
-0.0886804
0.00260668
0.00260668
-0.0304073
-0.0304073
-0.0132488
-0.0132488
0.0283133
0.0283133
-0.0839485
-0.0839485
-0.184328
-0.184328
-0.38663
-0.38663
-0.26643
-0.26643
-0.150154
-0.150154
-0.103142
-0.103142
-0.457257
-0.457257
-0.0213242
-0.0213242
-0.197504
-0.197504
0.0467017
0.0467017
-0.00646914
-0.00646914
-0.265978
-0.265978
-0.088149
-0.088149
-0.0760741
-0.0760741
-0.203833
-0.203833
-0.0163975
-0.0163975
-0.0286396
-0.0286396
-0.0168801
-0.0168801
-0.0396483
-0.0396483
-0.200317
-0.200317
-0.0250332
-0.0250332
-0.0197897
-0.0197897
-0.0177537
-0.0177537
-0.00386926
-0.00386926
-0.149985
-0.149985
-0.0087447
-0.0087447
-0.27472
-0.27472
-0.453185
-0.453185
-0.0464293
-0.0464293
0.0388494
0.0388494
-0.0833629
-0.0833629
-0.0863805
-0.0863805
-0.0316026
-0.0316026
-0.113921
-0.113921
0.0216142
0.0216142
-0.0205139
-0.0205139
-0.0154412
-0.0154412
-0.0125215
-0.0125215
-0.0108864
-0.0108864
-0.00849966
-0.00849966
-0.00667253
-0.00667253
-0.00491607
-0.00491607
-0.003325
-0.003325
-0.00200187
-0.00200187
-0.000668686
-0.000668686
0.000451164
0.000451164
0.00144513
0.00144513
0.00241306
0.00241306
0.0030123
0.0030123
0.00355928
0.00355928
0.00406846
0.00406846
0.00425844
0.00425844
0.00443218
0.00443218
0.00432617
0.00432617
0.00429717
0.00429717
0.003913
0.003913
0.00333616
0.00333616
0.00290532
0.00290532
0.00211292
0.00211292
0.00124225
0.00124225
3.03675e-05
3.03675e-05
-0.000988146
-0.000988146
-0.00209006
-0.00209006
-0.00384298
-0.00384298
-0.00525885
-0.00525885
-0.00781873
-0.00781873
-0.00927578
-0.00927578
-0.0108554
-0.0108554
-0.0146236
-0.0146236
-0.0174671
-0.0174671
-0.0184613
-0.0184613
-0.0218975
-0.0218975
-0.0284251
-0.0284251
-0.0312453
-0.0312453
-0.0345012
-0.0345012
-0.0427503
-0.0427503
-0.0505645
-0.0505645
-0.0595542
-0.0595542
-0.0723094
-0.0723094
-0.0944963
-0.0944963
-0.115947
-0.115947
-0.160758
-0.160758
-0.190651
-0.190651
-0.0922499
-0.0922499
0.0126482
0.0126482
-0.0277091
-0.0277091
-0.0414727
-0.0414727
-0.0335792
-0.0335792
-0.0336924
-0.0336924
-0.0315156
-0.0315156
-0.0422848
-0.0422848
-0.0600936
-0.0600936
-0.0706975
-0.0706975
-0.0819304
-0.0819304
-0.0926163
-0.0926163
-0.100047
-0.100047
-0.101684
-0.101684
-0.0988201
-0.0988201
-0.0935927
-0.0935927
-0.0857354
-0.0857354
-0.0762065
-0.0762065
-0.0654568
-0.0654568
-0.0555585
-0.0555585
-0.0459915
-0.0459915
-0.0385744
-0.0385744
-0.0353897
-0.0353897
-0.032225
-0.032225
-0.0183729
-0.0183729
-0.0170774
-0.0170774
-0.0147649
-0.0147649
-0.0112035
-0.0112035
-0.00929307
-0.00929307
-0.00799583
-0.00799583
-0.00524274
-0.00524274
-0.00404653
-0.00404653
-0.00207473
-0.00207473
-0.00096255
-0.00096255
3.60986e-05
3.60986e-05
0.00128987
0.00128987
0.002109
0.002109
0.00288676
0.00288676
0.00329124
0.00329124
0.00399767
0.00399767
0.00416841
0.00416841
0.00431309
0.00431309
0.00422046
0.00422046
0.00435879
0.00435879
0.00401028
0.00401028
0.00352313
0.00352313
0.00309344
0.00309344
0.0022692
0.0022692
0.00148125
0.00148125
0.000483689
0.000483689
-0.000709152
-0.000709152
-0.00192205
-0.00192205
-0.00341386
-0.00341386
-0.00499145
-0.00499145
-0.00684329
-0.00684329
-0.00858594
-0.00858594
-0.0106377
-0.0106377
-0.0127788
-0.0127788
-0.0156847
-0.0156847
-0.0208747
-0.0208747
-0.031621
-0.031621
-0.0355076
-0.0355076
-0.0386205
-0.0386205
-0.0461692
-0.0461692
-0.0555359
-0.0555359
-0.0660981
-0.0660981
-0.0772803
-0.0772803
-0.0867285
-0.0867285
-0.0947242
-0.0947242
-0.0999235
-0.0999235
-0.101913
-0.101913
-0.100005
-0.100005
-0.0941826
-0.0941826
-0.0809525
-0.0809525
-0.0673378
-0.0673378
-0.0534463
-0.0534463
-0.0434392
-0.0434392
-0.0378523
-0.0378523
-0.0297329
-0.0297329
-0.0307177
-0.0307177
-0.0328665
-0.0328665
-0.0263917
-0.0263917
-0.00745054
-0.00745054
-0.0769066
-0.0769066
-0.177417
-0.177417
-0.174407
-0.174407
-0.126926
-0.126926
-0.0895159
-0.0895159
-0.0761084
-0.0761084
-0.0569038
-0.0569038
-0.0495427
-0.0495427
-0.0447602
-0.0447602
-0.0355367
-0.0355367
-0.029885
-0.029885
-0.0280153
-0.0280153
-0.0235236
-0.0235236
      </DataArray> 
    </PointData>
    <CellData>
    </CellData>
  </Piece>
  </UnstructuredGrid>
</VTKFile>
