<?xml version="1.0"?>
<VTKFile type="UnstructuredGrid">
  <UnstructuredGrid>
  <Piece NumberOfPoints="3487"  NumberOfCells="1698">
    <Points>
      <DataArray type="Float64" NumberOfComponents="3" format="ascii">
39.9737 48.7997 0
60.0266 48.7992 0
40.6343 48.9304 0
41.2964 49.0523 0
41.96 49.1651 0
42.625 49.269 0
43.2913 49.3639 0
43.9588 49.4498 0
44.6274 49.5267 0
45.2969 49.5945 0
45.9673 49.6533 0
46.6383 49.7031 0
47.31 49.7439 0
47.9821 49.7756 0
48.6546 49.7982 0
49.3274 49.8118 0
50.0002 49.8163 0
50.6731 49.8117 0
51.3459 49.7981 0
52.0184 49.7754 0
52.6905 49.7437 0
53.3622 49.703 0
54.0332 49.6531 0
54.7036 49.5943 0
55.3731 49.5264 0
56.0416 49.4495 0
56.7091 49.3636 0
57.3753 49.2686 0
58.0403 49.1648 0
58.7039 49.0519 0
59.366 48.93 0
39.9969 49.8155 0
39.9959 49.5615 0
39.9916 49.3075 0
39.9842 49.0536 0
19.9478 69.7665 0
39.9946 50.0771 0
39.9889 50.3387 0
39.9745 50.7171 0
39.953 51.0951 0
39.9092 51.6414 0
39.8504 52.1862 0
39.7389 52.9713 0
39.5964 53.7514 0
39.3355 54.8688 0
39.0109 55.9696 0
38.7369 56.7534 0
38.4306 57.5252 0
38.0924 58.2837 0
37.723 59.0275 0
37.1345 60.0752 0
36.4842 61.0858 0
35.7743 62.0554 0
-0.0273845 49.7417 0
17.3378 69.5908 0
14.7729 69.0763 0
12.297 68.2318 0
9.95229 67.0717 0
7.77897 65.6158 0
11.5304 31.7363 0
0.176886 46.9227 0
0.777539 44.161 0
1.76274 41.5121 0
0 0 0
0.126347 3.71755 0
0.538029 7.41832 0
1.22975 11.0791 0
2.19693 14.6766 0
3.10161 17.3265 0
49.9998 -0.175668 0
5.1116 0 0
10.2232 0 0
15.3348 0 0
100 0 0
57.3986 -0.170176 0
64.7973 -0.150126 0
72.192 -0.108175 0
88.4699 31.7359 0
99.8737 3.71754 0
99.4621 7.41819 0
98.7703 11.079 0
97.8032 14.6765 0
96.8985 17.3263 0
100.027 49.7415 0
99.8232 46.9225 0
99.2226 44.1608 0
98.2373 41.5118 0
80.0521 69.7662 0
99.8599 52.3519 0
99.3526 54.9181 0
98.5145 57.396 0
97.3599 59.7434 0
95.9087 61.9199 0
60.0033 49.815 0
77.5412 69.6128 0
75.0694 69.1459 0
72.6756 68.3727 0
70.3976 67.3053 0
68.9103 66.4047 0
67.5067 65.3783 0
66.1975 64.2339 0
64.9926 62.9802 0
64.2257 62.055 0
63.5159 61.0853 0
62.8655 60.0748 0
62.277 59.0271 0
61.5695 57.5249 0
60.9892 55.9691 0
60.6646 54.8684 0
60.4037 53.7509 0
60.2612 52.9708 0
60.0043 49.561 0
60.0086 49.307 0
60.016 49.0531 0
52.8188 30.0701 0
26.5298 36.893 0
40.3337 24.1962 0
24.9378 22.4672 0
71.9327 22.4939 0
72.705 43.9509 0
54.8026 24.02 0
15.3005 47.4125 0
38.3604 49.4281 0
23.5953 65.2407 0
7.69497 7.73977 0
91.9467 7.71815 0
29.1614 56.8869 0
37.1827 51.8998 0
28.0882 47.1965 0
29.7271 48.1577 0
71.5154 46.6811 0
30.9853 49.056 0
70.5152 48.1594 0
31.6361 45.6421 0
30.8869 47.098 0
70.0642 46.6693 0
68.9832 44.9924 0
31.2893 50.1513 0
30.9015 51.3747 0
28.1865 49.1539 0
45.308 41.2743 0
53.844 40.8955 0
56.0279 40.4444 0
73.1282 47.4367 0
70.1157 49.4002 0
68.3322 42.4209 0
32.3113 42.751 0
26.1364 45.6788 0
27.6769 44.6825 0
30.3044 43.3096 0
70.413 42.6203 0
72.677 45.9471 0
44.8487 43.0669 0
51.4307 41.9734 0
55.4101 42.5598 0
32.4491 49.0916 0
68.5563 49.6359 0
39.4766 42.0583 0
35.4393 43.3754 0
32.8943 46.5402 0
33.5765 48.2885 0
67.1046 48.2337 0
67.9829 46.4708 0
65.0733 43.0388 0
60.4197 41.6959 0
32.3653 51.4107 0
28.2139 51.0133 0
41.7774 37.2802 0
46.8231 37.6848 0
52.0492 39.8579 0
58.6789 39.2276 0
26.6024 51.9108 0
24.2974 50.3452 0
74.2294 49.9514 0
71.1675 50.6526 0
69.1451 52.2325 0
67.9198 52.3657 0
59.7635 36.3472 0
66.5036 40.6659 0
34.1071 41.0423 0
36.0242 35.7785 0
23.1822 47.1746 0
21.646 43.2768 0
28.3529 41.7928 0
74.3176 44.7067 0
76.6387 48.5584 0
43.0538 43.6549 0
46.2684 42.9406 0
49.9681 42.9886 0
48.4326 42.7714 0
51.7632 44.0262 0
54.0885 44.1419 0
52.9062 44.4375 0
56.273 43.6907 0
33.8805 49.3841 0
33.7809 50.898 0
66.5389 51.7137 0
66.5968 49.7221 0
41.8315 43.8925 0
40.7023 43.6302 0
38.46 43.2378 0
37.1416 43.8433 0
35.3459 45.5521 0
34.3256 46.8322 0
66.0237 46.5564 0
65.0189 45.2822 0
63.1904 43.5271 0
61.7049 43.0775 0
58.879 43.4906 0
57.5395 43.8067 0
33.393 52.1217 0
29.163 53.7344 0
40.8332 31.0022 0
50.8854 35.9988 0
55.6682 34.2809 0
23.5563 53.4593 0
76.9218 51.9277 0
70.2416 53.3406 0
66.4101 52.9553 0
65.4738 35.163 0
30.9516 34.5806 0
19.4443 47.2975 0
26.1279 40.0294 0
72.0038 34.1012 0
72.0534 41.3806 0
77.4856 45.3112 0
43.1669 45.0971 0
45.8092 44.7332 0
48.7647 44.8242 0
51.4434 45.4527 0
53.769 45.5685 0
56.2181 45.389 0
34.9084 50.0949 0
65.087 50.3114 0
40.815 45.0723 0
38.3673 45.4153 0
36.0285 47.3008 0
64.1403 47.0456 0
61.6499 45.322 0
58.8246 45.1888 0
36.0655 52.3693 0
34.9141 53.1328 0
33.4986 53.6453 0
31.8973 55.4383 0
26.0869 58.9096 0
22.9906 57.3147 0
32.3974 22.7033 0
47.0368 26.6885 0
63.138 23.0481 0
19.9837 55.0244 0
80.194 54.2897 0
75.8063 55.7965 0
71.9432 56.1475 0
69.0957 55.4671 0
65.7779 53.9639 0
64.1018 53.8076 0
68.1532 29.0034 0
26.7769 30.0918 0
17.2339 51.756 0
14.5989 42.4531 0
22.4028 34.0704 0
84.8985 46.8741 0
84.7261 52.0287 0
75.1694 37.9401 0
81.2142 43.9478 0
42.4564 46.4278 0
41.4158 46.2362 0
44.9654 46.2731 0
43.679 46.1901 0
47.7361 46.2143 0
46.3854 46.1469 0
50.62 46.5276 0
49.272 46.4316 0
53.0508 46.9228 0
51.7632 46.939 0
55.5133 46.5352 0
54.2334 46.6272 0
58.0616 46.489 0
56.7801 46.6512 0
36.3727 48.6233 0
36.0255 49.6252 0
35.9258 51.1395 0
63.3878 52.0733 0
63.831 51.0605 0
63.889 49.0684 0
63.8376 48.1654 0
40.2864 45.9737 0
39.3706 46.1534 0
38.0519 46.7586 0
37.3932 47.343 0
62.8328 46.8912 0
62.0171 46.5663 0
60.5312 46.117 0
59.4015 46.1727 0
38.0568 52.5701 0
36.1709 53.8933 0
34.067 56.7554 0
29.5882 59.8257 0
22.8614 61.3746 0
21.74 15.4159 0
39.966 16.2222 0
48.9011 11.5054 0
56.9423 16.9529 0
76.6433 15.6538 0
15.6249 57.073 0
84.5341 57.5083 0
73.4218 59.4912 0
66.5266 55.6244 0
62.4605 53.578 0
82.9399 7.83915 0
79.7402 22.6121 0
16.3083 7.92058 0
18.3498 22.3273 0
10.7137 46.7745 0
16.5819 36.0084 0
15.5256 30.4101 0
89.4141 49.6509 0
83.3073 31.2541 0
81.575 39.3043 0
41.9278 47.3293 0
44.2551 47.6038 0
46.8926 47.7543 0
49.5916 47.9179 0
52.2274 47.9977 0
54.7951 47.8895 0
57.3569 47.6354 0
37.3903 49.6679 0
37.9173 51.3399 0
62.1896 50.8303 0
62.5813 48.9143 0
39.9713 47.3175 0
38.3965 48.0815 0
38.5114 48.8515 0
61.7654 48.55 0
61.7141 47.6865 0
59.7685 47.4176 0
38.8872 51.1005 0
61.3499 51.0349 0
39.1939 52.8808 0
38.4593 53.4405 0
38.1667 54.5495 0
37.0153 55.3128 0
36.5103 57.086 0
34.8614 58.6083 0
33.3532 60.4653 0
30.7358 62.5751 0
27.9748 64.7261 0
27.1707 7.83158 0
38.6567 8.35821 0
59.8761 8.58268 0
71.7654 7.91231 0
19.2209 64.685 0
14.9246 62.9507 0
10.7256 60.1625 0
6.2787 57.1184 0
5.98915 51.1861 0
94.2448 52.2831 0
93.3307 57.3371 0
89.3469 60.6819 0
84.595 63.1945 0
79.4881 64.8669 0
74.5889 63.9007 0
70.2803 62.6201 0
66.8426 61.1672 0
65.2268 58.4955 0
62.7257 57.1696 0
62.0818 55.6406 0
61.7891 54.5316 0
61.0751 52.7971 0
93.493 14.5476 0
89.7944 20.7213 0
86.1071 25.0701 0
6.25341 14.5406 0
13.0119 24.5345 0
9.79041 20.7106 0
5.7536 45.6187 0
5.65096 40.676 0
12.3052 34.7384 0
94.2362 47.1647 0
88.1187 37.0859 0
93.3631 42.4368 0
41.0916 48.095 0
40.4305 47.9687 0
42.1325 48.2866 0
43.4636 48.4853 0
42.7967 48.3949 0
44.7502 48.5683 0
46.0899 48.6949 0
45.4192 48.6406 0
47.4409 48.7624 0
48.7854 48.8167 0
48.1128 48.7986 0
50.1336 48.9128 0
51.479 48.8947 0
50.8064 48.9128 0
52.7667 48.8784 0
54.1093 48.7879 0
53.4386 48.8422 0
55.3894 48.6959 0
56.7253 48.5331 0
56.0584 48.6235 0
58.0071 48.3709 0
59.3325 48.1362 0
58.6714 48.2625 0
39.3722 51.5527 0
39.3209 52.0982 0
60.9481 52.0145 0
60.8968 51.469 0
38.013 50.4302 0
39.1341 49.6139 0
61.793 50.0218 0
61.8168 49.4532 0
60.977 49.6576 0
39.5145 48.1483 0
39.1704 48.2671 0
60.9494 48.2253 0
60.4624 48.0804 0
39.468 50.6428 0
60.5002 50.6604 0
39.4899 50.003 0
39.4859 50.2646 0
60.4823 50.2822 0
60.4783 50.0206 0
39.6411 49.4262 0
39.6294 48.9185 0
39.6385 49.1723 0
60.502 49.4518 0
60.5046 49.1979 0
60.5137 48.9441 0
61.0008 49.089 0
39.2852 49.0372 0
60.9533 50.2263 0
38.9829 50.1906 0
60.8983 47.3617 0
39.0553 47.497 0
62.6328 49.8174 0
37.043 50.6699 0
61.7466 51.8434 0
38.7914 52.0103 0
58.6386 47.4731 0
56.0752 47.7975 0
53.515 47.9815 0
50.9397 48.014 0
48.2434 47.8218 0
45.5416 47.6868 0
42.9686 47.5208 0
40.8871 47.1376 0
89.1574 44.8046 0
10.9229 40.9322 0
13.281 16.184 0
85.881 16.3925 0
63.1746 55.3124 0
68.9251 58.4817 0
78.9535 59.8798 0
89.2998 54.9342 0
11.7626 52.8818 0
19.2244 59.7068 0
66.7123 15.7699 0
30.759 15.4892 0
26.3468 62.1475 0
32.1549 57.9964 0
35.0195 54.6567 0
37.3222 53.1298 0
62.53 48.0112 0
37.7375 48.6659 0
75.942 28.6961 0
20.5115 28.6042 0
47.9147 19.3074 0
60.1643 44.8723 0
63.1358 45.7712 0
37.0485 46.0204 0
39.6857 44.8098 0
65.1453 48.3196 0
65.0293 52.3034 0
34.8086 51.6091 0
35.0079 48.5809 0
57.4848 45.505 0
54.9515 45.2729 0
52.5865 45.8641 0
50.3004 45.0414 0
47.229 44.607 0
44.3893 44.8594 0
41.9444 45.3347 0
74.3455 42.7111 0
80.2674 48.8996 0
17.9956 43.355 0
21.3085 50.8106 0
34.4409 29.7226 0
59.9861 30.2745 0
67.7909 53.6071 0
73.4042 53.0461 0
54.4621 38.7801 0
46.5081 32.9359 0
26.2307 55.4159 0
31.9774 52.6343 0
69.7622 40.0492 0
30.9795 40.4189 0
57.5942 42.1085 0
63.2453 41.2832 0
66.9022 44.7936 0
33.6432 45.0839 0
37.2344 41.6662 0
41.7186 42.4504 0
68.0487 51.1244 0
32.7531 50.1871 0
53.2258 43.011 0
49.6359 40.9358 0
74.2898 46.7027 0
25.7252 43.1656 0
71.9666 48.171 0
26.5475 48.1927 0
69.064 48.1478 0
32.1451 47.9963 0
71.0645 45.1912 0
29.6286 46.2001 0
29.8254 50.1155 0
88.155 34.4249 0
96.8871 39.0294 0
91.3009 35.7901 0
92.2295 38.6538 0
96.0832 37.8664 0
88.4971 40.8238 0
3.11301 39.0296 0
11.8703 33.1957 0
10.0031 35.0687 0
3.917 37.8666 0
8.31759 37.572 0
11.6917 37.0804 0
11.4009 22.6232 0
10.986 26.4823 0
9.37516 24.573 0
11.8635 28.9703 0
4.15493 19.9199 0
5.35355 22.4484 0
8.24066 22.8055 0
11.5352 18.4464 0
13.1455 20.3597 0
8.02121 17.6272 0
6.97201 20.3157 0
5.20323 17.229 0
6.69338 24.9038 0
7.79066 26.6958 0
4.22484 14.6087 0
9.76642 15.3633 0
87.9511 22.8962 0
90.4174 24.5778 0
88.5736 26.7489 0
91.5519 22.8105 0
95.8452 19.9198 0
94.6465 22.4483 0
87.7185 29.2862 0
85.9952 20.7318 0
87.8382 18.556 0
91.6444 17.6361 0
94.6701 17.2324 0
92.8206 20.321 0
95.6485 14.6122 0
93.3066 24.9035 0
92.2093 26.6955 0
89.6879 15.4712 0
65.8213 8.24032 0
62.3325 4.21474 0
68.2804 3.8779 0
54.9419 4.19996 0
79.5536 0 0
84.6652 0 0
75.6593 3.94448 0
69.2379 11.839 0
63.2939 12.176 0
32.9133 8.08749 0
31.1875 3.83677 0
36.9334 4.1032 0
23.8088 3.90634 0
20.4464 0 0
27.8084 -0.107784 0
44.3239 4.08677 0
34.7087 11.9235 0
28.9655 11.659 0
81.6574 35.1158 0
85.4285 34.6122 0
85.0546 38.1966 0
86.297 31.6636 0
85.0277 42.2756 0
77.295 34.0502 0
80.0357 31.2265 0
16.0589 32.9296 0
14.1045 35.3391 0
13.9145 32.8817 0
14.1603 38.566 0
13.5271 31.0755 0
17.6145 30.0595 0
18.746 33.0279 0
16.5206 27.377 0
14.1033 28.3363 0
15.6809 23.4299 0
15.8154 19.2553 0
19.4318 25.4644 0
81.6195 27.311 0
82.9236 23.8404 0
84.856 28.7235 0
82.8102 19.5011 0
77.8396 25.6524 0
79.7909 11.7447 0
74.2021 11.7875 0
77.3485 7.88256 0
71.6756 15.7106 0
81.2485 3.91697 0
84.411 12.115 0
81.2613 16.0239 0
52.9224 14.2279 0
54.3876 10.0406 0
58.4079 12.7674 0
49.45 5.66412 0
61.8268 16.3586 0
52.4282 18.1284 0
48.4079 15.4066 0
44.433 13.8622 0
39.3125 12.2902 0
43.7799 9.92863 0
35.3631 15.8531 0
43.9408 17.7632 0
19.0243 11.6674 0
21.7426 7.88406 0
24.4573 11.6284 0
18.3757 3.95748 0
26.2516 15.4522 0
17.5109 15.8005 0
14.794 12.0514 0
74.6493 34.0757 0
78.7633 37.4892 0
78.1002 41.0813 0
74.7574 40.3254 0
21.4585 31.3367 0
19.368 36.7606 0
17.066 39.5786 0
19.7394 40.3821 0
73.9721 31.3978 0
73.586 36.021 0
72.4658 38.9943 0
70.8828 37.0746 0
68.7386 34.6318 0
66.8131 32.0825 0
70.0779 31.5529 0
62.7294 32.7191 0
64.0693 29.6382 0
72.0472 28.8498 0
67.6172 37.6067 0
32.6967 32.152 0
35.2328 32.7501 0
33.488 35.1793 0
33.5026 38.0994 0
36.6294 38.7221 0
30.9659 37.4997 0
59.8746 33.3107 0
62.6185 35.7549 0
64.3595 38.2226 0
61.5039 38.8155 0
57.8272 32.2772 0
57.7157 35.3141 0
57.1129 37.5635 0
55.0652 36.5304 0
46.6656 35.3103 0
48.6966 34.4672 0
48.8543 36.8418 0
50.2607 38.4673 0
52.6736 37.3894 0
48.2293 39.3103 0
38.9009 36.5291 0
38.4292 33.3907 0
41.3054 34.141 0
37.6372 30.3619 0
43.6706 31.9688 0
44.1431 35.1081 0
39.5064 39.4736 0
44.3002 37.4825 0
46.0656 39.4796 0
43.5134 41.8624 0
47.472 41.1051 0
43.5426 39.2771 0
41.7481 39.8652 0
90.8635 3.85884 0
87.4441 7.78067 0
86.364 3.9248 0
88.9162 12.0586 0
89.7768 0 0
94.8884 0 0
95.9771 3.86132 0
96.4797 10.9864 0
92.7209 11.1322 0
95.7045 7.56968 0
91.0368 28.4373 0
90.422 29.2879 0
4.11633 7.58048 0
6.97306 11.1395 0
3.39362 10.9828 0
10.4857 11.9649 0
8.96329 28.4378 0
9.57802 29.2885 0
3.8438 3.87194 0
13.2603 3.96484 0
12.0008 7.83191 0
8.95734 3.86954 0
35.2025 -0.149896 0
42.6012 -0.170004 0
58.97 23.5328 0
55.8721 20.4864 0
60.0399 20.0007 0
51.3588 21.6631 0
64.9245 19.4081 0
61.5617 26.6608 0
57.394 27.1476 0
67.5345 22.7701 0
70.0421 25.7476 0
65.6451 26.0267 0
73.9371 25.596 0
69.3219 19.1337 0
78.1923 19.1337 0
75.8354 22.5528 0
74.2869 19.0714 0
23.3396 18.9398 0
21.6446 22.3969 0
20.0443 18.8722 0
22.7245 25.5367 0
27.8489 18.9806 0
29.5877 26.399 0
25.8585 26.2785 0
28.6684 22.5849 0
23.6446 29.3478 0
31.5786 19.0959 0
33.4197 26.2125 0
30.6093 29.9071 0
40.5838 27.5994 0
43.6854 25.4416 0
43.9354 28.8455 0
44.1243 21.7514 0
47.4759 22.9982 0
46.7725 29.8124 0
37.3878 26.9601 0
36.1823 19.4634 0
40.1504 20.2094 0
36.3661 23.4485 0
26.6544 33.4923 0
24.4663 35.4813 0
24.5905 32.0818 0
22.5905 39.0414 0
28.8646 32.3354 0
28.7411 35.7371 0
28.7546 38.6554 0
51.8522 33.0343 0
54.2434 32.1754 0
53.2769 35.1397 0
56.4023 30.1718 0
49.6636 31.5028 0
50.9197 25.3534 0
53.8107 27.0451 0
49.9277 28.379 0
6.55941 37.1674 0
6.98399 39.1231 0
5.2255 38.7203 0
9.61955 39.2532 0
8.28626 40.8041 0
4.38179 39.8527 0
4.8016 36.7638 0
5.76262 35.7271 0
7.5554 36.1675 0
10.8468 36.0755 0
10.0041 37.3262 0
9.15994 36.3194 0
11.3068 39.0055 0
8.39879 34.9141 0
11.1537 34.9041 0
11.9981 35.9088 0
11.6963 30.3568 0
10.211 30.1245 0
11.0363 29.5454 0
12.4369 26.7526 0
10.4128 28.7036 0
10.861 30.9429 0
89.7891 30.1238 0
88.0943 30.5137 0
88.7549 29.7026 0
89.3784 28.861 0
86.9137 27.1784 0
89.1395 30.9422 0
85.8623 33.1376 0
87.2236 33.047 0
86.7914 34.5205 0
87.3833 31.7009 0
88.3135 33.0791 0
88.1372 35.7549 0
86.7736 35.8501 0
84.366 32.9343 0
84.8023 31.4591 0
86.7762 39.5104 0
86.7625 41.5504 0
85.0415 40.2356 0
88.8275 42.8137 0
87.0929 43.5401 0
83.3013 40.7905 0
83.3147 38.7509 0
86.5867 37.6424 0
88.3083 38.9542 0
79.4759 34.5835 0
78.6651 32.638 0
80.8454 33.1715 0
76.6176 31.3732 0
77.9887 29.9616 0
81.6716 31.2404 0
82.4816 33.1846 0
81.6162 37.2099 0
80.2105 36.3023 0
14.132 36.952 0
12.9259 37.824 0
12.8979 36.2104 0
12.5412 39.7491 0
13.205 35.0394 0
15.3433 35.6741 0
15.3713 37.2878 0
12.893 33.0403 0
12.702 32.1383 0
13.7217 31.9785 0
11.7003 32.4656 0
12.5291 31.4074 0
14.5263 30.743 0
14.7215 31.6465 0
13.1106 33.8114 0
12.0876 33.9667 0
16.8376 31.4948 0
18.181 31.5435 0
17.4024 32.9789 0
19.0629 29.3321 0
19.6298 30.8162 0
17.6648 34.5188 0
16.3206 34.4689 0
15.7932 31.6697 0
16.57 30.2349 0
13.8155 29.7062 0
12.6966 30.0206 0
12.9835 28.6519 0
13.5573 26.4355 0
14.8153 29.3724 0
16.0234 28.8937 0
17.0682 28.7179 0
18.5166 27.9901 0
17.4348 24.8525 0
86.287 29.0034 0
87.0054 30.4726 0
85.5759 30.1939 0
84.0806 29.9882 0
85.4815 26.8964 0
82.4628 29.2827 0
80.8265 29.2682 0
80.6801 24.9617 0
78.7801 28.0031 0
80.1689 38.3972 0
79.8376 40.1928 0
78.4318 39.2851 0
76.6344 39.5111 0
76.2228 41.8961 0
76.9663 37.7147 0
15.6132 39.0728 0
15.8323 41.016 0
14.3792 40.5091 0
17.5306 41.4665 0
16.2973 42.9044 0
12.7607 41.6934 0
16.8237 37.7932 0
19.5536 38.5712 0
18.4028 39.9806 0
18.2173 38.1701 0
18.8675 41.8686 0
17.975 36.3846 0
20.886 35.416 0
20.9791 37.9008 0
20.6926 41.8293 0
21.1652 39.7121 0
24.5606 37.9676 0
22.4971 36.5558 0
19.8209 43.3162 0
22.1184 41.1591 0
24.1577 41.103 0
23.6858 43.2214 0
79.657 42.5149 0
79.3498 44.6296 0
77.793 43.196 0
80.7409 46.4232 0
78.8765 47.1055 0
75.9153 44.0114 0
81.3949 41.6256 0
90.3639 39.7399 0
92.7966 40.545 0
90.9306 41.6297 0
94.5584 38.8403 0
95.1257 40.7334 0
91.2606 43.6214 0
90.1747 37.8692 0
93.2497 36.2752 0
93.7144 37.7087 0
91.7656 37.2217 0
95.1985 36.7638 0
89.7106 36.4394 0
92.2532 35.2757 0
94.2377 35.727 0
89.5527 33.7485 0
91.125 34.4288 0
89.7287 35.1065 0
93.205 34.7616 0
92.106 33.8731 0
93.8 44.8005 0
96.2931 43.2973 0
96.7298 45.6627 0
90.9455 33.0667 0
89.7321 32.3505 0
97.1322 48.4519 0
91.6972 45.9839 0
10.4605 33.1312 0
10.9358 34.1301 0
9.52711 34.0688 0
6.79499 34.7618 0
7.89414 33.8732 0
5.70173 43.1474 0
3.26529 44.8895 0
3.21395 42.417 0
2.86267 47.6786 0
9.05407 33.0667 0
10.2685 32.3502 0
8.33745 43.2735 0
66.0347 59.8313 0
65.1792 61.1261 0
64.3713 59.7903 0
65.9175 62.0736 0
60.1497 52.1857 0
60.0909 51.6409 0
63.7519 58.7612 0
67.0759 58.4885 0
67.8838 59.8242 0
68.5614 61.8936 0
68.8934 63.9989 0
67.1747 63.2726 0
70.3389 64.9625 0
60.0471 51.0947 0
60.0256 50.7166 0
69.6027 60.5508 0
77.0385 64.3837 0
77.2784 67.006 0
74.8292 66.523 0
79.7702 67.3162 0
60.0113 50.3382 0
60.0056 50.0766 0
72.493 65.6026 0
76.7709 61.8899 0
79.2208 62.373 0
82.0415 64.0305 0
84.9111 66.1348 0
82.358 66.9709 0
87.3217 65.1324 0
94.1859 63.8885 0
92.221 65.6155 0
81.7745 61.5368 0
91.3387 59.0095 0
93.7584 60.6123 0
91.7667 62.2846 0
95.3454 58.5398 0
90.0477 67.0714 0
87.703 68.2316 0
89.6974 63.8762 0
89.3234 57.8077 0
91.3155 56.1353 0
93.7878 54.81 0
96.799 53.5998 0
96.3418 56.1274 0
97.1364 51.0121 0
85.2271 69.076 0
82.6622 69.5905 0
91.7724 53.6088 0
6.1338 54.152 0
3.46289 56.0181 0
3.3179 53.0511 0
4.45926 58.4306 0
5.81406 63.8887 0
4.09126 61.9201 0
2.98059 50.4634 0
8.87564 52.034 0
9.02016 54.9992 0
8.50218 58.6404 0
8.26951 62.025 0
6.04627 60.5031 0
10.3389 63.6165 0
2.64017 59.7436 0
1.48553 57.3962 0
11.2439 56.5214 0
17.0728 63.8177 0
16.9965 66.8802 0
14.8487 66.0131 0
19.5844 67.2255 0
0.647392 54.9183 0
0.140111 52.3521 0
12.4381 65.0106 0
17.0742 61.3285 0
19.2226 62.1956 0
29.3553 63.6505 0
31.6146 63.9767 0
30.2342 65.0521 0
32.8717 62.7776 0
35.0074 62.9806 0
33.8025 64.2343 0
28.7887 66.0157 0
27.1609 63.4366 0
28.5414 62.3611 0
34.1073 59.5368 0
35.6729 59.8469 0
34.9188 60.7754 0
36.2923 58.8178 0
32.4933 65.3787 0
31.0897 66.4051 0
34.1804 61.7228 0
32.7541 59.2307 0
33.5082 58.3023 0
29.6023 67.3057 0
37.1167 58.0567 0
37.4705 57.3056 0
37.7606 56.5278 0
35.765 55.8712 0
27.3244 68.373 0
83.5428 34.8645 0
85.2421 36.4039 0
83.3552 36.6575 0
91.8298 50.9664 0
91.8254 48.4082 0
94.2407 49.7238 0
89.2859 47.2274 0
89.3571 52.2922 0
15.0827 34.1354 0
14.0094 34.1103 0
14.9867 32.9058 0
8.35093 48.9792 0
5.87108 48.4023 0
8.2333 46.1968 0
10.8179 43.8527 0
11.238 49.8279 0
15.312 27.8565 0
14.7668 25.9544 0
83.2379 28.0174 0
83.8622 26.1888 0
67.7259 57.0531 0
65.8766 57.0598 0
64.2007 56.904 0
64.8505 55.4683 0
74.0054 61.6958 0
72.4346 63.2603 0
71.8508 61.0553 0
71.1734 58.9864 0
76.1876 59.6854 0
86.9408 59.0947 0
86.9709 61.9381 0
84.5646 60.351 0
81.7436 58.694 0
86.9169 56.2213 0
15.2746 60.0114 0
12.8252 61.5565 0
13.175 58.6173 0
13.6938 54.9774 0
17.4247 58.3899 0
31.4708 60.1453 0
32.0445 61.5202 0
30.1621 61.2002 0
27.9674 60.9865 0
30.8716 58.911 0
35.2887 56.9206 0
35.6859 57.8472 0
34.4642 57.6818 0
33.1109 57.3759 0
34.5432 55.7061 0
78.0287 35.77 0
76.2321 35.9949 0
84.8124 49.4509 0
87.1566 48.2623 0
87.0701 50.8401 0
87.028 45.8399 0
87.0132 53.4811 0
82.4969 50.4641 0
82.5828 47.8872 0
19.0573 34.8942 0
20.5744 33.5491 0
69.0104 56.9743 0
67.8111 55.5457 0
67.1587 54.6156 0
68.4433 54.5371 0
73.8746 55.972 0
74.6139 57.6436 0
72.6825 57.8193 0
77.38 57.838 0
70.434 57.3144 0
72.6736 54.5966 0
74.6053 54.4213 0
82.4599 53.1593 0
84.6301 54.7681 0
82.3643 55.8989 0
79.5737 57.0843 0
80.2308 51.5942 0
18.6089 53.3901 0
17.8042 56.0486 0
16.4292 54.414 0
19.604 57.3653 0
14.4981 52.319 0
19.2712 51.2834 0
20.646 52.9172 0
24.5389 58.1121 0
24.4741 60.1421 0
22.926 59.3444 0
26.2169 60.5284 0
24.6041 61.7609 0
21.043 60.5406 0
21.1074 58.5107 0
24.6106 56.3653 0
26.1588 57.1626 0
32.0261 56.7173 0
32.9822 56.0967 0
33.4584 55.0475 0
31.9374 54.0362 0
84.9633 44.5744 0
83.0564 45.4111 0
83.1208 43.1121 0
71.0924 54.744 0
70.5194 55.8073 0
69.6686 54.4037 0
69.0162 53.4738 0
71.8228 53.1933 0
78.5579 53.1087 0
78 55.0431 0
76.364 53.8619 0
75.1629 52.4868 0
78.5945 50.4135 0
23.2734 55.3868 0
21.4873 56.1694 0
21.77 54.2419 0
22.4325 52.1348 0
24.8936 54.4375 0
78.453 48.7292 0
77.0622 46.9346 0
75.8877 46.0069 0
75.4642 47.6306 0
22.414 45.2254 0
21.3133 47.2362 0
20.5451 45.2872 0
22.2453 48.9926 0
20.3764 49.0538 0
18.7199 45.3259 0
24.4538 45.1703 0
72.2858 51.8494 0
70.7045 51.9965 0
69.6081 50.8884 0
71.567 49.4117 0
75.434 49.2549 0
76.7802 50.2429 0
75.5756 50.9396 0
73.8168 51.4986 0
74.2596 48.3269 0
25.4499 51.1279 0
25.0794 52.6851 0
23.9269 51.9021 0
26.4165 53.6632 0
22.803 50.5779 0
25.4225 49.269 0
26.575 50.0516 0
27.6969 54.5752 0
27.8828 52.8225 0
29.4943 51.9249 0
30.5703 53.1844 0
23.7398 48.7597 0
24.8649 47.6836 0
72.6984 50.3019 0
73.0979 49.0612 0
27.6241 57.8983 0
29.3748 58.3562 0
27.8377 59.3675 0
30.6582 57.4415 0
27.6961 56.1513 0
30.5303 54.5862 0
30.5294 56.1626 0
29.1622 55.3105 0
23.2284 63.3075 0
21.4081 64.9628 0
21.0409 63.0296 0
21.7713 67.5033 0
24.9709 63.694 0
26.4525 66.936 0
24.263 67.1933 0
25.7851 64.9833 0
24.9306 69.1462 0
22.4587 69.6132 0
14.9494 44.9323 0
13.007 47.094 0
12.6557 44.6132 0
13.5311 50.1464 0
16.6478 45.3836 0
18.339 49.5265 0
16.2672 49.5841 0
17.3724 47.3553 0
58.4038 8.28514 0
60.0079 10.2031 0
79.5418 20.2957 0
77.0475 20.4905 0
69.252 14.002 0
67.5995 15.8694 0
37.1851 13.3893 0
34.8389 12.5353 0
72.2313 44.5777 0
70.3983 42.878 0
36.7033 22.1226 0
37.3014 24.5468 0
46.0448 8.27027 0
45.157 10.6075 0
1.84838 10.4242 0
4.0533 9.24294 0
16.1414 4.00198 0
14.3616 2.2577 0
37.8029 13.4602 0
37.7692 10.9614 0
72.2721 1.19102 0
69.8072 1.59276 0
65.375 25.1179 0
65.832 22.664 0
17.0812 0.163308 0
19.0989 1.6279 0
30.7651 0.424512 0
29.0244 2.22142 0
20.1582 29.0144 0
18.0327 27.7044 0
87.2278 22.922 0
89.7055 23.2876 0
80.4469 11.901 0
79.0333 9.84232 0
53.4971 14.4156 0
52.9707 16.8593 0
79.8771 20.7035 0
77.3749 20.6526 0
95.4262 2.47009 0
96.8327 4.53489 0
40.4065 38.4752 0
38.1989 39.6463 0
34.367 27.1356 0
35.0283 29.5424 0
88.3781 30.5193 0
87.7571 28.1137 0
42.4427 32.0012 0
44.3229 30.3559 0
26.0691 12.9126 0
26.9045 10.5584 0
40.5533 37.5505 0
42.7835 36.4239 0
65.9203 38.7243 0
67.4481 40.7019 0
21.6584 36.6 0
24.1501 36.8001 0
87.3002 18.0276 0
88.9254 16.1382 0
31.3019 10.0086 0
28.869 10.5867 0
60.2782 8.344 0
61.5807 10.4787 0
62.4203 9.41798 0
60.9668 7.38298 0
18.7622 6.99543 0
18.1822 9.41642 0
63.0458 43.8802 0
62.3514 46.28 0
84.2927 25.8803 0
83.6063 28.272 0
47.3526 44.3236 0
49.2162 42.6581 0
30.7348 4.83539 0
33.1074 5.61508 0
37.1949 2.35075 0
36.9026 -0.131205 0
39.5238 0.594687 0
37.8533 2.4554 0
66.8596 34.5794 0
64.6014 35.6449 0
25.233 21.3886 0
23.6604 23.329 0
89.2302 30.2536 0
86.9679 29.1807 0
74.2884 10.0988 0
76.6665 9.33924 0
80.3519 12.8305 0
81.7552 14.8956 0
81.0989 16.9747 0
80.1874 19.2905 0
78.4144 10.7765 0
79.759 12.8804 0
67.6754 27.5389 0
65.1796 27.4288 0
62.4351 24.9499 0
60.0058 24.3679 0
61.7258 24.7745 0
62.4962 27.1514 0
69.5203 32.9308 0
67.0339 32.682 0
82.5799 12.524 0
85.0222 13.0832 0
51.4587 18.2186 0
53.5391 19.6017 0
66.9924 16.0457 0
65.1678 14.3352 0
20.0188 22.4486 0
20.4738 19.9997 0
53.0645 24.1133 0
52.9562 21.6159 0
62.0818 34.0048 0
64.047 35.5486 0
67.9516 28.3017 0
69.9174 26.7647 0
27.3508 19.4235 0
25.4228 17.8412 0
43.3843 4.0303 0
43.9172 1.58814 0
90.2206 10.3012 0
88.4234 8.5651 0
67.9677 36.851 0
68.6503 34.4507 0
9.52996 8.21164 0
11.9857 7.72597 0
49.9622 6.62821 0
52.3371 7.40921 0
81.1474 29.2482 0
83.0895 27.681 0
43.1388 20.0715 0
45.5321 20.7826 0
73.0251 25.6024 0
75.2488 24.4673 0
59.3123 18.624 0
57.0665 19.7147 0
94.8249 14.9147 0
92.405 14.2745 0
8.74841 19.5025 0
11.2084 19.0335 0
17.4503 22.8018 0
15.7913 20.9412 0
16.9391 36.5427 0
18.1454 34.3587 0
59.7837 42.0399 0
57.5905 43.2366 0
84.6148 20.4538 0
84.6644 22.9413 0
9.9033 20.1196 0
7.8018 21.4791 0
16.8318 30.1027 0
15.2056 31.9935 0
46.653 3.50289 0
48.1059 5.53731 0
57.7864 40.4532 0
55.7475 41.8967 0
67.5232 37.1436 0
69.5958 38.5411 0
68.3634 7.60616 0
70.2492 5.97204 0
24.7972 8.59461 0
27.2228 9.18585 0
16.1214 15.5555 0
15.2172 17.8779 0
96.9763 4.65367 0
94.5057 5.0405 0
25.2204 33.9382 0
26.0375 31.5799 0
16.8118 15.7557 0
17.9359 17.9764 0
86.8933 15.7254 0
88.5988 13.907 0
26.9721 36.5079 0
28.2487 38.6509 0
45.0558 37.1723 0
42.7596 38.157 0
25.9752 33.789 0
28.4529 33.459 0
70.5566 16.044 0
72.5274 17.5847 0
49.8256 47.7777 0
50.9705 45.5557 0
82.7697 18.4162 0
81.0897 16.5669 0
12.4147 5.61498 0
9.98982 5.00696 0
18.3003 2.67066 0
20.5317 1.53699 0
98.8952 4.27495 0
97.6988 6.46338 0
80.303 37.5256 0
80.8969 35.1067 0
48.5367 3.69879 0
48.4441 1.20117 0
46.0844 5.36422 0
43.9283 6.63049 0
61.1123 38.1586 0
59.0243 39.5293 0
81.2066 11.1532 0
81.7898 8.73707 0
79.335 30.5492 0
77.0076 31.4533 0
52.397 8.22084 0
50.9319 6.19524 0
25.8864 30.0719 0
23.7521 28.7776 0
94.5617 17.4849 0
96.8407 16.4613 0
29.5611 32.2122 0
31.8694 33.1639 0
65.8278 4.48206 0
65.8085 6.98139 0
53.2566 2.00192 0
51.4512 3.73208 0
14.5762 9.09337 0
15.1061 6.6613 0
7.2207 18.8836 0
5.02663 17.6908 0
61.2182 40.4433 0
59.8989 42.5646 0
74.2138 7.35644 0
73.8007 4.89297 0
23.5665 30.3922 0
23.8073 27.9107 0
78.8066 6.94672 0
76.6484 5.67445 0
79.0463 11.3498 0
81.1618 12.6884 0
7.63934 2.53816 0
5.13955 2.60922 0
76.4588 16.04 0
74.4761 14.5128 0
47.9013 9.43707 0
49.6883 11.1845 0
80.0434 2.04966 0
82.501 1.59264 0
29.1626 30.04 0
27.208 28.4889 0
70.9845 16.4495 0
71.5364 14.0189 0
4.52697 13.5905 0
6.48426 12.0339 0
40.5647 0.293406 0
39.5247 2.56645 0
60.4152 12.4677 0
59.8446 14.9002 0
41.209 3.63574 0
39.171 5.08503 0
33.6422 29.5494 0
36.133 29.7343 0
33.1833 21.0553 0
32.965 18.5687 0
79.607 15.6158 0
80.1629 18.0443 0
72.6717 34.8093 0
70.537 33.5088 0
56.7307 8.36269 0
54.3226 7.69253 0
44.5355 8.99103 0
43.2045 11.1076 0
82.5746 16.5782 0
83.685 14.3509 0
11.5883 0.313034 0
10.6955 2.64197 0
78.0243 16.1997 0
80.0561 17.6596 0
59.4264 3.09587 0
60.7519 5.21592 0
72.284 1.31883 0
72.1964 3.8158 0
66.8099 2.75923 0
68.0914 0.608932 0
13.3336 3.77518 0
15.1525 2.063 0
71.982 26.631 0
74.4389 27.0908 0
16.8387 17.5465 0
15.4275 19.605 0
72.2205 38.4169 0
72.1468 35.9229 0
43.4766 20.8578 0
41.213 21.9149 0
57.2636 19.3281 0
57.5296 21.8133 0
64.6921 28.8744 0
67.1752 28.6055 0
24.6435 31.9783 0
27.0494 31.3004 0
50.1168 28.864 0
49.1077 31.15 0
59.8133 37.264 0
58.5483 35.1087 0
22.4343 29.1486 0
24.8497 28.5056 0
39.693 35.9803 0
37.2424 36.4669 0
5.90855 10.0756 0
3.88028 11.5388 0
54.805 20.8607 0
56.8382 22.3129 0
68.5227 19.7162 0
68.8308 17.2401 0
42.0124 42.7654 0
42.7778 45.1443 0
19.0749 24.623 0
16.9251 25.898 0
69.2636 4.21595 0
66.9162 3.35226 0
18.7282 12.8663 0
19.431 10.4768 0
97.8427 0.54898 0
97.0259 2.90329 0
21.3135 0.6106 0
21.7807 3.04418 0
13.444 5.98762 0
14.581 8.20193 0
94.8171 5.81171 0
95.3476 3.37713 0
58.6755 11.6791 0
59.4769 14.0473 0
26.7278 40.023 0
25.232 42.0243 0
62.4349 18.8138 0
64.5419 17.4762 0
9.52782 7.75803 0
11.9412 7.0943 0
44.2784 18.1544 0
41.8911 18.8898 0
89.02 10.8353 0
91.4827 10.393 0
65.4981 41.6834 0
63.0735 41.0755 0
51.2711 34.4653 0
53.6825 33.8161 0
12.7517 8.59374 0
14.7412 10.1002 0
75.063 18.487 0
72.5686 18.2977 0
69.1779 26.488 0
69.632 28.9426 0
19.5729 11.8384 0
21.8315 12.9049 0
36.889 40.1057 0
34.4818 39.437 0
29.3039 28.3454 0
30.9207 30.2453 0
12.3789 19.6191 0
13.5803 17.4324 0
42.0346 43.21 0
39.6413 43.9301 0
34.2189 5.20243 0
33.7243 7.65335 0
94.9543 17.0786 0
93.8678 14.8305 0
53.7782 26.3361 0
54.358 28.7671 0
68.3004 36.3652 0
67.5248 38.7374 0
71.2535 37.0834 0
69.3113 38.6515 0
30.4597 15.6008 0
32.6159 16.8558 0
62.7537 8.11509 0
65.2378 8.391 0
52.3952 17.382 0
51.1258 19.5347 0
68.8484 3.68299 0
68.9135 6.18205 0
24.0064 7.7745 0
26.0423 9.20832 0
31.7663 14.7097 0
33.4824 16.5199 0
72.4529 6.05069 0
74.726 5.03729 0
47.222 15.2978 0
45.6796 17.2646 0
36.6607 41.8874 0
38.6925 40.4317 0
22.8104 10.4722 0
24.4517 8.58377 0
22.9597 37.8101 0
25.3405 37.0443 0
79.5618 20.537 0
81.8144 21.6267 0
80.448 16.1523 0
78.1724 15.1075 0
68.1885 34.2683 0
68.4341 36.7527 0
32.7695 27.0117 0
34.9996 28.1333 0
49.0969 3.6505 0
47.4573 5.53804 0
34.1785 40.68 0
32.8177 42.7758 0
47.679 12.6329 0
48.1999 15.078 0
50.2587 18.85 0
51.6317 16.762 0
33.8185 30.6869 0
34.5042 28.2853 0
2.36015 13.8267 0
4.84574 14.1051 0
40.0825 40.2847 0
40.8274 42.6697 0
10.1266 16.1794 0
9.50931 18.5943 0
32.9242 16.1464 0
31.8803 18.4174 0
43.2581 1.00272 0
45.6756 0.356095 0
37.119 36.8877 0
39.361 35.7841 0
81.257 10.115 0
81.7516 7.67964 0
30.4476 3.68571 0
28.2959 4.96349 0
49.4065 1.40862 0
47.6096 3.14764 0
60.7775 31.3009 0
62.5529 33.0594 0
26.1663 37.3054 0
24.4903 35.458 0
33.9273 3.25246 0
36.4159 3.48822 0
46.8657 29.1177 0
45.8425 31.3975 0
19.4714 36.2288 0
21.1964 38.0296 0
56.1229 28.314 0
58.6197 28.349 0
92.8229 9.47451 0
95.2401 10.1222 0
22.0699 29.0782 0
24.5414 29.4452 0
48.2781 17.7539 0
50.7286 18.2345 0
28.7966 21.721 0
27.7436 19.4615 0
88.6617 18.0541 0
91.0171 18.9046 0
85.3201 15.5437 0
82.8198 15.6835 0
59.5457 45.253 0
60.8282 47.3987 0
89.5268 2.52701 0
89.7352 5.0095 0
95.4564 9.80536 0
93.3626 8.43746 0
64.4645 41.5012 0
62.9779 43.5083 0
56.0211 26.1047 0
58.3425 25.1859 0
71.021 1.9264 0
71.0285 4.42577 0
51.4192 11.8568 0
50.504 9.53035 0
58.3368 27.8806 0
57.6621 25.4743 0
9.33039 7.86183 0
7.78419 5.90614 0
51.6905 13.4657 0
49.2102 13.1703 0
49.7136 24.4008 0
50.1427 26.863 0
72.6127 28.4349 0
70.2102 27.7457 0
81.3016 36.3922 0
78.9882 37.3341 0
80.7713 18.3145 0
81.4258 20.7181 0
63.0486 6.35265 0
60.7619 5.34163 0
49.6092 11.8334 0
47.117 11.6629 0
44.4723 28.5386 0
42.0177 28.9984 0
88.6343 7.8241 0
88.1042 10.2557 0
72.3104 6.40793 0
71.0201 8.53991 0
87.6924 13.9352 0
88.6385 16.2418 0
36.5589 40.9224 0
38.2805 42.7324 0
62.5542 3.64956 0
63.7293 1.44351 0
39.9453 15.1399 0
40.0912 12.6446 0
19.3805 6.4556 0
21.5234 5.15914 0
36.3607 45.8942 0
38.7248 46.7067 0
34.568 31.3757 0
32.3351 32.4981 0
58.9173 19.5883 0
60.7091 21.3308 0
78.2595 16.228 0
75.8335 15.6077 0
15.8509 28.9753 0
17.2132 26.8886 0
80.5531 1.67001 0
78.1495 2.34438 0
37.6408 41.7253 0
35.1585 42.0177 0
84.0786 21.4301 0
84.5711 23.8701 0
86.5638 7.33722 0
86.2208 4.8719 0
44.7639 6.05968 0
46.5617 7.79623 0
84.1637 19.7768 0
84.0321 22.2612 0
71.9677 17.598 0
74.4513 17.3131 0
77.1275 25.0401 0
76.516 22.6233 0
97.1465 15.2924 0
94.6823 14.8581 0
38.3371 23.6475 0
40.4221 22.2699 0
40.9202 1.77882 0
39.8554 4.04067 0
60.1789 22.5441 0
57.8451 21.6526 0
23.1297 0.964254 0
24.5968 2.96823 0
71.9181 32.2552 0
69.4526 32.657 0
44.2036 38.2425 0
42.2574 39.8102 0
34.1409 4.40512 0
35.5928 6.43769 0
19.9489 15.6064 0
21.6983 17.3821 0
1.49274 8.36637 0
3.18268 10.204 0
85.6161 25.0272 0
87.7361 23.7085 0
82.6876 14.894 0
80.2586 14.2818 0
60.7638 3.2867 0
60.166 5.7135 0
17.2842 24.3169 0
15.7932 22.3205 0
51.8059 38.9264 0
50.5938 36.7411 0
59.7311 46.8906 0
62.0338 45.9183 0
81.6988 19.2355 0
81.995 21.707 0
60.0628 15.1398 0
57.6527 14.4809 0
21.5903 24.5145 0
21.4812 27.0034 0
50.5585 36.7075 0
51.5024 34.3937 0
68.8389 24.1674 0
66.7744 22.7578 0
85.4195 32.0808 0
83.0728 32.9305 0
10.0255 12.7345 0
7.9624 14.1493 0
90.6752 3.18941 0
88.578 1.82857 0
85.5563 8.47337 0
87.714 7.21577 0
32.9586 40.4977 0
33.1243 42.9889 0
16.5735 0.845911 0
18.9347 1.66032 0
80.4284 27.5821 0
82.3702 26.0142 0
21.4105 11.0797 0
19.7293 9.24291 0
93.5256 17.126 0
91.2277 16.1333 0
19.3979 35.7186 0
19.2538 33.2316 0
17.9743 35.3493 0
20.2251 34.2601 0
76.631 12.1235 0
75.0633 14.0576 0
20.8959 4.74856 0
18.5511 3.89035 0
26.3189 33.8562 0
24.163 32.5985 0
55.327 7.08978 0
57.4753 5.81225 0
69.3443 3.87227 0
70.4278 6.12726 0
22.408 17.0858 0
21.7148 14.6962 0
89.492 6.16067 0
86.9897 6.14444 0
60.1565 4.27482 0
57.6681 4.02627 0
86.6779 11.3608 0
84.2717 10.6654 0
80.9311 22.5866 0
82.1058 20.391 0
69.7853 32.5194 0
68.9857 30.1539 0
42.4533 48.9748 0
40.5292 47.3789 0
30.6442 29.4327 0
31.5693 31.7495 0
19.9317 37.5546 0
20.2386 35.0809 0
64.22 5.65678 0
62.4873 7.45602 0
91.4344 1.9761 0
90.9757 4.4244 0
85.7578 10.1477 0
87.2373 12.1585 0
16.1112 1.27859 0
14.0721 2.72323 0
71.9516 36.6611 0
74.3754 36.0556 0
14.8976 16.284 0
17.324 16.8937 0
85.8663 30.911 0
87.5538 32.7445 0
8.11746 22.0772 0
10.6171 21.9443 0
49.9335 35.6107 0
52.4239 35.424 0
9.11192 20.5635 0
10.834 18.7511 0
62.5346 31.9726 0
60.2671 33.0175 0
37.5401 6.8235 0
39.0285 4.81424 0
9.76724 9.21308 0
11.9451 7.98203 0
60.1492 25.9966 0
57.6535 26.0802 0
32.8409 17.2087 0
33.7872 19.5173 0
92.6183 11.4873 0
92.9468 13.958 0
50.0439 4.41915 0
52.127 5.80225 0
21.7653 11.8566 0
23.2306 13.8685 0
16.4443 4.92125 0
18.7604 3.97471 0
38.9455 33.7872 0
41.0811 32.4902 0
2.04877 4.99202 0
2.95615 2.66724 0
17.4262 17.1334 0
16.3982 19.4045 0
81.4642 37.5964 0
82.4863 35.3254 0
72.9104 12.5667 0
74.7442 10.8808 0
66.3173 41.4633 0
63.926 42.1883 0
63.7466 26.4586 0
65.7325 24.947 0
49.8632 6.06979 0
48.3249 8.04036 0
60.1808 40.7324 0
62.4027 41.8768 0
23.3879 10.8949 0
24.491 13.1249 0
60.088 31.2397 0
61.0341 33.5524 0
85.0557 22.434 0
87.5586 22.3667 0
74.5805 19.8197 0
72.1537 19.2116 0
56.0494 12.3843 0
58.4914 12.9126 0
61.6814 4.24107 0
60.6352 1.97061 0
60.7166 47.4984 0
58.2184 47.5957 0
50.6464 16.8058 0
50.9626 19.2857 0
26.14 33.2188 0
27.1297 30.9269 0
43.6952 22.5911 0
41.6429 21.1693 0
70.249 18.5548 0
72.7222 18.9255 0
72.5449 1.54043 0
72.7227 4.03355 0
33.4125 17.0587 0
35.0481 18.9428 0
55.2429 3.50912 0
57.6863 4.04354 0
62.7359 26.9699 0
60.2387 26.9925 0
59.5659 35.4903 0
59.7112 32.9963 0
41.7371 31.3286 0
39.3556 32.0827 0
65.7103 33.8292 0
63.6879 32.3612 0
41.2764 36.1496 0
39.9733 38.282 0
73.237 29.7417 0
72.8048 32.1977 0
50.7632 40.147 0
51.8565 42.3945 0
59.8198 10.0412 0
58.3217 8.03926 0
82.5617 19.9914 0
84.8623 19.0139 0
66.2535 0.704701 0
68.7468 0.47199 0
72.7804 32.6422 0
74.6563 30.9972 0
66.5265 33.5219 0
65.2498 35.6666 0
67.8028 46.2373 0
68.5264 43.8481 0
63.7281 22.9993 0
64.8258 20.7579 0
80.432 11.2808 0
82.0402 13.193 0
30.9927 20.44 0
30.0434 18.1341 0
25.3046 20.6783 0
26.877 22.6131 0
53.987 28.6785 0
56.4706 28.4224 0
85.7297 28.3083 0
85.202 25.8781 0
37.9057 1.79504 0
40.3865 2.12051 0
42.1002 29.522 0
43.0851 27.2252 0
19.954 35.368 0
22.4405 35.6209 0
84.4654 11.5318 0
86.969 11.477 0
30.5248 1.26587 0
32.9917 0.848079 0
61.9931 42.4447 0
59.8287 41.1948 0
40.0249 13.4362 0
38.031 14.9443 0
71.9168 29.1454 0
70.0711 27.4609 0
60.3635 30.2671 0
59.6019 27.8873 0
6.60197 10.6691 0
5.7322 13.0076 0
33.6189 6.82369 0
32.0024 4.92102 0
57.2935 24.736 0
59.7284 24.184 0
61.7499 28.0283 0
59.2647 28.271 0
12.9869 2.0365 0
15.1426 3.29367 0
72.4141 4.96861 0
69.9276 4.71905 0
30.5134 6.23057 0
28.1177 6.94923 0
80.7933 3.74349 0
78.2923 3.84653 0
54.3846 35.9559 0
52.374 37.4381 0
30.5886 14.2826 0
33.0102 14.8905 0
80.5815 9.20001 0
82.8677 8.19166 0
12.0006 31.572 0
12.9885 29.296 0
46.3785 5.34666 0
48.8281 5.84884 0
2.73803 5.32479 0
5.23813 5.22611 0
10.2179 9.56346 0
11.22 11.8429 0
4.34283 17.8698 0
6.59231 16.7734 0
29.3828 8.47377 0
26.8846 8.43683 0
43.6924 2.0227 0
46.0002 2.98742 0
77.3481 2.80965 0
75.5775 4.54991 0
55.2138 26.7621 0
57.4626 27.8495 0
24.8043 19.3401 0
26.9915 18.1252 0
12.787 30.8996 0
14.0378 28.7492 0
13.7554 17.8674 0
15.6138 19.5309 0
31.5402 36.0531 0
33.644 37.3978 0
85.1134 18.9573 0
85.442 16.4915 0
54.9609 42.3793 0
56.1364 40.1743 0
56.8619 43.0343 0
54.3734 42.8066 0
69.3585 41.1087 0
68.4362 43.428 0
81.6142 5.22691 0
81.1841 7.67218 0
67.3129 28.7582 0
69.405 27.3974 0
23.3713 28.2651 0
20.8775 28.4337 0
76.5749 33.1047 0
74.6812 31.4746 0
40.4019 1.82303 0
41.9524 -0.138466 0
21.4827 3.48758 0
19.2772 2.32891 0
32.7126 28.03 0
34.5182 29.7525 0
39.7608 2.2701 0
37.9733 4.01898 0
68.5859 6.26527 0
66.5229 7.67046 0
7.18697 2.11075 0
8.72614 0.142697 0
59.0806 33.4291 0
57.1238 31.8755 0
22.6494 35.4127 0
24.1819 37.3797 0
76.7104 24.9412 0
76.1577 22.5102 0
8.87671 16.7301 0
9.71883 19.0733 0
27.0205 16.6791 0
28.4453 14.6251 0
31.939 36.9817 0
32.7685 34.6258 0
22.1989 34.9281 0
19.9595 33.8254 0
73.33 37.0984 0
72.0047 34.9811 0
15.034 2.08941 0
16.9735 0.51592 0
52.2292 12.1713 0
52.0964 9.67456 0
33.8234 8.7595 0
32.6866 6.53672 0
24.9704 41.7973 0
27.3608 41.0605 0
57.5778 12.5409 0
59.7995 11.4 0
84.1944 35.1673 0
82.3905 33.4393 0
40.3982 47.1511 0
38.886 45.1613 0
18.0746 12.1718 0
20.5324 12.6422 0
92.7017 8.17641 0
94.3845 6.33506 0
81.3705 33.0085 0
80.6557 30.6202 0
38.8285 14.8518 0
38.6923 17.3474 0
28.5804 11.5776 0
29.9657 13.6491 0
51.9111 39.5374 0
54.4005 39.7466 0
86.5576 28.0804 0
85.8903 25.684 0
22.1611 2.34347 0
23.5634 4.38813 0
49.3548 3.2007 0
47.2351 1.87292 0
18.8564 19.7059 0
21.3383 20.0241 0
2.1085 9.03126 0
4.29146 7.81027 0
20.2604 3.60128 0
18.8562 5.66369 0
62.9419 44.4285 0
65.1615 45.5789 0
34.4863 21.2063 0
36.5735 19.8307 0
94.5936 1.03409 0
93.9527 3.44177 0
49.7444 42.4105 0
49.3584 39.9411 0
58.6777 10.8179 0
56.3263 9.97062 0
36.6089 10.731 0
34.3237 11.7459 0
56.8256 43.8708 0
56.7513 46.3692 0
2.44344 12.6177 0
1.78193 10.212 0
82.423 4.97115 0
83.3163 2.65087 0
37.6742 47.316 0
35.4164 46.2431 0
65.9764 39.5436 0
68.3051 40.4529 0
24.6489 34.0878 0
27.125 34.4223 0
68.4658 39.4543 0
70.8675 38.7654 0
13.8078 30.6311 0
12.1907 28.738 0
58.8628 44.4382 0
61.2973 45.0046 0
24.3251 5.63898 0
24.1937 8.12766 0
81.1273 20.9139 0
78.7467 21.6785 0
29.8708 39.7457 0
29.5091 42.2157 0
23.7077 17.052 0
21.45 15.9841 0
2.74395 8.23083 0
4.96879 7.08749 0
48.0264 30.8675 0
49.9852 29.3175 0
87.0567 23.1517 0
84.6734 23.9093 0
34.6625 10.9372 0
32.3275 11.8324 0
47.5575 26.0442 0
46.1005 24.015 0
67.4328 24.3112 0
65.4415 22.8003 0
58.2148 30.1665 0
56.8713 32.2717 0
32.3206 34.9102 0
34.6125 35.9017 0
57.4126 36.3709 0
56.052 34.2747 0
26.6849 3.38082 0
28.7958 2.03702 0
11.1745 26.6502 0
12.7111 24.6809 0
63.5142 33.1154 0
61.9175 35.0347 0
28.4873 11.4134 0
26.0397 11.9339 0
44.5044 45.8085 0
42.0058 45.8753 0
30.8389 14.4829 0
31.9675 16.7068 0
13.2077 1.82856 0
15.3327 0.512253 0
76.1315 15.0189 0
73.8742 16.0842 0
12.6788 6.53354 0
13.3264 8.93601 0
35.4829 4.96154 0
36.3452 7.30646 0
53.9967 17.713 0
51.5389 18.1539 0
31.3136 8.51025 0
29.0101 7.55195 0
24.2877 6.64633 0
21.7938 6.86439 0
48.6125 3.65451 0
51.0488 4.22072 0
32.1587 13.8074 0
32.0935 11.3111 0
1.58646 3.46177 0
4.0664 3.78471 0
62.8151 44.319 0
60.4972 43.3834 0
42.6372 24.4853 0
40.1457 24.3225 0
48.3456 30.8021 0
50.5235 32.0242 0
58.8793 35.3468 0
56.3912 35.5631 0
50.0159 46.625 0
52.0708 45.2021 0
26.9499 5.71391 0
26.3198 8.1332 0
43.5136 36.0876 0
42.0948 34.032 0
52.8773 27.9965 0
50.9812 29.6221 0
60.9534 40.0051 0
62.0892 42.2312 0
46.9335 23.6984 0
45.6674 21.5446 0
19.255 2.95672 0
18.5408 0.578712 0
48.2291 41.9455 0
49.1912 39.6387 0
47.8185 39.5349 0
45.3668 39.0566 0
73.2199 11.5544 0
72.6902 9.11382 0
52.5255 17.8771 0
50.7826 16.0864 0
25.0093 41.8484 0
27.4936 41.5573 0
51.97 24.1365 0
50.5572 26.1973 0
25.8398 30.3605 0
28.2664 30.9519 0
5.36656 8.01257 0
2.88517 7.6987 0
20.876 35.2837 0
18.7574 36.6116 0
31.8903 19.2137 0
34.1645 20.2423 0
30.1 19.2984 0
27.7509 18.4521 0
78.7307 17.5393 0
79.4685 19.9199 0
41.9145 32.1857 0
42.4608 29.7474 0
44.791 12.587 0
45.2506 10.1293 0
44.1971 20.1251 0
46.0453 18.4431 0
36.1295 2.48431 0
35.7808 4.95908 0
94.4732 4.8647 0
95.2838 7.22469 0
41.9102 21.8347 0
40.3599 23.7953 0
57.7802 26.2073 0
55.7402 24.765 0
62.6988 27.0006 0
65.107 27.6661 0
8.55707 15.6559 0
8.47667 18.1458 0
70.8275 30.9813 0
68.3839 30.4576 0
45.8817 35.7281 0
46.1278 33.2413 0
87.0743 2.74787 0
88.764 4.58721 0
22.5116 38.5385 0
22.8812 41.0036 0
66.243 43.1988 0
64.2115 41.7422 0
77.3452 11.9864 0
77.8817 14.4197 0
50.8449 47.0454 0
49.16 48.892 0
14.9021 13.4024 0
15.4085 10.965 0
75.6172 18.9808 0
75.408 21.4632 0
59.0493 45.6335 0
61.1008 47.062 0
83.7399 9.46055 0
86.1873 8.94005 0
6.96717 1.80261 0
4.46822 1.89618 0
80.7425 18.994 0
82.5453 17.2713 0
13.6045 0.199441 0
11.1064 0.105518 0
14.904 32.1854 0
17.2821 31.4204 0
14.2062 12.8606 0
15.5758 14.9401 0
66.7124 0.964186 0
64.2469 1.39442 0
72.261 24.4835 0
71.3046 26.7863 0
52.0194 31.4569 0
50.0645 29.9021 0
29.3161 29.1972 0
28.0489 27.0491 0
76.0629 25.3831 0
76.2976 22.9025 0
88.1028 17.2542 0
90.3439 18.3701 0
56.5896 9.07395 0
54.3004 10.0754 0
30.6008 42.3407 0
32.0867 44.347 0
49.5609 38.2763 0
50.1526 35.8482 0
33.5737 30.6592 0
35.8089 31.7709 0
51.2955 20.2059 0
50.1622 22.4334 0
48.007 20.2117 0
46.7614 18.0454 0
56.3104 36.7613 0
54.2184 38.126 0
27.92 28.0357 0
28.5007 30.461 0
32.5693 34.4981 0
33.2027 36.9124 0
91.7375 14.7203 0
93.5709 16.4205 0
6.69226 6.16903 0
6.36792 8.64101 0
30.5896 35.8179 0
31.2583 33.4121 0
65.2055 34.9218 0
64.2702 37.2365 0
70.8889 2.23507 0
72.4808 0.314285 0
72.2081 25.0828 0
72.6867 22.6359 0
12.9624 14.6358 0
14.9615 16.1302 0
48.3614 3.47039 0
50.7925 4.05868 0
17.3694 5.86785 0
17.5673 8.34454 0
6.48594 18.5931 0
3.99902 18.33 0
31.8347 33.9263 0
32.0173 36.4156 0
59.3252 32.8958 0
59.0283 35.3763 0
80.5868 24.4687 0
80.9712 26.9292 0
96.0342 18.4063 0
96.4479 15.9466 0
81.6415 13.1709 0
84.1087 12.7498 0
31.4105 34.4541 0
30.3313 32.2047 0
95.0529 8.65464 0
94.1818 10.9901 0
92.6724 17.9098 0
94.8901 16.7605 0
25.3189 37.9354 0
25.028 35.4589 0
11.1131 27.2044 0
12.9212 28.9159 0
25.2007 17.1183 0
22.74 17.5776 0
33.0473 22.2734 0
35.5381 22.459 0
75.0994 23.0798 0
72.5998 23.1229 0
50.0607 27.6145 0
49.6799 30.0844 0
20.985 18.6986 0
20.4718 21.1362 0
93.0683 7.23022 0
92.245 9.58166 0
49.125 48.1442 0
47.6819 46.1033 0
60.3007 39.0897 0
62.1796 37.4443 0
68.5054 12.6355 0
66.4459 11.2153 0
74.7579 11.5074 0
72.5895 12.739 0
59.6119 41.9263 0
61.2467 43.8171 0
83.0198 12.0442 0
83.7001 9.65307 0
12.3158 9.77083 0
11.2332 7.52862 0
46.2363 43.0643 0
44.2328 41.5716 0
78.0959 4.20687 0
75.6332 4.62721 0
79.2489 34.6476 0
79.7108 32.1993 0
50.3185 26.3334 0
47.8556 25.9244 0
15.899 14.949 0
18.3734 14.559 0
24.656 1.84291 0
27.1405 2.04501 0
21.7831 5.94043 0
23.7398 4.37701 0
38.4387 26.7902 0
35.995 27.3086 0
39.5983 37.9826 0
37.1043 37.8379 0
20.4378 23.2814 0
19.0408 21.218 0
55.8221 8.70001 0
53.5444 9.7278 0
30.7949 38.7622 0
33.2422 38.2527 0
56.7825 41.8116 0
59.253 41.4392 0
59.0578 12.4229 0
61.5075 11.936 0
84.7873 1.94968 0
82.4292 2.7741 0
54.6872 35.7408 0
52.9179 37.5043 0
27.9028 39.396 0
30.3975 39.2314 0
56.9134 32.6239 0
56.6257 30.1419 0
77.6208 21.2919 0
75.7397 22.9306 0
36.6786 36.582 0
36.0427 38.998 0
70.6723 32.4181 0
68.2053 32.8101 0
48.9427 32.4516 0
50.2823 30.3426 0
64.3835 19.4051 0
65.3911 21.6922 0
36.9166 30.5918 0
39.4137 30.6369 0
52.0999 3.06512 0
54.2087 4.40962 0
16.1074 26.9662 0
13.9009 25.7946 0
28.8246 37.6963 0
26.3557 38.091 0
66.3137 34.8395 0
64.7247 32.9108 0
86.8419 13.7809 0
85.7551 16.0199 0
79.9059 37.491 0
77.6047 38.4628 0
1.08664 9.65411 0
2.77301 11.4952 0
22.3113 7.03476 0
19.8232 6.7739 0
28.0087 24.2036 0
25.5343 23.8527 0
48.7821 5.49933 0
46.4118 4.70263 0
39.4127 8.40574 0
37.1191 7.41603 0
13.1974 16.1984 0
11.7653 14.1603 0
35.1954 37.9023 0
33.3809 39.6211 0
76.1352 8.02274 0
78.2022 6.62993 0
38.8893 43.8933 0
38.0751 41.5314 0
46.1934 9.53397 0
48.2303 8.08507 0
39.8973 31.0033 0
37.4745 31.6121 0
37.3196 29.244 0
36.653 31.6514 0
36.7094 26.9769 0
34.2347 27.3189 0
30.6699 4.51667 0
33.0174 5.36921 0
71.8437 31.9719 0
74.0202 30.7498 0
24.1615 12.4077 0
26.5519 11.663 0
33.2167 43.7153 0
35.5036 42.705 0
26.0775 22.5081 0
24.056 23.9786 0
5.63672 2.56493 0
6.55676 0.244578 0
94.3829 5.89673 0
96.7918 6.57427 0
53.4105 18.9876 0
51.7042 17.1619 0
53.8048 45.4825 0
52.3227 47.495 0
94.7268 5.24026 0
93.3256 3.17242 0
30.2248 21.1925 0
27.778 20.6881 0
57.4991 2.19658 0
58.1122 4.61994 0
94.6055 11.4896 0
92.9648 9.60511 0
43.7256 7.26628 0
46.1878 6.83364 0
49.3928 42.4202 0
47.4342 43.9727 0
42.4193 27.3607 0
44.8314 26.7133 0
24.2402 22.6592 0
21.7676 22.287 0
69.9995 34.2098 0
70.1682 31.7204 0
18.3802 13.5272 0
20.5993 14.6733 0
9.39082 28.775 0
11.6764 27.7502 0
62.0369 24.5615 0
60.8053 22.3866 0
81.7428 25.1919 0
79.2422 25.1242 0
22.8219 29.3191 0
20.702 30.6415 0
14.2199 29.6648 0
14.3315 32.1491 0
12.6328 13.0274 0
13.6608 15.2939 0
67.377 22.8461 0
67.8234 20.3912 0
79.3356 21.8822 0
81.7464 22.5549 0
15.2604 21.7209 0
14.1891 23.9715 0
21.2498 13.6002 0
18.8998 12.7478 0
44.9057 45.0718 0
42.4091 44.9574 0
62.2392 38.1284 0
60.8217 36.0702 0
59.6108 47.3285 0
61.9424 46.4271 0
39.9695 37.855 0
42.467 37.8057 0
55.731 30.3489 0
53.3909 29.4764 0
67.6269 40.8311 0
65.1402 41.0808 0
71.077 5.71266 0
73.5731 5.74892 0
80.9128 3.29454 0
80.8429 0.812095 0
59.6895 7.16073 0
57.9491 8.95363 0
32.3639 19.5952 0
31.5603 21.9604 0
43.9471 32.5431 0
44.0593 35.0392 0
97.8022 14.1441 0
97.9528 11.6532 0
74.1221 18.6144 0
72.1705 17.0496 0
77.0856 31.6133 0
76.3725 34.0017 0
55.9601 48.7262 0
56.3206 46.2527 0
40.1848 1.2942 0
37.7679 1.94167 0
72.0523 20.1207 0
74.5274 19.7713 0
41.8339 44.7787 0
44.3136 45.0892 0
87.0898 2.75513 0
86.5165 5.17662 0
19.3631 22.0104 0
18.9225 19.5613 0
17.5163 36.3674 0
16.2773 34.2076 0
26.0659 38.1146 0
24.1846 39.7608 0
61.6708 6.40022 0
59.6979 4.86407 0
39.7239 30.1802 0
40.0403 32.6578 0
63.2615 5.62023 0
60.7916 6.00284 0
60.5823 6.75285 0
61.4302 4.40183 0
79.3264 37.0139 0
76.8898 37.5697 0
46.8228 23.4943 0
47.7808 21.1857 0
81.9612 12.3785 0
79.484 12.7346 0
17.6923 13.0093 0
18.5073 15.3596 0
48.2084 40.7223 0
46.3947 42.4418 0
65.3831 19.8908 0
64.1538 17.714 0
42.9233 40.1335 0
41.747 42.339 0
54.5091 17.0672 0
53.4369 19.3244 0
22.903 29.4652 0
25.294 28.737 0
23.2318 14.9821 0
20.7929 14.4288 0
92.325 7.80903 0
90.807 9.78663 0
32.1315 32.1742 0
33.5968 30.1505 0
68.7339 28.6529 0
68.9684 31.1379 0
97.671 2.41882 0
96.1814 4.41721 0
67.3698 15.1013 0
69.8319 14.6825 0
78.3653 23.4179 0
78.8229 20.9704 0
37.5644 16.1305 0
35.1839 15.378 0
68.9143 9.4085 0
69.466 6.97345 0
32.9328 20.3404 0
34.2796 18.2344 0
33.2661 31.7424 0
34.916 29.8658 0
87.9002 26.0389 0
89.876 27.5751 0
84.2765 23.7253 0
86.6994 24.3569 0
38.5144 11.3167 0
36.0854 11.9052 0
65.6897 40.4754 0
63.5204 39.2337 0
37.714 1.68852 0
35.5365 2.91839 0
75.4816 40.0457 0
75.906 42.5041 0
67.3397 2.29718 0
67.126 4.78754 0
71.9958 15.2789 0
70.1506 13.5891 0
63.3778 32.0205 0
65.8711 32.1756 0
39.5896 3.29686 0
38.8511 5.68532 0
46.2228 18.8286 0
47.7918 16.8832 0
37.5112 38.8604 0
36.3037 41.0482 0
90.1704 7.32984 0
90.8959 4.94752 0
92.5914 20.0874 0
90.1873 19.3875 0
55.8986 19.3501 0
56.1507 16.8634 0
22.8555 18.8739 0
21.4747 20.9536 0
32.7262 16.1456 0
34.5084 17.8913 0
72.9801 38.4654 0
73.341 35.9975 0
61.7471 40.8411 0
63.177 42.8907 0
27.445 32.977 0
29.7398 31.9862 0
27.6321 16.7001 0
25.7906 15.0199 0
39.5002 2.50009 0
37.4699 3.96044 0
18.6031 28.5465 0
17.7764 26.1973 0
73.4836 2.72782 0
75.21 0.937019 0
75.7739 42.1564 0
73.2766 42.2915 0
57.3554 44.0081 0
54.9342 43.3887 0
27.2441 9.10846 0
28.8726 10.9935 0
24.2 7.85964 0
23.0357 10.0701 0
76.6172 41.6418 0
74.5059 42.9765 0
30.3713 38.6484 0
32.0582 40.4885 0
47.7283 27.5619 0
48.5113 29.9348 0
78.4368 7.01676 0
80.9153 6.67478 0
76.0178 10.4354 0
76.2851 12.9127 0
69.5414 34.1661 0
68.9299 31.7454 0
77.7354 17.1416 0
79.7194 18.6648 0
84.5008 32.5998 0
85.6622 34.8054 0
64.9133 34.5141 0
64.2311 32.1111 0
32.404 10.2453 0
29.9063 10.1884 0
29.5264 44.5095 0
31.8213 45.4994 0
20.0466 29.1081 0
22.5088 28.6783 0
45.1455 28.404 0
47.3574 27.2437 0
19.274 33.8952 0
20.5459 31.748 0
66.1341 9.42957 0
66.1552 6.9305 0
61.6953 1.74445 0
64.0462 0.887835 0
80.9506 1.39691 0
79.813 3.60026 0
40.5921 47.5746 0
38.0949 47.4512 0
58.8087 26.1228 0
59.6273 28.4838 0
14.802 23.4502 0
16.8972 24.8087 0
4.11263 14.4488 0
6.16043 13.0125 0
84.2799 21.7022 0
82.6515 19.809 0
8.18358 0.607814 0
5.7216 0.181357 0
75.4509 20.1271 0
73.1018 20.977 0
52.4332 9.93061 0
50.7795 8.056 0
43.3139 5.82024 0
45.7125 5.11357 0
39.2763 2.84266 0
37.8612 4.90404 0
3.33727 8.65545 0
0.900122 8.09518 0
87.8881 12.1286 0
88.2139 14.597 0
39.6947 11.378 0
37.4296 10.3267 0
57.9437 7.3706 0
56.0193 5.7741 0
16.2454 26.8672 0
13.7589 27.151 0
52.5467 5.39618 0
55.0198 5.76548 0
89.8272 6.97566 0
92.2082 7.74619 0
93.495 4.64983 0
91.8494 2.76948 0
95.096 0.410027 0
96.8567 2.18575 0
16.0332 29.3855 0
18.4018 28.5894 0
62.4908 9.59601 0
61.7854 11.9929 0
18.5807 7.18671 0
17.9447 4.78693 0
70.1867 45.1423 0
67.8087 44.3678 0
79.6862 8.37855 0
80.573 6.05669 0
91.8913 15.6768 0
89.7339 14.4088 0
59.5397 8.78482 0
59.3378 6.29282 0
21.3809 28.5389 0
23.6846 29.503 0
24.8604 42.0513 0
26.3586 40.0519 0
22.3678 13.2816 0
24.5647 14.465 0
9.86605 12.0928 0
11.0456 9.89459 0
33.5147 45.4125 0
34.4713 43.1046 0
67.6305 35.8688 0
69.8939 36.9298 0
25.331 10.7071 0
26.8463 8.71531 0
84.0325 24.527 0
82.6908 22.4248 0
87.5721 2.04271 0
89.3516 3.79639 0
51.1095 40.9584 0
53.4457 41.8445 0
82.2017 9.43184 0
80.1161 8.04675 0
65.1224 14.5606 0
66.1291 16.849 0
42.9476 6.75552 0
42.7659 4.26247 0
53.5112 5.47776 0
55.4239 3.86784 0
44.3416 38.8735 0
42.8741 40.8966 0
90.5765 10.8463 0
92.5491 9.31685 0
23.2507 16.8923 0
24.7826 18.8574 0
23.7637 10.0793 0
23.8064 7.58917 0
60.7211 35.6977 0
60.9587 38.1849 0
44.6519 1.18365 0
42.2968 2.02817 0
78.3083 24.2713 0
79.0402 21.8909 0
68.8726 37.8741 0
68.7703 35.38 0
27.5496 6.4629 0
29.4617 4.84677 0
58.935 13.2255 0
59.0286 15.7233 0
57.7211 9.50099 0
59.653 11.0878 0
51.761 19.4939 0
54.1744 20.1361 0
50.6772 38.1508 0
48.1794 38.1494 0
47.4632 22.8037 0
46.412 25.0713 0
22.6161 21.1056 0
22.8211 23.5879 0
81.0243 2.1151 0
78.5686 1.61777 0
95.263 4.87171 0
95.4089 7.36081 0
48.3784 41.1061 0
46.7827 43.0298 0
26.3595 16.6507 0
25.219 18.8722 0
89.3231 21.4887 0
88.3628 23.7837 0
43.8474 3.55988 0
46.1167 4.60988 0
53.2859 27.8181 0
55.5229 28.9291 0
78.2881 8.34321 0
79.9502 6.48997 0
13.6855 14.0143 0
16.18 14.2321 0
54.0798 47.469 0
53.9846 44.9711 0
52.4092 5.97428 0
49.9861 5.35679 0
54.1096 40.5216 0
51.8119 41.5024 0
8.32681 21.9248 0
6.37076 23.4854 0
11.1129 27.6456 0
8.62135 27.4415 0
49.7341 47.1528 0
47.2347 47.1809 0
43.5576 18.3371 0
45.9044 19.1898 0
28.4241 43.4233 0
27.7351 41.0254 0
87.154 31.4584 0
86.4329 29.0809 0
85.8014 22.4443 0
86.6616 20.1099 0
85.9757 0.790969 0
88.4093 1.36944 0
83.5206 35.6403 0
84.5547 33.3768 0
24.1418 32.6251 0
25.7069 30.6784 0
45.5995 42.2277 0
47.1169 44.2131 0
21.3911 34.9049 0
23.6687 33.8735 0
6.28087 12.0906 0
4.36877 10.4857 0
34.5345 14.6624 0
36.15 12.7533 0
31.2779 45.8927 0
33.0023 44.0833 0
18.276 22.9574 0
20.6917 23.6036 0
10.2865 22.5235 0
11.9886 20.6931 0
50.2246 7.57081 0
47.8898 6.67693 0
47.4962 30.746 0
45.1635 29.8558 0
38.86 20.954 0
41.2711 20.3005 0
43.5952 9.91169 0
41.3882 11.0852 0
77.496 36.8952 0
79.2696 35.142 0
39.9087 8.88098 0
39.0771 11.239 0
74.8704 40.3283 0
73.6194 38.1666 0
60.7892 11.7982 0
58.9189 13.4529 0
96.2457 12.5205 0
94.0225 11.3729 0
43.765 25.3037 0
41.2681 25.3174 0
54.2791 42.8222 0
56.7533 42.4742 0
84.582 23.5127 0
82.0834 23.6626 0
2.51985 9.60319 0
4.58414 8.19155 0
82.1216 4.93769 0
84.6092 5.214 0
36.5568 16.3942 0
38.6775 17.7109 0
44.0109 9.34841 0
42.0224 10.8633 0
21.1932 26.4519 0
22.1951 28.7338 0
43.0548 27.1738 0
45.3699 26.2367 0
15.0485 19.6078 0
14.8729 22.09 0
20.156 8.57713 0
21.0225 6.23884 0
12.2336 24.8021 0
10.9746 22.6557 0
49.877 41.4713 0
48.6854 39.2747 0
9.59482 24.415 0
9.39783 26.8991 0
35.0939 43.9936 0
32.8835 45.1622 0
13.4073 18.2945 0
11.2215 17.0856 0
12.2637 23.7768 0
12.7011 21.3257 0
84.2183 17.4077 0
84.0578 14.9245 0
97.1037 15.4408 0
94.8982 14.2598 0
76.186 36.6913 0
77.5718 38.7692 0
4.72433 2.94135 0
2.26973 3.42675 0
13.8985 26.7789 0
11.4115 26.4984 0
9.90991 5.17989 0
8.64297 7.33013 0
87.007 9.97276 0
86.6984 7.50277 0
50.8095 18.9144 0
49.885 16.5921 0
22.826 2.95961 0
23.5133 0.55486 0
24.0563 40.3882 0
21.576 40.0693 0
4.31235 10.5152 0
1.90332 11.1912 0
74.0081 28.0824 0
72.4387 30.021 0
51.6092 16.5626 0
49.4399 17.801 0
94.6823 5.51576 0
96.5568 7.17023 0
92.4054 0.899581 0
90.0056 1.59276 0
54.6833 28.0169 0
57.0104 28.924 0
3.93247 2.1093 0
2.81297 4.3413 0
25.6172 42.0377 0
28.1011 41.7447 0
24.2996 33.184 0
25.7692 35.1985 0
64.8655 37.8396 0
63.0521 36.1199 0
45.7831 38.9693 0
46.3291 36.5304 0
59.1431 39.4063 0
58.3388 41.7719 0
42.8382 19.4305 0
41.6378 17.2399 0
48.5252 16.9099 0
47.4663 14.646 0
92.8689 4.86055 0
91.3455 6.8339 0
17.661 6.61079 0
16.0881 4.68051 0
31.5549 30.7097 0
33.0703 28.7232 0
49.5581 45.1601 0
50.5154 47.4691 0
51.6936 13.8336 0
49.2479 14.3406 0
35.2081 5.56694 0
34.5532 7.98014 0
90.6876 7.75328 0
90.2552 10.2051 0
55.2547 45.7844 0
54.0051 43.6193 0
16.7216 18.2061 0
18.9085 16.9887 0
14.6183 7.06684 0
14.2797 4.60257 0
24.294 34.3707 0
21.8017 34.564 0
62.6212 33.621 0
60.6533 35.1577 0
11.5569 19.6844 0
13.6597 21.03 0
76.8201 0.409332 0
74.3296 0.321557 0
59.9177 26.0873 0
57.6647 25.0077 0
70.4637 27.0731 0
67.9774 27.3167 0
46.2294 22.8503 0
46.9754 20.4645 0
76.5784 3.86867 0
74.1814 4.54654 0
47.8499 15.163 0
50.133 16.176 0
88.1742 13.5837 0
89.9473 11.8298 0
71.0024 0.141283 0
73.317 1.08641 0
56.2777 45.7178 0
57.2086 43.3985 0
68.1684 3.33167 0
65.9432 2.1899 0
22.8504 17.6946 0
24.7691 16.0896 0
81.1833 38.7335 0
83.1627 37.2133 0
49.4126 3.02101 0
51.1125 4.85453 0
66.017 3.40028 0
63.6832 2.50331 0
53.299 12.2107 0
53.0649 9.72151 0
12.6052 15.4338 0
10.7865 17.1491 0
43.177 4.7232 0
43.6215 7.18297 0
56.1598 20.6347 0
58.6088 21.1248 0
60.8369 22.4351 0
58.3583 22.1283 0
28.8249 27.2376 0
27.0081 25.5279 0
40.7078 6.9968 0
38.231 7.33079 0
17.4018 2.35366 0
19.8829 2.02781 0
42.8424 25.8992 0
40.3669 26.2288 0
7.02476 17.7131 0
8.35145 19.8224 0
20.3 12.012 0
22.1434 10.3207 0
67.3927 40.0905 0
65.4833 41.7001 0
45.1276 41.5756 0
45.9834 43.9236 0
70.8014 17.2912 0
73.1831 16.5396 0
88.2828 4.87789 0
90.0222 6.67099 0
49.8863 20.2353 0
48.1635 22.0449 0
56.3529 37.7655 0
56.3536 40.2647 0
82.362 26.0649 0
80.8417 28.041 0
39.579 4.4955 0
41.5664 6.01055 0
55.1629 43.6347 0
57.005 41.9467 0
55.3765 43.5197 0
57.058 41.6716 0
25.0554 15.4275 0
23.2372 13.7241 0
14.364 27.852 0
13.5282 30.1938 0
53 17.1072 0
51.1964 18.8358 0
32.5345 42.8943 0
34.8863 43.7397 0
19.7134 10.8877 0
21.4694 12.655 0
61.515 41.1999 0
63.7511 40.0863 0
32.9665 27.5175 0
31.0194 29.0843 0
31.0149 21.2591 0
31.9866 23.5563 0
72.0544 27.5058 0
71.223 29.857 0
38.0889 13.1634 0
40.5618 13.5125 0
47.3031 48.0323 0
45.4831 46.3192 0
70.6093 11.5812 0
70.4741 14.0728 0
98.6589 10.2028 0
96.5968 8.78797 0
96.4666 15.9331 0
93.9658 16.0002 0
58.9466 10.2933 0
59.683 12.6825 0
54.9932 18.4496 0
56.4744 20.4628 0
53.9065 41.7161 0
56.3701 41.3009 0
5.04621 4.43442 0
7.52677 4.11042 0
84.5021 18.8466 0
86.8268 19.7779 0
19.2919 30.2951 0
19.52 32.7759 0
64.4058 35.8906 0
63.1587 33.7253 0
66.475 23.5744 0
68.9719 23.4911 0
60.383 25.5375 0
62.678 24.5553 0
55.9137 21.2371 0
57.6055 19.4001 0
21.5829 36.4292 0
19.0897 36.6262 0
55.9462 32.4038 0
58.3782 31.8382 0
67.9357 1.75927 0
70.1258 2.96812 0
16.2214 6.27834 0
17.6181 4.21341 0
91.8135 24.2634 0
91.1418 26.661 0
89.1988 19.1798 0
86.7289 18.7634 0
88.0862 12.6121 0
86.5279 14.5566 0
76.4069 18.9295 0
77.5994 16.7434 0
71.0027 21.0645 0
70.0915 23.3855 0
26.6309 25.5724 0
25.4128 27.7516 0
55.8001 26.4245 0
55.5527 28.9109 0
59.1634 43.1695 0
57.5207 45.0523 0
66.216 18.8402 0
68.2598 17.4091 0
81.258 33.648 0
79.7226 31.6794 0
50.4281 9.09328 0
49.7703 11.5053 0
26.0722 27.5785 0
24.0396 29.0321 0
49.6498 27.3868 0
49.8898 24.8989 0
89.3013 25.5309 0
91.8009 25.4449 0
78.9693 32.1817 0
76.6375 33.0745 0
76.1924 37.5088 0
76.6341 35.0554 0
22.6847 1.49378 0
23.5145 3.83631 0
17.241 11.9864 0
15.7635 9.98247 0
76.5279 35.8587 0
78.3927 34.2023 0
25.5385 42.8805 0
23.7534 41.1359 0
24.9576 3.59531 0
23.139 1.90584 0
86.8953 24.5058 0
85.0394 22.8321 0
84.0664 33.5644 0
83.1819 31.2343 0
68.0002 9.22565 0
65.8978 7.86945 0
6.42775 3.79366 0
4.6584 5.55946 0
88.4796 7.27829 0
89.3629 4.95055 0
68.0773 40.9277 0
69.9146 39.2373 0
33.5906 18.9396 0
33.4909 21.4346 0
18.3985 18.4143 0
19.9976 20.3257 0
51.0062 20.7473 0
51.9947 18.4518 0
81.1994 27.3019 0
79.0012 26.1133 0
33.6554 33.7704 0
31.4754 34.993 0
42.0811 36.7501 0
44.2699 35.5453 0
9.4925 8.10785 0
8.11955 6.0279 0
46.3957 9.14021 0
43.9195 9.47754 0
38.9226 45.8965 0
36.739 44.6808 0
56.6703 44.8738 0
57.0836 42.409 0
50.8193 7.87785 0
52.1416 9.99938 0
69.3059 9.65853 0
68.1953 11.8918 0
52.7866 10.7594 0
53.9932 8.57025 0
87.9561 0.59164 0
87.4355 3.02597 0
87.5761 29.7503 0
88.4974 27.445 0
27.7806 27.9042 0
29.3354 25.9488 0
41.1457 3.29095 0
43.5679 2.66654 0
47.3842 29.3677 0
44.8886 29.2893 0
44.9021 23.2584 0
42.4278 22.9243 0
57.5513 36.2898 0
55.6894 34.6233 0
79.9242 4.79577 0
81.3142 6.86848 0
32.9967 1.57481 0
31.3321 3.44109 0
37.9967 49.8118 0
37.9247 51.3799 0
37.9247 51.3799 0
37.7161 52.9359 0
37.7161 52.9359 0
37.3725 54.4677 0
37.3725 54.4677 0
36.8965 55.9639 0
36.8965 55.9639 0
36.2918 57.4128 0
36.2918 57.4128 0
35.5631 58.8036 0
35.5631 58.8036 0
34.7159 60.1256 0
34.7159 60.1256 0
33.7567 61.3687 0
33.7567 61.3687 0
32.6927 62.5236 0
32.6927 62.5236 0
31.5322 63.5814 0
31.5322 63.5814 0
30.284 64.5341 0
30.284 64.5341 0
28.9575 65.3746 0
28.9575 65.3746 0
27.5628 66.0963 0
27.5628 66.0963 0
26.1106 66.6939 0
26.1106 66.6939 0
24.6118 67.1627 0
24.6118 67.1627 0
23.078 67.4993 0
23.078 67.4993 0
21.5206 67.7012 0
21.5206 67.7012 0
19.9516 67.7667 0
19.9516 67.7667 0
18.3828 67.6953 0
18.3828 67.6953 0
16.8262 67.4877 0
16.8262 67.4877 0
15.2935 67.1454 0
15.2935 67.1454 0
13.7966 66.671 0
13.7966 66.671 0
12.3466 66.068 0
12.3466 66.068 0
10.9546 65.3411 0
10.9546 65.3411 0
9.63122 64.4957 0
9.63122 64.4957 0
8.38652 63.5384 0
8.38652 63.5384 0
7.22994 62.4763 0
7.22994 62.4763 0
6.17031 61.3175 0
6.17031 61.3175 0
5.21571 60.0708 0
5.21571 60.0708 0
4.37339 58.7457 0
4.37339 58.7457 0
3.6498 57.3523 0
3.6498 57.3523 0
3.05048 55.9011 0
3.05048 55.9011 0
2.58 54.4032 0
2.58 54.4032 0
2.24197 52.8701 0
2.24197 52.8701 0
2.03904 51.3134 0
2.03904 51.3134 0
1.97276 49.745 0
1.97276 49.745 0
2.04367 48.1768 0
2.04367 48.1768 0
2.25128 46.621 0
2.25128 46.621 0
2.59405 45.0894 0
2.59405 45.0894 0
3.06939 43.5937 0
3.06939 43.5937 0
3.67372 42.1455 0
3.67372 42.1455 0
4.40242 40.756 0
4.40242 40.756 0
5.24998 39.4358 0
5.24998 39.4358 0
6.21 38.1954 0
6.21 38.1954 0
7.275 37.0447 0
7.275 37.0447 0
8.437 35.9927 0
8.437 35.9927 0
9.6871 35.049 0
9.6871 35.049 0
11.016 34.2212 0
11.016 34.2212 0
12.4151 33.5132 0
12.4151 33.5132 0
13.8695 32.9205 0
13.8695 32.9205 0
15.3674 32.4513 0
15.3674 32.4513 0
16.8998 32.1126 0
16.8998 32.1126 0
18.4559 31.9076 0
18.4559 31.9076 0
20.0239 31.8384 0
20.0239 31.8384 0
21.5921 31.9056 0
21.5921 31.9056 0
23.1482 32.1089 0
23.1482 32.1089 0
24.6803 32.4466 0
24.6803 32.4466 0
26.177 32.9164 0
26.177 32.9164 0
27.6266 33.5149 0
27.6266 33.5149 0
29.0182 34.2377 0
29.0182 34.2377 0
30.3411 35.0792 0
30.3411 35.0792 0
31.5854 36.0331 0
31.5854 36.0331 0
32.7415 37.0922 0
32.7415 37.0922 0
33.8008 38.2484 0
33.8008 38.2484 0
34.755 39.4928 0
34.755 39.4928 0
35.5971 40.8161 0
35.5971 40.8161 0
36.3205 42.208 0
36.3205 42.208 0
36.9198 43.658 0
36.9198 43.658 0
37.3902 45.1549 0
37.3902 45.1549 0
37.7283 46.6874 0
37.7283 46.6874 0
37.9311 48.2437 0
37.9311 48.2437 0
37.9967 49.8118 0
98.0273 49.7448 0
97.961 51.3132 0
97.961 51.3132 0
97.7581 52.8699 0
97.7581 52.8699 0
97.42 54.403 0
97.42 54.403 0
96.9496 55.9008 0
96.9496 55.9008 0
96.3502 57.352 0
96.3502 57.352 0
95.6266 58.7454 0
95.6266 58.7454 0
94.7843 60.0705 0
94.7843 60.0705 0
93.8297 61.3172 0
93.8297 61.3172 0
92.7701 62.476 0
92.7701 62.476 0
91.6135 63.5381 0
91.6135 63.5381 0
90.3688 64.4955 0
90.3688 64.4955 0
89.0454 65.3408 0
89.0454 65.3408 0
87.6534 66.0677 0
87.6534 66.0677 0
86.2034 66.6707 0
86.2034 66.6707 0
84.7064 67.1451 0
84.7064 67.1451 0
83.1738 67.4874 0
83.1738 67.4874 0
81.6172 67.695 0
81.6172 67.695 0
80.0484 67.7663 0
80.0484 67.7663 0
78.4794 67.7008 0
78.4794 67.7008 0
76.922 67.499 0
76.922 67.499 0
75.3881 67.1624 0
75.3881 67.1624 0
73.8894 66.6935 0
73.8894 66.6935 0
72.4372 66.0959 0
72.4372 66.0959 0
71.0425 65.3742 0
71.0425 65.3742 0
69.716 64.5338 0
69.716 64.5338 0
68.4678 63.581 0
68.4678 63.581 0
67.3073 62.5232 0
67.3073 62.5232 0
66.2434 61.3683 0
66.2434 61.3683 0
65.2842 60.1252 0
65.2842 60.1252 0
64.437 58.8032 0
64.437 58.8032 0
63.7082 57.4124 0
63.7082 57.4124 0
63.1036 55.9634 0
63.1036 55.9634 0
62.6276 54.4673 0
62.6276 54.4673 0
62.284 52.9354 0
62.284 52.9354 0
62.0754 51.3795 0
62.0754 51.3795 0
62.0035 49.8114 0
62.0035 49.8114 0
62.0691 48.2432 0
62.0691 48.2432 0
62.2719 46.687 0
62.2719 46.687 0
62.61 45.1545 0
62.61 45.1545 0
63.0804 43.6575 0
63.0804 43.6575 0
63.6796 42.2075 0
63.6796 42.2075 0
64.403 40.8156 0
64.403 40.8156 0
65.2451 39.4924 0
65.2451 39.4924 0
66.1993 38.248 0
66.1993 38.248 0
67.2585 37.0918 0
67.2585 37.0918 0
68.4147 36.0328 0
68.4147 36.0328 0
69.659 35.0789 0
69.659 35.0789 0
70.9819 34.2374 0
70.9819 34.2374 0
72.3735 33.5147 0
72.3735 33.5147 0
73.8231 32.916 0
73.8231 32.916 0
75.3197 32.446 0
75.3197 32.446 0
76.852 32.1082 0
76.852 32.1082 0
78.4081 31.905 0
78.4081 31.905 0
79.9761 31.8379 0
79.9761 31.8379 0
81.5442 31.9072 0
81.5442 31.9072 0
83.1004 32.1122 0
83.1004 32.1122 0
84.633 32.4509 0
84.633 32.4509 0
86.1309 32.9202 0
86.1309 32.9202 0
87.5847 33.5131 0
87.5847 33.5131 0
88.9843 34.221 0
88.9843 34.221 0
90.3133 35.0493 0
90.3133 35.0493 0
91.5631 35.9928 0
91.5631 35.9928 0
92.7251 37.0444 0
92.7251 37.0444 0
93.7902 38.1952 0
93.7902 38.1952 0
94.7501 39.4356 0
94.7501 39.4356 0
95.5977 40.7558 0
95.5977 40.7558 0
96.3264 42.1453 0
96.3264 42.1453 0
96.9307 43.5935 0
96.9307 43.5935 0
97.406 45.0892 0
97.406 45.0892 0
97.7488 46.6208 0
97.7488 46.6208 0
97.9564 48.1767 0
97.9564 48.1767 0
98.0273 49.7448 0
      </DataArray>
    </Points>
    <Cells>
      <DataArray type="Int32" Name="connectivity" format="ascii">
247 120 114 753 754 755 
213 114 214 748 749 750 
487 220 257 647 745 730 
257 115 260 741 742 743 
246 300 116 738 739 740 
212 116 247 731 732 733 
246 257 117 724 725 726 
299 117 312 719 720 721 
303 310 118 716 717 718 
248 118 256 711 712 713 
513 495 483 150 224 119 
507 513 483 151 119 184 
248 120 302 704 705 706 
221 258 121 1196 1197 1198 
259 121 313 1191 1192 1193 
464 430 432 332 409 122 
436 464 432 326 122 408 
346 1189 123 1186 1187 1188 
298 123 351 1181 1182 1183 
71 311 124 699 700 701 
65 124 372 692 693 694 
79 369 125 687 688 689 
684 125 309 680 681 682 
211 243 126 1178 1179 1180 
244 126 297 1173 1174 1175 
462 474 436 240 281 127 
438 462 436 294 127 327 
512 515 514 131 129 134 
513 509 511 130 132 135 
514 515 510 129 139 128 
508 514 510 148 128 147 
496 500 514 146 133 149 
513 499 495 136 145 150 
507 509 513 143 130 151 
505 491 497 141 142 154 
504 515 512 137 131 155 
174 503 511 1151 156 144 
512 514 500 134 133 159 
499 513 511 136 135 162 
494 515 504 138 137 165 
171 510 515 1164 139 166 
140 167 168 678 674 675 
167 492 168 672 661 674 
491 505 506 141 153 169 
177 498 497 656 164 170 
173 490 174 1156 1149 1171 
217 489 503 1126 176 175 
495 499 498 145 163 178 
501 500 496 158 146 179 
172 486 181 1162 1145 1169 
496 514 508 149 148 183 
480 481 140 227 152 187 
479 506 505 188 153 190 
477 505 497 191 154 193 
504 512 475 155 160 194 
472 511 503 161 156 197 
501 502 471 157 199 200 
500 501 470 158 201 202 
475 512 500 160 159 203 
499 511 472 162 161 204 
498 499 469 163 205 206 
497 498 468 164 207 208 
494 504 474 165 195 210 
211 493 171 1165 1161 1166 
167 180 212 667 668 669 
168 492 213 661 662 663 
214 488 177 657 653 658 
172 171 215 1158 1159 1160 
173 185 216 1153 1154 1155 
174 490 217 1149 1127 1150 
473 503 489 196 176 218 
177 488 219 653 643 654 
220 487 180 647 648 649 
182 181 221 1142 1143 1144 
496 508 115 183 222 747 
225 484 185 886 1138 1139 
482 502 481 198 186 226 
506 480 140 189 187 677 
480 506 479 189 188 228 
479 505 478 190 192 229 
478 505 477 192 191 230 
477 497 476 193 209 231 
474 504 475 195 194 232 
472 503 473 197 196 233 
471 502 482 199 198 234 
470 501 471 201 200 235 
475 500 470 203 202 236 
469 499 472 205 204 237 
468 498 469 207 206 238 
476 497 468 209 208 239 
494 474 461 210 241 242 
215 245 249 1133 1134 1135 
216 250 251 1128 1129 1130 
217 252 253 1123 1124 1125 
307 451 473 1047 255 254 
223 219 256 640 641 642 
583 263 223 1074 637 628 
582 261 264 1120 1121 1122 
445 482 481 265 226 268 
444 481 480 267 227 270 
443 480 479 269 228 272 
442 479 478 271 229 274 
441 478 477 273 230 276 
440 477 476 275 231 278 
474 475 436 232 280 281 
472 473 435 233 283 284 
471 482 446 234 266 286 
470 471 434 235 287 288 
464 475 470 279 236 289 
469 472 463 237 285 290 
468 469 433 238 291 292 
439 476 468 277 239 293 
461 474 462 241 240 295 
296 460 243 1071 1116 1117 
245 244 298 1107 1108 1109 
258 249 304 1100 1101 1102 
250 262 305 1095 1096 1097 
252 251 306 1088 1089 1090 
253 452 307 1084 1044 1085 
437 473 451 282 255 308 
633 314 591 871 832 1082 
262 261 316 1075 1076 1077 
318 629 578 854 810 809 
446 482 445 266 265 319 
445 481 444 268 267 320 
444 480 443 270 269 321 
443 479 442 272 271 322 
442 478 441 274 273 323 
441 477 440 276 275 324 
440 476 439 278 277 325 
436 475 464 280 279 326 
435 473 437 283 282 328 
463 472 435 285 284 329 
434 471 446 287 286 330 
464 470 434 289 288 331 
433 469 463 291 290 334 
439 468 433 293 292 335 
462 438 43 294 338 339 
461 462 45 295 340 341 
296 342 343 1068 1069 1070 
297 344 345 1063 1064 1065 
299 311 347 621 622 623 
301 300 348 616 617 618 
302 301 349 609 610 611 
309 303 350 602 603 604 
304 352 353 1058 1059 1060 
305 358 359 1053 1054 1055 
306 361 362 1048 1049 1050 
307 452 364 1044 934 1045 
437 451 109 308 367 368 
599 317 597 848 850 1042 
592 315 593 841 840 1040 
313 355 375 1035 1036 1037 
585 586 587 1032 1033 1034 
356 316 378 1027 1028 1029 
578 579 580 1024 1025 1026 
3 446 445 381 319 383 
7 445 444 384 320 386 
11 444 443 387 321 389 
15 443 442 390 322 392 
19 442 441 393 323 395 
23 441 440 396 324 398 
27 440 439 399 325 401 
432 438 436 336 327 408 
435 437 431 328 337 410 
429 463 435 333 329 411 
434 446 0 330 382 413 
430 464 434 332 331 414 
433 463 429 334 333 415 
1 439 433 402 335 416 
39 438 432 404 336 417 
431 437 940 337 407 418 
43 438 41 338 405 42 
45 462 43 340 339 44 
47 49 342 48 1019 1020 
344 343 51 1009 1010 1011 
346 345 1013 1000 1001 1002 
348 347 702 569 570 571 
350 349 75 560 561 562 
352 351 55 991 992 993 
354 353 979 984 985 986 
355 354 995 975 976 977 
357 356 89 968 969 970 
358 357 956 959 960 961 
360 359 972 952 953 954 
361 360 95 943 944 945 
363 362 99 936 937 938 
364 363 103 927 928 929 
107 451 105 366 365 106 
109 451 107 367 366 108 
931 437 109 406 368 110 
370 369 548 553 554 555 
371 370 690 544 545 546 
372 374 532 537 538 539 
374 373 696 528 529 530 
376 375 61 920 921 922 
924 523 524 915 916 917 
378 380 85 908 909 910 
516 911 518 903 904 905 
0 446 3 382 381 2 
3 445 5 383 385 4 
5 445 7 385 384 6 
7 444 9 386 388 8 
9 444 11 388 387 10 
11 443 13 389 391 12 
13 443 15 391 390 14 
15 442 17 392 394 16 
17 442 19 394 393 18 
19 441 21 395 397 20 
21 441 23 397 396 22 
23 440 25 398 400 24 
25 440 27 400 399 26 
27 439 29 401 403 28 
29 439 1 403 402 30 
41 438 39 405 404 40 
940 437 931 407 406 932 
432 430 31 409 423 419 
429 435 431 411 410 412 
93 429 431 426 412 422 
430 434 0 414 413 424 
1 433 429 416 415 428 
39 432 37 417 420 38 
947 431 940 421 418 941 
37 432 31 420 419 36 
93 431 947 422 421 948 
31 430 33 423 425 32 
33 430 0 425 424 34 
112 429 93 427 426 111 
1 429 112 428 427 113 
220 115 257 746 741 745 
518 899 519 896 897 898 
521 519 380 889 890 891 
630 264 225 882 883 884 
491 177 497 659 170 142 
481 502 140 186 676 152 
744 182 635 879 874 875 
120 247 467 753 735 707 
247 114 492 755 752 736 
114 120 488 754 710 751 
114 213 492 748 662 752 
213 214 491 750 660 665 
214 114 488 749 751 657 
115 220 496 746 652 747 
257 260 466 743 632 727 
182 485 635 878 870 874 
300 246 458 738 728 619 
246 116 487 740 737 729 
116 300 467 739 620 734 
116 212 487 731 670 737 
212 247 492 733 736 671 
247 116 467 732 734 735 
257 246 487 724 729 730 
246 117 458 726 723 728 
117 257 466 725 727 722 
117 299 458 719 625 723 
299 312 449 721 595 626 
312 117 466 720 722 596 
310 303 450 716 608 600 
303 118 457 718 715 605 
118 310 465 717 601 714 
118 248 457 711 708 715 
248 256 488 713 644 709 
256 118 465 712 714 645 
120 248 488 704 709 710 
248 302 457 706 613 708 
302 120 467 705 707 614 
311 71 573 699 72 624 
71 124 63 701 698 70 
124 311 449 700 627 695 
124 65 63 692 64 698 
65 372 67 694 542 66 
372 124 449 693 695 543 
369 79 81 687 80 556 
79 125 73 689 686 78 
125 369 450 688 559 683 
125 684 73 680 685 686 
684 309 564 682 606 565 
309 125 450 681 683 607 
167 140 502 678 676 679 
501 167 502 673 679 157 
140 168 506 675 666 677 
180 167 501 667 673 651 
167 212 492 669 671 672 
212 180 487 668 648 670 
506 168 213 666 663 664 
491 506 213 169 664 665 
491 214 177 660 658 659 
498 177 219 656 654 655 
495 498 219 178 655 646 
496 220 180 652 649 650 
501 496 180 179 650 651 
219 223 495 640 639 646 
223 256 465 642 645 636 
256 219 488 641 643 644 
495 223 263 639 637 638 
483 495 263 224 638 631 
633 635 634 867 868 869 
588 634 259 860 861 862 
629 318 630 854 855 856 
311 299 449 621 626 627 
299 347 458 623 577 625 
347 311 573 622 624 572 
300 301 467 616 615 620 
301 348 69 618 575 612 
348 300 458 617 619 576 
301 302 467 609 614 615 
302 349 457 611 568 613 
349 301 69 610 612 563 
303 309 450 602 607 608 
309 350 564 604 566 606 
350 303 457 603 605 567 
597 317 584 850 807 851 
599 550 581 845 846 847 
371 310 450 598 600 551 
590 315 592 835 841 842 
312 373 449 594 536 595 
593 589 531 836 837 838 
585 590 591 827 828 829 
587 523 589 818 819 820 
586 588 527 811 812 813 
578 583 584 802 803 804 
580 521 582 793 794 795 
579 581 516 784 785 786 
347 348 458 569 576 577 
348 702 69 571 703 575 
702 347 573 570 572 574 
349 350 457 560 567 568 
350 75 564 562 76 566 
75 349 69 561 563 74 
369 370 450 553 552 559 
370 548 557 555 549 547 
548 369 81 554 556 82 
370 371 450 544 551 552 
778 77 550 783 779 780 
690 370 557 545 547 558 
374 372 449 537 543 535 
372 532 67 539 68 542 
532 374 540 538 534 533 
373 374 449 528 535 536 
374 696 540 530 541 534 
531 59 773 772 777 774 
524 527 526 765 766 767 
762 526 376 756 757 758 
744 635 633 875 867 873 
260 744 633 877 873 872 
211 171 515 1166 166 1167 
494 211 515 1168 1167 138 
509 174 511 1152 144 132 
174 217 503 1150 175 1151 
629 583 578 1073 802 810 
465 583 223 805 628 636 
489 307 473 1086 254 218 
258 221 486 1196 1146 1105 
221 121 485 1198 1195 1147 
121 258 455 1197 1104 1194 
121 259 485 1191 864 1195 
259 313 448 1193 1038 865 
313 121 455 1192 1194 1039 
1189 346 1018 1186 1006 1023 
346 123 459 1188 1185 1007 
123 1189 35 1187 1190 1184 
123 298 459 1181 1111 1185 
298 351 456 1183 999 1112 
351 123 35 1182 1184 994 
243 211 494 1178 1168 1119 
211 126 493 1180 1177 1165 
126 243 460 1179 1116 1176 
126 244 493 1173 1115 1177 
244 297 459 1175 1066 1110 
297 126 460 1174 1176 1067 
173 174 509 1171 1152 1172 
507 173 509 1157 1172 143 
510 172 181 1163 1169 1170 
508 510 181 147 1170 1148 
171 172 510 1158 1163 1164 
172 215 486 1160 1136 1162 
215 171 493 1159 1161 1137 
185 173 507 1153 1157 1141 
173 216 490 1155 1131 1156 
216 185 484 1154 1138 1132 
181 182 508 1142 881 1148 
182 221 485 1144 1147 878 
221 181 486 1143 1145 1146 
225 185 507 1139 1141 1140 
483 225 507 887 1140 184 
245 215 493 1133 1137 1114 
215 249 486 1135 1106 1136 
249 245 456 1134 1113 1103 
250 216 484 1128 1132 1099 
216 251 490 1130 1094 1131 
251 250 453 1129 1098 1091 
252 217 490 1123 1127 1093 
217 253 489 1125 1087 1126 
253 252 452 1124 1092 1084 
261 582 447 1120 797 1078 
582 264 318 1122 888 798 
264 261 484 1121 1081 885 
461 296 243 1072 1117 1118 
494 461 243 242 1118 1119 
244 245 493 1107 1114 1115 
245 298 456 1109 1112 1113 
298 244 459 1108 1110 1111 
249 258 486 1100 1105 1106 
258 304 455 1102 1061 1104 
304 249 456 1101 1103 1062 
262 250 484 1095 1099 1080 
250 305 453 1097 1056 1098 
305 262 454 1096 1079 1057 
251 252 490 1088 1093 1094 
252 306 452 1090 1051 1092 
306 251 453 1089 1091 1052 
489 253 307 1087 1085 1086 
260 633 591 872 1082 1083 
466 260 591 632 1083 831 
261 262 484 1075 1080 1081 
262 316 454 1077 1031 1079 
316 261 447 1076 1078 1030 
583 629 263 1073 859 1074 
342 296 461 1068 1072 1022 
296 343 460 1070 1017 1071 
343 342 49 1069 1019 1012 
344 297 460 1063 1067 1016 
297 345 459 1065 1008 1066 
345 344 1004 1064 1015 1003 
352 304 456 1058 1062 998 
304 353 455 1060 990 1061 
353 352 57 1059 997 987 
358 305 454 1053 1057 966 
305 359 453 1055 958 1056 
359 358 963 1054 965 955 
361 306 453 1048 1052 950 
306 362 452 1050 942 1051 
362 361 97 1049 949 939 
451 307 364 1047 1045 1046 
105 451 364 365 1046 933 
371 599 597 849 1042 1043 
310 371 597 598 1043 852 
592 593 373 1040 839 1041 
312 592 373 844 1041 594 
355 313 455 1035 1039 982 
313 375 448 1037 926 1038 
375 355 53 1036 981 923 
586 585 314 1032 833 816 
585 587 315 1034 824 834 
587 586 377 1033 815 825 
316 356 454 1027 974 1031 
356 378 83 1029 913 971 
378 316 447 1028 1030 914 
579 578 317 1024 808 791 
578 580 318 1026 799 809 
580 579 379 1025 790 800 
45 47 342 46 1020 1021 
461 45 342 341 1021 1022 
343 344 460 1009 1016 1017 
344 51 1004 1011 52 1015 
51 343 49 1010 1012 50 
345 346 459 1000 1007 1008 
346 1013 1018 1002 1014 1006 
1013 345 1004 1001 1003 1005 
351 352 456 991 998 999 
352 55 57 993 56 997 
55 351 35 992 994 54 
353 354 455 984 983 990 
354 979 988 986 980 978 
979 353 57 985 987 58 
354 355 455 975 982 983 
355 995 53 977 996 981 
995 354 988 976 978 989 
356 357 454 968 967 974 
357 89 91 970 90 962 
89 356 83 969 971 88 
357 358 454 959 966 967 
358 956 963 961 957 965 
956 357 91 960 962 92 
359 360 453 952 951 958 
360 972 87 954 973 946 
972 359 963 953 955 964 
360 361 453 943 950 951 
361 95 97 945 96 949 
95 360 87 944 946 94 
362 363 452 936 935 942 
363 99 101 938 100 930 
99 362 97 937 939 98 
363 364 452 927 934 935 
364 103 105 929 104 933 
103 363 101 928 930 102 
375 376 448 920 760 926 
376 61 522 922 62 761 
61 375 53 921 923 60 
523 924 59 915 925 821 
924 524 918 917 769 919 
524 523 377 916 826 770 
380 378 447 908 914 894 
378 85 83 910 84 913 
85 380 517 909 893 86 
911 516 77 903 788 912 
516 518 379 905 900 789 
518 911 906 904 907 901 
899 518 906 896 901 902 
518 519 379 898 895 900 
519 899 517 897 520 892 
519 521 379 889 801 895 
521 380 447 891 894 796 
380 519 517 890 892 893 
264 630 318 882 855 888 
630 225 483 884 887 858 
225 264 484 883 885 886 
508 182 744 881 879 880 
115 508 744 222 880 876 
115 744 260 876 877 742 
633 634 314 869 866 871 
634 635 485 868 870 863 
634 588 314 860 817 866 
588 259 448 862 865 814 
259 634 485 861 863 864 
263 629 630 859 856 857 
483 263 630 631 857 858 
597 584 465 851 806 853 
310 597 465 852 853 601 
550 599 371 845 849 782 
599 581 317 847 792 848 
581 550 77 846 779 787 
466 590 592 830 842 843 
312 466 592 596 843 844 
589 593 315 836 840 823 
593 531 373 838 775 839 
531 589 59 837 822 772 
590 585 315 827 834 835 
585 591 314 829 832 833 
591 590 466 828 830 831 
523 587 377 818 825 826 
587 589 315 820 823 824 
589 523 59 819 821 822 
588 586 314 811 816 817 
586 527 377 813 771 815 
527 588 448 812 814 768 
578 584 317 804 807 808 
584 583 465 803 805 806 
521 580 379 793 800 801 
580 582 318 795 798 799 
582 521 447 794 796 797 
581 579 317 784 791 792 
579 516 379 786 789 790 
516 581 77 785 787 788 
690 778 550 691 780 781 
371 690 550 546 781 782 
531 773 696 774 697 776 
373 531 696 775 776 529 
527 524 377 765 770 771 
524 526 918 767 764 769 
526 527 448 766 768 759 
526 762 918 756 763 764 
762 376 522 758 761 525 
376 526 448 757 759 760 
1199 1200
1201 1202
1203 1204
1205 1206
1207 1208
1209 1210
1211 1212
1213 1214
1215 1216
1217 1218
1219 1220
1221 1222
1223 1224
1225 1226
1227 1228
1229 1230
1231 1232
1233 1234
1235 1236
1237 1238
1239 1240
1241 1242
1243 1244
1245 1246
1247 1248
1249 1250
1251 1252
1253 1254
1255 1256
1257 1258
1259 1260
1261 1262
1263 1264
1265 1266
1267 1268
1269 1270
1271 1272
1273 1274
1275 1276
1277 1278
1279 1280
1281 1282
1283 1284
1285 1286
1287 1288
1289 1290
1291 1292
1293 1294
1295 1296
1297 1298
1299 1300
1301 1302
1303 1304
1305 1306
1307 1308
1309 1310
1311 1312
1313 1314
1315 1316
1317 1318
1319 1320
1321 1322
1323 1324
1325 1326
1327 1328
1329 1330
1331 1332
1333 1334
1335 1336
1337 1338
1339 1340
1341 1342
1343 1344
1345 1346
1347 1348
1349 1350
1351 1352
1353 1354
1355 1356
1357 1358
1359 1360
1361 1362
1363 1364
1365 1366
1367 1368
1369 1370
1371 1372
1373 1374
1375 1376
1377 1378
1379 1380
1381 1382
1383 1384
1385 1386
1387 1388
1389 1390
1391 1392
1393 1394
1395 1396
1397 1398
1399 1400
1401 1402
1403 1404
1405 1406
1407 1408
1409 1410
1411 1412
1413 1414
1415 1416
1417 1418
1419 1420
1421 1422
1423 1424
1425 1426
1427 1428
1429 1430
1431 1432
1433 1434
1435 1436
1437 1438
1439 1440
1441 1442
1443 1444
1445 1446
1447 1448
1449 1450
1451 1452
1453 1454
1455 1456
1457 1458
1459 1460
1461 1462
1463 1464
1465 1466
1467 1468
1469 1470
1471 1472
1473 1474
1475 1476
1477 1478
1479 1480
1481 1482
1483 1484
1485 1486
1487 1488
1489 1490
1491 1492
1493 1494
1495 1496
1497 1498
1499 1500
1501 1502
1503 1504
1505 1506
1507 1508
1509 1510
1511 1512
1513 1514
1515 1516
1517 1518
1519 1520
1521 1522
1523 1524
1525 1526
1527 1528
1529 1530
1531 1532
1533 1534
1535 1536
1537 1538
1539 1540
1541 1542
1543 1544
1545 1546
1547 1548
1549 1550
1551 1552
1553 1554
1555 1556
1557 1558
1559 1560
1561 1562
1563 1564
1565 1566
1567 1568
1569 1570
1571 1572
1573 1574
1575 1576
1577 1578
1579 1580
1581 1582
1583 1584
1585 1586
1587 1588
1589 1590
1591 1592
1593 1594
1595 1596
1597 1598
1599 1600
1601 1602
1603 1604
1605 1606
1607 1608
1609 1610
1611 1612
1613 1614
1615 1616
1617 1618
1619 1620
1621 1622
1623 1624
1625 1626
1627 1628
1629 1630
1631 1632
1633 1634
1635 1636
1637 1638
1639 1640
1641 1642
1643 1644
1645 1646
1647 1648
1649 1650
1651 1652
1653 1654
1655 1656
1657 1658
1659 1660
1661 1662
1663 1664
1665 1666
1667 1668
1669 1670
1671 1672
1673 1674
1675 1676
1677 1678
1679 1680
1681 1682
1683 1684
1685 1686
1687 1688
1689 1690
1691 1692
1693 1694
1695 1696
1697 1698
1699 1700
1701 1702
1703 1704
1705 1706
1707 1708
1709 1710
1711 1712
1713 1714
1715 1716
1717 1718
1719 1720
1721 1722
1723 1724
1725 1726
1727 1728
1729 1730
1731 1732
1733 1734
1735 1736
1737 1738
1739 1740
1741 1742
1743 1744
1745 1746
1747 1748
1749 1750
1751 1752
1753 1754
1755 1756
1757 1758
1759 1760
1761 1762
1763 1764
1765 1766
1767 1768
1769 1770
1771 1772
1773 1774
1775 1776
1777 1778
1779 1780
1781 1782
1783 1784
1785 1786
1787 1788
1789 1790
1791 1792
1793 1794
1795 1796
1797 1798
1799 1800
1801 1802
1803 1804
1805 1806
1807 1808
1809 1810
1811 1812
1813 1814
1815 1816
1817 1818
1819 1820
1821 1822
1823 1824
1825 1826
1827 1828
1829 1830
1831 1832
1833 1834
1835 1836
1837 1838
1839 1840
1841 1842
1843 1844
1845 1846
1847 1848
1849 1850
1851 1852
1853 1854
1855 1856
1857 1858
1859 1860
1861 1862
1863 1864
1865 1866
1867 1868
1869 1870
1871 1872
1873 1874
1875 1876
1877 1878
1879 1880
1881 1882
1883 1884
1885 1886
1887 1888
1889 1890
1891 1892
1893 1894
1895 1896
1897 1898
1899 1900
1901 1902
1903 1904
1905 1906
1907 1908
1909 1910
1911 1912
1913 1914
1915 1916
1917 1918
1919 1920
1921 1922
1923 1924
1925 1926
1927 1928
1929 1930
1931 1932
1933 1934
1935 1936
1937 1938
1939 1940
1941 1942
1943 1944
1945 1946
1947 1948
1949 1950
1951 1952
1953 1954
1955 1956
1957 1958
1959 1960
1961 1962
1963 1964
1965 1966
1967 1968
1969 1970
1971 1972
1973 1974
1975 1976
1977 1978
1979 1980
1981 1982
1983 1984
1985 1986
1987 1988
1989 1990
1991 1992
1993 1994
1995 1996
1997 1998
1999 2000
2001 2002
2003 2004
2005 2006
2007 2008
2009 2010
2011 2012
2013 2014
2015 2016
2017 2018
2019 2020
2021 2022
2023 2024
2025 2026
2027 2028
2029 2030
2031 2032
2033 2034
2035 2036
2037 2038
2039 2040
2041 2042
2043 2044
2045 2046
2047 2048
2049 2050
2051 2052
2053 2054
2055 2056
2057 2058
2059 2060
2061 2062
2063 2064
2065 2066
2067 2068
2069 2070
2071 2072
2073 2074
2075 2076
2077 2078
2079 2080
2081 2082
2083 2084
2085 2086
2087 2088
2089 2090
2091 2092
2093 2094
2095 2096
2097 2098
2099 2100
2101 2102
2103 2104
2105 2106
2107 2108
2109 2110
2111 2112
2113 2114
2115 2116
2117 2118
2119 2120
2121 2122
2123 2124
2125 2126
2127 2128
2129 2130
2131 2132
2133 2134
2135 2136
2137 2138
2139 2140
2141 2142
2143 2144
2145 2146
2147 2148
2149 2150
2151 2152
2153 2154
2155 2156
2157 2158
2159 2160
2161 2162
2163 2164
2165 2166
2167 2168
2169 2170
2171 2172
2173 2174
2175 2176
2177 2178
2179 2180
2181 2182
2183 2184
2185 2186
2187 2188
2189 2190
2191 2192
2193 2194
2195 2196
2197 2198
2199 2200
2201 2202
2203 2204
2205 2206
2207 2208
2209 2210
2211 2212
2213 2214
2215 2216
2217 2218
2219 2220
2221 2222
2223 2224
2225 2226
2227 2228
2229 2230
2231 2232
2233 2234
2235 2236
2237 2238
2239 2240
2241 2242
2243 2244
2245 2246
2247 2248
2249 2250
2251 2252
2253 2254
2255 2256
2257 2258
2259 2260
2261 2262
2263 2264
2265 2266
2267 2268
2269 2270
2271 2272
2273 2274
2275 2276
2277 2278
2279 2280
2281 2282
2283 2284
2285 2286
2287 2288
2289 2290
2291 2292
2293 2294
2295 2296
2297 2298
2299 2300
2301 2302
2303 2304
2305 2306
2307 2308
2309 2310
2311 2312
2313 2314
2315 2316
2317 2318
2319 2320
2321 2322
2323 2324
2325 2326
2327 2328
2329 2330
2331 2332
2333 2334
2335 2336
2337 2338
2339 2340
2341 2342
2343 2344
2345 2346
2347 2348
2349 2350
2351 2352
2353 2354
2355 2356
2357 2358
2359 2360
2361 2362
2363 2364
2365 2366
2367 2368
2369 2370
2371 2372
2373 2374
2375 2376
2377 2378
2379 2380
2381 2382
2383 2384
2385 2386
2387 2388
2389 2390
2391 2392
2393 2394
2395 2396
2397 2398
2399 2400
2401 2402
2403 2404
2405 2406
2407 2408
2409 2410
2411 2412
2413 2414
2415 2416
2417 2418
2419 2420
2421 2422
2423 2424
2425 2426
2427 2428
2429 2430
2431 2432
2433 2434
2435 2436
2437 2438
2439 2440
2441 2442
2443 2444
2445 2446
2447 2448
2449 2450
2451 2452
2453 2454
2455 2456
2457 2458
2459 2460
2461 2462
2463 2464
2465 2466
2467 2468
2469 2470
2471 2472
2473 2474
2475 2476
2477 2478
2479 2480
2481 2482
2483 2484
2485 2486
2487 2488
2489 2490
2491 2492
2493 2494
2495 2496
2497 2498
2499 2500
2501 2502
2503 2504
2505 2506
2507 2508
2509 2510
2511 2512
2513 2514
2515 2516
2517 2518
2519 2520
2521 2522
2523 2524
2525 2526
2527 2528
2529 2530
2531 2532
2533 2534
2535 2536
2537 2538
2539 2540
2541 2542
2543 2544
2545 2546
2547 2548
2549 2550
2551 2552
2553 2554
2555 2556
2557 2558
2559 2560
2561 2562
2563 2564
2565 2566
2567 2568
2569 2570
2571 2572
2573 2574
2575 2576
2577 2578
2579 2580
2581 2582
2583 2584
2585 2586
2587 2588
2589 2590
2591 2592
2593 2594
2595 2596
2597 2598
2599 2600
2601 2602
2603 2604
2605 2606
2607 2608
2609 2610
2611 2612
2613 2614
2615 2616
2617 2618
2619 2620
2621 2622
2623 2624
2625 2626
2627 2628
2629 2630
2631 2632
2633 2634
2635 2636
2637 2638
2639 2640
2641 2642
2643 2644
2645 2646
2647 2648
2649 2650
2651 2652
2653 2654
2655 2656
2657 2658
2659 2660
2661 2662
2663 2664
2665 2666
2667 2668
2669 2670
2671 2672
2673 2674
2675 2676
2677 2678
2679 2680
2681 2682
2683 2684
2685 2686
2687 2688
2689 2690
2691 2692
2693 2694
2695 2696
2697 2698
2699 2700
2701 2702
2703 2704
2705 2706
2707 2708
2709 2710
2711 2712
2713 2714
2715 2716
2717 2718
2719 2720
2721 2722
2723 2724
2725 2726
2727 2728
2729 2730
2731 2732
2733 2734
2735 2736
2737 2738
2739 2740
2741 2742
2743 2744
2745 2746
2747 2748
2749 2750
2751 2752
2753 2754
2755 2756
2757 2758
2759 2760
2761 2762
2763 2764
2765 2766
2767 2768
2769 2770
2771 2772
2773 2774
2775 2776
2777 2778
2779 2780
2781 2782
2783 2784
2785 2786
2787 2788
2789 2790
2791 2792
2793 2794
2795 2796
2797 2798
2799 2800
2801 2802
2803 2804
2805 2806
2807 2808
2809 2810
2811 2812
2813 2814
2815 2816
2817 2818
2819 2820
2821 2822
2823 2824
2825 2826
2827 2828
2829 2830
2831 2832
2833 2834
2835 2836
2837 2838
2839 2840
2841 2842
2843 2844
2845 2846
2847 2848
2849 2850
2851 2852
2853 2854
2855 2856
2857 2858
2859 2860
2861 2862
2863 2864
2865 2866
2867 2868
2869 2870
2871 2872
2873 2874
2875 2876
2877 2878
2879 2880
2881 2882
2883 2884
2885 2886
2887 2888
2889 2890
2891 2892
2893 2894
2895 2896
2897 2898
2899 2900
2901 2902
2903 2904
2905 2906
2907 2908
2909 2910
2911 2912
2913 2914
2915 2916
2917 2918
2919 2920
2921 2922
2923 2924
2925 2926
2927 2928
2929 2930
2931 2932
2933 2934
2935 2936
2937 2938
2939 2940
2941 2942
2943 2944
2945 2946
2947 2948
2949 2950
2951 2952
2953 2954
2955 2956
2957 2958
2959 2960
2961 2962
2963 2964
2965 2966
2967 2968
2969 2970
2971 2972
2973 2974
2975 2976
2977 2978
2979 2980
2981 2982
2983 2984
2985 2986
2987 2988
2989 2990
2991 2992
2993 2994
2995 2996
2997 2998
2999 3000
3001 3002
3003 3004
3005 3006
3007 3008
3009 3010
3011 3012
3013 3014
3015 3016
3017 3018
3019 3020
3021 3022
3023 3024
3025 3026
3027 3028
3029 3030
3031 3032
3033 3034
3035 3036
3037 3038
3039 3040
3041 3042
3043 3044
3045 3046
3047 3048
3049 3050
3051 3052
3053 3054
3055 3056
3057 3058
3059 3060
3061 3062
3063 3064
3065 3066
3067 3068
3069 3070
3071 3072
3073 3074
3075 3076
3077 3078
3079 3080
3081 3082
3083 3084
3085 3086
3087 3088
3089 3090
3091 3092
3093 3094
3095 3096
3097 3098
3099 3100
3101 3102
3103 3104
3105 3106
3107 3108
3109 3110
3111 3112
3113 3114
3115 3116
3117 3118
3119 3120
3121 3122
3123 3124
3125 3126
3127 3128
3129 3130
3131 3132
3133 3134
3135 3136
3137 3138
3139 3140
3141 3142
3143 3144
3145 3146
3147 3148
3149 3150
3151 3152
3153 3154
3155 3156
3157 3158
3159 3160
3161 3162
3163 3164
3165 3166
3167 3168
3169 3170
3171 3172
3173 3174
3175 3176
3177 3178
3179 3180
3181 3182
3183 3184
3185 3186
3187 3188
3189 3190
3191 3192
3193 3194
3195 3196
3197 3198
3199 3200
3201 3202
3203 3204
3205 3206
3207 3208
3209 3210
3211 3212
3213 3214
3215 3216
3217 3218
3219 3220
3221 3222
3223 3224
3225 3226
3227 3228
3229 3230
3231 3232
3233 3234
3235 3236
3237 3238
3239 3240
3241 3242
3243 3244
3245 3246
3247 3248
3249 3250
3251 3252
3253 3254
3255 3256
3257 3258
3259 3260
3261 3262
3263 3264
3265 3266
3267 3268
3269 3270
3271 3272
3273 3274
3275 3276
3277 3278
3279 3280
3281 3282
3283 3284
3285 3286
3287 3288
3289 3290
3291 3292
3293 3294
3295 3296
3297 3298
3299 3300
3301 3302
3303 3304
3305 3306
3307 3308
3309 3310
3311 3312
3313 3314
3315 3316
3317 3318
3319 3320
3321 3322
3323 3324
3325 3326
3327 3328
3329 3330
3331 3332
3333 3334
3335 3336
3337 3338
3339 3340
3341 3342
3343 3344
3345 3346
3347 3348
3349 3350
3351 3352
3353 3354
3355 3356
3357 3358
3359 3360
3361 3362
3363 3364
3365 3366
3367 3368
3369 3370
3371 3372
3373 3374
3375 3376
3377 3378
3379 3380
3381 3382
3383 3384
3385 3386
3387 3388
3389 3390
3391 3392
3393 3394
3395 3396
3397 3398
3399 3400
3401 3402
3403 3404
3405 3406
3407 3408
3409 3410
3411 3412
3413 3414
3415 3416
3417 3418
3419 3420
3421 3422
3423 3424
3425 3426
3427 3428
3429 3430
3431 3432
3433 3434
3435 3436
3437 3438
3439 3440
3441 3442
3443 3444
3445 3446
3447 3448
3449 3450
3451 3452
3453 3454
3455 3456
3457 3458
3459 3460
3461 3462
3463 3464
3465 3466
3467 3468
3469 3470
3471 3472
3473 3474
3475 3476
3477 3478
3479 3480
3481 3482
3483 3484
3485 3486
      </DataArray>
      <DataArray type="Int32" Name="offsets" format="ascii">
6
12
18
24
30
36
42
48
54
60
66
72
78
84
90
96
102
108
114
120
126
132
138
144
150
156
162
168
174
180
186
192
198
204
210
216
222
228
234
240
246
252
258
264
270
276
282
288
294
300
306
312
318
324
330
336
342
348
354
360
366
372
378
384
390
396
402
408
414
420
426
432
438
444
450
456
462
468
474
480
486
492
498
504
510
516
522
528
534
540
546
552
558
564
570
576
582
588
594
600
606
612
618
624
630
636
642
648
654
660
666
672
678
684
690
696
702
708
714
720
726
732
738
744
750
756
762
768
774
780
786
792
798
804
810
816
822
828
834
840
846
852
858
864
870
876
882
888
894
900
906
912
918
924
930
936
942
948
954
960
966
972
978
984
990
996
1002
1008
1014
1020
1026
1032
1038
1044
1050
1056
1062
1068
1074
1080
1086
1092
1098
1104
1110
1116
1122
1128
1134
1140
1146
1152
1158
1164
1170
1176
1182
1188
1194
1200
1206
1212
1218
1224
1230
1236
1242
1248
1254
1260
1266
1272
1278
1284
1290
1296
1302
1308
1314
1320
1326
1332
1338
1344
1350
1356
1362
1368
1374
1380
1386
1392
1398
1404
1410
1416
1422
1428
1434
1440
1446
1452
1458
1464
1470
1476
1482
1488
1494
1500
1506
1512
1518
1524
1530
1536
1542
1548
1554
1560
1566
1572
1578
1584
1590
1596
1602
1608
1614
1620
1626
1632
1638
1644
1650
1656
1662
1668
1674
1680
1686
1692
1698
1704
1710
1716
1722
1728
1734
1740
1746
1752
1758
1764
1770
1776
1782
1788
1794
1800
1806
1812
1818
1824
1830
1836
1842
1848
1854
1860
1866
1872
1878
1884
1890
1896
1902
1908
1914
1920
1926
1932
1938
1944
1950
1956
1962
1968
1974
1980
1986
1992
1998
2004
2010
2016
2022
2028
2034
2040
2046
2052
2058
2064
2070
2076
2082
2088
2094
2100
2106
2112
2118
2124
2130
2136
2142
2148
2154
2160
2166
2172
2178
2184
2190
2196
2202
2208
2214
2220
2226
2232
2238
2244
2250
2256
2262
2268
2274
2280
2286
2292
2298
2304
2310
2316
2322
2328
2334
2340
2346
2352
2358
2364
2370
2376
2382
2388
2394
2400
2406
2412
2418
2424
2430
2436
2442
2448
2454
2460
2466
2472
2478
2484
2490
2496
2502
2508
2514
2520
2526
2532
2538
2544
2550
2556
2562
2568
2574
2580
2586
2592
2598
2604
2610
2616
2622
2628
2634
2640
2646
2652
2658
2664
2670
2676
2682
2688
2694
2700
2706
2712
2718
2724
2730
2736
2742
2748
2754
2760
2766
2772
2778
2784
2790
2796
2802
2808
2814
2820
2826
2832
2838
2844
2850
2856
2862
2868
2874
2880
2886
2892
2898
2904
2910
2916
2922
2928
2934
2940
2946
2952
2958
2964
2970
2976
2982
2988
2994
3000
3006
3012
3018
3024
3030
3036
3042
3048
3054
3060
3066
3072
3078
3084
3090
3096
3102
3108
3114
3120
3126
3132
3138
3144
3150
3156
3162
3168
3174
3180
3186
3192
3198
3204
3210
3216
3222
3228
3234
3240
3246
3252
3258
3264
3270
3276
3282
3288
3294
3300
3306
3312
3318
3324
3326
3328
3330
3332
3334
3336
3338
3340
3342
3344
3346
3348
3350
3352
3354
3356
3358
3360
3362
3364
3366
3368
3370
3372
3374
3376
3378
3380
3382
3384
3386
3388
3390
3392
3394
3396
3398
3400
3402
3404
3406
3408
3410
3412
3414
3416
3418
3420
3422
3424
3426
3428
3430
3432
3434
3436
3438
3440
3442
3444
3446
3448
3450
3452
3454
3456
3458
3460
3462
3464
3466
3468
3470
3472
3474
3476
3478
3480
3482
3484
3486
3488
3490
3492
3494
3496
3498
3500
3502
3504
3506
3508
3510
3512
3514
3516
3518
3520
3522
3524
3526
3528
3530
3532
3534
3536
3538
3540
3542
3544
3546
3548
3550
3552
3554
3556
3558
3560
3562
3564
3566
3568
3570
3572
3574
3576
3578
3580
3582
3584
3586
3588
3590
3592
3594
3596
3598
3600
3602
3604
3606
3608
3610
3612
3614
3616
3618
3620
3622
3624
3626
3628
3630
3632
3634
3636
3638
3640
3642
3644
3646
3648
3650
3652
3654
3656
3658
3660
3662
3664
3666
3668
3670
3672
3674
3676
3678
3680
3682
3684
3686
3688
3690
3692
3694
3696
3698
3700
3702
3704
3706
3708
3710
3712
3714
3716
3718
3720
3722
3724
3726
3728
3730
3732
3734
3736
3738
3740
3742
3744
3746
3748
3750
3752
3754
3756
3758
3760
3762
3764
3766
3768
3770
3772
3774
3776
3778
3780
3782
3784
3786
3788
3790
3792
3794
3796
3798
3800
3802
3804
3806
3808
3810
3812
3814
3816
3818
3820
3822
3824
3826
3828
3830
3832
3834
3836
3838
3840
3842
3844
3846
3848
3850
3852
3854
3856
3858
3860
3862
3864
3866
3868
3870
3872
3874
3876
3878
3880
3882
3884
3886
3888
3890
3892
3894
3896
3898
3900
3902
3904
3906
3908
3910
3912
3914
3916
3918
3920
3922
3924
3926
3928
3930
3932
3934
3936
3938
3940
3942
3944
3946
3948
3950
3952
3954
3956
3958
3960
3962
3964
3966
3968
3970
3972
3974
3976
3978
3980
3982
3984
3986
3988
3990
3992
3994
3996
3998
4000
4002
4004
4006
4008
4010
4012
4014
4016
4018
4020
4022
4024
4026
4028
4030
4032
4034
4036
4038
4040
4042
4044
4046
4048
4050
4052
4054
4056
4058
4060
4062
4064
4066
4068
4070
4072
4074
4076
4078
4080
4082
4084
4086
4088
4090
4092
4094
4096
4098
4100
4102
4104
4106
4108
4110
4112
4114
4116
4118
4120
4122
4124
4126
4128
4130
4132
4134
4136
4138
4140
4142
4144
4146
4148
4150
4152
4154
4156
4158
4160
4162
4164
4166
4168
4170
4172
4174
4176
4178
4180
4182
4184
4186
4188
4190
4192
4194
4196
4198
4200
4202
4204
4206
4208
4210
4212
4214
4216
4218
4220
4222
4224
4226
4228
4230
4232
4234
4236
4238
4240
4242
4244
4246
4248
4250
4252
4254
4256
4258
4260
4262
4264
4266
4268
4270
4272
4274
4276
4278
4280
4282
4284
4286
4288
4290
4292
4294
4296
4298
4300
4302
4304
4306
4308
4310
4312
4314
4316
4318
4320
4322
4324
4326
4328
4330
4332
4334
4336
4338
4340
4342
4344
4346
4348
4350
4352
4354
4356
4358
4360
4362
4364
4366
4368
4370
4372
4374
4376
4378
4380
4382
4384
4386
4388
4390
4392
4394
4396
4398
4400
4402
4404
4406
4408
4410
4412
4414
4416
4418
4420
4422
4424
4426
4428
4430
4432
4434
4436
4438
4440
4442
4444
4446
4448
4450
4452
4454
4456
4458
4460
4462
4464
4466
4468
4470
4472
4474
4476
4478
4480
4482
4484
4486
4488
4490
4492
4494
4496
4498
4500
4502
4504
4506
4508
4510
4512
4514
4516
4518
4520
4522
4524
4526
4528
4530
4532
4534
4536
4538
4540
4542
4544
4546
4548
4550
4552
4554
4556
4558
4560
4562
4564
4566
4568
4570
4572
4574
4576
4578
4580
4582
4584
4586
4588
4590
4592
4594
4596
4598
4600
4602
4604
4606
4608
4610
4612
4614
4616
4618
4620
4622
4624
4626
4628
4630
4632
4634
4636
4638
4640
4642
4644
4646
4648
4650
4652
4654
4656
4658
4660
4662
4664
4666
4668
4670
4672
4674
4676
4678
4680
4682
4684
4686
4688
4690
4692
4694
4696
4698
4700
4702
4704
4706
4708
4710
4712
4714
4716
4718
4720
4722
4724
4726
4728
4730
4732
4734
4736
4738
4740
4742
4744
4746
4748
4750
4752
4754
4756
4758
4760
4762
4764
4766
4768
4770
4772
4774
4776
4778
4780
4782
4784
4786
4788
4790
4792
4794
4796
4798
4800
4802
4804
4806
4808
4810
4812
4814
4816
4818
4820
4822
4824
4826
4828
4830
4832
4834
4836
4838
4840
4842
4844
4846
4848
4850
4852
4854
4856
4858
4860
4862
4864
4866
4868
4870
4872
4874
4876
4878
4880
4882
4884
4886
4888
4890
4892
4894
4896
4898
4900
4902
4904
4906
4908
4910
4912
4914
4916
4918
4920
4922
4924
4926
4928
4930
4932
4934
4936
4938
4940
4942
4944
4946
4948
4950
4952
4954
4956
4958
4960
4962
4964
4966
4968
4970
4972
4974
4976
4978
4980
4982
4984
4986
4988
4990
4992
4994
4996
4998
5000
5002
5004
5006
5008
5010
5012
5014
5016
5018
5020
5022
5024
5026
5028
5030
5032
5034
5036
5038
5040
5042
5044
5046
5048
5050
5052
5054
5056
5058
5060
5062
5064
5066
5068
5070
5072
5074
5076
5078
5080
5082
5084
5086
5088
5090
5092
5094
5096
5098
5100
5102
5104
5106
5108
5110
5112
5114
5116
5118
5120
5122
5124
5126
5128
5130
5132
5134
5136
5138
5140
5142
5144
5146
5148
5150
5152
5154
5156
5158
5160
5162
5164
5166
5168
5170
5172
5174
5176
5178
5180
5182
5184
5186
5188
5190
5192
5194
5196
5198
5200
5202
5204
5206
5208
5210
5212
5214
5216
5218
5220
5222
5224
5226
5228
5230
5232
5234
5236
5238
5240
5242
5244
5246
5248
5250
5252
5254
5256
5258
5260
5262
5264
5266
5268
5270
5272
5274
5276
5278
5280
5282
5284
5286
5288
5290
5292
5294
5296
5298
5300
5302
5304
5306
5308
5310
5312
5314
5316
5318
5320
5322
5324
5326
5328
5330
5332
5334
5336
5338
5340
5342
5344
5346
5348
5350
5352
5354
5356
5358
5360
5362
5364
5366
5368
5370
5372
5374
5376
5378
5380
5382
5384
5386
5388
5390
5392
5394
5396
5398
5400
5402
5404
5406
5408
5410
5412
5414
5416
5418
5420
5422
5424
5426
5428
5430
5432
5434
5436
5438
5440
5442
5444
5446
5448
5450
5452
5454
5456
5458
5460
5462
5464
5466
5468
5470
5472
5474
5476
5478
5480
5482
5484
5486
5488
5490
5492
5494
5496
5498
5500
5502
5504
5506
5508
5510
5512
5514
5516
5518
5520
5522
5524
5526
5528
5530
5532
5534
5536
5538
5540
5542
5544
5546
5548
5550
5552
5554
5556
5558
5560
5562
5564
5566
5568
5570
5572
5574
5576
5578
5580
5582
5584
5586
5588
5590
5592
5594
5596
5598
5600
5602
5604
5606
5608
5610
5612
      </DataArray>
      <DataArray type="UInt8" Name="types" format="ascii">
69
69
69
69
69
69
69
69
69
69
69
69
69
69
69
69
69
69
69
69
69
69
69
69
69
69
69
69
69
69
69
69
69
69
69
69
69
69
69
69
69
69
69
69
69
69
69
69
69
69
69
69
69
69
69
69
69
69
69
69
69
69
69
69
69
69
69
69
69
69
69
69
69
69
69
69
69
69
69
69
69
69
69
69
69
69
69
69
69
69
69
69
69
69
69
69
69
69
69
69
69
69
69
69
69
69
69
69
69
69
69
69
69
69
69
69
69
69
69
69
69
69
69
69
69
69
69
69
69
69
69
69
69
69
69
69
69
69
69
69
69
69
69
69
69
69
69
69
69
69
69
69
69
69
69
69
69
69
69
69
69
69
69
69
69
69
69
69
69
69
69
69
69
69
69
69
69
69
69
69
69
69
69
69
69
69
69
69
69
69
69
69
69
69
69
69
69
69
69
69
69
69
69
69
69
69
69
69
69
69
69
69
69
69
69
69
69
69
69
69
69
69
69
69
69
69
69
69
69
69
69
69
69
69
69
69
69
69
69
69
69
69
69
69
69
69
69
69
69
69
69
69
69
69
69
69
69
69
69
69
69
69
69
69
69
69
69
69
69
69
69
69
69
69
69
69
69
69
69
69
69
69
69
69
69
69
69
69
69
69
69
69
69
69
69
69
69
69
69
69
69
69
69
69
69
69
69
69
69
69
69
69
69
69
69
69
69
69
69
69
69
69
69
69
69
69
69
69
69
69
69
69
69
69
69
69
69
69
69
69
69
69
69
69
69
69
69
69
69
69
69
69
69
69
69
69
69
69
69
69
69
69
69
69
69
69
69
69
69
69
69
69
69
69
69
69
69
69
69
69
69
69
69
69
69
69
69
69
69
69
69
69
69
69
69
69
69
69
69
69
69
69
69
69
69
69
69
69
69
69
69
69
69
69
69
69
69
69
69
69
69
69
69
69
69
69
69
69
69
69
69
69
69
69
69
69
69
69
69
69
69
69
69
69
69
69
69
69
69
69
69
69
69
69
69
69
69
69
69
69
69
69
69
69
69
69
69
69
69
69
69
69
69
69
69
69
69
69
69
69
69
69
69
69
69
69
69
69
69
69
69
69
69
69
69
69
69
69
69
69
69
69
69
69
69
69
69
69
69
69
69
69
69
69
69
69
69
69
69
69
69
69
69
69
69
69
69
69
69
69
69
69
69
69
69
69
69
69
69
69
69
69
69
69
69
69
69
69
69
69
69
69
69
69
3
3
3
3
3
3
3
3
3
3
3
3
3
3
3
3
3
3
3
3
3
3
3
3
3
3
3
3
3
3
3
3
3
3
3
3
3
3
3
3
3
3
3
3
3
3
3
3
3
3
3
3
3
3
3
3
3
3
3
3
3
3
3
3
3
3
3
3
3
3
3
3
3
3
3
3
3
3
3
3
3
3
3
3
3
3
3
3
3
3
3
3
3
3
3
3
3
3
3
3
3
3
3
3
3
3
3
3
3
3
3
3
3
3
3
3
3
3
3
3
3
3
3
3
3
3
3
3
3
3
3
3
3
3
3
3
3
3
3
3
3
3
3
3
3
3
3
3
3
3
3
3
3
3
3
3
3
3
3
3
3
3
3
3
3
3
3
3
3
3
3
3
3
3
3
3
3
3
3
3
3
3
3
3
3
3
3
3
3
3
3
3
3
3
3
3
3
3
3
3
3
3
3
3
3
3
3
3
3
3
3
3
3
3
3
3
3
3
3
3
3
3
3
3
3
3
3
3
3
3
3
3
3
3
3
3
3
3
3
3
3
3
3
3
3
3
3
3
3
3
3
3
3
3
3
3
3
3
3
3
3
3
3
3
3
3
3
3
3
3
3
3
3
3
3
3
3
3
3
3
3
3
3
3
3
3
3
3
3
3
3
3
3
3
3
3
3
3
3
3
3
3
3
3
3
3
3
3
3
3
3
3
3
3
3
3
3
3
3
3
3
3
3
3
3
3
3
3
3
3
3
3
3
3
3
3
3
3
3
3
3
3
3
3
3
3
3
3
3
3
3
3
3
3
3
3
3
3
3
3
3
3
3
3
3
3
3
3
3
3
3
3
3
3
3
3
3
3
3
3
3
3
3
3
3
3
3
3
3
3
3
3
3
3
3
3
3
3
3
3
3
3
3
3
3
3
3
3
3
3
3
3
3
3
3
3
3
3
3
3
3
3
3
3
3
3
3
3
3
3
3
3
3
3
3
3
3
3
3
3
3
3
3
3
3
3
3
3
3
3
3
3
3
3
3
3
3
3
3
3
3
3
3
3
3
3
3
3
3
3
3
3
3
3
3
3
3
3
3
3
3
3
3
3
3
3
3
3
3
3
3
3
3
3
3
3
3
3
3
3
3
3
3
3
3
3
3
3
3
3
3
3
3
3
3
3
3
3
3
3
3
3
3
3
3
3
3
3
3
3
3
3
3
3
3
3
3
3
3
3
3
3
3
3
3
3
3
3
3
3
3
3
3
3
3
3
3
3
3
3
3
3
3
3
3
3
3
3
3
3
3
3
3
3
3
3
3
3
3
3
3
3
3
3
3
3
3
3
3
3
3
3
3
3
3
3
3
3
3
3
3
3
3
3
3
3
3
3
3
3
3
3
3
3
3
3
3
3
3
3
3
3
3
3
3
3
3
3
3
3
3
3
3
3
3
3
3
3
3
3
3
3
3
3
3
3
3
3
3
3
3
3
3
3
3
3
3
3
3
3
3
3
3
3
3
3
3
3
3
3
3
3
3
3
3
3
3
3
3
3
3
3
3
3
3
3
3
3
3
3
3
3
3
3
3
3
3
3
3
3
3
3
3
3
3
3
3
3
3
3
3
3
3
3
3
3
3
3
3
3
3
3
3
3
3
3
3
3
3
3
3
3
3
3
3
3
3
3
3
3
3
3
3
3
3
3
3
3
3
3
3
3
3
3
3
3
3
3
3
3
3
3
3
3
3
3
3
3
3
3
3
3
3
3
3
3
3
3
3
3
3
3
3
3
3
3
3
3
3
3
3
3
3
3
3
3
3
3
3
3
3
3
3
3
3
3
3
3
3
3
3
3
3
3
3
3
3
3
3
3
3
3
3
3
3
3
3
3
3
3
3
3
3
3
3
3
3
3
3
3
3
3
3
3
3
3
3
3
3
3
3
3
3
3
3
3
3
3
3
3
3
3
3
3
3
3
3
3
3
3
3
3
3
3
3
3
3
3
3
3
3
3
3
3
3
3
3
3
3
3
3
3
3
3
3
3
3
3
3
3
3
3
3
3
3
3
3
3
3
3
3
3
3
3
3
3
3
3
3
3
3
3
3
3
3
3
3
3
3
3
3
3
3
3
3
3
3
3
3
3
3
3
3
3
3
3
3
3
3
3
3
3
3
3
3
3
3
3
3
3
3
3
3
3
3
3
3
3
3
3
3
3
3
3
3
3
3
3
3
3
3
3
3
3
3
3
3
3
3
3
3
3
3
3
3
3
3
3
3
3
3
3
3
3
3
3
3
3
3
3
3
3
3
3
3
3
3
3
3
3
3
3
3
3
3
3
3
3
3
3
3
3
3
3
3
3
3
3
3
3
3
3
3
3
3
3
3
3
3
3
3
3
3
3
3
3
3
3
3
3
3
3
3
3
3
3
3
3
3
3
3
3
3
3
3
3
3
3
3
3
3
3
3
3
3
3
3
3
3
3
3
3
3
3
3
3
3
3
3
3
3
3
3
3
3
3
3
3
3
3
3
3
3
3
3
3
3
3
3
3
3
3
3
3
3
3
3
3
3
3
3
3
3
3
3
3
3
3
3
3
3
3
3
3
      </DataArray>
    </Cells>
    <PointData>
      <DataArray type="Float64" NumberOfComponents="2" Name="Displacement" format="ascii">
-0.00052362 -0.184855
0.000800774 -0.185313
-0.000106787 -0.184608
0.00018722 -0.184356
0.000343614 -0.184183
0.000452192 -0.184038
0.000517789 -0.183931
0.000559011 -0.183856
0.000573663 -0.183792
0.00057184 -0.183747
0.000553592 -0.18372
0.000523735 -0.183706
0.000481963 -0.183695
0.000432307 -0.183693
0.000375464 -0.1837
0.000314485 -0.183714
0.00024982 -0.183727
0.000184373 -0.183746
0.000119655 -0.18377
5.77356e-05 -0.183802
8.88925e-07 -0.183834
-4.96528e-05 -0.183874
-9.13706e-05 -0.183925
-0.000122531 -0.183988
-0.000138157 -0.184057
-0.000138884 -0.184145
-0.00011914 -0.184256
-7.70785e-05 -0.184394
1.47136e-05 -0.184545
0.000146623 -0.184748
0.000395113 -0.185029
-0.00310271 -0.184532
-0.00250321 -0.184551
-0.00190761 -0.184591
-0.00129066 -0.184686
-0.0521647 -0.233478
-0.0036856 -0.184539
-0.00427053 -0.184557
-0.00512449 -0.1846
-0.00598741 -0.184664
-0.00724152 -0.18479
-0.00851307 -0.184957
-0.0103811 -0.185269
-0.0122755 -0.185665
-0.0150478 -0.18639
-0.0178418 -0.18729
-0.0198582 -0.188049
-0.0218663 -0.188898
-0.0238549 -0.189845
-0.0258158 -0.190877
-0.0285853 -0.19252
-0.0312639 -0.194329
-0.0338236 -0.196294
-0.0273845 -0.258322
-0.0517164 -0.238102
-0.0507464 -0.24222
-0.0493841 -0.245789
-0.0477111 -0.248818
-0.0458442 -0.251348
0.0340585 -0.161568
-0.0228734 -0.257683
-0.0175103 -0.25601
-0.0112356 -0.253134
0 0
-0.0129222 -0.0117249
-0.0182717 -0.0194687
-0.0190214 -0.0257263
-0.015865 -0.0333654
-0.0115187 -0.0407672
-0.000157817 -0.175668
0 0
0 0
0 0
0 0
0.0101858 -0.170176
0.0204967 -0.150126
0.0268032 -0.108175
-0.0337157 -0.161961
0.0129723 -0.0117068
0.0183502 -0.019536
0.0191127 -0.0258317
0.0159659 -0.0335041
0.0116194 -0.0409103
0.0274588 -0.258526
0.0229467 -0.257882
0.0176153 -0.256203
0.0113213 -0.253364
0.0521314 -0.233801
0.0310371 -0.25863
0.0341254 -0.258248
0.0368769 -0.257587
0.0393429 -0.256576
0.0416496 -0.25531
0.00328932 -0.185003
0.0519708 -0.228937
0.0511235 -0.223751
0.0495114 -0.218353
0.0471038 -0.212894
0.0449537 -0.20917
0.0424244 -0.205542
0.0395189 -0.202078
0.0362785 -0.198818
0.0338516 -0.19672
0.0312994 -0.194762
0.0286287 -0.19296
0.0258674 -0.191321
0.021935 -0.189357
0.017925 -0.187739
0.0151421 -0.186849
0.0123877 -0.186133
0.0105016 -0.185738
0.00270763 -0.185029
0.0021288 -0.185073
0.00151708 -0.185168
-0.00355173 -0.179051
0.0156008 -0.178261
0.0122882 -0.171846
0.0207125 -0.139219
-0.0209337 -0.147496
-0.00325302 -0.193097
-0.00636256 -0.176236
-0.0147891 -0.21839
-0.00246373 -0.187475
-0.0429853 -0.22555
-0.0137086 -0.0249531
0.0134701 -0.0254269
-0.0225832 -0.208979
-0.00812609 -0.190495
-0.00245733 -0.197866
-0.00342371 -0.197546
0.00135546 -0.196975
-0.00453832 -0.197274
0.0036907 -0.198235
0.00203817 -0.191953
-0.00083541 -0.194721
0.000607148 -0.195483
-0.00279877 -0.191987
-0.00659539 -0.198259
-0.00936406 -0.20028
-0.00632248 -0.200954
0.00312631 -0.182535
-0.00245729 -0.182728
-0.00412777 -0.182698
0.00381632 -0.200039
0.0059408 -0.199544
-0.00700719 -0.18785
0.00669584 -0.187547
-0.00065028 -0.197097
0.00217649 -0.193786
0.0055651 -0.18953
-0.00641098 -0.189227
0.00057856 -0.196842
0.00268694 -0.182948
-0.000700506 -0.182881
-0.002787 -0.183174
-0.00391621 -0.195453
0.00560371 -0.197825
0.00594985 -0.183534
0.00579816 -0.186397
0.000916482 -0.191905
-0.00192552 -0.193136
0.00224098 -0.19432
-0.000589116 -0.193122
-0.00610631 -0.186834
-0.00602288 -0.183792
-0.00871694 -0.198124
-0.0101671 -0.203721
0.00747027 -0.180993
0.00296949 -0.181591
-0.00140918 -0.182443
-0.00666318 -0.182402
-0.0131523 -0.207431
-0.0116314 -0.208331
0.00975422 -0.205883
0.009133 -0.202719
0.0113527 -0.201735
0.0110456 -0.199944
-0.00914831 -0.180847
-0.00924363 -0.184835
0.00878419 -0.184651
0.0128689 -0.179038
-0.00599742 -0.203637
0.00102962 -0.196094
0.00768021 -0.187956
-0.000894914 -0.195944
0.00881885 -0.206666
0.00321245 -0.183203
0.00203359 -0.182916
0.000164268 -0.183023
0.000964375 -0.182932
-0.000588804 -0.183264
-0.00152706 -0.183379
-0.00097035 -0.183373
-0.00265543 -0.18349
-0.00388128 -0.193884
-0.00700491 -0.19548
0.00901995 -0.197126
0.00489389 -0.195289
0.00356233 -0.183466
0.00419901 -0.183725
0.0053354 -0.184519
0.00504613 -0.185654
0.00298617 -0.188462
0.000850277 -0.190736
-0.00103461 -0.191243
-0.00315119 -0.188978
-0.00527434 -0.186102
-0.00535964 -0.184971
-0.0039229 -0.183981
-0.00312979 -0.183712
-0.00981609 -0.19719
-0.0154695 -0.205772
0.0108659 -0.176762
-0.000769558 -0.181352
-0.00604167 -0.180493
-0.0186707 -0.214685
0.0159928 -0.21337
0.0143635 -0.204734
0.0117257 -0.197968
-0.0142979 -0.17835
0.0169481 -0.175532
-0.00991798 -0.20961
0.0102884 -0.185156
-0.0186016 -0.173187
-0.00815745 -0.18775
0.00273245 -0.200622
0.00233327 -0.183458
0.00165428 -0.18324
0.000602525 -0.183297
-0.000277088 -0.18347
-0.000948741 -0.183583
-0.00171844 -0.183769
-0.00489655 -0.193095
0.0054941 -0.193688
0.00302543 -0.184054
0.00320287 -0.185674
0.000544754 -0.189261
-0.000710641 -0.18968
-0.00309629 -0.186098
-0.00259011 -0.184357
-0.00946472 -0.192784
-0.0115559 -0.195338
-0.013224 -0.198258
-0.0180259 -0.2026
-0.0285988 -0.21665
-0.0269628 -0.220836
0.0194643 -0.15755
0.00386117 -0.177369
-0.0158844 -0.166823
-0.0245896 -0.223357
0.0233845 -0.222931
0.02311 -0.217194
0.0215348 -0.210705
0.0185963 -0.204868
0.0138213 -0.197574
0.0129825 -0.194271
-0.0195299 -0.167339
0.0221165 -0.163086
-0.0208878 -0.223244
-0.00520567 -0.206553
0.0204403 -0.169642
0.0140285 -0.217887
0.0232357 -0.228086
-0.0137204 -0.180924
0.00345913 -0.2023
0.00168187 -0.183766
0.00196966 -0.184014
0.00134322 -0.183491
0.00161847 -0.183562
0.000744946 -0.18347
0.00107745 -0.183449
3.70022e-05 -0.18358
0.000356321 -0.18353
-0.000433381 -0.183715
-0.000176727 -0.183663
-0.00100626 -0.183841
-0.000735656 -0.183748
-0.00143301 -0.184282
-0.00115335 -0.184022
-0.00155173 -0.189864
-0.0035622 -0.191092
-0.006748 -0.192293
0.00878315 -0.192059
0.00665006 -0.192268
0.00263419 -0.190983
0.00100451 -0.190222
0.00238249 -0.184482
0.00234372 -0.185139
0.0016816 -0.186606
0.000792933 -0.187686
-0.00118223 -0.1881
-0.0016957 -0.187028
-0.00213486 -0.185504
-0.00190273 -0.184778
-0.00954209 -0.188996
-0.0130152 -0.193342
-0.0204837 -0.199092
-0.0292487 -0.210311
-0.0352792 -0.224898
0.0121987 -0.102102
0.0104173 -0.167693
0.000676339 -0.177331
-0.00766512 -0.172906
-0.0143378 -0.11019
-0.0313756 -0.234254
0.0322361 -0.235345
0.0296982 -0.216549
0.0179886 -0.20009
0.0121256 -0.190816
0.00162436 -0.044997
-0.0181528 -0.128084
-0.00270197 -0.0430558
0.015669 -0.121127
-0.0184013 -0.229419
0.015679 -0.176924
0.0270824 -0.153054
0.0233635 -0.235007
-0.0262088 -0.1578
-0.00760292 -0.187959
0.00114212 -0.183989
0.000959338 -0.183695
0.000672259 -0.183627
0.000270383 -0.183677
-0.000122524 -0.18377
-0.000444733 -0.18392
-0.000660222 -0.184243
-0.00321564 -0.189086
-0.006715 -0.188907
0.00574992 -0.189357
0.00195078 -0.189051
0.00114232 -0.18488
-4.71275e-05 -0.186832
-0.00128332 -0.187016
0.00106536 -0.187712
-0.000277852 -0.187232
-0.000791873 -0.185141
-0.00604546 -0.186964
0.00607535 -0.18787
-0.0101836 -0.186554
-0.0115793 -0.188318
-0.0143153 -0.189205
-0.0163334 -0.192041
-0.0208592 -0.193697
-0.0249556 -0.198047
-0.0298935 -0.202204
-0.0355582 -0.209036
-0.0411051 -0.216008
0.00923327 -0.108153
0.00352342 -0.162835
-0.00331172 -0.166759
-0.00883263 -0.116473
-0.0428905 -0.233754
-0.0411609 -0.24041
-0.0384504 -0.2457
-0.0359007 -0.251049
-0.0282648 -0.247641
0.0299314 -0.24923
0.0360962 -0.250793
0.0391973 -0.246382
0.0414143 -0.24003
0.042914 -0.231765
0.0397531 -0.221631
0.0358743 -0.211768
0.0317317 -0.203283
0.0247438 -0.198641
0.0210713 -0.192288
0.0171468 -0.190444
0.0143645 -0.189546
0.0101238 -0.187615
0.0129187 -0.0452195
-0.000294729 -0.0818318
-0.0143397 -0.120166
-0.0130962 -0.0443053
0.0118175 -0.113033
-0.00020368 -0.0794854
-0.0195131 -0.243173
-0.00876311 -0.239021
0.0154341 -0.182443
0.0223051 -0.244885
-0.00550901 -0.197368
0.0129 -0.236894
0.000557692 -0.184312
0.000511289 -0.184564
0.000642885 -0.184057
0.000698326 -0.183856
0.000680177 -0.183945
0.000698587 -0.183748
0.000624262 -0.183698
0.000667005 -0.183719
0.000511143 -0.183688
0.000367766 -0.183702
0.00044205 -0.183694
0.000212439 -0.183735
5.52104e-05 -0.183779
0.000133563 -0.183757
-8.15171e-05 -0.183837
-0.000204506 -0.18392
-0.000146433 -0.183876
-0.000279111 -0.184036
-0.000310577 -0.184215
-0.000302198 -0.184119
-0.000253521 -0.184471
-0.000130492 -0.184881
-0.000202739 -0.184655
-0.00705407 -0.185999
-0.00832467 -0.186173
0.00828218 -0.187216
0.00702184 -0.187026
-0.00466599 -0.188419
-0.00267599 -0.186265
0.00392655 -0.188379
0.00275252 -0.188199
0.0029924 -0.186904
0.000172685 -0.185388
-9.70052e-05 -0.185873
0.000309265 -0.186466
-1.73743e-05 -0.185795
-0.004968 -0.185708
0.00517568 -0.186103
-0.00352599 -0.185623
-0.00411746 -0.185644
0.00433412 -0.186039
0.0037504 -0.186017
-0.00219141 -0.185322
-0.000976229 -0.185371
-0.00160625 -0.185338
0.00247585 -0.186047
0.00190536 -0.18604
0.00132645 -0.186042
0.00180447 -0.186812
-0.00138636 -0.185912
0.00423522 -0.186962
-0.00398138 -0.186623
-0.000810872 -0.18616
0.000885155 -0.1858
0.00370917 -0.189633
-0.0054096 -0.190172
0.00796016 -0.188847
-0.008152 -0.187319
-0.000741702 -0.18457
-0.00056008 -0.18405
-0.000293688 -0.183835
6.80733e-05 -0.183722
0.000479413 -0.183643
0.000838943 -0.18364
0.00103357 -0.18382
0.00129567 -0.184318
0.0147311 -0.225262
-0.00635835 -0.215146
-0.00119031 -0.0743539
-0.000560882 -0.0786267
0.0164525 -0.192906
0.0256191 -0.206771
0.0332082 -0.227438
0.0312151 -0.241678
-0.0274464 -0.236702
-0.0338142 -0.230334
-0.0158572 -0.150849
0.0168701 -0.141045
-0.0356298 -0.218455
-0.0240497 -0.20382
-0.0151264 -0.196032
-0.0109721 -0.190688
0.000395529 -0.188443
-0.00119894 -0.188028
-0.0234367 -0.156605
0.0242837 -0.151233
0.00249538 -0.176596
-0.00324637 -0.184924
-0.00263123 -0.187658
0.00252112 -0.187204
0.00355707 -0.184539
0.00168387 -0.19201
0.00976514 -0.195101
-0.00814879 -0.194457
-0.00193572 -0.19163
-0.00199678 -0.184008
-0.00139907 -0.183615
-0.000544042 -0.183566
6.2641e-05 -0.183374
0.00118565 -0.183227
0.00207588 -0.183303
0.00252493 -0.183729
-0.00486269 -0.191688
0.0129603 -0.213111
-0.00293534 -0.201571
-0.015207 -0.213938
0.0174677 -0.170913
-0.0118909 -0.176422
0.013761 -0.200899
0.0156632 -0.209457
-0.00357073 -0.182196
0.00407477 -0.179621
-0.0209152 -0.212766
-0.0115727 -0.199971
-0.0104817 -0.184708
0.0100358 -0.184739
-0.00423197 -0.183306
-0.00763043 -0.184426
-0.00360923 -0.190038
0.00341424 -0.189497
0.00722673 -0.184067
0.00458438 -0.183098
0.00842644 -0.198847
-0.00596761 -0.196268
-0.00148369 -0.183143
0.000381792 -0.182601
0.00312113 -0.199964
0.00412504 -0.192221
0.00455354 -0.199952
-0.00544684 -0.201391
0.00293372 -0.196528
-0.00196112 -0.194508
-0.00167312 -0.19403
0.000253533 -0.194645
-0.00731067 -0.200209
-0.0159816 -0.18394
0.00406054 -0.248489
-0.00787645 -0.216082
0.00270037 -0.226552
3.65046e-05 -0.245228
0.00550825 -0.212588
-0.00397705 -0.248309
0.0231869 -0.174075
0.0113844 -0.20325
9.38804e-05 -0.245009
0.00101631 -0.221465
0.00537313 -0.198183
0.00552746 -0.0956306
0.0133869 -0.1112
0.00724152 -0.0918655
0.021789 -0.132245
-0.00613316 -0.0498621
0.000242808 -0.0609579
0.00227278 -0.0786609
-0.00122287 -0.0778289
0.00431181 -0.0931854
-0.00734646 -0.0603291
-0.00382447 -0.0642329
-0.010557 -0.0482637
0.00722167 -0.0744639
0.0125947 -0.086853
-0.014807 -0.0386928
-0.00793952 -0.0582924
-0.00702484 -0.100515
-0.00740384 -0.0935313
-0.0145804 -0.116013
-0.00240328 -0.0801439
0.00621287 -0.0500106
-0.000205958 -0.0611524
-0.0235455 -0.137971
-0.00636105 -0.0988435
7.61755e-05 -0.0811301
0.00703159 -0.0618948
0.0105622 -0.0489076
0.00372237 -0.065481
0.0148086 -0.0391948
-0.00720073 -0.0747196
-0.0125483 -0.0871825
0.00710002 -0.0607514
-0.00549502 -0.148792
0.00436434 -0.15998
0.00495668 -0.136495
0.00215999 -0.174762
0 0
0 0
-0.00462068 -0.0699176
-0.0132702 -0.135774
-0.00986086 -0.15906
0.00594753 -0.142898
-0.00479249 -0.133092
-0.0048569 -0.157321
0.00491494 -0.0635264
0 0
-0.0264635 -0.107784
-0.00272924 -0.173756
0.0109594 -0.152168
0.0136815 -0.12603
-0.0188121 -0.172763
-0.019155 -0.173486
-0.0067148 -0.189974
-0.029233 -0.158486
0.00434813 -0.205255
-0.0203527 -0.170379
-0.024302 -0.16008
0.0246086 -0.164032
0.015739 -0.178177
0.0260365 -0.164725
0.00446446 -0.193588
0.0296118 -0.15496
0.0257304 -0.153432
0.0231841 -0.164894
0.0223925 -0.14021
0.0228224 -0.139385
0.0137395 -0.118046
0.00716451 -0.0981393
0.0211025 -0.137522
-0.0229376 -0.143687
-0.016342 -0.124833
-0.0244295 -0.144485
-0.00978189 -0.104516
-0.0222776 -0.144025
-0.00706003 -0.0794011
-0.0137867 -0.108926
-0.00770413 -0.073905
-0.0173031 -0.13179
0.0025427 -0.0250985
0.00113203 -0.0626176
-0.00828267 -0.0936848
-0.0027882 -0.176421
-0.00226356 -0.175534
-0.00679088 -0.170227
-0.000192799 -0.177263
-0.0122236 -0.16465
-0.002908 -0.176565
0.00157879 -0.176817
0.00498741 -0.174085
0.0081069 -0.165269
0.00303635 -0.173278
0.0142372 -0.156975
0.00691607 -0.173772
0.00489723 -0.0733844
0.00641694 -0.0676226
0.012713 -0.100464
-0.00301719 -0.024338
0.0165753 -0.12194
0.00591052 -0.0876604
-0.0025775 -0.0595539
-0.0195442 -0.171766
-0.0138603 -0.180134
-0.006069 -0.190257
-0.00935138 -0.186517
0.023733 -0.161016
0.0150218 -0.177857
0.00546719 -0.190581
0.00612142 -0.189692
-0.0217554 -0.165734
-0.0167109 -0.176679
-0.012123 -0.183136
-0.0147736 -0.179508
-0.0166689 -0.17609
-0.0172956 -0.173547
-0.0197179 -0.169638
-0.0136586 -0.177011
-0.0161239 -0.172667
-0.0219223 -0.161889
-0.0131437 -0.180931
0.0176811 -0.172865
0.0154256 -0.175391
0.0150034 -0.177539
0.0122513 -0.18126
0.0101615 -0.181849
0.0138368 -0.180214
-0.0107158 -0.178808
-0.0118238 -0.179854
-0.0110421 -0.181887
-0.00887828 -0.182317
-0.00896633 -0.1789
-0.00777287 -0.180618
-0.0062709 -0.18172
-0.00479346 -0.181459
0.00355329 -0.180709
0.00152708 -0.180669
0.0012195 -0.181495
-9.01539e-05 -0.182039
-0.00233749 -0.181805
0.00152914 -0.182152
0.0102223 -0.180228
0.0123388 -0.177624
0.00927131 -0.179126
0.0143538 -0.17433
0.00746185 -0.178473
0.00612407 -0.180252
0.00787655 -0.182155
0.00522383 -0.181302
0.00316915 -0.182082
0.00395678 -0.182728
0.0017907 -0.182554
0.0051558 -0.181926
0.0061517 -0.182166
0.00853994 -0.012947
0.00839079 -0.0331873
0.00653051 -0.0172724
0.00887697 -0.0487706
0 0
0 0
0.0104697 -0.0104668
0.0177831 -0.0288251
0.0142816 -0.036015
0.0160947 -0.0209665
-0.0179863 -0.102199
-0.0217562 -0.111092
-0.0161658 -0.0207754
-0.0145289 -0.0353009
-0.017785 -0.0285058
-0.00974552 -0.0466604
0.0180612 -0.101757
0.0217669 -0.110502
-0.0105361 -0.0104205
-0.00677708 -0.0169763
-0.00899761 -0.0322639
-0.00860418 -0.0128195
-0.0207069 -0.149896
-0.0104573 -0.170004
-0.0114266 -0.172757
-0.00736561 -0.174645
-0.0120096 -0.169653
-0.0018232 -0.177036
-0.0164547 -0.159719
-0.0142816 -0.172085
-0.00948664 -0.175965
-0.0193255 -0.158115
-0.0210934 -0.158524
-0.0181963 -0.166194
-0.0223967 -0.151088
-0.0189806 -0.147377
-0.0157085 -0.118436
-0.0205584 -0.137933
-0.0187481 -0.13128
0.0171415 -0.12247
0.019 -0.130504
0.0133215 -0.111029
0.0223723 -0.144233
0.0192668 -0.137752
0.0213692 -0.158849
0.0225959 -0.152151
0.0209143 -0.148751
0.0235765 -0.157297
0.0185288 -0.149691
0.0189921 -0.164661
0.0201833 -0.167122
0.0118681 -0.174186
0.00823975 -0.175379
0.00771139 -0.176923
0.00748621 -0.174616
0.00327157 -0.17674
0.0040676 -0.178305
0.0153863 -0.170727
0.0155014 -0.161992
0.0118514 -0.169582
0.0163822 -0.165994
0.0198872 -0.170794
0.018017 -0.174323
0.0219501 -0.165673
0.0110826 -0.18373
0.019856 -0.17011
0.0166599 -0.176582
0.0127446 -0.182036
-0.002041 -0.180338
-0.00494701 -0.179797
-0.00333126 -0.181072
-0.00785763 -0.178181
0.000445364 -0.179584
-0.00128587 -0.177649
-0.00503026 -0.177601
3.71676e-05 -0.17844
0.00250156 -0.231747
-0.00415647 -0.231166
-0.00299042 -0.239531
-0.00335763 -0.217207
-0.00822522 -0.227094
-0.00656334 -0.243714
0.00434818 -0.240904
0.00900894 -0.23578
0.00650991 -0.22484
0.00784088 -0.199726
0.00268659 -0.209811
0.00580073 -0.213318
-0.000983824 -0.207457
0.0123321 -0.217456
0.0129098 -0.192314
0.0100451 -0.190922
0.0272989 -0.143396
0.0255909 -0.121049
0.0227292 -0.128624
0.0160294 -0.122379
0.0192947 -0.1174
0.0288436 -0.135749
-0.0255517 -0.121721
-0.0284861 -0.147304
-0.0234392 -0.132264
-0.0199869 -0.120815
-0.0181087 -0.128793
-0.0283927 -0.136388
-0.0246448 -0.16627
-0.0249921 -0.168459
-0.0179423 -0.176742
-0.0315742 -0.159053
-0.023821 -0.174239
-0.0104117 -0.191165
-0.0123396 -0.184368
-0.0245996 -0.164495
-0.027553 -0.157864
-0.000253021 -0.201018
0.00499514 -0.208183
-0.000797822 -0.198133
0.0103747 -0.219386
0.00989095 -0.215266
-0.00167105 -0.196051
-0.0072813 -0.188474
-0.00610673 -0.192503
0.000395034 -0.205586
-0.0198937 -0.17114
-0.0225633 -0.165547
-0.0226903 -0.166093
-0.0228099 -0.163454
-0.0239602 -0.157968
-0.025164 -0.158837
-0.0232768 -0.165618
-0.0132231 -0.180505
-0.0161872 -0.176666
0.00966414 -0.186372
0.00482539 -0.195104
0.0104019 -0.187568
-0.00135132 -0.204379
0.0156649 -0.179652
0.0157973 -0.177168
0.0102401 -0.184607
0.0252286 -0.167742
0.0296981 -0.161795
0.0287719 -0.15996
0.0284898 -0.168148
0.0321278 -0.156784
0.0282464 -0.153807
0.0279602 -0.158295
0.0214527 -0.17225
0.0191387 -0.178571
0.0261033 -0.158439
0.0251505 -0.159394
0.0238478 -0.164361
0.0249414 -0.152101
0.0247582 -0.157896
0.0203107 -0.170249
0.0203646 -0.170547
0.0268344 -0.158708
0.026348 -0.153146
0.0264865 -0.146954
0.0270491 -0.145915
0.0224113 -0.137173
0.0170369 -0.126106
0.0257904 -0.146994
0.0249808 -0.146522
0.0247113 -0.147204
0.0238923 -0.146221
0.0186457 -0.130342
-0.0242589 -0.142672
-0.0286771 -0.150477
-0.0274158 -0.151107
-0.0263727 -0.151815
-0.0194287 -0.132754
-0.0252002 -0.150595
-0.0247549 -0.152419
-0.0203302 -0.135686
-0.0238107 -0.150616
-0.0110568 -0.183607
-0.00685676 -0.189099
-0.0099539 -0.185344
-0.010293 -0.185177
-0.00550161 -0.191048
-0.0138682 -0.180466
0.00503795 -0.191595
8.76095e-06 -0.198417
-0.000713126 -0.20053
0.00103994 -0.196415
-0.00401051 -0.203651
-0.00590868 -0.21005
0.0103175 -0.184052
0.0105065 -0.183943
0.00585553 -0.189963
0.0105343 -0.183743
0.00158001 -0.195539
0.0153795 -0.177267
0.018332 -0.173258
0.0129574 -0.180981
0.0034898 -0.193092
0.00881342 -0.186404
0.0137746 -0.180556
0.016214 -0.176767
-0.000817491 -0.19851
0.00615782 -0.189884
0.00749063 -0.188434
0.00276016 -0.193954
-0.00146471 -0.195902
0.00300834 -0.201332
-0.00157856 -0.195689
0.00836514 -0.208142
0.00786907 -0.206775
-0.00126112 -0.195872
-0.00180318 -0.195539
0.00472466 -0.21846
0.00815714 -0.232063
0.00974345 -0.225294
0.00352436 -0.238796
0.00910548 -0.242422
0.0142246 -0.230416
-0.000747762 -0.212603
-0.00604679 -0.230338
-0.000370983 -0.233865
-0.00217134 -0.221619
-0.00430032 -0.241046
-0.00587596 -0.205354
-0.0105948 -0.223011
-0.00884713 -0.236049
-0.0182044 -0.194643
-0.0148061 -0.21306
-0.0112118 -0.201062
-0.0137558 -0.229571
-0.0192387 -0.221533
0.0179127 -0.241158
0.0155154 -0.248071
0.0203503 -0.250605
-0.0253127 -0.210765
-0.0294753 -0.193552
0.0251969 -0.252949
0.0189492 -0.235791
0.0223617 -0.19245
0.0163378 -0.190698
0.0166457 -0.205906
0.0137815 -0.229386
0.0192405 -0.221383
-0.0146877 -0.241002
-0.0187864 -0.249992
-0.0134421 -0.248997
-0.0238819 -0.252379
0.024851 -0.210771
0.0301228 -0.193795
-0.0137187 -0.231143
0.0282436 -0.200966
0.0314572 -0.199149
0.0279473 -0.196877
0.0339462 -0.201177
0.00864517 -0.185426
0.00738319 -0.185262
0.02524 -0.195131
0.0251031 -0.202826
0.0285802 -0.205231
0.0338004 -0.207575
0.0390183 -0.208905
0.0370801 -0.204536
0.04148 -0.212549
0.00614271 -0.185139
0.00529016 -0.185074
0.0307726 -0.20937
0.0413719 -0.226827
0.0467218 -0.228163
0.0454665 -0.222986
0.0475702 -0.233071
0.0044462 -0.185029
0.00386709 -0.18501
0.043181 -0.217655
0.0362069 -0.224898
0.0381083 -0.229908
0.042064 -0.236039
0.0461286 -0.24169
0.0472088 -0.237635
0.0449362 -0.245139
0.0438003 -0.253649
0.0458363 -0.251605
0.0376086 -0.234022
0.037606 -0.248589
0.0400757 -0.252701
0.0417975 -0.250576
0.0379125 -0.254165
0.0476983 -0.24909
0.0493655 -0.24607
0.0435297 -0.248216
0.0352588 -0.244402
0.033866 -0.246618
0.0330735 -0.250096
0.0323051 -0.254564
0.035279 -0.254768
0.0289623 -0.254101
0.0507224 -0.242518
0.0516865 -0.238405
0.0306757 -0.245317
-0.0322128 -0.249564
-0.0351428 -0.25477
-0.0315418 -0.253936
-0.0377876 -0.254145
-0.0438004 -0.2534
-0.0416407 -0.255073
-0.0281164 -0.25342
-0.0280746 -0.242056
-0.0321424 -0.244772
-0.0371586 -0.248367
-0.0414625 -0.250192
-0.0399578 -0.252673
-0.0431802 -0.247823
-0.0393215 -0.256351
-0.036846 -0.257363
-0.03314 -0.241958
-0.0419426 -0.237184
-0.0471328 -0.238415
-0.0459768 -0.241746
-0.0474753 -0.233917
-0.0340784 -0.258028
-0.0309886 -0.258417
-0.0447977 -0.245182
-0.0377214 -0.235631
-0.0383623 -0.232353
-0.0383729 -0.212559
-0.0389102 -0.20726
-0.0416472 -0.210801
-0.0358014 -0.203933
-0.0362565 -0.1984
-0.0395053 -0.201663
-0.0440422 -0.214399
-0.0382996 -0.217364
-0.0354993 -0.213898
-0.0274285 -0.200124
-0.0280436 -0.196346
-0.0305069 -0.198422
-0.0253276 -0.194598
-0.0424221 -0.205138
-0.0449588 -0.20877
-0.033008 -0.200456
-0.0269215 -0.203135
-0.0244451 -0.20104
-0.0471197 -0.212508
-0.023298 -0.192383
-0.0213342 -0.191374
-0.01932 -0.190526
-0.0179225 -0.195026
-0.0495298 -0.217983
-0.0191351 -0.172574
-0.0124496 -0.182188
-0.0135478 -0.18003
0.0269772 -0.242719
0.0230842 -0.239592
0.0263045 -0.247196
0.0192332 -0.230509
0.027383 -0.238661
0.0211838 -0.170059
0.0208343 -0.171559
0.025317 -0.16418
-0.0238141 -0.23961
-0.0241803 -0.245498
-0.0192968 -0.236104
-0.0127983 -0.222919
-0.0230591 -0.233357
0.0226433 -0.139922
0.0176711 -0.127925
-0.0236008 -0.143992
-0.0197344 -0.133612
0.0218021 -0.203407
0.0212932 -0.199534
0.0205717 -0.19574
0.0171517 -0.196596
0.0347772 -0.219274
0.037824 -0.21679
0.0326193 -0.214446
0.0276172 -0.211703
0.0314068 -0.222054
0.0360139 -0.241257
0.0402227 -0.243282
0.0368499 -0.238093
0.032569 -0.231449
0.0316822 -0.238429
-0.03636 -0.237801
-0.0397167 -0.243111
-0.0352178 -0.240358
-0.0293132 -0.235449
-0.0324902 -0.232346
-0.0294756 -0.206416
-0.0327453 -0.205635
-0.0323524 -0.209805
-0.0324866 -0.214409
-0.0266575 -0.207064
-0.0206261 -0.196485
-0.0229008 -0.195867
-0.0226915 -0.198636
-0.0222608 -0.201451
-0.0177921 -0.197557
-0.0175656 -0.174995
-0.0171001 -0.175948
0.0187675 -0.223426
0.0190242 -0.22666
0.0233249 -0.231229
0.0144601 -0.220994
0.0275132 -0.235183
0.0182865 -0.220578
0.0134058 -0.215183
0.0194501 -0.171475
0.0217493 -0.16737
0.0220734 -0.205918
0.0182511 -0.202532
0.0158248 -0.200602
0.0161679 -0.202871
0.0222498 -0.213974
0.0262759 -0.217137
0.0256419 -0.21369
0.0283024 -0.222454
0.0234511 -0.208954
0.0185343 -0.210261
0.01941 -0.213319
0.0232162 -0.2254
0.0277888 -0.232128
0.0280304 -0.2293
0.0282368 -0.225614
0.0182628 -0.218459
-0.0226505 -0.223404
-0.0281267 -0.228862
-0.0263155 -0.229224
-0.0292696 -0.227146
-0.0243519 -0.229912
-0.0180521 -0.218442
-0.0199772 -0.218862
-0.0276936 -0.218833
-0.0320151 -0.220816
-0.0311293 -0.223073
-0.0320971 -0.217683
-0.035391 -0.221753
-0.0344547 -0.227694
-0.0304979 -0.225644
-0.0239679 -0.216782
-0.0247486 -0.214847
-0.0210096 -0.203286
-0.0191969 -0.200963
-0.0165299 -0.199336
-0.0147552 -0.201353
0.00943483 -0.212039
0.00886558 -0.209921
0.0038279 -0.203371
0.0179428 -0.207719
0.0200369 -0.207783
0.0164376 -0.2049
0.0140252 -0.202851
0.014958 -0.207116
0.0197468 -0.218123
0.0231378 -0.220076
0.0195131 -0.215514
0.015749 -0.211444
0.0143889 -0.213368
-0.0228384 -0.217934
-0.0256811 -0.222183
-0.0216576 -0.218971
-0.0168786 -0.214435
-0.0197164 -0.213828
0.0108163 -0.209721
0.00581149 -0.203815
0.00288087 -0.200326
0.00591571 -0.203211
-0.00254417 -0.20015
-0.00786069 -0.206416
-0.00446597 -0.202817
-0.0106223 -0.208819
-0.0125486 -0.211974
-0.00652257 -0.205877
-0.000767941 -0.197723
0.0123673 -0.206037
0.0117022 -0.203847
0.00872679 -0.20083
0.00681426 -0.201431
0.00925069 -0.206321
0.0124166 -0.210143
0.0128536 -0.209555
0.0126796 -0.207816
0.00642382 -0.203029
-0.0123506 -0.207948
-0.015895 -0.21099
-0.0151595 -0.211592
-0.0170185 -0.210218
-0.0133792 -0.211048
-0.00849922 -0.204782
-0.00926743 -0.204549
-0.0181804 -0.209226
-0.0142443 -0.206723
-0.0113234 -0.203064
-0.0134852 -0.202838
-0.00881308 -0.206152
-0.00565622 -0.202513
0.00938937 -0.20433
0.00710018 -0.202844
-0.0256121 -0.212805
-0.0258862 -0.209758
-0.0288374 -0.213588
-0.0232356 -0.206525
-0.0216665 -0.210982
-0.0166618 -0.204339
-0.0202914 -0.20577
-0.018995 -0.207481
-0.0390917 -0.225418
-0.0428905 -0.229771
-0.0392546 -0.229497
-0.0478094 -0.229806
-0.0394072 -0.222096
-0.0462847 -0.219888
-0.0469866 -0.224686
-0.0420312 -0.2209
-0.0511478 -0.223397
-0.0519939 -0.228595
-0.0102192 -0.212937
-0.0167047 -0.223478
-0.0123303 -0.218618
-0.0215548 -0.228296
-0.00908978 -0.210136
-0.0155675 -0.216676
-0.0178302 -0.221013
-0.0123186 -0.213668
-0.00226195 -0.169851
-0.0054342 -0.166694
-0.0153875 -0.118758
-0.0180606 -0.127397
-0.015677 -0.138491
-0.0165011 -0.147785
0.0108735 -0.160447
0.0116019 -0.15301
-0.0022843 -0.193916
-0.00598423 -0.189651
0.0158335 -0.165316
0.0155845 -0.168425
0.000717587 -0.175952
0.00276183 -0.174974
-0.0188057 -0.0253397
-0.0170166 -0.0250234
-0.00467441 -0.0213445
-0.00418151 -0.0105306
0.0104585 -0.162069
0.00779126 -0.161024
0.0182891 -0.107562
0.0175091 -0.128356
-0.0180301 -0.165434
-0.0181656 -0.161423
-0.000289826 -0.000920118
-0.00179469 -0.0104009
-0.0242588 -0.132155
-0.0133868 -0.11912
0.0245562 -0.152214
0.0234367 -0.144272
-0.00820356 -0.104083
-0.00522299 -0.0931535
-0.00607584 -0.077448
-0.00725933 -0.0733248
-0.00336351 -0.176086
-0.00328836 -0.176307
-0.0154666 -0.119431
-0.0179622 -0.127009
0.00707534 -0.00679911
0.0127186 -0.0126624
0.00792005 -0.181537
0.00852612 -0.182429
0.0181428 -0.167332
0.0170202 -0.171237
-0.0277001 -0.143415
-0.0195101 -0.129449
0.00881167 -0.178101
0.00700353 -0.177809
0.0146653 -0.113274
0.0126041 -0.111887
0.00834015 -0.181045
0.00695693 -0.180696
-0.0112788 -0.182433
-0.00936406 -0.185139
0.0160262 -0.176892
0.0158757 -0.177598
-8.84999e-05 -0.0809208
0.00513718 -0.0661862
0.00999696 -0.136534
0.0123054 -0.123789
-0.00319483 -0.165956
-0.00677427 -0.163013
-0.00564468 -0.16086
-0.00214471 -0.164311
0.000879234 -0.0475643
0.00201012 -0.0581057
-0.00485799 -0.186258
-0.00202915 -0.187215
-0.0186784 -0.130817
-0.0239538 -0.144535
0.00119963 -0.183183
0.000563444 -0.182935
-0.00130662 -0.130834
0.000171977 -0.143309
-0.00975446 -0.157684
-0.0182677 -0.155806
-0.0125696 -0.163703
-0.00896666 -0.159731
-0.0156531 -0.176981
-0.0133339 -0.17919
0.0201524 -0.136618
0.0209767 -0.138901
-0.0255018 -0.129455
-0.024182 -0.14113
-0.0119631 -0.10279
-0.00973449 -0.0842934
-0.00694913 -0.0824129
-0.00640889 -0.0866761
-0.00949033 -0.0986444
-0.0133497 -0.112235
-0.00884102 -0.0808376
-0.00794758 -0.0850769
-0.019568 -0.165539
-0.0176107 -0.168636
-0.0152684 -0.169534
-0.0126455 -0.172127
-0.0145262 -0.170337
-0.0151771 -0.171484
-0.0184705 -0.172667
-0.017108 -0.174215
-0.00279701 -0.0719347
0.00139169 -0.0653983
-0.00178226 -0.176874
-0.00442415 -0.17615
-0.0162042 -0.150195
-0.0134 -0.154742
0.0176804 -0.126327
0.01519 -0.117388
-0.00407815 -0.176986
-0.00387657 -0.176652
-0.0124184 -0.178497
-0.0130211 -0.179258
-0.0195911 -0.166418
-0.0210318 -0.160728
0.0194931 -0.137266
0.0178497 -0.126087
-0.0030642 -0.172458
-0.00579344 -0.172665
0.0114256 -0.0383677
0.00950804 -0.034658
-0.0141103 -0.179794
-0.0167821 -0.175842
-0.0119106 -0.0293587
-0.00904555 -0.0317559
-4.00468e-05 -0.177477
-0.00014402 -0.177088
-0.0248166 -0.151959
-0.0230229 -0.142669
0.00843931 -0.173333
0.00564921 -0.175438
-0.0221643 -0.152743
-0.022039 -0.145333
-0.0108079 -0.170163
-0.00862057 -0.173297
0.0138076 -0.0423334
0.011963 -0.0475773
-0.0035856 -0.0699996
-0.000868706 -0.0789689
0.0151896 -0.120787
0.00962678 -0.106163
0.0142344 -0.178813
0.0206941 -0.169567
-0.00544408 -0.183778
-0.00351852 -0.183593
-0.00825136 -0.1027
-0.0123018 -0.114629
-0.00105917 -0.0776485
-0.000879233 -0.0720049
0.0261209 -0.152829
0.0270533 -0.159961
-0.00207713 -0.175903
-0.000584901 -0.177003
-0.00533532 -0.182836
-0.00327688 -0.183049
-0.0136123 -0.180298
-0.012581 -0.182227
-0.0057209 -0.136698
-0.00245397 -0.125882
0.0096474 -0.0912579
0.0110042 -0.111006
0.00327602 -0.0814447
0.00434296 -0.0894111
0.0130792 -0.0130273
0.012061 -0.0147148
0.0198605 -0.170853
0.0217122 -0.165782
0.00468075 -0.0848833
0.00900165 -0.0993788
0.00220323 -0.0716419
0.0070469 -0.0576809
0.0161041 -0.17755
0.0127793 -0.182037
0.00465752 -0.181251
0.00625142 -0.181457
0.0198023 -0.170989
0.0191993 -0.172014
-0.0175751 -0.137006
-0.0184218 -0.133296
0.000233594 -0.183673
-0.000122975 -0.18347
-0.00849677 -0.0994821
-0.00908751 -0.0968171
-0.00842661 -0.0231041
-0.00973553 -0.0176159
-0.00277295 -0.0163132
4.46299e-05 -0.0170002
0.0136257 -0.0125569
0.0164928 -0.0177085
-0.0131368 -0.180813
-0.0188622 -0.172703
-0.000933444 -0.176798
-0.00168017 -0.176108
-0.00116614 -0.175786
-0.000323385 -0.173521
-0.00909549 -0.181865
-0.0067302 -0.182543
-0.00418246 -0.0704985
-0.00144811 -0.0549384
-0.0243176 -0.158482
-0.0228893 -0.163337
-0.000469697 -0.177084
0.00012061 -0.177408
0.0225611 -0.161942
0.0234709 -0.155789
0.0100876 -0.0499734
0.0130109 -0.0395122
0.019579 -0.170458
0.0175552 -0.173824
0.00341486 -0.148058
-0.00303074 -0.148692
0.00264826 -0.175714
0.000760831 -0.176887
-0.00492692 -0.0442334
-0.00547613 -0.0332323
-0.00623182 -0.0610938
-0.00992934 -0.0487197
-0.00743639 -0.183296
-0.00508874 -0.184029
-0.00852961 -0.0952208
-0.00320654 -0.09396
0.0234489 -0.160168
0.0232891 -0.153342
-0.0046526 -0.0610928
-0.00536567 -0.0703598
-0.0082003 -0.0805914
-0.00547124 -0.0784338
-0.00647219 -0.00794512
-0.00726071 -0.00737765
-0.0148544 -0.112485
-0.0156435 -0.115845
0.000702206 -0.177147
0.000134321 -0.177512
0.00105593 -0.0170441
0.00216657 -0.00942261
0.0209784 -0.165758
0.0223011 -0.159841
-0.0178556 -0.136267
-0.0161553 -0.128202
-0.0156101 -0.0370354
-0.0146678 -0.0371047
-0.012086 -0.166096
-0.00750321 -0.164362
-0.00811166 -0.166295
-0.00956152 -0.168125
-0.0043942 -0.168501
-0.00219124 -0.163994
0.0181678 -0.169831
0.0159697 -0.172462
0.018387 -0.157025
0.0174308 -0.153088
-0.0104026 -0.0982295
-0.0119859 -0.106825
-0.018057 -0.174351
-0.0185274 -0.172981
-0.00176855 -0.172714
-0.000543901 -0.175688
0.00176845 -0.174345
0.00436195 -0.172435
-0.00672874 -0.0914016
-0.00247639 -0.0767501
-0.000863729 -0.00113658
-0.00608622 -0.00932333
-0.0130702 -0.10691
-0.0117274 -0.105511
0.00562908 -0.167284
0.00180619 -0.164537
0.0174984 -0.107476
0.00440761 -0.109394
0.00910037 -0.143245
0.0224665 -0.139044
-0.006547 -0.0162571
-0.00360058 -0.0102136
-0.0219555 -0.156991
-0.0228267 -0.154214
0.00669979 -0.0934625
0.00702078 -0.0984422
-0.0130439 -0.181966
-0.0165425 -0.176912
0.00817797 -0.173856
0.0110202 -0.171777
-0.00875438 -0.172981
-0.00955555 -0.173469
-0.0168804 -0.171076
-0.0189429 -0.167879
0.0220204 -0.165452
0.0214104 -0.166184
-0.000184793 -0.178616
0.00112404 -0.179362
-0.00867947 -0.18137
-0.0086625 -0.180351
0.0239517 -0.155256
0.0231027 -0.156524
0.00988744 -0.179969
0.0115068 -0.179921
-0.0156393 -0.0298942
-0.0172933 -0.0305932
-0.00612637 -0.175555
-0.00879755 -0.174296
-0.0188842 -0.150632
-0.0178619 -0.145609
0.00423019 -0.183136
0.0024192 -0.183527
0.0198102 -0.133233
0.0199764 -0.13403
0.00413169 -0.131451
0.00696687 -0.142965
0.00530655 -0.0782473
0.00500593 -0.0686715
0.00185835 -0.0013231
0.00860673 -0.00747025
-0.000970183 -0.0173771
0.00230144 -0.0403863
-0.00753523 -0.026519
-0.00530316 -0.0398641
0.0135921 -0.0169237
0.00919257 -0.00938982
-0.00606161 -0.16961
-0.00866297 -0.168576
0.0104204 -0.185001
0.0061569 -0.190006
-0.0139593 -0.164858
-0.0151951 -0.158905
-0.0118924 -0.0275565
-0.00918489 -0.0288496
0.00665283 -0.174164
0.00954821 -0.171546
0.00961738 -0.043228
0.0130408 -0.0360567
-0.00782088 -0.18565
-0.00776273 -0.184215
-0.00127277 -0.180861
-0.00399463 -0.180538
-0.00783631 -0.0373051
-0.00410437 -0.0496734
-0.0179015 -0.12673
-0.0188605 -0.135038
-0.0206571 -0.161449
-0.0205425 -0.165245
0.00607112 -0.0762919
0.0106645 -0.0910917
0.00882176 -0.182971
0.0104624 -0.182776
0.0213117 -0.162385
0.0198497 -0.168087
0.00186833 -0.0864904
0.000867884 -0.0812571
0.00393179 -0.183254
0.00433627 -0.184271
-0.00129773 -0.148085
0.00466835 -0.146531
0.0109969 -0.0474621
0.0130188 -0.0449675
-0.00501464 -0.177363
-0.00559517 -0.178124
-0.0147637 -0.178986
-0.0118173 -0.1825
-0.0148417 -0.179451
-0.0123746 -0.182408
0.0170352 -0.140015
0.0167099 -0.149718
-0.0038055 -0.159811
-0.00542786 -0.151235
-0.00274245 -0.176568
-0.00148997 -0.176957
0.00629121 -0.133759
-0.0024509 -0.133609
0.00824657 -0.082348
0.0109117 -0.103119
0.0156318 -0.14406
0.0159637 -0.15206
-0.00472385 -0.108754
-0.00578645 -0.0838149
0.00275712 -0.176331
0.00481172 -0.175347
0.0072032 -0.184474
0.00762874 -0.182858
0.00997029 -0.0855386
0.00944137 -0.0886598
0.0138281 -0.180255
0.015452 -0.178368
-0.0156572 -0.11973
-0.0141728 -0.117635
-0.00965296 -0.0973542
-0.0119887 -0.101693
-0.0166862 -0.175809
-0.0144038 -0.179541
0.0193776 -0.164882
0.0174267 -0.169418
-0.000613659 -0.176875
-0.000748307 -0.176728
0.00918768 -0.184224
0.00667866 -0.187297
0.00183915 -0.176714
0.00174995 -0.176768
-0.000399003 -0.177029
-0.00181139 -0.176824
0.0176085 -0.171664
0.017819 -0.169039
-0.0167836 -0.0323849
-0.0148693 -0.0391543
0.00695748 -0.182519
0.00486685 -0.183389
-0.0064566 -0.0627698
-0.00403534 -0.0698923
0.0160896 -0.149802
0.0180139 -0.149588
-0.0073847 -0.171516
-0.00550365 -0.174301
0.011295 -0.180273
0.0102708 -0.179769
-0.00332594 -0.0648416
-0.000760555 -0.049057
-0.00599148 -0.129093
-0.000262152 -0.114422
-0.000694023 -0.176279
-0.00168106 -0.176364
-0.012403 -0.176791
-0.013328 -0.177427
0.0149792 -0.179101
0.018047 -0.174273
-0.00729183 -0.146258
-0.00667856 -0.155541
0.00399509 -0.178074
0.00504622 -0.178755
0.0163895 -0.176018
0.0127521 -0.181298
-0.00780723 -0.177238
-0.0107653 -0.175913
0.0145717 -0.0301968
0.0166846 -0.0283569
0.0240449 -0.154608
0.0232372 -0.158669
0.00193602 -0.176707
-0.000922739 -0.176995
0.0205353 -0.147023
0.0195297 -0.138596
0.00217592 -0.0754457
0.00436243 -0.0691105
-0.00065538 -0.0765404
-0.00538199 -0.0863122
-0.00273146 -0.184685
-0.000773301 -0.186092
0.00591177 -0.0088092
0.0096061 -0.0179186
0.0168272 -0.0271978
0.0148153 -0.0259176
-0.00779381 -0.185061
-0.00525641 -0.185949
-0.00788788 -0.176261
-0.0107469 -0.17426
0.0152513 -0.119117
0.00295511 -0.119672
-0.00114475 -0.177236
-0.000231476 -0.177616
-0.0105118 -0.175802
-0.00993348 -0.174952
-0.0121121 -0.0276607
-0.0120193 -0.0189251
-0.00158139 -0.17697
0.000604829 -0.177176
0.000337044 -0.177447
-0.000273339 -0.178024
-0.0222261 -0.160197
-0.0211028 -0.16216
-0.0155597 -0.177355
-0.0141358 -0.179713
-0.0114196 -0.105885
-0.0134164 -0.114587
-0.000803174 -0.15857
0.00155654 -0.164529
0.000170539 -0.177389
0.00200584 -0.176528
0.007086 -0.177009
0.0099931 -0.176056
0.0098909 -0.0310018
0.00854156 -0.0428597
-0.00563372 -0.110382
-0.00941038 -0.121981
0.00553773 -0.0606146
0.0045509 -0.0676697
0.00819238 -0.183732
0.00585601 -0.184328
0.0059329 -0.159174
0.0134578 -0.15465
0.0098507 -0.167347
0.00785681 -0.167046
0.00126927 -0.0476643
0.00317988 -0.0532461
0.00262963 -0.187788
0.0017728 -0.185901
0.0166705 -0.173221
0.017711 -0.17312
-0.0106823 -0.171031
-0.0130362 -0.169375
-0.0127894 -0.106109
-0.015106 -0.113658
0.0251216 -0.146668
0.0218872 -0.139237
0.00159955 -0.0111593
-0.00178993 -0.0360406
0.0070128 -0.183956
0.00743928 -0.18526
-0.0106218 -0.109306
-0.0141569 -0.119562
0.00740508 -0.0329658
0.00698491 -0.0218683
-0.000841148 -0.17454
0.000327336 -0.176358
-0.00799838 -0.101107
-0.0120555 -0.113492
-0.0185287 -0.135368
-0.0174609 -0.125204
-0.0220638 -0.143307
-0.0203411 -0.136444
0.0148575 -0.0363832
0.0137495 -0.0426042
0.0144588 -0.169092
0.0119967 -0.170941
-0.00818912 -0.167408
-0.00412916 -0.165535
-0.0126751 -0.170786
-0.00990021 -0.173085
-0.00720364 -0.0484637
-0.00180551 -0.0726686
-0.0202513 -0.169413
-0.0186315 -0.172233
0.00504119 -0.181586
0.00583062 -0.182124
-0.00358652 -0.147531
0.00134553 -0.153675
0.00966012 -0.09597
0.0139613 -0.110477
-0.0184235 -0.021271
-0.0179183 -0.0264094
-0.0150164 -0.121798
-0.00888388 -0.105675
-0.00481652 -0.08312
-0.00828061 -0.0896631
0.00596379 -0.164121
0.000876611 -0.166045
0.0175509 -0.12744
0.0119141 -0.112928
-0.00134287 -0.182207
-0.000443456 -0.181567
-0.00129545 -0.185051
-0.00245891 -0.18672
-0.0111427 -0.106917
-0.0140504 -0.117462
-0.00990693 -0.167787
-0.00731884 -0.171655
0.0212234 -0.13838
0.023241 -0.14704
-0.000410851 -0.181555
-0.00153019 -0.180838
-0.0203434 -0.157833
-0.0188487 -0.159664
-0.0271498 -0.160709
-0.0240419 -0.164455
-0.00996176 -0.0486032
-0.0115665 -0.0480809
0.0073173 -0.0107346
0.0044951 -0.00657565
0.00550382 -0.04091
0.00885578 -0.0300478
0.00967096 -0.184343
0.00638673 -0.187389
-0.00146323 -0.00461559
-0.00187005 -0.0105089
-0.0234357 -0.146634
-0.0206802 -0.136578
0.00867561 -0.0806339
0.00472789 -0.0635745
0.00978865 -0.0529542
0.00846658 -0.057966
0.0176005 -0.174296
0.0226715 -0.165803
0.0182478 -0.173325
0.0206116 -0.169519
-0.01214 -0.0958487
-0.0150403 -0.111439
0.00198968 -0.0462795
-0.00270949 -0.0247992
0.0196259 -0.17138
0.0216356 -0.16668
-0.000199854 -0.174612
0.000977848 -0.171514
0.00566782 -0.130994
-0.00301041 -0.124787
0.0146007 -0.111871
0.0117008 -0.0987229
0.0103842 -0.0226877
0.00804586 -0.026485
0.0035866 -0.165857
0.00322504 -0.170974
0.00573947 -0.0517136
0.00208311 -0.0556501
-0.0167407 -0.124743
-0.0120154 -0.110948
-0.0189136 -0.171707
-0.0197516 -0.168263
0.000482957 -0.184056
0.00109333 -0.184507
0.0202992 -0.166258
0.018679 -0.171326
0.013289 -0.180318
0.0190225 -0.172166
0.000508415 -0.154544
-0.00269212 -0.160469
0.00503651 -0.00641431
0.00947029 -0.0148321
0.00497785 -0.0485354
0.00613362 -0.0538212
-0.00220857 -0.00676659
-0.00493209 -0.0124287
-0.0155406 -0.178473
-0.0167784 -0.176556
0.00189138 -0.0805101
0.00675731 -0.0921091
-0.0283929 -0.154648
-0.0262422 -0.167659
0.000598447 -0.0756342
0.00310569 -0.0887394
0.000198796 -0.181189
-0.00240327 -0.181198
-0.0012916 -0.075545
-0.00187619 -0.0761504
-0.0138489 -0.176394
-0.011222 -0.178432
0.00150925 -0.159802
-0.00274202 -0.163578
-0.01158 -0.0337791
-0.00904774 -0.0328153
-0.0127873 -0.173082
-0.00989542 -0.17526
0.016777 -0.150909
0.0173371 -0.156542
0.0140391 -0.0374582
0.0128609 -0.0449183
-3.32101e-05 -0.177125
0.000427327 -0.177039
0.00978539 -0.0859928
0.0132977 -0.102185
-0.00455231 -0.0268408
-0.00223419 -0.0267553
0.011668 -0.178137
0.0101107 -0.177954
-0.0143823 -0.0140717
-0.00796572 -0.00683666
0.00719465 -0.0936049
0.00833442 -0.100818
-0.0122834 -0.181792
-0.0180244 -0.173834
-0.0148087 -0.117978
-0.0126031 -0.102343
-0.00822806 -0.185724
-0.00690351 -0.185446
-0.0164653 -0.169277
-0.018333 -0.164644
-6.63703e-05 -0.177396
0.000167388 -0.177294
-0.00664136 -0.183251
-0.00673394 -0.184543
0.010981 -0.0907954
0.0139264 -0.10575
-0.0117055 -0.17714
-0.0117118 -0.178531
-0.0108007 -0.110729
-0.0066338 -0.0998723
-0.0190658 -0.132714
-0.0194506 -0.138793
-0.0047444 -0.173701
-0.00697617 -0.170105
0.00410405 -0.161873
0.00902984 -0.164058
-0.000669083 -0.185994
-0.000670146 -0.184455
-0.000739026 -0.177
-0.00127715 -0.176974
0.0203263 -0.16977
0.0215703 -0.165423
0.00808303 -0.174491
0.0103941 -0.171996
-0.0189928 -0.143403
-0.0192021 -0.136184
0.015792 -0.104907
0.00261041 -0.104476
0.0163265 -0.152493
0.0161601 -0.159015
0.00282463 -0.174338
0.0032069 -0.170945
-0.0154374 -0.171034
-0.0128072 -0.173713
-0.00942476 -0.180358
-0.0106821 -0.178647
0.00977449 -0.177381
0.0120418 -0.176914
-0.0154407 -0.17664
-0.0146955 -0.176115
0.00843789 -0.180331
0.00835112 -0.181439
-0.0222402 -0.162503
-0.0207199 -0.168576
-0.000424398 -0.182473
-0.000885919 -0.182978
-0.00512056 -0.167082
-0.00189473 -0.170021
-0.0108077 -0.107619
-0.00575238 -0.0949237
0.0187917 -0.146096
0.0239523 -0.135582
-0.0203586 -0.169582
-0.022263 -0.164137
-0.0162222 -0.175744
-0.0137464 -0.179014
-0.00104921 -0.192645
-0.00478643 -0.189998
-0.0164508 -0.165754
-0.0168609 -0.161293
-0.00564376 -0.0743842
-0.00436559 -0.0774141
0.0193637 -0.150254
0.0185611 -0.143112
0.0197248 -0.134617
0.0210743 -0.144491
-0.0051428 -0.178193
-0.00821289 -0.177135
-0.0227563 -0.140232
-0.0175159 -0.12795
-0.0108291 -0.159676
-0.00788817 -0.166318
0.00979504 -0.17642
0.00894064 -0.175736
0.0184221 -0.173091
0.0179116 -0.174101
0.00174296 -0.0594496
0.00614363 -0.0514247
-0.0190082 -0.130156
-0.0190674 -0.142955
-0.00604944 -0.18474
-0.00610379 -0.183408
0.00857819 -0.167082
0.0114653 -0.163279
-0.0217958 -0.162712
-0.0210595 -0.161822
-0.0123025 -0.176183
-0.0119747 -0.174907
-0.0149802 -0.0330053
-0.0149022 -0.0383182
0.00297253 -0.145906
-0.00146418 -0.137727
-0.00949768 -0.174886
-0.0123276 -0.172318
-0.0142877 -0.173093
-0.0115265 -0.175428
-0.00438096 -0.00847265
-0.00493084 -0.0163398
-0.00078806 -0.108165
0.00215617 -0.127523
0.00293884 -0.129879
0.00626147 -0.114774
0.00176442 -0.0267405
-0.00221382 -0.0464786
-0.00428761 -0.181303
-0.00205217 -0.181815
0.0157953 -0.138461
0.0150886 -0.148746
-0.00416953 -0.0627115
0.0012235 -0.0473403
0.0331762 -0.158819
0.0248052 -0.141872
-0.00110784 -0.176019
-0.000325469 -0.17723
-0.0144994 -0.0148582
-0.0124599 -0.0150691
-0.0109679 -0.036078
-0.00871253 -0.0480189
-0.0100192 -0.0464754
-0.0100734 -0.0521556
0.00877338 -0.123971
0.0100562 -0.107297
-0.0053757 -0.172472
-0.00277893 -0.175295
-0.00280381 -0.0469799
-0.00506125 -0.0738995
-0.00682995 -0.176933
-0.00947905 -0.176305
0.0185551 -0.12879
0.0186552 -0.132588
0.0300212 -0.152433
0.0239968 -0.141677
0.00174578 -0.0839641
0.00722118 -0.0987491
0.015219 -0.178097
0.0129083 -0.180395
-0.00523305 -0.093702
-0.0015224 -0.0806872
-0.0026189 -0.183101
-0.00433126 -0.182634
-0.0032907 -0.183426
-0.00213884 -0.183154
-0.00891541 -0.186309
-0.00546212 -0.189342
0.00219941 -0.0334904
-0.00188572 -0.0516491
-0.0190034 -0.167956
-0.0207006 -0.162756
0.0234777 -0.153772
0.0241193 -0.151084
-0.0212818 -0.168219
-0.0219994 -0.165331
-0.00854906 -0.166262
-0.0112885 -0.168831
0.00206638 -0.0414997
-0.00208201 -0.0153552
0.0192549 -0.1664
0.0173915 -0.171026
-0.00803383 -0.164867
-0.00476055 -0.160489
-0.00252459 -0.135383
-0.00480933 -0.145676
-0.00560945 -0.00647593
-0.000399625 -0.000459786
-0.00988328 -0.179177
-0.00829875 -0.178928
0.0182674 -0.173562
0.0148352 -0.17908
-0.0221014 -0.143819
-0.0203953 -0.136974
-0.00749466 -0.0603436
-0.00301171 -0.0726607
0.0177348 -0.12869
0.0165822 -0.129321
0.0140771 -0.179586
0.0158861 -0.176484
0.0191281 -0.172041
0.0214462 -0.168036
-0.0151145 -0.179126
-0.0176356 -0.175021
-0.00368129 -0.0102546
-0.000888869 -0.00288856
-0.00180717 -0.176912
-0.000917878 -0.177201
0.00658938 -0.147315
0.00271315 -0.141525
0.00648154 -0.18964
0.00872964 -0.186949
-0.00598976 -0.171568
-0.00660758 -0.16736
-0.0177708 -0.174606
-0.022784 -0.166593
0.00130426 -0.184566
0.00339704 -0.185173
0.00361496 -0.0722946
0.00832699 -0.0841193
0.0142154 -0.0259631
0.0140093 -0.0187329
-0.0231196 -0.165328
-0.0248376 -0.157467
0.0107035 -0.165007
0.0122705 -0.16565
0.0136721 -0.123731
0.0154587 -0.134528
-0.00134771 -0.182362
-0.00321246 -0.182454
-0.0212192 -0.135956
-0.0160709 -0.124517
0.00262992 -0.0377978
0.00492422 -0.0643656
-0.000513258 -0.176783
-0.00252531 -0.175856
0.0126144 -0.110642
0.0161893 -0.120256
-0.0183738 -0.0228849
-0.0161932 -0.0215017
0.000248515 -0.0334403
-0.000555147 -0.0399461
-0.0042258 -0.186565
-0.00271341 -0.189394
0.0175066 -0.160166
0.0152945 -0.163098
0.00309881 -0.00292546
0.00886745 -0.0101789
0.000285851 -0.182907
0.00061311 -0.182368
-0.00525592 -0.169497
-0.0032208 -0.173246
0.00827873 -0.157583
0.0108978 -0.150785
-0.00279236 -0.183602
-0.00130157 -0.183982
-0.0177518 -0.0303707
-0.0188396 -0.0248749
0.00334784 -0.0295559
0.00347779 -0.0148341
0.000890187 -0.187333
0.00201421 -0.189021
-0.0104136 -0.183394
-0.00980164 -0.185016
0.0198427 -0.170882
0.0187617 -0.173157
-0.0111503 -0.183588
-0.012449 -0.182611
0.02855 -0.152511
0.0215377 -0.133069
-0.00318796 -0.18421
-0.00337572 -0.18569
0.00633862 -0.0772575
0.00876964 -0.0849907
-0.0140875 -0.116407
-0.0179105 -0.126987
0.0110681 -0.183873
0.00721122 -0.188168
0.0159641 -0.116856
0.0122826 -0.103445
-0.017502 -0.0215338
-0.0152237 -0.0202186
0.00245339 -0.179049
5.37062e-06 -0.178758
-0.00891739 -0.106003
-0.0140852 -0.119404
0.00958896 -0.151525
0.0120105 -0.143148
0.00317772 -0.177381
0.00509963 -0.176366
-0.0195468 -0.160772
-0.0178955 -0.162366
-0.00994385 -0.177362
-0.00791531 -0.179238
0.0159164 -0.176687
0.0137219 -0.178791
-0.0070459 -0.181166
-0.00645601 -0.180425
-0.00490592 -0.0980034
-0.0142737 -0.117219
0.0140026 -0.113328
0.0115715 -0.112461
-0.0141347 -0.177008
-0.0117038 -0.179435
0.0135064 -0.122907
0.0137942 -0.110331
0.00162424 -0.183446
0.00212534 -0.183791
0.0158705 -0.139881
0.0170028 -0.147341
-0.00393621 -0.00775042
-0.00103846 -0.00256081
-0.0146501 -0.109898
-0.0168495 -0.12375
-0.00837033 -0.0276635
-0.00690176 -0.0402519
-0.00225499 -0.152891
0.0028234 -0.156407
-0.00463262 -0.175705
-0.00186868 -0.176854
0.00761529 -0.135148
0.00723286 -0.120846
0.00718533 -0.0809957
0.005187 -0.0639584
-0.000900469 -0.176805
0.000460412 -0.177065
0.0144967 -0.144549
0.0114303 -0.141616
-0.0111976 -0.0099271
-0.0102658 -0.0102826
-0.00433525 -0.186395
-0.0046571 -0.184582
0.00951331 -0.174228
0.012514 -0.17171
0.00206509 -0.179087
-0.000565066 -0.179889
-0.00886521 -0.180418
-0.00638718 -0.180933
0.000181754 -0.183572
-0.000512969 -0.183456
0.00388203 -0.103235
0.00959575 -0.101729
0.00641091 -0.180626
0.00853165 -0.179272
-0.00378768 -0.178187
-0.00125278 -0.178932
-0.00763299 -0.182988
-0.00628329 -0.184649
0.004003 -0.176657
0.00553711 -0.175643
-0.00187462 -0.0210674
-0.000821607 -0.00357244
0.0011839 -0.182762
0.000754111 -0.182288
0.00181742 -0.182187
0.00383583 -0.181929
-0.0137908 -0.113859
-0.0108732 -0.111817
-0.00297649 -0.17652
-0.00084958 -0.177002
0.00639802 -0.189735
0.00788284 -0.187885
-0.00263641 -0.177269
-0.000818504 -0.177863
0.0224886 -0.162597
0.0210019 -0.166695
-0.0155487 -0.0230113
-0.0170573 -0.0203989
0.0185967 -0.172848
0.0151423 -0.177626
0.0184063 -0.15083
0.0173846 -0.158338
0.0191412 -0.145524
0.0189616 -0.136099
-0.0133949 -0.109836
-0.0150301 -0.117387
0.00932956 -0.178042
0.0093246 -0.176738
0.00415488 -0.174472
0.00235767 -0.175116
0.0071978 -0.174357
0.00466101 -0.175666
-0.0100163 -0.154249
-0.00232058 -0.153934
0.011752 -0.0142046
0.0155754 -0.0204576
0.0101862 -0.172557
0.0122357 -0.171656
-0.0100387 -0.175236
-0.00757808 -0.175929
-0.015397 -0.171107
-0.0175055 -0.169033
-0.00923583 -0.0553061
-0.00604836 -0.0639673
-0.0204988 -0.1678
-0.0192017 -0.169478
0.0042511 -0.180771
0.00445906 -0.179696
0.00560005 -0.0113293
0.00859791 -0.0172427
0.0121687 -0.182352
0.00699047 -0.188937
-0.00595894 -0.187698
-0.00746333 -0.185181
-0.0111673 -0.0915886
-0.0118631 -0.0998591
1.85577e-05 -0.183641
0.000323719 -0.183711
-0.0011128 -0.0667267
-0.00230967 -0.0561694
-0.0178577 -0.126546
-0.0198521 -0.135541
-0.00228695 -0.18453
-0.00114523 -0.18629
0.00200314 -0.0511062
0.00626123 -0.0415405
-0.00491171 -0.00547299
-0.00560135 -0.00518402
-0.0122371 -0.109034
-0.00753238 -0.0948081
-0.000480697 -0.000870474
-0.000304965 -0.000364343
0.0270127 -0.160846
0.0258397 -0.158384
-0.00294636 -0.0616045
0.00166678 -0.0765859
0.0181343 -0.144438
0.0139079 -0.152874
-0.0216905 -0.151492
-0.0216836 -0.158456
-0.00239586 -0.179692
-7.43429e-05 -0.178977
0.021129 -0.164172
0.0220827 -0.157759
-0.0224608 -0.146516
-0.0206843 -0.137942
0.00236476 -0.0741479
0.00425507 -0.069861
-0.00249565 -0.172883
-0.00223871 -0.175617
0.00716568 -0.187853
0.00425796 -0.189828
0.000508021 -0.181955
-2.52109e-05 -0.181275
0.0178125 -0.171401
0.0154517 -0.174617
-0.00172845 -0.176954
-0.000254322 -0.177165
0.00244574 -0.176647
0.00373997 -0.176084
-0.00588277 -0.181446
-0.00355737 -0.182015
0.0220519 -0.159778
0.0211368 -0.1659
0.016108 -0.176209
0.0135956 -0.179716
0.0107248 -0.0511842
0.0108147 -0.0506947
-0.0129697 -0.0189755
-0.0150454 -0.0261302
0.015871 -0.177403
0.017749 -0.173824
-0.0142869 -0.178183
-0.0118441 -0.180919
0.0136184 -0.120223
0.0235542 -0.105246
-0.0218185 -0.15301
-0.0210862 -0.146009
-0.00355393 -0.0658875
0.00183564 -0.0799848
-0.0010994 -0.176705
0.000355397 -0.177057
-0.00329093 -0.0340465
0.000200995 -0.0497964
-0.0073673 -0.0570647
-0.00936167 -0.0460844
0.0169984 -0.174978
0.0146375 -0.178775
-0.0103334 -0.178728
-0.00898954 -0.180405
-0.0197611 -0.133838
-0.0226142 -0.143191
0.00932897 -0.0462552
0.0135901 -0.0397741
-0.00504671 -0.0788848
-8.1899e-05 -0.0671
0.0168105 -0.175566
0.0191556 -0.171085
0.0161928 -0.0245097
0.015702 -0.032602
0.00778977 -0.0587001
0.0114347 -0.0469046
0.0139101 -0.180472
0.0179514 -0.174479
0.0154299 -0.115604
0.023338 -0.138789
0.0171923 -0.122916
0.0154144 -0.115098
0.0188965 -0.158387
0.0169543 -0.163572
-0.0211862 -0.141432
-0.0213044 -0.147462
-0.000157084 -0.178224
0.000414996 -0.179006
0.0143708 -0.113539
0.016518 -0.122171
0.0139707 -0.0225423
0.0140424 -0.0316103
0.000336566 -0.183681
0.000774665 -0.183455
-0.00788984 -0.182391
-0.0103387 -0.181324
-0.0137809 -0.14021
-0.010474 -0.147929
-0.0132188 -0.10442
-0.0150057 -0.120065
-0.00544521 -0.183685
-0.00452302 -0.185115
-0.00154544 -0.0677282
0.00180229 -0.0522369
-0.00806072 -0.0416241
-0.00997883 -0.0294678
0.00201311 -0.18294
0.00367363 -0.182616
-0.00268188 -0.0505529
-0.00508966 -0.073793
-0.0197429 -0.171393
-0.023449 -0.163479
-0.000504523 -0.177896
0.00278167 -0.177443
0.00225627 -0.0777926
0.00616029 -0.0850861
-0.00769073 -0.0719032
-0.012393 -0.101716
0.00419747 -0.0594539
0.00507587 -0.0657952
0.0143192 -0.171651
0.0166845 -0.169573
0.00880802 -0.18126
0.0105945 -0.18109
0.019158 -0.130901
0.0149677 -0.118205
-0.00179489 -0.173982
-0.00161561 -0.176307
0.0123112 -0.182194
0.0121908 -0.181451
-0.00393116 -0.183127
-0.00561135 -0.183398
-0.00702346 -0.169014
-0.00837862 -0.163636
0.00339856 -0.00978531
0.00308261 -0.0164899
-0.00464205 -0.181201
-0.00254101 -0.181841
0.011608 -0.183512
0.0117471 -0.182964
-0.00786813 -0.179417
-0.0081236 -0.178074
-0.0184023 -0.128689
-0.0209053 -0.139407
0.0118208 -0.179938
0.0102251 -0.182144
-0.0194552 -0.170754
-0.01779 -0.173491
0.001297 -0.179906
-0.000333305 -0.179162
-0.0159795 -0.16103
-0.0175919 -0.16109
0.0149579 -0.174059
0.0124861 -0.175732
0.00133122 -0.176537
0.0017266 -0.175502
0.0212324 -0.137175
0.0160757 -0.123837
0.0140944 -0.18027
0.0136722 -0.180873
-0.015103 -0.177591
-0.0152589 -0.176109
0.00415048 -0.0626228
-0.000361303 -0.0772882
-0.0134119 -0.180511
-0.0121244 -0.182669
-0.019122 -0.0232452
-0.0180923 -0.0287007
0.00595102 -0.0680701
0.00238274 -0.0517954
0.0216878 -0.15109
0.0216978 -0.144748
-0.000408647 -0.177174
-0.00148567 -0.175951
0.00325086 -0.164788
0.00272175 -0.158775
-0.00132873 -0.0741109
-0.00615466 -0.0597676
0.011653 -0.181081
0.0106154 -0.183158
-0.00879172 -0.0825068
-0.00497575 -0.0635107
0.00460428 -0.184622
0.00700646 -0.183688
0.00146154 -0.176058
0.00019378 -0.177265
0.0118688 -0.176304
0.0140436 -0.175505
0.014988 -0.172925
0.0147727 -0.175038
0.0160554 -0.17002
0.018226 -0.1674
-0.00232456 -0.130379
-0.00047676 -0.142827
-0.0204222 -0.168879
-0.0221357 -0.164109
0.0131408 -0.101472
0.0136906 -0.112483
0.00536419 -0.188216
0.00658621 -0.185739
0.0209527 -0.142222
0.0215359 -0.141882
-0.00703024 -0.00740551
-0.000732861 -0.000723939
0.0133931 -0.0174341
0.0160093 -0.0181395
-0.00418522 -0.17616
-0.00193704 -0.176801
-0.000985955 -0.183572
-0.000205027 -0.183736
0.0125469 -0.0152099
0.00810648 -0.00961612
0.019956 -0.149597
0.0201628 -0.14176
0.00594169 -0.170847
0.00250211 -0.170269
0.0159939 -0.0332794
0.0147009 -0.0303899
0.000341511 -0.173264
-0.000214889 -0.176017
0.000479788 -0.182896
0.00123908 -0.183126
0.00973835 -0.175382
0.00677359 -0.176496
0.0206462 -0.138101
0.0189734 -0.130416
-0.0176647 -0.174649
-0.0196642 -0.169868
0.00526036 -0.0801596
0.00984964 -0.0941742
0.0194292 -0.107099
0.0176689 -0.122949
-0.0148502 -0.16975
-0.013334 -0.169859
-0.0198835 -0.13436
-0.02129 -0.139309
0.0238499 -0.156229
0.0243453 -0.158195
0.0263926 -0.147458
0.0275966 -0.160778
-0.00561487 -0.0573381
-0.00149337 -0.0714978
-0.0192506 -0.158564
-0.0187898 -0.153576
-0.0176246 -0.126166
-0.0156817 -0.12223
0.0100611 -0.108063
0.0125145 -0.115104
0.0101929 -0.0916978
0.00550508 -0.0783192
0.00181985 -0.183317
0.00264868 -0.183564
-0.00987013 -0.18185
-0.0101969 -0.180498
-0.000878519 -0.185025
-0.00186359 -0.186888
0.00861366 -0.181192
0.00664765 -0.181287
-0.00703652 -0.178525
-0.00432398 -0.17869
-0.00921853 -0.185363
-0.00843904 -0.18489
-0.00199201 -0.119957
-0.00585606 -0.0973881
0.0022406 -0.0219406
0.000963331 -0.00533417
-0.00130774 -0.167229
-0.00297517 -0.170647
0.0183013 -0.152794
0.0196935 -0.154392
0.00702341 -0.178886
0.00622928 -0.180208
0.0166141 -0.0326652
0.0185502 -0.0279987
-0.0185338 -0.130462
-0.0181447 -0.133226
-0.0228051 -0.163726
-0.0201603 -0.170708
-0.000277348 -0.184111
-0.00128298 -0.183901
-0.0100106 -0.165582
-0.010517 -0.159314
-0.0199283 -0.141382
-0.0190605 -0.132727
0.00294771 -0.183656
0.00199212 -0.183345
0.00561931 -0.0113426
0.00735769 -0.0228112
0.0164133 -0.122628
0.0125232 -0.110204
0.0151616 -0.177555
0.0211161 -0.16945
0.0136313 -0.18091
0.0102329 -0.185089
-0.000623403 -0.162404
0.00237398 -0.16703
0.0122933 -0.175522
0.0111201 -0.177658
0.00076859 -0.15772
0.000278035 -0.164528
-0.00101746 -0.165107
0.00365815 -0.162603
-0.0147611 -0.178794
-0.0141788 -0.180064
0.00414308 -0.176575
0.00279789 -0.176637
-0.00380298 -0.0736693
-0.00827396 -0.0855096
0.00362641 -0.0750249
0.0071281 -0.0893431
0.00136469 -0.182494
0.00211181 -0.182817
-0.0170036 -0.15906
-0.014991 -0.160107
0.00520565 -0.182226
0.00464305 -0.183059
-0.00502992 -0.175322
-0.00426461 -0.176176
0.0238291 -0.156758
0.0229654 -0.15777
0.0138923 -0.106831
0.00994649 -0.093784
0.0137933 -0.0252143
0.0122835 -0.0351328
0.018054 -0.172467
0.017998 -0.170675
-0.0200359 -0.165965
-0.0192752 -0.170006
0.00757976 -0.00614527
0.011968 -0.0122765
-0.0157066 -0.147705
-0.0164817 -0.137122
-0.020126 -0.134744
-0.0170441 -0.123913
0.0126189 -0.162801
0.0140351 -0.156103
-0.00937956 -0.134957
-0.00485865 -0.13062
0.0182675 -0.15541
0.0163752 -0.156335
0.0175066 -0.172701
0.017011 -0.171546
-0.0136055 -0.116831
-0.0157969 -0.109651
-0.0143022 -0.11985
-0.0118956 -0.113674
0.00767539 -0.163101
0.0100821 -0.156564
-0.00927555 -0.1844
-0.00969419 -0.1828
-0.0113197 -0.159067
-0.00852528 -0.152402
-0.00965525 -0.186102
-0.00440736 -0.192311
0.0115564 -0.141125
0.00224127 -0.142401
-0.0169997 -0.129303
-0.0155887 -0.133757
-0.0145933 -0.175939
-0.0165589 -0.174415
-0.00579428 -0.164716
-0.00101886 -0.16323
0.00452482 -0.175789
0.00239865 -0.176554
0.00954593 -0.181917
0.00816006 -0.183923
0.0115593 -0.0263735
0.0101644 -0.0167069
0.0039796 -0.0658794
0.00248091 -0.0745851
-0.00716953 -0.174403
-0.0067635 -0.173806
0.0166339 -0.120614
0.0173112 -0.124418
0.0162105 -0.149141
0.0160339 -0.156575
-0.012969 -0.182077
-0.016702 -0.176698
-0.00737703 -0.183663
-0.0059649 -0.185622
0.0200509 -0.170258
0.0196288 -0.170183
0.0178916 -0.131147
0.0160584 -0.118505
-0.00767815 -0.164281
-0.00507158 -0.158969
0.0244934 -0.148565
0.0210966 -0.13723
0.00745223 -0.0955088
0.0131827 -0.0726822
-0.00521778 -0.191374
-0.00614588 -0.190154
-0.00292595 -0.183719
-0.00218878 -0.183305
0.0109065 -0.110996
0.0128622 -0.124438
0.00846902 -0.0839816
0.00983777 -0.0851772
-0.00580677 -0.190682
-0.00424849 -0.192382
0.0125371 -0.182017
0.00982859 -0.184565
0.00292333 -0.177801
0.00188243 -0.178773
-0.00522208 -0.0637353
-0.000903202 -0.0473668
-0.0113166 -0.0926455
-0.0131147 -0.100833
-0.0174838 -0.174846
-0.0189124 -0.171097
-0.0142725 -0.111908
-0.0132687 -0.111108
-0.0253644 -0.163049
-0.0180691 -0.175087
-0.0143676 -0.177848
-0.0152858 -0.175493
0.00972956 -0.142053
0.0110944 -0.12927
0.00329573 -0.191994
0.00233375 -0.191594
0.0246179 -0.152408
0.023814 -0.153893
0.00625076 -0.177223
0.00342124 -0.177612
0.0214634 -0.168073
0.0237987 -0.161655
-0.00762946 -0.14808
-0.00306758 -0.147205
0.0105748 -0.161112
0.0157054 -0.153323
0.00152433 -0.00911611
0.000115982 -0.0326926
0.000912517 -0.184474
0.000783405 -0.186905
-0.0112555 -0.1744
-0.011902 -0.175314
0.0124475 -0.114893
0.0179684 -0.128735
-0.0150722 -0.0380225
-0.0144544 -0.0393768
-0.0107527 -0.109917
-0.0104292 -0.106475
-0.00169222 -0.00192309
-0.000559861 -0.000518198
-0.0188175 -0.131011
-0.0202203 -0.140555
-0.00117326 -0.177023
-0.000139616 -0.177577
-0.00118492 -0.172573
-0.00142827 -0.175425
-0.00700959 -0.163802
-0.00265741 -0.160331
-0.0173183 -0.0229071
-0.0185876 -0.0206
0.00722169 -0.0518309
0.00576157 -0.0619356
0.00689828 -0.16593
0.00720327 -0.159852
-0.000899816 -0.170738
0.00102399 -0.173678
0.0211646 -0.13704
0.0191429 -0.131067
0.000673176 -0.176795
0.000915387 -0.174879
0.0110917 -0.0254734
0.01368 -0.0251549
0.0109377 -0.0141307
0.00684399 -0.00888813
0.00128681 -0.00112893
0.00665779 -0.00561031
0.0256767 -0.148816
0.0245443 -0.148465
-0.0059452 -0.160681
-0.00863294 -0.162973
0.000813749 -0.0477512
-0.00322249 -0.0287343
-0.00212447 -0.193213
-0.00410312 -0.1902
-0.00518659 -0.0627494
-0.000737832 -0.0454626
0.00985301 -0.0540462
0.00831046 -0.0562698
-0.00344012 -0.167514
6.21251e-05 -0.167976
0.0240531 -0.152048
0.0235625 -0.157787
0.00590561 -0.1903
0.0102976 -0.18515
0.0117473 -0.0953618
0.0148734 -0.110943
-0.0105673 -0.0456022
-0.00979991 -0.0392171
0.00289306 -0.189987
0.00620815 -0.186724
-0.0149532 -0.178463
-0.0146986 -0.179482
0.0123327 -0.102768
0.0104139 -0.107588
-0.0162079 -0.124705
-0.0142303 -0.118708
0.00464979 -0.00802398
0.00793554 -0.0136253
-0.000608709 -0.182664
-0.00193054 -0.182925
-0.00102405 -0.0571461
-0.00424353 -0.0588418
-0.0135802 -0.155024
-0.0161156 -0.153824
-0.000122814 -0.172061
-0.00297299 -0.171521
0.000856654 -0.176214
0.00258665 -0.174193
0.00470154 -0.18182
0.00484757 -0.182485
0.0117668 -0.0397518
0.0143261 -0.0301338
0.0153797 -0.114445
0.0181969 -0.127122
0.0105401 -0.0898289
0.00789053 -0.0803843
-0.0103251 -0.180253
-0.00896932 -0.181878
-0.00562355 -0.173487
-0.0065188 -0.170215
-0.0209862 -0.138078
-0.0178998 -0.127021
-0.0132546 -0.181199
-0.0159731 -0.17728
0.00542281 -0.109604
-0.00117349 -0.123051
-0.00759036 -0.169382
-0.00928404 -0.169786
-0.00347247 -0.171064
-0.00617775 -0.167609
-0.00226349 -0.176832
-0.00526111 -0.175852
-0.000457755 -0.18197
0.0017062 -0.181835
0.00328247 -0.176707
0.00470905 -0.176749
0.0184251 -0.128345
0.0208913 -0.137824
0.00203672 -0.0137411
-0.00116986 -0.0258264
0.0122417 -0.0138463
0.0157617 -0.0206946
0.0012006 -0.182586
0.00175334 -0.182942
0.0174757 -0.125997
0.0184643 -0.128657
-0.00231909 -0.0874565
-0.008053 -0.103
-0.00339362 -0.173041
-0.00164732 -0.175704
-0.00432003 -0.178032
-0.00700278 -0.177807
-0.0071226 -0.0702416
-0.0023477 -0.0517693
-0.00281911 -0.0654334
0.00204766 -0.0753899
-0.000477695 -0.183826
-0.0012076 -0.183506
0.000414038 -0.176935
-4.82018e-05 -0.177299
-0.00275334 -0.182644
-0.000999336 -0.182802
0.000443875 -0.0762993
0.00316349 -0.0692343
0.0166817 -0.117899
0.0149077 -0.0957109
0.000247116 -0.183617
0.000709754 -0.183572
0.00752371 -0.173434
0.00497697 -0.175582
0.00484643 -0.190905
0.00887109 -0.186744
-0.0307321 -0.156923
-0.0244073 -0.142667
-0.00963723 -0.108029
-0.00422431 -0.0931071
0.00174696 -0.00360126
0.00352673 -0.00493056
-0.0165628 -0.175976
-0.0235294 -0.166589
0.021617 -0.166735
0.0224157 -0.163229
0.0026156 -0.18276
0.00131777 -0.183161
0.0192819 -0.171756
0.0203709 -0.169759
-0.0148432 -0.0368191
-0.0169581 -0.0286535
0.0139178 -0.153586
0.0109874 -0.15722
0.00149025 -0.192629
0.00480595 -0.188816
0.0165508 -0.123807
0.0197397 -0.132828
0.00370767 -0.0895547
0.00297053 -0.0896662
-4.50541e-05 -0.177578
-0.000239915 -0.177051
0.00310893 -0.178877
0.00605976 -0.177852
0.0134337 -0.167992
0.0106324 -0.1712
0.00312212 -0.173012
0.00550995 -0.16937
-0.0154302 -0.178235
-0.0187797 -0.172932
0.00376622 -0.165995
0.00715139 -0.164474
-0.00931036 -0.186562
-0.01344 -0.181444
-0.00772689 -0.165287
-0.00775179 -0.169454
0.0170684 -0.0328574
0.0154673 -0.0340704
0.00813489 -0.175385
0.0112094 -0.173395
-0.00208416 -0.183151
-0.00355162 -0.183288
-0.013469 -0.117746
-0.0170888 -0.126515
-0.0182968 -0.0243974
-0.0161993 -0.0227669
0.00306195 -0.0299415
0.00552671 -0.0265275
0.0136266 -0.160551
0.0124559 -0.16581
0.00233682 -0.173642
0.00490311 -0.170504
0.0227879 -0.144629
0.0239168 -0.153676
0.00898169 -0.175694
0.0060813 -0.176617
0.00639606 -0.0970833
0.0100817 -0.108432
0.00492434 -0.0622263
0.00352525 -0.0560236
0.0110385 -0.110726
0.0049216 -0.0937312
0.000216834 -0.182723
0.00117328 -0.18217
0.00703362 -0.0928466
0.0134512 -0.10046
0.00504332 -0.187213
0.00314885 -0.190236
0.00169215 -0.0845446
-0.00362679 -0.0706253
0.00906791 -0.105482
0.00518741 -0.0958225
-0.00484927 -0.0896086
-0.00237569 -0.0781435
0.0146331 -0.0367819
0.0145908 -0.0403891
-0.0159082 -0.177752
-0.0114805 -0.183515
-0.00815856 -0.00818475
-0.0105844 -0.00944239
0.0183824 -0.129385
0.0138685 -0.114252
-0.00996609 -0.0181867
-0.0126126 -0.0246899
0.0070386 -0.0443087
0.0075168 -0.033472
-0.0010695 -0.176991
9.4625e-05 -0.177023
0.00358931 -0.0484238
-0.0111477 -0.0537671
0.00891434 -0.186707
0.00825517 -0.18718
-0.0170064 -0.0286485
-0.0186748 -0.0268215
-0.0227858 -0.157437
-0.0217814 -0.164048
-0.00176553 -0.176832
0.000596813 -0.176974
0.0130056 -0.0160949
0.0163983 -0.0195908
0.00252191 -0.00279066
0.00398387 -0.00540776
-0.00606994 -0.177679
-0.00878287 -0.177161
-0.006274 -0.00563692
-0.0124676 -0.012064
0.00632121 -0.189806
0.00770504 -0.18798
0.0209828 -0.168327
0.018167 -0.174174
-0.0116573 -0.181472
-0.0118979 -0.180074
0.00353345 -0.181922
0.00365318 -0.181141
-0.00688883 -0.182492
-0.00487237 -0.183344
0.00863981 -0.172852
0.00921604 -0.170739
0.00159148 -0.176793
0.00240113 -0.17648
0.0109843 -0.0151748
0.0123731 -0.0229915
-0.00175278 -0.0402819
-0.00486791 -0.0249067
0.0192321 -0.169555
0.0188396 -0.167934
0.000310699 -0.18337
0.000106406 -0.183668
-0.00160925 -0.176939
0.000663402 -0.177075
-0.000599946 -0.152062
0.0048495 -0.15007
0.0122205 -0.0272583
0.0114915 -0.0379089
-0.00126531 -0.183715
-0.00167187 -0.183286
0.00730587 -0.096191
0.0094216 -0.0983288
-0.00590983 -0.0342032
-0.00640273 -0.02145
0.0195806 -0.171411
0.0198144 -0.170842
-0.0130901 -0.177925
-0.0105616 -0.179882
0.000664143 -0.0832674
0.00629133 -0.0985218
0.0107368 -0.048461
0.0197034 -0.0838526
-0.0125233 -0.173375
-0.00994479 -0.174724
-0.0212899 -0.16043
-0.0198214 -0.164752
0.00489217 -0.176188
0.00379282 -0.176226
-0.00396348 -0.0611583
-0.00274558 -0.0892621
0.002109 -0.176631
-0.000168118 -0.177039
0.00664514 -0.0575471
0.0105126 -0.0451722
0.0262637 -0.119363
0.0171495 -0.0964041
-0.00155457 -0.183823
-0.00324076 -0.183563
0.00737259 -0.137172
0.0111812 -0.146785
0.0156344 -0.115976
0.0161025 -0.117735
-0.00947035 -0.18556
-0.0120545 -0.182042
-0.000494535 -0.176739
0.000382929 -0.177179
0.00684973 -0.146928
0.00974867 -0.155266
-0.00261625 -0.176321
-0.00138192 -0.176657
-0.00336077 -0.0683606
-0.00422589 -0.0692086
-0.0023951 -0.172245
0.000270285 -0.173112
-0.00773895 -0.17442
-0.0106853 -0.172022
-0.0133759 -0.169845
-0.0105642 -0.172732
0.021706 -0.159365
0.0222546 -0.152328
0.000524732 -0.167833
0.00218761 -0.161654
-0.00298796 -0.013595
-0.00102519 -0.0168036
0.00929663 -0.174969
0.0122409 -0.173106
-0.00829428 -0.0566647
-0.00347451 -0.0692666
0.00751995 -0.0800552
0.00905177 -0.0810366
-0.0101362 -0.184312
-0.00779816 -0.185662
0.0031276 -0.182607
0.00186066 -0.183101
-0.0183735 -0.138835
-0.0175046 -0.127912
0.00855704 -0.0189786
0.0111332 -0.0240018
4.09376e-05 -0.176999
0.00234093 -0.176828
-0.00553683 -0.18184
-0.00444422 -0.182675
-0.0207664 -0.136826
-0.0238992 -0.147773
-0.00329935 -0.164939
-0.000962264 -0.169558
-0.00218904 -0.183369
-0.00398756 -0.183188
-0.00233705 -0.183366
-0.00417311 -0.183122
0.0158042 -0.116695
0.0132189 -0.10163
0.0217382 -0.137236
0.0277001 -0.149516
-0.00336886 -0.176292
-0.00153026 -0.176935
0.00650016 -0.18761
0.00537546 -0.187108
0.0057704 -0.0719559
0.00991921 -0.0882545
-0.00695792 -0.18382
-0.00901296 -0.183567
0.0191656 -0.165944
0.0201562 -0.166057
0.0196867 -0.151788
0.0198625 -0.158059
-0.0220115 -0.15886
-0.0212242 -0.165078
0.00995651 -0.162657
0.00818401 -0.168174
0.0005857 -0.183649
0.00122327 -0.183482
-0.0135672 -0.128243
-0.0161048 -0.133164
0.0191494 -0.0244982
0.0174034 -0.0233853
0.0136193 -0.0396875
0.0117406 -0.0480944
-0.0048764 -0.16892
-0.00774315 -0.167863
-0.00592592 -0.175046
-0.00808326 -0.174087
-0.0022465 -0.182909
-0.00394401 -0.182953
-0.011177 -0.0126241
-0.0095654 -0.0129189
-0.00615171 -0.0954827
-0.00342689 -0.0908612
0.0250339 -0.155786
0.0231826 -0.164408
-0.0130122 -0.179509
-0.0134858 -0.177788
-0.0188014 -0.161449
-0.0202749 -0.156335
-0.0130661 -0.172513
-0.0155116 -0.168848
-0.00753968 -0.174775
-0.00916398 -0.172606
0.0163616 -0.176384
0.0152568 -0.177511
-0.00684743 -0.179573
-0.00969198 -0.1784
0.0153515 -0.139003
0.0100447 -0.126
-0.00433653 -0.0338221
-0.00358573 -0.0247558
-0.0057845 -0.0830313
-0.0125741 -0.0954902
0.00134109 -0.0780346
-0.00208778 -0.0865188
0.00722582 -0.0534517
0.00282276 -0.0673597
-0.0172048 -0.123697
-0.0140807 -0.110799
-0.0202804 -0.146531
-0.0207289 -0.153724
0.0223308 -0.151723
0.0228906 -0.155334
-0.00758947 -0.17651
-0.00704127 -0.177786
-0.00429088 -0.183994
-0.00230826 -0.183944
-0.0171778 -0.15572
-0.0176777 -0.1478
-0.0220101 -0.167612
-0.0238639 -0.161803
-0.00016854 -0.177626
6.83374e-05 -0.177467
0.0227217 -0.15594
0.0234068 -0.15689
0.000378546 -0.178123
9.52831e-05 -0.177559
-0.0107802 -0.105441
-0.00895529 -0.0866708
-0.0231144 -0.163948
-0.021334 -0.168098
-0.0144083 -0.179863
-0.0186668 -0.173372
-0.00236467 -0.042324
0.00461517 -0.0605209
0.00197118 -0.0682124
-0.00238151 -0.052283
-0.0173543 -0.175521
-0.0203983 -0.170314
0.00459399 -0.19173
0.00720981 -0.188744
6.16632e-06 -0.078256
-0.0020163 -0.0501591
-0.0118354 -0.113705
-0.0115382 -0.112756
-0.0229812 -0.167193
-0.0261245 -0.157798
-0.00846603 -0.139455
-0.00486579 -0.148431
-0.00941297 -0.0113962
-0.0134906 -0.0158467
0.00973822 -0.0289096
0.0093212 -0.018062
-0.00913423 -0.185631
-0.0116781 -0.183389
0.0172022 -0.155314
0.018318 -0.158262
0.0102629 -0.10306
0.0150041 -0.117265
-0.00137515 -0.177011
-0.00244285 -0.176731
-0.0230111 -0.144321
-0.0222961 -0.143498
0.0159552 -0.175759
0.0162931 -0.176438
0.00745031 -0.180767
0.00586807 -0.180474
-0.0119496 -0.0288862
-0.0119609 -0.0195734
0.00114151 -0.176237
0.00250904 -0.173508
0.00264642 -0.18543
0.00413835 -0.18655
-0.00215001 -0.18376
-0.00376736 -0.183312
-0.000120972 -0.177565
-0.00105559 -0.177163
-0.0100597 -0.133113
-0.0125815 -0.140891
-0.00172438 -0.176753
-0.00106784 -0.175985
0.00156189 -0.00223489
0.0061586 -0.0121186
-0.0258705 -0.142545
-0.016529 -0.120102
0.0221331 -0.159286
0.02151 -0.157513
-0.0050299 -0.168294
-0.00459705 -0.172455
0.00332281 -0.178309
0.00647021 -0.177503
0.00661073 -0.175527
0.00966513 -0.1735
-0.0072073 -0.181112
-0.00596892 -0.180636
-0.000551312 -0.0410533
-0.000404718 -0.0464343
-0.0144901 -0.142153
-0.00654538 -0.133917
-0.0033398 -0.188209
-0.00680435 -0.188906
-0.00680435 -0.188906
-0.0104526 -0.189811
-0.0104526 -0.189811
-0.0142009 -0.190994
-0.0142009 -0.190994
-0.0179748 -0.192496
-0.0179748 -0.192496
-0.0217176 -0.194302
-0.0217176 -0.194302
-0.0253611 -0.196411
-0.0253611 -0.196411
-0.0288504 -0.198804
-0.0288504 -0.198804
-0.0321365 -0.201455
-0.0321365 -0.201455
-0.0351744 -0.204331
-0.0351744 -0.204331
-0.0379333 -0.207392
-0.0379333 -0.207392
-0.040385 -0.210596
-0.040385 -0.210596
-0.042513 -0.213899
-0.042513 -0.213899
-0.0443104 -0.217253
-0.0443104 -0.217253
-0.0457665 -0.22061
-0.0457665 -0.22061
-0.0468953 -0.223939
-0.0468953 -0.223939
-0.0477067 -0.22719
-0.0477067 -0.22719
-0.0482148 -0.230329
-0.0482148 -0.230329
-0.0484452 -0.233334
-0.0484452 -0.233334
-0.0484187 -0.236166
-0.0484187 -0.236166
-0.0481677 -0.238814
-0.0481677 -0.238814
-0.0477136 -0.241268
-0.0477136 -0.241268
-0.0470841 -0.243511
-0.0470841 -0.243511
-0.0463119 -0.245541
-0.0463119 -0.245541
-0.0454133 -0.247364
-0.0454133 -0.247364
-0.0444043 -0.248991
-0.0444043 -0.248991
-0.0433064 -0.25041
-0.0433064 -0.25041
-0.0421367 -0.25164
-0.0421367 -0.25164
-0.0408852 -0.252707
-0.0408852 -0.252707
-0.0395499 -0.253602
-0.0395499 -0.253602
-0.0381505 -0.254331
-0.0381505 -0.254331
-0.0366628 -0.254879
-0.0366628 -0.254879
-0.0350575 -0.255287
-0.0350575 -0.255287
-0.0333364 -0.255539
-0.0333364 -0.255539
-0.0314911 -0.255569
-0.0314911 -0.255569
-0.0294592 -0.255392
-0.0294592 -0.255392
-0.0272417 -0.255021
-0.0272417 -0.255021
-0.0248255 -0.254362
-0.0248255 -0.254362
-0.0221776 -0.253292
-0.0221776 -0.253292
-0.0192803 -0.251844
-0.0192803 -0.251844
-0.016143 -0.249944
-0.016143 -0.249944
-0.0127448 -0.247371
-0.0127448 -0.247371
-0.00911806 -0.244047
-0.00911806 -0.244047
-0.00528492 -0.239827
-0.00528492 -0.239827
-0.00120411 -0.234399
-0.00120411 -0.234399
0.00292689 -0.227399
0.00292689 -0.227399
0.00717401 -0.21845
0.00717401 -0.21845
0.0114783 -0.20625
0.0114783 -0.20625
0.0159867 -0.190375
0.0159867 -0.190375
0.0222108 -0.173283
0.0222108 -0.173283
0.0258792 -0.164991
0.0258792 -0.164991
0.0261371 -0.162022
0.0261371 -0.162022
0.0254394 -0.1609
0.0254394 -0.1609
0.0247062 -0.160864
0.0247062 -0.160864
0.0239367 -0.161602
0.0239367 -0.161602
0.0232946 -0.162863
0.0232946 -0.162863
0.0225527 -0.164598
0.0225527 -0.164598
0.0215871 -0.166698
0.0215871 -0.166698
0.0205946 -0.16909
0.0205946 -0.16909
0.0195015 -0.171544
0.0195015 -0.171544
0.0182249 -0.173889
0.0182249 -0.173889
0.0167613 -0.176064
0.0167613 -0.176064
0.0152194 -0.178081
0.0152194 -0.178081
0.0136254 -0.17988
0.0136254 -0.17988
0.0119722 -0.181446
0.0119722 -0.181446
0.0103031 -0.182797
0.0103031 -0.182797
0.00863395 -0.183942
0.00863395 -0.183942
0.00696875 -0.184887
0.00696875 -0.184887
0.00528301 -0.185673
0.00528301 -0.185673
0.00355713 -0.186328
0.00355713 -0.186328
0.0017398 -0.186915
0.0017398 -0.186915
-0.000433788 -0.187524
-0.000433788 -0.187524
-0.0033398 -0.188209
0.0272957 -0.255245
0.0295066 -0.255614
0.0295066 -0.255614
0.0315362 -0.255782
0.0315362 -0.255782
0.0333798 -0.255755
0.0333798 -0.255755
0.0350936 -0.255514
0.0350936 -0.255514
0.0366926 -0.255109
0.0366926 -0.255109
0.0381771 -0.254568
0.0381771 -0.254568
0.0395675 -0.253845
0.0395675 -0.253845
0.0408967 -0.25296
0.0408967 -0.25296
0.0421441 -0.251897
0.0421441 -0.251897
0.0433096 -0.250671
0.0433096 -0.250671
0.0444024 -0.249257
0.0444024 -0.249257
0.0454064 -0.247636
0.0454064 -0.247636
0.0463027 -0.245819
0.0463027 -0.245819
0.0470717 -0.243797
0.0470717 -0.243797
0.0476982 -0.241568
0.0476982 -0.241568
0.0481505 -0.239112
0.0481505 -0.239112
0.0484031 -0.236476
0.0484031 -0.236476
0.0484289 -0.233666
0.0484289 -0.233666
0.0482041 -0.230669
0.0482041 -0.230669
0.0476936 -0.22753
0.0476936 -0.22753
0.0468855 -0.224289
0.0468855 -0.224289
0.0457622 -0.220973
0.0457622 -0.220973
0.0443056 -0.217621
0.0443056 -0.217621
0.0425162 -0.214274
0.0425162 -0.214274
0.0403965 -0.210986
0.0403965 -0.210986
0.0379479 -0.207788
0.0379479 -0.207788
0.0351995 -0.204737
0.0351995 -0.204737
0.0321688 -0.20187
0.0321688 -0.20187
0.0288935 -0.199225
0.0288935 -0.199225
0.0254162 -0.196838
0.0254162 -0.196838
0.021785 -0.19473
0.021785 -0.19473
0.0180624 -0.19293
0.0180624 -0.19293
0.0142966 -0.191436
0.0142966 -0.191436
0.0105758 -0.190253
0.0105758 -0.190253
0.00694742 -0.189345
0.00694742 -0.189345
0.00353248 -0.188643
0.00353248 -0.188643
0.000636832 -0.187971
0.000636832 -0.187971
-0.00152587 -0.187359
-0.00152587 -0.187359
-0.00336621 -0.186776
-0.00336621 -0.186776
-0.00511112 -0.186123
-0.00511112 -0.186123
-0.0068201 -0.185346
-0.0068201 -0.185346
-0.00851399 -0.184398
-0.00851399 -0.184398
-0.0102112 -0.18324
-0.0102112 -0.18324
-0.0118907 -0.181867
-0.0118907 -0.181867
-0.0135535 -0.180272
-0.0135535 -0.180272
-0.0151572 -0.178442
-0.0151572 -0.178442
-0.0166682 -0.176374
-0.0166682 -0.176374
-0.0180719 -0.174107
-0.0180719 -0.174107
-0.0193833 -0.171748
-0.0193833 -0.171748
-0.0205307 -0.169494
-0.0205307 -0.169494
-0.0215073 -0.167318
-0.0215073 -0.167318
-0.0223345 -0.165309
-0.0223345 -0.165309
-0.0230978 -0.163518
-0.0230978 -0.163518
-0.0238823 -0.162124
-0.0238823 -0.162124
-0.024562 -0.161324
-0.024562 -0.161324
-0.0252423 -0.161258
-0.0252423 -0.161258
-0.0257362 -0.162403
-0.0257362 -0.162403
-0.0254674 -0.165285
-0.0254674 -0.165285
-0.0223906 -0.17334
-0.0223906 -0.17334
-0.0157043 -0.190511
-0.0157043 -0.190511
-0.0110709 -0.206008
-0.0110709 -0.206008
-0.00703655 -0.218402
-0.00703655 -0.218402
-0.00284866 -0.227681
-0.00284866 -0.227681
0.00136249 -0.234593
0.00136249 -0.234593
0.00535727 -0.240068
0.00535727 -0.240068
0.00921502 -0.244228
0.00921502 -0.244228
0.0128687 -0.247536
0.0128687 -0.247536
0.0162471 -0.250152
0.0162471 -0.250152
0.0193621 -0.252074
0.0193621 -0.252074
0.0222539 -0.253487
0.0222539 -0.253487
0.0249014 -0.254547
0.0249014 -0.254547
0.0272957 -0.255245
      </DataArray> 
      <DataArray type="Float64" NumberOfComponents="2" Name="Velocity" format="ascii">
0 0
0 0
0 0
0 0
0 0
0 0
0 0
0 0
0 0
0 0
0 0
0 0
0 0
0 0
0 0
0 0
0 0
0 0
0 0
0 0
0 0
0 0
0 0
0 0
0 0
0 0
0 0
0 0
0 0
0 0
0 0
0 0
0 0
0 0
0 0
0 0
0 0
0 0
0 0
0 0
0 0
0 0
0 0
0 0
0 0
0 0
0 0
0 0
0 0
0 0
0 0
0 0
0 0
0 0
0 0
0 0
0 0
0 0
0 0
0 0
0 0
0 0
0 0
0 0
0 0
0 0
0 0
0 0
0 0
0 0
0 0
0 0
0 0
0 0
0 0
0 0
0 0
0 0
0 0
0 0
0 0
0 0
0 0
0 0
0 0
0 0
0 0
0 0
0 0
0 0
0 0
0 0
0 0
0 0
0 0
0 0
0 0
0 0
0 0
0 0
0 0
0 0
0 0
0 0
0 0
0 0
0 0
0 0
0 0
0 0
0 0
0 0
0 0
0 0
0 0
0 0
0 0
0 0
0 0
0 0
0 0
0 0
0 0
0 0
0 0
0 0
0 0
0 0
0 0
0 0
0 0
0 0
0 0
0 0
0 0
0 0
0 0
0 0
0 0
0 0
0 0
0 0
0 0
0 0
0 0
0 0
0 0
0 0
0 0
0 0
0 0
0 0
0 0
0 0
0 0
0 0
0 0
0 0
0 0
0 0
0 0
0 0
0 0
0 0
0 0
0 0
0 0
0 0
0 0
0 0
0 0
0 0
0 0
0 0
0 0
0 0
0 0
0 0
0 0
0 0
0 0
0 0
0 0
0 0
0 0
0 0
0 0
0 0
0 0
0 0
0 0
0 0
0 0
0 0
0 0
0 0
0 0
0 0
0 0
0 0
0 0
0 0
0 0
0 0
0 0
0 0
0 0
0 0
0 0
0 0
0 0
0 0
0 0
0 0
0 0
0 0
0 0
0 0
0 0
0 0
0 0
0 0
0 0
0 0
0 0
0 0
0 0
0 0
0 0
0 0
0 0
0 0
0 0
0 0
0 0
0 0
0 0
0 0
0 0
0 0
0 0
0 0
0 0
0 0
0 0
0 0
0 0
0 0
0 0
0 0
0 0
0 0
0 0
0 0
0 0
0 0
0 0
0 0
0 0
0 0
0 0
0 0
0 0
0 0
0 0
0 0
0 0
0 0
0 0
0 0
0 0
0 0
0 0
0 0
0 0
0 0
0 0
0 0
0 0
0 0
0 0
0 0
0 0
0 0
0 0
0 0
0 0
0 0
0 0
0 0
0 0
0 0
0 0
0 0
0 0
0 0
0 0
0 0
0 0
0 0
0 0
0 0
0 0
0 0
0 0
0 0
0 0
0 0
0 0
0 0
0 0
0 0
0 0
0 0
0 0
0 0
0 0
0 0
0 0
0 0
0 0
0 0
0 0
0 0
0 0
0 0
0 0
0 0
0 0
0 0
0 0
0 0
0 0
0 0
0 0
0 0
0 0
0 0
0 0
0 0
0 0
0 0
0 0
0 0
0 0
0 0
0 0
0 0
0 0
0 0
0 0
0 0
0 0
0 0
0 0
0 0
0 0
0 0
0 0
0 0
0 0
0 0
0 0
0 0
0 0
0 0
0 0
0 0
0 0
0 0
0 0
0 0
0 0
0 0
0 0
0 0
0 0
0 0
0 0
0 0
0 0
0 0
0 0
0 0
0 0
0 0
0 0
0 0
0 0
0 0
0 0
0 0
0 0
0 0
0 0
0 0
0 0
0 0
0 0
0 0
0 0
0 0
0 0
0 0
0 0
0 0
0 0
0 0
0 0
0 0
0 0
0 0
0 0
0 0
0 0
0 0
0 0
0 0
0 0
0 0
0 0
0 0
0 0
0 0
0 0
0 0
0 0
0 0
0 0
0 0
0 0
0 0
0 0
0 0
0 0
0 0
0 0
0 0
0 0
0 0
0 0
0 0
0 0
0 0
0 0
0 0
0 0
0 0
0 0
0 0
0 0
0 0
0 0
0 0
0 0
0 0
0 0
0 0
0 0
0 0
0 0
0 0
0 0
0 0
0 0
0 0
0 0
0 0
0 0
0 0
0 0
0 0
0 0
0 0
0 0
0 0
0 0
0 0
0 0
0 0
0 0
0 0
0 0
0 0
0 0
0 0
0 0
0 0
0 0
0 0
0 0
0 0
0 0
0 0
0 0
0 0
0 0
0 0
0 0
0 0
0 0
0 0
0 0
0 0
0 0
0 0
0 0
0 0
0 0
0 0
0 0
0 0
0 0
0 0
0 0
0 0
0 0
0 0
0 0
0 0
0 0
0 0
0 0
0 0
0 0
0 0
0 0
0 0
0 0
0 0
0 0
0 0
0 0
0 0
0 0
0 0
0 0
0 0
0 0
0 0
0 0
0 0
0 0
0 0
0 0
0 0
0 0
0 0
0 0
0 0
0 0
0 0
0 0
0 0
0 0
0 0
0 0
0 0
0 0
0 0
0 0
0 0
0 0
0 0
0 0
0 0
0 0
0 0
0 0
0 0
0 0
0 0
0 0
0 0
0 0
0 0
0 0
0 0
0 0
0 0
0 0
0 0
0 0
0 0
0 0
0 0
0 0
0 0
0 0
0 0
0 0
0 0
0 0
0 0
0 0
0 0
0 0
0 0
0 0
0 0
0 0
0 0
0 0
0 0
0 0
0 0
0 0
0 0
0 0
0 0
0 0
0 0
0 0
0 0
0 0
0 0
0 0
0 0
0 0
0 0
0 0
0 0
0 0
0 0
0 0
0 0
0 0
0 0
0 0
0 0
0 0
0 0
0 0
0 0
0 0
0 0
0 0
0 0
0 0
0 0
0 0
0 0
0 0
0 0
0 0
0 0
0 0
0 0
0 0
0 0
0 0
0 0
0 0
0 0
0 0
0 0
0 0
0 0
0 0
0 0
0 0
0 0
0 0
0 0
0 0
0 0
0 0
0 0
0 0
0 0
0 0
0 0
0 0
0 0
0 0
0 0
0 0
0 0
0 0
0 0
0 0
0 0
0 0
0 0
0 0
0 0
0 0
0 0
0 0
0 0
0 0
0 0
0 0
0 0
0 0
0 0
0 0
0 0
0 0
0 0
0 0
0 0
0 0
0 0
0 0
0 0
0 0
0 0
0 0
0 0
0 0
0 0
0 0
0 0
0 0
0 0
0 0
0 0
0 0
0 0
0 0
0 0
0 0
0 0
0 0
0 0
0 0
0 0
0 0
0 0
0 0
0 0
0 0
0 0
0 0
0 0
0 0
0 0
0 0
0 0
0 0
0 0
0 0
0 0
0 0
0 0
0 0
0 0
0 0
0 0
0 0
0 0
0 0
0 0
0 0
0 0
0 0
0 0
0 0
0 0
0 0
0 0
0 0
0 0
0 0
0 0
0 0
0 0
0 0
0 0
0 0
0 0
0 0
0 0
0 0
0 0
0 0
0 0
0 0
0 0
0 0
0 0
0 0
0 0
0 0
0 0
0 0
0 0
0 0
0 0
0 0
0 0
0 0
0 0
0 0
0 0
0 0
0 0
0 0
0 0
0 0
0 0
0 0
0 0
0 0
0 0
0 0
0 0
0 0
0 0
0 0
0 0
0 0
0 0
0 0
0 0
0 0
0 0
0 0
0 0
0 0
0 0
0 0
0 0
0 0
0 0
0 0
0 0
0 0
0 0
0 0
0 0
0 0
0 0
0 0
0 0
0 0
0 0
0 0
0 0
0 0
0 0
0 0
0 0
0 0
0 0
0 0
0 0
0 0
0 0
0 0
0 0
0 0
0 0
0 0
0 0
0 0
0 0
0 0
0 0
0 0
0 0
0 0
0 0
0 0
0 0
0 0
0 0
0 0
0 0
0 0
0 0
0 0
0 0
0 0
0 0
0 0
0 0
0 0
0 0
0 0
0 0
0 0
0 0
0 0
0 0
0 0
0 0
0 0
0 0
0 0
0 0
0 0
0 0
0 0
0 0
0 0
0 0
0 0
0 0
0 0
0 0
0 0
0 0
0 0
0 0
0 0
0 0
0 0
0 0
0 0
0 0
0 0
0 0
0 0
0 0
0 0
0 0
0 0
0 0
0 0
0 0
0 0
0 0
0 0
0 0
0 0
0 0
0 0
0 0
0 0
0 0
0 0
0 0
0 0
0 0
0 0
0 0
0 0
0 0
0 0
0 0
0 0
0 0
0 0
0 0
0 0
0 0
0 0
0 0
0 0
0 0
0 0
0 0
0 0
0 0
0 0
0 0
0 0
0 0
0 0
0 0
0 0
0 0
0 0
0 0
0 0
0 0
0 0
0 0
0 0
0 0
0 0
0 0
0 0
0 0
0 0
0 0
0 0
0 0
0 0
0 0
0 0
0 0
0 0
0 0
0 0
0 0
0 0
0 0
0 0
0 0
0 0
0 0
0 0
0 0
0 0
0 0
0 0
0 0
0 0
0 0
0 0
0 0
0 0
0 0
0 0
0 0
0 0
0 0
0 0
0 0
0 0
0 0
0 0
0 0
0 0
0 0
0 0
0 0
0 0
0 0
0 0
0 0
0 0
0 0
0 0
0 0
0 0
0 0
0 0
0 0
0 0
0 0
0 0
0 0
0 0
0 0
0 0
0 0
0 0
0 0
0 0
0 0
0 0
0 0
0 0
0 0
0 0
0 0
0 0
0 0
0 0
0 0
0 0
0 0
0 0
0 0
0 0
0 0
0 0
0 0
0 0
0 0
0 0
0 0
0 0
0 0
0 0
0 0
0 0
0 0
0 0
0 0
0 0
0 0
0 0
0 0
0 0
0 0
0 0
0 0
0 0
0 0
0 0
0 0
0 0
0 0
0 0
0 0
0 0
0 0
0 0
0 0
0 0
0 0
0 0
0 0
0 0
0 0
0 0
0 0
0 0
0 0
0 0
0 0
0 0
0 0
0 0
0 0
0 0
0 0
0 0
0 0
0 0
0 0
0 0
0 0
0 0
0 0
0 0
0 0
0 0
0 0
0 0
0 0
0 0
0 0
0 0
0 0
0 0
0 0
0 0
0 0
0 0
0 0
0 0
0 0
0 0
0 0
0 0
0 0
0 0
0 0
0 0
0 0
0 0
0 0
0 0
0 0
0 0
0 0
0 0
0 0
0 0
0 0
0 0
0 0
0 0
0 0
0 0
0 0
0 0
0 0
0 0
0 0
0 0
0 0
0 0
0 0
0 0
0 0
0 0
0 0
0 0
0 0
0 0
0 0
0 0
0 0
0 0
0 0
0 0
0 0
0 0
0 0
0 0
0 0
0 0
0 0
0 0
0 0
0 0
0 0
0 0
0 0
0 0
0 0
0 0
0 0
0 0
0 0
0 0
0 0
0 0
0 0
0 0
0 0
0 0
0 0
0 0
0 0
0 0
0 0
0 0
0 0
0 0
0 0
0 0
0 0
0 0
0 0
0 0
0 0
0 0
0 0
0 0
0 0
0 0
0 0
0 0
0 0
0 0
0 0
0 0
0 0
0 0
0 0
0 0
0 0
0 0
0 0
0 0
0 0
0 0
0 0
0 0
0 0
0 0
0 0
0 0
0 0
0 0
0 0
0 0
0 0
0 0
0 0
0 0
0 0
0 0
0 0
0 0
0 0
0 0
0 0
0 0
0 0
0 0
0 0
0 0
0 0
0 0
0 0
0 0
0 0
0 0
0 0
0 0
0 0
0 0
0 0
0 0
0 0
0 0
0 0
0 0
0 0
0 0
0 0
0 0
0 0
0 0
0 0
0 0
0 0
0 0
0 0
0 0
0 0
0 0
0 0
0 0
0 0
0 0
0 0
0 0
0 0
0 0
0 0
0 0
0 0
0 0
0 0
0 0
0 0
0 0
0 0
0 0
0 0
0 0
0 0
0 0
0 0
0 0
0 0
0 0
0 0
0 0
0 0
0 0
0 0
0 0
0 0
0 0
0 0
0 0
0 0
0 0
0 0
0 0
0 0
0 0
0 0
0 0
0 0
0 0
0 0
0 0
0 0
0 0
0 0
0 0
0 0
0 0
0 0
0 0
0 0
0 0
0 0
0 0
0 0
0 0
0 0
0 0
0 0
0 0
0 0
0 0
0 0
0 0
0 0
0 0
0 0
0 0
0 0
0 0
0 0
0 0
0 0
0 0
0 0
0 0
0 0
0 0
0 0
0 0
0 0
0 0
0 0
0 0
0 0
0 0
0 0
0 0
0 0
0 0
0 0
0 0
0 0
0 0
0 0
0 0
0 0
0 0
0 0
0 0
0 0
0 0
0 0
0 0
0 0
0 0
0 0
0 0
0 0
0 0
0 0
0 0
0 0
0 0
0 0
0 0
0 0
0 0
0 0
0 0
0 0
0 0
0 0
0 0
0 0
0 0
0 0
0 0
0 0
0 0
0 0
0 0
0 0
0 0
0 0
0 0
0 0
0 0
0 0
0 0
0 0
0 0
0 0
0 0
0 0
0 0
0 0
0 0
0 0
0 0
0 0
0 0
0 0
0 0
0 0
0 0
0 0
0 0
0 0
0 0
0 0
0 0
0 0
0 0
0 0
0 0
0 0
0 0
0 0
0 0
0 0
0 0
0 0
0 0
0 0
0 0
0 0
0 0
0 0
0 0
0 0
0 0
0 0
0 0
0 0
0 0
0 0
0 0
0 0
0 0
0 0
0 0
0 0
0 0
0 0
0 0
0 0
0 0
0 0
0 0
0 0
0 0
0 0
0 0
0 0
0 0
0 0
0 0
0 0
0 0
0 0
0 0
0 0
0 0
0 0
0 0
0 0
0 0
0 0
0 0
0 0
0 0
0 0
0 0
0 0
0 0
0 0
0 0
0 0
0 0
0 0
0 0
0 0
0 0
0 0
0 0
0 0
0 0
0 0
0 0
0 0
0 0
0 0
0 0
0 0
0 0
0 0
0 0
0 0
0 0
0 0
0 0
0 0
0 0
0 0
0 0
0 0
0 0
0 0
0 0
0 0
0 0
0 0
0 0
0 0
0 0
0 0
0 0
0 0
0 0
0 0
0 0
0 0
0 0
0 0
0 0
0 0
0 0
0 0
0 0
0 0
0 0
0 0
0 0
0 0
0 0
0 0
0 0
0 0
0 0
0 0
0 0
0 0
0 0
0 0
0 0
0 0
0 0
0 0
0 0
0 0
0 0
0 0
0 0
0 0
0 0
0 0
0 0
0 0
0 0
0 0
0 0
0 0
0 0
0 0
0 0
0 0
0 0
0 0
0 0
0 0
0 0
0 0
0 0
0 0
0 0
0 0
0 0
0 0
0 0
0 0
0 0
0 0
0 0
0 0
0 0
0 0
0 0
0 0
0 0
0 0
0 0
0 0
0 0
0 0
0 0
0 0
0 0
0 0
0 0
0 0
0 0
0 0
0 0
0 0
0 0
0 0
0 0
0 0
0 0
0 0
0 0
0 0
0 0
0 0
0 0
0 0
0 0
0 0
0 0
0 0
0 0
0 0
0 0
0 0
0 0
0 0
0 0
0 0
0 0
0 0
0 0
0 0
0 0
0 0
0 0
0 0
0 0
0 0
0 0
0 0
0 0
0 0
0 0
0 0
0 0
0 0
0 0
0 0
0 0
0 0
0 0
0 0
0 0
0 0
0 0
0 0
0 0
0 0
0 0
0 0
0 0
0 0
0 0
0 0
0 0
0 0
0 0
0 0
0 0
0 0
0 0
0 0
0 0
0 0
0 0
0 0
0 0
0 0
0 0
0 0
0 0
0 0
0 0
0 0
0 0
0 0
0 0
0 0
0 0
0 0
0 0
0 0
0 0
0 0
0 0
0 0
0 0
0 0
0 0
0 0
0 0
0 0
0 0
0 0
0 0
0 0
0 0
0 0
0 0
0 0
0 0
0 0
0 0
0 0
0 0
0 0
0 0
0 0
0 0
0 0
0 0
0 0
0 0
0 0
0 0
0 0
0 0
0 0
0 0
0 0
0 0
0 0
0 0
0 0
0 0
0 0
0 0
0 0
0 0
0 0
0 0
0 0
0 0
0 0
0 0
0 0
0 0
0 0
0 0
0 0
0 0
0 0
0 0
0 0
0 0
0 0
0 0
0 0
0 0
0 0
0 0
0 0
0 0
0 0
0 0
0 0
0 0
0 0
0 0
0 0
0 0
0 0
0 0
0 0
0 0
0 0
0 0
0 0
0 0
0 0
0 0
0 0
0 0
0 0
0 0
0 0
0 0
0 0
0 0
0 0
0 0
0 0
0 0
0 0
0 0
0 0
0 0
0 0
0 0
0 0
0 0
0 0
0 0
0 0
0 0
0 0
0 0
0 0
0 0
0 0
0 0
0 0
0 0
0 0
0 0
0 0
0 0
0 0
0 0
0 0
0 0
0 0
0 0
0 0
0 0
0 0
0 0
0 0
0 0
0 0
0 0
0 0
0 0
0 0
0 0
0 0
0 0
0 0
0 0
0 0
0 0
0 0
0 0
0 0
0 0
0 0
0 0
0 0
0 0
0 0
0 0
0 0
0 0
0 0
0 0
0 0
0 0
0 0
0 0
0 0
0 0
0 0
0 0
0 0
0 0
0 0
0 0
0 0
0 0
0 0
0 0
0 0
0 0
0 0
0 0
0 0
0 0
0 0
0 0
0 0
0 0
0 0
0 0
0 0
0 0
0 0
0 0
0 0
0 0
0 0
0 0
0 0
0 0
0 0
0 0
0 0
0 0
0 0
0 0
0 0
0 0
0 0
0 0
0 0
0 0
0 0
0 0
0 0
0 0
0 0
0 0
0 0
0 0
0 0
0 0
0 0
0 0
0 0
0 0
0 0
0 0
0 0
0 0
0 0
0 0
0 0
0 0
0 0
0 0
0 0
0 0
0 0
0 0
0 0
0 0
0 0
0 0
0 0
0 0
0 0
0 0
0 0
0 0
0 0
0 0
0 0
0 0
0 0
0 0
0 0
0 0
0 0
0 0
0 0
0 0
0 0
0 0
0 0
0 0
0 0
0 0
0 0
0 0
0 0
0 0
0 0
0 0
0 0
0 0
0 0
0 0
0 0
0 0
0 0
0 0
0 0
0 0
0 0
0 0
0 0
0 0
0 0
0 0
0 0
0 0
0 0
0 0
0 0
0 0
0 0
0 0
0 0
0 0
0 0
0 0
0 0
0 0
0 0
0 0
0 0
0 0
0 0
0 0
0 0
0 0
0 0
0 0
0 0
0 0
0 0
0 0
0 0
0 0
0 0
0 0
0 0
0 0
0 0
0 0
0 0
0 0
0 0
0 0
0 0
0 0
0 0
0 0
0 0
0 0
0 0
0 0
0 0
0 0
0 0
0 0
0 0
0 0
0 0
0 0
0 0
0 0
0 0
0 0
0 0
0 0
0 0
0 0
0 0
0 0
0 0
0 0
0 0
0 0
0 0
0 0
0 0
0 0
0 0
0 0
0 0
0 0
0 0
0 0
0 0
0 0
0 0
0 0
0 0
0 0
0 0
0 0
0 0
0 0
0 0
0 0
0 0
0 0
0 0
0 0
0 0
0 0
0 0
0 0
0 0
0 0
0 0
0 0
0 0
0 0
0 0
0 0
0 0
0 0
0 0
0 0
0 0
0 0
0 0
0 0
0 0
0 0
0 0
0 0
0 0
0 0
0 0
0 0
0 0
0 0
0 0
0 0
0 0
0 0
0 0
0 0
0 0
0 0
0 0
0 0
0 0
0 0
0 0
0 0
0 0
0 0
0 0
0 0
0 0
0 0
0 0
0 0
0 0
0 0
0 0
0 0
0 0
0 0
0 0
0 0
0 0
0 0
0 0
0 0
0 0
0 0
0 0
0 0
0 0
0 0
0 0
0 0
0 0
0 0
0 0
0 0
0 0
0 0
0 0
0 0
0 0
0 0
0 0
0 0
0 0
0 0
0 0
0 0
0 0
0 0
0 0
0 0
0 0
0 0
0 0
0 0
0 0
0 0
0 0
0 0
0 0
0 0
0 0
0 0
0 0
0 0
0 0
0 0
0 0
0 0
0 0
0 0
0 0
0 0
0 0
0 0
0 0
0 0
0 0
0 0
0 0
0 0
0 0
0 0
0 0
0 0
0 0
0 0
0 0
0 0
0 0
0 0
0 0
0 0
0 0
0 0
0 0
0 0
0 0
0 0
0 0
0 0
0 0
0 0
0 0
0 0
0 0
0 0
0 0
0 0
0 0
0 0
0 0
0 0
0 0
0 0
0 0
0 0
0 0
0 0
0 0
0 0
0 0
0 0
0 0
0 0
0 0
0 0
0 0
0 0
0 0
0 0
0 0
0 0
0 0
0 0
0 0
0 0
0 0
0 0
0 0
0 0
0 0
0 0
0 0
0 0
0 0
0 0
0 0
0 0
0 0
0 0
0 0
0 0
0 0
0 0
0 0
0 0
0 0
0 0
0 0
0 0
0 0
0 0
0 0
0 0
0 0
0 0
0 0
0 0
0 0
0 0
0 0
0 0
0 0
0 0
0 0
0 0
0 0
0 0
0 0
0 0
0 0
0 0
0 0
0 0
0 0
0 0
0 0
0 0
0 0
0 0
0 0
0 0
0 0
0 0
0 0
0 0
0 0
0 0
0 0
0 0
0 0
0 0
0 0
0 0
0 0
0 0
0 0
0 0
0 0
0 0
0 0
0 0
0 0
0 0
0 0
0 0
0 0
0 0
0 0
0 0
0 0
0 0
0 0
0 0
0 0
0 0
0 0
0 0
0 0
0 0
0 0
0 0
0 0
0 0
0 0
0 0
0 0
0 0
0 0
0 0
0 0
0 0
0 0
0 0
0 0
0 0
0 0
0 0
0 0
0 0
0 0
0 0
0 0
0 0
0 0
0 0
0 0
0 0
0 0
0 0
0 0
0 0
0 0
0 0
0 0
0 0
0 0
0 0
0 0
0 0
0 0
0 0
0 0
0 0
0 0
0 0
0 0
0 0
0 0
0 0
0 0
0 0
0 0
0 0
0 0
0 0
0 0
0 0
0 0
0 0
0 0
0 0
0 0
0 0
0 0
0 0
0 0
0 0
0 0
0 0
0 0
0 0
0 0
0 0
0 0
0 0
0 0
0 0
0 0
0 0
0 0
0 0
0 0
0 0
0 0
0 0
0 0
0 0
0 0
0 0
0 0
0 0
0 0
0 0
0 0
0 0
0 0
0 0
0 0
0 0
0 0
0 0
0 0
0 0
0 0
0 0
0 0
0 0
0 0
0 0
0 0
0 0
0 0
0 0
0 0
0 0
0 0
0 0
0 0
0 0
0 0
0 0
0 0
0 0
0 0
0 0
0 0
0 0
0 0
0 0
0 0
0 0
0 0
0 0
0 0
0 0
0 0
0 0
0 0
0 0
0 0
0 0
0 0
0 0
0 0
0 0
0 0
0 0
0 0
0 0
0 0
0 0
0 0
0 0
0 0
0 0
0 0
0 0
0 0
0 0
0 0
0 0
0 0
0 0
0 0
0 0
0 0
0 0
0 0
0 0
0 0
0 0
0 0
0 0
0 0
0 0
0 0
0 0
0 0
0 0
0 0
0 0
0 0
0 0
0 0
0 0
0 0
0 0
0 0
0 0
0 0
0 0
0 0
0 0
0 0
0 0
0 0
0 0
0 0
0 0
0 0
0 0
0 0
0 0
0 0
0 0
0 0
0 0
0 0
0 0
0 0
0 0
0 0
0 0
0 0
0 0
0 0
0 0
0 0
0 0
0 0
0 0
0 0
0 0
0 0
0 0
0 0
0 0
0 0
0 0
0 0
0 0
0 0
0 0
0 0
0 0
0 0
0 0
0 0
0 0
0 0
0 0
0 0
0 0
0 0
0 0
0 0
0 0
0 0
0 0
0 0
0 0
0 0
0 0
0 0
0 0
0 0
0 0
0 0
0 0
0 0
0 0
0 0
0 0
0 0
0 0
0 0
0 0
0 0
0 0
0 0
0 0
0 0
0 0
0 0
0 0
0 0
0 0
0 0
0 0
0 0
0 0
0 0
0 0
0 0
0 0
0 0
0 0
0 0
0 0
0 0
0 0
0 0
0 0
0 0
0 0
0 0
0 0
0 0
0 0
0 0
0 0
0 0
0 0
0 0
0 0
0 0
0 0
0 0
0 0
0 0
0 0
0 0
0 0
0 0
0 0
0 0
0 0
0 0
0 0
0 0
0 0
0 0
0 0
0 0
0 0
0 0
0 0
0 0
0 0
0 0
0 0
0 0
0 0
0 0
0 0
0 0
0 0
0 0
0 0
0 0
0 0
0 0
0 0
0 0
0 0
0 0
0 0
0 0
0 0
0 0
0 0
0 0
0 0
0 0
0 0
0 0
0 0
0 0
0 0
0 0
0 0
0 0
0 0
0 0
0 0
0 0
0 0
0 0
0 0
0 0
0 0
0 0
0 0
0 0
0 0
0 0
0 0
0 0
0 0
0 0
0 0
0 0
0 0
0 0
0 0
0 0
0 0
0 0
0 0
0 0
0 0
0 0
0 0
0 0
0 0
0 0
0 0
0 0
0 0
0 0
0 0
0 0
0 0
0 0
0 0
0 0
0 0
0 0
0 0
0 0
0 0
0 0
0 0
0 0
0 0
0 0
0 0
0 0
0 0
0 0
0 0
0 0
0 0
0 0
0 0
0 0
0 0
0 0
0 0
0 0
0 0
0 0
0 0
0 0
0 0
0 0
0 0
0 0
0 0
0 0
0 0
0 0
0 0
0 0
0 0
0 0
0 0
0 0
0 0
0 0
0 0
0 0
0 0
0 0
0 0
0 0
0 0
0 0
0 0
0 0
0 0
0 0
0 0
0 0
0 0
0 0
0 0
0 0
0 0
0 0
0 0
0 0
0 0
0 0
0 0
0 0
0 0
0 0
0 0
0 0
0 0
0 0
0 0
0 0
0 0
0 0
0 0
0 0
0 0
0 0
0 0
0 0
0 0
0 0
0 0
0 0
0 0
0 0
0 0
0 0
0 0
0 0
0 0
0 0
0 0
0 0
0 0
0 0
0 0
0 0
0 0
0 0
0 0
0 0
0 0
0 0
0 0
0 0
0 0
0 0
0 0
0 0
0 0
0 0
0 0
0 0
0 0
0 0
0 0
0 0
0 0
0 0
0 0
0 0
0 0
0 0
0 0
0 0
0 0
0 0
0 0
0 0
0 0
0 0
0 0
0 0
0 0
0 0
0 0
0 0
0 0
0 0
0 0
0 0
0 0
0 0
0 0
0 0
0 0
0 0
0 0
0 0
0 0
0 0
0 0
0 0
0 0
0 0
0 0
0 0
0 0
0 0
0 0
0 0
0 0
0 0
0 0
0 0
0 0
0 0
0 0
0 0
0 0
0 0
0 0
0 0
0 0
0 0
0 0
0 0
0 0
0 0
0 0
0 0
0 0
0 0
0 0
0 0
0 0
0 0
0 0
0 0
0 0
0 0
0 0
0 0
0 0
0 0
0 0
0 0
0 0
0 0
0 0
0 0
0 0
0 0
0 0
0 0
0 0
0 0
0 0
0 0
0 0
0 0
0 0
0 0
0 0
0 0
0 0
0 0
0 0
0 0
0 0
0 0
0 0
0 0
0 0
0 0
0 0
0 0
0 0
0 0
0 0
0 0
0 0
0 0
0 0
0 0
0 0
0 0
0 0
0 0
0 0
0 0
0 0
0 0
0 0
0 0
0 0
0 0
0 0
0 0
0 0
0 0
0 0
0 0
0 0
0 0
0 0
0 0
0 0
0 0
0 0
0 0
0 0
0 0
0 0
0 0
0 0
0 0
0 0
0 0
0 0
0 0
0 0
0 0
0 0
0 0
0 0
0 0
0 0
0 0
0 0
0 0
0 0
0 0
0 0
0 0
0 0
0 0
0 0
0 0
0 0
0 0
0 0
0 0
0 0
0 0
0 0
0 0
0 0
0 0
0 0
0 0
0 0
0 0
0 0
0 0
0 0
0 0
0 0
0 0
0 0
0 0
0 0
0 0
0 0
0 0
0 0
0 0
0 0
0 0
0 0
0 0
0 0
0 0
0 0
0 0
0 0
0 0
0 0
0 0
0 0
0 0
0 0
0 0
0 0
0 0
0 0
0 0
0 0
0 0
0 0
0 0
0 0
0 0
0 0
0 0
0 0
0 0
0 0
0 0
0 0
0 0
0 0
0 0
0 0
0 0
0 0
0 0
0 0
0 0
0 0
0 0
0 0
0 0
0 0
0 0
0 0
0 0
0 0
0 0
0 0
0 0
0 0
0 0
0 0
0 0
0 0
0 0
0 0
0 0
0 0
0 0
0 0
0 0
0 0
0 0
0 0
0 0
0 0
0 0
0 0
0 0
0 0
0 0
0 0
0 0
0 0
0 0
0 0
0 0
0 0
0 0
0 0
0 0
0 0
0 0
0 0
0 0
0 0
0 0
0 0
0 0
0 0
0 0
0 0
0 0
0 0
0 0
0 0
0 0
0 0
0 0
0 0
0 0
0 0
0 0
0 0
0 0
0 0
0 0
0 0
0 0
0 0
0 0
0 0
0 0
0 0
0 0
0 0
0 0
0 0
0 0
0 0
0 0
0 0
0 0
0 0
0 0
0 0
0 0
0 0
0 0
0 0
0 0
0 0
0 0
0 0
0 0
0 0
0 0
0 0
0 0
0 0
0 0
0 0
0 0
0 0
0 0
0 0
0 0
0 0
0 0
0 0
0 0
0 0
0 0
0 0
0 0
0 0
0 0
0 0
0 0
0 0
0 0
0 0
0 0
0 0
0 0
0 0
0 0
0 0
0 0
0 0
0 0
0 0
0 0
0 0
0 0
0 0
0 0
0 0
0 0
0 0
0 0
0 0
0 0
0 0
0 0
0 0
0 0
0 0
0 0
0 0
0 0
0 0
0 0
0 0
0 0
0 0
0 0
0 0
0 0
0 0
0 0
0 0
0 0
0 0
0 0
0 0
0 0
0 0
0 0
0 0
0 0
0 0
0 0
0 0
0 0
0 0
0 0
0 0
0 0
0 0
0 0
0 0
0 0
0 0
0 0
0 0
0 0
0 0
0 0
0 0
0 0
0 0
0 0
0 0
0 0
0 0
0 0
0 0
0 0
0 0
0 0
0 0
0 0
0 0
0 0
0 0
0 0
0 0
0 0
0 0
0 0
0 0
0 0
0 0
0 0
0 0
0 0
0 0
0 0
0 0
0 0
0 0
0 0
0 0
0 0
0 0
0 0
0 0
0 0
0 0
0 0
0 0
0 0
0 0
0 0
0 0
0 0
0 0
0 0
0 0
0 0
0 0
0 0
0 0
0 0
0 0
0 0
0 0
0 0
0 0
0 0
0 0
0 0
0 0
0 0
0 0
0 0
0 0
0 0
0 0
0 0
0 0
0 0
0 0
0 0
0 0
0 0
0 0
0 0
0 0
0 0
0 0
0 0
0 0
0 0
0 0
0 0
0 0
0 0
0 0
0 0
0 0
0 0
0 0
0 0
0 0
0 0
0 0
0 0
0 0
0 0
0 0
0 0
0 0
0 0
0 0
0 0
0 0
0 0
0 0
0 0
0 0
      </DataArray> 
      <DataArray type="Float64" NumberOfComponents="2" Name="Acceleration" format="ascii">
0 0
0 0
0 0
0 0
0 0
0 0
0 0
0 0
0 0
0 0
0 0
0 0
0 0
0 0
0 0
0 0
0 0
0 0
0 0
0 0
0 0
0 0
0 0
0 0
0 0
0 0
0 0
0 0
0 0
0 0
0 0
0 0
0 0
0 0
0 0
0 0
0 0
0 0
0 0
0 0
0 0
0 0
0 0
0 0
0 0
0 0
0 0
0 0
0 0
0 0
0 0
0 0
0 0
0 0
0 0
0 0
0 0
0 0
0 0
0 0
0 0
0 0
0 0
0 0
0 0
0 0
0 0
0 0
0 0
0 0
0 0
0 0
0 0
0 0
0 0
0 0
0 0
0 0
0 0
0 0
0 0
0 0
0 0
0 0
0 0
0 0
0 0
0 0
0 0
0 0
0 0
0 0
0 0
0 0
0 0
0 0
0 0
0 0
0 0
0 0
0 0
0 0
0 0
0 0
0 0
0 0
0 0
0 0
0 0
0 0
0 0
0 0
0 0
0 0
0 0
0 0
0 0
0 0
0 0
0 0
0 0
0 0
0 0
0 0
0 0
0 0
0 0
0 0
0 0
0 0
0 0
0 0
0 0
0 0
0 0
0 0
0 0
0 0
0 0
0 0
0 0
0 0
0 0
0 0
0 0
0 0
0 0
0 0
0 0
0 0
0 0
0 0
0 0
0 0
0 0
0 0
0 0
0 0
0 0
0 0
0 0
0 0
0 0
0 0
0 0
0 0
0 0
0 0
0 0
0 0
0 0
0 0
0 0
0 0
0 0
0 0
0 0
0 0
0 0
0 0
0 0
0 0
0 0
0 0
0 0
0 0
0 0
0 0
0 0
0 0
0 0
0 0
0 0
0 0
0 0
0 0
0 0
0 0
0 0
0 0
0 0
0 0
0 0
0 0
0 0
0 0
0 0
0 0
0 0
0 0
0 0
0 0
0 0
0 0
0 0
0 0
0 0
0 0
0 0
0 0
0 0
0 0
0 0
0 0
0 0
0 0
0 0
0 0
0 0
0 0
0 0
0 0
0 0
0 0
0 0
0 0
0 0
0 0
0 0
0 0
0 0
0 0
0 0
0 0
0 0
0 0
0 0
0 0
0 0
0 0
0 0
0 0
0 0
0 0
0 0
0 0
0 0
0 0
0 0
0 0
0 0
0 0
0 0
0 0
0 0
0 0
0 0
0 0
0 0
0 0
0 0
0 0
0 0
0 0
0 0
0 0
0 0
0 0
0 0
0 0
0 0
0 0
0 0
0 0
0 0
0 0
0 0
0 0
0 0
0 0
0 0
0 0
0 0
0 0
0 0
0 0
0 0
0 0
0 0
0 0
0 0
0 0
0 0
0 0
0 0
0 0
0 0
0 0
0 0
0 0
0 0
0 0
0 0
0 0
0 0
0 0
0 0
0 0
0 0
0 0
0 0
0 0
0 0
0 0
0 0
0 0
0 0
0 0
0 0
0 0
0 0
0 0
0 0
0 0
0 0
0 0
0 0
0 0
0 0
0 0
0 0
0 0
0 0
0 0
0 0
0 0
0 0
0 0
0 0
0 0
0 0
0 0
0 0
0 0
0 0
0 0
0 0
0 0
0 0
0 0
0 0
0 0
0 0
0 0
0 0
0 0
0 0
0 0
0 0
0 0
0 0
0 0
0 0
0 0
0 0
0 0
0 0
0 0
0 0
0 0
0 0
0 0
0 0
0 0
0 0
0 0
0 0
0 0
0 0
0 0
0 0
0 0
0 0
0 0
0 0
0 0
0 0
0 0
0 0
0 0
0 0
0 0
0 0
0 0
0 0
0 0
0 0
0 0
0 0
0 0
0 0
0 0
0 0
0 0
0 0
0 0
0 0
0 0
0 0
0 0
0 0
0 0
0 0
0 0
0 0
0 0
0 0
0 0
0 0
0 0
0 0
0 0
0 0
0 0
0 0
0 0
0 0
0 0
0 0
0 0
0 0
0 0
0 0
0 0
0 0
0 0
0 0
0 0
0 0
0 0
0 0
0 0
0 0
0 0
0 0
0 0
0 0
0 0
0 0
0 0
0 0
0 0
0 0
0 0
0 0
0 0
0 0
0 0
0 0
0 0
0 0
0 0
0 0
0 0
0 0
0 0
0 0
0 0
0 0
0 0
0 0
0 0
0 0
0 0
0 0
0 0
0 0
0 0
0 0
0 0
0 0
0 0
0 0
0 0
0 0
0 0
0 0
0 0
0 0
0 0
0 0
0 0
0 0
0 0
0 0
0 0
0 0
0 0
0 0
0 0
0 0
0 0
0 0
0 0
0 0
0 0
0 0
0 0
0 0
0 0
0 0
0 0
0 0
0 0
0 0
0 0
0 0
0 0
0 0
0 0
0 0
0 0
0 0
0 0
0 0
0 0
0 0
0 0
0 0
0 0
0 0
0 0
0 0
0 0
0 0
0 0
0 0
0 0
0 0
0 0
0 0
0 0
0 0
0 0
0 0
0 0
0 0
0 0
0 0
0 0
0 0
0 0
0 0
0 0
0 0
0 0
0 0
0 0
0 0
0 0
0 0
0 0
0 0
0 0
0 0
0 0
0 0
0 0
0 0
0 0
0 0
0 0
0 0
0 0
0 0
0 0
0 0
0 0
0 0
0 0
0 0
0 0
0 0
0 0
0 0
0 0
0 0
0 0
0 0
0 0
0 0
0 0
0 0
0 0
0 0
0 0
0 0
0 0
0 0
0 0
0 0
0 0
0 0
0 0
0 0
0 0
0 0
0 0
0 0
0 0
0 0
0 0
0 0
0 0
0 0
0 0
0 0
0 0
0 0
0 0
0 0
0 0
0 0
0 0
0 0
0 0
0 0
0 0
0 0
0 0
0 0
0 0
0 0
0 0
0 0
0 0
0 0
0 0
0 0
0 0
0 0
0 0
0 0
0 0
0 0
0 0
0 0
0 0
0 0
0 0
0 0
0 0
0 0
0 0
0 0
0 0
0 0
0 0
0 0
0 0
0 0
0 0
0 0
0 0
0 0
0 0
0 0
0 0
0 0
0 0
0 0
0 0
0 0
0 0
0 0
0 0
0 0
0 0
0 0
0 0
0 0
0 0
0 0
0 0
0 0
0 0
0 0
0 0
0 0
0 0
0 0
0 0
0 0
0 0
0 0
0 0
0 0
0 0
0 0
0 0
0 0
0 0
0 0
0 0
0 0
0 0
0 0
0 0
0 0
0 0
0 0
0 0
0 0
0 0
0 0
0 0
0 0
0 0
0 0
0 0
0 0
0 0
0 0
0 0
0 0
0 0
0 0
0 0
0 0
0 0
0 0
0 0
0 0
0 0
0 0
0 0
0 0
0 0
0 0
0 0
0 0
0 0
0 0
0 0
0 0
0 0
0 0
0 0
0 0
0 0
0 0
0 0
0 0
0 0
0 0
0 0
0 0
0 0
0 0
0 0
0 0
0 0
0 0
0 0
0 0
0 0
0 0
0 0
0 0
0 0
0 0
0 0
0 0
0 0
0 0
0 0
0 0
0 0
0 0
0 0
0 0
0 0
0 0
0 0
0 0
0 0
0 0
0 0
0 0
0 0
0 0
0 0
0 0
0 0
0 0
0 0
0 0
0 0
0 0
0 0
0 0
0 0
0 0
0 0
0 0
0 0
0 0
0 0
0 0
0 0
0 0
0 0
0 0
0 0
0 0
0 0
0 0
0 0
0 0
0 0
0 0
0 0
0 0
0 0
0 0
0 0
0 0
0 0
0 0
0 0
0 0
0 0
0 0
0 0
0 0
0 0
0 0
0 0
0 0
0 0
0 0
0 0
0 0
0 0
0 0
0 0
0 0
0 0
0 0
0 0
0 0
0 0
0 0
0 0
0 0
0 0
0 0
0 0
0 0
0 0
0 0
0 0
0 0
0 0
0 0
0 0
0 0
0 0
0 0
0 0
0 0
0 0
0 0
0 0
0 0
0 0
0 0
0 0
0 0
0 0
0 0
0 0
0 0
0 0
0 0
0 0
0 0
0 0
0 0
0 0
0 0
0 0
0 0
0 0
0 0
0 0
0 0
0 0
0 0
0 0
0 0
0 0
0 0
0 0
0 0
0 0
0 0
0 0
0 0
0 0
0 0
0 0
0 0
0 0
0 0
0 0
0 0
0 0
0 0
0 0
0 0
0 0
0 0
0 0
0 0
0 0
0 0
0 0
0 0
0 0
0 0
0 0
0 0
0 0
0 0
0 0
0 0
0 0
0 0
0 0
0 0
0 0
0 0
0 0
0 0
0 0
0 0
0 0
0 0
0 0
0 0
0 0
0 0
0 0
0 0
0 0
0 0
0 0
0 0
0 0
0 0
0 0
0 0
0 0
0 0
0 0
0 0
0 0
0 0
0 0
0 0
0 0
0 0
0 0
0 0
0 0
0 0
0 0
0 0
0 0
0 0
0 0
0 0
0 0
0 0
0 0
0 0
0 0
0 0
0 0
0 0
0 0
0 0
0 0
0 0
0 0
0 0
0 0
0 0
0 0
0 0
0 0
0 0
0 0
0 0
0 0
0 0
0 0
0 0
0 0
0 0
0 0
0 0
0 0
0 0
0 0
0 0
0 0
0 0
0 0
0 0
0 0
0 0
0 0
0 0
0 0
0 0
0 0
0 0
0 0
0 0
0 0
0 0
0 0
0 0
0 0
0 0
0 0
0 0
0 0
0 0
0 0
0 0
0 0
0 0
0 0
0 0
0 0
0 0
0 0
0 0
0 0
0 0
0 0
0 0
0 0
0 0
0 0
0 0
0 0
0 0
0 0
0 0
0 0
0 0
0 0
0 0
0 0
0 0
0 0
0 0
0 0
0 0
0 0
0 0
0 0
0 0
0 0
0 0
0 0
0 0
0 0
0 0
0 0
0 0
0 0
0 0
0 0
0 0
0 0
0 0
0 0
0 0
0 0
0 0
0 0
0 0
0 0
0 0
0 0
0 0
0 0
0 0
0 0
0 0
0 0
0 0
0 0
0 0
0 0
0 0
0 0
0 0
0 0
0 0
0 0
0 0
0 0
0 0
0 0
0 0
0 0
0 0
0 0
0 0
0 0
0 0
0 0
0 0
0 0
0 0
0 0
0 0
0 0
0 0
0 0
0 0
0 0
0 0
0 0
0 0
0 0
0 0
0 0
0 0
0 0
0 0
0 0
0 0
0 0
0 0
0 0
0 0
0 0
0 0
0 0
0 0
0 0
0 0
0 0
0 0
0 0
0 0
0 0
0 0
0 0
0 0
0 0
0 0
0 0
0 0
0 0
0 0
0 0
0 0
0 0
0 0
0 0
0 0
0 0
0 0
0 0
0 0
0 0
0 0
0 0
0 0
0 0
0 0
0 0
0 0
0 0
0 0
0 0
0 0
0 0
0 0
0 0
0 0
0 0
0 0
0 0
0 0
0 0
0 0
0 0
0 0
0 0
0 0
0 0
0 0
0 0
0 0
0 0
0 0
0 0
0 0
0 0
0 0
0 0
0 0
0 0
0 0
0 0
0 0
0 0
0 0
0 0
0 0
0 0
0 0
0 0
0 0
0 0
0 0
0 0
0 0
0 0
0 0
0 0
0 0
0 0
0 0
0 0
0 0
0 0
0 0
0 0
0 0
0 0
0 0
0 0
0 0
0 0
0 0
0 0
0 0
0 0
0 0
0 0
0 0
0 0
0 0
0 0
0 0
0 0
0 0
0 0
0 0
0 0
0 0
0 0
0 0
0 0
0 0
0 0
0 0
0 0
0 0
0 0
0 0
0 0
0 0
0 0
0 0
0 0
0 0
0 0
0 0
0 0
0 0
0 0
0 0
0 0
0 0
0 0
0 0
0 0
0 0
0 0
0 0
0 0
0 0
0 0
0 0
0 0
0 0
0 0
0 0
0 0
0 0
0 0
0 0
0 0
0 0
0 0
0 0
0 0
0 0
0 0
0 0
0 0
0 0
0 0
0 0
0 0
0 0
0 0
0 0
0 0
0 0
0 0
0 0
0 0
0 0
0 0
0 0
0 0
0 0
0 0
0 0
0 0
0 0
0 0
0 0
0 0
0 0
0 0
0 0
0 0
0 0
0 0
0 0
0 0
0 0
0 0
0 0
0 0
0 0
0 0
0 0
0 0
0 0
0 0
0 0
0 0
0 0
0 0
0 0
0 0
0 0
0 0
0 0
0 0
0 0
0 0
0 0
0 0
0 0
0 0
0 0
0 0
0 0
0 0
0 0
0 0
0 0
0 0
0 0
0 0
0 0
0 0
0 0
0 0
0 0
0 0
0 0
0 0
0 0
0 0
0 0
0 0
0 0
0 0
0 0
0 0
0 0
0 0
0 0
0 0
0 0
0 0
0 0
0 0
0 0
0 0
0 0
0 0
0 0
0 0
0 0
0 0
0 0
0 0
0 0
0 0
0 0
0 0
0 0
0 0
0 0
0 0
0 0
0 0
0 0
0 0
0 0
0 0
0 0
0 0
0 0
0 0
0 0
0 0
0 0
0 0
0 0
0 0
0 0
0 0
0 0
0 0
0 0
0 0
0 0
0 0
0 0
0 0
0 0
0 0
0 0
0 0
0 0
0 0
0 0
0 0
0 0
0 0
0 0
0 0
0 0
0 0
0 0
0 0
0 0
0 0
0 0
0 0
0 0
0 0
0 0
0 0
0 0
0 0
0 0
0 0
0 0
0 0
0 0
0 0
0 0
0 0
0 0
0 0
0 0
0 0
0 0
0 0
0 0
0 0
0 0
0 0
0 0
0 0
0 0
0 0
0 0
0 0
0 0
0 0
0 0
0 0
0 0
0 0
0 0
0 0
0 0
0 0
0 0
0 0
0 0
0 0
0 0
0 0
0 0
0 0
0 0
0 0
0 0
0 0
0 0
0 0
0 0
0 0
0 0
0 0
0 0
0 0
0 0
0 0
0 0
0 0
0 0
0 0
0 0
0 0
0 0
0 0
0 0
0 0
0 0
0 0
0 0
0 0
0 0
0 0
0 0
0 0
0 0
0 0
0 0
0 0
0 0
0 0
0 0
0 0
0 0
0 0
0 0
0 0
0 0
0 0
0 0
0 0
0 0
0 0
0 0
0 0
0 0
0 0
0 0
0 0
0 0
0 0
0 0
0 0
0 0
0 0
0 0
0 0
0 0
0 0
0 0
0 0
0 0
0 0
0 0
0 0
0 0
0 0
0 0
0 0
0 0
0 0
0 0
0 0
0 0
0 0
0 0
0 0
0 0
0 0
0 0
0 0
0 0
0 0
0 0
0 0
0 0
0 0
0 0
0 0
0 0
0 0
0 0
0 0
0 0
0 0
0 0
0 0
0 0
0 0
0 0
0 0
0 0
0 0
0 0
0 0
0 0
0 0
0 0
0 0
0 0
0 0
0 0
0 0
0 0
0 0
0 0
0 0
0 0
0 0
0 0
0 0
0 0
0 0
0 0
0 0
0 0
0 0
0 0
0 0
0 0
0 0
0 0
0 0
0 0
0 0
0 0
0 0
0 0
0 0
0 0
0 0
0 0
0 0
0 0
0 0
0 0
0 0
0 0
0 0
0 0
0 0
0 0
0 0
0 0
0 0
0 0
0 0
0 0
0 0
0 0
0 0
0 0
0 0
0 0
0 0
0 0
0 0
0 0
0 0
0 0
0 0
0 0
0 0
0 0
0 0
0 0
0 0
0 0
0 0
0 0
0 0
0 0
0 0
0 0
0 0
0 0
0 0
0 0
0 0
0 0
0 0
0 0
0 0
0 0
0 0
0 0
0 0
0 0
0 0
0 0
0 0
0 0
0 0
0 0
0 0
0 0
0 0
0 0
0 0
0 0
0 0
0 0
0 0
0 0
0 0
0 0
0 0
0 0
0 0
0 0
0 0
0 0
0 0
0 0
0 0
0 0
0 0
0 0
0 0
0 0
0 0
0 0
0 0
0 0
0 0
0 0
0 0
0 0
0 0
0 0
0 0
0 0
0 0
0 0
0 0
0 0
0 0
0 0
0 0
0 0
0 0
0 0
0 0
0 0
0 0
0 0
0 0
0 0
0 0
0 0
0 0
0 0
0 0
0 0
0 0
0 0
0 0
0 0
0 0
0 0
0 0
0 0
0 0
0 0
0 0
0 0
0 0
0 0
0 0
0 0
0 0
0 0
0 0
0 0
0 0
0 0
0 0
0 0
0 0
0 0
0 0
0 0
0 0
0 0
0 0
0 0
0 0
0 0
0 0
0 0
0 0
0 0
0 0
0 0
0 0
0 0
0 0
0 0
0 0
0 0
0 0
0 0
0 0
0 0
0 0
0 0
0 0
0 0
0 0
0 0
0 0
0 0
0 0
0 0
0 0
0 0
0 0
0 0
0 0
0 0
0 0
0 0
0 0
0 0
0 0
0 0
0 0
0 0
0 0
0 0
0 0
0 0
0 0
0 0
0 0
0 0
0 0
0 0
0 0
0 0
0 0
0 0
0 0
0 0
0 0
0 0
0 0
0 0
0 0
0 0
0 0
0 0
0 0
0 0
0 0
0 0
0 0
0 0
0 0
0 0
0 0
0 0
0 0
0 0
0 0
0 0
0 0
0 0
0 0
0 0
0 0
0 0
0 0
0 0
0 0
0 0
0 0
0 0
0 0
0 0
0 0
0 0
0 0
0 0
0 0
0 0
0 0
0 0
0 0
0 0
0 0
0 0
0 0
0 0
0 0
0 0
0 0
0 0
0 0
0 0
0 0
0 0
0 0
0 0
0 0
0 0
0 0
0 0
0 0
0 0
0 0
0 0
0 0
0 0
0 0
0 0
0 0
0 0
0 0
0 0
0 0
0 0
0 0
0 0
0 0
0 0
0 0
0 0
0 0
0 0
0 0
0 0
0 0
0 0
0 0
0 0
0 0
0 0
0 0
0 0
0 0
0 0
0 0
0 0
0 0
0 0
0 0
0 0
0 0
0 0
0 0
0 0
0 0
0 0
0 0
0 0
0 0
0 0
0 0
0 0
0 0
0 0
0 0
0 0
0 0
0 0
0 0
0 0
0 0
0 0
0 0
0 0
0 0
0 0
0 0
0 0
0 0
0 0
0 0
0 0
0 0
0 0
0 0
0 0
0 0
0 0
0 0
0 0
0 0
0 0
0 0
0 0
0 0
0 0
0 0
0 0
0 0
0 0
0 0
0 0
0 0
0 0
0 0
0 0
0 0
0 0
0 0
0 0
0 0
0 0
0 0
0 0
0 0
0 0
0 0
0 0
0 0
0 0
0 0
0 0
0 0
0 0
0 0
0 0
0 0
0 0
0 0
0 0
0 0
0 0
0 0
0 0
0 0
0 0
0 0
0 0
0 0
0 0
0 0
0 0
0 0
0 0
0 0
0 0
0 0
0 0
0 0
0 0
0 0
0 0
0 0
0 0
0 0
0 0
0 0
0 0
0 0
0 0
0 0
0 0
0 0
0 0
0 0
0 0
0 0
0 0
0 0
0 0
0 0
0 0
0 0
0 0
0 0
0 0
0 0
0 0
0 0
0 0
0 0
0 0
0 0
0 0
0 0
0 0
0 0
0 0
0 0
0 0
0 0
0 0
0 0
0 0
0 0
0 0
0 0
0 0
0 0
0 0
0 0
0 0
0 0
0 0
0 0
0 0
0 0
0 0
0 0
0 0
0 0
0 0
0 0
0 0
0 0
0 0
0 0
0 0
0 0
0 0
0 0
0 0
0 0
0 0
0 0
0 0
0 0
0 0
0 0
0 0
0 0
0 0
0 0
0 0
0 0
0 0
0 0
0 0
0 0
0 0
0 0
0 0
0 0
0 0
0 0
0 0
0 0
0 0
0 0
0 0
0 0
0 0
0 0
0 0
0 0
0 0
0 0
0 0
0 0
0 0
0 0
0 0
0 0
0 0
0 0
0 0
0 0
0 0
0 0
0 0
0 0
0 0
0 0
0 0
0 0
0 0
0 0
0 0
0 0
0 0
0 0
0 0
0 0
0 0
0 0
0 0
0 0
0 0
0 0
0 0
0 0
0 0
0 0
0 0
0 0
0 0
0 0
0 0
0 0
0 0
0 0
0 0
0 0
0 0
0 0
0 0
0 0
0 0
0 0
0 0
0 0
0 0
0 0
0 0
0 0
0 0
0 0
0 0
0 0
0 0
0 0
0 0
0 0
0 0
0 0
0 0
0 0
0 0
0 0
0 0
0 0
0 0
0 0
0 0
0 0
0 0
0 0
0 0
0 0
0 0
0 0
0 0
0 0
0 0
0 0
0 0
0 0
0 0
0 0
0 0
0 0
0 0
0 0
0 0
0 0
0 0
0 0
0 0
0 0
0 0
0 0
0 0
0 0
0 0
0 0
0 0
0 0
0 0
0 0
0 0
0 0
0 0
0 0
0 0
0 0
0 0
0 0
0 0
0 0
0 0
0 0
0 0
0 0
0 0
0 0
0 0
0 0
0 0
0 0
0 0
0 0
0 0
0 0
0 0
0 0
0 0
0 0
0 0
0 0
0 0
0 0
0 0
0 0
0 0
0 0
0 0
0 0
0 0
0 0
0 0
0 0
0 0
0 0
0 0
0 0
0 0
0 0
0 0
0 0
0 0
0 0
0 0
0 0
0 0
0 0
0 0
0 0
0 0
0 0
0 0
0 0
0 0
0 0
0 0
0 0
0 0
0 0
0 0
0 0
0 0
0 0
0 0
0 0
0 0
0 0
0 0
0 0
0 0
0 0
0 0
0 0
0 0
0 0
0 0
0 0
0 0
0 0
0 0
0 0
0 0
0 0
0 0
0 0
0 0
0 0
0 0
0 0
0 0
0 0
0 0
0 0
0 0
0 0
0 0
0 0
0 0
0 0
0 0
0 0
0 0
0 0
0 0
0 0
0 0
0 0
0 0
0 0
0 0
0 0
0 0
0 0
0 0
0 0
0 0
0 0
0 0
0 0
0 0
0 0
0 0
0 0
0 0
0 0
0 0
0 0
0 0
0 0
0 0
0 0
0 0
0 0
0 0
0 0
0 0
0 0
0 0
0 0
0 0
0 0
0 0
0 0
0 0
0 0
0 0
0 0
0 0
0 0
0 0
0 0
0 0
0 0
0 0
0 0
0 0
0 0
0 0
0 0
0 0
0 0
0 0
0 0
0 0
0 0
0 0
0 0
0 0
0 0
0 0
0 0
0 0
0 0
0 0
0 0
0 0
0 0
0 0
0 0
0 0
0 0
0 0
0 0
0 0
0 0
0 0
0 0
0 0
0 0
0 0
0 0
0 0
0 0
0 0
0 0
0 0
0 0
0 0
0 0
0 0
0 0
0 0
0 0
0 0
0 0
0 0
0 0
0 0
0 0
0 0
0 0
0 0
0 0
0 0
0 0
0 0
0 0
0 0
0 0
0 0
0 0
0 0
0 0
0 0
0 0
0 0
0 0
0 0
0 0
0 0
0 0
0 0
0 0
0 0
0 0
0 0
0 0
0 0
0 0
0 0
0 0
0 0
0 0
0 0
0 0
0 0
0 0
0 0
0 0
0 0
0 0
0 0
0 0
0 0
0 0
0 0
0 0
0 0
0 0
0 0
0 0
0 0
0 0
0 0
0 0
0 0
0 0
0 0
0 0
0 0
0 0
0 0
0 0
0 0
0 0
0 0
0 0
0 0
0 0
0 0
0 0
0 0
0 0
0 0
0 0
0 0
0 0
0 0
0 0
0 0
0 0
0 0
0 0
0 0
0 0
0 0
0 0
0 0
0 0
0 0
0 0
0 0
0 0
0 0
0 0
0 0
0 0
0 0
0 0
0 0
0 0
0 0
0 0
0 0
0 0
0 0
0 0
0 0
0 0
0 0
0 0
0 0
0 0
0 0
0 0
0 0
0 0
0 0
0 0
0 0
0 0
0 0
0 0
0 0
0 0
0 0
0 0
0 0
0 0
0 0
0 0
0 0
0 0
0 0
0 0
0 0
0 0
0 0
0 0
0 0
0 0
0 0
0 0
0 0
0 0
0 0
0 0
0 0
0 0
0 0
0 0
0 0
0 0
0 0
0 0
0 0
0 0
0 0
0 0
0 0
0 0
0 0
0 0
0 0
0 0
0 0
0 0
0 0
0 0
0 0
0 0
0 0
0 0
0 0
0 0
0 0
0 0
0 0
0 0
0 0
0 0
0 0
0 0
0 0
0 0
0 0
0 0
0 0
0 0
0 0
0 0
0 0
0 0
0 0
0 0
0 0
0 0
0 0
0 0
0 0
0 0
0 0
0 0
0 0
0 0
0 0
0 0
0 0
0 0
0 0
0 0
0 0
0 0
0 0
0 0
0 0
0 0
0 0
0 0
0 0
0 0
0 0
0 0
0 0
0 0
0 0
0 0
0 0
0 0
0 0
0 0
0 0
0 0
0 0
0 0
0 0
0 0
0 0
0 0
0 0
0 0
0 0
0 0
0 0
0 0
0 0
0 0
0 0
0 0
0 0
0 0
0 0
0 0
0 0
0 0
0 0
0 0
0 0
0 0
0 0
0 0
0 0
0 0
0 0
0 0
0 0
0 0
0 0
0 0
0 0
0 0
0 0
0 0
0 0
0 0
0 0
0 0
0 0
0 0
0 0
0 0
0 0
0 0
0 0
0 0
0 0
0 0
0 0
0 0
0 0
0 0
0 0
0 0
0 0
0 0
0 0
0 0
0 0
0 0
0 0
0 0
0 0
0 0
0 0
0 0
0 0
0 0
0 0
0 0
0 0
0 0
0 0
0 0
0 0
0 0
0 0
0 0
0 0
0 0
0 0
0 0
0 0
0 0
0 0
0 0
0 0
0 0
0 0
0 0
0 0
0 0
0 0
0 0
0 0
0 0
0 0
0 0
0 0
0 0
0 0
0 0
0 0
0 0
0 0
0 0
0 0
0 0
0 0
0 0
0 0
0 0
0 0
0 0
0 0
0 0
0 0
0 0
0 0
0 0
0 0
0 0
0 0
0 0
0 0
0 0
0 0
0 0
0 0
0 0
0 0
0 0
0 0
0 0
0 0
0 0
0 0
0 0
0 0
0 0
0 0
0 0
0 0
0 0
0 0
0 0
0 0
0 0
0 0
0 0
0 0
0 0
0 0
0 0
0 0
0 0
0 0
0 0
0 0
0 0
0 0
0 0
0 0
0 0
0 0
0 0
0 0
0 0
0 0
0 0
0 0
0 0
0 0
0 0
0 0
0 0
0 0
0 0
0 0
0 0
0 0
0 0
0 0
0 0
0 0
0 0
0 0
0 0
0 0
0 0
0 0
0 0
0 0
0 0
0 0
0 0
0 0
0 0
0 0
0 0
0 0
0 0
0 0
0 0
0 0
0 0
0 0
0 0
0 0
0 0
0 0
0 0
0 0
0 0
0 0
0 0
0 0
0 0
0 0
0 0
0 0
0 0
0 0
0 0
0 0
0 0
0 0
0 0
0 0
0 0
0 0
0 0
0 0
0 0
0 0
0 0
0 0
0 0
0 0
0 0
0 0
0 0
0 0
0 0
0 0
0 0
0 0
0 0
0 0
0 0
0 0
0 0
0 0
0 0
0 0
0 0
0 0
0 0
0 0
0 0
0 0
0 0
0 0
0 0
0 0
0 0
0 0
0 0
0 0
0 0
0 0
0 0
0 0
0 0
0 0
0 0
0 0
0 0
0 0
0 0
0 0
0 0
0 0
0 0
0 0
0 0
0 0
0 0
0 0
0 0
0 0
0 0
0 0
0 0
0 0
0 0
0 0
0 0
0 0
0 0
0 0
0 0
0 0
0 0
0 0
0 0
0 0
0 0
0 0
0 0
0 0
0 0
0 0
0 0
0 0
0 0
0 0
0 0
0 0
0 0
0 0
0 0
0 0
0 0
0 0
0 0
0 0
0 0
0 0
0 0
0 0
0 0
0 0
0 0
0 0
0 0
0 0
0 0
0 0
0 0
0 0
0 0
0 0
0 0
0 0
0 0
0 0
0 0
0 0
0 0
0 0
0 0
0 0
0 0
0 0
0 0
0 0
0 0
0 0
0 0
0 0
0 0
0 0
0 0
0 0
0 0
0 0
0 0
0 0
0 0
0 0
0 0
0 0
0 0
0 0
0 0
0 0
0 0
0 0
0 0
0 0
0 0
0 0
0 0
0 0
0 0
0 0
0 0
0 0
0 0
0 0
0 0
0 0
0 0
0 0
0 0
0 0
0 0
0 0
0 0
0 0
0 0
0 0
0 0
0 0
0 0
0 0
0 0
0 0
0 0
0 0
0 0
0 0
0 0
0 0
0 0
0 0
0 0
0 0
0 0
0 0
0 0
0 0
0 0
0 0
0 0
0 0
0 0
0 0
0 0
0 0
0 0
0 0
0 0
0 0
0 0
0 0
0 0
0 0
0 0
0 0
0 0
0 0
0 0
0 0
0 0
0 0
0 0
0 0
0 0
0 0
0 0
0 0
0 0
0 0
0 0
0 0
0 0
0 0
0 0
0 0
0 0
0 0
0 0
0 0
0 0
0 0
0 0
0 0
0 0
0 0
0 0
0 0
0 0
0 0
0 0
0 0
0 0
0 0
0 0
0 0
0 0
0 0
0 0
0 0
0 0
0 0
0 0
0 0
0 0
0 0
0 0
0 0
0 0
0 0
0 0
0 0
0 0
0 0
0 0
0 0
0 0
0 0
0 0
0 0
0 0
0 0
0 0
0 0
0 0
0 0
0 0
0 0
0 0
0 0
0 0
0 0
0 0
0 0
0 0
0 0
0 0
0 0
0 0
0 0
0 0
0 0
0 0
0 0
0 0
0 0
0 0
0 0
0 0
0 0
0 0
0 0
0 0
0 0
0 0
0 0
0 0
0 0
0 0
0 0
0 0
0 0
0 0
0 0
0 0
0 0
0 0
0 0
0 0
0 0
0 0
0 0
0 0
0 0
0 0
0 0
0 0
0 0
0 0
0 0
0 0
0 0
0 0
0 0
0 0
0 0
0 0
0 0
0 0
0 0
0 0
0 0
0 0
0 0
0 0
0 0
0 0
0 0
0 0
0 0
0 0
0 0
0 0
0 0
0 0
0 0
0 0
0 0
0 0
0 0
0 0
0 0
0 0
0 0
0 0
0 0
0 0
0 0
0 0
0 0
0 0
0 0
0 0
0 0
0 0
0 0
0 0
0 0
0 0
0 0
0 0
0 0
0 0
0 0
0 0
0 0
0 0
0 0
0 0
0 0
0 0
0 0
0 0
0 0
0 0
0 0
0 0
0 0
0 0
0 0
0 0
0 0
0 0
0 0
0 0
0 0
0 0
0 0
0 0
0 0
0 0
0 0
0 0
0 0
0 0
0 0
0 0
0 0
0 0
0 0
0 0
0 0
0 0
0 0
0 0
0 0
0 0
0 0
0 0
0 0
0 0
0 0
0 0
0 0
0 0
0 0
0 0
0 0
0 0
0 0
0 0
0 0
0 0
0 0
0 0
0 0
0 0
0 0
0 0
0 0
0 0
0 0
0 0
0 0
0 0
0 0
0 0
0 0
0 0
0 0
0 0
0 0
0 0
0 0
0 0
0 0
0 0
0 0
0 0
0 0
0 0
0 0
0 0
0 0
      </DataArray> 
      <DataArray type="Float64" NumberOfComponents="2" Name="CauchyNormalStress" format="ascii">
7.33943 4.22372
6.65 3.39288
7.18293 0.713751
3.72651 -0.156673
2.52654 0.0296081
1.55291 -0.0135851
0.993303 -0.0836722
0.618696 -0.081799
0.191011 -0.0377758
-0.119148 -0.00437278
-0.363326 -0.0406379
-0.511692 -0.0552984
-0.721223 -0.0292838
-0.857076 -0.00144995
-0.94771 -0.0323643
-0.969023 -0.0399611
-1.03602 -0.0149864
-1.03957 0.00358035
-0.999587 -0.0298685
-0.888315 -0.0402386
-0.823133 -0.0150202
-0.693195 0.0023581
-0.507693 -0.0373735
-0.228554 -0.0543295
-0.00709495 -0.0205051
0.309109 0.0108933
0.734085 -0.0395198
1.41875 -0.1605
2.08522 -0.231608
3.14185 -0.107611
6.44163 0.305714
-0.63817 0.548036
-0.842266 0.657199
-0.767767 1.39773
2.21733 5.49492
-0.658446 -0.0240563
-0.153244 -0.216284
-0.0330345 -0.313339
-0.0814075 -0.393658
-0.078492 -0.416909
-0.0218096 -0.567022
-0.0154982 -0.604775
-0.0149198 -0.651482
-0.0363538 -0.651978
-0.0584323 -0.69847
-0.0660271 -0.588772
-0.0747307 -0.628454
-0.0954596 -0.605423
-0.127396 -0.609741
-0.158256 -0.553612
-0.186534 -0.541228
-0.212007 -0.448566
-0.256704 -0.467321
-0.0063911 -0.633363
-0.526733 -0.0380507
-0.621307 -0.0490774
-0.474163 -0.115392
-0.509683 -0.150675
-0.36253 -0.260176
-64.7881 -172.976
-0.377376 -1.68979
-0.126305 -0.699928
-0.830197 -2.12848
-6.62775 -33.0518
-2.2835 -29.207
0.0033309 -16.7732
-1.28732 -17.6171
-1.48752 -17.2995
-2.67695 -20.0679
14.4279 0.893318
-11.005 -33.0707
-14.5011 -39.5337
-19.8814 -59.1594
-6.6995 -32.8113
15.1159 0.438385
20.4175 8.48315
-16.5623 -6.23903
-58.9436 -165.734
-2.43817 -29.321
-0.00177803 -16.953
-1.33102 -17.7141
-1.48809 -17.3495
-2.66522 -20.0558
0.0142296 -0.789285
-0.364282 -1.66587
-0.188097 -0.704123
-1.07813 -1.90544
-0.711402 0.090824
-0.181039 -1.30735
-0.0358671 -0.7439
-0.179723 -0.910396
-0.201485 -0.531669
-0.247341 -0.467107
-0.467838 0.573142
-0.523992 -0.012689
-0.60591 -0.0804015
-0.453547 -0.0975803
-0.505614 -0.179039
-0.397341 -0.180594
-0.391716 -0.262496
-0.319723 -0.303168
-0.305057 -0.364343
-0.263207 -0.436733
-0.219159 -0.447812
-0.192342 -0.543674
-0.134634 -0.52023
-0.105381 -0.631467
-0.0613016 -0.633314
-0.070416 -0.675292
-0.0557658 -0.630014
-0.0355384 -0.675319
-0.627301 0.99544
-0.235119 1.97485
2.40362 5.09627
-16.8272 -10.297
-10.1691 -26.4759
-16.2825 -11.1086
-8.89123 -35.8639
-11.3634 -29.0455
-2.04198 -21.3207
-16.6335 -8.13316
4.39166 -23.6326
1.23961 -3.65753
0.897912 -3.58762
-3.03211 -36.8132
-3.20077 -37.8646
2.07952 -8.77102
0.793893 -4.23778
0.345027 -17.8423
0.401443 -15.5952
-0.290476 -17.9402
0.829747 -13.6362
0.496031 -15.8461
-1.62946 -15.1088
-0.250566 -15.171
-0.49147 -16.4174
-2.17594 -16.2263
1.2285 -12.5841
1.60277 -12.018
1.36678 -16.3563
-8.60539 -5.42635
-8.96032 -5.42674
-9.50439 -5.99322
0.753029 -18.984
1.05442 -14.4691
-4.90686 -16.7859
-4.69234 -15.7822
-0.308144 -21.1436
-1.41551 -20.3937
-3.81886 -17.9773
-4.28408 -19.2831
-0.394 -19.6162
-6.62591 -4.4305
-7.87193 -4.70277
-7.30824 -4.77115
0.648741 -12.1338
0.914132 -12.7799
-7.34557 -7.66545
-4.85035 -11.4912
-1.11152 -13.1385
0.29051 -11.4367
0.187316 -12.2262
-1.15857 -14.1881
-5.1669 -12.305
-7.81894 -7.96176
1.43573 -10.5417
2.00117 -14.6009
-12.1793 -9.2084
-11.8778 -7.34087
-9.99345 -5.89902
-10.4369 -8.06661
2.53786 -15.096
2.73837 -18.1648
2.19822 -17.5654
1.74358 -14.4903
1.72974 -11.336
1.51866 -10.073
-12.7487 -10.5381
-7.30939 -15.3007
-7.06125 -14.2688
-12.6058 -14.7002
1.99318 -22.4471
0.124486 -28.4146
-4.64268 -21.2411
-0.945074 -22.4416
2.4129 -20.6651
-5.96043 -4.33593
-6.80698 -4.39654
-6.80012 -4.21544
-6.98391 -4.35506
-5.72217 -3.66265
-5.54633 -3.60866
-5.30325 -3.43875
-6.05381 -4.11417
0.868853 -10.3459
1.24608 -9.39186
1.33208 -9.16485
0.902264 -10.6337
-5.63692 -4.39074
-5.8755 -5.02466
-5.97504 -7.49136
-4.62237 -8.9027
-2.25871 -10.433
-0.80093 -11.2451
-1.10435 -11.8179
-2.61627 -11.051
-5.00257 -9.51001
-6.1684 -7.7516
-6.2203 -4.81977
-5.8472 -4.21745
1.38461 -8.88887
2.22463 -11.5455
-16.1311 -13.2271
-13.4131 -7.69434
-14.5457 -9.35212
3.2898 -15.1892
3.28771 -17.0797
2.04858 -11.4044
1.34457 -8.0691
-12.8299 -16.6109
-12.8438 -21.3968
3.50759 -24.3662
-6.10098 -25.2955
-13.0454 -26.3643
-4.94706 -22.0101
1.1398 -25.0946
-4.20565 -3.03822
-4.78555 -3.34631
-4.85594 -3.3014
-4.25252 -2.92961
-3.9764 -2.86015
-3.99717 -2.83068
1.03913 -8.58429
0.870399 -8.44726
-4.14303 -3.77373
-3.09712 -6.23247
-0.37358 -8.74411
-0.829067 -9.11137
-3.37899 -6.36964
-4.145 -3.49335
0.925467 -5.62532
1.14907 -6.48261
1.37729 -7.71106
1.64574 -7.86921
2.32081 -8.61053
3.02984 -11.2597
-13.8648 -20.8614
-17.1136 -8.24362
-15.4889 -14.4007
3.67128 -14.2632
3.74629 -15.1191
3.06697 -12.4595
2.35256 -10.1457
1.8135 -8.66561
1.19814 -6.72934
0.861467 -4.99567
-15.2773 -22.8328
-15.3098 -30.0865
4.18161 -18.0851
3.8201 -32.8848
-14.5697 -34.861
4.34647 -24.4954
4.07991 -17.0185
-8.42753 -28.4543
2.3698 -29.8677
-2.23254 -2.12646
-2.43163 -2.08434
-3.00061 -2.4254
-2.60683 -2.41961
-3.46593 -2.46885
-3.22762 -2.49771
-3.29572 -2.27487
-3.29783 -2.32891
-2.67615 -2.02233
-2.84234 -2.01522
-2.53949 -2.21639
-2.87596 -2.18218
-2.11308 -1.92232
-2.3238 -2.05611
0.902163 -7.68709
1.01624 -7.46369
1.0906 -6.52687
0.799955 -4.90338
1.09444 -6.31097
0.936662 -7.69967
0.402246 -8.22111
-2.83465 -2.7336
-2.21766 -3.62321
-0.976513 -5.51574
0.0932173 -6.63238
-0.661598 -7.22462
-1.40639 -5.72053
-2.55485 -3.52456
-2.63887 -2.36142
0.355534 -2.67319
0.753857 -4.50443
1.02259 -5.00083
1.5233 -6.01669
2.11782 -7.23016
0.355598 -47.237
-13.2205 -7.18204
-7.99899 -0.999023
-13.5677 -5.54672
-1.78015 -43.2065
3.20767 -11.2398
3.08785 -10.7472
2.1304 -7.86456
1.27861 -6.33947
0.430415 -3.05714
0.643353 -60.7521
-4.77261 -46.4129
0.371802 -58.6566
-2.15638 -49.7232
3.33703 -19.0728
-8.50692 -48.2203
-27.4628 -56.4192
3.2339 -15.727
-26.2957 -49.6357
-2.27608 -38.2725
-0.395132 -1.22688
-1.08356 -1.56354
-1.85724 -1.55969
-2.10754 -1.45465
-1.93796 -1.37053
-1.36098 -1.39922
-0.423519 -1.29081
1.50366 -5.34803
0.584316 -3.48402
0.790783 -3.86964
1.03207 -5.83575
-0.265448 -1.6533
1.57663 -4.31465
2.31126 -3.74271
1.76144 -4.58875
0.559009 -4.75643
-0.343112 -1.52945
0.355581 -1.74348
0.343899 -2.21932
0.0858211 -1.24916
0.238576 -2.00218
0.22233 -1.98929
0.44081 -2.96768
0.379269 -2.52831
0.572043 -3.13005
0.6031 -3.08739
0.688978 -3.21486
0.576211 -2.82319
-11.9348 -20.3668
-6.3492 -2.0635
-5.73396 -1.84183
-12.2989 -14.401
1.2192 -4.38746
1.52453 -5.2633
1.63523 -5.8885
1.13205 -4.99311
1.42783 -8.14917
1.33641 -7.35054
1.19303 -5.21423
1.48545 -5.45778
1.50086 -5.20914
1.15948 -4.27189
1.15731 -4.35081
0.869371 -3.69968
0.512208 -2.76702
0.618942 -3.29152
0.162609 -1.81535
0.232139 -1.85012
0.21073 -1.90012
0.150799 -1.63261
0.634275 -32.8596
0.773747 -43.8501
-0.778757 -58.3044
0.518466 -31.9476
0.459918 -55.9318
0.325791 -42.1772
0.503424 -9.84918
-1.68547 -8.98815
-1.29783 -68.1617
0.886945 -9.64203
1.81835 -46.1225
-0.447036 -12.5053
1.16821 -0.672361
2.65284 0.709268
1.45149 -0.893502
0.156389 -0.78957
0.593257 -0.785366
-0.396589 -0.834835
-0.968865 -0.804832
-0.727175 -0.788996
-1.2441 -0.784029
-1.47958 -0.769818
-1.38567 -0.750772
-1.47072 -0.701414
-1.43638 -0.706361
-1.48065 -0.681804
-1.25983 -0.692582
-0.91344 -0.715491
-1.12364 -0.679605
-0.514971 -0.728022
0.354003 -0.795248
-0.185853 -0.709535
1.02471 -0.529656
2.92121 0.4929
1.37123 -0.597466
0.0889305 -1.07359
0.0903695 -1.19471
0.190242 -1.55006
0.162344 -1.50672
0.851648 -3.45013
1.73925 -1.30717
1.02377 -3.41589
1.60126 -4.00787
1.36472 -1.71526
2.92999 -0.284915
1.82472 -2.34111
1.30245 -2.75713
2.58454 -0.258546
0.125483 -0.877162
0.108013 -0.815727
0.144667 -0.1027
0.24678 -0.590257
0.194393 -0.633953
0.0864508 -0.244289
1.16787 0.402129
5.62382 2.03375
1.41539 0.43407
1.29359 -0.257444
1.42981 -0.404889
4.41924 0.48637
2.67347 -2.51025
3.35759 -1.08817
0.474565 -1.31084
0.581048 -1.37256
-0.323185 -2.88986
0.158479 -2.95311
1.24414 -5.36815
1.09659 -5.20101
0.366255 -2.69649
0.193751 -1.83155
-0.321465 -0.874065
-0.843657 -1.42085
-1.6593 -1.36384
-2.01325 -1.37106
-2.02518 -1.51315
-1.48614 -1.57743
-0.495861 -1.52042
-1.06176 -0.969401
3.22054 -22.1525
2.30661 -28.5745
3.89048 -48.347
4.20897 -49.8436
0.494431 -3.15737
1.46735 -6.16001
2.66474 -9.00178
2.70618 -10.5358
3.34591 -13.4503
2.71805 -9.15196
-12.6936 -15.0257
-11.2915 -20.3133
1.53253 -5.56727
1.29436 -5.71179
1.01318 -5.40336
0.539782 -3.467
0.807941 -6.37511
1.71141 -5.66034
-15.2729 -35.0839
-16.3694 -41.7632
-15.0721 -4.81916
-4.59224 -4.36452
-2.29564 -8.23633
-1.84003 -7.81867
-4.48609 -4.63741
0.373285 -9.96221
1.15257 -7.06832
1.22983 -7.69587
0.663017 -9.61601
-3.78023 -2.79953
-4.20681 -2.96263
-3.75881 -2.68173
-4.65513 -3.15844
-5.00715 -3.40642
-4.5676 -3.25616
-3.89692 -2.96744
-2.65079 -24.1625
3.73935 -22.0348
2.49944 -31.2611
3.60659 -19.0921
-15.5877 -19.6764
-16.3444 -13.934
1.59582 -9.00831
2.64006 -13.9871
-11.1138 -6.61544
-15.5544 -10.2409
2.76086 -11.8944
1.66938 -10.0132
-7.13107 -19.779
-6.97262 -18.5503
-7.89009 -5.40089
-7.69566 -10.8192
-2.76599 -13.8243
-2.48184 -12.9828
-7.36601 -10.0456
-7.33799 -5.59602
1.43168 -11.2349
1.15558 -11.0836
-6.81458 -4.20192
-8.92564 -5.24282
0.685214 -20.7136
-2.12543 -23.7759
0.851003 -17.2609
1.33672 -18.6237
0.305799 -14.4198
0.157921 -13.2318
-1.44094 -18.5564
-0.692308 -17.1458
1.46532 -14.0684
1.65725 -71.221
-1.32365 -1.02548
-7.60239 -17.1647
-2.99986 -15.4641
-2.3249 -2.09837
2.91717 -31.2459
-0.98898 -1.37543
-12.1879 -96.1762
-8.01852 -30.4794
-1.47206 -1.82119
-4.18977 -17.3702
1.26692 -44.5599
-0.0918411 -49.4702
-6.83363 -49.4893
-6.13789 -40.3703
-4.12274 -78.2375
-3.87104 -21.3043
-6.30626 -23.46
-4.28325 -34.4353
1.95226 -45.0355
1.67856 -49.5801
0.397474 -36.3632
-2.31731 -31.6113
-1.76553 -27.0431
-8.55047 -25.77
-11.1541 -32.0548
-0.567553 -24.6835
1.57234 -40.7486
-0.107428 -51.7604
-5.60106 -41.7631
-6.87604 -52.2424
-4.12048 -35.3536
-3.88583 -21.3295
-6.29243 -23.529
-6.87529 -86.1671
1.36303 -50.9719
2.25305 -46.7603
0.63974 -37.5813
-1.72394 -27.5579
-2.17138 -32.4138
-0.516612 -25.1665
-8.57314 -25.9591
-11.1459 -32.6235
1.79676 -42.1052
-7.83723 -5.42954
0.816028 -2.92889
4.49069 1.39635
3.55212 -0.371655
-42.6527 -83.0636
-20.1716 -60.0104
-31.3519 -46.8591
-12.2036 -15.5943
-8.8835 -7.17873
-8.45121 -6.65528
3.57701 0.773661
0.131413 -2.97894
-31.2678 -52.6534
-42.0359 -84.27
-16.9637 -6.96902
3.43166 -0.562374
-8.70263 -9.2353
-11.6051 -21.0937
-13.416 -42.9574
-12.1104 -60.7908
0.748137 -46.3752
-42.7844 -69.2808
3.68386 -33.8236
-14.4753 -33.7495
-19.1939 -41.1722
-24.5529 -52.0088
-5.42665 -60.3547
-29.9718 -68.6604
2.11643 -44.7247
-42.9942 -72.4864
-21.7911 -48.2303
-19.4497 -42.8234
-12.5126 -54.845
-11.7497 -67.779
-1.93115 -53.7496
0.868486 -50.2305
-9.08147 -46.0802
-13.8405 -48.1107
-3.78218 -52.8049
-16.8839 -61.096
0.0268223 -49.4426
-10.3466 -40.366
1.60375 -52.3526
-7.13933 -33.9878
-3.49694 -39.9317
-8.48201 -29.9694
-13.0111 -82.7722
3.01945 -53.5629
0.919675 -47.2552
-10.976 -2.99711
-6.26765 -1.41674
-10.0497 -4.76887
2.77464 -0.71338
-12.8722 -9.66638
-14.0828 -5.00647
-11.8974 -3.3735
-10.8098 -3.83146
-10.3316 -6.0058
-6.59377 -1.62227
-12.2204 -12.6005
-13.9083 -5.75839
2.04369 -53.8335
-2.65174 -43.196
-4.96908 -39.2125
-12.3204 -80.5714
-6.3211 -35.2004
1.7184 -48.2435
2.68589 -52.1672
-13.3787 -29.8595
-8.05371 -34.6825
-2.5555 -30.5112
-5.49271 -26.3432
-16.3699 -38.2104
-8.72738 -39.41
-0.221082 -39.727
-1.89809 -34.5068
-14.5478 -30.6678
-10.8477 -27.3675
-7.58713 -24.0229
-10.0848 -23.0371
-12.6325 -21.4947
-14.2151 -19.8276
-14.5964 -24.8
-14.6425 -15.1851
-15.6551 -18.5247
-14.8568 -28.6196
-10.1406 -18.234
-14.3701 -20.6264
-14.2557 -17.3032
-12.5274 -18.0211
-9.90638 -16.5736
-10.0747 -12.5713
-9.92446 -20.0464
-14.5713 -12.4704
-12.6722 -13.5116
-10.3333 -13.8884
-10.3066 -10.5206
-15.443 -11.5652
-13.6043 -9.8646
-11.9297 -8.53361
-12.8552 -8.10092
-13.6806 -8.88249
-14.4309 -8.80814
-12.6185 -7.46193
-11.1991 -6.54554
-12.2378 -7.10766
-10.4376 -6.23694
-12.2854 -11.8285
-14.4162 -13.8861
-14.2575 -11.4852
-15.7517 -16.332
-15.8095 -11.5854
-13.8228 -9.63601
-9.82855 -9.4405
-11.9363 -8.18556
-10.2808 -6.42218
-7.94668 -5.45469
-8.69241 -5.33001
-10.4179 -7.26153
-9.85706 -7.623
-9.66135 -39.4114
-2.53689 -49.334
-9.26441 -50.2718
1.20698 -45.103
-14.5036 -39.3903
-10.9696 -32.9666
-5.20196 -34.1494
0.251151 -25.2492
-1.08439 -36.2167
-1.64379 -26.4507
-13.3464 -36.9426
-17.7777 -29.6597
-1.54903 -25.8979
-1.07709 -35.2391
0.198415 -24.7693
1.07276 -43.6566
-13.5624 -35.6809
-17.3659 -30.3423
-5.02482 -33.8082
-9.28197 -49.3295
-2.45723 -47.8932
-9.5051 -38.8638
19.934 10.1212
15.1495 0.760464
-15.9502 -11.1047
-15.2464 -7.27802
-14.4416 -9.6203
-15.8437 -6.18488
-13.8752 -14.8532
-15.9901 -14.252
-16.5299 -11.0135
-13.6226 -21.9704
-13.2984 -25.389
-15.3781 -18.9223
-13.2523 -32.2687
-11.8875 -22.8471
-2.85645 -44.1952
-8.61046 -37.3831
-6.37332 -35.1145
-3.97922 -40.7305
-6.41849 -42.6729
-0.700604 -47.4595
-12.0708 -38.6771
-9.66005 -29.1626
-14.3724 -25.9574
-12.008 -32.4615
-11.6251 -28.9422
-15.7653 -35.5651
-12.3259 -20.9238
-14.7321 -20.27
-15.0403 -25.1343
-16.2869 -12.5033
-16.6008 -9.39969
-16.6283 -10.5068
-15.76 -7.69677
-16.3042 -7.0046
-16.5415 -9.61911
-15.8541 -15.2557
-13.4527 -13.4073
-14.9363 -9.79158
-15.0854 -15.5404
-13.0883 -28.2881
-11.8729 -30.6832
-15.5563 -32.5789
-5.8489 -31.4077
-14.0634 -25.6573
-11.6319 -23.8975
-8.36795 -22.4152
-15.2684 -9.17505
-15.7318 -9.88461
-13.9461 -8.56272
-16.4556 -12.0691
-16.2062 -10.1302
-16.7666 -7.9968
-16.7687 -9.42409
-16.8899 -8.9784
-3.95575 -9.25589
-2.40744 -12.2134
-2.31275 -6.2245
-1.01957 -24.9965
-0.163765 -18.6549
-1.46218 -5.27306
-2.24362 -1.62108
-3.47303 -1.19419
-5.51109 -9.80041
-3.93748 -41.4043
-2.04075 -31.8139
-5.31525 -22.3649
2.17981 -34.7908
-8.26037 -15.6547
-4.11222 -47.2859
1.12843 -52.9312
-21.5383 -128.825
-24.8302 -31.5319
-14.5905 -56.6759
-2.59037 -63.2563
-13.1919 -59.92
-34.1221 -113.345
-24.7884 -30.1944
-26.4982 -134.896
-14.4566 -61.645
-13.5671 -65.4402
-3.75491 -66.7184
-32.8766 -122.051
-26.3028 -64.0578
-19.5861 -76.5379
-7.5508 -70.0138
-58.9653 -107.71
-25.2862 -107.129
0.966291 -53.7539
-3.82155 -57.1681
-20.9757 -53.9165
-31.5399 -58.6603
1.94089 -39.781
3.00972 -33.3587
2.59926 -38.9016
3.2265 -25.8038
3.36556 -28.4843
1.09506 -36.4203
-1.40394 -42.6015
0.683915 -48.1939
2.55007 -36.6605
-14.0802 -37.963
-17.2163 -37.4689
-17.2598 -41.8944
-15.3166 -34.6246
-17.0602 -38.1711
-21.5368 -45.5342
-20.8066 -46.3616
-7.26977 -40.8681
-10.2885 -38.7502
-0.729661 -51.1298
1.06132 -45.9433
-1.15186 -53.3942
2.26246 -37.3218
-4.30375 -66.5658
-7.60501 -54.2885
-2.47603 -46.8761
-22.5493 -83.0459
-34.3439 -85.935
-40.665 -69.7659
-46.8364 -132.38
-59.7912 -113.204
-30.9184 -64.2394
-31.846 -61.1405
-14.1527 -72.1039
-5.96611 -81.7164
-24.7908 -50.0754
-22.101 -45.5763
-20.6435 -46.9971
-17.9834 -44.5787
-19.0827 -42.4473
-14.3581 -45.3285
-16.4746 -50.4412
-28.5303 -54.5228
-23.1481 -52.1805
-23.2498 -71.0228
-20.4124 -77.2746
-9.89433 -75.1766
-5.00376 -62.8436
-19.8396 -62.1726
-19.6314 -55.8252
-17.2689 -51.6267
-15.2602 -48.1574
-6.1789 -51.1846
-13.9904 -72.7543
-26.2479 -77.1269
-29.16 -63.4489
-22.9545 -55.2082
-8.36903 -62.2535
-20.3703 -49.4114
-17.0033 -44.6885
-9.03083 -46.6923
-14.7947 -41.4319
-5.36973 -36.2724
-2.58105 -34.3465
-5.40923 -32.5719
-5.52511 -29.5131
-2.66607 -27.3485
-8.24251 -31.615
0.306497 -42.6609
1.92692 -36.729
3.23703 -37.8947
1.35976 -35.0347
2.90237 -32.3048
3.00772 -31.33
-3.77212 -43.6553
-5.06207 -37.0119
-1.34599 -37.2045
-4.22336 -39.6921
0.419794 -33.0803
-8.68639 -43.6119
-12.2416 -37.0241
-6.93235 -35.1752
-0.674495 -31.2655
-4.07765 -32.9136
-8.35032 -29.0296
-10.1607 -33.3428
1.06282 -29.9371
-2.80007 -30.0985
-3.73722 -27.4222
-1.24429 -26.1183
0.0727932 -30.2268
1.52187 -27.5802
-0.593797 -27.6832
3.19638 -25.5762
2.55801 -23.6632
-0.702486 -24.6371
0.406875 -33.7227
0.09022 -24.1717
-1.59492 -13.904
0.795372 -22.2223
-2.32563 -7.86469
-0.981889 -6.58384
1.45073 -17.6746
-1.5372 -30.986
-4.61412 -7.94325
-2.74166 -7.35605
-5.09193 -16.5461
-2.31704 -0.529218
-2.8024 -32.1701
-6.60035 -7.85749
-4.04028 -2.57992
-8.66227 -25.1689
-13.606 -11.5205
-5.23338 -41.8782
-3.97672 -0.00999504
-6.16582 -1.30722
0.225051 -11.1317
-0.41857 -6.52759
0.270137 -5.06573
-15.015 11.8173
-31.837 -52.0961
0.380102 -5.17686
1.87271 -16.0486
-12.2297 -27.9365
-5.35587 -54.1448
-16.279 -18.8781
-5.036 0.129571
-8.03306 3.67403
-0.907233 -10.0649
0.073626 -5.09979
-0.716747 -4.9448
0.284676 -5.25104
-14.0633 24.804
-32.0818 -44.1137
1.44137 -18.2882
0.548821 -3.06697
0.146553 -1.58038
0.196901 -1.84102
0.11759 -1.54667
-0.00958082 -0.608318
-0.046705 -0.54476
0.236673 -1.88401
1.02029 -4.7326
1.00029 -4.41876
0.686189 -3.22762
0.261827 -1.93504
0.0558153 -1.50512
0.192415 -1.89714
-0.0834158 -0.409664
-0.0637371 -0.449593
1.17013 -4.94328
1.15912 -4.31565
0.324991 -2.13505
0.292213 -2.14955
0.212996 -2.08666
-0.0176049 -0.354301
-0.089326 -0.237054
0.361877 -2.19635
1.89594 -6.69873
1.95321 -6.46734
1.31406 -4.83988
0.454801 -2.53747
0.352068 -2.1388
0.536834 -2.61177
-0.365335 -0.342534
-0.371622 -0.274148
2.06463 -7.21639
1.36184 -5.36777
0.384902 -2.74293
0.577512 -2.81134
0.490652 -2.81384
-0.508614 -0.17845
-0.478709 -0.153014
0.481504 -2.74072
2.13104 -7.85137
1.89635 -7.913
1.25978 -6.37088
0.589903 -4.02695
0.565639 -2.89327
0.636989 -3.93819
-0.612789 -0.0806436
-0.528886 -0.0688097
2.07035 -8.99694
1.25824 -6.68783
0.516957 -2.74434
0.655643 -4.40753
0.461638 -2.7214
-0.360292 -0.355149
-0.245622 -0.457099
0.663139 -4.2166
2.42185 -10.8021
2.19793 -9.16356
1.40478 -5.48616
0.660259 -3.04174
0.359956 -2.65227
0.544441 -2.95374
-0.196472 -0.528099
-0.187628 -0.906958
2.49254 -9.43634
1.35633 -4.8782
0.356692 -2.18062
0.457961 -2.58897
0.306593 -2.1476
-0.0336008 -0.688243
-0.234903 -1.28274
0.54954 -2.65109
2.12378 -7.25255
2.00664 -6.64794
0.61656 -3.063
0.150329 -1.69706
0.11041 -1.48822
0.21071 -1.74067
-0.290304 -0.397457
-0.328073 -0.375855
0.0308243 -1.46468
1.07597 -4.11426
1.0986 -4.41633
0.576953 -3.14492
0.175502 -1.76796
0.193978 -1.72256
0.206745 -1.80225
-0.38482 -0.255558
-0.417244 -0.223453
0.161137 -1.69798
0.970067 -4.34523
0.926306 -4.42206
-0.537939 -0.123004
0.112213 -1.52067
0.138496 -1.57108
0.144037 -1.59465
0.705091 -3.90121
-0.462947 -0.0996782
-13.1992 -50.9597
-4.07595 -52.2799
-5.86094 -45.0863
2.20238 -11.5954
2.13719 -12.8015
1.09872 -8.62684
3.29397 -18.5623
3.01124 -12.9485
-14.8236 -55.853
-16.038 -64.3455
-26.144 -58.9168
2.33797 -13.4751
0.876818 -9.44724
1.97395 -14.1819
2.79946 -23.5301
3.32323 -16.3283
-12.1529 -62.0138
-5.49342 -57.2621
-14.3898 -54.643
-7.85339 -54.7158
1.35929 -6.29786
0.975957 -4.7527
0.546366 -3.28944
0.866214 -4.73654
1.65061 -6.07279
1.01522 -4.02353
1.49989 -5.78659
1.7929 -7.04541
2.37285 -8.48822
2.2441 -8.18626
1.48934 -5.39896
2.35269 -7.7949
2.83963 -9.99426
2.88986 -10.7425
2.40842 -8.08287
1.56991 -5.6626
2.41952 -8.632
3.25044 -12.5296
2.90795 -10.2845
1.04968 -4.57315
0.633188 -3.2096
1.13596 -4.53988
1.52199 -5.85078
1.40102 -5.90771
0.695592 -3.7603
0.462978 -2.8647
0.812367 -4.02724
1.14731 -5.37295
1.01004 -5.23436
-11.2139 -34.3556
-11.4702 -31.1169
4.32335 -20.3647
3.72049 -20.3961
3.63362 -16.5713
3.70028 -23.7301
3.33424 -13.9294
3.95079 -19.7414
3.85522 -23.5024
-14.244 -41.3589
-16.1782 -38.4434
1.64876 -7.37425
1.53491 -7.52994
1.46229 -7.64641
1.71575 -8.87057
2.66184 -11.2974
2.61758 -10.1184
2.23799 -9.02471
2.88358 -10.7863
1.91755 -8.14417
2.52895 -12.0039
2.85919 -13.2686
3.84286 -16.2348
3.63704 -13.6207
3.42323 -13.093
3.26628 -11.8795
3.83756 -18.3337
3.89421 -16.2393
3.44976 -12.7593
3.74162 -14.5029
3.23652 -11.5908
3.81878 -15.8338
3.89719 -18.6092
3.63528 -16.6359
2.64551 -9.97234
2.21898 -7.94969
2.60896 -9.15807
1.95615 -7.01381
1.79672 -6.42189
2.38352 -8.24713
2.87989 -10.2355
2.89672 -11.5931
2.5619 -10.1895
1.47995 -6.75178
1.33 -6.43845
1.31026 -6.67838
1.66659 -8.91306
4.18502 -28.4667
3.4581 -27.4749
2.67035 -32.2138
2.21278 -10.8014
2.06456 -9.41682
1.95083 -10.0032
1.80261 -10.2235
2.29509 -12.7132
3.53995 -16.1388
3.3396 -13.8209
3.2218 -14.6593
2.90176 -15.554
3.45258 -19.5539
3.17504 -13.1647
3.31307 -12.8171
3.4849 -14.7354
3.44361 -17.1345
3.00984 -13.5685
2.96725 -21.4399
1.85893 -22.7906
0.792438 -22.9333
1.61693 -20.7225
1.20861 -25.2507
2.61816 -23.476
1.86555 -26.593
2.78769 -20.8491
3.58475 -21.6311
3.12962 -27.5987
0.00857701 -23.2535
2.20435 -14.2671
1.92368 -12.8988
1.51497 -12.8885
1.3383 -15.831
2.2708 -19.1643
2.83189 -18.8373
2.75302 -17.3523
2.45094 -15.7135
1.47141 -19.1091
2.61519 -16.6603
2.9156 -15.1585
2.99235 -16.6727
2.66012 -13.463
3.13534 -18.6551
2.08719 -18.4325
1.95355 -16.8311
2.48442 -11.7339
2.38682 -13.3308
1.87543 -12.8008
1.90658 -10.7931
2.39887 -20.2065
1.56037 -20.6116
1.90561 -16.0518
1.55288 -17.4178
2.19762 -8.72603
1.82571 -7.32722
1.90016 -7.35423
1.67762 -7.27
2.40768 -10.3623
1.94851 -9.72394
1.85091 -8.34621
2.16656 -10.1127
1.53536 -5.32194
1.04848 -4.01598
1.66913 -5.84897
0.177606 -1.78421
1.20798 -4.60971
0.0271824 -1.43434
0.173576 -1.77958
0.732891 -3.20873
-0.621633 -0.0754111
-0.520752 -0.0361556
4.13519 -27.8718
3.91331 -21.4684
3.51715 -26.2866
3.85583 -18.5249
3.492 -27.7166
3.81249 -21.2844
4.24488 -20.8454
3.89958 -24.0926
0 0
0 0
0 0
0 0
0 0
0 0
0 0
0 0
0 0
0 0
0 0
0 0
0 0
0 0
0 0
0 0
0 0
0 0
0 0
0 0
0 0
0 0
0 0
0 0
0 0
0 0
0 0
0 0
0 0
0 0
0 0
0 0
0 0
0 0
0 0
0 0
0 0
0 0
0 0
0 0
0 0
0 0
0 0
0 0
0 0
0 0
0 0
0 0
0 0
0 0
0 0
0 0
0 0
0 0
0 0
0 0
0 0
0 0
0 0
0 0
0 0
0 0
0 0
0 0
0 0
0 0
0 0
0 0
0 0
0 0
0 0
0 0
0 0
0 0
0 0
0 0
0 0
0 0
0 0
0 0
0 0
0 0
0 0
0 0
0 0
0 0
0 0
0 0
0 0
0 0
0 0
0 0
0 0
0 0
0 0
0 0
0 0
0 0
0 0
0 0
0 0
0 0
0 0
0 0
0 0
0 0
0 0
0 0
0 0
0 0
0 0
0 0
0 0
0 0
0 0
0 0
0 0
0 0
0 0
0 0
0 0
0 0
0 0
0 0
0 0
0 0
0 0
0 0
0 0
0 0
0 0
0 0
0 0
0 0
0 0
0 0
0 0
0 0
0 0
0 0
0 0
0 0
0 0
0 0
0 0
0 0
0 0
0 0
0 0
0 0
0 0
0 0
0 0
0 0
0 0
0 0
0 0
0 0
0 0
0 0
0 0
0 0
0 0
0 0
0 0
0 0
0 0
0 0
0 0
0 0
0 0
0 0
0 0
0 0
0 0
0 0
0 0
0 0
0 0
0 0
0 0
0 0
0 0
0 0
0 0
0 0
0 0
0 0
0 0
0 0
0 0
0 0
0 0
0 0
0 0
0 0
0 0
0 0
0 0
0 0
0 0
0 0
0 0
0 0
0 0
0 0
0 0
0 0
0 0
0 0
0 0
0 0
0 0
0 0
0 0
0 0
0 0
0 0
0 0
0 0
0 0
0 0
0 0
0 0
0 0
0 0
0 0
0 0
0 0
0 0
0 0
0 0
0 0
0 0
0 0
0 0
0 0
0 0
0 0
0 0
0 0
0 0
0 0
0 0
0 0
0 0
0 0
0 0
0 0
0 0
0 0
0 0
0 0
0 0
0 0
0 0
0 0
0 0
0 0
0 0
0 0
0 0
0 0
0 0
0 0
0 0
0 0
0 0
0 0
0 0
0 0
0 0
0 0
0 0
0 0
0 0
0 0
0 0
0 0
0 0
0 0
0 0
0 0
0 0
0 0
0 0
0 0
0 0
0 0
0 0
0 0
0 0
0 0
0 0
0 0
0 0
0 0
0 0
0 0
0 0
0 0
0 0
0 0
0 0
0 0
0 0
0 0
0 0
0 0
0 0
0 0
0 0
0 0
0 0
0 0
0 0
0 0
0 0
0 0
0 0
0 0
0 0
0 0
0 0
0 0
0 0
0 0
0 0
0 0
0 0
0 0
0 0
0 0
0 0
0 0
0 0
0 0
0 0
0 0
0 0
0 0
0 0
0 0
0 0
0 0
0 0
0 0
0 0
0 0
0 0
0 0
0 0
0 0
0 0
0 0
0 0
0 0
0 0
0 0
0 0
0 0
0 0
0 0
0 0
0 0
0 0
0 0
0 0
0 0
0 0
0 0
0 0
0 0
0 0
0 0
0 0
0 0
0 0
0 0
0 0
0 0
0 0
0 0
0 0
0 0
0 0
0 0
0 0
0 0
0 0
0 0
0 0
0 0
0 0
0 0
0 0
0 0
0 0
0 0
0 0
0 0
0 0
0 0
0 0
0 0
0 0
0 0
0 0
0 0
0 0
0 0
0 0
0 0
0 0
0 0
0 0
0 0
0 0
0 0
0 0
0 0
0 0
0 0
0 0
0 0
0 0
0 0
0 0
0 0
0 0
0 0
0 0
0 0
0 0
0 0
0 0
0 0
0 0
0 0
0 0
0 0
0 0
0 0
0 0
0 0
0 0
0 0
0 0
0 0
0 0
0 0
0 0
0 0
0 0
0 0
0 0
0 0
0 0
0 0
0 0
0 0
0 0
0 0
0 0
0 0
0 0
0 0
0 0
0 0
0 0
0 0
0 0
0 0
0 0
0 0
0 0
0 0
0 0
0 0
0 0
0 0
0 0
0 0
0 0
0 0
0 0
0 0
0 0
0 0
0 0
0 0
0 0
0 0
0 0
0 0
0 0
0 0
0 0
0 0
0 0
0 0
0 0
0 0
0 0
0 0
0 0
0 0
0 0
0 0
0 0
0 0
0 0
0 0
0 0
0 0
0 0
0 0
0 0
0 0
0 0
0 0
0 0
0 0
0 0
0 0
0 0
0 0
0 0
0 0
0 0
0 0
0 0
0 0
0 0
0 0
0 0
0 0
0 0
0 0
0 0
0 0
0 0
0 0
0 0
0 0
0 0
0 0
0 0
0 0
0 0
0 0
0 0
0 0
0 0
0 0
0 0
0 0
0 0
0 0
0 0
0 0
0 0
0 0
0 0
0 0
0 0
0 0
0 0
0 0
0 0
0 0
0 0
0 0
0 0
0 0
0 0
0 0
0 0
0 0
0 0
0 0
0 0
0 0
0 0
0 0
0 0
0 0
0 0
0 0
0 0
0 0
0 0
0 0
0 0
0 0
0 0
0 0
0 0
0 0
0 0
0 0
0 0
0 0
0 0
0 0
0 0
0 0
0 0
0 0
0 0
0 0
0 0
0 0
0 0
0 0
0 0
0 0
0 0
0 0
0 0
0 0
0 0
0 0
0 0
0 0
0 0
0 0
0 0
0 0
0 0
0 0
0 0
0 0
0 0
0 0
0 0
0 0
0 0
0 0
0 0
0 0
0 0
0 0
0 0
0 0
0 0
0 0
0 0
0 0
0 0
0 0
0 0
0 0
0 0
0 0
0 0
0 0
0 0
0 0
0 0
0 0
0 0
0 0
0 0
0 0
0 0
0 0
0 0
0 0
0 0
0 0
0 0
0 0
0 0
0 0
0 0
0 0
0 0
0 0
0 0
0 0
0 0
0 0
0 0
0 0
0 0
0 0
0 0
0 0
0 0
0 0
0 0
0 0
0 0
0 0
0 0
0 0
0 0
0 0
0 0
0 0
0 0
0 0
0 0
0 0
0 0
0 0
0 0
0 0
0 0
0 0
0 0
0 0
0 0
0 0
0 0
0 0
0 0
0 0
0 0
0 0
0 0
0 0
0 0
0 0
0 0
0 0
0 0
0 0
0 0
0 0
0 0
0 0
0 0
0 0
0 0
0 0
0 0
0 0
0 0
0 0
0 0
0 0
0 0
0 0
0 0
0 0
0 0
0 0
0 0
0 0
0 0
0 0
0 0
0 0
0 0
0 0
0 0
0 0
0 0
0 0
0 0
0 0
0 0
0 0
0 0
0 0
0 0
0 0
0 0
0 0
0 0
0 0
0 0
0 0
0 0
0 0
0 0
0 0
0 0
0 0
0 0
0 0
0 0
0 0
0 0
0 0
0 0
0 0
0 0
0 0
0 0
0 0
0 0
0 0
0 0
0 0
0 0
0 0
0 0
0 0
0 0
0 0
0 0
0 0
0 0
0 0
0 0
0 0
0 0
0 0
0 0
0 0
0 0
0 0
0 0
0 0
0 0
0 0
0 0
0 0
0 0
0 0
0 0
0 0
0 0
0 0
0 0
0 0
0 0
0 0
0 0
0 0
0 0
0 0
0 0
0 0
0 0
0 0
0 0
0 0
0 0
0 0
0 0
0 0
0 0
0 0
0 0
0 0
0 0
0 0
0 0
0 0
0 0
0 0
0 0
0 0
0 0
0 0
0 0
0 0
0 0
0 0
0 0
0 0
0 0
0 0
0 0
0 0
0 0
0 0
0 0
0 0
0 0
0 0
0 0
0 0
0 0
0 0
0 0
0 0
0 0
0 0
0 0
0 0
0 0
0 0
0 0
0 0
0 0
0 0
0 0
0 0
0 0
0 0
0 0
0 0
0 0
0 0
0 0
0 0
0 0
0 0
0 0
0 0
0 0
0 0
0 0
0 0
0 0
0 0
0 0
0 0
0 0
0 0
0 0
0 0
0 0
0 0
0 0
0 0
0 0
0 0
0 0
0 0
0 0
0 0
0 0
0 0
0 0
0 0
0 0
0 0
0 0
0 0
0 0
0 0
0 0
0 0
0 0
0 0
0 0
0 0
0 0
0 0
0 0
0 0
0 0
0 0
0 0
0 0
0 0
0 0
0 0
0 0
0 0
0 0
0 0
0 0
0 0
0 0
0 0
0 0
0 0
0 0
0 0
0 0
0 0
0 0
0 0
0 0
0 0
0 0
0 0
0 0
0 0
0 0
0 0
0 0
0 0
0 0
0 0
0 0
0 0
0 0
0 0
0 0
0 0
0 0
0 0
0 0
0 0
0 0
0 0
0 0
0 0
0 0
0 0
0 0
0 0
0 0
0 0
0 0
0 0
0 0
0 0
0 0
0 0
0 0
0 0
0 0
0 0
0 0
0 0
0 0
0 0
0 0
0 0
0 0
0 0
0 0
0 0
0 0
0 0
0 0
0 0
0 0
0 0
0 0
0 0
0 0
0 0
0 0
0 0
0 0
0 0
0 0
0 0
0 0
0 0
0 0
0 0
0 0
0 0
0 0
0 0
0 0
0 0
0 0
0 0
0 0
0 0
0 0
0 0
0 0
0 0
0 0
0 0
0 0
0 0
0 0
0 0
0 0
0 0
0 0
0 0
0 0
0 0
0 0
0 0
0 0
0 0
0 0
0 0
0 0
0 0
0 0
0 0
0 0
0 0
0 0
0 0
0 0
0 0
0 0
0 0
0 0
0 0
0 0
0 0
0 0
0 0
0 0
0 0
0 0
0 0
0 0
0 0
0 0
0 0
0 0
0 0
0 0
0 0
0 0
0 0
0 0
0 0
0 0
0 0
0 0
0 0
0 0
0 0
0 0
0 0
0 0
0 0
0 0
0 0
0 0
0 0
0 0
0 0
0 0
0 0
0 0
0 0
0 0
0 0
0 0
0 0
0 0
0 0
0 0
0 0
0 0
0 0
0 0
0 0
0 0
0 0
0 0
0 0
0 0
0 0
0 0
0 0
0 0
0 0
0 0
0 0
0 0
0 0
0 0
0 0
0 0
0 0
0 0
0 0
0 0
0 0
0 0
0 0
0 0
0 0
0 0
0 0
0 0
0 0
0 0
0 0
0 0
0 0
0 0
0 0
0 0
0 0
0 0
0 0
0 0
0 0
0 0
0 0
0 0
0 0
0 0
0 0
0 0
0 0
0 0
0 0
0 0
0 0
0 0
0 0
0 0
0 0
0 0
0 0
0 0
0 0
0 0
0 0
0 0
0 0
0 0
0 0
0 0
0 0
0 0
0 0
0 0
0 0
0 0
0 0
0 0
0 0
0 0
0 0
0 0
0 0
0 0
0 0
0 0
0 0
0 0
0 0
0 0
0 0
0 0
0 0
0 0
0 0
0 0
0 0
0 0
0 0
0 0
0 0
0 0
0 0
0 0
0 0
0 0
0 0
0 0
0 0
0 0
0 0
0 0
0 0
0 0
0 0
0 0
0 0
0 0
0 0
0 0
0 0
0 0
0 0
0 0
0 0
0 0
0 0
0 0
0 0
0 0
0 0
0 0
0 0
0 0
0 0
0 0
0 0
0 0
0 0
0 0
0 0
0 0
0 0
0 0
0 0
0 0
0 0
0 0
0 0
0 0
0 0
0 0
0 0
0 0
0 0
0 0
0 0
0 0
0 0
0 0
0 0
0 0
0 0
0 0
0 0
0 0
0 0
0 0
0 0
0 0
0 0
0 0
0 0
0 0
0 0
0 0
0 0
0 0
0 0
0 0
0 0
0 0
0 0
0 0
0 0
0 0
0 0
0 0
0 0
0 0
0 0
0 0
0 0
0 0
0 0
0 0
0 0
0 0
0 0
0 0
0 0
0 0
0 0
0 0
0 0
0 0
0 0
0 0
0 0
0 0
0 0
0 0
0 0
0 0
0 0
0 0
0 0
0 0
0 0
0 0
0 0
0 0
0 0
0 0
0 0
0 0
0 0
0 0
0 0
0 0
0 0
0 0
0 0
0 0
0 0
0 0
0 0
0 0
0 0
0 0
0 0
0 0
0 0
0 0
0 0
0 0
0 0
0 0
0 0
0 0
0 0
0 0
0 0
0 0
0 0
0 0
0 0
0 0
0 0
0 0
0 0
0 0
0 0
0 0
0 0
0 0
0 0
0 0
0 0
0 0
0 0
0 0
0 0
0 0
0 0
0 0
0 0
0 0
0 0
0 0
0 0
0 0
0 0
0 0
0 0
0 0
0 0
0 0
0 0
0 0
0 0
0 0
0 0
0 0
0 0
0 0
0 0
0 0
0 0
0 0
0 0
0 0
0 0
0 0
0 0
0 0
0 0
0 0
0 0
0 0
0 0
0 0
0 0
0 0
0 0
0 0
0 0
0 0
0 0
0 0
0 0
0 0
0 0
0 0
0 0
0 0
0 0
0 0
0 0
0 0
0 0
0 0
0 0
0 0
0 0
0 0
0 0
0 0
0 0
0 0
0 0
0 0
0 0
0 0
0 0
0 0
0 0
0 0
0 0
0 0
0 0
0 0
0 0
0 0
0 0
0 0
0 0
0 0
0 0
0 0
0 0
0 0
0 0
0 0
0 0
0 0
0 0
0 0
0 0
0 0
0 0
0 0
0 0
0 0
0 0
0 0
0 0
0 0
0 0
0 0
0 0
0 0
0 0
0 0
0 0
0 0
0 0
0 0
0 0
0 0
0 0
0 0
0 0
0 0
0 0
0 0
0 0
0 0
0 0
0 0
0 0
0 0
0 0
0 0
0 0
0 0
0 0
0 0
0 0
0 0
0 0
0 0
0 0
0 0
0 0
0 0
0 0
0 0
0 0
0 0
0 0
0 0
0 0
0 0
0 0
0 0
0 0
0 0
0 0
0 0
0 0
0 0
0 0
0 0
0 0
0 0
0 0
0 0
0 0
0 0
0 0
0 0
0 0
0 0
0 0
0 0
0 0
0 0
0 0
0 0
0 0
0 0
0 0
0 0
0 0
0 0
0 0
0 0
0 0
0 0
0 0
0 0
0 0
0 0
0 0
0 0
0 0
0 0
0 0
0 0
0 0
0 0
0 0
0 0
0 0
0 0
0 0
0 0
0 0
0 0
0 0
0 0
0 0
0 0
0 0
0 0
0 0
0 0
0 0
0 0
0 0
0 0
0 0
0 0
0 0
0 0
0 0
0 0
0 0
0 0
0 0
0 0
0 0
0 0
0 0
0 0
0 0
0 0
0 0
0 0
0 0
0 0
0 0
0 0
0 0
0 0
0 0
0 0
0 0
0 0
0 0
0 0
0 0
0 0
0 0
0 0
0 0
0 0
0 0
0 0
0 0
0 0
0 0
0 0
0 0
0 0
0 0
0 0
0 0
0 0
0 0
0 0
0 0
0 0
0 0
0 0
0 0
0 0
0 0
0 0
0 0
0 0
0 0
0 0
0 0
0 0
0 0
0 0
0 0
0 0
0 0
0 0
0 0
0 0
0 0
0 0
0 0
0 0
0 0
0 0
0 0
0 0
0 0
0 0
0 0
0 0
0 0
0 0
0 0
0 0
0 0
0 0
0 0
0 0
0 0
0 0
0 0
0 0
0 0
0 0
0 0
0 0
0 0
0 0
0 0
0 0
0 0
0 0
0 0
0 0
0 0
0 0
0 0
0 0
0 0
0 0
0 0
0 0
0 0
0 0
0 0
0 0
0 0
0 0
0 0
0 0
0 0
0 0
0 0
0 0
0 0
0 0
0 0
0 0
0 0
0 0
0 0
0 0
0 0
0 0
0 0
0 0
0 0
0 0
0 0
0 0
0 0
0 0
0 0
0 0
0 0
0 0
0 0
0 0
0 0
0 0
0 0
0 0
0 0
0 0
0 0
0 0
0 0
0 0
0 0
0 0
0 0
0 0
0 0
0 0
0 0
0 0
0 0
0 0
0 0
0 0
0 0
0 0
0 0
0 0
0 0
0 0
0 0
0 0
0 0
0 0
0 0
0 0
0 0
0 0
0 0
0 0
0 0
0 0
0 0
0 0
0 0
0 0
0 0
0 0
0 0
0 0
0 0
0 0
0 0
0 0
0 0
0 0
0 0
0 0
0 0
0 0
0 0
0 0
0 0
0 0
0 0
0 0
0 0
0 0
0 0
0 0
0 0
0 0
0 0
0 0
0 0
0 0
0 0
0 0
0 0
0 0
0 0
0 0
0 0
0 0
0 0
0 0
0 0
0 0
0 0
0 0
0 0
0 0
0 0
0 0
0 0
0 0
0 0
0 0
0 0
0 0
0 0
0 0
0 0
0 0
0 0
0 0
0 0
0 0
0 0
0 0
0 0
0 0
0 0
0 0
0 0
0 0
0 0
0 0
0 0
0 0
0 0
0 0
0 0
0 0
0 0
0 0
0 0
0 0
0 0
0 0
0 0
0 0
0 0
0 0
0 0
0 0
0 0
0 0
0 0
0 0
0 0
0 0
0 0
0 0
0 0
0 0
0 0
0 0
0 0
0 0
0 0
0 0
0 0
0 0
0 0
0 0
0 0
0 0
0 0
0 0
0 0
0 0
0 0
0 0
0 0
0 0
0 0
0 0
0 0
0 0
0 0
0 0
0 0
0 0
0 0
0 0
0 0
0 0
0 0
0 0
0 0
0 0
0 0
0 0
0 0
0 0
0 0
0 0
0 0
0 0
0 0
0 0
0 0
0 0
0 0
0 0
0 0
0 0
0 0
0 0
0 0
0 0
0 0
0 0
0 0
0 0
0 0
0 0
0 0
0 0
0 0
0 0
0 0
0 0
0 0
0 0
0 0
0 0
0 0
0 0
0 0
0 0
0 0
0 0
0 0
0 0
0 0
0 0
0 0
0 0
0 0
0 0
0 0
0 0
0 0
0 0
0 0
0 0
0 0
0 0
0 0
0 0
0 0
0 0
0 0
0 0
0 0
0 0
0 0
0 0
0 0
0 0
0 0
0 0
0 0
0 0
0 0
0 0
0 0
0 0
0 0
0 0
0 0
0 0
0 0
0 0
0 0
0 0
0 0
0 0
0 0
0 0
0 0
0 0
0 0
0 0
0 0
0 0
0 0
0 0
0 0
0 0
0 0
0 0
0 0
0 0
0 0
0 0
0 0
0 0
0 0
0 0
0 0
0 0
0 0
0 0
0 0
0 0
0 0
0 0
0 0
0 0
0 0
0 0
0 0
0 0
0 0
0 0
0 0
0 0
0 0
0 0
0 0
0 0
0 0
0 0
0 0
0 0
0 0
0 0
0 0
0 0
0 0
0 0
0 0
0 0
0 0
0 0
0 0
0 0
0 0
0 0
0 0
0 0
0 0
0 0
0 0
0 0
0 0
0 0
0 0
0 0
0 0
0 0
0 0
0 0
0 0
0 0
0 0
0 0
0 0
0 0
0 0
0 0
0 0
0 0
0 0
0 0
0 0
0 0
0 0
0 0
0 0
0 0
0 0
0 0
0 0
0 0
0 0
0 0
0 0
0 0
0 0
0 0
0 0
0 0
0 0
0 0
0 0
0 0
0 0
0 0
0 0
0 0
0 0
0 0
0 0
0 0
0 0
0 0
0 0
0 0
0 0
0 0
0 0
0 0
0 0
0 0
0 0
0 0
0 0
0 0
0 0
0 0
0 0
0 0
0 0
0 0
0 0
0 0
0 0
0 0
0 0
0 0
0 0
0 0
0 0
0 0
0 0
0 0
0 0
0 0
0 0
0 0
0 0
0 0
0 0
0 0
0 0
0 0
0 0
0 0
0 0
0 0
0 0
0 0
0 0
0 0
0 0
0 0
0 0
0 0
0 0
0 0
0 0
0 0
0 0
0 0
0 0
0 0
0 0
0 0
0 0
0 0
0 0
0 0
0 0
0 0
0 0
0 0
0 0
0 0
0 0
0 0
0 0
0 0
0 0
0 0
0 0
0 0
0 0
0 0
0 0
0 0
0 0
0 0
0 0
0 0
0 0
0 0
0 0
0 0
0 0
0 0
0 0
0 0
0 0
0 0
0 0
0 0
0 0
0 0
0 0
0 0
0 0
0 0
0 0
0 0
0 0
0 0
0 0
0 0
0 0
0 0
0 0
0 0
0 0
      </DataArray> 
      <DataArray type="Float64" NumberOfComponents="1" Name="CauchyShearStress" format="ascii">
-2.53648
2.21826
-0.728453
0.205062
0.11561
0.152369
0.106127
0.0467747
-0.02307
-0.0345162
-0.0321227
-0.0479507
-0.0638388
-0.0471886
-0.02322
-0.0174969
-0.0180511
0.0101638
0.0338583
0.0335591
0.0267716
0.0474535
0.0544616
0.0224467
-0.0187866
-0.025245
-0.0599558
-0.226823
-0.285309
-0.369301
0.232064
0.0139118
0.116303
0.263624
-2.89982
0.0183206
0.0977955
0.115258
0.108387
0.0492033
0.0477896
0.0842298
0.125859
0.124051
0.172391
0.144186
0.190492
0.238434
0.268967
0.268901
0.288267
0.294472
0.306553
0.125806
-0.0675975
-0.134152
-0.206679
-0.262039
-0.315764
0.17453
0.401803
0.572718
1.13252
-13.0962
-6.58799
-2.81381
-4.21952
-5.21194
-7.46557
0.0966022
-12.5533
-10.914
-8.35576
13.2606
-1.14972
-8.81401
13.1995
-2.85597
6.79467
2.9155
4.26609
5.23039
7.47854
-0.161652
-0.527008
-0.64126
-1.33438
-0.000354917
-0.0482491
0.129518
0.22254
0.390437
0.402369
0.0627652
-0.0766918
-0.135632
-0.198129
-0.251522
-0.283936
-0.306761
-0.317817
-0.340381
-0.302863
-0.294145
-0.285147
-0.256809
-0.260931
-0.19823
-0.12936
-0.100718
-0.118311
0.269694
0.532593
3.02029
0.880037
-7.07871
-4.17705
-7.25048
8.09976
4.59985
2.00374
1.91297
-1.67866
-0.160783
-6.85499
6.85623
-1.61114
-1.72215
-3.37763
-3.17988
3.61401
-2.81606
3.1593
-3.09416
-3.17138
3.42953
3.44701
-2.71985
-2.5887
-3.0631
-1.50017
1.12268
1.56105
3.48056
2.88863
3.9228
-3.55594
-4.12236
-4.31915
-4.13369
4.538
3.81274
-1.57128
0.345387
1.45344
-2.64286
2.74511
-1.98308
-2.33287
-2.68485
-2.45271
2.59541
2.96289
2.66177
2.1014
-2.51079
-2.60086
-2.2382
-1.13993
0.48693
2.27295
-2.35094
-2.3075
2.68911
2.7614
2.43366
2.38253
2.74919
3.76638
-3.34201
-3.90244
-3.03799
-4.49368
-4.99731
4.46155
2.58221
-1.79395
-1.22809
-0.121494
-0.602668
0.469303
1.16155
0.814601
1.63669
-2.36563
-2.42853
2.38125
2.41864
-1.8703
-1.59556
-1.77
-1.57274
-1.78633
-2.22132
2.37689
2.02467
1.79676
1.88219
1.62251
1.85509
-2.31044
-2.21883
-3.0871
0.0637159
1.74671
-1.45361
1.63983
2.289
2.14098
4.65549
-5.66974
-1.26794
-6.18414
6.48151
5.21796
3.69587
-1.80733
-1.34195
-0.475754
0.334041
1.01715
1.64021
-2.25568
2.20027
-1.56098
-1.10098
-1.57713
1.65136
1.19968
1.60772
-1.82449
-1.99118
-2.03742
-1.87022
-1.04527
-0.78061
-7.7717
-1.38901
6.07922
-0.204488
0.210845
1.22729
1.68909
1.88172
1.89912
1.53561
6.23104
-6.16617
0.746256
2.28143
-7.68222
-1.98091
-1.62928
7.14398
2.36329
-1.70907
-1.69313
-1.27077
-1.55957
-0.64456
-0.937251
0.0798576
-0.198965
0.609044
0.372822
1.23758
0.949571
1.70451
1.46285
-1.76861
-2.05768
-2.14588
1.78118
2.04142
2.03294
1.59466
-1.47702
-0.669494
-0.639489
-1.02978
1.04758
0.765776
0.719472
1.57
-1.06587
-1.48226
-1.30614
-1.04535
-0.387535
-13.4916
-5.21703
-0.417784
3.32178
14.3135
1.00793
-0.992506
1.00558
1.66098
1.08022
10.0357
5.2395
-8.48304
-5.34032
5.30724
-8.80985
0.640041
-4.03948
4.22086
6.05539
-1.72921
-1.10757
-0.59969
-0.118705
0.319331
0.760089
1.3904
-1.9377
-1.46447
1.65285
1.63481
-0.895605
-0.694539
-1.71333
1.34527
0.539008
0.926758
-1.13334
1.26802
-0.328799
-0.6189
-0.547338
-0.789121
-0.601932
-0.705539
-0.578849
-0.464892
-0.249923
-25.2932
-3.80034
3.09413
22.7513
0.0647613
0.47193
1.07378
1.47122
3.31697
-2.85827
-1.4669
-0.954821
-0.425117
0.0332779
0.364426
0.512371
0.447342
0.75032
0.296203
0.393695
0.460887
0.508786
7.81644
12.8092
7.12349
-7.63846
-10.1131
-12.7681
5.3459
6.74718
7.09212
-4.8007
-10.5048
-7.53968
-0.941526
-1.6453
-0.684816
-0.594979
-0.603167
-0.422177
-0.393689
-0.420306
-0.225078
-0.152335
-0.194918
0.0228874
0.0970638
0.0607863
0.251109
0.303574
0.285278
0.443833
0.436808
0.463776
0.774733
1.6032
0.84597
-0.407607
-0.373636
0.588355
0.647867
-1.88214
-2.03295
1.78768
1.81906
1.90718
-0.343387
-0.611232
0.696516
0.512903
-0.654514
0.600835
-0.932756
-0.744509
0.653375
0.82672
-1.44524
-2.98922
-1.49482
1.46375
1.56376
2.43544
2.0397
-2.38764
1.43536
-1.61322
0.0624626
-0.00629899
1.97864
-2.08427
1.24987
-0.819955
1.8065
1.014
0.53144
0.11623
-0.353205
-0.842634
-1.40788
-1.81842
-6.11869
8.8816
-9.7768
9.92668
0.955649
1.26437
0.222999
-2.31834
2.77592
0.109604
10.6691
-13.1683
-0.603023
-1.28228
-1.65941
-1.3225
1.09213
-1.46393
4.80256
-2.62143
-1.10603
1.33092
1.17741
-0.990149
-1.28907
2.12235
2.16054
-2.28622
-2.10645
1.82273
1.38496
0.659508
0.00190423
-0.958629
-1.67472
-1.84929
5.29622
0.990575
-1.90224
-1.24802
-5.2834
3.58261
2.17445
2.11977
1.23722
-1.35641
-1.63057
-2.38638
5.1046
-4.65101
1.85581
2.52174
2.84156
-2.52009
-2.23598
-1.89112
2.57865
-2.57588
0.960925
-0.267068
3.68219
-5.14623
3.27514
-3.26385
3.00327
-2.78861
3.9446
-3.55368
-2.84672
-13.367
-1.48864
-15.8968
-11.16
-1.81199
-8.08944
1.33289
10.303
20.7055
1.99327
12.5956
11.0054
-11.9245
-18.1108
-18.5762
-18.5096
-9.78597
-12.4708
-14.2572
-10.7997
-10.4169
-9.96711
-11.5796
-8.77463
-15.09
-18.8974
-6.40708
-8.82097
10.9009
18.895
17.2158
14.3235
9.8528
12.5438
11.0387
9.41928
10.8407
10.0521
8.90176
11.6461
6.49901
15.2018
18.9936
8.95016
9.92927
0.899441
3.44201
1.13188
30.313
8.25603
34.7276
15.0663
6.28245
-11.6829
-4.6155
-1.01839
-35.6241
-29.6724
-13.6062
-1.47799
-8
-17.8004
9.99937
10.2689
1.94719
6.01975
-1.46954
7.64056
5.48982
-9.37383
-5.40826
-12.8451
1.2317
1.90159
-2.00029
-7.89567
-0.0328819
0.672337
-6.76193
-8.09655
-3.61393
0.859855
5.17745
-3.02055
7.97453
4.87964
13.9111
20.2614
20.1474
13.602
14.733
10.9369
11.1749
1.43777
1.20746
3.6557
-0.0883736
6.51692
0.956309
-0.774916
-2.87366
-5.0166
-1.94985
-8.69208
-2.95684
-12.2317
-19.395
-20.5406
-12.7718
-14.4125
-10.7188
-10.2404
6.95736
8.01262
6.01686
6.26825
-5.40946
-8.63628
-4.06187
-5.68016
5.80948
6.64947
6.14576
5.94726
5.67031
5.49125
6.34158
4.08962
4.80179
5.71891
4.86962
-5.41441
-4.6394
-4.76248
-4.27446
-3.14471
-5.2567
3.18862
3.60324
3.68118
2.67855
2.66603
2.32315
1.95522
1.48119
-1.26518
-0.680559
-0.573211
-0.0871128
0.677516
-0.706281
-2.95877
-3.4988
-2.68717
-4.08858
-2.05997
-1.77909
-2.33823
-1.68179
-1.27878
-1.77839
-0.911548
-1.82761
-2.0688
8.40196
7.2878
8.96459
8.12059
10.8929
12.5763
10.1655
5.43816
7.5048
5.16992
26.3894
30.0402
-5.0795
-7.38637
-5.31444
-8.02537
-25.4568
-29.1673
-10.049
-8.78279
-7.12548
-8.4691
9.65862
1.53635
3.92208
2.77591
4.57533
0.49726
8.31564
4.83057
2.80008
7.3554
7.13862
6.13119
6.12024
9.90709
9.53828
6.70001
10.988
-10.2122
-6.1128
-9.29589
-4.7185
-10.7111
-6.69398
-6.41723
-7.73134
-4.55469
-10.3716
-6.49725
-5.79309
-3.66893
-2.63842
-2.2759
-2.76494
-1.26528
-1.38716
-4.68292
-6.55224
-4.8349
-5.87083
-6.79269
-7.34441
-6.95393
-7.28452
-6.05569
-6.37957
-5.80941
0.44941
1.33595
0.853128
2.26861
-0.42099
0.156555
1.47244
-0.258204
7.47218
9.30296
4.81928
10.7627
8.61589
3.95117
2.53878
3.20446
8.51486
14.9433
12.9062
15.6618
9.73849
12.5249
15.897
9.95205
-21.4493
-33.3809
-24.9612
-14.2004
-24.5037
-53.3211
36.0312
13.1506
24.2786
23.3954
9.74326
50.1881
10.5779
2.32721
2.75487
1.6938
-18.8842
-12.6454
-0.308515
7.55218
4.37578
-3.53261
-4.39409
-0.149035
-7.05264
-4.02986
2.18055
4.45194
-3.24375
-9.3033
8.68576
6.4803
7.58234
6.029
5.3599
4.82843
7.99809
8.054
8.67653
-1.42167
5.31316
3.63875
5.41918
-0.443636
-7.58961
-3.65588
-8.56389
-3.7459
-7.52187
17.2404
3.703
1.6746
-4.80453
-4.90028
8.9301
-5.08099
-4.94503
-8.3631
-2.55226
-4.93149
-8.6397
-9.65549
-4.71931
-0.653367
3.33993
-7.36908
-6.47592
-5.53172
0.252547
0.630231
-0.714585
-1.00979
-2.97152
0.376226
4.45518
-2.2361
1.07652
2.22657
1.57547
3.12973
3.14294
2.91203
7.06399
6.07001
7.02898
6.62681
5.68172
7.61002
-1.88829
-0.800897
1.94352
-2.80609
-0.0424912
5.20916
-6.20352
-7.12764
-5.00138
-6.32974
-3.76642
-8.74563
-8.11655
-7.86288
-5.00738
-6.45053
-7.27033
-7.73314
-3.31592
-5.87452
-6.06733
-4.90334
4.14846
3.15208
4.77885
1.57647
2.29472
4.4773
4.02463
-9.77625
-9.24828
-8.20006
-5.98331
-4.54975
-6.89953
-11.8345
-7.64284
-6.3279
-13.1135
-1.63897
-13.5088
-9.16361
-2.58587
-14.7926
-13.968
-18.2313
-2.75049
-3.60078
-6.10534
-3.83734
-2.7612
-9.61925
-35.2556
-2.33258
-5.56323
18.2232
22.097
16.9857
3.45487
4.2177
6.12927
3.07264
3.16385
2.50242
9.42789
33.2417
7.18837
0.599975
0.0993435
0.200939
0.0621864
-0.074366
-0.0264484
0.264298
1.03359
0.839605
0.481617
0.129384
0.0525321
0.114414
-0.013991
-0.0810957
0.887066
0.175926
0.0199062
0.0881838
0.0152175
-0.0822766
-0.0448378
0.114721
0.338127
0.121132
-0.168937
-0.126251
-0.0128121
-0.171691
0.337201
0.31712
-0.154154
-1.14518
-0.488305
-0.384706
-0.582723
0.256249
0.207143
-0.302522
-1.61901
-1.87207
-2.14528
-1.29468
-0.721281
-1.54838
0.119344
0.0536884
-2.57091
2.37428
0.689345
1.48546
0.55749
-0.33644
-0.397158
1.80754
3.08499
2.17239
1.21567
0.435808
0.491227
0.350263
-0.393138
-0.237974
1.89048
0.234139
0.0309577
0.13621
0.0180541
-0.152698
0.00592913
0.183508
0.333721
0.101199
-0.354628
-0.0700692
-0.0229461
-0.118281
0.289541
0.288306
0.0077266
-0.418502
-0.555856
-0.630341
-0.186236
-0.160586
-0.23643
0.28281
0.259217
-0.128106
-0.924967
-1.00746
0.284765
-0.148831
-0.180221
-0.234607
-1.1234
0.199659
10.2998
5.28046
6.33197
-3.4649
-4.44033
-3.8017
-5.03174
-3.15281
-8.24191
-9.4453
-10.2883
4.23436
4.2865
5.40412
6.92162
3.97776
-0.122765
-5.3874
-0.347128
3.66046
1.44433
1.19771
0.833571
1.34652
0.691652
0.432214
0.757145
1.14638
0.632499
-1.0295
-0.648658
-0.711002
-0.326666
-1.61236
0.747657
0.736028
1.11519
1.77874
0.502405
-0.837141
-0.513456
-0.749014
-0.809272
-1.15645
-0.978105
-0.650707
-1.00499
-1.27952
-1.46594
7.96097
7.49573
-1.83695
-3.14585
-2.74509
-3.89246
-2.03657
-0.386371
-0.312919
-8.75443
-7.69885
1.57064
1.78065
1.8958
2.03168
1.47688
1.09855
1.35555
0.704242
1.48093
1.88511
1.65818
-0.62676
-1.31987
-0.429987
0.193893
0.556193
0.228172
0.462689
0.891926
-0.0309509
1.83006
-0.275568
-0.727022
-0.940046
-0.693099
-0.570793
-0.810115
-0.519086
-0.179451
-0.302433
-1.19087
-1.32997
-1.57184
-1.58337
-1.75694
-2.14506
-1.81088
0.108496
0.739109
1.9872
1.77781
2.06829
2.24733
2.22638
0.875024
0.783704
1.40661
1.91918
1.36545
-1.11147
-0.529282
-0.822647
-1.3457
-1.55721
1.83742
3.09141
3.7235
3.1159
-3.67418
-2.23884
-2.84559
-2.15314
-1.21499
-1.51589
-4.08095
2.43736
2.50108
2.68597
2.98992
2.64149
2.13193
2.16131
2.38388
3.16759
-2.33093
-1.90623
-1.89753
-1.99452
-1.81065
-2.78812
-2.79963
-1.91191
-2.29251
-2.5441
-2.29398
-2.62033
-3.1873
2.75462
2.97527
-1.3153
-1.31781
-1.06649
-1.46337
-1.63772
-2.05062
-1.73058
-1.91189
-0.259674
-0.0711174
-0.140541
-0.0258422
-0.373019
-0.0118208
-0.0205434
-0.215799
0.159923
0.0749431
2.18232
3.56134
3.96619
2.36165
0.0697744
-0.262319
1.3404
0.253064
0
0
0
0
0
0
0
0
0
0
0
0
0
0
0
0
0
0
0
0
0
0
0
0
0
0
0
0
0
0
0
0
0
0
0
0
0
0
0
0
0
0
0
0
0
0
0
0
0
0
0
0
0
0
0
0
0
0
0
0
0
0
0
0
0
0
0
0
0
0
0
0
0
0
0
0
0
0
0
0
0
0
0
0
0
0
0
0
0
0
0
0
0
0
0
0
0
0
0
0
0
0
0
0
0
0
0
0
0
0
0
0
0
0
0
0
0
0
0
0
0
0
0
0
0
0
0
0
0
0
0
0
0
0
0
0
0
0
0
0
0
0
0
0
0
0
0
0
0
0
0
0
0
0
0
0
0
0
0
0
0
0
0
0
0
0
0
0
0
0
0
0
0
0
0
0
0
0
0
0
0
0
0
0
0
0
0
0
0
0
0
0
0
0
0
0
0
0
0
0
0
0
0
0
0
0
0
0
0
0
0
0
0
0
0
0
0
0
0
0
0
0
0
0
0
0
0
0
0
0
0
0
0
0
0
0
0
0
0
0
0
0
0
0
0
0
0
0
0
0
0
0
0
0
0
0
0
0
0
0
0
0
0
0
0
0
0
0
0
0
0
0
0
0
0
0
0
0
0
0
0
0
0
0
0
0
0
0
0
0
0
0
0
0
0
0
0
0
0
0
0
0
0
0
0
0
0
0
0
0
0
0
0
0
0
0
0
0
0
0
0
0
0
0
0
0
0
0
0
0
0
0
0
0
0
0
0
0
0
0
0
0
0
0
0
0
0
0
0
0
0
0
0
0
0
0
0
0
0
0
0
0
0
0
0
0
0
0
0
0
0
0
0
0
0
0
0
0
0
0
0
0
0
0
0
0
0
0
0
0
0
0
0
0
0
0
0
0
0
0
0
0
0
0
0
0
0
0
0
0
0
0
0
0
0
0
0
0
0
0
0
0
0
0
0
0
0
0
0
0
0
0
0
0
0
0
0
0
0
0
0
0
0
0
0
0
0
0
0
0
0
0
0
0
0
0
0
0
0
0
0
0
0
0
0
0
0
0
0
0
0
0
0
0
0
0
0
0
0
0
0
0
0
0
0
0
0
0
0
0
0
0
0
0
0
0
0
0
0
0
0
0
0
0
0
0
0
0
0
0
0
0
0
0
0
0
0
0
0
0
0
0
0
0
0
0
0
0
0
0
0
0
0
0
0
0
0
0
0
0
0
0
0
0
0
0
0
0
0
0
0
0
0
0
0
0
0
0
0
0
0
0
0
0
0
0
0
0
0
0
0
0
0
0
0
0
0
0
0
0
0
0
0
0
0
0
0
0
0
0
0
0
0
0
0
0
0
0
0
0
0
0
0
0
0
0
0
0
0
0
0
0
0
0
0
0
0
0
0
0
0
0
0
0
0
0
0
0
0
0
0
0
0
0
0
0
0
0
0
0
0
0
0
0
0
0
0
0
0
0
0
0
0
0
0
0
0
0
0
0
0
0
0
0
0
0
0
0
0
0
0
0
0
0
0
0
0
0
0
0
0
0
0
0
0
0
0
0
0
0
0
0
0
0
0
0
0
0
0
0
0
0
0
0
0
0
0
0
0
0
0
0
0
0
0
0
0
0
0
0
0
0
0
0
0
0
0
0
0
0
0
0
0
0
0
0
0
0
0
0
0
0
0
0
0
0
0
0
0
0
0
0
0
0
0
0
0
0
0
0
0
0
0
0
0
0
0
0
0
0
0
0
0
0
0
0
0
0
0
0
0
0
0
0
0
0
0
0
0
0
0
0
0
0
0
0
0
0
0
0
0
0
0
0
0
0
0
0
0
0
0
0
0
0
0
0
0
0
0
0
0
0
0
0
0
0
0
0
0
0
0
0
0
0
0
0
0
0
0
0
0
0
0
0
0
0
0
0
0
0
0
0
0
0
0
0
0
0
0
0
0
0
0
0
0
0
0
0
0
0
0
0
0
0
0
0
0
0
0
0
0
0
0
0
0
0
0
0
0
0
0
0
0
0
0
0
0
0
0
0
0
0
0
0
0
0
0
0
0
0
0
0
0
0
0
0
0
0
0
0
0
0
0
0
0
0
0
0
0
0
0
0
0
0
0
0
0
0
0
0
0
0
0
0
0
0
0
0
0
0
0
0
0
0
0
0
0
0
0
0
0
0
0
0
0
0
0
0
0
0
0
0
0
0
0
0
0
0
0
0
0
0
0
0
0
0
0
0
0
0
0
0
0
0
0
0
0
0
0
0
0
0
0
0
0
0
0
0
0
0
0
0
0
0
0
0
0
0
0
0
0
0
0
0
0
0
0
0
0
0
0
0
0
0
0
0
0
0
0
0
0
0
0
0
0
0
0
0
0
0
0
0
0
0
0
0
0
0
0
0
0
0
0
0
0
0
0
0
0
0
0
0
0
0
0
0
0
0
0
0
0
0
0
0
0
0
0
0
0
0
0
0
0
0
0
0
0
0
0
0
0
0
0
0
0
0
0
0
0
0
0
0
0
0
0
0
0
0
0
0
0
0
0
0
0
0
0
0
0
0
0
0
0
0
0
0
0
0
0
0
0
0
0
0
0
0
0
0
0
0
0
0
0
0
0
0
0
0
0
0
0
0
0
0
0
0
0
0
0
0
0
0
0
0
0
0
0
0
0
0
0
0
0
0
0
0
0
0
0
0
0
0
0
0
0
0
0
0
0
0
0
0
0
0
0
0
0
0
0
0
0
0
0
0
0
0
0
0
0
0
0
0
0
0
0
0
0
0
0
0
0
0
0
0
0
0
0
0
0
0
0
0
0
0
0
0
0
0
0
0
0
0
0
0
0
0
0
0
0
0
0
0
0
0
0
0
0
0
0
0
0
0
0
0
0
0
0
0
0
0
0
0
0
0
0
0
0
0
0
0
0
0
0
0
0
0
0
0
0
0
0
0
0
0
0
0
0
0
0
0
0
0
0
0
0
0
0
0
0
0
0
0
0
0
0
0
0
0
0
0
0
0
0
0
0
0
0
0
0
0
0
0
0
0
0
0
0
0
0
0
0
0
0
0
0
0
0
0
0
0
0
0
0
0
0
0
0
0
0
0
0
0
0
0
0
0
0
0
0
0
0
0
0
0
0
0
0
0
0
0
0
0
0
0
0
0
0
0
0
0
0
0
0
0
0
0
0
0
0
0
0
0
0
0
0
0
0
0
0
0
0
0
0
0
0
0
0
0
0
0
0
0
0
0
0
0
0
0
0
0
0
0
0
0
0
0
0
0
0
0
0
0
0
0
0
0
0
0
0
0
0
0
0
0
0
0
0
0
0
0
0
0
0
0
0
0
0
0
0
0
0
0
0
0
0
0
0
0
0
0
0
0
0
0
0
0
0
0
0
0
0
0
0
0
0
0
0
0
0
0
0
0
0
0
0
0
0
0
0
0
0
0
0
0
0
0
0
0
0
0
0
0
0
0
0
0
0
0
0
0
0
0
0
0
0
0
0
0
0
0
0
0
0
0
0
0
0
0
0
0
0
0
0
0
0
0
0
0
0
0
0
0
0
0
0
0
0
0
0
0
0
0
0
0
0
0
0
0
0
0
0
0
0
0
0
0
0
0
0
0
0
0
0
0
0
0
0
0
0
0
0
0
0
0
0
0
0
0
0
0
0
0
0
0
0
0
0
0
0
0
0
0
0
0
0
0
0
0
0
0
0
0
0
0
0
0
0
0
0
0
0
0
0
0
0
0
0
0
0
0
0
0
0
0
0
0
0
0
0
0
0
0
0
0
0
0
0
0
0
0
0
0
0
0
0
0
0
0
0
0
0
0
0
0
0
0
0
0
0
0
0
0
0
0
0
0
0
0
0
0
0
0
0
0
0
0
0
0
0
0
0
0
0
0
0
0
0
0
0
0
0
0
0
0
0
0
0
0
0
0
0
0
0
0
0
0
0
0
0
0
0
0
0
0
0
0
0
0
0
0
0
0
0
0
0
0
0
0
0
0
0
0
0
0
0
0
0
0
0
0
0
0
0
0
0
0
0
0
0
0
0
0
0
0
0
0
0
0
0
0
0
0
0
0
0
0
0
0
0
0
0
0
0
0
0
0
0
0
0
0
0
0
0
0
0
0
0
0
0
0
0
0
0
0
0
0
0
0
0
0
0
0
0
0
0
0
0
0
0
0
0
0
0
0
0
0
0
0
0
0
0
0
0
0
0
0
0
0
0
0
0
0
0
0
0
0
0
0
0
0
0
0
0
0
0
0
0
0
0
0
0
0
0
0
0
0
0
0
0
0
0
0
0
0
0
0
0
0
0
0
0
0
0
0
0
0
0
0
0
0
0
0
0
0
0
0
0
0
0
0
0
0
0
0
0
0
0
0
0
0
0
0
0
0
0
0
0
0
0
0
0
0
0
0
0
0
0
0
0
0
0
0
0
0
0
0
0
0
0
0
0
0
0
0
0
0
0
0
0
0
0
0
0
0
0
0
0
0
0
0
0
0
0
0
0
0
0
0
0
0
0
0
0
0
0
0
0
0
0
0
0
0
0
0
0
0
0
0
0
0
0
0
0
0
0
0
0
0
0
0
0
0
0
0
0
0
0
0
0
0
0
0
0
0
0
0
0
0
0
0
0
0
0
0
0
0
0
0
0
0
0
0
0
0
0
0
0
0
0
0
0
0
0
0
0
0
0
0
0
0
0
0
0
0
0
0
0
0
0
0
0
0
0
0
0
0
0
0
0
0
0
0
0
0
0
0
0
0
0
0
0
0
0
0
0
0
0
0
0
0
0
0
0
0
0
0
0
0
0
0
0
0
0
0
0
0
0
0
0
0
0
0
0
0
0
0
0
0
0
0
0
0
0
0
0
0
0
0
0
0
0
0
0
0
0
0
0
0
0
0
0
0
0
0
0
0
0
0
0
0
0
0
0
0
0
0
0
0
0
0
0
0
0
0
0
0
0
0
0
0
0
0
0
0
0
0
0
0
0
0
0
0
0
0
0
0
0
0
0
0
0
0
0
0
0
0
0
0
0
0
0
0
0
0
0
0
0
0
0
0
0
0
0
0
0
0
0
0
0
0
0
0
0
0
0
0
0
0
0
0
0
0
0
0
0
0
0
0
0
0
0
0
0
0
0
0
0
0
0
0
0
0
0
0
0
0
0
0
      </DataArray> 
      <DataArray type="Float64" NumberOfComponents="1" Name="NormalFibers" format="ascii">
0
0
0
0
0
0
0
0
0
0
0
0
0
0
0
0
0
0
0
0
0
0
0
0
0
0
0
0
0
0
0
0
0
0
0
0
0
0
0
0
0
0
0
0
0
0
0
0
0
0
0
0
0
0
0
0
0
0
0
0
0
0
0
0
0
0
0
0
0
0
0
0
0
0
0
0
0
0
0
0
0
0
0
0
0
0
0
0
0
0
0
0
0
0
0
0
0
0
0
0
0
0
0
0
0
0
0
0
0
0
0
0
0
0
0
0
0
0
0
0
0
0
0
0
0
0
0
0
0
0
0
0
0
0
0
0
0
0
0
0
0
0
0
0
0
0
0
0
0
0
0
0
0
0
0
0
0
0
0
0
0
0
0
0
0
0
0
0
0
0
0
0
0
0
0
0
0
0
0
0
0
0
0
0
0
0
0
0
0
0
0
0
0
0
0
0
0
0
0
0
0
0
0
0
0
0
0
0
0
0
0
0
0
0
0
0
0
0
0
0
0
0
0
0
0
0
0
0
0
0
0
0
0
0
0
0
0
0
0
0
0
0
0
0
0
0
0
0
0
0
0
0
0
0
0
0
0
0
0
0
0
0
0
0
0
0
0
0
0
0
0
0
0
0
0
0
0
0
0
0
0
0
0
0
0
0
0
0
0
0
0
0
0
0
0
0
0
0
0
0
0
0
0
0
0
0
0
0
0
0
0
0
0
0
0
0
0
0
0
0
0
0
0
0
0
0
0
0
0
0
0
0
0
0
0
0
0
0
0
0
0
0
0
0
0
0
0
0
0
0
0
0
0
0
0
0
0
0
0
0
0
0
0
0
0
0
0
0
0
0
0
0
0
0
0
0
0
0
0
0
0
0
0
0
0
0
0
0
0
0
0
0
0
0
0
0
0
0
0
0
0
0
0
0
0
0
0
0
0
0
0
0
0
0
0
0
0
0
0
0
0
0
0
0
0
0
0
0
0
0
0
0
0
0
0
0
0
0
0
0
0
0
0
0
0
0
0
0
0
0
0
0
0
0
0
0
0
0
0
0
0
0
0
0
0
0
0
0
0
0
0
0
0
0
0
0
0
0
0
0
0
0
0
0
0
0
0
0
0
0
0
0
0
0
0
0
0
0
0
0
0
0
0
0
0
0
0
0
0
0
0
0
0
0
0
0
0
0
0
0
0
0
0
0
0
0
0
0
0
0
0
0
0
0
0
0
0
0
0
0
0
0
0
0
0
0
0
0
0
0
0
0
0
0
0
0
0
0
0
0
0
0
0
0
0
0
0
0
0
0
0
0
0
0
0
0
0
0
0
0
0
0
0
0
0
0
0
0
0
0
0
0
0
0
0
0
0
0
0
0
0
0
0
0
0
0
0
0
0
0
0
0
0
0
0
0
0
0
0
0
0
0
0
0
0
0
0
0
0
0
0
0
0
0
0
0
0
0
0
0
0
0
0
0
0
0
0
0
0
0
0
0
0
0
0
0
0
0
0
0
0
0
0
0
0
0
0
0
0
0
0
0
0
0
0
0
0
0
0
0
0
0
0
0
0
0
0
0
0
0
0
0
0
0
0
0
0
0
0
0
0
0
0
0
0
0
0
0
0
0
0
0
0
0
0
0
0
0
0
0
0
0
0
0
0
0
0
0
0
0
0
0
0
0
0
0
0
0
0
0
0
0
0
0
0
0
0
0
0
0
0
0
0
0
0
0
0
0
0
0
0
0
0
0
0
0
0
0
0
0
0
0
0
0
0
0
0
0
0
0
0
0
0
0
0
0
0
0
0
0
0
0
0
0
0
0
0
0
0
0
0
0
0
0
0
0
0
0
0
0
0
0
0
0
0
0
0
0
0
0
0
0
0
0
0
0
0
0
0
0
0
0
0
0
0
0
0
0
0
0
0
0
0
0
0
0
0
0
0
0
0
0
0
0
0
0
0
0
0
0
0
0
0
0
0
0
0
0
0
0
0
0
0
0
0
0
0
0
0
0
0
0
0
0
0
0
0
0
0
0
0
0
0
0
0
0
0
0
0
0
0
0
0
0
0
0
0
0
0
0
0
0
0
0
0
0
0
0
0
0
0
0
0
0
0
0
0
0
0
0
0
0
0
0
0
0
0
0
0
0
0
0
0
0
0
0
0
0
0
0
0
0
0
0
0
0
0
0
0
0
0
0
0
0
0
0
0
0
0
0
0
0
0
0
0
0
0
0
0
0
0
0
0
0
0
0
0
0
0
0
0
0
0
0
0
0
0
0
0
0
0
0
0
0
0
0
0
0
0
0
0
0
0
0
0
0
0
0
0
0
0
0
0
0
0
0
0
0
0
0
0
0
0
0
0
0
0
0
0
0
0
0
0
0
0
0
0
0
0
0
0
0
0
0
0
0
0
0
0
0
0
0
0
0
0
0
0
0
0
0
0
0
0
0
0
0
0
0
0
0
0
0
0
0
0
0
0
0
0
0
0
0
0
0
0
0
0
0
0
0
0
0
0
0
0
0
0
0
0
0
0
0
0
0
0
0
0
0
0
0
0
0
0
0
0
0
0
0
0
0
0
0
0
0
0
0
0
0
0
0
0
0
0
0
0
0
0
0
0
0
0
0
0
0
0
0
0
0
0
0
0
0
0
0
0
0
0
0
0
0
0
0
0
0
0
0
0
0
0
0
0
0
0
0
0
0
0
0
0
0
0
0
0
0
0
0
0
0
0
0.00360928
0.00360928
0.0186344
0.0186344
-0.0604543
-0.0604543
-0.0304902
-0.0304902
-0.00182006
-0.00182006
-0.0289914
-0.0289914
0.00176283
0.00176283
0.0134556
0.0134556
-0.0746319
-0.0746319
-0.00952794
-0.00952794
-0.0250606
-0.0250606
-0.0373653
-0.0373653
-0.0639621
-0.0639621
0.0164103
0.0164103
-0.0303712
-0.0303712
0.0426591
0.0426591
-0.025726
-0.025726
-0.00218513
-0.00218513
0.0248725
0.0248725
-0.0158418
-0.0158418
-0.00898265
-0.00898265
-0.0382565
-0.0382565
-0.146309
-0.146309
-0.0146346
-0.0146346
-0.01881
-0.01881
-0.0131126
-0.0131126
-0.00916463
-0.00916463
-0.00194696
-0.00194696
-0.0733903
-0.0733903
0.00628537
0.00628537
0.00607201
0.00607201
0.00725146
0.00725146
-0.0988864
-0.0988864
-0.0160748
-0.0160748
-0.110433
-0.110433
-0.00602424
-0.00602424
-0.0237408
-0.0237408
-0.00833589
-0.00833589
0.00511768
0.00511768
-0.028635
-0.028635
-0.0215971
-0.0215971
0.0357029
0.0357029
-0.0336346
-0.0336346
-0.0303651
-0.0303651
-0.105758
-0.105758
-0.0291295
-0.0291295
-0.0171526
-0.0171526
-0.0183563
-0.0183563
-0.0121701
-0.0121701
-0.0113252
-0.0113252
0.0522273
0.0522273
-0.0169578
-0.0169578
0.00997607
0.00997607
-0.086946
-0.086946
-0.0032296
-0.0032296
-0.00889435
-0.00889435
-0.0437085
-0.0437085
-0.0549748
-0.0549748
-0.0035892
-0.0035892
-0.0113202
-0.0113202
-0.042675
-0.042675
0.0308839
0.0308839
0.000216684
0.000216684
-0.0419214
-0.0419214
-0.0308362
-0.0308362
-0.0307614
-0.0307614
-0.0314302
-0.0314302
0.0294241
0.0294241
0.040887
0.040887
-0.0682407
-0.0682407
-0.0469832
-0.0469832
-0.0150891
-0.0150891
-0.112914
-0.112914
0.0274368
0.0274368
-0.0566469
-0.0566469
-0.000264024
-0.000264024
-0.0169907
-0.0169907
-0.00211788
-0.00211788
-0.0436466
-0.0436466
-0.0323468
-0.0323468
-0.0734993
-0.0734993
0.00701412
0.00701412
-0.0394331
-0.0394331
-0.103466
-0.103466
-0.0649684
-0.0649684
-0.0523128
-0.0523128
-0.0145656
-0.0145656
-0.0043593
-0.0043593
0.0152327
0.0152327
-0.00323898
-0.00323898
-0.01485
-0.01485
-0.000674499
-0.000674499
0.0266196
0.0266196
-0.0554939
-0.0554939
-0.0869568
-0.0869568
-0.00624091
-0.00624091
0.00395443
0.00395443
-0.0221341
-0.0221341
-0.136177
-0.136177
-0.0291261
-0.0291261
-0.000793046
-0.000793046
-0.0374119
-0.0374119
-0.0154715
-0.0154715
-0.0297153
-0.0297153
-0.00558078
-0.00558078
0.00518845
0.00518845
-0.102184
-0.102184
-0.0253687
-0.0253687
-0.0175508
-0.0175508
-0.0200546
-0.0200546
-0.0640844
-0.0640844
0.0500825
0.0500825
0.0326276
0.0326276
0.00758064
0.00758064
0.0252154
0.0252154
-0.00622864
-0.00622864
-0.00295325
-0.00295325
-0.0444123
-0.0444123
-0.0704803
-0.0704803
0.00735797
0.00735797
-0.00315309
-0.00315309
-0.013666
-0.013666
0.00765036
0.00765036
-0.0224955
-0.0224955
-0.0361463
-0.0361463
-0.0821511
-0.0821511
-0.00293778
-0.00293778
-0.00362238
-0.00362238
0.0022058
0.0022058
-0.105652
-0.105652
-0.0544733
-0.0544733
0.0179763
0.0179763
0.00280967
0.00280967
-0.0140659
-0.0140659
0.0301416
0.0301416
-0.0188892
-0.0188892
-0.00327227
-0.00327227
-0.0403937
-0.0403937
-0.0466113
-0.0466113
-0.0159927
-0.0159927
-0.00537229
-0.00537229
-0.0225743
-0.0225743
-0.00366304
-0.00366304
-0.0114105
-0.0114105
-0.00836522
-0.00836522
-0.00466007
-0.00466007
-0.0148764
-0.0148764
0.00878523
0.00878523
-0.0135998
-0.0135998
-0.0457468
-0.0457468
-0.00873653
-0.00873653
-0.00518163
-0.00518163
0.0121331
0.0121331
-0.0872236
-0.0872236
-0.0754903
-0.0754903
-0.206334
-0.206334
-0.102171
-0.102171
-0.0780827
-0.0780827
0.00135621
0.00135621
-0.0138024
-0.0138024
-0.0398989
-0.0398989
0.0278499
0.0278499
-0.0188287
-0.0188287
0.0197036
0.0197036
-0.00382326
-0.00382326
-0.0255449
-0.0255449
-0.0425625
-0.0425625
0.0148152
0.0148152
-0.0349527
-0.0349527
-0.0208452
-0.0208452
-0.0153849
-0.0153849
-0.0498078
-0.0498078
-0.0477213
-0.0477213
-0.00641201
-0.00641201
0.00315775
0.00315775
-0.0294405
-0.0294405
-0.00824494
-0.00824494
-0.0400758
-0.0400758
-0.0355682
-0.0355682
-0.0487223
-0.0487223
-0.00641558
-0.00641558
-0.0091536
-0.0091536
-0.00087678
-0.00087678
-0.0926379
-0.0926379
-0.0525615
-0.0525615
-0.105549
-0.105549
-0.00465942
-0.00465942
-0.00561763
-0.00561763
0.0189272
0.0189272
0.00911468
0.00911468
0.0211942
0.0211942
0.0370779
0.0370779
-0.0328742
-0.0328742
-0.0356252
-0.0356252
0.00187303
0.00187303
-0.0114385
-0.0114385
-0.000671194
-0.000671194
-0.00893282
-0.00893282
-0.023234
-0.023234
0.0107396
0.0107396
-0.0137008
-0.0137008
-0.0705767
-0.0705767
-0.00574463
-0.00574463
0.0239094
0.0239094
-0.0107525
-0.0107525
-0.140604
-0.140604
0.0237292
0.0237292
0.00612576
0.00612576
-0.0104078
-0.0104078
-0.0530651
-0.0530651
-0.00266005
-0.00266005
-0.00990763
-0.00990763
-0.0595695
-0.0595695
-0.027686
-0.027686
0.02373
0.02373
-0.0131738
-0.0131738
-0.0269449
-0.0269449
-0.0679136
-0.0679136
0.0396411
0.0396411
0.0391764
0.0391764
-0.00192672
-0.00192672
-0.0825246
-0.0825246
0.00926755
0.00926755
-0.0209474
-0.0209474
-0.0319718
-0.0319718
-0.00585682
-0.00585682
0.00018149
0.00018149
-0.00917396
-0.00917396
-0.0650852
-0.0650852
-0.0202202
-0.0202202
-0.00634221
-0.00634221
-0.00508286
-0.00508286
-0.0208058
-0.0208058
-0.083924
-0.083924
0.00229437
0.00229437
-0.0178035
-0.0178035
-0.0252648
-0.0252648
-0.106263
-0.106263
-0.0751321
-0.0751321
-0.064959
-0.064959
-0.0192347
-0.0192347
-0.00442948
-0.00442948
-0.00393408
-0.00393408
0.042647
0.042647
-0.00186439
-0.00186439
-0.00833069
-0.00833069
-0.00503386
-0.00503386
0.0387208
0.0387208
-0.0751854
-0.0751854
-0.0337291
-0.0337291
-0.00543189
-0.00543189
-0.101116
-0.101116
-0.102821
-0.102821
-0.00399463
-0.00399463
-0.114294
-0.114294
-0.00111455
-0.00111455
-0.0665882
-0.0665882
0.0204017
0.0204017
-0.00977175
-0.00977175
-0.000359595
-0.000359595
-0.0167114
-0.0167114
-0.154154
-0.154154
-0.0193435
-0.0193435
-0.00897147
-0.00897147
-0.0202034
-0.0202034
-0.0691744
-0.0691744
-0.0324265
-0.0324265
-0.0316969
-0.0316969
0.0467138
0.0467138
-0.00619831
-0.00619831
-0.0779901
-0.0779901
-0.00938179
-0.00938179
-0.00398909
-0.00398909
-0.101715
-0.101715
-0.0139463
-0.0139463
-0.0822216
-0.0822216
-0.0102434
-0.0102434
-0.00191416
-0.00191416
-0.0395353
-0.0395353
0.0152607
0.0152607
0.000930083
0.000930083
-0.0244743
-0.0244743
-0.0306944
-0.0306944
-0.0217792
-0.0217792
-0.0394661
-0.0394661
-0.0936793
-0.0936793
0.030157
0.030157
-0.0825586
-0.0825586
0.00439544
0.00439544
-0.0970044
-0.0970044
-0.0288661
-0.0288661
-0.0386643
-0.0386643
-0.00540586
-0.00540586
0.0171006
0.0171006
-0.111202
-0.111202
0.0222519
0.0222519
0.00813642
0.00813642
0.0434282
0.0434282
-0.0936521
-0.0936521
-0.028207
-0.028207
-0.00171408
-0.00171408
-0.0499673
-0.0499673
-0.0695746
-0.0695746
-0.0193659
-0.0193659
-0.0855266
-0.0855266
-0.0336743
-0.0336743
-0.00997457
-0.00997457
-0.015694
-0.015694
0.0175514
0.0175514
-0.0765781
-0.0765781
0.0298536
0.0298536
-0.0244339
-0.0244339
0.000339448
0.000339448
-0.0305
-0.0305
0.00469352
0.00469352
0.0163032
0.0163032
-0.0279169
-0.0279169
-0.0470758
-0.0470758
-0.0710471
-0.0710471
0.00406562
0.00406562
-0.103923
-0.103923
0.0199245
0.0199245
-0.0134384
-0.0134384
-0.0416332
-0.0416332
-0.0662737
-0.0662737
-0.0904216
-0.0904216
-0.0845881
-0.0845881
-0.0111829
-0.0111829
-0.0404279
-0.0404279
-0.000597509
-0.000597509
-0.00635067
-0.00635067
-0.113904
-0.113904
-0.0121558
-0.0121558
0.0363059
0.0363059
0.017383
0.017383
-0.0134173
-0.0134173
-0.000775744
-0.000775744
0.000569629
0.000569629
-0.000403454
-0.000403454
-0.0329557
-0.0329557
-0.0312749
-0.0312749
0.0080411
0.0080411
-0.00511828
-0.00511828
-0.0474332
-0.0474332
0.010335
0.010335
-0.0250144
-0.0250144
-0.0167874
-0.0167874
-0.0190369
-0.0190369
-0.00858759
-0.00858759
-0.00848582
-0.00848582
-0.0587822
-0.0587822
-0.00618504
-0.00618504
0.00392614
0.00392614
-0.00328951
-0.00328951
0.0390211
0.0390211
-0.047296
-0.047296
-0.0383793
-0.0383793
-0.0340721
-0.0340721
-0.0394304
-0.0394304
-0.0141108
-0.0141108
-0.0593098
-0.0593098
-0.0642012
-0.0642012
-0.0297839
-0.0297839
-0.123277
-0.123277
0.0192547
0.0192547
-0.00909296
-0.00909296
-0.00575045
-0.00575045
0.0397153
0.0397153
0.0192968
0.0192968
-0.00583742
-0.00583742
-0.000121539
-0.000121539
-0.0107774
-0.0107774
-0.0123863
-0.0123863
-0.0471425
-0.0471425
-0.0317879
-0.0317879
-0.0313453
-0.0313453
-0.0280294
-0.0280294
-0.0418683
-0.0418683
-0.0101071
-0.0101071
0.0104642
0.0104642
0.0290746
0.0290746
-0.019814
-0.019814
-0.0302193
-0.0302193
-0.0124502
-0.0124502
-0.177236
-0.177236
0.00492833
0.00492833
0.0192915
0.0192915
-0.0943611
-0.0943611
0.0229545
0.0229545
-0.0149296
-0.0149296
0.0122941
0.0122941
-0.162903
-0.162903
-0.0198961
-0.0198961
0.0181906
0.0181906
-0.115881
-0.115881
-0.0548237
-0.0548237
-0.0299939
-0.0299939
-0.116722
-0.116722
-0.0114721
-0.0114721
-0.0110415
-0.0110415
-0.0385607
-0.0385607
-0.161409
-0.161409
-0.0401131
-0.0401131
-0.00433625
-0.00433625
-0.0126372
-0.0126372
0.00295227
0.00295227
-0.0810228
-0.0810228
-0.0427705
-0.0427705
0.00674983
0.00674983
-0.0369652
-0.0369652
-0.0145241
-0.0145241
-0.0131473
-0.0131473
-0.0608196
-0.0608196
-0.0663739
-0.0663739
-0.0948881
-0.0948881
-0.00131123
-0.00131123
-0.0219099
-0.0219099
-0.0362561
-0.0362561
-0.0202098
-0.0202098
-0.0233918
-0.0233918
0.00227409
0.00227409
-0.0319954
-0.0319954
0.0127591
0.0127591
-0.0233058
-0.0233058
-0.0182745
-0.0182745
-0.00738618
-0.00738618
0.0223791
0.0223791
-0.0515919
-0.0515919
-0.0662626
-0.0662626
-0.00685758
-0.00685758
-0.0752073
-0.0752073
-0.0175778
-0.0175778
-0.11658
-0.11658
-0.193984
-0.193984
0.0114279
0.0114279
0.021716
0.021716
0.0115647
0.0115647
-0.0464057
-0.0464057
0.000364822
0.000364822
-0.00222677
-0.00222677
-0.0799288
-0.0799288
-0.00549463
-0.00549463
-0.00609835
-0.00609835
0.00334821
0.00334821
-0.00400207
-0.00400207
-0.0471855
-0.0471855
-0.128736
-0.128736
-0.00274691
-0.00274691
-0.000192385
-0.000192385
-0.0129711
-0.0129711
-0.0142998
-0.0142998
-0.0968021
-0.0968021
-0.00488754
-0.00488754
-0.0738761
-0.0738761
0.00357546
0.00357546
-0.0347966
-0.0347966
-0.0230211
-0.0230211
0.0134261
0.0134261
-0.0197907
-0.0197907
0.00776512
0.00776512
0.00681214
0.00681214
-0.0183281
-0.0183281
-0.00332699
-0.00332699
-0.0251778
-0.0251778
-0.0268395
-0.0268395
-0.00888643
-0.00888643
0.0219366
0.0219366
-0.0205314
-0.0205314
-0.0322177
-0.0322177
0.0217244
0.0217244
-0.00480728
-0.00480728
-0.0578252
-0.0578252
-0.00260413
-0.00260413
-0.0372852
-0.0372852
-0.110723
-0.110723
-0.0146477
-0.0146477
-0.0275344
-0.0275344
-0.0487281
-0.0487281
0.0322366
0.0322366
0.0119395
0.0119395
-0.0268814
-0.0268814
0.00827627
0.00827627
-0.00358658
-0.00358658
-0.0297562
-0.0297562
-0.0253028
-0.0253028
-0.0236736
-0.0236736
-0.00600144
-0.00600144
9.32863e-05
9.32863e-05
-0.0218431
-0.0218431
-0.0227014
-0.0227014
-0.00816876
-0.00816876
-0.0155575
-0.0155575
-0.160241
-0.160241
-0.00568397
-0.00568397
-0.0191273
-0.0191273
-0.0246311
-0.0246311
-0.010733
-0.010733
0.0118644
0.0118644
-0.0142963
-0.0142963
-0.022771
-0.022771
0.011003
0.011003
0.00360895
0.00360895
-0.0379751
-0.0379751
-0.0286409
-0.0286409
-0.0724144
-0.0724144
-0.0119997
-0.0119997
0.00284324
0.00284324
-0.00938949
-0.00938949
-0.00728466
-0.00728466
-0.0440466
-0.0440466
-0.00533167
-0.00533167
-0.0151661
-0.0151661
-0.0139559
-0.0139559
-0.0824211
-0.0824211
-0.00864332
-0.00864332
-0.009884
-0.009884
-0.0219885
-0.0219885
-0.0685407
-0.0685407
-0.002315
-0.002315
-0.0773993
-0.0773993
-0.00242945
-0.00242945
-0.0994969
-0.0994969
-0.0827609
-0.0827609
-0.000653273
-0.000653273
0.0203089
0.0203089
0.00659728
0.00659728
-0.0608314
-0.0608314
-0.00183454
-0.00183454
-0.0176266
-0.0176266
-0.094084
-0.094084
0.0254297
0.0254297
-0.0605723
-0.0605723
-0.0213091
-0.0213091
-0.0565626
-0.0565626
-0.0787495
-0.0787495
0.0339618
0.0339618
-0.0125498
-0.0125498
-0.0312507
-0.0312507
-0.00740839
-0.00740839
-0.0334002
-0.0334002
-0.00807438
-0.00807438
-0.0106735
-0.0106735
-0.0212791
-0.0212791
-0.0580406
-0.0580406
-0.0379528
-0.0379528
0.00375807
0.00375807
-0.0642367
-0.0642367
-0.0277527
-0.0277527
-0.0325085
-0.0325085
-0.04943
-0.04943
-0.0633449
-0.0633449
-0.0392275
-0.0392275
0.0125483
0.0125483
-0.144929
-0.144929
0.0075688
0.0075688
-0.0372932
-0.0372932
-0.0171934
-0.0171934
-0.0910598
-0.0910598
-0.0535634
-0.0535634
0.0271587
0.0271587
-0.0475897
-0.0475897
-0.0697534
-0.0697534
-0.0209207
-0.0209207
-0.0604809
-0.0604809
-0.096814
-0.096814
0.0299066
0.0299066
-0.0219223
-0.0219223
6.72364e-05
6.72364e-05
-0.00810168
-0.00810168
-0.0836254
-0.0836254
-0.0807566
-0.0807566
-0.00411835
-0.00411835
-0.0239723
-0.0239723
0.0155174
0.0155174
-0.0584951
-0.0584951
-0.00451122
-0.00451122
-0.131521
-0.131521
-0.0952057
-0.0952057
-0.0143699
-0.0143699
-0.0155006
-0.0155006
-0.079644
-0.079644
-0.0312286
-0.0312286
0.0470069
0.0470069
-0.0684696
-0.0684696
0.0437741
0.0437741
-0.0177469
-0.0177469
-0.0168942
-0.0168942
-0.0770182
-0.0770182
-0.0105573
-0.0105573
-0.00253931
-0.00253931
-0.0152727
-0.0152727
-0.0224424
-0.0224424
-0.0181126
-0.0181126
-0.0182788
-0.0182788
0.000967624
0.000967624
-0.0122936
-0.0122936
-0.0486857
-0.0486857
-0.0162804
-0.0162804
-0.0195487
-0.0195487
-0.0141539
-0.0141539
-0.00664609
-0.00664609
-0.0235681
-0.0235681
0.00838885
0.00838885
-0.016402
-0.016402
0.00303119
0.00303119
-0.00984428
-0.00984428
-0.105734
-0.105734
-0.0190852
-0.0190852
-0.031374
-0.031374
0.0169418
0.0169418
-0.0085575
-0.0085575
0.00594633
0.00594633
-0.0179256
-0.0179256
-0.0845786
-0.0845786
-0.00636867
-0.00636867
-0.0707102
-0.0707102
-0.0157061
-0.0157061
-0.00315063
-0.00315063
-0.0180397
-0.0180397
-0.0186449
-0.0186449
-0.0168925
-0.0168925
-0.0239515
-0.0239515
-0.0360812
-0.0360812
0.0356368
0.0356368
0.0010873
0.0010873
-0.00255777
-0.00255777
-0.0367606
-0.0367606
0.0219405
0.0219405
-0.0100554
-0.0100554
-0.00560624
-0.00560624
-0.0202459
-0.0202459
-0.0169242
-0.0169242
-0.00269042
-0.00269042
-0.0125484
-0.0125484
-0.000689766
-0.000689766
-0.00695059
-0.00695059
-0.0242568
-0.0242568
0.00469375
0.00469375
-0.0461891
-0.0461891
-0.0225724
-0.0225724
0.045583
0.045583
-0.00614804
-0.00614804
0.0144724
0.0144724
-0.0137647
-0.0137647
-0.12456
-0.12456
-0.10542
-0.10542
-0.0454345
-0.0454345
0.0275997
0.0275997
-0.069749
-0.069749
-0.00184316
-0.00184316
-0.00769474
-0.00769474
-0.00875034
-0.00875034
-0.00233618
-0.00233618
-0.0184992
-0.0184992
-0.0234011
-0.0234011
-0.0068627
-0.0068627
-0.0342611
-0.0342611
-0.155586
-0.155586
-0.0121871
-0.0121871
-0.0184785
-0.0184785
-0.0127766
-0.0127766
-0.0427656
-0.0427656
0.0134298
0.0134298
-0.070076
-0.070076
-0.00332236
-0.00332236
0.0198378
0.0198378
-0.00344549
-0.00344549
-0.0085702
-0.0085702
-0.108697
-0.108697
-0.108559
-0.108559
-0.0939925
-0.0939925
-0.0018873
-0.0018873
0.00443569
0.00443569
-0.0213678
-0.0213678
-0.00533989
-0.00533989
-0.0072993
-0.0072993
-0.0080124
-0.0080124
-0.0043233
-0.0043233
0.0255573
0.0255573
-0.116507
-0.116507
-0.00720124
-0.00720124
-0.000743051
-0.000743051
-0.00443326
-0.00443326
-0.0103637
-0.0103637
-0.00501001
-0.00501001
0.00871251
0.00871251
-0.06549
-0.06549
-0.0139811
-0.0139811
-0.0372144
-0.0372144
-0.0709349
-0.0709349
-0.024113
-0.024113
-0.0948544
-0.0948544
-0.0317962
-0.0317962
-0.0304835
-0.0304835
-0.00226816
-0.00226816
-0.0112562
-0.0112562
0.02515
0.02515
0.0366029
0.0366029
-0.00762552
-0.00762552
-0.00407339
-0.00407339
0.00786127
0.00786127
-0.0492729
-0.0492729
-0.00464027
-0.00464027
0.0185147
0.0185147
-0.0175951
-0.0175951
3.82729e-05
3.82729e-05
-0.00697923
-0.00697923
-0.0102519
-0.0102519
-0.0908045
-0.0908045
0.0364024
0.0364024
-0.00520409
-0.00520409
-0.0333799
-0.0333799
-0.0502116
-0.0502116
-0.0552014
-0.0552014
-0.00753606
-0.00753606
-0.00393361
-0.00393361
-0.067652
-0.067652
0.00922788
0.00922788
-0.0900563
-0.0900563
-0.117844
-0.117844
0.00935428
0.00935428
-0.00769738
-0.00769738
-0.0838576
-0.0838576
-0.015976
-0.015976
-0.0209666
-0.0209666
-0.034928
-0.034928
-0.0117706
-0.0117706
0.0187103
0.0187103
-0.078404
-0.078404
-0.0309486
-0.0309486
0.0120952
0.0120952
-0.0685183
-0.0685183
-0.0189822
-0.0189822
-0.0159015
-0.0159015
-0.00683036
-0.00683036
-0.00506086
-0.00506086
-0.0219064
-0.0219064
-0.0408384
-0.0408384
-0.00791261
-0.00791261
0.0201539
0.0201539
-0.190832
-0.190832
0.00233562
0.00233562
-0.0101332
-0.0101332
-0.0277007
-0.0277007
0.0120973
0.0120973
-0.0265754
-0.0265754
-0.0127737
-0.0127737
-0.018329
-0.018329
-0.00252885
-0.00252885
0.00538228
0.00538228
0.00369498
0.00369498
0.00677457
0.00677457
-0.0960123
-0.0960123
-0.0267625
-0.0267625
0.00371715
0.00371715
0.0252646
0.0252646
0.00491835
0.00491835
0.0241427
0.0241427
-0.0118499
-0.0118499
0.00555656
0.00555656
-0.0111677
-0.0111677
-0.0135811
-0.0135811
-0.163065
-0.163065
0.00891696
0.00891696
-0.137032
-0.137032
0.0231598
0.0231598
0.00165055
0.00165055
-0.0251803
-0.0251803
-0.0141029
-0.0141029
-0.0440949
-0.0440949
-0.0495756
-0.0495756
-0.0164729
-0.0164729
-0.00190593
-0.00190593
0.0251797
0.0251797
-0.0576055
-0.0576055
-0.0150672
-0.0150672
-0.0125162
-0.0125162
0.0341399
0.0341399
0.000717805
0.000717805
-0.0031355
-0.0031355
0.000197004
0.000197004
-0.00587825
-0.00587825
-0.0366064
-0.0366064
-0.0779608
-0.0779608
-0.0892623
-0.0892623
-0.0140308
-0.0140308
0.0183422
0.0183422
-0.0909456
-0.0909456
-0.035837
-0.035837
0.033956
0.033956
-0.00440591
-0.00440591
0.000927731
0.000927731
-0.0249159
-0.0249159
-0.020385
-0.020385
-0.00601294
-0.00601294
-0.0869745
-0.0869745
0.0520451
0.0520451
-0.0624333
-0.0624333
-0.00590851
-0.00590851
-0.0265399
-0.0265399
-0.114233
-0.114233
0.00437679
0.00437679
-0.0216941
-0.0216941
-0.0998168
-0.0998168
0.0373544
0.0373544
-0.00274613
-0.00274613
0.00506808
0.00506808
-0.0157845
-0.0157845
0.0213993
0.0213993
-0.00133924
-0.00133924
-0.00435447
-0.00435447
-0.0294548
-0.0294548
-0.0481253
-0.0481253
-0.14542
-0.14542
-0.114233
-0.114233
0.0134192
0.0134192
-0.107508
-0.107508
-0.0210373
-0.0210373
-0.0104314
-0.0104314
0.00157438
0.00157438
-0.0342902
-0.0342902
0.00826538
0.00826538
-0.00449999
-0.00449999
0.00688991
0.00688991
-0.003961
-0.003961
-6.02795e-05
-6.02795e-05
-0.0294044
-0.0294044
-0.0175922
-0.0175922
-0.00379088
-0.00379088
-0.0575144
-0.0575144
0.00287993
0.00287993
-0.02231
-0.02231
-0.0258504
-0.0258504
0.0186586
0.0186586
-0.0288613
-0.0288613
-0.0135116
-0.0135116
0.0289682
0.0289682
0.00763205
0.00763205
0.0266345
0.0266345
-0.035516
-0.035516
-0.00134709
-0.00134709
-0.0737143
-0.0737143
-0.0220685
-0.0220685
-0.108901
-0.108901
-0.0593189
-0.0593189
-0.109095
-0.109095
-0.0088797
-0.0088797
-0.0762484
-0.0762484
0.00244634
0.00244634
-0.0200225
-0.0200225
-0.0958499
-0.0958499
-0.109078
-0.109078
0.016385
0.016385
-0.0221152
-0.0221152
0.0201305
0.0201305
0.0258471
0.0258471
-0.0401664
-0.0401664
-0.101678
-0.101678
-0.00378305
-0.00378305
0.00979258
0.00979258
0.00673106
0.00673106
0.0197954
0.0197954
-0.0543305
-0.0543305
-0.0199878
-0.0199878
0.00212597
0.00212597
-0.0200804
-0.0200804
-0.0220403
-0.0220403
-0.0280889
-0.0280889
0.0109303
0.0109303
-0.060083
-0.060083
-0.00742004
-0.00742004
-0.00694048
-0.00694048
-0.0137124
-0.0137124
-0.0200583
-0.0200583
-0.00590532
-0.00590532
-0.0662404
-0.0662404
-0.0938688
-0.0938688
-0.0143901
-0.0143901
-0.00333238
-0.00333238
-0.0212234
-0.0212234
0.00460318
0.00460318
-0.0974634
-0.0974634
-0.00159133
-0.00159133
0.0272347
0.0272347
-0.118147
-0.118147
-0.00178231
-0.00178231
-0.0301148
-0.0301148
-0.0332694
-0.0332694
-0.0749818
-0.0749818
-0.0164227
-0.0164227
-0.0177699
-0.0177699
-0.0027534
-0.0027534
-0.0843099
-0.0843099
-0.0211653
-0.0211653
-0.0562858
-0.0562858
0.00112616
0.00112616
-0.00819558
-0.00819558
0.0092272
0.0092272
0.0140258
0.0140258
-0.0394781
-0.0394781
0.00257872
0.00257872
0.00254212
0.00254212
0.00205685
0.00205685
0.000444784
0.000444784
-0.00358075
-0.00358075
-0.0227956
-0.0227956
-0.0229629
-0.0229629
-0.0492034
-0.0492034
-0.00782318
-0.00782318
0.0222716
0.0222716
-0.0251838
-0.0251838
-0.0764419
-0.0764419
0.0168955
0.0168955
-0.0250299
-0.0250299
-0.00846408
-0.00846408
-0.0233723
-0.0233723
-0.0171213
-0.0171213
-0.0137795
-0.0137795
-0.00786072
-0.00786072
-0.0638355
-0.0638355
-0.00892379
-0.00892379
-0.0136498
-0.0136498
-0.0133488
-0.0133488
-0.0794571
-0.0794571
-0.127536
-0.127536
-0.0167001
-0.0167001
-0.00837448
-0.00837448
-0.0816496
-0.0816496
-0.0183945
-0.0183945
-0.00793819
-0.00793819
-0.05374
-0.05374
-0.0576511
-0.0576511
-0.0238447
-0.0238447
-0.00544872
-0.00544872
-0.0449827
-0.0449827
0.00762896
0.00762896
0.0154437
0.0154437
0.00154707
0.00154707
-0.00477775
-0.00477775
-0.0157015
-0.0157015
0.0154248
0.0154248
0.0400474
0.0400474
-0.0823625
-0.0823625
-0.0118287
-0.0118287
-0.0155269
-0.0155269
-0.0347602
-0.0347602
-0.0253926
-0.0253926
0.00954146
0.00954146
-0.0285982
-0.0285982
0.01507
0.01507
-0.0667741
-0.0667741
-0.0957892
-0.0957892
0.0450831
0.0450831
-0.0764787
-0.0764787
-0.0925724
-0.0925724
-0.0614937
-0.0614937
-0.0322584
-0.0322584
-0.0124739
-0.0124739
-0.0119335
-0.0119335
-0.0466994
-0.0466994
-0.0324465
-0.0324465
0.000861115
0.000861115
-0.0104522
-0.0104522
-0.0055508
-0.0055508
0.0104415
0.0104415
-0.0296581
-0.0296581
-0.067239
-0.067239
-0.13957
-0.13957
-0.0966016
-0.0966016
-0.0539829
-0.0539829
-0.0372704
-0.0372704
-0.16657
-0.16657
-0.00807226
-0.00807226
-0.0722285
-0.0722285
0.0171797
0.0171797
-0.00249621
-0.00249621
-0.0967947
-0.0967947
-0.0319293
-0.0319293
-0.0281616
-0.0281616
-0.0741961
-0.0741961
-0.00640671
-0.00640671
-0.00961636
-0.00961636
-0.00590306
-0.00590306
-0.0143874
-0.0143874
-0.0731234
-0.0731234
-0.00931157
-0.00931157
-0.00715557
-0.00715557
-0.00668298
-0.00668298
-0.00144441
-0.00144441
-0.0550466
-0.0550466
-0.00335458
-0.00335458
-0.0999424
-0.0999424
-0.163703
-0.163703
-0.0167308
-0.0167308
0.0137133
0.0137133
-0.0298667
-0.0298667
-0.0310668
-0.0310668
-0.0116858
-0.0116858
-0.0413294
-0.0413294
0.0078405
0.0078405
-0.00811424
-0.00811424
-0.00624303
-0.00624303
-0.00508453
-0.00508453
-0.00438721
-0.00438721
-0.00346574
-0.00346574
-0.0027466
-0.0027466
-0.00206533
-0.00206533
-0.00145037
-0.00145037
-0.00093991
-0.00093991
-0.000429322
-0.000429322
-1.97021e-06
-1.97021e-06
0.000379742
0.000379742
0.000747431
0.000747431
0.000977901
0.000977901
0.00118862
0.00118862
0.00138394
0.00138394
0.00145924
0.00145924
0.00152954
0.00152954
0.00149447
0.00149447
0.00148616
0.00148616
0.00134813
0.00134813
0.00113636
0.00113636
0.00097787
0.00097787
0.00068644
0.00068644
0.000363583
0.000363583
-8.46659e-05
-8.46659e-05
-0.000462674
-0.000462674
-0.000872637
-0.000872637
-0.00152432
-0.00152432
-0.00205097
-0.00205097
-0.00300072
-0.00300072
-0.0035452
-0.0035452
-0.00414318
-0.00414318
-0.00553688
-0.00553688
-0.00659413
-0.00659413
-0.00698321
-0.00698321
-0.00827525
-0.00827525
-0.0106819
-0.0106819
-0.0117489
-0.0117489
-0.0129819
-0.0129819
-0.0160633
-0.0160633
-0.0189869
-0.0189869
-0.0223513
-0.0223513
-0.0271183
-0.0271183
-0.0352427
-0.0352427
-0.0432567
-0.0432567
-0.0594021
-0.0594021
-0.0696193
-0.0696193
-0.0340008
-0.0340008
0.00363568
0.00363568
-0.00966353
-0.00966353
-0.013856
-0.013856
-0.0109729
-0.0109729
-0.0110454
-0.0110454
-0.0104416
-0.0104416
-0.0144163
-0.0144163
-0.0209361
-0.0209361
-0.0249645
-0.0249645
-0.0292022
-0.0292022
-0.0332031
-0.0332031
-0.0360187
-0.0360187
-0.0367467
-0.0367467
-0.0358436
-0.0358436
-0.0340569
-0.0340569
-0.031301
-0.031301
-0.027921
-0.027921
-0.0241021
-0.0241021
-0.0205612
-0.0205612
-0.0171398
-0.0171398
-0.0144833
-0.0144833
-0.0132916
-0.0132916
-0.0121282
-0.0121282
-0.00695529
-0.00695529
-0.00645232
-0.00645232
-0.00558856
-0.00558856
-0.00427001
-0.00427001
-0.00355156
-0.00355156
-0.00306582
-0.00306582
-0.00204559
-0.00204559
-0.00159955
-0.00159955
-0.000867784
-0.000867784
-0.000453525
-0.000453525
-8.28534e-05
-8.28534e-05
0.000380601
0.000380601
0.000684817
0.000684817
0.00097083
0.00097083
0.00111948
0.00111948
0.00137903
0.00137903
0.00143902
0.00143902
0.00148952
0.00148952
0.00145032
0.00145032
0.00149698
0.00149698
0.00136285
0.00136285
0.00117342
0.00117342
0.00100799
0.00100799
0.000695822
0.000695822
0.000390698
0.000390698
1.16675e-05
1.16675e-05
-0.000444843
-0.000444843
-0.000910514
-0.000910514
-0.00148207
-0.00148207
-0.00209269
-0.00209269
-0.00280431
-0.00280431
-0.00349615
-0.00349615
-0.00430693
-0.00430693
-0.00517777
-0.00517777
-0.00632972
-0.00632972
-0.00823823
-0.00823823
-0.0119183
-0.0119183
-0.0133213
-0.0133213
-0.0145007
-0.0145007
-0.0171985
-0.0171985
-0.0205596
-0.0205596
-0.0243398
-0.0243398
-0.0283112
-0.0283112
-0.0316637
-0.0316637
-0.0344733
-0.0344733
-0.0362566
-0.0362566
-0.0368423
-0.0368423
-0.0360089
-0.0360089
-0.0337535
-0.0337535
-0.0288197
-0.0288197
-0.0237639
-0.0237639
-0.018616
-0.018616
-0.0148445
-0.0148445
-0.0126587
-0.0126587
-0.00965982
-0.00965982
-0.00998694
-0.00998694
-0.0109461
-0.0109461
-0.00911665
-0.00911665
-0.00324748
-0.00324748
-0.0283482
-0.0283482
-0.0650457
-0.0650457
-0.0643756
-0.0643756
-0.0472309
-0.0472309
-0.0334553
-0.0334553
-0.0284648
-0.0284648
-0.0213857
-0.0213857
-0.018602
-0.018602
-0.016782
-0.016782
-0.0133831
-0.0133831
-0.0112567
-0.0112567
-0.0105328
-0.0105328
-0.00886551
-0.00886551
      </DataArray> 
    </PointData>
    <CellData>
    </CellData>
  </Piece>
  </UnstructuredGrid>
</VTKFile>
