<?xml version="1.0"?>
<VTKFile type="UnstructuredGrid">
  <UnstructuredGrid>
  <Piece NumberOfPoints="3487"  NumberOfCells="1698">
    <Points>
      <DataArray type="Float64" NumberOfComponents="3" format="ascii">
39.9741 48.932 0
60.026 48.9319 0
40.6344 49.0626 0
41.2963 49.1843 0
41.9598 49.297 0
42.6247 49.4008 0
43.291 49.4956 0
43.9584 49.5814 0
44.627 49.6583 0
45.2965 49.7261 0
45.9669 49.7849 0
46.6379 49.8347 0
47.3096 49.8754 0
47.9818 49.9071 0
48.6544 49.9297 0
49.3272 49.9433 0
50.0001 49.9478 0
50.673 49.9433 0
51.3458 49.9297 0
52.0183 49.9071 0
52.6905 49.8754 0
53.3622 49.8346 0
54.0333 49.7848 0
54.7036 49.726 0
55.3731 49.6582 0
56.0417 49.5814 0
56.7091 49.4955 0
57.3754 49.4007 0
58.0403 49.2969 0
58.7038 49.1842 0
59.3657 49.0625 0
39.9992 49.9476 0
39.9977 49.6936 0
39.993 49.4397 0
39.9851 49.1858 0
19.9854 69.9338 0
39.9973 50.2092 0
39.992 50.4708 0
39.9782 50.8493 0
39.9574 51.2273 0
39.9144 51.7737 0
39.8566 52.3186 0
39.7464 53.1039 0
39.6052 53.8843 0
39.3464 55.0022 0
39.0238 56.1037 0
38.7512 56.888 0
38.4463 57.6605 0
38.1096 58.4196 0
37.7416 59.1642 0
37.1551 60.2131 0
36.5067 61.2249 0
35.7986 62.1959 0
-0.00776313 49.9269 0
17.375 69.7614 0
14.8094 69.2499 0
12.3325 68.408 0
9.9866 67.25 0
7.81193 65.7959 0
11.5059 31.8521 0
0.193255 47.1074 0
0.790045 44.3445 0
1.77073 41.6936 0
0 0 0
0.135598 3.72594 0
0.551103 7.43224 0
1.24335 11.0975 0
2.20825 14.7004 0
3.1098 17.3556 0
50 -0.0497868 0
5.1116 0 0
10.2232 0 0
15.3348 0 0
100 0 0
57.3913 -0.0482255 0
64.7826 -0.0425274 0
72.1727 -0.0306328 0
88.4942 31.8519 0
99.8644 3.72592 0
99.4489 7.43216 0
98.7567 11.0975 0
97.7918 14.7004 0
96.8902 17.3556 0
100.008 49.9268 0
99.8068 47.1074 0
99.21 44.3445 0
98.2293 41.6935 0
80.0146 69.9337 0
99.8377 52.5373 0
99.3282 55.1033 0
98.488 57.5807 0
97.3316 59.9274 0
95.8788 62.1029 0
60.0009 49.9474 0
77.5039 69.7768 0
75.0326 69.3061 0
72.64 68.529 0
70.3638 67.4578 0
68.878 66.5545 0
67.4762 65.5255 0
66.1691 64.3786 0
64.9665 63.1226 0
64.2014 62.1958 0
63.4933 61.2248 0
62.8449 60.213 0
62.2584 59.1641 0
61.5537 57.6604 0
60.9763 56.1035 0
60.6537 55.0022 0
60.3948 53.8842 0
60.2536 53.1038 0
60.0024 49.6935 0
60.007 49.4395 0
60.0149 49.1857 0
52.8214 30.1983 0
26.5186 37.0207 0
40.3249 24.3194 0
24.9229 22.567 0
71.9478 22.5996 0
72.7073 44.0892 0
54.8072 24.1463 0
15.3111 47.569 0
38.3621 49.5623 0
23.6262 65.4023 0
7.70478 7.75763 0
91.937 7.73634 0
29.1776 57.0365 0
37.1885 52.0362 0
28.09 47.3382 0
29.7295 48.2992 0
71.5145 46.8222 0
30.9886 49.1973 0
70.5126 48.3013 0
31.6346 45.7796 0
30.8875 47.2375 0
70.0638 46.8093 0
68.9852 45.1299 0
31.294 50.2933 0
30.9082 51.5182 0
28.191 49.2979 0
45.3057 41.405 0
53.8458 41.0264 0
56.0309 40.5752 0
73.1254 47.58 0
70.1114 49.5432 0
68.3373 42.5554 0
32.3065 42.8853 0
26.1368 45.82 0
27.6753 44.8213 0
30.3005 43.4454 0
70.4176 42.7559 0
72.6766 46.0881 0
44.8468 43.1979 0
51.4312 42.1044 0
55.4121 42.691 0
32.452 49.2316 0
68.5523 49.7776 0
39.4723 42.1898 0
35.4351 43.5089 0
32.8937 46.6776 0
33.5779 48.4268 0
67.1029 48.3728 0
67.9833 46.6091 0
65.0777 43.1726 0
60.424 41.8276 0
32.3716 51.5526 0
28.2213 51.1592 0
41.7721 37.4098 0
46.8209 37.8149 0
52.0502 39.9886 0
58.6836 39.3582 0
26.6119 52.0594 0
24.3058 50.4944 0
74.2224 50.0988 0
71.1609 50.7977 0
69.1369 52.377 0
67.9118 52.5088 0
59.77 36.4768 0
66.5102 40.7983 0
34.1008 41.1745 0
36.0149 35.9068 0
23.1865 47.3205 0
21.6452 43.4173 0
28.3474 41.9274 0
74.3183 44.8471 0
76.6324 48.7065 0
43.0516 43.7861 0
46.2669 43.0716 0
49.9679 43.1196 0
48.4319 42.9024 0
51.7636 44.1574 0
54.0896 44.2733 0
52.9069 44.5688 0
56.2749 43.8221 0
33.8833 49.5229 0
33.7859 51.038 0
66.5324 51.8549 0
66.5933 49.862 0
41.829 44.0239 0
40.6993 43.7617 0
38.4562 43.3699 0
37.138 43.9762 0
35.3438 45.687 0
34.325 46.9688 0
66.0244 46.6933 0
65.0212 45.4176 0
63.1942 43.6604 0
61.7087 43.2099 0
58.8818 43.6223 0
57.5417 43.9382 0
33.4001 52.2629 0
29.1742 53.8817 0
40.8254 31.1289 0
50.8859 36.1287 0
55.6725 34.4101 0
23.5697 53.6131 0
76.9103 52.0805 0
70.2312 53.4872 0
66.4016 53.097 0
65.4841 35.2908 0
30.9394 34.7064 0
19.4514 47.4476 0
26.1205 40.162 0
72.0172 34.2252 0
72.0592 41.5151 0
77.4836 45.4549 0
43.1652 45.2285 0
45.808 44.8645 0
48.7642 44.9554 0
51.4436 45.5841 0
53.7697 45.7 0
56.2193 45.5206 0
34.9119 50.2332 0
65.0831 50.4501 0
40.8129 45.2041 0
38.365 45.5482 0
36.0281 47.4363 0
64.1408 47.1814 0
61.6521 45.4552 0
58.8264 45.3208 0
36.0723 52.5073 0
34.9224 53.2727 0
33.5081 53.7872 0
31.9103 55.5834 0
26.1075 59.0648 0
23.01 57.4729 0
32.3835 22.8162 0
47.034 26.8155 0
63.1494 23.1676 0
20.0014 55.1844 0
80.1772 54.4494 0
75.7896 55.9521 0
71.9277 56.2984 0
69.0823 55.6138 0
65.7679 54.1054 0
64.0924 53.9467 0
68.1673 29.1233 0
26.761 30.2087 0
17.2489 51.916 0
14.6026 42.6011 0
22.3881 34.1919 0
84.8884 47.0302 0
84.7094 52.1921 0
75.1793 38.0697 0
81.2117 44.0927 0
42.4552 46.5593 0
41.4144 46.3679 0
44.9644 46.4045 0
43.6779 46.3216 0
47.7356 46.3457 0
46.3846 46.2783 0
50.62 46.6591 0
49.2717 46.563 0
53.0511 47.0543 0
51.7633 47.0705 0
55.514 46.6668 0
54.2339 46.7588 0
58.0627 46.621 0
56.7809 46.783 0
36.3738 48.7593 0
36.0281 49.762 0
35.9307 51.2772 0
63.3815 52.2108 0
63.8262 51.1982 0
63.8871 49.2051 0
63.8369 48.3016 0
40.2847 46.1058 0
39.369 46.286 0
38.0507 46.8922 0
37.3926 47.4774 0
62.8337 47.0259 0
62.0183 46.7002 0
60.5327 46.2499 0
59.4029 46.305 0
38.0637 52.7054 0
36.1803 54.0317 0
34.0817 56.8979 0
29.6093 59.9763 0
22.8867 61.5357 0
21.7313 15.4891 0
39.9586 16.3424 0
48.9006 11.6325 0
56.9478 17.0768 0
76.6536 15.7328 0
15.6474 57.2408 0
84.5109 57.677 0
73.4004 59.6463 0
66.5136 55.7677 0
62.4518 53.7146 0
82.9387 7.8714 0
79.7532 22.7039 0
16.3102 7.95144 0
18.3385 22.4142 0
10.7269 46.939 0
16.5706 36.1352 0
15.5061 30.5198 0
89.3974 49.8194 0
83.3262 31.3672 0
81.5805 39.439 0
41.927 47.461 0
44.2545 47.7354 0
46.8921 47.8858 0
49.5914 48.0494 0
52.2274 48.1293 0
54.7954 48.0212 0
57.3574 47.7673 0
37.3927 49.8033 0
37.9221 51.4752 0
62.1855 50.9659 0
62.5799 49.0497 0
39.9705 47.4499 0
38.3966 48.2153 0
38.5123 48.9854 0
61.7646 48.6844 0
61.7143 47.8206 0
59.769 47.5502 0
38.8916 51.2343 0
61.3455 51.1694 0
39.2013 53.0143 0
38.4677 53.5753 0
38.177 54.6849 0
37.0271 55.4503 0
36.5253 57.2247 0
34.8794 58.7502 0
33.3747 60.6101 0
30.7614 62.7248 0
28.0044 64.8808 0
27.1641 7.90913 0
38.6542 8.47492 0
59.8784 8.7022 0
71.7717 7.99583 0
19.2517 64.8525 0
14.9542 63.1229 0
10.7533 60.3385 0
6.30448 57.2984 0
6.00942 51.3636 0
94.2233 52.4618 0
93.3047 57.5169 0
89.3187 60.8585 0
84.5652 63.3664 0
79.4572 65.0329 0
74.5603 64.0594 0
70.2545 62.7717 0
66.8198 61.3127 0
65.209 58.6378 0
62.7106 57.3072 0
62.0695 55.777 0
61.7787 54.6673 0
61.0678 52.9314 0
93.4838 14.58 0
89.7947 20.7799 0
86.1175 25.1561 0
6.26275 14.5723 0
13.0034 24.6154 0
9.79049 20.7676 0
5.76755 45.7931 0
5.65718 40.8473 0
12.2941 34.8692 0
94.2203 47.3403 0
88.1227 37.2273 0
93.3539 42.6066 0
41.0912 48.227 0
40.4302 48.1008 0
42.1321 48.4184 0
43.4631 48.6169 0
42.7963 48.5266 0
44.7497 48.6999 0
46.0895 48.8265 0
45.4188 48.7722 0
47.4405 48.894 0
48.7851 48.9483 0
48.1125 48.9302 0
50.1334 49.0444 0
51.479 49.0263 0
50.8063 49.0444 0
52.7668 49.0101 0
54.1094 48.9196 0
53.4387 48.9739 0
55.3896 48.8276 0
56.7255 48.665 0
56.0587 48.7553 0
58.0073 48.503 0
59.3325 48.2686 0
58.6715 48.3947 0
39.3773 51.6859 0
39.3269 52.2315 0
60.9421 52.1485 0
60.8917 51.6029 0
38.0164 50.5651 0
39.136 49.7473 0
61.7902 50.1567 0
61.8148 49.588 0
60.9749 49.7914 0
39.5144 48.281 0
39.1705 48.4002 0
60.9492 48.3588 0
60.4624 48.2134 0
39.4716 50.7758 0
60.4965 50.7937 0
39.4925 50.1359 0
39.4889 50.3975 0
60.4791 50.4154 0
60.4756 50.1538 0
39.6427 49.5589 0
39.6302 49.0512 0
39.6397 49.305 0
60.5002 49.585 0
60.5033 49.3311 0
60.5128 49.0773 0
60.9995 49.2227 0
39.2863 49.1703 0
60.9502 50.3601 0
38.9858 50.3242 0
60.8989 47.495 0
39.0547 47.63 0
62.6301 49.9532 0
37.0469 50.8061 0
61.7408 51.9787 0
38.7973 52.1444 0
58.6392 47.6053 0
56.0756 47.9293 0
53.5152 48.1131 0
50.9396 48.1455 0
48.2431 47.9533 0
45.541 47.8183 0
42.9679 47.6524 0
40.8862 47.2696 0
89.1468 44.9661 0
10.9274 41.0864 0
13.2818 16.2372 0
85.8814 16.4489 0
63.1627 55.4505 0
68.9067 58.6298 0
78.9296 60.0427 0
89.2774 55.1074 0
11.7823 53.0514 0
19.2487 59.8718 0
66.7236 15.878 0
30.7469 15.5903 0
26.3724 62.3039 0
32.1722 58.1423 0
35.0304 54.7971 0
37.3301 53.2664 0
62.5297 48.1462 0
37.7384 48.8005 0
75.9588 28.8083 0
20.494 28.7125 0
47.913 19.4339 0
60.1666 45.0048 0
63.1376 45.9056 0
37.0467 46.1544 0
39.6832 44.9419 0
65.144 48.4571 0
65.0222 52.4431 0
34.8144 51.7484 0
35.0093 48.7181 0
57.4862 45.6367 0
54.9524 45.4044 0
52.5869 45.9956 0
50.3003 45.1727 0
47.2282 44.7382 0
44.3878 44.9907 0
41.9426 45.4663 0
74.349 42.8484 0
80.2581 49.0523 0
17.9977 43.4994 0
21.3194 50.9638 0
34.4283 29.845 0
59.9947 30.4009 0
67.781 53.751 0
73.393 53.1961 0
54.4647 38.9106 0
46.5052 33.0646 0
26.2457 55.5683 0
31.9858 52.7775 0
69.7697 40.1815 0
30.9723 40.5512 0
57.5972 42.2398 0
63.2508 41.4153 0
66.9048 44.9296 0
33.6408 45.2197 0
37.2292 41.798 0
41.7153 42.5815 0
68.0427 51.2668 0
32.7574 50.3277 0
53.2269 43.1421 0
49.6356 41.0666 0
74.2876 46.8459 0
25.7222 43.3033 0
71.9633 48.3142 0
26.5514 48.3369 0
69.0619 48.2885 0
32.1465 48.1356 0
71.0657 45.3302 0
29.6284 46.3395 0
29.8306 50.2589 0
88.1665 34.5568 0
96.8842 39.2076 0
91.3066 35.945 0
92.2276 38.8162 0
96.0832 38.0422 0
88.4932 40.9762 0
3.11578 39.2076 0
11.8536 33.3204 0
9.99485 35.2144 0
3.91685 38.0423 0
8.31679 37.7308 0
11.6878 37.2225 0
11.3968 22.6917 0
10.9764 26.5619 0
9.36989 24.6387 0
11.8478 29.065 0
4.15925 19.9556 0
5.35329 22.4921 0
8.23895 22.8618 0
11.536 18.5021 0
13.1423 20.4265 0
8.02642 17.6703 0
6.97468 20.3617 0
5.21073 17.2636 0
6.68811 24.957 0
7.78152 26.7579 0
4.23541 14.6364 0
9.77207 15.405 0
87.9562 22.9682 0
90.4227 24.6448 0
88.5841 26.8319 0
91.5537 22.8679 0
95.8408 19.9555 0
94.6467 22.492 0
87.7355 29.385 0
85.9998 20.8027 0
87.8382 18.6141 0
91.6395 17.6804 0
94.6626 17.2674 0
92.818 20.3678 0
95.6379 14.6402 0
93.3119 24.957 0
92.2184 26.7579 0
89.6829 15.5147 0
65.8252 8.34698 0
62.3293 4.3294 0
68.2769 3.97576 0
54.9403 4.3252 0
79.5536 0 0
84.6652 0 0
75.6626 3.99463 0
69.2474 11.9363 0
63.3009 12.29 0
32.909 8.18993 0
31.191 3.93219 0
36.9369 4.21596 0
23.8053 3.95191 0
20.4464 0 0
27.8274 -0.0305202 0
44.3258 4.21128 0
34.7008 12.0326 0
28.9557 11.7493 0
81.671 35.2396 0
85.4423 34.7365 0
85.0595 38.3327 0
86.318 31.7772 0
85.0246 42.4227 0
77.3097 34.1723 0
80.0532 31.3412 0
16.0411 33.0471 0
14.0932 35.4668 0
13.8957 32.9997 0
14.1571 38.7047 0
13.5057 31.1866 0
17.596 30.1695 0
18.7293 33.1461 0
16.5045 27.4775 0
14.0869 28.4362 0
15.6709 23.5145 0
15.8102 19.3256 0
19.4166 25.563 0
81.636 27.414 0
82.9353 23.9298 0
84.8736 28.8271 0
82.8172 19.576 0
77.8556 25.7556 0
79.7959 11.8016 0
74.212 11.8656 0
77.354 7.93557 0
71.688 15.8051 0
81.2466 3.93497 0
84.4102 12.1599 0
81.2673 16.0911 0
52.9244 14.3543 0
54.3893 10.1664 0
58.4127 12.8894 0
49.4502 5.79115 0
61.8356 16.4766 0
52.4303 18.2549 0
48.4068 15.5333 0
44.4294 13.987 0
39.3067 12.4086 0
43.7777 10.0528 0
35.3529 15.9656 0
43.9359 17.8877 0
19.0208 11.7201 0
21.738 7.93256 0
24.4482 11.7005 0
18.3779 3.97492 0
26.2397 15.5396 0
17.5067 15.8633 0
14.7959 12.0941 0
74.6634 34.1988 0
78.7733 37.6182 0
78.1046 41.2176 0
74.7641 40.459 0
21.4414 31.4521 0
19.3571 36.888 0
17.0621 39.7152 0
19.735 40.518 0
73.9878 31.5165 0
73.5981 36.1476 0
72.4745 39.1255 0
70.8934 37.2032 0
68.7506 34.7579 0
66.8256 32.2068 0
70.092 31.6744 0
62.7392 32.8459 0
64.0808 29.7619 0
72.0629 28.9658 0
67.6267 37.7363 0
32.684 32.2758 0
35.2217 32.8758 0
33.4772 35.3065 0
33.4938 38.2292 0
36.6221 38.8523 0
30.9559 37.6288 0
59.8823 33.4388 0
62.627 35.8837 0
64.3674 38.3529 0
61.5103 38.9461 0
57.8336 32.4054 0
57.7212 35.4435 0
57.1174 37.6936 0
55.0686 36.6603 0
46.663 35.4397 0
48.6955 34.5966 0
48.8535 36.9718 0
50.2608 38.5976 0
52.6753 37.5196 0
48.2282 39.4407 0
38.8935 36.6582 0
38.4203 33.5179 0
41.2988 34.2693 0
37.6269 30.4868 0
43.6653 32.0966 0
44.1387 35.2372 0
39.5008 39.604 0
44.2965 37.6123 0
46.0634 39.61 0
43.5106 41.9933 0
47.4707 41.2358 0
43.5389 39.4074 0
41.7437 39.9956 0
90.8574 3.86811 0
87.4381 7.80444 0
86.3593 3.93717 0
88.9099 12.0935 0
89.7768 0 0
94.8884 0 0
95.9696 3.86881 0
96.467 11.0071 0
92.7107 11.158 0
95.693 7.58468 0
91.0498 28.5105 0
90.4377 29.3674 0
4.1279 7.59534 0
6.98345 11.1648 0
3.40633 11.0032 0
10.4927 11.9983 0
8.95023 28.5106 0
9.56229 29.3676 0
3.85135 3.8794 0
13.2652 3.977 0
12.0073 7.85502 0
8.9635 3.87872 0
35.2174 -0.0424626 0
42.6087 -0.0481767 0
58.9782 23.6566 0
55.8774 20.6115 0
60.0485 20.1223 0
51.3601 21.7899 0
64.9363 19.5226 0
61.5719 26.7841 0
57.4008 27.2737 0
67.5483 22.8834 0
70.0573 25.8612 0
65.6582 26.1457 0
73.9532 25.7042 0
69.3355 19.2393 0
78.2035 19.2185 0
75.8502 22.6517 0
74.3004 19.1655 0
23.3273 19.0275 0
21.6309 22.4905 0
20.0347 18.9518 0
22.7084 25.64 0
27.835 19.0793 0
29.5724 26.5129 0
25.8423 26.3875 0
28.6534 22.6915 0
23.6276 29.4606 0
31.5653 19.2032 0
33.406 26.3305 0
30.5948 30.0268 0
40.5752 27.7241 0
43.6795 25.5672 0
43.9298 28.9722 0
44.1189 21.8765 0
47.4735 23.1248 0
46.7696 29.9401 0
37.3768 27.0824 0
36.1712 19.5795 0
40.1419 20.3309 0
36.3543 23.5674 0
26.6401 33.6146 0
24.4534 35.6062 0
24.5747 32.2005 0
22.5826 39.173 0
28.8503 32.4573 0
28.7291 35.8636 0
28.7454 38.7858 0
51.8537 33.1635 0
54.2469 32.3042 0
53.2792 35.2694 0
56.408 30.2995 0
49.6633 31.6314 0
50.9206 25.4807 0
53.8143 27.1723 0
49.9277 28.5069 0
6.55753 37.3335 0
6.9869 39.2888 0
5.22757 38.8921 0
9.6219 39.4089 0
8.2921 40.9669 0
4.38643 40.0275 0
4.79839 36.9366 0
5.75606 35.8962 0
7.55064 36.3287 0
10.8412 36.2187 0
10.0021 37.4766 0
9.1557 36.4723 0
11.3074 39.1542 0
8.38985 35.07 0
11.1443 35.042 0
11.9908 36.0457 0
11.6767 30.4595 0
10.1925 30.2112 0
11.0199 29.6375 0
12.4253 26.8403 0
10.3988 28.7877 0
10.8402 31.0401 0
89.8076 30.2109 0
88.1149 30.6192 0
88.7718 29.7973 0
89.3928 28.9475 0
86.9267 27.2707 0
89.16 31.0399 0
85.8801 33.2568 0
87.2416 33.1677 0
86.8043 34.6472 0
87.4061 31.8149 0
88.3307 33.204 0
88.1447 35.8919 0
86.7825 35.9822 0
84.3837 33.0522 0
84.8221 31.5723 0
86.7764 39.6545 0
86.7589 41.6996 0
85.0421 40.3776 0
88.8201 42.971 0
87.0858 43.6944 0
83.3025 40.931 0
83.32 38.886 0
86.5911 37.7804 0
88.3081 39.1016 0
79.4902 34.7061 0
78.6814 32.7566 0
80.8618 33.2905 0
76.634 31.4903 0
78.006 30.0748 0
81.6897 31.3542 0
82.4984 33.3033 0
81.6257 37.3392 0
80.2222 36.4288 0
14.125 37.0856 0
12.9224 37.9638 0
12.8904 36.3448 0
12.5421 39.8956 0
13.1937 35.1682 0
15.3319 35.8011 0
15.3639 37.4201 0
12.8748 33.1605 0
12.6806 32.2543 0
13.701 32.0931 0
11.6797 32.5862 0
12.5059 31.5197 0
14.5059 30.8532 0
14.7013 31.7599 0
13.0951 33.9348 0
12.0738 34.0947 0
16.8188 31.6084 0
18.1628 31.6577 0
17.3852 33.0966 0
19.045 29.4411 0
19.6119 30.9294 0
17.6502 34.6408 0
16.306 34.5911 0
15.7739 31.7834 0
16.551 30.3447 0
13.7964 29.8115 0
12.6771 30.1251 0
12.9674 28.7502 0
13.545 26.5258 0
14.7967 29.4778 0
16.0054 28.9987 0
17.0504 28.8234 0
18.4994 28.0949 0
17.4214 24.9459 0
86.3045 29.1056 0
87.0261 30.5805 0
85.5957 30.3022 0
84.0996 30.0969 0
85.4955 26.9915 0
82.4809 29.3906 0
80.8443 29.3774 0
80.6947 25.059 0
78.7973 28.111 0
80.1768 38.5287 0
79.8425 40.3283 0
78.4389 39.4179 0
76.6418 39.6438 0
76.2268 42.033 0
76.9763 37.844 0
15.6096 39.2101 0
15.8323 41.1582 0
14.3797 40.6528 0
17.5298 41.6072 0
16.3002 43.0504 0
12.7649 41.844 0
16.8163 37.9251 0
19.546 38.703 0
18.3985 40.1167 0
18.2097 38.3017 0
18.8663 42.0088 0
17.9639 36.5116 0
20.8728 35.5401 0
20.9698 38.0305 0
20.6901 41.9676 0
21.1588 39.8456 0
24.5507 38.097 0
22.4855 36.6824 0
19.8215 43.4584 0
22.1139 41.2952 0
24.1524 41.238 0
23.6838 43.3603 0
79.6581 42.6553 0
79.3476 44.7739 0
77.7941 43.3362 0
80.7349 46.5724 0
78.8709 47.2536 0
75.9163 44.1517 0
81.3962 41.7657 0
90.3606 39.8965 0
92.7908 40.7113 0
90.9237 41.7912 0
94.556 39.0115 0
95.1192 40.9072 0
91.2505 43.7865 0
90.1753 38.0216 0
93.2542 36.4403 0
93.7148 37.8764 0
91.7672 37.3806 0
95.2017 36.9366 0
89.7149 36.5866 0
92.2609 35.4356 0
94.2441 35.8962 0
89.5658 33.8881 0
91.1357 34.5816 0
89.7368 35.2506 0
93.215 34.9262 0
92.1199 34.032 0
93.7871 44.9734 0
96.282 43.4751 0
96.7152 45.8424 0
90.9637 33.2179 0
89.7534 32.4892 0
97.1141 48.6332 0
91.6837 46.153 0
10.4444 33.2692 0
10.924 34.2668 0
9.51507 34.2164 0
6.785 34.9263 0
7.88023 34.0319 0
5.71221 43.3202 0
3.27872 45.0687 0
3.22353 42.5955 0
2.87977 47.8595 0
9.03613 33.2179 0
10.2468 32.4892 0
8.34725 43.4392 0
66.0144 59.9752 0
65.1565 61.2687 0
64.3512 59.9312 0
65.8931 62.2176 0
60.1435 52.3185 0
60.0856 51.7735 0
63.7337 58.9009 0
67.0578 58.6337 0
67.8632 59.9712 0
68.5371 62.0422 0
68.8653 64.1485 0
67.148 63.4191 0
70.3091 65.1147 0
60.0427 51.2272 0
60.0218 50.8491 0
69.5806 60.7007 0
77.0088 64.5461 0
77.2448 67.1694 0
74.7965 66.6827 0
79.736 67.4832 0
60.0081 50.4707 0
60.0028 50.2091 0
72.462 65.7585 0
76.7449 62.051 0
79.1934 62.5377 0
82.0112 64.1996 0
84.8779 66.308 0
82.324 67.1412 0
87.2894 65.308 0
94.1544 64.0703 0
92.1881 65.7958 0
81.7475 61.7045 0
91.3117 59.1877 0
93.7296 60.7935 0
91.7367 62.4642 0
95.3182 58.722 0
90.0134 67.2499 0
87.6675 68.4079 0
89.6661 64.0541 0
89.2981 57.9828 0
91.2911 56.312 0
93.764 54.9893 0
96.7758 53.7823 0
96.3165 56.31 0
97.1156 51.1942 0
85.1906 69.2498 0
82.625 69.7613 0
91.7504 53.7846 0
6.15691 54.3309 0
3.48812 56.2008 0
3.34053 53.2331 0
4.4864 58.6128 0
5.84555 64.0704 0
4.12119 62.103 0
3.00075 50.6451 0
8.89578 52.2075 0
9.04324 55.1746 0
8.52887 58.8184 0
8.29931 62.2043 0
6.07498 60.6842 0
10.3699 63.7941 0
2.66842 59.9274 0
1.51199 57.5807 0
11.2677 56.6948 0
17.1029 63.9877 0
17.0304 67.051 0
14.8818 66.1863 0
19.6185 67.393 0
0.671848 55.1033 0
0.162334 52.5374 0
12.4703 65.1863 0
17.1014 61.4973 0
19.2502 62.3621 0
29.3829 63.8028 0
31.6426 64.1251 0
30.2641 65.2031 0
32.8975 62.9237 0
35.0335 63.1227 0
33.8309 64.3787 0
28.8203 66.1693 0
27.1884 63.5923 0
28.5669 62.5143 0
34.1271 59.6801 0
35.6931 59.9875 0
34.9407 60.9175 0
36.3105 58.9571 0
32.5238 65.5256 0
31.122 66.5546 0
34.2042 61.8664 0
32.7735 59.3762 0
33.5258 58.4462 0
29.6362 67.4579 0
37.1335 58.1944 0
37.4858 57.4426 0
37.7746 56.6642 0
35.7779 56.0109 0
27.36 68.5292 0
83.5566 34.9882 0
85.251 36.5345 0
83.365 36.7865 0
91.8104 51.1404 0
91.8089 48.5799 0
94.2218 49.901 0
89.2721 47.3926 0
89.3374 52.4633 0
15.0674 34.2572 0
13.9944 34.2332 0
14.9684 33.0235 0
8.368 49.151 0
5.88841 48.5783 0
8.24711 46.3661 0
10.827 44.0125 0
11.2545 49.9951 0
15.2957 27.9568 0
14.7541 26.0461 0
83.2549 28.1205 0
83.8765 26.2846 0
67.7102 57.1987 0
65.8613 57.2027 0
64.1859 57.0441 0
64.8382 55.6091 0
73.9804 61.8528 0
72.4074 63.4156 0
71.8274 61.2089 0
71.1535 59.138 0
76.165 59.8445 0
86.9149 59.2676 0
86.9419 62.1124 0
84.5381 60.5216 0
81.7202 58.8598 0
86.8942 56.3922 0
15.3008 60.1818 0
12.8537 61.7307 0
13.2003 58.7896 0
13.7149 55.1462 0
17.4481 58.5563 0
31.492 60.2932 0
32.0681 61.6674 0
30.1854 61.3505 0
27.9908 61.1401 0
30.8907 59.0593 0
35.3035 57.0613 0
35.7024 57.9874 0
34.4806 57.824 0
33.127 57.5201 0
34.5561 55.8475 0
78.0413 35.8953 0
76.2444 36.1209 0
84.7989 49.6111 0
87.143 48.4248 0
87.0534 51.0058 0
87.0176 45.9983 0
86.9935 53.6497 0
82.4838 50.6222 0
82.5732 48.0413 0
19.0433 35.017 0
20.5587 33.669 0
68.9945 57.1217 0
67.7979 55.6907 0
67.1473 54.7593 0
68.4317 54.6824 0
73.8586 56.1252 0
74.595 57.7991 0
72.664 57.9723 0
77.3597 57.9974 0
70.4171 57.464 0
72.6603 54.7472 0
74.5913 54.5741 0
82.4433 53.3208 0
84.6102 54.9344 0
82.3441 56.0631 0
79.5534 57.2459 0
80.2177 51.7507 0
18.6252 53.5501 0
17.8244 56.2126 0
16.4481 54.5783 0
19.625 57.528 0
14.5155 52.4837 0
19.2842 51.4399 0
20.6604 53.074 0
24.5588 58.2688 0
24.4971 60.3002 0
22.9484 59.5042 0
26.24 60.6843 0
24.6296 61.9198 0
21.0678 60.7037 0
21.1293 58.6724 0
24.6278 56.5206 0
26.1766 57.3165 0
32.0413 56.8628 0
32.996 56.2406 0
33.4703 55.1902 0
31.948 54.1804 0
84.9566 44.7263 0
83.0501 45.5615 0
83.1181 43.2578 0
71.0794 54.8928 0
70.505 55.9561 0
69.6567 54.5505 0
69.0061 53.6191 0
71.8121 53.3417 0
78.5437 53.265 0
77.9834 55.2008 0
76.3499 54.0162 0
75.1516 52.6383 0
78.5841 50.5664 0
23.2899 55.5429 0
21.5057 56.3286 0
21.7856 54.3987 0
22.4446 52.2884 0
24.9077 54.5906 0
78.4452 48.8794 0
77.058 47.0806 0
75.8856 46.1504 0
75.46 47.7762 0
22.4158 45.3688 0
21.319 47.3841 0
20.5483 45.4325 0
22.253 49.1421 0
20.3854 49.2057 0
18.7246 45.4734 0
24.4544 45.3119 0
72.2769 51.9969 0
70.696 52.1425 0
69.6018 51.0322 0
71.5621 49.5559 0
75.4274 49.4026 0
76.7713 50.3935 0
75.5663 51.0897 0
73.8077 51.6474 0
74.255 48.4723 0
25.4588 51.2769 0
25.0908 52.8363 0
23.9378 52.0537 0
26.4288 53.8138 0
22.8126 50.7291 0
25.4286 49.4157 0
26.5817 50.1981 0
27.7099 54.725 0
27.893 52.9705 0
29.5024 52.0703 0
30.58 53.3296 0
23.7461 48.9074 0
24.869 47.8287 0
72.6916 50.4483 0
73.0928 49.2065 0
27.6426 58.0507 0
29.3935 58.5064 0
27.8584 59.5205 0
30.6749 57.5894 0
27.7117 56.3024 0
30.5423 54.7325 0
30.544 56.31 0
29.1759 55.4591 0
23.2565 63.4689 0
21.4389 65.1273 0
21.0692 63.194 0
21.8057 67.668 0
24.9993 63.8531 0
26.4858 67.0935 0
24.2968 67.3542 0
25.8153 65.1415 0
24.9673 69.3062 0
22.4961 69.7769 0
14.9568 45.0849 0
13.0189 47.2541 0
12.6646 44.7699 0
13.5466 50.31 0
16.6543 45.5342 0
18.3501 49.6817 0
16.28 49.7425 0
17.3813 47.5084 0
58.4054 8.40686 0
60.0118 10.3226 0
79.5529 20.3808 0
77.0604 20.5818 0
69.2632 14.1013 0
67.6113 15.9753 0
37.1773 13.5043 0
34.8306 12.645 0
72.2329 44.7166 0
70.4025 43.0138 0
36.6919 22.2411 0
37.2902 24.6675 0
46.0443 8.39636 0
45.155 10.7329 0
1.86182 10.4423 0
4.06547 9.26084 0
16.1448 4.01728 0
14.3646 2.26524 0
37.7954 13.5763 0
37.7637 11.0768 0
72.2589 1.26813 0
69.7946 1.68478 0
65.388 25.2364 0
65.845 22.7797 0
17.0814 0.163968 0
19.1002 1.63535 0
30.7825 0.519246 0
29.0341 2.30682 0
20.1405 29.1235 0
18.0158 27.8078 0
87.2338 22.9965 0
89.7093 23.3543 0
80.4512 11.9565 0
79.0385 9.8949 0
53.4995 14.5418 0
52.9731 16.9857 0
79.8882 20.7891 0
77.3879 20.7436 0
95.4211 2.47495 0
96.8235 4.54395 0
40.4009 38.6052 0
38.1928 39.777 0
34.354 27.2555 0
35.0161 29.665 0
88.3981 30.622 0
87.7712 28.2064 0
42.4364 32.1288 0
44.3178 30.4833 0
26.0585 12.9938 0
26.8954 10.6386 0
40.5473 37.6801 0
42.7785 36.5533 0
65.9284 38.855 0
67.4549 40.8345 0
21.6468 36.7268 0
24.1387 36.9273 0
87.3003 18.0855 0
88.9217 16.1856 0
31.2948 10.1064 0
28.8602 10.6754 0
60.2805 8.46294 0
61.5855 10.5955 0
62.4244 9.53328 0
60.9684 7.50074 0
18.7616 7.02954 0
18.1808 9.45807 0
63.0493 44.0136 0
62.3528 46.4141 0
84.3062 25.974 0
83.6235 28.3756 0
47.3517 44.4548 0
49.2158 42.7891 0
30.7357 4.9292 0
33.1073 5.71782 0
37.2019 2.46377 0
36.9157 -0.0195415 0
39.5328 0.712006 0
37.8598 2.56988 0
66.8708 34.7062 0
64.611 35.7733 0
25.2186 21.4865 0
23.6453 23.4286 0
89.2486 30.3463 0
86.9854 29.2819 0
74.297 10.1725 0
76.6734 9.39969 0
80.3569 12.8896 0
81.7598 14.9577 0
81.1058 17.0454 0
80.197 19.371 0
78.4207 10.8344 0
79.7647 12.9414 0
67.6894 27.6576 0
65.1923 27.5496 0
62.4461 25.0714 0
60.0149 24.4913 0
61.7362 24.8965 0
62.5071 27.2743 0
69.5335 33.0545 0
67.0462 32.8068 0
82.5819 12.5756 0
85.0213 13.13 0
51.46 18.3453 0
53.5423 19.728 0
67.0041 16.1533 0
65.1774 14.4461 0
20.0061 22.5391 0
20.4628 20.0839 0
53.0674 24.2401 0
52.959 21.7425 0
62.0907 34.1326 0
64.0563 35.677 0
67.9656 28.4209 0
69.9325 26.8798 0
27.3368 19.5219 0
25.41 17.9316 0
43.3865 4.15389 0
43.9213 1.71187 0
90.2124 10.3287 0
88.4166 8.58992 0
67.9779 36.9798 0
68.6624 34.5767 0
9.53848 8.23266 0
11.9921 7.74872 0
49.9623 6.7554 0
52.3372 7.53612 0
81.1653 29.3571 0
83.106 27.7832 0
43.1327 20.1957 0
45.528 20.9083 0
73.041 25.7119 0
75.2647 24.5714 0
59.32 18.7459 0
57.0727 19.8389 0
94.815 14.945 0
92.3965 14.3085 0
8.75092 19.5526 0
11.209 19.09 0
17.4393 22.8883 0
15.7844 21.0173 0
16.9288 36.6708 0
18.1305 34.4802 0
59.7876 42.1716 0
57.5931 43.3681 0
84.6207 20.5274 0
84.6733 23.0234 0
9.904 20.1752 0
7.80236 21.5307 0
16.813 30.2122 0
15.1861 32.1081 0
46.6545 3.62894 0
48.1064 5.66415 0
57.7903 40.5841 0
55.7499 42.0278 0
67.533 37.2727 0
69.6048 38.6716 0
68.3675 7.70416 0
70.251 6.0623 0
24.7903 8.66006 0
27.2149 9.26545 0
16.1191 15.6139 0
15.2141 17.942 0
96.967 4.663 0
94.497 5.05103 0
25.2062 34.0606 0
26.0219 31.6987 0
16.8084 15.8166 0
17.9294 18.0477 0
86.8917 15.7767 0
88.5938 13.9483 0
26.9605 36.6351 0
28.2395 38.7813 0
45.0525 37.3021 0
42.7552 38.287 0
25.961 33.9115 0
28.4391 33.5823 0
70.5692 16.1422 0
72.5406 17.6802 0
49.8254 47.9092 0
50.9705 45.6871 0
82.7758 18.4875 0
81.0962 16.6363 0
12.4207 5.63152 0
9.9968 5.01957 0
18.3023 2.68235 0
20.5316 1.54918 0
98.8854 4.28393 0
97.687 6.47605 0
80.3124 37.6551 0
80.9105 35.2304 0
48.5374 3.82548 0
48.4453 1.32737 0
46.0853 5.49019 0
43.9286 6.75484 0
61.1188 38.2889 0
59.0292 39.66 0
81.2096 11.2037 0
81.7908 8.77646 0
79.3525 30.6628 0
77.024 31.5704 0
52.3974 8.34774 0
50.9318 6.32237 0
25.8701 30.1879 0
23.7352 28.8892 0
94.5545 17.5206 0
96.8315 16.4896 0
29.547 32.3343 0
31.8568 33.2885 0
65.8253 4.58819 0
65.8106 7.08798 0
53.2547 2.12783 0
51.4507 3.85884 0
14.5797 9.12506 0
15.11 6.68511 0
7.2251 18.9273 0
5.03368 17.7257 0
61.2236 40.5745 0
59.9026 42.6964 0
74.2199 7.42473 0
73.8029 4.96036 0
23.5496 30.507 0
23.7906 28.0206 0
78.81 6.99054 0
76.6523 5.72492 0
79.0521 11.4076 0
81.1657 12.7446 0
7.64398 2.54384 0
5.14475 2.6145 0
76.4694 16.1207 0
74.4873 14.5958 0
47.9008 9.56402 0
49.6882 11.3117 0
80.0427 2.06189 0
82.4994 1.59939 0
29.1475 30.1588 0
27.1919 28.6034 0
70.9973 16.5472 0
71.5479 14.1108 0
4.53812 13.617 0
6.49474 12.0605 0
40.5733 0.412437 0
39.5301 2.68425 0
60.421 12.5869 0
59.8515 15.0207 0
41.2122 3.7565 0
39.1726 5.20256 0
33.6292 29.671 0
36.1215 29.8579 0
33.1701 21.1678 0
32.9525 18.6784 0
79.6145 15.6863 0
80.1715 18.1209 0
72.6847 34.9342 0
70.5503 33.6327 0
56.732 8.48647 0
54.323 7.81843 0
44.5342 9.11597 0
43.2014 11.2311 0
82.5794 16.6437 0
83.6868 14.4059 0
11.5889 0.313848 0
10.6998 2.64864 0
78.0336 16.2764 0
80.0645 17.7352 0
59.4224 3.21576 0
60.7506 5.33384 0
72.2714 1.39589 0
72.1932 3.89425 0
66.8034 2.86192 0
68.0753 0.708601 0
13.3383 3.78683 0
15.1551 2.07031 0
71.9977 26.7435 0
74.4554 27.2013 0
16.8339 17.6135 0
15.4224 19.6755 0
72.2299 38.5472 0
72.1587 36.0497 0
43.4708 20.9824 0
41.2051 22.0379 0
57.2698 19.452 0
57.5365 21.9376 0
64.7042 28.997 0
67.1888 28.7258 0
24.6277 32.0968 0
27.034 31.4195 0
50.1169 28.992 0
49.1069 31.2785 0
59.8195 37.3939 0
58.5545 35.2379 0
22.4171 29.2598 0
24.8331 28.6178 0
39.6859 36.1092 0
37.2341 36.5957 0
5.91973 10.097 0
3.89264 11.5606 0
54.8094 20.9865 0
56.8445 22.4378 0
68.5363 19.8241 0
68.8436 17.3445 0
42.0093 42.8965 0
42.7761 45.2758 0
19.0606 24.7185 0
16.9107 25.9941 0
69.2606 4.3102 0
66.9111 3.45475 0
18.7244 12.9224 0
19.4274 10.526 0
97.8414 0.549926 0
97.0197 2.90863 0
21.3142 0.623064 0
21.779 3.07315 0
13.4494 6.00662 0
14.5848 8.23049 0
94.8074 5.82382 0
95.341 3.38385 0
58.6798 11.8007 0
59.4831 14.1682 0
26.7203 40.1556 0
25.2275 42.1605 0
62.4449 18.932 0
64.5528 17.5901 0
9.53633 7.77776 0
11.9477 7.11496 0
44.2736 18.2792 0
41.8843 19.0127 0
89.0131 10.8663 0
91.4733 10.4188 0
65.5037 41.8163 0
63.0791 41.2074 0
51.2721 34.5949 0
53.6854 33.9454 0
12.7573 8.62046 0
14.7441 10.1358 0
75.0758 18.5779 0
72.5821 18.3945 0
69.1928 26.6037 0
69.6468 29.061 0
19.5685 11.8931 0
21.8239 12.9702 0
36.8827 40.2368 0
34.4743 39.5679 0
29.2886 28.4618 0
30.9064 30.3657 0
12.3776 19.681 0
13.5797 17.4907 0
42.0318 43.3412 0
39.6382 44.0621 0
34.2198 5.30858 0
33.7209 7.7584 0
94.9464 17.1125 0
93.8585 14.8627 0
53.7818 26.4632 0
54.362 28.8947 0
68.311 36.4934 0
67.5333 38.8681 0
71.2642 37.2119 0
69.3202 38.7821 0
30.4475 15.7011 0
32.6039 16.9631 0
62.7564 8.22963 0
65.2416 8.49941 0
52.3971 17.5086 0
51.1269 19.6615 0
68.8439 3.77889 0
68.9152 6.27784 0
24.0005 7.83356 0
26.0345 9.28227 0
31.7551 14.813 0
33.471 16.6289 0
72.4562 6.12868 0
74.7301 5.09741 0
47.22 15.4242 0
45.6761 17.3903 0
36.6556 42.0195 0
38.687 40.5626 0
22.8032 10.5336 0
24.4449 8.64735 0
22.9497 37.9393 0
25.3294 37.1721 0
79.5731 20.6228 0
81.8246 21.711 0
80.4549 16.2221 0
78.1811 15.1804 0
68.2004 34.3942 0
68.4445 36.8813 0
32.7556 27.1299 0
34.9871 28.2547 0
49.0973 3.77725 0
47.4579 5.66468 0
34.1719 40.812 0
32.8129 42.9099 0
47.6777 12.7596 0
48.1987 15.2047 0
50.2589 18.9769 0
51.633 16.8887 0
33.8058 30.8099 0
34.4914 28.4064 0
2.37213 13.8499 0
4.85636 14.1332 0
40.0775 40.4154 0
40.8239 42.801 0
10.1312 16.2244 0
9.51215 18.6443 0
32.9126 16.2538 0
31.8674 18.5246 0
43.2634 1.12563 0
45.6796 0.480998 0
37.1109 37.0168 0
39.3536 35.9128 0
81.2594 10.1614 0
81.7521 7.71481 0
30.452 3.77827 0
28.2962 5.04553 0
49.407 1.53494 0
47.6108 3.27402 0
60.7864 31.4275 0
62.5624 33.1865 0
26.1555 37.4337 0
24.4773 35.5828 0
33.9326 3.35731 0
36.4207 3.5997 0
46.8629 29.2452 0
45.8389 31.5256 0
19.4596 36.3549 0
21.1872 38.1595 0
56.1285 28.4409 0
58.6274 28.475 0
92.8125 9.49612 0
95.2282 10.1425 0
22.0526 29.189 0
24.5247 29.5589 0
48.2767 17.8805 0
50.7292 18.3613 0
28.7819 21.8263 0
27.7296 19.5609 0
88.6602 18.1081 0
91.014 18.9541 0
85.3206 15.5986 0
82.8237 15.7454 0
59.5477 45.3852 0
60.8287 47.532 0
89.5225 2.53331 0
89.7283 5.02232 0
95.4444 9.82481 0
93.352 8.45601 0
64.4701 41.6337 0
62.9817 43.6415 0
56.0268 26.2309 0
58.3502 25.3107 0
71.0101 2.0118 0
71.0263 4.51158 0
51.42 11.9838 0
50.5042 9.65763 0
58.3443 28.0065 0
57.6692 25.5997 0
9.33906 7.88163 0
7.79279 5.91968 0
51.6917 13.5926 0
49.2098 13.2972 0
49.7134 24.5279 0
50.1429 26.9906 0
72.6287 28.5497 0
70.2253 27.8619 0
81.3128 36.5192 0
78.9984 37.4629 0
80.7795 18.3904 0
81.4354 20.8002 0
63.0491 6.4663 0
60.7607 5.45955 0
49.6091 11.9605 0
47.1155 11.7894 0
44.4672 28.6654 0
42.0105 29.1245 0
88.6272 7.8463 0
88.0981 10.2864 0
72.3144 6.48708 0
71.0268 8.62738 0
87.6884 13.9786 0
88.6353 16.2902 0
36.553 41.054 0
38.2763 42.8644 0
62.5499 3.76364 0
63.7197 1.55435 0
39.9382 15.2598 0
40.0856 12.7643 0
19.3796 6.48979 0
21.5211 5.19733 0
36.3588 46.0287 0
38.7235 46.8399 0
34.5561 31.4998 0
32.3224 32.6221 0
58.9249 19.7108 0
60.7185 21.4522 0
78.2687 16.3041 0
75.8443 15.6892 0
15.8328 29.0804 0
17.1974 26.9884 0
80.552 1.67801 0
78.1508 2.37024 0
37.6357 41.857 0
35.1532 42.1504 0
84.0862 21.5084 0
84.5813 23.9558 0
86.5585 7.36083 0
86.2158 4.88756 0
44.7645 6.18476 0
46.5615 7.92261 0
84.1695 19.8493 0
84.0408 22.3425 0
71.981 17.6951 0
74.4638 17.4029 0
77.1434 25.1428 0
76.5307 22.7211 0
97.1359 15.3184 0
94.6725 14.8886 0
38.3268 23.7686 0
40.4135 22.3924 0
40.9261 1.8988 0
39.8583 4.15931 0
60.188 22.6665 0
57.8522 21.7766 0
23.1349 0.999008 0
24.5981 3.02035 0
71.9326 32.3766 0
69.466 32.7804 0
44.1999 38.3725 0
42.2532 39.9406 0
34.1435 4.51088 0
35.5919 6.54784 0
19.942 15.6752 0
21.6882 17.4613 0
1.50592 8.38158 0
3.1955 10.2229 0
85.6269 25.1145 0
87.7425 23.7842 0
82.6911 14.9536 0
80.2646 14.3461 0
60.7595 3.40432 0
60.1653 5.8325 0
17.2716 24.4082 0
15.7847 22.4014 0
51.8069 39.0569 0
50.5941 36.8711 0
59.732 47.0231 0
62.0356 46.052 0
81.7068 19.3121 0
82.0051 21.7912 0
60.0699 15.26 0
57.658 14.6039 0
21.575 24.6137 0
21.4645 27.1088 0
50.5588 36.8375 0
51.5035 34.5232 0
68.8535 24.2805 0
66.7879 22.8722 0
85.439 32.1959 0
83.0901 33.0483 0
10.0327 12.7693 0
7.97065 14.1837 0
90.67 3.1971 0
88.5747 1.83328 0
85.5524 8.50268 0
87.7076 7.23729 0
32.9517 40.6297 0
33.1197 43.1231 0
16.5746 0.849218 0
18.9361 1.66786 0
80.4452 27.6872 0
82.3851 26.1121 0
21.4043 11.1375 0
19.7259 9.28849 0
93.5187 17.1639 0
91.2217 16.1748 0
19.3853 35.8435 0
19.2375 33.3504 0
17.9612 35.4735 0
20.2103 34.3816 0
76.6397 12.1922 0
75.0741 14.1375 0
20.8945 4.78175 0
18.5531 3.90813 0
26.3048 33.9789 0
24.1475 32.7179 0
55.3272 7.21492 0
57.4746 5.93516 0
69.3402 3.96619 0
70.4299 6.21674 0
22.3975 17.166 0
21.7064 14.767 0
89.4846 6.17691 0
86.9839 6.16341 0
60.1539 4.39369 0
57.6657 4.1488 0
86.6738 11.3978 0
84.2703 10.7053 0
80.9432 22.676 0
82.1144 20.4705 0
69.7989 32.6424 0
68.9999 30.2744 0
42.453 49.1066 0
40.5285 47.511 0
30.6297 29.5518 0
31.5559 31.8723 0
19.9221 37.6838 0
20.2249 35.2043 0
64.2196 5.76756 0
62.4892 7.57104 0
91.4308 1.98069 0
90.9689 4.43502 0
85.7543 10.1825 0
87.2329 12.197 0
16.1127 1.28344 0
14.0757 2.73214 0
71.9627 36.789 0
74.3875 36.1821 0
14.8962 16.3417 0
17.3191 16.9597 0
85.8868 31.0218 0
87.5727 32.8647 0
8.11696 22.1313 0
10.6148 22.0079 0
49.9333 35.7404 0
52.4256 35.5538 0
9.11278 20.6175 0
10.8353 18.8056 0
62.5446 32.0989 0
60.2751 33.1453 0
37.5391 6.93803 0
39.0305 4.93147 0
9.77552 9.23727 0
11.9516 8.00553 0
60.1584 26.1206 0
57.6606 26.2058 0
32.8288 17.3169 0
33.7747 19.6295 0
92.6082 11.5141 0
92.9376 13.9901 0
50.0439 4.54607 0
52.1267 5.92912 0
21.7582 11.9183 0
23.221 13.9418 0
16.4475 4.94049 0
18.762 3.99389 0
38.9371 33.9147 0
41.0738 32.6176 0
2.05906 5.00209 0
2.96185 2.67214 0
17.421 17.2004 0
16.3922 19.4767 0
81.4731 37.7266 0
82.4993 35.45 0
72.921 12.6513 0
74.7533 10.9542 0
66.3232 41.5964 0
63.931 42.3211 0
63.7584 26.5799 0
65.7456 25.065 0
49.8633 6.19691 0
48.3248 8.16741 0
60.1856 40.8636 0
62.4076 42.009 0
23.3801 10.9601 0
24.481 13.2008 0
60.0964 31.3666 0
61.0425 33.6803 0
85.0635 22.5133 0
87.5635 22.4382 0
74.5942 19.9148 0
72.1676 19.3111 0
56.0527 12.5088 0
58.4964 13.0346 0
61.6784 4.35708 0
60.6287 2.08818 0
60.717 47.6316 0
58.2189 47.7278 0
50.6469 16.9326 0
50.9635 19.4125 0
26.1254 33.3405 0
27.1141 31.0454 0
43.6894 22.7161 0
41.6354 21.2926 0
70.2626 18.6575 0
72.736 19.0232 0
72.5335 1.61565 0
72.7208 4.10847 0
33.4008 17.168 0
35.0365 19.0568 0
55.2409 3.63406 0
57.684 4.16604 0
62.747 27.0925 0
60.2479 27.117 0
59.5726 35.6195 0
59.7189 33.1243 0
41.7301 31.4557 0
39.347 32.2094 0
65.7214 33.9557 0
63.6984 32.4873 0
41.2704 36.2787 0
39.9673 38.412 0
73.253 29.8581 0
72.8197 32.3185 0
50.7635 40.2776 0
51.8571 42.5255 0
59.8235 10.161 0
58.3231 8.16111 0
82.5695 20.0685 0
84.8665 19.0819 0
66.24 0.809421 0
68.7296 0.569179 0
72.795 32.7637 0
74.6723 31.1148 0
66.5381 33.6478 0
65.2597 35.7949 0
67.8036 46.3752 0
68.5298 43.9841 0
63.7399 23.1181 0
64.8379 20.8735 0
80.436 11.3342 0
82.0433 13.2484 0
30.9788 20.5477 0
30.0301 18.2367 0
25.2905 20.7748 0
26.8619 22.7167 0
53.9907 28.8061 0
56.4765 28.5493 0
85.7461 28.4088 0
85.2147 25.9697 0
37.9135 1.90948 0
40.3922 2.23971 0
42.0932 29.6483 0
43.0787 27.3511 0
19.9407 35.492 0
22.4276 35.7456 0
84.4642 11.5744 0
86.9646 11.5138 0
30.5384 1.35918 0
33.0054 0.950552 0
61.9975 42.577 0
59.8331 41.3262 0
40.0187 13.5559 0
38.0228 15.0613 0
71.9325 29.2619 0
70.0862 27.5768 0
60.3723 30.3933 0
59.6105 28.0126 0
6.61268 10.6928 0
5.74284 13.035 0
33.6168 6.92829 0
32.0035 5.01976 0
57.3003 24.8613 0
59.7372 24.3075 0
61.7602 28.1523 0
59.273 28.3967 0
12.99 2.04257 0
15.1462 3.30537 0
72.4146 5.04618 0
69.926 4.81049 0
30.5113 6.32369 0
28.1133 7.03153 0
80.792 3.76266 0
78.2939 3.87987 0
54.3877 36.0858 0
52.3754 37.5683 0
30.5773 14.3819 0
32.9994 14.9971 0
80.5845 9.24497 0
82.8668 8.22559 0
11.9767 31.6858 0
12.9706 29.3977 0
46.3793 5.4728 0
48.8283 5.97584 0
2.74841 5.33542 0
5.24705 5.23689 0
10.2257 9.58929 0
11.2262 11.8773 0
4.34994 17.9031 0
6.59947 16.8108 0
29.3765 8.56265 0
26.8774 8.51377 0
43.6963 2.1463 0
46.0022 3.11304 0
77.3501 2.84336 0
75.5811 4.60292 0
55.2187 26.8888 0
57.4694 27.9758 0
24.791 19.4324 0
26.9781 18.2203 0
12.7653 31.0088 0
14.0205 28.8507 0
13.7541 17.9275 0
15.6085 19.6017 0
31.5293 36.1806 0
33.6347 37.527 0
85.1172 19.0244 0
85.4431 16.5493 0
54.9628 42.5105 0
56.1395 40.3051 0
56.8642 43.1657 0
54.375 42.9377 0
69.3649 41.2422 0
68.4402 43.5636 0
81.6126 5.25092 0
81.1854 7.70921 0
67.3266 28.8785 0
69.4199 27.514 0
23.3545 28.3753 0
20.8601 28.542 0
76.5902 33.2253 0
74.697 31.5931 0
40.408 1.94219 0
41.9605 -0.0174784 0
21.4812 3.51735 0
19.2787 2.33992 0
32.6988 28.1492 0
34.5057 29.875 0
39.7665 2.38826 0
37.9767 4.13401 0
68.5876 6.36233 0
66.5263 7.7749 0
7.19099 2.11539 0
8.72643 0.143026 0
59.0877 33.5575 0
57.1297 32.0036 0
22.6363 35.537 0
24.1712 37.508 0
76.7263 25.0442 0
76.1724 22.6084 0
8.88203 16.7733 0
9.72093 19.1253 0
27.0078 16.7714 0
28.4334 14.7178 0
31.9289 37.1103 0
32.7571 34.7522 0
22.1851 35.0514 0
19.9441 33.9458 0
73.3409 37.2267 0
72.0174 35.1065 0
15.0366 2.09675 0
16.9741 0.51799 0
52.2305 12.298 0
52.0971 9.80154 0
33.8187 8.8651 0
32.6847 6.63818 0
24.9657 41.9332 0
27.3545 41.1945 0
57.5821 12.6639 0
59.8042 11.5199 0
84.2072 35.2925 0
82.4069 33.5587 0
40.3972 47.2833 0
38.8835 45.2939 0
18.072 12.2236 0
20.5264 12.7026 0
92.6915 8.19499 0
94.3745 6.34847 0
81.3872 33.1269 0
80.6736 30.733 0
38.8208 14.9701 0
38.6835 17.4661 0
28.5706 11.6663 0
29.9546 13.7456 0
51.9121 39.6679 0
54.4028 39.8772 0
86.5728 28.1778 0
85.9019 25.7732 0
22.1592 2.37059 0
23.5599 4.4343 0
49.3552 3.32739 0
47.2369 1.99894 0
18.8473 19.7852 0
21.3267 20.1103 0
2.12164 9.04763 0
4.30305 7.82566 0
20.2603 3.62527 0
18.8566 5.69233 0
62.9449 44.5621 0
65.1635 45.7145 0
34.4737 21.3211 0
36.5625 19.9475 0
94.5914 1.03618 0
93.9464 3.44905 0
49.7442 42.5415 0
49.358 40.0717 0
58.6814 10.9394 0
56.3286 10.0948 0
36.6029 10.8439 0
34.3159 11.854 0
56.8276 44.0022 0
56.7522 46.501 0
2.45612 12.6394 0
1.7954 10.2298 0
82.4206 4.99234 0
83.3138 2.6615 0
37.6735 47.4501 0
35.415 46.3784 0
65.9839 39.675 0
68.3122 40.5854 0
24.6346 34.2102 0
27.1115 34.5463 0
68.4738 39.5858 0
70.8764 38.8962 0
13.7873 30.7404 0
12.1752 28.8333 0
58.8651 44.5701 0
61.2997 45.1376 0
24.3205 5.6944 0
24.1874 8.18862 0
81.1375 20.9973 0
78.7596 21.7695 0
29.8628 39.8774 0
29.5039 42.3504 0
23.6962 17.1358 0
21.4411 16.0582 0
2.75647 8.24623 0
4.97968 7.10195 0
48.0246 30.9957 0
49.9852 29.4455 0
87.0631 23.2276 0
84.6836 23.9949 0
34.6556 11.0458 0
32.3189 11.9351 0
47.5552 26.1713 0
46.0969 24.1414 0
67.4469 24.4264 0
65.4544 22.9166 0
58.2219 30.2936 0
56.8769 32.4001 0
32.3092 35.0367 0
34.6026 36.0298 0
57.4177 36.5006 0
56.0566 34.404 0
26.6884 3.4511 0
28.806 2.12106 0
11.1644 26.7314 0
12.7028 24.7615 0
63.5243 33.2422 0
61.9259 35.1632 0
28.4776 11.5015 0
26.0298 12.013 0
44.5032 45.9398 0
42.0043 46.0069 0
30.8275 14.5832 0
31.9553 16.8124 0
13.2105 1.83411 0
15.3335 0.514087 0
76.142 15.0977 0
73.8863 16.1729 0
12.6848 6.55336 0
13.3313 8.96484 0
35.4845 5.07114 0
36.3432 7.41857 0
54.0001 17.8389 0
51.5402 18.2807 0
31.3081 8.60715 0
29.005 7.6386 0
24.2825 6.70442 0
21.7901 6.91026 0
48.6132 3.78121 0
51.0485 4.3476 0
32.1483 13.911 0
32.0853 11.4126 0
1.59448 3.46887 0
4.07375 3.79207 0
62.8182 44.4525 0
60.5005 43.5155 0
42.6304 24.6101 0
40.1367 24.4455 0
48.3441 30.9304 0
50.5239 32.153 0
58.8857 35.476 0
56.3958 35.6927 0
50.0158 46.7564 0
52.0711 45.3335 0
26.9471 5.78795 0
26.3129 8.20616 0
43.509 36.2169 0
42.0886 34.1604 0
52.88 28.1242 0
50.9821 29.7503 0
60.9589 40.1362 0
62.0937 42.3635 0
46.9306 23.8249 0
45.6635 21.6704 0
19.2564 2.97183 0
18.5414 0.581272 0
48.2282 42.0764 0
49.1907 39.7692 0
47.8172 39.6654 0
45.364 39.1869 0
73.2298 11.636 0
72.6979 9.194 0
52.5277 18.0036 0
50.7832 16.2133 0
25.0047 41.9843 0
27.4879 41.6919 0
51.9719 24.2636 0
50.5578 26.3247 0
25.8237 30.477 0
28.2513 31.0714 0
5.37769 8.02904 0
2.89738 7.71329 0
20.8626 35.4075 0
18.7465 36.7388 0
31.8771 19.3218 0
34.152 20.3558 0
30.0863 19.4027 0
27.7372 18.5497 0
78.7403 17.6181 0
79.4793 20.0041 0
41.9078 32.3132 0
42.4541 29.874 0
44.788 12.7121 0
45.2489 10.2548 0
44.192 20.25 0
46.042 18.5689 0
36.1367 2.59487 0
35.7825 5.06942 0
94.4648 4.87487 0
95.2727 7.23933 0
41.9029 21.9584 0
40.3511 23.9183 0
57.7874 26.3329 0
55.7456 24.8911 0
62.7098 27.1232 0
65.1196 27.7872 0
8.56365 15.6955 0
8.48095 18.1916 0
70.8422 31.1015 0
68.3977 30.579 0
45.8787 35.8575 0
46.1246 33.37 0
87.0703 2.75599 0
88.7579 4.59956 0
22.5028 38.6691 0
22.8762 41.139 0
66.2473 43.3333 0
64.2168 41.8748 0
77.3532 12.0521 0
77.8902 14.4913 0
50.8449 47.1769 0
49.1598 49.0236 0
14.9028 13.4502 0
15.4101 11.0053 0
75.63 19.0715 0
75.4222 21.5604 0
59.0509 45.7656 0
61.1016 47.1954 0
83.7385 9.49717 0
86.1828 8.96981 0
6.97069 1.80653 0
4.47223 1.89989 0
80.7513 19.0721 0
82.5507 17.3392 0
13.6048 0.200064 0
11.1066 0.105779 0
14.8846 32.3006 0
17.2635 31.5339 0
14.2083 12.9047 0
15.5746 14.995 0
66.6993 1.06772 0
64.2369 1.50399 0
72.2766 24.5921 0
71.3201 26.8999 0
52.0211 31.5856 0
50.0646 30.0303 0
29.3009 29.3148 0
28.033 27.1622 0
76.0791 25.4881 0
76.3124 23.0014 0
88.1011 17.3073 0
90.3409 18.4201 0
56.5914 9.19785 0
54.302 10.2012 0
30.5956 42.4752 0
32.0837 44.483 0
49.5605 38.4066 0
50.1526 35.978 0
33.5609 30.782 0
35.7978 31.896 0
51.2967 20.3327 0
50.1624 22.5603 0
48.0053 20.3383 0
46.7587 18.1716 0
56.3146 36.8913 0
54.221 38.2563 0
27.9042 28.1502 0
28.4855 30.5798 0
32.5577 34.6244 0
33.1929 37.0411 0
91.7298 14.7569 0
93.5632 16.4568 0
6.70154 6.18261 0
6.37868 8.65971 0
30.5782 35.945 0
31.2455 33.5366 0
65.2157 35.0494 0
64.2787 37.3661 0
70.8791 2.32127 0
72.4639 0.389732 0
72.2238 25.1924 0
72.7018 22.7405 0
12.965 14.683 0
14.9601 16.1875 0
48.3622 3.59702 0
50.7923 4.18556 0
17.3718 5.89226 0
17.5671 8.38024 0
6.49115 18.634 0
4.00566 18.3629 0
31.8225 34.0516 0
32.0068 36.5437 0
59.3326 33.0238 0
59.0348 35.5055 0
80.601 24.5646 0
80.9875 27.0318 0
96.0276 18.4394 0
96.4382 15.975 0
81.6451 13.2275 0
84.1088 12.7979 0
31.3984 34.5799 0
30.3175 32.3272 0
95.0413 8.67217 0
94.1706 11.0134 0
92.6669 17.9518 0
94.8819 16.794 0
25.3089 38.0647 0
25.015 35.5839 0
11.1019 27.2872 0
12.9043 29.0154 0
25.1883 17.2064 0
22.7289 17.6601 0
33.0338 22.3869 0
35.5259 22.5762 0
75.1146 23.1812 0
72.6151 23.2285 0
50.0608 27.7421 0
49.6796 30.2126 0
20.9747 18.78 0
20.4599 21.2238 0
93.0583 7.24635 0
92.2349 9.60428 0
49.1248 48.2757 0
47.6814 46.2347 0
60.3064 39.2203 0
62.187 37.5742 0
68.5152 12.736 0
66.4534 11.3214 0
74.7674 11.5823 0
72.6002 12.8251 0
59.6158 42.0579 0
61.2499 43.9497 0
83.021 12.0927 0
83.6988 9.69051 0
12.3215 9.80065 0
11.2404 7.54972 0
46.2349 43.1953 0
44.2302 41.7023 0
78.0979 4.24313 0
75.6368 4.68014 0
79.2632 34.7704 0
79.7277 32.3164 0
50.3189 26.4608 0
47.8536 26.0516 0
15.8973 15.0047 0
18.369 14.62 0
24.6615 1.89447 0
27.1494 2.11795 0
21.78 5.98308 0
23.7362 4.42421 0
38.4285 26.9132 0
35.983 27.4301 0
39.592 38.1124 0
37.0967 37.9676 0
20.424 23.3752 0
19.03 21.3027 0
55.8234 8.82469 0
53.5455 9.85414 0
30.7861 38.8927 0
33.2334 38.3826 0
56.7853 41.9427 0
59.257 41.5705 0
59.0629 12.544 0
61.5135 12.0533 0
84.7849 1.9567 0
82.427 2.78592 0
54.6906 35.8706 0
52.9197 37.6345 0
27.8945 39.5275 0
30.389 39.3624 0
56.9191 32.7525 0
56.6315 30.2694 0
77.6341 21.3841 0
75.7547 23.0305 0
36.6702 36.7109 0
36.0353 39.1284 0
70.6863 32.5404 0
68.2181 32.9344 0
48.9417 32.5805 0
50.2826 30.471 0
64.395 19.5205 0
65.4037 21.8077 0
36.9058 30.7165 0
39.4047 30.7628 0
52.099 3.19163 0
54.2074 4.53539 0
16.0921 27.0645 0
13.8893 25.8833 0
28.8145 37.8254 0
26.3458 38.2206 0
66.3245 34.9667 0
64.7356 33.037 0
86.8389 13.8258 0
85.7554 16.0752 0
79.9156 37.6203 0
77.6134 38.5936 0
1.10032 9.67073 0
2.78594 11.5157 0
22.3071 7.08358 0
19.8214 6.81105 0
27.9931 24.3119 0
25.5187 23.9564 0
48.7824 5.6263 0
46.4128 4.82871 0
39.4104 8.52384 0
37.1171 7.52984 0
13.1983 16.2515 0
11.7697 14.2031 0
35.187 38.032 0
33.3733 39.7522 0
76.1415 8.08192 0
78.2057 6.67548 0
38.886 44.0255 0
38.07 41.6629 0
46.1923 9.66014 0
48.2301 8.2121 0
39.8888 31.1296 0
37.4644 31.7378 0
37.3089 29.3679 0
36.6424 31.7768 0
36.6979 27.0988 0
34.2216 27.4388 0
30.6716 4.61015 0
33.0178 5.4716 0
71.8584 32.0929 0
74.0361 30.8674 0
24.152 12.4804 0
26.5421 11.7436 0
33.2129 43.8501 0
35.4989 42.838 0
26.0624 22.61 0
24.0406 24.0803 0
5.64176 2.57023 0
6.55729 0.245096 0
94.3733 5.90921 0
96.7803 6.58725 0
53.4135 19.1139 0
51.7056 17.2886 0
53.8055 45.6139 0
52.3228 47.6266 0
94.7178 5.25114 0
93.3198 3.1793 0
30.2105 21.2997 0
27.7636 20.7897 0
57.4948 2.31902 0
58.1104 4.74196 0
94.5941 11.5134 0
92.9543 9.62686 0
43.7254 7.39045 0
46.188 6.95978 0
49.3925 42.5512 0
47.4333 44.1039 0
42.4124 27.4864 0
44.8265 26.8398 0
24.2254 22.7582 0
21.7539 22.3805 0
70.0122 34.3349 0
70.1824 31.8421 0
18.3764 13.5846 0
20.5922 14.7408 0
9.37677 28.8517 0
11.6637 27.8383 0
62.0476 24.6831 0
60.8149 22.5084 0
81.7571 25.2882 0
79.2575 25.224 0
22.8047 29.4311 0
20.6844 30.7548 0
14.2009 29.7705 0
14.3116 32.2643 0
12.6368 13.0684 0
13.6618 15.3451 0
67.3908 22.9597 0
67.8368 20.5012 0
79.3482 21.9727 0
81.7577 22.6425 0
15.2531 21.7983 0
14.1801 24.054 0
21.2424 13.666 0
18.8958 12.8039 0
44.9044 45.203 0
42.4073 45.0888 0
62.2463 38.2586 0
60.829 36.1995 0
59.6115 47.461 0
61.9437 46.561 0
39.9633 37.9847 0
42.4623 37.9356 0
55.7361 30.4768 0
53.394 29.6044 0
67.6335 40.9638 0
65.1462 41.2132 0
71.0784 5.79867 0
73.5772 5.81877 0
80.9112 3.31027 0
80.8422 0.815918 0
59.6904 7.28058 0
57.9512 9.07593 0
32.3507 19.7047 0
31.5461 22.071 0
43.9421 32.6712 0
44.0548 35.1683 0
97.7904 14.1675 0
97.9396 11.6733 0
74.1354 18.7079 0
72.1835 17.1451 0
77.102 31.7306 0
76.387 34.124 0
55.9603 48.8581 0
56.3215 46.3844 0
40.192 1.41286 0
37.7754 2.05585 0
72.0666 20.222 0
74.5411 19.8664 0
41.8318 44.9102 0
44.3122 45.2205 0
87.0857 2.76325 0
86.5112 5.19296 0
19.3513 22.0983 0
18.9134 19.6403 0
17.5054 36.4947 0
16.262 34.329 0
26.0561 38.2442 0
24.1773 39.8934 0
61.6713 6.51662 0
59.6962 4.98377 0
39.7151 30.3059 0
40.0323 32.785 0
63.261 5.73328 0
60.7913 6.12076 0
60.583 6.87118 0
61.4275 4.51837 0
79.337 37.142 0
76.9 37.6987 0
46.8199 23.6208 0
47.7788 21.3122 0
81.964 12.4314 0
79.4899 12.7959 0
17.6897 13.0631 0
18.5022 15.4237 0
48.2074 40.853 0
46.3932 42.5727 0
65.3953 20.0048 0
64.1646 17.8288 0
42.9196 40.264 0
41.7437 42.47 0
54.5127 17.1929 0
53.4399 19.4507 0
22.8858 29.5775 0
25.2775 28.8501 0
23.2218 15.0587 0
20.7857 14.496 0
92.3151 7.82708 0
90.7982 9.81178 0
32.1185 32.2978 0
33.5838 30.2727 0
68.7483 28.7718 0
68.9823 31.2597 0
97.6656 2.42322 0
96.1729 4.426 0
67.3811 15.2072 0
69.8437 14.7808 0
78.3797 23.5145 0
78.8352 21.0592 0
37.5554 16.2472 0
35.1738 15.4899 0
68.921 9.50525 0
69.4694 7.0671 0
32.9197 20.4518 0
34.2678 18.3465 0
33.2535 31.8662 0
34.9038 29.9887 0
87.9101 26.1226 0
89.8874 27.6536 0
84.2868 23.8112 0
86.708 24.4383 0
38.5089 11.4336 0
36.0782 12.0174 0
65.6963 40.6075 0
63.5273 39.3646 0
37.7221 1.80252 0
35.5426 3.02762 0
75.4885 40.179 0
75.9092 42.6419 0
67.3314 2.39835 0
67.1244 4.88962 0
72.008 15.3716 0
70.1618 13.685 0
63.3883 32.1466 0
65.883 32.3005 0
39.5937 3.41491 0
38.8519 5.80231 0
46.2195 18.9545 0
47.7901 17.0098 0
37.5044 38.9906 0
36.2979 41.1799 0
90.1621 7.34872 0
90.8886 4.95948 0
92.5886 20.1346 0
90.1856 19.4409 0
55.9037 19.4751 0
56.1555 16.988 0
22.8436 18.9603 0
21.4622 21.0428 0
32.7146 16.2525 0
34.4969 18.0035 0
72.9894 38.5958 0
73.353 36.1241 0
61.7524 40.9726 0
63.1813 43.0237 0
27.4305 33.099 0
29.7257 32.1081 0
27.6193 16.7941 0
25.7791 15.1049 0
39.5057 2.61782 0
37.4735 4.07438 0
18.5855 28.653 0
17.7612 26.2957 0
73.4782 2.79631 0
75.2005 0.989132 0
75.7777 42.2935 0
73.281 42.4277 0
57.3574 44.1397 0
54.9357 43.52 0
27.2363 9.18805 0
28.8634 11.0827 0
24.1939 7.91987 0
23.0286 10.1311 0
76.6213 41.7784 0
74.5089 43.1143 0
30.3623 38.7787 0
32.0512 40.6206 0
47.7262 27.6892 0
48.5099 30.0628 0
78.4405 7.06247 0
80.9159 6.70875 0
76.0259 10.5019 0
76.2945 12.985 0
69.5539 34.2913 0
68.9435 31.868 0
77.7457 17.2218 0
79.729 18.7444 0
84.5191 32.7166 0
85.6752 34.9309 0
64.9236 34.6415 0
64.242 32.2368 0
32.397 10.3471 0
29.8984 10.2811 0
29.5241 44.647 0
31.8196 45.6366 0
20.0289 29.2174 0
22.4917 28.7886 0
45.1411 28.531 0
47.3549 27.371 0
19.2586 34.0156 0
20.5288 31.8638 0
66.1395 9.53572 0
66.1574 7.03602 0
61.6877 1.85991 0
64.0349 0.997725 0
80.9495 1.40345 0
79.8129 3.62371 0
40.5915 47.7067 0
38.0944 47.585 0
58.8168 26.2477 0
59.6359 28.6094 0
14.793 23.5325 0
16.8842 24.901 0
4.12338 14.476 0
6.17076 13.0407 0
84.2877 21.781 0
82.6591 19.8853 0
8.18479 0.60919 0
5.722 0.181728 0
75.4644 20.2211 0
73.1163 21.0777 0
52.434 10.0575 0
50.7796 8.18325 0
43.3147 5.94392 0
45.7136 5.23928 0
39.2814 2.96006 0
37.8631 5.01895 0
3.34966 8.67184 0
0.91342 8.10991 0
87.8829 12.1657 0
88.2098 14.6413 0
39.6898 11.497 0
37.4245 10.4412 0
57.9443 7.49296 0
56.0186 5.89856 0
16.2302 26.9654 0
13.7451 27.2449 0
52.5462 5.52287 0
55.0191 5.8908 0
89.8193 6.99389 0
92.1984 7.76419 0
93.4871 4.65994 0
91.8445 2.77584 0
95.0951 0.410835 0
96.8519 2.18977 0
16.0147 29.4922 0
18.3841 28.6958 0
62.4951 9.71118 0
61.7916 12.1097 0
18.5801 7.22095 0
17.947 4.80753 0
70.1882 45.2807 0
67.8116 44.5041 0
79.69 8.42354 0
80.5735 6.08929 0
91.8842 15.7155 0
89.7279 14.449 0
59.5421 8.90488 0
59.3377 6.4132 0
21.3636 28.6478 0
23.6676 29.6161 0
24.8561 42.1876 0
26.3512 40.1845 0
22.3594 13.35 0
24.554 14.5446 0
9.8736 12.1255 0
11.0526 9.92267 0
33.5127 45.5485 0
34.4669 43.2383 0
67.6412 35.9966 0
69.9045 37.0584 0
25.3221 10.7808 0
26.8388 8.79246 0
84.0442 24.6163 0
82.7011 22.5099 0
87.5687 2.04846 0
89.3459 3.80614 0
51.1099 41.0892 0
53.4471 41.9755 0
82.2025 9.47281 0
80.1192 8.08895 0
65.1321 14.6717 0
66.1406 16.9593 0
42.9477 6.87883 0
42.768 4.38539 0
53.5106 5.60404 0
55.422 3.99267 0
44.3382 39.0037 0
42.8706 41.0273 0
90.568 10.8747 0
92.5389 9.33842 0
23.2397 16.9743 0
24.7696 18.9485 0
23.7561 10.1437 0
23.8007 7.64683 0
60.7285 35.8268 0
60.9651 38.3152 0
44.656 1.30798 0
42.3015 2.15015 0
78.3234 24.3702 0
79.0531 21.982 0
68.8822 38.0038 0
68.7818 35.507 0
27.5457 6.5415 0
29.4625 4.935 0
58.9405 13.3469 0
59.0353 15.845 0
57.7236 9.62359 0
59.6575 11.2079 0
51.7626 19.6206 0
54.1781 20.2621 0
50.6775 38.2811 0
48.1781 38.2796 0
47.4608 22.9303 0
46.4086 25.1979 0
22.6028 21.1975 0
22.8061 23.6866 0
81.0228 2.12495 0
78.5695 1.6363 0
95.2542 4.88162 0
95.3976 7.37561 0
48.3775 41.2368 0
46.7815 43.1608 0
26.3469 16.741 0
25.2058 18.9644 0
89.3249 21.5513 0
88.3686 23.8575 0
43.8498 3.68388 0
46.1179 4.73579 0
53.289 27.9457 0
55.5279 29.0565 0
78.2932 8.39359 0
79.9519 6.52709 0
13.6875 14.0612 0
16.1785 14.2862 0
54.0802 47.6006 0
53.9854 45.1025 0
52.4089 6.10107 0
49.9862 5.48384 0
54.1116 40.6524 0
51.8126 41.6333 0
8.32642 21.9795 0
6.36841 23.5349 0
11.1008 27.73 0
8.61056 27.51 0
49.7339 47.2843 0
47.2342 47.3123 0
43.5522 18.4614 0
45.9008 19.3156 0
28.4206 43.56 0
27.7287 41.1592 0
87.1762 31.5709 0
86.4505 29.1831 0
85.8084 22.5217 0
86.6646 20.1766 0
85.9744 0.793548 0
88.4068 1.37297 0
83.5325 35.7664 0
84.5716 33.4961 0
24.1263 32.7445 0
25.6908 30.7954 0
45.5976 42.3586 0
47.116 44.3443 0
21.3773 35.0279 0
23.654 33.9952 0
6.29148 12.117 0
4.3809 10.5062 0
34.5245 14.7725 0
36.1421 12.866 0
31.2769 46.0307 0
32.9989 44.2185 0
18.264 23.0461 0
20.6775 23.6988 0
10.2837 22.5877 0
11.9864 20.7573 0
50.2246 7.69807 0
47.89 6.80381 0
47.494 30.8742 0
45.1591 29.9832 0
38.8504 21.0744 0
41.2635 20.4231 0
43.593 10.0357 0
41.3843 11.2066 0
77.5071 37.0229 0
79.2831 35.2659 0
39.906 8.99995 0
39.072 11.3568 0
74.8771 40.4619 0
73.629 38.2965 0
60.7948 11.9167 0
58.9244 13.5744 0
96.2335 12.544 0
94.0114 11.3972 0
43.7592 25.4294 0
41.2601 25.4416 0
54.2806 42.9534 0
56.7559 42.6055 0
84.5917 23.597 0
82.0957 23.7532 0
2.53293 9.62064 0
4.59573 8.20783 0
82.1194 4.95916 0
84.6052 5.23301 0
36.547 16.5093 0
38.6686 17.8297 0
44.0093 9.47285 0
42.0189 10.9855 0
21.1768 26.5555 0
22.1779 28.8439 0
43.0483 27.2997 0
45.3656 26.3632 0
15.0439 19.6773 0
14.8656 22.1677 0
20.1524 8.62176 0
21.02 6.27902 0
12.2257 24.8814 0
10.971 22.7228 0
49.8768 41.6022 0
48.6845 39.4051 0
9.5897 24.4815 0
9.38809 26.971 0
35.0903 44.1277 0
32.8813 45.2984 0
13.4061 18.3551 0
11.224 17.1362 0
12.2571 23.8523 0
12.6973 21.3943 0
84.2219 17.4719 0
84.0595 14.9805 0
97.0933 15.4671 0
94.8878 14.2887 0
76.1974 36.8186 0
77.58 38.9007 0
4.73018 2.94721 0
2.27731 3.43351 0
13.8853 26.8716 0
11.4015 26.5803 0
9.91705 5.19291 0
8.652 7.34781 0
87.002 10.0045 0
86.6931 7.52675 0
50.8102 19.0412 0
49.8849 16.7189 0
22.8234 2.99435 0
23.5213 0.593412 0
24.0499 40.522 0
21.5701 40.2034 0
4.32451 10.5357 0
1.91667 11.2104 0
74.0245 28.1952 0
72.4543 30.1385 0
51.6104 16.6893 0
49.4394 17.9278 0
94.673 5.52728 0
96.5451 7.18425 0
92.4036 0.901578 0
90.0028 1.59663 0
54.6877 28.1441 0
57.0167 29.0509 0
3.93697 2.11333 0
2.8219 4.34993 0
25.6126 42.1737 0
28.0956 41.8793 0
24.2845 33.3046 0
25.7561 35.3233 0
64.8739 37.9696 0
63.0606 36.2489 0
45.7806 39.0995 0
46.3265 36.6601 0
59.148 39.537 0
58.3423 41.9032 0
42.832 19.5543 0
41.6312 17.3623 0
48.5241 17.0366 0
47.4646 14.7724 0
92.861 4.87141 0
91.3366 6.85035 0
17.6623 6.63967 0
16.0916 4.69836 0
31.5411 30.8312 0
33.0567 28.8436 0
49.5579 45.2914 0
50.5153 47.6006 0
51.6948 13.9604 0
49.2474 14.4675 0
35.2085 5.67594 0
34.5497 8.08772 0
90.6789 7.7728 0
90.247 10.2322 0
55.2556 45.916 0
54.0063 43.7506 0
16.7163 18.2751 0
18.9017 17.0592 0
14.6226 7.09135 0
14.2843 4.61793 0
24.2799 34.4935 0
21.7874 34.6864 0
62.6306 33.7485 0
60.6609 35.2865 0
11.5564 19.7441 0
13.6551 21.1006 0
76.8124 0.444077 0
74.3154 0.38167 0
59.9267 26.2115 0
57.6718 25.1329 0
70.479 27.1881 0
67.9917 27.4347 0
46.2259 22.9765 0
46.9727 20.5907 0
76.5813 3.91254 0
74.1833 4.61056 0
47.8484 15.2896 0
50.1332 16.3028 0
88.1695 13.6249 0
89.9398 11.8621 0
70.9835 0.226846 0
73.3046 1.15552 0
56.2788 45.8495 0
57.2109 43.53 0
68.163 3.43001 0
65.9352 2.29512 0
22.8392 17.7778 0
24.7576 16.174 0
81.1902 38.8665 0
83.1714 37.3437 0
49.413 3.14767 0
51.1122 4.98149 0
66.0121 3.5056 0
63.6761 2.61459 0
53.3009 12.3371 0
53.0659 9.8481 0
12.6076 15.4828 0
10.7895 17.1987 0
43.1787 4.84663 0
43.6213 7.30703 0
56.1654 20.7597 0
58.6165 21.248 0
60.8465 22.5568 0
58.3658 22.2521 0
28.8093 27.3518 0
26.9921 25.6371 0
40.7074 7.11708 0
38.2295 7.44665 0
17.404 2.3634 0
19.8836 2.03986 0
42.8357 26.0246 0
40.3581 26.3528 0
7.03065 17.7536 0
8.35387 19.872 0
20.2945 12.0694 0
22.1369 10.3788 0
67.4 40.2225 0
65.4889 41.8331 0
45.1253 41.7064 0
45.9821 44.0547 0
70.8146 17.3907 0
73.1957 16.6313 0
88.2766 4.89148 0
90.0143 6.68818 0
49.8862 20.3622 0
48.1618 22.1716 0
56.3569 37.8958 0
56.3568 40.3955 0
82.3769 26.163 0
80.8589 28.1469 0
39.5813 4.61371 0
41.5671 6.13206 0
55.1644 43.766 0
57.0079 42.0779 0
55.3782 43.651 0
57.061 41.8027 0
25.0441 15.5112 0
23.2277 13.7969 0
14.3484 27.9504 0
13.5083 30.3009 0
53.0024 17.2335 0
51.1975 18.9626 0
32.5298 43.0287 0
34.8824 43.8737 0
19.7092 10.9393 0
21.4622 12.7183 0
61.52 41.3315 0
63.7576 40.2178 0
32.9527 27.6364 0
31.005 29.2033 0
31.0008 21.3679 0
31.9723 23.6696 0
72.0702 27.6196 0
71.2382 29.9753 0
38.0817 13.28 0
40.556 13.633 0
47.3026 48.1638 0
45.4822 46.4506 0
70.619 11.6731 0
70.4857 14.1682 0
98.6452 10.2203 0
96.5844 8.8047 0
96.4568 15.9615 0
93.9575 16.0347 0
58.9501 10.4144 0
59.6886 12.8028 0
54.9974 18.575 0
56.4802 20.5876 0
53.9081 41.8471 0
56.3729 41.4319 0
5.05421 4.44345 0
7.53363 4.11967 0
84.5066 18.915 0
86.8293 19.843 0
19.2739 30.4067 0
19.5033 32.8937 0
64.4151 36.0192 0
63.1684 33.8527 0
66.4885 23.6901 0
68.9865 23.6032 0
60.3924 25.6611 0
62.6891 24.6763 0
55.9191 21.3623 0
57.6121 19.5238 0
21.5711 36.5556 0
19.0787 36.7534 0
55.9511 32.5324 0
58.3852 31.9659 0
67.9246 1.85892 0
70.1186 3.05846 0
16.2245 6.30257 0
17.6207 4.23115 0
91.8177 24.3229 0
91.151 26.7293 0
89.1979 19.2356 0
86.7304 18.8254 0
88.0811 12.6504 0
86.5259 14.6048 0
76.4193 19.0182 0
77.6095 16.8229 0
71.0172 21.1695 0
70.1064 23.4956 0
26.6148 25.6811 0
25.3963 27.863 0
55.8055 26.551 0
55.5578 29.0383 0
59.1665 43.3012 0
57.5223 45.184 0
66.2283 18.9518 0
68.2725 17.515 0
81.2738 33.7681 0
79.7398 31.7953 0
50.4282 9.22057 0
49.7703 11.6325 0
26.0559 27.6903 0
24.0228 29.1445 0
49.6495 27.5144 0
49.8897 25.0261 0
89.3091 25.6064 0
91.8074 25.5069 0
78.9859 32.2991 0
76.6529 33.1949 0
76.2028 37.6376 0
76.6475 35.1796 0
22.6864 1.52414 0
23.5112 3.87973 0
17.2396 12.0353 0
15.7652 10.0199 0
76.5404 35.9844 0
78.4074 34.3243 0
25.5352 43.0178 0
23.7482 41.2711 0
24.9576 3.65144 0
23.1404 1.94182 0
86.9038 24.5873 0
85.0477 22.9128 0
84.083 33.6842 0
83.2007 31.3473 0
68.0062 9.32563 0
65.9013 7.97585 0
6.4345 3.80181 0
4.66806 5.5708 0
88.4726 7.29899 0
89.3562 4.96348 0
68.0839 41.0607 0
69.923 39.3687 0
33.5782 19.0509 0
33.4778 21.5481 0
18.3911 18.4882 0
19.9868 20.4098 0
51.0071 20.8741 0
51.9964 18.5784 0
81.216 27.4053 0
79.0172 26.2161 0
33.6439 33.8963 0
31.4637 35.1194 0
42.0757 36.8796 0
44.2656 35.6746 0
9.50105 8.12853 0
8.12811 6.04191 0
46.3949 9.2665 0
43.9177 9.60188 0
38.9207 46.0293 0
36.736 44.8143 0
56.6719 45.0054 0
57.0863 42.5402 0
50.8194 8.00509 0
52.1423 10.1263 0
69.3131 9.75396 0
68.2043 11.9928 0
52.7879 10.8861 0
53.994 8.69637 0
87.955 0.59324 0
87.4311 3.03464 0
87.5947 29.8524 0
88.5094 27.531 0
27.7646 28.0183 0
29.32 26.0617 0
41.1493 3.41156 0
43.5712 2.79012 0
47.3818 29.4954 0
44.8839 29.4165 0
44.8973 23.3842 0
42.4209 23.0486 0
57.5565 36.4195 0
55.6937 34.7527 0
79.9246 4.82521 0
81.3145 6.90177 0
33.0072 1.67671 0
31.3368 3.5371 0
37.9991 49.9465 0
37.9296 51.5152 0
37.9296 51.5152 0
37.7236 53.0718 0
37.7236 53.0718 0
37.3827 54.6045 0
37.3827 54.6045 0
36.9094 56.1017 0
36.9094 56.1017 0
36.3075 57.5519 0
36.3075 57.5519 0
35.5814 58.9442 0
35.5814 58.9442 0
34.7367 60.2679 0
34.7367 60.2679 0
33.7798 61.513 0
33.7798 61.513 0
32.7181 62.6699 0
32.7181 62.6699 0
31.5595 63.7299 0
31.5595 63.7299 0
30.313 64.685 0
30.313 64.685 0
28.9881 65.5277 0
28.9881 65.5277 0
27.5947 66.2519 0
27.5947 66.2519 0
26.1435 66.8519 0
26.1435 66.8519 0
24.6456 67.3231 0
24.6456 67.3231 0
23.1123 67.6621 0
23.1123 67.6621 0
21.5553 67.8662 0
21.5553 67.8662 0
19.9864 67.9338 0
19.9864 67.9338 0
18.4176 67.8645 0
18.4176 67.8645 0
16.8608 67.6588 0
16.8608 67.6588 0
15.3279 67.3183 0
15.3279 67.3183 0
13.8304 66.8454 0
13.8304 66.8454 0
12.3799 66.244 0
12.3799 66.244 0
10.9872 65.5184 0
10.9872 65.5184 0
9.66314 64.6742 0
9.66314 64.6742 0
8.41765 63.7179 0
8.41765 63.7179 0
7.26023 62.6566 0
7.26023 62.6566 0
6.1997 61.4986 0
6.1997 61.4986 0
5.24413 60.2526 0
5.24413 60.2526 0
4.40079 58.928 0
4.40079 58.928 0
3.67612 57.535 0
3.67612 57.535 0
3.07564 56.0841 0
3.07564 56.0841 0
2.60392 54.5864 0
2.60392 54.5864 0
2.26456 53.0533 0
2.26456 53.0533 0
2.06016 51.4965 0
2.06016 51.4965 0
1.99228 49.9278 0
1.99228 49.9278 0
2.06145 48.3592 0
2.06145 48.3592 0
2.26715 46.8026 0
2.26715 46.8026 0
2.60784 45.27 0
2.60784 45.27 0
3.08091 43.7729 0
3.08091 43.7729 0
3.68279 42.3229 0
3.68279 42.3229 0
4.4089 40.9309 0
4.4089 40.9309 0
5.25369 39.6077 0
5.25369 39.6077 0
6.21078 38.3635 0
6.21078 38.3635 0
7.27282 37.2077 0
7.27282 37.2077 0
8.43176 36.1494 0
8.43176 36.1494 0
9.67878 35.1969 0
9.67878 35.1969 0
11.0044 34.3577 0
11.0044 34.3577 0
12.3991 33.6374 0
12.3991 33.6374 0
13.8509 33.0388 0
13.8509 33.0388 0
15.3486 32.5674 0
15.3486 32.5674 0
16.8814 32.2279 0
16.8814 32.2279 0
18.4381 32.0229 0
18.4381 32.0229 0
20.0067 31.9542 0
20.0067 31.9542 0
21.5753 32.0223 0
21.5753 32.0223 0
23.132 32.2268 0
23.132 32.2268 0
24.6648 32.5661 0
24.6648 32.5661 0
26.1621 33.0376 0
26.1621 33.0376 0
27.6126 33.6378 0
27.6126 33.6378 0
29.0051 34.3622 0
29.0051 34.3622 0
30.3291 35.2053 0
30.3291 35.2053 0
31.5745 36.1607 0
31.5745 36.1607 0
32.7318 37.221 0
32.7318 37.221 0
33.7922 38.3783 0
33.7922 38.3783 0
34.7476 39.6237 0
34.7476 39.6237 0
35.5909 40.9478 0
35.5909 40.9478 0
36.3155 42.3404 0
36.3155 42.3404 0
36.916 43.7909 0
36.916 43.7909 0
37.3877 45.2884 0
37.3877 45.2884 0
37.727 46.8213 0
37.727 46.8213 0
37.9314 48.3779 0
37.9314 48.3779 0
37.9991 49.9465 0
98.0077 49.9277 0
97.9399 51.4964 0
97.9399 51.4964 0
97.7355 53.0533 0
97.7355 53.0533 0
97.3961 54.5863 0
97.3961 54.5863 0
96.9244 56.084 0
96.9244 56.084 0
96.3239 57.5349 0
96.3239 57.5349 0
95.5992 58.9279 0
95.5992 58.9279 0
94.7559 60.2525 0
94.7559 60.2525 0
93.8003 61.4985 0
93.8003 61.4985 0
92.7398 62.6566 0
92.7398 62.6566 0
91.5824 63.7178 0
91.5824 63.7178 0
90.3369 64.6741 0
90.3369 64.6741 0
89.0128 65.5183 0
89.0128 65.5183 0
87.6201 66.2439 0
87.6201 66.2439 0
86.1696 66.8454 0
86.1696 66.8454 0
84.6721 67.3182 0
84.6721 67.3182 0
83.1392 67.6587 0
83.1392 67.6587 0
81.5824 67.8644 0
81.5824 67.8644 0
80.0136 67.9337 0
80.0136 67.9337 0
78.4447 67.8661 0
78.4447 67.8661 0
76.8877 67.662 0
76.8877 67.662 0
75.3544 67.323 0
75.3544 67.323 0
73.8565 66.8518 0
73.8565 66.8518 0
72.4053 66.2518 0
72.4053 66.2518 0
71.0119 65.5276 0
71.0119 65.5276 0
69.687 64.6848 0
69.687 64.6848 0
68.4405 63.7298 0
68.4405 63.7298 0
67.282 62.6698 0
67.282 62.6698 0
66.2202 61.5129 0
66.2202 61.5129 0
65.2634 60.2678 0
65.2634 60.2678 0
64.4187 58.9441 0
64.4187 58.9441 0
63.6926 57.5518 0
63.6926 57.5518 0
63.0906 56.1016 0
63.0906 56.1016 0
62.6173 54.6044 0
62.6173 54.6044 0
62.2764 53.0716 0
62.2764 53.0716 0
62.0704 51.515 0
62.0704 51.515 0
62.001 49.9464 0
62.001 49.9464 0
62.0687 48.3778 0
62.0687 48.3778 0
62.273 46.8211 0
62.273 46.8211 0
62.6124 45.2882 0
62.6124 45.2882 0
63.0841 43.7908 0
63.0841 43.7908 0
63.6845 42.3403 0
63.6845 42.3403 0
64.4091 40.9477 0
64.4091 40.9477 0
65.2524 39.6236 0
65.2524 39.6236 0
66.2078 38.3782 0
66.2078 38.3782 0
67.2683 37.2209 0
67.2683 37.2209 0
68.4256 36.1606 0
68.4256 36.1606 0
69.6709 35.2052 0
69.6709 35.2052 0
70.9949 34.3622 0
70.9949 34.3622 0
72.3874 33.6378 0
72.3874 33.6378 0
73.8379 33.0375 0
73.8379 33.0375 0
75.3352 32.5659 0
75.3352 32.5659 0
76.8681 32.2266 0
76.8681 32.2266 0
78.4247 32.0221 0
78.4247 32.0221 0
79.9933 31.954 0
79.9933 31.954 0
81.5619 32.0228 0
81.5619 32.0228 0
83.1186 32.2278 0
83.1186 32.2278 0
84.6515 32.5673 0
84.6515 32.5673 0
86.1492 33.0387 0
86.1492 33.0387 0
87.6009 33.6374 0
87.6009 33.6374 0
88.9956 34.3576 0
88.9956 34.3576 0
90.3213 35.197 0
90.3213 35.197 0
91.5683 36.1494 0
91.5683 36.1494 0
92.7272 37.2076 0
92.7272 37.2076 0
93.7893 38.3634 0
93.7893 38.3634 0
94.7463 39.6077 0
94.7463 39.6077 0
95.5911 40.9309 0
95.5911 40.9309 0
96.3172 42.3228 0
96.3172 42.3228 0
96.9191 43.7728 0
96.9191 43.7728 0
97.3922 45.2699 0
97.3922 45.2699 0
97.7329 46.8026 0
97.7329 46.8026 0
97.9386 48.3591 0
97.9386 48.3591 0
98.0077 49.9277 0
      </DataArray>
    </Points>
    <Cells>
      <DataArray type="Int32" Name="connectivity" format="ascii">
247 120 114 753 754 755 
213 114 214 748 749 750 
487 220 257 647 745 730 
257 115 260 741 742 743 
246 300 116 738 739 740 
212 116 247 731 732 733 
246 257 117 724 725 726 
299 117 312 719 720 721 
303 310 118 716 717 718 
248 118 256 711 712 713 
513 495 483 150 224 119 
507 513 483 151 119 184 
248 120 302 704 705 706 
221 258 121 1196 1197 1198 
259 121 313 1191 1192 1193 
464 430 432 332 409 122 
436 464 432 326 122 408 
346 1189 123 1186 1187 1188 
298 123 351 1181 1182 1183 
71 311 124 699 700 701 
65 124 372 692 693 694 
79 369 125 687 688 689 
684 125 309 680 681 682 
211 243 126 1178 1179 1180 
244 126 297 1173 1174 1175 
462 474 436 240 281 127 
438 462 436 294 127 327 
512 515 514 131 129 134 
513 509 511 130 132 135 
514 515 510 129 139 128 
508 514 510 148 128 147 
496 500 514 146 133 149 
513 499 495 136 145 150 
507 509 513 143 130 151 
505 491 497 141 142 154 
504 515 512 137 131 155 
174 503 511 1151 156 144 
512 514 500 134 133 159 
499 513 511 136 135 162 
494 515 504 138 137 165 
171 510 515 1164 139 166 
140 167 168 678 674 675 
167 492 168 672 661 674 
491 505 506 141 153 169 
177 498 497 656 164 170 
173 490 174 1156 1149 1171 
217 489 503 1126 176 175 
495 499 498 145 163 178 
501 500 496 158 146 179 
172 486 181 1162 1145 1169 
496 514 508 149 148 183 
480 481 140 227 152 187 
479 506 505 188 153 190 
477 505 497 191 154 193 
504 512 475 155 160 194 
472 511 503 161 156 197 
501 502 471 157 199 200 
500 501 470 158 201 202 
475 512 500 160 159 203 
499 511 472 162 161 204 
498 499 469 163 205 206 
497 498 468 164 207 208 
494 504 474 165 195 210 
211 493 171 1165 1161 1166 
167 180 212 667 668 669 
168 492 213 661 662 663 
214 488 177 657 653 658 
172 171 215 1158 1159 1160 
173 185 216 1153 1154 1155 
174 490 217 1149 1127 1150 
473 503 489 196 176 218 
177 488 219 653 643 654 
220 487 180 647 648 649 
182 181 221 1142 1143 1144 
496 508 115 183 222 747 
225 484 185 886 1138 1139 
482 502 481 198 186 226 
506 480 140 189 187 677 
480 506 479 189 188 228 
479 505 478 190 192 229 
478 505 477 192 191 230 
477 497 476 193 209 231 
474 504 475 195 194 232 
472 503 473 197 196 233 
471 502 482 199 198 234 
470 501 471 201 200 235 
475 500 470 203 202 236 
469 499 472 205 204 237 
468 498 469 207 206 238 
476 497 468 209 208 239 
494 474 461 210 241 242 
215 245 249 1133 1134 1135 
216 250 251 1128 1129 1130 
217 252 253 1123 1124 1125 
307 451 473 1047 255 254 
223 219 256 640 641 642 
583 263 223 1074 637 628 
582 261 264 1120 1121 1122 
445 482 481 265 226 268 
444 481 480 267 227 270 
443 480 479 269 228 272 
442 479 478 271 229 274 
441 478 477 273 230 276 
440 477 476 275 231 278 
474 475 436 232 280 281 
472 473 435 233 283 284 
471 482 446 234 266 286 
470 471 434 235 287 288 
464 475 470 279 236 289 
469 472 463 237 285 290 
468 469 433 238 291 292 
439 476 468 277 239 293 
461 474 462 241 240 295 
296 460 243 1071 1116 1117 
245 244 298 1107 1108 1109 
258 249 304 1100 1101 1102 
250 262 305 1095 1096 1097 
252 251 306 1088 1089 1090 
253 452 307 1084 1044 1085 
437 473 451 282 255 308 
633 314 591 871 832 1082 
262 261 316 1075 1076 1077 
318 629 578 854 810 809 
446 482 445 266 265 319 
445 481 444 268 267 320 
444 480 443 270 269 321 
443 479 442 272 271 322 
442 478 441 274 273 323 
441 477 440 276 275 324 
440 476 439 278 277 325 
436 475 464 280 279 326 
435 473 437 283 282 328 
463 472 435 285 284 329 
434 471 446 287 286 330 
464 470 434 289 288 331 
433 469 463 291 290 334 
439 468 433 293 292 335 
462 438 43 294 338 339 
461 462 45 295 340 341 
296 342 343 1068 1069 1070 
297 344 345 1063 1064 1065 
299 311 347 621 622 623 
301 300 348 616 617 618 
302 301 349 609 610 611 
309 303 350 602 603 604 
304 352 353 1058 1059 1060 
305 358 359 1053 1054 1055 
306 361 362 1048 1049 1050 
307 452 364 1044 934 1045 
437 451 109 308 367 368 
599 317 597 848 850 1042 
592 315 593 841 840 1040 
313 355 375 1035 1036 1037 
585 586 587 1032 1033 1034 
356 316 378 1027 1028 1029 
578 579 580 1024 1025 1026 
3 446 445 381 319 383 
7 445 444 384 320 386 
11 444 443 387 321 389 
15 443 442 390 322 392 
19 442 441 393 323 395 
23 441 440 396 324 398 
27 440 439 399 325 401 
432 438 436 336 327 408 
435 437 431 328 337 410 
429 463 435 333 329 411 
434 446 0 330 382 413 
430 464 434 332 331 414 
433 463 429 334 333 415 
1 439 433 402 335 416 
39 438 432 404 336 417 
431 437 940 337 407 418 
43 438 41 338 405 42 
45 462 43 340 339 44 
47 49 342 48 1019 1020 
344 343 51 1009 1010 1011 
346 345 1013 1000 1001 1002 
348 347 702 569 570 571 
350 349 75 560 561 562 
352 351 55 991 992 993 
354 353 979 984 985 986 
355 354 995 975 976 977 
357 356 89 968 969 970 
358 357 956 959 960 961 
360 359 972 952 953 954 
361 360 95 943 944 945 
363 362 99 936 937 938 
364 363 103 927 928 929 
107 451 105 366 365 106 
109 451 107 367 366 108 
931 437 109 406 368 110 
370 369 548 553 554 555 
371 370 690 544 545 546 
372 374 532 537 538 539 
374 373 696 528 529 530 
376 375 61 920 921 922 
924 523 524 915 916 917 
378 380 85 908 909 910 
516 911 518 903 904 905 
0 446 3 382 381 2 
3 445 5 383 385 4 
5 445 7 385 384 6 
7 444 9 386 388 8 
9 444 11 388 387 10 
11 443 13 389 391 12 
13 443 15 391 390 14 
15 442 17 392 394 16 
17 442 19 394 393 18 
19 441 21 395 397 20 
21 441 23 397 396 22 
23 440 25 398 400 24 
25 440 27 400 399 26 
27 439 29 401 403 28 
29 439 1 403 402 30 
41 438 39 405 404 40 
940 437 931 407 406 932 
432 430 31 409 423 419 
429 435 431 411 410 412 
93 429 431 426 412 422 
430 434 0 414 413 424 
1 433 429 416 415 428 
39 432 37 417 420 38 
947 431 940 421 418 941 
37 432 31 420 419 36 
93 431 947 422 421 948 
31 430 33 423 425 32 
33 430 0 425 424 34 
112 429 93 427 426 111 
1 429 112 428 427 113 
220 115 257 746 741 745 
518 899 519 896 897 898 
521 519 380 889 890 891 
630 264 225 882 883 884 
491 177 497 659 170 142 
481 502 140 186 676 152 
744 182 635 879 874 875 
120 247 467 753 735 707 
247 114 492 755 752 736 
114 120 488 754 710 751 
114 213 492 748 662 752 
213 214 491 750 660 665 
214 114 488 749 751 657 
115 220 496 746 652 747 
257 260 466 743 632 727 
182 485 635 878 870 874 
300 246 458 738 728 619 
246 116 487 740 737 729 
116 300 467 739 620 734 
116 212 487 731 670 737 
212 247 492 733 736 671 
247 116 467 732 734 735 
257 246 487 724 729 730 
246 117 458 726 723 728 
117 257 466 725 727 722 
117 299 458 719 625 723 
299 312 449 721 595 626 
312 117 466 720 722 596 
310 303 450 716 608 600 
303 118 457 718 715 605 
118 310 465 717 601 714 
118 248 457 711 708 715 
248 256 488 713 644 709 
256 118 465 712 714 645 
120 248 488 704 709 710 
248 302 457 706 613 708 
302 120 467 705 707 614 
311 71 573 699 72 624 
71 124 63 701 698 70 
124 311 449 700 627 695 
124 65 63 692 64 698 
65 372 67 694 542 66 
372 124 449 693 695 543 
369 79 81 687 80 556 
79 125 73 689 686 78 
125 369 450 688 559 683 
125 684 73 680 685 686 
684 309 564 682 606 565 
309 125 450 681 683 607 
167 140 502 678 676 679 
501 167 502 673 679 157 
140 168 506 675 666 677 
180 167 501 667 673 651 
167 212 492 669 671 672 
212 180 487 668 648 670 
506 168 213 666 663 664 
491 506 213 169 664 665 
491 214 177 660 658 659 
498 177 219 656 654 655 
495 498 219 178 655 646 
496 220 180 652 649 650 
501 496 180 179 650 651 
219 223 495 640 639 646 
223 256 465 642 645 636 
256 219 488 641 643 644 
495 223 263 639 637 638 
483 495 263 224 638 631 
633 635 634 867 868 869 
588 634 259 860 861 862 
629 318 630 854 855 856 
311 299 449 621 626 627 
299 347 458 623 577 625 
347 311 573 622 624 572 
300 301 467 616 615 620 
301 348 69 618 575 612 
348 300 458 617 619 576 
301 302 467 609 614 615 
302 349 457 611 568 613 
349 301 69 610 612 563 
303 309 450 602 607 608 
309 350 564 604 566 606 
350 303 457 603 605 567 
597 317 584 850 807 851 
599 550 581 845 846 847 
371 310 450 598 600 551 
590 315 592 835 841 842 
312 373 449 594 536 595 
593 589 531 836 837 838 
585 590 591 827 828 829 
587 523 589 818 819 820 
586 588 527 811 812 813 
578 583 584 802 803 804 
580 521 582 793 794 795 
579 581 516 784 785 786 
347 348 458 569 576 577 
348 702 69 571 703 575 
702 347 573 570 572 574 
349 350 457 560 567 568 
350 75 564 562 76 566 
75 349 69 561 563 74 
369 370 450 553 552 559 
370 548 557 555 549 547 
548 369 81 554 556 82 
370 371 450 544 551 552 
778 77 550 783 779 780 
690 370 557 545 547 558 
374 372 449 537 543 535 
372 532 67 539 68 542 
532 374 540 538 534 533 
373 374 449 528 535 536 
374 696 540 530 541 534 
531 59 773 772 777 774 
524 527 526 765 766 767 
762 526 376 756 757 758 
744 635 633 875 867 873 
260 744 633 877 873 872 
211 171 515 1166 166 1167 
494 211 515 1168 1167 138 
509 174 511 1152 144 132 
174 217 503 1150 175 1151 
629 583 578 1073 802 810 
465 583 223 805 628 636 
489 307 473 1086 254 218 
258 221 486 1196 1146 1105 
221 121 485 1198 1195 1147 
121 258 455 1197 1104 1194 
121 259 485 1191 864 1195 
259 313 448 1193 1038 865 
313 121 455 1192 1194 1039 
1189 346 1018 1186 1006 1023 
346 123 459 1188 1185 1007 
123 1189 35 1187 1190 1184 
123 298 459 1181 1111 1185 
298 351 456 1183 999 1112 
351 123 35 1182 1184 994 
243 211 494 1178 1168 1119 
211 126 493 1180 1177 1165 
126 243 460 1179 1116 1176 
126 244 493 1173 1115 1177 
244 297 459 1175 1066 1110 
297 126 460 1174 1176 1067 
173 174 509 1171 1152 1172 
507 173 509 1157 1172 143 
510 172 181 1163 1169 1170 
508 510 181 147 1170 1148 
171 172 510 1158 1163 1164 
172 215 486 1160 1136 1162 
215 171 493 1159 1161 1137 
185 173 507 1153 1157 1141 
173 216 490 1155 1131 1156 
216 185 484 1154 1138 1132 
181 182 508 1142 881 1148 
182 221 485 1144 1147 878 
221 181 486 1143 1145 1146 
225 185 507 1139 1141 1140 
483 225 507 887 1140 184 
245 215 493 1133 1137 1114 
215 249 486 1135 1106 1136 
249 245 456 1134 1113 1103 
250 216 484 1128 1132 1099 
216 251 490 1130 1094 1131 
251 250 453 1129 1098 1091 
252 217 490 1123 1127 1093 
217 253 489 1125 1087 1126 
253 252 452 1124 1092 1084 
261 582 447 1120 797 1078 
582 264 318 1122 888 798 
264 261 484 1121 1081 885 
461 296 243 1072 1117 1118 
494 461 243 242 1118 1119 
244 245 493 1107 1114 1115 
245 298 456 1109 1112 1113 
298 244 459 1108 1110 1111 
249 258 486 1100 1105 1106 
258 304 455 1102 1061 1104 
304 249 456 1101 1103 1062 
262 250 484 1095 1099 1080 
250 305 453 1097 1056 1098 
305 262 454 1096 1079 1057 
251 252 490 1088 1093 1094 
252 306 452 1090 1051 1092 
306 251 453 1089 1091 1052 
489 253 307 1087 1085 1086 
260 633 591 872 1082 1083 
466 260 591 632 1083 831 
261 262 484 1075 1080 1081 
262 316 454 1077 1031 1079 
316 261 447 1076 1078 1030 
583 629 263 1073 859 1074 
342 296 461 1068 1072 1022 
296 343 460 1070 1017 1071 
343 342 49 1069 1019 1012 
344 297 460 1063 1067 1016 
297 345 459 1065 1008 1066 
345 344 1004 1064 1015 1003 
352 304 456 1058 1062 998 
304 353 455 1060 990 1061 
353 352 57 1059 997 987 
358 305 454 1053 1057 966 
305 359 453 1055 958 1056 
359 358 963 1054 965 955 
361 306 453 1048 1052 950 
306 362 452 1050 942 1051 
362 361 97 1049 949 939 
451 307 364 1047 1045 1046 
105 451 364 365 1046 933 
371 599 597 849 1042 1043 
310 371 597 598 1043 852 
592 593 373 1040 839 1041 
312 592 373 844 1041 594 
355 313 455 1035 1039 982 
313 375 448 1037 926 1038 
375 355 53 1036 981 923 
586 585 314 1032 833 816 
585 587 315 1034 824 834 
587 586 377 1033 815 825 
316 356 454 1027 974 1031 
356 378 83 1029 913 971 
378 316 447 1028 1030 914 
579 578 317 1024 808 791 
578 580 318 1026 799 809 
580 579 379 1025 790 800 
45 47 342 46 1020 1021 
461 45 342 341 1021 1022 
343 344 460 1009 1016 1017 
344 51 1004 1011 52 1015 
51 343 49 1010 1012 50 
345 346 459 1000 1007 1008 
346 1013 1018 1002 1014 1006 
1013 345 1004 1001 1003 1005 
351 352 456 991 998 999 
352 55 57 993 56 997 
55 351 35 992 994 54 
353 354 455 984 983 990 
354 979 988 986 980 978 
979 353 57 985 987 58 
354 355 455 975 982 983 
355 995 53 977 996 981 
995 354 988 976 978 989 
356 357 454 968 967 974 
357 89 91 970 90 962 
89 356 83 969 971 88 
357 358 454 959 966 967 
358 956 963 961 957 965 
956 357 91 960 962 92 
359 360 453 952 951 958 
360 972 87 954 973 946 
972 359 963 953 955 964 
360 361 453 943 950 951 
361 95 97 945 96 949 
95 360 87 944 946 94 
362 363 452 936 935 942 
363 99 101 938 100 930 
99 362 97 937 939 98 
363 364 452 927 934 935 
364 103 105 929 104 933 
103 363 101 928 930 102 
375 376 448 920 760 926 
376 61 522 922 62 761 
61 375 53 921 923 60 
523 924 59 915 925 821 
924 524 918 917 769 919 
524 523 377 916 826 770 
380 378 447 908 914 894 
378 85 83 910 84 913 
85 380 517 909 893 86 
911 516 77 903 788 912 
516 518 379 905 900 789 
518 911 906 904 907 901 
899 518 906 896 901 902 
518 519 379 898 895 900 
519 899 517 897 520 892 
519 521 379 889 801 895 
521 380 447 891 894 796 
380 519 517 890 892 893 
264 630 318 882 855 888 
630 225 483 884 887 858 
225 264 484 883 885 886 
508 182 744 881 879 880 
115 508 744 222 880 876 
115 744 260 876 877 742 
633 634 314 869 866 871 
634 635 485 868 870 863 
634 588 314 860 817 866 
588 259 448 862 865 814 
259 634 485 861 863 864 
263 629 630 859 856 857 
483 263 630 631 857 858 
597 584 465 851 806 853 
310 597 465 852 853 601 
550 599 371 845 849 782 
599 581 317 847 792 848 
581 550 77 846 779 787 
466 590 592 830 842 843 
312 466 592 596 843 844 
589 593 315 836 840 823 
593 531 373 838 775 839 
531 589 59 837 822 772 
590 585 315 827 834 835 
585 591 314 829 832 833 
591 590 466 828 830 831 
523 587 377 818 825 826 
587 589 315 820 823 824 
589 523 59 819 821 822 
588 586 314 811 816 817 
586 527 377 813 771 815 
527 588 448 812 814 768 
578 584 317 804 807 808 
584 583 465 803 805 806 
521 580 379 793 800 801 
580 582 318 795 798 799 
582 521 447 794 796 797 
581 579 317 784 791 792 
579 516 379 786 789 790 
516 581 77 785 787 788 
690 778 550 691 780 781 
371 690 550 546 781 782 
531 773 696 774 697 776 
373 531 696 775 776 529 
527 524 377 765 770 771 
524 526 918 767 764 769 
526 527 448 766 768 759 
526 762 918 756 763 764 
762 376 522 758 761 525 
376 526 448 757 759 760 
1199 1200
1201 1202
1203 1204
1205 1206
1207 1208
1209 1210
1211 1212
1213 1214
1215 1216
1217 1218
1219 1220
1221 1222
1223 1224
1225 1226
1227 1228
1229 1230
1231 1232
1233 1234
1235 1236
1237 1238
1239 1240
1241 1242
1243 1244
1245 1246
1247 1248
1249 1250
1251 1252
1253 1254
1255 1256
1257 1258
1259 1260
1261 1262
1263 1264
1265 1266
1267 1268
1269 1270
1271 1272
1273 1274
1275 1276
1277 1278
1279 1280
1281 1282
1283 1284
1285 1286
1287 1288
1289 1290
1291 1292
1293 1294
1295 1296
1297 1298
1299 1300
1301 1302
1303 1304
1305 1306
1307 1308
1309 1310
1311 1312
1313 1314
1315 1316
1317 1318
1319 1320
1321 1322
1323 1324
1325 1326
1327 1328
1329 1330
1331 1332
1333 1334
1335 1336
1337 1338
1339 1340
1341 1342
1343 1344
1345 1346
1347 1348
1349 1350
1351 1352
1353 1354
1355 1356
1357 1358
1359 1360
1361 1362
1363 1364
1365 1366
1367 1368
1369 1370
1371 1372
1373 1374
1375 1376
1377 1378
1379 1380
1381 1382
1383 1384
1385 1386
1387 1388
1389 1390
1391 1392
1393 1394
1395 1396
1397 1398
1399 1400
1401 1402
1403 1404
1405 1406
1407 1408
1409 1410
1411 1412
1413 1414
1415 1416
1417 1418
1419 1420
1421 1422
1423 1424
1425 1426
1427 1428
1429 1430
1431 1432
1433 1434
1435 1436
1437 1438
1439 1440
1441 1442
1443 1444
1445 1446
1447 1448
1449 1450
1451 1452
1453 1454
1455 1456
1457 1458
1459 1460
1461 1462
1463 1464
1465 1466
1467 1468
1469 1470
1471 1472
1473 1474
1475 1476
1477 1478
1479 1480
1481 1482
1483 1484
1485 1486
1487 1488
1489 1490
1491 1492
1493 1494
1495 1496
1497 1498
1499 1500
1501 1502
1503 1504
1505 1506
1507 1508
1509 1510
1511 1512
1513 1514
1515 1516
1517 1518
1519 1520
1521 1522
1523 1524
1525 1526
1527 1528
1529 1530
1531 1532
1533 1534
1535 1536
1537 1538
1539 1540
1541 1542
1543 1544
1545 1546
1547 1548
1549 1550
1551 1552
1553 1554
1555 1556
1557 1558
1559 1560
1561 1562
1563 1564
1565 1566
1567 1568
1569 1570
1571 1572
1573 1574
1575 1576
1577 1578
1579 1580
1581 1582
1583 1584
1585 1586
1587 1588
1589 1590
1591 1592
1593 1594
1595 1596
1597 1598
1599 1600
1601 1602
1603 1604
1605 1606
1607 1608
1609 1610
1611 1612
1613 1614
1615 1616
1617 1618
1619 1620
1621 1622
1623 1624
1625 1626
1627 1628
1629 1630
1631 1632
1633 1634
1635 1636
1637 1638
1639 1640
1641 1642
1643 1644
1645 1646
1647 1648
1649 1650
1651 1652
1653 1654
1655 1656
1657 1658
1659 1660
1661 1662
1663 1664
1665 1666
1667 1668
1669 1670
1671 1672
1673 1674
1675 1676
1677 1678
1679 1680
1681 1682
1683 1684
1685 1686
1687 1688
1689 1690
1691 1692
1693 1694
1695 1696
1697 1698
1699 1700
1701 1702
1703 1704
1705 1706
1707 1708
1709 1710
1711 1712
1713 1714
1715 1716
1717 1718
1719 1720
1721 1722
1723 1724
1725 1726
1727 1728
1729 1730
1731 1732
1733 1734
1735 1736
1737 1738
1739 1740
1741 1742
1743 1744
1745 1746
1747 1748
1749 1750
1751 1752
1753 1754
1755 1756
1757 1758
1759 1760
1761 1762
1763 1764
1765 1766
1767 1768
1769 1770
1771 1772
1773 1774
1775 1776
1777 1778
1779 1780
1781 1782
1783 1784
1785 1786
1787 1788
1789 1790
1791 1792
1793 1794
1795 1796
1797 1798
1799 1800
1801 1802
1803 1804
1805 1806
1807 1808
1809 1810
1811 1812
1813 1814
1815 1816
1817 1818
1819 1820
1821 1822
1823 1824
1825 1826
1827 1828
1829 1830
1831 1832
1833 1834
1835 1836
1837 1838
1839 1840
1841 1842
1843 1844
1845 1846
1847 1848
1849 1850
1851 1852
1853 1854
1855 1856
1857 1858
1859 1860
1861 1862
1863 1864
1865 1866
1867 1868
1869 1870
1871 1872
1873 1874
1875 1876
1877 1878
1879 1880
1881 1882
1883 1884
1885 1886
1887 1888
1889 1890
1891 1892
1893 1894
1895 1896
1897 1898
1899 1900
1901 1902
1903 1904
1905 1906
1907 1908
1909 1910
1911 1912
1913 1914
1915 1916
1917 1918
1919 1920
1921 1922
1923 1924
1925 1926
1927 1928
1929 1930
1931 1932
1933 1934
1935 1936
1937 1938
1939 1940
1941 1942
1943 1944
1945 1946
1947 1948
1949 1950
1951 1952
1953 1954
1955 1956
1957 1958
1959 1960
1961 1962
1963 1964
1965 1966
1967 1968
1969 1970
1971 1972
1973 1974
1975 1976
1977 1978
1979 1980
1981 1982
1983 1984
1985 1986
1987 1988
1989 1990
1991 1992
1993 1994
1995 1996
1997 1998
1999 2000
2001 2002
2003 2004
2005 2006
2007 2008
2009 2010
2011 2012
2013 2014
2015 2016
2017 2018
2019 2020
2021 2022
2023 2024
2025 2026
2027 2028
2029 2030
2031 2032
2033 2034
2035 2036
2037 2038
2039 2040
2041 2042
2043 2044
2045 2046
2047 2048
2049 2050
2051 2052
2053 2054
2055 2056
2057 2058
2059 2060
2061 2062
2063 2064
2065 2066
2067 2068
2069 2070
2071 2072
2073 2074
2075 2076
2077 2078
2079 2080
2081 2082
2083 2084
2085 2086
2087 2088
2089 2090
2091 2092
2093 2094
2095 2096
2097 2098
2099 2100
2101 2102
2103 2104
2105 2106
2107 2108
2109 2110
2111 2112
2113 2114
2115 2116
2117 2118
2119 2120
2121 2122
2123 2124
2125 2126
2127 2128
2129 2130
2131 2132
2133 2134
2135 2136
2137 2138
2139 2140
2141 2142
2143 2144
2145 2146
2147 2148
2149 2150
2151 2152
2153 2154
2155 2156
2157 2158
2159 2160
2161 2162
2163 2164
2165 2166
2167 2168
2169 2170
2171 2172
2173 2174
2175 2176
2177 2178
2179 2180
2181 2182
2183 2184
2185 2186
2187 2188
2189 2190
2191 2192
2193 2194
2195 2196
2197 2198
2199 2200
2201 2202
2203 2204
2205 2206
2207 2208
2209 2210
2211 2212
2213 2214
2215 2216
2217 2218
2219 2220
2221 2222
2223 2224
2225 2226
2227 2228
2229 2230
2231 2232
2233 2234
2235 2236
2237 2238
2239 2240
2241 2242
2243 2244
2245 2246
2247 2248
2249 2250
2251 2252
2253 2254
2255 2256
2257 2258
2259 2260
2261 2262
2263 2264
2265 2266
2267 2268
2269 2270
2271 2272
2273 2274
2275 2276
2277 2278
2279 2280
2281 2282
2283 2284
2285 2286
2287 2288
2289 2290
2291 2292
2293 2294
2295 2296
2297 2298
2299 2300
2301 2302
2303 2304
2305 2306
2307 2308
2309 2310
2311 2312
2313 2314
2315 2316
2317 2318
2319 2320
2321 2322
2323 2324
2325 2326
2327 2328
2329 2330
2331 2332
2333 2334
2335 2336
2337 2338
2339 2340
2341 2342
2343 2344
2345 2346
2347 2348
2349 2350
2351 2352
2353 2354
2355 2356
2357 2358
2359 2360
2361 2362
2363 2364
2365 2366
2367 2368
2369 2370
2371 2372
2373 2374
2375 2376
2377 2378
2379 2380
2381 2382
2383 2384
2385 2386
2387 2388
2389 2390
2391 2392
2393 2394
2395 2396
2397 2398
2399 2400
2401 2402
2403 2404
2405 2406
2407 2408
2409 2410
2411 2412
2413 2414
2415 2416
2417 2418
2419 2420
2421 2422
2423 2424
2425 2426
2427 2428
2429 2430
2431 2432
2433 2434
2435 2436
2437 2438
2439 2440
2441 2442
2443 2444
2445 2446
2447 2448
2449 2450
2451 2452
2453 2454
2455 2456
2457 2458
2459 2460
2461 2462
2463 2464
2465 2466
2467 2468
2469 2470
2471 2472
2473 2474
2475 2476
2477 2478
2479 2480
2481 2482
2483 2484
2485 2486
2487 2488
2489 2490
2491 2492
2493 2494
2495 2496
2497 2498
2499 2500
2501 2502
2503 2504
2505 2506
2507 2508
2509 2510
2511 2512
2513 2514
2515 2516
2517 2518
2519 2520
2521 2522
2523 2524
2525 2526
2527 2528
2529 2530
2531 2532
2533 2534
2535 2536
2537 2538
2539 2540
2541 2542
2543 2544
2545 2546
2547 2548
2549 2550
2551 2552
2553 2554
2555 2556
2557 2558
2559 2560
2561 2562
2563 2564
2565 2566
2567 2568
2569 2570
2571 2572
2573 2574
2575 2576
2577 2578
2579 2580
2581 2582
2583 2584
2585 2586
2587 2588
2589 2590
2591 2592
2593 2594
2595 2596
2597 2598
2599 2600
2601 2602
2603 2604
2605 2606
2607 2608
2609 2610
2611 2612
2613 2614
2615 2616
2617 2618
2619 2620
2621 2622
2623 2624
2625 2626
2627 2628
2629 2630
2631 2632
2633 2634
2635 2636
2637 2638
2639 2640
2641 2642
2643 2644
2645 2646
2647 2648
2649 2650
2651 2652
2653 2654
2655 2656
2657 2658
2659 2660
2661 2662
2663 2664
2665 2666
2667 2668
2669 2670
2671 2672
2673 2674
2675 2676
2677 2678
2679 2680
2681 2682
2683 2684
2685 2686
2687 2688
2689 2690
2691 2692
2693 2694
2695 2696
2697 2698
2699 2700
2701 2702
2703 2704
2705 2706
2707 2708
2709 2710
2711 2712
2713 2714
2715 2716
2717 2718
2719 2720
2721 2722
2723 2724
2725 2726
2727 2728
2729 2730
2731 2732
2733 2734
2735 2736
2737 2738
2739 2740
2741 2742
2743 2744
2745 2746
2747 2748
2749 2750
2751 2752
2753 2754
2755 2756
2757 2758
2759 2760
2761 2762
2763 2764
2765 2766
2767 2768
2769 2770
2771 2772
2773 2774
2775 2776
2777 2778
2779 2780
2781 2782
2783 2784
2785 2786
2787 2788
2789 2790
2791 2792
2793 2794
2795 2796
2797 2798
2799 2800
2801 2802
2803 2804
2805 2806
2807 2808
2809 2810
2811 2812
2813 2814
2815 2816
2817 2818
2819 2820
2821 2822
2823 2824
2825 2826
2827 2828
2829 2830
2831 2832
2833 2834
2835 2836
2837 2838
2839 2840
2841 2842
2843 2844
2845 2846
2847 2848
2849 2850
2851 2852
2853 2854
2855 2856
2857 2858
2859 2860
2861 2862
2863 2864
2865 2866
2867 2868
2869 2870
2871 2872
2873 2874
2875 2876
2877 2878
2879 2880
2881 2882
2883 2884
2885 2886
2887 2888
2889 2890
2891 2892
2893 2894
2895 2896
2897 2898
2899 2900
2901 2902
2903 2904
2905 2906
2907 2908
2909 2910
2911 2912
2913 2914
2915 2916
2917 2918
2919 2920
2921 2922
2923 2924
2925 2926
2927 2928
2929 2930
2931 2932
2933 2934
2935 2936
2937 2938
2939 2940
2941 2942
2943 2944
2945 2946
2947 2948
2949 2950
2951 2952
2953 2954
2955 2956
2957 2958
2959 2960
2961 2962
2963 2964
2965 2966
2967 2968
2969 2970
2971 2972
2973 2974
2975 2976
2977 2978
2979 2980
2981 2982
2983 2984
2985 2986
2987 2988
2989 2990
2991 2992
2993 2994
2995 2996
2997 2998
2999 3000
3001 3002
3003 3004
3005 3006
3007 3008
3009 3010
3011 3012
3013 3014
3015 3016
3017 3018
3019 3020
3021 3022
3023 3024
3025 3026
3027 3028
3029 3030
3031 3032
3033 3034
3035 3036
3037 3038
3039 3040
3041 3042
3043 3044
3045 3046
3047 3048
3049 3050
3051 3052
3053 3054
3055 3056
3057 3058
3059 3060
3061 3062
3063 3064
3065 3066
3067 3068
3069 3070
3071 3072
3073 3074
3075 3076
3077 3078
3079 3080
3081 3082
3083 3084
3085 3086
3087 3088
3089 3090
3091 3092
3093 3094
3095 3096
3097 3098
3099 3100
3101 3102
3103 3104
3105 3106
3107 3108
3109 3110
3111 3112
3113 3114
3115 3116
3117 3118
3119 3120
3121 3122
3123 3124
3125 3126
3127 3128
3129 3130
3131 3132
3133 3134
3135 3136
3137 3138
3139 3140
3141 3142
3143 3144
3145 3146
3147 3148
3149 3150
3151 3152
3153 3154
3155 3156
3157 3158
3159 3160
3161 3162
3163 3164
3165 3166
3167 3168
3169 3170
3171 3172
3173 3174
3175 3176
3177 3178
3179 3180
3181 3182
3183 3184
3185 3186
3187 3188
3189 3190
3191 3192
3193 3194
3195 3196
3197 3198
3199 3200
3201 3202
3203 3204
3205 3206
3207 3208
3209 3210
3211 3212
3213 3214
3215 3216
3217 3218
3219 3220
3221 3222
3223 3224
3225 3226
3227 3228
3229 3230
3231 3232
3233 3234
3235 3236
3237 3238
3239 3240
3241 3242
3243 3244
3245 3246
3247 3248
3249 3250
3251 3252
3253 3254
3255 3256
3257 3258
3259 3260
3261 3262
3263 3264
3265 3266
3267 3268
3269 3270
3271 3272
3273 3274
3275 3276
3277 3278
3279 3280
3281 3282
3283 3284
3285 3286
3287 3288
3289 3290
3291 3292
3293 3294
3295 3296
3297 3298
3299 3300
3301 3302
3303 3304
3305 3306
3307 3308
3309 3310
3311 3312
3313 3314
3315 3316
3317 3318
3319 3320
3321 3322
3323 3324
3325 3326
3327 3328
3329 3330
3331 3332
3333 3334
3335 3336
3337 3338
3339 3340
3341 3342
3343 3344
3345 3346
3347 3348
3349 3350
3351 3352
3353 3354
3355 3356
3357 3358
3359 3360
3361 3362
3363 3364
3365 3366
3367 3368
3369 3370
3371 3372
3373 3374
3375 3376
3377 3378
3379 3380
3381 3382
3383 3384
3385 3386
3387 3388
3389 3390
3391 3392
3393 3394
3395 3396
3397 3398
3399 3400
3401 3402
3403 3404
3405 3406
3407 3408
3409 3410
3411 3412
3413 3414
3415 3416
3417 3418
3419 3420
3421 3422
3423 3424
3425 3426
3427 3428
3429 3430
3431 3432
3433 3434
3435 3436
3437 3438
3439 3440
3441 3442
3443 3444
3445 3446
3447 3448
3449 3450
3451 3452
3453 3454
3455 3456
3457 3458
3459 3460
3461 3462
3463 3464
3465 3466
3467 3468
3469 3470
3471 3472
3473 3474
3475 3476
3477 3478
3479 3480
3481 3482
3483 3484
3485 3486
      </DataArray>
      <DataArray type="Int32" Name="offsets" format="ascii">
6
12
18
24
30
36
42
48
54
60
66
72
78
84
90
96
102
108
114
120
126
132
138
144
150
156
162
168
174
180
186
192
198
204
210
216
222
228
234
240
246
252
258
264
270
276
282
288
294
300
306
312
318
324
330
336
342
348
354
360
366
372
378
384
390
396
402
408
414
420
426
432
438
444
450
456
462
468
474
480
486
492
498
504
510
516
522
528
534
540
546
552
558
564
570
576
582
588
594
600
606
612
618
624
630
636
642
648
654
660
666
672
678
684
690
696
702
708
714
720
726
732
738
744
750
756
762
768
774
780
786
792
798
804
810
816
822
828
834
840
846
852
858
864
870
876
882
888
894
900
906
912
918
924
930
936
942
948
954
960
966
972
978
984
990
996
1002
1008
1014
1020
1026
1032
1038
1044
1050
1056
1062
1068
1074
1080
1086
1092
1098
1104
1110
1116
1122
1128
1134
1140
1146
1152
1158
1164
1170
1176
1182
1188
1194
1200
1206
1212
1218
1224
1230
1236
1242
1248
1254
1260
1266
1272
1278
1284
1290
1296
1302
1308
1314
1320
1326
1332
1338
1344
1350
1356
1362
1368
1374
1380
1386
1392
1398
1404
1410
1416
1422
1428
1434
1440
1446
1452
1458
1464
1470
1476
1482
1488
1494
1500
1506
1512
1518
1524
1530
1536
1542
1548
1554
1560
1566
1572
1578
1584
1590
1596
1602
1608
1614
1620
1626
1632
1638
1644
1650
1656
1662
1668
1674
1680
1686
1692
1698
1704
1710
1716
1722
1728
1734
1740
1746
1752
1758
1764
1770
1776
1782
1788
1794
1800
1806
1812
1818
1824
1830
1836
1842
1848
1854
1860
1866
1872
1878
1884
1890
1896
1902
1908
1914
1920
1926
1932
1938
1944
1950
1956
1962
1968
1974
1980
1986
1992
1998
2004
2010
2016
2022
2028
2034
2040
2046
2052
2058
2064
2070
2076
2082
2088
2094
2100
2106
2112
2118
2124
2130
2136
2142
2148
2154
2160
2166
2172
2178
2184
2190
2196
2202
2208
2214
2220
2226
2232
2238
2244
2250
2256
2262
2268
2274
2280
2286
2292
2298
2304
2310
2316
2322
2328
2334
2340
2346
2352
2358
2364
2370
2376
2382
2388
2394
2400
2406
2412
2418
2424
2430
2436
2442
2448
2454
2460
2466
2472
2478
2484
2490
2496
2502
2508
2514
2520
2526
2532
2538
2544
2550
2556
2562
2568
2574
2580
2586
2592
2598
2604
2610
2616
2622
2628
2634
2640
2646
2652
2658
2664
2670
2676
2682
2688
2694
2700
2706
2712
2718
2724
2730
2736
2742
2748
2754
2760
2766
2772
2778
2784
2790
2796
2802
2808
2814
2820
2826
2832
2838
2844
2850
2856
2862
2868
2874
2880
2886
2892
2898
2904
2910
2916
2922
2928
2934
2940
2946
2952
2958
2964
2970
2976
2982
2988
2994
3000
3006
3012
3018
3024
3030
3036
3042
3048
3054
3060
3066
3072
3078
3084
3090
3096
3102
3108
3114
3120
3126
3132
3138
3144
3150
3156
3162
3168
3174
3180
3186
3192
3198
3204
3210
3216
3222
3228
3234
3240
3246
3252
3258
3264
3270
3276
3282
3288
3294
3300
3306
3312
3318
3324
3326
3328
3330
3332
3334
3336
3338
3340
3342
3344
3346
3348
3350
3352
3354
3356
3358
3360
3362
3364
3366
3368
3370
3372
3374
3376
3378
3380
3382
3384
3386
3388
3390
3392
3394
3396
3398
3400
3402
3404
3406
3408
3410
3412
3414
3416
3418
3420
3422
3424
3426
3428
3430
3432
3434
3436
3438
3440
3442
3444
3446
3448
3450
3452
3454
3456
3458
3460
3462
3464
3466
3468
3470
3472
3474
3476
3478
3480
3482
3484
3486
3488
3490
3492
3494
3496
3498
3500
3502
3504
3506
3508
3510
3512
3514
3516
3518
3520
3522
3524
3526
3528
3530
3532
3534
3536
3538
3540
3542
3544
3546
3548
3550
3552
3554
3556
3558
3560
3562
3564
3566
3568
3570
3572
3574
3576
3578
3580
3582
3584
3586
3588
3590
3592
3594
3596
3598
3600
3602
3604
3606
3608
3610
3612
3614
3616
3618
3620
3622
3624
3626
3628
3630
3632
3634
3636
3638
3640
3642
3644
3646
3648
3650
3652
3654
3656
3658
3660
3662
3664
3666
3668
3670
3672
3674
3676
3678
3680
3682
3684
3686
3688
3690
3692
3694
3696
3698
3700
3702
3704
3706
3708
3710
3712
3714
3716
3718
3720
3722
3724
3726
3728
3730
3732
3734
3736
3738
3740
3742
3744
3746
3748
3750
3752
3754
3756
3758
3760
3762
3764
3766
3768
3770
3772
3774
3776
3778
3780
3782
3784
3786
3788
3790
3792
3794
3796
3798
3800
3802
3804
3806
3808
3810
3812
3814
3816
3818
3820
3822
3824
3826
3828
3830
3832
3834
3836
3838
3840
3842
3844
3846
3848
3850
3852
3854
3856
3858
3860
3862
3864
3866
3868
3870
3872
3874
3876
3878
3880
3882
3884
3886
3888
3890
3892
3894
3896
3898
3900
3902
3904
3906
3908
3910
3912
3914
3916
3918
3920
3922
3924
3926
3928
3930
3932
3934
3936
3938
3940
3942
3944
3946
3948
3950
3952
3954
3956
3958
3960
3962
3964
3966
3968
3970
3972
3974
3976
3978
3980
3982
3984
3986
3988
3990
3992
3994
3996
3998
4000
4002
4004
4006
4008
4010
4012
4014
4016
4018
4020
4022
4024
4026
4028
4030
4032
4034
4036
4038
4040
4042
4044
4046
4048
4050
4052
4054
4056
4058
4060
4062
4064
4066
4068
4070
4072
4074
4076
4078
4080
4082
4084
4086
4088
4090
4092
4094
4096
4098
4100
4102
4104
4106
4108
4110
4112
4114
4116
4118
4120
4122
4124
4126
4128
4130
4132
4134
4136
4138
4140
4142
4144
4146
4148
4150
4152
4154
4156
4158
4160
4162
4164
4166
4168
4170
4172
4174
4176
4178
4180
4182
4184
4186
4188
4190
4192
4194
4196
4198
4200
4202
4204
4206
4208
4210
4212
4214
4216
4218
4220
4222
4224
4226
4228
4230
4232
4234
4236
4238
4240
4242
4244
4246
4248
4250
4252
4254
4256
4258
4260
4262
4264
4266
4268
4270
4272
4274
4276
4278
4280
4282
4284
4286
4288
4290
4292
4294
4296
4298
4300
4302
4304
4306
4308
4310
4312
4314
4316
4318
4320
4322
4324
4326
4328
4330
4332
4334
4336
4338
4340
4342
4344
4346
4348
4350
4352
4354
4356
4358
4360
4362
4364
4366
4368
4370
4372
4374
4376
4378
4380
4382
4384
4386
4388
4390
4392
4394
4396
4398
4400
4402
4404
4406
4408
4410
4412
4414
4416
4418
4420
4422
4424
4426
4428
4430
4432
4434
4436
4438
4440
4442
4444
4446
4448
4450
4452
4454
4456
4458
4460
4462
4464
4466
4468
4470
4472
4474
4476
4478
4480
4482
4484
4486
4488
4490
4492
4494
4496
4498
4500
4502
4504
4506
4508
4510
4512
4514
4516
4518
4520
4522
4524
4526
4528
4530
4532
4534
4536
4538
4540
4542
4544
4546
4548
4550
4552
4554
4556
4558
4560
4562
4564
4566
4568
4570
4572
4574
4576
4578
4580
4582
4584
4586
4588
4590
4592
4594
4596
4598
4600
4602
4604
4606
4608
4610
4612
4614
4616
4618
4620
4622
4624
4626
4628
4630
4632
4634
4636
4638
4640
4642
4644
4646
4648
4650
4652
4654
4656
4658
4660
4662
4664
4666
4668
4670
4672
4674
4676
4678
4680
4682
4684
4686
4688
4690
4692
4694
4696
4698
4700
4702
4704
4706
4708
4710
4712
4714
4716
4718
4720
4722
4724
4726
4728
4730
4732
4734
4736
4738
4740
4742
4744
4746
4748
4750
4752
4754
4756
4758
4760
4762
4764
4766
4768
4770
4772
4774
4776
4778
4780
4782
4784
4786
4788
4790
4792
4794
4796
4798
4800
4802
4804
4806
4808
4810
4812
4814
4816
4818
4820
4822
4824
4826
4828
4830
4832
4834
4836
4838
4840
4842
4844
4846
4848
4850
4852
4854
4856
4858
4860
4862
4864
4866
4868
4870
4872
4874
4876
4878
4880
4882
4884
4886
4888
4890
4892
4894
4896
4898
4900
4902
4904
4906
4908
4910
4912
4914
4916
4918
4920
4922
4924
4926
4928
4930
4932
4934
4936
4938
4940
4942
4944
4946
4948
4950
4952
4954
4956
4958
4960
4962
4964
4966
4968
4970
4972
4974
4976
4978
4980
4982
4984
4986
4988
4990
4992
4994
4996
4998
5000
5002
5004
5006
5008
5010
5012
5014
5016
5018
5020
5022
5024
5026
5028
5030
5032
5034
5036
5038
5040
5042
5044
5046
5048
5050
5052
5054
5056
5058
5060
5062
5064
5066
5068
5070
5072
5074
5076
5078
5080
5082
5084
5086
5088
5090
5092
5094
5096
5098
5100
5102
5104
5106
5108
5110
5112
5114
5116
5118
5120
5122
5124
5126
5128
5130
5132
5134
5136
5138
5140
5142
5144
5146
5148
5150
5152
5154
5156
5158
5160
5162
5164
5166
5168
5170
5172
5174
5176
5178
5180
5182
5184
5186
5188
5190
5192
5194
5196
5198
5200
5202
5204
5206
5208
5210
5212
5214
5216
5218
5220
5222
5224
5226
5228
5230
5232
5234
5236
5238
5240
5242
5244
5246
5248
5250
5252
5254
5256
5258
5260
5262
5264
5266
5268
5270
5272
5274
5276
5278
5280
5282
5284
5286
5288
5290
5292
5294
5296
5298
5300
5302
5304
5306
5308
5310
5312
5314
5316
5318
5320
5322
5324
5326
5328
5330
5332
5334
5336
5338
5340
5342
5344
5346
5348
5350
5352
5354
5356
5358
5360
5362
5364
5366
5368
5370
5372
5374
5376
5378
5380
5382
5384
5386
5388
5390
5392
5394
5396
5398
5400
5402
5404
5406
5408
5410
5412
5414
5416
5418
5420
5422
5424
5426
5428
5430
5432
5434
5436
5438
5440
5442
5444
5446
5448
5450
5452
5454
5456
5458
5460
5462
5464
5466
5468
5470
5472
5474
5476
5478
5480
5482
5484
5486
5488
5490
5492
5494
5496
5498
5500
5502
5504
5506
5508
5510
5512
5514
5516
5518
5520
5522
5524
5526
5528
5530
5532
5534
5536
5538
5540
5542
5544
5546
5548
5550
5552
5554
5556
5558
5560
5562
5564
5566
5568
5570
5572
5574
5576
5578
5580
5582
5584
5586
5588
5590
5592
5594
5596
5598
5600
5602
5604
5606
5608
5610
5612
      </DataArray>
      <DataArray type="UInt8" Name="types" format="ascii">
69
69
69
69
69
69
69
69
69
69
69
69
69
69
69
69
69
69
69
69
69
69
69
69
69
69
69
69
69
69
69
69
69
69
69
69
69
69
69
69
69
69
69
69
69
69
69
69
69
69
69
69
69
69
69
69
69
69
69
69
69
69
69
69
69
69
69
69
69
69
69
69
69
69
69
69
69
69
69
69
69
69
69
69
69
69
69
69
69
69
69
69
69
69
69
69
69
69
69
69
69
69
69
69
69
69
69
69
69
69
69
69
69
69
69
69
69
69
69
69
69
69
69
69
69
69
69
69
69
69
69
69
69
69
69
69
69
69
69
69
69
69
69
69
69
69
69
69
69
69
69
69
69
69
69
69
69
69
69
69
69
69
69
69
69
69
69
69
69
69
69
69
69
69
69
69
69
69
69
69
69
69
69
69
69
69
69
69
69
69
69
69
69
69
69
69
69
69
69
69
69
69
69
69
69
69
69
69
69
69
69
69
69
69
69
69
69
69
69
69
69
69
69
69
69
69
69
69
69
69
69
69
69
69
69
69
69
69
69
69
69
69
69
69
69
69
69
69
69
69
69
69
69
69
69
69
69
69
69
69
69
69
69
69
69
69
69
69
69
69
69
69
69
69
69
69
69
69
69
69
69
69
69
69
69
69
69
69
69
69
69
69
69
69
69
69
69
69
69
69
69
69
69
69
69
69
69
69
69
69
69
69
69
69
69
69
69
69
69
69
69
69
69
69
69
69
69
69
69
69
69
69
69
69
69
69
69
69
69
69
69
69
69
69
69
69
69
69
69
69
69
69
69
69
69
69
69
69
69
69
69
69
69
69
69
69
69
69
69
69
69
69
69
69
69
69
69
69
69
69
69
69
69
69
69
69
69
69
69
69
69
69
69
69
69
69
69
69
69
69
69
69
69
69
69
69
69
69
69
69
69
69
69
69
69
69
69
69
69
69
69
69
69
69
69
69
69
69
69
69
69
69
69
69
69
69
69
69
69
69
69
69
69
69
69
69
69
69
69
69
69
69
69
69
69
69
69
69
69
69
69
69
69
69
69
69
69
69
69
69
69
69
69
69
69
69
69
69
69
69
69
69
69
69
69
69
69
69
69
69
69
69
69
69
69
69
69
69
69
69
69
69
69
69
69
69
69
69
69
69
69
69
69
69
69
69
69
69
69
69
69
69
69
69
69
69
69
69
69
69
69
69
69
69
69
69
69
69
69
69
69
69
69
69
69
69
69
69
69
69
69
69
69
69
3
3
3
3
3
3
3
3
3
3
3
3
3
3
3
3
3
3
3
3
3
3
3
3
3
3
3
3
3
3
3
3
3
3
3
3
3
3
3
3
3
3
3
3
3
3
3
3
3
3
3
3
3
3
3
3
3
3
3
3
3
3
3
3
3
3
3
3
3
3
3
3
3
3
3
3
3
3
3
3
3
3
3
3
3
3
3
3
3
3
3
3
3
3
3
3
3
3
3
3
3
3
3
3
3
3
3
3
3
3
3
3
3
3
3
3
3
3
3
3
3
3
3
3
3
3
3
3
3
3
3
3
3
3
3
3
3
3
3
3
3
3
3
3
3
3
3
3
3
3
3
3
3
3
3
3
3
3
3
3
3
3
3
3
3
3
3
3
3
3
3
3
3
3
3
3
3
3
3
3
3
3
3
3
3
3
3
3
3
3
3
3
3
3
3
3
3
3
3
3
3
3
3
3
3
3
3
3
3
3
3
3
3
3
3
3
3
3
3
3
3
3
3
3
3
3
3
3
3
3
3
3
3
3
3
3
3
3
3
3
3
3
3
3
3
3
3
3
3
3
3
3
3
3
3
3
3
3
3
3
3
3
3
3
3
3
3
3
3
3
3
3
3
3
3
3
3
3
3
3
3
3
3
3
3
3
3
3
3
3
3
3
3
3
3
3
3
3
3
3
3
3
3
3
3
3
3
3
3
3
3
3
3
3
3
3
3
3
3
3
3
3
3
3
3
3
3
3
3
3
3
3
3
3
3
3
3
3
3
3
3
3
3
3
3
3
3
3
3
3
3
3
3
3
3
3
3
3
3
3
3
3
3
3
3
3
3
3
3
3
3
3
3
3
3
3
3
3
3
3
3
3
3
3
3
3
3
3
3
3
3
3
3
3
3
3
3
3
3
3
3
3
3
3
3
3
3
3
3
3
3
3
3
3
3
3
3
3
3
3
3
3
3
3
3
3
3
3
3
3
3
3
3
3
3
3
3
3
3
3
3
3
3
3
3
3
3
3
3
3
3
3
3
3
3
3
3
3
3
3
3
3
3
3
3
3
3
3
3
3
3
3
3
3
3
3
3
3
3
3
3
3
3
3
3
3
3
3
3
3
3
3
3
3
3
3
3
3
3
3
3
3
3
3
3
3
3
3
3
3
3
3
3
3
3
3
3
3
3
3
3
3
3
3
3
3
3
3
3
3
3
3
3
3
3
3
3
3
3
3
3
3
3
3
3
3
3
3
3
3
3
3
3
3
3
3
3
3
3
3
3
3
3
3
3
3
3
3
3
3
3
3
3
3
3
3
3
3
3
3
3
3
3
3
3
3
3
3
3
3
3
3
3
3
3
3
3
3
3
3
3
3
3
3
3
3
3
3
3
3
3
3
3
3
3
3
3
3
3
3
3
3
3
3
3
3
3
3
3
3
3
3
3
3
3
3
3
3
3
3
3
3
3
3
3
3
3
3
3
3
3
3
3
3
3
3
3
3
3
3
3
3
3
3
3
3
3
3
3
3
3
3
3
3
3
3
3
3
3
3
3
3
3
3
3
3
3
3
3
3
3
3
3
3
3
3
3
3
3
3
3
3
3
3
3
3
3
3
3
3
3
3
3
3
3
3
3
3
3
3
3
3
3
3
3
3
3
3
3
3
3
3
3
3
3
3
3
3
3
3
3
3
3
3
3
3
3
3
3
3
3
3
3
3
3
3
3
3
3
3
3
3
3
3
3
3
3
3
3
3
3
3
3
3
3
3
3
3
3
3
3
3
3
3
3
3
3
3
3
3
3
3
3
3
3
3
3
3
3
3
3
3
3
3
3
3
3
3
3
3
3
3
3
3
3
3
3
3
3
3
3
3
3
3
3
3
3
3
3
3
3
3
3
3
3
3
3
3
3
3
3
3
3
3
3
3
3
3
3
3
3
3
3
3
3
3
3
3
3
3
3
3
3
3
3
3
3
3
3
3
3
3
3
3
3
3
3
3
3
3
3
3
3
3
3
3
3
3
3
3
3
3
3
3
3
3
3
3
3
3
3
3
3
3
3
3
3
3
3
3
3
3
3
3
3
3
3
3
3
3
3
3
3
3
3
3
3
3
3
3
3
3
3
3
3
3
3
3
3
3
3
3
3
3
3
3
3
3
3
3
3
3
3
3
3
3
3
3
3
3
3
3
3
3
3
3
3
3
3
3
3
3
3
3
3
3
3
3
3
3
3
3
3
3
3
3
3
3
3
3
3
3
3
3
3
3
3
3
3
3
3
3
3
3
3
3
3
3
3
3
3
3
3
3
3
3
3
3
3
3
3
3
3
3
3
3
3
3
3
3
3
3
3
3
3
3
3
3
3
3
3
3
3
3
3
3
3
3
3
3
3
3
3
3
3
3
3
3
3
3
3
3
3
3
3
3
3
3
3
3
3
3
3
3
3
3
3
3
3
3
3
3
3
3
3
3
3
3
3
3
3
3
3
3
3
3
3
3
3
3
3
3
3
3
3
3
3
3
3
3
3
3
3
3
3
3
3
3
3
3
3
3
3
3
3
3
3
3
3
3
3
3
3
3
3
3
3
3
3
3
3
3
3
3
      </DataArray>
    </Cells>
    <PointData>
      <DataArray type="Float64" NumberOfComponents="2" Name="Displacement" format="ascii">
-0.000132266 -0.0525006
0.000209748 -0.0526307
-1.94296e-05 -0.0524229
6.06948e-05 -0.0523476
0.000103518 -0.0522959
0.000133264 -0.0522529
0.000151035 -0.052221
0.000162041 -0.0521985
0.000165611 -0.0521796
0.000164586 -0.0521661
0.000158941 -0.0521577
0.000150046 -0.0521535
0.0001378 -0.05215
0.000123343 -0.0521492
0.000106861 -0.0521509
8.92152e-05 -0.0521547
7.05299e-05 -0.0521584
5.16212e-05 -0.0521637
3.2914e-05 -0.0521709
1.49867e-05 -0.05218
-1.51678e-06 -0.0521894
-1.62614e-05 -0.0522013
-2.85267e-05 -0.0522162
-3.78462e-05 -0.0522347
-4.28107e-05 -0.0522549
-4.36347e-05 -0.0522809
-3.86889e-05 -0.0523135
-2.75386e-05 -0.052354
-2.70434e-06 -0.0523991
3.30932e-05 -0.0524595
0.000100675 -0.0525428
-0.000848437 -0.0524187
-0.000681539 -0.0524227
-0.000515798 -0.0524322
-0.00034434 -0.0524564
-0.014649 -0.0662158
-0.0010112 -0.0524216
-0.00117466 -0.0524277
-0.00141347 -0.052441
-0.00165497 -0.0524599
-0.00200637 -0.0524968
-0.00236294 -0.0525446
-0.00288721 -0.0526339
-0.00341928 -0.0527465
-0.00419845 -0.052952
-0.00498424 -0.0532067
-0.00555166 -0.0534209
-0.00611687 -0.0536609
-0.00667677 -0.053928
-0.00722901 -0.0542194
-0.0080091 -0.0546829
-0.00876376 -0.055193
-0.009485 -0.0557474
-0.00776313 -0.0731109
-0.0145224 -0.0675119
-0.0142499 -0.0686639
-0.0138684 -0.0696597
-0.013401 -0.0705022
-0.012881 -0.0712037
0.00949315 -0.0457767
-0.00650501 -0.0729279
-0.00500456 -0.0724538
-0.0032448 -0.0716406
0 0
-0.00367157 -0.00333516
-0.00519799 -0.00554677
-0.00542441 -0.00733696
-0.00454643 -0.00951529
-0.00332822 -0.01162
-4.53803e-05 -0.0497868
0 0
0 0
0 0
0 0
0.00287868 -0.0482255
0.00579006 -0.0425274
0.00754358 -0.0306328
-0.00940058 -0.0458874
0.0036855 -0.00332988
0.00521992 -0.00556566
0.00544979 -0.00736665
0.00457443 -0.00955446
0.00335611 -0.0116604
0.00778313 -0.0731688
0.00652469 -0.0729845
0.00503334 -0.0725087
0.00326795 -0.071706
0.0146384 -0.0663076
0.00877812 -0.0732021
0.00963448 -0.0730999
0.010396 -0.0729211
0.0110778 -0.0726448
0.0117161 -0.0722982
0.000900511 -0.0525525
0.0145941 -0.0649421
0.0143565 -0.0634842
0.0139033 -0.0619652
0.0132257 -0.0604278
0.0126201 -0.0593785
0.0119076 -0.0583561
0.0110889 -0.0573795
0.0101758 -0.0564603
0.0094919 -0.0558687
0.00877279 -0.0553165
0.00802039 -0.0548079
0.0072426 -0.0543457
0.00613533 -0.0537914
0.00500687 -0.0533344
0.0042242 -0.0530826
0.00345008 -0.0528797
0.00292042 -0.0527673
0.000738553 -0.0525583
0.00057749 -0.0525691
0.000407671 -0.0525932
-0.00100362 -0.0507925
0.0043869 -0.0505624
0.00347062 -0.0487184
0.00582947 -0.0394347
-0.00589977 -0.041784
-0.00092284 -0.0547876
-0.00179876 -0.0499693
-0.00418299 -0.0618913
-0.000672361 -0.0532423
-0.012071 -0.0639884
-0.00389582 -0.00709504
0.00382744 -0.00722872
-0.00633047 -0.0593133
-0.0022586 -0.0541003
-0.000679959 -0.0561476
-0.000948647 -0.0560652
0.000369244 -0.0558962
-0.00125978 -0.0559943
0.00102335 -0.0562597
0.000587225 -0.054483
-0.000220372 -0.0552673
0.000156935 -0.0554794
-0.000800689 -0.0544896
-0.00183679 -0.0562762
-0.00261459 -0.0568491
-0.00176517 -0.0570259
0.00088736 -0.0518169
-0.000697991 -0.0518708
-0.00117102 -0.0518622
0.00106323 -0.0567588
0.00165448 -0.0566342
-0.00198296 -0.0533131
0.00189553 -0.0532297
-0.000176172 -0.0559185
0.000620599 -0.0549855
0.00157597 -0.0537865
-0.00181313 -0.0536969
0.000153094 -0.0558525
0.00076488 -0.0519374
-0.000199725 -0.0519152
-0.000793592 -0.0520014
-0.00108334 -0.0554838
0.00155761 -0.0561534
0.0016877 -0.0521038
0.00164542 -0.0529139
0.00027347 -0.0544755
-0.000523613 -0.0548299
0.000612218 -0.0551635
-0.000181342 -0.0548176
-0.00173227 -0.0530361
-0.0017085 -0.0521763
-0.00243078 -0.0562437
-0.00284474 -0.0578126
0.00211147 -0.0513681
0.000840096 -0.05154
-0.000399998 -0.0517872
-0.00188631 -0.0517748
-0.00368635 -0.0588575
-0.00326466 -0.0590993
0.00273316 -0.058413
0.00255252 -0.0575313
0.0031723 -0.0572628
0.0030842 -0.0567601
-0.00258465 -0.0513228
-0.00261232 -0.0524584
0.00248305 -0.0524088
0.00363009 -0.0508012
-0.00168511 -0.0577593
0.000284831 -0.0556088
0.00216706 -0.05333
-0.000257501 -0.0555886
0.00247643 -0.0586208
0.000915559 -0.0520126
0.000578683 -0.0519272
4.62169e-05 -0.0519566
0.000274069 -0.0519306
-0.000168836 -0.0520263
-0.000436939 -0.0520603
-0.000278145 -0.052058
-0.000758161 -0.0520934
-0.00107209 -0.0550445
-0.00194851 -0.0554987
0.00251371 -0.055966
0.0013561 -0.0554421
0.00101562 -0.0520889
0.00119559 -0.0521628
0.00151575 -0.0523864
0.00143464 -0.0527085
0.000855863 -0.053505
0.000255845 -0.0541494
-0.000307884 -0.0542919
-0.000902537 -0.0536502
-0.00149914 -0.0528343
-0.001523 -0.0525143
-0.00111794 -0.0522352
-0.000893497 -0.0521581
-0.00273783 -0.0559838
-0.00433203 -0.0584012
0.00306631 -0.0501417
-0.000217931 -0.0514674
-0.00170716 -0.0512172
-0.00524332 -0.0609001
0.00449189 -0.0605234
0.00401958 -0.0581094
0.00327288 -0.0562067
-0.00403181 -0.0506013
0.00477201 -0.0497914
-0.00279807 -0.0594305
0.00289532 -0.052524
-0.00523225 -0.0491177
-0.00230099 -0.0532693
0.000769017 -0.0568993
0.00066821 -0.0520867
0.000472673 -0.0520214
0.000171614 -0.052036
-8.03522e-05 -0.0520855
-0.000273217 -0.0521188
-0.000494294 -0.0521744
-0.00135594 -0.0548255
0.00152299 -0.0549943
0.000866091 -0.0522596
0.000917068 -0.0527206
0.000170689 -0.0537377
-0.00021763 -0.0538558
-0.000887472 -0.052841
-0.000743649 -0.0523458
-0.00263555 -0.0547454
-0.00322397 -0.0554663
-0.00369434 -0.0562893
-0.00504552 -0.0575155
-0.00802602 -0.0614751
-0.00757279 -0.0626444
0.00549179 -0.0446431
0.00109019 -0.0503014
-0.00448627 -0.0472836
-0.00691478 -0.0633399
0.00657633 -0.0632176
0.00648736 -0.0616173
0.00603696 -0.0597972
0.00520655 -0.0581547
0.00386023 -0.056099
0.00362231 -0.0551692
-0.00550118 -0.0474449
0.0062166 -0.0462327
-0.00588591 -0.0632869
-0.00149382 -0.0585232
0.00573383 -0.0480986
0.00396951 -0.0617468
0.0065511 -0.0646474
-0.00385621 -0.0513153
0.00098477 -0.0573511
0.000485676 -0.0521768
0.000568548 -0.0522497
0.000385923 -0.0520941
0.00046573 -0.0521161
0.000213112 -0.052086
0.000308848 -0.0520809
9.53869e-06 -0.0521169
0.000101378 -0.0521027
-0.000126265 -0.0521561
-5.2152e-05 -0.0521406
-0.000291818 -0.0521944
-0.000213392 -0.0521665
-0.000416772 -0.0523249
-0.000335446 -0.0522478
-0.000417345 -0.0539119
-0.000980964 -0.0542606
-0.00187396 -0.0546035
0.00244308 -0.054542
0.00184577 -0.0545977
0.000720449 -0.0542296
0.000263579 -0.0540124
0.000685963 -0.0523841
0.000675531 -0.0525718
0.000489704 -0.0529887
0.000240289 -0.0532949
-0.00034997 -0.0534111
-0.000494026 -0.0531081
-0.000617132 -0.0526755
-0.000551098 -0.0524685
-0.00265429 -0.0536807
-0.00363179 -0.0549069
-0.00573306 -0.0565315
-0.00820338 -0.059695
-0.00990782 -0.0637984
0.00343527 -0.028905
0.00295267 -0.0475158
0.000192422 -0.0502557
-0.00217297 -0.049002
-0.00404457 -0.0311928
-0.00883031 -0.0664051
0.00907069 -0.0667142
0.00833314 -0.0614495
0.00503187 -0.0568113
0.00337937 -0.0541965
0.000471733 -0.012746
-0.00509619 -0.0362833
-0.000777514 -0.0121997
0.00439096 -0.0343178
-0.00521944 -0.0649837
0.00438296 -0.0501462
0.00757074 -0.043373
0.00660816 -0.0665737
-0.00733037 -0.0447221
-0.00212254 -0.0532824
0.000334008 -0.0522418
0.000277726 -0.0521529
0.000193075 -0.052131
7.66624e-05 -0.0521444
-3.69807e-05 -0.0521714
-0.000131045 -0.0522158
-0.000196479 -0.052312
-0.000883134 -0.0536964
-0.00186212 -0.0536517
0.00159169 -0.053778
0.000528717 -0.0536855
0.00033745 -0.0525016
4.12839e-06 -0.0530569
-0.000342407 -0.0531111
0.000280999 -0.0533077
-9.56581e-05 -0.0531696
-0.000238819 -0.0525754
-0.00167312 -0.0531049
0.00168154 -0.0533607
-0.00283252 -0.0529949
-0.00322533 -0.0534923
-0.0039941 -0.053744
-0.00456263 -0.0545437
-0.00583561 -0.0550126
-0.00698966 -0.0562402
-0.00838049 -0.0574131
-0.00997683 -0.0593395
-0.0115394 -0.0613042
0.00263059 -0.0305964
0.00101585 -0.0461264
-0.000954243 -0.0472436
-0.00252112 -0.0329563
-0.0120484 -0.0662905
-0.0115696 -0.068151
-0.0108204 -0.0696213
-0.0101204 -0.0711035
-0.00799628 -0.0701271
0.00846046 -0.070578
0.0101729 -0.0710343
0.0110277 -0.0698147
0.0116386 -0.0680468
0.0120525 -0.0657342
0.0111602 -0.0628866
0.0100656 -0.06011
0.00889698 -0.0577188
0.00692929 -0.0564086
0.00589354 -0.0546172
0.00478931 -0.0540959
0.0040071 -0.0538411
0.00281558 -0.0532945
0.00370252 -0.0128612
-2.33701e-05 -0.0232377
-0.00399851 -0.0340743
-0.00375385 -0.0126031
0.00328344 -0.0320625
-0.000119968 -0.0225756
-0.00555377 -0.0688473
-0.00254306 -0.0676569
0.00429952 -0.0516674
0.00633341 -0.0693367
-0.00150546 -0.0558866
0.00369828 -0.0670643
0.000169996 -0.0523369
0.000159177 -0.0524124
0.000190851 -0.05226
0.000203833 -0.0521999
0.00019989 -0.0522263
0.000202187 -0.0521671
0.000179697 -0.0521516
0.000192477 -0.0521581
0.000146472 -0.0521479
0.00010481 -0.0521517
0.000126363 -0.0521495
5.98157e-05 -0.0521609
1.42949e-05 -0.0521735
3.69864e-05 -0.052167
-2.54246e-05 -0.0521905
-6.1456e-05 -0.0522151
-4.43817e-05 -0.0522021
-8.39569e-05 -0.0522492
-9.48199e-05 -0.0523023
-9.13813e-05 -0.0522737
-8.14802e-05 -0.0523785
-5.14025e-05 -0.0525016
-6.90702e-05 -0.0524331
-0.0019547 -0.0528358
-0.0023109 -0.0528861
0.00229891 -0.0531805
0.00194572 -0.0531255
-0.00128844 -0.0535114
-0.000731236 -0.0529026
0.00108116 -0.0535002
0.000753049 -0.0534476
0.000819559 -0.0530839
6.48103e-05 -0.0526497
-1.0556e-05 -0.0527872
6.97921e-05 -0.0529553
-2.13614e-05 -0.0527652
-0.00137064 -0.0527508
0.00142835 -0.0528635
-0.000967691 -0.0527244
-0.00113283 -0.0527315
0.0011931 -0.052844
0.00103016 -0.0528367
-0.000595544 -0.0526371
-0.000257777 -0.0526476
-0.000432708 -0.05264
0.000675062 -0.0528422
0.000516342 -0.052839
0.000355428 -0.0528382
0.000488218 -0.0530557
-0.000371624 -0.0528009
0.0011664 -0.0531025
-0.00109577 -0.0530059
-0.000245037 -0.052866
0.000265606 -0.0527637
0.00102098 -0.0538523
-0.0014977 -0.0540053
0.00220996 -0.053638
-0.00226335 -0.0532079
-0.0002226 -0.052409
-0.000165571 -0.0522543
-8.67217e-05 -0.0521904
1.81685e-05 -0.0521574
0.000137098 -0.0521351
0.00024181 -0.0521357
0.000300996 -0.0521909
0.000379502 -0.0523386
0.00418912 -0.0638016
-0.00183933 -0.0609237
-0.000374088 -0.0210887
-0.000123562 -0.0222946
0.00459559 -0.0547885
0.00717997 -0.0586975
0.00932889 -0.0645081
0.00880136 -0.0684752
-0.00774543 -0.067068
-0.00950381 -0.0653182
-0.00449128 -0.0427236
0.00477505 -0.039938
-0.0100014 -0.0619897
-0.00673818 -0.0578648
-0.00422635 -0.0556657
-0.00305661 -0.0541581
9.29181e-05 -0.0535116
-0.000318462 -0.0533955
-0.00658222 -0.0443839
0.00680768 -0.0428552
0.000706018 -0.0500589
-0.000929133 -0.052507
-0.000756911 -0.053282
0.000725612 -0.0531541
0.00101618 -0.0523974
0.000454542 -0.0545154
0.00272074 -0.0553984
-0.00226811 -0.0552136
-0.000525522 -0.0544081
-0.000574803 -0.0522448
-0.000402163 -0.0521292
-0.000157226 -0.0521133
1.70977e-05 -0.0520577
0.00033836 -0.0520166
0.000593741 -0.0520407
0.000724018 -0.0521659
-0.0013717 -0.0543793
0.00365075 -0.0604269
-0.000841134 -0.0571382
-0.00427724 -0.0606726
0.004923 -0.0484668
-0.00335593 -0.050042
0.00384636 -0.0570331
0.00439074 -0.0594333
-0.00101161 -0.0517149
0.00115067 -0.0509646
-0.00586735 -0.0603717
-0.003233 -0.0567674
-0.00295676 -0.0524112
0.00283185 -0.052423
-0.00120295 -0.0520394
-0.00216054 -0.0523517
-0.00103012 -0.0539437
0.000975221 -0.0537924
0.0020467 -0.0522516
0.0013025 -0.0519813
0.00234921 -0.0564471
-0.00165868 -0.0557174
-0.000423309 -0.0519916
0.000107972 -0.0518339
0.000870394 -0.056731
0.00116412 -0.0545309
0.00126806 -0.0567404
-0.00152248 -0.0571408
0.000808783 -0.0557818
-0.000534936 -0.0552132
-0.000481911 -0.055061
8.37092e-05 -0.0552394
-0.00203981 -0.056823
-0.00445045 -0.0520839
0.00122762 -0.0703271
-0.00214159 -0.0611526
0.000832485 -0.0641266
9.54386e-05 -0.0694043
0.00159572 -0.0602038
-0.00120487 -0.0702759
0.00647301 -0.0493031
0.00313685 -0.0575212
-5.94923e-05 -0.0693423
0.000213125 -0.0626831
0.00146485 -0.0561141
0.00150277 -0.0271442
0.0037088 -0.0315709
0.00196894 -0.0260997
0.0060777 -0.0375209
-0.00181463 -0.0142026
-1.94557e-05 -0.0173517
0.000565719 -0.0223582
-0.000394388 -0.0220887
0.00117176 -0.0264329
-0.00213557 -0.0171471
-0.00115404 -0.0182669
-0.00305047 -0.0137375
0.00194618 -0.0211829
0.00345918 -0.0246969
-0.00424271 -0.0110191
-0.00228979 -0.0165554
-0.00192905 -0.0285229
-0.00201682 -0.0265698
-0.00404896 -0.0329291
-0.000604326 -0.0227771
0.00183653 -0.0142445
2.92584e-05 -0.0174067
-0.00657433 -0.0391311
-0.00175388 -0.02803
6.76372e-05 -0.0230203
0.00204484 -0.0175892
0.00305101 -0.0139194
0.00112373 -0.0186196
0.00424235 -0.0111609
-0.00194089 -0.0212552
-0.0034467 -0.0247901
0.00205067 -0.0172499
-0.00157985 -0.0421311
0.00121353 -0.0453184
0.00136606 -0.0386376
0.000603159 -0.049525
0 0
0 0
-0.00131846 -0.0197634
-0.00376848 -0.0384369
-0.00280506 -0.045053
0.00170819 -0.0404553
-0.00131924 -0.0376704
-0.00135252 -0.0445624
0.00139782 -0.0179542
0 0
-0.0074486 -0.0305202
-0.000764222 -0.0492388
0.00311619 -0.0430922
0.00388187 -0.0356712
-0.00526659 -0.0489754
-0.00535216 -0.0491626
-0.00186109 -0.053827
-0.00816109 -0.0449156
0.0012501 -0.0581585
-0.00571068 -0.0483083
-0.00680925 -0.0453725
0.00688021 -0.0464924
0.00439268 -0.0504831
0.00727301 -0.0466839
0.00122407 -0.0548423
0.0082664 -0.0439137
0.00720079 -0.0434803
0.00649063 -0.0467419
0.00626683 -0.0397312
0.00637885 -0.0395092
0.00383702 -0.0334602
0.00198887 -0.0278164
0.00591694 -0.038963
-0.00642623 -0.0407131
-0.00457472 -0.0353747
-0.00683142 -0.0409462
-0.00273246 -0.0296152
-0.00625595 -0.0408051
-0.00198456 -0.0224734
-0.00390492 -0.0308227
-0.00217899 -0.0208983
-0.00489433 -0.0373123
0.000724135 -0.0071066
0.000342229 -0.0177461
-0.00231952 -0.026534
-0.000792544 -0.0499991
-0.000647903 -0.0497428
-0.00193179 -0.0482326
-5.42583e-05 -0.0502356
-0.00346424 -0.0466496
-0.000824324 -0.0500473
0.000447614 -0.0501137
0.00141671 -0.0493329
0.002306 -0.0468207
0.000868478 -0.0491003
0.00403352 -0.0444647
0.00195892 -0.0492503
0.00136939 -0.0207751
0.00181067 -0.0191235
0.00359656 -0.0284265
-0.000858423 -0.00689274
0.00468404 -0.0345189
0.00164553 -0.0248335
-0.000752779 -0.0168821
-0.00549088 -0.048708
-0.00388683 -0.0510774
-0.00170168 -0.0539539
-0.00263109 -0.0529075
0.00665393 -0.0456406
0.00420666 -0.0504239
0.00151741 -0.0540155
0.0017097 -0.0537815
-0.00611364 -0.0469879
-0.00469852 -0.0501108
-0.00341339 -0.051954
-0.00415986 -0.0509242
-0.00469492 -0.049951
-0.00487327 -0.0492229
-0.00554967 -0.0481044
-0.00385289 -0.0502159
-0.00454671 -0.0489673
-0.00616687 -0.0458904
-0.00370631 -0.0513382
0.00498034 -0.0490284
0.00434822 -0.0497526
0.00422844 -0.0503687
0.00345585 -0.0514356
0.00287017 -0.0516112
0.00389869 -0.0511305
-0.00302495 -0.050732
-0.00333735 -0.0510352
-0.00311799 -0.0516188
-0.00251024 -0.0517473
-0.00253174 -0.0507559
-0.00219623 -0.0512553
-0.00177394 -0.0515762
-0.00135578 -0.0514992
0.00100408 -0.0512821
0.0004313 -0.0512682
0.000344702 -0.0515102
-2.58822e-05 -0.0516691
-0.000661788 -0.0516001
0.000433022 -0.0517033
0.00288636 -0.0511461
0.00348092 -0.0503939
0.00261734 -0.0508262
0.00404822 -0.0494446
0.00210653 -0.0506337
0.00173005 -0.0511511
0.00222798 -0.0517041
0.00147735 -0.0514572
0.000897754 -0.0516842
0.00112371 -0.0518739
0.000508102 -0.0518211
0.00145979 -0.0516397
0.00174192 -0.0517095
0.00242017 -0.00367963
0.00238712 -0.00941731
0.00184973 -0.00490065
0.00254021 -0.0138445
0 0
0 0
0.00297113 -0.00297836
0.00506896 -0.00821018
0.0040721 -0.0102402
0.0045751 -0.00596789
-0.0049797 -0.0290489
-0.00604012 -0.0315688
-0.00459589 -0.00591406
-0.00414308 -0.0100386
-0.00507018 -0.00812005
-0.00278711 -0.0132486
0.00500009 -0.0289238
0.00604201 -0.0314027
-0.00299034 -0.00296537
-0.0019198 -0.00481746
-0.0025597 -0.00915732
-0.00243866 -0.00364362
-0.0058511 -0.0424626
-0.00295684 -0.0481767
-0.003229 -0.048976
-0.00208448 -0.0495056
-0.00339771 -0.0480818
-0.000516252 -0.0501904
-0.00465277 -0.0452528
-0.00403099 -0.0487935
-0.0026792 -0.0499019
-0.00545342 -0.0448038
-0.00594205 -0.0449269
-0.00513204 -0.0471121
-0.0063006 -0.0428108
-0.00536228 -0.0417431
-0.00441908 -0.0335404
-0.00578479 -0.0390705
-0.00528742 -0.0371754
0.00482752 -0.0346798
0.00533855 -0.0369661
0.00374027 -0.0314466
0.00628366 -0.0408635
0.00543783 -0.0390102
0.00601724 -0.0450206
0.00635397 -0.0431143
0.00589473 -0.0421408
0.00661855 -0.0445818
0.00523509 -0.0424007
0.00535418 -0.0466758
0.00568173 -0.0473846
0.00334967 -0.0493959
0.00232717 -0.0497295
0.00217694 -0.0501813
0.0021166 -0.0495008
0.000924459 -0.0501101
0.00114825 -0.050579
0.00434084 -0.0484071
0.0043832 -0.0458992
0.00335182 -0.0480623
0.00462502 -0.0470485
0.00558971 -0.0484331
0.00505998 -0.0494355
0.0061634 -0.0469704
0.00311034 -0.0521043
0.00558567 -0.0482393
0.00468798 -0.0500884
0.00358927 -0.0516448
-0.000576927 -0.0511692
-0.00139761 -0.051012
-0.000941897 -0.0513848
-0.00221895 -0.050544
0.000125377 -0.0509493
-0.000363908 -0.0503768
-0.00142136 -0.0503686
9.92256e-06 -0.0506126
0.000622134 -0.0655895
-0.00124556 -0.0654319
-0.000924204 -0.0677949
-0.00100569 -0.0614916
-0.00238035 -0.0642907
-0.00192939 -0.0689796
0.00113791 -0.0681805
0.00245061 -0.0667296
0.0017515 -0.0636323
0.0021512 -0.0565378
0.000695037 -0.0593914
0.00156192 -0.0603738
-0.000326101 -0.0587426
0.00339016 -0.0615384
0.0035795 -0.0544387
0.00278184 -0.0540606
0.00761851 -0.0406663
0.00711308 -0.0343895
0.00633127 -0.0365153
0.00446405 -0.0347181
0.00536176 -0.033343
0.00801983 -0.0385426
-0.00710375 -0.0345779
-0.00795288 -0.0417613
-0.00653347 -0.0375403
-0.00555952 -0.0343065
-0.00505309 -0.0365251
-0.007897 -0.038723
-0.00688627 -0.0471212
-0.00698042 -0.0477312
-0.00500823 -0.0500704
-0.00880841 -0.0450735
-0.00664794 -0.0493473
-0.00288412 -0.0541286
-0.00343472 -0.0522243
-0.00687746 -0.0466228
-0.00769907 -0.0447397
-3.50245e-05 -0.0569392
0.00144097 -0.0589725
-0.000196986 -0.0561388
0.00296484 -0.0621333
0.00281881 -0.0609811
-0.000449686 -0.0555633
-0.00202664 -0.0534165
-0.00168318 -0.054528
0.000156936 -0.0582169
-0.00557591 -0.0485204
-0.00632633 -0.0469303
-0.00635473 -0.0470829
-0.00640221 -0.0463359
-0.00672122 -0.0447721
-0.00704439 -0.0450181
-0.00651352 -0.0469452
-0.00370025 -0.0511698
-0.00453528 -0.0500878
0.00268632 -0.0527998
0.00131917 -0.0552583
0.0028879 -0.0531242
-0.000421145 -0.0578844
0.00436878 -0.0508908
0.00441268 -0.0502075
0.0028528 -0.0523112
0.00704606 -0.0475297
0.00829016 -0.0458505
0.00803447 -0.0453334
0.007952 -0.0476331
0.0089613 -0.0444301
0.00789076 -0.0435873
0.00781137 -0.0448618
0.00599088 -0.0488023
0.00533815 -0.0505721
0.00730075 -0.0449043
0.00703932 -0.0451766
0.00667186 -0.0465881
0.00698597 -0.0431024
0.00693524 -0.0447512
0.00568353 -0.0482598
0.0056948 -0.0483397
0.00750101 -0.0449797
0.00736948 -0.0433996
0.0074011 -0.0416495
0.007555 -0.041364
0.00625935 -0.0388946
0.00475381 -0.0357589
0.00720988 -0.0416569
0.00698776 -0.0415207
0.00691596 -0.0417126
0.00669265 -0.0414325
0.00522131 -0.036933
-0.00677963 -0.0404412
-0.00800906 -0.042649
-0.0076613 -0.0428225
-0.00737505 -0.0430217
-0.00543023 -0.0376313
-0.00705375 -0.0426747
-0.00693485 -0.0431927
-0.00570116 -0.0384419
-0.00667921 -0.0426793
-0.00309643 -0.0520565
-0.00191815 -0.0536159
-0.00279154 -0.0525579
-0.0028912 -0.0525188
-0.00154701 -0.0541882
-0.00389355 -0.0511789
0.00139148 -0.0542916
-2.19108e-05 -0.0562264
-0.000231514 -0.0568122
0.000274614 -0.0556723
-0.0011501 -0.0577148
-0.00170145 -0.0594973
0.00287931 -0.0521648
0.00294052 -0.0521503
0.00163093 -0.0538499
0.00294445 -0.0520862
0.00043102 -0.0554337
0.004303 -0.0502502
0.0051388 -0.0491236
0.00363214 -0.0513169
0.000973263 -0.0547514
0.00246971 -0.0528566
0.00387037 -0.0512098
0.00454945 -0.0501257
-0.000239648 -0.0562828
0.00172655 -0.053849
0.00210577 -0.0534475
0.000776245 -0.0550127
-0.000403986 -0.0555465
0.000851947 -0.0570893
-0.000441253 -0.0554972
0.0023617 -0.0590124
0.00221613 -0.0586373
-0.0003568 -0.0555597
-0.000493606 -0.0554321
0.00138855 -0.0618491
0.00236613 -0.0656921
0.00280066 -0.0637884
0.00107287 -0.0675877
0.00264072 -0.0686176
0.00405904 -0.0652446
-0.00014988 -0.0601833
-0.0016194 -0.0651889
-2.352e-05 -0.0661903
-0.000537725 -0.0627249
-0.0011254 -0.0682207
-0.00159422 -0.0581276
-0.00290049 -0.0631126
-0.00240551 -0.0668058
-0.00505517 -0.0550832
-0.00408808 -0.0602928
-0.00309255 -0.0569054
-0.00378821 -0.0649711
-0.00533103 -0.0626943
0.00510366 -0.0682769
0.00444049 -0.0702187
0.00579433 -0.0709393
-0.00703823 -0.0596447
-0.00819816 -0.0547749
0.00714865 -0.0716063
0.00538433 -0.0667719
0.00621794 -0.0544575
0.00453907 -0.0539754
0.00460719 -0.0582666
0.00379416 -0.0649191
0.00533134 -0.062652
-0.00420357 -0.0682252
-0.00535776 -0.0707639
-0.00386133 -0.0704769
-0.00678254 -0.0714433
0.0069086 -0.0596478
0.0083827 -0.0548418
-0.00392021 -0.0654466
0.00791472 -0.0570648
0.00881837 -0.0565536
0.00782979 -0.0559124
0.00951959 -0.0571257
0.00239949 -0.0526782
0.00204564 -0.052631
0.00706734 -0.0554197
0.0070325 -0.0575871
0.00801136 -0.0582662
0.00948062 -0.0589287
0.0109493 -0.0593043
0.0104027 -0.0580728
0.0116428 -0.0603313
0.00169808 -0.052595
0.0014595 -0.0525757
0.00862996 -0.0594327
0.0116174 -0.0643474
0.0131199 -0.064725
0.0127662 -0.0632694
0.0133589 -0.066103
0.00122354 -0.052562
0.00106176 -0.0525556
0.0121225 -0.0617691
0.0101667 -0.063801
0.0107041 -0.0652083
0.0118171 -0.0669311
0.0129574 -0.0685163
0.0132586 -0.0673823
0.0126257 -0.0694783
0.012312 -0.0718414
0.0128776 -0.071277
0.0105684 -0.0663596
0.0105885 -0.0704252
0.0112788 -0.0715746
0.0117551 -0.0709877
0.0106805 -0.0719764
0.0133962 -0.0705797
0.0138619 -0.0697395
0.0122353 -0.0703341
0.00992957 -0.0692509
0.00954715 -0.0698635
0.00933354 -0.0708306
0.00912661 -0.0720739
0.0099514 -0.0721378
0.00819771 -0.0719367
0.0142419 -0.0687487
0.0145128 -0.0675981
0.0086597 -0.0694878
-0.0090952 -0.0706781
-0.00991484 -0.0721366
-0.00891518 -0.071896
-0.0106471 -0.071969
-0.0123132 -0.0717705
-0.0117147 -0.0722308
-0.00796283 -0.0717435
-0.00793276 -0.0685649
-0.00906673 -0.0693408
-0.0104654 -0.0703607
-0.011663 -0.0708788
-0.0112473 -0.0715649
-0.0121391 -0.0702225
-0.0110729 -0.0725808
-0.0103884 -0.0728573
-0.00933769 -0.0685599
-0.0117853 -0.0672501
-0.0132387 -0.0675993
-0.0129163 -0.0685302
-0.0133337 -0.066339
-0.00962227 -0.0730373
-0.0087655 -0.0731416
-0.0125885 -0.0694886
-0.0106033 -0.0668083
-0.0107789 -0.0658923
-0.0107699 -0.0603324
-0.0109196 -0.0588398
-0.0116907 -0.0598376
-0.0100437 -0.0579016
-0.0101706 -0.0563414
-0.0110861 -0.0572612
-0.0123653 -0.0608512
-0.0107511 -0.0616846
-0.00996227 -0.0607083
-0.00768616 -0.0568262
-0.0078578 -0.0557618
-0.00855176 -0.0563473
-0.00709285 -0.0552683
-0.0119081 -0.0582411
-0.0126227 -0.0592648
-0.00925641 -0.0569213
-0.00754501 -0.057674
-0.00684763 -0.0570827
-0.0132313 -0.060318
-0.00652096 -0.0546434
-0.00596814 -0.0543584
-0.0054013 -0.0541188
-0.00501088 -0.0553851
-0.0139096 -0.0618598
-0.0053517 -0.0489144
-0.00347195 -0.0516232
-0.00378622 -0.0510257
0.00762844 -0.0687463
0.00654127 -0.0678544
0.00744969 -0.0699971
0.00545151 -0.0652941
0.00773146 -0.0676152
0.00592072 -0.0481962
0.00582028 -0.0486144
0.00707487 -0.0465319
-0.00674528 -0.0678617
-0.00685742 -0.0695136
-0.00548277 -0.0668605
-0.00364794 -0.0631345
-0.00652075 -0.0661103
0.00633288 -0.0396545
0.00493738 -0.0362638
-0.00660566 -0.0408024
-0.00552216 -0.0378654
0.0061053 -0.057748
0.00595974 -0.0566577
0.00575475 -0.0555892
0.00479435 -0.0558276
0.00976121 -0.0622206
0.0106159 -0.0615241
0.00915191 -0.0608617
0.00774485 -0.0600862
0.00881785 -0.0629963
0.0101339 -0.0683766
0.0113094 -0.0689529
0.0103617 -0.0674959
0.00915612 -0.0656279
0.00892345 -0.0675715
-0.0102261 -0.0674115
-0.0111696 -0.0689022
-0.00991216 -0.0681217
-0.00825981 -0.0667287
-0.00913722 -0.0658768
-0.00826489 -0.0585993
-0.00918419 -0.0583808
-0.00907551 -0.0595549
-0.00911583 -0.06085
-0.00747311 -0.0587795
-0.00577154 -0.0557978
-0.00641076 -0.0556249
-0.00635331 -0.0564049
-0.00623394 -0.057197
-0.00497594 -0.0560973
-0.00492762 -0.0496204
-0.00480171 -0.0498961
0.00529892 -0.0633217
0.005382 -0.06422
0.00658633 -0.0655208
0.00410135 -0.06261
0.00775814 -0.0666466
0.00515423 -0.0625313
0.00378459 -0.0609979
0.00544666 -0.048612
0.00609488 -0.0474487
0.00618342 -0.0584542
0.00510754 -0.057498
0.00442496 -0.0569526
0.00452332 -0.0575904
0.00624158 -0.0607146
0.00737387 -0.0616089
0.00719217 -0.0606416
0.00794879 -0.063102
0.0065728 -0.0593088
0.00519556 -0.0596665
0.00544561 -0.0605237
0.00653681 -0.0639022
0.00782607 -0.065798
0.00788601 -0.065012
0.00793574 -0.063985
0.00513932 -0.0619463
-0.00637527 -0.0633429
-0.00791339 -0.0648888
-0.00741048 -0.0649806
-0.00822858 -0.0644142
-0.0068679 -0.0651601
-0.0050827 -0.0619378
-0.00561846 -0.0620672
-0.00777466 -0.0620855
-0.00898852 -0.0626489
-0.00874263 -0.06328
-0.00900878 -0.0617696
-0.00993658 -0.0629161
-0.00967966 -0.0645806
-0.00856935 -0.0639982
-0.00672822 -0.0615027
-0.00694427 -0.0609628
-0.00588374 -0.0577118
-0.00537291 -0.0570567
-0.00462287 -0.0565964
-0.0041267 -0.0571607
0.00267968 -0.060085
0.00251122 -0.0594999
0.00109558 -0.0576404
0.00502639 -0.0589534
0.00561362 -0.058975
0.00460111 -0.0581602
0.0039225 -0.0575812
0.00418945 -0.0587775
0.00555049 -0.0618629
0.0065007 -0.0624218
0.0054788 -0.0611363
0.00441887 -0.0599873
0.0040464 -0.0605114
-0.00641421 -0.0618215
-0.00721678 -0.0630169
-0.00608675 -0.0621059
-0.00474322 -0.0608216
-0.00553365 -0.0606649
0.00304265 -0.0594766
0.00163284 -0.0578085
0.000806583 -0.0568248
0.001658 -0.0576467
-0.000717105 -0.0567645
-0.00221393 -0.0585364
-0.00126259 -0.0575096
-0.00298684 -0.059225
-0.00353376 -0.0601084
-0.00184671 -0.0583654
-0.000212925 -0.0560874
0.00346284 -0.0584681
0.00327308 -0.0578546
0.00243584 -0.0570025
0.00190215 -0.0571627
0.00259461 -0.0585301
0.00348726 -0.0596074
0.0036068 -0.0594481
0.00355377 -0.0589647
0.00179791 -0.0576018
-0.00346381 -0.0589976
-0.00446006 -0.0598598
-0.00425641 -0.0600233
-0.00477253 -0.0596484
-0.00375951 -0.0598617
-0.00238222 -0.058098
-0.0025954 -0.0580385
-0.00509622 -0.0593744
-0.00399037 -0.058664
-0.00316707 -0.0576328
-0.00377228 -0.0575749
-0.00247454 -0.058477
-0.00158502 -0.0574501
0.00262742 -0.0579804
0.00198538 -0.0575559
-0.0071842 -0.0603918
-0.00725839 -0.0595364
-0.00809023 -0.0606158
-0.00651144 -0.0586248
-0.0060755 -0.0598737
-0.00466452 -0.0580019
-0.00568423 -0.0584089
-0.00532231 -0.0588872
-0.0109778 -0.0639485
-0.0120462 -0.0651736
-0.0110264 -0.0650932
-0.0134268 -0.0651855
-0.0110645 -0.0630159
-0.0129969 -0.0623967
-0.0131949 -0.0637464
-0.0118013 -0.0626807
-0.0143645 -0.0633836
-0.0146018 -0.0648448
-0.00290132 -0.0603391
-0.00473176 -0.0633166
-0.00350611 -0.061931
-0.00608867 -0.0646919
-0.00257629 -0.0595583
-0.00438871 -0.0614289
-0.0050321 -0.0626449
-0.00348025 -0.060567
-0.000654383 -0.0481243
-0.00155303 -0.0472248
-0.00432208 -0.0336374
-0.00508256 -0.0360805
-0.0044428 -0.0392109
-0.00467241 -0.0418529
0.00308801 -0.0454487
0.00329641 -0.0433321
-0.000651647 -0.0550229
-0.00169334 -0.0538178
0.00447254 -0.0468519
0.00439906 -0.0477441
0.000208513 -0.0498617
0.000788324 -0.0495835
-0.0053594 -0.00722333
-0.00484386 -0.00712473
-0.00132632 -0.0060492
-0.00118405 -0.00298692
0.00297024 -0.0459104
0.00222034 -0.0456109
0.00513692 -0.0304471
0.00491598 -0.0363375
-0.00508664 -0.0468932
-0.00512846 -0.0457449
-8.20643e-05 -0.000260725
-0.000509213 -0.00294531
-0.00682847 -0.0374212
-0.00375066 -0.0337139
0.00688225 -0.0431345
0.00656381 -0.0408801
-0.00226516 -0.0295275
-0.00141027 -0.0264526
-0.00170462 -0.0219235
-0.00204565 -0.0207443
-0.000955773 -0.0499038
-0.00093276 -0.0499709
-0.00434257 -0.03383
-0.0050535 -0.0359712
0.00200647 -0.00193434
0.00361129 -0.00360302
0.00223935 -0.0515259
0.00241095 -0.051781
0.00511495 -0.0474393
0.00479768 -0.0485591
-0.00772632 -0.0406775
-0.0054405 -0.0367239
0.00248724 -0.0505274
0.00197714 -0.050439
0.00414987 -0.0320576
0.00357536 -0.0316597
0.00235697 -0.051383
0.00196595 -0.0512813
-0.00318388 -0.0517723
-0.00264543 -0.0525424
0.00449452 -0.0501585
0.00445879 -0.0503671
1.78985e-05 -0.0229564
0.00149557 -0.0187874
0.0028479 -0.0386496
0.00349562 -0.0350341
-0.000922394 -0.0470147
-0.00193369 -0.0461767
-0.00161718 -0.0455628
-0.000627812 -0.0465464
0.000239495 -0.0134588
0.000554738 -0.0164494
-0.00138225 -0.05288
-0.000587764 -0.0531595
-0.00522434 -0.0370763
-0.00670286 -0.040957
0.000342104 -0.0520038
0.000159861 -0.0519313
-0.000333403 -0.0370282
8.15181e-05 -0.0405719
-0.00274351 -0.0446693
-0.00516243 -0.0441418
-0.00354929 -0.0463843
-0.00252129 -0.0452511
-0.00441154 -0.0502076
-0.00376138 -0.0508433
0.00567541 -0.0386945
0.00589854 -0.0393465
-0.00709653 -0.0367621
-0.00675551 -0.0400125
-0.00339158 -0.0290803
-0.00275344 -0.0238416
-0.00195034 -0.0233306
-0.00179066 -0.0245485
-0.00265954 -0.02794
-0.00374739 -0.0317903
-0.00249324 -0.0228713
-0.00223395 -0.0240826
-0.00551412 -0.0469286
-0.00496609 -0.0478118
-0.00431045 -0.0480615
-0.00357197 -0.0487988
-0.00410161 -0.0482898
-0.00428262 -0.0486236
-0.00519986 -0.048971
-0.00482021 -0.0494145
-0.000771856 -0.0203739
0.000418818 -0.0185379
-0.000505422 -0.0501355
-0.00125279 -0.0499325
-0.00458846 -0.0425383
-0.00380123 -0.0438276
0.00496214 -0.0357859
0.00426634 -0.0332485
-0.0011532 -0.0501837
-0.00109699 -0.0500808
-0.00350422 -0.0506439
-0.00367365 -0.050863
-0.00551941 -0.0471808
-0.00592344 -0.0455563
0.00549952 -0.0388732
0.00503589 -0.0357003
-0.000857448 -0.0488694
-0.00163332 -0.0489307
0.00325711 -0.0108978
0.00270637 -0.00983802
-0.00397738 -0.0510119
-0.00472681 -0.0498799
-0.0033871 -0.00834112
-0.00257285 -0.00901326
-1.17454e-05 -0.0502964
-4.4712e-05 -0.0501854
-0.00695105 -0.043062
-0.00644493 -0.0404274
0.00238744 -0.0491308
0.00159781 -0.0497324
-0.00623746 -0.0432815
-0.00619878 -0.0411734
-0.00306007 -0.0482238
-0.00244015 -0.0491194
0.00395878 -0.0120489
0.00342848 -0.013525
-0.00107647 -0.0198899
-0.000297049 -0.0224154
0.00425242 -0.0342259
0.00268082 -0.0300913
0.00397887 -0.0506825
0.00579229 -0.0480679
-0.0015456 -0.0521737
-0.00100276 -0.0521234
-0.00229271 -0.0291121
-0.00343135 -0.032494
-0.000359448 -0.0220525
-0.000322132 -0.0204695
0.00730717 -0.0433093
0.00755984 -0.0453351
-0.000583462 -0.0498504
-0.00016329 -0.0501617
-0.00151264 -0.0519016
-0.000931732 -0.0519649
-0.00383796 -0.051157
-0.00354627 -0.0517037
-0.00164635 -0.0386958
-0.000727998 -0.0356233
0.00273488 -0.0258121
0.00312765 -0.0314075
0.000897546 -0.0230795
0.00119251 -0.0253453
0.00371399 -0.00370693
0.00342349 -0.00418554
0.00557878 -0.048448
0.00610063 -0.0470023
0.00129608 -0.0240502
0.00251613 -0.0281547
0.000659191 -0.020321
0.00202792 -0.0163713
0.00452894 -0.0503606
0.00359821 -0.0516436
0.0013171 -0.0514417
0.00176826 -0.0515029
0.00556427 -0.0484878
0.00540031 -0.0487832
-0.00497212 -0.0387925
-0.00520359 -0.037743
6.60317e-05 -0.0521432
-3.61831e-05 -0.0520853
-0.00237161 -0.0281874
-0.00254649 -0.0274216
-0.00239053 -0.00655765
-0.00276058 -0.00500519
-0.000787146 -0.00462036
1.25138e-05 -0.00480556
0.00387066 -0.00357278
0.00468758 -0.00504137
-0.00367976 -0.0512636
-0.00528284 -0.0489606
-0.000262613 -0.0501047
-0.000473932 -0.0499108
-0.00032469 -0.0498157
-8.26052e-05 -0.04917
-0.00257096 -0.051617
-0.00190554 -0.0518158
-0.00116875 -0.0199582
-0.000397804 -0.0155528
-0.00681641 -0.0449179
-0.00642327 -0.0463024
-0.000136985 -0.0501844
3.23079e-05 -0.0502768
0.00633914 -0.0459063
0.00659004 -0.0441523
0.00291764 -0.014222
0.00374538 -0.011261
0.0055092 -0.0483391
0.00494385 -0.0493031
0.000934239 -0.0419238
-0.000887006 -0.0421021
0.000744517 -0.0497979
0.000212682 -0.05013
-0.00141023 -0.0125407
-0.00155813 -0.00942091
-0.00182816 -0.0173716
-0.00287554 -0.0138688
-0.00210556 -0.0520311
-0.00144601 -0.0522464
-0.0024251 -0.0269305
-0.000927565 -0.0265723
0.00658153 -0.0454003
0.00654044 -0.0434554
-0.00131325 -0.0172755
-0.0015235 -0.0198912
-0.00230947 -0.0228057
-0.00153086 -0.0222073
-0.00183415 -0.0022587
-0.00205904 -0.00209862
-0.00419005 -0.0318439
-0.00442219 -0.0327899
0.000201276 -0.0502023
3.79236e-05 -0.0503069
0.000299992 -0.0048217
0.000614104 -0.00266916
0.00590242 -0.0469953
0.0062714 -0.0453061
-0.0050496 -0.0385834
-0.00457443 -0.0362915
-0.00446441 -0.0105447
-0.00418704 -0.0105537
-0.00341455 -0.0470652
-0.00210945 -0.0465677
-0.0023078 -0.0471125
-0.00271372 -0.0476361
-0.00123043 -0.0477435
-0.0006016 -0.0464593
0.0051193 -0.0481575
0.00450267 -0.0489095
0.00519236 -0.0444895
0.00492786 -0.0433649
-0.002924 -0.0278136
-0.00336503 -0.0302557
-0.0050781 -0.0494489
-0.00521415 -0.0490601
-0.000511747 -0.0489396
-0.000161051 -0.0497869
0.000508382 -0.0494042
0.00124346 -0.0488607
-0.00187575 -0.0258945
-0.000675183 -0.0217464
-0.000244301 -0.000322969
-0.00172321 -0.00264907
-0.00368124 -0.0302686
-0.00329309 -0.0298822
0.00157882 -0.047398
0.00049151 -0.0466136
0.00491349 -0.0304217
0.00121505 -0.0309507
0.00254319 -0.0405584
0.00632376 -0.0393747
-0.0018545 -0.00461324
-0.00101973 -0.00289599
-0.0061794 -0.044492
-0.00641763 -0.043702
0.00186355 -0.0264836
0.00194635 -0.0279049
-0.00367221 -0.0516214
-0.00465413 -0.0501805
0.00231283 -0.0492819
0.00311497 -0.0486922
-0.00247841 -0.0490285
-0.0027024 -0.0491737
-0.00475969 -0.0485113
-0.0053378 -0.0475983
0.00618326 -0.0469076
0.00601857 -0.0471175
-5.27818e-05 -0.0506643
0.000316997 -0.0508848
-0.00245318 -0.0514747
-0.00244699 -0.0511782
0.0067203 -0.0440005
0.00649029 -0.0443614
0.00279179 -0.0510712
0.00324762 -0.0510566
-0.00445446 -0.00850506
-0.00493254 -0.00871281
-0.00173366 -0.0497659
-0.00248781 -0.049411
-0.00533464 -0.0426696
-0.00505211 -0.0412372
0.00120276 -0.0519926
0.000693004 -0.052107
0.00555402 -0.037747
0.00559203 -0.0379798
0.00113205 -0.037205
0.00193805 -0.0404774
0.00148274 -0.0221555
0.00140258 -0.0194357
0.000526926 -0.000376696
0.00244204 -0.00212627
-0.00027038 -0.00491222
0.000652854 -0.0114133
-0.00213901 -0.00752329
-0.00151439 -0.0113024
0.00385977 -0.00481433
0.00260779 -0.00267139
-0.00172703 -0.0480563
-0.00246066 -0.0477636
0.00293354 -0.0524823
0.00173364 -0.0538993
-0.00395012 -0.0467136
-0.00430121 -0.0450174
-0.00338022 -0.00782948
-0.00260995 -0.00818895
0.00188395 -0.0493629
0.00270241 -0.0486188
0.00274567 -0.0122721
0.00371619 -0.0102468
-0.00221346 -0.0526953
-0.00219767 -0.0522915
-0.00035996 -0.0513227
-0.00112896 -0.0512287
-0.00223306 -0.0105842
-0.00117996 -0.0140818
-0.005048 -0.0358849
-0.00532541 -0.0382387
-0.00581966 -0.0457611
-0.00578367 -0.0468475
0.00170218 -0.0215958
0.00300553 -0.0257801
0.00249422 -0.0519349
0.0029542 -0.0518725
0.00599805 -0.0460314
0.00558829 -0.0476605
0.000479887 -0.0245404
0.000206139 -0.0230449
0.00111902 -0.0520271
0.00123488 -0.0523187
-0.00033584 -0.0419299
0.00134807 -0.0414871
0.003174 -0.0135102
0.003733 -0.0127921
-0.00141711 -0.0502984
-0.00158061 -0.0505235
-0.00416052 -0.0507802
-0.003334 -0.0517873
-0.00417838 -0.050907
-0.00348868 -0.0517561
0.00482102 -0.039646
0.00472809 -0.042404
-0.00109994 -0.0452638
-0.0015603 -0.0428252
-0.000777764 -0.0500463
-0.000422295 -0.0501621
0.00174308 -0.0378612
-0.000726844 -0.0378173
0.0023363 -0.0232879
0.00309767 -0.0291725
0.00442865 -0.0407925
0.00451881 -0.0430688
-0.00136075 -0.0307643
-0.00165075 -0.0236971
0.000782135 -0.0499751
0.00136333 -0.0496982
0.00204008 -0.0523668
0.00215902 -0.051906
0.00281587 -0.0241992
0.0026751 -0.0250765
0.00388151 -0.0511187
0.00434269 -0.0505896
-0.00439758 -0.0339132
-0.00397021 -0.0333293
-0.00270884 -0.0275702
-0.0033771 -0.0287883
-0.00470041 -0.0498708
-0.00405932 -0.0509387
0.00546099 -0.0467407
0.00491304 -0.0480366
-0.000172918 -0.0501263
-0.000208564 -0.0500837
0.00259632 -0.0522866
0.00189113 -0.0531606
0.000522972 -0.0500808
0.000496334 -0.0500993
-0.000113537 -0.0501811
-0.000514117 -0.050118
0.00496155 -0.0486833
0.00502291 -0.0479289
-0.00480191 -0.00923349
-0.00425657 -0.0111462
0.00196979 -0.0518105
0.00138279 -0.0520646
-0.00187213 -0.0178243
-0.00119748 -0.0198523
0.00455489 -0.0424266
0.00509173 -0.04237
-0.0020843 -0.0486045
-0.00155537 -0.0493972
0.0031882 -0.0511578
0.00289965 -0.0510134
-0.000927946 -0.0183556
-0.000204807 -0.0138857
-0.00165828 -0.0365358
-4.25822e-05 -0.0323722
-0.000196205 -0.0499589
-0.000472848 -0.0499818
-0.00349991 -0.0501501
-0.00375995 -0.0503355
0.00421177 -0.0508006
0.00506845 -0.0494213
-0.00203315 -0.041414
-0.00186782 -0.0440569
0.00112777 -0.0505108
0.00142472 -0.0507125
0.00459034 -0.0499025
0.00357514 -0.0514077
-0.00220502 -0.050269
-0.00303934 -0.0498907
0.00414745 -0.00858661
0.00475201 -0.00807156
0.00674537 -0.043816
0.00652587 -0.0449728
0.000548128 -0.0500868
-0.000261944 -0.05017
0.00579026 -0.0416482
0.00551051 -0.0392509
0.000662901 -0.0214137
0.00129245 -0.0196347
-0.00015374 -0.0216987
-0.00149605 -0.0244524
-0.000784151 -0.05244
-0.000234443 -0.0528468
0.00167374 -0.00250316
0.00272358 -0.00509069
0.00479141 -0.00774223
0.00421293 -0.00737146
-0.00220624 -0.0525301
-0.00149412 -0.0527912
-0.00222846 -0.0499831
-0.0030358 -0.0494093
0.00427709 -0.0337162
0.000801804 -0.0338627
-0.000326494 -0.0502287
-6.6734e-05 -0.0503359
-0.00296803 -0.0498575
-0.0028061 -0.0496077
-0.00344297 -0.00785965
-0.00341141 -0.00538063
-0.000450064 -0.0501546
0.000171541 -0.0502131
9.46342e-05 -0.0503161
-7.77223e-05 -0.0504887
-0.0062515 -0.0454077
-0.00594158 -0.0459662
-0.00435636 -0.0502786
-0.00396349 -0.0509573
-0.00320284 -0.029992
-0.00375981 -0.0324634
-0.000253471 -0.044912
0.000420721 -0.0466111
4.82013e-05 -0.0502725
0.000571192 -0.0500269
0.00200049 -0.0502049
0.00282052 -0.0499341
0.00281238 -0.00880155
0.00243811 -0.0121634
-0.0016178 -0.031226
-0.00268385 -0.0345195
0.00159914 -0.0171981
0.00132927 -0.0192064
0.00231764 -0.052153
0.0016619 -0.0523303
0.00165817 -0.0450903
0.00379244 -0.0438089
0.00279425 -0.0474155
0.00223397 -0.0473269
0.000351752 -0.0134837
0.000898679 -0.0150529
0.000756005 -0.0533177
0.00051524 -0.0527895
0.00469815 -0.0491297
0.00498829 -0.0491014
-0.00302323 -0.0484734
-0.00368576 -0.0480058
-0.00360118 -0.0300426
-0.00426411 -0.0321744
0.00702652 -0.0415623
0.0061278 -0.0394543
0.000454185 -0.00315934
-0.000510159 -0.0101849
0.00198664 -0.0522208
0.00210601 -0.0525869
-0.00296175 -0.0309813
-0.00395347 -0.0338913
0.0021062 -0.00935129
0.00198013 -0.00620359
-0.000230553 -0.0494605
9.72531e-05 -0.0499776
-0.00222405 -0.0286572
-0.00336499 -0.0321675
-0.00523486 -0.0383307
-0.00492845 -0.0354491
-0.00619925 -0.0405999
-0.00572165 -0.0386487
0.00426267 -0.0103709
0.00394174 -0.012125
0.00408317 -0.0479317
0.00339035 -0.0484547
-0.00230745 -0.0474353
-0.00115247 -0.0468989
-0.00358233 -0.0484113
-0.00279992 -0.0490638
-0.00202109 -0.01371
-0.000492988 -0.0205487
-0.00569579 -0.0480395
-0.00524524 -0.0488467
0.00142637 -0.0515401
0.00165114 -0.0516973
-0.000983543 -0.0417736
0.00040862 -0.0435189
0.00271246 -0.0271756
0.00392875 -0.031282
-0.00524311 -0.00606118
-0.00510485 -0.00752306
-0.00419078 -0.0345323
-0.00245366 -0.0299846
-0.00133813 -0.023546
-0.00232468 -0.0253865
0.00167096 -0.0464979
0.000229388 -0.0470422
0.00491399 -0.0361118
0.00332404 -0.0320089
-0.000380842 -0.051718
-0.000125771 -0.0515305
-0.000380571 -0.0525485
-0.000708496 -0.0530187
-0.00312027 -0.0302897
-0.00393502 -0.033281
-0.00281112 -0.0475402
-0.00207843 -0.0486414
0.00595955 -0.0392019
0.00652109 -0.0416625
-0.000116543 -0.051527
-0.000432713 -0.0513159
-0.0057357 -0.0447267
-0.00531993 -0.0452445
-0.00758543 -0.0455467
-0.00672559 -0.0466141
-0.00285186 -0.0138026
-0.00331554 -0.0136661
0.00207295 -0.00305068
0.00127188 -0.00186844
0.00157135 -0.0115993
0.00251675 -0.00852777
0.00273122 -0.0523166
0.00180941 -0.053188
-0.000414372 -0.00130807
-0.000530542 -0.002976
-0.00656939 -0.0415488
-0.00579278 -0.0386997
0.00244438 -0.0228156
0.0013262 -0.0179884
0.00282854 -0.0150621
0.00244369 -0.0164695
0.00492954 -0.0494136
0.00634885 -0.047001
0.00510672 -0.049133
0.00577542 -0.0480592
-0.00342953 -0.0271208
-0.0042513 -0.0315406
0.000560976 -0.0130843
-0.000771133 -0.00702199
0.00551557 -0.0486
0.00607396 -0.0472573
-6.53445e-05 -0.0494807
0.000263988 -0.0485989
0.00156654 -0.037076
-0.000884639 -0.0353127
0.00411198 -0.0316743
0.00329551 -0.0279462
0.00294676 -0.00644438
0.00228381 -0.00751494
0.000997665 -0.0469901
0.000900148 -0.0484465
0.00164684 -0.0146675
0.000607924 -0.0157707
-0.00469499 -0.0353403
-0.00336319 -0.0314351
-0.00532397 -0.0486963
-0.0055615 -0.0477107
0.000143034 -0.0522584
0.000323061 -0.0523942
0.00571477 -0.0471375
0.00525961 -0.0485876
0.00372229 -0.0511242
0.00533039 -0.0488113
0.000114975 -0.0437672
-0.000785817 -0.0454517
0.0014265 -0.00182312
0.00268464 -0.00421553
0.00142701 -0.0137618
0.0017615 -0.0152683
-0.00062547 -0.00191795
-0.00139674 -0.00352569
-0.00437331 -0.0506261
-0.0047158 -0.0500739
0.000501394 -0.022823
0.00188235 -0.0260967
-0.0079311 -0.0438267
-0.0073273 -0.0475013
9.47662e-05 -0.0214985
0.000816351 -0.025196
5.59113e-05 -0.0514196
-0.000679712 -0.0514218
-0.000430098 -0.0214626
-0.000582543 -0.0216183
-0.00390653 -0.0500379
-0.00316746 -0.0506236
0.000450247 -0.0452633
-0.000757385 -0.0463414
-0.00329713 -0.0095952
-0.0025744 -0.0093139
-0.00361054 -0.0490759
-0.00279501 -0.0496973
0.00474635 -0.0427432
0.00489996 -0.0443487
0.0040048 -0.0106499
0.00368241 -0.0127723
-9.96157e-06 -0.050197
0.00011731 -0.050172
0.00275821 -0.0243338
0.00375334 -0.0289212
-0.00129361 -0.00760578
-0.000636555 -0.00757373
0.00329224 -0.0505418
0.00285352 -0.0504865
-0.00408587 -0.0040047
-0.00226014 -0.00194596
0.00200578 -0.0265203
0.00232065 -0.0285723
-0.00343706 -0.0515354
-0.00504373 -0.0492759
-0.00419483 -0.0333898
-0.00356948 -0.0289554
-0.00232733 -0.0527135
-0.00195642 -0.0526425
-0.0046455 -0.0479924
-0.00517191 -0.0466679
-1.9058e-05 -0.0502733
4.93078e-05 -0.0502439
-0.00188181 -0.0520201
-0.00190889 -0.0523882
0.0031033 -0.0256877
0.00393628 -0.0299275
-0.00330357 -0.0502497
-0.0033054 -0.0506532
-0.00300735 -0.0313917
-0.00182146 -0.0283367
-0.00537431 -0.0375842
-0.00549032 -0.039306
-0.00135058 -0.0492219
-0.00198413 -0.0481981
0.00114115 -0.0458568
0.00254198 -0.0464823
-0.000205061 -0.0528192
-0.000201218 -0.0523749
-0.000210075 -0.0501683
-0.000362101 -0.0501665
0.00571174 -0.0481405
0.00606377 -0.0469001
0.00228469 -0.0494676
0.00293889 -0.0487524
-0.00536613 -0.0406132
-0.00541976 -0.0385652
0.0044317 -0.029692
0.000709292 -0.0295558
0.00461994 -0.0431928
0.00456974 -0.0450511
0.000791006 -0.0494048
0.000894967 -0.0484383
-0.00435598 -0.0484947
-0.00361543 -0.0492587
-0.00266203 -0.051181
-0.0030154 -0.0506852
0.00275867 -0.0503197
0.00339735 -0.050188
-0.00435268 -0.05011
-0.00414429 -0.0499585
0.00238345 -0.0511758
0.00236066 -0.0514973
-0.00625268 -0.0460659
-0.00582544 -0.0478
-0.000120817 -0.0517962
-0.00025265 -0.0519436
-0.00146424 -0.0473354
-0.000550298 -0.0481727
-0.0030218 -0.0304936
-0.00158895 -0.026909
0.00529349 -0.0413762
0.00674185 -0.038394
-0.00572394 -0.0480872
-0.00625452 -0.0465318
-0.00457168 -0.049853
-0.00387704 -0.0507921
-0.000310676 -0.0546825
-0.00135927 -0.0539248
-0.0046458 -0.0469789
-0.00476483 -0.0457035
-0.00158337 -0.0210549
-0.00121539 -0.0219237
0.00546663 -0.0425636
0.00524451 -0.04053
0.00555702 -0.0381254
0.00593589 -0.0409312
-0.00145289 -0.0505427
-0.00231946 -0.05024
-0.00636101 -0.0397473
-0.0048946 -0.0362703
-0.00305051 -0.045237
-0.00222073 -0.0471246
0.00276459 -0.0500396
0.00252414 -0.0498373
0.00516136 -0.0490733
0.00502526 -0.0493675
0.000513825 -0.0168485
0.00176192 -0.0145872
-0.00534181 -0.0368485
-0.00536809 -0.0404824
-0.00171669 -0.0524465
-0.0017307 -0.052066
0.00243693 -0.0473379
0.00325203 -0.0462565
-0.00613136 -0.0461252
-0.00593001 -0.0458692
-0.00347184 -0.0499735
-0.00338036 -0.0496023
-0.00426936 -0.00938736
-0.00425899 -0.0109028
0.000870954 -0.0413093
-0.00037923 -0.0389862
-0.00268361 -0.0495864
-0.00348251 -0.0488527
-0.00403171 -0.0490848
-0.0032539 -0.049752
-0.00123997 -0.00240498
-0.0013974 -0.00463277
-0.000250847 -0.0305987
0.000573995 -0.0360897
0.000864057 -0.0367575
0.00179807 -0.0324723
0.000502939 -0.00756795
-0.000628668 -0.013138
-0.00121248 -0.051453
-0.000581087 -0.0516029
0.00447465 -0.0392024
0.00427553 -0.042124
-0.00116911 -0.0177461
0.000358741 -0.013409
0.00925028 -0.0450032
0.00692966 -0.0402203
-0.000308655 -0.0498821
-9.0917e-05 -0.0502263
-0.00411901 -0.00422858
-0.00353752 -0.00428677
-0.00312469 -0.0102461
-0.00249315 -0.0136304
-0.00290359 -0.0132356
-0.00290783 -0.0148342
0.00250339 -0.0350836
0.00286073 -0.0303549
-0.00151408 -0.0488751
-0.000781072 -0.049678
-0.000799298 -0.0132766
-0.00144277 -0.0208907
-0.0019296 -0.050177
-0.00267681 -0.0500012
0.00522947 -0.0364705
0.005266 -0.0375435
0.00837995 -0.0432034
0.00670724 -0.0401571
0.000453963 -0.0238115
0.00200369 -0.0279906
0.00428731 -0.0505263
0.00364036 -0.0511881
-0.00144153 -0.0265645
-0.00039644 -0.0228756
-0.000745559 -0.05198
-0.00122828 -0.0518434
-0.000937615 -0.0520749
-0.000609628 -0.0519952
-0.00251757 -0.0528695
-0.00154907 -0.0537382
0.00062887 -0.00948209
-0.00052406 -0.0146153
-0.00535449 -0.0476205
-0.00583029 -0.0461352
0.00659154 -0.043578
0.00676311 -0.0428129
-0.00597328 -0.0476939
-0.00618022 -0.0468725
-0.00240854 -0.0471095
-0.00319153 -0.0478433
0.000585296 -0.0117295
-0.000591389 -0.00434755
0.00542531 -0.0471757
0.00490161 -0.0484994
-0.0022607 -0.0467119
-0.00132753 -0.0454638
-0.000747367 -0.0383211
-0.00138834 -0.0412455
-0.00158961 -0.00184118
-0.000113123 -0.000130671
-0.00279042 -0.0508379
-0.00234342 -0.0507627
0.00512557 -0.0492148
0.00416703 -0.0507888
-0.00621128 -0.0407448
-0.00573812 -0.0387984
-0.0021713 -0.0171444
-0.000908852 -0.020637
0.00501006 -0.0364349
0.0046925 -0.0366095
0.00396717 -0.050953
0.00447577 -0.0500658
0.00536557 -0.0487809
0.00600824 -0.0476369
-0.00425114 -0.0508089
-0.00496115 -0.0496412
-0.00104255 -0.00290775
-0.000251714 -0.000818522
-0.000514943 -0.0501367
-0.000263392 -0.0502177
0.00188814 -0.0417104
0.000798967 -0.0400647
0.00182423 -0.0537939
0.00246006 -0.0530391
-0.0017045 -0.0486146
-0.00188319 -0.0474151
-0.00496766 -0.0494858
-0.00637594 -0.0472223
0.000382581 -0.0524111
0.000971499 -0.0525783
0.00100421 -0.0204719
0.00234117 -0.0238097
0.00404117 -0.00738277
0.00397893 -0.00532866
-0.0064732 -0.0468644
-0.00695733 -0.0446284
0.0030365 -0.0467487
0.00347477 -0.0469363
0.00387859 -0.0350192
0.00438036 -0.0380854
-0.00038244 -0.0517636
-0.000911025 -0.0517908
-0.0059272 -0.0385457
-0.00448621 -0.0353037
0.000747156 -0.0106796
0.00139918 -0.0181927
-0.000144886 -0.0501005
-0.000711296 -0.0498385
0.00353555 -0.0313431
0.00455062 -0.0340587
-0.0052307 -0.00652082
-0.00460431 -0.00612062
6.83547e-05 -0.00945563
-0.000163786 -0.0113032
-0.00120474 -0.0529687
-0.000779553 -0.0537684
0.00494479 -0.0453836
0.00432423 -0.0462148
0.000878161 -0.000832077
0.00251477 -0.00289482
8.08109e-05 -0.0519229
0.000173501 -0.0517658
-0.00150006 -0.0480235
-0.000921735 -0.0490911
0.00235964 -0.0446315
0.00309931 -0.0426988
-0.000797532 -0.0521263
-0.000377369 -0.0522366
-0.00506996 -0.00865745
-0.00536819 -0.00709075
0.000953183 -0.00837139
0.00098595 -0.00420315
0.000267501 -0.0531955
0.000582984 -0.0536655
-0.002941 -0.0520475
-0.00276749 -0.0525042
0.00557238 -0.0484554
0.00527482 -0.0491081
-0.00314589 -0.0520958
-0.00350744 -0.0518096
0.00797364 -0.0432209
0.00600947 -0.0377472
-0.000911633 -0.0523024
-0.000965868 -0.0527245
0.00180091 -0.0218416
0.00248456 -0.0240368
-0.00394959 -0.0329779
-0.00503275 -0.0359691
0.00312031 -0.0521722
0.00203708 -0.0533952
0.00450097 -0.0330842
0.00345694 -0.0292877
-0.00497927 -0.00613335
-0.00432632 -0.00575329
0.000692408 -0.0507948
9.25297e-07 -0.0507064
-0.00246705 -0.0300703
-0.00393287 -0.0338472
0.00273108 -0.0429084
0.00341331 -0.0405294
0.000897231 -0.0503027
0.00144092 -0.0500066
-0.00551302 -0.0455636
-0.00505236 -0.0460138
-0.00280725 -0.0503101
-0.00223531 -0.0508525
0.00448383 -0.0501237
0.00386923 -0.0507292
-0.00199181 -0.051415
-0.00182412 -0.0511975
-0.00135958 -0.0277236
-0.00400161 -0.0331761
0.00388341 -0.0321727
0.00321228 -0.0319043
-0.0039866 -0.0502153
-0.00330345 -0.0509146
0.00383201 -0.0347852
0.00390596 -0.0312217
0.000466086 -0.0520819
0.000611471 -0.0521844
0.00449567 -0.0396059
0.00481059 -0.0417285
-0.00111407 -0.00219972
-0.000293937 -0.000726095
-0.00413578 -0.0311075
-0.00476057 -0.0350339
-0.00237723 -0.00785017
-0.00196928 -0.0114174
-0.00060981 -0.0432978
0.000824213 -0.0442956
-0.00131309 -0.0498012
-0.000529918 -0.0501295
0.00217812 -0.0382551
0.00207079 -0.0341959
0.002039 -0.0229019
0.00146472 -0.0180848
-0.000253392 -0.0501066
0.000128271 -0.0501803
0.00411074 -0.0409298
0.00325049 -0.0400937
-0.0031798 -0.00282447
-0.00291337 -0.00292592
-0.00123548 -0.0529204
-0.0013253 -0.0524056
0.00268731 -0.0493983
0.00353415 -0.0486799
0.000582732 -0.0508053
-0.000159946 -0.0510381
-0.00250426 -0.051198
-0.00180536 -0.0513464
5.11596e-05 -0.0521145
-0.000147842 -0.0520818
0.00112148 -0.0292
0.00272817 -0.0287769
0.0018116 -0.0512604
0.00240875 -0.0508677
-0.00107028 -0.0505388
-0.000354396 -0.0507571
-0.00216056 -0.0519425
-0.00178235 -0.0524199
0.00113106 -0.0500885
0.0015657 -0.0497931
-0.000533228 -0.00596257
-0.000232826 -0.00101183
0.000336189 -0.0518813
0.000213436 -0.0517424
0.000514808 -0.0517138
0.00108616 -0.0516398
-0.00390909 -0.0322202
-0.00309195 -0.0316375
-0.000843841 -0.0500338
-0.000241538 -0.0501675
0.00180087 -0.0538212
0.00222255 -0.0533063
-0.000745758 -0.0502645
-0.00023176 -0.0504405
0.00631846 -0.0460934
0.00590673 -0.0472633
-0.00442101 -0.00654802
-0.00485087 -0.00580916
0.00521295 -0.0490071
0.00423871 -0.0503555
0.00520059 -0.0427248
0.00491212 -0.0448611
0.00540534 -0.0412175
0.00535303 -0.0385402
-0.00376805 -0.0311027
-0.00422229 -0.0332482
0.00263328 -0.0505109
0.00263192 -0.0501311
0.00118177 -0.049442
0.00067393 -0.0496238
0.00203628 -0.0494226
0.00131972 -0.0497915
-0.002815 -0.0436921
-0.000629217 -0.0435949
0.00333545 -0.00404038
0.00442635 -0.00582174
0.00287948 -0.0489141
0.00345619 -0.048663
-0.00283537 -0.0496909
-0.00214164 -0.0498843
-0.0043446 -0.0485157
-0.00493632 -0.0479258
-0.00266067 -0.0157154
-0.00176887 -0.0181775
-0.00576793 -0.0475789
-0.0054077 -0.0480579
0.00120144 -0.0513009
0.00125925 -0.0509869
0.00158513 -0.00321599
0.0024368 -0.00489704
0.00341488 -0.0517127
0.00196231 -0.0535841
-0.00169032 -0.0532783
-0.00211352 -0.0525654
-0.00315236 -0.0259155
-0.00334334 -0.0282661
4.12632e-06 -0.0521342
9.20464e-05 -0.0521542
-0.000341456 -0.0189142
-0.000673637 -0.0159191
-0.00503291 -0.0358344
-0.00558961 -0.0383898
-0.000658725 -0.0523963
-0.000339115 -0.0529014
0.000582333 -0.0144804
0.00178723 -0.0117808
-0.00139182 -0.00155609
-0.0015883 -0.00147486
-0.00343239 -0.0308851
-0.00210177 -0.0268605
-0.000136 -0.000247025
-8.62489e-05 -0.000103574
0.00754754 -0.0455859
0.00722875 -0.0448889
-0.00086002 -0.0174669
0.000442534 -0.021705
0.00510406 -0.0409036
0.00391825 -0.0433033
-0.00610796 -0.0429238
-0.00610412 -0.0449095
-0.000677121 -0.0509799
-2.1568e-05 -0.0507708
0.00594581 -0.0465421
0.00621387 -0.0447112
-0.00631335 -0.0415111
-0.00581817 -0.0390737
0.000712271 -0.0210409
0.00125773 -0.019842
-0.000717298 -0.0489877
-0.000640721 -0.0497664
0.00202569 -0.0533099
0.00121091 -0.0538797
0.000143539 -0.0516448
-7.42817e-06 -0.051445
0.0050187 -0.0486079
0.00435601 -0.0495295
-0.00048966 -0.0501631
-7.25382e-05 -0.0502296
0.000691658 -0.0500756
0.00105913 -0.0499099
-0.00166371 -0.051496
-0.00100732 -0.0516619
0.00620357 -0.0452877
0.00594534 -0.047036
0.00453791 -0.0499868
0.00383302 -0.0509928
0.0030784 -0.0145459
0.00311583 -0.0144195
-0.00368285 -0.00539631
-0.00427965 -0.00743284
0.00446922 -0.0503262
0.0049975 -0.0493028
-0.00402885 -0.0505535
-0.00334317 -0.0513406
0.00381535 -0.0340279
0.00662529 -0.0297987
-0.00614296 -0.0433566
-0.00594077 -0.0413619
-0.00103912 -0.0186894
0.000486058 -0.0226735
-0.000309333 -0.0500783
9.89242e-05 -0.050178
-0.000939419 -0.00964441
4.38023e-05 -0.0140989
-0.00215056 -0.0162318
-0.00272069 -0.0131274
0.00478728 -0.0496335
0.00412455 -0.0507211
-0.00291715 -0.0507081
-0.00253932 -0.0511941
-0.00554245 -0.0379175
-0.00633819 -0.0405717
0.00271126 -0.0131761
0.00390582 -0.0113322
-0.00140892 -0.0223381
-4.17944e-07 -0.019014
0.00473396 -0.0498016
0.00539158 -0.0485184
0.0046063 -0.00697543
0.00447583 -0.00927562
0.00226382 -0.0166895
0.00329621 -0.013351
0.00391004 -0.0511886
0.00504292 -0.0494812
0.0042837 -0.03282
0.00651871 -0.0393512
0.00485162 -0.0348001
0.00434159 -0.0325891
0.00533336 -0.0448801
0.00478746 -0.0463562
-0.0059622 -0.0400637
-0.00600134 -0.0417757
-4.48896e-05 -0.0505484
0.000116644 -0.0507798
0.00403942 -0.032154
0.00463847 -0.0346053
0.00396904 -0.00641049
0.0039973 -0.00898652
9.58006e-05 -0.0521455
0.000221592 -0.0520818
-0.00223213 -0.0517703
-0.00292037 -0.0514596
-0.00391147 -0.0396973
-0.00298132 -0.0418877
-0.00374252 -0.0295453
-0.00425074 -0.0339817
-0.00154576 -0.052147
-0.001288 -0.0525578
-0.000417877 -0.0191846
0.000525888 -0.0148006
-0.00230053 -0.0118109
-0.0028366 -0.00836665
0.000572984 -0.0519343
0.001043 -0.0518411
-0.000761339 -0.0142899
-0.0014505 -0.0208606
-0.00553433 -0.0485931
-0.00657113 -0.0463405
-0.000143052 -0.0504503
0.000785346 -0.0503199
0.000609972 -0.022045
0.00172057 -0.0240973
-0.00215291 -0.0203398
-0.00347276 -0.028783
0.00118619 -0.0168091
0.00144272 -0.0185968
0.00404069 -0.0486703
0.00470546 -0.0480788
0.00248913 -0.0514451
0.00299161 -0.0513933
0.00537755 -0.0370818
0.00419718 -0.0334864
-0.000517634 -0.0493007
-0.000463143 -0.0499629
0.00347029 -0.0516957
0.00343868 -0.0514896
-0.00111719 -0.0519875
-0.00159199 -0.052064
-0.0019987 -0.0478869
-0.00238508 -0.046355
0.000962425 -0.00277431
0.00087461 -0.00467088
-0.00131253 -0.0514233
-0.000719415 -0.0516106
0.00326893 -0.0520628
0.00331152 -0.0519144
-0.00222207 -0.0509047
-0.00229397 -0.0505135
-0.00517541 -0.0364491
-0.00588179 -0.0394891
0.00333584 -0.0510608
0.00288799 -0.0516948
-0.00547463 -0.0484235
-0.00501052 -0.049207
0.000366061 -0.0510444
-9.46739e-05 -0.0508252
-0.00451887 -0.0456256
-0.0049689 -0.0456479
0.00421789 -0.0493679
0.00352267 -0.0498461
0.000373108 -0.0500311
0.000481714 -0.0497354
0.00594093 -0.0388741
0.00448541 -0.0351134
0.00396817 -0.0511412
0.00384544 -0.0513059
-0.00425744 -0.0503828
-0.00430219 -0.0499573
0.00120445 -0.0177624
-6.83735e-05 -0.021914
-0.00375803 -0.0511797
-0.00340277 -0.0518021
-0.00544691 -0.00662741
-0.00516056 -0.00817874
0.00168211 -0.0192473
0.00066694 -0.0146504
0.00610758 -0.0428087
0.00610511 -0.0410067
-0.000114397 -0.0502104
-0.000415652 -0.0498631
0.000937219 -0.0466826
0.000793795 -0.04497
-0.000413492 -0.0210204
-0.00177606 -0.0169611
0.00328862 -0.0513877
0.00299658 -0.0519788
-0.0024905 -0.023332
-0.00140684 -0.0179575
0.00131043 -0.052418
0.00198475 -0.0521446
0.000418806 -0.0498921
5.69161e-05 -0.0502357
0.00334877 -0.0500106
0.00396052 -0.0497835
0.00422718 -0.0490406
0.00416539 -0.0496499
0.00452898 -0.0482056
0.00513807 -0.0474591
-0.000620887 -0.0368994
-0.000101618 -0.0404351
-0.00574404 -0.0478871
-0.00622064 -0.0465243
0.00371487 -0.0287139
0.00387869 -0.0318308
0.0015224 -0.0534247
0.00186666 -0.0527257
0.00589999 -0.0402869
0.00605549 -0.0401934
-0.0019934 -0.00210627
-0.000207587 -0.00020584
0.0038031 -0.00495901
0.0045495 -0.00516329
-0.00118551 -0.0499336
-0.000549601 -0.0501124
-0.000283784 -0.0521158
-6.06245e-05 -0.0521617
0.00356194 -0.00432662
0.00229833 -0.00273435
0.00563069 -0.0423785
0.00568587 -0.0401515
0.00167165 -0.0484125
0.000694321 -0.0482453
0.00456134 -0.00947027
0.00418476 -0.00864194
0.000105921 -0.0490968
-5.5616e-05 -0.0498807
0.000136007 -0.0519198
0.000353093 -0.0519872
0.00274915 -0.0497366
0.00191267 -0.0500524
0.00580853 -0.0391181
0.00533163 -0.0369408
-0.00497278 -0.0495374
-0.0055344 -0.0481701
0.00146786 -0.0227
0.00276903 -0.0266619
0.00538761 -0.0304367
0.00491805 -0.0348928
-0.0041931 -0.0481218
-0.0037684 -0.0481467
-0.00557218 -0.0380688
-0.00597498 -0.0394675
0.00669278 -0.0442777
0.00682342 -0.0448369
0.00737606 -0.0417907
0.00770878 -0.0455659
-0.00161809 -0.0162664
-0.000456472 -0.0202758
-0.00543233 -0.0449318
-0.00530724 -0.0435078
-0.00495002 -0.0357377
-0.00439416 -0.0346313
0.00280031 -0.0306337
0.0034854 -0.0326384
0.00286938 -0.0259554
0.00153942 -0.0221749
0.000520744 -0.0520442
0.000758104 -0.0521179
-0.00278889 -0.0516113
-0.00287981 -0.0512215
-0.000263011 -0.0525418
-0.000541206 -0.0530678
0.00243428 -0.0514255
0.0018798 -0.0514536
-0.00198729 -0.050643
-0.00122166 -0.0506872
-0.00260443 -0.0526058
-0.00238715 -0.0524786
-0.00059515 -0.033942
-0.00167521 -0.0275422
0.000637599 -0.00621147
0.000273212 -0.00151031
-0.000387701 -0.0473781
-0.000855425 -0.0483508
0.00517059 -0.0432836
0.00555691 -0.0437432
0.00198291 -0.0507535
0.0017597 -0.0511383
0.00475524 -0.00931449
0.00529173 -0.0079818
-0.00522864 -0.0369423
-0.00512751 -0.0377222
-0.00639937 -0.0464132
-0.00565928 -0.0484037
-8.4066e-05 -0.0522712
-0.000371452 -0.0522127
-0.00282341 -0.0469171
-0.00296149 -0.0451337
-0.00562277 -0.0400426
-0.00537308 -0.0375877
0.000843001 -0.0521446
0.000570263 -0.052053
0.00159058 -0.00321978
0.00208638 -0.00647173
0.00460411 -0.0347394
0.00351027 -0.0312187
0.00424058 -0.0503296
0.00590492 -0.0480289
0.00383338 -0.0513154
0.0028756 -0.0524971
-0.00019925 -0.0460044
0.000654754 -0.0473233
0.00346852 -0.0497848
0.00313784 -0.0504024
0.000190833 -0.0446712
5.8374e-05 -0.0466101
-0.000307941 -0.0467742
0.0010152 -0.0460644
-0.00413794 -0.050695
-0.00398087 -0.0510648
0.00117073 -0.0500646
0.000791001 -0.0500755
-0.0010579 -0.0208616
-0.00232708 -0.0242037
0.00100525 -0.0212483
0.00199318 -0.0253043
0.00038696 -0.0518033
0.000600431 -0.0518984
-0.00480645 -0.0450664
-0.00424319 -0.0453597
0.00147486 -0.0517271
0.00131891 -0.0519698
-0.00142618 -0.0496908
-0.00120779 -0.0499392
0.00668702 -0.0444285
0.00645267 -0.0447164
0.00391919 -0.0302402
0.00279721 -0.02655
0.00391973 -0.0071691
0.00349869 -0.0099817
0.00508454 -0.0489142
0.00507114 -0.0483999
-0.00564297 -0.0470524
-0.0054272 -0.0482095
0.00215063 -0.00174926
0.00339742 -0.00349308
-0.00445008 -0.0418292
-0.00466766 -0.0388232
-0.00565382 -0.0381698
-0.00478983 -0.0350968
0.0035758 -0.0461223
0.00397751 -0.0442158
-0.00267508 -0.0382027
-0.00140488 -0.0369693
0.00515998 -0.0440288
0.00463158 -0.0442874
0.00493198 -0.0489812
0.00479479 -0.0486482
-0.00378055 -0.0331515
-0.00437808 -0.0311438
-0.00399561 -0.0339708
-0.00330727 -0.0322409
0.00218625 -0.0462024
0.00286767 -0.0443423
-0.00262171 -0.0523365
-0.00273972 -0.0518828
-0.00318943 -0.045064
-0.0023888 -0.0431641
-0.00271483 -0.0527865
-0.00124045 -0.0545486
0.00323734 -0.0399569
0.00059971 -0.0403152
-0.00480905 -0.0366059
-0.00441769 -0.0378666
-0.00411568 -0.0499076
-0.00466699 -0.0494712
-0.00162438 -0.0466671
-0.000268749 -0.046241
0.00128088 -0.0498276
0.000679612 -0.0500413
0.00269729 -0.0516321
0.00230856 -0.052207
0.00328368 -0.00749273
0.00288219 -0.00474828
0.00119469 -0.0187307
0.00075883 -0.0211827
-0.00202997 -0.0494337
-0.00191762 -0.0492584
0.00468304 -0.0341546
0.00486532 -0.0352393
0.0045889 -0.0422388
0.0045361 -0.0443549
-0.00364985 -0.0516506
-0.00469655 -0.0501168
-0.00208916 -0.0521359
-0.00169302 -0.0526962
0.00563744 -0.0482809
0.00552357 -0.0482603
0.00505549 -0.0371316
0.00453793 -0.0335448
-0.00215908 -0.0465449
-0.00141465 -0.0450315
0.00686036 -0.0420978
0.00590864 -0.0388841
0.0020785 -0.027021
0.00370166 -0.0205693
-0.00146834 -0.054283
-0.00173408 -0.053948
-0.000835924 -0.0521604
-0.000624672 -0.0520393
0.00310031 -0.0314046
0.00365192 -0.0352188
0.00239987 -0.0237505
0.00277973 -0.0240955
-0.00163177 -0.0540822
-0.0011989 -0.0545757
0.00353319 -0.0516439
0.00277474 -0.0523773
0.000825163 -0.0504275
0.00053108 -0.0507128
-0.00147523 -0.018022
-0.000248227 -0.0134022
-0.00320152 -0.0262085
-0.00370498 -0.0285341
-0.00492268 -0.0495942
-0.00532513 -0.0485216
-0.00401958 -0.0316857
-0.00372718 -0.0314683
-0.00709088 -0.0462124
-0.00504712 -0.0496126
-0.00405162 -0.0504572
-0.00431008 -0.04978
0.00277246 -0.0402168
0.00315606 -0.0365885
0.000937764 -0.0544846
0.000670399 -0.0543815
0.00689905 -0.0431898
0.00668258 -0.0436125
0.00176475 -0.0502656
0.000965841 -0.0503726
0.00601095 -0.0476461
0.00666914 -0.0458218
-0.00218104 -0.0419292
-0.000897844 -0.0416797
0.00297839 -0.0456451
0.00443028 -0.0434331
0.000432507 -0.00258117
3.43074e-05 -0.00924548
0.000272051 -0.052385
0.000237387 -0.0530754
-0.00317861 -0.049452
-0.00335964 -0.04972
0.00346946 -0.0325734
0.00502947 -0.0364804
-0.0043172 -0.0108289
-0.00413151 -0.0112016
-0.00299757 -0.0311558
-0.00291504 -0.0301696
-0.000479165 -0.000546612
-0.000158615 -0.00014737
-0.0053012 -0.0371025
-0.00570044 -0.0398103
-0.000336199 -0.050167
-4.11171e-05 -0.0503248
-0.000325385 -0.0489008
-0.000398285 -0.0497132
-0.00196873 -0.0464079
-0.000730789 -0.0454172
-0.00492802 -0.00652361
-0.0052895 -0.00587041
0.00207033 -0.0147073
0.00166564 -0.0175763
0.00196503 -0.0470081
0.00205544 -0.045277
-0.000268021 -0.0483773
0.000279848 -0.0492155
0.0059224 -0.0388351
0.00534585 -0.0371606
0.000186237 -0.0501028
0.000250805 -0.0495572
0.00314985 -0.00723618
0.00388726 -0.00715196
0.00310323 -0.00401838
0.00193926 -0.0025265
0.000364635 -0.000321138
0.00188846 -0.00159681
0.0071816 -0.0421711
0.00687388 -0.0420695
-0.00170195 -0.0455121
-0.00245714 -0.0461661
0.000220352 -0.0135128
-0.000917951 -0.00813854
-0.00060989 -0.0548328
-0.00116809 -0.0539858
-0.00145984 -0.0177498
-0.000202998 -0.0128615
0.00283595 -0.0153602
0.00238956 -0.0159778
-0.00098981 -0.0474584
6.72732e-07 -0.0475911
0.00674614 -0.0430873
0.00661457 -0.0447216
0.0016623 -0.053981
0.00289836 -0.0525232
0.00331297 -0.0269888
0.00420122 -0.0314017
-0.00302115 -0.0129514
-0.00279441 -0.0111335
0.000828812 -0.0539316
0.00176011 -0.0530036
-0.00421437 -0.0506316
-0.00414031 -0.050919
0.00349383 -0.0290763
0.00296098 -0.0304379
-0.00453226 -0.0353447
-0.00398234 -0.0336376
0.00131575 -0.00227858
0.00224811 -0.00387089
-0.000173308 -0.051852
-0.000549293 -0.0519283
-0.000276228 -0.0161815
-0.00119255 -0.0166451
-0.00385161 -0.0439082
-0.00456194 -0.0435712
-2.41396e-05 -0.0487543
-0.000830471 -0.0486023
0.000236645 -0.0499375
0.000723225 -0.0493633
0.00133092 -0.0516084
0.00137456 -0.0518027
0.00335616 -0.0112924
0.00407691 -0.00856786
0.00433499 -0.0324016
0.00512962 -0.0359966
0.00298113 -0.0254116
0.0022351 -0.0227316
-0.00291572 -0.0511509
-0.00253546 -0.0516212
-0.00158674 -0.0491649
-0.00183589 -0.0482332
-0.0058941 -0.0391162
-0.00502841 -0.0359795
-0.00373622 -0.0514118
-0.00449953 -0.0502914
0.00155893 -0.0310055
-0.000296748 -0.0348195
-0.00215793 -0.0479924
-0.00263356 -0.0481105
-0.000995429 -0.0484696
-0.00176181 -0.0474859
-0.000641268 -0.0501266
-0.00148933 -0.0498488
-0.00012997 -0.0516488
0.000482773 -0.0516105
0.000927597 -0.0501002
0.00133017 -0.0501191
0.00518218 -0.0363503
0.00587164 -0.0390417
0.000578312 -0.00389072
-0.000333732 -0.00729787
0.00347508 -0.00393915
0.00447972 -0.0058896
0.000340553 -0.0518301
0.000498962 -0.0519346
0.00493557 -0.0356715
0.00520614 -0.0364312
-0.00059617 -0.0248306
-0.00221591 -0.0292326
-0.00095164 -0.0490356
-0.000460938 -0.0497929
-0.00122064 -0.050494
-0.0019779 -0.0504334
-0.00201108 -0.0198649
-0.000659139 -0.0146423
-0.000827999 -0.0185558
0.000553175 -0.0213617
-0.000139809 -0.0521883
-0.000346647 -0.052097
0.000113115 -0.0501424
-1.41017e-05 -0.050246
-0.00078162 -0.0518462
-0.000284458 -0.0518923
5.2613e-05 -0.0216854
0.000805353 -0.0196972
0.00463529 -0.0334714
0.00411346 -0.0272068
6.9951e-05 -0.0521275
0.000203532 -0.0521154
0.00213026 -0.0491554
0.00140862 -0.0497695
0.00137152 -0.0541696
0.00250041 -0.0529824
-0.00857682 -0.0444722
-0.00682056 -0.0404408
-0.00267654 -0.0306323
-0.00114901 -0.0264092
0.000494364 -0.00102167
0.000997652 -0.00140112
-0.00463114 -0.0498769
-0.00657773 -0.0472155
0.00606868 -0.0472727
0.00629746 -0.0462737
0.000743448 -0.0518823
0.000375784 -0.0519977
0.00540643 -0.0486982
0.00571793 -0.0481339
-0.00423726 -0.0104735
-0.00483213 -0.00815785
0.00394597 -0.0434991
0.0031219 -0.0445298
0.000433007 -0.0546737
0.00136551 -0.053595
0.00463782 -0.0350778
0.00554136 -0.0376278
0.00098348 -0.0254311
0.00078736 -0.0254454
-1.35402e-05 -0.050325
-6.53189e-05 -0.0501751
0.000877541 -0.0507452
0.00171077 -0.0504499
0.00379762 -0.0476111
0.00300721 -0.0485234
0.000893042 -0.0490244
0.00157062 -0.0479877
-0.00433031 -0.0505429
-0.00526441 -0.0490303
0.00108193 -0.0470262
0.00203753 -0.0465937
-0.00261934 -0.0529197
-0.00378079 -0.0514683
-0.00220031 -0.0468248
-0.00220329 -0.048013
0.00487313 -0.00935857
0.00441078 -0.00969272
0.00229765 -0.0497309
0.00316532 -0.0491635
-0.000594088 -0.0519945
-0.00101064 -0.0520345
-0.00375997 -0.0333767
-0.00478783 -0.0358471
-0.00521061 -0.00695142
-0.00460715 -0.00648035
0.000872434 -0.0084798
0.0015686 -0.00751963
0.00386 -0.0454829
0.00352654 -0.0469826
0.00067012 -0.0492038
0.00139836 -0.0483104
0.00639414 -0.0409777
0.00671031 -0.0435506
0.00253574 -0.049825
0.00171736 -0.0500853
0.00176867 -0.0275223
0.00280416 -0.0307414
0.00138353 -0.0176032
0.000993612 -0.0158413
0.00305903 -0.0314184
0.00132959 -0.0266096
6.11399e-05 -0.0518695
0.00033217 -0.0517083
0.00191249 -0.0263754
0.00371171 -0.0285449
0.00143337 -0.0531464
0.000900181 -0.0539996
0.000436679 -0.0239792
-0.00107139 -0.0200463
0.00250471 -0.0299298
0.00141541 -0.0271852
-0.00133879 -0.0253967
-0.000644607 -0.0221441
0.00419981 -0.0104843
0.00417743 -0.0114958
-0.00446756 -0.0504096
-0.00322217 -0.0520426
-0.00231419 -0.00232849
-0.00300494 -0.00268691
0.00513305 -0.0366838
0.00384786 -0.032431
-0.00282631 -0.00516745
-0.0035831 -0.00701773
0.00201078 -0.0125693
0.00213846 -0.00949529
-0.000303386 -0.0501704
2.62994e-05 -0.0501744
0.00102015 -0.0136832
-0.00313229 -0.0152158
0.0025052 -0.0529563
0.00231405 -0.0530789
-0.00484602 -0.00815665
-0.00532565 -0.00764659
-0.00640579 -0.0446209
-0.00612545 -0.0465069
-0.000501181 -0.0501201
0.000168582 -0.0501629
0.00369262 -0.00457833
0.00466117 -0.00557703
0.000714234 -0.000793321
0.00112766 -0.00153675
-0.00171474 -0.050394
-0.00248014 -0.0502489
-0.00177939 -0.00160396
-0.00354035 -0.00343296
0.00178056 -0.0538443
0.00217364 -0.0533357
0.00589122 -0.0477268
0.00510505 -0.0493958
-0.00329057 -0.0514987
-0.00335824 -0.0510987
0.0010005 -0.0516375
0.00103284 -0.0514086
-0.00195017 -0.0518009
-0.00138362 -0.0520495
0.00244482 -0.048992
0.00261079 -0.0483855
0.000450723 -0.0501096
0.000681461 -0.0500165
0.00311625 -0.0043147
0.00351315 -0.00653507
-0.00050549 -0.0114056
-0.00138223 -0.00705868
0.00541544 -0.0480805
0.00530827 -0.0476146
8.81559e-05 -0.0520567
2.93605e-05 -0.0521419
-0.000457837 -0.0501461
0.000187946 -0.0501858
-0.000140575 -0.0430609
0.00139776 -0.0424929
0.00347283 -0.00774551
0.00327546 -0.0107677
-0.000364847 -0.0521582
-0.000477617 -0.0520334
0.00203325 -0.0272582
0.00263942 -0.027851
-0.00168224 -0.00969783
-0.00181534 -0.00608359
0.00549798 -0.0486057
0.00555679 -0.0484391
-0.00369305 -0.0504792
-0.00298207 -0.0510435
0.000136076 -0.0236329
0.00173153 -0.0279416
0.00301701 -0.0137159
0.00554039 -0.0237392
-0.00353604 -0.0491596
-0.00280961 -0.0495412
-0.00599464 -0.0454722
-0.00558529 -0.0467039
0.00138274 -0.0499522
0.00107279 -0.0499562
-0.0011292 -0.0172863
-0.000796072 -0.025242
0.000598235 -0.0500603
-4.82242e-05 -0.0501782
0.00191235 -0.0163308
0.00300391 -0.0128284
0.00739125 -0.0337999
0.00481672 -0.027287
-0.000448154 -0.0521903
-0.000924144 -0.0521149
0.00205008 -0.0388311
0.00313638 -0.0415668
0.00440375 -0.0328377
0.00454533 -0.0333299
-0.00264819 -0.0526049
-0.00336775 -0.0515966
-0.000139676 -0.0500882
0.000106262 -0.0502124
0.00190712 -0.0416044
0.00273818 -0.0439805
-0.000745224 -0.0499684
-0.000396237 -0.0500627
-0.000987644 -0.0193935
-0.00124236 -0.0196476
-0.000667625 -0.0488083
8.59418e-05 -0.0490533
-0.00218995 -0.0494419
-0.00302225 -0.0487595
-0.00378015 -0.0481429
-0.00298699 -0.0489648
0.00610932 -0.045169
0.00626225 -0.0431633
0.000163204 -0.0475505
0.000640124 -0.045791
-0.000847291 -0.00385155
-0.000291417 -0.00475348
0.00262521 -0.049614
0.00345559 -0.0490838
-0.00240729 -0.0161134
-0.00104784 -0.0196852
0.00211328 -0.0226583
0.00255403 -0.0229257
-0.0028622 -0.0523061
-0.00220709 -0.0526987
0.000888098 -0.051838
0.000530519 -0.0519811
-0.0051939 -0.0393138
-0.00494599 -0.0362145
0.00242566 -0.00538879
0.00316069 -0.00681884
1.1085e-05 -0.0501761
0.000661498 -0.0501324
-0.00156675 -0.0516112
-0.00126036 -0.0518551
-0.00581696 -0.0387698
-0.00669695 -0.0418727
-0.000916572 -0.0467288
-0.000259146 -0.0480423
-0.000625138 -0.0520581
-0.0011334 -0.0520051
-0.00066713 -0.0520573
-0.00118556 -0.0519857
0.00446341 -0.0330334
0.0037314 -0.0287635
0.00607597 -0.0389004
0.00773811 -0.0423746
-0.000955427 -0.0499671
-0.000433874 -0.0501543
0.00184079 -0.0532488
0.00152653 -0.0531154
0.00161878 -0.0203651
0.00279401 -0.0249772
-0.00197148 -0.0521819
-0.00254852 -0.052103
0.00540099 -0.0470446
0.00567546 -0.0470796
0.00555582 -0.0430013
0.00560174 -0.04479
-0.00619372 -0.0450255
-0.00597161 -0.0468009
0.00282866 -0.0460773
0.00232486 -0.0476489
0.000168028 -0.052137
0.000351275 -0.0520911
-0.00385105 -0.0362995
-0.0045618 -0.0376991
0.00545618 -0.00698451
0.00495219 -0.00665949
0.00391406 -0.0113077
0.00337693 -0.0136826
-0.00139362 -0.047859
-0.00220258 -0.047559
-0.00167874 -0.0496149
-0.00228747 -0.0493464
-0.000638945 -0.0519238
-0.00112008 -0.0519367
-0.00317218 -0.00359131
-0.0027126 -0.00367298
-0.00170326 -0.0270647
-0.000923746 -0.0257735
0.00701164 -0.0441508
0.00649288 -0.0466042
-0.0036711 -0.0509352
-0.00380424 -0.05044
-0.00530537 -0.0457546
-0.00571748 -0.0442992
-0.00368946 -0.0489121
-0.00437938 -0.0478649
-0.00213311 -0.0495448
-0.00259418 -0.0489219
0.00458835 -0.0500139
0.00427175 -0.0503246
-0.00193405 -0.0509486
-0.00273627 -0.0506116
0.00430971 -0.0393566
0.00280451 -0.0356622
-0.00123542 -0.00958425
-0.0010194 -0.00701254
-0.00155199 -0.0236016
-0.00346158 -0.0271387
0.000432046 -0.0221534
-0.000547743 -0.0245406
0.00207338 -0.0151682
0.000830341 -0.0191038
-0.0048467 -0.0350276
-0.00396672 -0.0313704
-0.00572135 -0.0415068
-0.00584372 -0.0435564
0.00628267 -0.0429913
0.00643334 -0.0440218
-0.00214412 -0.0500552
-0.00198877 -0.0504274
-0.00122148 -0.052238
-0.000662507 -0.0522261
-0.00485727 -0.0441144
-0.00500017 -0.04186
-0.00616297 -0.0475138
-0.00668747 -0.0458635
-4.88019e-05 -0.0503386
1.90956e-05 -0.0502943
0.0063879 -0.0441941
0.00657253 -0.0444658
0.000106406 -0.0505187
2.63157e-05 -0.0503494
-0.00297514 -0.0299378
-0.00244177 -0.0246375
-0.0064799 -0.0464747
-0.00598773 -0.0476596
-0.00404688 -0.0510102
-0.00523993 -0.0491619
-0.00065832 -0.0119665
0.00131202 -0.0171044
0.000538122 -0.01932
-0.000691421 -0.0148159
-0.00487224 -0.049774
-0.00572036 -0.0482879
0.00129543 -0.0543907
0.002026 -0.0535336
1.94189e-05 -0.022128
-0.000558341 -0.0141815
-0.00328929 -0.0322522
-0.00321488 -0.0319659
-0.00642592 -0.0473884
-0.0073073 -0.0447215
-0.00241775 -0.0394797
-0.00140336 -0.0420283
-0.00266981 -0.00324083
-0.0038312 -0.0045086
0.00276707 -0.0082074
0.0026426 -0.00513074
-0.00258035 -0.0526808
-0.00329241 -0.0520344
0.00486299 -0.0439986
0.0051724 -0.0448424
0.00287282 -0.0291959
0.00421188 -0.0332156
-0.000389607 -0.0501809
-0.000692433 -0.0500952
-0.00644822 -0.0408928
-0.00625664 -0.0406569
0.00449595 -0.0498584
0.00458875 -0.0500513
0.00210539 -0.0513022
0.00165803 -0.0512158
-0.0033978 -0.00820709
-0.00339475 -0.00556456
0.000327922 -0.0499429
0.000719013 -0.0491656
0.000760687 -0.0526534
0.00117973 -0.0529641
-0.000616585 -0.0521722
-0.00107175 -0.0520415
-3.58978e-05 -0.0503212
-0.000302445 -0.0502068
-0.00286644 -0.0376796
-0.00357464 -0.0398898
-0.000492662 -0.0500904
-0.00030881 -0.0498713
0.000441802 -0.00063487
0.0017434 -0.00344065
-0.00722473 -0.0404175
-0.00459691 -0.0340889
0.00622626 -0.0451473
0.00605709 -0.0446392
-0.00141068 -0.047685
-0.00129262 -0.0488696
0.000937886 -0.0505785
0.00182663 -0.0503484
0.00186829 -0.0497649
0.00273134 -0.049186
-0.0020373 -0.0513993
-0.00168678 -0.051259
-0.000153154 -0.0116107
-0.00010619 -0.0131409
-0.00407132 -0.040251
-0.0018156 -0.0379054
-0.000917575 -0.0534503
-0.00188714 -0.0536517
-0.00188714 -0.0536517
-0.00291023 -0.0539108
-0.00291023 -0.0539108
-0.00396302 -0.0542473
-0.00396302 -0.0542473
-0.00502412 -0.0546728
-0.00502412 -0.0546728
-0.00607726 -0.0551836
-0.00607726 -0.0551836
-0.00710299 -0.0557794
-0.00710299 -0.0557794
-0.0080857 -0.0564548
-0.0080857 -0.0564548
-0.00901141 -0.0572026
-0.00901141 -0.0572026
-0.0098673 -0.0580138
-0.0098673 -0.0580138
-0.0106447 -0.0588769
-0.0106447 -0.0588769
-0.0113354 -0.0597799
-0.0113354 -0.0597799
-0.011935 -0.0607103
-0.011935 -0.0607103
-0.0124413 -0.0616551
-0.0124413 -0.0616551
-0.0128513 -0.0625998
-0.0128513 -0.0625998
-0.0131691 -0.0635365
-0.0131691 -0.0635365
-0.0133976 -0.0644503
-0.0133976 -0.0644503
-0.0135406 -0.0653321
-0.0135406 -0.0653321
-0.0136056 -0.0661756
-0.0136056 -0.0661756
-0.0135985 -0.0669697
-0.0135985 -0.0669697
-0.0135286 -0.0677111
-0.0135286 -0.0677111
-0.0134018 -0.0683976
-0.0134018 -0.0683976
-0.0132262 -0.0690239
-0.0132262 -0.0690239
-0.0130111 -0.0695899
-0.0130111 -0.0695899
-0.0127609 -0.070097
-0.0127609 -0.070097
-0.0124804 -0.0705488
-0.0124804 -0.0705488
-0.0121756 -0.0709421
-0.0121756 -0.0709421
-0.0118513 -0.0712819
-0.0118513 -0.0712819
-0.0115046 -0.0715759
-0.0115046 -0.0715759
-0.0111349 -0.0718219
-0.0111349 -0.0718219
-0.0107477 -0.0720212
-0.0107477 -0.0720212
-0.0103361 -0.07217
-0.0103361 -0.07217
-0.00989169 -0.0722799
-0.00989169 -0.0722799
-0.00941479 -0.0723464
-0.00941479 -0.0723464
-0.00890291 -0.0723507
-0.00890291 -0.0723507
-0.00833826 -0.0722971
-0.00833826 -0.0722971
-0.00772102 -0.0721895
-0.00772102 -0.0721895
-0.00704744 -0.0720006
-0.00704744 -0.0720006
-0.00630788 -0.0716964
-0.00630788 -0.0716964
-0.00549729 -0.0712854
-0.00549729 -0.0712854
-0.00461828 -0.0707466
-0.00461828 -0.0707466
-0.00366489 -0.0700177
-0.00366489 -0.0700177
-0.00264625 -0.0690762
-0.00264625 -0.0690762
-0.00156847 -0.0678804
-0.00156847 -0.0678804
-0.000419941 -0.0663423
-0.000419941 -0.0663423
0.000744198 -0.0643589
0.000744198 -0.0643589
0.00194192 -0.0618232
0.00194192 -0.0618232
0.00315991 -0.058369
0.00315991 -0.058369
0.00444152 -0.0538857
0.00444152 -0.0538857
0.00620041 -0.0490863
0.00620041 -0.0490863
0.00722917 -0.0467589
0.00722917 -0.0467589
0.00730463 -0.0459206
0.00730463 -0.0459206
0.00711519 -0.0456037
0.00711519 -0.0456037
0.00691581 -0.0455951
0.00691581 -0.0455951
0.00670601 -0.0458061
0.00670601 -0.0458061
0.00653126 -0.0461668
0.00653126 -0.0461668
0.00632815 -0.0466626
0.00632815 -0.0466626
0.00606178 -0.0472627
0.00606178 -0.0472627
0.00578715 -0.0479466
0.00578715 -0.0479466
0.00548354 -0.0486481
0.00548354 -0.0486481
0.00512771 -0.0493195
0.00512771 -0.0493195
0.00471878 -0.0499428
0.00471878 -0.0499428
0.00428748 -0.0505217
0.00428748 -0.0505217
0.00384106 -0.0510388
0.00384106 -0.0510388
0.00337765 -0.0514896
0.00337765 -0.0514896
0.00290959 -0.0518792
0.00290959 -0.0518792
0.00244143 -0.0522101
0.00244143 -0.0522101
0.00197423 -0.0524843
0.00197423 -0.0524843
0.00150112 -0.052713
0.00150112 -0.052713
0.00101658 -0.052904
0.00101658 -0.052904
0.000506086 -0.0530755
0.000506086 -0.0530755
-0.000104069 -0.0532525
-0.000104069 -0.0532525
-0.000917575 -0.0534503
0.00773525 -0.0722529
0.00835058 -0.0723601
0.00835058 -0.0723601
0.00891457 -0.0724111
0.00891457 -0.0724111
0.00942594 -0.0724079
0.00942594 -0.0724079
0.00990078 -0.0723446
0.00990078 -0.0723446
0.0103434 -0.0722356
0.0103434 -0.0722356
0.0107541 -0.0720887
0.0107541 -0.0720887
0.0111388 -0.0718909
0.0111388 -0.0718909
0.0115067 -0.071648
0.0115067 -0.071648
0.0118522 -0.0713549
0.0118522 -0.0713549
0.0121753 -0.0710162
0.0121753 -0.0710162
0.0124787 -0.0706248
0.0124787 -0.0706248
0.0127578 -0.0701746
0.0127578 -0.0701746
0.0130073 -0.0696688
0.0130073 -0.0696688
0.0132215 -0.0691053
0.0132215 -0.0691053
0.0133963 -0.0684828
0.0133963 -0.0684828
0.0135225 -0.0677959
0.0135225 -0.0677959
0.0135929 -0.0670578
0.0135929 -0.0670578
0.0135999 -0.0662701
0.0135999 -0.0662701
0.0135365 -0.0654289
0.0135365 -0.0654289
0.0133927 -0.0645473
0.0133927 -0.0645473
0.0131652 -0.063636
0.0131652 -0.063636
0.012849 -0.0627033
0.012849 -0.0627033
0.0124388 -0.0617598
0.0124388 -0.0617598
0.0119347 -0.0608172
0.0119347 -0.0608172
0.0113376 -0.0598909
0.0113376 -0.0598909
0.0106477 -0.0589895
0.0106477 -0.0589895
0.00987337 -0.0581293
0.00987337 -0.0581293
0.00901951 -0.0573207
0.00901951 -0.0573207
0.00809687 -0.0565745
0.00809687 -0.0565745
0.00711759 -0.0559007
0.00711759 -0.0559007
0.00609534 -0.0553055
0.00609534 -0.0553055
0.00504795 -0.0547965
0.00504795 -0.0547965
0.00398916 -0.0543732
0.00398916 -0.0543732
0.00294425 -0.0540366
0.00294425 -0.0540366
0.00192683 -0.0537767
0.00192683 -0.0537767
0.000971158 -0.0535736
0.000971158 -0.0535736
0.000160804 -0.0533796
0.000160804 -0.0533796
-0.000446351 -0.0532017
-0.000446351 -0.0532017
-0.000963358 -0.0530313
-0.000963358 -0.0530313
-0.00145332 -0.0528408
-0.00145332 -0.0528408
-0.00193304 -0.0526149
-0.00193304 -0.0526149
-0.0024084 -0.0523398
-0.0024084 -0.0523398
-0.00288451 -0.0520052
-0.00288451 -0.0520052
-0.00335551 -0.0516092
-0.00335551 -0.0516092
-0.00382166 -0.0511501
-0.00382166 -0.0511501
-0.00427088 -0.0506244
-0.00427088 -0.0506244
-0.00469353 -0.0500311
-0.00469353 -0.0500311
-0.00508549 -0.0493814
-0.00508549 -0.0493814
-0.00545092 -0.0487062
-0.00545092 -0.0487062
-0.00576974 -0.0480609
-0.00576974 -0.0480609
-0.00604006 -0.0474386
-0.00604006 -0.0474386
-0.0062679 -0.0468645
-0.0062679 -0.0468645
-0.00647715 -0.0463528
-0.00647715 -0.0463528
-0.00669168 -0.0459547
-0.00669168 -0.0459547
-0.00687638 -0.0457257
-0.00687638 -0.0457257
-0.00706109 -0.0457055
-0.00706109 -0.0457055
-0.00719427 -0.0460287
-0.00719427 -0.0460287
-0.00711549 -0.0468416
-0.00711549 -0.0468416
-0.006251 -0.0491044
-0.006251 -0.0491044
-0.00436081 -0.0539237
-0.00436081 -0.0539237
-0.00304677 -0.0582993
-0.00304677 -0.0582993
-0.00190441 -0.0618099
-0.00190441 -0.0618099
-0.000723081 -0.0644392
-0.000723081 -0.0644392
0.000463553 -0.0663975
0.000463553 -0.0663975
0.00158791 -0.0679488
0.00158791 -0.0679488
0.00267261 -0.0691273
0.00267261 -0.0691273
0.00369894 -0.0700645
0.00369894 -0.0700645
0.00464684 -0.0708058
0.00464684 -0.0708058
0.00551941 -0.0713508
0.00551941 -0.0713508
0.00632837 -0.0717518
0.00632837 -0.0717518
0.00706782 -0.0720532
0.00706782 -0.0720532
0.00773525 -0.0722529
      </DataArray> 
      <DataArray type="Float64" NumberOfComponents="2" Name="Velocity" format="ascii">
0 0
0 0
0 0
0 0
0 0
0 0
0 0
0 0
0 0
0 0
0 0
0 0
0 0
0 0
0 0
0 0
0 0
0 0
0 0
0 0
0 0
0 0
0 0
0 0
0 0
0 0
0 0
0 0
0 0
0 0
0 0
0 0
0 0
0 0
0 0
0 0
0 0
0 0
0 0
0 0
0 0
0 0
0 0
0 0
0 0
0 0
0 0
0 0
0 0
0 0
0 0
0 0
0 0
0 0
0 0
0 0
0 0
0 0
0 0
0 0
0 0
0 0
0 0
0 0
0 0
0 0
0 0
0 0
0 0
0 0
0 0
0 0
0 0
0 0
0 0
0 0
0 0
0 0
0 0
0 0
0 0
0 0
0 0
0 0
0 0
0 0
0 0
0 0
0 0
0 0
0 0
0 0
0 0
0 0
0 0
0 0
0 0
0 0
0 0
0 0
0 0
0 0
0 0
0 0
0 0
0 0
0 0
0 0
0 0
0 0
0 0
0 0
0 0
0 0
0 0
0 0
0 0
0 0
0 0
0 0
0 0
0 0
0 0
0 0
0 0
0 0
0 0
0 0
0 0
0 0
0 0
0 0
0 0
0 0
0 0
0 0
0 0
0 0
0 0
0 0
0 0
0 0
0 0
0 0
0 0
0 0
0 0
0 0
0 0
0 0
0 0
0 0
0 0
0 0
0 0
0 0
0 0
0 0
0 0
0 0
0 0
0 0
0 0
0 0
0 0
0 0
0 0
0 0
0 0
0 0
0 0
0 0
0 0
0 0
0 0
0 0
0 0
0 0
0 0
0 0
0 0
0 0
0 0
0 0
0 0
0 0
0 0
0 0
0 0
0 0
0 0
0 0
0 0
0 0
0 0
0 0
0 0
0 0
0 0
0 0
0 0
0 0
0 0
0 0
0 0
0 0
0 0
0 0
0 0
0 0
0 0
0 0
0 0
0 0
0 0
0 0
0 0
0 0
0 0
0 0
0 0
0 0
0 0
0 0
0 0
0 0
0 0
0 0
0 0
0 0
0 0
0 0
0 0
0 0
0 0
0 0
0 0
0 0
0 0
0 0
0 0
0 0
0 0
0 0
0 0
0 0
0 0
0 0
0 0
0 0
0 0
0 0
0 0
0 0
0 0
0 0
0 0
0 0
0 0
0 0
0 0
0 0
0 0
0 0
0 0
0 0
0 0
0 0
0 0
0 0
0 0
0 0
0 0
0 0
0 0
0 0
0 0
0 0
0 0
0 0
0 0
0 0
0 0
0 0
0 0
0 0
0 0
0 0
0 0
0 0
0 0
0 0
0 0
0 0
0 0
0 0
0 0
0 0
0 0
0 0
0 0
0 0
0 0
0 0
0 0
0 0
0 0
0 0
0 0
0 0
0 0
0 0
0 0
0 0
0 0
0 0
0 0
0 0
0 0
0 0
0 0
0 0
0 0
0 0
0 0
0 0
0 0
0 0
0 0
0 0
0 0
0 0
0 0
0 0
0 0
0 0
0 0
0 0
0 0
0 0
0 0
0 0
0 0
0 0
0 0
0 0
0 0
0 0
0 0
0 0
0 0
0 0
0 0
0 0
0 0
0 0
0 0
0 0
0 0
0 0
0 0
0 0
0 0
0 0
0 0
0 0
0 0
0 0
0 0
0 0
0 0
0 0
0 0
0 0
0 0
0 0
0 0
0 0
0 0
0 0
0 0
0 0
0 0
0 0
0 0
0 0
0 0
0 0
0 0
0 0
0 0
0 0
0 0
0 0
0 0
0 0
0 0
0 0
0 0
0 0
0 0
0 0
0 0
0 0
0 0
0 0
0 0
0 0
0 0
0 0
0 0
0 0
0 0
0 0
0 0
0 0
0 0
0 0
0 0
0 0
0 0
0 0
0 0
0 0
0 0
0 0
0 0
0 0
0 0
0 0
0 0
0 0
0 0
0 0
0 0
0 0
0 0
0 0
0 0
0 0
0 0
0 0
0 0
0 0
0 0
0 0
0 0
0 0
0 0
0 0
0 0
0 0
0 0
0 0
0 0
0 0
0 0
0 0
0 0
0 0
0 0
0 0
0 0
0 0
0 0
0 0
0 0
0 0
0 0
0 0
0 0
0 0
0 0
0 0
0 0
0 0
0 0
0 0
0 0
0 0
0 0
0 0
0 0
0 0
0 0
0 0
0 0
0 0
0 0
0 0
0 0
0 0
0 0
0 0
0 0
0 0
0 0
0 0
0 0
0 0
0 0
0 0
0 0
0 0
0 0
0 0
0 0
0 0
0 0
0 0
0 0
0 0
0 0
0 0
0 0
0 0
0 0
0 0
0 0
0 0
0 0
0 0
0 0
0 0
0 0
0 0
0 0
0 0
0 0
0 0
0 0
0 0
0 0
0 0
0 0
0 0
0 0
0 0
0 0
0 0
0 0
0 0
0 0
0 0
0 0
0 0
0 0
0 0
0 0
0 0
0 0
0 0
0 0
0 0
0 0
0 0
0 0
0 0
0 0
0 0
0 0
0 0
0 0
0 0
0 0
0 0
0 0
0 0
0 0
0 0
0 0
0 0
0 0
0 0
0 0
0 0
0 0
0 0
0 0
0 0
0 0
0 0
0 0
0 0
0 0
0 0
0 0
0 0
0 0
0 0
0 0
0 0
0 0
0 0
0 0
0 0
0 0
0 0
0 0
0 0
0 0
0 0
0 0
0 0
0 0
0 0
0 0
0 0
0 0
0 0
0 0
0 0
0 0
0 0
0 0
0 0
0 0
0 0
0 0
0 0
0 0
0 0
0 0
0 0
0 0
0 0
0 0
0 0
0 0
0 0
0 0
0 0
0 0
0 0
0 0
0 0
0 0
0 0
0 0
0 0
0 0
0 0
0 0
0 0
0 0
0 0
0 0
0 0
0 0
0 0
0 0
0 0
0 0
0 0
0 0
0 0
0 0
0 0
0 0
0 0
0 0
0 0
0 0
0 0
0 0
0 0
0 0
0 0
0 0
0 0
0 0
0 0
0 0
0 0
0 0
0 0
0 0
0 0
0 0
0 0
0 0
0 0
0 0
0 0
0 0
0 0
0 0
0 0
0 0
0 0
0 0
0 0
0 0
0 0
0 0
0 0
0 0
0 0
0 0
0 0
0 0
0 0
0 0
0 0
0 0
0 0
0 0
0 0
0 0
0 0
0 0
0 0
0 0
0 0
0 0
0 0
0 0
0 0
0 0
0 0
0 0
0 0
0 0
0 0
0 0
0 0
0 0
0 0
0 0
0 0
0 0
0 0
0 0
0 0
0 0
0 0
0 0
0 0
0 0
0 0
0 0
0 0
0 0
0 0
0 0
0 0
0 0
0 0
0 0
0 0
0 0
0 0
0 0
0 0
0 0
0 0
0 0
0 0
0 0
0 0
0 0
0 0
0 0
0 0
0 0
0 0
0 0
0 0
0 0
0 0
0 0
0 0
0 0
0 0
0 0
0 0
0 0
0 0
0 0
0 0
0 0
0 0
0 0
0 0
0 0
0 0
0 0
0 0
0 0
0 0
0 0
0 0
0 0
0 0
0 0
0 0
0 0
0 0
0 0
0 0
0 0
0 0
0 0
0 0
0 0
0 0
0 0
0 0
0 0
0 0
0 0
0 0
0 0
0 0
0 0
0 0
0 0
0 0
0 0
0 0
0 0
0 0
0 0
0 0
0 0
0 0
0 0
0 0
0 0
0 0
0 0
0 0
0 0
0 0
0 0
0 0
0 0
0 0
0 0
0 0
0 0
0 0
0 0
0 0
0 0
0 0
0 0
0 0
0 0
0 0
0 0
0 0
0 0
0 0
0 0
0 0
0 0
0 0
0 0
0 0
0 0
0 0
0 0
0 0
0 0
0 0
0 0
0 0
0 0
0 0
0 0
0 0
0 0
0 0
0 0
0 0
0 0
0 0
0 0
0 0
0 0
0 0
0 0
0 0
0 0
0 0
0 0
0 0
0 0
0 0
0 0
0 0
0 0
0 0
0 0
0 0
0 0
0 0
0 0
0 0
0 0
0 0
0 0
0 0
0 0
0 0
0 0
0 0
0 0
0 0
0 0
0 0
0 0
0 0
0 0
0 0
0 0
0 0
0 0
0 0
0 0
0 0
0 0
0 0
0 0
0 0
0 0
0 0
0 0
0 0
0 0
0 0
0 0
0 0
0 0
0 0
0 0
0 0
0 0
0 0
0 0
0 0
0 0
0 0
0 0
0 0
0 0
0 0
0 0
0 0
0 0
0 0
0 0
0 0
0 0
0 0
0 0
0 0
0 0
0 0
0 0
0 0
0 0
0 0
0 0
0 0
0 0
0 0
0 0
0 0
0 0
0 0
0 0
0 0
0 0
0 0
0 0
0 0
0 0
0 0
0 0
0 0
0 0
0 0
0 0
0 0
0 0
0 0
0 0
0 0
0 0
0 0
0 0
0 0
0 0
0 0
0 0
0 0
0 0
0 0
0 0
0 0
0 0
0 0
0 0
0 0
0 0
0 0
0 0
0 0
0 0
0 0
0 0
0 0
0 0
0 0
0 0
0 0
0 0
0 0
0 0
0 0
0 0
0 0
0 0
0 0
0 0
0 0
0 0
0 0
0 0
0 0
0 0
0 0
0 0
0 0
0 0
0 0
0 0
0 0
0 0
0 0
0 0
0 0
0 0
0 0
0 0
0 0
0 0
0 0
0 0
0 0
0 0
0 0
0 0
0 0
0 0
0 0
0 0
0 0
0 0
0 0
0 0
0 0
0 0
0 0
0 0
0 0
0 0
0 0
0 0
0 0
0 0
0 0
0 0
0 0
0 0
0 0
0 0
0 0
0 0
0 0
0 0
0 0
0 0
0 0
0 0
0 0
0 0
0 0
0 0
0 0
0 0
0 0
0 0
0 0
0 0
0 0
0 0
0 0
0 0
0 0
0 0
0 0
0 0
0 0
0 0
0 0
0 0
0 0
0 0
0 0
0 0
0 0
0 0
0 0
0 0
0 0
0 0
0 0
0 0
0 0
0 0
0 0
0 0
0 0
0 0
0 0
0 0
0 0
0 0
0 0
0 0
0 0
0 0
0 0
0 0
0 0
0 0
0 0
0 0
0 0
0 0
0 0
0 0
0 0
0 0
0 0
0 0
0 0
0 0
0 0
0 0
0 0
0 0
0 0
0 0
0 0
0 0
0 0
0 0
0 0
0 0
0 0
0 0
0 0
0 0
0 0
0 0
0 0
0 0
0 0
0 0
0 0
0 0
0 0
0 0
0 0
0 0
0 0
0 0
0 0
0 0
0 0
0 0
0 0
0 0
0 0
0 0
0 0
0 0
0 0
0 0
0 0
0 0
0 0
0 0
0 0
0 0
0 0
0 0
0 0
0 0
0 0
0 0
0 0
0 0
0 0
0 0
0 0
0 0
0 0
0 0
0 0
0 0
0 0
0 0
0 0
0 0
0 0
0 0
0 0
0 0
0 0
0 0
0 0
0 0
0 0
0 0
0 0
0 0
0 0
0 0
0 0
0 0
0 0
0 0
0 0
0 0
0 0
0 0
0 0
0 0
0 0
0 0
0 0
0 0
0 0
0 0
0 0
0 0
0 0
0 0
0 0
0 0
0 0
0 0
0 0
0 0
0 0
0 0
0 0
0 0
0 0
0 0
0 0
0 0
0 0
0 0
0 0
0 0
0 0
0 0
0 0
0 0
0 0
0 0
0 0
0 0
0 0
0 0
0 0
0 0
0 0
0 0
0 0
0 0
0 0
0 0
0 0
0 0
0 0
0 0
0 0
0 0
0 0
0 0
0 0
0 0
0 0
0 0
0 0
0 0
0 0
0 0
0 0
0 0
0 0
0 0
0 0
0 0
0 0
0 0
0 0
0 0
0 0
0 0
0 0
0 0
0 0
0 0
0 0
0 0
0 0
0 0
0 0
0 0
0 0
0 0
0 0
0 0
0 0
0 0
0 0
0 0
0 0
0 0
0 0
0 0
0 0
0 0
0 0
0 0
0 0
0 0
0 0
0 0
0 0
0 0
0 0
0 0
0 0
0 0
0 0
0 0
0 0
0 0
0 0
0 0
0 0
0 0
0 0
0 0
0 0
0 0
0 0
0 0
0 0
0 0
0 0
0 0
0 0
0 0
0 0
0 0
0 0
0 0
0 0
0 0
0 0
0 0
0 0
0 0
0 0
0 0
0 0
0 0
0 0
0 0
0 0
0 0
0 0
0 0
0 0
0 0
0 0
0 0
0 0
0 0
0 0
0 0
0 0
0 0
0 0
0 0
0 0
0 0
0 0
0 0
0 0
0 0
0 0
0 0
0 0
0 0
0 0
0 0
0 0
0 0
0 0
0 0
0 0
0 0
0 0
0 0
0 0
0 0
0 0
0 0
0 0
0 0
0 0
0 0
0 0
0 0
0 0
0 0
0 0
0 0
0 0
0 0
0 0
0 0
0 0
0 0
0 0
0 0
0 0
0 0
0 0
0 0
0 0
0 0
0 0
0 0
0 0
0 0
0 0
0 0
0 0
0 0
0 0
0 0
0 0
0 0
0 0
0 0
0 0
0 0
0 0
0 0
0 0
0 0
0 0
0 0
0 0
0 0
0 0
0 0
0 0
0 0
0 0
0 0
0 0
0 0
0 0
0 0
0 0
0 0
0 0
0 0
0 0
0 0
0 0
0 0
0 0
0 0
0 0
0 0
0 0
0 0
0 0
0 0
0 0
0 0
0 0
0 0
0 0
0 0
0 0
0 0
0 0
0 0
0 0
0 0
0 0
0 0
0 0
0 0
0 0
0 0
0 0
0 0
0 0
0 0
0 0
0 0
0 0
0 0
0 0
0 0
0 0
0 0
0 0
0 0
0 0
0 0
0 0
0 0
0 0
0 0
0 0
0 0
0 0
0 0
0 0
0 0
0 0
0 0
0 0
0 0
0 0
0 0
0 0
0 0
0 0
0 0
0 0
0 0
0 0
0 0
0 0
0 0
0 0
0 0
0 0
0 0
0 0
0 0
0 0
0 0
0 0
0 0
0 0
0 0
0 0
0 0
0 0
0 0
0 0
0 0
0 0
0 0
0 0
0 0
0 0
0 0
0 0
0 0
0 0
0 0
0 0
0 0
0 0
0 0
0 0
0 0
0 0
0 0
0 0
0 0
0 0
0 0
0 0
0 0
0 0
0 0
0 0
0 0
0 0
0 0
0 0
0 0
0 0
0 0
0 0
0 0
0 0
0 0
0 0
0 0
0 0
0 0
0 0
0 0
0 0
0 0
0 0
0 0
0 0
0 0
0 0
0 0
0 0
0 0
0 0
0 0
0 0
0 0
0 0
0 0
0 0
0 0
0 0
0 0
0 0
0 0
0 0
0 0
0 0
0 0
0 0
0 0
0 0
0 0
0 0
0 0
0 0
0 0
0 0
0 0
0 0
0 0
0 0
0 0
0 0
0 0
0 0
0 0
0 0
0 0
0 0
0 0
0 0
0 0
0 0
0 0
0 0
0 0
0 0
0 0
0 0
0 0
0 0
0 0
0 0
0 0
0 0
0 0
0 0
0 0
0 0
0 0
0 0
0 0
0 0
0 0
0 0
0 0
0 0
0 0
0 0
0 0
0 0
0 0
0 0
0 0
0 0
0 0
0 0
0 0
0 0
0 0
0 0
0 0
0 0
0 0
0 0
0 0
0 0
0 0
0 0
0 0
0 0
0 0
0 0
0 0
0 0
0 0
0 0
0 0
0 0
0 0
0 0
0 0
0 0
0 0
0 0
0 0
0 0
0 0
0 0
0 0
0 0
0 0
0 0
0 0
0 0
0 0
0 0
0 0
0 0
0 0
0 0
0 0
0 0
0 0
0 0
0 0
0 0
0 0
0 0
0 0
0 0
0 0
0 0
0 0
0 0
0 0
0 0
0 0
0 0
0 0
0 0
0 0
0 0
0 0
0 0
0 0
0 0
0 0
0 0
0 0
0 0
0 0
0 0
0 0
0 0
0 0
0 0
0 0
0 0
0 0
0 0
0 0
0 0
0 0
0 0
0 0
0 0
0 0
0 0
0 0
0 0
0 0
0 0
0 0
0 0
0 0
0 0
0 0
0 0
0 0
0 0
0 0
0 0
0 0
0 0
0 0
0 0
0 0
0 0
0 0
0 0
0 0
0 0
0 0
0 0
0 0
0 0
0 0
0 0
0 0
0 0
0 0
0 0
0 0
0 0
0 0
0 0
0 0
0 0
0 0
0 0
0 0
0 0
0 0
0 0
0 0
0 0
0 0
0 0
0 0
0 0
0 0
0 0
0 0
0 0
0 0
0 0
0 0
0 0
0 0
0 0
0 0
0 0
0 0
0 0
0 0
0 0
0 0
0 0
0 0
0 0
0 0
0 0
0 0
0 0
0 0
0 0
0 0
0 0
0 0
0 0
0 0
0 0
0 0
0 0
0 0
0 0
0 0
0 0
0 0
0 0
0 0
0 0
0 0
0 0
0 0
0 0
0 0
0 0
0 0
0 0
0 0
0 0
0 0
0 0
0 0
0 0
0 0
0 0
0 0
0 0
0 0
0 0
0 0
0 0
0 0
0 0
0 0
0 0
0 0
0 0
0 0
0 0
0 0
0 0
0 0
0 0
0 0
0 0
0 0
0 0
0 0
0 0
0 0
0 0
0 0
0 0
0 0
0 0
0 0
0 0
0 0
0 0
0 0
0 0
0 0
0 0
0 0
0 0
0 0
0 0
0 0
0 0
0 0
0 0
0 0
0 0
0 0
0 0
0 0
0 0
0 0
0 0
0 0
0 0
0 0
0 0
0 0
0 0
0 0
0 0
0 0
0 0
0 0
0 0
0 0
0 0
0 0
0 0
0 0
0 0
0 0
0 0
0 0
0 0
0 0
0 0
0 0
0 0
0 0
0 0
0 0
0 0
0 0
0 0
0 0
0 0
0 0
0 0
0 0
0 0
0 0
0 0
0 0
0 0
0 0
0 0
0 0
0 0
0 0
0 0
0 0
0 0
0 0
0 0
0 0
0 0
0 0
0 0
0 0
0 0
0 0
0 0
0 0
0 0
0 0
0 0
0 0
0 0
0 0
0 0
0 0
0 0
0 0
0 0
0 0
0 0
0 0
0 0
0 0
0 0
0 0
0 0
0 0
0 0
0 0
0 0
0 0
0 0
0 0
0 0
0 0
0 0
0 0
0 0
0 0
0 0
0 0
0 0
0 0
0 0
0 0
0 0
0 0
0 0
0 0
0 0
0 0
0 0
0 0
0 0
0 0
0 0
0 0
0 0
0 0
0 0
0 0
0 0
0 0
0 0
0 0
0 0
0 0
0 0
0 0
0 0
0 0
0 0
0 0
0 0
0 0
0 0
0 0
0 0
0 0
0 0
0 0
0 0
0 0
0 0
0 0
0 0
0 0
0 0
0 0
0 0
0 0
0 0
0 0
0 0
0 0
0 0
0 0
0 0
0 0
0 0
0 0
0 0
0 0
0 0
0 0
0 0
0 0
0 0
0 0
0 0
0 0
0 0
0 0
0 0
0 0
0 0
0 0
0 0
0 0
0 0
0 0
0 0
0 0
0 0
0 0
0 0
0 0
0 0
0 0
0 0
0 0
0 0
0 0
0 0
0 0
0 0
0 0
0 0
0 0
0 0
0 0
0 0
0 0
0 0
0 0
0 0
0 0
0 0
0 0
0 0
0 0
0 0
0 0
0 0
0 0
0 0
0 0
0 0
0 0
0 0
0 0
0 0
0 0
0 0
0 0
0 0
0 0
0 0
0 0
0 0
0 0
0 0
0 0
0 0
0 0
0 0
0 0
0 0
0 0
0 0
0 0
0 0
0 0
0 0
0 0
0 0
0 0
0 0
0 0
0 0
0 0
0 0
0 0
0 0
0 0
0 0
0 0
0 0
0 0
0 0
0 0
0 0
0 0
0 0
0 0
0 0
0 0
0 0
0 0
0 0
0 0
0 0
0 0
0 0
0 0
0 0
0 0
0 0
0 0
0 0
0 0
0 0
0 0
0 0
0 0
0 0
0 0
0 0
0 0
0 0
0 0
0 0
0 0
0 0
0 0
0 0
0 0
0 0
0 0
0 0
0 0
0 0
0 0
0 0
0 0
0 0
0 0
0 0
0 0
0 0
0 0
0 0
0 0
0 0
0 0
0 0
0 0
0 0
0 0
0 0
0 0
0 0
0 0
0 0
0 0
0 0
0 0
0 0
0 0
0 0
0 0
0 0
0 0
0 0
0 0
0 0
0 0
0 0
0 0
0 0
0 0
0 0
0 0
0 0
0 0
0 0
0 0
0 0
0 0
0 0
0 0
0 0
0 0
0 0
0 0
0 0
0 0
0 0
0 0
0 0
0 0
0 0
0 0
0 0
0 0
0 0
0 0
0 0
0 0
0 0
0 0
0 0
0 0
0 0
0 0
0 0
0 0
0 0
0 0
0 0
0 0
0 0
0 0
0 0
0 0
0 0
0 0
0 0
0 0
0 0
0 0
0 0
0 0
0 0
0 0
0 0
0 0
0 0
0 0
0 0
0 0
0 0
0 0
0 0
0 0
0 0
0 0
0 0
0 0
0 0
0 0
0 0
0 0
0 0
0 0
0 0
0 0
0 0
0 0
0 0
0 0
0 0
0 0
0 0
0 0
0 0
0 0
0 0
0 0
0 0
0 0
0 0
0 0
0 0
0 0
0 0
0 0
0 0
0 0
0 0
0 0
0 0
0 0
0 0
0 0
0 0
0 0
0 0
0 0
0 0
0 0
0 0
0 0
0 0
0 0
0 0
0 0
0 0
0 0
0 0
0 0
0 0
0 0
0 0
0 0
0 0
0 0
0 0
0 0
0 0
0 0
0 0
0 0
0 0
0 0
0 0
0 0
0 0
0 0
0 0
0 0
0 0
0 0
0 0
0 0
0 0
0 0
0 0
0 0
0 0
0 0
0 0
0 0
0 0
0 0
0 0
0 0
0 0
0 0
0 0
0 0
0 0
0 0
0 0
0 0
0 0
0 0
0 0
0 0
0 0
0 0
0 0
0 0
0 0
0 0
0 0
0 0
0 0
0 0
0 0
0 0
0 0
0 0
0 0
0 0
0 0
0 0
0 0
0 0
0 0
0 0
0 0
0 0
0 0
0 0
0 0
0 0
0 0
0 0
0 0
0 0
0 0
0 0
0 0
0 0
0 0
0 0
0 0
0 0
0 0
0 0
0 0
0 0
0 0
0 0
0 0
0 0
0 0
0 0
0 0
0 0
0 0
0 0
0 0
0 0
0 0
0 0
0 0
0 0
0 0
0 0
0 0
0 0
0 0
0 0
0 0
0 0
0 0
0 0
0 0
0 0
0 0
0 0
0 0
0 0
0 0
0 0
0 0
0 0
0 0
0 0
0 0
0 0
0 0
0 0
0 0
0 0
0 0
0 0
0 0
0 0
0 0
0 0
0 0
0 0
0 0
0 0
0 0
0 0
0 0
0 0
0 0
0 0
0 0
0 0
0 0
0 0
0 0
0 0
0 0
0 0
0 0
0 0
0 0
0 0
0 0
0 0
0 0
0 0
0 0
0 0
0 0
0 0
0 0
0 0
0 0
0 0
0 0
0 0
0 0
0 0
0 0
0 0
0 0
0 0
0 0
0 0
0 0
0 0
0 0
0 0
0 0
0 0
0 0
0 0
0 0
0 0
0 0
0 0
0 0
0 0
0 0
0 0
0 0
0 0
0 0
0 0
0 0
0 0
0 0
0 0
0 0
0 0
0 0
0 0
0 0
0 0
0 0
0 0
0 0
0 0
0 0
0 0
0 0
0 0
0 0
0 0
0 0
0 0
0 0
0 0
0 0
0 0
0 0
0 0
0 0
0 0
0 0
0 0
0 0
0 0
0 0
0 0
0 0
0 0
0 0
0 0
0 0
0 0
0 0
0 0
0 0
0 0
0 0
0 0
0 0
0 0
0 0
0 0
0 0
0 0
0 0
0 0
0 0
0 0
0 0
0 0
0 0
0 0
0 0
0 0
0 0
0 0
0 0
0 0
0 0
0 0
0 0
0 0
0 0
0 0
0 0
0 0
0 0
0 0
0 0
0 0
0 0
0 0
0 0
0 0
0 0
0 0
0 0
0 0
0 0
0 0
0 0
0 0
0 0
0 0
0 0
0 0
0 0
0 0
0 0
0 0
0 0
0 0
0 0
0 0
0 0
0 0
0 0
0 0
0 0
0 0
0 0
0 0
0 0
0 0
0 0
0 0
0 0
0 0
0 0
0 0
0 0
0 0
0 0
0 0
0 0
0 0
0 0
0 0
0 0
0 0
0 0
0 0
0 0
0 0
0 0
0 0
0 0
0 0
0 0
0 0
0 0
0 0
0 0
0 0
0 0
0 0
0 0
0 0
0 0
0 0
0 0
0 0
0 0
0 0
0 0
0 0
0 0
0 0
0 0
0 0
0 0
0 0
0 0
0 0
0 0
0 0
0 0
0 0
0 0
0 0
0 0
0 0
0 0
0 0
0 0
0 0
0 0
0 0
0 0
0 0
0 0
0 0
0 0
0 0
0 0
0 0
0 0
0 0
0 0
0 0
0 0
0 0
0 0
0 0
0 0
0 0
0 0
0 0
0 0
0 0
0 0
0 0
0 0
0 0
0 0
0 0
0 0
0 0
0 0
0 0
0 0
0 0
0 0
0 0
0 0
0 0
0 0
0 0
0 0
0 0
0 0
0 0
0 0
0 0
0 0
0 0
0 0
0 0
0 0
0 0
0 0
0 0
0 0
0 0
0 0
0 0
0 0
0 0
0 0
0 0
0 0
0 0
0 0
0 0
0 0
0 0
0 0
0 0
0 0
0 0
0 0
0 0
0 0
0 0
0 0
0 0
0 0
0 0
0 0
0 0
0 0
0 0
0 0
0 0
0 0
0 0
0 0
0 0
0 0
0 0
0 0
0 0
0 0
0 0
0 0
0 0
0 0
0 0
0 0
0 0
0 0
0 0
0 0
0 0
0 0
0 0
0 0
0 0
0 0
0 0
0 0
0 0
0 0
0 0
0 0
0 0
0 0
0 0
0 0
0 0
0 0
0 0
0 0
0 0
0 0
0 0
0 0
0 0
0 0
0 0
0 0
0 0
0 0
0 0
0 0
0 0
0 0
0 0
0 0
0 0
0 0
0 0
0 0
0 0
0 0
0 0
0 0
0 0
0 0
0 0
0 0
0 0
0 0
0 0
0 0
0 0
0 0
0 0
0 0
0 0
0 0
0 0
0 0
0 0
0 0
0 0
0 0
0 0
0 0
0 0
0 0
0 0
0 0
0 0
0 0
0 0
0 0
0 0
0 0
0 0
0 0
0 0
0 0
0 0
0 0
0 0
0 0
0 0
0 0
0 0
0 0
0 0
0 0
0 0
0 0
0 0
0 0
0 0
0 0
0 0
0 0
0 0
0 0
0 0
0 0
0 0
0 0
0 0
0 0
0 0
0 0
0 0
0 0
0 0
0 0
0 0
0 0
0 0
0 0
0 0
0 0
0 0
0 0
0 0
0 0
0 0
0 0
0 0
0 0
0 0
0 0
0 0
0 0
0 0
0 0
0 0
0 0
0 0
0 0
0 0
0 0
0 0
0 0
0 0
0 0
0 0
0 0
0 0
0 0
0 0
0 0
0 0
0 0
0 0
0 0
0 0
0 0
0 0
0 0
0 0
0 0
0 0
0 0
0 0
0 0
0 0
0 0
0 0
0 0
0 0
0 0
0 0
0 0
0 0
0 0
0 0
0 0
0 0
0 0
0 0
0 0
0 0
0 0
0 0
0 0
0 0
0 0
0 0
0 0
0 0
0 0
0 0
0 0
0 0
0 0
0 0
0 0
0 0
0 0
0 0
0 0
0 0
0 0
0 0
0 0
0 0
0 0
0 0
0 0
0 0
0 0
0 0
0 0
0 0
0 0
0 0
0 0
0 0
0 0
0 0
0 0
0 0
0 0
0 0
0 0
0 0
0 0
0 0
0 0
0 0
0 0
0 0
0 0
0 0
0 0
0 0
0 0
0 0
0 0
0 0
0 0
0 0
0 0
0 0
0 0
0 0
0 0
0 0
0 0
0 0
0 0
0 0
0 0
0 0
0 0
0 0
0 0
0 0
0 0
0 0
0 0
0 0
0 0
0 0
0 0
0 0
0 0
0 0
0 0
0 0
0 0
0 0
0 0
0 0
0 0
0 0
0 0
0 0
0 0
0 0
0 0
0 0
0 0
0 0
0 0
0 0
0 0
0 0
0 0
0 0
0 0
0 0
0 0
0 0
0 0
0 0
0 0
0 0
0 0
0 0
0 0
0 0
0 0
0 0
0 0
0 0
0 0
0 0
0 0
0 0
0 0
0 0
0 0
0 0
0 0
0 0
0 0
0 0
0 0
0 0
0 0
0 0
0 0
0 0
0 0
0 0
0 0
0 0
0 0
0 0
0 0
0 0
0 0
0 0
0 0
0 0
0 0
0 0
0 0
0 0
0 0
0 0
0 0
0 0
0 0
0 0
0 0
0 0
0 0
0 0
0 0
0 0
0 0
0 0
0 0
0 0
0 0
0 0
0 0
0 0
0 0
0 0
0 0
0 0
0 0
0 0
0 0
0 0
0 0
0 0
0 0
0 0
0 0
0 0
0 0
0 0
0 0
0 0
0 0
0 0
0 0
0 0
0 0
0 0
0 0
0 0
0 0
0 0
0 0
0 0
0 0
0 0
0 0
0 0
0 0
0 0
0 0
0 0
0 0
0 0
0 0
0 0
0 0
0 0
0 0
0 0
0 0
0 0
0 0
0 0
0 0
0 0
0 0
0 0
0 0
0 0
0 0
0 0
0 0
0 0
0 0
0 0
0 0
0 0
0 0
0 0
0 0
0 0
0 0
0 0
0 0
0 0
0 0
0 0
0 0
0 0
0 0
0 0
0 0
0 0
0 0
0 0
0 0
0 0
0 0
0 0
0 0
0 0
0 0
0 0
0 0
0 0
0 0
0 0
0 0
0 0
0 0
0 0
0 0
0 0
0 0
0 0
0 0
0 0
0 0
0 0
0 0
0 0
0 0
0 0
0 0
0 0
0 0
0 0
0 0
0 0
0 0
0 0
0 0
0 0
0 0
0 0
0 0
0 0
0 0
0 0
0 0
0 0
0 0
0 0
0 0
0 0
0 0
0 0
0 0
0 0
0 0
0 0
0 0
0 0
0 0
0 0
0 0
0 0
0 0
0 0
0 0
0 0
0 0
0 0
0 0
0 0
0 0
0 0
0 0
0 0
0 0
0 0
0 0
0 0
0 0
0 0
0 0
0 0
0 0
0 0
0 0
0 0
0 0
0 0
0 0
0 0
0 0
0 0
0 0
0 0
0 0
0 0
0 0
0 0
0 0
0 0
0 0
0 0
0 0
0 0
0 0
0 0
0 0
0 0
0 0
0 0
0 0
0 0
0 0
0 0
0 0
0 0
0 0
0 0
0 0
0 0
0 0
0 0
0 0
0 0
0 0
0 0
0 0
0 0
0 0
0 0
0 0
0 0
0 0
0 0
0 0
0 0
0 0
0 0
      </DataArray> 
      <DataArray type="Float64" NumberOfComponents="2" Name="Acceleration" format="ascii">
0 0
0 0
0 0
0 0
0 0
0 0
0 0
0 0
0 0
0 0
0 0
0 0
0 0
0 0
0 0
0 0
0 0
0 0
0 0
0 0
0 0
0 0
0 0
0 0
0 0
0 0
0 0
0 0
0 0
0 0
0 0
0 0
0 0
0 0
0 0
0 0
0 0
0 0
0 0
0 0
0 0
0 0
0 0
0 0
0 0
0 0
0 0
0 0
0 0
0 0
0 0
0 0
0 0
0 0
0 0
0 0
0 0
0 0
0 0
0 0
0 0
0 0
0 0
0 0
0 0
0 0
0 0
0 0
0 0
0 0
0 0
0 0
0 0
0 0
0 0
0 0
0 0
0 0
0 0
0 0
0 0
0 0
0 0
0 0
0 0
0 0
0 0
0 0
0 0
0 0
0 0
0 0
0 0
0 0
0 0
0 0
0 0
0 0
0 0
0 0
0 0
0 0
0 0
0 0
0 0
0 0
0 0
0 0
0 0
0 0
0 0
0 0
0 0
0 0
0 0
0 0
0 0
0 0
0 0
0 0
0 0
0 0
0 0
0 0
0 0
0 0
0 0
0 0
0 0
0 0
0 0
0 0
0 0
0 0
0 0
0 0
0 0
0 0
0 0
0 0
0 0
0 0
0 0
0 0
0 0
0 0
0 0
0 0
0 0
0 0
0 0
0 0
0 0
0 0
0 0
0 0
0 0
0 0
0 0
0 0
0 0
0 0
0 0
0 0
0 0
0 0
0 0
0 0
0 0
0 0
0 0
0 0
0 0
0 0
0 0
0 0
0 0
0 0
0 0
0 0
0 0
0 0
0 0
0 0
0 0
0 0
0 0
0 0
0 0
0 0
0 0
0 0
0 0
0 0
0 0
0 0
0 0
0 0
0 0
0 0
0 0
0 0
0 0
0 0
0 0
0 0
0 0
0 0
0 0
0 0
0 0
0 0
0 0
0 0
0 0
0 0
0 0
0 0
0 0
0 0
0 0
0 0
0 0
0 0
0 0
0 0
0 0
0 0
0 0
0 0
0 0
0 0
0 0
0 0
0 0
0 0
0 0
0 0
0 0
0 0
0 0
0 0
0 0
0 0
0 0
0 0
0 0
0 0
0 0
0 0
0 0
0 0
0 0
0 0
0 0
0 0
0 0
0 0
0 0
0 0
0 0
0 0
0 0
0 0
0 0
0 0
0 0
0 0
0 0
0 0
0 0
0 0
0 0
0 0
0 0
0 0
0 0
0 0
0 0
0 0
0 0
0 0
0 0
0 0
0 0
0 0
0 0
0 0
0 0
0 0
0 0
0 0
0 0
0 0
0 0
0 0
0 0
0 0
0 0
0 0
0 0
0 0
0 0
0 0
0 0
0 0
0 0
0 0
0 0
0 0
0 0
0 0
0 0
0 0
0 0
0 0
0 0
0 0
0 0
0 0
0 0
0 0
0 0
0 0
0 0
0 0
0 0
0 0
0 0
0 0
0 0
0 0
0 0
0 0
0 0
0 0
0 0
0 0
0 0
0 0
0 0
0 0
0 0
0 0
0 0
0 0
0 0
0 0
0 0
0 0
0 0
0 0
0 0
0 0
0 0
0 0
0 0
0 0
0 0
0 0
0 0
0 0
0 0
0 0
0 0
0 0
0 0
0 0
0 0
0 0
0 0
0 0
0 0
0 0
0 0
0 0
0 0
0 0
0 0
0 0
0 0
0 0
0 0
0 0
0 0
0 0
0 0
0 0
0 0
0 0
0 0
0 0
0 0
0 0
0 0
0 0
0 0
0 0
0 0
0 0
0 0
0 0
0 0
0 0
0 0
0 0
0 0
0 0
0 0
0 0
0 0
0 0
0 0
0 0
0 0
0 0
0 0
0 0
0 0
0 0
0 0
0 0
0 0
0 0
0 0
0 0
0 0
0 0
0 0
0 0
0 0
0 0
0 0
0 0
0 0
0 0
0 0
0 0
0 0
0 0
0 0
0 0
0 0
0 0
0 0
0 0
0 0
0 0
0 0
0 0
0 0
0 0
0 0
0 0
0 0
0 0
0 0
0 0
0 0
0 0
0 0
0 0
0 0
0 0
0 0
0 0
0 0
0 0
0 0
0 0
0 0
0 0
0 0
0 0
0 0
0 0
0 0
0 0
0 0
0 0
0 0
0 0
0 0
0 0
0 0
0 0
0 0
0 0
0 0
0 0
0 0
0 0
0 0
0 0
0 0
0 0
0 0
0 0
0 0
0 0
0 0
0 0
0 0
0 0
0 0
0 0
0 0
0 0
0 0
0 0
0 0
0 0
0 0
0 0
0 0
0 0
0 0
0 0
0 0
0 0
0 0
0 0
0 0
0 0
0 0
0 0
0 0
0 0
0 0
0 0
0 0
0 0
0 0
0 0
0 0
0 0
0 0
0 0
0 0
0 0
0 0
0 0
0 0
0 0
0 0
0 0
0 0
0 0
0 0
0 0
0 0
0 0
0 0
0 0
0 0
0 0
0 0
0 0
0 0
0 0
0 0
0 0
0 0
0 0
0 0
0 0
0 0
0 0
0 0
0 0
0 0
0 0
0 0
0 0
0 0
0 0
0 0
0 0
0 0
0 0
0 0
0 0
0 0
0 0
0 0
0 0
0 0
0 0
0 0
0 0
0 0
0 0
0 0
0 0
0 0
0 0
0 0
0 0
0 0
0 0
0 0
0 0
0 0
0 0
0 0
0 0
0 0
0 0
0 0
0 0
0 0
0 0
0 0
0 0
0 0
0 0
0 0
0 0
0 0
0 0
0 0
0 0
0 0
0 0
0 0
0 0
0 0
0 0
0 0
0 0
0 0
0 0
0 0
0 0
0 0
0 0
0 0
0 0
0 0
0 0
0 0
0 0
0 0
0 0
0 0
0 0
0 0
0 0
0 0
0 0
0 0
0 0
0 0
0 0
0 0
0 0
0 0
0 0
0 0
0 0
0 0
0 0
0 0
0 0
0 0
0 0
0 0
0 0
0 0
0 0
0 0
0 0
0 0
0 0
0 0
0 0
0 0
0 0
0 0
0 0
0 0
0 0
0 0
0 0
0 0
0 0
0 0
0 0
0 0
0 0
0 0
0 0
0 0
0 0
0 0
0 0
0 0
0 0
0 0
0 0
0 0
0 0
0 0
0 0
0 0
0 0
0 0
0 0
0 0
0 0
0 0
0 0
0 0
0 0
0 0
0 0
0 0
0 0
0 0
0 0
0 0
0 0
0 0
0 0
0 0
0 0
0 0
0 0
0 0
0 0
0 0
0 0
0 0
0 0
0 0
0 0
0 0
0 0
0 0
0 0
0 0
0 0
0 0
0 0
0 0
0 0
0 0
0 0
0 0
0 0
0 0
0 0
0 0
0 0
0 0
0 0
0 0
0 0
0 0
0 0
0 0
0 0
0 0
0 0
0 0
0 0
0 0
0 0
0 0
0 0
0 0
0 0
0 0
0 0
0 0
0 0
0 0
0 0
0 0
0 0
0 0
0 0
0 0
0 0
0 0
0 0
0 0
0 0
0 0
0 0
0 0
0 0
0 0
0 0
0 0
0 0
0 0
0 0
0 0
0 0
0 0
0 0
0 0
0 0
0 0
0 0
0 0
0 0
0 0
0 0
0 0
0 0
0 0
0 0
0 0
0 0
0 0
0 0
0 0
0 0
0 0
0 0
0 0
0 0
0 0
0 0
0 0
0 0
0 0
0 0
0 0
0 0
0 0
0 0
0 0
0 0
0 0
0 0
0 0
0 0
0 0
0 0
0 0
0 0
0 0
0 0
0 0
0 0
0 0
0 0
0 0
0 0
0 0
0 0
0 0
0 0
0 0
0 0
0 0
0 0
0 0
0 0
0 0
0 0
0 0
0 0
0 0
0 0
0 0
0 0
0 0
0 0
0 0
0 0
0 0
0 0
0 0
0 0
0 0
0 0
0 0
0 0
0 0
0 0
0 0
0 0
0 0
0 0
0 0
0 0
0 0
0 0
0 0
0 0
0 0
0 0
0 0
0 0
0 0
0 0
0 0
0 0
0 0
0 0
0 0
0 0
0 0
0 0
0 0
0 0
0 0
0 0
0 0
0 0
0 0
0 0
0 0
0 0
0 0
0 0
0 0
0 0
0 0
0 0
0 0
0 0
0 0
0 0
0 0
0 0
0 0
0 0
0 0
0 0
0 0
0 0
0 0
0 0
0 0
0 0
0 0
0 0
0 0
0 0
0 0
0 0
0 0
0 0
0 0
0 0
0 0
0 0
0 0
0 0
0 0
0 0
0 0
0 0
0 0
0 0
0 0
0 0
0 0
0 0
0 0
0 0
0 0
0 0
0 0
0 0
0 0
0 0
0 0
0 0
0 0
0 0
0 0
0 0
0 0
0 0
0 0
0 0
0 0
0 0
0 0
0 0
0 0
0 0
0 0
0 0
0 0
0 0
0 0
0 0
0 0
0 0
0 0
0 0
0 0
0 0
0 0
0 0
0 0
0 0
0 0
0 0
0 0
0 0
0 0
0 0
0 0
0 0
0 0
0 0
0 0
0 0
0 0
0 0
0 0
0 0
0 0
0 0
0 0
0 0
0 0
0 0
0 0
0 0
0 0
0 0
0 0
0 0
0 0
0 0
0 0
0 0
0 0
0 0
0 0
0 0
0 0
0 0
0 0
0 0
0 0
0 0
0 0
0 0
0 0
0 0
0 0
0 0
0 0
0 0
0 0
0 0
0 0
0 0
0 0
0 0
0 0
0 0
0 0
0 0
0 0
0 0
0 0
0 0
0 0
0 0
0 0
0 0
0 0
0 0
0 0
0 0
0 0
0 0
0 0
0 0
0 0
0 0
0 0
0 0
0 0
0 0
0 0
0 0
0 0
0 0
0 0
0 0
0 0
0 0
0 0
0 0
0 0
0 0
0 0
0 0
0 0
0 0
0 0
0 0
0 0
0 0
0 0
0 0
0 0
0 0
0 0
0 0
0 0
0 0
0 0
0 0
0 0
0 0
0 0
0 0
0 0
0 0
0 0
0 0
0 0
0 0
0 0
0 0
0 0
0 0
0 0
0 0
0 0
0 0
0 0
0 0
0 0
0 0
0 0
0 0
0 0
0 0
0 0
0 0
0 0
0 0
0 0
0 0
0 0
0 0
0 0
0 0
0 0
0 0
0 0
0 0
0 0
0 0
0 0
0 0
0 0
0 0
0 0
0 0
0 0
0 0
0 0
0 0
0 0
0 0
0 0
0 0
0 0
0 0
0 0
0 0
0 0
0 0
0 0
0 0
0 0
0 0
0 0
0 0
0 0
0 0
0 0
0 0
0 0
0 0
0 0
0 0
0 0
0 0
0 0
0 0
0 0
0 0
0 0
0 0
0 0
0 0
0 0
0 0
0 0
0 0
0 0
0 0
0 0
0 0
0 0
0 0
0 0
0 0
0 0
0 0
0 0
0 0
0 0
0 0
0 0
0 0
0 0
0 0
0 0
0 0
0 0
0 0
0 0
0 0
0 0
0 0
0 0
0 0
0 0
0 0
0 0
0 0
0 0
0 0
0 0
0 0
0 0
0 0
0 0
0 0
0 0
0 0
0 0
0 0
0 0
0 0
0 0
0 0
0 0
0 0
0 0
0 0
0 0
0 0
0 0
0 0
0 0
0 0
0 0
0 0
0 0
0 0
0 0
0 0
0 0
0 0
0 0
0 0
0 0
0 0
0 0
0 0
0 0
0 0
0 0
0 0
0 0
0 0
0 0
0 0
0 0
0 0
0 0
0 0
0 0
0 0
0 0
0 0
0 0
0 0
0 0
0 0
0 0
0 0
0 0
0 0
0 0
0 0
0 0
0 0
0 0
0 0
0 0
0 0
0 0
0 0
0 0
0 0
0 0
0 0
0 0
0 0
0 0
0 0
0 0
0 0
0 0
0 0
0 0
0 0
0 0
0 0
0 0
0 0
0 0
0 0
0 0
0 0
0 0
0 0
0 0
0 0
0 0
0 0
0 0
0 0
0 0
0 0
0 0
0 0
0 0
0 0
0 0
0 0
0 0
0 0
0 0
0 0
0 0
0 0
0 0
0 0
0 0
0 0
0 0
0 0
0 0
0 0
0 0
0 0
0 0
0 0
0 0
0 0
0 0
0 0
0 0
0 0
0 0
0 0
0 0
0 0
0 0
0 0
0 0
0 0
0 0
0 0
0 0
0 0
0 0
0 0
0 0
0 0
0 0
0 0
0 0
0 0
0 0
0 0
0 0
0 0
0 0
0 0
0 0
0 0
0 0
0 0
0 0
0 0
0 0
0 0
0 0
0 0
0 0
0 0
0 0
0 0
0 0
0 0
0 0
0 0
0 0
0 0
0 0
0 0
0 0
0 0
0 0
0 0
0 0
0 0
0 0
0 0
0 0
0 0
0 0
0 0
0 0
0 0
0 0
0 0
0 0
0 0
0 0
0 0
0 0
0 0
0 0
0 0
0 0
0 0
0 0
0 0
0 0
0 0
0 0
0 0
0 0
0 0
0 0
0 0
0 0
0 0
0 0
0 0
0 0
0 0
0 0
0 0
0 0
0 0
0 0
0 0
0 0
0 0
0 0
0 0
0 0
0 0
0 0
0 0
0 0
0 0
0 0
0 0
0 0
0 0
0 0
0 0
0 0
0 0
0 0
0 0
0 0
0 0
0 0
0 0
0 0
0 0
0 0
0 0
0 0
0 0
0 0
0 0
0 0
0 0
0 0
0 0
0 0
0 0
0 0
0 0
0 0
0 0
0 0
0 0
0 0
0 0
0 0
0 0
0 0
0 0
0 0
0 0
0 0
0 0
0 0
0 0
0 0
0 0
0 0
0 0
0 0
0 0
0 0
0 0
0 0
0 0
0 0
0 0
0 0
0 0
0 0
0 0
0 0
0 0
0 0
0 0
0 0
0 0
0 0
0 0
0 0
0 0
0 0
0 0
0 0
0 0
0 0
0 0
0 0
0 0
0 0
0 0
0 0
0 0
0 0
0 0
0 0
0 0
0 0
0 0
0 0
0 0
0 0
0 0
0 0
0 0
0 0
0 0
0 0
0 0
0 0
0 0
0 0
0 0
0 0
0 0
0 0
0 0
0 0
0 0
0 0
0 0
0 0
0 0
0 0
0 0
0 0
0 0
0 0
0 0
0 0
0 0
0 0
0 0
0 0
0 0
0 0
0 0
0 0
0 0
0 0
0 0
0 0
0 0
0 0
0 0
0 0
0 0
0 0
0 0
0 0
0 0
0 0
0 0
0 0
0 0
0 0
0 0
0 0
0 0
0 0
0 0
0 0
0 0
0 0
0 0
0 0
0 0
0 0
0 0
0 0
0 0
0 0
0 0
0 0
0 0
0 0
0 0
0 0
0 0
0 0
0 0
0 0
0 0
0 0
0 0
0 0
0 0
0 0
0 0
0 0
0 0
0 0
0 0
0 0
0 0
0 0
0 0
0 0
0 0
0 0
0 0
0 0
0 0
0 0
0 0
0 0
0 0
0 0
0 0
0 0
0 0
0 0
0 0
0 0
0 0
0 0
0 0
0 0
0 0
0 0
0 0
0 0
0 0
0 0
0 0
0 0
0 0
0 0
0 0
0 0
0 0
0 0
0 0
0 0
0 0
0 0
0 0
0 0
0 0
0 0
0 0
0 0
0 0
0 0
0 0
0 0
0 0
0 0
0 0
0 0
0 0
0 0
0 0
0 0
0 0
0 0
0 0
0 0
0 0
0 0
0 0
0 0
0 0
0 0
0 0
0 0
0 0
0 0
0 0
0 0
0 0
0 0
0 0
0 0
0 0
0 0
0 0
0 0
0 0
0 0
0 0
0 0
0 0
0 0
0 0
0 0
0 0
0 0
0 0
0 0
0 0
0 0
0 0
0 0
0 0
0 0
0 0
0 0
0 0
0 0
0 0
0 0
0 0
0 0
0 0
0 0
0 0
0 0
0 0
0 0
0 0
0 0
0 0
0 0
0 0
0 0
0 0
0 0
0 0
0 0
0 0
0 0
0 0
0 0
0 0
0 0
0 0
0 0
0 0
0 0
0 0
0 0
0 0
0 0
0 0
0 0
0 0
0 0
0 0
0 0
0 0
0 0
0 0
0 0
0 0
0 0
0 0
0 0
0 0
0 0
0 0
0 0
0 0
0 0
0 0
0 0
0 0
0 0
0 0
0 0
0 0
0 0
0 0
0 0
0 0
0 0
0 0
0 0
0 0
0 0
0 0
0 0
0 0
0 0
0 0
0 0
0 0
0 0
0 0
0 0
0 0
0 0
0 0
0 0
0 0
0 0
0 0
0 0
0 0
0 0
0 0
0 0
0 0
0 0
0 0
0 0
0 0
0 0
0 0
0 0
0 0
0 0
0 0
0 0
0 0
0 0
0 0
0 0
0 0
0 0
0 0
0 0
0 0
0 0
0 0
0 0
0 0
0 0
0 0
0 0
0 0
0 0
0 0
0 0
0 0
0 0
0 0
0 0
0 0
0 0
0 0
0 0
0 0
0 0
0 0
0 0
0 0
0 0
0 0
0 0
0 0
0 0
0 0
0 0
0 0
0 0
0 0
0 0
0 0
0 0
0 0
0 0
0 0
0 0
0 0
0 0
0 0
0 0
0 0
0 0
0 0
0 0
0 0
0 0
0 0
0 0
0 0
0 0
0 0
0 0
0 0
0 0
0 0
0 0
0 0
0 0
0 0
0 0
0 0
0 0
0 0
0 0
0 0
0 0
0 0
0 0
0 0
0 0
0 0
0 0
0 0
0 0
0 0
0 0
0 0
0 0
0 0
0 0
0 0
0 0
0 0
0 0
0 0
0 0
0 0
0 0
0 0
0 0
0 0
0 0
0 0
0 0
0 0
0 0
0 0
0 0
0 0
0 0
0 0
0 0
0 0
0 0
0 0
0 0
0 0
0 0
0 0
0 0
0 0
0 0
0 0
0 0
0 0
0 0
0 0
0 0
0 0
0 0
0 0
0 0
0 0
0 0
0 0
0 0
0 0
0 0
0 0
0 0
0 0
0 0
0 0
0 0
0 0
0 0
0 0
0 0
0 0
0 0
0 0
0 0
0 0
0 0
0 0
0 0
0 0
0 0
0 0
0 0
0 0
0 0
0 0
0 0
0 0
0 0
0 0
0 0
0 0
0 0
0 0
0 0
0 0
0 0
0 0
0 0
0 0
0 0
0 0
0 0
0 0
0 0
0 0
0 0
0 0
0 0
0 0
0 0
0 0
0 0
0 0
0 0
0 0
0 0
0 0
0 0
0 0
0 0
0 0
0 0
0 0
0 0
0 0
0 0
0 0
0 0
0 0
0 0
0 0
0 0
0 0
0 0
0 0
0 0
0 0
0 0
0 0
0 0
0 0
0 0
0 0
0 0
0 0
0 0
0 0
0 0
0 0
0 0
0 0
0 0
0 0
0 0
0 0
0 0
0 0
0 0
0 0
0 0
0 0
0 0
0 0
0 0
0 0
0 0
0 0
0 0
0 0
0 0
0 0
0 0
0 0
0 0
0 0
0 0
0 0
0 0
0 0
0 0
0 0
0 0
0 0
0 0
0 0
0 0
0 0
0 0
0 0
0 0
0 0
0 0
0 0
0 0
0 0
0 0
0 0
0 0
0 0
0 0
0 0
0 0
0 0
0 0
0 0
0 0
0 0
0 0
0 0
0 0
0 0
0 0
0 0
0 0
0 0
0 0
0 0
0 0
0 0
0 0
0 0
0 0
0 0
0 0
0 0
0 0
0 0
0 0
0 0
0 0
0 0
0 0
0 0
0 0
0 0
0 0
0 0
0 0
0 0
0 0
0 0
0 0
0 0
0 0
0 0
0 0
0 0
0 0
0 0
0 0
0 0
0 0
0 0
0 0
0 0
0 0
0 0
0 0
0 0
0 0
0 0
0 0
0 0
0 0
0 0
0 0
0 0
0 0
0 0
0 0
0 0
0 0
0 0
0 0
0 0
0 0
0 0
0 0
0 0
0 0
0 0
0 0
0 0
0 0
0 0
0 0
0 0
0 0
0 0
0 0
0 0
0 0
0 0
0 0
0 0
0 0
0 0
0 0
0 0
0 0
0 0
0 0
0 0
0 0
0 0
0 0
0 0
0 0
0 0
0 0
0 0
0 0
0 0
0 0
0 0
0 0
0 0
0 0
0 0
0 0
0 0
0 0
0 0
0 0
0 0
0 0
0 0
0 0
0 0
0 0
0 0
0 0
0 0
0 0
0 0
0 0
0 0
0 0
0 0
0 0
0 0
0 0
0 0
0 0
0 0
0 0
0 0
0 0
0 0
0 0
0 0
0 0
0 0
0 0
0 0
0 0
0 0
0 0
0 0
0 0
0 0
0 0
0 0
0 0
0 0
0 0
0 0
0 0
0 0
0 0
0 0
0 0
0 0
0 0
0 0
0 0
0 0
0 0
0 0
0 0
0 0
0 0
0 0
0 0
0 0
0 0
0 0
0 0
0 0
0 0
0 0
0 0
0 0
0 0
0 0
0 0
0 0
0 0
0 0
0 0
0 0
0 0
0 0
0 0
0 0
0 0
0 0
0 0
0 0
0 0
0 0
0 0
0 0
0 0
0 0
0 0
0 0
0 0
0 0
0 0
0 0
0 0
0 0
0 0
0 0
0 0
0 0
0 0
0 0
0 0
0 0
0 0
0 0
0 0
0 0
0 0
0 0
0 0
0 0
0 0
0 0
0 0
0 0
0 0
0 0
0 0
0 0
0 0
0 0
0 0
0 0
0 0
0 0
0 0
0 0
0 0
0 0
0 0
0 0
0 0
0 0
0 0
0 0
0 0
0 0
0 0
0 0
0 0
0 0
0 0
0 0
0 0
0 0
0 0
0 0
0 0
0 0
0 0
0 0
0 0
0 0
0 0
0 0
0 0
0 0
0 0
0 0
0 0
0 0
0 0
0 0
0 0
0 0
0 0
0 0
0 0
0 0
0 0
0 0
0 0
0 0
0 0
0 0
0 0
0 0
0 0
0 0
0 0
0 0
0 0
0 0
0 0
0 0
0 0
0 0
0 0
0 0
0 0
0 0
0 0
0 0
0 0
0 0
0 0
0 0
0 0
0 0
0 0
0 0
0 0
0 0
0 0
0 0
0 0
0 0
0 0
0 0
0 0
0 0
0 0
0 0
0 0
0 0
0 0
0 0
0 0
0 0
0 0
0 0
0 0
0 0
0 0
0 0
0 0
0 0
0 0
0 0
0 0
0 0
0 0
0 0
0 0
0 0
0 0
0 0
0 0
0 0
0 0
0 0
0 0
0 0
0 0
0 0
0 0
0 0
0 0
0 0
0 0
0 0
0 0
0 0
0 0
0 0
0 0
0 0
0 0
0 0
0 0
0 0
0 0
0 0
0 0
0 0
0 0
0 0
0 0
0 0
0 0
0 0
0 0
0 0
0 0
0 0
0 0
0 0
0 0
0 0
0 0
0 0
0 0
0 0
0 0
0 0
0 0
0 0
0 0
0 0
0 0
0 0
0 0
0 0
0 0
0 0
0 0
0 0
0 0
0 0
0 0
0 0
0 0
0 0
0 0
0 0
0 0
0 0
0 0
0 0
0 0
0 0
0 0
0 0
0 0
0 0
0 0
0 0
0 0
0 0
0 0
0 0
0 0
0 0
0 0
0 0
0 0
0 0
0 0
0 0
0 0
0 0
0 0
0 0
0 0
0 0
0 0
0 0
0 0
0 0
0 0
0 0
0 0
0 0
0 0
0 0
0 0
0 0
0 0
0 0
0 0
0 0
0 0
0 0
0 0
0 0
0 0
0 0
0 0
0 0
0 0
0 0
0 0
0 0
0 0
0 0
0 0
0 0
0 0
0 0
0 0
0 0
0 0
0 0
0 0
0 0
0 0
0 0
0 0
0 0
0 0
0 0
0 0
0 0
0 0
0 0
0 0
0 0
0 0
0 0
0 0
0 0
0 0
0 0
0 0
0 0
0 0
0 0
0 0
0 0
0 0
0 0
0 0
0 0
0 0
0 0
0 0
0 0
0 0
0 0
0 0
0 0
0 0
0 0
0 0
0 0
0 0
0 0
0 0
0 0
0 0
0 0
0 0
0 0
0 0
0 0
0 0
0 0
0 0
0 0
0 0
0 0
0 0
0 0
0 0
0 0
0 0
0 0
0 0
0 0
0 0
0 0
0 0
0 0
0 0
0 0
0 0
0 0
0 0
0 0
0 0
0 0
0 0
0 0
0 0
0 0
0 0
0 0
0 0
0 0
0 0
0 0
0 0
0 0
0 0
0 0
0 0
0 0
0 0
0 0
0 0
0 0
0 0
0 0
0 0
0 0
0 0
0 0
0 0
0 0
0 0
0 0
0 0
0 0
0 0
0 0
0 0
0 0
0 0
0 0
0 0
0 0
0 0
0 0
0 0
0 0
0 0
0 0
0 0
0 0
0 0
0 0
0 0
0 0
0 0
0 0
0 0
0 0
0 0
0 0
0 0
0 0
0 0
0 0
0 0
0 0
0 0
0 0
0 0
0 0
0 0
0 0
0 0
0 0
0 0
0 0
0 0
0 0
0 0
0 0
0 0
0 0
0 0
0 0
0 0
0 0
0 0
0 0
0 0
0 0
0 0
0 0
0 0
0 0
0 0
0 0
0 0
0 0
0 0
0 0
0 0
0 0
0 0
0 0
0 0
0 0
0 0
0 0
0 0
0 0
0 0
0 0
0 0
0 0
0 0
0 0
0 0
0 0
0 0
0 0
0 0
0 0
0 0
0 0
0 0
0 0
0 0
0 0
0 0
0 0
0 0
0 0
0 0
0 0
0 0
0 0
0 0
0 0
0 0
0 0
0 0
0 0
0 0
0 0
0 0
0 0
0 0
0 0
0 0
0 0
0 0
0 0
0 0
0 0
0 0
0 0
0 0
0 0
0 0
0 0
0 0
0 0
0 0
0 0
0 0
0 0
0 0
0 0
0 0
0 0
0 0
0 0
0 0
0 0
0 0
0 0
0 0
0 0
0 0
0 0
0 0
0 0
0 0
0 0
0 0
0 0
0 0
0 0
0 0
0 0
0 0
0 0
0 0
0 0
0 0
0 0
0 0
0 0
0 0
0 0
0 0
0 0
0 0
0 0
0 0
0 0
0 0
0 0
0 0
0 0
0 0
0 0
0 0
0 0
0 0
0 0
0 0
0 0
0 0
0 0
0 0
0 0
0 0
0 0
0 0
0 0
0 0
0 0
0 0
0 0
0 0
0 0
0 0
0 0
0 0
0 0
0 0
0 0
0 0
0 0
0 0
0 0
0 0
0 0
0 0
0 0
0 0
0 0
0 0
0 0
0 0
0 0
0 0
0 0
0 0
0 0
0 0
0 0
0 0
0 0
0 0
0 0
0 0
0 0
0 0
0 0
0 0
0 0
0 0
0 0
0 0
0 0
0 0
0 0
0 0
0 0
0 0
0 0
0 0
0 0
0 0
0 0
0 0
0 0
0 0
0 0
0 0
0 0
0 0
0 0
0 0
0 0
0 0
0 0
0 0
0 0
0 0
0 0
0 0
0 0
0 0
0 0
0 0
0 0
0 0
0 0
0 0
0 0
0 0
0 0
0 0
0 0
0 0
0 0
0 0
0 0
0 0
0 0
0 0
0 0
0 0
0 0
0 0
0 0
0 0
0 0
0 0
0 0
0 0
0 0
0 0
0 0
0 0
0 0
0 0
0 0
0 0
0 0
0 0
0 0
0 0
0 0
0 0
0 0
0 0
0 0
0 0
0 0
0 0
0 0
0 0
0 0
0 0
0 0
0 0
0 0
0 0
0 0
0 0
0 0
0 0
0 0
0 0
0 0
0 0
0 0
0 0
0 0
0 0
0 0
0 0
0 0
0 0
0 0
0 0
0 0
0 0
0 0
0 0
0 0
0 0
0 0
0 0
0 0
0 0
0 0
0 0
0 0
0 0
0 0
0 0
0 0
0 0
0 0
0 0
0 0
0 0
0 0
0 0
0 0
0 0
0 0
0 0
0 0
0 0
0 0
0 0
0 0
0 0
0 0
0 0
0 0
0 0
0 0
0 0
0 0
0 0
0 0
0 0
0 0
0 0
0 0
0 0
0 0
0 0
0 0
0 0
0 0
0 0
0 0
0 0
0 0
0 0
0 0
0 0
0 0
0 0
0 0
0 0
0 0
0 0
0 0
0 0
0 0
0 0
0 0
0 0
0 0
0 0
0 0
0 0
0 0
0 0
0 0
0 0
0 0
0 0
0 0
0 0
0 0
0 0
0 0
0 0
0 0
0 0
0 0
0 0
0 0
0 0
0 0
0 0
0 0
0 0
0 0
0 0
0 0
0 0
0 0
0 0
0 0
0 0
0 0
0 0
0 0
0 0
0 0
0 0
0 0
0 0
0 0
0 0
0 0
0 0
0 0
0 0
0 0
0 0
0 0
0 0
0 0
0 0
0 0
0 0
0 0
0 0
0 0
0 0
0 0
0 0
0 0
0 0
0 0
0 0
0 0
0 0
0 0
0 0
0 0
0 0
0 0
0 0
0 0
0 0
0 0
0 0
0 0
0 0
0 0
0 0
0 0
0 0
0 0
0 0
0 0
0 0
0 0
0 0
0 0
0 0
0 0
0 0
0 0
0 0
0 0
0 0
0 0
0 0
0 0
0 0
0 0
0 0
0 0
0 0
0 0
0 0
0 0
0 0
0 0
0 0
0 0
0 0
0 0
0 0
0 0
0 0
0 0
0 0
0 0
0 0
0 0
0 0
0 0
0 0
0 0
0 0
0 0
0 0
0 0
0 0
0 0
0 0
0 0
0 0
0 0
0 0
0 0
0 0
0 0
0 0
0 0
0 0
0 0
0 0
0 0
0 0
0 0
0 0
0 0
0 0
0 0
0 0
0 0
0 0
0 0
0 0
0 0
0 0
0 0
0 0
0 0
0 0
0 0
0 0
0 0
0 0
0 0
0 0
0 0
0 0
0 0
0 0
0 0
0 0
0 0
0 0
0 0
0 0
0 0
0 0
0 0
0 0
0 0
0 0
0 0
0 0
0 0
0 0
0 0
0 0
0 0
0 0
0 0
0 0
0 0
0 0
0 0
0 0
0 0
0 0
0 0
0 0
0 0
0 0
0 0
0 0
0 0
0 0
0 0
0 0
0 0
0 0
0 0
0 0
0 0
0 0
0 0
0 0
0 0
0 0
0 0
0 0
0 0
0 0
0 0
0 0
0 0
0 0
0 0
0 0
0 0
0 0
0 0
0 0
0 0
0 0
0 0
0 0
0 0
0 0
0 0
0 0
0 0
0 0
0 0
0 0
0 0
0 0
0 0
0 0
0 0
0 0
0 0
0 0
0 0
0 0
0 0
0 0
0 0
0 0
0 0
0 0
0 0
0 0
0 0
0 0
0 0
0 0
0 0
0 0
0 0
0 0
0 0
0 0
0 0
0 0
0 0
0 0
0 0
0 0
0 0
0 0
0 0
0 0
0 0
0 0
0 0
0 0
0 0
0 0
0 0
0 0
0 0
0 0
0 0
0 0
0 0
0 0
0 0
0 0
0 0
0 0
0 0
0 0
      </DataArray> 
      <DataArray type="Float64" NumberOfComponents="2" Name="CauchyNormalStress" format="ascii">
1.99169 1.09396
1.79795 0.870012
1.96998 0.190001
1.03173 -0.0387571
0.701807 0.0079629
0.431268 -0.00428014
0.273342 -0.0234743
0.167174 -0.0226172
0.0471574 -0.0106265
-0.0402771 -0.00137997
-0.109321 -0.0115157
-0.15133 -0.0155251
-0.210375 -0.0082477
-0.248698 -0.000431451
-0.274362 -0.00912422
-0.280414 -0.0112444
-0.29935 -0.00423373
-0.300345 0.0010172
-0.289125 -0.00840923
-0.257744 -0.0113379
-0.239407 -0.00428246
-0.202695 0.000639466
-0.150415 -0.010512
-0.071822 -0.0153074
-0.00939853 -0.00602602
0.0800881 0.00283429
0.20025 -0.0110229
0.390883 -0.0427186
0.57845 -0.0620403
0.876153 -0.0283169
1.76284 0.0805045
-0.172081 0.0956999
-0.227319 0.120299
-0.208608 0.312016
0.594377 1.40783
-0.192226 -0.00697595
-0.0410983 -0.106619
-0.00875967 -0.130008
-0.0216799 -0.149117
-0.0209485 -0.152847
-0.00608397 -0.190574
-0.00448321 -0.198098
-0.00476167 -0.208895
-0.0106202 -0.205945
-0.0173695 -0.216794
-0.0195892 -0.182989
-0.0226992 -0.192128
-0.028914 -0.184222
-0.0382514 -0.184482
-0.04718 -0.167412
-0.0556031 -0.162641
-0.0631329 -0.134986
-0.0761725 -0.139335
-0.00195024 -0.193279
-0.154602 -0.0110612
-0.181355 -0.0143787
-0.139191 -0.0337013
-0.148979 -0.0442327
-0.106695 -0.0761947
-18.1791 -49.8698
-0.107739 -0.496115
-0.0373813 -0.217791
-0.240279 -0.627475
-1.91078 -9.45177
-0.654996 -8.35267
-0.00201406 -4.82068
-0.366826 -5.0547
-0.423517 -4.96365
-0.757868 -5.75215
4.06778 0.253577
-3.14745 -9.44673
-4.13016 -11.2858
-5.63636 -16.8701
-1.93157 -9.38306
4.26045 0.129859
5.67722 2.40307
-4.75211 -1.79291
-16.5503 -47.7517
-0.699097 -8.38489
-0.00347082 -4.8718
-0.379228 -5.08228
-0.423684 -4.97791
-0.754508 -5.74873
0.00403482 -0.23766
-0.103387 -0.489222
-0.0548919 -0.219723
-0.309063 -0.56381
-0.207399 0.0258465
-0.0515211 -0.38246
-0.0108755 -0.220322
-0.0522756 -0.265819
-0.0592743 -0.156428
-0.0729251 -0.136989
-0.126013 0.10154
-0.15398 -0.00390826
-0.17726 -0.0234967
-0.133783 -0.0290506
-0.148344 -0.0528366
-0.117402 -0.0540442
-0.11544 -0.0779314
-0.0947683 -0.0905961
-0.0901573 -0.108993
-0.0779896 -0.130564
-0.065148 -0.13477
-0.057247 -0.163321
-0.0403522 -0.15779
-0.0317275 -0.192214
-0.0185958 -0.194838
-0.0207579 -0.209583
-0.015943 -0.199994
-0.0101474 -0.215512
-0.168991 0.210028
-0.064378 0.466727
0.642128 1.29805
-4.77533 -2.96301
-2.87116 -7.55557
-4.61684 -3.1912
-2.51115 -10.2394
-3.21062 -8.29868
-0.585886 -6.07982
-4.72081 -2.3434
1.24299 -6.7457
0.330778 -1.07553
0.250439 -1.02424
-0.867228 -10.5165
-0.915381 -10.8159
0.583138 -2.50485
0.216861 -1.23177
0.0871098 -5.08897
0.102354 -4.44966
-0.0924262 -5.11703
0.222266 -3.89296
0.12897 -4.52088
-0.472253 -4.3151
-0.0833943 -4.33045
-0.150489 -4.68477
-0.625722 -4.63289
0.33552 -3.59329
0.443018 -3.43165
0.376004 -4.66493
-2.45123 -1.56375
-2.55201 -1.56343
-2.70356 -1.7289
0.202976 -5.41279
0.286763 -4.12899
-1.39471 -4.79605
-1.33476 -4.51098
-0.0960137 -6.02781
-0.409692 -5.81567
-1.08716 -5.13222
-1.21778 -5.50386
-0.121002 -5.59394
-1.8929 -1.27645
-2.24494 -1.3528
-2.08476 -1.37579
0.170322 -3.46677
0.246576 -3.64941
-2.08821 -2.20898
-1.38122 -3.29445
-0.327491 -3.75529
0.0667164 -3.27007
0.0382215 -3.49388
-0.339955 -4.0529
-1.47026 -3.52539
-2.22219 -2.29271
0.394669 -3.0131
0.556451 -4.16516
-3.45558 -2.65029
-3.3755 -2.11412
-2.84397 -1.69903
-2.96363 -2.32365
0.709574 -4.30538
0.766712 -5.17903
0.612833 -5.00836
0.482887 -4.13386
0.479562 -3.23738
0.419882 -2.87922
-3.61455 -3.02995
-2.07242 -4.37825
-2.00287 -4.08516
-3.56821 -4.21433
0.555306 -6.39824
0.0267648 -8.09637
-1.31827 -6.0603
-0.275589 -6.39739
0.674468 -5.89101
-1.70311 -1.2522
-1.9433 -1.26496
-1.9414 -1.21155
-1.994 -1.25211
-1.63682 -1.05207
-1.58817 -1.03762
-1.51793 -0.987868
-1.73045 -1.18713
0.230465 -2.95978
0.340055 -2.68832
0.365976 -2.62328
0.240799 -3.04087
-1.61189 -1.27247
-1.6753 -1.45859
-1.70028 -2.16266
-1.3184 -2.56186
-0.652385 -2.99233
-0.242156 -3.21867
-0.327371 -3.38127
-0.752933 -3.16748
-1.42548 -2.73388
-1.75517 -2.23659
-1.77329 -1.39916
-1.67278 -1.22074
0.381954 -2.54454
0.621576 -3.29549
-4.57209 -3.79811
-3.81028 -2.21674
-4.12754 -2.69219
0.924994 -4.33182
0.923756 -4.87029
0.571291 -3.25581
0.37214 -2.31133
-3.6295 -4.75785
-3.62754 -6.11803
0.986684 -6.94732
-1.72673 -7.21393
-3.67942 -7.53142
-1.40381 -6.27963
0.313944 -7.15173
-1.2096 -0.88011
-1.37237 -0.961929
-1.39099 -0.94695
-1.2198 -0.83961
-1.14304 -0.82067
-1.1513 -0.817203
0.278653 -2.461
0.232475 -2.42169
-1.18889 -1.10062
-0.889907 -1.80406
-0.123999 -2.51091
-0.251776 -2.615
-0.969649 -1.84268
-1.19105 -1.01938
0.254796 -1.62104
0.317269 -1.86198
0.382562 -2.20843
0.459699 -2.25077
0.652691 -2.45751
0.853671 -3.2123
-3.92303 -5.96827
-4.85684 -2.37683
-4.38883 -4.12834
1.03604 -4.06908
1.05708 -4.31318
0.8629 -3.5542
0.659914 -2.89598
0.506964 -2.47654
0.332554 -1.93008
0.238504 -1.43976
-4.31551 -6.53202
-4.31257 -8.59465
1.18194 -5.16059
1.08021 -9.38545
-4.10106 -9.94305
1.23022 -6.99191
1.15509 -4.85844
-2.38116 -8.11399
0.663153 -8.51292
-0.653808 -0.616562
-0.710868 -0.614208
-0.866917 -0.696182
-0.759696 -0.696364
-0.99616 -0.707583
-0.930462 -0.716233
-0.946954 -0.651601
-0.948057 -0.667215
-0.772593 -0.579097
-0.818659 -0.577062
-0.738774 -0.636169
-0.830612 -0.625607
-0.623463 -0.561424
-0.677922 -0.592329
0.233558 -2.20909
0.270492 -2.14513
0.296876 -1.87885
0.219102 -1.41945
0.297029 -1.81747
0.244609 -2.21285
0.0928863 -2.3607
-0.820977 -0.810319
-0.643444 -1.06889
-0.294886 -1.60452
0.00317938 -1.91559
-0.208326 -2.08329
-0.416141 -1.66275
-0.738369 -1.04069
-0.768487 -0.701164
0.0981535 -0.788063
0.209318 -1.3015
0.285507 -1.43523
0.427083 -1.71946
0.596427 -2.06338
0.0868889 -13.5153
-3.75897 -2.06596
-2.2854 -0.293986
-3.85797 -1.59912
-0.514568 -12.3641
0.907722 -3.20893
0.873755 -3.06832
0.598899 -2.24501
0.356777 -1.81682
0.119332 -0.892204
0.148938 -17.3638
-1.35348 -13.2422
0.0726062 -16.7573
-0.620101 -14.1895
0.951576 -5.45644
-2.41422 -13.7204
-7.70265 -16.0643
0.920512 -4.49743
-7.37439 -14.1429
-0.653151 -10.8989
-0.139973 -0.361836
-0.324793 -0.447128
-0.538526 -0.445599
-0.607797 -0.415705
-0.56012 -0.39164
-0.400158 -0.399569
-0.144985 -0.372548
0.402829 -1.54912
0.159283 -1.0204
0.213114 -1.13175
0.268557 -1.68722
-0.0991458 -0.507629
0.415171 -1.2632
0.618502 -1.10124
0.465299 -1.3384
0.131505 -1.38788
-0.123224 -0.46616
0.0966213 -0.533546
0.0935292 -0.668232
0.0234091 -0.380523
0.0659876 -0.591802
0.0610354 -0.58542
0.122337 -0.86043
0.104915 -0.732833
0.158841 -0.901072
0.167257 -0.886389
0.191177 -0.92031
0.159001 -0.807049
-3.39818 -5.90687
-1.82853 -0.599071
-1.65211 -0.533591
-3.50227 -4.19709
0.34219 -1.25241
0.429818 -1.50307
0.462628 -1.68322
0.321271 -1.43034
0.408318 -2.33655
0.381759 -2.10724
0.338504 -1.49314
0.41995 -1.56005
0.422963 -1.48747
0.325011 -1.2194
0.323916 -1.24238
0.242261 -1.05816
0.141471 -0.794445
0.172133 -0.947167
0.0437716 -0.5297
0.063872 -0.542373
0.0580116 -0.559682
0.0414529 -0.49041
0.174244 -9.39908
0.220405 -12.5569
-0.233539 -16.6511
0.141736 -9.13846
0.121949 -15.9928
0.0943648 -12.079
0.149449 -2.8318
-0.470923 -2.5999
-0.389002 -19.46
0.257544 -2.76893
0.522309 -13.2023
-0.116399 -3.59986
0.305322 -0.198461
0.701674 0.161933
0.384658 -0.25413
0.0282432 -0.225383
0.149784 -0.225156
-0.124497 -0.238528
-0.284783 -0.229794
-0.217054 -0.225574
-0.361524 -0.224078
-0.42775 -0.219991
-0.401352 -0.214691
-0.424968 -0.200452
-0.415328 -0.201864
-0.427795 -0.194928
-0.365992 -0.197829
-0.268801 -0.20445
-0.327815 -0.194247
-0.158299 -0.207534
0.0831964 -0.22653
-0.0666722 -0.202682
0.264655 -0.154962
0.772681 0.112219
0.363035 -0.175623
0.0244779 -0.33904
0.0249087 -0.368553
0.0520279 -0.470721
0.0443324 -0.462301
0.229255 -1.01715
0.467415 -0.422456
0.273765 -1.0086
0.42725 -1.17401
0.36445 -0.535994
0.787067 -0.143446
0.483698 -0.710833
0.337755 -0.827193
0.687525 -0.137486
0.0339593 -0.291494
0.0291486 -0.274907
0.0384843 -0.0881639
0.0662487 -0.21672
0.0521553 -0.228499
0.0227602 -0.126689
0.313027 0.0466619
1.52032 0.482952
0.380215 0.0526578
0.345698 -0.134921
0.382954 -0.177006
1.18951 0.0607834
0.715683 -0.754355
0.903236 -0.363095
0.127173 -0.422408
0.156014 -0.439238
-0.112538 -0.867236
0.02403 -0.883991
0.33237 -1.55455
0.296852 -1.50664
0.100567 -0.797906
0.0537198 -0.552019
-0.123187 -0.261717
-0.258133 -0.405366
-0.482546 -0.389629
-0.581064 -0.391918
-0.585217 -0.432509
-0.435796 -0.450657
-0.16528 -0.435327
-0.326791 -0.300369
0.920068 -6.33843
0.665757 -8.185
1.08628 -13.8265
1.17459 -14.2546
0.137591 -0.915368
0.411034 -1.76174
0.75164 -2.56873
0.768289 -3.01153
0.949968 -3.84404
0.76741 -2.61184
-3.60534 -4.3078
-3.20644 -5.8202
0.430141 -1.58961
0.362148 -1.63511
0.282 -1.55381
0.149507 -1.01025
0.201968 -1.8404
0.454721 -1.63699
-4.29695 -10.0141
-4.60121 -11.9077
-4.28358 -1.39426
-1.31225 -1.27545
-0.664587 -2.37132
-0.536308 -2.25314
-1.28159 -1.35273
0.0874305 -2.85227
0.317251 -2.02939
0.337002 -2.20786
0.169126 -2.75391
-1.09119 -0.811966
-1.21017 -0.851471
-1.08033 -0.768578
-1.33412 -0.905571
-1.43482 -0.977818
-1.31218 -0.937895
-1.12239 -0.864089
-0.756811 -6.88813
1.05276 -6.28335
0.700396 -8.91083
1.01479 -5.44415
-4.40832 -5.63368
-4.6315 -3.99965
0.443711 -2.57619
0.739284 -3.9896
-3.15955 -1.90668
-4.41455 -2.94629
0.775349 -3.39348
0.462946 -2.86209
-2.01975 -5.64936
-1.97577 -5.30002
-2.24696 -1.56105
-2.18377 -3.10744
-0.793623 -3.95277
-0.713941 -3.71401
-2.09093 -2.88782
-2.0897 -1.61785
0.393392 -3.20978
0.3137 -3.16784
-1.94648 -1.20879
-2.54308 -1.50881
0.184311 -5.90493
-0.609015 -6.77786
0.23011 -4.9227
0.368099 -5.30998
0.0738847 -4.11604
0.0310071 -3.77927
-0.417423 -5.29368
-0.206951 -4.89194
0.403233 -4.01446
0.432753 -20.3977
-0.384401 -0.320147
-2.14179 -5.00146
-0.835813 -4.46881
-0.671918 -0.624195
0.836399 -8.94248
-0.288944 -0.417352
-3.47739 -27.5107
-2.23866 -8.85263
-0.429044 -0.547652
-1.17021 -5.02486
0.368848 -12.7607
-0.0269006 -14.158
-1.91784 -14.2021
-1.72232 -11.5948
-1.20304 -22.4258
-1.09594 -6.11136
-1.78017 -6.7368
-1.20529 -9.87308
0.547441 -12.8866
0.467678 -14.1781
0.112368 -10.4061
-0.653953 -9.05508
-0.501014 -7.7425
-2.41665 -7.41327
-3.15282 -9.23505
-0.163382 -7.06585
0.437599 -11.6492
-0.0339054 -14.8062
-1.56994 -11.994
-1.9313 -14.9824
-1.159 -10.1349
-1.10004 -6.11908
-1.77589 -6.75705
-1.99101 -24.6275
0.376151 -14.5692
0.631492 -13.3797
0.180334 -10.754
-0.489276 -7.88959
-0.612706 -9.28401
-0.149029 -7.20355
-2.42259 -7.46818
-3.14989 -9.39891
0.500412 -12.0368
-2.23999 -1.57502
0.192102 -0.831622
1.22606 0.368436
0.985747 -0.10836
-12.1719 -23.8956
-5.7176 -17.1122
-8.935 -13.4954
-3.46892 -4.47998
-2.53367 -2.06451
-2.41322 -1.93033
0.970011 0.189655
-0.00475017 -0.846435
-8.91251 -15.1602
-11.9941 -24.2317
-4.86616 -2.00139
0.950782 -0.162642
-2.48191 -2.65356
-3.29779 -6.05618
-3.78477 -12.2304
-3.44322 -17.2898
0.197384 -13.2148
-11.9941 -19.7072
1.03972 -9.65038
-4.07491 -9.62607
-5.39033 -11.741
-6.8989 -14.8037
-1.56073 -17.1764
-8.4413 -19.519
0.590354 -12.7561
-12.0475 -20.6257
-6.1155 -13.7412
-5.46594 -12.2024
-3.53053 -15.6181
-3.33185 -19.3015
-0.552675 -15.3456
0.235925 -14.3507
-2.55895 -13.139
-3.89725 -13.7067
-1.07556 -15.0647
-4.762 -17.3882
-0.00151976 -14.1234
-2.91407 -11.5157
0.430744 -14.9787
-2.0305 -9.74596
-1.00441 -11.4402
-2.40818 -8.5701
-3.70216 -23.6827
0.830613 -15.3103
0.247778 -13.5132
-3.12601 -0.867224
-1.79533 -0.40991
-2.86515 -1.37081
0.768443 -0.206283
-3.65689 -2.77453
-4.00305 -1.44526
-3.3875 -0.976056
-3.07878 -1.10481
-2.94546 -1.72453
-1.88903 -0.469419
-3.47102 -3.6135
-3.95294 -1.6596
0.552922 -15.3972
-0.766646 -12.3703
-1.41644 -11.2398
-3.50627 -23.0394
-1.79705 -10.0668
0.472377 -13.7963
0.737464 -14.9085
-3.7699 -8.52292
-2.27704 -9.88056
-0.729771 -8.69251
-1.55585 -7.51057
-4.60052 -10.8964
-2.46813 -11.2217
-0.0731655 -11.3162
-0.54472 -9.82862
-4.09688 -8.75583
-3.0609 -7.81055
-2.14623 -6.85472
-2.84831 -6.57923
-3.56886 -6.14631
-4.01763 -5.67409
-4.11928 -7.08872
-4.1455 -4.35385
-4.4298 -5.30544
-4.18863 -8.17521
-2.86901 -5.21481
-4.06111 -5.90144
-4.03292 -4.95585
-3.54246 -5.15854
-2.8041 -4.74245
-2.85443 -3.60646
-2.80586 -5.72912
-4.12954 -3.58092
-3.58902 -3.87563
-2.92633 -3.98069
-2.92249 -3.02383
-4.3788 -3.32353
-3.85877 -2.83798
-3.38665 -2.45602
-3.65091 -2.33304
-3.88486 -2.55657
-4.09712 -2.53576
-3.58531 -2.14946
-3.18513 -1.88509
-3.47727 -2.04779
-2.96919 -1.79571
-3.48174 -3.39655
-4.08315 -3.98414
-4.0426 -3.30018
-4.45993 -4.68159
-4.48401 -3.32961
-3.92222 -2.77265
-2.7886 -2.71623
-3.38967 -2.35682
-2.92417 -1.84983
-2.26337 -1.57473
-2.47636 -1.53475
-2.96055 -2.09136
-2.80016 -2.19647
-2.74577 -11.2499
-0.736011 -14.0862
-2.64059 -14.3462
0.329331 -12.8871
-4.13124 -11.2455
-3.13759 -9.41731
-1.48765 -9.75687
0.0683459 -7.22644
-0.31532 -10.3496
-0.469918 -7.56769
-3.76334 -10.7104
-4.98766 -8.6899
-0.442989 -7.41053
-0.312934 -10.0708
0.0535329 -7.08976
0.292229 -12.474
-3.82735 -10.3388
-4.87983 -8.87783
-1.43726 -9.66005
-2.6451 -14.0769
-0.71259 -13.6743
-2.70143 -11.0941
5.53701 2.86709
4.27001 0.222315
-4.5233 -3.18913
-4.33038 -2.09531
-4.09876 -2.76322
-4.49926 -1.78531
-3.93476 -4.25522
-4.53029 -4.08742
-4.68725 -3.16549
-3.85412 -6.28198
-3.7558 -7.25718
-4.3504 -5.41671
-3.73604 -9.21345
-3.36912 -6.53464
-0.814533 -12.6252
-2.43073 -10.667
-1.80384 -10.0351
-1.12772 -11.6369
-1.81408 -12.1743
-0.208341 -13.5584
-3.40043 -11.0338
-2.73686 -8.33527
-4.05723 -7.41852
-3.38468 -9.26871
-3.28493 -8.26704
-4.43477 -10.148
-3.4924 -5.98658
-4.16652 -5.80031
-4.24563 -7.18544
-4.61691 -3.58978
-4.70905 -2.70473
-4.71598 -3.02195
-4.47368 -2.21611
-4.6302 -2.02025
-4.69469 -2.76908
-4.48908 -4.37312
-3.8157 -3.84205
-4.23984 -2.81163
-4.2728 -4.45229
-3.68903 -8.0769
-3.34746 -8.75356
-4.37836 -9.29789
-1.65689 -8.94935
-3.9665 -7.33179
-3.28387 -6.82506
-2.36676 -6.3997
-4.33487 -2.64136
-4.46395 -2.84449
-3.95966 -2.46564
-4.66698 -3.46803
-4.59951 -2.91499
-4.7586 -2.30514
-4.75865 -2.71264
-4.79283 -2.58631
-1.12254 -2.68808
-0.669831 -3.53234
-0.6606 -1.81006
-0.272552 -7.17911
-0.0338634 -5.35512
-0.414947 -1.5338
-0.65465 -0.495968
-1.00887 -0.376421
-1.57308 -2.85592
-1.08615 -11.893
-0.557894 -9.12907
-1.47979 -6.47134
0.630381 -9.96176
-2.34828 -4.54941
-1.14593 -13.5782
0.313123 -15.1392
-6.02018 -36.9215
-7.03181 -9.38671
-4.11836 -16.379
-0.730622 -18.0937
-3.71989 -17.2301
-9.56621 -32.8079
-7.01546 -9.05218
-7.41657 -38.5993
-4.07882 -17.7814
-3.82646 -18.794
-1.06834 -19.0481
-9.22157 -35.2753
-7.40976 -18.2202
-5.51664 -21.7947
-2.15012 -19.9311
-16.4913 -30.6069
-7.11016 -30.715
0.275444 -15.3822
-1.08251 -16.287
-5.901 -15.3449
-8.83252 -16.6989
0.551185 -11.3517
0.855738 -9.52849
0.728559 -11.0926
0.923694 -7.3828
0.95683 -8.13445
0.303836 -10.3784
-0.40634 -12.1316
0.191932 -13.7507
0.733284 -10.4905
-3.96501 -10.8177
-4.83933 -10.6844
-4.85197 -11.9374
-4.30912 -9.87944
-4.79535 -10.8903
-6.044 -12.9779
-5.8455 -13.2029
-2.05938 -11.6359
-2.90469 -11.0352
-0.223349 -14.5683
0.303955 -13.1209
-0.329839 -15.2298
0.645456 -10.659
-1.23477 -18.9585
-2.1626 -15.4438
-0.709884 -13.3498
-6.37642 -23.6212
-9.64579 -24.4607
-11.3997 -19.8435
-13.1551 -37.9696
-16.6954 -32.1843
-8.66144 -18.2865
-8.92748 -17.3913
-3.99873 -20.5147
-1.71356 -23.3302
-6.95235 -14.2584
-6.20058 -12.9838
-5.80189 -13.3859
-5.05331 -12.7081
-5.35812 -12.0982
-4.04648 -12.9051
-4.64402 -14.3523
-7.99586 -15.5178
-6.49672 -14.863
-6.55025 -20.2076
-5.74304 -22.022
-2.79817 -21.4386
-1.42181 -17.9321
-5.58279 -17.6964
-5.51863 -15.893
-4.8544 -14.7029
-4.2917 -13.7172
-1.75385 -14.593
-3.95634 -20.7146
-7.37575 -21.9545
-8.18752 -18.0557
-6.44372 -15.7162
-2.36694 -17.7431
-5.71794 -14.0743
-4.77647 -12.7363
-2.54993 -13.3128
-4.16005 -11.8117
-1.52252 -10.3311
-0.73692 -9.78198
-1.53268 -9.27925
-1.56489 -8.41153
-0.760548 -7.79309
-2.32908 -9.00973
0.0794116 -12.1558
0.5403 -10.4697
0.912611 -10.8109
0.376353 -9.98306
0.817466 -9.21286
0.857083 -8.95393
-1.07787 -12.4289
-1.43651 -10.5402
-0.388712 -10.596
-1.20071 -11.3028
0.11147 -9.42485
-2.4587 -12.4128
-3.44955 -10.5494
-1.96244 -10.0196
-0.199244 -8.90709
-1.15791 -9.37626
-2.35898 -8.27649
-2.86508 -9.5036
0.293475 -8.53106
-0.797418 -8.5754
-1.06284 -7.81562
-0.359364 -7.44316
0.0131963 -8.6129
0.423269 -7.85964
-0.175851 -7.88817
0.898242 -7.29134
0.716813 -6.74527
-0.206585 -7.02224
0.106407 -9.60756
0.0393043 -6.93941
-0.438113 -4.00642
0.236733 -6.36918
-0.658243 -2.28137
-0.276369 -1.90814
0.420253 -5.06804
-0.419344 -8.89183
-1.31587 -2.32038
-0.77908 -2.14263
-1.42556 -4.78886
-0.678865 -0.184249
-0.776667 -9.25665
-1.88319 -2.30873
-1.17593 -0.767357
-2.45791 -7.29358
-3.86713 -3.3881
-1.46531 -12.0586
-1.17066 -0.0495699
-1.81202 -0.442561
0.0724693 -3.19855
-0.114718 -1.88491
0.0796482 -1.46335
-4.36739 3.12304
-9.0665 -15.1334
0.11077 -1.49081
0.537898 -4.59604
-3.48013 -8.09073
-1.4841 -15.583
-4.62619 -5.52005
-1.47247 -0.0136959
-2.33492 0.989121
-0.250082 -2.89817
0.0243844 -1.47384
-0.200759 -1.43411
0.0840744 -1.51296
-4.12012 6.74361
-9.15417 -12.8452
0.418955 -5.24265
0.152108 -0.881368
0.0381405 -0.456838
0.0526897 -0.532796
0.029689 -0.446205
-0.00281392 -0.199332
-0.0126738 -0.184796
0.0643278 -0.546137
0.285019 -1.3563
0.279362 -1.26536
0.190476 -0.924713
0.0700677 -0.554717
0.0117665 -0.433267
0.0500477 -0.543254
-0.0223151 -0.151047
-0.0169632 -0.164197
0.327246 -1.41354
0.324648 -1.23209
0.0877529 -0.609408
0.0781599 -0.6139
0.055857 -0.595494
-0.00462563 -0.141165
-0.0240325 -0.112603
0.0982098 -0.627726
0.533605 -1.91162
0.550166 -1.84554
0.369348 -1.38162
0.125293 -0.724483
0.0957162 -0.610457
0.149058 -0.746037
-0.107039 -0.10039
-0.109292 -0.0801597
0.582404 -2.05947
0.385549 -1.53565
0.107611 -0.786134
0.161724 -0.804463
0.138336 -0.807608
-0.148685 -0.0521485
-0.140483 -0.0444214
0.133858 -0.783588
0.604276 -2.24386
0.53844 -2.26282
0.358845 -1.82491
0.16838 -1.15732
0.160376 -0.832049
0.182457 -1.13458
-0.178937 -0.0233929
-0.155196 -0.0197486
0.588958 -2.57474
0.35887 -1.91596
0.146561 -0.789703
0.1874 -1.26628
0.13011 -0.781315
-0.105605 -0.103985
-0.0724184 -0.134123
0.190285 -1.21445
0.689338 -3.09097
0.624332 -2.62003
0.397874 -1.5698
0.185338 -0.870263
0.10058 -0.760351
0.151835 -0.844417
-0.0578329 -0.155387
-0.0545171 -0.264795
0.707114 -2.69634
0.381504 -1.39273
0.0971145 -0.622384
0.126267 -0.739205
0.0826357 -0.612889
-0.0102432 -0.204474
-0.0669901 -0.375479
0.152737 -0.757303
0.599555 -2.07001
0.565741 -1.89722
0.170571 -0.876103
0.038361 -0.487233
0.0269278 -0.426783
0.0558673 -0.500594
-0.0860171 -0.118466
-0.0971056 -0.11123
0.00412638 -0.419412
0.300758 -1.17524
0.307201 -1.26201
0.160056 -0.903965
0.0466274 -0.511912
0.0516702 -0.497642
0.0558672 -0.522909
-0.113554 -0.0759461
-0.123026 -0.0660248
0.0419999 -0.48973
0.270787 -1.24529
0.258567 -1.26828
-0.157575 -0.0367443
0.0294176 -0.444268
0.0371074 -0.459727
0.0389591 -0.468265
0.196234 -1.12494
-0.136459 -0.0294498
-3.73005 -14.4969
-1.16987 -14.8837
-1.66216 -12.8362
0.627865 -3.31799
0.610946 -3.66667
0.316189 -2.47423
0.939564 -5.30892
0.856281 -3.70157
-4.18595 -15.8908
-4.54064 -18.2993
-7.35054 -16.7609
0.667441 -3.85686
0.254042 -2.71025
0.566507 -4.06474
0.80251 -6.73312
0.945835 -4.66768
-3.43193 -17.6548
-1.55784 -16.3347
-4.05453 -15.5574
-2.22098 -15.5986
0.380148 -1.80279
0.272201 -1.36428
0.151978 -0.949432
0.241195 -1.36288
0.463439 -1.73355
0.283542 -1.14984
0.420763 -1.65267
0.503148 -2.01275
0.668135 -2.42247
0.635088 -2.33772
0.420263 -1.54244
0.665089 -2.22533
0.802135 -2.85251
0.818845 -3.06871
0.680993 -2.30756
0.443279 -1.6178
0.684955 -2.465
0.92129 -3.57861
0.821923 -2.93544
0.293366 -1.30877
0.175593 -0.919915
0.317623 -1.29828
0.426982 -1.67118
0.392432 -1.68956
0.193689 -1.08263
0.128276 -0.826964
0.226401 -1.15727
0.320677 -1.53989
0.281565 -1.50351
-3.16149 -9.79262
-3.23348 -8.87375
1.22413 -5.8129
1.05623 -5.82528
1.03102 -4.73435
1.05139 -6.78013
0.94537 -3.97801
1.11589 -5.63166
1.08837 -6.70442
-4.01125 -11.7791
-4.5509 -10.961
0.461434 -2.10815
0.428578 -2.15436
0.407509 -2.18866
0.478551 -2.53581
0.747744 -3.22355
0.736422 -2.88699
0.62849 -2.57592
0.812468 -3.07711
0.537709 -2.32625
0.708932 -3.42494
0.802786 -3.78469
1.08604 -4.63282
1.02971 -3.88824
0.967426 -3.73598
0.921765 -3.38913
1.08191 -5.22882
1.09986 -4.63302
0.974977 -3.64113
1.05819 -4.13907
0.913656 -3.30707
1.08176 -4.52109
1.09926 -5.30818
1.02438 -4.74466
0.744705 -2.84537
0.624554 -2.26872
0.735072 -2.61304
0.549826 -2.00217
0.505167 -1.833
0.672087 -2.35346
0.812356 -2.92044
0.814992 -3.30739
0.720011 -2.90756
0.413773 -1.93194
0.371534 -1.8439
0.365275 -1.91397
0.463853 -2.54847
1.1836 -8.12337
0.975342 -7.8351
0.751242 -9.18439
0.619127 -3.08329
0.578194 -2.68943
0.54483 -2.85711
0.501812 -2.9208
0.641307 -3.62758
0.997049 -4.60279
0.940892 -3.94251
0.905978 -4.18073
0.813909 -4.43567
0.97103 -5.57551
0.893641 -3.75502
0.934211 -3.65634
0.981831 -4.20302
0.968629 -4.88604
0.845756 -3.87008
0.832925 -6.1124
0.517586 -6.49598
0.215512 -6.53626
0.448521 -5.90734
0.333295 -7.19618
0.733718 -6.69215
0.52093 -7.57904
0.781693 -5.94366
1.0087 -6.16756
0.879467 -7.86762
-0.00565577 -6.62806
0.614682 -4.06976
0.534986 -3.68099
0.41764 -3.67902
0.368057 -4.51558
0.633896 -5.46346
0.793914 -5.37058
0.771179 -4.94772
0.685078 -4.48107
0.406946 -5.44794
0.731675 -4.75056
0.817867 -4.32307
0.839709 -4.75414
0.745483 -3.84024
0.880274 -5.31904
0.581427 -5.2553
0.543455 -4.7994
0.696241 -3.34839
0.66706 -3.80316
0.520969 -3.65324
0.530997 -3.08256
0.670486 -5.76032
0.432336 -5.87536
0.529459 -4.57777
0.42944 -4.96686
0.617266 -2.49113
0.512027 -2.09322
0.533666 -2.09988
0.470019 -2.07792
0.67567 -2.95741
0.544382 -2.77764
0.518167 -2.38513
0.606462 -2.88724
0.431345 -1.51894
0.29338 -1.14637
0.469636 -1.66916
0.0457521 -0.50926
0.338329 -1.31597
0.00291238 -0.410113
0.0445858 -0.508174
0.203484 -0.916538
-0.181724 -0.0219835
-0.153061 -0.0105855
1.17069 -7.95427
1.11113 -6.13403
0.99959 -7.5078
1.09311 -5.28969
0.98536 -7.90443
1.07537 -6.07049
1.20084 -5.9486
1.10052 -6.87271
0 0
0 0
0 0
0 0
0 0
0 0
0 0
0 0
0 0
0 0
0 0
0 0
0 0
0 0
0 0
0 0
0 0
0 0
0 0
0 0
0 0
0 0
0 0
0 0
0 0
0 0
0 0
0 0
0 0
0 0
0 0
0 0
0 0
0 0
0 0
0 0
0 0
0 0
0 0
0 0
0 0
0 0
0 0
0 0
0 0
0 0
0 0
0 0
0 0
0 0
0 0
0 0
0 0
0 0
0 0
0 0
0 0
0 0
0 0
0 0
0 0
0 0
0 0
0 0
0 0
0 0
0 0
0 0
0 0
0 0
0 0
0 0
0 0
0 0
0 0
0 0
0 0
0 0
0 0
0 0
0 0
0 0
0 0
0 0
0 0
0 0
0 0
0 0
0 0
0 0
0 0
0 0
0 0
0 0
0 0
0 0
0 0
0 0
0 0
0 0
0 0
0 0
0 0
0 0
0 0
0 0
0 0
0 0
0 0
0 0
0 0
0 0
0 0
0 0
0 0
0 0
0 0
0 0
0 0
0 0
0 0
0 0
0 0
0 0
0 0
0 0
0 0
0 0
0 0
0 0
0 0
0 0
0 0
0 0
0 0
0 0
0 0
0 0
0 0
0 0
0 0
0 0
0 0
0 0
0 0
0 0
0 0
0 0
0 0
0 0
0 0
0 0
0 0
0 0
0 0
0 0
0 0
0 0
0 0
0 0
0 0
0 0
0 0
0 0
0 0
0 0
0 0
0 0
0 0
0 0
0 0
0 0
0 0
0 0
0 0
0 0
0 0
0 0
0 0
0 0
0 0
0 0
0 0
0 0
0 0
0 0
0 0
0 0
0 0
0 0
0 0
0 0
0 0
0 0
0 0
0 0
0 0
0 0
0 0
0 0
0 0
0 0
0 0
0 0
0 0
0 0
0 0
0 0
0 0
0 0
0 0
0 0
0 0
0 0
0 0
0 0
0 0
0 0
0 0
0 0
0 0
0 0
0 0
0 0
0 0
0 0
0 0
0 0
0 0
0 0
0 0
0 0
0 0
0 0
0 0
0 0
0 0
0 0
0 0
0 0
0 0
0 0
0 0
0 0
0 0
0 0
0 0
0 0
0 0
0 0
0 0
0 0
0 0
0 0
0 0
0 0
0 0
0 0
0 0
0 0
0 0
0 0
0 0
0 0
0 0
0 0
0 0
0 0
0 0
0 0
0 0
0 0
0 0
0 0
0 0
0 0
0 0
0 0
0 0
0 0
0 0
0 0
0 0
0 0
0 0
0 0
0 0
0 0
0 0
0 0
0 0
0 0
0 0
0 0
0 0
0 0
0 0
0 0
0 0
0 0
0 0
0 0
0 0
0 0
0 0
0 0
0 0
0 0
0 0
0 0
0 0
0 0
0 0
0 0
0 0
0 0
0 0
0 0
0 0
0 0
0 0
0 0
0 0
0 0
0 0
0 0
0 0
0 0
0 0
0 0
0 0
0 0
0 0
0 0
0 0
0 0
0 0
0 0
0 0
0 0
0 0
0 0
0 0
0 0
0 0
0 0
0 0
0 0
0 0
0 0
0 0
0 0
0 0
0 0
0 0
0 0
0 0
0 0
0 0
0 0
0 0
0 0
0 0
0 0
0 0
0 0
0 0
0 0
0 0
0 0
0 0
0 0
0 0
0 0
0 0
0 0
0 0
0 0
0 0
0 0
0 0
0 0
0 0
0 0
0 0
0 0
0 0
0 0
0 0
0 0
0 0
0 0
0 0
0 0
0 0
0 0
0 0
0 0
0 0
0 0
0 0
0 0
0 0
0 0
0 0
0 0
0 0
0 0
0 0
0 0
0 0
0 0
0 0
0 0
0 0
0 0
0 0
0 0
0 0
0 0
0 0
0 0
0 0
0 0
0 0
0 0
0 0
0 0
0 0
0 0
0 0
0 0
0 0
0 0
0 0
0 0
0 0
0 0
0 0
0 0
0 0
0 0
0 0
0 0
0 0
0 0
0 0
0 0
0 0
0 0
0 0
0 0
0 0
0 0
0 0
0 0
0 0
0 0
0 0
0 0
0 0
0 0
0 0
0 0
0 0
0 0
0 0
0 0
0 0
0 0
0 0
0 0
0 0
0 0
0 0
0 0
0 0
0 0
0 0
0 0
0 0
0 0
0 0
0 0
0 0
0 0
0 0
0 0
0 0
0 0
0 0
0 0
0 0
0 0
0 0
0 0
0 0
0 0
0 0
0 0
0 0
0 0
0 0
0 0
0 0
0 0
0 0
0 0
0 0
0 0
0 0
0 0
0 0
0 0
0 0
0 0
0 0
0 0
0 0
0 0
0 0
0 0
0 0
0 0
0 0
0 0
0 0
0 0
0 0
0 0
0 0
0 0
0 0
0 0
0 0
0 0
0 0
0 0
0 0
0 0
0 0
0 0
0 0
0 0
0 0
0 0
0 0
0 0
0 0
0 0
0 0
0 0
0 0
0 0
0 0
0 0
0 0
0 0
0 0
0 0
0 0
0 0
0 0
0 0
0 0
0 0
0 0
0 0
0 0
0 0
0 0
0 0
0 0
0 0
0 0
0 0
0 0
0 0
0 0
0 0
0 0
0 0
0 0
0 0
0 0
0 0
0 0
0 0
0 0
0 0
0 0
0 0
0 0
0 0
0 0
0 0
0 0
0 0
0 0
0 0
0 0
0 0
0 0
0 0
0 0
0 0
0 0
0 0
0 0
0 0
0 0
0 0
0 0
0 0
0 0
0 0
0 0
0 0
0 0
0 0
0 0
0 0
0 0
0 0
0 0
0 0
0 0
0 0
0 0
0 0
0 0
0 0
0 0
0 0
0 0
0 0
0 0
0 0
0 0
0 0
0 0
0 0
0 0
0 0
0 0
0 0
0 0
0 0
0 0
0 0
0 0
0 0
0 0
0 0
0 0
0 0
0 0
0 0
0 0
0 0
0 0
0 0
0 0
0 0
0 0
0 0
0 0
0 0
0 0
0 0
0 0
0 0
0 0
0 0
0 0
0 0
0 0
0 0
0 0
0 0
0 0
0 0
0 0
0 0
0 0
0 0
0 0
0 0
0 0
0 0
0 0
0 0
0 0
0 0
0 0
0 0
0 0
0 0
0 0
0 0
0 0
0 0
0 0
0 0
0 0
0 0
0 0
0 0
0 0
0 0
0 0
0 0
0 0
0 0
0 0
0 0
0 0
0 0
0 0
0 0
0 0
0 0
0 0
0 0
0 0
0 0
0 0
0 0
0 0
0 0
0 0
0 0
0 0
0 0
0 0
0 0
0 0
0 0
0 0
0 0
0 0
0 0
0 0
0 0
0 0
0 0
0 0
0 0
0 0
0 0
0 0
0 0
0 0
0 0
0 0
0 0
0 0
0 0
0 0
0 0
0 0
0 0
0 0
0 0
0 0
0 0
0 0
0 0
0 0
0 0
0 0
0 0
0 0
0 0
0 0
0 0
0 0
0 0
0 0
0 0
0 0
0 0
0 0
0 0
0 0
0 0
0 0
0 0
0 0
0 0
0 0
0 0
0 0
0 0
0 0
0 0
0 0
0 0
0 0
0 0
0 0
0 0
0 0
0 0
0 0
0 0
0 0
0 0
0 0
0 0
0 0
0 0
0 0
0 0
0 0
0 0
0 0
0 0
0 0
0 0
0 0
0 0
0 0
0 0
0 0
0 0
0 0
0 0
0 0
0 0
0 0
0 0
0 0
0 0
0 0
0 0
0 0
0 0
0 0
0 0
0 0
0 0
0 0
0 0
0 0
0 0
0 0
0 0
0 0
0 0
0 0
0 0
0 0
0 0
0 0
0 0
0 0
0 0
0 0
0 0
0 0
0 0
0 0
0 0
0 0
0 0
0 0
0 0
0 0
0 0
0 0
0 0
0 0
0 0
0 0
0 0
0 0
0 0
0 0
0 0
0 0
0 0
0 0
0 0
0 0
0 0
0 0
0 0
0 0
0 0
0 0
0 0
0 0
0 0
0 0
0 0
0 0
0 0
0 0
0 0
0 0
0 0
0 0
0 0
0 0
0 0
0 0
0 0
0 0
0 0
0 0
0 0
0 0
0 0
0 0
0 0
0 0
0 0
0 0
0 0
0 0
0 0
0 0
0 0
0 0
0 0
0 0
0 0
0 0
0 0
0 0
0 0
0 0
0 0
0 0
0 0
0 0
0 0
0 0
0 0
0 0
0 0
0 0
0 0
0 0
0 0
0 0
0 0
0 0
0 0
0 0
0 0
0 0
0 0
0 0
0 0
0 0
0 0
0 0
0 0
0 0
0 0
0 0
0 0
0 0
0 0
0 0
0 0
0 0
0 0
0 0
0 0
0 0
0 0
0 0
0 0
0 0
0 0
0 0
0 0
0 0
0 0
0 0
0 0
0 0
0 0
0 0
0 0
0 0
0 0
0 0
0 0
0 0
0 0
0 0
0 0
0 0
0 0
0 0
0 0
0 0
0 0
0 0
0 0
0 0
0 0
0 0
0 0
0 0
0 0
0 0
0 0
0 0
0 0
0 0
0 0
0 0
0 0
0 0
0 0
0 0
0 0
0 0
0 0
0 0
0 0
0 0
0 0
0 0
0 0
0 0
0 0
0 0
0 0
0 0
0 0
0 0
0 0
0 0
0 0
0 0
0 0
0 0
0 0
0 0
0 0
0 0
0 0
0 0
0 0
0 0
0 0
0 0
0 0
0 0
0 0
0 0
0 0
0 0
0 0
0 0
0 0
0 0
0 0
0 0
0 0
0 0
0 0
0 0
0 0
0 0
0 0
0 0
0 0
0 0
0 0
0 0
0 0
0 0
0 0
0 0
0 0
0 0
0 0
0 0
0 0
0 0
0 0
0 0
0 0
0 0
0 0
0 0
0 0
0 0
0 0
0 0
0 0
0 0
0 0
0 0
0 0
0 0
0 0
0 0
0 0
0 0
0 0
0 0
0 0
0 0
0 0
0 0
0 0
0 0
0 0
0 0
0 0
0 0
0 0
0 0
0 0
0 0
0 0
0 0
0 0
0 0
0 0
0 0
0 0
0 0
0 0
0 0
0 0
0 0
0 0
0 0
0 0
0 0
0 0
0 0
0 0
0 0
0 0
0 0
0 0
0 0
0 0
0 0
0 0
0 0
0 0
0 0
0 0
0 0
0 0
0 0
0 0
0 0
0 0
0 0
0 0
0 0
0 0
0 0
0 0
0 0
0 0
0 0
0 0
0 0
0 0
0 0
0 0
0 0
0 0
0 0
0 0
0 0
0 0
0 0
0 0
0 0
0 0
0 0
0 0
0 0
0 0
0 0
0 0
0 0
0 0
0 0
0 0
0 0
0 0
0 0
0 0
0 0
0 0
0 0
0 0
0 0
0 0
0 0
0 0
0 0
0 0
0 0
0 0
0 0
0 0
0 0
0 0
0 0
0 0
0 0
0 0
0 0
0 0
0 0
0 0
0 0
0 0
0 0
0 0
0 0
0 0
0 0
0 0
0 0
0 0
0 0
0 0
0 0
0 0
0 0
0 0
0 0
0 0
0 0
0 0
0 0
0 0
0 0
0 0
0 0
0 0
0 0
0 0
0 0
0 0
0 0
0 0
0 0
0 0
0 0
0 0
0 0
0 0
0 0
0 0
0 0
0 0
0 0
0 0
0 0
0 0
0 0
0 0
0 0
0 0
0 0
0 0
0 0
0 0
0 0
0 0
0 0
0 0
0 0
0 0
0 0
0 0
0 0
0 0
0 0
0 0
0 0
0 0
0 0
0 0
0 0
0 0
0 0
0 0
0 0
0 0
0 0
0 0
0 0
0 0
0 0
0 0
0 0
0 0
0 0
0 0
0 0
0 0
0 0
0 0
0 0
0 0
0 0
0 0
0 0
0 0
0 0
0 0
0 0
0 0
0 0
0 0
0 0
0 0
0 0
0 0
0 0
0 0
0 0
0 0
0 0
0 0
0 0
0 0
0 0
0 0
0 0
0 0
0 0
0 0
0 0
0 0
0 0
0 0
0 0
0 0
0 0
0 0
0 0
0 0
0 0
0 0
0 0
0 0
0 0
0 0
0 0
0 0
0 0
0 0
0 0
0 0
0 0
0 0
0 0
0 0
0 0
0 0
0 0
0 0
0 0
0 0
0 0
0 0
0 0
0 0
0 0
0 0
0 0
0 0
0 0
0 0
0 0
0 0
0 0
0 0
0 0
0 0
0 0
0 0
0 0
0 0
0 0
0 0
0 0
0 0
0 0
0 0
0 0
0 0
0 0
0 0
0 0
0 0
0 0
0 0
0 0
0 0
0 0
0 0
0 0
0 0
0 0
0 0
0 0
0 0
0 0
0 0
0 0
0 0
0 0
0 0
0 0
0 0
0 0
0 0
0 0
0 0
0 0
0 0
0 0
0 0
0 0
0 0
0 0
0 0
0 0
0 0
0 0
0 0
0 0
0 0
0 0
0 0
0 0
0 0
0 0
0 0
0 0
0 0
0 0
0 0
0 0
0 0
0 0
0 0
0 0
0 0
0 0
0 0
0 0
0 0
0 0
0 0
0 0
0 0
0 0
0 0
0 0
0 0
0 0
0 0
0 0
0 0
0 0
0 0
0 0
0 0
0 0
0 0
0 0
0 0
0 0
0 0
0 0
0 0
0 0
0 0
0 0
0 0
0 0
0 0
0 0
0 0
0 0
0 0
0 0
0 0
0 0
0 0
0 0
0 0
0 0
0 0
0 0
0 0
0 0
0 0
0 0
0 0
0 0
0 0
0 0
0 0
0 0
0 0
0 0
0 0
0 0
0 0
0 0
0 0
0 0
0 0
0 0
0 0
0 0
0 0
0 0
0 0
0 0
0 0
0 0
0 0
0 0
0 0
0 0
0 0
0 0
0 0
0 0
0 0
0 0
0 0
0 0
0 0
0 0
0 0
0 0
0 0
0 0
0 0
0 0
0 0
0 0
0 0
0 0
0 0
0 0
0 0
0 0
0 0
0 0
0 0
0 0
0 0
0 0
0 0
0 0
0 0
0 0
0 0
0 0
0 0
0 0
0 0
0 0
0 0
0 0
0 0
0 0
0 0
0 0
0 0
0 0
0 0
0 0
0 0
0 0
0 0
0 0
0 0
0 0
0 0
0 0
0 0
0 0
0 0
0 0
0 0
0 0
0 0
0 0
0 0
0 0
0 0
0 0
0 0
0 0
0 0
0 0
0 0
0 0
0 0
0 0
0 0
0 0
0 0
0 0
0 0
0 0
0 0
0 0
0 0
0 0
0 0
0 0
0 0
0 0
0 0
0 0
0 0
0 0
0 0
0 0
0 0
0 0
0 0
0 0
0 0
0 0
0 0
0 0
0 0
0 0
0 0
0 0
0 0
0 0
0 0
0 0
0 0
0 0
0 0
0 0
0 0
0 0
0 0
0 0
0 0
0 0
0 0
0 0
0 0
0 0
0 0
0 0
0 0
0 0
0 0
0 0
0 0
0 0
0 0
0 0
0 0
0 0
0 0
0 0
0 0
0 0
0 0
0 0
0 0
0 0
0 0
0 0
0 0
0 0
0 0
0 0
0 0
0 0
0 0
0 0
0 0
0 0
0 0
0 0
0 0
0 0
0 0
0 0
0 0
0 0
0 0
0 0
0 0
0 0
0 0
0 0
0 0
0 0
0 0
0 0
0 0
0 0
0 0
0 0
0 0
0 0
0 0
0 0
0 0
0 0
0 0
0 0
0 0
0 0
0 0
0 0
0 0
0 0
0 0
0 0
0 0
0 0
0 0
0 0
0 0
0 0
0 0
0 0
0 0
0 0
0 0
0 0
0 0
0 0
0 0
0 0
0 0
0 0
0 0
0 0
0 0
0 0
0 0
0 0
0 0
0 0
0 0
0 0
0 0
0 0
0 0
0 0
0 0
0 0
0 0
0 0
0 0
0 0
0 0
0 0
0 0
0 0
0 0
0 0
0 0
0 0
0 0
0 0
0 0
0 0
0 0
0 0
0 0
0 0
0 0
0 0
0 0
0 0
0 0
0 0
0 0
0 0
0 0
0 0
0 0
0 0
0 0
0 0
0 0
0 0
0 0
0 0
0 0
0 0
0 0
0 0
0 0
0 0
0 0
0 0
0 0
0 0
0 0
0 0
0 0
0 0
0 0
0 0
0 0
0 0
0 0
0 0
0 0
0 0
0 0
0 0
0 0
0 0
0 0
0 0
0 0
0 0
0 0
0 0
0 0
0 0
0 0
0 0
0 0
0 0
0 0
0 0
0 0
0 0
0 0
0 0
0 0
0 0
0 0
0 0
0 0
0 0
0 0
0 0
0 0
0 0
0 0
0 0
0 0
0 0
0 0
0 0
0 0
0 0
0 0
0 0
0 0
0 0
0 0
0 0
0 0
0 0
0 0
0 0
0 0
0 0
0 0
0 0
0 0
0 0
0 0
0 0
0 0
0 0
0 0
0 0
0 0
0 0
0 0
0 0
0 0
0 0
0 0
0 0
0 0
0 0
0 0
0 0
0 0
0 0
0 0
0 0
0 0
0 0
0 0
0 0
0 0
0 0
0 0
0 0
0 0
0 0
0 0
0 0
0 0
0 0
0 0
0 0
0 0
0 0
0 0
0 0
0 0
0 0
0 0
0 0
0 0
0 0
0 0
0 0
0 0
0 0
0 0
0 0
0 0
0 0
0 0
0 0
0 0
0 0
0 0
0 0
0 0
0 0
0 0
0 0
0 0
0 0
0 0
0 0
0 0
0 0
0 0
0 0
0 0
0 0
0 0
0 0
0 0
0 0
0 0
0 0
0 0
0 0
0 0
0 0
0 0
0 0
0 0
0 0
0 0
0 0
0 0
0 0
0 0
0 0
0 0
0 0
0 0
0 0
0 0
0 0
0 0
0 0
0 0
0 0
0 0
0 0
0 0
0 0
0 0
0 0
0 0
0 0
0 0
0 0
0 0
0 0
0 0
0 0
0 0
0 0
0 0
0 0
0 0
0 0
0 0
0 0
0 0
0 0
0 0
0 0
0 0
0 0
0 0
0 0
0 0
0 0
0 0
0 0
0 0
0 0
0 0
0 0
0 0
0 0
0 0
0 0
0 0
0 0
0 0
0 0
0 0
0 0
0 0
0 0
0 0
0 0
0 0
0 0
0 0
0 0
0 0
0 0
0 0
0 0
0 0
0 0
0 0
0 0
0 0
0 0
0 0
0 0
0 0
0 0
0 0
0 0
0 0
0 0
0 0
0 0
0 0
0 0
0 0
0 0
0 0
0 0
0 0
0 0
0 0
0 0
0 0
0 0
0 0
0 0
0 0
0 0
0 0
0 0
0 0
0 0
0 0
0 0
0 0
0 0
0 0
0 0
0 0
0 0
0 0
0 0
0 0
0 0
0 0
0 0
0 0
0 0
0 0
0 0
0 0
0 0
0 0
0 0
0 0
0 0
0 0
0 0
0 0
0 0
0 0
0 0
0 0
0 0
0 0
0 0
0 0
0 0
0 0
0 0
0 0
0 0
0 0
0 0
0 0
0 0
0 0
0 0
0 0
0 0
0 0
0 0
0 0
0 0
0 0
0 0
0 0
0 0
0 0
0 0
0 0
0 0
0 0
0 0
0 0
0 0
0 0
0 0
0 0
0 0
0 0
0 0
0 0
0 0
0 0
0 0
0 0
0 0
0 0
0 0
0 0
0 0
0 0
0 0
0 0
0 0
0 0
0 0
0 0
0 0
0 0
0 0
0 0
0 0
0 0
0 0
0 0
0 0
0 0
0 0
0 0
0 0
0 0
0 0
0 0
0 0
0 0
0 0
0 0
0 0
0 0
0 0
0 0
0 0
0 0
0 0
0 0
0 0
0 0
0 0
0 0
0 0
0 0
0 0
0 0
0 0
0 0
0 0
0 0
0 0
0 0
0 0
0 0
0 0
0 0
0 0
0 0
0 0
0 0
0 0
0 0
0 0
0 0
0 0
0 0
0 0
0 0
0 0
0 0
0 0
0 0
0 0
0 0
0 0
0 0
0 0
0 0
0 0
0 0
0 0
0 0
0 0
0 0
0 0
0 0
0 0
0 0
0 0
0 0
0 0
0 0
0 0
0 0
0 0
0 0
0 0
0 0
0 0
0 0
0 0
0 0
0 0
0 0
0 0
0 0
0 0
0 0
0 0
0 0
0 0
0 0
0 0
0 0
0 0
0 0
0 0
0 0
0 0
0 0
0 0
0 0
      </DataArray> 
      <DataArray type="Float64" NumberOfComponents="1" Name="CauchyShearStress" format="ascii">
-0.671096
0.584687
-0.190152
0.052712
0.0314549
0.0405864
0.0276972
0.011505
-0.0076363
-0.0107421
-0.00994656
-0.0141969
-0.0184942
-0.0136866
-0.00682012
-0.00506608
-0.00509392
0.00297741
0.00977859
0.00983462
0.0080771
0.0140525
0.0161584
0.00733569
-0.00388742
-0.00542038
-0.0149232
-0.0599517
-0.0752113
-0.0969382
0.0554109
0.00502762
0.0330786
0.0744111
-0.777681
0.00545528
0.0272444
0.032053
0.0307677
0.0155613
0.0159198
0.0264117
0.0385949
0.0385105
0.0527026
0.0452625
0.0586945
0.0723746
0.0810774
0.0811566
0.0866332
0.0883359
0.0916273
0.0360638
-0.0196503
-0.0391626
-0.060357
-0.076585
-0.0922692
0.14665
0.11661
0.168174
0.3315
-3.74266
-1.88858
-0.809798
-1.20806
-1.48874
-2.12744
0.0277232
-3.57809
-3.11073
-2.39024
3.78896
-0.331685
-2.48278
3.7728
-0.873022
1.94735
0.838811
1.22134
1.49403
2.13114
-0.0461364
-0.152213
-0.18813
-0.389525
-0.000385834
-0.0123925
0.0391229
0.0661171
0.114152
0.117452
0.0153779
-0.0227106
-0.0401204
-0.0585417
-0.0743517
-0.0839933
-0.0908434
-0.0943998
-0.101103
-0.0906307
-0.0882791
-0.085757
-0.0776539
-0.0786344
-0.0605811
-0.0410281
-0.032451
-0.0363399
0.0702205
0.139929
0.807656
0.250921
-2.00925
-1.19966
-2.07859
2.32373
1.3064
0.575783
0.529878
-0.459858
-0.0453215
-1.95987
1.9599
-0.454773
-0.476569
-0.959206
-0.900859
1.02576
-0.796014
0.895235
-0.876788
-0.897896
0.972112
0.977416
-0.767384
-0.730369
-0.868858
-0.419499
0.313736
0.436146
0.989172
0.817548
1.1125
-1.00806
-1.172
-1.22656
-1.17258
1.28778
1.08349
-0.438231
0.0958675
0.404605
-0.745181
0.774923
-0.555266
-0.659173
-0.759163
-0.690717
0.731875
0.838617
0.753076
0.589242
-0.706253
-0.737122
-0.631668
-0.321277
0.135792
0.639195
-0.66775
-0.658464
0.765225
0.781986
0.686155
0.670059
0.778541
1.06746
-0.94654
-1.10874
-0.868146
-1.28299
-1.4187
1.26859
0.738076
-0.499027
-0.343636
-0.0346716
-0.169068
0.130691
0.323654
0.22759
0.455405
-0.664428
-0.680869
0.667708
0.679768
-0.517869
-0.441977
-0.494734
-0.442624
-0.504417
-0.626468
0.671119
0.572284
0.506809
0.526918
0.449487
0.513875
-0.647738
-0.627031
-0.881081
0.0171961
0.495163
-0.415586
0.469518
0.646283
0.599739
1.32425
-1.61343
-0.370475
-1.75597
1.84409
1.48154
1.0557
-0.501183
-0.374882
-0.133481
0.0934134
0.284093
0.455461
-0.630874
0.615285
-0.429141
-0.305061
-0.442585
0.464066
0.332959
0.441953
-0.508033
-0.55607
-0.571265
-0.525694
-0.296336
-0.223486
-2.22996
-0.398044
1.74538
-0.0626519
0.0649658
0.349933
0.477744
0.529812
0.531197
0.4275
1.78399
-1.76461
0.203779
0.625607
-2.18026
-0.548322
-0.454532
2.02726
0.68417
-0.473476
-0.463014
-0.35556
-0.433954
-0.181129
-0.263039
0.0222962
-0.0563068
0.171184
0.104552
0.345575
0.26584
0.467841
0.406943
-0.492803
-0.573076
-0.596554
0.494352
0.566746
0.565983
0.445994
-0.402496
-0.180572
-0.17653
-0.286972
0.293299
0.212127
0.193967
0.428236
-0.293976
-0.412407
-0.365225
-0.294252
-0.110794
-3.8266
-1.50192
-0.120848
0.957574
4.06836
0.281814
-0.27764
0.284673
0.465421
0.298638
2.83088
1.49338
-2.39319
-1.51056
1.49723
-2.5055
0.158931
-1.13955
1.2051
1.72961
-0.475048
-0.310525
-0.169199
-0.0335794
0.0902072
0.214044
0.385411
-0.535045
-0.404004
0.45492
0.451756
-0.236708
-0.189819
-0.468496
0.368832
0.147811
0.245704
-0.309849
0.34696
-0.0878191
-0.169513
-0.149016
-0.217917
-0.16534
-0.195422
-0.160287
-0.129098
-0.069099
-7.20955
-1.103
0.898902
6.49228
0.0173756
0.131878
0.302052
0.415043
0.939594
-0.809216
-0.413701
-0.268347
-0.118677
0.0101035
0.1027
0.143014
0.12314
0.208144
0.0785701
0.10631
0.12528
0.137905
2.22302
3.62004
1.98737
-2.17297
-2.83331
-3.61063
1.51877
1.92628
1.93842
-1.3624
-2.93634
-2.14376
-0.258768
-0.43674
-0.191653
-0.167436
-0.169775
-0.119658
-0.111432
-0.119016
-0.0638639
-0.0431704
-0.0552661
0.00642229
0.0275544
0.0172147
0.0711017
0.0861065
0.0808462
0.125455
0.124002
0.131284
0.214251
0.428157
0.234154
-0.110458
-0.100769
0.160432
0.176841
-0.516817
-0.551517
0.489792
0.497765
0.516894
-0.0835395
-0.164424
0.187902
0.128775
-0.177481
0.162427
-0.252542
-0.202044
0.17697
0.223387
-0.389782
-0.802878
-0.40279
0.394676
0.421321
0.6528
0.553056
-0.646687
0.390015
-0.439085
0.0114342
0.00335222
0.545624
-0.576271
0.344011
-0.224783
0.493091
0.284851
0.150131
0.0328062
-0.0998629
-0.237515
-0.392711
-0.492381
-1.72493
2.50365
-2.75754
2.79784
0.264798
0.355376
0.0652271
-0.653716
0.782167
0.0285658
3.05726
-3.76579
-0.170306
-0.359758
-0.46339
-0.366396
0.303248
-0.404137
1.38122
-0.763771
-0.318311
0.365695
0.33124
-0.278115
-0.354561
0.595756
0.602945
-0.6385
-0.59066
0.503285
0.386061
0.184739
0.000148126
-0.268542
-0.4664
-0.509876
1.50501
0.290317
-0.555142
-0.360615
-1.51148
1.02365
0.611032
0.601782
0.346688
-0.385801
-0.462836
-0.671221
1.44862
-1.31962
0.516417
0.712326
0.804955
-0.71346
-0.630309
-0.526148
0.726034
-0.724687
0.267848
-0.0755804
1.0478
-1.46266
0.929576
-0.928006
0.849596
-0.78774
1.11965
-1.00802
-0.805246
-3.69265
-0.440748
-4.54531
-3.17968
-0.536619
-2.27408
0.394141
2.83129
5.88916
0.586362
3.59003
3.08147
-3.36108
-5.12858
-5.27332
-5.16577
-2.78736
-3.55354
-4.04737
-3.05122
-2.93256
-2.82576
-3.28613
-2.49707
-4.30275
-5.3888
-1.82564
-2.49828
3.0684
5.36035
4.87011
4.06478
2.80643
3.57414
3.05993
2.64916
3.06091
2.84869
2.53294
3.30403
1.85157
4.33426
5.41527
2.53351
2.84722
0.264468
0.994411
0.327145
8.71079
2.36219
9.93039
4.30611
1.80753
-3.34635
-1.32639
-0.299967
-10.1854
-8.52613
-3.88818
-0.426084
-2.29673
-5.08019
2.83241
2.92496
0.582206
1.70682
-0.39473
2.16923
1.56695
-2.64838
-1.56541
-3.62705
0.315614
0.519841
-0.584946
-2.23769
-0.0181612
0.202604
-1.90088
-2.28387
-1.03577
0.263216
1.46025
-0.842647
2.2533
1.40077
3.93637
5.76973
5.71684
3.88189
4.18424
3.08794
3.16226
0.413957
0.350602
1.05521
-0.0258097
1.87161
0.276403
-0.223402
-0.826927
-1.44633
-0.564757
-2.49208
-0.851718
-3.45742
-5.50025
-5.84068
-3.62541
-4.10664
-3.02998
-2.89272
1.97717
2.27419
1.71259
1.77971
-1.54483
-2.45096
-1.17044
-1.62084
1.65921
1.88914
1.74397
1.68965
1.61333
1.56727
1.81017
1.16563
1.3739
1.6398
1.38336
-1.54511
-1.32294
-1.3544
-1.21334
-0.890556
-1.49329
0.907437
1.02338
1.0441
0.757294
0.759554
0.658177
0.551478
0.41777
-0.358302
-0.193841
-0.162144
-0.0251244
0.189903
-0.199137
-0.838567
-0.996148
-0.763254
-1.16873
-0.587108
-0.503664
-0.659086
-0.474172
-0.358706
-0.496246
-0.255404
-0.513644
-0.580165
2.3993
2.07309
2.55195
2.30283
3.10452
3.58427
2.90528
1.55261
2.13935
1.47927
7.51901
8.59463
-1.45361
-2.10613
-1.51757
-2.27714
-7.25836
-8.34953
-2.87232
-2.50128
-2.02833
-2.41845
2.71808
0.442479
1.12654
0.798626
1.31588
0.142646
2.38437
1.38405
0.80202
2.11077
2.04624
1.75795
1.75884
2.83882
2.71175
1.9193
3.13581
-2.90863
-1.7451
-2.63363
-1.35945
-3.06402
-1.92001
-1.84019
-2.21774
-1.31002
-2.96956
-1.86193
-1.65763
-1.05072
-0.757502
-0.650385
-0.794151
-0.363328
-0.396084
-1.34207
-1.88218
-1.39
-1.68539
-1.93425
-2.08485
-1.98081
-2.06871
-1.7273
-1.81269
-1.6488
0.127466
0.379816
0.241084
0.647911
-0.119825
0.0457827
0.421838
-0.07448
2.14367
2.65242
1.38727
3.05071
2.44307
1.1351
0.748787
0.946975
2.45197
4.22059
3.65095
4.4586
2.73609
3.5925
4.47211
2.76555
-6.00415
-9.61222
-7.1065
-3.97482
-6.94343
-15.1758
10.3459
3.65109
6.90043
6.6225
2.71203
14.2708
2.98958
0.678511
0.826062
0.483351
-5.31993
-3.52681
-0.0546484
2.14088
1.24448
-0.976284
-1.22469
-0.0169018
-1.98555
-1.12686
0.635998
1.28224
-0.882646
-2.60905
2.4624
1.84445
2.15243
1.72057
1.53456
1.37848
2.2668
2.2892
2.46077
-0.436744
1.47029
0.991828
1.51226
-0.17564
-2.16882
-1.05829
-2.4401
-1.06643
-2.12327
4.90364
1.06308
0.450556
-1.36147
-1.41314
2.45159
-1.44583
-1.41145
-2.36653
-0.742867
-1.40923
-2.44968
-2.73502
-1.34436
-0.20532
0.933383
-2.07309
-1.79424
-1.54558
0.0623145
0.160738
-0.219084
-0.304128
-0.844033
0.0903255
1.26262
-0.611366
0.321467
0.622312
0.465087
0.904596
0.904066
0.846701
2.00984
1.73014
1.9975
1.88263
1.61581
2.15963
-0.560648
-0.247121
0.524541
-0.812626
-0.0305303
1.45788
-1.77281
-2.02745
-1.43212
-1.80515
-1.08091
-2.48378
-2.30271
-2.23203
-1.42923
-1.8357
-2.06358
-2.19473
-0.952307
-1.67183
-1.72392
-1.3962
1.18667
0.904401
1.36224
0.458531
0.659303
1.27501
1.15456
-2.7683
-2.63178
-2.3196
-1.71405
-1.30236
-1.95376
-3.34577
-2.20137
-1.81729
-3.74274
-0.495292
-3.82597
-2.64017
-0.769223
-4.22745
-4.04006
-5.15523
-0.826871
-1.09646
-1.73423
-1.09422
-0.786611
-2.89866
-10.131
-0.662143
-1.57367
5.20993
6.21885
4.9069
1.03467
1.27815
1.74562
0.875428
0.905818
0.711059
2.89137
9.58119
2.03458
0.165992
0.0238356
0.0522603
0.0135325
-0.0234361
-0.00995671
0.0701884
0.289111
0.234641
0.133528
0.0336891
0.0111218
0.0298013
-0.00599172
-0.0233183
0.248902
0.049871
0.00527775
0.023834
0.00448799
-0.0231184
-0.01303
0.0308056
0.0965625
0.0356077
-0.0465408
-0.0343246
-0.00285201
-0.0467824
0.0987438
0.0926885
-0.0417523
-0.322315
-0.135726
-0.106499
-0.162498
0.0749675
0.0605137
-0.0834301
-0.456106
-0.527931
-0.606465
-0.365311
-0.202214
-0.438537
0.0349796
0.0157323
-0.726405
0.671618
0.193163
0.41961
0.155347
-0.0985209
-0.115976
0.512209
0.871637
0.612713
0.342381
0.120979
0.136598
0.0969541
-0.114916
-0.0704843
0.532556
0.0648685
0.00783584
0.0370935
0.00473519
-0.0456394
0.000445062
0.0500893
0.0924224
0.0270255
-0.0983297
-0.0165385
-0.00369191
-0.0298904
0.0866546
0.0859709
0.00458963
-0.117392
-0.155918
-0.174527
-0.0480859
-0.0411706
-0.0622409
0.0840853
0.0769763
-0.0321151
-0.258421
-0.281413
0.08386
-0.0371102
-0.0460554
-0.0614692
-0.312463
0.0589584
2.92096
1.52081
1.80751
-0.979177
-1.25648
-1.07773
-1.41897
-0.889293
-2.34138
-2.68579
-2.90335
1.19674
1.21615
1.52974
1.95213
1.12168
-0.0333924
-1.51311
-0.0825993
1.03414
0.405305
0.334424
0.231084
0.375702
0.195608
0.121075
0.213339
0.323237
0.180138
-0.288895
-0.181731
-0.198881
-0.0896366
-0.45339
0.209154
0.206449
0.313101
0.499758
0.139157
-0.234357
-0.142328
-0.209916
-0.228096
-0.324948
-0.272081
-0.179527
-0.280054
-0.358337
-0.409689
2.25904
2.12719
-0.510713
-0.882574
-0.771542
-1.0916
-0.572042
-0.101029
-0.0772834
-2.48133
-2.18335
0.441884
0.500265
0.532104
0.571525
0.419104
0.312199
0.383576
0.201707
0.417714
0.534232
0.471555
-0.171315
-0.368794
-0.117405
0.0584378
0.164829
0.0584962
0.126813
0.247119
-0.0122851
0.512354
-0.0854921
-0.211796
-0.267605
-0.196993
-0.163317
-0.229301
-0.147322
-0.0526321
-0.0881245
-0.339036
-0.377287
-0.441471
-0.4441
-0.492247
-0.603157
-0.496378
0.0445511
0.22732
0.561536
0.501626
0.583206
0.633049
0.630252
0.25304
0.225777
0.401998
0.546795
0.394033
-0.317879
-0.153487
-0.237356
-0.386619
-0.443489
0.528631
0.883369
1.06142
0.88833
-1.04957
-0.643539
-0.816854
-0.617232
-0.353283
-0.443023
-1.16226
0.691
0.707268
0.758553
0.847784
0.753299
0.609646
0.616513
0.677632
0.901363
-0.66361
-0.542823
-0.541789
-0.566297
-0.518843
-0.793904
-0.795604
-0.541368
-0.649545
-0.719265
-0.646724
-0.748438
-0.908365
0.781907
0.845489
-0.371952
-0.371526
-0.301321
-0.411994
-0.463592
-0.578115
-0.487414
-0.539988
-0.0738949
-0.020561
-0.0408124
-0.00701844
-0.105326
-0.00163611
-0.00489719
-0.0601735
0.0470211
0.0221698
0.602382
0.999377
1.11071
0.661207
0.00568341
-0.0837067
0.370029
0.0599075
0
0
0
0
0
0
0
0
0
0
0
0
0
0
0
0
0
0
0
0
0
0
0
0
0
0
0
0
0
0
0
0
0
0
0
0
0
0
0
0
0
0
0
0
0
0
0
0
0
0
0
0
0
0
0
0
0
0
0
0
0
0
0
0
0
0
0
0
0
0
0
0
0
0
0
0
0
0
0
0
0
0
0
0
0
0
0
0
0
0
0
0
0
0
0
0
0
0
0
0
0
0
0
0
0
0
0
0
0
0
0
0
0
0
0
0
0
0
0
0
0
0
0
0
0
0
0
0
0
0
0
0
0
0
0
0
0
0
0
0
0
0
0
0
0
0
0
0
0
0
0
0
0
0
0
0
0
0
0
0
0
0
0
0
0
0
0
0
0
0
0
0
0
0
0
0
0
0
0
0
0
0
0
0
0
0
0
0
0
0
0
0
0
0
0
0
0
0
0
0
0
0
0
0
0
0
0
0
0
0
0
0
0
0
0
0
0
0
0
0
0
0
0
0
0
0
0
0
0
0
0
0
0
0
0
0
0
0
0
0
0
0
0
0
0
0
0
0
0
0
0
0
0
0
0
0
0
0
0
0
0
0
0
0
0
0
0
0
0
0
0
0
0
0
0
0
0
0
0
0
0
0
0
0
0
0
0
0
0
0
0
0
0
0
0
0
0
0
0
0
0
0
0
0
0
0
0
0
0
0
0
0
0
0
0
0
0
0
0
0
0
0
0
0
0
0
0
0
0
0
0
0
0
0
0
0
0
0
0
0
0
0
0
0
0
0
0
0
0
0
0
0
0
0
0
0
0
0
0
0
0
0
0
0
0
0
0
0
0
0
0
0
0
0
0
0
0
0
0
0
0
0
0
0
0
0
0
0
0
0
0
0
0
0
0
0
0
0
0
0
0
0
0
0
0
0
0
0
0
0
0
0
0
0
0
0
0
0
0
0
0
0
0
0
0
0
0
0
0
0
0
0
0
0
0
0
0
0
0
0
0
0
0
0
0
0
0
0
0
0
0
0
0
0
0
0
0
0
0
0
0
0
0
0
0
0
0
0
0
0
0
0
0
0
0
0
0
0
0
0
0
0
0
0
0
0
0
0
0
0
0
0
0
0
0
0
0
0
0
0
0
0
0
0
0
0
0
0
0
0
0
0
0
0
0
0
0
0
0
0
0
0
0
0
0
0
0
0
0
0
0
0
0
0
0
0
0
0
0
0
0
0
0
0
0
0
0
0
0
0
0
0
0
0
0
0
0
0
0
0
0
0
0
0
0
0
0
0
0
0
0
0
0
0
0
0
0
0
0
0
0
0
0
0
0
0
0
0
0
0
0
0
0
0
0
0
0
0
0
0
0
0
0
0
0
0
0
0
0
0
0
0
0
0
0
0
0
0
0
0
0
0
0
0
0
0
0
0
0
0
0
0
0
0
0
0
0
0
0
0
0
0
0
0
0
0
0
0
0
0
0
0
0
0
0
0
0
0
0
0
0
0
0
0
0
0
0
0
0
0
0
0
0
0
0
0
0
0
0
0
0
0
0
0
0
0
0
0
0
0
0
0
0
0
0
0
0
0
0
0
0
0
0
0
0
0
0
0
0
0
0
0
0
0
0
0
0
0
0
0
0
0
0
0
0
0
0
0
0
0
0
0
0
0
0
0
0
0
0
0
0
0
0
0
0
0
0
0
0
0
0
0
0
0
0
0
0
0
0
0
0
0
0
0
0
0
0
0
0
0
0
0
0
0
0
0
0
0
0
0
0
0
0
0
0
0
0
0
0
0
0
0
0
0
0
0
0
0
0
0
0
0
0
0
0
0
0
0
0
0
0
0
0
0
0
0
0
0
0
0
0
0
0
0
0
0
0
0
0
0
0
0
0
0
0
0
0
0
0
0
0
0
0
0
0
0
0
0
0
0
0
0
0
0
0
0
0
0
0
0
0
0
0
0
0
0
0
0
0
0
0
0
0
0
0
0
0
0
0
0
0
0
0
0
0
0
0
0
0
0
0
0
0
0
0
0
0
0
0
0
0
0
0
0
0
0
0
0
0
0
0
0
0
0
0
0
0
0
0
0
0
0
0
0
0
0
0
0
0
0
0
0
0
0
0
0
0
0
0
0
0
0
0
0
0
0
0
0
0
0
0
0
0
0
0
0
0
0
0
0
0
0
0
0
0
0
0
0
0
0
0
0
0
0
0
0
0
0
0
0
0
0
0
0
0
0
0
0
0
0
0
0
0
0
0
0
0
0
0
0
0
0
0
0
0
0
0
0
0
0
0
0
0
0
0
0
0
0
0
0
0
0
0
0
0
0
0
0
0
0
0
0
0
0
0
0
0
0
0
0
0
0
0
0
0
0
0
0
0
0
0
0
0
0
0
0
0
0
0
0
0
0
0
0
0
0
0
0
0
0
0
0
0
0
0
0
0
0
0
0
0
0
0
0
0
0
0
0
0
0
0
0
0
0
0
0
0
0
0
0
0
0
0
0
0
0
0
0
0
0
0
0
0
0
0
0
0
0
0
0
0
0
0
0
0
0
0
0
0
0
0
0
0
0
0
0
0
0
0
0
0
0
0
0
0
0
0
0
0
0
0
0
0
0
0
0
0
0
0
0
0
0
0
0
0
0
0
0
0
0
0
0
0
0
0
0
0
0
0
0
0
0
0
0
0
0
0
0
0
0
0
0
0
0
0
0
0
0
0
0
0
0
0
0
0
0
0
0
0
0
0
0
0
0
0
0
0
0
0
0
0
0
0
0
0
0
0
0
0
0
0
0
0
0
0
0
0
0
0
0
0
0
0
0
0
0
0
0
0
0
0
0
0
0
0
0
0
0
0
0
0
0
0
0
0
0
0
0
0
0
0
0
0
0
0
0
0
0
0
0
0
0
0
0
0
0
0
0
0
0
0
0
0
0
0
0
0
0
0
0
0
0
0
0
0
0
0
0
0
0
0
0
0
0
0
0
0
0
0
0
0
0
0
0
0
0
0
0
0
0
0
0
0
0
0
0
0
0
0
0
0
0
0
0
0
0
0
0
0
0
0
0
0
0
0
0
0
0
0
0
0
0
0
0
0
0
0
0
0
0
0
0
0
0
0
0
0
0
0
0
0
0
0
0
0
0
0
0
0
0
0
0
0
0
0
0
0
0
0
0
0
0
0
0
0
0
0
0
0
0
0
0
0
0
0
0
0
0
0
0
0
0
0
0
0
0
0
0
0
0
0
0
0
0
0
0
0
0
0
0
0
0
0
0
0
0
0
0
0
0
0
0
0
0
0
0
0
0
0
0
0
0
0
0
0
0
0
0
0
0
0
0
0
0
0
0
0
0
0
0
0
0
0
0
0
0
0
0
0
0
0
0
0
0
0
0
0
0
0
0
0
0
0
0
0
0
0
0
0
0
0
0
0
0
0
0
0
0
0
0
0
0
0
0
0
0
0
0
0
0
0
0
0
0
0
0
0
0
0
0
0
0
0
0
0
0
0
0
0
0
0
0
0
0
0
0
0
0
0
0
0
0
0
0
0
0
0
0
0
0
0
0
0
0
0
0
0
0
0
0
0
0
0
0
0
0
0
0
0
0
0
0
0
0
0
0
0
0
0
0
0
0
0
0
0
0
0
0
0
0
0
0
0
0
0
0
0
0
0
0
0
0
0
0
0
0
0
0
0
0
0
0
0
0
0
0
0
0
0
0
0
0
0
0
0
0
0
0
0
0
0
0
0
0
0
0
0
0
0
0
0
0
0
0
0
0
0
0
0
0
0
0
0
0
0
0
0
0
0
0
0
0
0
0
0
0
0
0
0
0
0
0
0
0
0
0
0
0
0
0
0
0
0
0
0
0
0
0
0
0
0
0
0
0
0
0
0
0
0
0
0
0
0
0
0
0
0
0
0
0
0
0
0
0
0
0
0
0
0
0
0
0
0
0
0
0
0
0
0
0
0
0
0
0
0
0
0
0
0
0
0
0
0
0
0
0
0
0
0
0
0
0
0
0
0
0
0
0
0
0
0
0
0
0
0
0
0
0
0
0
0
0
0
0
0
0
0
0
0
0
0
0
0
0
0
0
0
0
0
0
0
0
0
0
0
0
0
0
0
0
0
0
0
0
0
0
0
0
0
0
0
0
0
0
0
0
0
0
0
0
0
0
0
0
0
0
0
0
0
0
0
0
0
0
0
0
0
0
0
0
0
0
0
0
0
0
0
0
0
0
0
0
0
0
0
0
0
0
0
0
0
0
0
0
0
0
0
0
0
0
0
0
0
0
0
0
0
0
0
0
0
0
0
0
0
0
0
0
0
0
0
0
0
0
0
0
0
0
0
0
0
0
0
0
0
0
0
0
0
0
0
0
0
0
0
0
0
0
0
0
0
0
0
0
0
0
0
0
0
0
0
0
0
0
0
0
0
0
0
0
0
0
0
0
0
0
0
0
0
0
0
0
0
0
0
0
0
0
0
0
0
0
0
0
0
0
0
0
0
0
0
0
0
0
0
0
0
0
0
0
0
0
0
0
0
0
0
0
0
0
0
0
0
0
0
0
0
0
0
0
0
0
0
0
0
0
0
0
0
0
0
0
0
0
0
0
0
0
0
0
0
0
0
0
0
0
0
0
0
0
0
0
0
0
0
0
0
0
0
0
0
0
0
0
0
0
0
0
0
0
0
0
0
0
0
0
0
0
0
0
0
0
0
0
0
0
0
0
0
0
0
0
0
0
0
0
0
0
0
0
0
0
0
0
0
0
0
0
0
0
0
0
0
0
0
0
0
0
0
0
0
0
0
0
0
0
0
0
0
0
0
0
0
0
0
0
0
0
0
0
0
0
0
0
0
0
0
0
0
0
0
0
0
0
0
0
0
0
0
0
0
0
0
0
0
0
0
0
0
0
0
0
0
0
0
0
0
0
0
0
0
0
0
0
0
0
0
0
0
0
0
0
0
0
0
0
0
0
0
0
0
0
0
0
0
0
0
0
0
0
0
0
0
0
0
0
0
0
0
0
0
0
0
0
0
0
0
0
0
0
0
0
0
0
0
0
0
0
0
0
0
0
0
0
0
0
0
0
0
0
0
0
0
0
0
0
0
0
0
0
0
0
0
0
0
0
0
0
0
0
0
0
0
0
0
0
0
0
0
0
0
0
0
0
0
0
0
0
      </DataArray> 
      <DataArray type="Float64" NumberOfComponents="1" Name="NormalFibers" format="ascii">
0
0
0
0
0
0
0
0
0
0
0
0
0
0
0
0
0
0
0
0
0
0
0
0
0
0
0
0
0
0
0
0
0
0
0
0
0
0
0
0
0
0
0
0
0
0
0
0
0
0
0
0
0
0
0
0
0
0
0
0
0
0
0
0
0
0
0
0
0
0
0
0
0
0
0
0
0
0
0
0
0
0
0
0
0
0
0
0
0
0
0
0
0
0
0
0
0
0
0
0
0
0
0
0
0
0
0
0
0
0
0
0
0
0
0
0
0
0
0
0
0
0
0
0
0
0
0
0
0
0
0
0
0
0
0
0
0
0
0
0
0
0
0
0
0
0
0
0
0
0
0
0
0
0
0
0
0
0
0
0
0
0
0
0
0
0
0
0
0
0
0
0
0
0
0
0
0
0
0
0
0
0
0
0
0
0
0
0
0
0
0
0
0
0
0
0
0
0
0
0
0
0
0
0
0
0
0
0
0
0
0
0
0
0
0
0
0
0
0
0
0
0
0
0
0
0
0
0
0
0
0
0
0
0
0
0
0
0
0
0
0
0
0
0
0
0
0
0
0
0
0
0
0
0
0
0
0
0
0
0
0
0
0
0
0
0
0
0
0
0
0
0
0
0
0
0
0
0
0
0
0
0
0
0
0
0
0
0
0
0
0
0
0
0
0
0
0
0
0
0
0
0
0
0
0
0
0
0
0
0
0
0
0
0
0
0
0
0
0
0
0
0
0
0
0
0
0
0
0
0
0
0
0
0
0
0
0
0
0
0
0
0
0
0
0
0
0
0
0
0
0
0
0
0
0
0
0
0
0
0
0
0
0
0
0
0
0
0
0
0
0
0
0
0
0
0
0
0
0
0
0
0
0
0
0
0
0
0
0
0
0
0
0
0
0
0
0
0
0
0
0
0
0
0
0
0
0
0
0
0
0
0
0
0
0
0
0
0
0
0
0
0
0
0
0
0
0
0
0
0
0
0
0
0
0
0
0
0
0
0
0
0
0
0
0
0
0
0
0
0
0
0
0
0
0
0
0
0
0
0
0
0
0
0
0
0
0
0
0
0
0
0
0
0
0
0
0
0
0
0
0
0
0
0
0
0
0
0
0
0
0
0
0
0
0
0
0
0
0
0
0
0
0
0
0
0
0
0
0
0
0
0
0
0
0
0
0
0
0
0
0
0
0
0
0
0
0
0
0
0
0
0
0
0
0
0
0
0
0
0
0
0
0
0
0
0
0
0
0
0
0
0
0
0
0
0
0
0
0
0
0
0
0
0
0
0
0
0
0
0
0
0
0
0
0
0
0
0
0
0
0
0
0
0
0
0
0
0
0
0
0
0
0
0
0
0
0
0
0
0
0
0
0
0
0
0
0
0
0
0
0
0
0
0
0
0
0
0
0
0
0
0
0
0
0
0
0
0
0
0
0
0
0
0
0
0
0
0
0
0
0
0
0
0
0
0
0
0
0
0
0
0
0
0
0
0
0
0
0
0
0
0
0
0
0
0
0
0
0
0
0
0
0
0
0
0
0
0
0
0
0
0
0
0
0
0
0
0
0
0
0
0
0
0
0
0
0
0
0
0
0
0
0
0
0
0
0
0
0
0
0
0
0
0
0
0
0
0
0
0
0
0
0
0
0
0
0
0
0
0
0
0
0
0
0
0
0
0
0
0
0
0
0
0
0
0
0
0
0
0
0
0
0
0
0
0
0
0
0
0
0
0
0
0
0
0
0
0
0
0
0
0
0
0
0
0
0
0
0
0
0
0
0
0
0
0
0
0
0
0
0
0
0
0
0
0
0
0
0
0
0
0
0
0
0
0
0
0
0
0
0
0
0
0
0
0
0
0
0
0
0
0
0
0
0
0
0
0
0
0
0
0
0
0
0
0
0
0
0
0
0
0
0
0
0
0
0
0
0
0
0
0
0
0
0
0
0
0
0
0
0
0
0
0
0
0
0
0
0
0
0
0
0
0
0
0
0
0
0
0
0
0
0
0
0
0
0
0
0
0
0
0
0
0
0
0
0
0
0
0
0
0
0
0
0
0
0
0
0
0
0
0
0
0
0
0
0
0
0
0
0
0
0
0
0
0
0
0
0
0
0
0
0
0
0
0
0
0
0
0
0
0
0
0
0
0
0
0
0
0
0
0
0
0
0
0
0
0
0
0
0
0
0
0
0
0
0
0
0
0
0
0
0
0
0
0
0
0
0
0
0
0
0
0
0
0
0
0
0
0
0
0
0
0
0
0
0
0
0
0
0
0
0
0
0
0
0
0
0
0
0
0
0
0
0
0
0
0
0
0
0
0
0
0
0
0
0
0
0
0
0
0
0
0
0
0
0
0
0
0
0
0
0
0
0
0
0
0
0
0
0
0
0
0
0
0
0
0
0
0
0
0
0
0
0
0
0
0
0
0
0
0
0
0
0
0
0
0
0
0
0
0
0
0
0
0
0
0
0
0
0
0
0
0
0
0
0
0
0
0
0
0
0
0
0
0
0
0
0
0
0
0
0
0
0
0
0
0
0
0
0
0
0
0
0
0
0
0
0
0
0
0
0
0
0
0
0
0
0
0
0
0
0
0
0
0
0
0
0
0
0
0
0
0
0
0
0
0
0
0
0
0
0
0
0
0
0
0
0
0
0
0
0
0
0
0
0
0
0
0
0
0
0
0
0
0
0
0
0
0
0
0
0
0
0
0
0
0
0
0.00105103
0.00105103
0.00528101
0.00528101
-0.0172476
-0.0172476
-0.00870784
-0.00870784
-0.000552398
-0.000552398
-0.00832786
-0.00832786
0.000506073
0.000506073
0.00384285
0.00384285
-0.0211972
-0.0211972
-0.00273386
-0.00273386
-0.00726448
-0.00726448
-0.0107085
-0.0107085
-0.0181546
-0.0181546
0.00465206
0.00465206
-0.00864027
-0.00864027
0.0121053
0.0121053
-0.00735039
-0.00735039
-0.000663935
-0.000663935
0.00705829
0.00705829
-0.00454053
-0.00454053
-0.00255525
-0.00255525
-0.0109652
-0.0109652
-0.0414414
-0.0414414
-0.00416685
-0.00416685
-0.00534626
-0.00534626
-0.00372131
-0.00372131
-0.00264965
-0.00264965
-0.000493352
-0.000493352
-0.0208641
-0.0208641
0.00178469
0.00178469
0.00175759
0.00175759
0.00210215
0.00210215
-0.0280842
-0.0280842
-0.00461656
-0.00461656
-0.0313588
-0.0313588
-0.00173551
-0.00173551
-0.00684923
-0.00684923
-0.00233951
-0.00233951
0.00144869
0.00144869
-0.00809731
-0.00809731
-0.0060973
-0.0060973
0.0101129
0.0101129
-0.00959718
-0.00959718
-0.00865341
-0.00865341
-0.030057
-0.030057
-0.00830966
-0.00830966
-0.0048014
-0.0048014
-0.00515762
-0.00515762
-0.00351794
-0.00351794
-0.00314615
-0.00314615
0.0147768
0.0147768
-0.00480929
-0.00480929
0.00287217
0.00287217
-0.0246951
-0.0246951
-0.000991511
-0.000991511
-0.00253127
-0.00253127
-0.0124383
-0.0124383
-0.0156737
-0.0156737
-0.00100076
-0.00100076
-0.00322088
-0.00322088
-0.0121918
-0.0121918
0.00875527
0.00875527
3.1666e-05
3.1666e-05
-0.0119417
-0.0119417
-0.00874804
-0.00874804
-0.00874718
-0.00874718
-0.008944
-0.008944
0.00837157
0.00837157
0.0116127
0.0116127
-0.0193943
-0.0193943
-0.0133958
-0.0133958
-0.00426417
-0.00426417
-0.0320699
-0.0320699
0.00778816
0.00778816
-0.0160354
-0.0160354
-8.90165e-05
-8.90165e-05
-0.00481316
-0.00481316
-0.000605439
-0.000605439
-0.0125153
-0.0125153
-0.00923875
-0.00923875
-0.0209012
-0.0209012
0.00200407
0.00200407
-0.0112716
-0.0112716
-0.0293986
-0.0293986
-0.0184735
-0.0184735
-0.0148716
-0.0148716
-0.00413468
-0.00413468
-0.00116531
-0.00116531
0.00436192
0.00436192
-0.000926084
-0.000926084
-0.00423771
-0.00423771
-0.000204826
-0.000204826
0.00750991
0.00750991
-0.0158314
-0.0158314
-0.0246787
-0.0246787
-0.00175282
-0.00175282
0.0011091
0.0011091
-0.00626998
-0.00626998
-0.0386573
-0.0386573
-0.00819137
-0.00819137
-0.00022979
-0.00022979
-0.0106116
-0.0106116
-0.00442174
-0.00442174
-0.00839211
-0.00839211
-0.00158564
-0.00158564
0.00144894
0.00144894
-0.0290091
-0.0290091
-0.00723902
-0.00723902
-0.00500798
-0.00500798
-0.00568588
-0.00568588
-0.018274
-0.018274
0.0141766
0.0141766
0.00921782
0.00921782
0.00216123
0.00216123
0.00717075
0.00717075
-0.00179021
-0.00179021
-0.000852725
-0.000852725
-0.0126298
-0.0126298
-0.0200729
-0.0200729
0.00209832
0.00209832
-0.000876364
-0.000876364
-0.00393341
-0.00393341
0.00216157
0.00216157
-0.00632488
-0.00632488
-0.0103394
-0.0103394
-0.0233496
-0.0233496
-0.000813271
-0.000813271
-0.00105261
-0.00105261
0.000638315
0.000638315
-0.030015
-0.030015
-0.0155303
-0.0155303
0.00509614
0.00509614
0.000815223
0.000815223
-0.00391843
-0.00391843
0.00848856
0.00848856
-0.00540139
-0.00540139
-0.000844937
-0.000844937
-0.0114914
-0.0114914
-0.0133078
-0.0133078
-0.00450653
-0.00450653
-0.00158615
-0.00158615
-0.0063502
-0.0063502
-0.000958077
-0.000958077
-0.00330868
-0.00330868
-0.00243931
-0.00243931
-0.00122164
-0.00122164
-0.00418621
-0.00418621
0.00250645
0.00250645
-0.0038454
-0.0038454
-0.0130658
-0.0130658
-0.00249972
-0.00249972
-0.00142781
-0.00142781
0.00339264
0.00339264
-0.0247953
-0.0247953
-0.0215004
-0.0215004
-0.0585067
-0.0585067
-0.0290349
-0.0290349
-0.0222402
-0.0222402
0.000388666
0.000388666
-0.00396348
-0.00396348
-0.0113751
-0.0113751
0.0078986
0.0078986
-0.00531679
-0.00531679
0.00557472
0.00557472
-0.00107155
-0.00107155
-0.00722718
-0.00722718
-0.0121168
-0.0121168
0.00422433
0.00422433
-0.0100041
-0.0100041
-0.00594542
-0.00594542
-0.00433375
-0.00433375
-0.0141963
-0.0141963
-0.0135926
-0.0135926
-0.0018378
-0.0018378
0.000917091
0.000917091
-0.00838492
-0.00838492
-0.00242109
-0.00242109
-0.0114414
-0.0114414
-0.0100821
-0.0100821
-0.0138897
-0.0138897
-0.00184455
-0.00184455
-0.00264265
-0.00264265
-0.000262753
-0.000262753
-0.0263648
-0.0263648
-0.0150086
-0.0150086
-0.0300538
-0.0300538
-0.00133081
-0.00133081
-0.0016202
-0.0016202
0.00536521
0.00536521
0.00260582
0.00260582
0.0060209
0.0060209
0.0105075
0.0105075
-0.00942472
-0.00942472
-0.010108
-0.010108
0.000523557
0.000523557
-0.00330161
-0.00330161
-0.000222444
-0.000222444
-0.0025722
-0.0025722
-0.00667736
-0.00667736
0.00305714
0.00305714
-0.00393722
-0.00393722
-0.0200832
-0.0200832
-0.00163149
-0.00163149
0.00674208
0.00674208
-0.00304027
-0.00304027
-0.0399211
-0.0399211
0.00672249
0.00672249
0.00172283
0.00172283
-0.00297108
-0.00297108
-0.0150476
-0.0150476
-0.000877477
-0.000877477
-0.0028803
-0.0028803
-0.0168563
-0.0168563
-0.00781229
-0.00781229
0.00675917
0.00675917
-0.00366083
-0.00366083
-0.00764108
-0.00764108
-0.0193736
-0.0193736
0.0112526
0.0112526
0.0110924
0.0110924
-0.000638256
-0.000638256
-0.0234779
-0.0234779
0.00264864
0.00264864
-0.00597259
-0.00597259
-0.00906326
-0.00906326
-0.0016168
-0.0016168
4.32341e-05
4.32341e-05
-0.00267828
-0.00267828
-0.0185298
-0.0185298
-0.00575117
-0.00575117
-0.00188163
-0.00188163
-0.00136047
-0.00136047
-0.00584292
-0.00584292
-0.0238396
-0.0238396
0.000626124
0.000626124
-0.00507503
-0.00507503
-0.00712702
-0.00712702
-0.0301975
-0.0301975
-0.0214204
-0.0214204
-0.018471
-0.018471
-0.00547068
-0.00547068
-0.00127222
-0.00127222
-0.00114526
-0.00114526
0.0120552
0.0120552
-0.00053171
-0.00053171
-0.00232336
-0.00232336
-0.00141084
-0.00141084
0.0109907
0.0109907
-0.0212573
-0.0212573
-0.00969891
-0.00969891
-0.00152228
-0.00152228
-0.0287152
-0.0287152
-0.0292026
-0.0292026
-0.00116775
-0.00116775
-0.032463
-0.032463
-0.000321785
-0.000321785
-0.0189231
-0.0189231
0.00581619
0.00581619
-0.00273796
-0.00273796
-8.109e-05
-8.109e-05
-0.0047019
-0.0047019
-0.0437726
-0.0437726
-0.00541948
-0.00541948
-0.00257872
-0.00257872
-0.00581014
-0.00581014
-0.0196761
-0.0196761
-0.00927041
-0.00927041
-0.00899599
-0.00899599
0.0132303
0.0132303
-0.00175827
-0.00175827
-0.0221626
-0.0221626
-0.00271106
-0.00271106
-0.0011269
-0.0011269
-0.0288876
-0.0288876
-0.00394119
-0.00394119
-0.023389
-0.023389
-0.00296795
-0.00296795
-0.000489414
-0.000489414
-0.0110466
-0.0110466
0.00433171
0.00433171
0.000245347
0.000245347
-0.00699
-0.00699
-0.00877712
-0.00877712
-0.00618654
-0.00618654
-0.0112543
-0.0112543
-0.0266185
-0.0266185
0.00857593
0.00857593
-0.0234795
-0.0234795
0.00124684
0.00124684
-0.0275987
-0.0275987
-0.00827947
-0.00827947
-0.0109276
-0.0109276
-0.00158943
-0.00158943
0.00487296
0.00487296
-0.031616
-0.031616
0.00630073
0.00630073
0.00225509
0.00225509
0.0122884
0.0122884
-0.0266183
-0.0266183
-0.00808466
-0.00808466
-0.000489761
-0.000489761
-0.0142779
-0.0142779
-0.0197979
-0.0197979
-0.00558246
-0.00558246
-0.0243387
-0.0243387
-0.00958072
-0.00958072
-0.0028633
-0.0028633
-0.00439463
-0.00439463
0.00496284
0.00496284
-0.021716
-0.021716
0.00848856
0.00848856
-0.00691063
-0.00691063
7.33135e-05
7.33135e-05
-0.00863457
-0.00863457
0.00135973
0.00135973
0.00462132
0.00462132
-0.00788
-0.00788
-0.0134538
-0.0134538
-0.0202187
-0.0202187
0.00112956
0.00112956
-0.0295459
-0.0295459
0.00561742
0.00561742
-0.0038043
-0.0038043
-0.0118829
-0.0118829
-0.0188374
-0.0188374
-0.0256214
-0.0256214
-0.0240873
-0.0240873
-0.0031513
-0.0031513
-0.0115109
-0.0115109
-0.000178033
-0.000178033
-0.00181642
-0.00181642
-0.0323895
-0.0323895
-0.00352583
-0.00352583
0.0102906
0.0102906
0.00497375
0.00497375
-0.00380957
-0.00380957
-0.000197709
-0.000197709
0.000124521
0.000124521
-0.000164936
-0.000164936
-0.00942247
-0.00942247
-0.00890481
-0.00890481
0.00231466
0.00231466
-0.001374
-0.001374
-0.0135464
-0.0135464
0.00289387
0.00289387
-0.00704935
-0.00704935
-0.00485887
-0.00485887
-0.00536396
-0.00536396
-0.00242823
-0.00242823
-0.00247305
-0.00247305
-0.0167861
-0.0167861
-0.00179227
-0.00179227
0.00114035
0.00114035
-0.000953008
-0.000953008
0.0108711
0.0108711
-0.0134268
-0.0134268
-0.0109508
-0.0109508
-0.00970383
-0.00970383
-0.0112873
-0.0112873
-0.00404115
-0.00404115
-0.0169295
-0.0169295
-0.0183095
-0.0183095
-0.00841496
-0.00841496
-0.0349329
-0.0349329
0.00539537
0.00539537
-0.0026458
-0.0026458
-0.00155723
-0.00155723
0.0112351
0.0112351
0.00532822
0.00532822
-0.00167976
-0.00167976
7.46273e-07
7.46273e-07
-0.00302811
-0.00302811
-0.00359461
-0.00359461
-0.0134187
-0.0134187
-0.00912359
-0.00912359
-0.00887291
-0.00887291
-0.00790912
-0.00790912
-0.0118939
-0.0118939
-0.00291733
-0.00291733
0.00295475
0.00295475
0.00813434
0.00813434
-0.00562796
-0.00562796
-0.00861003
-0.00861003
-0.00356134
-0.00356134
-0.0500018
-0.0500018
0.00135704
0.00135704
0.00549791
0.00549791
-0.0268294
-0.0268294
0.00654129
0.00654129
-0.0042801
-0.0042801
0.00344337
0.00344337
-0.0463221
-0.0463221
-0.00562003
-0.00562003
0.00520214
0.00520214
-0.0327182
-0.0327182
-0.0155773
-0.0155773
-0.00849504
-0.00849504
-0.0331623
-0.0331623
-0.0032768
-0.0032768
-0.00314639
-0.00314639
-0.0109816
-0.0109816
-0.0457639
-0.0457639
-0.0113991
-0.0113991
-0.00113358
-0.00113358
-0.00357802
-0.00357802
0.000836114
0.000836114
-0.0231
-0.0231
-0.012183
-0.012183
0.00191344
0.00191344
-0.0106078
-0.0106078
-0.00418136
-0.00418136
-0.00373992
-0.00373992
-0.0172469
-0.0172469
-0.0188673
-0.0188673
-0.027
-0.027
-0.000355553
-0.000355553
-0.00629973
-0.00629973
-0.0101999
-0.0101999
-0.00579371
-0.00579371
-0.00666698
-0.00666698
0.000635971
0.000635971
-0.00916651
-0.00916651
0.00362175
0.00362175
-0.00667208
-0.00667208
-0.00524982
-0.00524982
-0.00210684
-0.00210684
0.0063188
0.0063188
-0.0147007
-0.0147007
-0.0188853
-0.0188853
-0.00199295
-0.00199295
-0.0214331
-0.0214331
-0.00498481
-0.00498481
-0.0330559
-0.0330559
-0.0551112
-0.0551112
0.00321013
0.00321013
0.00614335
0.00614335
0.00330628
0.00330628
-0.0131748
-0.0131748
8.02459e-05
8.02459e-05
-0.000584328
-0.000584328
-0.0227539
-0.0227539
-0.00159729
-0.00159729
-0.00173297
-0.00173297
0.00097407
0.00097407
-0.00115879
-0.00115879
-0.0134928
-0.0134928
-0.0365459
-0.0365459
-0.000787865
-0.000787865
-4.5189e-05
-4.5189e-05
-0.00360618
-0.00360618
-0.00401874
-0.00401874
-0.0274766
-0.0274766
-0.0014011
-0.0014011
-0.0209925
-0.0209925
0.000983681
0.000983681
-0.00994114
-0.00994114
-0.00657557
-0.00657557
0.00383171
0.00383171
-0.00562787
-0.00562787
0.00219333
0.00219333
0.00195391
0.00195391
-0.00525476
-0.00525476
-0.000898642
-0.000898642
-0.00720792
-0.00720792
-0.00758162
-0.00758162
-0.00257912
-0.00257912
0.00617822
0.00617822
-0.00588547
-0.00588547
-0.00918218
-0.00918218
0.0061656
0.0061656
-0.0013955
-0.0013955
-0.0165059
-0.0165059
-0.000774584
-0.000774584
-0.0106322
-0.0106322
-0.0314576
-0.0314576
-0.00419335
-0.00419335
-0.00781006
-0.00781006
-0.0139194
-0.0139194
0.00908922
0.00908922
0.00334607
0.00334607
-0.00767275
-0.00767275
0.00236632
0.00236632
-0.00103418
-0.00103418
-0.0084085
-0.0084085
-0.00717672
-0.00717672
-0.0066819
-0.0066819
-0.00171741
-0.00171741
1.02066e-05
1.02066e-05
-0.00624217
-0.00624217
-0.00646123
-0.00646123
-0.00239129
-0.00239129
-0.00447564
-0.00447564
-0.0454693
-0.0454693
-0.00165341
-0.00165341
-0.00541763
-0.00541763
-0.0070041
-0.0070041
-0.00305923
-0.00305923
0.00337878
0.00337878
-0.0041074
-0.0041074
-0.00639212
-0.00639212
0.00313829
0.00313829
0.00099927
0.00099927
-0.0108092
-0.0108092
-0.00815866
-0.00815866
-0.0205713
-0.0205713
-0.00349582
-0.00349582
0.000801335
0.000801335
-0.00266058
-0.00266058
-0.00202107
-0.00202107
-0.0125634
-0.0125634
-0.00151927
-0.00151927
-0.00428973
-0.00428973
-0.00390003
-0.00390003
-0.0234585
-0.0234585
-0.00237653
-0.00237653
-0.00289115
-0.00289115
-0.00627131
-0.00627131
-0.0194791
-0.0194791
-0.000681426
-0.000681426
-0.0220104
-0.0220104
-0.000697437
-0.000697437
-0.0282565
-0.0282565
-0.0235516
-0.0235516
-0.000252266
-0.000252266
0.00571898
0.00571898
0.00187902
0.00187902
-0.0172984
-0.0172984
-0.000519542
-0.000519542
-0.0048745
-0.0048745
-0.0267227
-0.0267227
0.00704703
0.00704703
-0.0172957
-0.0172957
-0.00606161
-0.00606161
-0.0161443
-0.0161443
-0.0224233
-0.0224233
0.00963151
0.00963151
-0.00360703
-0.00360703
-0.00888422
-0.00888422
-0.00216572
-0.00216572
-0.00946059
-0.00946059
-0.00234248
-0.00234248
-0.0030805
-0.0030805
-0.00603516
-0.00603516
-0.0165844
-0.0165844
-0.0108549
-0.0108549
0.00106843
0.00106843
-0.0182987
-0.0182987
-0.0079647
-0.0079647
-0.00929764
-0.00929764
-0.0140549
-0.0140549
-0.0180801
-0.0180801
-0.0111584
-0.0111584
0.00351841
0.00351841
-0.0410928
-0.0410928
0.00215101
0.00215101
-0.01068
-0.01068
-0.00497184
-0.00497184
-0.0258583
-0.0258583
-0.0152891
-0.0152891
0.00767334
0.00767334
-0.0135806
-0.0135806
-0.0198819
-0.0198819
-0.00597358
-0.00597358
-0.0172294
-0.0172294
-0.0274524
-0.0274524
0.00850037
0.00850037
-0.00618676
-0.00618676
5.77331e-05
5.77331e-05
-0.00238721
-0.00238721
-0.023756
-0.023756
-0.0229971
-0.0229971
-0.00117506
-0.00117506
-0.0068084
-0.0068084
0.00444077
0.00444077
-0.01667
-0.01667
-0.00134203
-0.00134203
-0.037326
-0.037326
-0.0270627
-0.0270627
-0.00407677
-0.00407677
-0.0045132
-0.0045132
-0.0226647
-0.0226647
-0.00883072
-0.00883072
0.0133134
0.0133134
-0.0196285
-0.0196285
0.0123909
0.0123909
-0.00497704
-0.00497704
-0.00475524
-0.00475524
-0.0219129
-0.0219129
-0.00303866
-0.00303866
-0.000687985
-0.000687985
-0.00431681
-0.00431681
-0.00640775
-0.00640775
-0.00515467
-0.00515467
-0.00520536
-0.00520536
0.000308095
0.000308095
-0.00358394
-0.00358394
-0.0138809
-0.0138809
-0.00470656
-0.00470656
-0.00548331
-0.00548331
-0.00407241
-0.00407241
-0.00190384
-0.00190384
-0.0066337
-0.0066337
0.00236065
0.00236065
-0.00468901
-0.00468901
0.000896669
0.000896669
-0.00282771
-0.00282771
-0.0300407
-0.0300407
-0.00536725
-0.00536725
-0.0089744
-0.0089744
0.00474752
0.00474752
-0.00239754
-0.00239754
0.00164625
0.00164625
-0.00518294
-0.00518294
-0.0240415
-0.0240415
-0.00183721
-0.00183721
-0.0201183
-0.0201183
-0.00451019
-0.00451019
-0.000905073
-0.000905073
-0.00507078
-0.00507078
-0.00537879
-0.00537879
-0.00473041
-0.00473041
-0.0069133
-0.0069133
-0.010212
-0.010212
0.0101147
0.0101147
0.000298761
0.000298761
-0.000666739
-0.000666739
-0.0105066
-0.0105066
0.0062491
0.0062491
-0.00286482
-0.00286482
-0.00159521
-0.00159521
-0.00578437
-0.00578437
-0.00479936
-0.00479936
-0.000742003
-0.000742003
-0.00356455
-0.00356455
-0.000228142
-0.000228142
-0.00199742
-0.00199742
-0.00684409
-0.00684409
0.00133395
0.00133395
-0.0132126
-0.0132126
-0.00643287
-0.00643287
0.0129375
0.0129375
-0.00176955
-0.00176955
0.00412998
0.00412998
-0.00383497
-0.00383497
-0.0353772
-0.0353772
-0.0299542
-0.0299542
-0.0129907
-0.0129907
0.00783946
0.00783946
-0.0198254
-0.0198254
-0.00055099
-0.00055099
-0.0022027
-0.0022027
-0.00254006
-0.00254006
-0.000661613
-0.000661613
-0.00521862
-0.00521862
-0.00661501
-0.00661501
-0.00191777
-0.00191777
-0.00976858
-0.00976858
-0.0441508
-0.0441508
-0.00351907
-0.00351907
-0.00527227
-0.00527227
-0.00371741
-0.00371741
-0.0122325
-0.0122325
0.00384906
0.00384906
-0.0199617
-0.0199617
-0.000936928
-0.000936928
0.00557431
0.00557431
-0.000973438
-0.000973438
-0.0024431
-0.0024431
-0.0308789
-0.0308789
-0.0308418
-0.0308418
-0.026598
-0.026598
-0.000567271
-0.000567271
0.00125786
0.00125786
-0.0061677
-0.0061677
-0.00160606
-0.00160606
-0.00208672
-0.00208672
-0.00221923
-0.00221923
-0.0012781
-0.0012781
0.00721972
0.00721972
-0.0330988
-0.0330988
-0.00207619
-0.00207619
-0.000208334
-0.000208334
-0.0013273
-0.0013273
-0.00299796
-0.00299796
-0.00132354
-0.00132354
0.00244786
0.00244786
-0.0186501
-0.0186501
-0.00400039
-0.00400039
-0.0106647
-0.0106647
-0.0201894
-0.0201894
-0.00686834
-0.00686834
-0.0269781
-0.0269781
-0.00905585
-0.00905585
-0.00871601
-0.00871601
-0.000633715
-0.000633715
-0.00321042
-0.00321042
0.00712465
0.00712465
0.0103657
0.0103657
-0.00215723
-0.00215723
-0.00116136
-0.00116136
0.0021879
0.0021879
-0.0140313
-0.0140313
-0.00132005
-0.00132005
0.00528808
0.00528808
-0.00493225
-0.00493225
3.91936e-05
3.91936e-05
-0.00199375
-0.00199375
-0.0029776
-0.0029776
-0.0258319
-0.0258319
0.0103476
0.0103476
-0.00153709
-0.00153709
-0.0094669
-0.0094669
-0.0143308
-0.0143308
-0.0157326
-0.0157326
-0.00219986
-0.00219986
-0.00106218
-0.00106218
-0.0192744
-0.0192744
0.00260159
0.00260159
-0.0256217
-0.0256217
-0.0334963
-0.0334963
0.00267018
0.00267018
-0.00221151
-0.00221151
-0.0238864
-0.0238864
-0.00454492
-0.00454492
-0.00593281
-0.00593281
-0.00992236
-0.00992236
-0.0034217
-0.0034217
0.00524642
0.00524642
-0.0222892
-0.0222892
-0.00887403
-0.00887403
0.0034333
0.0034333
-0.0195035
-0.0195035
-0.00547577
-0.00547577
-0.00454116
-0.00454116
-0.00192917
-0.00192917
-0.00132681
-0.00132681
-0.00620022
-0.00620022
-0.0116539
-0.0116539
-0.00226774
-0.00226774
0.00564422
0.00564422
-0.054155
-0.054155
0.000642167
0.000642167
-0.00294538
-0.00294538
-0.00789067
-0.00789067
0.00344962
0.00344962
-0.00755582
-0.00755582
-0.00361972
-0.00361972
-0.00522455
-0.00522455
-0.000726029
-0.000726029
0.00149731
0.00149731
0.00106557
0.00106557
0.00193506
0.00193506
-0.0272877
-0.0272877
-0.00766691
-0.00766691
0.00105881
0.00105881
0.00715935
0.00715935
0.00135805
0.00135805
0.00685692
0.00685692
-0.00339504
-0.00339504
0.00152929
0.00152929
-0.00305371
-0.00305371
-0.00391292
-0.00391292
-0.0462325
-0.0462325
0.00251915
0.00251915
-0.0388755
-0.0388755
0.00657552
0.00657552
0.000481606
0.000481606
-0.00711284
-0.00711284
-0.00404867
-0.00404867
-0.0125619
-0.0125619
-0.0140939
-0.0140939
-0.00473508
-0.00473508
-0.000518577
-0.000518577
0.0071546
0.0071546
-0.0163455
-0.0163455
-0.00431065
-0.00431065
-0.00356754
-0.00356754
0.00961266
0.00961266
0.000204205
0.000204205
-0.00088351
-0.00088351
1.71976e-05
1.71976e-05
-0.00172352
-0.00172352
-0.010439
-0.010439
-0.0221973
-0.0221973
-0.0253645
-0.0253645
-0.00407318
-0.00407318
0.00516728
0.00516728
-0.0258781
-0.0258781
-0.01026
-0.01026
0.00965471
0.00965471
-0.00128323
-0.00128323
0.000285149
0.000285149
-0.00705165
-0.00705165
-0.00577401
-0.00577401
-0.00175849
-0.00175849
-0.0247394
-0.0247394
0.0146874
0.0146874
-0.0178031
-0.0178031
-0.00171075
-0.00171075
-0.00753267
-0.00753267
-0.0324709
-0.0324709
0.00119084
0.00119084
-0.00613828
-0.00613828
-0.0283476
-0.0283476
0.0105708
0.0105708
-0.000786205
-0.000786205
0.00140275
0.00140275
-0.0044794
-0.0044794
0.00609325
0.00609325
-0.000370749
-0.000370749
-0.00125748
-0.00125748
-0.00836789
-0.00836789
-0.0136933
-0.0136933
-0.0411281
-0.0411281
-0.0324402
-0.0324402
0.00378509
0.00378509
-0.0304218
-0.0304218
-0.0059933
-0.0059933
-0.00296856
-0.00296856
0.000476156
0.000476156
-0.00978656
-0.00978656
0.00237883
0.00237883
-0.00131931
-0.00131931
0.00193175
0.00193175
-0.00116008
-0.00116008
-4.94277e-05
-4.94277e-05
-0.00832685
-0.00832685
-0.00495283
-0.00495283
-0.00106851
-0.00106851
-0.0162777
-0.0162777
0.00083684
0.00083684
-0.00638965
-0.00638965
-0.00740676
-0.00740676
0.00531676
0.00531676
-0.00814989
-0.00814989
-0.00383465
-0.00383465
0.00820299
0.00820299
0.00218255
0.00218255
0.00751185
0.00751185
-0.0101363
-0.0101363
-0.000372336
-0.000372336
-0.0210148
-0.0210148
-0.00623103
-0.00623103
-0.0309372
-0.0309372
-0.0168407
-0.0168407
-0.0309995
-0.0309995
-0.00255326
-0.00255326
-0.0217421
-0.0217421
0.000672568
0.000672568
-0.00569942
-0.00569942
-0.027254
-0.027254
-0.0309931
-0.0309931
0.00467721
0.00467721
-0.00633357
-0.00633357
0.00572868
0.00572868
0.00732487
0.00732487
-0.0114287
-0.0114287
-0.0288783
-0.0288783
-0.00111506
-0.00111506
0.00290987
0.00290987
0.00193401
0.00193401
0.00564977
0.00564977
-0.0154818
-0.0154818
-0.00568182
-0.00568182
0.000593512
0.000593512
-0.00569072
-0.00569072
-0.00622486
-0.00622486
-0.00803068
-0.00803068
0.00311405
0.00311405
-0.0170684
-0.0170684
-0.00213233
-0.00213233
-0.00203877
-0.00203877
-0.00393907
-0.00393907
-0.00576377
-0.00576377
-0.00171646
-0.00171646
-0.0188539
-0.0188539
-0.0266568
-0.0266568
-0.00410396
-0.00410396
-0.000953878
-0.000953878
-0.00603436
-0.00603436
0.00133879
0.00133879
-0.027715
-0.027715
-0.000487567
-0.000487567
0.00770943
0.00770943
-0.0335534
-0.0335534
-0.000431469
-0.000431469
-0.00855255
-0.00855255
-0.00945043
-0.00945043
-0.0215944
-0.0215944
-0.0046243
-0.0046243
-0.00498638
-0.00498638
-0.000836387
-0.000836387
-0.0240642
-0.0240642
-0.00601884
-0.00601884
-0.0160144
-0.0160144
0.000181216
0.000181216
-0.00233244
-0.00233244
0.00256468
0.00256468
0.00399916
0.00399916
-0.0111647
-0.0111647
0.000716259
0.000716259
0.000651123
0.000651123
0.000575387
0.000575387
0.000101865
0.000101865
-0.00101631
-0.00101631
-0.00643613
-0.00643613
-0.00647531
-0.00647531
-0.0140198
-0.0140198
-0.00227518
-0.00227518
0.00629381
0.00629381
-0.00710108
-0.00710108
-0.0217691
-0.0217691
0.0047642
0.0047642
-0.00710408
-0.00710408
-0.00242127
-0.00242127
-0.00666564
-0.00666564
-0.00487583
-0.00487583
-0.003931
-0.003931
-0.00229893
-0.00229893
-0.0181888
-0.0181888
-0.00260081
-0.00260081
-0.00386961
-0.00386961
-0.0037877
-0.0037877
-0.0226156
-0.0226156
-0.0360746
-0.0360746
-0.00476913
-0.00476913
-0.00236244
-0.00236244
-0.0232043
-0.0232043
-0.00519915
-0.00519915
-0.00222206
-0.00222206
-0.0153579
-0.0153579
-0.0164673
-0.0164673
-0.006795
-0.006795
-0.00155364
-0.00155364
-0.012812
-0.012812
0.00218026
0.00218026
0.00439478
0.00439478
0.000448007
0.000448007
-0.00136598
-0.00136598
-0.00445064
-0.00445064
0.00439473
0.00439473
0.0113374
0.0113374
-0.0234606
-0.0234606
-0.00341902
-0.00341902
-0.00436166
-0.00436166
-0.00986381
-0.00986381
-0.00726046
-0.00726046
0.00274262
0.00274262
-0.00808201
-0.00808201
0.00422664
0.00422664
-0.0189567
-0.0189567
-0.0273177
-0.0273177
0.0127927
0.0127927
-0.02174
-0.02174
-0.0263437
-0.0263437
-0.0175606
-0.0175606
-0.00916912
-0.00916912
-0.00363463
-0.00363463
-0.00338041
-0.00338041
-0.0133204
-0.0133204
-0.00924538
-0.00924538
0.000234914
0.000234914
-0.00290478
-0.00290478
-0.00166053
-0.00166053
0.00298273
0.00298273
-0.00833277
-0.00833277
-0.0191357
-0.0191357
-0.0395537
-0.0395537
-0.0274247
-0.0274247
-0.0152745
-0.0152745
-0.0105667
-0.0105667
-0.0473737
-0.0473737
-0.002328
-0.002328
-0.0205754
-0.0205754
0.00490455
0.00490455
-0.000726164
-0.000726164
-0.0275192
-0.0275192
-0.00906108
-0.00906108
-0.00806114
-0.00806114
-0.0210969
-0.0210969
-0.00187121
-0.00187121
-0.00264541
-0.00264541
-0.00165194
-0.00165194
-0.00408579
-0.00408579
-0.0208144
-0.0208144
-0.00267055
-0.00267055
-0.00202851
-0.00202851
-0.00192546
-0.00192546
-0.000414874
-0.000414874
-0.0157027
-0.0157027
-0.000973278
-0.000973278
-0.0284105
-0.0284105
-0.046409
-0.046409
-0.00473983
-0.00473983
0.00385021
0.00385021
-0.00843845
-0.00843845
-0.00879118
-0.00879118
-0.00334327
-0.00334327
-0.0117362
-0.0117362
0.00222611
0.00222611
-0.00237968
-0.00237968
-0.00184476
-0.00184476
-0.00150467
-0.00150467
-0.001295
-0.001295
-0.00102708
-0.00102708
-0.000816537
-0.000816537
-0.000618114
-0.000618114
-0.000439225
-0.000439225
-0.00029083
-0.00029083
-0.000142792
-0.000142792
-1.90447e-05
-1.90447e-05
9.17426e-05
9.17426e-05
0.000198035
0.000198035
0.000264967
0.000264967
0.0003262
0.0003262
0.00038287
0.00038287
0.000404978
0.000404978
0.000425767
0.000425767
0.000416192
0.000416192
0.000414082
0.000414082
0.000375036
0.000375036
0.00031461
0.00031461
0.00026935
0.00026935
0.000186139
0.000186139
9.36583e-05
9.36583e-05
-3.46151e-05
-3.46151e-05
-0.000142926
-0.000142926
-0.000260507
-0.000260507
-0.000447359
-0.000447359
-0.000598387
-0.000598387
-0.000870481
-0.000870481
-0.0010269
-0.0010269
-0.00119954
-0.00119954
-0.0015983
-0.0015983
-0.00190143
-0.00190143
-0.00201514
-0.00201514
-0.00238714
-0.00238714
-0.00307486
-0.00307486
-0.00338282
-0.00338282
-0.00373878
-0.00373878
-0.00462366
-0.00462366
-0.00546379
-0.00546379
-0.00643064
-0.00643064
-0.00779976
-0.00779976
-0.0101149
-0.0101149
-0.012416
-0.012416
-0.0169874
-0.0169874
-0.0198201
-0.0198201
-0.00971699
-0.00971699
0.000928043
0.000928043
-0.0026991
-0.0026991
-0.00380344
-0.00380344
-0.00298244
-0.00298244
-0.00300614
-0.00300614
-0.00285474
-0.00285474
-0.00399073
-0.00399073
-0.00584851
-0.00584851
-0.00701243
-0.00701243
-0.00823382
-0.00823382
-0.00938376
-0.00938376
-0.0101967
-0.0101967
-0.0104186
-0.0104186
-0.0101774
-0.0101774
-0.00968248
-0.00968248
-0.00891059
-0.00891059
-0.00795953
-0.00795953
-0.00688435
-0.00688435
-0.00588456
-0.00588456
-0.00491867
-0.00491867
-0.00416828
-0.00416828
-0.00382594
-0.00382594
-0.0034937
-0.0034937
-0.00200768
-0.00200768
-0.00186113
-0.00186113
-0.00161304
-0.00161304
-0.00123561
-0.00123561
-0.00102872
-0.00102872
-0.000889068
-0.000889068
-0.000596917
-0.000596917
-0.000468883
-0.000468883
-0.000259213
-0.000259213
-0.000140348
-0.000140348
-3.41344e-05
-3.41344e-05
9.84591e-05
9.84591e-05
0.000185652
0.000185652
0.000267312
0.000267312
0.000309748
0.000309748
0.000383826
0.000383826
0.000400642
0.000400642
0.000414756
0.000414756
0.000402992
0.000402992
0.000415844
0.000415844
0.000376878
0.000376878
0.000321644
0.000321644
0.00027358
0.00027358
0.00018344
0.00018344
9.46091e-05
9.46091e-05
-1.497e-05
-1.497e-05
-0.000147298
-0.000147298
-0.000282439
-0.000282439
-0.000448177
-0.000448177
-0.000625892
-0.000625892
-0.00083246
-0.00083246
-0.00103562
-0.00103562
-0.00127333
-0.00127333
-0.00153114
-0.00153114
-0.0018692
-0.0018692
-0.00241413
-0.00241413
-0.00343511
-0.00343511
-0.00383292
-0.00383292
-0.00417331
-0.00417331
-0.00493466
-0.00493466
-0.00588483
-0.00588483
-0.00695239
-0.00695239
-0.0080704
-0.0080704
-0.00901385
-0.00901385
-0.00980135
-0.00980135
-0.0102961
-0.0102961
-0.0104471
-0.0104471
-0.0101946
-0.0101946
-0.00953808
-0.00953808
-0.00812208
-0.00812208
-0.00667345
-0.00667345
-0.00519967
-0.00519967
-0.00411325
-0.00411325
-0.00347526
-0.00347526
-0.00261813
-0.00261813
-0.00270797
-0.00270797
-0.00299971
-0.00299971
-0.00253688
-0.00253688
-0.000981338
-0.000981338
-0.00810389
-0.00810389
-0.0185461
-0.0185461
-0.0184018
-0.0184018
-0.0135433
-0.0135433
-0.00960967
-0.00960967
-0.00817852
-0.00817852
-0.00615603
-0.00615603
-0.00535292
-0.00535292
-0.00482656
-0.00482656
-0.00385555
-0.00385555
-0.00324318
-0.00324318
-0.00303251
-0.00303251
-0.00255478
-0.00255478
      </DataArray> 
    </PointData>
    <CellData>
    </CellData>
  </Piece>
  </UnstructuredGrid>
</VTKFile>
