<?xml version="1.0"?>
<VTKFile type="UnstructuredGrid">
  <UnstructuredGrid>
  <Piece NumberOfPoints="3487"  NumberOfCells="1698">
    <Points>
      <DataArray type="Float64" NumberOfComponents="3" format="ascii">
39.9736 48.773 0
60.0267 48.7725 0
40.6342 48.9038 0
41.2964 49.0257 0
41.9601 49.1385 0
42.6251 49.2424 0
43.2914 49.3373 0
43.9589 49.4232 0
44.6275 49.5001 0
45.297 49.568 0
45.9673 49.6268 0
46.6384 49.6766 0
47.3101 49.7174 0
47.9822 49.749 0
48.6547 49.7717 0
49.3274 49.7852 0
50.0003 49.7898 0
50.6731 49.7852 0
51.3459 49.7716 0
52.0184 49.7489 0
52.6905 49.7172 0
53.3621 49.6764 0
54.0332 49.6266 0
54.7035 49.5677 0
55.373 49.4998 0
56.0416 49.4229 0
56.7091 49.337 0
57.3753 49.242 0
58.0403 49.1381 0
58.7039 49.0252 0
59.3661 48.9033 0
39.9964 49.7889 0
39.9955 49.5349 0
39.9913 49.2809 0
39.984 49.0269 0
19.9402 69.7328 0
39.994 50.0505 0
39.9882 50.3121 0
39.9738 50.6905 0
39.9521 51.0685 0
39.9081 51.6147 0
39.8492 52.1595 0
39.7374 52.9446 0
39.5946 53.7246 0
39.3333 54.8419 0
39.0083 55.9426 0
38.734 56.7263 0
38.4273 57.498 0
38.0889 58.2563 0
37.7192 59 0
37.1303 60.0475 0
36.4796 61.0577 0
35.7693 62.0271 0
-0.0313467 49.7042 0
17.3302 69.5564 0
14.7654 69.0413 0
12.2897 68.1962 0
9.94528 67.0357 0
7.77224 65.5793 0
11.5355 31.7129 0
0.173594 46.8853 0
0.775039 44.1239 0
1.76116 41.4753 0
0 0 0
0.124484 3.71587 0
0.535401 7.41552 0
1.22703 11.0754 0
2.19467 14.6718 0
3.1 17.3206 0
49.9998 -0.201093 0
5.1116 0 0
10.2232 0 0
15.3348 0 0
100 0 0
57.4001 -0.19481 0
64.8003 -0.17187 0
72.1959 -0.123852 0
88.4649 31.7124 0
99.8756 3.71586 0
99.4647 7.41539 0
98.7731 11.0753 0
97.8054 14.6717 0
96.9001 17.3205 0
100.031 49.704 0
99.8265 46.885 0
99.2251 44.1236 0
98.2389 41.4751 0
80.0598 69.7324 0
99.8644 52.3144 0
99.3576 54.8807 0
98.5199 57.3587 0
97.3656 59.7062 0
95.9148 61.8829 0
60.0038 49.7883 0
77.5489 69.5798 0
75.0769 69.1135 0
72.6829 68.3411 0
70.4046 67.2746 0
68.9169 66.3745 0
67.5129 65.3486 0
66.2033 64.2048 0
64.9979 62.9515 0
64.2307 62.0266 0
63.5205 61.0572 0
62.8697 60.047 0
62.2809 58.9995 0
61.5728 57.4976 0
60.9918 55.9421 0
60.6668 54.8415 0
60.4056 53.7241 0
60.2627 52.9441 0
60.0047 49.5343 0
60.0089 49.2803 0
60.0163 49.0264 0
52.8183 30.0442 0
26.5321 36.8672 0
40.3355 24.1714 0
24.9408 22.447 0
71.9297 22.4725 0
72.7045 43.923 0
54.8017 23.9945 0
15.2983 47.3809 0
38.36 49.401 0
23.5889 65.2081 0
7.693 7.73618 0
91.9486 7.71448 0
29.1581 56.8567 0
37.1815 51.8723 0
28.0878 47.1679 0
29.7266 48.1291 0
71.5156 46.6526 0
30.9846 49.0275 0
70.5158 48.1307 0
31.6364 45.6144 0
30.8867 47.0699 0
70.0643 46.641 0
68.9828 44.9647 0
31.2883 50.1227 0
30.9001 51.3458 0
28.1855 49.1249 0
45.3084 41.248 0
53.8437 40.8691 0
56.0273 40.418 0
73.1288 47.4078 0
70.1165 49.3714 0
68.3312 42.3938 0
32.3123 42.7239 0
26.1362 45.6504 0
27.6772 44.6545 0
30.3052 43.2823 0
70.4121 42.593 0
72.6771 45.9186 0
44.8491 43.0404 0
51.4306 41.947 0
55.4097 42.5334 0
32.4485 49.0634 0
68.5571 49.6074 0
39.4774 42.0318 0
35.4401 43.3485 0
32.8945 46.5125 0
33.5762 48.2606 0
67.1049 48.2056 0
67.9828 46.4429 0
65.0724 43.0118 0
60.4188 41.6694 0
32.364 51.3821 0
28.2124 50.9839 0
41.7785 37.254 0
46.8235 37.6586 0
52.049 39.8316 0
58.6779 39.2012 0
26.6005 51.8809 0
24.2957 50.3151 0
74.2308 49.9216 0
71.1688 50.6233 0
69.1468 52.2034 0
67.9214 52.3368 0
59.7621 36.3211 0
66.5022 40.6392 0
34.1084 41.0156 0
36.0261 35.7527 0
23.1813 47.1452 0
21.6461 43.2485 0
28.354 41.7656 0
74.3175 44.6784 0
76.64 48.5286 0
43.0543 43.6285 0
46.2687 42.9142 0
49.9681 42.9621 0
48.4328 42.745 0
51.7631 43.9997 0
54.0883 44.1155 0
52.9061 44.4111 0
56.2726 43.6642 0
33.88 49.3561 0
33.7798 50.8698 0
66.5403 51.6853 0
66.5976 49.694 0
41.832 43.866 0
40.7029 43.6037 0
38.4608 43.2111 0
37.1424 43.8165 0
35.3463 45.5249 0
34.3257 46.8047 0
66.0235 46.5288 0
65.0185 45.255 0
63.1896 43.5003 0
61.7041 43.0508 0
58.8785 43.464 0
57.539 43.7802 0
33.3916 52.0933 0
29.1608 53.7047 0
40.8348 30.9767 0
50.8853 35.9726 0
55.6673 34.2548 0
23.5536 53.4283 0
76.9241 51.8968 0
70.2437 53.3111 0
66.4118 52.9267 0
65.4717 35.1373 0
30.9541 34.5553 0
19.4429 47.2671 0
26.1294 40.0026 0
72.0011 34.0761 0
72.0522 41.3534 0
77.486 45.2822 0
43.1672 45.0707 0
45.8094 44.7068 0
48.7648 44.7977 0
51.4434 45.4263 0
53.7689 45.542 0
56.2179 45.3624 0
34.9076 50.0671 0
65.0879 50.2834 0
40.8155 45.0458 0
38.3677 45.3885 0
36.0285 47.2735 0
64.1402 47.0182 0
61.6494 45.2951 0
58.8242 45.1622 0
36.0641 52.3414 0
34.9124 53.1046 0
33.4966 53.6166 0
31.8946 55.4091 0
26.0827 58.8783 0
22.9866 57.2828 0
32.4003 22.6805 0
47.0374 26.6628 0
63.1357 23.024 0
19.9801 54.9921 0
80.1974 54.2575 0
75.8097 55.7651 0
71.9463 56.1171 0
69.0984 55.4375 0
65.7799 53.9354 0
64.1037 53.7796 0
68.1504 28.9792 0
26.7801 30.0682 0
17.2309 51.7237 0
14.5981 42.4232 0
22.4058 34.0458 0
84.9005 46.8426 0
84.7295 51.9957 0
75.1674 37.9139 0
81.2147 43.9185 0
42.4566 46.4012 0
41.4161 46.2096 0
44.9656 46.2466 0
43.6792 46.1636 0
47.7363 46.1879 0
46.3856 46.1204 0
50.62 46.5011 0
49.272 46.4051 0
53.0507 46.8963 0
51.7631 46.9125 0
55.5132 46.5086 0
54.2332 46.6006 0
58.0615 46.4624 0
56.78 46.6247 0
36.3725 48.5959 0
36.025 49.5976 0
35.9248 51.1118 0
63.3891 52.0456 0
63.832 51.0328 0
63.8894 49.0408 0
63.8378 48.138 0
40.2867 45.947 0
39.371 46.1267 0
38.0521 46.7316 0
37.3933 47.316 0
62.8327 46.864 0
62.0168 46.5393 0
60.5309 46.0903 0
59.4013 46.146 0
38.0554 52.5428 0
36.1689 53.8654 0
34.064 56.7267 0
29.5839 59.7953 0
22.8562 61.3421 0
21.7418 15.4011 0
39.9675 16.1979 0
48.9012 11.4798 0
56.9412 16.9279 0
76.6412 15.6379 0
15.6203 57.0391 0
84.5388 57.4743 0
73.4261 59.4599 0
66.5292 55.5955 0
62.4623 53.5505 0
82.9401 7.83263 0
79.7375 22.5935 0
16.3079 7.91435 0
18.3521 22.3098 0
10.711 46.7413 0
16.5842 35.9828 0
15.5296 30.3879 0
89.4175 49.6169 0
83.3034 31.2313 0
81.5739 39.2771 0
41.928 47.3027 0
44.2553 47.5773 0
46.8926 47.7278 0
49.5916 47.8914 0
52.2273 47.9712 0
54.795 47.863 0
57.3568 47.6088 0
37.3899 49.6406 0
37.9163 51.3127 0
62.1905 50.803 0
62.5816 48.887 0
39.9714 47.2908 0
38.3965 48.0545 0
38.5112 48.8245 0
61.7656 48.5229 0
61.7141 47.6595 0
59.7684 47.3909 0
38.8863 51.0735 0
61.3508 51.0078 0
39.1924 52.8539 0
38.4576 53.4133 0
38.1645 54.5222 0
37.0129 55.2851 0
36.5072 57.0581 0
34.8578 58.5798 0
33.3488 60.4362 0
30.7306 62.5449 0
27.9688 64.6949 0
27.172 7.81588 0
38.6572 8.33463 0
59.8756 8.55853 0
71.7641 7.89541 0
19.2146 64.6512 0
14.9185 62.9159 0
10.72 60.1269 0
6.27346 57.082 0
5.98505 51.1502 0
94.2491 52.247 0
93.3359 57.3008 0
89.3526 60.6462 0
84.6011 63.1597 0
79.4944 64.8334 0
74.5948 63.8687 0
70.2856 62.5895 0
66.8473 61.1378 0
65.2305 58.4669 0
62.7288 57.1418 0
62.0844 55.6132 0
61.7912 54.5043 0
61.0766 52.77 0
93.4948 14.5411 0
89.7943 20.7095 0
86.105 25.0527 0
6.25155 14.5342 0
13.0136 24.5181 0
9.79043 20.6992 0
5.75079 45.5835 0
5.64975 40.6413 0
12.3075 34.712 0
94.2394 47.1292 0
88.1179 37.0572 0
93.3649 42.4025 0
41.0917 48.0684 0
40.4306 47.942 0
42.1326 48.26 0
43.4637 48.4587 0
42.7968 48.3683 0
44.7503 48.5418 0
46.09 48.6684 0
45.4193 48.6141 0
47.441 48.7359 0
48.7854 48.7902 0
48.1128 48.7721 0
50.1336 48.8863 0
51.479 48.8682 0
50.8064 48.8863 0
52.7667 48.8519 0
54.1093 48.7613 0
53.4386 48.8157 0
55.3894 48.6693 0
56.7252 48.5065 0
56.0584 48.5969 0
58.0071 48.3443 0
59.3325 48.1095 0
58.6713 48.2358 0
39.3712 51.5259 0
39.3197 52.0713 0
60.9494 51.9875 0
60.8979 51.4421 0
38.0123 50.4031 0
39.1337 49.5871 0
61.7936 49.9946 0
61.8173 49.4261 0
60.9775 49.6306 0
39.5145 48.1215 0
39.1704 48.2403 0
60.9495 48.1984 0
60.4625 48.0536 0
39.4672 50.616 0
60.501 50.6336 0
39.4894 49.9762 0
39.4853 50.2378 0
60.4829 50.2554 0
60.4789 49.9938 0
39.6408 49.3995 0
39.6293 48.8917 0
39.6382 49.1455 0
60.5024 49.425 0
60.5049 49.1711 0
60.514 48.9173 0
61.0011 49.062 0
39.285 49.0104 0
60.9539 50.1993 0
38.9823 50.1637 0
60.8982 47.3348 0
39.0554 47.4702 0
62.6334 49.7901 0
37.0422 50.6425 0
61.7478 51.8162 0
38.7902 51.9833 0
58.6385 47.4465 0
56.0751 47.7709 0
53.515 47.955 0
50.9397 47.9874 0
48.2435 47.7953 0
45.5418 47.6603 0
42.9687 47.4943 0
40.8873 47.111 0
89.1595 44.772 0
10.922 40.901 0
13.2809 16.1732 0
85.8809 16.3812 0
63.177 55.2846 0
68.9289 58.4518 0
78.9584 59.8469 0
89.3044 54.8992 0
11.7586 52.8475 0
19.2194 59.6735 0
66.71 15.748 0
30.7615 15.4688 0
26.3415 62.1159 0
32.1514 57.967 0
35.0172 54.6285 0
37.3206 53.1023 0
62.5301 47.984 0
37.7373 48.6387 0
75.9385 28.6734 0
20.5151 28.5823 0
47.9151 19.2819 0
60.1638 44.8457 0
63.1354 45.7441 0
37.0489 45.9934 0
39.6862 44.7832 0
65.1455 48.2919 0
65.0307 52.2752 0
34.8074 51.5811 0
35.0076 48.5532 0
57.4845 45.4784 0
54.9513 45.2464 0
52.5865 45.8376 0
50.3004 45.0149 0
47.2292 44.5805 0
44.3896 44.833 0
41.9447 45.3082 0
74.3448 42.6834 0
80.2693 48.8688 0
17.9952 43.3258 0
21.3063 50.7796 0
34.4434 29.6979 0
59.9844 30.249 0
67.793 53.5781 0
73.4065 53.0158 0
54.4616 38.7538 0
46.5087 32.91 0
26.2276 55.3851 0
31.9757 52.6054 0
69.7607 40.0225 0
30.9809 40.3922 0
57.5936 42.0821 0
63.2442 41.2566 0
66.9017 44.7661 0
33.6437 45.0566 0
37.2354 41.6396 0
41.7193 42.424 0
68.05 51.0957 0
32.7522 50.1588 0
53.2256 42.9845 0
49.6359 40.9095 0
74.2903 46.6738 0
25.7258 43.1378 0
71.9673 48.1421 0
26.5467 48.1636 0
69.0645 48.1194 0
32.1448 47.9682 0
71.0642 45.1632 0
29.6286 46.1719 0
29.8243 50.0866 0
88.1526 34.3983 0
96.8876 38.9933 0
91.2997 35.7588 0
92.2298 38.621 0
96.0831 37.8308 0
88.4979 40.793 0
3.1125 38.9936 0
11.8738 33.1704 0
10.0048 35.0392 0
3.91709 37.831 0
8.3178 37.5399 0
11.6925 37.0517 0
11.4017 22.6094 0
10.988 26.4663 0
9.37628 24.5597 0
11.8667 28.9512 0
4.1541 19.9127 0
5.35366 22.4397 0
8.24105 22.7942 0
11.5351 18.4352 0
13.1461 20.3463 0
8.02019 17.6185 0
6.97151 20.3065 0
5.20175 17.2221 0
6.69451 24.893 0
7.79257 26.6832 0
4.22274 14.6032 0
9.76531 15.3549 0
87.95 22.8817 0
90.4162 24.5643 0
88.5714 26.7321 0
91.5515 22.799 0
95.846 19.9126 0
94.6464 22.4395 0
87.715 29.2662 0
85.9942 20.7176 0
87.8382 18.5443 0
91.6454 17.6272 0
94.6716 17.2254 0
92.821 20.3116 0
95.6506 14.6066 0
93.3055 24.8927 0
92.2074 26.6829 0
89.6889 15.4625 0
65.8205 8.21876 0
62.3331 4.19157 0
68.2812 3.85811 0
54.9422 4.17466 0
79.5536 0 0
84.6652 0 0
75.6586 3.93431 0
69.236 11.8193 0
63.2925 12.153 0
32.9141 8.06677 0
31.1868 3.81747 0
36.9327 4.08041 0
23.8095 3.8971 0
20.4464 0 0
27.8045 -0.123406 0
44.3235 4.06162 0
34.7102 11.9014 0
28.9675 11.6407 0
81.6546 35.0908 0
85.4257 34.5871 0
85.0536 38.1691 0
86.2926 31.6407 0
85.0283 42.2459 0
77.292 34.0256 0
80.0321 31.2033 0
16.0625 32.9058 0
14.1068 35.3133 0
13.9183 32.8578 0
14.161 38.5379 0
13.5315 31.0531 0
17.6183 30.0373 0
18.7494 33.0041 0
16.5239 27.3567 0
14.1067 28.3162 0
15.6829 23.4129 0
15.8164 19.241 0
19.4349 25.4445 0
81.6162 27.2902 0
82.9212 23.8223 0
84.8524 28.7026 0
82.8087 19.486 0
77.8363 25.6315 0
79.7898 11.7332 0
74.2001 11.7717 0
77.3474 7.87183 0
71.673 15.6915 0
81.2488 3.91334 0
84.4112 12.106 0
81.2601 16.0103 0
52.922 14.2023 0
54.3873 10.0152 0
58.4069 12.7428 0
49.45 5.63847 0
61.825 16.3348 0
52.4278 18.1028 0
48.4082 15.381 0
44.4337 13.837 0
39.3137 12.2663 0
43.7803 9.90355 0
35.3652 15.8304 0
43.9418 17.738 0
19.025 11.6568 0
21.7436 7.87424 0
24.4592 11.6138 0
18.3753 3.95395 0
26.254 15.4345 0
17.5118 15.7878 0
14.7937 12.0428 0
74.6465 34.0509 0
78.7613 37.4631 0
78.0993 41.0538 0
74.756 40.2984 0
21.462 31.3134 0
19.3702 36.7349 0
17.0668 39.5511 0
19.7403 40.3547 0
73.9689 31.3738 0
73.5836 35.9955 0
72.464 38.9679 0
70.8806 37.0487 0
68.7361 34.6063 0
66.8106 32.0574 0
70.075 31.5284 0
62.7274 32.6936 0
64.0669 29.6132 0
72.044 28.8264 0
67.6153 37.5806 0
32.6993 32.127 0
35.235 32.7248 0
33.4902 35.1537 0
33.5044 38.0732 0
36.6309 38.6958 0
30.9679 37.4737 0
59.873 33.2849 0
62.6168 35.7289 0
64.3579 38.1963 0
61.5026 38.7892 0
57.8259 32.2514 0
57.7145 35.288 0
57.112 37.5373 0
55.0645 36.5042 0
46.6661 35.2842 0
48.6968 34.4411 0
48.8545 36.8156 0
50.2607 38.441 0
52.6732 37.3632 0
48.2295 39.284 0
38.9023 36.5031 0
38.431 33.365 0
41.3068 34.1151 0
37.6393 30.3367 0
43.6717 31.943 0
44.144 35.0821 0
39.5076 39.4473 0
44.301 37.4563 0
46.0661 39.4533 0
43.514 41.8361 0
47.4722 41.0787 0
43.5433 39.2508 0
41.749 39.8389 0
90.8647 3.85697 0
87.4453 7.77588 0
86.365 3.9223 0
88.9175 12.0516 0
89.7768 0 0
94.8884 0 0
95.9786 3.85981 0
96.4822 10.9823 0
92.723 11.127 0
95.7069 7.56667 0
91.0341 28.4226 0
90.4188 29.2719 0
4.114 7.57749 0
6.97098 11.1344 0
3.39107 10.9787 0
10.4843 11.9581 0
8.966 28.4231 0
9.58127 29.2726 0
3.84228 3.87044 0
13.2594 3.96239 0
11.9996 7.82726 0
8.95609 3.86769 0
35.1995 -0.171607 0
42.5996 -0.194612 0
58.9684 23.5078 0
55.871 20.4611 0
60.0382 19.9762 0
51.3585 21.6375 0
64.9222 19.385 0
61.5596 26.636 0
57.3926 27.1222 0
67.5316 22.7472 0
70.0391 25.7246 0
65.6425 26.0026 0
73.9339 25.5741 0
69.3192 19.1123 0
78.19 19.1165 0
75.8324 22.5329 0
74.2842 19.0524 0
23.3421 18.922 0
21.6474 22.378 0
20.0463 18.8561 0
22.7278 25.5158 0
27.8517 18.9606 0
29.5909 26.376 0
25.8618 26.2565 0
28.6715 22.5633 0
23.648 29.3251 0
31.5813 19.0742 0
33.4225 26.1887 0
30.6122 29.8829 0
40.5855 27.5742 0
43.6866 25.4162 0
43.9365 28.8199 0
44.1254 21.7262 0
47.4763 22.9726 0
46.7731 29.7866 0
37.39 26.9354 0
36.1845 19.4399 0
40.1521 20.1849 0
36.3685 23.4245 0
26.6573 33.4676 0
24.469 35.4561 0
24.5938 32.0578 0
22.5922 39.0148 0
28.8675 32.3108 0
28.7435 35.7116 0
28.7564 38.6291 0
51.8519 33.0083 0
54.2426 32.1495 0
53.2764 35.1135 0
56.4012 30.1461 0
49.6637 31.4768 0
50.9195 25.3277 0
53.8099 27.0194 0
49.9277 28.3532 0
6.55985 37.1338 0
6.98345 39.0895 0
5.22513 38.6856 0
9.61911 39.2217 0
8.28511 40.7711 0
4.3809 39.8174 0
4.80231 36.7289 0
5.76401 35.6929 0
7.55642 36.1349 0
10.848 36.0466 0
10.0046 37.2958 0
9.16085 36.2884 0
11.3067 38.9754 0
8.40066 34.8826 0
11.1556 34.8762 0
11.9996 35.8811 0
11.7004 30.336 0
10.2148 30.1071 0
11.0396 29.5269 0
12.4393 26.7349 0
10.4156 28.6867 0
10.8653 30.9233 0
89.7853 30.1062 0
88.0901 30.4924 0
88.7514 29.6835 0
89.3754 28.8436 0
86.911 27.1598 0
89.1352 30.9225 0
85.8586 33.1135 0
87.2199 33.0226 0
86.7887 34.4949 0
87.3786 31.6779 0
88.3099 33.0539 0
88.1356 35.7272 0
86.7718 35.8234 0
84.3624 32.9105 0
84.7982 31.4363 0
86.7761 39.4813 0
86.7632 41.5203 0
85.0414 40.2069 0
88.829 42.7819 0
87.0943 43.5089 0
83.3011 40.7621 0
83.3136 38.7237 0
86.5857 37.6145 0
88.3083 38.9244 0
79.473 34.5587 0
78.6618 32.6141 0
80.8421 33.1474 0
76.6142 31.3496 0
77.9852 29.9388 0
81.6679 31.2174 0
82.4781 33.1607 0
81.6143 37.1838 0
80.2081 36.2767 0
14.1334 36.925 0
12.9266 37.7957 0
12.8995 36.1832 0
12.541 39.7195 0
13.2073 35.0134 0
15.3456 35.6485 0
15.3728 37.2611 0
12.8968 33.016 0
12.7064 32.1149 0
13.726 31.9553 0
11.7045 32.4413 0
12.5338 31.3847 0
14.5304 30.7208 0
14.7256 31.6236 0
13.1138 33.7864 0
12.0905 33.9409 0
16.8415 31.4719 0
18.1847 31.5204 0
17.4059 32.9551 0
19.0666 29.3101 0
19.6334 30.7934 0
17.6678 34.4942 0
16.3236 34.4442 0
15.7972 31.6467 0
16.5739 30.2127 0
13.8194 29.6849 0
12.7006 29.9995 0
12.9868 28.6321 0
13.5599 26.4173 0
14.8191 29.3512 0
16.027 28.8724 0
17.0719 28.6966 0
18.5201 27.9689 0
17.4376 24.8336 0
86.2834 28.9828 0
87.0012 30.4509 0
85.5718 30.1721 0
84.0767 29.9662 0
85.4787 26.8771 0
82.4591 29.2609 0
80.8228 29.2461 0
80.6771 24.9421 0
78.7766 27.9813 0
80.1672 38.3706 0
79.8366 40.1655 0
78.4303 39.2583 0
76.6329 39.4843 0
76.222 41.8685 0
76.9642 37.6886 0
15.614 39.0451 0
15.8323 40.9873 0
14.3792 40.48 0
17.5308 41.4381 0
16.2967 42.875 0
12.7599 41.663 0
16.8252 37.7666 0
19.5552 38.5446 0
18.4036 39.9531 0
18.2188 38.1435 0
18.8677 41.8404 0
17.9772 36.359 0
20.8887 35.3909 0
20.9811 37.8746 0
20.6931 41.8013 0
21.1665 39.6851 0
24.5626 37.9415 0
22.4995 36.5302 0
19.8208 43.2875 0
22.1193 41.1317 0
24.1588 41.0758 0
23.6862 43.1934 0
79.6568 42.4866 0
79.3502 44.6005 0
77.7928 43.1677 0
80.7422 46.3931 0
78.8777 47.0756 0
75.9152 43.9831 0
81.3946 41.5973 0
90.3645 39.7082 0
92.7978 40.5113 0
90.932 41.5971 0
94.5589 38.8057 0
95.127 40.6982 0
91.2627 43.588 0
90.1746 37.8384 0
93.2488 36.2418 0
93.7143 37.6748 0
91.7652 37.1895 0
95.1978 36.7288 0
89.7097 36.4096 0
92.2516 35.2433 0
94.2363 35.6927 0
89.55 33.7203 0
91.1227 34.3979 0
89.727 35.0773 0
93.203 34.7283 0
92.1031 33.841 0
93.8025 44.7655 0
96.2953 43.2613 0
96.7327 45.6264 0
90.9417 33.0362 0
89.7277 32.3224 0
97.1358 48.4152 0
91.7 45.9498 0
10.4639 33.1032 0
10.9382 34.1025 0
9.52961 34.0389 0
6.79707 34.7286 0
7.89702 33.8411 0
5.69964 43.1125 0
3.2626 44.8532 0
3.21204 42.3809 0
2.85923 47.642 0
9.05778 33.0362 0
10.273 32.3221 0
8.3355 43.24 0
66.0389 59.8023 0
65.1838 61.0974 0
64.3754 59.7619 0
65.9225 62.0445 0
60.151 52.159 0
60.092 51.6142 0
63.7556 58.733 0
67.0796 58.4592 0
67.888 59.7946 0
68.5664 61.8636 0
68.8991 63.9688 0
67.1801 63.2431 0
70.345 64.9318 0
60.0481 51.068 0
60.0264 50.6899 0
69.6073 60.5206 0
77.0446 64.3509 0
77.2853 66.973 0
74.8358 66.4908 0
79.7772 67.2826 0
60.012 50.3116 0
60.0062 50.05 0
72.4994 65.5712 0
76.7762 61.8574 0
79.2264 62.3398 0
82.0476 63.9964 0
84.9179 66.0999 0
82.3649 66.9366 0
87.3283 65.0969 0
94.1924 63.8517 0
92.2278 65.5791 0
81.7801 61.503 0
91.3442 58.9735 0
93.7643 60.5757 0
91.7728 62.2483 0
95.351 58.503 0
90.0547 67.0354 0
87.7102 68.1959 0
89.7038 63.8402 0
89.3286 57.7723 0
91.3204 56.0996 0
93.7926 54.7738 0
96.8037 53.5629 0
96.347 56.0905 0
97.1406 50.9752 0
85.2345 69.0409 0
82.6698 69.556 0
91.7769 53.5733 0
6.1291 54.1159 0
3.45777 55.9812 0
3.31332 53.0143 0
4.45374 58.3938 0
5.80764 63.852 0
4.08516 61.8831 0
2.97652 50.4267 0
8.87156 51.999 0
9.01548 54.9638 0
8.49675 58.6045 0
8.26343 61.9887 0
6.04043 60.4665 0
10.3325 63.5806 0
2.63442 59.7065 0
1.48016 57.3589 0
11.2391 56.4863 0
17.0666 63.7834 0
16.9896 66.8457 0
14.8419 65.9781 0
19.5774 67.1916 0
0.642429 54.8809 0
0.135611 52.3146 0
12.4315 64.9751 0
17.0687 61.2944 0
19.217 62.162 0
29.3496 63.6198 0
31.6089 63.9468 0
30.2281 65.0217 0
32.8665 62.7482 0
35.0021 62.952 0
33.7967 64.2052 0
28.7822 65.9848 0
27.1552 63.4052 0
28.5362 62.3302 0
34.1033 59.508 0
35.6687 59.8186 0
34.9143 60.7468 0
36.2885 58.7897 0
32.4871 65.3491 0
31.0831 66.3749 0
34.1755 61.6939 0
32.7501 59.2014 0
33.5046 58.2732 0
29.5954 67.275 0
37.1133 58.0289 0
37.4673 57.278 0
37.7578 56.5003 0
35.7623 55.8431 0
27.3171 68.3415 0
83.54 34.8396 0
85.2402 36.3775 0
83.3532 36.6315 0
91.8337 50.9313 0
91.8288 48.3735 0
94.2445 49.688 0
89.2887 47.194 0
89.361 52.2577 0
15.0858 34.1108 0
14.0125 34.0854 0
14.9904 32.8821 0
8.34748 48.9445 0
5.86759 48.3667 0
8.23051 46.1626 0
10.816 43.8204 0
11.2346 49.7941 0
15.3153 27.8363 0
14.7694 25.9359 0
83.2344 27.9965 0
83.8593 26.1695 0
67.7291 57.0237 0
65.8798 57.031 0
64.2037 56.8758 0
64.8531 55.4399 0
74.0105 61.6641 0
72.4402 63.229 0
71.8556 61.0244 0
71.1775 58.9558 0
76.1922 59.6533 0
86.9461 59.0598 0
86.9768 61.9029 0
84.57 60.3165 0
81.7484 58.6605 0
86.9216 56.1868 0
15.2693 59.977 0
12.8194 61.5213 0
13.1698 58.5826 0
13.6895 54.9434 0
17.42 58.3563 0
31.4665 60.1156 0
32.0397 61.4905 0
30.1573 61.1699 0
27.9627 60.9556 0
30.8676 58.8811 0
35.2856 56.8923 0
35.6825 57.8189 0
34.4609 57.6531 0
33.1077 57.3468 0
34.5406 55.6776 0
78.0261 35.7447 0
76.2296 35.9694 0
84.8151 49.4186 0
87.1594 48.2295 0
87.0735 50.8066 0
87.0301 45.8079 0
87.0172 53.4471 0
82.4996 50.4322 0
82.5848 47.856 0
19.0602 34.8694 0
20.5776 33.5248 0
69.0136 56.9445 0
67.8138 55.5164 0
67.1611 54.5867 0
68.4457 54.5078 0
73.8779 55.9411 0
74.6177 57.6122 0
72.6863 57.7884 0
77.3842 57.8059 0
70.4375 57.2842 0
72.6764 54.5662 0
74.6081 54.3905 0
82.4633 53.1267 0
84.6342 54.7345 0
82.3684 55.8657 0
79.5778 57.0517 0
80.2335 51.5626 0
18.6056 53.3578 0
17.8 56.0155 0
16.4254 54.3809 0
19.5997 57.3324 0
14.4945 52.2857 0
19.2686 51.2518 0
20.6431 52.8856 0
24.5348 58.0805 0
24.4694 60.1102 0
22.9214 59.3122 0
26.2122 60.497 0
24.5989 61.7289 0
21.0379 60.5077 0
21.1029 58.4781 0
24.6071 56.334 0
26.1552 57.1316 0
32.023 56.6879 0
32.9794 56.0677 0
33.456 55.0187 0
31.9352 54.0072 0
84.9647 44.5437 0
83.0577 45.3807 0
83.1214 43.0827 0
71.095 54.7141 0
70.5223 55.7773 0
69.671 54.3742 0
69.0183 53.4445 0
71.825 53.1634 0
78.5608 53.0772 0
78.0034 55.0113 0
76.3668 53.8307 0
75.1652 52.4563 0
78.5966 50.3827 0
23.2701 55.3553 0
21.4835 56.1373 0
21.7668 54.2102 0
22.43 52.1038 0
24.8907 54.4066 0
78.4546 48.6988 0
77.063 46.9052 0
75.8881 45.9779 0
75.4651 47.6013 0
22.4136 45.1965 0
21.3122 47.2064 0
20.5445 45.2578 0
22.2438 48.9624 0
20.3746 49.0232 0
18.7189 45.2961 0
24.4537 45.1417 0
72.2876 51.8196 0
70.7062 51.967 0
69.6094 50.8594 0
71.568 49.3826 0
75.4354 49.225 0
76.7821 50.2125 0
75.5774 50.9093 0
73.8187 51.4685 0
74.2606 48.2976 0
25.4481 51.0979 0
25.077 52.6546 0
23.9246 51.8716 0
26.414 53.6329 0
22.801 50.5474 0
25.4212 49.2394 0
26.5736 50.0221 0
27.6942 54.5449 0
27.8807 52.7926 0
29.4926 51.8956 0
30.5683 53.1551 0
23.7385 48.7299 0
24.8641 47.6544 0
72.6998 50.2724 0
73.099 49.0319 0
27.6204 57.8675 0
29.371 58.3259 0
27.8334 59.3367 0
30.6548 57.4117 0
27.6929 56.1208 0
30.5278 54.5567 0
30.5264 56.1329 0
29.1594 55.2806 0
23.2226 63.2749 0
21.4018 64.9295 0
21.0352 62.9964 0
21.7643 67.4701 0
24.9651 63.6619 0
26.4457 66.9042 0
24.2561 67.1608 0
25.7789 64.9514 0
24.923 69.114 0
22.4511 69.5801 0
14.948 44.9015 0
13.0046 47.0616 0
12.654 44.5815 0
13.528 50.1134 0
16.6465 45.3532 0
18.3367 49.4951 0
16.2646 49.5521 0
17.3706 47.3244 0
58.4034 8.26054 0
60.0072 10.1789 0
79.5396 20.2784 0
77.0448 20.4721 0
69.2497 13.9819 0
67.5971 15.848 0
37.1867 13.366 0
34.8406 12.5131 0
72.2309 44.5497 0
70.3974 42.8506 0
36.7056 22.0987 0
37.3037 24.5225 0
46.0449 8.2448 0
45.1574 10.5822 0
1.84568 10.4206 0
4.05085 9.23935 0
16.1407 3.99889 0
14.361 2.25617 0
37.8044 13.4367 0
37.7704 10.9381 0
72.2747 1.17542 0
69.8098 1.57415 0
65.3724 25.0939 0
65.8293 22.6407 0
17.0812 0.163175 0
19.0987 1.62639 0
30.7615 0.405358 0
29.0225 2.20414 0
20.1618 28.9924 0
18.0362 27.6835 0
87.2266 22.9069 0
89.7047 23.2741 0
80.446 11.8898 0
79.0322 9.83168 0
53.4966 14.3901 0
52.9702 16.8338 0
79.8748 20.6862 0
77.3723 20.6342 0
95.4272 2.46911 0
96.8345 4.53307 0
40.4077 38.449 0
38.2001 39.62 0
34.3697 27.1114 0
35.0308 29.5176 0
88.374 30.4985 0
87.7542 28.095 0
42.444 31.9755 0
44.3239 30.3302 0
26.0712 12.8961 0
26.9063 10.5422 0
40.5545 37.5243 0
42.7845 36.3978 0
65.9187 38.698 0
67.4468 40.6752 0
21.6607 36.5745 0
24.1525 36.7744 0
87.3001 18.0159 0
88.9261 16.1286 0
31.3033 9.98876 0
28.8708 10.5687 0
60.2777 8.31997 0
61.5797 10.455 0
62.4195 9.39468 0
60.9665 7.35918 0
18.7623 6.98853 0
18.1825 9.40799 0
63.0451 43.8533 0
62.3511 46.253 0
84.29 25.8613 0
83.6027 28.2511 0
47.3528 44.2972 0
49.2162 42.6317 0
30.7345 4.81641 0
33.1074 5.5943 0
37.1935 2.32792 0
36.9 -0.153768 0
39.522 0.570985 0
37.852 2.43226 0
66.8573 34.5538 0
64.5995 35.619 0
25.236 21.3688 0
23.6635 23.3089 0
89.2264 30.2349 0
86.9644 29.1603 0
74.2867 10.0839 0
76.665 9.327 0
80.3509 12.8185 0
81.7542 14.8831 0
81.0975 16.9604 0
80.1855 19.2743 0
78.4131 10.7647 0
79.7578 12.8681 0
67.6725 27.515 0
65.1771 27.4044 0
62.4329 24.9254 0
60.004 24.343 0
61.7237 24.7498 0
62.494 27.1266 0
69.5175 32.9059 0
67.0314 32.6568 0
82.5795 12.5136 0
85.0224 13.0737 0
51.4585 18.193 0
53.5384 19.5762 0
66.9901 16.0239 0
65.1658 14.3128 0
20.0214 22.4303 0
20.476 19.9827 0
53.0639 24.0877 0
52.9557 21.5904 0
62.08 33.979 0
64.0451 35.5227 0
67.9487 28.2776 0
69.9143 26.7414 0
27.3536 19.4036 0
25.4254 17.8229 0
43.3839 4.00534 0
43.9163 1.56315 0
90.2223 10.2957 0
88.4248 8.56009 0
67.9657 36.825 0
68.6479 34.4253 0
9.52825 8.20741 0
11.9844 7.72139 0
49.9622 6.60253 0
52.3371 7.38358 0
81.1437 29.2262 0
83.0861 27.6603 0
43.14 20.0464 0
45.5329 20.7572 0
73.0218 25.5803 0
75.2456 24.4462 0
59.3107 18.5993 0
57.0652 19.6896 0
94.8268 14.9087 0
92.4067 14.2676 0
8.74794 19.4924 0
11.2083 19.0221 0
17.4525 22.7843 0
15.7928 20.9258 0
16.9412 36.5168 0
18.1485 34.3342 0
59.7829 42.0134 0
57.59 43.2101 0
84.6135 20.4389 0
84.6626 22.9247 0
9.90319 20.1084 0
7.80173 21.4688 0
16.8357 30.0806 0
15.2096 31.9703 0
46.6527 3.47743 0
48.1058 5.51169 0
57.7857 40.4268 0
55.7471 41.8703 0
67.5212 37.1175 0
69.594 38.5148 0
68.3626 7.58633 0
70.2489 5.95377 0
24.7986 8.58136 0
27.2244 9.16974 0
16.1219 15.5438 0
15.2179 17.865 0
96.9782 4.6518 0
94.5074 5.03838 0
25.2233 33.9134 0
26.0407 31.5559 0
16.8125 15.7434 0
17.9372 17.962 0
86.8936 15.715 0
88.5998 13.8987 0
26.9745 36.4822 0
28.2506 38.6246 0
45.0565 37.1461 0
42.7605 38.1308 0
25.9781 33.7642 0
28.4557 33.4342 0
70.554 16.0241 0
72.5247 17.5653 0
49.8256 47.7512 0
50.9704 45.5292 0
82.7685 18.4018 0
81.0884 16.5529 0
12.4135 5.61164 0
9.98842 5.00442 0
18.2999 2.66829 0
20.5317 1.53452 0
98.8971 4.27314 0
97.7012 6.46084 0
80.301 37.4994 0
80.8941 35.0817 0
48.5366 3.6732 0
48.4438 1.17568 0
46.0843 5.33878 0
43.9283 6.60537 0
61.1109 38.1324 0
59.0234 39.503 0
81.2059 11.143 0
81.7896 8.72911 0
79.3315 30.5263 0
77.0042 31.4297 0
52.397 8.19521 0
50.9319 6.16956 0
25.8897 30.0485 0
23.7556 28.755 0
94.5631 17.4777 0
96.8426 16.4557 0
29.5639 32.1875 0
31.872 33.1388 0
65.8283 4.4606 0
65.8081 6.95984 0
53.257 1.97649 0
51.4513 3.70648 0
14.5755 9.08697 0
15.1053 6.65649 0
7.21984 18.8748 0
5.02524 17.6838 0
61.2172 40.4168 0
59.8982 42.5381 0
74.2126 7.34261 0
73.8002 4.87932 0
23.5699 30.369 0
23.8107 27.8885 0
78.806 6.93785 0
76.6476 5.66423 0
79.0451 11.3381 0
81.161 12.677 0
7.63841 2.53701 0
5.1385 2.60816 0
76.4566 16.0237 0
74.4738 14.496 0
47.9014 9.41143 0
49.6883 11.1588 0
80.0436 2.04719 0
82.5013 1.59127 0
29.1656 30.0161 0
27.2112 28.4658 0
70.9819 16.4298 0
71.534 14.0003 0
4.52475 13.5852 0
6.48216 12.0286 0
40.5629 0.26936 0
39.5236 2.54265 0
60.414 12.4436 0
59.8432 14.8759 0
41.2084 3.61135 0
39.1707 5.06128 0
33.6449 29.5248 0
36.1353 29.7094 0
33.186 21.0326 0
32.9675 18.5465 0
79.6054 15.6016 0
80.1611 18.0288 0
72.6691 34.7841 0
70.5343 33.4838 0
56.7305 8.33769 0
54.3226 7.6671 0
44.5357 8.96579 0
43.2051 11.0826 0
82.5736 16.565 0
83.6847 14.3398 0
11.5882 0.31287 0
10.6946 2.64062 0
78.0223 16.1843 0
80.0544 17.6443 0
59.4272 3.07165 0
60.7522 5.19209 0
72.2865 1.30325 0
72.197 3.79993 0
66.8113 2.73846 0
68.0947 0.588782 0
13.3326 3.77283 0
15.152 2.06152 0
71.9787 26.6083 0
74.4356 27.0685 0
16.8397 17.533 0
15.4286 19.5907 0
72.2186 38.3906 0
72.1444 35.8974 0
43.4778 20.8327 0
41.2146 21.89 0
57.2623 19.303 0
57.5282 21.7882 0
64.6896 28.8497 0
67.1724 28.5812 0
24.6467 31.9543 0
27.0526 31.2764 0
50.1168 28.8382 0
49.1079 31.1241 0
59.812 37.2378 0
58.547 35.0827 0
22.4378 29.1261 0
24.8531 28.483 0
39.6944 35.9543 0
37.2441 36.4409 0
5.9063 10.0713 0
3.8778 11.5344 0
54.8041 20.8353 0
56.8369 22.2877 0
68.52 19.6943 0
68.8282 17.219 0
42.013 42.739 0
42.7782 45.1179 0
19.0778 24.6037 0
16.928 25.8786 0
69.2642 4.19689 0
66.9172 3.33154 0
18.729 12.8549 0
19.4318 10.4668 0
97.843 0.54879 0
97.0271 2.90222 0
21.3134 0.608074 0
21.781 3.0383 0
13.443 5.98379 0
14.5802 8.19616 0
94.8191 5.80927 0
95.349 3.37578 0
58.6746 11.6546 0
59.4757 14.0229 0
26.7293 39.9963 0
25.2329 41.9969 0
62.4328 18.7899 0
64.5397 17.4532 0
9.52611 7.75406 0
11.9398 7.09013 0
44.2794 18.1292 0
41.8925 18.8649 0
89.0214 10.8291 0
91.4845 10.3878 0
65.4969 41.6566 0
63.0724 41.0489 0
51.271 34.4392 0
53.682 33.79 0
12.7506 8.58835 0
14.7406 10.093 0
75.0603 18.4687 0
72.5658 18.2781 0
69.1749 26.4646 0
69.629 28.9187 0
19.5738 11.8273 0
21.8331 12.8917 0
36.8903 40.0793 0
34.4834 39.4106 0
29.307 28.3219 0
30.9236 30.221 0
12.3793 19.6066 0
13.5805 17.4207 0
42.0352 43.1836 0
39.6419 43.9035 0
34.2187 5.18096 0
33.7249 7.63211 0
94.9558 17.0718 0
93.8696 14.824 0
53.7774 26.3105 0
54.3572 28.7413 0
68.2982 36.3393 0
67.5231 38.711 0
71.2514 37.0574 0
69.3095 38.6251 0
30.4621 15.5805 0
32.6183 16.8341 0
62.7532 8.09194 0
65.237 8.36908 0
52.3948 17.3565 0
51.1256 19.5091 0
68.8493 3.6636 0
68.9132 6.16268 0
24.0076 7.76254 0
26.0439 9.19335 0
31.7685 14.6888 0
33.4847 16.4979 0
72.4522 6.0349 0
74.7252 5.02511 0
47.2224 15.2723 0
45.6803 17.2393 0
36.6618 41.8608 0
38.6936 40.4053 0
22.8119 10.4598 0
24.453 8.57089 0
22.9617 37.7841 0
25.3428 37.0185 0
79.5595 20.5197 0
81.8123 21.6096 0
80.4466 16.1382 0
78.1707 15.0928 0
68.186 34.2429 0
68.432 36.7267 0
32.7724 26.9879 0
35.0021 28.1088 0
49.0968 3.6249 0
47.4572 5.51246 0
34.1798 40.6534 0
32.8186 42.7487 0
47.6793 12.6074 0
48.2002 15.0524 0
50.2586 18.8244 0
51.6315 16.7364 0
33.8211 30.6621 0
34.5068 28.2609 0
2.35775 13.8221 0
4.84363 14.0995 0
40.0835 40.2584 0
40.8281 42.6432 0
10.1257 16.1704 0
9.50877 18.5842 0
32.9265 16.1247 0
31.883 18.3957 0
43.257 0.97789 0
45.6748 0.330867 0
37.1207 36.8617 0
39.3625 35.7581 0
81.2565 10.1056 0
81.7515 7.67252 0
30.4468 3.66699 0
28.2959 4.94688 0
49.4064 1.38311 0
47.6093 3.12211 0
60.7757 31.2753 0
62.5509 33.0338 0
26.1685 37.2795 0
24.4929 35.4328 0
33.9262 3.23126 0
36.4149 3.46569 0
46.8663 29.0919 0
45.8432 31.3717 0
19.4738 36.2033 0
21.1982 38.0034 0
56.1217 28.2883 0
58.6181 28.3235 0
92.825 9.47017 0
95.2425 10.1182 0
22.0734 29.0559 0
24.5448 29.4222 0
48.2784 17.7283 0
50.7284 18.2089 0
28.7996 21.6997 0
27.7465 19.4414 0
88.662 18.0432 0
91.0177 18.8947 0
85.3199 15.5326 0
82.819 15.671 0
59.5454 45.2263 0
60.8281 47.3719 0
89.5276 2.52574 0
89.7366 5.00691 0
95.4588 9.80145 0
93.3648 8.43373 0
64.4634 41.4744 0
62.9771 43.4815 0
56.0199 26.0792 0
58.3409 25.1607 0
71.0233 1.90913 0
71.0289 4.40841 0
51.419 11.8312 0
50.504 9.50465 0
58.3352 27.8551 0
57.6607 25.449 0
9.32864 7.85784 0
7.78245 5.90341 0
51.6903 13.4401 0
49.2103 13.1446 0
49.7137 24.3752 0
50.1426 26.8373 0
72.6095 28.4117 0
70.2071 27.7223 0
81.2993 36.3665 0
78.9861 37.3081 0
80.7696 18.2992 0
81.4238 20.7015 0
63.0485 6.32967 0
60.7621 5.3178 0
49.6093 11.8077 0
47.1172 11.6374 0
44.4734 28.513 0
42.0192 28.9729 0
88.6357 7.81962 0
88.1054 10.2495 0
72.3096 6.3919 0
71.0188 8.52222 0
87.6931 13.9264 0
88.6391 16.232 0
36.5601 40.8959 0
38.2813 42.7058 0
62.5551 3.62651 0
63.7313 1.42111 0
39.9467 15.1157 0
40.0924 12.6204 0
19.3807 6.44869 0
21.5239 5.1514 0
36.3611 45.8671 0
38.725 46.6799 0
34.5705 31.3507 0
32.3377 32.4731 0
58.9157 19.5635 0
60.7072 21.3063 0
78.2576 16.2126 0
75.8313 15.5912 0
15.8546 28.954 0
17.2164 26.8684 0
80.5533 1.66839 0
78.1492 2.33914 0
37.6418 41.6987 0
35.1596 41.991 0
84.077 21.4143 0
84.569 23.8528 0
86.5648 7.33245 0
86.2218 4.86874 0
44.7638 6.03441 0
46.5618 7.7707 0
84.1625 19.7622 0
84.0303 22.2448 0
71.965 17.5784 0
74.4487 17.295 0
77.1243 25.0193 0
76.5131 22.6035 0
97.1486 15.2872 0
94.6842 14.852 0
38.3392 23.623 0
40.4239 22.2452 0
40.919 1.75459 0
39.8548 4.0167 0
60.177 22.5194 0
57.8437 21.6275 0
23.1286 0.95722 0
24.5965 2.95767 0
71.9151 32.2307 0
69.4499 32.6321 0
44.2043 38.2163 0
42.2583 39.7839 0
34.1404 4.38374 0
35.593 6.41542 0
19.9504 15.5925 0
21.7003 17.3661 0
1.49009 8.36332 0
3.18011 10.2002 0
85.6139 25.0096 0
87.7347 23.6933 0
82.6869 14.8819 0
80.2574 14.2688 0
60.7646 3.26294 0
60.1661 5.68945 0
17.2868 24.2985 0
15.795 22.3042 0
51.8057 38.9001 0
50.5937 36.7149 0
59.7309 46.8639 0
62.0335 45.8914 0
81.6971 19.22 0
81.9929 21.69 0
60.0614 15.1155 0
57.6517 14.456 0
21.5934 24.4945 0
21.4846 26.9821 0
50.5585 36.6813 0
51.5022 34.3676 0
68.8359 24.1445 0
66.7717 22.7347 0
85.4155 32.0575 0
83.0692 32.9067 0
10.0241 12.7275 0
7.96076 14.1424 0
90.6763 3.18787 0
88.5786 1.82763 0
85.5571 8.46745 0
87.7152 7.21144 0
32.96 40.4711 0
33.1252 42.9619 0
16.5733 0.845243 0
18.9345 1.6588 0
80.4249 27.5609 0
82.3672 25.9944 0
21.4118 11.068 0
19.73 9.23368 0
93.527 17.1184 0
91.2289 16.1249 0
19.4005 35.6934 0
19.2571 33.2076 0
17.977 35.3242 0
20.2282 34.2356 0
76.6292 12.1096 0
75.0611 14.0415 0
20.8962 4.74183 0
18.5507 3.88676 0
26.3218 33.8314 0
24.1662 32.5744 0
55.327 7.06451 0
57.4754 5.78742 0
69.3451 3.85328 0
70.4274 6.10916 0
22.4101 17.0696 0
21.7165 14.6819 0
89.4935 6.15739 0
86.9909 6.14061 0
60.1571 4.2508 0
57.6685 4.00152 0
86.6787 11.3533 0
84.272 10.6574 0
80.9287 22.5685 0
82.104 20.3749 0
69.7825 32.4946 0
68.9829 30.1295 0
42.4534 48.9482 0
40.5294 47.3523 0
30.6472 29.4086 0
31.572 31.7247 0
19.9337 37.5285 0
20.2414 35.056 0
64.2201 5.63439 0
62.4869 7.43277 0
91.4352 1.97517 0
90.9771 4.42226 0
85.7585 10.1407 0
87.2382 12.1507 0
16.1108 1.27761 0
14.0714 2.72144 0
71.9493 36.6353 0
74.373 36.0301 0
14.8979 16.2724 0
17.325 16.8804 0
85.8621 30.8886 0
87.5499 32.7202 0
8.11761 22.0663 0
10.6176 21.9315 0
49.9335 35.5845 0
52.4235 35.3979 0
9.11178 20.5526 0
10.8338 18.7401 0
62.5326 31.9471 0
60.2654 32.9917 0
37.5403 6.80035 0
39.0281 4.79055 0
9.76557 9.20821 0
11.9438 7.97729 0
60.1473 25.9716 0
57.6521 26.0549 0
32.8433 17.1868 0
33.7897 19.4946 0
92.6203 11.4819 0
92.9486 13.9515 0
50.0439 4.39351 0
52.127 5.77663 0
21.7667 11.8441 0
23.2325 13.8537 0
16.4436 4.91737 0
18.7601 3.97083 0
38.9472 33.7614 0
41.0826 32.4645 0
2.04669 4.99 0
2.955 2.66626 0
17.4273 17.1198 0
16.3994 19.3899 0
81.4624 37.5701 0
82.4837 35.3003 0
72.9083 12.5496 0
74.7424 10.8659 0
66.3161 41.4365 0
63.925 42.1616 0
63.7442 26.4341 0
65.7298 24.9232 0
49.8632 6.04411 0
48.3249 8.0147 0
60.1799 40.7059 0
62.4018 41.8502 0
23.3895 10.8818 0
24.493 13.1096 0
60.0863 31.2141 0
61.0324 33.5266 0
85.0541 22.4179 0
87.5576 22.3522 0
74.5777 19.8004 0
72.1509 19.1915 0
56.0487 12.3592 0
58.4904 12.888 0
61.682 4.21762 0
60.6365 1.94685 0
60.7165 47.4716 0
58.2183 47.5691 0
50.6463 16.7802 0
50.9624 19.2601 0
26.143 33.1943 0
27.1328 30.9029 0
43.6964 22.5658 0
41.6444 21.1444 0
70.2462 18.534 0
72.7194 18.9058 0
72.5472 1.52522 0
72.7231 4.01839 0
33.4149 17.0366 0
35.0504 18.9198 0
55.2434 3.48389 0
57.6868 4.01879 0
62.7337 26.9452 0
60.2368 26.9674 0
59.5645 35.4643 0
59.7097 32.9705 0
41.7385 31.303 0
39.3574 32.0571 0
65.7081 33.8037 0
63.6857 32.3357 0
41.2777 36.1235 0
39.9745 38.2558 0
73.2337 29.7182 0
72.8018 32.1733 0
50.7631 40.1206 0
51.8564 42.3681 0
59.8191 10.017 0
58.3215 8.01464 0
82.5601 19.9758 0
84.8615 19.0002 0
66.2562 0.683532 0
68.7503 0.452342 0
72.7774 32.6177 0
74.653 30.9735 0
66.5241 33.4965 0
65.2478 35.6408 0
67.8027 46.2095 0
68.5257 43.8206 0
63.7257 22.9753 0
64.8233 20.7345 0
80.4311 11.2701 0
82.0395 13.1817 0
30.9955 20.4183 0
30.0461 18.1134 0
25.3075 20.6588 0
26.8801 22.5922 0
53.9862 28.6527 0
56.4694 28.3968 0
85.7263 28.288 0
85.1994 25.8596 0
37.9042 1.77192 0
40.3854 2.09643 0
42.1016 29.4965 0
43.0864 27.1998 0
19.9567 35.343 0
22.4432 35.5957 0
84.4656 11.5232 0
86.9699 11.4696 0
30.522 1.247 0
32.9889 0.827363 0
61.9922 42.418 0
59.8278 41.1683 0
40.0261 13.412 0
38.0327 14.9207 0
71.9136 29.1218 0
70.068 27.4375 0
60.3617 30.2416 0
59.6002 27.862 0
6.59982 10.6644 0
5.73007 13.0021 0
33.6193 6.80254 0
32.0022 4.90105 0
57.2921 24.7108 0
59.7266 24.1591 0
61.7478 28.0032 0
59.263 28.2456 0
12.9862 2.03528 0
15.1419 3.2913 0
72.414 4.95291 0
69.928 4.70055 0
30.5138 6.21173 0
28.1186 6.93257 0
80.7935 3.73961 0
78.292 3.83978 0
54.384 35.9298 0
52.3737 37.4118 0
30.5909 14.2626 0
33.0124 14.869 0
80.5809 9.19091 0
82.8678 8.1848 0
12.0055 31.549 0
12.9921 29.2755 0
46.3783 5.32118 0
48.828 5.82319 0
2.73594 5.32265 0
5.23633 5.22394 0
10.2163 9.55825 0
11.2187 11.8359 0
4.34143 17.8631 0
6.59089 16.7659 0
29.384 8.45578 0
26.8861 8.42125 0
43.6917 1.99773 0
45.9998 2.96205 0
77.3477 2.80282 0
75.5768 4.53917 0
55.2128 26.7365 0
57.4612 27.824 0
24.807 19.3214 0
26.9942 18.106 0
12.7914 30.8775 0
14.0413 28.7287 0
13.7556 17.8553 0
15.6148 19.5166 0
31.5425 36.0273 0
33.6459 37.3717 0
85.1126 18.9437 0
85.4418 16.4798 0
54.9605 42.3529 0
56.1358 40.1479 0
56.8614 43.0079 0
54.3731 42.7802 0
69.3572 41.0818 0
68.4355 43.4006 0
81.6145 5.22206 0
81.1838 7.66469 0
67.3101 28.7339 0
69.402 27.3738 0
23.3748 28.2428 0
20.881 28.4118 0
76.5717 33.0804 0
74.678 31.4507 0
40.4006 1.79896 0
41.9507 -0.162905 0
21.483 3.48155 0
19.2769 2.32669 0
32.7154 28.0059 0
34.5207 29.7278 0
39.7596 2.24623 0
37.9726 3.99574 0
68.5855 6.24563 0
66.5222 7.64935 0
7.18616 2.10982 0
8.72609 0.142631 0
59.0791 33.4032 0
57.1225 31.8496 0
22.6521 35.3876 0
24.184 37.3538 0
76.7072 24.9203 0
76.1547 22.4904 0
8.87566 16.7214 0
9.71844 19.0628 0
27.0231 16.6605 0
28.4477 14.6063 0
31.9411 36.9558 0
32.7709 34.6003 0
22.2017 34.9032 0
19.9627 33.8011 0
73.3278 37.0725 0
72.0021 34.9558 0
15.0334 2.08792 0
16.9734 0.515502 0
52.2289 12.1457 0
52.0963 9.64891 0
33.8243 8.73814 0
32.6869 6.5162 0
24.9714 41.7699 0
27.3621 41.0335 0
57.5769 12.5161 0
59.7985 11.3758 0
84.1918 35.1421 0
82.3871 33.4152 0
40.3983 47.1245 0
38.8864 45.1346 0
18.0752 12.1613 0
20.5336 12.63 0
92.7037 8.17267 0
94.3866 6.33237 0
81.3671 32.9845 0
80.652 30.5974 0
38.83 14.8279 0
38.6941 17.3234 0
28.5824 11.5597 0
29.9679 13.6296 0
51.9109 39.511 0
54.4 39.7202 0
86.5544 28.0607 0
85.8879 25.666 0
22.1615 2.33798 0
23.5641 4.37877 0
49.3547 3.17512 0
47.2348 1.84747 0
18.8582 19.6899 0
21.3407 20.0067 0
2.10586 9.02798 0
4.28913 7.80718 0
20.2605 3.59642 0
18.8561 5.65789 0
62.9413 44.4015 0
65.1611 45.5516 0
34.4888 21.1831 0
36.5757 19.807 0
94.594 1.03367 0
93.954 3.4403 0
49.7445 42.3841 0
49.3585 39.9147 0
58.6769 10.7933 0
56.3259 9.94554 0
36.61 10.7082 0
34.3253 11.724 0
56.8252 43.8443 0
56.7511 46.3427 0
2.4409 12.6133 0
1.77923 10.2084 0
82.4235 4.96687 0
83.3168 2.64873 0
37.6743 47.2889 0
35.4167 46.2158 0
65.9749 39.5171 0
68.3037 40.4262 0
24.6518 34.0631 0
27.1278 34.3972 0
68.4642 39.4278 0
70.8657 38.739 0
13.8121 30.609 0
12.1939 28.7188 0
58.8624 44.4116 0
61.2968 44.9778 0
24.326 5.62775 0
24.1949 8.11532 0
81.1252 20.897 0
78.7441 21.6601 0
29.8724 39.7191 0
29.5102 42.1885 0
23.71 17.0351 0
21.4518 15.9691 0
2.74143 8.22773 0
4.96659 7.08458 0
48.0267 30.8416 0
49.9852 29.2916 0
87.0554 23.1363 0
84.6713 23.892 0
34.6638 10.9152 0
32.3292 11.8117 0
47.558 26.0186 0
46.1013 23.9895 0
67.43 24.2879 0
65.4389 22.7768 0
58.2133 30.1409 0
56.8701 32.2458 0
32.3229 34.8846 0
34.6145 35.8759 0
57.4116 36.3447 0
56.051 34.2487 0
26.6841 3.36659 0
28.7937 2.02001 0
11.1766 26.6338 0
12.7129 24.6647 0
63.5121 33.0899 0
61.9158 35.0087 0
28.4892 11.3955 0
26.0417 11.9179 0
44.5046 45.782 0
42.0061 45.8488 0
30.8412 14.4627 0
31.97 16.6854 0
13.2071 1.82744 0
15.3326 0.511882 0
76.1293 15.003 0
73.8717 16.0663 0
12.6776 6.52955 0
13.3254 8.93019 0
35.4825 4.93939 0
36.3456 7.2838 0
53.9961 17.6875 0
51.5386 18.1283 0
31.3146 8.49066 0
29.0112 7.53441 0
24.2887 6.63456 0
21.7945 6.8551 0
48.6124 3.62892 0
51.0489 4.19509 0
32.1608 13.7864 0
32.0951 11.2906 0
1.58485 3.46034 0
4.06492 3.78323 0
62.8144 44.2921 0
60.4965 43.3567 0
42.6386 24.4601 0
40.1475 24.2976 0
48.3459 30.7762 0
50.5234 31.9982 0
58.878 35.3208 0
56.3903 35.537 0
50.016 46.5985 0
52.0707 45.1757 0
26.9505 5.69893 0
26.3211 8.11843 0
43.5145 36.0615 0
42.096 34.0061 0
52.8768 27.9708 0
50.981 29.5963 0
60.9523 39.9787 0
62.0883 42.2046 0
46.9341 23.6728 0
45.6683 21.5191 0
19.2547 2.95367 0
18.5407 0.578194 0
48.2292 41.9191 0
49.1913 39.6124 0
47.8188 39.5086 0
45.3673 39.0303 0
73.2179 11.5379 0
72.6886 9.09759 0
52.5251 17.8516 0
50.7825 16.0608 0
25.0103 41.821 0
27.4947 41.5302 0
51.9696 24.1109 0
50.5571 26.1716 0
25.8431 30.3369 0
28.2694 30.9278 0
5.36433 8.00926 0
2.88272 7.69577 0
20.8787 35.2587 0
18.7596 36.5859 0
31.893 19.1919 0
34.167 20.2194 0
30.1028 19.2773 0
27.7536 18.4324 0
78.7288 17.5234 0
79.4663 19.9029 0
41.9159 32.1599 0
42.4621 29.7218 0
44.7916 12.5618 0
45.251 10.104 0
44.1982 20.0999 0
46.046 18.4176 0
36.1281 2.46197 0
35.7804 4.93678 0
94.4749 4.86266 0
95.2861 7.22175 0
41.9117 21.8097 0
40.3617 23.7704 0
57.7787 26.182 0
55.7391 24.7396 0
62.6965 26.9759 0
65.1045 27.6416 0
8.55577 15.6479 0
8.47584 18.1366 0
70.8245 30.957 0
68.3811 30.433 0
45.8823 35.702 0
46.1285 33.2153 0
87.0751 2.74624 0
88.7653 4.58472 0
22.5134 38.5121 0
22.8823 40.9763 0
66.2421 43.1717 0
64.2104 41.7155 0
77.3436 11.9731 0
77.8799 14.4053 0
50.8449 47.0189 0
49.1601 48.8655 0
14.9019 13.3927 0
15.4081 10.9569 0
75.6146 18.9625 0
75.4051 21.4436 0
59.0489 45.6068 0
61.1007 47.0351 0
83.7402 9.45315 0
86.1882 8.93404 0
6.96646 1.80182 0
4.46741 1.89543 0
80.7407 18.9782 0
82.5442 17.2575 0
13.6044 0.199315 0
11.1064 0.105465 0
14.908 32.1621 0
17.286 31.3975 0
14.2058 12.8517 0
15.5761 14.929 0
66.715 0.943255 0
64.2489 1.37228 0
72.2578 24.4615 0
71.3014 26.7634 0
52.019 31.4309 0
50.0645 29.8762 0
29.3192 29.1734 0
28.0521 27.0263 0
76.0596 25.3619 0
76.2945 22.8825 0
88.1031 17.2435 0
90.3445 18.36 0
56.5893 9.04892 0
54.3001 10.05 0
30.6018 42.3136 0
32.0873 44.3196 0
49.5609 38.2501 0
50.1525 35.822 0
33.5763 30.6345 0
35.8112 31.7457 0
51.2952 20.1803 0
50.1621 22.4077 0
48.0074 20.1861 0
46.762 18.0199 0
56.3096 36.7351 0
54.2179 38.0997 0
27.9232 28.0126 0
28.5038 30.437 0
32.5716 34.4727 0
33.2047 36.8864 0
91.739 14.7129 0
93.5724 16.4132 0
6.69038 6.1663 0
6.36575 8.63725 0
30.5919 35.7923 0
31.2609 33.3869 0
65.2034 34.896 0
64.2685 37.2104 0
70.8909 2.21764 0
72.4843 0.299029 0
72.2049 25.0606 0
72.6836 22.6147 0
12.962 14.6263 0
14.9618 16.1186 0
48.3612 3.44482 0
50.7926 4.03305 0
17.369 5.86292 0
17.5673 8.33732 0
6.48492 18.5849 0
3.99772 18.3233 0
31.8372 33.901 0
32.0195 36.3898 0
59.3237 32.87 0
59.027 35.3502 0
80.5839 24.4493 0
80.9679 26.9085 0
96.0355 18.3997 0
96.4498 15.9408 0
81.6407 13.1595 0
84.1086 12.7401 0
31.4129 34.4287 0
30.3341 32.1799 0
95.0552 8.65112 0
94.184 10.9854 0
92.6735 17.9013 0
94.8917 16.7537 0
25.3209 37.9093 0
25.0306 35.4337 0
11.1154 27.1877 0
12.9246 28.8959 0
25.2032 17.1004 0
22.7423 17.5609 0
33.0501 22.2504 0
35.5406 22.4353 0
75.0963 23.0594 0
72.5967 23.1015 0
50.0607 27.5887 0
49.6799 30.0585 0
20.9871 18.6821 0
20.4742 21.1185 0
93.0703 7.22697 0
92.247 9.57711 0
49.125 48.1177 0
47.682 46.0768 0
60.2996 39.0633 0
62.1781 37.4182 0
68.5034 12.6152 0
66.4444 11.1939 0
74.756 11.4922 0
72.5873 12.7216 0
59.6111 41.8998 0
61.246 43.7904 0
83.0196 12.0344 0
83.7004 9.64551 0
12.3146 9.76482 0
11.2318 7.52437 0
46.2366 43.0379 0
44.2333 41.5452 0
78.0955 4.19952 0
75.6325 4.61649 0
79.246 34.6228 0
79.7074 32.1756 0
50.3185 26.3076 0
47.856 25.8988 0
15.8993 14.9377 0
18.3743 14.5467 0
24.6549 1.83247 0
27.1387 2.03025 0
21.7837 5.93179 0
23.7406 4.36745 0
38.4408 26.7654 0
35.9974 27.2841 0
39.5996 37.9564 0
37.1058 37.8118 0
20.4406 23.2624 0
19.043 21.2009 0
55.8219 8.67482 0
53.5442 9.70228 0
30.7967 38.7359 0
33.244 38.2265 0
56.782 41.7852 0
59.2522 41.4127 0
59.0568 12.3984 0
61.5063 11.9123 0
84.7878 1.94827 0
82.4296 2.77171 0
54.6865 35.7146 0
52.9176 37.478 0
27.9045 39.3695 0
30.3992 39.2049 0
56.9123 32.598 0
56.6245 30.1161 0
77.6181 21.2732 0
75.7366 22.9104 0
36.6804 36.556 0
36.0442 38.9717 0
70.6694 32.3934 0
68.2027 32.785 0
48.9428 32.4256 0
50.2823 30.3167 0
64.3812 19.3818 0
65.3886 21.6689 0
36.9188 30.5666 0
39.4155 30.6115 0
52.1001 3.03957 0
54.2089 4.38422 0
16.1105 26.9463 0
13.9033 25.7767 0
28.8267 37.6703 0
26.3577 38.0649 0
66.3115 34.8138 0
64.7224 32.8853 0
86.8424 13.7719 0
85.755 16.0087 0
79.9039 37.4649 0
77.6029 38.4364 0
1.0839 9.65078 0
2.77041 11.4911 0
22.3122 7.02487 0
19.8235 6.76638 0
28.0118 24.1817 0
25.5375 23.8317 0
48.782 5.47369 0
46.4115 4.67716 0
39.4132 8.38187 0
37.1194 7.39303 0
13.1973 16.1877 0
11.7644 14.1516 0
35.1971 37.8761 0
33.3824 39.5946 0
76.1339 8.01076 0
78.2015 6.6207 0
38.89 43.8666 0
38.0761 41.5049 0
46.1936 9.50849 0
48.2303 8.05942 0
39.899 30.9778 0
37.4766 31.5868 0
37.3218 29.219 0
36.6552 31.6261 0
36.7118 26.9523 0
34.2374 27.2947 0
30.6696 4.49776 0
33.0173 5.3485 0
71.8407 31.9475 0
74.017 30.726 0
24.1634 12.393 0
26.5539 11.6467 0
33.2175 43.6881 0
35.5046 42.6782 0
26.0805 22.4875 0
24.0592 23.958 0
5.6357 2.56386 0
6.55666 0.244474 0
94.3849 5.89422 0
96.7941 6.57167 0
53.4099 18.9622 0
51.7039 17.1363 0
53.8046 45.456 0
52.3226 47.4685 0
94.7286 5.23807 0
93.3268 3.17103 0
30.2277 21.1708 0
27.781 20.6676 0
57.5 2.17185 0
58.1126 4.59528 0
94.6078 11.4848 0
92.9669 9.60073 0
43.7257 7.2412 0
46.1878 6.80816 0
49.3929 42.3938 0
47.4344 43.9463 0
42.4208 27.3354 0
44.8324 26.6878 0
24.2432 22.6392 0
21.7703 22.2682 0
69.9969 34.1845 0
70.1654 31.6958 0
18.381 13.5155 0
20.6008 14.6597 0
9.39373 28.7596 0
11.679 27.7324 0
62.0348 24.5369 0
60.8034 22.3621 0
81.7399 25.1725 0
79.2391 25.104 0
22.8254 29.2965 0
20.7055 30.6186 0
14.2238 29.6435 0
14.3356 32.1258 0
12.632 13.0191 0
13.6606 15.2836 0
67.3742 22.8231 0
67.8206 20.3689 0
79.333 21.864 0
81.7441 22.5372 0
15.2619 21.7052 0
14.191 23.9549 0
21.2512 13.5869 0
18.9006 12.7364 0
44.906 45.0453 0
42.4095 44.9309 0
62.2378 38.1021 0
60.8202 36.0441 0
59.6107 47.3019 0
61.9422 46.4002 0
39.9707 37.8288 0
42.468 37.7796 0
55.73 30.3231 0
53.3903 29.4506 0
67.6256 40.8043 0
65.1389 41.0541 0
71.0767 5.69525 0
73.5722 5.73478 0
80.9131 3.29136 0
80.843 0.811321 0
59.6893 7.13651 0
57.9487 8.92893 0
32.3665 19.573 0
31.5631 21.938 0
43.9482 32.5173 0
44.0602 35.0132 0
97.8046 14.1395 0
97.9555 11.6492 0
74.1194 18.5955 0
72.1679 17.0303 0
77.0822 31.5896 0
76.3696 33.977 0
55.9601 48.6997 0
56.3204 46.2262 0
40.1833 1.27023 0
37.7664 1.91859 0
72.0494 20.1002 0
74.5246 19.752 0
41.8343 44.7522 0
44.3139 45.0627 0
87.0906 2.75349 0
86.5175 5.17333 0
19.3655 21.9926 0
18.9243 19.5453 0
17.5185 36.3417 0
16.2804 34.1831 0
26.0679 38.0885 0
24.1861 39.734 0
61.6708 6.3767 0
59.6982 4.83988 0
39.7257 30.1548 0
40.0419 32.6321 0
63.2617 5.59738 0
60.7916 5.97901 0
60.5822 6.72894 0
61.4307 4.37829 0
79.3242 36.988 0
76.8877 37.5437 0
46.8234 23.4688 0
47.7812 21.1601 0
81.9607 12.3679 0
79.4828 12.7222 0
17.6928 12.9984 0
18.5084 15.3467 0
48.2086 40.6959 0
46.395 42.4154 0
65.3807 19.8678 0
64.1516 17.6908 0
42.9241 40.1072 0
41.7477 42.3125 0
54.5083 17.0419 0
53.4362 19.2989 0
22.9065 29.4425 0
25.2974 28.7142 0
23.2338 14.9666 0
20.7943 14.4152 0
92.327 7.8054 0
90.8087 9.78156 0
32.1341 32.1493 0
33.5994 30.1258 0
68.731 28.6289 0
68.9656 31.1133 0
97.6721 2.41794 0
96.1832 4.41545 0
67.3675 15.0799 0
69.8295 14.6626 0
78.3623 23.3984 0
78.8204 20.9525 0
37.5662 16.1069 0
35.1859 15.3554 0
68.9129 9.38893 0
69.4653 6.95451 0
32.9355 20.3179 0
34.2819 18.2118 0
33.2687 31.7175 0
34.9185 29.841 0
87.8982 26.022 0
89.8736 27.5592 0
84.2744 23.7079 0
86.6976 24.3405 0
38.5155 11.2931 0
36.0869 11.8825 0
65.6883 40.4488 0
63.519 39.2073 0
37.7124 1.66548 0
35.5352 2.89631 0
75.4802 40.0188 0
75.9054 42.4763 0
67.3414 2.27672 0
67.1264 4.76689 0
71.9933 15.2601 0
70.1484 13.5697 0
63.3757 31.9951 0
65.8687 32.1504 0
39.5887 3.27301 0
38.8509 5.66168 0
46.2234 18.8031 0
47.7922 16.8577 0
37.5126 38.8341 0
36.3049 41.0216 0
90.172 7.32604 0
90.8973 4.94512 0
92.5919 20.0779 0
90.1877 19.3768 0
55.8975 19.3249 0
56.1497 16.8383 0
22.858 18.8564 0
21.4772 20.9356 0
32.7286 16.124 0
34.5107 17.8686 0
72.9782 38.4391 0
73.3385 35.972 0
61.746 40.8145 0
63.1762 42.8639 0
27.4479 32.9524 0
29.7427 31.9616 0
27.6347 16.6811 0
25.793 15.0027 0
39.4991 2.4763 0
37.4691 3.93742 0
18.6067 28.525 0
17.7795 26.1775 0
73.4847 2.71396 0
75.212 0.926475 0
75.7732 42.1287 0
73.2757 42.264 0
57.3549 43.9816 0
54.9338 43.3623 0
27.2457 9.09235 0
28.8745 10.9754 0
24.2012 7.84744 0
23.0371 10.0577 0
76.6163 41.6143 0
74.5052 42.9487 0
30.3732 38.6221 0
32.0596 40.4618 0
47.7287 27.5361 0
48.5116 29.9089 0
78.436 7.0075 0
80.9151 6.66791 0
76.0161 10.422 0
76.2832 12.8981 0
69.5388 34.1408 0
68.9271 31.7206 0
77.7334 17.1253 0
79.7175 18.6487 0
84.497 32.5762 0
85.6595 34.7801 0
64.9112 34.4884 0
64.2288 32.0857 0
32.4054 10.2247 0
29.9079 10.1696 0
29.5269 44.4817 0
31.8216 45.4718 0
20.0502 29.0861 0
22.5123 28.656 0
45.1464 28.3784 0
47.3579 27.2181 0
19.2772 33.8709 0
20.5494 31.7246 0
66.133 9.4081 0
66.1548 6.90916 0
61.6968 1.72112 0
64.0485 0.865628 0
80.9508 1.39559 0
79.813 3.59551 0
40.5923 47.548 0
38.095 47.4242 0
58.8071 26.0975 0
59.6256 28.4585 0
14.8039 23.4336 0
16.8998 24.7901 0
4.11049 14.4434 0
6.15837 13.0069 0
84.2783 21.6863 0
82.65 19.7936 0
8.18334 0.607537 0
5.72152 0.181282 0
75.4481 20.1082 0
73.0989 20.9566 0
52.433 9.90499 0
50.7795 8.0303 0
43.3137 5.79526 0
45.7123 5.08817 0
39.2753 2.81894 0
37.8608 4.88081 0
3.33478 8.65216 0
0.89745 8.09223 0
87.8891 12.1211 0
88.2147 14.588 0
39.6957 11.354 0
37.4307 10.3035 0
57.9435 7.34588 0
56.0195 5.74896 0
16.2486 26.8474 0
13.7617 27.132 0
52.5468 5.37059 0
55.0199 5.74016 0
89.8288 6.97198 0
92.2102 7.74256 0
93.4965 4.6478 0
91.8503 2.7682 0
95.0962 0.409865 0
96.8576 2.18495 0
16.037 29.364 0
18.4054 28.5679 0
62.49 9.57274 0
61.7841 11.9693 0
18.5808 7.17978 0
17.9442 4.78277 0
70.1864 45.1144 0
67.8081 44.3404 0
79.6855 8.36944 0
80.5728 6.05009 0
91.8926 15.669 0
89.735 14.4006 0
59.5392 8.76057 0
59.3378 6.26849 0
21.3844 28.5169 0
23.688 29.4802 0
24.8612 42.0238 0
26.3601 40.0251 0
22.3695 13.2678 0
24.5668 14.4489 0
9.86454 12.0863 0
11.0442 9.88893 0
33.5152 45.3851 0
34.4722 43.0777 0
67.6283 35.843 0
69.8918 36.9039 0
25.3327 10.6922 0
26.8478 8.69969 0
84.0301 24.5089 0
82.6887 22.4076 0
87.5727 2.04156 0
89.3527 3.79443 0
51.1094 40.932 0
53.4455 41.8181 0
82.2016 9.42356 0
80.1155 8.03821 0
65.1204 14.5382 0
66.1268 16.8268 0
42.9476 6.73061 0
42.7655 4.23764 0
53.5114 5.45226 0
55.4243 3.84262 0
44.3423 38.8472 0
42.8748 40.8703 0
90.5781 10.8406 0
92.5512 9.31251 0
23.2529 16.8757 0
24.7853 18.839 0
23.7652 10.0663 0
23.8075 7.5775 0
60.7196 35.6717 0
60.9573 38.1587 0
44.6511 1.15854 0
42.2959 2.00353 0
78.3052 24.2513 0
79.0376 21.8725 0
68.8707 37.8479 0
68.768 35.3543 0
27.5503 6.44699 0
29.4615 4.82892 0
58.9339 13.201 0
59.0273 15.6987 0
57.7206 9.47623 0
59.6522 11.0636 0
51.7607 19.4683 0
54.1736 20.1107 0
50.6771 38.1245 0
48.1796 38.1231 0
47.4636 22.7781 0
46.4127 25.0457 0
22.6188 21.087 0
22.8242 23.5679 0
81.0246 2.11311 0
78.5685 1.61401 0
95.2648 4.86972 0
95.4111 7.35783 0
48.3786 41.0797 0
46.783 43.0034 0
26.362 16.6324 0
25.2217 18.8536 0
89.3228 21.4761 0
88.3616 23.7689 0
43.8469 3.53483 0
46.1165 4.58445 0
53.2852 27.7924 0
55.5218 28.9034 0
78.2871 8.33301 0
79.9499 6.48245 0
13.6851 14.0048 0
16.1803 14.2212 0
54.0798 47.4425 0
53.9844 44.9446 0
52.4093 5.94867 0
49.9861 5.33113 0
54.1092 40.4952 0
51.8117 41.476 0
8.32693 21.9138 0
6.3713 23.4754 0
11.1154 27.6286 0
8.6236 27.4278 0
49.7341 47.1263 0
47.2348 47.1544 0
43.5587 18.312 0
45.9051 19.1644 0
28.4248 43.3957 0
27.7364 40.9985 0
87.1495 31.4357 0
86.4293 29.0602 0
85.8 22.4287 0
86.6609 20.0964 0
85.9759 0.790449 0
88.4098 1.36873 0
83.5181 35.6148 0
84.5512 33.3526 0
24.145 32.601 0
25.7102 30.6548 0
45.5999 42.2013 0
47.1171 44.1867 0
21.394 34.88 0
23.6717 33.849 0
6.27875 12.0853 0
4.36634 10.4816 0
34.5365 14.6402 0
36.1515 12.7305 0
31.2781 45.8649 0
33.003 44.056 0
18.2784 22.9394 0
20.6946 23.5844 0
10.2871 22.5106 0
11.9891 20.6801 0
50.2246 7.54511 0
47.8898 6.65131 0
47.4967 30.7202 0
45.1643 29.8301 0
38.8619 20.9297 0
41.2726 20.2757 0
43.5957 9.88664 0
41.389 11.0607 0
77.4937 36.8694 0
79.2669 35.117 0
39.9092 8.85694 0
39.0781 11.2151 0
74.869 40.3013 0
73.6174 38.1403 0
60.7881 11.7743 0
58.9178 13.4284 0
96.2482 12.5158 0
94.0247 11.368 0
43.7662 25.2784 0
41.2697 25.2923 0
54.2788 42.7958 0
56.7528 42.4478 0
84.58 23.4956 0
82.0809 23.6442 0
2.51722 9.59969 0
4.58181 8.18828 0
82.1221 4.93336 0
84.61 5.21017 0
36.5588 16.371 0
38.6793 17.6869 0
44.0113 9.32327 0
42.0231 10.8386 0
21.1965 26.4309 0
22.1986 28.7115 0
43.0561 27.1484 0
45.3708 26.2111 0
15.0495 19.5937 0
14.8744 22.0743 0
20.1567 8.5681 0
21.023 6.2307 0
12.2353 24.7861 0
10.9754 22.6421 0
49.877 41.445 0
48.6855 39.2484 0
9.5959 24.4016 0
9.39986 26.8846 0
35.0946 43.9666 0
32.884 45.1347 0
13.4076 18.2823 0
11.221 17.0754 0
12.2651 23.7615 0
12.7018 21.3118 0
84.2176 17.3948 0
84.0574 14.9132 0
97.1058 15.4355 0
94.9003 14.254 0
76.1836 36.6656 0
77.5701 38.7427 0
4.72316 2.94017 0
2.26821 3.42539 0
13.9012 26.7602 0
11.4136 26.4819 0
9.90847 5.17727 0
8.64115 7.32658 0
87.0081 9.96635 0
86.6995 7.49794 0
50.8093 18.8888 0
49.885 16.5664 0
22.8265 2.95257 0
23.5117 0.54706 0
24.0576 40.3612 0
21.5773 40.0422 0
4.30991 10.5111 0
1.90064 11.1874 0
74.0048 28.0596 0
72.4355 29.9972 0
51.6089 16.537 0
49.4399 17.7754 0
94.6842 5.51345 0
96.5592 7.16742 0
92.4057 0.899179 0
90.0062 1.59198 0
54.6824 27.9912 0
57.0091 28.8984 0
3.93156 2.10849 0
2.81118 4.33956 0
25.6181 42.0103 0
28.1022 41.7175 0
24.3026 33.1596 0
25.7719 35.1733 0
64.8638 37.8134 0
63.0503 36.0939 0
45.7836 38.943 0
46.3297 36.5042 0
59.1421 39.38 0
58.3381 41.7454 0
42.8394 19.4055 0
41.6392 17.2152 0
48.5255 16.8843 0
47.4667 14.6204 0
92.8705 4.85836 0
91.3473 6.83058 0
17.6608 6.60495 0
16.0874 4.67691 0
31.5577 30.6852 0
33.073 28.699 0
49.5581 45.1336 0
50.5154 47.4426 0
51.6934 13.808 0
49.248 14.315 0
35.208 5.5449 0
34.5539 7.95839 0
90.6894 7.74936 0
90.2569 10.1996 0
55.2545 45.7579 0
54.0048 43.5929 0
16.7227 18.1922 0
18.9099 16.9745 0
14.6175 7.0619 0
14.2788 4.59946 0
24.2969 34.3459 0
21.8046 34.5393 0
62.6193 33.5953 0
60.6517 35.1317 0
11.557 19.6724 0
13.6606 21.0158 0
76.8217 0.402303 0
74.3325 0.3094 0
59.9158 26.0622 0
57.6632 24.9825 0
70.4605 27.0499 0
67.9746 27.2928 0
46.2301 22.8248 0
46.976 20.439 0
76.5779 3.85978 0
74.181 4.53358 0
47.8502 15.1374 0
50.133 16.1504 0
88.1752 13.5754 0
89.9488 11.8233 0
71.0062 0.123984 0
73.3195 1.07242 0
56.2775 45.6913 0
57.2081 43.372 0
68.1695 3.31178 0
65.9449 2.16863 0
22.8527 17.6778 0
24.7715 16.0726 0
81.1819 38.7067 0
83.1609 37.1869 0
49.4126 2.99543 0
51.1126 4.82888 0
66.018 3.37898 0
63.6846 2.48082 0
53.2987 12.1852 0
53.0647 9.69594 0
12.6048 15.4239 0
10.7859 17.1392 0
43.1766 4.69826 0
43.6216 7.15791 0
56.1587 20.6095 0
58.6073 21.0999 0
60.835 22.4105 0
58.3567 22.1033 0
28.8281 27.2145 0
27.0114 25.5058 0
40.7078 6.97249 0
38.2313 7.30737 0
17.4014 2.35169 0
19.8827 2.02537 0
42.8437 25.8739 0
40.3687 26.2038 0
7.02361 17.7049 0
8.351 19.8124 0
20.3011 12.0004 0
22.1448 10.3089 0
67.3912 40.0639 0
65.4822 41.6733 0
45.128 41.5492 0
45.9837 43.8972 0
70.7987 17.2711 0
73.1806 16.521 0
88.284 4.87515 0
90.0238 6.66753 0
49.8863 20.2097 0
48.1638 22.0194 0
56.3521 37.7393 0
56.353 40.2383 0
82.3589 26.0451 0
80.8382 28.0196 0
39.5785 4.47161 0
41.5662 5.986 0
55.1626 43.6083 0
57.0044 41.9203 0
55.3762 43.4932 0
57.0574 41.6451 0
25.0577 15.4106 0
23.2391 13.7093 0
14.3672 27.8322 0
13.5323 30.1721 0
52.9995 17.0817 0
51.1961 18.8102 0
32.5354 42.8672 0
34.887 43.7127 0
19.7142 10.8773 0
21.4708 12.6422 0
61.514 41.1733 0
63.7498 40.0598 0
32.9693 27.4935 0
31.0224 29.0603 0
31.0178 21.2371 0
31.9895 23.5334 0
72.0512 27.4828 0
71.2199 29.8331 0
38.0903 13.1399 0
40.563 13.4881 0
47.3032 48.0058 0
45.4833 46.2927 0
70.6073 11.5626 0
70.4718 14.0535 0
98.6617 10.1993 0
96.5993 8.78462 0
96.4685 15.9274 0
93.9675 15.9933 0
58.9459 10.2688 0
59.6819 12.6582 0
54.9923 18.4242 0
56.4733 20.4376 0
53.9062 41.6897 0
56.3695 41.2745 0
5.04459 4.4326 0
7.52539 4.10856 0
84.5012 18.8328 0
86.8262 19.7647 0
19.2956 30.2726 0
19.5234 32.7521 0
64.4039 35.8647 0
63.1567 33.6997 0
66.4722 23.551 0
68.969 23.4685 0
60.3811 25.5125 0
62.6757 24.5309 0
55.9126 21.2118 0
57.6042 19.3752 0
21.5853 36.4037 0
19.0919 36.6005 0
55.9452 32.3779 0
58.3768 31.8124 0
67.9379 1.73912 0
70.1273 2.94985 0
16.2208 6.27344 0
17.6176 4.20982 0
91.8126 24.2515 0
91.1399 26.6472 0
89.1989 19.1685 0
86.7285 18.7509 0
88.0873 12.6044 0
86.5282 14.5468 0
76.4044 18.9116 0
77.5973 16.7274 0
70.9997 21.0432 0
70.0884 23.3632 0
26.6341 25.5504 0
25.4162 27.7292 0
55.799 26.399 0
55.5517 28.8852 0
59.1628 43.1429 0
57.5203 45.0257 0
66.2135 18.8177 0
68.2572 17.3877 0
81.2547 33.6238 0
79.7191 31.6559 0
50.428 9.06757 0
49.7703 11.4796 0
26.0756 27.556 0
24.043 29.0094 0
49.6499 27.361 0
49.8898 24.8732 0
89.2996 25.5156 0
91.7995 25.4324 0
78.9659 32.1579 0
76.6344 33.0502 0
76.1903 37.4828 0
76.6313 35.0303 0
22.6843 1.48764 0
23.5151 3.82751 0
17.2413 11.9765 0
15.7632 9.97491 0
76.5253 35.8333 0
78.3897 34.1776 0
25.5392 42.8528 0
23.7544 41.1086 0
24.9575 3.58395 0
23.1387 1.89855 0
86.8935 24.4894 0
85.0377 22.8157 0
84.063 33.5402 0
83.178 31.2114 0
67.999 9.20543 0
65.8972 7.84794 0
6.42639 3.79202 0
4.65646 5.55718 0
88.481 7.27411 0
89.3642 4.94794 0
68.076 40.9009 0
69.9129 39.2108 0
33.5931 18.9171 0
33.4936 21.4117 0
18.4 18.3994 0
19.9998 20.3087 0
51.006 20.7217 0
51.9943 18.4262 0
81.196 27.281 0
78.9979 26.0925 0
33.6577 33.745 0
31.4778 34.9675 0
42.0822 36.724 0
44.2707 35.5192 0
9.49078 8.10368 0
8.11782 6.02508 0
46.3958 9.1147 0
43.9199 9.45242 0
38.923 45.8698 0
36.7396 44.6538 0
56.67 44.8473 0
57.0831 42.3825 0
50.8193 7.85215 0
52.1414 9.97373 0
69.3045 9.63922 0
68.1935 11.8713 0
52.7864 10.7338 0
53.9931 8.54478 0
87.9563 0.591317 0
87.4364 3.02422 0
87.5723 29.7296 0
88.495 27.4276 0
27.7838 27.8811 0
29.3386 25.926 0
41.1449 3.26658 0
43.5672 2.64157 0
47.3847 29.3419 0
44.8895 29.2637 0
44.903 23.2331 0
42.4292 22.8992 0
57.5503 36.2636 0
55.6886 34.5972 0
79.9242 4.7898 0
81.3141 6.86174 0
32.9946 1.5542 0
31.3311 3.42167 0
37.9962 49.7846 0
37.9237 51.3526 0
37.9237 51.3526 0
37.7145 52.9085 0
37.7145 52.9085 0
37.3704 54.4402 0
37.3704 54.4402 0
36.8938 55.9361 0
36.8938 55.9361 0
36.2886 57.3848 0
36.2886 57.3848 0
35.5594 58.7753 0
35.5594 58.7753 0
34.7116 60.0969 0
34.7116 60.0969 0
33.7519 61.3397 0
33.7519 61.3397 0
32.6876 62.4941 0
32.6876 62.4941 0
31.5267 63.5515 0
31.5267 63.5515 0
30.2781 64.5037 0
30.2781 64.5037 0
28.9512 65.3437 0
28.9512 65.3437 0
27.5563 66.0649 0
27.5563 66.0649 0
26.1039 66.662 0
26.1039 66.662 0
24.605 67.1304 0
24.605 67.1304 0
23.071 67.4665 0
23.071 67.4665 0
21.5135 67.6679 0
21.5135 67.6679 0
19.9444 67.7329 0
19.9444 67.7329 0
18.3757 67.6612 0
18.3757 67.6612 0
16.8191 67.4532 0
16.8191 67.4532 0
15.2865 67.1105 0
15.2865 67.1105 0
13.7896 66.6357 0
13.7896 66.6357 0
12.3398 66.0325 0
12.3398 66.0325 0
10.9479 65.3053 0
10.9479 65.3053 0
9.62471 64.4597 0
9.62471 64.4597 0
8.38017 63.5021 0
8.38017 63.5021 0
7.22377 62.4398 0
7.22377 62.4398 0
6.16433 61.2809 0
6.16433 61.2809 0
5.20993 60.034 0
5.20993 60.034 0
4.36782 58.7088 0
4.36782 58.7088 0
3.64445 57.3153 0
3.64445 57.3153 0
3.04536 55.8641 0
3.04536 55.8641 0
2.57515 54.3662 0
2.57515 54.3662 0
2.23739 52.833 0
2.23739 52.833 0
2.03476 51.2764 0
2.03476 51.2764 0
1.96882 49.708 0
1.96882 49.708 0
2.04009 48.1399 0
2.04009 48.1399 0
2.24809 46.5843 0
2.24809 46.5843 0
2.59129 45.0529 0
2.59129 45.0529 0
3.06709 43.5574 0
3.06709 43.5574 0
3.67191 42.1096 0
3.67191 42.1096 0
4.40116 40.7206 0
4.40116 40.7206 0
5.24927 39.401 0
5.24927 39.401 0
6.20989 38.1614 0
6.20989 38.1614 0
7.2755 37.0117 0
7.2755 37.0117 0
8.43811 35.9611 0
8.43811 35.9611 0
9.68884 35.0191 0
9.68884 35.0191 0
11.0184 34.1936 0
11.0184 34.1936 0
12.4184 33.4881 0
12.4184 33.4881 0
13.8733 32.8967 0
13.8733 32.8967 0
15.3713 32.4279 0
15.3713 32.4279 0
16.9035 32.0893 0
16.9035 32.0893 0
18.4595 31.8844 0
18.4595 31.8844 0
20.0275 31.815 0
20.0275 31.815 0
21.5955 31.8821 0
21.5955 31.8821 0
23.1515 32.0851 0
23.1515 32.0851 0
24.6835 32.4225 0
24.6835 32.4225 0
26.18 32.892 0
26.18 32.892 0
27.6295 33.4901 0
27.6295 33.4901 0
29.0209 34.2125 0
29.0209 34.2125 0
30.3436 35.0538 0
30.3436 35.0538 0
31.5876 36.0074 0
31.5876 36.0074 0
32.7435 37.0662 0
32.7435 37.0662 0
33.8025 38.2222 0
33.8025 38.2222 0
34.7565 39.4664 0
34.7565 39.4664 0
35.5983 40.7895 0
35.5983 40.7895 0
36.3215 42.1813 0
36.3215 42.1813 0
36.9205 43.6312 0
36.9205 43.6312 0
37.3907 45.128 0
37.3907 45.128 0
37.7285 46.6604 0
37.7285 46.6604 0
37.931 48.2166 0
37.931 48.2166 0
37.9962 49.7846 0
98.0312 49.7077 0
97.9653 51.2761 0
97.9653 51.2761 0
97.7627 52.8328 0
97.7627 52.8328 0
97.4249 54.3659 0
97.4249 54.3659 0
96.9547 55.8638 0
96.9547 55.8638 0
96.3556 57.315 0
96.3556 57.315 0
95.6322 58.7085 0
95.6322 58.7085 0
94.7901 60.0337 0
94.7901 60.0337 0
93.8357 61.2806 0
93.8357 61.2806 0
92.7762 62.4395 0
92.7762 62.4395 0
91.6198 63.5018 0
91.6198 63.5018 0
90.3753 64.4594 0
90.3753 64.4594 0
89.0521 65.305 0
89.0521 65.305 0
87.6602 66.0321 0
87.6602 66.0321 0
86.2103 66.6354 0
86.2103 66.6354 0
84.7134 67.1101 0
84.7134 67.1101 0
83.1809 67.4528 0
83.1809 67.4528 0
81.6243 67.6608 0
81.6243 67.6608 0
80.0555 67.7326 0
80.0555 67.7326 0
78.4865 67.6675 0
78.4865 67.6675 0
76.929 67.4661 0
76.929 67.4661 0
75.395 67.13 0
75.395 67.13 0
73.8961 66.6616 0
73.8961 66.6616 0
72.4437 66.0645 0
72.4437 66.0645 0
71.0488 65.3432 0
71.0488 65.3432 0
69.722 64.5033 0
69.722 64.5033 0
68.4734 63.551 0
68.4734 63.551 0
67.3125 62.4936 0
67.3125 62.4936 0
66.2481 61.3392 0
66.2481 61.3392 0
65.2884 60.0964 0
65.2884 60.0964 0
64.4407 58.7748 0
64.4407 58.7748 0
63.7115 57.3843 0
63.7115 57.3843 0
63.1063 55.9356 0
63.1063 55.9356 0
62.6298 54.4397 0
62.6298 54.4397 0
62.2856 52.908 0
62.2856 52.908 0
62.0765 51.3521 0
62.0765 51.3521 0
62.0041 49.7841 0
62.0041 49.7841 0
62.0692 48.2161 0
62.0692 48.2161 0
62.2717 46.6599 0
62.2717 46.6599 0
62.6095 45.1275 0
62.6095 45.1275 0
63.0797 43.6307 0
63.0797 43.6307 0
63.6787 42.1808 0
63.6787 42.1808 0
64.4018 40.789 0
64.4018 40.789 0
65.2436 39.4659 0
65.2436 39.4659 0
66.1976 38.2217 0
66.1976 38.2217 0
67.2565 37.0658 0
67.2565 37.0658 0
68.4125 36.007 0
68.4125 36.007 0
69.6565 35.0534 0
69.6565 35.0534 0
70.9793 34.2123 0
70.9793 34.2123 0
72.3706 33.4899 0
72.3706 33.4899 0
73.8201 32.8915 0
73.8201 32.8915 0
75.3166 32.4218 0
75.3166 32.4218 0
76.8487 32.0842 0
76.8487 32.0842 0
78.4047 31.8813 0
78.4047 31.8813 0
79.9726 31.8144 0
79.9726 31.8144 0
81.5406 31.8838 0
81.5406 31.8838 0
83.0967 32.0889 0
83.0967 32.0889 0
84.6292 32.4274 0
84.6292 32.4274 0
86.1271 32.8963 0
86.1271 32.8963 0
87.5814 33.488 0
87.5814 33.488 0
88.9819 34.1934 0
88.9819 34.1934 0
90.3116 35.0194 0
90.3116 35.0194 0
91.562 35.9611 0
91.562 35.9611 0
92.7246 37.0114 0
92.7246 37.0114 0
93.7903 38.1612 0
93.7903 38.1612 0
94.7508 39.4007 0
94.7508 39.4007 0
95.599 40.7203 0
95.599 40.7203 0
96.3282 42.1094 0
96.3282 42.1094 0
96.933 43.5572 0
96.933 43.5572 0
97.4088 45.0526 0
97.4088 45.0526 0
97.752 46.5841 0
97.752 46.5841 0
97.96 48.1397 0
97.96 48.1397 0
98.0312 49.7077 0
      </DataArray>
    </Points>
    <Cells>
      <DataArray type="Int32" Name="connectivity" format="ascii">
247 120 114 753 754 755 
213 114 214 748 749 750 
487 220 257 647 745 730 
257 115 260 741 742 743 
246 300 116 738 739 740 
212 116 247 731 732 733 
246 257 117 724 725 726 
299 117 312 719 720 721 
303 310 118 716 717 718 
248 118 256 711 712 713 
513 495 483 150 224 119 
507 513 483 151 119 184 
248 120 302 704 705 706 
221 258 121 1196 1197 1198 
259 121 313 1191 1192 1193 
464 430 432 332 409 122 
436 464 432 326 122 408 
346 1189 123 1186 1187 1188 
298 123 351 1181 1182 1183 
71 311 124 699 700 701 
65 124 372 692 693 694 
79 369 125 687 688 689 
684 125 309 680 681 682 
211 243 126 1178 1179 1180 
244 126 297 1173 1174 1175 
462 474 436 240 281 127 
438 462 436 294 127 327 
512 515 514 131 129 134 
513 509 511 130 132 135 
514 515 510 129 139 128 
508 514 510 148 128 147 
496 500 514 146 133 149 
513 499 495 136 145 150 
507 509 513 143 130 151 
505 491 497 141 142 154 
504 515 512 137 131 155 
174 503 511 1151 156 144 
512 514 500 134 133 159 
499 513 511 136 135 162 
494 515 504 138 137 165 
171 510 515 1164 139 166 
140 167 168 678 674 675 
167 492 168 672 661 674 
491 505 506 141 153 169 
177 498 497 656 164 170 
173 490 174 1156 1149 1171 
217 489 503 1126 176 175 
495 499 498 145 163 178 
501 500 496 158 146 179 
172 486 181 1162 1145 1169 
496 514 508 149 148 183 
480 481 140 227 152 187 
479 506 505 188 153 190 
477 505 497 191 154 193 
504 512 475 155 160 194 
472 511 503 161 156 197 
501 502 471 157 199 200 
500 501 470 158 201 202 
475 512 500 160 159 203 
499 511 472 162 161 204 
498 499 469 163 205 206 
497 498 468 164 207 208 
494 504 474 165 195 210 
211 493 171 1165 1161 1166 
167 180 212 667 668 669 
168 492 213 661 662 663 
214 488 177 657 653 658 
172 171 215 1158 1159 1160 
173 185 216 1153 1154 1155 
174 490 217 1149 1127 1150 
473 503 489 196 176 218 
177 488 219 653 643 654 
220 487 180 647 648 649 
182 181 221 1142 1143 1144 
496 508 115 183 222 747 
225 484 185 886 1138 1139 
482 502 481 198 186 226 
506 480 140 189 187 677 
480 506 479 189 188 228 
479 505 478 190 192 229 
478 505 477 192 191 230 
477 497 476 193 209 231 
474 504 475 195 194 232 
472 503 473 197 196 233 
471 502 482 199 198 234 
470 501 471 201 200 235 
475 500 470 203 202 236 
469 499 472 205 204 237 
468 498 469 207 206 238 
476 497 468 209 208 239 
494 474 461 210 241 242 
215 245 249 1133 1134 1135 
216 250 251 1128 1129 1130 
217 252 253 1123 1124 1125 
307 451 473 1047 255 254 
223 219 256 640 641 642 
583 263 223 1074 637 628 
582 261 264 1120 1121 1122 
445 482 481 265 226 268 
444 481 480 267 227 270 
443 480 479 269 228 272 
442 479 478 271 229 274 
441 478 477 273 230 276 
440 477 476 275 231 278 
474 475 436 232 280 281 
472 473 435 233 283 284 
471 482 446 234 266 286 
470 471 434 235 287 288 
464 475 470 279 236 289 
469 472 463 237 285 290 
468 469 433 238 291 292 
439 476 468 277 239 293 
461 474 462 241 240 295 
296 460 243 1071 1116 1117 
245 244 298 1107 1108 1109 
258 249 304 1100 1101 1102 
250 262 305 1095 1096 1097 
252 251 306 1088 1089 1090 
253 452 307 1084 1044 1085 
437 473 451 282 255 308 
633 314 591 871 832 1082 
262 261 316 1075 1076 1077 
318 629 578 854 810 809 
446 482 445 266 265 319 
445 481 444 268 267 320 
444 480 443 270 269 321 
443 479 442 272 271 322 
442 478 441 274 273 323 
441 477 440 276 275 324 
440 476 439 278 277 325 
436 475 464 280 279 326 
435 473 437 283 282 328 
463 472 435 285 284 329 
434 471 446 287 286 330 
464 470 434 289 288 331 
433 469 463 291 290 334 
439 468 433 293 292 335 
462 438 43 294 338 339 
461 462 45 295 340 341 
296 342 343 1068 1069 1070 
297 344 345 1063 1064 1065 
299 311 347 621 622 623 
301 300 348 616 617 618 
302 301 349 609 610 611 
309 303 350 602 603 604 
304 352 353 1058 1059 1060 
305 358 359 1053 1054 1055 
306 361 362 1048 1049 1050 
307 452 364 1044 934 1045 
437 451 109 308 367 368 
599 317 597 848 850 1042 
592 315 593 841 840 1040 
313 355 375 1035 1036 1037 
585 586 587 1032 1033 1034 
356 316 378 1027 1028 1029 
578 579 580 1024 1025 1026 
3 446 445 381 319 383 
7 445 444 384 320 386 
11 444 443 387 321 389 
15 443 442 390 322 392 
19 442 441 393 323 395 
23 441 440 396 324 398 
27 440 439 399 325 401 
432 438 436 336 327 408 
435 437 431 328 337 410 
429 463 435 333 329 411 
434 446 0 330 382 413 
430 464 434 332 331 414 
433 463 429 334 333 415 
1 439 433 402 335 416 
39 438 432 404 336 417 
431 437 940 337 407 418 
43 438 41 338 405 42 
45 462 43 340 339 44 
47 49 342 48 1019 1020 
344 343 51 1009 1010 1011 
346 345 1013 1000 1001 1002 
348 347 702 569 570 571 
350 349 75 560 561 562 
352 351 55 991 992 993 
354 353 979 984 985 986 
355 354 995 975 976 977 
357 356 89 968 969 970 
358 357 956 959 960 961 
360 359 972 952 953 954 
361 360 95 943 944 945 
363 362 99 936 937 938 
364 363 103 927 928 929 
107 451 105 366 365 106 
109 451 107 367 366 108 
931 437 109 406 368 110 
370 369 548 553 554 555 
371 370 690 544 545 546 
372 374 532 537 538 539 
374 373 696 528 529 530 
376 375 61 920 921 922 
924 523 524 915 916 917 
378 380 85 908 909 910 
516 911 518 903 904 905 
0 446 3 382 381 2 
3 445 5 383 385 4 
5 445 7 385 384 6 
7 444 9 386 388 8 
9 444 11 388 387 10 
11 443 13 389 391 12 
13 443 15 391 390 14 
15 442 17 392 394 16 
17 442 19 394 393 18 
19 441 21 395 397 20 
21 441 23 397 396 22 
23 440 25 398 400 24 
25 440 27 400 399 26 
27 439 29 401 403 28 
29 439 1 403 402 30 
41 438 39 405 404 40 
940 437 931 407 406 932 
432 430 31 409 423 419 
429 435 431 411 410 412 
93 429 431 426 412 422 
430 434 0 414 413 424 
1 433 429 416 415 428 
39 432 37 417 420 38 
947 431 940 421 418 941 
37 432 31 420 419 36 
93 431 947 422 421 948 
31 430 33 423 425 32 
33 430 0 425 424 34 
112 429 93 427 426 111 
1 429 112 428 427 113 
220 115 257 746 741 745 
518 899 519 896 897 898 
521 519 380 889 890 891 
630 264 225 882 883 884 
491 177 497 659 170 142 
481 502 140 186 676 152 
744 182 635 879 874 875 
120 247 467 753 735 707 
247 114 492 755 752 736 
114 120 488 754 710 751 
114 213 492 748 662 752 
213 214 491 750 660 665 
214 114 488 749 751 657 
115 220 496 746 652 747 
257 260 466 743 632 727 
182 485 635 878 870 874 
300 246 458 738 728 619 
246 116 487 740 737 729 
116 300 467 739 620 734 
116 212 487 731 670 737 
212 247 492 733 736 671 
247 116 467 732 734 735 
257 246 487 724 729 730 
246 117 458 726 723 728 
117 257 466 725 727 722 
117 299 458 719 625 723 
299 312 449 721 595 626 
312 117 466 720 722 596 
310 303 450 716 608 600 
303 118 457 718 715 605 
118 310 465 717 601 714 
118 248 457 711 708 715 
248 256 488 713 644 709 
256 118 465 712 714 645 
120 248 488 704 709 710 
248 302 457 706 613 708 
302 120 467 705 707 614 
311 71 573 699 72 624 
71 124 63 701 698 70 
124 311 449 700 627 695 
124 65 63 692 64 698 
65 372 67 694 542 66 
372 124 449 693 695 543 
369 79 81 687 80 556 
79 125 73 689 686 78 
125 369 450 688 559 683 
125 684 73 680 685 686 
684 309 564 682 606 565 
309 125 450 681 683 607 
167 140 502 678 676 679 
501 167 502 673 679 157 
140 168 506 675 666 677 
180 167 501 667 673 651 
167 212 492 669 671 672 
212 180 487 668 648 670 
506 168 213 666 663 664 
491 506 213 169 664 665 
491 214 177 660 658 659 
498 177 219 656 654 655 
495 498 219 178 655 646 
496 220 180 652 649 650 
501 496 180 179 650 651 
219 223 495 640 639 646 
223 256 465 642 645 636 
256 219 488 641 643 644 
495 223 263 639 637 638 
483 495 263 224 638 631 
633 635 634 867 868 869 
588 634 259 860 861 862 
629 318 630 854 855 856 
311 299 449 621 626 627 
299 347 458 623 577 625 
347 311 573 622 624 572 
300 301 467 616 615 620 
301 348 69 618 575 612 
348 300 458 617 619 576 
301 302 467 609 614 615 
302 349 457 611 568 613 
349 301 69 610 612 563 
303 309 450 602 607 608 
309 350 564 604 566 606 
350 303 457 603 605 567 
597 317 584 850 807 851 
599 550 581 845 846 847 
371 310 450 598 600 551 
590 315 592 835 841 842 
312 373 449 594 536 595 
593 589 531 836 837 838 
585 590 591 827 828 829 
587 523 589 818 819 820 
586 588 527 811 812 813 
578 583 584 802 803 804 
580 521 582 793 794 795 
579 581 516 784 785 786 
347 348 458 569 576 577 
348 702 69 571 703 575 
702 347 573 570 572 574 
349 350 457 560 567 568 
350 75 564 562 76 566 
75 349 69 561 563 74 
369 370 450 553 552 559 
370 548 557 555 549 547 
548 369 81 554 556 82 
370 371 450 544 551 552 
778 77 550 783 779 780 
690 370 557 545 547 558 
374 372 449 537 543 535 
372 532 67 539 68 542 
532 374 540 538 534 533 
373 374 449 528 535 536 
374 696 540 530 541 534 
531 59 773 772 777 774 
524 527 526 765 766 767 
762 526 376 756 757 758 
744 635 633 875 867 873 
260 744 633 877 873 872 
211 171 515 1166 166 1167 
494 211 515 1168 1167 138 
509 174 511 1152 144 132 
174 217 503 1150 175 1151 
629 583 578 1073 802 810 
465 583 223 805 628 636 
489 307 473 1086 254 218 
258 221 486 1196 1146 1105 
221 121 485 1198 1195 1147 
121 258 455 1197 1104 1194 
121 259 485 1191 864 1195 
259 313 448 1193 1038 865 
313 121 455 1192 1194 1039 
1189 346 1018 1186 1006 1023 
346 123 459 1188 1185 1007 
123 1189 35 1187 1190 1184 
123 298 459 1181 1111 1185 
298 351 456 1183 999 1112 
351 123 35 1182 1184 994 
243 211 494 1178 1168 1119 
211 126 493 1180 1177 1165 
126 243 460 1179 1116 1176 
126 244 493 1173 1115 1177 
244 297 459 1175 1066 1110 
297 126 460 1174 1176 1067 
173 174 509 1171 1152 1172 
507 173 509 1157 1172 143 
510 172 181 1163 1169 1170 
508 510 181 147 1170 1148 
171 172 510 1158 1163 1164 
172 215 486 1160 1136 1162 
215 171 493 1159 1161 1137 
185 173 507 1153 1157 1141 
173 216 490 1155 1131 1156 
216 185 484 1154 1138 1132 
181 182 508 1142 881 1148 
182 221 485 1144 1147 878 
221 181 486 1143 1145 1146 
225 185 507 1139 1141 1140 
483 225 507 887 1140 184 
245 215 493 1133 1137 1114 
215 249 486 1135 1106 1136 
249 245 456 1134 1113 1103 
250 216 484 1128 1132 1099 
216 251 490 1130 1094 1131 
251 250 453 1129 1098 1091 
252 217 490 1123 1127 1093 
217 253 489 1125 1087 1126 
253 252 452 1124 1092 1084 
261 582 447 1120 797 1078 
582 264 318 1122 888 798 
264 261 484 1121 1081 885 
461 296 243 1072 1117 1118 
494 461 243 242 1118 1119 
244 245 493 1107 1114 1115 
245 298 456 1109 1112 1113 
298 244 459 1108 1110 1111 
249 258 486 1100 1105 1106 
258 304 455 1102 1061 1104 
304 249 456 1101 1103 1062 
262 250 484 1095 1099 1080 
250 305 453 1097 1056 1098 
305 262 454 1096 1079 1057 
251 252 490 1088 1093 1094 
252 306 452 1090 1051 1092 
306 251 453 1089 1091 1052 
489 253 307 1087 1085 1086 
260 633 591 872 1082 1083 
466 260 591 632 1083 831 
261 262 484 1075 1080 1081 
262 316 454 1077 1031 1079 
316 261 447 1076 1078 1030 
583 629 263 1073 859 1074 
342 296 461 1068 1072 1022 
296 343 460 1070 1017 1071 
343 342 49 1069 1019 1012 
344 297 460 1063 1067 1016 
297 345 459 1065 1008 1066 
345 344 1004 1064 1015 1003 
352 304 456 1058 1062 998 
304 353 455 1060 990 1061 
353 352 57 1059 997 987 
358 305 454 1053 1057 966 
305 359 453 1055 958 1056 
359 358 963 1054 965 955 
361 306 453 1048 1052 950 
306 362 452 1050 942 1051 
362 361 97 1049 949 939 
451 307 364 1047 1045 1046 
105 451 364 365 1046 933 
371 599 597 849 1042 1043 
310 371 597 598 1043 852 
592 593 373 1040 839 1041 
312 592 373 844 1041 594 
355 313 455 1035 1039 982 
313 375 448 1037 926 1038 
375 355 53 1036 981 923 
586 585 314 1032 833 816 
585 587 315 1034 824 834 
587 586 377 1033 815 825 
316 356 454 1027 974 1031 
356 378 83 1029 913 971 
378 316 447 1028 1030 914 
579 578 317 1024 808 791 
578 580 318 1026 799 809 
580 579 379 1025 790 800 
45 47 342 46 1020 1021 
461 45 342 341 1021 1022 
343 344 460 1009 1016 1017 
344 51 1004 1011 52 1015 
51 343 49 1010 1012 50 
345 346 459 1000 1007 1008 
346 1013 1018 1002 1014 1006 
1013 345 1004 1001 1003 1005 
351 352 456 991 998 999 
352 55 57 993 56 997 
55 351 35 992 994 54 
353 354 455 984 983 990 
354 979 988 986 980 978 
979 353 57 985 987 58 
354 355 455 975 982 983 
355 995 53 977 996 981 
995 354 988 976 978 989 
356 357 454 968 967 974 
357 89 91 970 90 962 
89 356 83 969 971 88 
357 358 454 959 966 967 
358 956 963 961 957 965 
956 357 91 960 962 92 
359 360 453 952 951 958 
360 972 87 954 973 946 
972 359 963 953 955 964 
360 361 453 943 950 951 
361 95 97 945 96 949 
95 360 87 944 946 94 
362 363 452 936 935 942 
363 99 101 938 100 930 
99 362 97 937 939 98 
363 364 452 927 934 935 
364 103 105 929 104 933 
103 363 101 928 930 102 
375 376 448 920 760 926 
376 61 522 922 62 761 
61 375 53 921 923 60 
523 924 59 915 925 821 
924 524 918 917 769 919 
524 523 377 916 826 770 
380 378 447 908 914 894 
378 85 83 910 84 913 
85 380 517 909 893 86 
911 516 77 903 788 912 
516 518 379 905 900 789 
518 911 906 904 907 901 
899 518 906 896 901 902 
518 519 379 898 895 900 
519 899 517 897 520 892 
519 521 379 889 801 895 
521 380 447 891 894 796 
380 519 517 890 892 893 
264 630 318 882 855 888 
630 225 483 884 887 858 
225 264 484 883 885 886 
508 182 744 881 879 880 
115 508 744 222 880 876 
115 744 260 876 877 742 
633 634 314 869 866 871 
634 635 485 868 870 863 
634 588 314 860 817 866 
588 259 448 862 865 814 
259 634 485 861 863 864 
263 629 630 859 856 857 
483 263 630 631 857 858 
597 584 465 851 806 853 
310 597 465 852 853 601 
550 599 371 845 849 782 
599 581 317 847 792 848 
581 550 77 846 779 787 
466 590 592 830 842 843 
312 466 592 596 843 844 
589 593 315 836 840 823 
593 531 373 838 775 839 
531 589 59 837 822 772 
590 585 315 827 834 835 
585 591 314 829 832 833 
591 590 466 828 830 831 
523 587 377 818 825 826 
587 589 315 820 823 824 
589 523 59 819 821 822 
588 586 314 811 816 817 
586 527 377 813 771 815 
527 588 448 812 814 768 
578 584 317 804 807 808 
584 583 465 803 805 806 
521 580 379 793 800 801 
580 582 318 795 798 799 
582 521 447 794 796 797 
581 579 317 784 791 792 
579 516 379 786 789 790 
516 581 77 785 787 788 
690 778 550 691 780 781 
371 690 550 546 781 782 
531 773 696 774 697 776 
373 531 696 775 776 529 
527 524 377 765 770 771 
524 526 918 767 764 769 
526 527 448 766 768 759 
526 762 918 756 763 764 
762 376 522 758 761 525 
376 526 448 757 759 760 
1199 1200
1201 1202
1203 1204
1205 1206
1207 1208
1209 1210
1211 1212
1213 1214
1215 1216
1217 1218
1219 1220
1221 1222
1223 1224
1225 1226
1227 1228
1229 1230
1231 1232
1233 1234
1235 1236
1237 1238
1239 1240
1241 1242
1243 1244
1245 1246
1247 1248
1249 1250
1251 1252
1253 1254
1255 1256
1257 1258
1259 1260
1261 1262
1263 1264
1265 1266
1267 1268
1269 1270
1271 1272
1273 1274
1275 1276
1277 1278
1279 1280
1281 1282
1283 1284
1285 1286
1287 1288
1289 1290
1291 1292
1293 1294
1295 1296
1297 1298
1299 1300
1301 1302
1303 1304
1305 1306
1307 1308
1309 1310
1311 1312
1313 1314
1315 1316
1317 1318
1319 1320
1321 1322
1323 1324
1325 1326
1327 1328
1329 1330
1331 1332
1333 1334
1335 1336
1337 1338
1339 1340
1341 1342
1343 1344
1345 1346
1347 1348
1349 1350
1351 1352
1353 1354
1355 1356
1357 1358
1359 1360
1361 1362
1363 1364
1365 1366
1367 1368
1369 1370
1371 1372
1373 1374
1375 1376
1377 1378
1379 1380
1381 1382
1383 1384
1385 1386
1387 1388
1389 1390
1391 1392
1393 1394
1395 1396
1397 1398
1399 1400
1401 1402
1403 1404
1405 1406
1407 1408
1409 1410
1411 1412
1413 1414
1415 1416
1417 1418
1419 1420
1421 1422
1423 1424
1425 1426
1427 1428
1429 1430
1431 1432
1433 1434
1435 1436
1437 1438
1439 1440
1441 1442
1443 1444
1445 1446
1447 1448
1449 1450
1451 1452
1453 1454
1455 1456
1457 1458
1459 1460
1461 1462
1463 1464
1465 1466
1467 1468
1469 1470
1471 1472
1473 1474
1475 1476
1477 1478
1479 1480
1481 1482
1483 1484
1485 1486
1487 1488
1489 1490
1491 1492
1493 1494
1495 1496
1497 1498
1499 1500
1501 1502
1503 1504
1505 1506
1507 1508
1509 1510
1511 1512
1513 1514
1515 1516
1517 1518
1519 1520
1521 1522
1523 1524
1525 1526
1527 1528
1529 1530
1531 1532
1533 1534
1535 1536
1537 1538
1539 1540
1541 1542
1543 1544
1545 1546
1547 1548
1549 1550
1551 1552
1553 1554
1555 1556
1557 1558
1559 1560
1561 1562
1563 1564
1565 1566
1567 1568
1569 1570
1571 1572
1573 1574
1575 1576
1577 1578
1579 1580
1581 1582
1583 1584
1585 1586
1587 1588
1589 1590
1591 1592
1593 1594
1595 1596
1597 1598
1599 1600
1601 1602
1603 1604
1605 1606
1607 1608
1609 1610
1611 1612
1613 1614
1615 1616
1617 1618
1619 1620
1621 1622
1623 1624
1625 1626
1627 1628
1629 1630
1631 1632
1633 1634
1635 1636
1637 1638
1639 1640
1641 1642
1643 1644
1645 1646
1647 1648
1649 1650
1651 1652
1653 1654
1655 1656
1657 1658
1659 1660
1661 1662
1663 1664
1665 1666
1667 1668
1669 1670
1671 1672
1673 1674
1675 1676
1677 1678
1679 1680
1681 1682
1683 1684
1685 1686
1687 1688
1689 1690
1691 1692
1693 1694
1695 1696
1697 1698
1699 1700
1701 1702
1703 1704
1705 1706
1707 1708
1709 1710
1711 1712
1713 1714
1715 1716
1717 1718
1719 1720
1721 1722
1723 1724
1725 1726
1727 1728
1729 1730
1731 1732
1733 1734
1735 1736
1737 1738
1739 1740
1741 1742
1743 1744
1745 1746
1747 1748
1749 1750
1751 1752
1753 1754
1755 1756
1757 1758
1759 1760
1761 1762
1763 1764
1765 1766
1767 1768
1769 1770
1771 1772
1773 1774
1775 1776
1777 1778
1779 1780
1781 1782
1783 1784
1785 1786
1787 1788
1789 1790
1791 1792
1793 1794
1795 1796
1797 1798
1799 1800
1801 1802
1803 1804
1805 1806
1807 1808
1809 1810
1811 1812
1813 1814
1815 1816
1817 1818
1819 1820
1821 1822
1823 1824
1825 1826
1827 1828
1829 1830
1831 1832
1833 1834
1835 1836
1837 1838
1839 1840
1841 1842
1843 1844
1845 1846
1847 1848
1849 1850
1851 1852
1853 1854
1855 1856
1857 1858
1859 1860
1861 1862
1863 1864
1865 1866
1867 1868
1869 1870
1871 1872
1873 1874
1875 1876
1877 1878
1879 1880
1881 1882
1883 1884
1885 1886
1887 1888
1889 1890
1891 1892
1893 1894
1895 1896
1897 1898
1899 1900
1901 1902
1903 1904
1905 1906
1907 1908
1909 1910
1911 1912
1913 1914
1915 1916
1917 1918
1919 1920
1921 1922
1923 1924
1925 1926
1927 1928
1929 1930
1931 1932
1933 1934
1935 1936
1937 1938
1939 1940
1941 1942
1943 1944
1945 1946
1947 1948
1949 1950
1951 1952
1953 1954
1955 1956
1957 1958
1959 1960
1961 1962
1963 1964
1965 1966
1967 1968
1969 1970
1971 1972
1973 1974
1975 1976
1977 1978
1979 1980
1981 1982
1983 1984
1985 1986
1987 1988
1989 1990
1991 1992
1993 1994
1995 1996
1997 1998
1999 2000
2001 2002
2003 2004
2005 2006
2007 2008
2009 2010
2011 2012
2013 2014
2015 2016
2017 2018
2019 2020
2021 2022
2023 2024
2025 2026
2027 2028
2029 2030
2031 2032
2033 2034
2035 2036
2037 2038
2039 2040
2041 2042
2043 2044
2045 2046
2047 2048
2049 2050
2051 2052
2053 2054
2055 2056
2057 2058
2059 2060
2061 2062
2063 2064
2065 2066
2067 2068
2069 2070
2071 2072
2073 2074
2075 2076
2077 2078
2079 2080
2081 2082
2083 2084
2085 2086
2087 2088
2089 2090
2091 2092
2093 2094
2095 2096
2097 2098
2099 2100
2101 2102
2103 2104
2105 2106
2107 2108
2109 2110
2111 2112
2113 2114
2115 2116
2117 2118
2119 2120
2121 2122
2123 2124
2125 2126
2127 2128
2129 2130
2131 2132
2133 2134
2135 2136
2137 2138
2139 2140
2141 2142
2143 2144
2145 2146
2147 2148
2149 2150
2151 2152
2153 2154
2155 2156
2157 2158
2159 2160
2161 2162
2163 2164
2165 2166
2167 2168
2169 2170
2171 2172
2173 2174
2175 2176
2177 2178
2179 2180
2181 2182
2183 2184
2185 2186
2187 2188
2189 2190
2191 2192
2193 2194
2195 2196
2197 2198
2199 2200
2201 2202
2203 2204
2205 2206
2207 2208
2209 2210
2211 2212
2213 2214
2215 2216
2217 2218
2219 2220
2221 2222
2223 2224
2225 2226
2227 2228
2229 2230
2231 2232
2233 2234
2235 2236
2237 2238
2239 2240
2241 2242
2243 2244
2245 2246
2247 2248
2249 2250
2251 2252
2253 2254
2255 2256
2257 2258
2259 2260
2261 2262
2263 2264
2265 2266
2267 2268
2269 2270
2271 2272
2273 2274
2275 2276
2277 2278
2279 2280
2281 2282
2283 2284
2285 2286
2287 2288
2289 2290
2291 2292
2293 2294
2295 2296
2297 2298
2299 2300
2301 2302
2303 2304
2305 2306
2307 2308
2309 2310
2311 2312
2313 2314
2315 2316
2317 2318
2319 2320
2321 2322
2323 2324
2325 2326
2327 2328
2329 2330
2331 2332
2333 2334
2335 2336
2337 2338
2339 2340
2341 2342
2343 2344
2345 2346
2347 2348
2349 2350
2351 2352
2353 2354
2355 2356
2357 2358
2359 2360
2361 2362
2363 2364
2365 2366
2367 2368
2369 2370
2371 2372
2373 2374
2375 2376
2377 2378
2379 2380
2381 2382
2383 2384
2385 2386
2387 2388
2389 2390
2391 2392
2393 2394
2395 2396
2397 2398
2399 2400
2401 2402
2403 2404
2405 2406
2407 2408
2409 2410
2411 2412
2413 2414
2415 2416
2417 2418
2419 2420
2421 2422
2423 2424
2425 2426
2427 2428
2429 2430
2431 2432
2433 2434
2435 2436
2437 2438
2439 2440
2441 2442
2443 2444
2445 2446
2447 2448
2449 2450
2451 2452
2453 2454
2455 2456
2457 2458
2459 2460
2461 2462
2463 2464
2465 2466
2467 2468
2469 2470
2471 2472
2473 2474
2475 2476
2477 2478
2479 2480
2481 2482
2483 2484
2485 2486
2487 2488
2489 2490
2491 2492
2493 2494
2495 2496
2497 2498
2499 2500
2501 2502
2503 2504
2505 2506
2507 2508
2509 2510
2511 2512
2513 2514
2515 2516
2517 2518
2519 2520
2521 2522
2523 2524
2525 2526
2527 2528
2529 2530
2531 2532
2533 2534
2535 2536
2537 2538
2539 2540
2541 2542
2543 2544
2545 2546
2547 2548
2549 2550
2551 2552
2553 2554
2555 2556
2557 2558
2559 2560
2561 2562
2563 2564
2565 2566
2567 2568
2569 2570
2571 2572
2573 2574
2575 2576
2577 2578
2579 2580
2581 2582
2583 2584
2585 2586
2587 2588
2589 2590
2591 2592
2593 2594
2595 2596
2597 2598
2599 2600
2601 2602
2603 2604
2605 2606
2607 2608
2609 2610
2611 2612
2613 2614
2615 2616
2617 2618
2619 2620
2621 2622
2623 2624
2625 2626
2627 2628
2629 2630
2631 2632
2633 2634
2635 2636
2637 2638
2639 2640
2641 2642
2643 2644
2645 2646
2647 2648
2649 2650
2651 2652
2653 2654
2655 2656
2657 2658
2659 2660
2661 2662
2663 2664
2665 2666
2667 2668
2669 2670
2671 2672
2673 2674
2675 2676
2677 2678
2679 2680
2681 2682
2683 2684
2685 2686
2687 2688
2689 2690
2691 2692
2693 2694
2695 2696
2697 2698
2699 2700
2701 2702
2703 2704
2705 2706
2707 2708
2709 2710
2711 2712
2713 2714
2715 2716
2717 2718
2719 2720
2721 2722
2723 2724
2725 2726
2727 2728
2729 2730
2731 2732
2733 2734
2735 2736
2737 2738
2739 2740
2741 2742
2743 2744
2745 2746
2747 2748
2749 2750
2751 2752
2753 2754
2755 2756
2757 2758
2759 2760
2761 2762
2763 2764
2765 2766
2767 2768
2769 2770
2771 2772
2773 2774
2775 2776
2777 2778
2779 2780
2781 2782
2783 2784
2785 2786
2787 2788
2789 2790
2791 2792
2793 2794
2795 2796
2797 2798
2799 2800
2801 2802
2803 2804
2805 2806
2807 2808
2809 2810
2811 2812
2813 2814
2815 2816
2817 2818
2819 2820
2821 2822
2823 2824
2825 2826
2827 2828
2829 2830
2831 2832
2833 2834
2835 2836
2837 2838
2839 2840
2841 2842
2843 2844
2845 2846
2847 2848
2849 2850
2851 2852
2853 2854
2855 2856
2857 2858
2859 2860
2861 2862
2863 2864
2865 2866
2867 2868
2869 2870
2871 2872
2873 2874
2875 2876
2877 2878
2879 2880
2881 2882
2883 2884
2885 2886
2887 2888
2889 2890
2891 2892
2893 2894
2895 2896
2897 2898
2899 2900
2901 2902
2903 2904
2905 2906
2907 2908
2909 2910
2911 2912
2913 2914
2915 2916
2917 2918
2919 2920
2921 2922
2923 2924
2925 2926
2927 2928
2929 2930
2931 2932
2933 2934
2935 2936
2937 2938
2939 2940
2941 2942
2943 2944
2945 2946
2947 2948
2949 2950
2951 2952
2953 2954
2955 2956
2957 2958
2959 2960
2961 2962
2963 2964
2965 2966
2967 2968
2969 2970
2971 2972
2973 2974
2975 2976
2977 2978
2979 2980
2981 2982
2983 2984
2985 2986
2987 2988
2989 2990
2991 2992
2993 2994
2995 2996
2997 2998
2999 3000
3001 3002
3003 3004
3005 3006
3007 3008
3009 3010
3011 3012
3013 3014
3015 3016
3017 3018
3019 3020
3021 3022
3023 3024
3025 3026
3027 3028
3029 3030
3031 3032
3033 3034
3035 3036
3037 3038
3039 3040
3041 3042
3043 3044
3045 3046
3047 3048
3049 3050
3051 3052
3053 3054
3055 3056
3057 3058
3059 3060
3061 3062
3063 3064
3065 3066
3067 3068
3069 3070
3071 3072
3073 3074
3075 3076
3077 3078
3079 3080
3081 3082
3083 3084
3085 3086
3087 3088
3089 3090
3091 3092
3093 3094
3095 3096
3097 3098
3099 3100
3101 3102
3103 3104
3105 3106
3107 3108
3109 3110
3111 3112
3113 3114
3115 3116
3117 3118
3119 3120
3121 3122
3123 3124
3125 3126
3127 3128
3129 3130
3131 3132
3133 3134
3135 3136
3137 3138
3139 3140
3141 3142
3143 3144
3145 3146
3147 3148
3149 3150
3151 3152
3153 3154
3155 3156
3157 3158
3159 3160
3161 3162
3163 3164
3165 3166
3167 3168
3169 3170
3171 3172
3173 3174
3175 3176
3177 3178
3179 3180
3181 3182
3183 3184
3185 3186
3187 3188
3189 3190
3191 3192
3193 3194
3195 3196
3197 3198
3199 3200
3201 3202
3203 3204
3205 3206
3207 3208
3209 3210
3211 3212
3213 3214
3215 3216
3217 3218
3219 3220
3221 3222
3223 3224
3225 3226
3227 3228
3229 3230
3231 3232
3233 3234
3235 3236
3237 3238
3239 3240
3241 3242
3243 3244
3245 3246
3247 3248
3249 3250
3251 3252
3253 3254
3255 3256
3257 3258
3259 3260
3261 3262
3263 3264
3265 3266
3267 3268
3269 3270
3271 3272
3273 3274
3275 3276
3277 3278
3279 3280
3281 3282
3283 3284
3285 3286
3287 3288
3289 3290
3291 3292
3293 3294
3295 3296
3297 3298
3299 3300
3301 3302
3303 3304
3305 3306
3307 3308
3309 3310
3311 3312
3313 3314
3315 3316
3317 3318
3319 3320
3321 3322
3323 3324
3325 3326
3327 3328
3329 3330
3331 3332
3333 3334
3335 3336
3337 3338
3339 3340
3341 3342
3343 3344
3345 3346
3347 3348
3349 3350
3351 3352
3353 3354
3355 3356
3357 3358
3359 3360
3361 3362
3363 3364
3365 3366
3367 3368
3369 3370
3371 3372
3373 3374
3375 3376
3377 3378
3379 3380
3381 3382
3383 3384
3385 3386
3387 3388
3389 3390
3391 3392
3393 3394
3395 3396
3397 3398
3399 3400
3401 3402
3403 3404
3405 3406
3407 3408
3409 3410
3411 3412
3413 3414
3415 3416
3417 3418
3419 3420
3421 3422
3423 3424
3425 3426
3427 3428
3429 3430
3431 3432
3433 3434
3435 3436
3437 3438
3439 3440
3441 3442
3443 3444
3445 3446
3447 3448
3449 3450
3451 3452
3453 3454
3455 3456
3457 3458
3459 3460
3461 3462
3463 3464
3465 3466
3467 3468
3469 3470
3471 3472
3473 3474
3475 3476
3477 3478
3479 3480
3481 3482
3483 3484
3485 3486
      </DataArray>
      <DataArray type="Int32" Name="offsets" format="ascii">
6
12
18
24
30
36
42
48
54
60
66
72
78
84
90
96
102
108
114
120
126
132
138
144
150
156
162
168
174
180
186
192
198
204
210
216
222
228
234
240
246
252
258
264
270
276
282
288
294
300
306
312
318
324
330
336
342
348
354
360
366
372
378
384
390
396
402
408
414
420
426
432
438
444
450
456
462
468
474
480
486
492
498
504
510
516
522
528
534
540
546
552
558
564
570
576
582
588
594
600
606
612
618
624
630
636
642
648
654
660
666
672
678
684
690
696
702
708
714
720
726
732
738
744
750
756
762
768
774
780
786
792
798
804
810
816
822
828
834
840
846
852
858
864
870
876
882
888
894
900
906
912
918
924
930
936
942
948
954
960
966
972
978
984
990
996
1002
1008
1014
1020
1026
1032
1038
1044
1050
1056
1062
1068
1074
1080
1086
1092
1098
1104
1110
1116
1122
1128
1134
1140
1146
1152
1158
1164
1170
1176
1182
1188
1194
1200
1206
1212
1218
1224
1230
1236
1242
1248
1254
1260
1266
1272
1278
1284
1290
1296
1302
1308
1314
1320
1326
1332
1338
1344
1350
1356
1362
1368
1374
1380
1386
1392
1398
1404
1410
1416
1422
1428
1434
1440
1446
1452
1458
1464
1470
1476
1482
1488
1494
1500
1506
1512
1518
1524
1530
1536
1542
1548
1554
1560
1566
1572
1578
1584
1590
1596
1602
1608
1614
1620
1626
1632
1638
1644
1650
1656
1662
1668
1674
1680
1686
1692
1698
1704
1710
1716
1722
1728
1734
1740
1746
1752
1758
1764
1770
1776
1782
1788
1794
1800
1806
1812
1818
1824
1830
1836
1842
1848
1854
1860
1866
1872
1878
1884
1890
1896
1902
1908
1914
1920
1926
1932
1938
1944
1950
1956
1962
1968
1974
1980
1986
1992
1998
2004
2010
2016
2022
2028
2034
2040
2046
2052
2058
2064
2070
2076
2082
2088
2094
2100
2106
2112
2118
2124
2130
2136
2142
2148
2154
2160
2166
2172
2178
2184
2190
2196
2202
2208
2214
2220
2226
2232
2238
2244
2250
2256
2262
2268
2274
2280
2286
2292
2298
2304
2310
2316
2322
2328
2334
2340
2346
2352
2358
2364
2370
2376
2382
2388
2394
2400
2406
2412
2418
2424
2430
2436
2442
2448
2454
2460
2466
2472
2478
2484
2490
2496
2502
2508
2514
2520
2526
2532
2538
2544
2550
2556
2562
2568
2574
2580
2586
2592
2598
2604
2610
2616
2622
2628
2634
2640
2646
2652
2658
2664
2670
2676
2682
2688
2694
2700
2706
2712
2718
2724
2730
2736
2742
2748
2754
2760
2766
2772
2778
2784
2790
2796
2802
2808
2814
2820
2826
2832
2838
2844
2850
2856
2862
2868
2874
2880
2886
2892
2898
2904
2910
2916
2922
2928
2934
2940
2946
2952
2958
2964
2970
2976
2982
2988
2994
3000
3006
3012
3018
3024
3030
3036
3042
3048
3054
3060
3066
3072
3078
3084
3090
3096
3102
3108
3114
3120
3126
3132
3138
3144
3150
3156
3162
3168
3174
3180
3186
3192
3198
3204
3210
3216
3222
3228
3234
3240
3246
3252
3258
3264
3270
3276
3282
3288
3294
3300
3306
3312
3318
3324
3326
3328
3330
3332
3334
3336
3338
3340
3342
3344
3346
3348
3350
3352
3354
3356
3358
3360
3362
3364
3366
3368
3370
3372
3374
3376
3378
3380
3382
3384
3386
3388
3390
3392
3394
3396
3398
3400
3402
3404
3406
3408
3410
3412
3414
3416
3418
3420
3422
3424
3426
3428
3430
3432
3434
3436
3438
3440
3442
3444
3446
3448
3450
3452
3454
3456
3458
3460
3462
3464
3466
3468
3470
3472
3474
3476
3478
3480
3482
3484
3486
3488
3490
3492
3494
3496
3498
3500
3502
3504
3506
3508
3510
3512
3514
3516
3518
3520
3522
3524
3526
3528
3530
3532
3534
3536
3538
3540
3542
3544
3546
3548
3550
3552
3554
3556
3558
3560
3562
3564
3566
3568
3570
3572
3574
3576
3578
3580
3582
3584
3586
3588
3590
3592
3594
3596
3598
3600
3602
3604
3606
3608
3610
3612
3614
3616
3618
3620
3622
3624
3626
3628
3630
3632
3634
3636
3638
3640
3642
3644
3646
3648
3650
3652
3654
3656
3658
3660
3662
3664
3666
3668
3670
3672
3674
3676
3678
3680
3682
3684
3686
3688
3690
3692
3694
3696
3698
3700
3702
3704
3706
3708
3710
3712
3714
3716
3718
3720
3722
3724
3726
3728
3730
3732
3734
3736
3738
3740
3742
3744
3746
3748
3750
3752
3754
3756
3758
3760
3762
3764
3766
3768
3770
3772
3774
3776
3778
3780
3782
3784
3786
3788
3790
3792
3794
3796
3798
3800
3802
3804
3806
3808
3810
3812
3814
3816
3818
3820
3822
3824
3826
3828
3830
3832
3834
3836
3838
3840
3842
3844
3846
3848
3850
3852
3854
3856
3858
3860
3862
3864
3866
3868
3870
3872
3874
3876
3878
3880
3882
3884
3886
3888
3890
3892
3894
3896
3898
3900
3902
3904
3906
3908
3910
3912
3914
3916
3918
3920
3922
3924
3926
3928
3930
3932
3934
3936
3938
3940
3942
3944
3946
3948
3950
3952
3954
3956
3958
3960
3962
3964
3966
3968
3970
3972
3974
3976
3978
3980
3982
3984
3986
3988
3990
3992
3994
3996
3998
4000
4002
4004
4006
4008
4010
4012
4014
4016
4018
4020
4022
4024
4026
4028
4030
4032
4034
4036
4038
4040
4042
4044
4046
4048
4050
4052
4054
4056
4058
4060
4062
4064
4066
4068
4070
4072
4074
4076
4078
4080
4082
4084
4086
4088
4090
4092
4094
4096
4098
4100
4102
4104
4106
4108
4110
4112
4114
4116
4118
4120
4122
4124
4126
4128
4130
4132
4134
4136
4138
4140
4142
4144
4146
4148
4150
4152
4154
4156
4158
4160
4162
4164
4166
4168
4170
4172
4174
4176
4178
4180
4182
4184
4186
4188
4190
4192
4194
4196
4198
4200
4202
4204
4206
4208
4210
4212
4214
4216
4218
4220
4222
4224
4226
4228
4230
4232
4234
4236
4238
4240
4242
4244
4246
4248
4250
4252
4254
4256
4258
4260
4262
4264
4266
4268
4270
4272
4274
4276
4278
4280
4282
4284
4286
4288
4290
4292
4294
4296
4298
4300
4302
4304
4306
4308
4310
4312
4314
4316
4318
4320
4322
4324
4326
4328
4330
4332
4334
4336
4338
4340
4342
4344
4346
4348
4350
4352
4354
4356
4358
4360
4362
4364
4366
4368
4370
4372
4374
4376
4378
4380
4382
4384
4386
4388
4390
4392
4394
4396
4398
4400
4402
4404
4406
4408
4410
4412
4414
4416
4418
4420
4422
4424
4426
4428
4430
4432
4434
4436
4438
4440
4442
4444
4446
4448
4450
4452
4454
4456
4458
4460
4462
4464
4466
4468
4470
4472
4474
4476
4478
4480
4482
4484
4486
4488
4490
4492
4494
4496
4498
4500
4502
4504
4506
4508
4510
4512
4514
4516
4518
4520
4522
4524
4526
4528
4530
4532
4534
4536
4538
4540
4542
4544
4546
4548
4550
4552
4554
4556
4558
4560
4562
4564
4566
4568
4570
4572
4574
4576
4578
4580
4582
4584
4586
4588
4590
4592
4594
4596
4598
4600
4602
4604
4606
4608
4610
4612
4614
4616
4618
4620
4622
4624
4626
4628
4630
4632
4634
4636
4638
4640
4642
4644
4646
4648
4650
4652
4654
4656
4658
4660
4662
4664
4666
4668
4670
4672
4674
4676
4678
4680
4682
4684
4686
4688
4690
4692
4694
4696
4698
4700
4702
4704
4706
4708
4710
4712
4714
4716
4718
4720
4722
4724
4726
4728
4730
4732
4734
4736
4738
4740
4742
4744
4746
4748
4750
4752
4754
4756
4758
4760
4762
4764
4766
4768
4770
4772
4774
4776
4778
4780
4782
4784
4786
4788
4790
4792
4794
4796
4798
4800
4802
4804
4806
4808
4810
4812
4814
4816
4818
4820
4822
4824
4826
4828
4830
4832
4834
4836
4838
4840
4842
4844
4846
4848
4850
4852
4854
4856
4858
4860
4862
4864
4866
4868
4870
4872
4874
4876
4878
4880
4882
4884
4886
4888
4890
4892
4894
4896
4898
4900
4902
4904
4906
4908
4910
4912
4914
4916
4918
4920
4922
4924
4926
4928
4930
4932
4934
4936
4938
4940
4942
4944
4946
4948
4950
4952
4954
4956
4958
4960
4962
4964
4966
4968
4970
4972
4974
4976
4978
4980
4982
4984
4986
4988
4990
4992
4994
4996
4998
5000
5002
5004
5006
5008
5010
5012
5014
5016
5018
5020
5022
5024
5026
5028
5030
5032
5034
5036
5038
5040
5042
5044
5046
5048
5050
5052
5054
5056
5058
5060
5062
5064
5066
5068
5070
5072
5074
5076
5078
5080
5082
5084
5086
5088
5090
5092
5094
5096
5098
5100
5102
5104
5106
5108
5110
5112
5114
5116
5118
5120
5122
5124
5126
5128
5130
5132
5134
5136
5138
5140
5142
5144
5146
5148
5150
5152
5154
5156
5158
5160
5162
5164
5166
5168
5170
5172
5174
5176
5178
5180
5182
5184
5186
5188
5190
5192
5194
5196
5198
5200
5202
5204
5206
5208
5210
5212
5214
5216
5218
5220
5222
5224
5226
5228
5230
5232
5234
5236
5238
5240
5242
5244
5246
5248
5250
5252
5254
5256
5258
5260
5262
5264
5266
5268
5270
5272
5274
5276
5278
5280
5282
5284
5286
5288
5290
5292
5294
5296
5298
5300
5302
5304
5306
5308
5310
5312
5314
5316
5318
5320
5322
5324
5326
5328
5330
5332
5334
5336
5338
5340
5342
5344
5346
5348
5350
5352
5354
5356
5358
5360
5362
5364
5366
5368
5370
5372
5374
5376
5378
5380
5382
5384
5386
5388
5390
5392
5394
5396
5398
5400
5402
5404
5406
5408
5410
5412
5414
5416
5418
5420
5422
5424
5426
5428
5430
5432
5434
5436
5438
5440
5442
5444
5446
5448
5450
5452
5454
5456
5458
5460
5462
5464
5466
5468
5470
5472
5474
5476
5478
5480
5482
5484
5486
5488
5490
5492
5494
5496
5498
5500
5502
5504
5506
5508
5510
5512
5514
5516
5518
5520
5522
5524
5526
5528
5530
5532
5534
5536
5538
5540
5542
5544
5546
5548
5550
5552
5554
5556
5558
5560
5562
5564
5566
5568
5570
5572
5574
5576
5578
5580
5582
5584
5586
5588
5590
5592
5594
5596
5598
5600
5602
5604
5606
5608
5610
5612
      </DataArray>
      <DataArray type="UInt8" Name="types" format="ascii">
69
69
69
69
69
69
69
69
69
69
69
69
69
69
69
69
69
69
69
69
69
69
69
69
69
69
69
69
69
69
69
69
69
69
69
69
69
69
69
69
69
69
69
69
69
69
69
69
69
69
69
69
69
69
69
69
69
69
69
69
69
69
69
69
69
69
69
69
69
69
69
69
69
69
69
69
69
69
69
69
69
69
69
69
69
69
69
69
69
69
69
69
69
69
69
69
69
69
69
69
69
69
69
69
69
69
69
69
69
69
69
69
69
69
69
69
69
69
69
69
69
69
69
69
69
69
69
69
69
69
69
69
69
69
69
69
69
69
69
69
69
69
69
69
69
69
69
69
69
69
69
69
69
69
69
69
69
69
69
69
69
69
69
69
69
69
69
69
69
69
69
69
69
69
69
69
69
69
69
69
69
69
69
69
69
69
69
69
69
69
69
69
69
69
69
69
69
69
69
69
69
69
69
69
69
69
69
69
69
69
69
69
69
69
69
69
69
69
69
69
69
69
69
69
69
69
69
69
69
69
69
69
69
69
69
69
69
69
69
69
69
69
69
69
69
69
69
69
69
69
69
69
69
69
69
69
69
69
69
69
69
69
69
69
69
69
69
69
69
69
69
69
69
69
69
69
69
69
69
69
69
69
69
69
69
69
69
69
69
69
69
69
69
69
69
69
69
69
69
69
69
69
69
69
69
69
69
69
69
69
69
69
69
69
69
69
69
69
69
69
69
69
69
69
69
69
69
69
69
69
69
69
69
69
69
69
69
69
69
69
69
69
69
69
69
69
69
69
69
69
69
69
69
69
69
69
69
69
69
69
69
69
69
69
69
69
69
69
69
69
69
69
69
69
69
69
69
69
69
69
69
69
69
69
69
69
69
69
69
69
69
69
69
69
69
69
69
69
69
69
69
69
69
69
69
69
69
69
69
69
69
69
69
69
69
69
69
69
69
69
69
69
69
69
69
69
69
69
69
69
69
69
69
69
69
69
69
69
69
69
69
69
69
69
69
69
69
69
69
69
69
69
69
69
69
69
69
69
69
69
69
69
69
69
69
69
69
69
69
69
69
69
69
69
69
69
69
69
69
69
69
69
69
69
69
69
69
69
69
69
69
69
69
69
69
69
69
69
69
69
69
69
69
69
69
69
69
69
69
69
69
69
69
69
69
69
69
69
69
69
69
69
69
69
69
69
69
69
69
69
69
69
69
69
69
69
69
69
69
69
69
69
69
69
69
69
69
69
69
69
69
69
69
69
3
3
3
3
3
3
3
3
3
3
3
3
3
3
3
3
3
3
3
3
3
3
3
3
3
3
3
3
3
3
3
3
3
3
3
3
3
3
3
3
3
3
3
3
3
3
3
3
3
3
3
3
3
3
3
3
3
3
3
3
3
3
3
3
3
3
3
3
3
3
3
3
3
3
3
3
3
3
3
3
3
3
3
3
3
3
3
3
3
3
3
3
3
3
3
3
3
3
3
3
3
3
3
3
3
3
3
3
3
3
3
3
3
3
3
3
3
3
3
3
3
3
3
3
3
3
3
3
3
3
3
3
3
3
3
3
3
3
3
3
3
3
3
3
3
3
3
3
3
3
3
3
3
3
3
3
3
3
3
3
3
3
3
3
3
3
3
3
3
3
3
3
3
3
3
3
3
3
3
3
3
3
3
3
3
3
3
3
3
3
3
3
3
3
3
3
3
3
3
3
3
3
3
3
3
3
3
3
3
3
3
3
3
3
3
3
3
3
3
3
3
3
3
3
3
3
3
3
3
3
3
3
3
3
3
3
3
3
3
3
3
3
3
3
3
3
3
3
3
3
3
3
3
3
3
3
3
3
3
3
3
3
3
3
3
3
3
3
3
3
3
3
3
3
3
3
3
3
3
3
3
3
3
3
3
3
3
3
3
3
3
3
3
3
3
3
3
3
3
3
3
3
3
3
3
3
3
3
3
3
3
3
3
3
3
3
3
3
3
3
3
3
3
3
3
3
3
3
3
3
3
3
3
3
3
3
3
3
3
3
3
3
3
3
3
3
3
3
3
3
3
3
3
3
3
3
3
3
3
3
3
3
3
3
3
3
3
3
3
3
3
3
3
3
3
3
3
3
3
3
3
3
3
3
3
3
3
3
3
3
3
3
3
3
3
3
3
3
3
3
3
3
3
3
3
3
3
3
3
3
3
3
3
3
3
3
3
3
3
3
3
3
3
3
3
3
3
3
3
3
3
3
3
3
3
3
3
3
3
3
3
3
3
3
3
3
3
3
3
3
3
3
3
3
3
3
3
3
3
3
3
3
3
3
3
3
3
3
3
3
3
3
3
3
3
3
3
3
3
3
3
3
3
3
3
3
3
3
3
3
3
3
3
3
3
3
3
3
3
3
3
3
3
3
3
3
3
3
3
3
3
3
3
3
3
3
3
3
3
3
3
3
3
3
3
3
3
3
3
3
3
3
3
3
3
3
3
3
3
3
3
3
3
3
3
3
3
3
3
3
3
3
3
3
3
3
3
3
3
3
3
3
3
3
3
3
3
3
3
3
3
3
3
3
3
3
3
3
3
3
3
3
3
3
3
3
3
3
3
3
3
3
3
3
3
3
3
3
3
3
3
3
3
3
3
3
3
3
3
3
3
3
3
3
3
3
3
3
3
3
3
3
3
3
3
3
3
3
3
3
3
3
3
3
3
3
3
3
3
3
3
3
3
3
3
3
3
3
3
3
3
3
3
3
3
3
3
3
3
3
3
3
3
3
3
3
3
3
3
3
3
3
3
3
3
3
3
3
3
3
3
3
3
3
3
3
3
3
3
3
3
3
3
3
3
3
3
3
3
3
3
3
3
3
3
3
3
3
3
3
3
3
3
3
3
3
3
3
3
3
3
3
3
3
3
3
3
3
3
3
3
3
3
3
3
3
3
3
3
3
3
3
3
3
3
3
3
3
3
3
3
3
3
3
3
3
3
3
3
3
3
3
3
3
3
3
3
3
3
3
3
3
3
3
3
3
3
3
3
3
3
3
3
3
3
3
3
3
3
3
3
3
3
3
3
3
3
3
3
3
3
3
3
3
3
3
3
3
3
3
3
3
3
3
3
3
3
3
3
3
3
3
3
3
3
3
3
3
3
3
3
3
3
3
3
3
3
3
3
3
3
3
3
3
3
3
3
3
3
3
3
3
3
3
3
3
3
3
3
3
3
3
3
3
3
3
3
3
3
3
3
3
3
3
3
3
3
3
3
3
3
3
3
3
3
3
3
3
3
3
3
3
3
3
3
3
3
3
3
3
3
3
3
3
3
3
3
3
3
3
3
3
3
3
3
3
3
3
3
3
3
3
3
3
3
3
3
3
3
3
3
3
3
3
3
3
3
3
3
3
3
3
3
3
3
3
3
3
3
3
3
3
3
3
3
3
3
3
3
3
3
3
3
3
3
3
3
3
3
3
3
3
3
3
3
3
3
3
3
3
3
3
3
3
3
3
3
3
3
3
3
3
3
3
3
3
3
3
3
3
3
3
3
3
3
3
3
3
3
3
3
3
3
3
3
3
3
3
3
3
3
3
3
3
3
3
3
3
3
3
3
3
3
3
3
3
3
3
3
3
3
3
3
3
3
3
3
3
3
3
3
3
3
3
3
3
3
3
3
3
3
3
3
3
3
3
3
3
3
3
3
3
3
3
3
3
3
3
3
3
3
3
3
3
3
3
3
3
3
3
3
3
3
3
3
3
3
3
3
3
3
3
3
3
3
3
3
3
3
3
3
3
3
3
3
3
3
3
3
3
3
3
3
3
3
3
3
3
3
3
3
3
3
3
3
3
3
3
3
3
3
3
3
3
      </DataArray>
    </Cells>
    <PointData>
      <DataArray type="Float64" NumberOfComponents="2" Name="Displacement" format="ascii">
-0.000612884 -0.211519
0.000931018 -0.212042
-0.00013134 -0.211242
0.000207874 -0.210957
0.000388155 -0.210761
0.000513308 -0.210597
0.000589087 -0.210475
0.000636846 -0.21039
0.00065411 -0.210318
0.000652452 -0.210267
0.000631964 -0.210236
0.000598152 -0.210222
0.000550682 -0.210209
0.000494164 -0.210207
0.00042941 -0.210215
0.000359915 -0.210231
0.000286196 -0.210246
0.000211583 -0.210267
0.000137809 -0.210295
6.72495e-05 -0.210331
2.50848e-06 -0.210367
-5.49917e-05 -0.210414
-0.000102373 -0.210471
-0.000137631 -0.210543
-0.000155066 -0.210621
-0.000155377 -0.210721
-0.000132228 -0.210847
-8.34317e-05 -0.211004
2.26326e-05 -0.211175
0.000174957 -0.211406
0.000461772 -0.211724
-0.00357747 -0.211142
-0.00288872 -0.211165
-0.00220438 -0.211211
-0.00149533 -0.211322
-0.0598267 -0.267234
-0.00424673 -0.211148
-0.00491824 -0.211169
-0.00589845 -0.211217
-0.00688879 -0.211289
-0.00832776 -0.211433
-0.00978649 -0.211623
-0.0119292 -0.211979
-0.0141017 -0.212432
-0.0172807 -0.213262
-0.020484 -0.214294
-0.0227957 -0.215162
-0.0250976 -0.216136
-0.0273771 -0.21722
-0.0296248 -0.218403
-0.0327991 -0.220286
-0.0358691 -0.222358
-0.0388027 -0.22461
-0.0313467 -0.295794
-0.059313 -0.272539
-0.0582007 -0.277266
-0.0566375 -0.281364
-0.0547167 -0.284844
-0.052572 -0.287753
0.0391196 -0.184964
-0.0261659 -0.295064
-0.0200104 -0.293148
-0.0128122 -0.289854
0 0
-0.0147848 -0.0134118
-0.0209001 -0.0222625
-0.0217469 -0.0294121
-0.0181199 -0.0381458
-0.0131334 -0.0466132
-0.000180116 -0.201093
0 0
0 0
0 0
0 0
0.0116665 -0.19481
0.0234787 -0.17187
0.0307254 -0.123852
-0.0387234 -0.185415
0.0148423 -0.0133912
0.0209902 -0.0223397
0.0218517 -0.0295329
0.0182359 -0.0383048
0.0132493 -0.0467772
0.0314326 -0.296027
0.0262507 -0.295292
0.0201314 -0.293369
0.0129111 -0.290117
0.0597895 -0.267603
0.0355446 -0.296143
0.0390955 -0.295701
0.0422602 -0.294938
0.0450972 -0.293772
0.0477506 -0.292312
0.00379174 -0.21168
0.0596047 -0.262024
0.0586327 -0.256078
0.0567842 -0.24989
0.0540242 -0.243632
0.0515597 -0.239364
0.0486607 -0.235207
0.0453308 -0.231237
0.041617 -0.227502
0.0388356 -0.225098
0.0359106 -0.222854
0.0328497 -0.220788
0.0296846 -0.218911
0.0251771 -0.216661
0.0205801 -0.214807
0.0173894 -0.213787
0.014231 -0.212968
0.0120679 -0.212516
0.00312346 -0.211711
0.00245839 -0.211763
0.0017552 -0.211874
-0.00406823 -0.204927
0.0178871 -0.204028
0.0140766 -0.196705
0.0237437 -0.159386
-0.0239906 -0.168858
-0.00372288 -0.220994
-0.0072871 -0.201724
-0.0169368 -0.250002
-0.00284186 -0.214519
-0.0492992 -0.258142
-0.0156838 -0.0285457
0.0154115 -0.0290886
-0.0259098 -0.239155
-0.00933909 -0.217974
-0.00282681 -0.226447
-0.00393734 -0.226074
0.00156416 -0.225425
-0.00521722 -0.225757
0.00424376 -0.226862
0.00232506 -0.219668
-0.00097006 -0.222837
0.000707719 -0.223713
-0.00319749 -0.21971
-0.00757695 -0.226882
-0.010752 -0.229196
-0.00725982 -0.229979
0.00357766 -0.208884
-0.00281163 -0.209106
-0.00472419 -0.209072
0.00438406 -0.228938
0.00682497 -0.228359
-0.00802364 -0.214977
0.00766655 -0.214628
-0.000751345 -0.225575
0.00248818 -0.221781
0.0063714 -0.216902
-0.00734182 -0.216559
0.000671496 -0.225278
0.00307301 -0.209354
-0.000800901 -0.20928
-0.00318726 -0.209614
-0.00450515 -0.223668
0.00644018 -0.226385
0.00680971 -0.210025
0.00663544 -0.213303
0.00103761 -0.219608
-0.00222265 -0.221014
0.00258441 -0.222371
-0.000662331 -0.221004
-0.00698858 -0.213805
-0.00689323 -0.210321
-0.0100116 -0.226722
-0.0116692 -0.233145
0.0085561 -0.207129
0.00340048 -0.207812
-0.00161262 -0.208782
-0.00762925 -0.208736
-0.0150901 -0.237396
-0.0133414 -0.238438
0.0111921 -0.23563
0.0104847 -0.231996
0.0130333 -0.23086
0.0126827 -0.228805
-0.010479 -0.206965
-0.0105875 -0.211526
0.0100608 -0.211314
0.0147455 -0.204901
-0.0068778 -0.233072
0.00118412 -0.224448
0.0087995 -0.215109
-0.00102101 -0.224257
0.0101144 -0.236537
0.00367312 -0.209644
0.00232595 -0.209319
0.000188318 -0.209442
0.00110331 -0.209338
-0.000672393 -0.209717
-0.00174461 -0.209847
-0.00110818 -0.209841
-0.00303511 -0.209972
-0.00446627 -0.221867
-0.00804932 -0.223692
0.0103609 -0.225577
0.00562789 -0.223476
0.00407288 -0.209943
0.00480209 -0.21024
0.00610451 -0.21115
0.00577263 -0.212449
0.00341033 -0.215662
0.000960893 -0.218265
-0.00117208 -0.218847
-0.00359933 -0.216254
-0.00603402 -0.212962
-0.00613195 -0.211667
-0.00448554 -0.210533
-0.00357737 -0.210225
-0.0112735 -0.225649
-0.0177519 -0.235486
0.0124495 -0.202308
-0.000881076 -0.207542
-0.00692029 -0.206564
-0.021413 -0.245712
0.0183414 -0.24421
0.0164849 -0.234296
0.0134646 -0.226538
-0.0163839 -0.204118
0.0194267 -0.200901
-0.0113643 -0.239928
0.0117942 -0.211914
-0.0213264 -0.198225
-0.00934691 -0.214875
0.00313264 -0.229625
0.00266518 -0.209934
0.0018905 -0.209688
0.000689011 -0.209754
-0.000315679 -0.209952
-0.00108245 -0.210079
-0.0019611 -0.21029
-0.0056317 -0.22096
0.00631763 -0.221638
0.00345608 -0.210613
0.0036586 -0.212466
0.000609978 -0.216573
-0.000799949 -0.217053
-0.0035361 -0.212951
-0.002957 -0.21096
-0.0108735 -0.220597
-0.0132708 -0.223523
-0.0151824 -0.22687
-0.0206873 -0.231844
-0.0328037 -0.247946
-0.0309223 -0.252752
0.0223016 -0.18036
0.00442339 -0.203013
-0.0181961 -0.190964
-0.0281936 -0.255654
0.0268116 -0.255167
0.0265064 -0.248579
0.0247065 -0.241135
0.0213409 -0.234443
0.0158688 -0.226084
0.0149089 -0.222297
-0.0223843 -0.191542
0.0253598 -0.18668
-0.0239393 -0.255542
-0.00594416 -0.236462
0.0234473 -0.194178
0.0160644 -0.249428
0.0266272 -0.261094
-0.0157326 -0.207078
0.00395642 -0.231566
0.00191777 -0.210285
0.00224612 -0.210567
0.00153325 -0.209974
0.00184683 -0.210053
0.000851096 -0.209952
0.00123048 -0.209927
4.31416e-05 -0.210078
0.000407554 -0.210021
-0.000493239 -0.210231
-0.000200586 -0.210172
-0.00114638 -0.210374
-0.000838045 -0.210268
-0.00163155 -0.210874
-0.00131313 -0.210578
-0.00179501 -0.217259
-0.00410157 -0.218664
-0.00775665 -0.220037
0.0100927 -0.219766
0.00764487 -0.220008
0.00303717 -0.21854
0.00116748 -0.21767
0.00271836 -0.2111
0.0026735 -0.211851
0.00191401 -0.21353
0.000894697 -0.214766
-0.00134089 -0.215241
-0.0019299 -0.214014
-0.00243377 -0.212269
-0.00216825 -0.211439
-0.0109647 -0.216254
-0.0149461 -0.221234
-0.0235083 -0.22782
-0.0335534 -0.240676
-0.0404606 -0.2574
0.0139822 -0.116905
0.0119248 -0.191971
0.000773632 -0.202998
-0.00877405 -0.197932
-0.0164284 -0.126167
-0.0359682 -0.268148
0.0369561 -0.269396
0.0340659 -0.247828
0.0206471 -0.228965
0.013928 -0.218337
0.00185013 -0.051515
-0.0208199 -0.146636
-0.00308339 -0.0492898
0.0179776 -0.138666
-0.0210614 -0.262654
0.017998 -0.202528
0.0310883 -0.175209
0.0267564 -0.269046
-0.0300823 -0.180639
-0.0087296 -0.215152
0.00129881 -0.210538
0.00109329 -0.210206
0.000767411 -0.21013
0.000309479 -0.210189
-0.000138374 -0.210295
-0.000504919 -0.210465
-0.000747965 -0.210831
-0.00370453 -0.216364
-0.00772092 -0.216154
0.0066136 -0.216671
0.00225323 -0.216326
0.00129622 -0.211553
-6.85374e-05 -0.213785
-0.00148681 -0.213994
0.00123699 -0.214792
-0.000303968 -0.214244
-0.000894495 -0.211851
-0.00695384 -0.213927
0.00698809 -0.214965
-0.0117019 -0.213453
-0.013302 -0.215475
-0.0164395 -0.21649
-0.0187525 -0.21974
-0.0239414 -0.221635
-0.0286364 -0.22662
-0.0342961 -0.231383
-0.0407882 -0.239212
-0.0471458 -0.247203
0.0105582 -0.123851
0.00401929 -0.18642
-0.00377826 -0.190909
-0.0100963 -0.133374
-0.0491872 -0.267552
-0.0471979 -0.275193
-0.0440793 -0.281273
-0.0411419 -0.287423
-0.0323679 -0.283531
0.0342824 -0.285349
0.0413682 -0.287128
0.0449379 -0.282053
0.0474901 -0.274755
0.0492162 -0.265269
0.0455948 -0.253649
0.0411508 -0.242342
0.036404 -0.232618
0.0283943 -0.2273
0.0241859 -0.22002
0.0196868 -0.217908
0.0164965 -0.216879
0.0116335 -0.214668
0.0147545 -0.0517267
-0.000386746 -0.0936379
-0.0164688 -0.137544
-0.0149569 -0.0506796
0.0135817 -0.12937
-0.000182074 -0.0909495
-0.0223182 -0.278427
-0.00998263 -0.273686
0.0177292 -0.208882
0.0255239 -0.280384
-0.00635217 -0.225976
0.0147325 -0.271243
0.000628431 -0.210905
0.000573383 -0.211191
0.00072868 -0.210617
0.000794418 -0.21039
0.000772642 -0.21049
0.000796155 -0.210267
0.000712266 -0.210211
0.000760637 -0.210235
0.000583755 -0.2102
0.000420493 -0.210218
0.000505106 -0.210208
0.000243505 -0.210255
6.4331e-05 -0.210305
0.000153615 -0.21028
-9.13684e-05 -0.210371
-0.00023117 -0.210466
-0.00016521 -0.210416
-0.000315436 -0.210597
-0.000349831 -0.2108
-0.000341127 -0.210691
-0.000282163 -0.211091
-0.000137361 -0.211554
-0.000222388 -0.211298
-0.00811197 -0.21282
-0.0095697 -0.213018
0.00952099 -0.214213
0.00807494 -0.213997
-0.00536954 -0.215598
-0.0030859 -0.213131
0.00452117 -0.215552
0.00317339 -0.215348
0.00344921 -0.213862
0.000184433 -0.212131
-0.000125178 -0.212686
0.000368906 -0.213364
-6.18904e-06 -0.212596
-0.00571805 -0.212488
0.00595673 -0.212939
-0.0040626 -0.212393
-0.00474173 -0.212416
0.00499067 -0.212867
0.0043204 -0.212843
-0.00252982 -0.21205
-0.00113329 -0.212108
-0.00185749 -0.212069
0.00285633 -0.21288
0.00220082 -0.212873
0.00153551 -0.212877
0.00208493 -0.213758
-0.00160475 -0.212728
0.00487637 -0.213926
-0.00458471 -0.21354
-0.000915541 -0.213017
0.00100096 -0.212604
0.00427115 -0.216991
-0.00622201 -0.217607
0.00915047 -0.216083
-0.00937089 -0.214333
-0.000838726 -0.211201
-0.00063543 -0.210611
-0.000333278 -0.210368
7.88597e-05 -0.21024
0.000547761 -0.21015
0.000956969 -0.210144
0.00117641 -0.210347
0.00147294 -0.210911
0.0168518 -0.257899
-0.00724812 -0.246327
-0.00133245 -0.0851022
-0.000671069 -0.0899976
0.0188895 -0.22073
0.029394 -0.236618
0.0380831 -0.260316
0.0357708 -0.276674
-0.0314466 -0.270975
-0.0387743 -0.26364
-0.0181545 -0.172704
0.0193167 -0.161488
-0.0408667 -0.25001
-0.0275951 -0.233237
-0.0173661 -0.224316
-0.0126042 -0.218193
0.000468757 -0.215631
-0.00139024 -0.215154
-0.0268781 -0.179271
0.0278596 -0.173126
0.00285754 -0.202148
-0.00370866 -0.211608
-0.00300269 -0.214738
0.00287671 -0.214218
0.00406514 -0.211168
0.00194648 -0.21972
0.0112173 -0.223253
-0.00936255 -0.222517
-0.00223513 -0.219284
-0.00227838 -0.210563
-0.00159685 -0.210116
-0.000620253 -0.210061
7.22462e-05 -0.209842
0.0013553 -0.209674
0.00237181 -0.209758
0.00288334 -0.210242
-0.00557157 -0.219389
0.0148548 -0.243932
-0.00335287 -0.230737
-0.0174352 -0.244869
0.0200185 -0.195626
-0.0136235 -0.201922
0.0157973 -0.229898
0.0179704 -0.239714
-0.00408782 -0.208501
0.00466793 -0.205571
-0.0239923 -0.243502
-0.0132866 -0.228837
-0.01201 -0.211389
0.0114984 -0.211422
-0.00484148 -0.209764
-0.00873636 -0.21105
-0.00412548 -0.217473
0.00390197 -0.216852
0.00827376 -0.210638
0.00524515 -0.209525
0.00967839 -0.227552
-0.00685846 -0.224598
-0.00169608 -0.209579
0.000437236 -0.208961
0.0035848 -0.228857
0.00472593 -0.219998
0.00523136 -0.228834
-0.00625294 -0.230486
0.00337724 -0.224904
-0.00226239 -0.222589
-0.00190869 -0.222054
0.00028023 -0.222755
-0.00839551 -0.22912
-0.0183595 -0.210601
0.00458513 -0.284535
-0.00909107 -0.24743
0.00303601 -0.25941
-2.81569e-05 -0.2808
0.00627718 -0.243395
-0.00448881 -0.284328
0.0266236 -0.199297
0.0131059 -0.232735
0.000178237 -0.28055
0.00122499 -0.253587
0.00619835 -0.226911
0.00637975 -0.109437
0.0153944 -0.127248
0.00835806 -0.105109
0.0250227 -0.151351
-0.00695806 -0.0570204
0.000350422 -0.0697185
0.0026661 -0.0899923
-0.00136063 -0.0890676
0.00497705 -0.106653
-0.00836578 -0.0690202
-0.00432039 -0.073478
-0.0120368 -0.0552006
0.00834942 -0.0851762
0.0145081 -0.0993562
-0.0169121 -0.0442493
-0.00905605 -0.0667006
-0.00809228 -0.115033
-0.00854232 -0.107017
-0.016759 -0.132762
-0.00281414 -0.0916911
0.00704989 -0.0571904
-0.000307704 -0.0699411
-0.0270344 -0.157916
-0.00732176 -0.113136
4.94415e-05 -0.0928499
0.00800659 -0.0708138
0.0120436 -0.055938
0.00420466 -0.0749076
0.0169145 -0.0448243
-0.00832492 -0.0854691
-0.0144545 -0.0997335
0.00809605 -0.0695176
-0.00627192 -0.170358
0.00501506 -0.183151
0.00570571 -0.156288
0.00247994 -0.200059
0 0
0 0
-0.00528205 -0.0800795
-0.0151846 -0.15546
-0.0112796 -0.182103
0.00678984 -0.163616
-0.00551801 -0.152395
-0.0055794 -0.18011
0.00562222 -0.0727616
0 0
-0.0303354 -0.123406
-0.00313179 -0.198908
0.0125373 -0.174219
0.015658 -0.144309
-0.0215882 -0.197757
-0.0219902 -0.1986
-0.00772095 -0.217481
-0.0335661 -0.181426
0.00496306 -0.234973
-0.0233456 -0.195021
-0.0278836 -0.183246
0.0282477 -0.187769
0.0180727 -0.203977
0.029892 -0.188567
0.0051443 -0.221626
0.0340014 -0.177391
0.0295296 -0.175642
0.0266054 -0.188753
0.0256986 -0.160508
0.0261989 -0.159553
0.0157746 -0.135127
0.00823553 -0.112341
0.0242091 -0.157437
-0.0263186 -0.164491
-0.0187538 -0.142905
-0.028041 -0.165399
-0.0112302 -0.119648
-0.0255493 -0.164881
-0.00809514 -0.0909175
-0.0157839 -0.124731
-0.00882268 -0.0846403
-0.0198152 -0.150896
0.00290782 -0.0287365
0.00127834 -0.0716809
-0.00950422 -0.107258
-0.00318984 -0.201955
-0.00258596 -0.200944
-0.0077679 -0.194873
-0.000221006 -0.20292
-0.0139928 -0.188492
-0.00332876 -0.202115
0.00180717 -0.202406
0.00570665 -0.199284
0.00927338 -0.189204
0.00346934 -0.198364
0.016299 -0.179713
0.00791804 -0.19892
0.00562116 -0.0840243
0.00735211 -0.077444
0.0145581 -0.115043
-0.00345112 -0.0278645
0.0189853 -0.139621
0.00679016 -0.100356
-0.00293226 -0.0681701
-0.0224124 -0.196603
-0.0159002 -0.206184
-0.00696225 -0.217766
-0.0107204 -0.213474
0.0272273 -0.184315
0.0172375 -0.203585
0.0062846 -0.218162
0.00702788 -0.217131
-0.0249469 -0.189707
-0.0191603 -0.202219
-0.0138959 -0.2096
-0.016934 -0.205448
-0.0191054 -0.20154
-0.0198223 -0.198634
-0.0226034 -0.194168
-0.0156503 -0.20259
-0.0184764 -0.197631
-0.025133 -0.185312
-0.0150614 -0.207068
0.0202653 -0.197855
0.0176776 -0.200739
0.0171943 -0.203191
0.0140379 -0.207441
0.0116401 -0.208109
0.0158581 -0.206251
-0.0122767 -0.204641
-0.0135462 -0.205833
-0.0126496 -0.208155
-0.0101681 -0.208641
-0.0102718 -0.204749
-0.00890334 -0.206705
-0.00718119 -0.207959
-0.00548947 -0.207663
0.00407 -0.206808
0.00174932 -0.206764
0.00139675 -0.207703
-0.00010293 -0.208322
-0.00267635 -0.208057
0.00175073 -0.20845
0.0117106 -0.206258
0.0141377 -0.203289
0.0106216 -0.205003
0.0164475 -0.19953
0.00854859 -0.204261
0.007015 -0.206287
0.00902004 -0.208453
0.00598245 -0.207482
0.00362814 -0.20837
0.00452749 -0.209104
0.00204936 -0.208907
0.00590314 -0.208191
0.00704327 -0.208464
0.00977603 -0.0148124
0.00959772 -0.0379811
0.00747655 -0.0197678
0.0101417 -0.0558109
0 0
0 0
0.0119818 -0.0119719
0.0203329 -0.0329634
0.0163285 -0.0412003
0.0184128 -0.0239799
-0.0206864 -0.116921
-0.0250086 -0.127101
-0.0184936 -0.0237608
-0.0166107 -0.0403822
-0.0203347 -0.0325977
-0.0111353 -0.0533935
0.0207728 -0.116415
0.0250218 -0.126425
-0.0120574 -0.0119188
-0.00775864 -0.0194282
-0.0102919 -0.0369226
-0.00984932 -0.0146664
-0.023718 -0.171607
-0.0119764 -0.194612
-0.0130882 -0.197749
-0.00843415 -0.199914
-0.0137526 -0.194207
-0.00208746 -0.202645
-0.018845 -0.182846
-0.0163623 -0.196972
-0.0108674 -0.201407
-0.022142 -0.181005
-0.0241759 -0.181468
-0.0208504 -0.190239
-0.0256768 -0.172963
-0.0217416 -0.168727
-0.0180089 -0.135599
-0.023568 -0.157914
-0.0214828 -0.150305
0.0196474 -0.140219
0.0217879 -0.149409
0.0152783 -0.127116
0.025657 -0.165119
0.0220738 -0.157714
0.024494 -0.181838
0.0259073 -0.174178
0.0239681 -0.170294
0.0270408 -0.180061
0.0212238 -0.171375
0.0217642 -0.188485
0.0231361 -0.191293
0.0135972 -0.199371
0.00943895 -0.200741
0.00883452 -0.202498
0.00857389 -0.199878
0.00374733 -0.202303
0.00466006 -0.204075
0.0176294 -0.195419
0.0177533 -0.185447
0.0135725 -0.194125
0.0187679 -0.190015
0.0228038 -0.19549
0.0206625 -0.199528
0.0251743 -0.189637
0.0127116 -0.210295
0.0227641 -0.194707
0.0190988 -0.202104
0.0146078 -0.208339
-0.00233764 -0.206389
-0.00566664 -0.205774
-0.00381523 -0.207223
-0.00900145 -0.203931
0.000510517 -0.205531
-0.0014724 -0.203337
-0.00576181 -0.203278
4.30507e-05 -0.204233
0.00293502 -0.265364
-0.00470256 -0.264693
-0.00336022 -0.274275
-0.0037992 -0.2487
-0.00937533 -0.260021
-0.00745641 -0.279064
0.00505514 -0.275849
0.0103973 -0.269983
0.00752903 -0.257457
0.00903408 -0.228689
0.00312998 -0.240238
0.00670781 -0.244261
-0.00108747 -0.237527
0.0142034 -0.249005
0.0148435 -0.220202
0.0115524 -0.218595
0.0313474 -0.164129
0.0294099 -0.138501
0.0261097 -0.147189
0.0184141 -0.140063
0.0221748 -0.134333
0.0331463 -0.155338
-0.0293635 -0.139271
-0.0327081 -0.168612
-0.0269216 -0.151361
-0.0229659 -0.138246
-0.0207945 -0.147414
-0.0326259 -0.15607
-0.0282925 -0.190336
-0.0286937 -0.192852
-0.0206022 -0.202339
-0.0362596 -0.182076
-0.0273535 -0.199486
-0.0119733 -0.218875
-0.0141767 -0.211075
-0.0282375 -0.188301
-0.0316312 -0.180713
-0.000319625 -0.230139
0.00569752 -0.238338
-0.000937029 -0.226822
0.0118564 -0.251175
0.0113099 -0.246446
-0.00193234 -0.224426
-0.00836534 -0.215752
-0.0070295 -0.22039
0.000415359 -0.235382
-0.022824 -0.195895
-0.0258851 -0.189497
-0.0260368 -0.190124
-0.0261624 -0.187102
-0.027485 -0.18083
-0.0288779 -0.181825
-0.0267143 -0.189583
-0.0151757 -0.20662
-0.018573 -0.202221
0.0111059 -0.213364
0.00556342 -0.223373
0.0119566 -0.214745
-0.0015157 -0.233992
0.0179902 -0.205675
0.0181365 -0.202814
0.0117626 -0.211333
0.0289655 -0.192029
0.0341006 -0.185216
0.0330349 -0.183112
0.0327139 -0.192504
0.0368967 -0.17948
0.032429 -0.17607
0.0320999 -0.181206
0.0246308 -0.197194
0.0219792 -0.204447
0.0299613 -0.18137
0.0288635 -0.182462
0.0273708 -0.188144
0.0286192 -0.174119
0.0284085 -0.180747
0.0233101 -0.194882
0.0233751 -0.195227
0.030804 -0.181678
0.0302419 -0.175315
0.0304066 -0.168223
0.0310552 -0.167026
0.0257307 -0.157011
0.0195639 -0.144342
0.0296049 -0.168271
0.028672 -0.167734
0.0283598 -0.168514
0.027415 -0.167391
0.0213961 -0.149212
-0.0278484 -0.163317
-0.0329251 -0.172254
-0.0314732 -0.172979
-0.0302714 -0.173792
-0.0223031 -0.151962
-0.02892 -0.172396
-0.0284043 -0.174483
-0.0233223 -0.155335
-0.0273136 -0.17242
-0.0126875 -0.210164
-0.00786962 -0.216449
-0.0114186 -0.212146
-0.011804 -0.211948
-0.00630771 -0.218664
-0.0159055 -0.206559
0.00579677 -0.219333
2.98523e-05 -0.227141
-0.000792376 -0.22957
0.00120675 -0.224838
-0.00458015 -0.233129
-0.00674199 -0.24048
0.0118474 -0.210688
0.0120575 -0.210551
0.00672631 -0.217448
0.0120926 -0.210328
0.00182223 -0.223828
0.0176511 -0.202915
0.0210318 -0.198318
0.0148656 -0.207155
0.00400763 -0.221018
0.0101119 -0.21336
0.0157956 -0.206657
0.0185982 -0.202328
-0.000929529 -0.227223
0.00706418 -0.217339
0.00858869 -0.215672
0.00316435 -0.221989
-0.00168561 -0.224235
0.00344455 -0.230448
-0.00181182 -0.223981
0.00958363 -0.238249
0.00901986 -0.236674
-0.00144391 -0.224182
-0.00207826 -0.223829
0.00536786 -0.250133
0.00929322 -0.265715
0.0111215 -0.257953
0.00397363 -0.273433
0.010374 -0.277582
0.0162609 -0.263814
-0.000906957 -0.243433
-0.00699956 -0.263752
-0.000491777 -0.267788
-0.00254947 -0.253764
-0.00499949 -0.276012
-0.00678487 -0.235136
-0.0122124 -0.255364
-0.0102114 -0.270291
-0.0209249 -0.222882
-0.017038 -0.243972
-0.0129045 -0.230228
-0.0158375 -0.262874
-0.0221231 -0.253672
0.0204833 -0.27612
0.0177257 -0.284048
0.0232738 -0.286946
-0.0290879 -0.241343
-0.0338696 -0.221632
0.0288378 -0.289628
0.0216807 -0.269963
0.0256969 -0.220375
0.0187775 -0.218357
0.0191458 -0.235782
0.015868 -0.262662
0.0221253 -0.253499
-0.0167801 -0.275947
-0.0214782 -0.286246
-0.0153452 -0.285112
-0.0273271 -0.288977
0.0285584 -0.241349
0.03461 -0.221912
-0.015678 -0.264648
0.0324059 -0.229963
0.0360905 -0.227881
0.0320675 -0.225277
0.0389432 -0.230205
0.00993843 -0.21216
0.00849064 -0.211973
0.0289643 -0.223277
0.0288044 -0.232096
0.0327901 -0.234851
0.0387744 -0.237537
0.044756 -0.23906
0.0425349 -0.234053
0.0475773 -0.243237
0.00706731 -0.211832
0.00608884 -0.211759
0.0353022 -0.239596
0.0474494 -0.259606
0.0535849 -0.261137
0.0521462 -0.2552
0.0545572 -0.266765
0.00512007 -0.211709
0.0044552 -0.211687
0.0495265 -0.249089
0.0415258 -0.257398
0.0437037 -0.263143
0.0482387 -0.270174
0.0529011 -0.276657
0.0541418 -0.272002
0.051531 -0.280617
0.0502239 -0.2904
0.052564 -0.288048
0.0431267 -0.267865
0.0431066 -0.284592
0.0459416 -0.289312
0.0479223 -0.286867
0.0434532 -0.290999
0.054703 -0.285156
0.0566172 -0.281685
0.0499141 -0.284153
0.0404144 -0.279789
0.0388099 -0.282338
0.0378937 -0.286335
0.037005 -0.291469
0.0404242 -0.291697
0.0331631 -0.290943
0.0581742 -0.277606
0.0592798 -0.272885
0.035144 -0.280854
-0.0369038 -0.285728
-0.0402668 -0.291701
-0.0361273 -0.29075
-0.0433086 -0.290978
-0.050223 -0.290115
-0.0477395 -0.292041
-0.0321908 -0.290164
-0.0321581 -0.277121
-0.0368302 -0.280225
-0.0425914 -0.28434
-0.0475365 -0.286427
-0.0458051 -0.289281
-0.0495118 -0.283703
-0.0450719 -0.293514
-0.0422239 -0.294681
-0.0379819 -0.276989
-0.0480975 -0.27149
-0.0540534 -0.272899
-0.0527258 -0.276722
-0.0544472 -0.267737
-0.0390407 -0.295449
-0.0354882 -0.295899
-0.0513709 -0.280668
-0.0432535 -0.269712
-0.0439922 -0.26595
-0.0440143 -0.243249
-0.0446314 -0.237176
-0.0477683 -0.241234
-0.0410684 -0.233363
-0.041591 -0.227023
-0.0453144 -0.230762
-0.0505135 -0.245358
-0.0439287 -0.248757
-0.040719 -0.244785
-0.0314707 -0.228999
-0.0321772 -0.22467
-0.0350004 -0.227048
-0.029064 -0.222667
-0.0486573 -0.234745
-0.0515647 -0.238907
-0.037867 -0.229379
-0.0308883 -0.232451
-0.0280498 -0.23005
-0.0540415 -0.243191
-0.0267379 -0.220129
-0.0244869 -0.218973
-0.0221778 -0.218002
-0.0205733 -0.22316
-0.0568043 -0.249466
-0.0219631 -0.197548
-0.0142976 -0.208567
-0.0155523 -0.206084
0.0308963 -0.277885
0.0264265 -0.274309
0.0301164 -0.283025
0.0220167 -0.263901
0.0313706 -0.273225
0.024318 -0.194672
0.0239191 -0.196396
0.0290637 -0.187941
-0.0272644 -0.274328
-0.0276767 -0.281083
-0.0220787 -0.270322
-0.0146338 -0.255219
-0.0264088 -0.267153
0.0259898 -0.160174
0.0202867 -0.146433
-0.0270848 -0.164838
-0.0226486 -0.152951
0.0250187 -0.232765
0.0244373 -0.228325
0.0236117 -0.223977
0.0196893 -0.22496
0.0398895 -0.250949
0.0433845 -0.248098
0.0374173 -0.245414
0.0316825 -0.242273
0.0360214 -0.25414
0.0412868 -0.276175
0.0461191 -0.278491
0.0422513 -0.27254
0.0373445 -0.264921
0.036314 -0.27294
-0.0416879 -0.272207
-0.0455369 -0.278296
-0.0403723 -0.275146
-0.0335957 -0.269527
-0.0372515 -0.265953
-0.0338154 -0.236211
-0.0375644 -0.235315
-0.0371124 -0.240095
-0.0372642 -0.245373
-0.0305837 -0.236955
-0.0236729 -0.224831
-0.0262814 -0.224121
-0.0260402 -0.227296
-0.0255449 -0.230523
-0.0204225 -0.226062
-0.0201495 -0.200303
-0.0196117 -0.201388
0.0215007 -0.255763
0.0217859 -0.25948
0.0267211 -0.264706
0.0165506 -0.252999
0.0315282 -0.269228
0.0209569 -0.252489
0.0153586 -0.246318
0.0223191 -0.196282
0.0249539 -0.191583
0.0253282 -0.235644
0.0209466 -0.231764
0.018165 -0.229554
0.0185567 -0.232156
0.0255235 -0.244885
0.0301395 -0.248507
0.0294153 -0.244554
0.0324589 -0.254605
0.0269062 -0.239124
0.0212644 -0.240631
0.0222652 -0.244139
0.0266121 -0.258006
0.031852 -0.265717
0.0321356 -0.262467
0.0323792 -0.258234
0.0209366 -0.250051
-0.0259656 -0.255716
-0.0322458 -0.261965
-0.0301639 -0.262388
-0.0335614 -0.25999
-0.0279046 -0.263188
-0.0206928 -0.250035
-0.0229047 -0.250508
-0.0317632 -0.250452
-0.0367193 -0.252721
-0.035701 -0.255312
-0.0368156 -0.249128
-0.040591 -0.253793
-0.0395122 -0.260609
-0.0349735 -0.258263
-0.0274905 -0.248105
-0.0283885 -0.245883
-0.0241089 -0.232627
-0.0220315 -0.229965
-0.0189738 -0.228103
-0.0169365 -0.230418
0.0107959 -0.242736
0.0101502 -0.240299
0.00437339 -0.232804
0.0205885 -0.237715
0.0229909 -0.237784
0.0188644 -0.234483
0.0160986 -0.232136
0.0171643 -0.237028
0.022643 -0.249657
0.0265338 -0.251889
0.02238 -0.24666
0.0180655 -0.241997
0.0164978 -0.244216
-0.0261924 -0.249431
-0.0294492 -0.254301
-0.0248349 -0.250625
-0.0193552 -0.245432
-0.0226151 -0.244724
0.0124008 -0.240042
0.00666459 -0.233277
0.00330624 -0.229279
0.0067875 -0.232579
-0.00291593 -0.229086
-0.00901014 -0.236262
-0.0051152 -0.232147
-0.0121794 -0.239007
-0.0143839 -0.242628
-0.00746844 -0.23566
-0.000883238 -0.226299
0.0141924 -0.235797
0.013432 -0.233284
0.010021 -0.229827
0.00782475 -0.230523
0.0106122 -0.236136
0.0142402 -0.240516
0.0147439 -0.239838
0.0145478 -0.237839
0.00737252 -0.232364
-0.0141686 -0.237994
-0.0182327 -0.241477
-0.0173869 -0.24217
-0.0195238 -0.240586
-0.0153426 -0.241555
-0.00975153 -0.234372
-0.0106347 -0.2341
-0.0208585 -0.239445
-0.0163447 -0.236581
-0.0129973 -0.232386
-0.0154782 -0.232123
-0.010108 -0.235948
-0.00649 -0.231778
0.0107763 -0.233845
0.00815025 -0.232147
-0.029381 -0.24354
-0.0296975 -0.240045
-0.0330797 -0.244434
-0.0266598 -0.23634
-0.0248564 -0.241454
-0.0191212 -0.23384
-0.0232835 -0.235476
-0.0217949 -0.237441
-0.0448335 -0.257993
-0.049189 -0.262984
-0.0450181 -0.262672
-0.054831 -0.263022
-0.0451969 -0.254183
-0.0530838 -0.251649
-0.053888 -0.25715
-0.0482065 -0.25281
-0.0586596 -0.255674
-0.0596302 -0.261633
-0.0116943 -0.243765
-0.0191249 -0.25584
-0.0141057 -0.250282
-0.0246915 -0.261347
-0.0104056 -0.240548
-0.0178402 -0.24802
-0.0204286 -0.252996
-0.0141108 -0.244584
-0.00257846 -0.194445
-0.00621016 -0.190834
-0.0176464 -0.135962
-0.0207041 -0.145856
-0.0179462 -0.158567
-0.0188927 -0.169199
0.0124421 -0.183689
0.0132742 -0.175181
-0.00261119 -0.221929
-0.00685236 -0.217044
0.0181374 -0.189243
0.0178547 -0.192793
0.000817269 -0.201422
0.00315701 -0.200303
-0.0215031 -0.0289728
-0.0194621 -0.0286182
-0.00534966 -0.0244338
-0.00478754 -0.0120528
0.0119672 -0.185544
0.00890894 -0.184349
0.0209739 -0.12316
0.020081 -0.146966
-0.0206588 -0.189371
-0.0208111 -0.184789
-0.000331833 -0.00105333
-0.00205394 -0.0119083
-0.0278079 -0.151309
-0.0153596 -0.136399
0.0281737 -0.174249
0.0268932 -0.16516
-0.00943989 -0.119123
-0.00603633 -0.106593
-0.00696935 -0.0886787
-0.00831948 -0.0839674
-0.00384827 -0.201571
-0.00376365 -0.201821
-0.0177385 -0.136732
-0.0205923 -0.145411
0.00809831 -0.00777708
0.0145538 -0.0144832
0.00907063 -0.207748
0.00976454 -0.208767
0.0207908 -0.191537
0.019505 -0.195997
-0.0318115 -0.164145
-0.0224068 -0.148154
0.0100953 -0.203836
0.00802353 -0.203506
0.0167931 -0.129706
0.0144255 -0.128122
0.00955274 -0.207188
0.0079685 -0.206791
-0.0129215 -0.208781
-0.0107262 -0.211876
0.0183846 -0.202474
0.0182066 -0.203275
-0.000136545 -0.0926141
0.00584817 -0.0757413
0.0114318 -0.156331
0.0140797 -0.141745
-0.0036434 -0.189991
-0.00774348 -0.186625
-0.00644743 -0.184163
-0.00243882 -0.188109
0.0010144 -0.0544661
0.00231326 -0.0665307
-0.0055565 -0.21314
-0.00231224 -0.214228
-0.0214386 -0.149749
-0.0274913 -0.165459
0.00137148 -0.209624
0.000644839 -0.209342
-0.00152592 -0.149811
0.00017008 -0.164086
-0.0111834 -0.180522
-0.0209237 -0.178368
-0.0143994 -0.187405
-0.0102807 -0.182864
-0.0179389 -0.202556
-0.0152781 -0.205077
0.0230986 -0.156412
0.0240509 -0.159021
-0.0293007 -0.148131
-0.0277623 -0.161544
-0.0136936 -0.117709
-0.0111477 -0.0965329
-0.00797048 -0.0943622
-0.00735746 -0.0992345
-0.0108885 -0.112935
-0.0153113 -0.128494
-0.0101306 -0.0925694
-0.00911291 -0.0974143
-0.0224261 -0.189487
-0.0201801 -0.193027
-0.017492 -0.19406
-0.0144855 -0.197026
-0.0166412 -0.194979
-0.0173891 -0.196285
-0.0211724 -0.197629
-0.0196075 -0.199397
-0.00321888 -0.0823568
0.00157311 -0.0748609
-0.00203996 -0.202467
-0.00506536 -0.201637
-0.0185527 -0.171956
-0.0153365 -0.177161
0.0202792 -0.144624
0.0174201 -0.134395
-0.00467053 -0.202582
-0.00443902 -0.202206
-0.0142282 -0.204285
-0.0149194 -0.205153
-0.0224536 -0.19049
-0.0241064 -0.183987
0.0223348 -0.157156
0.0204518 -0.144364
-0.00351662 -0.197424
-0.00663892 -0.197659
0.0130636 -0.043901
0.0108745 -0.0396614
-0.0161702 -0.205769
-0.0192352 -0.201255
-0.0136249 -0.033591
-0.0103471 -0.0363411
-4.55136e-05 -0.203166
-0.000161689 -0.20272
-0.028476 -0.173957
-0.0264207 -0.163323
0.00966436 -0.198415
0.00646952 -0.200819
-0.0254084 -0.174856
-0.0252676 -0.16638
-0.0123747 -0.194793
-0.00987075 -0.198374
0.0157686 -0.0484184
0.0136632 -0.0544295
-0.00405507 -0.0800887
-0.000952719 -0.0903698
0.0174309 -0.138274
0.011059 -0.121525
0.01634 -0.204689
0.0237489 -0.194101
-0.00622973 -0.210304
-0.00402312 -0.21009
-0.0094831 -0.117559
-0.0141275 -0.131214
-0.00116382 -0.0888489
-0.000946597 -0.082375
0.0299802 -0.174951
0.0310572 -0.183112
-0.002382 -0.201364
-0.000671561 -0.202623
-0.00610701 -0.209229
-0.00374861 -0.209471
-0.0155988 -0.206345
-0.0144177 -0.208554
-0.00652844 -0.15652
-0.00278251 -0.144144
0.011043 -0.104508
0.0125894 -0.127116
0.00377548 -0.0932347
0.00500292 -0.102347
0.0149662 -0.0149006
0.0138023 -0.016832
0.0227759 -0.195559
0.0248981 -0.189761
0.00538317 -0.0971741
0.0103331 -0.113771
0.0024936 -0.081997
0.00804156 -0.0660095
0.0184638 -0.203213
0.0146481 -0.208342
0.00533396 -0.207423
0.00715902 -0.207657
0.0227076 -0.195714
0.0220117 -0.196883
-0.020126 -0.156865
-0.0211022 -0.152616
0.000267536 -0.210183
-0.000139671 -0.209951
-0.00975635 -0.113886
-0.0104265 -0.110844
-0.00964425 -0.0264401
-0.0111434 -0.0201551
-0.00317322 -0.0186767
5.1191e-05 -0.019471
0.0155904 -0.0143628
0.0188689 -0.0202529
-0.0150736 -0.206967
-0.0216438 -0.197687
-0.00107011 -0.202388
-0.00192516 -0.201597
-0.00133964 -0.201231
-0.000377545 -0.198641
-0.0104174 -0.208125
-0.00770577 -0.208897
-0.00480135 -0.0807199
-0.00166799 -0.062904
-0.0278992 -0.181418
-0.0262545 -0.186969
-0.000534524 -0.202717
0.000139598 -0.203086
0.0258716 -0.185372
0.0269188 -0.178337
0.0114995 -0.0571577
0.0148464 -0.0451793
0.0224453 -0.195105
0.0201219 -0.19895
0.00393652 -0.169517
-0.00344645 -0.170244
0.00303645 -0.201147
0.000873351 -0.202489
-0.00562859 -0.0506318
-0.00626365 -0.03804
-0.00708286 -0.0698892
-0.0113159 -0.0557208
-0.00851425 -0.209757
-0.00582205 -0.21059
-0.00975768 -0.109048
-0.00365518 -0.107606
0.0268954 -0.183344
0.026709 -0.175539
-0.00533028 -0.0699669
-0.00613985 -0.0805838
-0.00939899 -0.0922842
-0.00627922 -0.0898036
-0.00740901 -0.00908933
-0.00831049 -0.0084391
-0.0170205 -0.128795
-0.0179167 -0.132646
0.000802004 -0.202788
0.000153886 -0.203205
0.00120816 -0.0195181
0.00248006 -0.0107875
0.02405 -0.189734
0.0255691 -0.182971
-0.0204487 -0.156018
-0.0184968 -0.146792
-0.0178363 -0.0423557
-0.016766 -0.0424438
-0.013844 -0.190142
-0.00860303 -0.188162
-0.00927845 -0.190378
-0.0109422 -0.192468
-0.00504235 -0.192898
-0.00252422 -0.187744
0.0208216 -0.194389
0.0183002 -0.197397
0.0210635 -0.179762
0.0199637 -0.175262
-0.0119279 -0.112468
-0.0137468 -0.122303
-0.0207029 -0.199556
-0.021239 -0.197988
-0.00201595 -0.197719
-0.000616995 -0.20112
0.00201857 -0.199584
0.00498737 -0.1974
-0.00772816 -0.104638
-0.00285661 -0.0878628
-0.000989135 -0.00130038
-0.00696846 -0.0106672
-0.0149807 -0.122408
-0.0134497 -0.120799
0.00645726 -0.191506
0.00208423 -0.188366
0.0200683 -0.123062
0.00507344 -0.12527
0.0104468 -0.164009
0.0257535 -0.159194
-0.00749534 -0.0186053
-0.00412227 -0.0116908
-0.0251685 -0.179713
-0.026173 -0.176537
0.00769831 -0.106993
0.00807246 -0.112686
-0.0149519 -0.208261
-0.0189649 -0.202483
0.00936563 -0.199011
0.012622 -0.196632
-0.0100236 -0.198014
-0.0109433 -0.198566
-0.0193436 -0.195814
-0.02171 -0.19216
0.0252548 -0.189385
0.0245498 -0.190221
-0.000211201 -0.204432
0.00128802 -0.205279
-0.00994113 -0.207561
-0.00992285 -0.2064
0.027474 -0.177727
0.0264935 -0.179178
0.011327 -0.205962
0.0131833 -0.205908
-0.0178845 -0.034194
-0.0197703 -0.0349862
-0.00701521 -0.200953
-0.0100754 -0.199511
-0.0216316 -0.172451
-0.0204554 -0.166708
0.00483918 -0.209568
0.00276318 -0.210012
0.0227269 -0.152526
0.0229246 -0.153434
0.00476149 -0.150516
0.00800495 -0.163689
0.00609189 -0.0895892
0.00574363 -0.0786323
0.0021271 -0.00151319
0.00985006 -0.00854394
-0.00111435 -0.0199024
0.00263399 -0.0462583
-0.00862295 -0.030351
-0.0060613 -0.0456302
0.015553 -0.0193584
0.0105209 -0.0107404
-0.0069315 -0.194169
-0.00991233 -0.192985
0.0119447 -0.211735
0.00705709 -0.217466
-0.0159847 -0.188725
-0.0173986 -0.181919
-0.0136055 -0.0315286
-0.0105086 -0.0330147
0.007617 -0.199368
0.0109332 -0.196374
0.0109929 -0.0494674
0.0149116 -0.0412523
-0.00895522 -0.212454
-0.00888812 -0.210809
-0.0014576 -0.206984
-0.00457537 -0.206617
-0.00896046 -0.0426949
-0.00468466 -0.0568597
-0.0205132 -0.145099
-0.0216065 -0.154609
-0.0236754 -0.184812
-0.0235472 -0.189149
0.00696485 -0.0873554
0.0122217 -0.104306
0.0101034 -0.209388
0.0119856 -0.209171
0.0244307 -0.18588
0.0227533 -0.192396
0.00217943 -0.0989853
0.00102614 -0.0930046
0.00449689 -0.209702
0.00495888 -0.210864
-0.00151164 -0.169549
0.00532357 -0.167772
0.0125413 -0.0542829
0.0148674 -0.0514365
-0.00574379 -0.203007
-0.00640919 -0.203871
-0.01692 -0.204847
-0.01354 -0.208861
-0.0170127 -0.205384
-0.0141807 -0.20876
0.0195064 -0.16031
0.0191347 -0.17141
-0.00433879 -0.182963
-0.00619547 -0.173153
-0.00313895 -0.202118
-0.0017056 -0.202559
0.00723437 -0.153157
-0.00277924 -0.152986
0.00944072 -0.0943078
0.0124866 -0.118086
0.0178955 -0.164939
0.0182787 -0.174089
-0.00538949 -0.124541
-0.00661499 -0.0959923
0.00315558 -0.201851
0.00550846 -0.200723
0.00824677 -0.211104
0.00873531 -0.209256
0.0114212 -0.0979545
0.0108083 -0.101533
0.0158601 -0.206318
0.0177184 -0.204152
-0.0179559 -0.137074
-0.0162621 -0.134669
-0.011072 -0.111462
-0.0137407 -0.116438
-0.0191248 -0.201217
-0.0165072 -0.205481
0.0222075 -0.188736
0.0199702 -0.19392
-0.000703278 -0.202475
-0.00085946 -0.202309
0.0105236 -0.210825
0.0076465 -0.214341
0.00210392 -0.202292
0.00200293 -0.202351
-0.000456377 -0.202643
-0.00207295 -0.202412
0.0201808 -0.196483
0.0204204 -0.193487
-0.0191756 -0.0370266
-0.0169864 -0.0447806
0.00796607 -0.208867
0.00556831 -0.209857
-0.00735637 -0.0718262
-0.0045752 -0.0799717
0.0184224 -0.171507
0.0206322 -0.171258
-0.00846048 -0.196343
-0.00630377 -0.199528
0.0129403 -0.206309
0.0117666 -0.205734
-0.00381928 -0.0742437
-0.000879403 -0.0561717
-0.00689115 -0.147819
-0.000326058 -0.131028
-0.000794857 -0.201793
-0.00192727 -0.201891
-0.0142107 -0.202341
-0.0152713 -0.203064
0.0171746 -0.204989
0.0206969 -0.199471
-0.00837449 -0.167457
-0.00766551 -0.178074
0.004577 -0.203812
0.00578104 -0.204585
0.0188064 -0.20148
0.0146297 -0.207516
-0.00894347 -0.202859
-0.0123329 -0.201344
0.0166662 -0.0345438
0.0190801 -0.0324324
0.0275819 -0.176986
0.0266496 -0.18163
0.0022167 -0.202277
-0.00105594 -0.202606
0.0235318 -0.168318
0.0223763 -0.158679
0.00245292 -0.0863392
0.00494777 -0.0790735
-0.000776453 -0.0876131
-0.00618487 -0.0988122
-0.00311844 -0.211334
-0.000872488 -0.212939
0.00676878 -0.0100788
0.0109955 -0.0205018
0.0192443 -0.0311061
0.0169479 -0.0296472
-0.00892388 -0.211779
-0.00601346 -0.212787
-0.00903531 -0.201748
-0.0123106 -0.199463
0.0174956 -0.136392
0.00341202 -0.137035
-0.00130876 -0.202889
-0.000264052 -0.203325
-0.0120423 -0.201218
-0.0113787 -0.200254
-0.0138567 -0.0316474
-0.0137547 -0.0216502
-0.00180873 -0.202584
0.000692273 -0.20282
0.000386557 -0.203108
-0.00031269 -0.203761
-0.0254821 -0.183378
-0.0241892 -0.185624
-0.0178555 -0.203013
-0.0162167 -0.205704
-0.0130998 -0.121224
-0.015393 -0.131181
-0.00089832 -0.181543
0.00179848 -0.188357
0.000195336 -0.203064
0.00229395 -0.20208
0.00811797 -0.202597
0.011449 -0.201506
0.0113148 -0.0354762
0.00976353 -0.0490494
-0.00643172 -0.126405
-0.0107585 -0.139678
0.00631484 -0.0693717
0.00517715 -0.0774407
0.00938142 -0.210258
0.00670161 -0.210932
0.00681056 -0.182229
0.0154232 -0.17705
0.0112744 -0.191577
0.00898804 -0.191235
0.00145948 -0.0545834
0.00364213 -0.0609835
0.00300121 -0.214888
0.00201868 -0.212723
0.019105 -0.198262
0.0203 -0.198146
-0.0122319 -0.195784
-0.0149302 -0.193886
-0.0146596 -0.121491
-0.0173062 -0.130139
0.0288342 -0.167901
0.0251168 -0.159396
0.00183034 -0.0127772
-0.0020466 -0.041281
0.0080284 -0.21051
0.00851781 -0.212006
-0.0121988 -0.125124
-0.0162539 -0.136861
0.00847063 -0.0377302
0.00799539 -0.0250286
-0.000969258 -0.199806
0.000371074 -0.201886
-0.00919102 -0.115738
-0.0138426 -0.129916
-0.0212238 -0.154988
-0.0200045 -0.143354
-0.0253014 -0.16406
-0.0233206 -0.156209
0.0169653 -0.0416001
0.0157025 -0.0487289
0.0165634 -0.193558
0.013741 -0.195674
-0.00938527 -0.191645
-0.00474126 -0.189505
-0.0145178 -0.195497
-0.011338 -0.198127
-0.00826295 -0.0554985
-0.00208215 -0.083224
-0.0232181 -0.193911
-0.021357 -0.197132
0.00577272 -0.207804
0.00667553 -0.208416
-0.00413248 -0.168914
0.00151799 -0.175945
0.0110789 -0.109879
0.0160049 -0.12649
-0.0210721 -0.0243227
-0.0204898 -0.0302002
-0.0172431 -0.139415
-0.0102222 -0.120941
-0.00553565 -0.0951594
-0.00949713 -0.102661
0.00684263 -0.187887
0.00101903 -0.190091
0.0201403 -0.14589
0.0136815 -0.129269
-0.001537 -0.208513
-0.000507563 -0.207786
-0.00147177 -0.21175
-0.00280509 -0.213663
-0.0127863 -0.122401
-0.0161225 -0.13447
-0.011338 -0.192081
-0.00837471 -0.196505
0.0243406 -0.158422
0.0266586 -0.16833
-0.000470229 -0.207772
-0.00175245 -0.206958
-0.0233123 -0.18068
-0.0215948 -0.182777
-0.0311691 -0.183969
-0.027594 -0.188252
-0.01138 -0.0556146
-0.0132098 -0.0550073
0.00837701 -0.0122813
0.00514737 -0.0075234
0.00629093 -0.046827
0.0101318 -0.0343869
0.0110785 -0.210964
0.00731149 -0.214445
-0.00167527 -0.00528365
-0.00214024 -0.0120318
-0.0268872 -0.167864
-0.0237292 -0.156353
0.00994295 -0.0923345
0.00542335 -0.0728
0.0111608 -0.0605738
0.00965569 -0.0663217
0.020196 -0.199509
0.0260156 -0.189792
0.0209421 -0.198402
0.0236491 -0.194042
-0.013906 -0.109757
-0.0172263 -0.127603
0.00228 -0.0530039
-0.00309896 -0.0283937
0.0225046 -0.196161
0.0248145 -0.19079
-0.000221687 -0.199889
0.00113009 -0.196345
0.00652065 -0.149993
-0.00342034 -0.142891
0.0167351 -0.128088
0.013411 -0.113038
0.011884 -0.0259595
0.00920743 -0.030311
0.00412104 -0.189874
0.00370311 -0.195726
0.00655355 -0.0591889
0.00237021 -0.0637055
-0.0192041 -0.142809
-0.0137889 -0.127014
-0.0216808 -0.196532
-0.0226401 -0.192598
0.000547659 -0.210616
0.00124056 -0.211126
0.0232686 -0.190306
0.0214106 -0.196097
0.0152483 -0.2064
0.0218256 -0.197069
0.000605774 -0.176938
-0.00306311 -0.183716
0.00576617 -0.00733838
0.0108404 -0.016969
0.00568497 -0.055555
0.00700232 -0.0615987
-0.00252858 -0.00774576
-0.00564677 -0.0142248
-0.0178153 -0.204266
-0.0192391 -0.20208
0.0021935 -0.0921579
0.0077621 -0.105447
-0.0325976 -0.177033
-0.0301309 -0.191938
0.000746501 -0.0865292
0.00360756 -0.101545
0.000227921 -0.207356
-0.00275224 -0.207367
-0.00142596 -0.0864358
-0.00210604 -0.0871419
-0.0158685 -0.201887
-0.0128569 -0.204212
0.00170933 -0.182951
-0.00315497 -0.187269
-0.0132435 -0.03865
-0.0103489 -0.0375535
-0.0146492 -0.198114
-0.0113354 -0.200604
0.019212 -0.172772
0.0198575 -0.179212
0.0160497 -0.0428517
0.0146914 -0.0513849
-3.75617e-05 -0.202762
0.000492272 -0.202664
0.0112139 -0.0984696
0.0152348 -0.117007
-0.00520833 -0.0307265
-0.00255478 -0.0306351
0.0133687 -0.203874
0.0115839 -0.203666
-0.0164557 -0.0160947
-0.00911648 -0.00781926
0.00826317 -0.107159
0.00957457 -0.115411
-0.0140974 -0.208092
-0.0206861 -0.198987
-0.0169536 -0.135091
-0.014429 -0.117196
-0.00942258 -0.212541
-0.00790266 -0.212216
-0.0188656 -0.193763
-0.021006 -0.188469
-7.57668e-05 -0.203073
0.000190103 -0.202956
-0.00760287 -0.209704
-0.00770813 -0.211181
0.0125774 -0.103973
0.0159506 -0.121091
-0.0134112 -0.20274
-0.0134183 -0.204325
-0.0124078 -0.126747
-0.00764198 -0.114301
-0.0218491 -0.151946
-0.0222839 -0.158905
-0.00542621 -0.198846
-0.00798015 -0.194734
0.00471597 -0.185317
0.0103507 -0.187813
-0.000753059 -0.212826
-0.000757726 -0.211071
-0.000845473 -0.202613
-0.00146188 -0.20258
0.0233084 -0.194321
0.024733 -0.189351
0.00925797 -0.199733
0.0119042 -0.196883
-0.0217552 -0.164182
-0.0219995 -0.155919
0.0181135 -0.120122
0.00301321 -0.119641
0.0186953 -0.174584
0.0185074 -0.182043
0.0032412 -0.199574
0.00368237 -0.195693
-0.0176874 -0.195771
-0.0146725 -0.198833
-0.0107962 -0.206408
-0.0122381 -0.204458
0.0111987 -0.203015
0.0137974 -0.20248
-0.0176947 -0.202166
-0.0168394 -0.201567
0.00966563 -0.206375
0.0095648 -0.207638
-0.0255006 -0.186013
-0.0237572 -0.192956
-0.000485377 -0.208816
-0.00101284 -0.209391
-0.00585106 -0.191278
-0.0021581 -0.194639
-0.0124057 -0.123201
-0.00661878 -0.108657
0.0215377 -0.167265
0.0274568 -0.155231
-0.0233429 -0.194105
-0.0255304 -0.187881
-0.0185914 -0.201143
-0.0157515 -0.204876
-0.0011899 -0.220457
-0.00547675 -0.217433
-0.0188453 -0.189742
-0.0193125 -0.184644
-0.00647374 -0.0851717
-0.0050153 -0.0886319
0.0221837 -0.172017
0.0212605 -0.163849
0.0226068 -0.154123
0.0241546 -0.165419
-0.00589094 -0.203949
-0.00940828 -0.202741
-0.0261224 -0.160525
-0.020108 -0.146462
-0.0124115 -0.1828
-0.00904194 -0.190398
0.0112221 -0.201921
0.0102427 -0.201145
0.0211374 -0.198129
0.0205459 -0.199279
0.00197895 -0.068054
0.00701576 -0.058857
-0.0217962 -0.149026
-0.0218563 -0.163671
-0.00692307 -0.211405
-0.00698647 -0.209882
0.00981504 -0.191276
0.0131226 -0.186925
-0.0249881 -0.186252
-0.0241391 -0.185237
-0.0140953 -0.201648
-0.0137188 -0.200196
-0.0171286 -0.0377549
-0.0170299 -0.0438287
0.00337944 -0.167057
-0.0017053 -0.157699
-0.010879 -0.20018
-0.0141211 -0.197245
-0.0163701 -0.198121
-0.0132053 -0.20079
-0.00501635 -0.00969585
-0.00564451 -0.0187031
-0.000879581 -0.123866
0.00249857 -0.146022
0.00333867 -0.148719
0.0071484 -0.131431
0.00201742 -0.0306195
-0.00253316 -0.0532339
-0.00491036 -0.207486
-0.00234961 -0.208068
0.018083 -0.158532
0.017273 -0.1703
-0.00478324 -0.0718101
0.00139076 -0.0541984
0.0381036 -0.181812
0.0284778 -0.162396
-0.0012725 -0.201498
-0.000373644 -0.202883
-0.0165899 -0.0169942
-0.0142581 -0.0172369
-0.0125419 -0.0412823
-0.00995384 -0.0549513
-0.0114167 -0.0531493
-0.0114879 -0.0596609
0.0100293 -0.141956
0.0115028 -0.12287
-0.00616142 -0.197438
-0.0031864 -0.200668
-0.00320573 -0.0538106
-0.00578684 -0.0846388
-0.00782347 -0.202514
-0.0108589 -0.201794
0.0212645 -0.147455
0.0213724 -0.151805
0.0344721 -0.174494
0.0275469 -0.162179
0.0020319 -0.096104
0.00830142 -0.113038
0.0174429 -0.203831
0.0147913 -0.206453
-0.00602448 -0.107257
-0.00177144 -0.0923587
-0.00299515 -0.20953
-0.00495747 -0.209
-0.0037628 -0.2099
-0.00244552 -0.20959
-0.0102132 -0.213219
-0.00625164 -0.216683
0.00251318 -0.0383454
-0.0021671 -0.059143
-0.0217795 -0.192248
-0.0237266 -0.186305
0.0269269 -0.176031
0.0276697 -0.172956
-0.0244098 -0.19255
-0.0252283 -0.189247
-0.00979805 -0.190335
-0.0129286 -0.19327
0.00236569 -0.0475324
-0.00238224 -0.0175811
0.0220678 -0.19047
0.0199311 -0.195756
-0.00920974 -0.188739
-0.00546722 -0.183734
-0.0028639 -0.155016
-0.00548469 -0.166793
-0.00642143 -0.00740842
-0.000457573 -0.000526034
-0.0113224 -0.205062
-0.00950687 -0.204782
0.0209536 -0.198662
0.017013 -0.20497
-0.0253433 -0.164646
-0.0233816 -0.156816
-0.00854058 -0.0690424
-0.0034022 -0.0831407
0.0203147 -0.147346
0.0189879 -0.148072
0.0161329 -0.205531
0.0182072 -0.201988
0.0219422 -0.196922
0.0246076 -0.192345
-0.0173286 -0.205017
-0.0202184 -0.200321
-0.0042147 -0.0117375
-0.00101768 -0.00330674
-0.00206647 -0.202519
-0.00104807 -0.20285
0.0075262 -0.168669
0.00308128 -0.162045
0.00742988 -0.217048
0.0100045 -0.213961
-0.00685102 -0.196407
-0.00755532 -0.191596
-0.0203993 -0.199877
-0.0261484 -0.190699
0.00148223 -0.211195
0.00388138 -0.211893
0.00415476 -0.0827722
0.00954749 -0.0963194
0.0162626 -0.0297006
0.0160298 -0.0214281
-0.0265308 -0.189249
-0.0284998 -0.180258
0.0122503 -0.188903
0.0140487 -0.189634
0.0156477 -0.141678
0.0176966 -0.154032
-0.00154235 -0.20869
-0.0036769 -0.208795
-0.0243614 -0.155621
-0.0184529 -0.142527
0.00300902 -0.0432952
0.00563388 -0.0737218
-0.000588003 -0.20237
-0.00289438 -0.201309
0.0144725 -0.126667
0.0185632 -0.13768
-0.0210138 -0.0261683
-0.0185245 -0.0245916
0.000286168 -0.0382981
-0.000630215 -0.0457424
-0.00483144 -0.213489
-0.00309728 -0.21673
0.0200541 -0.183355
0.0175166 -0.186711
0.00354735 -0.00334643
0.0101495 -0.0116438
0.000327385 -0.209309
0.000702056 -0.208696
-0.00600808 -0.194039
-0.00367967 -0.198327
0.00946602 -0.180414
0.0124662 -0.172637
-0.00319138 -0.2101
-0.00148287 -0.210533
-0.020289 -0.0347252
-0.0215426 -0.0284414
0.00382877 -0.0338379
0.00398087 -0.016982
0.00100632 -0.214362
0.00229556 -0.216301
-0.0119292 -0.209879
-0.0112287 -0.211738
0.0227567 -0.195593
0.021512 -0.198191
-0.0127757 -0.210107
-0.0142677 -0.208996
0.0327791 -0.174587
0.0247325 -0.1523
-0.00364259 -0.210793
-0.00385665 -0.212485
0.00725227 -0.0884834
0.0100395 -0.0973331
-0.0161615 -0.133265
-0.0205382 -0.145383
0.0126835 -0.210436
0.00826022 -0.215348
0.0182937 -0.133796
0.0140799 -0.118441
-0.0200194 -0.0246254
-0.0174173 -0.0231259
0.00281087 -0.204922
6.63967e-06 -0.204593
-0.0102574 -0.121322
-0.0161721 -0.13668
0.0109658 -0.173484
0.0137411 -0.163899
0.00364042 -0.203028
0.00584132 -0.201873
-0.0223979 -0.184042
-0.0205015 -0.185868
-0.011392 -0.202996
-0.00906746 -0.205135
0.0182422 -0.20222
0.015724 -0.204621
-0.00806982 -0.207329
-0.00739498 -0.206486
-0.00564115 -0.11223
-0.0163751 -0.134221
0.0160991 -0.129686
0.0133013 -0.128712
-0.0161964 -0.202586
-0.0134088 -0.205356
0.0154577 -0.140735
0.0157934 -0.126339
0.00185451 -0.209922
0.00242533 -0.210313
0.0181693 -0.160158
0.0194704 -0.16869
-0.00450711 -0.00886956
-0.00118906 -0.00293117
-0.0167836 -0.125835
-0.0193002 -0.141692
-0.00957765 -0.031659
-0.00788976 -0.0460698
-0.00260525 -0.175046
0.00321241 -0.17907
-0.005303 -0.201131
-0.00213888 -0.202444
0.00870119 -0.154746
0.0082625 -0.13838
0.00822305 -0.0927621
0.00594201 -0.0732496
-0.00103226 -0.202396
0.000528857 -0.202694
0.016593 -0.1655
0.0130756 -0.162146
-0.012813 -0.0113548
-0.0117483 -0.0117611
-0.00495696 -0.213295
-0.00532658 -0.211221
0.0108975 -0.199427
0.0143354 -0.196549
0.00236606 -0.204965
-0.000647014 -0.205879
-0.010155 -0.206477
-0.00731557 -0.207064
0.000208344 -0.210068
-0.000585167 -0.209936
0.00442642 -0.118224
0.0109774 -0.116497
0.00734313 -0.206711
0.00977402 -0.205169
-0.00433851 -0.203944
-0.00143463 -0.204792
-0.0087399 -0.209406
-0.00719129 -0.211302
0.0045852 -0.202206
0.00634147 -0.201053
-0.00214433 -0.0241233
-0.000940535 -0.00409003
0.00135469 -0.209144
0.000863484 -0.208605
0.00208067 -0.20849
0.00439177 -0.208195
-0.0157862 -0.130378
-0.0124383 -0.128044
-0.00340708 -0.202063
-0.000971921 -0.202617
0.00733403 -0.217157
0.00903305 -0.215032
-0.00301916 -0.202906
-0.000937142 -0.203579
0.0257887 -0.186121
0.0240789 -0.190805
-0.0177872 -0.0263201
-0.0195123 -0.0233283
0.0213355 -0.197849
0.0173771 -0.203322
0.0210833 -0.172679
0.019913 -0.181265
0.0219276 -0.166607
0.0217231 -0.155824
-0.0153567 -0.125755
-0.0172361 -0.134393
0.0106887 -0.203767
0.010683 -0.202283
0.00475279 -0.199728
0.00269423 -0.200466
0.00824258 -0.199585
0.00533666 -0.201085
-0.0114853 -0.176594
-0.00267968 -0.176239
0.0134489 -0.0162485
0.0178196 -0.0233989
0.0116666 -0.197523
0.0140161 -0.196489
-0.0114997 -0.200576
-0.00867987 -0.201372
-0.0176411 -0.195854
-0.0200597 -0.193482
-0.0105371 -0.063277
-0.00687883 -0.0731855
-0.0234999 -0.192068
-0.022009 -0.193986
0.00486913 -0.206878
0.00510812 -0.205655
0.00641216 -0.0129648
0.00984222 -0.0197298
0.0139577 -0.208718
0.00801754 -0.216252
-0.00682002 -0.214796
-0.00854479 -0.211914
-0.0127938 -0.104879
-0.0135953 -0.114341
2.21831e-05 -0.210147
0.000370306 -0.210228
-0.00125249 -0.0763816
-0.00262832 -0.0642989
-0.0204653 -0.144886
-0.0227554 -0.155178
-0.00260913 -0.211157
-0.00129885 -0.213166
0.00228108 -0.0585059
0.00715696 -0.0475465
-0.00562275 -0.00626101
-0.00641135 -0.00592968
-0.0140375 -0.124828
-0.00864954 -0.108537
-0.000550459 -0.000996196
-0.00034925 -0.000416816
0.0310114 -0.184125
0.0296573 -0.181307
-0.0033523 -0.0705145
0.00193246 -0.0876705
0.0207878 -0.165368
0.0159398 -0.175018
-0.0248622 -0.173426
-0.0248558 -0.181389
-0.00274417 -0.205655
-8.46921e-05 -0.204842
0.0242218 -0.187922
0.0253154 -0.180592
-0.0257545 -0.167733
-0.023714 -0.157923
0.00267251 -0.0848576
0.00482841 -0.0799371
-0.0028487 -0.197913
-0.00255762 -0.201038
0.00820685 -0.214984
0.00487062 -0.217237
0.000581906 -0.208226
-2.86273e-05 -0.207455
0.0204148 -0.196182
0.0177071 -0.199856
-0.00197878 -0.202555
-0.00029075 -0.202791
0.00280095 -0.202203
0.00428196 -0.201564
-0.00673709 -0.207647
-0.00407293 -0.208296
0.0252814 -0.182899
0.024233 -0.189896
0.0184618 -0.201674
0.0155798 -0.205679
0.0122451 -0.0585596
0.0123382 -0.0579891
-0.0148409 -0.0217067
-0.01721 -0.0298896
0.0181917 -0.20304
0.0203448 -0.198951
-0.0163713 -0.203928
-0.0135695 -0.20705
0.0156256 -0.13766
0.0270041 -0.120502
-0.0250097 -0.175162
-0.024167 -0.167157
-0.00404213 -0.0754103
0.00212932 -0.0915571
-0.00126033 -0.202281
0.000408305 -0.202684
-0.00376168 -0.0389781
0.000240856 -0.0570151
-0.00838218 -0.0652752
-0.0106612 -0.0526997
0.0194835 -0.200268
0.0167756 -0.204605
-0.0118384 -0.20455
-0.0102975 -0.206461
-0.0226687 -0.15322
-0.0259454 -0.163924
0.0106239 -0.0528949
0.0155125 -0.0454816
-0.00579458 -0.0903174
-0.000112418 -0.0768139
0.0192684 -0.20094
0.0219588 -0.195821
0.0185224 -0.0280331
0.0179535 -0.0372911
0.00887112 -0.067152
0.0130441 -0.0536458
0.0159497 -0.20656
0.0205862 -0.199706
0.0177364 -0.132289
0.0267942 -0.158862
0.0196976 -0.140735
0.0176675 -0.131782
0.0216497 -0.181318
0.0194226 -0.187248
-0.0242872 -0.161918
-0.0244179 -0.168819
-0.000179513 -0.203988
0.000475859 -0.204875
0.016478 -0.129991
0.0189438 -0.139869
0.0159848 -0.025787
0.0160604 -0.0361625
0.00038492 -0.210193
0.000885068 -0.209935
-0.00903494 -0.208724
-0.011843 -0.20751
-0.0157707 -0.160535
-0.0119793 -0.169369
-0.015135 -0.119573
-0.017179 -0.13748
-0.00623116 -0.210198
-0.0051725 -0.21183
-0.00178558 -0.0775391
0.00205077 -0.0598005
-0.00921417 -0.0476368
-0.0114161 -0.0337204
0.00230243 -0.209346
0.00420375 -0.208976
-0.00306894 -0.0579002
-0.00581962 -0.0845168
-0.0226505 -0.196185
-0.0269041 -0.187132
-0.000577489 -0.203616
0.00318675 -0.203099
0.00260696 -0.0890536
0.00707258 -0.0974148
-0.00882565 -0.0823412
-0.0142189 -0.116474
0.00480771 -0.0680924
0.00580702 -0.0753592
0.0164061 -0.196475
0.0191183 -0.194099
0.0100887 -0.207434
0.0121368 -0.207242
0.0219734 -0.149861
0.0171707 -0.135325
-0.00204738 -0.199169
-0.00184516 -0.201827
0.0141084 -0.208514
0.0139685 -0.20766
-0.00449756 -0.20956
-0.00642205 -0.20987
-0.00803332 -0.193487
-0.00958272 -0.187337
0.00389104 -0.0112007
0.00352795 -0.0188787
-0.00531642 -0.20737
-0.00290936 -0.208098
0.0133051 -0.210029
0.0134618 -0.209395
-0.00901336 -0.205339
-0.00930621 -0.20381
-0.0210984 -0.147334
-0.0239662 -0.1596
0.0135433 -0.205928
0.011713 -0.208446
-0.0223032 -0.195443
-0.0203906 -0.198569
0.00148597 -0.205898
-0.000381371 -0.205053
-0.0183003 -0.184346
-0.0201519 -0.18441
0.0171403 -0.199221
0.0143064 -0.201131
0.00152729 -0.202089
0.00198271 -0.200905
0.0243682 -0.157031
0.0184602 -0.141746
0.0161559 -0.20632
0.0156751 -0.207015
-0.0173076 -0.203252
-0.0174858 -0.20156
0.00472809 -0.0716745
-0.000441477 -0.0884663
-0.0153883 -0.20662
-0.0139065 -0.209081
-0.021867 -0.026577
-0.0206836 -0.032818
0.0068159 -0.0779587
0.00273439 -0.0593158
0.0248587 -0.172967
0.0248745 -0.165711
-0.000468936 -0.202819
-0.00170508 -0.20142
0.00370841 -0.188654
0.00309738 -0.181778
-0.00149076 -0.0848236
-0.00701936 -0.0683996
0.0133511 -0.207234
0.0121615 -0.209609
-0.010065 -0.0944904
-0.00569854 -0.0727375
0.00526601 -0.211266
0.00802122 -0.210203
0.00166934 -0.201543
0.00022021 -0.202923
0.0135989 -0.201784
0.0160922 -0.200871
0.0171742 -0.197927
0.0169283 -0.200337
0.0183966 -0.194611
0.0208864 -0.191615
-0.00269202 -0.149292
-0.000573141 -0.163534
-0.023414 -0.193301
-0.0253829 -0.18785
0.0150503 -0.116194
0.0156731 -0.128803
0.00613865 -0.21539
0.00753928 -0.212552
0.0240166 -0.162823
0.0246922 -0.162431
-0.00804693 -0.00847119
-0.00083902 -0.000828169
0.0153254 -0.0199426
0.0183162 -0.0207465
-0.00479148 -0.201649
-0.00221689 -0.202386
-0.00112503 -0.210068
-0.000232601 -0.210256
0.0143579 -0.0173982
0.009279 -0.0110005
0.0228648 -0.171264
0.0231043 -0.162297
0.00681165 -0.19558
0.00287631 -0.19492
0.0182854 -0.0380643
0.0168135 -0.0347643
0.00038351 -0.198348
-0.000250282 -0.201496
0.000549197 -0.209297
0.00141681 -0.209558
0.0111567 -0.20074
0.00775974 -0.202015
0.0236694 -0.158107
0.0217569 -0.149309
-0.0202489 -0.199893
-0.0225421 -0.19443
0.00604048 -0.0917763
0.0112935 -0.107827
0.022339 -0.122531
0.0202996 -0.140704
-0.0170123 -0.194308
-0.0152726 -0.194438
-0.0228129 -0.153815
-0.0244196 -0.159483
0.0273565 -0.17884
0.0279315 -0.181089
0.030298 -0.168801
0.0316833 -0.184048
-0.00640554 -0.0656235
-0.00168225 -0.0818356
-0.022056 -0.181519
-0.0215241 -0.175817
-0.0202123 -0.144442
-0.0179924 -0.139929
0.0115592 -0.123697
0.014376 -0.13175
0.011684 -0.104996
0.00631882 -0.0896724
0.00207909 -0.209774
0.00302581 -0.210055
-0.0113055 -0.20811
-0.011681 -0.206567
-0.000993987 -0.211719
-0.00212243 -0.213853
0.00986599 -0.207356
0.00761321 -0.207464
-0.00806064 -0.204325
-0.00495292 -0.204515
-0.0105594 -0.212133
-0.00966409 -0.211585
-0.00225525 -0.137363
-0.0066908 -0.111531
0.00256274 -0.0251217
0.00110259 -0.00610739
-0.00148309 -0.191446
-0.00339579 -0.195355
0.0209633 -0.174924
0.0225638 -0.176749
0.00804617 -0.204732
0.00713557 -0.206236
0.0189803 -0.0373462
0.0212067 -0.0320127
-0.0212359 -0.14937
-0.020783 -0.152537
-0.0261583 -0.187414
-0.0231228 -0.195397
-0.000312906 -0.210682
-0.00146214 -0.210441
-0.0114706 -0.189556
-0.0120547 -0.182386
-0.0228331 -0.161866
-0.0218428 -0.151961
0.003368 -0.210159
0.00227571 -0.209806
0.00643421 -0.0129799
0.00842162 -0.0261071
0.0188278 -0.140389
0.0143675 -0.126166
0.0174022 -0.203247
0.0242377 -0.193972
0.0156287 -0.207058
0.011734 -0.211844
-0.000695208 -0.185928
0.00273229 -0.191216
0.0140854 -0.200892
0.0127407 -0.203328
0.000901866 -0.18057
0.00033494 -0.188356
-0.00114874 -0.189019
0.00420519 -0.186153
-0.0169348 -0.204653
-0.0162617 -0.206099
0.00474558 -0.202114
0.00320444 -0.20219
-0.00436966 -0.0843457
-0.009486 -0.0979109
0.00416968 -0.0858955
0.00818184 -0.102288
0.00156203 -0.208839
0.00241584 -0.209206
-0.0194749 -0.182092
-0.0171651 -0.183293
0.00595943 -0.208532
0.00531249 -0.20948
-0.0057574 -0.200695
-0.00488254 -0.201667
0.0273325 -0.179445
0.0263353 -0.180603
0.0159177 -0.122324
0.0114038 -0.107382
0.0157809 -0.0288447
0.014047 -0.0401974
0.0206935 -0.197399
0.0206273 -0.195354
-0.0229648 -0.189972
-0.0220942 -0.194589
0.00867475 -0.00702842
0.0136955 -0.014042
-0.0179809 -0.169108
-0.0188698 -0.156999
-0.0230799 -0.154261
-0.0195442 -0.141864
0.0144457 -0.186377
0.0160666 -0.178716
-0.0107233 -0.154527
-0.005539 -0.149565
0.0209256 -0.177916
0.0187529 -0.178978
0.0200646 -0.197667
0.0194946 -0.19635
-0.0156364 -0.133707
-0.0181645 -0.125465
-0.0164196 -0.137193
-0.0136698 -0.130106
0.00877734 -0.186724
0.0115328 -0.179248
-0.0106238 -0.211027
-0.0111035 -0.209195
-0.0129732 -0.182103
-0.00978146 -0.174483
-0.0110703 -0.213002
-0.00505214 -0.220108
0.0132599 -0.161583
0.00259466 -0.163046
-0.0194672 -0.14805
-0.017845 -0.153149
-0.016722 -0.201367
-0.0189769 -0.199625
-0.00664737 -0.188567
-0.00118263 -0.18687
0.00518096 -0.201225
0.00274599 -0.202103
0.0109342 -0.208184
0.00934436 -0.210476
0.0132259 -0.0301757
0.0116342 -0.019114
0.00450071 -0.0753652
0.00279425 -0.0853435
-0.00820881 -0.199639
-0.0077418 -0.198962
0.0190668 -0.138094
0.0198502 -0.142444
0.0185611 -0.17075
0.0183612 -0.179253
-0.0148671 -0.20839
-0.0191497 -0.20224
-0.00844594 -0.210176
-0.00682605 -0.212415
0.0229901 -0.194877
0.0225021 -0.19479
0.0204934 -0.150159
0.0183933 -0.13569
-0.00880325 -0.18807
-0.0058241 -0.181995
0.0281053 -0.170073
0.0242076 -0.157099
0.00855821 -0.109371
0.0151187 -0.0832258
-0.00598134 -0.219035
-0.00704156 -0.217629
-0.00334386 -0.210234
-0.00250194 -0.209762
0.0124774 -0.127105
0.0147183 -0.142488
0.00969493 -0.0961782
0.0112684 -0.0975419
-0.00665845 -0.218247
-0.00486742 -0.220183
0.0143679 -0.208313
0.0112599 -0.211221
0.00334918 -0.203504
0.00215687 -0.204609
-0.00598169 -0.0729939
-0.00104024 -0.0542405
-0.0129591 -0.106094
-0.0150224 -0.115462
-0.020041 -0.200118
-0.0216783 -0.195835
-0.0163589 -0.128129
-0.0152163 -0.127206
-0.0291158 -0.186646
-0.0207449 -0.200435
-0.0164638 -0.203545
-0.0175163 -0.200857
0.0111255 -0.162648
0.0126904 -0.148019
0.00376946 -0.219723
0.00266391 -0.219257
0.028245 -0.174471
0.0273154 -0.176169
0.00716103 -0.202842
0.00391952 -0.203289
0.024629 -0.192389
0.0273054 -0.185047
-0.00871833 -0.169542
-0.0034883 -0.168543
0.0121205 -0.184443
0.0179954 -0.175531
0.00174453 -0.0104375
0.000131608 -0.0374407
0.00103338 -0.211089
0.000883961 -0.213871
-0.0128939 -0.19962
-0.0136358 -0.200659
0.0142968 -0.131513
0.0206207 -0.147371
-0.0172162 -0.0434822
-0.0165176 -0.0450415
-0.0123498 -0.125822
-0.0119719 -0.121891
-0.00193748 -0.00220013
-0.000640934 -0.000592781
-0.0215671 -0.149995
-0.0231715 -0.160918
-0.00134007 -0.202647
-0.000158556 -0.203281
-0.00136491 -0.197557
-0.00164026 -0.200819
-0.00803865 -0.187521
-0.00306025 -0.183554
-0.0198085 -0.0261967
-0.02126 -0.023555
0.00824749 -0.0593179
0.00656857 -0.0708808
0.00788855 -0.18996
0.00823442 -0.183009
-0.00101945 -0.195459
0.00118063 -0.198821
0.0242901 -0.156877
0.0219787 -0.150024
0.000774313 -0.202385
0.0010549 -0.200194
0.0126918 -0.0291465
0.0156514 -0.0287769
0.0125179 -0.0161648
0.00783484 -0.0101684
0.00147309 -0.00129135
0.00762008 -0.00641672
0.0294714 -0.170359
0.0281643 -0.169959
-0.00679177 -0.183958
-0.00987386 -0.186578
0.000939917 -0.0546792
-0.00368504 -0.0328973
-0.00242533 -0.221116
-0.00469251 -0.217662
-0.00594543 -0.0718593
-0.000849594 -0.0520616
0.0112433 -0.0618331
0.0094851 -0.0643889
-0.0039259 -0.191772
8.49278e-05 -0.192299
0.0275926 -0.174058
0.0270249 -0.180621
0.00676953 -0.217804
0.0118044 -0.211906
0.0134608 -0.109195
0.0170375 -0.127033
-0.0120751 -0.0521799
-0.0112043 -0.0448775
0.00330428 -0.217413
0.007106 -0.21368
-0.0171367 -0.204249
-0.0168469 -0.205417
0.0141187 -0.117682
0.0119132 -0.123203
-0.0186039 -0.142753
-0.0163314 -0.135893
0.00532443 -0.00918163
0.00908477 -0.0155897
-0.000696151 -0.209034
-0.00220815 -0.209331
-0.00118371 -0.0654288
-0.00486591 -0.0673839
-0.0155434 -0.177483
-0.0184525 -0.176107
-0.000149268 -0.196971
-0.00341312 -0.196352
0.000985642 -0.20172
0.00296905 -0.199409
0.00538325 -0.208071
0.00554854 -0.208827
0.0134523 -0.0454836
0.0163858 -0.0344724
0.017625 -0.131036
0.0208531 -0.145547
0.0120704 -0.102869
0.00903339 -0.0920598
-0.0118281 -0.206288
-0.0102728 -0.208141
-0.00644315 -0.198599
-0.00747172 -0.194857
-0.0240676 -0.158076
-0.0205269 -0.145421
-0.0151896 -0.207377
-0.0183074 -0.202899
0.00618955 -0.125514
-0.00137265 -0.140905
-0.00868344 -0.193907
-0.0106258 -0.194367
-0.00396584 -0.195832
-0.00706292 -0.191881
-0.00259128 -0.202417
-0.006024 -0.201295
-0.00052381 -0.208244
0.00195377 -0.20809
0.00375977 -0.202266
0.00539425 -0.202308
0.0211243 -0.14694
0.0239553 -0.157787
0.0023306 -0.0157329
-0.00133736 -0.0295821
0.0140088 -0.015838
0.0180324 -0.0236696
0.00137411 -0.208944
0.00200538 -0.209349
0.020019 -0.144263
0.0211586 -0.147303
-0.00270485 -0.100078
-0.00927297 -0.117874
-0.00389303 -0.19809
-0.00189055 -0.201137
-0.00494832 -0.203768
-0.00802188 -0.203508
-0.00815954 -0.0804427
-0.00269253 -0.0592864
-0.00320331 -0.0748945
0.00236625 -0.0863051
-0.000543139 -0.210357
-0.00137872 -0.209992
0.000477408 -0.202545
-5.48119e-05 -0.202961
-0.00315075 -0.20901
-0.00114294 -0.209191
0.000568198 -0.0872919
0.00369625 -0.0791928
0.0191721 -0.134916
0.017157 -0.109496
0.000282943 -0.21012
0.000810478 -0.210068
0.00861434 -0.198534
0.00569888 -0.200988
0.00554932 -0.218482
0.0101662 -0.213725
-0.0352897 -0.179636
-0.0280193 -0.163309
-0.0110769 -0.123651
-0.0048752 -0.106565
0.00200041 -0.00412164
0.00403867 -0.0056411
-0.0190117 -0.201443
-0.0270095 -0.190698
0.0247932 -0.190852
0.0257055 -0.186843
0.00299235 -0.209141
0.00150655 -0.209599
0.0221205 -0.196598
0.0233648 -0.19431
-0.0169663 -0.0421164
-0.0193911 -0.03277
0.015931 -0.175838
0.0125712 -0.179998
0.00169695 -0.220442
0.00549851 -0.216076
0.0189895 -0.141734
0.0226402 -0.152066
0.00429951 -0.102475
0.00344516 -0.102617
-5.09405e-05 -0.203281
-0.000276805 -0.202679
0.00356183 -0.204725
0.00694227 -0.203557
0.015386 -0.192306
0.0121764 -0.195975
0.00356732 -0.19806
0.00630006 -0.193894
-0.0176985 -0.204008
-0.0215453 -0.197945
0.00429947 -0.190035
0.00817766 -0.188295
-0.0106736 -0.213526
-0.0154084 -0.207668
-0.00883671 -0.189225
-0.00886856 -0.193989
0.0195093 -0.0375748
0.0176835 -0.0389713
0.00931875 -0.200748
0.0128413 -0.198474
-0.00238297 -0.209588
-0.00406225 -0.209743
-0.0154654 -0.134782
-0.0196074 -0.144834
-0.0209242 -0.0278982
-0.0185306 -0.0260391
0.00350129 -0.0342799
0.00632471 -0.0303657
0.0156004 -0.183804
0.0142617 -0.189817
0.00266866 -0.19878
0.00560561 -0.195191
0.0261388 -0.165571
0.0274341 -0.17592
0.0102897 -0.201096
0.00696652 -0.202154
0.00735785 -0.111128
0.0115843 -0.124117
0.00564687 -0.0712591
0.0040399 -0.064162
0.012693 -0.126721
0.00568743 -0.10726
0.00024847 -0.209101
0.00134337 -0.208471
0.00811803 -0.106234
0.0154806 -0.11494
0.00576977 -0.214237
0.00359801 -0.2177
0.00197222 -0.0967658
-0.00411599 -0.0808221
0.0104338 -0.120719
0.00598308 -0.109668
-0.00558021 -0.102577
-0.00274301 -0.0894555
0.0167077 -0.0420562
0.0166679 -0.0461944
-0.0182442 -0.203452
-0.0131679 -0.21005
-0.00933772 -0.00936209
-0.012112 -0.0108001
0.0211058 -0.148099
0.0159435 -0.130745
-0.011407 -0.0208081
-0.0144309 -0.0282467
0.00804418 -0.050712
0.00859803 -0.0383091
-0.00122406 -0.2026
0.000108749 -0.20264
0.00410637 -0.0554657
-0.0127831 -0.0615672
0.0102218 -0.213696
0.00947078 -0.214247
-0.0194462 -0.0327641
-0.0213505 -0.0306664
-0.0261263 -0.180223
-0.024973 -0.187779
-0.0020204 -0.202422
0.000683657 -0.202582
0.0148824 -0.0184105
0.0187603 -0.0224058
0.00288732 -0.00319258
0.0045616 -0.00618705
-0.00695303 -0.203364
-0.0100615 -0.202769
-0.00718098 -0.0064475
-0.0142664 -0.0137987
0.00724489 -0.217236
0.00882831 -0.215138
0.0240653 -0.192672
0.0208322 -0.199356
-0.0133553 -0.207682
-0.0136311 -0.206085
0.00404558 -0.208187
0.00418397 -0.207299
-0.00788762 -0.208839
-0.00557524 -0.209807
0.00989342 -0.197865
0.0105509 -0.195454
0.00182209 -0.202377
0.00274789 -0.202022
0.0125714 -0.0173597
0.0141585 -0.0263035
-0.00199929 -0.0461208
-0.00557029 -0.0285116
0.0220445 -0.194074
0.0215918 -0.192223
0.000355576 -0.209837
0.000122465 -0.210178
-0.00184073 -0.202547
0.000759482 -0.202703
-0.000710828 -0.174099
0.00553228 -0.171821
0.0139815 -0.0311868
0.0131394 -0.0433759
-0.00144324 -0.21023
-0.00191068 -0.209741
0.00839381 -0.110116
0.0108104 -0.112574
-0.00675912 -0.0391501
-0.00732878 -0.0245508
0.0224568 -0.196199
0.0227305 -0.195552
-0.0149985 -0.203633
-0.0120994 -0.205865
0.00080304 -0.0952909
0.00724408 -0.112765
0.0123118 -0.05549
0.0225907 -0.0960094
-0.0143467 -0.198449
-0.0113914 -0.199994
-0.0244035 -0.183646
-0.0227168 -0.188588
0.00560332 -0.201672
0.00434353 -0.201721
-0.00453221 -0.0700482
-0.0031282 -0.102227
0.00241384 -0.202194
-0.000191975 -0.202659
0.00758305 -0.0658586
0.0120139 -0.0516886
0.0301073 -0.136663
0.0196672 -0.110385
-0.00177326 -0.210353
-0.00370507 -0.210056
0.00847181 -0.157062
0.012826 -0.168057
0.0179194 -0.132787
0.0184479 -0.134806
-0.0108703 -0.212405
-0.013839 -0.208387
-0.000566491 -0.20232
0.000440199 -0.202824
0.007869 -0.168223
0.0111798 -0.177757
-0.00299185 -0.201843
-0.00157819 -0.202228
-0.00381833 -0.0782387
-0.00480083 -0.0791982
-0.00275084 -0.197181
0.000301807 -0.198173
-0.0088618 -0.199657
-0.0122368 -0.196913
-0.0153207 -0.194422
-0.012099 -0.197724
0.0248825 -0.182428
0.0255125 -0.174382
0.000588876 -0.192136
0.00248781 -0.18507
-0.00342001 -0.0155638
-0.00117285 -0.019243
0.01065 -0.200271
0.0140238 -0.198141
-0.00944823 -0.0648216
-0.00392556 -0.0792471
0.00862296 -0.0916667
0.010371 -0.0927989
-0.0116117 -0.210931
-0.00892916 -0.212468
0.00357883 -0.208966
0.00212729 -0.209529
-0.0210437 -0.158956
-0.0200504 -0.146456
0.00979507 -0.0217172
0.0127401 -0.0274622
4.72905e-05 -0.202606
0.00268135 -0.202406
-0.00634017 -0.208096
-0.00508674 -0.209045
-0.0238282 -0.156636
-0.0274209 -0.169168
-0.00379194 -0.188824
-0.00111258 -0.194108
-0.00250192 -0.209835
-0.00456194 -0.209629
-0.00267131 -0.209832
-0.0047747 -0.209554
0.0181043 -0.133617
0.0151443 -0.116372
0.024954 -0.157094
0.0318017 -0.171156
-0.00385592 -0.201803
-0.0017516 -0.202536
0.00744197 -0.2147
0.00615079 -0.214118
0.00661911 -0.0823933
0.0113688 -0.101057
-0.00796527 -0.210355
-0.0103222 -0.210071
0.0219647 -0.18995
0.0231038 -0.190076
0.0225554 -0.173771
0.0227599 -0.180941
-0.025234 -0.18185
-0.0243318 -0.188957
0.0113919 -0.186216
0.0093641 -0.192525
0.000668752 -0.210156
0.00139648 -0.209964
-0.0155258 -0.146842
-0.0184377 -0.152471
0.0218971 -0.0280098
0.0199059 -0.0267438
0.0155459 -0.0453824
0.0133992 -0.0550124
-0.00557271 -0.19338
-0.00885724 -0.19217
-0.00678421 -0.200376
-0.00925599 -0.199276
-0.00256975 -0.209312
-0.0045129 -0.209362
-0.0127909 -0.0144401
-0.0109484 -0.0147792
-0.00707497 -0.109299
-0.00396177 -0.103993
0.0287256 -0.178334
0.0266015 -0.188195
-0.0149092 -0.205441
-0.0154522 -0.203476
-0.0215417 -0.184818
-0.0232329 -0.178968
-0.0149683 -0.197464
-0.0177705 -0.193277
-0.00863399 -0.200062
-0.0104928 -0.197585
0.0187695 -0.201893
0.0175077 -0.20319
-0.00784388 -0.205517
-0.0111034 -0.204178
0.0176068 -0.159153
0.011533 -0.144275
-0.00495889 -0.0387183
-0.00410209 -0.0283418
-0.00669346 -0.0949913
-0.0144778 -0.109248
0.00149255 -0.0892979
-0.00242597 -0.0990242
0.00825068 -0.0611719
0.00320642 -0.0770979
-0.0197189 -0.141624
-0.0161382 -0.126861
-0.0232373 -0.167757
-0.0237546 -0.175982
0.0256006 -0.173689
0.026248 -0.177817
-0.00869354 -0.202032
-0.00806597 -0.203484
-0.00490739 -0.210548
-0.00263541 -0.21049
-0.0196731 -0.178273
-0.0202443 -0.169214
-0.0252573 -0.191862
-0.0273801 -0.185217
-0.000192084 -0.203336
7.84562e-05 -0.203153
0.0260527 -0.178511
0.0268448 -0.179595
0.000434057 -0.203873
0.000109642 -0.203234
-0.0124061 -0.120657
-0.0103305 -0.0991539
-0.0265182 -0.187668
-0.0244698 -0.192413
-0.0165236 -0.205867
-0.0214099 -0.198443
-0.0027166 -0.0484731
0.00527976 -0.0693196
0.00227327 -0.0780951
-0.00271268 -0.0598514
-0.0199039 -0.200901
-0.0234004 -0.194948
0.00526407 -0.219438
0.00826736 -0.216028
-7.42957e-06 -0.0896236
-0.00231884 -0.0574467
-0.0136016 -0.13014
-0.0132534 -0.129067
-0.026379 -0.191388
-0.0299852 -0.180636
-0.00967626 -0.159674
-0.00555012 -0.169945
-0.0107736 -0.0130366
-0.0154366 -0.0181259
0.0111417 -0.0330822
0.0106695 -0.0206664
-0.010463 -0.21244
-0.0133824 -0.209882
0.019702 -0.177809
0.0209849 -0.181177
0.0117775 -0.117986
0.0172088 -0.134253
-0.00157428 -0.202619
-0.00279633 -0.202303
-0.0264018 -0.165217
-0.0255743 -0.164277
0.0182858 -0.20116
0.0186749 -0.201935
0.0085336 -0.206871
0.00672151 -0.206539
-0.0136699 -0.0330502
-0.013688 -0.0223921
0.00130315 -0.201748
0.00286573 -0.198626
0.00302053 -0.212186
0.0047315 -0.213473
-0.00245515 -0.21028
-0.00430923 -0.209771
-0.000137162 -0.203266
-0.00120569 -0.202806
-0.011503 -0.152417
-0.0143951 -0.161316
-0.00197073 -0.202338
-0.00121736 -0.20146
0.00178863 -0.00255713
0.00705158 -0.0138676
-0.029703 -0.163161
-0.0189932 -0.137443
0.0253747 -0.182337
0.0246553 -0.180311
-0.00576997 -0.192661
-0.00527071 -0.19742
0.00380689 -0.20408
0.0074125 -0.203159
0.00757185 -0.200916
0.0110705 -0.198599
-0.00825479 -0.207268
-0.00683682 -0.206727
-0.00063361 -0.047015
-0.000470242 -0.0531706
-0.0166161 -0.162757
-0.00752493 -0.153338
-0.00384727 -0.21536
-0.00782345 -0.216154
-0.00782345 -0.216154
-0.0120087 -0.217187
-0.0120087 -0.217187
-0.0163074 -0.21854
-0.0163074 -0.21854
-0.0206345 -0.22026
-0.0206345 -0.22026
-0.0249253 -0.222329
-0.0249253 -0.222329
-0.0291018 -0.224745
-0.0291018 -0.224745
-0.0331014 -0.227487
-0.0331014 -0.227487
-0.0368677 -0.230524
-0.0368677 -0.230524
-0.0403495 -0.233819
-0.0403495 -0.233819
-0.0435115 -0.237328
-0.0435115 -0.237328
-0.0463214 -0.240999
-0.0463214 -0.240999
-0.0487604 -0.244784
-0.0487604 -0.244784
-0.0508205 -0.24863
-0.0508205 -0.24863
-0.0524896 -0.252477
-0.0524896 -0.252477
-0.0537834 -0.256294
-0.0537834 -0.256294
-0.0547136 -0.260021
-0.0547136 -0.260021
-0.055296 -0.263621
-0.055296 -0.263621
-0.0555599 -0.267068
-0.0555599 -0.267068
-0.0555292 -0.270317
-0.0555292 -0.270317
-0.055241 -0.273355
-0.055241 -0.273355
-0.0547195 -0.276173
-0.0547195 -0.276173
-0.0539966 -0.278748
-0.0539966 -0.278748
-0.0531096 -0.28108
-0.0531096 -0.28108
-0.0520772 -0.283174
-0.0520772 -0.283174
-0.0509176 -0.285044
-0.0509176 -0.285044
-0.0496556 -0.286676
-0.0496556 -0.286676
-0.0483106 -0.288091
-0.0483106 -0.288091
-0.0468713 -0.289319
-0.0468713 -0.289319
-0.0453356 -0.290351
-0.0453356 -0.290351
-0.0437258 -0.291191
-0.0437258 -0.291191
-0.0420145 -0.291823
-0.0420145 -0.291823
-0.0401683 -0.292295
-0.0401683 -0.292295
-0.0381891 -0.292588
-0.0381891 -0.292588
-0.0360675 -0.292626
-0.0360675 -0.292626
-0.0337323 -0.292426
-0.0337323 -0.292426
-0.0311845 -0.292004
-0.0311845 -0.292004
-0.0284094 -0.29125
-0.0284094 -0.29125
-0.0253693 -0.290027
-0.0253693 -0.290027
-0.0220439 -0.28837
-0.0220439 -0.28837
-0.0184442 -0.286194
-0.0184442 -0.286194
-0.0145461 -0.283249
-0.0145461 -0.283249
-0.0103868 -0.279444
-0.0103868 -0.279444
-0.0059918 -0.274612
-0.0059918 -0.274612
-0.00131372 -0.268398
-0.00131372 -0.268398
0.00342068 -0.260385
0.00342068 -0.260385
0.00828745 -0.250141
0.00828745 -0.250141
0.0132162 -0.236171
0.0132162 -0.236171
0.018374 -0.217986
0.018374 -0.217986
0.0255029 -0.198383
0.0255029 -0.198383
0.0297114 -0.188873
0.0297114 -0.188873
0.0300046 -0.185471
0.0300046 -0.185471
0.0291992 -0.184185
0.0291992 -0.184185
0.0283529 -0.184144
0.0283529 -0.184144
0.0274653 -0.184986
0.0274653 -0.184986
0.0267242 -0.186427
0.0267242 -0.186427
0.025869 -0.18841
0.025869 -0.18841
0.0247577 -0.190809
0.0247577 -0.190809
0.0236161 -0.193543
0.0236161 -0.193543
0.0223597 -0.196346
0.0223597 -0.196346
0.0208934 -0.199026
0.0208934 -0.199026
0.0192131 -0.201509
0.0192131 -0.201509
0.0174434 -0.203813
0.0174434 -0.203813
0.0156142 -0.205866
0.0156142 -0.205866
0.0137175 -0.207653
0.0137175 -0.207653
0.0118028 -0.209194
0.0118028 -0.209194
0.00988802 -0.210499
0.00988802 -0.210499
0.00797789 -0.211577
0.00797789 -0.211577
0.00604433 -0.212472
0.00604433 -0.212472
0.00406486 -0.213217
0.00406486 -0.213217
0.00198072 -0.213885
0.00198072 -0.213885
-0.000512311 -0.214578
-0.000512311 -0.214578
-0.00384727 -0.21536
0.0312472 -0.292259
0.0337875 -0.292679
0.0337875 -0.292679
0.0361201 -0.292869
0.0361201 -0.292869
0.0382396 -0.292836
0.0382396 -0.292836
0.0402105 -0.292556
0.0402105 -0.292556
0.0420496 -0.292087
0.0420496 -0.292087
0.0437572 -0.291462
0.0437572 -0.291462
0.0453566 -0.290628
0.0453566 -0.290628
0.0468854 -0.289609
0.0468854 -0.289609
0.04832 -0.288385
0.04832 -0.288385
0.0496602 -0.286974
0.0496602 -0.286974
0.0509164 -0.285349
0.0509164 -0.285349
0.0520702 -0.283486
0.0520702 -0.283486
0.0531 -0.281397
0.0531 -0.281397
0.0539834 -0.279075
0.0539834 -0.279075
0.0547028 -0.276515
0.0547028 -0.276515
0.0552222 -0.273696
0.0552222 -0.273696
0.0555123 -0.270671
0.0555123 -0.270671
0.0555422 -0.267448
0.0555422 -0.267448
0.0552847 -0.26401
0.0552847 -0.26401
0.0546994 -0.260411
0.0546994 -0.260411
0.0537732 -0.256694
0.0537732 -0.256694
0.0524855 -0.252893
0.0524855 -0.252893
0.0508159 -0.24905
0.0508159 -0.24905
0.0487649 -0.245214
0.0487649 -0.245214
0.0463354 -0.241445
0.0463354 -0.241445
0.0435291 -0.23778
0.0435291 -0.23778
0.0403791 -0.234284
0.0403791 -0.234284
0.0369056 -0.230998
0.0369056 -0.230998
0.0331515 -0.227968
0.0331515 -0.227968
0.0291658 -0.225233
0.0291658 -0.225233
0.0250033 -0.222819
0.0250033 -0.222819
0.0207356 -0.220757
0.0207356 -0.220757
0.0164177 -0.219047
0.0164177 -0.219047
0.0121505 -0.217693
0.0121505 -0.217693
0.00798792 -0.216656
0.00798792 -0.216656
0.00406868 -0.215855
0.00406868 -0.215855
0.000745399 -0.21509
0.000745399 -0.21509
-0.00173511 -0.214392
-0.00173511 -0.214392
-0.00384559 -0.213729
-0.00384559 -0.213729
-0.00584682 -0.212986
-0.00584682 -0.212986
-0.00780696 -0.212102
-0.00780696 -0.212102
-0.0097499 -0.211021
-0.0097499 -0.211021
-0.0116968 -0.209701
-0.0116968 -0.209701
-0.0136234 -0.208135
-0.0136234 -0.208135
-0.0155312 -0.206314
-0.0155312 -0.206314
-0.0173714 -0.204226
-0.0173714 -0.204226
-0.0191056 -0.201865
-0.0191056 -0.201865
-0.0207173 -0.199275
-0.0207173 -0.199275
-0.0222237 -0.196581
-0.0222237 -0.196581
-0.0235424 -0.194005
-0.0235424 -0.194005
-0.0246655 -0.191519
-0.0246655 -0.191519
-0.0256179 -0.189224
-0.0256179 -0.189224
-0.0264975 -0.187177
-0.0264975 -0.187177
-0.027402 -0.185584
-0.027402 -0.185584
-0.0281866 -0.184669
-0.0281866 -0.184669
-0.0289721 -0.184594
-0.0289721 -0.184594
-0.029543 -0.185907
-0.029543 -0.185907
-0.0292375 -0.189209
-0.0292375 -0.189209
-0.0257091 -0.198447
-0.0257091 -0.198447
-0.0180513 -0.218142
-0.0180513 -0.218142
-0.0127481 -0.235895
-0.0127481 -0.235895
-0.0081289 -0.250086
-0.0081289 -0.250086
-0.00333026 -0.260708
-0.00333026 -0.260708
0.00149607 -0.26862
0.00149607 -0.26862
0.00607549 -0.274888
0.00607549 -0.274888
0.0104987 -0.27965
0.0104987 -0.27965
0.0146888 -0.283438
0.0146888 -0.283438
0.0185641 -0.286433
0.0185641 -0.286433
0.0221385 -0.288633
0.0221385 -0.288633
0.0254575 -0.29025
0.0254575 -0.29025
0.0284971 -0.291462
0.0284971 -0.291462
0.0312472 -0.292259
      </DataArray> 
      <DataArray type="Float64" NumberOfComponents="2" Name="Velocity" format="ascii">
0 0
0 0
0 0
0 0
0 0
0 0
0 0
0 0
0 0
0 0
0 0
0 0
0 0
0 0
0 0
0 0
0 0
0 0
0 0
0 0
0 0
0 0
0 0
0 0
0 0
0 0
0 0
0 0
0 0
0 0
0 0
0 0
0 0
0 0
0 0
0 0
0 0
0 0
0 0
0 0
0 0
0 0
0 0
0 0
0 0
0 0
0 0
0 0
0 0
0 0
0 0
0 0
0 0
0 0
0 0
0 0
0 0
0 0
0 0
0 0
0 0
0 0
0 0
0 0
0 0
0 0
0 0
0 0
0 0
0 0
0 0
0 0
0 0
0 0
0 0
0 0
0 0
0 0
0 0
0 0
0 0
0 0
0 0
0 0
0 0
0 0
0 0
0 0
0 0
0 0
0 0
0 0
0 0
0 0
0 0
0 0
0 0
0 0
0 0
0 0
0 0
0 0
0 0
0 0
0 0
0 0
0 0
0 0
0 0
0 0
0 0
0 0
0 0
0 0
0 0
0 0
0 0
0 0
0 0
0 0
0 0
0 0
0 0
0 0
0 0
0 0
0 0
0 0
0 0
0 0
0 0
0 0
0 0
0 0
0 0
0 0
0 0
0 0
0 0
0 0
0 0
0 0
0 0
0 0
0 0
0 0
0 0
0 0
0 0
0 0
0 0
0 0
0 0
0 0
0 0
0 0
0 0
0 0
0 0
0 0
0 0
0 0
0 0
0 0
0 0
0 0
0 0
0 0
0 0
0 0
0 0
0 0
0 0
0 0
0 0
0 0
0 0
0 0
0 0
0 0
0 0
0 0
0 0
0 0
0 0
0 0
0 0
0 0
0 0
0 0
0 0
0 0
0 0
0 0
0 0
0 0
0 0
0 0
0 0
0 0
0 0
0 0
0 0
0 0
0 0
0 0
0 0
0 0
0 0
0 0
0 0
0 0
0 0
0 0
0 0
0 0
0 0
0 0
0 0
0 0
0 0
0 0
0 0
0 0
0 0
0 0
0 0
0 0
0 0
0 0
0 0
0 0
0 0
0 0
0 0
0 0
0 0
0 0
0 0
0 0
0 0
0 0
0 0
0 0
0 0
0 0
0 0
0 0
0 0
0 0
0 0
0 0
0 0
0 0
0 0
0 0
0 0
0 0
0 0
0 0
0 0
0 0
0 0
0 0
0 0
0 0
0 0
0 0
0 0
0 0
0 0
0 0
0 0
0 0
0 0
0 0
0 0
0 0
0 0
0 0
0 0
0 0
0 0
0 0
0 0
0 0
0 0
0 0
0 0
0 0
0 0
0 0
0 0
0 0
0 0
0 0
0 0
0 0
0 0
0 0
0 0
0 0
0 0
0 0
0 0
0 0
0 0
0 0
0 0
0 0
0 0
0 0
0 0
0 0
0 0
0 0
0 0
0 0
0 0
0 0
0 0
0 0
0 0
0 0
0 0
0 0
0 0
0 0
0 0
0 0
0 0
0 0
0 0
0 0
0 0
0 0
0 0
0 0
0 0
0 0
0 0
0 0
0 0
0 0
0 0
0 0
0 0
0 0
0 0
0 0
0 0
0 0
0 0
0 0
0 0
0 0
0 0
0 0
0 0
0 0
0 0
0 0
0 0
0 0
0 0
0 0
0 0
0 0
0 0
0 0
0 0
0 0
0 0
0 0
0 0
0 0
0 0
0 0
0 0
0 0
0 0
0 0
0 0
0 0
0 0
0 0
0 0
0 0
0 0
0 0
0 0
0 0
0 0
0 0
0 0
0 0
0 0
0 0
0 0
0 0
0 0
0 0
0 0
0 0
0 0
0 0
0 0
0 0
0 0
0 0
0 0
0 0
0 0
0 0
0 0
0 0
0 0
0 0
0 0
0 0
0 0
0 0
0 0
0 0
0 0
0 0
0 0
0 0
0 0
0 0
0 0
0 0
0 0
0 0
0 0
0 0
0 0
0 0
0 0
0 0
0 0
0 0
0 0
0 0
0 0
0 0
0 0
0 0
0 0
0 0
0 0
0 0
0 0
0 0
0 0
0 0
0 0
0 0
0 0
0 0
0 0
0 0
0 0
0 0
0 0
0 0
0 0
0 0
0 0
0 0
0 0
0 0
0 0
0 0
0 0
0 0
0 0
0 0
0 0
0 0
0 0
0 0
0 0
0 0
0 0
0 0
0 0
0 0
0 0
0 0
0 0
0 0
0 0
0 0
0 0
0 0
0 0
0 0
0 0
0 0
0 0
0 0
0 0
0 0
0 0
0 0
0 0
0 0
0 0
0 0
0 0
0 0
0 0
0 0
0 0
0 0
0 0
0 0
0 0
0 0
0 0
0 0
0 0
0 0
0 0
0 0
0 0
0 0
0 0
0 0
0 0
0 0
0 0
0 0
0 0
0 0
0 0
0 0
0 0
0 0
0 0
0 0
0 0
0 0
0 0
0 0
0 0
0 0
0 0
0 0
0 0
0 0
0 0
0 0
0 0
0 0
0 0
0 0
0 0
0 0
0 0
0 0
0 0
0 0
0 0
0 0
0 0
0 0
0 0
0 0
0 0
0 0
0 0
0 0
0 0
0 0
0 0
0 0
0 0
0 0
0 0
0 0
0 0
0 0
0 0
0 0
0 0
0 0
0 0
0 0
0 0
0 0
0 0
0 0
0 0
0 0
0 0
0 0
0 0
0 0
0 0
0 0
0 0
0 0
0 0
0 0
0 0
0 0
0 0
0 0
0 0
0 0
0 0
0 0
0 0
0 0
0 0
0 0
0 0
0 0
0 0
0 0
0 0
0 0
0 0
0 0
0 0
0 0
0 0
0 0
0 0
0 0
0 0
0 0
0 0
0 0
0 0
0 0
0 0
0 0
0 0
0 0
0 0
0 0
0 0
0 0
0 0
0 0
0 0
0 0
0 0
0 0
0 0
0 0
0 0
0 0
0 0
0 0
0 0
0 0
0 0
0 0
0 0
0 0
0 0
0 0
0 0
0 0
0 0
0 0
0 0
0 0
0 0
0 0
0 0
0 0
0 0
0 0
0 0
0 0
0 0
0 0
0 0
0 0
0 0
0 0
0 0
0 0
0 0
0 0
0 0
0 0
0 0
0 0
0 0
0 0
0 0
0 0
0 0
0 0
0 0
0 0
0 0
0 0
0 0
0 0
0 0
0 0
0 0
0 0
0 0
0 0
0 0
0 0
0 0
0 0
0 0
0 0
0 0
0 0
0 0
0 0
0 0
0 0
0 0
0 0
0 0
0 0
0 0
0 0
0 0
0 0
0 0
0 0
0 0
0 0
0 0
0 0
0 0
0 0
0 0
0 0
0 0
0 0
0 0
0 0
0 0
0 0
0 0
0 0
0 0
0 0
0 0
0 0
0 0
0 0
0 0
0 0
0 0
0 0
0 0
0 0
0 0
0 0
0 0
0 0
0 0
0 0
0 0
0 0
0 0
0 0
0 0
0 0
0 0
0 0
0 0
0 0
0 0
0 0
0 0
0 0
0 0
0 0
0 0
0 0
0 0
0 0
0 0
0 0
0 0
0 0
0 0
0 0
0 0
0 0
0 0
0 0
0 0
0 0
0 0
0 0
0 0
0 0
0 0
0 0
0 0
0 0
0 0
0 0
0 0
0 0
0 0
0 0
0 0
0 0
0 0
0 0
0 0
0 0
0 0
0 0
0 0
0 0
0 0
0 0
0 0
0 0
0 0
0 0
0 0
0 0
0 0
0 0
0 0
0 0
0 0
0 0
0 0
0 0
0 0
0 0
0 0
0 0
0 0
0 0
0 0
0 0
0 0
0 0
0 0
0 0
0 0
0 0
0 0
0 0
0 0
0 0
0 0
0 0
0 0
0 0
0 0
0 0
0 0
0 0
0 0
0 0
0 0
0 0
0 0
0 0
0 0
0 0
0 0
0 0
0 0
0 0
0 0
0 0
0 0
0 0
0 0
0 0
0 0
0 0
0 0
0 0
0 0
0 0
0 0
0 0
0 0
0 0
0 0
0 0
0 0
0 0
0 0
0 0
0 0
0 0
0 0
0 0
0 0
0 0
0 0
0 0
0 0
0 0
0 0
0 0
0 0
0 0
0 0
0 0
0 0
0 0
0 0
0 0
0 0
0 0
0 0
0 0
0 0
0 0
0 0
0 0
0 0
0 0
0 0
0 0
0 0
0 0
0 0
0 0
0 0
0 0
0 0
0 0
0 0
0 0
0 0
0 0
0 0
0 0
0 0
0 0
0 0
0 0
0 0
0 0
0 0
0 0
0 0
0 0
0 0
0 0
0 0
0 0
0 0
0 0
0 0
0 0
0 0
0 0
0 0
0 0
0 0
0 0
0 0
0 0
0 0
0 0
0 0
0 0
0 0
0 0
0 0
0 0
0 0
0 0
0 0
0 0
0 0
0 0
0 0
0 0
0 0
0 0
0 0
0 0
0 0
0 0
0 0
0 0
0 0
0 0
0 0
0 0
0 0
0 0
0 0
0 0
0 0
0 0
0 0
0 0
0 0
0 0
0 0
0 0
0 0
0 0
0 0
0 0
0 0
0 0
0 0
0 0
0 0
0 0
0 0
0 0
0 0
0 0
0 0
0 0
0 0
0 0
0 0
0 0
0 0
0 0
0 0
0 0
0 0
0 0
0 0
0 0
0 0
0 0
0 0
0 0
0 0
0 0
0 0
0 0
0 0
0 0
0 0
0 0
0 0
0 0
0 0
0 0
0 0
0 0
0 0
0 0
0 0
0 0
0 0
0 0
0 0
0 0
0 0
0 0
0 0
0 0
0 0
0 0
0 0
0 0
0 0
0 0
0 0
0 0
0 0
0 0
0 0
0 0
0 0
0 0
0 0
0 0
0 0
0 0
0 0
0 0
0 0
0 0
0 0
0 0
0 0
0 0
0 0
0 0
0 0
0 0
0 0
0 0
0 0
0 0
0 0
0 0
0 0
0 0
0 0
0 0
0 0
0 0
0 0
0 0
0 0
0 0
0 0
0 0
0 0
0 0
0 0
0 0
0 0
0 0
0 0
0 0
0 0
0 0
0 0
0 0
0 0
0 0
0 0
0 0
0 0
0 0
0 0
0 0
0 0
0 0
0 0
0 0
0 0
0 0
0 0
0 0
0 0
0 0
0 0
0 0
0 0
0 0
0 0
0 0
0 0
0 0
0 0
0 0
0 0
0 0
0 0
0 0
0 0
0 0
0 0
0 0
0 0
0 0
0 0
0 0
0 0
0 0
0 0
0 0
0 0
0 0
0 0
0 0
0 0
0 0
0 0
0 0
0 0
0 0
0 0
0 0
0 0
0 0
0 0
0 0
0 0
0 0
0 0
0 0
0 0
0 0
0 0
0 0
0 0
0 0
0 0
0 0
0 0
0 0
0 0
0 0
0 0
0 0
0 0
0 0
0 0
0 0
0 0
0 0
0 0
0 0
0 0
0 0
0 0
0 0
0 0
0 0
0 0
0 0
0 0
0 0
0 0
0 0
0 0
0 0
0 0
0 0
0 0
0 0
0 0
0 0
0 0
0 0
0 0
0 0
0 0
0 0
0 0
0 0
0 0
0 0
0 0
0 0
0 0
0 0
0 0
0 0
0 0
0 0
0 0
0 0
0 0
0 0
0 0
0 0
0 0
0 0
0 0
0 0
0 0
0 0
0 0
0 0
0 0
0 0
0 0
0 0
0 0
0 0
0 0
0 0
0 0
0 0
0 0
0 0
0 0
0 0
0 0
0 0
0 0
0 0
0 0
0 0
0 0
0 0
0 0
0 0
0 0
0 0
0 0
0 0
0 0
0 0
0 0
0 0
0 0
0 0
0 0
0 0
0 0
0 0
0 0
0 0
0 0
0 0
0 0
0 0
0 0
0 0
0 0
0 0
0 0
0 0
0 0
0 0
0 0
0 0
0 0
0 0
0 0
0 0
0 0
0 0
0 0
0 0
0 0
0 0
0 0
0 0
0 0
0 0
0 0
0 0
0 0
0 0
0 0
0 0
0 0
0 0
0 0
0 0
0 0
0 0
0 0
0 0
0 0
0 0
0 0
0 0
0 0
0 0
0 0
0 0
0 0
0 0
0 0
0 0
0 0
0 0
0 0
0 0
0 0
0 0
0 0
0 0
0 0
0 0
0 0
0 0
0 0
0 0
0 0
0 0
0 0
0 0
0 0
0 0
0 0
0 0
0 0
0 0
0 0
0 0
0 0
0 0
0 0
0 0
0 0
0 0
0 0
0 0
0 0
0 0
0 0
0 0
0 0
0 0
0 0
0 0
0 0
0 0
0 0
0 0
0 0
0 0
0 0
0 0
0 0
0 0
0 0
0 0
0 0
0 0
0 0
0 0
0 0
0 0
0 0
0 0
0 0
0 0
0 0
0 0
0 0
0 0
0 0
0 0
0 0
0 0
0 0
0 0
0 0
0 0
0 0
0 0
0 0
0 0
0 0
0 0
0 0
0 0
0 0
0 0
0 0
0 0
0 0
0 0
0 0
0 0
0 0
0 0
0 0
0 0
0 0
0 0
0 0
0 0
0 0
0 0
0 0
0 0
0 0
0 0
0 0
0 0
0 0
0 0
0 0
0 0
0 0
0 0
0 0
0 0
0 0
0 0
0 0
0 0
0 0
0 0
0 0
0 0
0 0
0 0
0 0
0 0
0 0
0 0
0 0
0 0
0 0
0 0
0 0
0 0
0 0
0 0
0 0
0 0
0 0
0 0
0 0
0 0
0 0
0 0
0 0
0 0
0 0
0 0
0 0
0 0
0 0
0 0
0 0
0 0
0 0
0 0
0 0
0 0
0 0
0 0
0 0
0 0
0 0
0 0
0 0
0 0
0 0
0 0
0 0
0 0
0 0
0 0
0 0
0 0
0 0
0 0
0 0
0 0
0 0
0 0
0 0
0 0
0 0
0 0
0 0
0 0
0 0
0 0
0 0
0 0
0 0
0 0
0 0
0 0
0 0
0 0
0 0
0 0
0 0
0 0
0 0
0 0
0 0
0 0
0 0
0 0
0 0
0 0
0 0
0 0
0 0
0 0
0 0
0 0
0 0
0 0
0 0
0 0
0 0
0 0
0 0
0 0
0 0
0 0
0 0
0 0
0 0
0 0
0 0
0 0
0 0
0 0
0 0
0 0
0 0
0 0
0 0
0 0
0 0
0 0
0 0
0 0
0 0
0 0
0 0
0 0
0 0
0 0
0 0
0 0
0 0
0 0
0 0
0 0
0 0
0 0
0 0
0 0
0 0
0 0
0 0
0 0
0 0
0 0
0 0
0 0
0 0
0 0
0 0
0 0
0 0
0 0
0 0
0 0
0 0
0 0
0 0
0 0
0 0
0 0
0 0
0 0
0 0
0 0
0 0
0 0
0 0
0 0
0 0
0 0
0 0
0 0
0 0
0 0
0 0
0 0
0 0
0 0
0 0
0 0
0 0
0 0
0 0
0 0
0 0
0 0
0 0
0 0
0 0
0 0
0 0
0 0
0 0
0 0
0 0
0 0
0 0
0 0
0 0
0 0
0 0
0 0
0 0
0 0
0 0
0 0
0 0
0 0
0 0
0 0
0 0
0 0
0 0
0 0
0 0
0 0
0 0
0 0
0 0
0 0
0 0
0 0
0 0
0 0
0 0
0 0
0 0
0 0
0 0
0 0
0 0
0 0
0 0
0 0
0 0
0 0
0 0
0 0
0 0
0 0
0 0
0 0
0 0
0 0
0 0
0 0
0 0
0 0
0 0
0 0
0 0
0 0
0 0
0 0
0 0
0 0
0 0
0 0
0 0
0 0
0 0
0 0
0 0
0 0
0 0
0 0
0 0
0 0
0 0
0 0
0 0
0 0
0 0
0 0
0 0
0 0
0 0
0 0
0 0
0 0
0 0
0 0
0 0
0 0
0 0
0 0
0 0
0 0
0 0
0 0
0 0
0 0
0 0
0 0
0 0
0 0
0 0
0 0
0 0
0 0
0 0
0 0
0 0
0 0
0 0
0 0
0 0
0 0
0 0
0 0
0 0
0 0
0 0
0 0
0 0
0 0
0 0
0 0
0 0
0 0
0 0
0 0
0 0
0 0
0 0
0 0
0 0
0 0
0 0
0 0
0 0
0 0
0 0
0 0
0 0
0 0
0 0
0 0
0 0
0 0
0 0
0 0
0 0
0 0
0 0
0 0
0 0
0 0
0 0
0 0
0 0
0 0
0 0
0 0
0 0
0 0
0 0
0 0
0 0
0 0
0 0
0 0
0 0
0 0
0 0
0 0
0 0
0 0
0 0
0 0
0 0
0 0
0 0
0 0
0 0
0 0
0 0
0 0
0 0
0 0
0 0
0 0
0 0
0 0
0 0
0 0
0 0
0 0
0 0
0 0
0 0
0 0
0 0
0 0
0 0
0 0
0 0
0 0
0 0
0 0
0 0
0 0
0 0
0 0
0 0
0 0
0 0
0 0
0 0
0 0
0 0
0 0
0 0
0 0
0 0
0 0
0 0
0 0
0 0
0 0
0 0
0 0
0 0
0 0
0 0
0 0
0 0
0 0
0 0
0 0
0 0
0 0
0 0
0 0
0 0
0 0
0 0
0 0
0 0
0 0
0 0
0 0
0 0
0 0
0 0
0 0
0 0
0 0
0 0
0 0
0 0
0 0
0 0
0 0
0 0
0 0
0 0
0 0
0 0
0 0
0 0
0 0
0 0
0 0
0 0
0 0
0 0
0 0
0 0
0 0
0 0
0 0
0 0
0 0
0 0
0 0
0 0
0 0
0 0
0 0
0 0
0 0
0 0
0 0
0 0
0 0
0 0
0 0
0 0
0 0
0 0
0 0
0 0
0 0
0 0
0 0
0 0
0 0
0 0
0 0
0 0
0 0
0 0
0 0
0 0
0 0
0 0
0 0
0 0
0 0
0 0
0 0
0 0
0 0
0 0
0 0
0 0
0 0
0 0
0 0
0 0
0 0
0 0
0 0
0 0
0 0
0 0
0 0
0 0
0 0
0 0
0 0
0 0
0 0
0 0
0 0
0 0
0 0
0 0
0 0
0 0
0 0
0 0
0 0
0 0
0 0
0 0
0 0
0 0
0 0
0 0
0 0
0 0
0 0
0 0
0 0
0 0
0 0
0 0
0 0
0 0
0 0
0 0
0 0
0 0
0 0
0 0
0 0
0 0
0 0
0 0
0 0
0 0
0 0
0 0
0 0
0 0
0 0
0 0
0 0
0 0
0 0
0 0
0 0
0 0
0 0
0 0
0 0
0 0
0 0
0 0
0 0
0 0
0 0
0 0
0 0
0 0
0 0
0 0
0 0
0 0
0 0
0 0
0 0
0 0
0 0
0 0
0 0
0 0
0 0
0 0
0 0
0 0
0 0
0 0
0 0
0 0
0 0
0 0
0 0
0 0
0 0
0 0
0 0
0 0
0 0
0 0
0 0
0 0
0 0
0 0
0 0
0 0
0 0
0 0
0 0
0 0
0 0
0 0
0 0
0 0
0 0
0 0
0 0
0 0
0 0
0 0
0 0
0 0
0 0
0 0
0 0
0 0
0 0
0 0
0 0
0 0
0 0
0 0
0 0
0 0
0 0
0 0
0 0
0 0
0 0
0 0
0 0
0 0
0 0
0 0
0 0
0 0
0 0
0 0
0 0
0 0
0 0
0 0
0 0
0 0
0 0
0 0
0 0
0 0
0 0
0 0
0 0
0 0
0 0
0 0
0 0
0 0
0 0
0 0
0 0
0 0
0 0
0 0
0 0
0 0
0 0
0 0
0 0
0 0
0 0
0 0
0 0
0 0
0 0
0 0
0 0
0 0
0 0
0 0
0 0
0 0
0 0
0 0
0 0
0 0
0 0
0 0
0 0
0 0
0 0
0 0
0 0
0 0
0 0
0 0
0 0
0 0
0 0
0 0
0 0
0 0
0 0
0 0
0 0
0 0
0 0
0 0
0 0
0 0
0 0
0 0
0 0
0 0
0 0
0 0
0 0
0 0
0 0
0 0
0 0
0 0
0 0
0 0
0 0
0 0
0 0
0 0
0 0
0 0
0 0
0 0
0 0
0 0
0 0
0 0
0 0
0 0
0 0
0 0
0 0
0 0
0 0
0 0
0 0
0 0
0 0
0 0
0 0
0 0
0 0
0 0
0 0
0 0
0 0
0 0
0 0
0 0
0 0
0 0
0 0
0 0
0 0
0 0
0 0
0 0
0 0
0 0
0 0
0 0
0 0
0 0
0 0
0 0
0 0
0 0
0 0
0 0
0 0
0 0
0 0
0 0
0 0
0 0
0 0
0 0
0 0
0 0
0 0
0 0
0 0
0 0
0 0
0 0
0 0
0 0
0 0
0 0
0 0
0 0
0 0
0 0
0 0
0 0
0 0
0 0
0 0
0 0
0 0
0 0
0 0
0 0
0 0
0 0
0 0
0 0
0 0
0 0
0 0
0 0
0 0
0 0
0 0
0 0
0 0
0 0
0 0
0 0
0 0
0 0
0 0
0 0
0 0
0 0
0 0
0 0
0 0
0 0
0 0
0 0
0 0
0 0
0 0
0 0
0 0
0 0
0 0
0 0
0 0
0 0
0 0
0 0
0 0
0 0
0 0
0 0
0 0
0 0
0 0
0 0
0 0
0 0
0 0
0 0
0 0
0 0
0 0
0 0
0 0
0 0
0 0
0 0
0 0
0 0
0 0
0 0
0 0
0 0
0 0
0 0
0 0
0 0
0 0
0 0
0 0
0 0
0 0
0 0
0 0
0 0
0 0
0 0
0 0
0 0
0 0
0 0
0 0
0 0
0 0
0 0
0 0
0 0
0 0
0 0
0 0
0 0
0 0
0 0
0 0
0 0
0 0
0 0
0 0
0 0
0 0
0 0
0 0
0 0
0 0
0 0
0 0
0 0
0 0
0 0
0 0
0 0
0 0
0 0
0 0
0 0
0 0
0 0
0 0
0 0
0 0
0 0
0 0
0 0
0 0
0 0
0 0
0 0
0 0
0 0
0 0
0 0
0 0
0 0
0 0
0 0
0 0
0 0
0 0
0 0
0 0
0 0
0 0
0 0
0 0
0 0
0 0
0 0
0 0
0 0
0 0
0 0
0 0
0 0
0 0
0 0
0 0
0 0
0 0
0 0
0 0
0 0
0 0
0 0
0 0
0 0
0 0
0 0
0 0
0 0
0 0
0 0
0 0
0 0
0 0
0 0
0 0
0 0
0 0
0 0
0 0
0 0
0 0
0 0
0 0
0 0
0 0
0 0
0 0
0 0
0 0
0 0
0 0
0 0
0 0
0 0
0 0
0 0
0 0
0 0
0 0
0 0
0 0
0 0
0 0
0 0
0 0
0 0
0 0
0 0
0 0
0 0
0 0
0 0
0 0
0 0
0 0
0 0
0 0
0 0
0 0
0 0
0 0
0 0
0 0
0 0
0 0
0 0
0 0
0 0
0 0
0 0
0 0
0 0
0 0
0 0
0 0
0 0
0 0
0 0
0 0
0 0
0 0
0 0
0 0
0 0
0 0
0 0
0 0
0 0
0 0
0 0
0 0
0 0
0 0
0 0
0 0
0 0
0 0
0 0
0 0
0 0
0 0
0 0
0 0
0 0
0 0
0 0
0 0
0 0
0 0
0 0
0 0
0 0
0 0
0 0
0 0
0 0
0 0
0 0
0 0
0 0
0 0
0 0
0 0
0 0
0 0
0 0
0 0
0 0
0 0
0 0
0 0
0 0
0 0
0 0
0 0
0 0
0 0
0 0
0 0
0 0
0 0
0 0
0 0
0 0
0 0
0 0
0 0
0 0
0 0
0 0
0 0
0 0
0 0
0 0
0 0
0 0
0 0
0 0
0 0
0 0
0 0
0 0
0 0
0 0
0 0
0 0
0 0
0 0
0 0
0 0
0 0
0 0
0 0
0 0
0 0
0 0
0 0
0 0
0 0
0 0
0 0
0 0
0 0
0 0
0 0
0 0
0 0
0 0
0 0
0 0
0 0
0 0
0 0
0 0
0 0
0 0
0 0
0 0
0 0
0 0
0 0
0 0
0 0
0 0
0 0
0 0
0 0
0 0
0 0
0 0
0 0
0 0
0 0
0 0
0 0
0 0
0 0
0 0
0 0
0 0
0 0
0 0
0 0
0 0
0 0
0 0
0 0
0 0
0 0
0 0
0 0
0 0
0 0
0 0
0 0
0 0
0 0
0 0
0 0
0 0
0 0
0 0
0 0
0 0
0 0
0 0
0 0
0 0
0 0
0 0
0 0
0 0
0 0
0 0
0 0
0 0
0 0
0 0
0 0
0 0
0 0
0 0
0 0
0 0
0 0
0 0
0 0
0 0
0 0
0 0
0 0
0 0
0 0
0 0
0 0
0 0
0 0
0 0
0 0
0 0
0 0
0 0
0 0
0 0
0 0
0 0
0 0
0 0
0 0
0 0
0 0
0 0
0 0
0 0
0 0
0 0
0 0
0 0
0 0
0 0
0 0
0 0
0 0
0 0
0 0
0 0
0 0
0 0
0 0
0 0
0 0
0 0
0 0
0 0
0 0
0 0
0 0
0 0
0 0
0 0
0 0
0 0
0 0
0 0
0 0
0 0
0 0
0 0
0 0
0 0
0 0
0 0
0 0
0 0
0 0
0 0
0 0
0 0
0 0
0 0
0 0
0 0
0 0
0 0
0 0
0 0
0 0
0 0
0 0
0 0
0 0
0 0
0 0
0 0
0 0
0 0
0 0
0 0
0 0
0 0
0 0
0 0
0 0
0 0
0 0
0 0
0 0
0 0
0 0
0 0
0 0
0 0
0 0
0 0
0 0
0 0
0 0
0 0
0 0
0 0
0 0
0 0
0 0
0 0
0 0
0 0
0 0
0 0
0 0
0 0
0 0
0 0
0 0
0 0
0 0
0 0
0 0
0 0
0 0
0 0
0 0
0 0
0 0
0 0
0 0
0 0
0 0
0 0
0 0
0 0
0 0
0 0
0 0
0 0
0 0
0 0
0 0
0 0
0 0
0 0
0 0
0 0
0 0
0 0
0 0
0 0
0 0
0 0
0 0
0 0
0 0
0 0
0 0
0 0
0 0
0 0
0 0
0 0
0 0
0 0
0 0
0 0
0 0
0 0
0 0
0 0
0 0
0 0
0 0
0 0
0 0
0 0
0 0
0 0
0 0
0 0
0 0
0 0
0 0
0 0
0 0
0 0
0 0
0 0
0 0
0 0
0 0
0 0
0 0
0 0
0 0
0 0
0 0
0 0
0 0
0 0
0 0
0 0
0 0
0 0
0 0
0 0
0 0
0 0
0 0
0 0
0 0
0 0
0 0
0 0
0 0
0 0
0 0
0 0
0 0
0 0
0 0
0 0
0 0
0 0
0 0
0 0
0 0
0 0
0 0
0 0
0 0
0 0
0 0
0 0
0 0
0 0
0 0
0 0
0 0
0 0
0 0
0 0
0 0
0 0
0 0
0 0
0 0
0 0
0 0
0 0
0 0
0 0
0 0
0 0
0 0
0 0
0 0
0 0
0 0
0 0
0 0
0 0
0 0
0 0
0 0
0 0
0 0
0 0
0 0
0 0
0 0
0 0
0 0
0 0
0 0
0 0
0 0
0 0
0 0
0 0
0 0
0 0
0 0
0 0
0 0
0 0
0 0
0 0
0 0
0 0
0 0
0 0
0 0
0 0
0 0
0 0
0 0
0 0
0 0
0 0
0 0
0 0
0 0
0 0
0 0
0 0
0 0
0 0
0 0
0 0
0 0
0 0
0 0
0 0
0 0
0 0
0 0
0 0
0 0
0 0
0 0
0 0
0 0
0 0
0 0
0 0
0 0
0 0
0 0
0 0
0 0
0 0
0 0
0 0
0 0
0 0
0 0
0 0
0 0
0 0
0 0
0 0
0 0
0 0
0 0
0 0
0 0
0 0
0 0
0 0
0 0
0 0
0 0
0 0
0 0
0 0
0 0
0 0
0 0
0 0
0 0
0 0
0 0
0 0
0 0
0 0
0 0
0 0
0 0
0 0
0 0
0 0
0 0
0 0
0 0
0 0
0 0
0 0
0 0
0 0
0 0
0 0
0 0
0 0
0 0
0 0
0 0
0 0
0 0
0 0
0 0
0 0
0 0
0 0
0 0
0 0
0 0
0 0
0 0
0 0
0 0
0 0
0 0
0 0
0 0
0 0
0 0
0 0
0 0
0 0
0 0
0 0
0 0
0 0
0 0
0 0
0 0
0 0
0 0
0 0
0 0
0 0
0 0
0 0
0 0
0 0
0 0
0 0
0 0
0 0
0 0
0 0
0 0
0 0
0 0
0 0
0 0
0 0
0 0
0 0
0 0
0 0
0 0
0 0
0 0
0 0
0 0
0 0
0 0
0 0
0 0
0 0
0 0
0 0
0 0
0 0
0 0
0 0
0 0
0 0
0 0
0 0
0 0
0 0
0 0
0 0
0 0
0 0
0 0
0 0
0 0
0 0
0 0
0 0
0 0
0 0
0 0
0 0
0 0
0 0
0 0
0 0
0 0
0 0
0 0
0 0
0 0
0 0
0 0
0 0
0 0
0 0
0 0
0 0
0 0
0 0
0 0
0 0
0 0
0 0
0 0
0 0
0 0
0 0
0 0
0 0
0 0
0 0
0 0
0 0
0 0
0 0
0 0
0 0
0 0
0 0
0 0
0 0
0 0
0 0
0 0
0 0
0 0
0 0
0 0
0 0
0 0
0 0
0 0
0 0
0 0
0 0
0 0
0 0
0 0
0 0
0 0
0 0
0 0
0 0
0 0
0 0
0 0
0 0
0 0
0 0
0 0
0 0
0 0
0 0
0 0
0 0
0 0
0 0
0 0
0 0
0 0
0 0
0 0
0 0
0 0
0 0
0 0
0 0
0 0
0 0
0 0
0 0
0 0
0 0
0 0
0 0
0 0
0 0
0 0
0 0
0 0
0 0
0 0
0 0
0 0
0 0
0 0
0 0
0 0
0 0
0 0
0 0
0 0
0 0
0 0
0 0
0 0
0 0
0 0
0 0
0 0
0 0
0 0
0 0
0 0
0 0
0 0
0 0
0 0
0 0
0 0
0 0
0 0
0 0
0 0
0 0
0 0
0 0
0 0
0 0
0 0
0 0
0 0
0 0
0 0
0 0
0 0
0 0
0 0
0 0
0 0
0 0
0 0
0 0
0 0
0 0
0 0
0 0
0 0
0 0
0 0
0 0
0 0
0 0
0 0
0 0
0 0
0 0
0 0
0 0
0 0
0 0
0 0
0 0
0 0
0 0
0 0
0 0
0 0
0 0
0 0
0 0
0 0
0 0
0 0
0 0
0 0
0 0
0 0
0 0
0 0
0 0
0 0
0 0
0 0
0 0
0 0
0 0
0 0
0 0
0 0
0 0
0 0
0 0
0 0
0 0
0 0
0 0
0 0
0 0
0 0
0 0
0 0
0 0
0 0
0 0
0 0
0 0
0 0
0 0
0 0
0 0
0 0
0 0
0 0
0 0
0 0
0 0
0 0
0 0
0 0
0 0
0 0
0 0
0 0
0 0
0 0
0 0
0 0
0 0
      </DataArray> 
      <DataArray type="Float64" NumberOfComponents="2" Name="Acceleration" format="ascii">
0 0
0 0
0 0
0 0
0 0
0 0
0 0
0 0
0 0
0 0
0 0
0 0
0 0
0 0
0 0
0 0
0 0
0 0
0 0
0 0
0 0
0 0
0 0
0 0
0 0
0 0
0 0
0 0
0 0
0 0
0 0
0 0
0 0
0 0
0 0
0 0
0 0
0 0
0 0
0 0
0 0
0 0
0 0
0 0
0 0
0 0
0 0
0 0
0 0
0 0
0 0
0 0
0 0
0 0
0 0
0 0
0 0
0 0
0 0
0 0
0 0
0 0
0 0
0 0
0 0
0 0
0 0
0 0
0 0
0 0
0 0
0 0
0 0
0 0
0 0
0 0
0 0
0 0
0 0
0 0
0 0
0 0
0 0
0 0
0 0
0 0
0 0
0 0
0 0
0 0
0 0
0 0
0 0
0 0
0 0
0 0
0 0
0 0
0 0
0 0
0 0
0 0
0 0
0 0
0 0
0 0
0 0
0 0
0 0
0 0
0 0
0 0
0 0
0 0
0 0
0 0
0 0
0 0
0 0
0 0
0 0
0 0
0 0
0 0
0 0
0 0
0 0
0 0
0 0
0 0
0 0
0 0
0 0
0 0
0 0
0 0
0 0
0 0
0 0
0 0
0 0
0 0
0 0
0 0
0 0
0 0
0 0
0 0
0 0
0 0
0 0
0 0
0 0
0 0
0 0
0 0
0 0
0 0
0 0
0 0
0 0
0 0
0 0
0 0
0 0
0 0
0 0
0 0
0 0
0 0
0 0
0 0
0 0
0 0
0 0
0 0
0 0
0 0
0 0
0 0
0 0
0 0
0 0
0 0
0 0
0 0
0 0
0 0
0 0
0 0
0 0
0 0
0 0
0 0
0 0
0 0
0 0
0 0
0 0
0 0
0 0
0 0
0 0
0 0
0 0
0 0
0 0
0 0
0 0
0 0
0 0
0 0
0 0
0 0
0 0
0 0
0 0
0 0
0 0
0 0
0 0
0 0
0 0
0 0
0 0
0 0
0 0
0 0
0 0
0 0
0 0
0 0
0 0
0 0
0 0
0 0
0 0
0 0
0 0
0 0
0 0
0 0
0 0
0 0
0 0
0 0
0 0
0 0
0 0
0 0
0 0
0 0
0 0
0 0
0 0
0 0
0 0
0 0
0 0
0 0
0 0
0 0
0 0
0 0
0 0
0 0
0 0
0 0
0 0
0 0
0 0
0 0
0 0
0 0
0 0
0 0
0 0
0 0
0 0
0 0
0 0
0 0
0 0
0 0
0 0
0 0
0 0
0 0
0 0
0 0
0 0
0 0
0 0
0 0
0 0
0 0
0 0
0 0
0 0
0 0
0 0
0 0
0 0
0 0
0 0
0 0
0 0
0 0
0 0
0 0
0 0
0 0
0 0
0 0
0 0
0 0
0 0
0 0
0 0
0 0
0 0
0 0
0 0
0 0
0 0
0 0
0 0
0 0
0 0
0 0
0 0
0 0
0 0
0 0
0 0
0 0
0 0
0 0
0 0
0 0
0 0
0 0
0 0
0 0
0 0
0 0
0 0
0 0
0 0
0 0
0 0
0 0
0 0
0 0
0 0
0 0
0 0
0 0
0 0
0 0
0 0
0 0
0 0
0 0
0 0
0 0
0 0
0 0
0 0
0 0
0 0
0 0
0 0
0 0
0 0
0 0
0 0
0 0
0 0
0 0
0 0
0 0
0 0
0 0
0 0
0 0
0 0
0 0
0 0
0 0
0 0
0 0
0 0
0 0
0 0
0 0
0 0
0 0
0 0
0 0
0 0
0 0
0 0
0 0
0 0
0 0
0 0
0 0
0 0
0 0
0 0
0 0
0 0
0 0
0 0
0 0
0 0
0 0
0 0
0 0
0 0
0 0
0 0
0 0
0 0
0 0
0 0
0 0
0 0
0 0
0 0
0 0
0 0
0 0
0 0
0 0
0 0
0 0
0 0
0 0
0 0
0 0
0 0
0 0
0 0
0 0
0 0
0 0
0 0
0 0
0 0
0 0
0 0
0 0
0 0
0 0
0 0
0 0
0 0
0 0
0 0
0 0
0 0
0 0
0 0
0 0
0 0
0 0
0 0
0 0
0 0
0 0
0 0
0 0
0 0
0 0
0 0
0 0
0 0
0 0
0 0
0 0
0 0
0 0
0 0
0 0
0 0
0 0
0 0
0 0
0 0
0 0
0 0
0 0
0 0
0 0
0 0
0 0
0 0
0 0
0 0
0 0
0 0
0 0
0 0
0 0
0 0
0 0
0 0
0 0
0 0
0 0
0 0
0 0
0 0
0 0
0 0
0 0
0 0
0 0
0 0
0 0
0 0
0 0
0 0
0 0
0 0
0 0
0 0
0 0
0 0
0 0
0 0
0 0
0 0
0 0
0 0
0 0
0 0
0 0
0 0
0 0
0 0
0 0
0 0
0 0
0 0
0 0
0 0
0 0
0 0
0 0
0 0
0 0
0 0
0 0
0 0
0 0
0 0
0 0
0 0
0 0
0 0
0 0
0 0
0 0
0 0
0 0
0 0
0 0
0 0
0 0
0 0
0 0
0 0
0 0
0 0
0 0
0 0
0 0
0 0
0 0
0 0
0 0
0 0
0 0
0 0
0 0
0 0
0 0
0 0
0 0
0 0
0 0
0 0
0 0
0 0
0 0
0 0
0 0
0 0
0 0
0 0
0 0
0 0
0 0
0 0
0 0
0 0
0 0
0 0
0 0
0 0
0 0
0 0
0 0
0 0
0 0
0 0
0 0
0 0
0 0
0 0
0 0
0 0
0 0
0 0
0 0
0 0
0 0
0 0
0 0
0 0
0 0
0 0
0 0
0 0
0 0
0 0
0 0
0 0
0 0
0 0
0 0
0 0
0 0
0 0
0 0
0 0
0 0
0 0
0 0
0 0
0 0
0 0
0 0
0 0
0 0
0 0
0 0
0 0
0 0
0 0
0 0
0 0
0 0
0 0
0 0
0 0
0 0
0 0
0 0
0 0
0 0
0 0
0 0
0 0
0 0
0 0
0 0
0 0
0 0
0 0
0 0
0 0
0 0
0 0
0 0
0 0
0 0
0 0
0 0
0 0
0 0
0 0
0 0
0 0
0 0
0 0
0 0
0 0
0 0
0 0
0 0
0 0
0 0
0 0
0 0
0 0
0 0
0 0
0 0
0 0
0 0
0 0
0 0
0 0
0 0
0 0
0 0
0 0
0 0
0 0
0 0
0 0
0 0
0 0
0 0
0 0
0 0
0 0
0 0
0 0
0 0
0 0
0 0
0 0
0 0
0 0
0 0
0 0
0 0
0 0
0 0
0 0
0 0
0 0
0 0
0 0
0 0
0 0
0 0
0 0
0 0
0 0
0 0
0 0
0 0
0 0
0 0
0 0
0 0
0 0
0 0
0 0
0 0
0 0
0 0
0 0
0 0
0 0
0 0
0 0
0 0
0 0
0 0
0 0
0 0
0 0
0 0
0 0
0 0
0 0
0 0
0 0
0 0
0 0
0 0
0 0
0 0
0 0
0 0
0 0
0 0
0 0
0 0
0 0
0 0
0 0
0 0
0 0
0 0
0 0
0 0
0 0
0 0
0 0
0 0
0 0
0 0
0 0
0 0
0 0
0 0
0 0
0 0
0 0
0 0
0 0
0 0
0 0
0 0
0 0
0 0
0 0
0 0
0 0
0 0
0 0
0 0
0 0
0 0
0 0
0 0
0 0
0 0
0 0
0 0
0 0
0 0
0 0
0 0
0 0
0 0
0 0
0 0
0 0
0 0
0 0
0 0
0 0
0 0
0 0
0 0
0 0
0 0
0 0
0 0
0 0
0 0
0 0
0 0
0 0
0 0
0 0
0 0
0 0
0 0
0 0
0 0
0 0
0 0
0 0
0 0
0 0
0 0
0 0
0 0
0 0
0 0
0 0
0 0
0 0
0 0
0 0
0 0
0 0
0 0
0 0
0 0
0 0
0 0
0 0
0 0
0 0
0 0
0 0
0 0
0 0
0 0
0 0
0 0
0 0
0 0
0 0
0 0
0 0
0 0
0 0
0 0
0 0
0 0
0 0
0 0
0 0
0 0
0 0
0 0
0 0
0 0
0 0
0 0
0 0
0 0
0 0
0 0
0 0
0 0
0 0
0 0
0 0
0 0
0 0
0 0
0 0
0 0
0 0
0 0
0 0
0 0
0 0
0 0
0 0
0 0
0 0
0 0
0 0
0 0
0 0
0 0
0 0
0 0
0 0
0 0
0 0
0 0
0 0
0 0
0 0
0 0
0 0
0 0
0 0
0 0
0 0
0 0
0 0
0 0
0 0
0 0
0 0
0 0
0 0
0 0
0 0
0 0
0 0
0 0
0 0
0 0
0 0
0 0
0 0
0 0
0 0
0 0
0 0
0 0
0 0
0 0
0 0
0 0
0 0
0 0
0 0
0 0
0 0
0 0
0 0
0 0
0 0
0 0
0 0
0 0
0 0
0 0
0 0
0 0
0 0
0 0
0 0
0 0
0 0
0 0
0 0
0 0
0 0
0 0
0 0
0 0
0 0
0 0
0 0
0 0
0 0
0 0
0 0
0 0
0 0
0 0
0 0
0 0
0 0
0 0
0 0
0 0
0 0
0 0
0 0
0 0
0 0
0 0
0 0
0 0
0 0
0 0
0 0
0 0
0 0
0 0
0 0
0 0
0 0
0 0
0 0
0 0
0 0
0 0
0 0
0 0
0 0
0 0
0 0
0 0
0 0
0 0
0 0
0 0
0 0
0 0
0 0
0 0
0 0
0 0
0 0
0 0
0 0
0 0
0 0
0 0
0 0
0 0
0 0
0 0
0 0
0 0
0 0
0 0
0 0
0 0
0 0
0 0
0 0
0 0
0 0
0 0
0 0
0 0
0 0
0 0
0 0
0 0
0 0
0 0
0 0
0 0
0 0
0 0
0 0
0 0
0 0
0 0
0 0
0 0
0 0
0 0
0 0
0 0
0 0
0 0
0 0
0 0
0 0
0 0
0 0
0 0
0 0
0 0
0 0
0 0
0 0
0 0
0 0
0 0
0 0
0 0
0 0
0 0
0 0
0 0
0 0
0 0
0 0
0 0
0 0
0 0
0 0
0 0
0 0
0 0
0 0
0 0
0 0
0 0
0 0
0 0
0 0
0 0
0 0
0 0
0 0
0 0
0 0
0 0
0 0
0 0
0 0
0 0
0 0
0 0
0 0
0 0
0 0
0 0
0 0
0 0
0 0
0 0
0 0
0 0
0 0
0 0
0 0
0 0
0 0
0 0
0 0
0 0
0 0
0 0
0 0
0 0
0 0
0 0
0 0
0 0
0 0
0 0
0 0
0 0
0 0
0 0
0 0
0 0
0 0
0 0
0 0
0 0
0 0
0 0
0 0
0 0
0 0
0 0
0 0
0 0
0 0
0 0
0 0
0 0
0 0
0 0
0 0
0 0
0 0
0 0
0 0
0 0
0 0
0 0
0 0
0 0
0 0
0 0
0 0
0 0
0 0
0 0
0 0
0 0
0 0
0 0
0 0
0 0
0 0
0 0
0 0
0 0
0 0
0 0
0 0
0 0
0 0
0 0
0 0
0 0
0 0
0 0
0 0
0 0
0 0
0 0
0 0
0 0
0 0
0 0
0 0
0 0
0 0
0 0
0 0
0 0
0 0
0 0
0 0
0 0
0 0
0 0
0 0
0 0
0 0
0 0
0 0
0 0
0 0
0 0
0 0
0 0
0 0
0 0
0 0
0 0
0 0
0 0
0 0
0 0
0 0
0 0
0 0
0 0
0 0
0 0
0 0
0 0
0 0
0 0
0 0
0 0
0 0
0 0
0 0
0 0
0 0
0 0
0 0
0 0
0 0
0 0
0 0
0 0
0 0
0 0
0 0
0 0
0 0
0 0
0 0
0 0
0 0
0 0
0 0
0 0
0 0
0 0
0 0
0 0
0 0
0 0
0 0
0 0
0 0
0 0
0 0
0 0
0 0
0 0
0 0
0 0
0 0
0 0
0 0
0 0
0 0
0 0
0 0
0 0
0 0
0 0
0 0
0 0
0 0
0 0
0 0
0 0
0 0
0 0
0 0
0 0
0 0
0 0
0 0
0 0
0 0
0 0
0 0
0 0
0 0
0 0
0 0
0 0
0 0
0 0
0 0
0 0
0 0
0 0
0 0
0 0
0 0
0 0
0 0
0 0
0 0
0 0
0 0
0 0
0 0
0 0
0 0
0 0
0 0
0 0
0 0
0 0
0 0
0 0
0 0
0 0
0 0
0 0
0 0
0 0
0 0
0 0
0 0
0 0
0 0
0 0
0 0
0 0
0 0
0 0
0 0
0 0
0 0
0 0
0 0
0 0
0 0
0 0
0 0
0 0
0 0
0 0
0 0
0 0
0 0
0 0
0 0
0 0
0 0
0 0
0 0
0 0
0 0
0 0
0 0
0 0
0 0
0 0
0 0
0 0
0 0
0 0
0 0
0 0
0 0
0 0
0 0
0 0
0 0
0 0
0 0
0 0
0 0
0 0
0 0
0 0
0 0
0 0
0 0
0 0
0 0
0 0
0 0
0 0
0 0
0 0
0 0
0 0
0 0
0 0
0 0
0 0
0 0
0 0
0 0
0 0
0 0
0 0
0 0
0 0
0 0
0 0
0 0
0 0
0 0
0 0
0 0
0 0
0 0
0 0
0 0
0 0
0 0
0 0
0 0
0 0
0 0
0 0
0 0
0 0
0 0
0 0
0 0
0 0
0 0
0 0
0 0
0 0
0 0
0 0
0 0
0 0
0 0
0 0
0 0
0 0
0 0
0 0
0 0
0 0
0 0
0 0
0 0
0 0
0 0
0 0
0 0
0 0
0 0
0 0
0 0
0 0
0 0
0 0
0 0
0 0
0 0
0 0
0 0
0 0
0 0
0 0
0 0
0 0
0 0
0 0
0 0
0 0
0 0
0 0
0 0
0 0
0 0
0 0
0 0
0 0
0 0
0 0
0 0
0 0
0 0
0 0
0 0
0 0
0 0
0 0
0 0
0 0
0 0
0 0
0 0
0 0
0 0
0 0
0 0
0 0
0 0
0 0
0 0
0 0
0 0
0 0
0 0
0 0
0 0
0 0
0 0
0 0
0 0
0 0
0 0
0 0
0 0
0 0
0 0
0 0
0 0
0 0
0 0
0 0
0 0
0 0
0 0
0 0
0 0
0 0
0 0
0 0
0 0
0 0
0 0
0 0
0 0
0 0
0 0
0 0
0 0
0 0
0 0
0 0
0 0
0 0
0 0
0 0
0 0
0 0
0 0
0 0
0 0
0 0
0 0
0 0
0 0
0 0
0 0
0 0
0 0
0 0
0 0
0 0
0 0
0 0
0 0
0 0
0 0
0 0
0 0
0 0
0 0
0 0
0 0
0 0
0 0
0 0
0 0
0 0
0 0
0 0
0 0
0 0
0 0
0 0
0 0
0 0
0 0
0 0
0 0
0 0
0 0
0 0
0 0
0 0
0 0
0 0
0 0
0 0
0 0
0 0
0 0
0 0
0 0
0 0
0 0
0 0
0 0
0 0
0 0
0 0
0 0
0 0
0 0
0 0
0 0
0 0
0 0
0 0
0 0
0 0
0 0
0 0
0 0
0 0
0 0
0 0
0 0
0 0
0 0
0 0
0 0
0 0
0 0
0 0
0 0
0 0
0 0
0 0
0 0
0 0
0 0
0 0
0 0
0 0
0 0
0 0
0 0
0 0
0 0
0 0
0 0
0 0
0 0
0 0
0 0
0 0
0 0
0 0
0 0
0 0
0 0
0 0
0 0
0 0
0 0
0 0
0 0
0 0
0 0
0 0
0 0
0 0
0 0
0 0
0 0
0 0
0 0
0 0
0 0
0 0
0 0
0 0
0 0
0 0
0 0
0 0
0 0
0 0
0 0
0 0
0 0
0 0
0 0
0 0
0 0
0 0
0 0
0 0
0 0
0 0
0 0
0 0
0 0
0 0
0 0
0 0
0 0
0 0
0 0
0 0
0 0
0 0
0 0
0 0
0 0
0 0
0 0
0 0
0 0
0 0
0 0
0 0
0 0
0 0
0 0
0 0
0 0
0 0
0 0
0 0
0 0
0 0
0 0
0 0
0 0
0 0
0 0
0 0
0 0
0 0
0 0
0 0
0 0
0 0
0 0
0 0
0 0
0 0
0 0
0 0
0 0
0 0
0 0
0 0
0 0
0 0
0 0
0 0
0 0
0 0
0 0
0 0
0 0
0 0
0 0
0 0
0 0
0 0
0 0
0 0
0 0
0 0
0 0
0 0
0 0
0 0
0 0
0 0
0 0
0 0
0 0
0 0
0 0
0 0
0 0
0 0
0 0
0 0
0 0
0 0
0 0
0 0
0 0
0 0
0 0
0 0
0 0
0 0
0 0
0 0
0 0
0 0
0 0
0 0
0 0
0 0
0 0
0 0
0 0
0 0
0 0
0 0
0 0
0 0
0 0
0 0
0 0
0 0
0 0
0 0
0 0
0 0
0 0
0 0
0 0
0 0
0 0
0 0
0 0
0 0
0 0
0 0
0 0
0 0
0 0
0 0
0 0
0 0
0 0
0 0
0 0
0 0
0 0
0 0
0 0
0 0
0 0
0 0
0 0
0 0
0 0
0 0
0 0
0 0
0 0
0 0
0 0
0 0
0 0
0 0
0 0
0 0
0 0
0 0
0 0
0 0
0 0
0 0
0 0
0 0
0 0
0 0
0 0
0 0
0 0
0 0
0 0
0 0
0 0
0 0
0 0
0 0
0 0
0 0
0 0
0 0
0 0
0 0
0 0
0 0
0 0
0 0
0 0
0 0
0 0
0 0
0 0
0 0
0 0
0 0
0 0
0 0
0 0
0 0
0 0
0 0
0 0
0 0
0 0
0 0
0 0
0 0
0 0
0 0
0 0
0 0
0 0
0 0
0 0
0 0
0 0
0 0
0 0
0 0
0 0
0 0
0 0
0 0
0 0
0 0
0 0
0 0
0 0
0 0
0 0
0 0
0 0
0 0
0 0
0 0
0 0
0 0
0 0
0 0
0 0
0 0
0 0
0 0
0 0
0 0
0 0
0 0
0 0
0 0
0 0
0 0
0 0
0 0
0 0
0 0
0 0
0 0
0 0
0 0
0 0
0 0
0 0
0 0
0 0
0 0
0 0
0 0
0 0
0 0
0 0
0 0
0 0
0 0
0 0
0 0
0 0
0 0
0 0
0 0
0 0
0 0
0 0
0 0
0 0
0 0
0 0
0 0
0 0
0 0
0 0
0 0
0 0
0 0
0 0
0 0
0 0
0 0
0 0
0 0
0 0
0 0
0 0
0 0
0 0
0 0
0 0
0 0
0 0
0 0
0 0
0 0
0 0
0 0
0 0
0 0
0 0
0 0
0 0
0 0
0 0
0 0
0 0
0 0
0 0
0 0
0 0
0 0
0 0
0 0
0 0
0 0
0 0
0 0
0 0
0 0
0 0
0 0
0 0
0 0
0 0
0 0
0 0
0 0
0 0
0 0
0 0
0 0
0 0
0 0
0 0
0 0
0 0
0 0
0 0
0 0
0 0
0 0
0 0
0 0
0 0
0 0
0 0
0 0
0 0
0 0
0 0
0 0
0 0
0 0
0 0
0 0
0 0
0 0
0 0
0 0
0 0
0 0
0 0
0 0
0 0
0 0
0 0
0 0
0 0
0 0
0 0
0 0
0 0
0 0
0 0
0 0
0 0
0 0
0 0
0 0
0 0
0 0
0 0
0 0
0 0
0 0
0 0
0 0
0 0
0 0
0 0
0 0
0 0
0 0
0 0
0 0
0 0
0 0
0 0
0 0
0 0
0 0
0 0
0 0
0 0
0 0
0 0
0 0
0 0
0 0
0 0
0 0
0 0
0 0
0 0
0 0
0 0
0 0
0 0
0 0
0 0
0 0
0 0
0 0
0 0
0 0
0 0
0 0
0 0
0 0
0 0
0 0
0 0
0 0
0 0
0 0
0 0
0 0
0 0
0 0
0 0
0 0
0 0
0 0
0 0
0 0
0 0
0 0
0 0
0 0
0 0
0 0
0 0
0 0
0 0
0 0
0 0
0 0
0 0
0 0
0 0
0 0
0 0
0 0
0 0
0 0
0 0
0 0
0 0
0 0
0 0
0 0
0 0
0 0
0 0
0 0
0 0
0 0
0 0
0 0
0 0
0 0
0 0
0 0
0 0
0 0
0 0
0 0
0 0
0 0
0 0
0 0
0 0
0 0
0 0
0 0
0 0
0 0
0 0
0 0
0 0
0 0
0 0
0 0
0 0
0 0
0 0
0 0
0 0
0 0
0 0
0 0
0 0
0 0
0 0
0 0
0 0
0 0
0 0
0 0
0 0
0 0
0 0
0 0
0 0
0 0
0 0
0 0
0 0
0 0
0 0
0 0
0 0
0 0
0 0
0 0
0 0
0 0
0 0
0 0
0 0
0 0
0 0
0 0
0 0
0 0
0 0
0 0
0 0
0 0
0 0
0 0
0 0
0 0
0 0
0 0
0 0
0 0
0 0
0 0
0 0
0 0
0 0
0 0
0 0
0 0
0 0
0 0
0 0
0 0
0 0
0 0
0 0
0 0
0 0
0 0
0 0
0 0
0 0
0 0
0 0
0 0
0 0
0 0
0 0
0 0
0 0
0 0
0 0
0 0
0 0
0 0
0 0
0 0
0 0
0 0
0 0
0 0
0 0
0 0
0 0
0 0
0 0
0 0
0 0
0 0
0 0
0 0
0 0
0 0
0 0
0 0
0 0
0 0
0 0
0 0
0 0
0 0
0 0
0 0
0 0
0 0
0 0
0 0
0 0
0 0
0 0
0 0
0 0
0 0
0 0
0 0
0 0
0 0
0 0
0 0
0 0
0 0
0 0
0 0
0 0
0 0
0 0
0 0
0 0
0 0
0 0
0 0
0 0
0 0
0 0
0 0
0 0
0 0
0 0
0 0
0 0
0 0
0 0
0 0
0 0
0 0
0 0
0 0
0 0
0 0
0 0
0 0
0 0
0 0
0 0
0 0
0 0
0 0
0 0
0 0
0 0
0 0
0 0
0 0
0 0
0 0
0 0
0 0
0 0
0 0
0 0
0 0
0 0
0 0
0 0
0 0
0 0
0 0
0 0
0 0
0 0
0 0
0 0
0 0
0 0
0 0
0 0
0 0
0 0
0 0
0 0
0 0
0 0
0 0
0 0
0 0
0 0
0 0
0 0
0 0
0 0
0 0
0 0
0 0
0 0
0 0
0 0
0 0
0 0
0 0
0 0
0 0
0 0
0 0
0 0
0 0
0 0
0 0
0 0
0 0
0 0
0 0
0 0
0 0
0 0
0 0
0 0
0 0
0 0
0 0
0 0
0 0
0 0
0 0
0 0
0 0
0 0
0 0
0 0
0 0
0 0
0 0
0 0
0 0
0 0
0 0
0 0
0 0
0 0
0 0
0 0
0 0
0 0
0 0
0 0
0 0
0 0
0 0
0 0
0 0
0 0
0 0
0 0
0 0
0 0
0 0
0 0
0 0
0 0
0 0
0 0
0 0
0 0
0 0
0 0
0 0
0 0
0 0
0 0
0 0
0 0
0 0
0 0
0 0
0 0
0 0
0 0
0 0
0 0
0 0
0 0
0 0
0 0
0 0
0 0
0 0
0 0
0 0
0 0
0 0
0 0
0 0
0 0
0 0
0 0
0 0
0 0
0 0
0 0
0 0
0 0
0 0
0 0
0 0
0 0
0 0
0 0
0 0
0 0
0 0
0 0
0 0
0 0
0 0
0 0
0 0
0 0
0 0
0 0
0 0
0 0
0 0
0 0
0 0
0 0
0 0
0 0
0 0
0 0
0 0
0 0
0 0
0 0
0 0
0 0
0 0
0 0
0 0
0 0
0 0
0 0
0 0
0 0
0 0
0 0
0 0
0 0
0 0
0 0
0 0
0 0
0 0
0 0
0 0
0 0
0 0
0 0
0 0
0 0
0 0
0 0
0 0
0 0
0 0
0 0
0 0
0 0
0 0
0 0
0 0
0 0
0 0
0 0
0 0
0 0
0 0
0 0
0 0
0 0
0 0
0 0
0 0
0 0
0 0
0 0
0 0
0 0
0 0
0 0
0 0
0 0
0 0
0 0
0 0
0 0
0 0
0 0
0 0
0 0
0 0
0 0
0 0
0 0
0 0
0 0
0 0
0 0
0 0
0 0
0 0
0 0
0 0
0 0
0 0
0 0
0 0
0 0
0 0
0 0
0 0
0 0
0 0
0 0
0 0
0 0
0 0
0 0
0 0
0 0
0 0
0 0
0 0
0 0
0 0
0 0
0 0
0 0
0 0
0 0
0 0
0 0
0 0
0 0
0 0
0 0
0 0
0 0
0 0
0 0
0 0
0 0
0 0
0 0
0 0
0 0
0 0
0 0
0 0
0 0
0 0
0 0
0 0
0 0
0 0
0 0
0 0
0 0
0 0
0 0
0 0
0 0
0 0
0 0
0 0
0 0
0 0
0 0
0 0
0 0
0 0
0 0
0 0
0 0
0 0
0 0
0 0
0 0
0 0
0 0
0 0
0 0
0 0
0 0
0 0
0 0
0 0
0 0
0 0
0 0
0 0
0 0
0 0
0 0
0 0
0 0
0 0
0 0
0 0
0 0
0 0
0 0
0 0
0 0
0 0
0 0
0 0
0 0
0 0
0 0
0 0
0 0
0 0
0 0
0 0
0 0
0 0
0 0
0 0
0 0
0 0
0 0
0 0
0 0
0 0
0 0
0 0
0 0
0 0
0 0
0 0
0 0
0 0
0 0
0 0
0 0
0 0
0 0
0 0
0 0
0 0
0 0
0 0
0 0
0 0
0 0
0 0
0 0
0 0
0 0
0 0
0 0
0 0
0 0
0 0
0 0
0 0
0 0
0 0
0 0
0 0
0 0
0 0
0 0
0 0
0 0
0 0
0 0
0 0
0 0
0 0
0 0
0 0
0 0
0 0
0 0
0 0
0 0
0 0
0 0
0 0
0 0
0 0
0 0
0 0
0 0
0 0
0 0
0 0
0 0
0 0
0 0
0 0
0 0
0 0
0 0
0 0
0 0
0 0
0 0
0 0
0 0
0 0
0 0
0 0
0 0
0 0
0 0
0 0
0 0
0 0
0 0
0 0
0 0
0 0
0 0
0 0
0 0
0 0
0 0
0 0
0 0
0 0
0 0
0 0
0 0
0 0
0 0
0 0
0 0
0 0
0 0
0 0
0 0
0 0
0 0
0 0
0 0
0 0
0 0
0 0
0 0
0 0
0 0
0 0
0 0
0 0
0 0
0 0
0 0
0 0
0 0
0 0
0 0
0 0
0 0
0 0
0 0
0 0
0 0
0 0
0 0
0 0
0 0
0 0
0 0
0 0
0 0
0 0
0 0
0 0
0 0
0 0
0 0
0 0
0 0
0 0
0 0
0 0
0 0
0 0
0 0
0 0
0 0
0 0
0 0
0 0
0 0
0 0
0 0
0 0
0 0
0 0
0 0
0 0
0 0
0 0
0 0
0 0
0 0
0 0
0 0
0 0
0 0
0 0
0 0
0 0
0 0
0 0
0 0
0 0
0 0
0 0
0 0
0 0
0 0
0 0
0 0
0 0
0 0
0 0
0 0
0 0
0 0
0 0
0 0
0 0
0 0
0 0
0 0
0 0
0 0
0 0
0 0
0 0
0 0
0 0
0 0
0 0
0 0
0 0
0 0
0 0
0 0
0 0
0 0
0 0
0 0
0 0
0 0
0 0
0 0
0 0
0 0
0 0
0 0
0 0
0 0
0 0
0 0
0 0
0 0
0 0
0 0
0 0
0 0
0 0
0 0
0 0
0 0
0 0
0 0
0 0
0 0
0 0
0 0
0 0
0 0
0 0
0 0
0 0
0 0
0 0
0 0
0 0
0 0
0 0
0 0
0 0
0 0
0 0
0 0
0 0
0 0
0 0
0 0
0 0
0 0
0 0
0 0
0 0
0 0
0 0
0 0
0 0
0 0
0 0
0 0
0 0
0 0
0 0
0 0
0 0
0 0
0 0
0 0
0 0
0 0
0 0
0 0
0 0
0 0
0 0
0 0
0 0
0 0
0 0
0 0
0 0
0 0
0 0
0 0
0 0
0 0
0 0
0 0
0 0
0 0
0 0
0 0
0 0
0 0
0 0
0 0
0 0
0 0
0 0
0 0
0 0
0 0
0 0
0 0
0 0
0 0
0 0
0 0
0 0
0 0
0 0
0 0
0 0
0 0
0 0
0 0
0 0
0 0
0 0
0 0
0 0
0 0
0 0
0 0
0 0
0 0
0 0
0 0
0 0
0 0
0 0
0 0
0 0
0 0
0 0
0 0
0 0
0 0
0 0
0 0
0 0
0 0
0 0
0 0
0 0
0 0
0 0
0 0
0 0
0 0
0 0
0 0
0 0
0 0
0 0
0 0
0 0
0 0
0 0
0 0
0 0
0 0
0 0
0 0
0 0
0 0
0 0
0 0
0 0
0 0
0 0
0 0
0 0
0 0
0 0
0 0
0 0
0 0
0 0
0 0
0 0
0 0
0 0
0 0
0 0
0 0
0 0
0 0
0 0
0 0
0 0
0 0
0 0
0 0
0 0
0 0
0 0
0 0
0 0
0 0
0 0
0 0
0 0
0 0
0 0
0 0
0 0
0 0
0 0
0 0
0 0
0 0
0 0
0 0
0 0
0 0
0 0
0 0
0 0
0 0
0 0
0 0
0 0
0 0
0 0
0 0
0 0
0 0
0 0
0 0
0 0
0 0
0 0
0 0
0 0
0 0
0 0
0 0
0 0
0 0
0 0
0 0
0 0
0 0
0 0
0 0
0 0
0 0
0 0
0 0
0 0
0 0
0 0
0 0
0 0
0 0
0 0
0 0
0 0
0 0
0 0
0 0
0 0
0 0
0 0
0 0
0 0
0 0
0 0
0 0
0 0
0 0
0 0
0 0
0 0
0 0
0 0
0 0
0 0
0 0
0 0
0 0
0 0
0 0
0 0
0 0
0 0
0 0
0 0
0 0
0 0
0 0
0 0
0 0
0 0
0 0
0 0
0 0
0 0
0 0
0 0
0 0
0 0
0 0
0 0
0 0
0 0
0 0
0 0
0 0
0 0
0 0
0 0
0 0
0 0
0 0
0 0
0 0
0 0
0 0
0 0
0 0
0 0
0 0
0 0
0 0
0 0
0 0
0 0
0 0
0 0
0 0
0 0
0 0
0 0
0 0
0 0
0 0
0 0
0 0
0 0
0 0
0 0
0 0
0 0
0 0
0 0
0 0
0 0
0 0
0 0
0 0
0 0
0 0
0 0
0 0
0 0
0 0
0 0
0 0
0 0
0 0
0 0
0 0
0 0
0 0
0 0
0 0
0 0
0 0
0 0
0 0
0 0
0 0
0 0
0 0
0 0
0 0
0 0
0 0
0 0
0 0
0 0
0 0
0 0
0 0
0 0
0 0
0 0
0 0
0 0
0 0
0 0
0 0
      </DataArray> 
      <DataArray type="Float64" NumberOfComponents="2" Name="CauchyNormalStress" format="ascii">
8.47488 4.91981
7.6843 3.95923
8.2771 0.827177
4.28628 -0.183971
2.90421 0.0342528
1.78518 -0.0151947
1.14401 -0.0959785
0.715167 -0.0941022
0.224587 -0.0433069
-0.130857 -0.00488839
-0.410512 -0.0465206
-0.580389 -0.0634235
-0.82053 -0.0335646
-0.976196 -0.00164274
-1.07997 -0.0370887
-1.10436 -0.0458124
-1.1811 -0.017167
-1.18517 0.00409652
-1.1393 -0.0342379
-1.0118 -0.0461176
-0.937067 -0.0171728
-0.788226 0.00272405
-0.575629 -0.042848
-0.255655 -0.0622667
-0.00185649 -0.0232947
0.360229 0.0126812
0.846959 -0.0453822
1.63355 -0.186003
2.39759 -0.268089
3.60866 -0.124972
7.42606 0.35502
-0.737762 0.676363
-0.97355 0.80655
-0.886267 1.66925
2.56652 6.41319
-0.74912 -0.0274111
-0.177346 -0.210376
-0.0383142 -0.324868
-0.0943366 -0.419819
-0.0909156 -0.448791
-0.0250385 -0.624595
-0.017659 -0.670422
-0.0166316 -0.725891
-0.0413451 -0.728998
-0.0662128 -0.784129
-0.0748503 -0.660782
-0.0842832 -0.707936
-0.107733 -0.682702
-0.144057 -0.688435
-0.179233 -0.625135
-0.211267 -0.611992
-0.240173 -0.50706
-0.291033 -0.529321
-0.0072061 -0.713741
-0.598586 -0.0433309
-0.706893 -0.055795
-0.538832 -0.131272
-0.579726 -0.171225
-0.411751 -0.295811
-74.314 -197.318
-0.431346 -1.92027
-0.143279 -0.785339
-0.946221 -2.41673
-7.56057 -37.7665
-2.60766 -33.373
0.00621541 -19.1462
-1.47202 -20.1165
-1.70122 -19.7538
-3.06505 -22.9197
16.5333 1.02228
-12.5744 -37.7967
-16.5831 -45.1891
-22.7574 -67.6374
-7.64234 -37.4917
17.3229 0.49728
23.4621 9.71184
-18.9121 -7.12246
-67.6011 -189.082
-2.7845 -33.5036
0.000373708 -19.3519
-1.52203 -20.2274
-1.70188 -19.8109
-3.05166 -22.9057
0.0162837 -0.892071
-0.416885 -1.89297
-0.214013 -0.789531
-1.23125 -2.16178
-0.809607 0.103882
-0.207072 -1.48678
-0.0404797 -0.843776
-0.204638 -1.03575
-0.228866 -0.603897
-0.280819 -0.530928
-0.540955 0.706137
-0.59532 -0.0142727
-0.689043 -0.0914622
-0.514868 -0.110566
-0.574632 -0.203243
-0.450898 -0.204394
-0.444762 -0.297598
-0.362569 -0.343224
-0.346154 -0.412386
-0.298499 -0.49439
-0.248369 -0.506199
-0.217918 -0.614803
-0.152301 -0.587054
-0.11909 -0.712015
-0.0691567 -0.712407
-0.0799356 -0.758126
-0.0637117 -0.703633
-0.0406119 -0.753294
-0.725306 1.19877
-0.270947 2.33713
2.78393 5.95418
-19.2575 -11.7507
-11.6499 -30.2657
-18.6373 -12.6814
-10.1852 -40.9937
-13.0162 -33.1951
-2.33158 -24.3763
-19.0355 -9.27895
5.0286 -27.0141
1.43603 -4.15504
1.03122 -4.1008
-3.46455 -42.0736
-3.65734 -43.2759
2.38565 -10.025
0.915558 -4.826
0.403797 -20.3984
0.469 -17.8281
-0.324154 -20.5103
0.960515 -15.5869
0.577435 -18.1153
-1.85664 -17.2687
-0.276579 -17.3417
-0.553326 -18.7676
-2.48338 -18.547
1.41678 -14.3836
1.84404 -13.7366
1.574 -18.6997
-9.84066 -6.19057
-10.2468 -6.19138
-10.8718 -6.8358
0.870653 -21.7052
1.21703 -16.5404
-5.61366 -19.1839
-5.36739 -18.0355
-0.345559 -24.1751
-1.61332 -23.3163
-4.36754 -20.549
-4.9011 -22.0426
-0.443295 -22.4274
-7.57245 -5.05473
-8.99974 -5.36709
-8.3548 -5.4424
0.753847 -13.8673
1.05679 -14.6073
-8.4034 -8.74504
-5.5469 -13.1236
-1.26206 -15.0142
0.345487 -13.0686
0.226735 -13.9723
-1.31664 -16.2157
-5.9098 -14.055
-8.94543 -9.08446
1.65366 -12.0467
2.29967 -16.6921
-13.9388 -10.508
-13.5894 -8.37583
-11.4302 -6.73058
-11.9427 -9.20347
2.91319 -17.259
3.14245 -20.7688
2.52477 -20.0833
2.00526 -16.5655
1.98892 -12.9567
1.74718 -11.511
-14.5927 -12.0279
-8.36655 -17.4812
-8.08186 -16.3004
-14.4339 -16.7886
2.28956 -25.6664
0.149524 -32.492
-5.31256 -24.2826
-1.07545 -25.6596
2.76986 -23.6283
-6.81162 -4.94437
-7.78049 -5.01739
-7.77261 -4.81179
-7.98257 -4.97081
-6.53786 -4.18129
-6.3356 -4.11878
-6.05844 -3.92559
-6.91781 -4.69233
1.00767 -11.8208
1.43729 -10.7296
1.53445 -10.4703
1.0452 -12.1507
-6.44091 -5.00322
-6.71748 -5.72361
-6.83409 -8.5433
-5.28442 -10.1596
-2.57547 -11.914
-0.904296 -12.8469
-1.25228 -13.5024
-2.98543 -12.6215
-5.7202 -10.8549
-7.05536 -8.84106
-7.11197 -5.49017
-6.68056 -4.80701
1.59369 -10.1548
2.55399 -13.1975
-18.4655 -15.1011
-15.3472 -8.77846
-16.6468 -10.6716
3.77204 -17.3656
3.77017 -19.5276
2.35278 -13.0358
1.54657 -9.21705
-14.6923 -18.9742
-14.713 -24.4498
4.02134 -27.859
-6.98591 -28.9203
-14.9481 -30.1317
-5.66157 -25.1618
1.31226 -28.6945
-4.79971 -3.46235
-5.46485 -3.81956
-5.54652 -3.77
-4.8559 -3.34601
-4.53858 -3.26588
-4.5604 -3.22813
1.20265 -9.80383
1.00814 -9.64735
-4.73047 -4.29442
-3.53529 -7.10369
-0.412646 -9.98298
-0.935142 -10.4034
-3.85807 -7.26091
-4.73139 -3.97492
1.06564 -6.41764
1.32234 -7.40069
1.58308 -8.80835
1.88951 -8.99142
2.6609 -9.8428
3.47252 -12.8721
-15.8767 -23.8353
-19.5851 -9.40363
-17.7315 -16.4467
4.20632 -16.3058
4.29236 -17.2844
3.51609 -14.244
2.69871 -11.5975
2.08178 -9.90306
1.37737 -7.68463
0.990842 -5.69917
-17.5002 -26.0879
-17.5473 -34.3859
4.78943 -20.6742
4.37489 -37.5909
-16.7017 -39.8555
4.97683 -28.0003
4.67139 -19.453
-9.65324 -32.5323
2.71973 -34.1516
-2.53818 -2.42284
-2.76558 -2.36675
-3.4212 -2.76925
-2.96681 -2.76111
-3.95604 -2.81975
-3.68171 -2.8524
-3.76198 -2.59851
-3.76398 -2.66013
-3.05171 -2.31018
-3.24281 -2.30206
-2.89123 -2.53062
-3.2793 -2.49217
-2.39854 -2.18691
-2.6441 -2.34584
1.05105 -8.77481
1.17783 -8.5196
1.25858 -7.44782
0.922061 -5.58872
1.26375 -7.20081
1.08949 -8.78905
0.477934 -9.38592
-3.23032 -3.10006
-2.52622 -4.11317
-1.10282 -6.28027
0.125932 -7.56298
-0.740126 -8.24107
-1.59539 -6.51455
-2.91274 -4.00043
-3.00373 -2.67702
0.409178 -3.03517
0.866576 -5.13604
1.17417 -5.70998
1.74763 -6.8759
2.42749 -8.26501
0.418371 -53.9699
-15.124 -8.19672
-9.14175 -1.13475
-15.521 -6.32741
-2.02962 -49.3632
3.67308 -12.8475
3.53592 -12.2845
2.44278 -8.98974
1.46831 -7.24058
0.494929 -3.47853
0.763842 -69.4259
-5.4626 -53.0589
0.452482 -67.0374
-2.46106 -56.8407
3.81515 -21.7917
-9.7353 -55.1556
-31.5042 -64.5248
3.69865 -17.9705
-30.1661 -56.7584
-2.59883 -43.7697
-0.42912 -1.39285
-1.22567 -1.78657
-2.11589 -1.78253
-2.4038 -1.66238
-2.20935 -1.56628
-1.54592 -1.59929
-0.464108 -1.47212
1.7406 -6.09476
0.674143 -3.96128
0.914365 -4.40103
1.20126 -6.65318
-0.284027 -1.86054
1.83101 -4.90609
2.67599 -4.25126
2.04442 -5.2219
0.662193 -5.41223
-0.371232 -1.72399
0.410518 -1.96351
0.396967 -2.50837
0.099015 -1.40825
0.274471 -2.27202
0.25616 -2.2595
0.506772 -3.38138
0.436305 -2.88093
0.657564 -3.57166
0.693431 -3.52495
0.792083 -3.67268
0.663171 -3.22616
-13.6493 -23.2052
-7.2444 -2.35066
-6.5418 -2.09904
-14.0653 -16.3915
1.39844 -5.0152
1.74705 -6.0158
1.87259 -6.72906
1.29553 -5.70332
1.63146 -9.30659
1.52736 -8.39478
1.36539 -5.95635
1.70132 -6.2369
1.72008 -5.95401
1.33029 -4.8831
1.32819 -4.97294
0.99862 -4.22732
0.589404 -3.15914
0.71125 -3.75623
0.188069 -2.06566
0.267337 -2.10314
0.242661 -2.15781
0.173708 -1.8462
0.730529 -37.5452
0.884672 -50.0912
-0.880901 -66.6396
0.597705 -36.5029
0.533292 -63.9118
0.371138 -48.1792
0.570688 -11.2417
-1.93499 -10.2461
-1.46852 -77.9103
1.01021 -11.0079
2.07538 -52.6912
-0.52025 -14.2697
1.35869 -0.763179
3.07833 0.844055
1.68377 -1.02209
0.192443 -0.902534
0.694421 -0.896929
-0.443856 -0.954095
-1.10054 -0.919938
-0.823232 -0.90159
-1.41666 -0.895977
-1.68665 -0.87976
-1.57896 -0.857876
-1.67672 -0.801578
-1.63734 -0.807235
-1.68809 -0.779103
-1.43466 -0.791566
-1.03732 -0.817686
-1.27841 -0.776631
-0.579167 -0.832413
0.419537 -0.909416
-0.20105 -0.810931
1.19443 -0.602326
3.38971 0.586841
1.59097 -0.678769
0.10242 -1.20047
0.104048 -1.34307
0.219358 -1.74867
0.187251 -1.69588
0.984969 -3.91727
2.01211 -1.45375
1.18552 -3.87713
1.85501 -4.55675
1.58075 -1.92265
3.3899 -0.274712
2.11647 -2.64116
1.51691 -3.11867
2.99581 -0.243274
0.144998 -0.968932
0.124882 -0.897928
0.167726 -0.0690747
0.285575 -0.635121
0.22498 -0.685641
0.100441 -0.232481
1.35179 0.515579
6.49864 2.4048
1.63759 0.554669
1.49813 -0.24387
1.6552 -0.41241
5.11093 0.619976
3.09518 -2.83842
3.88356 -1.20083
0.549356 -1.45882
0.672361 -1.53002
-0.352587 -3.26861
0.198744 -3.34197
1.44096 -6.11801
1.26686 -5.92713
0.421973 -3.05918
0.222806 -2.06965
-0.341426 -0.989057
-0.949935 -1.62432
-1.88921 -1.5587
-2.29586 -1.56678
-2.30889 -1.72917
-1.68906 -1.80281
-0.547097 -1.73686
-1.19399 -1.08864
3.68053 -25.3096
2.63037 -32.6394
4.46683 -55.2431
4.83303 -56.9529
0.568109 -3.59757
1.68374 -7.03861
3.05339 -10.2904
3.09677 -12.0399
3.82877 -15.3709
3.11387 -10.4619
-14.5244 -17.1604
-12.9205 -23.2022
1.75782 -6.36346
1.4856 -6.52518
1.1641 -6.1671
0.620807 -3.94617
0.947216 -7.27035
1.98417 -6.4528
-17.5093 -40.1041
-18.7699 -47.7498
-17.2438 -5.4934
-5.24795 -4.96468
-2.61631 -9.39816
-2.09406 -8.91988
-5.1269 -5.27712
0.44251 -11.3806
1.32719 -8.07003
1.41741 -8.7879
0.774522 -10.9845
-4.31093 -3.18951
-4.80084 -3.38175
-4.29035 -3.0629
-5.31661 -3.60706
-5.71882 -3.88931
-5.21405 -3.71511
-4.44605 -3.37801
-3.02985 -27.6271
4.28632 -25.1928
2.86771 -35.7442
4.13466 -21.8284
-17.8515 -22.4777
-18.7105 -15.9094
1.83389 -10.2933
3.02956 -15.9908
-12.7143 -7.54692
-17.8006 -11.6872
3.16634 -13.5977
1.91943 -11.4428
-8.16418 -22.6061
-7.98204 -21.2005
-9.0231 -6.15771
-8.80718 -12.3516
-3.15827 -15.7969
-2.83229 -14.8338
-8.42934 -11.4663
-8.39173 -6.37987
1.64914 -12.8401
1.33426 -12.6661
-7.78835 -4.79543
-10.2064 -5.98289
0.792561 -23.6837
-2.42754 -27.185
0.983336 -19.7342
1.53907 -21.2934
0.360641 -16.4831
0.192162 -15.1232
-1.64199 -21.214
-0.783611 -19.6009
1.68738 -16.0824
1.92733 -81.354
-1.50756 -1.14982
-8.71321 -19.5374
-3.44592 -17.632
-2.6506 -2.37804
3.33125 -35.6972
-1.12496 -1.55202
-13.9321 -109.887
-9.20717 -34.7153
-1.6753 -2.05909
-4.81038 -19.8011
1.44183 -50.9012
-0.10452 -56.5179
-7.83823 -56.5078
-7.04045 -46.0879
-4.69011 -89.3537
-4.43222 -24.3278
-7.22476 -26.7837
-4.91031 -39.3265
2.23949 -51.4534
1.928 -56.6528
0.455124 -41.5443
-2.65503 -36.1081
-2.02055 -30.8935
-9.79334 -29.4101
-12.7752 -36.5714
-0.647657 -28.1987
1.80639 -46.5643
-0.120205 -59.1403
-6.42615 -47.6786
-7.88558 -59.6593
-4.72411 -40.3765
-4.44924 -24.3563
-7.20923 -26.8621
-7.83428 -98.469
1.56857 -58.2487
2.58478 -53.4243
0.73302 -42.9365
-1.97291 -31.4817
-2.48788 -37.0255
-0.589276 -28.751
-9.8197 -29.6257
-12.7662 -37.2202
2.06393 -48.1147
-8.95616 -6.18617
0.966128 -3.35152
5.17879 1.62061
4.08332 -0.422998
-48.7572 -94.7974
-23.0906 -68.6108
-35.8486 -53.4667
-13.9614 -17.8024
-10.1562 -8.19345
-9.65964 -7.5829
4.13048 0.909666
0.184747 -3.40832
-35.7513 -60.0812
-48.0535 -96.1831
-19.3713 -7.95682
3.94611 -0.641142
-9.94954 -10.5427
-13.2776 -24.0834
-15.372 -49.1298
-13.8536 -69.54
0.868399 -53.029
-49.0852 -79.2501
4.22048 -38.6666
-16.593 -38.5847
-22.0127 -47.0726
-28.1556 -59.4848
-6.19313 -69.0323
-34.3528 -78.5499
2.43038 -51.1322
-49.3306 -82.9115
-24.9948 -55.1525
-22.3029 -48.9682
-14.3363 -62.7229
-13.4483 -77.5143
-2.20625 -61.4376
1.0025 -57.4071
-10.4081 -52.6853
-15.8645 -55.016
-4.32653 -60.3669
-19.3462 -69.8799
0.0381292 -56.5084
-11.8592 -46.1471
1.85526 -59.8146
-8.16679 -38.8149
-3.99216 -45.6109
-9.70614 -34.245
-14.8821 -94.5693
3.477 -61.2092
1.06325 -53.9965
-12.5522 -3.41635
-7.1593 -1.61497
-11.4904 -5.44343
3.19079 -0.813289
-14.7281 -11.037
-16.1114 -5.70953
-13.6067 -3.84544
-12.362 -4.37057
-11.8128 -6.85686
-7.53157 -1.84923
-13.9829 -14.3899
-15.9123 -6.56931
2.36095 -61.5108
-3.02319 -49.3435
-5.68163 -44.7849
-14.0916 -92.0659
-7.23142 -40.2214
1.97902 -55.1252
3.09403 -59.6167
-15.3329 -34.1321
-9.2238 -39.6608
-2.92081 -34.8906
-6.28835 -30.1198
-18.7713 -43.6864
-9.99481 -45.0716
-0.244454 -45.4306
-2.16722 -39.4614
-16.6749 -35.0544
-12.4288 -31.2845
-8.68854 -27.4622
-11.5525 -26.3305
-14.4701 -24.5614
-16.2816 -22.6528
-16.7233 -28.3405
-16.7654 -17.342
-17.9267 -21.1607
-17.0251 -32.7098
-11.6123 -20.8347
-16.4594 -23.5664
-16.3249 -19.7652
-14.3471 -20.5877
-11.343 -18.9354
-11.5335 -14.3552
-11.3665 -22.909
-16.6803 -14.2372
-14.5082 -15.4294
-11.8306 -15.8621
-11.7971 -12.0089
-17.6764 -13.2017
-15.5707 -11.2578
-13.6517 -9.73805
-14.7096 -9.24301
-15.6544 -10.1361
-16.5136 -10.0507
-14.4373 -8.51357
-12.8108 -7.46836
-14.0017 -8.10907
-11.9392 -7.11667
-14.0635 -13.5044
-16.5048 -15.8562
-16.3195 -13.1106
-18.035 -18.6526
-18.0949 -13.2245
-15.8196 -10.9966
-11.2485 -10.7736
-13.6582 -9.34008
-11.7601 -7.32739
-9.08757 -6.22059
-9.93989 -6.08168
-11.9191 -8.28524
-11.2783 -8.69683
-11.0534 -45.0501
-2.89015 -56.3893
-10.593 -57.4675
1.39201 -51.5459
-16.5857 -45.0247
-12.5337 -37.6775
-5.94402 -39.0279
0.289767 -28.8461
-1.23486 -41.3889
-1.87843 -30.2209
-15.2938 -42.0928
-20.3927 -33.7201
-1.77002 -29.5885
-1.22675 -40.2712
0.229292 -28.2974
1.23759 -49.8928
-15.5387 -40.66
-19.9138 -34.506
-5.7414 -38.6374
-10.6135 -56.3907
-2.79965 -54.7428
-10.8746 -44.4239
22.9112 11.5872
17.3612 0.865021
-18.2564 -12.6777
-17.4454 -8.30474
-16.5271 -10.9828
-18.1295 -7.05351
-15.8815 -16.9659
-18.3056 -16.2754
-18.9203 -12.5715
-15.5997 -25.1053
-15.2339 -29.0135
-17.6103 -21.6171
-15.1867 -36.8838
-13.608 -26.1056
-3.2658 -50.5106
-9.86455 -42.7352
-7.29781 -40.1292
-4.55524 -46.5497
-7.35154 -48.7841
-0.794005 -54.2408
-13.8347 -44.2164
-11.0589 -33.3264
-16.4658 -29.6641
-13.7612 -37.104
-13.3157 -33.0788
-18.0744 -40.6571
-14.1106 -23.9064
-16.8715 -23.1586
-17.2311 -28.7216
-18.6434 -14.2753
-19 -10.7269
-19.0323 -11.9913
-18.0352 -8.78236
-18.6563 -7.98974
-18.9301 -10.9762
-18.1521 -17.4234
-15.3973 -15.3134
-17.0926 -11.1789
-17.2709 -17.7506
-14.9994 -32.3339
-13.6056 -35.0773
-17.8329 -37.2418
-6.69601 -35.9146
-16.1146 -29.3218
-13.3259 -27.3139
-9.58299 -25.6214
-17.472 -10.4694
-18.0043 -11.28
-15.9586 -9.77026
-18.8345 -13.7771
-18.5465 -11.5605
-19.1877 -9.12251
-19.1907 -10.7539
-19.3295 -10.2437
-4.52702 -10.5426
-2.76616 -13.9231
-2.6432 -7.08788
-1.18074 -28.5369
-0.197876 -21.2993
-1.67334 -6.0041
-2.55279 -1.82596
-3.9553 -1.33623
-6.29935 -11.155
-4.53221 -47.2671
-2.35319 -36.3264
-6.10657 -25.4933
2.48463 -39.7432
-9.44977 -17.8284
-4.72391 -53.9848
1.29685 -60.4791
-24.726 -147.133
-28.4269 -35.7247
-16.715 -64.6185
-2.96836 -72.2757
-15.1164 -68.3892
-39.1475 -129.191
-28.383 -34.1561
-30.4114 -154.118
-16.5632 -70.3119
-15.5457 -74.7088
-4.29496 -76.261
-37.7147 -139.156
-30.1461 -73.2764
-22.4493 -87.5321
-8.6354 -80.0753
-67.6817 -123.236
-28.9919 -122.344
1.10436 -61.4129
-4.37526 -65.3731
-24.0475 -61.6682
-36.1929 -67.0909
2.22071 -45.4757
3.44292 -38.1263
2.98201 -44.4771
3.68572 -29.4816
3.8501 -32.5567
1.25886 -41.6457
-1.60021 -48.7205
0.784229 -55.0941
2.91015 -41.8845
-16.139 -43.4102
-19.741 -42.839
-19.7906 -47.9062
-17.5597 -39.5821
-19.5621 -43.6372
-24.7032 -52.0655
-23.8603 -53.0203
-8.32265 -46.74
-11.7868 -44.3159
-0.821685 -58.467
1.21205 -52.5111
-1.31601 -61.0428
2.58622 -42.657
-4.91437 -76.1243
-8.69962 -62.0993
-2.82771 -53.6084
-25.8241 -94.9967
-39.387 -98.2871
-46.6539 -79.8063
-53.7121 -151.169
-68.6527 -129.508
-35.4773 -73.4722
-36.5362 -69.9388
-16.2112 -82.4754
-6.8108 -93.403
-28.4398 -57.2694
-25.3519 -52.1185
-23.6714 -53.7456
-20.6219 -50.9708
-21.886 -48.5357
-16.4549 -51.8419
-18.8795 -57.6961
-32.734 -62.3614
-26.551 -59.6726
-26.6466 -81.2386
-23.4013 -88.3601
-11.3312 -85.9491
-5.7248 -71.8402
-22.7438 -71.1098
-22.5098 -63.8473
-19.8011 -59.0413
-17.4961 -55.0718
-7.07082 -58.5225
-16.0222 -83.2073
-30.0989 -88.2122
-33.4436 -72.5727
-26.3277 -63.1427
-9.58423 -71.1828
-23.3642 -56.5059
-19.4992 -51.099
-10.3456 -53.3857
-16.9631 -47.3723
-6.14631 -41.481
-2.95013 -39.279
-6.19237 -37.2473
-6.32555 -33.7465
-3.04783 -31.2725
-9.44115 -36.1506
0.356897 -48.7824
2.21051 -41.996
3.70933 -43.3215
1.56395 -40.0618
3.32656 -36.9338
3.43905 -35.8036
-4.31076 -49.928
-5.79314 -42.3278
-1.53484 -42.5473
-4.8315 -45.3935
0.486711 -37.828
-9.94608 -49.8816
-14.0297 -42.3373
-7.9375 -40.2255
-0.765453 -35.7533
-4.66594 -37.6384
-9.56511 -33.1914
-11.6433 -38.125
1.22301 -34.2323
-3.20215 -34.4183
-4.27506 -31.3556
-1.41882 -29.8654
0.0894455 -34.5641
1.74875 -31.537
-0.673495 -31.6555
3.66528 -29.2433
2.93496 -27.0566
-0.797965 -28.1707
0.473081 -38.5628
0.0918567 -27.5975
-1.83725 -15.8626
0.901079 -25.3806
-2.66291 -8.96015
-1.12557 -7.50227
1.65314 -20.1846
-1.7733 -35.3807
-5.27509 -9.0365
-3.13672 -8.37352
-5.84338 -18.8597
-2.63401 -0.577949
-3.22263 -36.7122
-7.5451 -8.92807
-4.59944 -2.92396
-9.91328 -28.6806
-15.5656 -13.088
-6.00592 -47.7839
-4.51612 0.0264052
-7.00446 -1.43801
0.250445 -12.7072
-0.482373 -7.4438
0.306687 -5.77629
-17.0943 13.7122
-36.4077 -59.3361
0.432604 -5.90679
2.13782 -18.3325
-13.9877 -31.8388
-6.15993 -61.7864
-18.6238 -21.4721
-5.72736 0.18914
-9.14717 4.24743
-1.04434 -11.4843
0.0813799 -5.81459
-0.822432 -5.63374
0.32308 -5.99079
-15.9859 28.6275
-36.6725 -50.2194
1.6413 -20.8864
0.631103 -3.50094
0.170574 -1.80181
0.227982 -2.09846
0.137619 -1.76411
-0.0108794 -0.674289
-0.0539204 -0.598676
0.273208 -2.14673
1.1714 -5.40532
1.1485 -5.04769
0.788816 -3.68664
0.303144 -2.20996
0.0672438 -1.7175
0.223971 -2.16717
-0.0965739 -0.440293
-0.0738673 -0.484492
1.34312 -5.64851
1.33008 -4.93296
0.375628 -2.44056
0.338356 -2.45684
0.24755 -2.38532
-0.0204531 -0.372137
-0.10331 -0.234082
0.417852 -2.50996
2.17344 -7.65759
2.23873 -7.39312
1.5068 -5.53229
0.523607 -2.90037
0.406385 -2.44486
0.617087 -2.98502
-0.415336 -0.389386
-0.422143 -0.311801
2.36572 -8.24924
1.5593 -6.13294
0.441826 -3.13275
0.66271 -3.21195
0.56226 -3.2128
-0.578495 -0.202984
-0.544034 -0.174293
0.553348 -3.1318
2.43923 -8.97249
2.17 -9.0418
1.44062 -7.27717
0.674296 -4.59666
0.647451 -3.30215
0.727594 -4.49308
-0.697146 -0.0918747
-0.601064 -0.0785664
2.36818 -10.2788
1.43848 -7.639
0.591737 -3.13177
0.749231 -5.03142
0.529049 -3.10706
-0.409567 -0.403812
-0.278867 -0.519496
0.757184 -4.811
2.76993 -12.3415
2.51488 -10.4711
1.60832 -6.26798
0.7573 -3.47527
0.413237 -3.02905
0.625279 -3.37528
-0.223143 -0.599834
-0.213685 -1.03186
2.85272 -10.7842
1.55504 -5.57594
0.411606 -2.49267
0.527159 -2.95923
0.354487 -2.45498
-0.0378768 -0.780125
-0.268564 -1.4586
0.631568 -3.02994
2.43313 -8.2904
2.29953 -7.59945
0.70925 -3.4998
0.175595 -1.93756
0.129997 -1.69953
0.244393 -1.98667
-0.329231 -0.45022
-0.372151 -0.426404
0.0390944 -1.67316
1.23517 -4.70223
1.26106 -5.04708
0.663329 -3.58976
0.203482 -2.01497
0.224792 -1.96416
0.238931 -2.05318
-0.436811 -0.28967
-0.473696 -0.253591
0.187495 -1.93679
1.1139 -4.96287
1.06366 -5.04983
-0.611579 -0.139269
0.130436 -1.72989
0.160324 -1.78664
0.166436 -1.81209
0.810136 -4.45009
-0.525618 -0.113126
-15.1182 -58.2916
-4.65369 -59.7923
-6.70829 -51.5647
2.51809 -13.2478
2.44217 -14.6229
1.25378 -9.85151
3.76571 -21.2096
3.4447 -14.7966
-16.9814 -63.8874
-18.3627 -73.6076
-29.9763 -67.3932
2.67234 -15.3945
0.999146 -10.7878
2.25378 -16.1975
3.19703 -26.8832
3.80089 -18.6589
-13.9218 -70.9252
-6.28762 -65.4638
-16.4918 -62.4944
-8.99382 -62.5607
1.56026 -7.19479
1.12086 -5.42645
0.627832 -3.75151
0.995159 -5.40536
1.89314 -6.9416
1.16563 -4.59812
1.72056 -6.61379
2.05653 -8.05211
2.7199 -9.70309
2.56967 -9.35672
1.70642 -6.17035
2.69461 -8.90992
3.25282 -11.4245
3.30827 -12.2776
2.75832 -9.23907
1.7985 -6.47161
2.77035 -9.86619
3.72083 -14.3207
3.33069 -11.7561
1.20503 -5.2247
0.728032 -3.66576
1.30396 -5.18748
1.7459 -6.68702
1.60764 -6.75034
0.799137 -4.29073
0.53243 -3.26701
0.933128 -4.59714
1.31709 -6.13662
1.16012 -5.9756
-12.8506 -39.2828
-13.1445 -35.576
4.95001 -23.2785
4.25745 -23.3116
4.15852 -18.9389
4.23356 -27.12
3.81648 -15.9208
4.52572 -22.5688
4.41667 -26.8686
-16.3267 -47.2984
-18.5479 -43.9543
1.89224 -8.42674
1.7624 -8.60326
1.67968 -8.73553
1.97047 -10.1367
3.05261 -12.9149
3.00093 -11.5671
2.5667 -10.3161
3.30489 -12.3311
2.19985 -9.30819
2.90144 -13.7227
3.27925 -15.1694
4.40158 -18.5588
4.16433 -15.5693
3.92097 -14.9675
3.74229 -13.5808
4.39767 -20.9606
4.46097 -18.5647
3.95131 -14.5857
4.28501 -16.5785
3.70795 -13.2504
4.37191 -18.0981
4.46556 -21.2749
4.1663 -19.0195
3.0326 -11.4002
2.54373 -9.08753
2.99016 -10.4693
2.24307 -8.01726
2.06012 -7.34081
2.73134 -9.42766
3.2999 -11.7011
3.32092 -13.2533
2.93772 -11.6482
1.69885 -7.714
1.52698 -7.35469
1.50494 -7.62765
1.91484 -10.1848
4.79269 -32.5416
3.96245 -31.4122
3.06136 -36.8318
2.53967 -12.3469
2.36911 -10.763
2.23986 -11.4331
2.07102 -11.6842
2.63484 -14.5334
4.05743 -18.4511
3.82757 -15.8005
3.69398 -16.7597
3.32875 -17.7829
3.95845 -22.3566
3.6397 -15.0506
3.79652 -14.6528
3.99411 -16.8463
3.94807 -19.5901
3.45147 -15.5123
3.40332 -24.5138
2.13561 -26.0593
0.914624 -26.2228
1.859 -23.694
1.39116 -28.8731
3.00393 -26.8423
2.14196 -30.4076
3.19807 -23.8384
4.10956 -24.7317
3.58872 -31.5559
0.0165019 -26.5885
2.53171 -16.3106
2.21056 -14.7451
1.74394 -14.7326
1.54129 -18.0988
2.60745 -21.912
3.24892 -21.5379
3.15896 -19.8395
2.81356 -17.9653
1.6927 -21.8488
3.00155 -19.0482
3.34457 -17.3306
3.43235 -19.0624
3.0521 -15.3915
3.59599 -21.3292
2.39763 -21.0749
2.24473 -19.2433
2.85052 -13.4137
2.74004 -15.2399
2.1556 -14.6329
2.19028 -12.3359
2.75381 -23.1039
1.79439 -23.5674
2.1902 -18.3519
1.78646 -19.9141
2.5203 -9.97428
2.09443 -8.37422
2.17921 -8.40594
1.92494 -8.30796
2.76169 -11.8453
2.23703 -11.1136
2.12411 -9.53814
2.48641 -11.5591
1.76072 -6.08355
1.20335 -4.59055
1.91355 -6.68616
0.2071 -2.03953
1.38616 -5.26915
0.0350747 -1.639
0.202508 -2.03404
0.842465 -3.66732
-0.707034 -0.0858295
-0.591611 -0.0411138
4.73465 -31.861
4.47795 -24.5352
4.02382 -30.0439
4.41362 -21.1739
4.00092 -31.6881
4.3685 -24.3339
4.86105 -23.8292
4.46779 -27.5433
0 0
0 0
0 0
0 0
0 0
0 0
0 0
0 0
0 0
0 0
0 0
0 0
0 0
0 0
0 0
0 0
0 0
0 0
0 0
0 0
0 0
0 0
0 0
0 0
0 0
0 0
0 0
0 0
0 0
0 0
0 0
0 0
0 0
0 0
0 0
0 0
0 0
0 0
0 0
0 0
0 0
0 0
0 0
0 0
0 0
0 0
0 0
0 0
0 0
0 0
0 0
0 0
0 0
0 0
0 0
0 0
0 0
0 0
0 0
0 0
0 0
0 0
0 0
0 0
0 0
0 0
0 0
0 0
0 0
0 0
0 0
0 0
0 0
0 0
0 0
0 0
0 0
0 0
0 0
0 0
0 0
0 0
0 0
0 0
0 0
0 0
0 0
0 0
0 0
0 0
0 0
0 0
0 0
0 0
0 0
0 0
0 0
0 0
0 0
0 0
0 0
0 0
0 0
0 0
0 0
0 0
0 0
0 0
0 0
0 0
0 0
0 0
0 0
0 0
0 0
0 0
0 0
0 0
0 0
0 0
0 0
0 0
0 0
0 0
0 0
0 0
0 0
0 0
0 0
0 0
0 0
0 0
0 0
0 0
0 0
0 0
0 0
0 0
0 0
0 0
0 0
0 0
0 0
0 0
0 0
0 0
0 0
0 0
0 0
0 0
0 0
0 0
0 0
0 0
0 0
0 0
0 0
0 0
0 0
0 0
0 0
0 0
0 0
0 0
0 0
0 0
0 0
0 0
0 0
0 0
0 0
0 0
0 0
0 0
0 0
0 0
0 0
0 0
0 0
0 0
0 0
0 0
0 0
0 0
0 0
0 0
0 0
0 0
0 0
0 0
0 0
0 0
0 0
0 0
0 0
0 0
0 0
0 0
0 0
0 0
0 0
0 0
0 0
0 0
0 0
0 0
0 0
0 0
0 0
0 0
0 0
0 0
0 0
0 0
0 0
0 0
0 0
0 0
0 0
0 0
0 0
0 0
0 0
0 0
0 0
0 0
0 0
0 0
0 0
0 0
0 0
0 0
0 0
0 0
0 0
0 0
0 0
0 0
0 0
0 0
0 0
0 0
0 0
0 0
0 0
0 0
0 0
0 0
0 0
0 0
0 0
0 0
0 0
0 0
0 0
0 0
0 0
0 0
0 0
0 0
0 0
0 0
0 0
0 0
0 0
0 0
0 0
0 0
0 0
0 0
0 0
0 0
0 0
0 0
0 0
0 0
0 0
0 0
0 0
0 0
0 0
0 0
0 0
0 0
0 0
0 0
0 0
0 0
0 0
0 0
0 0
0 0
0 0
0 0
0 0
0 0
0 0
0 0
0 0
0 0
0 0
0 0
0 0
0 0
0 0
0 0
0 0
0 0
0 0
0 0
0 0
0 0
0 0
0 0
0 0
0 0
0 0
0 0
0 0
0 0
0 0
0 0
0 0
0 0
0 0
0 0
0 0
0 0
0 0
0 0
0 0
0 0
0 0
0 0
0 0
0 0
0 0
0 0
0 0
0 0
0 0
0 0
0 0
0 0
0 0
0 0
0 0
0 0
0 0
0 0
0 0
0 0
0 0
0 0
0 0
0 0
0 0
0 0
0 0
0 0
0 0
0 0
0 0
0 0
0 0
0 0
0 0
0 0
0 0
0 0
0 0
0 0
0 0
0 0
0 0
0 0
0 0
0 0
0 0
0 0
0 0
0 0
0 0
0 0
0 0
0 0
0 0
0 0
0 0
0 0
0 0
0 0
0 0
0 0
0 0
0 0
0 0
0 0
0 0
0 0
0 0
0 0
0 0
0 0
0 0
0 0
0 0
0 0
0 0
0 0
0 0
0 0
0 0
0 0
0 0
0 0
0 0
0 0
0 0
0 0
0 0
0 0
0 0
0 0
0 0
0 0
0 0
0 0
0 0
0 0
0 0
0 0
0 0
0 0
0 0
0 0
0 0
0 0
0 0
0 0
0 0
0 0
0 0
0 0
0 0
0 0
0 0
0 0
0 0
0 0
0 0
0 0
0 0
0 0
0 0
0 0
0 0
0 0
0 0
0 0
0 0
0 0
0 0
0 0
0 0
0 0
0 0
0 0
0 0
0 0
0 0
0 0
0 0
0 0
0 0
0 0
0 0
0 0
0 0
0 0
0 0
0 0
0 0
0 0
0 0
0 0
0 0
0 0
0 0
0 0
0 0
0 0
0 0
0 0
0 0
0 0
0 0
0 0
0 0
0 0
0 0
0 0
0 0
0 0
0 0
0 0
0 0
0 0
0 0
0 0
0 0
0 0
0 0
0 0
0 0
0 0
0 0
0 0
0 0
0 0
0 0
0 0
0 0
0 0
0 0
0 0
0 0
0 0
0 0
0 0
0 0
0 0
0 0
0 0
0 0
0 0
0 0
0 0
0 0
0 0
0 0
0 0
0 0
0 0
0 0
0 0
0 0
0 0
0 0
0 0
0 0
0 0
0 0
0 0
0 0
0 0
0 0
0 0
0 0
0 0
0 0
0 0
0 0
0 0
0 0
0 0
0 0
0 0
0 0
0 0
0 0
0 0
0 0
0 0
0 0
0 0
0 0
0 0
0 0
0 0
0 0
0 0
0 0
0 0
0 0
0 0
0 0
0 0
0 0
0 0
0 0
0 0
0 0
0 0
0 0
0 0
0 0
0 0
0 0
0 0
0 0
0 0
0 0
0 0
0 0
0 0
0 0
0 0
0 0
0 0
0 0
0 0
0 0
0 0
0 0
0 0
0 0
0 0
0 0
0 0
0 0
0 0
0 0
0 0
0 0
0 0
0 0
0 0
0 0
0 0
0 0
0 0
0 0
0 0
0 0
0 0
0 0
0 0
0 0
0 0
0 0
0 0
0 0
0 0
0 0
0 0
0 0
0 0
0 0
0 0
0 0
0 0
0 0
0 0
0 0
0 0
0 0
0 0
0 0
0 0
0 0
0 0
0 0
0 0
0 0
0 0
0 0
0 0
0 0
0 0
0 0
0 0
0 0
0 0
0 0
0 0
0 0
0 0
0 0
0 0
0 0
0 0
0 0
0 0
0 0
0 0
0 0
0 0
0 0
0 0
0 0
0 0
0 0
0 0
0 0
0 0
0 0
0 0
0 0
0 0
0 0
0 0
0 0
0 0
0 0
0 0
0 0
0 0
0 0
0 0
0 0
0 0
0 0
0 0
0 0
0 0
0 0
0 0
0 0
0 0
0 0
0 0
0 0
0 0
0 0
0 0
0 0
0 0
0 0
0 0
0 0
0 0
0 0
0 0
0 0
0 0
0 0
0 0
0 0
0 0
0 0
0 0
0 0
0 0
0 0
0 0
0 0
0 0
0 0
0 0
0 0
0 0
0 0
0 0
0 0
0 0
0 0
0 0
0 0
0 0
0 0
0 0
0 0
0 0
0 0
0 0
0 0
0 0
0 0
0 0
0 0
0 0
0 0
0 0
0 0
0 0
0 0
0 0
0 0
0 0
0 0
0 0
0 0
0 0
0 0
0 0
0 0
0 0
0 0
0 0
0 0
0 0
0 0
0 0
0 0
0 0
0 0
0 0
0 0
0 0
0 0
0 0
0 0
0 0
0 0
0 0
0 0
0 0
0 0
0 0
0 0
0 0
0 0
0 0
0 0
0 0
0 0
0 0
0 0
0 0
0 0
0 0
0 0
0 0
0 0
0 0
0 0
0 0
0 0
0 0
0 0
0 0
0 0
0 0
0 0
0 0
0 0
0 0
0 0
0 0
0 0
0 0
0 0
0 0
0 0
0 0
0 0
0 0
0 0
0 0
0 0
0 0
0 0
0 0
0 0
0 0
0 0
0 0
0 0
0 0
0 0
0 0
0 0
0 0
0 0
0 0
0 0
0 0
0 0
0 0
0 0
0 0
0 0
0 0
0 0
0 0
0 0
0 0
0 0
0 0
0 0
0 0
0 0
0 0
0 0
0 0
0 0
0 0
0 0
0 0
0 0
0 0
0 0
0 0
0 0
0 0
0 0
0 0
0 0
0 0
0 0
0 0
0 0
0 0
0 0
0 0
0 0
0 0
0 0
0 0
0 0
0 0
0 0
0 0
0 0
0 0
0 0
0 0
0 0
0 0
0 0
0 0
0 0
0 0
0 0
0 0
0 0
0 0
0 0
0 0
0 0
0 0
0 0
0 0
0 0
0 0
0 0
0 0
0 0
0 0
0 0
0 0
0 0
0 0
0 0
0 0
0 0
0 0
0 0
0 0
0 0
0 0
0 0
0 0
0 0
0 0
0 0
0 0
0 0
0 0
0 0
0 0
0 0
0 0
0 0
0 0
0 0
0 0
0 0
0 0
0 0
0 0
0 0
0 0
0 0
0 0
0 0
0 0
0 0
0 0
0 0
0 0
0 0
0 0
0 0
0 0
0 0
0 0
0 0
0 0
0 0
0 0
0 0
0 0
0 0
0 0
0 0
0 0
0 0
0 0
0 0
0 0
0 0
0 0
0 0
0 0
0 0
0 0
0 0
0 0
0 0
0 0
0 0
0 0
0 0
0 0
0 0
0 0
0 0
0 0
0 0
0 0
0 0
0 0
0 0
0 0
0 0
0 0
0 0
0 0
0 0
0 0
0 0
0 0
0 0
0 0
0 0
0 0
0 0
0 0
0 0
0 0
0 0
0 0
0 0
0 0
0 0
0 0
0 0
0 0
0 0
0 0
0 0
0 0
0 0
0 0
0 0
0 0
0 0
0 0
0 0
0 0
0 0
0 0
0 0
0 0
0 0
0 0
0 0
0 0
0 0
0 0
0 0
0 0
0 0
0 0
0 0
0 0
0 0
0 0
0 0
0 0
0 0
0 0
0 0
0 0
0 0
0 0
0 0
0 0
0 0
0 0
0 0
0 0
0 0
0 0
0 0
0 0
0 0
0 0
0 0
0 0
0 0
0 0
0 0
0 0
0 0
0 0
0 0
0 0
0 0
0 0
0 0
0 0
0 0
0 0
0 0
0 0
0 0
0 0
0 0
0 0
0 0
0 0
0 0
0 0
0 0
0 0
0 0
0 0
0 0
0 0
0 0
0 0
0 0
0 0
0 0
0 0
0 0
0 0
0 0
0 0
0 0
0 0
0 0
0 0
0 0
0 0
0 0
0 0
0 0
0 0
0 0
0 0
0 0
0 0
0 0
0 0
0 0
0 0
0 0
0 0
0 0
0 0
0 0
0 0
0 0
0 0
0 0
0 0
0 0
0 0
0 0
0 0
0 0
0 0
0 0
0 0
0 0
0 0
0 0
0 0
0 0
0 0
0 0
0 0
0 0
0 0
0 0
0 0
0 0
0 0
0 0
0 0
0 0
0 0
0 0
0 0
0 0
0 0
0 0
0 0
0 0
0 0
0 0
0 0
0 0
0 0
0 0
0 0
0 0
0 0
0 0
0 0
0 0
0 0
0 0
0 0
0 0
0 0
0 0
0 0
0 0
0 0
0 0
0 0
0 0
0 0
0 0
0 0
0 0
0 0
0 0
0 0
0 0
0 0
0 0
0 0
0 0
0 0
0 0
0 0
0 0
0 0
0 0
0 0
0 0
0 0
0 0
0 0
0 0
0 0
0 0
0 0
0 0
0 0
0 0
0 0
0 0
0 0
0 0
0 0
0 0
0 0
0 0
0 0
0 0
0 0
0 0
0 0
0 0
0 0
0 0
0 0
0 0
0 0
0 0
0 0
0 0
0 0
0 0
0 0
0 0
0 0
0 0
0 0
0 0
0 0
0 0
0 0
0 0
0 0
0 0
0 0
0 0
0 0
0 0
0 0
0 0
0 0
0 0
0 0
0 0
0 0
0 0
0 0
0 0
0 0
0 0
0 0
0 0
0 0
0 0
0 0
0 0
0 0
0 0
0 0
0 0
0 0
0 0
0 0
0 0
0 0
0 0
0 0
0 0
0 0
0 0
0 0
0 0
0 0
0 0
0 0
0 0
0 0
0 0
0 0
0 0
0 0
0 0
0 0
0 0
0 0
0 0
0 0
0 0
0 0
0 0
0 0
0 0
0 0
0 0
0 0
0 0
0 0
0 0
0 0
0 0
0 0
0 0
0 0
0 0
0 0
0 0
0 0
0 0
0 0
0 0
0 0
0 0
0 0
0 0
0 0
0 0
0 0
0 0
0 0
0 0
0 0
0 0
0 0
0 0
0 0
0 0
0 0
0 0
0 0
0 0
0 0
0 0
0 0
0 0
0 0
0 0
0 0
0 0
0 0
0 0
0 0
0 0
0 0
0 0
0 0
0 0
0 0
0 0
0 0
0 0
0 0
0 0
0 0
0 0
0 0
0 0
0 0
0 0
0 0
0 0
0 0
0 0
0 0
0 0
0 0
0 0
0 0
0 0
0 0
0 0
0 0
0 0
0 0
0 0
0 0
0 0
0 0
0 0
0 0
0 0
0 0
0 0
0 0
0 0
0 0
0 0
0 0
0 0
0 0
0 0
0 0
0 0
0 0
0 0
0 0
0 0
0 0
0 0
0 0
0 0
0 0
0 0
0 0
0 0
0 0
0 0
0 0
0 0
0 0
0 0
0 0
0 0
0 0
0 0
0 0
0 0
0 0
0 0
0 0
0 0
0 0
0 0
0 0
0 0
0 0
0 0
0 0
0 0
0 0
0 0
0 0
0 0
0 0
0 0
0 0
0 0
0 0
0 0
0 0
0 0
0 0
0 0
0 0
0 0
0 0
0 0
0 0
0 0
0 0
0 0
0 0
0 0
0 0
0 0
0 0
0 0
0 0
0 0
0 0
0 0
0 0
0 0
0 0
0 0
0 0
0 0
0 0
0 0
0 0
0 0
0 0
0 0
0 0
0 0
0 0
0 0
0 0
0 0
0 0
0 0
0 0
0 0
0 0
0 0
0 0
0 0
0 0
0 0
0 0
0 0
0 0
0 0
0 0
0 0
0 0
0 0
0 0
0 0
0 0
0 0
0 0
0 0
0 0
0 0
0 0
0 0
0 0
0 0
0 0
0 0
0 0
0 0
0 0
0 0
0 0
0 0
0 0
0 0
0 0
0 0
0 0
0 0
0 0
0 0
0 0
0 0
0 0
0 0
0 0
0 0
0 0
0 0
0 0
0 0
0 0
0 0
0 0
0 0
0 0
0 0
0 0
0 0
0 0
0 0
0 0
0 0
0 0
0 0
0 0
0 0
0 0
0 0
0 0
0 0
0 0
0 0
0 0
0 0
0 0
0 0
0 0
0 0
0 0
0 0
0 0
0 0
0 0
0 0
0 0
0 0
0 0
0 0
0 0
0 0
0 0
0 0
0 0
0 0
0 0
0 0
0 0
0 0
0 0
0 0
0 0
0 0
0 0
0 0
0 0
0 0
0 0
0 0
0 0
0 0
0 0
0 0
0 0
0 0
0 0
0 0
0 0
0 0
0 0
0 0
0 0
0 0
0 0
0 0
0 0
0 0
0 0
0 0
0 0
0 0
0 0
0 0
0 0
0 0
0 0
0 0
0 0
0 0
0 0
0 0
0 0
0 0
0 0
0 0
0 0
0 0
0 0
0 0
0 0
0 0
0 0
0 0
0 0
0 0
0 0
0 0
0 0
0 0
0 0
0 0
0 0
0 0
0 0
0 0
0 0
0 0
0 0
0 0
0 0
0 0
0 0
0 0
0 0
0 0
0 0
0 0
0 0
0 0
0 0
0 0
0 0
0 0
0 0
0 0
0 0
0 0
0 0
0 0
0 0
0 0
0 0
0 0
0 0
0 0
0 0
0 0
0 0
0 0
0 0
0 0
0 0
0 0
0 0
0 0
0 0
0 0
0 0
0 0
0 0
0 0
0 0
0 0
0 0
0 0
0 0
0 0
0 0
0 0
0 0
0 0
0 0
0 0
0 0
0 0
0 0
0 0
0 0
0 0
0 0
0 0
0 0
0 0
0 0
0 0
0 0
0 0
0 0
0 0
0 0
0 0
0 0
0 0
0 0
0 0
0 0
0 0
0 0
0 0
0 0
0 0
0 0
0 0
0 0
0 0
0 0
0 0
0 0
0 0
0 0
0 0
0 0
0 0
0 0
0 0
0 0
0 0
0 0
0 0
0 0
0 0
0 0
0 0
0 0
0 0
0 0
0 0
0 0
0 0
0 0
0 0
0 0
0 0
0 0
0 0
0 0
0 0
0 0
0 0
0 0
0 0
0 0
0 0
0 0
0 0
0 0
0 0
0 0
0 0
0 0
0 0
0 0
0 0
0 0
0 0
0 0
0 0
0 0
0 0
0 0
0 0
0 0
0 0
0 0
0 0
0 0
0 0
0 0
0 0
0 0
0 0
0 0
0 0
0 0
0 0
0 0
0 0
0 0
0 0
0 0
0 0
0 0
0 0
0 0
0 0
0 0
0 0
0 0
0 0
0 0
0 0
0 0
0 0
0 0
0 0
0 0
0 0
0 0
0 0
0 0
0 0
0 0
0 0
0 0
0 0
0 0
0 0
0 0
0 0
0 0
0 0
0 0
0 0
0 0
0 0
0 0
0 0
0 0
0 0
0 0
0 0
0 0
0 0
0 0
0 0
0 0
0 0
0 0
0 0
0 0
0 0
0 0
0 0
0 0
0 0
0 0
0 0
0 0
0 0
0 0
0 0
0 0
0 0
0 0
0 0
0 0
0 0
0 0
0 0
0 0
0 0
0 0
0 0
0 0
0 0
0 0
0 0
0 0
0 0
0 0
0 0
0 0
0 0
0 0
0 0
0 0
0 0
0 0
0 0
0 0
0 0
0 0
0 0
0 0
0 0
0 0
0 0
0 0
0 0
0 0
0 0
0 0
0 0
0 0
0 0
0 0
0 0
0 0
0 0
0 0
0 0
0 0
0 0
0 0
0 0
0 0
0 0
0 0
0 0
0 0
0 0
0 0
0 0
0 0
0 0
0 0
0 0
0 0
0 0
0 0
0 0
0 0
0 0
0 0
0 0
0 0
0 0
0 0
0 0
0 0
0 0
0 0
0 0
0 0
0 0
0 0
0 0
0 0
0 0
0 0
0 0
0 0
0 0
0 0
0 0
0 0
0 0
0 0
0 0
0 0
0 0
0 0
0 0
0 0
0 0
0 0
0 0
0 0
0 0
0 0
0 0
0 0
0 0
0 0
0 0
0 0
0 0
0 0
0 0
0 0
0 0
0 0
0 0
0 0
0 0
0 0
0 0
0 0
0 0
0 0
0 0
0 0
0 0
0 0
0 0
0 0
0 0
0 0
0 0
0 0
0 0
0 0
0 0
0 0
0 0
0 0
0 0
0 0
0 0
0 0
0 0
0 0
0 0
0 0
0 0
0 0
0 0
0 0
0 0
0 0
0 0
0 0
0 0
0 0
0 0
0 0
0 0
0 0
0 0
0 0
0 0
0 0
0 0
0 0
0 0
0 0
0 0
0 0
0 0
0 0
0 0
0 0
0 0
0 0
0 0
0 0
0 0
0 0
0 0
0 0
0 0
0 0
0 0
0 0
0 0
0 0
0 0
0 0
0 0
0 0
0 0
0 0
0 0
0 0
0 0
0 0
0 0
0 0
0 0
0 0
0 0
0 0
0 0
0 0
0 0
0 0
0 0
0 0
0 0
0 0
0 0
0 0
0 0
0 0
0 0
0 0
0 0
0 0
0 0
0 0
0 0
0 0
0 0
0 0
0 0
0 0
0 0
0 0
0 0
0 0
0 0
0 0
0 0
0 0
0 0
0 0
0 0
0 0
0 0
0 0
0 0
0 0
0 0
0 0
0 0
0 0
0 0
0 0
0 0
0 0
0 0
0 0
0 0
0 0
0 0
0 0
0 0
0 0
0 0
0 0
0 0
0 0
0 0
0 0
0 0
0 0
0 0
0 0
0 0
0 0
0 0
0 0
0 0
0 0
0 0
0 0
0 0
0 0
0 0
0 0
0 0
0 0
0 0
0 0
0 0
0 0
0 0
0 0
0 0
0 0
0 0
0 0
0 0
0 0
0 0
0 0
0 0
0 0
0 0
0 0
0 0
0 0
0 0
0 0
0 0
0 0
0 0
0 0
0 0
0 0
0 0
0 0
0 0
0 0
0 0
0 0
0 0
0 0
0 0
0 0
0 0
0 0
0 0
0 0
0 0
0 0
0 0
0 0
0 0
0 0
0 0
0 0
0 0
0 0
0 0
0 0
0 0
0 0
0 0
0 0
0 0
0 0
0 0
0 0
0 0
0 0
      </DataArray> 
      <DataArray type="Float64" NumberOfComponents="1" Name="CauchyShearStress" format="ascii">
-2.9431
2.57568
-0.8473
0.239203
0.133446
0.176586
0.12347
0.055008
-0.0254868
-0.0387056
-0.0360644
-0.0543799
-0.0727394
-0.0537546
-0.0263795
-0.019939
-0.0206823
0.0115526
0.0386037
0.0381429
0.0302337
0.0538129
0.0617347
0.0248766
-0.0227087
-0.0303489
-0.0703611
-0.263246
-0.331278
-0.429132
0.274159
0.0149145
0.132903
0.30185
-3.35619
0.0207628
0.112266
0.132383
0.123978
0.0549431
0.0527109
0.0942967
0.14164
0.139224
0.194159
0.161422
0.214181
0.268988
0.303901
0.303747
0.325929
0.333078
0.347019
0.143671
-0.0769696
-0.152621
-0.235121
-0.298051
-0.359178
0.120302
0.457704
0.650787
1.28778
-14.9665
-7.52409
-3.21105
-4.82028
-5.95678
-8.53657
0.110302
-14.3536
-12.4793
-9.54705
15.1549
-1.31133
-10.102
15.0844
-3.21767
7.76052
3.3273
4.87352
5.97785
8.55139
-0.184776
-0.600932
-0.728814
-1.51818
-0.000178327
-0.0562805
0.146282
0.252247
0.444073
0.457797
0.0739459
-0.0869961
-0.153887
-0.224845
-0.285408
-0.32214
-0.347954
-0.360262
-0.385837
-0.342756
-0.332676
-0.322351
-0.289968
-0.294836
-0.223289
-0.144474
-0.112058
-0.133095
0.313982
0.618926
3.49751
1.00618
-8.10074
-4.76864
-8.28036
9.24893
5.26335
2.28729
2.19997
-1.93474
-0.184256
-7.83326
7.83493
-1.84585
-1.98091
-3.86489
-3.64042
4.13583
-3.22537
3.61669
-3.54211
-3.63115
3.92579
3.94551
-3.11636
-2.9661
-3.50583
-1.72197
1.28883
1.79214
3.98205
3.30765
4.48997
-4.0704
-4.71598
-4.94225
-4.73112
5.19346
4.36217
-1.80453
0.397037
1.66982
-3.02855
3.14497
-2.27566
-2.67215
-3.0749
-2.81134
2.9741
3.39263
3.04809
2.41073
-2.87859
-2.97729
-2.56433
-1.3064
0.559222
2.60602
-2.69
-2.63777
3.07577
3.16159
2.78884
2.73164
3.14761
4.3115
-3.82624
-4.46501
-3.47179
-5.13627
-5.71862
5.10387
2.95079
-2.06132
-1.40948
-0.138883
-0.691325
0.539131
1.33422
0.935199
1.88052
-2.71298
-2.78613
2.73182
2.7734
-2.15102
-1.83489
-2.03185
-1.80292
-2.04639
-2.54536
2.72299
2.31897
2.0588
2.15995
1.86585
2.13335
-2.65067
-2.54148
-3.52887
0.0736448
1.99942
-1.66102
1.87324
2.62232
2.45667
5.32534
-6.48497
-1.44226
-7.07647
7.41374
5.97096
4.22397
-2.07799
-1.54066
-0.545728
0.383423
1.16781
1.88534
-2.5891
2.52558
-1.7978
-1.26606
-1.80902
1.89362
1.3791
1.85167
-2.09603
-2.2862
-2.3374
-2.1445
-1.19649
-0.891737
-8.87406
-1.58646
6.94068
-0.230207
0.237061
1.40319
1.93437
2.15696
2.1798
1.76424
7.11807
-7.0446
0.860643
2.62894
-8.79163
-2.27842
-1.87107
8.17585
2.69345
-1.96539
-1.95203
-1.45848
-1.79191
-0.739124
-1.07504
0.0916918
-0.227831
0.698366
0.427694
1.42096
1.0897
1.96374
1.68087
-2.03155
-2.36383
-2.46605
2.04762
2.34663
2.33557
1.83038
-1.70403
-0.773926
-0.735925
-1.18285
1.20216
0.880647
0.831767
1.81098
-1.22685
-1.70314
-1.49928
-1.19832
-0.442833
-15.4419
-5.95302
-0.476255
3.78936
16.3755
1.157
-1.13918
1.15139
1.90578
1.24277
11.4994
5.99091
-9.72002
-6.11575
6.08109
-10.0776
0.751363
-4.62851
4.82443
6.92066
-1.99185
-1.27066
-0.687111
-0.135938
0.365789
0.871229
1.59875
-2.2298
-1.68556
1.90324
1.88096
-1.03929
-0.800852
-1.97539
1.55024
0.6211
1.07482
-1.30678
1.46182
-0.380839
-0.713354
-0.631607
-0.90807
-0.693394
-0.811401
-0.665738
-0.534374
-0.287525
-28.9202
-4.32925
3.52403
26.0079
0.0749473
0.541792
1.23108
1.68576
3.79748
-3.2727
-1.68091
-1.0949
-0.488148
0.0375362
0.417654
0.588345
0.515093
0.86264
0.343511
0.455028
0.532012
0.587638
8.94146
14.6716
8.18064
-8.73741
-11.604
-14.6227
6.11663
7.71216
8.17804
-5.49406
-12.0588
-8.62523
-1.08443
-1.90776
-0.785927
-0.68206
-0.691419
-0.483263
-0.450781
-0.481215
-0.257588
-0.174384
-0.223106
0.0262528
0.111071
0.0695928
0.287502
0.347444
0.326565
0.508334
0.499847
0.531015
0.891228
1.85682
0.973016
-0.470818
-0.431971
0.678749
0.747259
-2.16827
-2.34755
2.06034
2.09701
2.20272
-0.404445
-0.706974
0.80517
0.600803
-0.755909
0.694331
-1.07758
-0.859718
0.754769
0.955456
-1.67084
-3.45846
-1.72846
1.69229
1.80819
2.81884
2.35555
-2.75797
1.65701
-1.86171
0.0766581
-0.0114428
2.27752
-2.39785
1.43922
-0.944934
2.08351
1.16284
0.608754
0.133162
-0.404523
-0.96566
-1.61683
-2.10051
-7.01185
10.1781
-11.2029
11.3762
1.09896
1.44982
0.253602
-2.65666
3.18148
0.127533
12.1858
-15.0466
-0.6908
-1.4709
-1.90529
-1.52088
1.25537
-1.68468
5.48107
-2.98363
-1.26214
1.533
1.34984
-1.13552
-1.48449
2.43427
2.48099
-2.62492
-2.41655
2.09747
1.59073
0.756751
0.00250104
-1.09997
-1.92389
-2.12865
6.05946
1.12604
-2.16431
-1.42295
-6.03651
4.09435
2.49349
2.42575
1.41954
-1.5516
-1.866
-2.73599
5.84185
-5.32297
2.13225
2.88867
3.25315
-2.88546
-2.5624
-2.1729
2.95583
-2.95312
1.1037
-0.305815
4.21165
-5.88764
3.74805
-3.73377
3.43924
-3.19436
4.51411
-4.06731
-3.26001
-15.3811
-1.68861
-18.1644
-12.7614
-2.0553
-9.27552
1.51234
11.8679
23.6845
2.26414
14.4018
12.6291
-13.6656
-20.7353
-21.2576
-21.2554
-11.1909
-14.26
-16.3152
-12.3707
-11.9408
-11.4089
-13.252
-10.0362
-17.2524
-21.6051
-7.32641
-10.0991
12.4961
21.6252
19.7148
16.3921
11.2673
14.3436
12.6936
10.7994
12.4191
11.5073
10.1819
13.329
7.43175
17.3806
21.7159
10.2482
11.3393
1.0219
3.92479
1.29052
34.6031
9.43271
39.682
17.2173
7.16966
-13.345
-5.26862
-1.15662
-40.7075
-33.8723
-15.5498
-1.68602
-9.13382
-20.3478
11.4479
11.7428
2.20386
6.8903
-1.70019
8.7433
6.27525
-10.7374
-6.16372
-14.7152
1.43765
2.19256
-2.27484
-9.0385
-0.0303927
0.759468
-7.7535
-9.27735
-4.12748
0.968173
5.93274
-3.46879
9.13434
5.57121
15.9296
23.1714
23.0579
15.5486
16.8583
12.5296
12.7963
1.64056
1.37538
4.16917
-0.10054
7.43997
1.09033
-0.88398
-3.27936
-5.72262
-2.22215
-9.92666
-3.37358
-14.0097
-22.1993
-23.4977
-14.6156
-16.4804
-12.2767
-11.7305
7.95993
9.16956
6.88163
7.17283
-6.18272
-9.88344
-4.63379
-6.49315
6.63983
7.60811
7.03347
6.80466
6.48583
6.277
7.24885
4.67615
5.4861
6.531
5.57176
-6.18936
-5.30425
-5.44795
-4.89157
-3.60043
-6.01468
3.64706
4.12297
4.21331
3.06775
3.04864
2.65958
2.24039
1.69724
-1.44853
-0.778273
-0.656433
-0.0993646
0.777314
-0.809356
-3.387
-4.00148
-3.07472
-4.67216
-2.35543
-2.03705
-2.6796
-1.92724
-1.46692
-2.04217
-1.0459
-2.09569
-2.37329
9.60328
8.33647
10.2529
9.29493
12.4554
14.3802
11.6171
6.21602
8.58094
5.90676
30.1756
34.3203
-5.80328
-8.44508
-6.07436
-9.18487
-29.105
-33.3193
-11.4837
-10.0441
-8.14964
-9.68003
11.0721
1.75292
4.47747
3.16794
5.22183
0.567825
9.49655
5.51741
3.19843
8.3985
8.15287
7.00192
6.98604
11.3155
10.9118
7.65292
12.5605
-11.6785
-6.98714
-10.6421
-5.38314
-12.2381
-7.64404
-7.32835
-8.82848
-5.1981
-11.848
-7.42076
-6.61857
-4.19101
-3.01231
-2.60091
-3.1565
-1.44453
-1.58553
-5.34851
-7.47993
-5.51853
-6.70288
-7.76833
-8.40465
-7.9522
-8.33537
-6.92308
-7.29911
-6.64832
0.514376
1.52833
0.977185
2.59289
-0.481506
0.178055
1.68184
-0.294509
8.53225
10.6363
5.49917
12.32
9.86188
4.51045
2.8822
3.63642
9.71533
17.1178
14.7797
17.9119
11.1676
14.3023
18.2251
11.4379
-24.6152
-38.0853
-28.5468
-16.2969
-28.0512
-60.9851
41.1337
15.1166
27.7759
26.7882
11.1945
57.4131
12.1157
2.64818
3.11575
1.9358
-21.6434
-14.5227
-0.38038
8.64475
5.00552
-4.06446
-5.04708
-0.191565
-8.08431
-4.62571
2.48126
5.07927
-3.74351
-10.6725
9.94228
7.41175
8.67688
6.89182
6.12288
5.51897
9.15566
9.21419
9.93087
-1.59932
6.11145
4.19807
6.22298
-0.466276
-8.67313
-4.1666
-9.79202
-4.28381
-8.61763
19.7206
4.22752
1.93698
-5.50006
-5.58906
10.2886
-5.81158
-5.6525
-9.57659
-2.90549
-5.63568
-9.88922
-11.0541
-5.39668
-0.731186
3.83428
-8.44848
-7.4475
-6.35076
0.296739
0.73628
-0.804304
-1.14111
-3.40012
0.444386
5.10006
-2.57837
1.21874
2.5561
1.7881
3.56815
3.58686
3.31583
8.07989
6.9404
8.04184
7.58222
6.49948
8.70909
-2.14048
-0.900161
2.24653
-3.19786
-0.0333717
5.97831
-7.08918
-8.15311
-5.71308
-7.23654
-4.30041
-10.0071
-9.28933
-8.99791
-5.72377
-7.37789
-8.32006
-8.84986
-3.78549
-6.71903
-6.94187
-5.60763
4.73983
3.59915
5.46402
1.79494
2.61945
5.12029
4.5956
-11.1931
-10.578
-9.3905
-6.83422
-5.19764
-7.89949
-13.554
-8.71992
-7.22409
-14.9898
-1.85092
-15.4659
-10.4544
-2.93035
-16.9046
-15.9224
-20.8795
-3.1098
-4.05956
-6.9858
-4.38724
-3.15752
-10.8688
-40.2437
-2.66932
-6.37092
20.8237
25.3309
19.3672
3.9094
4.76026
7.00938
3.51357
3.61424
2.8631
10.6105
37.9209
8.23099
0.690154
0.11728
0.233886
0.074556
-0.083154
-0.0282097
0.306441
1.18634
0.963864
0.553774
0.150564
0.0632354
0.133134
-0.0142971
-0.0925044
1.01753
0.201377
0.023083
0.101898
0.01727
-0.0942903
-0.050992
0.13273
0.386462
0.137608
-0.194499
-0.145733
-0.0153157
-0.198098
0.383391
0.360701
-0.17807
-1.3128
-0.561187
-0.442484
-0.669257
0.291404
0.235632
-0.348221
-1.85563
-2.14522
-2.45707
-1.48341
-0.8275
-1.77274
0.13566
0.0610277
-2.94487
2.71901
0.790942
1.70162
0.640373
-0.382524
-0.451832
2.06923
3.53374
2.48928
1.39341
0.500986
0.564496
0.402878
-0.447167
-0.269921
2.16679
0.269264
0.036219
0.157178
0.0209879
-0.17286
0.00779763
0.21166
0.383813
0.117218
-0.407752
-0.0829435
-0.02858
-0.138391
0.32767
0.326532
0.00687168
-0.480079
-0.637646
-0.724975
-0.217061
-0.187406
-0.27458
0.320511
0.293851
-0.1501
-1.06192
-1.15668
0.323392
-0.174553
-0.210449
-0.27271
-1.29089
0.226611
11.7888
6.02449
7.23764
-3.96875
-5.08464
-4.35173
-5.76586
-3.61266
-9.43008
-10.8047
-11.7876
4.84999
4.90586
6.18783
7.93128
4.55818
-0.141822
-6.17857
-0.410388
4.19302
1.65671
1.37521
0.958482
1.5463
0.792105
0.495944
0.867763
1.31368
0.723321
-1.1809
-0.744295
-0.816089
-0.376382
-1.8487
0.858145
0.844348
1.27905
2.0398
0.577796
-0.960702
-0.590406
-0.859378
-0.927449
-1.32615
-1.12391
-0.748928
-1.15439
-1.46826
-1.68289
9.11089
8.57831
-2.111
-3.6086
-3.14774
-4.46538
-2.3356
-0.449293
-0.36762
-10.0213
-8.812
1.80065
2.04201
2.17448
2.32927
1.69019
1.25685
1.55225
0.804427
1.69693
2.15798
1.89685
-0.722692
-1.51526
-0.495909
0.219078
0.63075
0.266292
0.533228
1.0257
-0.0325278
2.10015
-0.309348
-0.827501
-1.07513
-0.792957
-0.652132
-0.927616
-0.594048
-0.20396
-0.344215
-1.36198
-1.52218
-1.80266
-1.81638
-2.01594
-2.45948
-2.08689
0.112799
0.831342
2.2762
2.03697
2.3701
2.57579
2.54922
0.997506
0.89411
1.60743
2.19458
1.55725
-1.26997
-0.603016
-0.93824
-1.53615
-1.78081
2.09685
3.53287
4.25735
3.56255
-4.19913
-2.55542
-3.24887
-2.45899
-1.38346
-1.72422
-4.66693
2.78995
2.86437
3.07693
3.42233
3.01995
2.43601
2.47085
2.72725
3.62305
-2.66583
-2.18001
-2.16886
-2.28235
-2.06802
-3.18858
-3.20306
-2.18904
-2.62447
-2.91378
-2.62882
-2.99479
-3.64445
3.1523
3.40403
-1.50635
-1.51017
-1.22163
-1.67744
-1.87522
-2.34995
-1.98358
-2.19015
-0.29701
-0.0810732
-0.160071
-0.0298291
-0.427334
-0.0149396
-0.0242748
-0.247846
0.18168
0.0850314
2.51148
4.08501
4.55127
2.71017
0.0915149
-0.292553
1.54254
0.299447
0
0
0
0
0
0
0
0
0
0
0
0
0
0
0
0
0
0
0
0
0
0
0
0
0
0
0
0
0
0
0
0
0
0
0
0
0
0
0
0
0
0
0
0
0
0
0
0
0
0
0
0
0
0
0
0
0
0
0
0
0
0
0
0
0
0
0
0
0
0
0
0
0
0
0
0
0
0
0
0
0
0
0
0
0
0
0
0
0
0
0
0
0
0
0
0
0
0
0
0
0
0
0
0
0
0
0
0
0
0
0
0
0
0
0
0
0
0
0
0
0
0
0
0
0
0
0
0
0
0
0
0
0
0
0
0
0
0
0
0
0
0
0
0
0
0
0
0
0
0
0
0
0
0
0
0
0
0
0
0
0
0
0
0
0
0
0
0
0
0
0
0
0
0
0
0
0
0
0
0
0
0
0
0
0
0
0
0
0
0
0
0
0
0
0
0
0
0
0
0
0
0
0
0
0
0
0
0
0
0
0
0
0
0
0
0
0
0
0
0
0
0
0
0
0
0
0
0
0
0
0
0
0
0
0
0
0
0
0
0
0
0
0
0
0
0
0
0
0
0
0
0
0
0
0
0
0
0
0
0
0
0
0
0
0
0
0
0
0
0
0
0
0
0
0
0
0
0
0
0
0
0
0
0
0
0
0
0
0
0
0
0
0
0
0
0
0
0
0
0
0
0
0
0
0
0
0
0
0
0
0
0
0
0
0
0
0
0
0
0
0
0
0
0
0
0
0
0
0
0
0
0
0
0
0
0
0
0
0
0
0
0
0
0
0
0
0
0
0
0
0
0
0
0
0
0
0
0
0
0
0
0
0
0
0
0
0
0
0
0
0
0
0
0
0
0
0
0
0
0
0
0
0
0
0
0
0
0
0
0
0
0
0
0
0
0
0
0
0
0
0
0
0
0
0
0
0
0
0
0
0
0
0
0
0
0
0
0
0
0
0
0
0
0
0
0
0
0
0
0
0
0
0
0
0
0
0
0
0
0
0
0
0
0
0
0
0
0
0
0
0
0
0
0
0
0
0
0
0
0
0
0
0
0
0
0
0
0
0
0
0
0
0
0
0
0
0
0
0
0
0
0
0
0
0
0
0
0
0
0
0
0
0
0
0
0
0
0
0
0
0
0
0
0
0
0
0
0
0
0
0
0
0
0
0
0
0
0
0
0
0
0
0
0
0
0
0
0
0
0
0
0
0
0
0
0
0
0
0
0
0
0
0
0
0
0
0
0
0
0
0
0
0
0
0
0
0
0
0
0
0
0
0
0
0
0
0
0
0
0
0
0
0
0
0
0
0
0
0
0
0
0
0
0
0
0
0
0
0
0
0
0
0
0
0
0
0
0
0
0
0
0
0
0
0
0
0
0
0
0
0
0
0
0
0
0
0
0
0
0
0
0
0
0
0
0
0
0
0
0
0
0
0
0
0
0
0
0
0
0
0
0
0
0
0
0
0
0
0
0
0
0
0
0
0
0
0
0
0
0
0
0
0
0
0
0
0
0
0
0
0
0
0
0
0
0
0
0
0
0
0
0
0
0
0
0
0
0
0
0
0
0
0
0
0
0
0
0
0
0
0
0
0
0
0
0
0
0
0
0
0
0
0
0
0
0
0
0
0
0
0
0
0
0
0
0
0
0
0
0
0
0
0
0
0
0
0
0
0
0
0
0
0
0
0
0
0
0
0
0
0
0
0
0
0
0
0
0
0
0
0
0
0
0
0
0
0
0
0
0
0
0
0
0
0
0
0
0
0
0
0
0
0
0
0
0
0
0
0
0
0
0
0
0
0
0
0
0
0
0
0
0
0
0
0
0
0
0
0
0
0
0
0
0
0
0
0
0
0
0
0
0
0
0
0
0
0
0
0
0
0
0
0
0
0
0
0
0
0
0
0
0
0
0
0
0
0
0
0
0
0
0
0
0
0
0
0
0
0
0
0
0
0
0
0
0
0
0
0
0
0
0
0
0
0
0
0
0
0
0
0
0
0
0
0
0
0
0
0
0
0
0
0
0
0
0
0
0
0
0
0
0
0
0
0
0
0
0
0
0
0
0
0
0
0
0
0
0
0
0
0
0
0
0
0
0
0
0
0
0
0
0
0
0
0
0
0
0
0
0
0
0
0
0
0
0
0
0
0
0
0
0
0
0
0
0
0
0
0
0
0
0
0
0
0
0
0
0
0
0
0
0
0
0
0
0
0
0
0
0
0
0
0
0
0
0
0
0
0
0
0
0
0
0
0
0
0
0
0
0
0
0
0
0
0
0
0
0
0
0
0
0
0
0
0
0
0
0
0
0
0
0
0
0
0
0
0
0
0
0
0
0
0
0
0
0
0
0
0
0
0
0
0
0
0
0
0
0
0
0
0
0
0
0
0
0
0
0
0
0
0
0
0
0
0
0
0
0
0
0
0
0
0
0
0
0
0
0
0
0
0
0
0
0
0
0
0
0
0
0
0
0
0
0
0
0
0
0
0
0
0
0
0
0
0
0
0
0
0
0
0
0
0
0
0
0
0
0
0
0
0
0
0
0
0
0
0
0
0
0
0
0
0
0
0
0
0
0
0
0
0
0
0
0
0
0
0
0
0
0
0
0
0
0
0
0
0
0
0
0
0
0
0
0
0
0
0
0
0
0
0
0
0
0
0
0
0
0
0
0
0
0
0
0
0
0
0
0
0
0
0
0
0
0
0
0
0
0
0
0
0
0
0
0
0
0
0
0
0
0
0
0
0
0
0
0
0
0
0
0
0
0
0
0
0
0
0
0
0
0
0
0
0
0
0
0
0
0
0
0
0
0
0
0
0
0
0
0
0
0
0
0
0
0
0
0
0
0
0
0
0
0
0
0
0
0
0
0
0
0
0
0
0
0
0
0
0
0
0
0
0
0
0
0
0
0
0
0
0
0
0
0
0
0
0
0
0
0
0
0
0
0
0
0
0
0
0
0
0
0
0
0
0
0
0
0
0
0
0
0
0
0
0
0
0
0
0
0
0
0
0
0
0
0
0
0
0
0
0
0
0
0
0
0
0
0
0
0
0
0
0
0
0
0
0
0
0
0
0
0
0
0
0
0
0
0
0
0
0
0
0
0
0
0
0
0
0
0
0
0
0
0
0
0
0
0
0
0
0
0
0
0
0
0
0
0
0
0
0
0
0
0
0
0
0
0
0
0
0
0
0
0
0
0
0
0
0
0
0
0
0
0
0
0
0
0
0
0
0
0
0
0
0
0
0
0
0
0
0
0
0
0
0
0
0
0
0
0
0
0
0
0
0
0
0
0
0
0
0
0
0
0
0
0
0
0
0
0
0
0
0
0
0
0
0
0
0
0
0
0
0
0
0
0
0
0
0
0
0
0
0
0
0
0
0
0
0
0
0
0
0
0
0
0
0
0
0
0
0
0
0
0
0
0
0
0
0
0
0
0
0
0
0
0
0
0
0
0
0
0
0
0
0
0
0
0
0
0
0
0
0
0
0
0
0
0
0
0
0
0
0
0
0
0
0
0
0
0
0
0
0
0
0
0
0
0
0
0
0
0
0
0
0
0
0
0
0
0
0
0
0
0
0
0
0
0
0
0
0
0
0
0
0
0
0
0
0
0
0
0
0
0
0
0
0
0
0
0
0
0
0
0
0
0
0
0
0
0
0
0
0
0
0
0
0
0
0
0
0
0
0
0
0
0
0
0
0
0
0
0
0
0
0
0
0
0
0
0
0
0
0
0
0
0
0
0
0
0
0
0
0
0
0
0
0
0
0
0
0
0
0
0
0
0
0
0
0
0
0
0
0
0
0
0
0
0
0
0
0
0
0
0
0
0
0
0
0
0
0
0
0
0
0
0
0
0
0
0
0
0
0
0
0
0
0
0
0
0
0
0
0
0
0
0
0
0
0
0
0
0
0
0
0
0
0
0
0
0
0
0
0
0
0
0
0
0
0
0
0
0
0
0
0
0
0
0
0
0
0
0
0
0
0
0
0
0
0
0
0
0
0
0
0
0
0
0
0
0
0
0
0
0
0
0
0
0
0
0
0
0
0
0
0
0
0
0
0
0
0
0
0
0
0
0
0
0
0
0
0
0
0
0
0
0
0
0
0
0
0
0
0
0
0
0
0
0
0
0
0
0
0
0
0
0
0
0
0
0
0
0
0
0
0
0
0
0
0
0
0
0
0
0
0
0
0
0
0
0
0
0
0
0
0
0
0
0
0
0
0
0
0
0
0
0
0
0
0
0
0
0
0
0
0
0
0
0
0
0
0
0
0
0
0
0
0
0
0
0
0
0
0
0
0
0
0
0
0
0
0
0
0
0
0
0
0
0
0
0
0
0
0
0
0
0
0
0
0
0
0
0
0
0
0
0
0
0
0
0
0
0
0
0
0
0
0
0
0
0
0
0
0
0
0
0
0
0
0
0
0
0
0
0
0
0
0
0
0
0
0
0
0
0
0
0
0
0
0
0
0
0
0
0
0
0
0
0
0
0
0
0
0
0
0
0
0
0
0
0
0
0
0
0
0
0
0
0
0
0
0
0
0
0
0
0
0
0
0
0
0
0
0
0
0
0
0
0
0
0
0
0
0
0
0
0
0
0
0
0
0
0
0
0
0
0
0
0
0
0
0
0
0
0
0
0
0
0
0
0
0
0
0
0
0
0
0
0
0
0
0
0
0
0
0
0
0
0
0
0
0
0
0
0
0
0
0
0
0
0
0
0
0
0
0
0
0
0
0
0
0
0
0
0
0
0
0
0
0
0
0
0
0
0
0
0
0
0
0
0
0
0
0
0
0
0
0
0
0
0
0
0
0
0
0
0
0
0
0
0
0
0
0
0
0
0
0
0
0
0
0
0
0
0
0
0
0
0
0
0
0
0
0
0
0
0
0
0
0
0
0
0
0
0
0
0
0
0
0
0
0
0
0
0
0
0
0
0
0
0
0
0
0
0
0
0
0
0
0
0
0
0
0
0
0
0
0
0
0
0
0
0
0
0
0
0
0
0
0
0
0
0
0
0
0
0
0
0
0
0
0
0
0
0
0
0
0
0
0
0
0
0
0
0
0
0
0
0
0
0
0
0
0
0
0
0
0
0
0
0
0
0
0
0
0
0
0
0
0
0
0
0
0
0
0
0
0
0
0
0
0
0
0
0
0
0
0
0
0
0
      </DataArray> 
      <DataArray type="Float64" NumberOfComponents="1" Name="NormalFibers" format="ascii">
0
0
0
0
0
0
0
0
0
0
0
0
0
0
0
0
0
0
0
0
0
0
0
0
0
0
0
0
0
0
0
0
0
0
0
0
0
0
0
0
0
0
0
0
0
0
0
0
0
0
0
0
0
0
0
0
0
0
0
0
0
0
0
0
0
0
0
0
0
0
0
0
0
0
0
0
0
0
0
0
0
0
0
0
0
0
0
0
0
0
0
0
0
0
0
0
0
0
0
0
0
0
0
0
0
0
0
0
0
0
0
0
0
0
0
0
0
0
0
0
0
0
0
0
0
0
0
0
0
0
0
0
0
0
0
0
0
0
0
0
0
0
0
0
0
0
0
0
0
0
0
0
0
0
0
0
0
0
0
0
0
0
0
0
0
0
0
0
0
0
0
0
0
0
0
0
0
0
0
0
0
0
0
0
0
0
0
0
0
0
0
0
0
0
0
0
0
0
0
0
0
0
0
0
0
0
0
0
0
0
0
0
0
0
0
0
0
0
0
0
0
0
0
0
0
0
0
0
0
0
0
0
0
0
0
0
0
0
0
0
0
0
0
0
0
0
0
0
0
0
0
0
0
0
0
0
0
0
0
0
0
0
0
0
0
0
0
0
0
0
0
0
0
0
0
0
0
0
0
0
0
0
0
0
0
0
0
0
0
0
0
0
0
0
0
0
0
0
0
0
0
0
0
0
0
0
0
0
0
0
0
0
0
0
0
0
0
0
0
0
0
0
0
0
0
0
0
0
0
0
0
0
0
0
0
0
0
0
0
0
0
0
0
0
0
0
0
0
0
0
0
0
0
0
0
0
0
0
0
0
0
0
0
0
0
0
0
0
0
0
0
0
0
0
0
0
0
0
0
0
0
0
0
0
0
0
0
0
0
0
0
0
0
0
0
0
0
0
0
0
0
0
0
0
0
0
0
0
0
0
0
0
0
0
0
0
0
0
0
0
0
0
0
0
0
0
0
0
0
0
0
0
0
0
0
0
0
0
0
0
0
0
0
0
0
0
0
0
0
0
0
0
0
0
0
0
0
0
0
0
0
0
0
0
0
0
0
0
0
0
0
0
0
0
0
0
0
0
0
0
0
0
0
0
0
0
0
0
0
0
0
0
0
0
0
0
0
0
0
0
0
0
0
0
0
0
0
0
0
0
0
0
0
0
0
0
0
0
0
0
0
0
0
0
0
0
0
0
0
0
0
0
0
0
0
0
0
0
0
0
0
0
0
0
0
0
0
0
0
0
0
0
0
0
0
0
0
0
0
0
0
0
0
0
0
0
0
0
0
0
0
0
0
0
0
0
0
0
0
0
0
0
0
0
0
0
0
0
0
0
0
0
0
0
0
0
0
0
0
0
0
0
0
0
0
0
0
0
0
0
0
0
0
0
0
0
0
0
0
0
0
0
0
0
0
0
0
0
0
0
0
0
0
0
0
0
0
0
0
0
0
0
0
0
0
0
0
0
0
0
0
0
0
0
0
0
0
0
0
0
0
0
0
0
0
0
0
0
0
0
0
0
0
0
0
0
0
0
0
0
0
0
0
0
0
0
0
0
0
0
0
0
0
0
0
0
0
0
0
0
0
0
0
0
0
0
0
0
0
0
0
0
0
0
0
0
0
0
0
0
0
0
0
0
0
0
0
0
0
0
0
0
0
0
0
0
0
0
0
0
0
0
0
0
0
0
0
0
0
0
0
0
0
0
0
0
0
0
0
0
0
0
0
0
0
0
0
0
0
0
0
0
0
0
0
0
0
0
0
0
0
0
0
0
0
0
0
0
0
0
0
0
0
0
0
0
0
0
0
0
0
0
0
0
0
0
0
0
0
0
0
0
0
0
0
0
0
0
0
0
0
0
0
0
0
0
0
0
0
0
0
0
0
0
0
0
0
0
0
0
0
0
0
0
0
0
0
0
0
0
0
0
0
0
0
0
0
0
0
0
0
0
0
0
0
0
0
0
0
0
0
0
0
0
0
0
0
0
0
0
0
0
0
0
0
0
0
0
0
0
0
0
0
0
0
0
0
0
0
0
0
0
0
0
0
0
0
0
0
0
0
0
0
0
0
0
0
0
0
0
0
0
0
0
0
0
0
0
0
0
0
0
0
0
0
0
0
0
0
0
0
0
0
0
0
0
0
0
0
0
0
0
0
0
0
0
0
0
0
0
0
0
0
0
0
0
0
0
0
0
0
0
0
0
0
0
0
0
0
0
0
0
0
0
0
0
0
0
0
0
0
0
0
0
0
0
0
0
0
0
0
0
0
0
0
0
0
0
0
0
0
0
0
0
0
0
0
0
0
0
0
0
0
0
0
0
0
0
0
0
0
0
0
0
0
0
0
0
0
0
0
0
0
0
0
0
0
0
0
0
0
0
0
0
0
0
0
0
0
0
0
0
0
0
0
0
0
0
0
0
0
0
0
0
0
0
0
0
0
0
0
0
0
0
0
0
0
0
0
0
0
0
0
0
0
0
0
0
0
0
0
0
0
0
0
0
0
0
0
0
0
0
0
0
0
0
0
0
0
0
0
0
0
0
0
0
0
0
0
0
0
0
0
0
0
0
0
0
0
0
0
0
0
0
0
0
0
0
0
0
0
0
0
0
0
0
0
0
0
0
0
0
0
0
0
0
0
0
0
0
0
0
0
0
0
0
0
0
0
0
0
0
0
0
0
0
0
0
0
0
0
0
0
0
0
0
0
0
0
0.00410859
0.00410859
0.0213317
0.0213317
-0.0691105
-0.0691105
-0.0348486
-0.0348486
-0.00205361
-0.00205361
-0.0330963
-0.0330963
0.00201266
0.00201266
0.015379
0.015379
-0.0853962
-0.0853962
-0.0108797
-0.0108797
-0.0285555
-0.0285555
-0.0426761
-0.0426761
-0.0731973
-0.0731973
0.018784
0.018784
-0.0347398
-0.0347398
0.0488207
0.0488207
-0.0294008
-0.0294008
-0.0024649
-0.0024649
0.028465
0.028465
-0.0180932
-0.0180932
-0.010275
-0.010275
-0.043693
-0.043693
-0.167505
-0.167505
-0.0167371
-0.0167371
-0.0215203
-0.0215203
-0.0150063
-0.0150063
-0.0104484
-0.0104484
-0.00227669
-0.00227669
-0.0839597
-0.0839597
0.00719233
0.00719233
0.00692073
0.00692073
0.00826249
0.00826249
-0.11315
-0.11315
-0.0183518
-0.0183518
-0.126367
-0.126367
-0.00687295
-0.00687295
-0.0270781
-0.0270781
-0.00956107
-0.00956107
0.00585972
0.00585972
-0.0327943
-0.0327943
-0.0247428
-0.0247428
0.0408755
0.0408755
-0.0384496
-0.0384496
-0.034721
-0.034721
-0.120996
-0.120996
-0.0333013
-0.0333013
-0.0196844
-0.0196844
-0.0210499
-0.0210499
-0.0138754
-0.0138754
-0.0130166
-0.0130166
0.0598066
0.0598066
-0.0194096
-0.0194096
0.011383
0.011383
-0.0994865
-0.0994865
-0.00363472
-0.00363472
-0.0101732
-0.0101732
-0.0499929
-0.0499929
-0.0628549
-0.0628549
-0.00412211
-0.00412211
-0.0129483
-0.0129483
-0.048772
-0.048772
0.0353517
0.0353517
0.000272229
0.000272229
-0.0479387
-0.0479387
-0.0352922
-0.0352922
-0.0351896
-0.0351896
-0.0359495
-0.0359495
0.033656
0.033656
0.0467841
0.0467841
-0.0780735
-0.0780735
-0.053718
-0.053718
-0.017283
-0.017283
-0.129201
-0.129201
0.0313979
0.0313979
-0.0648622
-0.0648622
-0.00029066
-0.00029066
-0.0194516
-0.0194516
-0.00242025
-0.00242025
-0.049845
-0.049845
-0.0369701
-0.0369701
-0.084079
-0.084079
0.00801596
0.00801596
-0.0450622
-0.0450622
-0.11838
-0.11838
-0.074322
-0.074322
-0.0598472
-0.0598472
-0.0166683
-0.0166683
-0.00504792
-0.00504792
0.0174003
0.0174003
-0.00370118
-0.00370118
-0.0169755
-0.0169755
-0.000760993
-0.000760993
0.0305002
0.0305002
-0.0634406
-0.0634406
-0.0995151
-0.0995151
-0.00715714
-0.00715714
0.00453618
0.00453618
-0.0253401
-0.0253401
-0.155834
-0.155834
-0.0333937
-0.0333937
-0.00090375
-0.00090375
-0.0428195
-0.0428195
-0.0176805
-0.0176805
-0.0340404
-0.0340404
-0.00638537
-0.00638537
0.00595692
0.00595692
-0.116933
-0.116933
-0.0290001
-0.0290001
-0.0200633
-0.0200633
-0.0229558
-0.0229558
-0.0732683
-0.0732683
0.0573451
0.0573451
0.0373736
0.0373736
0.00866728
0.00866728
0.0288445
0.0288445
-0.0071098
-0.0071098
-0.00336785
-0.00336785
-0.050805
-0.050805
-0.080601
-0.080601
0.00841225
0.00841225
-0.00362351
-0.00362351
-0.0155947
-0.0155947
0.00876293
0.00876293
-0.0257928
-0.0257928
-0.0413003
-0.0413003
-0.0939864
-0.0939864
-0.00337902
-0.00337902
-0.00412553
-0.00412553
0.00251423
0.00251423
-0.120885
-0.120885
-0.0622823
-0.0622823
0.0205767
0.0205767
0.00320081
0.00320081
-0.0161577
-0.0161577
0.034548
0.034548
-0.0215839
-0.0215839
-0.00381373
-0.00381373
-0.0462044
-0.0462044
-0.0532778
-0.0532778
-0.0183288
-0.0183288
-0.00609791
-0.00609791
-0.0258806
-0.0258806
-0.00425918
-0.00425918
-0.0130008
-0.0130008
-0.00951992
-0.00951992
-0.00541622
-0.00541622
-0.0170541
-0.0170541
0.0100431
0.0100431
-0.0155756
-0.0155756
-0.0522857
-0.0522857
-0.00998172
-0.00998172
-0.00596511
-0.00596511
0.0139265
0.0139265
-0.0997862
-0.0997862
-0.0863296
-0.0863296
-0.236174
-0.236174
-0.116895
-0.116895
-0.0892932
-0.0892932
0.0015489
0.0015489
-0.0157579
-0.0157579
-0.0456184
-0.0456184
0.031876
0.031876
-0.02157
-0.02157
0.0225629
0.0225629
-0.00438636
-0.00438636
-0.0292524
-0.0292524
-0.0486787
-0.0486787
0.0169385
0.0169385
-0.0399315
-0.0399315
-0.0238315
-0.0238315
-0.0176332
-0.0176332
-0.0569508
-0.0569508
-0.0545722
-0.0545722
-0.00732299
-0.00732299
0.00359648
0.00359648
-0.0336677
-0.0336677
-0.00936926
-0.00936926
-0.0458079
-0.0458079
-0.0407149
-0.0407149
-0.0557073
-0.0557073
-0.00732268
-0.00732268
-0.0104389
-0.0104389
-0.000992109
-0.000992109
-0.105955
-0.105955
-0.0600772
-0.0600772
-0.12071
-0.12071
-0.00532549
-0.00532549
-0.00640766
-0.00640766
0.0216655
0.0216655
0.0104153
0.0104153
0.0242501
0.0242501
0.0424448
0.0424448
-0.0375441
-0.0375441
-0.040772
-0.040772
0.00215001
0.00215001
-0.0130452
-0.0130452
-0.00074201
-0.00074201
-0.0101926
-0.0101926
-0.0265212
-0.0265212
0.0122829
0.0122829
-0.0156395
-0.0156395
-0.0807249
-0.0807249
-0.00657373
-0.00657373
0.0273976
0.0273976
-0.0123146
-0.0123146
-0.160895
-0.160895
0.0271654
0.0271654
0.00702314
0.00702314
-0.0118969
-0.0118969
-0.0607389
-0.0607389
-0.00294424
-0.00294424
-0.0112824
-0.0112824
-0.0682132
-0.0682132
-0.0317212
-0.0317212
0.0271367
0.0271367
-0.0151403
-0.0151403
-0.0308411
-0.0308411
-0.0776397
-0.0776397
0.0453637
0.0453637
0.044855
0.044855
-0.00212994
-0.00212994
-0.0943955
-0.0943955
0.0105907
0.0105907
-0.0239499
-0.0239499
-0.0365975
-0.0365975
-0.00673989
-0.00673989
0.000214449
0.000214449
-0.0104378
-0.0104378
-0.0744365
-0.0744365
-0.0231301
-0.0231301
-0.00719129
-0.00719129
-0.00588447
-0.00588447
-0.0238611
-0.0238611
-0.0960261
-0.0960261
0.00264606
0.00264606
-0.0203564
-0.0203564
-0.0289488
-0.0289488
-0.121577
-0.121577
-0.0859021
-0.0859021
-0.0743107
-0.0743107
-0.0220027
-0.0220027
-0.00505677
-0.00505677
-0.00447879
-0.00447879
0.048845
0.048845
-0.00213124
-0.00213124
-0.0095675
-0.0095675
-0.0057756
-0.0057756
0.0443111
0.0443111
-0.0861104
-0.0861104
-0.038496
-0.038496
-0.00623201
-0.00623201
-0.115703
-0.115703
-0.117652
-0.117652
-0.0045437
-0.0045437
-0.130778
-0.130778
-0.00127094
-0.00127094
-0.0761844
-0.0761844
0.0233265
0.0233265
-0.011212
-0.011212
-0.000428656
-0.000428656
-0.0191584
-0.0191584
-0.176397
-0.176397
-0.0221946
-0.0221946
-0.0102403
-0.0102403
-0.0230587
-0.0230587
-0.0791279
-0.0791279
-0.0370539
-0.0370539
-0.0362746
-0.0362746
0.053482
0.053482
-0.00709406
-0.00709406
-0.0892297
-0.0892297
-0.010697
-0.010697
-0.00456919
-0.00456919
-0.116387
-0.116387
-0.0159741
-0.0159741
-0.0940516
-0.0940516
-0.0116729
-0.0116729
-0.00223506
-0.00223506
-0.0453883
-0.0453883
0.017464
0.017464
0.00107948
0.00107948
-0.0279727
-0.0279727
-0.0350733
-0.0350733
-0.0249198
-0.0249198
-0.0451211
-0.0451211
-0.107182
-0.107182
0.0344978
0.0344978
-0.0944415
-0.0944415
0.00503065
0.00503065
-0.110957
-0.110957
-0.0329632
-0.0329632
-0.0442853
-0.0442853
-0.00614146
-0.00614146
0.0195539
0.0195539
-0.127214
-0.127214
0.025477
0.025477
0.00935547
0.00935547
0.0497297
0.0497297
-0.107145
-0.107145
-0.0322157
-0.0322157
-0.00195867
-0.00195867
-0.0571038
-0.0571038
-0.0795797
-0.0795797
-0.0220921
-0.0220921
-0.0978237
-0.0978237
-0.0385177
-0.0385177
-0.0113886
-0.0113886
-0.0180091
-0.0180091
0.0201007
0.0201007
-0.0876521
-0.0876521
0.0341514
0.0341514
-0.0279819
-0.0279819
0.00040753
0.00040753
-0.0349221
-0.0349221
0.00534864
0.00534864
0.0186621
0.0186621
-0.0319837
-0.0319837
-0.0537977
-0.0537977
-0.0812618
-0.0812618
0.00467248
0.00467248
-0.118888
-0.118888
0.0228322
0.0228322
-0.0153871
-0.0153871
-0.0475904
-0.0475904
-0.0758208
-0.0758208
-0.103514
-0.103514
-0.0967371
-0.0967371
-0.0128161
-0.0128161
-0.0462356
-0.0462356
-0.000676934
-0.000676934
-0.00725619
-0.00725619
-0.130301
-0.130301
-0.0138492
-0.0138492
0.0415596
0.0415596
0.01986
0.01986
-0.0153537
-0.0153537
-0.00090612
-0.00090612
0.000682815
0.000682815
-0.000420504
-0.000420504
-0.0376582
-0.0376582
-0.0357678
-0.0357678
0.0091756
0.0091756
-0.00592214
-0.00592214
-0.0542136
-0.0542136
0.0118594
0.0118594
-0.0286677
-0.0286677
-0.0191344
-0.0191344
-0.0218179
-0.0218179
-0.00983528
-0.00983528
-0.00965832
-0.00965832
-0.0671864
-0.0671864
-0.00704805
-0.00704805
0.00447171
0.00447171
-0.00374889
-0.00374889
0.0448219
0.0448219
-0.0541228
-0.0541228
-0.0438738
-0.0438738
-0.0389649
-0.0389649
-0.0450453
-0.0450453
-0.0161187
-0.0161187
-0.0677953
-0.0677953
-0.0733996
-0.0733996
-0.0341161
-0.0341161
-0.141124
-0.141124
0.0220917
0.0220917
-0.0103528
-0.0103528
-0.00664227
-0.00664227
0.0454801
0.0454801
0.0222042
0.0222042
-0.00666144
-0.00666144
-0.000168083
-0.000168083
-0.0123593
-0.0123593
-0.0141102
-0.0141102
-0.053918
-0.053918
-0.0362952
-0.0362952
-0.0358908
-0.0358908
-0.0321147
-0.0321147
-0.0479052
-0.0479052
-0.0115269
-0.0115269
0.0119876
0.0119876
0.0333693
0.0333693
-0.0226716
-0.0226716
-0.0345556
-0.0345556
-0.0142256
-0.0142256
-0.203082
-0.203082
0.00567393
0.00567393
0.0220585
0.0220585
-0.107948
-0.107948
0.0262475
0.0262475
-0.0170503
-0.0170503
0.0141069
0.0141069
-0.186355
-0.186355
-0.0227912
-0.0227912
0.0207849
0.0207849
-0.132758
-0.132758
-0.0627264
-0.0627264
-0.0343397
-0.0343397
-0.133549
-0.133549
-0.0131117
-0.0131117
-0.0126253
-0.0126253
-0.0440985
-0.0440985
-0.184756
-0.184756
-0.0458937
-0.0458937
-0.00504236
-0.00504236
-0.0144695
-0.0144695
0.00338004
0.00338004
-0.0926368
-0.0926368
-0.0489106
-0.0489106
0.0077263
0.0077263
-0.042208
-0.042208
-0.0165731
-0.0165731
-0.015039
-0.015039
-0.0696145
-0.0696145
-0.0759351
-0.0759351
-0.108533
-0.108533
-0.0015146
-0.0015146
-0.0250073
-0.0250073
-0.0415659
-0.0415659
-0.023081
-0.023081
-0.0267469
-0.0267469
0.0026102
0.0026102
-0.0365458
-0.0365458
0.0146012
0.0146012
-0.0266242
-0.0266242
-0.0208618
-0.0208618
-0.00844408
-0.00844408
0.0256372
0.0256372
-0.0589944
-0.0589944
-0.0757666
-0.0757666
-0.00780984
-0.00780984
-0.0859952
-0.0859952
-0.0201192
-0.0201192
-0.133441
-0.133441
-0.22195
-0.22195
0.0131051
0.0131051
0.0248682
0.0248682
0.0132149
0.0132149
-0.0531035
-0.0531035
0.000436732
0.000436732
-0.00258764
-0.00258764
-0.0914143
-0.0914143
-0.00625724
-0.00625724
-0.00697733
-0.00697733
0.00381215
0.00381215
-0.00456132
-0.00456132
-0.0539166
-0.0539166
-0.147318
-0.147318
-0.00313662
-0.00313662
-0.000227858
-0.000227858
-0.014906
-0.014906
-0.0163973
-0.0163973
-0.110779
-0.110779
-0.00558167
-0.00558167
-0.0845233
-0.0845233
0.00411734
0.00411734
-0.0397681
-0.0397681
-0.0263111
-0.0263111
0.0153474
0.0153474
-0.0226396
-0.0226396
0.00889479
0.00889479
0.00777894
0.00777894
-0.0209314
-0.0209314
-0.00384514
-0.00384514
-0.0287627
-0.0287627
-0.0307445
-0.0307445
-0.010123
-0.010123
0.025143
0.025143
-0.0234475
-0.0234475
-0.0368387
-0.0368387
0.0248615
0.0248615
-0.00547556
-0.00547556
-0.0660982
-0.0660982
-0.00295128
-0.00295128
-0.042628
-0.042628
-0.126684
-0.126684
-0.0167334
-0.0167334
-0.0315143
-0.0315143
-0.0556911
-0.0556911
0.0369406
0.0369406
0.0136982
0.0136982
-0.0307279
-0.0307279
0.00945707
0.00945707
-0.00409103
-0.00409103
-0.0340833
-0.0340833
-0.0289604
-0.0289604
-0.0271225
-0.0271225
-0.00685632
-0.00685632
0.000119838
0.000119838
-0.0249624
-0.0249624
-0.0259647
-0.0259647
-0.00928876
-0.00928876
-0.0177548
-0.0177548
-0.183389
-0.183389
-0.0064719
-0.0064719
-0.0218983
-0.0218983
-0.0281773
-0.0281773
-0.0122722
-0.0122722
0.0135683
0.0135683
-0.01632
-0.01632
-0.0261173
-0.0261173
0.0125791
0.0125791
0.00415049
0.00415049
-0.0434331
-0.0434331
-0.0327519
-0.0327519
-0.0828559
-0.0828559
-0.0136588
-0.0136588
0.00325838
0.00325838
-0.010749
-0.010749
-0.00837431
-0.00837431
-0.0503561
-0.0503561
-0.00609682
-0.00609682
-0.0173683
-0.0173683
-0.0160212
-0.0160212
-0.0942685
-0.0942685
-0.00995443
-0.00995443
-0.011241
-0.011241
-0.0251388
-0.0251388
-0.0784172
-0.0784172
-0.00262931
-0.00262931
-0.0885407
-0.0885407
-0.00277369
-0.00277369
-0.11385
-0.11385
-0.0946607
-0.0946607
-0.000692569
-0.000692569
0.0232782
0.0232782
0.00754448
0.00754448
-0.0695883
-0.0695883
-0.00210037
-0.00210037
-0.0202779
-0.0202779
-0.107654
-0.107654
0.0292407
0.0292407
-0.0692335
-0.0692335
-0.024375
-0.024375
-0.0646558
-0.0646558
-0.0900618
-0.0900618
0.038872
0.038872
-0.0143251
-0.0143251
-0.0357515
-0.0357515
-0.00842659
-0.00842659
-0.0382388
-0.0382388
-0.00919879
-0.00919879
-0.012173
-0.012173
-0.0243553
-0.0243553
-0.0663306
-0.0663306
-0.0433652
-0.0433652
0.00429926
0.00429926
-0.0734575
-0.0734575
-0.0316883
-0.0316883
-0.0371445
-0.0371445
-0.0565467
-0.0565467
-0.0724088
-0.0724088
-0.0448719
-0.0448719
0.0143952
0.0143952
-0.16589
-0.16589
0.00865934
0.00865934
-0.0426003
-0.0426003
-0.0196009
-0.0196009
-0.104198
-0.104198
-0.0612268
-0.0612268
0.0311086
0.0311086
-0.0544013
-0.0544013
-0.0797565
-0.0797565
-0.0239123
-0.0239123
-0.0691624
-0.0691624
-0.110816
-0.110816
0.0342148
0.0342148
-0.0251168
-0.0251168
4.53184e-05
4.53184e-05
-0.00919974
-0.00919974
-0.0956836
-0.0956836
-0.0923549
-0.0923549
-0.00470796
-0.00470796
-0.0274302
-0.0274302
0.0177279
0.0177279
-0.0668858
-0.0668858
-0.0051121
-0.0051121
-0.150515
-0.150515
-0.108919
-0.108919
-0.0164462
-0.0164462
-0.0176456
-0.0176456
-0.0910956
-0.0910956
-0.0357647
-0.0357647
0.0538175
0.0538175
-0.0781963
-0.0781963
0.0501218
0.0501218
-0.0203588
-0.0203588
-0.0193662
-0.0193662
-0.0880958
-0.0880958
-0.0120473
-0.0120473
-0.00293278
-0.00293278
-0.0174926
-0.0174926
-0.0256519
-0.0256519
-0.0207166
-0.0207166
-0.0209039
-0.0209039
0.00108
0.00108
-0.0139913
-0.0139913
-0.0556641
-0.0556641
-0.0185611
-0.0185611
-0.0224248
-0.0224248
-0.0161525
-0.0161525
-0.00759177
-0.00759177
-0.0270168
-0.0270168
0.00961666
0.00961666
-0.0187427
-0.0187427
0.00343911
0.00343911
-0.0112384
-0.0112384
-0.120977
-0.120977
-0.0218816
-0.0218816
-0.0358471
-0.0358471
0.019438
0.019438
-0.00981874
-0.00981874
0.00683871
0.00683871
-0.0204362
-0.0204362
-0.096762
-0.096762
-0.00726413
-0.00726413
-0.0808803
-0.0808803
-0.0179312
-0.0179312
-0.00359679
-0.00359679
-0.0206851
-0.0206851
-0.0212661
-0.0212661
-0.0193843
-0.0193843
-0.0273158
-0.0273158
-0.0413148
-0.0413148
0.0407823
0.0407823
0.00125246
0.00125246
-0.00297612
-0.00297612
-0.042009
-0.042009
0.0250906
0.0250906
-0.0114986
-0.0114986
-0.00641247
-0.00641247
-0.0231382
-0.0231382
-0.0193712
-0.0193712
-0.00309654
-0.00309654
-0.0143578
-0.0143578
-0.000763026
-0.000763026
-0.00793386
-0.00793386
-0.0277926
-0.0277926
0.00537025
0.00537025
-0.0527744
-0.0527744
-0.0258104
-0.0258104
0.0521651
0.0521651
-0.00701591
-0.00701591
0.0165441
0.0165441
-0.0158118
-0.0158118
-0.142527
-0.142527
-0.120615
-0.120615
-0.0519171
-0.0519171
0.0315801
0.0315801
-0.0797964
-0.0797964
-0.00208673
-0.00208673
-0.00879014
-0.00879014
-0.00996768
-0.00996768
-0.00267441
-0.00267441
-0.0211965
-0.0211965
-0.0268021
-0.0268021
-0.00787813
-0.00787813
-0.0391717
-0.0391717
-0.178059
-0.178059
-0.0138977
-0.0138977
-0.0211245
-0.0211245
-0.014547
-0.014547
-0.0488633
-0.0488633
0.015338
0.015338
-0.0801356
-0.0801356
-0.00380723
-0.00380723
0.022748
0.022748
-0.00394656
-0.00394656
-0.00979866
-0.00979866
-0.124369
-0.124369
-0.12421
-0.12421
-0.107631
-0.107631
-0.00213409
-0.00213409
0.00507699
0.00507699
-0.0243689
-0.0243689
-0.00603719
-0.00603719
-0.00834101
-0.00834101
-0.00921431
-0.00921431
-0.00490587
-0.00490587
0.0292753
0.0292753
-0.133304
-0.133304
-0.00821452
-0.00821452
-0.000852799
-0.000852799
-0.00501685
-0.00501685
-0.011814
-0.011814
-0.00581459
-0.00581459
0.00999086
0.00999086
-0.0748953
-0.0748953
-0.0159738
-0.0159738
-0.0425044
-0.0425044
-0.0811311
-0.0811311
-0.0275746
-0.0275746
-0.108505
-0.108505
-0.0363617
-0.0363617
-0.0348331
-0.0348331
-0.00260431
-0.00260431
-0.0128691
-0.0128691
0.0287928
0.0287928
0.0419075
0.0419075
-0.00873245
-0.00873245
-0.00465731
-0.00465731
0.00903173
0.00903173
-0.05635
-0.05635
-0.00530782
-0.00530782
0.0211607
0.0211607
-0.0201864
-0.0201864
2.06357e-05
2.06357e-05
-0.00797658
-0.00797658
-0.0116768
-0.0116768
-0.103867
-0.103867
0.0416457
0.0416457
-0.00590647
-0.00590647
-0.0382061
-0.0382061
-0.0573967
-0.0573967
-0.0631192
-0.0631192
-0.00857439
-0.00857439
-0.00454635
-0.00454635
-0.0773605
-0.0773605
0.0105745
0.0105745
-0.10301
-0.10301
-0.13482
-0.13482
0.0106927
0.0106927
-0.00878659
-0.00878659
-0.095896
-0.095896
-0.0182743
-0.0182743
-0.0240088
-0.0240088
-0.0399643
-0.0399643
-0.013404
-0.013404
0.0214642
0.0214642
-0.0896956
-0.0896956
-0.0353439
-0.0353439
0.0138411
0.0138411
-0.0783666
-0.0783666
-0.0216512
-0.0216512
-0.0181747
-0.0181747
-0.00782427
-0.00782427
-0.00588195
-0.00588195
-0.0250838
-0.0250838
-0.0466839
-0.0466839
-0.00903752
-0.00903752
0.0231258
0.0231258
-0.218394
-0.218394
0.00269029
0.00269029
-0.0115398
-0.0115398
-0.0316773
-0.0316773
0.0138309
0.0138309
-0.0304019
-0.0304019
-0.0146228
-0.0146228
-0.0209571
-0.0209571
-0.00288728
-0.00288728
0.00618411
0.00618411
0.0042147
0.0042147
0.00774271
0.00774271
-0.109845
-0.109845
-0.0305688
-0.0305688
0.0042507
0.0042507
0.0289226
0.0289226
0.00565938
0.00565938
0.0276249
0.0276249
-0.0135351
-0.0135351
0.00639785
0.00639785
-0.012876
-0.012876
-0.0154947
-0.0154947
-0.186651
-0.186651
0.0102143
0.0102143
-0.156833
-0.156833
0.0265021
0.0265021
0.0018781
0.0018781
-0.0288441
-0.0288441
-0.016102
-0.016102
-0.0504237
-0.0504237
-0.056715
-0.056715
-0.0188028
-0.0188028
-0.00219957
-0.00219957
0.0288085
0.0288085
-0.0659271
-0.0659271
-0.0172149
-0.0172149
-0.0143109
-0.0143109
0.0391324
0.0391324
0.000820692
0.000820692
-0.0035935
-0.0035935
0.00025704
0.00025704
-0.00668187
-0.00668187
-0.041852
-0.041852
-0.0891605
-0.0891605
-0.102127
-0.102127
-0.0159825
-0.0159825
0.0210222
0.0210222
-0.104024
-0.104024
-0.0409394
-0.0409394
0.0388446
0.0388446
-0.00501543
-0.00501543
0.00104373
0.00104373
-0.0285302
-0.0285302
-0.0233381
-0.0233381
-0.00683882
-0.00683882
-0.0994895
-0.0994895
0.059629
0.059629
-0.0713804
-0.0713804
-0.00673397
-0.00673397
-0.0303726
-0.0303726
-0.130687
-0.130687
0.0050507
0.0050507
-0.0248424
-0.0248424
-0.114216
-0.114216
0.0427736
0.0427736
-0.00313729
-0.00313729
0.00582892
0.00582892
-0.018064
-0.018064
0.0244731
0.0244731
-0.00154063
-0.00154063
-0.00496514
-0.00496514
-0.0337015
-0.0337015
-0.0550467
-0.0550467
-0.16654
-0.16654
-0.130714
-0.130714
0.0153761
0.0153761
-0.123108
-0.123108
-0.024057
-0.024057
-0.0119312
-0.0119312
0.00177752
0.00177752
-0.0391971
-0.0391971
0.00943167
0.00943167
-0.00511532
-0.00511532
0.00790451
0.00790451
-0.00450322
-0.00450322
-4.2698e-05
-4.2698e-05
-0.0336657
-0.0336657
-0.0201655
-0.0201655
-0.00434445
-0.00434445
-0.0658575
-0.0658575
0.00327978
0.00327978
-0.0254846
-0.0254846
-0.0295261
-0.0295261
0.0213356
0.0213356
-0.033063
-0.033063
-0.0154627
-0.0154627
0.0331668
0.0331668
0.00872062
0.00872062
0.0305194
0.0305194
-0.0405985
-0.0405985
-0.00154987
-0.00154987
-0.0842822
-0.0842822
-0.0252819
-0.0252819
-0.124602
-0.124602
-0.0678805
-0.0678805
-0.124818
-0.124818
-0.0101349
-0.0101349
-0.0871746
-0.0871746
0.00281753
0.00281753
-0.0229004
-0.0229004
-0.109649
-0.109649
-0.124801
-0.124801
0.0187289
0.0187289
-0.0252624
-0.0252624
0.0230246
0.0230246
0.0295883
0.0295883
-0.0459431
-0.0459431
-0.116343
-0.116343
-0.00429554
-0.00429554
0.0110987
0.0110987
0.00768384
0.00768384
0.0226281
0.0226281
-0.0621252
-0.0621252
-0.0228669
-0.0228669
0.00244097
0.00244097
-0.0229869
-0.0229869
-0.0252481
-0.0252481
-0.032097
-0.032097
0.012499
0.012499
-0.0687463
-0.0687463
-0.00847001
-0.00847001
-0.00788631
-0.00788631
-0.0156539
-0.0156539
-0.0228968
-0.0228968
-0.00672502
-0.00672502
-0.0757615
-0.0757615
-0.107411
-0.107411
-0.0164522
-0.0164522
-0.00380705
-0.00380705
-0.0242794
-0.0242794
0.00524131
0.00524131
-0.111494
-0.111494
-0.00179167
-0.00179167
0.031184
0.031184
-0.135191
-0.135191
-0.00210081
-0.00210081
-0.0344589
-0.0344589
-0.0380674
-0.0380674
-0.0855522
-0.0855522
-0.0188244
-0.0188244
-0.0203827
-0.0203827
-0.00310613
-0.00310613
-0.0963728
-0.0963728
-0.024212
-0.024212
-0.0643812
-0.0643812
0.00140172
0.00140172
-0.00937393
-0.00937393
0.0106037
0.0106037
0.0160357
0.0160357
-0.0452114
-0.0452114
0.0029638
0.0029638
0.00296662
0.00296662
0.00236071
0.00236071
0.000529115
0.000529115
-0.00409777
-0.00409777
-0.026115
-0.026115
-0.0263133
-0.0263133
-0.0562632
-0.0562632
-0.00890816
-0.00890816
0.0255098
0.0255098
-0.0288586
-0.0288586
-0.0874197
-0.0874197
0.0193605
0.0193605
-0.0286441
-0.0286441
-0.00967087
-0.00967087
-0.0267207
-0.0267207
-0.0195802
-0.0195802
-0.0157529
-0.0157529
-0.00894029
-0.00894029
-0.0729949
-0.0729949
-0.0101568
-0.0101568
-0.0156245
-0.0156245
-0.0152772
-0.0152772
-0.090878
-0.090878
-0.146054
-0.146054
-0.0190876
-0.0190876
-0.00959541
-0.00959541
-0.0934148
-0.0934148
-0.0210682
-0.0210682
-0.0091102
-0.0091102
-0.0614137
-0.0614137
-0.06589
-0.06589
-0.0272655
-0.0272655
-0.0062295
-0.0062295
-0.0514417
-0.0514417
0.00871827
0.00871827
0.0176643
0.0176643
0.00176312
0.00176312
-0.00545963
-0.00545963
-0.0179733
-0.0179733
0.0176382
0.0176382
0.0458539
0.0458539
-0.0941866
-0.0941866
-0.0134863
-0.0134863
-0.017806
-0.017806
-0.039781
-0.039781
-0.0290155
-0.0290155
0.010891
0.010891
-0.0327562
-0.0327562
0.017287
0.017287
-0.0764122
-0.0764122
-0.109513
-0.109513
0.0515952
0.0515952
-0.0874947
-0.0874947
-0.105883
-0.105883
-0.0702854
-0.0702854
-0.0369059
-0.0369059
-0.014198
-0.014198
-0.013662
-0.013662
-0.0533883
-0.0533883
-0.0371022
-0.0371022
0.000993212
0.000993212
-0.0120126
-0.0120126
-0.00628272
-0.00628272
0.0119331
0.0119331
-0.0340105
-0.0340105
-0.0769061
-0.0769061
-0.159772
-0.159772
-0.110545
-0.110545
-0.0618168
-0.0618168
-0.0426616
-0.0426616
-0.190542
-0.190542
-0.00920707
-0.00920707
-0.0825966
-0.0825966
0.0196369
0.0196369
-0.00284231
-0.00284231
-0.110733
-0.110733
-0.0365409
-0.0365409
-0.0321724
-0.0321724
-0.0848785
-0.0848785
-0.00728863
-0.00728863
-0.0110743
-0.0110743
-0.00677486
-0.00677486
-0.0164631
-0.0164631
-0.0836327
-0.0836327
-0.0106336
-0.0106336
-0.00819061
-0.00819061
-0.00762463
-0.00762463
-0.00164899
-0.00164899
-0.0629304
-0.0629304
-0.00382168
-0.00382168
-0.114337
-0.114337
-0.187387
-0.187387
-0.0191543
-0.0191543
0.0157275
0.0157275
-0.0342108
-0.0342108
-0.0355743
-0.0355743
-0.0133514
-0.0133514
-0.0472925
-0.0472925
0.00897195
0.00897195
-0.00922305
-0.00922305
-0.00708474
-0.00708474
-0.00576823
-0.00576823
-0.00497986
-0.00497986
-0.00393057
-0.00393057
-0.00311286
-0.00311286
-0.00233737
-0.00233737
-0.00163716
-0.00163716
-0.00105587
-0.00105587
-0.00047411
-0.00047411
1.29444e-05
1.29444e-05
0.000447774
0.000447774
0.000866977
0.000866977
0.00112949
0.00112949
0.00136947
0.00136947
0.00159198
0.00159198
0.00167756
0.00167756
0.00175732
0.00175732
0.00171688
0.00171688
0.00170717
0.00170717
0.0015491
0.0015491
0.00130701
0.00130701
0.00112586
0.00112586
0.000792749
0.000792749
0.000423961
0.000423961
-8.81588e-05
-8.81588e-05
-0.000519916
-0.000519916
-0.000988079
-0.000988079
-0.00173233
-0.00173233
-0.00233375
-0.00233375
-0.00341858
-0.00341858
-0.00404014
-0.00404014
-0.00472208
-0.00472208
-0.00631442
-0.00631442
-0.00752183
-0.00752183
-0.00796441
-0.00796441
-0.00943868
-0.00943868
-0.012189
-0.012189
-0.013406
-0.013406
-0.0148121
-0.0148121
-0.0183299
-0.0183299
-0.0216672
-0.0216672
-0.0255075
-0.0255075
-0.0309496
-0.0309496
-0.0402395
-0.0402395
-0.0493887
-0.0493887
-0.0678743
-0.0678743
-0.0796225
-0.0796225
-0.0388562
-0.0388562
0.00424663
0.00424663
-0.0110944
-0.0110944
-0.0159635
-0.0159635
-0.0126663
-0.0126663
-0.0127466
-0.0127466
-0.012039
-0.012039
-0.0165811
-0.0165811
-0.0240362
-0.0240362
-0.0286294
-0.0286294
-0.0334637
-0.0334637
-0.0380304
-0.0380304
-0.0412413
-0.0412413
-0.042062
-0.042062
-0.0410159
-0.0410159
-0.0389613
-0.0389613
-0.035799
-0.035799
-0.0319241
-0.0319241
-0.0275468
-0.0275468
-0.0234902
-0.0234902
-0.0195706
-0.0195706
-0.0165276
-0.0165276
-0.0151673
-0.0151673
-0.0138375
-0.0138375
-0.00793207
-0.00793207
-0.00735959
-0.00735959
-0.00637351
-0.00637351
-0.00486716
-0.00486716
-0.00404741
-0.00404741
-0.00349299
-0.00349299
-0.00232756
-0.00232756
-0.00181828
-0.00181828
-0.000982457
-0.000982457
-0.000509431
-0.000509431
-8.60579e-05
-8.60579e-05
0.000443461
0.000443461
0.000790912
0.000790912
0.00111783
0.00111783
0.00128775
0.00128775
0.00158444
0.00158444
0.00165326
0.00165326
0.00171123
0.00171123
0.0016669
0.0016669
0.00172062
0.00172062
0.00156785
0.00156785
0.00135227
0.00135227
0.00116386
0.00116386
0.000807872
0.000807872
0.00046051
0.00046051
2.8383e-05
2.8383e-05
-0.000491791
-0.000491791
-0.00102227
-0.00102227
-0.00167349
-0.00167349
-0.00236867
-0.00236867
-0.00317928
-0.00317928
-0.00396544
-0.00396544
-0.00488708
-0.00488708
-0.00587493
-0.00587493
-0.00718409
-0.00718409
-0.00936555
-0.00936555
-0.0135964
-0.0135964
-0.0152025
-0.0152025
-0.0165474
-0.0165474
-0.0196383
-0.0196383
-0.0234878
-0.0234878
-0.0278183
-0.0278183
-0.0323706
-0.0323706
-0.0362139
-0.0362139
-0.0394373
-0.0394373
-0.0414874
-0.0414874
-0.0421702
-0.0421702
-0.0412295
-0.0412295
-0.0386619
-0.0386619
-0.0330285
-0.0330285
-0.0272539
-0.0272539
-0.0213731
-0.0213731
-0.0170702
-0.0170702
-0.0145834
-0.0145834
-0.0111565
-0.0111565
-0.0115334
-0.0115334
-0.0126149
-0.0126149
-0.0104745
-0.0104745
-0.00366694
-0.00366694
-0.0323951
-0.0323951
-0.0743685
-0.0743685
-0.0735636
-0.0735636
-0.0539374
-0.0539374
-0.0381924
-0.0381924
-0.0324933
-0.0324933
-0.0244029
-0.0244029
-0.021228
-0.021228
-0.0191532
-0.0191532
-0.0152688
-0.0152688
-0.0128425
-0.0128425
-0.0120185
-0.0120185
-0.0101141
-0.0101141
      </DataArray> 
    </PointData>
    <CellData>
    </CellData>
  </Piece>
  </UnstructuredGrid>
</VTKFile>
