<?xml version="1.0"?>
<VTKFile type="UnstructuredGrid">
  <UnstructuredGrid>
  <Piece NumberOfPoints="3487"  NumberOfCells="1698">
    <Points>
      <DataArray type="Float64" NumberOfComponents="3" format="ascii">
39.9734 48.7195 0
60.027 48.7188 0
40.6342 48.8503 0
41.2965 48.9723 0
41.9602 49.0852 0
42.6252 49.1891 0
43.2915 49.2841 0
43.9591 49.37 0
44.6276 49.4469 0
45.2971 49.5147 0
45.9675 49.5736 0
46.6385 49.6234 0
47.3102 49.6641 0
47.9823 49.6958 0
48.6548 49.7184 0
49.3275 49.732 0
50.0004 49.7365 0
50.6732 49.732 0
51.3459 49.7183 0
52.0184 49.6956 0
52.6905 49.6639 0
53.3621 49.6231 0
54.0332 49.5733 0
54.7035 49.5144 0
55.373 49.4465 0
56.0415 49.3696 0
56.709 49.2836 0
57.3753 49.1886 0
58.0404 49.0847 0
58.704 48.9717 0
59.3662 48.8497 0
39.9954 49.7354 0
39.9947 49.4814 0
39.9907 49.2275 0
39.9836 48.9735 0
19.9247 69.6649 0
39.9929 49.9971 0
39.9869 50.2587 0
39.9722 50.6371 0
39.9503 51.0151 0
39.9059 51.5613 0
39.8466 52.106 0
39.7343 52.891 0
39.5908 53.6709 0
39.3288 54.788 0
39.0029 55.8884 0
38.728 56.6718 0
38.4208 57.4433 0
38.0817 58.2014 0
37.7115 58.9448 0
37.1218 59.9918 0
36.4702 61.0015 0
35.7592 61.9702 0
-0.0393102 49.6288 0
17.3148 69.4872 0
14.7503 68.9708 0
12.2751 68.1247 0
9.93112 66.9632 0
7.75864 65.5061 0
11.5458 31.6658 0
0.16699 46.8101 0
0.77004 44.0491 0
1.75803 41.4015 0
0 0 0
0.120747 3.71249 0
0.530131 7.40993 0
1.22157 11.0681 0
2.19017 14.6622 0
3.09679 17.3089 0
49.9998 -0.252195 0
5.1116 0 0
10.2232 0 0
15.3348 0 0
100 0 0
57.403 -0.244325 0
64.8063 -0.215589 0
72.2038 -0.155378 0
88.4547 31.6653 0
99.8793 3.71248 0
99.47 7.40977 0
98.7786 11.0679 0
97.81 14.662 0
96.9034 17.3087 0
100.039 49.6285 0
99.8331 46.8098 0
99.2301 44.0489 0
98.2421 41.4011 0
80.0753 69.6645 0
99.8735 52.2389 0
99.3676 54.8053 0
98.5307 57.2836 0
97.3772 59.6314 0
95.9272 61.8085 0
60.0048 49.7348 0
77.5643 69.5133 0
75.0921 69.0486 0
72.6976 68.2778 0
70.4186 67.2129 0
68.9303 66.3138 0
67.5256 65.2891 0
66.2151 64.1462 0
65.0087 62.894 0
64.2408 61.9696 0
63.5298 61.0008 0
62.8783 59.9911 0
62.2886 58.9441 0
61.5794 57.4428 0
60.9972 55.8877 0
60.6714 54.7874 0
60.4093 53.6702 0
60.2659 52.8903 0
60.0056 49.4808 0
60.0096 49.2268 0
60.0168 48.9728 0
52.8173 29.9922 0
26.5367 36.8154 0
40.3391 24.1214 0
24.9469 22.4065 0
71.9235 22.4296 0
72.7036 43.867 0
54.7999 23.9433 0
15.294 47.3174 0
38.3592 49.3468 0
23.5762 65.1427 0
7.68903 7.72897 0
91.9525 7.70714 0
29.1513 56.7961 0
37.179 51.8172 0
28.0871 47.1105 0
29.7255 48.0719 0
71.5161 46.5955 0
30.9833 48.9703 0
70.5169 48.0732 0
31.6369 45.5587 0
30.8864 47.0134 0
70.0645 46.5844 0
68.982 44.909 0
31.2863 50.0652 0
30.8973 51.2877 0
28.1836 49.0666 0
45.3093 41.1951 0
53.843 40.8162 0
56.0261 40.3651 0
73.1299 47.3498 0
70.1183 49.3136 0
68.3292 42.3393 0
32.3142 42.6695 0
26.136 45.5931 0
27.6778 44.5982 0
30.3069 43.2273 0
70.4102 42.5381 0
72.6773 45.8615 0
44.8499 42.9874 0
51.4304 41.894 0
55.4089 42.4803 0
32.4473 49.0068 0
68.5588 49.55 0
39.4791 41.9787 0
35.4418 43.2945 0
32.8947 46.4569 0
33.5756 48.2047 0
67.1056 48.1493 0
67.9826 46.387 0
65.0706 42.9576 0
60.4171 41.6161 0
32.3614 51.3247 0
28.2094 50.9248 0
41.7807 37.2016 0
46.8244 37.606 0
52.0486 39.7787 0
58.6759 39.1483 0
26.5965 51.8207 0
24.2922 50.2546 0
74.2338 49.8619 0
71.1716 50.5645 0
69.1502 52.1449 0
67.9248 52.2788 0
59.7595 36.2687 0
66.4995 40.5856 0
34.1109 40.9621 0
36.0298 35.7007 0
23.1795 47.086 0
21.6464 43.1915 0
28.3563 41.7111 0
74.3173 44.6215 0
76.6426 48.4685 0
43.0552 43.5754 0
46.2693 42.8612 0
49.9681 42.9091 0
48.4331 42.692 0
51.763 43.9466 0
54.0879 44.0623 0
52.9058 44.3579 0
56.2718 43.611 0
33.8788 49.2999 0
33.7777 50.8131 0
66.543 51.6281 0
66.5991 49.6374 0
41.833 43.8129 0
40.7041 43.5504 0
38.4623 43.1577 0
37.1438 43.7627 0
35.3472 45.4702 0
34.326 46.7494 0
66.0233 46.4733 0
65.0176 45.2002 0
63.1881 43.4463 0
61.7026 42.9972 0
58.8774 43.4107 0
57.5381 43.7269 0
33.3886 52.0361 0
29.1561 53.645 0
40.838 30.9254 0
50.885 35.92 0
55.6655 34.2024 0
23.548 53.3659 0
76.9288 51.8349 0
70.248 53.2517 0
66.4153 52.8693 0
65.4675 35.0855 0
30.9591 34.5043 0
19.44 47.2062 0
26.1325 39.9488 0
71.9956 34.0258 0
72.0498 41.299 0
77.4868 45.2239 0
43.1679 45.0175 0
45.8099 44.6537 0
48.7649 44.7446 0
51.4433 45.3731 0
53.7686 45.4888 0
56.2174 45.3092 0
34.9061 50.0111 0
65.0895 50.2273 0
40.8163 44.9924 0
38.3687 45.3347 0
36.0286 47.2186 0
64.14 46.9632 0
61.6485 45.2412 0
58.8235 45.1087 0
36.0612 52.2856 0
34.9089 53.0481 0
33.4927 53.5592 0
31.8892 55.3503 0
26.0742 58.8155 0
22.9786 57.2187 0
32.406 22.6347 0
47.0385 26.6113 0
63.131 22.9754 0
19.9729 54.9272 0
80.2044 54.1927 0
75.8165 55.7021 0
71.9528 56.0559 0
69.104 55.3781 0
65.7841 53.8782 0
64.1076 53.7233 0
68.1446 28.9306 0
26.7867 30.0208 0
17.2247 51.6588 0
14.5966 42.363 0
22.4119 33.9965 0
84.9046 46.7792 0
84.7363 51.9293 0
75.1633 37.8614 0
81.2157 43.8597 0
42.4571 46.348 0
41.4166 46.1563 0
44.9659 46.1935 0
43.6797 46.1104 0
47.7365 46.1347 0
46.3859 46.0672 0
50.62 46.4479 0
49.2721 46.3519 0
53.0506 46.843 0
51.7631 46.8593 0
55.5129 46.4554 0
54.233 46.5474 0
58.0611 46.4091 0
56.7796 46.5713 0
36.3719 48.5409 0
36.0239 49.5423 0
35.9228 51.0561 0
63.3918 51.99 0
63.834 50.9771 0
63.8902 48.9855 0
63.8381 48.0829 0
40.2874 45.8936 0
39.3716 46.0731 0
38.0526 46.6776 0
37.3935 47.2616 0
62.8324 46.8095 0
62.0164 46.4852 0
60.5303 46.0366 0
59.4008 46.0925 0
38.0525 52.4881 0
36.165 53.8094 0
34.0578 56.669 0
29.5752 59.7343 0
22.8457 61.2768 0
21.7454 15.3713 0
39.9706 16.1491 0
48.9014 11.4282 0
56.9389 16.8776 0
76.637 15.6057 0
15.611 56.971 0
84.5484 57.4059 0
73.435 59.3971 0
66.5346 55.5376 0
62.466 53.4952 0
82.9405 7.81952 0
79.7321 22.5562 0
16.3072 7.90181 0
18.3568 22.2745 0
10.7057 46.6745 0
16.5889 35.9313 0
15.5378 30.3434 0
89.4243 49.5485 0
83.2956 31.1854 0
81.5716 39.2225 0
41.9283 47.2494 0
44.2555 47.5241 0
46.8928 47.6746 0
49.5917 47.8381 0
52.2273 47.9179 0
54.7949 47.8097 0
57.3566 47.5554 0
37.3889 49.5859 0
37.9142 51.258 0
62.1922 50.7482 0
62.5823 48.8323 0
39.9717 47.2373 0
38.3964 48.0004 0
38.5108 48.7704 0
61.7659 48.4686 0
61.714 47.6053 0
59.7682 47.3373 0
38.8844 51.0194 0
61.3527 50.9534 0
39.1893 52.7999 0
38.4541 53.3588 0
38.1602 54.4674 0
37.008 55.2295 0
36.501 57.002 0
34.8503 58.5224 0
33.3399 60.3776 0
30.72 62.4843 0
27.9566 64.6322 0
27.1746 7.78429 0
38.6582 8.28721 0
59.8747 8.50998 0
71.7616 7.86141 0
19.2018 64.5833 0
14.9063 62.846 0
10.7086 60.0554 0
6.26289 57.0089 0
5.97679 51.078 0
94.2579 52.1744 0
93.3466 57.2277 0
89.3642 60.5745 0
84.6133 63.0899 0
79.5071 64.7661 0
74.6066 63.8044 0
70.2962 62.5281 0
66.8567 61.0789 0
65.2379 58.4093 0
62.7352 57.0862 0
62.0895 55.5581 0
61.7956 54.4494 0
61.0797 52.7157 0
93.4985 14.528 0
89.7941 20.6858 0
86.1007 25.0178 0
6.24783 14.5214 0
13.0172 24.4853 0
9.79051 20.6762 0
5.74517 45.5126 0
5.64733 40.5716 0
12.3122 34.6588 0
94.2459 47.0578 0
88.1161 36.9997 0
93.3686 42.3334 0
41.0918 48.015 0
40.4307 47.8886 0
42.1328 48.2067 0
43.4639 48.4055 0
42.797 48.315 0
44.7505 48.4885 0
46.0902 48.6152 0
45.4195 48.5609 0
47.4411 48.6827 0
48.7855 48.737 0
48.113 48.7189 0
50.1337 48.8331 0
51.479 48.8149 0
50.8065 48.833 0
52.7667 48.7986 0
54.1092 48.708 0
53.4386 48.7624 0
55.3893 48.616 0
56.7252 48.4531 0
56.0583 48.5435 0
58.0071 48.2908 0
59.3324 48.056 0
58.6713 48.1824 0
39.369 51.472 0
39.3172 52.0175 0
60.9519 51.9333 0
60.9 51.3879 0
38.0109 50.3485 0
39.1328 49.5331 0
61.7948 49.9401 0
61.8181 49.3716 0
60.9784 49.5765 0
39.5145 48.0678 0
39.1703 48.1864 0
60.9496 48.1444 0
60.4625 47.9998 0
39.4657 50.5623 0
60.5026 50.5797 0
39.4883 49.9225 0
39.484 50.1841 0
60.4843 50.2015 0
60.48 49.9399 0
39.6401 49.3459 0
39.629 48.838 0
39.6377 49.0919 0
60.5032 49.3711 0
60.5056 49.1172 0
60.5144 48.8634 0
61.0017 49.0079 0
39.2846 48.9566 0
60.9553 50.1452 0
38.9811 50.1097 0
60.898 47.2809 0
39.0557 47.4163 0
62.6345 49.7352 0
37.0405 50.5874 0
61.7502 51.7615 0
38.7877 51.929 0
58.6384 47.393 0
56.075 47.7176 0
53.5149 47.9017 0
50.9397 47.9342 0
48.2436 47.742 0
45.542 47.6071 0
42.969 47.441 0
40.8876 47.0577 0
89.1637 44.7063 0
10.9202 40.8383 0
13.2806 16.1516 0
85.8806 16.3583 0
63.182 55.2287 0
68.9365 58.3919 0
78.9682 59.7808 0
89.3136 54.8288 0
11.7505 52.7786 0
19.2094 59.6066 0
66.7053 15.7041 0
30.7664 15.4277 0
26.331 62.0525 0
32.1442 57.9079 0
35.0127 54.5717 0
37.3173 53.0471 0
62.5303 47.9294 0
37.7369 48.5843 0
75.9316 28.6279 0
20.5223 28.5383 0
47.9158 19.2305 0
60.1629 44.7921 0
63.1347 45.6898 0
37.0496 45.9391 0
39.6872 44.7297 0
65.1461 48.2363 0
65.0337 52.2187 0
34.8049 51.5247 0
35.0069 48.4977 0
57.4839 45.4251 0
54.9509 45.1932 0
52.5863 45.7844 0
50.3004 44.9618 0
47.2295 44.5274 0
44.3902 44.7799 0
41.9454 45.255 0
74.3433 42.6277 0
80.2731 48.8068 0
17.9944 43.2672 0
21.3018 50.7175 0
34.4486 29.6482 0
59.9809 30.1978 0
67.7971 53.5199 0
73.4112 52.955 0
54.4606 38.701 0
46.5099 32.8579 0
26.2214 55.3234 0
31.9723 52.5475 0
69.7576 39.9689 0
30.9839 40.3386 0
57.5924 42.029 0
63.242 41.2031 0
66.9006 44.711 0
33.6447 45.0017 0
37.2376 41.5863 0
41.7206 42.3709 0
68.0525 51.038 0
32.7504 50.1019 0
53.2252 42.9315 0
49.636 40.8565 0
74.2912 46.6157 0
25.727 43.082 0
71.9686 48.0841 0
26.5451 48.1051 0
69.0654 48.0624 0
32.1442 47.9118 0
71.0638 45.1069 0
29.6287 46.1155 0
29.8221 50.0286 0
88.1478 34.3446 0
96.8886 38.9208 0
91.2972 35.6957 0
92.2304 38.5549 0
96.0829 37.7593 0
88.4994 40.731 0
3.11152 38.9211 0
11.8808 33.1197 0
10.0083 34.9798 0
3.91731 37.7595 0
8.31826 37.4753 0
11.6942 36.9939 0
11.4035 22.5817 0
10.9921 26.4341 0
9.37857 24.5332 0
11.8733 28.9128 0
4.15249 19.8984 0
5.35393 22.4221 0
8.24189 22.7714 0
11.5348 18.4126 0
13.1475 20.3192 0
8.01818 17.601 0
6.97056 20.2879 0
5.19881 17.2082 0
6.69684 24.8716 0
7.79649 26.6582 0
4.21853 14.592 0
9.76309 15.338 0
87.9478 22.8525 0
90.4139 24.5373 0
88.5669 26.6985 0
91.5506 22.7758 0
95.8476 19.8982 0
94.6461 22.4218 0
87.7079 29.2262 0
85.9922 20.6888 0
87.8381 18.5208 0
91.6473 17.6093 0
94.6745 17.2113 0
92.822 20.2926 0
95.6548 14.5953 0
93.3032 24.8712 0
92.2035 26.6578 0
89.6909 15.4449 0
65.819 8.17539 0
62.3344 4.14498 0
68.2827 3.81829 0
54.9428 4.12381 0
79.5536 0 0
84.6652 0 0
75.6573 3.91386 0
69.2321 11.7797 0
63.2896 12.1067 0
32.9158 8.0251 0
31.1853 3.77864 0
36.9312 4.03459 0
23.811 3.87851 0
20.4464 0 0
27.7967 -0.154823 0
44.3227 4.01106 0
34.7134 11.8571 0
28.9714 11.6039 0
81.649 35.0406 0
85.4199 34.5366 0
85.0516 38.1138 0
86.2838 31.5946 0
85.0295 42.1861 0
77.286 33.9761 0
80.0249 31.1567 0
16.0699 32.8581 0
14.1116 35.2614 0
13.9262 32.8099 0
14.1624 38.4816 0
13.5404 31.008 0
17.626 29.9927 0
18.7564 32.9561 0
16.5306 27.3159 0
14.1136 28.2756 0
15.687 23.3785 0
15.8186 19.2125 0
19.4412 25.4045 0
81.6093 27.2484 0
82.9163 23.786 0
84.8451 28.6606 0
82.8058 19.4556 0
77.8297 25.5896 0
79.7877 11.71 0
74.1961 11.7399 0
77.3451 7.85022 0
71.668 15.6531 0
81.2496 3.90602 0
84.4115 12.0878 0
81.2576 15.983 0
52.9212 14.151 0
54.3867 9.96409 0
58.4049 12.6932 0
49.4499 5.58689 0
61.8215 16.2869 0
52.4269 18.0515 0
48.4086 15.3295 0
44.4352 13.7864 0
39.316 12.2181 0
43.7812 9.85312 0
35.3693 15.7846 0
43.9439 17.6875 0
19.0265 11.6354 0
21.7455 7.85447 0
24.4629 11.5845 0
18.3744 3.94686 0
26.2588 15.399 0
17.5136 15.7623 0
14.793 12.0255 0
74.6407 34.001 0
78.7572 37.4108 0
78.0975 40.9985 0
74.7532 40.2443 0
21.4691 31.2666 0
19.3747 36.6831 0
17.0685 39.4956 0
19.7421 40.2996 0
73.9625 31.3256 0
73.5786 35.9441 0
72.4604 38.9147 0
70.8762 36.9966 0
68.7312 34.5552 0
66.8055 32.007 0
70.0692 31.4791 0
62.7234 32.6422 0
64.0622 29.5631 0
72.0375 28.7793 0
67.6115 37.5281 0
32.7045 32.0768 0
35.2396 32.6739 0
33.4946 35.1022 0
33.508 38.0206 0
36.6339 38.6431 0
30.972 37.4214 0
59.8699 33.233 0
62.6133 35.6767 0
64.3546 38.1436 0
61.5 38.7364 0
57.8232 32.1995 0
57.7122 35.2356 0
57.1101 37.4846 0
55.0631 36.4516 0
46.6672 35.2318 0
48.6973 34.3887 0
48.8549 36.763 0
50.2607 38.3882 0
52.6726 37.3105 0
48.23 39.2312 0
38.9053 36.4508 0
38.4346 33.3134 0
41.3095 34.0631 0
37.6436 30.2861 0
43.6739 31.8912 0
44.1458 35.0298 0
39.5099 39.3944 0
44.3025 37.4038 0
46.067 39.4005 0
43.5151 41.7831 0
47.4727 41.0258 0
43.5448 39.1981 0
41.7508 39.7861 0
90.8672 3.85323 0
87.4477 7.76625 0
86.3669 3.91729 0
88.92 12.0374 0
89.7768 0 0
94.8884 0 0
95.9816 3.8568 0
96.4873 10.974 0
92.7271 11.1166 0
95.7115 7.56063 0
91.0286 28.3931 0
90.4122 29.2398 0
4.10933 7.57151 0
6.96681 11.1242 0
3.38596 10.9705 0
10.4815 11.9446 0
8.97153 28.3937 0
9.5879 29.2407 0
3.83923 3.86744 0
13.2574 3.95746 0
11.997 7.8179 0
8.95359 3.86399 0
35.1935 -0.215257 0
42.5966 -0.244078 0
58.965 23.4576 0
55.8689 20.4103 0
60.0347 19.9268 0
51.358 21.586 0
64.9173 19.3385 0
61.5554 26.586 0
57.3899 27.0711 0
67.526 22.7011 0
70.0328 25.6785 0
65.6371 25.9543 0
73.9272 25.5301 0
69.3136 19.0694 0
78.1853 19.082 0
75.8264 22.4927 0
74.2786 19.0141 0
23.3471 18.8863 0
21.653 22.34 0
20.0502 18.8238 0
22.7344 25.4738 0
27.8573 18.9205 0
29.5972 26.3298 0
25.8685 26.2122 0
28.6776 22.52 0
23.655 29.2793 0
31.5867 19.0306 0
33.428 26.1408 0
30.6182 29.8343 0
40.589 27.5236 0
43.689 25.3653 0
43.9388 28.7685 0
44.1276 21.6754 0
47.4773 22.9212 0
46.7743 29.7349 0
37.3946 26.8858 0
36.1891 19.3928 0
40.1555 20.1355 0
36.3733 23.3762 0
26.6632 33.4179 0
24.4743 35.4054 0
24.6003 32.0096 0
22.5954 38.9614 0
28.8733 32.2614 0
28.7485 35.6603 0
28.7602 38.5763 0
51.8513 32.9559 0
54.2412 32.0973 0
53.2754 35.061 0
56.3989 30.0944 0
49.6638 31.4247 0
50.9191 25.2761 0
53.8085 26.9678 0
49.9277 28.3014 0
6.56077 37.0661 0
6.98239 39.0221 0
5.22443 38.6157 0
9.61825 39.1584 0
8.28283 40.7049 0
4.37915 39.7463 0
4.80379 36.6586 0
5.76686 35.6241 0
7.55853 36.0693 0
10.8505 35.9883 0
10.0055 37.2346 0
9.16272 36.2262 0
11.3065 38.915 0
8.40449 34.8191 0
11.1595 34.8201 0
12.0027 35.8255 0
11.7086 30.2944 0
10.2226 30.0721 0
11.0465 29.4896 0
12.4441 26.6994 0
10.4215 28.6527 0
10.8741 30.884 0
89.7776 30.071 0
88.0816 30.4496 0
88.7444 29.6451 0
89.3694 28.8086 0
86.9055 27.1224 0
89.1266 30.883 0
85.8513 33.0652 0
87.2124 32.9736 0
86.7833 34.4435 0
87.3691 31.6316 0
88.3028 33.0031 0
88.1324 35.6714 0
86.768 35.7697 0
84.355 32.8626 0
84.7899 31.3904 0
86.776 39.4228 0
86.7645 41.4596 0
85.0411 40.1492 0
88.8319 42.718 0
87.0971 43.4462 0
83.3005 40.7051 0
83.3114 38.6688 0
86.5839 37.5584 0
88.3083 38.8645 0
79.467 34.509 0
78.6551 32.5659 0
80.8353 33.0991 0
76.6074 31.302 0
77.9781 29.8928 0
81.6603 31.1712 0
82.4712 33.1125 0
81.6103 37.1313 0
80.2033 36.2254 0
14.1364 36.8708 0
12.9282 37.7389 0
12.9026 36.1285 0
12.5407 39.6599 0
13.212 34.9611 0
15.3504 35.5969 0
15.3759 37.2074 0
12.9043 32.9672 0
12.7153 32.0678 0
13.7346 31.9088 0
11.7131 32.3923 0
12.5435 31.3391 0
14.5389 30.676 0
14.734 31.5775 0
13.1202 33.7363 0
12.0962 33.8888 0
16.8493 31.4258 0
18.1922 31.4741 0
17.4131 32.9073 0
19.0741 29.2658 0
19.6408 30.7474 0
17.6739 34.4447 0
16.3297 34.3946 0
15.8053 31.6005 0
16.5818 30.1682 0
13.8273 29.6421 0
12.7088 29.9571 0
12.9936 28.5922 0
13.565 26.3806 0
14.8269 29.3084 0
16.0345 28.8298 0
17.0792 28.6537 0
18.5272 27.9263 0
17.4431 24.7957 0
86.2761 28.9413 0
86.9926 30.4071 0
85.5636 30.1281 0
84.0688 29.922 0
85.4728 26.8385 0
82.4515 29.2171 0
80.8154 29.2018 0
80.671 24.9026 0
78.7695 27.9374 0
80.1639 38.3172 0
79.8345 40.1105 0
78.4273 39.2044 0
76.6298 39.4306 0
76.2204 41.813 0
76.9601 37.6362 0
15.6155 38.9893 0
15.8324 40.9295 0
14.379 40.4216 0
17.5311 41.3809 0
16.2956 42.8157 0
12.7582 41.6018 0
16.8283 37.713 0
19.5583 38.4911 0
18.4054 39.8978 0
18.222 38.0901 0
18.8682 41.7835 0
17.9818 36.3074 0
20.8942 35.3405 0
20.9849 37.822 0
20.6942 41.7452 0
21.1691 39.6309 0
24.5667 37.8891 0
22.5043 36.4789 0
19.8206 43.2298 0
22.1211 41.0765 0
24.1611 41.0211 0
23.687 43.137 0
79.6564 42.4296 0
79.3511 44.542 0
77.7923 43.1109 0
80.7446 46.3326 0
78.88 47.0155 0
75.9148 43.9262 0
81.394 41.5405 0
90.3658 39.6445 0
92.8 40.4436 0
90.9347 41.5314 0
94.5597 38.736 0
95.1295 40.6275 0
91.2667 43.5208 0
90.1742 37.7763 0
93.2468 36.1745 0
93.714 37.6066 0
91.7644 37.1248 0
95.1964 36.6585 0
89.7078 36.3497 0
92.2482 35.1782 0
94.2335 35.6238 0
89.5444 33.6635 0
91.1182 34.3357 0
89.7235 35.0186 0
93.1987 34.6613 0
92.0972 33.7763 0
93.8077 44.6952 0
96.2997 43.1889 0
96.7386 45.5533 0
90.934 32.9746 0
89.7188 32.2659 0
97.1431 48.3414 0
91.7054 45.8811 0
10.4707 33.0471 0
10.9432 34.0468 0
9.53471 33.9788 0
6.80134 34.6616 0
7.9029 33.7765 0
5.69546 43.0422 0
3.25721 44.7803 0
3.20825 42.3082 0
2.85231 47.5684 0
9.06532 32.9746 0
10.2821 32.2655 0
8.33158 43.1726 0
66.0473 59.7441 0
65.1932 61.0397 0
64.3837 59.7048 0
65.9326 61.9863 0
60.1536 52.1053 0
60.0943 51.5606 0
63.7631 58.6765 0
67.0871 58.4004 0
67.8965 59.7351 0
68.5765 61.8034 0
68.9107 63.9082 0
67.1911 63.1838 0
70.3574 64.8702 0
60.0499 51.0144 0
60.0281 50.6364 0
69.6164 60.4599 0
77.0569 64.285 0
77.2992 66.9068 0
74.8494 66.4261 0
79.7913 67.2149 0
60.0133 50.258 0
60.0074 49.9964 0
72.5122 65.5081 0
76.787 61.7921 0
79.2377 62.273 0
82.0601 63.9278 0
84.9315 66.0296 0
82.3789 66.8675 0
87.3416 65.0256 0
94.2053 63.7778 0
92.2413 65.5058 0
81.7912 61.435 0
91.3553 58.9011 0
93.7761 60.5021 0
91.7852 62.1754 0
95.3622 58.4289 0
90.0689 66.9628 0
87.7249 68.1243 0
89.7167 63.768 0
89.339 57.7011 0
91.3304 56.0277 0
93.8023 54.7009 0
96.8132 53.4887 0
96.3573 56.0162 0
97.149 50.9011 0
85.2496 68.9704 0
82.6851 69.4867 0
91.7859 53.5018 0
6.11965 54.0431 0
3.44744 55.9069 0
3.30408 52.9402 0
4.4426 58.3197 0
5.79467 63.7782 0
4.07285 61.8088 0
2.96832 50.3528 0
8.86333 51.9285 0
9.00602 54.8925 0
8.48578 58.5321 0
8.25117 61.9159 0
6.02862 60.3929 0
10.3197 63.5085 0
2.62281 59.6317 0
1.46931 57.2838 0
11.2293 56.4159 0
17.0542 63.7145 0
16.9756 66.7764 0
14.8283 65.9078 0
19.5633 67.1237 0
0.632431 54.8056 0
0.126555 52.2392 0
12.4182 64.9038 0
17.0575 61.2259 0
19.2056 62.0945 0
29.3382 63.5582 0
31.5974 63.8867 0
30.2157 64.9606 0
32.8558 62.6891 0
34.9913 62.8946 0
33.785 64.1468 0
28.7691 65.9226 0
27.1439 63.3422 0
28.5256 62.2682 0
34.0951 59.45 0
35.6604 59.7617 0
34.9052 60.6893 0
36.281 58.7334 0
32.4745 65.2896 0
31.0697 66.3144 0
34.1657 61.6358 0
32.7421 59.1426 0
33.4973 58.215 0
29.5814 67.2134 0
37.1063 57.9733 0
37.4609 57.2226 0
37.752 56.4451 0
35.7569 55.7866 0
27.3024 68.2783 0
83.5343 34.7894 0
85.2365 36.3245 0
83.3492 36.5791 0
91.8416 50.8606 0
91.8355 48.3037 0
94.2522 49.6159 0
89.2943 47.1269 0
89.3691 52.1882 0
15.0922 34.0613 0
14.0188 34.0355 0
14.998 32.8343 0
8.34055 48.8747 0
5.86056 48.2952 0
8.22493 46.0938 0
10.8123 43.7555 0
11.2279 49.7261 0
15.3221 27.7956 0
14.7747 25.8987 0
83.2273 27.9546 0
83.8534 26.1306 0
67.7356 56.9648 0
65.8861 56.9732 0
64.2099 56.8191 0
64.8582 55.383 0
74.0208 61.6005 0
72.4514 63.1661 0
71.8654 60.9622 0
71.1857 58.8944 0
76.2015 59.5889 0
86.9567 58.9896 0
86.9887 61.8321 0
84.5809 60.2473 0
81.7581 58.5933 0
86.9309 56.1175 0
15.2585 59.9078 0
12.8076 61.4506 0
13.1594 58.5126 0
13.6809 54.8749 0
17.4104 58.2887 0
31.4577 60.0557 0
32.0299 61.4309 0
30.1477 61.1091 0
27.953 60.8934 0
30.8597 58.8211 0
35.2795 56.8354 0
35.6757 57.7622 0
34.4541 57.5956 0
33.101 57.2884 0
34.5353 55.6203 0
78.0209 35.6938 0
76.2245 35.9183 0
84.8206 49.3536 0
87.1649 48.1635 0
87.0804 50.7393 0
87.0343 45.7436 0
87.0253 53.3786 0
82.505 50.3681 0
82.5887 47.7935 0
19.066 34.8195 0
20.584 33.4762 0
69.0202 56.8849 0
67.8192 55.4578 0
67.1658 54.5286 0
68.4505 54.449 0
73.8845 55.879 0
74.6256 57.5492 0
72.6939 57.7264 0
77.3926 57.7413 0
70.4445 57.2236 0
72.6819 54.5052 0
74.6139 54.3286 0
82.4702 53.0612 0
84.6424 54.667 0
82.3767 55.799 0
79.5862 56.9861 0
80.2389 51.4991 0
18.5989 53.2928 0
17.7917 55.949 0
16.4176 54.3142 0
19.591 57.2665 0
14.4873 52.2188 0
19.2632 51.1884 0
20.6372 52.822 0
24.5266 58.0169 0
24.4599 60.0461 0
22.9122 59.2474 0
26.2026 60.4338 0
24.5884 61.6645 0
21.0277 60.4416 0
21.0939 58.4126 0
24.6 56.2711 0
26.1478 57.0692 0
32.0168 56.629 0
32.9736 56.0095 0
33.451 54.961 0
31.9308 53.9488 0
84.9674 44.482 0
83.0603 45.3197 0
83.1225 43.0235 0
71.1004 54.6538 0
70.5283 55.717 0
69.6759 54.3147 0
69.0225 53.3857 0
71.8295 53.1033 0
78.5667 53.0138 0
78.0103 54.9474 0
76.3726 53.7682 0
75.1699 52.3949 0
78.6008 50.3207 0
23.2633 55.2921 0
21.4759 56.0728 0
21.7604 54.1466 0
22.425 52.0415 0
24.8848 54.3445 0
78.4578 48.6379 0
77.0648 46.846 0
75.889 45.9198 0
75.4669 47.5423 0
22.4129 45.1383 0
21.3099 47.1464 0
20.5432 45.1989 0
22.2406 48.9017 0
20.3709 48.9616 0
18.717 45.2363 0
24.4535 45.0843 0
72.2913 51.7598 0
70.7097 51.9079 0
69.612 50.8012 0
71.5701 49.3241 0
75.4381 49.1651 0
76.7857 50.1515 0
75.5813 50.8485 0
73.8224 51.4082 0
74.2625 48.2386 0
25.4444 51.0375 0
25.0723 52.5934 0
23.9201 51.8101 0
26.409 53.5719 0
22.7971 50.4862 0
25.4187 49.18 0
26.5708 49.9627 0
27.6888 54.4843 0
27.8764 52.7327 0
29.4892 51.8367 0
30.5642 53.0963 0
23.7359 48.6701 0
24.8624 47.5956 0
72.7026 50.2131 0
73.1011 48.9731 0
27.6127 57.8058 0
29.3633 58.265 0
27.8248 59.2747 0
30.6479 57.3518 0
27.6865 56.0596 0
30.5228 54.4974 0
30.5203 56.0732 0
29.1538 55.2204 0
23.211 63.2095 0
21.3891 64.8628 0
21.0235 62.9298 0
21.7501 67.4034 0
24.9534 63.5975 0
26.432 66.8404 0
24.2421 67.0956 0
25.7664 64.8873 0
24.9079 69.0491 0
22.4356 69.5138 0
14.945 44.8395 0
12.9997 46.9965 0
12.6504 44.5178 0
13.5216 50.0469 0
16.6439 45.2921 0
18.3321 49.4321 0
16.2594 49.4878 0
17.367 47.2623 0
58.4028 8.2111 0
60.0056 10.1304 0
79.535 20.2439 0
77.0395 20.435 0
69.2452 13.9416 0
67.5923 15.8049 0
37.1898 13.3193 0
34.8439 12.4686 0
72.2303 44.4934 0
70.3956 42.7956 0
36.7102 22.0506 0
37.3082 24.4735 0
46.0451 8.1936 0
45.1582 10.5313 0
1.84028 10.4133 0
4.04595 9.23214 0
16.1394 3.99268 0
14.3597 2.25312 0
37.8074 13.3895 0
37.7726 10.8912 0
72.2802 1.14405 0
69.815 1.53672 0
65.3671 25.0458 0
65.824 22.5937 0
17.0811 0.162907 0
19.0981 1.62336 0
30.7544 0.366839 0
29.0185 2.16938 0
20.1692 28.9481 0
18.0432 27.6416 0
87.2241 22.8767 0
89.703 23.2472 0
80.4442 11.8672 0
79.0301 9.81026 0
53.4956 14.3389 0
52.9693 16.7825 0
79.8702 20.6514 0
77.367 20.5972 0
95.4293 2.46715 0
96.8382 4.52942 0
40.41 38.3964 0
38.2026 39.5671 0
34.375 27.0628 0
35.0358 29.4678 0
88.3657 30.4569 0
87.7483 28.0574 0
42.4466 31.9238 0
44.3259 30.2786 0
26.0755 12.8631 0
26.91 10.5095 0
40.5569 37.4718 0
42.7865 36.3454 0
65.9154 38.645 0
67.444 40.6215 0
21.6655 36.5231 0
24.1572 36.7228 0
87.3 17.9924 0
88.9275 16.1094 0
31.3062 9.94893 0
28.8743 10.5326 0
60.2768 8.27164 0
61.5778 10.4076 0
62.4179 9.34782 0
60.966 7.31133 0
18.7626 6.97464 0
18.1832 9.39104 0
63.0437 43.7993 0
62.3505 46.1988 0
84.2844 25.8233 0
83.5956 28.209 0
47.3531 44.2441 0
49.2164 42.5787 0
30.7341 4.77824 0
33.1074 5.55251 0
37.1906 2.282 0
36.8946 -0.199127 0
39.5183 0.523338 0
37.8494 2.38575 0
66.8527 34.5024 0
64.5955 35.567 0
25.2419 21.329 0
23.6697 23.2684 0
89.2187 30.1974 0
86.9571 29.1193 0
74.2832 10.0539 0
76.6622 9.30237 0
80.3488 12.7945 0
81.7523 14.8578 0
81.0947 16.9317 0
80.1815 19.2416 0
78.4105 10.7411 0
79.7555 12.8433 0
67.6668 27.4669 0
65.1719 27.3554 0
62.4284 24.8761 0
60.0003 24.293 0
61.7194 24.7003 0
62.4896 27.0768 0
69.5121 32.8557 0
67.0263 32.6062 0
82.5786 12.4927 0
85.0228 13.0547 0
51.458 18.1415 0
53.5372 19.525 0
66.9854 15.9802 0
65.1619 14.2677 0
20.0267 22.3935 0
20.4805 19.9485 0
53.0627 24.0362 0
52.9545 21.539 0
62.0764 33.9272 0
64.0413 35.4707 0
67.9429 28.2293 0
69.9081 26.6947 0
27.3593 19.3636 0
25.4307 17.7861 0
43.383 3.95515 0
43.9146 1.51291 0
90.2255 10.2846 0
88.4275 8.55005 0
67.9615 36.7728 0
68.6429 34.3742 0
9.52481 8.19891 0
11.9818 7.71218 0
49.9622 6.55089 0
52.3371 7.33206 0
81.1363 29.182 0
83.0792 27.6188 0
43.1425 19.996 0
45.5345 20.7062 0
73.0153 25.5359 0
75.2391 24.4039 0
59.3076 18.5498 0
57.0627 19.6392 0
94.8307 14.8965 0
92.4101 14.2539 0
8.74703 19.4721 0
11.2082 18.9992 0
17.4571 22.7491 0
15.7957 20.895 0
16.9455 36.4648 0
18.1547 34.2849 0
59.7813 41.9602 0
57.589 43.1569 0
84.611 20.4091 0
84.6589 22.8914 0
9.90302 20.0859 0
7.80164 21.448 0
16.8435 30.0361 0
15.2177 31.9238 0
46.6521 3.42625 0
48.1057 5.46019 0
57.7841 40.3738 0
55.7461 41.8173 0
67.5172 37.0652 0
69.5903 38.4619 0
68.361 7.54646 0
70.2483 5.91703 0
24.8014 8.5547 0
27.2275 9.13733 0
16.123 15.5201 0
15.2192 17.839 0
96.982 4.64805 0
94.5109 5.03414 0
25.2292 33.8638 0
26.0471 31.5077 0
16.8139 15.7187 0
17.9399 17.9331 0
86.8941 15.6942 0
88.6018 13.8819 0
26.9792 36.4307 0
28.2543 38.5718 0
45.0579 37.0936 0
42.7624 38.0782 0
25.984 33.7146 0
28.4614 33.3842 0
70.5489 15.9842 0
72.5193 17.5265 0
49.8257 47.698 0
50.9704 45.476 0
82.7659 18.3728 0
81.0857 16.5247 0
12.411 5.60494 0
9.98559 4.99932 0
18.2991 2.66354 0
20.5317 1.52954 0
98.9011 4.26952 0
97.7059 6.45574 0
80.2971 37.4469 0
80.8885 35.0315 0
48.5363 3.62176 0
48.4433 1.12445 0
46.0839 5.28763 0
43.9282 6.55487 0
61.1083 38.0796 0
59.0214 39.45 0
81.2047 11.1224 0
81.7891 8.71308 0
79.3242 30.4802 0
76.9974 31.3822 0
52.3968 8.14369 0
50.932 6.11795 0
25.8964 30.0014 0
23.7625 28.7097 0
94.5659 17.4633 0
96.8462 16.4443 0
29.5697 32.138 0
31.8771 33.0883 0
65.8294 4.41744 0
65.8073 6.9165 0
53.2577 1.92537 0
51.4516 3.65502 0
14.5741 9.07411 0
15.1038 6.64683 0
7.21817 18.8571 0
5.02249 17.6698 0
61.215 40.3637 0
59.8967 42.4847 0
74.2101 7.31478 0
73.7993 4.85186 0
23.5769 30.3225 0
23.8177 27.8439 0
78.8046 6.91999 0
76.6461 5.64365 0
79.0426 11.3146 0
81.1593 12.6542 0
7.63652 2.53472 0
5.13639 2.60603 0
76.4522 15.9909 0
74.4693 14.4622 0
47.9016 9.35989 0
49.6884 11.1071 0
80.0439 2.04221 0
82.5019 1.58853 0
29.1718 29.9679 0
27.2178 28.4193 0
70.9767 16.39 0
71.5293 13.9629 0
4.5203 13.5745 0
6.47797 12.0179 0
40.5594 0.221023 0
39.5214 2.49481 0
60.4117 12.3952 0
59.8405 14.827 0
41.2071 3.5623 0
39.17 5.01353 0
33.6502 29.4754 0
36.14 29.6593 0
33.1913 20.9869 0
32.9726 18.5019 0
79.6024 15.573 0
80.1576 17.9977 0
72.6638 34.7334 0
70.5288 33.4336 0
56.73 8.28742 0
54.3224 7.61598 0
44.5362 8.91506 0
43.2064 11.0324 0
82.5715 16.5384 0
83.6839 14.3175 0
11.5879 0.312541 0
10.6928 2.63793 0
78.0185 16.1531 0
80.0509 17.6135 0
59.4289 3.02296 0
60.7527 5.14418 0
72.2917 1.27189 0
72.1984 3.76798 0
66.814 2.69671 0
68.1014 0.548261 0
13.3307 3.76812 0
15.1509 2.05855 0
71.9723 26.5626 0
74.4288 27.0236 0
16.8417 17.5058 0
15.4307 19.5621 0
72.2148 38.3378 0
72.1395 35.846 0
43.4802 20.7821 0
41.2178 21.84 0
57.2597 19.2527 0
57.5254 21.7378 0
64.6847 28.8 0
67.1668 28.5324 0
24.6533 31.9063 0
27.0589 31.2281 0
50.1167 28.7864 0
49.1082 31.072 0
59.8095 37.1852 0
58.5445 35.0304 0
22.4449 29.0809 0
24.8599 28.4375 0
39.6973 35.9021 0
37.2474 36.3887 0
5.9018 10.0627 0
3.87284 11.5256 0
54.8023 20.7843 0
56.8344 22.237 0
68.5145 19.6505 0
68.823 17.1766 0
42.0142 42.6859 0
42.7789 45.0647 0
19.0837 24.565 0
16.934 25.8396 0
69.2655 4.15854 0
66.9193 3.28986 0
18.7306 12.8321 0
19.4333 10.4468 0
97.8435 0.548409 0
97.0296 2.90006 0
21.3131 0.60299 0
21.7817 3.02648 0
13.4408 5.97609 0
14.5787 8.18457 0
94.823 5.80439 0
95.3516 3.37307 0
58.6729 11.6052 0
59.4732 13.9739 0
26.7324 39.9426 0
25.2347 41.9417 0
62.4288 18.742 0
64.5353 17.407 0
9.52267 7.74609 0
11.9372 7.08177 0
44.2813 18.0785 0
41.8953 18.815 0
89.0241 10.8166 0
91.4883 10.3773 0
65.4947 41.6028 0
63.0701 40.9955 0
51.2706 34.3868 0
53.6808 33.7376 0
12.7483 8.57752 0
14.7394 10.0785 0
75.0551 18.4317 0
72.5603 18.2387 0
69.1688 26.4177 0
69.623 28.8707 0
19.5756 11.8051 0
21.8362 12.8651 0
36.8929 40.0263 0
34.4864 39.3576 0
29.3133 28.2747 0
30.9295 30.1722 0
12.3799 19.5815 0
13.5808 17.3971 0
42.0363 43.1305 0
39.6432 43.8501 0
34.2182 5.13779 0
33.7262 7.58939 0
94.9589 17.0581 0
93.8733 14.8111 0
53.776 26.2589 0
54.3555 28.6896 0
68.2939 36.2874 0
67.5196 38.6581 0
71.247 37.0053 0
69.3059 38.5722 0
30.4671 15.5397 0
32.6232 16.7905 0
62.7521 8.04538 0
65.2355 8.325 0
52.394 17.3051 0
51.1252 19.4576 0
68.8513 3.62458 0
68.9125 6.1237 0
24.01 7.73847 0
26.0471 9.16323 0
31.7731 14.6468 0
33.4894 16.4536 0
72.4509 6.00314 0
74.7235 5.0006 0
47.2232 15.221 0
45.6817 17.1883 0
36.6639 41.8073 0
38.6958 40.3523 0
22.8148 10.4348 0
24.4558 8.54498 0
22.9658 37.7317 0
25.3474 36.9667 0
79.5549 20.4848 0
81.808 21.5754 0
80.4437 16.1098 0
78.1672 15.0631 0
68.1811 34.1918 0
68.4278 36.6746 0
32.7781 26.9399 0
35.0073 28.0596 0
49.0966 3.57345 0
47.457 5.46104 0
34.1825 40.6 0
32.8206 42.6944 0
47.6798 12.5559 0
48.2007 15.001 0
50.2585 18.7729 0
51.631 16.685 0
33.8263 30.6122 0
34.512 28.2117 0
2.35297 13.8128 0
4.8394 14.0882 0
40.0855 40.2055 0
40.8295 42.59 0
10.1239 16.1522 0
9.50772 18.5639 0
32.9312 16.081 0
31.8882 18.3521 0
43.2548 0.927983 0
45.6732 0.280158 0
37.124 36.8094 0
39.3655 35.706 0
81.2555 10.0866 0
81.7512 7.65821 0
30.4449 3.62932 0
28.2957 4.91346 0
49.4062 1.33183 0
47.6088 3.07081 0
60.772 31.224 0
62.547 32.9823 0
26.1729 37.2275 0
24.4983 35.3821 0
33.924 3.18863 0
36.4129 3.42038 0
46.8675 29.0402 0
45.8447 31.3198 0
19.4787 36.1522 0
21.202 37.9507 0
56.1194 28.2369 0
58.615 28.2725 0
92.8292 9.46145 0
95.2473 10.11 0
22.0806 29.0109 0
24.5517 29.3761 0
48.2789 17.6769 0
50.7282 18.1574 0
28.8057 21.6569 0
27.7522 19.401 0
88.6626 18.0213 0
91.0188 18.8747 0
85.3197 15.5104 0
82.8174 15.6459 0
59.5446 45.1728 0
60.8279 47.318 0
89.5294 2.52319 0
89.7394 5.00173 0
95.4636 9.79362 0
93.369 8.42625 0
64.4611 41.4208 0
62.9756 43.4276 0
56.0176 26.028 0
58.3378 25.11 0
71.0278 1.87438 0
71.0299 4.37347 0
51.4187 11.7796 0
50.5039 9.45297 0
58.3321 27.8041 0
57.6577 25.3982 0
9.32514 7.84984 0
7.77897 5.89795 0
51.6899 13.3886 0
49.2105 13.0931 0
49.7138 24.3236 0
50.1426 26.7856 0
72.6029 28.3651 0
70.2009 27.6751 0
81.2946 36.3149 0
78.9819 37.2559 0
80.7662 18.2683 0
81.4198 20.6681 0
63.0483 6.28348 0
60.7626 5.2699 0
49.6093 11.7561 0
47.1178 11.586 0
44.4754 28.4616 0
42.0221 28.9218 0
88.6386 7.81064 0
88.1078 10.2371 0
72.308 6.35966 0
71.0161 8.48662 0
87.6947 13.9088 0
88.6403 16.2124 0
36.5625 40.8426 0
38.283 42.6524 0
62.5568 3.58015 0
63.7353 1.37608 0
39.9496 15.0669 0
40.0946 12.5717 0
19.3811 6.43476 0
21.5248 5.13583 0
36.3618 45.8127 0
38.7255 46.6261 0
34.5754 31.3004 0
32.3429 32.4228 0
58.9126 19.5138 0
60.7034 21.2571 0
78.2539 16.1817 0
75.8268 15.5581 0
15.8621 28.9114 0
17.2229 26.8279 0
80.5538 1.66514 0
78.1487 2.32859 0
37.6438 41.6454 0
35.1618 41.9373 0
84.0738 21.3825 0
84.5647 23.8181 0
86.567 7.32288 0
86.2238 4.86239 0
44.7635 5.98362 0
46.5619 7.71939 0
84.1601 19.7328 0
84.0267 22.2118 0
71.9595 17.539 0
74.4436 17.2585 0
77.1178 24.9776 0
76.507 22.5638 0
97.1528 15.2767 0
94.6881 14.8397 0
38.3435 23.5738 0
40.4274 22.1955 0
40.9166 1.70586 0
39.8535 3.96851 0
60.1733 22.4698 0
57.8408 21.5772 0
23.1265 0.943064 0
24.5959 2.93643 0
71.9091 32.1815 0
69.4444 32.582 0
44.2058 38.1636 0
42.26 39.7311 0
34.1393 4.34074 0
35.5933 6.37063 0
19.9532 15.5645 0
21.7044 17.3339 0
1.48478 8.3572 0
3.17496 10.1926 0
85.6094 24.9742 0
87.732 23.6626 0
82.6855 14.8577 0
80.255 14.2427 0
60.7664 3.21516 0
60.1664 5.64111 0
17.292 24.2614 0
15.7986 22.2713 0
51.8053 38.8473 0
50.5936 36.6622 0
59.7306 46.8103 0
62.0328 45.8373 0
81.6938 19.1889 0
81.9887 21.6558 0
60.0585 15.0666 0
57.6496 14.4061 0
21.5997 24.4542 0
21.4916 26.9393 0
50.5584 36.6286 0
51.5017 34.3151 0
68.8299 24.0986 0
66.7661 22.6882 0
85.4073 32.0108 0
83.062 32.8588 0
10.0213 12.7135 0
7.95748 14.1285 0
90.6784 3.18476 0
88.5799 1.82572 0
85.5587 8.45556 0
87.7178 7.20272 0
32.9629 40.4176 0
33.1271 42.9075 0
16.5729 0.8439 0
18.9339 1.65574 0
80.4179 27.5182 0
82.361 25.9547 0
21.4143 11.0445 0
19.7314 9.21512 0
93.5297 17.1031 0
91.2313 16.1082 0
19.4058 35.6427 0
19.2639 33.1594 0
17.9825 35.2738 0
20.2343 34.1863 0
76.6256 12.0816 0
75.0567 14.009 0
20.8968 4.7283 0
18.5499 3.87953 0
26.3276 33.7816 0
24.1727 32.5259 0
55.327 7.0137 0
57.4758 5.7375 0
69.3468 3.81506 0
70.4266 6.07273 0
22.4144 17.037 0
21.7199 14.6531 0
89.4965 6.15083 0
86.9932 6.13293 0
60.1582 4.20252 0
57.6695 3.95176 0
86.6803 11.3383 0
84.2726 10.6412 0
80.9237 22.5322 0
82.1004 20.3426 0
69.7769 32.4447 0
68.977 30.0806 0
42.4535 48.8949 0
40.5297 47.2988 0
30.6532 29.3603 0
31.5776 31.675 0
19.9376 37.4761 0
20.2471 35.006 0
64.2204 5.58936 0
62.4862 7.38603 0
91.4366 1.97332 0
90.9798 4.41798 0
85.7599 10.1266 0
87.2399 12.1351 0
16.1102 1.27564 0
14.07 2.71783 0
71.9447 36.5835 0
74.368 35.9788 0
14.8985 16.249 0
17.327 16.8536 0
85.8536 30.8436 0
87.542 32.6714 0
8.11796 22.0445 0
10.6187 21.9058 0
49.9335 35.532 0
52.4228 35.3453 0
9.11155 20.5307 0
10.8333 18.718 0
62.5286 31.8959 0
60.2621 32.9399 0
37.5407 6.7538 0
39.0273 4.74292 0
9.76224 9.19843 0
11.9412 7.96778 0
60.1436 25.9213 0
57.6492 26.004 0
32.8482 17.1429 0
33.7948 19.449 0
92.6243 11.4711 0
92.9523 13.9385 0
50.0439 4.34198 0
52.1272 5.72512 0
21.7696 11.819 0
23.2364 13.8239 0
16.4423 4.90956 0
18.7595 3.96302 0
38.9507 33.7097 0
41.0855 32.4128 0
2.04253 4.98594 0
2.95269 2.66429 0
17.4294 17.0926 0
16.402 19.3606 0
81.4587 37.5172 0
82.4783 35.2497 0
72.904 12.5152 0
74.7387 10.8361 0
66.3137 41.3827 0
63.923 42.1078 0
63.7393 26.3849 0
65.7244 24.8753 0
49.8632 5.9925 0
48.3249 7.96312 0
60.178 40.6528 0
62.3998 41.7967 0
23.3927 10.8553 0
24.4971 13.0787 0
60.0829 31.1627 0
61.029 33.4748 0
85.0508 22.3857 0
87.5556 22.3233 0
74.5721 19.7618 0
72.1451 19.1511 0
56.0473 12.3086 0
58.4884 12.8385 0
61.6833 4.17049 0
60.6392 1.8991 0
60.7163 47.4177 0
58.2181 47.5156 0
50.6461 16.7287 0
50.9621 19.2086 0
26.149 33.1449 0
27.1392 30.8549 0
43.6987 22.5151 0
41.6474 21.0944 0
70.2406 18.4922 0
72.7138 18.8661 0
72.5519 1.49461 0
72.724 3.98787 0
33.4197 16.9922 0
35.0552 18.8735 0
55.2442 3.43316 0
57.6877 3.96904 0
62.7291 26.8955 0
60.233 26.917 0
59.5617 35.4119 0
59.7065 32.9187 0
41.7414 31.2515 0
39.3609 32.0058 0
65.7035 33.7524 0
63.6814 32.2846 0
41.2801 36.0712 0
39.977 38.2032 0
73.2272 29.6709 0
72.7956 32.1243 0
50.763 40.0677 0
51.8561 42.315 0
59.8176 9.96838 0
58.3209 7.96515 0
82.5569 19.9445 0
84.8597 18.9726 0
66.2618 0.640966 0
68.7574 0.412828 0
72.7713 32.5684 0
74.6464 30.9258 0
66.5193 33.4455 0
65.2438 35.5888 0
67.8024 46.1536 0
68.5243 43.7655 0
63.7209 22.9271 0
64.8184 20.6876 0
80.4294 11.2484 0
82.0382 13.1592 0
31.0012 20.3745 0
30.0515 18.0717 0
25.3133 20.6196 0
26.8863 22.5501 0
53.9847 28.601 0
56.467 28.3454 0
85.7195 28.2473 0
85.1942 25.8224 0
37.901 1.72543 0
40.383 2.04802 0
42.1045 29.4452 0
43.089 27.1487 0
19.9622 35.2926 0
22.4485 35.5451 0
84.4661 11.5059 0
86.9716 11.4546 0
30.5163 1.20905 0
32.9833 0.785702 0
61.9905 42.3645 0
59.8261 41.1152 0
40.0286 13.3633 0
38.036 14.8731 0
71.9072 29.0745 0
70.0618 27.3904 0
60.3581 30.1905 0
59.5967 27.8112 0
6.59552 10.6549 0
5.72582 12.9911 0
33.6201 6.76 0
32.0017 4.86088 0
57.2894 24.6599 0
59.723 24.109 0
61.7436 27.9529 0
59.2597 28.1947 0
12.9849 2.03282 0
15.1405 3.28656 0
72.4138 4.92132 0
69.9287 4.66334 0
30.5145 6.17383 0
28.1204 6.89905 0
80.794 3.73181 0
78.2913 3.82617 0
54.3828 35.8772 0
52.3731 37.3591 0
30.5955 14.2222 0
33.0168 14.8256 0
80.5796 9.1726 0
82.8682 8.17101 0
12.0155 31.5028 0
12.9996 29.2343 0
46.378 5.26997 0
48.8279 5.77162 0
2.73174 5.31837 0
5.23272 5.21959 0
10.2131 9.54781 0
11.2162 11.822 0
4.33866 17.8498 0
6.58808 16.7509 0
29.3865 8.4196 0
26.889 8.38992 0
43.6901 1.94755 0
45.999 2.91105 0
77.3469 2.78907 0
75.5753 4.51755 0
55.2108 26.6851 0
57.4584 27.7728 0
24.8125 19.2839 0
26.9997 18.0674 0
12.8005 30.8332 0
14.0485 28.6875 0
13.7562 17.8309 0
15.617 19.4879 0
31.5469 35.9756 0
33.6497 37.3194 0
85.111 18.9165 0
85.4412 16.4564 0
54.9598 42.2998 0
56.1345 40.095 0
56.8605 42.9547 0
54.3725 42.7271 0
69.3546 41.0278 0
68.4339 43.3457 0
81.6151 5.21229 0
81.1832 7.64961 0
67.3045 28.6851 0
69.3959 27.3265 0
23.3818 28.1981 0
20.8882 28.3679 0
76.5654 33.0315 0
74.6714 31.4027 0
40.3981 1.75057 0
41.9474 -0.212031 0
21.4836 3.4694 0
19.2763 2.32221 0
32.7211 27.9575 0
34.5259 29.6781 0
39.7572 2.19824 0
37.9712 3.94901 0
68.5849 6.20614 0
66.5209 7.60688 0
7.18453 2.10795 0
8.72597 0.142498 0
59.0762 33.3512 0
57.1201 31.7977 0
22.6575 35.3371 0
24.1884 37.3018 0
76.7006 24.8785 0
76.1487 22.4505 0
8.87359 16.704 0
9.71769 19.0418 0
27.0283 16.623 0
28.4526 14.5686 0
31.9452 36.9036 0
32.7755 34.5491 0
22.2074 34.8532 0
19.9691 33.7522 0
73.3233 37.0205 0
71.9969 34.905 0
15.0324 2.08494 0
16.9731 0.514661 0
52.2284 12.0942 0
52.096 9.59735 0
33.8262 8.69519 0
32.6877 6.47493 0
24.9733 41.7149 0
27.3646 40.9793 0
57.5752 12.4662 0
59.7966 11.327 0
84.1864 35.0913 0
82.3803 33.3667 0
40.3987 47.071 0
38.8874 45.0809 0
18.0763 12.1402 0
20.5361 12.6055 0
92.7078 8.16517 0
94.3906 6.32696 0
81.3602 32.9365 0
80.6446 30.5516 0
38.8331 14.7799 0
38.6977 17.2752 0
28.5864 11.5236 0
29.9724 13.5904 0
51.9105 39.4582 0
54.3991 39.6673 0
86.548 28.0212 0
85.8831 25.6298 0
22.1622 2.3269 0
23.5655 4.35993 0
49.3546 3.12368 0
47.234 1.79631 0
18.862 19.6577 0
21.3455 19.9717 0
2.10056 9.0214 0
4.28445 7.80099 0
20.2606 3.58665 0
18.856 5.64623 0
62.9401 44.3475 0
65.1604 45.4967 0
34.494 21.1365 0
36.5802 19.7596 0
94.5949 1.03282 0
93.9566 3.43737 0
49.7445 42.3311 0
49.3587 39.8619 0
58.6754 10.744 0
56.3249 9.89512 0
36.6124 10.6623 0
34.3285 11.6801 0
56.8244 43.7911 0
56.7507 46.2894 0
2.43583 12.6046 0
1.77381 10.2013 0
82.4244 4.95826 0
83.3178 2.64441 0
37.6745 47.2347 0
35.4173 46.161 0
65.9718 39.464 0
68.3008 40.3725 0
24.6577 34.0134 0
27.1333 34.3469 0
68.4609 39.3745 0
70.862 38.686 0
13.8206 30.5646 0
12.2004 28.6801 0
58.8615 44.3582 0
61.2958 44.924 0
24.3278 5.60516 0
24.1975 8.09048 0
81.1211 20.8631 0
78.7388 21.6231 0
29.8756 39.6658 0
29.5123 42.1339 0
23.7147 17.001 0
21.4554 15.9389 0
2.73638 8.22154 0
4.96219 7.07875 0
48.0275 30.7896 0
49.9852 29.2397 0
87.0526 23.1056 0
84.6671 23.8573 0
34.6666 10.8711 0
32.3327 11.77 0
47.5589 25.967 0
46.1028 23.9383 0
67.4242 24.2412 0
65.4337 22.7295 0
58.2104 30.0894 0
56.8678 32.1938 0
32.3276 34.8334 0
34.6185 35.824 0
57.4095 36.2922 0
56.0491 34.1963 0
26.6826 3.33796 0
28.7894 1.98581 0
11.1809 26.601 0
12.7164 24.6321 0
63.508 33.0385 0
61.9123 34.9567 0
28.4931 11.3597 0
26.0457 11.8857 0
44.5051 45.7288 0
42.0067 45.7955 0
30.8458 14.4219 0
31.975 16.6425 0
13.2059 1.82519 0
15.3323 0.511138 0
76.125 14.9709 0
73.8668 16.0302 0
12.6751 6.52152 0
13.3234 8.9185 0
35.4818 4.89484 0
36.3463 7.23823 0
53.9947 17.6364 0
51.5381 18.0769 0
31.3168 8.45123 0
29.0132 7.49914 0
24.2908 6.61088 0
21.7961 6.8364 0
48.6121 3.57748 0
51.0491 4.14357 0
32.165 13.7443 0
32.0984 11.2493 0
1.5816 3.45748 0
4.06194 3.78027 0
62.8132 44.2381 0
60.4951 43.3032 0
42.6414 24.4094 0
40.1512 24.2477 0
48.3465 30.7243 0
50.5232 31.946 0
58.8754 35.2684 0
56.3884 35.4845 0
50.016 46.5453 0
52.0706 45.1225 0
26.9515 5.66876 0
26.3239 8.08872 0
43.5164 36.0091 0
42.0985 33.9541 0
52.8757 27.919 0
50.9806 29.5443 0
60.9501 39.9257 0
62.0865 42.1511 0
46.9353 23.6215 0
45.6699 21.4681 0
19.2542 2.94752 0
18.5405 0.577153 0
48.2296 41.8661 0
49.1915 39.5595 0
47.8193 39.4558 0
45.3684 38.9776 0
73.2139 11.5046 0
72.6855 9.06494 0
52.5242 17.8003 0
50.7823 16.0093 0
25.0122 41.7659 0
27.4971 41.4757 0
51.9688 24.0594 0
50.5569 26.1199 0
25.8498 30.2897 0
28.2757 30.8794 0
5.35984 8.00263 0
2.87779 7.6899 0
20.8843 35.2084 0
18.7641 36.5342 0
31.8984 19.148 0
34.1721 20.1733 0
30.1084 19.2349 0
27.7592 18.3927 0
78.7248 17.4914 0
79.4618 19.8687 0
41.9186 32.1083 0
42.4649 29.6705 0
44.7928 12.511 0
45.2516 10.053 0
44.2003 20.0492 0
46.0474 18.3665 0
36.1251 2.41704 0
35.7797 4.89193 0
94.4783 4.85856 0
95.2906 7.21586 0
41.9147 21.7596 0
40.3653 23.7205 0
57.7758 26.1311 0
55.7368 24.6884 0
62.692 26.9262 0
65.0993 27.5925 0
8.55318 15.6319 0
8.4742 18.1181 0
70.8184 30.9083 0
68.3755 30.3838 0
45.8836 35.6495 0
46.1298 33.1632 0
87.0768 2.74295 0
88.7678 4.57973 0
22.517 38.4591 0
22.8843 40.9214 0
66.2404 43.1173 0
64.2082 41.6618 0
77.3403 11.9464 0
77.8765 14.3761 0
50.8449 46.9657 0
49.1602 48.8122 0
14.9017 13.3733 0
15.4075 10.9405 0
75.6093 18.9256 0
75.3992 21.4041 0
59.0483 45.5534 0
61.1004 46.9812 0
83.7407 9.43827 0
86.19 8.92197 0
6.96503 1.80024 0
4.46578 1.89394 0
80.7371 18.9464 0
82.5419 17.2299 0
13.6043 0.199063 0
11.1063 0.10536 0
14.9161 32.1153 0
17.2937 31.3514 0
14.205 12.8338 0
15.5766 14.9067 0
66.7204 0.901165 0
64.253 1.32775 0
72.2514 24.4175 0
71.295 26.7173 0
52.0183 31.3787 0
50.0645 29.8243 0
29.3254 29.1257 0
28.0586 26.9804 0
76.053 25.3192 0
76.2884 22.8424 0
88.1037 17.2219 0
90.3456 18.3398 0
56.5886 8.99861 0
54.2995 9.99886 0
30.6039 42.2591 0
32.0885 44.2646 0
49.5611 38.1973 0
50.1525 35.7694 0
33.5815 30.5847 0
35.8157 31.695 0
51.2947 20.1289 0
50.1621 22.3562 0
48.0081 20.1348 0
46.7631 17.9687 0
56.3078 36.6825 0
54.2169 38.0469 0
27.9298 27.9661 0
28.51 30.3887 0
32.5764 34.4215 0
33.2087 36.8343 0
91.742 14.6981 0
93.5754 16.3986 0
6.68663 6.16082 0
6.36141 8.62972 0
30.5966 35.7408 0
31.2661 33.3365 0
65.1992 34.8443 0
64.265 37.1579 0
70.8949 2.18256 0
72.4913 0.268346 0
72.1985 25.0161 0
72.6774 22.5722 0
12.961 14.6072 0
14.9624 16.0954 0
48.3609 3.39341 0
50.7927 3.98154 0
17.368 5.85301 0
17.5674 8.3228 0
6.48292 18.5685 0
3.99515 18.3101 0
31.8422 33.8502 0
32.0238 36.3379 0
59.3207 32.8181 0
59.0244 35.2979 0
80.578 24.4104 0
80.9612 26.8668 0
96.0381 18.3864 0
96.4536 15.9294 0
81.6392 13.1365 0
84.1086 12.7206 0
31.4179 34.3778 0
30.3397 32.1302 0
95.0599 8.64405 0
94.1885 10.976 0
92.6757 17.8844 0
94.8949 16.7402 0
25.3251 37.8569 0
25.0359 35.383 0
11.1201 27.1542 0
12.9316 28.8555 0
25.2082 17.0646 0
22.7468 17.5274 0
33.0556 22.2044 0
35.5455 22.3877 0
75.09 23.0182 0
72.5904 23.0586 0
50.0607 27.5369 0
49.68 30.0066 0
20.9914 18.649 0
20.4791 21.083 0
93.0744 7.22047 0
92.251 9.56797 0
49.1251 48.0645 0
47.6822 46.0237 0
60.2973 39.0105 0
62.1751 37.3656 0
68.4994 12.5743 0
66.4414 11.1508 0
74.7521 11.4617 0
72.5829 12.6865 0
59.6095 41.8466 0
61.2447 43.7368 0
83.0191 12.0147 0
83.7008 9.6303 0
12.3123 9.75274 0
11.2289 7.51583 0
46.2372 42.9849 0
44.2344 41.4923 0
78.0948 4.18473 0
75.631 4.5949 0
79.2402 34.573 0
79.7004 32.1281 0
50.3183 26.256 0
47.8568 25.8472 0
15.9 14.9151 0
18.3762 14.5219 0
24.6526 1.81146 0
27.135 2.00056 0
21.7849 5.9144 0
23.742 4.34819 0
38.445 26.7155 0
36.0023 27.2348 0
39.6022 37.9039 0
37.1089 37.7593 0
20.4463 23.2243 0
19.0474 21.1665 0
55.8214 8.62419 0
53.5437 9.65098 0
30.8004 38.683 0
33.2475 38.1738 0
56.7808 41.7321 0
59.2506 41.3595 0
59.0548 12.3492 0
61.5039 11.8647 0
84.7888 1.94542 0
82.4305 2.76691 0
54.6852 35.6621 0
52.9168 37.4253 0
27.9079 39.3163 0
30.4026 39.1519 0
56.91 32.546 0
56.6221 30.0644 0
77.6127 21.2357 0
75.7305 22.8698 0
36.6838 36.5038 0
36.0472 38.9189 0
70.6637 32.3438 0
68.1975 32.7347 0
48.9432 32.3734 0
50.2822 30.2647 0
64.3765 19.3349 0
65.3834 21.622 0
36.9232 30.5161 0
39.4192 30.5605 0
52.1005 2.98821 0
54.2094 4.33316 0
16.1169 26.9064 0
13.9081 25.7407 0
28.8308 37.6179 0
26.3617 38.0124 0
66.307 34.7623 0
64.718 32.8342 0
86.8436 13.7537 0
85.7548 15.9862 0
79.8999 37.4124 0
77.5993 38.3833 0
1.0784 9.64411 0
2.76523 11.4828 0
22.3139 7.00497 0
19.8242 6.75125 0
28.0182 24.1377 0
25.5439 23.7896 0
48.7819 5.42214 0
46.4111 4.62596 0
39.4141 8.33389 0
37.1202 7.34678 0
13.1969 16.1662 0
11.7627 14.1343 0
35.2005 37.8236 0
33.3855 39.5415 0
76.1313 7.98664 0
78.2 6.60213 0
38.8913 43.8132 0
38.0781 41.4516 0
46.194 9.45726 0
48.2304 8.00784 0
39.9025 30.9266 0
37.4807 31.5358 0
37.3262 29.1688 0
36.6595 31.5753 0
36.7165 26.9029 0
34.2428 27.246 0
30.6688 4.45971 0
33.0171 5.30686 0
71.8346 31.8984 0
74.0104 30.6783 0
24.1672 12.3633 0
26.5579 11.6138 0
33.2191 43.6336 0
35.5065 42.6243 0
26.0867 22.446 0
24.0656 23.9167 0
5.63366 2.56172 0
6.55644 0.244264 0
94.3887 5.88919 0
96.7987 6.56644 0
53.4087 18.9109 0
51.7034 17.0849 0
53.8044 45.4028 0
52.3226 47.4152 0
94.7323 5.23368 0
93.3292 3.16825 0
30.2336 21.1273 0
27.7869 20.6263 0
57.5017 2.12213 0
58.1134 4.54573 0
94.6124 11.4752 0
92.9711 9.59196 0
43.7257 7.19078 0
46.1877 6.75695 0
49.393 42.3408 0
47.4347 43.8932 0
42.4236 27.2844 0
44.8344 26.6365 0
24.2493 22.599 0
21.776 22.2302 0
69.9917 34.1338 0
70.1595 31.6465 0
18.3826 13.4922 0
20.6037 14.6322 0
9.39965 28.7286 0
11.6844 27.6968 0
62.0304 24.4876 0
60.7995 22.3127 0
81.734 25.1334 0
79.2328 25.0634 0
22.8325 29.2511 0
20.7128 30.5725 0
14.2317 29.6006 0
14.3439 32.079 0
12.6304 13.0024 0
13.6602 15.2628 0
67.3685 22.777 0
67.8151 20.3242 0
79.3277 21.8272 0
81.7394 22.5016 0
15.2649 21.6738 0
14.1948 23.9214 0
21.2543 13.5602 0
18.9023 12.7136 0
44.9065 44.9922 0
42.4103 44.8777 0
62.2349 38.0494 0
60.8172 35.9918 0
59.6105 47.2483 0
61.9416 46.346 0
39.9732 37.7762 0
42.4699 37.727 0
55.7279 30.2713 0
53.389 29.3987 0
67.6229 40.7505 0
65.1365 41.0005 0
71.0762 5.66023 0
73.5706 5.70631 0
80.9138 3.28497 0
80.8433 0.809766 0
59.689 7.08783 0
57.9478 8.87925 0
32.3719 19.5285 0
31.5689 21.8931 0
43.9502 32.4654 0
44.062 34.9609 0
97.8093 14.1301 0
97.9608 11.6412 0
74.1139 18.5575 0
72.1626 16.9915 0
77.0755 31.542 0
76.3636 33.9274 0
55.96 48.6463 0
56.3201 46.1729 0
40.1804 1.22203 0
37.7632 1.87221 0
72.0436 20.059 0
74.519 19.7134 0
41.8351 44.699 0
44.3145 45.0096 0
87.0922 2.7502 0
86.5197 5.1667 0
19.3704 21.9569 0
18.928 19.5132 0
17.5231 36.2901 0
16.2867 34.1338 0
26.0719 38.0359 0
24.1892 39.6803 0
61.6706 6.3294 0
59.699 4.79125 0
39.7293 30.1038 0
40.0452 32.5806 0
63.262 5.55143 0
60.7917 5.93111 0
60.5819 6.68086 0
61.4318 4.33094 0
79.3198 36.9361 0
76.8835 37.4914 0
46.8246 23.4175 0
47.7821 21.1087 0
81.9595 12.3464 0
79.4803 12.6973 0
17.694 12.9766 0
18.5105 15.3206 0
48.209 40.643 0
46.3957 42.3624 0
65.3757 19.8214 0
64.1473 17.6442 0
42.9256 40.0544 0
41.749 42.2595 0
54.5069 16.9909 0
53.435 19.2477 0
22.9135 29.3969 0
25.3042 28.6683 0
23.2379 14.9355 0
20.7973 14.3879 0
92.331 7.79812 0
90.8123 9.7714 0
32.1395 32.0992 0
33.6047 30.0762 0
68.7251 28.5806 0
68.9599 31.0639 0
97.6743 2.41617 0
96.1866 4.41191 0
67.363 15.0368 0
69.8247 14.6226 0
78.3563 23.3591 0
78.8154 20.9164 0
37.5699 16.0595 0
35.19 15.3099 0
68.9102 9.34956 0
69.4639 6.9164 0
32.9408 20.2726 0
34.2867 18.1662 0
33.2738 31.6673 0
34.9235 29.7911 0
87.8941 25.9882 0
89.8688 27.5275 0
84.2701 23.6731 0
86.694 24.3075 0
38.5177 11.2456 0
36.0898 11.8369 0
65.6856 40.3953 0
63.5161 39.1543 0
37.709 1.61917 0
35.5327 2.85191 0
75.4773 39.9648 0
75.9041 42.4205 0
67.3449 2.23558 0
67.1271 4.72537 0
71.9883 15.2224 0
70.1438 13.5307 0
63.3714 31.944 0
65.8638 32.0997 0
39.587 3.22506 0
38.8506 5.61415 0
46.2247 18.752 0
47.7929 16.8063 0
37.5154 38.7813 0
36.3073 40.9683 0
90.1754 7.31841 0
90.9003 4.94029 0
92.5929 20.0589 0
90.1883 19.3552 0
55.8954 19.2742 0
56.1477 16.7877 0
22.8629 18.8212 0
21.4823 20.8994 0
32.7333 16.0805 0
34.5154 17.823 0
72.9744 38.3862 0
73.3336 35.9207 0
61.7438 40.7613 0
63.1744 42.8102 0
27.4538 32.9029 0
29.7485 31.9122 0
27.64 16.6428 0
25.7977 14.9681 0
39.4968 2.42848 0
37.4676 3.89112 0
18.614 28.4818 0
17.7858 26.1375 0
73.487 2.68607 0
75.2159 0.905264 0
75.7716 42.0731 0
73.2739 42.2089 0
57.3541 43.9284 0
54.9332 43.3091 0
27.2488 9.05994 0
28.8782 10.9391 0
24.2037 7.82289 0
23.04 10.0328 0
76.6146 41.5589 0
74.504 42.8928 0
30.3769 38.5693 0
32.0625 40.4083 0
47.7296 27.4845 0
48.5121 29.857 0
78.4345 6.98886 0
80.9148 6.65408 0
76.0128 10.3949 0
76.2794 12.8686 0
69.5336 34.09 0
68.9216 31.6709 0
77.7291 17.0927 0
79.7135 18.6163 0
84.4894 32.5288 0
85.6541 34.7291 0
64.907 34.4368 0
64.2243 32.0348 0
32.4082 10.1832 0
29.9111 10.1319 0
29.5278 44.426 0
31.8222 45.4162 0
20.0576 29.0417 0
22.5194 28.6112 0
45.1483 28.3269 0
47.3589 27.1665 0
19.2836 33.822 0
20.5565 31.6776 0
66.1308 9.36494 0
66.1539 6.86624 0
61.6999 1.67421 0
64.0531 0.820978 0
80.9512 1.39293 0
79.8131 3.58596 0
40.5925 47.4946 0
38.0952 47.3701 0
58.8038 26.0469 0
59.6221 28.4075 0
14.8076 23.4002 0
16.9052 24.7526 0
4.10621 14.4324 0
6.15425 12.9955 0
84.2751 21.6543 0
82.6469 19.7626 0
8.18284 0.606981 0
5.72135 0.181133 0
75.4426 20.07 0
73.0929 20.9157 0
52.4327 9.85349 0
50.7795 7.97863 0
43.3133 5.74504 0
45.7119 5.03713 0
39.2732 2.77126 0
37.8599 4.83412 0
3.32979 8.64557 0
0.892092 8.08631 0
87.8911 12.1061 0
88.2163 14.5701 0
39.6977 11.3057 0
37.4327 10.2569 0
57.9433 7.29619 0
56.0198 5.69842 0
16.2549 26.8075 0
13.7675 27.094 0
52.547 5.31915 0
55.0202 5.68928 0
89.832 6.96461 0
92.2141 7.7353 0
93.4997 4.64372 0
91.8523 2.76563 0
95.0966 0.409539 0
96.8596 2.18333 0
16.0447 29.3207 0
18.4127 28.5247 0
62.4883 9.52593 0
61.7816 11.9218 0
18.5811 7.16584 0
17.9433 4.7744 0
70.1858 45.0584 0
67.8069 44.2852 0
79.6839 8.3511 0
80.5726 6.03681 0
91.8954 15.6534 0
89.7374 14.3843 0
59.5382 8.7118 0
59.3378 6.2196 0
21.3916 28.4726 0
23.695 29.4343 0
24.863 41.9685 0
26.3632 39.9714 0
22.373 13.2399 0
24.5712 14.4166 0
9.86153 12.0731 0
11.0414 9.87757 0
33.516 45.33 0
34.474 43.0235 0
67.6239 35.7912 0
69.8874 36.8518 0
25.3363 10.6622 0
26.8508 8.66827 0
84.0253 24.4727 0
82.6844 22.3731 0
87.5741 2.03923 0
89.355 3.79048 0
51.1092 40.8791 0
53.4449 41.7651 0
82.2012 9.4069 0
80.1143 8.02102 0
65.1165 14.493 0
66.1221 16.782 0
42.9475 6.68054 0
42.7646 4.18772 0
53.5116 5.40099 0
55.425 3.79194 0
44.3436 38.7945 0
42.8762 40.8174 0
90.5815 10.8291 0
92.5553 9.30381 0
23.2575 16.8423 0
24.7907 18.8019 0
23.7683 10.04 0
23.8098 7.554 0
60.7166 35.6194 0
60.9547 38.1059 0
44.6494 1.10807 0
42.2939 1.954 0
78.299 24.2111 0
79.0323 21.8355 0
68.8668 37.7953 0
68.7632 35.3029 0
27.5518 6.41498 0
29.461 4.793 0
58.9318 13.1517 0
59.0246 15.6493 0
57.7196 9.42644 0
59.6504 11.0148 0
51.76 19.4169 0
54.1721 20.0595 0
50.677 38.0718 0
48.1801 38.0704 0
47.4646 22.7268 0
46.4141 24.9943 0
22.6242 21.0496 0
22.8304 23.5278 0
81.0252 2.1091 0
78.5681 1.60645 0
95.2683 4.86572 0
95.4157 7.35187 0
48.3789 41.0268 0
46.7835 42.9504 0
26.3671 16.5957 0
25.2271 18.8161 0
89.3219 21.4508 0
88.3591 23.739 0
43.8459 3.48448 0
46.116 4.53333 0
53.284 27.7407 0
55.5198 28.8518 0
78.285 8.31248 0
79.9492 6.46732 0
13.6844 13.9858 0
16.181 14.1993 0
54.0796 47.3892 0
53.9841 44.8914 0
52.4094 5.89719 0
49.9861 5.27954 0
54.1084 40.4423 0
51.8114 41.423 0
8.32723 21.8918 0
6.37243 23.4554 0
11.1204 27.5944 0
8.62819 27.4001 0
49.7342 47.0731 0
47.235 47.1012 0
43.5609 18.2615 0
45.9066 19.1133 0
28.4262 43.3403 0
27.739 40.9443 0
87.1402 31.3901 0
86.422 29.0187 0
85.7971 22.3973 0
86.6596 20.0694 0
85.9765 0.789403 0
88.4108 1.3673 0
83.5132 35.5636 0
84.5441 33.3042 0
24.1514 32.5525 0
25.7168 30.6074 0
45.6006 42.1484 0
47.1175 44.1336 0
21.3997 34.8301 0
23.6777 33.7997 0
6.2745 12.0747 0
4.36147 10.4734 0
34.5405 14.5954 0
36.1547 12.6847 0
31.2786 45.8091 0
33.0044 44.0013 0
18.2833 22.9034 0
20.7005 23.5457 0
10.2883 22.4847 0
11.9901 20.6541 0
50.2245 7.49345 0
47.8897 6.59979 0
47.4976 30.6683 0
45.1661 29.7785 0
38.8659 20.8809 0
41.2758 20.2259 0
43.5966 9.83629 0
41.3906 11.0114 0
77.4892 36.8177 0
79.2613 35.0667 0
39.9103 8.80861 0
39.0802 11.1672 0
74.8663 40.2472 0
73.6134 38.0877 0
60.7859 11.7262 0
58.9155 13.3791 0
96.253 12.5063 0
94.0291 11.3581 0
43.7686 25.2274 0
41.273 25.2419 0
54.2782 42.7427 0
56.7518 42.3947 0
84.5759 23.4614 0
82.0758 23.6074 0
2.51195 9.59268 0
4.57713 8.18172 0
82.1229 4.92463 0
84.6116 5.20245 0
36.5627 16.3242 0
38.683 17.6387 0
44.0119 9.27274 0
42.0245 10.789 0
21.2033 26.3888 0
22.2057 28.6668 0
43.0587 27.0974 0
45.3726 26.1598 0
15.0514 19.5655 0
14.8775 22.0428 0
20.1581 8.54992 0
21.0241 6.21432 0
12.2387 24.7539 0
10.977 22.615 0
49.877 41.392 0
48.6859 39.1955 0
9.59813 24.3748 0
9.40401 26.8556 0
35.0961 43.9123 0
32.8849 45.0796 0
13.4082 18.2577 0
11.22 17.0549 0
12.2678 23.7309 0
12.7035 21.284 0
84.2161 17.3687 0
84.0566 14.8905 0
97.1099 15.4249 0
94.9045 14.2424 0
76.1789 36.6139 0
77.5667 38.6894 0
4.72079 2.93781 0
2.26514 3.42267 0
13.9068 26.7226 0
11.4178 26.4488 0
9.90557 5.17201 0
8.6375 7.31944 0
87.0101 9.95349 0
86.7017 7.48822 0
50.809 18.8373 0
49.8851 16.5149 0
22.8276 2.93839 0
23.5084 0.531368 0
24.0603 40.307 0
21.5797 39.9878 0
4.30503 10.5028 0
1.89528 11.1797 0
73.9981 28.0138 0
72.4291 29.9495 0
51.6084 16.4856 0
49.4401 17.7239 0
94.6879 5.5088 0
96.5639 7.16178 0
92.4065 0.898372 0
90.0074 1.59041 0
54.6807 27.9396 0
57.0066 28.847 0
3.92974 2.10686 0
2.80756 4.33608 0
25.6199 41.9552 0
28.1045 41.663 0
24.3089 33.1107 0
25.7772 35.1227 0
64.8604 37.7608 0
63.0468 36.0417 0
45.7846 38.8903 0
46.3307 36.4517 0
59.1401 39.3271 0
58.3367 41.6923 0
42.8419 19.3552 0
41.6418 17.1655 0
48.5259 16.8329 0
47.4674 14.5691 0
92.8736 4.85398 0
91.3508 6.82394 0
17.6603 6.59321 0
16.086 4.66966 0
31.5634 30.6359 0
33.0786 28.6501 0
49.5582 45.0804 0
50.5155 47.3894 0
51.6929 13.7566 0
49.2482 14.2635 0
35.2077 5.50059 0
34.5552 7.91465 0
90.6929 7.74147 0
90.2602 10.1886 0
55.2541 45.7047 0
54.0044 43.5397 0
16.7249 18.1642 0
18.9127 16.9459 0
14.6158 7.05196 0
14.2769 4.59323 0
24.3027 34.2961 0
21.8105 34.4896 0
62.6155 33.5437 0
60.6486 35.0795 0
11.5573 19.6483 0
13.6626 20.9872 0
76.8248 0.388163 0
74.3383 0.284949 0
59.9122 26.0118 0
57.6603 24.9317 0
70.4543 27.0033 0
67.9687 27.2449 0
46.2315 22.7736 0
46.9771 20.3877 0
76.5767 3.84188 0
74.1802 4.50748 0
47.8508 15.0861 0
50.133 16.0989 0
88.177 13.5587 0
89.9518 11.8102 0
71.014 0.0891945 0
73.3246 1.0443 0
56.2771 45.638 0
57.2072 43.3188 0
68.1717 3.27178 0
65.9482 2.12585 0
22.8573 17.644 0
24.7762 16.0382 0
81.1791 38.6527 0
83.1573 37.134 0
49.4124 2.94402 0
51.1127 4.77733 0
66.0201 3.33616 0
63.6875 2.4356 0
53.2979 12.1339 0
53.0643 9.64454 0
12.6039 15.4041 0
10.7848 17.1191 0
43.1759 4.64814 0
43.6216 7.10753 0
56.1564 20.5587 0
58.6042 21.0499 0
60.8311 22.3611 0
58.3536 22.0531 0
28.8345 27.1682 0
27.018 25.4615 0
40.7079 6.92363 0
38.2319 7.26029 0
17.4005 2.34773 0
19.8824 2.02046 0
42.8465 25.8231 0
40.3723 26.1535 0
7.02133 17.6886 0
8.35013 19.7924 0
20.3033 11.977 0
22.1474 10.2852 0
67.3883 40.0104 0
65.4799 41.6195 0
45.1289 41.4963 0
45.9842 43.8441 0
70.7934 17.2306 0
73.1755 16.4837 0
88.2865 4.86965 0
90.0271 6.66059 0
49.8863 20.1583 0
48.1645 21.968 0
56.3505 37.6866 0
56.3517 40.1854 0
82.3527 26.0053 0
80.831 27.9766 0
39.5775 4.42359 0
41.5659 5.93664 0
55.1619 43.5551 0
57.0033 41.8672 0
55.3755 43.44 0
57.0562 41.592 0
25.0624 15.3766 0
23.243 13.6797 0
14.3738 27.7923 0
13.5407 30.1286 0
52.9985 17.0304 0
51.1957 18.7588 0
32.5373 42.8128 0
34.8886 43.6584 0
19.7159 10.8563 0
21.4737 12.6164 0
61.512 41.1201 0
63.7472 40.0066 0
32.9749 27.4453 0
31.0283 29.012 0
31.0236 21.1929 0
31.9953 23.4874 0
72.0447 27.4366 0
71.2136 29.7851 0
38.0932 13.0925 0
40.5654 13.4392 0
47.3033 47.9526 0
45.4836 46.2395 0
70.6034 11.5252 0
70.4671 14.0146 0
98.6672 10.1923 0
96.6043 8.77789 0
96.4723 15.916 0
93.9708 15.9794 0
58.9445 10.2197 0
59.6797 12.6094 0
54.9906 18.3733 0
56.4709 20.387 0
53.9055 41.6367 0
56.3684 41.2215 0
5.04135 4.42896 0
7.52261 4.10483 0
84.4993 18.805 0
86.8251 19.7384 0
19.3031 30.2272 0
19.5304 32.7043 0
64.4001 35.8126 0
63.1528 33.6481 0
66.4667 23.504 0
68.963 23.423 0
60.3772 25.4624 0
62.6712 24.4818 0
55.9104 21.161 0
57.6015 19.325 0
21.5902 36.3525 0
19.0965 36.5489 0
55.9431 32.3257 0
58.3739 31.7606 0
67.9425 1.6986 0
70.1303 2.91308 0
16.2196 6.2636 0
17.6165 4.20261 0
91.8107 24.2275 0
91.136 26.6196 0
89.1992 19.1459 0
86.7278 18.7258 0
88.0893 12.5889 0
86.529 14.5273 0
76.3993 18.8755 0
77.5932 16.6951 0
70.9938 21.0005 0
70.0823 23.3185 0
26.6407 25.5063 0
25.4229 27.684 0
55.7967 26.3477 0
55.5496 28.8336 0
59.1616 43.0896 0
57.5197 44.9724 0
66.2085 18.7723 0
68.2521 17.3446 0
81.2481 33.575 0
79.712 31.6089 0
50.428 9.01589 0
49.7704 11.428 0
26.0823 27.5106 0
24.05 28.9637 0
49.65 27.3093 0
49.8898 24.8217 0
89.2963 25.4851 0
91.7967 25.4074 0
78.959 32.1103 0
76.6281 33.0013 0
76.186 37.4305 0
76.6258 34.9799 0
22.6836 1.47526 0
23.5165 3.8098 0
17.2419 11.9566 0
15.7625 9.95969 0
76.5202 35.7823 0
78.3837 34.1281 0
25.5405 42.7971 0
23.7566 41.0538 0
24.9575 3.56107 0
23.138 1.88388 0
86.8899 24.4564 0
85.0342 22.783 0
84.0561 33.4915 0
83.1702 31.1655 0
67.9966 9.16477 0
65.8958 7.80467 0
6.42366 3.78873 0
4.65255 5.55261 0
88.4838 7.26574 0
89.367 4.94272 0
68.0733 40.8471 0
69.9095 39.1576 0
33.5981 18.8719 0
33.499 21.3657 0
18.4031 18.3694 0
20.0043 20.2746 0
51.0056 20.6702 0
51.9936 18.3748 0
81.1892 27.239 0
78.9913 26.0507 0
33.6624 33.694 0
31.4826 34.9163 0
42.0843 36.6716 0
44.2724 35.4669 0
9.48733 8.09533 0
8.11435 6.01942 0
46.3962 9.06342 0
43.9206 9.40192 0
38.9237 45.816 0
36.7408 44.5998 0
56.6694 44.7941 0
57.082 42.3294 0
50.8193 7.80049 0
52.1411 9.92219 0
69.3016 9.60039 0
68.1899 11.8303 0
52.7859 10.6824 0
53.9928 8.49357 0
87.9568 0.590671 0
87.4382 3.0207 0
87.5645 29.6882 0
88.49 27.3928 0
27.7903 27.8348 0
29.3449 25.8802 0
41.1434 3.2176 0
43.5659 2.59139 0
47.3856 29.2902 0
44.8914 29.2121 0
44.905 23.182 0
42.4321 22.8488 0
57.5482 36.2111 0
55.6868 34.5448 0
79.924 4.77781 0
81.314 6.84819 0
32.9903 1.51277 0
31.3291 3.3826 0
37.9951 49.7301 0
37.9216 51.298 0
37.9216 51.298 0
37.7114 52.8535 0
37.7114 52.8535 0
37.3661 54.3849 0
37.3661 54.3849 0
36.8884 55.8804 0
36.8884 55.8804 0
36.2821 57.3285 0
36.2821 57.3285 0
35.5518 58.7184 0
35.5518 58.7184 0
34.703 60.0393 0
34.703 60.0393 0
33.7424 61.2813 0
33.7424 61.2813 0
32.6771 62.4349 0
32.6771 62.4349 0
31.5154 63.4914 0
31.5154 63.4914 0
30.2661 64.4427 0
30.2661 64.4427 0
28.9386 65.2816 0
28.9386 65.2816 0
27.5431 66.0019 0
27.5431 66.0019 0
26.0903 66.598 0
26.0903 66.598 0
24.591 67.0654 0
24.591 67.0654 0
23.0568 67.4006 0
23.0568 67.4006 0
21.4992 67.601 0
21.4992 67.601 0
19.9301 67.6652 0
19.9301 67.6652 0
18.3613 67.5926 0
18.3613 67.5926 0
16.8048 67.3838 0
16.8048 67.3838 0
15.2724 67.0403 0
15.2724 67.0403 0
13.7757 66.5649 0
13.7757 66.5649 0
12.326 65.961 0
12.326 65.961 0
10.9345 65.2333 0
10.9345 65.2333 0
9.61155 64.3872 0
9.61155 64.3872 0
8.36734 63.4292 0
8.36734 63.4292 0
7.2113 62.3665 0
7.2113 62.3665 0
6.15224 61.2072 0
6.15224 61.2072 0
5.19825 59.9601 0
5.19825 59.9601 0
4.35657 58.6347 0
4.35657 58.6347 0
3.63365 57.241 0
3.63365 57.241 0
3.03506 55.7896 0
3.03506 55.7896 0
2.56537 54.2916 0
2.56537 54.2916 0
2.22818 52.7585 0
2.22818 52.7585 0
2.02617 51.2019 0
2.02617 51.2019 0
1.96089 49.6336 0
1.96089 49.6336 0
2.03289 48.0657 0
2.03289 48.0657 0
2.24169 46.5104 0
2.24169 46.5104 0
2.58576 44.9794 0
2.58576 44.9794 0
3.06249 43.4845 0
3.06249 43.4845 0
3.66833 42.0374 0
3.66833 42.0374 0
4.39865 40.6493 0
4.39865 40.6493 0
5.2479 39.331 0
5.2479 39.331 0
6.20972 38.093 0
6.20972 38.093 0
7.27655 36.9453 0
7.27655 36.9453 0
8.44041 35.8973 0
8.44041 35.8973 0
9.69239 34.9589 0
9.69239 34.9589 0
11.0232 34.138 0
11.0232 34.138 0
12.4251 33.4376 0
12.4251 33.4376 0
13.8811 32.8487 0
13.8811 32.8487 0
15.3791 32.3807 0
15.3791 32.3807 0
16.9111 32.0425 0
16.9111 32.0425 0
18.4669 31.8376 0
18.4669 31.8376 0
20.0346 31.768 0
20.0346 31.768 0
21.6025 31.8347 0
21.6025 31.8347 0
23.1582 32.0372 0
23.1582 32.0372 0
24.6899 32.3741 0
24.6899 32.3741 0
26.1861 32.8429 0
26.1861 32.8429 0
27.6353 33.4403 0
27.6353 33.4403 0
29.0263 34.162 0
29.0263 34.162 0
30.3485 35.0026 0
30.3485 35.0026 0
31.5921 35.9557 0
31.5921 35.9557 0
32.7475 37.014 0
32.7475 37.014 0
33.806 38.1695 0
33.806 38.1695 0
34.7596 39.4134 0
34.7596 39.4134 0
35.6009 40.7362 0
35.6009 40.7362 0
36.3235 42.1277 0
36.3235 42.1277 0
36.922 43.5774 0
36.922 43.5774 0
37.3917 45.0741 0
37.3917 45.0741 0
37.729 46.6063 0
37.729 46.6063 0
37.9308 48.1623 0
37.9308 48.1623 0
37.9951 49.7301 0
98.0392 49.6333 0
97.9739 51.2016 0
97.9739 51.2016 0
97.7719 52.7582 0
97.7719 52.7582 0
97.4347 54.2913 0
97.4347 54.2913 0
96.965 55.7893 0
96.965 55.7893 0
96.3664 57.2407 0
96.3664 57.2407 0
95.6435 58.6343 0
95.6435 58.6343 0
94.8018 59.9598 0
94.8018 59.9598 0
93.8478 61.2069 0
93.8478 61.2069 0
92.7887 62.3662 0
92.7887 62.3662 0
91.6327 63.4288 0
91.6327 63.4288 0
90.3885 64.3868 0
90.3885 64.3868 0
89.0655 65.2329 0
89.0655 65.2329 0
87.674 65.9606 0
87.674 65.9606 0
86.2243 66.5645 0
86.2243 66.5645 0
84.7276 67.0399 0
84.7276 67.0399 0
83.1952 67.3833 0
83.1952 67.3833 0
81.6387 67.5921 0
81.6387 67.5921 0
80.0699 67.6647 0
80.0699 67.6647 0
78.5008 67.6005 0
78.5008 67.6005 0
76.9432 67.4001 0
76.9432 67.4001 0
75.409 67.0649 0
75.409 67.0649 0
73.9097 66.5975 0
73.9097 66.5975 0
72.4568 66.0014 0
72.4568 66.0014 0
71.0614 65.2811 0
71.0614 65.2811 0
69.734 64.4421 0
69.734 64.4421 0
68.4846 63.4908 0
68.4846 63.4908 0
67.3229 62.4343 0
67.3229 62.4343 0
66.2577 61.2807 0
66.2577 61.2807 0
65.297 60.0387 0
65.297 60.0387 0
64.4483 58.7178 0
64.4483 58.7178 0
63.718 57.3279 0
63.718 57.3279 0
63.1117 55.8797 0
63.1117 55.8797 0
62.6341 54.3843 0
62.6341 54.3843 0
62.2888 52.8529 0
62.2888 52.8529 0
62.0786 51.2973 0
62.0786 51.2973 0
62.0052 49.7295 0
62.0052 49.7295 0
62.0695 48.1617 0
62.0695 48.1617 0
62.2713 46.6057 0
62.2713 46.6057 0
62.6085 45.0734 0
62.6085 45.0734 0
63.0782 43.5767 0
63.0782 43.5767 0
63.6767 42.127 0
63.6767 42.127 0
64.3993 40.7355 0
64.3993 40.7355 0
65.2406 39.4128 0
65.2406 39.4128 0
66.1941 38.1689 0
66.1941 38.1689 0
67.2526 37.0135 0
67.2526 37.0135 0
68.408 35.9552 0
68.408 35.9552 0
69.6516 35.0022 0
69.6516 35.0022 0
70.9739 34.1617 0
70.9739 34.1617 0
72.3649 33.44 0
72.3649 33.44 0
73.814 32.8423 0
73.814 32.8423 0
75.3102 32.3732 0
75.3102 32.3732 0
76.8421 32.0362 0
76.8421 32.0362 0
78.3978 31.8338 0
78.3978 31.8338 0
79.9655 31.7673 0
79.9655 31.7673 0
81.5333 31.8369 0
81.5333 31.8369 0
83.0891 32.042 0
83.0891 32.042 0
84.6215 32.3802 0
84.6215 32.3802 0
86.1195 32.8482 0
86.1195 32.8482 0
87.5747 33.4375 0
87.5747 33.4375 0
88.9772 34.1378 0
88.9772 34.1378 0
90.3082 34.9592 0
90.3082 34.9592 0
91.5598 35.8974 0
91.5598 35.8974 0
92.7236 36.9449 0
92.7236 36.9449 0
93.7905 38.0927 0
93.7905 38.0927 0
94.7522 39.3307 0
94.7522 39.3307 0
95.6015 40.6491 0
95.6015 40.6491 0
96.3319 42.0372 0
96.3319 42.0372 0
96.9377 43.4842 0
96.9377 43.4842 0
97.4144 44.9791 0
97.4144 44.9791 0
97.7584 46.5101 0
97.7584 46.5101 0
97.9672 48.0655 0
97.9672 48.0655 0
98.0392 49.6333 0
      </DataArray>
    </Points>
    <Cells>
      <DataArray type="Int32" Name="connectivity" format="ascii">
247 120 114 753 754 755 
213 114 214 748 749 750 
487 220 257 647 745 730 
257 115 260 741 742 743 
246 300 116 738 739 740 
212 116 247 731 732 733 
246 257 117 724 725 726 
299 117 312 719 720 721 
303 310 118 716 717 718 
248 118 256 711 712 713 
513 495 483 150 224 119 
507 513 483 151 119 184 
248 120 302 704 705 706 
221 258 121 1196 1197 1198 
259 121 313 1191 1192 1193 
464 430 432 332 409 122 
436 464 432 326 122 408 
346 1189 123 1186 1187 1188 
298 123 351 1181 1182 1183 
71 311 124 699 700 701 
65 124 372 692 693 694 
79 369 125 687 688 689 
684 125 309 680 681 682 
211 243 126 1178 1179 1180 
244 126 297 1173 1174 1175 
462 474 436 240 281 127 
438 462 436 294 127 327 
512 515 514 131 129 134 
513 509 511 130 132 135 
514 515 510 129 139 128 
508 514 510 148 128 147 
496 500 514 146 133 149 
513 499 495 136 145 150 
507 509 513 143 130 151 
505 491 497 141 142 154 
504 515 512 137 131 155 
174 503 511 1151 156 144 
512 514 500 134 133 159 
499 513 511 136 135 162 
494 515 504 138 137 165 
171 510 515 1164 139 166 
140 167 168 678 674 675 
167 492 168 672 661 674 
491 505 506 141 153 169 
177 498 497 656 164 170 
173 490 174 1156 1149 1171 
217 489 503 1126 176 175 
495 499 498 145 163 178 
501 500 496 158 146 179 
172 486 181 1162 1145 1169 
496 514 508 149 148 183 
480 481 140 227 152 187 
479 506 505 188 153 190 
477 505 497 191 154 193 
504 512 475 155 160 194 
472 511 503 161 156 197 
501 502 471 157 199 200 
500 501 470 158 201 202 
475 512 500 160 159 203 
499 511 472 162 161 204 
498 499 469 163 205 206 
497 498 468 164 207 208 
494 504 474 165 195 210 
211 493 171 1165 1161 1166 
167 180 212 667 668 669 
168 492 213 661 662 663 
214 488 177 657 653 658 
172 171 215 1158 1159 1160 
173 185 216 1153 1154 1155 
174 490 217 1149 1127 1150 
473 503 489 196 176 218 
177 488 219 653 643 654 
220 487 180 647 648 649 
182 181 221 1142 1143 1144 
496 508 115 183 222 747 
225 484 185 886 1138 1139 
482 502 481 198 186 226 
506 480 140 189 187 677 
480 506 479 189 188 228 
479 505 478 190 192 229 
478 505 477 192 191 230 
477 497 476 193 209 231 
474 504 475 195 194 232 
472 503 473 197 196 233 
471 502 482 199 198 234 
470 501 471 201 200 235 
475 500 470 203 202 236 
469 499 472 205 204 237 
468 498 469 207 206 238 
476 497 468 209 208 239 
494 474 461 210 241 242 
215 245 249 1133 1134 1135 
216 250 251 1128 1129 1130 
217 252 253 1123 1124 1125 
307 451 473 1047 255 254 
223 219 256 640 641 642 
583 263 223 1074 637 628 
582 261 264 1120 1121 1122 
445 482 481 265 226 268 
444 481 480 267 227 270 
443 480 479 269 228 272 
442 479 478 271 229 274 
441 478 477 273 230 276 
440 477 476 275 231 278 
474 475 436 232 280 281 
472 473 435 233 283 284 
471 482 446 234 266 286 
470 471 434 235 287 288 
464 475 470 279 236 289 
469 472 463 237 285 290 
468 469 433 238 291 292 
439 476 468 277 239 293 
461 474 462 241 240 295 
296 460 243 1071 1116 1117 
245 244 298 1107 1108 1109 
258 249 304 1100 1101 1102 
250 262 305 1095 1096 1097 
252 251 306 1088 1089 1090 
253 452 307 1084 1044 1085 
437 473 451 282 255 308 
633 314 591 871 832 1082 
262 261 316 1075 1076 1077 
318 629 578 854 810 809 
446 482 445 266 265 319 
445 481 444 268 267 320 
444 480 443 270 269 321 
443 479 442 272 271 322 
442 478 441 274 273 323 
441 477 440 276 275 324 
440 476 439 278 277 325 
436 475 464 280 279 326 
435 473 437 283 282 328 
463 472 435 285 284 329 
434 471 446 287 286 330 
464 470 434 289 288 331 
433 469 463 291 290 334 
439 468 433 293 292 335 
462 438 43 294 338 339 
461 462 45 295 340 341 
296 342 343 1068 1069 1070 
297 344 345 1063 1064 1065 
299 311 347 621 622 623 
301 300 348 616 617 618 
302 301 349 609 610 611 
309 303 350 602 603 604 
304 352 353 1058 1059 1060 
305 358 359 1053 1054 1055 
306 361 362 1048 1049 1050 
307 452 364 1044 934 1045 
437 451 109 308 367 368 
599 317 597 848 850 1042 
592 315 593 841 840 1040 
313 355 375 1035 1036 1037 
585 586 587 1032 1033 1034 
356 316 378 1027 1028 1029 
578 579 580 1024 1025 1026 
3 446 445 381 319 383 
7 445 444 384 320 386 
11 444 443 387 321 389 
15 443 442 390 322 392 
19 442 441 393 323 395 
23 441 440 396 324 398 
27 440 439 399 325 401 
432 438 436 336 327 408 
435 437 431 328 337 410 
429 463 435 333 329 411 
434 446 0 330 382 413 
430 464 434 332 331 414 
433 463 429 334 333 415 
1 439 433 402 335 416 
39 438 432 404 336 417 
431 437 940 337 407 418 
43 438 41 338 405 42 
45 462 43 340 339 44 
47 49 342 48 1019 1020 
344 343 51 1009 1010 1011 
346 345 1013 1000 1001 1002 
348 347 702 569 570 571 
350 349 75 560 561 562 
352 351 55 991 992 993 
354 353 979 984 985 986 
355 354 995 975 976 977 
357 356 89 968 969 970 
358 357 956 959 960 961 
360 359 972 952 953 954 
361 360 95 943 944 945 
363 362 99 936 937 938 
364 363 103 927 928 929 
107 451 105 366 365 106 
109 451 107 367 366 108 
931 437 109 406 368 110 
370 369 548 553 554 555 
371 370 690 544 545 546 
372 374 532 537 538 539 
374 373 696 528 529 530 
376 375 61 920 921 922 
924 523 524 915 916 917 
378 380 85 908 909 910 
516 911 518 903 904 905 
0 446 3 382 381 2 
3 445 5 383 385 4 
5 445 7 385 384 6 
7 444 9 386 388 8 
9 444 11 388 387 10 
11 443 13 389 391 12 
13 443 15 391 390 14 
15 442 17 392 394 16 
17 442 19 394 393 18 
19 441 21 395 397 20 
21 441 23 397 396 22 
23 440 25 398 400 24 
25 440 27 400 399 26 
27 439 29 401 403 28 
29 439 1 403 402 30 
41 438 39 405 404 40 
940 437 931 407 406 932 
432 430 31 409 423 419 
429 435 431 411 410 412 
93 429 431 426 412 422 
430 434 0 414 413 424 
1 433 429 416 415 428 
39 432 37 417 420 38 
947 431 940 421 418 941 
37 432 31 420 419 36 
93 431 947 422 421 948 
31 430 33 423 425 32 
33 430 0 425 424 34 
112 429 93 427 426 111 
1 429 112 428 427 113 
220 115 257 746 741 745 
518 899 519 896 897 898 
521 519 380 889 890 891 
630 264 225 882 883 884 
491 177 497 659 170 142 
481 502 140 186 676 152 
744 182 635 879 874 875 
120 247 467 753 735 707 
247 114 492 755 752 736 
114 120 488 754 710 751 
114 213 492 748 662 752 
213 214 491 750 660 665 
214 114 488 749 751 657 
115 220 496 746 652 747 
257 260 466 743 632 727 
182 485 635 878 870 874 
300 246 458 738 728 619 
246 116 487 740 737 729 
116 300 467 739 620 734 
116 212 487 731 670 737 
212 247 492 733 736 671 
247 116 467 732 734 735 
257 246 487 724 729 730 
246 117 458 726 723 728 
117 257 466 725 727 722 
117 299 458 719 625 723 
299 312 449 721 595 626 
312 117 466 720 722 596 
310 303 450 716 608 600 
303 118 457 718 715 605 
118 310 465 717 601 714 
118 248 457 711 708 715 
248 256 488 713 644 709 
256 118 465 712 714 645 
120 248 488 704 709 710 
248 302 457 706 613 708 
302 120 467 705 707 614 
311 71 573 699 72 624 
71 124 63 701 698 70 
124 311 449 700 627 695 
124 65 63 692 64 698 
65 372 67 694 542 66 
372 124 449 693 695 543 
369 79 81 687 80 556 
79 125 73 689 686 78 
125 369 450 688 559 683 
125 684 73 680 685 686 
684 309 564 682 606 565 
309 125 450 681 683 607 
167 140 502 678 676 679 
501 167 502 673 679 157 
140 168 506 675 666 677 
180 167 501 667 673 651 
167 212 492 669 671 672 
212 180 487 668 648 670 
506 168 213 666 663 664 
491 506 213 169 664 665 
491 214 177 660 658 659 
498 177 219 656 654 655 
495 498 219 178 655 646 
496 220 180 652 649 650 
501 496 180 179 650 651 
219 223 495 640 639 646 
223 256 465 642 645 636 
256 219 488 641 643 644 
495 223 263 639 637 638 
483 495 263 224 638 631 
633 635 634 867 868 869 
588 634 259 860 861 862 
629 318 630 854 855 856 
311 299 449 621 626 627 
299 347 458 623 577 625 
347 311 573 622 624 572 
300 301 467 616 615 620 
301 348 69 618 575 612 
348 300 458 617 619 576 
301 302 467 609 614 615 
302 349 457 611 568 613 
349 301 69 610 612 563 
303 309 450 602 607 608 
309 350 564 604 566 606 
350 303 457 603 605 567 
597 317 584 850 807 851 
599 550 581 845 846 847 
371 310 450 598 600 551 
590 315 592 835 841 842 
312 373 449 594 536 595 
593 589 531 836 837 838 
585 590 591 827 828 829 
587 523 589 818 819 820 
586 588 527 811 812 813 
578 583 584 802 803 804 
580 521 582 793 794 795 
579 581 516 784 785 786 
347 348 458 569 576 577 
348 702 69 571 703 575 
702 347 573 570 572 574 
349 350 457 560 567 568 
350 75 564 562 76 566 
75 349 69 561 563 74 
369 370 450 553 552 559 
370 548 557 555 549 547 
548 369 81 554 556 82 
370 371 450 544 551 552 
778 77 550 783 779 780 
690 370 557 545 547 558 
374 372 449 537 543 535 
372 532 67 539 68 542 
532 374 540 538 534 533 
373 374 449 528 535 536 
374 696 540 530 541 534 
531 59 773 772 777 774 
524 527 526 765 766 767 
762 526 376 756 757 758 
744 635 633 875 867 873 
260 744 633 877 873 872 
211 171 515 1166 166 1167 
494 211 515 1168 1167 138 
509 174 511 1152 144 132 
174 217 503 1150 175 1151 
629 583 578 1073 802 810 
465 583 223 805 628 636 
489 307 473 1086 254 218 
258 221 486 1196 1146 1105 
221 121 485 1198 1195 1147 
121 258 455 1197 1104 1194 
121 259 485 1191 864 1195 
259 313 448 1193 1038 865 
313 121 455 1192 1194 1039 
1189 346 1018 1186 1006 1023 
346 123 459 1188 1185 1007 
123 1189 35 1187 1190 1184 
123 298 459 1181 1111 1185 
298 351 456 1183 999 1112 
351 123 35 1182 1184 994 
243 211 494 1178 1168 1119 
211 126 493 1180 1177 1165 
126 243 460 1179 1116 1176 
126 244 493 1173 1115 1177 
244 297 459 1175 1066 1110 
297 126 460 1174 1176 1067 
173 174 509 1171 1152 1172 
507 173 509 1157 1172 143 
510 172 181 1163 1169 1170 
508 510 181 147 1170 1148 
171 172 510 1158 1163 1164 
172 215 486 1160 1136 1162 
215 171 493 1159 1161 1137 
185 173 507 1153 1157 1141 
173 216 490 1155 1131 1156 
216 185 484 1154 1138 1132 
181 182 508 1142 881 1148 
182 221 485 1144 1147 878 
221 181 486 1143 1145 1146 
225 185 507 1139 1141 1140 
483 225 507 887 1140 184 
245 215 493 1133 1137 1114 
215 249 486 1135 1106 1136 
249 245 456 1134 1113 1103 
250 216 484 1128 1132 1099 
216 251 490 1130 1094 1131 
251 250 453 1129 1098 1091 
252 217 490 1123 1127 1093 
217 253 489 1125 1087 1126 
253 252 452 1124 1092 1084 
261 582 447 1120 797 1078 
582 264 318 1122 888 798 
264 261 484 1121 1081 885 
461 296 243 1072 1117 1118 
494 461 243 242 1118 1119 
244 245 493 1107 1114 1115 
245 298 456 1109 1112 1113 
298 244 459 1108 1110 1111 
249 258 486 1100 1105 1106 
258 304 455 1102 1061 1104 
304 249 456 1101 1103 1062 
262 250 484 1095 1099 1080 
250 305 453 1097 1056 1098 
305 262 454 1096 1079 1057 
251 252 490 1088 1093 1094 
252 306 452 1090 1051 1092 
306 251 453 1089 1091 1052 
489 253 307 1087 1085 1086 
260 633 591 872 1082 1083 
466 260 591 632 1083 831 
261 262 484 1075 1080 1081 
262 316 454 1077 1031 1079 
316 261 447 1076 1078 1030 
583 629 263 1073 859 1074 
342 296 461 1068 1072 1022 
296 343 460 1070 1017 1071 
343 342 49 1069 1019 1012 
344 297 460 1063 1067 1016 
297 345 459 1065 1008 1066 
345 344 1004 1064 1015 1003 
352 304 456 1058 1062 998 
304 353 455 1060 990 1061 
353 352 57 1059 997 987 
358 305 454 1053 1057 966 
305 359 453 1055 958 1056 
359 358 963 1054 965 955 
361 306 453 1048 1052 950 
306 362 452 1050 942 1051 
362 361 97 1049 949 939 
451 307 364 1047 1045 1046 
105 451 364 365 1046 933 
371 599 597 849 1042 1043 
310 371 597 598 1043 852 
592 593 373 1040 839 1041 
312 592 373 844 1041 594 
355 313 455 1035 1039 982 
313 375 448 1037 926 1038 
375 355 53 1036 981 923 
586 585 314 1032 833 816 
585 587 315 1034 824 834 
587 586 377 1033 815 825 
316 356 454 1027 974 1031 
356 378 83 1029 913 971 
378 316 447 1028 1030 914 
579 578 317 1024 808 791 
578 580 318 1026 799 809 
580 579 379 1025 790 800 
45 47 342 46 1020 1021 
461 45 342 341 1021 1022 
343 344 460 1009 1016 1017 
344 51 1004 1011 52 1015 
51 343 49 1010 1012 50 
345 346 459 1000 1007 1008 
346 1013 1018 1002 1014 1006 
1013 345 1004 1001 1003 1005 
351 352 456 991 998 999 
352 55 57 993 56 997 
55 351 35 992 994 54 
353 354 455 984 983 990 
354 979 988 986 980 978 
979 353 57 985 987 58 
354 355 455 975 982 983 
355 995 53 977 996 981 
995 354 988 976 978 989 
356 357 454 968 967 974 
357 89 91 970 90 962 
89 356 83 969 971 88 
357 358 454 959 966 967 
358 956 963 961 957 965 
956 357 91 960 962 92 
359 360 453 952 951 958 
360 972 87 954 973 946 
972 359 963 953 955 964 
360 361 453 943 950 951 
361 95 97 945 96 949 
95 360 87 944 946 94 
362 363 452 936 935 942 
363 99 101 938 100 930 
99 362 97 937 939 98 
363 364 452 927 934 935 
364 103 105 929 104 933 
103 363 101 928 930 102 
375 376 448 920 760 926 
376 61 522 922 62 761 
61 375 53 921 923 60 
523 924 59 915 925 821 
924 524 918 917 769 919 
524 523 377 916 826 770 
380 378 447 908 914 894 
378 85 83 910 84 913 
85 380 517 909 893 86 
911 516 77 903 788 912 
516 518 379 905 900 789 
518 911 906 904 907 901 
899 518 906 896 901 902 
518 519 379 898 895 900 
519 899 517 897 520 892 
519 521 379 889 801 895 
521 380 447 891 894 796 
380 519 517 890 892 893 
264 630 318 882 855 888 
630 225 483 884 887 858 
225 264 484 883 885 886 
508 182 744 881 879 880 
115 508 744 222 880 876 
115 744 260 876 877 742 
633 634 314 869 866 871 
634 635 485 868 870 863 
634 588 314 860 817 866 
588 259 448 862 865 814 
259 634 485 861 863 864 
263 629 630 859 856 857 
483 263 630 631 857 858 
597 584 465 851 806 853 
310 597 465 852 853 601 
550 599 371 845 849 782 
599 581 317 847 792 848 
581 550 77 846 779 787 
466 590 592 830 842 843 
312 466 592 596 843 844 
589 593 315 836 840 823 
593 531 373 838 775 839 
531 589 59 837 822 772 
590 585 315 827 834 835 
585 591 314 829 832 833 
591 590 466 828 830 831 
523 587 377 818 825 826 
587 589 315 820 823 824 
589 523 59 819 821 822 
588 586 314 811 816 817 
586 527 377 813 771 815 
527 588 448 812 814 768 
578 584 317 804 807 808 
584 583 465 803 805 806 
521 580 379 793 800 801 
580 582 318 795 798 799 
582 521 447 794 796 797 
581 579 317 784 791 792 
579 516 379 786 789 790 
516 581 77 785 787 788 
690 778 550 691 780 781 
371 690 550 546 781 782 
531 773 696 774 697 776 
373 531 696 775 776 529 
527 524 377 765 770 771 
524 526 918 767 764 769 
526 527 448 766 768 759 
526 762 918 756 763 764 
762 376 522 758 761 525 
376 526 448 757 759 760 
1199 1200
1201 1202
1203 1204
1205 1206
1207 1208
1209 1210
1211 1212
1213 1214
1215 1216
1217 1218
1219 1220
1221 1222
1223 1224
1225 1226
1227 1228
1229 1230
1231 1232
1233 1234
1235 1236
1237 1238
1239 1240
1241 1242
1243 1244
1245 1246
1247 1248
1249 1250
1251 1252
1253 1254
1255 1256
1257 1258
1259 1260
1261 1262
1263 1264
1265 1266
1267 1268
1269 1270
1271 1272
1273 1274
1275 1276
1277 1278
1279 1280
1281 1282
1283 1284
1285 1286
1287 1288
1289 1290
1291 1292
1293 1294
1295 1296
1297 1298
1299 1300
1301 1302
1303 1304
1305 1306
1307 1308
1309 1310
1311 1312
1313 1314
1315 1316
1317 1318
1319 1320
1321 1322
1323 1324
1325 1326
1327 1328
1329 1330
1331 1332
1333 1334
1335 1336
1337 1338
1339 1340
1341 1342
1343 1344
1345 1346
1347 1348
1349 1350
1351 1352
1353 1354
1355 1356
1357 1358
1359 1360
1361 1362
1363 1364
1365 1366
1367 1368
1369 1370
1371 1372
1373 1374
1375 1376
1377 1378
1379 1380
1381 1382
1383 1384
1385 1386
1387 1388
1389 1390
1391 1392
1393 1394
1395 1396
1397 1398
1399 1400
1401 1402
1403 1404
1405 1406
1407 1408
1409 1410
1411 1412
1413 1414
1415 1416
1417 1418
1419 1420
1421 1422
1423 1424
1425 1426
1427 1428
1429 1430
1431 1432
1433 1434
1435 1436
1437 1438
1439 1440
1441 1442
1443 1444
1445 1446
1447 1448
1449 1450
1451 1452
1453 1454
1455 1456
1457 1458
1459 1460
1461 1462
1463 1464
1465 1466
1467 1468
1469 1470
1471 1472
1473 1474
1475 1476
1477 1478
1479 1480
1481 1482
1483 1484
1485 1486
1487 1488
1489 1490
1491 1492
1493 1494
1495 1496
1497 1498
1499 1500
1501 1502
1503 1504
1505 1506
1507 1508
1509 1510
1511 1512
1513 1514
1515 1516
1517 1518
1519 1520
1521 1522
1523 1524
1525 1526
1527 1528
1529 1530
1531 1532
1533 1534
1535 1536
1537 1538
1539 1540
1541 1542
1543 1544
1545 1546
1547 1548
1549 1550
1551 1552
1553 1554
1555 1556
1557 1558
1559 1560
1561 1562
1563 1564
1565 1566
1567 1568
1569 1570
1571 1572
1573 1574
1575 1576
1577 1578
1579 1580
1581 1582
1583 1584
1585 1586
1587 1588
1589 1590
1591 1592
1593 1594
1595 1596
1597 1598
1599 1600
1601 1602
1603 1604
1605 1606
1607 1608
1609 1610
1611 1612
1613 1614
1615 1616
1617 1618
1619 1620
1621 1622
1623 1624
1625 1626
1627 1628
1629 1630
1631 1632
1633 1634
1635 1636
1637 1638
1639 1640
1641 1642
1643 1644
1645 1646
1647 1648
1649 1650
1651 1652
1653 1654
1655 1656
1657 1658
1659 1660
1661 1662
1663 1664
1665 1666
1667 1668
1669 1670
1671 1672
1673 1674
1675 1676
1677 1678
1679 1680
1681 1682
1683 1684
1685 1686
1687 1688
1689 1690
1691 1692
1693 1694
1695 1696
1697 1698
1699 1700
1701 1702
1703 1704
1705 1706
1707 1708
1709 1710
1711 1712
1713 1714
1715 1716
1717 1718
1719 1720
1721 1722
1723 1724
1725 1726
1727 1728
1729 1730
1731 1732
1733 1734
1735 1736
1737 1738
1739 1740
1741 1742
1743 1744
1745 1746
1747 1748
1749 1750
1751 1752
1753 1754
1755 1756
1757 1758
1759 1760
1761 1762
1763 1764
1765 1766
1767 1768
1769 1770
1771 1772
1773 1774
1775 1776
1777 1778
1779 1780
1781 1782
1783 1784
1785 1786
1787 1788
1789 1790
1791 1792
1793 1794
1795 1796
1797 1798
1799 1800
1801 1802
1803 1804
1805 1806
1807 1808
1809 1810
1811 1812
1813 1814
1815 1816
1817 1818
1819 1820
1821 1822
1823 1824
1825 1826
1827 1828
1829 1830
1831 1832
1833 1834
1835 1836
1837 1838
1839 1840
1841 1842
1843 1844
1845 1846
1847 1848
1849 1850
1851 1852
1853 1854
1855 1856
1857 1858
1859 1860
1861 1862
1863 1864
1865 1866
1867 1868
1869 1870
1871 1872
1873 1874
1875 1876
1877 1878
1879 1880
1881 1882
1883 1884
1885 1886
1887 1888
1889 1890
1891 1892
1893 1894
1895 1896
1897 1898
1899 1900
1901 1902
1903 1904
1905 1906
1907 1908
1909 1910
1911 1912
1913 1914
1915 1916
1917 1918
1919 1920
1921 1922
1923 1924
1925 1926
1927 1928
1929 1930
1931 1932
1933 1934
1935 1936
1937 1938
1939 1940
1941 1942
1943 1944
1945 1946
1947 1948
1949 1950
1951 1952
1953 1954
1955 1956
1957 1958
1959 1960
1961 1962
1963 1964
1965 1966
1967 1968
1969 1970
1971 1972
1973 1974
1975 1976
1977 1978
1979 1980
1981 1982
1983 1984
1985 1986
1987 1988
1989 1990
1991 1992
1993 1994
1995 1996
1997 1998
1999 2000
2001 2002
2003 2004
2005 2006
2007 2008
2009 2010
2011 2012
2013 2014
2015 2016
2017 2018
2019 2020
2021 2022
2023 2024
2025 2026
2027 2028
2029 2030
2031 2032
2033 2034
2035 2036
2037 2038
2039 2040
2041 2042
2043 2044
2045 2046
2047 2048
2049 2050
2051 2052
2053 2054
2055 2056
2057 2058
2059 2060
2061 2062
2063 2064
2065 2066
2067 2068
2069 2070
2071 2072
2073 2074
2075 2076
2077 2078
2079 2080
2081 2082
2083 2084
2085 2086
2087 2088
2089 2090
2091 2092
2093 2094
2095 2096
2097 2098
2099 2100
2101 2102
2103 2104
2105 2106
2107 2108
2109 2110
2111 2112
2113 2114
2115 2116
2117 2118
2119 2120
2121 2122
2123 2124
2125 2126
2127 2128
2129 2130
2131 2132
2133 2134
2135 2136
2137 2138
2139 2140
2141 2142
2143 2144
2145 2146
2147 2148
2149 2150
2151 2152
2153 2154
2155 2156
2157 2158
2159 2160
2161 2162
2163 2164
2165 2166
2167 2168
2169 2170
2171 2172
2173 2174
2175 2176
2177 2178
2179 2180
2181 2182
2183 2184
2185 2186
2187 2188
2189 2190
2191 2192
2193 2194
2195 2196
2197 2198
2199 2200
2201 2202
2203 2204
2205 2206
2207 2208
2209 2210
2211 2212
2213 2214
2215 2216
2217 2218
2219 2220
2221 2222
2223 2224
2225 2226
2227 2228
2229 2230
2231 2232
2233 2234
2235 2236
2237 2238
2239 2240
2241 2242
2243 2244
2245 2246
2247 2248
2249 2250
2251 2252
2253 2254
2255 2256
2257 2258
2259 2260
2261 2262
2263 2264
2265 2266
2267 2268
2269 2270
2271 2272
2273 2274
2275 2276
2277 2278
2279 2280
2281 2282
2283 2284
2285 2286
2287 2288
2289 2290
2291 2292
2293 2294
2295 2296
2297 2298
2299 2300
2301 2302
2303 2304
2305 2306
2307 2308
2309 2310
2311 2312
2313 2314
2315 2316
2317 2318
2319 2320
2321 2322
2323 2324
2325 2326
2327 2328
2329 2330
2331 2332
2333 2334
2335 2336
2337 2338
2339 2340
2341 2342
2343 2344
2345 2346
2347 2348
2349 2350
2351 2352
2353 2354
2355 2356
2357 2358
2359 2360
2361 2362
2363 2364
2365 2366
2367 2368
2369 2370
2371 2372
2373 2374
2375 2376
2377 2378
2379 2380
2381 2382
2383 2384
2385 2386
2387 2388
2389 2390
2391 2392
2393 2394
2395 2396
2397 2398
2399 2400
2401 2402
2403 2404
2405 2406
2407 2408
2409 2410
2411 2412
2413 2414
2415 2416
2417 2418
2419 2420
2421 2422
2423 2424
2425 2426
2427 2428
2429 2430
2431 2432
2433 2434
2435 2436
2437 2438
2439 2440
2441 2442
2443 2444
2445 2446
2447 2448
2449 2450
2451 2452
2453 2454
2455 2456
2457 2458
2459 2460
2461 2462
2463 2464
2465 2466
2467 2468
2469 2470
2471 2472
2473 2474
2475 2476
2477 2478
2479 2480
2481 2482
2483 2484
2485 2486
2487 2488
2489 2490
2491 2492
2493 2494
2495 2496
2497 2498
2499 2500
2501 2502
2503 2504
2505 2506
2507 2508
2509 2510
2511 2512
2513 2514
2515 2516
2517 2518
2519 2520
2521 2522
2523 2524
2525 2526
2527 2528
2529 2530
2531 2532
2533 2534
2535 2536
2537 2538
2539 2540
2541 2542
2543 2544
2545 2546
2547 2548
2549 2550
2551 2552
2553 2554
2555 2556
2557 2558
2559 2560
2561 2562
2563 2564
2565 2566
2567 2568
2569 2570
2571 2572
2573 2574
2575 2576
2577 2578
2579 2580
2581 2582
2583 2584
2585 2586
2587 2588
2589 2590
2591 2592
2593 2594
2595 2596
2597 2598
2599 2600
2601 2602
2603 2604
2605 2606
2607 2608
2609 2610
2611 2612
2613 2614
2615 2616
2617 2618
2619 2620
2621 2622
2623 2624
2625 2626
2627 2628
2629 2630
2631 2632
2633 2634
2635 2636
2637 2638
2639 2640
2641 2642
2643 2644
2645 2646
2647 2648
2649 2650
2651 2652
2653 2654
2655 2656
2657 2658
2659 2660
2661 2662
2663 2664
2665 2666
2667 2668
2669 2670
2671 2672
2673 2674
2675 2676
2677 2678
2679 2680
2681 2682
2683 2684
2685 2686
2687 2688
2689 2690
2691 2692
2693 2694
2695 2696
2697 2698
2699 2700
2701 2702
2703 2704
2705 2706
2707 2708
2709 2710
2711 2712
2713 2714
2715 2716
2717 2718
2719 2720
2721 2722
2723 2724
2725 2726
2727 2728
2729 2730
2731 2732
2733 2734
2735 2736
2737 2738
2739 2740
2741 2742
2743 2744
2745 2746
2747 2748
2749 2750
2751 2752
2753 2754
2755 2756
2757 2758
2759 2760
2761 2762
2763 2764
2765 2766
2767 2768
2769 2770
2771 2772
2773 2774
2775 2776
2777 2778
2779 2780
2781 2782
2783 2784
2785 2786
2787 2788
2789 2790
2791 2792
2793 2794
2795 2796
2797 2798
2799 2800
2801 2802
2803 2804
2805 2806
2807 2808
2809 2810
2811 2812
2813 2814
2815 2816
2817 2818
2819 2820
2821 2822
2823 2824
2825 2826
2827 2828
2829 2830
2831 2832
2833 2834
2835 2836
2837 2838
2839 2840
2841 2842
2843 2844
2845 2846
2847 2848
2849 2850
2851 2852
2853 2854
2855 2856
2857 2858
2859 2860
2861 2862
2863 2864
2865 2866
2867 2868
2869 2870
2871 2872
2873 2874
2875 2876
2877 2878
2879 2880
2881 2882
2883 2884
2885 2886
2887 2888
2889 2890
2891 2892
2893 2894
2895 2896
2897 2898
2899 2900
2901 2902
2903 2904
2905 2906
2907 2908
2909 2910
2911 2912
2913 2914
2915 2916
2917 2918
2919 2920
2921 2922
2923 2924
2925 2926
2927 2928
2929 2930
2931 2932
2933 2934
2935 2936
2937 2938
2939 2940
2941 2942
2943 2944
2945 2946
2947 2948
2949 2950
2951 2952
2953 2954
2955 2956
2957 2958
2959 2960
2961 2962
2963 2964
2965 2966
2967 2968
2969 2970
2971 2972
2973 2974
2975 2976
2977 2978
2979 2980
2981 2982
2983 2984
2985 2986
2987 2988
2989 2990
2991 2992
2993 2994
2995 2996
2997 2998
2999 3000
3001 3002
3003 3004
3005 3006
3007 3008
3009 3010
3011 3012
3013 3014
3015 3016
3017 3018
3019 3020
3021 3022
3023 3024
3025 3026
3027 3028
3029 3030
3031 3032
3033 3034
3035 3036
3037 3038
3039 3040
3041 3042
3043 3044
3045 3046
3047 3048
3049 3050
3051 3052
3053 3054
3055 3056
3057 3058
3059 3060
3061 3062
3063 3064
3065 3066
3067 3068
3069 3070
3071 3072
3073 3074
3075 3076
3077 3078
3079 3080
3081 3082
3083 3084
3085 3086
3087 3088
3089 3090
3091 3092
3093 3094
3095 3096
3097 3098
3099 3100
3101 3102
3103 3104
3105 3106
3107 3108
3109 3110
3111 3112
3113 3114
3115 3116
3117 3118
3119 3120
3121 3122
3123 3124
3125 3126
3127 3128
3129 3130
3131 3132
3133 3134
3135 3136
3137 3138
3139 3140
3141 3142
3143 3144
3145 3146
3147 3148
3149 3150
3151 3152
3153 3154
3155 3156
3157 3158
3159 3160
3161 3162
3163 3164
3165 3166
3167 3168
3169 3170
3171 3172
3173 3174
3175 3176
3177 3178
3179 3180
3181 3182
3183 3184
3185 3186
3187 3188
3189 3190
3191 3192
3193 3194
3195 3196
3197 3198
3199 3200
3201 3202
3203 3204
3205 3206
3207 3208
3209 3210
3211 3212
3213 3214
3215 3216
3217 3218
3219 3220
3221 3222
3223 3224
3225 3226
3227 3228
3229 3230
3231 3232
3233 3234
3235 3236
3237 3238
3239 3240
3241 3242
3243 3244
3245 3246
3247 3248
3249 3250
3251 3252
3253 3254
3255 3256
3257 3258
3259 3260
3261 3262
3263 3264
3265 3266
3267 3268
3269 3270
3271 3272
3273 3274
3275 3276
3277 3278
3279 3280
3281 3282
3283 3284
3285 3286
3287 3288
3289 3290
3291 3292
3293 3294
3295 3296
3297 3298
3299 3300
3301 3302
3303 3304
3305 3306
3307 3308
3309 3310
3311 3312
3313 3314
3315 3316
3317 3318
3319 3320
3321 3322
3323 3324
3325 3326
3327 3328
3329 3330
3331 3332
3333 3334
3335 3336
3337 3338
3339 3340
3341 3342
3343 3344
3345 3346
3347 3348
3349 3350
3351 3352
3353 3354
3355 3356
3357 3358
3359 3360
3361 3362
3363 3364
3365 3366
3367 3368
3369 3370
3371 3372
3373 3374
3375 3376
3377 3378
3379 3380
3381 3382
3383 3384
3385 3386
3387 3388
3389 3390
3391 3392
3393 3394
3395 3396
3397 3398
3399 3400
3401 3402
3403 3404
3405 3406
3407 3408
3409 3410
3411 3412
3413 3414
3415 3416
3417 3418
3419 3420
3421 3422
3423 3424
3425 3426
3427 3428
3429 3430
3431 3432
3433 3434
3435 3436
3437 3438
3439 3440
3441 3442
3443 3444
3445 3446
3447 3448
3449 3450
3451 3452
3453 3454
3455 3456
3457 3458
3459 3460
3461 3462
3463 3464
3465 3466
3467 3468
3469 3470
3471 3472
3473 3474
3475 3476
3477 3478
3479 3480
3481 3482
3483 3484
3485 3486
      </DataArray>
      <DataArray type="Int32" Name="offsets" format="ascii">
6
12
18
24
30
36
42
48
54
60
66
72
78
84
90
96
102
108
114
120
126
132
138
144
150
156
162
168
174
180
186
192
198
204
210
216
222
228
234
240
246
252
258
264
270
276
282
288
294
300
306
312
318
324
330
336
342
348
354
360
366
372
378
384
390
396
402
408
414
420
426
432
438
444
450
456
462
468
474
480
486
492
498
504
510
516
522
528
534
540
546
552
558
564
570
576
582
588
594
600
606
612
618
624
630
636
642
648
654
660
666
672
678
684
690
696
702
708
714
720
726
732
738
744
750
756
762
768
774
780
786
792
798
804
810
816
822
828
834
840
846
852
858
864
870
876
882
888
894
900
906
912
918
924
930
936
942
948
954
960
966
972
978
984
990
996
1002
1008
1014
1020
1026
1032
1038
1044
1050
1056
1062
1068
1074
1080
1086
1092
1098
1104
1110
1116
1122
1128
1134
1140
1146
1152
1158
1164
1170
1176
1182
1188
1194
1200
1206
1212
1218
1224
1230
1236
1242
1248
1254
1260
1266
1272
1278
1284
1290
1296
1302
1308
1314
1320
1326
1332
1338
1344
1350
1356
1362
1368
1374
1380
1386
1392
1398
1404
1410
1416
1422
1428
1434
1440
1446
1452
1458
1464
1470
1476
1482
1488
1494
1500
1506
1512
1518
1524
1530
1536
1542
1548
1554
1560
1566
1572
1578
1584
1590
1596
1602
1608
1614
1620
1626
1632
1638
1644
1650
1656
1662
1668
1674
1680
1686
1692
1698
1704
1710
1716
1722
1728
1734
1740
1746
1752
1758
1764
1770
1776
1782
1788
1794
1800
1806
1812
1818
1824
1830
1836
1842
1848
1854
1860
1866
1872
1878
1884
1890
1896
1902
1908
1914
1920
1926
1932
1938
1944
1950
1956
1962
1968
1974
1980
1986
1992
1998
2004
2010
2016
2022
2028
2034
2040
2046
2052
2058
2064
2070
2076
2082
2088
2094
2100
2106
2112
2118
2124
2130
2136
2142
2148
2154
2160
2166
2172
2178
2184
2190
2196
2202
2208
2214
2220
2226
2232
2238
2244
2250
2256
2262
2268
2274
2280
2286
2292
2298
2304
2310
2316
2322
2328
2334
2340
2346
2352
2358
2364
2370
2376
2382
2388
2394
2400
2406
2412
2418
2424
2430
2436
2442
2448
2454
2460
2466
2472
2478
2484
2490
2496
2502
2508
2514
2520
2526
2532
2538
2544
2550
2556
2562
2568
2574
2580
2586
2592
2598
2604
2610
2616
2622
2628
2634
2640
2646
2652
2658
2664
2670
2676
2682
2688
2694
2700
2706
2712
2718
2724
2730
2736
2742
2748
2754
2760
2766
2772
2778
2784
2790
2796
2802
2808
2814
2820
2826
2832
2838
2844
2850
2856
2862
2868
2874
2880
2886
2892
2898
2904
2910
2916
2922
2928
2934
2940
2946
2952
2958
2964
2970
2976
2982
2988
2994
3000
3006
3012
3018
3024
3030
3036
3042
3048
3054
3060
3066
3072
3078
3084
3090
3096
3102
3108
3114
3120
3126
3132
3138
3144
3150
3156
3162
3168
3174
3180
3186
3192
3198
3204
3210
3216
3222
3228
3234
3240
3246
3252
3258
3264
3270
3276
3282
3288
3294
3300
3306
3312
3318
3324
3326
3328
3330
3332
3334
3336
3338
3340
3342
3344
3346
3348
3350
3352
3354
3356
3358
3360
3362
3364
3366
3368
3370
3372
3374
3376
3378
3380
3382
3384
3386
3388
3390
3392
3394
3396
3398
3400
3402
3404
3406
3408
3410
3412
3414
3416
3418
3420
3422
3424
3426
3428
3430
3432
3434
3436
3438
3440
3442
3444
3446
3448
3450
3452
3454
3456
3458
3460
3462
3464
3466
3468
3470
3472
3474
3476
3478
3480
3482
3484
3486
3488
3490
3492
3494
3496
3498
3500
3502
3504
3506
3508
3510
3512
3514
3516
3518
3520
3522
3524
3526
3528
3530
3532
3534
3536
3538
3540
3542
3544
3546
3548
3550
3552
3554
3556
3558
3560
3562
3564
3566
3568
3570
3572
3574
3576
3578
3580
3582
3584
3586
3588
3590
3592
3594
3596
3598
3600
3602
3604
3606
3608
3610
3612
3614
3616
3618
3620
3622
3624
3626
3628
3630
3632
3634
3636
3638
3640
3642
3644
3646
3648
3650
3652
3654
3656
3658
3660
3662
3664
3666
3668
3670
3672
3674
3676
3678
3680
3682
3684
3686
3688
3690
3692
3694
3696
3698
3700
3702
3704
3706
3708
3710
3712
3714
3716
3718
3720
3722
3724
3726
3728
3730
3732
3734
3736
3738
3740
3742
3744
3746
3748
3750
3752
3754
3756
3758
3760
3762
3764
3766
3768
3770
3772
3774
3776
3778
3780
3782
3784
3786
3788
3790
3792
3794
3796
3798
3800
3802
3804
3806
3808
3810
3812
3814
3816
3818
3820
3822
3824
3826
3828
3830
3832
3834
3836
3838
3840
3842
3844
3846
3848
3850
3852
3854
3856
3858
3860
3862
3864
3866
3868
3870
3872
3874
3876
3878
3880
3882
3884
3886
3888
3890
3892
3894
3896
3898
3900
3902
3904
3906
3908
3910
3912
3914
3916
3918
3920
3922
3924
3926
3928
3930
3932
3934
3936
3938
3940
3942
3944
3946
3948
3950
3952
3954
3956
3958
3960
3962
3964
3966
3968
3970
3972
3974
3976
3978
3980
3982
3984
3986
3988
3990
3992
3994
3996
3998
4000
4002
4004
4006
4008
4010
4012
4014
4016
4018
4020
4022
4024
4026
4028
4030
4032
4034
4036
4038
4040
4042
4044
4046
4048
4050
4052
4054
4056
4058
4060
4062
4064
4066
4068
4070
4072
4074
4076
4078
4080
4082
4084
4086
4088
4090
4092
4094
4096
4098
4100
4102
4104
4106
4108
4110
4112
4114
4116
4118
4120
4122
4124
4126
4128
4130
4132
4134
4136
4138
4140
4142
4144
4146
4148
4150
4152
4154
4156
4158
4160
4162
4164
4166
4168
4170
4172
4174
4176
4178
4180
4182
4184
4186
4188
4190
4192
4194
4196
4198
4200
4202
4204
4206
4208
4210
4212
4214
4216
4218
4220
4222
4224
4226
4228
4230
4232
4234
4236
4238
4240
4242
4244
4246
4248
4250
4252
4254
4256
4258
4260
4262
4264
4266
4268
4270
4272
4274
4276
4278
4280
4282
4284
4286
4288
4290
4292
4294
4296
4298
4300
4302
4304
4306
4308
4310
4312
4314
4316
4318
4320
4322
4324
4326
4328
4330
4332
4334
4336
4338
4340
4342
4344
4346
4348
4350
4352
4354
4356
4358
4360
4362
4364
4366
4368
4370
4372
4374
4376
4378
4380
4382
4384
4386
4388
4390
4392
4394
4396
4398
4400
4402
4404
4406
4408
4410
4412
4414
4416
4418
4420
4422
4424
4426
4428
4430
4432
4434
4436
4438
4440
4442
4444
4446
4448
4450
4452
4454
4456
4458
4460
4462
4464
4466
4468
4470
4472
4474
4476
4478
4480
4482
4484
4486
4488
4490
4492
4494
4496
4498
4500
4502
4504
4506
4508
4510
4512
4514
4516
4518
4520
4522
4524
4526
4528
4530
4532
4534
4536
4538
4540
4542
4544
4546
4548
4550
4552
4554
4556
4558
4560
4562
4564
4566
4568
4570
4572
4574
4576
4578
4580
4582
4584
4586
4588
4590
4592
4594
4596
4598
4600
4602
4604
4606
4608
4610
4612
4614
4616
4618
4620
4622
4624
4626
4628
4630
4632
4634
4636
4638
4640
4642
4644
4646
4648
4650
4652
4654
4656
4658
4660
4662
4664
4666
4668
4670
4672
4674
4676
4678
4680
4682
4684
4686
4688
4690
4692
4694
4696
4698
4700
4702
4704
4706
4708
4710
4712
4714
4716
4718
4720
4722
4724
4726
4728
4730
4732
4734
4736
4738
4740
4742
4744
4746
4748
4750
4752
4754
4756
4758
4760
4762
4764
4766
4768
4770
4772
4774
4776
4778
4780
4782
4784
4786
4788
4790
4792
4794
4796
4798
4800
4802
4804
4806
4808
4810
4812
4814
4816
4818
4820
4822
4824
4826
4828
4830
4832
4834
4836
4838
4840
4842
4844
4846
4848
4850
4852
4854
4856
4858
4860
4862
4864
4866
4868
4870
4872
4874
4876
4878
4880
4882
4884
4886
4888
4890
4892
4894
4896
4898
4900
4902
4904
4906
4908
4910
4912
4914
4916
4918
4920
4922
4924
4926
4928
4930
4932
4934
4936
4938
4940
4942
4944
4946
4948
4950
4952
4954
4956
4958
4960
4962
4964
4966
4968
4970
4972
4974
4976
4978
4980
4982
4984
4986
4988
4990
4992
4994
4996
4998
5000
5002
5004
5006
5008
5010
5012
5014
5016
5018
5020
5022
5024
5026
5028
5030
5032
5034
5036
5038
5040
5042
5044
5046
5048
5050
5052
5054
5056
5058
5060
5062
5064
5066
5068
5070
5072
5074
5076
5078
5080
5082
5084
5086
5088
5090
5092
5094
5096
5098
5100
5102
5104
5106
5108
5110
5112
5114
5116
5118
5120
5122
5124
5126
5128
5130
5132
5134
5136
5138
5140
5142
5144
5146
5148
5150
5152
5154
5156
5158
5160
5162
5164
5166
5168
5170
5172
5174
5176
5178
5180
5182
5184
5186
5188
5190
5192
5194
5196
5198
5200
5202
5204
5206
5208
5210
5212
5214
5216
5218
5220
5222
5224
5226
5228
5230
5232
5234
5236
5238
5240
5242
5244
5246
5248
5250
5252
5254
5256
5258
5260
5262
5264
5266
5268
5270
5272
5274
5276
5278
5280
5282
5284
5286
5288
5290
5292
5294
5296
5298
5300
5302
5304
5306
5308
5310
5312
5314
5316
5318
5320
5322
5324
5326
5328
5330
5332
5334
5336
5338
5340
5342
5344
5346
5348
5350
5352
5354
5356
5358
5360
5362
5364
5366
5368
5370
5372
5374
5376
5378
5380
5382
5384
5386
5388
5390
5392
5394
5396
5398
5400
5402
5404
5406
5408
5410
5412
5414
5416
5418
5420
5422
5424
5426
5428
5430
5432
5434
5436
5438
5440
5442
5444
5446
5448
5450
5452
5454
5456
5458
5460
5462
5464
5466
5468
5470
5472
5474
5476
5478
5480
5482
5484
5486
5488
5490
5492
5494
5496
5498
5500
5502
5504
5506
5508
5510
5512
5514
5516
5518
5520
5522
5524
5526
5528
5530
5532
5534
5536
5538
5540
5542
5544
5546
5548
5550
5552
5554
5556
5558
5560
5562
5564
5566
5568
5570
5572
5574
5576
5578
5580
5582
5584
5586
5588
5590
5592
5594
5596
5598
5600
5602
5604
5606
5608
5610
5612
      </DataArray>
      <DataArray type="UInt8" Name="types" format="ascii">
69
69
69
69
69
69
69
69
69
69
69
69
69
69
69
69
69
69
69
69
69
69
69
69
69
69
69
69
69
69
69
69
69
69
69
69
69
69
69
69
69
69
69
69
69
69
69
69
69
69
69
69
69
69
69
69
69
69
69
69
69
69
69
69
69
69
69
69
69
69
69
69
69
69
69
69
69
69
69
69
69
69
69
69
69
69
69
69
69
69
69
69
69
69
69
69
69
69
69
69
69
69
69
69
69
69
69
69
69
69
69
69
69
69
69
69
69
69
69
69
69
69
69
69
69
69
69
69
69
69
69
69
69
69
69
69
69
69
69
69
69
69
69
69
69
69
69
69
69
69
69
69
69
69
69
69
69
69
69
69
69
69
69
69
69
69
69
69
69
69
69
69
69
69
69
69
69
69
69
69
69
69
69
69
69
69
69
69
69
69
69
69
69
69
69
69
69
69
69
69
69
69
69
69
69
69
69
69
69
69
69
69
69
69
69
69
69
69
69
69
69
69
69
69
69
69
69
69
69
69
69
69
69
69
69
69
69
69
69
69
69
69
69
69
69
69
69
69
69
69
69
69
69
69
69
69
69
69
69
69
69
69
69
69
69
69
69
69
69
69
69
69
69
69
69
69
69
69
69
69
69
69
69
69
69
69
69
69
69
69
69
69
69
69
69
69
69
69
69
69
69
69
69
69
69
69
69
69
69
69
69
69
69
69
69
69
69
69
69
69
69
69
69
69
69
69
69
69
69
69
69
69
69
69
69
69
69
69
69
69
69
69
69
69
69
69
69
69
69
69
69
69
69
69
69
69
69
69
69
69
69
69
69
69
69
69
69
69
69
69
69
69
69
69
69
69
69
69
69
69
69
69
69
69
69
69
69
69
69
69
69
69
69
69
69
69
69
69
69
69
69
69
69
69
69
69
69
69
69
69
69
69
69
69
69
69
69
69
69
69
69
69
69
69
69
69
69
69
69
69
69
69
69
69
69
69
69
69
69
69
69
69
69
69
69
69
69
69
69
69
69
69
69
69
69
69
69
69
69
69
69
69
69
69
69
69
69
69
69
69
69
69
69
69
69
69
69
69
69
69
69
69
69
69
69
69
69
69
69
69
69
69
69
69
69
69
69
69
69
69
69
69
69
69
69
69
69
69
69
69
69
69
69
69
69
69
69
69
69
69
69
69
69
69
69
69
69
69
69
69
69
69
69
69
69
69
69
69
69
69
69
69
69
69
69
69
69
69
69
69
69
69
69
69
3
3
3
3
3
3
3
3
3
3
3
3
3
3
3
3
3
3
3
3
3
3
3
3
3
3
3
3
3
3
3
3
3
3
3
3
3
3
3
3
3
3
3
3
3
3
3
3
3
3
3
3
3
3
3
3
3
3
3
3
3
3
3
3
3
3
3
3
3
3
3
3
3
3
3
3
3
3
3
3
3
3
3
3
3
3
3
3
3
3
3
3
3
3
3
3
3
3
3
3
3
3
3
3
3
3
3
3
3
3
3
3
3
3
3
3
3
3
3
3
3
3
3
3
3
3
3
3
3
3
3
3
3
3
3
3
3
3
3
3
3
3
3
3
3
3
3
3
3
3
3
3
3
3
3
3
3
3
3
3
3
3
3
3
3
3
3
3
3
3
3
3
3
3
3
3
3
3
3
3
3
3
3
3
3
3
3
3
3
3
3
3
3
3
3
3
3
3
3
3
3
3
3
3
3
3
3
3
3
3
3
3
3
3
3
3
3
3
3
3
3
3
3
3
3
3
3
3
3
3
3
3
3
3
3
3
3
3
3
3
3
3
3
3
3
3
3
3
3
3
3
3
3
3
3
3
3
3
3
3
3
3
3
3
3
3
3
3
3
3
3
3
3
3
3
3
3
3
3
3
3
3
3
3
3
3
3
3
3
3
3
3
3
3
3
3
3
3
3
3
3
3
3
3
3
3
3
3
3
3
3
3
3
3
3
3
3
3
3
3
3
3
3
3
3
3
3
3
3
3
3
3
3
3
3
3
3
3
3
3
3
3
3
3
3
3
3
3
3
3
3
3
3
3
3
3
3
3
3
3
3
3
3
3
3
3
3
3
3
3
3
3
3
3
3
3
3
3
3
3
3
3
3
3
3
3
3
3
3
3
3
3
3
3
3
3
3
3
3
3
3
3
3
3
3
3
3
3
3
3
3
3
3
3
3
3
3
3
3
3
3
3
3
3
3
3
3
3
3
3
3
3
3
3
3
3
3
3
3
3
3
3
3
3
3
3
3
3
3
3
3
3
3
3
3
3
3
3
3
3
3
3
3
3
3
3
3
3
3
3
3
3
3
3
3
3
3
3
3
3
3
3
3
3
3
3
3
3
3
3
3
3
3
3
3
3
3
3
3
3
3
3
3
3
3
3
3
3
3
3
3
3
3
3
3
3
3
3
3
3
3
3
3
3
3
3
3
3
3
3
3
3
3
3
3
3
3
3
3
3
3
3
3
3
3
3
3
3
3
3
3
3
3
3
3
3
3
3
3
3
3
3
3
3
3
3
3
3
3
3
3
3
3
3
3
3
3
3
3
3
3
3
3
3
3
3
3
3
3
3
3
3
3
3
3
3
3
3
3
3
3
3
3
3
3
3
3
3
3
3
3
3
3
3
3
3
3
3
3
3
3
3
3
3
3
3
3
3
3
3
3
3
3
3
3
3
3
3
3
3
3
3
3
3
3
3
3
3
3
3
3
3
3
3
3
3
3
3
3
3
3
3
3
3
3
3
3
3
3
3
3
3
3
3
3
3
3
3
3
3
3
3
3
3
3
3
3
3
3
3
3
3
3
3
3
3
3
3
3
3
3
3
3
3
3
3
3
3
3
3
3
3
3
3
3
3
3
3
3
3
3
3
3
3
3
3
3
3
3
3
3
3
3
3
3
3
3
3
3
3
3
3
3
3
3
3
3
3
3
3
3
3
3
3
3
3
3
3
3
3
3
3
3
3
3
3
3
3
3
3
3
3
3
3
3
3
3
3
3
3
3
3
3
3
3
3
3
3
3
3
3
3
3
3
3
3
3
3
3
3
3
3
3
3
3
3
3
3
3
3
3
3
3
3
3
3
3
3
3
3
3
3
3
3
3
3
3
3
3
3
3
3
3
3
3
3
3
3
3
3
3
3
3
3
3
3
3
3
3
3
3
3
3
3
3
3
3
3
3
3
3
3
3
3
3
3
3
3
3
3
3
3
3
3
3
3
3
3
3
3
3
3
3
3
3
3
3
3
3
3
3
3
3
3
3
3
3
3
3
3
3
3
3
3
3
3
3
3
3
3
3
3
3
3
3
3
3
3
3
3
3
3
3
3
3
3
3
3
3
3
3
3
3
3
3
3
3
3
3
3
3
3
3
3
3
3
3
3
3
3
3
3
3
3
3
3
3
3
3
3
3
3
3
3
3
3
3
3
3
3
3
3
3
3
3
3
3
3
3
3
3
3
3
3
3
3
3
3
3
3
3
3
3
3
3
3
3
3
3
3
3
3
3
3
3
3
3
3
3
3
3
3
3
3
3
3
3
3
3
3
3
3
3
3
3
3
3
3
3
3
3
3
3
3
3
3
3
3
3
3
3
3
3
3
3
3
3
3
3
3
3
3
3
3
3
3
3
3
3
3
3
3
3
3
3
3
3
3
3
3
3
3
3
3
3
3
3
3
3
3
3
3
3
3
3
3
3
3
3
3
3
3
3
3
3
3
3
3
3
3
3
3
3
3
3
3
3
3
3
3
3
3
3
3
3
3
3
3
3
3
3
3
3
3
3
3
3
3
3
3
3
3
3
3
3
3
3
3
3
3
3
3
3
3
      </DataArray>
    </Cells>
    <PointData>
      <DataArray type="Float64" NumberOfComponents="2" Name="Displacement" format="ascii">
-0.000803037 -0.265043
0.00120419 -0.265699
-0.000187994 -0.264712
0.000244173 -0.264362
0.000473461 -0.264122
0.000632618 -0.26392
0.000729416 -0.263771
0.000790772 -0.263667
0.000813684 -0.263579
0.000812706 -0.263516
0.000788042 -0.263478
0.00074658 -0.263461
0.000687936 -0.263446
0.000617895 -0.263444
0.000537499 -0.263454
0.000451139 -0.263475
0.000359471 -0.263493
0.000266685 -0.26352
0.000174963 -0.263555
8.72994e-05 -0.2636
6.96285e-06 -0.263644
-6.42337e-05 -0.263701
-0.000122694 -0.263773
-0.000165853 -0.263862
-0.000186558 -0.263958
-0.000185614 -0.264081
-0.000155179 -0.264237
-9.23255e-05 -0.26443
4.32125e-05 -0.264641
0.000237619 -0.264924
0.000603327 -0.265315
-0.00455203 -0.26455
-0.00368193 -0.264582
-0.00281725 -0.264644
-0.00192088 -0.264788
-0.0753155 -0.335056
-0.00539648 -0.264556
-0.0062435 -0.26458
-0.00747957 -0.264638
-0.00872803 -0.264727
-0.0105412 -0.264906
-0.0123786 -0.265142
-0.0150767 -0.265588
-0.0178114 -0.266155
-0.0218121 -0.267196
-0.0258422 -0.26849
-0.02875 -0.269581
-0.0316451 -0.270804
-0.0345117 -0.272167
-0.037338 -0.273653
-0.0413291 -0.276018
-0.0451887 -0.278622
-0.0488768 -0.281452
-0.0393102 -0.371181
-0.0746703 -0.34174
-0.0732702 -0.3477
-0.0713001 -0.352873
-0.068877 -0.35727
-0.0661681 -0.360951
0.0493956 -0.232001
-0.0327701 -0.370268
-0.0250093 -0.367865
-0.0159429 -0.36373
0 0
-0.0185227 -0.0167946
-0.0261706 -0.0278593
-0.0272036 -0.0367913
-0.0226205 -0.047717
-0.0163387 -0.0583219
-0.000224513 -0.252195
0 0
0 0
0 0
0 0
0.0146478 -0.244325
0.0294841 -0.215589
0.0386418 -0.155378
-0.0488886 -0.232568
0.0185953 -0.0167691
0.0262843 -0.0279566
0.0273361 -0.0369432
0.0227673 -0.0479167
0.0164854 -0.0585277
0.0394201 -0.371472
0.0328786 -0.370553
0.025163 -0.368142
0.0160692 -0.364059
0.0752711 -0.335518
0.0446172 -0.371609
0.0491101 -0.371042
0.0531173 -0.370068
0.0567111 -0.368584
0.0600712 -0.366727
0.00482239 -0.265224
0.075037 -0.328495
0.0738127 -0.321012
0.0714867 -0.313228
0.0680153 -0.30536
0.0649164 -0.299994
0.0612716 -0.294769
0.0570854 -0.289779
0.0524167 -0.285084
0.0489202 -0.282063
0.0452428 -0.279243
0.0413946 -0.276647
0.037415 -0.274289
0.0317467 -0.271461
0.0259646 -0.269134
0.0219503 -0.267853
0.0179757 -0.266826
0.0152525 -0.26626
0.00397819 -0.265266
0.00313783 -0.265336
0.00224849 -0.26548
-0.0051083 -0.256907
0.0225043 -0.255793
0.017679 -0.246662
0.029862 -0.199936
-0.0301559 -0.211808
-0.0046663 -0.277028
-0.0091483 -0.252942
-0.02126 -0.313545
-0.00361895 -0.268807
-0.062063 -0.323613
-0.0196472 -0.0357523
0.0193074 -0.0364343
-0.0326419 -0.299755
-0.0118063 -0.273138
-0.00358059 -0.28385
-0.0049842 -0.283365
0.00199369 -0.282566
-0.0065993 -0.282955
0.00537044 -0.284355
0.00289515 -0.275325
-0.0012517 -0.2793
0.00092003 -0.280406
-0.00399372 -0.275384
-0.00957127 -0.28436
-0.0135677 -0.287262
-0.00916162 -0.288274
0.00448394 -0.261793
-0.0035228 -0.262073
-0.0059222 -0.26203
0.00553752 -0.286985
0.00862142 -0.286225
-0.0100683 -0.269456
0.00961873 -0.269013
-0.000960229 -0.282779
0.00311179 -0.278011
0.00799246 -0.271876
-0.0092149 -0.271454
0.000865757 -0.282395
0.00384674 -0.262375
-0.00100192 -0.262289
-0.00398932 -0.262701
-0.00570649 -0.280323
0.0081416 -0.283736
0.00853694 -0.263216
0.00831672 -0.26733
0.00127185 -0.275237
-0.00283453 -0.276988
0.00328985 -0.278695
-0.000799861 -0.276993
-0.00876063 -0.267963
-0.00864151 -0.263588
-0.0126399 -0.284148
-0.0147127 -0.292239
0.0107422 -0.259616
0.00426769 -0.260468
-0.00202111 -0.261672
-0.00957233 -0.261617
-0.0190123 -0.297585
-0.0167997 -0.298919
0.0141028 -0.295382
0.0132253 -0.290792
0.016441 -0.289347
0.0160035 -0.286759
-0.0131588 -0.259419
-0.0132932 -0.265128
0.0126306 -0.264857
0.0185282 -0.256849
-0.00865736 -0.29221
0.00149858 -0.28142
0.0110551 -0.26965
-0.00127149 -0.281134
0.0127339 -0.296549
0.00459565 -0.262733
0.00291202 -0.262333
0.000236863 -0.26249
0.00138206 -0.262359
-0.00083913 -0.262831
-0.00217918 -0.262991
-0.00138317 -0.262985
-0.00379458 -0.263145
-0.00566054 -0.278053
-0.0101727 -0.280338
0.013084 -0.282701
0.00712354 -0.280073
0.00509507 -0.263104
0.00601054 -0.263475
0.00764786 -0.26462
0.00722976 -0.266248
0.00425644 -0.270276
0.00117329 -0.273542
-0.00143862 -0.274274
-0.00449371 -0.271022
-0.00755799 -0.266894
-0.00768153 -0.265269
-0.00561235 -0.263843
-0.00447273 -0.263459
-0.0142318 -0.282792
-0.0223737 -0.295161
0.0156408 -0.253626
-0.00110534 -0.26014
-0.00868958 -0.258927
-0.0269568 -0.308043
0.0230888 -0.306167
0.0207825 -0.293662
0.0169926 -0.283901
-0.0205899 -0.255877
0.0244286 -0.251866
-0.0142803 -0.300854
0.0148336 -0.265668
-0.0268285 -0.24853
-0.0117444 -0.26936
0.00394103 -0.287898
0.00332771 -0.263092
0.00236276 -0.262792
0.000862263 -0.262878
-0.00039206 -0.263125
-0.00134835 -0.263282
-0.00244407 -0.26354
-0.00713028 -0.276906
0.00799529 -0.277754
0.00431594 -0.263936
0.00456837 -0.266256
0.000730234 -0.271407
-0.000968698 -0.27201
-0.00441352 -0.266865
-0.00368814 -0.264371
-0.0137358 -0.276434
-0.0167513 -0.280111
-0.0191538 -0.284318
-0.0260782 -0.290564
-0.0413075 -0.310807
-0.0389261 -0.316869
0.0280203 -0.226212
0.00555608 -0.254536
-0.0228527 -0.239485
-0.0354735 -0.320548
0.0337336 -0.319942
0.0333742 -0.311624
0.0311251 -0.302249
0.0268991 -0.293832
0.0200216 -0.283324
0.0188181 -0.278562
-0.0281432 -0.240179
0.0319116 -0.234097
-0.0300954 -0.320451
-0.00741729 -0.296592
0.0295289 -0.243484
0.0201613 -0.312829
0.0334669 -0.327439
-0.0197975 -0.259622
0.00495374 -0.290382
0.00238594 -0.263527
0.00279497 -0.263876
0.00191171 -0.263146
0.00230117 -0.263242
0.00106312 -0.263124
0.00153573 -0.263091
5.60911e-05 -0.263282
0.000510251 -0.263211
-0.000611283 -0.263472
-0.000247188 -0.263399
-0.00142363 -0.263646
-0.00104062 -0.263517
-0.00202362 -0.264262
-0.00162864 -0.263898
-0.00229884 -0.27226
-0.00520456 -0.274021
-0.0098093 -0.275738
0.012755 -0.275387
0.00966994 -0.275699
0.00386433 -0.273866
0.00150898 -0.272778
0.00338632 -0.264541
0.00332884 -0.265479
0.00237242 -0.267583
0.0010889 -0.269133
-0.00164991 -0.269731
-0.00239174 -0.26819
-0.00302659 -0.266002
-0.00269416 -0.264965
-0.0138568 -0.270969
-0.0188644 -0.277226
-0.029635 -0.285496
-0.042262 -0.301654
-0.0509345 -0.322693
0.0175807 -0.146681
0.0149548 -0.240778
0.000968747 -0.254589
-0.0110027 -0.248235
-0.0206422 -0.158306
-0.0452401 -0.336266
0.0464863 -0.337832
0.0428997 -0.310651
0.026034 -0.286939
0.017588 -0.273581
0.00229673 -0.0646206
-0.0262113 -0.183937
-0.00384256 -0.061822
0.0226493 -0.173929
-0.0264061 -0.329482
0.0226975 -0.253991
0.0392072 -0.219745
0.0335854 -0.337486
-0.0379304 -0.226547
-0.0110143 -0.269805
0.0016069 -0.263841
0.00135862 -0.263436
0.000956931 -0.263346
0.000388016 -0.263421
-0.000168738 -0.263553
-0.000622565 -0.263762
-0.000918134 -0.264211
-0.00470576 -0.271127
-0.00976968 -0.270851
0.0083744 -0.271502
0.00287704 -0.271081
0.00159648 -0.265098
-0.000123162 -0.267893
-0.0019099 -0.268151
0.00159576 -0.269154
-0.00034529 -0.268471
-0.00109128 -0.265473
-0.00880606 -0.26805
0.00884905 -0.269354
-0.0147889 -0.267442
-0.0168014 -0.269985
-0.0207503 -0.271257
-0.0236582 -0.27534
-0.0301863 -0.277719
-0.036089 -0.283982
-0.0432052 -0.289966
-0.0513665 -0.299805
-0.0593598 -0.309851
0.0132125 -0.15544
0.00500522 -0.233842
-0.00470622 -0.239461
-0.0126248 -0.167379
-0.0619138 -0.335463
-0.059395 -0.3451
-0.055444 -0.352785
-0.0517128 -0.360569
-0.0406251 -0.355709
0.0430432 -0.357988
0.0520025 -0.360191
0.0565299 -0.353763
0.0597672 -0.344544
0.0619552 -0.332584
0.0574061 -0.317959
0.0518228 -0.303739
0.0458582 -0.291515
0.035786 -0.284835
0.0304974 -0.275685
0.024838 -0.273033
0.0208236 -0.271743
0.0147031 -0.268969
0.0184183 -0.0647775
-0.000609828 -0.117339
-0.0207896 -0.172461
-0.01867 -0.0634624
0.0171694 -0.162189
-9.91736e-05 -0.113961
-0.0279421 -0.349337
-0.0123962 -0.343419
0.0223898 -0.26205
0.0319869 -0.351783
-0.00808233 -0.283511
0.0183892 -0.340333
0.000762673 -0.264294
0.000688734 -0.264643
0.000895325 -0.263942
0.000983554 -0.263664
0.000953695 -0.263786
0.000989401 -0.263514
0.000887247 -0.263447
0.000946482 -0.263475
0.000728586 -0.263435
0.000526053 -0.263457
0.000631086 -0.263445
0.000306189 -0.263505
8.3558e-05 -0.263567
0.000194482 -0.263535
-0.000109616 -0.263648
-0.000282417 -0.263765
-0.000201018 -0.263704
-0.00038519 -0.263927
-0.000424184 -0.264178
-0.000415529 -0.264043
-0.000333327 -0.264534
-0.00014165 -0.265101
-0.000254181 -0.264788
-0.0102675 -0.266653
-0.0121039 -0.266899
0.0120426 -0.268401
0.0102206 -0.268131
-0.00680596 -0.270158
-0.00392771 -0.26706
0.00573712 -0.270101
0.0040371 -0.269848
0.00438612 -0.267977
0.000197516 -0.265815
-0.000193036 -0.266511
0.000500573 -0.267361
2.71486e-05 -0.266398
-0.00725014 -0.266241
0.0075518 -0.266805
-0.00516193 -0.266127
-0.00601888 -0.266153
0.00633339 -0.266718
0.00548756 -0.26669
-0.00322685 -0.265701
-0.00146149 -0.265781
-0.00237735 -0.265729
0.00363856 -0.266742
0.00281024 -0.266737
0.00196923 -0.266744
0.00266392 -0.267851
-0.00205779 -0.266558
0.00618727 -0.268053
-0.00581881 -0.26757
-0.00111587 -0.266932
0.00122394 -0.266414
0.00542058 -0.271912
-0.00787822 -0.272684
0.0115731 -0.270755
-0.0118516 -0.268554
-0.00102557 -0.264667
-0.000782342 -0.263942
-0.000410536 -0.263644
0.000101272 -0.263486
0.000684291 -0.263372
0.00119147 -0.263361
0.00145813 -0.263607
0.00182111 -0.264302
0.0211061 -0.323527
-0.00901316 -0.309037
-0.00159491 -0.106696
-0.000914902 -0.112846
0.0238317 -0.276584
0.0370344 -0.296553
0.0479359 -0.326372
0.0449578 -0.347031
-0.0395092 -0.339877
-0.0487962 -0.330563
-0.0227739 -0.216653
0.0242382 -0.2026
-0.0514559 -0.313388
-0.0347721 -0.292305
-0.0219074 -0.281099
-0.0159192 -0.273405
0.000628606 -0.270214
-0.00178886 -0.269612
-0.0338335 -0.22483
0.0350948 -0.217136
0.00358627 -0.253499
-0.00463184 -0.265182
-0.00374186 -0.269107
0.00358401 -0.268454
0.00508097 -0.264632
0.0024893 -0.275356
0.0141669 -0.279773
-0.0118293 -0.278854
-0.00285221 -0.274809
-0.00283854 -0.263877
-0.00199069 -0.263326
-0.000771444 -0.26326
9.19661e-05 -0.262988
0.00169473 -0.262776
0.00296302 -0.262876
0.00359815 -0.263474
-0.00700011 -0.275035
0.0186779 -0.305866
-0.0041868 -0.289355
-0.0219355 -0.307018
0.0251631 -0.245282
-0.017115 -0.253149
0.0199252 -0.288124
0.0226397 -0.300488
-0.00512736 -0.261324
0.00586284 -0.257692
-0.030217 -0.305238
-0.0167622 -0.2868
-0.0150906 -0.26498
0.014446 -0.265015
-0.00606421 -0.262888
-0.0109604 -0.264512
-0.00515818 -0.272565
0.00487707 -0.271782
0.010379 -0.263992
0.0065711 -0.262587
0.0122204 -0.285191
-0.00867054 -0.281484
-0.00212115 -0.262659
0.00054881 -0.261893
0.0045264 -0.286897
0.00593644 -0.275797
0.00660873 -0.286841
-0.00788742 -0.288928
0.00428374 -0.281887
-0.00288182 -0.278975
-0.00237681 -0.27834
0.000325809 -0.27921
-0.0105973 -0.287179
-0.0231892 -0.264223
0.00559072 -0.357052
-0.0115905 -0.310496
0.00366796 -0.325507
-0.000212323 -0.352365
0.00780103 -0.305349
-0.00546805 -0.356794
0.0335941 -0.250015
0.0166234 -0.292056
0.000402619 -0.352051
0.00169216 -0.318207
0.00789383 -0.28469
0.00813323 -0.137163
0.0194835 -0.159469
0.0106552 -0.131687
0.0315844 -0.189727
-0.00856759 -0.0713634
0.00062276 -0.0872791
0.00350643 -0.112727
-0.00160724 -0.111638
0.00634593 -0.133709
-0.0103806 -0.0864582
-0.00527266 -0.0920209
-0.0149742 -0.0691062
0.0106801 -0.106658
0.0184244 -0.124435
-0.0211138 -0.0553841
-0.0112751 -0.0835793
-0.0102769 -0.144191
-0.0108824 -0.134084
-0.0211909 -0.166397
-0.00368869 -0.114861
0.00868422 -0.071577
-0.000567823 -0.0875586
-0.0341097 -0.197987
-0.00928364 -0.141852
-3.34275e-05 -0.11639
0.0099333 -0.0887109
0.0149846 -0.0700321
0.00513041 -0.093816
0.0211185 -0.0561062
-0.010648 -0.107025
-0.0183558 -0.124909
0.0100737 -0.0871172
-0.00781937 -0.213729
0.00633759 -0.229739
0.00723553 -0.1961
0.00312865 -0.250908
0 0
0 0
-0.00660562 -0.100538
-0.0190276 -0.195055
-0.0141247 -0.228435
0.00846868 -0.205285
-0.00700076 -0.191225
-0.00704656 -0.22593
0.00704063 -0.0913562
0 0
-0.03815 -0.154823
-0.00394664 -0.249467
0.0157024 -0.218563
0.0196279 -0.181079
-0.0272094 -0.247989
-0.0277375 -0.249084
-0.00976969 -0.272782
-0.0423552 -0.227536
0.00618824 -0.294718
-0.0293979 -0.244539
-0.0351325 -0.229807
0.0356224 -0.235481
0.0228063 -0.255846
0.0377093 -0.236492
0.00653668 -0.277998
0.0429055 -0.222481
0.0372246 -0.220287
0.0335331 -0.236703
0.0323944 -0.201311
0.0330421 -0.200089
0.0199012 -0.169458
0.0104145 -0.140885
0.0304936 -0.197473
-0.0331618 -0.206314
-0.0236371 -0.179231
-0.0353586 -0.207439
-0.0141664 -0.150067
-0.032162 -0.206811
-0.0101859 -0.114085
-0.0197995 -0.156529
-0.0110735 -0.106248
-0.0248704 -0.189324
0.00363943 -0.0360533
0.00155891 -0.0898984
-0.011977 -0.134552
-0.0039957 -0.253278
-0.00323002 -0.25202
-0.00972725 -0.244419
-0.000277925 -0.254494
-0.017549 -0.236422
-0.0041744 -0.253464
0.00226613 -0.253839
0.00715036 -0.249937
0.0116128 -0.237324
0.00433474 -0.248792
0.0204443 -0.225433
0.00993281 -0.249468
0.00708784 -0.105425
0.00923665 -0.0972115
0.0182707 -0.144375
-0.00432118 -0.0349562
0.0238378 -0.175187
0.00857684 -0.125882
-0.00363122 -0.0854865
-0.0282082 -0.24651
-0.0200265 -0.25853
-0.00876898 -0.273041
-0.0134842 -0.26763
0.034297 -0.231142
0.0217231 -0.255288
0.00794761 -0.273601
0.00886549 -0.272271
-0.0313951 -0.237883
-0.0241073 -0.253531
-0.0174735 -0.262761
-0.0212937 -0.257557
-0.0240214 -0.252664
-0.0249191 -0.249036
-0.0284279 -0.243456
-0.0196652 -0.253973
-0.0232197 -0.24779
-0.0316161 -0.232387
-0.0189278 -0.259566
0.0254791 -0.24806
0.022219 -0.251661
0.0216131 -0.25472
0.017639 -0.260025
0.0146182 -0.260844
0.0199353 -0.258551
-0.0154216 -0.256531
-0.0170171 -0.258011
-0.0158879 -0.260909
-0.0127644 -0.261505
-0.0129018 -0.256671
-0.0111798 -0.259097
-0.00901294 -0.260653
-0.00689018 -0.260288
0.00511045 -0.259225
0.00219697 -0.259176
0.0017536 -0.260336
-0.000128402 -0.261103
-0.00335789 -0.260776
0.00219633 -0.26126
0.0147088 -0.258535
0.0177639 -0.25484
0.0133422 -0.256976
0.0206686 -0.250158
0.0107382 -0.256061
0.0088093 -0.258574
0.0113211 -0.261263
0.00750922 -0.260055
0.00455094 -0.261157
0.00567305 -0.262064
0.00256883 -0.261824
0.00740612 -0.260934
0.00883621 -0.261272
0.0122606 -0.0185553
0.0120178 -0.0476091
0.0093787 -0.0247802
0.0126683 -0.0699479
0 0
0 0
0.0150185 -0.0149895
0.0254396 -0.0412556
0.0204269 -0.0516018
0.0230634 -0.0300203
-0.0261887 -0.146458
-0.0316262 -0.159224
-0.0231635 -0.0297449
-0.020779 -0.050574
-0.0254404 -0.0407961
-0.0139129 -0.0669115
0.0262988 -0.145823
0.0316453 -0.158375
-0.0151125 -0.0149225
-0.00973207 -0.0243527
-0.0128871 -0.0462781
-0.0123519 -0.018372
-0.0297811 -0.215257
-0.0150339 -0.244078
-0.016434 -0.247972
-0.0105839 -0.250698
-0.01726 -0.24356
-0.00261892 -0.254108
-0.0236564 -0.22934
-0.020555 -0.246982
-0.0136488 -0.252525
-0.0278181 -0.22702
-0.0303948 -0.227587
-0.0262012 -0.238561
-0.0322994 -0.216938
-0.0273021 -0.211658
-0.0226533 -0.170113
-0.0296437 -0.19809
-0.0269959 -0.188566
0.0247035 -0.175915
0.0274206 -0.187422
0.0192337 -0.159463
0.0322953 -0.207111
0.0277302 -0.197856
0.0307999 -0.228047
0.032595 -0.218458
0.0301268 -0.213605
0.0340445 -0.225816
0.026651 -0.214974
0.0273543 -0.236365
0.0290957 -0.239865
0.0170816 -0.249976
0.0118545 -0.251702
0.0110975 -0.253877
0.0107634 -0.250646
0.00470539 -0.253672
0.00585381 -0.255842
0.0221509 -0.245037
0.022286 -0.232597
0.0170364 -0.243456
0.0235746 -0.238296
0.0286957 -0.245113
0.0260095 -0.250172
0.0316915 -0.237796
0.016005 -0.26367
0.028636 -0.244131
0.0240221 -0.253377
0.0183669 -0.261174
-0.00293487 -0.258716
-0.00711592 -0.257952
-0.0047894 -0.259746
-0.0113057 -0.255662
0.00064201 -0.257652
-0.00184768 -0.254951
-0.00723497 -0.254865
5.52648e-05 -0.25605
0.00386166 -0.332994
-0.00575729 -0.332137
-0.00405478 -0.344171
-0.0046525 -0.312047
-0.011656 -0.326251
-0.00920754 -0.350178
0.00653634 -0.346152
0.0132533 -0.338792
0.00963717 -0.323077
0.0114776 -0.28695
0.00406344 -0.301443
0.00858347 -0.306512
-0.00126594 -0.298005
0.0180317 -0.312479
0.0187808 -0.276303
0.0146233 -0.274253
0.0395603 -0.205785
0.0371758 -0.173524
0.032975 -0.184464
0.0232572 -0.175586
0.0280319 -0.168323
0.0418949 -0.194668
-0.0371137 -0.174494
-0.0412713 -0.211434
-0.033991 -0.18971
-0.0290206 -0.173239
-0.026243 -0.184828
-0.0412315 -0.195587
-0.0356871 -0.238711
-0.0361991 -0.241889
-0.0259972 -0.253806
-0.0457676 -0.228358
-0.0345197 -0.250256
-0.0151546 -0.274605
-0.0179089 -0.264777
-0.03561 -0.236149
-0.0398988 -0.226641
-0.000476515 -0.288694
0.00709364 -0.298971
-0.00123496 -0.284499
0.0148193 -0.3151
0.0141527 -0.309137
-0.00247231 -0.281463
-0.0105674 -0.270582
-0.00891424 -0.276463
0.000427814 -0.295306
-0.0287534 -0.245643
-0.0326055 -0.237629
-0.0328116 -0.238421
-0.0329409 -0.234627
-0.0346141 -0.226781
-0.0363987 -0.22803
-0.0336768 -0.237749
-0.0191302 -0.259104
-0.0234015 -0.253574
0.0140371 -0.267632
0.00707742 -0.280219
0.0151198 -0.269395
-0.00182213 -0.293542
0.0227089 -0.257998
0.0228791 -0.254366
0.0148539 -0.26506
0.0365429 -0.240853
0.043031 -0.232296
0.0416802 -0.229651
0.0412826 -0.241474
0.0465753 -0.225102
0.0409095 -0.220824
0.040493 -0.227259
0.0310752 -0.247342
0.0277435 -0.256484
0.0377781 -0.227462
0.0363832 -0.228828
0.0345074 -0.235946
0.0360644 -0.21838
0.0357977 -0.226679
0.029385 -0.24439
0.0294749 -0.244833
0.0388495 -0.227849
0.0381312 -0.219878
0.0383534 -0.210973
0.0391784 -0.209453
0.0324611 -0.196874
0.0246902 -0.180984
0.0373353 -0.211042
0.0361499 -0.210373
0.0357489 -0.211354
0.0345456 -0.209949
0.0269642 -0.187148
-0.0351241 -0.204808
-0.0415392 -0.216026
-0.0396979 -0.216946
-0.0381711 -0.217969
-0.0281286 -0.190565
-0.0364532 -0.216221
-0.0357911 -0.218835
-0.0293749 -0.194839
-0.0343983 -0.216253
-0.0159885 -0.263533
-0.00992107 -0.27141
-0.0143812 -0.265999
-0.0148572 -0.265735
-0.00793533 -0.274146
-0.0200238 -0.258986
0.00734473 -0.275094
8.73045e-05 -0.284882
-0.000933377 -0.287957
0.00155435 -0.281966
-0.00571709 -0.292382
-0.0084003 -0.301666
0.0149506 -0.264228
0.0151982 -0.264022
0.00849436 -0.272686
0.0152505 -0.263758
0.00231928 -0.28068
0.0222523 -0.254462
0.0264944 -0.248676
0.0187264 -0.25975
0.00505806 -0.277132
0.0127395 -0.267527
0.0198791 -0.259097
0.0234194 -0.25369
-0.00115021 -0.284923
0.00889742 -0.272503
0.0108063 -0.270393
0.00398013 -0.278314
-0.00213622 -0.281169
0.00432234 -0.288953
-0.0022841 -0.280828
0.0120392 -0.298751
0.0113426 -0.29675
-0.00181121 -0.281057
-0.00264181 -0.280684
0.00662937 -0.31384
0.0115424 -0.333407
0.0138669 -0.323642
0.0048296 -0.343112
0.0128857 -0.348311
0.0203368 -0.330983
-0.0012664 -0.305448
-0.00897487 -0.330975
-0.000786582 -0.336032
-0.00335903 -0.318434
-0.00646438 -0.346357
-0.0086571 -0.295046
-0.015529 -0.320455
-0.0130186 -0.339179
-0.0264601 -0.279696
-0.0215936 -0.306166
-0.0163611 -0.288902
-0.0200923 -0.329874
-0.0279985 -0.318331
0.0256337 -0.346441
0.0221411 -0.35642
0.0291337 -0.360051
-0.0367631 -0.302864
-0.0428026 -0.278126
0.0361522 -0.363408
0.0271627 -0.338686
0.0324774 -0.276561
0.0237397 -0.274
0.0242419 -0.295893
0.0201333 -0.329608
0.0280017 -0.318114
-0.0209602 -0.34624
-0.0268679 -0.359176
-0.0191381 -0.357764
-0.0342438 -0.362595
0.0360965 -0.302869
0.0437288 -0.278482
-0.0195963 -0.332037
0.0408307 -0.288179
0.0454666 -0.28556
0.0404084 -0.282289
0.0490532 -0.288481
0.0125709 -0.265814
0.0107472 -0.265581
0.0365063 -0.279776
0.0362975 -0.290865
0.04131 -0.294326
0.0488366 -0.297698
0.0563598 -0.299611
0.0535685 -0.293318
0.0599067 -0.304862
0.00895373 -0.265408
0.00772021 -0.265317
0.0444663 -0.30029
0.0597355 -0.325456
0.0674591 -0.327377
0.0656504 -0.319907
0.0686815 -0.334463
0.00649848 -0.265257
0.0056597 -0.265232
0.0623565 -0.31222
0.0522789 -0.322685
0.0550134 -0.329917
0.060718 -0.338765
0.0665895 -0.34693
0.0681561 -0.341061
0.0648581 -0.35193
0.0632016 -0.364301
0.0661603 -0.36132
0.0542774 -0.33587
0.0542084 -0.356978
0.0577842 -0.362932
0.0602927 -0.359833
0.0546324 -0.365075
0.0688622 -0.35766
0.071277 -0.353274
0.0628132 -0.356398
0.0508189 -0.350929
0.0487808 -0.354159
0.0476088 -0.359211
0.0464716 -0.365697
0.0507975 -0.36597
0.0416146 -0.365049
0.0732393 -0.348126
0.0746309 -0.342173
0.0441483 -0.352312
-0.0463557 -0.358453
-0.0505959 -0.365979
-0.0453607 -0.364796
-0.054447 -0.365052
-0.0631982 -0.363944
-0.060055 -0.366388
-0.0403851 -0.364072
-0.0403822 -0.347627
-0.0462813 -0.351508
-0.0535548 -0.356666
-0.059803 -0.359283
-0.057609 -0.362897
-0.0623028 -0.355834
-0.056677 -0.368261
-0.0530695 -0.369747
-0.0477502 -0.347415
-0.0605355 -0.340427
-0.0680417 -0.342194
-0.0663659 -0.347016
-0.0685401 -0.33569
-0.0490392 -0.370727
-0.0445442 -0.371304
-0.0646534 -0.351998
-0.0544305 -0.338202
-0.0553694 -0.333456
-0.0554223 -0.304881
-0.0562016 -0.297246
-0.0601454 -0.302346
-0.0517222 -0.292453
-0.052382 -0.284485
-0.0570627 -0.289184
-0.063597 -0.30753
-0.0553108 -0.311809
-0.0512752 -0.306815
-0.0396528 -0.286971
-0.0405446 -0.281528
-0.0440939 -0.284517
-0.03663 -0.279012
-0.0612652 -0.29419
-0.0649205 -0.299422
-0.047698 -0.287446
-0.038917 -0.291311
-0.0353478 -0.288296
-0.0680348 -0.304808
-0.0337058 -0.275823
-0.0308748 -0.274371
-0.0279704 -0.273152
-0.0259463 -0.27964
-0.0715097 -0.312698
-0.0276929 -0.247743
-0.0180479 -0.261596
-0.0196151 -0.258452
0.0387857 -0.348599
0.033146 -0.344126
0.0377826 -0.355084
0.027612 -0.331043
0.0394056 -0.342715
0.0306704 -0.244148
0.030173 -0.246324
0.0366585 -0.235701
-0.034203 -0.344145
-0.0347025 -0.352653
-0.0276621 -0.339136
-0.0183105 -0.320173
-0.033152 -0.335103
0.03277 -0.200883
0.0255887 -0.183629
-0.0341405 -0.206744
-0.028551 -0.191825
0.0315322 -0.291712
0.0308058 -0.286127
0.0297713 -0.28066
0.0248336 -0.281902
0.0502272 -0.314569
0.054629 -0.310978
0.047122 -0.307607
0.0399075 -0.303664
0.0453513 -0.318596
0.0519334 -0.346361
0.05803 -0.349262
0.0531619 -0.341769
0.046992 -0.332182
0.0456607 -0.342311
-0.0524487 -0.341355
-0.0572925 -0.349021
-0.0507783 -0.345071
-0.0422353 -0.338028
-0.0468684 -0.333488
-0.0425964 -0.296037
-0.0473137 -0.294907
-0.0467413 -0.300919
-0.0469269 -0.307558
-0.0385289 -0.296977
-0.0298455 -0.281737
-0.0331283 -0.280842
-0.0328218 -0.284835
-0.032195 -0.288894
-0.025753 -0.28329
-0.0253752 -0.251157
-0.0246883 -0.252505
0.0270079 -0.320764
0.027344 -0.325464
0.0335638 -0.332006
0.0207512 -0.317344
0.0396246 -0.337666
0.0263434 -0.316623
0.0192939 -0.308892
0.0281276 -0.246136
0.0314392 -0.240242
0.0319178 -0.295334
0.0264071 -0.290461
0.0229079 -0.287686
0.0233968 -0.29096
0.0321457 -0.306971
0.0379531 -0.311518
0.0370491 -0.306541
0.0408609 -0.319196
0.033899 -0.29971
0.0267894 -0.301627
0.0280407 -0.306047
0.0334663 -0.323533
0.0400519 -0.333226
0.0404255 -0.329119
0.0407492 -0.323773
0.0263351 -0.313532
-0.0326581 -0.320647
-0.0405635 -0.328488
-0.0379308 -0.329039
-0.0422318 -0.325986
-0.0350681 -0.330076
-0.0260228 -0.31352
-0.0288176 -0.314092
-0.0399917 -0.313967
-0.0462303 -0.31681
-0.0449423 -0.320076
-0.0463573 -0.312285
-0.0511042 -0.31815
-0.0497337 -0.326738
-0.0440182 -0.3238
-0.0346133 -0.311025
-0.0357504 -0.308222
-0.0303848 -0.291543
-0.0277733 -0.288198
-0.0239263 -0.285861
-0.021357 -0.288779
0.0135287 -0.304446
0.0127337 -0.301358
0.00546354 -0.291964
0.025945 -0.297955
0.028971 -0.298034
0.02378 -0.293889
0.0203005 -0.290943
0.0216316 -0.297104
0.0284948 -0.313014
0.0333972 -0.315802
0.0281763 -0.309229
0.022751 -0.30337
0.0207577 -0.306198
-0.0329725 -0.312705
-0.0370635 -0.318832
-0.0312549 -0.314223
-0.0243597 -0.307707
-0.028477 -0.306786
0.0156011 -0.300966
0.00838903 -0.292469
0.00416812 -0.287444
0.00855229 -0.291573
-0.00366627 -0.287223
-0.0113301 -0.296232
-0.00642279 -0.291086
-0.0153253 -0.299659
-0.018088 -0.304223
-0.00937148 -0.295516
-0.00111856 -0.283706
0.0178884 -0.295567
0.0169374 -0.2924
0.0126469 -0.288058
0.00987506 -0.288952
0.013367 -0.296031
0.0179267 -0.301537
0.0185674 -0.300671
0.0183292 -0.298145
0.00929454 -0.29129
-0.0178468 -0.298348
-0.0229612 -0.302716
-0.0218903 -0.3036
-0.0245927 -0.301583
-0.0193104 -0.302844
-0.0122864 -0.29381
-0.0134034 -0.293455
-0.0262784 -0.300137
-0.0205972 -0.296547
-0.0163895 -0.291274
-0.0195166 -0.290931
-0.0127265 -0.295806
-0.00817807 -0.290566
0.0135863 -0.293127
0.0102787 -0.291004
-0.0370052 -0.305267
-0.0374094 -0.300867
-0.0416608 -0.306384
-0.0335908 -0.29621
-0.0313107 -0.302653
-0.0241023 -0.293082
-0.0293413 -0.295131
-0.0274629 -0.297609
-0.0564409 -0.32343
-0.0619205 -0.329708
-0.0566674 -0.329322
-0.0690249 -0.329753
-0.0569023 -0.318635
-0.0668288 -0.315443
-0.0678395 -0.322363
-0.0606912 -0.316904
-0.0738441 -0.320506
-0.0750667 -0.328006
-0.0146568 -0.305738
-0.0239919 -0.320902
-0.0176675 -0.313949
-0.0310101 -0.327788
-0.0130509 -0.301675
-0.0224241 -0.31101
-0.0256658 -0.317278
-0.0177211 -0.306721
-0.00320636 -0.243886
-0.00776179 -0.239367
-0.0222112 -0.170556
-0.0260401 -0.182975
-0.0225072 -0.198944
-0.0237025 -0.212262
0.015591 -0.230419
0.0166305 -0.219767
-0.00326508 -0.278195
-0.00859864 -0.272061
0.0227776 -0.237336
0.0224292 -0.241766
0.00101446 -0.252618
0.00394787 -0.251218
-0.0269059 -0.0362489
-0.0243638 -0.0358227
-0.00670587 -0.0306435
-0.00600626 -0.0151108
0.0149957 -0.232741
0.0111479 -0.231249
0.0263992 -0.154534
0.0252793 -0.184397
-0.0259573 -0.23748
-0.0261412 -0.231758
-0.000416311 -0.00132112
-0.00257465 -0.0149397
-0.0349705 -0.189828
-0.019352 -0.171156
0.0354943 -0.218541
0.0338905 -0.20715
-0.0119627 -0.149335
-0.00771548 -0.133573
-0.00877609 -0.111269
-0.0104576 -0.105383
-0.00482109 -0.252798
-0.0047185 -0.253102
-0.0223308 -0.171518
-0.0259022 -0.182416
0.0101537 -0.0097381
0.0182383 -0.0181339
0.0113866 -0.260385
0.0122571 -0.261658
0.0261303 -0.240181
0.024516 -0.245746
-0.0401551 -0.205792
-0.0282855 -0.185728
0.0126818 -0.25553
0.0100787 -0.255127
0.0210737 -0.162762
0.0180845 -0.160786
0.0119942 -0.259689
0.0100054 -0.259198
-0.0162313 -0.261697
-0.0134692 -0.265572
0.0231551 -0.253878
0.0229175 -0.254865
-0.000260296 -0.116103
0.0072521 -0.0949282
0.0143066 -0.196154
0.0176407 -0.177868
-0.00453445 -0.238313
-0.00968296 -0.234098
-0.00805006 -0.231019
-0.0030175 -0.235956
0.00129215 -0.0683525
0.00293196 -0.0834769
-0.00695679 -0.267114
-0.00287285 -0.268462
-0.0270304 -0.187803
-0.0346562 -0.20752
0.00171549 -0.262714
0.000808308 -0.262365
-0.00198991 -0.187988
0.000145715 -0.205875
-0.0140685 -0.226439
-0.0262713 -0.223728
-0.0180854 -0.235052
-0.0129342 -0.229373
-0.0225491 -0.25393
-0.0191972 -0.257071
0.0290433 -0.196212
0.0302593 -0.199475
-0.0370209 -0.185621
-0.035021 -0.202568
-0.0171708 -0.147729
-0.0139914 -0.121165
-0.0100353 -0.118397
-0.00928019 -0.124488
-0.0137177 -0.141671
-0.0192767 -0.161187
-0.0127304 -0.116175
-0.0114667 -0.122231
-0.0281911 -0.237614
-0.0253605 -0.242043
-0.0219722 -0.243349
-0.0181916 -0.247063
-0.020902 -0.244499
-0.0218473 -0.246119
-0.0266255 -0.24778
-0.0246494 -0.249987
-0.0040799 -0.103314
0.00192236 -0.0938786
-0.00255776 -0.253905
-0.00635488 -0.252859
-0.0232757 -0.215715
-0.0192267 -0.22224
0.0255335 -0.181413
0.021927 -0.168593
-0.00586288 -0.254015
-0.00557062 -0.25356
-0.0178758 -0.256085
-0.0187455 -0.257166
-0.0282283 -0.238867
-0.0303099 -0.230735
0.0280626 -0.197156
0.0256964 -0.181122
-0.00443278 -0.24761
-0.00834363 -0.247899
0.0163439 -0.0550079
0.0136137 -0.0497083
-0.0203244 -0.257945
-0.0241846 -0.252309
-0.0170633 -0.0420849
-0.0129573 -0.045549
-5.62432e-05 -0.254801
-0.00019478 -0.254243
-0.0358838 -0.218176
-0.0333011 -0.204843
0.0121295 -0.248824
0.00812044 -0.25183
-0.0319572 -0.219308
-0.0317871 -0.208695
-0.0155259 -0.2443
-0.0123856 -0.248776
0.0196812 -0.0606167
0.0170564 -0.0681765
-0.00496044 -0.100335
-0.00108937 -0.113263
0.0219692 -0.173427
0.0139677 -0.152401
0.0206071 -0.256699
0.0299353 -0.243407
-0.00780703 -0.263565
-0.00503368 -0.263291
-0.0119878 -0.147422
-0.0178317 -0.164545
-0.00133659 -0.111332
-0.0010357 -0.103179
0.0377986 -0.219422
0.0391738 -0.229647
-0.00299798 -0.252542
-0.000847261 -0.254121
-0.00765767 -0.262227
-0.00469479 -0.262525
-0.0196042 -0.258662
-0.0181216 -0.261434
-0.00813585 -0.196392
-0.00342236 -0.180884
0.0138475 -0.131174
0.0157699 -0.159529
0.00479888 -0.116935
0.0063536 -0.128346
0.0187544 -0.0186564
0.0172988 -0.0210779
0.0286677 -0.245203
0.0313354 -0.237949
0.00681421 -0.121883
0.0130315 -0.142705
0.00305522 -0.1028
0.0100213 -0.0827349
0.0232289 -0.254772
0.0184193 -0.261181
0.00669543 -0.259984
0.00898543 -0.260271
0.0285779 -0.245394
0.0276908 -0.24685
-0.0252587 -0.196805
-0.0265007 -0.191472
0.000335851 -0.263415
-0.000172368 -0.263124
-0.012311 -0.142843
-0.0131359 -0.139049
-0.0120901 -0.0331394
-0.0139721 -0.0252509
-0.00397693 -0.0234294
6.44456e-05 -0.0244452
0.0195336 -0.0179835
0.0236361 -0.0253528
-0.0189939 -0.259526
-0.0272748 -0.247896
-0.00134598 -0.253825
-0.00241896 -0.252828
-0.00169194 -0.252378
-0.000492004 -0.249136
-0.0130788 -0.260862
-0.00966777 -0.261816
-0.00605568 -0.101279
-0.00211784 -0.0789262
-0.0351463 -0.227518
-0.0330594 -0.234462
-0.000662419 -0.254239
0.000178936 -0.254701
0.0325606 -0.23246
0.0338884 -0.223659
0.0142999 -0.0715606
0.018499 -0.0565304
0.028232 -0.244627
0.025301 -0.249428
0.00500606 -0.212673
-0.00426444 -0.213587
0.00382047 -0.252267
0.00110135 -0.253951
-0.0070301 -0.0634898
-0.00784261 -0.0477021
-0.00875406 -0.0875319
-0.014064 -0.0697542
-0.0106819 -0.262891
-0.00729341 -0.26392
-0.012221 -0.136877
-0.00454498 -0.13507
0.0338639 -0.229925
0.0336213 -0.220157
-0.0066956 -0.0878287
-0.00769399 -0.101165
-0.0118174 -0.115809
-0.00791561 -0.112671
-0.00929205 -0.0113848
-0.0104197 -0.0105677
-0.0213867 -0.1616
-0.022493 -0.166442
0.00100121 -0.254329
0.000193314 -0.254848
0.00151366 -0.0244967
0.00311011 -0.0135317
0.0302515 -0.237915
0.0321689 -0.229459
-0.0256677 -0.195742
-0.0232057 -0.184184
-0.0222851 -0.0530189
-0.0209641 -0.0531515
-0.0173841 -0.23848
-0.0108242 -0.236009
-0.0116182 -0.238794
-0.0137151 -0.241404
-0.00635438 -0.241942
-0.00320559 -0.235493
0.0261748 -0.243737
0.0229994 -0.247495
0.0264553 -0.225471
0.0250624 -0.219847
-0.0150089 -0.141103
-0.017306 -0.153425
-0.0260461 -0.250196
-0.0267128 -0.24823
-0.00250666 -0.247984
-0.000759621 -0.252241
0.00251685 -0.250319
0.00623998 -0.247584
-0.00975664 -0.131251
-0.00363764 -0.110203
-0.0012415 -0.00162909
-0.00874275 -0.0133641
-0.018835 -0.15358
-0.0169307 -0.151541
0.00813218 -0.240198
0.00265581 -0.236272
0.0252622 -0.154414
0.00643316 -0.157214
0.0131757 -0.205768
0.0323875 -0.199715
-0.00940206 -0.0233215
-0.00517127 -0.014659
-0.031654 -0.225386
-0.0329318 -0.221409
0.00972751 -0.134194
0.0102137 -0.141312
-0.0188024 -0.261084
-0.0238554 -0.253854
0.011756 -0.249567
0.0158469 -0.246584
-0.0125766 -0.248327
-0.0137363 -0.249005
-0.0243102 -0.245521
-0.0272913 -0.240953
0.0317925 -0.237481
0.0308914 -0.238524
-0.000264021 -0.256296
0.00161861 -0.257339
-0.0124813 -0.260159
-0.0124613 -0.258719
0.0345972 -0.222896
0.0333455 -0.224712
0.0142271 -0.258167
0.0165617 -0.258101
-0.0223834 -0.0428158
-0.0247291 -0.0437892
-0.0088035 -0.251997
-0.0126474 -0.250184
-0.0271648 -0.21632
-0.0256747 -0.209136
0.0060606 -0.26264
0.00344969 -0.26319
0.0286277 -0.191315
0.0288946 -0.192439
0.00605181 -0.188869
0.0101143 -0.20537
0.00768371 -0.1124
0.00723646 -0.0986707
0.00266711 -0.00189417
0.0123473 -0.0106963
-0.001407 -0.0249865
0.00330195 -0.0580818
-0.010807 -0.0380487
-0.00757788 -0.0572172
0.0194895 -0.0242406
0.0131893 -0.0134487
-0.00867433 -0.24354
-0.0124202 -0.242054
0.0150207 -0.265439
0.00887327 -0.272631
-0.0200597 -0.236705
-0.0218311 -0.228187
-0.0170426 -0.0395002
-0.0131647 -0.0413786
0.00955602 -0.250027
0.0137194 -0.246276
0.0137449 -0.0619955
0.0186588 -0.0516777
-0.011237 -0.26628
-0.0111515 -0.264211
-0.00182959 -0.25945
-0.00574469 -0.258996
-0.0112122 -0.0535211
-0.00584043 -0.0713018
-0.0257788 -0.182039
-0.0271383 -0.193967
-0.0297644 -0.23177
-0.0296109 -0.237186
0.00877277 -0.10961
0.0153622 -0.130888
0.0126831 -0.262437
0.015054 -0.262179
0.0307265 -0.233098
0.0286132 -0.241242
0.00283611 -0.124082
0.00136942 -0.116607
0.00562959 -0.262806
0.00620631 -0.264256
-0.00196162 -0.212716
0.00662485 -0.210493
0.0156093 -0.0679555
0.0185556 -0.0644088
-0.00721202 -0.254531
-0.00804866 -0.255595
-0.021269 -0.256795
-0.0170122 -0.261805
-0.021394 -0.257479
-0.0178225 -0.261689
0.0244778 -0.201124
0.0240133 -0.215027
-0.00539731 -0.229518
-0.00772457 -0.217231
-0.00393561 -0.253471
-0.00213901 -0.254013
0.00915513 -0.192176
-0.00341892 -0.191965
0.0118413 -0.118379
0.0156486 -0.148205
0.0224466 -0.206929
0.0229352 -0.218385
-0.00671349 -0.15631
-0.00827335 -0.120505
0.00395606 -0.253145
0.00690918 -0.251726
0.010345 -0.264577
0.0109613 -0.262264
0.0143436 -0.122938
0.013556 -0.127441
0.0199683 -0.258684
0.022297 -0.255956
-0.0226014 -0.17195
-0.0204909 -0.168914
-0.0139412 -0.139832
-0.017275 -0.146096
-0.0240445 -0.252261
-0.0207496 -0.257588
0.0279154 -0.236676
0.0250991 -0.243157
-0.000884012 -0.253934
-0.00108503 -0.253728
0.0132133 -0.264247
0.00959263 -0.26865
0.00263507 -0.253703
0.00251121 -0.253771
-0.000571409 -0.254122
-0.00259822 -0.253842
0.0253695 -0.24635
0.0256664 -0.242613
-0.0239546 -0.0463215
-0.0212149 -0.0560581
0.00999451 -0.261776
0.00697586 -0.263001
-0.00913809 -0.0900074
-0.00562616 -0.100203
0.0231147 -0.215151
0.0259037 -0.214831
-0.0106281 -0.24625
-0.00791472 -0.250237
0.0162557 -0.258601
0.0147801 -0.257883
-0.00482003 -0.0931557
-0.001125 -0.0704836
-0.00872441 -0.185488
-0.000474485 -0.164442
-0.000997814 -0.253075
-0.00242434 -0.253201
-0.0178538 -0.253667
-0.0191883 -0.254564
0.0216086 -0.256998
0.0260527 -0.250101
-0.0105715 -0.210089
-0.00966482 -0.223379
0.0057495 -0.255519
0.00726149 -0.256469
0.0236989 -0.252648
0.018428 -0.260201
-0.0112322 -0.254333
-0.0154914 -0.252439
0.0208647 -0.0432633
0.0238801 -0.040602
0.0347353 -0.221969
0.0335465 -0.227779
0.00278125 -0.253668
-0.0013234 -0.254078
0.0295734 -0.211134
0.0281134 -0.199064
0.00298043 -0.108215
0.00608871 -0.0990687
-0.00104001 -0.109865
-0.00781705 -0.123943
-0.00388965 -0.264838
-0.00106177 -0.266833
0.0084924 -0.0126266
0.0137873 -0.0256863
0.0240881 -0.0389403
0.0212254 -0.0371272
-0.0111968 -0.265429
-0.00753208 -0.266673
-0.0113462 -0.252958
-0.01546 -0.250106
0.022035 -0.171141
0.00435283 -0.17197
-0.00163711 -0.254453
-0.000328816 -0.255
-0.0151258 -0.252284
-0.0142895 -0.251094
-0.0173566 -0.0396479
-0.0172396 -0.0271168
-0.00226451 -0.254067
0.000867972 -0.254363
0.000486646 -0.254671
-0.000391622 -0.25547
-0.0320569 -0.229968
-0.030418 -0.23278
-0.0225038 -0.254577
-0.0204263 -0.257931
-0.0164982 -0.152066
-0.0193927 -0.164543
-0.00107341 -0.227736
0.00229751 -0.236261
0.000245273 -0.254671
0.00287138 -0.25344
0.0101972 -0.254003
0.0143828 -0.252636
0.0141711 -0.04446
0.0122086 -0.0614803
-0.00802223 -0.158646
-0.0134575 -0.17528
0.00785801 -0.0869613
0.00641087 -0.0970625
0.0117739 -0.263523
0.00839964 -0.264351
0.00858917 -0.228583
0.0193872 -0.222086
0.0141347 -0.240288
0.0112573 -0.239866
0.00184675 -0.0685068
0.00457274 -0.0765598
0.00374088 -0.269299
0.00250439 -0.266569
0.0240153 -0.24857
0.0255238 -0.248424
-0.0153493 -0.245535
-0.0187429 -0.243151
-0.0184334 -0.152428
-0.0217393 -0.16329
0.0363558 -0.210581
0.031656 -0.199919
0.00229365 -0.0160313
-0.00256058 -0.0518328
0.0100701 -0.26383
0.0106869 -0.265713
-0.0153994 -0.156917
-0.020506 -0.17163
0.0106075 -0.0473012
0.010026 -0.0313771
-0.0012316 -0.250595
0.000456227 -0.2532
-0.0116152 -0.145146
-0.0174673 -0.162927
-0.0266512 -0.194445
-0.0251298 -0.179858
-0.031843 -0.205785
-0.0293367 -0.195951
0.0211688 -0.0520485
0.0195994 -0.0610075
0.0208032 -0.242728
0.0172531 -0.245384
-0.0117978 -0.240368
-0.00598263 -0.237695
-0.0182279 -0.245161
-0.0142316 -0.248457
-0.010405 -0.0696543
-0.00264998 -0.10447
-0.0292093 -0.243137
-0.0268575 -0.24716
0.00724455 -0.260455
0.00837457 -0.261212
-0.00525045 -0.211918
0.00184757 -0.220728
0.0139466 -0.137852
0.02013 -0.158694
-0.0263819 -0.0304357
-0.0256414 -0.0377954
-0.0217596 -0.174817
-0.0129528 -0.151603
-0.006998 -0.119366
-0.0119562 -0.128802
0.00862108 -0.235667
0.00131717 -0.238433
0.025383 -0.182979
0.017267 -0.162113
-0.00192704 -0.26134
-0.000636363 -0.26044
-0.00181732 -0.265348
-0.0034932 -0.267754
-0.0161135 -0.153531
-0.0203169 -0.168662
-0.0142125 -0.24092
-0.0104944 -0.246458
0.0306412 -0.198717
0.0335698 -0.211129
-0.000589516 -0.260424
-0.00219979 -0.259418
-0.0292988 -0.226607
-0.0271285 -0.229238
-0.0393178 -0.230723
-0.0347901 -0.236083
-0.0142126 -0.06969
-0.0164889 -0.0689044
0.0105075 -0.015385
0.00645971 -0.00942533
0.00786571 -0.058717
0.0126921 -0.043101
0.0139135 -0.264428
0.00917037 -0.268777
-0.00210164 -0.00662652
-0.00268295 -0.0150943
-0.0338709 -0.210543
-0.0299009 -0.196105
0.0124992 -0.115877
0.00682977 -0.0913621
0.0138842 -0.0758547
0.0120177 -0.0830903
0.0254502 -0.250178
0.0327862 -0.238004
0.0263989 -0.248801
0.0297966 -0.243323
-0.0174625 -0.137741
-0.0216269 -0.160119
0.0028653 -0.0665401
-0.00387972 -0.0356228
0.0283206 -0.245953
0.0312409 -0.239239
-0.000260159 -0.2507
0.00144427 -0.246262
0.00825977 -0.188212
-0.00422446 -0.179314
0.0210415 -0.160704
0.0168615 -0.141834
0.0148961 -0.0325267
0.0115399 -0.0379958
0.00520699 -0.238158
0.00467265 -0.245485
0.00817704 -0.0742072
0.0029362 -0.0798977
-0.0241869 -0.17913
-0.01738 -0.15931
-0.0272662 -0.24641
-0.0284692 -0.241495
0.0006735 -0.263944
0.00152776 -0.264567
0.0292615 -0.238632
0.0269229 -0.245865
0.0192143 -0.258813
0.0274983 -0.247116
0.000819679 -0.22197
-0.00379452 -0.23046
0.00723331 -0.00919245
0.0135937 -0.0212566
0.00709598 -0.0696603
0.00873371 -0.0772222
-0.00317208 -0.00971379
-0.00708391 -0.0178331
-0.0224071 -0.256084
-0.02421 -0.253361
0.00282265 -0.115567
0.00980233 -0.132261
-0.0411233 -0.222029
-0.0380173 -0.240751
0.00109159 -0.108388
0.00465675 -0.127254
0.00028673 -0.259909
-0.00345457 -0.259924
-0.00165539 -0.108293
-0.00253584 -0.109212
-0.0199395 -0.253097
-0.0161513 -0.255996
0.00209743 -0.229498
-0.00399726 -0.234897
-0.0165772 -0.0484269
-0.0129575 -0.0470687
-0.0184003 -0.248414
-0.0142358 -0.251527
0.0241119 -0.216733
0.0249321 -0.22479
0.0200743 -0.0536713
0.0183469 -0.0643562
-4.59531e-05 -0.254294
0.000625176 -0.254172
0.0140945 -0.123572
0.0191378 -0.146824
-0.0065247 -0.0385378
-0.003197 -0.0384395
0.0167964 -0.255569
0.0145527 -0.255315
-0.0206172 -0.0201502
-0.0114278 -0.00978894
0.0104318 -0.13441
0.0120934 -0.144742
-0.0177714 -0.260949
-0.0260772 -0.249538
-0.0212661 -0.169518
-0.0181003 -0.147082
-0.0118263 -0.266395
-0.00991082 -0.26597
-0.0237035 -0.242968
-0.026394 -0.236353
-9.44861e-05 -0.254684
0.00023462 -0.254539
-0.00953566 -0.262822
-0.00966581 -0.26467
0.0157916 -0.130489
0.0200257 -0.151954
-0.0168483 -0.254166
-0.0168571 -0.256135
-0.0156721 -0.158938
-0.00970546 -0.143282
-0.0274619 -0.190619
-0.0279929 -0.199348
-0.00679294 -0.249392
-0.0099938 -0.244245
0.00595964 -0.232451
0.0130164 -0.23557
-0.000911662 -0.266691
-0.000926304 -0.264508
-0.00105904 -0.254093
-0.00183311 -0.25404
0.0293336 -0.243651
0.0311214 -0.237436
0.0116235 -0.25046
0.0149439 -0.246902
-0.0273182 -0.205965
-0.0276363 -0.195607
0.0228069 -0.150731
0.00384203 -0.150157
0.0234613 -0.219003
0.0232319 -0.228338
0.00408443 -0.250301
0.00464672 -0.245444
-0.0222221 -0.245477
-0.018431 -0.249307
-0.0135587 -0.258727
-0.0153732 -0.256303
0.0140686 -0.254508
0.0173359 -0.253835
-0.0222401 -0.253442
-0.0211616 -0.252697
0.0121384 -0.25868
0.0120081 -0.260249
-0.032086 -0.233263
-0.029892 -0.241944
-0.000607601 -0.261714
-0.00126691 -0.262427
-0.00731125 -0.239923
-0.0026792 -0.244129
-0.0156436 -0.154525
-0.00838629 -0.136256
0.0270774 -0.209831
0.0345297 -0.194744
-0.0293705 -0.243381
-0.032133 -0.2356
-0.0233698 -0.252167
-0.0197935 -0.256822
-0.00146374 -0.276307
-0.0068622 -0.272531
-0.0236689 -0.237956
-0.0242491 -0.231585
-0.00815203 -0.106872
-0.00633491 -0.11119
0.0278654 -0.215773
0.0266963 -0.205548
0.0284207 -0.193346
0.0303693 -0.207498
-0.00739766 -0.255694
-0.0118162 -0.254185
-0.0329444 -0.201312
-0.0253622 -0.183667
-0.0156038 -0.22929
-0.0113702 -0.238808
0.0140978 -0.253151
0.0128659 -0.252196
0.0266329 -0.248445
0.0258732 -0.249871
0.00244075 -0.0853492
0.00875558 -0.0737878
-0.0274284 -0.186979
-0.0274841 -0.205332
-0.00867749 -0.264945
-0.00876001 -0.263041
0.0122975 -0.239915
0.0164522 -0.234467
-0.0314336 -0.233563
-0.0303536 -0.232297
-0.0177082 -0.252808
-0.0172331 -0.251007
-0.0214319 -0.0472803
-0.0212837 -0.0548776
0.00417947 -0.209597
-0.00221239 -0.197872
-0.0136607 -0.251006
-0.0177333 -0.247338
-0.0205669 -0.248411
-0.0165879 -0.251747
-0.00629447 -0.0121521
-0.00707895 -0.0234523
-0.00104617 -0.15546
0.0032101 -0.183238
0.00412272 -0.186619
0.0089162 -0.164947
0.0025241 -0.0384231
-0.00317412 -0.0668342
-0.00616376 -0.260069
-0.00294778 -0.26079
0.0226822 -0.198901
0.0216641 -0.213645
-0.00602457 -0.0901157
0.00171937 -0.0679883
0.0481061 -0.228035
0.0359236 -0.203642
-0.00160674 -0.252712
-0.000471276 -0.254447
-0.0207856 -0.0212763
-0.0178684 -0.021584
-0.0156952 -0.0517295
-0.0124336 -0.068872
-0.0141849 -0.0665234
-0.0142974 -0.0747131
0.0125428 -0.178136
0.0144036 -0.154208
-0.00774655 -0.247623
-0.00400945 -0.251669
-0.00401052 -0.0675645
-0.00723984 -0.106259
-0.00982435 -0.253912
-0.0136386 -0.253004
0.0267289 -0.184991
0.0268473 -0.190453
0.0435009 -0.218836
0.0347421 -0.203386
0.00263278 -0.120496
0.0104997 -0.141756
0.0219295 -0.255525
0.0185875 -0.258791
-0.00764147 -0.134497
-0.00229411 -0.115814
-0.00374923 -0.262598
-0.00621562 -0.261941
-0.00470842 -0.263056
-0.00305967 -0.262672
-0.0128272 -0.267265
-0.00783758 -0.271591
0.00314035 -0.0481102
-0.00273911 -0.0742205
-0.0273795 -0.241062
-0.0298321 -0.233634
0.0338995 -0.220772
0.0348524 -0.216923
-0.0307342 -0.241445
-0.0317533 -0.237308
-0.0123174 -0.238727
-0.0162299 -0.242396
0.00296742 -0.0596784
-0.00298481 -0.0220581
0.0277419 -0.238842
0.0250531 -0.245444
-0.0115834 -0.236731
-0.0069011 -0.230469
-0.00352587 -0.194509
-0.00682624 -0.209264
-0.00805357 -0.00927904
-0.000574131 -0.000658965
-0.0142219 -0.257056
-0.0119406 -0.256714
0.0263857 -0.249097
0.021414 -0.256987
-0.0318928 -0.20652
-0.0294109 -0.196712
-0.0106129 -0.0865002
-0.00415202 -0.104177
0.0255106 -0.184869
0.0238277 -0.185787
0.0202792 -0.257647
0.0228893 -0.25322
0.0276337 -0.246921
0.0310064 -0.241199
-0.0217996 -0.25703
-0.0254333 -0.25115
-0.00528728 -0.0147174
-0.00127669 -0.00414738
-0.00258592 -0.253988
-0.00130773 -0.254406
0.00939624 -0.211616
0.00380236 -0.203318
0.00934374 -0.272109
0.0125755 -0.26822
-0.00857785 -0.24634
-0.00945373 -0.240321
-0.0257261 -0.250674
-0.0329627 -0.239146
0.00183139 -0.264653
0.00484906 -0.265539
0.00525251 -0.103843
0.0120124 -0.120861
0.0203696 -0.0371975
0.0200856 -0.0268329
-0.0334378 -0.237327
-0.035913 -0.226067
0.0153574 -0.236942
0.0176249 -0.237848
0.0196161 -0.177781
0.0221953 -0.193262
-0.00193327 -0.261559
-0.00461003 -0.261687
-0.0307319 -0.19514
-0.0232841 -0.178718
0.00376978 -0.0543659
0.00705788 -0.0925591
-0.000738577 -0.253802
-0.0036389 -0.252469
0.018232 -0.158886
0.0233584 -0.172718
-0.0263053 -0.0327457
-0.0232007 -0.0307853
0.000363126 -0.0480762
-0.000777047 -0.0574045
-0.00604398 -0.267549
-0.00386177 -0.271618
0.0251854 -0.22997
0.0219899 -0.234178
0.00444896 -0.00419069
0.0127252 -0.0145821
0.000410982 -0.262325
0.000880988 -0.261564
-0.00751342 -0.243379
-0.00459646 -0.248746
0.0118441 -0.226322
0.0156121 -0.216581
-0.00398937 -0.263304
-0.0018417 -0.263842
-0.0253641 -0.043446
-0.0269571 -0.0355842
0.00479264 -0.0424479
0.00499182 -0.0212998
0.00122963 -0.268624
0.00285292 -0.271074
-0.014982 -0.263068
-0.0141035 -0.265405
0.0286465 -0.245248
0.0270671 -0.24849
-0.0160516 -0.263367
-0.0179364 -0.261994
0.0413551 -0.218962
0.0312141 -0.190933
-0.00455101 -0.264164
-0.00481722 -0.266281
0.00908568 -0.111082
0.0125922 -0.122173
-0.0203575 -0.167159
-0.0258471 -0.182372
0.0159408 -0.263789
0.0103726 -0.269938
0.0229909 -0.167869
0.0177075 -0.148603
-0.0250673 -0.0308202
-0.021819 -0.0289549
0.00353127 -0.256895
9.56976e-06 -0.256494
-0.0129888 -0.152096
-0.020404 -0.171401
0.0137248 -0.217644
0.0172136 -0.205634
0.0045726 -0.25456
0.00733493 -0.253129
-0.0281456 -0.230815
-0.0257519 -0.233108
-0.0143099 -0.254493
-0.0113884 -0.257153
0.0229342 -0.25351
0.0197609 -0.256501
-0.0101311 -0.259872
-0.00928588 -0.25883
-0.00713829 -0.140858
-0.0206264 -0.168424
0.020367 -0.16253
0.0168208 -0.161356
-0.0203526 -0.253967
-0.0168446 -0.257417
0.0193771 -0.176599
0.0198138 -0.158543
0.00231353 -0.263081
0.00302227 -0.263562
0.0227911 -0.200937
0.0244353 -0.211621
-0.00565552 -0.0111171
-0.00149199 -0.0036754
-0.021082 -0.157895
-0.0242352 -0.17778
-0.0120011 -0.0396839
-0.00986719 -0.0577577
-0.00332759 -0.219597
0.00397931 -0.224642
-0.00665041 -0.252235
-0.00268181 -0.253876
0.0108713 -0.194169
0.0103188 -0.173656
0.010307 -0.116446
0.0074628 -0.0919517
-0.00129825 -0.253834
0.000667814 -0.254207
0.0208052 -0.207635
0.0163757 -0.203438
-0.016056 -0.0142174
-0.0147256 -0.0147256
-0.006202 -0.267305
-0.00666859 -0.264706
0.0136854 -0.250066
0.0180044 -0.246466
0.00297263 -0.256949
-0.000811861 -0.258084
-0.0127528 -0.258813
-0.00918471 -0.259545
0.000262004 -0.263271
-0.000728676 -0.263105
0.00550714 -0.148388
0.0137488 -0.146215
0.00922024 -0.2591
0.012277 -0.257185
-0.00544773 -0.255692
-0.00180058 -0.256741
-0.0109664 -0.262453
-0.00901516 -0.264817
0.00575762 -0.253547
0.00796055 -0.252117
-0.00268519 -0.0302709
-0.00117958 -0.0051308
0.00169752 -0.262118
0.00108349 -0.261451
0.00260993 -0.261308
0.00550976 -0.26094
-0.0197962 -0.163611
-0.0155775 -0.160693
-0.0042724 -0.2534
-0.00121735 -0.2541
0.00922289 -0.272246
0.011352 -0.26956
-0.00378941 -0.254419
-0.00117574 -0.255247
0.0324569 -0.233397
0.0302926 -0.239253
-0.0222775 -0.0329541
-0.0244361 -0.0291987
0.0268771 -0.248088
0.0219026 -0.254965
0.0264744 -0.216607
0.0250045 -0.227358
0.0275404 -0.209
0.0272868 -0.195489
-0.0193174 -0.157768
-0.0216935 -0.168589
0.0134276 -0.255443
0.0134204 -0.253603
0.00595198 -0.250496
0.00336718 -0.251422
0.010345 -0.250288
0.00669557 -0.252174
-0.0144528 -0.22152
-0.00341923 -0.221091
0.0168566 -0.0203473
0.0223227 -0.0292958
0.0146469 -0.247699
0.0176021 -0.246394
-0.0144424 -0.251492
-0.0108984 -0.252497
-0.022164 -0.245581
-0.0252094 -0.24261
-0.0131253 -0.0792724
-0.00851333 -0.0916834
-0.0295586 -0.240832
-0.0276735 -0.24323
0.00611349 -0.25931
0.00641559 -0.257796
0.0080457 -0.016249
0.0123432 -0.0247225
0.0175747 -0.261695
0.0100935 -0.271133
-0.00854958 -0.269211
-0.0107194 -0.265597
-0.0160706 -0.131618
-0.0170888 -0.143471
3.0204e-05 -0.263369
0.000463716 -0.263471
-0.00151676 -0.0957863
-0.00325676 -0.0806393
-0.0257242 -0.181769
-0.0286142 -0.194664
-0.00324976 -0.264615
-0.00159803 -0.267121
0.00283047 -0.0733819
0.00894927 -0.0596136
-0.00705203 -0.00784179
-0.00803888 -0.00742485
-0.0176786 -0.156585
-0.0109157 -0.136139
-0.000690823 -0.0012487
-0.000438375 -0.000522088
0.0391179 -0.230918
0.0373911 -0.227383
-0.00415239 -0.0884191
0.00248532 -0.109951
0.0261433 -0.207458
0.0200386 -0.219543
-0.0312622 -0.217522
-0.0312581 -0.227483
-0.00344549 -0.257808
-0.000105178 -0.256801
0.0304655 -0.235651
0.0318416 -0.226486
-0.0324081 -0.210387
-0.0298317 -0.198099
0.00326444 -0.106367
0.00594796 -0.100163
-0.00355209 -0.248227
-0.00319476 -0.252139
0.0103026 -0.269473
0.00609903 -0.272279
0.000730685 -0.260984
-3.53185e-05 -0.260031
0.0256644 -0.245974
0.0222552 -0.25056
-0.00248209 -0.254004
-0.000363678 -0.254286
0.0035159 -0.253563
0.00537192 -0.252776
-0.00845649 -0.260267
-0.00510975 -0.261071
0.0318023 -0.22937
0.0304851 -0.238117
0.0232101 -0.252828
0.0195808 -0.257826
0.0152762 -0.0733588
0.0153681 -0.0726176
-0.0185975 -0.0271848
-0.021551 -0.0374289
0.0228745 -0.254539
0.0255831 -0.249429
-0.0205737 -0.25564
-0.0170461 -0.259531
0.0196876 -0.172735
0.0339697 -0.151184
-0.0314499 -0.219693
-0.0303817 -0.209676
-0.0050032 -0.0945409
0.0027412 -0.114814
-0.00158519 -0.25369
0.000515778 -0.254195
-0.00470359 -0.0488938
0.000329255 -0.0715337
-0.0103823 -0.0817408
-0.0132303 -0.065954
0.0244977 -0.251074
0.0210883 -0.256489
-0.0148708 -0.25642
-0.0129319 -0.258794
-0.0285498 -0.192188
-0.0326862 -0.205604
0.0131839 -0.0661984
0.0193419 -0.0569157
-0.00731119 -0.113309
-0.000188133 -0.0963409
0.0242281 -0.251914
0.0276168 -0.245521
0.0231938 -0.0350967
0.0224624 -0.0466934
0.011009 -0.0841066
0.0162436 -0.0671591
0.0200697 -0.25897
0.0259107 -0.250393
0.0224293 -0.16579
0.0338018 -0.1992
0.0247463 -0.176575
0.022213 -0.165337
0.0271975 -0.227415
0.024395 -0.234837
-0.0305468 -0.203108
-0.0306991 -0.211756
-0.00022436 -0.255749
0.000598811 -0.256841
0.0207345 -0.163076
0.0238467 -0.175455
0.0200269 -0.032295
0.0201052 -0.0452948
0.000481808 -0.263426
0.0011056 -0.263102
-0.011339 -0.261604
-0.0148728 -0.260099
-0.0197663 -0.201414
-0.014997 -0.212487
-0.0189887 -0.15006
-0.0215486 -0.172512
-0.00780917 -0.263432
-0.00647384 -0.265467
-0.00228089 -0.0972658
0.00254066 -0.0750061
-0.0115224 -0.0597136
-0.0142994 -0.0422584
0.0028823 -0.262367
0.00526803 -0.261906
-0.003846 -0.0726921
-0.00728161 -0.106105
-0.0285334 -0.246005
-0.0338965 -0.234671
-0.000724113 -0.255292
0.00400288 -0.25465
0.00333044 -0.11169
0.00892216 -0.122207
-0.0111235 -0.103346
-0.0179137 -0.146165
0.00603631 -0.0854819
0.00727384 -0.0946147
0.0206119 -0.246359
0.0240249 -0.243384
0.0126673 -0.259996
0.0152439 -0.259763
0.0276653 -0.187981
0.0216269 -0.169745
-0.00254932 -0.249799
-0.00230327 -0.253126
0.0177327 -0.26138
0.017552 -0.260299
-0.00563398 -0.262635
-0.00805038 -0.263024
-0.0100581 -0.242686
-0.0119964 -0.234988
0.00488138 -0.0140451
0.00442242 -0.0236818
-0.00667385 -0.259925
-0.00365022 -0.260827
0.0167293 -0.263295
0.0169195 -0.262484
-0.0113203 -0.257406
-0.0116886 -0.25551
-0.0265429 -0.184824
-0.0301458 -0.200203
0.0170147 -0.258127
0.0147101 -0.261267
-0.0280526 -0.24505
-0.0256377 -0.248954
0.00186677 -0.258104
-0.00047785 -0.257062
-0.0229716 -0.231218
-0.0253082 -0.231288
0.0215405 -0.249771
0.0179755 -0.252158
0.001924 -0.253448
0.00250221 -0.251968
0.0307198 -0.196945
0.0232977 -0.177733
0.0203162 -0.258648
0.0197194 -0.259533
-0.0217536 -0.254798
-0.0219759 -0.252687
0.00587124 -0.0898594
-0.000624117 -0.110928
-0.019388 -0.259087
-0.0175096 -0.262151
-0.0273667 -0.033249
-0.0258712 -0.0410653
0.00855696 -0.0978632
0.0034464 -0.0744505
0.0312571 -0.216948
0.0312879 -0.207859
-0.000590977 -0.254366
-0.00214941 -0.252613
0.00461819 -0.236638
0.00383839 -0.228032
-0.00179308 -0.106346
-0.00873722 -0.0857359
0.0167729 -0.259759
0.0152767 -0.262733
-0.0126248 -0.11861
-0.00715328 -0.0913102
0.00659234 -0.26476
0.0100613 -0.263445
0.00208419 -0.252771
0.000272116 -0.254498
0.0170859 -0.252972
0.0202225 -0.251828
0.0215816 -0.24816
0.0212747 -0.251162
0.0231162 -0.244027
0.0262512 -0.240276
-0.00345441 -0.187337
-0.000787868 -0.205183
-0.0294554 -0.242374
-0.0319434 -0.23556
0.0188941 -0.145814
0.0196585 -0.161635
0.00769361 -0.269957
0.00945466 -0.266392
0.0301993 -0.204244
0.0310668 -0.203747
-0.0100898 -0.0106085
-0.00105246 -0.00103725
0.0192046 -0.0249732
0.0229451 -0.0259723
-0.0060105 -0.252877
-0.00277902 -0.253807
-0.00140171 -0.263267
-0.000286364 -0.263504
0.017994 -0.0217864
0.0116352 -0.0137773
0.0287274 -0.214827
0.0290349 -0.203594
0.00856789 -0.245297
0.00363767 -0.244477
0.0228729 -0.0476576
0.021048 -0.0435385
0.000462275 -0.248771
-0.000324678 -0.252711
0.000688669 -0.26231
0.00177274 -0.262632
0.0140145 -0.251688
0.00974643 -0.253288
0.0297733 -0.198331
0.0273804 -0.187296
-0.0254646 -0.25061
-0.0283511 -0.243784
0.00762294 -0.115137
0.0142098 -0.135288
0.0282634 -0.153495
0.0256443 -0.176361
-0.0213681 -0.243661
-0.019176 -0.243836
-0.028741 -0.192926
-0.0307474 -0.200042
0.0344471 -0.224289
0.0351886 -0.227105
0.0382139 -0.211702
0.0399695 -0.230823
-0.00797779 -0.082267
-0.00204086 -0.102607
-0.02771 -0.227663
-0.0270314 -0.220533
-0.0254419 -0.181189
-0.0226686 -0.175511
0.0146024 -0.155117
0.0181563 -0.165197
0.0146931 -0.131748
0.00796744 -0.112506
0.00259684 -0.262898
0.00377893 -0.263242
-0.014196 -0.260846
-0.0146704 -0.258924
-0.00121683 -0.265308
-0.00263404 -0.267989
0.0123875 -0.259899
0.00955662 -0.260031
-0.0101235 -0.256152
-0.00621954 -0.256396
-0.0132595 -0.265894
-0.0121292 -0.265192
-0.00276506 -0.172385
-0.00835868 -0.139996
0.00320857 -0.03152
0.00138236 -0.00766253
-0.00182489 -0.240132
-0.00423364 -0.245026
0.0263244 -0.219419
0.0283488 -0.221694
0.0101068 -0.256646
0.00896085 -0.258512
0.0237068 -0.046719
0.0265243 -0.0400511
-0.0266822 -0.187396
-0.0260952 -0.191376
-0.0329387 -0.235019
-0.029112 -0.245006
-0.00038071 -0.264032
-0.00181708 -0.263728
-0.0144136 -0.237749
-0.0151573 -0.228772
-0.0286877 -0.203056
-0.0274534 -0.190638
0.00420775 -0.263372
0.00284194 -0.262936
0.00807337 -0.0162679
0.0105594 -0.0327277
0.0237109 -0.176097
0.0180992 -0.158259
0.0219415 -0.254883
0.0305628 -0.243258
0.0196622 -0.259588
0.0147663 -0.265597
-0.000825441 -0.233224
0.00346376 -0.23984
0.0176973 -0.251862
0.0160071 -0.254892
0.00118662 -0.226516
0.000462064 -0.236262
-0.00140039 -0.237093
0.00531818 -0.233499
-0.0213328 -0.256616
-0.0204721 -0.258408
0.00595883 -0.253432
0.00402289 -0.253542
-0.00552115 -0.105816
-0.0119333 -0.122857
0.0052758 -0.107755
0.0103168 -0.128317
0.00195853 -0.261741
0.00302564 -0.262193
-0.0244502 -0.228393
-0.0215386 -0.229908
0.00747472 -0.261356
0.006656 -0.262532
-0.00721929 -0.251692
-0.00612516 -0.252898
0.0344168 -0.225046
0.0331444 -0.226495
0.0199999 -0.153487
0.0143465 -0.134732
0.0197691 -0.0361271
0.0175805 -0.0503615
0.0260193 -0.247492
0.0259311 -0.244941
-0.0288746 -0.238217
-0.0277831 -0.243982
0.0108741 -0.00879869
0.0171642 -0.0175819
-0.0225531 -0.21215
-0.0236721 -0.196978
-0.029049 -0.193502
-0.024595 -0.177961
0.018118 -0.233776
0.02015 -0.224186
-0.0134135 -0.19389
-0.00688891 -0.187676
0.0262793 -0.223163
0.0235381 -0.224503
0.0252252 -0.247827
0.0245036 -0.246186
-0.0197664 -0.167601
-0.0229863 -0.157208
-0.0207118 -0.172049
-0.0172763 -0.163118
0.0109854 -0.234222
0.0144425 -0.22486
-0.013338 -0.264499
-0.0139411 -0.262202
-0.0163084 -0.228416
-0.0123234 -0.218882
-0.0139279 -0.267044
-0.00635322 -0.275952
0.0167076 -0.202727
0.00332721 -0.204568
-0.0244325 -0.185756
-0.0223804 -0.192155
-0.0210137 -0.252448
-0.0238536 -0.250273
-0.00837314 -0.236519
-0.00152427 -0.234401
0.0065008 -0.252348
0.00344429 -0.253454
0.0137296 -0.260935
0.0117272 -0.263797
0.016571 -0.0378065
0.0145876 -0.0239437
0.00550573 -0.0943935
0.00338875 -0.106939
-0.0102991 -0.25036
-0.00970774 -0.249524
0.0239766 -0.173248
0.0249792 -0.17869
0.0232891 -0.214204
0.0230442 -0.224848
-0.0186983 -0.26125
-0.024093 -0.253556
-0.0105953 -0.263415
-0.00855514 -0.266212
0.0289266 -0.244344
0.0283026 -0.244234
0.0257327 -0.188395
0.0230946 -0.170258
-0.0110752 -0.235892
-0.00735079 -0.22829
0.0354169 -0.213311
0.0305055 -0.197041
0.0108022 -0.137262
0.0190317 -0.104437
-0.00752234 -0.274606
-0.00884643 -0.27282
-0.00417947 -0.263469
-0.00312855 -0.262885
0.0156287 -0.159515
0.0184447 -0.178799
0.012159 -0.120726
0.014149 -0.122423
-0.00837881 -0.273627
-0.00611435 -0.276032
0.0180604 -0.261131
0.0141434 -0.264756
0.00420728 -0.255144
0.00271004 -0.256509
-0.00751132 -0.0916299
-0.00132051 -0.068071
-0.0162638 -0.133156
-0.0188641 -0.144895
-0.0252014 -0.25089
-0.02726 -0.245538
-0.0205684 -0.160754
-0.019152 -0.159577
-0.0367184 -0.234075
-0.02617 -0.251394
-0.0206899 -0.255162
-0.0220137 -0.251811
0.0139217 -0.204069
0.0158908 -0.185734
0.00471884 -0.275415
0.00332136 -0.274808
0.0355851 -0.21882
0.0343955 -0.220945
0.00899502 -0.25431
0.00492346 -0.254878
0.0310378 -0.241257
0.0344021 -0.23206
-0.0108952 -0.212707
-0.00431609 -0.211457
0.0152389 -0.231347
0.0226112 -0.22018
0.00218679 -0.0130952
0.000162144 -0.0469971
0.00126743 -0.264519
0.00107587 -0.268006
-0.0161943 -0.250297
-0.0171293 -0.251582
0.0180507 -0.16491
0.0259914 -0.184832
-0.0214966 -0.0544226
-0.0206424 -0.0564011
-0.0155914 -0.157789
-0.0150984 -0.15288
-0.00243072 -0.00275596
-0.000803922 -0.000742373
-0.0271138 -0.18817
-0.0291227 -0.201864
-0.00167305 -0.254151
-0.000195656 -0.254945
-0.00173314 -0.247779
-0.00207038 -0.251861
-0.0101181 -0.235207
-0.00388388 -0.230246
-0.0248011 -0.0327886
-0.0266178 -0.0294741
0.0102943 -0.0743554
0.00816986 -0.0888461
0.0098728 -0.238271
0.0102983 -0.229571
-0.00125181 -0.245155
0.00150193 -0.249361
0.0306204 -0.196752
0.0277289 -0.18812
0.000980426 -0.253822
0.00134068 -0.251079
0.0159038 -0.0365189
0.0196075 -0.0360427
0.0156919 -0.0202445
0.00982663 -0.0127369
0.00184755 -0.00161707
0.00955323 -0.0080333
0.0371597 -0.213665
0.0354928 -0.213167
-0.00848274 -0.230762
-0.0123616 -0.234038
0.00119995 -0.0686178
-0.00461176 -0.0412683
-0.00302465 -0.277157
-0.00587349 -0.27281
-0.00747691 -0.090192
-0.00107803 -0.0653404
0.0140102 -0.0774575
0.0118243 -0.0806891
-0.00489309 -0.240541
0.000141319 -0.241199
0.0347519 -0.218303
0.0340244 -0.226518
0.00851286 -0.273058
0.0148455 -0.265656
0.0169151 -0.137023
0.0213961 -0.1594
-0.0150891 -0.0653837
-0.0140162 -0.056243
0.00412475 -0.272484
0.00890996 -0.26781
-0.0215405 -0.256046
-0.0211809 -0.257513
0.0177091 -0.14769
0.0149206 -0.154624
-0.0234585 -0.179027
-0.0205866 -0.170439
0.0066817 -0.0115057
0.0113952 -0.0195322
-0.000871397 -0.261984
-0.00276473 -0.262351
-0.0015134 -0.0820864
-0.0061231 -0.0845737
-0.0194876 -0.222643
-0.023153 -0.22091
-0.000209049 -0.247046
-0.00430529 -0.246269
0.00124872 -0.25299
0.0037438 -0.250094
0.00675442 -0.260785
0.00695695 -0.261721
0.0168265 -0.0569878
0.020515 -0.0431756
0.0221529 -0.164406
0.0262095 -0.1826
0.0151499 -0.129108
0.011331 -0.115559
-0.0148558 -0.258578
-0.0128969 -0.260881
-0.00809489 -0.249075
-0.00939425 -0.244391
-0.0302951 -0.198282
-0.0258356 -0.182418
-0.0190917 -0.259958
-0.0230168 -0.254362
0.00771669 -0.157529
-0.0017955 -0.176826
-0.0108764 -0.24321
-0.0133214 -0.243778
-0.00495047 -0.245623
-0.00883528 -0.240677
-0.00325031 -0.253835
-0.00755853 -0.252428
-0.00065643 -0.261007
0.00245188 -0.260813
0.00472089 -0.253628
0.00677435 -0.253666
0.0265747 -0.184332
0.0301451 -0.197926
0.00292056 -0.0197389
-0.0016726 -0.0371448
0.0175569 -0.0198317
0.0225885 -0.0296338
0.00172265 -0.261871
0.00251062 -0.262371
0.0251419 -0.181002
0.026591 -0.184803
-0.00351889 -0.125418
-0.0117671 -0.147743
-0.00490313 -0.248443
-0.0023831 -0.252259
-0.00621357 -0.255472
-0.0100746 -0.25514
-0.0102483 -0.100974
-0.00338946 -0.074415
-0.00395716 -0.0939042
0.00302374 -0.108248
-0.000671748 -0.263629
-0.00171978 -0.263173
0.000607412 -0.254024
-6.78108e-05 -0.254544
-0.00394867 -0.261954
-0.00143079 -0.262178
0.000864531 -0.109348
0.004825 -0.0991613
0.0242366 -0.169082
0.0217492 -0.137153
0.000354988 -0.263336
0.00101132 -0.263269
0.0108079 -0.248982
0.00715119 -0.252049
0.006963 -0.273872
0.0127778 -0.267923
-0.044536 -0.225292
-0.0353409 -0.204797
-0.0140051 -0.155042
-0.00621392 -0.133601
0.00251028 -0.00516696
0.00506881 -0.00706692
-0.0239737 -0.252631
-0.0340624 -0.239158
0.0312142 -0.239316
0.0323533 -0.2343
0.00374816 -0.262111
0.00188446 -0.262683
0.0278631 -0.246519
0.0294177 -0.243645
-0.0212143 -0.0527395
-0.0242648 -0.0410207
0.0199765 -0.220584
0.0157495 -0.225798
0.00210515 -0.276298
0.006888 -0.270818
0.0239247 -0.177775
0.0285038 -0.190747
0.00553177 -0.128412
0.00443367 -0.128626
-6.2282e-05 -0.254946
-0.000352594 -0.254192
0.00447442 -0.256649
0.00872034 -0.255194
0.0193162 -0.241175
0.0152836 -0.24577
0.00445709 -0.248411
0.00788257 -0.243196
-0.0222849 -0.255794
-0.027141 -0.24821
0.00536224 -0.238366
0.0102338 -0.236188
-0.0134257 -0.267695
-0.0193825 -0.26035
-0.011061 -0.237352
-0.0111093 -0.243312
0.0243928 -0.0470273
0.0221209 -0.0487986
0.0117034 -0.251713
0.0161288 -0.248867
-0.00298132 -0.262669
-0.00508592 -0.262862
-0.0195141 -0.169022
-0.0247046 -0.181659
-0.0261894 -0.0349112
-0.0232061 -0.0325983
0.00438137 -0.0430041
0.00792722 -0.0380798
0.019569 -0.230553
0.0178937 -0.238075
0.0033308 -0.249312
0.00701221 -0.244819
0.0329148 -0.207674
0.0345474 -0.220634
0.012925 -0.252136
0.00874976 -0.253465
0.00931881 -0.139353
0.014638 -0.155638
0.00710664 -0.089436
0.00507768 -0.0805436
0.0160625 -0.158847
0.00726808 -0.134424
0.000312249 -0.262066
0.00168546 -0.261286
0.0103491 -0.133102
0.0196237 -0.143996
0.00722706 -0.268499
0.00449546 -0.27285
0.00256226 -0.121319
-0.00507169 -0.101298
0.0132205 -0.151325
0.00761699 -0.13748
-0.00707178 -0.128644
-0.0034994 -0.112195
0.0208442 -0.0526196
0.0208159 -0.0578318
-0.0229655 -0.255088
-0.0165793 -0.263365
-0.0117065 -0.0117229
-0.015179 -0.0135221
0.0266285 -0.185706
0.0201668 -0.163865
-0.0143019 -0.0260688
-0.0180802 -0.0353828
0.0100552 -0.0635752
0.0107661 -0.0480261
-0.00153456 -0.254067
0.000137471 -0.254127
0.00514369 -0.0696457
-0.0160873 -0.0772593
0.012863 -0.267918
0.0119301 -0.268634
-0.0243334 -0.0410128
-0.0267077 -0.0383659
-0.0328739 -0.226021
-0.0314185 -0.235471
-0.00253219 -0.253855
0.000858581 -0.25405
0.0186505 -0.0230541
0.0234992 -0.0280482
0.00362208 -0.0039989
0.00572371 -0.00775081
-0.00873158 -0.254966
-0.0126372 -0.254217
-0.00900316 -0.00807271
-0.0178774 -0.0172764
0.00910806 -0.272338
0.0110921 -0.269687
0.0302966 -0.241594
0.026217 -0.249952
-0.0167766 -0.260321
-0.0171237 -0.258326
0.00507551 -0.260931
0.00525241 -0.259832
-0.00989652 -0.261744
-0.00698617 -0.262943
0.0124157 -0.24814
0.0132347 -0.245132
0.00228585 -0.253797
0.00344431 -0.253361
0.0157594 -0.0217423
0.017743 -0.0329486
-0.00248926 -0.057864
-0.00698034 -0.0357578
0.0277199 -0.243339
0.0271436 -0.241031
0.000445692 -0.262982
0.000155252 -0.263408
-0.00230491 -0.254021
0.000952662 -0.254214
-0.000952125 -0.218414
0.00689005 -0.215566
0.0175149 -0.0390704
0.0164397 -0.0543495
-0.00179678 -0.263467
-0.00238821 -0.26286
0.010604 -0.138107
0.0136211 -0.141217
-0.0084615 -0.0490907
-0.00918959 -0.0307809
0.0282705 -0.246007
0.0286293 -0.245206
-0.018845 -0.255271
-0.0151974 -0.258052
0.00111524 -0.119436
0.00919163 -0.141382
0.0154938 -0.0696296
0.0284215 -0.120461
-0.0180201 -0.248832
-0.0143048 -0.250772
-0.0306866 -0.230308
-0.0285571 -0.236491
0.00703516 -0.252884
0.00545185 -0.252959
-0.00567148 -0.0879465
-0.00388586 -0.128322
0.00302625 -0.253574
-0.000239559 -0.254153
0.00944982 -0.0825512
0.015016 -0.0647701
0.0378654 -0.171452
0.0247549 -0.13851
-0.00220785 -0.263618
-0.00463458 -0.26325
0.0107059 -0.197068
0.0161524 -0.210834
0.0225294 -0.166596
0.0231737 -0.169143
-0.0137066 -0.266355
-0.0174564 -0.261339
-0.000711401 -0.253739
0.000556727 -0.254372
0.00993911 -0.211048
0.0140716 -0.222978
-0.00374446 -0.253143
-0.00196983 -0.253628
-0.00471573 -0.0980815
-0.00592811 -0.0992562
-0.00347279 -0.247307
0.000359383 -0.248552
-0.0111209 -0.250376
-0.0153592 -0.24694
-0.0192365 -0.243816
-0.0151884 -0.247949
0.0312941 -0.228782
0.0320894 -0.218715
0.000708804 -0.240995
0.00307866 -0.23215
-0.00428809 -0.0195221
-0.0014691 -0.0241517
0.0133764 -0.251111
0.0176161 -0.248445
-0.0117317 -0.0811825
-0.00479209 -0.0992732
0.0108512 -0.115025
0.0130297 -0.116467
-0.0145841 -0.264391
-0.0112042 -0.266297
0.00448462 -0.261894
0.00266109 -0.262595
-0.026419 -0.199421
-0.0251766 -0.183752
0.0122831 -0.0272154
0.0159663 -0.034407
6.03924e-05 -0.254068
0.00336684 -0.253807
-0.00795641 -0.260823
-0.0063776 -0.261998
-0.0300256 -0.19646
-0.0345482 -0.212176
-0.00479356 -0.236844
-0.00142314 -0.243462
-0.00312769 -0.262976
-0.00571426 -0.26272
-0.00334003 -0.262972
-0.00598197 -0.262627
0.0227373 -0.167655
0.0190236 -0.146028
0.0314717 -0.197004
0.0401178 -0.214654
-0.00483452 -0.253079
-0.00219637 -0.253987
0.00933559 -0.269101
0.00770694 -0.268353
0.00833536 -0.10339
0.0142932 -0.126812
-0.0099902 -0.263636
-0.0129572 -0.263294
0.0276106 -0.238193
0.0290523 -0.238345
0.0283364 -0.217967
0.0286011 -0.226935
-0.0317394 -0.228058
-0.0306059 -0.236944
0.0142729 -0.233583
0.0117327 -0.241478
0.000834294 -0.263378
0.00174157 -0.263136
-0.0194588 -0.184254
-0.0231281 -0.191303
0.0274014 -0.0350418
0.0249231 -0.033474
0.019384 -0.0567913
0.0167014 -0.0688846
-0.00696508 -0.242554
-0.0110915 -0.241037
-0.00850989 -0.251287
-0.0116154 -0.2499
-0.00321798 -0.262328
-0.0056548 -0.26239
-0.016032 -0.0180817
-0.0137271 -0.018511
-0.00895605 -0.137067
-0.00506687 -0.130374
0.036199 -0.223658
0.0335227 -0.236004
-0.0187327 -0.257525
-0.0194161 -0.255077
-0.0270643 -0.23179
-0.0291966 -0.224466
-0.0188006 -0.247604
-0.0223215 -0.242371
-0.0108359 -0.250879
-0.0131657 -0.24779
0.0236404 -0.25315
0.0220652 -0.254796
-0.00985095 -0.25763
-0.0139471 -0.25596
0.0221657 -0.199677
0.0145509 -0.181037
-0.00620574 -0.0485608
-0.00513789 -0.0355519
-0.00857596 -0.118987
-0.0183692 -0.136854
0.00176408 -0.111913
-0.0031335 -0.124147
0.0102944 -0.0766773
0.00395838 -0.0966632
-0.0247906 -0.177676
-0.0202886 -0.159166
-0.0291972 -0.210434
-0.0298559 -0.220727
0.0322024 -0.217848
0.0330309 -0.22301
-0.0109171 -0.253311
-0.01013 -0.25511
-0.00614299 -0.263864
-0.00328751 -0.263786
-0.0246957 -0.223616
-0.0254094 -0.212275
-0.0318318 -0.2406
-0.0344961 -0.232273
-0.000238754 -0.255014
9.89761e-05 -0.254783
0.0327809 -0.22388
0.0337942 -0.225234
0.000546197 -0.255607
0.000138942 -0.254825
-0.0157251 -0.151205
-0.0131557 -0.124198
-0.033405 -0.235341
-0.0308101 -0.241273
-0.0207985 -0.258113
-0.0269555 -0.24882
-0.00343144 -0.0608508
0.00661287 -0.0870354
0.00289339 -0.0979671
-0.00336789 -0.0750652
-0.0250579 -0.251897
-0.0294735 -0.244453
0.00661467 -0.275097
0.0104037 -0.270843
-4.59332e-05 -0.112505
-0.0029352 -0.0721163
-0.0171927 -0.163157
-0.0167356 -0.161847
-0.0332642 -0.24002
-0.0378068 -0.226544
-0.0120972 -0.200342
-0.00691034 -0.213213
-0.013507 -0.0163268
-0.0193431 -0.0226959
0.0139582 -0.0414601
0.013379 -0.025894
-0.013139 -0.266282
-0.016819 -0.263096
0.0247344 -0.223035
0.0263577 -0.227242
0.0148444 -0.147997
0.0216656 -0.16841
-0.00197463 -0.254081
-0.00350679 -0.253698
-0.0332637 -0.207225
-0.0322029 -0.20605
0.0229866 -0.252185
0.0234808 -0.253157
0.0107149 -0.259297
0.00844011 -0.258888
-0.0171206 -0.0414069
-0.0171561 -0.0280468
0.00162532 -0.253027
0.00357778 -0.24912
0.00376539 -0.265901
0.00591904 -0.267529
-0.00306372 -0.263527
-0.00539572 -0.262896
-0.000168693 -0.254927
-0.00150535 -0.254351
-0.0143942 -0.191246
-0.0180349 -0.202394
-0.00246342 -0.253764
-0.00151405 -0.252666
0.00224492 -0.00320392
0.00884767 -0.0173792
-0.0374746 -0.204587
-0.0240019 -0.172265
0.0319199 -0.228667
0.0310023 -0.226138
-0.00726673 -0.241645
-0.00663109 -0.247602
0.00478233 -0.255851
0.00931103 -0.254701
0.00950711 -0.251935
0.0139003 -0.249039
-0.0103636 -0.259795
-0.00858441 -0.259128
-0.000800923 -0.0590137
-0.000607262 -0.0667229
-0.0209114 -0.204194
-0.00951854 -0.192405
-0.00488633 -0.269863
-0.00989891 -0.27085
-0.00989891 -0.27085
-0.0151707 -0.272141
-0.0151707 -0.272141
-0.0205818 -0.273836
-0.0205818 -0.273836
-0.0260263 -0.275993
-0.0260263 -0.275993
-0.0314237 -0.27859
-0.0314237 -0.27859
-0.0366761 -0.281624
-0.0366761 -0.281624
-0.0417051 -0.285069
-0.0417051 -0.285069
-0.0464405 -0.288885
-0.0464405 -0.288885
-0.0508178 -0.293026
-0.0508178 -0.293026
-0.054793 -0.297436
-0.054793 -0.297436
-0.0583256 -0.302051
-0.0583256 -0.302051
-0.0613921 -0.30681
-0.0613921 -0.30681
-0.0639822 -0.311645
-0.0639822 -0.311645
-0.066081 -0.316484
-0.066081 -0.316484
-0.067708 -0.321286
-0.067708 -0.321286
-0.0688778 -0.325976
-0.0688778 -0.325976
-0.0696102 -0.330507
-0.0696102 -0.330507
-0.0699418 -0.334847
-0.0699418 -0.334847
-0.0699024 -0.33894
-0.0699024 -0.33894
-0.0695385 -0.342769
-0.0695385 -0.342769
-0.0688803 -0.346321
-0.0688803 -0.346321
-0.0679678 -0.34957
-0.0679678 -0.34957
-0.0668477 -0.352515
-0.0668477 -0.352515
-0.0655433 -0.355161
-0.0655433 -0.355161
-0.0640776 -0.357525
-0.0640776 -0.357525
-0.0624816 -0.359592
-0.0624816 -0.359592
-0.0607797 -0.361384
-0.0607797 -0.361384
-0.0589579 -0.362942
-0.0589579 -0.362942
-0.0570135 -0.364252
-0.0570135 -0.364252
-0.0549748 -0.36532
-0.0549748 -0.36532
-0.0528077 -0.366127
-0.0528077 -0.366127
-0.0504702 -0.366731
-0.0504702 -0.366731
-0.0479653 -0.367109
-0.0479653 -0.367109
-0.0452812 -0.367165
-0.0452812 -0.367165
-0.042329 -0.366921
-0.042329 -0.366921
-0.0391103 -0.366397
-0.0391103 -0.366397
-0.0356065 -0.365456
-0.0356065 -0.365456
-0.0317709 -0.363924
-0.0317709 -0.363924
-0.0275782 -0.361847
-0.0275782 -0.361847
-0.0230425 -0.359118
-0.0230425 -0.359118
-0.0181333 -0.355424
-0.0181333 -0.355424
-0.0128977 -0.350651
-0.0128977 -0.350651
-0.00736777 -0.344591
-0.00736777 -0.344591
-0.00148396 -0.336797
-0.00148396 -0.336797
0.0044676 -0.326746
0.0044676 -0.326746
0.0105838 -0.313897
0.0105838 -0.313897
0.0167692 -0.29637
0.0167692 -0.29637
0.0232296 -0.273531
0.0232296 -0.273531
0.0321802 -0.248852
0.0321802 -0.248852
0.0374813 -0.236876
0.0374813 -0.236876
0.0378443 -0.232603
0.0378443 -0.232603
0.0368168 -0.230988
0.0368168 -0.230988
0.0357378 -0.230933
0.0357378 -0.230933
0.0346073 -0.231985
0.0346073 -0.231985
0.0336627 -0.233786
0.0336627 -0.233786
0.0325752 -0.236263
0.0325752 -0.236263
0.0311664 -0.239262
0.0311664 -0.239262
0.0297208 -0.242679
0.0297208 -0.242679
0.0281323 -0.246181
0.0281323 -0.246181
0.0262809 -0.249527
0.0262809 -0.249527
0.0241613 -0.252627
0.0241613 -0.252627
0.02193 -0.255501
0.02193 -0.255501
0.0196248 -0.258062
0.0196248 -0.258062
0.0172354 -0.260289
0.0172354 -0.260289
0.0148236 -0.262207
0.0148236 -0.262207
0.012412 -0.26383
0.012412 -0.26383
0.0100066 -0.265168
0.0100066 -0.265168
0.00757186 -0.266279
0.00757186 -0.266279
0.0050797 -0.267202
0.0050797 -0.267202
0.00245631 -0.268029
0.00245631 -0.268029
-0.000682641 -0.26889
-0.000682641 -0.26889
-0.00488633 -0.269863
0.039191 -0.366717
0.0424005 -0.367239
0.0424005 -0.367239
0.0453495 -0.367469
0.0453495 -0.367469
0.0480309 -0.367419
0.0480309 -0.367419
0.0505255 -0.367057
0.0505255 -0.367057
0.052854 -0.366458
0.052854 -0.366458
0.0550164 -0.36566
0.0550164 -0.36566
0.0570422 -0.364599
0.0570422 -0.364599
0.0589778 -0.363305
0.0589778 -0.363305
0.0607939 -0.361752
0.0607939 -0.361752
0.0624897 -0.359965
0.0624897 -0.359965
0.0640783 -0.357907
0.0640783 -0.357907
0.0655368 -0.355551
0.0655368 -0.355551
0.066838 -0.352912
0.066838 -0.352912
0.0679535 -0.34998
0.0679535 -0.34998
0.0688616 -0.34675
0.0688616 -0.34675
0.0695173 -0.343196
0.0695173 -0.343196
0.0698835 -0.339383
0.0698835 -0.339383
0.0699218 -0.335322
0.0699218 -0.335322
0.0695982 -0.330994
0.0695982 -0.330994
0.0688623 -0.326463
0.0688623 -0.326463
0.0676974 -0.321786
0.0676974 -0.321786
0.0660781 -0.317004
0.0660781 -0.317004
0.0639787 -0.312172
0.0639787 -0.312172
0.0613999 -0.307347
0.0613999 -0.307347
0.0583453 -0.30261
0.0583453 -0.30261
0.0548172 -0.298002
0.0548172 -0.298002
0.0508571 -0.293608
0.0508571 -0.293608
0.0464901 -0.289479
0.0464901 -0.289479
0.0417701 -0.285671
0.0417701 -0.285671
0.0367583 -0.282235
0.0367583 -0.282235
0.0315235 -0.279203
0.0315235 -0.279203
0.0261551 -0.276615
0.0261551 -0.276615
0.0207221 -0.27447
0.0207221 -0.27447
0.0153503 -0.272775
0.0153503 -0.272775
0.0101069 -0.27148
0.0101069 -0.27148
0.0051661 -0.270483
0.0051661 -0.270483
0.000976602 -0.269531
0.000976602 -0.269531
-0.00214646 -0.268665
-0.00214646 -0.268665
-0.0048029 -0.267843
-0.0048029 -0.267843
-0.0073223 -0.266923
-0.0073223 -0.266923
-0.00979024 -0.265826
-0.00979024 -0.265826
-0.0122368 -0.264484
-0.0122368 -0.264484
-0.0146887 -0.262842
-0.0146887 -0.262842
-0.0171154 -0.260891
-0.0171154 -0.260891
-0.0195186 -0.258623
-0.0195186 -0.258623
-0.0218375 -0.256019
-0.0218375 -0.256019
-0.0240241 -0.253072
-0.0240241 -0.253072
-0.0260577 -0.249839
-0.0260577 -0.249839
-0.0279598 -0.246475
-0.0279598 -0.246475
-0.0296269 -0.243258
-0.0296269 -0.243258
-0.0310489 -0.240151
-0.0310489 -0.240151
-0.032257 -0.237283
-0.032257 -0.237283
-0.033375 -0.234724
-0.033375 -0.234724
-0.0345256 -0.232733
-0.0345256 -0.232733
-0.0355263 -0.231592
-0.0355263 -0.231592
-0.0365282 -0.2315
-0.0365282 -0.2315
-0.0372585 -0.233149
-0.0372585 -0.233149
-0.0368805 -0.237299
-0.0368805 -0.237299
-0.0324394 -0.248929
-0.0324394 -0.248929
-0.0228263 -0.273727
-0.0228263 -0.273727
-0.0161774 -0.296026
-0.0161774 -0.296026
-0.0103819 -0.313827
-0.0103819 -0.313827
-0.00435201 -0.32715
-0.00435201 -0.32715
0.00171528 -0.337074
0.00171528 -0.337074
0.00747492 -0.344936
0.00747492 -0.344936
0.0130404 -0.350909
0.0130404 -0.350909
0.0183145 -0.355661
0.0183145 -0.355661
0.0231949 -0.359418
0.0231949 -0.359418
0.0276991 -0.362177
0.0276991 -0.362177
0.0318839 -0.364204
0.0318839 -0.364204
0.0357187 -0.365721
0.0357187 -0.365721
0.039191 -0.366717
      </DataArray> 
      <DataArray type="Float64" NumberOfComponents="2" Name="Velocity" format="ascii">
0 0
0 0
0 0
0 0
0 0
0 0
0 0
0 0
0 0
0 0
0 0
0 0
0 0
0 0
0 0
0 0
0 0
0 0
0 0
0 0
0 0
0 0
0 0
0 0
0 0
0 0
0 0
0 0
0 0
0 0
0 0
0 0
0 0
0 0
0 0
0 0
0 0
0 0
0 0
0 0
0 0
0 0
0 0
0 0
0 0
0 0
0 0
0 0
0 0
0 0
0 0
0 0
0 0
0 0
0 0
0 0
0 0
0 0
0 0
0 0
0 0
0 0
0 0
0 0
0 0
0 0
0 0
0 0
0 0
0 0
0 0
0 0
0 0
0 0
0 0
0 0
0 0
0 0
0 0
0 0
0 0
0 0
0 0
0 0
0 0
0 0
0 0
0 0
0 0
0 0
0 0
0 0
0 0
0 0
0 0
0 0
0 0
0 0
0 0
0 0
0 0
0 0
0 0
0 0
0 0
0 0
0 0
0 0
0 0
0 0
0 0
0 0
0 0
0 0
0 0
0 0
0 0
0 0
0 0
0 0
0 0
0 0
0 0
0 0
0 0
0 0
0 0
0 0
0 0
0 0
0 0
0 0
0 0
0 0
0 0
0 0
0 0
0 0
0 0
0 0
0 0
0 0
0 0
0 0
0 0
0 0
0 0
0 0
0 0
0 0
0 0
0 0
0 0
0 0
0 0
0 0
0 0
0 0
0 0
0 0
0 0
0 0
0 0
0 0
0 0
0 0
0 0
0 0
0 0
0 0
0 0
0 0
0 0
0 0
0 0
0 0
0 0
0 0
0 0
0 0
0 0
0 0
0 0
0 0
0 0
0 0
0 0
0 0
0 0
0 0
0 0
0 0
0 0
0 0
0 0
0 0
0 0
0 0
0 0
0 0
0 0
0 0
0 0
0 0
0 0
0 0
0 0
0 0
0 0
0 0
0 0
0 0
0 0
0 0
0 0
0 0
0 0
0 0
0 0
0 0
0 0
0 0
0 0
0 0
0 0
0 0
0 0
0 0
0 0
0 0
0 0
0 0
0 0
0 0
0 0
0 0
0 0
0 0
0 0
0 0
0 0
0 0
0 0
0 0
0 0
0 0
0 0
0 0
0 0
0 0
0 0
0 0
0 0
0 0
0 0
0 0
0 0
0 0
0 0
0 0
0 0
0 0
0 0
0 0
0 0
0 0
0 0
0 0
0 0
0 0
0 0
0 0
0 0
0 0
0 0
0 0
0 0
0 0
0 0
0 0
0 0
0 0
0 0
0 0
0 0
0 0
0 0
0 0
0 0
0 0
0 0
0 0
0 0
0 0
0 0
0 0
0 0
0 0
0 0
0 0
0 0
0 0
0 0
0 0
0 0
0 0
0 0
0 0
0 0
0 0
0 0
0 0
0 0
0 0
0 0
0 0
0 0
0 0
0 0
0 0
0 0
0 0
0 0
0 0
0 0
0 0
0 0
0 0
0 0
0 0
0 0
0 0
0 0
0 0
0 0
0 0
0 0
0 0
0 0
0 0
0 0
0 0
0 0
0 0
0 0
0 0
0 0
0 0
0 0
0 0
0 0
0 0
0 0
0 0
0 0
0 0
0 0
0 0
0 0
0 0
0 0
0 0
0 0
0 0
0 0
0 0
0 0
0 0
0 0
0 0
0 0
0 0
0 0
0 0
0 0
0 0
0 0
0 0
0 0
0 0
0 0
0 0
0 0
0 0
0 0
0 0
0 0
0 0
0 0
0 0
0 0
0 0
0 0
0 0
0 0
0 0
0 0
0 0
0 0
0 0
0 0
0 0
0 0
0 0
0 0
0 0
0 0
0 0
0 0
0 0
0 0
0 0
0 0
0 0
0 0
0 0
0 0
0 0
0 0
0 0
0 0
0 0
0 0
0 0
0 0
0 0
0 0
0 0
0 0
0 0
0 0
0 0
0 0
0 0
0 0
0 0
0 0
0 0
0 0
0 0
0 0
0 0
0 0
0 0
0 0
0 0
0 0
0 0
0 0
0 0
0 0
0 0
0 0
0 0
0 0
0 0
0 0
0 0
0 0
0 0
0 0
0 0
0 0
0 0
0 0
0 0
0 0
0 0
0 0
0 0
0 0
0 0
0 0
0 0
0 0
0 0
0 0
0 0
0 0
0 0
0 0
0 0
0 0
0 0
0 0
0 0
0 0
0 0
0 0
0 0
0 0
0 0
0 0
0 0
0 0
0 0
0 0
0 0
0 0
0 0
0 0
0 0
0 0
0 0
0 0
0 0
0 0
0 0
0 0
0 0
0 0
0 0
0 0
0 0
0 0
0 0
0 0
0 0
0 0
0 0
0 0
0 0
0 0
0 0
0 0
0 0
0 0
0 0
0 0
0 0
0 0
0 0
0 0
0 0
0 0
0 0
0 0
0 0
0 0
0 0
0 0
0 0
0 0
0 0
0 0
0 0
0 0
0 0
0 0
0 0
0 0
0 0
0 0
0 0
0 0
0 0
0 0
0 0
0 0
0 0
0 0
0 0
0 0
0 0
0 0
0 0
0 0
0 0
0 0
0 0
0 0
0 0
0 0
0 0
0 0
0 0
0 0
0 0
0 0
0 0
0 0
0 0
0 0
0 0
0 0
0 0
0 0
0 0
0 0
0 0
0 0
0 0
0 0
0 0
0 0
0 0
0 0
0 0
0 0
0 0
0 0
0 0
0 0
0 0
0 0
0 0
0 0
0 0
0 0
0 0
0 0
0 0
0 0
0 0
0 0
0 0
0 0
0 0
0 0
0 0
0 0
0 0
0 0
0 0
0 0
0 0
0 0
0 0
0 0
0 0
0 0
0 0
0 0
0 0
0 0
0 0
0 0
0 0
0 0
0 0
0 0
0 0
0 0
0 0
0 0
0 0
0 0
0 0
0 0
0 0
0 0
0 0
0 0
0 0
0 0
0 0
0 0
0 0
0 0
0 0
0 0
0 0
0 0
0 0
0 0
0 0
0 0
0 0
0 0
0 0
0 0
0 0
0 0
0 0
0 0
0 0
0 0
0 0
0 0
0 0
0 0
0 0
0 0
0 0
0 0
0 0
0 0
0 0
0 0
0 0
0 0
0 0
0 0
0 0
0 0
0 0
0 0
0 0
0 0
0 0
0 0
0 0
0 0
0 0
0 0
0 0
0 0
0 0
0 0
0 0
0 0
0 0
0 0
0 0
0 0
0 0
0 0
0 0
0 0
0 0
0 0
0 0
0 0
0 0
0 0
0 0
0 0
0 0
0 0
0 0
0 0
0 0
0 0
0 0
0 0
0 0
0 0
0 0
0 0
0 0
0 0
0 0
0 0
0 0
0 0
0 0
0 0
0 0
0 0
0 0
0 0
0 0
0 0
0 0
0 0
0 0
0 0
0 0
0 0
0 0
0 0
0 0
0 0
0 0
0 0
0 0
0 0
0 0
0 0
0 0
0 0
0 0
0 0
0 0
0 0
0 0
0 0
0 0
0 0
0 0
0 0
0 0
0 0
0 0
0 0
0 0
0 0
0 0
0 0
0 0
0 0
0 0
0 0
0 0
0 0
0 0
0 0
0 0
0 0
0 0
0 0
0 0
0 0
0 0
0 0
0 0
0 0
0 0
0 0
0 0
0 0
0 0
0 0
0 0
0 0
0 0
0 0
0 0
0 0
0 0
0 0
0 0
0 0
0 0
0 0
0 0
0 0
0 0
0 0
0 0
0 0
0 0
0 0
0 0
0 0
0 0
0 0
0 0
0 0
0 0
0 0
0 0
0 0
0 0
0 0
0 0
0 0
0 0
0 0
0 0
0 0
0 0
0 0
0 0
0 0
0 0
0 0
0 0
0 0
0 0
0 0
0 0
0 0
0 0
0 0
0 0
0 0
0 0
0 0
0 0
0 0
0 0
0 0
0 0
0 0
0 0
0 0
0 0
0 0
0 0
0 0
0 0
0 0
0 0
0 0
0 0
0 0
0 0
0 0
0 0
0 0
0 0
0 0
0 0
0 0
0 0
0 0
0 0
0 0
0 0
0 0
0 0
0 0
0 0
0 0
0 0
0 0
0 0
0 0
0 0
0 0
0 0
0 0
0 0
0 0
0 0
0 0
0 0
0 0
0 0
0 0
0 0
0 0
0 0
0 0
0 0
0 0
0 0
0 0
0 0
0 0
0 0
0 0
0 0
0 0
0 0
0 0
0 0
0 0
0 0
0 0
0 0
0 0
0 0
0 0
0 0
0 0
0 0
0 0
0 0
0 0
0 0
0 0
0 0
0 0
0 0
0 0
0 0
0 0
0 0
0 0
0 0
0 0
0 0
0 0
0 0
0 0
0 0
0 0
0 0
0 0
0 0
0 0
0 0
0 0
0 0
0 0
0 0
0 0
0 0
0 0
0 0
0 0
0 0
0 0
0 0
0 0
0 0
0 0
0 0
0 0
0 0
0 0
0 0
0 0
0 0
0 0
0 0
0 0
0 0
0 0
0 0
0 0
0 0
0 0
0 0
0 0
0 0
0 0
0 0
0 0
0 0
0 0
0 0
0 0
0 0
0 0
0 0
0 0
0 0
0 0
0 0
0 0
0 0
0 0
0 0
0 0
0 0
0 0
0 0
0 0
0 0
0 0
0 0
0 0
0 0
0 0
0 0
0 0
0 0
0 0
0 0
0 0
0 0
0 0
0 0
0 0
0 0
0 0
0 0
0 0
0 0
0 0
0 0
0 0
0 0
0 0
0 0
0 0
0 0
0 0
0 0
0 0
0 0
0 0
0 0
0 0
0 0
0 0
0 0
0 0
0 0
0 0
0 0
0 0
0 0
0 0
0 0
0 0
0 0
0 0
0 0
0 0
0 0
0 0
0 0
0 0
0 0
0 0
0 0
0 0
0 0
0 0
0 0
0 0
0 0
0 0
0 0
0 0
0 0
0 0
0 0
0 0
0 0
0 0
0 0
0 0
0 0
0 0
0 0
0 0
0 0
0 0
0 0
0 0
0 0
0 0
0 0
0 0
0 0
0 0
0 0
0 0
0 0
0 0
0 0
0 0
0 0
0 0
0 0
0 0
0 0
0 0
0 0
0 0
0 0
0 0
0 0
0 0
0 0
0 0
0 0
0 0
0 0
0 0
0 0
0 0
0 0
0 0
0 0
0 0
0 0
0 0
0 0
0 0
0 0
0 0
0 0
0 0
0 0
0 0
0 0
0 0
0 0
0 0
0 0
0 0
0 0
0 0
0 0
0 0
0 0
0 0
0 0
0 0
0 0
0 0
0 0
0 0
0 0
0 0
0 0
0 0
0 0
0 0
0 0
0 0
0 0
0 0
0 0
0 0
0 0
0 0
0 0
0 0
0 0
0 0
0 0
0 0
0 0
0 0
0 0
0 0
0 0
0 0
0 0
0 0
0 0
0 0
0 0
0 0
0 0
0 0
0 0
0 0
0 0
0 0
0 0
0 0
0 0
0 0
0 0
0 0
0 0
0 0
0 0
0 0
0 0
0 0
0 0
0 0
0 0
0 0
0 0
0 0
0 0
0 0
0 0
0 0
0 0
0 0
0 0
0 0
0 0
0 0
0 0
0 0
0 0
0 0
0 0
0 0
0 0
0 0
0 0
0 0
0 0
0 0
0 0
0 0
0 0
0 0
0 0
0 0
0 0
0 0
0 0
0 0
0 0
0 0
0 0
0 0
0 0
0 0
0 0
0 0
0 0
0 0
0 0
0 0
0 0
0 0
0 0
0 0
0 0
0 0
0 0
0 0
0 0
0 0
0 0
0 0
0 0
0 0
0 0
0 0
0 0
0 0
0 0
0 0
0 0
0 0
0 0
0 0
0 0
0 0
0 0
0 0
0 0
0 0
0 0
0 0
0 0
0 0
0 0
0 0
0 0
0 0
0 0
0 0
0 0
0 0
0 0
0 0
0 0
0 0
0 0
0 0
0 0
0 0
0 0
0 0
0 0
0 0
0 0
0 0
0 0
0 0
0 0
0 0
0 0
0 0
0 0
0 0
0 0
0 0
0 0
0 0
0 0
0 0
0 0
0 0
0 0
0 0
0 0
0 0
0 0
0 0
0 0
0 0
0 0
0 0
0 0
0 0
0 0
0 0
0 0
0 0
0 0
0 0
0 0
0 0
0 0
0 0
0 0
0 0
0 0
0 0
0 0
0 0
0 0
0 0
0 0
0 0
0 0
0 0
0 0
0 0
0 0
0 0
0 0
0 0
0 0
0 0
0 0
0 0
0 0
0 0
0 0
0 0
0 0
0 0
0 0
0 0
0 0
0 0
0 0
0 0
0 0
0 0
0 0
0 0
0 0
0 0
0 0
0 0
0 0
0 0
0 0
0 0
0 0
0 0
0 0
0 0
0 0
0 0
0 0
0 0
0 0
0 0
0 0
0 0
0 0
0 0
0 0
0 0
0 0
0 0
0 0
0 0
0 0
0 0
0 0
0 0
0 0
0 0
0 0
0 0
0 0
0 0
0 0
0 0
0 0
0 0
0 0
0 0
0 0
0 0
0 0
0 0
0 0
0 0
0 0
0 0
0 0
0 0
0 0
0 0
0 0
0 0
0 0
0 0
0 0
0 0
0 0
0 0
0 0
0 0
0 0
0 0
0 0
0 0
0 0
0 0
0 0
0 0
0 0
0 0
0 0
0 0
0 0
0 0
0 0
0 0
0 0
0 0
0 0
0 0
0 0
0 0
0 0
0 0
0 0
0 0
0 0
0 0
0 0
0 0
0 0
0 0
0 0
0 0
0 0
0 0
0 0
0 0
0 0
0 0
0 0
0 0
0 0
0 0
0 0
0 0
0 0
0 0
0 0
0 0
0 0
0 0
0 0
0 0
0 0
0 0
0 0
0 0
0 0
0 0
0 0
0 0
0 0
0 0
0 0
0 0
0 0
0 0
0 0
0 0
0 0
0 0
0 0
0 0
0 0
0 0
0 0
0 0
0 0
0 0
0 0
0 0
0 0
0 0
0 0
0 0
0 0
0 0
0 0
0 0
0 0
0 0
0 0
0 0
0 0
0 0
0 0
0 0
0 0
0 0
0 0
0 0
0 0
0 0
0 0
0 0
0 0
0 0
0 0
0 0
0 0
0 0
0 0
0 0
0 0
0 0
0 0
0 0
0 0
0 0
0 0
0 0
0 0
0 0
0 0
0 0
0 0
0 0
0 0
0 0
0 0
0 0
0 0
0 0
0 0
0 0
0 0
0 0
0 0
0 0
0 0
0 0
0 0
0 0
0 0
0 0
0 0
0 0
0 0
0 0
0 0
0 0
0 0
0 0
0 0
0 0
0 0
0 0
0 0
0 0
0 0
0 0
0 0
0 0
0 0
0 0
0 0
0 0
0 0
0 0
0 0
0 0
0 0
0 0
0 0
0 0
0 0
0 0
0 0
0 0
0 0
0 0
0 0
0 0
0 0
0 0
0 0
0 0
0 0
0 0
0 0
0 0
0 0
0 0
0 0
0 0
0 0
0 0
0 0
0 0
0 0
0 0
0 0
0 0
0 0
0 0
0 0
0 0
0 0
0 0
0 0
0 0
0 0
0 0
0 0
0 0
0 0
0 0
0 0
0 0
0 0
0 0
0 0
0 0
0 0
0 0
0 0
0 0
0 0
0 0
0 0
0 0
0 0
0 0
0 0
0 0
0 0
0 0
0 0
0 0
0 0
0 0
0 0
0 0
0 0
0 0
0 0
0 0
0 0
0 0
0 0
0 0
0 0
0 0
0 0
0 0
0 0
0 0
0 0
0 0
0 0
0 0
0 0
0 0
0 0
0 0
0 0
0 0
0 0
0 0
0 0
0 0
0 0
0 0
0 0
0 0
0 0
0 0
0 0
0 0
0 0
0 0
0 0
0 0
0 0
0 0
0 0
0 0
0 0
0 0
0 0
0 0
0 0
0 0
0 0
0 0
0 0
0 0
0 0
0 0
0 0
0 0
0 0
0 0
0 0
0 0
0 0
0 0
0 0
0 0
0 0
0 0
0 0
0 0
0 0
0 0
0 0
0 0
0 0
0 0
0 0
0 0
0 0
0 0
0 0
0 0
0 0
0 0
0 0
0 0
0 0
0 0
0 0
0 0
0 0
0 0
0 0
0 0
0 0
0 0
0 0
0 0
0 0
0 0
0 0
0 0
0 0
0 0
0 0
0 0
0 0
0 0
0 0
0 0
0 0
0 0
0 0
0 0
0 0
0 0
0 0
0 0
0 0
0 0
0 0
0 0
0 0
0 0
0 0
0 0
0 0
0 0
0 0
0 0
0 0
0 0
0 0
0 0
0 0
0 0
0 0
0 0
0 0
0 0
0 0
0 0
0 0
0 0
0 0
0 0
0 0
0 0
0 0
0 0
0 0
0 0
0 0
0 0
0 0
0 0
0 0
0 0
0 0
0 0
0 0
0 0
0 0
0 0
0 0
0 0
0 0
0 0
0 0
0 0
0 0
0 0
0 0
0 0
0 0
0 0
0 0
0 0
0 0
0 0
0 0
0 0
0 0
0 0
0 0
0 0
0 0
0 0
0 0
0 0
0 0
0 0
0 0
0 0
0 0
0 0
0 0
0 0
0 0
0 0
0 0
0 0
0 0
0 0
0 0
0 0
0 0
0 0
0 0
0 0
0 0
0 0
0 0
0 0
0 0
0 0
0 0
0 0
0 0
0 0
0 0
0 0
0 0
0 0
0 0
0 0
0 0
0 0
0 0
0 0
0 0
0 0
0 0
0 0
0 0
0 0
0 0
0 0
0 0
0 0
0 0
0 0
0 0
0 0
0 0
0 0
0 0
0 0
0 0
0 0
0 0
0 0
0 0
0 0
0 0
0 0
0 0
0 0
0 0
0 0
0 0
0 0
0 0
0 0
0 0
0 0
0 0
0 0
0 0
0 0
0 0
0 0
0 0
0 0
0 0
0 0
0 0
0 0
0 0
0 0
0 0
0 0
0 0
0 0
0 0
0 0
0 0
0 0
0 0
0 0
0 0
0 0
0 0
0 0
0 0
0 0
0 0
0 0
0 0
0 0
0 0
0 0
0 0
0 0
0 0
0 0
0 0
0 0
0 0
0 0
0 0
0 0
0 0
0 0
0 0
0 0
0 0
0 0
0 0
0 0
0 0
0 0
0 0
0 0
0 0
0 0
0 0
0 0
0 0
0 0
0 0
0 0
0 0
0 0
0 0
0 0
0 0
0 0
0 0
0 0
0 0
0 0
0 0
0 0
0 0
0 0
0 0
0 0
0 0
0 0
0 0
0 0
0 0
0 0
0 0
0 0
0 0
0 0
0 0
0 0
0 0
0 0
0 0
0 0
0 0
0 0
0 0
0 0
0 0
0 0
0 0
0 0
0 0
0 0
0 0
0 0
0 0
0 0
0 0
0 0
0 0
0 0
0 0
0 0
0 0
0 0
0 0
0 0
0 0
0 0
0 0
0 0
0 0
0 0
0 0
0 0
0 0
0 0
0 0
0 0
0 0
0 0
0 0
0 0
0 0
0 0
0 0
0 0
0 0
0 0
0 0
0 0
0 0
0 0
0 0
0 0
0 0
0 0
0 0
0 0
0 0
0 0
0 0
0 0
0 0
0 0
0 0
0 0
0 0
0 0
0 0
0 0
0 0
0 0
0 0
0 0
0 0
0 0
0 0
0 0
0 0
0 0
0 0
0 0
0 0
0 0
0 0
0 0
0 0
0 0
0 0
0 0
0 0
0 0
0 0
0 0
0 0
0 0
0 0
0 0
0 0
0 0
0 0
0 0
0 0
0 0
0 0
0 0
0 0
0 0
0 0
0 0
0 0
0 0
0 0
0 0
0 0
0 0
0 0
0 0
0 0
0 0
0 0
0 0
0 0
0 0
0 0
0 0
0 0
0 0
0 0
0 0
0 0
0 0
0 0
0 0
0 0
0 0
0 0
0 0
0 0
0 0
0 0
0 0
0 0
0 0
0 0
0 0
0 0
0 0
0 0
0 0
0 0
0 0
0 0
0 0
0 0
0 0
0 0
0 0
0 0
0 0
0 0
0 0
0 0
0 0
0 0
0 0
0 0
0 0
0 0
0 0
0 0
0 0
0 0
0 0
0 0
0 0
0 0
0 0
0 0
0 0
0 0
0 0
0 0
0 0
0 0
0 0
0 0
0 0
0 0
0 0
0 0
0 0
0 0
0 0
0 0
0 0
0 0
0 0
0 0
0 0
0 0
0 0
0 0
0 0
0 0
0 0
0 0
0 0
0 0
0 0
0 0
0 0
0 0
0 0
0 0
0 0
0 0
0 0
0 0
0 0
0 0
0 0
0 0
0 0
0 0
0 0
0 0
0 0
0 0
0 0
0 0
0 0
0 0
0 0
0 0
0 0
0 0
0 0
0 0
0 0
0 0
0 0
0 0
0 0
0 0
0 0
0 0
0 0
0 0
0 0
0 0
0 0
0 0
0 0
0 0
0 0
0 0
0 0
0 0
0 0
0 0
0 0
0 0
0 0
0 0
0 0
0 0
0 0
0 0
0 0
0 0
0 0
0 0
0 0
0 0
0 0
0 0
0 0
0 0
0 0
0 0
0 0
0 0
0 0
0 0
0 0
0 0
0 0
0 0
0 0
0 0
0 0
0 0
0 0
0 0
0 0
0 0
0 0
0 0
0 0
0 0
0 0
0 0
0 0
0 0
0 0
0 0
0 0
0 0
0 0
0 0
0 0
0 0
0 0
0 0
0 0
0 0
0 0
0 0
0 0
0 0
0 0
0 0
0 0
0 0
0 0
0 0
0 0
0 0
0 0
0 0
0 0
0 0
0 0
0 0
0 0
0 0
0 0
0 0
0 0
0 0
0 0
0 0
0 0
0 0
0 0
0 0
0 0
0 0
0 0
0 0
0 0
0 0
0 0
0 0
0 0
0 0
0 0
0 0
0 0
0 0
0 0
0 0
0 0
0 0
0 0
0 0
0 0
0 0
0 0
0 0
0 0
0 0
0 0
0 0
0 0
0 0
0 0
0 0
0 0
0 0
0 0
0 0
0 0
0 0
0 0
0 0
0 0
0 0
0 0
0 0
0 0
0 0
0 0
0 0
0 0
0 0
0 0
0 0
0 0
0 0
0 0
0 0
0 0
0 0
0 0
0 0
0 0
0 0
0 0
0 0
0 0
0 0
0 0
0 0
0 0
0 0
0 0
0 0
0 0
0 0
0 0
0 0
0 0
0 0
0 0
0 0
0 0
0 0
0 0
0 0
0 0
0 0
0 0
0 0
0 0
0 0
0 0
0 0
0 0
0 0
0 0
0 0
0 0
0 0
0 0
0 0
0 0
0 0
0 0
0 0
0 0
0 0
0 0
0 0
0 0
0 0
0 0
0 0
0 0
0 0
0 0
0 0
0 0
0 0
0 0
0 0
0 0
0 0
0 0
0 0
0 0
0 0
0 0
0 0
0 0
0 0
0 0
0 0
0 0
0 0
0 0
0 0
0 0
0 0
0 0
0 0
0 0
0 0
0 0
0 0
0 0
0 0
0 0
0 0
0 0
0 0
0 0
0 0
0 0
0 0
0 0
0 0
0 0
0 0
0 0
0 0
0 0
0 0
0 0
0 0
0 0
0 0
0 0
0 0
0 0
0 0
0 0
0 0
0 0
0 0
0 0
0 0
0 0
0 0
0 0
0 0
0 0
0 0
0 0
0 0
0 0
0 0
0 0
0 0
0 0
0 0
0 0
0 0
0 0
0 0
0 0
0 0
0 0
0 0
0 0
0 0
0 0
0 0
0 0
0 0
0 0
0 0
0 0
0 0
0 0
0 0
0 0
0 0
0 0
0 0
0 0
0 0
0 0
0 0
0 0
0 0
0 0
0 0
0 0
0 0
0 0
0 0
0 0
0 0
0 0
0 0
0 0
0 0
0 0
0 0
0 0
0 0
0 0
0 0
0 0
0 0
0 0
0 0
0 0
0 0
0 0
0 0
0 0
0 0
0 0
0 0
0 0
0 0
0 0
0 0
0 0
0 0
0 0
0 0
0 0
0 0
0 0
0 0
0 0
0 0
0 0
0 0
0 0
0 0
0 0
0 0
0 0
0 0
0 0
0 0
0 0
0 0
0 0
0 0
0 0
0 0
0 0
0 0
0 0
0 0
0 0
0 0
0 0
0 0
0 0
0 0
0 0
0 0
0 0
0 0
0 0
0 0
0 0
0 0
0 0
0 0
0 0
0 0
0 0
0 0
0 0
0 0
0 0
0 0
0 0
0 0
0 0
0 0
0 0
0 0
0 0
0 0
0 0
0 0
0 0
0 0
0 0
0 0
0 0
0 0
0 0
0 0
0 0
0 0
0 0
0 0
0 0
0 0
0 0
0 0
0 0
0 0
0 0
0 0
0 0
0 0
0 0
0 0
0 0
0 0
0 0
0 0
0 0
0 0
0 0
0 0
0 0
0 0
0 0
0 0
0 0
0 0
0 0
0 0
0 0
0 0
0 0
0 0
0 0
0 0
0 0
0 0
0 0
0 0
0 0
0 0
0 0
0 0
0 0
0 0
0 0
0 0
0 0
0 0
0 0
0 0
0 0
0 0
0 0
0 0
0 0
0 0
0 0
0 0
0 0
0 0
0 0
0 0
0 0
0 0
0 0
0 0
0 0
0 0
0 0
0 0
0 0
0 0
0 0
0 0
0 0
0 0
0 0
0 0
0 0
0 0
0 0
0 0
0 0
0 0
0 0
0 0
0 0
0 0
0 0
0 0
0 0
0 0
0 0
0 0
0 0
0 0
0 0
0 0
0 0
0 0
0 0
0 0
0 0
0 0
0 0
0 0
0 0
0 0
0 0
0 0
0 0
0 0
0 0
0 0
0 0
0 0
0 0
0 0
0 0
0 0
0 0
0 0
0 0
0 0
0 0
0 0
0 0
0 0
0 0
0 0
0 0
0 0
0 0
0 0
0 0
0 0
0 0
0 0
0 0
0 0
0 0
0 0
0 0
0 0
0 0
0 0
0 0
0 0
0 0
0 0
0 0
0 0
0 0
0 0
0 0
0 0
0 0
0 0
0 0
0 0
0 0
0 0
0 0
0 0
0 0
0 0
0 0
0 0
0 0
0 0
0 0
0 0
0 0
0 0
0 0
0 0
0 0
0 0
0 0
0 0
0 0
0 0
0 0
0 0
0 0
0 0
0 0
0 0
0 0
0 0
0 0
0 0
0 0
0 0
0 0
0 0
0 0
0 0
0 0
0 0
0 0
0 0
0 0
0 0
0 0
0 0
0 0
0 0
0 0
0 0
0 0
0 0
0 0
0 0
0 0
0 0
0 0
0 0
0 0
0 0
0 0
0 0
0 0
0 0
0 0
0 0
0 0
0 0
0 0
0 0
0 0
0 0
0 0
0 0
0 0
0 0
0 0
0 0
0 0
0 0
0 0
0 0
0 0
0 0
0 0
0 0
0 0
0 0
0 0
0 0
0 0
0 0
0 0
0 0
0 0
0 0
0 0
0 0
0 0
0 0
0 0
0 0
0 0
0 0
0 0
0 0
0 0
0 0
0 0
0 0
0 0
0 0
0 0
0 0
0 0
0 0
0 0
0 0
0 0
0 0
0 0
0 0
0 0
0 0
0 0
0 0
0 0
0 0
0 0
0 0
0 0
0 0
0 0
0 0
0 0
0 0
0 0
0 0
0 0
0 0
0 0
0 0
0 0
0 0
0 0
0 0
0 0
0 0
0 0
0 0
0 0
0 0
0 0
0 0
0 0
0 0
0 0
0 0
0 0
0 0
0 0
0 0
0 0
0 0
0 0
0 0
0 0
0 0
0 0
0 0
0 0
0 0
0 0
0 0
0 0
0 0
0 0
0 0
0 0
0 0
0 0
0 0
0 0
0 0
0 0
0 0
0 0
0 0
0 0
0 0
0 0
0 0
0 0
0 0
0 0
0 0
0 0
0 0
0 0
0 0
0 0
0 0
0 0
0 0
0 0
0 0
0 0
0 0
0 0
0 0
0 0
0 0
0 0
0 0
0 0
0 0
0 0
0 0
0 0
0 0
0 0
0 0
0 0
0 0
0 0
0 0
0 0
0 0
0 0
0 0
0 0
0 0
0 0
0 0
0 0
0 0
0 0
0 0
0 0
0 0
0 0
0 0
0 0
0 0
0 0
0 0
0 0
0 0
0 0
0 0
0 0
0 0
0 0
0 0
0 0
0 0
0 0
0 0
0 0
0 0
0 0
0 0
0 0
0 0
0 0
0 0
0 0
0 0
0 0
0 0
0 0
0 0
0 0
0 0
0 0
0 0
0 0
0 0
0 0
0 0
0 0
0 0
0 0
0 0
0 0
0 0
0 0
0 0
0 0
0 0
0 0
0 0
0 0
0 0
0 0
0 0
0 0
0 0
0 0
0 0
0 0
0 0
0 0
0 0
0 0
0 0
0 0
0 0
0 0
0 0
0 0
0 0
0 0
0 0
0 0
0 0
0 0
0 0
0 0
0 0
0 0
0 0
0 0
0 0
0 0
0 0
0 0
0 0
0 0
0 0
0 0
0 0
0 0
0 0
0 0
0 0
0 0
0 0
0 0
0 0
0 0
0 0
0 0
0 0
0 0
0 0
0 0
0 0
0 0
0 0
0 0
0 0
0 0
0 0
0 0
0 0
0 0
0 0
0 0
0 0
0 0
0 0
0 0
0 0
0 0
0 0
0 0
0 0
0 0
0 0
0 0
0 0
0 0
0 0
0 0
0 0
0 0
0 0
0 0
0 0
0 0
0 0
0 0
0 0
0 0
0 0
0 0
0 0
0 0
0 0
0 0
0 0
0 0
0 0
0 0
0 0
0 0
0 0
0 0
0 0
0 0
0 0
0 0
0 0
0 0
0 0
0 0
0 0
0 0
0 0
0 0
0 0
0 0
0 0
0 0
0 0
0 0
0 0
0 0
0 0
0 0
0 0
0 0
0 0
0 0
0 0
0 0
0 0
0 0
0 0
0 0
0 0
0 0
0 0
0 0
0 0
0 0
0 0
0 0
0 0
0 0
0 0
0 0
0 0
0 0
0 0
0 0
0 0
0 0
0 0
0 0
0 0
0 0
0 0
0 0
0 0
0 0
0 0
0 0
0 0
0 0
0 0
0 0
0 0
0 0
0 0
0 0
0 0
0 0
0 0
0 0
0 0
0 0
0 0
0 0
0 0
0 0
0 0
0 0
0 0
0 0
0 0
0 0
0 0
0 0
0 0
0 0
0 0
0 0
0 0
0 0
0 0
0 0
0 0
0 0
0 0
0 0
0 0
0 0
0 0
0 0
0 0
0 0
0 0
0 0
0 0
0 0
0 0
0 0
0 0
0 0
0 0
0 0
0 0
0 0
0 0
0 0
0 0
0 0
0 0
0 0
0 0
0 0
0 0
0 0
0 0
0 0
0 0
0 0
0 0
0 0
0 0
0 0
0 0
0 0
0 0
0 0
0 0
0 0
0 0
0 0
0 0
0 0
0 0
0 0
0 0
0 0
0 0
0 0
0 0
0 0
0 0
0 0
0 0
0 0
0 0
0 0
0 0
0 0
0 0
0 0
0 0
0 0
0 0
0 0
0 0
0 0
      </DataArray> 
      <DataArray type="Float64" NumberOfComponents="2" Name="Acceleration" format="ascii">
0 0
0 0
0 0
0 0
0 0
0 0
0 0
0 0
0 0
0 0
0 0
0 0
0 0
0 0
0 0
0 0
0 0
0 0
0 0
0 0
0 0
0 0
0 0
0 0
0 0
0 0
0 0
0 0
0 0
0 0
0 0
0 0
0 0
0 0
0 0
0 0
0 0
0 0
0 0
0 0
0 0
0 0
0 0
0 0
0 0
0 0
0 0
0 0
0 0
0 0
0 0
0 0
0 0
0 0
0 0
0 0
0 0
0 0
0 0
0 0
0 0
0 0
0 0
0 0
0 0
0 0
0 0
0 0
0 0
0 0
0 0
0 0
0 0
0 0
0 0
0 0
0 0
0 0
0 0
0 0
0 0
0 0
0 0
0 0
0 0
0 0
0 0
0 0
0 0
0 0
0 0
0 0
0 0
0 0
0 0
0 0
0 0
0 0
0 0
0 0
0 0
0 0
0 0
0 0
0 0
0 0
0 0
0 0
0 0
0 0
0 0
0 0
0 0
0 0
0 0
0 0
0 0
0 0
0 0
0 0
0 0
0 0
0 0
0 0
0 0
0 0
0 0
0 0
0 0
0 0
0 0
0 0
0 0
0 0
0 0
0 0
0 0
0 0
0 0
0 0
0 0
0 0
0 0
0 0
0 0
0 0
0 0
0 0
0 0
0 0
0 0
0 0
0 0
0 0
0 0
0 0
0 0
0 0
0 0
0 0
0 0
0 0
0 0
0 0
0 0
0 0
0 0
0 0
0 0
0 0
0 0
0 0
0 0
0 0
0 0
0 0
0 0
0 0
0 0
0 0
0 0
0 0
0 0
0 0
0 0
0 0
0 0
0 0
0 0
0 0
0 0
0 0
0 0
0 0
0 0
0 0
0 0
0 0
0 0
0 0
0 0
0 0
0 0
0 0
0 0
0 0
0 0
0 0
0 0
0 0
0 0
0 0
0 0
0 0
0 0
0 0
0 0
0 0
0 0
0 0
0 0
0 0
0 0
0 0
0 0
0 0
0 0
0 0
0 0
0 0
0 0
0 0
0 0
0 0
0 0
0 0
0 0
0 0
0 0
0 0
0 0
0 0
0 0
0 0
0 0
0 0
0 0
0 0
0 0
0 0
0 0
0 0
0 0
0 0
0 0
0 0
0 0
0 0
0 0
0 0
0 0
0 0
0 0
0 0
0 0
0 0
0 0
0 0
0 0
0 0
0 0
0 0
0 0
0 0
0 0
0 0
0 0
0 0
0 0
0 0
0 0
0 0
0 0
0 0
0 0
0 0
0 0
0 0
0 0
0 0
0 0
0 0
0 0
0 0
0 0
0 0
0 0
0 0
0 0
0 0
0 0
0 0
0 0
0 0
0 0
0 0
0 0
0 0
0 0
0 0
0 0
0 0
0 0
0 0
0 0
0 0
0 0
0 0
0 0
0 0
0 0
0 0
0 0
0 0
0 0
0 0
0 0
0 0
0 0
0 0
0 0
0 0
0 0
0 0
0 0
0 0
0 0
0 0
0 0
0 0
0 0
0 0
0 0
0 0
0 0
0 0
0 0
0 0
0 0
0 0
0 0
0 0
0 0
0 0
0 0
0 0
0 0
0 0
0 0
0 0
0 0
0 0
0 0
0 0
0 0
0 0
0 0
0 0
0 0
0 0
0 0
0 0
0 0
0 0
0 0
0 0
0 0
0 0
0 0
0 0
0 0
0 0
0 0
0 0
0 0
0 0
0 0
0 0
0 0
0 0
0 0
0 0
0 0
0 0
0 0
0 0
0 0
0 0
0 0
0 0
0 0
0 0
0 0
0 0
0 0
0 0
0 0
0 0
0 0
0 0
0 0
0 0
0 0
0 0
0 0
0 0
0 0
0 0
0 0
0 0
0 0
0 0
0 0
0 0
0 0
0 0
0 0
0 0
0 0
0 0
0 0
0 0
0 0
0 0
0 0
0 0
0 0
0 0
0 0
0 0
0 0
0 0
0 0
0 0
0 0
0 0
0 0
0 0
0 0
0 0
0 0
0 0
0 0
0 0
0 0
0 0
0 0
0 0
0 0
0 0
0 0
0 0
0 0
0 0
0 0
0 0
0 0
0 0
0 0
0 0
0 0
0 0
0 0
0 0
0 0
0 0
0 0
0 0
0 0
0 0
0 0
0 0
0 0
0 0
0 0
0 0
0 0
0 0
0 0
0 0
0 0
0 0
0 0
0 0
0 0
0 0
0 0
0 0
0 0
0 0
0 0
0 0
0 0
0 0
0 0
0 0
0 0
0 0
0 0
0 0
0 0
0 0
0 0
0 0
0 0
0 0
0 0
0 0
0 0
0 0
0 0
0 0
0 0
0 0
0 0
0 0
0 0
0 0
0 0
0 0
0 0
0 0
0 0
0 0
0 0
0 0
0 0
0 0
0 0
0 0
0 0
0 0
0 0
0 0
0 0
0 0
0 0
0 0
0 0
0 0
0 0
0 0
0 0
0 0
0 0
0 0
0 0
0 0
0 0
0 0
0 0
0 0
0 0
0 0
0 0
0 0
0 0
0 0
0 0
0 0
0 0
0 0
0 0
0 0
0 0
0 0
0 0
0 0
0 0
0 0
0 0
0 0
0 0
0 0
0 0
0 0
0 0
0 0
0 0
0 0
0 0
0 0
0 0
0 0
0 0
0 0
0 0
0 0
0 0
0 0
0 0
0 0
0 0
0 0
0 0
0 0
0 0
0 0
0 0
0 0
0 0
0 0
0 0
0 0
0 0
0 0
0 0
0 0
0 0
0 0
0 0
0 0
0 0
0 0
0 0
0 0
0 0
0 0
0 0
0 0
0 0
0 0
0 0
0 0
0 0
0 0
0 0
0 0
0 0
0 0
0 0
0 0
0 0
0 0
0 0
0 0
0 0
0 0
0 0
0 0
0 0
0 0
0 0
0 0
0 0
0 0
0 0
0 0
0 0
0 0
0 0
0 0
0 0
0 0
0 0
0 0
0 0
0 0
0 0
0 0
0 0
0 0
0 0
0 0
0 0
0 0
0 0
0 0
0 0
0 0
0 0
0 0
0 0
0 0
0 0
0 0
0 0
0 0
0 0
0 0
0 0
0 0
0 0
0 0
0 0
0 0
0 0
0 0
0 0
0 0
0 0
0 0
0 0
0 0
0 0
0 0
0 0
0 0
0 0
0 0
0 0
0 0
0 0
0 0
0 0
0 0
0 0
0 0
0 0
0 0
0 0
0 0
0 0
0 0
0 0
0 0
0 0
0 0
0 0
0 0
0 0
0 0
0 0
0 0
0 0
0 0
0 0
0 0
0 0
0 0
0 0
0 0
0 0
0 0
0 0
0 0
0 0
0 0
0 0
0 0
0 0
0 0
0 0
0 0
0 0
0 0
0 0
0 0
0 0
0 0
0 0
0 0
0 0
0 0
0 0
0 0
0 0
0 0
0 0
0 0
0 0
0 0
0 0
0 0
0 0
0 0
0 0
0 0
0 0
0 0
0 0
0 0
0 0
0 0
0 0
0 0
0 0
0 0
0 0
0 0
0 0
0 0
0 0
0 0
0 0
0 0
0 0
0 0
0 0
0 0
0 0
0 0
0 0
0 0
0 0
0 0
0 0
0 0
0 0
0 0
0 0
0 0
0 0
0 0
0 0
0 0
0 0
0 0
0 0
0 0
0 0
0 0
0 0
0 0
0 0
0 0
0 0
0 0
0 0
0 0
0 0
0 0
0 0
0 0
0 0
0 0
0 0
0 0
0 0
0 0
0 0
0 0
0 0
0 0
0 0
0 0
0 0
0 0
0 0
0 0
0 0
0 0
0 0
0 0
0 0
0 0
0 0
0 0
0 0
0 0
0 0
0 0
0 0
0 0
0 0
0 0
0 0
0 0
0 0
0 0
0 0
0 0
0 0
0 0
0 0
0 0
0 0
0 0
0 0
0 0
0 0
0 0
0 0
0 0
0 0
0 0
0 0
0 0
0 0
0 0
0 0
0 0
0 0
0 0
0 0
0 0
0 0
0 0
0 0
0 0
0 0
0 0
0 0
0 0
0 0
0 0
0 0
0 0
0 0
0 0
0 0
0 0
0 0
0 0
0 0
0 0
0 0
0 0
0 0
0 0
0 0
0 0
0 0
0 0
0 0
0 0
0 0
0 0
0 0
0 0
0 0
0 0
0 0
0 0
0 0
0 0
0 0
0 0
0 0
0 0
0 0
0 0
0 0
0 0
0 0
0 0
0 0
0 0
0 0
0 0
0 0
0 0
0 0
0 0
0 0
0 0
0 0
0 0
0 0
0 0
0 0
0 0
0 0
0 0
0 0
0 0
0 0
0 0
0 0
0 0
0 0
0 0
0 0
0 0
0 0
0 0
0 0
0 0
0 0
0 0
0 0
0 0
0 0
0 0
0 0
0 0
0 0
0 0
0 0
0 0
0 0
0 0
0 0
0 0
0 0
0 0
0 0
0 0
0 0
0 0
0 0
0 0
0 0
0 0
0 0
0 0
0 0
0 0
0 0
0 0
0 0
0 0
0 0
0 0
0 0
0 0
0 0
0 0
0 0
0 0
0 0
0 0
0 0
0 0
0 0
0 0
0 0
0 0
0 0
0 0
0 0
0 0
0 0
0 0
0 0
0 0
0 0
0 0
0 0
0 0
0 0
0 0
0 0
0 0
0 0
0 0
0 0
0 0
0 0
0 0
0 0
0 0
0 0
0 0
0 0
0 0
0 0
0 0
0 0
0 0
0 0
0 0
0 0
0 0
0 0
0 0
0 0
0 0
0 0
0 0
0 0
0 0
0 0
0 0
0 0
0 0
0 0
0 0
0 0
0 0
0 0
0 0
0 0
0 0
0 0
0 0
0 0
0 0
0 0
0 0
0 0
0 0
0 0
0 0
0 0
0 0
0 0
0 0
0 0
0 0
0 0
0 0
0 0
0 0
0 0
0 0
0 0
0 0
0 0
0 0
0 0
0 0
0 0
0 0
0 0
0 0
0 0
0 0
0 0
0 0
0 0
0 0
0 0
0 0
0 0
0 0
0 0
0 0
0 0
0 0
0 0
0 0
0 0
0 0
0 0
0 0
0 0
0 0
0 0
0 0
0 0
0 0
0 0
0 0
0 0
0 0
0 0
0 0
0 0
0 0
0 0
0 0
0 0
0 0
0 0
0 0
0 0
0 0
0 0
0 0
0 0
0 0
0 0
0 0
0 0
0 0
0 0
0 0
0 0
0 0
0 0
0 0
0 0
0 0
0 0
0 0
0 0
0 0
0 0
0 0
0 0
0 0
0 0
0 0
0 0
0 0
0 0
0 0
0 0
0 0
0 0
0 0
0 0
0 0
0 0
0 0
0 0
0 0
0 0
0 0
0 0
0 0
0 0
0 0
0 0
0 0
0 0
0 0
0 0
0 0
0 0
0 0
0 0
0 0
0 0
0 0
0 0
0 0
0 0
0 0
0 0
0 0
0 0
0 0
0 0
0 0
0 0
0 0
0 0
0 0
0 0
0 0
0 0
0 0
0 0
0 0
0 0
0 0
0 0
0 0
0 0
0 0
0 0
0 0
0 0
0 0
0 0
0 0
0 0
0 0
0 0
0 0
0 0
0 0
0 0
0 0
0 0
0 0
0 0
0 0
0 0
0 0
0 0
0 0
0 0
0 0
0 0
0 0
0 0
0 0
0 0
0 0
0 0
0 0
0 0
0 0
0 0
0 0
0 0
0 0
0 0
0 0
0 0
0 0
0 0
0 0
0 0
0 0
0 0
0 0
0 0
0 0
0 0
0 0
0 0
0 0
0 0
0 0
0 0
0 0
0 0
0 0
0 0
0 0
0 0
0 0
0 0
0 0
0 0
0 0
0 0
0 0
0 0
0 0
0 0
0 0
0 0
0 0
0 0
0 0
0 0
0 0
0 0
0 0
0 0
0 0
0 0
0 0
0 0
0 0
0 0
0 0
0 0
0 0
0 0
0 0
0 0
0 0
0 0
0 0
0 0
0 0
0 0
0 0
0 0
0 0
0 0
0 0
0 0
0 0
0 0
0 0
0 0
0 0
0 0
0 0
0 0
0 0
0 0
0 0
0 0
0 0
0 0
0 0
0 0
0 0
0 0
0 0
0 0
0 0
0 0
0 0
0 0
0 0
0 0
0 0
0 0
0 0
0 0
0 0
0 0
0 0
0 0
0 0
0 0
0 0
0 0
0 0
0 0
0 0
0 0
0 0
0 0
0 0
0 0
0 0
0 0
0 0
0 0
0 0
0 0
0 0
0 0
0 0
0 0
0 0
0 0
0 0
0 0
0 0
0 0
0 0
0 0
0 0
0 0
0 0
0 0
0 0
0 0
0 0
0 0
0 0
0 0
0 0
0 0
0 0
0 0
0 0
0 0
0 0
0 0
0 0
0 0
0 0
0 0
0 0
0 0
0 0
0 0
0 0
0 0
0 0
0 0
0 0
0 0
0 0
0 0
0 0
0 0
0 0
0 0
0 0
0 0
0 0
0 0
0 0
0 0
0 0
0 0
0 0
0 0
0 0
0 0
0 0
0 0
0 0
0 0
0 0
0 0
0 0
0 0
0 0
0 0
0 0
0 0
0 0
0 0
0 0
0 0
0 0
0 0
0 0
0 0
0 0
0 0
0 0
0 0
0 0
0 0
0 0
0 0
0 0
0 0
0 0
0 0
0 0
0 0
0 0
0 0
0 0
0 0
0 0
0 0
0 0
0 0
0 0
0 0
0 0
0 0
0 0
0 0
0 0
0 0
0 0
0 0
0 0
0 0
0 0
0 0
0 0
0 0
0 0
0 0
0 0
0 0
0 0
0 0
0 0
0 0
0 0
0 0
0 0
0 0
0 0
0 0
0 0
0 0
0 0
0 0
0 0
0 0
0 0
0 0
0 0
0 0
0 0
0 0
0 0
0 0
0 0
0 0
0 0
0 0
0 0
0 0
0 0
0 0
0 0
0 0
0 0
0 0
0 0
0 0
0 0
0 0
0 0
0 0
0 0
0 0
0 0
0 0
0 0
0 0
0 0
0 0
0 0
0 0
0 0
0 0
0 0
0 0
0 0
0 0
0 0
0 0
0 0
0 0
0 0
0 0
0 0
0 0
0 0
0 0
0 0
0 0
0 0
0 0
0 0
0 0
0 0
0 0
0 0
0 0
0 0
0 0
0 0
0 0
0 0
0 0
0 0
0 0
0 0
0 0
0 0
0 0
0 0
0 0
0 0
0 0
0 0
0 0
0 0
0 0
0 0
0 0
0 0
0 0
0 0
0 0
0 0
0 0
0 0
0 0
0 0
0 0
0 0
0 0
0 0
0 0
0 0
0 0
0 0
0 0
0 0
0 0
0 0
0 0
0 0
0 0
0 0
0 0
0 0
0 0
0 0
0 0
0 0
0 0
0 0
0 0
0 0
0 0
0 0
0 0
0 0
0 0
0 0
0 0
0 0
0 0
0 0
0 0
0 0
0 0
0 0
0 0
0 0
0 0
0 0
0 0
0 0
0 0
0 0
0 0
0 0
0 0
0 0
0 0
0 0
0 0
0 0
0 0
0 0
0 0
0 0
0 0
0 0
0 0
0 0
0 0
0 0
0 0
0 0
0 0
0 0
0 0
0 0
0 0
0 0
0 0
0 0
0 0
0 0
0 0
0 0
0 0
0 0
0 0
0 0
0 0
0 0
0 0
0 0
0 0
0 0
0 0
0 0
0 0
0 0
0 0
0 0
0 0
0 0
0 0
0 0
0 0
0 0
0 0
0 0
0 0
0 0
0 0
0 0
0 0
0 0
0 0
0 0
0 0
0 0
0 0
0 0
0 0
0 0
0 0
0 0
0 0
0 0
0 0
0 0
0 0
0 0
0 0
0 0
0 0
0 0
0 0
0 0
0 0
0 0
0 0
0 0
0 0
0 0
0 0
0 0
0 0
0 0
0 0
0 0
0 0
0 0
0 0
0 0
0 0
0 0
0 0
0 0
0 0
0 0
0 0
0 0
0 0
0 0
0 0
0 0
0 0
0 0
0 0
0 0
0 0
0 0
0 0
0 0
0 0
0 0
0 0
0 0
0 0
0 0
0 0
0 0
0 0
0 0
0 0
0 0
0 0
0 0
0 0
0 0
0 0
0 0
0 0
0 0
0 0
0 0
0 0
0 0
0 0
0 0
0 0
0 0
0 0
0 0
0 0
0 0
0 0
0 0
0 0
0 0
0 0
0 0
0 0
0 0
0 0
0 0
0 0
0 0
0 0
0 0
0 0
0 0
0 0
0 0
0 0
0 0
0 0
0 0
0 0
0 0
0 0
0 0
0 0
0 0
0 0
0 0
0 0
0 0
0 0
0 0
0 0
0 0
0 0
0 0
0 0
0 0
0 0
0 0
0 0
0 0
0 0
0 0
0 0
0 0
0 0
0 0
0 0
0 0
0 0
0 0
0 0
0 0
0 0
0 0
0 0
0 0
0 0
0 0
0 0
0 0
0 0
0 0
0 0
0 0
0 0
0 0
0 0
0 0
0 0
0 0
0 0
0 0
0 0
0 0
0 0
0 0
0 0
0 0
0 0
0 0
0 0
0 0
0 0
0 0
0 0
0 0
0 0
0 0
0 0
0 0
0 0
0 0
0 0
0 0
0 0
0 0
0 0
0 0
0 0
0 0
0 0
0 0
0 0
0 0
0 0
0 0
0 0
0 0
0 0
0 0
0 0
0 0
0 0
0 0
0 0
0 0
0 0
0 0
0 0
0 0
0 0
0 0
0 0
0 0
0 0
0 0
0 0
0 0
0 0
0 0
0 0
0 0
0 0
0 0
0 0
0 0
0 0
0 0
0 0
0 0
0 0
0 0
0 0
0 0
0 0
0 0
0 0
0 0
0 0
0 0
0 0
0 0
0 0
0 0
0 0
0 0
0 0
0 0
0 0
0 0
0 0
0 0
0 0
0 0
0 0
0 0
0 0
0 0
0 0
0 0
0 0
0 0
0 0
0 0
0 0
0 0
0 0
0 0
0 0
0 0
0 0
0 0
0 0
0 0
0 0
0 0
0 0
0 0
0 0
0 0
0 0
0 0
0 0
0 0
0 0
0 0
0 0
0 0
0 0
0 0
0 0
0 0
0 0
0 0
0 0
0 0
0 0
0 0
0 0
0 0
0 0
0 0
0 0
0 0
0 0
0 0
0 0
0 0
0 0
0 0
0 0
0 0
0 0
0 0
0 0
0 0
0 0
0 0
0 0
0 0
0 0
0 0
0 0
0 0
0 0
0 0
0 0
0 0
0 0
0 0
0 0
0 0
0 0
0 0
0 0
0 0
0 0
0 0
0 0
0 0
0 0
0 0
0 0
0 0
0 0
0 0
0 0
0 0
0 0
0 0
0 0
0 0
0 0
0 0
0 0
0 0
0 0
0 0
0 0
0 0
0 0
0 0
0 0
0 0
0 0
0 0
0 0
0 0
0 0
0 0
0 0
0 0
0 0
0 0
0 0
0 0
0 0
0 0
0 0
0 0
0 0
0 0
0 0
0 0
0 0
0 0
0 0
0 0
0 0
0 0
0 0
0 0
0 0
0 0
0 0
0 0
0 0
0 0
0 0
0 0
0 0
0 0
0 0
0 0
0 0
0 0
0 0
0 0
0 0
0 0
0 0
0 0
0 0
0 0
0 0
0 0
0 0
0 0
0 0
0 0
0 0
0 0
0 0
0 0
0 0
0 0
0 0
0 0
0 0
0 0
0 0
0 0
0 0
0 0
0 0
0 0
0 0
0 0
0 0
0 0
0 0
0 0
0 0
0 0
0 0
0 0
0 0
0 0
0 0
0 0
0 0
0 0
0 0
0 0
0 0
0 0
0 0
0 0
0 0
0 0
0 0
0 0
0 0
0 0
0 0
0 0
0 0
0 0
0 0
0 0
0 0
0 0
0 0
0 0
0 0
0 0
0 0
0 0
0 0
0 0
0 0
0 0
0 0
0 0
0 0
0 0
0 0
0 0
0 0
0 0
0 0
0 0
0 0
0 0
0 0
0 0
0 0
0 0
0 0
0 0
0 0
0 0
0 0
0 0
0 0
0 0
0 0
0 0
0 0
0 0
0 0
0 0
0 0
0 0
0 0
0 0
0 0
0 0
0 0
0 0
0 0
0 0
0 0
0 0
0 0
0 0
0 0
0 0
0 0
0 0
0 0
0 0
0 0
0 0
0 0
0 0
0 0
0 0
0 0
0 0
0 0
0 0
0 0
0 0
0 0
0 0
0 0
0 0
0 0
0 0
0 0
0 0
0 0
0 0
0 0
0 0
0 0
0 0
0 0
0 0
0 0
0 0
0 0
0 0
0 0
0 0
0 0
0 0
0 0
0 0
0 0
0 0
0 0
0 0
0 0
0 0
0 0
0 0
0 0
0 0
0 0
0 0
0 0
0 0
0 0
0 0
0 0
0 0
0 0
0 0
0 0
0 0
0 0
0 0
0 0
0 0
0 0
0 0
0 0
0 0
0 0
0 0
0 0
0 0
0 0
0 0
0 0
0 0
0 0
0 0
0 0
0 0
0 0
0 0
0 0
0 0
0 0
0 0
0 0
0 0
0 0
0 0
0 0
0 0
0 0
0 0
0 0
0 0
0 0
0 0
0 0
0 0
0 0
0 0
0 0
0 0
0 0
0 0
0 0
0 0
0 0
0 0
0 0
0 0
0 0
0 0
0 0
0 0
0 0
0 0
0 0
0 0
0 0
0 0
0 0
0 0
0 0
0 0
0 0
0 0
0 0
0 0
0 0
0 0
0 0
0 0
0 0
0 0
0 0
0 0
0 0
0 0
0 0
0 0
0 0
0 0
0 0
0 0
0 0
0 0
0 0
0 0
0 0
0 0
0 0
0 0
0 0
0 0
0 0
0 0
0 0
0 0
0 0
0 0
0 0
0 0
0 0
0 0
0 0
0 0
0 0
0 0
0 0
0 0
0 0
0 0
0 0
0 0
0 0
0 0
0 0
0 0
0 0
0 0
0 0
0 0
0 0
0 0
0 0
0 0
0 0
0 0
0 0
0 0
0 0
0 0
0 0
0 0
0 0
0 0
0 0
0 0
0 0
0 0
0 0
0 0
0 0
0 0
0 0
0 0
0 0
0 0
0 0
0 0
0 0
0 0
0 0
0 0
0 0
0 0
0 0
0 0
0 0
0 0
0 0
0 0
0 0
0 0
0 0
0 0
0 0
0 0
0 0
0 0
0 0
0 0
0 0
0 0
0 0
0 0
0 0
0 0
0 0
0 0
0 0
0 0
0 0
0 0
0 0
0 0
0 0
0 0
0 0
0 0
0 0
0 0
0 0
0 0
0 0
0 0
0 0
0 0
0 0
0 0
0 0
0 0
0 0
0 0
0 0
0 0
0 0
0 0
0 0
0 0
0 0
0 0
0 0
0 0
0 0
0 0
0 0
0 0
0 0
0 0
0 0
0 0
0 0
0 0
0 0
0 0
0 0
0 0
0 0
0 0
0 0
0 0
0 0
0 0
0 0
0 0
0 0
0 0
0 0
0 0
0 0
0 0
0 0
0 0
0 0
0 0
0 0
0 0
0 0
0 0
0 0
0 0
0 0
0 0
0 0
0 0
0 0
0 0
0 0
0 0
0 0
0 0
0 0
0 0
0 0
0 0
0 0
0 0
0 0
0 0
0 0
0 0
0 0
0 0
0 0
0 0
0 0
0 0
0 0
0 0
0 0
0 0
0 0
0 0
0 0
0 0
0 0
0 0
0 0
0 0
0 0
0 0
0 0
0 0
0 0
0 0
0 0
0 0
0 0
0 0
0 0
0 0
0 0
0 0
0 0
0 0
0 0
0 0
0 0
0 0
0 0
0 0
0 0
0 0
0 0
0 0
0 0
0 0
0 0
0 0
0 0
0 0
0 0
0 0
0 0
0 0
0 0
0 0
0 0
0 0
0 0
0 0
0 0
0 0
0 0
0 0
0 0
0 0
0 0
0 0
0 0
0 0
0 0
0 0
0 0
0 0
0 0
0 0
0 0
0 0
0 0
0 0
0 0
0 0
0 0
0 0
0 0
0 0
0 0
0 0
0 0
0 0
0 0
0 0
0 0
0 0
0 0
0 0
0 0
0 0
0 0
0 0
0 0
0 0
0 0
0 0
0 0
0 0
0 0
0 0
0 0
0 0
0 0
0 0
0 0
0 0
0 0
0 0
0 0
0 0
0 0
0 0
0 0
0 0
0 0
0 0
0 0
0 0
0 0
0 0
0 0
0 0
0 0
0 0
0 0
0 0
0 0
0 0
0 0
0 0
0 0
0 0
0 0
0 0
0 0
0 0
0 0
0 0
0 0
0 0
0 0
0 0
0 0
0 0
0 0
0 0
0 0
0 0
0 0
0 0
0 0
0 0
0 0
0 0
0 0
0 0
0 0
0 0
0 0
0 0
0 0
0 0
0 0
0 0
0 0
0 0
0 0
0 0
0 0
0 0
0 0
0 0
0 0
0 0
0 0
0 0
0 0
0 0
0 0
0 0
0 0
0 0
0 0
0 0
0 0
0 0
0 0
0 0
0 0
0 0
0 0
0 0
0 0
0 0
0 0
0 0
0 0
0 0
0 0
0 0
0 0
0 0
0 0
0 0
0 0
0 0
0 0
0 0
0 0
0 0
0 0
0 0
0 0
0 0
0 0
0 0
0 0
0 0
0 0
0 0
0 0
0 0
0 0
0 0
0 0
0 0
0 0
0 0
0 0
0 0
0 0
0 0
0 0
0 0
0 0
0 0
0 0
0 0
0 0
0 0
0 0
0 0
0 0
0 0
0 0
0 0
0 0
0 0
0 0
0 0
0 0
0 0
0 0
0 0
0 0
0 0
0 0
0 0
0 0
0 0
0 0
0 0
0 0
0 0
0 0
0 0
0 0
0 0
0 0
0 0
0 0
0 0
0 0
0 0
0 0
0 0
0 0
0 0
0 0
0 0
0 0
0 0
0 0
0 0
0 0
0 0
0 0
0 0
0 0
0 0
0 0
0 0
0 0
0 0
0 0
0 0
0 0
0 0
0 0
0 0
0 0
0 0
0 0
0 0
0 0
0 0
0 0
0 0
0 0
0 0
0 0
0 0
0 0
0 0
0 0
0 0
0 0
0 0
0 0
0 0
0 0
0 0
0 0
0 0
0 0
0 0
0 0
0 0
0 0
0 0
0 0
0 0
0 0
0 0
0 0
0 0
0 0
0 0
0 0
0 0
0 0
0 0
0 0
0 0
0 0
0 0
0 0
0 0
0 0
0 0
0 0
0 0
0 0
0 0
0 0
0 0
0 0
0 0
0 0
0 0
0 0
0 0
0 0
0 0
0 0
0 0
0 0
0 0
0 0
0 0
0 0
0 0
0 0
0 0
0 0
0 0
0 0
0 0
0 0
0 0
0 0
0 0
0 0
0 0
0 0
0 0
0 0
0 0
0 0
0 0
0 0
0 0
0 0
0 0
0 0
0 0
0 0
0 0
0 0
0 0
0 0
0 0
0 0
0 0
0 0
0 0
0 0
0 0
0 0
0 0
0 0
0 0
0 0
0 0
0 0
0 0
0 0
0 0
0 0
0 0
0 0
0 0
0 0
0 0
0 0
0 0
0 0
0 0
0 0
0 0
0 0
0 0
0 0
0 0
0 0
0 0
0 0
0 0
0 0
0 0
0 0
0 0
0 0
0 0
0 0
0 0
0 0
0 0
0 0
0 0
0 0
0 0
0 0
0 0
0 0
0 0
0 0
0 0
0 0
0 0
0 0
0 0
0 0
0 0
0 0
0 0
0 0
0 0
0 0
0 0
0 0
0 0
0 0
0 0
0 0
0 0
0 0
0 0
0 0
0 0
0 0
0 0
0 0
0 0
0 0
0 0
0 0
0 0
0 0
0 0
0 0
0 0
0 0
0 0
0 0
0 0
0 0
0 0
0 0
0 0
0 0
0 0
0 0
0 0
0 0
0 0
0 0
0 0
0 0
0 0
0 0
0 0
0 0
0 0
0 0
0 0
0 0
0 0
0 0
0 0
0 0
0 0
0 0
0 0
0 0
0 0
0 0
0 0
0 0
0 0
0 0
0 0
0 0
0 0
0 0
0 0
0 0
0 0
0 0
0 0
0 0
0 0
0 0
0 0
0 0
0 0
0 0
0 0
0 0
0 0
0 0
0 0
0 0
0 0
0 0
0 0
0 0
0 0
0 0
0 0
0 0
0 0
0 0
0 0
0 0
0 0
0 0
0 0
0 0
0 0
0 0
0 0
0 0
0 0
0 0
0 0
0 0
0 0
0 0
0 0
0 0
0 0
0 0
0 0
0 0
0 0
0 0
0 0
0 0
0 0
0 0
0 0
0 0
0 0
0 0
0 0
0 0
0 0
0 0
0 0
0 0
0 0
0 0
0 0
0 0
0 0
0 0
0 0
0 0
0 0
0 0
0 0
0 0
0 0
0 0
0 0
0 0
0 0
0 0
0 0
0 0
0 0
0 0
0 0
0 0
0 0
0 0
0 0
0 0
0 0
0 0
0 0
0 0
0 0
0 0
0 0
0 0
0 0
0 0
0 0
0 0
0 0
0 0
0 0
0 0
0 0
0 0
0 0
0 0
0 0
0 0
0 0
0 0
0 0
0 0
0 0
0 0
0 0
0 0
0 0
0 0
0 0
0 0
0 0
0 0
0 0
0 0
0 0
0 0
0 0
0 0
0 0
0 0
0 0
0 0
0 0
0 0
0 0
0 0
0 0
0 0
0 0
0 0
0 0
0 0
0 0
0 0
0 0
0 0
0 0
0 0
0 0
0 0
0 0
0 0
0 0
0 0
0 0
0 0
0 0
0 0
0 0
0 0
0 0
0 0
0 0
0 0
0 0
0 0
0 0
0 0
0 0
0 0
0 0
0 0
0 0
0 0
0 0
0 0
0 0
0 0
0 0
0 0
0 0
0 0
0 0
0 0
0 0
0 0
0 0
0 0
0 0
0 0
0 0
0 0
0 0
0 0
0 0
0 0
0 0
0 0
0 0
0 0
0 0
0 0
0 0
0 0
0 0
0 0
0 0
0 0
0 0
0 0
0 0
0 0
0 0
0 0
0 0
0 0
0 0
0 0
0 0
0 0
0 0
0 0
0 0
0 0
0 0
0 0
0 0
0 0
0 0
0 0
0 0
0 0
0 0
0 0
0 0
0 0
0 0
0 0
0 0
0 0
0 0
0 0
0 0
0 0
0 0
0 0
0 0
0 0
0 0
0 0
0 0
0 0
0 0
0 0
0 0
0 0
0 0
0 0
0 0
0 0
0 0
0 0
0 0
0 0
0 0
0 0
0 0
0 0
0 0
0 0
0 0
0 0
0 0
0 0
0 0
0 0
0 0
0 0
0 0
0 0
0 0
0 0
0 0
0 0
0 0
0 0
0 0
0 0
0 0
0 0
0 0
0 0
0 0
0 0
0 0
0 0
0 0
0 0
0 0
0 0
0 0
0 0
0 0
0 0
0 0
0 0
0 0
0 0
0 0
0 0
0 0
0 0
0 0
0 0
0 0
0 0
0 0
0 0
0 0
0 0
0 0
0 0
      </DataArray> 
      <DataArray type="Float64" NumberOfComponents="2" Name="CauchyNormalStress" format="ascii">
10.8146 6.38471
9.81959 5.15599
10.5194 1.06304
5.42768 -0.242398
3.673 0.0438768
2.2582 -0.0181497
1.45259 -0.120866
0.914713 -0.119191
0.296924 -0.0544719
-0.14986 -0.00583176
-0.50094 -0.0583454
-0.714088 -0.07985
-1.01598 -0.0422024
-1.21159 -0.00201677
-1.34179 -0.0466169
-1.37236 -0.0576274
-1.46872 -0.0215595
-1.47384 0.00513252
-1.41608 -0.0430571
-1.25584 -0.0579781
-1.16183 -0.021483
-0.97491 0.00347998
-0.707654 -0.0539018
-0.305253 -0.0782774
0.0137789 -0.0287616
0.468188 0.0164432
1.07926 -0.057272
2.07295 -0.239025
3.03403 -0.34371
4.55676 -0.16124
9.44582 0.458065
-0.943551 0.972279
-1.24472 1.14879
-1.13016 2.26878
3.29064 8.35434
-0.927781 -0.0340595
-0.227288 -0.169721
-0.0493162 -0.321895
-0.121216 -0.448593
-0.116707 -0.490896
-0.0315746 -0.721418
-0.0219287 -0.785495
-0.0197134 -0.860123
-0.0511555 -0.870444
-0.0813126 -0.944413
-0.0920004 -0.795352
-0.102486 -0.858864
-0.131189 -0.830072
-0.176149 -0.83926
-0.219884 -0.76228
-0.259208 -0.748407
-0.294815 -0.619692
-0.357828 -0.649611
-0.00876436 -0.866597
-0.739606 -0.0537694
-0.875553 -0.0689993
-0.665743 -0.162554
-0.717622 -0.211555
-0.508167 -0.365871
-93.5751 -245.713
-0.539321 -2.37267
-0.176376 -0.944799
-1.17619 -2.9809
-9.41535 -47.1902
-3.25447 -41.6999
0.0138374 -23.8743
-1.84204 -25.1017
-2.12953 -24.649
-3.84563 -28.6114
20.7785 1.28122
-15.7109 -47.2498
-20.7551 -56.5058
-28.5373 -84.614
-9.51696 -46.8468
21.7737 0.61221
29.6507 12.1822
-23.5989 -8.88397
-85.0993 -235.518
-3.47569 -41.8639
0.0065272 -24.1318
-1.90473 -25.2407
-2.13035 -24.7204
-3.82891 -28.5939
0.0204037 -1.08984
-0.522519 -2.33867
-0.265083 -0.94851
-1.53675 -2.66211
-1.00331 0.130061
-0.259271 -1.83987
-0.0493097 -1.03851
-0.253874 -1.28278
-0.282527 -0.74542
-0.346313 -0.65628
-0.692107 1.01222
-0.73518 -0.0172644
-0.852593 -0.113258
-0.634761 -0.135798
-0.710122 -0.250585
-0.555472 -0.25044
-0.548544 -0.365935
-0.446017 -0.420803
-0.426375 -0.50535
-0.367245 -0.606015
-0.30512 -0.618619
-0.267555 -0.751963
-0.186387 -0.714859
-0.145432 -0.865572
-0.0841412 -0.861712
-0.0985323 -0.91315
-0.0795712 -0.838074
-0.0507451 -0.894786
-0.927865 1.65336
-0.344278 3.12463
3.5739 7.7719
-24.1384 -14.6447
-14.6331 -37.8513
-23.3693 -15.816
-12.7918 -51.2586
-16.3446 -41.4949
-2.90902 -30.4952
-23.8594 -11.558
6.30982 -33.7812
1.84419 -5.13055
1.3018 -5.1277
-4.32895 -52.5954
-4.56999 -54.1004
3.00504 -12.5338
1.16544 -5.98903
0.528848 -25.5167
0.612208 -22.2981
-0.385288 -25.6564
1.23173 -19.4903
0.748595 -22.658
-2.30648 -21.5896
-0.320821 -21.6859
-0.670383 -23.4721
-3.09545 -23.1907
1.80344 -17.9842
2.3363 -17.1752
1.99787 -23.3922
-12.3156 -7.71041
-12.8246 -7.71233
-13.614 -8.51034
1.11384 -27.1551
1.5517 -20.6862
-7.03165 -23.98
-6.72103 -22.5409
-0.415134 -30.2467
-2.00538 -29.1687
-5.46721 -25.6951
-6.13893 -27.5652
-0.536325 -28.0568
-9.4653 -6.29637
-11.2576 -6.68986
-10.4497 -6.77679
0.973906 -17.3344
1.35164 -18.2635
-10.5255 -10.8921
-6.94263 -16.3813
-1.55655 -18.765
0.466134 -16.3308
0.315623 -17.4642
-1.62683 -20.2717
-7.39917 -17.5489
-11.2056 -11.3184
2.09966 -15.0561
2.90659 -20.8789
-17.4731 -13.0949
-17.0237 -10.435
-14.3105 -8.38496
-14.9658 -11.465
3.67388 -21.5901
3.9607 -25.9839
3.18774 -25.1258
2.53854 -20.72
2.51682 -16.1992
2.21335 -14.3864
-18.2982 -14.9952
-10.4908 -21.838
-10.1322 -20.3583
-18.1111 -20.9562
2.89147 -32.1148
0.205319 -40.6613
-6.65735 -30.3715
-1.33247 -32.1049
3.4934 -29.5632
-8.51354 -6.15264
-9.72813 -6.25344
-9.71815 -5.99991
-9.98041 -6.1973
-8.16762 -5.21499
-7.91148 -5.13482
-7.56667 -4.89584
-8.64492 -5.84116
1.29694 -14.7683
1.83013 -13.4019
1.94873 -13.0781
1.34219 -15.1831
-8.04765 -6.2166
-8.40327 -7.10673
-8.55626 -10.6329
-6.60966 -12.6617
-3.2042 -14.8689
-1.10222 -16.0468
-1.54027 -16.8684
-3.72 -15.7562
-7.1576 -13.534
-8.83358 -11.006
-8.89745 -6.81678
-8.34551 -5.97596
2.02074 -12.6835
3.22181 -16.5038
-23.1575 -18.8371
-19.229 -10.9349
-20.8667 -13.2976
4.74613 -21.7237
4.74511 -24.4298
2.97028 -16.3004
1.95843 -11.5093
-18.4399 -23.6932
-18.4781 -30.553
5.05869 -34.8541
-8.76608 -36.1786
-18.784 -37.6677
-7.09656 -31.4713
1.66475 -35.9061
-5.9823 -4.30283
-6.81979 -4.7623
-6.92498 -4.70485
-6.05918 -4.17718
-5.65809 -4.07512
-5.68052 -4.01758
1.54164 -12.2376
1.29425 -12.0424
-5.90164 -5.3214
-4.40805 -8.83117
-0.479405 -12.4528
-1.13744 -12.9801
-4.81317 -9.02888
-5.89944 -4.92436
1.35228 -7.9935
1.67611 -9.23062
2.0018 -10.9996
2.38388 -11.2344
3.34778 -12.3091
4.36559 -16.1001
-19.9249 -29.7785
-24.5486 -11.7099
-22.2396 -20.53
5.28463 -20.3951
5.39297 -21.6193
4.42294 -17.8169
3.39892 -14.5028
2.62559 -12.3776
1.74222 -9.59052
1.25459 -7.09826
-21.9772 -32.593
-22.0618 -42.9861
6.01321 -25.8565
5.49135 -47.0099
-21.0048 -49.8558
6.24478 -35.0146
5.86102 -24.3247
-12.1215 -40.6988
3.42846 -42.7328
-3.1388 -3.00976
-3.42269 -2.9195
-4.25579 -3.45488
-3.67678 -3.44087
-4.93206 -3.52013
-4.58416 -3.5601
-4.69069 -3.24475
-4.69213 -3.32141
-3.7973 -2.88506
-4.03914 -2.87492
-3.5858 -3.15721
-4.07986 -3.1108
-2.95635 -2.70821
-3.27529 -2.92215
1.36465 -10.9422
1.51402 -10.6234
1.60419 -9.2808
1.17249 -6.94762
1.61262 -8.97139
1.4102 -10.9596
0.643751 -11.7081
-4.01413 -3.81414
-3.13666 -5.07148
-1.34488 -7.79105
0.206738 -9.41103
-0.884473 -10.2618
-1.96384 -8.08448
-3.62274 -4.93056
-3.7237 -3.29116
0.518749 -3.74355
1.096 -6.38998
1.48168 -7.12421
2.20155 -8.59411
3.05242 -10.3363
0.553161 -67.4239
-18.9426 -10.2174
-11.4273 -1.40079
-19.4393 -7.87972
-2.52484 -61.6649
4.60946 -16.0645
4.43747 -15.3604
3.07388 -11.2414
1.85329 -9.0393
0.626376 -4.30932
1.02713 -86.7693
-6.84881 -66.3631
0.635375 -83.7999
-3.06761 -71.0869
4.77236 -27.2251
-12.202 -69.0631
-39.6796 -80.7722
4.63019 -22.4549
-37.9961 -71.0292
-3.24237 -54.7874
-0.479206 -1.71747
-1.49967 -2.23237
-2.62772 -2.22823
-2.99228 -2.07781
-2.74761 -1.95775
-1.90811 -1.99955
-0.529394 -1.83231
2.232 -7.57477
0.858852 -4.89985
1.16995 -5.44711
1.55687 -8.27538
-0.305763 -2.25237
2.36282 -6.06949
3.43276 -5.24796
2.63516 -6.47075
0.887042 -6.70536
-0.410828 -2.0943
0.523706 -2.38087
0.506267 -3.06459
0.126162 -1.71129
0.347714 -2.79906
0.325476 -2.78902
0.641075 -4.20079
0.552644 -3.5795
0.831614 -4.45057
0.877392 -4.39735
1.00198 -4.58719
0.840755 -4.03185
-17.0854 -28.8275
-9.02559 -2.91925
-8.14872 -2.60899
-17.6054 -20.3212
1.76089 -6.27143
2.19582 -7.5213
2.35024 -8.40967
1.62388 -7.12133
2.03841 -11.6161
1.90922 -10.4787
1.7116 -7.43841
2.13591 -7.79469
2.16229 -7.4443
1.67596 -6.10627
1.67433 -6.2177
1.2611 -5.2819
0.746974 -3.94093
0.898941 -4.68137
0.240766 -2.55922
0.339358 -2.60039
0.307984 -2.66246
0.22063 -2.25805
0.927344 -46.9097
1.10662 -62.5552
-1.078 -83.3143
0.760131 -45.6069
0.68593 -79.8637
0.460711 -60.1653
0.701512 -14.0152
-2.44086 -12.7418
-1.79867 -97.4151
1.25399 -13.7307
2.5867 -65.8122
-0.674074 -17.7814
1.75844 -0.940697
3.96612 1.13989
2.1682 -1.27999
0.275571 -1.12859
0.909899 -1.11955
-0.530769 -1.19261
-1.35837 -1.15026
-1.00896 -1.12669
-1.75748 -1.11984
-2.09717 -1.09962
-1.96165 -1.07197
-2.08527 -1.00188
-2.03569 -1.00896
-2.09951 -0.973623
-1.78003 -0.989572
-1.27963 -1.02206
-1.58318 -0.970639
-0.699953 -1.0415
0.562622 -1.13819
-0.222275 -1.01375
1.55245 -0.745302
4.36725 0.793197
2.04947 -0.838188
0.130041 -1.43349
0.132032 -1.62235
0.279144 -2.12804
0.238446 -2.05381
1.26087 -4.83148
2.57717 -1.71552
1.52132 -4.77875
2.38226 -5.63606
2.02951 -2.308
4.34239 -0.214475
2.72453 -3.21439
1.9683 -3.81649
3.8516 -0.171869
0.185319 -1.12623
0.159791 -1.03546
0.21579 0.0360118
0.365996 -0.693958
0.288412 -0.758585
0.129767 -0.172282
1.73316 0.786328
8.30472 3.20992
2.09782 0.841765
1.92285 -0.17732
2.12273 -0.388071
6.54203 0.937332
3.97004 -3.47101
4.97212 -1.39271
0.704529 -1.72405
0.861623 -1.81472
-0.398021 -3.99945
0.293312 -4.0939
1.84973 -7.60449
1.6182 -7.3662
0.536132 -3.76695
0.282039 -2.52743
-0.360709 -1.21126
-1.15106 -2.03163
-2.34316 -1.94847
-2.85693 -1.95811
-2.87166 -2.16111
-2.08729 -2.25359
-0.63393 -2.16912
-1.44295 -1.312
4.60028 -31.618
3.27307 -40.7559
5.63539 -69.0268
6.09874 -71.163
0.717886 -4.46948
2.12183 -8.79472
3.83694 -12.8697
3.88102 -15.0471
4.79823 -19.2114
3.91139 -13.0836
-18.1994 -21.4211
-16.191 -28.9702
2.2134 -7.95655
1.87304 -8.14997
1.47084 -7.68823
0.785977 -4.89191
1.24465 -9.04877
2.55206 -8.02513
-22.0249 -50.1513
-23.6194 -59.7393
-21.6015 -6.8308
-6.55887 -6.14672
-3.25176 -11.7103
-2.59501 -11.11
-6.40826 -6.53871
0.593566 -14.2136
1.68432 -10.0672
1.80197 -10.9663
1.01083 -13.7173
-5.36478 -3.96167
-5.98321 -4.21676
-5.34892 -3.82372
-6.63654 -4.50228
-7.13906 -4.85219
-6.50196 -4.62814
-5.53816 -4.18865
-3.78813 -34.5663
5.39023 -31.5168
3.61295 -44.7239
5.20081 -27.308
-22.4077 -28.0729
-23.467 -19.8484
2.31799 -12.8618
3.81825 -20.0026
-15.9251 -9.39922
-22.3113 -14.5668
3.98598 -17.0075
2.42866 -14.3012
-10.2415 -28.2618
-10.0111 -26.5012
-11.2935 -7.65981
-11.0395 -15.4059
-3.94043 -19.7402
-3.52982 -18.5328
-10.5644 -14.2963
-10.5033 -7.93534
2.09426 -16.0507
1.70239 -15.8306
-9.73584 -5.97715
-12.772 -7.45604
1.01472 -29.6324
-3.03047 -34.0133
1.25651 -24.6867
1.95275 -26.6401
0.479175 -20.6122
0.269918 -18.9068
-2.04024 -26.5347
-0.960155 -24.5156
2.14154 -20.1138
2.49343 -101.586
-1.8712 -1.38129
-10.9541 -24.2209
-4.35177 -21.9357
-3.29678 -2.92184
4.15699 -44.5901
-1.39266 -1.88976
-17.4213 -137.285
-11.6185 -43.0943
-2.07613 -2.51765
-6.06894 -24.6233
1.78632 -63.5644
-0.129661 -70.5981
-9.86956 -70.5044
-8.86567 -57.4845
-5.80665 -111.537
-5.56087 -30.3594
-9.07536 -33.4094
-6.17624 -49.0867
2.82024 -64.2767
2.43426 -70.7903
0.570959 -51.8961
-3.33569 -45.0869
-2.53279 -38.584
-12.2955 -36.6584
-16.0384 -45.5558
-0.807139 -35.2207
2.2817 -58.1914
-0.143832 -73.8887
-8.0959 -59.4703
-9.92589 -74.4566
-5.94307 -50.4004
-5.58241 -30.3939
-9.05665 -33.5064
-9.73235 -123.066
1.988 -72.7986
3.25576 -66.7398
0.920906 -53.6365
-2.47295 -39.3192
-3.12584 -46.2344
-0.733753 -35.9117
-12.3296 -36.926
-16.0285 -46.3639
2.60631 -60.1296
-11.1935 -7.68512
1.29235 -4.20004
6.59116 2.08816
5.16411 -0.524357
-60.9737 -118.163
-28.9573 -85.8329
-44.8554 -66.6159
-17.4881 -22.204
-12.7043 -10.2147
-12.0773 -9.42069
5.27044 1.20126
0.318267 -4.27004
-44.7304 -74.8648
-60.0974 -119.913
-24.1743 -9.92712
4.99374 -0.7975
-12.4461 -13.1485
-16.6337 -30.0452
-19.3145 -61.5027
-17.3496 -87.0893
1.11933 -66.3591
-61.8344 -99.2456
5.30163 -48.3613
-20.8673 -48.2662
-27.7102 -58.888
-35.4352 -74.4733
-7.71879 -86.4309
-43.1914 -98.3928
3.06713 -63.9613
-62.1558 -103.817
-31.4732 -69.0223
-28.0675 -61.2793
-18.0117 -78.5124
-16.8603 -97.026
-2.75579 -76.8207
1.27819 -71.7611
-13.084 -65.9131
-19.9486 -68.8524
-5.41825 -75.5056
-24.3096 -87.4918
0.0665157 -70.6421
-14.9111 -57.7211
2.37561 -74.7255
-10.2275 -48.4474
-4.97918 -56.9497
-12.164 -42.7919
-18.6333 -118.142
4.41245 -76.4976
1.35983 -67.4717
-15.7108 -4.24789
-8.93975 -2.00819
-14.3758 -6.78739
4.03833 -1.01156
-18.453 -13.7705
-20.1817 -7.10618
-17.0326 -4.78156
-15.4726 -5.44239
-14.7791 -8.55375
-9.40397 -2.29946
-17.5208 -17.9606
-19.9332 -8.18205
3.0151 -76.8551
-3.76031 -61.6206
-7.10884 -55.9074
-17.6424 -115.042
-9.05771 -50.2579
2.51196 -68.8809
3.92927 -74.5132
-19.2748 -42.6831
-11.5791 -49.6363
-3.65149 -43.6656
-7.88808 -37.6837
-23.6231 -54.6522
-12.5456 -56.4197
-0.284766 -56.8599
-2.7038 -49.3905
-20.9671 -43.8319
-15.6154 -39.1243
-10.9049 -34.3468
-14.5088 -32.9194
-18.171 -30.6918
-20.4424 -28.2975
-21.0098 -35.4199
-21.0351 -21.646
-22.4972 -26.4248
-21.3976 -40.8916
-14.5736 -26.0331
-20.6663 -29.4414
-20.4888 -24.6816
-18.0096 -25.7148
-14.2328 -23.6547
-14.4661 -17.9137
-14.2692 -28.6334
-20.9196 -17.7593
-18.2002 -19.2552
-14.8417 -19.8017
-14.792 -14.9739
-22.1643 -16.4622
-19.5212 -14.0317
-17.1093 -12.1355
-18.432 -11.5153
-19.6169 -12.6312
-20.6953 -12.5236
-18.0874 -10.6056
-16.0432 -9.3044
-17.5413 -10.101
-14.9503 -8.86731
-17.6376 -16.8453
-20.7046 -19.7857
-20.463 -16.3494
-22.6273 -23.2841
-22.6864 -16.4901
-19.8301 -13.7052
-14.1006 -13.4277
-17.115 -11.6375
-14.7269 -9.12822
-11.3735 -7.74194
-12.4391 -7.57738
-14.9314 -10.3219
-14.1307 -10.8326
-13.8468 -56.3344
-3.58951 -70.5056
-13.2541 -71.8697
1.77177 -64.4313
-20.7576 -56.2989
-15.6596 -47.1001
-7.42734 -48.785
0.369059 -36.032
-1.53238 -51.7323
-2.34764 -37.7549
-19.2199 -52.2938
-25.6815 -41.7032
-2.21182 -36.9627
-1.52287 -50.334
0.29295 -35.3453
1.57617 -62.3647
-19.5209 -50.5261
-25.0619 -42.7002
-7.17362 -48.2954
-13.2807 -70.5239
-3.47776 -68.4482
-13.6227 -55.5502
28.9664 14.5345
21.8216 1.07101
-22.8903 -15.8133
-21.8597 -10.3481
-20.7152 -13.6985
-22.7184 -8.77911
-19.9128 -21.1844
-22.9609 -20.3125
-23.7236 -15.6754
-19.578 -31.3724
-19.1326 -36.261
-22.1022 -27.0003
-19.0874 -46.1183
-17.0661 -32.6186
-4.08548 -63.1433
-12.3914 -53.4488
-9.15769 -50.1577
-5.71322 -58.1891
-9.23015 -61.0183
-0.975597 -67.8045
-17.3933 -55.3063
-13.8713 -41.6526
-20.6839 -37.0764
-17.297 -46.3934
-16.72 -41.3538
-22.7373 -50.8501
-17.6984 -29.8667
-21.1773 -28.9303
-21.6454 -35.8937
-23.3792 -17.808
-23.82 -13.369
-23.8622 -14.9476
-22.604 -10.9427
-23.3782 -9.94787
-23.7271 -13.6772
-22.7739 -21.7497
-19.3041 -19.1186
-21.4227 -13.9448
-21.6654 -22.1633
-18.8537 -40.4293
-17.0996 -43.8744
-22.4284 -46.5744
-8.3991 -44.9443
-20.2499 -36.6504
-16.7389 -34.1487
-12.0283 -32.0368
-21.8964 -13.0454
-22.5686 -14.0578
-19.9993 -12.173
-23.6142 -17.1804
-23.2463 -14.4077
-24.05 -11.3609
-24.0549 -13.4008
-24.2293 -12.7609
-5.67424 -13.0883
-3.49523 -17.3153
-3.304 -8.79458
-1.51538 -35.5939
-0.274623 -26.5719
-2.09735 -7.44884
-3.16201 -2.21509
-4.90861 -1.59844
-7.87627 -13.8289
-5.74735 -58.9516
-2.99473 -45.326
-7.71439 -31.6981
3.08865 -49.6338
-11.8354 -22.1272
-5.96685 -67.3378
1.63881 -75.5635
-31.1896 -183.674
-35.6565 -43.8638
-20.9939 -80.3816
-3.73072 -90.3004
-18.9958 -85.2558
-49.3172 -160.612
-35.6121 -41.8001
-38.3393 -192.521
-20.8073 -87.5349
-19.5335 -93.1828
-5.37781 -95.3548
-47.5022 -173.11
-37.899 -91.7668
-28.2265 -109.567
-10.8092 -100.244
-85.3442 -154.396
-36.4757 -152.701
1.37986 -76.7142
-5.4889 -81.813
-30.2496 -77.2104
-45.6146 -83.9921
2.78209 -56.8741
4.31162 -47.6631
3.75626 -55.6422
4.60254 -36.8307
4.82191 -40.7039
1.59212 -52.1142
-1.98941 -60.9843
0.986587 -68.9062
3.62655 -52.3218
-20.2935 -54.3235
-24.8414 -53.593
-24.9028 -59.951
-22.0886 -49.5059
-24.6165 -54.58
-31.1064 -65.1489
-30.0311 -66.366
-10.4394 -58.5103
-14.8053 -55.471
-0.996171 -73.1668
1.51241 -65.6498
-1.64425 -76.356
3.23387 -53.3301
-6.13234 -95.2791
-10.8949 -77.7641
-3.52944 -67.1009
-32.4142 -118.967
-49.5801 -123.051
-58.772 -99.9451
-67.6064 -188.65
-86.6281 -162.221
-44.7068 -91.982
-46.0268 -87.5859
-20.3566 -103.274
-8.4939 -116.784
-35.8218 -71.6894
-31.9271 -65.2279
-29.7888 -67.27
-25.9532 -63.7738
-27.553 -60.732
-20.6838 -64.8985
-23.7291 -72.2445
-41.2418 -78.0779
-33.4319 -74.6865
-33.4983 -101.725
-29.4358 -110.567
-14.223 -107.52
-7.1715 -89.8482
-28.6066 -89.0278
-28.3243 -79.9287
-24.9162 -73.9015
-22.0117 -68.9283
-8.86154 -73.2185
-20.1108 -104.16
-37.8803 -110.436
-42.1029 -90.8675
-33.1478 -79.0491
-12.0297 -89.0695
-29.4175 -70.723
-24.5434 -63.9408
-12.9942 -66.7909
-21.3428 -59.2703
-7.70674 -51.9193
-3.68851 -49.1642
-7.76666 -46.6157
-7.93504 -42.2268
-3.81196 -39.1342
-11.8548 -45.2369
0.462766 -61.0464
2.78405 -52.5457
4.66139 -54.1853
1.98004 -50.1333
4.1823 -46.2028
4.30277 -44.7491
-5.3877 -62.5019
-7.2613 -52.9823
-1.90983 -53.2548
-6.0514 -56.8208
0.625975 -47.3407
-12.4799 -62.4518
-17.6365 -52.9825
-9.95919 -50.3458
-0.943092 -44.7458
-5.8469 -47.1058
-12.0117 -41.5265
-14.6326 -47.7045
1.54991 -42.8372
-4.00782 -43.0735
-5.3537 -39.235
-1.76529 -37.372
0.127663 -43.254
2.20992 -39.4639
-0.828816 -39.6141
4.61262 -36.5878
3.69785 -33.8534
-0.985036 -35.249
0.611821 -48.2609
0.0861292 -34.4279
-2.33332 -19.7582
1.10612 -31.6843
-3.34136 -11.1292
-1.41556 -9.32189
2.05406 -25.1931
-2.25867 -44.1451
-6.59816 -11.1908
-3.9294 -10.3825
-7.36505 -23.4481
-3.25674 -0.654693
-4.0789 -45.7545
-9.4356 -11.0291
-5.7032 -3.59318
-12.4254 -35.6387
-19.4963 -16.163
-7.57095 -59.5349
-5.57193 0.128161
-8.64757 -1.65675
0.295874 -15.8465
-0.613126 -9.26345
0.378169 -7.18714
-21.1988 17.6619
-45.5643 -73.6601
0.536178 -7.3591
2.66603 -22.8933
-17.5118 -39.575
-7.7999 -76.9959
-23.3269 -26.5806
-7.08746 0.339694
-11.3481 5.43069
-1.32444 -14.3087
0.0947039 -7.23345
-1.03636 -6.99798
0.398092 -7.46211
-19.7602 36.4914
-45.8565 -62.2791
2.03631 -26.0717
0.798736 -4.36565
0.221061 -2.2413
0.292482 -2.60901
0.180236 -2.19623
-0.0134122 -0.789871
-0.0687674 -0.687815
0.34844 -2.66717
1.47785 -6.74814
1.44909 -6.30374
0.997702 -4.60307
0.388873 -2.75863
0.0928356 -2.14019
0.290301 -2.70646
-0.123856 -0.479726
-0.0949311 -0.531334
1.6937 -7.05824
1.67624 -6.16821
0.480231 -3.05198
0.434117 -3.0716
0.319916 -2.9831
-0.0264115 -0.382145
-0.132236 -0.199289
0.533182 -3.13706
2.73367 -9.57682
2.81486 -9.24617
1.89622 -6.91788
0.664241 -3.62651
0.518195 -3.05738
0.780399 -3.73164
-0.513615 -0.481451
-0.52116 -0.385914
2.97274 -10.3165
1.95647 -7.66197
0.557191 -3.9108
0.835222 -4.01234
0.706657 -4.00833
-0.716061 -0.251294
-0.672262 -0.216391
0.699439 -3.91362
3.05852 -11.2143
2.71942 -11.2981
1.80296 -9.08671
0.84316 -5.73169
0.811851 -4.11639
0.908474 -5.5968
-0.863339 -0.114109
-0.742748 -0.0980218
2.96543 -12.8397
1.79931 -9.53798
0.742014 -3.903
0.936329 -6.27467
0.665012 -3.8759
-0.506388 -0.499502
-0.343906 -0.642002
0.944712 -5.99354
3.46767 -15.4172
3.15106 -13.0849
2.01761 -7.83011
0.953514 -4.34155
0.521255 -3.78092
0.789362 -4.21804
-0.275391 -0.740383
-0.265217 -1.27799
3.57628 -13.4797
1.95636 -6.9721
0.524559 -3.11718
0.668532 -3.70006
0.453511 -3.07021
-0.0460236 -0.958838
-0.335967 -1.80454
0.798397 -3.78771
3.05647 -10.3675
2.89021 -9.50389
0.898269 -4.37279
0.229129 -2.41708
0.172189 -2.12116
0.314593 -2.4766
-0.405065 -0.552617
-0.458094 -0.525055
0.058694 -2.08954
1.5579 -5.87837
1.5903 -6.30848
0.839207 -4.476
0.261751 -2.50467
0.288878 -2.44385
0.305409 -2.54994
-0.538428 -0.35603
-0.584099 -0.312482
0.242856 -2.41148
1.40573 -6.19576
1.34234 -6.30232
-0.756315 -0.170783
0.168626 -2.14207
0.205609 -2.21082
0.212688 -2.23888
1.02365 -5.54128
-0.648215 -0.139409
-18.982 -72.9962
-5.80543 -74.8513
-8.41073 -64.551
3.15029 -16.5493
3.05179 -18.2597
1.56235 -12.2948
4.70996 -26.5007
4.31411 -18.4916
-21.328 -79.9997
-23.0374 -92.1867
-37.7167 -84.3933
3.3413 -19.2289
1.24145 -13.4618
2.81166 -20.2204
3.99012 -33.5827
4.7584 -23.3186
-17.4847 -88.7892
-7.88316 -81.8837
-20.7318 -78.2332
-11.2889 -78.2728
1.96753 -8.98652
1.41501 -6.7699
0.79347 -4.66952
1.25717 -6.73688
2.38346 -8.68025
1.47067 -5.74716
2.16694 -8.26862
2.58967 -10.0657
3.42032 -12.1346
3.22469 -11.6984
2.14397 -7.7132
3.38302 -11.1411
4.0851 -14.2869
4.14942 -15.3482
3.4627 -11.5527
2.25908 -8.08969
3.47606 -12.3354
4.66629 -17.9035
4.18186 -14.7014
1.51998 -6.52645
0.921184 -4.57625
1.64446 -6.48197
2.19882 -8.35982
2.02598 -8.43458
1.00953 -5.34632
0.673957 -4.06621
1.17838 -5.73272
1.66129 -7.66096
1.46487 -7.45302
-16.151 -49.1525
-16.521 -44.5055
6.21028 -29.1098
5.33553 -29.1441
5.21276 -23.6744
5.3036 -33.8998
4.78553 -19.9048
5.68378 -28.2293
5.54786 -33.6078
-20.5293 -59.2021
-23.3329 -54.9911
2.38545 -10.531
2.22386 -10.7481
2.12114 -10.9113
2.48749 -12.6682
3.84239 -16.1526
3.77502 -14.4672
3.23118 -12.9005
4.15483 -15.4237
2.77103 -11.6367
3.65521 -17.1634
4.12848 -18.9751
5.52659 -23.2104
5.22489 -19.4687
4.92323 -18.7196
4.70164 -16.9865
5.52718 -26.2204
5.60261 -23.2201
4.96122 -18.2414
5.37866 -20.7328
4.65789 -16.5726
5.48402 -22.6286
5.61136 -26.6119
5.23746 -23.7921
3.81397 -14.2584
3.19933 -11.3649
3.75922 -13.0941
2.82276 -10.0253
2.59221 -9.17986
3.43273 -11.7906
4.14663 -14.6348
4.17746 -16.577
3.69707 -14.5681
2.14254 -9.63665
1.92645 -9.18444
1.90022 -9.52251
2.41933 -12.7273
6.01553 -40.6978
4.97912 -39.2963
3.85071 -46.0805
3.20193 -15.4396
2.98578 -13.4561
2.82607 -14.2935
2.61644 -14.6058
3.32368 -18.1768
5.1016 -23.0813
4.81203 -19.7639
4.6477 -20.9657
4.19251 -22.2462
4.98005 -27.9695
4.57772 -18.8266
4.77135 -18.3279
5.02139 -21.0728
4.96678 -24.5076
4.34389 -19.4043
4.28499 -30.67
2.6977 -32.6068
1.16607 -32.8123
2.35184 -29.6455
1.76402 -36.1297
3.78465 -33.5848
2.70254 -38.0492
4.02833 -29.8257
5.16909 -30.9413
4.51626 -39.482
0.0376568 -33.2688
3.19624 -20.4021
2.79381 -18.4406
2.21178 -18.423
1.9566 -22.6395
3.29038 -27.4153
4.09276 -26.9465
3.98075 -24.8206
3.54863 -22.4745
2.14399 -27.3358
3.78429 -23.8302
4.21228 -21.68
4.32217 -23.8479
3.84545 -19.2527
4.52727 -26.6845
3.02816 -26.3669
2.83662 -24.074
3.5915 -16.7759
3.45613 -19.0618
2.7256 -18.2999
2.76659 -15.4225
3.47329 -28.907
2.27114 -29.4879
2.76911 -22.9577
2.26285 -24.9129
3.17253 -12.4722
2.63809 -10.4684
2.74328 -10.5103
2.42561 -10.3834
3.47763 -14.8135
2.82208 -13.8935
2.67742 -11.9218
3.13423 -14.4534
2.2162 -7.60783
1.51712 -5.7404
2.40708 -8.36185
0.269347 -2.55049
1.74692 -6.58873
0.0540304 -2.04814
0.26364 -2.54314
1.06546 -4.58468
-0.875138 -0.106395
-0.73053 -0.0508717
5.94021 -39.8452
5.61147 -30.6687
5.04028 -37.5604
5.53452 -26.474
5.0265 -39.6406
5.48936 -30.44
6.10093 -29.8017
5.61281 -34.4519
0 0
0 0
0 0
0 0
0 0
0 0
0 0
0 0
0 0
0 0
0 0
0 0
0 0
0 0
0 0
0 0
0 0
0 0
0 0
0 0
0 0
0 0
0 0
0 0
0 0
0 0
0 0
0 0
0 0
0 0
0 0
0 0
0 0
0 0
0 0
0 0
0 0
0 0
0 0
0 0
0 0
0 0
0 0
0 0
0 0
0 0
0 0
0 0
0 0
0 0
0 0
0 0
0 0
0 0
0 0
0 0
0 0
0 0
0 0
0 0
0 0
0 0
0 0
0 0
0 0
0 0
0 0
0 0
0 0
0 0
0 0
0 0
0 0
0 0
0 0
0 0
0 0
0 0
0 0
0 0
0 0
0 0
0 0
0 0
0 0
0 0
0 0
0 0
0 0
0 0
0 0
0 0
0 0
0 0
0 0
0 0
0 0
0 0
0 0
0 0
0 0
0 0
0 0
0 0
0 0
0 0
0 0
0 0
0 0
0 0
0 0
0 0
0 0
0 0
0 0
0 0
0 0
0 0
0 0
0 0
0 0
0 0
0 0
0 0
0 0
0 0
0 0
0 0
0 0
0 0
0 0
0 0
0 0
0 0
0 0
0 0
0 0
0 0
0 0
0 0
0 0
0 0
0 0
0 0
0 0
0 0
0 0
0 0
0 0
0 0
0 0
0 0
0 0
0 0
0 0
0 0
0 0
0 0
0 0
0 0
0 0
0 0
0 0
0 0
0 0
0 0
0 0
0 0
0 0
0 0
0 0
0 0
0 0
0 0
0 0
0 0
0 0
0 0
0 0
0 0
0 0
0 0
0 0
0 0
0 0
0 0
0 0
0 0
0 0
0 0
0 0
0 0
0 0
0 0
0 0
0 0
0 0
0 0
0 0
0 0
0 0
0 0
0 0
0 0
0 0
0 0
0 0
0 0
0 0
0 0
0 0
0 0
0 0
0 0
0 0
0 0
0 0
0 0
0 0
0 0
0 0
0 0
0 0
0 0
0 0
0 0
0 0
0 0
0 0
0 0
0 0
0 0
0 0
0 0
0 0
0 0
0 0
0 0
0 0
0 0
0 0
0 0
0 0
0 0
0 0
0 0
0 0
0 0
0 0
0 0
0 0
0 0
0 0
0 0
0 0
0 0
0 0
0 0
0 0
0 0
0 0
0 0
0 0
0 0
0 0
0 0
0 0
0 0
0 0
0 0
0 0
0 0
0 0
0 0
0 0
0 0
0 0
0 0
0 0
0 0
0 0
0 0
0 0
0 0
0 0
0 0
0 0
0 0
0 0
0 0
0 0
0 0
0 0
0 0
0 0
0 0
0 0
0 0
0 0
0 0
0 0
0 0
0 0
0 0
0 0
0 0
0 0
0 0
0 0
0 0
0 0
0 0
0 0
0 0
0 0
0 0
0 0
0 0
0 0
0 0
0 0
0 0
0 0
0 0
0 0
0 0
0 0
0 0
0 0
0 0
0 0
0 0
0 0
0 0
0 0
0 0
0 0
0 0
0 0
0 0
0 0
0 0
0 0
0 0
0 0
0 0
0 0
0 0
0 0
0 0
0 0
0 0
0 0
0 0
0 0
0 0
0 0
0 0
0 0
0 0
0 0
0 0
0 0
0 0
0 0
0 0
0 0
0 0
0 0
0 0
0 0
0 0
0 0
0 0
0 0
0 0
0 0
0 0
0 0
0 0
0 0
0 0
0 0
0 0
0 0
0 0
0 0
0 0
0 0
0 0
0 0
0 0
0 0
0 0
0 0
0 0
0 0
0 0
0 0
0 0
0 0
0 0
0 0
0 0
0 0
0 0
0 0
0 0
0 0
0 0
0 0
0 0
0 0
0 0
0 0
0 0
0 0
0 0
0 0
0 0
0 0
0 0
0 0
0 0
0 0
0 0
0 0
0 0
0 0
0 0
0 0
0 0
0 0
0 0
0 0
0 0
0 0
0 0
0 0
0 0
0 0
0 0
0 0
0 0
0 0
0 0
0 0
0 0
0 0
0 0
0 0
0 0
0 0
0 0
0 0
0 0
0 0
0 0
0 0
0 0
0 0
0 0
0 0
0 0
0 0
0 0
0 0
0 0
0 0
0 0
0 0
0 0
0 0
0 0
0 0
0 0
0 0
0 0
0 0
0 0
0 0
0 0
0 0
0 0
0 0
0 0
0 0
0 0
0 0
0 0
0 0
0 0
0 0
0 0
0 0
0 0
0 0
0 0
0 0
0 0
0 0
0 0
0 0
0 0
0 0
0 0
0 0
0 0
0 0
0 0
0 0
0 0
0 0
0 0
0 0
0 0
0 0
0 0
0 0
0 0
0 0
0 0
0 0
0 0
0 0
0 0
0 0
0 0
0 0
0 0
0 0
0 0
0 0
0 0
0 0
0 0
0 0
0 0
0 0
0 0
0 0
0 0
0 0
0 0
0 0
0 0
0 0
0 0
0 0
0 0
0 0
0 0
0 0
0 0
0 0
0 0
0 0
0 0
0 0
0 0
0 0
0 0
0 0
0 0
0 0
0 0
0 0
0 0
0 0
0 0
0 0
0 0
0 0
0 0
0 0
0 0
0 0
0 0
0 0
0 0
0 0
0 0
0 0
0 0
0 0
0 0
0 0
0 0
0 0
0 0
0 0
0 0
0 0
0 0
0 0
0 0
0 0
0 0
0 0
0 0
0 0
0 0
0 0
0 0
0 0
0 0
0 0
0 0
0 0
0 0
0 0
0 0
0 0
0 0
0 0
0 0
0 0
0 0
0 0
0 0
0 0
0 0
0 0
0 0
0 0
0 0
0 0
0 0
0 0
0 0
0 0
0 0
0 0
0 0
0 0
0 0
0 0
0 0
0 0
0 0
0 0
0 0
0 0
0 0
0 0
0 0
0 0
0 0
0 0
0 0
0 0
0 0
0 0
0 0
0 0
0 0
0 0
0 0
0 0
0 0
0 0
0 0
0 0
0 0
0 0
0 0
0 0
0 0
0 0
0 0
0 0
0 0
0 0
0 0
0 0
0 0
0 0
0 0
0 0
0 0
0 0
0 0
0 0
0 0
0 0
0 0
0 0
0 0
0 0
0 0
0 0
0 0
0 0
0 0
0 0
0 0
0 0
0 0
0 0
0 0
0 0
0 0
0 0
0 0
0 0
0 0
0 0
0 0
0 0
0 0
0 0
0 0
0 0
0 0
0 0
0 0
0 0
0 0
0 0
0 0
0 0
0 0
0 0
0 0
0 0
0 0
0 0
0 0
0 0
0 0
0 0
0 0
0 0
0 0
0 0
0 0
0 0
0 0
0 0
0 0
0 0
0 0
0 0
0 0
0 0
0 0
0 0
0 0
0 0
0 0
0 0
0 0
0 0
0 0
0 0
0 0
0 0
0 0
0 0
0 0
0 0
0 0
0 0
0 0
0 0
0 0
0 0
0 0
0 0
0 0
0 0
0 0
0 0
0 0
0 0
0 0
0 0
0 0
0 0
0 0
0 0
0 0
0 0
0 0
0 0
0 0
0 0
0 0
0 0
0 0
0 0
0 0
0 0
0 0
0 0
0 0
0 0
0 0
0 0
0 0
0 0
0 0
0 0
0 0
0 0
0 0
0 0
0 0
0 0
0 0
0 0
0 0
0 0
0 0
0 0
0 0
0 0
0 0
0 0
0 0
0 0
0 0
0 0
0 0
0 0
0 0
0 0
0 0
0 0
0 0
0 0
0 0
0 0
0 0
0 0
0 0
0 0
0 0
0 0
0 0
0 0
0 0
0 0
0 0
0 0
0 0
0 0
0 0
0 0
0 0
0 0
0 0
0 0
0 0
0 0
0 0
0 0
0 0
0 0
0 0
0 0
0 0
0 0
0 0
0 0
0 0
0 0
0 0
0 0
0 0
0 0
0 0
0 0
0 0
0 0
0 0
0 0
0 0
0 0
0 0
0 0
0 0
0 0
0 0
0 0
0 0
0 0
0 0
0 0
0 0
0 0
0 0
0 0
0 0
0 0
0 0
0 0
0 0
0 0
0 0
0 0
0 0
0 0
0 0
0 0
0 0
0 0
0 0
0 0
0 0
0 0
0 0
0 0
0 0
0 0
0 0
0 0
0 0
0 0
0 0
0 0
0 0
0 0
0 0
0 0
0 0
0 0
0 0
0 0
0 0
0 0
0 0
0 0
0 0
0 0
0 0
0 0
0 0
0 0
0 0
0 0
0 0
0 0
0 0
0 0
0 0
0 0
0 0
0 0
0 0
0 0
0 0
0 0
0 0
0 0
0 0
0 0
0 0
0 0
0 0
0 0
0 0
0 0
0 0
0 0
0 0
0 0
0 0
0 0
0 0
0 0
0 0
0 0
0 0
0 0
0 0
0 0
0 0
0 0
0 0
0 0
0 0
0 0
0 0
0 0
0 0
0 0
0 0
0 0
0 0
0 0
0 0
0 0
0 0
0 0
0 0
0 0
0 0
0 0
0 0
0 0
0 0
0 0
0 0
0 0
0 0
0 0
0 0
0 0
0 0
0 0
0 0
0 0
0 0
0 0
0 0
0 0
0 0
0 0
0 0
0 0
0 0
0 0
0 0
0 0
0 0
0 0
0 0
0 0
0 0
0 0
0 0
0 0
0 0
0 0
0 0
0 0
0 0
0 0
0 0
0 0
0 0
0 0
0 0
0 0
0 0
0 0
0 0
0 0
0 0
0 0
0 0
0 0
0 0
0 0
0 0
0 0
0 0
0 0
0 0
0 0
0 0
0 0
0 0
0 0
0 0
0 0
0 0
0 0
0 0
0 0
0 0
0 0
0 0
0 0
0 0
0 0
0 0
0 0
0 0
0 0
0 0
0 0
0 0
0 0
0 0
0 0
0 0
0 0
0 0
0 0
0 0
0 0
0 0
0 0
0 0
0 0
0 0
0 0
0 0
0 0
0 0
0 0
0 0
0 0
0 0
0 0
0 0
0 0
0 0
0 0
0 0
0 0
0 0
0 0
0 0
0 0
0 0
0 0
0 0
0 0
0 0
0 0
0 0
0 0
0 0
0 0
0 0
0 0
0 0
0 0
0 0
0 0
0 0
0 0
0 0
0 0
0 0
0 0
0 0
0 0
0 0
0 0
0 0
0 0
0 0
0 0
0 0
0 0
0 0
0 0
0 0
0 0
0 0
0 0
0 0
0 0
0 0
0 0
0 0
0 0
0 0
0 0
0 0
0 0
0 0
0 0
0 0
0 0
0 0
0 0
0 0
0 0
0 0
0 0
0 0
0 0
0 0
0 0
0 0
0 0
0 0
0 0
0 0
0 0
0 0
0 0
0 0
0 0
0 0
0 0
0 0
0 0
0 0
0 0
0 0
0 0
0 0
0 0
0 0
0 0
0 0
0 0
0 0
0 0
0 0
0 0
0 0
0 0
0 0
0 0
0 0
0 0
0 0
0 0
0 0
0 0
0 0
0 0
0 0
0 0
0 0
0 0
0 0
0 0
0 0
0 0
0 0
0 0
0 0
0 0
0 0
0 0
0 0
0 0
0 0
0 0
0 0
0 0
0 0
0 0
0 0
0 0
0 0
0 0
0 0
0 0
0 0
0 0
0 0
0 0
0 0
0 0
0 0
0 0
0 0
0 0
0 0
0 0
0 0
0 0
0 0
0 0
0 0
0 0
0 0
0 0
0 0
0 0
0 0
0 0
0 0
0 0
0 0
0 0
0 0
0 0
0 0
0 0
0 0
0 0
0 0
0 0
0 0
0 0
0 0
0 0
0 0
0 0
0 0
0 0
0 0
0 0
0 0
0 0
0 0
0 0
0 0
0 0
0 0
0 0
0 0
0 0
0 0
0 0
0 0
0 0
0 0
0 0
0 0
0 0
0 0
0 0
0 0
0 0
0 0
0 0
0 0
0 0
0 0
0 0
0 0
0 0
0 0
0 0
0 0
0 0
0 0
0 0
0 0
0 0
0 0
0 0
0 0
0 0
0 0
0 0
0 0
0 0
0 0
0 0
0 0
0 0
0 0
0 0
0 0
0 0
0 0
0 0
0 0
0 0
0 0
0 0
0 0
0 0
0 0
0 0
0 0
0 0
0 0
0 0
0 0
0 0
0 0
0 0
0 0
0 0
0 0
0 0
0 0
0 0
0 0
0 0
0 0
0 0
0 0
0 0
0 0
0 0
0 0
0 0
0 0
0 0
0 0
0 0
0 0
0 0
0 0
0 0
0 0
0 0
0 0
0 0
0 0
0 0
0 0
0 0
0 0
0 0
0 0
0 0
0 0
0 0
0 0
0 0
0 0
0 0
0 0
0 0
0 0
0 0
0 0
0 0
0 0
0 0
0 0
0 0
0 0
0 0
0 0
0 0
0 0
0 0
0 0
0 0
0 0
0 0
0 0
0 0
0 0
0 0
0 0
0 0
0 0
0 0
0 0
0 0
0 0
0 0
0 0
0 0
0 0
0 0
0 0
0 0
0 0
0 0
0 0
0 0
0 0
0 0
0 0
0 0
0 0
0 0
0 0
0 0
0 0
0 0
0 0
0 0
0 0
0 0
0 0
0 0
0 0
0 0
0 0
0 0
0 0
0 0
0 0
0 0
0 0
0 0
0 0
0 0
0 0
0 0
0 0
0 0
0 0
0 0
0 0
0 0
0 0
0 0
0 0
0 0
0 0
0 0
0 0
0 0
0 0
0 0
0 0
0 0
0 0
0 0
0 0
0 0
0 0
0 0
0 0
0 0
0 0
0 0
0 0
0 0
0 0
0 0
0 0
0 0
0 0
0 0
0 0
0 0
0 0
0 0
0 0
0 0
0 0
0 0
0 0
0 0
0 0
0 0
0 0
0 0
0 0
0 0
0 0
0 0
0 0
0 0
0 0
0 0
0 0
0 0
0 0
0 0
0 0
0 0
0 0
0 0
0 0
0 0
0 0
0 0
0 0
0 0
0 0
0 0
0 0
0 0
0 0
0 0
0 0
0 0
0 0
0 0
0 0
0 0
0 0
0 0
0 0
0 0
0 0
0 0
0 0
0 0
0 0
0 0
0 0
0 0
0 0
0 0
0 0
0 0
0 0
0 0
0 0
0 0
0 0
0 0
0 0
0 0
0 0
0 0
0 0
0 0
0 0
0 0
0 0
0 0
0 0
0 0
0 0
0 0
0 0
0 0
0 0
0 0
0 0
0 0
0 0
0 0
0 0
0 0
0 0
0 0
0 0
0 0
0 0
0 0
0 0
0 0
0 0
0 0
0 0
0 0
0 0
0 0
0 0
0 0
0 0
0 0
0 0
0 0
0 0
0 0
0 0
0 0
0 0
0 0
0 0
0 0
0 0
0 0
0 0
0 0
0 0
0 0
0 0
0 0
0 0
0 0
0 0
0 0
0 0
0 0
0 0
0 0
0 0
0 0
0 0
0 0
0 0
0 0
0 0
0 0
0 0
0 0
0 0
0 0
0 0
0 0
0 0
0 0
0 0
0 0
0 0
0 0
0 0
0 0
0 0
0 0
0 0
0 0
0 0
0 0
0 0
0 0
0 0
0 0
0 0
0 0
0 0
0 0
0 0
0 0
0 0
0 0
0 0
0 0
0 0
0 0
0 0
0 0
0 0
0 0
0 0
0 0
0 0
0 0
0 0
0 0
0 0
0 0
0 0
0 0
0 0
0 0
0 0
0 0
0 0
0 0
0 0
0 0
0 0
0 0
0 0
0 0
0 0
0 0
0 0
0 0
0 0
0 0
0 0
0 0
0 0
0 0
0 0
0 0
0 0
0 0
0 0
0 0
0 0
0 0
0 0
0 0
0 0
0 0
0 0
0 0
0 0
0 0
0 0
0 0
0 0
0 0
0 0
0 0
0 0
0 0
0 0
0 0
0 0
0 0
0 0
0 0
0 0
0 0
0 0
0 0
0 0
0 0
0 0
0 0
0 0
0 0
0 0
0 0
0 0
0 0
0 0
0 0
0 0
0 0
0 0
0 0
0 0
0 0
0 0
0 0
0 0
0 0
0 0
0 0
0 0
0 0
0 0
0 0
0 0
0 0
0 0
0 0
0 0
0 0
0 0
0 0
0 0
0 0
0 0
0 0
0 0
0 0
0 0
0 0
0 0
0 0
0 0
0 0
0 0
0 0
0 0
0 0
0 0
0 0
0 0
0 0
0 0
0 0
0 0
0 0
0 0
0 0
0 0
0 0
0 0
0 0
0 0
0 0
0 0
0 0
0 0
0 0
0 0
0 0
0 0
0 0
0 0
0 0
0 0
0 0
0 0
0 0
0 0
0 0
0 0
0 0
0 0
0 0
0 0
0 0
0 0
0 0
0 0
0 0
0 0
0 0
0 0
0 0
0 0
0 0
0 0
0 0
0 0
0 0
0 0
0 0
0 0
0 0
0 0
0 0
0 0
0 0
0 0
0 0
0 0
0 0
0 0
0 0
0 0
0 0
0 0
0 0
0 0
0 0
0 0
0 0
0 0
0 0
0 0
0 0
0 0
0 0
0 0
0 0
0 0
0 0
0 0
0 0
0 0
0 0
0 0
0 0
0 0
0 0
0 0
0 0
0 0
0 0
0 0
0 0
0 0
0 0
0 0
0 0
0 0
0 0
0 0
0 0
0 0
0 0
0 0
0 0
0 0
0 0
0 0
0 0
0 0
0 0
0 0
0 0
0 0
0 0
0 0
0 0
0 0
0 0
0 0
0 0
0 0
0 0
0 0
0 0
0 0
0 0
0 0
0 0
0 0
0 0
0 0
0 0
0 0
0 0
0 0
0 0
0 0
0 0
0 0
0 0
0 0
0 0
0 0
0 0
0 0
0 0
0 0
0 0
0 0
0 0
0 0
0 0
0 0
0 0
0 0
0 0
0 0
0 0
0 0
0 0
0 0
0 0
0 0
0 0
0 0
0 0
0 0
0 0
0 0
0 0
0 0
0 0
0 0
0 0
0 0
0 0
0 0
0 0
0 0
0 0
0 0
0 0
0 0
0 0
0 0
0 0
0 0
0 0
0 0
0 0
0 0
0 0
0 0
0 0
0 0
0 0
0 0
0 0
0 0
0 0
0 0
0 0
0 0
0 0
0 0
0 0
0 0
0 0
0 0
0 0
0 0
0 0
0 0
0 0
0 0
0 0
0 0
0 0
0 0
0 0
0 0
0 0
0 0
0 0
0 0
0 0
0 0
0 0
0 0
0 0
0 0
0 0
0 0
0 0
0 0
0 0
0 0
0 0
0 0
0 0
0 0
0 0
0 0
0 0
0 0
0 0
0 0
0 0
0 0
0 0
0 0
0 0
0 0
0 0
0 0
0 0
0 0
0 0
0 0
0 0
0 0
0 0
0 0
0 0
0 0
0 0
0 0
0 0
0 0
0 0
0 0
0 0
0 0
0 0
0 0
0 0
0 0
0 0
0 0
0 0
0 0
0 0
0 0
0 0
0 0
0 0
0 0
0 0
0 0
0 0
0 0
0 0
0 0
0 0
0 0
0 0
0 0
0 0
0 0
0 0
0 0
0 0
0 0
0 0
0 0
0 0
0 0
0 0
0 0
0 0
0 0
0 0
0 0
0 0
0 0
0 0
0 0
0 0
0 0
0 0
0 0
0 0
0 0
0 0
0 0
0 0
0 0
0 0
0 0
0 0
0 0
0 0
0 0
0 0
0 0
0 0
0 0
0 0
0 0
0 0
0 0
0 0
0 0
0 0
0 0
0 0
0 0
0 0
0 0
0 0
0 0
0 0
0 0
0 0
0 0
0 0
0 0
0 0
0 0
0 0
0 0
0 0
0 0
0 0
0 0
0 0
0 0
0 0
0 0
0 0
0 0
0 0
0 0
0 0
0 0
0 0
0 0
0 0
0 0
0 0
0 0
0 0
0 0
0 0
0 0
0 0
0 0
0 0
0 0
0 0
0 0
0 0
0 0
0 0
0 0
0 0
0 0
0 0
0 0
0 0
0 0
0 0
0 0
0 0
0 0
0 0
0 0
0 0
0 0
0 0
0 0
0 0
0 0
0 0
0 0
0 0
0 0
0 0
0 0
0 0
0 0
0 0
0 0
0 0
0 0
0 0
0 0
0 0
0 0
0 0
0 0
0 0
0 0
0 0
0 0
0 0
0 0
0 0
0 0
0 0
0 0
0 0
0 0
0 0
0 0
0 0
0 0
0 0
0 0
0 0
0 0
0 0
0 0
0 0
0 0
0 0
0 0
0 0
0 0
0 0
0 0
0 0
0 0
      </DataArray> 
      <DataArray type="Float64" NumberOfComponents="1" Name="CauchyShearStress" format="ascii">
-3.79134
3.32254
-1.0966
0.31131
0.170187
0.226977
0.159903
0.0727222
-0.0296042
-0.0464789
-0.04342
-0.0668916
-0.0903558
-0.0667393
-0.0325682
-0.0247751
-0.0259862
0.0142771
0.0480161
0.0471352
0.0368594
0.0661854
0.0758621
0.0291023
-0.0315531
-0.0417635
-0.0926495
-0.339286
-0.427343
-0.554378
0.365353
0.0159901
0.165909
0.378507
-4.30243
0.0255181
0.141503
0.16707
0.155169
0.0653412
0.0610009
0.112839
0.171432
0.167532
0.235422
0.193228
0.258772
0.327326
0.371016
0.370625
0.398478
0.407567
0.425332
0.179306
-0.0954804
-0.189004
-0.291142
-0.368945
-0.444661
-0.0496987
0.568313
0.803964
1.59315
-18.7067
-9.39251
-4.00192
-6.02024
-7.44663
-10.6819
0.137621
-17.9597
-15.6147
-11.9277
18.9435
-1.63246
-12.6999
18.854
-3.90558
9.68862
4.14731
6.08683
7.47291
10.7005
-0.231035
-0.747692
-0.900715
-1.8804
0.000344758
-0.0732285
0.17845
0.310026
0.549661
0.567032
0.0981952
-0.1071
-0.189518
-0.277035
-0.351576
-0.396695
-0.428274
-0.442827
-0.474256
-0.419886
-0.406989
-0.393975
-0.353504
-0.359982
-0.270827
-0.17203
-0.132306
-0.160958
0.407269
0.799882
4.48827
1.25877
-10.1532
-5.94777
-10.3353
11.5409
6.59523
2.85225
2.78479
-2.45973
-0.231594
-9.78906
9.79182
-2.31885
-2.50847
-4.84305
-4.56635
5.18377
-4.04946
4.53615
-4.4426
-4.55588
4.92319
4.9472
-3.91559
-3.72682
-4.39526
-2.1714
1.62564
2.26064
4.98831
4.15062
5.62955
-5.10434
-5.9068
-6.19313
-5.93135
6.5099
5.46467
-2.27789
0.502141
2.10941
-3.80626
3.95067
-2.86804
-3.3554
-3.86004
-3.53504
3.73767
4.25715
3.82545
3.03651
-3.62133
-3.73394
-3.22159
-1.64215
0.705938
3.27868
-3.37058
-3.29874
3.85096
3.9664
3.50509
3.4367
3.94884
5.4072
-4.79996
-5.59409
-4.33914
-6.42181
-7.16696
6.3923
3.68762
-2.60475
-1.77689
-0.173687
-0.870642
0.680964
1.68485
1.1797
2.37602
-3.41505
-3.5097
3.4411
3.49017
-2.72305
-2.32245
-2.56256
-2.26758
-2.57034
-3.19869
3.42029
2.91152
2.58705
2.72241
2.36154
2.70023
-3.33912
-3.19119
-4.41296
0.094148
2.50732
-2.0756
2.33933
3.29389
3.09576
6.66874
-8.1195
-1.78549
-8.86799
9.28305
7.4828
5.28015
-2.62907
-1.94355
-0.687246
0.483487
1.47331
2.38405
-3.2647
3.1848
-2.28225
-1.6023
-2.27796
2.38313
1.74422
2.35072
-2.64769
-2.88452
-2.94436
-2.69864
-1.5004
-1.11367
-11.0725
-1.98058
8.65806
-0.278876
0.2864
1.75542
2.42803
2.71246
2.74852
2.22877
8.88959
-8.7994
1.09555
3.34096
-11.0197
-2.88486
-2.36175
10.2483
3.34779
-2.48757
-2.48315
-1.83871
-2.26408
-0.930195
-1.35365
0.115692
-0.285906
0.878817
0.538699
1.79285
1.37347
2.49452
2.12397
-2.56551
-2.98569
-3.1171
2.58992
2.96774
2.95041
2.30799
-2.17057
-0.989667
-0.932782
-1.49366
1.51519
1.11468
1.0638
2.30599
-1.55569
-2.15211
-1.8907
-1.5071
-0.553371
-19.3603
-7.41771
-0.592254
4.71907
20.5127
1.45915
-1.43638
1.4447
2.40129
1.57438
14.4501
7.49593
-12.2137
-7.67641
7.64103
-12.62
0.989891
-5.81595
6.03188
8.65109
-2.52938
-1.60062
-0.863318
-0.17062
0.459357
1.0955
2.02307
-2.82603
-2.13712
2.41527
2.38318
-1.33901
-1.01906
-2.51315
1.97021
0.789284
1.38319
-1.66278
1.85942
-0.488939
-0.907038
-0.804943
-1.15087
-0.880629
-1.02712
-0.842817
-0.675748
-0.364218
-36.1846
-5.37623
4.37445
32.5258
0.0960622
0.68345
1.54878
2.11827
4.76369
-4.10633
-2.11244
-1.37797
-0.616031
0.0456557
0.525024
0.742476
0.653619
1.09132
0.442065
0.581713
0.678437
0.750228
11.198
18.4215
10.3261
-10.9413
-14.6221
-18.3555
7.66353
9.64282
10.4077
-6.88663
-15.2084
-10.8028
-1.37683
-2.4542
-0.990703
-0.857835
-0.869532
-0.606022
-0.565616
-0.603693
-0.322876
-0.218702
-0.279743
0.033058
0.13919
0.0872985
0.360682
0.435561
0.409539
0.638173
0.626396
0.666243
1.12876
2.38336
1.23195
-0.601216
-0.552587
0.864566
0.951472
-2.75414
-2.99581
2.61928
2.66714
2.81203
-0.536015
-0.905107
1.02969
0.788113
-0.964983
0.887421
-1.37647
-1.09718
0.963975
1.2214
-2.13719
-4.43028
-2.21168
2.16476
2.31368
3.61361
3.0065
-3.52166
2.11341
-2.37294
0.109188
-0.0250731
2.88802
-3.03748
1.82646
-1.2011
2.65236
1.46364
0.764463
0.167279
-0.507829
-1.21378
-2.04088
-2.68215
-8.81304
12.7928
-14.078
14.2999
1.39094
1.82451
0.313813
-3.33889
3.99966
0.165188
15.2133
-18.8007
-0.867632
-1.8524
-2.404
-1.92508
1.58753
-2.13531
6.83197
-3.69818
-1.57288
1.94649
1.698
-1.42933
-1.88414
3.06492
3.13115
-3.31179
-3.04393
2.6582
2.00844
0.953603
0.00394844
-1.38608
-2.42998
-2.69925
7.59104
1.39216
-2.68073
-1.77012
-7.54136
5.11773
3.13816
3.04013
1.78853
-1.9431
-2.33876
-3.44202
7.32255
-6.67274
2.69398
3.62772
4.08072
-3.62039
-3.22066
-2.74552
3.71704
-3.71482
1.39354
-0.383772
5.27316
-7.37522
4.69773
-4.67642
4.31658
-4.01159
5.65777
-5.09918
-4.09176
-19.4919
-2.07855
-22.6963
-15.9692
-2.52971
-11.6714
1.86262
15.0714
29.6576
2.79496
18.019
15.9169
-17.1771
-26.0131
-26.6414
-26.8277
-14.006
-17.8438
-20.4473
-15.5347
-15.0168
-14.3066
-16.6107
-12.5656
-21.5822
-27.0263
-9.16819
-12.6696
15.716
27.1093
24.7435
20.5467
14.1015
17.9489
16.0654
13.5869
15.5993
14.4323
12.7486
16.7093
9.30055
21.7434
27.1667
12.8593
14.1528
1.26222
4.88345
1.60539
43.1527
11.7839
49.5857
21.5182
8.93606
-16.6638
-6.57004
-1.42757
-50.8698
-42.2425
-19.4373
-2.09966
-11.3944
-25.4458
14.3603
14.6952
2.70001
8.63947
-2.17782
10.9575
7.84687
-13.4836
-7.66047
-18.4822
1.8733
2.78967
-2.81494
-11.3357
-0.0198014
0.926362
-9.75672
-11.6578
-5.15233
1.17329
7.45562
-4.3784
11.4701
6.94984
19.991
29.0032
28.9037
19.4444
21.1247
15.7386
16.0586
2.04411
1.70765
5.1893
-0.124516
9.27984
1.35633
-1.10083
-4.08696
-7.12638
-2.7619
-12.3902
-4.20261
-17.5895
-27.834
-29.4294
-18.3184
-20.6232
-15.4133
-14.732
9.97175
11.4929
8.61508
8.98903
-7.72944
-12.3881
-5.77083
-8.12011
8.30073
9.5321
8.81642
8.52547
8.1211
7.84944
9.06431
5.85093
6.85334
8.15121
6.98107
-7.74034
-6.63552
-6.82286
-6.13081
-4.5169
-7.53606
4.56618
5.16628
5.28243
3.85122
3.81522
3.336
2.81529
2.13278
-1.81724
-0.974081
-0.82392
-0.123718
0.979261
-1.01721
-4.24777
-5.00902
-3.85268
-5.83885
-2.94724
-2.55593
-3.36808
-2.42218
-1.84747
-2.57734
-1.31783
-2.63729
-2.98924
12.0067
10.4398
12.8357
11.6548
15.5852
17.9938
14.5198
7.77251
10.7364
7.37917
37.7595
42.8693
-7.24946
-10.5653
-7.5948
-11.5141
-36.4093
-41.6094
-14.3524
-12.572
-10.2029
-12.1028
13.925
2.18375
5.58437
3.94847
6.50924
0.708579
11.8528
6.8885
3.99381
10.4786
10.1769
8.73927
8.71082
14.1269
13.6674
9.55528
15.7074
-14.6165
-8.73655
-13.3488
-6.70486
-15.2894
-9.53914
-9.146
-11.0168
-6.47906
-14.7965
-9.26403
-8.26776
-5.23355
-3.75769
-3.25081
-3.93689
-1.80186
-1.98239
-6.67696
-9.32869
-6.88021
-8.3617
-9.72362
-10.5337
-9.95241
-10.4449
-8.65955
-9.14452
-8.33311
0.644901
1.9143
1.227
3.24159
-0.602832
0.220381
2.09989
-0.366665
10.6464
13.3061
6.85213
15.4497
12.3655
5.62486
3.5539
4.48006
12.1035
21.4972
18.5495
22.4214
14.0555
17.8472
22.9257
14.4602
-31.0265
-47.4399
-35.7317
-20.5435
-35.1825
-76.3479
51.3002
19.117
34.7918
33.613
14.1439
71.9048
15.2118
3.2807
3.811
2.41918
-27.2091
-18.3328
-0.54625
10.8404
6.26851
-5.14954
-6.37286
-0.293464
-10.1665
-5.83319
3.07402
6.32684
-4.77171
-13.4423
12.4675
9.27899
10.8747
8.61852
7.64653
6.90049
11.4824
11.5419
12.451
-1.93423
7.73887
5.34795
7.85384
-0.478872
-10.8391
-5.17864
-12.2509
-5.3613
-10.8258
24.6936
5.27263
2.48018
-6.89821
-6.95713
13.0714
-7.27633
-7.06806
-12.0182
-3.6028
-7.04366
-12.4
-13.8663
-6.75372
-0.874394
4.83657
-10.6283
-9.42766
-8.01156
0.39152
0.961112
-0.973904
-1.39349
-4.26058
0.592418
6.39643
-3.2811
1.49391
3.22419
2.2034
4.438
4.47064
4.11366
10.1168
8.68351
10.0742
9.4997
8.13961
10.9164
-2.63084
-1.08665
2.87257
-3.97409
-0.00311639
7.53614
-8.85973
-10.2095
-7.13407
-9.0519
-5.36502
-12.5391
-11.6451
-11.277
-7.1572
-9.23701
-10.4281
-11.0926
-4.72122
-8.41205
-8.69693
-7.01905
5.92141
4.49064
6.83615
2.2265
3.26639
6.4088
5.73422
-14.0425
-13.2438
-11.7861
-8.53283
-6.49169
-9.91053
-17.0155
-10.8622
-9.0102
-18.744
-2.25744
-19.401
-13.0213
-3.59982
-21.1271
-19.7987
-26.2093
-3.80215
-4.93346
-8.75309
-5.48832
-3.95156
-13.2685
-50.1806
-3.34553
-7.99639
26.022
31.8584
24.0939
4.78793
5.79849
8.77303
4.39693
4.5137
3.58693
12.8446
47.2235
10.3284
0.874028
0.156097
0.303118
0.102037
-0.099242
-0.0300922
0.394179
1.49585
1.21577
0.700723
0.195044
0.087156
0.172439
-0.0135117
-0.115112
1.28138
0.252526
0.0296928
0.130201
0.0212712
-0.118443
-0.0630101
0.17002
0.483151
0.169898
-0.246755
-0.185847
-0.0208624
-0.252402
0.474202
0.4465
-0.227403
-1.65121
-0.709411
-0.560269
-0.844914
0.360561
0.291731
-0.441583
-2.33305
-2.69602
-3.08482
-1.86382
-1.04244
-2.22392
0.167703
0.0754367
-3.69803
3.4128
0.996586
2.13702
0.808688
-0.473129
-0.559551
2.59529
4.43753
3.12823
1.75212
0.633647
0.713471
0.510146
-0.553545
-0.332206
2.72432
0.340843
0.0474118
0.200314
0.0271427
-0.211891
0.0123293
0.269501
0.485907
0.150493
-0.515933
-0.110943
-0.0416986
-0.181137
0.401385
0.400656
0.00362379
-0.604638
-0.803098
-0.917851
-0.282034
-0.244097
-0.354326
0.393791
0.361239
-0.196993
-1.33962
-1.45927
0.399035
-0.229516
-0.274439
-0.352538
-1.63139
0.279285
14.7804
7.50395
9.04955
-4.98338
-6.38105
-5.45719
-7.24607
-4.53978
-11.8144
-13.5309
-14.8094
6.08963
6.15003
7.76435
9.96685
5.72852
-0.181306
-7.77789
-0.547689
5.26574
2.08623
1.73525
1.21289
1.9517
0.994297
0.624962
1.09092
1.65105
0.905319
-1.48712
-0.937917
-1.02904
-0.478222
-2.32608
1.08202
1.06349
1.61037
2.56739
0.731432
-1.21094
-0.747137
-1.08275
-1.16582
-1.66908
-1.42029
-0.949513
-1.45778
-1.85042
-2.12271
11.4205
10.7526
-2.66824
-4.54458
-3.96127
-5.62441
-2.94002
-0.581237
-0.484917
-12.5677
-11.0486
2.26511
2.57019
2.73799
2.93021
2.11864
1.5745
1.94804
1.00445
2.1324
2.7065
2.37557
-0.919599
-1.91144
-0.631303
0.267453
0.775975
0.346898
0.677811
1.29827
-0.0334289
2.64715
-0.372479
-1.02576
-1.34591
-0.993326
-0.814638
-1.164
-0.744602
-0.252081
-0.426647
-1.70493
-1.90831
-2.2692
-2.28775
-2.54021
-3.09455
-2.65253
0.112543
1.00522
2.85818
2.55934
2.97869
3.23853
3.19863
1.24045
1.11368
2.00895
2.74631
1.93826
-1.58672
-0.748985
-1.16788
-1.9156
-2.2289
2.61323
4.41557
5.32646
4.45695
-5.24897
-3.18594
-4.05277
-3.06924
-1.71633
-2.13431
-5.8411
3.49854
3.59562
3.86452
4.29124
3.77767
3.04374
3.09048
3.41615
4.53621
-3.33707
-2.72866
-2.71168
-2.86026
-2.5817
-3.99115
-4.01259
-2.74641
-3.29185
-3.65799
-3.30408
-3.74373
-4.56008
3.95089
4.2644
-1.89092
-1.8981
-1.53409
-2.10952
-2.35298
-2.95359
-2.4941
-2.75068
-0.371864
-0.100818
-0.198691
-0.038028
-0.536765
-0.0222981
-0.0323595
-0.312895
0.224343
0.104729
3.18348
5.14402
5.7359
3.41598
0.144311
-0.347284
1.95521
0.400295
0
0
0
0
0
0
0
0
0
0
0
0
0
0
0
0
0
0
0
0
0
0
0
0
0
0
0
0
0
0
0
0
0
0
0
0
0
0
0
0
0
0
0
0
0
0
0
0
0
0
0
0
0
0
0
0
0
0
0
0
0
0
0
0
0
0
0
0
0
0
0
0
0
0
0
0
0
0
0
0
0
0
0
0
0
0
0
0
0
0
0
0
0
0
0
0
0
0
0
0
0
0
0
0
0
0
0
0
0
0
0
0
0
0
0
0
0
0
0
0
0
0
0
0
0
0
0
0
0
0
0
0
0
0
0
0
0
0
0
0
0
0
0
0
0
0
0
0
0
0
0
0
0
0
0
0
0
0
0
0
0
0
0
0
0
0
0
0
0
0
0
0
0
0
0
0
0
0
0
0
0
0
0
0
0
0
0
0
0
0
0
0
0
0
0
0
0
0
0
0
0
0
0
0
0
0
0
0
0
0
0
0
0
0
0
0
0
0
0
0
0
0
0
0
0
0
0
0
0
0
0
0
0
0
0
0
0
0
0
0
0
0
0
0
0
0
0
0
0
0
0
0
0
0
0
0
0
0
0
0
0
0
0
0
0
0
0
0
0
0
0
0
0
0
0
0
0
0
0
0
0
0
0
0
0
0
0
0
0
0
0
0
0
0
0
0
0
0
0
0
0
0
0
0
0
0
0
0
0
0
0
0
0
0
0
0
0
0
0
0
0
0
0
0
0
0
0
0
0
0
0
0
0
0
0
0
0
0
0
0
0
0
0
0
0
0
0
0
0
0
0
0
0
0
0
0
0
0
0
0
0
0
0
0
0
0
0
0
0
0
0
0
0
0
0
0
0
0
0
0
0
0
0
0
0
0
0
0
0
0
0
0
0
0
0
0
0
0
0
0
0
0
0
0
0
0
0
0
0
0
0
0
0
0
0
0
0
0
0
0
0
0
0
0
0
0
0
0
0
0
0
0
0
0
0
0
0
0
0
0
0
0
0
0
0
0
0
0
0
0
0
0
0
0
0
0
0
0
0
0
0
0
0
0
0
0
0
0
0
0
0
0
0
0
0
0
0
0
0
0
0
0
0
0
0
0
0
0
0
0
0
0
0
0
0
0
0
0
0
0
0
0
0
0
0
0
0
0
0
0
0
0
0
0
0
0
0
0
0
0
0
0
0
0
0
0
0
0
0
0
0
0
0
0
0
0
0
0
0
0
0
0
0
0
0
0
0
0
0
0
0
0
0
0
0
0
0
0
0
0
0
0
0
0
0
0
0
0
0
0
0
0
0
0
0
0
0
0
0
0
0
0
0
0
0
0
0
0
0
0
0
0
0
0
0
0
0
0
0
0
0
0
0
0
0
0
0
0
0
0
0
0
0
0
0
0
0
0
0
0
0
0
0
0
0
0
0
0
0
0
0
0
0
0
0
0
0
0
0
0
0
0
0
0
0
0
0
0
0
0
0
0
0
0
0
0
0
0
0
0
0
0
0
0
0
0
0
0
0
0
0
0
0
0
0
0
0
0
0
0
0
0
0
0
0
0
0
0
0
0
0
0
0
0
0
0
0
0
0
0
0
0
0
0
0
0
0
0
0
0
0
0
0
0
0
0
0
0
0
0
0
0
0
0
0
0
0
0
0
0
0
0
0
0
0
0
0
0
0
0
0
0
0
0
0
0
0
0
0
0
0
0
0
0
0
0
0
0
0
0
0
0
0
0
0
0
0
0
0
0
0
0
0
0
0
0
0
0
0
0
0
0
0
0
0
0
0
0
0
0
0
0
0
0
0
0
0
0
0
0
0
0
0
0
0
0
0
0
0
0
0
0
0
0
0
0
0
0
0
0
0
0
0
0
0
0
0
0
0
0
0
0
0
0
0
0
0
0
0
0
0
0
0
0
0
0
0
0
0
0
0
0
0
0
0
0
0
0
0
0
0
0
0
0
0
0
0
0
0
0
0
0
0
0
0
0
0
0
0
0
0
0
0
0
0
0
0
0
0
0
0
0
0
0
0
0
0
0
0
0
0
0
0
0
0
0
0
0
0
0
0
0
0
0
0
0
0
0
0
0
0
0
0
0
0
0
0
0
0
0
0
0
0
0
0
0
0
0
0
0
0
0
0
0
0
0
0
0
0
0
0
0
0
0
0
0
0
0
0
0
0
0
0
0
0
0
0
0
0
0
0
0
0
0
0
0
0
0
0
0
0
0
0
0
0
0
0
0
0
0
0
0
0
0
0
0
0
0
0
0
0
0
0
0
0
0
0
0
0
0
0
0
0
0
0
0
0
0
0
0
0
0
0
0
0
0
0
0
0
0
0
0
0
0
0
0
0
0
0
0
0
0
0
0
0
0
0
0
0
0
0
0
0
0
0
0
0
0
0
0
0
0
0
0
0
0
0
0
0
0
0
0
0
0
0
0
0
0
0
0
0
0
0
0
0
0
0
0
0
0
0
0
0
0
0
0
0
0
0
0
0
0
0
0
0
0
0
0
0
0
0
0
0
0
0
0
0
0
0
0
0
0
0
0
0
0
0
0
0
0
0
0
0
0
0
0
0
0
0
0
0
0
0
0
0
0
0
0
0
0
0
0
0
0
0
0
0
0
0
0
0
0
0
0
0
0
0
0
0
0
0
0
0
0
0
0
0
0
0
0
0
0
0
0
0
0
0
0
0
0
0
0
0
0
0
0
0
0
0
0
0
0
0
0
0
0
0
0
0
0
0
0
0
0
0
0
0
0
0
0
0
0
0
0
0
0
0
0
0
0
0
0
0
0
0
0
0
0
0
0
0
0
0
0
0
0
0
0
0
0
0
0
0
0
0
0
0
0
0
0
0
0
0
0
0
0
0
0
0
0
0
0
0
0
0
0
0
0
0
0
0
0
0
0
0
0
0
0
0
0
0
0
0
0
0
0
0
0
0
0
0
0
0
0
0
0
0
0
0
0
0
0
0
0
0
0
0
0
0
0
0
0
0
0
0
0
0
0
0
0
0
0
0
0
0
0
0
0
0
0
0
0
0
0
0
0
0
0
0
0
0
0
0
0
0
0
0
0
0
0
0
0
0
0
0
0
0
0
0
0
0
0
0
0
0
0
0
0
0
0
0
0
0
0
0
0
0
0
0
0
0
0
0
0
0
0
0
0
0
0
0
0
0
0
0
0
0
0
0
0
0
0
0
0
0
0
0
0
0
0
0
0
0
0
0
0
0
0
0
0
0
0
0
0
0
0
0
0
0
0
0
0
0
0
0
0
0
0
0
0
0
0
0
0
0
0
0
0
0
0
0
0
0
0
0
0
0
0
0
0
0
0
0
0
0
0
0
0
0
0
0
0
0
0
0
0
0
0
0
0
0
0
0
0
0
0
0
0
0
0
0
0
0
0
0
0
0
0
0
0
0
0
0
0
0
0
0
0
0
0
0
0
0
0
0
0
0
0
0
0
0
0
0
0
0
0
0
0
0
0
0
0
0
0
0
0
0
0
0
0
0
0
0
0
0
0
0
0
0
0
0
0
0
0
0
0
0
0
0
0
0
0
0
0
0
0
0
0
0
0
0
0
0
0
0
0
0
0
0
0
0
0
0
0
0
0
0
0
0
0
0
0
0
0
0
0
0
0
0
0
0
0
0
0
0
0
0
0
0
0
0
0
0
0
0
0
0
0
0
0
0
0
0
0
0
0
0
0
0
0
0
0
0
0
0
0
0
0
0
0
0
0
0
0
0
0
0
0
0
0
0
0
0
0
0
0
0
0
0
0
0
0
0
0
0
0
0
0
0
0
0
0
0
0
0
0
0
0
0
0
0
0
0
0
0
0
0
0
0
0
0
0
0
0
0
0
0
0
0
0
0
0
0
0
0
0
0
0
0
0
0
0
0
0
0
0
0
0
0
0
0
0
0
0
0
0
0
0
0
0
0
0
0
0
0
0
0
0
0
0
0
0
0
0
0
0
0
0
0
0
0
0
0
0
0
0
0
0
0
0
0
0
0
0
0
0
0
0
0
0
0
0
0
0
0
0
0
0
0
0
0
0
0
0
0
0
0
0
0
0
0
0
0
0
0
0
0
0
0
0
0
0
0
0
0
0
0
0
0
0
0
0
0
0
0
0
0
0
0
0
0
0
0
0
0
0
0
0
0
0
0
0
0
0
0
0
0
0
0
0
0
0
0
0
0
0
0
0
0
0
0
0
0
0
0
0
0
0
0
0
0
0
0
0
0
0
0
0
0
0
0
0
0
0
0
0
0
0
0
0
0
0
0
0
0
0
0
0
0
0
0
0
0
0
0
0
0
0
0
0
0
0
0
0
0
0
0
0
0
0
0
0
0
0
0
0
0
0
0
0
0
0
0
0
0
0
0
0
0
0
0
0
0
0
0
0
0
0
0
0
0
0
0
0
0
0
0
0
0
0
0
0
0
0
0
0
0
0
0
0
0
0
0
0
0
0
0
0
0
0
0
0
0
0
0
0
0
0
0
0
0
0
0
0
0
0
0
0
0
0
0
0
0
0
0
0
0
0
0
0
0
0
0
0
0
0
0
0
0
0
0
0
0
0
0
0
0
0
0
0
0
0
0
0
0
0
0
0
0
0
0
0
0
0
0
0
0
0
0
0
0
0
0
0
0
0
0
0
0
0
0
0
0
0
0
0
0
0
0
0
0
0
0
0
0
0
0
0
0
0
0
0
0
0
0
0
0
0
0
0
0
0
0
0
0
0
0
0
0
0
0
0
0
0
0
0
0
0
0
0
0
0
0
0
0
0
0
0
0
0
0
0
0
0
0
0
0
0
0
0
0
0
0
0
0
0
0
0
0
0
0
0
0
0
0
0
0
0
0
0
0
0
0
0
0
0
0
0
0
0
0
0
0
0
0
0
0
0
0
0
0
0
0
0
0
0
0
0
0
0
0
0
0
0
0
0
0
0
0
0
0
0
0
0
0
0
0
0
0
0
0
0
0
0
0
0
0
0
0
0
0
0
0
0
0
0
0
0
0
0
0
0
0
0
0
0
0
0
0
0
0
0
0
0
0
0
0
0
0
0
0
0
0
0
0
0
0
0
0
0
0
0
0
0
0
0
0
0
0
0
0
0
0
0
0
0
0
0
0
0
0
0
0
0
0
0
0
0
0
0
0
0
0
0
0
0
0
0
      </DataArray> 
      <DataArray type="Float64" NumberOfComponents="1" Name="NormalFibers" format="ascii">
0
0
0
0
0
0
0
0
0
0
0
0
0
0
0
0
0
0
0
0
0
0
0
0
0
0
0
0
0
0
0
0
0
0
0
0
0
0
0
0
0
0
0
0
0
0
0
0
0
0
0
0
0
0
0
0
0
0
0
0
0
0
0
0
0
0
0
0
0
0
0
0
0
0
0
0
0
0
0
0
0
0
0
0
0
0
0
0
0
0
0
0
0
0
0
0
0
0
0
0
0
0
0
0
0
0
0
0
0
0
0
0
0
0
0
0
0
0
0
0
0
0
0
0
0
0
0
0
0
0
0
0
0
0
0
0
0
0
0
0
0
0
0
0
0
0
0
0
0
0
0
0
0
0
0
0
0
0
0
0
0
0
0
0
0
0
0
0
0
0
0
0
0
0
0
0
0
0
0
0
0
0
0
0
0
0
0
0
0
0
0
0
0
0
0
0
0
0
0
0
0
0
0
0
0
0
0
0
0
0
0
0
0
0
0
0
0
0
0
0
0
0
0
0
0
0
0
0
0
0
0
0
0
0
0
0
0
0
0
0
0
0
0
0
0
0
0
0
0
0
0
0
0
0
0
0
0
0
0
0
0
0
0
0
0
0
0
0
0
0
0
0
0
0
0
0
0
0
0
0
0
0
0
0
0
0
0
0
0
0
0
0
0
0
0
0
0
0
0
0
0
0
0
0
0
0
0
0
0
0
0
0
0
0
0
0
0
0
0
0
0
0
0
0
0
0
0
0
0
0
0
0
0
0
0
0
0
0
0
0
0
0
0
0
0
0
0
0
0
0
0
0
0
0
0
0
0
0
0
0
0
0
0
0
0
0
0
0
0
0
0
0
0
0
0
0
0
0
0
0
0
0
0
0
0
0
0
0
0
0
0
0
0
0
0
0
0
0
0
0
0
0
0
0
0
0
0
0
0
0
0
0
0
0
0
0
0
0
0
0
0
0
0
0
0
0
0
0
0
0
0
0
0
0
0
0
0
0
0
0
0
0
0
0
0
0
0
0
0
0
0
0
0
0
0
0
0
0
0
0
0
0
0
0
0
0
0
0
0
0
0
0
0
0
0
0
0
0
0
0
0
0
0
0
0
0
0
0
0
0
0
0
0
0
0
0
0
0
0
0
0
0
0
0
0
0
0
0
0
0
0
0
0
0
0
0
0
0
0
0
0
0
0
0
0
0
0
0
0
0
0
0
0
0
0
0
0
0
0
0
0
0
0
0
0
0
0
0
0
0
0
0
0
0
0
0
0
0
0
0
0
0
0
0
0
0
0
0
0
0
0
0
0
0
0
0
0
0
0
0
0
0
0
0
0
0
0
0
0
0
0
0
0
0
0
0
0
0
0
0
0
0
0
0
0
0
0
0
0
0
0
0
0
0
0
0
0
0
0
0
0
0
0
0
0
0
0
0
0
0
0
0
0
0
0
0
0
0
0
0
0
0
0
0
0
0
0
0
0
0
0
0
0
0
0
0
0
0
0
0
0
0
0
0
0
0
0
0
0
0
0
0
0
0
0
0
0
0
0
0
0
0
0
0
0
0
0
0
0
0
0
0
0
0
0
0
0
0
0
0
0
0
0
0
0
0
0
0
0
0
0
0
0
0
0
0
0
0
0
0
0
0
0
0
0
0
0
0
0
0
0
0
0
0
0
0
0
0
0
0
0
0
0
0
0
0
0
0
0
0
0
0
0
0
0
0
0
0
0
0
0
0
0
0
0
0
0
0
0
0
0
0
0
0
0
0
0
0
0
0
0
0
0
0
0
0
0
0
0
0
0
0
0
0
0
0
0
0
0
0
0
0
0
0
0
0
0
0
0
0
0
0
0
0
0
0
0
0
0
0
0
0
0
0
0
0
0
0
0
0
0
0
0
0
0
0
0
0
0
0
0
0
0
0
0
0
0
0
0
0
0
0
0
0
0
0
0
0
0
0
0
0
0
0
0
0
0
0
0
0
0
0
0
0
0
0
0
0
0
0
0
0
0
0
0
0
0
0
0
0
0
0
0
0
0
0
0
0
0
0
0
0
0
0
0
0
0
0
0
0
0
0
0
0
0
0
0
0
0
0
0
0
0
0
0
0
0
0
0
0
0
0
0
0
0
0
0
0
0
0
0
0
0
0
0
0
0
0
0
0
0
0
0
0
0
0
0
0
0
0
0
0
0
0
0
0
0
0
0
0
0
0
0
0
0
0
0
0
0
0
0
0
0
0
0
0
0
0
0
0
0
0
0
0
0
0
0
0
0
0
0
0
0
0
0
0
0
0
0
0
0
0
0
0
0
0
0
0
0
0
0
0
0
0
0
0
0
0
0
0
0
0
0
0
0
0
0
0
0
0
0
0
0
0
0
0
0
0
0
0
0
0
0
0
0
0
0
0
0
0
0
0
0
0
0
0
0
0
0
0
0
0
0
0
0
0
0
0
0
0
0
0
0
0
0
0
0
0
0
0
0
0
0
0
0
0
0
0
0
0
0
0
0
0
0
0
0
0
0
0
0
0
0
0
0
0
0
0
0
0
0
0
0
0
0
0
0
0
0
0
0
0
0
0
0
0
0
0
0
0
0
0
0
0
0
0
0
0
0
0
0
0
0
0
0
0
0
0
0
0
0
0
0
0
0
0
0
0
0
0
0
0
0
0
0
0
0
0
0
0
0
0
0
0
0
0
0
0
0
0
0
0
0
0
0
0
0
0
0
0.0050944
0.0050944
0.0267537
0.0267537
-0.0864376
-0.0864376
-0.0435672
-0.0435672
-0.00250014
-0.00250014
-0.0412772
-0.0412772
0.00251074
0.00251074
0.0192264
0.0192264
-0.107004
-0.107004
-0.0135758
-0.0135758
-0.0354788
-0.0354788
-0.0532764
-0.0532764
-0.0917434
-0.0917434
0.0235539
0.0235539
-0.0434993
-0.0434993
0.0611958
0.0611958
-0.0367501
-0.0367501
-0.00299923
-0.00299923
0.0356804
0.0356804
-0.0225866
-0.0225866
-0.0128666
-0.0128666
-0.0545429
-0.0545429
-0.21013
-0.21013
-0.0209513
-0.0209513
-0.0269593
-0.0269593
-0.0188095
-0.0188095
-0.0129961
-0.0129961
-0.00297643
-0.00297643
-0.105164
-0.105164
0.00901319
0.00901319
0.00860348
0.00860348
0.010265
0.010265
-0.141784
-0.141784
-0.0228904
-0.0228904
-0.158359
-0.158359
-0.00856084
-0.00856084
-0.0337106
-0.0337106
-0.0120379
-0.0120379
0.00735222
0.00735222
-0.0411663
-0.0411663
-0.031082
-0.031082
0.0512772
0.0512772
-0.0480869
-0.0480869
-0.0434464
-0.0434464
-0.151573
-0.151573
-0.0416531
-0.0416531
-0.0248113
-0.0248113
-0.0264927
-0.0264927
-0.0172602
-0.0172602
-0.0164567
-0.0164567
0.0750566
0.0750566
-0.024336
-0.024336
0.014182
0.014182
-0.12466
-0.12466
-0.00440116
-0.00440116
-0.0127374
-0.0127374
-0.0625924
-0.0625924
-0.078635
-0.078635
-0.00520355
-0.00520355
-0.0162129
-0.0162129
-0.0609662
-0.0609662
0.0443303
0.0443303
0.000402265
0.000402265
-0.0599945
-0.0599945
-0.0442433
-0.0442433
-0.0440716
-0.0440716
-0.0450105
-0.0450105
0.0421417
0.0421417
0.0586212
0.0586212
-0.0978042
-0.0978042
-0.0672057
-0.0672057
-0.0217004
-0.0217004
-0.161894
-0.161894
0.039352
0.039352
-0.0813891
-0.0813891
-0.000335344
-0.000335344
-0.0243994
-0.0243994
-0.00302495
-0.00302495
-0.0622129
-0.0622129
-0.046218
-0.046218
-0.105299
-0.105299
0.0100193
0.0100193
-0.0563171
-0.0563171
-0.148309
-0.148309
-0.0930849
-0.0930849
-0.0749632
-0.0749632
-0.0208904
-0.0208904
-0.00647677
-0.00647677
0.0217282
0.0217282
-0.00462523
-0.00462523
-0.0212295
-0.0212295
-0.000926364
-0.000926364
0.0383215
0.0383215
-0.0793482
-0.0793482
-0.124738
-0.124738
-0.00900865
-0.00900865
0.00571258
0.00571258
-0.0317863
-0.0317863
-0.195306
-0.195306
-0.0420124
-0.0420124
-0.00112318
-0.00112318
-0.0536835
-0.0536835
-0.0220973
-0.0220973
-0.0427528
-0.0427528
-0.00800038
-0.00800038
0.00751494
0.00751494
-0.146549
-0.146549
-0.0362682
-0.0362682
-0.0250921
-0.0250921
-0.0287866
-0.0287866
-0.0916584
-0.0916584
0.0719536
0.0719536
0.0469311
0.0469311
0.0108433
0.0108433
0.036123
0.036123
-0.00886542
-0.00886542
-0.00419141
-0.00419141
-0.0636274
-0.0636274
-0.100882
-0.100882
0.0105231
0.0105231
-0.00457981
-0.00457981
-0.0194337
-0.0194337
0.0110031
0.0110031
-0.0324528
-0.0324528
-0.0516003
-0.0516003
-0.117733
-0.117733
-0.00427859
-0.00427859
-0.00512081
-0.00512081
0.00312581
0.00312581
-0.151457
-0.151457
-0.0779211
-0.0779211
0.0258022
0.0258022
0.00397506
0.00397506
-0.0204057
-0.0204057
0.0434386
0.0434386
-0.0269704
-0.0269704
-0.00495475
-0.00495475
-0.0578564
-0.0578564
-0.0666169
-0.0666169
-0.0230411
-0.0230411
-0.0075166
-0.0075166
-0.0325567
-0.0325567
-0.00550872
-0.00550872
-0.0161502
-0.0161502
-0.0117979
-0.0117979
-0.00699973
-0.00699973
-0.0214502
-0.0214502
0.0125609
0.0125609
-0.0195529
-0.0195529
-0.0653661
-0.0653661
-0.0124699
-0.0124699
-0.00756592
-0.00756592
0.0175597
0.0175597
-0.12499
-0.12499
-0.10805
-0.10805
-0.296134
-0.296134
-0.14644
-0.14644
-0.111757
-0.111757
0.00193334
0.00193334
-0.0196565
-0.0196565
-0.0570721
-0.0570721
0.0399646
0.0399646
-0.0270924
-0.0270924
0.0283158
0.0283158
-0.0055256
-0.0055256
-0.0367124
-0.0367124
-0.0609387
-0.0609387
0.0211901
0.0211901
-0.0498777
-0.0498777
-0.0298108
-0.0298108
-0.022169
-0.022169
-0.0712578
-0.0712578
-0.0682992
-0.0682992
-0.0091407
-0.0091407
0.00446406
0.00446406
-0.0421385
-0.0421385
-0.0115762
-0.0115762
-0.0572773
-0.0572773
-0.051059
-0.051059
-0.0696956
-0.0696956
-0.00912955
-0.00912955
-0.012992
-0.012992
-0.00121516
-0.00121516
-0.132653
-0.132653
-0.0751131
-0.0751131
-0.151096
-0.151096
-0.00665806
-0.00665806
-0.00797792
-0.00797792
0.0271682
0.0271682
0.0130153
0.0130153
0.0303834
0.0303834
0.0532326
0.0532326
-0.0468631
-0.0468631
-0.05111
-0.05111
0.00271121
0.00271121
-0.0162373
-0.0162373
-0.000864156
-0.000864156
-0.0126994
-0.0126994
-0.0330705
-0.0330705
0.0153765
0.0153765
-0.0195021
-0.0195021
-0.101071
-0.101071
-0.00823902
-0.00823902
0.03443
0.03443
-0.0154592
-0.0154592
-0.201634
-0.201634
0.034073
0.034073
0.00883506
0.00883506
-0.0148767
-0.0148767
-0.0761587
-0.0761587
-0.00343841
-0.00343841
-0.0140004
-0.0140004
-0.0856046
-0.0856046
-0.0398538
-0.0398538
0.0339628
0.0339628
-0.0191394
-0.0191394
-0.0386698
-0.0386698
-0.0971099
-0.0971099
0.0568547
0.0568547
0.0562752
0.0562752
-0.00248001
-0.00248001
-0.1182
-0.1182
0.0132362
0.0132362
-0.0299624
-0.0299624
-0.045894
-0.045894
-0.00854227
-0.00854227
0.00028582
0.00028582
-0.012929
-0.012929
-0.0931797
-0.0931797
-0.0289663
-0.0289663
-0.00884506
-0.00884506
-0.00754696
-0.00754696
-0.0300363
-0.0300363
-0.120318
-0.120318
0.00336791
0.00336791
-0.0254696
-0.0254696
-0.036375
-0.036375
-0.152306
-0.152306
-0.10747
-0.10747
-0.0930689
-0.0930689
-0.0275544
-0.0275544
-0.00630699
-0.00630699
-0.00555486
-0.00555486
0.0613226
0.0613226
-0.002665
-0.002665
-0.0120778
-0.0120778
-0.00727692
-0.00727692
0.0555367
0.0555367
-0.108105
-0.108105
-0.0479891
-0.0479891
-0.00785087
-0.00785087
-0.144988
-0.144988
-0.147424
-0.147424
-0.00562508
-0.00562508
-0.163867
-0.163867
-0.00158138
-0.00158138
-0.0954421
-0.0954421
0.0291837
0.0291837
-0.0141274
-0.0141274
-0.000580519
-0.000580519
-0.0240988
-0.0240988
-0.221052
-0.221052
-0.0279654
-0.0279654
-0.0127679
-0.0127679
-0.0287452
-0.0287452
-0.0990899
-0.0990899
-0.0463044
-0.0463044
-0.0454691
-0.0454691
0.0670914
0.0670914
-0.00889345
-0.00889345
-0.111785
-0.111785
-0.0133078
-0.0133078
-0.00573699
-0.00573699
-0.145841
-0.145841
-0.0200576
-0.0200576
-0.117777
-0.117777
-0.0145056
-0.0145056
-0.00291436
-0.00291436
-0.0572555
-0.0572555
0.0218884
0.0218884
0.00139096
0.00139096
-0.0349711
-0.0349711
-0.0438264
-0.0438264
-0.0312236
-0.0312236
-0.0564437
-0.0564437
-0.134278
-0.134278
0.0432043
0.0432043
-0.118276
-0.118276
0.00630664
0.00630664
-0.138934
-0.138934
-0.0411364
-0.0411364
-0.0556032
-0.0556032
-0.0075842
-0.0075842
0.0244684
0.0244684
-0.159337
-0.159337
0.031963
0.031963
0.0118374
0.0118374
0.0624078
0.0624078
-0.134218
-0.134218
-0.0402167
-0.0402167
-0.00244728
-0.00244728
-0.071375
-0.071375
-0.0996412
-0.0996412
-0.0275132
-0.0275132
-0.122478
-0.122478
-0.0482295
-0.0482295
-0.0142081
-0.0142081
-0.0226963
-0.0226963
0.0252315
0.0252315
-0.109905
-0.109905
0.0427721
0.0427721
-0.0351223
-0.0351223
0.000559242
0.000559242
-0.0438168
-0.0438168
0.00664683
0.00664683
0.0234028
0.0234028
-0.0401783
-0.0401783
-0.0672383
-0.0672383
-0.101741
-0.101741
0.0059063
0.0059063
-0.148909
-0.148909
0.0286952
0.0286952
-0.0193069
-0.0193069
-0.0595118
-0.0595118
-0.0949763
-0.0949763
-0.129833
-0.129833
-0.121084
-0.121084
-0.01611
-0.01611
-0.0578756
-0.0578756
-0.00083123
-0.00083123
-0.00906575
-0.00906575
-0.163191
-0.163191
-0.0172023
-0.0172023
0.0521189
0.0521189
0.0248088
0.0248088
-0.0192417
-0.0192417
-0.00118207
-0.00118207
0.000934658
0.000934658
-0.000423055
-0.000423055
-0.0470591
-0.0470591
-0.0447726
-0.0447726
0.0114333
0.0114333
-0.00758697
-0.00758697
-0.0677773
-0.0677773
0.0149455
0.0149455
-0.0360363
-0.0360363
-0.0237883
-0.0237883
-0.0274279
-0.0274279
-0.0123471
-0.0123471
-0.0119723
-0.0119723
-0.0839995
-0.0839995
-0.00875803
-0.00875803
0.00555082
0.00555082
-0.0046597
-0.0046597
0.0565982
0.0565982
-0.0678309
-0.0678309
-0.0548715
-0.0548715
-0.0487703
-0.0487703
-0.0562608
-0.0562608
-0.0201284
-0.0201284
-0.0847757
-0.0847757
-0.0918162
-0.0918162
-0.0428406
-0.0428406
-0.177004
-0.177004
0.0278324
0.0278324
-0.0128422
-0.0128422
-0.00848089
-0.00848089
0.05708
0.05708
0.0281356
0.0281356
-0.00830159
-0.00830159
-0.000284099
-0.000284099
-0.0155566
-0.0155566
-0.0175225
-0.0175225
-0.0675003
-0.0675003
-0.0452832
-0.0452832
-0.0450343
-0.0450343
-0.0403484
-0.0403484
-0.0600219
-0.0600219
-0.0143479
-0.0143479
0.0150564
0.0150564
0.0420685
0.0420685
-0.0284075
-0.0284075
-0.0432427
-0.0432427
-0.0177743
-0.0177743
-0.25519
-0.25519
0.00719721
0.00719721
0.0276008
0.0276008
-0.135202
-0.135202
0.0328438
0.0328438
-0.0212818
-0.0212818
0.0177759
0.0177759
-0.233396
-0.233396
-0.0286226
-0.0286226
0.0259693
0.0259693
-0.166765
-0.166765
-0.0785867
-0.0785867
-0.0430783
-0.0430783
-0.167318
-0.167318
-0.0163915
-0.0163915
-0.0157975
-0.0157975
-0.0551968
-0.0551968
-0.23167
-0.23167
-0.0574933
-0.0574933
-0.00652264
-0.00652264
-0.0181555
-0.0181555
0.00424023
0.00424023
-0.115894
-0.115894
-0.0612134
-0.0612134
0.00968854
0.00968854
-0.0526636
-0.0526636
-0.0206511
-0.0206511
-0.0188327
-0.0188327
-0.087287
-0.087287
-0.095119
-0.095119
-0.135892
-0.135892
-0.00193442
-0.00193442
-0.0311767
-0.0311767
-0.0522872
-0.0522872
-0.0288112
-0.0288112
-0.0334675
-0.0334675
0.00329114
0.00329114
-0.0456305
-0.0456305
0.0183005
0.0183005
-0.0332524
-0.0332524
-0.0260178
-0.0260178
-0.0105619
-0.0105619
0.0322004
0.0322004
-0.0738236
-0.0738236
-0.0948038
-0.0948038
-0.00969319
-0.00969319
-0.107604
-0.107604
-0.0252253
-0.0252253
-0.167322
-0.167322
-0.278078
-0.278078
0.0164942
0.0164942
0.0312116
0.0312116
0.0165137
0.0165137
-0.0665525
-0.0665525
0.00059618
0.00059618
-0.00334306
-0.00334306
-0.114436
-0.114436
-0.00776515
-0.00776515
-0.00874143
-0.00874143
0.00472868
0.00472868
-0.00567022
-0.00567022
-0.0673706
-0.0673706
-0.184633
-0.184633
-0.00391364
-0.00391364
-0.000305011
-0.000305011
-0.0188397
-0.0188397
-0.0206346
-0.0206346
-0.138847
-0.138847
-0.00696634
-0.00696634
-0.10589
-0.10589
0.00522546
0.00522546
-0.0497116
-0.0497116
-0.0328918
-0.0328918
0.0191924
0.0191924
-0.0283542
-0.0283542
0.0111696
0.0111696
0.00970742
0.00970742
-0.0261262
-0.0261262
-0.00491531
-0.00491531
-0.035923
-0.035923
-0.0386097
-0.0386097
-0.0125705
-0.0125705
0.0316117
0.0316117
-0.0292651
-0.0292651
-0.0460948
-0.0460948
0.0311614
0.0311614
-0.00679712
-0.00679712
-0.0826532
-0.0826532
-0.00362638
-0.00362638
-0.0533256
-0.0533256
-0.158719
-0.158719
-0.0208994
-0.0208994
-0.0395102
-0.0395102
-0.0696179
-0.0696179
0.0464251
0.0464251
0.0172565
0.0172565
-0.038426
-0.038426
0.0118173
0.0118173
-0.00509349
-0.00509349
-0.0427967
-0.0427967
-0.0363088
-0.0363088
-0.0340722
-0.0340722
-0.00856383
-0.00856383
0.000182944
0.000182944
-0.0311997
-0.0311997
-0.0325069
-0.0325069
-0.0114921
-0.0114921
-0.0221297
-0.0221297
-0.229881
-0.229881
-0.00802901
-0.00802901
-0.0274697
-0.0274697
-0.0352914
-0.0352914
-0.0153554
-0.0153554
0.0169833
0.0169833
-0.0203527
-0.0203527
-0.0328826
-0.0328826
0.0157345
0.0157345
0.00525371
0.00525371
-0.054374
-0.054374
-0.0409886
-0.0409886
-0.103814
-0.103814
-0.0169339
-0.0169339
0.00409556
0.00409556
-0.0134823
-0.0134823
-0.0105914
-0.0105914
-0.0629877
-0.0629877
-0.00763005
-0.00763005
-0.0218005
-0.0218005
-0.0202078
-0.0202078
-0.118019
-0.118019
-0.0126364
-0.0126364
-0.0139121
-0.0139121
-0.0314463
-0.0314463
-0.0982362
-0.0982362
-0.00324508
-0.00324508
-0.110888
-0.110888
-0.00345982
-0.00345982
-0.142663
-0.142663
-0.11852
-0.11852
-0.000728638
-0.000728638
0.0292693
0.0292693
0.00944243
0.00944243
-0.0871536
-0.0871536
-0.0026349
-0.0026349
-0.0256858
-0.0256858
-0.134892
-0.134892
0.0370002
0.0370002
-0.0865616
-0.0865616
-0.0305235
-0.0305235
-0.0808515
-0.0808515
-0.112734
-0.112734
0.0487374
0.0487374
-0.0178621
-0.0178621
-0.0447811
-0.0447811
-0.0104317
-0.0104317
-0.047968
-0.047968
-0.0114249
-0.0114249
-0.0151521
-0.0151521
-0.0305357
-0.0305357
-0.0829085
-0.0829085
-0.0541823
-0.0541823
0.00538502
0.00538502
-0.0919327
-0.0919327
-0.039537
-0.039537
-0.0464101
-0.0464101
-0.0708231
-0.0708231
-0.0905474
-0.0905474
-0.0561921
-0.0561921
0.0181311
0.0181311
-0.208012
-0.208012
0.0108475
0.0108475
-0.0531982
-0.0531982
-0.0243777
-0.0243777
-0.130576
-0.130576
-0.0765617
-0.0765617
0.0390624
0.0390624
-0.0680344
-0.0680344
-0.0997917
-0.0997917
-0.0298975
-0.0298975
-0.0865575
-0.0865575
-0.138952
-0.138952
0.0428588
0.0428588
-0.0315543
-0.0315543
-2.30676e-05
-2.30676e-05
-0.0113496
-0.0113496
-0.119887
-0.119887
-0.115598
-0.115598
-0.00588813
-0.00588813
-0.0343715
-0.0343715
0.0221436
0.0221436
-0.083693
-0.083693
-0.00627973
-0.00627973
-0.188659
-0.188659
-0.136434
-0.136434
-0.0206169
-0.0206169
-0.0218812
-0.0218812
-0.114056
-0.114056
-0.0448951
-0.0448951
0.0675121
0.0675121
-0.0976058
-0.0976058
0.0628895
0.0628895
-0.0256422
-0.0256422
-0.0243556
-0.0243556
-0.110309
-0.110309
-0.0150131
-0.0150131
-0.00374365
-0.00374365
-0.0219617
-0.0219617
-0.0320734
-0.0320734
-0.0259372
-0.0259372
-0.0261649
-0.0261649
0.00128464
0.00128464
-0.0173409
-0.0173409
-0.0696383
-0.0696383
-0.0230873
-0.0230873
-0.0282422
-0.0282422
-0.0201314
-0.0201314
-0.00948057
-0.00948057
-0.0339778
-0.0339778
0.0120949
0.0120949
-0.0234219
-0.0234219
0.00423532
0.00423532
-0.0140172
-0.0140172
-0.151568
-0.151568
-0.0275288
-0.0275288
-0.0447862
-0.0447862
0.024489
0.024489
-0.0123713
-0.0123713
0.00865659
0.00865659
-0.0254185
-0.0254185
-0.121206
-0.121206
-0.00904392
-0.00904392
-0.101273
-0.101273
-0.0223666
-0.0223666
-0.00448614
-0.00448614
-0.0260291
-0.0260291
-0.0264755
-0.0264755
-0.0244294
-0.0244294
-0.0339998
-0.0339998
-0.0518432
-0.0518432
0.0511153
0.0511153
0.0015906
0.0015906
-0.00385477
-0.00385477
-0.0525031
-0.0525031
0.0314026
0.0314026
-0.0143902
-0.0143902
-0.00802903
-0.00802903
-0.0289228
-0.0289228
-0.0242877
-0.0242877
-0.00392565
-0.00392565
-0.0179898
-0.0179898
-0.000890044
-0.000890044
-0.00989259
-0.00989259
-0.0349194
-0.0349194
0.00672812
0.00672812
-0.0659342
-0.0659342
-0.0322969
-0.0322969
0.0653836
0.0653836
-0.00874381
-0.00874381
0.0206909
0.0206909
-0.0199696
-0.0199696
-0.178595
-0.178595
-0.151108
-0.151108
-0.0648757
-0.0648757
0.0395702
0.0395702
-0.0999549
-0.0999549
-0.00255879
-0.00255879
-0.0109774
-0.0109774
-0.0123769
-0.0123769
-0.00335397
-0.00335397
-0.0266334
-0.0266334
-0.0336493
-0.0336493
-0.0099361
-0.0099361
-0.0490053
-0.0490053
-0.223196
-0.223196
-0.0172955
-0.0172955
-0.0264218
-0.0264218
-0.0180449
-0.0180449
-0.061049
-0.061049
0.0191455
0.0191455
-0.100292
-0.100292
-0.00478517
-0.00478517
0.0286273
0.0286273
-0.00495544
-0.00495544
-0.0122583
-0.0122583
-0.155825
-0.155825
-0.155622
-0.155622
-0.135071
-0.135071
-0.00261001
-0.00261001
0.00636539
0.00636539
-0.0303309
-0.0303309
-0.007381
-0.007381
-0.0104235
-0.0104235
-0.0116627
-0.0116627
-0.00604379
-0.00604379
0.0367629
0.0367629
-0.167017
-0.167017
-0.0102288
-0.0102288
-0.00107555
-0.00107555
-0.00614516
-0.00614516
-0.0146909
-0.0146909
-0.00749375
-0.00749375
0.0125736
0.0125736
-0.0937438
-0.0937438
-0.0199558
-0.0199558
-0.0530636
-0.0530636
-0.101572
-0.101572
-0.0345106
-0.0345106
-0.135885
-0.135885
-0.0455104
-0.0455104
-0.0435286
-0.0435286
-0.00328656
-0.00328656
-0.0160987
-0.0160987
0.0361175
0.0361175
0.0525756
0.0525756
-0.01096
-0.01096
-0.00582669
-0.00582669
0.0114093
0.0114093
-0.0705342
-0.0705342
-0.00664647
-0.00664647
0.0264526
0.0264526
-0.0254295
-0.0254295
-3.26084e-05
-3.26084e-05
-0.00997157
-0.00997157
-0.0144956
-0.0144956
-0.130063
-0.130063
0.0521652
0.0521652
-0.00727927
-0.00727927
-0.0479035
-0.0479035
-0.0717756
-0.0717756
-0.0789796
-0.0789796
-0.0106212
-0.0106212
-0.00581181
-0.00581181
-0.0968107
-0.0968107
0.0132896
0.0132896
-0.128986
-0.128986
-0.168879
-0.168879
0.0133713
0.0133713
-0.0109564
-0.0109564
-0.120017
-0.120017
-0.0228836
-0.0228836
-0.0301295
-0.0301295
-0.0500727
-0.0500727
-0.0166333
-0.0166333
0.0270347
0.0270347
-0.112349
-0.112349
-0.0441141
-0.0441141
0.0173467
0.0173467
-0.09811
-0.09811
-0.0269556
-0.0269556
-0.022722
-0.022722
-0.009826
-0.009826
-0.00760135
-0.00760135
-0.0314761
-0.0314761
-0.0583837
-0.0583837
-0.0112834
-0.0112834
0.0291416
0.0291416
-0.273749
-0.273749
0.00341659
0.00341659
-0.0143211
-0.0143211
-0.0396458
-0.0396458
0.0173021
0.0173021
-0.0380781
-0.0380781
-0.0183398
-0.0183398
-0.0262205
-0.0262205
-0.003602
-0.003602
0.00781317
0.00781317
0.00524771
0.00524771
0.00967916
0.00967916
-0.137602
-0.137602
-0.0381681
-0.0381681
0.0053196
0.0053196
0.0362773
0.0362773
0.00717107
0.00717107
0.0346147
0.0346147
-0.0168996
-0.0168996
0.00811712
0.00811712
-0.0163815
-0.0163815
-0.0193011
-0.0193011
-0.234049
-0.234049
0.0128273
0.0128273
-0.19661
-0.19661
0.0332128
0.0332128
0.00232674
0.00232674
-0.0362231
-0.0362231
-0.020088
-0.020088
-0.0631036
-0.0631036
-0.0710377
-0.0710377
-0.0234445
-0.0234445
-0.00280366
-0.00280366
0.0360899
0.0360899
-0.0826414
-0.0826414
-0.0215068
-0.0215068
-0.0179051
-0.0179051
0.049207
0.049207
0.00102624
0.00102624
-0.0045173
-0.0045173
0.000401831
0.000401831
-0.00826082
-0.00826082
-0.0523554
-0.0523554
-0.111607
-0.111607
-0.127943
-0.127943
-0.0198446
-0.0198446
0.0264283
0.0264283
-0.130248
-0.130248
-0.0511306
-0.0511306
0.0486506
0.0486506
-0.00621905
-0.00621905
0.00126272
0.00126272
-0.0358014
-0.0358014
-0.0292756
-0.0292756
-0.00846483
-0.00846483
-0.124589
-0.124589
0.0749121
0.0749121
-0.0892956
-0.0892956
-0.00837022
-0.00837022
-0.0380705
-0.0380705
-0.1637
-0.1637
0.00643619
0.00643619
-0.0311769
-0.0311769
-0.143122
-0.143122
0.0536756
0.0536756
-0.0039189
-0.0039189
0.007379
0.007379
-0.022642
-0.022642
0.0306334
0.0306334
-0.00195168
-0.00195168
-0.00617702
-0.00617702
-0.042225
-0.042225
-0.0689256
-0.0689256
-0.209053
-0.209053
-0.163799
-0.163799
0.0193207
0.0193207
-0.154497
-0.154497
-0.0301077
-0.0301077
-0.0149384
-0.0149384
0.00216656
0.00216656
-0.0490173
-0.0490173
0.0117526
0.0117526
-0.00632454
-0.00632454
0.00995761
0.00995761
-0.00556866
-0.00556866
1.26578e-05
1.26578e-05
-0.0422354
-0.0422354
-0.0253591
-0.0253591
-0.00546102
-0.00546102
-0.0826423
-0.0826423
0.00407036
0.00407036
-0.0318242
-0.0318242
-0.0368637
-0.0368637
0.0266981
0.0266981
-0.0415273
-0.0415273
-0.0193805
-0.0193805
0.0416106
0.0416106
0.0108963
0.0108963
0.0383515
0.0383515
-0.0507699
-0.0507699
-0.00196359
-0.00196359
-0.105446
-0.105446
-0.031756
-0.031756
-0.156116
-0.156116
-0.0850714
-0.0850714
-0.156371
-0.156371
-0.0126351
-0.0126351
-0.109051
-0.109051
0.00357697
0.00357697
-0.0286702
-0.0286702
-0.137329
-0.137329
-0.156353
-0.156353
0.0234192
0.0234192
-0.0315474
-0.0315474
0.028827
0.028827
0.0371084
0.0371084
-0.057526
-0.057526
-0.145782
-0.145782
-0.00529878
-0.00529878
0.0136374
0.0136374
0.00958263
0.00958263
0.0282968
0.0282968
-0.0777395
-0.0777395
-0.0286433
-0.0286433
0.00307963
0.00307963
-0.0288291
-0.0288291
-0.0317098
-0.0317098
-0.0401095
-0.0401095
0.0156423
0.0156423
-0.0861348
-0.0861348
-0.0105622
-0.0105622
-0.00974239
-0.00974239
-0.0195232
-0.0195232
-0.0285526
-0.0285526
-0.00834576
-0.00834576
-0.0948483
-0.0948483
-0.134599
-0.134599
-0.0205815
-0.0205815
-0.00475541
-0.00475541
-0.03041
-0.03041
0.00650222
0.00650222
-0.139636
-0.139636
-0.00217124
-0.00217124
0.039128
0.039128
-0.169405
-0.169405
-0.00278788
-0.00278788
-0.0431797
-0.0431797
-0.0476989
-0.0476989
-0.106581
-0.106581
-0.0236713
-0.0236713
-0.025666
-0.025666
-0.00378003
-0.00378003
-0.120512
-0.120512
-0.0303234
-0.0303234
-0.0806144
-0.0806144
0.00204173
0.00204173
-0.0117366
-0.0117366
0.0134018
0.0134018
0.0200597
0.0200597
-0.0567505
-0.0567505
0.00374683
0.00374683
0.00386316
0.00386316
0.00297618
0.00297618
0.000714177
0.000714177
-0.00513601
-0.00513601
-0.0328026
-0.0328026
-0.0330684
-0.0330684
-0.070406
-0.070406
-0.0110528
-0.0110528
0.03203
0.03203
-0.0362681
-0.0362681
-0.109419
-0.109419
0.02433
0.02433
-0.0359022
-0.0359022
-0.0120827
-0.0120827
-0.0334246
-0.0334246
-0.0245081
-0.0245081
-0.0197035
-0.0197035
-0.0110656
-0.0110656
-0.0913443
-0.0913443
-0.0125903
-0.0125903
-0.019593
-0.019593
-0.0191505
-0.0191505
-0.113773
-0.113773
-0.183326
-0.183326
-0.023864
-0.023864
-0.0120561
-0.0120561
-0.117023
-0.117023
-0.0264513
-0.0264513
-0.0114842
-0.0114842
-0.0767576
-0.0767576
-0.0823696
-0.0823696
-0.0341182
-0.0341182
-0.00779272
-0.00779272
-0.0643851
-0.0643851
0.0108963
0.0108963
0.0221162
0.0221162
0.00219124
0.00219124
-0.006823
-0.006823
-0.0225389
-0.0225389
0.0220724
0.0220724
0.0575332
0.0575332
-0.117879
-0.117879
-0.0167765
-0.0167765
-0.0224116
-0.0224116
-0.0498652
-0.0498652
-0.0362574
-0.0362574
0.0135794
0.0135794
-0.0411285
-0.0411285
0.0217703
0.0217703
-0.0957651
-0.0957651
-0.136988
-0.136988
0.0646741
0.0646741
-0.109596
-0.109596
-0.132568
-0.132568
-0.0878732
-0.0878732
-0.0462319
-0.0462319
-0.0176009
-0.0176009
-0.0171376
-0.0171376
-0.0667791
-0.0667791
-0.0464296
-0.0464296
0.00126446
0.00126446
-0.0151868
-0.0151868
-0.007699
-0.007699
0.0149157
0.0149157
-0.0428055
-0.0428055
-0.0962881
-0.0962881
-0.200381
-0.200381
-0.138543
-0.138543
-0.0775795
-0.0775795
-0.0534959
-0.0534959
-0.238621
-0.238621
-0.0114615
-0.0114615
-0.103371
-0.103371
0.0245532
0.0245532
-0.00352649
-0.00352649
-0.138696
-0.138696
-0.0458028
-0.0458028
-0.0401845
-0.0401845
-0.106307
-0.106307
-0.0090265
-0.0090265
-0.0140564
-0.0140564
-0.00854087
-0.00854087
-0.0206299
-0.0206299
-0.1047
-0.1047
-0.0132713
-0.0132713
-0.0102703
-0.0102703
-0.0094978
-0.0094978
-0.00205681
-0.00205681
-0.0787129
-0.0787129
-0.00474644
-0.00474644
-0.143218
-0.143218
-0.234986
-0.234986
-0.0240279
-0.0240279
0.0197988
0.0197988
-0.0429592
-0.0429592
-0.0446433
-0.0446433
-0.0166797
-0.0166797
-0.0592643
-0.0592643
0.0112436
0.0112436
-0.0114012
-0.0114012
-0.00872885
-0.00872885
-0.00710217
-0.00710217
-0.00613846
-0.00613846
-0.00483651
-0.00483651
-0.00382492
-0.00382492
-0.0028634
-0.0028634
-0.00199476
-0.00199476
-0.00127344
-0.00127344
-0.000550706
-0.000550706
5.47053e-05
5.47053e-05
0.000594667
0.000594667
0.00111611
0.00111611
0.00144201
0.00144201
0.00173986
0.00173986
0.00201622
0.00201622
0.00212196
0.00212196
0.00222022
0.00222022
0.00216875
0.00216875
0.00215606
0.00215606
0.00195766
0.00195766
0.00165488
0.00165488
0.00142839
0.00142839
0.00101189
0.00101189
0.000551386
0.000551386
-8.83512e-05
-8.83512e-05
-0.00062741
-0.00062741
-0.00121169
-0.00121169
-0.00214064
-0.00214064
-0.00289127
-0.00289127
-0.00424577
-0.00424577
-0.00502096
-0.00502096
-0.00586969
-0.00586969
-0.0078589
-0.0078589
-0.00936596
-0.00936596
-0.00991393
-0.00991393
-0.0117508
-0.0117508
-0.0151884
-0.0151884
-0.0167032
-0.0167032
-0.0184531
-0.0184531
-0.0228409
-0.0228409
-0.0270024
-0.0270024
-0.0317909
-0.0317909
-0.0385783
-0.0385783
-0.0502028
-0.0502028
-0.0616147
-0.0616147
-0.0848067
-0.0848067
-0.0996733
-0.0996733
-0.048566
-0.048566
0.00554109
0.00554109
-0.0139949
-0.0139949
-0.0202794
-0.0202794
-0.0161522
-0.0161522
-0.0162459
-0.0162459
-0.0153166
-0.0153166
-0.0209931
-0.0209931
-0.0303219
-0.0303219
-0.0360359
-0.0360359
-0.0420564
-0.0420564
-0.0477503
-0.0477503
-0.0517461
-0.0517461
-0.0527433
-0.0527433
-0.0514008
-0.0514008
-0.0488004
-0.0488004
-0.0448153
-0.0448153
-0.0399415
-0.0399415
-0.0344371
-0.0344371
-0.0293419
-0.0293419
-0.0244184
-0.0244184
-0.0205969
-0.0205969
-0.0189006
-0.0189006
-0.0172379
-0.0172379
-0.00987243
-0.00987243
-0.00916274
-0.00916274
-0.00793284
-0.00793284
-0.00605137
-0.00605137
-0.00503004
-0.00503004
-0.00433882
-0.00433882
-0.00288339
-0.00288339
-0.00224802
-0.00224802
-0.00120447
-0.00120447
-0.000614234
-0.000614234
-8.56517e-05
-8.56517e-05
0.000575886
0.000575886
0.00100964
0.00100964
0.00141841
0.00141841
0.00163089
0.00163089
0.00200191
0.00200191
0.00208861
0.00208861
0.00216172
0.00216172
0.00210747
0.00210747
0.00217562
0.00217562
0.00198598
0.00198598
0.0017188
0.0017188
0.00148493
0.00148493
0.00104191
0.00104191
0.000611132
0.000611132
7.36285e-05
7.36285e-05
-0.000572662
-0.000572662
-0.00123143
-0.00123143
-0.0020404
-0.0020404
-0.00290261
-0.00290261
-0.00390913
-0.00390913
-0.00488041
-0.00488041
-0.00601987
-0.00601987
-0.00723589
-0.00723589
-0.00885372
-0.00885372
-0.0115813
-0.0115813
-0.0169336
-0.0169336
-0.0189477
-0.0189477
-0.0206216
-0.0206216
-0.0245045
-0.0245045
-0.0293373
-0.0293373
-0.0347762
-0.0347762
-0.0405009
-0.0405009
-0.0453347
-0.0453347
-0.0493954
-0.0493954
-0.0519887
-0.0519887
-0.0528761
-0.0528761
-0.0517301
-0.0517301
-0.0485458
-0.0485458
-0.0415176
-0.0415176
-0.0343081
-0.0343081
-0.0269636
-0.0269636
-0.021604
-0.021604
-0.0185241
-0.0185241
-0.0142417
-0.0142417
-0.0147207
-0.0147207
-0.016035
-0.016035
-0.0132334
-0.0132334
-0.00447034
-0.00447034
-0.0404875
-0.0404875
-0.093037
-0.093037
-0.0919315
-0.0919315
-0.0673172
-0.0673172
-0.0476328
-0.0476328
-0.0405203
-0.0405203
-0.0304077
-0.0304077
-0.0264553
-0.0264553
-0.0238751
-0.0238751
-0.0190196
-0.0190196
-0.0159968
-0.0159968
-0.0149748
-0.0149748
-0.0125971
-0.0125971
      </DataArray> 
    </PointData>
    <CellData>
    </CellData>
  </Piece>
  </UnstructuredGrid>
</VTKFile>
