<?xml version="1.0"?>
<VTKFile type="UnstructuredGrid">
  <UnstructuredGrid>
  <Piece NumberOfPoints="3487"  NumberOfCells="1698">
    <Points>
      <DataArray type="Float64" NumberOfComponents="3" format="ascii">
39.9739 48.8793 0
60.0262 48.879 0
40.6343 49.0099 0
41.2964 49.1317 0
41.9599 49.2444 0
42.6248 49.3483 0
43.2911 49.4431 0
43.9586 49.529 0
44.6271 49.6058 0
45.2967 49.6737 0
45.967 49.7325 0
46.6381 49.7823 0
47.3098 49.823 0
47.982 49.8547 0
48.6545 49.8773 0
49.3273 49.8909 0
50.0001 49.8954 0
50.673 49.8909 0
51.3458 49.8773 0
52.0183 49.8546 0
52.6905 49.8229 0
53.3622 49.7822 0
54.0332 49.7324 0
54.7036 49.6735 0
55.3731 49.6057 0
56.0417 49.5288 0
56.7091 49.4429 0
57.3754 49.3481 0
58.0403 49.2442 0
58.7038 49.1314 0
59.3658 49.0097 0
39.9983 49.8949 0
39.997 49.6409 0
39.9925 49.387 0
39.9848 49.1331 0
19.9705 69.8672 0
39.9962 50.1566 0
39.9908 50.4182 0
39.9768 50.7966 0
39.9557 51.1746 0
39.9124 51.7209 0
39.8542 52.2658 0
39.7435 53.0511 0
39.6018 53.8313 0
39.3421 54.949 0
39.0187 56.0502 0
38.7456 56.8343 0
38.4401 57.6066 0
38.1028 58.3655 0
37.7342 59.1097 0
37.147 60.1581 0
36.4978 61.1694 0
35.789 62.1399 0
-0.0155745 49.8532 0
17.3602 69.6935 0
14.7949 69.1808 0
12.3185 68.3378 0
9.97302 67.179 0
7.79888 65.7242 0
11.5156 31.806 0
0.186726 47.0339 0
0.785041 44.2715 0
1.76751 41.6214 0
0 0 0
0.13191 3.7226 0
0.545887 7.42668 0
1.23792 11.0902 0
2.20371 14.6909 0
3.1065 17.344 0
49.9999 -0.0998942 0
5.1116 0 0
10.2232 0 0
15.3348 0 0
100 0 0
57.3942 -0.0967654 0
64.7884 -0.0853449 0
72.1804 -0.0614832 0
88.4846 31.8057 0
99.8681 3.72258 0
99.4542 7.42658 0
98.7621 11.0901 0
97.7963 14.6908 0
96.8936 17.3439 0
100.016 49.8531 0
99.8133 47.0338 0
99.215 44.2714 0
98.2325 41.6212 0
80.0295 69.867 0
99.8465 52.4636 0
99.3379 55.0296 0
98.4985 57.5072 0
97.3428 59.8542 0
95.8907 62.0301 0
60.0018 49.8947 0
77.5187 69.7115 0
75.0472 69.2423 0
72.6541 68.4667 0
70.3772 67.397 0
68.8908 66.4948 0
67.4883 65.4668 0
66.1803 64.321 0
64.9768 63.0658 0
64.211 62.1397 0
63.5022 61.1692 0
62.853 60.1579 0
62.2658 59.1095 0
61.56 57.6064 0
60.9814 56.05 0
60.658 54.9489 0
60.3983 53.8311 0
60.2566 53.0508 0
60.0031 49.6407 0
60.0076 49.3867 0
60.0153 49.1328 0
52.8204 30.1473 0
26.5231 36.9698 0
40.3284 24.2703 0
24.9288 22.5273 0
71.9418 22.5576 0
72.7064 44.0341 0
54.8054 24.096 0
15.3069 47.5068 0
38.3614 49.5088 0
23.6139 65.338 0
7.70087 7.7505 0
91.9409 7.72909 0
29.1712 56.9769 0
37.1862 51.9818 0
28.0893 47.2818 0
29.7286 48.2428 0
71.5148 46.766 0
30.9873 49.141 0
70.5136 48.2448 0
31.6352 45.7248 0
30.8872 47.1819 0
70.0639 46.7535 0
68.9844 45.0751 0
31.2921 50.2367 0
30.9056 51.461 0
28.1892 49.2405 0
45.3066 41.353 0
53.8451 40.9742 0
56.0297 40.5231 0
73.1265 47.5229 0
70.1131 49.4862 0
68.3353 42.5018 0
32.3084 42.8318 0
26.1366 45.7638 0
27.6759 44.766 0
30.302 43.3913 0
70.4158 42.7019 0
72.6767 46.0319 0
44.8476 43.1457 0
51.431 42.0522 0
55.4113 42.6387 0
32.4509 49.1758 0
68.5539 49.7212 0
39.474 42.1374 0
35.4368 43.4557 0
32.894 46.6229 0
33.5774 48.3717 0
67.1036 48.3174 0
67.9831 46.554 0
65.0759 43.1193 0
60.4223 41.7751 0
32.3691 51.496 0
28.2184 51.1011 0
41.7742 37.3582 0
46.8218 37.7631 0
52.0498 39.9365 0
58.6817 39.3061 0
26.6081 52.0002 0
24.3025 50.435 0
74.2252 50.0401 0
71.1635 50.7399 0
69.1402 52.3195 0
67.915 52.4518 0
59.7674 36.4252 0
66.5076 40.7456 0
34.1033 41.1219 0
36.0186 35.8557 0
23.1848 47.2624 0
21.6455 43.3613 0
28.3496 41.8738 0
74.318 44.7912 0
76.6349 48.6475 0
43.0525 43.7338 0
46.2675 43.0194 0
49.968 43.0674 0
48.4322 42.8502 0
51.7635 44.1051 0
54.0892 44.2209 0
52.9066 44.5165 0
56.2741 43.7697 0
33.8822 49.4676 0
33.7839 50.9822 0
66.535 51.7986 0
66.5947 49.8063 0
41.83 43.9715 0
40.7005 43.7093 0
38.4577 43.3172 0
37.1395 43.9232 0
35.3446 45.6332 0
34.3253 46.9144 0
66.0241 46.6388 0
65.0203 45.3637 0
63.1927 43.6073 0
61.7072 43.1572 0
58.8807 43.5698 0
57.5408 43.8858 0
33.3973 52.2067 0
29.1698 53.823 0
40.8285 31.0784 0
50.8857 36.0769 0
55.6708 34.3586 0
23.5644 53.5518 0
76.9148 52.0196 0
70.2353 53.4288 0
66.405 53.0405 0
65.48 35.2399 0
30.9442 34.6563 0
19.4486 47.3878 0
26.1235 40.1092 0
72.0119 34.1758 0
72.0569 41.4615 0
77.4844 45.3977 0
43.1659 45.1762 0
45.8085 44.8122 0
48.7644 44.9031 0
51.4435 45.5318 0
53.7694 45.6476 0
56.2188 45.4681 0
34.9105 50.1781 0
65.0846 50.3948 0
40.8137 45.1516 0
38.3659 45.4953 0
36.0282 47.3823 0
64.1406 47.1273 0
61.6512 45.4021 0
58.8257 45.2682 0
36.0696 52.4523 0
34.9191 53.217 0
33.5043 53.7307 0
31.9052 55.5256 0
26.0994 59.003 0
23.0023 57.4099 0
32.389 22.7713 0
47.0351 26.7649 0
63.1449 23.1201 0
19.9944 55.1207 0
80.1839 54.3858 0
75.7962 55.8901 0
71.9338 56.2383 0
69.0876 55.5553 0
65.7718 54.049 0
64.0961 53.8913 0
68.1617 29.0756 0
26.7673 30.1621 0
17.243 51.8523 0
14.6011 42.5422 0
22.3939 34.1435 0
84.8924 46.9681 0
84.716 52.127 0
75.1753 38.0181 0
81.2127 44.035 0
42.4557 46.5069 0
41.415 46.3154 0
44.9648 46.3522 0
43.6783 46.2692 0
47.7358 46.2934 0
46.3849 46.2259 0
50.62 46.6067 0
49.2718 46.5106 0
53.0509 47.0019 0
51.7632 47.0181 0
55.5137 46.6144 0
54.2337 46.7063 0
58.0623 46.5684 0
56.7806 46.7305 0
36.3734 48.7051 0
36.0271 49.7075 0
35.9288 51.2223 0
63.384 52.156 0
63.828 51.1433 0
63.8878 49.1506 0
63.8372 48.2474 0
40.2854 46.0531 0
39.3696 46.2331 0
38.0512 46.8389 0
37.3928 47.4239 0
62.8333 46.9722 0
62.0178 46.6469 0
60.5321 46.1969 0
59.4023 46.2523 0
38.061 52.6514 0
36.1766 53.9766 0
34.0759 56.8411 0
29.6009 59.9163 0
22.8767 61.4715 0
21.7347 15.46 0
39.9615 16.2945 0
48.9008 11.5819 0
56.9456 17.0275 0
76.6495 15.7014 0
15.6385 57.174 0
84.5201 57.6098 0
73.4088 59.5845 0
66.5187 55.7106 0
62.4552 53.6602 0
82.9392 7.85857 0
79.7481 22.6673 0
16.3095 7.93915 0
18.343 22.3796 0
10.7216 46.8735 0
16.5751 36.0847 0
15.5138 30.4761 0
89.404 49.7524 0
83.3187 31.3222 0
81.5784 39.3854 0
41.9274 47.4085 0
44.2547 47.683 0
46.8923 47.8334 0
49.5914 47.997 0
52.2274 48.0769 0
54.7953 47.9687 0
57.3572 47.7147 0
37.3918 49.7493 0
37.9202 51.4213 0
62.1871 50.9119 0
62.5805 48.9957 0
39.9708 47.3971 0
38.3966 48.162 0
38.512 48.932 0
61.7649 48.6308 0
61.7142 47.7672 0
59.7688 47.4973 0
38.8899 51.181 0
61.3472 51.1158 0
39.1984 52.9611 0
38.4644 53.5216 0
38.1729 54.6309 0
37.0225 55.3955 0
36.5194 57.1694 0
34.8723 58.6936 0
33.3662 60.5524 0
30.7513 62.6651 0
27.9927 64.8191 0
27.1667 7.8783 0
38.6552 8.42848 0
59.8775 8.65464 0
71.7691 7.96262 0
19.2395 64.7858 0
14.9424 63.0544 0
10.7423 60.2685 0
6.29425 57.2268 0
6.00136 51.293 0
94.2319 52.3907 0
93.315 57.4454 0
89.3299 60.7882 0
84.577 63.298 0
79.4695 64.9668 0
74.5716 63.9962 0
70.2647 62.7113 0
66.8288 61.2547 0
65.216 58.5811 0
62.7165 57.2524 0
62.0744 55.7226 0
61.7828 54.6133 0
61.0707 52.8778 0
93.4875 14.567 0
89.7946 20.7566 0
86.1134 25.1219 0
6.25901 14.5596 0
13.0067 24.5832 0
9.79042 20.7449 0
5.76198 45.7237 0
5.65467 40.7792 0
12.2985 34.8172 0
94.2266 47.2704 0
88.1211 37.1711 0
93.3575 42.5391 0
41.0914 48.1744 0
40.4303 48.0482 0
42.1323 48.3658 0
43.4633 48.5645 0
42.7965 48.4741 0
44.7499 48.6475 0
46.0897 48.7741 0
45.4189 48.7198 0
47.4407 48.8416 0
48.7852 48.8959 0
48.1126 48.8778 0
50.1335 48.992 0
51.479 48.9739 0
50.8063 48.992 0
52.7668 48.9576 0
54.1094 48.8671 0
53.4387 48.9214 0
55.3895 48.7751 0
56.7254 48.6124 0
56.0586 48.7028 0
58.0072 48.4503 0
59.3325 48.2158 0
58.6714 48.342 0
39.3753 51.6328 0
39.3246 52.1784 0
60.9445 52.0951 0
60.8937 51.5496 0
38.0151 50.5114 0
39.1353 49.6941 0
61.7913 50.1029 0
61.8156 49.5343 0
60.9757 49.7381 0
39.5144 48.2281 0
39.1705 48.3471 0
60.9492 48.3056 0
60.4624 48.1604 0
39.4702 50.7228 0
60.4979 50.7406 0
39.4915 50.0829 0
39.4877 50.3445 0
60.4804 50.3623 0
60.4766 50.1007 0
39.6421 49.506 0
39.6299 48.9983 0
39.6392 49.2521 0
60.5009 49.532 0
60.5038 49.278 0
60.5131 49.0242 0
61 49.1694 0
39.2859 49.1173 0
60.9514 50.3068 0
38.9847 50.271 0
60.8987 47.4418 0
39.055 47.577 0
62.6312 49.8991 0
37.0454 50.7518 0
61.7431 51.9248 0
38.795 52.0909 0
58.6389 47.5526 0
56.0754 47.8768 0
53.5152 48.0607 0
50.9397 48.0931 0
48.2432 47.9009 0
45.5413 47.7659 0
42.9682 47.6 0
40.8866 47.217 0
89.151 44.9018 0
10.9256 41.025 0
13.2815 16.216 0
85.8813 16.4264 0
63.1674 55.3955 0
68.914 58.5708 0
78.9391 59.9778 0
89.2863 55.0385 0
11.7744 52.9839 0
19.2391 59.8061 0
66.7191 15.835 0
30.7517 15.5501 0
26.3623 62.2416 0
32.1654 58.0842 0
35.0261 54.7412 0
37.327 53.2119 0
62.5298 48.0924 0
37.738 48.7468 0
75.9521 28.7636 0
20.5009 28.6694 0
47.9137 19.3836 0
60.1657 44.952 0
63.1369 45.852 0
37.0475 46.101 0
39.6842 44.8893 0
65.1445 48.4023 0
65.025 52.3874 0
34.8121 51.6929 0
35.0087 48.6634 0
57.4856 45.5842 0
54.952 45.352 0
52.5868 45.9432 0
50.3003 45.1204 0
47.2285 44.6859 0
44.3884 44.9384 0
41.9433 45.4138 0
74.3476 42.7937 0
80.2618 48.9915 0
17.9969 43.4419 0
21.3151 50.9028 0
34.4333 29.7963 0
59.9913 30.3506 0
67.7849 53.6936 0
73.3974 53.1363 0
54.4637 38.8586 0
46.5063 33.0133 0
26.2398 55.5076 0
31.9825 52.7204 0
69.7667 40.1288 0
30.9751 40.4985 0
57.596 42.1875 0
63.2486 41.3626 0
66.9037 44.8754 0
33.6417 45.1656 0
37.2313 41.7455 0
41.7166 42.5293 0
68.0451 51.21 0
32.7557 50.2717 0
53.2264 43.0899 0
49.6357 41.0145 0
74.2885 46.7888 0
25.7234 43.2484 0
71.9646 48.2571 0
26.5499 48.2795 0
69.0627 48.2324 0
32.146 48.0801 0
71.0652 45.2748 0
29.6285 46.2839 0
29.8285 50.2018 0
88.162 34.5043 0
96.8854 39.1367 0
91.3044 35.8834 0
92.2284 38.7516 0
96.0832 37.9723 0
88.4948 40.9155 0
3.11463 39.1368 0
11.8602 33.2708 0
9.99807 35.1564 0
3.91686 37.9724 0
8.31706 37.6676 0
11.6893 37.166 0
11.3984 22.6644 0
10.9802 26.5302 0
9.37194 24.6125 0
11.854 29.0273 0
4.15748 19.9413 0
5.35334 22.4746 0
8.23958 22.8394 0
11.5357 18.4799 0
13.1435 20.3999 0
8.02432 17.6531 0
6.97358 20.3433 0
5.20771 17.2498 0
6.69014 24.9358 0
7.78509 26.7331 0
4.23117 14.6253 0
9.7698 15.3884 0
87.9542 22.9395 0
90.4206 24.6181 0
88.5799 26.7988 0
91.553 22.845 0
95.8426 19.9412 0
94.6467 22.4745 0
87.7288 29.3457 0
85.998 20.7745 0
87.8382 18.591 0
91.6415 17.6627 0
94.6656 17.2534 0
92.819 20.3492 0
95.6421 14.629 0
93.3099 24.9356 0
92.2149 26.733 0
89.6849 15.4974 0
65.8236 8.30455 0
62.3305 4.28378 0
68.2783 3.93683 0
54.9409 4.27535 0
79.5536 0 0
84.6652 0 0
75.6612 3.9747 0
69.2436 11.8976 0
63.2981 12.2447 0
32.9107 8.14918 0
31.1897 3.89424 0
36.9355 4.17109 0
23.8067 3.9338 0
20.4464 0 0
27.8198 -0.0612589 0
44.3251 4.16172 0
34.7039 11.9892 0
28.9596 11.7134 0
81.6656 35.1903 0
85.4369 34.687 0
85.0576 38.2785 0
86.3097 31.732 0
85.0258 42.3641 0
77.3039 34.1237 0
80.0463 31.2955 0
16.0481 33.0003 0
14.0976 35.416 0
13.9031 32.9527 0
14.1583 38.6495 0
13.5142 31.1424 0
17.6033 30.1257 0
18.7359 33.0991 0
16.5108 27.4375 0
14.0934 28.3964 0
15.6749 23.4808 0
15.8122 19.2976 0
19.4226 25.5237 0
81.6295 27.373 0
82.9307 23.8942 0
84.8667 28.7858 0
82.8144 19.5462 0
77.8493 25.7145 0
79.7939 11.779 0
74.2081 11.8345 0
77.3518 7.9145 0
71.683 15.7675 0
81.2474 3.92781 0
84.4106 12.142 0
81.2649 16.0643 0
52.9236 14.304 0
54.3886 10.1163 0
58.4108 12.8409 0
49.4501 5.74059 0
61.8321 16.4297 0
52.4294 18.2045 0
48.4072 15.4828 0
44.4309 13.9373 0
39.309 12.3615 0
43.7786 10.0034 0
35.357 15.9208 0
43.9379 17.8381 0
19.0222 11.6991 0
21.7399 7.91328 0
24.4518 11.6718 0
18.377 3.96798 0
26.2444 15.5048 0
17.5083 15.8383 0
14.7951 12.0771 0
74.6578 34.1498 0
78.7693 37.5668 0
78.1028 41.1633 0
74.7614 40.4058 0
21.4482 31.4061 0
19.3614 36.8373 0
17.0636 39.6609 0
19.7367 40.4639 0
73.9816 31.4693 0
73.5933 36.0972 0
72.471 39.0733 0
70.8892 37.152 0
68.7458 34.7077 0
66.8206 32.1573 0
70.0864 31.6261 0
62.7353 32.7954 0
64.0763 29.7126 0
72.0567 28.9197 0
67.6229 37.6847 0
32.689 32.2265 0
35.2261 32.8257 0
33.4815 35.2559 0
33.4973 38.1775 0
36.625 38.8004 0
30.9599 37.5774 0
59.8792 33.3878 0
62.6237 35.8324 0
64.3643 38.301 0
61.5077 38.8941 0
57.831 32.3543 0
57.719 35.3919 0
57.1156 37.6418 0
55.0672 36.6086 0
46.6641 35.3882 0
48.6959 34.545 0
48.8538 36.92 0
50.2608 38.5457 0
52.6746 37.4678 0
48.2287 39.3888 0
38.8964 36.6068 0
38.4238 33.4672 0
41.3014 34.2182 0
37.631 30.4371 0
43.6674 32.0457 0
44.1405 35.1858 0
39.503 39.552 0
44.298 37.5606 0
46.0643 39.558 0
43.5117 41.9412 0
47.4712 41.1837 0
43.5403 39.3555 0
41.7455 39.9436 0
90.8598 3.86441 0
87.4405 7.79497 0
86.3612 3.93224 0
88.9124 12.0796 0
89.7768 0 0
94.8884 0 0
95.9725 3.86582 0
96.472 10.9988 0
92.7148 11.1477 0
95.6976 7.5787 0
91.0447 28.4813 0
90.4316 29.3357 0
4.12328 7.58941 0
6.9793 11.1547 0
3.40125 10.9951 0
10.4899 11.985 0
8.95536 28.4816 0
9.56847 29.3361 0
3.84834 3.87642 0
13.2633 3.97216 0
12.0047 7.84582 0
8.96105 3.87506 0
35.2115 -0.0852145 0
42.6057 -0.0966675 0
58.975 23.6073 0
55.8753 20.5617 0
60.0451 20.0739 0
51.3596 21.7394 0
64.9317 19.477 0
61.5679 26.735 0
57.3981 27.2235 0
67.5428 22.8383 0
70.0513 25.8159 0
65.653 26.0983 0
73.9469 25.6611 0
69.3301 19.1973 0
78.1991 19.1848 0
75.8444 22.6124 0
74.295 19.1281 0
23.3321 18.9926 0
21.6363 22.4533 0
20.0385 18.9201 0
22.7148 25.5989 0
27.8405 19.04 0
29.5785 26.4675 0
25.8487 26.3441 0
28.6594 22.6491 0
23.6343 29.4157 0
31.5706 19.1605 0
33.4115 26.2835 0
30.6005 29.9791 0
40.5786 27.6745 0
43.6819 25.5172 0
43.932 28.9218 0
44.1211 21.8267 0
47.4745 23.0744 0
46.7708 29.8892 0
37.3811 27.0337 0
36.1756 19.5333 0
40.1452 20.2825 0
36.359 23.5201 0
26.6458 33.5659 0
24.4585 35.5565 0
24.581 32.1532 0
22.5857 39.1206 0
28.8559 32.4088 0
28.7339 35.8132 0
28.749 38.7339 0
51.8531 33.112 0
54.2455 32.2529 0
53.2783 35.2177 0
56.4057 30.2487 0
49.6634 31.5802 0
50.9202 25.43 0
53.8128 27.1217 0
49.9277 28.456 0
6.55823 37.2674 0
6.9857 39.2229 0
5.2267 38.8238 0
9.62093 39.347 0
8.28975 40.9021 0
4.38454 39.958 0
4.79961 36.8679 0
5.75861 35.8289 0
7.55248 36.2646 0
10.8434 36.1618 0
10.0029 37.4168 0
9.15734 36.4115 0
11.3071 39.0951 0
8.39334 35.008 0
11.148 34.9871 0
11.9937 35.9912 0
11.6844 30.4186 0
10.1998 30.1767 0
11.0263 29.6008 0
12.4299 26.8054 0
10.4043 28.7542 0
10.8484 31.0014 0
89.8003 30.1762 0
88.1068 30.5772 0
88.7652 29.7596 0
89.3872 28.9131 0
86.9216 27.2339 0
89.1519 31.0009 0
85.873 33.2093 0
87.2345 33.1197 0
86.7992 34.5968 0
87.3971 31.7695 0
88.3239 33.1543 0
88.1418 35.8374 0
86.779 35.9296 0
84.3767 33.0053 0
84.8143 31.5272 0
86.7764 39.5972 0
86.7603 41.6403 0
85.0419 40.321 0
88.823 42.9084 0
87.0886 43.633 0
83.3021 40.8751 0
83.3179 38.8322 0
86.5894 37.7255 0
88.3082 39.0429 0
79.4846 34.6573 0
78.6749 32.7094 0
80.8553 33.2431 0
76.6275 31.4437 0
77.9992 30.0298 0
81.6825 31.3089 0
82.4917 33.2561 0
81.622 37.2878 0
80.2176 36.3784 0
14.1277 37.0325 0
12.9238 37.9082 0
12.8934 36.2913 0
12.5417 39.8373 0
13.1981 35.1169 0
15.3364 35.7505 0
15.3668 37.3675 0
12.882 33.1127 0
12.689 32.2081 0
13.7092 32.0475 0
11.6878 32.5382 0
12.515 31.475 0
14.5139 30.8094 0
14.7093 31.7148 0
13.1012 33.8857 0
12.0793 34.0438 0
16.8262 31.5632 0
18.17 31.6123 0
17.392 33.0497 0
19.0521 29.3977 0
19.619 30.8843 0
17.656 34.5923 0
16.3117 34.5425 0
15.7815 31.7381 0
16.5585 30.301 0
13.8039 29.7695 0
12.6848 30.0835 0
12.9737 28.7111 0
13.5499 26.4899 0
14.8041 29.4359 0
16.0125 28.9569 0
17.0574 28.7814 0
18.5062 28.0532 0
17.4267 24.9087 0
86.2976 29.0649 0
87.0179 30.5376 0
85.5879 30.2591 0
84.0921 30.0536 0
85.49 26.9536 0
82.4738 29.3477 0
80.8373 29.3339 0
80.6889 25.0203 0
78.7905 28.0681 0
80.1737 38.4763 0
79.8406 40.2743 0
78.4361 39.365 0
76.6389 39.5909 0
76.2252 41.9785 0
76.9723 37.7925 0
15.611 39.1555 0
15.8323 41.1016 0
14.3795 40.5956 0
17.5301 41.5512 0
16.299 42.9923 0
12.7633 41.7841 0
16.8192 37.8726 0
19.549 38.6505 0
18.4002 40.0625 0
18.2127 38.2493 0
18.8668 41.953 0
17.9683 36.4611 0
20.878 35.4907 0
20.9735 37.9788 0
20.6911 41.9125 0
21.1613 39.7924 0
24.5546 38.0454 0
22.4901 36.632 0
19.8213 43.4018 0
22.1157 41.241 0
24.1545 41.1842 0
23.6846 43.305 0
79.6577 42.5994 0
79.3485 44.7164 0
77.7937 43.2804 0
80.7373 46.513 0
78.8731 47.1946 0
75.9159 44.0958 0
81.3957 41.71 0
90.3619 39.8342 0
92.7932 40.6452 0
90.9265 41.727 0
94.557 38.9434 0
95.1218 40.838 0
91.2545 43.7208 0
90.1751 37.961 0
93.2525 36.3746 0
93.7147 37.8097 0
91.7666 37.3174 0
95.2005 36.8679 0
89.7132 36.528 0
92.2579 35.372 0
94.2416 35.8289 0
89.5607 33.8326 0
91.1315 34.5208 0
89.7336 35.1933 0
93.2111 34.8608 0
92.1144 33.9688 0
93.7923 44.9046 0
96.2864 43.4044 0
96.721 45.7709 0
90.9566 33.1578 0
89.745 32.4341 0
97.1213 48.5611 0
91.6891 46.0857 0
10.4508 33.2143 0
10.9286 34.2125 0
9.5198 34.1577 0
6.78891 34.8609 0
7.88569 33.9688 0
5.70802 43.2515 0
3.27336 44.9974 0
3.21968 42.5245 0
2.87296 47.7875 0
9.04319 33.1578 0
10.2553 32.4339 0
8.34333 43.3733 0
66.0224 59.9179 0
65.1655 61.2119 0
64.3591 59.875 0
65.9028 62.1602 0
60.1459 52.2655 0
60.0877 51.7207 0
63.7409 58.8452 0
67.065 58.5758 0
67.8713 59.9126 0
68.5467 61.983 0
68.8764 64.0889 0
67.1585 63.3607 0
70.3209 65.054 0
60.0444 51.1744 0
60.0233 50.7963 0
69.5893 60.641 0
77.0206 64.4814 0
77.2581 67.1043 0
74.8094 66.6191 0
79.7495 67.4167 0
60.0093 50.4179 0
60.0039 50.1563 0
72.4743 65.6964 0
76.7552 61.9868 0
79.2043 62.4721 0
82.0232 64.1323 0
84.891 66.239 0
82.3375 67.0734 0
87.3022 65.2381 0
94.1669 63.998 0
92.2011 65.7241 0
81.7582 61.6377 0
91.3224 59.1168 0
93.741 60.7214 0
91.7486 62.3928 0
95.329 58.6495 0
90.027 67.1789 0
87.6815 68.3377 0
89.6785 63.9833 0
89.3081 57.9131 0
91.3008 56.2417 0
93.7735 54.918 0
96.785 53.7097 0
96.3265 56.2374 0
97.1239 51.1218 0
85.205 69.1806 0
82.6397 69.6933 0
91.7591 53.7147 0
6.14773 54.2597 0
3.47811 56.1281 0
3.33154 53.1607 0
4.47563 58.5403 0
5.83308 63.9981 0
4.10933 62.0302 0
2.99273 50.5728 0
8.88778 52.1385 0
9.03408 55.1048 0
8.51829 58.7476 0
8.2875 62.1329 0
6.0636 60.6122 0
10.3576 63.7234 0
2.65722 59.8543 0
1.50149 57.5073 0
11.2583 56.6258 0
17.091 63.92 0
17.017 66.983 0
14.8687 66.1173 0
19.605 67.3263 0
0.662135 55.0297 0
0.153499 52.4637 0
12.4575 65.1164 0
17.0906 61.4301 0
19.2393 62.2958 0
29.372 63.7421 0
31.6316 64.066 0
30.2523 65.143 0
32.8873 62.8655 0
35.0232 63.0661 0
33.8197 64.3212 0
28.8078 66.1081 0
27.1775 63.5303 0
28.5568 62.4533 0
34.1193 59.623 0
35.6851 59.9315 0
34.932 60.8609 0
36.3033 58.9016 0
32.5117 65.4671 0
31.1092 66.495 0
34.1948 61.8092 0
32.7658 59.3182 0
33.5189 58.3888 0
29.6228 67.3973 0
37.1269 58.1395 0
37.4798 57.388 0
37.7691 56.6098 0
35.7728 55.9552 0
27.3459 68.467 0
83.5512 34.939 0
85.2475 36.4825 0
83.3611 36.7352 0
91.8181 51.0712 0
91.8155 48.5116 0
94.2293 49.8305 0
89.2776 47.3269 0
89.3452 52.3952 0
15.0735 34.2087 0
14.0004 34.1843 0
14.9756 32.9766 0
8.36121 49.0826 0
5.88151 48.5083 0
8.2416 46.2987 0
10.8234 43.9489 0
11.248 49.9286 0
15.3021 27.9169 0
14.7591 26.0096 0
83.2481 28.0795 0
83.8708 26.2465 0
67.7164 57.1407 0
65.8674 57.1457 0
64.1917 56.9883 0
64.843 55.553 0
73.9903 61.7902 0
72.4182 63.3537 0
71.8367 61.1477 0
71.1614 59.0776 0
76.1739 59.7811 0
86.9252 59.1988 0
86.9534 62.043 0
84.5486 60.4537 0
81.7295 58.7938 0
86.9032 56.3242 0
15.2904 60.1139 0
12.8424 61.6614 0
13.1902 58.721 0
13.7065 55.079 0
17.4388 58.4901 0
31.4836 60.2343 0
32.0587 61.6088 0
30.1761 61.2906 0
27.9816 61.0789 0
30.8831 59.0002 0
35.2977 57.0052 0
35.6959 57.9315 0
34.4741 57.7674 0
33.1206 57.4627 0
34.551 55.7912 0
78.0363 35.8454 0
76.2396 36.0707 0
84.8043 49.5473 0
87.1484 48.3601 0
87.06 50.9399 0
87.0218 45.9353 0
87.0013 53.5826 0
82.489 50.5593 0
82.577 47.98 0
19.0489 34.9681 0
20.5649 33.6212 0
69.0008 57.063 0
67.8031 55.6329 0
67.1518 54.7021 0
68.4363 54.6245 0
73.865 56.0642 0
74.6025 57.7372 0
72.6713 57.9113 0
77.3677 57.9339 0
70.4238 57.4044 0
72.6656 54.6872 0
74.5968 54.5132 0
82.4499 53.2565 0
84.6181 54.8682 0
82.3521 55.9977 0
79.5614 57.1816 0
80.2229 51.6884 0
18.6187 53.4864 0
17.8164 56.1473 0
16.4406 54.5129 0
19.6167 57.4632 0
14.5086 52.4181 0
19.279 51.3776 0
20.6547 53.0116 0
24.5509 58.2064 0
24.488 60.2372 0
22.9395 59.4406 0
26.2308 60.6222 0
24.6195 61.8565 0
21.0579 60.6388 0
21.1206 58.608 0
24.621 56.4587 0
26.1696 57.2552 0
32.0353 56.8048 0
32.9906 56.1833 0
33.4656 55.1334 0
31.9438 54.123 0
84.9592 44.6659 0
83.0526 45.5017 0
83.1192 43.1998 0
71.0845 54.8335 0
70.5107 55.8968 0
69.6614 54.492 0
69.0101 53.5612 0
71.8163 53.2826 0
78.5494 53.2027 0
77.99 55.138 0
76.3555 53.9548 0
75.1561 52.578 0
78.5882 50.5055 0
23.2834 55.4808 0
21.4984 56.2652 0
21.7794 54.3363 0
22.4398 52.2272 0
24.9021 54.5296 0
78.4483 48.8196 0
77.0597 47.0225 0
75.8864 46.0932 0
75.4616 47.7182 0
22.4151 45.3117 0
21.3168 47.3252 0
20.5471 45.3746 0
22.2499 49.0826 0
20.3819 49.1452 0
18.7227 45.4147 0
24.4542 45.2555 0
72.2804 51.9381 0
70.6994 52.0843 0
69.6042 50.9749 0
71.564 49.4985 0
75.43 49.3438 0
76.7748 50.3335 0
75.57 51.0299 0
73.8113 51.5881 0
74.2568 48.4144 0
25.4553 51.2176 0
25.0863 52.7761 0
23.9334 51.9933 0
26.424 53.7538 0
22.8088 50.6689 0
25.4262 49.3573 0
26.579 50.1398 0
27.7048 54.6653 0
27.889 52.9116 0
29.4992 52.0124 0
30.5762 53.2718 0
23.7436 48.8486 0
24.8674 47.7709 0
72.6943 50.39 0
73.0948 49.1487 0
27.6353 57.99 0
29.3861 58.4465 0
27.8502 59.4596 0
30.6683 57.5305 0
27.7055 56.2422 0
30.5375 54.6742 0
30.5382 56.2513 0
29.1705 55.3999 0
23.2453 63.4046 0
21.4267 65.0618 0
21.058 63.1286 0
21.7921 67.6024 0
24.988 63.7897 0
26.4726 67.0307 0
24.2834 67.2901 0
25.8033 65.0785 0
24.9528 69.2425 0
22.4813 69.7117 0
14.9539 45.0242 0
13.0142 47.1904 0
12.661 44.7075 0
13.5404 50.2449 0
16.6517 45.4742 0
18.3457 49.6199 0
16.2749 49.6794 0
17.3778 47.4475 0
58.4047 8.35842 0
60.0103 10.275 0
79.5485 20.3469 0
77.0553 20.5455 0
69.2587 14.0618 0
67.6066 15.9332 0
37.1804 13.4585 0
34.8339 12.6014 0
72.2323 44.6613 0
70.4008 42.9597 0
36.6964 22.1939 0
37.2947 24.6195 0
46.0445 8.34617 0
45.1558 10.683 0
1.85645 10.4351 0
4.06061 9.25369 0
16.1434 4.01119 0
14.3634 2.26223 0
37.7984 13.5301 0
37.7659 11.0309 0
72.2641 1.23746 0
69.7996 1.64818 0
65.3828 25.1892 0
65.8398 22.7337 0
17.0814 0.163705 0
19.0997 1.63239 0
30.7756 0.481557 0
29.0303 2.27286 0
20.1475 29.0801 0
18.0225 27.7667 0
87.2314 22.9668 0
89.7078 23.3277 0
80.4495 11.9344 0
79.0364 9.874 0
53.4985 14.4916 0
52.9721 16.9354 0
79.8838 20.755 0
77.3827 20.7074 0
95.4231 2.47301 0
96.8272 4.54034 0
40.4031 38.5534 0
38.1952 39.7249 0
34.3592 27.2078 0
35.0209 29.6162 0
88.3902 30.5811 0
87.7656 28.1695 0
42.4389 32.078 0
44.3198 30.4325 0
26.0627 12.9615 0
26.899 10.6067 0
40.5497 37.6285 0
42.7805 36.5017 0
65.9252 38.8029 0
67.4522 40.7817 0
21.6514 36.6763 0
24.1433 36.8766 0
87.3003 18.0625 0
88.9232 16.1667 0
31.2976 10.0675 0
28.8637 10.6401 0
60.2795 8.41561 0
61.5836 10.549 0
62.4227 9.4874 0
60.9677 7.45388 0
18.7618 7.01597 0
18.1814 9.4415 0
63.0479 43.9604 0
62.3522 46.3607 0
84.3009 25.9367 0
83.6167 28.3343 0
47.3521 44.4025 0
49.2159 42.7369 0
30.7354 4.89189 0
33.1074 5.67695 0
37.1992 2.4188 0
36.9105 -0.0639801 0
39.5292 0.665314 0
37.8572 2.52432 0
66.8664 34.6557 0
64.6072 35.7221 0
25.2243 21.4475 0
23.6513 23.3889 0
89.2414 30.3094 0
86.9785 29.2416 0
74.2935 10.1432 0
76.6707 9.37566 0
80.3549 12.8661 0
81.758 14.933 0
81.1031 17.0173 0
80.1932 19.339 0
78.4182 10.8114 0
79.7625 12.9171 0
67.6839 27.6103 0
65.1873 27.5015 0
62.4418 25.023 0
60.0113 24.4422 0
61.7321 24.8479 0
62.5028 27.2254 0
69.5283 33.0053 0
67.0413 32.7571 0
82.5811 12.5551 0
85.0217 13.1114 0
51.4595 18.2948 0
53.541 19.6777 0
66.9994 16.1105 0
65.1735 14.402 0
20.0112 22.5031 0
20.4672 20.0504 0
53.0662 24.1896 0
52.9579 21.6921 0
62.0872 34.0817 0
64.0526 35.6259 0
67.9601 28.3735 0
69.9265 26.834 0
27.3423 19.4828 0
25.4151 17.8956 0
43.3857 4.1047 0
43.9197 1.66262 0
90.2157 10.3177 0
88.4194 8.58003 0
67.9738 36.9285 0
68.6576 34.5265 0
9.53508 8.22428 0
11.9896 7.73966 0
49.9622 6.70477 0
52.3372 7.4856 0
81.1582 29.3137 0
83.0995 27.7425 0
43.1351 20.1462 0
45.5296 20.8582 0
73.0347 25.6683 0
75.2584 24.53 0
59.317 18.6974 0
57.0702 19.7895 0
94.819 14.9329 0
92.3999 14.295 0
8.74988 19.5326 0
11.2087 19.0675 0
17.4437 22.8539 0
15.7871 20.987 0
16.9329 36.6198 0
18.1364 34.4318 0
59.786 42.1191 0
57.5921 43.3157 0
84.6184 20.4981 0
84.6698 22.9907 0
9.90368 20.1531 0
7.80209 21.5101 0
16.8205 30.1686 0
15.1938 32.0625 0
46.6539 3.57877 0
48.1062 5.61366 0
57.7887 40.5319 0
55.7489 41.9756 0
67.5291 37.2213 0
69.6013 38.6197 0
68.3658 7.66518 0
70.2503 6.0264 0
24.7931 8.63404 0
27.218 9.2338 0
16.12 15.5907 0
15.2153 17.9165 0
96.9707 4.65928 0
94.5005 5.04683 0
25.2118 34.0118 0
26.0281 31.6514 0
16.8097 15.7924 0
17.9319 18.0193 0
86.8924 15.7563 0
88.5958 13.9319 0
26.9651 36.5844 0
28.2431 38.7294 0
45.0538 37.2504 0
42.7569 38.2352 0
25.9666 33.8627 0
28.4446 33.5332 0
70.5642 16.1031 0
72.5354 17.6422 0
49.8255 47.8568 0
50.9705 45.6347 0
82.7734 18.4591 0
81.0937 16.6087 0
12.4183 5.62493 0
9.99402 5.01454 0
18.3015 2.6777 0
20.5317 1.54433 0
98.8893 4.28035 0
97.6917 6.47099 0
80.3087 37.6035 0
80.9051 35.1811 0
48.5371 3.77505 0
48.4448 1.27713 0
46.0849 5.44005 0
43.9285 6.70534 0
61.1162 38.237 0
59.0272 39.608 0
81.2084 11.1836 0
81.7904 8.76079 0
79.3456 30.6176 0
77.0175 31.5238 0
52.3972 8.29723 0
50.9319 6.27177 0
25.8766 30.1417 0
23.7419 28.8448 0
94.5574 17.5064 0
96.8352 16.4783 0
29.5526 32.2857 0
31.8618 33.2389 0
65.8263 4.54597 0
65.8098 7.04558 0
53.2554 2.07771 0
51.4509 3.80838 0
14.5783 9.11244 0
15.1085 6.67563 0
7.22331 18.9099 0
5.03084 17.7118 0
61.2214 40.5222 0
59.9011 42.6439 0
74.2175 7.39758 0
73.802 4.93357 0
23.5563 30.4613 0
23.7972 27.9768 0
78.8086 6.97312 0
76.6507 5.70486 0
79.0498 11.3846 0
81.1642 12.7222 0
7.64214 2.54158 0
5.14268 2.61239 0
76.4652 16.0886 0
74.4829 14.5628 0
47.901 9.51349 0
49.6882 11.261 0
80.043 2.05703 0
82.5001 1.5967 0
29.1535 30.1115 0
27.1983 28.5579 0
70.9922 16.5083 0
71.5433 14.0742 0
4.53366 13.6064 0
6.49055 12.0499 0
40.5699 0.365062 0
39.5279 2.63737 0
60.4187 12.5395 0
59.8487 14.9728 0
41.211 3.70844 0
39.172 5.15579 0
33.6344 29.6226 0
36.1261 29.8087 0
33.1753 21.1231 0
32.9574 18.6348 0
79.6115 15.6582 0
80.1681 18.0904 0
72.6796 34.8844 0
70.545 33.5834 0
56.7315 8.4372 0
54.3229 7.76832 0
44.5347 9.06625 0
43.2026 11.1819 0
82.5775 16.6177 0
83.6861 14.384 0
11.5887 0.313523 0
10.6981 2.64598 0
78.0299 16.2459 0
80.0612 17.7051 0
59.424 3.16805 0
60.7511 5.28691 0
72.2764 1.36524 0
72.1944 3.86305 0
66.806 2.82106 0
68.0817 0.668947 0
13.3364 3.78219 0
15.154 2.0674 0
71.9915 26.6987 0
74.4489 27.1574 0
16.8358 17.5869 0
15.4244 19.6474 0
72.2262 38.4953 0
72.154 35.9992 0
43.4731 20.9328 0
41.2082 21.9889 0
57.2673 19.4027 0
57.5337 21.8881 0
64.6994 28.9482 0
67.1834 28.6779 0
24.6339 32.0496 0
27.0401 31.3721 0
50.1169 28.941 0
49.1072 31.2273 0
59.8171 37.3422 0
58.552 35.1865 0
22.4239 29.2155 0
24.8397 28.5732 0
39.6887 36.0579 0
37.2374 36.5444 0
5.91527 10.0885 0
3.8877 11.5519 0
54.8077 20.9364 0
56.842 22.3881 0
68.5309 19.7812 0
68.8385 17.303 0
42.0106 42.8443 0
42.7768 45.2234 0
19.0662 24.6805 0
16.9164 25.9558 0
69.2618 4.27271 0
66.9131 3.41398 0
18.7259 12.9 0
19.4289 10.5064 0
97.8419 0.549549 0
97.0222 2.9065 0
21.314 0.61811 0
21.7797 3.06164 0
13.4473 5.99905 0
14.5833 8.21912 0
94.8113 5.81899 0
95.3437 3.38117 0
58.6781 11.7523 0
59.4806 14.1201 0
26.7232 40.1028 0
25.2293 42.1062 0
62.4409 18.8849 0
64.5485 17.5448 0
9.53294 7.76989 0
11.9451 7.10673 0
44.2755 18.2295 0
41.887 18.9638 0
89.0159 10.8539 0
91.477 10.4085 0
65.5015 41.7634 0
63.0769 41.1549 0
51.2717 34.5433 0
53.6843 33.8939 0
12.755 8.60981 0
14.7429 10.1216 0
75.0707 18.5417 0
72.5767 18.356 0
69.1869 26.5576 0
69.6409 29.0139 0
19.5703 11.8713 0
21.8269 12.9442 0
36.8852 40.1846 0
34.4773 39.5157 0
29.2947 28.4155 0
30.9121 30.3178 0
12.3781 19.6564 0
13.5799 17.4675 0
42.0329 43.289 0
39.6394 44.0095 0
34.2195 5.26635 0
33.7223 7.71661 0
94.9496 17.099 0
93.8622 14.8498 0
53.7803 26.4126 0
54.3604 28.8438 0
68.3068 36.4423 0
67.5299 38.816 0
71.26 37.1607 0
69.3167 38.7301 0
30.4523 15.6612 0
32.6086 16.9204 0
62.7553 8.18406 0
65.2401 8.45628 0
52.3963 17.4582 0
51.1265 19.611 0
68.8456 3.74075 0
68.9145 6.23974 0
24.0028 7.81008 0
26.0376 9.25286 0
31.7595 14.7719 0
33.4755 16.5855 0
72.4549 6.09767 0
74.7285 5.07351 0
47.2208 15.3739 0
45.6775 17.3403 0
36.6576 41.9669 0
38.6892 40.5105 0
22.8061 10.5092 0
24.4476 8.62207 0
22.9537 37.8879 0
25.3338 37.1212 0
79.5686 20.5887 0
81.8205 21.6774 0
80.4522 16.1943 0
78.1776 15.1514 0
68.1957 34.3441 0
68.4404 36.83 0
32.7612 27.0829 0
34.992 28.2064 0
49.0972 3.7268 0
47.4576 5.61427 0
34.1745 40.7594 0
32.8148 42.8565 0
47.6782 12.7092 0
48.1992 15.1542 0
50.2588 18.9264 0
51.6325 16.8383 0
33.8109 30.7609 0
34.4964 28.3582 0
2.36733 13.8407 0
4.85211 14.122 0
40.0795 40.3634 0
40.8253 42.7486 0
10.1293 16.2064 0
9.51098 18.6244 0
32.9172 16.211 0
31.8726 18.4819 0
43.2612 1.07671 0
45.678 0.431281 0
37.1141 36.9654 0
39.3565 35.8616 0
81.2584 10.143 0
81.7519 7.70082 0
30.4503 3.74146 0
28.2961 5.01291 0
49.4068 1.48466 0
47.6103 3.22372 0
60.7829 31.3771 0
62.5586 33.1359 0
26.1598 37.3826 0
24.4824 35.5331 0
33.9305 3.3156 0
36.4188 3.55534 0
46.864 29.1944 0
45.8403 31.4746 0
19.4642 36.3047 0
21.1908 38.1078 0
56.1262 28.3904 0
58.6243 28.4248 0
92.8166 9.4875 0
95.2329 10.1344 0
22.0595 29.1449 0
24.5313 29.5136 0
48.2773 17.8301 0
50.729 18.3108 0
28.7877 21.7844 0
27.7352 19.5213 0
88.6609 18.0866 0
91.0153 18.9344 0
85.3204 15.5767 0
82.8222 15.7208 0
59.5469 45.3325 0
60.8285 47.4789 0
89.5242 2.5308 0
89.7311 5.01721 0
95.4492 9.81705 0
93.3563 8.44861 0
64.4679 41.5809 0
62.9801 43.5884 0
56.0245 26.1806 0
58.3471 25.261 0
71.0144 1.97784 0
71.0272 4.47746 0
51.4197 11.9333 0
50.5041 9.60697 0
58.3413 27.9564 0
57.6664 25.5498 0
9.3356 7.87374 0
7.78937 5.91428 0
51.6912 13.5421 0
49.21 13.2467 0
49.7135 24.4773 0
50.1428 26.9398 0
72.6224 28.504 0
70.2193 27.8157 0
81.3084 36.4687 0
78.9944 37.4116 0
80.7762 18.3602 0
81.4316 20.7675 0
63.0489 6.42108 0
60.7612 5.41262 0
49.6092 11.9099 0
47.1161 11.7391 0
44.4693 28.6149 0
42.0134 29.0743 0
88.63 7.83745 0
88.1005 10.2741 0
72.3128 6.45561 0
71.0241 8.59259 0
87.69 13.9613 0
88.6366 16.2709 0
36.5554 41.0016 0
38.278 42.8118 0
62.5516 3.71825 0
63.7235 1.51025 0
39.941 15.2121 0
40.0878 12.7166 0
19.38 6.4762 0
21.522 5.18215 0
36.3596 45.9751 0
38.724 46.7868 0
34.5608 31.4504 0
32.3274 32.5727 0
58.9219 19.6621 0
60.7148 21.4039 0
78.265 16.2738 0
75.84 15.6568 0
15.8399 29.0385 0
17.2036 26.9486 0
80.5524 1.67483 0
78.1503 2.35997 0
37.6377 41.8045 0
35.1553 42.0976 0
84.0832 21.4772 0
84.5772 23.9217 0
86.5606 7.35143 0
86.2178 4.88132 0
44.7643 6.13497 0
46.5616 7.87231 0
84.1672 19.8205 0
84.0373 22.3102 0
71.9757 17.6565 0
74.4588 17.3672 0
77.1371 25.1019 0
76.5249 22.6822 0
97.1401 15.308 0
94.6764 14.8764 0
38.3309 23.7204 0
40.4169 22.3436 0
40.9237 1.85105 0
39.8572 4.11209 0
60.1843 22.6178 0
57.8494 21.7272 0
23.1328 0.98519 0
24.5976 2.99963 0
71.9268 32.3283 0
69.4607 32.7312 0
44.2014 38.3207 0
42.2549 39.8887 0
34.1425 4.46881 0
35.5923 6.50402 0
19.9447 15.6478 0
21.6922 17.4298 0
1.50066 8.3755 0
3.19038 10.2153 0
85.6227 25.0797 0
87.74 23.7541 0
82.6897 14.9298 0
80.2622 14.3205 0
60.7612 3.35751 0
60.1656 5.78514 0
17.2766 24.3719 0
15.788 22.3692 0
51.8065 39.0049 0
50.594 36.8193 0
59.7316 46.9703 0
62.0348 45.9987 0
81.7036 19.2817 0
82.0011 21.7577 0
60.0671 15.2122 0
57.6559 14.5549 0
21.581 24.5742 0
21.4711 27.0668 0
50.5587 36.7857 0
51.503 34.4716 0
68.8477 24.2355 0
66.7826 22.8267 0
85.4313 32.1501 0
83.0832 33.0014 0
10.0298 12.7555 0
7.96735 14.17 0
90.6721 3.19403 0
88.576 1.8314 0
85.5539 8.49101 0
87.7101 7.22872 0
32.9545 40.5771 0
33.1215 43.0697 0
16.5742 0.847902 0
18.9355 1.66486 0
80.4386 27.6453 0
82.3792 26.0731 0
21.4068 11.1145 0
19.7273 9.27037 0
93.5215 17.1488 0
91.2241 16.1582 0
19.3903 35.7938 0
19.2439 33.3031 0
17.9664 35.424 0
20.2161 34.3332 0
76.6362 12.1649 0
75.0698 14.1058 0
20.8951 4.76856 0
18.5523 3.90106 0
26.3104 33.9301 0
24.1536 32.6704 0
55.3271 7.16511 0
57.4749 5.88624 0
69.3418 3.92884 0
70.4291 6.18115 0
22.4017 17.1341 0
21.7097 14.7388 0
89.4875 6.17043 0
86.9862 6.15585 0
60.155 4.34638 0
57.6666 4.10003 0
86.6754 11.3831 0
84.2709 10.6894 0
80.9384 22.6404 0
82.111 20.4389 0
69.7935 32.5934 0
68.9943 30.2264 0
42.4531 49.0541 0
40.5288 47.4583 0
30.6354 29.5044 0
31.5612 31.8234 0
19.9259 37.6323 0
20.2303 35.1552 0
64.2198 5.72348 0
62.4884 7.52527 0
91.4323 1.97886 0
90.9716 4.43078 0
85.7557 10.1686 0
87.2347 12.1817 0
16.1121 1.28151 0
14.0742 2.72859 0
71.9583 36.738 0
74.3827 36.1317 0
14.8967 16.3188 0
17.321 16.9335 0
85.8787 30.9777 0
87.5653 32.8169 0
8.11711 22.1098 0
10.6157 21.9826 0
49.9334 35.6887 0
52.4249 35.5021 0
9.1124 20.596 0
10.8347 18.7839 0
62.5406 32.0486 0
60.2719 33.0944 0
37.5395 6.89246 0
39.0298 4.88482 0
9.77221 9.22763 0
11.949 7.99617 0
60.1547 26.0713 0
57.6578 26.1558 0
32.8336 17.2738 0
33.7797 19.5848 0
92.6122 11.5034 0
92.9413 13.9773 0
50.0439 4.49555 0
52.1268 5.87862 0
21.761 11.8937 0
23.2248 13.9126 0
16.4462 4.93283 0
18.7614 3.98626 0
38.9405 33.8639 0
41.0767 32.5669 0
2.05496 4.99807 0
2.95958 2.67018 0
17.423 17.1737 0
16.3946 19.448 0
81.4696 37.6748 0
82.4942 35.4004 0
72.9168 12.6176 0
74.7497 10.925 0
66.3209 41.5434 0
63.929 42.2682 0
63.7537 26.5316 0
65.7404 25.0181 0
49.8632 6.14631 0
48.3248 8.11684 0
60.1837 40.8113 0
62.4056 41.9563 0
23.3832 10.9342 0
24.485 13.1706 0
60.0931 31.3161 0
61.0392 33.6293 0
85.0604 22.4817 0
87.5616 22.4097 0
74.5888 19.877 0
72.1621 19.2715 0
56.0514 12.4592 0
58.4944 12.986 0
61.6796 4.31091 0
60.6313 2.04139 0
60.7168 47.5785 0
58.2187 47.6751 0
50.6467 16.8822 0
50.9632 19.362 0
26.1312 33.292 0
27.1203 30.9982 0
43.6917 22.6663 0
41.6384 21.2435 0
70.2572 18.6166 0
72.7305 18.9843 0
72.538 1.58573 0
72.7216 4.07868 0
33.4055 17.1245 0
35.0411 19.0114 0
55.2417 3.58433 0
57.6849 4.11728 0
62.7426 27.0437 0
60.2442 27.0674 0
59.5699 35.568 0
59.7158 33.0733 0
41.7329 31.4051 0
39.3504 32.1589 0
65.717 33.9053 0
63.6942 32.4371 0
41.2728 36.2273 0
39.9697 38.3602 0
73.2467 29.8118 0
72.8138 32.2704 0
50.7634 40.2256 0
51.8569 42.4733 0
59.822 10.1133 0
58.3225 8.11261 0
82.5664 20.0378 0
84.8649 19.0549 0
66.2453 0.767754 0
68.7364 0.530512 0
72.7892 32.7153 0
74.6659 31.068 0
66.5335 33.5977 0
65.2558 35.7438 0
67.8033 46.3203 0
68.5285 43.9299 0
63.7352 23.0708 0
64.8331 20.8275 0
80.4344 11.313 0
82.0421 13.2264 0
30.9843 20.5049 0
30.0353 18.1959 0
25.2961 20.7364 0
26.8679 22.6754 0
53.9892 28.7553 0
56.4742 28.4988 0
85.7396 28.3688 0
85.2097 25.9332 0
37.9104 1.86394 0
40.3899 2.19227 0
42.096 29.598 0
43.0812 27.301 0
19.9459 35.4426 0
22.4327 35.6959 0
84.4647 11.5575 0
86.9664 11.4992 0
30.533 1.32206 0
33 0.909782 0
61.9957 42.5243 0
59.8313 41.2738 0
40.0212 13.5083 0
38.0261 15.0148 0
71.9263 29.2155 0
70.0802 27.5307 0
60.3688 30.343 0
59.6071 27.9627 0
6.6084 10.6833 0
5.73859 13.0241 0
33.6176 6.88668 0
32.0031 4.98049 0
57.2976 24.8115 0
59.7337 24.2583 0
61.7561 28.1029 0
59.2697 28.3466 0
12.9888 2.04015 0
15.1448 3.30071 0
72.4144 5.01534 0
69.9266 4.77412 0
30.5121 6.28665 0
28.115 6.9988 0
80.7925 3.75504 0
78.2932 3.86662 0
54.3865 36.0341 0
52.3748 37.5164 0
30.5818 14.3424 0
33.0037 14.9547 0
80.5833 9.22709 0
82.8672 8.21209 0
11.9861 31.6405 0
12.9776 29.3572 0
46.379 5.42259 0
48.8282 5.92529 0
2.74427 5.33118 0
5.2435 5.23259 0
10.2226 9.57899 0
11.2237 11.8636 0
4.34707 17.8898 0
6.59659 16.7959 0
29.379 8.5273 0
26.8803 8.48317 0
43.6948 2.0971 0
46.0014 3.06304 0
77.3493 2.82996 0
75.5797 4.58185 0
55.2168 26.8384 0
57.4667 27.9255 0
24.7963 19.3957 0
26.9835 18.1825 0
12.7739 30.9653 0
14.0273 28.8103 0
13.7545 17.9036 0
15.6106 19.5735 0
31.5336 36.1298 0
33.6384 37.4755 0
85.1157 18.9977 0
85.4427 16.5263 0
54.962 42.4582 0
56.1383 40.253 0
56.8633 43.1133 0
54.3744 42.8855 0
69.3624 41.189 0
68.4386 43.5096 0
81.6133 5.24137 0
81.1849 7.69449 0
67.3211 28.8306 0
69.414 27.4676 0
23.3611 28.3314 0
20.867 28.4989 0
76.5841 33.1773 0
74.6907 31.5459 0
40.4056 1.89477 0
41.9572 -0.0656343 0
21.4818 3.50552 0
19.2781 2.33554 0
32.7042 28.1017 0
34.5107 29.8262 0
39.7642 2.34123 0
37.9754 4.08824 0
68.5869 6.32372 0
66.5249 7.73335 0
7.18939 2.11354 0
8.72632 0.142895 0
59.0849 33.5063 0
57.1273 31.9526 0
22.6415 35.4875 0
24.1754 37.4569 0
76.72 25.0032 0
76.1666 22.5694 0
8.87988 16.7561 0
9.72006 19.1046 0
27.0128 16.7347 0
28.4381 14.6809 0
31.9329 37.0591 0
32.7616 34.7019 0
22.1906 35.0023 0
19.9502 33.8979 0
73.3366 37.1756 0
72.0124 35.0566 0
15.0356 2.09383 0
16.9739 0.517166 0
52.2299 12.2476 0
52.0968 9.751 0
33.8205 8.82309 0
32.6854 6.59782 0
24.9676 41.8791 0
27.357 41.1411 0
57.5804 12.615 0
59.8023 11.4722 0
84.2021 35.2427 0
82.4004 33.5112 0
40.3976 47.2306 0
38.8845 45.241 0
18.073 12.203 0
20.5288 12.6786 0
92.6956 8.18758 0
94.3785 6.34312 0
81.3806 33.0798 0
80.6665 30.6881 0
38.8239 14.923 0
38.687 17.4188 0
28.5745 11.631 0
29.959 13.7072 0
51.9117 39.6159 0
54.4018 39.8252 0
86.5668 28.139 0
85.8973 25.7377 0
22.16 2.35982 0
23.5613 4.41595 0
49.355 3.27696 0
47.2362 1.94878 0
18.8509 19.7537 0
21.3313 20.076 0
2.11639 9.04109 0
4.29842 7.81952 0
20.2603 3.61573 0
18.8564 5.68094 0
62.9437 44.5088 0
65.1627 45.6605 0
34.4787 21.2754 0
36.5669 19.901 0
94.5922 1.03535 0
93.9489 3.44615 0
49.7443 42.4893 0
49.3582 40.0196 0
58.6799 10.891 0
56.3277 10.0454 0
36.6053 10.799 0
34.3191 11.811 0
56.8268 43.9499 0
56.7518 46.4485 0
2.45105 12.6307 0
1.79002 10.2227 0
82.4216 4.98391 0
83.3148 2.65727 0
37.6738 47.3967 0
35.4156 46.3245 0
65.9809 39.6226 0
68.3094 40.5327 0
24.6403 34.1615 0
27.1169 34.4969 0
68.4707 39.5334 0
70.8729 38.8441 0
13.7954 30.6969 0
12.1813 28.7954 0
58.8642 44.5175 0
61.2987 45.0846 0
24.3223 5.67237 0
24.1899 8.16438 0
81.1335 20.9641 0
78.7545 21.7333 0
29.866 39.8249 0
29.506 42.2967 0
23.7007 17.1025 0
21.4446 16.0287 0
2.75147 8.24008 0
4.97534 7.09618 0
48.0253 30.9447 0
49.9852 29.3945 0
87.0606 23.1974 0
84.6796 23.9608 0
34.6583 11.0026 0
32.3223 11.8942 0
47.5561 26.1207 0
46.0983 24.0911 0
67.4413 24.3805 0
65.4493 22.8703 0
58.2191 30.243 0
56.8747 32.3489 0
32.3137 34.9863 0
34.6065 35.9788 0
57.4157 36.449 0
56.0547 34.3525 0
26.687 3.42315 0
28.802 2.08763 0
11.1684 26.699 0
12.7061 24.7294 0
63.5203 33.1917 0
61.9226 35.112 0
28.4815 11.4664 0
26.0338 11.9816 0
44.5037 45.8875 0
42.0049 45.9545 0
30.832 14.5433 0
31.9602 16.7703 0
13.2094 1.8319 0
15.3332 0.513357 0
76.1378 15.0663 0
73.8815 16.1376 0
12.6824 6.54546 0
13.3293 8.95336 0
35.4839 5.02753 0
36.344 7.37397 0
53.9987 17.7888 0
51.5397 18.2302 0
31.3103 8.56861 0
29.007 7.60414 0
24.2846 6.68133 0
21.7915 6.89203 0
48.6129 3.73078 0
51.0486 4.2971 0
32.1524 13.8698 0
32.0886 11.3722 0
1.59129 3.46604 0
4.07083 3.78913 0
62.8169 44.3993 0
60.4992 43.4629 0
42.6331 24.5604 0
40.1403 24.3965 0
48.3447 30.8793 0
50.5237 32.1017 0
58.8831 35.4246 0
56.394 35.6411 0
50.0159 46.7041 0
52.071 45.2812 0
26.9483 5.75851 0
26.3156 8.17715 0
43.5108 36.1654 0
42.0911 34.1093 0
52.879 28.0734 0
50.9817 29.6993 0
60.9567 40.084 0
62.0919 42.3108 0
46.9318 23.7745 0
45.6651 21.6203 0
19.2558 2.96582 0
18.5412 0.580253 0
48.2286 42.0242 0
49.1909 39.7172 0
47.8177 39.6134 0
45.3651 39.135 0
73.2259 11.6035 0
72.6948 9.16212 0
52.5268 17.9533 0
50.783 16.1628 0
25.0066 41.9302 0
27.4902 41.6383 0
51.9711 24.213 0
50.5576 26.274 0
25.8301 30.4306 0
28.2572 31.0238 0
5.37325 8.02247 0
2.89251 7.70746 0
20.8679 35.3582 0
18.7508 36.6882 0
31.8824 19.2788 0
34.157 20.3107 0
30.0918 19.3612 0
27.7426 18.5109 0
78.7365 17.5868 0
79.475 19.9706 0
41.9105 32.2624 0
42.4567 29.8236 0
44.7892 12.6623 0
45.2496 10.2049 0
44.194 20.2003 0
46.0433 18.5188 0
36.1339 2.55088 0
35.7818 5.02552 0
94.4682 4.87081 0
95.2771 7.23349 0
41.9058 21.9091 0
40.3546 23.8693 0
57.7845 26.2829 0
55.7434 24.8409 0
62.7054 27.0744 0
65.1146 27.739 0
8.561 15.6797 0
8.47921 18.1734 0
70.8364 31.0537 0
68.3923 30.5306 0
45.8799 35.806 0
46.1259 33.3187 0
87.0719 2.75275 0
88.7603 4.59464 0
22.5063 38.6171 0
22.8782 41.0851 0
66.2456 43.2797 0
64.2147 41.822 0
77.3501 12.026 0
77.8868 14.4629 0
50.8449 47.1245 0
49.1599 48.9711 0
14.9025 13.4312 0
15.4094 10.9892 0
75.6249 19.0354 0
75.4166 21.5217 0
59.0502 45.7129 0
61.1013 47.1423 0
83.739 9.4826 0
86.1846 8.95796 0
6.96929 1.80496 0
4.47064 1.89841 0
80.7479 19.041 0
82.5486 17.3122 0
13.6047 0.199816 0
11.1066 0.105675 0
14.8922 32.2548 0
17.2709 31.4887 0
14.2075 12.8872 0
15.575 14.9731 0
66.7045 1.02653 0
64.2409 1.46039 0
72.2704 24.5488 0
71.314 26.8547 0
52.0204 31.5343 0
50.0646 29.9792 0
29.3069 29.268 0
28.0393 27.1172 0
76.0727 25.4463 0
76.3065 22.962 0
88.1018 17.2861 0
90.3422 18.4002 0
56.5907 9.14854 0
54.3014 10.1511 0
30.5977 42.4216 0
32.0849 44.4288 0
49.5607 38.3547 0
50.1526 35.9263 0
33.5659 30.7331 0
35.8022 31.8462 0
51.2962 20.2822 0
50.1623 22.5097 0
48.006 20.2879 0
46.7598 18.1213 0
56.313 36.8395 0
54.2199 38.2044 0
27.9104 28.1046 0
28.4915 30.5325 0
32.5623 34.5741 0
33.1968 36.9898 0
91.7329 14.7423 0
93.5663 16.4423 0
6.69784 6.17719 0
6.37439 8.65225 0
30.5827 35.8944 0
31.2506 33.487 0
65.2116 34.9986 0
64.2753 37.3145 0
70.8829 2.28698 0
72.4706 0.359717 0
72.2176 25.1488 0
72.6958 22.6989 0
12.9639 14.6642 0
14.9606 16.1647 0
48.3619 3.54662 0
50.7924 4.13506 0
17.3708 5.88255 0
17.5672 8.36604 0
6.48904 18.6177 0
4.00298 18.3498 0
31.8273 34.0017 0
32.011 36.4927 0
59.3297 32.9728 0
59.0322 35.454 0
80.5954 24.5265 0
80.9811 26.991 0
96.0303 18.4262 0
96.4421 15.9636 0
81.6437 13.205 0
84.1087 12.7788 0
31.4032 34.5298 0
30.323 32.2784 0
95.0459 8.66518 0
94.175 11.0041 0
92.6691 17.935 0
94.8852 16.7806 0
25.3129 38.0132 0
25.0202 35.5341 0
11.1063 27.2542 0
12.911 28.9758 0
25.1932 17.1713 0
22.7333 17.6273 0
33.0392 22.3417 0
35.5308 22.5296 0
75.1086 23.1409 0
72.609 23.1865 0
50.0608 27.6913 0
49.6797 30.1616 0
20.9788 18.7476 0
20.4646 21.189 0
93.0623 7.23992 0
92.2389 9.59526 0
49.1248 48.2233 0
47.6816 46.1823 0
60.3042 39.1683 0
62.1841 37.5225 0
68.5113 12.696 0
66.4504 11.2792 0
74.7636 11.5525 0
72.5959 12.7908 0
59.6142 42.0055 0
61.2486 43.8969 0
83.0205 12.0734 0
83.6993 9.67561 0
12.3192 9.78877 0
11.2375 7.54131 0
46.2355 43.1431 0
44.2312 41.6502 0
78.0971 4.22872 0
75.6354 4.6591 0
79.2575 34.7215 0
79.721 32.2698 0
50.3187 26.4101 0
47.8544 26.0009 0
15.898 14.9825 0
18.3707 14.5958 0
24.6594 1.87397 0
27.1459 2.08894 0
21.7812 5.96613 0
23.7376 4.40545 0
38.4325 26.8642 0
35.9878 27.3817 0
39.5945 38.0607 0
37.0997 37.916 0
20.4295 23.3379 0
19.0343 21.269 0
55.8229 8.77506 0
53.5451 9.80385 0
30.7896 38.8407 0
33.2369 38.3309 0
56.7842 41.8905 0
59.2554 41.5182 0
59.0609 12.4958 0
61.5111 12.0066 0
84.7859 1.9539 0
82.4279 2.78122 0
54.6892 35.8189 0
52.919 37.5826 0
27.8978 39.4751 0
30.3924 39.3102 0
56.9169 32.7013 0
56.6292 30.2186 0
77.6288 21.3474 0
75.7488 22.9908 0
36.6735 36.6596 0
36.0382 39.0765 0
70.6807 32.4917 0
68.213 32.8849 0
48.9421 32.5292 0
50.2825 30.4199 0
64.3904 19.4745 0
65.3987 21.7617 0
36.9101 30.6668 0
39.4083 30.7127 0
52.0993 3.14127 0
54.2079 4.48533 0
16.0981 27.0254 0
13.8938 25.848 0
28.8185 37.774 0
26.3497 38.169 0
66.3202 34.916 0
64.7313 32.9867 0
86.8401 13.8079 0
85.7553 16.0532 0
79.9118 37.5688 0
77.61 38.5415 0
1.09486 9.66409 0
2.78077 11.5075 0
22.3087 7.06418 0
19.8221 6.79628 0
27.9993 24.2688 0
25.5249 23.9151 0
48.7823 5.57576 0
46.4124 4.77853 0
39.4114 8.47684 0
37.1179 7.48456 0
13.1979 16.2304 0
11.7679 14.186 0
35.1903 37.9803 0
33.3763 39.7 0
76.139 8.05839 0
78.2043 6.65738 0
38.8873 43.9728 0
38.072 41.6105 0
46.1927 9.60992 0
48.2302 8.16154 0
39.8921 31.0793 0
37.4684 31.6878 0
37.3131 29.3185 0
36.6466 31.7269 0
36.7025 27.0503 0
34.2268 27.3911 0
30.671 4.57297 0
33.0176 5.43087 0
71.8525 32.0447 0
74.0298 30.8206 0
24.1558 12.4515 0
26.546 11.7116 0
33.2144 43.7964 0
35.5008 42.785 0
26.0684 22.5694 0
24.0467 24.0398 0
5.63975 2.56811 0
6.55708 0.244889 0
94.3772 5.90423 0
96.7849 6.58207 0
53.4123 19.0636 0
51.705 17.2382 0
53.8052 45.5615 0
52.3227 47.5742 0
94.7214 5.2468 0
93.3221 3.17655 0
30.2162 21.257 0
27.7693 20.7493 0
57.4965 2.27028 0
58.1111 4.6934 0
94.5986 11.5039 0
92.9585 9.61818 0
43.7255 7.34103 0
46.1879 6.90957 0
49.3926 42.499 0
47.4337 44.0516 0
42.4151 27.4363 0
44.8285 26.7894 0
24.2313 22.7188 0
21.7593 22.3433 0
70.0072 34.2851 0
70.1768 31.7936 0
18.3779 13.5618 0
20.595 14.714 0
9.38229 28.8211 0
11.6687 27.8032 0
62.0433 24.6347 0
60.8111 22.4599 0
81.7515 25.2499 0
79.2515 25.1843 0
22.8115 29.3865 0
20.6914 30.7097 0
14.2084 29.7284 0
14.3195 32.2184 0
12.6352 13.0521 0
13.6614 15.3247 0
67.3853 22.9145 0
67.8315 20.4574 0
79.3432 21.9367 0
81.7532 22.6076 0
15.256 21.7675 0
14.1837 24.0212 0
21.2453 13.6398 0
18.8974 12.7816 0
44.9049 45.1507 0
42.408 45.0365 0
62.2435 38.2067 0
60.8261 36.148 0
59.6112 47.4082 0
61.9432 46.5076 0
39.9657 37.933 0
42.4641 37.8838 0
55.7341 30.4259 0
53.3927 29.5534 0
67.6309 40.9109 0
65.1438 41.1605 0
71.0778 5.76447 0
73.5756 5.791 0
80.9118 3.30402 0
80.8424 0.814397 0
59.6901 7.23289 0
57.9504 9.02726 0
32.356 19.6611 0
31.5517 22.027 0
43.9441 32.6202 0
44.0566 35.1169 0
97.7951 14.1582 0
97.9449 11.6653 0
74.1301 18.6707 0
72.1784 17.1071 0
77.0955 31.6839 0
76.3813 34.0753 0
55.9602 48.8055 0
56.3212 46.3319 0
40.1891 1.36564 0
37.7724 2.01041 0
72.061 20.1817 0
74.5357 19.8286 0
41.8326 44.8578 0
44.3128 45.1682 0
87.0873 2.76001 0
86.5133 5.18645 0
19.356 22.0633 0
18.917 19.6088 0
17.5097 36.444 0
16.268 34.2807 0
26.06 38.1926 0
24.1802 39.8406 0
61.6711 6.47031 0
59.6968 4.93613 0
39.7186 30.2558 0
40.0355 32.7344 0
63.2612 5.68829 0
60.7914 6.07383 0
60.5827 6.82409 0
61.4286 4.472 0
79.3328 37.091 0
76.896 37.6474 0
46.821 23.5705 0
47.7796 21.2618 0
81.9629 12.4103 0
79.4876 12.7715 0
17.6907 13.0417 0
18.5042 15.3982 0
48.2078 40.8009 0
46.3938 42.5206 0
65.3905 19.9594 0
64.1603 17.7831 0
42.9211 40.212 0
41.745 42.4178 0
54.5112 17.1429 0
53.4387 19.4004 0
22.8926 29.5328 0
25.284 28.8051 0
23.2258 15.0283 0
20.7885 14.4693 0
92.319 7.81988 0
90.8017 9.80175 0
32.1237 32.2486 0
33.589 30.224 0
68.7426 28.7244 0
68.9768 31.2112 0
97.6677 2.42147 0
96.1763 4.42249 0
67.3766 15.165 0
69.839 14.7417 0
78.374 23.476 0
78.8303 21.0239 0
37.559 16.2007 0
35.1778 15.4454 0
68.9183 9.46676 0
69.468 7.02986 0
32.9249 20.4074 0
34.2725 18.3019 0
33.2585 31.8169 0
34.9086 29.9397 0
87.9062 26.0893 0
89.8829 27.6223 0
84.2827 23.777 0
86.7046 24.4059 0
38.5111 11.3871 0
36.0811 11.9728 0
65.6937 40.5549 0
63.5246 39.3124 0
37.7189 1.75715 0
35.5402 2.98416 0
75.4858 40.1259 0
75.908 42.587 0
67.3347 2.3581 0
67.125 4.84901 0
72.0031 15.3347 0
70.1574 13.6469 0
63.3841 32.0964 0
65.8783 32.2508 0
39.5921 3.36793 0
38.8516 5.75575 0
46.2208 18.9044 0
47.7908 16.9594 0
37.5071 38.9387 0
36.3002 41.1274 0
90.1654 7.3412 0
90.8915 4.95471 0
92.5898 20.1157 0
90.1863 19.4197 0
55.9017 19.4253 0
56.1536 16.9384 0
22.8483 18.9259 0
21.4672 21.0073 0
32.7192 16.2099 0
34.5014 17.9588 0
72.9857 38.5439 0
73.3482 36.0737 0
61.7503 40.9202 0
63.1796 42.9707 0
27.4363 33.0504 0
29.7313 32.0596 0
27.6244 16.7567 0
25.7837 15.0711 0
39.5035 2.57097 0
37.4721 4.02904 0
18.5924 28.6106 0
17.7672 26.2565 0
73.4803 2.76908 0
75.2043 0.968406 0
75.7762 42.2389 0
73.2792 42.3735 0
57.3566 44.0873 0
54.9351 43.4677 0
27.2394 9.1564 0
28.8671 11.0472 0
24.1964 7.89592 0
23.0315 10.1068 0
76.6197 41.724 0
74.5077 43.0594 0
30.3659 38.7268 0
32.054 40.568 0
47.727 27.6385 0
48.5105 30.0118 0
78.439 7.0443 0
80.9157 6.69524 0
76.0227 10.4754 0
76.2908 12.9562 0
69.5489 34.2414 0
68.9381 31.8191 0
77.7416 17.1899 0
79.7252 18.7128 0
84.5118 32.6701 0
85.6701 34.881 0
64.9196 34.5907 0
64.2377 32.1867 0
32.3998 10.3066 0
29.9016 10.2442 0
29.525 44.5922 0
31.8203 45.582 0
20.0359 29.1739 0
22.4985 28.7447 0
45.1428 28.4804 0
47.3559 27.3203 0
19.2647 33.9677 0
20.5356 31.8177 0
66.1373 9.49349 0
66.1565 6.99404 0
61.6907 1.81396 0
64.0394 0.953996 0
80.9499 1.40085 0
79.813 3.61439 0
40.5918 47.6541 0
38.0946 47.5317 0
58.8136 26.198 0
59.6325 28.5594 0
14.7966 23.4997 0
16.8893 24.8643 0
4.11908 14.4652 0
6.16663 13.0295 0
84.2846 21.7496 0
82.6561 19.8549 0
8.18431 0.608641 0
5.72184 0.18158 0
75.459 20.1837 0
73.1106 21.0376 0
52.4337 10.007 0
50.7796 8.1326 0
43.3144 5.89469 0
45.7132 5.18924 0
39.2794 2.91334 0
37.8623 4.97322 0
3.34472 8.6653 0
0.908114 8.10403 0
87.885 12.1509 0
88.2115 14.6237 0
39.6917 11.4496 0
37.4266 10.3956 0
57.944 7.44427 0
56.0189 5.84903 0
16.2362 26.9263 0
13.7505 27.2075 0
52.5464 5.47245 0
55.0194 5.84092 0
89.8224 6.98662 0
92.2023 7.75701 0
93.4902 4.65591 0
91.8464 2.7733 0
95.0955 0.410513 0
96.8538 2.18817 0
16.022 29.4497 0
18.3911 28.6534 0
62.4934 9.66536 0
61.7891 12.0632 0
18.5804 7.20733 0
17.946 4.79934 0
70.1876 45.2256 0
67.8104 44.4498 0
79.6885 8.40565 0
80.5733 6.07632 0
91.8871 15.7001 0
89.7303 14.433 0
59.5412 8.8571 0
59.3377 6.36529 0
21.3704 28.6045 0
23.6743 29.5711 0
24.8578 42.1333 0
26.3542 40.1317 0
22.3627 13.3228 0
24.5582 14.5129 0
9.87058 12.1125 0
11.0498 9.91148 0
33.5135 45.4943 0
34.4687 43.1851 0
67.637 35.9457 0
69.9003 37.0072 0
25.3256 10.7515 0
26.8418 8.76178 0
84.0396 24.5808 0
82.697 22.476 0
87.5701 2.04617 0
89.3481 3.80226 0
51.1097 41.0371 0
53.4466 41.9233 0
82.2022 9.45651 0
80.118 8.07217 0
65.1282 14.6275 0
66.1361 16.9154 0
42.9477 6.82975 0
42.7672 4.33646 0
53.5109 5.55378 0
55.4228 3.94298 0
44.3395 38.9518 0
42.872 40.9753 0
90.5714 10.8634 0
92.543 9.32982 0
23.244 16.9417 0
24.7748 18.9123 0
23.7591 10.1181 0
23.803 7.62391 0
60.7256 35.7754 0
60.9625 38.2633 0
44.6544 1.25849 0
42.2996 2.1016 0
78.3174 24.3309 0
79.048 21.9457 0
68.8784 37.9521 0
68.7772 35.4564 0
27.5472 6.51025 0
29.4622 4.89991 0
58.9383 13.2986 0
59.0326 15.7965 0
57.7226 9.5748 0
59.6557 11.1601 0
51.762 19.5701 0
54.1766 20.212 0
50.6774 38.2292 0
48.1786 38.2277 0
47.4617 22.8799 0
46.41 25.1475 0
22.6081 21.1609 0
22.812 23.6473 0
81.0234 2.12103 0
78.5691 1.62894 0
95.2577 4.87766 0
95.4021 7.3697 0
48.3779 41.1847 0
46.782 43.1086 0
26.3519 16.7051 0
25.211 18.9277 0
89.3242 21.5264 0
88.3663 23.8281 0
43.8489 3.63453 0
46.1174 4.68568 0
53.2877 27.8949 0
55.5259 29.0058 0
78.2912 8.37356 0
79.9512 6.51233 0
13.6867 14.0425 0
16.1791 14.2647 0
54.08 47.5482 0
53.9851 45.0501 0
52.409 6.0506 0
49.9861 5.43327 0
54.1108 40.6003 0
51.8123 41.5811 0
8.32653 21.9577 0
6.36929 23.5151 0
11.1056 27.6964 0
8.61479 27.4827 0
49.734 47.2319 0
47.2344 47.2599 0
43.5544 18.4119 0
45.9022 19.2655 0
28.422 43.5056 0
27.7313 41.1059 0
87.1675 31.5261 0
86.4435 29.1424 0
85.8056 22.4909 0
86.6635 20.15 0
85.9749 0.792521 0
88.4078 1.37156 0
83.5278 35.7162 0
84.5649 33.4486 0
24.1325 32.697 0
25.6972 30.7488 0
45.5984 42.3064 0
47.1164 44.292 0
21.3828 34.9789 0
23.6598 33.9467 0
6.28724 12.1065 0
4.37606 10.4981 0
34.5285 14.7287 0
36.1452 12.8212 0
31.2773 45.9757 0
33.0003 44.1646 0
18.2687 23.0108 0
20.6831 23.661 0
10.2848 22.5621 0
11.9872 20.7317 0
50.2246 7.64741 0
47.8899 6.75331 0
47.4949 30.8231 0
45.1608 29.9325 0
38.8542 21.0265 0
41.2665 20.3743 0
43.5939 9.98633 0
41.3858 11.1583 0
77.5027 36.9721 0
79.2778 35.2166 0
39.9071 8.95261 0
39.074 11.3099 0
74.8744 40.4087 0
73.6252 38.2448 0
60.7926 11.8695 0
58.9222 13.526 0
96.2384 12.5346 0
94.0158 11.3875 0
43.7615 25.3794 0
41.2633 25.3922 0
54.28 42.9011 0
56.7549 42.5532 0
84.5879 23.5634 0
82.0908 23.7171 0
2.52771 9.61367 0
4.59111 8.20133 0
82.1203 4.95062 0
84.6068 5.22544 0
36.5509 16.4635 0
38.6721 17.7825 0
44.0099 9.42332 0
42.0203 10.9369 0
21.1833 26.5143 0
22.1847 28.8001 0
43.0509 27.2496 0
45.3673 26.3128 0
15.0457 19.6496 0
14.8685 22.1367 0
20.1538 8.60401 0
21.021 6.26305 0
12.2288 24.8498 0
10.9724 22.696 0
49.8769 41.55 0
48.6849 39.3531 0
9.59169 24.455 0
9.39191 26.9424 0
35.0917 44.0743 0
32.8822 45.2441 0
13.4065 18.331 0
11.223 17.116 0
12.2597 23.8222 0
12.6988 21.367 0
84.2205 17.4464 0
84.0588 14.9582 0
97.0975 15.4566 0
94.892 14.2772 0
76.1929 36.7679 0
77.5768 38.8483 0
4.72785 2.94487 0
2.27429 3.43081 0
13.8905 26.8347 0
11.4055 26.5477 0
9.9142 5.18772 0
8.6484 7.34076 0
87.004 9.99186 0
86.6952 7.5172 0
50.8099 18.9907 0
49.885 16.6684 0
22.8245 2.98055 0
23.5181 0.57808 0
24.0525 40.4687 0
21.5724 40.15 0
4.31966 10.5275 0
1.91133 11.2027 0
74.018 28.1503 0
72.4481 30.0917 0
51.6099 16.6389 0
49.4396 17.8773 0
94.6767 5.52268 0
96.5498 7.17865 0
92.4043 0.900781 0
90.0039 1.59508 0
54.686 28.0935 0
57.0142 29.0004 0
3.93518 2.11172 0
2.81834 4.34648 0
25.6144 42.1195 0
28.0978 41.8257 0
24.2904 33.2566 0
25.7613 35.2736 0
64.8706 37.9178 0
63.0572 36.1975 0
45.7816 39.0476 0
46.3276 36.6084 0
59.1461 39.4849 0
58.3409 41.8508 0
42.8344 19.505 0
41.6338 17.3136 0
48.5245 16.9862 0
47.4653 14.7221 0
92.8641 4.86707 0
91.3401 6.84379 0
17.6618 6.62818 0
16.0902 4.69126 0
31.5465 30.7828 0
33.0621 28.7957 0
49.558 45.239 0
50.5154 47.5482 0
51.6943 13.91 0
49.2476 14.417 0
35.2084 5.63258 0
34.5511 8.04492 0
90.6823 7.76502 0
90.2503 10.2214 0
55.2552 45.8636 0
54.0058 43.6983 0
16.7184 18.2476 0
18.9044 17.0312 0
14.6209 7.08159 0
14.2825 4.61181 0
24.2855 34.4446 0
21.7931 34.6377 0
62.6269 33.6977 0
60.6578 35.2352 0
11.5565 19.7203 0
13.6569 21.0725 0
76.8154 0.430258 0
74.321 0.357757 0
59.9231 26.162 0
57.669 25.0831 0
70.4729 27.1423 0
67.986 27.3877 0
46.2272 22.9262 0
46.9738 20.5405 0
76.5801 3.89511 0
74.1826 4.58511 0
47.849 15.2392 0
50.1331 16.2523 0
88.1714 13.6085 0
89.9428 11.8492 0
70.991 0.192805 0
73.3095 1.12803 0
56.2784 45.797 0
57.2099 43.4776 0
68.1651 3.39089 0
65.9384 2.25326 0
22.8437 17.7447 0
24.7622 16.1405 0
81.1875 38.8135 0
83.168 37.2918 0
49.4128 3.09725 0
51.1124 4.93096 0
66.014 3.4637 0
63.6789 2.57031 0
53.3002 12.2868 0
53.0655 9.79771 0
12.6066 15.4633 0
10.7883 17.179 0
43.178 4.7975 0
43.6214 7.25765 0
56.1632 20.7099 0
58.6135 21.199 0
60.8427 22.5084 0
58.3628 22.2028 0
28.8155 27.3063 0
26.9985 25.5936 0
40.7075 7.06921 0
38.2301 7.40054 0
17.4031 2.35953 0
19.8833 2.03507 0
42.8384 25.9747 0
40.3616 26.3034 0
7.02827 17.7374 0
8.35287 19.8522 0
20.2967 12.0465 0
22.1395 10.3557 0
67.3971 40.1699 0
65.4867 41.7801 0
45.1262 41.6543 0
45.9826 44.0025 0
70.8093 17.3511 0
73.1907 16.5948 0
88.2791 4.88606 0
90.0174 6.68133 0
49.8863 20.3117 0
48.1625 22.1212 0
56.3553 37.8439 0
56.3555 40.3434 0
82.371 26.124 0
80.8521 28.1047 0
39.5804 4.56666 0
41.5668 6.0837 0
55.1638 43.7137 0
57.0067 42.0256 0
55.3775 43.5986 0
57.0598 41.7504 0
25.0486 15.4779 0
23.2315 13.768 0
14.3546 27.9112 0
13.5162 30.2583 0
53.0014 17.1832 0
51.197 18.9121 0
32.5317 42.9751 0
34.8839 43.8203 0
19.7109 10.9188 0
21.4651 12.6931 0
61.518 41.2791 0
63.755 40.1654 0
32.9582 27.5891 0
31.0107 29.1559 0
31.0064 21.3246 0
31.978 23.6245 0
72.064 27.5743 0
71.2322 29.9282 0
38.0846 13.2336 0
40.5583 13.585 0
47.3028 48.1114 0
45.4826 46.3982 0
70.6151 11.6366 0
70.4811 14.1303 0
98.6507 10.2133 0
96.5893 8.79802 0
96.4607 15.9502 0
93.9608 16.0209 0
58.9487 10.3662 0
59.6863 12.755 0
54.9957 18.5251 0
56.4779 20.5379 0
53.9075 41.7949 0
56.3718 41.3797 0
5.05102 4.43985 0
7.5309 4.11598 0
84.5048 18.8878 0
86.8283 19.817 0
19.281 30.3623 0
19.5099 32.8468 0
64.4114 35.968 0
63.1645 33.802 0
66.4831 23.644 0
68.9807 23.5586 0
60.3886 25.6119 0
62.6847 24.6281 0
55.9169 21.3124 0
57.6095 19.4746 0
21.5758 36.5053 0
19.083 36.7028 0
55.9491 32.4812 0
58.3824 31.915 0
67.929 1.81928 0
70.1214 3.02253 0
16.2233 6.29293 0
17.6196 4.22409 0
91.8161 24.2992 0
91.1474 26.7021 0
89.1983 19.2134 0
86.7298 18.8007 0
88.0832 12.6352 0
86.5267 14.5856 0
76.4144 18.9829 0
77.6055 16.7913 0
71.0115 21.1277 0
70.1004 23.4518 0
26.6212 25.6378 0
25.4029 27.8187 0
55.8033 26.5006 0
55.5558 28.9876 0
59.1653 43.2487 0
57.5216 45.1315 0
66.2234 18.9074 0
68.2674 17.4729 0
81.2675 33.7203 0
79.733 31.7491 0
50.4281 9.1699 0
49.7703 11.5819 0
26.0624 27.6458 0
24.0294 29.0998 0
49.6497 27.4636 0
49.8897 24.9755 0
89.306 25.5763 0
91.8049 25.4822 0
78.9794 32.2524 0
76.6468 33.147 0
76.1987 37.5863 0
76.6422 35.1301 0
22.6857 1.51208 0
23.5125 3.86248 0
17.2401 12.0158 0
15.7645 10.005 0
76.5354 35.9343 0
78.4016 34.2757 0
25.5365 42.9631 0
23.7502 41.2172 0
24.9576 3.62913 0
23.1398 1.92752 0
86.9004 24.5548 0
85.0444 22.8807 0
84.0765 33.6365 0
83.1933 31.3023 0
68.0038 9.28586 0
65.8999 7.93352 0
6.43181 3.79856 0
4.66421 5.56628 0
88.4754 7.29074 0
89.3589 4.95832 0
68.0813 41.0077 0
69.9197 39.3164 0
33.5831 19.0066 0
33.483 21.5029 0
18.394 18.4588 0
19.9911 20.3763 0
51.0068 20.8236 0
51.9957 18.528 0
81.2094 27.3642 0
79.0109 26.1752 0
33.6485 33.8462 0
31.4683 35.069 0
42.0779 36.828 0
44.2673 35.6231 0
9.49764 8.12028 0
8.1247 6.03632 0
46.3952 9.21623 0
43.9185 9.55239 0
38.9215 45.9764 0
36.7372 44.7611 0
56.6712 44.953 0
57.0852 42.4879 0
50.8194 7.95444 0
52.142 10.0758 0
69.3103 9.716 0
68.2007 11.9526 0
52.7874 10.8357 0
53.9937 8.64617 0
87.9554 0.592602 0
87.4328 3.03119 0
87.5874 29.8117 0
88.5047 27.4967 0
27.7709 27.9729 0
29.3261 26.0168 0
41.1478 3.36355 0
43.5699 2.74093 0
47.3827 29.4446 0
44.8858 29.3659 0
44.8992 23.3341 0
42.4237 22.9991 0
57.5545 36.3678 0
55.692 34.7012 0
79.9245 4.8135 0
81.3144 6.88853 0
33.003 1.63617 0
31.3349 3.49891 0
37.9981 49.8928 0
37.9277 51.4612 0
37.9277 51.4612 0
37.7207 53.0176 0
37.7207 53.0176 0
37.3787 54.55 0
37.3787 54.55 0
36.9043 56.0468 0
36.9043 56.0468 0
36.3013 57.4965 0
36.3013 57.4965 0
35.5741 58.8882 0
35.5741 58.8882 0
34.7284 60.2112 0
34.7284 60.2112 0
33.7706 61.4555 0
33.7706 61.4555 0
32.708 62.6116 0
32.708 62.6116 0
31.5487 63.6707 0
31.5487 63.6707 0
30.3015 64.6249 0
30.3015 64.6249 0
28.976 65.4667 0
28.976 65.4667 0
27.5821 66.1899 0
27.5821 66.1899 0
26.1305 66.7889 0
26.1305 66.7889 0
24.6322 67.2592 0
24.6322 67.2592 0
23.0987 67.5973 0
23.0987 67.5973 0
21.5415 67.8005 0
21.5415 67.8005 0
19.9726 67.8673 0
19.9726 67.8673 0
18.4038 67.7972 0
18.4038 67.7972 0
16.8471 67.5907 0
16.8471 67.5907 0
15.3143 67.2494 0
15.3143 67.2494 0
13.817 66.776 0
13.817 66.776 0
12.3667 66.1739 0
12.3667 66.1739 0
10.9743 65.4478 0
10.9743 65.4478 0
9.6505 64.6032 0
9.6505 64.6032 0
8.40532 63.6464 0
8.40532 63.6464 0
7.24823 62.5849 0
7.24823 62.5849 0
6.18805 61.4265 0
6.18805 61.4265 0
5.23286 60.1802 0
5.23286 60.1802 0
4.38993 58.8554 0
4.38993 58.8554 0
3.66568 57.4623 0
3.66568 57.4623 0
3.06565 56.0113 0
3.06565 56.0113 0
2.59442 54.5135 0
2.59442 54.5135 0
2.25558 52.9804 0
2.25558 52.9804 0
2.05176 51.4237 0
2.05176 51.4237 0
1.98451 49.8551 0
1.98451 49.8551 0
2.05436 48.2867 0
2.05436 48.2867 0
2.26082 46.7304 0
2.26082 46.7304 0
2.60233 45.1982 0
2.60233 45.1982 0
3.0763 43.7016 0
3.0763 43.7016 0
3.67915 42.2523 0
3.67915 42.2523 0
4.40628 40.8613 0
4.40628 40.8613 0
5.25217 39.5394 0
5.25217 39.5394 0
6.21042 38.2966 0
6.21042 38.2966 0
7.27364 37.1429 0
7.27364 37.1429 0
8.43379 36.0871 0
8.43379 36.0871 0
9.68204 35.1381 0
9.68204 35.1381 0
11.009 34.3034 0
11.009 34.3034 0
12.4054 33.588 0
12.4054 33.588 0
13.8582 32.9917 0
13.8582 32.9917 0
15.356 32.5212 0
15.356 32.5212 0
16.8887 32.182 0
16.8887 32.182 0
18.4451 31.977 0
18.4451 31.977 0
20.0135 31.9081 0
20.0135 31.9081 0
21.582 31.9759 0
21.582 31.9759 0
23.1384 32.1798 0
23.1384 32.1798 0
24.671 32.5185 0
24.671 32.5185 0
26.168 32.9894 0
26.168 32.9894 0
27.6182 33.5889 0
27.6182 33.5889 0
29.0103 34.3126 0
29.0103 34.3126 0
30.3339 35.1551 0
30.3339 35.1551 0
31.5788 36.1099 0
31.5788 36.1099 0
32.7356 37.1697 0
32.7356 37.1697 0
33.7956 38.3266 0
33.7956 38.3266 0
34.7506 39.5716 0
34.7506 39.5716 0
35.5934 40.8953 0
35.5934 40.8953 0
36.3175 42.2876 0
36.3175 42.2876 0
36.9175 43.7379 0
36.9175 43.7379 0
37.3887 45.2352 0
37.3887 45.2352 0
37.7275 46.7679 0
37.7275 46.7679 0
37.9313 48.3244 0
37.9313 48.3244 0
37.9981 49.8928 0
98.0155 49.855 0
97.9483 51.4236 0
97.9483 51.4236 0
97.7444 52.9803 0
97.7444 52.9803 0
97.4056 54.5134 0
97.4056 54.5134 0
96.9344 56.0112 0
96.9344 56.0112 0
96.3343 57.4621 0
96.3343 57.4621 0
95.6101 58.8553 0
95.6101 58.8553 0
94.7671 60.1801 0
94.7671 60.1801 0
93.812 61.4264 0
93.812 61.4264 0
92.7518 62.5847 0
92.7518 62.5847 0
91.5947 63.6463 0
91.5947 63.6463 0
90.3495 64.603 0
90.3495 64.603 0
89.0257 65.4476 0
89.0257 65.4476 0
87.6333 66.1738 0
87.6333 66.1738 0
86.183 66.7758 0
86.183 66.7758 0
84.6857 67.2493 0
84.6857 67.2493 0
83.1529 67.5905 0
83.1529 67.5905 0
81.5962 67.797 0
81.5962 67.797 0
80.0274 67.8671 0
80.0274 67.8671 0
78.4585 67.8003 0
78.4585 67.8003 0
76.9013 67.5971 0
76.9013 67.5971 0
75.3678 67.259 0
75.3678 67.259 0
73.8695 66.7887 0
73.8695 66.7887 0
72.4179 66.1897 0
72.4179 66.1897 0
71.024 65.4665 0
71.024 65.4665 0
69.6985 64.6246 0
69.6985 64.6246 0
68.4513 63.6705 0
68.4513 63.6705 0
67.292 62.6114 0
67.292 62.6114 0
66.2294 61.4553 0
66.2294 61.4553 0
65.2716 60.211 0
65.2716 60.211 0
64.4259 58.8879 0
64.4259 58.8879 0
63.6988 57.4963 0
63.6988 57.4963 0
63.0957 56.0465 0
63.0957 56.0465 0
62.6214 54.5497 0
62.6214 54.5497 0
62.2794 53.0173 0
62.2794 53.0173 0
62.0724 51.461 0
62.0724 51.461 0
62.002 49.8926 0
62.002 49.8926 0
62.0688 48.3242 0
62.0688 48.3242 0
62.2726 46.7677 0
62.2726 46.7677 0
62.6114 45.2349 0
62.6114 45.2349 0
63.0826 43.7377 0
63.0826 43.7377 0
63.6826 42.2874 0
63.6826 42.2874 0
64.4067 40.895 0
64.4067 40.895 0
65.2495 39.5713 0
65.2495 39.5713 0
66.2045 38.3263 0
66.2045 38.3263 0
67.2644 37.1695 0
67.2644 37.1695 0
68.4212 36.1097 0
68.4212 36.1097 0
69.6662 35.1549 0
69.6662 35.1549 0
70.9898 34.3125 0
70.9898 34.3125 0
72.3819 33.5888 0
72.3819 33.5888 0
73.832 32.9891 0
73.832 32.9891 0
75.3291 32.5182 0
75.3291 32.5182 0
76.8617 32.1794 0
76.8617 32.1794 0
78.4181 31.9755 0
78.4181 31.9755 0
79.9865 31.9078 0
79.9865 31.9078 0
81.5549 31.9768 0
81.5549 31.9768 0
83.1114 32.1818 0
83.1114 32.1818 0
84.6442 32.521 0
84.6442 32.521 0
86.142 32.9915 0
86.142 32.9915 0
87.5945 33.5879 0
87.5945 33.5879 0
88.9912 34.3033 0
88.9912 34.3033 0
90.3182 35.1382 0
90.3182 35.1382 0
91.5663 36.0871 0
91.5663 36.0871 0
92.7264 37.1427 0
92.7264 37.1427 0
93.7897 38.2965 0
93.7897 38.2965 0
94.7479 39.5392 0
94.7479 39.5392 0
95.5938 40.8612 0
95.5938 40.8612 0
96.3209 42.2522 0
96.3209 42.2522 0
96.9238 43.7015 0
96.9238 43.7015 0
97.3977 45.198 0
97.3977 45.198 0
97.7392 46.7303 0
97.7392 46.7303 0
97.9457 48.2866 0
97.9457 48.2866 0
98.0155 49.855 0
      </DataArray>
    </Points>
    <Cells>
      <DataArray type="Int32" Name="connectivity" format="ascii">
247 120 114 753 754 755 
213 114 214 748 749 750 
487 220 257 647 745 730 
257 115 260 741 742 743 
246 300 116 738 739 740 
212 116 247 731 732 733 
246 257 117 724 725 726 
299 117 312 719 720 721 
303 310 118 716 717 718 
248 118 256 711 712 713 
513 495 483 150 224 119 
507 513 483 151 119 184 
248 120 302 704 705 706 
221 258 121 1196 1197 1198 
259 121 313 1191 1192 1193 
464 430 432 332 409 122 
436 464 432 326 122 408 
346 1189 123 1186 1187 1188 
298 123 351 1181 1182 1183 
71 311 124 699 700 701 
65 124 372 692 693 694 
79 369 125 687 688 689 
684 125 309 680 681 682 
211 243 126 1178 1179 1180 
244 126 297 1173 1174 1175 
462 474 436 240 281 127 
438 462 436 294 127 327 
512 515 514 131 129 134 
513 509 511 130 132 135 
514 515 510 129 139 128 
508 514 510 148 128 147 
496 500 514 146 133 149 
513 499 495 136 145 150 
507 509 513 143 130 151 
505 491 497 141 142 154 
504 515 512 137 131 155 
174 503 511 1151 156 144 
512 514 500 134 133 159 
499 513 511 136 135 162 
494 515 504 138 137 165 
171 510 515 1164 139 166 
140 167 168 678 674 675 
167 492 168 672 661 674 
491 505 506 141 153 169 
177 498 497 656 164 170 
173 490 174 1156 1149 1171 
217 489 503 1126 176 175 
495 499 498 145 163 178 
501 500 496 158 146 179 
172 486 181 1162 1145 1169 
496 514 508 149 148 183 
480 481 140 227 152 187 
479 506 505 188 153 190 
477 505 497 191 154 193 
504 512 475 155 160 194 
472 511 503 161 156 197 
501 502 471 157 199 200 
500 501 470 158 201 202 
475 512 500 160 159 203 
499 511 472 162 161 204 
498 499 469 163 205 206 
497 498 468 164 207 208 
494 504 474 165 195 210 
211 493 171 1165 1161 1166 
167 180 212 667 668 669 
168 492 213 661 662 663 
214 488 177 657 653 658 
172 171 215 1158 1159 1160 
173 185 216 1153 1154 1155 
174 490 217 1149 1127 1150 
473 503 489 196 176 218 
177 488 219 653 643 654 
220 487 180 647 648 649 
182 181 221 1142 1143 1144 
496 508 115 183 222 747 
225 484 185 886 1138 1139 
482 502 481 198 186 226 
506 480 140 189 187 677 
480 506 479 189 188 228 
479 505 478 190 192 229 
478 505 477 192 191 230 
477 497 476 193 209 231 
474 504 475 195 194 232 
472 503 473 197 196 233 
471 502 482 199 198 234 
470 501 471 201 200 235 
475 500 470 203 202 236 
469 499 472 205 204 237 
468 498 469 207 206 238 
476 497 468 209 208 239 
494 474 461 210 241 242 
215 245 249 1133 1134 1135 
216 250 251 1128 1129 1130 
217 252 253 1123 1124 1125 
307 451 473 1047 255 254 
223 219 256 640 641 642 
583 263 223 1074 637 628 
582 261 264 1120 1121 1122 
445 482 481 265 226 268 
444 481 480 267 227 270 
443 480 479 269 228 272 
442 479 478 271 229 274 
441 478 477 273 230 276 
440 477 476 275 231 278 
474 475 436 232 280 281 
472 473 435 233 283 284 
471 482 446 234 266 286 
470 471 434 235 287 288 
464 475 470 279 236 289 
469 472 463 237 285 290 
468 469 433 238 291 292 
439 476 468 277 239 293 
461 474 462 241 240 295 
296 460 243 1071 1116 1117 
245 244 298 1107 1108 1109 
258 249 304 1100 1101 1102 
250 262 305 1095 1096 1097 
252 251 306 1088 1089 1090 
253 452 307 1084 1044 1085 
437 473 451 282 255 308 
633 314 591 871 832 1082 
262 261 316 1075 1076 1077 
318 629 578 854 810 809 
446 482 445 266 265 319 
445 481 444 268 267 320 
444 480 443 270 269 321 
443 479 442 272 271 322 
442 478 441 274 273 323 
441 477 440 276 275 324 
440 476 439 278 277 325 
436 475 464 280 279 326 
435 473 437 283 282 328 
463 472 435 285 284 329 
434 471 446 287 286 330 
464 470 434 289 288 331 
433 469 463 291 290 334 
439 468 433 293 292 335 
462 438 43 294 338 339 
461 462 45 295 340 341 
296 342 343 1068 1069 1070 
297 344 345 1063 1064 1065 
299 311 347 621 622 623 
301 300 348 616 617 618 
302 301 349 609 610 611 
309 303 350 602 603 604 
304 352 353 1058 1059 1060 
305 358 359 1053 1054 1055 
306 361 362 1048 1049 1050 
307 452 364 1044 934 1045 
437 451 109 308 367 368 
599 317 597 848 850 1042 
592 315 593 841 840 1040 
313 355 375 1035 1036 1037 
585 586 587 1032 1033 1034 
356 316 378 1027 1028 1029 
578 579 580 1024 1025 1026 
3 446 445 381 319 383 
7 445 444 384 320 386 
11 444 443 387 321 389 
15 443 442 390 322 392 
19 442 441 393 323 395 
23 441 440 396 324 398 
27 440 439 399 325 401 
432 438 436 336 327 408 
435 437 431 328 337 410 
429 463 435 333 329 411 
434 446 0 330 382 413 
430 464 434 332 331 414 
433 463 429 334 333 415 
1 439 433 402 335 416 
39 438 432 404 336 417 
431 437 940 337 407 418 
43 438 41 338 405 42 
45 462 43 340 339 44 
47 49 342 48 1019 1020 
344 343 51 1009 1010 1011 
346 345 1013 1000 1001 1002 
348 347 702 569 570 571 
350 349 75 560 561 562 
352 351 55 991 992 993 
354 353 979 984 985 986 
355 354 995 975 976 977 
357 356 89 968 969 970 
358 357 956 959 960 961 
360 359 972 952 953 954 
361 360 95 943 944 945 
363 362 99 936 937 938 
364 363 103 927 928 929 
107 451 105 366 365 106 
109 451 107 367 366 108 
931 437 109 406 368 110 
370 369 548 553 554 555 
371 370 690 544 545 546 
372 374 532 537 538 539 
374 373 696 528 529 530 
376 375 61 920 921 922 
924 523 524 915 916 917 
378 380 85 908 909 910 
516 911 518 903 904 905 
0 446 3 382 381 2 
3 445 5 383 385 4 
5 445 7 385 384 6 
7 444 9 386 388 8 
9 444 11 388 387 10 
11 443 13 389 391 12 
13 443 15 391 390 14 
15 442 17 392 394 16 
17 442 19 394 393 18 
19 441 21 395 397 20 
21 441 23 397 396 22 
23 440 25 398 400 24 
25 440 27 400 399 26 
27 439 29 401 403 28 
29 439 1 403 402 30 
41 438 39 405 404 40 
940 437 931 407 406 932 
432 430 31 409 423 419 
429 435 431 411 410 412 
93 429 431 426 412 422 
430 434 0 414 413 424 
1 433 429 416 415 428 
39 432 37 417 420 38 
947 431 940 421 418 941 
37 432 31 420 419 36 
93 431 947 422 421 948 
31 430 33 423 425 32 
33 430 0 425 424 34 
112 429 93 427 426 111 
1 429 112 428 427 113 
220 115 257 746 741 745 
518 899 519 896 897 898 
521 519 380 889 890 891 
630 264 225 882 883 884 
491 177 497 659 170 142 
481 502 140 186 676 152 
744 182 635 879 874 875 
120 247 467 753 735 707 
247 114 492 755 752 736 
114 120 488 754 710 751 
114 213 492 748 662 752 
213 214 491 750 660 665 
214 114 488 749 751 657 
115 220 496 746 652 747 
257 260 466 743 632 727 
182 485 635 878 870 874 
300 246 458 738 728 619 
246 116 487 740 737 729 
116 300 467 739 620 734 
116 212 487 731 670 737 
212 247 492 733 736 671 
247 116 467 732 734 735 
257 246 487 724 729 730 
246 117 458 726 723 728 
117 257 466 725 727 722 
117 299 458 719 625 723 
299 312 449 721 595 626 
312 117 466 720 722 596 
310 303 450 716 608 600 
303 118 457 718 715 605 
118 310 465 717 601 714 
118 248 457 711 708 715 
248 256 488 713 644 709 
256 118 465 712 714 645 
120 248 488 704 709 710 
248 302 457 706 613 708 
302 120 467 705 707 614 
311 71 573 699 72 624 
71 124 63 701 698 70 
124 311 449 700 627 695 
124 65 63 692 64 698 
65 372 67 694 542 66 
372 124 449 693 695 543 
369 79 81 687 80 556 
79 125 73 689 686 78 
125 369 450 688 559 683 
125 684 73 680 685 686 
684 309 564 682 606 565 
309 125 450 681 683 607 
167 140 502 678 676 679 
501 167 502 673 679 157 
140 168 506 675 666 677 
180 167 501 667 673 651 
167 212 492 669 671 672 
212 180 487 668 648 670 
506 168 213 666 663 664 
491 506 213 169 664 665 
491 214 177 660 658 659 
498 177 219 656 654 655 
495 498 219 178 655 646 
496 220 180 652 649 650 
501 496 180 179 650 651 
219 223 495 640 639 646 
223 256 465 642 645 636 
256 219 488 641 643 644 
495 223 263 639 637 638 
483 495 263 224 638 631 
633 635 634 867 868 869 
588 634 259 860 861 862 
629 318 630 854 855 856 
311 299 449 621 626 627 
299 347 458 623 577 625 
347 311 573 622 624 572 
300 301 467 616 615 620 
301 348 69 618 575 612 
348 300 458 617 619 576 
301 302 467 609 614 615 
302 349 457 611 568 613 
349 301 69 610 612 563 
303 309 450 602 607 608 
309 350 564 604 566 606 
350 303 457 603 605 567 
597 317 584 850 807 851 
599 550 581 845 846 847 
371 310 450 598 600 551 
590 315 592 835 841 842 
312 373 449 594 536 595 
593 589 531 836 837 838 
585 590 591 827 828 829 
587 523 589 818 819 820 
586 588 527 811 812 813 
578 583 584 802 803 804 
580 521 582 793 794 795 
579 581 516 784 785 786 
347 348 458 569 576 577 
348 702 69 571 703 575 
702 347 573 570 572 574 
349 350 457 560 567 568 
350 75 564 562 76 566 
75 349 69 561 563 74 
369 370 450 553 552 559 
370 548 557 555 549 547 
548 369 81 554 556 82 
370 371 450 544 551 552 
778 77 550 783 779 780 
690 370 557 545 547 558 
374 372 449 537 543 535 
372 532 67 539 68 542 
532 374 540 538 534 533 
373 374 449 528 535 536 
374 696 540 530 541 534 
531 59 773 772 777 774 
524 527 526 765 766 767 
762 526 376 756 757 758 
744 635 633 875 867 873 
260 744 633 877 873 872 
211 171 515 1166 166 1167 
494 211 515 1168 1167 138 
509 174 511 1152 144 132 
174 217 503 1150 175 1151 
629 583 578 1073 802 810 
465 583 223 805 628 636 
489 307 473 1086 254 218 
258 221 486 1196 1146 1105 
221 121 485 1198 1195 1147 
121 258 455 1197 1104 1194 
121 259 485 1191 864 1195 
259 313 448 1193 1038 865 
313 121 455 1192 1194 1039 
1189 346 1018 1186 1006 1023 
346 123 459 1188 1185 1007 
123 1189 35 1187 1190 1184 
123 298 459 1181 1111 1185 
298 351 456 1183 999 1112 
351 123 35 1182 1184 994 
243 211 494 1178 1168 1119 
211 126 493 1180 1177 1165 
126 243 460 1179 1116 1176 
126 244 493 1173 1115 1177 
244 297 459 1175 1066 1110 
297 126 460 1174 1176 1067 
173 174 509 1171 1152 1172 
507 173 509 1157 1172 143 
510 172 181 1163 1169 1170 
508 510 181 147 1170 1148 
171 172 510 1158 1163 1164 
172 215 486 1160 1136 1162 
215 171 493 1159 1161 1137 
185 173 507 1153 1157 1141 
173 216 490 1155 1131 1156 
216 185 484 1154 1138 1132 
181 182 508 1142 881 1148 
182 221 485 1144 1147 878 
221 181 486 1143 1145 1146 
225 185 507 1139 1141 1140 
483 225 507 887 1140 184 
245 215 493 1133 1137 1114 
215 249 486 1135 1106 1136 
249 245 456 1134 1113 1103 
250 216 484 1128 1132 1099 
216 251 490 1130 1094 1131 
251 250 453 1129 1098 1091 
252 217 490 1123 1127 1093 
217 253 489 1125 1087 1126 
253 252 452 1124 1092 1084 
261 582 447 1120 797 1078 
582 264 318 1122 888 798 
264 261 484 1121 1081 885 
461 296 243 1072 1117 1118 
494 461 243 242 1118 1119 
244 245 493 1107 1114 1115 
245 298 456 1109 1112 1113 
298 244 459 1108 1110 1111 
249 258 486 1100 1105 1106 
258 304 455 1102 1061 1104 
304 249 456 1101 1103 1062 
262 250 484 1095 1099 1080 
250 305 453 1097 1056 1098 
305 262 454 1096 1079 1057 
251 252 490 1088 1093 1094 
252 306 452 1090 1051 1092 
306 251 453 1089 1091 1052 
489 253 307 1087 1085 1086 
260 633 591 872 1082 1083 
466 260 591 632 1083 831 
261 262 484 1075 1080 1081 
262 316 454 1077 1031 1079 
316 261 447 1076 1078 1030 
583 629 263 1073 859 1074 
342 296 461 1068 1072 1022 
296 343 460 1070 1017 1071 
343 342 49 1069 1019 1012 
344 297 460 1063 1067 1016 
297 345 459 1065 1008 1066 
345 344 1004 1064 1015 1003 
352 304 456 1058 1062 998 
304 353 455 1060 990 1061 
353 352 57 1059 997 987 
358 305 454 1053 1057 966 
305 359 453 1055 958 1056 
359 358 963 1054 965 955 
361 306 453 1048 1052 950 
306 362 452 1050 942 1051 
362 361 97 1049 949 939 
451 307 364 1047 1045 1046 
105 451 364 365 1046 933 
371 599 597 849 1042 1043 
310 371 597 598 1043 852 
592 593 373 1040 839 1041 
312 592 373 844 1041 594 
355 313 455 1035 1039 982 
313 375 448 1037 926 1038 
375 355 53 1036 981 923 
586 585 314 1032 833 816 
585 587 315 1034 824 834 
587 586 377 1033 815 825 
316 356 454 1027 974 1031 
356 378 83 1029 913 971 
378 316 447 1028 1030 914 
579 578 317 1024 808 791 
578 580 318 1026 799 809 
580 579 379 1025 790 800 
45 47 342 46 1020 1021 
461 45 342 341 1021 1022 
343 344 460 1009 1016 1017 
344 51 1004 1011 52 1015 
51 343 49 1010 1012 50 
345 346 459 1000 1007 1008 
346 1013 1018 1002 1014 1006 
1013 345 1004 1001 1003 1005 
351 352 456 991 998 999 
352 55 57 993 56 997 
55 351 35 992 994 54 
353 354 455 984 983 990 
354 979 988 986 980 978 
979 353 57 985 987 58 
354 355 455 975 982 983 
355 995 53 977 996 981 
995 354 988 976 978 989 
356 357 454 968 967 974 
357 89 91 970 90 962 
89 356 83 969 971 88 
357 358 454 959 966 967 
358 956 963 961 957 965 
956 357 91 960 962 92 
359 360 453 952 951 958 
360 972 87 954 973 946 
972 359 963 953 955 964 
360 361 453 943 950 951 
361 95 97 945 96 949 
95 360 87 944 946 94 
362 363 452 936 935 942 
363 99 101 938 100 930 
99 362 97 937 939 98 
363 364 452 927 934 935 
364 103 105 929 104 933 
103 363 101 928 930 102 
375 376 448 920 760 926 
376 61 522 922 62 761 
61 375 53 921 923 60 
523 924 59 915 925 821 
924 524 918 917 769 919 
524 523 377 916 826 770 
380 378 447 908 914 894 
378 85 83 910 84 913 
85 380 517 909 893 86 
911 516 77 903 788 912 
516 518 379 905 900 789 
518 911 906 904 907 901 
899 518 906 896 901 902 
518 519 379 898 895 900 
519 899 517 897 520 892 
519 521 379 889 801 895 
521 380 447 891 894 796 
380 519 517 890 892 893 
264 630 318 882 855 888 
630 225 483 884 887 858 
225 264 484 883 885 886 
508 182 744 881 879 880 
115 508 744 222 880 876 
115 744 260 876 877 742 
633 634 314 869 866 871 
634 635 485 868 870 863 
634 588 314 860 817 866 
588 259 448 862 865 814 
259 634 485 861 863 864 
263 629 630 859 856 857 
483 263 630 631 857 858 
597 584 465 851 806 853 
310 597 465 852 853 601 
550 599 371 845 849 782 
599 581 317 847 792 848 
581 550 77 846 779 787 
466 590 592 830 842 843 
312 466 592 596 843 844 
589 593 315 836 840 823 
593 531 373 838 775 839 
531 589 59 837 822 772 
590 585 315 827 834 835 
585 591 314 829 832 833 
591 590 466 828 830 831 
523 587 377 818 825 826 
587 589 315 820 823 824 
589 523 59 819 821 822 
588 586 314 811 816 817 
586 527 377 813 771 815 
527 588 448 812 814 768 
578 584 317 804 807 808 
584 583 465 803 805 806 
521 580 379 793 800 801 
580 582 318 795 798 799 
582 521 447 794 796 797 
581 579 317 784 791 792 
579 516 379 786 789 790 
516 581 77 785 787 788 
690 778 550 691 780 781 
371 690 550 546 781 782 
531 773 696 774 697 776 
373 531 696 775 776 529 
527 524 377 765 770 771 
524 526 918 767 764 769 
526 527 448 766 768 759 
526 762 918 756 763 764 
762 376 522 758 761 525 
376 526 448 757 759 760 
1199 1200
1201 1202
1203 1204
1205 1206
1207 1208
1209 1210
1211 1212
1213 1214
1215 1216
1217 1218
1219 1220
1221 1222
1223 1224
1225 1226
1227 1228
1229 1230
1231 1232
1233 1234
1235 1236
1237 1238
1239 1240
1241 1242
1243 1244
1245 1246
1247 1248
1249 1250
1251 1252
1253 1254
1255 1256
1257 1258
1259 1260
1261 1262
1263 1264
1265 1266
1267 1268
1269 1270
1271 1272
1273 1274
1275 1276
1277 1278
1279 1280
1281 1282
1283 1284
1285 1286
1287 1288
1289 1290
1291 1292
1293 1294
1295 1296
1297 1298
1299 1300
1301 1302
1303 1304
1305 1306
1307 1308
1309 1310
1311 1312
1313 1314
1315 1316
1317 1318
1319 1320
1321 1322
1323 1324
1325 1326
1327 1328
1329 1330
1331 1332
1333 1334
1335 1336
1337 1338
1339 1340
1341 1342
1343 1344
1345 1346
1347 1348
1349 1350
1351 1352
1353 1354
1355 1356
1357 1358
1359 1360
1361 1362
1363 1364
1365 1366
1367 1368
1369 1370
1371 1372
1373 1374
1375 1376
1377 1378
1379 1380
1381 1382
1383 1384
1385 1386
1387 1388
1389 1390
1391 1392
1393 1394
1395 1396
1397 1398
1399 1400
1401 1402
1403 1404
1405 1406
1407 1408
1409 1410
1411 1412
1413 1414
1415 1416
1417 1418
1419 1420
1421 1422
1423 1424
1425 1426
1427 1428
1429 1430
1431 1432
1433 1434
1435 1436
1437 1438
1439 1440
1441 1442
1443 1444
1445 1446
1447 1448
1449 1450
1451 1452
1453 1454
1455 1456
1457 1458
1459 1460
1461 1462
1463 1464
1465 1466
1467 1468
1469 1470
1471 1472
1473 1474
1475 1476
1477 1478
1479 1480
1481 1482
1483 1484
1485 1486
1487 1488
1489 1490
1491 1492
1493 1494
1495 1496
1497 1498
1499 1500
1501 1502
1503 1504
1505 1506
1507 1508
1509 1510
1511 1512
1513 1514
1515 1516
1517 1518
1519 1520
1521 1522
1523 1524
1525 1526
1527 1528
1529 1530
1531 1532
1533 1534
1535 1536
1537 1538
1539 1540
1541 1542
1543 1544
1545 1546
1547 1548
1549 1550
1551 1552
1553 1554
1555 1556
1557 1558
1559 1560
1561 1562
1563 1564
1565 1566
1567 1568
1569 1570
1571 1572
1573 1574
1575 1576
1577 1578
1579 1580
1581 1582
1583 1584
1585 1586
1587 1588
1589 1590
1591 1592
1593 1594
1595 1596
1597 1598
1599 1600
1601 1602
1603 1604
1605 1606
1607 1608
1609 1610
1611 1612
1613 1614
1615 1616
1617 1618
1619 1620
1621 1622
1623 1624
1625 1626
1627 1628
1629 1630
1631 1632
1633 1634
1635 1636
1637 1638
1639 1640
1641 1642
1643 1644
1645 1646
1647 1648
1649 1650
1651 1652
1653 1654
1655 1656
1657 1658
1659 1660
1661 1662
1663 1664
1665 1666
1667 1668
1669 1670
1671 1672
1673 1674
1675 1676
1677 1678
1679 1680
1681 1682
1683 1684
1685 1686
1687 1688
1689 1690
1691 1692
1693 1694
1695 1696
1697 1698
1699 1700
1701 1702
1703 1704
1705 1706
1707 1708
1709 1710
1711 1712
1713 1714
1715 1716
1717 1718
1719 1720
1721 1722
1723 1724
1725 1726
1727 1728
1729 1730
1731 1732
1733 1734
1735 1736
1737 1738
1739 1740
1741 1742
1743 1744
1745 1746
1747 1748
1749 1750
1751 1752
1753 1754
1755 1756
1757 1758
1759 1760
1761 1762
1763 1764
1765 1766
1767 1768
1769 1770
1771 1772
1773 1774
1775 1776
1777 1778
1779 1780
1781 1782
1783 1784
1785 1786
1787 1788
1789 1790
1791 1792
1793 1794
1795 1796
1797 1798
1799 1800
1801 1802
1803 1804
1805 1806
1807 1808
1809 1810
1811 1812
1813 1814
1815 1816
1817 1818
1819 1820
1821 1822
1823 1824
1825 1826
1827 1828
1829 1830
1831 1832
1833 1834
1835 1836
1837 1838
1839 1840
1841 1842
1843 1844
1845 1846
1847 1848
1849 1850
1851 1852
1853 1854
1855 1856
1857 1858
1859 1860
1861 1862
1863 1864
1865 1866
1867 1868
1869 1870
1871 1872
1873 1874
1875 1876
1877 1878
1879 1880
1881 1882
1883 1884
1885 1886
1887 1888
1889 1890
1891 1892
1893 1894
1895 1896
1897 1898
1899 1900
1901 1902
1903 1904
1905 1906
1907 1908
1909 1910
1911 1912
1913 1914
1915 1916
1917 1918
1919 1920
1921 1922
1923 1924
1925 1926
1927 1928
1929 1930
1931 1932
1933 1934
1935 1936
1937 1938
1939 1940
1941 1942
1943 1944
1945 1946
1947 1948
1949 1950
1951 1952
1953 1954
1955 1956
1957 1958
1959 1960
1961 1962
1963 1964
1965 1966
1967 1968
1969 1970
1971 1972
1973 1974
1975 1976
1977 1978
1979 1980
1981 1982
1983 1984
1985 1986
1987 1988
1989 1990
1991 1992
1993 1994
1995 1996
1997 1998
1999 2000
2001 2002
2003 2004
2005 2006
2007 2008
2009 2010
2011 2012
2013 2014
2015 2016
2017 2018
2019 2020
2021 2022
2023 2024
2025 2026
2027 2028
2029 2030
2031 2032
2033 2034
2035 2036
2037 2038
2039 2040
2041 2042
2043 2044
2045 2046
2047 2048
2049 2050
2051 2052
2053 2054
2055 2056
2057 2058
2059 2060
2061 2062
2063 2064
2065 2066
2067 2068
2069 2070
2071 2072
2073 2074
2075 2076
2077 2078
2079 2080
2081 2082
2083 2084
2085 2086
2087 2088
2089 2090
2091 2092
2093 2094
2095 2096
2097 2098
2099 2100
2101 2102
2103 2104
2105 2106
2107 2108
2109 2110
2111 2112
2113 2114
2115 2116
2117 2118
2119 2120
2121 2122
2123 2124
2125 2126
2127 2128
2129 2130
2131 2132
2133 2134
2135 2136
2137 2138
2139 2140
2141 2142
2143 2144
2145 2146
2147 2148
2149 2150
2151 2152
2153 2154
2155 2156
2157 2158
2159 2160
2161 2162
2163 2164
2165 2166
2167 2168
2169 2170
2171 2172
2173 2174
2175 2176
2177 2178
2179 2180
2181 2182
2183 2184
2185 2186
2187 2188
2189 2190
2191 2192
2193 2194
2195 2196
2197 2198
2199 2200
2201 2202
2203 2204
2205 2206
2207 2208
2209 2210
2211 2212
2213 2214
2215 2216
2217 2218
2219 2220
2221 2222
2223 2224
2225 2226
2227 2228
2229 2230
2231 2232
2233 2234
2235 2236
2237 2238
2239 2240
2241 2242
2243 2244
2245 2246
2247 2248
2249 2250
2251 2252
2253 2254
2255 2256
2257 2258
2259 2260
2261 2262
2263 2264
2265 2266
2267 2268
2269 2270
2271 2272
2273 2274
2275 2276
2277 2278
2279 2280
2281 2282
2283 2284
2285 2286
2287 2288
2289 2290
2291 2292
2293 2294
2295 2296
2297 2298
2299 2300
2301 2302
2303 2304
2305 2306
2307 2308
2309 2310
2311 2312
2313 2314
2315 2316
2317 2318
2319 2320
2321 2322
2323 2324
2325 2326
2327 2328
2329 2330
2331 2332
2333 2334
2335 2336
2337 2338
2339 2340
2341 2342
2343 2344
2345 2346
2347 2348
2349 2350
2351 2352
2353 2354
2355 2356
2357 2358
2359 2360
2361 2362
2363 2364
2365 2366
2367 2368
2369 2370
2371 2372
2373 2374
2375 2376
2377 2378
2379 2380
2381 2382
2383 2384
2385 2386
2387 2388
2389 2390
2391 2392
2393 2394
2395 2396
2397 2398
2399 2400
2401 2402
2403 2404
2405 2406
2407 2408
2409 2410
2411 2412
2413 2414
2415 2416
2417 2418
2419 2420
2421 2422
2423 2424
2425 2426
2427 2428
2429 2430
2431 2432
2433 2434
2435 2436
2437 2438
2439 2440
2441 2442
2443 2444
2445 2446
2447 2448
2449 2450
2451 2452
2453 2454
2455 2456
2457 2458
2459 2460
2461 2462
2463 2464
2465 2466
2467 2468
2469 2470
2471 2472
2473 2474
2475 2476
2477 2478
2479 2480
2481 2482
2483 2484
2485 2486
2487 2488
2489 2490
2491 2492
2493 2494
2495 2496
2497 2498
2499 2500
2501 2502
2503 2504
2505 2506
2507 2508
2509 2510
2511 2512
2513 2514
2515 2516
2517 2518
2519 2520
2521 2522
2523 2524
2525 2526
2527 2528
2529 2530
2531 2532
2533 2534
2535 2536
2537 2538
2539 2540
2541 2542
2543 2544
2545 2546
2547 2548
2549 2550
2551 2552
2553 2554
2555 2556
2557 2558
2559 2560
2561 2562
2563 2564
2565 2566
2567 2568
2569 2570
2571 2572
2573 2574
2575 2576
2577 2578
2579 2580
2581 2582
2583 2584
2585 2586
2587 2588
2589 2590
2591 2592
2593 2594
2595 2596
2597 2598
2599 2600
2601 2602
2603 2604
2605 2606
2607 2608
2609 2610
2611 2612
2613 2614
2615 2616
2617 2618
2619 2620
2621 2622
2623 2624
2625 2626
2627 2628
2629 2630
2631 2632
2633 2634
2635 2636
2637 2638
2639 2640
2641 2642
2643 2644
2645 2646
2647 2648
2649 2650
2651 2652
2653 2654
2655 2656
2657 2658
2659 2660
2661 2662
2663 2664
2665 2666
2667 2668
2669 2670
2671 2672
2673 2674
2675 2676
2677 2678
2679 2680
2681 2682
2683 2684
2685 2686
2687 2688
2689 2690
2691 2692
2693 2694
2695 2696
2697 2698
2699 2700
2701 2702
2703 2704
2705 2706
2707 2708
2709 2710
2711 2712
2713 2714
2715 2716
2717 2718
2719 2720
2721 2722
2723 2724
2725 2726
2727 2728
2729 2730
2731 2732
2733 2734
2735 2736
2737 2738
2739 2740
2741 2742
2743 2744
2745 2746
2747 2748
2749 2750
2751 2752
2753 2754
2755 2756
2757 2758
2759 2760
2761 2762
2763 2764
2765 2766
2767 2768
2769 2770
2771 2772
2773 2774
2775 2776
2777 2778
2779 2780
2781 2782
2783 2784
2785 2786
2787 2788
2789 2790
2791 2792
2793 2794
2795 2796
2797 2798
2799 2800
2801 2802
2803 2804
2805 2806
2807 2808
2809 2810
2811 2812
2813 2814
2815 2816
2817 2818
2819 2820
2821 2822
2823 2824
2825 2826
2827 2828
2829 2830
2831 2832
2833 2834
2835 2836
2837 2838
2839 2840
2841 2842
2843 2844
2845 2846
2847 2848
2849 2850
2851 2852
2853 2854
2855 2856
2857 2858
2859 2860
2861 2862
2863 2864
2865 2866
2867 2868
2869 2870
2871 2872
2873 2874
2875 2876
2877 2878
2879 2880
2881 2882
2883 2884
2885 2886
2887 2888
2889 2890
2891 2892
2893 2894
2895 2896
2897 2898
2899 2900
2901 2902
2903 2904
2905 2906
2907 2908
2909 2910
2911 2912
2913 2914
2915 2916
2917 2918
2919 2920
2921 2922
2923 2924
2925 2926
2927 2928
2929 2930
2931 2932
2933 2934
2935 2936
2937 2938
2939 2940
2941 2942
2943 2944
2945 2946
2947 2948
2949 2950
2951 2952
2953 2954
2955 2956
2957 2958
2959 2960
2961 2962
2963 2964
2965 2966
2967 2968
2969 2970
2971 2972
2973 2974
2975 2976
2977 2978
2979 2980
2981 2982
2983 2984
2985 2986
2987 2988
2989 2990
2991 2992
2993 2994
2995 2996
2997 2998
2999 3000
3001 3002
3003 3004
3005 3006
3007 3008
3009 3010
3011 3012
3013 3014
3015 3016
3017 3018
3019 3020
3021 3022
3023 3024
3025 3026
3027 3028
3029 3030
3031 3032
3033 3034
3035 3036
3037 3038
3039 3040
3041 3042
3043 3044
3045 3046
3047 3048
3049 3050
3051 3052
3053 3054
3055 3056
3057 3058
3059 3060
3061 3062
3063 3064
3065 3066
3067 3068
3069 3070
3071 3072
3073 3074
3075 3076
3077 3078
3079 3080
3081 3082
3083 3084
3085 3086
3087 3088
3089 3090
3091 3092
3093 3094
3095 3096
3097 3098
3099 3100
3101 3102
3103 3104
3105 3106
3107 3108
3109 3110
3111 3112
3113 3114
3115 3116
3117 3118
3119 3120
3121 3122
3123 3124
3125 3126
3127 3128
3129 3130
3131 3132
3133 3134
3135 3136
3137 3138
3139 3140
3141 3142
3143 3144
3145 3146
3147 3148
3149 3150
3151 3152
3153 3154
3155 3156
3157 3158
3159 3160
3161 3162
3163 3164
3165 3166
3167 3168
3169 3170
3171 3172
3173 3174
3175 3176
3177 3178
3179 3180
3181 3182
3183 3184
3185 3186
3187 3188
3189 3190
3191 3192
3193 3194
3195 3196
3197 3198
3199 3200
3201 3202
3203 3204
3205 3206
3207 3208
3209 3210
3211 3212
3213 3214
3215 3216
3217 3218
3219 3220
3221 3222
3223 3224
3225 3226
3227 3228
3229 3230
3231 3232
3233 3234
3235 3236
3237 3238
3239 3240
3241 3242
3243 3244
3245 3246
3247 3248
3249 3250
3251 3252
3253 3254
3255 3256
3257 3258
3259 3260
3261 3262
3263 3264
3265 3266
3267 3268
3269 3270
3271 3272
3273 3274
3275 3276
3277 3278
3279 3280
3281 3282
3283 3284
3285 3286
3287 3288
3289 3290
3291 3292
3293 3294
3295 3296
3297 3298
3299 3300
3301 3302
3303 3304
3305 3306
3307 3308
3309 3310
3311 3312
3313 3314
3315 3316
3317 3318
3319 3320
3321 3322
3323 3324
3325 3326
3327 3328
3329 3330
3331 3332
3333 3334
3335 3336
3337 3338
3339 3340
3341 3342
3343 3344
3345 3346
3347 3348
3349 3350
3351 3352
3353 3354
3355 3356
3357 3358
3359 3360
3361 3362
3363 3364
3365 3366
3367 3368
3369 3370
3371 3372
3373 3374
3375 3376
3377 3378
3379 3380
3381 3382
3383 3384
3385 3386
3387 3388
3389 3390
3391 3392
3393 3394
3395 3396
3397 3398
3399 3400
3401 3402
3403 3404
3405 3406
3407 3408
3409 3410
3411 3412
3413 3414
3415 3416
3417 3418
3419 3420
3421 3422
3423 3424
3425 3426
3427 3428
3429 3430
3431 3432
3433 3434
3435 3436
3437 3438
3439 3440
3441 3442
3443 3444
3445 3446
3447 3448
3449 3450
3451 3452
3453 3454
3455 3456
3457 3458
3459 3460
3461 3462
3463 3464
3465 3466
3467 3468
3469 3470
3471 3472
3473 3474
3475 3476
3477 3478
3479 3480
3481 3482
3483 3484
3485 3486
      </DataArray>
      <DataArray type="Int32" Name="offsets" format="ascii">
6
12
18
24
30
36
42
48
54
60
66
72
78
84
90
96
102
108
114
120
126
132
138
144
150
156
162
168
174
180
186
192
198
204
210
216
222
228
234
240
246
252
258
264
270
276
282
288
294
300
306
312
318
324
330
336
342
348
354
360
366
372
378
384
390
396
402
408
414
420
426
432
438
444
450
456
462
468
474
480
486
492
498
504
510
516
522
528
534
540
546
552
558
564
570
576
582
588
594
600
606
612
618
624
630
636
642
648
654
660
666
672
678
684
690
696
702
708
714
720
726
732
738
744
750
756
762
768
774
780
786
792
798
804
810
816
822
828
834
840
846
852
858
864
870
876
882
888
894
900
906
912
918
924
930
936
942
948
954
960
966
972
978
984
990
996
1002
1008
1014
1020
1026
1032
1038
1044
1050
1056
1062
1068
1074
1080
1086
1092
1098
1104
1110
1116
1122
1128
1134
1140
1146
1152
1158
1164
1170
1176
1182
1188
1194
1200
1206
1212
1218
1224
1230
1236
1242
1248
1254
1260
1266
1272
1278
1284
1290
1296
1302
1308
1314
1320
1326
1332
1338
1344
1350
1356
1362
1368
1374
1380
1386
1392
1398
1404
1410
1416
1422
1428
1434
1440
1446
1452
1458
1464
1470
1476
1482
1488
1494
1500
1506
1512
1518
1524
1530
1536
1542
1548
1554
1560
1566
1572
1578
1584
1590
1596
1602
1608
1614
1620
1626
1632
1638
1644
1650
1656
1662
1668
1674
1680
1686
1692
1698
1704
1710
1716
1722
1728
1734
1740
1746
1752
1758
1764
1770
1776
1782
1788
1794
1800
1806
1812
1818
1824
1830
1836
1842
1848
1854
1860
1866
1872
1878
1884
1890
1896
1902
1908
1914
1920
1926
1932
1938
1944
1950
1956
1962
1968
1974
1980
1986
1992
1998
2004
2010
2016
2022
2028
2034
2040
2046
2052
2058
2064
2070
2076
2082
2088
2094
2100
2106
2112
2118
2124
2130
2136
2142
2148
2154
2160
2166
2172
2178
2184
2190
2196
2202
2208
2214
2220
2226
2232
2238
2244
2250
2256
2262
2268
2274
2280
2286
2292
2298
2304
2310
2316
2322
2328
2334
2340
2346
2352
2358
2364
2370
2376
2382
2388
2394
2400
2406
2412
2418
2424
2430
2436
2442
2448
2454
2460
2466
2472
2478
2484
2490
2496
2502
2508
2514
2520
2526
2532
2538
2544
2550
2556
2562
2568
2574
2580
2586
2592
2598
2604
2610
2616
2622
2628
2634
2640
2646
2652
2658
2664
2670
2676
2682
2688
2694
2700
2706
2712
2718
2724
2730
2736
2742
2748
2754
2760
2766
2772
2778
2784
2790
2796
2802
2808
2814
2820
2826
2832
2838
2844
2850
2856
2862
2868
2874
2880
2886
2892
2898
2904
2910
2916
2922
2928
2934
2940
2946
2952
2958
2964
2970
2976
2982
2988
2994
3000
3006
3012
3018
3024
3030
3036
3042
3048
3054
3060
3066
3072
3078
3084
3090
3096
3102
3108
3114
3120
3126
3132
3138
3144
3150
3156
3162
3168
3174
3180
3186
3192
3198
3204
3210
3216
3222
3228
3234
3240
3246
3252
3258
3264
3270
3276
3282
3288
3294
3300
3306
3312
3318
3324
3326
3328
3330
3332
3334
3336
3338
3340
3342
3344
3346
3348
3350
3352
3354
3356
3358
3360
3362
3364
3366
3368
3370
3372
3374
3376
3378
3380
3382
3384
3386
3388
3390
3392
3394
3396
3398
3400
3402
3404
3406
3408
3410
3412
3414
3416
3418
3420
3422
3424
3426
3428
3430
3432
3434
3436
3438
3440
3442
3444
3446
3448
3450
3452
3454
3456
3458
3460
3462
3464
3466
3468
3470
3472
3474
3476
3478
3480
3482
3484
3486
3488
3490
3492
3494
3496
3498
3500
3502
3504
3506
3508
3510
3512
3514
3516
3518
3520
3522
3524
3526
3528
3530
3532
3534
3536
3538
3540
3542
3544
3546
3548
3550
3552
3554
3556
3558
3560
3562
3564
3566
3568
3570
3572
3574
3576
3578
3580
3582
3584
3586
3588
3590
3592
3594
3596
3598
3600
3602
3604
3606
3608
3610
3612
3614
3616
3618
3620
3622
3624
3626
3628
3630
3632
3634
3636
3638
3640
3642
3644
3646
3648
3650
3652
3654
3656
3658
3660
3662
3664
3666
3668
3670
3672
3674
3676
3678
3680
3682
3684
3686
3688
3690
3692
3694
3696
3698
3700
3702
3704
3706
3708
3710
3712
3714
3716
3718
3720
3722
3724
3726
3728
3730
3732
3734
3736
3738
3740
3742
3744
3746
3748
3750
3752
3754
3756
3758
3760
3762
3764
3766
3768
3770
3772
3774
3776
3778
3780
3782
3784
3786
3788
3790
3792
3794
3796
3798
3800
3802
3804
3806
3808
3810
3812
3814
3816
3818
3820
3822
3824
3826
3828
3830
3832
3834
3836
3838
3840
3842
3844
3846
3848
3850
3852
3854
3856
3858
3860
3862
3864
3866
3868
3870
3872
3874
3876
3878
3880
3882
3884
3886
3888
3890
3892
3894
3896
3898
3900
3902
3904
3906
3908
3910
3912
3914
3916
3918
3920
3922
3924
3926
3928
3930
3932
3934
3936
3938
3940
3942
3944
3946
3948
3950
3952
3954
3956
3958
3960
3962
3964
3966
3968
3970
3972
3974
3976
3978
3980
3982
3984
3986
3988
3990
3992
3994
3996
3998
4000
4002
4004
4006
4008
4010
4012
4014
4016
4018
4020
4022
4024
4026
4028
4030
4032
4034
4036
4038
4040
4042
4044
4046
4048
4050
4052
4054
4056
4058
4060
4062
4064
4066
4068
4070
4072
4074
4076
4078
4080
4082
4084
4086
4088
4090
4092
4094
4096
4098
4100
4102
4104
4106
4108
4110
4112
4114
4116
4118
4120
4122
4124
4126
4128
4130
4132
4134
4136
4138
4140
4142
4144
4146
4148
4150
4152
4154
4156
4158
4160
4162
4164
4166
4168
4170
4172
4174
4176
4178
4180
4182
4184
4186
4188
4190
4192
4194
4196
4198
4200
4202
4204
4206
4208
4210
4212
4214
4216
4218
4220
4222
4224
4226
4228
4230
4232
4234
4236
4238
4240
4242
4244
4246
4248
4250
4252
4254
4256
4258
4260
4262
4264
4266
4268
4270
4272
4274
4276
4278
4280
4282
4284
4286
4288
4290
4292
4294
4296
4298
4300
4302
4304
4306
4308
4310
4312
4314
4316
4318
4320
4322
4324
4326
4328
4330
4332
4334
4336
4338
4340
4342
4344
4346
4348
4350
4352
4354
4356
4358
4360
4362
4364
4366
4368
4370
4372
4374
4376
4378
4380
4382
4384
4386
4388
4390
4392
4394
4396
4398
4400
4402
4404
4406
4408
4410
4412
4414
4416
4418
4420
4422
4424
4426
4428
4430
4432
4434
4436
4438
4440
4442
4444
4446
4448
4450
4452
4454
4456
4458
4460
4462
4464
4466
4468
4470
4472
4474
4476
4478
4480
4482
4484
4486
4488
4490
4492
4494
4496
4498
4500
4502
4504
4506
4508
4510
4512
4514
4516
4518
4520
4522
4524
4526
4528
4530
4532
4534
4536
4538
4540
4542
4544
4546
4548
4550
4552
4554
4556
4558
4560
4562
4564
4566
4568
4570
4572
4574
4576
4578
4580
4582
4584
4586
4588
4590
4592
4594
4596
4598
4600
4602
4604
4606
4608
4610
4612
4614
4616
4618
4620
4622
4624
4626
4628
4630
4632
4634
4636
4638
4640
4642
4644
4646
4648
4650
4652
4654
4656
4658
4660
4662
4664
4666
4668
4670
4672
4674
4676
4678
4680
4682
4684
4686
4688
4690
4692
4694
4696
4698
4700
4702
4704
4706
4708
4710
4712
4714
4716
4718
4720
4722
4724
4726
4728
4730
4732
4734
4736
4738
4740
4742
4744
4746
4748
4750
4752
4754
4756
4758
4760
4762
4764
4766
4768
4770
4772
4774
4776
4778
4780
4782
4784
4786
4788
4790
4792
4794
4796
4798
4800
4802
4804
4806
4808
4810
4812
4814
4816
4818
4820
4822
4824
4826
4828
4830
4832
4834
4836
4838
4840
4842
4844
4846
4848
4850
4852
4854
4856
4858
4860
4862
4864
4866
4868
4870
4872
4874
4876
4878
4880
4882
4884
4886
4888
4890
4892
4894
4896
4898
4900
4902
4904
4906
4908
4910
4912
4914
4916
4918
4920
4922
4924
4926
4928
4930
4932
4934
4936
4938
4940
4942
4944
4946
4948
4950
4952
4954
4956
4958
4960
4962
4964
4966
4968
4970
4972
4974
4976
4978
4980
4982
4984
4986
4988
4990
4992
4994
4996
4998
5000
5002
5004
5006
5008
5010
5012
5014
5016
5018
5020
5022
5024
5026
5028
5030
5032
5034
5036
5038
5040
5042
5044
5046
5048
5050
5052
5054
5056
5058
5060
5062
5064
5066
5068
5070
5072
5074
5076
5078
5080
5082
5084
5086
5088
5090
5092
5094
5096
5098
5100
5102
5104
5106
5108
5110
5112
5114
5116
5118
5120
5122
5124
5126
5128
5130
5132
5134
5136
5138
5140
5142
5144
5146
5148
5150
5152
5154
5156
5158
5160
5162
5164
5166
5168
5170
5172
5174
5176
5178
5180
5182
5184
5186
5188
5190
5192
5194
5196
5198
5200
5202
5204
5206
5208
5210
5212
5214
5216
5218
5220
5222
5224
5226
5228
5230
5232
5234
5236
5238
5240
5242
5244
5246
5248
5250
5252
5254
5256
5258
5260
5262
5264
5266
5268
5270
5272
5274
5276
5278
5280
5282
5284
5286
5288
5290
5292
5294
5296
5298
5300
5302
5304
5306
5308
5310
5312
5314
5316
5318
5320
5322
5324
5326
5328
5330
5332
5334
5336
5338
5340
5342
5344
5346
5348
5350
5352
5354
5356
5358
5360
5362
5364
5366
5368
5370
5372
5374
5376
5378
5380
5382
5384
5386
5388
5390
5392
5394
5396
5398
5400
5402
5404
5406
5408
5410
5412
5414
5416
5418
5420
5422
5424
5426
5428
5430
5432
5434
5436
5438
5440
5442
5444
5446
5448
5450
5452
5454
5456
5458
5460
5462
5464
5466
5468
5470
5472
5474
5476
5478
5480
5482
5484
5486
5488
5490
5492
5494
5496
5498
5500
5502
5504
5506
5508
5510
5512
5514
5516
5518
5520
5522
5524
5526
5528
5530
5532
5534
5536
5538
5540
5542
5544
5546
5548
5550
5552
5554
5556
5558
5560
5562
5564
5566
5568
5570
5572
5574
5576
5578
5580
5582
5584
5586
5588
5590
5592
5594
5596
5598
5600
5602
5604
5606
5608
5610
5612
      </DataArray>
      <DataArray type="UInt8" Name="types" format="ascii">
69
69
69
69
69
69
69
69
69
69
69
69
69
69
69
69
69
69
69
69
69
69
69
69
69
69
69
69
69
69
69
69
69
69
69
69
69
69
69
69
69
69
69
69
69
69
69
69
69
69
69
69
69
69
69
69
69
69
69
69
69
69
69
69
69
69
69
69
69
69
69
69
69
69
69
69
69
69
69
69
69
69
69
69
69
69
69
69
69
69
69
69
69
69
69
69
69
69
69
69
69
69
69
69
69
69
69
69
69
69
69
69
69
69
69
69
69
69
69
69
69
69
69
69
69
69
69
69
69
69
69
69
69
69
69
69
69
69
69
69
69
69
69
69
69
69
69
69
69
69
69
69
69
69
69
69
69
69
69
69
69
69
69
69
69
69
69
69
69
69
69
69
69
69
69
69
69
69
69
69
69
69
69
69
69
69
69
69
69
69
69
69
69
69
69
69
69
69
69
69
69
69
69
69
69
69
69
69
69
69
69
69
69
69
69
69
69
69
69
69
69
69
69
69
69
69
69
69
69
69
69
69
69
69
69
69
69
69
69
69
69
69
69
69
69
69
69
69
69
69
69
69
69
69
69
69
69
69
69
69
69
69
69
69
69
69
69
69
69
69
69
69
69
69
69
69
69
69
69
69
69
69
69
69
69
69
69
69
69
69
69
69
69
69
69
69
69
69
69
69
69
69
69
69
69
69
69
69
69
69
69
69
69
69
69
69
69
69
69
69
69
69
69
69
69
69
69
69
69
69
69
69
69
69
69
69
69
69
69
69
69
69
69
69
69
69
69
69
69
69
69
69
69
69
69
69
69
69
69
69
69
69
69
69
69
69
69
69
69
69
69
69
69
69
69
69
69
69
69
69
69
69
69
69
69
69
69
69
69
69
69
69
69
69
69
69
69
69
69
69
69
69
69
69
69
69
69
69
69
69
69
69
69
69
69
69
69
69
69
69
69
69
69
69
69
69
69
69
69
69
69
69
69
69
69
69
69
69
69
69
69
69
69
69
69
69
69
69
69
69
69
69
69
69
69
69
69
69
69
69
69
69
69
69
69
69
69
69
69
69
69
69
69
69
69
69
69
69
69
69
69
69
69
69
69
69
69
69
69
69
69
69
69
69
69
69
69
69
69
69
69
69
69
69
69
69
69
69
69
69
69
69
69
69
69
69
69
69
69
69
69
69
69
69
69
69
69
69
69
69
69
69
69
69
69
69
69
69
69
69
69
69
69
69
69
69
69
69
69
69
69
69
69
69
3
3
3
3
3
3
3
3
3
3
3
3
3
3
3
3
3
3
3
3
3
3
3
3
3
3
3
3
3
3
3
3
3
3
3
3
3
3
3
3
3
3
3
3
3
3
3
3
3
3
3
3
3
3
3
3
3
3
3
3
3
3
3
3
3
3
3
3
3
3
3
3
3
3
3
3
3
3
3
3
3
3
3
3
3
3
3
3
3
3
3
3
3
3
3
3
3
3
3
3
3
3
3
3
3
3
3
3
3
3
3
3
3
3
3
3
3
3
3
3
3
3
3
3
3
3
3
3
3
3
3
3
3
3
3
3
3
3
3
3
3
3
3
3
3
3
3
3
3
3
3
3
3
3
3
3
3
3
3
3
3
3
3
3
3
3
3
3
3
3
3
3
3
3
3
3
3
3
3
3
3
3
3
3
3
3
3
3
3
3
3
3
3
3
3
3
3
3
3
3
3
3
3
3
3
3
3
3
3
3
3
3
3
3
3
3
3
3
3
3
3
3
3
3
3
3
3
3
3
3
3
3
3
3
3
3
3
3
3
3
3
3
3
3
3
3
3
3
3
3
3
3
3
3
3
3
3
3
3
3
3
3
3
3
3
3
3
3
3
3
3
3
3
3
3
3
3
3
3
3
3
3
3
3
3
3
3
3
3
3
3
3
3
3
3
3
3
3
3
3
3
3
3
3
3
3
3
3
3
3
3
3
3
3
3
3
3
3
3
3
3
3
3
3
3
3
3
3
3
3
3
3
3
3
3
3
3
3
3
3
3
3
3
3
3
3
3
3
3
3
3
3
3
3
3
3
3
3
3
3
3
3
3
3
3
3
3
3
3
3
3
3
3
3
3
3
3
3
3
3
3
3
3
3
3
3
3
3
3
3
3
3
3
3
3
3
3
3
3
3
3
3
3
3
3
3
3
3
3
3
3
3
3
3
3
3
3
3
3
3
3
3
3
3
3
3
3
3
3
3
3
3
3
3
3
3
3
3
3
3
3
3
3
3
3
3
3
3
3
3
3
3
3
3
3
3
3
3
3
3
3
3
3
3
3
3
3
3
3
3
3
3
3
3
3
3
3
3
3
3
3
3
3
3
3
3
3
3
3
3
3
3
3
3
3
3
3
3
3
3
3
3
3
3
3
3
3
3
3
3
3
3
3
3
3
3
3
3
3
3
3
3
3
3
3
3
3
3
3
3
3
3
3
3
3
3
3
3
3
3
3
3
3
3
3
3
3
3
3
3
3
3
3
3
3
3
3
3
3
3
3
3
3
3
3
3
3
3
3
3
3
3
3
3
3
3
3
3
3
3
3
3
3
3
3
3
3
3
3
3
3
3
3
3
3
3
3
3
3
3
3
3
3
3
3
3
3
3
3
3
3
3
3
3
3
3
3
3
3
3
3
3
3
3
3
3
3
3
3
3
3
3
3
3
3
3
3
3
3
3
3
3
3
3
3
3
3
3
3
3
3
3
3
3
3
3
3
3
3
3
3
3
3
3
3
3
3
3
3
3
3
3
3
3
3
3
3
3
3
3
3
3
3
3
3
3
3
3
3
3
3
3
3
3
3
3
3
3
3
3
3
3
3
3
3
3
3
3
3
3
3
3
3
3
3
3
3
3
3
3
3
3
3
3
3
3
3
3
3
3
3
3
3
3
3
3
3
3
3
3
3
3
3
3
3
3
3
3
3
3
3
3
3
3
3
3
3
3
3
3
3
3
3
3
3
3
3
3
3
3
3
3
3
3
3
3
3
3
3
3
3
3
3
3
3
3
3
3
3
3
3
3
3
3
3
3
3
3
3
3
3
3
3
3
3
3
3
3
3
3
3
3
3
3
3
3
3
3
3
3
3
3
3
3
3
3
3
3
3
3
3
3
3
3
3
3
3
3
3
3
3
3
3
3
3
3
3
3
3
3
3
3
3
3
3
3
3
3
3
3
3
3
3
3
3
3
3
3
3
3
3
3
3
3
3
3
3
3
3
3
3
3
3
3
3
3
3
3
3
3
3
3
3
3
3
3
3
3
3
3
3
3
3
3
3
3
3
3
3
3
3
3
3
3
3
3
3
3
3
3
3
3
3
3
3
3
3
3
3
3
3
3
3
3
3
3
3
3
3
3
3
3
3
3
3
3
3
3
3
3
3
3
3
3
3
3
3
3
3
3
3
3
3
3
3
3
3
3
3
3
3
3
3
3
3
3
3
3
3
3
3
3
3
3
3
3
3
3
3
3
3
3
3
3
3
3
3
3
3
3
3
3
3
3
3
3
3
3
3
3
3
3
3
3
3
3
3
3
3
3
3
3
3
3
3
3
3
3
3
3
3
3
3
3
3
3
3
3
3
3
3
3
3
3
3
3
3
3
3
3
3
3
3
3
3
3
3
3
3
3
3
3
3
3
3
3
3
3
3
3
3
3
3
3
3
3
3
3
3
3
3
3
3
3
3
3
3
3
3
3
3
3
3
3
3
3
3
3
3
3
3
3
3
3
3
3
3
3
3
3
3
3
3
3
3
3
3
3
3
3
3
3
3
3
3
3
3
3
3
3
3
3
3
3
3
3
3
3
3
3
3
3
3
3
      </DataArray>
    </Cells>
    <PointData>
      <DataArray type="Float64" NumberOfComponents="2" Name="Displacement" format="ascii">
-0.000278115 -0.105251
0.000434434 -0.105512
-4.75119e-05 -0.105102
0.000115788 -0.104954
0.000202896 -0.104852
0.000263388 -0.104767
0.00029969 -0.104704
0.000322304 -0.10466
0.000329925 -0.104623
0.000328267 -0.104597
0.000317312 -0.10458
0.000299804 -0.104572
0.000275551 -0.104565
0.000246845 -0.104564
0.000214065 -0.104568
0.000178945 -0.104575
0.000141734 -0.104583
0.000104076 -0.104593
6.68272e-05 -0.104608
3.11534e-05 -0.104626
-1.6528e-06 -0.104644
-3.09077e-05 -0.104668
-5.5171e-05 -0.104697
-7.34871e-05 -0.104734
-8.30275e-05 -0.104774
-8.41951e-05 -0.104825
-7.37609e-05 -0.10489
-5.07823e-05 -0.10497
-2.24133e-08 -0.105059
7.30572e-05 -0.105178
0.000210907 -0.105342
-0.00172679 -0.10508
-0.00138953 -0.105089
-0.00105456 -0.105109
-0.000707847 -0.10516
-0.0294994 -0.132821
-0.00205529 -0.105084
-0.00238511 -0.105096
-0.00286682 -0.105122
-0.00335379 -0.105159
-0.00406205 -0.105232
-0.00478051 -0.105328
-0.00583652 -0.105506
-0.0069079 -0.105732
-0.00847643 -0.106144
-0.0100579 -0.106655
-0.0111996 -0.107086
-0.0123367 -0.107568
-0.0134631 -0.108105
-0.0145739 -0.10869
-0.0161429 -0.109622
-0.0176606 -0.110647
-0.0191111 -0.111762
-0.0155745 -0.146772
-0.029245 -0.135433
-0.0286963 -0.137757
-0.0279272 -0.139767
-0.026984 -0.14147
-0.0259336 -0.14289
0.019174 -0.0918588
-0.0130339 -0.146406
-0.0100079 -0.145455
-0.00646231 -0.143822
0 0
-0.00735944 -0.00668215
-0.0104139 -0.0111061
-0.0108571 -0.0146847
-0.00908229 -0.0190448
-0.00662719 -0.0232622
-9.05351e-05 -0.0998942
0 0
0 0
0 0
0 0
0.00578238 -0.0967654
0.0116326 -0.0853449
0.015178 -0.0614832
-0.0189846 -0.0920815
0.00738759 -0.00667167
0.0104582 -0.0111442
0.0109084 -0.0147445
0.00913894 -0.0191235
0.00668367 -0.0233434
0.0156154 -0.146888
0.0130743 -0.14652
0.0100664 -0.145565
0.00650966 -0.143953
0.029479 -0.133005
0.017627 -0.146952
0.0193603 -0.146742
0.0209027 -0.146377
0.0222843 -0.145814
0.0235772 -0.145109
0.00183193 -0.105348
0.0293891 -0.130255
0.0289104 -0.127321
0.0279981 -0.124264
0.0266348 -0.121172
0.0254168 -0.119062
0.0239837 -0.117006
0.0223373 -0.115042
0.0205011 -0.113194
0.0191258 -0.112005
0.0176796 -0.110895
0.0161664 -0.109872
0.014602 -0.108944
0.0123746 -0.107829
0.0101041 -0.106911
0.00852888 -0.106406
0.00697052 -0.105999
0.00590391 -0.105773
0.00150467 -0.10536
0.00117914 -0.105383
0.000835593 -0.105434
-0.00201608 -0.101875
0.00882959 -0.101418
0.00697314 -0.0977387
0.0117289 -0.0791406
-0.0118639 -0.0838516
-0.00185101 -0.109879
-0.00361265 -0.100243
-0.00839944 -0.124183
-0.00136952 -0.10674
-0.0243081 -0.128337
-0.00780829 -0.0142175
0.00767173 -0.0144862
-0.012757 -0.11894
-0.00456692 -0.10846
-0.00137727 -0.112601
-0.0019205 -0.112429
0.000752602 -0.112096
-0.00254855 -0.112282
0.00207117 -0.11282
0.00117072 -0.109252
-0.000455078 -0.110826
0.000326804 -0.111255
-0.00160068 -0.109268
-0.00371104 -0.112845
-0.0052771 -0.113995
-0.00356279 -0.114361
0.0017794 -0.1039
-0.00139924 -0.104009
-0.00234867 -0.103992
0.00214778 -0.113831
0.0033427 -0.113569
-0.00398111 -0.10691
0.00380506 -0.106741
-0.000359812 -0.11215
0.00124232 -0.110274
0.00316317 -0.107862
-0.00364106 -0.107686
0.000315704 -0.112013
0.00153203 -0.10414
-0.000399791 -0.104098
-0.00158936 -0.104268
-0.00219464 -0.111253
0.0031494 -0.112599
0.00338517 -0.104473
0.00329979 -0.106099
0.000537893 -0.109232
-0.00106805 -0.109939
0.00124647 -0.11061
-0.000352521 -0.109921
-0.00347443 -0.106346
-0.00342681 -0.104619
-0.00490863 -0.112775
-0.00573685 -0.115937
0.00424109 -0.103009
0.0016868 -0.103352
-0.000802085 -0.103844
-0.00378647 -0.10382
-0.00742899 -0.118039
-0.00657547 -0.118535
0.00550866 -0.117152
0.00514985 -0.115371
0.00640079 -0.114824
0.00622489 -0.113811
-0.0051924 -0.102922
-0.00524743 -0.105196
0.00498731 -0.105094
0.00729719 -0.101882
-0.00339256 -0.115854
0.00057717 -0.111549
0.0043558 -0.106955
-0.000513698 -0.111491
0.00498689 -0.11758
0.00183299 -0.104288
0.00115925 -0.10412
9.30035e-05 -0.10418
0.000549314 -0.104128
-0.000337205 -0.104318
-0.000873408 -0.104385
-0.0005556 -0.104381
-0.0015168 -0.104451
-0.00217314 -0.110367
-0.00393865 -0.111277
0.00507737 -0.112214
0.00274536 -0.111166
0.00203305 -0.10444
0.00239453 -0.104588
0.00303843 -0.105037
0.002875 -0.105683
0.00170973 -0.107281
0.00050162 -0.108574
-0.000606186 -0.108861
-0.00180345 -0.107573
-0.00300454 -0.105937
-0.00305266 -0.105294
-0.00223824 -0.104733
-0.00178763 -0.104579
-0.00552825 -0.11225
-0.00873328 -0.117112
0.0061629 -0.10057
-0.000437402 -0.103211
-0.0034294 -0.102714
-0.0105585 -0.122148
0.00904486 -0.121395
0.00810559 -0.116525
0.00660668 -0.112695
-0.00810582 -0.101485
0.00959967 -0.0998687
-0.00562418 -0.119224
0.00582569 -0.105347
-0.0105298 -0.0985244
-0.00462558 -0.106835
0.00154714 -0.114132
0.00133525 -0.104435
0.00094537 -0.104307
0.000343667 -0.104338
-0.000159778 -0.104437
-0.000544768 -0.104502
-0.000986026 -0.104612
-0.00274576 -0.109924
0.00308277 -0.110262
0.00173094 -0.104779
0.00183269 -0.105702
0.000329617 -0.107743
-0.000423851 -0.10798
-0.00177281 -0.105944
-0.00148452 -0.104952
-0.00532517 -0.109757
-0.00650917 -0.111206
-0.00745482 -0.112861
-0.0101736 -0.115325
-0.0161664 -0.123287
-0.0152488 -0.125647
0.0110386 -0.0895806
0.00219068 -0.100901
-0.00901381 -0.0948687
-0.013917 -0.127057
0.0132354 -0.126813
0.0130658 -0.123582
0.0121653 -0.119915
0.0104972 -0.11661
0.00779037 -0.112476
0.00731317 -0.110606
-0.0110647 -0.0951802
0.0125142 -0.0927536
-0.0118365 -0.126968
-0.00298245 -0.117436
0.0115517 -0.0964908
0.00796946 -0.123895
0.0131713 -0.129707
-0.00776301 -0.10293
0.00197224 -0.115058
0.000967364 -0.104614
0.00113261 -0.104758
0.000770201 -0.104452
0.000928907 -0.104494
0.000426035 -0.104437
0.00061694 -0.104426
1.98921e-05 -0.104499
0.000203105 -0.104471
-0.000250624 -0.104577
-0.000103006 -0.104547
-0.000580275 -0.104652
-0.000424287 -0.104597
-0.000827817 -0.10491
-0.000666276 -0.104757
-0.000855102 -0.10809
-0.00199086 -0.108789
-0.00379046 -0.109475
0.00493845 -0.109347
0.00373425 -0.109462
0.00146619 -0.108727
0.000545539 -0.108292
0.00136787 -0.105026
0.0013465 -0.105402
0.000972213 -0.106237
0.000469846 -0.106852
-0.000690419 -0.107086
-0.00098062 -0.106477
-0.00122869 -0.10561
-0.00109639 -0.105195
-0.00536531 -0.107614
-0.007332 -0.110079
-0.0115603 -0.113342
-0.0165277 -0.119702
-0.0199513 -0.12796
0.00691024 -0.0580216
0.00592412 -0.095346
0.000385489 -0.100837
-0.00435946 -0.0983212
-0.00813034 -0.0626154
-0.0177664 -0.133226
0.0182515 -0.133846
0.0167862 -0.123233
0.0101487 -0.113906
0.00682579 -0.108649
0.000937448 -0.0255794
-0.0102639 -0.072814
-0.00155069 -0.0244802
0.00884994 -0.0688654
-0.0104689 -0.130414
0.00884248 -0.100612
0.0152735 -0.0870286
0.0132693 -0.1336
-0.0147855 -0.0897324
-0.00428449 -0.106898
0.000662024 -0.104743
0.000552643 -0.104569
0.000385391 -0.104527
0.000153799 -0.104555
-7.24178e-05 -0.104608
-0.000258987 -0.104696
-0.000386827 -0.104885
-0.00179427 -0.107653
-0.00376868 -0.107559
0.00322364 -0.107813
0.00107994 -0.107632
0.000666253 -0.105258
-5.52276e-06 -0.106371
-0.000703849 -0.106478
0.00058036 -0.106873
-0.00017857 -0.106597
-0.000467799 -0.105406
-0.00338886 -0.106459
0.00340581 -0.106973
-0.00572575 -0.106233
-0.00651609 -0.107233
-0.00806384 -0.107738
-0.00920727 -0.109345
-0.0117691 -0.110287
-0.0140901 -0.112754
-0.0168876 -0.115111
-0.0200977 -0.118984
-0.0232404 -0.122935
0.00526721 -0.0614342
0.00202445 -0.0925683
-0.00190212 -0.094806
-0.0050443 -0.0661677
-0.0242593 -0.132974
-0.0232896 -0.136728
-0.0217713 -0.139701
-0.0203488 -0.142702
-0.0160552 -0.140751
0.0169931 -0.141655
0.0204566 -0.14256
0.0221907 -0.140089
0.0234303 -0.136516
0.0242697 -0.131852
0.0224765 -0.126119
0.0202765 -0.120533
0.0179274 -0.115725
0.0139693 -0.113092
0.0118871 -0.10949
0.00966516 -0.108443
0.00809067 -0.107932
0.00569177 -0.106835
0.0073961 -0.0257691
-9.47993e-05 -0.0465888
-0.00807502 -0.0683539
-0.00749827 -0.0252504
0.00664044 -0.0643097
-0.000191147 -0.0452581
-0.0111244 -0.138194
-0.00505511 -0.135816
0.00868621 -0.103698
0.012698 -0.139172
-0.00306511 -0.112172
0.00738667 -0.134619
0.000331666 -0.104931
0.00030811 -0.105079
0.000376118 -0.10478
0.000404325 -0.104662
0.000395465 -0.104714
0.00040238 -0.104598
0.000358378 -0.104568
0.000383496 -0.10458
0.000292631 -0.104561
0.000209845 -0.104569
0.000252698 -0.104565
0.000120331 -0.104588
2.97502e-05 -0.104613
7.48983e-05 -0.1046
-4.91832e-05 -0.104646
-0.000120554 -0.104695
-8.67799e-05 -0.104669
-0.000164632 -0.104762
-0.000184892 -0.104867
-0.000178833 -0.104811
-0.000155887 -0.105017
-9.17411e-05 -0.105259
-0.000129418 -0.105125
-0.00395722 -0.105915
-0.00467502 -0.106015
0.00465093 -0.106607
0.00393909 -0.106498
-0.00261204 -0.107279
-0.00148867 -0.106056
0.00219435 -0.107256
0.00153234 -0.107152
0.00166697 -0.10642
0.00011751 -0.105552
-3.45523e-05 -0.105828
0.000154145 -0.106165
-2.98719e-05 -0.105784
-0.00277967 -0.105747
0.00289639 -0.105972
-0.00196663 -0.105696
-0.00229994 -0.105709
0.00242179 -0.105934
0.00209288 -0.10592
-0.00121511 -0.105522
-0.000532138 -0.105546
-0.000886004 -0.105529
0.00137554 -0.105934
0.00105472 -0.105928
0.000729352 -0.105928
0.000997918 -0.106365
-0.000762461 -0.105853
0.00236716 -0.106455
-0.00222439 -0.106262
-0.00047962 -0.105988
0.000521285 -0.105783
0.00207246 -0.107966
-0.00303309 -0.108272
0.00447062 -0.107529
-0.00457851 -0.106663
-0.000436839 -0.105076
-0.000326811 -0.104772
-0.00017125 -0.104646
3.73449e-05 -0.10458
0.000274119 -0.104536
0.000481997 -0.104536
0.000597567 -0.104643
0.000751739 -0.104934
0.00839383 -0.128046
-0.00366074 -0.12228
-0.000721321 -0.0423006
-0.000276127 -0.0447242
0.00927405 -0.109837
0.0144702 -0.117696
0.0187833 -0.129392
0.0176952 -0.137406
-0.0155669 -0.13458
-0.0191318 -0.131026
-0.00901375 -0.0857453
0.00958576 -0.0801619
-0.0201436 -0.124317
-0.0135814 -0.116023
-0.00852796 -0.111604
-0.0061749 -0.108574
0.000201592 -0.107285
-0.000655828 -0.10705
-0.0132546 -0.0890535
0.0137186 -0.085991
0.00141754 -0.100433
-0.00185709 -0.105275
-0.00150987 -0.10683
0.00144716 -0.106572
0.00203255 -0.105055
0.000929942 -0.109304
0.00549607 -0.11107
-0.00458355 -0.110701
-0.00107267 -0.109088
-0.00114628 -0.104751
-0.000802449 -0.104522
-0.000313062 -0.104492
3.48281e-05 -0.104381
0.000677062 -0.104298
0.00118704 -0.104345
0.00144605 -0.104592
-0.00275746 -0.109067
0.00734262 -0.12122
-0.00168021 -0.114636
-0.00860777 -0.121704
0.00989964 -0.0972235
-0.0067447 -0.100373
0.00776 -0.114357
0.00884806 -0.119193
-0.00203005 -0.103701
0.00231208 -0.102212
-0.0118202 -0.121075
-0.00652389 -0.113826
-0.00594367 -0.10511
0.00569188 -0.105131
-0.00241085 -0.104344
-0.00433665 -0.104974
-0.00206122 -0.108167
0.00195078 -0.107862
0.00410777 -0.104772
0.00261086 -0.104226
0.00474436 -0.113185
-0.00335383 -0.11172
-0.000847119 -0.104249
0.000216828 -0.103936
0.00175753 -0.11378
0.00233979 -0.10937
0.00256201 -0.113789
-0.00307149 -0.114598
0.00164068 -0.111856
-0.00108979 -0.110713
-0.000960887 -0.11042
0.000158649 -0.110775
-0.00411815 -0.113947
-0.00899237 -0.10454
0.00240201 -0.141184
-0.00436908 -0.122768
0.00161687 -0.12873
0.000123787 -0.139332
0.0031741 -0.120832
-0.00235563 -0.141082
0.0130661 -0.0989488
0.00636516 -0.115478
-5.08592e-05 -0.139207
0.000487221 -0.125835
0.00298529 -0.112632
0.00306603 -0.0544304
0.00750933 -0.0633011
0.00401696 -0.0523167
0.0122722 -0.0752509
-0.00358011 -0.0284401
3.12371e-05 -0.0347551
0.00119751 -0.0448089
-0.000753236 -0.044295
0.00239112 -0.0530178
-0.00424232 -0.0343656
-0.00225968 -0.0366017
-0.00607404 -0.0275165
0.00398492 -0.0424395
0.00702841 -0.0494879
-0.00847597 -0.0220669
-0.00456279 -0.0331899
-0.00391982 -0.057201
-0.00411153 -0.0532616
-0.00819034 -0.0660309
-0.00127369 -0.0456505
0.00362461 -0.0285243
-1.10616e-05 -0.0348656
-0.0132696 -0.0784916
-0.00355805 -0.0562274
9.9028e-05 -0.0461673
0.00406145 -0.035254
0.00607587 -0.027882
0.00219995 -0.0373102
0.00847589 -0.0223518
-0.00397379 -0.0425847
-0.00700285 -0.0496751
0.00408395 -0.0345852
-0.00315194 -0.0845643
0.00245355 -0.0909462
0.00277182 -0.0775615
0.0012174 -0.0993728
0 0
0 0
-0.00263836 -0.0396957
-0.00755524 -0.0771559
-0.00561991 -0.0904175
0.00340938 -0.0812063
-0.0026781 -0.0756231
-0.00273291 -0.0894314
0.0028008 -0.0360638
0 0
-0.0149863 -0.0612589
-0.00154079 -0.0987994
0.00624435 -0.0864893
0.00778531 -0.0716098
-0.0106189 -0.0982562
-0.0107998 -0.0986458
-0.00376764 -0.108011
-0.0164732 -0.0901213
0.00249399 -0.116702
-0.0115039 -0.096911
-0.0137246 -0.091034
0.0138796 -0.0932811
0.00886778 -0.101302
0.0146772 -0.0936692
0.0024889 -0.110056
0.0166861 -0.0881131
0.0145208 -0.0872437
0.0130867 -0.0937776
0.0126373 -0.0797229
0.0128699 -0.0792682
0.00774413 -0.0671322
0.00402375 -0.05581
0.0119228 -0.0781868
-0.0129532 -0.0816959
-0.00922419 -0.0709809
-0.0137802 -0.0821582
-0.00551431 -0.059426
-0.0125982 -0.0818836
-0.00399497 -0.0451153
-0.00783697 -0.0618825
-0.00437562 -0.0419688
-0.00982786 -0.0748958
0.00145016 -0.0142642
0.000669613 -0.0356069
-0.00467623 -0.0532528
-0.00158833 -0.100321
-0.00129488 -0.0998107
-0.00387029 -0.0967854
-0.000109176 -0.100797
-0.00695083 -0.0936112
-0.00165382 -0.100412
0.000897974 -0.100549
0.00283996 -0.0989876
0.00462013 -0.0939581
0.0017362 -0.0985241
0.0080942 -0.0892349
0.00393139 -0.0988169
0.00276241 -0.0417022
0.0036394 -0.0384032
0.00722149 -0.057073
-0.00171975 -0.0138338
0.00940913 -0.0692923
0.00332525 -0.0498353
-0.00149266 -0.0338699
-0.0110555 -0.0977077
-0.00783167 -0.102463
-0.00342902 -0.108229
-0.00529449 -0.106119
0.0134082 -0.0915696
0.00848082 -0.101159
0.0030702 -0.108376
0.00345055 -0.107893
-0.0123081 -0.0942649
-0.00945721 -0.100514
-0.00686667 -0.104202
-0.00836815 -0.102137
-0.00944336 -0.100188
-0.00980062 -0.0987329
-0.0111658 -0.0964972
-0.00774502 -0.100716
-0.009141 -0.098225
-0.0124102 -0.0920692
-0.00745147 -0.102959
0.0100172 -0.0983437
0.00874322 -0.0997901
0.00850299 -0.10102
0.00694698 -0.103151
0.00576659 -0.103497
0.00784068 -0.102546
-0.00607898 -0.101747
-0.00670707 -0.102349
-0.00626521 -0.103515
-0.00504143 -0.103767
-0.00508728 -0.101796
-0.00441195 -0.102788
-0.00356195 -0.103425
-0.00272248 -0.103273
0.00201699 -0.102841
0.000866568 -0.102815
0.00069236 -0.103295
-5.16663e-05 -0.10361
-0.00132839 -0.103473
0.000869122 -0.103677
0.00579989 -0.102568
0.00699702 -0.10107
0.00525971 -0.101932
0.00813829 -0.0991779
0.0042332 -0.101552
0.00347569 -0.10258
0.00447379 -0.103678
0.00296673 -0.103187
0.00180164 -0.103638
0.00225284 -0.104013
0.00101901 -0.10391
0.00293014 -0.103549
0.00349631 -0.103687
0.00485607 -0.00737476
0.00478242 -0.018886
0.00371227 -0.00982853
0.00507739 -0.0277604
0 0
0 0
0.00595833 -0.00596642
0.0101475 -0.0164408
0.00815095 -0.02052
0.00916882 -0.0119538
-0.0100852 -0.058218
-0.0122192 -0.0632743
-0.00921003 -0.0118455
-0.00829263 -0.0201149
-0.0101494 -0.0162597
-0.0055722 -0.0265631
0.0101268 -0.0579668
0.0122239 -0.0629403
-0.00599655 -0.00594024
-0.00385271 -0.00966102
-0.00512821 -0.018363
-0.00489294 -0.00730243
-0.0117539 -0.0852145
-0.00593826 -0.0966675
-0.00648631 -0.098256
-0.00418478 -0.0993229
-0.00682203 -0.0964734
-0.0010362 -0.100691
-0.00934403 -0.0908079
-0.00810115 -0.0978834
-0.00538316 -0.1001
-0.0109608 -0.0899024
-0.0119511 -0.0901438
-0.010317 -0.0945192
-0.0126791 -0.0859049
-0.0107727 -0.0837753
-0.00889288 -0.0673174
-0.0116401 -0.0784097
-0.0106297 -0.0746148
0.00971055 -0.0696066
0.0107484 -0.0741865
0.00753272 -0.0631121
0.0126531 -0.0820011
0.0109287 -0.0782959
0.0121043 -0.0903304
0.0127887 -0.0865121
0.0118534 -0.0845666
0.0133301 -0.0894491
0.0105168 -0.0850932
0.0107655 -0.0936452
0.0114307 -0.0950583
0.00673197 -0.0990865
0.00467575 -0.0997594
0.00437471 -0.100655
0.00425087 -0.0993106
0.00185705 -0.100527
0.00230752 -0.101448
0.0087254 -0.0971093
0.00880266 -0.0921032
0.00673081 -0.0964337
0.00929405 -0.0943971
0.0112525 -0.0971557
0.0101894 -0.0991652
0.0124123 -0.09423
0.00626513 -0.104518
0.0112406 -0.096767
0.00943296 -0.100465
0.00721979 -0.10358
-0.00115878 -0.102621
-0.00280775 -0.102309
-0.00189163 -0.103047
-0.00445855 -0.101377
0.000252234 -0.102185
-0.000730575 -0.101055
-0.00285528 -0.101035
2.03955e-05 -0.101519
0.00131735 -0.131673
-0.00244535 -0.131351
-0.00179333 -0.136098
-0.00197477 -0.123433
-0.00473681 -0.129051
-0.00381607 -0.138476
0.00235826 -0.136875
0.00499863 -0.133963
0.00358862 -0.127746
0.00437274 -0.113493
0.00144737 -0.119222
0.00319917 -0.121202
-0.000616632 -0.117905
0.00688556 -0.123545
0.00724514 -0.109279
0.0056334 -0.108508
0.0153802 -0.0815738
0.014383 -0.068935
0.0127912 -0.073217
0.00901969 -0.0696325
0.0108429 -0.0668448
0.0162141 -0.0772783
-0.0143628 -0.0693145
-0.0160528 -0.0837806
-0.0131961 -0.0752787
-0.0112384 -0.0687816
-0.0102018 -0.0732668
-0.0159637 -0.0776408
-0.0138951 -0.094547
-0.0140875 -0.0957793
-0.0101099 -0.100479
-0.0177848 -0.0904402
-0.0134208 -0.0990392
-0.0058399 -0.108645
-0.00694133 -0.104807
-0.0138743 -0.0935434
-0.015535 -0.0897681
-9.95446e-05 -0.11427
0.002871 -0.118347
-0.000418514 -0.11265
0.00592917 -0.124701
0.00564324 -0.122377
-0.000921399 -0.111484
-0.00409584 -0.107176
-0.0034151 -0.109431
0.000279037 -0.116847
-0.0112372 -0.0973395
-0.0127478 -0.094153
-0.0128108 -0.0944609
-0.0128953 -0.0929613
-0.0135409 -0.0898308
-0.0142037 -0.0903247
-0.0131353 -0.094187
-0.00746207 -0.102659
-0.0091415 -0.100483
0.00543189 -0.105955
0.00268541 -0.110901
0.00584228 -0.106618
-0.000814556 -0.116172
0.00882213 -0.102129
0.00890513 -0.100741
0.00576334 -0.104966
0.0142203 -0.0953736
0.0167344 -0.0919995
0.0162159 -0.0909595
0.0160525 -0.0955903
0.0180947 -0.0891497
0.0159234 -0.0874578
0.0157628 -0.090013
0.0120913 -0.097931
0.0107791 -0.101499
0.0147259 -0.0900971
0.0141945 -0.0906422
0.0134558 -0.0934711
0.0140827 -0.0864862
0.01398 -0.0897892
0.0114616 -0.0968228
0.0114874 -0.0969869
0.0151332 -0.0902489
0.0148643 -0.0870818
0.0149338 -0.0835664
0.015247 -0.0829864
0.0126325 -0.0780253
0.00959773 -0.071733
0.0145453 -0.0835844
0.0140938 -0.0833131
0.0139461 -0.0836991
0.0134911 -0.0831384
0.0105265 -0.0741097
-0.0136791 -0.0811378
-0.0161638 -0.085571
-0.0154584 -0.0859231
-0.0148766 -0.0863239
-0.0109561 -0.0754992
-0.0142232 -0.0856287
-0.0139788 -0.0866672
-0.0114874 -0.0771419
-0.0134564 -0.085639
-0.00624248 -0.104432
-0.00386875 -0.107559
-0.00562463 -0.105431
-0.00582176 -0.105346
-0.0031138 -0.108691
-0.00784156 -0.102661
0.00282094 -0.10894
-2.4442e-05 -0.11282
-0.000441021 -0.114006
0.000567119 -0.111698
-0.00229676 -0.115803
-0.00339238 -0.119404
0.00581289 -0.104663
0.00592962 -0.104622
0.00329522 -0.108037
0.00594065 -0.104499
0.000878279 -0.111212
0.00867813 -0.100815
0.0103559 -0.0985474
0.00731969 -0.102945
0.00196547 -0.109834
0.00497779 -0.106032
0.00779239 -0.102719
0.00916468 -0.100552
-0.000474375 -0.11291
0.00347916 -0.108018
0.00423885 -0.107205
0.00156239 -0.110345
-0.000819546 -0.11143
0.00170977 -0.114523
-0.00089034 -0.111322
0.00474569 -0.118387
0.00445756 -0.117624
-0.000716504 -0.111439
-0.00100438 -0.11121
0.00274659 -0.124148
0.00470424 -0.131868
0.00558806 -0.128037
0.00209374 -0.135682
0.00525057 -0.137746
0.00812214 -0.130955
-0.000350106 -0.12081
-0.00332426 -0.13087
-0.000112129 -0.132878
-0.00114069 -0.125921
-0.00233232 -0.136956
-0.00325527 -0.116687
-0.00590093 -0.126704
-0.00490753 -0.134116
-0.0102257 -0.110585
-0.00828844 -0.121046
-0.0062726 -0.114239
-0.00768858 -0.130433
-0.010793 -0.125864
0.0102186 -0.137049
0.00887508 -0.140959
0.0116045 -0.142403
-0.0142297 -0.119744
-0.0165726 -0.109966
0.0143372 -0.143739
0.0107921 -0.134016
0.012571 -0.109333
0.00917994 -0.108354
0.0093318 -0.116979
0.00770157 -0.130329
0.0107937 -0.125779
-0.00840158 -0.136951
-0.0107233 -0.142052
-0.00770632 -0.14148
-0.0135974 -0.143413
0.0139686 -0.119749
0.016942 -0.110102
-0.00783998 -0.131363
0.0159516 -0.11441
0.0177704 -0.113382
0.015782 -0.112093
0.0191806 -0.114532
0.00485456 -0.105595
0.00414155 -0.105501
0.0142483 -0.111103
0.0141753 -0.115462
0.0161445 -0.116827
0.0191006 -0.118158
0.0220554 -0.118912
0.0209565 -0.116436
0.0234503 -0.120977
0.00344102 -0.10543
0.00295991 -0.105392
0.0173879 -0.119173
0.023395 -0.12906
0.0264206 -0.129818
0.0257093 -0.126888
0.0269014 -0.132593
0.00248391 -0.105365
0.00215745 -0.105353
0.0244145 -0.123869
0.0204739 -0.127963
0.0215534 -0.130797
0.0237929 -0.134265
0.0260901 -0.137459
0.0266983 -0.135171
0.0254197 -0.139401
0.0247837 -0.144181
0.0259277 -0.143037
0.0212763 -0.133118
0.0213002 -0.141326
0.0226929 -0.143644
0.0236578 -0.142455
0.0214807 -0.144461
0.0269754 -0.141626
0.0279152 -0.139927
0.0246298 -0.141131
0.0199731 -0.13896
0.019196 -0.140201
0.0187587 -0.142156
0.0183349 -0.144669
0.0200041 -0.144792
0.0164564 -0.144399
0.0286813 -0.137927
0.0292266 -0.135606
0.0174021 -0.139453
-0.018276 -0.141852
-0.0199291 -0.144791
-0.0179068 -0.144312
-0.021412 -0.144448
-0.0247852 -0.144039
-0.0235736 -0.144974
-0.0159813 -0.144011
-0.0159354 -0.1376
-0.0182256 -0.139152
-0.0210502 -0.141198
-0.0234708 -0.142236
-0.0226282 -0.143626
-0.0244345 -0.140907
-0.0222735 -0.145686
-0.0208865 -0.146249
-0.0187786 -0.137572
-0.023727 -0.13491
-0.0266572 -0.13561
-0.0260061 -0.137488
-0.0268494 -0.13307
-0.0193349 -0.146617
-0.0176008 -0.146831
-0.0253433 -0.139423
-0.021344 -0.134024
-0.0217012 -0.132176
-0.0216926 -0.120981
-0.0219951 -0.117979
-0.0235459 -0.119985
-0.0202335 -0.116093
-0.0204898 -0.112956
-0.0223309 -0.114805
-0.0249028 -0.122024
-0.0216533 -0.123702
-0.0200668 -0.121738
-0.015491 -0.113932
-0.0158376 -0.111791
-0.0172332 -0.112968
-0.0142989 -0.110799
-0.0239838 -0.116776
-0.0254211 -0.118834
-0.0186504 -0.114122
-0.0152058 -0.115637
-0.013803 -0.114449
-0.0266452 -0.120952
-0.0131488 -0.109543
-0.0120367 -0.108971
-0.0108962 -0.108489
-0.0101083 -0.111037
-0.0280099 -0.124053
-0.0107947 -0.0981398
-0.00701122 -0.103587
-0.00763938 -0.102377
0.0153195 -0.137969
0.0131253 -0.136184
0.0149514 -0.140493
0.0109375 -0.131036
0.0155357 -0.135685
0.0119457 -0.0967029
0.0117453 -0.0975475
0.0142751 -0.0933622
-0.0135369 -0.136197
-0.0137553 -0.139525
-0.0109897 -0.134194
-0.00730273 -0.12671
-0.0130948 -0.132666
0.0127738 -0.0795652
0.00996299 -0.0727545
-0.01332 -0.0818729
-0.0111363 -0.075976
0.0123083 -0.115788
0.0120173 -0.113595
0.0116064 -0.111446
0.00967236 -0.111927
0.0196606 -0.124781
0.0213824 -0.123378
0.0184363 -0.122047
0.0156047 -0.12049
0.0177584 -0.126347
0.0203907 -0.137192
0.0227631 -0.138346
0.0208551 -0.135412
0.01843 -0.131652
0.0179484 -0.135579
-0.0205804 -0.135244
-0.0224796 -0.138246
-0.0199427 -0.136681
-0.0166106 -0.133887
-0.0183894 -0.132156
-0.0166534 -0.117497
-0.0185037 -0.117057
-0.0182836 -0.119419
-0.0183626 -0.122025
-0.0150592 -0.117862
-0.011639 -0.111866
-0.0129259 -0.111517
-0.0128091 -0.113086
-0.0125674 -0.11468
-0.0100366 -0.11247
-0.00992734 -0.0995407
-0.00966994 -0.100089
0.0106477 -0.127051
0.0108062 -0.128868
0.0132341 -0.131473
0.00822642 -0.125641
0.0155974 -0.133728
0.010364 -0.125451
0.00760514 -0.122378
0.0109807 -0.0975259
0.012284 -0.0951917
0.012464 -0.117209
0.0102995 -0.115288
0.00892593 -0.114193
0.00912238 -0.115477
0.0125743 -0.121763
0.0148531 -0.123559
0.0144901 -0.12161
0.0160061 -0.126566
0.0132461 -0.118929
0.0104699 -0.119657
0.0109701 -0.121384
0.0131496 -0.128199
0.0157417 -0.132011
0.0158688 -0.130422
0.0159755 -0.128347
0.0103406 -0.124265
-0.0128265 -0.127071
-0.0159236 -0.130174
-0.0149063 -0.130367
-0.016563 -0.129212
-0.0138066 -0.130739
-0.0102245 -0.124251
-0.0113073 -0.124503
-0.015658 -0.124518
-0.0181022 -0.125648
-0.0176047 -0.126921
-0.0181452 -0.123877
-0.0200113 -0.126182
-0.0194891 -0.129537
-0.0172525 -0.12837
-0.0135509 -0.12335
-0.0139885 -0.12226
-0.0118613 -0.115717
-0.010834 -0.1144
-0.00932454 -0.113476
-0.00832359 -0.114614
0.00537192 -0.120564
0.00503957 -0.119378
0.00218957 -0.11565
0.0101317 -0.11822
0.0113149 -0.11826
0.00927739 -0.116624
0.00791175 -0.115461
0.0084453 -0.117871
0.0111731 -0.124089
0.0130882 -0.125206
0.0110336 -0.122621
0.00890147 -0.120312
0.0081438 -0.12138
-0.012916 -0.123996
-0.0145287 -0.126401
-0.0122533 -0.124574
-0.0095489 -0.121996
-0.0111458 -0.12167
0.00612287 -0.119305
0.00328734 -0.115953
0.00162609 -0.113976
0.00334131 -0.115621
-0.00144183 -0.113863
-0.00445301 -0.117421
-0.00253565 -0.115366
-0.00601155 -0.118797
-0.00710813 -0.120578
-0.00370665 -0.117092
-0.000430844 -0.112496
0.00698137 -0.117253
0.00660163 -0.116016
0.00491698 -0.114304
0.00383954 -0.114634
0.00522735 -0.117392
0.00702206 -0.119558
0.00726532 -0.119233
0.00716188 -0.118255
0.00362529 -0.115526
-0.00697877 -0.118325
-0.00898425 -0.120055
-0.00857182 -0.120389
-0.00961591 -0.119625
-0.00756874 -0.12007
-0.00480074 -0.116522
-0.00523207 -0.116397
-0.0102698 -0.119069
-0.00804333 -0.117645
-0.00638785 -0.115571
-0.0076081 -0.11545
-0.00498329 -0.11729
-0.00319443 -0.115226
0.00529836 -0.116278
0.00400479 -0.115429
-0.0144737 -0.121108
-0.0146253 -0.119386
-0.016298 -0.121556
-0.0131233 -0.117553
-0.0122416 -0.12007
-0.0094047 -0.116306
-0.0114578 -0.117121
-0.0107273 -0.118086
-0.0221065 -0.128259
-0.0242567 -0.130724
-0.0222021 -0.130565
-0.0270374 -0.130746
-0.0222826 -0.126381
-0.0261732 -0.125133
-0.0265712 -0.127849
-0.0237664 -0.125705
-0.0289256 -0.127119
-0.0294036 -0.13006
-0.00581714 -0.121074
-0.00949586 -0.127056
-0.00702547 -0.124283
-0.0122324 -0.129808
-0.00516891 -0.119497
-0.00882403 -0.123237
-0.0101133 -0.125687
-0.00699148 -0.121515
-0.00130234 -0.0965696
-0.00310576 -0.0947684
-0.00870305 -0.0675074
-0.0102266 -0.0724135
-0.00891445 -0.0787055
-0.00937827 -0.0840002
0.00619085 -0.0912095
0.00660743 -0.0869695
-0.00130422 -0.110348
-0.00339979 -0.107928
0.00898573 -0.0940062
0.0088406 -0.0957875
0.000414255 -0.100049
0.00157726 -0.0994916
-0.0107298 -0.01446
-0.00970213 -0.0142693
-0.00265997 -0.0121374
-0.00237657 -0.00599115
0.00595468 -0.0921342
0.00444524 -0.0915357
0.010344 -0.0611201
0.00990062 -0.0729413
-0.0102246 -0.0940826
-0.0103058 -0.0917879
-0.000164719 -0.000523167
-0.00102125 -0.00591152
-0.0137383 -0.07511
-0.00756007 -0.067682
0.0138703 -0.0865506
0.0132323 -0.08203
-0.00459259 -0.059222
-0.00288537 -0.0530345
-0.00343408 -0.044009
-0.00411388 -0.0416515
-0.00191569 -0.10013
-0.00187089 -0.100261
-0.0087457 -0.0678924
-0.0101692 -0.0721937
0.0040249 -0.00387526
0.00724053 -0.00721784
0.00449735 -0.103323
0.0048418 -0.103833
0.0102843 -0.0951719
0.00964699 -0.0974083
-0.0156011 -0.0815915
-0.0109868 -0.0736554
0.00499853 -0.101339
0.00397317 -0.101167
0.00833168 -0.0643581
0.00717124 -0.0635636
0.00473449 -0.103039
0.00394913 -0.102837
-0.00639838 -0.103824
-0.00531468 -0.105366
0.00905582 -0.10062
0.00897862 -0.101032
1.67084e-06 -0.0460428
0.00296922 -0.0376724
0.00570249 -0.0775847
0.00700733 -0.0703331
-0.0018372 -0.0943478
-0.00386884 -0.0926695
-0.00323088 -0.0914407
-0.00124372 -0.0934098
0.000488269 -0.0270214
0.00112498 -0.0330194
-0.00276913 -0.106027
-0.00116931 -0.106581
-0.0105376 -0.0743904
-0.0135173 -0.0821824
0.000684747 -0.104273
0.000320619 -0.104129
-0.000698392 -0.0743363
0.000137408 -0.0814402
-0.0055215 -0.0896426
-0.01037 -0.0885804
-0.00713193 -0.0930764
-0.00507479 -0.0908087
-0.00887119 -0.1007
-0.007561 -0.101967
0.0114161 -0.0776579
0.0118721 -0.0789621
-0.0143428 -0.0737032
-0.0136325 -0.0802712
-0.00680422 -0.058389
-0.00552901 -0.0478752
-0.00392853 -0.0468323
-0.00361336 -0.0492683
-0.00536026 -0.0560735
-0.0075477 -0.0638
-0.00501249 -0.045921
-0.00449707 -0.0483436
-0.011089 -0.0941493
-0.00998406 -0.0959169
-0.00866203 -0.0964219
-0.00717642 -0.0978993
-0.0082418 -0.0968795
-0.00860774 -0.0975423
-0.010461 -0.0982295
-0.00969408 -0.0991157
-0.00156532 -0.0408896
0.000820896 -0.0371927
-0.00101385 -0.100588
-0.0025145 -0.100179
-0.00920967 -0.0853736
-0.00762414 -0.08796
0.00999506 -0.0718155
0.00859102 -0.0667277
-0.0023159 -0.100672
-0.00220238 -0.100472
-0.00704319 -0.10157
-0.00738427 -0.102006
-0.0111006 -0.0946527
-0.0119147 -0.0914027
0.0110544 -0.0780203
0.0101225 -0.0716579
-0.00172921 -0.0980595
-0.00328406 -0.0981805
0.00652013 -0.0218468
0.0054209 -0.0197271
-0.00799762 -0.102308
-0.00950751 -0.100046
-0.00678689 -0.0167196
-0.00515495 -0.018074
-2.32532e-05 -0.100919
-8.65998e-05 -0.100697
-0.0140123 -0.0864052
-0.0129951 -0.0811204
0.00479372 -0.0985733
0.00320848 -0.0997763
-0.0125503 -0.0868479
-0.0124752 -0.0826245
-0.00614226 -0.0967603
-0.00489842 -0.0985514
0.00790684 -0.0241348
0.00684881 -0.0271045
-0.0021119 -0.0398672
-0.000555517 -0.0449476
0.00857408 -0.0686774
0.0054168 -0.0603737
0.00802747 -0.101687
0.0116797 -0.0964369
-0.00309906 -0.104613
-0.00200758 -0.10451
-0.00463673 -0.0584072
-0.00692876 -0.0651919
-0.00067402 -0.0442105
-0.000588264 -0.0410212
0.0147376 -0.0869008
0.0152537 -0.0909618
-0.00117487 -0.100024
-0.000329618 -0.100649
-0.00303461 -0.104071
-0.00186708 -0.104196
-0.00771654 -0.102597
-0.00713081 -0.103694
-0.00328339 -0.0776778
-0.00143477 -0.0715185
0.00548688 -0.0518315
0.00626839 -0.0630597
0.00182552 -0.0463099
0.00242327 -0.0508498
0.0074462 -0.00742595
0.00686488 -0.00838596
0.0112332 -0.0971871
0.0122826 -0.0942932
0.00262483 -0.0482607
0.00507642 -0.0564991
0.00129493 -0.0407595
0.00404444 -0.0328291
0.00911507 -0.101013
0.00723842 -0.103578
0.002645 -0.103157
0.00355069 -0.103277
0.0112025 -0.0972659
0.010868 -0.0978548
-0.00998337 -0.0778641
-0.0104546 -0.0757567
0.00013263 -0.104552
-7.1544e-05 -0.104436
-0.0047876 -0.056562
-0.00513254 -0.0550338
-0.00479463 -0.0131498
-0.00553784 -0.0100326
-0.00157837 -0.00927285
2.52199e-05 -0.00965201
0.00775914 -0.00715746
0.00939478 -0.0100973
-0.00741779 -0.102842
-0.0106498 -0.0982247
-0.000528471 -0.100534
-0.000952721 -0.100143
-0.000656122 -0.0999558
-0.000172978 -0.0986631
-0.00516392 -0.103507
-0.00382487 -0.103901
-0.00235829 -0.0400624
-0.000808235 -0.0312196
-0.0137368 -0.0901233
-0.0129387 -0.0928945
-0.000271762 -0.100695
6.63205e-05 -0.10088
0.0127628 -0.0921002
0.0132718 -0.0885891
0.00580737 -0.0284887
0.00746879 -0.0225446
0.0110855 -0.0969663
0.00994463 -0.0988925
0.0019013 -0.0841478
-0.00175734 -0.0845065
0.00149865 -0.099918
0.000429088 -0.100585
-0.0028185 -0.0251587
-0.00312143 -0.0189005
-0.00361876 -0.0348098
-0.0057207 -0.0277784
-0.00422631 -0.104331
-0.00289834 -0.104758
-0.00485974 -0.0540793
-0.00184615 -0.0533613
0.0132565 -0.0910877
0.0131707 -0.0871936
-0.00263927 -0.0346932
-0.00305463 -0.0399501
-0.00464549 -0.045786
-0.00308735 -0.0445749
-0.00368024 -0.00452641
-0.00413035 -0.00420462
-0.00842298 -0.0639214
-0.00888197 -0.0658245
0.000402036 -0.100731
7.62045e-05 -0.10094
0.000601339 -0.00968145
0.00123211 -0.00535656
0.0118772 -0.0942793
0.0126222 -0.0908998
-0.0101404 -0.0774441
-0.0091817 -0.0728507
-0.00892552 -0.0211188
-0.00837718 -0.0211453
-0.00685973 -0.0944404
-0.00424613 -0.0934471
-0.00462339 -0.0945426
-0.00544182 -0.0955891
-0.00248073 -0.095804
-0.0012226 -0.0932328
0.0102952 -0.0966049
0.00905291 -0.0981089
0.0104331 -0.0892762
0.00989722 -0.0870267
-0.00588618 -0.0558269
-0.00677721 -0.0607221
-0.0102203 -0.0991879
-0.0104911 -0.0984081
-0.00101839 -0.0982023
-0.000317623 -0.0998989
0.0010143 -0.0991326
0.00248915 -0.098044
-0.00378851 -0.0519636
-0.00137597 -0.0436373
-0.000490569 -0.000647342
-0.00345889 -0.00530985
-0.00740459 -0.0607568
-0.0066318 -0.0599734
0.00318102 -0.0951113
0.00100247 -0.0935422
0.0098952 -0.0610699
0.00246515 -0.0621432
0.00513148 -0.0814094
0.012723 -0.0790287
-0.00372176 -0.00925158
-0.00204661 -0.00580957
-0.0124329 -0.0892714
-0.0129178 -0.0876887
0.00376721 -0.0531416
0.00393986 -0.0559854
-0.00738769 -0.103535
-0.0093655 -0.100651
0.00464445 -0.0988742
0.00625658 -0.0976914
-0.00497491 -0.0983701
-0.00542678 -0.0986559
-0.00956947 -0.0973141
-0.0107345 -0.0954877
0.0124522 -0.0941042
0.0121152 -0.0945235
-0.000105578 -0.101621
0.000637286 -0.102056
-0.0049275 -0.103224
-0.00491616 -0.102635
0.0135379 -0.088285
0.013068 -0.089008
0.00560988 -0.102419
0.00652696 -0.10239
-0.00892005 -0.0170389
-0.00987188 -0.017448
-0.00348058 -0.0998432
-0.00499603 -0.0991297
-0.0107175 -0.0856312
-0.0101449 -0.0827642
0.00241023 -0.104249
0.00138465 -0.104475
0.0111919 -0.0757472
0.0112755 -0.0762089
0.00230245 -0.0746895
0.00391767 -0.081248
0.00299195 -0.0444702
0.0028271 -0.0390178
0.00105705 -0.000754456
0.00489761 -0.00425899
-0.000546156 -0.00986616
0.00130946 -0.0229261
-0.00428909 -0.0150891
-0.00302946 -0.022674
0.00773837 -0.0096454
0.0052304 -0.00535187
-0.00345792 -0.0964329
-0.00493279 -0.0958454
0.00590174 -0.105262
0.00348753 -0.108106
-0.00793054 -0.0937355
-0.00863432 -0.0903394
-0.00677447 -0.0156938
-0.00523129 -0.0164206
0.00378125 -0.0990418
0.00542513 -0.0975505
0.00549312 -0.0246067
0.00744022 -0.0205375
-0.00444368 -0.105666
-0.00441143 -0.104854
-0.000722841 -0.102925
-0.00226771 -0.102738
-0.00447084 -0.0212274
-0.0023542 -0.0282513
-0.0101489 -0.0720265
-0.010701 -0.0767497
-0.0117045 -0.0918135
-0.0116351 -0.0939848
0.00343006 -0.0433516
0.00604395 -0.0517552
0.0050093 -0.104142
0.00593619 -0.104022
0.0120681 -0.0923518
0.0112423 -0.0956099
0.0010024 -0.0492167
0.000445341 -0.0462259
0.00224155 -0.104317
0.00247306 -0.104899
-0.000699346 -0.0841612
0.00268488 -0.0832747
0.00632279 -0.0270606
0.00745558 -0.0256285
-0.0028466 -0.100896
-0.00317548 -0.10134
-0.00836673 -0.101845
-0.00670158 -0.103857
-0.00840595 -0.102103
-0.00701455 -0.103798
0.00967867 -0.0795762
0.00949278 -0.0851034
-0.00218987 -0.090842
-0.00311312 -0.0859556
-0.00156012 -0.100411
-0.000847292 -0.100639
0.00352925 -0.0760044
-0.00143267 -0.0759175
0.0046884 -0.046766
0.00621124 -0.0585749
0.00888712 -0.0818765
0.00907111 -0.0864365
-0.0027128 -0.061773
-0.00330357 -0.0475923
0.00156871 -0.100272
0.00273573 -0.0997145
0.00409446 -0.105004
0.00433441 -0.104081
0.00565777 -0.0485889
0.00536805 -0.050355
0.00781795 -0.102541
0.00874252 -0.101475
-0.00885527 -0.0680604
-0.00800309 -0.0668813
-0.00545662 -0.0553349
-0.00679246 -0.0577881
-0.00945392 -0.100027
-0.00816303 -0.102162
0.0109817 -0.0937736
0.00987833 -0.0963656
-0.000347755 -0.100577
-0.000421288 -0.100493
0.00521544 -0.10485
0.00379586 -0.106601
0.00104792 -0.100486
0.000995559 -0.100521
-0.000227443 -0.100679
-0.00103095 -0.100556
0.00997807 -0.0976549
0.0100998 -0.0961496
-0.00959877 -0.0184825
-0.00850679 -0.0223249
0.00395392 -0.103889
0.00277177 -0.104393
-0.00372269 -0.0357359
-0.00235983 -0.0397975
0.00914318 -0.0851497
0.0102271 -0.0850329
-0.00418892 -0.0975263
-0.00312432 -0.0991141
0.00640725 -0.102592
0.00582693 -0.102304
-0.00187358 -0.0368464
-0.000419509 -0.0278748
-0.00335898 -0.0733476
-0.000110723 -0.0649979
-0.000394071 -0.10024
-0.000951616 -0.100287
-0.00703451 -0.100587
-0.00755794 -0.100955
0.00847738 -0.101895
0.0102064 -0.0991367
-0.0041061 -0.0831247
-0.00376761 -0.088418
0.00226637 -0.101313
0.00286295 -0.101711
0.00925377 -0.100113
0.00720439 -0.103126
-0.00443032 -0.100832
-0.00610754 -0.100075
0.0083076 -0.0172059
0.00951604 -0.0161674
0.0135893 -0.0879156
0.0131414 -0.0902318
0.00110023 -0.100492
-0.000525233 -0.100657
0.0116415 -0.0835804
0.011076 -0.0787778
0.00129326 -0.0429404
0.00254858 -0.0393577
-0.000333974 -0.0435323
-0.00302509 -0.0490698
-0.00156543 -0.10514
-0.000458321 -0.105949
0.00335965 -0.00501725
0.00546386 -0.0102043
0.00959592 -0.0155072
0.00844181 -0.0147696
-0.00442882 -0.105334
-0.00299443 -0.10585
-0.00447689 -0.100265
-0.00609912 -0.0991195
0.00861794 -0.0676839
0.00163726 -0.0679865
-0.000653449 -0.100783
-0.000132996 -0.100998
-0.00596404 -0.10001
-0.00563756 -0.0995159
-0.00689999 -0.0157538
-0.00684084 -0.0107824
-0.000901526 -0.100633
0.000344084 -0.10075
0.000190584 -0.100936
-0.000155742 -0.101275
-0.0125812 -0.0911032
-0.0119526 -0.0922222
-0.00878336 -0.10087
-0.00798658 -0.102223
-0.00645313 -0.0601907
-0.00757777 -0.0651455
-0.000487944 -0.0901362
0.000860462 -0.0935373
9.68153e-05 -0.10087
0.00114389 -0.100379
0.00402004 -0.100703
0.00566848 -0.10016
0.00563559 -0.0176476
0.00487815 -0.024392
-0.00322921 -0.0626991
-0.00537161 -0.0693024
0.00318495 -0.0344917
0.00263566 -0.0385142
0.00465357 -0.104577
0.00333278 -0.104926
0.00334563 -0.0904884
0.00762663 -0.0879168
0.00560454 -0.0951466
0.00447653 -0.0949715
0.000712141 -0.027074
0.0018052 -0.0302327
0.00150843 -0.106902
0.00102369 -0.105837
0.00944764 -0.0985467
0.0100336 -0.0984895
-0.00606931 -0.0972583
-0.0074023 -0.0963185
-0.00724433 -0.0603027
-0.00856938 -0.0645862
0.0141725 -0.0833964
0.012355 -0.0791684
0.000910624 -0.00634167
-0.00102134 -0.0204589
0.00398682 -0.10471
0.00422753 -0.105447
-0.00598131 -0.0621601
-0.00797924 -0.0679961
0.00422001 -0.0187561
0.00397262 -0.0124425
-0.000468863 -0.0992447
0.000191545 -0.100281
-0.00449654 -0.0574972
-0.00679286 -0.0645402
-0.0105166 -0.0769356
-0.00990476 -0.0711546
-0.0124814 -0.0814732
-0.0115146 -0.0775631
0.00851152 -0.0207613
0.0078731 -0.024288
0.00820428 -0.0961651
0.00681021 -0.0972152
-0.00464053 -0.0951844
-0.00232658 -0.0941125
-0.00719565 -0.0971279
-0.00562258 -0.0984362
-0.00407159 -0.0275284
-0.00100407 -0.0412668
-0.011463 -0.0963678
-0.0105523 -0.097981
0.00286383 -0.103351
0.003314 -0.103663
-0.0019997 -0.083847
0.000798094 -0.0873458
0.00546261 -0.054545
0.00790522 -0.0627882
-0.0105028 -0.0121354
-0.0102215 -0.0150641
-0.00846042 -0.0692765
-0.00497423 -0.0601346
-0.00270636 -0.0472526
-0.00468202 -0.0509565
0.00336806 -0.0933081
0.000475473 -0.0944012
0.00990757 -0.0724612
0.0067114 -0.0642211
-0.000763936 -0.103707
-0.00025228 -0.103335
-0.000752982 -0.105354
-0.00141239 -0.106299
-0.00629072 -0.0607839
-0.00793289 -0.0667836
-0.00563764 -0.0953969
-0.00416691 -0.0976025
0.0120016 -0.0786696
0.0131365 -0.0836015
-0.000233754 -0.103329
-0.000868979 -0.102911
-0.0115321 -0.0897456
-0.0106917 -0.0907854
-0.0153065 -0.0913868
-0.0135646 -0.0935238
-0.00569936 -0.027672
-0.00662265 -0.0273889
0.00415996 -0.00611434
0.00255362 -0.00374507
0.00314367 -0.0232695
0.00504422 -0.017101
0.00548776 -0.104913
0.00363108 -0.106655
-0.000831679 -0.00262459
-0.00106407 -0.00597302
-0.0132389 -0.0833723
-0.0116772 -0.0776551
0.00491602 -0.0458076
0.00267193 -0.036116
0.00563207 -0.030178
0.00486798 -0.0330122
0.00993756 -0.0991325
0.0127995 -0.0942963
0.010298 -0.0985737
0.0116407 -0.0964155
-0.00689006 -0.0544512
-0.00853906 -0.0633183
0.00112791 -0.0262783
-0.00154467 -0.0140943
0.0111038 -0.0974901
0.0122331 -0.0948045
-0.000124154 -0.0992855
0.000540181 -0.0975192
0.00317492 -0.0744303
-0.00174991 -0.0708956
0.00827122 -0.0635775
0.00662874 -0.0560987
0.00590955 -0.0129188
0.00457955 -0.0150713
0.00201679 -0.0942955
0.00181718 -0.0972128
0.0032882 -0.0294206
0.00120579 -0.0316439
-0.00945971 -0.0709189
-0.00678164 -0.0630799
-0.0107112 -0.0976804
-0.0111877 -0.0957105
0.000282156 -0.104778
0.00063778 -0.105044
0.0114968 -0.0945643
0.0105804 -0.097463
0.0075036 -0.102562
0.0107435 -0.0979229
0.000253933 -0.0878425
-0.00155846 -0.091218
0.00286293 -0.00365381
0.00538608 -0.00844872
0.0028503 -0.0276072
0.00351592 -0.0306232
-0.00125535 -0.00384808
-0.00280334 -0.00707149
-0.00879956 -0.101543
-0.00949336 -0.100442
0.00103363 -0.0457887
0.00380295 -0.0523679
-0.0160053 -0.0879373
-0.0147893 -0.0953206
0.000249728 -0.0430855
0.00168881 -0.0505176
0.000112526 -0.103116
-0.00136492 -0.103121
-0.000811976 -0.0430219
-0.00112838 -0.0433469
-0.00785288 -0.100362
-0.00636567 -0.10153
0.000885422 -0.0908394
-0.00153542 -0.0929963
-0.00660342 -0.0192348
-0.00515731 -0.0186769
-0.00725511 -0.0984502
-0.00561555 -0.0996936
0.00953 -0.0857828
0.0098423 -0.0889968
0.00801478 -0.0213415
0.00735871 -0.0255935
-1.95513e-05 -0.100719
0.000238412 -0.10067
0.00554627 -0.0488543
0.00754318 -0.05806
-0.00259283 -0.0152615
-0.00127454 -0.0152034
0.00661732 -0.101365
0.00573496 -0.101257
-0.00819031 -0.00802202
-0.00453282 -0.0038978
0.00405101 -0.0532181
0.00468928 -0.0573293
-0.00693152 -0.103392
-0.0101714 -0.0988617
-0.00841844 -0.0670318
-0.00716393 -0.0581369
-0.00467337 -0.105705
-0.00392558 -0.105556
-0.0093376 -0.0962803
-0.0103961 -0.0936319
-3.80438e-05 -0.100873
9.74354e-05 -0.100814
-0.00377611 -0.104308
-0.00382979 -0.105045
0.00623369 -0.0515766
0.00790645 -0.0600823
-0.0066395 -0.100786
-0.00664312 -0.101589
-0.00607687 -0.062978
-0.00370138 -0.0568307
-0.0108065 -0.0754333
-0.0110337 -0.0788887
-0.00270509 -0.0987665
-0.00397544 -0.0967161
0.00230721 -0.0920249
0.00511407 -0.0932752
-0.000399245 -0.105894
-0.000394811 -0.105009
-0.000421004 -0.100656
-0.000726421 -0.100648
0.0114993 -0.0965707
0.012206 -0.0940885
0.00458898 -0.0992423
0.00590222 -0.0978136
-0.0107801 -0.0815111
-0.0108923 -0.0774034
0.00892706 -0.0596072
0.0014475 -0.059345
0.00927536 -0.0866842
0.00917706 -0.090405
0.00159472 -0.0991318
0.00180681 -0.0971963
-0.00875526 -0.0972848
-0.00726551 -0.0988138
-0.00534843 -0.10264
-0.00605982 -0.101653
0.00554429 -0.100926
0.00682889 -0.100661
-0.00875203 -0.100504
-0.00833167 -0.100203
0.00478859 -0.102627
0.00474144 -0.103266
-0.0125858 -0.0924201
-0.0117257 -0.0958892
-0.000241985 -0.103861
-0.000505684 -0.104154
-0.00292752 -0.0949899
-0.00109351 -0.0966664
-0.00609596 -0.0611892
-0.0032211 -0.0539861
0.0106469 -0.0830424
0.0135643 -0.0770607
-0.0115213 -0.0964637
-0.0125932 -0.0933526
-0.00919342 -0.0999913
-0.00779409 -0.101866
-0.000612865 -0.10965
-0.0027252 -0.108135
-0.00933469 -0.0942587
-0.00957131 -0.0917084
-0.00318984 -0.0422665
-0.00245606 -0.0440016
0.0109854 -0.0854175
0.0105355 -0.0813447
0.0111763 -0.0765177
0.0119393 -0.0821414
-0.00291883 -0.101379
-0.00466036 -0.100774
-0.0128334 -0.0797475
-0.0098762 -0.0727681
-0.00613554 -0.0907792
-0.00446766 -0.0945624
0.00555609 -0.10037
0.00507229 -0.0999706
0.0104035 -0.0984489
0.0101236 -0.0990328
0.00101514 -0.0338057
0.00351868 -0.0292581
-0.0107543 -0.0739659
-0.0107994 -0.0812517
-0.00344272 -0.10516
-0.00347193 -0.104399
0.00488494 -0.094993
0.00652291 -0.092826
-0.0123387 -0.092539
-0.0119289 -0.0920283
-0.00697785 -0.100236
-0.00679317 -0.0994991
-0.00854731 -0.0188087
-0.00851718 -0.0218416
0.00172478 -0.0829185
-0.000789413 -0.0782614
-0.00539099 -0.0994751
-0.00699643 -0.0980078
-0.00810339 -0.0984634
-0.00653897 -0.0997978
-0.00248925 -0.00482248
-0.00280387 -0.00929387
-0.000481395 -0.0614396
0.00118127 -0.0724534
0.00170884 -0.0737932
0.00358903 -0.0651985
0.00100683 -0.0151931
-0.00126042 -0.0263881
-0.00243491 -0.103182
-0.00116634 -0.103479
0.00897969 -0.0786885
0.0085792 -0.0845451
-0.00235582 -0.0356281
0.000710243 -0.0269105
0.018681 -0.0903022
0.0139839 -0.0806901
-0.000623559 -0.100089
-0.000183483 -0.100779
-0.00825686 -0.00847043
-0.0070929 -0.00858841
-0.00625658 -0.0205413
-0.00498334 -0.0273316
-0.00577491 -0.0265056
-0.00579229 -0.029722
0.00500945 -0.0704341
0.00573143 -0.0609486
-0.00304548 -0.0980695
-0.00157239 -0.0996784
-0.00160006 -0.026669
-0.00288822 -0.0419584
-0.00387647 -0.100652
-0.00537856 -0.100297
0.010516 -0.0731999
0.0105828 -0.0753557
0.0169159 -0.0866833
0.0135323 -0.0805695
0.000943371 -0.0477644
0.00405447 -0.0561584
0.00862289 -0.101337
0.00731852 -0.102657
-0.00292549 -0.0532936
-0.000823349 -0.0458922
-0.00149329 -0.104226
-0.00246389 -0.103955
-0.00187733 -0.104414
-0.00122045 -0.104256
-0.0050587 -0.106026
-0.00310737 -0.107762
0.00125739 -0.0190328
-0.00105979 -0.0293428
-0.0107684 -0.0955319
-0.0117272 -0.092561
0.0132752 -0.0874389
0.0136275 -0.0859064
-0.0120314 -0.09568
-0.0124438 -0.0940344
-0.00484409 -0.0945316
-0.00640986 -0.0959992
0.00117465 -0.0235601
-0.00118554 -0.00872651
0.0109108 -0.0946426
0.00985655 -0.0972886
-0.0045489 -0.0937356
-0.00268092 -0.0912372
-0.00147414 -0.0769276
-0.00276543 -0.0827894
-0.00318961 -0.00368958
-0.000227083 -0.000261896
-0.00560727 -0.101958
-0.00470873 -0.101811
0.0103253 -0.0987265
0.00839074 -0.101876
-0.0125044 -0.0817641
-0.0115468 -0.0778639
-0.004319 -0.0343656
-0.00177953 -0.0413719
0.0100653 -0.0731344
0.00942091 -0.073488
0.00797778 -0.102189
0.00900151 -0.100416
0.0108099 -0.097858
0.0121108 -0.0955698
-0.00855555 -0.101911
-0.00998372 -0.0995718
-0.00209245 -0.00583304
-0.000505214 -0.00164242
-0.00103099 -0.100598
-0.000525882 -0.100762
0.00377199 -0.0837219
0.00157913 -0.0804237
0.00367043 -0.107896
0.0049472 -0.106375
-0.00341444 -0.0975503
-0.00377011 -0.0951492
-0.0100221 -0.0992899
-0.0128577 -0.0947425
0.000757408 -0.105078
0.00194237 -0.105417
0.00203109 -0.0410894
0.00471244 -0.0477972
0.00809857 -0.0147936
0.00797674 -0.0106761
-0.0130511 -0.0940238
-0.0140247 -0.0895439
0.00609016 -0.0938117
0.00697417 -0.0941838
0.0077792 -0.070302
0.00878961 -0.0764492
-0.000766962 -0.103797
-0.00182747 -0.103851
-0.0119615 -0.0773284
-0.00905589 -0.0708236
0.00149771 -0.0214541
0.00280454 -0.0365418
-0.000291172 -0.100525
-0.00143071 -0.0999992
0.00712541 -0.0628993
0.00916057 -0.0683553
-0.0104765 -0.0130558
-0.00922639 -0.0122593
0.000138814 -0.0189895
-0.000323483 -0.0226936
-0.00241165 -0.106204
-0.00155583 -0.10781
0.00993479 -0.0910671
0.0086846 -0.0927347
0.00176205 -0.00166715
0.00504447 -0.00580032
0.000162307 -0.104113
0.000348332 -0.103801
-0.00300142 -0.0963675
-0.00184228 -0.0985056
0.00472382 -0.0895741
0.00621002 -0.0857009
-0.00159535 -0.104516
-0.000750457 -0.104735
-0.0101416 -0.0173309
-0.010748 -0.0141946
0.00190904 -0.0168008
0.00197802 -0.00843418
0.000524721 -0.106652
0.00116017 -0.107601
-0.0059092 -0.104373
-0.00556115 -0.105292
0.0112215 -0.0972026
0.0106174 -0.098506
-0.00632341 -0.104476
-0.00705403 -0.103909
0.0160922 -0.086722
0.0121329 -0.0757107
-0.00182272 -0.104866
-0.00193074 -0.105711
0.0036099 -0.043867
0.00498587 -0.0482687
-0.00795889 -0.0661787
-0.0101325 -0.0721862
0.00627393 -0.104632
0.00409267 -0.107082
0.00904966 -0.0664086
0.00695539 -0.0587879
-0.00997553 -0.012282
-0.00867119 -0.0115253
0.00139159 -0.101877
2.33167e-06 -0.101704
-0.004998 -0.0603122
-0.00793813 -0.0679071
0.00546902 -0.0861217
0.00684113 -0.0813523
0.00180292 -0.100905
0.0028946 -0.100318
-0.0110829 -0.0914217
-0.0101527 -0.0923263
-0.0056413 -0.10091
-0.00449138 -0.101989
0.00901809 -0.100532
0.00777909 -0.101739
-0.00400051 -0.103105
-0.00366444 -0.102675
-0.00275251 -0.0556671
-0.00806391 -0.0666021
0.00785959 -0.0645097
0.00649881 -0.0639892
-0.00801428 -0.100715
-0.00663897 -0.102109
0.00768544 -0.0698329
0.00783992 -0.0626824
0.000930634 -0.104427
0.00121968 -0.104629
0.00902209 -0.0794974
0.00965872 -0.0837496
-0.00223653 -0.00441109
-0.00059007 -0.0014566
-0.0083112 -0.0624463
-0.00956363 -0.0703241
-0.00476584 -0.0157429
-0.00394073 -0.0229008
-0.00124693 -0.0869012
0.00163455 -0.0889022
-0.0026345 -0.0999199
-0.001063 -0.100577
0.00435445 -0.0767944
0.00413828 -0.0686547
0.00408911 -0.0459938
0.00294317 -0.0363193
-0.000509871 -0.100538
0.000259138 -0.100686
0.00824621 -0.0821529
0.00651316 -0.0804791
-0.00637512 -0.00565839
-0.00584241 -0.00586137
-0.00247355 -0.106107
-0.00265486 -0.105075
0.00539899 -0.0990989
0.00710098 -0.0976614
0.00117124 -0.101898
-0.000321081 -0.102361
-0.00503122 -0.102674
-0.00362621 -0.10297
0.000102931 -0.104495
-0.000294688 -0.104429
0.00223326 -0.0586344
0.0054671 -0.0577825
0.00363912 -0.102796
0.00484036 -0.102016
-0.00214999 -0.101373
-0.000711597 -0.101805
-0.00433723 -0.104155
-0.00357496 -0.105107
0.00227214 -0.100482
0.00314433 -0.0998962
-0.00106835 -0.01197
-0.000467177 -0.00203068
0.000674031 -0.10403
0.000428481 -0.103755
0.00103316 -0.103697
0.00218009 -0.103549
-0.00784294 -0.0646869
-0.00619563 -0.063521
-0.0016929 -0.100385
-0.000484028 -0.100656
0.00362331 -0.107951
0.00446868 -0.10691
-0.00149746 -0.100834
-0.000465183 -0.10118
0.0127215 -0.0924746
0.0118877 -0.0948151
-0.00885912 -0.0131173
-0.00971977 -0.0116336
0.0105053 -0.098314
0.00854679 -0.101024
0.0104474 -0.0857427
0.00986774 -0.0900221
0.0108611 -0.082721
0.0107572 -0.0773542
-0.00758291 -0.0624266
-0.00850164 -0.0667269
0.00529214 -0.101306
0.00528937 -0.100552
0.00236777 -0.099207
0.00134761 -0.0995724
0.00408858 -0.0991574
0.00264894 -0.0998992
-0.00566712 -0.087685
-0.00128522 -0.0874961
0.0066886 -0.00809516
0.00887161 -0.011662
0.0057834 -0.0981358
0.00694383 -0.0976287
-0.00569674 -0.0996807
-0.00430191 -0.100071
-0.00873237 -0.0973266
-0.0099243 -0.0961447
-0.00530416 -0.0314994
-0.0035056 -0.0364336
-0.0116062 -0.0954464
-0.0108775 -0.0964048
0.0024133 -0.102878
0.0025302 -0.102255
0.00318207 -0.00644862
0.00488928 -0.00981746
0.00687879 -0.103733
0.00395238 -0.107484
-0.00339041 -0.106834
-0.00424203 -0.105403
-0.00633512 -0.0520313
-0.00672325 -0.0567422
9.17805e-06 -0.104534
0.000184456 -0.104574
-0.000664338 -0.0379478
-0.00133644 -0.0319407
-0.0101207 -0.0719237
-0.0112445 -0.0770462
-0.00131333 -0.105052
-0.000668923 -0.10606
0.00115677 -0.029057
0.00357586 -0.0236313
-0.00279279 -0.00311824
-0.0031862 -0.00295473
-0.00691543 -0.0619822
-0.00424341 -0.0539014
-0.000273066 -0.000495384
-0.000173199 -0.000207565
0.0152297 -0.091465
0.0145792 -0.0900661
-0.00170568 -0.0350403
0.000911711 -0.0435501
0.0102693 -0.0820963
0.00788045 -0.0869041
-0.0122866 -0.0861327
-0.0122804 -0.0901074
-0.00136011 -0.102246
-4.28781e-05 -0.101832
0.0119637 -0.0933731
0.0125033 -0.0897102
-0.012709 -0.0833001
-0.0117089 -0.0784155
0.00139562 -0.0421962
0.00248232 -0.0397779
-0.00143123 -0.0982988
-0.00128058 -0.0998578
0.0040686 -0.106907
0.0024264 -0.108043
0.000288356 -0.103561
-1.46778e-05 -0.103166
0.0100933 -0.0975043
0.00875852 -0.0993454
-0.000982635 -0.10064
-0.000145177 -0.100768
0.00138895 -0.100464
0.00212573 -0.100137
-0.00334096 -0.103266
-0.00202184 -0.103596
0.0124839 -0.0908634
0.0119648 -0.0943606
0.00912678 -0.100258
0.00770678 -0.102267
0.00614571 -0.029154
0.0062113 -0.0288906
-0.00738381 -0.0108127
-0.00857447 -0.0148919
0.00899018 -0.100938
0.0100533 -0.0988923
-0.00809976 -0.10139
-0.00671872 -0.102959
0.00769064 -0.0683108
0.0133334 -0.0598127
-0.0123579 -0.086999
-0.0119479 -0.0830052
-0.00205953 -0.0374864
0.00100249 -0.0454892
-0.000622463 -0.100481
0.000199922 -0.100681
-0.00187954 -0.0193547
9.83827e-05 -0.0282998
-0.00426517 -0.0325213
-0.0054052 -0.0262865
0.0096295 -0.0995528
0.0082947 -0.101726
-0.00586222 -0.101699
-0.00510171 -0.102666
-0.0111669 -0.0760903
-0.0127737 -0.0814129
0.00538641 -0.0263838
0.00779365 -0.0226899
-0.00284398 -0.0448351
-1.90071e-05 -0.0381528
0.00952256 -0.0998889
0.0108476 -0.0973246
0.00922873 -0.0139726
0.00896008 -0.0185825
0.00449757 -0.0334442
0.0065695 -0.0267421
0.00787097 -0.102674
0.0101539 -0.0992558
0.00866609 -0.0658067
0.0131555 -0.0789425
0.00975117 -0.0698528
0.00873274 -0.0654129
0.0107187 -0.0900563
0.00961975 -0.0930128
-0.0119965 -0.0804012
-0.0120705 -0.083834
-8.97736e-05 -0.101393
0.000234812 -0.101849
0.00813153 -0.0645344
0.00934105 -0.0694489
0.00795606 -0.012845
0.00800644 -0.0180088
0.000191899 -0.104557
0.000443005 -0.104429
-0.0044818 -0.103812
-0.00586732 -0.103195
-0.00784353 -0.0796822
-0.00597159 -0.084075
-0.00751228 -0.0593196
-0.00853055 -0.0682191
-0.00309951 -0.10456
-0.00257948 -0.105379
-0.000854493 -0.0385011
0.00104314 -0.0296996
-0.00460314 -0.0236866
-0.00568475 -0.0167752
0.00114774 -0.104134
0.00209127 -0.103948
-0.00152661 -0.0287017
-0.00290398 -0.041898
-0.0111529 -0.0974846
-0.0132439 -0.0929725
-0.000286974 -0.1012
0.00157815 -0.10094
0.00124737 -0.0442339
0.00347244 -0.0483635
-0.00434104 -0.0408412
-0.00699949 -0.057787
0.00238279 -0.0337589
0.00289146 -0.0373535
0.00812137 -0.0976363
0.00945962 -0.0964516
0.00500001 -0.103163
0.00601127 -0.103062
0.0108312 -0.074416
0.00845715 -0.0671999
-0.00103146 -0.0989254
-0.000925068 -0.100251
0.00697799 -0.103677
0.00691254 -0.10326
-0.00223917 -0.104241
-0.00319294 -0.104394
-0.00400375 -0.0960934
-0.00477716 -0.0930258
0.00193167 -0.00556566
0.0017541 -0.00937388
-0.00263598 -0.103123
-0.00144405 -0.103494
0.00657562 -0.104419
0.00665856 -0.104115
-0.0044647 -0.102093
-0.00460937 -0.101316
-0.0104161 -0.0731513
-0.0118357 -0.0792488
0.00670457 -0.102399
0.0058025 -0.103664
-0.0110157 -0.0971352
-0.0100783 -0.098701
0.000735695 -0.102372
-0.000189789 -0.101939
-0.00907473 -0.0915549
-0.00998323 -0.0915954
0.00847994 -0.0990241
0.00708079 -0.0999802
0.000751958 -0.100386
0.000972627 -0.0997944
0.0119811 -0.0780009
0.009056 -0.0704398
0.00798291 -0.102572
0.00773912 -0.102907
-0.00856055 -0.101049
-0.00864991 -0.1002
0.00239424 -0.0356278
-0.0001643 -0.0439616
-0.0075746 -0.102672
-0.00685413 -0.103913
-0.0109071 -0.0132661
-0.0103281 -0.0163747
0.00337867 -0.0386541
0.00134486 -0.0294182
0.0122856 -0.0859026
0.0122848 -0.0822907
-0.000230669 -0.100747
-0.000838309 -0.10005
0.00186778 -0.0936823
0.0015748 -0.0902528
-0.000800244 -0.0421631
-0.00353829 -0.0340138
0.00660959 -0.103053
0.00602202 -0.104237
-0.00499805 -0.0468552
-0.00282546 -0.0360642
0.00262496 -0.105099
0.0039831 -0.104557
0.000836638 -0.10011
0.000112598 -0.100798
0.00673103 -0.100308
0.00796215 -0.0998533
0.00849798 -0.0983719
0.00837462 -0.0995862
0.00910409 -0.096706
0.010331 -0.0952112
-0.00127602 -0.0740779
-0.000230622 -0.0811658
-0.01156 -0.0960629
-0.0125234 -0.0933373
0.00746122 -0.0576481
0.00778352 -0.0639051
0.003053 -0.107128
0.00374537 -0.105723
0.0118685 -0.0808497
0.0121882 -0.0806597
-0.00399891 -0.00422017
-0.000416604 -0.000412475
0.00762489 -0.00993565
0.00911857 -0.0103421
-0.00237915 -0.100183
-0.00110225 -0.100544
-0.000565953 -0.104496
-0.00011965 -0.104589
0.00714209 -0.00866843
0.0046108 -0.00547913
0.0113176 -0.0850453
0.0114311 -0.0805815
0.00336391 -0.097143
0.00140495 -0.0968101
0.00912943 -0.0189709
0.00838191 -0.0173164
0.00020522 -0.0985167
-0.000115822 -0.100087
0.000272871 -0.104107
0.000706948 -0.10424
0.00552461 -0.0997688
0.00384326 -0.100402
0.0116886 -0.0785052
0.010734 -0.074136
-0.0100044 -0.0993622
-0.0111352 -0.0966286
0.00296352 -0.0455606
0.00557385 -0.053518
0.0109045 -0.0610032
0.00993906 -0.0699726
-0.00842562 -0.0965436
-0.00756952 -0.0965985
-0.0112305 -0.076391
-0.0120353 -0.0792005
0.0134816 -0.0888401
0.0137515 -0.0899604
0.0148823 -0.083851
0.0155566 -0.0914254
-0.0032253 -0.0326248
-0.000889412 -0.0406723
-0.0109184 -0.0901587
-0.010663 -0.0873097
-0.00996781 -0.0717208
-0.00885666 -0.0694937
0.00565943 -0.0614589
0.00704216 -0.065474
0.00577277 -0.0521041
0.00310534 -0.0445099
0.00104092 -0.104352
0.00151522 -0.104497
-0.00560246 -0.103497
-0.00578623 -0.10272
-0.000516627 -0.10534
-0.0010756 -0.106397
0.00488978 -0.103124
0.00377509 -0.103179
-0.0039929 -0.101575
-0.00245422 -0.101666
-0.00523222 -0.105493
-0.00479336 -0.105233
-0.00116975 -0.0681467
-0.00334887 -0.0553087
0.00127725 -0.0124683
0.000548036 -0.00303151
-0.000764266 -0.0950748
-0.00170659 -0.0970233
0.0103874 -0.0868621
0.0111691 -0.087779
0.00398465 -0.10179
0.00353532 -0.102554
0.00950402 -0.0186438
0.0105902 -0.0159779
-0.0105102 -0.0741482
-0.0103 -0.0757158
-0.0128908 -0.0931163
-0.0113983 -0.0971009
-0.000164371 -0.104806
-0.000739098 -0.104688
-0.00567599 -0.0941452
-0.00595736 -0.0905724
-0.0113018 -0.0803644
-0.0108038 -0.0754405
0.00168545 -0.10455
0.00113972 -0.104369
0.00319301 -0.00645619
0.00418532 -0.0129797
0.00927584 -0.0697144
0.00707422 -0.06265
0.00855341 -0.100977
0.0119113 -0.0963633
0.00771529 -0.102927
0.00578931 -0.1053
-0.000381762 -0.0923236
0.00132815 -0.0949635
0.00697176 -0.0998586
0.00630682 -0.101088
0.000404448 -0.0896531
0.000133436 -0.0935359
-0.000602229 -0.0938651
0.00205417 -0.0924412
-0.00833882 -0.101698
-0.00801734 -0.102432
0.00235175 -0.100435
0.00158865 -0.100462
-0.00213851 -0.0418712
-0.00468343 -0.0485878
0.00203494 -0.0426451
0.00402076 -0.0507848
0.00077627 -0.103875
0.00120322 -0.104063
-0.00965388 -0.0904337
-0.00851804 -0.091025
0.00295963 -0.103722
0.00264396 -0.104204
-0.00286102 -0.0996999
-0.00242403 -0.100193
0.01347 -0.089142
0.0129915 -0.0897189
0.00787807 -0.0607048
0.00562981 -0.0532945
0.00785634 -0.014366
0.0070061 -0.0200081
0.0102275 -0.0981156
0.0101986 -0.0970889
-0.0113505 -0.0943952
-0.0109177 -0.0967075
0.0043132 -0.00350373
0.00681232 -0.00699772
-0.00892991 -0.0839535
-0.00936816 -0.0779275
-0.011384 -0.0766
-0.00964295 -0.0704367
0.00717505 -0.0925557
0.00798079 -0.0887369
-0.00535402 -0.076688
-0.00279659 -0.0742166
0.0103669 -0.0883542
0.00930044 -0.088876
0.00991928 -0.0982496
0.00964141 -0.097586
-0.00764552 -0.0664846
-0.00886311 -0.0624346
-0.00806305 -0.0681573
-0.00668691 -0.0646701
0.00437784 -0.0927203
0.0057456 -0.0889941
-0.005266 -0.10495
-0.00550327 -0.10404
-0.00641437 -0.0904323
-0.00481485 -0.0866291
-0.0054644 -0.105879
-0.00249587 -0.109412
0.00652579 -0.080203
0.00123161 -0.0809245
-0.00965618 -0.0734796
-0.00886413 -0.0760104
-0.00827398 -0.100102
-0.00938474 -0.0992293
-0.00327345 -0.0936471
-0.000555212 -0.0927962
0.00257121 -0.0999708
0.00136375 -0.100402
0.00541847 -0.103537
0.0046353 -0.104686
0.00658246 -0.0150193
0.0057818 -0.00951652
0.00234388 -0.0375346
0.00147819 -0.0424666
-0.00407457 -0.0991812
-0.00384698 -0.0988345
0.00942114 -0.0685521
0.00979458 -0.0707233
0.00921164 -0.0847733
0.00910788 -0.0890118
-0.00734372 -0.103596
-0.00945283 -0.100526
-0.00419307 -0.104541
-0.00339501 -0.105661
0.0113472 -0.0968507
0.0111141 -0.0968088
0.0101557 -0.0745319
0.00911567 -0.0673383
-0.00434567 -0.0934013
-0.00285655 -0.0903709
0.0138297 -0.0844725
0.0119114 -0.0780253
0.00419716 -0.0542539
0.00745472 -0.0412949
-0.00295454 -0.108879
-0.00348557 -0.108199
-0.00167196 -0.104583
-0.00124993 -0.104343
0.00621327 -0.0630539
0.00732213 -0.0707033
0.00481554 -0.0476945
0.00558413 -0.0483818
-0.00328523 -0.10848
-0.00240974 -0.109461
0.00710507 -0.103574
0.005576 -0.105037
0.0016583 -0.101151
0.00106751 -0.101715
-0.00296381 -0.036193
-0.000504247 -0.0269083
-0.00642832 -0.0526243
-0.00744335 -0.0572864
-0.0099029 -0.0994753
-0.0107123 -0.0973313
-0.00808534 -0.0635996
-0.00750496 -0.0631561
-0.0143051 -0.0927205
-0.0101856 -0.0995516
-0.00814553 -0.101197
-0.00866551 -0.0998463
0.00555083 -0.0807269
0.00632308 -0.0734512
0.00187872 -0.109263
0.00133807 -0.109048
0.0139046 -0.0866613
0.0134612 -0.087508
0.00354627 -0.100824
0.00194091 -0.101042
0.0121179 -0.0955893
0.0134415 -0.0919332
-0.00436117 -0.0841591
-0.00177877 -0.08366
0.00599087 -0.0915972
0.00890575 -0.0871626
0.000867414 -0.0051809
6.76832e-05 -0.0185664
0.000535245 -0.105025
0.000464179 -0.10641
-0.00638671 -0.0992027
-0.00675169 -0.0997333
0.00700776 -0.0653476
0.0101415 -0.0731994
-0.00862597 -0.0216854
-0.00826183 -0.0224422
-0.00605422 -0.0625092
-0.00588133 -0.0605388
-0.000961763 -0.00109548
-0.000318298 -0.000295286
-0.010662 -0.0744659
-0.0114617 -0.0798967
-0.000671622 -0.10066
-8.12634e-05 -0.100976
-0.000661214 -0.0981236
-0.000804342 -0.0997503
-0.00396443 -0.0931271
-0.00148414 -0.091145
-0.00987206 -0.0130642
-0.0105959 -0.0117531
0.0041352 -0.0294952
0.00331595 -0.0352475
0.00393475 -0.0943338
0.00411298 -0.0908672
-0.000527381 -0.0970758
0.00056978 -0.0987538
0.0119434 -0.0779231
0.0107895 -0.0745489
0.000377309 -0.100531
0.000510121 -0.0994382
0.00631498 -0.0145057
0.00779148 -0.0143319
0.0062238 -0.00805186
0.00389136 -0.00506331
0.00073167 -0.000643401
0.00378785 -0.00319851
0.0144854 -0.0846179
0.0138575 -0.0844156
-0.00340129 -0.0913389
-0.00492175 -0.0926475
0.000450323 -0.0271288
-0.00183812 -0.0163335
-0.00121762 -0.10996
-0.00233964 -0.108255
-0.00293717 -0.0356411
-0.000412191 -0.0258243
0.00565556 -0.0307853
0.00476723 -0.0320344
-0.00197414 -0.0952362
1.48765e-05 -0.0955011
0.0135921 -0.0864559
0.0133222 -0.0897288
0.0033445 -0.108272
0.00583146 -0.105345
0.00666038 -0.0541816
0.00844078 -0.0630381
-0.00604088 -0.0259646
-0.00559331 -0.0223237
0.00165599 -0.108141
0.00353111 -0.106282
-0.00847465 -0.101547
-0.00832758 -0.102125
0.00701136 -0.0583792
0.00593348 -0.0611148
-0.00914256 -0.0709156
-0.00803076 -0.0674963
0.00264162 -0.00456827
0.00451146 -0.00775931
-0.000347104 -0.103972
-0.00110042 -0.104123
-0.000565406 -0.0324787
-0.00240089 -0.0334224
-0.00772577 -0.0881213
-0.00915758 -0.0874426
-5.69651e-05 -0.0978305
-0.00167598 -0.0975249
0.000479723 -0.1002
0.00145899 -0.0990489
0.00267166 -0.103487
0.00275744 -0.103872
0.00671701 -0.0226366
0.00816681 -0.017169
0.00871691 -0.0650385
0.0103143 -0.0722501
0.00598635 -0.0510243
0.00448559 -0.0456497
-0.00585861 -0.10258
-0.00509249 -0.103515
-0.00318935 -0.0986493
-0.00369291 -0.0967835
-0.0118689 -0.0784976
-0.0101248 -0.0722065
-0.00751269 -0.103109
-0.00904989 -0.100869
0.00311037 -0.0622567
-0.000623983 -0.0699071
-0.00432438 -0.0963041
-0.0052822 -0.0965382
-0.00198825 -0.0972611
-0.00352622 -0.095291
-0.00128685 -0.100568
-0.00298963 -0.100011
-0.000260589 -0.10357
0.000969285 -0.103493
0.00186331 -0.100508
0.00267243 -0.10054
0.0104294 -0.0729539
0.0118203 -0.0783501
0.0011595 -0.00780941
-0.000667893 -0.01466
0.00696808 -0.00789178
0.00897824 -0.0117976
0.000683079 -0.103928
0.000999528 -0.104135
0.00991671 -0.0716026
0.0104672 -0.0731222
-0.00124484 -0.0497859
-0.004499 -0.0586209
-0.00191753 -0.0983922
-0.000929594 -0.0999098
-0.00245209 -0.101283
-0.00397393 -0.101159
-0.00404119 -0.0398915
-0.00132751 -0.0294025
-0.00163821 -0.0372223
0.00113156 -0.0428647
-0.000277025 -0.104641
-0.000692049 -0.104459
0.000230338 -0.10061
-2.79451e-05 -0.100818
-0.00156726 -0.103961
-0.000569771 -0.104052
0.000163834 -0.0434618
0.00168851 -0.0394613
0.00937408 -0.067113
0.00834218 -0.0545243
0.000140425 -0.104521
0.000406505 -0.104496
0.00427586 -0.098626
0.00282783 -0.0998539
0.00275358 -0.108636
0.00502795 -0.106261
-0.0173145 -0.089232
-0.0137621 -0.0811362
-0.00541398 -0.0614495
-0.00234384 -0.0529714
0.000992512 -0.0020491
0.00200323 -0.00280829
-0.00934227 -0.100072
-0.0132701 -0.0947332
0.0122225 -0.0948354
0.0126796 -0.0928353
0.00148999 -0.10403
0.000752166 -0.104261
0.0108941 -0.0976936
0.0115168 -0.0965601
-0.00847754 -0.0209838
-0.00967473 -0.0163387
0.00791617 -0.0873016
0.00625757 -0.089369
0.000860441 -0.109635
0.00273716 -0.10747
0.00934766 -0.0703898
0.0111607 -0.0755116
0.00202691 -0.0509861
0.00162323 -0.0510285
-2.65536e-05 -0.100976
-0.000133203 -0.100676
0.00176357 -0.101778
0.00343784 -0.10119
0.00762739 -0.0955289
0.00603868 -0.0973569
0.00178529 -0.0983722
0.00314414 -0.0962957
-0.00872262 -0.101388
-0.0106089 -0.098361
0.00215921 -0.0943705
0.00407961 -0.0935038
-0.00527101 -0.106144
-0.00760849 -0.103232
-0.00440648 -0.0939669
-0.0044157 -0.0963453
0.00974923 -0.0187405
0.00882837 -0.0194186
0.00461636 -0.0997626
0.00636024 -0.098627
-0.00118931 -0.104255
-0.00202458 -0.104334
-0.00758986 -0.0669635
-0.00965061 -0.0719322
-0.0104348 -0.0139183
-0.00923122 -0.0129802
0.0017468 -0.017019
0.00314552 -0.0150866
0.00774638 -0.0912742
0.00707866 -0.094276
0.00133829 -0.0987314
0.00279872 -0.096942
0.0128806 -0.0822287
0.0135179 -0.0873841
0.0050956 -0.0999461
0.00345068 -0.100469
0.00358385 -0.0552157
0.00566871 -0.0616726
0.00278564 -0.0353456
0.00199803 -0.0318137
0.00619307 -0.0630097
0.00271971 -0.0533548
0.000122926 -0.104007
0.000666766 -0.103687
0.00390173 -0.0528718
0.00752732 -0.0572156
0.00287284 -0.106565
0.00180008 -0.10828
0.00091035 -0.0480984
-0.00211503 -0.0401977
0.00507754 -0.0600246
0.00288357 -0.0545234
-0.00271455 -0.0509566
-0.00131624 -0.044433
0.00838481 -0.0209885
0.00834819 -0.0230267
-0.00899657 -0.101118
-0.00649027 -0.104395
-0.00464175 -0.00466495
-0.00602511 -0.00538253
0.0103603 -0.0735924
0.00778631 -0.0650306
-0.00566943 -0.0103577
-0.00718251 -0.0140645
0.00402182 -0.0252103
0.00428426 -0.0190446
-0.000608504 -0.100657
5.31801e-05 -0.100669
0.00204459 -0.027487
-0.0063064 -0.0305476
0.00504351 -0.106221
0.00466344 -0.106476
-0.00970244 -0.0163361
-0.0106594 -0.0153066
-0.0128942 -0.0895282
-0.0123283 -0.0933023
-0.00100494 -0.10056
0.000338695 -0.100644
0.00740374 -0.00917275
0.00934149 -0.0111703
0.00143348 -0.00158983
0.00226372 -0.00308011
-0.00344494 -0.101083
-0.00498344 -0.10079
-0.00356926 -0.00321317
-0.00709806 -0.00687701
0.0035814 -0.107995
0.00436937 -0.106967
0.0118646 -0.0957442
0.0102778 -0.0990836
-0.0066129 -0.103276
-0.00674907 -0.102476
0.00200819 -0.103545
0.00207435 -0.103092
-0.00391469 -0.103872
-0.00277401 -0.104364
0.0049084 -0.0982967
0.00523929 -0.097086
0.000904602 -0.100539
0.00136655 -0.100355
0.00625007 -0.00864607
0.00704382 -0.0130971
-0.00100728 -0.0228933
-0.00277131 -0.0141629
0.0108938 -0.0964497
0.0106755 -0.0955199
0.000176806 -0.104379
5.95432e-05 -0.104549
-0.00091722 -0.100616
0.000377156 -0.100695
-0.000305571 -0.0864275
0.00278589 -0.0852906
0.00696059 -0.0155248
0.00655722 -0.0215858
-0.000727108 -0.10458
-0.000955313 -0.104332
0.00410936 -0.0546947
0.0053204 -0.0558946
-0.0033695 -0.0194548
-0.00364181 -0.0122028
0.0110723 -0.0975039
0.0111962 -0.0971739
-0.00742329 -0.101241
-0.00599227 -0.102366
0.000314567 -0.0473911
0.00351526 -0.0560479
0.00607418 -0.0275349
0.0111515 -0.0476519
-0.00710537 -0.0986175
-0.00564436 -0.0993839
-0.0120591 -0.0912338
-0.0112323 -0.0936998
0.00277737 -0.100212
0.00215419 -0.100225
-0.00226101 -0.0347211
-0.001583 -0.0506912
0.0011999 -0.100442
-9.62995e-05 -0.100677
0.0038139 -0.0327498
0.00600766 -0.0257187
0.0148718 -0.0678409
0.00969937 -0.0547778
-0.000893208 -0.104643
-0.00184976 -0.104493
0.00414482 -0.0779484
0.00631892 -0.0834285
0.00885761 -0.0659117
0.00913457 -0.0669046
-0.00534203 -0.105537
-0.00679597 -0.103522
-0.000280641 -0.100501
0.000215017 -0.10075
0.00385381 -0.0835062
0.00551374 -0.0882634
-0.00149225 -0.100261
-0.000791364 -0.100451
-0.00195365 -0.0388965
-0.00245713 -0.0393954
-0.00134849 -0.0979376
0.000164967 -0.0984297
-0.00439667 -0.0991952
-0.0060688 -0.097828
-0.00759319 -0.0965908
-0.00599881 -0.0982368
0.0122918 -0.0906265
0.0126006 -0.0866111
0.000315879 -0.0954197
0.0012683 -0.091896
-0.00169968 -0.00772904
-0.000584025 -0.00954463
0.00527494 -0.0995272
0.00694428 -0.0984652
-0.00478505 -0.0322877
-0.00205218 -0.0394541
0.00425453 -0.0454867
0.00513362 -0.0460317
-0.00575126 -0.104894
-0.00443084 -0.105673
0.00178059 -0.103942
0.00106194 -0.104227
-0.0104319 -0.0789077
-0.00993587 -0.0726921
0.00486658 -0.0108043
0.00633747 -0.0136685
2.26522e-05 -0.100666
0.0013288 -0.100574
-0.00314556 -0.103495
-0.00252821 -0.103978
-0.011726 -0.077796
-0.0134978 -0.0840214
-0.00185383 -0.0937721
-0.000530812 -0.0964041
-0.00125056 -0.104381
-0.00227151 -0.104276
-0.00133478 -0.104379
-0.00237651 -0.104237
0.00896813 -0.066311
0.00749885 -0.057744
0.0122587 -0.0780466
0.0156155 -0.085022
-0.00191648 -0.100253
-0.000870398 -0.100625
0.00369466 -0.106779
0.00306054 -0.106504
0.00326126 -0.0408838
0.00561979 -0.0501433
-0.00395607 -0.104632
-0.00511815 -0.10448
0.0108613 -0.0943811
0.0114169 -0.0944488
0.0111662 -0.0862933
0.0112615 -0.0898733
-0.0124629 -0.0903389
-0.0120164 -0.0938905
0.00567006 -0.0924688
0.00466037 -0.0956157
0.000335543 -0.104539
0.000701198 -0.104446
-0.0077222 -0.0728696
-0.00915501 -0.075674
0.0109245 -0.0139811
0.0099205 -0.0133366
0.00781021 -0.0226406
0.00673623 -0.0274118
-0.00278696 -0.0960383
-0.00441289 -0.0954366
-0.00336887 -0.0995457
-0.00459239 -0.0990042
-0.00128022 -0.104114
-0.00224557 -0.10414
-0.00636126 -0.00719501
-0.00544138 -0.00736039
-0.00344955 -0.0543008
-0.00189128 -0.0516953
0.0141347 -0.0885865
0.0130891 -0.0935012
-0.00737916 -0.102151
-0.00764716 -0.101163
-0.0106634 -0.0918057
-0.0114946 -0.0888902
-0.00741351 -0.0981236
-0.00880034 -0.0960292
-0.00428292 -0.0993998
-0.00520745 -0.0981565
0.00924506 -0.10033
0.00861262 -0.100961
-0.00388581 -0.102181
-0.00549857 -0.101509
0.00868001 -0.0789976
0.00566084 -0.0715923
-0.00247372 -0.0192313
-0.00204286 -0.0140731
-0.00318356 -0.0472999
-0.00702668 -0.0543922
0.000825491 -0.0444198
-0.00113404 -0.0492233
0.00413982 -0.0304187
0.00164187 -0.0383202
-0.00974804 -0.0703044
-0.00797811 -0.0629679
-0.0115006 -0.0832984
-0.0117498 -0.0874021
0.0126425 -0.0862665
0.0129512 -0.0883284
-0.00430747 -0.100409
-0.00399576 -0.101147
-0.00244657 -0.104739
-0.0013227 -0.104714
-0.00975468 -0.0885278
-0.0100404 -0.0840123
-0.0124253 -0.095325
-0.0134784 -0.0920171
-9.70927e-05 -0.101004
3.85289e-05 -0.100914
0.0128581 -0.0886739
0.0132361 -0.0892168
0.000214196 -0.101334
5.33487e-05 -0.101002
-0.00603321 -0.0600252
-0.0049759 -0.0493749
-0.013058 -0.0932407
-0.0120606 -0.0956114
-0.00814901 -0.102321
-0.0105538 -0.0986194
-0.00133034 -0.0240329
0.00262933 -0.0343572
0.00109609 -0.0387741
-0.00137418 -0.0297286
-0.00981264 -0.0998453
-0.0115259 -0.0968717
0.00260452 -0.10909
0.00407894 -0.107379
2.48851e-05 -0.0444389
-0.00113073 -0.0284816
-0.00665158 -0.0646909
-0.00649447 -0.0641301
-0.0129626 -0.0950787
-0.0147386 -0.0897311
-0.00483644 -0.0792486
-0.00279635 -0.0843585
-0.0053552 -0.00649379
-0.00768089 -0.00903237
0.0055463 -0.0164565
0.00530157 -0.0102852
-0.00518407 -0.105645
-0.00661985 -0.104356
0.00976711 -0.0882962
0.0103934 -0.0899825
0.0057927 -0.0585898
0.00848316 -0.0666601
-0.000781824 -0.100674
-0.00138924 -0.100507
-0.0129964 -0.0820566
-0.0126032 -0.0815853
0.00904152 -0.100001
0.00923008 -0.100388
0.00422922 -0.102879
0.00333077 -0.102708
-0.00680865 -0.0164508
-0.00680751 -0.0111512
0.000654432 -0.100212
0.00143632 -0.0986548
0.00151787 -0.105566
0.00236166 -0.106195
-0.00123141 -0.104607
-0.00214723 -0.104348
-7.07396e-05 -0.100969
-0.000604219 -0.10074
-0.00573909 -0.0756389
-0.00716524 -0.0800689
-0.00098534 -0.100507
-0.000614679 -0.100068
0.000887135 -0.00127265
0.00349966 -0.00689861
-0.0145814 -0.0810807
-0.00929318 -0.0683572
0.0125297 -0.0905825
0.0121843 -0.0895674
-0.00284232 -0.0956866
-0.00260176 -0.0980592
0.00188487 -0.101448
0.00367068 -0.100988
0.0037528 -0.0998358
0.00548653 -0.0986777
-0.00409198 -0.103074
-0.00338831 -0.102797
-0.000309774 -0.0233155
-0.00021986 -0.0263816
-0.00819711 -0.0807909
-0.00367437 -0.0760937
-0.00186397 -0.107158
-0.00381912 -0.107559
-0.00381912 -0.107559
-0.00588051 -0.108076
-0.00588051 -0.108076
-0.00800041 -0.10875
-0.00800041 -0.10875
-0.0101361 -0.109604
-0.0101361 -0.109604
-0.0122553 -0.11063
-0.0122553 -0.11063
-0.0143188 -0.111827
-0.0143188 -0.111827
-0.0162954 -0.113185
-0.0162954 -0.113185
-0.0181573 -0.114688
-0.0181573 -0.114688
-0.0198786 -0.116318
-0.0198786 -0.116318
-0.0214419 -0.118054
-0.0214419 -0.118054
-0.0228311 -0.119869
-0.0228311 -0.119869
-0.0240369 -0.121741
-0.0240369 -0.121741
-0.0250552 -0.123641
-0.0250552 -0.123641
-0.02588 -0.125542
-0.02588 -0.125542
-0.0265193 -0.127427
-0.0265193 -0.127427
-0.0269789 -0.129266
-0.0269789 -0.129266
-0.0272667 -0.131041
-0.0272667 -0.131041
-0.0273973 -0.13274
-0.0273973 -0.13274
-0.0273828 -0.13434
-0.0273828 -0.13434
-0.0272415 -0.135835
-0.0272415 -0.135835
-0.0269856 -0.13722
-0.0269856 -0.13722
-0.0266311 -0.138484
-0.0266311 -0.138484
-0.0261964 -0.139627
-0.0261964 -0.139627
-0.025691 -0.140652
-0.025691 -0.140652
-0.0251238 -0.141566
-0.0251238 -0.141566
-0.0245072 -0.142362
-0.0245072 -0.142362
-0.0238507 -0.143051
-0.0238507 -0.143051
-0.0231488 -0.143647
-0.0231488 -0.143647
-0.0224001 -0.144147
-0.0224001 -0.144147
-0.0216158 -0.144553
-0.0216158 -0.144553
-0.0207819 -0.144856
-0.0207819 -0.144856
-0.0198818 -0.145082
-0.0198818 -0.145082
-0.0189163 -0.145219
-0.0189163 -0.145219
-0.0178805 -0.145231
-0.0178805 -0.145231
-0.0167386 -0.145126
-0.0167386 -0.145126
-0.0154913 -0.144912
-0.0154913 -0.144912
-0.0141309 -0.144535
-0.0141309 -0.144535
-0.0126384 -0.143925
-0.0126384 -0.143925
-0.0110036 -0.143101
-0.0110036 -0.143101
-0.00923187 -0.14202
-0.00923187 -0.14202
-0.00731125 -0.140557
-0.00731125 -0.140557
-0.00526009 -0.138668
-0.00526009 -0.138668
-0.00309078 -0.136269
-0.00309078 -0.136269
-0.000779977 -0.133182
-0.000779977 -0.133182
0.00156106 -0.129202
0.00156106 -0.129202
0.00396894 -0.124114
0.00396894 -0.124114
0.00641424 -0.117181
0.00641424 -0.117181
0.00898267 -0.108173
0.00898267 -0.108173
0.0125159 -0.0985076
0.0125159 -0.0985076
0.0145887 -0.0938201
0.0145887 -0.0938201
0.0147382 -0.0921356
0.0147382 -0.0921356
0.0143515 -0.0914988
0.0143515 -0.0914988
0.0139448 -0.0914804
0.0139448 -0.0914804
0.0135172 -0.0919023
0.0135172 -0.0919023
0.0131608 -0.0926234
0.0131608 -0.0926234
0.0127476 -0.0936149
0.0127476 -0.0936149
0.0122074 -0.094815
0.0122074 -0.094815
0.0116511 -0.0961825
0.0116511 -0.0961825
0.011037 -0.0975852
0.011037 -0.0975852
0.0103183 -0.0989269
0.0103183 -0.0989269
0.00949311 -0.100172
0.00949311 -0.100172
0.00862321 -0.101328
0.00862321 -0.101328
0.00772323 -0.10236
0.00772323 -0.10236
0.00678936 -0.103259
0.00678936 -0.103259
0.00584627 -0.104035
0.00584627 -0.104035
0.00490303 -0.104694
0.00490303 -0.104694
0.00396186 -0.105239
0.00396186 -0.105239
0.00300891 -0.105693
0.00300891 -0.105693
0.00203307 -0.106072
0.00203307 -0.106072
0.00100517 -0.106412
0.00100517 -0.106412
-0.000223712 -0.106764
-0.000223712 -0.106764
-0.00186397 -0.107158
0.0155207 -0.145039
0.0167642 -0.145252
0.0167642 -0.145252
0.0179048 -0.145352
0.0179048 -0.145352
0.0189396 -0.145342
0.0189396 -0.145342
0.019901 -0.145211
0.019901 -0.145211
0.0207975 -0.144988
0.0207975 -0.144988
0.0216295 -0.144688
0.0216295 -0.144688
0.0224087 -0.144285
0.0224087 -0.144285
0.0231539 -0.143792
0.0231539 -0.143792
0.0238536 -0.143197
0.0238536 -0.143197
0.0245076 -0.142511
0.0245076 -0.142511
0.0251213 -0.141718
0.0251213 -0.141718
0.0256856 -0.140807
0.0256856 -0.140807
0.0261898 -0.139785
0.0261898 -0.139785
0.0266226 -0.138647
0.0266226 -0.138647
0.0269754 -0.137391
0.0269754 -0.137391
0.0272303 -0.136005
0.0272303 -0.136005
0.0273725 -0.134517
0.0273725 -0.134517
0.0273867 -0.13293
0.0273867 -0.13293
0.0272593 -0.131235
0.0272593 -0.131235
0.0269701 -0.12946
0.0269701 -0.12946
0.0265124 -0.127626
0.0265124 -0.127626
0.0258762 -0.125749
0.0258762 -0.125749
0.0250511 -0.123851
0.0250511 -0.123851
0.0240373 -0.121955
0.0240373 -0.121955
0.0228363 -0.120092
0.0228363 -0.120092
0.0214489 -0.118279
0.0214489 -0.118279
0.0198916 -0.11655
0.0198916 -0.11655
0.0181744 -0.114924
0.0181744 -0.114924
0.0163187 -0.113424
0.0163187 -0.113424
0.0143489 -0.11207
0.0143489 -0.11207
0.0122923 -0.110874
0.0122923 -0.110874
0.0101848 -0.109852
0.0101848 -0.109852
0.00805365 -0.109003
0.00805365 -0.109003
0.0059495 -0.108328
0.0059495 -0.108328
0.00389945 -0.107809
0.00389945 -0.107809
0.0019723 -0.107405
0.0019723 -0.107405
0.0003382 -0.107018
0.0003382 -0.107018
-0.000884601 -0.106665
-0.000884601 -0.106665
-0.00192557 -0.106327
-0.00192557 -0.106327
-0.00291226 -0.105949
-0.00291226 -0.105949
-0.00387847 -0.105501
-0.00387847 -0.105501
-0.00483599 -0.104954
-0.00483599 -0.104954
-0.00579517 -0.104287
-0.00579517 -0.104287
-0.00674416 -0.103498
-0.00674416 -0.103498
-0.00768353 -0.102583
-0.00768353 -0.102583
-0.00858908 -0.101534
-0.00858908 -0.101534
-0.00944154 -0.100349
-0.00944154 -0.100349
-0.0102327 -0.099051
-0.0102327 -0.099051
-0.0109708 -0.0977017
-0.0109708 -0.0977017
-0.0116156 -0.0964119
-0.0116156 -0.0964119
-0.0121631 -0.0951677
-0.0121631 -0.0951677
-0.0126255 -0.0940198
-0.0126255 -0.0940198
-0.013051 -0.0929963
-0.013051 -0.0929963
-0.0134876 -0.0921999
-0.0134876 -0.0921999
-0.0138645 -0.0917422
-0.0138645 -0.0917422
-0.0142415 -0.0917028
-0.0142415 -0.0917028
-0.0145142 -0.0923523
-0.0145142 -0.0923523
-0.0143582 -0.0939864
-0.0143582 -0.0939864
-0.0126177 -0.0985426
-0.0126177 -0.0985426
-0.00882124 -0.108249
-0.00882124 -0.108249
-0.00618539 -0.117042
-0.00618539 -0.117042
-0.00389251 -0.124087
-0.00389251 -0.124087
-0.00151785 -0.129363
-0.00151785 -0.129363
0.000868499 -0.133293
0.000868499 -0.133293
0.00313065 -0.136406
0.00313065 -0.136406
0.00531387 -0.138771
0.00531387 -0.138771
0.00738042 -0.140651
0.00738042 -0.140651
0.00928994 -0.142139
0.00928994 -0.142139
0.0110488 -0.143232
0.0110488 -0.143232
0.0126804 -0.144036
0.0126804 -0.144036
0.0141727 -0.14464
0.0141727 -0.14464
0.0155207 -0.145039
      </DataArray> 
      <DataArray type="Float64" NumberOfComponents="2" Name="Velocity" format="ascii">
0 0
0 0
0 0
0 0
0 0
0 0
0 0
0 0
0 0
0 0
0 0
0 0
0 0
0 0
0 0
0 0
0 0
0 0
0 0
0 0
0 0
0 0
0 0
0 0
0 0
0 0
0 0
0 0
0 0
0 0
0 0
0 0
0 0
0 0
0 0
0 0
0 0
0 0
0 0
0 0
0 0
0 0
0 0
0 0
0 0
0 0
0 0
0 0
0 0
0 0
0 0
0 0
0 0
0 0
0 0
0 0
0 0
0 0
0 0
0 0
0 0
0 0
0 0
0 0
0 0
0 0
0 0
0 0
0 0
0 0
0 0
0 0
0 0
0 0
0 0
0 0
0 0
0 0
0 0
0 0
0 0
0 0
0 0
0 0
0 0
0 0
0 0
0 0
0 0
0 0
0 0
0 0
0 0
0 0
0 0
0 0
0 0
0 0
0 0
0 0
0 0
0 0
0 0
0 0
0 0
0 0
0 0
0 0
0 0
0 0
0 0
0 0
0 0
0 0
0 0
0 0
0 0
0 0
0 0
0 0
0 0
0 0
0 0
0 0
0 0
0 0
0 0
0 0
0 0
0 0
0 0
0 0
0 0
0 0
0 0
0 0
0 0
0 0
0 0
0 0
0 0
0 0
0 0
0 0
0 0
0 0
0 0
0 0
0 0
0 0
0 0
0 0
0 0
0 0
0 0
0 0
0 0
0 0
0 0
0 0
0 0
0 0
0 0
0 0
0 0
0 0
0 0
0 0
0 0
0 0
0 0
0 0
0 0
0 0
0 0
0 0
0 0
0 0
0 0
0 0
0 0
0 0
0 0
0 0
0 0
0 0
0 0
0 0
0 0
0 0
0 0
0 0
0 0
0 0
0 0
0 0
0 0
0 0
0 0
0 0
0 0
0 0
0 0
0 0
0 0
0 0
0 0
0 0
0 0
0 0
0 0
0 0
0 0
0 0
0 0
0 0
0 0
0 0
0 0
0 0
0 0
0 0
0 0
0 0
0 0
0 0
0 0
0 0
0 0
0 0
0 0
0 0
0 0
0 0
0 0
0 0
0 0
0 0
0 0
0 0
0 0
0 0
0 0
0 0
0 0
0 0
0 0
0 0
0 0
0 0
0 0
0 0
0 0
0 0
0 0
0 0
0 0
0 0
0 0
0 0
0 0
0 0
0 0
0 0
0 0
0 0
0 0
0 0
0 0
0 0
0 0
0 0
0 0
0 0
0 0
0 0
0 0
0 0
0 0
0 0
0 0
0 0
0 0
0 0
0 0
0 0
0 0
0 0
0 0
0 0
0 0
0 0
0 0
0 0
0 0
0 0
0 0
0 0
0 0
0 0
0 0
0 0
0 0
0 0
0 0
0 0
0 0
0 0
0 0
0 0
0 0
0 0
0 0
0 0
0 0
0 0
0 0
0 0
0 0
0 0
0 0
0 0
0 0
0 0
0 0
0 0
0 0
0 0
0 0
0 0
0 0
0 0
0 0
0 0
0 0
0 0
0 0
0 0
0 0
0 0
0 0
0 0
0 0
0 0
0 0
0 0
0 0
0 0
0 0
0 0
0 0
0 0
0 0
0 0
0 0
0 0
0 0
0 0
0 0
0 0
0 0
0 0
0 0
0 0
0 0
0 0
0 0
0 0
0 0
0 0
0 0
0 0
0 0
0 0
0 0
0 0
0 0
0 0
0 0
0 0
0 0
0 0
0 0
0 0
0 0
0 0
0 0
0 0
0 0
0 0
0 0
0 0
0 0
0 0
0 0
0 0
0 0
0 0
0 0
0 0
0 0
0 0
0 0
0 0
0 0
0 0
0 0
0 0
0 0
0 0
0 0
0 0
0 0
0 0
0 0
0 0
0 0
0 0
0 0
0 0
0 0
0 0
0 0
0 0
0 0
0 0
0 0
0 0
0 0
0 0
0 0
0 0
0 0
0 0
0 0
0 0
0 0
0 0
0 0
0 0
0 0
0 0
0 0
0 0
0 0
0 0
0 0
0 0
0 0
0 0
0 0
0 0
0 0
0 0
0 0
0 0
0 0
0 0
0 0
0 0
0 0
0 0
0 0
0 0
0 0
0 0
0 0
0 0
0 0
0 0
0 0
0 0
0 0
0 0
0 0
0 0
0 0
0 0
0 0
0 0
0 0
0 0
0 0
0 0
0 0
0 0
0 0
0 0
0 0
0 0
0 0
0 0
0 0
0 0
0 0
0 0
0 0
0 0
0 0
0 0
0 0
0 0
0 0
0 0
0 0
0 0
0 0
0 0
0 0
0 0
0 0
0 0
0 0
0 0
0 0
0 0
0 0
0 0
0 0
0 0
0 0
0 0
0 0
0 0
0 0
0 0
0 0
0 0
0 0
0 0
0 0
0 0
0 0
0 0
0 0
0 0
0 0
0 0
0 0
0 0
0 0
0 0
0 0
0 0
0 0
0 0
0 0
0 0
0 0
0 0
0 0
0 0
0 0
0 0
0 0
0 0
0 0
0 0
0 0
0 0
0 0
0 0
0 0
0 0
0 0
0 0
0 0
0 0
0 0
0 0
0 0
0 0
0 0
0 0
0 0
0 0
0 0
0 0
0 0
0 0
0 0
0 0
0 0
0 0
0 0
0 0
0 0
0 0
0 0
0 0
0 0
0 0
0 0
0 0
0 0
0 0
0 0
0 0
0 0
0 0
0 0
0 0
0 0
0 0
0 0
0 0
0 0
0 0
0 0
0 0
0 0
0 0
0 0
0 0
0 0
0 0
0 0
0 0
0 0
0 0
0 0
0 0
0 0
0 0
0 0
0 0
0 0
0 0
0 0
0 0
0 0
0 0
0 0
0 0
0 0
0 0
0 0
0 0
0 0
0 0
0 0
0 0
0 0
0 0
0 0
0 0
0 0
0 0
0 0
0 0
0 0
0 0
0 0
0 0
0 0
0 0
0 0
0 0
0 0
0 0
0 0
0 0
0 0
0 0
0 0
0 0
0 0
0 0
0 0
0 0
0 0
0 0
0 0
0 0
0 0
0 0
0 0
0 0
0 0
0 0
0 0
0 0
0 0
0 0
0 0
0 0
0 0
0 0
0 0
0 0
0 0
0 0
0 0
0 0
0 0
0 0
0 0
0 0
0 0
0 0
0 0
0 0
0 0
0 0
0 0
0 0
0 0
0 0
0 0
0 0
0 0
0 0
0 0
0 0
0 0
0 0
0 0
0 0
0 0
0 0
0 0
0 0
0 0
0 0
0 0
0 0
0 0
0 0
0 0
0 0
0 0
0 0
0 0
0 0
0 0
0 0
0 0
0 0
0 0
0 0
0 0
0 0
0 0
0 0
0 0
0 0
0 0
0 0
0 0
0 0
0 0
0 0
0 0
0 0
0 0
0 0
0 0
0 0
0 0
0 0
0 0
0 0
0 0
0 0
0 0
0 0
0 0
0 0
0 0
0 0
0 0
0 0
0 0
0 0
0 0
0 0
0 0
0 0
0 0
0 0
0 0
0 0
0 0
0 0
0 0
0 0
0 0
0 0
0 0
0 0
0 0
0 0
0 0
0 0
0 0
0 0
0 0
0 0
0 0
0 0
0 0
0 0
0 0
0 0
0 0
0 0
0 0
0 0
0 0
0 0
0 0
0 0
0 0
0 0
0 0
0 0
0 0
0 0
0 0
0 0
0 0
0 0
0 0
0 0
0 0
0 0
0 0
0 0
0 0
0 0
0 0
0 0
0 0
0 0
0 0
0 0
0 0
0 0
0 0
0 0
0 0
0 0
0 0
0 0
0 0
0 0
0 0
0 0
0 0
0 0
0 0
0 0
0 0
0 0
0 0
0 0
0 0
0 0
0 0
0 0
0 0
0 0
0 0
0 0
0 0
0 0
0 0
0 0
0 0
0 0
0 0
0 0
0 0
0 0
0 0
0 0
0 0
0 0
0 0
0 0
0 0
0 0
0 0
0 0
0 0
0 0
0 0
0 0
0 0
0 0
0 0
0 0
0 0
0 0
0 0
0 0
0 0
0 0
0 0
0 0
0 0
0 0
0 0
0 0
0 0
0 0
0 0
0 0
0 0
0 0
0 0
0 0
0 0
0 0
0 0
0 0
0 0
0 0
0 0
0 0
0 0
0 0
0 0
0 0
0 0
0 0
0 0
0 0
0 0
0 0
0 0
0 0
0 0
0 0
0 0
0 0
0 0
0 0
0 0
0 0
0 0
0 0
0 0
0 0
0 0
0 0
0 0
0 0
0 0
0 0
0 0
0 0
0 0
0 0
0 0
0 0
0 0
0 0
0 0
0 0
0 0
0 0
0 0
0 0
0 0
0 0
0 0
0 0
0 0
0 0
0 0
0 0
0 0
0 0
0 0
0 0
0 0
0 0
0 0
0 0
0 0
0 0
0 0
0 0
0 0
0 0
0 0
0 0
0 0
0 0
0 0
0 0
0 0
0 0
0 0
0 0
0 0
0 0
0 0
0 0
0 0
0 0
0 0
0 0
0 0
0 0
0 0
0 0
0 0
0 0
0 0
0 0
0 0
0 0
0 0
0 0
0 0
0 0
0 0
0 0
0 0
0 0
0 0
0 0
0 0
0 0
0 0
0 0
0 0
0 0
0 0
0 0
0 0
0 0
0 0
0 0
0 0
0 0
0 0
0 0
0 0
0 0
0 0
0 0
0 0
0 0
0 0
0 0
0 0
0 0
0 0
0 0
0 0
0 0
0 0
0 0
0 0
0 0
0 0
0 0
0 0
0 0
0 0
0 0
0 0
0 0
0 0
0 0
0 0
0 0
0 0
0 0
0 0
0 0
0 0
0 0
0 0
0 0
0 0
0 0
0 0
0 0
0 0
0 0
0 0
0 0
0 0
0 0
0 0
0 0
0 0
0 0
0 0
0 0
0 0
0 0
0 0
0 0
0 0
0 0
0 0
0 0
0 0
0 0
0 0
0 0
0 0
0 0
0 0
0 0
0 0
0 0
0 0
0 0
0 0
0 0
0 0
0 0
0 0
0 0
0 0
0 0
0 0
0 0
0 0
0 0
0 0
0 0
0 0
0 0
0 0
0 0
0 0
0 0
0 0
0 0
0 0
0 0
0 0
0 0
0 0
0 0
0 0
0 0
0 0
0 0
0 0
0 0
0 0
0 0
0 0
0 0
0 0
0 0
0 0
0 0
0 0
0 0
0 0
0 0
0 0
0 0
0 0
0 0
0 0
0 0
0 0
0 0
0 0
0 0
0 0
0 0
0 0
0 0
0 0
0 0
0 0
0 0
0 0
0 0
0 0
0 0
0 0
0 0
0 0
0 0
0 0
0 0
0 0
0 0
0 0
0 0
0 0
0 0
0 0
0 0
0 0
0 0
0 0
0 0
0 0
0 0
0 0
0 0
0 0
0 0
0 0
0 0
0 0
0 0
0 0
0 0
0 0
0 0
0 0
0 0
0 0
0 0
0 0
0 0
0 0
0 0
0 0
0 0
0 0
0 0
0 0
0 0
0 0
0 0
0 0
0 0
0 0
0 0
0 0
0 0
0 0
0 0
0 0
0 0
0 0
0 0
0 0
0 0
0 0
0 0
0 0
0 0
0 0
0 0
0 0
0 0
0 0
0 0
0 0
0 0
0 0
0 0
0 0
0 0
0 0
0 0
0 0
0 0
0 0
0 0
0 0
0 0
0 0
0 0
0 0
0 0
0 0
0 0
0 0
0 0
0 0
0 0
0 0
0 0
0 0
0 0
0 0
0 0
0 0
0 0
0 0
0 0
0 0
0 0
0 0
0 0
0 0
0 0
0 0
0 0
0 0
0 0
0 0
0 0
0 0
0 0
0 0
0 0
0 0
0 0
0 0
0 0
0 0
0 0
0 0
0 0
0 0
0 0
0 0
0 0
0 0
0 0
0 0
0 0
0 0
0 0
0 0
0 0
0 0
0 0
0 0
0 0
0 0
0 0
0 0
0 0
0 0
0 0
0 0
0 0
0 0
0 0
0 0
0 0
0 0
0 0
0 0
0 0
0 0
0 0
0 0
0 0
0 0
0 0
0 0
0 0
0 0
0 0
0 0
0 0
0 0
0 0
0 0
0 0
0 0
0 0
0 0
0 0
0 0
0 0
0 0
0 0
0 0
0 0
0 0
0 0
0 0
0 0
0 0
0 0
0 0
0 0
0 0
0 0
0 0
0 0
0 0
0 0
0 0
0 0
0 0
0 0
0 0
0 0
0 0
0 0
0 0
0 0
0 0
0 0
0 0
0 0
0 0
0 0
0 0
0 0
0 0
0 0
0 0
0 0
0 0
0 0
0 0
0 0
0 0
0 0
0 0
0 0
0 0
0 0
0 0
0 0
0 0
0 0
0 0
0 0
0 0
0 0
0 0
0 0
0 0
0 0
0 0
0 0
0 0
0 0
0 0
0 0
0 0
0 0
0 0
0 0
0 0
0 0
0 0
0 0
0 0
0 0
0 0
0 0
0 0
0 0
0 0
0 0
0 0
0 0
0 0
0 0
0 0
0 0
0 0
0 0
0 0
0 0
0 0
0 0
0 0
0 0
0 0
0 0
0 0
0 0
0 0
0 0
0 0
0 0
0 0
0 0
0 0
0 0
0 0
0 0
0 0
0 0
0 0
0 0
0 0
0 0
0 0
0 0
0 0
0 0
0 0
0 0
0 0
0 0
0 0
0 0
0 0
0 0
0 0
0 0
0 0
0 0
0 0
0 0
0 0
0 0
0 0
0 0
0 0
0 0
0 0
0 0
0 0
0 0
0 0
0 0
0 0
0 0
0 0
0 0
0 0
0 0
0 0
0 0
0 0
0 0
0 0
0 0
0 0
0 0
0 0
0 0
0 0
0 0
0 0
0 0
0 0
0 0
0 0
0 0
0 0
0 0
0 0
0 0
0 0
0 0
0 0
0 0
0 0
0 0
0 0
0 0
0 0
0 0
0 0
0 0
0 0
0 0
0 0
0 0
0 0
0 0
0 0
0 0
0 0
0 0
0 0
0 0
0 0
0 0
0 0
0 0
0 0
0 0
0 0
0 0
0 0
0 0
0 0
0 0
0 0
0 0
0 0
0 0
0 0
0 0
0 0
0 0
0 0
0 0
0 0
0 0
0 0
0 0
0 0
0 0
0 0
0 0
0 0
0 0
0 0
0 0
0 0
0 0
0 0
0 0
0 0
0 0
0 0
0 0
0 0
0 0
0 0
0 0
0 0
0 0
0 0
0 0
0 0
0 0
0 0
0 0
0 0
0 0
0 0
0 0
0 0
0 0
0 0
0 0
0 0
0 0
0 0
0 0
0 0
0 0
0 0
0 0
0 0
0 0
0 0
0 0
0 0
0 0
0 0
0 0
0 0
0 0
0 0
0 0
0 0
0 0
0 0
0 0
0 0
0 0
0 0
0 0
0 0
0 0
0 0
0 0
0 0
0 0
0 0
0 0
0 0
0 0
0 0
0 0
0 0
0 0
0 0
0 0
0 0
0 0
0 0
0 0
0 0
0 0
0 0
0 0
0 0
0 0
0 0
0 0
0 0
0 0
0 0
0 0
0 0
0 0
0 0
0 0
0 0
0 0
0 0
0 0
0 0
0 0
0 0
0 0
0 0
0 0
0 0
0 0
0 0
0 0
0 0
0 0
0 0
0 0
0 0
0 0
0 0
0 0
0 0
0 0
0 0
0 0
0 0
0 0
0 0
0 0
0 0
0 0
0 0
0 0
0 0
0 0
0 0
0 0
0 0
0 0
0 0
0 0
0 0
0 0
0 0
0 0
0 0
0 0
0 0
0 0
0 0
0 0
0 0
0 0
0 0
0 0
0 0
0 0
0 0
0 0
0 0
0 0
0 0
0 0
0 0
0 0
0 0
0 0
0 0
0 0
0 0
0 0
0 0
0 0
0 0
0 0
0 0
0 0
0 0
0 0
0 0
0 0
0 0
0 0
0 0
0 0
0 0
0 0
0 0
0 0
0 0
0 0
0 0
0 0
0 0
0 0
0 0
0 0
0 0
0 0
0 0
0 0
0 0
0 0
0 0
0 0
0 0
0 0
0 0
0 0
0 0
0 0
0 0
0 0
0 0
0 0
0 0
0 0
0 0
0 0
0 0
0 0
0 0
0 0
0 0
0 0
0 0
0 0
0 0
0 0
0 0
0 0
0 0
0 0
0 0
0 0
0 0
0 0
0 0
0 0
0 0
0 0
0 0
0 0
0 0
0 0
0 0
0 0
0 0
0 0
0 0
0 0
0 0
0 0
0 0
0 0
0 0
0 0
0 0
0 0
0 0
0 0
0 0
0 0
0 0
0 0
0 0
0 0
0 0
0 0
0 0
0 0
0 0
0 0
0 0
0 0
0 0
0 0
0 0
0 0
0 0
0 0
0 0
0 0
0 0
0 0
0 0
0 0
0 0
0 0
0 0
0 0
0 0
0 0
0 0
0 0
0 0
0 0
0 0
0 0
0 0
0 0
0 0
0 0
0 0
0 0
0 0
0 0
0 0
0 0
0 0
0 0
0 0
0 0
0 0
0 0
0 0
0 0
0 0
0 0
0 0
0 0
0 0
0 0
0 0
0 0
0 0
0 0
0 0
0 0
0 0
0 0
0 0
0 0
0 0
0 0
0 0
0 0
0 0
0 0
0 0
0 0
0 0
0 0
0 0
0 0
0 0
0 0
0 0
0 0
0 0
0 0
0 0
0 0
0 0
0 0
0 0
0 0
0 0
0 0
0 0
0 0
0 0
0 0
0 0
0 0
0 0
0 0
0 0
0 0
0 0
0 0
0 0
0 0
0 0
0 0
0 0
0 0
0 0
0 0
0 0
0 0
0 0
0 0
0 0
0 0
0 0
0 0
0 0
0 0
0 0
0 0
0 0
0 0
0 0
0 0
0 0
0 0
0 0
0 0
0 0
0 0
0 0
0 0
0 0
0 0
0 0
0 0
0 0
0 0
0 0
0 0
0 0
0 0
0 0
0 0
0 0
0 0
0 0
0 0
0 0
0 0
0 0
0 0
0 0
0 0
0 0
0 0
0 0
0 0
0 0
0 0
0 0
0 0
0 0
0 0
0 0
0 0
0 0
0 0
0 0
0 0
0 0
0 0
0 0
0 0
0 0
0 0
0 0
0 0
0 0
0 0
0 0
0 0
0 0
0 0
0 0
0 0
0 0
0 0
0 0
0 0
0 0
0 0
0 0
0 0
0 0
0 0
0 0
0 0
0 0
0 0
0 0
0 0
0 0
0 0
0 0
0 0
0 0
0 0
0 0
0 0
0 0
0 0
0 0
0 0
0 0
0 0
0 0
0 0
0 0
0 0
0 0
0 0
0 0
0 0
0 0
0 0
0 0
0 0
0 0
0 0
0 0
0 0
0 0
0 0
0 0
0 0
0 0
0 0
0 0
0 0
0 0
0 0
0 0
0 0
0 0
0 0
0 0
0 0
0 0
0 0
0 0
0 0
0 0
0 0
0 0
0 0
0 0
0 0
0 0
0 0
0 0
0 0
0 0
0 0
0 0
0 0
0 0
0 0
0 0
0 0
0 0
0 0
0 0
0 0
0 0
0 0
0 0
0 0
0 0
0 0
0 0
0 0
0 0
0 0
0 0
0 0
0 0
0 0
0 0
0 0
0 0
0 0
0 0
0 0
0 0
0 0
0 0
0 0
0 0
0 0
0 0
0 0
0 0
0 0
0 0
0 0
0 0
0 0
0 0
0 0
0 0
0 0
0 0
0 0
0 0
0 0
0 0
0 0
0 0
0 0
0 0
0 0
0 0
0 0
0 0
0 0
0 0
0 0
0 0
0 0
0 0
0 0
0 0
0 0
0 0
0 0
0 0
0 0
0 0
0 0
0 0
0 0
0 0
0 0
0 0
0 0
0 0
0 0
0 0
0 0
0 0
0 0
0 0
0 0
0 0
0 0
0 0
0 0
0 0
0 0
0 0
0 0
0 0
0 0
0 0
0 0
0 0
0 0
0 0
0 0
0 0
0 0
0 0
0 0
0 0
0 0
0 0
0 0
0 0
0 0
0 0
0 0
0 0
0 0
0 0
0 0
0 0
0 0
0 0
0 0
0 0
0 0
0 0
0 0
0 0
0 0
0 0
0 0
0 0
0 0
0 0
0 0
0 0
0 0
0 0
0 0
0 0
0 0
0 0
0 0
0 0
0 0
0 0
0 0
0 0
0 0
0 0
0 0
0 0
0 0
0 0
0 0
0 0
0 0
0 0
0 0
0 0
0 0
0 0
0 0
0 0
0 0
0 0
0 0
0 0
0 0
0 0
0 0
0 0
0 0
0 0
0 0
0 0
0 0
0 0
0 0
0 0
0 0
0 0
0 0
0 0
0 0
0 0
0 0
0 0
0 0
0 0
0 0
0 0
0 0
0 0
0 0
0 0
0 0
0 0
0 0
0 0
0 0
0 0
0 0
0 0
0 0
0 0
0 0
0 0
0 0
0 0
0 0
0 0
0 0
0 0
0 0
0 0
0 0
0 0
0 0
0 0
0 0
0 0
0 0
0 0
0 0
0 0
0 0
0 0
0 0
0 0
0 0
0 0
0 0
0 0
0 0
0 0
0 0
0 0
0 0
0 0
0 0
0 0
0 0
0 0
0 0
0 0
0 0
0 0
0 0
0 0
0 0
0 0
0 0
0 0
0 0
0 0
0 0
0 0
0 0
0 0
0 0
0 0
0 0
0 0
0 0
0 0
0 0
0 0
0 0
0 0
0 0
0 0
0 0
0 0
0 0
0 0
0 0
0 0
0 0
0 0
0 0
0 0
0 0
0 0
0 0
0 0
0 0
0 0
0 0
0 0
0 0
0 0
0 0
0 0
0 0
0 0
0 0
0 0
0 0
0 0
0 0
0 0
0 0
0 0
0 0
0 0
0 0
0 0
0 0
0 0
0 0
0 0
0 0
0 0
0 0
0 0
0 0
0 0
0 0
0 0
0 0
0 0
0 0
0 0
0 0
0 0
0 0
0 0
0 0
0 0
0 0
0 0
0 0
0 0
0 0
0 0
0 0
0 0
0 0
0 0
0 0
0 0
0 0
0 0
0 0
0 0
0 0
0 0
0 0
0 0
0 0
0 0
0 0
0 0
0 0
0 0
0 0
0 0
0 0
0 0
0 0
0 0
0 0
0 0
0 0
0 0
0 0
0 0
0 0
0 0
0 0
0 0
0 0
0 0
0 0
0 0
0 0
0 0
0 0
0 0
0 0
0 0
0 0
0 0
0 0
0 0
0 0
0 0
0 0
0 0
0 0
0 0
0 0
0 0
0 0
0 0
0 0
0 0
0 0
0 0
0 0
0 0
0 0
0 0
0 0
0 0
0 0
0 0
0 0
0 0
0 0
0 0
0 0
0 0
0 0
0 0
0 0
0 0
0 0
0 0
0 0
0 0
0 0
0 0
0 0
0 0
0 0
0 0
0 0
0 0
0 0
0 0
0 0
0 0
0 0
0 0
0 0
0 0
0 0
0 0
0 0
0 0
0 0
0 0
0 0
0 0
0 0
0 0
0 0
0 0
0 0
0 0
0 0
0 0
0 0
0 0
0 0
0 0
0 0
0 0
0 0
0 0
0 0
0 0
0 0
0 0
0 0
0 0
0 0
0 0
0 0
0 0
0 0
0 0
0 0
0 0
0 0
0 0
0 0
0 0
0 0
0 0
0 0
0 0
0 0
0 0
0 0
0 0
0 0
0 0
0 0
0 0
0 0
0 0
0 0
0 0
0 0
0 0
0 0
0 0
0 0
0 0
0 0
0 0
0 0
0 0
0 0
0 0
0 0
0 0
0 0
0 0
0 0
0 0
0 0
0 0
0 0
0 0
0 0
0 0
0 0
0 0
0 0
0 0
0 0
0 0
0 0
0 0
0 0
0 0
0 0
0 0
0 0
0 0
0 0
0 0
0 0
0 0
0 0
0 0
0 0
0 0
0 0
0 0
0 0
0 0
0 0
0 0
0 0
0 0
0 0
0 0
0 0
0 0
0 0
0 0
0 0
0 0
0 0
0 0
0 0
0 0
0 0
0 0
0 0
0 0
0 0
0 0
0 0
0 0
0 0
0 0
0 0
0 0
0 0
0 0
0 0
0 0
0 0
0 0
0 0
0 0
0 0
0 0
0 0
0 0
0 0
0 0
0 0
0 0
0 0
0 0
0 0
0 0
0 0
0 0
0 0
0 0
0 0
0 0
0 0
0 0
0 0
0 0
0 0
0 0
0 0
0 0
0 0
0 0
0 0
0 0
0 0
0 0
0 0
0 0
0 0
0 0
0 0
0 0
0 0
0 0
0 0
0 0
0 0
0 0
0 0
0 0
0 0
0 0
0 0
0 0
0 0
0 0
0 0
0 0
0 0
0 0
0 0
0 0
0 0
0 0
0 0
0 0
0 0
0 0
0 0
0 0
0 0
0 0
0 0
0 0
0 0
0 0
0 0
0 0
0 0
0 0
0 0
0 0
0 0
0 0
0 0
0 0
0 0
0 0
0 0
0 0
0 0
0 0
0 0
0 0
0 0
0 0
0 0
0 0
0 0
0 0
0 0
0 0
0 0
0 0
0 0
0 0
0 0
0 0
0 0
0 0
0 0
0 0
0 0
0 0
0 0
0 0
0 0
0 0
0 0
0 0
0 0
0 0
0 0
0 0
0 0
0 0
0 0
0 0
0 0
0 0
0 0
0 0
0 0
0 0
0 0
0 0
0 0
0 0
0 0
0 0
0 0
0 0
0 0
0 0
0 0
0 0
0 0
0 0
0 0
0 0
0 0
0 0
0 0
0 0
0 0
0 0
0 0
0 0
0 0
0 0
0 0
0 0
0 0
0 0
0 0
0 0
0 0
0 0
0 0
0 0
0 0
0 0
0 0
0 0
0 0
0 0
0 0
0 0
0 0
0 0
0 0
0 0
0 0
0 0
0 0
0 0
0 0
0 0
0 0
0 0
0 0
0 0
0 0
0 0
0 0
0 0
0 0
0 0
0 0
0 0
0 0
0 0
0 0
0 0
0 0
0 0
0 0
0 0
0 0
0 0
0 0
0 0
0 0
0 0
0 0
0 0
0 0
0 0
0 0
0 0
0 0
0 0
0 0
0 0
0 0
0 0
0 0
0 0
0 0
0 0
0 0
0 0
0 0
0 0
0 0
0 0
0 0
0 0
0 0
0 0
0 0
0 0
0 0
0 0
0 0
0 0
0 0
0 0
0 0
0 0
0 0
0 0
0 0
0 0
0 0
0 0
0 0
0 0
0 0
0 0
0 0
0 0
0 0
0 0
0 0
0 0
0 0
0 0
0 0
0 0
0 0
0 0
0 0
0 0
0 0
0 0
0 0
0 0
0 0
0 0
0 0
0 0
0 0
0 0
0 0
0 0
0 0
0 0
0 0
0 0
0 0
0 0
0 0
0 0
0 0
0 0
0 0
0 0
0 0
0 0
0 0
0 0
0 0
0 0
0 0
0 0
0 0
0 0
0 0
0 0
0 0
0 0
0 0
0 0
0 0
0 0
0 0
0 0
0 0
0 0
0 0
0 0
0 0
0 0
0 0
0 0
0 0
0 0
0 0
0 0
0 0
0 0
0 0
0 0
0 0
0 0
0 0
0 0
0 0
0 0
0 0
0 0
0 0
0 0
0 0
0 0
0 0
0 0
0 0
0 0
0 0
0 0
0 0
0 0
0 0
0 0
0 0
0 0
0 0
0 0
0 0
0 0
0 0
0 0
0 0
0 0
0 0
0 0
0 0
0 0
0 0
0 0
0 0
0 0
0 0
0 0
0 0
0 0
0 0
0 0
0 0
0 0
0 0
0 0
0 0
0 0
0 0
0 0
0 0
0 0
0 0
0 0
0 0
0 0
0 0
0 0
0 0
0 0
0 0
0 0
0 0
0 0
0 0
0 0
0 0
0 0
0 0
0 0
0 0
0 0
0 0
0 0
0 0
0 0
0 0
0 0
0 0
0 0
0 0
0 0
0 0
0 0
0 0
0 0
0 0
0 0
0 0
0 0
0 0
0 0
0 0
0 0
0 0
0 0
0 0
0 0
0 0
0 0
0 0
0 0
0 0
0 0
0 0
0 0
0 0
0 0
0 0
0 0
0 0
0 0
0 0
0 0
0 0
0 0
0 0
0 0
0 0
0 0
0 0
0 0
0 0
0 0
0 0
0 0
0 0
0 0
0 0
0 0
0 0
0 0
0 0
0 0
0 0
0 0
0 0
0 0
0 0
0 0
0 0
0 0
0 0
0 0
0 0
0 0
0 0
0 0
0 0
0 0
0 0
0 0
0 0
0 0
0 0
0 0
0 0
0 0
0 0
0 0
0 0
0 0
0 0
0 0
0 0
0 0
0 0
0 0
0 0
0 0
0 0
0 0
0 0
0 0
0 0
0 0
0 0
0 0
0 0
0 0
0 0
0 0
0 0
0 0
0 0
0 0
0 0
0 0
0 0
0 0
0 0
0 0
0 0
0 0
0 0
0 0
0 0
0 0
0 0
0 0
0 0
0 0
0 0
0 0
0 0
0 0
0 0
0 0
0 0
0 0
0 0
0 0
0 0
0 0
0 0
0 0
0 0
0 0
0 0
0 0
0 0
0 0
0 0
0 0
0 0
0 0
0 0
0 0
0 0
0 0
0 0
0 0
0 0
0 0
0 0
0 0
0 0
0 0
0 0
0 0
0 0
0 0
0 0
0 0
0 0
0 0
0 0
0 0
0 0
0 0
0 0
0 0
0 0
0 0
0 0
0 0
0 0
0 0
0 0
0 0
0 0
0 0
0 0
0 0
0 0
0 0
0 0
0 0
0 0
0 0
0 0
0 0
0 0
0 0
0 0
0 0
0 0
0 0
0 0
0 0
0 0
0 0
0 0
0 0
0 0
0 0
0 0
0 0
0 0
0 0
0 0
0 0
0 0
0 0
0 0
0 0
0 0
0 0
0 0
0 0
0 0
0 0
0 0
0 0
0 0
0 0
0 0
0 0
0 0
0 0
0 0
0 0
0 0
0 0
0 0
0 0
0 0
0 0
0 0
0 0
0 0
0 0
0 0
0 0
0 0
0 0
0 0
0 0
0 0
0 0
0 0
0 0
0 0
0 0
0 0
0 0
0 0
0 0
0 0
0 0
0 0
0 0
0 0
0 0
0 0
0 0
0 0
0 0
0 0
0 0
0 0
0 0
0 0
0 0
0 0
0 0
0 0
0 0
0 0
0 0
0 0
0 0
0 0
0 0
0 0
0 0
0 0
0 0
0 0
0 0
0 0
0 0
0 0
0 0
0 0
0 0
0 0
0 0
0 0
0 0
0 0
0 0
0 0
0 0
0 0
0 0
0 0
0 0
0 0
0 0
0 0
0 0
0 0
0 0
0 0
0 0
0 0
0 0
0 0
0 0
0 0
0 0
0 0
0 0
0 0
0 0
0 0
0 0
0 0
0 0
0 0
0 0
0 0
0 0
0 0
0 0
0 0
0 0
0 0
0 0
0 0
0 0
0 0
0 0
0 0
0 0
0 0
0 0
0 0
0 0
0 0
0 0
0 0
0 0
0 0
0 0
0 0
0 0
0 0
0 0
      </DataArray> 
      <DataArray type="Float64" NumberOfComponents="2" Name="Acceleration" format="ascii">
0 0
0 0
0 0
0 0
0 0
0 0
0 0
0 0
0 0
0 0
0 0
0 0
0 0
0 0
0 0
0 0
0 0
0 0
0 0
0 0
0 0
0 0
0 0
0 0
0 0
0 0
0 0
0 0
0 0
0 0
0 0
0 0
0 0
0 0
0 0
0 0
0 0
0 0
0 0
0 0
0 0
0 0
0 0
0 0
0 0
0 0
0 0
0 0
0 0
0 0
0 0
0 0
0 0
0 0
0 0
0 0
0 0
0 0
0 0
0 0
0 0
0 0
0 0
0 0
0 0
0 0
0 0
0 0
0 0
0 0
0 0
0 0
0 0
0 0
0 0
0 0
0 0
0 0
0 0
0 0
0 0
0 0
0 0
0 0
0 0
0 0
0 0
0 0
0 0
0 0
0 0
0 0
0 0
0 0
0 0
0 0
0 0
0 0
0 0
0 0
0 0
0 0
0 0
0 0
0 0
0 0
0 0
0 0
0 0
0 0
0 0
0 0
0 0
0 0
0 0
0 0
0 0
0 0
0 0
0 0
0 0
0 0
0 0
0 0
0 0
0 0
0 0
0 0
0 0
0 0
0 0
0 0
0 0
0 0
0 0
0 0
0 0
0 0
0 0
0 0
0 0
0 0
0 0
0 0
0 0
0 0
0 0
0 0
0 0
0 0
0 0
0 0
0 0
0 0
0 0
0 0
0 0
0 0
0 0
0 0
0 0
0 0
0 0
0 0
0 0
0 0
0 0
0 0
0 0
0 0
0 0
0 0
0 0
0 0
0 0
0 0
0 0
0 0
0 0
0 0
0 0
0 0
0 0
0 0
0 0
0 0
0 0
0 0
0 0
0 0
0 0
0 0
0 0
0 0
0 0
0 0
0 0
0 0
0 0
0 0
0 0
0 0
0 0
0 0
0 0
0 0
0 0
0 0
0 0
0 0
0 0
0 0
0 0
0 0
0 0
0 0
0 0
0 0
0 0
0 0
0 0
0 0
0 0
0 0
0 0
0 0
0 0
0 0
0 0
0 0
0 0
0 0
0 0
0 0
0 0
0 0
0 0
0 0
0 0
0 0
0 0
0 0
0 0
0 0
0 0
0 0
0 0
0 0
0 0
0 0
0 0
0 0
0 0
0 0
0 0
0 0
0 0
0 0
0 0
0 0
0 0
0 0
0 0
0 0
0 0
0 0
0 0
0 0
0 0
0 0
0 0
0 0
0 0
0 0
0 0
0 0
0 0
0 0
0 0
0 0
0 0
0 0
0 0
0 0
0 0
0 0
0 0
0 0
0 0
0 0
0 0
0 0
0 0
0 0
0 0
0 0
0 0
0 0
0 0
0 0
0 0
0 0
0 0
0 0
0 0
0 0
0 0
0 0
0 0
0 0
0 0
0 0
0 0
0 0
0 0
0 0
0 0
0 0
0 0
0 0
0 0
0 0
0 0
0 0
0 0
0 0
0 0
0 0
0 0
0 0
0 0
0 0
0 0
0 0
0 0
0 0
0 0
0 0
0 0
0 0
0 0
0 0
0 0
0 0
0 0
0 0
0 0
0 0
0 0
0 0
0 0
0 0
0 0
0 0
0 0
0 0
0 0
0 0
0 0
0 0
0 0
0 0
0 0
0 0
0 0
0 0
0 0
0 0
0 0
0 0
0 0
0 0
0 0
0 0
0 0
0 0
0 0
0 0
0 0
0 0
0 0
0 0
0 0
0 0
0 0
0 0
0 0
0 0
0 0
0 0
0 0
0 0
0 0
0 0
0 0
0 0
0 0
0 0
0 0
0 0
0 0
0 0
0 0
0 0
0 0
0 0
0 0
0 0
0 0
0 0
0 0
0 0
0 0
0 0
0 0
0 0
0 0
0 0
0 0
0 0
0 0
0 0
0 0
0 0
0 0
0 0
0 0
0 0
0 0
0 0
0 0
0 0
0 0
0 0
0 0
0 0
0 0
0 0
0 0
0 0
0 0
0 0
0 0
0 0
0 0
0 0
0 0
0 0
0 0
0 0
0 0
0 0
0 0
0 0
0 0
0 0
0 0
0 0
0 0
0 0
0 0
0 0
0 0
0 0
0 0
0 0
0 0
0 0
0 0
0 0
0 0
0 0
0 0
0 0
0 0
0 0
0 0
0 0
0 0
0 0
0 0
0 0
0 0
0 0
0 0
0 0
0 0
0 0
0 0
0 0
0 0
0 0
0 0
0 0
0 0
0 0
0 0
0 0
0 0
0 0
0 0
0 0
0 0
0 0
0 0
0 0
0 0
0 0
0 0
0 0
0 0
0 0
0 0
0 0
0 0
0 0
0 0
0 0
0 0
0 0
0 0
0 0
0 0
0 0
0 0
0 0
0 0
0 0
0 0
0 0
0 0
0 0
0 0
0 0
0 0
0 0
0 0
0 0
0 0
0 0
0 0
0 0
0 0
0 0
0 0
0 0
0 0
0 0
0 0
0 0
0 0
0 0
0 0
0 0
0 0
0 0
0 0
0 0
0 0
0 0
0 0
0 0
0 0
0 0
0 0
0 0
0 0
0 0
0 0
0 0
0 0
0 0
0 0
0 0
0 0
0 0
0 0
0 0
0 0
0 0
0 0
0 0
0 0
0 0
0 0
0 0
0 0
0 0
0 0
0 0
0 0
0 0
0 0
0 0
0 0
0 0
0 0
0 0
0 0
0 0
0 0
0 0
0 0
0 0
0 0
0 0
0 0
0 0
0 0
0 0
0 0
0 0
0 0
0 0
0 0
0 0
0 0
0 0
0 0
0 0
0 0
0 0
0 0
0 0
0 0
0 0
0 0
0 0
0 0
0 0
0 0
0 0
0 0
0 0
0 0
0 0
0 0
0 0
0 0
0 0
0 0
0 0
0 0
0 0
0 0
0 0
0 0
0 0
0 0
0 0
0 0
0 0
0 0
0 0
0 0
0 0
0 0
0 0
0 0
0 0
0 0
0 0
0 0
0 0
0 0
0 0
0 0
0 0
0 0
0 0
0 0
0 0
0 0
0 0
0 0
0 0
0 0
0 0
0 0
0 0
0 0
0 0
0 0
0 0
0 0
0 0
0 0
0 0
0 0
0 0
0 0
0 0
0 0
0 0
0 0
0 0
0 0
0 0
0 0
0 0
0 0
0 0
0 0
0 0
0 0
0 0
0 0
0 0
0 0
0 0
0 0
0 0
0 0
0 0
0 0
0 0
0 0
0 0
0 0
0 0
0 0
0 0
0 0
0 0
0 0
0 0
0 0
0 0
0 0
0 0
0 0
0 0
0 0
0 0
0 0
0 0
0 0
0 0
0 0
0 0
0 0
0 0
0 0
0 0
0 0
0 0
0 0
0 0
0 0
0 0
0 0
0 0
0 0
0 0
0 0
0 0
0 0
0 0
0 0
0 0
0 0
0 0
0 0
0 0
0 0
0 0
0 0
0 0
0 0
0 0
0 0
0 0
0 0
0 0
0 0
0 0
0 0
0 0
0 0
0 0
0 0
0 0
0 0
0 0
0 0
0 0
0 0
0 0
0 0
0 0
0 0
0 0
0 0
0 0
0 0
0 0
0 0
0 0
0 0
0 0
0 0
0 0
0 0
0 0
0 0
0 0
0 0
0 0
0 0
0 0
0 0
0 0
0 0
0 0
0 0
0 0
0 0
0 0
0 0
0 0
0 0
0 0
0 0
0 0
0 0
0 0
0 0
0 0
0 0
0 0
0 0
0 0
0 0
0 0
0 0
0 0
0 0
0 0
0 0
0 0
0 0
0 0
0 0
0 0
0 0
0 0
0 0
0 0
0 0
0 0
0 0
0 0
0 0
0 0
0 0
0 0
0 0
0 0
0 0
0 0
0 0
0 0
0 0
0 0
0 0
0 0
0 0
0 0
0 0
0 0
0 0
0 0
0 0
0 0
0 0
0 0
0 0
0 0
0 0
0 0
0 0
0 0
0 0
0 0
0 0
0 0
0 0
0 0
0 0
0 0
0 0
0 0
0 0
0 0
0 0
0 0
0 0
0 0
0 0
0 0
0 0
0 0
0 0
0 0
0 0
0 0
0 0
0 0
0 0
0 0
0 0
0 0
0 0
0 0
0 0
0 0
0 0
0 0
0 0
0 0
0 0
0 0
0 0
0 0
0 0
0 0
0 0
0 0
0 0
0 0
0 0
0 0
0 0
0 0
0 0
0 0
0 0
0 0
0 0
0 0
0 0
0 0
0 0
0 0
0 0
0 0
0 0
0 0
0 0
0 0
0 0
0 0
0 0
0 0
0 0
0 0
0 0
0 0
0 0
0 0
0 0
0 0
0 0
0 0
0 0
0 0
0 0
0 0
0 0
0 0
0 0
0 0
0 0
0 0
0 0
0 0
0 0
0 0
0 0
0 0
0 0
0 0
0 0
0 0
0 0
0 0
0 0
0 0
0 0
0 0
0 0
0 0
0 0
0 0
0 0
0 0
0 0
0 0
0 0
0 0
0 0
0 0
0 0
0 0
0 0
0 0
0 0
0 0
0 0
0 0
0 0
0 0
0 0
0 0
0 0
0 0
0 0
0 0
0 0
0 0
0 0
0 0
0 0
0 0
0 0
0 0
0 0
0 0
0 0
0 0
0 0
0 0
0 0
0 0
0 0
0 0
0 0
0 0
0 0
0 0
0 0
0 0
0 0
0 0
0 0
0 0
0 0
0 0
0 0
0 0
0 0
0 0
0 0
0 0
0 0
0 0
0 0
0 0
0 0
0 0
0 0
0 0
0 0
0 0
0 0
0 0
0 0
0 0
0 0
0 0
0 0
0 0
0 0
0 0
0 0
0 0
0 0
0 0
0 0
0 0
0 0
0 0
0 0
0 0
0 0
0 0
0 0
0 0
0 0
0 0
0 0
0 0
0 0
0 0
0 0
0 0
0 0
0 0
0 0
0 0
0 0
0 0
0 0
0 0
0 0
0 0
0 0
0 0
0 0
0 0
0 0
0 0
0 0
0 0
0 0
0 0
0 0
0 0
0 0
0 0
0 0
0 0
0 0
0 0
0 0
0 0
0 0
0 0
0 0
0 0
0 0
0 0
0 0
0 0
0 0
0 0
0 0
0 0
0 0
0 0
0 0
0 0
0 0
0 0
0 0
0 0
0 0
0 0
0 0
0 0
0 0
0 0
0 0
0 0
0 0
0 0
0 0
0 0
0 0
0 0
0 0
0 0
0 0
0 0
0 0
0 0
0 0
0 0
0 0
0 0
0 0
0 0
0 0
0 0
0 0
0 0
0 0
0 0
0 0
0 0
0 0
0 0
0 0
0 0
0 0
0 0
0 0
0 0
0 0
0 0
0 0
0 0
0 0
0 0
0 0
0 0
0 0
0 0
0 0
0 0
0 0
0 0
0 0
0 0
0 0
0 0
0 0
0 0
0 0
0 0
0 0
0 0
0 0
0 0
0 0
0 0
0 0
0 0
0 0
0 0
0 0
0 0
0 0
0 0
0 0
0 0
0 0
0 0
0 0
0 0
0 0
0 0
0 0
0 0
0 0
0 0
0 0
0 0
0 0
0 0
0 0
0 0
0 0
0 0
0 0
0 0
0 0
0 0
0 0
0 0
0 0
0 0
0 0
0 0
0 0
0 0
0 0
0 0
0 0
0 0
0 0
0 0
0 0
0 0
0 0
0 0
0 0
0 0
0 0
0 0
0 0
0 0
0 0
0 0
0 0
0 0
0 0
0 0
0 0
0 0
0 0
0 0
0 0
0 0
0 0
0 0
0 0
0 0
0 0
0 0
0 0
0 0
0 0
0 0
0 0
0 0
0 0
0 0
0 0
0 0
0 0
0 0
0 0
0 0
0 0
0 0
0 0
0 0
0 0
0 0
0 0
0 0
0 0
0 0
0 0
0 0
0 0
0 0
0 0
0 0
0 0
0 0
0 0
0 0
0 0
0 0
0 0
0 0
0 0
0 0
0 0
0 0
0 0
0 0
0 0
0 0
0 0
0 0
0 0
0 0
0 0
0 0
0 0
0 0
0 0
0 0
0 0
0 0
0 0
0 0
0 0
0 0
0 0
0 0
0 0
0 0
0 0
0 0
0 0
0 0
0 0
0 0
0 0
0 0
0 0
0 0
0 0
0 0
0 0
0 0
0 0
0 0
0 0
0 0
0 0
0 0
0 0
0 0
0 0
0 0
0 0
0 0
0 0
0 0
0 0
0 0
0 0
0 0
0 0
0 0
0 0
0 0
0 0
0 0
0 0
0 0
0 0
0 0
0 0
0 0
0 0
0 0
0 0
0 0
0 0
0 0
0 0
0 0
0 0
0 0
0 0
0 0
0 0
0 0
0 0
0 0
0 0
0 0
0 0
0 0
0 0
0 0
0 0
0 0
0 0
0 0
0 0
0 0
0 0
0 0
0 0
0 0
0 0
0 0
0 0
0 0
0 0
0 0
0 0
0 0
0 0
0 0
0 0
0 0
0 0
0 0
0 0
0 0
0 0
0 0
0 0
0 0
0 0
0 0
0 0
0 0
0 0
0 0
0 0
0 0
0 0
0 0
0 0
0 0
0 0
0 0
0 0
0 0
0 0
0 0
0 0
0 0
0 0
0 0
0 0
0 0
0 0
0 0
0 0
0 0
0 0
0 0
0 0
0 0
0 0
0 0
0 0
0 0
0 0
0 0
0 0
0 0
0 0
0 0
0 0
0 0
0 0
0 0
0 0
0 0
0 0
0 0
0 0
0 0
0 0
0 0
0 0
0 0
0 0
0 0
0 0
0 0
0 0
0 0
0 0
0 0
0 0
0 0
0 0
0 0
0 0
0 0
0 0
0 0
0 0
0 0
0 0
0 0
0 0
0 0
0 0
0 0
0 0
0 0
0 0
0 0
0 0
0 0
0 0
0 0
0 0
0 0
0 0
0 0
0 0
0 0
0 0
0 0
0 0
0 0
0 0
0 0
0 0
0 0
0 0
0 0
0 0
0 0
0 0
0 0
0 0
0 0
0 0
0 0
0 0
0 0
0 0
0 0
0 0
0 0
0 0
0 0
0 0
0 0
0 0
0 0
0 0
0 0
0 0
0 0
0 0
0 0
0 0
0 0
0 0
0 0
0 0
0 0
0 0
0 0
0 0
0 0
0 0
0 0
0 0
0 0
0 0
0 0
0 0
0 0
0 0
0 0
0 0
0 0
0 0
0 0
0 0
0 0
0 0
0 0
0 0
0 0
0 0
0 0
0 0
0 0
0 0
0 0
0 0
0 0
0 0
0 0
0 0
0 0
0 0
0 0
0 0
0 0
0 0
0 0
0 0
0 0
0 0
0 0
0 0
0 0
0 0
0 0
0 0
0 0
0 0
0 0
0 0
0 0
0 0
0 0
0 0
0 0
0 0
0 0
0 0
0 0
0 0
0 0
0 0
0 0
0 0
0 0
0 0
0 0
0 0
0 0
0 0
0 0
0 0
0 0
0 0
0 0
0 0
0 0
0 0
0 0
0 0
0 0
0 0
0 0
0 0
0 0
0 0
0 0
0 0
0 0
0 0
0 0
0 0
0 0
0 0
0 0
0 0
0 0
0 0
0 0
0 0
0 0
0 0
0 0
0 0
0 0
0 0
0 0
0 0
0 0
0 0
0 0
0 0
0 0
0 0
0 0
0 0
0 0
0 0
0 0
0 0
0 0
0 0
0 0
0 0
0 0
0 0
0 0
0 0
0 0
0 0
0 0
0 0
0 0
0 0
0 0
0 0
0 0
0 0
0 0
0 0
0 0
0 0
0 0
0 0
0 0
0 0
0 0
0 0
0 0
0 0
0 0
0 0
0 0
0 0
0 0
0 0
0 0
0 0
0 0
0 0
0 0
0 0
0 0
0 0
0 0
0 0
0 0
0 0
0 0
0 0
0 0
0 0
0 0
0 0
0 0
0 0
0 0
0 0
0 0
0 0
0 0
0 0
0 0
0 0
0 0
0 0
0 0
0 0
0 0
0 0
0 0
0 0
0 0
0 0
0 0
0 0
0 0
0 0
0 0
0 0
0 0
0 0
0 0
0 0
0 0
0 0
0 0
0 0
0 0
0 0
0 0
0 0
0 0
0 0
0 0
0 0
0 0
0 0
0 0
0 0
0 0
0 0
0 0
0 0
0 0
0 0
0 0
0 0
0 0
0 0
0 0
0 0
0 0
0 0
0 0
0 0
0 0
0 0
0 0
0 0
0 0
0 0
0 0
0 0
0 0
0 0
0 0
0 0
0 0
0 0
0 0
0 0
0 0
0 0
0 0
0 0
0 0
0 0
0 0
0 0
0 0
0 0
0 0
0 0
0 0
0 0
0 0
0 0
0 0
0 0
0 0
0 0
0 0
0 0
0 0
0 0
0 0
0 0
0 0
0 0
0 0
0 0
0 0
0 0
0 0
0 0
0 0
0 0
0 0
0 0
0 0
0 0
0 0
0 0
0 0
0 0
0 0
0 0
0 0
0 0
0 0
0 0
0 0
0 0
0 0
0 0
0 0
0 0
0 0
0 0
0 0
0 0
0 0
0 0
0 0
0 0
0 0
0 0
0 0
0 0
0 0
0 0
0 0
0 0
0 0
0 0
0 0
0 0
0 0
0 0
0 0
0 0
0 0
0 0
0 0
0 0
0 0
0 0
0 0
0 0
0 0
0 0
0 0
0 0
0 0
0 0
0 0
0 0
0 0
0 0
0 0
0 0
0 0
0 0
0 0
0 0
0 0
0 0
0 0
0 0
0 0
0 0
0 0
0 0
0 0
0 0
0 0
0 0
0 0
0 0
0 0
0 0
0 0
0 0
0 0
0 0
0 0
0 0
0 0
0 0
0 0
0 0
0 0
0 0
0 0
0 0
0 0
0 0
0 0
0 0
0 0
0 0
0 0
0 0
0 0
0 0
0 0
0 0
0 0
0 0
0 0
0 0
0 0
0 0
0 0
0 0
0 0
0 0
0 0
0 0
0 0
0 0
0 0
0 0
0 0
0 0
0 0
0 0
0 0
0 0
0 0
0 0
0 0
0 0
0 0
0 0
0 0
0 0
0 0
0 0
0 0
0 0
0 0
0 0
0 0
0 0
0 0
0 0
0 0
0 0
0 0
0 0
0 0
0 0
0 0
0 0
0 0
0 0
0 0
0 0
0 0
0 0
0 0
0 0
0 0
0 0
0 0
0 0
0 0
0 0
0 0
0 0
0 0
0 0
0 0
0 0
0 0
0 0
0 0
0 0
0 0
0 0
0 0
0 0
0 0
0 0
0 0
0 0
0 0
0 0
0 0
0 0
0 0
0 0
0 0
0 0
0 0
0 0
0 0
0 0
0 0
0 0
0 0
0 0
0 0
0 0
0 0
0 0
0 0
0 0
0 0
0 0
0 0
0 0
0 0
0 0
0 0
0 0
0 0
0 0
0 0
0 0
0 0
0 0
0 0
0 0
0 0
0 0
0 0
0 0
0 0
0 0
0 0
0 0
0 0
0 0
0 0
0 0
0 0
0 0
0 0
0 0
0 0
0 0
0 0
0 0
0 0
0 0
0 0
0 0
0 0
0 0
0 0
0 0
0 0
0 0
0 0
0 0
0 0
0 0
0 0
0 0
0 0
0 0
0 0
0 0
0 0
0 0
0 0
0 0
0 0
0 0
0 0
0 0
0 0
0 0
0 0
0 0
0 0
0 0
0 0
0 0
0 0
0 0
0 0
0 0
0 0
0 0
0 0
0 0
0 0
0 0
0 0
0 0
0 0
0 0
0 0
0 0
0 0
0 0
0 0
0 0
0 0
0 0
0 0
0 0
0 0
0 0
0 0
0 0
0 0
0 0
0 0
0 0
0 0
0 0
0 0
0 0
0 0
0 0
0 0
0 0
0 0
0 0
0 0
0 0
0 0
0 0
0 0
0 0
0 0
0 0
0 0
0 0
0 0
0 0
0 0
0 0
0 0
0 0
0 0
0 0
0 0
0 0
0 0
0 0
0 0
0 0
0 0
0 0
0 0
0 0
0 0
0 0
0 0
0 0
0 0
0 0
0 0
0 0
0 0
0 0
0 0
0 0
0 0
0 0
0 0
0 0
0 0
0 0
0 0
0 0
0 0
0 0
0 0
0 0
0 0
0 0
0 0
0 0
0 0
0 0
0 0
0 0
0 0
0 0
0 0
0 0
0 0
0 0
0 0
0 0
0 0
0 0
0 0
0 0
0 0
0 0
0 0
0 0
0 0
0 0
0 0
0 0
0 0
0 0
0 0
0 0
0 0
0 0
0 0
0 0
0 0
0 0
0 0
0 0
0 0
0 0
0 0
0 0
0 0
0 0
0 0
0 0
0 0
0 0
0 0
0 0
0 0
0 0
0 0
0 0
0 0
0 0
0 0
0 0
0 0
0 0
0 0
0 0
0 0
0 0
0 0
0 0
0 0
0 0
0 0
0 0
0 0
0 0
0 0
0 0
0 0
0 0
0 0
0 0
0 0
0 0
0 0
0 0
0 0
0 0
0 0
0 0
0 0
0 0
0 0
0 0
0 0
0 0
0 0
0 0
0 0
0 0
0 0
0 0
0 0
0 0
0 0
0 0
0 0
0 0
0 0
0 0
0 0
0 0
0 0
0 0
0 0
0 0
0 0
0 0
0 0
0 0
0 0
0 0
0 0
0 0
0 0
0 0
0 0
0 0
0 0
0 0
0 0
0 0
0 0
0 0
0 0
0 0
0 0
0 0
0 0
0 0
0 0
0 0
0 0
0 0
0 0
0 0
0 0
0 0
0 0
0 0
0 0
0 0
0 0
0 0
0 0
0 0
0 0
0 0
0 0
0 0
0 0
0 0
0 0
0 0
0 0
0 0
0 0
0 0
0 0
0 0
0 0
0 0
0 0
0 0
0 0
0 0
0 0
0 0
0 0
0 0
0 0
0 0
0 0
0 0
0 0
0 0
0 0
0 0
0 0
0 0
0 0
0 0
0 0
0 0
0 0
0 0
0 0
0 0
0 0
0 0
0 0
0 0
0 0
0 0
0 0
0 0
0 0
0 0
0 0
0 0
0 0
0 0
0 0
0 0
0 0
0 0
0 0
0 0
0 0
0 0
0 0
0 0
0 0
0 0
0 0
0 0
0 0
0 0
0 0
0 0
0 0
0 0
0 0
0 0
0 0
0 0
0 0
0 0
0 0
0 0
0 0
0 0
0 0
0 0
0 0
0 0
0 0
0 0
0 0
0 0
0 0
0 0
0 0
0 0
0 0
0 0
0 0
0 0
0 0
0 0
0 0
0 0
0 0
0 0
0 0
0 0
0 0
0 0
0 0
0 0
0 0
0 0
0 0
0 0
0 0
0 0
0 0
0 0
0 0
0 0
0 0
0 0
0 0
0 0
0 0
0 0
0 0
0 0
0 0
0 0
0 0
0 0
0 0
0 0
0 0
0 0
0 0
0 0
0 0
0 0
0 0
0 0
0 0
0 0
0 0
0 0
0 0
0 0
0 0
0 0
0 0
0 0
0 0
0 0
0 0
0 0
0 0
0 0
0 0
0 0
0 0
0 0
0 0
0 0
0 0
0 0
0 0
0 0
0 0
0 0
0 0
0 0
0 0
0 0
0 0
0 0
0 0
0 0
0 0
0 0
0 0
0 0
0 0
0 0
0 0
0 0
0 0
0 0
0 0
0 0
0 0
0 0
0 0
0 0
0 0
0 0
0 0
0 0
0 0
0 0
0 0
0 0
0 0
0 0
0 0
0 0
0 0
0 0
0 0
0 0
0 0
0 0
0 0
0 0
0 0
0 0
0 0
0 0
0 0
0 0
0 0
0 0
0 0
0 0
0 0
0 0
0 0
0 0
0 0
0 0
0 0
0 0
0 0
0 0
0 0
0 0
0 0
0 0
0 0
0 0
0 0
0 0
0 0
0 0
0 0
0 0
0 0
0 0
0 0
0 0
0 0
0 0
0 0
0 0
0 0
0 0
0 0
0 0
0 0
0 0
0 0
0 0
0 0
0 0
0 0
0 0
0 0
0 0
0 0
0 0
0 0
0 0
0 0
0 0
0 0
0 0
0 0
0 0
0 0
0 0
0 0
0 0
0 0
0 0
0 0
0 0
0 0
0 0
0 0
0 0
0 0
0 0
0 0
0 0
0 0
0 0
0 0
0 0
0 0
0 0
0 0
0 0
0 0
0 0
0 0
0 0
0 0
0 0
0 0
0 0
0 0
0 0
0 0
0 0
0 0
0 0
0 0
0 0
0 0
0 0
0 0
0 0
0 0
0 0
0 0
0 0
0 0
0 0
0 0
0 0
0 0
0 0
0 0
0 0
0 0
0 0
0 0
0 0
0 0
0 0
0 0
0 0
0 0
0 0
0 0
0 0
0 0
0 0
0 0
0 0
0 0
0 0
0 0
0 0
0 0
0 0
0 0
0 0
0 0
0 0
0 0
0 0
0 0
0 0
0 0
0 0
0 0
0 0
0 0
0 0
0 0
0 0
0 0
0 0
0 0
0 0
0 0
0 0
0 0
0 0
0 0
0 0
0 0
0 0
0 0
0 0
0 0
0 0
0 0
0 0
0 0
0 0
0 0
0 0
0 0
0 0
0 0
0 0
0 0
0 0
0 0
0 0
0 0
0 0
0 0
0 0
0 0
0 0
0 0
0 0
0 0
0 0
0 0
0 0
0 0
0 0
0 0
0 0
0 0
0 0
0 0
0 0
0 0
0 0
0 0
0 0
0 0
0 0
0 0
0 0
0 0
0 0
0 0
0 0
0 0
0 0
0 0
0 0
0 0
0 0
0 0
0 0
0 0
0 0
0 0
0 0
0 0
0 0
0 0
0 0
0 0
0 0
0 0
0 0
0 0
0 0
0 0
0 0
0 0
0 0
0 0
0 0
0 0
0 0
0 0
0 0
0 0
0 0
0 0
0 0
0 0
0 0
0 0
0 0
0 0
0 0
0 0
0 0
0 0
0 0
0 0
0 0
0 0
0 0
0 0
0 0
0 0
0 0
0 0
0 0
0 0
0 0
0 0
0 0
0 0
0 0
0 0
0 0
0 0
0 0
0 0
0 0
0 0
0 0
0 0
0 0
0 0
0 0
0 0
0 0
0 0
0 0
0 0
0 0
0 0
0 0
0 0
0 0
0 0
0 0
0 0
0 0
0 0
0 0
0 0
0 0
0 0
0 0
0 0
0 0
0 0
0 0
0 0
0 0
0 0
0 0
0 0
0 0
0 0
0 0
0 0
0 0
0 0
0 0
0 0
0 0
0 0
0 0
0 0
0 0
0 0
0 0
0 0
0 0
0 0
0 0
0 0
0 0
0 0
0 0
0 0
0 0
0 0
0 0
0 0
0 0
0 0
0 0
0 0
0 0
0 0
0 0
0 0
0 0
0 0
0 0
0 0
0 0
0 0
0 0
0 0
0 0
0 0
0 0
0 0
0 0
0 0
0 0
0 0
0 0
0 0
0 0
0 0
0 0
0 0
0 0
0 0
0 0
0 0
0 0
0 0
0 0
0 0
0 0
0 0
0 0
0 0
0 0
0 0
0 0
0 0
0 0
0 0
0 0
0 0
0 0
0 0
0 0
0 0
0 0
0 0
0 0
0 0
0 0
0 0
0 0
0 0
0 0
0 0
0 0
0 0
0 0
0 0
0 0
0 0
0 0
0 0
0 0
0 0
0 0
0 0
0 0
0 0
0 0
0 0
0 0
0 0
0 0
0 0
0 0
0 0
0 0
0 0
0 0
0 0
0 0
0 0
0 0
0 0
0 0
0 0
0 0
0 0
0 0
0 0
0 0
0 0
0 0
0 0
0 0
0 0
0 0
0 0
0 0
0 0
0 0
0 0
0 0
0 0
0 0
0 0
0 0
0 0
0 0
0 0
0 0
0 0
0 0
0 0
0 0
0 0
0 0
0 0
0 0
0 0
0 0
0 0
0 0
0 0
0 0
0 0
0 0
0 0
0 0
0 0
0 0
0 0
0 0
0 0
0 0
0 0
0 0
0 0
0 0
0 0
0 0
0 0
0 0
0 0
0 0
0 0
0 0
0 0
0 0
0 0
0 0
0 0
0 0
0 0
0 0
0 0
0 0
0 0
0 0
0 0
0 0
0 0
0 0
0 0
0 0
0 0
0 0
0 0
0 0
0 0
0 0
0 0
0 0
0 0
0 0
0 0
0 0
0 0
0 0
0 0
0 0
0 0
0 0
0 0
0 0
0 0
0 0
0 0
0 0
0 0
0 0
0 0
0 0
0 0
0 0
0 0
0 0
0 0
0 0
0 0
0 0
0 0
0 0
0 0
0 0
0 0
0 0
0 0
0 0
0 0
0 0
0 0
0 0
0 0
0 0
0 0
0 0
0 0
0 0
0 0
0 0
0 0
0 0
0 0
0 0
0 0
0 0
0 0
0 0
0 0
0 0
0 0
0 0
0 0
0 0
0 0
0 0
0 0
0 0
0 0
0 0
0 0
0 0
0 0
0 0
0 0
0 0
0 0
0 0
0 0
0 0
0 0
0 0
0 0
0 0
0 0
0 0
0 0
0 0
0 0
0 0
0 0
0 0
0 0
0 0
0 0
0 0
0 0
0 0
0 0
0 0
0 0
0 0
0 0
0 0
0 0
0 0
0 0
0 0
0 0
0 0
0 0
0 0
0 0
0 0
0 0
0 0
0 0
0 0
0 0
0 0
0 0
0 0
0 0
0 0
0 0
0 0
0 0
0 0
0 0
0 0
0 0
0 0
0 0
0 0
0 0
0 0
0 0
0 0
0 0
0 0
0 0
0 0
0 0
0 0
0 0
0 0
0 0
0 0
0 0
0 0
0 0
0 0
0 0
0 0
0 0
0 0
0 0
0 0
0 0
0 0
0 0
0 0
0 0
0 0
0 0
0 0
0 0
0 0
0 0
0 0
0 0
0 0
0 0
0 0
0 0
0 0
0 0
0 0
0 0
0 0
0 0
0 0
0 0
0 0
0 0
0 0
0 0
0 0
0 0
0 0
0 0
0 0
0 0
0 0
0 0
0 0
0 0
0 0
0 0
0 0
0 0
0 0
0 0
0 0
0 0
0 0
0 0
0 0
0 0
0 0
0 0
0 0
0 0
0 0
0 0
0 0
0 0
0 0
0 0
0 0
0 0
0 0
0 0
0 0
0 0
0 0
0 0
0 0
0 0
0 0
0 0
0 0
0 0
0 0
0 0
0 0
0 0
0 0
0 0
0 0
0 0
0 0
0 0
0 0
0 0
0 0
0 0
0 0
0 0
0 0
0 0
0 0
0 0
0 0
0 0
0 0
0 0
0 0
0 0
0 0
0 0
0 0
0 0
0 0
0 0
0 0
0 0
0 0
0 0
0 0
0 0
0 0
0 0
0 0
0 0
0 0
0 0
0 0
0 0
0 0
0 0
0 0
0 0
0 0
0 0
0 0
0 0
0 0
0 0
0 0
0 0
0 0
0 0
0 0
0 0
0 0
0 0
0 0
0 0
0 0
0 0
0 0
0 0
0 0
0 0
0 0
0 0
0 0
0 0
0 0
0 0
0 0
0 0
0 0
0 0
0 0
0 0
0 0
0 0
0 0
0 0
0 0
0 0
0 0
      </DataArray> 
      <DataArray type="Float64" NumberOfComponents="2" Name="CauchyNormalStress" format="ascii">
4.06628 2.27698
3.67624 1.81847
4.00471 0.390988
2.08935 -0.0822649
1.41933 0.0163144
0.872234 -0.00824728
0.554838 -0.0472906
0.341826 -0.0458305
0.100076 -0.0213856
-0.0757241 -0.0026577
-0.214381 -0.023107
-0.298698 -0.031267
-0.417435 -0.0165896
-0.494469 -0.000849451
-0.545979 -0.0183453
-0.558113 -0.0226252
-0.596148 -0.00850535
-0.598153 0.00203896
-0.575552 -0.0169168
-0.512467 -0.0228012
-0.475566 -0.00857227
-0.401817 0.00130554
-0.296689 -0.0211557
-0.138589 -0.0307853
-0.0130725 -0.0119209
0.166575 0.00588649
0.407889 -0.0222597
0.793082 -0.0879164
1.17046 -0.127345
1.76915 -0.0585556
3.58675 0.166405
-0.352256 0.239454
-0.465155 0.293848
-0.425713 0.692931
1.21953 2.94363
-0.381228 -0.0138696
-0.0843149 -0.177843
-0.0180538 -0.228045
-0.0446057 -0.269292
-0.0430653 -0.279049
-0.012288 -0.358577
-0.00892665 -0.3762
-0.00913421 -0.399807
-0.0210612 -0.396347
-0.0342126 -0.419969
-0.0386135 -0.354304
-0.0443425 -0.374318
-0.0565415 -0.359555
-0.0750488 -0.360843
-0.0928182 -0.32752
-0.109393 -0.318952
-0.124255 -0.264575
-0.150122 -0.274072
-0.00380045 -0.376825
-0.305971 -0.0219726
-0.359689 -0.0284761
-0.275456 -0.066826
-0.295316 -0.0875336
-0.210936 -0.150925
-36.6211 -99.386
-0.215547 -0.981709
-0.0737445 -0.421495
-0.478148 -1.23965
-3.80799 -18.897
-1.30794 -16.6992
-0.00167329 -9.61894
-0.734428 -10.0926
-0.848219 -9.91074
-1.52127 -11.4897
8.17875 0.508472
-6.29244 -18.8951
-8.27071 -22.5791
-11.3076 -33.766
-3.84934 -18.7595
8.56719 0.256056
11.4782 4.82256
-9.48835 -3.57736
-33.331 -95.1889
-1.39621 -16.7639
-0.00458888 -9.72137
-0.7593 -10.1478
-0.848551 -9.93926
-1.51456 -11.4828
0.00809586 -0.465721
-0.207326 -0.967968
-0.108881 -0.42478
-0.617338 -1.11227
-0.411539 0.0517753
-0.103203 -0.757871
-0.0212533 -0.434505
-0.10382 -0.527138
-0.117201 -0.30929
-0.144071 -0.271195
-0.258072 0.252193
-0.304601 -0.00759168
-0.35126 -0.0465761
-0.264262 -0.0571736
-0.293634 -0.104341
-0.231754 -0.106152
-0.22811 -0.153542
-0.186848 -0.178046
-0.177957 -0.214114
-0.153788 -0.256554
-0.128307 -0.264144
-0.112693 -0.320327
-0.0792242 -0.308342
-0.062185 -0.375102
-0.036345 -0.378694
-0.0410185 -0.40601
-0.0318842 -0.384188
-0.0203041 -0.413193
-0.346073 0.478773
-0.130994 1.01041
1.31935 2.72083
-9.57639 -5.90941
-5.76949 -15.1182
-9.26165 -6.36869
-5.04543 -20.4846
-6.44979 -16.5972
-1.16987 -12.1689
-9.4667 -4.67128
2.49533 -13.4965
0.679969 -2.12693
0.505691 -2.0491
-1.73372 -21.0342
-1.83005 -21.6338
1.17496 -5.01059
0.441559 -2.44696
0.183246 -10.1849
0.21442 -8.90412
-0.177439 -10.2409
0.456186 -7.78834
0.267976 -9.04692
-0.93927 -8.63151
-0.157512 -8.66411
-0.293068 -9.37418
-1.24832 -9.26827
0.683229 -7.18826
0.897787 -6.8649
0.763436 -9.33637
-4.90843 -3.11695
-5.1105 -3.11665
-5.41667 -3.44472
0.415541 -10.8344
0.584945 -8.26194
-2.79521 -9.592
-2.67425 -9.02052
-0.185761 -12.066
-0.81527 -11.6401
-2.17748 -10.2677
-2.44055 -11.0121
-0.23538 -11.1963
-3.78606 -2.54454
-4.49328 -2.69837
-4.17223 -2.74163
0.352473 -6.93354
0.504649 -7.30038
-4.18482 -4.40307
-2.76613 -6.57998
-0.647206 -7.50941
0.146243 -6.53818
0.0884742 -6.9872
-0.672904 -8.10643
-2.94533 -7.04312
-4.45378 -4.57126
0.801575 -6.02524
1.12497 -8.33545
-6.93038 -5.28532
-6.76544 -4.21502
-5.69696 -3.38733
-5.94184 -4.63236
1.4314 -8.61687
1.5458 -10.3667
1.23768 -10.0249
0.977816 -8.27261
0.970666 -6.47591
0.850808 -5.75744
-7.25127 -6.04482
-4.15754 -8.75125
-4.01737 -8.16368
-7.16292 -8.41737
1.1218 -12.8085
0.0604674 -16.2101
-2.64308 -12.1273
-0.546814 -12.8062
1.36072 -11.7925
-3.40621 -2.49385
-3.88791 -2.52296
-3.88407 -2.41746
-3.9892 -2.49805
-3.27222 -2.09972
-3.17367 -2.07004
-3.03381 -1.97149
-3.46036 -2.36506
0.474922 -5.91653
0.692682 -5.37272
0.743462 -5.24278
0.494971 -6.07962
-3.22281 -2.53075
-3.35339 -2.89904
-3.40607 -4.30772
-2.63868 -5.1093
-1.29927 -5.97557
-0.473851 -6.43275
-0.645447 -6.75879
-1.50164 -6.32699
-2.85406 -5.45452
-3.51613 -4.45591
-3.54978 -2.78088
-3.34395 -2.42904
0.774656 -5.08522
1.25422 -6.59351
-9.17335 -7.58124
-7.63807 -4.41898
-8.2776 -5.36846
1.8618 -8.66989
1.85983 -9.74816
1.15363 -6.51365
0.753748 -4.618
-7.28768 -9.50628
-7.28843 -12.2323
1.98562 -13.906
-3.46647 -14.4384
-7.3967 -15.0637
-2.81529 -12.5663
0.63713 -14.3178
-2.41299 -1.75071
-2.74083 -1.91925
-2.77925 -1.89098
-2.4359 -1.67718
-2.2807 -1.63859
-2.29539 -1.62775
0.571663 -4.91538
0.477707 -4.83689
-2.37379 -2.18354
-1.77593 -3.58966
-0.23443 -5.01185
-0.491849 -5.22069
-1.93604 -3.66735
-2.37685 -2.02196
0.517163 -3.23116
0.643226 -3.7162
0.773748 -4.41267
0.927682 -4.49961
1.31359 -4.91709
1.71682 -6.42833
-7.87642 -11.9302
-9.73966 -4.73666
-8.80664 -8.24568
2.08228 -8.14298
2.12467 -8.63153
1.73636 -7.11284
1.32949 -5.79416
1.02274 -4.95255
0.672803 -3.85429
0.483011 -2.86969
-8.67016 -13.0574
-8.6739 -17.1904
2.37402 -10.3264
2.16938 -18.7789
-8.25094 -19.8996
2.46967 -13.9892
2.31859 -9.72001
-4.78348 -16.2404
1.33733 -17.0422
-1.29512 -1.22602
-1.40911 -1.21367
-1.72635 -1.38983
-1.50773 -1.38874
-1.98776 -1.41343
-1.85448 -1.43041
-1.8898 -1.3019
-1.89161 -1.333
-1.53898 -1.15717
-1.63223 -1.15311
-1.46722 -1.27004
-1.65428 -1.24953
-1.23145 -1.11323
-1.3449 -1.18082
0.486165 -4.40806
0.556618 -4.28024
0.605337 -3.74659
0.445642 -2.82428
0.606388 -3.6236
0.507327 -4.41545
0.203116 -4.71204
-1.6333 -1.59751
-1.27921 -2.11117
-0.577306 -3.18644
0.0248117 -3.81486
-0.401482 -4.15146
-0.821055 -3.30311
-1.47018 -2.05478
-1.5256 -1.38143
0.198995 -1.55693
0.423409 -2.59152
0.576261 -2.86538
0.86059 -3.43859
1.19969 -4.12863
0.185445 -27.0154
-7.53245 -4.12084
-4.57081 -0.581203
-7.7306 -3.18688
-1.02441 -24.7127
1.82237 -6.41977
1.75423 -6.13846
1.20552 -4.49159
0.720281 -3.62925
0.241524 -1.7696
0.325443 -34.7229
-2.71501 -26.499
0.171783 -33.516
-1.2371 -28.3925
1.90468 -10.9073
-4.84147 -27.4857
-15.5189 -32.1723
1.8438 -8.9917
-14.8583 -28.3163
-1.30409 -21.8263
-0.258673 -0.714761
-0.637681 -0.893939
-1.07092 -0.891217
-1.21123 -0.831335
-1.11526 -0.783231
-0.791484 -0.799303
-0.271143 -0.742144
0.826748 -3.08154
0.32459 -2.02106
0.436315 -2.24283
0.557831 -3.35873
-0.17999 -0.987413
0.858132 -2.50233
1.26997 -2.17727
0.960497 -2.6552
0.28521 -2.75292
-0.226657 -0.909281
0.197143 -1.03912
0.190764 -1.30948
0.0476854 -0.74238
0.133682 -1.16799
0.124022 -1.15736
0.24751 -1.71096
0.212541 -1.4574
0.321303 -1.79679
0.338498 -1.76939
0.386825 -1.83921
0.322439 -1.61376
-6.80573 -11.744
-3.64561 -1.19055
-3.29327 -1.06131
-7.01385 -8.32857
0.689231 -2.50572
0.864183 -3.00671
0.928878 -3.36582
0.644263 -2.85774
0.816366 -4.66661
0.763592 -4.20889
0.678882 -2.98363
0.843428 -3.11956
0.850545 -2.97561
0.654967 -2.4397
0.653149 -2.48531
0.489354 -2.11543
0.28678 -1.58583
0.347973 -1.88901
0.0896549 -1.05068
0.129671 -1.07386
0.117747 -1.10609
0.0841825 -0.961891
0.354039 -18.7897
0.441411 -25.0915
-0.458385 -33.308
0.288563 -18.2685
0.251409 -31.9759
0.187787 -24.1355
0.294487 -5.64958
-0.950251 -5.17459
-0.763538 -38.9321
0.511849 -5.52676
1.04264 -26.3854
-0.241716 -7.17844
0.632999 -0.391908
1.44765 0.356002
0.792924 -0.509176
0.0693647 -0.450932
0.315031 -0.449709
-0.24026 -0.477053
-0.56337 -0.459712
-0.426868 -0.451032
-0.71835 -0.4481
-0.851633 -0.439947
-0.798493 -0.429234
-0.846265 -0.400865
-0.826851 -0.40369
-0.851929 -0.389755
-0.727307 -0.395698
-0.531523 -0.408881
-0.650374 -0.388435
-0.30788 -0.415441
0.180456 -0.4536
-0.122729 -0.405398
0.551398 -0.307063
1.59413 0.247013
0.748647 -0.347367
0.0496809 -0.652563
0.0505272 -0.715607
0.10588 -0.919437
0.0902706 -0.899468
0.469574 -2.00947
0.958054 -0.806209
0.562274 -1.99141
0.878319 -2.32516
0.74894 -1.0357
1.61357 -0.237883
0.997047 -1.38852
0.702572 -1.62322
1.41514 -0.224724
0.0693966 -0.550698
0.0596335 -0.51676
0.0791927 -0.129878
0.13584 -0.395469
0.106966 -0.419583
0.04703 -0.208449
0.642301 0.147214
3.10874 1.04341
0.779459 0.16167
0.710207 -0.221367
0.786022 -0.305572
2.43662 0.183335
1.46929 -1.47935
1.85063 -0.684948
0.260951 -0.80699
0.319878 -0.841284
-0.209213 -1.70164
0.0647544 -1.73618
0.68292 -3.09265
0.606652 -2.99695
0.204331 -1.57409
0.108717 -1.08134
-0.221738 -0.513987
-0.502875 -0.8112
-0.958507 -0.779286
-1.1576 -0.783686
-1.16532 -0.864873
-0.862855 -0.901342
-0.312025 -0.86993
-0.635182 -0.582278
1.84028 -12.6696
1.32631 -16.3535
2.19262 -27.6427
2.37136 -28.4985
0.278071 -1.82025
0.828541 -3.5221
1.51095 -5.13998
1.54047 -6.02204
1.90471 -7.68721
1.54207 -5.22604
-7.22768 -8.60379
-6.42851 -11.6273
0.866374 -3.18003
0.730341 -3.26771
0.569889 -3.09971
0.302718 -2.00494
0.426663 -3.66581
0.936414 -3.25836
-8.64667 -20.036
-9.26231 -23.8347
-8.58518 -2.77479
-2.62444 -2.52843
-1.32238 -4.72834
-1.06433 -4.49107
-2.56338 -2.68354
0.189984 -5.69984
0.64399 -4.05096
0.685322 -4.40856
0.354232 -5.50268
-2.17369 -1.61438
-2.41394 -1.69899
-2.15572 -1.53528
-2.66511 -1.80864
-2.86641 -1.95204
-2.6188 -1.86982
-2.23777 -1.71536
-1.51411 -13.7884
2.11788 -12.5764
1.41166 -17.8382
2.04196 -10.8968
-8.85252 -11.258
-9.29338 -7.98467
0.897064 -5.15048
1.49042 -7.98448
-6.3317 -3.80029
-8.85257 -5.87654
1.56133 -6.79083
0.936937 -5.72324
-4.05354 -11.3001
-3.96457 -10.6001
-4.49982 -3.10794
-4.37946 -6.20205
-1.58467 -7.90317
-1.42412 -7.42434
-4.19271 -5.7617
-4.18491 -3.2207
0.799118 -6.41969
0.640363 -6.3348
-3.89348 -2.41107
-5.09186 -3.00904
0.377653 -11.8203
-1.21669 -13.5677
0.470484 -9.85247
0.747091 -10.6287
0.158379 -8.23514
0.0731135 -7.5595
-0.830367 -10.5938
-0.406719 -9.78926
0.818621 -8.0329
0.897738 -40.7575
-0.763935 -0.618789
-4.30759 -9.92593
-1.68843 -8.89767
-1.33785 -1.22884
1.67062 -17.8731
-0.572885 -0.815404
-6.95913 -54.9974
-4.51857 -17.5913
-0.851461 -1.07366
-2.36162 -10.0007
0.732481 -25.4984
-0.0532312 -28.2973
-3.86305 -28.3552
-3.46942 -23.1419
-2.38672 -44.7952
-2.19987 -12.2034
-3.57748 -13.4467
-2.4252 -19.719
1.10313 -25.7579
0.944825 -28.3464
0.225736 -20.799
-1.31433 -18.0918
-1.00473 -15.4724
-4.85421 -14.7866
-6.33273 -18.4096
-0.325783 -14.1211
0.884454 -23.2931
-0.0652421 -29.5986
-3.16385 -23.9393
-3.88892 -29.9207
-2.33245 -20.243
-2.20817 -12.2184
-3.56918 -13.4868
-3.96162 -49.2488
0.762838 -29.1339
1.27273 -26.7439
0.362661 -21.495
-0.981142 -15.7666
-1.23148 -18.5499
-0.296916 -14.3967
-4.86653 -14.8958
-6.32731 -18.7362
1.01112 -24.0682
-4.47938 -3.13108
0.416705 -1.66738
2.49724 0.761111
1.99459 -0.214988
-24.3557 -47.6616
-11.4714 -34.2511
-17.8882 -26.9056
-6.95199 -8.94039
-5.0709 -4.1183
-4.82758 -3.83764
1.98118 0.404241
0.0239806 -1.69659
-17.8421 -30.2279
-24.0013 -48.3407
-9.71697 -3.99439
1.92509 -0.323713
-4.96745 -5.2952
-6.60986 -12.0889
-7.60787 -24.4948
-6.90009 -34.642
0.407721 -26.4575
-24.1699 -39.4832
2.08964 -19.3114
-8.19797 -19.2652
-10.8546 -23.4997
-13.8897 -29.6515
-3.11352 -34.4064
-16.9794 -39.1155
1.19212 -25.5299
-24.2817 -41.3181
-12.3183 -27.513
-11.0039 -24.4307
-7.09636 -31.2771
-6.68394 -38.6535
-1.10464 -30.7002
0.481537 -28.702
-5.14619 -26.299
-7.83978 -27.4443
-2.15518 -30.147
-9.57319 -34.8298
0.00424376 -28.2492
-5.86145 -23.045
0.883256 -29.9409
-4.06839 -19.4639
-2.00465 -22.8557
-4.82845 -17.1342
-7.41653 -47.3389
1.68663 -30.6154
0.507442 -27.0171
-6.25994 -1.72582
-3.58703 -0.815753
-5.73521 -2.73505
1.55617 -0.410614
-7.33033 -5.53894
-8.02243 -2.87878
-6.78432 -1.94246
-6.16528 -2.20162
-5.89602 -3.44221
-3.77402 -0.934141
-6.95833 -7.21634
-7.92243 -3.30784
1.13038 -30.7816
-1.52617 -24.7179
-2.83549 -22.4508
-7.02361 -46.0639
-3.60122 -20.126
0.9595 -27.5827
1.49863 -29.8142
-7.58139 -17.0524
-4.57313 -19.7837
-1.45987 -17.4047
-3.12241 -15.0338
-9.26158 -21.8091
-4.95642 -22.4736
-0.138436 -22.6595
-1.08757 -19.6813
-8.24093 -17.5166
-6.15224 -15.6279
-4.30953 -13.7165
-5.7228 -13.1606
-7.16973 -12.2886
-8.06997 -11.341
-8.27902 -14.175
-8.32119 -8.69564
-8.89374 -10.6008
-8.4217 -16.3518
-5.76045 -10.4255
-8.15756 -11.7964
-8.09764 -9.90213
-7.11408 -10.3094
-5.62904 -9.47921
-5.72794 -7.20132
-5.63525 -11.457
-8.28578 -7.14766
-7.2031 -7.73925
-5.87331 -7.95142
-5.86265 -6.03349
-8.78416 -6.6319
-7.7399 -5.66054
-6.79065 -4.89795
-7.31931 -4.65148
-7.78869 -5.09836
-8.21489 -5.05639
-7.1865 -4.28512
-6.38191 -3.75839
-6.96984 -4.08212
-5.94872 -3.58058
-6.98598 -6.77968
-8.19466 -7.9551
-8.10978 -6.58558
-8.952 -9.35107
-8.9942 -6.64383
-7.86599 -5.52989
-5.59274 -5.41749
-6.79579 -4.69936
-5.85886 -3.68787
-4.53245 -3.13663
-4.95849 -3.06011
-5.93382 -4.16958
-5.61317 -4.37836
-5.50313 -22.5081
-1.46318 -28.1798
-5.28629 -28.7061
0.670985 -25.7738
-8.27259 -22.498
-6.27253 -18.836
-2.97419 -19.5138
0.139417 -14.4431
-0.626272 -20.6976
-0.939607 -15.1272
-7.56625 -21.298
-10.0477 -17.2092
-0.885634 -14.8122
-0.621737 -20.1396
0.109588 -14.1694
0.595793 -24.9475
-7.6925 -20.5635
-9.82437 -17.5907
-2.87323 -19.3197
-5.2957 -28.1675
-1.41686 -27.3561
-5.41421 -22.196
11.1994 5.75378
8.58632 0.440623
-9.07348 -6.36531
-8.68116 -4.17806
-8.21925 -5.51489
-9.02034 -3.55624
-7.89299 -8.50131
-9.09095 -8.16263
-9.40271 -6.31614
-7.73837 -12.5601
-7.54622 -14.5118
-8.73512 -10.8252
-7.51191 -18.4317
-6.75989 -13.0637
-1.63034 -25.2518
-4.88474 -21.3448
-3.62121 -20.0682
-2.2627 -23.2739
-3.64383 -24.3627
-0.410221 -27.1179
-6.83913 -22.0808
-5.49207 -16.6679
-8.15339 -14.8353
-6.80589 -18.5421
-6.59879 -16.5357
-8.92456 -20.3065
-7.008 -11.9664
-8.36682 -11.5935
-8.5321 -14.3675
-9.26275 -7.1658
-9.44508 -5.39435
-9.4597 -6.02809
-8.97049 -4.41875
-9.28271 -4.02554
-9.41432 -5.52176
-9.01037 -8.73488
-7.65353 -7.67501
-8.50162 -5.61213
-8.57516 -8.89489
-7.418 -16.158
-6.73037 -17.5174
-8.80914 -18.6039
-3.32508 -17.9178
-7.97384 -14.6626
-6.59903 -13.6523
-4.75261 -12.803
-8.6916 -5.26698
-8.95237 -5.67293
-7.93911 -4.91615
-9.36141 -6.92048
-9.22348 -5.81368
-9.54246 -4.59421
-9.54302 -5.40945
-9.61172 -5.15599
-2.2512 -5.34169
-1.35387 -7.03081
-1.3214 -3.59507
-0.559856 -14.3288
-0.0778848 -10.6904
-0.832144 -3.04607
-1.29863 -0.965919
-2.00478 -0.724845
-3.1475 -5.66761
-2.20282 -23.7362
-1.13556 -18.2271
-2.99022 -12.8783
1.25495 -19.9066
-4.70607 -9.03815
-2.31454 -27.103
0.633772 -30.2661
-12.1454 -73.7533
-14.1139 -18.476
-8.27705 -32.6118
-1.46867 -36.1714
-7.4789 -34.3735
-19.2766 -65.2808
-14.0845 -17.7699
-14.9545 -77.1537
-8.19894 -35.4303
-7.69257 -37.5118
-2.14026 -38.1076
-18.5785 -70.2312
-14.903 -36.5051
-11.096 -43.6473
-4.30599 -39.9199
-33.2635 -61.3457
-14.311 -61.3464
0.551631 -30.7457
-2.17237 -32.611
-11.8749 -30.7369
-17.8061 -33.446
1.10512 -22.7147
1.71487 -19.059
1.46831 -22.2027
1.84604 -14.7575
1.91749 -16.272
0.614841 -20.7785
-0.808563 -24.295
0.386721 -27.5165
1.46304 -20.9683
-7.97583 -21.6581
-9.74159 -21.3853
-9.76671 -23.9003
-8.67126 -19.7693
-9.65314 -21.7929
-12.1744 -25.9809
-11.7694 -26.4399
-4.13282 -23.3038
-5.83702 -22.099
-0.434954 -29.1684
0.607487 -26.2465
-0.659002 -30.48
1.29178 -21.3215
-2.46549 -37.9648
-4.33342 -30.9406
-1.41785 -26.7338
-12.8056 -47.3263
-19.4233 -48.9941
-22.9723 -39.7577
-26.4899 -75.8241
-33.6963 -64.4943
-17.4588 -36.6263
-17.9903 -34.8435
-8.03302 -41.0976
-3.42017 -46.6748
-14.0079 -28.5553
-12.4912 -25.9975
-11.6799 -26.8047
-10.1736 -25.4388
-10.7906 -24.2196
-8.13717 -25.8464
-9.33795 -28.7515
-16.1146 -31.0829
-13.0859 -29.7621
-13.1739 -40.4819
-11.5566 -44.0886
-5.61917 -42.9092
-2.84991 -35.8826
-11.2334 -35.4458
-11.1087 -31.8309
-9.77173 -29.4432
-8.63746 -27.4675
-3.51694 -29.2105
-7.94526 -41.4862
-14.8492 -43.9735
-16.4888 -36.1686
-12.9781 -31.4778
-4.75312 -35.5206
-11.5166 -28.1827
-9.61743 -25.4976
-5.1239 -26.6475
-8.37308 -23.6438
-3.05432 -20.6877
-1.47428 -19.5886
-3.07553 -18.5798
-3.14066 -16.8394
-1.52207 -15.6025
-4.6787 -18.0377
0.165307 -24.3377
1.08874 -20.9586
1.83499 -21.6346
0.762323 -19.9873
1.64429 -18.4392
1.71605 -17.9059
-2.15571 -24.8925
-2.88082 -21.1077
-0.774164 -21.2187
-2.40617 -22.6355
0.229634 -18.8707
-4.93577 -24.8633
-6.93713 -21.1215
-3.93935 -20.0632
-0.393348 -17.8346
-2.3215 -18.7743
-4.73921 -16.5669
-5.76022 -19.0252
0.595 -17.0798
-1.59693 -17.1698
-2.12963 -15.6464
-0.715714 -14.9015
0.0323897 -17.2442
0.855665 -15.7354
-0.346831 -15.7931
1.80836 -14.5954
1.44473 -13.5029
-0.408556 -14.0578
0.220587 -19.2368
0.0679971 -13.8526
-0.890084 -7.98606
0.466041 -12.7226
-1.32143 -4.53559
-0.55604 -3.79489
0.836007 -10.1217
-0.854274 -17.7531
-2.63378 -4.60045
-1.56156 -4.25287
-2.87425 -9.52909
-1.34451 -0.342278
-1.57222 -18.4618
-3.76861 -4.56694
-2.33499 -1.51069
-4.92947 -14.5061
-7.75066 -6.69951
-2.95411 -24.0436
-2.31431 -0.0619943
-3.58469 -0.83021
0.138512 -6.38283
-0.233281 -3.75411
0.157356 -2.91406
-8.67467 6.44679
-18.1574 -30.0694
0.219835 -2.97238
1.0736 -9.18361
-6.97164 -16.0951
-3.00415 -31.0769
-9.27266 -10.9399
-2.91863 0.0129414
-4.63885 2.02669
-0.507367 -5.77856
0.0461319 -2.93444
-0.404704 -2.85138
0.165994 -3.01592
-8.1609 13.7591
-18.319 -25.499
0.832337 -10.4715
0.307915 -1.75871
0.0792175 -0.909484
0.108186 -1.06022
0.0624537 -0.88901
-0.00557087 -0.378492
-0.0258805 -0.34656
0.131246 -1.08607
0.575154 -2.70933
0.563796 -2.52845
0.385346 -1.84742
0.143868 -1.10797
0.0268236 -0.863977
0.103976 -1.08555
-0.0458312 -0.275234
-0.0349111 -0.300161
0.660071 -2.82615
0.654444 -2.46493
0.179524 -1.21929
0.160518 -1.228
0.115651 -1.19154
-0.00956998 -0.250788
-0.0492407 -0.189767
0.200502 -1.25529
1.0736 -3.82506
1.10656 -3.69286
0.743507 -2.76419
0.25425 -1.44937
0.195272 -1.22141
0.301524 -1.49222
-0.211983 -0.198792
-0.21613 -0.158876
1.17072 -4.1208
0.773905 -3.06973
0.217087 -1.57035
0.326035 -1.60797
0.278135 -1.61234
-0.294719 -0.103381
-0.278046 -0.088289
0.270646 -1.56677
1.21219 -4.48723
1.07956 -4.52409
0.718563 -3.64615
0.336895 -2.3093
0.321732 -1.65984
0.364558 -2.26175
-0.35484 -0.0465082
-0.307176 -0.0394274
1.17996 -5.14618
0.718249 -3.82785
0.294027 -1.57499
0.374749 -2.52706
0.261633 -1.55966
-0.20911 -0.20599
-0.14307 -0.265469
0.379934 -2.42124
1.38077 -6.17827
1.25156 -5.23859
0.79851 -3.13777
0.373286 -1.73959
0.202948 -1.51869
0.306604 -1.68845
-0.114326 -0.307225
-0.108316 -0.525123
1.41822 -5.39249
0.767756 -2.78628
0.198008 -1.24528
0.256142 -1.47881
0.16918 -1.22634
-0.0199768 -0.402765
-0.134079 -0.743867
0.308844 -1.51473
1.20483 -4.14171
1.13747 -3.79617
0.345545 -1.75144
0.0803356 -0.972598
0.0574911 -0.852317
0.115147 -0.998609
-0.169618 -0.233051
-0.191561 -0.21942
0.0119374 -0.838086
0.606768 -2.35068
0.619673 -2.52385
0.323882 -1.80364
0.0960203 -1.01846
0.106293 -0.990949
0.114253 -1.03951
-0.224272 -0.149574
-0.243052 -0.130323
0.0871785 -0.975828
0.546597 -2.48758
0.521933 -2.53273
-0.312099 -0.0722217
0.0609121 -0.880794
0.0761495 -0.910878
0.0796409 -0.926528
0.396576 -2.24172
-0.269623 -0.0581309
-7.49277 -29.0435
-2.33562 -29.8096
-3.33416 -25.7084
1.25685 -6.63203
1.22167 -7.32616
0.630606 -4.94103
1.88042 -10.6135
1.71581 -7.40155
-8.41106 -31.8345
-9.1145 -36.6658
-14.7954 -33.5789
1.33535 -7.70833
0.505322 -5.41179
1.13106 -8.1194
1.603 -13.4582
1.8946 -9.33342
-6.89588 -35.3596
-3.12502 -32.6898
-8.15409 -31.158
-4.46011 -31.2244
0.766775 -3.60288
0.549635 -2.72352
0.307202 -1.89128
0.487345 -2.71818
0.933318 -3.4683
0.572224 -2.29947
0.84766 -3.30585
1.01348 -4.02567
1.34402 -4.84709
1.27499 -4.6764
0.844682 -3.08497
1.33579 -4.45207
1.61153 -5.70737
1.6431 -6.13787
1.36762 -4.61657
0.890717 -3.23567
1.37492 -4.93102
1.84845 -7.15823
1.6509 -5.87322
0.591889 -2.61583
0.355375 -1.83755
0.640715 -2.59563
0.860173 -3.34272
0.79106 -3.37782
0.391354 -2.15873
0.259701 -1.64722
0.457294 -2.30929
0.646968 -3.07601
0.568655 -3.0007
-6.3566 -19.6035
-6.50156 -17.7607
2.45708 -11.6302
2.11785 -11.6523
2.06773 -9.46894
2.10744 -13.5602
1.89651 -7.95745
2.242 -11.2702
2.18714 -13.4172
-8.06877 -23.5879
-9.15831 -21.9399
0.930468 -4.21532
0.865011 -4.30637
0.823124 -4.37417
0.966295 -5.07053
1.50558 -6.45046
1.48189 -5.77711
1.26561 -5.15386
1.63395 -6.15791
1.08343 -4.65301
1.42862 -6.85361
1.61672 -7.57437
2.18152 -9.27012
2.06689 -7.77915
1.94327 -7.4758
1.85259 -6.78222
2.17532 -10.465
2.20983 -9.27136
1.95839 -7.28572
2.12496 -8.28177
1.83606 -6.61775
2.17091 -9.04441
2.20977 -10.6232
2.06004 -9.49598
1.49822 -5.69378
1.25656 -4.5395
1.47831 -5.22887
1.10681 -4.00573
1.01679 -3.66744
1.35122 -4.70918
1.63298 -5.84402
1.63997 -6.61865
1.44946 -5.81804
0.834695 -3.86161
0.749737 -3.68436
0.737707 -3.82329
0.937411 -5.09544
2.37684 -16.2546
1.96075 -15.6819
1.51178 -18.3842
1.24858 -6.16881
1.1656 -5.37971
1.09956 -5.71496
1.01404 -5.84174
1.294 -7.25891
2.00545 -9.21211
1.89228 -7.88999
1.82344 -8.36747
1.63979 -8.8779
1.95425 -11.1599
1.79795 -7.51503
1.8782 -7.31716
1.97461 -8.41163
1.94932 -9.77959
1.70272 -7.74537
1.67759 -12.2353
1.04586 -13.0043
0.439615 -13.0852
0.90766 -11.8252
0.676077 -14.4068
1.47876 -13.3963
1.05141 -15.173
1.57507 -11.8977
2.02967 -12.3452
1.77058 -15.7492
-0.00493144 -13.2686
1.2413 -8.14466
1.08151 -7.36541
0.847261 -7.36071
0.747392 -9.0371
1.27955 -10.9364
1.59983 -10.7502
1.55451 -9.90338
1.38214 -8.96883
0.824501 -10.9052
1.4756 -9.50862
1.6477 -8.65239
1.69146 -9.51575
1.50245 -7.68546
1.77282 -10.6467
1.17462 -10.5193
1.0985 -9.60626
1.40321 -6.70005
1.34586 -7.61077
1.05366 -7.30971
1.07282 -6.16602
1.35274 -11.5309
0.875307 -11.7615
1.07075 -9.16219
0.870106 -9.94131
1.24291 -4.98384
1.03163 -4.18665
1.07462 -4.2008
0.947372 -4.15522
1.361 -5.91738
1.09849 -5.55575
1.04474 -4.76985
1.22283 -5.77612
0.86847 -3.03915
0.591635 -2.29357
0.944999 -3.33987
0.0954355 -1.01893
0.682026 -2.6328
0.0096463 -0.819985
0.0931144 -1.01657
0.411628 -1.83326
-0.360211 -0.0436192
-0.302758 -0.0209681
2.34997 -15.9157
2.22781 -12.2679
2.00344 -15.0177
2.19301 -10.5819
1.98052 -15.8204
2.16176 -12.1495
2.41119 -11.9029
2.21186 -13.754
0 0
0 0
0 0
0 0
0 0
0 0
0 0
0 0
0 0
0 0
0 0
0 0
0 0
0 0
0 0
0 0
0 0
0 0
0 0
0 0
0 0
0 0
0 0
0 0
0 0
0 0
0 0
0 0
0 0
0 0
0 0
0 0
0 0
0 0
0 0
0 0
0 0
0 0
0 0
0 0
0 0
0 0
0 0
0 0
0 0
0 0
0 0
0 0
0 0
0 0
0 0
0 0
0 0
0 0
0 0
0 0
0 0
0 0
0 0
0 0
0 0
0 0
0 0
0 0
0 0
0 0
0 0
0 0
0 0
0 0
0 0
0 0
0 0
0 0
0 0
0 0
0 0
0 0
0 0
0 0
0 0
0 0
0 0
0 0
0 0
0 0
0 0
0 0
0 0
0 0
0 0
0 0
0 0
0 0
0 0
0 0
0 0
0 0
0 0
0 0
0 0
0 0
0 0
0 0
0 0
0 0
0 0
0 0
0 0
0 0
0 0
0 0
0 0
0 0
0 0
0 0
0 0
0 0
0 0
0 0
0 0
0 0
0 0
0 0
0 0
0 0
0 0
0 0
0 0
0 0
0 0
0 0
0 0
0 0
0 0
0 0
0 0
0 0
0 0
0 0
0 0
0 0
0 0
0 0
0 0
0 0
0 0
0 0
0 0
0 0
0 0
0 0
0 0
0 0
0 0
0 0
0 0
0 0
0 0
0 0
0 0
0 0
0 0
0 0
0 0
0 0
0 0
0 0
0 0
0 0
0 0
0 0
0 0
0 0
0 0
0 0
0 0
0 0
0 0
0 0
0 0
0 0
0 0
0 0
0 0
0 0
0 0
0 0
0 0
0 0
0 0
0 0
0 0
0 0
0 0
0 0
0 0
0 0
0 0
0 0
0 0
0 0
0 0
0 0
0 0
0 0
0 0
0 0
0 0
0 0
0 0
0 0
0 0
0 0
0 0
0 0
0 0
0 0
0 0
0 0
0 0
0 0
0 0
0 0
0 0
0 0
0 0
0 0
0 0
0 0
0 0
0 0
0 0
0 0
0 0
0 0
0 0
0 0
0 0
0 0
0 0
0 0
0 0
0 0
0 0
0 0
0 0
0 0
0 0
0 0
0 0
0 0
0 0
0 0
0 0
0 0
0 0
0 0
0 0
0 0
0 0
0 0
0 0
0 0
0 0
0 0
0 0
0 0
0 0
0 0
0 0
0 0
0 0
0 0
0 0
0 0
0 0
0 0
0 0
0 0
0 0
0 0
0 0
0 0
0 0
0 0
0 0
0 0
0 0
0 0
0 0
0 0
0 0
0 0
0 0
0 0
0 0
0 0
0 0
0 0
0 0
0 0
0 0
0 0
0 0
0 0
0 0
0 0
0 0
0 0
0 0
0 0
0 0
0 0
0 0
0 0
0 0
0 0
0 0
0 0
0 0
0 0
0 0
0 0
0 0
0 0
0 0
0 0
0 0
0 0
0 0
0 0
0 0
0 0
0 0
0 0
0 0
0 0
0 0
0 0
0 0
0 0
0 0
0 0
0 0
0 0
0 0
0 0
0 0
0 0
0 0
0 0
0 0
0 0
0 0
0 0
0 0
0 0
0 0
0 0
0 0
0 0
0 0
0 0
0 0
0 0
0 0
0 0
0 0
0 0
0 0
0 0
0 0
0 0
0 0
0 0
0 0
0 0
0 0
0 0
0 0
0 0
0 0
0 0
0 0
0 0
0 0
0 0
0 0
0 0
0 0
0 0
0 0
0 0
0 0
0 0
0 0
0 0
0 0
0 0
0 0
0 0
0 0
0 0
0 0
0 0
0 0
0 0
0 0
0 0
0 0
0 0
0 0
0 0
0 0
0 0
0 0
0 0
0 0
0 0
0 0
0 0
0 0
0 0
0 0
0 0
0 0
0 0
0 0
0 0
0 0
0 0
0 0
0 0
0 0
0 0
0 0
0 0
0 0
0 0
0 0
0 0
0 0
0 0
0 0
0 0
0 0
0 0
0 0
0 0
0 0
0 0
0 0
0 0
0 0
0 0
0 0
0 0
0 0
0 0
0 0
0 0
0 0
0 0
0 0
0 0
0 0
0 0
0 0
0 0
0 0
0 0
0 0
0 0
0 0
0 0
0 0
0 0
0 0
0 0
0 0
0 0
0 0
0 0
0 0
0 0
0 0
0 0
0 0
0 0
0 0
0 0
0 0
0 0
0 0
0 0
0 0
0 0
0 0
0 0
0 0
0 0
0 0
0 0
0 0
0 0
0 0
0 0
0 0
0 0
0 0
0 0
0 0
0 0
0 0
0 0
0 0
0 0
0 0
0 0
0 0
0 0
0 0
0 0
0 0
0 0
0 0
0 0
0 0
0 0
0 0
0 0
0 0
0 0
0 0
0 0
0 0
0 0
0 0
0 0
0 0
0 0
0 0
0 0
0 0
0 0
0 0
0 0
0 0
0 0
0 0
0 0
0 0
0 0
0 0
0 0
0 0
0 0
0 0
0 0
0 0
0 0
0 0
0 0
0 0
0 0
0 0
0 0
0 0
0 0
0 0
0 0
0 0
0 0
0 0
0 0
0 0
0 0
0 0
0 0
0 0
0 0
0 0
0 0
0 0
0 0
0 0
0 0
0 0
0 0
0 0
0 0
0 0
0 0
0 0
0 0
0 0
0 0
0 0
0 0
0 0
0 0
0 0
0 0
0 0
0 0
0 0
0 0
0 0
0 0
0 0
0 0
0 0
0 0
0 0
0 0
0 0
0 0
0 0
0 0
0 0
0 0
0 0
0 0
0 0
0 0
0 0
0 0
0 0
0 0
0 0
0 0
0 0
0 0
0 0
0 0
0 0
0 0
0 0
0 0
0 0
0 0
0 0
0 0
0 0
0 0
0 0
0 0
0 0
0 0
0 0
0 0
0 0
0 0
0 0
0 0
0 0
0 0
0 0
0 0
0 0
0 0
0 0
0 0
0 0
0 0
0 0
0 0
0 0
0 0
0 0
0 0
0 0
0 0
0 0
0 0
0 0
0 0
0 0
0 0
0 0
0 0
0 0
0 0
0 0
0 0
0 0
0 0
0 0
0 0
0 0
0 0
0 0
0 0
0 0
0 0
0 0
0 0
0 0
0 0
0 0
0 0
0 0
0 0
0 0
0 0
0 0
0 0
0 0
0 0
0 0
0 0
0 0
0 0
0 0
0 0
0 0
0 0
0 0
0 0
0 0
0 0
0 0
0 0
0 0
0 0
0 0
0 0
0 0
0 0
0 0
0 0
0 0
0 0
0 0
0 0
0 0
0 0
0 0
0 0
0 0
0 0
0 0
0 0
0 0
0 0
0 0
0 0
0 0
0 0
0 0
0 0
0 0
0 0
0 0
0 0
0 0
0 0
0 0
0 0
0 0
0 0
0 0
0 0
0 0
0 0
0 0
0 0
0 0
0 0
0 0
0 0
0 0
0 0
0 0
0 0
0 0
0 0
0 0
0 0
0 0
0 0
0 0
0 0
0 0
0 0
0 0
0 0
0 0
0 0
0 0
0 0
0 0
0 0
0 0
0 0
0 0
0 0
0 0
0 0
0 0
0 0
0 0
0 0
0 0
0 0
0 0
0 0
0 0
0 0
0 0
0 0
0 0
0 0
0 0
0 0
0 0
0 0
0 0
0 0
0 0
0 0
0 0
0 0
0 0
0 0
0 0
0 0
0 0
0 0
0 0
0 0
0 0
0 0
0 0
0 0
0 0
0 0
0 0
0 0
0 0
0 0
0 0
0 0
0 0
0 0
0 0
0 0
0 0
0 0
0 0
0 0
0 0
0 0
0 0
0 0
0 0
0 0
0 0
0 0
0 0
0 0
0 0
0 0
0 0
0 0
0 0
0 0
0 0
0 0
0 0
0 0
0 0
0 0
0 0
0 0
0 0
0 0
0 0
0 0
0 0
0 0
0 0
0 0
0 0
0 0
0 0
0 0
0 0
0 0
0 0
0 0
0 0
0 0
0 0
0 0
0 0
0 0
0 0
0 0
0 0
0 0
0 0
0 0
0 0
0 0
0 0
0 0
0 0
0 0
0 0
0 0
0 0
0 0
0 0
0 0
0 0
0 0
0 0
0 0
0 0
0 0
0 0
0 0
0 0
0 0
0 0
0 0
0 0
0 0
0 0
0 0
0 0
0 0
0 0
0 0
0 0
0 0
0 0
0 0
0 0
0 0
0 0
0 0
0 0
0 0
0 0
0 0
0 0
0 0
0 0
0 0
0 0
0 0
0 0
0 0
0 0
0 0
0 0
0 0
0 0
0 0
0 0
0 0
0 0
0 0
0 0
0 0
0 0
0 0
0 0
0 0
0 0
0 0
0 0
0 0
0 0
0 0
0 0
0 0
0 0
0 0
0 0
0 0
0 0
0 0
0 0
0 0
0 0
0 0
0 0
0 0
0 0
0 0
0 0
0 0
0 0
0 0
0 0
0 0
0 0
0 0
0 0
0 0
0 0
0 0
0 0
0 0
0 0
0 0
0 0
0 0
0 0
0 0
0 0
0 0
0 0
0 0
0 0
0 0
0 0
0 0
0 0
0 0
0 0
0 0
0 0
0 0
0 0
0 0
0 0
0 0
0 0
0 0
0 0
0 0
0 0
0 0
0 0
0 0
0 0
0 0
0 0
0 0
0 0
0 0
0 0
0 0
0 0
0 0
0 0
0 0
0 0
0 0
0 0
0 0
0 0
0 0
0 0
0 0
0 0
0 0
0 0
0 0
0 0
0 0
0 0
0 0
0 0
0 0
0 0
0 0
0 0
0 0
0 0
0 0
0 0
0 0
0 0
0 0
0 0
0 0
0 0
0 0
0 0
0 0
0 0
0 0
0 0
0 0
0 0
0 0
0 0
0 0
0 0
0 0
0 0
0 0
0 0
0 0
0 0
0 0
0 0
0 0
0 0
0 0
0 0
0 0
0 0
0 0
0 0
0 0
0 0
0 0
0 0
0 0
0 0
0 0
0 0
0 0
0 0
0 0
0 0
0 0
0 0
0 0
0 0
0 0
0 0
0 0
0 0
0 0
0 0
0 0
0 0
0 0
0 0
0 0
0 0
0 0
0 0
0 0
0 0
0 0
0 0
0 0
0 0
0 0
0 0
0 0
0 0
0 0
0 0
0 0
0 0
0 0
0 0
0 0
0 0
0 0
0 0
0 0
0 0
0 0
0 0
0 0
0 0
0 0
0 0
0 0
0 0
0 0
0 0
0 0
0 0
0 0
0 0
0 0
0 0
0 0
0 0
0 0
0 0
0 0
0 0
0 0
0 0
0 0
0 0
0 0
0 0
0 0
0 0
0 0
0 0
0 0
0 0
0 0
0 0
0 0
0 0
0 0
0 0
0 0
0 0
0 0
0 0
0 0
0 0
0 0
0 0
0 0
0 0
0 0
0 0
0 0
0 0
0 0
0 0
0 0
0 0
0 0
0 0
0 0
0 0
0 0
0 0
0 0
0 0
0 0
0 0
0 0
0 0
0 0
0 0
0 0
0 0
0 0
0 0
0 0
0 0
0 0
0 0
0 0
0 0
0 0
0 0
0 0
0 0
0 0
0 0
0 0
0 0
0 0
0 0
0 0
0 0
0 0
0 0
0 0
0 0
0 0
0 0
0 0
0 0
0 0
0 0
0 0
0 0
0 0
0 0
0 0
0 0
0 0
0 0
0 0
0 0
0 0
0 0
0 0
0 0
0 0
0 0
0 0
0 0
0 0
0 0
0 0
0 0
0 0
0 0
0 0
0 0
0 0
0 0
0 0
0 0
0 0
0 0
0 0
0 0
0 0
0 0
0 0
0 0
0 0
0 0
0 0
0 0
0 0
0 0
0 0
0 0
0 0
0 0
0 0
0 0
0 0
0 0
0 0
0 0
0 0
0 0
0 0
0 0
0 0
0 0
0 0
0 0
0 0
0 0
0 0
0 0
0 0
0 0
0 0
0 0
0 0
0 0
0 0
0 0
0 0
0 0
0 0
0 0
0 0
0 0
0 0
0 0
0 0
0 0
0 0
0 0
0 0
0 0
0 0
0 0
0 0
0 0
0 0
0 0
0 0
0 0
0 0
0 0
0 0
0 0
0 0
0 0
0 0
0 0
0 0
0 0
0 0
0 0
0 0
0 0
0 0
0 0
0 0
0 0
0 0
0 0
0 0
0 0
0 0
0 0
0 0
0 0
0 0
0 0
0 0
0 0
0 0
0 0
0 0
0 0
0 0
0 0
0 0
0 0
0 0
0 0
0 0
0 0
0 0
0 0
0 0
0 0
0 0
0 0
0 0
0 0
0 0
0 0
0 0
0 0
0 0
0 0
0 0
0 0
0 0
0 0
0 0
0 0
0 0
0 0
0 0
0 0
0 0
0 0
0 0
0 0
0 0
0 0
0 0
0 0
0 0
0 0
0 0
0 0
0 0
0 0
0 0
0 0
0 0
0 0
0 0
0 0
0 0
0 0
0 0
0 0
0 0
0 0
0 0
0 0
0 0
0 0
0 0
0 0
0 0
0 0
0 0
0 0
0 0
0 0
0 0
0 0
0 0
0 0
0 0
0 0
0 0
0 0
0 0
0 0
0 0
0 0
0 0
0 0
0 0
0 0
0 0
0 0
0 0
0 0
0 0
0 0
0 0
0 0
0 0
0 0
0 0
0 0
0 0
0 0
0 0
0 0
0 0
0 0
0 0
0 0
0 0
0 0
0 0
0 0
0 0
0 0
0 0
0 0
0 0
0 0
0 0
0 0
0 0
0 0
0 0
0 0
0 0
0 0
0 0
0 0
0 0
0 0
0 0
0 0
0 0
0 0
0 0
0 0
0 0
0 0
0 0
0 0
0 0
0 0
0 0
0 0
0 0
0 0
0 0
0 0
0 0
0 0
0 0
0 0
0 0
0 0
0 0
0 0
0 0
0 0
0 0
0 0
0 0
0 0
0 0
0 0
0 0
0 0
0 0
0 0
0 0
0 0
0 0
0 0
0 0
0 0
0 0
0 0
0 0
0 0
0 0
0 0
0 0
0 0
0 0
0 0
0 0
0 0
0 0
0 0
0 0
0 0
0 0
0 0
0 0
0 0
0 0
0 0
0 0
0 0
0 0
0 0
0 0
0 0
0 0
0 0
0 0
0 0
0 0
0 0
0 0
0 0
0 0
0 0
0 0
0 0
0 0
0 0
0 0
0 0
0 0
0 0
0 0
0 0
0 0
0 0
0 0
0 0
0 0
0 0
0 0
0 0
0 0
0 0
0 0
0 0
0 0
0 0
0 0
0 0
0 0
0 0
0 0
0 0
0 0
0 0
0 0
0 0
0 0
0 0
0 0
0 0
0 0
0 0
0 0
0 0
0 0
0 0
0 0
0 0
0 0
0 0
0 0
0 0
0 0
0 0
0 0
0 0
0 0
0 0
0 0
0 0
0 0
0 0
0 0
0 0
0 0
0 0
0 0
0 0
0 0
0 0
0 0
0 0
0 0
0 0
0 0
0 0
0 0
0 0
0 0
0 0
0 0
0 0
0 0
0 0
0 0
0 0
0 0
0 0
0 0
0 0
0 0
0 0
0 0
0 0
0 0
0 0
0 0
0 0
0 0
0 0
0 0
0 0
0 0
0 0
0 0
0 0
0 0
0 0
0 0
0 0
0 0
0 0
0 0
0 0
0 0
0 0
0 0
0 0
0 0
0 0
0 0
0 0
0 0
0 0
0 0
0 0
0 0
0 0
0 0
0 0
0 0
0 0
0 0
0 0
0 0
0 0
0 0
0 0
0 0
0 0
0 0
0 0
0 0
0 0
0 0
0 0
0 0
0 0
0 0
0 0
0 0
0 0
0 0
0 0
0 0
0 0
0 0
0 0
0 0
0 0
0 0
0 0
0 0
0 0
0 0
0 0
0 0
0 0
0 0
0 0
0 0
0 0
0 0
0 0
0 0
0 0
0 0
0 0
0 0
0 0
0 0
0 0
0 0
0 0
0 0
0 0
0 0
0 0
0 0
0 0
0 0
0 0
0 0
0 0
0 0
0 0
0 0
0 0
0 0
0 0
0 0
0 0
0 0
0 0
0 0
0 0
0 0
0 0
0 0
0 0
0 0
0 0
0 0
0 0
0 0
0 0
0 0
0 0
0 0
0 0
0 0
0 0
0 0
0 0
0 0
0 0
0 0
0 0
0 0
0 0
0 0
0 0
0 0
0 0
0 0
0 0
0 0
0 0
0 0
0 0
0 0
0 0
0 0
0 0
0 0
0 0
0 0
0 0
0 0
0 0
0 0
0 0
0 0
0 0
0 0
0 0
0 0
0 0
0 0
0 0
0 0
0 0
0 0
0 0
0 0
0 0
0 0
0 0
0 0
0 0
0 0
0 0
0 0
0 0
0 0
0 0
0 0
0 0
0 0
0 0
0 0
0 0
0 0
0 0
0 0
0 0
0 0
0 0
0 0
0 0
0 0
0 0
0 0
0 0
0 0
0 0
0 0
0 0
0 0
0 0
0 0
0 0
0 0
0 0
0 0
0 0
0 0
0 0
0 0
0 0
0 0
0 0
0 0
0 0
0 0
0 0
0 0
0 0
0 0
0 0
0 0
0 0
0 0
0 0
0 0
0 0
0 0
0 0
0 0
0 0
0 0
0 0
0 0
0 0
0 0
0 0
0 0
0 0
0 0
0 0
0 0
0 0
0 0
0 0
0 0
0 0
0 0
0 0
0 0
0 0
0 0
0 0
0 0
0 0
0 0
0 0
0 0
0 0
0 0
0 0
0 0
0 0
0 0
0 0
0 0
0 0
0 0
0 0
0 0
0 0
0 0
0 0
0 0
0 0
0 0
0 0
0 0
0 0
0 0
0 0
0 0
0 0
0 0
0 0
0 0
0 0
0 0
0 0
0 0
0 0
0 0
0 0
0 0
0 0
0 0
0 0
0 0
0 0
0 0
0 0
0 0
0 0
0 0
0 0
0 0
0 0
0 0
0 0
0 0
0 0
0 0
0 0
0 0
0 0
0 0
0 0
0 0
0 0
0 0
0 0
0 0
0 0
0 0
0 0
0 0
0 0
0 0
0 0
0 0
0 0
0 0
0 0
0 0
0 0
0 0
0 0
0 0
0 0
0 0
0 0
0 0
0 0
0 0
0 0
0 0
0 0
0 0
0 0
0 0
0 0
0 0
0 0
0 0
0 0
0 0
0 0
0 0
0 0
0 0
0 0
0 0
0 0
0 0
0 0
0 0
0 0
0 0
0 0
0 0
0 0
0 0
0 0
0 0
0 0
0 0
0 0
0 0
0 0
0 0
0 0
0 0
0 0
0 0
0 0
0 0
0 0
0 0
0 0
0 0
0 0
0 0
0 0
0 0
0 0
0 0
0 0
0 0
0 0
0 0
0 0
0 0
0 0
0 0
0 0
0 0
0 0
0 0
0 0
0 0
0 0
0 0
0 0
0 0
0 0
0 0
0 0
0 0
0 0
0 0
0 0
0 0
0 0
0 0
0 0
0 0
0 0
0 0
0 0
0 0
0 0
0 0
0 0
0 0
0 0
0 0
0 0
0 0
0 0
0 0
0 0
0 0
0 0
0 0
0 0
0 0
0 0
0 0
0 0
0 0
0 0
0 0
0 0
0 0
0 0
0 0
0 0
0 0
0 0
0 0
0 0
0 0
0 0
0 0
0 0
0 0
0 0
0 0
0 0
0 0
0 0
0 0
0 0
0 0
0 0
0 0
0 0
0 0
0 0
0 0
0 0
0 0
0 0
0 0
0 0
0 0
0 0
0 0
0 0
0 0
0 0
0 0
0 0
0 0
0 0
0 0
0 0
0 0
0 0
0 0
0 0
0 0
0 0
0 0
0 0
0 0
0 0
0 0
0 0
0 0
0 0
0 0
0 0
0 0
0 0
0 0
0 0
0 0
0 0
0 0
0 0
0 0
0 0
0 0
0 0
0 0
0 0
0 0
0 0
0 0
0 0
0 0
0 0
0 0
0 0
0 0
0 0
0 0
0 0
0 0
0 0
0 0
0 0
0 0
0 0
0 0
0 0
0 0
0 0
0 0
0 0
0 0
0 0
0 0
0 0
0 0
0 0
0 0
0 0
0 0
0 0
0 0
0 0
0 0
0 0
0 0
0 0
0 0
0 0
0 0
0 0
0 0
0 0
0 0
0 0
0 0
0 0
0 0
0 0
0 0
0 0
0 0
0 0
0 0
      </DataArray> 
      <DataArray type="Float64" NumberOfComponents="1" Name="CauchyShearStress" format="ascii">
-1.38441
1.20805
-0.39449
0.110054
0.0641421
0.0834861
0.0574539
0.0244662
-0.0144577
-0.0207981
-0.0192939
-0.0280079
-0.0367923
-0.0272156
-0.013496
-0.0100804
-0.0102379
0.00589816
0.019477
0.0194786
0.0158215
0.0277212
0.0318525
0.0139524
-0.00893257
-0.0122438
-0.0315757
-0.123721
-0.155386
-0.200633
0.119425
0.00928176
0.066343
0.149628
-1.59533
0.0107332
0.0550744
0.0648286
0.0617208
0.0299621
0.0300726
0.05099
0.0751261
0.0746139
0.102696
0.0873255
0.114028
0.141401
0.158823
0.158903
0.1699
0.17336
0.180068
0.0720376
-0.0390386
-0.0776719
-0.119688
-0.15182
-0.182925
0.216737
0.231798
0.332772
0.656756
-7.48458
-3.77213
-1.61494
-2.41415
-2.9778
-4.25933
0.0553497
-7.16296
-6.22745
-4.77822
7.5777
-0.660856
-4.99377
7.5442
-1.70076
3.88989
1.673
2.44073
2.98837
4.26674
-0.0923168
-0.303139
-0.372391
-0.772533
-0.000544056
-0.0258874
0.0765732
0.130234
0.226255
0.232943
0.0327174
-0.0447885
-0.0791596
-0.115557
-0.14674
-0.165723
-0.179164
-0.185964
-0.199168
-0.178029
-0.173217
-0.168135
-0.151935
-0.154054
-0.118058
-0.0788564
-0.0620161
-0.0706936
0.145766
0.289428
1.65879
0.502254
-4.02899
-2.39442
-4.1517
4.64001
2.61903
1.14898
1.07292
-0.935294
-0.0911309
-3.91869
3.91901
-0.913932
-0.965337
-1.92304
-1.8078
2.05693
-1.59881
1.79635
-1.75933
-1.8023
1.95037
1.96073
-1.54245
-1.46806
-1.74272
-0.846206
0.633028
0.880091
1.98254
1.64125
2.23158
-2.0224
-2.34863
-2.45906
-2.35187
2.58253
2.17164
-0.88492
0.193959
0.817636
-1.49821
1.55728
-1.11949
-1.32417
-1.52461
-1.38938
1.4714
1.68351
1.51203
1.18731
-1.42129
-1.47898
-1.26952
-0.646046
0.274217
1.28647
-1.33863
-1.3176
1.53291
1.5695
1.37956
1.34854
1.56258
2.14177
-1.89967
-2.22243
-1.73621
-2.56676
-2.84461
2.54207
1.47594
-1.00874
-0.692998
-0.0693757
-0.340603
0.264065
0.6538
0.459251
0.920465
-1.33791
-1.372
1.3454
1.36844
-1.04878
-0.894937
-0.99815
-0.890571
-1.01355
-1.25941
1.34856
1.14947
1.0188
1.06241
0.910107
1.04051
-1.30526
-1.25953
-1.76292
0.0351893
0.99341
-0.830975
0.93827
1.29866
1.20893
2.65318
-3.23201
-0.734503
-3.52061
3.69436
2.97046
2.11165
-1.01437
-0.756504
-0.268897
0.188428
0.573338
0.921326
-1.27249
1.24112
-0.871597
-0.617635
-0.891508
0.934256
0.673669
0.89765
-1.02652
-1.12227
-1.1511
-1.05822
-0.594502
-0.44662
-4.45249
-0.795155
3.4841
-0.121978
0.126213
0.700444
0.959325
1.0658
1.0714
0.86387
3.5651
-3.52703
0.414996
1.2719
-4.37214
-1.11057
-0.917724
4.06552
1.36133
-0.958663
-0.942407
-0.71706
-0.877099
-0.364653
-0.52983
0.0450039
-0.113041
0.344605
0.21066
0.697486
0.536
0.950816
0.822586
-0.995485
-1.15786
-1.20617
1.00018
1.14652
1.14369
0.899588
-0.820402
-0.369605
-0.357938
-0.579668
0.591343
0.429517
0.397095
0.872534
-0.596268
-0.833562
-0.736729
-0.591991
-0.221537
-7.67552
-2.99488
-0.240524
1.90844
8.15357
0.56849
-0.559957
0.571428
0.938059
0.605153
5.69056
2.98965
-4.81047
-3.03316
3.00958
-5.0203
0.336652
-2.29063
2.41094
3.45972
-0.965106
-0.625732
-0.340092
-0.0674248
0.181231
0.43056
0.780178
-1.08475
-0.819369
0.923497
0.915607
-0.488561
-0.386438
-0.953574
0.749916
0.300507
0.506481
-0.630692
0.705994
-0.180454
-0.344786
-0.303835
-0.441782
-0.335914
-0.395702
-0.324595
-0.261136
-0.140019
-14.4327
-2.19237
1.78602
12.9911
0.0356376
0.266086
0.607839
0.834269
1.8856
-1.6243
-0.83167
-0.540207
-0.239546
0.01974
0.206522
0.288693
0.249965
0.421204
0.161916
0.217485
0.255602
0.281683
4.45415
7.27154
4.01249
-4.35341
-5.71092
-7.25088
3.04438
3.85379
3.94596
-2.7321
-5.92406
-4.29582
-0.525623
-0.899794
-0.386477
-0.336899
-0.341578
-0.240085
-0.2237
-0.238885
-0.128082
-0.0866219
-0.11087
0.0129371
0.0552519
0.0345513
0.142716
0.172716
0.162221
0.251987
0.248645
0.263543
0.434116
0.87991
0.474274
-0.225628
-0.206242
0.326898
0.360182
-1.05014
-1.12615
0.996117
1.01285
1.05586
-0.178567
-0.336895
0.384555
0.271563
-0.362446
0.332115
-0.516051
-0.412474
0.361566
0.456844
-0.797776
-1.64608
-0.824701
0.807885
0.862695
1.33952
1.12955
-1.32136
0.795848
-0.895365
0.0279285
0.00264286
1.10679
-1.16771
0.698337
-0.457036
1.00438
0.573547
0.301616
0.0659313
-0.200559
-0.477591
-0.792957
-1.00622
-3.46825
5.03417
-5.54338
5.62599
0.536095
0.715387
0.129265
-1.31427
1.57298
0.0592965
6.10749
-7.52895
-0.342181
-0.724731
-0.935242
-0.741825
0.613432
-0.819421
2.75535
-1.51594
-0.634803
0.742903
0.666561
-0.560012
-0.719985
1.19991
1.21722
-1.28861
-1.19015
1.02039
0.779739
0.372396
0.000609109
-0.541312
-0.942351
-1.03436
3.01653
0.5749
-1.10114
-0.718064
-3.02147
2.04728
1.23015
1.20663
0.698753
-0.772983
-0.928083
-1.35081
2.90504
-2.64656
1.04375
1.43112
1.61539
-1.43212
-1.26738
-1.0635
1.46054
-1.45829
0.540991
-0.151734
2.09899
-2.93144
1.86405
-1.85961
1.70591
-1.5826
2.24515
-2.02184
-1.6169
-7.48489
-0.869334
-9.08825
-6.36652
-1.05832
-4.57757
0.777782
5.75101
11.7999
1.15943
7.18712
6.21268
-6.75845
-10.2936
-10.5738
-10.428
-5.58161
-7.11475
-8.1155
-6.12966
-5.89963
-5.66892
-6.58997
-5.00206
-8.61251
-10.7861
-3.65521
-5.01394
6.17327
10.7511
9.77882
8.15151
5.61977
7.15616
6.19371
5.33153
6.15063
5.71586
5.07416
6.62665
3.70734
8.67588
10.8398
5.08573
5.68631
0.522972
1.98011
0.651323
17.3818
4.72177
19.8542
8.61113
3.60515
-6.68609
-2.64669
-0.592765
-20.3652
-17.0138
-7.77561
-0.849161
-4.58476
-10.1649
5.68429
5.85731
1.14412
3.42407
-0.809273
4.34939
3.13519
-5.32037
-3.11515
-7.28819
0.6598
1.0582
-1.15937
-4.4898
-0.0293948
0.397049
-3.8263
-4.59099
-2.06904
0.512634
2.9355
-1.70137
4.52647
2.7964
7.90298
11.5548
11.465
7.76733
8.38844
6.20503
6.34871
0.825413
0.696759
2.10193
-0.0511763
3.73562
0.550299
-0.445226
-1.64921
-2.88236
-1.12345
-4.97738
-1.69798
-6.94439
-11.0331
-11.7037
-7.26956
-8.22222
-6.0857
-5.81159
3.96279
4.56039
3.43038
3.56832
-3.0903
-4.91507
-2.33316
-3.24339
3.31898
3.78678
3.49742
3.38689
3.23203
3.13588
3.62173
2.33351
2.74627
3.27505
2.77303
-3.09172
-2.64797
-2.71381
-2.43296
-1.78739
-2.99342
1.81773
2.05162
2.09428
1.52093
1.52083
1.32077
1.10862
0.839833
-0.71912
-0.388162
-0.325577
-0.0500631
0.382709
-0.400374
-1.68252
-1.99508
-1.53008
-2.33704
-1.17537
-1.01101
-1.32528
-0.953358
-0.722676
-1.00187
-0.51479
-1.03403
-1.16896
4.7996
4.15337
5.11129
4.61934
6.21518
7.17562
5.80986
3.10612
4.28254
2.95682
15.0549
17.1808
-2.90536
-4.21561
-3.03579
-4.56677
-14.529
-16.6872
-5.74368
-5.00894
-4.06257
-4.83792
5.46915
0.882187
2.2484
1.5929
2.62494
0.284842
4.76209
2.76506
1.60247
4.2143
4.08729
3.51106
3.50969
5.67121
5.4342
3.8347
6.27455
-5.82456
-3.49136
-5.28494
-2.71004
-6.1252
-3.8342
-3.67515
-4.42861
-2.61325
-5.93425
-3.7195
-3.31336
-2.09952
-1.51211
-1.30068
-1.58502
-0.72522
-0.792368
-2.68093
-3.7564
-2.77322
-3.36449
-3.87369
-4.18044
-3.96643
-4.14741
-3.45693
-3.63334
-3.30634
0.255674
0.761124
0.484278
1.29604
-0.240012
0.0907338
0.842778
-0.148401
4.28052
5.30934
2.76643
6.12076
4.90091
2.26535
1.47909
1.86916
4.88891
8.48005
7.33089
8.93026
5.50883
7.17417
8.99955
5.59251
-12.1065
-19.1668
-14.2335
-8.01462
-13.9325
-30.3988
20.6525
7.38602
13.83
13.294
5.48053
28.5963
6.00507
1.34645
1.6217
0.96739
-10.6998
-7.12162
-0.135611
4.29517
2.49354
-1.97862
-2.47367
-0.054007
-3.99442
-2.27308
1.26181
2.5565
-1.80008
-5.25686
4.94005
3.69453
4.31594
3.44278
3.06669
2.75786
4.54815
4.58793
4.93601
-0.849534
2.97827
2.0213
3.053
-0.312964
-4.33755
-2.10584
-4.88589
-2.13606
-4.26695
9.82522
2.1223
0.923028
-2.73186
-2.81622
4.98167
-2.89635
-2.82408
-4.75119
-1.47504
-2.81833
-4.91428
-5.48883
-2.69195
-0.396019
1.88322
-4.17169
-3.6325
-3.11866
0.132384
0.336668
-0.426446
-0.595977
-1.69198
0.194055
2.53338
-1.24435
0.632045
1.25553
0.918444
1.80106
1.80336
1.68187
4.02643
3.46363
4.00357
3.7738
3.23763
4.3309
-1.1047
-0.479859
1.07331
-1.61673
-0.0465824
2.93982
-3.54545
-4.0621
-2.86184
-3.61303
-2.1581
-4.97949
-4.61836
-4.47559
-2.85967
-3.67724
-4.138
-4.40115
-1.9008
-3.34894
-3.45547
-2.7962
2.3723
1.80585
2.72701
0.910696
1.31574
2.55339
2.30551
-5.55637
-5.27201
-4.65764
-3.42459
-2.60284
-3.9214
-6.71968
-4.38887
-3.62729
-7.48882
-0.969251
-7.67872
-5.26309
-1.51442
-8.45432
-8.04152
-10.3531
-1.62132
-2.13952
-3.47651
-2.19018
-1.57506
-5.67924
-20.2166
-1.3277
-3.15986
10.4174
12.5126
9.77168
2.03176
2.49856
3.49571
1.75283
1.8102
1.42523
5.62756
19.0969
4.08439
0.336267
0.0512581
0.108582
0.0304051
-0.0451626
-0.0180406
0.144576
0.583113
0.473421
0.270273
0.0699639
0.02531
0.0618816
-0.0104352
-0.0465462
0.501391
0.100054
0.0108807
0.0487435
0.00886844
-0.0465729
-0.0259212
0.0631673
0.193163
0.0704312
-0.0944403
-0.0700229
-0.00633801
-0.0953522
0.195598
0.183738
-0.085308
-0.648476
-0.274439
-0.215689
-0.328146
0.148556
0.119983
-0.169226
-0.917313
-1.06134
-1.21804
-0.734253
-0.407479
-0.880125
0.0692682
0.0311584
-1.45924
1.34856
0.389318
0.843018
0.313797
-0.195156
-0.22998
1.02776
1.751
1.23171
0.688665
0.244744
0.276154
0.196366
-0.227789
-0.139003
1.07109
0.131333
0.0164637
0.0756211
0.00980106
-0.0896904
0.0018783
0.102021
0.187149
0.055537
-0.19902
-0.0358231
-0.00964343
-0.06286
0.170211
0.169104
0.00729971
-0.236505
-0.314123
-0.353447
-0.100212
-0.0860563
-0.128668
0.165581
0.151653
-0.0677686
-0.521461
-0.567902
0.165748
-0.0784865
-0.0963946
-0.12732
-0.631637
0.116406
5.8593
3.03224
3.61641
-1.96688
-2.52259
-2.16216
-2.8527
-1.78767
-4.69352
-5.38196
-5.8353
2.40381
2.43908
3.07079
3.9244
2.25507
-0.0680487
-3.04683
-0.178264
2.07751
0.81642
0.674985
0.46775
0.758518
0.392802
0.244056
0.429037
0.64987
0.360734
-0.581927
-0.366297
-0.401121
-0.182185
-0.912525
0.421824
0.415926
0.630556
1.00618
0.281771
-0.472522
-0.288105
-0.423057
-0.458659
-0.65421
-0.549981
-0.364091
-0.565698
-0.722386
-0.826597
4.53039
4.26584
-1.03257
-1.77797
-1.55316
-2.19942
-1.15184
-0.209433
-0.164117
-4.97846
-4.37963
0.889191
1.00723
1.07175
1.15012
0.840474
0.625725
0.770096
0.40303
0.8397
1.07192
0.944865
-0.348745
-0.744141
-0.239102
0.114484
0.325006
0.122267
0.257868
0.500321
-0.0218611
1.03301
-0.165666
-0.420391
-0.535988
-0.394806
-0.326455
-0.460309
-0.295426
-0.104195
-0.174901
-0.679038
-0.756716
-0.888962
-0.894744
-0.992177
-1.21399
-1.00933
0.0784341
0.441937
1.128
1.00825
1.17252
1.27324
1.26514
0.5037
0.450095
0.803923
1.09482
0.785006
-0.635519
-0.305196
-0.472898
-0.771571
-0.888117
1.0544
1.76669
2.1248
1.77821
-2.09934
-1.28406
-1.63073
-1.23287
-0.701743
-0.878263
-2.3275
1.38627
1.42033
1.52412
1.7007
1.50774
1.2189
1.23384
1.35803
1.80564
-1.32911
-1.08709
-1.08388
-1.13542
-1.03651
-1.58996
-1.59462
-1.08661
-1.30341
-1.44456
-1.30032
-1.49709
-1.81857
1.56788
1.69462
-0.746944
-0.746994
-0.60532
-0.828813
-0.930606
-1.16237
-0.980385
-1.08493
-0.148027
-0.0409337
-0.081109
-0.0143273
-0.21164
-0.00464696
-0.010563
-0.121518
0.0929919
0.0437395
1.22144
2.01308
2.23917
1.3331
0.022587
-0.160521
0.750263
0.129579
0
0
0
0
0
0
0
0
0
0
0
0
0
0
0
0
0
0
0
0
0
0
0
0
0
0
0
0
0
0
0
0
0
0
0
0
0
0
0
0
0
0
0
0
0
0
0
0
0
0
0
0
0
0
0
0
0
0
0
0
0
0
0
0
0
0
0
0
0
0
0
0
0
0
0
0
0
0
0
0
0
0
0
0
0
0
0
0
0
0
0
0
0
0
0
0
0
0
0
0
0
0
0
0
0
0
0
0
0
0
0
0
0
0
0
0
0
0
0
0
0
0
0
0
0
0
0
0
0
0
0
0
0
0
0
0
0
0
0
0
0
0
0
0
0
0
0
0
0
0
0
0
0
0
0
0
0
0
0
0
0
0
0
0
0
0
0
0
0
0
0
0
0
0
0
0
0
0
0
0
0
0
0
0
0
0
0
0
0
0
0
0
0
0
0
0
0
0
0
0
0
0
0
0
0
0
0
0
0
0
0
0
0
0
0
0
0
0
0
0
0
0
0
0
0
0
0
0
0
0
0
0
0
0
0
0
0
0
0
0
0
0
0
0
0
0
0
0
0
0
0
0
0
0
0
0
0
0
0
0
0
0
0
0
0
0
0
0
0
0
0
0
0
0
0
0
0
0
0
0
0
0
0
0
0
0
0
0
0
0
0
0
0
0
0
0
0
0
0
0
0
0
0
0
0
0
0
0
0
0
0
0
0
0
0
0
0
0
0
0
0
0
0
0
0
0
0
0
0
0
0
0
0
0
0
0
0
0
0
0
0
0
0
0
0
0
0
0
0
0
0
0
0
0
0
0
0
0
0
0
0
0
0
0
0
0
0
0
0
0
0
0
0
0
0
0
0
0
0
0
0
0
0
0
0
0
0
0
0
0
0
0
0
0
0
0
0
0
0
0
0
0
0
0
0
0
0
0
0
0
0
0
0
0
0
0
0
0
0
0
0
0
0
0
0
0
0
0
0
0
0
0
0
0
0
0
0
0
0
0
0
0
0
0
0
0
0
0
0
0
0
0
0
0
0
0
0
0
0
0
0
0
0
0
0
0
0
0
0
0
0
0
0
0
0
0
0
0
0
0
0
0
0
0
0
0
0
0
0
0
0
0
0
0
0
0
0
0
0
0
0
0
0
0
0
0
0
0
0
0
0
0
0
0
0
0
0
0
0
0
0
0
0
0
0
0
0
0
0
0
0
0
0
0
0
0
0
0
0
0
0
0
0
0
0
0
0
0
0
0
0
0
0
0
0
0
0
0
0
0
0
0
0
0
0
0
0
0
0
0
0
0
0
0
0
0
0
0
0
0
0
0
0
0
0
0
0
0
0
0
0
0
0
0
0
0
0
0
0
0
0
0
0
0
0
0
0
0
0
0
0
0
0
0
0
0
0
0
0
0
0
0
0
0
0
0
0
0
0
0
0
0
0
0
0
0
0
0
0
0
0
0
0
0
0
0
0
0
0
0
0
0
0
0
0
0
0
0
0
0
0
0
0
0
0
0
0
0
0
0
0
0
0
0
0
0
0
0
0
0
0
0
0
0
0
0
0
0
0
0
0
0
0
0
0
0
0
0
0
0
0
0
0
0
0
0
0
0
0
0
0
0
0
0
0
0
0
0
0
0
0
0
0
0
0
0
0
0
0
0
0
0
0
0
0
0
0
0
0
0
0
0
0
0
0
0
0
0
0
0
0
0
0
0
0
0
0
0
0
0
0
0
0
0
0
0
0
0
0
0
0
0
0
0
0
0
0
0
0
0
0
0
0
0
0
0
0
0
0
0
0
0
0
0
0
0
0
0
0
0
0
0
0
0
0
0
0
0
0
0
0
0
0
0
0
0
0
0
0
0
0
0
0
0
0
0
0
0
0
0
0
0
0
0
0
0
0
0
0
0
0
0
0
0
0
0
0
0
0
0
0
0
0
0
0
0
0
0
0
0
0
0
0
0
0
0
0
0
0
0
0
0
0
0
0
0
0
0
0
0
0
0
0
0
0
0
0
0
0
0
0
0
0
0
0
0
0
0
0
0
0
0
0
0
0
0
0
0
0
0
0
0
0
0
0
0
0
0
0
0
0
0
0
0
0
0
0
0
0
0
0
0
0
0
0
0
0
0
0
0
0
0
0
0
0
0
0
0
0
0
0
0
0
0
0
0
0
0
0
0
0
0
0
0
0
0
0
0
0
0
0
0
0
0
0
0
0
0
0
0
0
0
0
0
0
0
0
0
0
0
0
0
0
0
0
0
0
0
0
0
0
0
0
0
0
0
0
0
0
0
0
0
0
0
0
0
0
0
0
0
0
0
0
0
0
0
0
0
0
0
0
0
0
0
0
0
0
0
0
0
0
0
0
0
0
0
0
0
0
0
0
0
0
0
0
0
0
0
0
0
0
0
0
0
0
0
0
0
0
0
0
0
0
0
0
0
0
0
0
0
0
0
0
0
0
0
0
0
0
0
0
0
0
0
0
0
0
0
0
0
0
0
0
0
0
0
0
0
0
0
0
0
0
0
0
0
0
0
0
0
0
0
0
0
0
0
0
0
0
0
0
0
0
0
0
0
0
0
0
0
0
0
0
0
0
0
0
0
0
0
0
0
0
0
0
0
0
0
0
0
0
0
0
0
0
0
0
0
0
0
0
0
0
0
0
0
0
0
0
0
0
0
0
0
0
0
0
0
0
0
0
0
0
0
0
0
0
0
0
0
0
0
0
0
0
0
0
0
0
0
0
0
0
0
0
0
0
0
0
0
0
0
0
0
0
0
0
0
0
0
0
0
0
0
0
0
0
0
0
0
0
0
0
0
0
0
0
0
0
0
0
0
0
0
0
0
0
0
0
0
0
0
0
0
0
0
0
0
0
0
0
0
0
0
0
0
0
0
0
0
0
0
0
0
0
0
0
0
0
0
0
0
0
0
0
0
0
0
0
0
0
0
0
0
0
0
0
0
0
0
0
0
0
0
0
0
0
0
0
0
0
0
0
0
0
0
0
0
0
0
0
0
0
0
0
0
0
0
0
0
0
0
0
0
0
0
0
0
0
0
0
0
0
0
0
0
0
0
0
0
0
0
0
0
0
0
0
0
0
0
0
0
0
0
0
0
0
0
0
0
0
0
0
0
0
0
0
0
0
0
0
0
0
0
0
0
0
0
0
0
0
0
0
0
0
0
0
0
0
0
0
0
0
0
0
0
0
0
0
0
0
0
0
0
0
0
0
0
0
0
0
0
0
0
0
0
0
0
0
0
0
0
0
0
0
0
0
0
0
0
0
0
0
0
0
0
0
0
0
0
0
0
0
0
0
0
0
0
0
0
0
0
0
0
0
0
0
0
0
0
0
0
0
0
0
0
0
0
0
0
0
0
0
0
0
0
0
0
0
0
0
0
0
0
0
0
0
0
0
0
0
0
0
0
0
0
0
0
0
0
0
0
0
0
0
0
0
0
0
0
0
0
0
0
0
0
0
0
0
0
0
0
0
0
0
0
0
0
0
0
0
0
0
0
0
0
0
0
0
0
0
0
0
0
0
0
0
0
0
0
0
0
0
0
0
0
0
0
0
0
0
0
0
0
0
0
0
0
0
0
0
0
0
0
0
0
0
0
0
0
0
0
0
0
0
0
0
0
0
0
0
0
0
0
0
0
0
0
0
0
0
0
0
0
0
0
0
0
0
0
0
0
0
0
0
0
0
0
0
0
0
0
0
0
0
0
0
0
0
0
0
0
0
0
0
0
0
0
0
0
0
0
0
0
0
0
0
0
0
0
0
0
0
0
0
0
0
0
0
0
0
0
0
0
0
0
0
0
0
0
0
0
0
0
0
0
0
0
0
0
0
0
0
0
0
0
0
0
0
0
0
0
0
0
0
0
0
0
0
0
0
0
0
0
0
0
0
0
0
0
0
0
0
0
0
0
0
0
0
0
0
0
0
0
0
0
0
0
0
0
0
0
0
0
0
0
0
0
0
0
0
0
0
0
0
0
0
0
0
0
0
0
0
0
0
0
0
0
0
0
0
0
0
0
0
0
0
0
0
0
0
0
0
0
0
0
0
0
0
0
0
0
0
0
0
0
0
0
0
0
0
0
0
0
0
0
0
0
0
0
0
0
0
0
0
0
0
0
0
0
0
0
0
0
0
0
0
0
0
0
0
0
0
0
0
0
0
0
0
0
0
0
0
0
0
0
0
0
0
0
0
0
0
0
0
0
0
0
0
0
0
0
0
0
0
0
0
0
0
0
0
0
0
0
0
0
0
0
0
0
0
0
0
0
0
0
0
0
0
0
0
0
0
0
0
0
0
0
0
0
0
0
0
0
0
0
0
0
0
0
0
0
0
0
0
0
0
0
0
0
0
0
0
0
0
0
0
0
0
0
0
0
0
0
0
0
0
0
0
0
0
0
0
0
0
0
0
0
0
0
0
0
0
0
0
0
0
0
0
0
0
0
0
0
0
0
0
0
0
0
0
0
0
0
0
0
0
0
0
0
0
0
0
0
0
0
0
0
0
0
0
0
0
0
0
0
0
0
0
0
0
0
0
0
0
0
0
0
0
0
0
0
0
0
0
0
0
0
0
0
0
0
0
0
0
0
0
0
0
0
0
0
0
0
0
0
0
0
0
0
0
0
0
0
0
0
0
0
0
0
0
0
0
0
0
0
0
0
0
0
0
0
0
0
0
0
0
0
0
0
0
0
0
0
0
0
0
0
0
0
0
0
0
0
0
0
0
0
0
0
0
0
0
0
0
0
0
0
0
0
0
0
0
0
0
0
0
0
0
0
0
0
0
0
0
0
0
0
0
0
0
0
0
0
0
0
0
0
0
0
0
0
0
0
0
0
0
0
0
0
0
0
0
0
0
0
0
0
0
0
0
0
0
0
0
0
0
0
0
0
0
0
0
0
0
0
0
0
0
0
0
0
0
0
0
0
0
0
0
0
0
0
0
0
0
0
0
0
0
0
0
0
0
0
0
0
0
0
0
0
0
0
0
0
0
0
0
0
0
0
0
0
0
0
0
0
0
0
0
0
0
0
0
0
0
0
0
0
0
0
0
0
0
0
0
0
0
0
0
0
0
0
0
0
0
0
0
0
0
0
0
0
0
0
0
0
0
0
0
0
0
0
0
0
0
0
0
0
0
0
0
0
0
0
0
0
0
0
      </DataArray> 
      <DataArray type="Float64" NumberOfComponents="1" Name="NormalFibers" format="ascii">
0
0
0
0
0
0
0
0
0
0
0
0
0
0
0
0
0
0
0
0
0
0
0
0
0
0
0
0
0
0
0
0
0
0
0
0
0
0
0
0
0
0
0
0
0
0
0
0
0
0
0
0
0
0
0
0
0
0
0
0
0
0
0
0
0
0
0
0
0
0
0
0
0
0
0
0
0
0
0
0
0
0
0
0
0
0
0
0
0
0
0
0
0
0
0
0
0
0
0
0
0
0
0
0
0
0
0
0
0
0
0
0
0
0
0
0
0
0
0
0
0
0
0
0
0
0
0
0
0
0
0
0
0
0
0
0
0
0
0
0
0
0
0
0
0
0
0
0
0
0
0
0
0
0
0
0
0
0
0
0
0
0
0
0
0
0
0
0
0
0
0
0
0
0
0
0
0
0
0
0
0
0
0
0
0
0
0
0
0
0
0
0
0
0
0
0
0
0
0
0
0
0
0
0
0
0
0
0
0
0
0
0
0
0
0
0
0
0
0
0
0
0
0
0
0
0
0
0
0
0
0
0
0
0
0
0
0
0
0
0
0
0
0
0
0
0
0
0
0
0
0
0
0
0
0
0
0
0
0
0
0
0
0
0
0
0
0
0
0
0
0
0
0
0
0
0
0
0
0
0
0
0
0
0
0
0
0
0
0
0
0
0
0
0
0
0
0
0
0
0
0
0
0
0
0
0
0
0
0
0
0
0
0
0
0
0
0
0
0
0
0
0
0
0
0
0
0
0
0
0
0
0
0
0
0
0
0
0
0
0
0
0
0
0
0
0
0
0
0
0
0
0
0
0
0
0
0
0
0
0
0
0
0
0
0
0
0
0
0
0
0
0
0
0
0
0
0
0
0
0
0
0
0
0
0
0
0
0
0
0
0
0
0
0
0
0
0
0
0
0
0
0
0
0
0
0
0
0
0
0
0
0
0
0
0
0
0
0
0
0
0
0
0
0
0
0
0
0
0
0
0
0
0
0
0
0
0
0
0
0
0
0
0
0
0
0
0
0
0
0
0
0
0
0
0
0
0
0
0
0
0
0
0
0
0
0
0
0
0
0
0
0
0
0
0
0
0
0
0
0
0
0
0
0
0
0
0
0
0
0
0
0
0
0
0
0
0
0
0
0
0
0
0
0
0
0
0
0
0
0
0
0
0
0
0
0
0
0
0
0
0
0
0
0
0
0
0
0
0
0
0
0
0
0
0
0
0
0
0
0
0
0
0
0
0
0
0
0
0
0
0
0
0
0
0
0
0
0
0
0
0
0
0
0
0
0
0
0
0
0
0
0
0
0
0
0
0
0
0
0
0
0
0
0
0
0
0
0
0
0
0
0
0
0
0
0
0
0
0
0
0
0
0
0
0
0
0
0
0
0
0
0
0
0
0
0
0
0
0
0
0
0
0
0
0
0
0
0
0
0
0
0
0
0
0
0
0
0
0
0
0
0
0
0
0
0
0
0
0
0
0
0
0
0
0
0
0
0
0
0
0
0
0
0
0
0
0
0
0
0
0
0
0
0
0
0
0
0
0
0
0
0
0
0
0
0
0
0
0
0
0
0
0
0
0
0
0
0
0
0
0
0
0
0
0
0
0
0
0
0
0
0
0
0
0
0
0
0
0
0
0
0
0
0
0
0
0
0
0
0
0
0
0
0
0
0
0
0
0
0
0
0
0
0
0
0
0
0
0
0
0
0
0
0
0
0
0
0
0
0
0
0
0
0
0
0
0
0
0
0
0
0
0
0
0
0
0
0
0
0
0
0
0
0
0
0
0
0
0
0
0
0
0
0
0
0
0
0
0
0
0
0
0
0
0
0
0
0
0
0
0
0
0
0
0
0
0
0
0
0
0
0
0
0
0
0
0
0
0
0
0
0
0
0
0
0
0
0
0
0
0
0
0
0
0
0
0
0
0
0
0
0
0
0
0
0
0
0
0
0
0
0
0
0
0
0
0
0
0
0
0
0
0
0
0
0
0
0
0
0
0
0
0
0
0
0
0
0
0
0
0
0
0
0
0
0
0
0
0
0
0
0
0
0
0
0
0
0
0
0
0
0
0
0
0
0
0
0
0
0
0
0
0
0
0
0
0
0
0
0
0
0
0
0
0
0
0
0
0
0
0
0
0
0
0
0
0
0
0
0
0
0
0
0
0
0
0
0
0
0
0
0
0
0
0
0
0
0
0
0
0
0
0
0
0
0
0
0
0
0
0
0
0
0
0
0
0
0
0
0
0
0
0
0
0
0
0
0
0
0
0
0
0
0
0
0
0
0
0
0
0
0
0
0
0
0
0
0
0
0
0
0
0
0
0
0
0
0
0
0
0
0
0
0
0
0
0
0
0
0
0
0
0
0
0
0
0
0
0
0
0
0
0
0
0
0
0
0
0
0
0
0
0
0
0
0
0
0
0
0
0
0
0
0
0
0
0
0
0
0
0
0
0
0
0
0
0
0
0
0
0
0
0
0
0
0
0
0
0
0
0
0
0
0
0
0
0
0
0
0
0
0
0
0
0
0
0
0
0
0
0
0
0
0
0
0
0
0
0
0
0
0
0
0
0
0
0
0
0
0
0
0
0
0
0
0
0
0
0
0
0
0
0
0
0
0
0
0
0
0
0
0
0
0
0
0
0
0
0
0
0
0
0
0
0
0
0
0
0
0
0
0
0
0
0
0
0
0
0
0
0
0
0
0
0
0
0
0
0
0.00208644
0.00208644
0.0105962
0.0105962
-0.0345153
-0.0345153
-0.0174187
-0.0174187
-0.00107917
-0.00107917
-0.0166205
-0.0166205
0.00101026
0.00101026
0.00768705
0.00768705
-0.0424945
-0.0424945
-0.00545852
-0.00545852
-0.0144464
-0.0144464
-0.0213913
-0.0213913
-0.0364047
-0.0364047
0.0093333
0.0093333
-0.0173103
-0.0173103
0.0242765
0.0242765
-0.0147008
-0.0147008
-0.00129653
-0.00129653
0.0141547
0.0141547
-0.00906979
-0.00906979
-0.00511942
-0.00511942
-0.0219031
-0.0219031
-0.0831683
-0.0831683
-0.00834517
-0.00834517
-0.0107146
-0.0107146
-0.00746256
-0.00746256
-0.00527462
-0.00527462
-0.00103643
-0.00103643
-0.0418111
-0.0418111
0.00357822
0.00357822
0.00349725
0.00349725
0.00418038
0.00418038
-0.0563026
-0.0563026
-0.00921435
-0.00921435
-0.0628707
-0.0628707
-0.0034598
-0.0034598
-0.0136462
-0.0136462
-0.00471247
-0.00471247
0.00290811
0.00290811
-0.0162612
-0.0162612
-0.0122524
-0.0122524
0.0202952
0.0202952
-0.0192046
-0.0192046
-0.0173246
-0.0173246
-0.0602406
-0.0602406
-0.0166297
-0.0166297
-0.00968135
-0.00968135
-0.0103841
-0.0103841
-0.00700359
-0.00700359
-0.00636314
-0.00636314
0.0296688
0.0296688
-0.00964692
-0.00964692
0.00572724
0.00572724
-0.0495063
-0.0495063
-0.00192862
-0.00192862
-0.00507039
-0.00507039
-0.0249163
-0.0249163
-0.0313741
-0.0313741
-0.00202111
-0.00202111
-0.00645242
-0.00645242
-0.0243845
-0.0243845
0.0175651
0.0175651
8.73317e-05
8.73317e-05
-0.0239122
-0.0239122
-0.0175455
-0.0175455
-0.0175277
-0.0175277
-0.0179166
-0.0179166
0.0167712
0.0167712
0.0232806
0.0232806
-0.0388703
-0.0388703
-0.0268137
-0.0268137
-0.00856561
-0.00856561
-0.0642915
-0.0642915
0.0156167
0.0156167
-0.0321887
-0.0321887
-0.000167274
-0.000167274
-0.00965908
-0.00965908
-0.00121057
-0.00121057
-0.0249952
-0.0249952
-0.0184802
-0.0184802
-0.0418808
-0.0418808
0.00400818
0.00400818
-0.0225393
-0.0225393
-0.0589266
-0.0589266
-0.0370176
-0.0370176
-0.0298025
-0.0298025
-0.00829073
-0.00829073
-0.00239395
-0.00239395
0.0087164
0.0087164
-0.00185163
-0.00185163
-0.00847958
-0.00847958
-0.000400048
-0.000400048
0.0150957
0.0150957
-0.0316821
-0.0316821
-0.0494888
-0.0494888
-0.00352967
-0.00352967
0.00223467
0.00223467
-0.0125828
-0.0125828
-0.0775132
-0.0775132
-0.0164858
-0.0164858
-0.000457028
-0.000457028
-0.0212847
-0.0212847
-0.00884251
-0.00884251
-0.0168618
-0.0168618
-0.00317826
-0.00317826
0.00292442
0.00292442
-0.0581659
-0.0581659
-0.0144854
-0.0144854
-0.0100212
-0.0100212
-0.0114065
-0.0114065
-0.0365765
-0.0365765
0.0284585
0.0284585
0.0185184
0.0185184
0.00432621
0.00432621
0.0143684
0.0143684
-0.00357202
-0.00357202
-0.00169837
-0.00169837
-0.0253069
-0.0253069
-0.040197
-0.040197
0.00419982
0.00419982
-0.00177216
-0.00177216
-0.00784403
-0.00784403
0.00434241
0.00434241
-0.0127308
-0.0127308
-0.0206694
-0.0206694
-0.0467961
-0.0467961
-0.00164708
-0.00164708
-0.00209121
-0.00209121
0.00127027
0.00127027
-0.0601659
-0.0601659
-0.0310872
-0.0310872
0.010224
0.010224
0.00162061
0.00162061
-0.00791617
-0.00791617
0.0170749
0.0170749
-0.0107993
-0.0107993
-0.00176089
-0.00176089
-0.0230223
-0.0230223
-0.0266233
-0.0266233
-0.00906273
-0.00906273
-0.00313177
-0.00313177
-0.0127792
-0.0127792
-0.00198596
-0.00198596
-0.00657899
-0.00657899
-0.00483968
-0.00483968
-0.00252986
-0.00252986
-0.00842322
-0.00842322
0.00501583
0.00501583
-0.00772262
-0.00772262
-0.0261354
-0.0261354
-0.0049966
-0.0049966
-0.00289719
-0.00289719
0.00684398
0.00684398
-0.0496904
-0.0496904
-0.0430552
-0.0430552
-0.117367
-0.117367
-0.0581943
-0.0581943
-0.0445355
-0.0445355
0.000776447
0.000776447
-0.00791114
-0.00791114
-0.0227699
-0.0227699
0.0158437
0.0158437
-0.0106833
-0.0106833
0.011193
0.011193
-0.00215962
-0.00215962
-0.0145109
-0.0145109
-0.0242684
-0.0242684
0.00845554
0.00845554
-0.0199943
-0.0199943
-0.011899
-0.011899
-0.00871657
-0.00871657
-0.0284202
-0.0284202
-0.0272189
-0.0272189
-0.00367114
-0.00367114
0.00182251
0.00182251
-0.0167911
-0.0167911
-0.00479046
-0.00479046
-0.0228899
-0.0228899
-0.0202278
-0.0202278
-0.0278043
-0.0278043
-0.00367998
-0.00367998
-0.00526368
-0.00526368
-0.000515775
-0.000515775
-0.0528117
-0.0528117
-0.0300245
-0.0300245
-0.0601898
-0.0601898
-0.00266195
-0.00266195
-0.00322845
-0.00322845
0.0107643
0.0107643
0.00521041
0.00521041
0.0120693
0.0120693
0.0210834
0.0210834
-0.0188241
-0.0188241
-0.020272
-0.020272
0.00105632
0.00105632
-0.00657673
-0.00657673
-0.000420609
-0.000420609
-0.00512862
-0.00512862
-0.0133238
-0.0133238
0.0061233
0.0061233
-0.00785652
-0.00785652
-0.0402314
-0.0402314
-0.00327056
-0.00327056
0.0135549
0.0135549
-0.00610576
-0.00610576
-0.0800419
-0.0800419
0.0134906
0.0134906
0.00346739
0.00346739
-0.00594417
-0.00594417
-0.0301854
-0.0301854
-0.00166189
-0.00166189
-0.00572142
-0.00572142
-0.033842
-0.033842
-0.0157022
-0.0157022
0.013535
0.013535
-0.00740314
-0.00740314
-0.0153277
-0.0153277
-0.0387714
-0.0387714
0.0225636
0.0225636
0.0222649
0.0222649
-0.00120719
-0.00120719
-0.0470357
-0.0470357
0.00529676
0.00529676
-0.0119551
-0.0119551
-0.0181832
-0.0181832
-0.00327831
-0.00327831
9.32977e-05
9.32977e-05
-0.00531135
-0.00531135
-0.0371121
-0.0371121
-0.011523
-0.011523
-0.00370824
-0.00370824
-0.00279335
-0.00279335
-0.0117662
-0.0117662
-0.0477891
-0.0477891
0.00127558
0.00127558
-0.0101593
-0.0101593
-0.0143264
-0.0143264
-0.0605248
-0.0605248
-0.0428775
-0.0428775
-0.0370126
-0.0370126
-0.0109612
-0.0109612
-0.0025392
-0.0025392
-0.00227368
-0.00227368
0.0242133
0.0242133
-0.00106432
-0.00106432
-0.00469158
-0.00469158
-0.00284327
-0.00284327
0.0220389
0.0220389
-0.0426916
-0.0426916
-0.0193491
-0.0193491
-0.00306812
-0.00306812
-0.0575692
-0.0575692
-0.0585439
-0.0585439
-0.00231458
-0.00231458
-0.0650785
-0.0650785
-0.000640971
-0.000640971
-0.0379269
-0.0379269
0.0116427
0.0116427
-0.00551853
-0.00551853
-0.00017932
-0.00017932
-0.00946136
-0.00946136
-0.0877606
-0.0877606
-0.0109237
-0.0109237
-0.00514529
-0.00514529
-0.0115904
-0.0115904
-0.0394221
-0.0394221
-0.0185365
-0.0185365
-0.0180395
-0.0180395
0.026553
0.026553
-0.00352662
-0.00352662
-0.0444204
-0.0444204
-0.00539798
-0.00539798
-0.00226409
-0.00226409
-0.0579129
-0.0579129
-0.00791676
-0.00791676
-0.0468594
-0.0468594
-0.00590328
-0.00590328
-0.0010241
-0.0010241
-0.0222897
-0.0222897
0.00868603
0.00868603
0.0005069
0.0005069
-0.0139821
-0.0139821
-0.0175485
-0.0175485
-0.0124017
-0.0124017
-0.0225262
-0.0225262
-0.0533537
-0.0533537
0.017184
0.017184
-0.047045
-0.047045
0.00250084
0.00250084
-0.0552903
-0.0552903
-0.0165338
-0.0165338
-0.0219497
-0.0219497
-0.00314331
-0.00314331
0.00975625
0.00975625
-0.0633557
-0.0633557
0.0126467
0.0126467
0.00456536
0.00456536
0.0246717
0.0246717
-0.0533472
-0.0533472
-0.0161492
-0.0161492
-0.00097963
-0.00097963
-0.0285548
-0.0285548
-0.0396595
-0.0396595
-0.0111259
-0.0111259
-0.0487549
-0.0487549
-0.0191937
-0.0191937
-0.00571596
-0.00571596
-0.00885995
-0.00885995
0.00996691
0.00996691
-0.0435611
-0.0435611
0.0170099
0.0170099
-0.0138771
-0.0138771
0.000165246
0.000165246
-0.0173323
-0.0173323
0.00270467
0.00270467
0.00927181
0.00927181
-0.0158362
-0.0158362
-0.026905
-0.026905
-0.0405014
-0.0405014
0.00228455
0.00228455
-0.0592081
-0.0592081
0.0112945
0.0112945
-0.00763649
-0.00763649
-0.0237758
-0.0237758
-0.0377526
-0.0377526
-0.0514115
-0.0514115
-0.048239
-0.048239
-0.00633734
-0.00633734
-0.0230536
-0.0230536
-0.000350253
-0.000350253
-0.00363136
-0.00363136
-0.0649018
-0.0649018
-0.00700995
-0.00700995
0.0206466
0.0206466
0.00994198
0.00994198
-0.00763809
-0.00763809
-0.000414362
-0.000414362
0.000279027
0.000279027
-0.000290562
-0.000290562
-0.0188398
-0.0188398
-0.0178342
-0.0178342
0.00461578
0.00461578
-0.00281772
-0.00281772
-0.0270978
-0.0270978
0.00583451
0.00583451
-0.014176
-0.014176
-0.00966839
-0.00966839
-0.0107874
-0.0107874
-0.00487646
-0.00487646
-0.00490774
-0.00490774
-0.0335794
-0.0335794
-0.00356469
-0.00356469
0.00226603
0.00226603
-0.00189552
-0.00189552
0.0219624
0.0219624
-0.0269221
-0.0269221
-0.0219134
-0.0219134
-0.0194322
-0.0194322
-0.0225578
-0.0225578
-0.00807484
-0.00807484
-0.033872
-0.033872
-0.036646
-0.036646
-0.0169049
-0.0169049
-0.0700943
-0.0700943
0.0108748
0.0108748
-0.00525378
-0.00525378
-0.00318222
-0.00318222
0.0225592
0.0225592
0.0108033
0.0108033
-0.00335015
-0.00335015
-2.64906e-05
-2.64906e-05
-0.00609648
-0.00609648
-0.00714518
-0.00714518
-0.0268776
-0.0268776
-0.0182145
-0.0182145
-0.0178115
-0.0178115
-0.0158968
-0.0158968
-0.0238421
-0.0238421
-0.0058112
-0.0058112
0.00593726
0.00593726
0.0164053
0.0164053
-0.0112822
-0.0112822
-0.0172393
-0.0172393
-0.00711929
-0.00711929
-0.100505
-0.100505
0.00275457
0.00275457
0.011007
0.011007
-0.0537627
-0.0537627
0.0130963
0.0130963
-0.00854887
-0.00854887
0.00694163
0.00694163
-0.0928203
-0.0928203
-0.0112911
-0.0112911
0.0104007
0.0104007
-0.0657445
-0.0657445
-0.0312232
-0.0312232
-0.0170492
-0.0170492
-0.0664729
-0.0664729
-0.00655434
-0.00655434
-0.00629955
-0.00629955
-0.0219915
-0.0219915
-0.0918078
-0.0918078
-0.0228473
-0.0228473
-0.00235028
-0.00235028
-0.0071817
-0.0071817
0.00167809
0.00167809
-0.0462395
-0.0462395
-0.0243956
-0.0243956
0.00383888
0.00383888
-0.021179
-0.021179
-0.00833769
-0.00833769
-0.00749286
-0.00749286
-0.0345968
-0.0345968
-0.037811
-0.037811
-0.0540882
-0.0540882
-0.00072599
-0.00072599
-0.012568
-0.012568
-0.0205254
-0.0205254
-0.011572
-0.011572
-0.0133469
-0.0133469
0.00128285
0.00128285
-0.0183133
-0.0183133
0.00726228
0.00726228
-0.0133337
-0.0133337
-0.0104771
-0.0104771
-0.0042165
-0.0042165
0.0126973
0.0126973
-0.0294332
-0.0294332
-0.0378079
-0.0378079
-0.00395922
-0.00395922
-0.0429099
-0.0429099
-0.00999936
-0.00999936
-0.0663118
-0.0663118
-0.110471
-0.110471
0.00646386
0.00646386
0.0123352
0.0123352
0.00661098
0.00661098
-0.0264161
-0.0264161
0.000179389
0.000179389
-0.00120956
-0.00120956
-0.0455738
-0.0455738
-0.00317287
-0.00317287
-0.00347336
-0.00347336
0.0019344
0.0019344
-0.0023054
-0.0023054
-0.026977
-0.026977
-0.0732787
-0.0732787
-0.00157344
-0.00157344
-9.81182e-05
-9.81182e-05
-0.00729129
-0.00729129
-0.00809047
-0.00809047
-0.0550966
-0.0550966
-0.00279865
-0.00279865
-0.0420762
-0.0420762
0.00199728
0.00199728
-0.0198829
-0.0198829
-0.0131528
-0.0131528
0.00766692
0.00766692
-0.0112768
-0.0112768
0.0044068
0.0044068
0.00390189
0.00390189
-0.0104952
-0.0104952
-0.00183817
-0.00183817
-0.0144047
-0.0144047
-0.015232
-0.015232
-0.00512652
-0.00512652
0.0124274
0.0124274
-0.0117561
-0.0117561
-0.0183826
-0.0183826
0.0123641
0.0123641
-0.00277383
-0.00277383
-0.0330244
-0.0330244
-0.00152494
-0.00152494
-0.0212811
-0.0212811
-0.063056
-0.063056
-0.00838016
-0.00838016
-0.0156652
-0.0156652
-0.0278414
-0.0278414
0.0182745
0.0182745
0.00674388
0.00674388
-0.0153515
-0.0153515
0.00473139
0.00473139
-0.00206099
-0.00206099
-0.0168909
-0.0168909
-0.0143952
-0.0143952
-0.0134287
-0.0134287
-0.00343279
-0.00343279
3.35361e-05
3.35361e-05
-0.0124834
-0.0124834
-0.0129422
-0.0129422
-0.00473722
-0.00473722
-0.00892709
-0.00892709
-0.0911875
-0.0911875
-0.00328355
-0.00328355
-0.0108728
-0.0108728
-0.0140345
-0.0140345
-0.00612426
-0.00612426
0.00676628
0.00676628
-0.00819685
-0.00819685
-0.0128743
-0.0128743
0.00628094
0.00628094
0.00202378
0.00202378
-0.021651
-0.021651
-0.0163369
-0.0163369
-0.0412365
-0.0412365
-0.0069384
-0.0069384
0.00161141
0.00161141
-0.00533864
-0.00533864
-0.00408996
-0.00408996
-0.0251439
-0.0251439
-0.00304168
-0.00304168
-0.00861382
-0.00861382
-0.0078691
-0.0078691
-0.046989
-0.046989
-0.00482649
-0.00482649
-0.00572921
-0.00572921
-0.0125514
-0.0125514
-0.0390405
-0.0390405
-0.00134706
-0.00134706
-0.0441031
-0.0441031
-0.00139231
-0.00139231
-0.0566489
-0.0566489
-0.047178
-0.047178
-0.000452791
-0.000452791
0.0115043
0.0115043
0.00376278
0.00376278
-0.0346618
-0.0346618
-0.00104275
-0.00104275
-0.0098764
-0.0098764
-0.053571
-0.053571
0.0142674
0.0142674
-0.0346002
-0.0346002
-0.0121444
-0.0121444
-0.0323019
-0.0323019
-0.0449073
-0.0449073
0.01932
0.01932
-0.00719714
-0.00719714
-0.0178038
-0.0178038
-0.00429265
-0.00429265
-0.0189864
-0.0189864
-0.00465687
-0.00465687
-0.00613656
-0.00613656
-0.0121057
-0.0121057
-0.0331679
-0.0331679
-0.021701
-0.021701
0.00214106
0.00214106
-0.0366409
-0.0366409
-0.0159015
-0.0159015
-0.0185879
-0.0185879
-0.0281637
-0.0281637
-0.036175
-0.036175
-0.0223559
-0.0223559
0.00708982
0.00708982
-0.0824357
-0.0824357
0.00431119
0.00431119
-0.0213405
-0.0213405
-0.00989673
-0.00989673
-0.0518422
-0.0518422
-0.0305901
-0.0305901
0.0154152
0.0154152
-0.0271744
-0.0271744
-0.0398018
-0.0398018
-0.0119502
-0.0119502
-0.0344992
-0.0344992
-0.0550698
-0.0550698
0.017036
0.017036
-0.0124343
-0.0124343
8.49955e-05
8.49955e-05
-0.00471713
-0.00471713
-0.0476205
-0.0476205
-0.0460549
-0.0460549
-0.00235141
-0.00235141
-0.0136492
-0.0136492
0.00887598
0.00887598
-0.0333744
-0.0333744
-0.00264211
-0.00264211
-0.0748515
-0.0748515
-0.0542357
-0.0542357
-0.00817647
-0.00817647
-0.00895975
-0.00895975
-0.0454013
-0.0454013
-0.0177341
-0.0177341
0.0267198
0.0267198
-0.0392054
-0.0392054
0.0248739
0.0248739
-0.010028
-0.010028
-0.00956725
-0.00956725
-0.0438991
-0.0438991
-0.00605968
-0.00605968
-0.00140566
-0.00140566
-0.00867078
-0.00867078
-0.012819
-0.012819
-0.0103255
-0.0103255
-0.0104244
-0.0104244
0.000591158
0.000591158
-0.00711138
-0.00711138
-0.0277853
-0.0277853
-0.00936961
-0.00936961
-0.0110473
-0.0110473
-0.00812236
-0.00812236
-0.00380361
-0.00380361
-0.0133466
-0.0133466
0.00475001
0.00475001
-0.00937598
-0.00937598
0.00176915
0.00176915
-0.00564347
-0.00564347
-0.0602156
-0.0602156
-0.0108023
-0.0108023
-0.0179407
-0.0179407
0.00956873
0.00956873
-0.00483266
-0.00483266
0.0033343
0.0033343
-0.0103173
-0.0103173
-0.0481813
-0.0481813
-0.00366049
-0.00366049
-0.0403038
-0.0403038
-0.00900245
-0.00900245
-0.00180624
-0.00180624
-0.0102075
-0.0102075
-0.0107167
-0.0107167
-0.00953673
-0.00953673
-0.0137712
-0.0137712
-0.0205008
-0.0205008
0.0202828
0.0202828
0.000606881
0.000606881
-0.00138388
-0.00138388
-0.0210104
-0.0210104
0.0125139
0.0125139
-0.00573608
-0.00573608
-0.00319564
-0.00319564
-0.0115689
-0.0115689
-0.00962742
-0.00962742
-0.00150515
-0.00150515
-0.00714552
-0.00714552
-0.000431641
-0.000431641
-0.00398583
-0.00398583
-0.0137566
-0.0137566
0.00267346
0.00267346
-0.026413
-0.026413
-0.0128787
-0.0128787
0.0259433
0.0259433
-0.00352875
-0.00352875
0.00826386
0.00826386
-0.007747
-0.007747
-0.0709217
-0.0709217
-0.06004
-0.06004
-0.0259741
-0.0259741
0.0157155
0.0157155
-0.0397326
-0.0397326
-0.0010826
-0.0010826
-0.00440228
-0.00440228
-0.00504851
-0.00504851
-0.00132802
-0.00132802
-0.0104902
-0.0104902
-0.0132862
-0.0132862
-0.00386962
-0.00386962
-0.0195534
-0.0195534
-0.0885412
-0.0885412
-0.00700883
-0.00700883
-0.0105502
-0.0105502
-0.00738191
-0.00738191
-0.0244543
-0.0244543
0.00768891
0.00768891
-0.039971
-0.039971
-0.00188352
-0.00188352
0.0112229
0.0112229
-0.00195563
-0.00195563
-0.00489076
-0.00489076
-0.0618985
-0.0618985
-0.0618224
-0.0618224
-0.0533993
-0.0533993
-0.00111231
-0.00111231
0.00252328
0.00252328
-0.0122859
-0.0122859
-0.00314843
-0.00314843
-0.00417252
-0.00417252
-0.00449386
-0.00449386
-0.00252226
-0.00252226
0.0145048
0.0145048
-0.0663474
-0.0663474
-0.00413768
-0.00413768
-0.000419634
-0.000419634
-0.00260667
-0.00260667
-0.00596675
-0.00596675
-0.00273214
-0.00273214
0.00492859
0.00492859
-0.037349
-0.037349
-0.00799612
-0.00799612
-0.0213041
-0.0213041
-0.0404407
-0.0404407
-0.0137535
-0.0137535
-0.0540538
-0.0540538
-0.0181346
-0.0181346
-0.0174269
-0.0174269
-0.00127857
-0.00127857
-0.00642523
-0.00642523
0.0142976
0.0142976
0.0208043
0.0208043
-0.00433146
-0.00433146
-0.00232467
-0.00232467
0.00442191
0.00442191
-0.0280995
-0.0280995
-0.00264466
-0.00264466
0.0105779
0.0105779
-0.00993957
-0.00993957
5.60256e-05
5.60256e-05
-0.00398773
-0.00398773
-0.00591686
-0.00591686
-0.051753
-0.051753
0.0207374
0.0207374
-0.00303446
-0.00303446
-0.0189893
-0.0189893
-0.028674
-0.028674
-0.0314963
-0.0314963
-0.0043628
-0.0043628
-0.00217302
-0.00217302
-0.0385925
-0.0385925
0.00523093
0.00523093
-0.0513296
-0.0513296
-0.0671303
-0.0671303
0.00534228
0.00534228
-0.00441351
-0.00441351
-0.0478309
-0.0478309
-0.00910537
-0.00910537
-0.0119113
-0.0119113
-0.01989
-0.01989
-0.00679703
-0.00679703
0.0105716
0.0105716
-0.0446673
-0.0446673
-0.0177231
-0.0177231
0.00688453
0.00688453
-0.0390649
-0.0390649
-0.0109102
-0.0109102
-0.00908412
-0.00908412
-0.0038761
-0.0038761
-0.00274758
-0.00274758
-0.0124469
-0.0124469
-0.0233192
-0.0233192
-0.00452982
-0.00452982
0.0113788
0.0113788
-0.108602
-0.108602
0.00130402
0.00130402
-0.00585106
-0.00585106
-0.0158002
-0.0158002
0.00690465
0.00690465
-0.0151412
-0.0151412
-0.00726317
-0.00726317
-0.010459
-0.010459
-0.00144927
-0.00144927
0.00302673
0.00302673
0.00212337
0.00212337
0.00387058
0.00387058
-0.0546901
-0.0546901
-0.0153177
-0.0153177
0.00212024
0.00212024
0.0143652
0.0143652
0.00275354
0.00275354
0.0137465
0.0137465
-0.00678265
-0.00678265
0.0031048
0.0031048
-0.00621546
-0.00621546
-0.00780003
-0.00780003
-0.0927482
-0.0927482
0.00506084
0.00506084
-0.0779702
-0.0779702
0.013184
0.013184
0.000955306
0.000955306
-0.0142903
-0.0142903
-0.00808205
-0.00808205
-0.025153
-0.025153
-0.0282439
-0.0282439
-0.00944758
-0.00944758
-0.00105764
-0.00105764
0.0143409
0.0143409
-0.0327808
-0.0327808
-0.00861675
-0.00861675
-0.00714198
-0.00714198
0.0193375
0.0193375
0.000409293
0.000409293
-0.0017768
-0.0017768
6.53605e-05
6.53605e-05
-0.00341227
-0.00341227
-0.0208939
-0.0208939
-0.0444561
-0.0444561
-0.0508394
-0.0508394
-0.00809548
-0.00809548
0.0103927
0.0103927
-0.0518406
-0.0518406
-0.0205036
-0.0205036
0.0193469
0.0193469
-0.00254713
-0.00254713
0.000554462
0.000554462
-0.0141565
-0.0141565
-0.0115879
-0.0115879
-0.00348492
-0.00348492
-0.0495664
-0.0495664
0.0295195
0.0295195
-0.0356341
-0.0356341
-0.00340367
-0.00340367
-0.0151049
-0.0151049
-0.0650745
-0.0650745
0.00242896
0.00242896
-0.0123241
-0.0123241
-0.0568312
-0.0568312
0.0212225
0.0212225
-0.00157107
-0.00157107
0.00284142
0.00284142
-0.00898301
-0.00898301
0.0122031
0.0122031
-0.000750743
-0.000750743
-0.00250462
-0.00250462
-0.0167737
-0.0167737
-0.0274316
-0.0274316
-0.0825877
-0.0825877
-0.0650373
-0.0650373
0.00760899
0.00760899
-0.0610766
-0.0610766
-0.0120003
-0.0120003
-0.00594651
-0.00594651
0.000931589
0.000931589
-0.0195817
-0.0195817
0.00474414
0.00474414
-0.00261205
-0.00261205
0.0038925
0.0038925
-0.00229793
-0.00229793
-7.33032e-05
-7.33032e-05
-0.0167126
-0.0167126
-0.00996381
-0.00996381
-0.00214854
-0.00214854
-0.0326781
-0.0326781
0.00166265
0.00166265
-0.0127671
-0.0127671
-0.014797
-0.014797
0.0106449
0.0106449
-0.0163759
-0.0163759
-0.00768988
-0.00768988
0.0164643
0.0164643
0.0043636
0.0043636
0.0151013
0.0151013
-0.0202816
-0.0202816
-0.000754561
-0.000754561
-0.0420668
-0.0420668
-0.0125208
-0.0125208
-0.062015
-0.062015
-0.0337667
-0.0337667
-0.0621343
-0.0621343
-0.00509371
-0.00509371
-0.0435192
-0.0435192
0.00136595
0.00136595
-0.0114156
-0.0114156
-0.0546128
-0.0546128
-0.0621229
-0.0621229
0.00935784
0.00935784
-0.0126553
-0.0126553
0.0114756
0.0114756
0.0146974
0.0146974
-0.022895
-0.022895
-0.0578935
-0.0578935
-0.00220306
-0.00220306
0.00573171
0.00573171
0.0038594
0.0038594
0.0113045
0.0113045
-0.0309965
-0.0309965
-0.0113866
-0.0113866
0.00119807
0.00119807
-0.0114184
-0.0114184
-0.012507
-0.012507
-0.0160573
-0.0160573
0.0062351
0.0062351
-0.0342146
-0.0342146
-0.0042549
-0.0042549
-0.00403343
-0.00403343
-0.00786138
-0.00786138
-0.0115017
-0.0115017
-0.00340981
-0.00340981
-0.0377651
-0.0377651
-0.0534427
-0.0534427
-0.00821377
-0.00821377
-0.00190632
-0.00190632
-0.0120921
-0.0120921
0.00265899
0.00265899
-0.0555346
-0.0555346
-0.000949143
-0.000949143
0.0154759
0.0154759
-0.0672678
-0.0672678
-0.000924328
-0.000924328
-0.0171461
-0.0171461
-0.0189444
-0.0189444
-0.0430542
-0.0430542
-0.00930229
-0.00930229
-0.0100445
-0.0100445
-0.00163343
-0.00163343
-0.0481482
-0.0481482
-0.0120602
-0.0120602
-0.0320822
-0.0320822
0.000473761
0.000473761
-0.0046721
-0.0046721
0.00518619
0.00518619
0.00800507
0.00800507
-0.0224203
-0.0224203
0.00144879
0.00144879
0.00136182
0.00136182
0.00116051
0.00116051
0.000223601
0.000223601
-0.002038
-0.002038
-0.0129331
-0.0129331
-0.0130183
-0.0130183
-0.0280702
-0.0280702
-0.00451868
-0.00451868
0.0126427
0.0126427
-0.0142768
-0.0142768
-0.0435951
-0.0435951
0.00957846
0.00957846
-0.0142457
-0.0142457
-0.00484017
-0.00484017
-0.0133411
-0.0133411
-0.0097643
-0.0097643
-0.00786676
-0.00786676
-0.00455594
-0.00455594
-0.0364174
-0.0364174
-0.00516114
-0.00516114
-0.00776327
-0.00776327
-0.00759619
-0.00759619
-0.0453
-0.0453
-0.0724367
-0.0724367
-0.00954013
-0.00954013
-0.00474891
-0.00474891
-0.0465071
-0.0465071
-0.010443
-0.010443
-0.00448034
-0.00448034
-0.0307132
-0.0307132
-0.0329384
-0.0329384
-0.0136041
-0.0136041
-0.00310984
-0.00310984
-0.0256558
-0.0256558
0.00436012
0.00436012
0.00880369
0.00880369
0.000891314
0.000891314
-0.0027312
-0.0027312
-0.00892951
-0.00892951
0.00879935
0.00879935
0.0227578
0.0227578
-0.0469781
-0.0469781
-0.00680687
-0.00680687
-0.00878234
-0.00878234
-0.0197813
-0.0197813
-0.0145167
-0.0145167
0.00547222
0.00547222
-0.0162344
-0.0162344
0.00851607
0.00851607
-0.0380098
-0.0380098
-0.0546764
-0.0546764
0.0256555
0.0256555
-0.0435681
-0.0435681
-0.0527713
-0.0527713
-0.0351286
-0.0351286
-0.0183757
-0.0183757
-0.0072134
-0.0072134
-0.00678392
-0.00678392
-0.0266588
-0.0266588
-0.0185106
-0.0185106
0.000478633
0.000478633
-0.00587379
-0.00587379
-0.00326206
-0.00326206
0.00596611
0.00596611
-0.016777
-0.016777
-0.0383311
-0.0383311
-0.0793636
-0.0793636
-0.0549887
-0.0549887
-0.0306671
-0.0306671
-0.0211984
-0.0211984
-0.0949206
-0.0949206
-0.0046392
-0.0046392
-0.0411995
-0.0411995
0.00981236
0.00981236
-0.00144202
-0.00144202
-0.0551467
-0.0551467
-0.018171
-0.018171
-0.0161104
-0.0161104
-0.0422747
-0.0422747
-0.00371021
-0.00371021
-0.00537132
-0.00537132
-0.00333121
-0.00333121
-0.00819134
-0.00819134
-0.0416908
-0.0416908
-0.00533308
-0.00533308
-0.00406974
-0.00406974
-0.00383821
-0.00383821
-0.000828009
-0.000828009
-0.0314253
-0.0314253
-0.00193482
-0.00193482
-0.0569356
-0.0569356
-0.0931055
-0.0931055
-0.00951143
-0.00951143
0.00775424
0.00775424
-0.016952
-0.016952
-0.0176497
-0.0176497
-0.00668303
-0.00668303
-0.0235296
-0.0235296
0.00446338
0.00446338
-0.00471095
-0.00471095
-0.00364133
-0.00364133
-0.00296833
-0.00296833
-0.00255722
-0.00255722
-0.00202505
-0.00202505
-0.00160797
-0.00160797
-0.00121411
-0.00121411
-0.000858843
-0.000858843
-0.000564069
-0.000564069
-0.000269697
-0.000269697
-2.35054e-05
-2.35054e-05
0.000196704
0.000196704
0.000408309
0.000408309
0.000541315
0.000541315
0.000662968
0.000662968
0.000775622
0.000775622
0.000819369
0.000819369
0.000860391
0.000860391
0.00084089
0.00084089
0.000836461
0.000836461
0.000758059
0.000758059
0.000637145
0.000637145
0.000546607
0.000546607
0.000380141
0.000380141
0.000195367
0.000195367
-6.10188e-05
-6.10188e-05
-0.000277397
-0.000277397
-0.000512202
-0.000512202
-0.000885387
-0.000885387
-0.001187
-0.001187
-0.00173061
-0.00173061
-0.00204277
-0.00204277
-0.00238663
-0.00238663
-0.00318372
-0.00318372
-0.00378915
-0.00378915
-0.00401455
-0.00401455
-0.00475631
-0.00475631
-0.00613168
-0.00613168
-0.00674515
-0.00674515
-0.00745417
-0.00745417
-0.00922041
-0.00922041
-0.0108969
-0.0108969
-0.0128262
-0.0128262
-0.0155589
-0.0155589
-0.020194
-0.020194
-0.0247873
-0.0247873
-0.0339632
-0.0339632
-0.0396967
-0.0396967
-0.0194319
-0.0194319
0.0019432
0.0019432
-0.00544731
-0.00544731
-0.00772939
-0.00772939
-0.00608524
-0.00608524
-0.00613033
-0.00613033
-0.00581095
-0.00581095
-0.00808271
-0.00808271
-0.0118023
-0.0118023
-0.01412
-0.01412
-0.0165544
-0.0165544
-0.0188489
-0.0188489
-0.0204682
-0.0204682
-0.0209009
-0.0209009
-0.0204052
-0.0204052
-0.0194031
-0.0194031
-0.017847
-0.017847
-0.0159333
-0.0159333
-0.0137703
-0.0137703
-0.0117613
-0.0117613
-0.0098203
-0.0098203
-0.00831268
-0.00831268
-0.00762946
-0.00762946
-0.00696486
-0.00696486
-0.00399922
-0.00399922
-0.00370837
-0.00370837
-0.00321321
-0.00321321
-0.00245891
-0.00245891
-0.00204641
-0.00204641
-0.00176779
-0.00176779
-0.00118401
-0.00118401
-0.000928412
-0.000928412
-0.000509541
-0.000509541
-0.000272211
-0.000272211
-6.00276e-05
-6.00276e-05
0.000205018
0.000205018
0.000379187
0.000379187
0.000542552
0.000542552
0.000627452
0.000627452
0.000775669
0.000775669
0.000809557
0.000809557
0.000838034
0.000838034
0.000814954
0.000814954
0.000841036
0.000841036
0.000763612
0.000763612
0.000654025
0.000654025
0.000558528
0.000558528
0.000379
0.000379
0.000202646
0.000202646
-1.5496e-05
-1.5496e-05
-0.000278652
-0.000278652
-0.00054728
-0.00054728
-0.000876831
-0.000876831
-0.00122969
-0.00122969
-0.00164026
-0.00164026
-0.00204225
-0.00204225
-0.00251288
-0.00251288
-0.00302141
-0.00302141
-0.00369048
-0.00369048
-0.00478061
-0.00478061
-0.00684658
-0.00684658
-0.0076446
-0.0076446
-0.0083227
-0.0083227
-0.00985289
-0.00985289
-0.0117613
-0.0117613
-0.0139063
-0.0139063
-0.0161555
-0.0161555
-0.0180538
-0.0180538
-0.0196409
-0.0196409
-0.0206421
-0.0206421
-0.020957
-0.020957
-0.0204633
-0.0204633
-0.0191599
-0.0191599
-0.0163329
-0.0163329
-0.0134388
-0.0134388
-0.0104935
-0.0104935
-0.0083276
-0.0083276
-0.00706219
-0.00706219
-0.00534811
-0.00534811
-0.00553061
-0.00553061
-0.00610023
-0.00610023
-0.00512748
-0.00512748
-0.0019207
-0.0019207
-0.016204
-0.016204
-0.037123
-0.037123
-0.0367972
-0.0367972
-0.0270485
-0.0270485
-0.0191793
-0.0191793
-0.0163211
-0.0163211
-0.012276
-0.012276
-0.0106758
-0.0106758
-0.00962813
-0.00962813
-0.00768603
-0.00768603
-0.00646507
-0.00646507
-0.00604678
-0.00604678
-0.00509239
-0.00509239
      </DataArray> 
    </PointData>
    <CellData>
    </CellData>
  </Piece>
  </UnstructuredGrid>
</VTKFile>
