<?xml version="1.0"?>
<VTKFile type="UnstructuredGrid">
  <UnstructuredGrid>
  <Piece NumberOfPoints="3487"  NumberOfCells="1698">
    <Points>
      <DataArray type="Float64" NumberOfComponents="3" format="ascii">
39.974 48.9057 0
60.0261 48.9055 0
40.6343 49.0363 0
41.2963 49.158 0
41.9598 49.2708 0
42.6248 49.3746 0
43.291 49.4694 0
43.9585 49.5552 0
44.6271 49.6321 0
45.2966 49.6999 0
45.9669 49.7587 0
46.638 49.8085 0
47.3097 49.8492 0
47.9819 49.8809 0
48.6544 49.9036 0
49.3272 49.9171 0
50.0001 49.9217 0
50.673 49.9171 0
51.3458 49.9035 0
52.0183 49.8809 0
52.6905 49.8492 0
53.3622 49.8084 0
54.0333 49.7586 0
54.7036 49.6998 0
55.3731 49.632 0
56.0417 49.5551 0
56.7091 49.4693 0
57.3754 49.3744 0
58.0403 49.2706 0
58.7038 49.1578 0
59.3658 49.0361 0
39.9987 49.9213 0
39.9974 49.6673 0
39.9928 49.4134 0
39.985 49.1595 0
19.978 69.9005 0
39.9968 50.1829 0
39.9914 50.4445 0
39.9775 50.8229 0
39.9565 51.201 0
39.9134 51.7473 0
39.8554 52.2922 0
39.745 53.0775 0
39.6035 53.8578 0
39.3443 54.9756 0
39.0212 56.077 0
38.7484 56.8612 0
38.4432 57.6336 0
38.1062 58.3926 0
37.7379 59.137 0
37.1511 60.1856 0
36.5022 61.1972 0
35.7938 62.168 0
-0.0116627 49.8901 0
17.3676 69.7275 0
14.8022 69.2154 0
12.3255 68.373 0
9.97983 67.2146 0
7.80543 65.7601 0
11.5107 31.8291 0
0.189993 47.0707 0
0.787543 44.3081 0
1.76912 41.6575 0
0 0 0
0.133756 3.72427 0
0.548497 7.42946 0
1.24063 11.0938 0
2.20598 14.6957 0
3.10815 17.3498 0
49.9999 -0.0748001 0
5.1116 0 0
10.2232 0 0
15.3348 0 0
100 0 0
57.3927 -0.0724559 0
64.7855 -0.0638996 0
72.1765 -0.0460306 0
88.4894 31.8289 0
99.8663 3.72425 0
99.4515 7.42938 0
98.7594 11.0938 0
97.7941 14.6956 0
96.8919 17.3498 0
100.012 49.89 0
99.81 47.0707 0
99.2125 44.308 0
98.2309 41.6574 0
80.022 69.9004 0
99.8421 52.5005 0
99.333 55.0665 0
98.4932 57.544 0
97.3372 59.8908 0
95.8847 62.0665 0
60.0014 49.9211 0
77.5112 69.7442 0
75.0399 69.2743 0
72.647 68.4979 0
70.3704 67.4275 0
68.8844 66.5247 0
67.4822 65.4962 0
66.1747 64.3498 0
64.9716 63.0942 0
64.2062 62.1678 0
63.4978 61.197 0
62.849 60.1855 0
62.2621 59.1368 0
61.5569 57.6335 0
60.9788 56.0768 0
60.6558 54.9756 0
60.3965 53.8576 0
60.2551 53.0773 0
60.0027 49.6671 0
60.0073 49.4132 0
60.0151 49.1593 0
52.8209 30.1728 0
26.5208 36.9953 0
40.3266 24.2949 0
24.9258 22.5472 0
71.9448 22.5786 0
72.7069 44.0617 0
54.8063 24.1212 0
15.309 47.538 0
38.3618 49.5356 0
23.6201 65.3702 0
7.70283 7.75407 0
91.9389 7.73272 0
29.1744 57.0068 0
37.1874 52.009 0
28.0896 47.31 0
29.7291 48.271 0
71.5146 46.7941 0
30.988 49.1692 0
70.5131 48.2731 0
31.6349 45.7522 0
30.8874 47.2097 0
70.0639 46.7814 0
68.9848 45.1026 0
31.2931 50.265 0
30.9069 51.4896 0
28.1901 49.2692 0
45.3062 41.379 0
53.8454 41.0003 0
56.0303 40.5492 0
73.126 47.5515 0
70.1122 49.5147 0
68.3363 42.5287 0
32.3074 42.8586 0
26.1367 45.7919 0
27.6756 44.7937 0
30.3012 43.4184 0
70.4167 42.7289 0
72.6767 46.06 0
44.8472 43.1718 0
51.4311 42.0783 0
55.4117 42.6649 0
32.4514 49.2038 0
68.5531 49.7494 0
39.4731 42.1636 0
35.4359 43.4824 0
32.8938 46.6503 0
33.5776 48.3993 0
67.1033 48.3451 0
67.9832 46.5816 0
65.0768 43.1459 0
60.4231 41.8014 0
32.3704 51.5243 0
28.2198 51.1302 0
41.7731 37.384 0
46.8213 37.789 0
52.05 39.9626 0
58.6827 39.3322 0
26.61 52.0299 0
24.3041 50.4647 0
74.2238 50.0695 0
71.1622 50.7689 0
69.1385 52.3483 0
67.9134 52.4804 0
59.7687 36.451 0
66.5089 40.772 0
34.102 41.1482 0
36.0168 35.8813 0
23.1856 47.2915 0
21.6454 43.3894 0
28.3485 41.9006 0
74.3181 44.8192 0
76.6336 48.677 0
43.052 43.76 0
46.2672 43.0455 0
49.968 43.0936 0
48.4321 42.8763 0
51.7635 44.1313 0
54.0894 44.2471 0
52.9068 44.5427 0
56.2745 43.7959 0
33.8828 49.4953 0
33.7849 51.0101 0
66.5337 51.8268 0
66.594 49.8342 0
41.8295 43.9977 0
40.6999 43.7356 0
38.4569 43.3436 0
37.1388 43.9498 0
35.3442 45.6602 0
34.3252 46.9416 0
66.0242 46.6661 0
65.0207 45.3906 0
63.1934 43.6339 0
61.7079 43.1836 0
58.8813 43.5961 0
57.5413 43.9121 0
33.3987 52.2348 0
29.172 53.8524 0
40.827 31.1037 0
50.8858 36.1029 0
55.6717 34.3844 0
23.5671 53.5825 0
76.9125 52.0501 0
70.2332 53.4581 0
66.4033 53.0688 0
65.482 35.2654 0
30.9418 34.6814 0
19.45 47.4178 0
26.122 40.1356 0
72.0145 34.2006 0
72.0581 41.4883 0
77.484 45.4263 0
43.1655 45.2024 0
45.8083 44.8383 0
48.7643 44.9293 0
51.4436 45.558 0
53.7696 45.6738 0
56.2191 45.4944 0
34.9112 50.2057 0
65.0838 50.4225 0
40.8133 45.1779 0
38.3655 45.5218 0
36.0282 47.4093 0
64.1407 47.1544 0
61.6516 45.4287 0
58.826 45.2945 0
36.071 52.4798 0
34.9208 53.2449 0
33.5062 53.759 0
31.9077 55.5545 0
26.1035 59.0339 0
23.0062 57.4414 0
32.3862 22.7938 0
47.0346 26.7903 0
63.1471 23.1439 0
19.9979 55.1526 0
80.1805 54.4177 0
75.7929 55.9212 0
71.9307 56.2684 0
69.0849 55.5846 0
65.7699 54.0772 0
64.0943 53.919 0
68.1645 29.0995 0
26.7641 30.1854 0
17.2459 51.8842 0
14.6018 42.5717 0
22.391 34.1677 0
84.8904 46.9992 0
84.7127 52.1596 0
75.1773 38.0439 0
81.2122 44.0639 0
42.4554 46.5332 0
41.4147 46.3417 0
44.9646 46.3784 0
43.6781 46.2954 0
47.7357 46.3196 0
46.3848 46.2521 0
50.62 46.6329 0
49.2718 46.5368 0
53.051 47.0282 0
51.7633 47.0444 0
55.5139 46.6406 0
54.2338 46.7326 0
58.0625 46.5947 0
56.7808 46.7568 0
36.3736 48.7322 0
36.0276 49.7348 0
35.9297 51.2498 0
63.3827 52.1835 0
63.8271 51.1708 0
63.8874 49.1779 0
63.837 48.2745 0
40.285 46.0795 0
39.3693 46.2596 0
38.051 46.8656 0
37.3927 47.4507 0
62.8335 46.999 0
62.018 46.6736 0
60.5324 46.2234 0
59.4026 46.2787 0
38.0624 52.6784 0
36.1784 54.0042 0
34.0788 56.8696 0
29.6051 59.9463 0
22.8817 61.5036 0
21.733 15.4746 0
39.96 16.3185 0
48.9007 11.6073 0
56.9467 17.0522 0
76.6515 15.7172 0
15.643 57.2075 0
84.5155 57.6435 0
73.4046 59.6154 0
66.5162 55.7392 0
62.4535 53.6874 0
82.9389 7.86499 0
79.7507 22.6856 0
16.3098 7.94531 0
18.3408 22.3969 0
10.7242 46.9063 0
16.5728 36.11 0
15.5099 30.498 0
89.4007 49.7859 0
83.3225 31.3447 0
81.5795 39.4122 0
41.9272 47.4348 0
44.2546 47.7092 0
46.8922 47.8596 0
49.5914 48.0232 0
52.2274 48.1031 0
54.7953 47.995 0
57.3573 47.741 0
37.3922 49.7763 0
37.9212 51.4483 0
62.1863 50.9389 0
62.5802 49.0227 0
39.9706 47.4235 0
38.3966 48.1886 0
38.5121 48.9587 0
61.7648 48.6577 0
61.7142 47.7939 0
59.7689 47.5238 0
38.8907 51.2077 0
61.3464 51.1426 0
39.1998 52.9877 0
38.4661 53.5485 0
38.1749 54.658 0
37.0248 55.4229 0
36.5224 57.1971 0
34.8759 58.7219 0
33.3705 60.5813 0
30.7564 62.695 0
27.9986 64.85 0
27.1654 7.89375 0
38.6547 8.45174 0
59.878 8.67846 0
71.7704 7.97926 0
19.2456 64.8192 0
14.9483 63.0887 0
10.7478 60.3036 0
6.29938 57.2626 0
6.0054 51.3283 0
94.2276 52.4263 0
93.3099 57.4812 0
89.3243 60.8234 0
84.5711 63.3323 0
79.4633 64.9999 0
74.566 64.0279 0
70.2596 62.7416 0
66.8243 61.2838 0
65.2125 58.6094 0
62.7135 57.2798 0
62.0719 55.7498 0
61.7808 54.6403 0
61.0692 52.9046 0
93.4856 14.5735 0
89.7947 20.7683 0
86.1155 25.139 0
6.26088 14.5659 0
13.005 24.5993 0
9.79045 20.7562 0
5.76477 45.7585 0
5.65592 40.8133 0
12.2963 34.8432 0
94.2234 47.3054 0
88.1219 37.1992 0
93.3557 42.5729 0
41.0913 48.2007 0
40.4302 48.0745 0
42.1322 48.3921 0
43.4632 48.5907 0
42.7964 48.5004 0
44.7498 48.6737 0
46.0896 48.8003 0
45.4189 48.746 0
47.4406 48.8678 0
48.7852 48.9221 0
48.1125 48.904 0
50.1334 49.0182 0
51.479 49.0001 0
50.8063 49.0182 0
52.7668 48.9839 0
54.1094 48.8934 0
53.4387 48.9477 0
55.3896 48.8014 0
56.7254 48.6387 0
56.0586 48.7291 0
58.0073 48.4767 0
59.3325 48.2422 0
58.6715 48.3684 0
39.3763 51.6594 0
39.3258 52.2049 0
60.9433 52.1219 0
60.8927 51.5763 0
38.0157 50.5383 0
39.1357 49.7207 0
61.7907 50.1298 0
61.8152 49.5612 0
60.9753 49.7648 0
39.5144 48.2546 0
39.1705 48.3737 0
60.9492 48.3323 0
60.4624 48.1869 0
39.4709 50.7493 0
60.4972 50.7671 0
39.492 50.1094 0
39.4883 50.3711 0
60.4798 50.3889 0
60.4761 50.1273 0
39.6424 49.5325 0
39.63 49.0248 0
39.6394 49.2786 0
60.5005 49.5585 0
60.5035 49.3046 0
60.513 49.0508 0
60.9998 49.1961 0
39.2861 49.1438 0
60.9508 50.3335 0
38.9853 50.2976 0
60.8988 47.4684 0
39.0548 47.6035 0
62.6307 49.9262 0
37.0462 50.779 0
61.7419 51.9517 0
38.7961 52.1177 0
58.6391 47.579 0
56.0755 47.903 0
53.5152 48.0869 0
50.9396 48.1193 0
48.2432 47.9271 0
45.5412 47.7922 0
42.968 47.6262 0
40.8864 47.2434 0
89.1489 44.934 0
10.9265 41.0558 0
13.2817 16.2266 0
85.8814 16.4377 0
63.1651 55.423 0
68.9103 58.6003 0
78.9343 60.0103 0
89.2818 55.073 0
11.7784 53.0177 0
19.2439 59.839 0
66.7214 15.8565 0
30.7493 15.5702 0
26.3674 62.2728 0
32.1688 58.1133 0
35.0282 54.7692 0
37.3286 53.2392 0
62.5298 48.1193 0
37.7382 48.7737 0
75.9555 28.786 0
20.4974 28.691 0
47.9133 19.4088 0
60.1661 44.9784 0
63.1373 45.8788 0
37.0471 46.1278 0
39.6837 44.9156 0
65.1443 48.4298 0
65.0236 52.4153 0
34.8133 51.7206 0
35.009 48.6908 0
57.4859 45.6105 0
54.9522 45.3782 0
52.5868 45.9694 0
50.3003 45.1466 0
47.2284 44.7121 0
44.3881 44.9646 0
41.9429 45.4401 0
74.3483 42.8211 0
80.2599 49.0219 0
17.9973 43.4707 0
21.3173 50.9334 0
34.4308 29.8207 0
59.993 30.3758 0
67.783 53.7223 0
73.3952 53.1662 0
54.4642 38.8847 0
46.5057 33.039 0
26.2428 55.5379 0
31.9841 52.749 0
69.7682 40.1552 0
30.9737 40.5249 0
57.5966 42.2137 0
63.2497 41.389 0
66.9043 44.9026 0
33.6412 45.1927 0
37.2302 41.7718 0
41.716 42.5554 0
68.0439 51.2384 0
32.7565 50.2997 0
53.2267 43.116 0
49.6356 41.0406 0
74.288 46.8174 0
25.7228 43.2759 0
71.9639 48.2857 0
26.5507 48.3082 0
69.0623 48.2605 0
32.1462 48.1079 0
71.0654 45.3025 0
29.6285 46.3117 0
29.8296 50.2304 0
88.1643 34.5306 0
96.8848 39.1722 0
91.3055 35.9143 0
92.228 38.784 0
96.0832 38.0073 0
88.494 40.9459 0
3.1152 39.1723 0
11.8569 33.2957 0
9.99645 35.1855 0
3.91685 38.0074 0
8.31691 37.6993 0
11.6885 37.1943 0
11.3976 22.678 0
10.9782 26.5461 0
9.3709 24.6256 0
11.8509 29.0462 0
4.15836 19.9484 0
5.35331 22.4834 0
8.23926 22.8506 0
11.5358 18.491 0
13.1429 20.4132 0
8.02536 17.6617 0
6.97412 20.3525 0
5.20922 17.2567 0
6.68911 24.9464 0
7.78329 26.7455 0
4.23329 14.6309 0
9.77093 15.3967 0
87.9552 22.9538 0
90.4217 24.6314 0
88.582 26.8154 0
91.5534 22.8565 0
95.8417 19.9484 0
94.6467 22.4833 0
87.7321 29.3654 0
85.9989 20.7886 0
87.8382 18.6026 0
91.6405 17.6716 0
94.6641 17.2604 0
92.8185 20.3585 0
95.64 14.6346 0
93.3109 24.9463 0
92.2167 26.7455 0
89.6839 15.5061 0
65.8244 8.32581 0
62.3299 4.30663 0
68.2776 3.95633 0
54.9406 4.30031 0
79.5536 0 0
84.6652 0 0
75.6619 3.98468 0
69.2455 11.917 0
63.2995 12.2674 0
32.9099 8.1696 0
31.1903 3.91325 0
36.9362 4.19357 0
23.806 3.94288 0
20.4464 0 0
27.8236 -0.045862 0
44.3255 4.18654 0
34.7024 12.0109 0
28.9576 11.7314 0
81.6683 35.215 0
85.4396 34.7118 0
85.0585 38.3057 0
86.3139 31.7546 0
85.0252 42.3935 0
77.3068 34.148 0
80.0497 31.3184 0
16.0446 33.0237 0
14.0954 35.4414 0
13.8994 32.9763 0
14.1577 38.6772 0
13.5099 31.1645 0
17.5996 30.1476 0
18.7326 33.1226 0
16.5076 27.4575 0
14.0901 28.4164 0
15.6729 23.4977 0
15.8112 19.3116 0
19.4196 25.5434 0
81.6328 27.3935 0
82.933 23.912 0
84.8701 28.8065 0
82.8158 19.5612 0
77.8524 25.7351 0
79.7949 11.7903 0
74.21 11.8501 0
77.3529 7.92505 0
71.6855 15.7863 0
81.247 3.93139 0
84.4104 12.151 0
81.2661 16.0777 0
52.924 14.3292 0
54.3889 10.1414 0
58.4118 12.8652 0
49.4501 5.76591 0
61.8338 16.4532 0
52.4299 18.2297 0
48.407 15.5081 0
44.4301 13.9622 0
39.3079 12.3851 0
43.7781 10.0281 0
35.3549 15.9433 0
43.9369 17.8629 0
19.0215 11.7096 0
21.7389 7.92294 0
24.45 11.6862 0
18.3774 3.97146 0
26.242 15.5223 0
17.5075 15.8509 0
14.7955 12.0856 0
74.6606 34.1743 0
78.7713 37.5926 0
78.1037 41.1905 0
74.7628 40.4324 0
21.4448 31.4291 0
19.3593 36.8627 0
17.0628 39.6881 0
19.7358 40.491 0
73.9847 31.4929 0
73.5957 36.1224 0
72.4728 39.0994 0
70.8913 37.1776 0
68.7482 34.7328 0
66.8231 32.1821 0
70.0892 31.6503 0
62.7373 32.8207 0
64.0786 29.7373 0
72.0598 28.9428 0
67.6248 37.7105 0
32.6865 32.2512 0
35.2239 32.8508 0
33.4793 35.2812 0
33.4956 38.2034 0
36.6236 38.8264 0
30.9579 37.6031 0
59.8808 33.4133 0
62.6253 35.8581 0
64.3658 38.327 0
61.509 38.9201 0
57.8323 32.3799 0
57.7201 35.4177 0
57.1165 37.6677 0
55.0679 36.6345 0
46.6636 35.414 0
48.6957 34.5709 0
48.8536 36.9459 0
50.2608 38.5717 0
52.6749 37.4937 0
48.2284 39.4148 0
38.895 36.6326 0
38.4221 33.4926 0
41.3001 34.2437 0
37.629 30.462 0
43.6664 32.0712 0
44.1396 35.2115 0
39.5019 39.5781 0
44.2972 37.5865 0
46.0638 39.584 0
43.5111 41.9673 0
47.4709 41.2098 0
43.5396 39.3815 0
41.7446 39.9697 0
90.8586 3.86626 0
87.4393 7.79971 0
86.3603 3.93471 0
88.9112 12.0866 0
89.7768 0 0
94.8884 0 0
95.9711 3.86731 0
96.4695 11.0029 0
92.7127 11.1528 0
95.6953 7.58169 0
91.0473 28.4959 0
90.4347 29.3516 0
4.12559 7.59238 0
6.98138 11.1597 0
3.40379 10.9991 0
10.4913 11.9916 0
8.95278 28.4961 0
9.56537 29.3519 0
3.84985 3.87791 0
13.2642 3.97458 0
12.006 7.85042 0
8.96228 3.87689 0
35.2145 -0.0638021 0
42.6072 -0.0723826 0
58.9766 23.632 0
55.8763 20.5867 0
60.0468 20.0981 0
51.3599 21.7647 0
64.934 19.4998 0
61.5699 26.7596 0
57.3995 27.2486 0
67.5456 22.8609 0
70.0543 25.8386 0
65.6556 26.1221 0
73.9501 25.6827 0
69.3328 19.2183 0
78.2013 19.2017 0
75.8473 22.6321 0
74.2977 19.1469 0
23.3297 19.0101 0
21.6336 22.4719 0
20.0366 18.936 0
22.7116 25.6195 0
27.8378 19.0597 0
29.5754 26.4902 0
25.8455 26.3659 0
28.6564 22.6703 0
23.6309 29.4382 0
31.5679 19.1818 0
33.4087 26.3071 0
30.5976 30.003 0
40.5769 27.6993 0
43.6807 25.5422 0
43.9309 28.947 0
44.12 21.8517 0
47.474 23.0996 0
46.7702 29.9147 0
37.3789 27.0581 0
36.1734 19.5564 0
40.1435 20.3068 0
36.3566 23.5438 0
26.6429 33.5903 0
24.4559 35.5814 0
24.5779 32.1769 0
22.5841 39.1468 0
28.8531 32.4331 0
28.7315 35.8385 0
28.7472 38.7599 0
51.8534 33.1378 0
54.2462 32.2786 0
53.2788 35.2436 0
56.4069 30.2741 0
49.6634 31.6058 0
50.9204 25.4554 0
53.8136 27.147 0
49.9277 28.4814 0
6.55787 37.3005 0
6.9863 39.2559 0
5.22712 38.858 0
9.62141 39.378 0
8.29092 40.9345 0
4.38548 39.9928 0
4.79899 36.9023 0
5.75732 35.8626 0
7.55155 36.2967 0
10.8423 36.1903 0
10.0025 37.4468 0
9.15651 36.442 0
11.3073 39.1247 0
8.39158 35.0391 0
11.1462 35.0146 0
11.9922 36.0185 0
11.6805 30.4391 0
10.1961 30.194 0
11.0231 29.6192 0
12.4276 26.8229 0
10.4015 28.771 0
10.8443 31.0207 0
89.804 30.1936 0
88.1108 30.5983 0
88.7685 29.7785 0
89.39 28.9303 0
86.9241 27.2523 0
89.156 31.0204 0
85.8766 33.2331 0
87.2381 33.1438 0
86.8018 34.622 0
87.4016 31.7922 0
88.3273 33.1792 0
88.1432 35.8647 0
86.7808 35.956 0
84.3802 33.0288 0
84.8182 31.5498 0
86.7764 39.6259 0
86.7596 41.67 0
85.042 40.3494 0
88.8216 42.9397 0
87.0872 43.6637 0
83.3023 40.9031 0
83.3189 38.8592 0
86.5902 37.753 0
88.3081 39.0723 0
79.4874 34.6817 0
78.6782 32.7331 0
80.8585 33.2668 0
76.6307 31.467 0
78.0026 30.0523 0
81.6861 31.3316 0
82.4951 33.2797 0
81.6239 37.3135 0
80.2199 36.4037 0
14.1264 37.0591 0
12.9231 37.936 0
12.8919 36.3181 0
12.5419 39.8665 0
13.1959 35.1426 0
15.3342 35.7759 0
15.3654 37.3938 0
12.8784 33.1367 0
12.6848 32.2312 0
13.7051 32.0703 0
11.6838 32.5622 0
12.5104 31.4974 0
14.5099 30.8313 0
14.7053 31.7374 0
13.0982 33.9103 0
12.0765 34.0693 0
16.8225 31.5858 0
18.1664 31.635 0
17.3886 33.0732 0
19.0485 29.4194 0
19.6155 30.9069 0
17.6531 34.6166 0
16.3088 34.5668 0
15.7777 31.7608 0
16.5548 30.3229 0
13.8001 29.7905 0
12.681 30.1044 0
12.9705 28.7307 0
13.5475 26.5079 0
14.8004 29.4569 0
16.0089 28.9778 0
17.0539 28.8024 0
18.5028 28.074 0
17.424 24.9273 0
86.301 29.0853 0
87.022 30.559 0
85.5918 30.2807 0
84.0959 30.0753 0
85.4928 26.9726 0
82.4774 29.3692 0
80.8408 29.3557 0
80.6918 25.0397 0
78.7939 28.0896 0
80.1753 38.5026 0
79.8416 40.3014 0
78.4375 39.3915 0
76.6403 39.6174 0
76.226 42.0058 0
76.9743 37.8183 0
15.6103 39.1828 0
15.8323 41.1299 0
14.3796 40.6242 0
17.53 41.5792 0
16.2996 43.0214 0
12.7641 41.8141 0
16.8177 37.8989 0
19.5475 38.6768 0
18.3994 40.0896 0
18.2112 38.2756 0
18.8666 41.9809 0
17.9661 36.4864 0
20.8754 35.5154 0
20.9717 38.0047 0
20.6906 41.9401 0
21.1601 39.8191 0
24.5527 38.0712 0
22.4878 36.6572 0
19.8214 43.4302 0
22.1148 41.2681 0
24.1534 41.2112 0
23.6842 43.3327 0
79.6579 42.6274 0
79.3481 44.7452 0
77.7939 43.3083 0
80.7361 46.5427 0
78.872 47.2242 0
75.9161 44.1238 0
81.3959 41.7379 0
90.3612 39.8654 0
92.792 40.6783 0
90.9251 41.7592 0
94.5565 38.9776 0
95.1205 40.8727 0
91.2525 43.7537 0
90.1752 37.9914 0
93.2533 36.4075 0
93.7147 37.8431 0
91.7669 37.349 0
95.2011 36.9023 0
89.7141 36.5574 0
92.2594 35.4039 0
94.2429 35.8626 0
89.5633 33.8604 0
91.1336 34.5512 0
89.7352 35.222 0
93.2131 34.8936 0
92.1171 34.0004 0
93.7897 44.9391 0
96.2842 43.4398 0
96.7181 45.8067 0
90.9602 33.1879 0
89.7492 32.4617 0
97.1177 48.5972 0
91.6864 46.1194 0
10.4476 33.2418 0
10.9263 34.2397 0
9.51742 34.1871 0
6.78694 34.8937 0
7.88294 34.0004 0
5.71011 43.2859 0
3.27604 45.0331 0
3.2216 42.5601 0
2.87637 47.8236 0
9.03964 33.1879 0
10.251 32.4616 0
8.34529 43.4063 0
66.0184 59.9466 0
65.161 61.2403 0
64.3551 59.9032 0
65.8979 62.189 0
60.1447 52.292 0
60.0866 51.7471 0
63.7373 58.8731 0
67.0614 58.6048 0
67.8672 59.9419 0
68.5419 62.0126 0
68.8708 64.1188 0
67.1532 63.3899 0
70.315 65.0844 0
60.0436 51.2008 0
60.0225 50.8227 0
69.5849 60.6709 0
77.0147 64.5138 0
77.2515 67.1369 0
74.8029 66.6509 0
79.7427 67.45 0
60.0087 50.4443 0
60.0033 50.1827 0
72.4681 65.7275 0
76.75 62.0189 0
79.1988 62.505 0
82.0172 64.166 0
84.8845 66.2736 0
82.3307 67.1074 0
87.2958 65.2731 0
94.1607 64.0342 0
92.1946 65.76 0
81.7528 61.6712 0
91.3171 59.1523 0
93.7353 60.7575 0
91.7426 62.4286 0
95.3236 58.6858 0
90.0202 67.2145 0
87.6745 68.3728 0
89.6723 64.0187 0
89.3031 57.948 0
91.2959 56.2769 0
93.7687 54.9537 0
96.7804 53.7461 0
96.3215 56.2738 0
97.1198 51.1581 0
85.1978 69.2152 0
82.6323 69.7274 0
91.7548 53.7497 0
6.15233 54.2954 0
3.48312 56.1645 0
3.33604 53.197 0
4.48103 58.5766 0
5.83934 64.0343 0
4.11528 62.0666 0
2.99674 50.609 0
8.89179 52.1731 0
9.03867 55.1398 0
8.52359 58.7831 0
8.29342 62.1687 0
6.06931 60.6483 0
10.3638 63.7588 0
2.66283 59.8909 0
1.50676 57.5441 0
11.263 56.6603 0
17.097 63.9539 0
17.0238 67.0171 0
14.8752 66.1519 0
19.6118 67.3597 0
0.667003 55.0666 0
0.157925 52.5006 0
12.4639 65.1514 0
17.096 61.4638 0
19.2448 62.329 0
29.3775 63.7725 0
31.6371 64.0956 0
30.2582 65.1731 0
32.8924 62.8946 0
35.0284 63.0944 0
33.8253 64.35 0
28.8141 66.1387 0
27.183 63.5613 0
28.5619 62.4838 0
34.1232 59.6516 0
35.6891 59.9595 0
34.9364 60.8892 0
36.3069 58.9294 0
32.5178 65.4964 0
31.1156 66.5248 0
34.1995 61.8378 0
32.7697 59.3473 0
33.5224 58.4176 0
29.6295 67.4276 0
37.1302 58.167 0
37.4828 57.4153 0
37.7718 56.637 0
35.7753 55.9831 0
27.3529 68.4981 0
83.5539 34.9636 0
85.2493 36.5085 0
83.3631 36.7609 0
91.8143 51.1059 0
91.8122 48.5458 0
94.2256 49.8658 0
89.2749 47.3598 0
89.3413 52.4293 0
15.0704 34.233 0
13.9974 34.2088 0
14.972 33.0001 0
8.36461 49.1169 0
5.88496 48.5434 0
8.24436 46.3325 0
10.8252 43.9808 0
11.2512 49.9619 0
15.2989 27.9369 0
14.7566 26.0279 0
83.2515 28.1 0
83.8737 26.2656 0
67.7132 57.1697 0
65.8643 57.1742 0
64.1888 57.0163 0
64.8406 55.5811 0
73.9853 61.8216 0
72.4128 63.3847 0
71.832 61.1784 0
71.1574 59.1078 0
76.1694 59.8128 0
86.92 59.2333 0
86.9477 62.0778 0
84.5433 60.4877 0
81.7249 58.8269 0
86.8987 56.3583 0
15.2956 60.1479 0
12.8481 61.6961 0
13.1953 58.7554 0
13.7107 55.1126 0
17.4435 58.5232 0
31.4878 60.2638 0
32.0634 61.6381 0
30.1808 61.3206 0
27.9862 61.1095 0
30.887 59.0298 0
35.3006 57.0333 0
35.6991 57.9595 0
34.4774 57.7957 0
33.1238 57.4914 0
34.5535 55.8194 0
78.0389 35.8704 0
76.242 36.0959 0
84.8016 49.5792 0
87.1457 48.3925 0
87.0567 50.9729 0
87.0197 45.9669 0
86.9974 53.6162 0
82.4864 50.5908 0
82.5751 48.0107 0
19.0461 34.9926 0
20.5618 33.6451 0
68.9976 57.0924 0
67.8005 55.6619 0
67.1496 54.7307 0
68.4339 54.6535 0
73.8618 56.0948 0
74.5987 57.7682 0
72.6677 57.9419 0
77.3637 57.9657 0
70.4205 57.4342 0
72.6629 54.7172 0
74.5941 54.5437 0
82.4466 53.2887 0
84.6141 54.9014 0
82.3481 56.0305 0
79.5574 57.2138 0
80.2203 51.7196 0
18.622 53.5183 0
17.8204 56.18 0
16.4444 54.5456 0
19.6209 57.4957 0
14.5121 52.451 0
19.2816 51.4088 0
20.6576 53.0429 0
24.5548 58.2377 0
24.4926 60.2688 0
22.9439 59.4725 0
26.2354 60.6533 0
24.6246 61.8882 0
21.0629 60.6713 0
21.125 58.6402 0
24.6244 56.4897 0
26.1731 57.2859 0
32.0383 56.8339 0
32.9933 56.212 0
33.468 55.1618 0
31.946 54.1517 0
84.9579 44.6961 0
83.0513 45.5316 0
83.1187 43.2289 0
71.082 54.8632 0
70.5078 55.9265 0
69.6591 54.5213 0
69.0081 53.5902 0
71.8142 53.3121 0
78.5465 53.2339 0
77.9867 55.1694 0
76.3527 53.9855 0
75.1538 52.6082 0
78.5862 50.536 0
23.2866 55.5119 0
21.5021 56.297 0
21.7825 54.3675 0
22.4422 52.2579 0
24.905 54.5602 0
78.4467 48.8495 0
77.0588 47.0516 0
75.886 46.1219 0
75.4608 47.7473 0
22.4155 45.3403 0
21.3179 47.3547 0
20.5477 45.4036 0
22.2514 49.1124 0
20.3837 49.1755 0
18.7236 45.4441 0
24.4543 45.2838 0
72.2787 51.9676 0
70.6977 52.1134 0
69.603 51.0036 0
71.5631 49.5272 0
75.4287 49.3733 0
76.7731 50.3635 0
75.5681 51.0599 0
73.8095 51.6178 0
74.2559 48.4434 0
25.4571 51.2473 0
25.0886 52.8062 0
23.9356 52.0236 0
26.4264 53.7839 0
22.8107 50.6991 0
25.4274 49.3865 0
26.5803 50.169 0
27.7074 54.6952 0
27.891 52.9411 0
29.5008 52.0414 0
30.5781 53.3007 0
23.7449 48.878 0
24.8682 47.7999 0
72.693 50.4192 0
73.0938 49.1776 0
27.6389 58.0204 0
29.3898 58.4765 0
27.8543 59.4901 0
30.6717 57.56 0
27.7086 56.2723 0
30.5399 54.7034 0
30.5411 56.2806 0
29.1732 55.4295 0
23.2509 63.4368 0
21.4329 65.0946 0
21.0636 63.1613 0
21.7989 67.6352 0
24.9937 63.8214 0
26.4793 67.0621 0
24.2901 67.3222 0
25.8093 65.11 0
24.9601 69.2744 0
22.4887 69.7444 0
14.9553 45.0546 0
13.0166 47.2223 0
12.6628 44.7387 0
13.5435 50.2775 0
16.653 45.5043 0
18.3479 49.6509 0
16.2775 49.711 0
17.3795 47.478 0
58.405 8.38268 0
60.011 10.2988 0
79.5507 20.3639 0
77.0579 20.5637 0
69.261 14.0816 0
67.609 15.9543 0
37.1789 13.4814 0
34.8323 12.6232 0
72.2326 44.689 0
70.4017 42.9868 0
36.6941 22.2176 0
37.2924 24.6435 0
46.0444 8.37131 0
45.1554 10.708 0
1.85914 10.4387 0
4.06304 9.25727 0
16.1441 4.01424 0
14.364 2.26374 0
37.7969 13.5533 0
37.7648 11.0539 0
72.2615 1.25283 0
69.7971 1.66651 0
65.3854 25.2129 0
65.8424 22.7567 0
17.0814 0.163837 0
19.0999 1.63387 0
30.7791 0.500435 0
29.0322 2.28987 0
20.144 29.1018 0
18.0191 27.7873 0
87.2326 22.9817 0
89.7086 23.341 0
80.4504 11.9455 0
79.0375 9.88447 0
53.499 14.5167 0
52.9726 16.9605 0
79.886 20.7721 0
77.3853 20.7255 0
95.4221 2.47398 0
96.8254 4.54214 0
40.402 38.5794 0
38.194 39.751 0
34.3566 27.2317 0
35.0185 29.6406 0
88.3942 30.6016 0
87.7684 28.188 0
42.4376 32.1034 0
44.3188 30.4579 0
26.0606 12.9777 0
26.8972 10.6227 0
40.5485 37.6544 0
42.7795 36.5276 0
65.9268 38.829 0
67.4535 40.8081 0
21.6491 36.7016 0
24.141 36.902 0
87.3003 18.074 0
88.9225 16.1762 0
31.2962 10.087 0
28.8619 10.6578 0
60.28 8.43932 0
61.5845 10.5723 0
62.4235 9.51038 0
60.968 7.47735 0
18.7617 7.02277 0
18.1811 9.4498 0
63.0486 43.987 0
62.3525 46.3874 0
84.3035 25.9554 0
83.6201 28.355 0
47.3519 44.4287 0
49.2158 42.763 0
30.7355 4.91058 0
33.1073 5.69742 0
37.2006 2.44132 0
36.9131 -0.0417234 0
39.531 0.688699 0
37.8585 2.54714 0
66.8686 34.681 0
64.6091 35.7477 0
25.2214 21.467 0
23.6483 23.4088 0
89.245 30.3279 0
86.982 29.2618 0
74.2953 10.1579 0
76.6721 9.3877 0
80.3559 12.8778 0
81.7589 14.9454 0
81.1044 17.0314 0
80.1952 19.355 0
78.4195 10.8229 0
79.7636 12.9293 0
67.6867 27.634 0
65.1898 27.5256 0
62.4439 25.0472 0
60.0131 24.4667 0
61.7341 24.8723 0
62.505 27.2499 0
69.5309 33.0299 0
67.0437 32.782 0
82.5815 12.5654 0
85.0215 13.1207 0
51.4598 18.3201 0
53.5416 19.7029 0
67.0018 16.132 0
65.1755 14.4241 0
20.0086 22.5212 0
20.465 20.0672 0
53.0668 24.2149 0
52.9585 21.7174 0
62.089 34.1072 0
64.0545 35.6515 0
67.9629 28.3972 0
69.9295 26.8569 0
27.3396 19.5024 0
25.4125 17.9136 0
43.3861 4.12934 0
43.9205 1.68729 0
90.2141 10.3232 0
88.418 8.58498 0
67.9759 36.9542 0
68.66 34.5516 0
9.53679 8.22847 0
11.9909 7.74419 0
49.9623 6.73012 0
52.3372 7.5109 0
81.1617 29.3354 0
83.1028 27.7629 0
43.1339 20.171 0
45.5288 20.8833 0
73.0379 25.6902 0
75.2616 24.5507 0
59.3185 18.7217 0
57.0714 19.8142 0
94.817 14.939 0
92.3982 14.3018 0
8.75039 19.5426 0
11.2089 19.0788 0
17.4415 22.8711 0
15.7858 21.0022 0
16.9309 36.6454 0
18.1334 34.4561 0
59.7868 42.1454 0
57.5926 43.342 0
84.6196 20.5128 0
84.6715 23.0071 0
9.90383 20.1642 0
7.80222 21.5204 0
16.8167 30.1904 0
15.1899 32.0853 0
46.6542 3.6039 0
48.1063 5.63895 0
57.7895 40.5581 0
55.7494 42.0017 0
67.531 37.247 0
69.6031 38.6457 0
68.3666 7.6847 0
70.2506 6.04438 0
24.7917 8.64707 0
27.2165 9.24965 0
16.1195 15.6023 0
15.2147 17.9292 0
96.9688 4.66114 0
94.4988 5.04893 0
25.209 34.0362 0
26.025 31.6751 0
16.809 15.8045 0
17.9307 18.0335 0
86.8921 15.7665 0
88.5948 13.9401 0
26.9628 36.6098 0
28.2413 38.7554 0
45.0532 37.2763 0
42.756 38.2611 0
25.9638 33.8871 0
28.4418 33.5578 0
70.5667 16.1227 0
72.538 17.6612 0
49.8254 47.8831 0
50.9705 45.6609 0
82.7746 18.4733 0
81.095 16.6226 0
12.4195 5.62823 0
9.99541 5.01706 0
18.3019 2.68003 0
20.5316 1.54676 0
98.8874 4.28214 0
97.6893 6.47352 0
80.3106 37.6294 0
80.9078 35.2058 0
48.5372 3.80031 0
48.445 1.30229 0
46.0851 5.46516 0
43.9285 6.73013 0
61.1175 38.263 0
59.0282 39.634 0
81.209 11.1937 0
81.7906 8.76864 0
79.3491 30.6402 0
77.0208 31.5471 0
52.3973 8.32253 0
50.9319 6.29711 0
25.8733 30.1649 0
23.7386 28.867 0
94.5559 17.5135 0
96.8333 16.4839 0
29.5498 32.31 0
31.8593 33.2637 0
65.8258 4.56712 0
65.8102 7.06682 0
53.255 2.10282 0
51.4508 3.83365 0
14.579 9.11876 0
15.1093 6.68038 0
7.2242 18.9186 0
5.03226 17.7187 0
61.2225 40.5484 0
59.9019 42.6702 0
74.2187 7.41118 0
73.8025 4.94699 0
23.5529 30.4842 0
23.7939 27.9987 0
78.8093 6.98185 0
76.6515 5.71491 0
79.051 11.3961 0
81.1649 12.7335 0
7.64306 2.54271 0
5.14372 2.61345 0
76.4673 16.1047 0
74.4851 14.5793 0
47.9009 9.53879 0
49.6882 11.2864 0
80.0428 2.05946 0
82.4998 1.59805 0
29.1505 30.1352 0
27.1951 28.5807 0
70.9947 16.5278 0
71.5456 14.0925 0
4.53589 13.6117 0
6.49265 12.0552 0
40.5716 0.388789 0
39.529 2.66085 0
60.4198 12.5632 0
59.8501 14.9968 0
41.2116 3.73251 0
39.1723 5.17922 0
33.6318 29.6468 0
36.1238 29.8333 0
33.1727 21.1455 0
32.9549 18.6566 0
79.613 15.6723 0
80.1698 18.1057 0
72.6822 34.9094 0
70.5477 33.6081 0
56.7317 8.46188 0
54.3229 7.79342 0
44.5345 9.09115 0
43.202 11.2066 0
82.5785 16.6307 0
83.6865 14.395 0
11.5888 0.313686 0
10.6989 2.64731 0
78.0318 16.2612 0
80.0629 17.7202 0
59.4232 3.19194 0
60.7508 5.31042 0
72.2739 1.38059 0
72.1938 3.87868 0
66.8047 2.84153 0
68.0785 0.688809 0
13.3373 3.78451 0
15.1546 2.06886 0
71.9946 26.7211 0
74.4521 27.1794 0
16.8348 17.6002 0
15.4234 19.6615 0
72.228 38.5213 0
72.1563 36.0245 0
43.4719 20.9577 0
41.2066 22.0135 0
57.2686 19.4274 0
57.5351 21.9129 0
64.7018 28.9726 0
67.1861 28.7019 0
24.6308 32.0733 0
27.0371 31.3958 0
50.1169 28.9665 0
49.1071 31.2529 0
59.8183 37.3681 0
58.5533 35.2122 0
22.4205 29.2377 0
24.8364 28.5955 0
39.6873 36.0836 0
37.2358 36.5701 0
5.9175 10.0927 0
3.89017 11.5563 0
54.8085 20.9615 0
56.8433 22.413 0
68.5336 19.8027 0
68.8411 17.3238 0
42.0099 42.8704 0
42.7764 45.2496 0
19.0634 24.6996 0
16.9135 25.975 0
69.2612 4.29149 0
66.9121 3.4344 0
18.7251 12.9112 0
19.4282 10.5162 0
97.8416 0.549738 0
97.0209 2.90757 0
21.3141 0.620593 0
21.7794 3.0674 0
13.4484 6.00284 0
14.584 8.22481 0
94.8093 5.8214 0
95.3424 3.38251 0
58.679 11.7765 0
59.4819 14.1442 0
26.7218 40.1292 0
25.2284 42.1334 0
62.4429 18.9085 0
64.5507 17.5675 0
9.53464 7.77383 0
11.9464 7.11085 0
44.2746 18.2544 0
41.8856 18.9883 0
89.0145 10.8601 0
91.4752 10.4136 0
65.5026 41.7899 0
63.078 41.1812 0
51.2719 34.5691 0
53.6848 33.9197 0
12.7562 8.61514 0
14.7435 10.1287 0
75.0733 18.5598 0
72.5794 18.3753 0
69.1899 26.5807 0
69.6439 29.0375 0
19.5694 11.8822 0
21.8254 12.9573 0
36.884 40.2107 0
34.4758 39.5418 0
29.2916 28.4387 0
30.9093 30.3418 0
12.3778 19.6687 0
13.5798 17.4791 0
42.0324 43.3151 0
39.6388 44.0358 0
34.2197 5.2875 0
33.7216 7.73754 0
94.948 17.1058 0
93.8604 14.8563 0
53.781 26.4379 0
54.3612 28.8693 0
68.3089 36.4679 0
67.5316 38.8421 0
71.2621 37.1864 0
69.3185 38.7561 0
30.4499 15.6812 0
32.6063 16.9418 0
62.7559 8.20689 0
65.2409 8.47788 0
52.3967 17.4834 0
51.1267 19.6363 0
68.8447 3.75986 0
68.9149 6.25883 0
24.0017 7.82184 0
26.0361 9.26759 0
31.7573 14.7925 0
33.4733 16.6073 0
72.4556 6.11321 0
74.7293 5.08549 0
47.2204 15.3991 0
45.6768 17.3653 0
36.6566 41.9932 0
38.6881 40.5366 0
22.8047 10.5214 0
24.4463 8.63474 0
22.9517 37.9136 0
25.3316 37.1467 0
79.5709 20.6058 0
81.8225 21.6942 0
80.4536 16.2082 0
78.1793 15.166 0
68.1981 34.3692 0
68.4424 36.8557 0
32.7584 27.1064 0
34.9896 28.2306 0
49.0972 3.75207 0
47.4577 5.63952 0
34.1732 40.7857 0
32.8138 42.8832 0
47.678 12.7344 0
48.1989 15.1795 0
50.2589 18.9517 0
51.6328 16.8635 0
33.8083 30.7854 0
34.4939 28.3823 0
2.36973 13.8453 0
4.85423 14.1276 0
40.0785 40.3894 0
40.8246 42.7748 0
10.1303 16.2154 0
9.51156 18.6343 0
32.9149 16.2324 0
31.87 18.5033 0
43.2623 1.10121 0
45.6788 0.45618 0
37.1125 36.9912 0
39.3551 35.8872 0
81.2589 10.1522 0
81.752 7.70783 0
30.4511 3.7599 0
28.2961 5.02925 0
49.4069 1.50984 0
47.6105 3.24891 0
60.7846 31.4023 0
62.5605 33.1612 0
26.1576 37.4082 0
24.4799 35.558 0
33.9315 3.33649 0
36.4197 3.57756 0
46.8634 29.2199 0
45.8396 31.5001 0
19.4619 36.3299 0
21.189 38.1336 0
56.1274 28.4157 0
58.6259 28.4499 0
92.8145 9.49182 0
95.2306 10.1385 0
22.056 29.167 0
24.528 29.5363 0
48.277 17.8554 0
50.7291 18.3361 0
28.7848 21.8054 0
27.7324 19.5411 0
88.6606 18.0974 0
91.0146 18.9443 0
85.3205 15.5877 0
82.8229 15.7331 0
59.5473 45.3589 0
60.8286 47.5055 0
89.5234 2.53206 0
89.7297 5.01977 0
95.4468 9.82093 0
93.3541 8.45231 0
64.469 41.6073 0
62.9809 43.615 0
56.0256 26.2058 0
58.3487 25.2859 0
71.0122 1.99485 0
71.0267 4.49455 0
51.4199 11.9586 0
50.5042 9.63234 0
58.3428 27.9815 0
57.6678 25.5748 0
9.33733 7.87769 0
7.79108 5.91698 0
51.6915 13.5674 0
49.2099 13.272 0
49.7134 24.5027 0
50.1428 26.9652 0
72.6256 28.5269 0
70.2223 27.8388 0
81.3106 36.494 0
78.9964 37.4373 0
80.7779 18.3753 0
81.4335 20.7839 0
63.049 6.44373 0
60.7609 5.43612 0
49.6091 11.9352 0
47.1158 11.7643 0
44.4683 28.6402 0
42.012 29.0994 0
88.6286 7.84188 0
88.0993 10.2803 0
72.3136 6.47138 0
71.0255 8.61002 0
87.6892 13.9699 0
88.6359 16.2806 0
36.5542 41.0278 0
38.2771 42.8381 0
62.5507 3.74098 0
63.7216 1.53234 0
39.9396 15.236 0
40.0867 12.7405 0
19.3798 6.483 0
21.5216 5.18976 0
36.3592 46.0019 0
38.7238 46.8134 0
34.5584 31.4752 0
32.3249 32.5974 0
58.9234 19.6865 0
60.7166 21.4281 0
78.2669 16.289 0
75.8421 15.673 0
15.8364 29.0595 0
17.2005 26.9685 0
80.5522 1.67642 0
78.1505 2.36511 0
37.6367 41.8308 0
35.1542 42.124 0
84.0847 21.4928 0
84.5793 23.9388 0
86.5595 7.35614 0
86.2168 4.88445 0
44.7644 6.1599 0
46.5616 7.8975 0
84.1684 19.8349 0
84.0391 22.3264 0
71.9783 17.6758 0
74.4613 17.3851 0
77.1403 25.1224 0
76.5278 22.7017 0
97.138 15.3132 0
94.6744 14.8825 0
38.3288 23.7446 0
40.4152 22.3681 0
40.9249 1.87496 0
39.8578 4.13574 0
60.1862 22.6422 0
57.8508 21.7519 0
23.1339 0.992113 0
24.5978 3.01001 0
71.9297 32.3525 0
69.4634 32.7558 0
44.2007 38.3467 0
42.2541 39.9147 0
34.143 4.48988 0
35.5921 6.52597 0
19.9434 15.6615 0
21.6902 17.4456 0
1.50329 8.37854 0
3.19294 10.2191 0
85.6248 25.0971 0
87.7413 23.7692 0
82.6904 14.9417 0
80.2634 14.3333 0
60.7603 3.38096 0
60.1654 5.80886 0
17.274 24.3901 0
15.7863 22.3853 0
51.8067 39.031 0
50.594 36.8452 0
59.7318 46.9967 0
62.0352 46.0254 0
81.7052 19.2969 0
82.0031 21.7745 0
60.0685 15.2361 0
57.6569 14.5794 0
21.578 24.594 0
21.4678 27.0878 0
50.5588 36.8117 0
51.5033 34.4975 0
68.8506 24.258 0
66.7853 22.8495 0
85.4352 32.1731 0
83.0867 33.0249 0
10.0312 12.7624 0
7.969 14.1769 0
90.671 3.19557 0
88.5754 1.83234 0
85.5532 8.49685 0
87.7089 7.23301 0
32.9531 40.6035 0
33.1206 43.0964 0
16.5744 0.848561 0
18.9358 1.66636 0
80.4419 27.6663 0
82.3822 26.0926 0
21.4055 11.1261 0
19.7266 9.27945 0
93.5201 17.1564 0
91.2229 16.1665 0
19.3878 35.8187 0
19.2407 33.3268 0
17.9638 35.4488 0
20.2132 34.3575 0
76.6379 12.1786 0
75.0719 14.1217 0
20.8948 4.77517 0
18.5527 3.9046 0
26.3076 33.9545 0
24.1506 32.6942 0
55.3271 7.19005 0
57.4747 5.91074 0
69.341 3.94755 0
70.4295 6.19898 0
22.3996 17.1501 0
21.708 14.7529 0
89.486 6.17367 0
86.9851 6.15964 0
60.1545 4.37007 0
57.6662 4.12445 0
86.6746 11.3905 0
84.2706 10.6974 0
80.9408 22.6582 0
82.1127 20.4547 0
69.7962 32.618 0
68.9971 30.2505 0
42.453 49.0804 0
40.5286 47.4847 0
30.6325 29.5281 0
31.5585 31.8479 0
19.924 37.6581 0
20.2276 35.1798 0
64.2197 5.74556 0
62.4888 7.54819 0
91.4315 1.97977 0
90.9703 4.4329 0
85.755 10.1756 0
87.2338 12.1894 0
16.1124 1.28247 0
14.0749 2.73037 0
71.9605 36.7635 0
74.3851 36.1569 0
14.8964 16.3303 0
17.3201 16.9466 0
85.8828 30.9998 0
87.569 32.8408 0
8.11703 22.1206 0
10.6152 21.9952 0
49.9333 35.7146 0
52.4253 35.528 0
9.11258 20.6068 0
10.835 18.7948 0
62.5426 32.0738 0
60.2735 33.1199 0
37.5393 6.91528 0
39.0301 4.90818 0
9.77387 9.23245 0
11.9503 8.00085 0
60.1565 26.096 0
57.6592 26.1808 0
32.8312 17.2954 0
33.7772 19.6072 0
92.6102 11.5088 0
92.9395 13.9837 0
50.0439 4.52085 0
52.1267 5.90391 0
21.7596 11.906 0
23.2229 13.9272 0
16.4469 4.93667 0
18.7617 3.99008 0
38.9388 33.8894 0
41.0753 32.5923 0
2.05701 5.00008 0
2.96072 2.67116 0
17.422 17.1871 0
16.3934 19.4624 0
81.4713 37.7007 0
82.4968 35.4252 0
72.9189 12.6345 0
74.7515 10.9396 0
66.3221 41.5699 0
63.93 42.2947 0
63.7561 26.5558 0
65.743 25.0416 0
49.8633 6.17165 0
48.3248 8.14217 0
60.1847 40.8375 0
62.4066 41.9827 0
23.3816 10.9471 0
24.483 13.1857 0
60.0947 31.3414 0
61.0409 33.6548 0
85.062 22.4975 0
87.5625 22.424 0
74.5915 19.8959 0
72.1649 19.2914 0
56.0521 12.484 0
58.4954 13.0103 0
61.679 4.33404 0
60.63 2.06483 0
60.7169 47.6051 0
58.2188 47.7015 0
50.6468 16.9074 0
50.9633 19.3873 0
26.1282 33.3163 0
27.1172 31.0218 0
43.6906 22.6912 0
41.6369 21.2681 0
70.2599 18.6371 0
72.7332 19.0038 0
72.5357 1.60072 0
72.7212 4.09361 0
33.4031 17.1463 0
35.0388 19.0341 0
55.2413 3.60923 0
57.6844 4.1417 0
62.7448 27.0681 0
60.246 27.0923 0
59.5713 35.5938 0
59.7174 33.0988 0
41.7315 31.4304 0
39.3487 32.1842 0
65.7192 33.9305 0
63.6963 32.4622 0
41.2716 36.253 0
39.9685 38.3861 0
73.2498 29.835 0
72.8168 32.2945 0
50.7634 40.2516 0
51.857 42.4995 0
59.8227 10.1372 0
58.3228 8.1369 0
82.568 20.0532 0
84.8657 19.0684 0
66.2427 0.788624 0
68.733 0.54988 0
72.7921 32.7395 0
74.6691 31.0915 0
66.5358 33.6228 0
65.2578 35.7694 0
67.8034 46.3478 0
68.5292 43.9571 0
63.7375 23.0945 0
64.8355 20.8505 0
80.4352 11.3236 0
82.0427 13.2374 0
30.9815 20.5263 0
30.0327 18.2163 0
25.2933 20.7556 0
26.8649 22.6961 0
53.9899 28.7807 0
56.4754 28.5241 0
85.7428 28.3889 0
85.2122 25.9515 0
37.912 1.88675 0
40.3911 2.21603 0
42.0946 29.6232 0
43.08 27.3261 0
19.9433 35.4674 0
22.4302 35.7208 0
84.4644 11.566 0
86.9655 11.5065 0
30.5357 1.34066 0
33.0027 0.930203 0
61.9966 42.5507 0
59.8322 41.3 0
40.02 13.5321 0
38.0244 15.0381 0
71.9294 29.2388 0
70.0832 27.5538 0
60.3705 30.3682 0
59.6088 27.9877 0
6.61054 10.688 0
5.74071 13.0296 0
33.6172 6.90752 0
32.0033 5.00016 0
57.299 24.8364 0
59.7355 24.2829 0
61.7581 28.1276 0
59.2714 28.3717 0
12.9894 2.04136 0
15.1455 3.30305 0
72.4145 5.03079 0
69.9263 4.79234 0
30.5117 6.3052 0
28.1142 7.0152 0
80.7922 3.75886 0
78.2936 3.87326 0
54.3871 36.06 0
52.3751 37.5424 0
30.5795 14.3622 0
33.0016 14.976 0
80.5839 9.23605 0
82.867 8.21885 0
11.9814 31.6632 0
12.9741 29.3775 0
46.3791 5.44773 0
48.8283 5.95061 0
2.74634 5.3333 0
5.24528 5.23474 0
10.2242 9.58415 0
11.2249 11.8704 0
4.3485 17.8964 0
6.59803 16.8033 0
29.3778 8.54501 0
26.8789 8.4985 0
43.6955 2.12174 0
46.0018 3.08808 0
77.3497 2.83667 0
75.5804 4.59241 0
55.2178 26.8636 0
57.468 27.9507 0
24.7937 19.4141 0
26.9808 18.2014 0
12.7696 30.9871 0
14.0239 28.8306 0
13.7543 17.9156 0
15.6096 19.5876 0
31.5315 36.1553 0
33.6366 37.5013 0
85.1165 19.0111 0
85.4429 16.5378 0
54.9624 42.4844 0
56.1389 40.2791 0
56.8638 43.1395 0
54.3747 42.9117 0
69.3636 41.2156 0
68.4394 43.5366 0
81.6129 5.24615 0
81.1851 7.70186 0
67.3239 28.8546 0
69.417 27.4908 0
23.3578 28.3534 0
20.8636 28.5205 0
76.5872 33.2013 0
74.6939 31.5696 0
40.4068 1.91852 0
41.9589 -0.041517 0
21.4815 3.51145 0
19.2784 2.33774 0
32.7015 28.1255 0
34.5082 29.8507 0
39.7654 2.36479 0
37.9761 4.11116 0
68.5873 6.34306 0
66.5256 7.75416 0
7.19019 2.11446 0
8.72637 0.142961 0
59.0863 33.5319 0
57.1285 31.9781 0
22.6388 35.5123 0
24.1733 37.4825 0
76.7232 25.0238 0
76.1695 22.5889 0
8.88095 16.7647 0
9.72049 19.115 0
27.0103 16.7531 0
28.4358 14.6994 0
31.9309 37.0848 0
32.7594 34.7271 0
22.1878 35.0269 0
19.9471 33.9219 0
73.3388 37.2012 0
72.0149 35.0816 0
15.0361 2.09529 0
16.974 0.517579 0
52.2302 12.2729 0
52.0969 9.77631 0
33.8196 8.84413 0
32.685 6.61804 0
24.9667 41.9062 0
27.3558 41.1678 0
57.5812 12.6395 0
59.8032 11.4961 0
84.2047 35.2676 0
82.4037 33.535 0
40.3974 47.257 0
38.884 45.2675 0
18.0725 12.2133 0
20.5276 12.6906 0
92.6935 8.19129 0
94.3765 6.3458 0
81.3839 33.1034 0
80.6701 30.7106 0
38.8223 14.9466 0
38.6853 17.4425 0
28.5726 11.6487 0
29.9568 13.7264 0
51.9119 39.642 0
54.4023 39.8512 0
86.5698 28.1585 0
85.8996 25.7555 0
22.1596 2.36522 0
23.5606 4.42515 0
49.3551 3.30221 0
47.2366 1.9739 0
18.8491 19.7695 0
21.329 20.0932 0
2.11902 9.04436 0
4.30074 7.82259 0
20.2603 3.62051 0
18.8565 5.68665 0
62.9443 44.5355 0
65.1631 45.6875 0
34.4762 21.2983 0
36.5647 19.9243 0
94.5918 1.03576 0
93.9477 3.4476 0
49.7443 42.5154 0
49.3581 40.0457 0
58.6807 10.9152 0
56.3282 10.0701 0
36.6041 10.8215 0
34.3175 11.8325 0
56.8272 43.9761 0
56.752 46.4748 0
2.45359 12.6351 0
1.79271 10.2262 0
82.4211 4.98813 0
83.3143 2.65939 0
37.6737 47.4234 0
35.4153 46.3515 0
65.9824 39.6488 0
68.3108 40.5591 0
24.6374 34.1859 0
27.1142 34.5216 0
68.4723 39.5596 0
70.8747 38.8702 0
13.7913 30.7186 0
12.1783 28.8144 0
58.8647 44.5438 0
61.2992 45.1111 0
24.3214 5.68341 0
24.1886 8.17652 0
81.1355 20.9808 0
78.757 21.7514 0
29.8644 39.8512 0
29.505 42.3236 0
23.6985 17.1192 0
21.4429 16.0435 0
2.75398 8.24315 0
4.97751 7.09907 0
48.025 30.9702 0
49.9852 29.42 0
87.0619 23.2125 0
84.6816 23.9779 0
34.657 11.0242 0
32.3206 11.9147 0
47.5557 26.146 0
46.0976 24.1163 0
67.4441 24.4035 0
65.4518 22.8935 0
58.2205 30.2683 0
56.8758 32.3745 0
32.3114 35.0116 0
34.6046 36.0043 0
57.4167 36.4748 0
56.0557 34.3783 0
26.6877 3.43715 0
28.804 2.10438 0
11.1664 26.7152 0
12.7044 24.7455 0
63.5223 33.217 0
61.9242 35.1376 0
28.4795 11.484 0
26.0318 11.9973 0
44.5034 45.9137 0
42.0046 45.9807 0
30.8297 14.5633 0
31.9578 16.7914 0
13.2099 1.833 0
15.3333 0.513723 0
76.1399 15.082 0
73.8839 16.1553 0
12.6836 6.54941 0
13.3303 8.95911 0
35.4842 5.04937 0
36.3436 7.39631 0
53.9994 17.8139 0
51.54 18.2555 0
31.3092 8.58791 0
29.006 7.6214 0
24.2836 6.6929 0
21.7908 6.90117 0
48.613 3.75604 0
51.0486 4.32239 0
32.1504 13.8904 0
32.087 11.3925 0
1.59288 3.46745 0
4.07229 3.7906 0
62.8175 44.4259 0
60.4998 43.4892 0
42.6318 24.5853 0
40.1385 24.421 0
48.3444 30.9049 0
50.5238 32.1274 0
58.8844 35.4503 0
56.3949 35.6669 0
50.0158 46.7303 0
52.0711 45.3074 0
26.9477 5.77326 0
26.3143 8.19168 0
43.5099 36.1912 0
42.0898 34.1349 0
52.8795 28.0988 0
50.9819 29.7248 0
60.9578 40.1101 0
62.0928 42.3372 0
46.9312 23.7998 0
45.6643 21.6454 0
19.2561 2.96883 0
18.5413 0.580764 0
48.2284 42.0503 0
49.1908 39.7433 0
47.8175 39.6394 0
45.3646 39.1609 0
73.2278 11.6198 0
72.6964 9.17809 0
52.5273 17.9785 0
50.7831 16.1881 0
25.0056 41.9573 0
27.4891 41.6652 0
51.9715 24.2383 0
50.5577 26.2994 0
25.8269 30.4538 0
28.2542 31.0476 0
5.37548 8.02575 0
2.89494 7.71037 0
20.8653 35.3829 0
18.7486 36.7136 0
31.8797 19.3004 0
34.1545 20.3333 0
30.089 19.382 0
27.7399 18.5303 0
78.7384 17.6024 0
79.4772 19.9874 0
41.9091 32.2878 0
42.4554 29.8488 0
44.7886 12.6872 0
45.2493 10.2299 0
44.193 20.2252 0
46.0426 18.5439 0
36.1353 2.57291 0
35.7821 5.04751 0
94.4665 4.87284 0
95.2749 7.23641 0
41.9044 21.9338 0
40.3529 23.8938 0
57.7859 26.3079 0
55.7445 24.866 0
62.7076 27.0989 0
65.1171 27.7631 0
8.56232 15.6876 0
8.48008 18.1825 0
70.8393 31.0776 0
68.395 30.5548 0
45.8793 35.8318 0
46.1252 33.3444 0
87.0711 2.75437 0
88.7591 4.5971 0
22.5045 38.6431 0
22.8772 41.1121 0
66.2464 43.3065 0
64.2158 41.8484 0
77.3516 12.039 0
77.8885 14.4771 0
50.8449 47.1508 0
49.1599 48.9974 0
14.9027 13.4407 0
15.4098 10.9973 0
75.6275 19.0535 0
75.4194 21.5411 0
59.0506 45.7393 0
61.1014 47.1689 0
83.7388 9.4899 0
86.1837 8.96389 0
6.96999 1.80575 0
4.47144 1.89915 0
80.7496 19.0566 0
82.5497 17.3257 0
13.6047 0.19994 0
11.1066 0.105727 0
14.8884 32.2777 0
17.2672 31.5113 0
14.2079 12.896 0
15.5748 14.9841 0
66.7019 1.04716 0
64.2389 1.48223 0
72.2735 24.5705 0
71.3171 26.8773 0
52.0208 31.56 0
50.0646 30.0048 0
29.3039 29.2914 0
28.0361 27.1397 0
76.0759 25.4672 0
76.3095 22.9818 0
88.1015 17.2967 0
90.3415 18.4102 0
56.5911 9.17323 0
54.3017 10.1762 0
30.5967 42.4485 0
32.0843 44.4559 0
49.5606 38.3807 0
50.1526 35.9522 0
33.5634 30.7576 0
35.8 31.8711 0
51.2965 20.3075 0
50.1623 22.5351 0
48.0056 20.3131 0
46.7593 18.1465 0
56.3138 36.8654 0
54.2205 38.2304 0
27.9073 28.1274 0
28.4885 30.5562 0
32.56 34.5993 0
33.1949 37.0155 0
91.7314 14.7496 0
93.5647 16.4495 0
6.69969 6.1799 0
6.37654 8.65599 0
30.5805 35.9197 0
31.2481 33.5118 0
65.2137 35.024 0
64.277 37.3403 0
70.881 2.30416 0
72.4673 0.374752 0
72.2207 25.1706 0
72.6988 22.7197 0
12.9644 14.6736 0
14.9604 16.1761 0
48.362 3.57186 0
50.7923 4.16035 0
17.3713 5.88741 0
17.5671 8.37315 0
6.49009 18.6258 0
4.00431 18.3563 0
31.8249 34.0267 0
32.0089 36.5182 0
59.3312 32.9984 0
59.0335 35.4798 0
80.5982 24.5456 0
80.9843 27.0114 0
96.029 18.4328 0
96.4401 15.9693 0
81.6444 13.2162 0
84.1088 12.7883 0
31.4008 34.5549 0
30.3202 32.3029 0
95.0436 8.66868 0
94.1728 11.0087 0
92.668 17.9434 0
94.8836 16.7873 0
25.3109 38.039 0
25.0176 35.559 0
11.1041 27.2707 0
12.9076 28.9956 0
25.1908 17.1889 0
22.7311 17.6437 0
33.0365 22.3643 0
35.5284 22.5529 0
75.1116 23.1611 0
72.612 23.2076 0
50.0608 27.7168 0
49.6796 30.1871 0
20.9767 18.7638 0
20.4623 21.2064 0
93.0603 7.24314 0
92.2369 9.59978 0
49.1248 48.2496 0
47.6815 46.2085 0
60.3053 39.1943 0
62.1856 37.5484 0
68.5133 12.716 0
66.4519 11.3003 0
74.7655 11.5674 0
72.5981 12.808 0
59.615 42.0317 0
61.2493 43.9233 0
83.0208 12.0831 0
83.6991 9.68307 0
12.3204 9.79472 0
11.2389 7.54552 0
46.2352 43.1692 0
44.2307 41.6763 0
78.0975 4.23594 0
75.6361 4.66965 0
79.2604 34.746 0
79.7244 32.2932 0
50.3188 26.4355 0
47.854 26.0263 0
15.8976 14.9936 0
18.3698 14.6079 0
24.6605 1.88424 0
27.1477 2.10347 0
21.7806 5.97462 0
23.7369 4.41485 0
38.4305 26.8887 0
35.9854 27.4059 0
39.5932 38.0866 0
37.0982 37.9418 0
20.4267 23.3566 0
19.0321 21.2859 0
55.8231 8.79992 0
53.5453 9.82904 0
30.7878 38.8668 0
33.2352 38.3568 0
56.7848 41.9166 0
59.2562 41.5444 0
59.0619 12.5199 0
61.5123 12.03 0
84.7854 1.9553 0
82.4274 2.78358 0
54.6899 35.8448 0
52.9194 37.6086 0
27.8961 39.5013 0
30.3907 39.3364 0
56.918 32.7269 0
56.6303 30.2441 0
77.6314 21.3658 0
75.7518 23.0107 0
36.6718 36.6853 0
36.0368 39.1025 0
70.6835 32.5161 0
68.2156 32.9097 0
48.9419 32.5549 0
50.2825 30.4455 0
64.3927 19.4975 0
65.4012 21.7847 0
36.908 30.6917 0
39.4065 30.7378 0
52.0992 3.16649 0
54.2077 4.5104 0
16.0951 27.045 0
13.8916 25.8657 0
28.8165 37.7998 0
26.3478 38.1948 0
66.3224 34.9414 0
64.7335 33.0119 0
86.8395 13.8169 0
85.7553 16.0642 0
79.9137 37.5946 0
77.6117 38.5676 0
1.09759 9.66741 0
2.78335 11.5116 0
22.3079 7.0739 0
19.8218 6.80368 0
27.9962 24.2904 0
25.5218 23.9358 0
48.7823 5.60107 0
46.4126 4.80366 0
39.4109 8.50038 0
37.1175 7.50724 0
13.1981 16.241 0
11.7688 14.1945 0
35.1886 38.0062 0
33.3748 39.7262 0
76.1402 8.07018 0
78.205 6.66645 0
38.8867 43.9992 0
38.071 41.6367 0
46.1925 9.63507 0
48.2302 8.18686 0
39.8904 31.1045 0
37.4664 31.7128 0
37.311 29.3432 0
36.6445 31.7519 0
36.7002 27.0745 0
34.2242 27.415 0
30.6713 4.5916 0
33.0177 5.45128 0
71.8555 32.0689 0
74.033 30.844 0
24.1539 12.466 0
26.5441 11.7276 0
33.2137 43.8233 0
35.4998 42.8115 0
26.0654 22.5898 0
24.0436 24.0601 0
5.64076 2.56917 0
6.55718 0.244993 0
94.3752 5.90672 0
96.7826 6.58466 0
53.4129 19.0888 0
51.7053 17.2634 0
53.8053 45.5878 0
52.3228 47.6004 0
94.7196 5.24897 0
93.321 3.17793 0
30.2133 21.2784 0
27.7664 20.7696 0
57.4957 2.29469 0
58.1108 4.71772 0
94.5964 11.5087 0
92.9564 9.62252 0
43.7254 7.36578 0
46.1879 6.93471 0
49.3925 42.5252 0
47.4335 44.0778 0
42.4137 27.4614 0
44.8275 26.8146 0
24.2283 22.7385 0
21.7566 22.362 0
70.0097 34.31 0
70.1796 31.8179 0
18.3772 13.5732 0
20.5936 14.7274 0
9.37952 28.8364 0
11.6662 27.8207 0
62.0455 24.6589 0
60.813 22.4842 0
81.7543 25.2691 0
79.2545 25.2042 0
22.8081 29.4088 0
20.6879 30.7323 0
14.2046 29.7495 0
14.3155 32.2414 0
12.636 13.0603 0
13.6616 15.335 0
67.388 22.9371 0
67.8342 20.4794 0
79.3457 21.9547 0
81.7555 22.6251 0
15.2545 21.7829 0
14.1819 24.0376 0
21.2439 13.6529 0
18.8966 12.7928 0
44.9047 45.1769 0
42.4076 45.0627 0
62.2449 38.2327 0
60.8276 36.1738 0
59.6113 47.4347 0
61.9435 46.5343 0
39.9645 37.9589 0
42.4632 37.9097 0
55.7351 30.4514 0
53.3934 29.5789 0
67.6322 40.9374 0
65.145 41.1869 0
71.0781 5.7816 0
73.5764 5.80491 0
80.9115 3.30715 0
80.8423 0.815159 0
59.6902 7.25677 0
57.9508 9.05163 0
32.3534 19.6829 0
31.5489 22.0491 0
43.9431 32.6458 0
44.0557 35.1426 0
97.7927 14.1628 0
97.9422 11.6693 0
74.1327 18.6894 0
72.181 17.1261 0
77.0988 31.7073 0
76.3842 34.0997 0
55.9602 48.8318 0
56.3214 46.3582 0
40.1905 1.38929 0
37.774 2.03317 0
72.0638 20.2019 0
74.5384 19.8475 0
41.8322 44.884 0
44.3125 45.1944 0
87.0865 2.76163 0
86.5122 5.18971 0
19.3536 22.0808 0
18.9152 19.6246 0
17.5075 36.4694 0
16.265 34.3049 0
26.058 38.2184 0
24.1787 39.867 0
61.6712 6.4935 0
59.6965 4.95999 0
39.7168 30.2809 0
40.0339 32.7597 0
63.2611 5.71082 0
60.7914 6.09734 0
60.5829 6.84768 0
61.428 4.49522 0
79.3349 37.1165 0
76.898 37.6731 0
46.8204 23.5957 0
47.7792 21.2871 0
81.9634 12.4209 0
79.4888 12.7837 0
17.6902 13.0524 0
18.5032 15.4109 0
48.2076 40.8269 0
46.3935 42.5467 0
65.3929 19.9821 0
64.1624 17.806 0
42.9203 40.2381 0
41.7443 42.444 0
54.512 17.1679 0
53.4393 19.4256 0
22.8892 29.5552 0
25.2808 28.8276 0
23.2238 15.0435 0
20.7871 14.4827 0
92.3171 7.82348 0
90.7999 9.80677 0
32.1211 32.2732 0
33.5864 30.2484 0
68.7454 28.7482 0
68.9795 31.2355 0
97.6666 2.42234 0
96.1746 4.42425 0
67.3788 15.1861 0
69.8413 14.7613 0
78.3769 23.4953 0
78.8328 21.0416 0
37.5572 16.224 0
35.1758 15.4677 0
68.9196 9.48604 0
69.4687 7.04851 0
32.9223 20.4296 0
34.2701 18.3242 0
33.256 31.8416 0
34.9062 29.9642 0
87.9081 26.106 0
89.8852 27.6379 0
84.2848 23.7941 0
86.7063 24.4221 0
38.51 11.4104 0
36.0797 11.9951 0
65.695 40.5812 0
63.526 39.3385 0
37.7205 1.77988 0
35.5414 3.00593 0
75.4872 40.1525 0
75.9086 42.6145 0
67.333 2.37826 0
67.1247 4.86936 0
72.0056 15.3532 0
70.1596 13.666 0
63.3862 32.1215 0
65.8807 32.2757 0
39.5929 3.39146 0
38.8517 5.77907 0
46.2202 18.9295 0
47.7905 16.9846 0
37.5057 38.9647 0
36.299 41.1537 0
90.1637 7.34496 0
90.89 4.9571 0
92.5892 20.1252 0
90.186 19.4303 0
55.9027 19.4502 0
56.1546 16.9632 0
22.846 18.9431 0
21.4647 21.0251 0
32.7169 16.2312 0
34.4991 17.9812 0
72.9876 38.5699 0
73.3506 36.0989 0
61.7513 40.9464 0
63.1805 42.9972 0
27.4334 33.0747 0
29.7285 32.0839 0
27.6218 16.7754 0
25.7814 15.088 0
39.5046 2.59444 0
37.4728 4.05175 0
18.5889 28.6318 0
17.7642 26.2761 0
73.4793 2.78272 0
75.2024 0.978788 0
75.7769 42.2662 0
73.2801 42.4006 0
57.357 44.1135 0
54.9354 43.4939 0
27.2378 9.17226 0
28.8653 11.065 0
24.1951 7.90792 0
23.03 10.119 0
76.6205 41.7513 0
74.5083 43.0869 0
30.3641 38.7528 0
32.0526 40.5944 0
47.7266 27.6639 0
48.5102 30.0374 0
78.4398 7.0534 0
80.9158 6.70201 0
76.0243 10.4887 0
76.2927 12.9706 0
69.5514 34.2664 0
68.9408 31.8436 0
77.7437 17.2059 0
79.7271 18.7286 0
84.5155 32.6934 0
85.6726 34.906 0
64.9216 34.6162 0
64.2399 32.2118 0
32.3984 10.3269 0
29.9 10.2627 0
29.5245 44.6196 0
31.8199 45.6093 0
20.0324 29.1957 0
22.4951 28.7667 0
45.1419 28.5057 0
47.3554 27.3457 0
19.2616 33.9917 0
20.5322 31.8408 0
66.1384 9.51464 0
66.1569 7.01507 0
61.6892 1.83698 0
64.0372 0.975898 0
80.9497 1.40215 0
79.8129 3.61906 0
40.5916 47.6804 0
38.0945 47.5584 0
58.8152 26.2229 0
59.6342 28.5844 0
14.7948 23.5162 0
16.8868 24.8827 0
4.12123 14.4706 0
6.16869 13.0351 0
84.2862 21.7653 0
82.6576 19.8701 0
8.18455 0.608916 0
5.72192 0.181654 0
75.4617 20.2024 0
73.1135 21.0577 0
52.4338 10.0323 0
50.7796 8.15797 0
43.3146 5.91935 0
45.7134 5.2143 0
39.2804 2.93674 0
37.8627 4.99613 0
3.34719 8.66857 0
0.910769 8.10697 0
87.8839 12.1583 0
88.2106 14.6325 0
39.6907 11.4733 0
37.4255 10.4185 0
57.9442 7.46866 0
56.0187 5.87384 0
16.2332 26.9459 0
13.7478 27.2262 0
52.5463 5.4977 0
55.0193 5.8659 0
89.8208 6.99026 0
92.2003 7.7606 0
93.4887 4.65793 0
91.8454 2.77457 0
95.0953 0.410674 0
96.8528 2.18897 0
16.0183 29.471 0
18.3876 28.6746 0
62.4942 9.68831 0
61.7903 12.0865 0
18.5802 7.21415 0
17.9465 4.80344 0
70.1879 45.2532 0
67.811 44.477 0
79.6892 8.41462 0
80.5734 6.08282 0
91.8857 15.7078 0
89.7291 14.441 0
59.5417 8.88103 0
59.3377 6.38929 0
21.367 28.6262 0
23.671 29.5936 0
24.857 42.1605 0
26.3527 40.1581 0
22.3611 13.3364 0
24.5561 14.5288 0
9.87209 12.119 0
11.0512 9.91709 0
33.5131 45.5215 0
34.4678 43.2117 0
67.6391 35.9712 0
69.9024 37.0328 0
25.3239 10.7662 0
26.8403 8.77715 0
84.0419 24.5986 0
82.699 22.493 0
87.5694 2.04732 0
89.347 3.8042 0
51.1098 41.0632 0
53.4468 41.9494 0
82.2023 9.46467 0
80.1186 8.08058 0
65.1302 14.6497 0
66.1384 16.9374 0
42.9477 6.85433 0
42.7676 4.36097 0
53.5107 5.57895 0
55.4224 3.96787 0
44.3389 38.9778 0
42.8713 41.0013 0
90.5697 10.8691 0
92.5409 9.33412 0
23.2418 16.958 0
24.7722 18.9304 0
23.7576 10.131 0
23.8018 7.63539 0
60.7271 35.8012 0
60.9638 38.2893 0
44.6552 1.28327 0
42.3006 2.12592 0
78.3204 24.3506 0
79.0505 21.9639 0
68.8803 37.978 0
68.7795 35.4817 0
27.5465 6.52591 0
29.4624 4.91749 0
58.9394 13.3228 0
59.034 15.8208 0
57.7231 9.59923 0
59.6566 11.1841 0
51.7623 19.5954 0
54.1774 20.2371 0
50.6775 38.2552 0
48.1784 38.2537 0
47.4613 22.9051 0
46.4093 25.1727 0
22.6055 21.1793 0
22.809 23.667 0
81.0231 2.123 0
78.5693 1.63263 0
95.256 4.87964 0
95.3998 7.37266 0
48.3777 41.2108 0
46.7817 43.1347 0
26.3494 16.7231 0
25.2084 18.9461 0
89.3245 21.5389 0
88.3675 23.8428 0
43.8493 3.65925 0
46.1176 4.71077 0
53.2884 27.9203 0
55.5269 29.0312 0
78.2922 8.38359 0
79.9516 6.51973 0
13.6871 14.0518 0
16.1788 14.2754 0
54.0801 47.5744 0
53.9853 45.0764 0
52.409 6.07588 0
49.9861 5.4586 0
54.1112 40.6264 0
51.8124 41.6072 0
8.32647 21.9686 0
6.36884 23.525 0
11.1032 27.7132 0
8.61266 27.4964 0
49.7339 47.2581 0
47.2343 47.2862 0
43.5533 18.4367 0
45.9015 19.2906 0
28.4213 43.5329 0
27.73 41.1326 0
87.1718 31.5485 0
86.447 29.1628 0
85.807 22.5063 0
86.6641 20.1633 0
85.9747 0.793035 0
88.4073 1.37226 0
83.5302 35.7413 0
84.5683 33.4724 0
24.1294 32.7208 0
25.694 30.7721 0
45.598 42.3325 0
47.1162 44.3182 0
21.38 35.0035 0
23.6569 33.971 0
6.28936 12.1117 0
4.37848 10.5022 0
34.5265 14.7506 0
36.1437 12.8436 0
31.2771 46.0032 0
32.9996 44.1916 0
18.2664 23.0285 0
20.6803 23.6799 0
10.2842 22.5749 0
11.9868 20.7445 0
50.2246 7.67278 0
47.89 6.7786 0
47.4945 30.8487 0
45.16 29.9579 0
38.8523 21.0505 0
41.265 20.3988 0
43.5934 10.011 0
41.385 11.1825 0
77.5049 36.9975 0
79.2805 35.2413 0
39.9065 8.97632 0
39.073 11.3334 0
74.8758 40.4354 0
73.6271 38.2707 0
60.7937 11.8932 0
58.9233 13.5503 0
96.236 12.5393 0
94.0136 11.3924 0
43.7603 25.4044 0
41.2617 25.4169 0
54.2803 42.9273 0
56.7554 42.5794 0
84.5898 23.5803 0
82.0933 23.7352 0
2.53032 9.61715 0
4.59342 8.20459 0
82.1199 4.95489 0
84.606 5.22923 0
36.549 16.4864 0
38.6704 17.8061 0
44.0096 9.44812 0
42.0196 10.9612 0
21.18 26.5349 0
22.1813 28.822 0
43.0496 27.2747 0
45.3664 26.338 0
15.0448 19.6635 0
14.8671 22.1522 0
20.1531 8.6129 0
21.0205 6.27105 0
12.2272 24.8656 0
10.9717 22.7094 0
49.8768 41.5762 0
48.6847 39.3792 0
9.59068 24.4683 0
9.38999 26.9567 0
35.091 44.101 0
32.8817 45.2713 0
13.4063 18.343 0
11.2235 17.1261 0
12.2584 23.8373 0
12.698 21.3807 0
84.2212 17.4592 0
84.0592 14.9694 0
97.0954 15.4618 0
94.8899 14.2829 0
76.1951 36.7933 0
77.5784 38.8745 0
4.72902 2.94604 0
2.2758 3.43216 0
13.8879 26.8532 0
11.4035 26.564 0
9.91563 5.19031 0
8.6502 7.34429 0
87.003 9.99819 0
86.6941 7.52198 0
50.8101 19.016 0
49.885 16.6937 0
22.824 2.98746 0
23.5197 0.58576 0
24.0512 40.4954 0
21.5713 40.1767 0
4.32209 10.5316 0
1.914 11.2066 0
74.0213 28.1728 0
72.4513 30.1152 0
51.6102 16.6642 0
49.4395 17.9026 0
94.6748 5.52498 0
96.5474 7.18145 0
92.4039 0.90118 0
90.0033 1.59586 0
54.6868 28.1188 0
57.0155 29.0257 0
3.93607 2.11252 0
2.82012 4.34821 0
25.6135 42.1466 0
28.0967 41.8526 0
24.2875 33.2806 0
25.7587 35.2985 0
64.8722 37.9438 0
63.0589 36.2232 0
45.7811 39.0736 0
46.327 36.6343 0
59.147 39.511 0
58.3416 41.877 0
42.8332 19.5297 0
41.6325 17.338 0
48.5243 17.0114 0
47.4649 14.7473 0
92.8626 4.86924 0
91.3384 6.84707 0
17.662 6.63394 0
16.0909 4.69481 0
31.5438 30.807 0
33.0594 28.8196 0
49.5579 45.2652 0
50.5153 47.5745 0
51.6945 13.9352 0
49.2475 14.4423 0
35.2085 5.6543 0
34.5504 8.06636 0
90.6806 7.76891 0
90.2486 10.2268 0
55.2554 45.8898 0
54.006 43.7245 0
16.7174 18.2614 0
18.903 17.0452 0
14.6217 7.08648 0
14.2834 4.61488 0
24.2827 34.4691 0
21.7902 34.6621 0
62.6288 33.7231 0
60.6594 35.2609 0
11.5565 19.7322 0
13.656 21.0866 0
76.8139 0.43718 0
74.3182 0.369735 0
59.9249 26.1868 0
57.6704 25.108 0
70.4759 27.1653 0
67.9889 27.4113 0
46.2265 22.9514 0
46.9732 20.5656 0
76.5807 3.90384 0
74.1829 4.59786 0
47.8487 15.2644 0
50.1331 16.2776 0
88.1705 13.6167 0
89.9413 11.8557 0
70.9872 0.209856 0
73.3071 1.1418 0
56.2786 45.8233 0
57.2104 43.5038 0
68.1641 3.41049 0
65.9368 2.27422 0
22.8414 17.7613 0
24.7599 16.1573 0
81.1888 38.8401 0
83.1697 37.3178 0
49.4129 3.1225 0
51.1123 4.95627 0
66.013 3.48469 0
63.6775 2.59249 0
53.3005 12.312 0
53.0657 9.82295 0
12.6071 15.473 0
10.7889 17.1888 0
43.1784 4.82211 0
43.6214 7.28238 0
56.1643 20.7348 0
58.615 21.2236 0
60.8446 22.5326 0
58.3643 22.2275 0
28.8124 27.3291 0
26.9953 25.6154 0
40.7075 7.09318 0
38.2298 7.42364 0
17.4035 2.36147 0
19.8835 2.03747 0
42.837 25.9996 0
40.3599 26.3282 0
7.02946 17.7455 0
8.35337 19.8621 0
20.2956 12.058 0
22.1382 10.3672 0
67.3985 40.1962 0
65.4878 41.8066 0
45.1258 41.6803 0
45.9824 44.0286 0
70.812 17.3709 0
73.1932 16.6131 0
88.2779 4.88877 0
90.0158 6.68476 0
49.8862 20.337 0
48.1621 22.1464 0
56.3561 37.8699 0
56.3562 40.3695 0
82.374 26.1435 0
80.8555 28.1259 0
39.5809 4.59022 0
41.567 6.10792 0
55.1641 43.7399 0
57.0073 42.0518 0
55.3779 43.6248 0
57.0604 41.7766 0
25.0463 15.4946 0
23.2296 13.7825 0
14.3514 27.9308 0
13.5122 30.2796 0
53.0019 17.2084 0
51.1972 18.9374 0
32.5307 43.0019 0
34.8832 43.847 0
19.71 10.9291 0
21.4636 12.7057 0
61.519 41.3053 0
63.7563 40.1916 0
32.9554 27.6128 0
31.0078 29.1797 0
31.0036 21.3462 0
31.9751 23.6471 0
72.0671 27.597 0
71.2352 29.9518 0
38.0832 13.2569 0
40.5571 13.609 0
47.3027 48.1377 0
45.4824 46.4244 0
70.6171 11.6549 0
70.4834 14.1493 0
98.648 10.2168 0
96.5868 8.80136 0
96.4588 15.9559 0
93.9591 16.0278 0
58.9494 10.3903 0
59.6874 12.7789 0
54.9966 18.5501 0
56.4791 20.5628 0
53.9078 41.821 0
56.3724 41.4059 0
5.05262 4.44165 0
7.53226 4.11782 0
84.5057 18.9014 0
86.8288 19.83 0
19.2774 30.3846 0
19.5066 32.8703 0
64.4133 35.9936 0
63.1665 33.8274 0
66.4858 23.6671 0
68.9836 23.5809 0
60.3905 25.6365 0
62.6869 24.6523 0
55.918 21.3374 0
57.6108 19.4993 0
21.5735 36.5305 0
19.0808 36.7281 0
55.9501 32.5068 0
58.3838 31.9405 0
67.9268 1.83913 0
70.12 3.04053 0
16.2239 6.29776 0
17.6201 4.22763 0
91.8169 24.311 0
91.1492 26.7157 0
89.1981 19.2245 0
86.7301 18.8131 0
88.0821 12.6428 0
86.5263 14.5952 0
76.4168 19.0006 0
77.6075 16.8071 0
71.0144 21.1486 0
70.1034 23.4737 0
26.618 25.6595 0
25.3996 27.8408 0
55.8044 26.5259 0
55.5568 29.013 0
59.1659 43.275 0
57.522 45.1578 0
66.2259 18.9297 0
68.27 17.494 0
81.2707 33.7442 0
79.7364 31.7723 0
50.4282 9.19528 0
49.7703 11.6072 0
26.0591 27.6681 0
24.0261 29.1222 0
49.6496 27.489 0
49.8897 25.0008 0
89.3075 25.5913 0
91.8061 25.4946 0
78.9827 32.2758 0
76.6499 33.171 0
76.2007 37.612 0
76.6448 35.1549 0
22.6861 1.51812 0
23.5118 3.87112 0
17.2399 12.0256 0
15.7648 10.0125 0
76.5379 35.9594 0
78.4045 34.3 0
25.5358 42.9905 0
23.7492 41.2442 0
24.9576 3.64031 0
23.1401 1.93468 0
86.9021 24.5711 0
85.0461 22.8968 0
84.0797 33.6604 0
83.197 31.3249 0
68.005 9.30578 0
65.9006 7.95473 0
6.43316 3.80019 0
4.66614 5.56854 0
88.474 7.29487 0
89.3576 4.9609 0
68.0826 41.0342 0
69.9214 39.3425 0
33.5807 19.0288 0
33.4804 21.5255 0
18.3926 18.4735 0
19.9889 20.3931 0
51.0069 20.8489 0
51.9961 18.5532 0
81.2127 27.3848 0
79.0141 26.1957 0
33.6462 33.8713 0
31.466 35.0942 0
42.0768 36.8539 0
44.2665 35.6489 0
9.49935 8.12441 0
8.12641 6.03911 0
46.395 9.24141 0
43.9181 9.57717 0
38.9211 46.0029 0
36.7366 44.7878 0
56.6716 44.9792 0
57.0858 42.5141 0
50.8194 7.97981 0
52.1422 10.1011 0
69.3117 9.73502 0
68.2025 11.9727 0
52.7876 10.8609 0
53.9938 8.67131 0
87.9552 0.592921 0
87.4319 3.03292 0
87.5911 29.8321 0
88.507 27.5139 0
27.7678 27.9956 0
29.323 26.0393 0
41.1486 3.3876 0
43.5706 2.76557 0
47.3823 29.47 0
44.8849 29.3912 0
44.8983 23.3592 0
42.4223 23.0239 0
57.5555 36.3937 0
55.6929 34.727 0
79.9246 4.81937 0
81.3144 6.89517 0
33.0051 1.65648 0
31.3359 3.51804 0
37.9986 49.9197 0
37.9287 51.4882 0
37.9287 51.4882 0
37.7222 53.0447 0
37.7222 53.0447 0
37.3807 54.5773 0
37.3807 54.5773 0
36.9069 56.0743 0
36.9069 56.0743 0
36.3044 57.5243 0
36.3044 57.5243 0
35.5778 58.9162 0
35.5778 58.9162 0
34.7326 60.2396 0
34.7326 60.2396 0
33.7752 61.4843 0
33.7752 61.4843 0
32.7131 62.6408 0
32.7131 62.6408 0
31.5542 63.7004 0
31.5542 63.7004 0
30.3073 64.655 0
30.3073 64.655 0
28.982 65.4973 0
28.982 65.4973 0
27.5884 66.2209 0
27.5884 66.2209 0
26.137 66.8204 0
26.137 66.8204 0
24.6389 67.2912 0
24.6389 67.2912 0
23.1055 67.6297 0
23.1055 67.6297 0
21.5484 67.8334 0
21.5484 67.8334 0
19.9795 67.9006 0
19.9795 67.9006 0
18.4107 67.8309 0
18.4107 67.8309 0
16.854 67.6248 0
16.854 67.6248 0
15.3211 67.2839 0
15.3211 67.2839 0
13.8237 66.8108 0
13.8237 66.8108 0
12.3733 66.209 0
12.3733 66.209 0
10.9808 65.4831 0
10.9808 65.4831 0
9.65684 64.6387 0
9.65684 64.6387 0
8.4115 63.6822 0
8.4115 63.6822 0
7.25425 62.6208 0
7.25425 62.6208 0
6.19389 61.4626 0
6.19389 61.4626 0
5.23851 60.2165 0
5.23851 60.2165 0
4.39538 58.8918 0
4.39538 58.8918 0
3.67091 57.4987 0
3.67091 57.4987 0
3.07066 56.0477 0
3.07066 56.0477 0
2.59918 54.55 0
2.59918 54.55 0
2.26008 53.0169 0
2.26008 53.0169 0
2.05596 51.4602 0
2.05596 51.4602 0
1.9884 49.8915 0
1.9884 49.8915 0
2.05791 48.323 0
2.05791 48.323 0
2.26399 46.7666 0
2.26399 46.7666 0
2.60509 45.2341 0
2.60509 45.2341 0
3.07861 43.7373 0
3.07861 43.7373 0
3.68097 42.2876 0
3.68097 42.2876 0
4.40759 40.8962 0
4.40759 40.8962 0
5.25293 39.5736 0
5.25293 39.5736 0
6.21059 38.3301 0
6.21059 38.3301 0
7.27322 37.1754 0
7.27322 37.1754 0
8.43277 36.1183 0
8.43277 36.1183 0
9.6804 35.1675 0
9.6804 35.1675 0
11.0067 34.3306 0
11.0067 34.3306 0
12.4022 33.6127 0
12.4022 33.6127 0
13.8545 33.0153 0
13.8545 33.0153 0
15.3523 32.5443 0
15.3523 32.5443 0
16.8851 32.2049 0
16.8851 32.2049 0
18.4416 32 0
18.4416 32 0
20.0101 31.9312 0
20.0101 31.9312 0
21.5786 31.9991 0
21.5786 31.9991 0
23.1352 32.2034 0
23.1352 32.2034 0
24.6679 32.5423 0
24.6679 32.5423 0
26.1651 33.0135 0
26.1651 33.0135 0
27.6154 33.6134 0
27.6154 33.6134 0
29.0077 34.3375 0
29.0077 34.3375 0
30.3315 35.1802 0
30.3315 35.1802 0
31.5766 36.1353 0
31.5766 36.1353 0
32.7337 37.1954 0
32.7337 37.1954 0
33.7939 38.3525 0
33.7939 38.3525 0
34.7491 39.5977 0
34.7491 39.5977 0
35.5921 40.9216 0
35.5921 40.9216 0
36.3165 42.314 0
36.3165 42.314 0
36.9167 43.7645 0
36.9167 43.7645 0
37.3882 45.2618 0
37.3882 45.2618 0
37.7273 46.7946 0
37.7273 46.7946 0
37.9313 48.3512 0
37.9313 48.3512 0
37.9986 49.9197 0
98.0116 49.8914 0
97.9441 51.4601 0
97.9441 51.4601 0
97.7399 53.0169 0
97.7399 53.0169 0
97.4008 54.5499 0
97.4008 54.5499 0
96.9294 56.0477 0
96.9294 56.0477 0
96.3291 57.4986 0
96.3291 57.4986 0
95.6046 58.8917 0
95.6046 58.8917 0
94.7615 60.2164 0
94.7615 60.2164 0
93.8061 61.4625 0
93.8061 61.4625 0
92.7458 62.6207 0
92.7458 62.6207 0
91.5885 63.6821 0
91.5885 63.6821 0
90.3432 64.6386 0
90.3432 64.6386 0
89.0192 65.483 0
89.0192 65.483 0
87.6267 66.2089 0
87.6267 66.2089 0
86.1763 66.8106 0
86.1763 66.8106 0
84.6789 67.2838 0
84.6789 67.2838 0
83.146 67.6247 0
83.146 67.6247 0
81.5893 67.8308 0
81.5893 67.8308 0
80.0205 67.9004 0
80.0205 67.9004 0
78.4516 67.8332 0
78.4516 67.8332 0
76.8945 67.6296 0
76.8945 67.6296 0
75.3611 67.2911 0
75.3611 67.2911 0
73.863 66.8203 0
73.863 66.8203 0
72.4116 66.2208 0
72.4116 66.2208 0
71.018 65.4971 0
71.018 65.4971 0
69.6927 64.6548 0
69.6927 64.6548 0
68.4459 63.7002 0
68.4459 63.7002 0
67.2869 62.6406 0
67.2869 62.6406 0
66.2248 61.4841 0
66.2248 61.4841 0
65.2675 60.2394 0
65.2675 60.2394 0
64.4223 58.916 0
64.4223 58.916 0
63.6956 57.5241 0
63.6956 57.5241 0
63.0931 56.0741 0
63.0931 56.0741 0
62.6193 54.5771 0
62.6193 54.5771 0
62.2779 53.0445 0
62.2779 53.0445 0
62.0714 51.488 0
62.0714 51.488 0
62.0015 49.9195 0
62.0015 49.9195 0
62.0687 48.351 0
62.0687 48.351 0
62.2728 46.7944 0
62.2728 46.7944 0
62.6119 45.2616 0
62.6119 45.2616 0
63.0834 43.7643 0
63.0834 43.7643 0
63.6836 42.3138 0
63.6836 42.3138 0
64.4079 40.9214 0
64.4079 40.9214 0
65.2509 39.5975 0
65.2509 39.5975 0
66.2062 38.3523 0
66.2062 38.3523 0
67.2663 37.1952 0
67.2663 37.1952 0
68.4234 36.1352 0
68.4234 36.1352 0
69.6686 35.1801 0
69.6686 35.1801 0
70.9923 34.3374 0
70.9923 34.3374 0
72.3847 33.6133 0
72.3847 33.6133 0
73.835 33.0133 0
73.835 33.0133 0
75.3322 32.5421 0
75.3322 32.5421 0
76.8649 32.2031 0
76.8649 32.2031 0
78.4214 31.9989 0
78.4214 31.9989 0
79.9899 31.931 0
79.9899 31.931 0
81.5584 31.9998 0
81.5584 31.9998 0
83.115 32.2048 0
83.115 32.2048 0
84.6479 32.5442 0
84.6479 32.5442 0
86.1456 33.0152 0
86.1456 33.0152 0
87.5977 33.6127 0
87.5977 33.6127 0
88.9934 34.3305 0
88.9934 34.3305 0
90.3198 35.1676 0
90.3198 35.1676 0
91.5673 36.1183 0
91.5673 36.1183 0
92.7268 37.1752 0
92.7268 37.1752 0
93.7895 38.33 0
93.7895 38.33 0
94.7471 39.5735 0
94.7471 39.5735 0
95.5925 40.8961 0
95.5925 40.8961 0
96.3191 42.2876 0
96.3191 42.2876 0
96.9214 43.7372 0
96.9214 43.7372 0
97.3949 45.234 0
97.3949 45.234 0
97.736 46.7665 0
97.736 46.7665 0
97.9421 48.3229 0
97.9421 48.3229 0
98.0116 49.8914 0
      </DataArray>
    </Points>
    <Cells>
      <DataArray type="Int32" Name="connectivity" format="ascii">
247 120 114 753 754 755 
213 114 214 748 749 750 
487 220 257 647 745 730 
257 115 260 741 742 743 
246 300 116 738 739 740 
212 116 247 731 732 733 
246 257 117 724 725 726 
299 117 312 719 720 721 
303 310 118 716 717 718 
248 118 256 711 712 713 
513 495 483 150 224 119 
507 513 483 151 119 184 
248 120 302 704 705 706 
221 258 121 1196 1197 1198 
259 121 313 1191 1192 1193 
464 430 432 332 409 122 
436 464 432 326 122 408 
346 1189 123 1186 1187 1188 
298 123 351 1181 1182 1183 
71 311 124 699 700 701 
65 124 372 692 693 694 
79 369 125 687 688 689 
684 125 309 680 681 682 
211 243 126 1178 1179 1180 
244 126 297 1173 1174 1175 
462 474 436 240 281 127 
438 462 436 294 127 327 
512 515 514 131 129 134 
513 509 511 130 132 135 
514 515 510 129 139 128 
508 514 510 148 128 147 
496 500 514 146 133 149 
513 499 495 136 145 150 
507 509 513 143 130 151 
505 491 497 141 142 154 
504 515 512 137 131 155 
174 503 511 1151 156 144 
512 514 500 134 133 159 
499 513 511 136 135 162 
494 515 504 138 137 165 
171 510 515 1164 139 166 
140 167 168 678 674 675 
167 492 168 672 661 674 
491 505 506 141 153 169 
177 498 497 656 164 170 
173 490 174 1156 1149 1171 
217 489 503 1126 176 175 
495 499 498 145 163 178 
501 500 496 158 146 179 
172 486 181 1162 1145 1169 
496 514 508 149 148 183 
480 481 140 227 152 187 
479 506 505 188 153 190 
477 505 497 191 154 193 
504 512 475 155 160 194 
472 511 503 161 156 197 
501 502 471 157 199 200 
500 501 470 158 201 202 
475 512 500 160 159 203 
499 511 472 162 161 204 
498 499 469 163 205 206 
497 498 468 164 207 208 
494 504 474 165 195 210 
211 493 171 1165 1161 1166 
167 180 212 667 668 669 
168 492 213 661 662 663 
214 488 177 657 653 658 
172 171 215 1158 1159 1160 
173 185 216 1153 1154 1155 
174 490 217 1149 1127 1150 
473 503 489 196 176 218 
177 488 219 653 643 654 
220 487 180 647 648 649 
182 181 221 1142 1143 1144 
496 508 115 183 222 747 
225 484 185 886 1138 1139 
482 502 481 198 186 226 
506 480 140 189 187 677 
480 506 479 189 188 228 
479 505 478 190 192 229 
478 505 477 192 191 230 
477 497 476 193 209 231 
474 504 475 195 194 232 
472 503 473 197 196 233 
471 502 482 199 198 234 
470 501 471 201 200 235 
475 500 470 203 202 236 
469 499 472 205 204 237 
468 498 469 207 206 238 
476 497 468 209 208 239 
494 474 461 210 241 242 
215 245 249 1133 1134 1135 
216 250 251 1128 1129 1130 
217 252 253 1123 1124 1125 
307 451 473 1047 255 254 
223 219 256 640 641 642 
583 263 223 1074 637 628 
582 261 264 1120 1121 1122 
445 482 481 265 226 268 
444 481 480 267 227 270 
443 480 479 269 228 272 
442 479 478 271 229 274 
441 478 477 273 230 276 
440 477 476 275 231 278 
474 475 436 232 280 281 
472 473 435 233 283 284 
471 482 446 234 266 286 
470 471 434 235 287 288 
464 475 470 279 236 289 
469 472 463 237 285 290 
468 469 433 238 291 292 
439 476 468 277 239 293 
461 474 462 241 240 295 
296 460 243 1071 1116 1117 
245 244 298 1107 1108 1109 
258 249 304 1100 1101 1102 
250 262 305 1095 1096 1097 
252 251 306 1088 1089 1090 
253 452 307 1084 1044 1085 
437 473 451 282 255 308 
633 314 591 871 832 1082 
262 261 316 1075 1076 1077 
318 629 578 854 810 809 
446 482 445 266 265 319 
445 481 444 268 267 320 
444 480 443 270 269 321 
443 479 442 272 271 322 
442 478 441 274 273 323 
441 477 440 276 275 324 
440 476 439 278 277 325 
436 475 464 280 279 326 
435 473 437 283 282 328 
463 472 435 285 284 329 
434 471 446 287 286 330 
464 470 434 289 288 331 
433 469 463 291 290 334 
439 468 433 293 292 335 
462 438 43 294 338 339 
461 462 45 295 340 341 
296 342 343 1068 1069 1070 
297 344 345 1063 1064 1065 
299 311 347 621 622 623 
301 300 348 616 617 618 
302 301 349 609 610 611 
309 303 350 602 603 604 
304 352 353 1058 1059 1060 
305 358 359 1053 1054 1055 
306 361 362 1048 1049 1050 
307 452 364 1044 934 1045 
437 451 109 308 367 368 
599 317 597 848 850 1042 
592 315 593 841 840 1040 
313 355 375 1035 1036 1037 
585 586 587 1032 1033 1034 
356 316 378 1027 1028 1029 
578 579 580 1024 1025 1026 
3 446 445 381 319 383 
7 445 444 384 320 386 
11 444 443 387 321 389 
15 443 442 390 322 392 
19 442 441 393 323 395 
23 441 440 396 324 398 
27 440 439 399 325 401 
432 438 436 336 327 408 
435 437 431 328 337 410 
429 463 435 333 329 411 
434 446 0 330 382 413 
430 464 434 332 331 414 
433 463 429 334 333 415 
1 439 433 402 335 416 
39 438 432 404 336 417 
431 437 940 337 407 418 
43 438 41 338 405 42 
45 462 43 340 339 44 
47 49 342 48 1019 1020 
344 343 51 1009 1010 1011 
346 345 1013 1000 1001 1002 
348 347 702 569 570 571 
350 349 75 560 561 562 
352 351 55 991 992 993 
354 353 979 984 985 986 
355 354 995 975 976 977 
357 356 89 968 969 970 
358 357 956 959 960 961 
360 359 972 952 953 954 
361 360 95 943 944 945 
363 362 99 936 937 938 
364 363 103 927 928 929 
107 451 105 366 365 106 
109 451 107 367 366 108 
931 437 109 406 368 110 
370 369 548 553 554 555 
371 370 690 544 545 546 
372 374 532 537 538 539 
374 373 696 528 529 530 
376 375 61 920 921 922 
924 523 524 915 916 917 
378 380 85 908 909 910 
516 911 518 903 904 905 
0 446 3 382 381 2 
3 445 5 383 385 4 
5 445 7 385 384 6 
7 444 9 386 388 8 
9 444 11 388 387 10 
11 443 13 389 391 12 
13 443 15 391 390 14 
15 442 17 392 394 16 
17 442 19 394 393 18 
19 441 21 395 397 20 
21 441 23 397 396 22 
23 440 25 398 400 24 
25 440 27 400 399 26 
27 439 29 401 403 28 
29 439 1 403 402 30 
41 438 39 405 404 40 
940 437 931 407 406 932 
432 430 31 409 423 419 
429 435 431 411 410 412 
93 429 431 426 412 422 
430 434 0 414 413 424 
1 433 429 416 415 428 
39 432 37 417 420 38 
947 431 940 421 418 941 
37 432 31 420 419 36 
93 431 947 422 421 948 
31 430 33 423 425 32 
33 430 0 425 424 34 
112 429 93 427 426 111 
1 429 112 428 427 113 
220 115 257 746 741 745 
518 899 519 896 897 898 
521 519 380 889 890 891 
630 264 225 882 883 884 
491 177 497 659 170 142 
481 502 140 186 676 152 
744 182 635 879 874 875 
120 247 467 753 735 707 
247 114 492 755 752 736 
114 120 488 754 710 751 
114 213 492 748 662 752 
213 214 491 750 660 665 
214 114 488 749 751 657 
115 220 496 746 652 747 
257 260 466 743 632 727 
182 485 635 878 870 874 
300 246 458 738 728 619 
246 116 487 740 737 729 
116 300 467 739 620 734 
116 212 487 731 670 737 
212 247 492 733 736 671 
247 116 467 732 734 735 
257 246 487 724 729 730 
246 117 458 726 723 728 
117 257 466 725 727 722 
117 299 458 719 625 723 
299 312 449 721 595 626 
312 117 466 720 722 596 
310 303 450 716 608 600 
303 118 457 718 715 605 
118 310 465 717 601 714 
118 248 457 711 708 715 
248 256 488 713 644 709 
256 118 465 712 714 645 
120 248 488 704 709 710 
248 302 457 706 613 708 
302 120 467 705 707 614 
311 71 573 699 72 624 
71 124 63 701 698 70 
124 311 449 700 627 695 
124 65 63 692 64 698 
65 372 67 694 542 66 
372 124 449 693 695 543 
369 79 81 687 80 556 
79 125 73 689 686 78 
125 369 450 688 559 683 
125 684 73 680 685 686 
684 309 564 682 606 565 
309 125 450 681 683 607 
167 140 502 678 676 679 
501 167 502 673 679 157 
140 168 506 675 666 677 
180 167 501 667 673 651 
167 212 492 669 671 672 
212 180 487 668 648 670 
506 168 213 666 663 664 
491 506 213 169 664 665 
491 214 177 660 658 659 
498 177 219 656 654 655 
495 498 219 178 655 646 
496 220 180 652 649 650 
501 496 180 179 650 651 
219 223 495 640 639 646 
223 256 465 642 645 636 
256 219 488 641 643 644 
495 223 263 639 637 638 
483 495 263 224 638 631 
633 635 634 867 868 869 
588 634 259 860 861 862 
629 318 630 854 855 856 
311 299 449 621 626 627 
299 347 458 623 577 625 
347 311 573 622 624 572 
300 301 467 616 615 620 
301 348 69 618 575 612 
348 300 458 617 619 576 
301 302 467 609 614 615 
302 349 457 611 568 613 
349 301 69 610 612 563 
303 309 450 602 607 608 
309 350 564 604 566 606 
350 303 457 603 605 567 
597 317 584 850 807 851 
599 550 581 845 846 847 
371 310 450 598 600 551 
590 315 592 835 841 842 
312 373 449 594 536 595 
593 589 531 836 837 838 
585 590 591 827 828 829 
587 523 589 818 819 820 
586 588 527 811 812 813 
578 583 584 802 803 804 
580 521 582 793 794 795 
579 581 516 784 785 786 
347 348 458 569 576 577 
348 702 69 571 703 575 
702 347 573 570 572 574 
349 350 457 560 567 568 
350 75 564 562 76 566 
75 349 69 561 563 74 
369 370 450 553 552 559 
370 548 557 555 549 547 
548 369 81 554 556 82 
370 371 450 544 551 552 
778 77 550 783 779 780 
690 370 557 545 547 558 
374 372 449 537 543 535 
372 532 67 539 68 542 
532 374 540 538 534 533 
373 374 449 528 535 536 
374 696 540 530 541 534 
531 59 773 772 777 774 
524 527 526 765 766 767 
762 526 376 756 757 758 
744 635 633 875 867 873 
260 744 633 877 873 872 
211 171 515 1166 166 1167 
494 211 515 1168 1167 138 
509 174 511 1152 144 132 
174 217 503 1150 175 1151 
629 583 578 1073 802 810 
465 583 223 805 628 636 
489 307 473 1086 254 218 
258 221 486 1196 1146 1105 
221 121 485 1198 1195 1147 
121 258 455 1197 1104 1194 
121 259 485 1191 864 1195 
259 313 448 1193 1038 865 
313 121 455 1192 1194 1039 
1189 346 1018 1186 1006 1023 
346 123 459 1188 1185 1007 
123 1189 35 1187 1190 1184 
123 298 459 1181 1111 1185 
298 351 456 1183 999 1112 
351 123 35 1182 1184 994 
243 211 494 1178 1168 1119 
211 126 493 1180 1177 1165 
126 243 460 1179 1116 1176 
126 244 493 1173 1115 1177 
244 297 459 1175 1066 1110 
297 126 460 1174 1176 1067 
173 174 509 1171 1152 1172 
507 173 509 1157 1172 143 
510 172 181 1163 1169 1170 
508 510 181 147 1170 1148 
171 172 510 1158 1163 1164 
172 215 486 1160 1136 1162 
215 171 493 1159 1161 1137 
185 173 507 1153 1157 1141 
173 216 490 1155 1131 1156 
216 185 484 1154 1138 1132 
181 182 508 1142 881 1148 
182 221 485 1144 1147 878 
221 181 486 1143 1145 1146 
225 185 507 1139 1141 1140 
483 225 507 887 1140 184 
245 215 493 1133 1137 1114 
215 249 486 1135 1106 1136 
249 245 456 1134 1113 1103 
250 216 484 1128 1132 1099 
216 251 490 1130 1094 1131 
251 250 453 1129 1098 1091 
252 217 490 1123 1127 1093 
217 253 489 1125 1087 1126 
253 252 452 1124 1092 1084 
261 582 447 1120 797 1078 
582 264 318 1122 888 798 
264 261 484 1121 1081 885 
461 296 243 1072 1117 1118 
494 461 243 242 1118 1119 
244 245 493 1107 1114 1115 
245 298 456 1109 1112 1113 
298 244 459 1108 1110 1111 
249 258 486 1100 1105 1106 
258 304 455 1102 1061 1104 
304 249 456 1101 1103 1062 
262 250 484 1095 1099 1080 
250 305 453 1097 1056 1098 
305 262 454 1096 1079 1057 
251 252 490 1088 1093 1094 
252 306 452 1090 1051 1092 
306 251 453 1089 1091 1052 
489 253 307 1087 1085 1086 
260 633 591 872 1082 1083 
466 260 591 632 1083 831 
261 262 484 1075 1080 1081 
262 316 454 1077 1031 1079 
316 261 447 1076 1078 1030 
583 629 263 1073 859 1074 
342 296 461 1068 1072 1022 
296 343 460 1070 1017 1071 
343 342 49 1069 1019 1012 
344 297 460 1063 1067 1016 
297 345 459 1065 1008 1066 
345 344 1004 1064 1015 1003 
352 304 456 1058 1062 998 
304 353 455 1060 990 1061 
353 352 57 1059 997 987 
358 305 454 1053 1057 966 
305 359 453 1055 958 1056 
359 358 963 1054 965 955 
361 306 453 1048 1052 950 
306 362 452 1050 942 1051 
362 361 97 1049 949 939 
451 307 364 1047 1045 1046 
105 451 364 365 1046 933 
371 599 597 849 1042 1043 
310 371 597 598 1043 852 
592 593 373 1040 839 1041 
312 592 373 844 1041 594 
355 313 455 1035 1039 982 
313 375 448 1037 926 1038 
375 355 53 1036 981 923 
586 585 314 1032 833 816 
585 587 315 1034 824 834 
587 586 377 1033 815 825 
316 356 454 1027 974 1031 
356 378 83 1029 913 971 
378 316 447 1028 1030 914 
579 578 317 1024 808 791 
578 580 318 1026 799 809 
580 579 379 1025 790 800 
45 47 342 46 1020 1021 
461 45 342 341 1021 1022 
343 344 460 1009 1016 1017 
344 51 1004 1011 52 1015 
51 343 49 1010 1012 50 
345 346 459 1000 1007 1008 
346 1013 1018 1002 1014 1006 
1013 345 1004 1001 1003 1005 
351 352 456 991 998 999 
352 55 57 993 56 997 
55 351 35 992 994 54 
353 354 455 984 983 990 
354 979 988 986 980 978 
979 353 57 985 987 58 
354 355 455 975 982 983 
355 995 53 977 996 981 
995 354 988 976 978 989 
356 357 454 968 967 974 
357 89 91 970 90 962 
89 356 83 969 971 88 
357 358 454 959 966 967 
358 956 963 961 957 965 
956 357 91 960 962 92 
359 360 453 952 951 958 
360 972 87 954 973 946 
972 359 963 953 955 964 
360 361 453 943 950 951 
361 95 97 945 96 949 
95 360 87 944 946 94 
362 363 452 936 935 942 
363 99 101 938 100 930 
99 362 97 937 939 98 
363 364 452 927 934 935 
364 103 105 929 104 933 
103 363 101 928 930 102 
375 376 448 920 760 926 
376 61 522 922 62 761 
61 375 53 921 923 60 
523 924 59 915 925 821 
924 524 918 917 769 919 
524 523 377 916 826 770 
380 378 447 908 914 894 
378 85 83 910 84 913 
85 380 517 909 893 86 
911 516 77 903 788 912 
516 518 379 905 900 789 
518 911 906 904 907 901 
899 518 906 896 901 902 
518 519 379 898 895 900 
519 899 517 897 520 892 
519 521 379 889 801 895 
521 380 447 891 894 796 
380 519 517 890 892 893 
264 630 318 882 855 888 
630 225 483 884 887 858 
225 264 484 883 885 886 
508 182 744 881 879 880 
115 508 744 222 880 876 
115 744 260 876 877 742 
633 634 314 869 866 871 
634 635 485 868 870 863 
634 588 314 860 817 866 
588 259 448 862 865 814 
259 634 485 861 863 864 
263 629 630 859 856 857 
483 263 630 631 857 858 
597 584 465 851 806 853 
310 597 465 852 853 601 
550 599 371 845 849 782 
599 581 317 847 792 848 
581 550 77 846 779 787 
466 590 592 830 842 843 
312 466 592 596 843 844 
589 593 315 836 840 823 
593 531 373 838 775 839 
531 589 59 837 822 772 
590 585 315 827 834 835 
585 591 314 829 832 833 
591 590 466 828 830 831 
523 587 377 818 825 826 
587 589 315 820 823 824 
589 523 59 819 821 822 
588 586 314 811 816 817 
586 527 377 813 771 815 
527 588 448 812 814 768 
578 584 317 804 807 808 
584 583 465 803 805 806 
521 580 379 793 800 801 
580 582 318 795 798 799 
582 521 447 794 796 797 
581 579 317 784 791 792 
579 516 379 786 789 790 
516 581 77 785 787 788 
690 778 550 691 780 781 
371 690 550 546 781 782 
531 773 696 774 697 776 
373 531 696 775 776 529 
527 524 377 765 770 771 
524 526 918 767 764 769 
526 527 448 766 768 759 
526 762 918 756 763 764 
762 376 522 758 761 525 
376 526 448 757 759 760 
1199 1200
1201 1202
1203 1204
1205 1206
1207 1208
1209 1210
1211 1212
1213 1214
1215 1216
1217 1218
1219 1220
1221 1222
1223 1224
1225 1226
1227 1228
1229 1230
1231 1232
1233 1234
1235 1236
1237 1238
1239 1240
1241 1242
1243 1244
1245 1246
1247 1248
1249 1250
1251 1252
1253 1254
1255 1256
1257 1258
1259 1260
1261 1262
1263 1264
1265 1266
1267 1268
1269 1270
1271 1272
1273 1274
1275 1276
1277 1278
1279 1280
1281 1282
1283 1284
1285 1286
1287 1288
1289 1290
1291 1292
1293 1294
1295 1296
1297 1298
1299 1300
1301 1302
1303 1304
1305 1306
1307 1308
1309 1310
1311 1312
1313 1314
1315 1316
1317 1318
1319 1320
1321 1322
1323 1324
1325 1326
1327 1328
1329 1330
1331 1332
1333 1334
1335 1336
1337 1338
1339 1340
1341 1342
1343 1344
1345 1346
1347 1348
1349 1350
1351 1352
1353 1354
1355 1356
1357 1358
1359 1360
1361 1362
1363 1364
1365 1366
1367 1368
1369 1370
1371 1372
1373 1374
1375 1376
1377 1378
1379 1380
1381 1382
1383 1384
1385 1386
1387 1388
1389 1390
1391 1392
1393 1394
1395 1396
1397 1398
1399 1400
1401 1402
1403 1404
1405 1406
1407 1408
1409 1410
1411 1412
1413 1414
1415 1416
1417 1418
1419 1420
1421 1422
1423 1424
1425 1426
1427 1428
1429 1430
1431 1432
1433 1434
1435 1436
1437 1438
1439 1440
1441 1442
1443 1444
1445 1446
1447 1448
1449 1450
1451 1452
1453 1454
1455 1456
1457 1458
1459 1460
1461 1462
1463 1464
1465 1466
1467 1468
1469 1470
1471 1472
1473 1474
1475 1476
1477 1478
1479 1480
1481 1482
1483 1484
1485 1486
1487 1488
1489 1490
1491 1492
1493 1494
1495 1496
1497 1498
1499 1500
1501 1502
1503 1504
1505 1506
1507 1508
1509 1510
1511 1512
1513 1514
1515 1516
1517 1518
1519 1520
1521 1522
1523 1524
1525 1526
1527 1528
1529 1530
1531 1532
1533 1534
1535 1536
1537 1538
1539 1540
1541 1542
1543 1544
1545 1546
1547 1548
1549 1550
1551 1552
1553 1554
1555 1556
1557 1558
1559 1560
1561 1562
1563 1564
1565 1566
1567 1568
1569 1570
1571 1572
1573 1574
1575 1576
1577 1578
1579 1580
1581 1582
1583 1584
1585 1586
1587 1588
1589 1590
1591 1592
1593 1594
1595 1596
1597 1598
1599 1600
1601 1602
1603 1604
1605 1606
1607 1608
1609 1610
1611 1612
1613 1614
1615 1616
1617 1618
1619 1620
1621 1622
1623 1624
1625 1626
1627 1628
1629 1630
1631 1632
1633 1634
1635 1636
1637 1638
1639 1640
1641 1642
1643 1644
1645 1646
1647 1648
1649 1650
1651 1652
1653 1654
1655 1656
1657 1658
1659 1660
1661 1662
1663 1664
1665 1666
1667 1668
1669 1670
1671 1672
1673 1674
1675 1676
1677 1678
1679 1680
1681 1682
1683 1684
1685 1686
1687 1688
1689 1690
1691 1692
1693 1694
1695 1696
1697 1698
1699 1700
1701 1702
1703 1704
1705 1706
1707 1708
1709 1710
1711 1712
1713 1714
1715 1716
1717 1718
1719 1720
1721 1722
1723 1724
1725 1726
1727 1728
1729 1730
1731 1732
1733 1734
1735 1736
1737 1738
1739 1740
1741 1742
1743 1744
1745 1746
1747 1748
1749 1750
1751 1752
1753 1754
1755 1756
1757 1758
1759 1760
1761 1762
1763 1764
1765 1766
1767 1768
1769 1770
1771 1772
1773 1774
1775 1776
1777 1778
1779 1780
1781 1782
1783 1784
1785 1786
1787 1788
1789 1790
1791 1792
1793 1794
1795 1796
1797 1798
1799 1800
1801 1802
1803 1804
1805 1806
1807 1808
1809 1810
1811 1812
1813 1814
1815 1816
1817 1818
1819 1820
1821 1822
1823 1824
1825 1826
1827 1828
1829 1830
1831 1832
1833 1834
1835 1836
1837 1838
1839 1840
1841 1842
1843 1844
1845 1846
1847 1848
1849 1850
1851 1852
1853 1854
1855 1856
1857 1858
1859 1860
1861 1862
1863 1864
1865 1866
1867 1868
1869 1870
1871 1872
1873 1874
1875 1876
1877 1878
1879 1880
1881 1882
1883 1884
1885 1886
1887 1888
1889 1890
1891 1892
1893 1894
1895 1896
1897 1898
1899 1900
1901 1902
1903 1904
1905 1906
1907 1908
1909 1910
1911 1912
1913 1914
1915 1916
1917 1918
1919 1920
1921 1922
1923 1924
1925 1926
1927 1928
1929 1930
1931 1932
1933 1934
1935 1936
1937 1938
1939 1940
1941 1942
1943 1944
1945 1946
1947 1948
1949 1950
1951 1952
1953 1954
1955 1956
1957 1958
1959 1960
1961 1962
1963 1964
1965 1966
1967 1968
1969 1970
1971 1972
1973 1974
1975 1976
1977 1978
1979 1980
1981 1982
1983 1984
1985 1986
1987 1988
1989 1990
1991 1992
1993 1994
1995 1996
1997 1998
1999 2000
2001 2002
2003 2004
2005 2006
2007 2008
2009 2010
2011 2012
2013 2014
2015 2016
2017 2018
2019 2020
2021 2022
2023 2024
2025 2026
2027 2028
2029 2030
2031 2032
2033 2034
2035 2036
2037 2038
2039 2040
2041 2042
2043 2044
2045 2046
2047 2048
2049 2050
2051 2052
2053 2054
2055 2056
2057 2058
2059 2060
2061 2062
2063 2064
2065 2066
2067 2068
2069 2070
2071 2072
2073 2074
2075 2076
2077 2078
2079 2080
2081 2082
2083 2084
2085 2086
2087 2088
2089 2090
2091 2092
2093 2094
2095 2096
2097 2098
2099 2100
2101 2102
2103 2104
2105 2106
2107 2108
2109 2110
2111 2112
2113 2114
2115 2116
2117 2118
2119 2120
2121 2122
2123 2124
2125 2126
2127 2128
2129 2130
2131 2132
2133 2134
2135 2136
2137 2138
2139 2140
2141 2142
2143 2144
2145 2146
2147 2148
2149 2150
2151 2152
2153 2154
2155 2156
2157 2158
2159 2160
2161 2162
2163 2164
2165 2166
2167 2168
2169 2170
2171 2172
2173 2174
2175 2176
2177 2178
2179 2180
2181 2182
2183 2184
2185 2186
2187 2188
2189 2190
2191 2192
2193 2194
2195 2196
2197 2198
2199 2200
2201 2202
2203 2204
2205 2206
2207 2208
2209 2210
2211 2212
2213 2214
2215 2216
2217 2218
2219 2220
2221 2222
2223 2224
2225 2226
2227 2228
2229 2230
2231 2232
2233 2234
2235 2236
2237 2238
2239 2240
2241 2242
2243 2244
2245 2246
2247 2248
2249 2250
2251 2252
2253 2254
2255 2256
2257 2258
2259 2260
2261 2262
2263 2264
2265 2266
2267 2268
2269 2270
2271 2272
2273 2274
2275 2276
2277 2278
2279 2280
2281 2282
2283 2284
2285 2286
2287 2288
2289 2290
2291 2292
2293 2294
2295 2296
2297 2298
2299 2300
2301 2302
2303 2304
2305 2306
2307 2308
2309 2310
2311 2312
2313 2314
2315 2316
2317 2318
2319 2320
2321 2322
2323 2324
2325 2326
2327 2328
2329 2330
2331 2332
2333 2334
2335 2336
2337 2338
2339 2340
2341 2342
2343 2344
2345 2346
2347 2348
2349 2350
2351 2352
2353 2354
2355 2356
2357 2358
2359 2360
2361 2362
2363 2364
2365 2366
2367 2368
2369 2370
2371 2372
2373 2374
2375 2376
2377 2378
2379 2380
2381 2382
2383 2384
2385 2386
2387 2388
2389 2390
2391 2392
2393 2394
2395 2396
2397 2398
2399 2400
2401 2402
2403 2404
2405 2406
2407 2408
2409 2410
2411 2412
2413 2414
2415 2416
2417 2418
2419 2420
2421 2422
2423 2424
2425 2426
2427 2428
2429 2430
2431 2432
2433 2434
2435 2436
2437 2438
2439 2440
2441 2442
2443 2444
2445 2446
2447 2448
2449 2450
2451 2452
2453 2454
2455 2456
2457 2458
2459 2460
2461 2462
2463 2464
2465 2466
2467 2468
2469 2470
2471 2472
2473 2474
2475 2476
2477 2478
2479 2480
2481 2482
2483 2484
2485 2486
2487 2488
2489 2490
2491 2492
2493 2494
2495 2496
2497 2498
2499 2500
2501 2502
2503 2504
2505 2506
2507 2508
2509 2510
2511 2512
2513 2514
2515 2516
2517 2518
2519 2520
2521 2522
2523 2524
2525 2526
2527 2528
2529 2530
2531 2532
2533 2534
2535 2536
2537 2538
2539 2540
2541 2542
2543 2544
2545 2546
2547 2548
2549 2550
2551 2552
2553 2554
2555 2556
2557 2558
2559 2560
2561 2562
2563 2564
2565 2566
2567 2568
2569 2570
2571 2572
2573 2574
2575 2576
2577 2578
2579 2580
2581 2582
2583 2584
2585 2586
2587 2588
2589 2590
2591 2592
2593 2594
2595 2596
2597 2598
2599 2600
2601 2602
2603 2604
2605 2606
2607 2608
2609 2610
2611 2612
2613 2614
2615 2616
2617 2618
2619 2620
2621 2622
2623 2624
2625 2626
2627 2628
2629 2630
2631 2632
2633 2634
2635 2636
2637 2638
2639 2640
2641 2642
2643 2644
2645 2646
2647 2648
2649 2650
2651 2652
2653 2654
2655 2656
2657 2658
2659 2660
2661 2662
2663 2664
2665 2666
2667 2668
2669 2670
2671 2672
2673 2674
2675 2676
2677 2678
2679 2680
2681 2682
2683 2684
2685 2686
2687 2688
2689 2690
2691 2692
2693 2694
2695 2696
2697 2698
2699 2700
2701 2702
2703 2704
2705 2706
2707 2708
2709 2710
2711 2712
2713 2714
2715 2716
2717 2718
2719 2720
2721 2722
2723 2724
2725 2726
2727 2728
2729 2730
2731 2732
2733 2734
2735 2736
2737 2738
2739 2740
2741 2742
2743 2744
2745 2746
2747 2748
2749 2750
2751 2752
2753 2754
2755 2756
2757 2758
2759 2760
2761 2762
2763 2764
2765 2766
2767 2768
2769 2770
2771 2772
2773 2774
2775 2776
2777 2778
2779 2780
2781 2782
2783 2784
2785 2786
2787 2788
2789 2790
2791 2792
2793 2794
2795 2796
2797 2798
2799 2800
2801 2802
2803 2804
2805 2806
2807 2808
2809 2810
2811 2812
2813 2814
2815 2816
2817 2818
2819 2820
2821 2822
2823 2824
2825 2826
2827 2828
2829 2830
2831 2832
2833 2834
2835 2836
2837 2838
2839 2840
2841 2842
2843 2844
2845 2846
2847 2848
2849 2850
2851 2852
2853 2854
2855 2856
2857 2858
2859 2860
2861 2862
2863 2864
2865 2866
2867 2868
2869 2870
2871 2872
2873 2874
2875 2876
2877 2878
2879 2880
2881 2882
2883 2884
2885 2886
2887 2888
2889 2890
2891 2892
2893 2894
2895 2896
2897 2898
2899 2900
2901 2902
2903 2904
2905 2906
2907 2908
2909 2910
2911 2912
2913 2914
2915 2916
2917 2918
2919 2920
2921 2922
2923 2924
2925 2926
2927 2928
2929 2930
2931 2932
2933 2934
2935 2936
2937 2938
2939 2940
2941 2942
2943 2944
2945 2946
2947 2948
2949 2950
2951 2952
2953 2954
2955 2956
2957 2958
2959 2960
2961 2962
2963 2964
2965 2966
2967 2968
2969 2970
2971 2972
2973 2974
2975 2976
2977 2978
2979 2980
2981 2982
2983 2984
2985 2986
2987 2988
2989 2990
2991 2992
2993 2994
2995 2996
2997 2998
2999 3000
3001 3002
3003 3004
3005 3006
3007 3008
3009 3010
3011 3012
3013 3014
3015 3016
3017 3018
3019 3020
3021 3022
3023 3024
3025 3026
3027 3028
3029 3030
3031 3032
3033 3034
3035 3036
3037 3038
3039 3040
3041 3042
3043 3044
3045 3046
3047 3048
3049 3050
3051 3052
3053 3054
3055 3056
3057 3058
3059 3060
3061 3062
3063 3064
3065 3066
3067 3068
3069 3070
3071 3072
3073 3074
3075 3076
3077 3078
3079 3080
3081 3082
3083 3084
3085 3086
3087 3088
3089 3090
3091 3092
3093 3094
3095 3096
3097 3098
3099 3100
3101 3102
3103 3104
3105 3106
3107 3108
3109 3110
3111 3112
3113 3114
3115 3116
3117 3118
3119 3120
3121 3122
3123 3124
3125 3126
3127 3128
3129 3130
3131 3132
3133 3134
3135 3136
3137 3138
3139 3140
3141 3142
3143 3144
3145 3146
3147 3148
3149 3150
3151 3152
3153 3154
3155 3156
3157 3158
3159 3160
3161 3162
3163 3164
3165 3166
3167 3168
3169 3170
3171 3172
3173 3174
3175 3176
3177 3178
3179 3180
3181 3182
3183 3184
3185 3186
3187 3188
3189 3190
3191 3192
3193 3194
3195 3196
3197 3198
3199 3200
3201 3202
3203 3204
3205 3206
3207 3208
3209 3210
3211 3212
3213 3214
3215 3216
3217 3218
3219 3220
3221 3222
3223 3224
3225 3226
3227 3228
3229 3230
3231 3232
3233 3234
3235 3236
3237 3238
3239 3240
3241 3242
3243 3244
3245 3246
3247 3248
3249 3250
3251 3252
3253 3254
3255 3256
3257 3258
3259 3260
3261 3262
3263 3264
3265 3266
3267 3268
3269 3270
3271 3272
3273 3274
3275 3276
3277 3278
3279 3280
3281 3282
3283 3284
3285 3286
3287 3288
3289 3290
3291 3292
3293 3294
3295 3296
3297 3298
3299 3300
3301 3302
3303 3304
3305 3306
3307 3308
3309 3310
3311 3312
3313 3314
3315 3316
3317 3318
3319 3320
3321 3322
3323 3324
3325 3326
3327 3328
3329 3330
3331 3332
3333 3334
3335 3336
3337 3338
3339 3340
3341 3342
3343 3344
3345 3346
3347 3348
3349 3350
3351 3352
3353 3354
3355 3356
3357 3358
3359 3360
3361 3362
3363 3364
3365 3366
3367 3368
3369 3370
3371 3372
3373 3374
3375 3376
3377 3378
3379 3380
3381 3382
3383 3384
3385 3386
3387 3388
3389 3390
3391 3392
3393 3394
3395 3396
3397 3398
3399 3400
3401 3402
3403 3404
3405 3406
3407 3408
3409 3410
3411 3412
3413 3414
3415 3416
3417 3418
3419 3420
3421 3422
3423 3424
3425 3426
3427 3428
3429 3430
3431 3432
3433 3434
3435 3436
3437 3438
3439 3440
3441 3442
3443 3444
3445 3446
3447 3448
3449 3450
3451 3452
3453 3454
3455 3456
3457 3458
3459 3460
3461 3462
3463 3464
3465 3466
3467 3468
3469 3470
3471 3472
3473 3474
3475 3476
3477 3478
3479 3480
3481 3482
3483 3484
3485 3486
      </DataArray>
      <DataArray type="Int32" Name="offsets" format="ascii">
6
12
18
24
30
36
42
48
54
60
66
72
78
84
90
96
102
108
114
120
126
132
138
144
150
156
162
168
174
180
186
192
198
204
210
216
222
228
234
240
246
252
258
264
270
276
282
288
294
300
306
312
318
324
330
336
342
348
354
360
366
372
378
384
390
396
402
408
414
420
426
432
438
444
450
456
462
468
474
480
486
492
498
504
510
516
522
528
534
540
546
552
558
564
570
576
582
588
594
600
606
612
618
624
630
636
642
648
654
660
666
672
678
684
690
696
702
708
714
720
726
732
738
744
750
756
762
768
774
780
786
792
798
804
810
816
822
828
834
840
846
852
858
864
870
876
882
888
894
900
906
912
918
924
930
936
942
948
954
960
966
972
978
984
990
996
1002
1008
1014
1020
1026
1032
1038
1044
1050
1056
1062
1068
1074
1080
1086
1092
1098
1104
1110
1116
1122
1128
1134
1140
1146
1152
1158
1164
1170
1176
1182
1188
1194
1200
1206
1212
1218
1224
1230
1236
1242
1248
1254
1260
1266
1272
1278
1284
1290
1296
1302
1308
1314
1320
1326
1332
1338
1344
1350
1356
1362
1368
1374
1380
1386
1392
1398
1404
1410
1416
1422
1428
1434
1440
1446
1452
1458
1464
1470
1476
1482
1488
1494
1500
1506
1512
1518
1524
1530
1536
1542
1548
1554
1560
1566
1572
1578
1584
1590
1596
1602
1608
1614
1620
1626
1632
1638
1644
1650
1656
1662
1668
1674
1680
1686
1692
1698
1704
1710
1716
1722
1728
1734
1740
1746
1752
1758
1764
1770
1776
1782
1788
1794
1800
1806
1812
1818
1824
1830
1836
1842
1848
1854
1860
1866
1872
1878
1884
1890
1896
1902
1908
1914
1920
1926
1932
1938
1944
1950
1956
1962
1968
1974
1980
1986
1992
1998
2004
2010
2016
2022
2028
2034
2040
2046
2052
2058
2064
2070
2076
2082
2088
2094
2100
2106
2112
2118
2124
2130
2136
2142
2148
2154
2160
2166
2172
2178
2184
2190
2196
2202
2208
2214
2220
2226
2232
2238
2244
2250
2256
2262
2268
2274
2280
2286
2292
2298
2304
2310
2316
2322
2328
2334
2340
2346
2352
2358
2364
2370
2376
2382
2388
2394
2400
2406
2412
2418
2424
2430
2436
2442
2448
2454
2460
2466
2472
2478
2484
2490
2496
2502
2508
2514
2520
2526
2532
2538
2544
2550
2556
2562
2568
2574
2580
2586
2592
2598
2604
2610
2616
2622
2628
2634
2640
2646
2652
2658
2664
2670
2676
2682
2688
2694
2700
2706
2712
2718
2724
2730
2736
2742
2748
2754
2760
2766
2772
2778
2784
2790
2796
2802
2808
2814
2820
2826
2832
2838
2844
2850
2856
2862
2868
2874
2880
2886
2892
2898
2904
2910
2916
2922
2928
2934
2940
2946
2952
2958
2964
2970
2976
2982
2988
2994
3000
3006
3012
3018
3024
3030
3036
3042
3048
3054
3060
3066
3072
3078
3084
3090
3096
3102
3108
3114
3120
3126
3132
3138
3144
3150
3156
3162
3168
3174
3180
3186
3192
3198
3204
3210
3216
3222
3228
3234
3240
3246
3252
3258
3264
3270
3276
3282
3288
3294
3300
3306
3312
3318
3324
3326
3328
3330
3332
3334
3336
3338
3340
3342
3344
3346
3348
3350
3352
3354
3356
3358
3360
3362
3364
3366
3368
3370
3372
3374
3376
3378
3380
3382
3384
3386
3388
3390
3392
3394
3396
3398
3400
3402
3404
3406
3408
3410
3412
3414
3416
3418
3420
3422
3424
3426
3428
3430
3432
3434
3436
3438
3440
3442
3444
3446
3448
3450
3452
3454
3456
3458
3460
3462
3464
3466
3468
3470
3472
3474
3476
3478
3480
3482
3484
3486
3488
3490
3492
3494
3496
3498
3500
3502
3504
3506
3508
3510
3512
3514
3516
3518
3520
3522
3524
3526
3528
3530
3532
3534
3536
3538
3540
3542
3544
3546
3548
3550
3552
3554
3556
3558
3560
3562
3564
3566
3568
3570
3572
3574
3576
3578
3580
3582
3584
3586
3588
3590
3592
3594
3596
3598
3600
3602
3604
3606
3608
3610
3612
3614
3616
3618
3620
3622
3624
3626
3628
3630
3632
3634
3636
3638
3640
3642
3644
3646
3648
3650
3652
3654
3656
3658
3660
3662
3664
3666
3668
3670
3672
3674
3676
3678
3680
3682
3684
3686
3688
3690
3692
3694
3696
3698
3700
3702
3704
3706
3708
3710
3712
3714
3716
3718
3720
3722
3724
3726
3728
3730
3732
3734
3736
3738
3740
3742
3744
3746
3748
3750
3752
3754
3756
3758
3760
3762
3764
3766
3768
3770
3772
3774
3776
3778
3780
3782
3784
3786
3788
3790
3792
3794
3796
3798
3800
3802
3804
3806
3808
3810
3812
3814
3816
3818
3820
3822
3824
3826
3828
3830
3832
3834
3836
3838
3840
3842
3844
3846
3848
3850
3852
3854
3856
3858
3860
3862
3864
3866
3868
3870
3872
3874
3876
3878
3880
3882
3884
3886
3888
3890
3892
3894
3896
3898
3900
3902
3904
3906
3908
3910
3912
3914
3916
3918
3920
3922
3924
3926
3928
3930
3932
3934
3936
3938
3940
3942
3944
3946
3948
3950
3952
3954
3956
3958
3960
3962
3964
3966
3968
3970
3972
3974
3976
3978
3980
3982
3984
3986
3988
3990
3992
3994
3996
3998
4000
4002
4004
4006
4008
4010
4012
4014
4016
4018
4020
4022
4024
4026
4028
4030
4032
4034
4036
4038
4040
4042
4044
4046
4048
4050
4052
4054
4056
4058
4060
4062
4064
4066
4068
4070
4072
4074
4076
4078
4080
4082
4084
4086
4088
4090
4092
4094
4096
4098
4100
4102
4104
4106
4108
4110
4112
4114
4116
4118
4120
4122
4124
4126
4128
4130
4132
4134
4136
4138
4140
4142
4144
4146
4148
4150
4152
4154
4156
4158
4160
4162
4164
4166
4168
4170
4172
4174
4176
4178
4180
4182
4184
4186
4188
4190
4192
4194
4196
4198
4200
4202
4204
4206
4208
4210
4212
4214
4216
4218
4220
4222
4224
4226
4228
4230
4232
4234
4236
4238
4240
4242
4244
4246
4248
4250
4252
4254
4256
4258
4260
4262
4264
4266
4268
4270
4272
4274
4276
4278
4280
4282
4284
4286
4288
4290
4292
4294
4296
4298
4300
4302
4304
4306
4308
4310
4312
4314
4316
4318
4320
4322
4324
4326
4328
4330
4332
4334
4336
4338
4340
4342
4344
4346
4348
4350
4352
4354
4356
4358
4360
4362
4364
4366
4368
4370
4372
4374
4376
4378
4380
4382
4384
4386
4388
4390
4392
4394
4396
4398
4400
4402
4404
4406
4408
4410
4412
4414
4416
4418
4420
4422
4424
4426
4428
4430
4432
4434
4436
4438
4440
4442
4444
4446
4448
4450
4452
4454
4456
4458
4460
4462
4464
4466
4468
4470
4472
4474
4476
4478
4480
4482
4484
4486
4488
4490
4492
4494
4496
4498
4500
4502
4504
4506
4508
4510
4512
4514
4516
4518
4520
4522
4524
4526
4528
4530
4532
4534
4536
4538
4540
4542
4544
4546
4548
4550
4552
4554
4556
4558
4560
4562
4564
4566
4568
4570
4572
4574
4576
4578
4580
4582
4584
4586
4588
4590
4592
4594
4596
4598
4600
4602
4604
4606
4608
4610
4612
4614
4616
4618
4620
4622
4624
4626
4628
4630
4632
4634
4636
4638
4640
4642
4644
4646
4648
4650
4652
4654
4656
4658
4660
4662
4664
4666
4668
4670
4672
4674
4676
4678
4680
4682
4684
4686
4688
4690
4692
4694
4696
4698
4700
4702
4704
4706
4708
4710
4712
4714
4716
4718
4720
4722
4724
4726
4728
4730
4732
4734
4736
4738
4740
4742
4744
4746
4748
4750
4752
4754
4756
4758
4760
4762
4764
4766
4768
4770
4772
4774
4776
4778
4780
4782
4784
4786
4788
4790
4792
4794
4796
4798
4800
4802
4804
4806
4808
4810
4812
4814
4816
4818
4820
4822
4824
4826
4828
4830
4832
4834
4836
4838
4840
4842
4844
4846
4848
4850
4852
4854
4856
4858
4860
4862
4864
4866
4868
4870
4872
4874
4876
4878
4880
4882
4884
4886
4888
4890
4892
4894
4896
4898
4900
4902
4904
4906
4908
4910
4912
4914
4916
4918
4920
4922
4924
4926
4928
4930
4932
4934
4936
4938
4940
4942
4944
4946
4948
4950
4952
4954
4956
4958
4960
4962
4964
4966
4968
4970
4972
4974
4976
4978
4980
4982
4984
4986
4988
4990
4992
4994
4996
4998
5000
5002
5004
5006
5008
5010
5012
5014
5016
5018
5020
5022
5024
5026
5028
5030
5032
5034
5036
5038
5040
5042
5044
5046
5048
5050
5052
5054
5056
5058
5060
5062
5064
5066
5068
5070
5072
5074
5076
5078
5080
5082
5084
5086
5088
5090
5092
5094
5096
5098
5100
5102
5104
5106
5108
5110
5112
5114
5116
5118
5120
5122
5124
5126
5128
5130
5132
5134
5136
5138
5140
5142
5144
5146
5148
5150
5152
5154
5156
5158
5160
5162
5164
5166
5168
5170
5172
5174
5176
5178
5180
5182
5184
5186
5188
5190
5192
5194
5196
5198
5200
5202
5204
5206
5208
5210
5212
5214
5216
5218
5220
5222
5224
5226
5228
5230
5232
5234
5236
5238
5240
5242
5244
5246
5248
5250
5252
5254
5256
5258
5260
5262
5264
5266
5268
5270
5272
5274
5276
5278
5280
5282
5284
5286
5288
5290
5292
5294
5296
5298
5300
5302
5304
5306
5308
5310
5312
5314
5316
5318
5320
5322
5324
5326
5328
5330
5332
5334
5336
5338
5340
5342
5344
5346
5348
5350
5352
5354
5356
5358
5360
5362
5364
5366
5368
5370
5372
5374
5376
5378
5380
5382
5384
5386
5388
5390
5392
5394
5396
5398
5400
5402
5404
5406
5408
5410
5412
5414
5416
5418
5420
5422
5424
5426
5428
5430
5432
5434
5436
5438
5440
5442
5444
5446
5448
5450
5452
5454
5456
5458
5460
5462
5464
5466
5468
5470
5472
5474
5476
5478
5480
5482
5484
5486
5488
5490
5492
5494
5496
5498
5500
5502
5504
5506
5508
5510
5512
5514
5516
5518
5520
5522
5524
5526
5528
5530
5532
5534
5536
5538
5540
5542
5544
5546
5548
5550
5552
5554
5556
5558
5560
5562
5564
5566
5568
5570
5572
5574
5576
5578
5580
5582
5584
5586
5588
5590
5592
5594
5596
5598
5600
5602
5604
5606
5608
5610
5612
      </DataArray>
      <DataArray type="UInt8" Name="types" format="ascii">
69
69
69
69
69
69
69
69
69
69
69
69
69
69
69
69
69
69
69
69
69
69
69
69
69
69
69
69
69
69
69
69
69
69
69
69
69
69
69
69
69
69
69
69
69
69
69
69
69
69
69
69
69
69
69
69
69
69
69
69
69
69
69
69
69
69
69
69
69
69
69
69
69
69
69
69
69
69
69
69
69
69
69
69
69
69
69
69
69
69
69
69
69
69
69
69
69
69
69
69
69
69
69
69
69
69
69
69
69
69
69
69
69
69
69
69
69
69
69
69
69
69
69
69
69
69
69
69
69
69
69
69
69
69
69
69
69
69
69
69
69
69
69
69
69
69
69
69
69
69
69
69
69
69
69
69
69
69
69
69
69
69
69
69
69
69
69
69
69
69
69
69
69
69
69
69
69
69
69
69
69
69
69
69
69
69
69
69
69
69
69
69
69
69
69
69
69
69
69
69
69
69
69
69
69
69
69
69
69
69
69
69
69
69
69
69
69
69
69
69
69
69
69
69
69
69
69
69
69
69
69
69
69
69
69
69
69
69
69
69
69
69
69
69
69
69
69
69
69
69
69
69
69
69
69
69
69
69
69
69
69
69
69
69
69
69
69
69
69
69
69
69
69
69
69
69
69
69
69
69
69
69
69
69
69
69
69
69
69
69
69
69
69
69
69
69
69
69
69
69
69
69
69
69
69
69
69
69
69
69
69
69
69
69
69
69
69
69
69
69
69
69
69
69
69
69
69
69
69
69
69
69
69
69
69
69
69
69
69
69
69
69
69
69
69
69
69
69
69
69
69
69
69
69
69
69
69
69
69
69
69
69
69
69
69
69
69
69
69
69
69
69
69
69
69
69
69
69
69
69
69
69
69
69
69
69
69
69
69
69
69
69
69
69
69
69
69
69
69
69
69
69
69
69
69
69
69
69
69
69
69
69
69
69
69
69
69
69
69
69
69
69
69
69
69
69
69
69
69
69
69
69
69
69
69
69
69
69
69
69
69
69
69
69
69
69
69
69
69
69
69
69
69
69
69
69
69
69
69
69
69
69
69
69
69
69
69
69
69
69
69
69
69
69
69
69
69
69
69
69
69
69
69
69
69
69
69
69
69
69
69
69
69
69
69
69
69
69
69
69
69
69
69
69
69
69
69
69
69
69
69
69
69
69
69
69
69
69
69
69
69
69
69
69
69
69
69
69
69
69
69
69
69
69
69
69
69
69
69
69
69
69
69
69
69
69
69
69
69
69
69
69
69
69
3
3
3
3
3
3
3
3
3
3
3
3
3
3
3
3
3
3
3
3
3
3
3
3
3
3
3
3
3
3
3
3
3
3
3
3
3
3
3
3
3
3
3
3
3
3
3
3
3
3
3
3
3
3
3
3
3
3
3
3
3
3
3
3
3
3
3
3
3
3
3
3
3
3
3
3
3
3
3
3
3
3
3
3
3
3
3
3
3
3
3
3
3
3
3
3
3
3
3
3
3
3
3
3
3
3
3
3
3
3
3
3
3
3
3
3
3
3
3
3
3
3
3
3
3
3
3
3
3
3
3
3
3
3
3
3
3
3
3
3
3
3
3
3
3
3
3
3
3
3
3
3
3
3
3
3
3
3
3
3
3
3
3
3
3
3
3
3
3
3
3
3
3
3
3
3
3
3
3
3
3
3
3
3
3
3
3
3
3
3
3
3
3
3
3
3
3
3
3
3
3
3
3
3
3
3
3
3
3
3
3
3
3
3
3
3
3
3
3
3
3
3
3
3
3
3
3
3
3
3
3
3
3
3
3
3
3
3
3
3
3
3
3
3
3
3
3
3
3
3
3
3
3
3
3
3
3
3
3
3
3
3
3
3
3
3
3
3
3
3
3
3
3
3
3
3
3
3
3
3
3
3
3
3
3
3
3
3
3
3
3
3
3
3
3
3
3
3
3
3
3
3
3
3
3
3
3
3
3
3
3
3
3
3
3
3
3
3
3
3
3
3
3
3
3
3
3
3
3
3
3
3
3
3
3
3
3
3
3
3
3
3
3
3
3
3
3
3
3
3
3
3
3
3
3
3
3
3
3
3
3
3
3
3
3
3
3
3
3
3
3
3
3
3
3
3
3
3
3
3
3
3
3
3
3
3
3
3
3
3
3
3
3
3
3
3
3
3
3
3
3
3
3
3
3
3
3
3
3
3
3
3
3
3
3
3
3
3
3
3
3
3
3
3
3
3
3
3
3
3
3
3
3
3
3
3
3
3
3
3
3
3
3
3
3
3
3
3
3
3
3
3
3
3
3
3
3
3
3
3
3
3
3
3
3
3
3
3
3
3
3
3
3
3
3
3
3
3
3
3
3
3
3
3
3
3
3
3
3
3
3
3
3
3
3
3
3
3
3
3
3
3
3
3
3
3
3
3
3
3
3
3
3
3
3
3
3
3
3
3
3
3
3
3
3
3
3
3
3
3
3
3
3
3
3
3
3
3
3
3
3
3
3
3
3
3
3
3
3
3
3
3
3
3
3
3
3
3
3
3
3
3
3
3
3
3
3
3
3
3
3
3
3
3
3
3
3
3
3
3
3
3
3
3
3
3
3
3
3
3
3
3
3
3
3
3
3
3
3
3
3
3
3
3
3
3
3
3
3
3
3
3
3
3
3
3
3
3
3
3
3
3
3
3
3
3
3
3
3
3
3
3
3
3
3
3
3
3
3
3
3
3
3
3
3
3
3
3
3
3
3
3
3
3
3
3
3
3
3
3
3
3
3
3
3
3
3
3
3
3
3
3
3
3
3
3
3
3
3
3
3
3
3
3
3
3
3
3
3
3
3
3
3
3
3
3
3
3
3
3
3
3
3
3
3
3
3
3
3
3
3
3
3
3
3
3
3
3
3
3
3
3
3
3
3
3
3
3
3
3
3
3
3
3
3
3
3
3
3
3
3
3
3
3
3
3
3
3
3
3
3
3
3
3
3
3
3
3
3
3
3
3
3
3
3
3
3
3
3
3
3
3
3
3
3
3
3
3
3
3
3
3
3
3
3
3
3
3
3
3
3
3
3
3
3
3
3
3
3
3
3
3
3
3
3
3
3
3
3
3
3
3
3
3
3
3
3
3
3
3
3
3
3
3
3
3
3
3
3
3
3
3
3
3
3
3
3
3
3
3
3
3
3
3
3
3
3
3
3
3
3
3
3
3
3
3
3
3
3
3
3
3
3
3
3
3
3
3
3
3
3
3
3
3
3
3
3
3
3
3
3
3
3
3
3
3
3
3
3
3
3
3
3
3
3
3
3
3
3
3
3
3
3
3
3
3
3
3
3
3
3
3
3
3
3
3
3
3
3
3
3
3
3
3
3
3
3
3
3
3
3
3
3
3
3
3
3
3
3
3
3
3
3
3
3
3
3
3
3
3
3
3
3
3
3
3
3
3
3
3
3
3
3
3
3
3
3
3
3
3
3
3
3
3
3
3
3
3
3
3
3
3
3
3
3
3
3
3
3
3
3
3
3
3
3
3
3
3
3
3
3
3
3
3
3
3
3
3
3
3
3
3
3
3
3
3
3
3
3
3
3
3
3
3
3
3
3
3
3
3
3
3
3
3
3
3
3
3
3
3
3
3
3
3
3
3
3
3
3
3
3
3
3
3
3
3
3
3
3
3
3
3
3
3
3
3
3
3
3
3
3
3
3
3
3
3
3
3
3
3
3
3
3
3
3
3
3
3
3
3
3
3
3
3
3
3
3
3
3
3
3
3
3
3
3
3
3
3
3
3
3
3
3
3
3
3
3
3
3
3
3
3
3
3
3
3
3
3
3
3
3
3
3
3
3
3
3
3
3
3
3
3
3
3
      </DataArray>
    </Cells>
    <PointData>
      <DataArray type="Float64" NumberOfComponents="2" Name="Displacement" format="ascii">
-0.000203457 -0.0788444
0.000320187 -0.0790398
-3.23632e-05 -0.07873
8.89615e-05 -0.0786181
0.000153741 -0.0785412
0.000198732 -0.0784771
0.000225672 -0.0784296
0.000242405 -0.0783962
0.000247938 -0.0783681
0.000246547 -0.0783481
0.000238204 -0.0783356
0.000224966 -0.0783294
0.000206685 -0.0783243
0.000185076 -0.0783231
0.000160422 -0.0783258
0.000134016 -0.0783316
0.000106047 -0.0783371
7.77433e-05 -0.0783451
4.97435e-05 -0.0783558
2.29194e-05 -0.0783695
-1.76158e-06 -0.0783834
-2.37917e-05 -0.0784012
-4.20906e-05 -0.0784234
-5.595e-05 -0.078451
-6.32524e-05 -0.0784812
-6.43098e-05 -0.0785199
-5.66893e-05 -0.0785685
-3.97115e-05 -0.0786289
-2.05357e-06 -0.0786961
5.2196e-05 -0.078786
0.00015457 -0.07891
-0.00128381 -0.0787186
-0.00103217 -0.0787251
-0.000782256 -0.0787399
-0.000523652 -0.0787769
-0.0220487 -0.0994694
-0.00152907 -0.0787226
-0.00177534 -0.0787316
-0.00213508 -0.0787512
-0.00249881 -0.0787793
-0.00302794 -0.0788345
-0.00356479 -0.0789061
-0.00435399 -0.07904
-0.00515479 -0.079209
-0.00632735 -0.0795177
-0.00750971 -0.0799006
-0.00836342 -0.0802226
-0.00921374 -0.0805834
-0.010056 -0.0809851
-0.0108868 -0.0814232
-0.0120602 -0.0821202
-0.0131953 -0.0828873
-0.0142802 -0.083721
-0.0116627 -0.109872
-0.0218584 -0.101421
-0.0214482 -0.103156
-0.0208736 -0.104657
-0.0201694 -0.105927
-0.0193856 -0.106986
0.0143098 -0.0687791
-0.00976646 -0.109598
-0.00750638 -0.108885
-0.00485701 -0.107663
0 0
-0.00551346 -0.00500717
-0.0078037 -0.00832488
-0.00813973 -0.0110095
-0.00681572 -0.0142783
-0.00498142 -0.0174383
-6.79866e-05 -0.0748001
0 0
0 0
0 0
0 0
0.00432738 -0.0724559
0.00870472 -0.0638996
0.0113493 -0.0460306
-0.0141694 -0.0689457
0.00553446 -0.00499928
0.00783674 -0.00835332
0.00817801 -0.0110542
0.00685796 -0.0143372
0.00502352 -0.0174991
0.0116931 -0.109959
0.00979634 -0.109683
0.00754992 -0.108968
0.00489214 -0.107761
0.0220331 -0.0996073
0.0131936 -0.110008
0.0144858 -0.109852
0.0156354 -0.109581
0.0166648 -0.109163
0.0176283 -0.108639
0.00136229 -0.0789195
0.0219661 -0.0975519
0.0216084 -0.095358
0.0209264 -0.0930727
0.019907 -0.09076
0.0189961 -0.0891818
0.0179243 -0.087644
0.0166929 -0.0861752
0.0153195 -0.0847928
0.0142908 -0.0839031
0.0132092 -0.0830726
0.0120775 -0.0823079
0.0109075 -0.0816129
0.00924178 -0.0807793
0.00754402 -0.0800923
0.00636633 -0.0797138
0.00520138 -0.079409
0.00440416 -0.0792403
0.00111811 -0.0789286
0.000875241 -0.0789454
0.000619055 -0.0789824
-0.00150873 -0.0762971
0.0066012 -0.0759531
0.00521785 -0.0731905
0.00877036 -0.0592534
-0.0088737 -0.062782
-0.00138627 -0.0822949
-0.0027038 -0.0750678
-0.00628697 -0.0929867
-0.00101779 -0.0799591
-0.0181685 -0.0961172
-0.00584996 -0.0106528
0.00574747 -0.0108538
-0.00953157 -0.0890871
-0.00340645 -0.0812474
-0.0010264 -0.0843358
-0.00143162 -0.0842096
0.000559121 -0.0839576
-0.00190047 -0.0841011
0.00154415 -0.0845019
0.00087946 -0.0818316
-0.000335894 -0.0830099
0.000240217 -0.0833297
-0.00120079 -0.0818424
-0.00276916 -0.0845238
-0.00393977 -0.0853845
-0.00265986 -0.0856544
0.00133279 -0.0778251
-0.00104821 -0.0779063
-0.00175901 -0.0778934
0.00160279 -0.0852554
0.0024943 -0.0850636
-0.00298013 -0.080076
0.00284854 -0.0799499
-0.00026703 -0.0839948
0.000931335 -0.0825916
0.00236816 -0.080788
-0.00272524 -0.0806546
0.000233179 -0.0838938
0.00114818 -0.0780052
-0.000299715 -0.0779727
-0.0011912 -0.0781014
-0.00163543 -0.0833325
0.00234916 -0.0843393
0.00253521 -0.078255
0.00247148 -0.0794725
0.000406843 -0.0818185
-0.00079318 -0.0823493
0.00092654 -0.082851
-0.000268233 -0.0823333
-0.00260211 -0.0796565
-0.00256643 -0.0783641
-0.00366373 -0.0844732
-0.00428478 -0.0868356
0.00317399 -0.0771543
0.00126261 -0.0774119
-0.000600779 -0.0777816
-0.00283464 -0.0777632
-0.00555052 -0.0884073
-0.00491421 -0.0887746
0.00411554 -0.0877413
0.00384549 -0.0864121
0.00477942 -0.0860056
0.00464738 -0.0852489
-0.00388561 -0.0770875
-0.003927 -0.078792
0.00373251 -0.0787167
0.00545896 -0.0763064
-0.00253599 -0.0867642
0.000430066 -0.083537
0.00325871 -0.0801052
-0.00038578 -0.0835001
0.00372734 -0.0880576
0.00137404 -0.0781173
0.000868733 -0.0779902
6.95386e-05 -0.0780346
0.000411545 -0.0779956
-0.000253081 -0.0781388
-0.000655236 -0.0781896
-0.000416963 -0.0781863
-0.00113742 -0.0782387
-0.00161893 -0.0826709
-0.00293829 -0.0833527
0.0037892 -0.0840545
0.00204651 -0.0832684
0.00152412 -0.0782312
0.00179465 -0.0783422
0.00227623 -0.0786786
0.00215411 -0.0791623
0.00128306 -0.0803588
0.000380022 -0.0813269
-0.000458263 -0.0815414
-0.00135321 -0.0805772
-0.00225106 -0.0793517
-0.002287 -0.0788707
-0.0016778 -0.0784511
-0.00134049 -0.0783355
-0.00412637 -0.0840814
-0.00652387 -0.0877177
0.00461078 -0.0753199
-0.000327472 -0.0773042
-0.00256638 -0.0769303
-0.0078918 -0.0914801
0.00676063 -0.0909153
0.00605416 -0.0872786
0.00493205 -0.0844155
-0.00606349 -0.0760075
0.00717881 -0.074794
-0.00420756 -0.0892814
0.00435608 -0.078898
-0.00787277 -0.0737846
-0.00346031 -0.0800147
0.00115691 -0.0854738
0.00100189 -0.078228
0.000709023 -0.078131
0.000257587 -0.0781533
-0.000120184 -0.0782276
-0.000409207 -0.0782771
-0.000740491 -0.0783599
-0.00204654 -0.0823405
0.00229821 -0.0825939
0.00129868 -0.0784865
0.00137507 -0.0791785
0.000251657 -0.0807065
-0.000322198 -0.0808842
-0.00133042 -0.0793594
-0.00111444 -0.078616
-0.0039735 -0.0822177
-0.0048588 -0.0833016
-0.00556619 -0.0845395
-0.00759908 -0.0863831
-0.0120817 -0.0923386
-0.0113977 -0.0941004
0.00825823 -0.0670747
0.00163914 -0.0755635
-0.00674482 -0.0710381
-0.0104048 -0.0951509
0.00989539 -0.0949677
0.00976503 -0.0925558
0.00908953 -0.0898157
0.00784122 -0.0873445
0.00581643 -0.0842526
0.00545905 -0.0828538
-0.00827507 -0.0712759
0.00935517 -0.0694568
-0.00885301 -0.0950775
-0.00223879 -0.0879304
0.00863215 -0.0722577
0.00596563 -0.0927702
0.00985246 -0.097125
-0.00580322 -0.0770848
0.00147815 -0.0861596
0.000727034 -0.0783625
0.000851156 -0.0784713
0.000578276 -0.0782397
0.000697649 -0.0782721
0.000319601 -0.0782282
0.000462994 -0.0782203
1.46122e-05 -0.0782747
0.000152199 -0.0782534
-0.000188688 -0.0783332
-7.77445e-05 -0.0783102
-0.000436477 -0.0783901
-0.00031916 -0.0783486
-0.000623028 -0.0785845
-0.000501452 -0.0784697
-0.000633624 -0.0809672
-0.00148223 -0.081491
-0.00282681 -0.0820053
0.00368413 -0.0819115
0.00278459 -0.0819963
0.0010901 -0.0814444
0.000402218 -0.0811185
0.00102744 -0.0786727
0.00101161 -0.0789543
0.000731883 -0.0795803
0.000356441 -0.0800402
-0.000521413 -0.0802151
-0.000738276 -0.0797597
-0.000923627 -0.07911
-0.000824487 -0.0787993
-0.0040026 -0.0806155
-0.00547321 -0.0824594
-0.00863473 -0.0849017
-0.0123502 -0.0896593
-0.0149124 -0.0958333
0.00516774 -0.0434366
0.00443603 -0.0713913
0.000288874 -0.0755053
-0.00326451 -0.0736216
-0.00608226 -0.0468751
-0.013285 -0.099763
0.0136472 -0.100227
0.0125445 -0.0922993
0.0075795 -0.085323
0.00509408 -0.0813905
0.000705354 -0.0191517
-0.00767102 -0.0545174
-0.00116466 -0.0183297
0.00661186 -0.0515626
-0.00784037 -0.0976426
0.00660305 -0.0753388
0.0114054 -0.0651651
0.00993202 -0.10003
-0.0110422 -0.0671909
-0.00319854 -0.080048
0.000498784 -0.0784596
0.000415547 -0.0783278
0.000289333 -0.0782956
0.000115172 -0.078316
-5.48963e-05 -0.0783563
-0.000195413 -0.0784224
-0.000292437 -0.0785657
-0.00133514 -0.080642
-0.00280976 -0.0805731
0.00240255 -0.0807631
0.000801467 -0.080626
0.000502958 -0.0788479
1.06144e-06 -0.0796814
-0.000520703 -0.0797623
0.000428342 -0.0800579
-0.00013874 -0.079851
-0.000354566 -0.0789587
-0.00252558 -0.0797504
0.00253825 -0.080135
-0.00427143 -0.0795832
-0.00486241 -0.0803314
-0.00601937 -0.0807095
-0.00687455 -0.0819121
-0.00878994 -0.0826167
-0.0105258 -0.0844626
-0.012618 -0.0862263
-0.015019 -0.0891234
-0.0173694 -0.0920785
0.00394815 -0.0459849
0.00152107 -0.0693076
-0.00142899 -0.0709846
-0.00378246 -0.0495299
-0.0181333 -0.0995827
-0.0174105 -0.102386
-0.0162793 -0.104603
-0.0152209 -0.10684
-0.0120178 -0.105376
0.0127176 -0.106054
0.0153007 -0.106735
0.0165921 -0.104894
0.0175151 -0.102228
0.0181403 -0.0987447
0.0167986 -0.0944592
0.0151527 -0.0902822
0.0133953 -0.0866856
0.0104353 -0.0847156
0.00887764 -0.0820215
0.00721626 -0.0812379
0.00603919 -0.0808552
0.00424599 -0.0800337
0.00555046 -0.0193093
-5.30021e-05 -0.034899
-0.00602691 -0.0511882
-0.00562727 -0.0189212
0.00495264 -0.0481628
-0.000161733 -0.0339034
-0.00833697 -0.103457
-0.00380302 -0.101673
0.00648184 -0.0776369
0.00951176 -0.104192
-0.00227843 -0.0839791
0.00554374 -0.10078
0.000251896 -0.0786014
0.000234953 -0.0787137
0.000284201 -0.0784873
0.00030451 -0.0783979
0.000298233 -0.0784372
0.000302543 -0.0783492
0.000269171 -0.0783264
0.000288177 -0.078336
0.000219595 -0.0783212
0.000157301 -0.0783269
0.000189537 -0.0783236
8.99854e-05 -0.0783408
2.18748e-05 -0.0783596
5.58251e-05 -0.07835
-3.7517e-05 -0.0783849
-9.13071e-05 -0.0784217
-6.58349e-05 -0.0784023
-0.000124715 -0.0784725
-0.000140464 -0.0785516
-0.000135611 -0.0785091
-0.000119588 -0.0786651
-7.29828e-05 -0.0788479
-0.000100358 -0.0787463
-0.00294988 -0.0793448
-0.00348621 -0.07942
0.00346818 -0.0798628
0.00293636 -0.0797805
-0.00194577 -0.0803629
-0.00110662 -0.0794477
0.00163369 -0.080346
0.00113936 -0.0802675
0.00123972 -0.0797201
9.27066e-05 -0.0790692
-2.08389e-05 -0.0792756
0.000110113 -0.0795282
-2.72554e-05 -0.0792425
-0.00207028 -0.0792179
0.00215733 -0.0793869
-0.00146319 -0.0791789
-0.00171203 -0.0791892
0.00180293 -0.0793581
0.00155738 -0.0793474
-0.00090227 -0.0790483
-0.000392844 -0.079065
-0.000656734 -0.0790532
0.00102207 -0.0793565
0.000782728 -0.0793522
0.000540036 -0.0793514
0.000740335 -0.0796784
-0.000564596 -0.0792954
0.00176241 -0.0797474
-0.00165591 -0.0796024
-0.000363663 -0.0793948
0.000394715 -0.0792411
0.00154284 -0.0808761
-0.00226061 -0.0811058
0.00333385 -0.0805515
-0.00341436 -0.0799044
-0.000330787 -0.0787101
-0.000246745 -0.0784799
-0.000129267 -0.0783847
2.76288e-05 -0.0783355
0.00020562 -0.0783019
0.000362115 -0.0783023
0.000449851 -0.078384
0.000566551 -0.0786039
0.0062895 -0.0958677
-0.0027523 -0.0915472
-0.000551104 -0.0316791
-0.000196176 -0.0334923
0.00692431 -0.08228
0.0108111 -0.0881589
0.0140402 -0.0969026
0.0132366 -0.102883
-0.0116465 -0.100768
-0.0143021 -0.0981229
-0.00674858 -0.0641968
0.00717591 -0.0600139
-0.0150547 -0.0931108
-0.0101465 -0.0869068
-0.00636761 -0.0836006
-0.00460793 -0.0813334
0.000145247 -0.0803652
-0.000484737 -0.0801903
-0.00990702 -0.0666827
0.0102501 -0.0643877
0.00106108 -0.0752063
-0.00139327 -0.078858
-0.0011339 -0.0800223
0.00108691 -0.07983
0.00152435 -0.0786934
0.000689587 -0.0818753
0.00410148 -0.0832
-0.00341982 -0.0829229
-0.000796341 -0.081714
-0.00086097 -0.0784649
-0.000602548 -0.0782925
-0.000235323 -0.0782691
2.58831e-05 -0.0781859
0.000507671 -0.0781241
0.000890452 -0.0781595
0.00108529 -0.0783463
-0.00206282 -0.0816843
0.00549147 -0.0907772
-0.00126092 -0.0858415
-0.00643575 -0.0911429
0.00740455 -0.0728086
-0.00504617 -0.0751711
0.00579465 -0.0856584
0.00661096 -0.089272
-0.00151997 -0.0776736
0.00173002 -0.0765526
-0.00883292 -0.0906816
-0.0048711 -0.08526
-0.00444641 -0.0787242
0.00425831 -0.0787411
-0.00180628 -0.0781582
-0.00324664 -0.0786289
-0.00154556 -0.0810203
0.00146297 -0.0807924
0.00307543 -0.078478
0.00195595 -0.0780706
0.00354095 -0.0847794
-0.00250163 -0.0836827
-0.000635153 -0.0780869
0.000162289 -0.0778512
0.00131183 -0.0852155
0.00175051 -0.0819117
0.00191174 -0.0852259
-0.00229361 -0.0858296
0.00122179 -0.0837822
-0.000809824 -0.0829268
-0.000721786 -0.082703
0.000122306 -0.0829698
-0.00307409 -0.0853471
-0.00670984 -0.0782649
0.00182156 -0.105689
-0.00324446 -0.0919019
0.00123077 -0.0963681
0.000118112 -0.104302
0.0023871 -0.0904641
-0.0017871 -0.105612
0.00975435 -0.0740827
0.00473942 -0.0864445
-6.38048e-05 -0.104209
0.00034245 -0.0941999
0.00221804 -0.0843219
0.00227675 -0.0407694
0.00559746 -0.047416
0.00298295 -0.0391934
0.00916019 -0.0563596
-0.0027036 -0.0213169
-2.99013e-06 -0.0260469
0.000873253 -0.0335719
-0.000578311 -0.0331771
0.00177542 -0.0397062
-0.0031926 -0.0257474
-0.00171299 -0.0274258
-0.00456567 -0.0206218
0.00295384 -0.0318019
0.00522987 -0.0370806
-0.00636055 -0.0165394
-0.00342843 -0.0248627
-0.00291663 -0.0428424
-0.00305432 -0.0399004
-0.00610796 -0.0494583
-0.000930777 -0.0342017
0.00273671 -0.02138
1.79069e-05 -0.0261296
-0.00990669 -0.0587824
-0.00264961 -0.0421076
8.7919e-05 -0.0345778
0.00305672 -0.0264121
0.00456677 -0.0208953
0.00166786 -0.027956
0.00636025 -0.0167526
-0.0029457 -0.0319106
-0.00521093 -0.0372207
0.00306952 -0.0259068
-0.00236688 -0.0633096
0.0018302 -0.0680933
0.00206393 -0.0580635
0.000908884 -0.0744082
0 0
0 0
-0.00197824 -0.0297083
-0.00565956 -0.0577608
-0.00421125 -0.067696
0.00255967 -0.0607935
-0.00199366 -0.0566111
-0.0020392 -0.0669583
0.00209866 -0.0269894
0 0
-0.0112062 -0.045862
-0.00115095 -0.0739786
0.00467876 -0.0647523
0.00583088 -0.0536068
-0.0079319 -0.0735773
-0.00806391 -0.0738637
-0.00280863 -0.080874
-0.012298 -0.0674818
0.00187282 -0.0873816
-0.00859686 -0.0725725
-0.0102535 -0.0681668
0.0103648 -0.0698494
0.00661981 -0.0758504
0.0109585 -0.0701385
0.00185133 -0.0824021
0.0124568 -0.0659774
0.0108457 -0.0653263
0.00977534 -0.0702227
0.00943897 -0.0596942
0.00961019 -0.0593572
0.00578172 -0.0502695
0.0030005 -0.0417909
0.00890863 -0.058542
-0.00967699 -0.0611705
-0.00689001 -0.0531486
-0.010291 -0.0615187
-0.00411715 -0.0444959
-0.00941618 -0.0613099
-0.0029865 -0.033773
-0.00586753 -0.0463227
-0.00327509 -0.0314118
-0.00735615 -0.0560698
0.00108691 -0.010679
0.0005078 -0.026662
-0.00349318 -0.0398701
-0.00119003 -0.0751193
-0.000971509 -0.0747358
-0.00290019 -0.0724687
-8.16345e-05 -0.0754753
-0.00520471 -0.0700911
-0.00123842 -0.0751896
0.000672447 -0.0752909
0.00212751 -0.0741197
0.00346204 -0.0703495
0.00130243 -0.0737714
0.00606043 -0.0668113
0.00294344 -0.0739938
0.00206292 -0.0312195
0.00272276 -0.0287436
0.00540545 -0.042722
-0.00128872 -0.0103572
0.00704141 -0.0518735
0.00248107 -0.0373132
-0.00112435 -0.0253627
-0.00826386 -0.073171
-0.00585193 -0.0767315
-0.00256212 -0.0810509
-0.00395872 -0.0794748
0.0100184 -0.0685687
0.00633521 -0.075752
0.00228934 -0.0811524
0.00257619 -0.0807955
-0.00920066 -0.0705899
-0.00707027 -0.0752756
-0.005135 -0.078041
-0.00625789 -0.0764942
-0.00706238 -0.0750335
-0.00733011 -0.0739417
-0.00834935 -0.0722644
-0.005794 -0.0754303
-0.00683784 -0.0735595
-0.00927887 -0.0689434
-0.00557399 -0.077113
0.00749162 -0.0736498
0.00653981 -0.0747354
0.00635989 -0.0756589
0.00519696 -0.0772581
0.00431507 -0.0775194
0.00586422 -0.0768023
-0.00454829 -0.0762037
-0.00501813 -0.0766572
-0.00468791 -0.0775318
-0.00377319 -0.0777228
-0.0038065 -0.0762403
-0.00330163 -0.0769868
-0.00266617 -0.0774663
-0.00203775 -0.0773516
0.00150942 -0.0770267
0.000648434 -0.0770066
0.000518158 -0.0773678
-3.87865e-05 -0.0776053
-0.000994481 -0.0775023
0.000650685 -0.077656
0.0043397 -0.0768223
0.00523453 -0.0756965
0.00393536 -0.0763441
0.00608797 -0.0742749
0.00316733 -0.076057
0.0026009 -0.0768305
0.00334864 -0.0776571
0.00222053 -0.0772878
0.00134892 -0.0776271
0.0016876 -0.0779101
0.000763205 -0.0778317
0.00219364 -0.0775603
0.00261754 -0.0776646
0.00363613 -0.00552524
0.00358375 -0.0141452
0.00277939 -0.00736116
0.00380919 -0.0207934
0 0
0 0
0.00446271 -0.00447118
0.00760704 -0.0123229
0.00611069 -0.0153751
0.00686963 -0.00895857
-0.00751653 -0.0436184
-0.00911209 -0.0474044
-0.00690067 -0.0088776
-0.00621705 -0.015072
-0.00760867 -0.0121874
-0.00417992 -0.0198976
0.00754742 -0.0434303
0.00911526 -0.0471546
-0.00449145 -0.00445162
-0.00288461 -0.00723595
-0.00384285 -0.0137541
-0.00366383 -0.00547112
-0.00879599 -0.0638021
-0.00444446 -0.0723826
-0.00485408 -0.0735777
-0.00313263 -0.0743749
-0.00510651 -0.0722385
-0.000775759 -0.0754017
-0.00699354 -0.0679922
-0.00606112 -0.0733011
-0.00402806 -0.0749637
-0.0082003 -0.0673159
-0.00893811 -0.0674988
-0.00771785 -0.0707785
-0.00948002 -0.0643221
-0.00806142 -0.0627228
-0.00664907 -0.050399
-0.00870354 -0.0587062
-0.00795162 -0.0558618
0.00726203 -0.0521121
0.00803446 -0.0555442
0.00562991 -0.0472517
0.00945755 -0.0613977
0.00817658 -0.0586183
0.00905195 -0.067639
0.00956111 -0.0647775
0.00886601 -0.0633178
0.00996258 -0.0669795
0.00787007 -0.0637101
0.00805261 -0.0701235
0.00854771 -0.071185
0.0050367 -0.0742041
0.00349875 -0.0747066
0.0032732 -0.0753813
0.0031815 -0.0743668
0.00138973 -0.0752799
0.0017265 -0.075977
0.0065276 -0.072721
0.00658835 -0.0689628
0.00503789 -0.072209
0.00695397 -0.0706849
0.00841187 -0.0727579
0.00761591 -0.0742632
0.00927704 -0.0705637
0.00468213 -0.078272
0.00840436 -0.0724668
0.00705328 -0.0752405
0.00539933 -0.0775756
-0.00086723 -0.0768594
-0.0021011 -0.0766245
-0.00141578 -0.0771811
-0.00333614 -0.0759242
0.000188619 -0.0765309
-0.000546893 -0.0756781
-0.00213673 -0.0756641
1.50895e-05 -0.0760288
0.000960487 -0.0985687
-0.00185125 -0.09833
-0.00136574 -0.101882
-0.00149486 -0.0924053
-0.00356161 -0.0966115
-0.00287814 -0.103663
0.00173765 -0.102463
0.00371229 -0.100283
0.00265922 -0.0956282
0.00325307 -0.0849625
0.00106395 -0.0892512
0.00237101 -0.0907304
-0.000475866 -0.0882709
0.00512453 -0.0924827
0.00540142 -0.0818082
0.0041988 -0.0812354
0.0114812 -0.0610896
0.0107282 -0.0516426
0.00954495 -0.0548427
0.0067303 -0.0521505
0.00808721 -0.0500739
0.0120948 -0.0578861
-0.0107136 -0.0519263
-0.0119842 -0.0627384
-0.00984845 -0.0563845
-0.00838387 -0.0515228
-0.00761536 -0.0548687
-0.0119089 -0.0581574
-0.0103752 -0.0707956
-0.0105179 -0.0717152
-0.00754725 -0.075232
-0.0132753 -0.0677198
-0.0100186 -0.0741497
-0.00435294 -0.0813379
-0.00517894 -0.0784703
-0.0103608 -0.0700456
-0.0115997 -0.0672175
-6.35583e-05 -0.0855552
0.00215737 -0.0886091
-0.000304654 -0.0843475
0.00444707 -0.0933622
0.00423031 -0.0916265
-0.000682766 -0.0834786
-0.00305587 -0.080253
-0.00254298 -0.081932
0.000222393 -0.0874798
-0.00839578 -0.0728923
-0.00952504 -0.0705048
-0.00956997 -0.0707347
-0.00963727 -0.0696121
-0.0101186 -0.0672653
-0.0106095 -0.067635
-0.00981074 -0.0705287
-0.00557338 -0.0768741
-0.00682943 -0.0752468
0.00405162 -0.0793327
0.00199634 -0.0830312
0.00435669 -0.0798244
-0.000621355 -0.0869774
0.00658477 -0.0764659
0.00664882 -0.0754332
0.00430077 -0.0785952
0.010617 -0.071412
0.0124928 -0.0688873
0.0121066 -0.0681095
0.0119835 -0.0715708
0.0135062 -0.0667534
0.0118891 -0.0654868
0.0117694 -0.0674009
0.00902723 -0.0733255
0.00804563 -0.0759907
0.0109976 -0.0674643
0.0106022 -0.067873
0.0100497 -0.0699924
0.0105203 -0.0647588
0.0104438 -0.067234
0.00856061 -0.072503
0.00857874 -0.0726245
0.0113005 -0.0675778
0.011101 -0.065205
0.0111508 -0.0625742
0.0113837 -0.0621426
0.00943155 -0.0584302
0.00716439 -0.0537188
0.0108617 -0.0625865
0.0105258 -0.0623827
0.0104166 -0.0626713
0.0100785 -0.062251
0.00786332 -0.0554906
-0.0102142 -0.0607573
-0.012068 -0.0640756
-0.0115427 -0.0643377
-0.0111098 -0.0646374
-0.00818108 -0.0565354
-0.0106238 -0.0641165
-0.010443 -0.0648944
-0.00858353 -0.0577594
-0.0100554 -0.0641238
-0.00466319 -0.0782041
-0.00288936 -0.0805461
-0.00420284 -0.0789547
-0.00435151 -0.0788935
-0.00232792 -0.0814
-0.00586067 -0.0768818
0.00210142 -0.0815706
-2.56175e-05 -0.0844769
-0.000339043 -0.0853609
0.000418615 -0.0836406
-0.00172385 -0.0867118
-0.00254824 -0.089399
0.00433925 -0.078372
0.00442894 -0.0783455
0.00245887 -0.0809009
0.00443601 -0.0782513
0.000652608 -0.0832793
0.00648145 -0.0754931
0.00773744 -0.0737977
0.00546892 -0.0770916
0.00146698 -0.0822509
0.00371891 -0.0794039
0.00582485 -0.0769266
0.00684875 -0.0753009
-0.00035762 -0.084553
0.00259957 -0.0808931
0.00316887 -0.0802872
0.00116808 -0.0826383
-0.000610315 -0.0834458
0.0012801 -0.0857625
-0.00066482 -0.0833685
0.00355086 -0.0886539
0.00333363 -0.0880867
-0.000536299 -0.0834591
-0.000746832 -0.0832774
0.00207143 -0.0929417
0.00353874 -0.0987191
0.00419604 -0.0958546
0.0015899 -0.101571
0.00394956 -0.103117
0.00609008 -0.098041
-0.000243617 -0.0904407
-0.00246101 -0.0979673
-5.95788e-05 -0.0994713
-0.000830943 -0.0942633
-0.00171854 -0.102523
-0.00241628 -0.0873526
-0.00438805 -0.0948478
-0.0036443 -0.100397
-0.00762582 -0.0827812
-0.00617404 -0.0906111
-0.0046715 -0.0855181
-0.0057242 -0.0976402
-0.00804543 -0.0942193
0.0076597 -0.1026
0.00665853 -0.105523
0.00869741 -0.106605
-0.0106145 -0.0896368
-0.012363 -0.0823178
0.0107379 -0.107606
0.00808526 -0.100334
0.00937735 -0.0818425
0.00684662 -0.0811138
0.00695463 -0.0875666
0.00573353 -0.097562
0.00804595 -0.0941556
-0.00630328 -0.102525
-0.00803954 -0.106342
-0.0057859 -0.105912
-0.0101859 -0.107362
0.0104194 -0.0896411
0.01264 -0.0824189
-0.00588015 -0.0983456
0.0119177 -0.0857022
0.0132774 -0.0849332
0.0117904 -0.0839689
0.0143322 -0.0857935
0.00361997 -0.0791066
0.00308721 -0.0790359
0.0106434 -0.083228
0.0105899 -0.0864884
0.0120625 -0.0875094
0.0142729 -0.0885052
0.0164825 -0.08907
0.0156604 -0.0872178
0.0175257 -0.0906147
0.00256385 -0.0789821
0.00220451 -0.0789534
0.0129927 -0.0892639
0.0174859 -0.0966575
0.0197473 -0.0972251
0.0192153 -0.0950348
0.0201069 -0.0992992
0.00184904 -0.0789331
0.00160529 -0.0789239
0.018247 -0.0927775
0.0153025 -0.0958365
0.0161103 -0.0979546
0.0177849 -0.100547
0.0195016 -0.102934
0.0199555 -0.101225
0.0190014 -0.104384
0.0185276 -0.107948
0.0193808 -0.107096
0.0159047 -0.0996887
0.0159288 -0.105815
0.0169687 -0.107547
0.0176877 -0.106661
0.0160654 -0.108154
0.0201626 -0.106044
0.0208643 -0.104777
0.0184124 -0.105674
0.0149369 -0.104047
0.0143587 -0.104972
0.0140345 -0.106431
0.0137204 -0.108306
0.0149649 -0.1084
0.0123193 -0.108101
0.0214366 -0.103283
0.0218442 -0.10155
0.0130204 -0.10441
-0.0136747 -0.106202
-0.0149094 -0.108399
-0.0134013 -0.108038
-0.0160146 -0.108144
-0.0185291 -0.107842
-0.0176259 -0.108538
-0.011965 -0.107811
-0.0119252 -0.103023
-0.0136345 -0.104187
-0.0157426 -0.105719
-0.0175486 -0.106497
-0.0169209 -0.107533
-0.018267 -0.105506
-0.0166571 -0.109067
-0.0156236 -0.109486
-0.0140451 -0.103009
-0.0177363 -0.101028
-0.0199252 -0.101553
-0.0194392 -0.102955
-0.0200685 -0.099655
-0.0144671 -0.109758
-0.0131743 -0.109917
-0.0189448 -0.1044
-0.0159562 -0.100365
-0.0162219 -0.0989848
-0.0162119 -0.0906168
-0.0164376 -0.0883716
-0.0175974 -0.0898724
-0.0151201 -0.0869607
-0.0153114 -0.0846143
-0.0166884 -0.0859977
-0.0186122 -0.091397
-0.016183 -0.0926512
-0.0149965 -0.0911826
-0.0115736 -0.0853437
-0.0118322 -0.0837427
-0.0128761 -0.0846233
-0.0106815 -0.0830008
-0.0179247 -0.0874714
-0.0189996 -0.089011
-0.013936 -0.0854864
-0.0113607 -0.0866191
-0.0103117 -0.08573
-0.0199151 -0.0905951
-0.00982134 -0.082061
-0.00898968 -0.0816326
-0.00813687 -0.0812724
-0.00754862 -0.0831776
-0.0209356 -0.0929144
-0.00806168 -0.0734879
-0.00523308 -0.0775622
-0.00570434 -0.0766604
0.011466 -0.103298
0.00982789 -0.101959
0.011194 -0.105182
0.00819013 -0.0981086
0.0116244 -0.101593
0.00892002 -0.0724103
0.00876953 -0.0730407
0.0106591 -0.0699094
-0.0101352 -0.10197
-0.0103012 -0.104456
-0.00823318 -0.100468
-0.00547447 -0.0948664
-0.00980103 -0.0993321
0.0095397 -0.0595775
0.00743903 -0.0544806
-0.0099491 -0.0613039
-0.00831761 -0.0568897
0.0091944 -0.0867313
0.00897612 -0.085091
0.00866829 -0.0834837
0.00722274 -0.0838431
0.0146934 -0.0934581
0.0159801 -0.0924094
0.0137773 -0.0914136
0.0116602 -0.090248
0.0132726 -0.0946271
0.0152467 -0.102729
0.017018 -0.103594
0.0155917 -0.101401
0.0137782 -0.09859
0.0134231 -0.10152
-0.015387 -0.101275
-0.0168068 -0.103518
-0.0149124 -0.102346
-0.0124237 -0.100254
-0.0137487 -0.0989655
-0.0124435 -0.0880107
-0.0138268 -0.0876816
-0.0136627 -0.0894478
-0.0137226 -0.0913964
-0.0112519 -0.0882824
-0.0086931 -0.0837978
-0.00965508 -0.0835373
-0.00956821 -0.0847107
-0.00938807 -0.0859024
-0.00749554 -0.0842491
-0.00741837 -0.0745427
-0.00722742 -0.0749552
0.00796699 -0.0951348
0.00808875 -0.0964899
0.00990245 -0.0984424
0.00616088 -0.0940723
0.0116675 -0.100132
0.00775208 -0.0939423
0.0056903 -0.0916399
0.00820265 -0.0730308
0.00917754 -0.0712831
0.0093114 -0.0877939
0.00769282 -0.0863562
0.00666581 -0.0855364
0.00681325 -0.0864962
0.00939637 -0.0911967
0.0111001 -0.0925408
0.0108277 -0.0910847
0.0119637 -0.0947882
0.00989673 -0.0890795
0.00782274 -0.0896208
0.00819787 -0.0909115
0.00983359 -0.0960007
0.0117726 -0.0988522
0.0118651 -0.0976667
0.0119425 -0.0961186
0.00773212 -0.0930589
-0.00959125 -0.0951585
-0.0119062 -0.0974814
-0.0111476 -0.0976224
-0.0123824 -0.0967648
-0.0103283 -0.0978967
-0.00764612 -0.0930472
-0.00845397 -0.0932385
-0.0117025 -0.0932582
-0.0135295 -0.0941042
-0.0131585 -0.0950548
-0.0135608 -0.0927805
-0.0149564 -0.0945051
-0.0145679 -0.0970115
-0.0128965 -0.096137
-0.0101276 -0.092383
-0.0104537 -0.0915693
-0.00886062 -0.0866773
-0.00809229 -0.0856922
-0.00696371 -0.0850005
-0.00621624 -0.0858504
0.0040242 -0.0902748
0.00377322 -0.0893912
0.00164276 -0.0865985
0.00756904 -0.0885472
0.00845316 -0.0885786
0.00692972 -0.0873538
0.00590866 -0.0864834
0.00630895 -0.0882844
0.00835265 -0.09293
0.00978346 -0.0937682
0.00824656 -0.0918346
0.00665209 -0.090107
0.00608863 -0.0909007
-0.009654 -0.0928642
-0.0108607 -0.0946627
-0.00915989 -0.0932943
-0.00713814 -0.0913644
-0.00832978 -0.0911244
0.00457799 -0.0893463
0.00245733 -0.0868385
0.00121469 -0.085359
0.00249644 -0.0865927
-0.00107849 -0.0852716
-0.00333027 -0.0879348
-0.00189778 -0.0863941
-0.00449439 -0.0889671
-0.00531579 -0.0902975
-0.00277499 -0.0876833
-0.000321236 -0.0842511
0.00521504 -0.0878207
0.00493032 -0.0868968
0.00367066 -0.0856157
0.00286637 -0.0858594
0.00390614 -0.0879193
0.00524862 -0.0895395
0.00542949 -0.0892981
0.00535093 -0.0885689
0.00270785 -0.0865232
-0.0052148 -0.0886197
-0.00671402 -0.0899151
-0.00640663 -0.0901628
-0.00718523 -0.0895953
-0.00565782 -0.0899223
-0.00358687 -0.0872688
-0.00390849 -0.0871776
-0.00767321 -0.0891815
-0.00600891 -0.0881145
-0.00477064 -0.0865635
-0.00568213 -0.0864746
-0.00372457 -0.087841
-0.00238662 -0.0862968
0.00395737 -0.087089
0.00299076 -0.0864523
-0.0108156 -0.0907092
-0.0109281 -0.0894216
-0.0121792 -0.091045
-0.00980462 -0.0880506
-0.00914707 -0.0899312
-0.00702501 -0.0871158
-0.00855968 -0.0877268
-0.0080143 -0.0884473
-0.016523 -0.0960581
-0.0181307 -0.0979012
-0.0165953 -0.0977812
-0.0202088 -0.0979185
-0.0166541 -0.0946543
-0.0195623 -0.0937219
-0.0198601 -0.0957528
-0.0177631 -0.0941495
-0.0216201 -0.095207
-0.0219773 -0.0974058
-0.00435739 -0.0906567
-0.00710971 -0.0951331
-0.00526411 -0.0930537
-0.00915356 -0.0971964
-0.00387052 -0.0894798
-0.00660046 -0.0922851
-0.00756646 -0.0941158
-0.00523193 -0.0909929
-0.000979173 -0.0723065
-0.00232944 -0.0709564
-0.00650513 -0.0505431
-0.00764682 -0.0542152
-0.00667499 -0.0589224
-0.00702113 -0.0628894
0.00463756 -0.0682897
0.00495008 -0.0651124
-0.000977831 -0.0826475
-0.00254492 -0.0808359
0.006724 -0.0703909
0.00661447 -0.071728
0.000311733 -0.0749143
0.00118271 -0.0744967
-0.00804321 -0.01084
-0.00727119 -0.0106945
-0.00199222 -0.00908839
-0.00177924 -0.00448685
0.00446067 -0.0689828
0.00333222 -0.0685337
0.00773163 -0.0457551
0.00739964 -0.0546058
-0.00764914 -0.0704505
-0.00771096 -0.0687288
-0.000123317 -0.000391729
-0.000764878 -0.00442578
-0.0102731 -0.0562319
-0.00564795 -0.0506659
0.0103629 -0.064807
0.00988484 -0.061421
-0.00342101 -0.0443537
-0.00213962 -0.0397273
-0.00256622 -0.0329458
-0.00307692 -0.0311774
-0.00143521 -0.0749762
-0.00140115 -0.0750757
-0.00653649 -0.0508318
-0.00760351 -0.0540508
0.00301418 -0.00290398
0.00542365 -0.00540895
0.003366 -0.0773903
0.00362387 -0.0777729
0.00769275 -0.0712686
0.00721581 -0.0729471
-0.0116449 -0.0611047
-0.00820029 -0.0551635
0.00373985 -0.0758976
0.00297277 -0.0757664
0.00623676 -0.0481772
0.00537072 -0.0475808
0.00354314 -0.0771767
0.00295536 -0.0770247
-0.00478727 -0.0777628
-0.00397706 -0.0789187
0.00676673 -0.075351
0.006711 -0.0756618
1.41023e-05 -0.0344832
0.00223518 -0.0282176
0.00427436 -0.0580811
0.00524945 -0.0526502
-0.00138076 -0.0706411
-0.00290108 -0.0693833
-0.00242447 -0.068462
-0.000937268 -0.0699381
0.000362711 -0.020227
0.000837903 -0.0247191
-0.00207511 -0.0794199
-0.000879335 -0.0798373
-0.00786973 -0.0557034
-0.010096 -0.0615358
0.000513361 -0.0781049
0.000240127 -0.0779968
-0.000511906 -0.055647
0.000112701 -0.0609687
-0.00412815 -0.0671177
-0.00776054 -0.0663237
-0.00533641 -0.0696916
-0.00379398 -0.0679913
-0.00663529 -0.0754178
-0.00565636 -0.07637
0.00853751 -0.0581423
0.00887586 -0.0591203
-0.0107007 -0.0552102
-0.0101786 -0.0601108
-0.00509525 -0.0437059
-0.00413844 -0.0358342
-0.00293593 -0.0350599
-0.00269796 -0.0368868
-0.0040047 -0.0419824
-0.00564087 -0.0477675
-0.00374959 -0.0343737
-0.00336183 -0.0361906
-0.00829387 -0.0705022
-0.00746852 -0.0718274
-0.00648105 -0.072204
-0.00537009 -0.073311
-0.00616683 -0.0725469
-0.00643981 -0.0730457
-0.00782268 -0.073564
-0.00725037 -0.074229
-0.00116586 -0.0306138
0.000621976 -0.0278506
-0.000759257 -0.0753219
-0.00188252 -0.0750163
-0.00689493 -0.0639185
-0.00570995 -0.0658554
0.00746966 -0.0537699
0.00642132 -0.049959
-0.00173335 -0.0753894
-0.00164862 -0.0752372
-0.00526932 -0.0760712
-0.00552429 -0.0763994
-0.00830219 -0.0708801
-0.00891049 -0.0684429
0.00826999 -0.0584122
0.00757281 -0.0536466
-0.00129152 -0.073424
-0.0024565 -0.0735154
0.00488788 -0.0163658
0.00406262 -0.0147761
-0.00598209 -0.076624
-0.00711035 -0.0749269
-0.0050854 -0.0125257
-0.00386274 -0.0135377
-1.75296e-05 -0.0755667
-6.60121e-05 -0.0754
-0.0104678 -0.0646982
-0.00970671 -0.0607404
0.00358821 -0.0738127
0.00240152 -0.0747151
-0.00938435 -0.0650288
-0.00932718 -0.061864
-0.00459838 -0.0724527
-0.003667 -0.073796
0.00593418 -0.0180872
0.00513969 -0.0203079
-0.00159938 -0.0298675
-0.000431167 -0.0336667
0.0064045 -0.0514232
0.00404184 -0.0452084
0.00599436 -0.0761443
0.00872398 -0.0722144
-0.00232135 -0.0783599
-0.00150491 -0.0782836
-0.00345824 -0.0437366
-0.00517171 -0.0488172
-0.000522416 -0.0331182
-0.000462288 -0.030735
0.0110068 -0.0650695
0.0113898 -0.0681117
-0.000878163 -0.0748966
-0.000246071 -0.0753644
-0.00227246 -0.0779525
-0.00139895 -0.0780468
-0.00577213 -0.0768414
-0.00533371 -0.0776628
-0.00246605 -0.0581507
-0.00108407 -0.0535366
0.00410873 -0.0387956
0.00469638 -0.0472028
0.00135769 -0.0346756
0.00180306 -0.0380775
0.0055778 -0.00556492
0.00514193 -0.00628388
0.00839645 -0.0727809
0.00918135 -0.0706113
0.00195633 -0.0361353
0.0037907 -0.042303
0.000980031 -0.0305254
0.00303763 -0.0245893
0.00681478 -0.07565
0.00541302 -0.0775743
0.00197969 -0.0772648
0.00265769 -0.0773559
0.00837405 -0.0728402
0.00812565 -0.0732826
-0.00747281 -0.0582931
-0.00782311 -0.0567157
9.92599e-05 -0.0783141
-5.39681e-05 -0.0782273
-0.003574 -0.0423511
-0.00383452 -0.0412037
-0.00359087 -0.0098494
-0.00414711 -0.00751608
-0.00118225 -0.00694255
1.88431e-05 -0.00722362
0.00581266 -0.00536362
0.00703872 -0.00756751
-0.00554142 -0.0770131
-0.00795569 -0.0735544
-0.000395134 -0.0752784
-0.000712715 -0.0749866
-0.000489556 -0.0748449
-0.000126813 -0.0738758
-0.00386467 -0.0775277
-0.00286347 -0.0778245
-0.00176089 -0.0299919
-0.000601425 -0.0233718
-0.0102635 -0.0674843
-0.00966933 -0.069562
-0.000204652 -0.0753986
4.90991e-05 -0.0755372
0.00954031 -0.068967
0.00991933 -0.0663349
0.00436605 -0.0213498
0.00560988 -0.0169
0.00828888 -0.0726164
0.00743705 -0.0740617
0.00141362 -0.0629979
-0.00132428 -0.0632662
0.00112037 -0.0748173
0.000320415 -0.0753163
-0.00211462 -0.01884
-0.00233913 -0.0141533
-0.00272822 -0.0260823
-0.00430198 -0.0208185
-0.00316402 -0.0781473
-0.00217138 -0.0784687
-0.00364123 -0.0404774
-0.001388 -0.0399395
0.0099072 -0.0682078
0.00984423 -0.0652888
-0.00197465 -0.0259664
-0.00228811 -0.0298995
-0.00347413 -0.0342738
-0.00230587 -0.0333709
-0.00275569 -0.00339142
-0.00309315 -0.00315069
-0.00630111 -0.0478532
-0.00664734 -0.0492764
0.000301721 -0.0754254
5.70188e-05 -0.0755822
0.000450495 -0.00724677
0.000922617 -0.00401056
0.00888065 -0.0706009
0.00943677 -0.0680666
-0.00758982 -0.0579788
-0.00687393 -0.0545374
-0.0066954 -0.0158281
-0.00628173 -0.0158448
-0.00513328 -0.0707137
-0.00317436 -0.0699682
-0.00346461 -0.0707875
-0.00407595 -0.0715726
-0.00185307 -0.0717338
-0.000909651 -0.0698064
0.0077001 -0.0723447
0.00677178 -0.0734727
0.00780662 -0.0668454
0.00740731 -0.0651584
-0.00440028 -0.0417951
-0.00506517 -0.0454623
-0.00764111 -0.0742818
-0.0078447 -0.0736978
-0.000765711 -0.0735302
-0.000239902 -0.0748019
0.00076165 -0.0742275
0.00186603 -0.0734117
-0.00282746 -0.038907
-0.00102234 -0.0326736
-0.000367187 -0.000484979
-0.00258948 -0.00397798
-0.00553761 -0.045485
-0.00495669 -0.0449014
0.00237697 -0.0712149
0.000744535 -0.0700382
0.00739574 -0.0457172
0.00183567 -0.0465165
0.00383164 -0.060947
0.00951387 -0.0591665
-0.00278653 -0.00692924
-0.00153227 -0.00435056
-0.00929677 -0.0668454
-0.00965728 -0.0656595
0.00281032 -0.0397906
0.00293715 -0.041923
-0.00552449 -0.0775415
-0.00700258 -0.0753793
0.00347626 -0.0740389
0.00468241 -0.0731531
-0.00372438 -0.0736598
-0.00406182 -0.0738759
-0.00715825 -0.072876
-0.00802872 -0.0715063
0.00930689 -0.0704694
0.00905703 -0.0707841
-7.9178e-05 -0.076106
0.000476726 -0.0764345
-0.00368768 -0.0773146
-0.00367877 -0.0768714
0.0101168 -0.0661069
0.00976809 -0.0666487
0.00419752 -0.0767103
0.00488328 -0.0766886
-0.00668587 -0.0127684
-0.00740137 -0.0130776
-0.00260545 -0.0747653
-0.00373934 -0.0742316
-0.00801997 -0.0641136
-0.00759337 -0.0619642
0.00180591 -0.0780875
0.00103901 -0.0782583
0.00836238 -0.0567151
0.0084222 -0.0570629
0.0017124 -0.055912
0.00292261 -0.0608258
0.002234 -0.0332928
0.00211207 -0.0292083
0.000791587 -0.000565443
0.00366813 -0.00319182
-0.000407587 -0.00738392
0.000980686 -0.0171572
-0.00321266 -0.0113008
-0.00227185 -0.0169795
0.0057967 -0.00722776
0.00391723 -0.00401049
-0.00259199 -0.0722042
-0.00369528 -0.0717644
0.00441327 -0.0788348
0.00260804 -0.0809641
-0.00593651 -0.0701857
-0.00646374 -0.06764
-0.00507559 -0.0117572
-0.00391919 -0.0122994
0.00283091 -0.0741625
0.00406121 -0.0730452
0.00411918 -0.0184315
0.00557723 -0.0153866
-0.00332646 -0.0791461
-0.00330252 -0.0785386
-0.000541032 -0.0770885
-0.0016971 -0.076948
-0.00335136 -0.0158984
-0.00176781 -0.0211555
-0.00759177 -0.0539233
-0.00800687 -0.0574599
-0.00875385 -0.0687506
-0.00870082 -0.0703796
0.00256287 -0.0324535
0.00452059 -0.0387431
0.00374913 -0.078004
0.00444169 -0.0779123
0.00902398 -0.0691552
0.00840699 -0.0715987
0.00073575 -0.0368614
0.000321559 -0.0346183
0.00167985 -0.0781391
0.00185356 -0.0785761
-0.0005141 -0.0630075
0.0020179 -0.062343
0.0047516 -0.0202804
0.00559563 -0.0192047
-0.00213029 -0.0755594
-0.00237624 -0.0758948
-0.00625786 -0.0762767
-0.00501355 -0.0777865
-0.00628595 -0.0764687
-0.00524692 -0.0777411
0.00724523 -0.0595752
0.00710582 -0.0637165
-0.00164617 -0.0680132
-0.00233766 -0.0643519
-0.00116836 -0.0751886
-0.000634453 -0.075361
0.00263073 -0.0568972
-0.00108242 -0.0568317
0.00351037 -0.0350029
0.00465246 -0.0438447
0.00665413 -0.0612978
0.00679074 -0.064715
-0.00203788 -0.0462379
-0.00247691 -0.0356197
0.00117486 -0.0750829
0.00204839 -0.0746663
0.00306547 -0.0786512
0.00324465 -0.0779597
0.00423354 -0.03637
0.00401933 -0.0376903
0.0058428 -0.0767915
0.00653539 -0.0759949
-0.00661883 -0.0509573
-0.00597874 -0.0500772
-0.00407782 -0.041428
-0.00507995 -0.0432616
-0.00707046 -0.0749131
-0.00610557 -0.0765145
0.00821381 -0.0702203
0.00738908 -0.0721643
-0.000260095 -0.0753109
-0.000314402 -0.0752472
0.00390301 -0.0785335
0.00284179 -0.0798457
0.000785197 -0.0752426
0.000745581 -0.0752693
-0.000170444 -0.07539
-0.00077219 -0.0752966
0.00746287 -0.0731327
0.00755454 -0.0720024
-0.007201 -0.0138561
-0.0063825 -0.0167315
0.00296005 -0.077816
0.00207651 -0.0781955
-0.00280015 -0.0267691
-0.00178311 -0.0298133
0.00684482 -0.0637507
0.00765391 -0.0636645
-0.00313405 -0.0730254
-0.00233813 -0.0742153
0.00479383 -0.0768401
0.0043598 -0.0766238
-0.00139853 -0.027584
-0.000310909 -0.0208672
-0.00250327 -0.0549069
-7.34211e-05 -0.048653
-0.000294929 -0.075059
-0.000711487 -0.0750938
-0.00526283 -0.0753324
-0.00565414 -0.0756095
0.00633777 -0.0763109
0.00762865 -0.0742419
-0.0030646 -0.0622319
-0.00281368 -0.0661991
0.0016957 -0.0758753
0.00214213 -0.0761758
0.00691282 -0.0749688
0.00538294 -0.0772276
-0.00331511 -0.0755134
-0.0045698 -0.0749459
0.00622594 -0.0128921
0.00713252 -0.0121164
0.0101549 -0.0658301
0.00982229 -0.0675662
0.000823678 -0.0752492
-0.000393419 -0.0753737
0.00870817 -0.0625785
0.00828632 -0.0589796
0.000982202 -0.0321628
0.00192512 -0.0294851
-0.000240507 -0.0325985
-0.0022564 -0.0367403
-0.00117516 -0.0787571
-0.000347731 -0.0793659
0.00251516 -0.00375883
0.00409162 -0.00764462
0.00719203 -0.0116219
0.00632536 -0.0110672
-0.00331547 -0.0788975
-0.0022435 -0.0792868
-0.00335016 -0.0750865
-0.00456399 -0.0742265
0.00643948 -0.0506684
0.00121528 -0.0508917
-0.000489913 -0.0754647
-9.99248e-05 -0.075626
-0.0044625 -0.0748965
-0.00421863 -0.0745239
-0.00516972 -0.0118024
-0.00512385 -0.00807884
-0.000675619 -0.0753531
0.000257686 -0.0754409
0.000142443 -0.0755878
-0.000116695 -0.0758444
-0.00940646 -0.0682191
-0.00893833 -0.0690577
-0.00656094 -0.0755347
-0.00596751 -0.0765513
-0.00482199 -0.0450653
-0.00566145 -0.0487769
-0.000373107 -0.0674848
0.000638192 -0.0700345
7.2456e-05 -0.0755304
0.000857351 -0.0751619
0.00300786 -0.0754169
0.00424104 -0.0750103
0.00422263 -0.013219
0.0036579 -0.0182695
-0.00242432 -0.0469314
-0.00402725 -0.0518777
0.00239374 -0.0258329
0.00198537 -0.0288475
0.0034833 -0.078331
0.00249622 -0.0785949
0.00249821 -0.0677506
0.00570427 -0.0658252
0.00419737 -0.0712413
0.00335417 -0.0711092
0.000530857 -0.0202654
0.00135095 -0.0226268
0.00113268 -0.0800763
0.000770339 -0.0792809
0.00706641 -0.073802
0.00750372 -0.0737593
-0.00454338 -0.0728266
-0.00554014 -0.0721235
-0.00541746 -0.0451452
-0.00641156 -0.0483504
0.0105844 -0.0624451
0.00922885 -0.0592785
0.000682121 -0.0047476
-0.000765623 -0.0153107
0.00298503 -0.0784315
0.00316482 -0.0789825
-0.00446423 -0.0465458
-0.00595722 -0.0509168
0.00316215 -0.014047
0.00297482 -0.00931859
-0.00034873 -0.0743118
0.000144772 -0.0750882
-0.00335418 -0.0430541
-0.00507098 -0.0483279
-0.0078698 -0.0575986
-0.00741057 -0.0532695
-0.00932984 -0.0610021
-0.00860914 -0.0580724
0.00638886 -0.0155636
0.00590875 -0.0182017
0.00613894 -0.0720104
0.00509655 -0.0727964
-0.00347076 -0.0712703
-0.0017368 -0.0704661
-0.00538508 -0.0727311
-0.00420838 -0.0737111
-0.00304263 -0.0206055
-0.000746244 -0.0308864
-0.00857037 -0.0721672
-0.00789094 -0.0733776
0.00214371 -0.0774116
0.00248109 -0.0776464
-0.0014875 -0.0627725
0.000605775 -0.0653936
0.00408278 -0.0408359
0.00591097 -0.0470068
-0.00787087 -0.00909665
-0.00766169 -0.0112913
-0.00631564 -0.0518777
-0.00370549 -0.0450387
-0.00201844 -0.035379
-0.00349923 -0.0381483
0.00251621 -0.0698636
0.000350323 -0.0706818
0.00740073 -0.0542565
0.00500973 -0.0480894
-0.000572106 -0.0776782
-0.000188932 -0.0773984
-0.00056782 -0.0789188
-0.00106104 -0.0796261
-0.00469916 -0.045511
-0.00592602 -0.0500043
-0.00422243 -0.0714287
-0.0031214 -0.0730817
0.00897016 -0.0589022
0.00981687 -0.0625972
-0.000175064 -0.0773932
-0.000650398 -0.0770784
-0.00862624 -0.0671993
-0.00799926 -0.0679776
-0.0114288 -0.0684297
-0.0101308 -0.0700316
-0.00427618 -0.0207289
-0.00497018 -0.0205204
0.00311469 -0.00458088
0.00191151 -0.00280572
0.00235739 -0.0174255
0.00377914 -0.0128087
0.00410629 -0.0785796
0.00271871 -0.0798863
-0.000622656 -0.00196526
-0.000796932 -0.00447186
-0.00989147 -0.0624259
-0.00872342 -0.0581451
0.00367676 -0.0342894
0.0019966 -0.0270346
0.00423348 -0.0226133
0.0036583 -0.0247316
0.00742363 -0.0742345
0.00956129 -0.0706115
0.00769169 -0.0738145
0.0086967 -0.0721999
-0.00515589 -0.0407596
-0.00639059 -0.0473995
0.000843695 -0.0196674
-0.0011576 -0.0105518
0.0083005 -0.0730085
0.00914276 -0.0709943
-9.55736e-05 -0.0743422
0.000400545 -0.0730186
0.00236545 -0.0557181
-0.00131973 -0.05307
0.00618564 -0.0475971
0.00495737 -0.0419964
0.00442614 -0.00967781
0.00343018 -0.0112879
0.00150452 -0.0706031
0.00135653 -0.0727893
0.00246822 -0.0220333
0.00090813 -0.0236944
-0.00706855 -0.0530995
-0.00506544 -0.0472311
-0.00800958 -0.0731521
-0.00836643 -0.0716741
0.000213099 -0.0784853
0.000481488 -0.0786869
0.00859729 -0.0708144
0.00791226 -0.072989
0.00560549 -0.0768035
0.00802651 -0.0733292
0.000181426 -0.065766
-0.0011738 -0.0682952
0.00214346 -0.00273751
0.00403325 -0.00632991
0.00213913 -0.0206739
0.00263961 -0.0229348
-0.000939854 -0.00288148
-0.0020988 -0.00529605
-0.00657975 -0.0760477
-0.00709677 -0.0752207
0.000763612 -0.0342879
0.00283782 -0.0392103
-0.0119501 -0.0658462
-0.0110413 -0.0713708
0.000164627 -0.0322809
0.00124548 -0.037841
8.41302e-05 -0.0772329
-0.00102162 -0.0772363
-0.000627142 -0.0322301
-0.000860109 -0.0324687
-0.00587467 -0.0751638
-0.00476268 -0.0760413
0.000669738 -0.0680119
-0.0011438 -0.0696293
-0.00494913 -0.0144094
-0.00386479 -0.0139892
-0.00542853 -0.0737254
-0.00420205 -0.0746578
0.00713347 -0.0642256
0.00736578 -0.066635
0.00600915 -0.0159905
0.00552135 -0.0191768
-1.48037e-05 -0.0754171
0.000177383 -0.0753797
0.00414848 -0.0365705
0.00564366 -0.0434631
-0.00194251 -0.0114273
-0.00095537 -0.0113815
0.00495064 -0.0759179
0.00429071 -0.0758359
-0.00613576 -0.00601178
-0.0033949 -0.00292114
0.00302341 -0.0398468
0.00349891 -0.0429275
-0.00517704 -0.0774231
-0.00759696 -0.0740297
-0.00630302 -0.050179
-0.00536356 -0.0435176
-0.003498 -0.0791743
-0.0029394 -0.0790653
-0.00698567 -0.0720991
-0.00777742 -0.0701125
-2.85603e-05 -0.075532
7.352e-05 -0.0754879
-0.00282738 -0.0781304
-0.00286783 -0.0786828
0.00466508 -0.0386068
0.0059171 -0.0449762
-0.00496745 -0.0754819
-0.00497018 -0.0760853
-0.00453425 -0.0471603
-0.00275403 -0.0425639
-0.00808311 -0.0564753
-0.00825532 -0.0590624
-0.00202734 -0.0739535
-0.00297888 -0.0724167
0.00172103 -0.0689016
0.00382423 -0.0698396
-0.000303541 -0.0793244
-0.000298989 -0.0786594
-0.000315432 -0.0753721
-0.000543981 -0.0753678
0.00859592 -0.0723191
0.00912498 -0.0704579
0.00343436 -0.0743163
0.00441747 -0.0732441
-0.00806709 -0.0610262
-0.00814936 -0.0579499
0.00667135 -0.0446215
0.00107474 -0.044421
0.00694317 -0.0649009
0.00686866 -0.0676899
0.00119126 -0.0742277
0.00134876 -0.072777
-0.00655016 -0.0728525
-0.0054361 -0.0739989
-0.00400215 -0.0768753
-0.00453395 -0.0761336
0.00414808 -0.0755866
0.0051088 -0.0753885
-0.00654646 -0.0752714
-0.00623254 -0.0750445
0.00358328 -0.0768668
0.00354851 -0.0773476
-0.00940908 -0.0692067
-0.0087661 -0.0718081
-0.000181356 -0.0777949
-0.00037912 -0.0780151
-0.002196 -0.0711224
-0.000822798 -0.0723791
-0.00455227 -0.045816
-0.00239956 -0.0404264
0.00796264 -0.0621728
0.0101429 -0.057693
-0.00861335 -0.0722389
-0.00941321 -0.0699058
-0.00687623 -0.0748862
-0.00583051 -0.0762934
-0.00046286 -0.0821303
-0.0020414 -0.0809941
-0.0069848 -0.0705808
-0.00716282 -0.068668
-0.0023837 -0.0316409
-0.00183253 -0.0329432
0.00821944 -0.0639539
0.00788414 -0.0609015
0.00835881 -0.0572879
0.00892908 -0.0615011
-0.00218422 -0.0759237
-0.0034872 -0.0754699
-0.00958313 -0.0597155
-0.00737441 -0.0544906
-0.00458867 -0.0679696
-0.00334089 -0.070804
0.00415694 -0.0751681
0.00379518 -0.0748667
0.00777221 -0.073723
0.00756519 -0.0741626
0.000766068 -0.0253134
0.00264096 -0.0219121
-0.00803912 -0.0553733
-0.00807578 -0.0608309
-0.00257853 -0.0787696
-0.00259999 -0.0781988
0.00365954 -0.0711255
0.00488509 -0.0695018
-0.00922543 -0.0692957
-0.00892074 -0.0689122
-0.00522053 -0.0750684
-0.00508267 -0.0745136
-0.00640727 -0.0140938
-0.00638821 -0.0163677
0.00130003 -0.0620761
-0.000580411 -0.0585874
-0.0040343 -0.0744927
-0.0052355 -0.0733922
-0.0060625 -0.0737371
-0.0048925 -0.0747379
-0.00186344 -0.00361216
-0.00209949 -0.00695975
-0.000368689 -0.0459886
0.000873429 -0.054237
0.00128889 -0.0552403
0.00269446 -0.0488034
0.000754766 -0.0113733
-0.000944159 -0.0197489
-0.00182244 -0.0772828
-0.000873187 -0.0775066
0.00672334 -0.0589097
0.00642382 -0.0632971
-0.00176025 -0.0266699
0.000535409 -0.0201481
0.0139428 -0.0676153
0.010441 -0.0604237
-0.00046532 -0.0749445
-0.000136993 -0.0754613
-0.00618557 -0.00634784
-0.00531297 -0.00643572
-0.00468974 -0.0153875
-0.00373863 -0.0204721
-0.00434335 -0.0198663
-0.00435303 -0.0222713
0.00375609 -0.0527252
0.00429483 -0.0456216
-0.0022776 -0.073432
-0.00117544 -0.0746375
-0.0011995 -0.0199582
-0.00216516 -0.0314022
-0.00290085 -0.0753769
-0.00402454 -0.0751121
0.00786552 -0.0548025
0.00791797 -0.0564157
0.0126282 -0.0649084
0.0101049 -0.0603311
0.000694185 -0.0357701
0.00302313 -0.0420522
0.006449 -0.0758958
0.00547467 -0.076887
-0.00217815 -0.0399083
-0.000606042 -0.0343661
-0.00111915 -0.0780693
-0.00184517 -0.0778655
-0.00140721 -0.0782111
-0.000914893 -0.0780921
-0.00378517 -0.0794115
-0.00232707 -0.080714
0.000943178 -0.0142488
-0.000790452 -0.0219649
-0.00805393 -0.0715395
-0.00877032 -0.0693114
0.00992171 -0.0654728
0.0101825 -0.0643243
-0.00899161 -0.0716501
-0.00930145 -0.070417
-0.00362291 -0.0707811
-0.00479732 -0.0718818
0.000879466 -0.017632
-0.00088812 -0.00653306
0.00816047 -0.0708724
0.00737234 -0.0728575
-0.00340133 -0.0701845
-0.00200096 -0.0683114
-0.00111336 -0.0575884
-0.00207831 -0.0619798
-0.0023883 -0.00276447
-0.000169997 -0.000196214
-0.00419551 -0.0763624
-0.00352331 -0.0762509
0.00771605 -0.0739332
0.00627173 -0.0762949
-0.00934751 -0.0612198
-0.00863355 -0.0582975
-0.00324815 -0.0257453
-0.00134903 -0.0309922
0.00753199 -0.0547513
0.00705218 -0.0550148
0.00596699 -0.0765354
0.00673233 -0.0752051
0.0080778 -0.0732821
0.00904759 -0.071566
-0.00639662 -0.076323
-0.00746468 -0.07457
-0.00156658 -0.00436818
-0.000378239 -0.00122979
-0.000772828 -0.0753266
-0.000394751 -0.0754486
0.00283061 -0.0626782
0.00119143 -0.0602071
0.00274457 -0.0808061
0.00370022 -0.0796698
-0.00255878 -0.073042
-0.00282618 -0.0712419
-0.00748391 -0.0743477
-0.00960342 -0.0709448
0.000570988 -0.0787123
0.00145703 -0.078965
0.00151479 -0.0307623
0.00352301 -0.035781
0.00606783 -0.0110847
0.00597546 -0.00800003
-0.0097489 -0.0704069
-0.0104771 -0.06705
0.00456117 -0.0702405
0.00522136 -0.0705208
0.00582612 -0.0526274
0.00658135 -0.0572321
-0.000574439 -0.0777463
-0.00136857 -0.0777868
-0.00893083 -0.0579072
-0.00676051 -0.0530364
0.00112201 -0.0160549
0.00210109 -0.0273475
-0.000217853 -0.0752721
-0.00106998 -0.0748783
0.00532362 -0.0470943
0.00684811 -0.051177
-0.00785172 -0.00978656
-0.00691312 -0.00918771
0.000103319 -0.0142127
-0.000244152 -0.0169874
-0.00180793 -0.0795527
-0.00116812 -0.0807548
0.00743408 -0.0681875
0.00649986 -0.0694363
0.00131938 -0.00124924
0.00377774 -0.00434623
0.000121473 -0.0779841
0.000260749 -0.0777494
-0.00225057 -0.0721551
-0.00138216 -0.0737576
0.00354116 -0.0670636
0.00465323 -0.0641616
-0.00119641 -0.0782878
-0.000564462 -0.0784528
-0.00760561 -0.0129922
-0.00805666 -0.0106411
0.00143078 -0.0125788
0.00148122 -0.00631515
0.000397426 -0.0798907
0.000872326 -0.0805993
-0.00442167 -0.0781754
-0.00416102 -0.0788624
0.00838724 -0.0727923
0.00793757 -0.0737705
-0.00473066 -0.0782499
-0.00527579 -0.0778227
0.0120146 -0.0649361
0.00905679 -0.0567017
-0.00136725 -0.0785513
-0.00144844 -0.0791847
0.00270439 -0.0328311
0.00373311 -0.0361281
-0.0059467 -0.0495502
-0.00757415 -0.0540463
0.00469292 -0.0783659
0.00306255 -0.0802017
0.0067693 -0.0497161
0.00520093 -0.044011
-0.00747527 -0.00920577
-0.00649643 -0.00863694
0.00104115 -0.0762997
1.56771e-06 -0.0761686
-0.00372445 -0.0451696
-0.00592635 -0.0508503
0.00409919 -0.0644766
0.0051254 -0.0609038
0.00134901 -0.0755661
0.00216614 -0.0751238
-0.00829077 -0.0684555
-0.00759649 -0.0691324
-0.00422089 -0.0755734
-0.00336073 -0.0763852
0.00674459 -0.0752918
0.00581903 -0.0761989
-0.00299403 -0.0772254
-0.00274223 -0.0769009
-0.00205183 -0.0416676
-0.0060251 -0.0498576
0.00585977 -0.0483205
0.00484616 -0.047924
-0.00599526 -0.0754293
-0.00496716 -0.0764766
0.00575603 -0.0522759
0.00586942 -0.0469219
0.000698562 -0.0782212
0.000915996 -0.0783738
0.00675501 -0.0595156
0.00722992 -0.0627021
-0.00167424 -0.00330393
-0.000441726 -0.00109079
-0.00621849 -0.0467477
-0.00715675 -0.0526467
-0.00357011 -0.0117912
-0.00295474 -0.0171508
-0.000924922 -0.065061
0.00123114 -0.0665597
-0.00197274 -0.0748206
-0.00079606 -0.075313
0.00326652 -0.0574889
0.00310496 -0.0513921
0.00306266 -0.0344239
0.00220221 -0.0271831
-0.000381243 -0.0752812
0.000193377 -0.075392
0.00617536 -0.0615043
0.00488029 -0.0602496
-0.00477551 -0.00424025
-0.00437592 -0.00439245
-0.0018542 -0.0794801
-0.00198955 -0.078707
0.00404007 -0.0742105
0.00531344 -0.0731327
0.000876256 -0.0763155
-0.000240363 -0.0766637
-0.00376487 -0.076901
-0.00271383 -0.0771231
7.69686e-05 -0.0782711
-0.000221393 -0.078222
0.0016786 -0.0438876
0.00409629 -0.0432508
0.00272336 -0.0769936
0.00362167 -0.0764064
-0.00160894 -0.0759185
-0.000532643 -0.0762445
-0.00324686 -0.0780147
-0.00267736 -0.07873
0.00170034 -0.075247
0.00235338 -0.0748056
-0.000800554 -0.00896064
-0.000349809 -0.00152037
0.000504903 -0.0779218
0.000320756 -0.0777145
0.000773537 -0.0776715
0.00163214 -0.0775606
-0.0058729 -0.0484225
-0.00464232 -0.0475483
-0.00126771 -0.0751695
-0.000362663 -0.0753712
0.00270937 -0.0808472
0.00334265 -0.0800707
-0.00112086 -0.0755107
-0.000348262 -0.0757727
0.00950928 -0.0692477
0.00888783 -0.0710028
-0.00663792 -0.00982998
-0.00728306 -0.00871946
0.0078491 -0.0736227
0.00638398 -0.0756502
0.00781817 -0.0641968
0.00738444 -0.0674038
0.00812685 -0.0619331
0.00804867 -0.0579127
-0.00566957 -0.0467368
-0.00635476 -0.0499584
0.00395948 -0.0758727
0.00395742 -0.0753051
0.00177424 -0.0742838
0.0010108 -0.0745571
0.0030604 -0.0742506
0.00198314 -0.0748055
-0.00423638 -0.0656507
-0.000953836 -0.0655069
0.0050098 -0.00606596
0.00664661 -0.00873956
0.00432835 -0.0734862
0.00519604 -0.0731077
-0.00426277 -0.0746482
-0.00321942 -0.0749395
-0.00653303 -0.0728839
-0.00742378 -0.0719983
-0.0039846 -0.0235987
-0.00264131 -0.0272957
-0.00867817 -0.0714762
-0.00813477 -0.0721949
0.00180605 -0.0770546
0.00189325 -0.0765857
0.00238211 -0.00483021
0.00366106 -0.00735431
0.00514065 -0.077684
0.00295385 -0.0804941
-0.00253914 -0.0800211
-0.00317589 -0.07895
-0.00473991 -0.0389481
-0.00502869 -0.0424776
6.5348e-06 -0.0783007
0.000138207 -0.0783307
-0.000505248 -0.028416
-0.00100641 -0.023917
-0.00756989 -0.0538469
-0.00840882 -0.0576844
-0.000986559 -0.0786914
-0.000505209 -0.0794483
0.000870554 -0.0217566
0.00268137 -0.0176972
-0.00209115 -0.0023364
-0.00238604 -0.00221416
-0.00516752 -0.0464069
-0.00316756 -0.0403582
-0.000204399 -0.000371036
-0.000129636 -0.000155517
0.0113716 -0.0684884
0.0108886 -0.0674411
-0.00128467 -0.0262401
0.000673754 -0.0326099
0.00767897 -0.0614635
0.00589381 -0.0650662
-0.00918836 -0.0644923
-0.00918314 -0.0674721
-0.00101787 -0.0765768
-3.22557e-05 -0.0762646
0.00894563 -0.0699212
0.00934903 -0.0671744
-0.00950079 -0.0623705
-0.00875436 -0.0587108
0.00105761 -0.0316041
0.00187422 -0.0297981
-0.00107469 -0.0736025
-0.00096076 -0.0747711
0.00304498 -0.0800724
0.00181809 -0.0809254
0.000215786 -0.0775688
-1.10754e-05 -0.0772708
0.00754893 -0.0730197
0.00655139 -0.0744014
-0.000735729 -0.0753619
-0.000108845 -0.0754599
0.00103959 -0.0752305
0.00159148 -0.0749835
-0.00250063 -0.0773466
-0.00151367 -0.0775945
0.00933402 -0.0680392
0.00894572 -0.0706619
0.0068259 -0.0750867
0.00576476 -0.0765944
0.00461347 -0.0218421
0.00466615 -0.0216486
-0.00553105 -0.00810199
-0.00642516 -0.0111591
0.00672316 -0.0755962
0.00751803 -0.0740614
-0.006059 -0.0759359
-0.00502686 -0.077115
0.00574543 -0.0511372
0.00996892 -0.0447785
-0.00924132 -0.0651418
-0.00893597 -0.062148
-0.0015517 -0.0280744
0.000740434 -0.0340635
-0.00046542 -0.0752388
0.000149161 -0.0753886
-0.0014094 -0.0144913
6.97302e-05 -0.0211865
-0.00321242 -0.0243693
-0.00406753 -0.019703
0.00720145 -0.0745571
0.00620387 -0.0761877
-0.00438616 -0.0761681
-0.0038176 -0.0768951
-0.00834431 -0.0569717
-0.00954364 -0.0609583
0.00405342 -0.019776
0.00585202 -0.0170079
-0.00212315 -0.0335666
-7.41471e-06 -0.0285677
0.00712136 -0.0748093
0.00811146 -0.0728852
0.0069155 -0.0104713
0.00671691 -0.0139251
0.00338451 -0.0250587
0.00493577 -0.0200415
0.00588408 -0.076894
0.00758982 -0.0743315
0.00646241 -0.0492924
0.00982217 -0.0591166
0.00729535 -0.0522946
0.00653091 -0.0489714
0.00801947 -0.0674309
0.00719794 -0.0696467
-0.00897023 -0.0601979
-0.00902735 -0.0627692
-6.73323e-05 -0.0759332
0.000175535 -0.0762779
0.00607882 -0.0483157
0.00698166 -0.051997
0.00596029 -0.00962472
0.00600039 -0.0134932
0.000143814 -0.0783177
0.000332325 -0.0782218
-0.00335475 -0.0777568
-0.00439049 -0.0772925
-0.00587491 -0.0596534
-0.00447533 -0.0629436
-0.00562397 -0.0444036
-0.00638699 -0.0510682
-0.00232163 -0.0783198
-0.00193332 -0.0789353
-0.000633817 -0.0288262
0.000785607 -0.0222377
-0.00345158 -0.0177406
-0.00425923 -0.0125656
0.000860141 -0.0780007
0.00156647 -0.0778611
-0.00114348 -0.0214804
-0.00217687 -0.031357
-0.00833297 -0.0730012
-0.00989467 -0.0696197
-0.000214903 -0.0757873
0.00118081 -0.075592
0.000925207 -0.0331213
0.00259255 -0.0362091
-0.00324253 -0.0305701
-0.00522932 -0.0432571
0.00178318 -0.0252662
0.00216633 -0.027955
0.00607598 -0.073116
0.00707639 -0.0722281
0.00374183 -0.0772696
0.0044979 -0.0771929
0.00809478 -0.0557171
0.00631924 -0.0503145
-0.000775027 -0.0740722
-0.000694259 -0.0750662
0.00521942 -0.0776503
0.00517118 -0.0773394
-0.00167758 -0.0780806
-0.00239134 -0.0781956
-0.00300043 -0.0719499
-0.00358024 -0.0696505
0.00144619 -0.00416784
0.00131374 -0.00701833
-0.00197288 -0.0772384
-0.00108108 -0.0775181
0.00491751 -0.0782037
0.00498056 -0.0779787
-0.00334079 -0.0764631
-0.00344896 -0.0758785
-0.00778749 -0.0547683
-0.00884966 -0.0593348
0.00501605 -0.0766951
0.0043419 -0.077645
-0.00823679 -0.072743
-0.00753718 -0.0739179
0.000550427 -0.0766727
-0.000142176 -0.0763458
-0.00679213 -0.068552
-0.00747033 -0.0685839
0.00634334 -0.0741597
0.00529725 -0.0748769
0.000561809 -0.0751677
0.00072601 -0.0747241
0.00894848 -0.0584056
0.00675995 -0.0527498
0.00596966 -0.0768199
0.00578619 -0.0770692
-0.00640323 -0.0756803
-0.0064703 -0.0750426
0.0018012 -0.0266821
-0.000112852 -0.032921
-0.00565892 -0.0768866
-0.00512232 -0.0778184
-0.00817533 -0.00994536
-0.00774348 -0.0122746
0.00252858 -0.0289306
0.00100451 -0.0220195
0.00918768 -0.0643197
0.00918554 -0.0616137
-0.000172297 -0.0754375
-0.000626098 -0.0749159
0.00140334 -0.0701425
0.00118591 -0.067572
-0.000610253 -0.0315763
-0.00265893 -0.0254759
0.00494502 -0.0771853
0.00450566 -0.0780726
-0.00374213 -0.0350695
-0.00211467 -0.026992
0.00196719 -0.0787253
0.00298222 -0.0783171
0.000627844 -0.0749599
8.49124e-05 -0.0754756
0.00503567 -0.0751233
0.00595614 -0.0747823
0.00635707 -0.0736696
0.00626447 -0.074582
0.00681071 -0.0724187
0.00772762 -0.0712982
-0.000944128 -0.0554534
-0.00016266 -0.0607632
-0.00864292 -0.0719386
-0.00936165 -0.0698944
0.00558408 -0.0431532
0.00582782 -0.0478372
0.00228668 -0.0802413
0.0028045 -0.0791903
0.00887557 -0.0605335
0.0091121 -0.0603921
-0.00299463 -0.00316226
-0.000311916 -0.000309057
0.00571165 -0.00744511
0.00683158 -0.00775074
-0.0017813 -0.0750185
-0.000825539 -0.075288
-0.000425076 -0.0782727
-9.03415e-05 -0.0783418
0.00534973 -0.00649562
0.00345278 -0.00410543
0.00846706 -0.0636756
0.00855099 -0.0603314
0.00251518 -0.0727377
0.00104758 -0.0724874
0.00684455 -0.0142168
0.00628179 -0.0129751
0.000156405 -0.073766
-8.51407e-05 -0.0749426
0.000204332 -0.0779796
0.000529927 -0.0780801
0.00413356 -0.0747154
0.0028757 -0.07519
0.00873954 -0.0587777
0.00802388 -0.0555063
-0.00748114 -0.0744136
-0.00832642 -0.072363
0.00221218 -0.03411
0.00416692 -0.0400654
0.00812968 -0.0457037
0.00741554 -0.0524092
-0.00630438 -0.0722949
-0.00566483 -0.0723342
-0.00839045 -0.0571979
-0.00899437 -0.0593005
0.0100751 -0.066523
0.0102742 -0.0673625
0.0111127 -0.0627868
0.0116151 -0.0684586
-0.00242308 -0.024434
-0.000675921 -0.0304588
-0.00816857 -0.0675081
-0.00797901 -0.0653716
-0.00745036 -0.0536983
-0.00661678 -0.0520333
0.00422244 -0.0460222
0.00525476 -0.0490313
0.00431679 -0.0390053
0.00231903 -0.0333222
0.00078091 -0.0781648
0.0011368 -0.0782746
-0.00419256 -0.0775197
-0.00432967 -0.076936
-0.000391019 -0.0789084
-0.000809278 -0.0796993
0.00365935 -0.0772403
0.00282549 -0.0772822
-0.00298778 -0.0760725
-0.00183657 -0.0761397
-0.00391538 -0.079014
-0.00358786 -0.0788209
-0.000885052 -0.0510112
-0.00251225 -0.0413971
0.000957169 -0.00933416
0.000410422 -0.00226954
-0.000577389 -0.0711863
-0.00128155 -0.0726465
0.00777316 -0.0650357
0.00835603 -0.0657242
0.0029814 -0.0762362
0.0026455 -0.0768113
0.00713047 -0.0139773
0.00794013 -0.0119781
-0.00786273 -0.055512
-0.00770808 -0.0566847
-0.00963344 -0.0697282
-0.00851872 -0.0727153
-0.0001247 -0.0785053
-0.000555763 -0.0784172
-0.00424602 -0.0704919
-0.00445509 -0.0678146
-0.00845518 -0.0601683
-0.00808118 -0.0564807
0.0012643 -0.0783145
0.000855101 -0.0781778
0.0023903 -0.00483589
0.00313426 -0.00972116
0.00693144 -0.0521971
0.00528547 -0.0469075
0.00638787 -0.0756131
0.00889527 -0.0721575
0.00576821 -0.0770837
0.00432765 -0.0788599
-0.000292619 -0.0691243
0.000989101 -0.0711034
0.00521576 -0.0747853
0.0047184 -0.0757096
0.000294765 -0.067123
9.37986e-05 -0.0700332
-0.000456809 -0.0702797
0.00153169 -0.0692134
-0.00623043 -0.0761578
-0.00599208 -0.0767104
0.00175994 -0.0752113
0.00118899 -0.0752297
-0.00159534 -0.0313477
-0.00350157 -0.036373
0.00151701 -0.031928
0.00300263 -0.0380223
0.00058132 -0.0778053
0.000901532 -0.0779471
-0.007225 -0.0677121
-0.00637662 -0.0681538
0.002216 -0.0776909
0.00198067 -0.0780536
-0.00214251 -0.0746552
-0.00181484 -0.0750266
0.0100664 -0.0667493
0.00971119 -0.0671816
0.00589362 -0.0454442
0.00420904 -0.0398977
0.00588592 -0.0107641
0.0052513 -0.0149893
0.00764862 -0.0734787
0.00762775 -0.072708
-0.00848857 -0.0706872
-0.00816446 -0.0724222
0.00323041 -0.00262584
0.00510267 -0.00524395
-0.00668625 -0.0628541
-0.00701377 -0.0583399
-0.00850926 -0.0573521
-0.0072084 -0.0527361
0.00537247 -0.0692998
0.0059759 -0.0664379
-0.00401407 -0.0574097
-0.00210241 -0.0555579
0.00775753 -0.0661541
0.0069613 -0.0665437
0.00741864 -0.0735792
0.00721155 -0.0730806
-0.00570237 -0.0497952
-0.00660707 -0.0467707
-0.00602026 -0.0510369
-0.00498794 -0.0484318
0.00328137 -0.0694216
0.00430534 -0.0666292
-0.00394101 -0.0786084
-0.00411849 -0.0779268
-0.00479742 -0.0677097
-0.00359713 -0.0648587
-0.00408523 -0.079294
-0.00186628 -0.0819407
0.00487512 -0.0600435
0.000911594 -0.0605828
-0.00722782 -0.055009
-0.00663729 -0.0569036
-0.00618945 -0.0749685
-0.00701945 -0.0743141
-0.0024458 -0.0701176
-0.000409745 -0.069479
0.00192485 -0.0748594
0.00102111 -0.0751814
0.00405487 -0.0775503
0.00346964 -0.0784122
0.00493117 -0.0112517
0.00432981 -0.00712989
0.00177505 -0.0281234
0.00112351 -0.0318119
-0.00305043 -0.0742679
-0.00288082 -0.0740064
0.00704514 -0.0513227
0.00732188 -0.0529504
0.006896 -0.0634687
0.00681749 -0.0666453
-0.00549123 -0.0775861
-0.00706715 -0.0752844
-0.00313926 -0.0783045
-0.00254289 -0.0791449
0.00848318 -0.0725294
0.00831038 -0.0724982
0.00759996 -0.0557979
0.00682178 -0.0504102
-0.00324891 -0.0699338
-0.00213216 -0.0676624
0.0103312 -0.0632502
0.00889812 -0.0584223
0.00313276 -0.0406107
0.00557171 -0.0309124
-0.0022092 -0.0815416
-0.00260763 -0.0810351
-0.00125393 -0.0783388
-0.000937232 -0.0781579
0.00465521 -0.0471984
0.00548473 -0.0529276
0.00360572 -0.0356981
0.00417882 -0.0362146
-0.00245577 -0.0812414
-0.00180283 -0.0819794
0.00531425 -0.0775729
0.00417203 -0.0786714
0.00124072 -0.0757519
0.000798619 -0.0761775
-0.00221784 -0.0270887
-0.000375254 -0.0201421
-0.00481174 -0.0393902
-0.00556996 -0.0428827
-0.00740552 -0.0744986
-0.00801089 -0.0728902
-0.00604664 -0.0476139
-0.00560968 -0.0472846
-0.0106824 -0.0694291
-0.00760481 -0.0745409
-0.00609323 -0.0757916
-0.00648206 -0.074777
0.0041609 -0.0604349
0.00473819 -0.0549853
0.00140785 -0.0818369
0.0010046 -0.0816789
0.0103883 -0.06489
0.0100598 -0.0655246
0.00265339 -0.0755081
0.00145221 -0.0756698
0.00905231 -0.0715802
0.0100423 -0.0688409
-0.00327122 -0.0630062
-0.00134045 -0.0626319
0.00448034 -0.0685825
0.00666232 -0.0652605
0.000649659 -0.00387869
5.11123e-05 -0.0138964
0.000404781 -0.078673
0.000352138 -0.0797099
-0.00477894 -0.0742897
-0.00505157 -0.0746897
0.00522992 -0.0489352
0.00757507 -0.0548098
-0.00647267 -0.0162537
-0.00619684 -0.016817
-0.00451844 -0.0468076
-0.00439172 -0.0453291
-0.000720031 -0.000820763
-0.000238322 -0.000221259
-0.00797407 -0.0557513
-0.00857339 -0.0598186
-0.000504008 -0.0753725
-6.13128e-05 -0.0756093
-0.000491983 -0.0734716
-0.000600334 -0.0746909
-0.00296318 -0.0697282
-0.00110462 -0.0682419
-0.00739803 -0.00979178
-0.00794059 -0.00881022
0.00310347 -0.0220911
0.00249274 -0.0263999
0.0029493 -0.0706309
0.00308394 -0.0680326
-0.000398794 -0.072686
0.000423543 -0.0739439
0.00892044 -0.0583472
0.0080553 -0.055826
0.000281163 -0.0752759
0.00037939 -0.0744569
0.0047305 -0.0108667
0.00583724 -0.0107384
0.00466133 -0.00603322
0.00291369 -0.00379361
0.00054785 -0.000482128
0.00283678 -0.00239704
0.010818 -0.0633597
0.0103518 -0.0632077
-0.00255195 -0.0683858
-0.0036885 -0.0693671
0.000334123 -0.0203077
-0.00137776 -0.0122289
-0.000914042 -0.0823592
-0.00175344 -0.0810847
-0.0021963 -0.0266776
-0.000306814 -0.0193301
0.00424783 -0.0230646
0.00357991 -0.0239962
-0.00148267 -0.071307
6.06717e-06 -0.0715059
0.0101565 -0.0647361
0.00995661 -0.0671891
0.0025009 -0.0810873
0.00436053 -0.0788964
0.00498234 -0.0405595
0.00631617 -0.0471903
-0.00453121 -0.0194503
-0.0041933 -0.0167215
0.00124262 -0.0810014
0.00264425 -0.0796081
-0.00633871 -0.0760536
-0.00622802 -0.0764858
0.00524962 -0.0436992
0.00444579 -0.0457462
-0.00682755 -0.0531016
-0.0059982 -0.0505391
0.00197741 -0.00342203
0.00337787 -0.0058129
-0.000260145 -0.0778784
-0.000824629 -0.0779922
-0.000419181 -0.0243155
-0.00179474 -0.0250171
-0.00578585 -0.0659763
-0.00685551 -0.0654691
-3.94574e-05 -0.0732518
-0.00125133 -0.0730232
0.000357373 -0.0750277
0.00108953 -0.0741655
0.00200005 -0.0775136
0.00206495 -0.0778038
0.00503601 -0.016958
0.00612023 -0.0128642
0.00652004 -0.0486903
0.00771502 -0.054091
0.00448071 -0.0381925
0.00335841 -0.0341671
-0.00438373 -0.0768302
-0.00381126 -0.0775339
-0.00238605 -0.0738668
-0.00276174 -0.0724684
-0.00887131 -0.0587735
-0.00756801 -0.0540618
-0.00561938 -0.0772244
-0.00676829 -0.075544
0.0023356 -0.0466001
-0.000456513 -0.0523295
-0.00324008 -0.072108
-0.00395598 -0.0722844
-0.00149217 -0.0728247
-0.00264369 -0.0713482
-0.000963514 -0.0753077
-0.0022381 -0.0748903
-0.000195198 -0.0775749
0.000725558 -0.0775174
0.00139443 -0.0752653
0.00199978 -0.0752916
0.00779758 -0.0546201
0.00883625 -0.0586623
0.000868544 -0.00584654
-0.000500761 -0.0109708
0.00521932 -0.00591377
0.00672662 -0.00884131
0.000511569 -0.0778453
0.000749046 -0.0780012
0.00742039 -0.0536043
0.00782975 -0.0547439
-0.000913861 -0.0372925
-0.00334896 -0.0439071
-0.00143279 -0.0736734
-0.000694294 -0.0748105
-0.001835 -0.0758515
-0.00297363 -0.0757594
-0.00302374 -0.0298578
-0.000992163 -0.0220075
-0.00123536 -0.0278751
0.000839183 -0.0320954
-0.000208749 -0.0783815
-0.000519509 -0.0782445
0.000171209 -0.0753354
-2.10563e-05 -0.0754908
-0.00117393 -0.0778696
-0.000427008 -0.0779385
0.000100804 -0.0325622
0.00123709 -0.0295709
0.00699159 -0.0502708
0.00621324 -0.0408516
0.000105123 -0.0782906
0.000305093 -0.0782722
0.00320113 -0.073851
0.00211689 -0.074772
0.00206124 -0.0813655
0.00376076 -0.0795842
-0.0129253 -0.0668158
-0.010276 -0.0607564
-0.00403756 -0.0460176
-0.00174063 -0.039671
0.000742961 -0.00153466
0.00149944 -0.00210394
-0.00697659 -0.0749344
-0.00990941 -0.0709362
0.00913483 -0.0710175
0.00947782 -0.0695182
0.00111633 -0.0779229
0.000563903 -0.0780958
0.00814 -0.0731584
0.00860714 -0.0723102
-0.00635704 -0.015724
-0.00725212 -0.0122454
0.00592802 -0.0653621
0.004688 -0.0669104
0.000647446 -0.0821182
0.00205058 -0.0804971
0.00698364 -0.0527042
0.00834119 -0.0565374
0.00149761 -0.038193
0.00119916 -0.0382196
-2.01135e-05 -0.0756096
-9.89381e-05 -0.0753846
0.00131949 -0.0762253
0.00257224 -0.0757832
0.00570845 -0.0715313
0.00451988 -0.0729011
0.00133926 -0.0736576
0.00235701 -0.0721013
-0.00651864 -0.0759274
-0.00792653 -0.0736578
0.00162115 -0.0706583
0.003058 -0.0700089
-0.0039411 -0.0794933
-0.00568872 -0.077313
-0.00330266 -0.0703558
-0.00330834 -0.0721389
0.00731082 -0.0140466
0.00661873 -0.0145515
0.00345434 -0.0747088
0.00475904 -0.0738574
-0.000891559 -0.0780911
-0.0015172 -0.0781508
-0.00566608 -0.0501436
-0.00720975 -0.0538596
-0.00782102 -0.0104329
-0.00691706 -0.00972784
0.00130938 -0.0127419
0.00235601 -0.0112971
0.00579986 -0.0683396
0.00529937 -0.0705901
0.00100445 -0.0739268
0.00209829 -0.0725857
0.00962571 -0.0615687
0.0101018 -0.0654317
0.00381262 -0.0748482
0.002582 -0.0752397
0.00267038 -0.0413474
0.00422881 -0.046183
0.00208224 -0.0264568
0.00149446 -0.023811
0.00461657 -0.0471923
0.00201699 -0.0399651
9.19516e-05 -0.0779044
0.000499163 -0.0776636
0.0028974 -0.0396084
0.00560637 -0.0428644
0.00215235 -0.0798214
0.00135018 -0.0811043
0.000668836 -0.0360212
-0.00159673 -0.0301088
0.00378252 -0.0449564
0.00214282 -0.040835
-0.002022 -0.0381561
-0.000977009 -0.0332703
0.0062942 -0.0157339
0.00626368 -0.0172569
-0.0067243 -0.0757261
-0.00485043 -0.0781796
-0.00347629 -0.00349572
-0.00451311 -0.00403363
0.00773478 -0.0551098
0.00580563 -0.0487096
-0.00424576 -0.00775972
-0.00538076 -0.0105375
0.00301628 -0.0188808
0.00321044 -0.0142631
-0.000455726 -0.0753738
3.96662e-05 -0.0753813
0.00153183 -0.0205699
-0.00471407 -0.0228671
0.00377018 -0.0795496
0.00348429 -0.0797373
-0.00727293 -0.0122435
-0.00799151 -0.0114749
-0.00963956 -0.0670385
-0.00921709 -0.0698683
-0.000752737 -0.0752999
0.000253445 -0.0753633
0.00554585 -0.00687352
0.00699892 -0.00837162
0.00107323 -0.00119117
0.00169463 -0.0023076
-0.00257789 -0.0757013
-0.00372886 -0.0754827
-0.00267301 -0.00240791
-0.00531702 -0.0051536
0.00267843 -0.0808809
0.00326872 -0.0801141
0.00886752 -0.0716988
0.00768286 -0.0742029
-0.00494773 -0.077352
-0.00504954 -0.0767522
0.00150344 -0.0775573
0.0015525 -0.0772155
-0.00293062 -0.0778023
-0.00207796 -0.0781736
0.00367424 -0.0736049
0.0039228 -0.072696
0.000677264 -0.0752839
0.00102355 -0.0751453
0.00468095 -0.00647829
0.00527628 -0.0098127
-0.000756856 -0.0171391
-0.00207591 -0.0106051
0.00814665 -0.0722287
0.00798443 -0.0715306
0.000132419 -0.0781844
4.43479e-05 -0.0783122
-0.000687333 -0.0753401
0.000282391 -0.0753994
-0.00021999 -0.0647057
0.00209304 -0.0638533
0.00521483 -0.0116309
0.00491556 -0.0161704
-0.00054631 -0.0783358
-0.000716459 -0.0781492
0.00306589 -0.040954
0.00397466 -0.0418485
-0.00252525 -0.0145688
-0.00272717 -0.00913872
0.00827549 -0.0730179
0.00836606 -0.0727692
-0.00555347 -0.0758245
-0.00448362 -0.0766695
0.000219955 -0.0354963
0.0026168 -0.041974
0.00454053 -0.0206124
0.00833702 -0.0356737
-0.0053165 -0.0738509
-0.00422381 -0.0744245
-0.00901804 -0.0683165
-0.008401 -0.0701651
0.00207856 -0.0750432
0.00161241 -0.0750512
-0.00169478 -0.0259849
-0.0011907 -0.0379404
0.000898636 -0.0752108
-7.22808e-05 -0.0753872
0.0028645 -0.0245292
0.00450582 -0.0192657
0.0111203 -0.0507901
0.00724973 -0.0410067
-0.00067108 -0.0783837
-0.00138677 -0.0782709
0.00309181 -0.0583536
0.00472183 -0.0624605
0.00662436 -0.0493449
0.00683441 -0.0500864
-0.00398935 -0.0790295
-0.00507422 -0.077518
-0.000209997 -0.0752535
0.000160325 -0.0754403
0.00287547 -0.0625178
0.00412124 -0.0660839
-0.00111851 -0.075074
-0.000593941 -0.0752159
-0.00147339 -0.0291312
-0.00185324 -0.0295089
-0.00100639 -0.0733325
0.000126326 -0.0737008
-0.00329119 -0.0742793
-0.00454246 -0.0732548
-0.00568252 -0.0723284
-0.00448977 -0.0735621
0.0091913 -0.0678613
0.00942183 -0.0648513
0.000240869 -0.0714449
0.000955719 -0.0688039
-0.00127284 -0.00578702
-0.000437572 -0.0071443
0.00394698 -0.0745329
0.00519575 -0.073737
-0.00359992 -0.0241929
-0.00155552 -0.0295592
0.00318038 -0.0340511
0.00384061 -0.0344559
-0.00430335 -0.0785644
-0.00331687 -0.0791513
0.00133379 -0.0778566
0.000796122 -0.0780706
-0.00780736 -0.0590754
-0.0074354 -0.0544201
0.0036442 -0.00809319
0.00474706 -0.0102398
1.68076e-05 -0.0753814
0.000994418 -0.0753143
-0.00235464 -0.0775187
-0.00189334 -0.077883
-0.00875983 -0.0582506
-0.0100842 -0.0629122
-0.00138259 -0.0702108
-0.0003934 -0.0721829
-0.000937817 -0.078186
-0.00170186 -0.0781069
-0.00100089 -0.0781848
-0.00178036 -0.078078
0.00671056 -0.0496414
0.00561058 -0.0432264
0.00915383 -0.0584425
0.0116592 -0.0636639
-0.00143524 -0.0750699
-0.000651802 -0.0753497
0.00276608 -0.0799783
0.0022926 -0.0797753
0.00243703 -0.0306051
0.0042029 -0.0375364
-0.00296213 -0.0783733
-0.00383067 -0.0782568
0.00812363 -0.070676
0.00853786 -0.0707277
0.00835414 -0.0646106
0.00842429 -0.0672946
-0.00931876 -0.0676459
-0.00898475 -0.0703093
0.00424775 -0.0692335
0.00349127 -0.0715923
0.000251854 -0.0783046
0.000526413 -0.0782354
-0.00578409 -0.0545504
-0.00685445 -0.0566518
0.00818881 -0.0104813
0.00743432 -0.00999583
0.00586442 -0.016971
0.00505882 -0.0205413
-0.00209033 -0.0719083
-0.00330676 -0.0714576
-0.00252236 -0.0745405
-0.00343772 -0.074136
-0.000959291 -0.0779855
-0.00168215 -0.0780047
-0.00476459 -0.0053916
-0.00407495 -0.00551487
-0.00257097 -0.0406611
-0.00140198 -0.0387157
0.0105591 -0.0663327
0.00977793 -0.0700157
-0.00552046 -0.0765076
-0.00572082 -0.0757658
-0.00797773 -0.0687428
-0.00859852 -0.0665579
-0.00554712 -0.0734801
-0.00658461 -0.0719093
-0.00320591 -0.0744332
-0.00389841 -0.0734998
0.00690807 -0.0751339
0.00643345 -0.0756033
-0.0029077 -0.0765292
-0.00411413 -0.0760241
0.00648722 -0.0591412
0.00422613 -0.0535935
-0.00185421 -0.0143998
-0.00153062 -0.0105367
-0.0023577 -0.0354386
-0.00523103 -0.040751
0.000633655 -0.0332724
-0.000836018 -0.036864
0.00310749 -0.0227831
0.00123849 -0.0286978
-0.00729047 -0.0526346
-0.00596679 -0.0471405
-0.00860365 -0.0623666
-0.0087889 -0.0654428
0.00945285 -0.0645931
0.00968159 -0.0661391
-0.00322336 -0.0751945
-0.00298996 -0.0757504
-0.00183358 -0.0784555
-0.000992906 -0.078437
-0.00730091 -0.0662834
-0.00751525 -0.0628993
-0.00928156 -0.0713819
-0.0100698 -0.0689037
-7.3012e-05 -0.0756301
2.87694e-05 -0.0755632
0.0096126 -0.066398
0.00989282 -0.0668054
0.000160126 -0.075889
3.97415e-05 -0.0756374
-0.00449369 -0.0449627
-0.00369715 -0.0369936
-0.00975655 -0.0698209
-0.00901342 -0.0715986
-0.00609097 -0.0766278
-0.00788751 -0.0738534
-0.000992599 -0.0179871
0.00197002 -0.025712
0.000814597 -0.0290301
-0.0010339 -0.0222601
-0.00733383 -0.0747722
-0.00861238 -0.0725425
0.00194826 -0.0817014
0.00304908 -0.080417
2.39174e-05 -0.0332603
-0.000842759 -0.0213166
-0.00496121 -0.048448
-0.0048465 -0.048023
-0.00968026 -0.0711954
-0.0110073 -0.06719
-0.00362698 -0.0593277
-0.00210117 -0.0631554
-0.00401055 -0.00486579
-0.00575372 -0.00676858
0.00415516 -0.0123267
0.00397002 -0.00770496
-0.00387927 -0.079127
-0.00495171 -0.0781591
0.00730986 -0.0661097
0.00777674 -0.0673749
0.00432682 -0.0438679
0.00634002 -0.049909
-0.000585386 -0.0753881
-0.00104029 -0.0752612
-0.00970968 -0.0614405
-0.00941857 -0.0610869
0.00676247 -0.074894
0.00690277 -0.0751835
0.00316498 -0.0770558
0.00249254 -0.0769271
-0.00510159 -0.0123243
-0.00509886 -0.00835512
0.000491355 -0.0750362
0.00107788 -0.0738694
0.00113973 -0.0790771
0.00177043 -0.0795459
-0.000924228 -0.0783564
-0.00160903 -0.0781613
-5.34521e-05 -0.0756039
-0.000453417 -0.0754322
-0.00430199 -0.0566239
-0.00536794 -0.0599428
-0.000738999 -0.0752574
-0.000462116 -0.0749286
0.000664024 -0.000953395
0.00261991 -0.00516745
-0.0108864 -0.0607181
-0.00693248 -0.0512004
0.00936822 -0.0678286
0.00911185 -0.0670669
-0.00212386 -0.0716459
-0.00194511 -0.0734241
0.00141023 -0.0759766
0.00274646 -0.0756314
0.0028085 -0.0747618
0.00410592 -0.0738933
-0.00306245 -0.077202
-0.00253568 -0.0769928
-0.000231027 -0.0174512
-0.000162081 -0.0197486
-0.00612734 -0.0604846
-0.00273953 -0.0569639
-0.00138711 -0.0802716
-0.00284743 -0.080573
-0.00284743 -0.080573
-0.00438775 -0.0809614
-0.00438775 -0.0809614
-0.00597228 -0.0814666
-0.00597228 -0.0814666
-0.00756899 -0.082106
-0.00756899 -0.082106
-0.00915349 -0.0828737
-0.00915349 -0.0828737
-0.0106966 -0.0837695
-0.0106966 -0.0837695
-0.0121748 -0.0847851
-0.0121748 -0.0847851
-0.0135673 -0.0859095
-0.0135673 -0.0859095
-0.0148547 -0.0871294
-0.0148547 -0.0871294
-0.0160239 -0.0884274
-0.0160239 -0.0884274
-0.017063 -0.0897856
-0.017063 -0.0897856
-0.0179648 -0.0911851
-0.0179648 -0.0911851
-0.0187263 -0.0926063
-0.0187263 -0.0926063
-0.0193432 -0.0940276
-0.0193432 -0.0940276
-0.0198213 -0.0954369
-0.0198213 -0.0954369
-0.020165 -0.0968121
-0.020165 -0.0968121
-0.0203802 -0.0981392
-0.0203802 -0.0981392
-0.0204779 -0.0994088
-0.0204779 -0.0994088
-0.0204671 -0.100604
-0.0204671 -0.100604
-0.0203617 -0.101721
-0.0203617 -0.101721
-0.0201707 -0.102755
-0.0201707 -0.102755
-0.019906 -0.103699
-0.019906 -0.103699
-0.0195817 -0.104552
-0.0195817 -0.104552
-0.0192045 -0.105317
-0.0192045 -0.105317
-0.0187815 -0.105998
-0.0187815 -0.105998
-0.0183216 -0.106592
-0.0183216 -0.106592
-0.0178322 -0.107105
-0.0178322 -0.107105
-0.017309 -0.107549
-0.017309 -0.107549
-0.016751 -0.107921
-0.016751 -0.107921
-0.0161665 -0.108222
-0.0161665 -0.108222
-0.0155451 -0.108448
-0.0155451 -0.108448
-0.0148743 -0.108615
-0.0148743 -0.108615
-0.0141546 -0.108716
-0.0141546 -0.108716
-0.0133822 -0.108724
-0.0133822 -0.108724
-0.0125306 -0.108644
-0.0125306 -0.108644
-0.0115999 -0.108483
-0.0115999 -0.108483
-0.0105846 -0.1082
-0.0105846 -0.1082
-0.00947026 -0.107744
-0.00947026 -0.107744
-0.0082493 -0.107126
-0.0082493 -0.107126
-0.00692567 -0.106317
-0.00692567 -0.106317
-0.00549042 -0.105222
-0.00549042 -0.105222
-0.00395728 -0.103807
-0.00395728 -0.103807
-0.00233547 -0.10201
-0.00233547 -0.10201
-0.000607548 -0.0996995
-0.000607548 -0.0996995
0.00114342 -0.0967194
0.00114342 -0.0967194
0.00294465 -0.0929096
0.00294465 -0.0929096
0.00477512 -0.0877189
0.00477512 -0.0877189
0.00669949 -0.0809786
0.00669949 -0.0809786
0.0093436 -0.0737547
0.0093436 -0.0737547
0.0108924 -0.0702514
0.0108924 -0.0702514
0.0110051 -0.0689909
0.0110051 -0.0689909
0.010718 -0.0685145
0.010718 -0.0685145
0.010416 -0.0685011
0.010416 -0.0685011
0.0100983 -0.0688176
0.0100983 -0.0688176
0.00983362 -0.0693585
0.00983362 -0.0693585
0.00952635 -0.0701022
0.00952635 -0.0701022
0.00912399 -0.0710023
0.00912399 -0.0710023
0.00870941 -0.0720281
0.00870941 -0.0720281
0.00825142 -0.0730802
0.00825142 -0.0730802
0.00771505 -0.0740869
0.00771505 -0.0740869
0.00709893 -0.0750213
0.00709893 -0.0750213
0.00644925 -0.0758889
0.00644925 -0.0758889
0.00577695 -0.0766637
0.00577695 -0.0766637
0.00507921 -0.077339
0.00507921 -0.077339
0.00437452 -0.0779223
0.00437452 -0.0779223
0.00366969 -0.0784175
0.00366969 -0.0784175
0.00296636 -0.0788276
0.00296636 -0.0788276
0.00225419 -0.0791694
0.00225419 -0.0791694
0.00152485 -0.0794548
0.00152485 -0.0794548
0.00075653 -0.0797109
0.00075653 -0.0797109
-0.000161905 -0.0799755
-0.000161905 -0.0799755
-0.00138711 -0.0802716
0.0116216 -0.108579
0.0125494 -0.108739
0.0125494 -0.108739
0.0134001 -0.108815
0.0134001 -0.108815
0.0141717 -0.108809
0.0141717 -0.108809
0.0148883 -0.108712
0.0148883 -0.108712
0.0155565 -0.108546
0.0155565 -0.108546
0.0161765 -0.108324
0.0161765 -0.108324
0.0167571 -0.108024
0.0167571 -0.108024
0.0173125 -0.107657
0.0173125 -0.107657
0.017834 -0.107214
0.017834 -0.107214
0.0183216 -0.106703
0.0183216 -0.106703
0.0187792 -0.106112
0.0187792 -0.106112
0.0192002 -0.105433
0.0192002 -0.105433
0.0195763 -0.10467
0.0195763 -0.10467
0.0198993 -0.103821
0.0198993 -0.103821
0.0201627 -0.102883
0.0201627 -0.102883
0.0203529 -0.101848
0.0203529 -0.101848
0.0204591 -0.100737
0.0204591 -0.100737
0.0204696 -0.0995508
0.0204696 -0.0995508
0.0203743 -0.0982845
0.0203743 -0.0982845
0.020158 -0.0969577
0.020158 -0.0969577
0.0198158 -0.0955863
0.0198158 -0.0955863
0.01934 -0.0941829
0.01934 -0.0941829
0.018723 -0.0927635
0.018723 -0.0927635
0.0179648 -0.0913456
0.0179648 -0.0913456
0.0170665 -0.0899522
0.0170665 -0.0899522
0.0160289 -0.0885965
0.0160289 -0.0885965
0.0148641 -0.0873028
0.0148641 -0.0873028
0.0135798 -0.0860868
0.0135798 -0.0860868
0.0121919 -0.0849648
0.0121919 -0.0849648
0.0107188 -0.0839515
0.0107188 -0.0839515
0.00918095 -0.0830567
0.00918095 -0.0830567
0.0076051 -0.0822916
0.0076051 -0.0822916
0.00601185 -0.0816557
0.00601185 -0.0816557
0.00443914 -0.0811504
0.00443914 -0.0811504
0.00290733 -0.0807606
0.00290733 -0.0807606
0.00146792 -0.0804567
0.00146792 -0.0804567
0.000247388 -0.0801663
0.000247388 -0.0801663
-0.000666514 -0.0799004
-0.000666514 -0.0799004
-0.00144462 -0.0796459
-0.00144462 -0.0796459
-0.00218209 -0.0793613
-0.00218209 -0.0793613
-0.0029042 -0.0790236
-0.0029042 -0.0790236
-0.00361978 -0.0786122
-0.00361978 -0.0786122
-0.00433654 -0.0781115
-0.00433654 -0.0781115
-0.00504566 -0.0775185
-0.00504566 -0.0775185
-0.00574752 -0.0768309
-0.00574752 -0.0768309
-0.00642401 -0.0760431
-0.00642401 -0.0760431
-0.00706066 -0.0751539
-0.00706066 -0.0751539
-0.00765128 -0.0741799
-0.00765128 -0.0741799
-0.00820216 -0.0731675
-0.00820216 -0.0731675
-0.00868305 -0.0721998
-0.00868305 -0.0721998
-0.00909108 -0.0712665
-0.00909108 -0.0712665
-0.00943535 -0.0704055
-0.00943535 -0.0704055
-0.00975184 -0.0696379
-0.00975184 -0.0696379
-0.0100765 -0.0690407
-0.0100765 -0.0690407
-0.0103563 -0.0686973
-0.0103563 -0.0686973
-0.0106362 -0.0686674
-0.0106362 -0.0686674
-0.0108383 -0.0691533
-0.0108383 -0.0691533
-0.0107207 -0.0703757
-0.0107207 -0.0703757
-0.00941972 -0.0737814
-0.00941972 -0.0737814
-0.00657841 -0.0810357
-0.00657841 -0.0810357
-0.00460445 -0.0876146
-0.00460445 -0.0876146
-0.00288786 -0.0928896
-0.00288786 -0.0928896
-0.00111138 -0.0968399
-0.00111138 -0.0968399
0.000673451 -0.0997823
0.000673451 -0.0997823
0.00236501 -0.102113
0.00236501 -0.102113
0.00399721 -0.103884
0.00399721 -0.103884
0.00554189 -0.105292
0.00554189 -0.105292
0.00696887 -0.106406
0.00696887 -0.106406
0.00828285 -0.107224
0.00828285 -0.107224
0.00950139 -0.107827
0.00950139 -0.107827
0.0106156 -0.108279
0.0106156 -0.108279
0.0116216 -0.108579
      </DataArray> 
      <DataArray type="Float64" NumberOfComponents="2" Name="Velocity" format="ascii">
0 0
0 0
0 0
0 0
0 0
0 0
0 0
0 0
0 0
0 0
0 0
0 0
0 0
0 0
0 0
0 0
0 0
0 0
0 0
0 0
0 0
0 0
0 0
0 0
0 0
0 0
0 0
0 0
0 0
0 0
0 0
0 0
0 0
0 0
0 0
0 0
0 0
0 0
0 0
0 0
0 0
0 0
0 0
0 0
0 0
0 0
0 0
0 0
0 0
0 0
0 0
0 0
0 0
0 0
0 0
0 0
0 0
0 0
0 0
0 0
0 0
0 0
0 0
0 0
0 0
0 0
0 0
0 0
0 0
0 0
0 0
0 0
0 0
0 0
0 0
0 0
0 0
0 0
0 0
0 0
0 0
0 0
0 0
0 0
0 0
0 0
0 0
0 0
0 0
0 0
0 0
0 0
0 0
0 0
0 0
0 0
0 0
0 0
0 0
0 0
0 0
0 0
0 0
0 0
0 0
0 0
0 0
0 0
0 0
0 0
0 0
0 0
0 0
0 0
0 0
0 0
0 0
0 0
0 0
0 0
0 0
0 0
0 0
0 0
0 0
0 0
0 0
0 0
0 0
0 0
0 0
0 0
0 0
0 0
0 0
0 0
0 0
0 0
0 0
0 0
0 0
0 0
0 0
0 0
0 0
0 0
0 0
0 0
0 0
0 0
0 0
0 0
0 0
0 0
0 0
0 0
0 0
0 0
0 0
0 0
0 0
0 0
0 0
0 0
0 0
0 0
0 0
0 0
0 0
0 0
0 0
0 0
0 0
0 0
0 0
0 0
0 0
0 0
0 0
0 0
0 0
0 0
0 0
0 0
0 0
0 0
0 0
0 0
0 0
0 0
0 0
0 0
0 0
0 0
0 0
0 0
0 0
0 0
0 0
0 0
0 0
0 0
0 0
0 0
0 0
0 0
0 0
0 0
0 0
0 0
0 0
0 0
0 0
0 0
0 0
0 0
0 0
0 0
0 0
0 0
0 0
0 0
0 0
0 0
0 0
0 0
0 0
0 0
0 0
0 0
0 0
0 0
0 0
0 0
0 0
0 0
0 0
0 0
0 0
0 0
0 0
0 0
0 0
0 0
0 0
0 0
0 0
0 0
0 0
0 0
0 0
0 0
0 0
0 0
0 0
0 0
0 0
0 0
0 0
0 0
0 0
0 0
0 0
0 0
0 0
0 0
0 0
0 0
0 0
0 0
0 0
0 0
0 0
0 0
0 0
0 0
0 0
0 0
0 0
0 0
0 0
0 0
0 0
0 0
0 0
0 0
0 0
0 0
0 0
0 0
0 0
0 0
0 0
0 0
0 0
0 0
0 0
0 0
0 0
0 0
0 0
0 0
0 0
0 0
0 0
0 0
0 0
0 0
0 0
0 0
0 0
0 0
0 0
0 0
0 0
0 0
0 0
0 0
0 0
0 0
0 0
0 0
0 0
0 0
0 0
0 0
0 0
0 0
0 0
0 0
0 0
0 0
0 0
0 0
0 0
0 0
0 0
0 0
0 0
0 0
0 0
0 0
0 0
0 0
0 0
0 0
0 0
0 0
0 0
0 0
0 0
0 0
0 0
0 0
0 0
0 0
0 0
0 0
0 0
0 0
0 0
0 0
0 0
0 0
0 0
0 0
0 0
0 0
0 0
0 0
0 0
0 0
0 0
0 0
0 0
0 0
0 0
0 0
0 0
0 0
0 0
0 0
0 0
0 0
0 0
0 0
0 0
0 0
0 0
0 0
0 0
0 0
0 0
0 0
0 0
0 0
0 0
0 0
0 0
0 0
0 0
0 0
0 0
0 0
0 0
0 0
0 0
0 0
0 0
0 0
0 0
0 0
0 0
0 0
0 0
0 0
0 0
0 0
0 0
0 0
0 0
0 0
0 0
0 0
0 0
0 0
0 0
0 0
0 0
0 0
0 0
0 0
0 0
0 0
0 0
0 0
0 0
0 0
0 0
0 0
0 0
0 0
0 0
0 0
0 0
0 0
0 0
0 0
0 0
0 0
0 0
0 0
0 0
0 0
0 0
0 0
0 0
0 0
0 0
0 0
0 0
0 0
0 0
0 0
0 0
0 0
0 0
0 0
0 0
0 0
0 0
0 0
0 0
0 0
0 0
0 0
0 0
0 0
0 0
0 0
0 0
0 0
0 0
0 0
0 0
0 0
0 0
0 0
0 0
0 0
0 0
0 0
0 0
0 0
0 0
0 0
0 0
0 0
0 0
0 0
0 0
0 0
0 0
0 0
0 0
0 0
0 0
0 0
0 0
0 0
0 0
0 0
0 0
0 0
0 0
0 0
0 0
0 0
0 0
0 0
0 0
0 0
0 0
0 0
0 0
0 0
0 0
0 0
0 0
0 0
0 0
0 0
0 0
0 0
0 0
0 0
0 0
0 0
0 0
0 0
0 0
0 0
0 0
0 0
0 0
0 0
0 0
0 0
0 0
0 0
0 0
0 0
0 0
0 0
0 0
0 0
0 0
0 0
0 0
0 0
0 0
0 0
0 0
0 0
0 0
0 0
0 0
0 0
0 0
0 0
0 0
0 0
0 0
0 0
0 0
0 0
0 0
0 0
0 0
0 0
0 0
0 0
0 0
0 0
0 0
0 0
0 0
0 0
0 0
0 0
0 0
0 0
0 0
0 0
0 0
0 0
0 0
0 0
0 0
0 0
0 0
0 0
0 0
0 0
0 0
0 0
0 0
0 0
0 0
0 0
0 0
0 0
0 0
0 0
0 0
0 0
0 0
0 0
0 0
0 0
0 0
0 0
0 0
0 0
0 0
0 0
0 0
0 0
0 0
0 0
0 0
0 0
0 0
0 0
0 0
0 0
0 0
0 0
0 0
0 0
0 0
0 0
0 0
0 0
0 0
0 0
0 0
0 0
0 0
0 0
0 0
0 0
0 0
0 0
0 0
0 0
0 0
0 0
0 0
0 0
0 0
0 0
0 0
0 0
0 0
0 0
0 0
0 0
0 0
0 0
0 0
0 0
0 0
0 0
0 0
0 0
0 0
0 0
0 0
0 0
0 0
0 0
0 0
0 0
0 0
0 0
0 0
0 0
0 0
0 0
0 0
0 0
0 0
0 0
0 0
0 0
0 0
0 0
0 0
0 0
0 0
0 0
0 0
0 0
0 0
0 0
0 0
0 0
0 0
0 0
0 0
0 0
0 0
0 0
0 0
0 0
0 0
0 0
0 0
0 0
0 0
0 0
0 0
0 0
0 0
0 0
0 0
0 0
0 0
0 0
0 0
0 0
0 0
0 0
0 0
0 0
0 0
0 0
0 0
0 0
0 0
0 0
0 0
0 0
0 0
0 0
0 0
0 0
0 0
0 0
0 0
0 0
0 0
0 0
0 0
0 0
0 0
0 0
0 0
0 0
0 0
0 0
0 0
0 0
0 0
0 0
0 0
0 0
0 0
0 0
0 0
0 0
0 0
0 0
0 0
0 0
0 0
0 0
0 0
0 0
0 0
0 0
0 0
0 0
0 0
0 0
0 0
0 0
0 0
0 0
0 0
0 0
0 0
0 0
0 0
0 0
0 0
0 0
0 0
0 0
0 0
0 0
0 0
0 0
0 0
0 0
0 0
0 0
0 0
0 0
0 0
0 0
0 0
0 0
0 0
0 0
0 0
0 0
0 0
0 0
0 0
0 0
0 0
0 0
0 0
0 0
0 0
0 0
0 0
0 0
0 0
0 0
0 0
0 0
0 0
0 0
0 0
0 0
0 0
0 0
0 0
0 0
0 0
0 0
0 0
0 0
0 0
0 0
0 0
0 0
0 0
0 0
0 0
0 0
0 0
0 0
0 0
0 0
0 0
0 0
0 0
0 0
0 0
0 0
0 0
0 0
0 0
0 0
0 0
0 0
0 0
0 0
0 0
0 0
0 0
0 0
0 0
0 0
0 0
0 0
0 0
0 0
0 0
0 0
0 0
0 0
0 0
0 0
0 0
0 0
0 0
0 0
0 0
0 0
0 0
0 0
0 0
0 0
0 0
0 0
0 0
0 0
0 0
0 0
0 0
0 0
0 0
0 0
0 0
0 0
0 0
0 0
0 0
0 0
0 0
0 0
0 0
0 0
0 0
0 0
0 0
0 0
0 0
0 0
0 0
0 0
0 0
0 0
0 0
0 0
0 0
0 0
0 0
0 0
0 0
0 0
0 0
0 0
0 0
0 0
0 0
0 0
0 0
0 0
0 0
0 0
0 0
0 0
0 0
0 0
0 0
0 0
0 0
0 0
0 0
0 0
0 0
0 0
0 0
0 0
0 0
0 0
0 0
0 0
0 0
0 0
0 0
0 0
0 0
0 0
0 0
0 0
0 0
0 0
0 0
0 0
0 0
0 0
0 0
0 0
0 0
0 0
0 0
0 0
0 0
0 0
0 0
0 0
0 0
0 0
0 0
0 0
0 0
0 0
0 0
0 0
0 0
0 0
0 0
0 0
0 0
0 0
0 0
0 0
0 0
0 0
0 0
0 0
0 0
0 0
0 0
0 0
0 0
0 0
0 0
0 0
0 0
0 0
0 0
0 0
0 0
0 0
0 0
0 0
0 0
0 0
0 0
0 0
0 0
0 0
0 0
0 0
0 0
0 0
0 0
0 0
0 0
0 0
0 0
0 0
0 0
0 0
0 0
0 0
0 0
0 0
0 0
0 0
0 0
0 0
0 0
0 0
0 0
0 0
0 0
0 0
0 0
0 0
0 0
0 0
0 0
0 0
0 0
0 0
0 0
0 0
0 0
0 0
0 0
0 0
0 0
0 0
0 0
0 0
0 0
0 0
0 0
0 0
0 0
0 0
0 0
0 0
0 0
0 0
0 0
0 0
0 0
0 0
0 0
0 0
0 0
0 0
0 0
0 0
0 0
0 0
0 0
0 0
0 0
0 0
0 0
0 0
0 0
0 0
0 0
0 0
0 0
0 0
0 0
0 0
0 0
0 0
0 0
0 0
0 0
0 0
0 0
0 0
0 0
0 0
0 0
0 0
0 0
0 0
0 0
0 0
0 0
0 0
0 0
0 0
0 0
0 0
0 0
0 0
0 0
0 0
0 0
0 0
0 0
0 0
0 0
0 0
0 0
0 0
0 0
0 0
0 0
0 0
0 0
0 0
0 0
0 0
0 0
0 0
0 0
0 0
0 0
0 0
0 0
0 0
0 0
0 0
0 0
0 0
0 0
0 0
0 0
0 0
0 0
0 0
0 0
0 0
0 0
0 0
0 0
0 0
0 0
0 0
0 0
0 0
0 0
0 0
0 0
0 0
0 0
0 0
0 0
0 0
0 0
0 0
0 0
0 0
0 0
0 0
0 0
0 0
0 0
0 0
0 0
0 0
0 0
0 0
0 0
0 0
0 0
0 0
0 0
0 0
0 0
0 0
0 0
0 0
0 0
0 0
0 0
0 0
0 0
0 0
0 0
0 0
0 0
0 0
0 0
0 0
0 0
0 0
0 0
0 0
0 0
0 0
0 0
0 0
0 0
0 0
0 0
0 0
0 0
0 0
0 0
0 0
0 0
0 0
0 0
0 0
0 0
0 0
0 0
0 0
0 0
0 0
0 0
0 0
0 0
0 0
0 0
0 0
0 0
0 0
0 0
0 0
0 0
0 0
0 0
0 0
0 0
0 0
0 0
0 0
0 0
0 0
0 0
0 0
0 0
0 0
0 0
0 0
0 0
0 0
0 0
0 0
0 0
0 0
0 0
0 0
0 0
0 0
0 0
0 0
0 0
0 0
0 0
0 0
0 0
0 0
0 0
0 0
0 0
0 0
0 0
0 0
0 0
0 0
0 0
0 0
0 0
0 0
0 0
0 0
0 0
0 0
0 0
0 0
0 0
0 0
0 0
0 0
0 0
0 0
0 0
0 0
0 0
0 0
0 0
0 0
0 0
0 0
0 0
0 0
0 0
0 0
0 0
0 0
0 0
0 0
0 0
0 0
0 0
0 0
0 0
0 0
0 0
0 0
0 0
0 0
0 0
0 0
0 0
0 0
0 0
0 0
0 0
0 0
0 0
0 0
0 0
0 0
0 0
0 0
0 0
0 0
0 0
0 0
0 0
0 0
0 0
0 0
0 0
0 0
0 0
0 0
0 0
0 0
0 0
0 0
0 0
0 0
0 0
0 0
0 0
0 0
0 0
0 0
0 0
0 0
0 0
0 0
0 0
0 0
0 0
0 0
0 0
0 0
0 0
0 0
0 0
0 0
0 0
0 0
0 0
0 0
0 0
0 0
0 0
0 0
0 0
0 0
0 0
0 0
0 0
0 0
0 0
0 0
0 0
0 0
0 0
0 0
0 0
0 0
0 0
0 0
0 0
0 0
0 0
0 0
0 0
0 0
0 0
0 0
0 0
0 0
0 0
0 0
0 0
0 0
0 0
0 0
0 0
0 0
0 0
0 0
0 0
0 0
0 0
0 0
0 0
0 0
0 0
0 0
0 0
0 0
0 0
0 0
0 0
0 0
0 0
0 0
0 0
0 0
0 0
0 0
0 0
0 0
0 0
0 0
0 0
0 0
0 0
0 0
0 0
0 0
0 0
0 0
0 0
0 0
0 0
0 0
0 0
0 0
0 0
0 0
0 0
0 0
0 0
0 0
0 0
0 0
0 0
0 0
0 0
0 0
0 0
0 0
0 0
0 0
0 0
0 0
0 0
0 0
0 0
0 0
0 0
0 0
0 0
0 0
0 0
0 0
0 0
0 0
0 0
0 0
0 0
0 0
0 0
0 0
0 0
0 0
0 0
0 0
0 0
0 0
0 0
0 0
0 0
0 0
0 0
0 0
0 0
0 0
0 0
0 0
0 0
0 0
0 0
0 0
0 0
0 0
0 0
0 0
0 0
0 0
0 0
0 0
0 0
0 0
0 0
0 0
0 0
0 0
0 0
0 0
0 0
0 0
0 0
0 0
0 0
0 0
0 0
0 0
0 0
0 0
0 0
0 0
0 0
0 0
0 0
0 0
0 0
0 0
0 0
0 0
0 0
0 0
0 0
0 0
0 0
0 0
0 0
0 0
0 0
0 0
0 0
0 0
0 0
0 0
0 0
0 0
0 0
0 0
0 0
0 0
0 0
0 0
0 0
0 0
0 0
0 0
0 0
0 0
0 0
0 0
0 0
0 0
0 0
0 0
0 0
0 0
0 0
0 0
0 0
0 0
0 0
0 0
0 0
0 0
0 0
0 0
0 0
0 0
0 0
0 0
0 0
0 0
0 0
0 0
0 0
0 0
0 0
0 0
0 0
0 0
0 0
0 0
0 0
0 0
0 0
0 0
0 0
0 0
0 0
0 0
0 0
0 0
0 0
0 0
0 0
0 0
0 0
0 0
0 0
0 0
0 0
0 0
0 0
0 0
0 0
0 0
0 0
0 0
0 0
0 0
0 0
0 0
0 0
0 0
0 0
0 0
0 0
0 0
0 0
0 0
0 0
0 0
0 0
0 0
0 0
0 0
0 0
0 0
0 0
0 0
0 0
0 0
0 0
0 0
0 0
0 0
0 0
0 0
0 0
0 0
0 0
0 0
0 0
0 0
0 0
0 0
0 0
0 0
0 0
0 0
0 0
0 0
0 0
0 0
0 0
0 0
0 0
0 0
0 0
0 0
0 0
0 0
0 0
0 0
0 0
0 0
0 0
0 0
0 0
0 0
0 0
0 0
0 0
0 0
0 0
0 0
0 0
0 0
0 0
0 0
0 0
0 0
0 0
0 0
0 0
0 0
0 0
0 0
0 0
0 0
0 0
0 0
0 0
0 0
0 0
0 0
0 0
0 0
0 0
0 0
0 0
0 0
0 0
0 0
0 0
0 0
0 0
0 0
0 0
0 0
0 0
0 0
0 0
0 0
0 0
0 0
0 0
0 0
0 0
0 0
0 0
0 0
0 0
0 0
0 0
0 0
0 0
0 0
0 0
0 0
0 0
0 0
0 0
0 0
0 0
0 0
0 0
0 0
0 0
0 0
0 0
0 0
0 0
0 0
0 0
0 0
0 0
0 0
0 0
0 0
0 0
0 0
0 0
0 0
0 0
0 0
0 0
0 0
0 0
0 0
0 0
0 0
0 0
0 0
0 0
0 0
0 0
0 0
0 0
0 0
0 0
0 0
0 0
0 0
0 0
0 0
0 0
0 0
0 0
0 0
0 0
0 0
0 0
0 0
0 0
0 0
0 0
0 0
0 0
0 0
0 0
0 0
0 0
0 0
0 0
0 0
0 0
0 0
0 0
0 0
0 0
0 0
0 0
0 0
0 0
0 0
0 0
0 0
0 0
0 0
0 0
0 0
0 0
0 0
0 0
0 0
0 0
0 0
0 0
0 0
0 0
0 0
0 0
0 0
0 0
0 0
0 0
0 0
0 0
0 0
0 0
0 0
0 0
0 0
0 0
0 0
0 0
0 0
0 0
0 0
0 0
0 0
0 0
0 0
0 0
0 0
0 0
0 0
0 0
0 0
0 0
0 0
0 0
0 0
0 0
0 0
0 0
0 0
0 0
0 0
0 0
0 0
0 0
0 0
0 0
0 0
0 0
0 0
0 0
0 0
0 0
0 0
0 0
0 0
0 0
0 0
0 0
0 0
0 0
0 0
0 0
0 0
0 0
0 0
0 0
0 0
0 0
0 0
0 0
0 0
0 0
0 0
0 0
0 0
0 0
0 0
0 0
0 0
0 0
0 0
0 0
0 0
0 0
0 0
0 0
0 0
0 0
0 0
0 0
0 0
0 0
0 0
0 0
0 0
0 0
0 0
0 0
0 0
0 0
0 0
0 0
0 0
0 0
0 0
0 0
0 0
0 0
0 0
0 0
0 0
0 0
0 0
0 0
0 0
0 0
0 0
0 0
0 0
0 0
0 0
0 0
0 0
0 0
0 0
0 0
0 0
0 0
0 0
0 0
0 0
0 0
0 0
0 0
0 0
0 0
0 0
0 0
0 0
0 0
0 0
0 0
0 0
0 0
0 0
0 0
0 0
0 0
0 0
0 0
0 0
0 0
0 0
0 0
0 0
0 0
0 0
0 0
0 0
0 0
0 0
0 0
0 0
0 0
0 0
0 0
0 0
0 0
0 0
0 0
0 0
0 0
0 0
0 0
0 0
0 0
0 0
0 0
0 0
0 0
0 0
0 0
0 0
0 0
0 0
0 0
0 0
0 0
0 0
0 0
0 0
0 0
0 0
0 0
0 0
0 0
0 0
0 0
0 0
0 0
0 0
0 0
0 0
0 0
0 0
0 0
0 0
0 0
0 0
0 0
0 0
0 0
0 0
0 0
0 0
0 0
0 0
0 0
0 0
0 0
0 0
0 0
0 0
0 0
0 0
0 0
0 0
0 0
0 0
0 0
0 0
0 0
0 0
0 0
0 0
0 0
0 0
0 0
0 0
0 0
0 0
0 0
0 0
0 0
0 0
0 0
0 0
0 0
0 0
0 0
0 0
0 0
0 0
0 0
0 0
0 0
0 0
0 0
0 0
0 0
0 0
0 0
0 0
0 0
0 0
0 0
0 0
0 0
0 0
0 0
0 0
0 0
0 0
0 0
0 0
0 0
0 0
0 0
0 0
0 0
0 0
0 0
0 0
0 0
0 0
0 0
0 0
0 0
0 0
0 0
0 0
0 0
0 0
0 0
0 0
0 0
0 0
0 0
0 0
0 0
0 0
0 0
0 0
0 0
0 0
0 0
0 0
0 0
0 0
0 0
0 0
0 0
0 0
0 0
0 0
0 0
0 0
0 0
0 0
0 0
0 0
0 0
0 0
0 0
0 0
0 0
0 0
0 0
0 0
0 0
0 0
0 0
0 0
0 0
0 0
0 0
0 0
0 0
0 0
0 0
0 0
0 0
0 0
0 0
0 0
0 0
0 0
0 0
0 0
0 0
0 0
0 0
0 0
0 0
0 0
0 0
0 0
0 0
0 0
0 0
0 0
0 0
0 0
0 0
0 0
0 0
0 0
0 0
0 0
0 0
0 0
0 0
0 0
0 0
0 0
0 0
0 0
0 0
0 0
0 0
0 0
0 0
0 0
0 0
0 0
0 0
0 0
0 0
0 0
0 0
0 0
0 0
0 0
0 0
0 0
0 0
0 0
0 0
0 0
0 0
0 0
0 0
0 0
0 0
0 0
0 0
0 0
0 0
0 0
0 0
0 0
0 0
0 0
0 0
0 0
0 0
0 0
0 0
0 0
0 0
0 0
0 0
0 0
0 0
0 0
0 0
0 0
0 0
0 0
0 0
0 0
0 0
0 0
0 0
0 0
0 0
0 0
0 0
0 0
0 0
0 0
0 0
0 0
0 0
0 0
0 0
0 0
0 0
0 0
0 0
0 0
0 0
0 0
0 0
0 0
0 0
0 0
0 0
0 0
0 0
0 0
0 0
0 0
0 0
0 0
0 0
0 0
0 0
0 0
0 0
0 0
0 0
0 0
0 0
0 0
0 0
0 0
0 0
0 0
0 0
0 0
0 0
0 0
0 0
0 0
0 0
0 0
0 0
0 0
0 0
0 0
0 0
0 0
0 0
0 0
0 0
0 0
0 0
0 0
0 0
0 0
0 0
0 0
0 0
0 0
0 0
0 0
0 0
0 0
0 0
0 0
0 0
0 0
0 0
0 0
0 0
0 0
0 0
0 0
0 0
0 0
0 0
0 0
0 0
0 0
0 0
0 0
0 0
0 0
0 0
0 0
0 0
0 0
0 0
0 0
0 0
0 0
0 0
0 0
0 0
0 0
0 0
0 0
0 0
0 0
0 0
0 0
0 0
0 0
0 0
0 0
0 0
0 0
0 0
0 0
0 0
0 0
0 0
0 0
0 0
0 0
0 0
0 0
0 0
0 0
0 0
0 0
0 0
0 0
0 0
0 0
0 0
0 0
0 0
0 0
0 0
0 0
0 0
0 0
0 0
0 0
0 0
0 0
0 0
0 0
0 0
0 0
0 0
0 0
0 0
0 0
0 0
0 0
0 0
0 0
0 0
0 0
0 0
0 0
0 0
0 0
0 0
0 0
0 0
0 0
0 0
0 0
0 0
0 0
0 0
0 0
0 0
0 0
0 0
0 0
0 0
0 0
0 0
0 0
0 0
0 0
0 0
0 0
0 0
0 0
0 0
0 0
0 0
0 0
0 0
0 0
0 0
0 0
0 0
0 0
0 0
0 0
0 0
0 0
0 0
0 0
0 0
0 0
0 0
0 0
0 0
0 0
0 0
0 0
0 0
0 0
0 0
0 0
0 0
0 0
0 0
0 0
0 0
0 0
0 0
0 0
0 0
0 0
0 0
0 0
0 0
0 0
0 0
0 0
0 0
0 0
0 0
0 0
0 0
0 0
0 0
0 0
0 0
0 0
0 0
0 0
0 0
0 0
0 0
0 0
0 0
0 0
0 0
0 0
0 0
0 0
0 0
0 0
0 0
0 0
0 0
0 0
0 0
0 0
0 0
0 0
0 0
0 0
0 0
0 0
0 0
0 0
0 0
0 0
0 0
0 0
0 0
0 0
0 0
0 0
0 0
0 0
0 0
0 0
0 0
0 0
0 0
0 0
0 0
0 0
0 0
0 0
0 0
0 0
0 0
0 0
0 0
0 0
0 0
0 0
0 0
0 0
0 0
0 0
0 0
0 0
0 0
0 0
0 0
0 0
0 0
0 0
0 0
0 0
0 0
0 0
0 0
0 0
0 0
0 0
0 0
0 0
0 0
0 0
0 0
0 0
0 0
0 0
0 0
0 0
0 0
0 0
0 0
0 0
0 0
0 0
0 0
0 0
0 0
0 0
0 0
0 0
0 0
0 0
0 0
0 0
0 0
0 0
0 0
0 0
0 0
0 0
0 0
0 0
0 0
0 0
0 0
0 0
0 0
0 0
0 0
0 0
0 0
0 0
0 0
0 0
0 0
0 0
0 0
0 0
0 0
0 0
0 0
0 0
0 0
0 0
0 0
0 0
0 0
0 0
0 0
0 0
0 0
0 0
0 0
0 0
0 0
0 0
0 0
0 0
0 0
0 0
0 0
0 0
0 0
0 0
0 0
0 0
0 0
0 0
0 0
0 0
0 0
0 0
0 0
0 0
0 0
0 0
0 0
0 0
0 0
0 0
0 0
0 0
0 0
0 0
0 0
0 0
0 0
0 0
0 0
0 0
0 0
0 0
0 0
0 0
0 0
0 0
0 0
0 0
0 0
0 0
0 0
0 0
0 0
0 0
0 0
0 0
0 0
0 0
0 0
0 0
0 0
0 0
0 0
0 0
0 0
0 0
0 0
0 0
0 0
0 0
0 0
0 0
0 0
0 0
0 0
0 0
0 0
0 0
0 0
0 0
0 0
0 0
0 0
0 0
0 0
0 0
0 0
0 0
0 0
0 0
0 0
0 0
0 0
0 0
0 0
0 0
0 0
0 0
0 0
0 0
0 0
0 0
0 0
0 0
0 0
0 0
0 0
0 0
0 0
0 0
0 0
0 0
0 0
0 0
0 0
0 0
0 0
0 0
0 0
0 0
0 0
0 0
0 0
0 0
0 0
0 0
0 0
0 0
0 0
0 0
0 0
0 0
0 0
0 0
0 0
0 0
0 0
0 0
0 0
0 0
0 0
0 0
0 0
0 0
0 0
0 0
0 0
0 0
0 0
0 0
0 0
0 0
0 0
0 0
0 0
0 0
0 0
0 0
0 0
0 0
0 0
0 0
0 0
0 0
0 0
0 0
0 0
0 0
0 0
0 0
0 0
0 0
0 0
0 0
0 0
0 0
0 0
0 0
0 0
0 0
0 0
0 0
0 0
0 0
0 0
0 0
0 0
0 0
0 0
0 0
0 0
0 0
0 0
0 0
0 0
0 0
0 0
0 0
0 0
0 0
0 0
0 0
0 0
0 0
0 0
0 0
0 0
0 0
0 0
0 0
0 0
0 0
0 0
0 0
0 0
0 0
0 0
0 0
0 0
0 0
0 0
0 0
0 0
0 0
0 0
0 0
0 0
0 0
0 0
0 0
0 0
0 0
0 0
0 0
0 0
0 0
0 0
0 0
0 0
0 0
0 0
0 0
0 0
0 0
0 0
0 0
0 0
0 0
0 0
0 0
0 0
0 0
0 0
0 0
0 0
0 0
0 0
0 0
0 0
0 0
0 0
0 0
0 0
0 0
0 0
0 0
0 0
0 0
0 0
0 0
0 0
0 0
0 0
0 0
0 0
0 0
0 0
0 0
0 0
0 0
0 0
0 0
0 0
0 0
0 0
0 0
0 0
0 0
0 0
0 0
0 0
0 0
0 0
0 0
0 0
0 0
0 0
0 0
0 0
0 0
0 0
0 0
0 0
0 0
0 0
0 0
0 0
0 0
0 0
0 0
0 0
0 0
0 0
0 0
0 0
0 0
0 0
0 0
0 0
0 0
0 0
0 0
0 0
0 0
0 0
0 0
0 0
0 0
0 0
0 0
0 0
0 0
0 0
0 0
0 0
0 0
0 0
0 0
0 0
0 0
0 0
0 0
0 0
0 0
0 0
0 0
0 0
0 0
0 0
0 0
0 0
0 0
0 0
0 0
0 0
0 0
0 0
0 0
0 0
0 0
0 0
0 0
0 0
0 0
0 0
0 0
0 0
0 0
0 0
0 0
0 0
0 0
0 0
0 0
0 0
0 0
0 0
0 0
0 0
0 0
0 0
0 0
0 0
0 0
0 0
0 0
0 0
0 0
0 0
0 0
0 0
0 0
0 0
0 0
0 0
0 0
0 0
0 0
0 0
0 0
0 0
0 0
0 0
0 0
0 0
0 0
0 0
0 0
0 0
0 0
0 0
0 0
0 0
0 0
0 0
0 0
0 0
0 0
0 0
0 0
0 0
0 0
0 0
0 0
0 0
0 0
0 0
0 0
0 0
0 0
0 0
0 0
0 0
0 0
0 0
0 0
0 0
0 0
0 0
0 0
0 0
0 0
0 0
0 0
0 0
0 0
0 0
0 0
0 0
0 0
0 0
0 0
0 0
0 0
0 0
0 0
0 0
0 0
0 0
0 0
0 0
0 0
0 0
0 0
0 0
0 0
0 0
0 0
0 0
0 0
0 0
0 0
0 0
0 0
0 0
0 0
0 0
0 0
0 0
0 0
0 0
0 0
0 0
0 0
0 0
0 0
0 0
0 0
0 0
0 0
0 0
0 0
0 0
0 0
0 0
0 0
0 0
0 0
0 0
0 0
0 0
0 0
0 0
0 0
0 0
0 0
0 0
0 0
0 0
0 0
0 0
0 0
0 0
0 0
0 0
0 0
0 0
0 0
0 0
0 0
0 0
0 0
0 0
0 0
0 0
0 0
0 0
0 0
0 0
0 0
0 0
0 0
0 0
0 0
0 0
0 0
0 0
0 0
0 0
0 0
0 0
0 0
0 0
0 0
0 0
0 0
0 0
0 0
0 0
0 0
0 0
0 0
0 0
0 0
0 0
0 0
0 0
0 0
0 0
0 0
0 0
0 0
0 0
0 0
0 0
0 0
0 0
0 0
0 0
0 0
0 0
0 0
0 0
0 0
0 0
0 0
0 0
0 0
0 0
0 0
0 0
0 0
0 0
0 0
0 0
0 0
0 0
0 0
0 0
0 0
0 0
0 0
0 0
0 0
0 0
0 0
0 0
0 0
0 0
0 0
0 0
0 0
0 0
0 0
0 0
0 0
0 0
0 0
0 0
0 0
0 0
0 0
0 0
0 0
0 0
0 0
0 0
0 0
0 0
0 0
0 0
0 0
0 0
0 0
0 0
0 0
0 0
0 0
0 0
0 0
0 0
0 0
0 0
0 0
0 0
0 0
0 0
0 0
0 0
0 0
0 0
0 0
0 0
0 0
0 0
0 0
0 0
0 0
0 0
0 0
0 0
0 0
0 0
0 0
0 0
0 0
0 0
0 0
0 0
0 0
0 0
0 0
0 0
0 0
0 0
0 0
0 0
0 0
0 0
0 0
0 0
0 0
0 0
0 0
0 0
0 0
0 0
0 0
0 0
0 0
0 0
0 0
0 0
0 0
0 0
0 0
0 0
0 0
0 0
0 0
0 0
0 0
0 0
0 0
0 0
0 0
0 0
0 0
0 0
0 0
0 0
0 0
0 0
0 0
0 0
0 0
0 0
0 0
0 0
0 0
0 0
0 0
0 0
0 0
0 0
0 0
0 0
0 0
0 0
0 0
0 0
0 0
0 0
0 0
0 0
0 0
0 0
0 0
0 0
0 0
0 0
0 0
0 0
0 0
0 0
0 0
0 0
0 0
0 0
0 0
0 0
0 0
0 0
0 0
0 0
0 0
0 0
0 0
0 0
0 0
0 0
0 0
0 0
0 0
0 0
0 0
0 0
0 0
0 0
0 0
0 0
0 0
0 0
0 0
0 0
0 0
0 0
0 0
0 0
0 0
0 0
0 0
0 0
0 0
0 0
0 0
0 0
0 0
0 0
0 0
0 0
0 0
0 0
0 0
0 0
0 0
0 0
0 0
0 0
0 0
0 0
0 0
0 0
0 0
0 0
0 0
0 0
0 0
0 0
0 0
0 0
      </DataArray> 
      <DataArray type="Float64" NumberOfComponents="2" Name="Acceleration" format="ascii">
0 0
0 0
0 0
0 0
0 0
0 0
0 0
0 0
0 0
0 0
0 0
0 0
0 0
0 0
0 0
0 0
0 0
0 0
0 0
0 0
0 0
0 0
0 0
0 0
0 0
0 0
0 0
0 0
0 0
0 0
0 0
0 0
0 0
0 0
0 0
0 0
0 0
0 0
0 0
0 0
0 0
0 0
0 0
0 0
0 0
0 0
0 0
0 0
0 0
0 0
0 0
0 0
0 0
0 0
0 0
0 0
0 0
0 0
0 0
0 0
0 0
0 0
0 0
0 0
0 0
0 0
0 0
0 0
0 0
0 0
0 0
0 0
0 0
0 0
0 0
0 0
0 0
0 0
0 0
0 0
0 0
0 0
0 0
0 0
0 0
0 0
0 0
0 0
0 0
0 0
0 0
0 0
0 0
0 0
0 0
0 0
0 0
0 0
0 0
0 0
0 0
0 0
0 0
0 0
0 0
0 0
0 0
0 0
0 0
0 0
0 0
0 0
0 0
0 0
0 0
0 0
0 0
0 0
0 0
0 0
0 0
0 0
0 0
0 0
0 0
0 0
0 0
0 0
0 0
0 0
0 0
0 0
0 0
0 0
0 0
0 0
0 0
0 0
0 0
0 0
0 0
0 0
0 0
0 0
0 0
0 0
0 0
0 0
0 0
0 0
0 0
0 0
0 0
0 0
0 0
0 0
0 0
0 0
0 0
0 0
0 0
0 0
0 0
0 0
0 0
0 0
0 0
0 0
0 0
0 0
0 0
0 0
0 0
0 0
0 0
0 0
0 0
0 0
0 0
0 0
0 0
0 0
0 0
0 0
0 0
0 0
0 0
0 0
0 0
0 0
0 0
0 0
0 0
0 0
0 0
0 0
0 0
0 0
0 0
0 0
0 0
0 0
0 0
0 0
0 0
0 0
0 0
0 0
0 0
0 0
0 0
0 0
0 0
0 0
0 0
0 0
0 0
0 0
0 0
0 0
0 0
0 0
0 0
0 0
0 0
0 0
0 0
0 0
0 0
0 0
0 0
0 0
0 0
0 0
0 0
0 0
0 0
0 0
0 0
0 0
0 0
0 0
0 0
0 0
0 0
0 0
0 0
0 0
0 0
0 0
0 0
0 0
0 0
0 0
0 0
0 0
0 0
0 0
0 0
0 0
0 0
0 0
0 0
0 0
0 0
0 0
0 0
0 0
0 0
0 0
0 0
0 0
0 0
0 0
0 0
0 0
0 0
0 0
0 0
0 0
0 0
0 0
0 0
0 0
0 0
0 0
0 0
0 0
0 0
0 0
0 0
0 0
0 0
0 0
0 0
0 0
0 0
0 0
0 0
0 0
0 0
0 0
0 0
0 0
0 0
0 0
0 0
0 0
0 0
0 0
0 0
0 0
0 0
0 0
0 0
0 0
0 0
0 0
0 0
0 0
0 0
0 0
0 0
0 0
0 0
0 0
0 0
0 0
0 0
0 0
0 0
0 0
0 0
0 0
0 0
0 0
0 0
0 0
0 0
0 0
0 0
0 0
0 0
0 0
0 0
0 0
0 0
0 0
0 0
0 0
0 0
0 0
0 0
0 0
0 0
0 0
0 0
0 0
0 0
0 0
0 0
0 0
0 0
0 0
0 0
0 0
0 0
0 0
0 0
0 0
0 0
0 0
0 0
0 0
0 0
0 0
0 0
0 0
0 0
0 0
0 0
0 0
0 0
0 0
0 0
0 0
0 0
0 0
0 0
0 0
0 0
0 0
0 0
0 0
0 0
0 0
0 0
0 0
0 0
0 0
0 0
0 0
0 0
0 0
0 0
0 0
0 0
0 0
0 0
0 0
0 0
0 0
0 0
0 0
0 0
0 0
0 0
0 0
0 0
0 0
0 0
0 0
0 0
0 0
0 0
0 0
0 0
0 0
0 0
0 0
0 0
0 0
0 0
0 0
0 0
0 0
0 0
0 0
0 0
0 0
0 0
0 0
0 0
0 0
0 0
0 0
0 0
0 0
0 0
0 0
0 0
0 0
0 0
0 0
0 0
0 0
0 0
0 0
0 0
0 0
0 0
0 0
0 0
0 0
0 0
0 0
0 0
0 0
0 0
0 0
0 0
0 0
0 0
0 0
0 0
0 0
0 0
0 0
0 0
0 0
0 0
0 0
0 0
0 0
0 0
0 0
0 0
0 0
0 0
0 0
0 0
0 0
0 0
0 0
0 0
0 0
0 0
0 0
0 0
0 0
0 0
0 0
0 0
0 0
0 0
0 0
0 0
0 0
0 0
0 0
0 0
0 0
0 0
0 0
0 0
0 0
0 0
0 0
0 0
0 0
0 0
0 0
0 0
0 0
0 0
0 0
0 0
0 0
0 0
0 0
0 0
0 0
0 0
0 0
0 0
0 0
0 0
0 0
0 0
0 0
0 0
0 0
0 0
0 0
0 0
0 0
0 0
0 0
0 0
0 0
0 0
0 0
0 0
0 0
0 0
0 0
0 0
0 0
0 0
0 0
0 0
0 0
0 0
0 0
0 0
0 0
0 0
0 0
0 0
0 0
0 0
0 0
0 0
0 0
0 0
0 0
0 0
0 0
0 0
0 0
0 0
0 0
0 0
0 0
0 0
0 0
0 0
0 0
0 0
0 0
0 0
0 0
0 0
0 0
0 0
0 0
0 0
0 0
0 0
0 0
0 0
0 0
0 0
0 0
0 0
0 0
0 0
0 0
0 0
0 0
0 0
0 0
0 0
0 0
0 0
0 0
0 0
0 0
0 0
0 0
0 0
0 0
0 0
0 0
0 0
0 0
0 0
0 0
0 0
0 0
0 0
0 0
0 0
0 0
0 0
0 0
0 0
0 0
0 0
0 0
0 0
0 0
0 0
0 0
0 0
0 0
0 0
0 0
0 0
0 0
0 0
0 0
0 0
0 0
0 0
0 0
0 0
0 0
0 0
0 0
0 0
0 0
0 0
0 0
0 0
0 0
0 0
0 0
0 0
0 0
0 0
0 0
0 0
0 0
0 0
0 0
0 0
0 0
0 0
0 0
0 0
0 0
0 0
0 0
0 0
0 0
0 0
0 0
0 0
0 0
0 0
0 0
0 0
0 0
0 0
0 0
0 0
0 0
0 0
0 0
0 0
0 0
0 0
0 0
0 0
0 0
0 0
0 0
0 0
0 0
0 0
0 0
0 0
0 0
0 0
0 0
0 0
0 0
0 0
0 0
0 0
0 0
0 0
0 0
0 0
0 0
0 0
0 0
0 0
0 0
0 0
0 0
0 0
0 0
0 0
0 0
0 0
0 0
0 0
0 0
0 0
0 0
0 0
0 0
0 0
0 0
0 0
0 0
0 0
0 0
0 0
0 0
0 0
0 0
0 0
0 0
0 0
0 0
0 0
0 0
0 0
0 0
0 0
0 0
0 0
0 0
0 0
0 0
0 0
0 0
0 0
0 0
0 0
0 0
0 0
0 0
0 0
0 0
0 0
0 0
0 0
0 0
0 0
0 0
0 0
0 0
0 0
0 0
0 0
0 0
0 0
0 0
0 0
0 0
0 0
0 0
0 0
0 0
0 0
0 0
0 0
0 0
0 0
0 0
0 0
0 0
0 0
0 0
0 0
0 0
0 0
0 0
0 0
0 0
0 0
0 0
0 0
0 0
0 0
0 0
0 0
0 0
0 0
0 0
0 0
0 0
0 0
0 0
0 0
0 0
0 0
0 0
0 0
0 0
0 0
0 0
0 0
0 0
0 0
0 0
0 0
0 0
0 0
0 0
0 0
0 0
0 0
0 0
0 0
0 0
0 0
0 0
0 0
0 0
0 0
0 0
0 0
0 0
0 0
0 0
0 0
0 0
0 0
0 0
0 0
0 0
0 0
0 0
0 0
0 0
0 0
0 0
0 0
0 0
0 0
0 0
0 0
0 0
0 0
0 0
0 0
0 0
0 0
0 0
0 0
0 0
0 0
0 0
0 0
0 0
0 0
0 0
0 0
0 0
0 0
0 0
0 0
0 0
0 0
0 0
0 0
0 0
0 0
0 0
0 0
0 0
0 0
0 0
0 0
0 0
0 0
0 0
0 0
0 0
0 0
0 0
0 0
0 0
0 0
0 0
0 0
0 0
0 0
0 0
0 0
0 0
0 0
0 0
0 0
0 0
0 0
0 0
0 0
0 0
0 0
0 0
0 0
0 0
0 0
0 0
0 0
0 0
0 0
0 0
0 0
0 0
0 0
0 0
0 0
0 0
0 0
0 0
0 0
0 0
0 0
0 0
0 0
0 0
0 0
0 0
0 0
0 0
0 0
0 0
0 0
0 0
0 0
0 0
0 0
0 0
0 0
0 0
0 0
0 0
0 0
0 0
0 0
0 0
0 0
0 0
0 0
0 0
0 0
0 0
0 0
0 0
0 0
0 0
0 0
0 0
0 0
0 0
0 0
0 0
0 0
0 0
0 0
0 0
0 0
0 0
0 0
0 0
0 0
0 0
0 0
0 0
0 0
0 0
0 0
0 0
0 0
0 0
0 0
0 0
0 0
0 0
0 0
0 0
0 0
0 0
0 0
0 0
0 0
0 0
0 0
0 0
0 0
0 0
0 0
0 0
0 0
0 0
0 0
0 0
0 0
0 0
0 0
0 0
0 0
0 0
0 0
0 0
0 0
0 0
0 0
0 0
0 0
0 0
0 0
0 0
0 0
0 0
0 0
0 0
0 0
0 0
0 0
0 0
0 0
0 0
0 0
0 0
0 0
0 0
0 0
0 0
0 0
0 0
0 0
0 0
0 0
0 0
0 0
0 0
0 0
0 0
0 0
0 0
0 0
0 0
0 0
0 0
0 0
0 0
0 0
0 0
0 0
0 0
0 0
0 0
0 0
0 0
0 0
0 0
0 0
0 0
0 0
0 0
0 0
0 0
0 0
0 0
0 0
0 0
0 0
0 0
0 0
0 0
0 0
0 0
0 0
0 0
0 0
0 0
0 0
0 0
0 0
0 0
0 0
0 0
0 0
0 0
0 0
0 0
0 0
0 0
0 0
0 0
0 0
0 0
0 0
0 0
0 0
0 0
0 0
0 0
0 0
0 0
0 0
0 0
0 0
0 0
0 0
0 0
0 0
0 0
0 0
0 0
0 0
0 0
0 0
0 0
0 0
0 0
0 0
0 0
0 0
0 0
0 0
0 0
0 0
0 0
0 0
0 0
0 0
0 0
0 0
0 0
0 0
0 0
0 0
0 0
0 0
0 0
0 0
0 0
0 0
0 0
0 0
0 0
0 0
0 0
0 0
0 0
0 0
0 0
0 0
0 0
0 0
0 0
0 0
0 0
0 0
0 0
0 0
0 0
0 0
0 0
0 0
0 0
0 0
0 0
0 0
0 0
0 0
0 0
0 0
0 0
0 0
0 0
0 0
0 0
0 0
0 0
0 0
0 0
0 0
0 0
0 0
0 0
0 0
0 0
0 0
0 0
0 0
0 0
0 0
0 0
0 0
0 0
0 0
0 0
0 0
0 0
0 0
0 0
0 0
0 0
0 0
0 0
0 0
0 0
0 0
0 0
0 0
0 0
0 0
0 0
0 0
0 0
0 0
0 0
0 0
0 0
0 0
0 0
0 0
0 0
0 0
0 0
0 0
0 0
0 0
0 0
0 0
0 0
0 0
0 0
0 0
0 0
0 0
0 0
0 0
0 0
0 0
0 0
0 0
0 0
0 0
0 0
0 0
0 0
0 0
0 0
0 0
0 0
0 0
0 0
0 0
0 0
0 0
0 0
0 0
0 0
0 0
0 0
0 0
0 0
0 0
0 0
0 0
0 0
0 0
0 0
0 0
0 0
0 0
0 0
0 0
0 0
0 0
0 0
0 0
0 0
0 0
0 0
0 0
0 0
0 0
0 0
0 0
0 0
0 0
0 0
0 0
0 0
0 0
0 0
0 0
0 0
0 0
0 0
0 0
0 0
0 0
0 0
0 0
0 0
0 0
0 0
0 0
0 0
0 0
0 0
0 0
0 0
0 0
0 0
0 0
0 0
0 0
0 0
0 0
0 0
0 0
0 0
0 0
0 0
0 0
0 0
0 0
0 0
0 0
0 0
0 0
0 0
0 0
0 0
0 0
0 0
0 0
0 0
0 0
0 0
0 0
0 0
0 0
0 0
0 0
0 0
0 0
0 0
0 0
0 0
0 0
0 0
0 0
0 0
0 0
0 0
0 0
0 0
0 0
0 0
0 0
0 0
0 0
0 0
0 0
0 0
0 0
0 0
0 0
0 0
0 0
0 0
0 0
0 0
0 0
0 0
0 0
0 0
0 0
0 0
0 0
0 0
0 0
0 0
0 0
0 0
0 0
0 0
0 0
0 0
0 0
0 0
0 0
0 0
0 0
0 0
0 0
0 0
0 0
0 0
0 0
0 0
0 0
0 0
0 0
0 0
0 0
0 0
0 0
0 0
0 0
0 0
0 0
0 0
0 0
0 0
0 0
0 0
0 0
0 0
0 0
0 0
0 0
0 0
0 0
0 0
0 0
0 0
0 0
0 0
0 0
0 0
0 0
0 0
0 0
0 0
0 0
0 0
0 0
0 0
0 0
0 0
0 0
0 0
0 0
0 0
0 0
0 0
0 0
0 0
0 0
0 0
0 0
0 0
0 0
0 0
0 0
0 0
0 0
0 0
0 0
0 0
0 0
0 0
0 0
0 0
0 0
0 0
0 0
0 0
0 0
0 0
0 0
0 0
0 0
0 0
0 0
0 0
0 0
0 0
0 0
0 0
0 0
0 0
0 0
0 0
0 0
0 0
0 0
0 0
0 0
0 0
0 0
0 0
0 0
0 0
0 0
0 0
0 0
0 0
0 0
0 0
0 0
0 0
0 0
0 0
0 0
0 0
0 0
0 0
0 0
0 0
0 0
0 0
0 0
0 0
0 0
0 0
0 0
0 0
0 0
0 0
0 0
0 0
0 0
0 0
0 0
0 0
0 0
0 0
0 0
0 0
0 0
0 0
0 0
0 0
0 0
0 0
0 0
0 0
0 0
0 0
0 0
0 0
0 0
0 0
0 0
0 0
0 0
0 0
0 0
0 0
0 0
0 0
0 0
0 0
0 0
0 0
0 0
0 0
0 0
0 0
0 0
0 0
0 0
0 0
0 0
0 0
0 0
0 0
0 0
0 0
0 0
0 0
0 0
0 0
0 0
0 0
0 0
0 0
0 0
0 0
0 0
0 0
0 0
0 0
0 0
0 0
0 0
0 0
0 0
0 0
0 0
0 0
0 0
0 0
0 0
0 0
0 0
0 0
0 0
0 0
0 0
0 0
0 0
0 0
0 0
0 0
0 0
0 0
0 0
0 0
0 0
0 0
0 0
0 0
0 0
0 0
0 0
0 0
0 0
0 0
0 0
0 0
0 0
0 0
0 0
0 0
0 0
0 0
0 0
0 0
0 0
0 0
0 0
0 0
0 0
0 0
0 0
0 0
0 0
0 0
0 0
0 0
0 0
0 0
0 0
0 0
0 0
0 0
0 0
0 0
0 0
0 0
0 0
0 0
0 0
0 0
0 0
0 0
0 0
0 0
0 0
0 0
0 0
0 0
0 0
0 0
0 0
0 0
0 0
0 0
0 0
0 0
0 0
0 0
0 0
0 0
0 0
0 0
0 0
0 0
0 0
0 0
0 0
0 0
0 0
0 0
0 0
0 0
0 0
0 0
0 0
0 0
0 0
0 0
0 0
0 0
0 0
0 0
0 0
0 0
0 0
0 0
0 0
0 0
0 0
0 0
0 0
0 0
0 0
0 0
0 0
0 0
0 0
0 0
0 0
0 0
0 0
0 0
0 0
0 0
0 0
0 0
0 0
0 0
0 0
0 0
0 0
0 0
0 0
0 0
0 0
0 0
0 0
0 0
0 0
0 0
0 0
0 0
0 0
0 0
0 0
0 0
0 0
0 0
0 0
0 0
0 0
0 0
0 0
0 0
0 0
0 0
0 0
0 0
0 0
0 0
0 0
0 0
0 0
0 0
0 0
0 0
0 0
0 0
0 0
0 0
0 0
0 0
0 0
0 0
0 0
0 0
0 0
0 0
0 0
0 0
0 0
0 0
0 0
0 0
0 0
0 0
0 0
0 0
0 0
0 0
0 0
0 0
0 0
0 0
0 0
0 0
0 0
0 0
0 0
0 0
0 0
0 0
0 0
0 0
0 0
0 0
0 0
0 0
0 0
0 0
0 0
0 0
0 0
0 0
0 0
0 0
0 0
0 0
0 0
0 0
0 0
0 0
0 0
0 0
0 0
0 0
0 0
0 0
0 0
0 0
0 0
0 0
0 0
0 0
0 0
0 0
0 0
0 0
0 0
0 0
0 0
0 0
0 0
0 0
0 0
0 0
0 0
0 0
0 0
0 0
0 0
0 0
0 0
0 0
0 0
0 0
0 0
0 0
0 0
0 0
0 0
0 0
0 0
0 0
0 0
0 0
0 0
0 0
0 0
0 0
0 0
0 0
0 0
0 0
0 0
0 0
0 0
0 0
0 0
0 0
0 0
0 0
0 0
0 0
0 0
0 0
0 0
0 0
0 0
0 0
0 0
0 0
0 0
0 0
0 0
0 0
0 0
0 0
0 0
0 0
0 0
0 0
0 0
0 0
0 0
0 0
0 0
0 0
0 0
0 0
0 0
0 0
0 0
0 0
0 0
0 0
0 0
0 0
0 0
0 0
0 0
0 0
0 0
0 0
0 0
0 0
0 0
0 0
0 0
0 0
0 0
0 0
0 0
0 0
0 0
0 0
0 0
0 0
0 0
0 0
0 0
0 0
0 0
0 0
0 0
0 0
0 0
0 0
0 0
0 0
0 0
0 0
0 0
0 0
0 0
0 0
0 0
0 0
0 0
0 0
0 0
0 0
0 0
0 0
0 0
0 0
0 0
0 0
0 0
0 0
0 0
0 0
0 0
0 0
0 0
0 0
0 0
0 0
0 0
0 0
0 0
0 0
0 0
0 0
0 0
0 0
0 0
0 0
0 0
0 0
0 0
0 0
0 0
0 0
0 0
0 0
0 0
0 0
0 0
0 0
0 0
0 0
0 0
0 0
0 0
0 0
0 0
0 0
0 0
0 0
0 0
0 0
0 0
0 0
0 0
0 0
0 0
0 0
0 0
0 0
0 0
0 0
0 0
0 0
0 0
0 0
0 0
0 0
0 0
0 0
0 0
0 0
0 0
0 0
0 0
0 0
0 0
0 0
0 0
0 0
0 0
0 0
0 0
0 0
0 0
0 0
0 0
0 0
0 0
0 0
0 0
0 0
0 0
0 0
0 0
0 0
0 0
0 0
0 0
0 0
0 0
0 0
0 0
0 0
0 0
0 0
0 0
0 0
0 0
0 0
0 0
0 0
0 0
0 0
0 0
0 0
0 0
0 0
0 0
0 0
0 0
0 0
0 0
0 0
0 0
0 0
0 0
0 0
0 0
0 0
0 0
0 0
0 0
0 0
0 0
0 0
0 0
0 0
0 0
0 0
0 0
0 0
0 0
0 0
0 0
0 0
0 0
0 0
0 0
0 0
0 0
0 0
0 0
0 0
0 0
0 0
0 0
0 0
0 0
0 0
0 0
0 0
0 0
0 0
0 0
0 0
0 0
0 0
0 0
0 0
0 0
0 0
0 0
0 0
0 0
0 0
0 0
0 0
0 0
0 0
0 0
0 0
0 0
0 0
0 0
0 0
0 0
0 0
0 0
0 0
0 0
0 0
0 0
0 0
0 0
0 0
0 0
0 0
0 0
0 0
0 0
0 0
0 0
0 0
0 0
0 0
0 0
0 0
0 0
0 0
0 0
0 0
0 0
0 0
0 0
0 0
0 0
0 0
0 0
0 0
0 0
0 0
0 0
0 0
0 0
0 0
0 0
0 0
0 0
0 0
0 0
0 0
0 0
0 0
0 0
0 0
0 0
0 0
0 0
0 0
0 0
0 0
0 0
0 0
0 0
0 0
0 0
0 0
0 0
0 0
0 0
0 0
0 0
0 0
0 0
0 0
0 0
0 0
0 0
0 0
0 0
0 0
0 0
0 0
0 0
0 0
0 0
0 0
0 0
0 0
0 0
0 0
0 0
0 0
0 0
0 0
0 0
0 0
0 0
0 0
0 0
0 0
0 0
0 0
0 0
0 0
0 0
0 0
0 0
0 0
0 0
0 0
0 0
0 0
0 0
0 0
0 0
0 0
0 0
0 0
0 0
0 0
0 0
0 0
0 0
0 0
0 0
0 0
0 0
0 0
0 0
0 0
0 0
0 0
0 0
0 0
0 0
0 0
0 0
0 0
0 0
0 0
0 0
0 0
0 0
0 0
0 0
0 0
0 0
0 0
0 0
0 0
0 0
0 0
0 0
0 0
0 0
0 0
0 0
0 0
0 0
0 0
0 0
0 0
0 0
0 0
0 0
0 0
0 0
0 0
0 0
0 0
0 0
0 0
0 0
0 0
0 0
0 0
0 0
0 0
0 0
0 0
0 0
0 0
0 0
0 0
0 0
0 0
0 0
0 0
0 0
0 0
0 0
0 0
0 0
0 0
0 0
0 0
0 0
0 0
0 0
0 0
0 0
0 0
0 0
0 0
0 0
0 0
0 0
0 0
0 0
0 0
0 0
0 0
0 0
0 0
0 0
0 0
0 0
0 0
0 0
0 0
0 0
0 0
0 0
0 0
0 0
0 0
0 0
0 0
0 0
0 0
0 0
0 0
0 0
0 0
0 0
0 0
0 0
0 0
0 0
0 0
0 0
0 0
0 0
0 0
0 0
0 0
0 0
0 0
0 0
0 0
0 0
0 0
0 0
0 0
0 0
0 0
0 0
0 0
0 0
0 0
0 0
0 0
0 0
0 0
0 0
0 0
0 0
0 0
0 0
0 0
0 0
0 0
0 0
0 0
0 0
0 0
0 0
0 0
0 0
0 0
0 0
0 0
0 0
0 0
0 0
0 0
0 0
0 0
0 0
0 0
0 0
0 0
0 0
0 0
0 0
0 0
0 0
0 0
0 0
0 0
0 0
0 0
0 0
0 0
0 0
0 0
0 0
0 0
0 0
0 0
0 0
0 0
0 0
0 0
0 0
0 0
0 0
0 0
0 0
0 0
0 0
0 0
0 0
0 0
0 0
0 0
0 0
0 0
0 0
0 0
0 0
0 0
0 0
0 0
0 0
0 0
0 0
0 0
0 0
0 0
0 0
0 0
0 0
0 0
0 0
0 0
0 0
0 0
0 0
0 0
0 0
0 0
0 0
0 0
0 0
0 0
0 0
0 0
0 0
0 0
0 0
0 0
0 0
0 0
0 0
0 0
0 0
0 0
0 0
0 0
0 0
0 0
0 0
0 0
0 0
0 0
0 0
0 0
0 0
0 0
0 0
0 0
0 0
0 0
0 0
0 0
0 0
0 0
0 0
0 0
0 0
0 0
0 0
0 0
0 0
0 0
0 0
0 0
0 0
0 0
0 0
0 0
0 0
0 0
0 0
0 0
0 0
0 0
0 0
0 0
0 0
0 0
0 0
0 0
0 0
0 0
0 0
0 0
0 0
0 0
0 0
0 0
0 0
0 0
0 0
0 0
0 0
0 0
0 0
0 0
0 0
0 0
0 0
0 0
0 0
0 0
0 0
0 0
0 0
0 0
0 0
0 0
0 0
0 0
0 0
0 0
0 0
0 0
0 0
0 0
0 0
0 0
0 0
0 0
0 0
0 0
0 0
0 0
0 0
0 0
0 0
0 0
0 0
0 0
0 0
0 0
0 0
0 0
0 0
0 0
0 0
0 0
0 0
0 0
0 0
0 0
0 0
0 0
0 0
0 0
0 0
0 0
0 0
0 0
0 0
0 0
0 0
0 0
0 0
0 0
0 0
0 0
0 0
0 0
0 0
0 0
0 0
0 0
0 0
0 0
0 0
0 0
0 0
0 0
0 0
0 0
0 0
0 0
0 0
0 0
0 0
0 0
0 0
0 0
0 0
0 0
0 0
0 0
0 0
0 0
0 0
0 0
0 0
0 0
0 0
0 0
0 0
0 0
0 0
0 0
0 0
0 0
0 0
0 0
0 0
0 0
0 0
0 0
0 0
0 0
0 0
0 0
0 0
0 0
0 0
0 0
0 0
0 0
0 0
0 0
0 0
0 0
0 0
0 0
0 0
0 0
0 0
0 0
0 0
0 0
0 0
0 0
0 0
0 0
0 0
0 0
0 0
0 0
0 0
0 0
0 0
0 0
0 0
0 0
0 0
0 0
0 0
0 0
0 0
0 0
0 0
0 0
0 0
0 0
0 0
0 0
0 0
0 0
0 0
0 0
0 0
0 0
0 0
0 0
0 0
0 0
0 0
0 0
0 0
0 0
0 0
0 0
0 0
0 0
0 0
0 0
0 0
0 0
0 0
0 0
0 0
0 0
0 0
0 0
0 0
0 0
0 0
0 0
0 0
0 0
0 0
0 0
0 0
0 0
0 0
0 0
0 0
0 0
0 0
0 0
0 0
0 0
0 0
0 0
0 0
0 0
0 0
0 0
0 0
0 0
0 0
0 0
0 0
0 0
0 0
0 0
0 0
0 0
0 0
0 0
0 0
0 0
0 0
0 0
0 0
0 0
0 0
0 0
0 0
0 0
0 0
0 0
0 0
0 0
0 0
0 0
0 0
0 0
0 0
0 0
0 0
0 0
0 0
0 0
0 0
0 0
0 0
0 0
0 0
0 0
0 0
0 0
0 0
0 0
0 0
0 0
0 0
0 0
0 0
0 0
0 0
0 0
0 0
0 0
0 0
0 0
0 0
0 0
0 0
0 0
0 0
0 0
0 0
0 0
0 0
0 0
0 0
0 0
0 0
0 0
0 0
0 0
0 0
0 0
0 0
0 0
0 0
0 0
0 0
0 0
0 0
0 0
0 0
0 0
0 0
0 0
0 0
0 0
0 0
0 0
0 0
0 0
0 0
0 0
0 0
0 0
0 0
0 0
0 0
0 0
0 0
0 0
0 0
0 0
0 0
0 0
0 0
0 0
0 0
0 0
0 0
0 0
0 0
0 0
0 0
0 0
0 0
0 0
0 0
0 0
0 0
0 0
0 0
0 0
0 0
0 0
0 0
0 0
0 0
0 0
0 0
0 0
0 0
0 0
0 0
0 0
0 0
0 0
0 0
0 0
0 0
0 0
0 0
0 0
0 0
0 0
0 0
0 0
0 0
0 0
0 0
0 0
0 0
0 0
0 0
0 0
0 0
0 0
0 0
0 0
0 0
0 0
0 0
0 0
0 0
0 0
0 0
0 0
0 0
0 0
0 0
0 0
0 0
0 0
0 0
0 0
0 0
0 0
0 0
0 0
0 0
0 0
0 0
0 0
0 0
0 0
0 0
0 0
0 0
0 0
0 0
0 0
0 0
0 0
0 0
0 0
0 0
0 0
0 0
0 0
0 0
0 0
0 0
0 0
0 0
0 0
0 0
0 0
0 0
0 0
0 0
0 0
0 0
0 0
0 0
0 0
0 0
0 0
0 0
0 0
0 0
0 0
0 0
0 0
0 0
0 0
0 0
0 0
0 0
0 0
0 0
0 0
0 0
0 0
0 0
0 0
0 0
0 0
0 0
0 0
0 0
0 0
0 0
0 0
0 0
0 0
0 0
0 0
0 0
0 0
0 0
0 0
0 0
0 0
0 0
0 0
0 0
0 0
0 0
0 0
0 0
0 0
0 0
0 0
0 0
0 0
0 0
0 0
0 0
0 0
0 0
0 0
0 0
0 0
0 0
0 0
0 0
0 0
0 0
0 0
0 0
0 0
0 0
0 0
0 0
0 0
0 0
0 0
0 0
0 0
0 0
0 0
0 0
0 0
0 0
0 0
0 0
0 0
0 0
0 0
0 0
0 0
0 0
0 0
0 0
0 0
0 0
0 0
0 0
0 0
0 0
0 0
0 0
0 0
0 0
0 0
0 0
0 0
0 0
0 0
0 0
0 0
0 0
0 0
0 0
0 0
0 0
0 0
0 0
0 0
0 0
0 0
0 0
0 0
0 0
0 0
0 0
0 0
0 0
0 0
0 0
0 0
0 0
0 0
0 0
0 0
0 0
0 0
0 0
0 0
0 0
0 0
0 0
0 0
0 0
0 0
0 0
0 0
0 0
0 0
0 0
0 0
0 0
0 0
0 0
0 0
0 0
0 0
0 0
0 0
0 0
0 0
0 0
0 0
0 0
0 0
0 0
0 0
0 0
0 0
0 0
0 0
0 0
0 0
0 0
0 0
0 0
0 0
0 0
0 0
0 0
0 0
0 0
0 0
0 0
0 0
0 0
0 0
0 0
0 0
0 0
0 0
0 0
0 0
0 0
0 0
0 0
0 0
0 0
0 0
0 0
0 0
0 0
0 0
0 0
0 0
0 0
0 0
0 0
0 0
0 0
0 0
0 0
0 0
0 0
0 0
0 0
0 0
0 0
0 0
0 0
0 0
0 0
0 0
0 0
0 0
0 0
0 0
0 0
0 0
0 0
0 0
0 0
0 0
0 0
0 0
0 0
0 0
0 0
0 0
0 0
0 0
0 0
0 0
0 0
0 0
0 0
0 0
0 0
0 0
0 0
0 0
0 0
0 0
0 0
0 0
0 0
0 0
0 0
0 0
0 0
0 0
0 0
0 0
0 0
0 0
0 0
0 0
0 0
0 0
0 0
0 0
0 0
0 0
0 0
0 0
0 0
0 0
0 0
0 0
0 0
0 0
0 0
0 0
0 0
0 0
0 0
0 0
0 0
0 0
0 0
0 0
0 0
0 0
0 0
0 0
0 0
0 0
0 0
0 0
0 0
0 0
0 0
0 0
0 0
0 0
0 0
0 0
0 0
0 0
0 0
0 0
0 0
0 0
0 0
0 0
0 0
0 0
0 0
0 0
0 0
0 0
0 0
0 0
0 0
0 0
0 0
0 0
0 0
0 0
0 0
0 0
0 0
0 0
0 0
0 0
0 0
0 0
0 0
0 0
0 0
0 0
0 0
0 0
0 0
0 0
0 0
0 0
0 0
0 0
0 0
0 0
0 0
0 0
0 0
0 0
0 0
0 0
0 0
0 0
0 0
0 0
0 0
0 0
0 0
0 0
0 0
0 0
0 0
0 0
0 0
0 0
0 0
0 0
0 0
0 0
0 0
0 0
0 0
0 0
0 0
0 0
0 0
0 0
0 0
0 0
0 0
0 0
0 0
0 0
0 0
0 0
0 0
0 0
0 0
0 0
0 0
0 0
0 0
0 0
0 0
0 0
0 0
0 0
0 0
0 0
0 0
0 0
0 0
0 0
0 0
0 0
0 0
0 0
0 0
0 0
0 0
0 0
0 0
0 0
0 0
0 0
0 0
0 0
0 0
0 0
0 0
0 0
0 0
0 0
0 0
0 0
0 0
0 0
0 0
0 0
0 0
0 0
0 0
0 0
0 0
0 0
0 0
0 0
0 0
0 0
0 0
0 0
0 0
0 0
0 0
0 0
0 0
0 0
0 0
0 0
0 0
0 0
0 0
0 0
0 0
0 0
0 0
      </DataArray> 
      <DataArray type="Float64" NumberOfComponents="2" Name="CauchyNormalStress" format="ascii">
3.01846 1.67419
2.7269 1.33431
2.97912 0.289102
1.55724 -0.0599104
1.05856 0.012089
0.65051 -0.00630357
0.413045 -0.0353393
0.253541 -0.0341485
0.0728757 -0.0159894
-0.0586235 -0.00203189
-0.162402 -0.0173018
-0.225527 -0.0233686
-0.314336 -0.0124067
-0.371965 -0.000642168
-0.410529 -0.0137225
-0.419618 -0.0169175
-0.448083 -0.00636474
-0.449581 0.0015275
-0.432691 -0.0126506
-0.385499 -0.0170537
-0.357909 -0.00642646
-0.302719 0.00096908
-0.224087 -0.0158172
-0.105857 -0.0230249
-0.011972 -0.0089902
0.122509 0.0043326
0.303122 -0.0166144
0.590536 -0.0650037
0.872722 -0.0942792
1.3205 -0.0431933
2.66703 0.122771
-0.261143 0.16149
-0.344905 0.200328
-0.316085 0.493743
0.903043 2.15952
-0.287137 -0.010433
-0.0624381 -0.146712
-0.0133389 -0.183073
-0.0329849 -0.212868
-0.0318592 -0.21932
-0.00917125 -0.277432
-0.00671043 -0.289679
-0.0069978 -0.306626
-0.015864 -0.303112
-0.0258585 -0.320104
-0.0291737 -0.270123
-0.0336556 -0.28448
-0.0428917 -0.273013
-0.0568352 -0.273689
-0.0701954 -0.24839
-0.082729 -0.241597
-0.0939496 -0.200463
-0.11343 -0.207285
-0.00288777 -0.286283
-0.230697 -0.0165358
-0.270906 -0.0214631
-0.207695 -0.0503369
-0.222483 -0.0660014
-0.159127 -0.113746
-27.3669 -74.6727
-0.161635 -0.740244
-0.0556923 -0.321424
-0.359522 -0.935497
-2.8611 -14.1752
-0.981722 -12.5267
-0.00214022 -7.22264
-0.550529 -7.57577
-0.63572 -7.43929
-1.13887 -8.62277
6.11782 0.380859
-4.72027 -14.1707
-6.19913 -16.9315
-8.46759 -25.3148
-2.8922 -14.0721
6.40798 0.193418
8.56206 3.61074
-7.12223 -2.68617
-24.9116 -71.5102
-1.0479 -12.5751
-0.0043261 -7.2994
-0.569158 -7.61717
-0.635969 -7.46068
-1.13383 -8.61762
0.00606226 -0.352905
-0.155287 -0.729921
-0.0820013 -0.324106
-0.463303 -0.83998
-0.309883 0.0388005
-0.0773415 -0.571059
-0.0161271 -0.328191
-0.0781402 -0.397049
-0.0884084 -0.233311
-0.108724 -0.204445
-0.191277 0.170647
-0.229717 -0.00577825
-0.264674 -0.0350889
-0.199442 -0.0432291
-0.221377 -0.0787569
-0.174966 -0.0803428
-0.172127 -0.11603
-0.14115 -0.134719
-0.134357 -0.162043
-0.116168 -0.194137
-0.0969805 -0.200139
-0.0851994 -0.242622
-0.0599766 -0.233981
-0.047118 -0.284837
-0.0275784 -0.288155
-0.0309521 -0.30946
-0.0239145 -0.294089
-0.0152251 -0.316608
-0.256508 0.336964
-0.0974061 0.728821
0.976277 1.99365
-7.17261 -4.43831
-4.3169 -11.336
-6.93571 -4.78168
-3.77537 -15.3612
-4.8266 -12.448
-0.878124 -9.1232
-7.09059 -3.5093
1.86798 -10.1205
0.503035 -1.60428
0.377454 -1.53659
-1.30056 -15.7752
-1.37281 -16.2246
0.877948 -3.7576
0.328214 -1.84146
0.134031 -7.63604
0.157153 -6.67628
-0.135876 -7.67811
0.337746 -5.84034
0.197198 -6.78324
-0.70643 -6.47313
-0.121633 -6.49687
-0.222785 -7.02888
-0.937421 -6.95026
0.507827 -5.39056
0.668912 -5.14807
0.56827 -6.99982
-3.67908 -2.34169
-3.83045 -2.34133
-4.05892 -2.58847
0.308042 -8.12248
0.434404 -6.19496
-2.09423 -7.19404
-2.00391 -6.76593
-0.141684 -9.0456
-0.613007 -8.72676
-1.63192 -7.69953
-1.82854 -8.25742
-0.179034 -8.39405
-2.83946 -1.91155
-3.36869 -2.0265
-3.12816 -2.05997
0.259895 -5.20016
0.374153 -5.4747
-3.13546 -3.30791
-2.07321 -4.93834
-0.48834 -5.63249
0.104852 -4.90437
0.0618187 -5.24061
-0.507323 -6.07958
-2.20719 -5.28522
-3.3368 -3.43378
0.596568 -4.51929
0.839182 -6.24966
-5.19056 -3.96973
-5.06865 -3.16624
-4.26934 -2.54454
-4.4509 -3.47989
1.06894 -6.46034
1.15469 -7.77176
0.923734 -7.51557
0.728824 -6.20262
0.72365 -4.85649
0.633943 -4.31845
-5.43012 -4.53929
-3.11338 -6.56541
-3.00865 -6.12526
-5.36222 -6.31728
0.837135 -9.60182
0.0427361 -12.1511
-1.97985 -9.09296
-0.411758 -9.60034
1.0161 -8.84043
-2.55467 -1.87436
-2.91545 -1.89484
-2.91258 -1.81522
-2.99146 -1.87586
-2.45471 -1.57645
-2.38127 -1.55449
-2.27614 -1.48022
-2.59548 -1.77726
0.350917 -4.43854
0.514772 -4.03102
0.553258 -3.93351
0.366186 -4.56051
-2.41748 -1.90341
-2.514 -2.18111
-2.55249 -3.23741
-1.97831 -3.83741
-0.976533 -4.4851
-0.359335 -4.82629
-0.487593 -5.0705
-1.12783 -4.74824
-2.13939 -4.09587
-2.63493 -3.34844
-2.66114 -2.09223
-2.50858 -1.82646
0.576941 -3.81537
0.936494 -4.94418
-6.86904 -5.69157
-5.72197 -3.3197
-6.19973 -4.03234
1.3919 -6.50006
1.39023 -7.30826
0.86106 -4.88447
0.561742 -3.46525
-5.45497 -7.13325
-5.45377 -9.17565
1.4846 -10.4252
-2.59496 -10.8248
-5.53328 -11.2975
-2.10859 -9.42206
0.474366 -10.7329
-1.81209 -1.31662
-2.05711 -1.44117
-2.08548 -1.41933
-1.82833 -1.25865
-1.71256 -1.22998
-1.72427 -1.22332
0.423334 -3.68902
0.353471 -3.63011
-1.78185 -1.64432
-1.33342 -2.69919
-0.18094 -3.76264
-0.373302 -3.91902
-1.45327 -2.75729
-1.78463 -1.5228
0.385018 -2.42748
0.479144 -2.79007
0.577061 -3.31108
0.69264 -3.37543
0.982099 -3.68704
1.28405 -4.81984
-5.89589 -8.95003
-7.29497 -3.5589
-6.59408 -6.1884
1.55787 -6.10542
1.58955 -6.47169
1.2983 -5.33295
0.993477 -4.34479
0.763735 -3.71461
0.501702 -2.89293
0.359995 -2.15596
-6.48789 -9.79554
-6.48707 -12.8924
1.7767 -7.74282
1.62367 -14.0812
-6.16983 -14.9196
1.84878 -10.4899
1.73578 -7.28883
-3.57965 -12.1756
0.998848 -12.7755
-0.97606 -0.922192
-1.0616 -0.915808
-1.29759 -1.04333
-1.1352 -1.04306
-1.49255 -1.06073
-1.3933 -1.07358
-1.41891 -0.976917
-1.42042 -1.00029
-1.15658 -0.868264
-1.2261 -0.865212
-1.10432 -0.953394
-1.24334 -0.937782
-0.929428 -0.838547
-1.01281 -0.88706
0.357442 -3.30985
0.411569 -3.21395
0.449635 -2.81412
0.331427 -2.12372
0.450142 -2.72197
0.373668 -3.31544
0.145798 -3.53755
-1.22824 -1.20684
-0.96231 -1.5934
-0.437683 -2.39834
0.0116509 -2.86729
-0.306833 -3.11928
-0.620029 -2.48576
-1.10512 -1.5511
-1.1485 -1.04394
0.148232 -1.17492
0.315757 -1.94796
0.430218 -2.15095
0.643022 -2.57907
0.897194 -3.09577
0.134696 -20.2672
-5.64388 -3.0948
-3.4281 -0.438449
-5.79243 -2.39444
-0.770085 -18.5404
1.36417 -4.81411
1.31314 -4.60316
0.901231 -3.3681
0.537675 -2.72359
0.180064 -1.33277
0.233704 -26.044
-2.03323 -19.8687
0.118833 -25.1365
-0.929 -21.2893
1.42794 -8.18257
-3.62621 -20.5974
-11.5964 -24.1127
1.38181 -6.74497
-11.1025 -21.2257
-0.978905 -16.359
-0.20203 -0.539428
-0.482757 -0.670573
-0.80551 -0.668405
-0.910077 -0.623529
-0.838334 -0.587441
-0.596951 -0.599415
-0.210461 -0.557721
0.61211 -2.31744
0.24117 -1.52322
0.323432 -1.6899
0.410563 -2.52496
-0.141897 -0.751046
0.633123 -1.88581
0.94005 -1.64245
0.709102 -1.99953
0.205537 -2.07329
-0.177459 -0.690637
0.146385 -0.789871
0.141674 -0.992271
0.0354362 -0.563813
0.0996173 -0.881872
0.0922801 -0.873096
0.184563 -1.28695
0.158384 -1.09616
0.239612 -1.34961
0.252372 -1.32832
0.288434 -1.37994
0.240157 -1.21045
-5.10078 -8.83421
-2.73851 -0.895761
-2.47407 -0.798187
-5.25689 -6.27108
0.515095 -1.87895
0.646424 -2.25481
0.695295 -2.5246
0.48255 -2.14441
0.612379 -3.5024
0.572668 -3.15877
0.508457 -2.23872
0.631243 -2.33987
0.636169 -2.23146
0.489362 -1.82944
0.487859 -1.86377
0.365195 -1.58691
0.213638 -1.19052
0.259582 -1.41876
0.0664445 -0.791293
0.0965262 -0.809493
0.0876598 -0.834565
0.0626545 -0.728545
0.263444 -14.0955
0.330841 -18.827
-0.347065 -24.9788
0.21451 -13.7046
0.185733 -23.9856
0.141204 -18.1101
0.222529 -4.24247
-0.709523 -3.89043
-0.57809 -29.1946
0.38511 -4.14925
0.782752 -19.7963
-0.177925 -5.39184
0.466317 -0.29582
1.06903 0.254897
0.585787 -0.381538
0.0471608 -0.338137
0.230436 -0.337509
-0.183496 -0.357791
-0.424872 -0.344738
-0.32289 -0.338317
-0.540543 -0.336096
-0.640193 -0.329974
-0.600466 -0.321981
-0.636092 -0.300663
-0.621582 -0.302782
-0.640337 -0.292354
-0.547253 -0.296758
-0.400944 -0.306668
-0.489772 -0.291349
-0.234206 -0.31144
0.130033 -0.339996
-0.096057 -0.304036
0.405216 -0.231375
1.17721 0.176756
0.552968 -0.261987
0.0369864 -0.49903
0.0376269 -0.5448
0.0787213 -0.697863
0.0670965 -0.684065
0.348008 -1.51645
0.709785 -0.619229
0.416146 -1.50327
0.64976 -1.75247
0.554149 -0.790437
1.19531 -0.196867
0.736609 -1.05387
0.516727 -1.22915
1.04624 -0.187465
0.0514888 -0.425182
0.0442199 -0.400017
0.0585538 -0.114902
0.100619 -0.310901
0.0792223 -0.328777
0.0347013 -0.173257
0.4756 0.0901165
2.30589 0.753371
0.57742 0.100029
0.525564 -0.18428
0.581933 -0.24742
1.80576 0.114243
1.08767 -1.12057
1.37133 -0.529239
0.193221 -0.619486
0.236947 -0.644968
-0.162894 -1.28859
0.0422681 -1.31411
0.505336 -2.32568
0.450107 -2.25386
0.152041 -1.18875
0.0810548 -0.819553
-0.175595 -0.38905
-0.382212 -0.608224
-0.721372 -0.584453
-0.869916 -0.58782
-0.875927 -0.648709
-0.650444 -0.675996
-0.241012 -0.65272
-0.483329 -0.443662
1.38016 -9.50494
0.996708 -12.2713
1.63693 -20.7359
1.77017 -21.3779
0.207464 -1.36914
0.618967 -2.6421
1.13033 -3.85403
1.15389 -4.51691
1.42674 -5.76573
1.15382 -3.91864
-5.41437 -6.45727
-4.8155 -8.72537
0.647485 -2.38472
0.545477 -2.45173
0.425197 -2.32776
0.225641 -1.50956
0.31143 -2.755
0.692144 -2.44965
-6.46514 -15.0241
-6.92418 -17.8687
-6.43211 -2.08626
-1.96836 -1.90478
-0.994354 -3.55164
-0.801376 -3.37403
-1.92247 -2.02091
0.136786 -4.27665
0.479415 -3.04116
0.509724 -3.30911
0.259649 -4.12894
-1.63355 -1.21438
-1.81288 -1.27573
-1.61866 -1.15217
-2.00002 -1.35742
-2.15103 -1.46538
-1.96621 -1.40461
-1.68098 -1.29135
-1.1354 -10.3367
1.58376 -9.42864
1.05466 -13.3724
1.52681 -8.16938
-6.62589 -8.447
-6.95861 -5.99401
0.669164 -3.86357
1.11335 -5.98637
-4.74405 -2.85514
-6.6306 -4.41345
1.16699 -5.09166
0.69854 -4.29278
-3.03488 -8.47454
-2.96853 -7.95003
-3.37265 -2.33629
-3.28012 -4.65637
-1.18948 -5.92827
-1.06951 -5.56964
-3.14046 -4.32652
-3.13662 -2.42117
0.59469 -4.81471
0.475386 -4.75143
-2.91993 -1.81075
-3.81676 -2.26001
0.279836 -8.86128
-0.913027 -10.1713
0.348994 -7.38668
0.556213 -7.96823
0.114783 -6.1752
0.0506495 -5.66926
-0.624467 -7.94291
-0.30775 -7.33992
0.609384 -6.02317
0.661171 -30.5825
-0.574789 -0.472182
-3.22165 -7.47342
-1.25999 -6.68829
-1.00565 -0.928985
1.2538 -13.4093
-0.431552 -0.618814
-5.21777 -41.2572
-3.37338 -13.2364
-0.641098 -0.813387
-1.76323 -7.51897
0.551351 -19.1325
-0.0401321 -21.23
-2.88698 -21.2849
-2.59274 -17.3744
-1.79739 -33.6177
-1.6469 -9.15982
-2.67666 -10.0952
-1.81339 -14.7995
0.824253 -19.3242
0.705061 -21.2635
0.168932 -15.6042
-0.98333 -13.5757
-0.752531 -11.6091
-3.6328 -11.105
-4.73936 -13.83
-0.244705 -10.5948
0.659862 -17.4718
-0.049895 -22.2041
-2.36386 -17.9728
-2.90678 -22.4572
-1.74389 -15.1923
-1.65308 -9.17124
-2.67034 -10.1254
-2.97897 -36.939
0.568166 -21.8521
0.950887 -20.0637
0.271253 -16.1262
-0.734881 -11.8297
-0.921326 -13.9192
-0.223115 -10.8014
-3.64187 -11.1871
-4.73513 -14.0754
0.754469 -18.0531
-3.35976 -2.35542
0.300299 -1.24898
1.85595 0.561722
1.48726 -0.161891
-18.2624 -35.7949
-8.58996 -25.6783
-13.4094 -20.2112
-5.20867 -6.71263
-3.80184 -3.09275
-3.62026 -2.88687
1.4704 0.293809
0.00538618 -1.27104
-13.3752 -22.7057
-17.9961 -36.3016
-7.2935 -2.99891
1.43497 -0.243374
-3.72422 -3.97587
-4.95203 -9.07547
-5.69149 -18.3583
-5.16997 -25.958
0.300916 -19.8326
-18.059 -29.5865
1.5634 -14.4796
-6.13035 -14.444
-8.11313 -17.6181
-10.3827 -22.222
-2.33815 -25.7846
-12.6982 -29.3074
0.889801 -19.1408
-18.141 -30.9634
-9.20585 -20.6232
-8.22581 -18.3133
-5.30899 -23.4424
-5.00537 -28.9711
-0.828749 -23.0218
0.35751 -21.5262
-3.84899 -19.7163
-5.86279 -20.5716
-1.61486 -22.6036
-7.1614 -26.1022
0.00044379 -21.186
-4.38355 -17.2786
0.654253 -22.4619
-3.04852 -14.6084
-1.50506 -17.1511
-3.61679 -12.8529
-5.55782 -35.5141
1.25541 -22.9635
0.376112 -20.2663
-4.69197 -1.29761
-2.69164 -0.613344
-4.29956 -2.05376
1.15988 -0.308694
-5.49152 -4.15801
-6.01068 -2.1635
-5.08473 -1.46048
-4.62106 -1.65423
-4.4201 -2.58423
-2.83204 -0.702371
-5.21262 -5.41626
-5.9356 -2.48515
0.838553 -23.091
-1.14731 -18.547
-2.12564 -16.849
-5.26356 -34.5535
-2.69824 -15.0974
0.714079 -20.6908
1.11505 -22.3617
-5.67039 -12.7868
-3.42268 -14.8293
-1.09479 -13.0461
-2.33778 -11.2706
-6.92339 -16.3507
-3.70974 -16.8439
-0.1068 -16.9844
-0.816384 -14.7519
-6.16294 -13.1356
-4.60273 -11.7184
-3.22573 -10.2847
-4.28225 -9.86964
-5.36525 -9.21797
-6.03942 -8.50844
-6.19404 -10.6322
-6.22954 -6.52627
-6.65746 -7.95441
-6.29955 -12.2633
-4.3119 -7.82068
-6.10487 -8.84972
-6.06127 -7.4302
-5.32459 -7.73495
-4.21394 -7.11154
-4.28878 -5.40536
-4.21759 -8.59319
-6.20429 -5.36609
-5.3929 -5.80896
-4.39722 -5.96731
-4.39034 -4.53045
-6.57813 -4.97963
-5.79651 -4.25121
-5.08647 -3.67877
-5.48291 -3.49411
-5.83438 -3.82933
-6.15341 -3.79799
-5.38391 -3.21904
-4.78206 -2.82324
-5.22163 -3.06666
-4.45766 -2.68952
-5.23102 -5.08981
-6.13533 -5.97129
-6.07309 -4.94475
-6.70191 -7.01786
-6.73581 -4.98867
-5.89139 -4.15322
-4.18872 -4.06876
-5.09066 -3.5299
-4.39019 -2.77034
-3.3972 -2.3573
-3.71671 -2.29862
-4.44558 -3.13214
-4.20505 -3.28926
-4.12299 -16.8779
-1.10071 -21.1321
-3.9628 -21.5244
0.498606 -19.3305
-6.20065 -16.8709
-4.7054 -14.1265
-2.23106 -14.6353
0.10354 -10.836
-0.471346 -15.5238
-0.704789 -11.3485
-5.6598 -16.0197
-7.50853 -12.9711
-0.664352 -11.1125
-0.467855 -15.1055
0.0812449 -10.6308
0.442583 -18.7108
-5.75516 -15.4656
-7.34392 -13.2551
-2.1554 -14.4899
-3.96971 -21.1205
-1.06578 -20.5143
-4.05639 -16.644
8.35235 4.30796
6.42233 0.331973
-6.795 -4.77886
-6.5032 -3.13828
-6.15626 -4.14051
-6.75705 -2.6726
-5.91092 -6.37941
-6.80679 -6.12656
-7.04142 -4.7427
-5.79245 -9.42153
-5.64664 -10.8848
-6.53842 -8.12198
-5.61894 -13.8219
-5.06177 -9.79986
-1.22228 -18.9383
-3.6548 -16.0045
-2.71081 -15.0519
-1.69429 -17.4554
-2.72698 -18.2667
-0.310098 -20.338
-5.11494 -16.5556
-4.11215 -12.5019
-6.10039 -11.1271
-5.09067 -13.9048
-4.93821 -12.4011
-6.67271 -15.2259
-5.24727 -8.97734
-6.26241 -8.69781
-6.38371 -10.7769
-6.93618 -5.37953
-7.07367 -4.05145
-7.08434 -4.52702
-6.71916 -3.31913
-6.95364 -3.02479
-7.05136 -4.14749
-6.74566 -6.55544
-5.73182 -5.75967
-6.36796 -4.21329
-6.42024 -6.67481
-5.54847 -12.1169
-5.03444 -13.1342
-6.58712 -13.9499
-2.48956 -13.4312
-5.96501 -10.9973
-4.9375 -10.2384
-3.55728 -9.60089
-6.51048 -3.95616
-6.70507 -4.26074
-5.9469 -3.69281
-7.01073 -5.19623
-6.90841 -4.3664
-7.14735 -3.45171
-7.14759 -4.06305
-7.19899 -3.87326
-1.6861 -4.01924
-1.01005 -5.28586
-0.990979 -2.70573
-0.41433 -10.7577
-0.0545819 -8.02525
-0.623264 -2.29266
-0.978002 -0.734224
-1.50848 -0.554155
-2.36014 -4.26734
-1.6406 -17.8209
-0.84421 -13.682
-2.23112 -9.68297
0.943422 -14.9363
-3.526 -6.80145
-1.72734 -20.3474
0.472518 -22.7043
-9.06943 -55.3488
-10.5666 -13.9691
-6.19267 -24.514
-1.0987 -27.1346
-5.59447 -25.8128
-14.4031 -49.0867
-10.5433 -13.4535
-11.1701 -57.8823
-6.13372 -26.6227
-5.75453 -28.1626
-1.60385 -28.5764
-13.8829 -52.7936
-11.1459 -27.3544
-8.29839 -32.7136
-3.22733 -29.9182
-24.8418 -45.9596
-10.6991 -46.0414
0.413472 -23.0663
-1.6265 -24.4444
-8.87873 -23.0349
-13.3014 -25.0664
0.827814 -17.0318
1.28489 -14.2935
1.09703 -16.6454
1.38505 -11.0712
1.43669 -12.2028
0.458435 -15.5757
-0.607973 -18.2093
0.288979 -20.6317
1.09863 -15.731
-5.96463 -16.235
-7.2825 -16.0328
-7.3014 -17.9156
-6.48349 -14.823
-7.21635 -16.34
-9.09825 -19.4762
-8.79755 -19.8171
-3.09433 -17.4658
-4.36737 -16.5635
-0.330639 -21.8644
0.455792 -19.6831
-0.494495 -22.8523
0.968523 -15.9898
-1.85064 -28.4556
-3.24699 -23.1855
-1.06411 -20.0374
-9.58439 -35.4631
-14.5179 -36.7182
-17.1641 -29.7916
-19.7998 -56.9115
-25.1571 -48.3233
-13.0429 -27.4497
-13.4417 -26.1096
-6.01138 -30.7975
-2.56776 -35.0007
-10.4671 -21.4019
-9.33449 -19.4869
-8.73126 -20.0911
-7.605 -19.0706
-8.06493 -18.1559
-6.08624 -19.3712
-6.98468 -21.5459
-12.0396 -23.2944
-9.77959 -22.308
-9.85282 -30.3363
-8.6409 -33.0497
-4.20579 -32.1698
-2.13508 -26.9051
-8.39954 -26.5644
-8.30463 -23.8563
-7.30511 -22.0683
-6.45775 -20.5881
-2.63424 -21.8986
-5.94671 -31.0932
-11.1001 -32.9559
-12.3238 -27.1049
-9.69943 -23.5912
-3.55761 -26.6275
-8.60704 -21.1242
-7.18879 -19.1138
-3.83388 -19.9773
-6.25986 -17.7252
-2.28725 -15.5061
-1.10555 -14.6822
-2.30282 -13.9268
-2.3514 -12.6234
-1.14119 -11.6957
-3.5013 -13.5214
0.121543 -18.2435
0.813497 -15.7117
1.37258 -16.2211
0.568123 -14.9825
1.2297 -13.8243
1.28634 -13.4302
-1.6168 -18.6563
-2.15769 -15.8205
-0.581852 -15.904
-1.80284 -16.9654
0.169705 -14.1451
-3.69492 -18.6333
-5.18854 -15.8325
-2.94907 -15.0383
-0.296949 -13.3682
-1.73899 -14.0725
-3.54642 -12.4199
-4.30885 -14.2621
0.443219 -12.8032
-1.19691 -12.8702
-1.59574 -11.7291
-0.537924 -11.1704
0.022033 -12.9262
0.638312 -11.7955
-0.26196 -11.8385
1.3518 -10.9418
1.07937 -10.1225
-0.308158 -10.5383
0.162513 -14.4194
0.0550029 -10.3993
-0.662341 -5.99962
0.352335 -9.54788
-0.989214 -3.41191
-0.415788 -2.85422
0.628705 -7.5967
-0.634824 -13.3264
-1.97458 -3.4655
-1.1699 -3.20184
-2.14698 -7.16511
-1.01337 -0.266567
-1.17204 -13.8658
-2.82564 -3.44421
-1.75761 -1.14205
-3.69199 -10.9101
-5.80686 -5.05346
-2.20672 -18.0604
-1.74593 -0.0604532
-2.70338 -0.643292
0.106307 -4.79249
-0.173512 -2.8215
0.118749 -2.19031
-6.52876 4.75959
-13.609 -22.6263
0.165519 -2.23276
0.806031 -6.8909
-5.22448 -12.1038
-2.23951 -23.3412
-6.94693 -8.24263
-2.19891 -0.00544852
-3.49086 1.50184
-0.377812 -4.34062
0.0355929 -2.20581
-0.302329 -2.14487
0.125308 -2.2657
-6.15071 10.2171
-13.7354 -19.1962
0.626359 -7.85883
0.229542 -1.32055
0.058306 -0.683691
0.0800812 -0.797187
0.0456807 -0.668037
-0.00420003 -0.291464
-0.0192101 -0.268592
0.0974576 -0.816887
0.429438 -2.03323
0.420935 -1.89719
0.287353 -1.38632
0.106494 -0.831528
0.0188771 -0.648945
0.0765192 -0.814521
-0.0339214 -0.21654
-0.0258124 -0.235752
0.492951 -2.11996
0.488893 -1.84841
0.133128 -0.914291
0.118806 -0.920925
0.0852543 -0.893446
-0.00705738 -0.199969
-0.0364877 -0.155671
0.148838 -0.94153
0.802792 -2.86811
0.827575 -2.76897
0.555818 -2.07279
0.189307 -1.08687
0.145007 -0.915871
0.224859 -1.11911
-0.159777 -0.149844
-0.163022 -0.119701
0.875814 -3.0899
0.579372 -2.30289
0.162113 -1.17849
0.243552 -1.20634
0.20805 -1.21034
-0.222038 -0.077881
-0.209635 -0.0664255
0.201881 -1.17523
0.907773 -3.36561
0.80866 -3.39365
0.538595 -2.736
0.252621 -1.73399
0.24093 -1.24649
0.273553 -1.6991
-0.267273 -0.0349857
-0.231595 -0.0295968
0.884203 -3.86088
0.538497 -2.87242
0.22018 -1.1829
0.281082 -1.89737
0.195693 -1.17087
-0.157624 -0.155239
-0.107968 -0.200148
0.285191 -1.81881
1.03479 -4.63509
0.937582 -3.9295
0.597843 -2.35402
0.278982 -1.30505
0.151538 -1.13978
0.228848 -1.26648
-0.086249 -0.231756
-0.0815076 -0.395525
1.06216 -4.04444
0.574029 -2.08941
0.147082 -0.933768
0.190747 -1.10896
0.125412 -0.919543
-0.0151743 -0.304402
-0.100522 -0.560571
0.230363 -1.136
0.901467 -3.10565
0.850847 -2.84648
0.257499 -1.31387
0.0588894 -0.730152
0.0417478 -0.639708
0.085074 -0.749927
-0.128125 -0.17625
-0.14467 -0.165709
0.00756397 -0.628842
0.453097 -1.76294
0.462769 -1.89295
0.24149 -1.35435
0.0709724 -0.765864
0.0786064 -0.744843
0.0847399 -0.782006
-0.169273 -0.113053
-0.18342 -0.0983922
0.0641854 -0.733238
0.408055 -1.86682
0.389641 -1.90099
-0.235224 -0.054643
0.0449006 -0.66351
0.0563823 -0.686387
0.0590806 -0.698662
0.295883 -1.68436
-0.20346 -0.0438873
-5.6073 -21.7639
-1.75328 -22.3413
-2.49692 -19.2677
0.942219 -4.97551
0.916341 -5.49733
0.473625 -3.70857
1.40984 -7.96177
1.28564 -5.55176
-6.29357 -23.8559
-6.82341 -27.474
-11.061 -25.1627
1.00134 -5.78328
0.380034 -4.06212
0.849037 -6.09335
1.20302 -10.0967
1.41985 -7.0008
-5.15987 -26.5009
-2.34026 -24.5096
-6.09862 -23.3522
-3.33826 -23.4081
0.572639 -2.70317
0.410254 -2.04454
0.229177 -1.42131
0.363641 -2.04149
0.697562 -2.60077
0.427231 -1.72468
0.633434 -2.4792
0.757404 -3.01919
1.0051 -3.63451
0.954429 -3.50694
0.631947 -2.31369
0.999731 -3.33852
1.20591 -4.27964
1.23029 -4.60323
1.02359 -3.46188
0.666471 -2.42673
1.02931 -3.69788
1.38413 -5.3683
1.23552 -4.40403
0.441974 -1.96252
0.264952 -1.37902
0.478475 -1.94707
0.64279 -2.5069
0.59096 -2.53385
0.292016 -1.62151
0.193588 -1.23794
0.341277 -1.73394
0.48311 -2.30843
0.424409 -2.2529
-4.7548 -14.6958
-4.86315 -13.3155
1.83949 -8.72098
1.58636 -8.73856
1.54866 -7.10162
1.57883 -10.1702
1.42021 -5.96755
1.67765 -8.45005
1.63644 -10.0597
-6.03416 -17.6798
-6.84746 -16.4482
0.694988 -3.16186
0.645798 -3.23066
0.614288 -3.28181
0.721257 -3.80331
1.12538 -4.83658
1.10801 -4.33165
0.945956 -3.86463
1.22207 -4.61704
0.809555 -3.48957
1.06741 -5.1388
1.20834 -5.67889
1.63259 -6.9509
1.54735 -5.83336
1.45428 -5.60541
1.38603 -5.08517
1.62716 -7.84599
1.65357 -6.95151
1.46562 -5.46298
1.59049 -6.20996
1.37375 -4.96195
1.62541 -6.78247
1.6531 -7.96484
1.54078 -7.11948
1.12034 -4.26918
0.939612 -3.40385
1.10566 -3.9206
0.827412 -3.00377
0.76016 -2.75004
1.01076 -3.53103
1.22162 -4.38183
1.22622 -4.96253
1.08354 -4.36243
0.623327 -2.89706
0.559789 -2.76456
0.550583 -2.86922
0.699401 -3.82214
1.77901 -12.188
1.46677 -11.757
1.13034 -13.7823
0.932545 -4.62577
0.870729 -4.03446
0.820938 -4.28594
0.756606 -4.38125
0.966209 -5.44277
1.49981 -6.90662
1.41526 -5.91562
1.36325 -6.27334
1.22533 -6.65595
1.4611 -8.36659
1.34445 -5.63439
1.40497 -5.48618
1.47684 -6.30662
1.45745 -7.33186
1.27282 -5.80706
1.25377 -9.1725
0.780368 -9.74856
0.326474 -9.80913
0.676745 -8.86495
0.503484 -10.7996
1.10481 -10.0427
0.784962 -11.3741
1.1769 -8.91937
1.51763 -9.25508
1.32355 -11.8066
-0.00610396 -9.94672
0.926477 -6.10656
0.806785 -5.52276
0.63093 -5.51952
0.556293 -6.77559
0.955235 -8.19873
1.19535 -8.05926
1.16131 -7.42454
1.03209 -6.7241
0.614378 -8.17537
1.10209 -7.12864
1.23127 -6.48694
1.26406 -7.13399
1.12251 -5.76222
1.32499 -7.98179
0.876532 -7.88621
0.819509 -7.20188
1.04836 -5.0238
1.00497 -5.7064
0.785826 -5.48107
0.800537 -4.62417
1.01012 -8.64429
0.652473 -8.81706
0.798602 -6.86913
0.648349 -7.45312
0.929028 -3.73729
0.770867 -3.13991
0.803219 -3.15021
0.707766 -3.11665
1.01711 -4.43707
0.820203 -4.16663
0.780389 -3.57754
0.913389 -4.33147
0.649175 -2.27888
0.441889 -1.71987
0.706592 -2.50432
0.0700947 -0.764042
0.509497 -1.97428
0.00579409 -0.615079
0.0683495 -0.762342
0.306965 -1.37488
-0.271379 -0.0328451
-0.228337 -0.0158023
1.75925 -11.9341
1.66877 -9.20099
1.50098 -11.2625
1.6422 -7.93545
1.4817 -11.8609
1.61717 -9.10891
1.80482 -8.92502
1.65483 -10.3123
0 0
0 0
0 0
0 0
0 0
0 0
0 0
0 0
0 0
0 0
0 0
0 0
0 0
0 0
0 0
0 0
0 0
0 0
0 0
0 0
0 0
0 0
0 0
0 0
0 0
0 0
0 0
0 0
0 0
0 0
0 0
0 0
0 0
0 0
0 0
0 0
0 0
0 0
0 0
0 0
0 0
0 0
0 0
0 0
0 0
0 0
0 0
0 0
0 0
0 0
0 0
0 0
0 0
0 0
0 0
0 0
0 0
0 0
0 0
0 0
0 0
0 0
0 0
0 0
0 0
0 0
0 0
0 0
0 0
0 0
0 0
0 0
0 0
0 0
0 0
0 0
0 0
0 0
0 0
0 0
0 0
0 0
0 0
0 0
0 0
0 0
0 0
0 0
0 0
0 0
0 0
0 0
0 0
0 0
0 0
0 0
0 0
0 0
0 0
0 0
0 0
0 0
0 0
0 0
0 0
0 0
0 0
0 0
0 0
0 0
0 0
0 0
0 0
0 0
0 0
0 0
0 0
0 0
0 0
0 0
0 0
0 0
0 0
0 0
0 0
0 0
0 0
0 0
0 0
0 0
0 0
0 0
0 0
0 0
0 0
0 0
0 0
0 0
0 0
0 0
0 0
0 0
0 0
0 0
0 0
0 0
0 0
0 0
0 0
0 0
0 0
0 0
0 0
0 0
0 0
0 0
0 0
0 0
0 0
0 0
0 0
0 0
0 0
0 0
0 0
0 0
0 0
0 0
0 0
0 0
0 0
0 0
0 0
0 0
0 0
0 0
0 0
0 0
0 0
0 0
0 0
0 0
0 0
0 0
0 0
0 0
0 0
0 0
0 0
0 0
0 0
0 0
0 0
0 0
0 0
0 0
0 0
0 0
0 0
0 0
0 0
0 0
0 0
0 0
0 0
0 0
0 0
0 0
0 0
0 0
0 0
0 0
0 0
0 0
0 0
0 0
0 0
0 0
0 0
0 0
0 0
0 0
0 0
0 0
0 0
0 0
0 0
0 0
0 0
0 0
0 0
0 0
0 0
0 0
0 0
0 0
0 0
0 0
0 0
0 0
0 0
0 0
0 0
0 0
0 0
0 0
0 0
0 0
0 0
0 0
0 0
0 0
0 0
0 0
0 0
0 0
0 0
0 0
0 0
0 0
0 0
0 0
0 0
0 0
0 0
0 0
0 0
0 0
0 0
0 0
0 0
0 0
0 0
0 0
0 0
0 0
0 0
0 0
0 0
0 0
0 0
0 0
0 0
0 0
0 0
0 0
0 0
0 0
0 0
0 0
0 0
0 0
0 0
0 0
0 0
0 0
0 0
0 0
0 0
0 0
0 0
0 0
0 0
0 0
0 0
0 0
0 0
0 0
0 0
0 0
0 0
0 0
0 0
0 0
0 0
0 0
0 0
0 0
0 0
0 0
0 0
0 0
0 0
0 0
0 0
0 0
0 0
0 0
0 0
0 0
0 0
0 0
0 0
0 0
0 0
0 0
0 0
0 0
0 0
0 0
0 0
0 0
0 0
0 0
0 0
0 0
0 0
0 0
0 0
0 0
0 0
0 0
0 0
0 0
0 0
0 0
0 0
0 0
0 0
0 0
0 0
0 0
0 0
0 0
0 0
0 0
0 0
0 0
0 0
0 0
0 0
0 0
0 0
0 0
0 0
0 0
0 0
0 0
0 0
0 0
0 0
0 0
0 0
0 0
0 0
0 0
0 0
0 0
0 0
0 0
0 0
0 0
0 0
0 0
0 0
0 0
0 0
0 0
0 0
0 0
0 0
0 0
0 0
0 0
0 0
0 0
0 0
0 0
0 0
0 0
0 0
0 0
0 0
0 0
0 0
0 0
0 0
0 0
0 0
0 0
0 0
0 0
0 0
0 0
0 0
0 0
0 0
0 0
0 0
0 0
0 0
0 0
0 0
0 0
0 0
0 0
0 0
0 0
0 0
0 0
0 0
0 0
0 0
0 0
0 0
0 0
0 0
0 0
0 0
0 0
0 0
0 0
0 0
0 0
0 0
0 0
0 0
0 0
0 0
0 0
0 0
0 0
0 0
0 0
0 0
0 0
0 0
0 0
0 0
0 0
0 0
0 0
0 0
0 0
0 0
0 0
0 0
0 0
0 0
0 0
0 0
0 0
0 0
0 0
0 0
0 0
0 0
0 0
0 0
0 0
0 0
0 0
0 0
0 0
0 0
0 0
0 0
0 0
0 0
0 0
0 0
0 0
0 0
0 0
0 0
0 0
0 0
0 0
0 0
0 0
0 0
0 0
0 0
0 0
0 0
0 0
0 0
0 0
0 0
0 0
0 0
0 0
0 0
0 0
0 0
0 0
0 0
0 0
0 0
0 0
0 0
0 0
0 0
0 0
0 0
0 0
0 0
0 0
0 0
0 0
0 0
0 0
0 0
0 0
0 0
0 0
0 0
0 0
0 0
0 0
0 0
0 0
0 0
0 0
0 0
0 0
0 0
0 0
0 0
0 0
0 0
0 0
0 0
0 0
0 0
0 0
0 0
0 0
0 0
0 0
0 0
0 0
0 0
0 0
0 0
0 0
0 0
0 0
0 0
0 0
0 0
0 0
0 0
0 0
0 0
0 0
0 0
0 0
0 0
0 0
0 0
0 0
0 0
0 0
0 0
0 0
0 0
0 0
0 0
0 0
0 0
0 0
0 0
0 0
0 0
0 0
0 0
0 0
0 0
0 0
0 0
0 0
0 0
0 0
0 0
0 0
0 0
0 0
0 0
0 0
0 0
0 0
0 0
0 0
0 0
0 0
0 0
0 0
0 0
0 0
0 0
0 0
0 0
0 0
0 0
0 0
0 0
0 0
0 0
0 0
0 0
0 0
0 0
0 0
0 0
0 0
0 0
0 0
0 0
0 0
0 0
0 0
0 0
0 0
0 0
0 0
0 0
0 0
0 0
0 0
0 0
0 0
0 0
0 0
0 0
0 0
0 0
0 0
0 0
0 0
0 0
0 0
0 0
0 0
0 0
0 0
0 0
0 0
0 0
0 0
0 0
0 0
0 0
0 0
0 0
0 0
0 0
0 0
0 0
0 0
0 0
0 0
0 0
0 0
0 0
0 0
0 0
0 0
0 0
0 0
0 0
0 0
0 0
0 0
0 0
0 0
0 0
0 0
0 0
0 0
0 0
0 0
0 0
0 0
0 0
0 0
0 0
0 0
0 0
0 0
0 0
0 0
0 0
0 0
0 0
0 0
0 0
0 0
0 0
0 0
0 0
0 0
0 0
0 0
0 0
0 0
0 0
0 0
0 0
0 0
0 0
0 0
0 0
0 0
0 0
0 0
0 0
0 0
0 0
0 0
0 0
0 0
0 0
0 0
0 0
0 0
0 0
0 0
0 0
0 0
0 0
0 0
0 0
0 0
0 0
0 0
0 0
0 0
0 0
0 0
0 0
0 0
0 0
0 0
0 0
0 0
0 0
0 0
0 0
0 0
0 0
0 0
0 0
0 0
0 0
0 0
0 0
0 0
0 0
0 0
0 0
0 0
0 0
0 0
0 0
0 0
0 0
0 0
0 0
0 0
0 0
0 0
0 0
0 0
0 0
0 0
0 0
0 0
0 0
0 0
0 0
0 0
0 0
0 0
0 0
0 0
0 0
0 0
0 0
0 0
0 0
0 0
0 0
0 0
0 0
0 0
0 0
0 0
0 0
0 0
0 0
0 0
0 0
0 0
0 0
0 0
0 0
0 0
0 0
0 0
0 0
0 0
0 0
0 0
0 0
0 0
0 0
0 0
0 0
0 0
0 0
0 0
0 0
0 0
0 0
0 0
0 0
0 0
0 0
0 0
0 0
0 0
0 0
0 0
0 0
0 0
0 0
0 0
0 0
0 0
0 0
0 0
0 0
0 0
0 0
0 0
0 0
0 0
0 0
0 0
0 0
0 0
0 0
0 0
0 0
0 0
0 0
0 0
0 0
0 0
0 0
0 0
0 0
0 0
0 0
0 0
0 0
0 0
0 0
0 0
0 0
0 0
0 0
0 0
0 0
0 0
0 0
0 0
0 0
0 0
0 0
0 0
0 0
0 0
0 0
0 0
0 0
0 0
0 0
0 0
0 0
0 0
0 0
0 0
0 0
0 0
0 0
0 0
0 0
0 0
0 0
0 0
0 0
0 0
0 0
0 0
0 0
0 0
0 0
0 0
0 0
0 0
0 0
0 0
0 0
0 0
0 0
0 0
0 0
0 0
0 0
0 0
0 0
0 0
0 0
0 0
0 0
0 0
0 0
0 0
0 0
0 0
0 0
0 0
0 0
0 0
0 0
0 0
0 0
0 0
0 0
0 0
0 0
0 0
0 0
0 0
0 0
0 0
0 0
0 0
0 0
0 0
0 0
0 0
0 0
0 0
0 0
0 0
0 0
0 0
0 0
0 0
0 0
0 0
0 0
0 0
0 0
0 0
0 0
0 0
0 0
0 0
0 0
0 0
0 0
0 0
0 0
0 0
0 0
0 0
0 0
0 0
0 0
0 0
0 0
0 0
0 0
0 0
0 0
0 0
0 0
0 0
0 0
0 0
0 0
0 0
0 0
0 0
0 0
0 0
0 0
0 0
0 0
0 0
0 0
0 0
0 0
0 0
0 0
0 0
0 0
0 0
0 0
0 0
0 0
0 0
0 0
0 0
0 0
0 0
0 0
0 0
0 0
0 0
0 0
0 0
0 0
0 0
0 0
0 0
0 0
0 0
0 0
0 0
0 0
0 0
0 0
0 0
0 0
0 0
0 0
0 0
0 0
0 0
0 0
0 0
0 0
0 0
0 0
0 0
0 0
0 0
0 0
0 0
0 0
0 0
0 0
0 0
0 0
0 0
0 0
0 0
0 0
0 0
0 0
0 0
0 0
0 0
0 0
0 0
0 0
0 0
0 0
0 0
0 0
0 0
0 0
0 0
0 0
0 0
0 0
0 0
0 0
0 0
0 0
0 0
0 0
0 0
0 0
0 0
0 0
0 0
0 0
0 0
0 0
0 0
0 0
0 0
0 0
0 0
0 0
0 0
0 0
0 0
0 0
0 0
0 0
0 0
0 0
0 0
0 0
0 0
0 0
0 0
0 0
0 0
0 0
0 0
0 0
0 0
0 0
0 0
0 0
0 0
0 0
0 0
0 0
0 0
0 0
0 0
0 0
0 0
0 0
0 0
0 0
0 0
0 0
0 0
0 0
0 0
0 0
0 0
0 0
0 0
0 0
0 0
0 0
0 0
0 0
0 0
0 0
0 0
0 0
0 0
0 0
0 0
0 0
0 0
0 0
0 0
0 0
0 0
0 0
0 0
0 0
0 0
0 0
0 0
0 0
0 0
0 0
0 0
0 0
0 0
0 0
0 0
0 0
0 0
0 0
0 0
0 0
0 0
0 0
0 0
0 0
0 0
0 0
0 0
0 0
0 0
0 0
0 0
0 0
0 0
0 0
0 0
0 0
0 0
0 0
0 0
0 0
0 0
0 0
0 0
0 0
0 0
0 0
0 0
0 0
0 0
0 0
0 0
0 0
0 0
0 0
0 0
0 0
0 0
0 0
0 0
0 0
0 0
0 0
0 0
0 0
0 0
0 0
0 0
0 0
0 0
0 0
0 0
0 0
0 0
0 0
0 0
0 0
0 0
0 0
0 0
0 0
0 0
0 0
0 0
0 0
0 0
0 0
0 0
0 0
0 0
0 0
0 0
0 0
0 0
0 0
0 0
0 0
0 0
0 0
0 0
0 0
0 0
0 0
0 0
0 0
0 0
0 0
0 0
0 0
0 0
0 0
0 0
0 0
0 0
0 0
0 0
0 0
0 0
0 0
0 0
0 0
0 0
0 0
0 0
0 0
0 0
0 0
0 0
0 0
0 0
0 0
0 0
0 0
0 0
0 0
0 0
0 0
0 0
0 0
0 0
0 0
0 0
0 0
0 0
0 0
0 0
0 0
0 0
0 0
0 0
0 0
0 0
0 0
0 0
0 0
0 0
0 0
0 0
0 0
0 0
0 0
0 0
0 0
0 0
0 0
0 0
0 0
0 0
0 0
0 0
0 0
0 0
0 0
0 0
0 0
0 0
0 0
0 0
0 0
0 0
0 0
0 0
0 0
0 0
0 0
0 0
0 0
0 0
0 0
0 0
0 0
0 0
0 0
0 0
0 0
0 0
0 0
0 0
0 0
0 0
0 0
0 0
0 0
0 0
0 0
0 0
0 0
0 0
0 0
0 0
0 0
0 0
0 0
0 0
0 0
0 0
0 0
0 0
0 0
0 0
0 0
0 0
0 0
0 0
0 0
0 0
0 0
0 0
0 0
0 0
0 0
0 0
0 0
0 0
0 0
0 0
0 0
0 0
0 0
0 0
0 0
0 0
0 0
0 0
0 0
0 0
0 0
0 0
0 0
0 0
0 0
0 0
0 0
0 0
0 0
0 0
0 0
0 0
0 0
0 0
0 0
0 0
0 0
0 0
0 0
0 0
0 0
0 0
0 0
0 0
0 0
0 0
0 0
0 0
0 0
0 0
0 0
0 0
0 0
0 0
0 0
0 0
0 0
0 0
0 0
0 0
0 0
0 0
0 0
0 0
0 0
0 0
0 0
0 0
0 0
0 0
0 0
0 0
0 0
0 0
0 0
0 0
0 0
0 0
0 0
0 0
0 0
0 0
0 0
0 0
0 0
0 0
0 0
0 0
0 0
0 0
0 0
0 0
0 0
0 0
0 0
0 0
0 0
0 0
0 0
0 0
0 0
0 0
0 0
0 0
0 0
0 0
0 0
0 0
0 0
0 0
0 0
0 0
0 0
0 0
0 0
0 0
0 0
0 0
0 0
0 0
0 0
0 0
0 0
0 0
0 0
0 0
0 0
0 0
0 0
0 0
0 0
0 0
0 0
0 0
0 0
0 0
0 0
0 0
0 0
0 0
0 0
0 0
0 0
0 0
0 0
0 0
0 0
0 0
0 0
0 0
0 0
0 0
0 0
0 0
0 0
0 0
0 0
0 0
0 0
0 0
0 0
0 0
0 0
0 0
0 0
0 0
0 0
0 0
0 0
0 0
0 0
0 0
0 0
0 0
0 0
0 0
0 0
0 0
0 0
0 0
0 0
0 0
0 0
0 0
0 0
0 0
0 0
0 0
0 0
0 0
0 0
0 0
0 0
0 0
0 0
0 0
0 0
0 0
0 0
0 0
0 0
0 0
0 0
0 0
0 0
0 0
0 0
0 0
0 0
0 0
0 0
0 0
0 0
0 0
0 0
0 0
0 0
0 0
0 0
0 0
0 0
0 0
0 0
0 0
0 0
0 0
0 0
0 0
0 0
0 0
0 0
0 0
0 0
0 0
0 0
0 0
0 0
0 0
0 0
0 0
0 0
0 0
0 0
0 0
0 0
0 0
0 0
0 0
0 0
0 0
0 0
0 0
0 0
0 0
0 0
0 0
0 0
0 0
0 0
0 0
0 0
0 0
0 0
0 0
0 0
0 0
0 0
0 0
0 0
0 0
0 0
0 0
0 0
0 0
0 0
0 0
0 0
0 0
0 0
0 0
0 0
0 0
0 0
0 0
0 0
0 0
0 0
0 0
0 0
0 0
0 0
0 0
0 0
0 0
0 0
0 0
0 0
0 0
0 0
0 0
0 0
0 0
0 0
0 0
0 0
0 0
0 0
0 0
0 0
0 0
0 0
0 0
0 0
0 0
0 0
0 0
0 0
0 0
0 0
0 0
0 0
0 0
0 0
0 0
0 0
0 0
0 0
0 0
0 0
0 0
0 0
0 0
0 0
0 0
0 0
0 0
0 0
0 0
0 0
0 0
0 0
0 0
0 0
0 0
0 0
0 0
0 0
0 0
0 0
0 0
0 0
0 0
0 0
0 0
0 0
0 0
0 0
0 0
0 0
0 0
0 0
0 0
0 0
0 0
0 0
0 0
0 0
0 0
0 0
0 0
0 0
0 0
0 0
0 0
0 0
0 0
0 0
0 0
0 0
0 0
0 0
0 0
0 0
0 0
0 0
0 0
0 0
0 0
0 0
0 0
0 0
0 0
0 0
0 0
0 0
0 0
0 0
0 0
0 0
0 0
0 0
0 0
0 0
0 0
0 0
0 0
0 0
0 0
0 0
0 0
0 0
0 0
0 0
0 0
0 0
0 0
0 0
0 0
0 0
0 0
0 0
0 0
0 0
0 0
0 0
0 0
0 0
0 0
0 0
0 0
0 0
0 0
0 0
0 0
0 0
0 0
0 0
0 0
0 0
0 0
0 0
0 0
0 0
0 0
0 0
0 0
0 0
0 0
0 0
0 0
0 0
0 0
0 0
0 0
0 0
0 0
0 0
0 0
0 0
0 0
0 0
0 0
0 0
0 0
0 0
0 0
0 0
0 0
0 0
0 0
0 0
0 0
0 0
0 0
0 0
0 0
0 0
0 0
0 0
0 0
0 0
0 0
0 0
0 0
0 0
0 0
0 0
0 0
0 0
0 0
0 0
0 0
0 0
0 0
0 0
0 0
0 0
0 0
0 0
0 0
0 0
0 0
0 0
0 0
0 0
0 0
0 0
0 0
0 0
0 0
0 0
0 0
0 0
0 0
0 0
0 0
0 0
0 0
0 0
0 0
0 0
0 0
0 0
0 0
0 0
0 0
0 0
0 0
0 0
0 0
0 0
0 0
0 0
0 0
0 0
0 0
0 0
0 0
0 0
0 0
0 0
0 0
0 0
0 0
0 0
0 0
0 0
0 0
0 0
0 0
0 0
0 0
0 0
0 0
0 0
0 0
0 0
0 0
0 0
0 0
0 0
0 0
0 0
0 0
0 0
0 0
0 0
0 0
0 0
0 0
0 0
0 0
0 0
0 0
0 0
0 0
0 0
0 0
0 0
0 0
0 0
0 0
0 0
0 0
0 0
0 0
0 0
0 0
0 0
0 0
0 0
0 0
0 0
0 0
0 0
0 0
0 0
0 0
0 0
0 0
0 0
0 0
0 0
0 0
0 0
0 0
0 0
0 0
0 0
0 0
0 0
0 0
0 0
0 0
0 0
0 0
0 0
0 0
0 0
0 0
0 0
0 0
0 0
0 0
0 0
0 0
0 0
0 0
0 0
0 0
0 0
0 0
0 0
0 0
0 0
0 0
0 0
0 0
0 0
0 0
0 0
0 0
0 0
0 0
0 0
0 0
0 0
0 0
0 0
0 0
0 0
0 0
0 0
0 0
0 0
0 0
0 0
0 0
0 0
0 0
0 0
0 0
0 0
0 0
0 0
0 0
0 0
0 0
0 0
0 0
0 0
0 0
0 0
0 0
0 0
0 0
0 0
0 0
0 0
0 0
0 0
0 0
0 0
0 0
0 0
0 0
0 0
0 0
0 0
0 0
0 0
0 0
0 0
0 0
0 0
0 0
0 0
0 0
0 0
0 0
0 0
0 0
0 0
0 0
0 0
0 0
0 0
0 0
0 0
0 0
0 0
0 0
0 0
0 0
0 0
0 0
0 0
0 0
0 0
0 0
0 0
0 0
0 0
0 0
0 0
0 0
0 0
0 0
0 0
0 0
0 0
0 0
0 0
0 0
0 0
0 0
0 0
0 0
0 0
0 0
0 0
0 0
0 0
0 0
0 0
0 0
0 0
0 0
0 0
0 0
0 0
0 0
0 0
0 0
0 0
0 0
0 0
0 0
0 0
0 0
0 0
0 0
0 0
0 0
0 0
0 0
0 0
0 0
0 0
0 0
0 0
0 0
0 0
0 0
0 0
0 0
0 0
0 0
0 0
0 0
0 0
0 0
0 0
0 0
0 0
0 0
0 0
0 0
0 0
0 0
0 0
0 0
0 0
0 0
0 0
0 0
0 0
0 0
0 0
0 0
0 0
0 0
0 0
0 0
0 0
0 0
0 0
0 0
0 0
0 0
0 0
0 0
0 0
0 0
0 0
0 0
0 0
0 0
0 0
0 0
0 0
0 0
0 0
0 0
0 0
0 0
0 0
0 0
0 0
0 0
0 0
0 0
0 0
0 0
0 0
0 0
0 0
0 0
0 0
0 0
0 0
0 0
0 0
0 0
0 0
0 0
0 0
0 0
0 0
0 0
0 0
0 0
0 0
0 0
0 0
0 0
0 0
0 0
0 0
0 0
0 0
0 0
0 0
0 0
0 0
0 0
0 0
0 0
0 0
0 0
0 0
0 0
      </DataArray> 
      <DataArray type="Float64" NumberOfComponents="1" Name="CauchyShearStress" format="ascii">
-1.02239
0.891459
-0.290524
0.0807957
0.0476409
0.0617417
0.0423132
0.0177997
-0.0111514
-0.015858
-0.014697
-0.0211521
-0.0276687
-0.0204715
-0.0101766
-0.00757995
-0.00765954
0.00444513
0.0146383
0.0146812
0.0119921
0.0209363
0.0240651
0.0107362
-0.00626206
-0.00865292
-0.0230289
-0.0913508
-0.114668
-0.147928
0.0863288
0.00725967
0.0496954
0.111928
-1.18142
0.00811632
0.0410895
0.0483529
0.0462241
0.0229119
0.0232226
0.0389353
0.0571239
0.0568688
0.0780438
0.0667005
0.0867881
0.107313
0.120373
0.120462
0.128694
0.131268
0.136252
0.0540626
-0.0293781
-0.0585006
-0.0901531
-0.114374
-0.137802
0.191372
0.174385
0.250927
0.49492
-5.61371
-2.83099
-1.21295
-1.81135
-2.23323
-3.19283
0.0415487
-5.36967
-4.66833
-3.58452
5.68335
-0.49659
-3.73473
5.65865
-1.29259
2.91922
1.25649
1.83128
2.24117
3.19838
-0.0692216
-0.22784
-0.280752
-0.581856
-0.000493395
-0.0190007
0.0580598
0.0984291
0.170463
0.175447
0.0237925
-0.0338294
-0.0597768
-0.0872425
-0.110795
-0.125145
-0.135323
-0.140541
-0.15052
-0.13474
-0.131172
-0.127375
-0.115222
-0.116752
-0.0897138
-0.0603489
-0.0476008
-0.0537703
0.107311
0.213455
1.2277
0.376535
-3.0178
-1.79766
-3.11584
3.48282
1.96193
0.862708
0.799729
-0.695601
-0.0681646
-2.93941
2.93955
-0.683798
-0.719406
-1.44054
-1.35356
1.54066
-1.19656
1.34505
-1.31733
-1.34927
1.46046
1.46833
-1.15395
-1.09829
-1.30516
-0.63194
0.472679
0.657132
1.48533
1.22862
1.67121
-1.51443
-1.75974
-1.84206
-1.76137
1.93428
1.62698
-0.660505
0.144632
0.610055
-1.1207
1.16516
-0.836246
-0.990936
-1.14109
-1.03904
1.10067
1.26027
1.13181
0.88716
-1.06266
-1.10745
-0.949812
-0.48322
0.204671
0.961812
-1.0028
-0.98795
1.14876
1.17505
1.03194
1.00823
1.16987
1.60375
-1.42227
-1.66496
-1.30219
-1.92479
-2.13074
1.90471
1.10704
-0.752533
-0.517592
-0.0520196
-0.254524
0.197039
0.487906
0.342905
0.686714
-1.00002
-1.02513
1.00529
1.02298
-0.781673
-0.667067
-0.745344
-0.665925
-0.758387
-0.942121
1.00904
0.860256
0.762151
0.793581
0.678388
0.775578
-0.975259
-0.94259
-1.32191
0.0260919
0.743897
-0.623307
0.703993
0.971702
0.903136
1.98813
-2.42207
-0.553309
-2.6372
2.76845
2.22507
1.58365
-0.756257
-0.56484
-0.200945
0.140718
0.428063
0.687077
-0.950321
0.926867
-0.648684
-0.460398
-0.666244
0.698386
0.502334
0.668062
-0.765951
-0.837887
-0.860097
-0.791092
-0.445187
-0.335098
-3.34217
-0.596718
2.61558
-0.0927372
0.0960619
0.525116
0.718049
0.797024
0.800156
0.644561
2.67491
-2.6461
0.308444
0.946131
-3.27473
-0.82768
-0.685031
3.045
1.02364
-0.714587
-0.700637
-0.535558
-0.654363
-0.272588
-0.39596
0.0335981
-0.0846199
0.257612
0.157409
0.520728
0.400374
0.707413
0.613663
-0.742893
-0.863984
-0.899707
0.745812
0.854983
0.853352
0.671829
-0.609499
-0.274018
-0.266616
-0.432595
0.44172
0.320156
0.294371
0.648352
-0.444067
-0.621875
-0.550181
-0.44268
-0.166172
-5.74825
-2.24953
-0.180834
1.43385
6.10885
0.424535
-0.418206
0.427787
0.700826
0.450897
4.25707
2.24116
-3.59878
-2.27034
2.25149
-3.76174
0.245399
-1.71363
1.80793
2.59462
-0.718177
-0.467536
-0.254431
-0.0504684
0.135616
0.321989
0.58161
-0.808039
-0.610245
0.687477
0.682149
-0.360717
-0.287267
-0.708933
0.557821
0.22354
0.374185
-0.468875
0.524944
-0.133525
-0.256418
-0.22569
-0.329095
-0.249963
-0.294947
-0.241932
-0.194744
-0.104328
-10.8194
-1.6494
1.34395
9.74085
0.0263939
0.198686
0.454472
0.624125
1.41179
-1.21602
-0.622145
-0.403831
-0.178833
0.0149813
0.154469
0.215516
0.186086
0.314051
0.119637
0.161281
0.189801
0.209048
3.33756
5.44182
2.99514
-3.26224
-4.2665
-5.42702
2.28071
2.88988
2.9334
-2.04633
-4.4237
-3.21875
-0.391172
-0.664933
-0.288664
-0.251912
-0.255421
-0.179775
-0.167461
-0.178844
-0.0959287
-0.0648608
-0.0830258
0.00966801
0.0413854
0.0258677
0.106845
0.129348
0.121467
0.188586
0.186243
0.197292
0.323474
0.651044
0.353459
-0.167443
-0.152907
0.242898
0.267686
-0.781384
-0.835899
0.740858
0.753113
0.783579
-0.129596
-0.249638
0.285119
0.198392
-0.269012
0.246347
-0.382901
-0.306192
0.268297
0.338835
-0.591465
-1.21936
-0.611316
0.598928
0.639462
0.991858
0.83833
-0.980474
0.590923
-0.665042
0.0190403
0.00351258
0.824237
-0.870069
0.519865
-0.339961
0.746432
0.428713
0.225703
0.0493285
-0.150106
-0.357229
-0.59188
-0.746582
-2.59426
3.76552
-4.14688
4.20808
0.399622
0.534794
0.0973972
-0.983126
1.17648
0.0436563
4.58327
-5.64771
-0.256045
-0.541584
-0.698243
-0.552965
0.457461
-0.610366
2.06919
-1.14133
-0.476788
0.552843
0.498384
-0.418585
-0.535899
0.89677
0.908646
-0.962084
-0.889289
0.760088
0.581936
0.278198
0.000339038
-0.404392
-0.703167
-0.770268
2.25995
0.433338
-0.829307
-0.539743
-2.26667
1.53547
0.919566
0.90382
0.52204
-0.579217
-0.695155
-1.00996
2.17585
-1.98217
0.778704
1.07091
1.20948
-1.07213
-0.947989
-0.793406
1.09222
-1.09036
0.403749
-0.113585
1.57296
-2.19628
1.3962
-1.39336
1.2769
-1.18427
1.68167
-1.5142
-1.21026
-5.57612
-0.656583
-6.81712
-4.77221
-0.799359
-3.42211
0.587292
4.27991
8.84184
0.874581
5.3877
4.64078
-5.05517
-7.70651
-7.92016
-7.78465
-4.18362
-5.33319
-6.07882
-4.587
-4.41173
-4.24514
-4.93582
-3.74857
-6.45676
-8.08641
-2.73993
-3.75391
4.61622
8.0519
7.3196
6.10538
4.21223
5.36417
4.61743
3.98614
4.60213
4.27994
3.80251
4.96299
2.77893
6.50416
8.12641
3.80725
4.26779
0.394468
1.48836
0.489609
13.0513
3.54232
14.8931
6.45876
2.70759
-5.01706
-1.98731
-0.447266
-15.276
-12.7748
-5.83196
-0.638002
-3.44184
-7.62199
4.2559
4.39023
0.865747
2.56413
-0.599488
3.25793
2.35091
-3.98139
-2.34229
-5.45333
0.484078
0.786671
-0.8735
-3.36192
-0.0246545
0.300876
-2.86048
-3.43448
-1.55273
0.389679
2.19597
-1.26997
3.38737
2.09925
5.91585
8.66034
8.58699
5.82417
6.28382
4.6428
4.75243
0.620002
0.524241
1.57964
-0.038549
2.80458
0.413668
-0.334514
-1.23866
-2.16564
-0.844869
-3.73559
-1.27554
-5.19717
-8.26258
-8.76938
-5.44512
-6.16331
-4.55459
-4.34884
2.96891
3.41578
2.57083
2.6729
-2.31749
-3.68137
-1.75279
-2.4319
2.48903
2.83689
2.6195
2.53731
2.42201
2.35141
2.71578
1.74929
2.06028
2.45801
2.0774
-2.31823
-1.98519
-2.03348
-1.82236
-1.33818
-2.2425
1.36222
1.53689
1.56842
1.13831
1.13998
0.988916
0.829331
0.628259
-0.538393
-0.290941
-0.243698
-0.0376173
0.285939
-0.29949
-1.25986
-1.49527
-1.14622
-1.75294
-0.881095
-0.75687
-0.991283
-0.713131
-0.540025
-0.74787
-0.384593
-0.772986
-0.873473
3.59932
3.11232
3.83068
3.45935
4.65907
5.37905
4.35765
2.32925
3.21046
2.21826
11.2849
12.8889
-2.17972
-3.16044
-2.2766
-3.42037
-10.8922
-12.52
-4.30812
-3.7543
-3.0447
-3.62806
4.08946
0.662685
1.68806
1.19632
1.97127
0.213801
3.57408
2.07494
1.20244
3.16346
3.06743
2.63512
2.63528
4.25584
4.07163
2.8775
4.70482
-4.36568
-2.61809
-3.95705
-2.03588
-4.59498
-2.87785
-2.75834
-3.32405
-1.9625
-4.45253
-2.79127
-2.48574
-1.57536
-1.13517
-0.975545
-1.19
-0.544456
-0.594202
-2.01191
-2.82031
-2.08247
-2.52574
-2.90332
-3.13129
-2.97302
-3.1068
-2.59183
-2.72201
-2.47646
0.191476
0.570282
0.362414
0.971948
-0.179873
0.0683635
0.632423
-0.111511
3.21297
3.98032
2.07788
4.5833
3.67013
1.70085
1.11628
1.41121
3.67235
6.34543
5.48726
6.69281
4.11782
5.38473
6.72884
4.17124
-9.0429
-14.397
-10.6675
-5.98648
-10.4322
-22.7814
15.5043
5.50793
10.3616
9.95206
4.08911
21.4267
4.49406
1.01384
1.22777
0.72531
-8.00231
-5.3156
-0.0917814
3.21634
1.86843
-1.47415
-1.8461
-0.0328874
-2.98704
-1.69752
0.950203
1.9204
-1.33695
-3.92805
3.6993
2.76878
3.23279
2.58147
2.30094
2.06806
3.40564
3.43737
3.69656
-0.646193
2.21951
1.50178
2.27902
-0.249188
-3.25322
-1.58344
-3.66232
-1.60086
-3.19253
7.36221
1.5932
0.684003
-2.04554
-2.11598
3.70665
-2.1705
-2.11762
-3.55656
-1.11032
-2.1138
-3.6801
-4.10956
-2.01775
-0.302533
1.40621
-3.11915
-2.70777
-2.32863
0.0963655
0.246771
-0.324256
-0.451614
-1.26751
0.140475
1.89697
-0.925108
0.478144
0.937536
0.69326
1.35387
1.35432
1.26575
3.01729
2.59647
2.99946
2.82714
2.42597
3.2438
-0.834789
-0.365319
0.795851
-1.21577
-0.0403947
2.19581
-2.65917
-3.04387
-2.1473
-2.70876
-1.61998
-3.73014
-3.4589
-3.35236
-2.1443
-2.75574
-3.09943
-3.29647
-1.42704
-2.50973
-2.58873
-2.09572
1.77962
1.3555
2.04431
0.685424
0.987891
1.91378
1.7305
-4.15984
-3.95084
-3.48629
-2.56977
-1.95284
-2.93582
-5.02918
-3.29689
-2.72322
-5.61538
-0.734972
-5.74897
-3.95383
-1.14486
-6.34098
-6.04571
-7.7488
-1.2282
-1.62476
-2.60435
-1.64198
-1.1806
-4.30398
-15.1796
-0.99449
-2.36519
7.81398
9.35627
7.34467
1.53797
1.89566
2.62011
1.31388
1.35819
1.06775
4.27923
14.3474
3.05756
0.250587
0.0370922
0.0799062
0.0215454
-0.0345181
-0.0142385
0.10685
0.435492
0.353507
0.201493
0.0514988
0.0178273
0.0455527
-0.00841273
-0.0349469
0.374692
0.0749234
0.00803825
0.0361527
0.00669221
-0.0348066
-0.0194973
0.0467893
0.144858
0.0531193
-0.0703179
-0.0519991
-0.00451419
-0.0708402
0.147411
0.138422
-0.0633011
-0.484907
-0.204704
-0.160753
-0.244923
0.111937
0.0903811
-0.126028
-0.686063
-0.793942
-0.911605
-0.549322
-0.30446
-0.658945
0.052212
0.0234846
-1.09201
1.00942
0.290861
0.630833
0.234178
-0.147078
-0.173228
0.769564
1.31034
0.921417
0.515028
0.182508
0.206001
0.146348
-0.171611
-0.104993
0.801067
0.097898
0.0120489
0.056175
0.00722584
-0.067866
0.0010368
0.0758209
0.139493
0.0410925
-0.148376
-0.0258327
-0.00638133
-0.0459849
0.128826
0.127897
0.00618281
-0.176731
-0.234731
-0.26343
-0.0736367
-0.0631425
-0.0949237
0.125161
0.114606
-0.0494933
-0.389356
-0.424014
0.125054
-0.0572572
-0.0706815
-0.0938384
-0.471199
0.0878736
4.38794
2.27773
2.71179
-1.47195
-1.88832
-1.6191
-2.13397
-1.33733
-3.5161
-4.03258
-4.36571
1.79897
1.82676
2.29884
2.93572
1.6869
-0.0505526
-2.27735
-0.128774
1.55466
0.610127
0.503927
0.348709
0.566208
0.294004
0.182324
0.320889
0.486124
0.270378
-0.434886
-0.273654
-0.299575
-0.135541
-0.682229
0.315043
0.310803
0.471276
0.752125
0.210025
-0.352957
-0.214779
-0.316078
-0.343065
-0.489033
-0.410294
-0.27117
-0.422168
-0.539638
-0.617228
3.39316
3.19507
-0.770229
-1.32865
-1.16108
-1.64346
-0.860959
-0.154295
-0.119488
-3.7279
-3.27986
0.664851
0.752901
0.800971
0.859928
0.629503
0.468795
0.576464
0.302418
0.628167
0.802641
0.707989
-0.259254
-0.555637
-0.177709
0.0867648
0.245509
0.0897121
0.191803
0.372949
-0.0174172
0.771628
-0.126255
-0.316501
-0.401699
-0.295796
-0.24491
-0.344589
-0.221275
-0.0785495
-0.131684
-0.508916
-0.566731
-0.664455
-0.668593
-0.741238
-0.907601
-0.750751
0.0628474
0.336242
0.844146
0.754304
0.877091
0.952242
0.947109
0.378673
0.338122
0.602971
0.820655
0.58991
-0.476731
-0.229568
-0.355358
-0.579308
-0.66566
0.791883
1.32504
1.59287
1.33308
-1.57443
-0.964185
-1.22417
-0.925257
-0.528127
-0.661634
-1.74451
1.0381
1.06307
1.14045
1.2736
1.13038
0.914327
0.925076
1.01748
1.35314
-0.996123
-0.814778
-0.812799
-0.850502
-0.777829
-1.19166
-1.19468
-0.813497
-0.975932
-1.08115
-0.972653
-1.12274
-1.36324
1.17438
1.2696
-0.559063
-0.558761
-0.452981
-0.619793
-0.696666
-0.869467
-0.733196
-0.811831
-0.110931
-0.0307715
-0.0610264
-0.0106364
-0.158358
-0.00296745
-0.00763286
-0.0906975
0.0701394
0.0330304
0.909796
1.50442
1.67269
0.995801
0.0127105
-0.122989
0.558852
0.0935039
0
0
0
0
0
0
0
0
0
0
0
0
0
0
0
0
0
0
0
0
0
0
0
0
0
0
0
0
0
0
0
0
0
0
0
0
0
0
0
0
0
0
0
0
0
0
0
0
0
0
0
0
0
0
0
0
0
0
0
0
0
0
0
0
0
0
0
0
0
0
0
0
0
0
0
0
0
0
0
0
0
0
0
0
0
0
0
0
0
0
0
0
0
0
0
0
0
0
0
0
0
0
0
0
0
0
0
0
0
0
0
0
0
0
0
0
0
0
0
0
0
0
0
0
0
0
0
0
0
0
0
0
0
0
0
0
0
0
0
0
0
0
0
0
0
0
0
0
0
0
0
0
0
0
0
0
0
0
0
0
0
0
0
0
0
0
0
0
0
0
0
0
0
0
0
0
0
0
0
0
0
0
0
0
0
0
0
0
0
0
0
0
0
0
0
0
0
0
0
0
0
0
0
0
0
0
0
0
0
0
0
0
0
0
0
0
0
0
0
0
0
0
0
0
0
0
0
0
0
0
0
0
0
0
0
0
0
0
0
0
0
0
0
0
0
0
0
0
0
0
0
0
0
0
0
0
0
0
0
0
0
0
0
0
0
0
0
0
0
0
0
0
0
0
0
0
0
0
0
0
0
0
0
0
0
0
0
0
0
0
0
0
0
0
0
0
0
0
0
0
0
0
0
0
0
0
0
0
0
0
0
0
0
0
0
0
0
0
0
0
0
0
0
0
0
0
0
0
0
0
0
0
0
0
0
0
0
0
0
0
0
0
0
0
0
0
0
0
0
0
0
0
0
0
0
0
0
0
0
0
0
0
0
0
0
0
0
0
0
0
0
0
0
0
0
0
0
0
0
0
0
0
0
0
0
0
0
0
0
0
0
0
0
0
0
0
0
0
0
0
0
0
0
0
0
0
0
0
0
0
0
0
0
0
0
0
0
0
0
0
0
0
0
0
0
0
0
0
0
0
0
0
0
0
0
0
0
0
0
0
0
0
0
0
0
0
0
0
0
0
0
0
0
0
0
0
0
0
0
0
0
0
0
0
0
0
0
0
0
0
0
0
0
0
0
0
0
0
0
0
0
0
0
0
0
0
0
0
0
0
0
0
0
0
0
0
0
0
0
0
0
0
0
0
0
0
0
0
0
0
0
0
0
0
0
0
0
0
0
0
0
0
0
0
0
0
0
0
0
0
0
0
0
0
0
0
0
0
0
0
0
0
0
0
0
0
0
0
0
0
0
0
0
0
0
0
0
0
0
0
0
0
0
0
0
0
0
0
0
0
0
0
0
0
0
0
0
0
0
0
0
0
0
0
0
0
0
0
0
0
0
0
0
0
0
0
0
0
0
0
0
0
0
0
0
0
0
0
0
0
0
0
0
0
0
0
0
0
0
0
0
0
0
0
0
0
0
0
0
0
0
0
0
0
0
0
0
0
0
0
0
0
0
0
0
0
0
0
0
0
0
0
0
0
0
0
0
0
0
0
0
0
0
0
0
0
0
0
0
0
0
0
0
0
0
0
0
0
0
0
0
0
0
0
0
0
0
0
0
0
0
0
0
0
0
0
0
0
0
0
0
0
0
0
0
0
0
0
0
0
0
0
0
0
0
0
0
0
0
0
0
0
0
0
0
0
0
0
0
0
0
0
0
0
0
0
0
0
0
0
0
0
0
0
0
0
0
0
0
0
0
0
0
0
0
0
0
0
0
0
0
0
0
0
0
0
0
0
0
0
0
0
0
0
0
0
0
0
0
0
0
0
0
0
0
0
0
0
0
0
0
0
0
0
0
0
0
0
0
0
0
0
0
0
0
0
0
0
0
0
0
0
0
0
0
0
0
0
0
0
0
0
0
0
0
0
0
0
0
0
0
0
0
0
0
0
0
0
0
0
0
0
0
0
0
0
0
0
0
0
0
0
0
0
0
0
0
0
0
0
0
0
0
0
0
0
0
0
0
0
0
0
0
0
0
0
0
0
0
0
0
0
0
0
0
0
0
0
0
0
0
0
0
0
0
0
0
0
0
0
0
0
0
0
0
0
0
0
0
0
0
0
0
0
0
0
0
0
0
0
0
0
0
0
0
0
0
0
0
0
0
0
0
0
0
0
0
0
0
0
0
0
0
0
0
0
0
0
0
0
0
0
0
0
0
0
0
0
0
0
0
0
0
0
0
0
0
0
0
0
0
0
0
0
0
0
0
0
0
0
0
0
0
0
0
0
0
0
0
0
0
0
0
0
0
0
0
0
0
0
0
0
0
0
0
0
0
0
0
0
0
0
0
0
0
0
0
0
0
0
0
0
0
0
0
0
0
0
0
0
0
0
0
0
0
0
0
0
0
0
0
0
0
0
0
0
0
0
0
0
0
0
0
0
0
0
0
0
0
0
0
0
0
0
0
0
0
0
0
0
0
0
0
0
0
0
0
0
0
0
0
0
0
0
0
0
0
0
0
0
0
0
0
0
0
0
0
0
0
0
0
0
0
0
0
0
0
0
0
0
0
0
0
0
0
0
0
0
0
0
0
0
0
0
0
0
0
0
0
0
0
0
0
0
0
0
0
0
0
0
0
0
0
0
0
0
0
0
0
0
0
0
0
0
0
0
0
0
0
0
0
0
0
0
0
0
0
0
0
0
0
0
0
0
0
0
0
0
0
0
0
0
0
0
0
0
0
0
0
0
0
0
0
0
0
0
0
0
0
0
0
0
0
0
0
0
0
0
0
0
0
0
0
0
0
0
0
0
0
0
0
0
0
0
0
0
0
0
0
0
0
0
0
0
0
0
0
0
0
0
0
0
0
0
0
0
0
0
0
0
0
0
0
0
0
0
0
0
0
0
0
0
0
0
0
0
0
0
0
0
0
0
0
0
0
0
0
0
0
0
0
0
0
0
0
0
0
0
0
0
0
0
0
0
0
0
0
0
0
0
0
0
0
0
0
0
0
0
0
0
0
0
0
0
0
0
0
0
0
0
0
0
0
0
0
0
0
0
0
0
0
0
0
0
0
0
0
0
0
0
0
0
0
0
0
0
0
0
0
0
0
0
0
0
0
0
0
0
0
0
0
0
0
0
0
0
0
0
0
0
0
0
0
0
0
0
0
0
0
0
0
0
0
0
0
0
0
0
0
0
0
0
0
0
0
0
0
0
0
0
0
0
0
0
0
0
0
0
0
0
0
0
0
0
0
0
0
0
0
0
0
0
0
0
0
0
0
0
0
0
0
0
0
0
0
0
0
0
0
0
0
0
0
0
0
0
0
0
0
0
0
0
0
0
0
0
0
0
0
0
0
0
0
0
0
0
0
0
0
0
0
0
0
0
0
0
0
0
0
0
0
0
0
0
0
0
0
0
0
0
0
0
0
0
0
0
0
0
0
0
0
0
0
0
0
0
0
0
0
0
0
0
0
0
0
0
0
0
0
0
0
0
0
0
0
0
0
0
0
0
0
0
0
0
0
0
0
0
0
0
0
0
0
0
0
0
0
0
0
0
0
0
0
0
0
0
0
0
0
0
0
0
0
0
0
0
0
0
0
0
0
0
0
0
0
0
0
0
0
0
0
0
0
0
0
0
0
0
0
0
0
0
0
0
0
0
0
0
0
0
0
0
0
0
0
0
0
0
0
0
0
0
0
0
0
0
0
0
0
0
0
0
0
0
0
0
0
0
0
0
0
0
0
0
0
0
0
0
0
0
0
0
0
0
0
0
0
0
0
0
0
0
0
0
0
0
0
0
0
0
0
0
0
0
0
0
0
0
0
0
0
0
0
0
0
0
0
0
0
0
0
0
0
0
0
0
0
0
0
0
0
0
0
0
0
0
0
0
0
0
0
0
0
0
0
0
0
0
0
0
0
0
0
0
0
0
0
0
0
0
0
0
0
0
0
0
0
0
0
0
0
0
0
0
0
0
0
0
0
0
0
0
0
0
0
0
0
0
0
0
0
0
0
0
0
0
0
0
0
0
0
0
0
0
0
0
0
0
0
0
0
0
0
0
0
0
0
0
0
0
0
0
0
0
0
0
0
0
0
0
0
0
0
0
0
0
0
0
0
0
0
0
0
0
0
0
0
0
0
0
0
0
0
0
0
0
0
0
0
0
0
0
0
0
0
0
0
0
0
0
0
0
0
0
0
0
0
0
0
0
0
0
0
0
0
0
0
0
0
0
0
0
0
0
0
0
0
0
0
0
0
0
0
0
0
0
0
0
0
0
0
0
0
0
0
0
0
0
0
0
0
0
0
0
0
0
0
0
0
0
0
0
0
0
0
0
0
0
0
0
0
0
0
0
0
0
0
0
0
0
0
0
0
0
0
0
0
0
0
0
0
0
0
0
0
0
0
0
0
0
0
0
0
0
0
0
0
0
0
0
0
0
0
0
0
0
0
0
0
0
0
0
0
0
0
0
0
0
0
0
0
0
0
0
0
0
0
0
0
0
0
0
0
0
0
0
0
0
0
0
0
0
0
0
0
0
0
0
0
0
0
0
0
0
0
0
0
0
0
0
0
0
0
0
0
0
0
0
0
0
0
0
0
0
0
0
0
0
0
0
0
0
0
0
0
0
0
0
0
0
0
0
0
0
0
0
0
0
0
0
0
0
0
0
0
0
0
0
0
0
0
0
0
0
0
0
0
0
0
0
0
0
0
0
0
0
0
0
0
0
0
0
0
0
0
0
0
0
0
0
0
0
0
0
0
0
0
0
0
0
0
0
0
0
0
0
0
0
0
0
0
0
0
0
0
0
0
0
0
0
0
0
0
0
0
0
0
0
0
0
0
0
0
0
0
0
0
0
0
0
0
0
0
0
0
0
0
0
0
0
0
0
0
0
0
0
0
0
0
0
0
0
0
0
0
0
0
0
0
0
0
0
0
0
0
0
0
0
0
0
0
0
0
0
0
0
0
0
0
0
0
0
0
0
0
0
0
0
0
0
0
0
0
0
0
0
0
0
0
0
0
0
0
0
0
0
0
0
0
0
0
0
0
0
0
0
0
0
0
0
0
0
0
0
0
0
0
0
0
0
0
0
0
0
0
0
0
0
0
0
0
0
0
0
0
0
0
0
0
0
0
0
0
0
0
0
0
0
0
0
0
0
0
0
0
0
0
0
0
0
0
0
0
0
0
0
0
0
0
0
0
0
0
0
0
0
0
0
      </DataArray> 
      <DataArray type="Float64" NumberOfComponents="1" Name="NormalFibers" format="ascii">
0
0
0
0
0
0
0
0
0
0
0
0
0
0
0
0
0
0
0
0
0
0
0
0
0
0
0
0
0
0
0
0
0
0
0
0
0
0
0
0
0
0
0
0
0
0
0
0
0
0
0
0
0
0
0
0
0
0
0
0
0
0
0
0
0
0
0
0
0
0
0
0
0
0
0
0
0
0
0
0
0
0
0
0
0
0
0
0
0
0
0
0
0
0
0
0
0
0
0
0
0
0
0
0
0
0
0
0
0
0
0
0
0
0
0
0
0
0
0
0
0
0
0
0
0
0
0
0
0
0
0
0
0
0
0
0
0
0
0
0
0
0
0
0
0
0
0
0
0
0
0
0
0
0
0
0
0
0
0
0
0
0
0
0
0
0
0
0
0
0
0
0
0
0
0
0
0
0
0
0
0
0
0
0
0
0
0
0
0
0
0
0
0
0
0
0
0
0
0
0
0
0
0
0
0
0
0
0
0
0
0
0
0
0
0
0
0
0
0
0
0
0
0
0
0
0
0
0
0
0
0
0
0
0
0
0
0
0
0
0
0
0
0
0
0
0
0
0
0
0
0
0
0
0
0
0
0
0
0
0
0
0
0
0
0
0
0
0
0
0
0
0
0
0
0
0
0
0
0
0
0
0
0
0
0
0
0
0
0
0
0
0
0
0
0
0
0
0
0
0
0
0
0
0
0
0
0
0
0
0
0
0
0
0
0
0
0
0
0
0
0
0
0
0
0
0
0
0
0
0
0
0
0
0
0
0
0
0
0
0
0
0
0
0
0
0
0
0
0
0
0
0
0
0
0
0
0
0
0
0
0
0
0
0
0
0
0
0
0
0
0
0
0
0
0
0
0
0
0
0
0
0
0
0
0
0
0
0
0
0
0
0
0
0
0
0
0
0
0
0
0
0
0
0
0
0
0
0
0
0
0
0
0
0
0
0
0
0
0
0
0
0
0
0
0
0
0
0
0
0
0
0
0
0
0
0
0
0
0
0
0
0
0
0
0
0
0
0
0
0
0
0
0
0
0
0
0
0
0
0
0
0
0
0
0
0
0
0
0
0
0
0
0
0
0
0
0
0
0
0
0
0
0
0
0
0
0
0
0
0
0
0
0
0
0
0
0
0
0
0
0
0
0
0
0
0
0
0
0
0
0
0
0
0
0
0
0
0
0
0
0
0
0
0
0
0
0
0
0
0
0
0
0
0
0
0
0
0
0
0
0
0
0
0
0
0
0
0
0
0
0
0
0
0
0
0
0
0
0
0
0
0
0
0
0
0
0
0
0
0
0
0
0
0
0
0
0
0
0
0
0
0
0
0
0
0
0
0
0
0
0
0
0
0
0
0
0
0
0
0
0
0
0
0
0
0
0
0
0
0
0
0
0
0
0
0
0
0
0
0
0
0
0
0
0
0
0
0
0
0
0
0
0
0
0
0
0
0
0
0
0
0
0
0
0
0
0
0
0
0
0
0
0
0
0
0
0
0
0
0
0
0
0
0
0
0
0
0
0
0
0
0
0
0
0
0
0
0
0
0
0
0
0
0
0
0
0
0
0
0
0
0
0
0
0
0
0
0
0
0
0
0
0
0
0
0
0
0
0
0
0
0
0
0
0
0
0
0
0
0
0
0
0
0
0
0
0
0
0
0
0
0
0
0
0
0
0
0
0
0
0
0
0
0
0
0
0
0
0
0
0
0
0
0
0
0
0
0
0
0
0
0
0
0
0
0
0
0
0
0
0
0
0
0
0
0
0
0
0
0
0
0
0
0
0
0
0
0
0
0
0
0
0
0
0
0
0
0
0
0
0
0
0
0
0
0
0
0
0
0
0
0
0
0
0
0
0
0
0
0
0
0
0
0
0
0
0
0
0
0
0
0
0
0
0
0
0
0
0
0
0
0
0
0
0
0
0
0
0
0
0
0
0
0
0
0
0
0
0
0
0
0
0
0
0
0
0
0
0
0
0
0
0
0
0
0
0
0
0
0
0
0
0
0
0
0
0
0
0
0
0
0
0
0
0
0
0
0
0
0
0
0
0
0
0
0
0
0
0
0
0
0
0
0
0
0
0
0
0
0
0
0
0
0
0
0
0
0
0
0
0
0
0
0
0
0
0
0
0
0
0
0
0
0
0
0
0
0
0
0
0
0
0
0
0
0
0
0
0
0
0
0
0
0
0
0
0
0
0
0
0
0
0
0
0
0
0
0
0
0
0
0
0
0
0
0
0
0
0
0
0
0
0
0
0
0
0
0
0
0
0
0
0
0
0
0
0
0
0
0
0
0
0
0
0
0
0
0
0
0
0
0
0
0
0
0
0
0
0
0
0
0
0
0
0
0
0
0
0
0
0
0
0
0
0
0
0
0
0
0
0
0
0
0
0
0
0
0
0
0
0
0
0
0
0
0
0
0
0
0
0
0
0
0
0
0
0
0
0
0
0
0
0
0
0
0
0
0
0
0
0
0
0
0
0
0
0
0
0
0
0
0
0
0
0
0
0
0
0
0
0
0
0
0
0
0
0
0
0
0
0
0
0
0
0
0
0
0
0
0
0
0
0
0
0
0
0
0
0
0
0
0
0
0
0
0
0
0
0
0
0
0
0
0
0
0
0
0
0
0
0
0
0
0
0
0
0
0
0
0
0
0
0
0
0
0
0
0
0
0
0
0
0
0
0
0
0
0
0
0
0
0
0
0
0
0
0
0
0
0.00157072
0.00157072
0.00793427
0.00793427
-0.025879
-0.025879
-0.0130629
-0.0130629
-0.000819019
-0.000819019
-0.0124787
-0.0124787
0.000758406
0.000758406
0.00576479
0.00576479
-0.0318333
-0.0318333
-0.00409735
-0.00409735
-0.0108659
-0.0108659
-0.0160532
-0.0160532
-0.0272676
-0.0272676
0.00698902
0.00698902
-0.0129716
-0.0129716
0.0181826
0.0181826
-0.0110256
-0.0110256
-0.000984192
-0.000984192
0.0106017
0.0106017
-0.00680659
-0.00680659
-0.00383621
-0.00383621
-0.0164376
-0.0164376
-0.0622688
-0.0622688
-0.00625456
-0.00625456
-0.00802761
-0.00802761
-0.00558942
-0.00558942
-0.00396526
-0.00396526
-0.000758601
-0.000758601
-0.0313272
-0.0313272
0.00268034
0.00268034
0.00262969
0.00262969
0.0031443
0.0031443
-0.0421765
-0.0421765
-0.00691783
-0.00691783
-0.0470954
-0.0470954
-0.00259908
-0.00259908
-0.0102543
-0.0102543
-0.00352177
-0.00352177
0.00217705
0.00217705
-0.0121709
-0.0121709
-0.0091675
-0.0091675
0.0151953
0.0151953
-0.0143996
-0.0143996
-0.0129868
-0.0129868
-0.0451328
-0.0451328
-0.0124684
-0.0124684
-0.00723144
-0.00723144
-0.00776215
-0.00776215
-0.00526484
-0.00526484
-0.00474568
-0.00474568
0.0222083
0.0222083
-0.00722453
-0.00722453
0.00430189
0.00430189
-0.037086
-0.037086
-0.00146694
-0.00146694
-0.00379983
-0.00379983
-0.0186723
-0.0186723
-0.0235206
-0.0235206
-0.00150847
-0.00150847
-0.00483531
-0.00483531
-0.0182881
-0.0182881
0.0131533
0.0131533
5.64747e-05
5.64747e-05
-0.0179234
-0.0179234
-0.0131405
-0.0131405
-0.0131332
-0.0131332
-0.0134267
-0.0134267
0.0125679
0.0125679
0.0174397
0.0174397
-0.029122
-0.029122
-0.020102
-0.020102
-0.00641019
-0.00641019
-0.0481615
-0.0481615
0.0116973
0.0116973
-0.0240971
-0.0240971
-0.000129503
-0.000129503
-0.00723199
-0.00723199
-0.00090804
-0.00090804
-0.0187597
-0.0187597
-0.0138591
-0.0138591
-0.0313811
-0.0313811
0.00300613
0.00300613
-0.016906
-0.016906
-0.0441463
-0.0441463
-0.0277367
-0.0277367
-0.0223296
-0.0223296
-0.00621001
-0.00621001
-0.00177161
-0.00177161
0.00654013
0.00654013
-0.00138892
-0.00138892
-0.00635813
-0.00635813
-0.000303648
-0.000303648
0.0112933
0.0112933
-0.0237544
-0.0237544
-0.0370671
-0.0370671
-0.00263821
-0.00263821
0.00166981
0.00166981
-0.00942098
-0.00942098
-0.0580602
-0.0580602
-0.0123256
-0.0123256
-0.00034373
-0.00034373
-0.0159404
-0.0159404
-0.00663225
-0.00663225
-0.0126172
-0.0126172
-0.00238106
-0.00238106
0.00218333
0.00218333
-0.0435688
-0.0435688
-0.0108613
-0.0108613
-0.00751393
-0.00751393
-0.00854178
-0.00854178
-0.0274217
-0.0274217
0.0213043
0.0213043
0.0138577
0.0138577
0.00324325
0.00324325
0.0107662
0.0107662
-0.00268217
-0.00268217
-0.00127644
-0.00127644
-0.0189624
-0.0189624
-0.0301285
-0.0301285
0.00314868
0.00314868
-0.00132181
-0.00132181
-0.0058916
-0.0058916
0.00324956
0.00324956
-0.00951759
-0.00951759
-0.0155056
-0.0155056
-0.0350606
-0.0350606
-0.00122757
-0.00122757
-0.00157367
-0.00157367
0.000955099
0.000955099
-0.0450733
-0.0450733
-0.0233054
-0.0233054
0.00765609
0.00765609
0.00121916
0.00121916
-0.00590726
-0.00590726
0.0127694
0.0127694
-0.00810079
-0.00810079
-0.00129392
-0.00129392
-0.0172519
-0.0172519
-0.0199646
-0.0199646
-0.00677835
-0.00677835
-0.00236408
-0.00236408
-0.00955474
-0.00955474
-0.00146317
-0.00146317
-0.00494869
-0.00494869
-0.00364442
-0.00364442
-0.00186477
-0.00186477
-0.0062983
-0.0062983
0.00376078
0.00376078
-0.00577998
-0.00577998
-0.0196001
-0.0196001
-0.00374852
-0.00374852
-0.00215724
-0.00215724
0.00511092
0.00511092
-0.0372303
-0.0372303
-0.032271
-0.032271
-0.0878922
-0.0878922
-0.0435989
-0.0435989
-0.0333809
-0.0333809
0.000582674
0.000582674
-0.0059393
-0.0059393
-0.01707
-0.01707
0.0118653
0.0118653
-0.00799377
-0.00799377
0.00837838
0.00837838
-0.0016135
-0.0016135
-0.0108619
-0.0108619
-0.0181882
-0.0181882
0.00633908
0.00633908
-0.015001
-0.015001
-0.00892118
-0.00892118
-0.00651897
-0.00651897
-0.0213048
-0.0213048
-0.0204016
-0.0204016
-0.00275505
-0.00275505
0.00137129
0.00137129
-0.0125853
-0.0125853
-0.00361231
-0.00361231
-0.0171648
-0.0171648
-0.0151469
-0.0151469
-0.0208439
-0.0208439
-0.00276342
-0.00276342
-0.0039559
-0.0039559
-0.000390489
-0.000390489
-0.039578
-0.039578
-0.0225156
-0.0225156
-0.0451115
-0.0451115
-0.00199633
-0.00199633
-0.00242584
-0.00242584
0.0080605
0.0080605
0.00390828
0.00390828
0.00904163
0.00904163
0.0157868
0.0157868
-0.0141276
-0.0141276
-0.0151829
-0.0151829
0.000788781
0.000788781
-0.00494252
-0.00494252
-0.000324593
-0.000324593
-0.00385241
-0.00385241
-0.0100045
-0.0100045
0.00458909
0.00458909
-0.00589914
-0.00589914
-0.0301491
-0.0301491
-0.00245004
-0.00245004
0.0101396
0.0101396
-0.00456983
-0.00456983
-0.0599564
-0.0599564
0.0101008
0.0101008
0.00259237
0.00259237
-0.00445736
-0.00445736
-0.0226051
-0.0226051
-0.00128143
-0.00128143
-0.00430581
-0.00430581
-0.0253328
-0.0253328
-0.0117474
-0.0117474
0.010145
0.010145
-0.00552168
-0.00552168
-0.0114786
-0.0114786
-0.0290695
-0.0290695
0.0169008
0.0169008
0.0166686
0.0166686
-0.000931497
-0.000931497
-0.0352467
-0.0352467
0.00397278
0.00397278
-0.00896258
-0.00896258
-0.0136161
-0.0136161
-0.0024419
-0.0024419
6.74041e-05
6.74041e-05
-0.00400053
-0.00400053
-0.0278144
-0.0278144
-0.00863446
-0.00863446
-0.00280189
-0.00280189
-0.00206773
-0.00206773
-0.00879442
-0.00879442
-0.0358005
-0.0358005
0.000947911
0.000947911
-0.00761601
-0.00761601
-0.0107176
-0.0107176
-0.0453448
-0.0453448
-0.0321444
-0.0321444
-0.0277329
-0.0277329
-0.00821343
-0.00821343
-0.00190638
-0.00190638
-0.0017116
-0.0017116
0.0181213
0.0181213
-0.000797919
-0.000797919
-0.00350179
-0.00350179
-0.00212431
-0.00212431
0.0165075
0.0165075
-0.031952
-0.031952
-0.0145302
-0.0145302
-0.00229223
-0.00229223
-0.0431247
-0.0431247
-0.0438558
-0.0438558
-0.00174381
-0.00174381
-0.0487515
-0.0487515
-0.000481712
-0.000481712
-0.0284148
-0.0284148
0.00872814
0.00872814
-0.00412285
-0.00412285
-0.00012804
-0.00012804
-0.00707435
-0.00707435
-0.0657395
-0.0657395
-0.00816089
-0.00816089
-0.00386355
-0.00386355
-0.00870405
-0.00870405
-0.0295403
-0.0295403
-0.013904
-0.013904
-0.0135117
-0.0135117
0.01988
0.01988
-0.00264118
-0.00264118
-0.0332795
-0.0332795
-0.00405758
-0.00405758
-0.00169421
-0.00169421
-0.0433829
-0.0433829
-0.00592463
-0.00592463
-0.0351139
-0.0351139
-0.00443974
-0.00443974
-0.000751012
-0.000751012
-0.0166432
-0.0166432
0.00650602
0.00650602
0.000374085
0.000374085
-0.0104858
-0.0104858
-0.0131635
-0.0131635
-0.00929053
-0.00929053
-0.0168881
-0.0168881
-0.0399714
-0.0399714
0.0128759
0.0128759
-0.0352514
-0.0352514
0.00187294
0.00187294
-0.0414328
-0.0414328
-0.0124098
-0.0124098
-0.0164267
-0.0164267
-0.00237086
-0.00237086
0.00731331
0.00731331
-0.0474703
-0.0474703
0.009468
0.009468
0.00340327
0.00340327
0.0184681
0.0184681
-0.0399688
-0.0399688
-0.0121195
-0.0121195
-0.000734697
-0.000734697
-0.0214165
-0.0214165
-0.0297206
-0.0297206
-0.00835911
-0.00835911
-0.036537
-0.036537
-0.0143831
-0.0143831
-0.00429097
-0.00429097
-0.00661835
-0.00661835
0.00745969
0.00745969
-0.0326222
-0.0326222
0.0127451
0.0127451
-0.0103868
-0.0103868
0.000116913
0.000116913
-0.0129755
-0.0129755
0.00203407
0.00203407
0.00694289
0.00694289
-0.0118485
-0.0118485
-0.0201797
-0.0201797
-0.030352
-0.030352
0.00170385
0.00170385
-0.0443624
-0.0443624
0.00844843
0.00844843
-0.00571687
-0.00571687
-0.0178281
-0.0178281
-0.0282852
-0.0282852
-0.0384951
-0.0384951
-0.0361551
-0.0361551
-0.00473994
-0.00473994
-0.0172782
-0.0172782
-0.000264875
-0.000264875
-0.00272409
-0.00272409
-0.0486302
-0.0486302
-0.00527316
-0.00527316
0.0154603
0.0154603
0.00745858
0.00745858
-0.00572144
-0.00572144
-0.000303642
-0.000303642
0.000197953
0.000197953
-0.000232714
-0.000232714
-0.0141318
-0.0141318
-0.0133664
-0.0133664
0.00346694
0.00346694
-0.00208703
-0.00208703
-0.0203215
-0.0203215
0.00435829
0.00435829
-0.0106029
-0.0106029
-0.00726988
-0.00726988
-0.00806815
-0.00806815
-0.00364981
-0.00364981
-0.00369525
-0.00369525
-0.0251819
-0.0251819
-0.00268099
-0.00268099
0.00170505
0.00170505
-0.00142558
-0.00142558
0.016389
0.016389
-0.0201658
-0.0201658
-0.0164307
-0.0164307
-0.0145649
-0.0145649
-0.0169247
-0.0169247
-0.00605894
-0.00605894
-0.0253991
-0.0253991
-0.0274744
-0.0274744
-0.0126505
-0.0126505
-0.0524847
-0.0524847
0.00812447
0.00812447
-0.00395457
-0.00395457
-0.00236115
-0.00236115
0.016886
0.016886
0.00804723
0.00804723
-0.00251615
-0.00251615
-9.3259e-06
-9.3259e-06
-0.00455719
-0.00455719
-0.00537546
-0.00537546
-0.0201431
-0.0201431
-0.0136732
-0.0136732
-0.0133339
-0.0133339
-0.0118931
-0.0118931
-0.0178611
-0.0178611
-0.00436722
-0.00436722
0.0044425
0.0044425
0.0122526
0.0122526
-0.00845178
-0.00845178
-0.0129223
-0.0129223
-0.00534073
-0.00534073
-0.0751898
-0.0751898
0.0020507
0.0020507
0.00825106
0.00825106
-0.040283
-0.040283
0.00981708
0.00981708
-0.00641593
-0.00641593
0.00518558
0.00518558
-0.069549
-0.069549
-0.00844913
-0.00844913
0.00780191
0.00780191
-0.0491923
-0.0491923
-0.0233916
-0.0233916
-0.0127647
-0.0127647
-0.0497989
-0.0497989
-0.00491548
-0.00491548
-0.00472213
-0.00472213
-0.016483
-0.016483
-0.0687505
-0.0687505
-0.017117
-0.017117
-0.0017314
-0.0017314
-0.0053766
-0.0053766
0.00125636
0.00125636
-0.0346648
-0.0346648
-0.0182856
-0.0182856
0.00287465
0.00287465
-0.015898
-0.015898
-0.00626269
-0.00626269
-0.00561474
-0.00561474
-0.0259088
-0.0259088
-0.0283295
-0.0283295
-0.040533
-0.040533
-0.000538864
-0.000538864
-0.00943785
-0.00943785
-0.0153468
-0.0153468
-0.00868479
-0.00868479
-0.0100053
-0.0100053
0.000958033
0.000958033
-0.0137424
-0.0137424
0.00543965
0.00543965
-0.0100042
-0.0100042
-0.00786632
-0.00786632
-0.00316132
-0.00316132
0.00950054
0.00950054
-0.022063
-0.022063
-0.0283419
-0.0283419
-0.00297945
-0.00297945
-0.0321661
-0.0321661
-0.00748834
-0.00748834
-0.0496586
-0.0496586
-0.0827598
-0.0827598
0.0048315
0.0048315
0.00923315
0.00923315
0.00495884
0.00495884
-0.0197871
-0.0197871
0.000127419
0.000127419
-0.000891756
-0.000891756
-0.0341555
-0.0341555
-0.00238782
-0.00238782
-0.00260222
-0.00260222
0.00145598
0.00145598
-0.00173363
-0.00173363
-0.020236
-0.020236
-0.0548887
-0.0548887
-0.00118096
-0.00118096
-7.06759e-05
-7.06759e-05
-0.00543875
-0.00543875
-0.00604792
-0.00604792
-0.0412685
-0.0412685
-0.00210034
-0.00210034
-0.0315229
-0.0315229
0.00148669
0.00148669
-0.0149119
-0.0149119
-0.00986399
-0.00986399
0.00574888
0.00574888
-0.0084497
-0.0084497
0.00329754
0.00329754
0.00292865
0.00292865
-0.0078768
-0.0078768
-0.00136322
-0.00136322
-0.0108077
-0.0108077
-0.0113981
-0.0113981
-0.00385684
-0.00385684
0.00929387
0.00929387
-0.00882275
-0.00882275
-0.0137801
-0.0137801
0.0092607
0.0092607
-0.00208686
-0.00208686
-0.0247636
-0.0247636
-0.00115282
-0.00115282
-0.0159546
-0.0159546
-0.0472391
-0.0472391
-0.00628758
-0.00628758
-0.0117319
-0.0117319
-0.0208801
-0.0208801
0.0136698
0.0136698
0.00503846
0.00503846
-0.0115114
-0.0115114
0.00354902
0.00354902
-0.00154852
-0.00154852
-0.0126403
-0.0126403
-0.0107807
-0.0107807
-0.0100471
-0.0100471
-0.00257537
-0.00257537
2.02266e-05
2.02266e-05
-0.00936291
-0.00936291
-0.00969924
-0.00969924
-0.00356999
-0.00356999
-0.00670443
-0.00670443
-0.068297
-0.068297
-0.00247142
-0.00247142
-0.00814049
-0.00814049
-0.010516
-0.010516
-0.00459101
-0.00459101
0.00507143
0.00507143
-0.0061544
-0.0061544
-0.00962181
-0.00962181
0.00470907
0.00470907
0.00150834
0.00150834
-0.016226
-0.016226
-0.0122453
-0.0122453
-0.030892
-0.030892
-0.00522384
-0.00522384
0.00120527
0.00120527
-0.0039974
-0.0039974
-0.00304949
-0.00304949
-0.0188515
-0.0188515
-0.00228007
-0.00228007
-0.00644743
-0.00644743
-0.00587583
-0.00587583
-0.0352148
-0.0352148
-0.00359221
-0.00359221
-0.00431689
-0.00431689
-0.00941026
-0.00941026
-0.0292494
-0.0292494
-0.00101624
-0.00101624
-0.0330464
-0.0330464
-0.00104521
-0.00104521
-0.0424356
-0.0424356
-0.0353554
-0.0353554
-0.000359088
-0.000359088
0.00860326
0.00860326
0.00282031
0.00282031
-0.0259719
-0.0259719
-0.000780684
-0.000780684
-0.00735929
-0.00735929
-0.040131
-0.040131
0.0106353
0.0106353
-0.0259469
-0.0259469
-0.00910034
-0.00910034
-0.0242215
-0.0242215
-0.0336576
-0.0336576
0.0144686
0.0144686
-0.00540423
-0.00540423
-0.0133395
-0.0133395
-0.00323409
-0.00323409
-0.0142153
-0.0142153
-0.00350323
-0.00350323
-0.00461162
-0.00461162
-0.00906595
-0.00906595
-0.0248763
-0.0248763
-0.0162791
-0.0162791
0.00160421
0.00160421
-0.0274644
-0.0274644
-0.0119366
-0.0119366
-0.0139437
-0.0139437
-0.0211025
-0.0211025
-0.0271257
-0.0271257
-0.0167522
-0.0167522
0.00529743
0.00529743
-0.0617327
-0.0617327
0.00322995
0.00322995
-0.0160127
-0.0160127
-0.00744023
-0.00744023
-0.0388344
-0.0388344
-0.0229381
-0.0229381
0.0115356
0.0115356
-0.0203758
-0.0203758
-0.0298371
-0.0298371
-0.00896152
-0.00896152
-0.0258592
-0.0258592
-0.0412403
-0.0412403
0.0127638
0.0127638
-0.00930285
-0.00930285
7.5216e-05
7.5216e-05
-0.00355941
-0.00355941
-0.0356746
-0.0356746
-0.0345184
-0.0345184
-0.00176307
-0.00176307
-0.0102247
-0.0102247
0.0066591
0.0066591
-0.0250179
-0.0250179
-0.00199738
-0.00199738
-0.0560636
-0.0560636
-0.0406353
-0.0406353
-0.00612373
-0.00612373
-0.00674492
-0.00674492
-0.0340239
-0.0340239
-0.0132732
-0.0132732
0.0200049
0.0200049
-0.0294235
-0.0294235
0.0186208
0.0186208
-0.00749317
-0.00749317
-0.00715408
-0.00715408
-0.0328968
-0.0328968
-0.0045514
-0.0045514
-0.00104307
-0.00104307
-0.00648911
-0.00648911
-0.00961294
-0.00961294
-0.00773806
-0.00773806
-0.00781314
-0.00781314
0.000452789
0.000452789
-0.00535481
-0.00535481
-0.0208302
-0.0208302
-0.00704358
-0.00704358
-0.00825512
-0.00825512
-0.00610023
-0.00610023
-0.00285422
-0.00285422
-0.00998013
-0.00998013
0.00355171
0.00355171
-0.00703277
-0.00703277
0.00133597
0.00133597
-0.0042371
-0.0042371
-0.0451113
-0.0451113
-0.00807622
-0.00807622
-0.0134586
-0.0134586
0.00714883
0.00714883
-0.00361036
-0.00361036
0.002485
0.002485
-0.00775628
-0.00775628
-0.0360991
-0.0360991
-0.00275061
-0.00275061
-0.0302026
-0.0302026
-0.00675859
-0.00675859
-0.00135615
-0.00135615
-0.00763082
-0.00763082
-0.00805293
-0.00805293
-0.00712397
-0.00712397
-0.0103493
-0.0103493
-0.0153467
-0.0153467
0.015192
0.015192
0.000451632
0.000451632
-0.00101891
-0.00101891
-0.0157588
-0.0157588
0.00937952
0.00937952
-0.00429963
-0.00429963
-0.00239476
-0.00239476
-0.00867662
-0.00867662
-0.00720978
-0.00720978
-0.00112091
-0.00112091
-0.00535296
-0.00535296
-0.000332998
-0.000332998
-0.00299278
-0.00299278
-0.0102917
-0.0102917
0.002003
0.002003
-0.0198144
-0.0198144
-0.00965415
-0.00965415
0.0194318
0.0194318
-0.00265045
-0.00265045
0.00619642
0.00619642
-0.00578121
-0.00578121
-0.0531283
-0.0531283
-0.0449805
-0.0449805
-0.0194834
-0.0194834
0.0117729
0.0117729
-0.0297687
-0.0297687
-0.00081923
-0.00081923
-0.00330291
-0.00330291
-0.00379828
-0.00379828
-0.000994227
-0.000994227
-0.00784773
-0.00784773
-0.00994353
-0.00994353
-0.00288939
-0.00288939
-0.0146589
-0.0146589
-0.0663157
-0.0663157
-0.00526765
-0.00526765
-0.0079105
-0.0079105
-0.00555635
-0.00555635
-0.0183447
-0.0183447
0.00577018
0.00577018
-0.0299603
-0.0299603
-0.00140899
-0.00140899
0.00838923
0.00838923
-0.00146343
-0.00146343
-0.00366637
-0.00366637
-0.046371
-0.046371
-0.0463146
-0.0463146
-0.039973
-0.039973
-0.000842593
-0.000842593
0.00188962
0.00188962
-0.00923308
-0.00923308
-0.00238528
-0.00238528
-0.00312974
-0.00312974
-0.00334955
-0.00334955
-0.00190447
-0.00190447
0.010854
0.010854
-0.0497042
-0.0497042
-0.00310881
-0.00310881
-0.000313588
-0.000313588
-0.00197305
-0.00197305
-0.00448605
-0.00448605
-0.00201705
-0.00201705
0.00368408
0.00368408
-0.0279934
-0.0279934
-0.00599884
-0.00599884
-0.0159876
-0.0159876
-0.0303073
-0.0303073
-0.0103088
-0.0103088
-0.0405036
-0.0405036
-0.0135924
-0.0135924
-0.0130721
-0.0130721
-0.000954713
-0.000954713
-0.00481726
-0.00481726
0.010705
0.010705
0.0155758
0.0155758
-0.0032422
-0.0032422
-0.00174277
-0.00174277
0.00329909
0.00329909
-0.0210608
-0.0210608
-0.00198178
-0.00198178
0.00793279
0.00793279
-0.00742642
-0.00742642
5.0435e-05
5.0435e-05
-0.00299071
-0.00299071
-0.00445208
-0.00445208
-0.0387812
-0.0387812
0.0155372
0.0155372
-0.00229079
-0.00229079
-0.0142211
-0.0142211
-0.0215008
-0.0215008
-0.0236105
-0.0236105
-0.003286
-0.003286
-0.00161143
-0.00161143
-0.028928
-0.028928
0.00391276
0.00391276
-0.0384648
-0.0384648
-0.050296
-0.050296
0.00400598
0.00400598
-0.00331373
-0.00331373
-0.0358513
-0.0358513
-0.00682318
-0.00682318
-0.00891629
-0.00891629
-0.0149005
-0.0149005
-0.00511523
-0.00511523
0.00789907
0.00789907
-0.033467
-0.033467
-0.0133017
-0.0133017
0.00515667
0.00515667
-0.0292769
-0.0292769
-0.00819822
-0.00819822
-0.00681243
-0.00681243
-0.0029004
-0.0029004
-0.00202529
-0.00202529
-0.0093177
-0.0093177
-0.0174851
-0.0174851
-0.00339948
-0.00339948
0.00850013
0.00850013
-0.0813418
-0.0813418
0.000970578
0.000970578
-0.00440324
-0.00440324
-0.0118431
-0.0118431
0.00517646
0.00517646
-0.0113448
-0.0113448
-0.00543845
-0.00543845
-0.00784055
-0.00784055
-0.001088
-0.001088
0.00225797
0.00225797
0.00159545
0.00159545
0.00290277
0.00290277
-0.0409745
-0.0409745
-0.0114944
-0.0114944
0.0015892
0.0015892
0.0107564
0.0107564
0.00205107
0.00205107
0.0102976
0.0102976
-0.00508978
-0.00508978
0.00231121
0.00231121
-0.00462089
-0.00462089
-0.00585974
-0.00585974
-0.0694546
-0.0694546
0.00378714
0.00378714
-0.0583952
-0.0583952
0.00987562
0.00987562
0.000719458
0.000719458
-0.0106934
-0.0106934
-0.00606729
-0.00606729
-0.0188537
-0.0188537
-0.0211619
-0.0211619
-0.00709419
-0.00709419
-0.000785514
-0.000785514
0.0107438
0.0107438
-0.0245519
-0.0245519
-0.00646427
-0.00646427
-0.0053539
-0.0053539
0.0144609
0.0144609
0.00030666
0.00030666
-0.00132892
-0.00132892
3.73706e-05
3.73706e-05
-0.00257229
-0.00257229
-0.0156644
-0.0156644
-0.033319
-0.033319
-0.0380881
-0.0380881
-0.00609076
-0.00609076
0.00777268
0.00777268
-0.0388487
-0.0388487
-0.0153839
-0.0153839
0.0144961
0.0144961
-0.00191762
-0.00191762
0.000421813
0.000421813
-0.0105974
-0.0105974
-0.00867594
-0.00867594
-0.00262575
-0.00262575
-0.0371419
-0.0371419
0.0220852
0.0220852
-0.0267151
-0.0267151
-0.00255947
-0.00255947
-0.0113138
-0.0113138
-0.048756
-0.048756
0.00180393
0.00180393
-0.00922519
-0.00922519
-0.0425723
-0.0425723
0.0158864
0.0158864
-0.0011788
-0.0011788
0.00211755
0.00211755
-0.00672817
-0.00672817
0.00914609
0.00914609
-0.000559558
-0.000559558
-0.00188238
-0.00188238
-0.012566
-0.012566
-0.0205568
-0.0205568
-0.0618159
-0.0618159
-0.048719
-0.048719
0.00569215
0.00569215
-0.0457197
-0.0457197
-0.00899504
-0.00899504
-0.00445635
-0.00445635
0.000706505
0.000706505
-0.0146831
-0.0146831
0.00356321
0.00356321
-0.00196904
-0.00196904
0.00290845
0.00290845
-0.00173184
-0.00173184
-6.45856e-05
-6.45856e-05
-0.0125123
-0.0125123
-0.00745097
-0.00745097
-0.00160707
-0.00160707
-0.0244624
-0.0244624
0.00125115
0.00125115
-0.00957992
-0.00957992
-0.011104
-0.011104
0.00797942
0.00797942
-0.0122533
-0.0122533
-0.00575969
-0.00575969
0.0123263
0.0123263
0.00327327
0.00327327
0.0112968
0.0112968
-0.0152078
-0.0152078
-0.000562194
-0.000562194
-0.0315362
-0.0315362
-0.0093685
-0.0093685
-0.0464584
-0.0464584
-0.025293
-0.025293
-0.0465499
-0.0465499
-0.00382511
-0.00382511
-0.0326263
-0.0326263
0.00101662
0.00101662
-0.00855539
-0.00855539
-0.0409203
-0.0409203
-0.0465408
-0.0465408
0.0070171
0.0070171
-0.00949592
-0.00949592
0.00859986
0.00859986
0.0110051
0.0110051
-0.0171571
-0.0171571
-0.0433687
-0.0433687
-0.00166247
-0.00166247
0.00433198
0.00433198
0.00289779
0.00289779
0.0084765
0.0084765
-0.023235
-0.023235
-0.00853132
-0.00853132
0.000894401
0.000894401
-0.00854989
-0.00854989
-0.00935869
-0.00935869
-0.0120445
-0.0120445
0.00467369
0.00467369
-0.0256317
-0.0256317
-0.00319484
-0.00319484
-0.00304167
-0.00304167
-0.00590235
-0.00590235
-0.00863599
-0.00863599
-0.00256606
-0.00256606
-0.0283023
-0.0283023
-0.0400335
-0.0400335
-0.00615812
-0.00615812
-0.00143028
-0.00143028
-0.00906027
-0.00906027
0.00200125
0.00200125
-0.0416116
-0.0416116
-0.000721644
-0.000721644
0.0115855
0.0115855
-0.0503903
-0.0503903
-0.000670124
-0.000670124
-0.0128442
-0.0128442
-0.0141919
-0.0141919
-0.0323414
-0.0323414
-0.00695651
-0.00695651
-0.00750639
-0.00750639
-0.00123988
-0.00123988
-0.0361038
-0.0361038
-0.00903667
-0.00903667
-0.0240416
-0.0240416
0.000313436
0.000313436
-0.00350136
-0.00350136
0.00386827
0.00386827
0.00600129
0.00600129
-0.016781
-0.016781
0.00108048
0.00108048
0.000998953
0.000998953
0.00086672
0.00086672
0.000160212
0.000160212
-0.00152648
-0.00152648
-0.00967694
-0.00967694
-0.00973825
-0.00973825
-0.0210412
-0.0210412
-0.00340092
-0.00340092
0.00946132
0.00946132
-0.0106795
-0.0106795
-0.032675
-0.032675
0.00716502
0.00716502
-0.0106701
-0.0106701
-0.00363102
-0.00363102
-0.0100021
-0.0100021
-0.00731847
-0.00731847
-0.00589828
-0.00589828
-0.00343274
-0.00343274
-0.0272981
-0.0272981
-0.00388609
-0.00388609
-0.00581341
-0.00581341
-0.00568932
-0.00568932
-0.0339492
-0.0339492
-0.0542192
-0.0542192
-0.0071544
-0.0071544
-0.00355265
-0.00355265
-0.0348432
-0.0348432
-0.00781545
-0.00781545
-0.0033466
-0.0033466
-0.0230359
-0.0230359
-0.0247024
-0.0247024
-0.0101978
-0.0101978
-0.00233143
-0.00233143
-0.0192299
-0.0192299
0.00327024
0.00327024
0.00659746
0.00659746
0.000670259
0.000670259
-0.00204868
-0.00204868
-0.00668653
-0.00668653
0.00659581
0.00659581
0.0170371
0.0170371
-0.0352122
-0.0352122
-0.00511688
-0.00511688
-0.00656455
-0.00656455
-0.0148158
-0.0148158
-0.0108891
-0.0108891
0.00410907
0.00410907
-0.0121493
-0.0121493
0.00636345
0.00636345
-0.0284711
-0.0284711
-0.040992
-0.040992
0.0192153
0.0192153
-0.0326429
-0.0326429
-0.0395469
-0.0395469
-0.0263437
-0.0263437
-0.0137677
-0.0137677
-0.00543108
-0.00543108
-0.00507925
-0.00507925
-0.0199874
-0.0199874
-0.0138755
-0.0138755
0.000355662
0.000355662
-0.00438113
-0.00438113
-0.00246875
-0.00246875
0.00447436
0.00447436
-0.0125408
-0.0125408
-0.0287258
-0.0287258
-0.0594263
-0.0594263
-0.0411891
-0.0411891
-0.0229559
-0.0229559
-0.0158744
-0.0158744
-0.0711254
-0.0711254
-0.00348576
-0.00348576
-0.0308813
-0.0308813
0.00735807
0.00735807
-0.00108539
-0.00108539
-0.0413193
-0.0413193
-0.0136099
-0.0136099
-0.0120873
-0.0120873
-0.0316756
-0.0316756
-0.00279478
-0.00279478
-0.00399816
-0.00399816
-0.00248811
-0.00248811
-0.00613608
-0.00613608
-0.0312448
-0.0312448
-0.00400283
-0.00400283
-0.00304753
-0.00304753
-0.00288344
-0.00288344
-0.00062166
-0.00062166
-0.0235616
-0.0235616
-0.00145553
-0.00145553
-0.0426586
-0.0426586
-0.0697209
-0.0697209
-0.00712159
-0.00712159
0.00579543
0.00579543
-0.0126858
-0.0126858
-0.013212
-0.013212
-0.0050136
-0.0050136
-0.0176256
-0.0176256
0.00334334
0.00334334
-0.00355145
-0.00355145
-0.00274915
-0.00274915
-0.00224169
-0.00224169
-0.00193026
-0.00193026
-0.00152975
-0.00152975
-0.00121543
-0.00121543
-0.000918911
-0.000918911
-0.000651517
-0.000651517
-0.000429677
-0.000429677
-0.000208257
-0.000208257
-2.31228e-05
-2.31228e-05
0.000142548
0.000142548
0.000301621
0.000301621
0.000401698
0.000401698
0.000493244
0.000493244
0.000577992
0.000577992
0.000610979
0.000610979
0.000641955
0.000641955
0.000627461
0.000627461
0.000624218
0.000624218
0.000565533
0.000565533
0.000474871
0.000474871
0.000406975
0.000406975
0.000282142
0.000282142
0.000143491
0.000143491
-4.88591e-05
-4.88591e-05
-0.000211235
-0.000211235
-0.000387472
-0.000387472
-0.000667556
-0.000667556
-0.000893934
-0.000893934
-0.00130186
-0.00130186
-0.00153623
-0.00153623
-0.00179466
-0.00179466
-0.00239264
-0.00239264
-0.00284703
-0.00284703
-0.00301684
-0.00301684
-0.00357401
-0.00357401
-0.00460556
-0.00460556
-0.00506658
-0.00506658
-0.00559944
-0.00559944
-0.00692545
-0.00692545
-0.00818424
-0.00818424
-0.00963286
-0.00963286
-0.0116845
-0.0116845
-0.015159
-0.015159
-0.0186073
-0.0186073
-0.0254768
-0.0254768
-0.0297513
-0.0297513
-0.0145747
-0.0145747
0.00142455
0.00142455
-0.00406701
-0.00406701
-0.00575088
-0.00575088
-0.00451857
-0.00451857
-0.00455327
-0.00455327
-0.00431999
-0.00431999
-0.0060239
-0.0060239
-0.00881208
-0.00881208
-0.0105542
-0.0105542
-0.0123832
-0.0123832
-0.0141061
-0.0141061
-0.015323
-0.015323
-0.0156517
-0.0156517
-0.0152849
-0.0152849
-0.014538
-0.014538
-0.0133756
-0.0133756
-0.0119446
-0.0119446
-0.0103271
-0.0103271
-0.00882393
-0.00882393
-0.00737165
-0.00737165
-0.0062435
-0.0062435
-0.00573053
-0.00573053
-0.00523213
-0.00523213
-0.0030055
-0.0030055
-0.00278651
-0.00278651
-0.00241475
-0.00241475
-0.00184882
-0.00184882
-0.00153897
-0.00153897
-0.00132974
-0.00132974
-0.00089171
-0.00089171
-0.000699834
-0.000699834
-0.000385504
-0.000385504
-0.000207356
-0.000207356
-4.81269e-05
-4.81269e-05
0.00015071
0.00015071
0.000281419
0.000281419
0.000403926
0.000403926
0.00046759
0.00046759
0.00057873
0.00057873
0.000604049
0.000604049
0.000625314
0.000625314
0.000607835
0.000607835
0.000627254
0.000627254
0.000568994
0.000568994
0.000486473
0.000486473
0.000414613
0.000414613
0.000279683
0.000279683
0.000146926
0.000146926
-1.70629e-05
-1.70629e-05
-0.000214995
-0.000214995
-0.000417088
-0.000417088
-0.000664977
-0.000664977
-0.000930589
-0.000930589
-0.00123948
-0.00123948
-0.00154261
-0.00154261
-0.00189738
-0.00189738
-0.00228145
-0.00228145
-0.00278591
-0.00278591
-0.00360341
-0.00360341
-0.00514383
-0.00514383
-0.00574144
-0.00574144
-0.00625103
-0.00625103
-0.00739586
-0.00739586
-0.00882412
-0.00882412
-0.0104292
-0.0104292
-0.0121111
-0.0121111
-0.0135306
-0.0135306
-0.0147163
-0.0147163
-0.0154628
-0.0154628
-0.0156941
-0.0156941
-0.0153196
-0.0153196
-0.0143384
-0.0143384
-0.0122163
-0.0122163
-0.0100445
-0.0100445
-0.00783469
-0.00783469
-0.00620763
-0.00620763
-0.00525458
-0.00525458
-0.00396894
-0.00396894
-0.00410475
-0.00410475
-0.0045372
-0.0045372
-0.00382539
-0.00382539
-0.00145637
-0.00145637
-0.0121544
-0.0121544
-0.0278307
-0.0278307
-0.0276004
-0.0276004
-0.0203008
-0.0203008
-0.0143996
-0.0143996
-0.0122544
-0.0122544
-0.00922058
-0.00922058
-0.00801819
-0.00801819
-0.00723051
-0.00723051
-0.00577397
-0.00577397
-0.00485683
-0.00485683
-0.00454196
-0.00454196
-0.00382577
-0.00382577
      </DataArray> 
    </PointData>
    <CellData>
    </CellData>
  </Piece>
  </UnstructuredGrid>
</VTKFile>
