<?xml version="1.0"?>
<VTKFile type="UnstructuredGrid">
  <UnstructuredGrid>
  <Piece NumberOfPoints="3487"  NumberOfCells="1698">
    <Points>
      <DataArray type="Float64" NumberOfComponents="3" format="ascii">
39.9738 48.8528 0
60.0263 48.8525 0
40.6343 48.9835 0
41.2964 49.1053 0
41.9599 49.2181 0
42.6249 49.3219 0
43.2912 49.4168 0
43.9587 49.5026 0
44.6272 49.5795 0
45.2967 49.6474 0
45.9671 49.7062 0
46.6382 49.7559 0
47.3099 49.7967 0
47.982 49.8284 0
48.6545 49.851 0
49.3273 49.8646 0
50.0002 49.8691 0
50.6731 49.8646 0
51.3458 49.851 0
52.0183 49.8283 0
52.6905 49.7966 0
53.3622 49.7558 0
54.0332 49.706 0
54.7036 49.6472 0
55.3731 49.5793 0
56.0416 49.5024 0
56.7091 49.4165 0
57.3754 49.3217 0
58.0403 49.2178 0
58.7039 49.105 0
59.3659 48.9832 0
39.9978 49.8685 0
39.9966 49.6145 0
39.9922 49.3606 0
39.9846 49.1066 0
19.963 69.8337 0
39.9957 50.1301 0
39.9901 50.3917 0
39.9761 50.7701 0
39.9548 51.1482 0
39.9113 51.6945 0
39.8529 52.2393 0
39.742 53.0245 0
39.6 53.8047 0
39.3399 54.9223 0
39.0161 56.0234 0
38.7427 56.8074 0
38.4369 57.5795 0
38.0994 58.3383 0
37.7305 59.0824 0
37.1429 60.1306 0
36.4933 61.1416 0
35.7841 62.1118 0
-0.0194986 49.8162 0
17.3528 69.6593 0
14.7876 69.146 0
12.3114 68.3026 0
9.96615 67.1434 0
7.79229 65.6882 0
11.5205 31.7828 0
0.183452 46.997 0
0.78254 44.2348 0
1.76592 41.5851 0
0 0 0
0.13006 3.72092 0
0.543272 7.42389 0
1.2352 11.0865 0
2.20145 14.6861 0
3.10487 17.3382 0
49.9999 -0.12507 0
5.1116 0 0
10.2232 0 0
15.3348 0 0
100 0 0
57.3956 -0.121155 0
64.7914 -0.106864 0
72.1842 -0.0769912 0
88.4798 31.7825 0
99.87 3.7209 0
99.4568 7.42379 0
98.7649 11.0864 0
97.7986 14.686 0
96.8952 17.3381 0
100.02 49.816 0
99.8166 46.9968 0
99.2175 44.2347 0
98.2341 41.5849 0
80.037 69.8335 0
99.851 52.4265 0
99.3428 54.9926 0
98.5038 57.4703 0
97.3484 59.8174 0
95.8967 61.9935 0
60.0023 49.8682 0
77.5261 69.6787 0
75.0545 69.2102 0
72.6612 68.4355 0
70.3839 67.3665 0
68.8972 66.4648 0
67.4944 65.4374 0
66.186 64.292 0
64.982 63.0374 0
64.2159 62.1115 0
63.5068 61.1413 0
62.8572 60.1303 0
62.2695 59.0821 0
61.5631 57.5793 0
60.9839 56.0231 0
60.6602 54.9221 0
60.4001 53.8044 0
60.2581 53.0242 0
60.0035 49.6142 0
60.0079 49.3602 0
60.0156 49.1063 0
52.8199 30.1216 0
26.5253 36.9443 0
40.3301 24.2457 0
24.9317 22.5073 0
71.9388 22.5364 0
72.7059 44.0064 0
54.8045 24.0708 0
15.3048 47.4755 0
38.3611 49.482 0
23.6078 65.3056 0
7.69891 7.74693 0
91.9428 7.72545 0
29.168 56.947 0
37.1851 51.9546 0
28.0889 47.2534 0
29.7281 48.2145 0
71.515 46.7378 0
30.9867 49.1127 0
70.5142 48.2164 0
31.6355 45.6973 0
30.8871 47.154 0
70.064 46.7255 0
68.984 45.0476 0
31.2912 50.2083 0
30.9042 51.4323 0
28.1883 49.2118 0
45.3071 41.3268 0
53.8447 40.948 0
56.0291 40.4969 0
73.1271 47.4943 0
70.1139 49.4576 0
68.3343 42.4749 0
32.3094 42.8049 0
26.1365 45.7355 0
27.6762 44.7382 0
30.3028 43.3642 0
70.4148 42.6748 0
72.6768 46.0037 0
44.848 43.1195 0
51.4309 42.026 0
55.4109 42.6125 0
32.4503 49.1478 0
68.5547 49.6928 0
39.4748 42.1111 0
35.4376 43.429 0
32.8941 46.5954 0
33.5771 48.3441 0
67.1039 48.2895 0
67.983 46.5264 0
65.075 43.0925 0
60.4214 41.7488 0
32.3679 51.4677 0
28.2169 51.0719 0
41.7753 37.3322 0
46.8222 37.7371 0
52.0496 39.9104 0
58.6808 39.28 0
26.6062 51.9705 0
24.3008 50.4051 0
74.2266 50.0106 0
71.1648 50.7109 0
69.1418 52.2906 0
67.9166 52.4232 0
59.7661 36.3993 0
66.5062 40.7191 0
34.1045 41.0954 0
36.0205 35.83 0
23.1839 47.2332 0
21.6457 43.3333 0
28.3507 41.8468 0
74.3179 44.7631 0
76.6361 48.6179 0
43.0529 43.7076 0
46.2678 42.9932 0
49.968 43.0412 0
48.4324 42.824 0
51.7634 44.0789 0
54.089 44.1947 0
52.9065 44.4903 0
56.2737 43.7434 0
33.8817 49.4398 0
33.7829 50.9542 0
66.5363 51.7704 0
66.5954 49.7783 0
41.8305 43.9452 0
40.7011 43.683 0
38.4585 43.2908 0
37.1402 43.8966 0
35.345 45.6062 0
34.3254 46.8871 0
66.0239 46.6114 0
65.0198 45.3366 0
63.1919 43.5807 0
61.7064 43.1307 0
58.8802 43.5435 0
57.5404 43.8595 0
33.3959 52.1784 0
29.1675 53.7936 0
40.8301 31.0531 0
50.8856 36.051 0
55.6699 34.3328 0
23.5617 53.5211 0
76.9171 51.9891 0
70.2374 53.3995 0
66.4066 53.0122 0
65.4779 35.2143 0
30.9467 34.6312 0
19.4472 47.3578 0
26.1249 40.0826 0
72.0092 34.151 0
72.0557 41.4346 0
77.4848 45.3689 0
43.1662 45.1499 0
45.8087 44.7859 0
48.7645 44.8769 0
51.4435 45.5055 0
53.7693 45.6213 0
56.2186 45.4418 0
34.9098 50.1505 0
65.0854 50.3671 0
40.8142 45.1252 0
38.3664 45.4687 0
36.0283 47.3552 0
64.1405 47.1001 0
61.6507 45.3755 0
58.8253 45.2418 0
36.0683 52.4247 0
34.9175 53.189 0
33.5024 53.7023 0
31.9026 55.4966 0
26.0953 58.972 0
22.9984 57.3783 0
32.3918 22.7487 0
47.0357 26.7395 0
63.1426 23.0962 0
19.9909 55.0887 0
80.1872 54.3539 0
75.7995 55.859 0
71.9369 56.2081 0
69.0902 55.526 0
65.7738 54.0207 0
64.098 53.8635 0
68.1589 29.0516 0
26.7705 30.1388 0
17.24 51.8203 0
14.6003 42.5126 0
22.3969 34.1192 0
84.8944 46.9369 0
84.7193 52.0944 0
75.1734 37.9922 0
81.2132 44.006 0
42.4559 46.4806 0
41.4152 46.2891 0
44.965 46.3259 0
43.6786 46.2429 0
47.7359 46.2671 0
46.3851 46.1996 0
50.62 46.5804 0
49.2719 46.4843 0
53.0509 46.9756 0
51.7632 46.9918 0
55.5136 46.588 0
54.2336 46.68 0
58.0621 46.542 0
56.7804 46.7041 0
36.3732 48.6779 0
36.0266 49.6801 0
35.9278 51.1948 0
63.3853 52.1285 0
63.829 51.1158 0
63.8882 49.1233 0
63.8373 48.2201 0
40.2857 46.0267 0
39.37 46.2066 0
38.0514 46.8122 0
37.3929 47.397 0
62.8332 46.9452 0
62.0175 46.6201 0
60.5318 46.1704 0
59.4021 46.2258 0
38.0596 52.6244 0
36.1747 53.9489 0
34.0729 56.8126 0
29.5967 59.8862 0
22.8716 61.4393 0
21.7365 15.4454 0
39.963 16.2705 0
48.9009 11.5565 0
56.9445 17.0027 0
76.6474 15.6856 0
15.634 57.1405 0
84.5248 57.5761 0
73.4131 59.5535 0
66.5213 55.6819 0
62.457 53.6328 0
82.9394 7.85212 0
79.7455 22.649 0
16.3091 7.93298 0
18.3453 22.3622 0
10.719 46.8407 0
16.5773 36.0593 0
15.5177 30.4542 0
89.4074 49.7187 0
83.3149 31.2996 0
81.5773 39.3584 0
41.9275 47.3822 0
44.2549 47.6567 0
46.8924 47.8071 0
49.5915 47.9707 0
52.2274 48.0506 0
54.7952 47.9424 0
57.3571 47.6883 0
37.3913 49.7222 0
37.9193 51.3942 0
62.1879 50.8847 0
62.5807 48.9687 0
39.971 47.3706 0
38.3966 48.1352 0
38.5118 48.9052 0
61.7651 48.604 0
61.7142 47.7403 0
59.7687 47.4708 0
38.889 51.1542 0
61.3481 51.0889 0
39.1969 52.9344 0
38.4627 53.4946 0
38.1708 54.6039 0
37.0201 55.368 0
36.5164 57.1417 0
34.8687 58.6653 0
33.3619 60.5235 0
30.7462 62.6352 0
27.9868 64.7882 0
27.168 7.86279 0
38.6557 8.40514 0
59.877 8.63074 0
71.7679 7.94592 0
19.2333 64.7523 0
14.9365 63.0199 0
10.7368 60.2332 0
6.28909 57.1908 0
5.99731 51.2575 0
94.2362 52.355 0
93.3202 57.4094 0
89.3355 60.7529 0
84.583 63.2636 0
79.4756 64.9336 0
74.5774 63.9645 0
70.2698 62.681 0
66.8334 61.2256 0
65.2196 58.5526 0
62.7196 57.2248 0
62.0768 55.6954 0
61.7849 54.5861 0
61.0721 52.851 0
93.4893 14.5606 0
89.7946 20.7449 0
86.1113 25.1046 0
6.25714 14.5533 0
13.0084 24.567 0
9.7904 20.7335 0
5.75919 45.6889 0
5.65343 40.7449 0
12.3007 34.791 0
94.2298 47.2353 0
88.1203 37.1428 0
93.3594 42.5051 0
41.0914 48.148 0
40.4304 48.0217 0
42.1324 48.3395 0
43.4634 48.5381 0
42.7966 48.4478 0
44.75 48.6211 0
46.0897 48.7478 0
45.419 48.6935 0
47.4407 48.8153 0
48.7853 48.8696 0
48.1126 48.8515 0
50.1335 48.9657 0
51.479 48.9475 0
50.8064 48.9657 0
52.7668 48.9313 0
54.1093 48.8408 0
53.4387 48.8951 0
55.3895 48.7488 0
56.7254 48.586 0
56.0585 48.6764 0
58.0072 48.4239 0
59.3325 48.1894 0
58.6714 48.3156 0
39.3743 51.6062 0
39.3234 52.1517 0
60.9457 52.0683 0
60.8948 51.5228 0
38.0144 50.4844 0
39.1349 49.6675 0
61.7919 50.0759 0
61.816 49.5073 0
60.9762 49.7113 0
39.5145 48.2015 0
39.1705 48.3205 0
60.9493 48.2789 0
60.4624 48.1338 0
39.4695 50.6962 0
60.4987 50.7139 0
39.491 50.0563 0
39.4871 50.318 0
60.481 50.3357 0
60.4772 50.0741 0
39.6418 49.4795 0
39.6297 48.9717 0
39.639 49.2255 0
60.5013 49.5053 0
60.5041 49.2514 0
60.5133 48.9976 0
61.0003 49.1427 0
39.2857 49.0907 0
60.952 50.28 0
38.9841 50.2443 0
60.8985 47.4152 0
39.0551 47.5504 0
62.6317 49.8719 0
37.0446 50.7246 0
61.7442 51.8977 0
38.7938 52.0641 0
58.6388 47.5262 0
56.0753 47.8504 0
53.5151 48.0343 0
50.9397 48.0668 0
48.2433 47.8746 0
45.5414 47.7396 0
42.9683 47.5736 0
40.8868 47.1906 0
89.1531 44.8695 0
10.9247 40.9942 0
13.2813 16.2054 0
85.8812 16.4152 0
63.1698 55.3679 0
68.9177 58.5411 0
78.9438 59.9452 0
89.2908 55.0038 0
11.7705 52.95 0
19.2342 59.7731 0
66.7168 15.8134 0
30.7542 15.5299 0
26.3571 62.2103 0
32.1619 58.055 0
35.0239 54.7131 0
37.3254 53.1846 0
62.5299 48.0654 0
37.7379 48.7199 0
75.9488 28.7412 0
20.5044 28.6477 0
47.914 19.3583 0
60.1652 44.9255 0
63.1365 45.8252 0
37.0478 46.0742 0
39.6847 44.8628 0
65.1448 48.3748 0
65.0264 52.3594 0
34.811 51.665 0
35.0084 48.636 0
57.4854 45.5579 0
54.9518 45.3257 0
52.5867 45.9169 0
50.3003 45.0941 0
47.2287 44.6597 0
44.3887 44.9121 0
41.9437 45.3875 0
74.3469 42.7662 0
80.2636 48.9609 0
17.9965 43.413 0
21.3129 50.8721 0
34.4358 29.7718 0
59.9896 30.3253 0
67.7869 53.6649 0
73.3997 53.1063 0
54.4632 38.8325 0
46.5069 32.9876 0
26.2368 55.4771 0
31.9808 52.6918 0
69.7652 40.1023 0
30.9766 40.4721 0
57.5954 42.1612 0
63.2475 41.3362 0
66.9032 44.8482 0
33.6422 45.1384 0
37.2323 41.7191 0
41.7173 42.503 0
68.0463 51.1816 0
32.7548 50.2435 0
53.2262 43.0636 0
49.6358 40.9883 0
74.2889 46.7602 0
25.724 43.2209 0
71.9652 48.2285 0
26.5491 48.2506 0
69.0632 48.2043 0
32.1457 48.0522 0
71.0649 45.247 0
29.6285 46.256 0
29.8275 50.1731 0
88.1597 34.4779 0
96.886 39.1011 0
91.3032 35.8524 0
92.2287 38.7192 0
96.0832 37.9371 0
88.4955 40.8851 0
3.11408 39.1012 0
11.8636 33.2458 0
9.99972 35.1273 0
3.91689 37.9373 0
8.31722 37.6359 0
11.6901 37.1376 0
11.3992 22.6507 0
10.9821 26.5143 0
9.37299 24.5994 0
11.8571 29.0083 0
4.15662 19.9342 0
5.3534 22.4659 0
8.23992 22.8281 0
11.5355 18.4688 0
13.1442 20.3865 0
8.02327 17.6445 0
6.97304 20.3342 0
5.20621 17.2429 0
6.6912 24.9251 0
7.78692 26.7207 0
4.22906 14.6198 0
9.76867 15.38 0
87.9532 22.9251 0
90.4196 24.6047 0
88.5778 26.7822 0
91.5527 22.8336 0
95.8434 19.9341 0
94.6466 22.4658 0
87.7254 29.3259 0
85.997 20.7603 0
87.8382 18.5794 0
91.6425 17.6539 0
94.6671 17.2464 0
92.8196 20.3398 0
95.6442 14.6234 0
93.3088 24.9249 0
92.2131 26.7205 0
89.6859 15.4887 0
65.8228 8.28322 0
62.3312 4.26084 0
68.279 3.91726 0
54.9412 4.2503 0
79.5536 0 0
84.6652 0 0
75.6606 3.96467 0
69.2417 11.8781 0
63.2967 12.2219 0
32.9116 8.12869 0
31.189 3.87516 0
36.9348 4.14854 0
23.8074 3.92469 0
20.4464 0 0
27.816 -0.0767113 0
44.3247 4.13682 0
34.7055 11.9673 0
28.9615 11.6953 0
81.6629 35.1656 0
85.4341 34.6622 0
85.0566 38.2513 0
86.3055 31.7093 0
85.0264 42.3347 0
77.3009 34.0993 0
80.0428 31.2726 0
16.0517 32.9768 0
14.0999 35.3904 0
13.9069 32.9291 0
14.159 38.6218 0
13.5184 31.1202 0
17.607 30.1037 0
18.7393 33.0754 0
16.5141 27.4174 0
14.0967 28.3765 0
15.6768 23.4639 0
15.8132 19.2835 0
19.4256 25.504 0
81.6262 27.3524 0
82.9283 23.8763 0
84.8631 28.7651 0
82.813 19.5312 0
77.8461 25.6939 0
79.7929 11.7676 0
74.2061 11.8189 0
77.3507 7.9039 0
71.6805 15.7486 0
81.2477 3.92421 0
84.4107 12.1331 0
81.2637 16.0509 0
52.9232 14.2787 0
54.3883 10.0911 0
58.4098 12.8165 0
49.4501 5.71518 0
61.8303 16.4061 0
52.429 18.1792 0
48.4075 15.4575 0
44.4316 13.9124 0
39.3102 12.3378 0
43.779 9.97855 0
35.359 15.8983 0
43.9388 17.8132 0
19.0229 11.6886 0
21.7408 7.90358 0
24.4537 11.6574 0
18.3766 3.96449 0
26.2468 15.4874 0
17.5092 15.8258 0
14.7948 12.0686 0
74.655 34.1252 0
78.7674 37.541 0
78.102 41.1361 0
74.7601 40.379 0
21.4516 31.3831 0
19.3636 36.8118 0
17.0644 39.6335 0
19.7376 40.4367 0
73.9785 31.4455 0
73.5909 36.0719 0
72.4693 39.047 0
70.887 37.1263 0
68.7434 34.6824 0
66.8182 32.1325 0
70.0836 31.6017 0
62.7334 32.7701 0
64.0739 29.6879 0
72.0535 28.8965 0
67.621 37.6588 0
32.6916 32.2017 0
35.2283 32.8006 0
33.4836 35.2304 0
33.4991 38.1515 0
36.6265 38.7744 0
30.9619 37.5516 0
59.8777 33.3622 0
62.622 35.8066 0
64.3627 38.2749 0
61.5065 38.868 0
57.8297 32.3287 0
57.7179 35.3661 0
57.1147 37.6158 0
55.0666 36.5826 0
46.6646 35.3623 0
48.6962 34.5192 0
48.854 36.894 0
50.2607 38.5196 0
52.6743 37.4417 0
48.2289 39.3627 0
38.8979 36.581 0
38.4256 33.4418 0
41.3027 34.1925 0
37.6331 30.4121 0
43.6685 32.0202 0
44.1413 35.16 0
39.5042 39.5259 0
44.2987 37.5347 0
46.0647 39.5319 0
43.5123 41.915 0
47.4714 41.1576 0
43.5411 39.3294 0
41.7464 39.9176 0
90.861 3.86256 0
87.4417 7.79022 0
86.3621 3.92977 0
88.9137 12.0726 0
89.7768 0 0
94.8884 0 0
95.974 3.86432 0
96.4746 10.9947 0
92.7168 11.1425 0
95.6999 7.5757 0
91.0421 28.4667 0
90.4284 29.3198 0
4.12097 7.58644 0
6.97722 11.1496 0
3.39871 10.991 0
10.4885 11.9783 0
8.95797 28.467 0
9.57162 29.3203 0
3.84683 3.87493 0
13.2623 3.96972 0
12.0034 7.84119 0
8.95982 3.87322 0
35.2085 -0.106701 0
42.6042 -0.121032 0
58.9733 23.5826 0
55.8742 20.5367 0
60.0434 20.0496 0
51.3593 21.7141 0
64.9293 19.4541 0
61.5658 26.7104 0
57.3968 27.1983 0
67.5401 22.8156 0
70.0482 25.7932 0
65.6504 26.0745 0
73.9436 25.6395 0
69.3274 19.1762 0
78.1968 19.1678 0
75.8414 22.5926 0
74.2923 19.1093 0
23.3346 18.9751 0
21.6391 22.4345 0
20.0404 18.9042 0
22.718 25.5782 0
27.8433 19.0203 0
29.5815 26.4448 0
25.8519 26.3223 0
28.6624 22.6278 0
23.6377 29.3931 0
31.5732 19.139 0
33.4142 26.2599 0
30.6034 29.9552 0
40.5803 27.6495 0
43.683 25.4921 0
43.9331 28.8964 0
44.1222 21.8017 0
47.4749 23.0491 0
46.7714 29.8637 0
37.3834 27.0092 0
36.1778 19.51 0
40.1469 20.2582 0
36.3613 23.4963 0
26.6486 33.5414 0
24.4611 35.5315 0
24.5841 32.1295 0
22.5873 39.0943 0
28.8588 32.3844 0
28.7363 35.7879 0
28.7509 38.7078 0
51.8528 33.0862 0
54.2448 32.2272 0
53.2778 35.1918 0
56.4046 30.2231 0
49.6635 31.5544 0
50.9201 25.4045 0
53.8121 27.0962 0
49.9277 28.4304 0
6.5586 37.2342 0
6.98512 39.1897 0
5.22628 38.7894 0
9.62046 39.3158 0
8.28858 40.8695 0
4.38361 39.923 0
4.80025 36.8333 0
5.75992 35.7951 0
7.55343 36.2324 0
10.8445 36.1331 0
10.0033 37.3867 0
9.15819 36.3809 0
11.307 39.0653 0
8.39513 34.9768 0
11.1499 34.9595 0
11.9951 35.9639 0
11.6884 30.3981 0
10.2035 30.1593 0
11.0296 29.5824 0
12.4322 26.7878 0
10.4071 28.7374 0
10.8525 30.9819 0
89.7966 30.1588 0
88.1027 30.5561 0
88.7618 29.7406 0
89.3843 28.8958 0
86.9189 27.2155 0
89.1478 30.9814 0
85.8695 33.1855 0
87.2309 33.0955 0
86.7966 34.5714 0
87.3926 31.7467 0
88.3204 33.1293 0
88.1403 35.81 0
86.7772 35.9032 0
84.3732 32.9817 0
84.8103 31.5046 0
86.7763 39.5684 0
86.761 41.6104 0
85.0418 40.2927 0
88.8245 42.877 0
87.09 43.6021 0
83.3018 40.847 0
83.3168 38.8052 0
86.5885 37.6979 0
88.3082 39.0135 0
79.4817 34.6327 0
78.6717 32.6857 0
80.852 33.2193 0
76.6242 31.4203 0
77.9957 30.0071 0
81.6789 31.2861 0
82.4884 33.2323 0
81.6201 37.2619 0
80.2152 36.3531 0
14.1291 37.0057 0
12.9245 37.8802 0
12.8949 36.2644 0
12.5415 39.808 0
13.2004 35.0912 0
15.3387 35.7252 0
15.3683 37.341 0
12.8857 33.0887 0
12.6933 32.1849 0
13.7133 32.0246 0
11.6919 32.5141 0
12.5197 31.4525 0
14.518 30.7873 0
14.7133 31.6921 0
13.1043 33.861 0
12.082 34.0182 0
16.83 31.5405 0
18.1736 31.5894 0
17.3954 33.0262 0
19.0557 29.3759 0
19.6226 30.8617 0
17.6589 34.5679 0
16.3147 34.518 0
15.7854 31.7154 0
16.5623 30.279 0
13.8077 29.7485 0
12.6887 30.0626 0
12.977 28.6914 0
13.5523 26.4718 0
14.8078 29.4148 0
16.0161 28.9359 0
17.061 28.7603 0
18.5096 28.0322 0
17.4294 24.89 0
86.2941 29.0445 0
87.0138 30.516 0
85.5839 30.2375 0
84.0883 30.0319 0
85.4872 26.9346 0
82.4701 29.3261 0
80.8337 29.3121 0
80.686 25.0008 0
78.7871 28.0465 0
80.1721 38.45 0
79.8396 40.2473 0
78.4347 39.3384 0
76.6374 39.5644 0
76.2244 41.9511 0
76.9703 37.7666 0
15.6118 39.128 0
15.8323 41.0732 0
14.3794 40.5668 0
17.5303 41.523 0
16.2984 42.9631 0
12.7624 41.754 0
16.8207 37.8462 0
19.5505 38.6242 0
18.401 40.0353 0
18.2142 38.223 0
18.867 41.925 0
17.9705 36.4357 0
20.8807 35.4658 0
20.9754 37.9529 0
20.6916 41.8849 0
21.1626 39.7657 0
24.5566 38.0196 0
22.4924 36.6067 0
19.8212 43.3734 0
22.1166 41.2138 0
24.1556 41.1572 0
23.685 43.2772 0
79.6575 42.5713 0
79.3489 44.6876 0
77.7934 43.2523 0
80.7385 46.4832 0
78.8742 47.165 0
75.9157 44.0678 0
81.3954 41.6819 0
90.3626 39.8029 0
92.7943 40.6119 0
90.9279 41.6947 0
94.5575 38.9092 0
95.1231 40.8033 0
91.2566 43.6878 0
90.175 37.9305 0
93.2516 36.3416 0
93.7146 37.7762 0
91.7663 37.2856 0
95.1999 36.8333 0
89.7124 36.4986 0
92.2563 35.34 0
94.2403 35.7951 0
89.558 33.8047 0
91.1293 34.4902 0
89.732 35.1645 0
93.2091 34.8279 0
92.1116 33.937 0
93.7948 44.87 0
96.2886 43.3688 0
96.724 45.735 0
90.9529 33.1275 0
89.7408 32.4063 0
97.1249 48.5248 0
91.6918 46.0519 0
10.454 33.1867 0
10.931 34.1851 0
9.5222 34.1282 0
6.7909 34.828 0
7.88847 33.9371 0
5.70592 43.2169 0
3.27067 44.9616 0
3.21777 42.4888 0
2.86954 47.7514 0
9.04678 33.1275 0
10.2597 32.4061 0
8.34137 43.3401 0
66.0265 59.8891 0
65.17 61.1834 0
64.3631 59.8468 0
65.9076 62.1314 0
60.1472 52.239 0
60.0888 51.6941 0
63.7445 58.8172 0
67.0686 58.5468 0
67.8754 59.8832 0
68.5516 61.9533 0
68.882 64.059 0
67.1639 63.3314 0
70.3269 65.0236 0
60.0453 51.1479 0
60.0241 50.7698 0
69.5938 60.611 0
77.0265 64.4489 0
77.2649 67.0716 0
74.816 66.5871 0
79.7563 67.3833 0
60.01 50.3914 0
60.0044 50.1298 0
72.4805 65.6652 0
76.7604 61.9546 0
79.2098 62.4392 0
82.0292 64.0985 0
84.8977 66.2044 0
82.3442 67.0394 0
87.3087 65.203 0
94.1732 63.9616 0
92.2077 65.688 0
81.7636 61.6042 0
91.3278 59.0812 0
93.7468 60.6852 0
91.7546 62.3568 0
95.3345 58.6131 0
90.0338 67.1432 0
87.6886 68.3024 0
89.6847 63.9477 0
89.3132 57.8781 0
91.3056 56.2063 0
93.7782 54.8821 0
96.7897 53.6732 0
96.3316 56.2008 0
97.128 51.0853 0
85.2123 69.1459 0
82.6472 69.6591 0
91.7635 53.6795 0
6.14311 54.224 0
3.47306 56.0916 0
3.32701 53.1243 0
4.47021 58.5038 0
5.82678 63.9618 0
4.10334 61.9936 0
2.9887 50.5365 0
8.88375 52.1038 0
9.02947 55.0697 0
8.51295 58.712 0
8.28154 62.0971 0
6.05786 60.576 0
10.3514 63.6879 0
2.65157 59.8176 0
1.4962 57.4704 0
11.2535 56.5911 0
17.085 63.886 0
17.0102 66.9489 0
14.8621 66.0827 0
19.5982 67.2928 0
0.657244 54.9927 0
0.149054 52.4266 0
12.4511 65.0812 0
17.0852 61.3963 0
19.2338 62.2625 0
29.3665 63.7117 0
31.626 64.0363 0
30.2463 65.1128 0
32.8822 62.8363 0
35.018 63.0377 0
33.814 64.2923 0
28.8015 66.0774 0
27.172 63.4992 0
28.5517 62.4226 0
34.1153 59.5944 0
35.681 59.9033 0
34.9276 60.8324 0
36.2997 58.8737 0
32.5056 65.4377 0
31.1028 66.4651 0
34.19 61.7805 0
32.762 59.2891 0
33.5154 58.3601 0
29.616 67.3668 0
37.1235 58.112 0
37.4767 57.3606 0
37.7663 56.5825 0
35.7702 55.9273 0
27.3387 68.4357 0
83.5484 34.9142 0
85.2457 36.4564 0
83.3592 36.7094 0
91.822 51.0364 0
91.8188 48.4773 0
94.2331 49.7951 0
89.2804 47.2938 0
89.3491 52.361 0
15.0765 34.1844 0
14.0034 34.1597 0
14.9793 32.9531 0
8.3578 49.0483 0
5.87804 48.4731 0
8.23884 46.2649 0
10.8215 43.917 0
11.2446 49.8951 0
15.3054 27.8968 0
14.7616 25.9913 0
83.2447 28.0588 0
83.868 26.2273 0
67.7195 57.1116 0
65.8704 57.1172 0
64.1947 56.9603 0
64.8455 55.5248 0
73.9953 61.7588 0
72.4236 63.3227 0
71.8414 61.117 0
71.1654 59.0473 0
76.1784 59.7493 0
86.9304 59.1642 0
86.9592 62.0082 0
84.5539 60.4196 0
81.7342 58.7606 0
86.9077 56.29 0
15.2852 60.0799 0
12.8367 61.6265 0
13.1852 58.6866 0
13.7023 55.0453 0
17.4342 58.4568 0
31.4794 60.2047 0
32.054 61.5793 0
30.1715 61.2606 0
27.9769 61.0482 0
30.8793 58.9706 0
35.2947 56.9771 0
35.6926 57.9035 0
34.4709 57.7389 0
33.1174 57.4338 0
34.5484 55.7629 0
78.0338 35.8203 0
76.2371 36.0455 0
84.807 49.5153 0
87.1511 48.3276 0
87.0634 50.9067 0
87.0238 45.9036 0
87.0053 53.5489 0
82.4916 50.5277 0
82.579 47.9491 0
19.0517 34.9435 0
20.568 33.5972 0
69.0039 57.0335 0
67.8058 55.6039 0
67.1541 54.6733 0
68.4386 54.5954 0
73.8682 56.0335 0
74.6062 57.7061 0
72.675 57.8807 0
77.3718 57.902 0
70.4272 57.3745 0
72.6682 54.6571 0
74.5996 54.4827 0
82.4532 53.2242 0
84.6221 54.8349 0
82.3561 55.9649 0
79.5655 57.1492 0
80.2255 51.6571 0
18.6155 53.4544 0
17.8123 56.1145 0
16.4368 54.48 0
19.6125 57.4307 0
14.5051 52.3852 0
19.2764 51.3463 0
20.6518 52.9802 0
24.5469 58.175 0
24.4834 60.2056 0
22.935 59.4086 0
26.2262 60.591 0
24.6144 61.8247 0
21.053 60.6062 0
21.1162 58.5757 0
24.6176 56.4277 0
26.166 57.2244 0
32.0323 56.7757 0
32.9878 56.1545 0
33.4633 55.1048 0
31.9417 54.0941 0
84.9606 44.6355 0
83.0539 45.4716 0
83.1198 43.1707 0
71.0871 54.8038 0
70.5136 55.867 0
69.6638 54.4627 0
69.0121 53.5322 0
71.8185 53.2529 0
78.5522 53.1715 0
77.9933 55.1064 0
76.3583 53.9239 0
75.1583 52.5477 0
78.5903 50.4749 0
23.2801 55.4495 0
21.4947 56.2334 0
21.7763 54.3049 0
22.4374 52.1965 0
24.8993 54.499 0
78.4498 48.7895 0
77.0605 46.9933 0
75.8868 46.0645 0
75.4625 47.6891 0
22.4148 45.283 0
21.3156 47.2957 0
20.5464 45.3456 0
22.2484 49.0527 0
20.3801 49.1148 0
18.7218 45.3852 0
24.4541 45.2272 0
72.2822 51.9086 0
70.7011 52.0551 0
69.6055 50.9462 0
71.565 49.4696 0
75.4313 49.3142 0
76.7766 50.3034 0
75.5718 50.9999 0
73.8131 51.5584 0
74.2577 48.3853 0
25.4535 51.1878 0
25.084 52.7458 0
23.9313 51.963 0
26.4215 53.7237 0
22.8069 50.6387 0
25.425 49.3279 0
26.5777 50.1105 0
27.7022 54.6353 0
27.8869 52.8819 0
29.4976 51.9833 0
30.5742 53.2427 0
23.7424 48.819 0
24.8665 47.7419 0
72.6956 50.3607 0
73.0959 49.1196 0
27.6316 57.9595 0
29.3824 58.4165 0
27.8461 59.429 0
30.665 57.5009 0
27.7024 56.2119 0
30.5351 54.6449 0
30.5353 56.2218 0
29.1678 55.3702 0
23.2397 63.3723 0
21.4206 65.0289 0
21.0524 63.0957 0
21.7852 67.5695 0
24.9824 63.7579 0
26.466 66.9992 0
24.2766 67.2579 0
25.7973 65.0468 0
24.9454 69.2105 0
22.4738 69.679 0
14.9524 44.9937 0
13.0118 47.1584 0
12.6593 44.6762 0
13.5373 50.2122 0
16.6504 45.4441 0
18.3435 49.5889 0
16.2724 49.6477 0
17.376 47.4169 0
58.4044 8.33407 0
60.0095 10.2511 0
79.5463 20.3299 0
77.0527 20.5273 0
69.2565 14.0419 0
67.6042 15.912 0
37.182 13.4355 0
34.8356 12.5794 0
72.2319 44.6335 0
70.4 42.9325 0
36.6987 22.1702 0
37.2969 24.5953 0
46.0446 8.32096 0
45.1562 10.6579 0
1.85376 10.4315 0
4.05818 9.25012 0
16.1428 4.00813 0
14.3628 2.26073 0
37.7999 13.5069 0
37.767 11.0078 0
72.2667 1.22204 0
69.8021 1.62977 0
65.3803 25.1655 0
65.8372 22.7105 0
17.0813 0.163573 0
19.0994 1.6309 0
30.7721 0.462611 0
29.0283 2.25578 0
20.1511 29.0583 0
18.0259 27.746 0
87.2302 22.9519 0
89.7071 23.3144 0
80.4486 11.9233 0
79.0354 9.86348 0
53.4981 14.4663 0
52.9716 16.9101 0
79.8816 20.7379 0
77.3802 20.6892 0
95.4241 2.47204 0
96.829 4.53852 0
40.4042 38.5274 0
38.1964 39.6988 0
34.3618 27.1838 0
35.0234 29.5916 0
88.3862 30.5606 0
87.7628 28.151 0
42.4401 32.0525 0
44.3208 30.4071 0
26.0648 12.9452 0
26.9008 10.5907 0
40.5509 37.6026 0
42.7815 36.4759 0
65.9236 38.7768 0
67.4508 40.7552 0
21.6537 36.651 0
24.1455 36.8512 0
87.3002 18.0509 0
88.9239 16.1572 0
31.299 10.0479 0
28.8654 10.6224 0
60.2791 8.39182 0
61.5826 10.5256 0
62.4219 9.46434 0
60.9674 7.43033 0
18.762 7.00915 0
18.1816 9.43317 0
63.0472 43.9337 0
62.3519 46.3338 0
84.2982 25.918 0
83.6133 28.3136 0
47.3522 44.3763 0
49.216 42.7107 0
30.7352 4.87313 0
33.1074 5.6564 0
37.1978 2.39619 0
36.9079 -0.0863122 0
39.5274 0.641851 0
37.8559 2.50142 0
66.8641 34.6303 0
64.6053 35.6965 0
25.2272 21.4279 0
23.6543 23.369 0
89.2377 30.2908 0
86.975 29.2214 0
74.2918 10.1285 0
76.6693 9.36357 0
80.3539 12.8543 0
81.757 14.9206 0
81.1017 17.0031 0
80.1913 19.3229 0
78.417 10.7998 0
79.7613 12.9049 0
67.6811 27.5866 0
65.1847 27.4773 0
62.4396 24.9987 0
60.0095 24.4175 0
61.73 24.8235 0
62.5006 27.2008 0
69.5256 32.9805 0
67.0388 32.7321 0
82.5807 12.5448 0
85.0219 13.102 0
51.4593 18.2695 0
53.5404 19.6525 0
66.9971 16.089 0
65.1716 14.3798 0
20.0137 22.485 0
20.4693 20.0336 0
53.0656 24.1642 0
52.9574 21.6668 0
62.0854 34.0561 0
64.0508 35.6002 0
67.9572 28.3496 0
69.9234 26.811 0
27.3451 19.4631 0
25.4177 17.8775 0
43.3852 4.07999 0
43.9189 1.63788 0
90.2173 10.3123 0
88.4207 8.57506 0
67.9718 36.9027 0
68.6552 34.5013 0
9.53338 8.22008 0
11.9883 7.73511 0
49.9622 6.67934 0
52.3372 7.46022 0
81.1546 29.292 0
83.0962 27.7221 0
43.1363 20.1214 0
45.5304 20.8331 0
73.0315 25.6464 0
75.2552 24.5091 0
59.3154 18.673 0
57.069 19.7646 0
94.8209 14.9269 0
92.4016 14.2881 0
8.74938 19.5226 0
11.2086 19.0562 0
17.4459 22.8366 0
15.7885 20.9718 0
16.9349 36.5942 0
18.1394 34.4075 0
59.7853 42.0928 0
57.5916 43.2894 0
84.6172 20.4834 0
84.668 22.9743 0
9.90354 20.1419 0
7.80198 21.4998 0
16.8242 30.1467 0
15.1977 32.0396 0
46.6536 3.55356 0
48.1061 5.58829 0
57.788 40.5058 0
55.7485 41.9494 0
67.5271 37.1955 0
69.5995 38.5935 0
68.365 7.64558 0
70.2499 6.00835 0
24.7945 8.62095 0
27.2196 9.21788 0
16.1205 15.579 0
15.2159 17.9036 0
96.9726 4.65741 0
94.5022 5.04472 0
25.2147 33.9873 0
26.0312 31.6276 0
16.8104 15.7802 0
17.9332 18.0051 0
86.8927 15.746 0
88.5969 13.9236 0
26.9674 36.559 0
28.245 38.7033 0
45.0545 37.2244 0
42.7578 38.2092 0
25.9695 33.8382 0
28.4473 33.5086 0
70.5616 16.0835 0
72.5328 17.6231 0
49.8255 47.8305 0
50.9705 45.6084 0
82.7722 18.4448 0
81.0924 16.5948 0
12.4171 5.62162 0
9.99263 5.01202 0
18.3011 2.67536 0
20.5317 1.5419 0
98.8913 4.27855 0
97.6941 6.46846 0
80.3068 37.5776 0
80.9024 35.1564 0
48.537 3.74972 0
48.4446 1.25189 0
46.0848 5.41486 0
43.9285 6.68047 0
61.1149 38.2109 0
59.0263 39.5818 0
81.2078 11.1735 0
81.7902 8.75291 0
79.3421 30.5949 0
77.0142 31.5004 0
52.3972 8.27185 0
50.9319 6.24634 0
25.8798 30.1185 0
23.7453 28.8225 0
94.5588 17.4992 0
96.837 16.4726 0
29.5554 32.2612 0
31.8643 33.214 0
65.8268 4.52474 0
65.8093 7.02426 0
53.2558 2.05253 0
51.451 3.78303 0
14.5776 9.10611 0
15.1077 6.67087 0
7.22243 18.9011 0
5.02943 17.7048 0
61.2204 40.496 0
59.9004 42.6175 0
74.2163 7.38392 0
73.8016 4.92009 0
23.5597 30.4383 0
23.8006 27.9549 0
78.808 6.96436 0
76.65 5.69477 0
79.0486 11.373 0
81.1634 12.711 0
7.64121 2.54044 0
5.14164 2.61134 0
76.4631 16.0725 0
74.4806 14.5462 0
47.9011 9.4881 0
49.6883 11.2356 0
80.0431 2.05458 0
82.5004 1.59535 0
29.1565 30.0878 0
27.2015 28.5349 0
70.9896 16.4888 0
71.541 14.0558 0
4.53143 13.6011 0
6.48846 12.0446 0
40.5682 0.341257 0
39.5268 2.61381 0
60.4175 12.5156 0
59.8474 14.9487 0
41.2103 3.68429 0
39.1717 5.13228 0
33.637 29.5982 0
36.1284 29.784 0
33.178 21.1005 0
32.9599 18.6128 0
79.61 15.6442 0
80.1664 18.0751 0
72.677 34.8595 0
70.5424 33.5586 0
56.7312 8.41245 0
54.3228 7.74314 0
44.535 9.04126 0
43.2033 11.1572 0
82.5765 16.6046 0
83.6858 14.373 0
11.5885 0.31336 0
10.6972 2.64465 0
78.028 16.2306 0
80.0595 17.69 0
59.4248 3.14407 0
60.7513 5.26333 0
72.2789 1.34983 0
72.195 3.84736 0
66.8073 2.80053 0
68.0849 0.649014 0
13.3355 3.77986 0
15.1535 2.06594 0
71.9883 26.6762 0
74.4456 27.1353 0
16.8367 17.5735 0
15.4254 19.6333 0
72.2243 38.4693 0
72.1516 35.9739 0
43.4743 20.9079 0
41.2098 21.9643 0
57.2661 19.3779 0
57.5324 21.8633 0
64.697 28.9237 0
67.1807 28.6538 0
24.6371 32.0259 0
27.0432 31.3483 0
50.1168 28.9154 0
49.1074 31.2016 0
59.8158 37.3162 0
58.5508 35.1606 0
22.4273 29.1933 0
24.843 28.5507 0
39.6901 36.0321 0
37.239 36.5186 0
5.91303 10.0842 0
3.88523 11.5475 0
54.8068 20.9113 0
56.8408 22.3631 0
68.5282 19.7596 0
68.836 17.2821 0
42.0112 42.818 0
42.7771 45.1971 0
19.0691 24.6614 0
16.9192 25.9366 0
69.2624 4.25387 0
66.9141 3.39348 0
18.7267 12.8888 0
19.4296 10.4966 0
97.8422 0.549359 0
97.0234 2.90543 0
21.3138 0.615618 0
21.78 3.05584 0
13.4462 5.99525 0
14.5825 8.2134 0
94.8132 5.81656 0
95.345 3.37983 0
58.6772 11.728 0
59.4794 14.0959 0
26.7247 40.0763 0
25.2302 42.079 0
62.4389 18.8613 0
64.5463 17.522 0
9.53124 7.76595 0
11.9438 7.10259 0
44.2765 18.2046 0
41.8883 18.9392 0
89.0172 10.8478 0
91.4789 10.4033 0
65.5003 41.7368 0
63.0758 41.1285 0
51.2715 34.5174 0
53.6837 33.868 0
12.7539 8.60447 0
14.7423 10.1145 0
75.0681 18.5236 0
72.574 18.3366 0
69.1839 26.5345 0
69.638 28.9902 0
19.5711 11.8604 0
21.8284 12.9312 0
36.8865 40.1584 0
34.4788 39.4896 0
29.2977 28.3922 0
30.9149 30.2937 0
12.3784 19.644 0
13.58 17.4558 0
42.0335 43.2627 0
39.6401 43.9831 0
34.2193 5.24512 0
33.7229 7.6956 0
94.9512 17.0922 0
93.8641 14.8434 0
53.7796 26.3872 0
54.3596 28.8183 0
68.3047 36.4167 0
67.5282 38.7899 0
71.2579 37.135 0
69.3149 38.704 0
30.4548 15.6411 0
32.611 16.8989 0
62.7548 8.16115 0
65.2393 8.4346 0
52.396 17.4329 0
51.1263 19.5857 0
68.8466 3.72157 0
68.9142 6.22059 0
24.004 7.79827 0
26.0392 9.23807 0
31.7618 14.7512 0
33.4778 16.5637 0
72.4542 6.08207 0
74.7276 5.06149 0
47.2212 15.3486 0
45.6782 17.3152 0
36.6587 41.9405 0
38.6903 40.4843 0
22.8075 10.4969 0
24.449 8.60935 0
22.9557 37.862 0
25.336 37.0957 0
79.5664 20.5715 0
81.8185 21.6606 0
80.4508 16.1804 0
78.1759 15.1369 0
68.1933 34.3189 0
68.4383 36.8043 0
32.7639 27.0592 0
34.9945 28.1821 0
49.0971 3.70145 0
47.4575 5.58894 0
34.1759 40.733 0
32.8158 42.8296 0
47.6785 12.6838 0
48.1994 15.1289 0
50.2588 18.901 0
51.6323 16.8129 0
33.8134 30.7363 0
34.499 28.334 0
2.36493 13.836 0
4.84998 14.1164 0
40.0805 40.3372 0
40.826 42.7224 0
10.1284 16.1975 0
9.51042 18.6143 0
32.9195 16.1896 0
31.8751 18.4605 0
43.2602 1.05213 0
45.6772 0.406301 0
37.1158 36.9396 0
39.358 35.8358 0
81.2579 10.1337 0
81.7518 7.69379 0
30.4494 3.72295 0
28.296 4.9965 0
49.4067 1.4594 0
47.6101 3.19844 0
60.7811 31.3517 0
62.5567 33.1105 0
26.1619 37.3569 0
24.485 35.5081 0
33.9294 3.29463 0
36.4178 3.53305 0
46.8646 29.1689 0
45.841 31.4489 0
19.4666 36.2795 0
21.1927 38.0818 0
56.1251 28.365 0
58.6228 28.3996 0
92.8187 9.48318 0
95.2353 10.1304 0
22.0629 29.1228 0
24.5347 29.4909 0
48.2775 17.8048 0
50.7288 18.2855 0
28.7907 21.7633 0
27.738 19.5015 0
88.6612 18.0758 0
91.0159 18.9245 0
85.3203 15.5658 0
82.8214 15.7084 0
59.5465 45.3061 0
60.8284 47.4522 0
89.5251 2.52954 0
89.7325 5.01465 0
95.4516 9.81316 0
93.3584 8.4449 0
64.4668 41.5544 0
62.9794 43.5618 0
56.0234 26.1554 0
58.3456 25.236 0
71.0166 1.96076 0
71.0276 4.4603 0
51.4195 11.9079 0
50.5041 9.58152 0
58.3398 27.9312 0
57.665 25.5247 0
9.33387 7.86978 0
7.78764 5.91157 0
51.691 13.5167 0
49.2101 13.2213 0
49.7135 24.4519 0
50.1428 26.9143 0
72.6192 28.4811 0
70.2163 27.7924 0
81.3061 36.4432 0
78.9923 37.3859 0
80.7746 18.345 0
81.4297 20.7511 0
63.0488 6.39835 0
60.7614 5.38904 0
49.6092 11.8845 0
47.1164 11.7138 0
44.4703 28.5896 0
42.0148 29.049 0
88.6314 7.83301 0
88.1017 10.268 0
72.312 6.43978 0
71.0228 8.5751 0
87.6908 13.9526 0
88.6372 16.2612 0
36.5566 40.9753 0
38.2788 42.7854 0
62.5524 3.69543 0
63.7254 1.48808 0
39.9424 15.1881 0
40.089 12.6927 0
19.3802 6.46936 0
21.5225 5.17451 0
36.36 45.9482 0
38.7243 46.7602 0
34.5632 31.4256 0
32.33 32.5479 0
58.9203 19.6375 0
60.7129 21.3796 0
78.2632 16.2586 0
75.8378 15.6405 0
15.8436 29.0175 0
17.2068 26.9287 0
80.5526 1.67323 0
78.15 2.3548 0
37.6388 41.7782 0
35.1564 42.071 0
84.0817 21.4616 0
84.5752 23.9046 0
86.5616 7.3467 0
86.2188 4.87819 0
44.7641 6.10996 0
46.5616 7.84703 0
84.1661 19.806 0
84.0356 22.2939 0
71.973 17.6371 0
74.4563 17.3492 0
77.134 25.0813 0
76.5219 22.6626 0
97.1423 15.3028 0
94.6784 14.8704 0
38.333 23.6962 0
40.4187 22.3192 0
40.9226 1.82705 0
39.8566 4.08837 0
60.1825 22.5933 0
57.848 21.7024 0
23.1318 0.978239 0
24.5973 2.98921 0
71.9239 32.304 0
69.458 32.7065 0
44.2021 38.2947 0
42.2557 39.8626 0
34.142 4.44766 0
35.5925 6.48198 0
19.9461 15.6341 0
21.6942 17.414 0
1.49802 8.37246 0
3.18782 10.2116 0
85.6205 25.0623 0
87.7387 23.7389 0
82.6891 14.9179 0
80.261 14.3077 0
60.762 3.33399 0
60.1657 5.76134 0
17.2791 24.3536 0
15.7898 22.353 0
51.8063 38.9788 0
50.5939 36.7933 0
59.7314 46.9438 0
62.0345 45.972 0
81.702 19.2663 0
81.999 21.7409 0
60.0657 15.1881 0
57.6548 14.5303 0
21.5841 24.5544 0
21.4745 27.0457 0
50.5587 36.7597 0
51.5028 34.4457 0
68.8448 24.2129 0
66.7799 22.8038 0
85.4274 32.1271 0
83.0798 32.9778 0
10.0284 12.7485 0
7.9657 14.1631 0
90.6731 3.1925 0
88.5767 1.83046 0
85.5547 8.48514 0
87.7114 7.22442 0
32.9558 40.5507 0
33.1224 43.0428 0
16.574 0.84724 0
18.9353 1.66335 0
80.4352 27.6243 0
82.3762 26.0535 0
21.408 11.103 0
19.7279 9.26125 0
93.5229 17.1412 0
91.2253 16.1499 0
19.3928 35.7688 0
19.2472 33.2793 0
17.969 35.3992 0
20.2191 34.309 0
76.6345 12.1512 0
75.0676 14.0898 0
20.8954 4.76192 0
18.5519 3.8975 0
26.3132 33.9055 0
24.1568 32.6465 0
55.3271 7.14008 0
57.475 5.86166 0
69.3426 3.91006 0
70.4287 6.16326 0
22.4038 17.1181 0
21.7114 14.7246 0
89.489 6.16719 0
86.9874 6.15206 0
60.1555 4.32261 0
57.6671 4.07552 0
86.6762 11.3757 0
84.2712 10.6814 0
80.936 22.6225 0
82.1093 20.423 0
69.7908 32.5688 0
68.9915 30.2023 0
42.4532 49.0277 0
40.5289 47.4319 0
30.6384 29.4805 0
31.5639 31.7988 0
19.9278 37.6065 0
20.2331 35.1305 0
64.2199 5.70133 0
62.488 7.50227 0
91.433 1.97794 0
90.973 4.42866 0
85.7564 10.1617 0
87.2355 12.174 0
16.1118 1.28054 0
14.0735 2.72681 0
71.9561 36.7125 0
74.3803 36.1064 0
14.897 16.3072 0
17.322 16.9202 0
85.8746 30.9556 0
87.5615 32.7928 0
8.11722 22.0989 0
10.6161 21.9698 0
49.9334 35.6628 0
52.4246 35.4762 0
9.11222 20.5852 0
10.8345 18.773 0
62.5387 32.0233 0
60.2703 33.0688 0
37.5397 6.86955 0
39.0294 4.86137 0
9.77056 9.22279 0
11.9477 7.99147 0
60.1529 26.0465 0
57.6564 26.1307 0
32.836 17.2522 0
33.7822 19.5624 0
92.6142 11.498 0
92.9431 13.9709 0
50.0439 4.47017 0
52.1269 5.85325 0
21.7624 11.8814 0
23.2267 13.898 0
16.4456 4.92899 0
18.7611 3.98242 0
38.9421 33.8384 0
41.0782 32.5414 0
2.0529 4.99605 0
2.95844 2.66921 0
17.4241 17.1603 0
16.3958 19.4335 0
81.4678 37.6487 0
82.4916 35.3755 0
72.9147 12.6007 0
74.7479 10.9103 0
66.3197 41.5168 0
63.928 42.2417 0
63.7514 26.5074 0
65.7378 24.9945 0
49.8632 6.12089 0
48.3248 8.09143 0
60.1828 40.7851 0
62.4047 41.9299 0
23.3848 10.9211 0
24.4869 13.1554 0
60.0914 31.2907 0
61.0375 33.6037 0
85.0589 22.4658 0
87.5606 22.3954 0
74.586 19.8579 0
72.1593 19.2516 0
56.0507 12.4343 0
58.4934 12.9617 0
61.6802 4.28771 0
60.6326 2.01788 0
60.7167 47.5519 0
58.2186 47.6487 0
50.6466 16.8568 0
50.963 19.3367 0
26.1341 33.2677 0
27.1234 30.9745 0
43.6929 22.6413 0
41.6399 21.2189 0
70.2545 18.5961 0
72.7277 18.9648 0
72.5403 1.57069 0
72.7219 4.0637 0
33.4078 17.1027 0
35.0434 18.9886 0
55.2421 3.55934 0
57.6853 4.09278 0
62.7404 27.0192 0
60.2424 27.0426 0
59.5686 35.5422 0
59.7143 33.0477 0
41.7343 31.3796 0
39.3522 32.1336 0
65.7148 33.88 0
63.6921 32.4118 0
41.274 36.2014 0
39.9709 38.3342 0
73.2435 29.7885 0
72.8108 32.2462 0
50.7633 40.1994 0
51.8567 42.4471 0
59.8213 10.0894 0
58.3223 8.08825 0
82.5649 20.0224 0
84.864 19.0413 0
66.248 0.746811 0
68.7398 0.511075 0
72.7863 32.691 0
74.6627 31.0445 0
66.5312 33.5725 0
65.2538 35.7181 0
67.8031 46.2927 0
68.5278 43.9027 0
63.7328 23.0471 0
64.8307 20.8043 0
80.4336 11.3023 0
82.0415 13.2153 0
30.9871 20.4833 0
30.038 18.1754 0
25.2989 20.7171 0
26.8709 22.6547 0
53.9885 28.7298 0
56.473 28.4734 0
85.7363 28.3487 0
85.2071 25.9149 0
37.9089 1.84105 0
40.3888 2.16843 0
42.0974 29.5727 0
43.0825 27.2758 0
19.9486 35.4178 0
22.4353 35.671 0
84.4649 11.5489 0
86.9673 11.4918 0
30.5303 1.3034 0
32.9972 0.889288 0
61.9949 42.4978 0
59.8305 41.2475 0
40.0224 13.4843 0
38.0277 14.9914 0
71.9231 29.1922 0
70.0772 27.5075 0
60.367 30.3178 0
59.6054 27.9376 0
6.60626 10.6786 0
5.73646 13.0186 0
33.618 6.86576 0
32.0029 4.96074 0
57.2963 24.7864 0
59.732 24.2336 0
61.754 28.0781 0
59.268 28.3215 0
12.9881 2.03894 0
15.144 3.29837 0
72.4143 4.99982 0
69.927 4.75584 0
30.5125 6.26803 0
28.1159 6.98234 0
80.7928 3.7512 0
78.2929 3.85995 0
54.3859 36.0081 0
52.3746 37.4904 0
30.584 14.3226 0
33.0059 14.9334 0
80.5827 9.2181 0
82.8673 8.2053 0
11.9909 31.6178 0
12.9812 29.3369 0
46.3788 5.39736 0
48.8282 5.89989 0
2.7422 5.32905 0
5.24171 5.23043 0
10.221 9.57383 0
11.2224 11.8567 0
4.34565 17.8831 0
6.59515 16.7884 0
29.3803 8.50953 0
26.8817 8.46779 0
43.694 2.07238 0
46.001 3.03792 0
77.3489 2.82322 0
75.5789 4.57125 0
55.2158 26.813 0
57.4653 27.9003 0
24.799 19.3772 0
26.9861 18.1635 0
12.7782 30.9435 0
14.0307 28.79 0
13.7548 17.8916 0
15.6116 19.5593 0
31.5358 36.1043 0
33.6403 37.4497 0
85.115 18.9843 0
85.4425 16.5147 0
54.9617 42.432 0
56.1376 40.2268 0
56.8628 43.0871 0
54.3741 42.8593 0
69.3611 41.1623 0
68.4378 43.4824 0
81.6136 5.23657 0
81.1846 7.68708 0
67.3184 28.8065 0
69.411 27.4443 0
23.3645 28.3094 0
20.8705 28.4772 0
76.5811 33.1532 0
74.6876 31.5222 0
40.4043 1.87094 0
41.9556 -0.0898312 0
21.4821 3.49957 0
19.2778 2.33334 0
32.707 28.0779 0
34.5132 29.8017 0
39.7631 2.3176 0
37.9747 4.06523 0
68.5865 6.30431 0
66.5243 7.71247 0
7.18859 2.11261 0
8.72626 0.142829 0
59.0834 33.4807 0
57.1262 31.927 0
22.6441 35.4626 0
24.1775 37.4313 0
76.7168 24.9826 0
76.1636 22.5497 0
8.87882 16.7475 0
9.71964 19.0942 0
27.0154 16.7162 0
28.4405 14.6623 0
31.9349 37.0334 0
32.7639 34.6766 0
22.1933 34.9776 0
19.9533 33.8738 0
73.3344 37.15 0
72.0098 35.0315 0
15.035 2.09236 0
16.9738 0.516752 0
52.2297 12.2222 0
52.0967 9.7256 0
33.8215 8.80197 0
32.6858 6.57753 0
24.9685 41.8519 0
27.3583 41.1143 0
57.5795 12.5904 0
59.8013 11.4482 0
84.1996 35.2176 0
82.3971 33.4873 0
40.3978 47.2042 0
38.885 45.2145 0
18.0736 12.1926 0
20.53 12.6665 0
92.6976 8.18386 0
94.3805 6.34044 0
81.3773 33.0561 0
80.6629 30.6656 0
38.8254 14.8994 0
38.6888 17.3951 0
28.5765 11.6133 0
29.9612 13.6879 0
51.9115 39.5898 0
54.4014 39.799 0
86.5638 28.1195 0
85.895 25.7198 0
22.1603 2.35439 0
23.562 4.40672 0
49.355 3.25163 0
47.2359 1.92357 0
18.8527 19.7378 0
21.3336 20.0588 0
2.11376 9.03782 0
4.29611 7.81644 0
20.2604 3.61094 0
18.8564 5.67521 0
62.9431 44.4821 0
65.1623 45.6334 0
34.4812 21.2524 0
36.5691 19.8776 0
94.5927 1.03493 0
93.9502 3.44469 0
49.7443 42.4631 0
49.3583 39.9935 0
58.6792 10.8667 0
56.3272 10.0205 0
36.6065 10.7764 0
34.3206 11.7894 0
56.8264 43.9236 0
56.7516 46.4221 0
2.44851 12.6264 0
1.78733 10.2191 0
82.422 4.97967 0
83.3153 2.65515 0
37.6739 47.3698 0
35.4159 46.2974 0
65.9794 39.5964 0
68.308 40.5062 0
24.6431 34.137 0
27.1196 34.4721 0
68.4691 39.5071 0
70.8711 38.8179 0
13.7995 30.675 0
12.1844 28.7763 0
58.8637 44.4911 0
61.2982 45.058 0
24.3233 5.66129 0
24.1911 8.15219 0
81.1314 20.9474 0
78.7519 21.7151 0
29.8676 39.7986 0
29.507 42.2698 0
23.703 17.0857 0
21.4464 16.0139 0
2.74897 8.237 0
4.97316 7.09329 0
48.0257 30.919 0
49.9852 29.3689 0
87.0593 23.1822 0
84.6775 23.9437 0
34.6597 10.9809 0
32.324 11.8737 0
47.5566 26.0953 0
46.0991 24.0658 0
67.4385 24.3575 0
65.4467 22.847 0
58.2176 30.2176 0
56.8736 32.3233 0
32.316 34.961 0
34.6085 35.9532 0
57.4147 36.423 0
56.0538 34.3266 0
26.6863 3.4091 0
28.7999 2.07083 0
11.1704 26.6828 0
12.7077 24.7133 0
63.5183 33.1664 0
61.9209 35.0863 0
28.4834 11.4488 0
26.0357 11.9658 0
44.5039 45.8612 0
42.0052 45.9281 0
30.8343 14.5233 0
31.9626 16.7492 0
13.2088 1.83079 0
15.333 0.51299 0
76.1357 15.0506 0
73.8791 16.1199 0
12.6812 6.5415 0
13.3284 8.94759 0
35.4835 5.00561 0
36.3444 7.35155 0
53.9981 17.7636 0
51.5394 18.2049 0
31.3114 8.54923 0
29.0081 7.58681 0
24.2856 6.66971 0
21.7923 6.88286 0
48.6128 3.70544 0
51.0487 4.27172 0
32.1545 13.8491 0
32.0902 11.3519 0
1.58968 3.46462 0
4.06936 3.78766 0
62.8163 44.3726 0
60.4985 43.4364 0
42.6345 24.5354 0
40.1421 24.3719 0
48.345 30.8536 0
50.5236 32.0759 0
58.8819 35.3987 0
56.393 35.6151 0
50.0159 46.6778 0
52.0709 45.2549 0
26.9488 5.74371 0
26.317 8.16256 0
43.5118 36.1395 0
42.0923 34.0836 0
52.8784 28.0478 0
50.9815 29.6736 0
60.9556 40.0577 0
62.091 42.2843 0
46.9323 23.7492 0
45.6658 21.5951 0
19.2556 2.9628 0
18.5411 0.579741 0
48.2287 41.998 0
49.191 39.6911 0
47.818 39.5873 0
45.3657 39.1089 0
73.2239 11.5872 0
72.6933 9.14608 0
52.5264 17.928 0
50.7829 16.1374 0
25.0075 41.903 0
27.4913 41.6114 0
51.9707 24.1876 0
50.5575 26.2485 0
25.8333 30.4073 0
28.2603 30.9999 0
5.37103 8.01917 0
2.89007 7.70454 0
20.8706 35.3334 0
18.753 36.6627 0
31.885 19.2572 0
34.1594 20.288 0
30.0945 19.3403 0
27.7454 18.4914 0
78.7346 17.571 0
79.4729 19.9538 0
41.9118 32.2369 0
42.4581 29.7982 0
44.7898 12.6373 0
45.2499 10.1798 0
44.1951 20.1753 0
46.044 18.4936 0
36.1325 2.52877 0
35.7815 5.00345 0
94.4698 4.86878 0
95.2793 7.23056 0
41.9073 21.8844 0
40.3564 23.8447 0
57.7831 26.2578 0
55.7423 24.8157 0
62.7032 27.0499 0
65.1121 27.7148 0
8.55969 15.6718 0
8.47835 18.1642 0
70.8335 31.0296 0
68.3895 30.5063 0
45.8805 35.7801 0
46.1265 33.293 0
87.0727 2.75113 0
88.7616 4.59217 0
22.508 38.591 0
22.8792 41.058 0
66.2447 43.2528 0
64.2136 41.7955 0
77.3484 12.0128 0
77.8851 14.4485 0
50.8449 47.0982 0
49.16 48.9448 0
14.9024 13.4216 0
15.4091 10.9812 0
75.6224 19.0173 0
75.4137 21.5023 0
59.0499 45.6865 0
61.1011 47.1156 0
83.7393 9.47527 0
86.1855 8.952 0
6.96859 1.80418 0
4.46983 1.89767 0
80.7461 19.0254 0
82.5475 17.2986 0
13.6046 0.199691 0
11.1065 0.105622 0
14.8961 32.2317 0
17.2746 31.466 0
14.207 12.8783 0
15.5753 14.9622 0
66.7071 1.00582 0
64.2429 1.43848 0
72.2673 24.5271 0
71.3109 26.832 0
52.0201 31.5086 0
50.0646 29.9536 0
29.31 29.2444 0
28.0425 27.0946 0
76.0694 25.4253 0
76.3036 22.9423 0
88.1021 17.2755 0
90.3428 18.3902 0
56.5903 9.12376 0
54.3011 10.126 0
30.5987 42.3947 0
32.0855 44.4016 0
49.5607 38.3287 0
50.1526 35.9003 0
33.5685 30.7086 0
35.8045 31.8212 0
51.296 20.2569 0
50.1623 22.4844 0
48.0063 20.2626 0
46.7603 18.0961 0
56.3121 36.8135 0
54.2194 38.1783 0
27.9136 28.0817 0
28.4946 30.5087 0
32.5646 34.5488 0
33.1987 36.9641 0
91.7344 14.735 0
93.5678 16.435 0
6.69598 6.17447 0
6.37224 8.64851 0
30.585 35.869 0
31.2531 33.4621 0
65.2096 34.973 0
64.2736 37.2886 0
70.8849 2.26975 0
72.474 0.344629 0
72.2144 25.1269 0
72.6928 22.6779 0
12.9634 14.6548 0
14.9609 16.1532 0
48.3617 3.52129 0
50.7924 4.10968 0
17.3704 5.87767 0
17.5672 8.3589 0
6.488 18.6095 0
4.00165 18.3432 0
31.8298 33.9766 0
32.0131 36.4671 0
59.3282 32.9472 0
59.0309 35.4282 0
80.5926 24.5073 0
80.9778 26.9704 0
96.0316 18.4196 0
96.444 15.958 0
81.643 13.1937 0
84.1087 12.7691 0
31.4056 34.5046 0
30.3257 32.2539 0
95.0482 8.66167 0
94.1773 10.9994 0
92.6702 17.9266 0
94.8868 16.7739 0
25.3149 37.9874 0
25.0227 35.5091 0
11.1085 27.2376 0
12.9143 28.9559 0
25.1957 17.1537 0
22.7355 17.6108 0
33.0419 22.319 0
35.5332 22.5061 0
75.1056 23.1206 0
72.6059 23.1653 0
50.0608 27.6658 0
49.6797 30.1359 0
20.9809 18.7313 0
20.467 21.1715 0
93.0643 7.23669 0
92.2409 9.59074 0
49.1249 48.197 0
47.6817 46.1561 0
60.303 39.1421 0
62.1826 37.4965 0
68.5093 12.6759 0
66.4489 11.258 0
74.7617 11.5375 0
72.5938 12.7736 0
59.6134 41.9792 0
61.248 43.8704 0
83.0203 12.0637 0
83.6996 9.66812 0
12.3181 9.78281 0
11.2361 7.53709 0
46.2358 43.1169 0
44.2318 41.6241 0
78.0967 4.22147 0
75.6346 4.64852 0
79.2547 34.697 0
79.7177 32.2464 0
50.3187 26.3846 0
47.8548 25.9755 0
15.8983 14.9714 0
18.3716 14.5836 0
24.6583 1.86366 0
27.1441 2.07436 0
21.7818 5.9576 0
23.7384 4.39601 0
38.4346 26.8396 0
35.9902 27.3574 0
39.5958 38.0347 0
37.1012 37.89 0
20.4322 23.3191 0
19.0364 21.2521 0
55.8226 8.75013 0
53.5448 9.77859 0
30.7914 38.8147 0
33.2387 38.3049 0
56.7837 41.8643 0
59.2546 41.4919 0
59.0599 12.4716 0
61.51 11.9832 0
84.7863 1.9525 0
82.4283 2.77886 0
54.6886 35.7929 0
52.9187 37.5566 0
27.8994 39.4488 0
30.3941 39.284 0
56.9157 32.6756 0
56.628 30.1931 0
77.6262 21.329 0
75.7458 22.9708 0
36.6752 36.6338 0
36.0397 39.0504 0
70.6779 32.4673 0
68.2105 32.8601 0
48.9423 32.5034 0
50.2824 30.3942 0
64.3881 19.4515 0
65.3962 21.7387 0
36.9122 30.6419 0
39.4101 30.6875 0
52.0995 3.11597 0
54.2082 4.46018 0
16.1012 27.0057 0
13.8962 25.8303 0
28.8205 37.7482 0
26.3517 38.1431 0
66.3181 34.8906 0
64.7291 32.9615 0
86.8407 13.799 0
85.7552 16.0421 0
79.9098 37.543 0
77.6082 38.5154 0
1.09212 9.66077 0
2.77818 11.5034 0
22.3096 7.05441 0
19.8225 6.78885 0
28.0024 24.2471 0
25.528 23.8944 0
48.7822 5.55037 0
46.4122 4.75331 0
39.4118 8.45322 0
37.1183 7.4618 0
13.1978 16.2197 0
11.767 14.1774 0
35.192 37.9544 0
33.3778 39.6738 0
76.1377 8.04656 0
78.2036 6.64827 0
38.888 43.9464 0
38.073 41.5842 0
46.1929 9.58469 0
48.2302 8.13614 0
39.8938 31.0541 0
37.4704 31.6626 0
37.3153 29.2938 0
36.6488 31.7018 0
36.7048 27.0259 0
34.2295 27.3671 0
30.6707 4.55428 0
33.0176 5.4104 0
71.8496 32.0205 0
74.0266 30.797 0
24.1577 12.437 0
26.548 11.6954 0
33.2152 43.7695 0
35.5017 42.7584 0
26.0714 22.5491 0
24.0498 24.0195 0
5.63874 2.56705 0
6.55697 0.244786 0
94.3791 5.90173 0
96.7872 6.57947 0
53.4117 19.0384 0
51.7048 17.2129 0
53.8051 45.5352 0
52.3227 47.5478 0
94.7232 5.24462 0
93.3233 3.17518 0
30.219 21.2356 0
27.7722 20.729 0
57.4974 2.2458 0
58.1115 4.66899 0
94.6009 11.4992 0
92.9606 9.61383 0
43.7255 7.3162 0
46.1879 6.88434 0
49.3927 42.4728 0
47.4339 44.0254 0
42.4165 27.4112 0
44.8294 26.7641 0
24.2342 22.699 0
21.7621 22.3246 0
70.0046 34.2601 0
70.1739 31.7693 0
18.3787 13.5503 0
20.5965 14.7005 0
9.3851 28.8058 0
11.6712 27.7856 0
62.0412 24.6103 0
60.8091 22.4356 0
81.7486 25.2306 0
79.2484 25.1643 0
22.815 29.3641 0
20.6949 30.687 0
14.2122 29.7073 0
14.3234 32.1954 0
12.6344 13.0439 0
13.6612 15.3145 0
67.3825 22.8918 0
67.8288 20.4354 0
79.3407 21.9186 0
81.751 22.5901 0
15.2574 21.752 0
14.1855 24.0047 0
21.2468 13.6267 0
18.8982 12.7703 0
44.9052 45.1245 0
42.4084 45.0102 0
62.2421 38.1807 0
60.8246 36.1221 0
59.6111 47.3817 0
61.9429 46.4809 0
39.967 37.9071 0
42.4651 37.8579 0
55.733 30.4003 0
53.3921 29.5278 0
67.6296 40.8844 0
65.1426 41.134 0
71.0775 5.74727 0
73.5747 5.77703 0
80.9122 3.30087 0
80.8426 0.813632 0
59.6899 7.20892 0
57.9499 9.0028 0
32.3586 19.6392 0
31.5546 22.0049 0
43.9451 32.5946 0
44.0575 35.0911 0
97.7975 14.1535 0
97.9475 11.6613 0
74.1274 18.652 0
72.1758 17.088 0
77.0922 31.6604 0
76.3784 34.0508 0
55.9602 48.7792 0
56.321 46.3056 0
40.1877 1.3419 0
37.7709 1.98757 0
72.0581 20.1615 0
74.5329 19.8095 0
41.833 44.8315 0
44.313 45.1419 0
87.0881 2.75839 0
86.5143 5.18318 0
19.3584 22.0457 0
18.9188 19.593 0
17.5119 36.4186 0
16.2711 34.2564 0
26.0619 38.1667 0
24.1817 39.8141 0
61.671 6.44703 0
59.6972 4.91219 0
39.7203 30.2307 0
40.0371 32.7089 0
63.2613 5.66569 0
60.7915 6.05025 0
60.5826 6.80043 0
61.4291 4.44869 0
79.3307 37.0653 0
76.8939 37.6216 0
46.8216 23.5452 0
47.78 21.2365 0
81.9624 12.3998 0
79.4864 12.7593 0
17.6912 13.0309 0
18.5052 15.3854 0
48.208 40.7747 0
46.3941 42.4944 0
65.3881 19.9366 0
64.1581 17.7601 0
42.9218 40.1859 0
41.7457 42.3916 0
54.5105 17.1177 0
53.4381 19.3752 0
22.896 29.5103 0
25.2873 28.7825 0
23.2278 15.0129 0
20.79 14.4558 0
92.321 7.81627 0
90.8034 9.79672 0
32.1263 32.2239 0
33.5915 30.1996 0
68.7397 28.7007 0
68.974 31.1868 0
97.6688 2.42059 0
96.178 4.42073 0
67.3743 15.1439 0
69.8366 14.722 0
78.3711 23.4567 0
78.8279 21.0061 0
37.5608 16.1774 0
35.1798 15.423 0
68.9169 9.44741 0
69.4673 7.01113 0
32.9275 20.3852 0
34.2748 18.2795 0
33.261 31.7921 0
34.9111 29.9151 0
87.9042 26.0725 0
89.8807 27.6066 0
84.2807 23.7598 0
86.7029 24.3896 0
38.5122 11.3637 0
36.0825 11.9503 0
65.6924 40.5285 0
63.5232 39.2862 0
37.7173 1.73435 0
35.539 2.96231 0
75.4844 40.0993 0
75.9073 42.5595 0
67.3364 2.33787 0
67.1254 4.8286 0
72.0007 15.3161 0
70.1551 13.6277 0
63.382 32.0712 0
65.8759 32.2258 0
39.5912 3.34432 0
38.8514 5.73236 0
46.2215 18.8792 0
47.7912 16.9341 0
37.5084 38.9127 0
36.3013 41.1011 0
90.167 7.33742 0
90.893 4.95232 0
92.5903 20.1063 0
90.1867 19.409 0
55.9006 19.4003 0
56.1526 16.9135 0
22.8507 18.9086 0
21.4697 20.9895 0
32.7216 16.1885 0
34.5037 17.9364 0
72.9839 38.5178 0
73.3458 36.0484 0
61.7492 40.8939 0
63.1788 42.9441 0
27.4391 33.026 0
29.7341 32.0352 0
27.627 16.7379 0
25.786 15.0541 0
39.5024 2.54742 0
37.4713 4.00625 0
18.5959 28.5893 0
17.7702 26.2369 0
73.4814 2.75538 0
75.2062 0.957984 0
75.7754 42.2114 0
73.2784 42.3462 0
57.3562 44.061 0
54.9348 43.4414 0
27.241 9.14049 0
28.8689 11.0294 0
24.1976 7.88388 0
23.0329 10.0946 0
76.6189 41.6967 0
74.5071 43.0318 0
30.3677 38.7007 0
32.0554 40.5415 0
47.7274 27.613 0
48.5107 29.9862 0
78.4383 7.03516 0
80.9155 6.68845 0
76.0211 10.4621 0
76.2889 12.9418 0
69.5464 34.2164 0
68.9354 31.7946 0
77.7396 17.1738 0
79.7233 18.6968 0
84.5082 32.6468 0
85.6674 34.8559 0
64.9175 34.5653 0
64.2355 32.1616 0
32.4012 10.2862 0
29.9031 10.2257 0
29.5255 44.5647 0
31.8206 45.5545 0
20.0394 29.152 0
22.5019 28.7226 0
45.1437 28.455 0
47.3564 27.2949 0
19.2678 33.9436 0
20.539 31.7945 0
66.1362 9.47226 0
66.156 6.97294 0
61.6922 1.79087 0
64.0417 0.932018 0
80.9501 1.39954 0
79.813 3.6097 0
40.5919 47.6277 0
38.0947 47.5049 0
58.812 26.173 0
59.6308 28.5343 0
14.7984 23.4833 0
16.8919 24.8458 0
4.11692 14.4597 0
6.16456 13.0238 0
84.2831 21.7338 0
82.6546 19.8397 0
8.18407 0.608366 0
5.72176 0.181506 0
75.4563 20.1649 0
73.1077 21.0175 0
52.4335 9.98161 0
50.7796 8.10715 0
43.3142 5.86996 0
45.7129 5.1641 0
39.2784 2.88986 0
37.8619 4.95024 0
3.34224 8.66202 0
0.905454 8.10108 0
87.886 12.1435 0
88.2123 14.6148 0
39.6927 11.4258 0
37.4276 10.3727 0
57.9439 7.41979 0
56.019 5.82413 0
16.2393 26.9067 0
13.7533 27.1887 0
52.5465 5.44711 0
55.0195 5.81586 0
89.824 6.98298 0
92.2042 7.75341 0
93.4918 4.65389 0
91.8474 2.77203 0
95.0957 0.410351 0
96.8547 2.18736 0
16.0257 29.4284 0
18.3946 28.6321 0
62.4925 9.64232 0
61.7879 12.0399 0
18.5805 7.20048 0
17.9456 4.79522 0
70.1873 45.1979 0
67.8098 44.4225 0
79.6877 8.39665 0
80.5732 6.0698 0
91.8885 15.6923 0
89.7315 14.4249 0
59.5407 8.83309 0
59.3377 6.34122 0
21.3739 28.5827 0
23.6777 29.5485 0
24.8587 42.1061 0
26.3557 40.1052 0
22.3644 13.3091 0
24.5604 14.497 0
9.86907 12.1059 0
11.0484 9.90587 0
33.5139 45.4671 0
34.4695 43.1583 0
67.6348 35.9201 0
69.8982 36.9815 0
25.3274 10.7367 0
26.8433 8.74635 0
84.0373 24.5629 0
82.695 22.459 0
87.5707 2.04502 0
89.3493 3.8003 0
51.1096 41.0109 0
53.4463 41.8971 0
82.202 9.44832 0
80.1174 8.06373 0
65.1263 14.6053 0
66.1337 16.8934 0
42.9476 6.80509 0
42.7668 4.31188 0
53.511 5.52852 0
55.4231 3.91802 0
44.3402 38.9257 0
42.8727 40.9491 0
90.5731 10.8577 0
92.545 9.3255 0
23.2462 16.9253 0
24.7774 18.894 0
23.7607 10.1052 0
23.8041 7.61238 0
60.7241 35.7496 0
60.9612 38.2372 0
44.6535 1.23363 0
42.2987 2.07721 0
78.3144 24.3111 0
79.0454 21.9275 0
68.8765 37.9262 0
68.7749 35.431 0
27.548 6.49453 0
29.462 4.88227 0
58.9372 13.2743 0
59.0313 15.7722 0
57.7221 9.55028 0
59.6548 11.1361 0
51.7617 19.5448 0
54.1759 20.1868 0
50.6773 38.2031 0
48.1789 38.2017 0
47.4622 22.8546 0
46.4106 25.1221 0
22.6107 21.1425 0
22.815 23.6276 0
81.0237 2.11906 0
78.569 1.62523 0
95.2595 4.87568 0
95.4043 7.36674 0
48.378 41.1586 0
46.7822 43.0824 0
26.3544 16.687 0
25.2137 18.9093 0
89.3239 21.5139 0
88.3652 23.8134 0
43.8484 3.60973 0
46.1172 4.66049 0
53.2871 27.8694 0
55.5249 28.9803 0
78.2902 8.36349 0
79.9509 6.50491 0
13.6863 14.0331 0
16.1794 14.2539 0
54.08 47.5218 0
53.9849 45.0239 0
52.4091 6.02524 0
49.9861 5.40786 0
54.1104 40.5741 0
51.8121 41.5549 0
8.32661 21.9468 0
6.36976 23.5052 0
11.108 27.6795 0
8.61695 27.469 0
49.734 47.2056 0
47.2345 47.2337 0
43.5554 18.387 0
45.9029 19.2403 0
28.4227 43.4782 0
27.7325 41.0792 0
87.163 31.5036 0
86.44 29.122 0
85.8042 22.4754 0
86.6628 20.1367 0
85.9752 0.792005 0
88.4083 1.37085 0
83.5254 35.691 0
84.5615 33.4247 0
24.1356 32.6731 0
25.7004 30.7254 0
45.5988 42.2803 0
47.1166 44.2658 0
21.3855 34.9543 0
23.6628 33.9224 0
6.28512 12.1012 0
4.37363 10.494 0
34.5305 14.7067 0
36.1468 12.7986 0
31.2775 45.9481 0
33.0009 44.1376 0
18.2711 22.993 0
20.686 23.6419 0
10.2853 22.5493 0
11.9877 20.7189 0
50.2246 7.62196 0
47.8899 6.72793 0
47.4953 30.7975 0
45.1617 29.907 0
38.8561 21.0024 0
41.268 20.3498 0
43.5943 9.96153 0
41.3866 11.134 0
77.5005 36.9465 0
79.2751 35.1918 0
39.9076 8.92881 0
39.075 11.2863 0
74.8731 40.382 0
73.6233 38.2188 0
60.7915 11.8459 0
58.9211 13.5018 0
96.2408 12.5299 0
94.018 11.3826 0
43.7626 25.3542 0
41.2649 25.3673 0
54.2797 42.8749 0
56.7544 42.5269 0
84.5859 23.5466 0
82.0884 23.699 0
2.52509 9.61018 0
4.58879 8.19808 0
82.1208 4.94632 0
84.6076 5.22164 0
36.5529 16.4405 0
38.6739 17.7587 0
44.0103 9.39843 0
42.021 10.9124 0
21.1866 26.4935 0
22.1881 28.778 0
43.0522 27.2244 0
45.3682 26.2875 0
15.0466 19.6357 0
14.87 22.1212 0
20.1545 8.59509 0
21.0215 6.25501 0
12.2304 24.8339 0
10.9731 22.6826 0
49.8769 41.5239 0
48.685 39.327 0
9.59271 24.4417 0
9.39386 26.928 0
35.0924 44.0474 0
32.8826 45.2169 0
13.4068 18.3188 0
11.2225 17.1059 0
12.261 23.8071 0
12.6995 21.3533 0
84.2198 17.4335 0
84.0585 14.947 0
97.0995 15.4513 0
94.8941 14.2714 0
76.1906 36.7425 0
77.5751 38.822 0
4.72668 2.9437 0
2.27278 3.42946 0
13.8932 26.8162 0
11.4075 26.5313 0
9.91278 5.18511 0
8.64659 7.33723 0
87.005 9.98551 0
86.6963 7.51241 0
50.8098 18.9654 0
49.885 16.643 0
22.825 2.9736 0
23.5165 0.57037 0
24.0537 40.4419 0
21.5736 40.1232 0
4.31723 10.5234 0
1.90866 11.1989 0
74.0148 28.1278 0
72.445 30.0682 0
51.6097 16.6136 0
49.4397 17.8519 0
94.6786 5.52038 0
96.5521 7.17585 0
92.4046 0.900382 0
90.0045 1.59431 0
54.6851 28.068 0
57.013 28.975 0
3.93428 2.11091 0
2.81656 4.34476 0
25.6153 42.0923 0
28.0989 41.7988 0
24.2935 33.2324 0
25.7639 35.2486 0
64.8689 37.8918 0
63.0555 36.1717 0
45.7821 39.0216 0
46.3281 36.5825 0
59.1451 39.4588 0
58.3402 41.8246 0
42.8357 19.4803 0
41.6352 17.2891 0
48.5248 16.9609 0
47.4656 14.6968 0
92.8657 4.8649 0
91.3419 6.8405 0
17.6615 6.62241 0
16.0895 4.68769 0
31.5493 30.7585 0
33.0648 28.7716 0
49.558 45.2128 0
50.5154 47.5219 0
51.6941 13.8846 0
49.2477 14.3916 0
35.2083 5.61078 0
34.5518 8.02341 0
90.6841 7.76112 0
90.2519 10.216 0
55.255 45.8372 0
54.0055 43.672 0
16.7195 18.2338 0
18.9058 17.0171 0
14.62 7.07669 0
14.2816 4.60874 0
24.2883 34.42 0
21.7959 34.6132 0
62.625 33.6722 0
60.6563 35.2094 0
11.5567 19.7084 0
13.6578 21.0584 0
76.817 0.423309 0
74.3239 0.345735 0
59.9213 26.1372 0
57.6676 25.058 0
70.4698 27.1193 0
67.9832 27.3641 0
46.2279 22.901 0
46.9743 20.5152 0
76.5796 3.88633 0
74.1822 4.57231 0
47.8493 15.2139 0
50.1331 16.227 0
88.1724 13.6003 0
89.9443 11.8428 0
70.9948 0.175693 0
73.312 1.11421 0
56.2782 45.7707 0
57.2095 43.4513 0
68.1662 3.37123 0
65.94 2.23221 0
22.8459 17.7281 0
24.7645 16.1236 0
81.1861 38.787 0
83.1662 37.2657 0
49.4128 3.07192 0
51.1124 4.90556 0
66.015 3.44264 0
63.6803 2.54805 0
53.2998 12.2615 0
53.0653 9.7724 0
12.6062 15.4535 0
10.7877 17.169 0
43.1777 4.77282 0
43.6215 7.23284 0
56.1621 20.6849 0
58.6119 21.1743 0
60.8408 22.484 0
58.3613 22.178 0
28.8186 27.2835 0
27.0017 25.5718 0
40.7076 7.04515 0
38.2304 7.37737 0
17.4027 2.35758 0
19.8832 2.03266 0
42.8397 25.9496 0
40.3634 26.2786 0
7.0271 17.7293 0
8.35238 19.8423 0
20.2978 12.0351 0
22.1408 10.3441 0
67.3956 40.1435 0
65.4856 41.7535 0
45.1267 41.6281 0
45.9829 43.9762 0
70.8067 17.3312 0
73.1882 16.5765 0
88.2803 4.88334 0
90.019 6.67789 0
49.8863 20.2863 0
48.1628 22.0959 0
56.3545 37.8178 0
56.3549 40.3172 0
82.368 26.1044 0
80.8486 28.0836 0
39.5799 4.54302 0
41.5667 6.0594 0
55.1635 43.6874 0
57.0062 41.9994 0
55.3772 43.5724 0
57.0592 41.7242 0
25.0509 15.4612 0
23.2334 13.7534 0
14.3577 27.8916 0
13.5202 30.2368 0
53.0009 17.158 0
51.1968 18.8868 0
32.5326 42.9483 0
34.8847 43.7935 0
19.7117 10.9085 0
21.4665 12.6804 0
61.517 41.2527 0
63.7537 40.1391 0
32.9609 27.5653 0
31.0136 29.1321 0
31.0092 21.3028 0
31.9808 23.6019 0
72.0608 27.5516 0
71.2291 29.9045 0
38.086 13.2103 0
40.5595 13.5609 0
47.3029 48.0851 0
45.4828 46.3719 0
70.6132 11.6182 0
70.4788 14.1112 0
98.6534 10.2098 0
96.5918 8.79468 0
96.4627 15.9445 0
93.9625 16.014 0
58.948 10.342 0
59.6852 12.7309 0
54.9949 18.5 0
56.4768 20.513 0
53.9072 41.7687 0
56.3712 41.3535 0
5.04942 4.43804 0
7.52953 4.11413 0
84.5039 18.8741 0
86.8278 19.804 0
19.2846 30.34 0
19.5133 32.8232 0
64.4096 35.9423 0
63.1626 33.7765 0
66.4804 23.6209 0
68.9778 23.5362 0
60.3868 25.5871 0
62.6825 24.604 0
55.9159 21.2874 0
57.6081 19.4499 0
21.5781 36.48 0
19.0852 36.6773 0
55.9481 32.4555 0
58.381 31.8895 0
67.9312 1.79935 0
70.1229 3.00446 0
16.2227 6.28808 0
17.6191 4.22054 0
91.8152 24.2873 0
91.1456 26.6884 0
89.1985 19.2022 0
86.7295 18.7883 0
88.0842 12.6275 0
86.5271 14.576 0
76.4119 18.9652 0
77.6035 16.7754 0
71.0085 21.1067 0
70.0975 23.4297 0
26.6244 25.6161 0
25.4062 27.7964 0
55.8022 26.4754 0
55.5547 28.9621 0
59.1647 43.2224 0
57.5213 45.1052 0
66.221 18.8851 0
68.2649 17.4517 0
81.2644 33.6963 0
79.7296 31.726 0
50.4281 9.14445 0
49.7703 11.5564 0
26.0656 27.6234 0
24.0328 29.0773 0
49.6497 27.4381 0
49.8898 24.95 0
89.3044 25.5612 0
91.8036 25.4698 0
78.976 32.2289 0
76.6437 33.1229 0
76.1966 37.5606 0
76.6395 35.1053 0
22.6854 1.506 0
23.5131 3.85379 0
17.2404 12.0061 0
15.7642 9.99754 0
76.5329 35.9092 0
78.3987 34.2513 0
25.5372 42.9356 0
23.7513 41.1902 0
24.9576 3.61791 0
23.1395 1.92032 0
86.8987 24.5385 0
85.0428 22.8645 0
84.0731 33.6125 0
83.1895 31.2797 0
68.0026 9.26587 0
65.8992 7.91224 0
6.43046 3.79693 0
4.66228 5.56401 0
88.4768 7.2866 0
89.3602 4.95574 0
68.08 40.9811 0
69.918 39.2901 0
33.5856 18.9844 0
33.4857 21.4802 0
18.3955 18.444 0
19.9932 20.3595 0
51.0066 20.7983 0
51.9954 18.5027 0
81.2061 27.3435 0
79.0077 26.1546 0
33.6507 33.821 0
31.4707 35.0438 0
42.0789 36.8021 0
44.2682 35.5972 0
9.49593 8.11615 0
8.12299 6.03352 0
46.3953 9.19097 0
43.9188 9.52752 0
38.9218 45.9498 0
36.7378 44.7344 0
56.6709 44.9267 0
57.0847 42.4617 0
50.8193 7.929 0
52.1419 10.0504 0
69.3088 9.69691 0
68.1989 11.9324 0
52.7871 10.8103 0
53.9935 8.62095 0
87.9556 0.592282 0
87.4337 3.02945 0
87.5837 29.7913 0
88.5023 27.4795 0
27.7741 27.95 0
29.3292 25.9942 0
41.1471 3.33943 0
43.5693 2.71622 0
47.3832 29.419 0
44.8867 29.3404 0
44.9002 23.309 0
42.425 22.9743 0
57.5534 36.3419 0
55.6912 34.6753 0
79.9244 4.80762 0
81.3143 6.88187 0
33.001 1.61579 0
31.334 3.47971 0
37.9977 49.8659 0
37.9267 51.4342 0
37.9267 51.4342 0
37.7192 52.9904 0
37.7192 52.9904 0
37.3766 54.5226 0
37.3766 54.5226 0
36.9017 56.0192 0
36.9017 56.0192 0
36.2982 57.4687 0
36.2982 57.4687 0
35.5705 58.86 0
35.5705 58.86 0
34.7243 60.1827 0
34.7243 60.1827 0
33.766 61.4266 0
33.766 61.4266 0
32.703 62.5823 0
32.703 62.5823 0
31.5433 63.641 0
31.5433 63.641 0
30.2957 64.5947 0
30.2957 64.5947 0
28.9698 65.4361 0
28.9698 65.4361 0
27.5757 66.1588 0
27.5757 66.1588 0
26.1239 66.7573 0
26.1239 66.7573 0
24.6255 67.2272 0
24.6255 67.2272 0
23.0918 67.5647 0
23.0918 67.5647 0
21.5346 67.7675 0
21.5346 67.7675 0
19.9656 67.8338 0
19.9656 67.8338 0
18.3969 67.7633 0
18.3969 67.7633 0
16.8402 67.5565 0
16.8402 67.5565 0
15.3074 67.2149 0
15.3074 67.2149 0
13.8102 66.7411 0
13.8102 66.7411 0
12.36 66.1387 0
12.36 66.1387 0
10.9678 65.4124 0
10.9678 65.4124 0
9.64412 64.5675 0
9.64412 64.5675 0
8.39909 63.6105 0
8.39909 63.6105 0
7.24217 62.5488 0
7.24217 62.5488 0
6.18218 61.3903 0
6.18218 61.3903 0
5.22718 60.1439 0
5.22718 60.1439 0
4.38445 58.819 0
4.38445 58.819 0
3.66041 57.4257 0
3.66041 57.4257 0
3.06062 55.9747 0
3.06062 55.9747 0
2.58963 54.4769 0
2.58963 54.4769 0
2.25106 52.9438 0
2.25106 52.9438 0
2.04753 51.3871 0
2.04753 51.3871 0
1.9806 49.8185 0
1.9806 49.8185 0
2.05081 48.2502 0
2.05081 48.2502 0
2.25765 46.6941 0
2.25765 46.6941 0
2.59957 45.162 0
2.59957 45.162 0
3.074 43.6658 0
3.074 43.6658 0
3.67733 42.2168 0
3.67733 42.2168 0
4.40499 40.8263 0
4.40499 40.8263 0
5.25143 39.505 0
5.25143 39.505 0
6.21026 38.263 0
6.21026 38.263 0
7.27408 37.1103 0
7.27408 37.1103 0
8.43484 36.0558 0
8.43484 36.0558 0
9.6837 35.1085 0
9.6837 35.1085 0
11.0113 34.2761 0
11.0113 34.2761 0
12.4086 33.5631 0
12.4086 33.5631 0
13.862 32.9681 0
13.862 32.9681 0
15.3598 32.498 0
15.3598 32.498 0
16.8923 32.1589 0
16.8923 32.1589 0
18.4487 31.954 0
18.4487 31.954 0
20.017 31.8849 0
20.017 31.8849 0
21.5853 31.9525 0
21.5853 31.9525 0
23.1417 32.1563 0
23.1417 32.1563 0
24.6741 32.4946 0
24.6741 32.4946 0
26.171 32.9651 0
26.171 32.9651 0
27.621 33.5643 0
27.621 33.5643 0
29.0129 34.2877 0
29.0129 34.2877 0
30.3363 35.1299 0
30.3363 35.1299 0
31.581 36.0844 0
31.581 36.0844 0
32.7376 37.144 0
32.7376 37.144 0
33.7973 38.3006 0
33.7973 38.3006 0
34.7521 39.5454 0
34.7521 39.5454 0
35.5946 40.869 0
35.5946 40.869 0
36.3185 42.2612 0
36.3185 42.2612 0
36.9182 43.7114 0
36.9182 43.7114 0
37.3892 45.2085 0
37.3892 45.2085 0
37.7278 46.7412 0
37.7278 46.7412 0
37.9312 48.2976 0
37.9312 48.2976 0
37.9977 49.8659 0
98.0194 49.8184 0
97.9525 51.3869 0
97.9525 51.3869 0
97.749 52.9436 0
97.749 52.9436 0
97.4104 54.4767 0
97.4104 54.4767 0
96.9394 55.9745 0
96.9394 55.9745 0
96.3396 57.4256 0
96.3396 57.4256 0
95.6156 58.8188 0
95.6156 58.8188 0
94.7728 60.1437 0
94.7728 60.1437 0
93.8178 61.3901 0
93.8178 61.3901 0
92.7578 62.5486 0
92.7578 62.5486 0
91.6009 63.6104 0
91.6009 63.6104 0
90.3559 64.5673 0
90.3559 64.5673 0
89.0322 65.4122 0
89.0322 65.4122 0
87.64 66.1385 0
87.64 66.1385 0
86.1898 66.7409 0
86.1898 66.7409 0
84.6926 67.2147 0
84.6926 67.2147 0
83.1598 67.5563 0
83.1598 67.5563 0
81.6031 67.7631 0
81.6031 67.7631 0
80.0344 67.8336 0
80.0344 67.8336 0
78.4654 67.7672 0
78.4654 67.7672 0
76.9082 67.5645 0
76.9082 67.5645 0
75.3745 67.2269 0
75.3745 67.2269 0
73.8761 66.7571 0
73.8761 66.7571 0
72.4243 66.1585 0
72.4243 66.1585 0
71.0302 65.4358 0
71.0302 65.4358 0
69.7043 64.5944 0
69.7043 64.5944 0
68.4567 63.6408 0
68.4567 63.6408 0
67.297 62.5821 0
67.297 62.5821 0
66.234 61.4263 0
66.234 61.4263 0
65.2757 60.1824 0
65.2757 60.1824 0
64.4296 58.8597 0
64.4296 58.8597 0
63.7019 57.4684 0
63.7019 57.4684 0
63.0983 56.0189 0
63.0983 56.0189 0
62.6234 54.5223 0
62.6234 54.5223 0
62.2809 52.9901 0
62.2809 52.9901 0
62.0734 51.4339 0
62.0734 51.4339 0
62.0025 49.8656 0
62.0025 49.8656 0
62.0689 48.2973 0
62.0689 48.2973 0
62.2724 46.7408 0
62.2724 46.7408 0
62.6109 45.2082 0
62.6109 45.2082 0
63.0819 43.711 0
63.0819 43.711 0
63.6816 42.2608 0
63.6816 42.2608 0
64.4055 40.8686 0
64.4055 40.8686 0
65.248 39.5451 0
65.248 39.5451 0
66.2027 38.3003 0
66.2027 38.3003 0
67.2624 37.1437 0
67.2624 37.1437 0
68.4191 36.0841 0
68.4191 36.0841 0
69.6638 35.1296 0
69.6638 35.1296 0
70.9872 34.2875 0
70.9872 34.2875 0
72.3791 33.5642 0
72.3791 33.5642 0
73.8291 32.9648 0
73.8291 32.9648 0
75.326 32.4942 0
75.326 32.4942 0
76.8585 32.1558 0
76.8585 32.1558 0
78.4148 31.9521 0
78.4148 31.9521 0
79.9831 31.8846 0
79.9831 31.8846 0
81.5514 31.9536 0
81.5514 31.9536 0
83.1078 32.1586 0
83.1078 32.1586 0
84.6405 32.4977 0
84.6405 32.4977 0
86.1383 32.9679 0
86.1383 32.9679 0
87.5913 33.5631 0
87.5913 33.5631 0
88.9889 34.276 0
88.9889 34.276 0
90.3166 35.1087 0
90.3166 35.1087 0
91.5653 36.0558 0
91.5653 36.0558 0
92.726 37.1101 0
92.726 37.1101 0
93.7898 38.2629 0
93.7898 38.2629 0
94.7486 39.5048 0
94.7486 39.5048 0
95.5951 40.8262 0
95.5951 40.8262 0
96.3228 42.2167 0
96.3228 42.2167 0
96.9261 43.6656 0
96.9261 43.6656 0
97.4005 45.1619 0
97.4005 45.1619 0
97.7424 46.694 0
97.7424 46.694 0
97.9492 48.2501 0
97.9492 48.2501 0
98.0194 49.8184 0
      </DataArray>
    </Points>
    <Cells>
      <DataArray type="Int32" Name="connectivity" format="ascii">
247 120 114 753 754 755 
213 114 214 748 749 750 
487 220 257 647 745 730 
257 115 260 741 742 743 
246 300 116 738 739 740 
212 116 247 731 732 733 
246 257 117 724 725 726 
299 117 312 719 720 721 
303 310 118 716 717 718 
248 118 256 711 712 713 
513 495 483 150 224 119 
507 513 483 151 119 184 
248 120 302 704 705 706 
221 258 121 1196 1197 1198 
259 121 313 1191 1192 1193 
464 430 432 332 409 122 
436 464 432 326 122 408 
346 1189 123 1186 1187 1188 
298 123 351 1181 1182 1183 
71 311 124 699 700 701 
65 124 372 692 693 694 
79 369 125 687 688 689 
684 125 309 680 681 682 
211 243 126 1178 1179 1180 
244 126 297 1173 1174 1175 
462 474 436 240 281 127 
438 462 436 294 127 327 
512 515 514 131 129 134 
513 509 511 130 132 135 
514 515 510 129 139 128 
508 514 510 148 128 147 
496 500 514 146 133 149 
513 499 495 136 145 150 
507 509 513 143 130 151 
505 491 497 141 142 154 
504 515 512 137 131 155 
174 503 511 1151 156 144 
512 514 500 134 133 159 
499 513 511 136 135 162 
494 515 504 138 137 165 
171 510 515 1164 139 166 
140 167 168 678 674 675 
167 492 168 672 661 674 
491 505 506 141 153 169 
177 498 497 656 164 170 
173 490 174 1156 1149 1171 
217 489 503 1126 176 175 
495 499 498 145 163 178 
501 500 496 158 146 179 
172 486 181 1162 1145 1169 
496 514 508 149 148 183 
480 481 140 227 152 187 
479 506 505 188 153 190 
477 505 497 191 154 193 
504 512 475 155 160 194 
472 511 503 161 156 197 
501 502 471 157 199 200 
500 501 470 158 201 202 
475 512 500 160 159 203 
499 511 472 162 161 204 
498 499 469 163 205 206 
497 498 468 164 207 208 
494 504 474 165 195 210 
211 493 171 1165 1161 1166 
167 180 212 667 668 669 
168 492 213 661 662 663 
214 488 177 657 653 658 
172 171 215 1158 1159 1160 
173 185 216 1153 1154 1155 
174 490 217 1149 1127 1150 
473 503 489 196 176 218 
177 488 219 653 643 654 
220 487 180 647 648 649 
182 181 221 1142 1143 1144 
496 508 115 183 222 747 
225 484 185 886 1138 1139 
482 502 481 198 186 226 
506 480 140 189 187 677 
480 506 479 189 188 228 
479 505 478 190 192 229 
478 505 477 192 191 230 
477 497 476 193 209 231 
474 504 475 195 194 232 
472 503 473 197 196 233 
471 502 482 199 198 234 
470 501 471 201 200 235 
475 500 470 203 202 236 
469 499 472 205 204 237 
468 498 469 207 206 238 
476 497 468 209 208 239 
494 474 461 210 241 242 
215 245 249 1133 1134 1135 
216 250 251 1128 1129 1130 
217 252 253 1123 1124 1125 
307 451 473 1047 255 254 
223 219 256 640 641 642 
583 263 223 1074 637 628 
582 261 264 1120 1121 1122 
445 482 481 265 226 268 
444 481 480 267 227 270 
443 480 479 269 228 272 
442 479 478 271 229 274 
441 478 477 273 230 276 
440 477 476 275 231 278 
474 475 436 232 280 281 
472 473 435 233 283 284 
471 482 446 234 266 286 
470 471 434 235 287 288 
464 475 470 279 236 289 
469 472 463 237 285 290 
468 469 433 238 291 292 
439 476 468 277 239 293 
461 474 462 241 240 295 
296 460 243 1071 1116 1117 
245 244 298 1107 1108 1109 
258 249 304 1100 1101 1102 
250 262 305 1095 1096 1097 
252 251 306 1088 1089 1090 
253 452 307 1084 1044 1085 
437 473 451 282 255 308 
633 314 591 871 832 1082 
262 261 316 1075 1076 1077 
318 629 578 854 810 809 
446 482 445 266 265 319 
445 481 444 268 267 320 
444 480 443 270 269 321 
443 479 442 272 271 322 
442 478 441 274 273 323 
441 477 440 276 275 324 
440 476 439 278 277 325 
436 475 464 280 279 326 
435 473 437 283 282 328 
463 472 435 285 284 329 
434 471 446 287 286 330 
464 470 434 289 288 331 
433 469 463 291 290 334 
439 468 433 293 292 335 
462 438 43 294 338 339 
461 462 45 295 340 341 
296 342 343 1068 1069 1070 
297 344 345 1063 1064 1065 
299 311 347 621 622 623 
301 300 348 616 617 618 
302 301 349 609 610 611 
309 303 350 602 603 604 
304 352 353 1058 1059 1060 
305 358 359 1053 1054 1055 
306 361 362 1048 1049 1050 
307 452 364 1044 934 1045 
437 451 109 308 367 368 
599 317 597 848 850 1042 
592 315 593 841 840 1040 
313 355 375 1035 1036 1037 
585 586 587 1032 1033 1034 
356 316 378 1027 1028 1029 
578 579 580 1024 1025 1026 
3 446 445 381 319 383 
7 445 444 384 320 386 
11 444 443 387 321 389 
15 443 442 390 322 392 
19 442 441 393 323 395 
23 441 440 396 324 398 
27 440 439 399 325 401 
432 438 436 336 327 408 
435 437 431 328 337 410 
429 463 435 333 329 411 
434 446 0 330 382 413 
430 464 434 332 331 414 
433 463 429 334 333 415 
1 439 433 402 335 416 
39 438 432 404 336 417 
431 437 940 337 407 418 
43 438 41 338 405 42 
45 462 43 340 339 44 
47 49 342 48 1019 1020 
344 343 51 1009 1010 1011 
346 345 1013 1000 1001 1002 
348 347 702 569 570 571 
350 349 75 560 561 562 
352 351 55 991 992 993 
354 353 979 984 985 986 
355 354 995 975 976 977 
357 356 89 968 969 970 
358 357 956 959 960 961 
360 359 972 952 953 954 
361 360 95 943 944 945 
363 362 99 936 937 938 
364 363 103 927 928 929 
107 451 105 366 365 106 
109 451 107 367 366 108 
931 437 109 406 368 110 
370 369 548 553 554 555 
371 370 690 544 545 546 
372 374 532 537 538 539 
374 373 696 528 529 530 
376 375 61 920 921 922 
924 523 524 915 916 917 
378 380 85 908 909 910 
516 911 518 903 904 905 
0 446 3 382 381 2 
3 445 5 383 385 4 
5 445 7 385 384 6 
7 444 9 386 388 8 
9 444 11 388 387 10 
11 443 13 389 391 12 
13 443 15 391 390 14 
15 442 17 392 394 16 
17 442 19 394 393 18 
19 441 21 395 397 20 
21 441 23 397 396 22 
23 440 25 398 400 24 
25 440 27 400 399 26 
27 439 29 401 403 28 
29 439 1 403 402 30 
41 438 39 405 404 40 
940 437 931 407 406 932 
432 430 31 409 423 419 
429 435 431 411 410 412 
93 429 431 426 412 422 
430 434 0 414 413 424 
1 433 429 416 415 428 
39 432 37 417 420 38 
947 431 940 421 418 941 
37 432 31 420 419 36 
93 431 947 422 421 948 
31 430 33 423 425 32 
33 430 0 425 424 34 
112 429 93 427 426 111 
1 429 112 428 427 113 
220 115 257 746 741 745 
518 899 519 896 897 898 
521 519 380 889 890 891 
630 264 225 882 883 884 
491 177 497 659 170 142 
481 502 140 186 676 152 
744 182 635 879 874 875 
120 247 467 753 735 707 
247 114 492 755 752 736 
114 120 488 754 710 751 
114 213 492 748 662 752 
213 214 491 750 660 665 
214 114 488 749 751 657 
115 220 496 746 652 747 
257 260 466 743 632 727 
182 485 635 878 870 874 
300 246 458 738 728 619 
246 116 487 740 737 729 
116 300 467 739 620 734 
116 212 487 731 670 737 
212 247 492 733 736 671 
247 116 467 732 734 735 
257 246 487 724 729 730 
246 117 458 726 723 728 
117 257 466 725 727 722 
117 299 458 719 625 723 
299 312 449 721 595 626 
312 117 466 720 722 596 
310 303 450 716 608 600 
303 118 457 718 715 605 
118 310 465 717 601 714 
118 248 457 711 708 715 
248 256 488 713 644 709 
256 118 465 712 714 645 
120 248 488 704 709 710 
248 302 457 706 613 708 
302 120 467 705 707 614 
311 71 573 699 72 624 
71 124 63 701 698 70 
124 311 449 700 627 695 
124 65 63 692 64 698 
65 372 67 694 542 66 
372 124 449 693 695 543 
369 79 81 687 80 556 
79 125 73 689 686 78 
125 369 450 688 559 683 
125 684 73 680 685 686 
684 309 564 682 606 565 
309 125 450 681 683 607 
167 140 502 678 676 679 
501 167 502 673 679 157 
140 168 506 675 666 677 
180 167 501 667 673 651 
167 212 492 669 671 672 
212 180 487 668 648 670 
506 168 213 666 663 664 
491 506 213 169 664 665 
491 214 177 660 658 659 
498 177 219 656 654 655 
495 498 219 178 655 646 
496 220 180 652 649 650 
501 496 180 179 650 651 
219 223 495 640 639 646 
223 256 465 642 645 636 
256 219 488 641 643 644 
495 223 263 639 637 638 
483 495 263 224 638 631 
633 635 634 867 868 869 
588 634 259 860 861 862 
629 318 630 854 855 856 
311 299 449 621 626 627 
299 347 458 623 577 625 
347 311 573 622 624 572 
300 301 467 616 615 620 
301 348 69 618 575 612 
348 300 458 617 619 576 
301 302 467 609 614 615 
302 349 457 611 568 613 
349 301 69 610 612 563 
303 309 450 602 607 608 
309 350 564 604 566 606 
350 303 457 603 605 567 
597 317 584 850 807 851 
599 550 581 845 846 847 
371 310 450 598 600 551 
590 315 592 835 841 842 
312 373 449 594 536 595 
593 589 531 836 837 838 
585 590 591 827 828 829 
587 523 589 818 819 820 
586 588 527 811 812 813 
578 583 584 802 803 804 
580 521 582 793 794 795 
579 581 516 784 785 786 
347 348 458 569 576 577 
348 702 69 571 703 575 
702 347 573 570 572 574 
349 350 457 560 567 568 
350 75 564 562 76 566 
75 349 69 561 563 74 
369 370 450 553 552 559 
370 548 557 555 549 547 
548 369 81 554 556 82 
370 371 450 544 551 552 
778 77 550 783 779 780 
690 370 557 545 547 558 
374 372 449 537 543 535 
372 532 67 539 68 542 
532 374 540 538 534 533 
373 374 449 528 535 536 
374 696 540 530 541 534 
531 59 773 772 777 774 
524 527 526 765 766 767 
762 526 376 756 757 758 
744 635 633 875 867 873 
260 744 633 877 873 872 
211 171 515 1166 166 1167 
494 211 515 1168 1167 138 
509 174 511 1152 144 132 
174 217 503 1150 175 1151 
629 583 578 1073 802 810 
465 583 223 805 628 636 
489 307 473 1086 254 218 
258 221 486 1196 1146 1105 
221 121 485 1198 1195 1147 
121 258 455 1197 1104 1194 
121 259 485 1191 864 1195 
259 313 448 1193 1038 865 
313 121 455 1192 1194 1039 
1189 346 1018 1186 1006 1023 
346 123 459 1188 1185 1007 
123 1189 35 1187 1190 1184 
123 298 459 1181 1111 1185 
298 351 456 1183 999 1112 
351 123 35 1182 1184 994 
243 211 494 1178 1168 1119 
211 126 493 1180 1177 1165 
126 243 460 1179 1116 1176 
126 244 493 1173 1115 1177 
244 297 459 1175 1066 1110 
297 126 460 1174 1176 1067 
173 174 509 1171 1152 1172 
507 173 509 1157 1172 143 
510 172 181 1163 1169 1170 
508 510 181 147 1170 1148 
171 172 510 1158 1163 1164 
172 215 486 1160 1136 1162 
215 171 493 1159 1161 1137 
185 173 507 1153 1157 1141 
173 216 490 1155 1131 1156 
216 185 484 1154 1138 1132 
181 182 508 1142 881 1148 
182 221 485 1144 1147 878 
221 181 486 1143 1145 1146 
225 185 507 1139 1141 1140 
483 225 507 887 1140 184 
245 215 493 1133 1137 1114 
215 249 486 1135 1106 1136 
249 245 456 1134 1113 1103 
250 216 484 1128 1132 1099 
216 251 490 1130 1094 1131 
251 250 453 1129 1098 1091 
252 217 490 1123 1127 1093 
217 253 489 1125 1087 1126 
253 252 452 1124 1092 1084 
261 582 447 1120 797 1078 
582 264 318 1122 888 798 
264 261 484 1121 1081 885 
461 296 243 1072 1117 1118 
494 461 243 242 1118 1119 
244 245 493 1107 1114 1115 
245 298 456 1109 1112 1113 
298 244 459 1108 1110 1111 
249 258 486 1100 1105 1106 
258 304 455 1102 1061 1104 
304 249 456 1101 1103 1062 
262 250 484 1095 1099 1080 
250 305 453 1097 1056 1098 
305 262 454 1096 1079 1057 
251 252 490 1088 1093 1094 
252 306 452 1090 1051 1092 
306 251 453 1089 1091 1052 
489 253 307 1087 1085 1086 
260 633 591 872 1082 1083 
466 260 591 632 1083 831 
261 262 484 1075 1080 1081 
262 316 454 1077 1031 1079 
316 261 447 1076 1078 1030 
583 629 263 1073 859 1074 
342 296 461 1068 1072 1022 
296 343 460 1070 1017 1071 
343 342 49 1069 1019 1012 
344 297 460 1063 1067 1016 
297 345 459 1065 1008 1066 
345 344 1004 1064 1015 1003 
352 304 456 1058 1062 998 
304 353 455 1060 990 1061 
353 352 57 1059 997 987 
358 305 454 1053 1057 966 
305 359 453 1055 958 1056 
359 358 963 1054 965 955 
361 306 453 1048 1052 950 
306 362 452 1050 942 1051 
362 361 97 1049 949 939 
451 307 364 1047 1045 1046 
105 451 364 365 1046 933 
371 599 597 849 1042 1043 
310 371 597 598 1043 852 
592 593 373 1040 839 1041 
312 592 373 844 1041 594 
355 313 455 1035 1039 982 
313 375 448 1037 926 1038 
375 355 53 1036 981 923 
586 585 314 1032 833 816 
585 587 315 1034 824 834 
587 586 377 1033 815 825 
316 356 454 1027 974 1031 
356 378 83 1029 913 971 
378 316 447 1028 1030 914 
579 578 317 1024 808 791 
578 580 318 1026 799 809 
580 579 379 1025 790 800 
45 47 342 46 1020 1021 
461 45 342 341 1021 1022 
343 344 460 1009 1016 1017 
344 51 1004 1011 52 1015 
51 343 49 1010 1012 50 
345 346 459 1000 1007 1008 
346 1013 1018 1002 1014 1006 
1013 345 1004 1001 1003 1005 
351 352 456 991 998 999 
352 55 57 993 56 997 
55 351 35 992 994 54 
353 354 455 984 983 990 
354 979 988 986 980 978 
979 353 57 985 987 58 
354 355 455 975 982 983 
355 995 53 977 996 981 
995 354 988 976 978 989 
356 357 454 968 967 974 
357 89 91 970 90 962 
89 356 83 969 971 88 
357 358 454 959 966 967 
358 956 963 961 957 965 
956 357 91 960 962 92 
359 360 453 952 951 958 
360 972 87 954 973 946 
972 359 963 953 955 964 
360 361 453 943 950 951 
361 95 97 945 96 949 
95 360 87 944 946 94 
362 363 452 936 935 942 
363 99 101 938 100 930 
99 362 97 937 939 98 
363 364 452 927 934 935 
364 103 105 929 104 933 
103 363 101 928 930 102 
375 376 448 920 760 926 
376 61 522 922 62 761 
61 375 53 921 923 60 
523 924 59 915 925 821 
924 524 918 917 769 919 
524 523 377 916 826 770 
380 378 447 908 914 894 
378 85 83 910 84 913 
85 380 517 909 893 86 
911 516 77 903 788 912 
516 518 379 905 900 789 
518 911 906 904 907 901 
899 518 906 896 901 902 
518 519 379 898 895 900 
519 899 517 897 520 892 
519 521 379 889 801 895 
521 380 447 891 894 796 
380 519 517 890 892 893 
264 630 318 882 855 888 
630 225 483 884 887 858 
225 264 484 883 885 886 
508 182 744 881 879 880 
115 508 744 222 880 876 
115 744 260 876 877 742 
633 634 314 869 866 871 
634 635 485 868 870 863 
634 588 314 860 817 866 
588 259 448 862 865 814 
259 634 485 861 863 864 
263 629 630 859 856 857 
483 263 630 631 857 858 
597 584 465 851 806 853 
310 597 465 852 853 601 
550 599 371 845 849 782 
599 581 317 847 792 848 
581 550 77 846 779 787 
466 590 592 830 842 843 
312 466 592 596 843 844 
589 593 315 836 840 823 
593 531 373 838 775 839 
531 589 59 837 822 772 
590 585 315 827 834 835 
585 591 314 829 832 833 
591 590 466 828 830 831 
523 587 377 818 825 826 
587 589 315 820 823 824 
589 523 59 819 821 822 
588 586 314 811 816 817 
586 527 377 813 771 815 
527 588 448 812 814 768 
578 584 317 804 807 808 
584 583 465 803 805 806 
521 580 379 793 800 801 
580 582 318 795 798 799 
582 521 447 794 796 797 
581 579 317 784 791 792 
579 516 379 786 789 790 
516 581 77 785 787 788 
690 778 550 691 780 781 
371 690 550 546 781 782 
531 773 696 774 697 776 
373 531 696 775 776 529 
527 524 377 765 770 771 
524 526 918 767 764 769 
526 527 448 766 768 759 
526 762 918 756 763 764 
762 376 522 758 761 525 
376 526 448 757 759 760 
1199 1200
1201 1202
1203 1204
1205 1206
1207 1208
1209 1210
1211 1212
1213 1214
1215 1216
1217 1218
1219 1220
1221 1222
1223 1224
1225 1226
1227 1228
1229 1230
1231 1232
1233 1234
1235 1236
1237 1238
1239 1240
1241 1242
1243 1244
1245 1246
1247 1248
1249 1250
1251 1252
1253 1254
1255 1256
1257 1258
1259 1260
1261 1262
1263 1264
1265 1266
1267 1268
1269 1270
1271 1272
1273 1274
1275 1276
1277 1278
1279 1280
1281 1282
1283 1284
1285 1286
1287 1288
1289 1290
1291 1292
1293 1294
1295 1296
1297 1298
1299 1300
1301 1302
1303 1304
1305 1306
1307 1308
1309 1310
1311 1312
1313 1314
1315 1316
1317 1318
1319 1320
1321 1322
1323 1324
1325 1326
1327 1328
1329 1330
1331 1332
1333 1334
1335 1336
1337 1338
1339 1340
1341 1342
1343 1344
1345 1346
1347 1348
1349 1350
1351 1352
1353 1354
1355 1356
1357 1358
1359 1360
1361 1362
1363 1364
1365 1366
1367 1368
1369 1370
1371 1372
1373 1374
1375 1376
1377 1378
1379 1380
1381 1382
1383 1384
1385 1386
1387 1388
1389 1390
1391 1392
1393 1394
1395 1396
1397 1398
1399 1400
1401 1402
1403 1404
1405 1406
1407 1408
1409 1410
1411 1412
1413 1414
1415 1416
1417 1418
1419 1420
1421 1422
1423 1424
1425 1426
1427 1428
1429 1430
1431 1432
1433 1434
1435 1436
1437 1438
1439 1440
1441 1442
1443 1444
1445 1446
1447 1448
1449 1450
1451 1452
1453 1454
1455 1456
1457 1458
1459 1460
1461 1462
1463 1464
1465 1466
1467 1468
1469 1470
1471 1472
1473 1474
1475 1476
1477 1478
1479 1480
1481 1482
1483 1484
1485 1486
1487 1488
1489 1490
1491 1492
1493 1494
1495 1496
1497 1498
1499 1500
1501 1502
1503 1504
1505 1506
1507 1508
1509 1510
1511 1512
1513 1514
1515 1516
1517 1518
1519 1520
1521 1522
1523 1524
1525 1526
1527 1528
1529 1530
1531 1532
1533 1534
1535 1536
1537 1538
1539 1540
1541 1542
1543 1544
1545 1546
1547 1548
1549 1550
1551 1552
1553 1554
1555 1556
1557 1558
1559 1560
1561 1562
1563 1564
1565 1566
1567 1568
1569 1570
1571 1572
1573 1574
1575 1576
1577 1578
1579 1580
1581 1582
1583 1584
1585 1586
1587 1588
1589 1590
1591 1592
1593 1594
1595 1596
1597 1598
1599 1600
1601 1602
1603 1604
1605 1606
1607 1608
1609 1610
1611 1612
1613 1614
1615 1616
1617 1618
1619 1620
1621 1622
1623 1624
1625 1626
1627 1628
1629 1630
1631 1632
1633 1634
1635 1636
1637 1638
1639 1640
1641 1642
1643 1644
1645 1646
1647 1648
1649 1650
1651 1652
1653 1654
1655 1656
1657 1658
1659 1660
1661 1662
1663 1664
1665 1666
1667 1668
1669 1670
1671 1672
1673 1674
1675 1676
1677 1678
1679 1680
1681 1682
1683 1684
1685 1686
1687 1688
1689 1690
1691 1692
1693 1694
1695 1696
1697 1698
1699 1700
1701 1702
1703 1704
1705 1706
1707 1708
1709 1710
1711 1712
1713 1714
1715 1716
1717 1718
1719 1720
1721 1722
1723 1724
1725 1726
1727 1728
1729 1730
1731 1732
1733 1734
1735 1736
1737 1738
1739 1740
1741 1742
1743 1744
1745 1746
1747 1748
1749 1750
1751 1752
1753 1754
1755 1756
1757 1758
1759 1760
1761 1762
1763 1764
1765 1766
1767 1768
1769 1770
1771 1772
1773 1774
1775 1776
1777 1778
1779 1780
1781 1782
1783 1784
1785 1786
1787 1788
1789 1790
1791 1792
1793 1794
1795 1796
1797 1798
1799 1800
1801 1802
1803 1804
1805 1806
1807 1808
1809 1810
1811 1812
1813 1814
1815 1816
1817 1818
1819 1820
1821 1822
1823 1824
1825 1826
1827 1828
1829 1830
1831 1832
1833 1834
1835 1836
1837 1838
1839 1840
1841 1842
1843 1844
1845 1846
1847 1848
1849 1850
1851 1852
1853 1854
1855 1856
1857 1858
1859 1860
1861 1862
1863 1864
1865 1866
1867 1868
1869 1870
1871 1872
1873 1874
1875 1876
1877 1878
1879 1880
1881 1882
1883 1884
1885 1886
1887 1888
1889 1890
1891 1892
1893 1894
1895 1896
1897 1898
1899 1900
1901 1902
1903 1904
1905 1906
1907 1908
1909 1910
1911 1912
1913 1914
1915 1916
1917 1918
1919 1920
1921 1922
1923 1924
1925 1926
1927 1928
1929 1930
1931 1932
1933 1934
1935 1936
1937 1938
1939 1940
1941 1942
1943 1944
1945 1946
1947 1948
1949 1950
1951 1952
1953 1954
1955 1956
1957 1958
1959 1960
1961 1962
1963 1964
1965 1966
1967 1968
1969 1970
1971 1972
1973 1974
1975 1976
1977 1978
1979 1980
1981 1982
1983 1984
1985 1986
1987 1988
1989 1990
1991 1992
1993 1994
1995 1996
1997 1998
1999 2000
2001 2002
2003 2004
2005 2006
2007 2008
2009 2010
2011 2012
2013 2014
2015 2016
2017 2018
2019 2020
2021 2022
2023 2024
2025 2026
2027 2028
2029 2030
2031 2032
2033 2034
2035 2036
2037 2038
2039 2040
2041 2042
2043 2044
2045 2046
2047 2048
2049 2050
2051 2052
2053 2054
2055 2056
2057 2058
2059 2060
2061 2062
2063 2064
2065 2066
2067 2068
2069 2070
2071 2072
2073 2074
2075 2076
2077 2078
2079 2080
2081 2082
2083 2084
2085 2086
2087 2088
2089 2090
2091 2092
2093 2094
2095 2096
2097 2098
2099 2100
2101 2102
2103 2104
2105 2106
2107 2108
2109 2110
2111 2112
2113 2114
2115 2116
2117 2118
2119 2120
2121 2122
2123 2124
2125 2126
2127 2128
2129 2130
2131 2132
2133 2134
2135 2136
2137 2138
2139 2140
2141 2142
2143 2144
2145 2146
2147 2148
2149 2150
2151 2152
2153 2154
2155 2156
2157 2158
2159 2160
2161 2162
2163 2164
2165 2166
2167 2168
2169 2170
2171 2172
2173 2174
2175 2176
2177 2178
2179 2180
2181 2182
2183 2184
2185 2186
2187 2188
2189 2190
2191 2192
2193 2194
2195 2196
2197 2198
2199 2200
2201 2202
2203 2204
2205 2206
2207 2208
2209 2210
2211 2212
2213 2214
2215 2216
2217 2218
2219 2220
2221 2222
2223 2224
2225 2226
2227 2228
2229 2230
2231 2232
2233 2234
2235 2236
2237 2238
2239 2240
2241 2242
2243 2244
2245 2246
2247 2248
2249 2250
2251 2252
2253 2254
2255 2256
2257 2258
2259 2260
2261 2262
2263 2264
2265 2266
2267 2268
2269 2270
2271 2272
2273 2274
2275 2276
2277 2278
2279 2280
2281 2282
2283 2284
2285 2286
2287 2288
2289 2290
2291 2292
2293 2294
2295 2296
2297 2298
2299 2300
2301 2302
2303 2304
2305 2306
2307 2308
2309 2310
2311 2312
2313 2314
2315 2316
2317 2318
2319 2320
2321 2322
2323 2324
2325 2326
2327 2328
2329 2330
2331 2332
2333 2334
2335 2336
2337 2338
2339 2340
2341 2342
2343 2344
2345 2346
2347 2348
2349 2350
2351 2352
2353 2354
2355 2356
2357 2358
2359 2360
2361 2362
2363 2364
2365 2366
2367 2368
2369 2370
2371 2372
2373 2374
2375 2376
2377 2378
2379 2380
2381 2382
2383 2384
2385 2386
2387 2388
2389 2390
2391 2392
2393 2394
2395 2396
2397 2398
2399 2400
2401 2402
2403 2404
2405 2406
2407 2408
2409 2410
2411 2412
2413 2414
2415 2416
2417 2418
2419 2420
2421 2422
2423 2424
2425 2426
2427 2428
2429 2430
2431 2432
2433 2434
2435 2436
2437 2438
2439 2440
2441 2442
2443 2444
2445 2446
2447 2448
2449 2450
2451 2452
2453 2454
2455 2456
2457 2458
2459 2460
2461 2462
2463 2464
2465 2466
2467 2468
2469 2470
2471 2472
2473 2474
2475 2476
2477 2478
2479 2480
2481 2482
2483 2484
2485 2486
2487 2488
2489 2490
2491 2492
2493 2494
2495 2496
2497 2498
2499 2500
2501 2502
2503 2504
2505 2506
2507 2508
2509 2510
2511 2512
2513 2514
2515 2516
2517 2518
2519 2520
2521 2522
2523 2524
2525 2526
2527 2528
2529 2530
2531 2532
2533 2534
2535 2536
2537 2538
2539 2540
2541 2542
2543 2544
2545 2546
2547 2548
2549 2550
2551 2552
2553 2554
2555 2556
2557 2558
2559 2560
2561 2562
2563 2564
2565 2566
2567 2568
2569 2570
2571 2572
2573 2574
2575 2576
2577 2578
2579 2580
2581 2582
2583 2584
2585 2586
2587 2588
2589 2590
2591 2592
2593 2594
2595 2596
2597 2598
2599 2600
2601 2602
2603 2604
2605 2606
2607 2608
2609 2610
2611 2612
2613 2614
2615 2616
2617 2618
2619 2620
2621 2622
2623 2624
2625 2626
2627 2628
2629 2630
2631 2632
2633 2634
2635 2636
2637 2638
2639 2640
2641 2642
2643 2644
2645 2646
2647 2648
2649 2650
2651 2652
2653 2654
2655 2656
2657 2658
2659 2660
2661 2662
2663 2664
2665 2666
2667 2668
2669 2670
2671 2672
2673 2674
2675 2676
2677 2678
2679 2680
2681 2682
2683 2684
2685 2686
2687 2688
2689 2690
2691 2692
2693 2694
2695 2696
2697 2698
2699 2700
2701 2702
2703 2704
2705 2706
2707 2708
2709 2710
2711 2712
2713 2714
2715 2716
2717 2718
2719 2720
2721 2722
2723 2724
2725 2726
2727 2728
2729 2730
2731 2732
2733 2734
2735 2736
2737 2738
2739 2740
2741 2742
2743 2744
2745 2746
2747 2748
2749 2750
2751 2752
2753 2754
2755 2756
2757 2758
2759 2760
2761 2762
2763 2764
2765 2766
2767 2768
2769 2770
2771 2772
2773 2774
2775 2776
2777 2778
2779 2780
2781 2782
2783 2784
2785 2786
2787 2788
2789 2790
2791 2792
2793 2794
2795 2796
2797 2798
2799 2800
2801 2802
2803 2804
2805 2806
2807 2808
2809 2810
2811 2812
2813 2814
2815 2816
2817 2818
2819 2820
2821 2822
2823 2824
2825 2826
2827 2828
2829 2830
2831 2832
2833 2834
2835 2836
2837 2838
2839 2840
2841 2842
2843 2844
2845 2846
2847 2848
2849 2850
2851 2852
2853 2854
2855 2856
2857 2858
2859 2860
2861 2862
2863 2864
2865 2866
2867 2868
2869 2870
2871 2872
2873 2874
2875 2876
2877 2878
2879 2880
2881 2882
2883 2884
2885 2886
2887 2888
2889 2890
2891 2892
2893 2894
2895 2896
2897 2898
2899 2900
2901 2902
2903 2904
2905 2906
2907 2908
2909 2910
2911 2912
2913 2914
2915 2916
2917 2918
2919 2920
2921 2922
2923 2924
2925 2926
2927 2928
2929 2930
2931 2932
2933 2934
2935 2936
2937 2938
2939 2940
2941 2942
2943 2944
2945 2946
2947 2948
2949 2950
2951 2952
2953 2954
2955 2956
2957 2958
2959 2960
2961 2962
2963 2964
2965 2966
2967 2968
2969 2970
2971 2972
2973 2974
2975 2976
2977 2978
2979 2980
2981 2982
2983 2984
2985 2986
2987 2988
2989 2990
2991 2992
2993 2994
2995 2996
2997 2998
2999 3000
3001 3002
3003 3004
3005 3006
3007 3008
3009 3010
3011 3012
3013 3014
3015 3016
3017 3018
3019 3020
3021 3022
3023 3024
3025 3026
3027 3028
3029 3030
3031 3032
3033 3034
3035 3036
3037 3038
3039 3040
3041 3042
3043 3044
3045 3046
3047 3048
3049 3050
3051 3052
3053 3054
3055 3056
3057 3058
3059 3060
3061 3062
3063 3064
3065 3066
3067 3068
3069 3070
3071 3072
3073 3074
3075 3076
3077 3078
3079 3080
3081 3082
3083 3084
3085 3086
3087 3088
3089 3090
3091 3092
3093 3094
3095 3096
3097 3098
3099 3100
3101 3102
3103 3104
3105 3106
3107 3108
3109 3110
3111 3112
3113 3114
3115 3116
3117 3118
3119 3120
3121 3122
3123 3124
3125 3126
3127 3128
3129 3130
3131 3132
3133 3134
3135 3136
3137 3138
3139 3140
3141 3142
3143 3144
3145 3146
3147 3148
3149 3150
3151 3152
3153 3154
3155 3156
3157 3158
3159 3160
3161 3162
3163 3164
3165 3166
3167 3168
3169 3170
3171 3172
3173 3174
3175 3176
3177 3178
3179 3180
3181 3182
3183 3184
3185 3186
3187 3188
3189 3190
3191 3192
3193 3194
3195 3196
3197 3198
3199 3200
3201 3202
3203 3204
3205 3206
3207 3208
3209 3210
3211 3212
3213 3214
3215 3216
3217 3218
3219 3220
3221 3222
3223 3224
3225 3226
3227 3228
3229 3230
3231 3232
3233 3234
3235 3236
3237 3238
3239 3240
3241 3242
3243 3244
3245 3246
3247 3248
3249 3250
3251 3252
3253 3254
3255 3256
3257 3258
3259 3260
3261 3262
3263 3264
3265 3266
3267 3268
3269 3270
3271 3272
3273 3274
3275 3276
3277 3278
3279 3280
3281 3282
3283 3284
3285 3286
3287 3288
3289 3290
3291 3292
3293 3294
3295 3296
3297 3298
3299 3300
3301 3302
3303 3304
3305 3306
3307 3308
3309 3310
3311 3312
3313 3314
3315 3316
3317 3318
3319 3320
3321 3322
3323 3324
3325 3326
3327 3328
3329 3330
3331 3332
3333 3334
3335 3336
3337 3338
3339 3340
3341 3342
3343 3344
3345 3346
3347 3348
3349 3350
3351 3352
3353 3354
3355 3356
3357 3358
3359 3360
3361 3362
3363 3364
3365 3366
3367 3368
3369 3370
3371 3372
3373 3374
3375 3376
3377 3378
3379 3380
3381 3382
3383 3384
3385 3386
3387 3388
3389 3390
3391 3392
3393 3394
3395 3396
3397 3398
3399 3400
3401 3402
3403 3404
3405 3406
3407 3408
3409 3410
3411 3412
3413 3414
3415 3416
3417 3418
3419 3420
3421 3422
3423 3424
3425 3426
3427 3428
3429 3430
3431 3432
3433 3434
3435 3436
3437 3438
3439 3440
3441 3442
3443 3444
3445 3446
3447 3448
3449 3450
3451 3452
3453 3454
3455 3456
3457 3458
3459 3460
3461 3462
3463 3464
3465 3466
3467 3468
3469 3470
3471 3472
3473 3474
3475 3476
3477 3478
3479 3480
3481 3482
3483 3484
3485 3486
      </DataArray>
      <DataArray type="Int32" Name="offsets" format="ascii">
6
12
18
24
30
36
42
48
54
60
66
72
78
84
90
96
102
108
114
120
126
132
138
144
150
156
162
168
174
180
186
192
198
204
210
216
222
228
234
240
246
252
258
264
270
276
282
288
294
300
306
312
318
324
330
336
342
348
354
360
366
372
378
384
390
396
402
408
414
420
426
432
438
444
450
456
462
468
474
480
486
492
498
504
510
516
522
528
534
540
546
552
558
564
570
576
582
588
594
600
606
612
618
624
630
636
642
648
654
660
666
672
678
684
690
696
702
708
714
720
726
732
738
744
750
756
762
768
774
780
786
792
798
804
810
816
822
828
834
840
846
852
858
864
870
876
882
888
894
900
906
912
918
924
930
936
942
948
954
960
966
972
978
984
990
996
1002
1008
1014
1020
1026
1032
1038
1044
1050
1056
1062
1068
1074
1080
1086
1092
1098
1104
1110
1116
1122
1128
1134
1140
1146
1152
1158
1164
1170
1176
1182
1188
1194
1200
1206
1212
1218
1224
1230
1236
1242
1248
1254
1260
1266
1272
1278
1284
1290
1296
1302
1308
1314
1320
1326
1332
1338
1344
1350
1356
1362
1368
1374
1380
1386
1392
1398
1404
1410
1416
1422
1428
1434
1440
1446
1452
1458
1464
1470
1476
1482
1488
1494
1500
1506
1512
1518
1524
1530
1536
1542
1548
1554
1560
1566
1572
1578
1584
1590
1596
1602
1608
1614
1620
1626
1632
1638
1644
1650
1656
1662
1668
1674
1680
1686
1692
1698
1704
1710
1716
1722
1728
1734
1740
1746
1752
1758
1764
1770
1776
1782
1788
1794
1800
1806
1812
1818
1824
1830
1836
1842
1848
1854
1860
1866
1872
1878
1884
1890
1896
1902
1908
1914
1920
1926
1932
1938
1944
1950
1956
1962
1968
1974
1980
1986
1992
1998
2004
2010
2016
2022
2028
2034
2040
2046
2052
2058
2064
2070
2076
2082
2088
2094
2100
2106
2112
2118
2124
2130
2136
2142
2148
2154
2160
2166
2172
2178
2184
2190
2196
2202
2208
2214
2220
2226
2232
2238
2244
2250
2256
2262
2268
2274
2280
2286
2292
2298
2304
2310
2316
2322
2328
2334
2340
2346
2352
2358
2364
2370
2376
2382
2388
2394
2400
2406
2412
2418
2424
2430
2436
2442
2448
2454
2460
2466
2472
2478
2484
2490
2496
2502
2508
2514
2520
2526
2532
2538
2544
2550
2556
2562
2568
2574
2580
2586
2592
2598
2604
2610
2616
2622
2628
2634
2640
2646
2652
2658
2664
2670
2676
2682
2688
2694
2700
2706
2712
2718
2724
2730
2736
2742
2748
2754
2760
2766
2772
2778
2784
2790
2796
2802
2808
2814
2820
2826
2832
2838
2844
2850
2856
2862
2868
2874
2880
2886
2892
2898
2904
2910
2916
2922
2928
2934
2940
2946
2952
2958
2964
2970
2976
2982
2988
2994
3000
3006
3012
3018
3024
3030
3036
3042
3048
3054
3060
3066
3072
3078
3084
3090
3096
3102
3108
3114
3120
3126
3132
3138
3144
3150
3156
3162
3168
3174
3180
3186
3192
3198
3204
3210
3216
3222
3228
3234
3240
3246
3252
3258
3264
3270
3276
3282
3288
3294
3300
3306
3312
3318
3324
3326
3328
3330
3332
3334
3336
3338
3340
3342
3344
3346
3348
3350
3352
3354
3356
3358
3360
3362
3364
3366
3368
3370
3372
3374
3376
3378
3380
3382
3384
3386
3388
3390
3392
3394
3396
3398
3400
3402
3404
3406
3408
3410
3412
3414
3416
3418
3420
3422
3424
3426
3428
3430
3432
3434
3436
3438
3440
3442
3444
3446
3448
3450
3452
3454
3456
3458
3460
3462
3464
3466
3468
3470
3472
3474
3476
3478
3480
3482
3484
3486
3488
3490
3492
3494
3496
3498
3500
3502
3504
3506
3508
3510
3512
3514
3516
3518
3520
3522
3524
3526
3528
3530
3532
3534
3536
3538
3540
3542
3544
3546
3548
3550
3552
3554
3556
3558
3560
3562
3564
3566
3568
3570
3572
3574
3576
3578
3580
3582
3584
3586
3588
3590
3592
3594
3596
3598
3600
3602
3604
3606
3608
3610
3612
3614
3616
3618
3620
3622
3624
3626
3628
3630
3632
3634
3636
3638
3640
3642
3644
3646
3648
3650
3652
3654
3656
3658
3660
3662
3664
3666
3668
3670
3672
3674
3676
3678
3680
3682
3684
3686
3688
3690
3692
3694
3696
3698
3700
3702
3704
3706
3708
3710
3712
3714
3716
3718
3720
3722
3724
3726
3728
3730
3732
3734
3736
3738
3740
3742
3744
3746
3748
3750
3752
3754
3756
3758
3760
3762
3764
3766
3768
3770
3772
3774
3776
3778
3780
3782
3784
3786
3788
3790
3792
3794
3796
3798
3800
3802
3804
3806
3808
3810
3812
3814
3816
3818
3820
3822
3824
3826
3828
3830
3832
3834
3836
3838
3840
3842
3844
3846
3848
3850
3852
3854
3856
3858
3860
3862
3864
3866
3868
3870
3872
3874
3876
3878
3880
3882
3884
3886
3888
3890
3892
3894
3896
3898
3900
3902
3904
3906
3908
3910
3912
3914
3916
3918
3920
3922
3924
3926
3928
3930
3932
3934
3936
3938
3940
3942
3944
3946
3948
3950
3952
3954
3956
3958
3960
3962
3964
3966
3968
3970
3972
3974
3976
3978
3980
3982
3984
3986
3988
3990
3992
3994
3996
3998
4000
4002
4004
4006
4008
4010
4012
4014
4016
4018
4020
4022
4024
4026
4028
4030
4032
4034
4036
4038
4040
4042
4044
4046
4048
4050
4052
4054
4056
4058
4060
4062
4064
4066
4068
4070
4072
4074
4076
4078
4080
4082
4084
4086
4088
4090
4092
4094
4096
4098
4100
4102
4104
4106
4108
4110
4112
4114
4116
4118
4120
4122
4124
4126
4128
4130
4132
4134
4136
4138
4140
4142
4144
4146
4148
4150
4152
4154
4156
4158
4160
4162
4164
4166
4168
4170
4172
4174
4176
4178
4180
4182
4184
4186
4188
4190
4192
4194
4196
4198
4200
4202
4204
4206
4208
4210
4212
4214
4216
4218
4220
4222
4224
4226
4228
4230
4232
4234
4236
4238
4240
4242
4244
4246
4248
4250
4252
4254
4256
4258
4260
4262
4264
4266
4268
4270
4272
4274
4276
4278
4280
4282
4284
4286
4288
4290
4292
4294
4296
4298
4300
4302
4304
4306
4308
4310
4312
4314
4316
4318
4320
4322
4324
4326
4328
4330
4332
4334
4336
4338
4340
4342
4344
4346
4348
4350
4352
4354
4356
4358
4360
4362
4364
4366
4368
4370
4372
4374
4376
4378
4380
4382
4384
4386
4388
4390
4392
4394
4396
4398
4400
4402
4404
4406
4408
4410
4412
4414
4416
4418
4420
4422
4424
4426
4428
4430
4432
4434
4436
4438
4440
4442
4444
4446
4448
4450
4452
4454
4456
4458
4460
4462
4464
4466
4468
4470
4472
4474
4476
4478
4480
4482
4484
4486
4488
4490
4492
4494
4496
4498
4500
4502
4504
4506
4508
4510
4512
4514
4516
4518
4520
4522
4524
4526
4528
4530
4532
4534
4536
4538
4540
4542
4544
4546
4548
4550
4552
4554
4556
4558
4560
4562
4564
4566
4568
4570
4572
4574
4576
4578
4580
4582
4584
4586
4588
4590
4592
4594
4596
4598
4600
4602
4604
4606
4608
4610
4612
4614
4616
4618
4620
4622
4624
4626
4628
4630
4632
4634
4636
4638
4640
4642
4644
4646
4648
4650
4652
4654
4656
4658
4660
4662
4664
4666
4668
4670
4672
4674
4676
4678
4680
4682
4684
4686
4688
4690
4692
4694
4696
4698
4700
4702
4704
4706
4708
4710
4712
4714
4716
4718
4720
4722
4724
4726
4728
4730
4732
4734
4736
4738
4740
4742
4744
4746
4748
4750
4752
4754
4756
4758
4760
4762
4764
4766
4768
4770
4772
4774
4776
4778
4780
4782
4784
4786
4788
4790
4792
4794
4796
4798
4800
4802
4804
4806
4808
4810
4812
4814
4816
4818
4820
4822
4824
4826
4828
4830
4832
4834
4836
4838
4840
4842
4844
4846
4848
4850
4852
4854
4856
4858
4860
4862
4864
4866
4868
4870
4872
4874
4876
4878
4880
4882
4884
4886
4888
4890
4892
4894
4896
4898
4900
4902
4904
4906
4908
4910
4912
4914
4916
4918
4920
4922
4924
4926
4928
4930
4932
4934
4936
4938
4940
4942
4944
4946
4948
4950
4952
4954
4956
4958
4960
4962
4964
4966
4968
4970
4972
4974
4976
4978
4980
4982
4984
4986
4988
4990
4992
4994
4996
4998
5000
5002
5004
5006
5008
5010
5012
5014
5016
5018
5020
5022
5024
5026
5028
5030
5032
5034
5036
5038
5040
5042
5044
5046
5048
5050
5052
5054
5056
5058
5060
5062
5064
5066
5068
5070
5072
5074
5076
5078
5080
5082
5084
5086
5088
5090
5092
5094
5096
5098
5100
5102
5104
5106
5108
5110
5112
5114
5116
5118
5120
5122
5124
5126
5128
5130
5132
5134
5136
5138
5140
5142
5144
5146
5148
5150
5152
5154
5156
5158
5160
5162
5164
5166
5168
5170
5172
5174
5176
5178
5180
5182
5184
5186
5188
5190
5192
5194
5196
5198
5200
5202
5204
5206
5208
5210
5212
5214
5216
5218
5220
5222
5224
5226
5228
5230
5232
5234
5236
5238
5240
5242
5244
5246
5248
5250
5252
5254
5256
5258
5260
5262
5264
5266
5268
5270
5272
5274
5276
5278
5280
5282
5284
5286
5288
5290
5292
5294
5296
5298
5300
5302
5304
5306
5308
5310
5312
5314
5316
5318
5320
5322
5324
5326
5328
5330
5332
5334
5336
5338
5340
5342
5344
5346
5348
5350
5352
5354
5356
5358
5360
5362
5364
5366
5368
5370
5372
5374
5376
5378
5380
5382
5384
5386
5388
5390
5392
5394
5396
5398
5400
5402
5404
5406
5408
5410
5412
5414
5416
5418
5420
5422
5424
5426
5428
5430
5432
5434
5436
5438
5440
5442
5444
5446
5448
5450
5452
5454
5456
5458
5460
5462
5464
5466
5468
5470
5472
5474
5476
5478
5480
5482
5484
5486
5488
5490
5492
5494
5496
5498
5500
5502
5504
5506
5508
5510
5512
5514
5516
5518
5520
5522
5524
5526
5528
5530
5532
5534
5536
5538
5540
5542
5544
5546
5548
5550
5552
5554
5556
5558
5560
5562
5564
5566
5568
5570
5572
5574
5576
5578
5580
5582
5584
5586
5588
5590
5592
5594
5596
5598
5600
5602
5604
5606
5608
5610
5612
      </DataArray>
      <DataArray type="UInt8" Name="types" format="ascii">
69
69
69
69
69
69
69
69
69
69
69
69
69
69
69
69
69
69
69
69
69
69
69
69
69
69
69
69
69
69
69
69
69
69
69
69
69
69
69
69
69
69
69
69
69
69
69
69
69
69
69
69
69
69
69
69
69
69
69
69
69
69
69
69
69
69
69
69
69
69
69
69
69
69
69
69
69
69
69
69
69
69
69
69
69
69
69
69
69
69
69
69
69
69
69
69
69
69
69
69
69
69
69
69
69
69
69
69
69
69
69
69
69
69
69
69
69
69
69
69
69
69
69
69
69
69
69
69
69
69
69
69
69
69
69
69
69
69
69
69
69
69
69
69
69
69
69
69
69
69
69
69
69
69
69
69
69
69
69
69
69
69
69
69
69
69
69
69
69
69
69
69
69
69
69
69
69
69
69
69
69
69
69
69
69
69
69
69
69
69
69
69
69
69
69
69
69
69
69
69
69
69
69
69
69
69
69
69
69
69
69
69
69
69
69
69
69
69
69
69
69
69
69
69
69
69
69
69
69
69
69
69
69
69
69
69
69
69
69
69
69
69
69
69
69
69
69
69
69
69
69
69
69
69
69
69
69
69
69
69
69
69
69
69
69
69
69
69
69
69
69
69
69
69
69
69
69
69
69
69
69
69
69
69
69
69
69
69
69
69
69
69
69
69
69
69
69
69
69
69
69
69
69
69
69
69
69
69
69
69
69
69
69
69
69
69
69
69
69
69
69
69
69
69
69
69
69
69
69
69
69
69
69
69
69
69
69
69
69
69
69
69
69
69
69
69
69
69
69
69
69
69
69
69
69
69
69
69
69
69
69
69
69
69
69
69
69
69
69
69
69
69
69
69
69
69
69
69
69
69
69
69
69
69
69
69
69
69
69
69
69
69
69
69
69
69
69
69
69
69
69
69
69
69
69
69
69
69
69
69
69
69
69
69
69
69
69
69
69
69
69
69
69
69
69
69
69
69
69
69
69
69
69
69
69
69
69
69
69
69
69
69
69
69
69
69
69
69
69
69
69
69
69
69
69
69
69
69
69
69
69
69
69
69
69
69
69
69
69
69
69
69
69
69
69
69
69
69
69
69
69
69
69
69
69
69
69
69
69
69
69
69
69
69
69
69
69
69
69
69
69
69
69
69
69
69
69
69
69
69
69
69
69
69
69
69
69
69
69
69
69
69
69
69
69
69
69
69
69
69
69
69
69
69
69
69
69
69
69
69
69
69
69
69
69
69
69
69
69
69
69
69
69
69
3
3
3
3
3
3
3
3
3
3
3
3
3
3
3
3
3
3
3
3
3
3
3
3
3
3
3
3
3
3
3
3
3
3
3
3
3
3
3
3
3
3
3
3
3
3
3
3
3
3
3
3
3
3
3
3
3
3
3
3
3
3
3
3
3
3
3
3
3
3
3
3
3
3
3
3
3
3
3
3
3
3
3
3
3
3
3
3
3
3
3
3
3
3
3
3
3
3
3
3
3
3
3
3
3
3
3
3
3
3
3
3
3
3
3
3
3
3
3
3
3
3
3
3
3
3
3
3
3
3
3
3
3
3
3
3
3
3
3
3
3
3
3
3
3
3
3
3
3
3
3
3
3
3
3
3
3
3
3
3
3
3
3
3
3
3
3
3
3
3
3
3
3
3
3
3
3
3
3
3
3
3
3
3
3
3
3
3
3
3
3
3
3
3
3
3
3
3
3
3
3
3
3
3
3
3
3
3
3
3
3
3
3
3
3
3
3
3
3
3
3
3
3
3
3
3
3
3
3
3
3
3
3
3
3
3
3
3
3
3
3
3
3
3
3
3
3
3
3
3
3
3
3
3
3
3
3
3
3
3
3
3
3
3
3
3
3
3
3
3
3
3
3
3
3
3
3
3
3
3
3
3
3
3
3
3
3
3
3
3
3
3
3
3
3
3
3
3
3
3
3
3
3
3
3
3
3
3
3
3
3
3
3
3
3
3
3
3
3
3
3
3
3
3
3
3
3
3
3
3
3
3
3
3
3
3
3
3
3
3
3
3
3
3
3
3
3
3
3
3
3
3
3
3
3
3
3
3
3
3
3
3
3
3
3
3
3
3
3
3
3
3
3
3
3
3
3
3
3
3
3
3
3
3
3
3
3
3
3
3
3
3
3
3
3
3
3
3
3
3
3
3
3
3
3
3
3
3
3
3
3
3
3
3
3
3
3
3
3
3
3
3
3
3
3
3
3
3
3
3
3
3
3
3
3
3
3
3
3
3
3
3
3
3
3
3
3
3
3
3
3
3
3
3
3
3
3
3
3
3
3
3
3
3
3
3
3
3
3
3
3
3
3
3
3
3
3
3
3
3
3
3
3
3
3
3
3
3
3
3
3
3
3
3
3
3
3
3
3
3
3
3
3
3
3
3
3
3
3
3
3
3
3
3
3
3
3
3
3
3
3
3
3
3
3
3
3
3
3
3
3
3
3
3
3
3
3
3
3
3
3
3
3
3
3
3
3
3
3
3
3
3
3
3
3
3
3
3
3
3
3
3
3
3
3
3
3
3
3
3
3
3
3
3
3
3
3
3
3
3
3
3
3
3
3
3
3
3
3
3
3
3
3
3
3
3
3
3
3
3
3
3
3
3
3
3
3
3
3
3
3
3
3
3
3
3
3
3
3
3
3
3
3
3
3
3
3
3
3
3
3
3
3
3
3
3
3
3
3
3
3
3
3
3
3
3
3
3
3
3
3
3
3
3
3
3
3
3
3
3
3
3
3
3
3
3
3
3
3
3
3
3
3
3
3
3
3
3
3
3
3
3
3
3
3
3
3
3
3
3
3
3
3
3
3
3
3
3
3
3
3
3
3
3
3
3
3
3
3
3
3
3
3
3
3
3
3
3
3
3
3
3
3
3
3
3
3
3
3
3
3
3
3
3
3
3
3
3
3
3
3
3
3
3
3
3
3
3
3
3
3
3
3
3
3
3
3
3
3
3
3
3
3
3
3
3
3
3
3
3
3
3
3
3
3
3
3
3
3
3
3
3
3
3
3
3
3
3
3
3
3
3
3
3
3
3
3
3
3
3
3
3
3
3
3
3
3
3
3
3
3
3
3
3
3
3
3
3
3
3
3
3
3
3
3
3
3
3
3
3
3
3
3
3
3
3
3
3
3
3
3
3
3
3
3
3
3
3
3
3
3
3
3
3
3
3
3
3
3
3
3
3
3
3
3
3
3
3
3
3
3
3
3
3
3
3
3
3
3
3
3
3
3
3
3
3
3
3
3
3
3
3
3
3
3
3
3
3
3
3
3
3
3
3
3
3
3
3
3
3
3
3
3
3
3
3
3
3
3
3
3
3
3
3
3
3
3
3
3
3
3
3
3
3
3
3
3
3
3
3
3
3
3
3
3
3
3
3
3
3
3
3
3
3
3
3
3
3
3
3
3
3
3
3
3
3
3
3
3
3
3
3
3
3
3
3
3
3
3
3
3
3
3
3
3
3
3
3
3
3
3
3
3
3
3
3
3
3
3
3
3
3
3
3
3
3
3
3
3
3
3
3
3
3
3
3
3
3
3
3
3
3
3
3
3
3
3
3
3
3
3
3
3
3
3
3
3
3
3
3
3
3
3
3
3
3
3
3
3
3
3
3
3
3
3
3
3
3
3
3
3
3
3
3
3
3
3
3
3
3
3
3
3
3
3
3
3
3
3
3
3
3
3
3
3
3
3
3
3
3
3
3
3
3
3
3
3
3
3
3
3
3
3
3
3
3
3
3
3
3
3
3
3
3
3
3
3
3
3
3
3
3
3
3
3
3
3
3
3
3
3
3
3
3
3
3
3
3
3
3
3
3
3
3
      </DataArray>
    </Cells>
    <PointData>
      <DataArray type="Float64" NumberOfComponents="2" Name="Displacement" format="ascii">
-0.000356312 -0.131722
0.000552562 -0.132048
-6.49289e-05 -0.131538
0.000141135 -0.131355
0.000250949 -0.131229
0.000327202 -0.131124
0.000373065 -0.131046
0.000401719 -0.130991
0.000411553 -0.130945
0.000409733 -0.130912
0.000396254 -0.130892
0.000374551 -0.130882
0.000344391 -0.130874
0.000308642 -0.130872
0.000267789 -0.130877
0.000224 -0.130887
0.000177591 -0.130896
0.000130624 -0.130909
8.41703e-05 -0.130927
3.96958e-05 -0.13095
-1.18117e-06 -0.130973
-3.75978e-05 -0.131002
-6.77541e-05 -0.131039
-9.04411e-05 -0.131084
-0.000102117 -0.131134
-0.000103268 -0.131198
-8.98778e-05 -0.131278
-6.07211e-05 -0.131377
3.42467e-06 -0.131487
9.57194e-05 -0.131635
0.000269739 -0.131838
-0.00217751 -0.131502
-0.00175375 -0.131514
-0.00133281 -0.13154
-0.000897016 -0.131605
-0.0370018 -0.166273
-0.00259003 -0.131507
-0.00300413 -0.131521
-0.00360885 -0.131553
-0.0042201 -0.131599
-0.00510887 -0.13169
-0.00601031 -0.13181
-0.00733506 -0.132033
-0.00867887 -0.132315
-0.010646 -0.132831
-0.012629 -0.133472
-0.0140605 -0.134011
-0.0154862 -0.134615
-0.0168983 -0.135288
-0.0182908 -0.136021
-0.0202577 -0.137189
-0.0221602 -0.138474
-0.0239783 -0.139871
-0.0194986 -0.183813
-0.0366831 -0.16955
-0.0359949 -0.172467
-0.0350296 -0.174992
-0.0338454 -0.177132
-0.0325256 -0.178918
0.0240864 -0.115016
-0.0163076 -0.183356
-0.012509 -0.182165
-0.00806058 -0.180119
0 0
-0.00920955 -0.00836009
-0.0130286 -0.0138905
-0.0135765 -0.0183626
-0.0113461 -0.0238148
-0.0082654 -0.0290916
-0.000113024 -0.12507
0 0
0 0
0 0
0 0
0.00724374 -0.121155
0.0145738 -0.106864
0.0190297 -0.0769912
-0.023847 -0.115295
0.00924492 -0.00834705
0.0130842 -0.0139383
0.013641 -0.0184375
0.0114173 -0.0239135
0.00833645 -0.0291934
0.0195504 -0.183958
0.0163586 -0.183498
0.0125828 -0.182303
0.00812042 -0.180283
0.0369769 -0.166503
0.0220786 -0.184036
0.0242581 -0.18377
0.0261985 -0.183308
0.0279369 -0.182599
0.0295634 -0.18171
0.00230955 -0.131837
0.0368638 -0.163053
0.0362631 -0.159373
0.0351191 -0.155541
0.0334098 -0.151665
0.0318829 -0.149019
0.0300865 -0.146443
0.0280227 -0.143981
0.0257211 -0.141665
0.0239972 -0.140175
0.0221844 -0.138783
0.0202876 -0.137502
0.0183265 -0.136338
0.0155341 -0.134942
0.0126873 -0.133792
0.0107121 -0.133158
0.00875777 -0.132649
0.0074199 -0.132367
0.00189836 -0.131854
0.00148929 -0.131884
0.00105738 -0.131949
-0.00252568 -0.127526
0.0110722 -0.126957
0.00873658 -0.122364
0.0147054 -0.0990968
-0.0148705 -0.104993
-0.00231707 -0.13754
-0.00452537 -0.125496
-0.0105205 -0.155482
-0.00172768 -0.133586
-0.0304904 -0.160648
-0.00977083 -0.017789
0.00960024 -0.0181258
-0.0160072 -0.148872
-0.00574021 -0.135738
-0.00173265 -0.140944
-0.0024154 -0.140725
0.000949764 -0.140311
-0.00320413 -0.140537
0.00260452 -0.141214
0.00146095 -0.136746
-0.000578003 -0.138716
0.00041677 -0.139255
-0.00200033 -0.136767
-0.0046626 -0.141241
-0.0066268 -0.14268
-0.00447411 -0.143146
0.00222719 -0.130044
-0.0017511 -0.13018
-0.00294001 -0.130159
0.00269829 -0.142486
0.00419982 -0.14215
-0.00498594 -0.133817
0.00476511 -0.133604
-0.000454574 -0.140385
0.00155353 -0.138033
0.003961 -0.13501
-0.00456061 -0.134791
0.000400733 -0.14021
0.00191645 -0.130341
-0.000499948 -0.13029
-0.00198804 -0.130502
-0.00276109 -0.139246
0.00395847 -0.140932
0.00423759 -0.130759
0.00413034 -0.132795
0.000666559 -0.136718
-0.00134833 -0.1376
0.00157212 -0.138441
-0.000434142 -0.137581
-0.00434923 -0.133105
-0.00428968 -0.130942
-0.00616566 -0.141151
-0.00720114 -0.145118
0.0053128 -0.128934
0.00211266 -0.129362
-0.00100392 -0.129974
-0.00474182 -0.129945
-0.00932195 -0.147753
-0.00824864 -0.14838
0.00691269 -0.146645
0.00646576 -0.144408
0.00803664 -0.143717
0.00781694 -0.142447
-0.00650507 -0.128826
-0.00657365 -0.13167
0.0062475 -0.131542
0.00914485 -0.127529
-0.00425491 -0.145028
0.000726136 -0.139645
0.0054584 -0.133879
-0.000641218 -0.139561
0.00625523 -0.147188
0.00229238 -0.130526
0.00145024 -0.130317
0.000116612 -0.130393
0.000687375 -0.130327
-0.000421204 -0.130565
-0.00109144 -0.130649
-0.00069405 -0.130644
-0.00189626 -0.130729
-0.00273485 -0.138135
-0.00494976 -0.139273
0.00637842 -0.140446
0.00345277 -0.139135
0.0025424 -0.130714
0.00299522 -0.1309
0.00380236 -0.131463
0.00359731 -0.132272
0.00213583 -0.134272
0.000620572 -0.13589
-0.000751594 -0.13625
-0.00225322 -0.134638
-0.00375959 -0.13259
-0.00381999 -0.131785
-0.00279924 -0.131082
-0.0022349 -0.130889
-0.00694368 -0.140491
-0.0109605 -0.146586
0.00772274 -0.125894
-0.000547724 -0.129187
-0.00429626 -0.128569
-0.0132437 -0.152904
0.0113448 -0.151964
0.0101741 -0.145849
0.00829701 -0.141047
-0.0101589 -0.127034
0.0120347 -0.125016
-0.00704804 -0.149259
0.00730422 -0.131873
-0.0132035 -0.123338
-0.00579682 -0.13373
0.00193977 -0.142876
0.00166828 -0.130709
0.0011817 -0.13055
0.000429851 -0.130589
-0.000199131 -0.130713
-0.000679886 -0.130794
-0.00123088 -0.13093
-0.00345373 -0.137578
0.00387684 -0.138001
0.00216283 -0.131137
0.00228988 -0.132292
0.000404501 -0.134847
-0.000522521 -0.135145
-0.00221461 -0.132595
-0.00185384 -0.131353
-0.00669079 -0.137364
-0.00817531 -0.13918
-0.0093605 -0.141254
-0.0127694 -0.144341
-0.0202806 -0.154321
-0.0191264 -0.157284
0.0138329 -0.112161
0.00274485 -0.126314
-0.0112933 -0.118776
-0.0174516 -0.15906
0.0165968 -0.158755
0.01639 -0.154696
0.0152645 -0.150096
0.0131749 -0.145952
0.0097823 -0.140771
0.00918494 -0.138425
-0.0138703 -0.119158
0.015694 -0.116124
-0.0148366 -0.158958
-0.00372482 -0.147041
0.0144928 -0.120799
0.00998113 -0.155122
0.016508 -0.162393
-0.00973571 -0.128851
0.00246708 -0.144047
0.00120663 -0.130931
0.00141286 -0.131111
0.00096168 -0.130731
0.00115948 -0.130783
0.000532409 -0.130714
0.000770673 -0.130699
2.53815e-05 -0.130792
0.000254095 -0.130756
-0.00031206 -0.130888
-0.000127928 -0.130851
-0.000723188 -0.130981
-0.000528758 -0.130913
-0.0010311 -0.1313
-0.000829887 -0.131112
-0.00108188 -0.135279
-0.00250698 -0.136154
-0.00476509 -0.137012
0.00620626 -0.13685
0.00469493 -0.136996
0.00184882 -0.136077
0.000693633 -0.135533
0.00170721 -0.131445
0.00168018 -0.131915
0.00121064 -0.13296
0.00058044 -0.133729
-0.000856931 -0.134023
-0.00122101 -0.133261
-0.00153228 -0.132175
-0.00136675 -0.131657
-0.00674264 -0.134677
-0.00920841 -0.137765
-0.01451 -0.141854
-0.0207364 -0.149825
-0.0250251 -0.160179
0.00866284 -0.0726604
0.007417 -0.119381
0.00048227 -0.126251
-0.00545785 -0.123101
-0.0101889 -0.0784142
-0.0222751 -0.166795
0.0228842 -0.167571
0.0210588 -0.154252
0.0127397 -0.142561
0.00857477 -0.135972
0.001168 -0.0320294
-0.012875 -0.0911736
-0.0019356 -0.0306512
0.0111054 -0.0862265
-0.0131052 -0.1633
0.0111015 -0.125967
0.0191755 -0.108964
0.0166202 -0.167285
-0.0185608 -0.112347
-0.00538046 -0.133832
0.000823687 -0.131092
0.000688989 -0.130877
0.000481239 -0.130826
0.000192543 -0.130861
-8.95359e-05 -0.130927
-0.000321745 -0.131036
-0.000479613 -0.131271
-0.00226064 -0.134731
-0.00473907 -0.134609
0.00405512 -0.134928
0.00136425 -0.134705
0.000827281 -0.131734
-1.56981e-05 -0.133125
-0.000891936 -0.133258
0.000737142 -0.133753
-0.000215079 -0.13341
-0.000578466 -0.131919
-0.00426315 -0.13323
0.0042844 -0.133874
-0.00719571 -0.132944
-0.00818662 -0.134198
-0.0101278 -0.13483
-0.0115611 -0.136844
-0.0147735 -0.138023
-0.0176829 -0.141115
-0.0211897 -0.144069
-0.0252135 -0.148923
-0.029153 -0.153875
0.00658775 -0.0769449
0.00252598 -0.115909
-0.00237364 -0.118708
-0.00630662 -0.0828705
-0.0304272 -0.166466
-0.0292073 -0.171178
-0.0272969 -0.174915
-0.0255045 -0.178689
-0.0201087 -0.176252
0.021287 -0.177384
0.0256409 -0.17851
0.0278242 -0.175401
0.0293849 -0.170911
0.0304414 -0.165057
0.0281945 -0.157867
0.0254378 -0.150864
0.0224939 -0.144837
0.0175318 -0.141538
0.0149223 -0.137024
0.0121363 -0.135712
0.0101619 -0.135073
0.00715318 -0.133698
0.00923938 -0.0322407
-0.000148915 -0.0583074
-0.010143 -0.0855719
-0.0093668 -0.0315908
0.00834704 -0.0805034
-0.000208051 -0.0566399
-0.0139162 -0.173058
-0.00629924 -0.170088
0.0109129 -0.129852
0.0158922 -0.174281
-0.00386565 -0.140468
0.00922706 -0.168584
0.000409257 -0.131325
0.000378592 -0.131509
0.000466564 -0.131139
0.000503251 -0.130993
0.000491555 -0.131057
0.00050168 -0.130913
0.000447304 -0.130877
0.000478418 -0.130892
0.000365573 -0.130869
0.000262439 -0.130879
0.000315841 -0.130873
0.000150854 -0.130902
3.79271e-05 -0.130933
9.42098e-05 -0.130917
-6.04126e-05 -0.130975
-0.00014918 -0.131036
-0.000107204 -0.131004
-0.000203685 -0.131119
-0.000228074 -0.131249
-0.000221023 -0.131179
-0.000190338 -0.131435
-0.000107619 -0.131734
-0.000156201 -0.131568
-0.0049769 -0.132548
-0.00587756 -0.132672
0.00584737 -0.133414
0.00495412 -0.133277
-0.0032874 -0.13426
-0.0018775 -0.132728
0.00276329 -0.134232
0.00193212 -0.134102
0.00210141 -0.133183
0.000139153 -0.132099
-5.17683e-05 -0.132445
0.000201964 -0.132867
-2.91435e-05 -0.132389
-0.00349898 -0.132337
0.00364569 -0.132619
-0.00247815 -0.132275
-0.00289672 -0.132291
0.00304984 -0.132573
0.00263678 -0.132556
-0.00153417 -0.132058
-0.000675743 -0.13209
-0.00112061 -0.132068
0.00173558 -0.132574
0.00133242 -0.132568
0.000923465 -0.132568
0.00126107 -0.133116
-0.000965313 -0.132475
0.00298077 -0.133227
-0.00280137 -0.132985
-0.000592848 -0.132647
0.000645256 -0.13239
0.00260997 -0.135121
-0.00381531 -0.135505
0.00562045 -0.13457
-0.00575603 -0.133485
-0.000540708 -0.131508
-0.000405741 -0.13113
-0.000212658 -0.130974
4.73213e-05 -0.130893
0.000342587 -0.130837
0.00060144 -0.130836
0.000744114 -0.130968
0.000935019 -0.131329
0.0105022 -0.160337
-0.0045646 -0.153123
-0.000884654 -0.0529534
-0.000363502 -0.0559903
0.0116451 -0.13746
0.0181576 -0.14731
0.0235587 -0.161977
0.0221777 -0.172046
-0.0195068 -0.168506
-0.0239934 -0.164028
-0.0112869 -0.10737
0.0120047 -0.100383
-0.0252688 -0.155609
-0.0170433 -0.145213
-0.0107077 -0.139677
-0.00775776 -0.135879
0.000262032 -0.134271
-0.000831828 -0.133976
-0.0166253 -0.111497
0.0172135 -0.107666
0.00177539 -0.12574
-0.00232056 -0.131758
-0.00188478 -0.133704
0.0018063 -0.133382
0.00254075 -0.131483
0.00117571 -0.136803
0.00690473 -0.13901
-0.00575949 -0.138549
-0.0013546 -0.136532
-0.0014307 -0.131103
-0.00100185 -0.130819
-0.000390435 -0.130782
4.39347e-05 -0.130644
0.000846527 -0.13054
0.00148348 -0.130596
0.00180626 -0.130904
-0.00345565 -0.136528
0.00920437 -0.151756
-0.00209903 -0.143521
-0.0107935 -0.152356
0.0124084 -0.121712
-0.00845161 -0.125649
0.00974267 -0.14313
0.0111023 -0.149197
-0.00254186 -0.129796
0.00289687 -0.127942
-0.0148294 -0.151553
-0.00819159 -0.142466
-0.00744859 -0.131568
0.00713262 -0.131594
-0.00301665 -0.130597
-0.0054306 -0.131389
-0.00257707 -0.135386
0.00243862 -0.135003
0.00514376 -0.131135
0.00326723 -0.130449
0.00595962 -0.141664
-0.00421546 -0.139829
-0.0010592 -0.130479
0.000271591 -0.130089
0.00220759 -0.142426
0.00293197 -0.136908
0.00321899 -0.142431
-0.00385624 -0.143448
0.00206555 -0.140005
-0.00137492 -0.138571
-0.00119917 -0.138213
0.000192678 -0.138655
-0.00517215 -0.142624
-0.0112983 -0.13091
0.00296878 -0.176815
-0.00551576 -0.153753
0.00199062 -0.161214
0.000112235 -0.174495
0.00395666 -0.151307
-0.00291026 -0.176687
0.0164085 -0.123902
0.00801435 -0.144622
-2.04223e-05 -0.174339
0.000647646 -0.15759
0.00376677 -0.141044
0.00387078 -0.0681274
0.00944467 -0.0792266
0.00507122 -0.0654697
0.0154141 -0.0941953
-0.004444 -0.035572
8.34558e-05 -0.0434763
0.00153871 -0.0560693
-0.000919049 -0.0554428
0.00301899 -0.066368
-0.00528461 -0.0430019
-0.00279393 -0.0457948
-0.00757545 -0.0344217
0.00503972 -0.0530956
0.00885516 -0.061919
-0.0105889 -0.0276016
-0.00569281 -0.0415371
-0.0049388 -0.0715991
-0.00518869 -0.0666537
-0.0102964 -0.0826472
-0.00163327 -0.0571237
0.00450005 -0.0356775
-5.7874e-05 -0.0436146
-0.0166635 -0.098259
-0.00447934 -0.0703898
0.000100851 -0.057789
0.00505891 -0.044115
0.00757822 -0.0348796
0.00271985 -0.0466824
0.0105892 -0.0279585
-0.00502547 -0.0532775
-0.00882282 -0.0621535
0.00509389 -0.0432854
-0.003935 -0.105896
0.00308365 -0.113878
0.00348984 -0.0971323
0.00152875 -0.124419
0 0
0 0
-0.00329882 -0.0497261
-0.00945555 -0.0966226
-0.00703105 -0.113218
0.00425727 -0.101694
-0.00337265 -0.0947068
-0.00343372 -0.111982
0.00350423 -0.0451779
0 0
-0.0187891 -0.0767113
-0.00193377 -0.123702
0.00781297 -0.108304
0.0097452 -0.0896809
-0.0133277 -0.123013
-0.0135601 -0.12351
-0.00473826 -0.13524
-0.020687 -0.112835
0.00311359 -0.14612
-0.0144321 -0.121324
-0.0172228 -0.113975
0.0174249 -0.116788
0.0111368 -0.12684
0.0184295 -0.117277
0.00313687 -0.137804
0.0209546 -0.110322
0.0182263 -0.109233
0.0164251 -0.117407
0.0158621 -0.099818
0.0161583 -0.0992427
0.00972443 -0.0840489
0.00505875 -0.0698742
0.0149597 -0.0978981
-0.0162552 -0.10229
-0.0115775 -0.0888721
-0.0172995 -0.102865
-0.00692406 -0.0744058
-0.0158023 -0.102527
-0.00501 -0.0565004
-0.00981328 -0.0775027
-0.00548063 -0.0525697
-0.0123095 -0.0937908
0.00181387 -0.0178625
0.000827622 -0.0445809
-0.00586877 -0.0666825
-0.00198745 -0.125605
-0.00161801 -0.124968
-0.00484209 -0.121184
-0.000136884 -0.126202
-0.00870264 -0.117211
-0.00207055 -0.125715
0.0011242 -0.125889
0.00355409 -0.123937
0.00578029 -0.117647
0.00216978 -0.123359
0.0101349 -0.111736
0.00492278 -0.123721
0.00346792 -0.0522237
0.00456062 -0.0481027
0.00904473 -0.07148
-0.0021515 -0.0173227
0.0117873 -0.0867758
0.00417816 -0.0624003
-0.00185765 -0.042404
-0.0138659 -0.122319
-0.00982621 -0.128274
-0.00430243 -0.135489
-0.00663847 -0.13284
0.0168237 -0.114644
0.0106437 -0.126645
0.00386007 -0.135689
0.00433282 -0.135074
-0.0154362 -0.118013
-0.0118595 -0.125827
-0.0086085 -0.130438
-0.0104908 -0.127853
-0.011838 -0.125415
-0.0122849 -0.123597
-0.0139993 -0.120803
-0.00970605 -0.126075
-0.0114563 -0.122964
-0.0155611 -0.115268
-0.00933886 -0.128877
0.0125572 -0.12311
0.0109586 -0.124917
0.0106579 -0.126454
0.008706 -0.129115
0.0072248 -0.129544
0.00982818 -0.128362
-0.00761708 -0.127361
-0.00840428 -0.128112
-0.00784996 -0.129568
-0.00631499 -0.12988
-0.00637414 -0.127425
-0.00552722 -0.12866
-0.00446131 -0.129453
-0.00340999 -0.129265
0.00252682 -0.128726
0.00108571 -0.128695
0.000867312 -0.129291
-6.45211e-05 -0.129683
-0.00166352 -0.129514
0.00108834 -0.129766
0.007267 -0.128384
0.0087685 -0.126516
0.00659044 -0.127592
0.0101993 -0.124154
0.00530421 -0.127119
0.00435446 -0.128399
0.00560347 -0.129768
0.003716 -0.129155
0.00225591 -0.129717
0.00281945 -0.130184
0.00127553 -0.130056
0.00366932 -0.129605
0.00437824 -0.129778
0.00607999 -0.00922821
0.00598315 -0.0236399
0.0046484 -0.0123028
0.00634477 -0.0347454
0 0
0 0
0.00745802 -0.0074641
0.0126903 -0.0205637
0.0101929 -0.0256749
0.0114727 -0.0149535
-0.0126861 -0.0728479
-0.015362 -0.0791786
-0.011524 -0.0148177
-0.0103698 -0.0251673
-0.0126924 -0.0203368
-0.00696391 -0.0332453
0.0127386 -0.0725333
0.0153685 -0.07876
-0.00750567 -0.00743126
-0.00482414 -0.0120927
-0.00641579 -0.0229842
-0.00612602 -0.00913759
-0.014725 -0.106701
-0.00743831 -0.121032
-0.00812576 -0.123012
-0.00524096 -0.12435
-0.00854433 -0.120787
-0.00129758 -0.12606
-0.0117043 -0.1137
-0.0101512 -0.122541
-0.00674458 -0.125312
-0.0137351 -0.112564
-0.0149812 -0.112863
-0.0129297 -0.118335
-0.0158981 -0.10756
-0.0134962 -0.104901
-0.0111506 -0.0842961
-0.0145946 -0.0981816
-0.0133217 -0.093435
0.0121732 -0.087164
0.0134805 -0.0928936
0.00944884 -0.0790281
0.0158706 -0.102674
0.0136944 -0.0980436
0.0151745 -0.113095
0.0160368 -0.108319
0.0148572 -0.105888
0.0167214 -0.111991
0.0131754 -0.10655
0.0134929 -0.117241
0.0143308 -0.119005
0.00843556 -0.124044
0.00585821 -0.124889
0.00548155 -0.126003
0.00532474 -0.124333
0.00232645 -0.125852
0.00289136 -0.126993
0.0109344 -0.121573
0.0110262 -0.115321
0.00843066 -0.120737
0.0116454 -0.118186
0.0141118 -0.121627
0.0127806 -0.124142
0.0155694 -0.11797
0.00785947 -0.130842
0.0140944 -0.12114
0.0118272 -0.125763
0.00905076 -0.129657
-0.00145158 -0.128454
-0.0035176 -0.128065
-0.00236949 -0.128984
-0.00558623 -0.126904
0.000316228 -0.127911
-0.00091496 -0.126509
-0.00357702 -0.12648
2.58425e-05 -0.127084
0.00169298 -0.164903
-0.0030277 -0.164497
-0.00220677 -0.170444
-0.00244528 -0.154574
-0.00590586 -0.16161
-0.00474301 -0.173421
0.00300003 -0.171418
0.00630997 -0.167771
0.00454001 -0.159986
0.00551045 -0.142129
0.00184549 -0.149305
0.00404668 -0.151789
-0.000748288 -0.147647
0.00867359 -0.154728
0.00911094 -0.136853
0.00708585 -0.135879
0.0193158 -0.102119
0.018078 -0.0862668
0.0160704 -0.0916384
0.0113325 -0.0871644
0.0136291 -0.0836559
0.0203782 -0.0967192
-0.0180519 -0.0867429
-0.0201589 -0.104889
-0.0165769 -0.094223
-0.0141235 -0.086083
-0.0128126 -0.09172
-0.0200622 -0.0971735
-0.0174465 -0.118376
-0.0176894 -0.119924
-0.0126964 -0.125812
-0.0223374 -0.113235
-0.016855 -0.124017
-0.00734519 -0.136051
-0.00872209 -0.131234
-0.0174183 -0.117117
-0.0195053 -0.112392
-0.000143063 -0.143085
0.00358186 -0.148188
-0.000538624 -0.141048
0.00741114 -0.15615
0.00705764 -0.153233
-0.00116563 -0.139581
-0.00514666 -0.134187
-0.00429967 -0.137025
0.000326764 -0.14632
-0.0141005 -0.121863
-0.0159949 -0.117876
-0.0160777 -0.118262
-0.0161766 -0.116384
-0.0169884 -0.112469
-0.0178272 -0.113088
-0.0164877 -0.117921
-0.00936647 -0.128525
-0.0114717 -0.125798
0.00682729 -0.132669
0.00338652 -0.138869
0.00734488 -0.133506
-0.00100067 -0.14547
0.0110811 -0.12788
0.0111818 -0.126133
0.00724065 -0.131424
0.0178564 -0.119415
0.0210154 -0.115188
0.020363 -0.113884
0.0201596 -0.119692
0.0227274 -0.11162
0.0199941 -0.109501
0.0197921 -0.112699
0.0151833 -0.12262
0.0135389 -0.127098
0.018486 -0.112803
0.0178164 -0.113485
0.0168907 -0.117025
0.0176735 -0.108285
0.0175442 -0.112418
0.0143867 -0.12122
0.0144211 -0.121428
0.0189994 -0.112994
0.0186596 -0.10903
0.0187505 -0.104627
0.0191454 -0.103896
0.0158626 -0.0976803
0.0120541 -0.0898019
0.0182611 -0.104651
0.0176921 -0.104313
0.0175049 -0.104797
0.0169307 -0.104096
0.0132112 -0.0927909
-0.0171745 -0.101583
-0.020297 -0.107136
-0.0194088 -0.107579
-0.0186757 -0.108082
-0.0137555 -0.0945232
-0.0178521 -0.107212
-0.0175425 -0.108512
-0.0144129 -0.0965901
-0.0168824 -0.107226
-0.00783442 -0.130741
-0.0048564 -0.134654
-0.007057 -0.131987
-0.00730204 -0.131877
-0.00390469 -0.136062
-0.00983633 -0.128518
0.00355013 -0.136399
-1.83463e-05 -0.141257
-0.000537395 -0.142749
0.000720154 -0.139846
-0.00286883 -0.144989
-0.00423385 -0.149514
0.00730038 -0.13104
0.00744269 -0.130979
0.00414007 -0.135259
0.00745849 -0.130829
0.00110805 -0.139232
0.0108932 -0.126218
0.0129943 -0.123374
0.00918459 -0.128877
0.00246875 -0.137501
0.00624644 -0.13274
0.00977309 -0.128588
0.0114974 -0.12588
-0.000589929 -0.141355
0.00436537 -0.135224
0.00531577 -0.134202
0.00195918 -0.138132
-0.00103168 -0.1395
0.002141 -0.14337
-0.00111781 -0.13936
0.00594627 -0.148212
0.00558804 -0.147251
-0.000897392 -0.139501
-0.00126627 -0.13923
0.00341392 -0.155469
0.00586255 -0.165141
0.00697666 -0.160337
0.00258422 -0.169922
0.00654364 -0.172506
0.0101552 -0.163988
-0.000469512 -0.151293
-0.00420944 -0.163899
-0.000181393 -0.166412
-0.00146718 -0.157698
-0.00296702 -0.171519
-0.00411139 -0.146131
-0.00743945 -0.158682
-0.00619553 -0.167963
-0.0128551 -0.138496
-0.0104317 -0.151598
-0.00789616 -0.143069
-0.00968173 -0.163352
-0.0135741 -0.157631
0.0127804 -0.171624
0.0110901 -0.176528
0.0145156 -0.178334
-0.017884 -0.149966
-0.0208274 -0.13772
0.0179467 -0.180006
0.013505 -0.167819
0.0157993 -0.13693
0.0115394 -0.135698
0.0117391 -0.146506
0.00969865 -0.163221
0.0135751 -0.157524
-0.0104984 -0.171505
-0.013409 -0.177896
-0.00962253 -0.177183
-0.0170171 -0.179599
0.0175566 -0.149972
0.0212894 -0.137891
-0.00979968 -0.164501
0.0200169 -0.14319
0.0222976 -0.1419
0.019805 -0.140285
0.0240654 -0.143342
0.00610347 -0.132144
0.00520886 -0.132027
0.0178824 -0.139045
0.017789 -0.144509
0.0202578 -0.146219
0.023964 -0.147886
0.0276687 -0.148832
0.0262915 -0.145728
0.0294171 -0.15142
0.00432976 -0.131938
0.00372587 -0.131891
0.0218159 -0.149159
0.0293454 -0.161555
0.0331404 -0.162505
0.0322487 -0.158831
0.033743 -0.165986
0.00312828 -0.131858
0.00271837 -0.131843
0.0306256 -0.155046
0.0256814 -0.160182
0.0270337 -0.163736
0.0298417 -0.168085
0.0327237 -0.172092
0.0334878 -0.169221
0.0318812 -0.174532
0.0310808 -0.180542
0.0325188 -0.179101
0.0266839 -0.16665
0.0267033 -0.176957
0.0284518 -0.179868
0.0296658 -0.178371
0.0269266 -0.180897
0.0338351 -0.177327
0.0350152 -0.175192
0.0308882 -0.176706
0.0250385 -0.173989
0.0240594 -0.175551
0.0235063 -0.178008
0.0229703 -0.181166
0.0250692 -0.181317
0.0206091 -0.18083
0.0359767 -0.17268
0.0366606 -0.169766
0.021805 -0.174617
-0.0228992 -0.177628
-0.0249743 -0.181317
-0.0224318 -0.180719
-0.0268397 -0.180881
-0.0310821 -0.180364
-0.0295583 -0.181541
-0.0200118 -0.180345
-0.0199635 -0.172297
-0.0228405 -0.174237
-0.0263884 -0.176798
-0.0294301 -0.178097
-0.0283698 -0.179847
-0.0306422 -0.176426
-0.0279228 -0.182438
-0.0261777 -0.183148
-0.0235387 -0.17225
-0.0297579 -0.168895
-0.0334353 -0.169772
-0.0326176 -0.17213
-0.0336771 -0.166584
-0.0242258 -0.183613
-0.0220452 -0.183884
-0.0317846 -0.174561
-0.0267672 -0.167788
-0.0272174 -0.165467
-0.0272127 -0.151425
-0.0275926 -0.147662
-0.0295366 -0.150177
-0.0253845 -0.145298
-0.0257064 -0.141367
-0.0280141 -0.143685
-0.0312375 -0.152733
-0.0271625 -0.154837
-0.0251737 -0.152375
-0.0194391 -0.142591
-0.0198743 -0.139907
-0.0216238 -0.141382
-0.0179455 -0.138665
-0.030086 -0.146154
-0.0318876 -0.148734
-0.0234002 -0.142828
-0.0190807 -0.144729
-0.0173221 -0.14324
-0.0334222 -0.151389
-0.0165038 -0.137091
-0.0151095 -0.136373
-0.0136796 -0.13577
-0.0126903 -0.138965
-0.0351333 -0.155277
-0.0135511 -0.122871
-0.00880656 -0.1297
-0.0095915 -0.128177
0.0191891 -0.172762
0.0164338 -0.17053
0.0187222 -0.175932
0.0136937 -0.164078
0.0194658 -0.169893
0.014998 -0.121075
0.0147478 -0.122136
0.0179231 -0.116891
-0.0169505 -0.170545
-0.0172197 -0.17472
-0.0137524 -0.168042
-0.00913277 -0.158665
-0.0164023 -0.166114
0.0160356 -0.0996182
0.0125095 -0.0910863
-0.0167187 -0.10251
-0.0139785 -0.0951246
0.0154473 -0.144919
0.0150836 -0.142169
0.0145694 -0.139475
0.0121435 -0.14008
0.0246633 -0.156191
0.0268235 -0.15443
0.0231293 -0.152763
0.0195787 -0.150813
0.0222757 -0.158158
0.0255662 -0.171767
0.0285452 -0.173211
0.0261522 -0.169531
0.0231122 -0.164815
0.0224998 -0.16975
-0.0258067 -0.169321
-0.0281885 -0.173087
-0.0250034 -0.171127
-0.020821 -0.16763
-0.0230595 -0.165449
-0.0208951 -0.14706
-0.0232154 -0.146507
-0.0229384 -0.149468
-0.0230363 -0.152736
-0.0188957 -0.147518
-0.0146095 -0.140003
-0.0162235 -0.139565
-0.0160763 -0.141532
-0.0157724 -0.14353
-0.0125996 -0.140762
-0.0124547 -0.124615
-0.0121294 -0.125299
0.0133412 -0.15907
0.0135345 -0.161354
0.0165816 -0.164613
0.0102981 -0.157316
0.0195481 -0.167434
0.0129903 -0.15706
0.00952925 -0.153215
0.0137812 -0.122098
0.0154146 -0.119175
0.0156417 -0.146702
0.0129279 -0.144294
0.0112056 -0.142922
0.011451 -0.144532
0.0157756 -0.152414
0.0186331 -0.154663
0.0181796 -0.152219
0.0200765 -0.158435
0.0166214 -0.148857
0.0131374 -0.149775
0.0137627 -0.151942
0.0164852 -0.160497
0.019734 -0.165276
0.0198973 -0.163279
0.0200354 -0.160672
0.0129651 -0.155567
-0.0160812 -0.159083
-0.0199659 -0.162968
-0.018687 -0.163214
-0.0207708 -0.161758
-0.0173031 -0.163688
-0.0128182 -0.155551
-0.0141788 -0.155861
-0.0196414 -0.155867
-0.0227071 -0.15728
-0.0220816 -0.158878
-0.0227624 -0.155058
-0.0251017 -0.157949
-0.0244437 -0.162159
-0.0216378 -0.160698
-0.0169985 -0.154405
-0.017549 -0.153036
-0.0148861 -0.144831
-0.0135985 -0.14318
-0.0117057 -0.142023
-0.010449 -0.143452
0.00672289 -0.150954
0.00631037 -0.149461
0.00273601 -0.144795
0.0127147 -0.147972
0.0141992 -0.148021
0.0116444 -0.145971
0.00993203 -0.144514
0.0105988 -0.147538
0.0140121 -0.15534
0.0164153 -0.156736
0.0138401 -0.153496
0.0111673 -0.150602
0.0102121 -0.15195
-0.0162005 -0.155218
-0.0182213 -0.158234
-0.0153671 -0.155946
-0.0119757 -0.152718
-0.0139821 -0.152301
0.00767743 -0.149353
0.00412297 -0.145154
0.00204088 -0.142675
0.00419274 -0.144734
-0.00180718 -0.142539
-0.00558224 -0.146996
-0.00317626 -0.144427
-0.00753847 -0.148715
-0.00891094 -0.15095
-0.00464175 -0.146594
-0.000541796 -0.140822
0.00876204 -0.146766
0.00828723 -0.145214
0.00617498 -0.143069
0.00482181 -0.143487
0.00655841 -0.14695
0.00880774 -0.149665
0.00911447 -0.149254
0.00898683 -0.148025
0.00455034 -0.14461
-0.00875592 -0.148114
-0.011271 -0.15028
-0.0107522 -0.150701
-0.0120648 -0.149738
-0.00949248 -0.150307
-0.00602399 -0.145858
-0.00656631 -0.145699
-0.0128864 -0.149039
-0.0100939 -0.147256
-0.00801889 -0.144657
-0.00955044 -0.144502
-0.00625085 -0.146824
-0.00400855 -0.144237
0.00665057 -0.145547
0.0050276 -0.144486
-0.0181589 -0.15159
-0.0183505 -0.149429
-0.020447 -0.15215
-0.0164677 -0.147132
-0.0153595 -0.150291
-0.0118039 -0.145573
-0.0143789 -0.146593
-0.0134615 -0.147804
-0.0277287 -0.160552
-0.030425 -0.163642
-0.0278472 -0.163444
-0.0339133 -0.163669
-0.0279506 -0.158196
-0.0328301 -0.15663
-0.0333288 -0.160036
-0.0298118 -0.157348
-0.0362815 -0.159121
-0.0368813 -0.16281
-0.00728064 -0.151593
-0.0118903 -0.159088
-0.00879025 -0.155619
-0.0153254 -0.162528
-0.00647153 -0.149612
-0.0110596 -0.154285
-0.0126727 -0.15736
-0.00875901 -0.152134
-0.00162387 -0.120914
-0.00388199 -0.118661
-0.010916 -0.0845309
-0.0128221 -0.0906762
-0.0111612 -0.0985609
-0.0117439 -0.105186
0.00774791 -0.114209
0.00826849 -0.108904
-0.00163078 -0.138126
-0.00425796 -0.135094
0.0112578 -0.117698
0.0110776 -0.119923
0.000516075 -0.125266
0.00197196 -0.124569
-0.013419 -0.0180833
-0.0121367 -0.017849
-0.00332958 -0.0151964
-0.00297604 -0.00749986
0.0074523 -0.115365
0.00555942 -0.114618
0.0129743 -0.0765425
0.0124191 -0.0913445
-0.0128131 -0.11779
-0.0129131 -0.114923
-0.00020627 -0.000655041
-0.00127834 -0.00740259
-0.0172242 -0.0940562
-0.00948715 -0.0847628
0.0174048 -0.108366
0.0166066 -0.102708
-0.00578009 -0.0741328
-0.00364772 -0.0663745
-0.00430827 -0.0551135
-0.00515657 -0.0521672
-0.00239723 -0.125366
-0.00234199 -0.125528
-0.0109703 -0.0850121
-0.0127508 -0.0904006
0.00503865 -0.00484821
0.00906196 -0.0090297
0.00563345 -0.129325
0.00606479 -0.129962
0.0128897 -0.11915
0.0120914 -0.121943
-0.0195954 -0.102138
-0.0138004 -0.0922
0.00626336 -0.126854
0.0049784 -0.12664
0.0104347 -0.0806008
0.00897695 -0.0796085
0.00593108 -0.128971
0.00494728 -0.12872
-0.00801728 -0.129955
-0.00665836 -0.131885
0.011362 -0.125966
0.0112618 -0.126477
-1.95015e-05 -0.0576354
0.00369763 -0.0471519
0.0071323 -0.0971608
0.00876927 -0.0880835
-0.00229171 -0.118135
-0.00483696 -0.116036
-0.0040364 -0.114499
-0.00154713 -0.116962
0.000616193 -0.0338423
0.00141602 -0.0413503
-0.00346429 -0.132702
-0.00145763 -0.133392
-0.0132282 -0.093138
-0.0169672 -0.102897
0.000856258 -0.130508
0.000401335 -0.13033
-0.000892948 -0.0930967
0.00015557 -0.101987
-0.00692361 -0.112245
-0.012991 -0.110913
-0.00893592 -0.116539
-0.0063638 -0.113704
-0.0111194 -0.126054
-0.00947539 -0.127636
0.0143113 -0.097242
0.0148876 -0.0988724
-0.0180234 -0.0922415
-0.0171174 -0.100494
-0.0085185 -0.0731304
-0.00692519 -0.059965
-0.00492822 -0.0586484
-0.00453693 -0.0616934
-0.00672632 -0.0702139
-0.00946802 -0.0798884
-0.00628199 -0.0575138
-0.00563973 -0.060542
-0.0138996 -0.117871
-0.0125128 -0.120081
-0.0108535 -0.120716
-0.00899105 -0.122564
-0.0103266 -0.121288
-0.0107865 -0.122114
-0.0131149 -0.122968
-0.0121515 -0.124075
-0.00197029 -0.0512014
0.00101552 -0.0465645
-0.00126921 -0.125935
-0.00314875 -0.125422
-0.0115327 -0.106904
-0.00954384 -0.110142
0.0125385 -0.0899231
0.0107756 -0.0835552
-0.00290086 -0.126032
-0.00275827 -0.125785
-0.00882592 -0.12714
-0.00925367 -0.127685
-0.0139148 -0.118499
-0.0149362 -0.114436
0.013853 -0.0976982
0.0126852 -0.0897346
-0.00217053 -0.122777
-0.00411605 -0.122927
0.00815383 -0.0273406
0.00678123 -0.024691
-0.0100241 -0.128063
-0.0119184 -0.125238
-0.00849157 -0.0209231
-0.00644949 -0.0226225
-2.89149e-05 -0.126355
-0.000106468 -0.126077
-0.0175851 -0.108184
-0.0163104 -0.101568
0.00600405 -0.123413
0.00401873 -0.124917
-0.0157354 -0.108739
-0.015643 -0.103456
-0.00769178 -0.121148
-0.00613445 -0.123386
0.00987668 -0.0301916
0.00855577 -0.0339148
-0.00261387 -0.049889
-0.000669975 -0.0562581
0.0107613 -0.0859891
0.00680584 -0.0755875
0.0100784 -0.127313
0.0146598 -0.120736
-0.00387875 -0.130933
-0.00251074 -0.130803
-0.00582832 -0.0731243
-0.00870268 -0.0816184
-0.000814115 -0.0553295
-0.000699872 -0.0513282
0.0185 -0.108804
0.019152 -0.113886
-0.00147358 -0.125234
-0.000413935 -0.126017
-0.00379914 -0.130257
-0.00233611 -0.130412
-0.00967131 -0.128425
-0.00893767 -0.129798
-0.00409834 -0.0972777
-0.00178003 -0.0895696
0.00686936 -0.0649201
0.00784369 -0.0789789
0.00230113 -0.0579826
0.00305325 -0.0636626
0.0093192 -0.00929002
0.00859236 -0.0104918
0.0140894 -0.121667
0.0154047 -0.118048
0.00330168 -0.060427
0.0063734 -0.0707435
0.00160382 -0.0510234
0.00504829 -0.0410908
0.01143 -0.12645
0.00907452 -0.129656
0.00331306 -0.129118
0.00444729 -0.129267
0.0140499 -0.121765
0.0136276 -0.1225
-0.0125039 -0.0975062
-0.0130981 -0.0948666
0.000166142 -0.130857
-8.89066e-05 -0.130713
-0.00601251 -0.0708205
-0.00644065 -0.0689125
-0.00600182 -0.0164591
-0.0069328 -0.0125547
-0.00197553 -0.0116113
3.16437e-05 -0.0120908
0.00971013 -0.00895428
0.0117558 -0.0126307
-0.00930904 -0.128751
-0.0133654 -0.122972
-0.000662632 -0.125872
-0.00119396 -0.125382
-0.000824399 -0.125149
-0.000221118 -0.123533
-0.00646878 -0.129556
-0.00478978 -0.130046
-0.00296098 -0.0501701
-0.00101826 -0.0390964
-0.0172367 -0.112835
-0.0162316 -0.116301
-0.00033831 -0.126074
8.39765e-05 -0.126305
0.016007 -0.115307
0.0166477 -0.110916
0.00724149 -0.035639
0.00932201 -0.0281948
0.0138993 -0.12139
0.0124667 -0.123796
0.00239734 -0.105374
-0.00218614 -0.105824
0.00187938 -0.125101
0.000538709 -0.125935
-0.00352186 -0.0314971
-0.00390502 -0.0236626
-0.00449963 -0.0435542
-0.00713159 -0.0347485
-0.00529245 -0.130584
-0.00362689 -0.131114
-0.00608064 -0.0677368
-0.00230199 -0.0668383
0.0166297 -0.114041
0.0165202 -0.10917
-0.00330712 -0.0434563
-0.00382306 -0.0500434
-0.0058236 -0.0573427
-0.00387537 -0.0558198
-0.00460783 -0.00566368
-0.00517066 -0.00526042
-0.0105558 -0.0800492
-0.0111261 -0.0824349
0.000502222 -0.126119
9.54825e-05 -0.12638
0.000752525 -0.0121258
0.0015426 -0.00670721
0.0148921 -0.118031
0.0158279 -0.113806
-0.0127015 -0.0969801
-0.0114978 -0.0912323
-0.0111547 -0.0264169
-0.0104734 -0.0264555
-0.00859396 -0.118246
-0.00532482 -0.117005
-0.00578414 -0.118378
-0.00681134 -0.119686
-0.00311344 -0.119955
-0.00154048 -0.116739
0.0129047 -0.120939
0.0113462 -0.122819
0.0130719 -0.111782
0.0123977 -0.108971
-0.0073818 -0.0699096
-0.00850127 -0.0760355
-0.0128159 -0.124168
-0.0131536 -0.123192
-0.00126976 -0.122956
-0.000394204 -0.125078
0.00126632 -0.12412
0.00311284 -0.122758
-0.00475902 -0.0650646
-0.00173614 -0.0546377
-0.00061445 -0.000810062
-0.00433147 -0.00664468
-0.00928229 -0.0760845
-0.00831855 -0.0750987
0.00399102 -0.119088
0.00126536 -0.117126
0.012412 -0.0764802
0.00310356 -0.0778313
0.0064428 -0.101946
0.0159514 -0.098962
-0.00466024 -0.0115803
-0.00256277 -0.00727305
-0.0155879 -0.11177
-0.0161994 -0.10979
0.00473435 -0.066537
0.00495461 -0.0700924
-0.00926192 -0.129604
-0.011743 -0.125997
0.00581743 -0.123788
0.00783756 -0.122308
-0.00623006 -0.12316
-0.00679736 -0.123514
-0.0119935 -0.121826
-0.0134554 -0.119543
0.0156194 -0.117812
0.0151934 -0.118336
-0.00013198 -0.127211
0.000798686 -0.127751
-0.00617271 -0.129202
-0.00615921 -0.128469
0.0169839 -0.110535
0.0163902 -0.11144
0.00702894 -0.128198
0.00817872 -0.128163
-0.011157 -0.0213167
-0.012344 -0.0218241
-0.00435908 -0.125
-0.00625793 -0.124106
-0.0134273 -0.107223
-0.0127068 -0.103638
0.00301572 -0.130477
0.00172991 -0.130759
0.0140429 -0.0948437
0.0141521 -0.0954184
0.00290227 -0.0935381
0.00492333 -0.101745
0.00375664 -0.0556882
0.00354772 -0.0488646
0.00132333 -0.000943737
0.00613052 -0.00532778
-0.000686102 -0.012359
0.00163917 -0.0287205
-0.00536832 -0.0188881
-0.00378723 -0.0283862
0.00968481 -0.0120673
0.00654733 -0.00669555
-0.00432483 -0.120743
-0.00617323 -0.120007
0.00739904 -0.131765
0.00437215 -0.135327
-0.00993231 -0.117364
-0.010813 -0.113116
-0.0084769 -0.0196391
-0.00654626 -0.0205527
0.00473499 -0.124001
0.00679424 -0.122135
0.00686748 -0.0307977
0.00930516 -0.0256994
-0.00556513 -0.132257
-0.00552441 -0.131238
-0.000905396 -0.128832
-0.00284082 -0.128599
-0.0055915 -0.0265715
-0.00293911 -0.0353695
-0.0127194 -0.090195
-0.0134079 -0.0961088
-0.0146718 -0.11495
-0.0145867 -0.117664
0.00430378 -0.0542904
0.00757567 -0.0648171
0.00627477 -0.130348
0.00743777 -0.130202
0.0151306 -0.115622
0.0140944 -0.119694
0.00127995 -0.0616064
0.000577588 -0.057868
0.00280411 -0.130562
0.00309334 -0.131289
-0.000891651 -0.105391
0.00334898 -0.104283
0.00788748 -0.0338509
0.0093128 -0.0320636
-0.00356608 -0.126308
-0.00397835 -0.126859
-0.0104873 -0.127486
-0.00839816 -0.129999
-0.0105385 -0.127812
-0.00879165 -0.129928
0.0121214 -0.0996494
0.0118891 -0.106566
-0.00273101 -0.113751
-0.00388666 -0.107637
-0.00195304 -0.125715
-0.00106082 -0.125997
0.00443877 -0.0951833
-0.00177755 -0.0950751
0.00587044 -0.0585775
0.00777402 -0.0733636
0.0111277 -0.102529
0.01136 -0.108234
-0.00338546 -0.0773703
-0.00413072 -0.0596154
0.0019637 -0.125542
0.00342539 -0.124844
0.00512706 -0.131425
0.00542833 -0.130271
0.00708861 -0.0608563
0.00672127 -0.0630711
0.00980711 -0.128368
0.0109642 -0.12703
-0.011107 -0.0852231
-0.0100434 -0.0837419
-0.00684535 -0.0692912
-0.0085147 -0.0723685
-0.0118509 -0.125214
-0.0102318 -0.127882
0.0137649 -0.117401
0.0123809 -0.120641
-0.0004359 -0.125926
-0.000529229 -0.125821
0.00653367 -0.131237
0.00475335 -0.133428
0.00131115 -0.125812
0.00124627 -0.125854
-0.000284536 -0.126048
-0.0012904 -0.125896
0.0125073 -0.12225
0.0126589 -0.120371
-0.0119952 -0.0231128
-0.0106294 -0.0279265
0.00495143 -0.13003
0.00346858 -0.130657
-0.00463967 -0.0447249
-0.00292753 -0.0498054
0.01145 -0.106624
0.0128114 -0.106476
-0.00524896 -0.122108
-0.00391395 -0.124094
0.00802853 -0.128415
0.0073011 -0.128055
-0.00235314 -0.0461433
-0.000530634 -0.0349088
-0.00422551 -0.0918585
-0.000154562 -0.0814072
-0.000493632 -0.125504
-0.00119325 -0.125563
-0.00881504 -0.125915
-0.00947145 -0.126373
0.0106307 -0.127555
0.0128019 -0.124106
-0.00515774 -0.104093
-0.00472969 -0.110714
0.00283981 -0.126825
0.00358721 -0.127319
0.0116134 -0.125335
0.00903965 -0.129103
-0.00555071 -0.126225
-0.00765265 -0.125279
0.0103925 -0.0215279
0.0119026 -0.0202244
0.0170489 -0.110073
0.0164834 -0.11297
0.0013778 -0.125815
-0.00065739 -0.126022
0.0145903 -0.104655
0.0138797 -0.0986462
0.00159597 -0.0537465
0.0031627 -0.0492527
-0.000434222 -0.0545003
-0.00380219 -0.0614414
-0.00195493 -0.131588
-0.000566154 -0.132598
0.00420724 -0.00627843
0.00684033 -0.0127699
0.0120031 -0.0193983
0.0105623 -0.0184788
-0.00554631 -0.131839
-0.00374689 -0.132481
-0.00560872 -0.12552
-0.00764128 -0.124089
0.0108126 -0.0847635
0.00206783 -0.0851476
-0.000817101 -0.126184
-0.000165946 -0.126454
-0.00747271 -0.125198
-0.00706297 -0.124584
-0.00863381 -0.0197139
-0.00856238 -0.0134912
-0.00112779 -0.125996
0.000430738 -0.126142
0.000239062 -0.126362
-0.000194866 -0.126782
-0.0157759 -0.11406
-0.0149847 -0.11546
-0.0110238 -0.126284
-0.0100209 -0.127974
-0.00809636 -0.0753688
-0.00950893 -0.0815697
-0.000597935 -0.112867
0.00108758 -0.11712
0.000121281 -0.126293
0.00143082 -0.125678
0.0050371 -0.126063
0.00710292 -0.125384
0.00705129 -0.0220876
0.00609885 -0.0305312
-0.00403243 -0.0785297
-0.00671693 -0.0867942
0.00397273 -0.0431748
0.00328007 -0.0482067
0.00582849 -0.130893
0.0041716 -0.131325
0.0042005 -0.113305
0.00955962 -0.110084
0.00701579 -0.119132
0.00560108 -0.118915
0.000895624 -0.0339099
0.00226143 -0.037871
0.00188319 -0.133796
0.00127525 -0.132459
0.011842 -0.123364
0.0125779 -0.123293
-0.00760106 -0.121769
-0.0092723 -0.120592
-0.00908188 -0.0755155
-0.0107377 -0.0808824
0.0177912 -0.104417
0.0155066 -0.0991244
0.00113969 -0.00794161
-0.0012773 -0.0256298
0.00499203 -0.131056
0.00529416 -0.131981
-0.00751316 -0.0778246
-0.0100197 -0.0851297
0.00527978 -0.0234789
0.00497355 -0.0155754
-0.000590966 -0.12426
0.000237567 -0.125556
-0.00565128 -0.0719867
-0.00853079 -0.0808046
-0.0131752 -0.0963423
-0.0124111 -0.089105
-0.015654 -0.102014
-0.0144384 -0.0971216
0.0106306 -0.0259637
0.00983471 -0.0303838
0.0102793 -0.120397
0.0085314 -0.121712
-0.00581681 -0.119178
-0.00292187 -0.117839
-0.00901412 -0.121602
-0.00704258 -0.12324
-0.00510803 -0.0344789
-0.00126653 -0.0516904
-0.0143739 -0.120642
-0.0132293 -0.122658
0.00358677 -0.12936
0.00414987 -0.129748
-0.00252021 -0.104998
0.000985526 -0.109376
0.00685206 -0.0683034
0.00991162 -0.0786266
-0.0131388 -0.0151774
-0.0127842 -0.0188414
-0.0106253 -0.0867292
-0.00626008 -0.0752724
-0.00340196 -0.059167
-0.00587313 -0.0638113
0.00422657 -0.116832
0.000604876 -0.118201
0.0124347 -0.0907263
0.00842924 -0.0804045
-0.000956338 -0.129804
-0.000315815 -0.129342
-0.000936009 -0.131854
-0.00176252 -0.133039
-0.00789508 -0.0761089
-0.00995581 -0.0836192
-0.00705677 -0.119446
-0.00521496 -0.122204
0.0150542 -0.0985046
0.0164802 -0.104676
-0.000292614 -0.129334
-0.00108847 -0.128815
-0.0144535 -0.112366
-0.0133973 -0.113669
-0.0192189 -0.114419
-0.0170276 -0.117091
-0.00712138 -0.034632
-0.00827291 -0.0342717
0.0052088 -0.00765109
0.00319825 -0.0046865
0.00393017 -0.0291314
0.00631202 -0.0214049
0.00687565 -0.131318
0.00454654 -0.133495
-0.00104145 -0.00328607
-0.00133197 -0.00747954
-0.0166118 -0.104389
-0.0146544 -0.0972303
0.00616221 -0.0573709
0.00335222 -0.0452329
0.0070242 -0.0377564
0.00607264 -0.0413114
0.0124715 -0.124108
0.0160637 -0.118056
0.012926 -0.123411
0.0146077 -0.120707
-0.0086321 -0.0681963
-0.0106968 -0.0792974
0.00141364 -0.032917
-0.00193234 -0.0176496
0.0139256 -0.122046
0.0153452 -0.118688
-0.000151072 -0.124311
0.000682924 -0.122101
0.00399507 -0.0932133
-0.00217513 -0.0887898
0.0103688 -0.0796163
0.00830971 -0.0702536
0.00739702 -0.0161674
0.00573194 -0.0188652
0.00253453 -0.118068
0.00228212 -0.121718
0.00410676 -0.0368296
0.00150086 -0.0396196
-0.0118687 -0.088799
-0.00851194 -0.078982
-0.0134289 -0.122282
-0.0140256 -0.11982
0.000350173 -0.131137
0.000791886 -0.131466
0.0144135 -0.118388
0.0132641 -0.12201
0.00941678 -0.1284
0.0134817 -0.122593
0.000332559 -0.109997
-0.00193976 -0.114221
0.00358491 -0.00457204
0.00674318 -0.010572
0.00356049 -0.0345618
0.00439038 -0.0383336
-0.00157196 -0.00481778
-0.00351039 -0.00885204
-0.0110329 -0.127111
-0.0119057 -0.125737
0.00131153 -0.0573258
0.00477784 -0.06557
-0.0200972 -0.110101
-0.0185719 -0.119351
0.000350265 -0.0539125
0.0021465 -0.0632261
0.000141101 -0.129069
-0.00170962 -0.129075
-0.000984439 -0.0538382
-0.00138723 -0.0542531
-0.00984126 -0.125632
-0.0079765 -0.127091
0.00109726 -0.113746
-0.0019323 -0.116443
-0.00826 -0.0240715
-0.00645198 -0.0233771
-0.00909038 -0.123251
-0.00703557 -0.124806
0.011936 -0.107415
0.0123296 -0.111435
0.0100217 -0.0267031
0.00919445 -0.0320227
-2.42028e-05 -0.126104
0.000300406 -0.126042
0.00695164 -0.0611856
0.00945197 -0.0727124
-0.00324457 -0.0191084
-0.00159407 -0.0190396
0.00829238 -0.126883
0.00718633 -0.12675
-0.0102496 -0.0100354
-0.00567392 -0.00487594
0.00508868 -0.0666346
0.00589191 -0.0717781
-0.00870063 -0.129442
-0.0127673 -0.123773
-0.0105412 -0.0839489
-0.00897062 -0.0728138
-0.00585348 -0.132307
-0.00491499 -0.132117
-0.0117014 -0.120537
-0.0130282 -0.117227
-4.75073e-05 -0.126297
0.000121053 -0.126224
-0.004728 -0.130554
-0.00479479 -0.131475
0.00780918 -0.0645976
0.00990441 -0.0752463
-0.00831981 -0.126164
-0.00832432 -0.127164
-0.00763536 -0.0788451
-0.00466368 -0.0711375
-0.0135447 -0.0944587
-0.0138257 -0.0987854
-0.00338385 -0.123662
-0.00497384 -0.121097
0.00289973 -0.115227
0.00641158 -0.11679
-0.000492111 -0.132528
-0.000488642 -0.131425
-0.000526793 -0.126022
-0.000909426 -0.126009
0.014422 -0.120896
0.0153071 -0.117793
0.0057486 -0.124246
0.0073932 -0.122462
-0.0135053 -0.102068
-0.0136486 -0.0969265
0.011199 -0.0746496
0.00182764 -0.0743286
0.0116166 -0.108544
0.011495 -0.113197
0.00200142 -0.124118
0.00226916 -0.121697
-0.0109714 -0.121792
-0.00910377 -0.123704
-0.00670091 -0.128475
-0.00759309 -0.127245
0.00694739 -0.126337
0.00855769 -0.126006
-0.0109695 -0.12581
-0.0104418 -0.125433
0.00599942 -0.128458
0.00593948 -0.129254
-0.0157831 -0.115707
-0.0147043 -0.120044
-0.000302701 -0.129996
-0.00063234 -0.13036
-0.00365879 -0.118939
-0.00136241 -0.121035
-0.00765301 -0.0766139
-0.00405366 -0.0675887
0.0133464 -0.103986
0.0170062 -0.0964978
-0.014448 -0.120762
-0.0157946 -0.116873
-0.0115234 -0.125169
-0.00976786 -0.127509
-0.000760633 -0.137242
-0.00341064 -0.135349
-0.0116956 -0.118013
-0.0119904 -0.114826
-0.00400187 -0.052932
-0.00308604 -0.0550993
0.0137647 -0.106955
0.0131987 -0.10186
0.0140097 -0.0958155
0.0149668 -0.102853
-0.00365678 -0.126908
-0.00583898 -0.126152
-0.0161121 -0.0998439
-0.0124002 -0.0911035
-0.00769118 -0.113666
-0.00560109 -0.1184
0.00696211 -0.125645
0.00635552 -0.12515
0.0130554 -0.123252
0.0127006 -0.123979
0.00126101 -0.0423257
0.00439506 -0.0366254
-0.0134874 -0.0926269
-0.0135391 -0.101746
-0.00430927 -0.131618
-0.00434654 -0.130667
0.00611317 -0.118941
0.00816553 -0.11623
-0.0154714 -0.115856
-0.0149546 -0.115218
-0.00874389 -0.125477
-0.00851194 -0.12456
-0.0106895 -0.0235323
-0.0106459 -0.0273247
0.00214514 -0.103837
-0.00100632 -0.098009
-0.00675374 -0.124534
-0.00876537 -0.1227
-0.0101545 -0.123264
-0.00819341 -0.124932
-0.00311743 -0.00603599
-0.00351054 -0.0116352
-0.000588901 -0.0769522
0.00149761 -0.0907395
0.00212386 -0.0924169
0.00448175 -0.0816583
0.00125913 -0.0190275
-0.00157745 -0.033056
-0.00304992 -0.129151
-0.00146055 -0.129521
0.0112438 -0.0985396
0.0107417 -0.105869
-0.00295586 -0.0446208
0.00088322 -0.0336965
0.0234655 -0.113065
0.0175587 -0.10102
-0.000783384 -0.125316
-0.000230392 -0.126179
-0.0103329 -0.0105963
-0.00887736 -0.0107448
-0.00782522 -0.0257076
-0.00622724 -0.0342092
-0.00719816 -0.0331535
-0.00722552 -0.0371862
0.00626346 -0.0882111
0.00717053 -0.0763364
-0.00381777 -0.122788
-0.00197194 -0.124801
-0.00200097 -0.0334094
-0.00361193 -0.0525597
-0.00485649 -0.126002
-0.00673894 -0.125557
0.013181 -0.0916633
0.0132605 -0.094364
0.0212436 -0.108529
0.0169899 -0.100873
0.00120163 -0.0597946
0.00509784 -0.0703097
0.0108091 -0.126851
0.00917202 -0.128497
-0.00368368 -0.0667207
-0.00104845 -0.0574543
-0.00186796 -0.130449
-0.00308448 -0.130113
-0.00234795 -0.130684
-0.0015263 -0.130487
-0.00633823 -0.132713
-0.00388998 -0.134882
0.00157151 -0.0238343
-0.00133209 -0.0367493
-0.013498 -0.119598
-0.014701 -0.115884
0.0166521 -0.109477
0.0170985 -0.10756
-0.0150929 -0.119784
-0.0156074 -0.117725
-0.00607214 -0.118361
-0.00802921 -0.120196
0.00147087 -0.0295138
-0.00148367 -0.010928
0.0136766 -0.118487
0.0123544 -0.121793
-0.00570347 -0.117366
-0.00336747 -0.114242
-0.00182964 -0.0963393
-0.00344967 -0.103675
-0.00399356 -0.00461652
-0.000284382 -0.000327718
-0.00702577 -0.127625
-0.00589974 -0.127443
0.0129534 -0.123595
0.0105242 -0.127534
-0.0156822 -0.102378
-0.014478 -0.0974983
-0.00538377 -0.0430053
-0.00220023 -0.0517765
0.0126102 -0.0915848
0.0117988 -0.0920296
0.00999965 -0.127915
0.0112834 -0.125699
0.0135622 -0.122509
0.0151981 -0.119649
-0.0107281 -0.127574
-0.0125184 -0.124647
-0.00262018 -0.00730236
-0.000632642 -0.00205641
-0.00128944 -0.125953
-0.000656782 -0.126158
0.00471226 -0.104842
0.00196202 -0.100715
0.00460185 -0.135065
0.00620107 -0.133157
-0.00427148 -0.12214
-0.00471498 -0.119138
-0.0125825 -0.124313
-0.0161389 -0.118616
0.000941793 -0.131508
0.00242751 -0.131936
0.00255319 -0.0514536
0.00590954 -0.0598587
0.0101334 -0.0185096
0.00998278 -0.0133569
-0.01638 -0.117716
-0.0176004 -0.112111
0.00762353 -0.117463
0.00873324 -0.117926
0.00973786 -0.0880438
0.0110052 -0.0957371
-0.000960012 -0.129916
-0.00228775 -0.129983
-0.0150196 -0.0968099
-0.0113726 -0.0886658
0.00187426 -0.0268775
0.00350955 -0.045776
-0.000364845 -0.125861
-0.00179349 -0.125202
0.00894104 -0.0787585
0.0114882 -0.0855942
-0.0131051 -0.0163287
-0.0115441 -0.0153355
0.000174842 -0.0237862
-0.000401768 -0.0284219
-0.00301588 -0.132922
-0.00194264 -0.134935
0.012447 -0.114023
0.0108786 -0.116111
0.00220617 -0.00208583
0.00631498 -0.00725712
0.000203314 -0.130309
0.000436251 -0.129921
-0.00375259 -0.120661
-0.0023021 -0.123336
0.00590764 -0.112164
0.00776969 -0.107317
-0.00199433 -0.13081
-0.000935326 -0.131084
-0.012678 -0.0216735
-0.0134423 -0.0177515
0.00238797 -0.0210375
0.00247638 -0.0105603
0.000649322 -0.133479
0.00144646 -0.134672
-0.00740366 -0.130642
-0.00696792 -0.131794
0.0140753 -0.121687
0.0133146 -0.123315
-0.00792421 -0.130774
-0.00884224 -0.130069
0.020207 -0.108579
0.0152382 -0.0947746
-0.00227801 -0.131247
-0.00241274 -0.132303
0.00451744 -0.0549497
0.00624286 -0.060459
-0.00998631 -0.0828639
-0.0127078 -0.0903892
0.00786342 -0.130972
0.00512747 -0.134036
0.0113422 -0.0831624
0.00872042 -0.0736188
-0.0124801 -0.0153621
-0.0108506 -0.0144183
0.00174377 -0.127527
3.21895e-06 -0.127314
-0.00628789 -0.0754984
-0.00996839 -0.0850179
0.00684059 -0.107844
0.00856054 -0.101875
0.002259 -0.12632
0.0036263 -0.125589
-0.0138895 -0.114463
-0.0127212 -0.115596
-0.00706855 -0.126319
-0.00562732 -0.127666
0.0113045 -0.125844
0.00974952 -0.127351
-0.00501129 -0.129055
-0.00459077 -0.12852
-0.00346169 -0.0697225
-0.0101182 -0.0834101
0.00988315 -0.0807405
0.00817044 -0.0801002
-0.0100438 -0.126073
-0.00831896 -0.127813
0.00962028 -0.0874566
0.00981752 -0.0785037
0.00116228 -0.130699
0.00152248 -0.13095
0.011297 -0.0995518
0.0120971 -0.104871
-0.00280094 -0.0055212
-0.00073897 -0.00182353
-0.010414 -0.0782038
-0.0119813 -0.0880668
-0.00596444 -0.0197055
-0.00492723 -0.0286675
-0.00157589 -0.108819
0.00203443 -0.111324
-0.00329839 -0.1251
-0.00133074 -0.125921
0.00544191 -0.0961723
0.00517072 -0.0859842
0.00511837 -0.0576121
0.0036876 -0.0454936
-0.000639281 -0.125877
0.000325559 -0.126062
0.0103233 -0.102876
0.0081491 -0.100783
-0.00797865 -0.00707891
-0.00731286 -0.00733269
-0.00309352 -0.132801
-0.00332123 -0.13151
0.00676412 -0.124064
0.00889685 -0.122267
0.00146769 -0.127554
-0.000402102 -0.128131
-0.00630335 -0.128517
-0.00454253 -0.128886
0.000129049 -0.130786
-0.000367721 -0.130703
0.00278541 -0.0734408
0.00684061 -0.0723725
0.00455895 -0.128669
0.00606488 -0.127696
-0.00269345 -0.126901
-0.000891266 -0.127439
-0.00543168 -0.130363
-0.00447514 -0.131553
0.0028465 -0.125795
0.00393858 -0.125066
-0.00133663 -0.0149909
-0.000584931 -0.00254279
0.000843573 -0.130205
0.000536613 -0.129863
0.00129367 -0.129791
0.00273001 -0.129607
-0.00981924 -0.081014
-0.00775188 -0.0795564
-0.00211942 -0.125682
-0.000605635 -0.126022
0.0045427 -0.135133
0.0056007 -0.133825
-0.00187557 -0.126234
-0.000582528 -0.126664
0.0159552 -0.115775
0.0149065 -0.118701
-0.0110846 -0.0164099
-0.012161 -0.0145515
0.0131819 -0.123081
0.0107273 -0.126477
0.0130884 -0.107363
0.0123621 -0.112717
0.0136081 -0.103582
0.0134788 -0.0968654
-0.00950818 -0.0781729
-0.0106631 -0.083554
0.00663133 -0.126812
0.00662784 -0.125873
0.00296238 -0.124212
0.00168436 -0.12467
0.00512084 -0.124144
0.00331718 -0.125073
-0.00710729 -0.109796
-0.00162342 -0.109563
0.00837188 -0.010128
0.0111014 -0.0145892
0.00724468 -0.122864
0.00869964 -0.122227
-0.00713734 -0.124789
-0.00538915 -0.125279
-0.0109427 -0.121844
-0.012438 -0.120366
-0.00661927 -0.0394174
-0.00436162 -0.0455914
-0.0145522 -0.11949
-0.0136362 -0.120688
0.00302321 -0.128771
0.00317013 -0.127997
0.00398503 -0.00807125
0.00612147 -0.0122865
0.00862944 -0.12986
0.00495795 -0.134554
-0.00424413 -0.133717
-0.00531197 -0.131926
-0.00793805 -0.0651654
-0.00842711 -0.0710603
1.20601e-05 -0.130835
0.000230792 -0.130885
-0.000818668 -0.04751
-0.00166369 -0.0399905
-0.0126855 -0.0900655
-0.0140968 -0.0964758
-0.00163901 -0.131478
-0.000830202 -0.132737
0.00144096 -0.036382
0.00447067 -0.0295831
-0.00349675 -0.00390161
-0.00398879 -0.00369655
-0.00867625 -0.0776114
-0.00532943 -0.0674905
-0.000342003 -0.000620071
-0.000216941 -0.000259718
0.0191223 -0.114516
0.018301 -0.112765
-0.002123 -0.0438676
0.00115648 -0.054526
0.0128752 -0.102803
0.00987828 -0.108818
-0.015403 -0.107846
-0.0153961 -0.112816
-0.00170384 -0.127988
-5.34343e-05 -0.127472
0.0150001 -0.116899
0.0156768 -0.112319
-0.0159383 -0.1043
-0.0146819 -0.0981884
0.00172622 -0.0528174
0.00308191 -0.0497815
-0.00178691 -0.123077
-0.00160018 -0.125027
0.00509658 -0.133815
0.00303583 -0.135232
0.000361249 -0.129623
-1.8235e-05 -0.129132
0.0126519 -0.122062
0.0109775 -0.124362
-0.00123039 -0.125997
-0.000181535 -0.126154
0.00173976 -0.125778
0.00266188 -0.125371
-0.00418474 -0.129256
-0.00253183 -0.129666
0.0156533 -0.113761
0.0150029 -0.118133
0.0114407 -0.125502
0.00965919 -0.128011
0.00767506 -0.0364815
0.00775117 -0.0361455
-0.00924115 -0.0135285
-0.0107276 -0.0186313
0.0112704 -0.126353
0.0126034 -0.123796
-0.0101513 -0.126915
-0.00841884 -0.128875
0.00965112 -0.0855493
0.016719 -0.0749016
-0.0154928 -0.108929
-0.0149768 -0.103934
-0.00256257 -0.0469258
0.00127231 -0.0569512
-0.000780469 -0.125806
0.000251211 -0.126056
-0.00234985 -0.024235
0.00012979 -0.035439
-0.00530865 -0.0406878
-0.00673353 -0.0328778
0.0120716 -0.124621
0.0103972 -0.127336
-0.0073454 -0.127303
-0.00639169 -0.128508
-0.0140104 -0.0952738
-0.0160286 -0.101936
0.00671009 -0.0329996
0.00973059 -0.0283783
-0.00357148 -0.056144
-3.52489e-05 -0.0477697
0.0119377 -0.125041
0.0136003 -0.121837
0.011546 -0.0174795
0.0112053 -0.0232477
0.00560288 -0.0418463
0.0081973 -0.0334528
0.00987085 -0.128531
0.0127354 -0.124255
0.010895 -0.0823632
0.016519 -0.0988295
0.0122192 -0.0874755
0.0109472 -0.0819141
0.0134312 -0.112757
0.012053 -0.116455
-0.0150411 -0.100674
-0.0151309 -0.104971
-0.000112213 -0.126927
0.000294478 -0.127494
0.0101977 -0.0808108
0.0117168 -0.0869614
0.00995637 -0.0160713
0.0100155 -0.0225335
0.000240054 -0.130863
0.000553626 -0.130703
-0.0056133 -0.129935
-0.00735093 -0.129167
-0.00981738 -0.099784
-0.00747011 -0.105283
-0.00940749 -0.074294
-0.0106815 -0.0854351
-0.00387939 -0.130867
-0.0032265 -0.13189
-0.00107995 -0.0482095
0.00129845 -0.0371867
-0.00575519 -0.0296491
-0.00711318 -0.0209953
0.00143577 -0.130335
0.00261739 -0.130103
-0.00191072 -0.0359539
-0.00363183 -0.0524841
-0.0139944 -0.122044
-0.0166192 -0.116399
-0.000359266 -0.126688
0.00197739 -0.126364
0.00157655 -0.0553831
0.0043603 -0.0605608
-0.00544852 -0.0511535
-0.0087834 -0.0723731
0.00298503 -0.0422876
0.00361809 -0.0467928
0.010177 -0.122232
0.0118553 -0.12075
0.00626374 -0.129125
0.00753177 -0.129001
0.0135871 -0.0931793
0.0106111 -0.0841432
-0.00128692 -0.123861
-0.00115557 -0.12552
0.00874608 -0.129776
0.00866287 -0.129251
-0.00280197 -0.130468
-0.0039968 -0.13066
-0.00500869 -0.120318
-0.00597585 -0.116481
0.00241888 -0.00696782
0.00219569 -0.0117376
-0.00330185 -0.129078
-0.00180836 -0.12954
0.00824333 -0.130708
0.0083456 -0.130324
-0.00559386 -0.127795
-0.00577524 -0.126828
-0.0130613 -0.0915988
-0.0148402 -0.0992317
0.00840147 -0.128174
0.00726986 -0.129754
-0.0138117 -0.121601
-0.012634 -0.123557
0.000921874 -0.128144
-0.000237515 -0.127606
-0.0113668 -0.114635
-0.0125077 -0.114683
0.0106278 -0.123962
0.00887337 -0.125157
0.000943567 -0.125686
0.00122158 -0.124947
0.0150391 -0.0976604
0.0113738 -0.0881839
0.010008 -0.128397
0.00970434 -0.12882
-0.0107295 -0.12649
-0.0108411 -0.12543
0.0029835 -0.0445996
-0.000222801 -0.0550361
-0.00950522 -0.128538
-0.00859834 -0.130085
-0.0136421 -0.0165897
-0.0129145 -0.0204791
0.00423243 -0.0484182
0.00168799 -0.0368469
0.0154014 -0.107558
0.0154032 -0.103038
-0.000289516 -0.126139
-0.0010523 -0.125267
0.00233053 -0.117303
0.00196043 -0.113013
-0.00098338 -0.0527809
-0.00441407 -0.0425749
0.00828239 -0.128991
0.00754572 -0.130472
-0.00625827 -0.0586897
-0.00353922 -0.0451745
0.00328374 -0.131539
0.00498742 -0.130865
0.00104518 -0.125342
0.000139973 -0.126203
0.00843493 -0.125566
0.00997864 -0.124997
0.01065 -0.123148
0.010496 -0.124663
0.0114092 -0.121068
0.0129485 -0.119199
-0.00161666 -0.0927733
-0.000305576 -0.101644
-0.0144954 -0.120261
-0.0157062 -0.116854
0.00934635 -0.0721991
0.00974585 -0.080035
0.00382136 -0.134086
0.00468927 -0.132326
0.0148788 -0.101236
0.0152841 -0.100997
-0.00500625 -0.00528001
-0.000521656 -0.000516093
0.00954286 -0.0124306
0.0114105 -0.0129373
-0.00297907 -0.125427
-0.00137973 -0.125881
-0.000706401 -0.130787
-0.00014854 -0.130903
0.00893906 -0.0108451
0.0057724 -0.00685547
0.0141825 -0.106488
0.0143263 -0.100903
0.00421787 -0.121629
0.00176646 -0.121214
0.011416 -0.0237327
0.0104851 -0.0216659
0.000252352 -0.12335
-0.000147667 -0.125313
0.000341627 -0.130301
0.000884151 -0.130467
0.00692238 -0.124897
0.0048154 -0.125691
0.0146559 -0.0983012
0.0134622 -0.0928305
-0.0125426 -0.124384
-0.013961 -0.120967
0.00372195 -0.0570522
0.00698989 -0.06702
0.0137124 -0.0763356
0.0124889 -0.0875834
-0.0105569 -0.120869
-0.00948256 -0.12094
-0.0140925 -0.0956486
-0.0150981 -0.0991681
0.0169128 -0.11123
0.0172556 -0.112631
0.0186852 -0.104984
0.0195337 -0.114467
-0.0040247 -0.040839
-0.00109687 -0.0509164
-0.0136819 -0.112884
-0.0133594 -0.109323
-0.0125025 -0.0898058
-0.011114 -0.087013
0.00711143 -0.0769444
0.00884778 -0.0819667
0.00723741 -0.0652521
0.00389841 -0.0557383
0.00130075 -0.130606
0.00189336 -0.130786
-0.00701866 -0.129544
-0.00724958 -0.128575
-0.000639783 -0.131836
-0.00134013 -0.13316
0.0061256 -0.129077
0.00472862 -0.129145
-0.0050027 -0.127151
-0.00307466 -0.127266
-0.00655499 -0.132044
-0.00600371 -0.131714
-0.00144919 -0.085349
-0.00418507 -0.0692773
0.00159785 -0.015614
0.000686057 -0.00379625
-0.000948302 -0.119044
-0.00213055 -0.121482
0.0130134 -0.108763
0.0139963 -0.109908
0.0049927 -0.127416
0.0044292 -0.128368
0.0118758 -0.0233139
0.0132419 -0.0199813
-0.0131711 -0.0928514
-0.0129033 -0.094816
-0.0161717 -0.116578
-0.0142983 -0.121561
-0.000203053 -0.131173
-0.000921431 -0.131025
-0.00711336 -0.117878
-0.00746838 -0.113408
-0.0141628 -0.100632
-0.0135412 -0.0944678
0.00210641 -0.130852
0.00142411 -0.130627
0.00399873 -0.00808071
0.00523956 -0.0162476
0.0116375 -0.0872916
0.00887666 -0.0784466
0.0107374 -0.126421
0.0149532 -0.120647
0.00967475 -0.128845
0.00726069 -0.131817
-0.000466635 -0.115603
0.00167195 -0.118904
0.00873663 -0.125005
0.00790317 -0.126539
0.000519941 -0.112262
0.000177326 -0.117119
-0.000744167 -0.117531
0.0025827 -0.115748
-0.0104633 -0.127318
-0.0100568 -0.128232
0.0029462 -0.125737
0.00199001 -0.125774
-0.00268747 -0.0524324
-0.00587274 -0.0608486
0.00255911 -0.0534001
0.00504765 -0.0635922
0.000971813 -0.130013
0.0015055 -0.130246
-0.0120932 -0.113232
-0.0106675 -0.113974
0.00370578 -0.129821
0.00330878 -0.130421
-0.00358175 -0.124826
-0.00303537 -0.12544
0.0168981 -0.111607
0.0162938 -0.112329
0.00987261 -0.0760225
0.00705958 -0.0667408
0.00983103 -0.017975
0.00876307 -0.0250382
0.0128212 -0.122825
0.0127838 -0.121543
-0.0142289 -0.118177
-0.0136871 -0.121066
0.005399 -0.00438293
0.0085264 -0.0087544
-0.0111811 -0.105128
-0.0117309 -0.0975866
-0.0142782 -0.0959143
-0.0120936 -0.0881993
0.00898361 -0.115891
0.00999224 -0.111114
-0.00669492 -0.0960382
-0.0034874 -0.0929461
0.0129883 -0.11063
0.0116491 -0.111285
0.012434 -0.122993
0.0120845 -0.122165
-0.00961026 -0.0832201
-0.0111465 -0.0781357
-0.0101242 -0.0853326
-0.00840437 -0.0809562
0.00547565 -0.116099
0.00718846 -0.111438
-0.00659672 -0.131362
-0.00689411 -0.130223
-0.00804034 -0.113232
-0.00604206 -0.108476
-0.0068524 -0.132541
-0.00312924 -0.136964
0.00818947 -0.100436
0.00155983 -0.101341
-0.0120942 -0.0920183
-0.0110983 -0.0951877
-0.0103694 -0.125307
-0.011763 -0.124217
-0.00410737 -0.117256
-0.000705191 -0.116193
0.00321997 -0.125162
0.00170755 -0.125704
0.00678814 -0.129594
0.00580556 -0.131029
0.00823756 -0.0187954
0.0072382 -0.0119082
0.00290102 -0.0469642
0.00182274 -0.0531469
-0.00510245 -0.124174
-0.00481612 -0.123743
0.0118112 -0.0858434
0.0122836 -0.0885585
0.0115359 -0.106153
0.0114074 -0.111455
-0.00920744 -0.12968
-0.0118538 -0.125841
-0.00525062 -0.130846
-0.00424938 -0.132246
0.0142297 -0.121245
0.013935 -0.121193
0.0127228 -0.0933344
0.0114197 -0.0843298
-0.00544942 -0.116948
-0.00358787 -0.113158
0.017356 -0.105765
0.0149487 -0.0976939
0.00527181 -0.067951
0.00935081 -0.0517171
-0.00370441 -0.136297
-0.00436791 -0.135439
-0.00208998 -0.130895
-0.00156276 -0.130596
0.0077745 -0.0789717
0.00916416 -0.0885465
0.00602934 -0.0597403
0.00699569 -0.0605977
-0.0041202 -0.135799
-0.00301965 -0.137022
0.00890575 -0.129648
0.00698672 -0.131474
0.00207791 -0.126625
0.00133776 -0.127327
-0.00371316 -0.0453353
-0.000635224 -0.0337009
-0.0080513 -0.0659112
-0.00932522 -0.0717457
-0.012415 -0.124525
-0.0134296 -0.121846
-0.0101358 -0.0796435
-0.00941314 -0.0790836
-0.0179595 -0.116087
-0.0127897 -0.124646
-0.0102086 -0.126675
-0.0108605 -0.124988
0.00694225 -0.101094
0.00791073 -0.0919868
0.00235033 -0.136764
0.00167078 -0.13649
0.017448 -0.108504
0.0168872 -0.109564
0.00444342 -0.126215
0.00243196 -0.126489
0.0152082 -0.119674
0.0168671 -0.115099
-0.00545086 -0.105389
-0.00221277 -0.104764
0.00751008 -0.11469
0.0111607 -0.10914
0.00108577 -0.00648785
8.40192e-05 -0.0232556
0.000663392 -0.131443
0.000573447 -0.133175
-0.00800202 -0.124192
-0.00846008 -0.124851
0.00880319 -0.0818111
0.0127291 -0.0916497
-0.010777 -0.0271242
-0.0103264 -0.0280771
-0.00760509 -0.078261
-0.00738403 -0.0757994
-0.00120437 -0.00137078
-0.000398545 -0.000369451
-0.0133651 -0.093247
-0.0143655 -0.100045
-0.000839037 -0.126031
-0.000100966 -0.126426
-0.0008331 -0.122857
-0.00101032 -0.124892
-0.00497254 -0.116605
-0.00186942 -0.114127
-0.0123501 -0.0163409
-0.0132555 -0.014699
0.00516551 -0.0369197
0.00413519 -0.0441192
0.00492139 -0.118117
0.00514255 -0.113781
-0.00065376 -0.121547
0.000718585 -0.123646
0.0149916 -0.0975634
0.0135486 -0.0933296
0.000474686 -0.125869
0.000643018 -0.124502
0.00790334 -0.0181531
0.00975 -0.0179324
0.00779066 -0.0100743
0.00487228 -0.00633562
0.0009161 -0.000804959
0.0047417 -0.0040012
0.0181841 -0.105946
0.0173913 -0.105694
-0.00424995 -0.114372
-0.0061569 -0.116008
0.000568978 -0.0339762
-0.00229903 -0.0204526
-0.00152057 -0.137635
-0.00292667 -0.135497
-0.00368249 -0.0446407
-0.000519144 -0.0323442
0.00705905 -0.0385224
0.00595147 -0.0400927
-0.00246422 -0.119247
2.71337e-05 -0.119577
0.0170532 -0.108247
0.0167115 -0.112341
0.00419313 -0.135535
0.00731123 -0.13187
0.00834718 -0.0678557
0.0105751 -0.0789457
-0.00755014 -0.0324947
-0.00699442 -0.0279403
0.00206888 -0.135352
0.00442072 -0.133025
-0.0106223 -0.127113
-0.0104391 -0.127837
0.00877911 -0.0731169
0.00742406 -0.0765442
-0.0114775 -0.0887872
-0.0100802 -0.0845098
0.00330841 -0.00571733
0.00564891 -0.00971016
-0.000434184 -0.130134
-0.00137667 -0.130322
-0.000714935 -0.0406713
-0.00301106 -0.0418614
-0.00967144 -0.110344
-0.0114682 -0.109492
-7.66812e-05 -0.122491
-0.00210445 -0.122108
0.000603711 -0.125454
0.00183165 -0.124014
0.00334577 -0.129529
0.00345203 -0.130008
0.00839915 -0.0283284
0.0102166 -0.0214821
0.0109257 -0.0814467
0.0129276 -0.0904747
0.0074981 -0.0639072
0.00561665 -0.0571798
-0.00734041 -0.1284
-0.00637921 -0.129566
-0.00399667 -0.123513
-0.00462944 -0.121179
-0.0148871 -0.0982892
-0.0126989 -0.0904141
-0.00941627 -0.129066
-0.0113445 -0.126266
0.00388318 -0.0779758
-0.000799245 -0.0875528
-0.00541085 -0.120581
-0.00661226 -0.120873
-0.00248367 -0.121779
-0.0044094 -0.119315
-0.00161128 -0.125909
-0.00374396 -0.125211
-0.000326145 -0.129633
0.00121396 -0.129537
0.00233426 -0.125829
0.00334818 -0.125866
0.0130778 -0.0913522
0.014824 -0.0981059
0.00145118 -0.00977942
-0.000835124 -0.0183655
0.00872138 -0.00987318
0.0112346 -0.0147586
0.000855085 -0.130079
0.00125041 -0.130336
0.0124246 -0.089667
0.0131187 -0.0915667
-0.00158926 -0.0623108
-0.00566622 -0.0733741
-0.0024059 -0.123193
-0.00116685 -0.125091
-0.00307194 -0.12679
-0.00497886 -0.126633
-0.00506347 -0.0499664
-0.00166521 -0.0368276
-0.0020365 -0.0465975
0.00143039 -0.05367
-0.000344619 -0.130968
-0.000864253 -0.13074
0.000290513 -0.125968
-3.47666e-05 -0.126228
-0.0019616 -0.13012
-0.000712748 -0.130234
0.000241892 -0.0543844
0.00215989 -0.0493687
0.0117831 -0.0839983
0.0105007 -0.068225
0.000175857 -0.130818
0.000507758 -0.130787
0.00535451 -0.123481
0.00354147 -0.125016
0.00344856 -0.135983
0.00630204 -0.133012
-0.021745 -0.111721
-0.0172791 -0.101581
-0.00680595 -0.0769284
-0.00295876 -0.0663107
0.00124302 -0.002565
0.00250902 -0.00351416
-0.0117284 -0.125291
-0.0166601 -0.118607
0.0153319 -0.118727
0.015903 -0.116226
0.00186442 -0.130205
0.000940568 -0.130493
0.013669 -0.122305
0.0144472 -0.120884
-0.0105988 -0.0262529
-0.0120999 -0.0204378
0.00991049 -0.109318
0.00783064 -0.111906
0.00107194 -0.137226
0.00342526 -0.134513
0.0117301 -0.088135
0.0140002 -0.0945509
0.00257156 -0.0638106
0.00205971 -0.0638724
-3.28583e-05 -0.126426
-0.000168118 -0.126051
0.00220983 -0.127404
0.00430759 -0.126669
0.00955452 -0.119604
0.00756366 -0.121891
0.0022311 -0.123169
0.003932 -0.120571
-0.0109424 -0.126926
-0.0133117 -0.123141
0.00269608 -0.118164
0.00510237 -0.117079
-0.00660914 -0.132871
-0.00954022 -0.129227
-0.00551178 -0.117659
-0.00552538 -0.120633
0.0121883 -0.0234403
0.0110397 -0.0242941
0.00578375 -0.124893
0.00796898 -0.123473
-0.00148733 -0.130485
-0.00253278 -0.130584
-0.00953148 -0.0838369
-0.0121106 -0.0900653
-0.0130521 -0.0174075
-0.0115496 -0.0162375
0.00218471 -0.0213111
0.00393712 -0.018888
0.00969963 -0.114287
0.00886447 -0.118041
0.00167164 -0.123618
0.00349967 -0.12138
0.0161591 -0.102958
0.016959 -0.109408
0.00638472 -0.125119
0.00432342 -0.125775
0.00450919 -0.0691275
0.00712405 -0.0772103
0.00349376 -0.0442699
0.00250434 -0.0398498
0.00778874 -0.0788709
0.00343793 -0.0667789
0.000154063 -0.130177
0.000834984 -0.129779
0.00492571 -0.0661659
0.00947489 -0.0715985
0.00359484 -0.133378
0.00224985 -0.135526
0.00116133 -0.0602112
-0.00262621 -0.0503133
0.00638999 -0.0751346
0.00363781 -0.0682505
-0.00341654 -0.0637986
-0.00166238 -0.0556325
0.0104715 -0.026248
0.0104309 -0.0288053
-0.0112845 -0.126586
-0.00814183 -0.130689
-0.0058106 -0.00583619
-0.00754098 -0.00673362
0.0130099 -0.0921322
0.00979016 -0.0813944
-0.00709735 -0.0129615
-0.00898838 -0.0175989
0.0050274 -0.031558
0.00535992 -0.0238398
-0.000761722 -0.12602
6.68431e-05 -0.126038
0.00255842 -0.0344348
-0.00790938 -0.0382576
0.00632526 -0.13297
0.00585158 -0.133295
-0.0121345 -0.0204345
-0.0133292 -0.0191416
-0.01617 -0.112091
-0.0154592 -0.11681
-0.00125781 -0.125902
0.000424337 -0.126005
0.00926632 -0.011476
0.0116889 -0.013973
0.001795 -0.00198929
0.00283495 -0.0038543
-0.00431594 -0.126539
-0.00624392 -0.126172
-0.00446816 -0.00401976
-0.00888349 -0.00860322
0.00448949 -0.135186
0.00547561 -0.133895
0.0148827 -0.119864
0.01289 -0.124039
-0.00828616 -0.12927
-0.00845691 -0.128271
0.00251476 -0.129601
0.0025984 -0.129038
-0.00490239 -0.130009
-0.00347175 -0.130623
0.00614735 -0.123068
0.0065603 -0.121556
0.00113274 -0.125875
0.00171047 -0.125647
0.00782365 -0.0108181
0.00881578 -0.0163884
-0.00125676 -0.0286683
-0.00346843 -0.0177324
0.0136569 -0.120744
0.0133816 -0.119583
0.000221315 -0.130641
7.49494e-05 -0.130854
-0.0011475 -0.125974
0.000472243 -0.126072
-0.000397382 -0.108227
0.00347627 -0.106805
0.00871011 -0.0194273
0.00820045 -0.0270139
-0.000907222 -0.130891
-0.00119417 -0.130582
0.00516376 -0.0684809
0.00667673 -0.0699897
-0.00421502 -0.0243557
-0.00455927 -0.015276
0.0138886 -0.122064
0.0140475 -0.121654
-0.0093026 -0.12673
-0.0075081 -0.128133
0.000420045 -0.0593178
0.00442707 -0.0701635
0.00761804 -0.0344837
0.0139839 -0.0596742
-0.00890273 -0.12346
-0.00707133 -0.12442
-0.0151179 -0.114225
-0.0140794 -0.117309
0.00347923 -0.125458
0.00269818 -0.125478
-0.00282787 -0.0434951
-0.00197294 -0.0634947
0.00150205 -0.125756
-0.000120279 -0.126049
0.00476051 -0.0409929
0.00750942 -0.0321873
0.0186461 -0.0849531
0.0121658 -0.0686008
-0.00111452 -0.130969
-0.00231309 -0.130782
0.0052092 -0.0976159
0.00792778 -0.104472
0.0111036 -0.0825387
0.0114459 -0.0837851
-0.00670634 -0.132127
-0.00853315 -0.129611
-0.000351611 -0.12583
0.000270345 -0.126143
0.00484223 -0.10457
0.00691575 -0.11052
-0.00186646 -0.125531
-0.000988503 -0.125769
-0.00242835 -0.0486897
-0.00305394 -0.0493075
-0.00169396 -0.122624
0.000201851 -0.123241
-0.00550643 -0.12419
-0.00760134 -0.12248
-0.00951225 -0.120931
-0.00751418 -0.12299
0.0154109 -0.113465
0.0157989 -0.108443
0.000388209 -0.119475
0.00157782 -0.115068
-0.00212781 -0.00967766
-0.000730779 -0.0119546
0.00660916 -0.124597
0.00870126 -0.123269
-0.00596256 -0.0403979
-0.00253766 -0.0493703
0.0053358 -0.0569657
0.00643311 -0.0576534
-0.00720599 -0.131294
-0.00554903 -0.132265
0.00222848 -0.130096
0.00132798 -0.13045
-0.0130678 -0.0988113
-0.0124475 -0.091031
0.00609283 -0.0135222
0.00793196 -0.0171051
2.86208e-05 -0.12603
0.00166468 -0.125913
-0.00393955 -0.12954
-0.00316497 -0.130142
-0.0147156 -0.0974066
-0.016938 -0.105201
-0.00233034 -0.117413
-0.000671407 -0.120707
-0.00156335 -0.130642
-0.00284235 -0.130512
-0.00166877 -0.13064
-0.00297402 -0.130464
0.0112362 -0.0830428
0.00939629 -0.0723169
0.0153908 -0.0977131
0.0196074 -0.10645
-0.00239916 -0.125517
-0.00108967 -0.12598
0.00462652 -0.13365
0.00383033 -0.133302
0.00409153 -0.0512015
0.00704476 -0.0627983
-0.00495334 -0.130959
-0.006411 -0.130772
0.013614 -0.11816
0.0143129 -0.118244
0.0139923 -0.10805
0.0141135 -0.112527
-0.0156262 -0.113105
-0.0150667 -0.117545
0.0070956 -0.115784
0.00583217 -0.11972
0.000419087 -0.130841
0.000875613 -0.130724
-0.00966539 -0.0912577
-0.0114636 -0.0947663
0.0136631 -0.0174838
0.0124107 -0.0166817
0.00975136 -0.0283166
0.00840905 -0.0342942
-0.00348352 -0.12025
-0.00552099 -0.119497
-0.00421827 -0.124631
-0.0057515 -0.123952
-0.00160173 -0.130311
-0.00281035 -0.130343
-0.00796219 -0.00900155
-0.00681191 -0.00920956
-0.00433912 -0.067984
-0.00239178 -0.0647125
0.0177388 -0.110913
0.0164268 -0.117061
-0.00924729 -0.127865
-0.00958336 -0.126632
-0.0133624 -0.114944
-0.0144059 -0.111297
-0.00928874 -0.122843
-0.0110267 -0.120225
-0.00536419 -0.124445
-0.00652136 -0.122893
0.0115995 -0.125604
0.0108094 -0.126397
-0.00486844 -0.127906
-0.00688964 -0.127066
0.0108882 -0.0989263
0.00710875 -0.0896592
-0.00309394 -0.0240787
-0.00255613 -0.0176216
-0.00402981 -0.0591857
-0.00884885 -0.0680623
0.00100743 -0.0555958
-0.00144194 -0.0616186
0.00517035 -0.0380753
0.00204042 -0.0479711
-0.0122195 -0.0880376
-0.0100008 -0.0788531
-0.0144122 -0.104303
-0.0147267 -0.109435
0.0158519 -0.108012
0.0162424 -0.11059
-0.0053965 -0.125699
-0.00500622 -0.126618
-0.00306046 -0.13109
-0.00165188 -0.131057
-0.0122187 -0.110848
-0.0125759 -0.1052
-0.0155944 -0.119344
-0.0169133 -0.115204
-0.000121042 -0.126461
4.83757e-05 -0.126348
0.0161246 -0.111022
0.0166027 -0.111701
0.00026862 -0.126854
6.71396e-05 -0.126443
-0.00759397 -0.0751256
-0.00627831 -0.0617814
-0.0163847 -0.116735
-0.0151297 -0.119698
-0.0102211 -0.128091
-0.0132389 -0.123461
-0.00167157 -0.0301042
0.00328996 -0.0430401
0.00138264 -0.0485523
-0.00171223 -0.0372218
-0.0123089 -0.124994
-0.0144613 -0.121276
0.00326423 -0.136557
0.00511565 -0.13442
2.22786e-05 -0.0556641
-0.00142228 -0.0356769
-0.00836059 -0.0809811
-0.00815897 -0.0802876
-0.0162733 -0.119039
-0.0185016 -0.112346
-0.0060461 -0.0992431
-0.00348887 -0.105638
-0.00670381 -0.00812485
-0.00961274 -0.0113
0.00694052 -0.0205968
0.00663726 -0.0128714
-0.0064948 -0.132234
-0.00829691 -0.130627
0.0122348 -0.110559
0.0130224 -0.112666
0.00727059 -0.0733621
0.0106414 -0.0834695
-0.000978926 -0.12604
-0.00173932 -0.125834
-0.0163087 -0.102742
-0.0158109 -0.102153
0.0113332 -0.125181
0.0115708 -0.125664
0.00529816 -0.128771
0.00417274 -0.128559
-0.00851901 -0.0205866
-0.00852071 -0.013953
0.000817152 -0.12547
0.00179433 -0.123523
0.00189505 -0.132121
0.00295341 -0.132911
-0.00153812 -0.130924
-0.00268635 -0.130601
-8.77575e-05 -0.126417
-0.00075485 -0.12613
-0.00717774 -0.094725
-0.00896659 -0.100269
-0.00123168 -0.125838
-0.000766492 -0.12529
0.00111114 -0.00159265
0.00438267 -0.00863417
-0.0183101 -0.101506
-0.0116793 -0.0855595
0.0157108 -0.11341
0.0152747 -0.112141
-0.00356612 -0.119808
-0.00326261 -0.122776
0.00236183 -0.126994
0.00459935 -0.126418
0.00470124 -0.124987
0.00687323 -0.12354
-0.00512594 -0.129016
-0.00424471 -0.128672
-0.0003894 -0.0292038
-0.000279547 -0.03304
-0.0102807 -0.101171
-0.00462021 -0.0952954
-0.00234828 -0.134109
-0.00480237 -0.134609
-0.00480237 -0.134609
-0.00738874 -0.135256
-0.00738874 -0.135256
-0.0100477 -0.136099
-0.0100477 -0.136099
-0.0127259 -0.137168
-0.0127259 -0.137168
-0.0153829 -0.138453
-0.0153829 -0.138453
-0.01797 -0.139953
-0.01797 -0.139953
-0.0204479 -0.141654
-0.0204479 -0.141654
-0.0227818 -0.143537
-0.0227818 -0.143537
-0.0249395 -0.145581
-0.0249395 -0.145581
-0.0268991 -0.147756
-0.0268991 -0.147756
-0.0286404 -0.150032
-0.0286404 -0.150032
-0.0301519 -0.152377
-0.0301519 -0.152377
-0.0314284 -0.15476
-0.0314284 -0.15476
-0.0324624 -0.157143
-0.0324624 -0.157143
-0.0332639 -0.159506
-0.0332639 -0.159506
-0.0338401 -0.161813
-0.0338401 -0.161813
-0.0342009 -0.16404
-0.0342009 -0.16404
-0.0343646 -0.166171
-0.0343646 -0.166171
-0.0343461 -0.168179
-0.0343461 -0.168179
-0.0341687 -0.170055
-0.0341687 -0.170055
-0.0338473 -0.171793
-0.0338473 -0.171793
-0.033402 -0.17338
-0.033402 -0.17338
-0.032856 -0.174816
-0.032856 -0.174816
-0.0322208 -0.176104
-0.0322208 -0.176104
-0.031508 -0.177253
-0.031508 -0.177253
-0.0307328 -0.178254
-0.0307328 -0.178254
-0.0299073 -0.179121
-0.0299073 -0.179121
-0.0290244 -0.179872
-0.0290244 -0.179872
-0.0280826 -0.180502
-0.0280826 -0.180502
-0.0270959 -0.181013
-0.0270959 -0.181013
-0.0260469 -0.181397
-0.0260469 -0.181397
-0.0249146 -0.181682
-0.0249146 -0.181682
-0.0237004 -0.181856
-0.0237004 -0.181856
-0.0223978 -0.181873
-0.0223978 -0.181873
-0.0209626 -0.181743
-0.0209626 -0.181743
-0.0193952 -0.181477
-0.0193952 -0.181477
-0.0176864 -0.181005
-0.0176864 -0.181005
-0.0158122 -0.180243
-0.0158122 -0.180243
-0.0137602 -0.179212
-0.0137602 -0.179212
-0.0115369 -0.177858
-0.0115369 -0.177858
-0.0091273 -0.176027
-0.0091273 -0.176027
-0.00655457 -0.173661
-0.00655457 -0.173661
-0.00383424 -0.170656
-0.00383424 -0.170656
-0.000937022 -0.166792
-0.000937022 -0.166792
0.00199734 -0.161809
0.00199734 -0.161809
0.00501506 -0.155438
0.00501506 -0.155438
0.00807759 -0.146756
0.00807759 -0.146756
0.0112914 -0.13547
0.0112914 -0.13547
0.0157176 -0.123346
0.0157176 -0.123346
0.0183183 -0.117466
0.0183183 -0.117466
0.0185042 -0.115355
0.0185042 -0.115355
0.0180159 -0.114557
0.0180159 -0.114557
0.0175025 -0.114534
0.0175025 -0.114534
0.0169631 -0.115061
0.0169631 -0.115061
0.0165132 -0.115962
0.0165132 -0.115962
0.0159923 -0.117201
0.0159923 -0.117201
0.0153122 -0.118701
0.0153122 -0.118701
0.0146123 -0.120411
0.0146123 -0.120411
0.0138404 -0.122164
0.0138404 -0.122164
0.0129375 -0.12384
0.0129375 -0.12384
0.0119015 -0.125396
0.0119015 -0.125396
0.0108095 -0.126839
0.0108095 -0.126839
0.00967999 -0.128127
0.00967999 -0.128127
0.00850818 -0.129249
0.00850818 -0.129249
0.00732491 -0.130218
0.00732491 -0.130218
0.0061415 -0.131039
0.0061415 -0.131039
0.00496075 -0.131719
0.00496075 -0.131719
0.0037653 -0.132285
0.0037653 -0.132285
0.0025412 -0.132756
0.0025412 -0.132756
0.00125197 -0.13318
0.00125197 -0.13318
-0.000289573 -0.133618
-0.000289573 -0.133618
-0.00234828 -0.134109
0.0194326 -0.181636
0.0209952 -0.181902
0.0209952 -0.181902
0.0224288 -0.182025
0.0224288 -0.182025
0.0237301 -0.18201
0.0237301 -0.18201
0.0249392 -0.181844
0.0249392 -0.181844
0.026067 -0.181561
0.026067 -0.181561
0.0271137 -0.181182
0.0271137 -0.181182
0.028094 -0.180675
0.028094 -0.180675
0.0290314 -0.180053
0.0290314 -0.180053
0.0299114 -0.179304
0.0299114 -0.179304
0.0307339 -0.17844
0.0307339 -0.17844
0.0315055 -0.177443
0.0315055 -0.177443
0.0322147 -0.176299
0.0322147 -0.176299
0.0328482 -0.175014
0.0328482 -0.175014
0.033392 -0.173584
0.033392 -0.173584
0.0338352 -0.172006
0.0338352 -0.172006
0.0341552 -0.170267
0.0341552 -0.170267
0.0343338 -0.1684
0.0343338 -0.1684
0.0343518 -0.166408
0.0343518 -0.166408
0.0341921 -0.164282
0.0341921 -0.164282
0.0338296 -0.162056
0.0338296 -0.162056
0.0332558 -0.159756
0.0332558 -0.159756
0.0324582 -0.157402
0.0324582 -0.157402
0.0314239 -0.155022
0.0314239 -0.155022
0.030153 -0.152645
0.030153 -0.152645
0.0286475 -0.15031
0.0286475 -0.15031
0.0269084 -0.148038
0.0269084 -0.148038
0.0249563 -0.145871
0.0249563 -0.145871
0.0228037 -0.143833
0.0228037 -0.143833
0.0204775 -0.141954
0.0204775 -0.141954
0.0180082 -0.140257
0.0180082 -0.140257
0.0154299 -0.138759
0.0154299 -0.138759
0.0127873 -0.137478
0.0127873 -0.137478
0.0101148 -0.136415
0.0101148 -0.136415
0.00747558 -0.135571
0.00747558 -0.135571
0.00490338 -0.134922
0.00490338 -0.134922
0.00248443 -0.134418
0.00248443 -0.134418
0.000433321 -0.133936
0.000433321 -0.133936
-0.00110056 -0.133496
-0.00110056 -0.133496
-0.00240617 -0.133075
-0.00240617 -0.133075
-0.00364383 -0.132605
-0.00364383 -0.132605
-0.00485587 -0.132046
-0.00485587 -0.132046
-0.00605708 -0.131365
-0.00605708 -0.131365
-0.00726045 -0.130534
-0.00726045 -0.130534
-0.00845112 -0.129549
-0.00845112 -0.129549
-0.0096298 -0.128407
-0.0096298 -0.128407
-0.0107662 -0.127097
-0.0107662 -0.127097
-0.0118363 -0.125617
-0.0118363 -0.125617
-0.0128298 -0.123995
-0.0128298 -0.123995
-0.0137571 -0.12231
-0.0137571 -0.12231
-0.0145676 -0.120698
-0.0145676 -0.120698
-0.0152563 -0.119143
-0.0152563 -0.119143
-0.0158385 -0.117708
-0.0158385 -0.117708
-0.0163748 -0.116429
-0.0163748 -0.116429
-0.0169254 -0.115433
-0.0169254 -0.115433
-0.0174013 -0.114861
-0.0174013 -0.114861
-0.0178774 -0.114813
-0.0178774 -0.114813
-0.0182222 -0.115626
-0.0182222 -0.115626
-0.0180282 -0.117674
-0.0180282 -0.117674
-0.0158453 -0.123389
-0.0158453 -0.123389
-0.0110896 -0.135566
-0.0110896 -0.135566
-0.00778992 -0.146582
-0.00778992 -0.146582
-0.00491865 -0.155405
-0.00491865 -0.155405
-0.00194271 -0.16201
-0.00194271 -0.16201
0.00104849 -0.166931
0.00104849 -0.166931
0.00388469 -0.170828
0.00388469 -0.170828
0.00662247 -0.173789
0.00662247 -0.173789
0.00921444 -0.176144
0.00921444 -0.176144
0.01161 -0.178007
0.01161 -0.178007
0.0138173 -0.179375
0.0138173 -0.179375
0.0158654 -0.180382
0.0158654 -0.180382
0.0177392 -0.181137
0.0177392 -0.181137
0.0194326 -0.181636
      </DataArray> 
      <DataArray type="Float64" NumberOfComponents="2" Name="Velocity" format="ascii">
0 0
0 0
0 0
0 0
0 0
0 0
0 0
0 0
0 0
0 0
0 0
0 0
0 0
0 0
0 0
0 0
0 0
0 0
0 0
0 0
0 0
0 0
0 0
0 0
0 0
0 0
0 0
0 0
0 0
0 0
0 0
0 0
0 0
0 0
0 0
0 0
0 0
0 0
0 0
0 0
0 0
0 0
0 0
0 0
0 0
0 0
0 0
0 0
0 0
0 0
0 0
0 0
0 0
0 0
0 0
0 0
0 0
0 0
0 0
0 0
0 0
0 0
0 0
0 0
0 0
0 0
0 0
0 0
0 0
0 0
0 0
0 0
0 0
0 0
0 0
0 0
0 0
0 0
0 0
0 0
0 0
0 0
0 0
0 0
0 0
0 0
0 0
0 0
0 0
0 0
0 0
0 0
0 0
0 0
0 0
0 0
0 0
0 0
0 0
0 0
0 0
0 0
0 0
0 0
0 0
0 0
0 0
0 0
0 0
0 0
0 0
0 0
0 0
0 0
0 0
0 0
0 0
0 0
0 0
0 0
0 0
0 0
0 0
0 0
0 0
0 0
0 0
0 0
0 0
0 0
0 0
0 0
0 0
0 0
0 0
0 0
0 0
0 0
0 0
0 0
0 0
0 0
0 0
0 0
0 0
0 0
0 0
0 0
0 0
0 0
0 0
0 0
0 0
0 0
0 0
0 0
0 0
0 0
0 0
0 0
0 0
0 0
0 0
0 0
0 0
0 0
0 0
0 0
0 0
0 0
0 0
0 0
0 0
0 0
0 0
0 0
0 0
0 0
0 0
0 0
0 0
0 0
0 0
0 0
0 0
0 0
0 0
0 0
0 0
0 0
0 0
0 0
0 0
0 0
0 0
0 0
0 0
0 0
0 0
0 0
0 0
0 0
0 0
0 0
0 0
0 0
0 0
0 0
0 0
0 0
0 0
0 0
0 0
0 0
0 0
0 0
0 0
0 0
0 0
0 0
0 0
0 0
0 0
0 0
0 0
0 0
0 0
0 0
0 0
0 0
0 0
0 0
0 0
0 0
0 0
0 0
0 0
0 0
0 0
0 0
0 0
0 0
0 0
0 0
0 0
0 0
0 0
0 0
0 0
0 0
0 0
0 0
0 0
0 0
0 0
0 0
0 0
0 0
0 0
0 0
0 0
0 0
0 0
0 0
0 0
0 0
0 0
0 0
0 0
0 0
0 0
0 0
0 0
0 0
0 0
0 0
0 0
0 0
0 0
0 0
0 0
0 0
0 0
0 0
0 0
0 0
0 0
0 0
0 0
0 0
0 0
0 0
0 0
0 0
0 0
0 0
0 0
0 0
0 0
0 0
0 0
0 0
0 0
0 0
0 0
0 0
0 0
0 0
0 0
0 0
0 0
0 0
0 0
0 0
0 0
0 0
0 0
0 0
0 0
0 0
0 0
0 0
0 0
0 0
0 0
0 0
0 0
0 0
0 0
0 0
0 0
0 0
0 0
0 0
0 0
0 0
0 0
0 0
0 0
0 0
0 0
0 0
0 0
0 0
0 0
0 0
0 0
0 0
0 0
0 0
0 0
0 0
0 0
0 0
0 0
0 0
0 0
0 0
0 0
0 0
0 0
0 0
0 0
0 0
0 0
0 0
0 0
0 0
0 0
0 0
0 0
0 0
0 0
0 0
0 0
0 0
0 0
0 0
0 0
0 0
0 0
0 0
0 0
0 0
0 0
0 0
0 0
0 0
0 0
0 0
0 0
0 0
0 0
0 0
0 0
0 0
0 0
0 0
0 0
0 0
0 0
0 0
0 0
0 0
0 0
0 0
0 0
0 0
0 0
0 0
0 0
0 0
0 0
0 0
0 0
0 0
0 0
0 0
0 0
0 0
0 0
0 0
0 0
0 0
0 0
0 0
0 0
0 0
0 0
0 0
0 0
0 0
0 0
0 0
0 0
0 0
0 0
0 0
0 0
0 0
0 0
0 0
0 0
0 0
0 0
0 0
0 0
0 0
0 0
0 0
0 0
0 0
0 0
0 0
0 0
0 0
0 0
0 0
0 0
0 0
0 0
0 0
0 0
0 0
0 0
0 0
0 0
0 0
0 0
0 0
0 0
0 0
0 0
0 0
0 0
0 0
0 0
0 0
0 0
0 0
0 0
0 0
0 0
0 0
0 0
0 0
0 0
0 0
0 0
0 0
0 0
0 0
0 0
0 0
0 0
0 0
0 0
0 0
0 0
0 0
0 0
0 0
0 0
0 0
0 0
0 0
0 0
0 0
0 0
0 0
0 0
0 0
0 0
0 0
0 0
0 0
0 0
0 0
0 0
0 0
0 0
0 0
0 0
0 0
0 0
0 0
0 0
0 0
0 0
0 0
0 0
0 0
0 0
0 0
0 0
0 0
0 0
0 0
0 0
0 0
0 0
0 0
0 0
0 0
0 0
0 0
0 0
0 0
0 0
0 0
0 0
0 0
0 0
0 0
0 0
0 0
0 0
0 0
0 0
0 0
0 0
0 0
0 0
0 0
0 0
0 0
0 0
0 0
0 0
0 0
0 0
0 0
0 0
0 0
0 0
0 0
0 0
0 0
0 0
0 0
0 0
0 0
0 0
0 0
0 0
0 0
0 0
0 0
0 0
0 0
0 0
0 0
0 0
0 0
0 0
0 0
0 0
0 0
0 0
0 0
0 0
0 0
0 0
0 0
0 0
0 0
0 0
0 0
0 0
0 0
0 0
0 0
0 0
0 0
0 0
0 0
0 0
0 0
0 0
0 0
0 0
0 0
0 0
0 0
0 0
0 0
0 0
0 0
0 0
0 0
0 0
0 0
0 0
0 0
0 0
0 0
0 0
0 0
0 0
0 0
0 0
0 0
0 0
0 0
0 0
0 0
0 0
0 0
0 0
0 0
0 0
0 0
0 0
0 0
0 0
0 0
0 0
0 0
0 0
0 0
0 0
0 0
0 0
0 0
0 0
0 0
0 0
0 0
0 0
0 0
0 0
0 0
0 0
0 0
0 0
0 0
0 0
0 0
0 0
0 0
0 0
0 0
0 0
0 0
0 0
0 0
0 0
0 0
0 0
0 0
0 0
0 0
0 0
0 0
0 0
0 0
0 0
0 0
0 0
0 0
0 0
0 0
0 0
0 0
0 0
0 0
0 0
0 0
0 0
0 0
0 0
0 0
0 0
0 0
0 0
0 0
0 0
0 0
0 0
0 0
0 0
0 0
0 0
0 0
0 0
0 0
0 0
0 0
0 0
0 0
0 0
0 0
0 0
0 0
0 0
0 0
0 0
0 0
0 0
0 0
0 0
0 0
0 0
0 0
0 0
0 0
0 0
0 0
0 0
0 0
0 0
0 0
0 0
0 0
0 0
0 0
0 0
0 0
0 0
0 0
0 0
0 0
0 0
0 0
0 0
0 0
0 0
0 0
0 0
0 0
0 0
0 0
0 0
0 0
0 0
0 0
0 0
0 0
0 0
0 0
0 0
0 0
0 0
0 0
0 0
0 0
0 0
0 0
0 0
0 0
0 0
0 0
0 0
0 0
0 0
0 0
0 0
0 0
0 0
0 0
0 0
0 0
0 0
0 0
0 0
0 0
0 0
0 0
0 0
0 0
0 0
0 0
0 0
0 0
0 0
0 0
0 0
0 0
0 0
0 0
0 0
0 0
0 0
0 0
0 0
0 0
0 0
0 0
0 0
0 0
0 0
0 0
0 0
0 0
0 0
0 0
0 0
0 0
0 0
0 0
0 0
0 0
0 0
0 0
0 0
0 0
0 0
0 0
0 0
0 0
0 0
0 0
0 0
0 0
0 0
0 0
0 0
0 0
0 0
0 0
0 0
0 0
0 0
0 0
0 0
0 0
0 0
0 0
0 0
0 0
0 0
0 0
0 0
0 0
0 0
0 0
0 0
0 0
0 0
0 0
0 0
0 0
0 0
0 0
0 0
0 0
0 0
0 0
0 0
0 0
0 0
0 0
0 0
0 0
0 0
0 0
0 0
0 0
0 0
0 0
0 0
0 0
0 0
0 0
0 0
0 0
0 0
0 0
0 0
0 0
0 0
0 0
0 0
0 0
0 0
0 0
0 0
0 0
0 0
0 0
0 0
0 0
0 0
0 0
0 0
0 0
0 0
0 0
0 0
0 0
0 0
0 0
0 0
0 0
0 0
0 0
0 0
0 0
0 0
0 0
0 0
0 0
0 0
0 0
0 0
0 0
0 0
0 0
0 0
0 0
0 0
0 0
0 0
0 0
0 0
0 0
0 0
0 0
0 0
0 0
0 0
0 0
0 0
0 0
0 0
0 0
0 0
0 0
0 0
0 0
0 0
0 0
0 0
0 0
0 0
0 0
0 0
0 0
0 0
0 0
0 0
0 0
0 0
0 0
0 0
0 0
0 0
0 0
0 0
0 0
0 0
0 0
0 0
0 0
0 0
0 0
0 0
0 0
0 0
0 0
0 0
0 0
0 0
0 0
0 0
0 0
0 0
0 0
0 0
0 0
0 0
0 0
0 0
0 0
0 0
0 0
0 0
0 0
0 0
0 0
0 0
0 0
0 0
0 0
0 0
0 0
0 0
0 0
0 0
0 0
0 0
0 0
0 0
0 0
0 0
0 0
0 0
0 0
0 0
0 0
0 0
0 0
0 0
0 0
0 0
0 0
0 0
0 0
0 0
0 0
0 0
0 0
0 0
0 0
0 0
0 0
0 0
0 0
0 0
0 0
0 0
0 0
0 0
0 0
0 0
0 0
0 0
0 0
0 0
0 0
0 0
0 0
0 0
0 0
0 0
0 0
0 0
0 0
0 0
0 0
0 0
0 0
0 0
0 0
0 0
0 0
0 0
0 0
0 0
0 0
0 0
0 0
0 0
0 0
0 0
0 0
0 0
0 0
0 0
0 0
0 0
0 0
0 0
0 0
0 0
0 0
0 0
0 0
0 0
0 0
0 0
0 0
0 0
0 0
0 0
0 0
0 0
0 0
0 0
0 0
0 0
0 0
0 0
0 0
0 0
0 0
0 0
0 0
0 0
0 0
0 0
0 0
0 0
0 0
0 0
0 0
0 0
0 0
0 0
0 0
0 0
0 0
0 0
0 0
0 0
0 0
0 0
0 0
0 0
0 0
0 0
0 0
0 0
0 0
0 0
0 0
0 0
0 0
0 0
0 0
0 0
0 0
0 0
0 0
0 0
0 0
0 0
0 0
0 0
0 0
0 0
0 0
0 0
0 0
0 0
0 0
0 0
0 0
0 0
0 0
0 0
0 0
0 0
0 0
0 0
0 0
0 0
0 0
0 0
0 0
0 0
0 0
0 0
0 0
0 0
0 0
0 0
0 0
0 0
0 0
0 0
0 0
0 0
0 0
0 0
0 0
0 0
0 0
0 0
0 0
0 0
0 0
0 0
0 0
0 0
0 0
0 0
0 0
0 0
0 0
0 0
0 0
0 0
0 0
0 0
0 0
0 0
0 0
0 0
0 0
0 0
0 0
0 0
0 0
0 0
0 0
0 0
0 0
0 0
0 0
0 0
0 0
0 0
0 0
0 0
0 0
0 0
0 0
0 0
0 0
0 0
0 0
0 0
0 0
0 0
0 0
0 0
0 0
0 0
0 0
0 0
0 0
0 0
0 0
0 0
0 0
0 0
0 0
0 0
0 0
0 0
0 0
0 0
0 0
0 0
0 0
0 0
0 0
0 0
0 0
0 0
0 0
0 0
0 0
0 0
0 0
0 0
0 0
0 0
0 0
0 0
0 0
0 0
0 0
0 0
0 0
0 0
0 0
0 0
0 0
0 0
0 0
0 0
0 0
0 0
0 0
0 0
0 0
0 0
0 0
0 0
0 0
0 0
0 0
0 0
0 0
0 0
0 0
0 0
0 0
0 0
0 0
0 0
0 0
0 0
0 0
0 0
0 0
0 0
0 0
0 0
0 0
0 0
0 0
0 0
0 0
0 0
0 0
0 0
0 0
0 0
0 0
0 0
0 0
0 0
0 0
0 0
0 0
0 0
0 0
0 0
0 0
0 0
0 0
0 0
0 0
0 0
0 0
0 0
0 0
0 0
0 0
0 0
0 0
0 0
0 0
0 0
0 0
0 0
0 0
0 0
0 0
0 0
0 0
0 0
0 0
0 0
0 0
0 0
0 0
0 0
0 0
0 0
0 0
0 0
0 0
0 0
0 0
0 0
0 0
0 0
0 0
0 0
0 0
0 0
0 0
0 0
0 0
0 0
0 0
0 0
0 0
0 0
0 0
0 0
0 0
0 0
0 0
0 0
0 0
0 0
0 0
0 0
0 0
0 0
0 0
0 0
0 0
0 0
0 0
0 0
0 0
0 0
0 0
0 0
0 0
0 0
0 0
0 0
0 0
0 0
0 0
0 0
0 0
0 0
0 0
0 0
0 0
0 0
0 0
0 0
0 0
0 0
0 0
0 0
0 0
0 0
0 0
0 0
0 0
0 0
0 0
0 0
0 0
0 0
0 0
0 0
0 0
0 0
0 0
0 0
0 0
0 0
0 0
0 0
0 0
0 0
0 0
0 0
0 0
0 0
0 0
0 0
0 0
0 0
0 0
0 0
0 0
0 0
0 0
0 0
0 0
0 0
0 0
0 0
0 0
0 0
0 0
0 0
0 0
0 0
0 0
0 0
0 0
0 0
0 0
0 0
0 0
0 0
0 0
0 0
0 0
0 0
0 0
0 0
0 0
0 0
0 0
0 0
0 0
0 0
0 0
0 0
0 0
0 0
0 0
0 0
0 0
0 0
0 0
0 0
0 0
0 0
0 0
0 0
0 0
0 0
0 0
0 0
0 0
0 0
0 0
0 0
0 0
0 0
0 0
0 0
0 0
0 0
0 0
0 0
0 0
0 0
0 0
0 0
0 0
0 0
0 0
0 0
0 0
0 0
0 0
0 0
0 0
0 0
0 0
0 0
0 0
0 0
0 0
0 0
0 0
0 0
0 0
0 0
0 0
0 0
0 0
0 0
0 0
0 0
0 0
0 0
0 0
0 0
0 0
0 0
0 0
0 0
0 0
0 0
0 0
0 0
0 0
0 0
0 0
0 0
0 0
0 0
0 0
0 0
0 0
0 0
0 0
0 0
0 0
0 0
0 0
0 0
0 0
0 0
0 0
0 0
0 0
0 0
0 0
0 0
0 0
0 0
0 0
0 0
0 0
0 0
0 0
0 0
0 0
0 0
0 0
0 0
0 0
0 0
0 0
0 0
0 0
0 0
0 0
0 0
0 0
0 0
0 0
0 0
0 0
0 0
0 0
0 0
0 0
0 0
0 0
0 0
0 0
0 0
0 0
0 0
0 0
0 0
0 0
0 0
0 0
0 0
0 0
0 0
0 0
0 0
0 0
0 0
0 0
0 0
0 0
0 0
0 0
0 0
0 0
0 0
0 0
0 0
0 0
0 0
0 0
0 0
0 0
0 0
0 0
0 0
0 0
0 0
0 0
0 0
0 0
0 0
0 0
0 0
0 0
0 0
0 0
0 0
0 0
0 0
0 0
0 0
0 0
0 0
0 0
0 0
0 0
0 0
0 0
0 0
0 0
0 0
0 0
0 0
0 0
0 0
0 0
0 0
0 0
0 0
0 0
0 0
0 0
0 0
0 0
0 0
0 0
0 0
0 0
0 0
0 0
0 0
0 0
0 0
0 0
0 0
0 0
0 0
0 0
0 0
0 0
0 0
0 0
0 0
0 0
0 0
0 0
0 0
0 0
0 0
0 0
0 0
0 0
0 0
0 0
0 0
0 0
0 0
0 0
0 0
0 0
0 0
0 0
0 0
0 0
0 0
0 0
0 0
0 0
0 0
0 0
0 0
0 0
0 0
0 0
0 0
0 0
0 0
0 0
0 0
0 0
0 0
0 0
0 0
0 0
0 0
0 0
0 0
0 0
0 0
0 0
0 0
0 0
0 0
0 0
0 0
0 0
0 0
0 0
0 0
0 0
0 0
0 0
0 0
0 0
0 0
0 0
0 0
0 0
0 0
0 0
0 0
0 0
0 0
0 0
0 0
0 0
0 0
0 0
0 0
0 0
0 0
0 0
0 0
0 0
0 0
0 0
0 0
0 0
0 0
0 0
0 0
0 0
0 0
0 0
0 0
0 0
0 0
0 0
0 0
0 0
0 0
0 0
0 0
0 0
0 0
0 0
0 0
0 0
0 0
0 0
0 0
0 0
0 0
0 0
0 0
0 0
0 0
0 0
0 0
0 0
0 0
0 0
0 0
0 0
0 0
0 0
0 0
0 0
0 0
0 0
0 0
0 0
0 0
0 0
0 0
0 0
0 0
0 0
0 0
0 0
0 0
0 0
0 0
0 0
0 0
0 0
0 0
0 0
0 0
0 0
0 0
0 0
0 0
0 0
0 0
0 0
0 0
0 0
0 0
0 0
0 0
0 0
0 0
0 0
0 0
0 0
0 0
0 0
0 0
0 0
0 0
0 0
0 0
0 0
0 0
0 0
0 0
0 0
0 0
0 0
0 0
0 0
0 0
0 0
0 0
0 0
0 0
0 0
0 0
0 0
0 0
0 0
0 0
0 0
0 0
0 0
0 0
0 0
0 0
0 0
0 0
0 0
0 0
0 0
0 0
0 0
0 0
0 0
0 0
0 0
0 0
0 0
0 0
0 0
0 0
0 0
0 0
0 0
0 0
0 0
0 0
0 0
0 0
0 0
0 0
0 0
0 0
0 0
0 0
0 0
0 0
0 0
0 0
0 0
0 0
0 0
0 0
0 0
0 0
0 0
0 0
0 0
0 0
0 0
0 0
0 0
0 0
0 0
0 0
0 0
0 0
0 0
0 0
0 0
0 0
0 0
0 0
0 0
0 0
0 0
0 0
0 0
0 0
0 0
0 0
0 0
0 0
0 0
0 0
0 0
0 0
0 0
0 0
0 0
0 0
0 0
0 0
0 0
0 0
0 0
0 0
0 0
0 0
0 0
0 0
0 0
0 0
0 0
0 0
0 0
0 0
0 0
0 0
0 0
0 0
0 0
0 0
0 0
0 0
0 0
0 0
0 0
0 0
0 0
0 0
0 0
0 0
0 0
0 0
0 0
0 0
0 0
0 0
0 0
0 0
0 0
0 0
0 0
0 0
0 0
0 0
0 0
0 0
0 0
0 0
0 0
0 0
0 0
0 0
0 0
0 0
0 0
0 0
0 0
0 0
0 0
0 0
0 0
0 0
0 0
0 0
0 0
0 0
0 0
0 0
0 0
0 0
0 0
0 0
0 0
0 0
0 0
0 0
0 0
0 0
0 0
0 0
0 0
0 0
0 0
0 0
0 0
0 0
0 0
0 0
0 0
0 0
0 0
0 0
0 0
0 0
0 0
0 0
0 0
0 0
0 0
0 0
0 0
0 0
0 0
0 0
0 0
0 0
0 0
0 0
0 0
0 0
0 0
0 0
0 0
0 0
0 0
0 0
0 0
0 0
0 0
0 0
0 0
0 0
0 0
0 0
0 0
0 0
0 0
0 0
0 0
0 0
0 0
0 0
0 0
0 0
0 0
0 0
0 0
0 0
0 0
0 0
0 0
0 0
0 0
0 0
0 0
0 0
0 0
0 0
0 0
0 0
0 0
0 0
0 0
0 0
0 0
0 0
0 0
0 0
0 0
0 0
0 0
0 0
0 0
0 0
0 0
0 0
0 0
0 0
0 0
0 0
0 0
0 0
0 0
0 0
0 0
0 0
0 0
0 0
0 0
0 0
0 0
0 0
0 0
0 0
0 0
0 0
0 0
0 0
0 0
0 0
0 0
0 0
0 0
0 0
0 0
0 0
0 0
0 0
0 0
0 0
0 0
0 0
0 0
0 0
0 0
0 0
0 0
0 0
0 0
0 0
0 0
0 0
0 0
0 0
0 0
0 0
0 0
0 0
0 0
0 0
0 0
0 0
0 0
0 0
0 0
0 0
0 0
0 0
0 0
0 0
0 0
0 0
0 0
0 0
0 0
0 0
0 0
0 0
0 0
0 0
0 0
0 0
0 0
0 0
0 0
0 0
0 0
0 0
0 0
0 0
0 0
0 0
0 0
0 0
0 0
0 0
0 0
0 0
0 0
0 0
0 0
0 0
0 0
0 0
0 0
0 0
0 0
0 0
0 0
0 0
0 0
0 0
0 0
0 0
0 0
0 0
0 0
0 0
0 0
0 0
0 0
0 0
0 0
0 0
0 0
0 0
0 0
0 0
0 0
0 0
0 0
0 0
0 0
0 0
0 0
0 0
0 0
0 0
0 0
0 0
0 0
0 0
0 0
0 0
0 0
0 0
0 0
0 0
0 0
0 0
0 0
0 0
0 0
0 0
0 0
0 0
0 0
0 0
0 0
0 0
0 0
0 0
0 0
0 0
0 0
0 0
0 0
0 0
0 0
0 0
0 0
0 0
0 0
0 0
0 0
0 0
0 0
0 0
0 0
0 0
0 0
0 0
0 0
0 0
0 0
0 0
0 0
0 0
0 0
0 0
0 0
0 0
0 0
0 0
0 0
0 0
0 0
0 0
0 0
0 0
0 0
0 0
0 0
0 0
0 0
0 0
0 0
0 0
0 0
0 0
0 0
0 0
0 0
0 0
0 0
0 0
0 0
0 0
0 0
0 0
0 0
0 0
0 0
0 0
0 0
0 0
0 0
0 0
0 0
0 0
0 0
0 0
0 0
0 0
0 0
0 0
0 0
0 0
0 0
0 0
0 0
0 0
0 0
0 0
0 0
0 0
0 0
0 0
0 0
0 0
0 0
0 0
0 0
0 0
0 0
0 0
0 0
0 0
0 0
0 0
0 0
0 0
0 0
0 0
0 0
0 0
0 0
0 0
0 0
0 0
0 0
0 0
0 0
0 0
0 0
0 0
0 0
0 0
0 0
0 0
0 0
0 0
0 0
0 0
0 0
0 0
0 0
0 0
0 0
0 0
0 0
0 0
0 0
0 0
0 0
0 0
0 0
0 0
0 0
0 0
0 0
0 0
0 0
0 0
0 0
0 0
0 0
0 0
0 0
0 0
0 0
0 0
0 0
0 0
0 0
0 0
0 0
0 0
0 0
0 0
0 0
0 0
0 0
0 0
0 0
0 0
0 0
0 0
0 0
0 0
0 0
0 0
0 0
0 0
0 0
0 0
0 0
0 0
0 0
0 0
0 0
0 0
0 0
0 0
0 0
0 0
0 0
0 0
0 0
0 0
0 0
0 0
0 0
0 0
0 0
0 0
0 0
0 0
0 0
0 0
0 0
0 0
0 0
0 0
0 0
0 0
0 0
0 0
0 0
0 0
0 0
0 0
0 0
0 0
0 0
0 0
0 0
0 0
0 0
0 0
0 0
0 0
0 0
0 0
0 0
0 0
0 0
0 0
0 0
0 0
0 0
0 0
0 0
0 0
0 0
0 0
0 0
0 0
0 0
0 0
0 0
0 0
0 0
0 0
0 0
0 0
0 0
0 0
0 0
0 0
0 0
0 0
0 0
0 0
0 0
0 0
0 0
0 0
0 0
0 0
0 0
0 0
0 0
0 0
0 0
0 0
0 0
0 0
0 0
0 0
0 0
0 0
0 0
0 0
0 0
0 0
0 0
0 0
0 0
0 0
0 0
0 0
0 0
0 0
0 0
0 0
0 0
0 0
0 0
0 0
0 0
0 0
0 0
0 0
0 0
0 0
0 0
0 0
0 0
0 0
0 0
0 0
0 0
0 0
0 0
0 0
0 0
0 0
0 0
0 0
0 0
0 0
0 0
0 0
0 0
0 0
0 0
0 0
0 0
0 0
0 0
0 0
0 0
0 0
0 0
0 0
0 0
0 0
0 0
0 0
0 0
0 0
0 0
0 0
0 0
0 0
0 0
0 0
0 0
0 0
0 0
0 0
0 0
0 0
0 0
0 0
0 0
0 0
0 0
0 0
0 0
0 0
0 0
0 0
0 0
0 0
0 0
0 0
0 0
0 0
0 0
0 0
0 0
0 0
0 0
0 0
0 0
0 0
0 0
0 0
0 0
0 0
0 0
0 0
0 0
0 0
0 0
0 0
0 0
0 0
0 0
0 0
0 0
0 0
0 0
0 0
0 0
0 0
0 0
0 0
0 0
0 0
0 0
0 0
0 0
0 0
0 0
0 0
0 0
0 0
0 0
0 0
0 0
0 0
0 0
0 0
0 0
0 0
0 0
0 0
0 0
0 0
0 0
0 0
0 0
0 0
0 0
0 0
0 0
0 0
0 0
0 0
0 0
0 0
0 0
0 0
0 0
0 0
0 0
0 0
0 0
0 0
0 0
0 0
0 0
0 0
0 0
0 0
0 0
0 0
0 0
0 0
0 0
0 0
0 0
0 0
0 0
0 0
0 0
0 0
0 0
0 0
0 0
0 0
0 0
0 0
0 0
0 0
0 0
0 0
0 0
0 0
0 0
0 0
0 0
0 0
0 0
0 0
0 0
0 0
0 0
0 0
0 0
0 0
0 0
0 0
0 0
0 0
0 0
0 0
0 0
0 0
0 0
0 0
0 0
0 0
0 0
0 0
0 0
0 0
0 0
0 0
0 0
0 0
0 0
0 0
0 0
0 0
0 0
0 0
0 0
0 0
0 0
0 0
0 0
0 0
0 0
0 0
0 0
0 0
0 0
0 0
0 0
0 0
0 0
0 0
0 0
0 0
0 0
0 0
0 0
0 0
0 0
0 0
0 0
0 0
0 0
0 0
0 0
0 0
0 0
0 0
0 0
0 0
0 0
0 0
0 0
0 0
0 0
0 0
0 0
0 0
0 0
0 0
0 0
0 0
0 0
0 0
0 0
0 0
0 0
0 0
0 0
0 0
0 0
0 0
0 0
0 0
0 0
0 0
0 0
0 0
0 0
0 0
0 0
0 0
0 0
0 0
0 0
0 0
0 0
0 0
0 0
0 0
0 0
0 0
0 0
0 0
0 0
0 0
0 0
0 0
0 0
0 0
0 0
0 0
0 0
0 0
0 0
0 0
0 0
0 0
0 0
0 0
0 0
0 0
0 0
0 0
0 0
0 0
0 0
0 0
0 0
0 0
0 0
0 0
0 0
0 0
0 0
0 0
0 0
0 0
0 0
0 0
0 0
0 0
0 0
0 0
0 0
0 0
0 0
0 0
0 0
0 0
0 0
0 0
0 0
0 0
0 0
0 0
0 0
0 0
0 0
0 0
0 0
0 0
0 0
0 0
0 0
0 0
0 0
0 0
0 0
0 0
0 0
0 0
0 0
0 0
0 0
0 0
0 0
0 0
0 0
0 0
0 0
0 0
0 0
0 0
0 0
0 0
0 0
0 0
0 0
0 0
0 0
0 0
0 0
0 0
0 0
0 0
0 0
0 0
0 0
0 0
0 0
0 0
0 0
0 0
0 0
0 0
0 0
0 0
0 0
0 0
0 0
0 0
0 0
0 0
0 0
0 0
0 0
0 0
0 0
0 0
0 0
0 0
0 0
0 0
0 0
0 0
0 0
0 0
0 0
0 0
0 0
0 0
0 0
0 0
0 0
0 0
0 0
0 0
0 0
0 0
0 0
0 0
0 0
0 0
0 0
0 0
0 0
0 0
0 0
0 0
0 0
0 0
0 0
0 0
0 0
0 0
0 0
0 0
0 0
0 0
0 0
0 0
0 0
0 0
0 0
0 0
0 0
0 0
0 0
0 0
0 0
0 0
0 0
0 0
0 0
0 0
0 0
0 0
0 0
0 0
0 0
0 0
0 0
0 0
0 0
0 0
0 0
0 0
0 0
0 0
0 0
0 0
0 0
0 0
0 0
0 0
0 0
0 0
0 0
0 0
0 0
0 0
0 0
0 0
0 0
0 0
0 0
0 0
0 0
0 0
0 0
0 0
0 0
0 0
0 0
0 0
0 0
0 0
0 0
0 0
0 0
0 0
0 0
0 0
0 0
0 0
0 0
0 0
0 0
0 0
0 0
0 0
0 0
0 0
0 0
0 0
0 0
0 0
0 0
0 0
0 0
0 0
0 0
0 0
0 0
0 0
0 0
0 0
0 0
0 0
0 0
0 0
0 0
0 0
0 0
0 0
0 0
0 0
0 0
0 0
0 0
0 0
0 0
0 0
0 0
0 0
0 0
0 0
0 0
0 0
0 0
0 0
0 0
0 0
0 0
0 0
0 0
0 0
0 0
0 0
0 0
0 0
0 0
0 0
0 0
0 0
0 0
0 0
0 0
0 0
0 0
0 0
0 0
0 0
0 0
0 0
0 0
0 0
0 0
0 0
0 0
0 0
0 0
0 0
0 0
0 0
0 0
0 0
0 0
0 0
0 0
0 0
0 0
0 0
0 0
0 0
0 0
0 0
0 0
0 0
0 0
0 0
0 0
0 0
0 0
0 0
0 0
0 0
0 0
0 0
0 0
0 0
0 0
0 0
0 0
0 0
0 0
0 0
0 0
0 0
0 0
0 0
0 0
0 0
0 0
0 0
0 0
0 0
0 0
0 0
0 0
0 0
0 0
0 0
0 0
0 0
0 0
0 0
0 0
0 0
0 0
0 0
0 0
0 0
0 0
0 0
0 0
0 0
0 0
0 0
0 0
0 0
0 0
0 0
0 0
0 0
0 0
0 0
0 0
0 0
0 0
0 0
0 0
0 0
0 0
0 0
0 0
0 0
0 0
0 0
0 0
0 0
0 0
0 0
0 0
0 0
0 0
0 0
0 0
0 0
0 0
0 0
0 0
0 0
0 0
0 0
0 0
0 0
0 0
0 0
0 0
0 0
0 0
0 0
0 0
0 0
0 0
0 0
0 0
0 0
0 0
0 0
0 0
0 0
0 0
0 0
0 0
0 0
0 0
0 0
0 0
0 0
0 0
0 0
0 0
0 0
0 0
0 0
0 0
0 0
0 0
0 0
0 0
0 0
0 0
0 0
0 0
0 0
0 0
0 0
0 0
0 0
0 0
0 0
0 0
0 0
0 0
0 0
0 0
0 0
0 0
0 0
0 0
0 0
0 0
0 0
0 0
0 0
0 0
0 0
0 0
0 0
0 0
0 0
0 0
0 0
0 0
0 0
0 0
0 0
0 0
0 0
0 0
0 0
0 0
0 0
0 0
0 0
0 0
0 0
0 0
0 0
0 0
0 0
0 0
0 0
0 0
0 0
0 0
0 0
0 0
0 0
0 0
0 0
0 0
0 0
0 0
0 0
0 0
0 0
0 0
0 0
0 0
0 0
0 0
0 0
0 0
0 0
0 0
0 0
0 0
0 0
0 0
0 0
0 0
0 0
0 0
0 0
0 0
0 0
0 0
0 0
0 0
0 0
0 0
0 0
0 0
0 0
0 0
0 0
0 0
0 0
0 0
0 0
0 0
0 0
0 0
0 0
0 0
0 0
0 0
0 0
0 0
0 0
0 0
0 0
0 0
0 0
0 0
0 0
0 0
0 0
0 0
0 0
0 0
0 0
0 0
0 0
0 0
0 0
0 0
0 0
0 0
0 0
0 0
0 0
0 0
0 0
0 0
0 0
0 0
0 0
0 0
0 0
0 0
0 0
0 0
0 0
      </DataArray> 
      <DataArray type="Float64" NumberOfComponents="2" Name="Acceleration" format="ascii">
0 0
0 0
0 0
0 0
0 0
0 0
0 0
0 0
0 0
0 0
0 0
0 0
0 0
0 0
0 0
0 0
0 0
0 0
0 0
0 0
0 0
0 0
0 0
0 0
0 0
0 0
0 0
0 0
0 0
0 0
0 0
0 0
0 0
0 0
0 0
0 0
0 0
0 0
0 0
0 0
0 0
0 0
0 0
0 0
0 0
0 0
0 0
0 0
0 0
0 0
0 0
0 0
0 0
0 0
0 0
0 0
0 0
0 0
0 0
0 0
0 0
0 0
0 0
0 0
0 0
0 0
0 0
0 0
0 0
0 0
0 0
0 0
0 0
0 0
0 0
0 0
0 0
0 0
0 0
0 0
0 0
0 0
0 0
0 0
0 0
0 0
0 0
0 0
0 0
0 0
0 0
0 0
0 0
0 0
0 0
0 0
0 0
0 0
0 0
0 0
0 0
0 0
0 0
0 0
0 0
0 0
0 0
0 0
0 0
0 0
0 0
0 0
0 0
0 0
0 0
0 0
0 0
0 0
0 0
0 0
0 0
0 0
0 0
0 0
0 0
0 0
0 0
0 0
0 0
0 0
0 0
0 0
0 0
0 0
0 0
0 0
0 0
0 0
0 0
0 0
0 0
0 0
0 0
0 0
0 0
0 0
0 0
0 0
0 0
0 0
0 0
0 0
0 0
0 0
0 0
0 0
0 0
0 0
0 0
0 0
0 0
0 0
0 0
0 0
0 0
0 0
0 0
0 0
0 0
0 0
0 0
0 0
0 0
0 0
0 0
0 0
0 0
0 0
0 0
0 0
0 0
0 0
0 0
0 0
0 0
0 0
0 0
0 0
0 0
0 0
0 0
0 0
0 0
0 0
0 0
0 0
0 0
0 0
0 0
0 0
0 0
0 0
0 0
0 0
0 0
0 0
0 0
0 0
0 0
0 0
0 0
0 0
0 0
0 0
0 0
0 0
0 0
0 0
0 0
0 0
0 0
0 0
0 0
0 0
0 0
0 0
0 0
0 0
0 0
0 0
0 0
0 0
0 0
0 0
0 0
0 0
0 0
0 0
0 0
0 0
0 0
0 0
0 0
0 0
0 0
0 0
0 0
0 0
0 0
0 0
0 0
0 0
0 0
0 0
0 0
0 0
0 0
0 0
0 0
0 0
0 0
0 0
0 0
0 0
0 0
0 0
0 0
0 0
0 0
0 0
0 0
0 0
0 0
0 0
0 0
0 0
0 0
0 0
0 0
0 0
0 0
0 0
0 0
0 0
0 0
0 0
0 0
0 0
0 0
0 0
0 0
0 0
0 0
0 0
0 0
0 0
0 0
0 0
0 0
0 0
0 0
0 0
0 0
0 0
0 0
0 0
0 0
0 0
0 0
0 0
0 0
0 0
0 0
0 0
0 0
0 0
0 0
0 0
0 0
0 0
0 0
0 0
0 0
0 0
0 0
0 0
0 0
0 0
0 0
0 0
0 0
0 0
0 0
0 0
0 0
0 0
0 0
0 0
0 0
0 0
0 0
0 0
0 0
0 0
0 0
0 0
0 0
0 0
0 0
0 0
0 0
0 0
0 0
0 0
0 0
0 0
0 0
0 0
0 0
0 0
0 0
0 0
0 0
0 0
0 0
0 0
0 0
0 0
0 0
0 0
0 0
0 0
0 0
0 0
0 0
0 0
0 0
0 0
0 0
0 0
0 0
0 0
0 0
0 0
0 0
0 0
0 0
0 0
0 0
0 0
0 0
0 0
0 0
0 0
0 0
0 0
0 0
0 0
0 0
0 0
0 0
0 0
0 0
0 0
0 0
0 0
0 0
0 0
0 0
0 0
0 0
0 0
0 0
0 0
0 0
0 0
0 0
0 0
0 0
0 0
0 0
0 0
0 0
0 0
0 0
0 0
0 0
0 0
0 0
0 0
0 0
0 0
0 0
0 0
0 0
0 0
0 0
0 0
0 0
0 0
0 0
0 0
0 0
0 0
0 0
0 0
0 0
0 0
0 0
0 0
0 0
0 0
0 0
0 0
0 0
0 0
0 0
0 0
0 0
0 0
0 0
0 0
0 0
0 0
0 0
0 0
0 0
0 0
0 0
0 0
0 0
0 0
0 0
0 0
0 0
0 0
0 0
0 0
0 0
0 0
0 0
0 0
0 0
0 0
0 0
0 0
0 0
0 0
0 0
0 0
0 0
0 0
0 0
0 0
0 0
0 0
0 0
0 0
0 0
0 0
0 0
0 0
0 0
0 0
0 0
0 0
0 0
0 0
0 0
0 0
0 0
0 0
0 0
0 0
0 0
0 0
0 0
0 0
0 0
0 0
0 0
0 0
0 0
0 0
0 0
0 0
0 0
0 0
0 0
0 0
0 0
0 0
0 0
0 0
0 0
0 0
0 0
0 0
0 0
0 0
0 0
0 0
0 0
0 0
0 0
0 0
0 0
0 0
0 0
0 0
0 0
0 0
0 0
0 0
0 0
0 0
0 0
0 0
0 0
0 0
0 0
0 0
0 0
0 0
0 0
0 0
0 0
0 0
0 0
0 0
0 0
0 0
0 0
0 0
0 0
0 0
0 0
0 0
0 0
0 0
0 0
0 0
0 0
0 0
0 0
0 0
0 0
0 0
0 0
0 0
0 0
0 0
0 0
0 0
0 0
0 0
0 0
0 0
0 0
0 0
0 0
0 0
0 0
0 0
0 0
0 0
0 0
0 0
0 0
0 0
0 0
0 0
0 0
0 0
0 0
0 0
0 0
0 0
0 0
0 0
0 0
0 0
0 0
0 0
0 0
0 0
0 0
0 0
0 0
0 0
0 0
0 0
0 0
0 0
0 0
0 0
0 0
0 0
0 0
0 0
0 0
0 0
0 0
0 0
0 0
0 0
0 0
0 0
0 0
0 0
0 0
0 0
0 0
0 0
0 0
0 0
0 0
0 0
0 0
0 0
0 0
0 0
0 0
0 0
0 0
0 0
0 0
0 0
0 0
0 0
0 0
0 0
0 0
0 0
0 0
0 0
0 0
0 0
0 0
0 0
0 0
0 0
0 0
0 0
0 0
0 0
0 0
0 0
0 0
0 0
0 0
0 0
0 0
0 0
0 0
0 0
0 0
0 0
0 0
0 0
0 0
0 0
0 0
0 0
0 0
0 0
0 0
0 0
0 0
0 0
0 0
0 0
0 0
0 0
0 0
0 0
0 0
0 0
0 0
0 0
0 0
0 0
0 0
0 0
0 0
0 0
0 0
0 0
0 0
0 0
0 0
0 0
0 0
0 0
0 0
0 0
0 0
0 0
0 0
0 0
0 0
0 0
0 0
0 0
0 0
0 0
0 0
0 0
0 0
0 0
0 0
0 0
0 0
0 0
0 0
0 0
0 0
0 0
0 0
0 0
0 0
0 0
0 0
0 0
0 0
0 0
0 0
0 0
0 0
0 0
0 0
0 0
0 0
0 0
0 0
0 0
0 0
0 0
0 0
0 0
0 0
0 0
0 0
0 0
0 0
0 0
0 0
0 0
0 0
0 0
0 0
0 0
0 0
0 0
0 0
0 0
0 0
0 0
0 0
0 0
0 0
0 0
0 0
0 0
0 0
0 0
0 0
0 0
0 0
0 0
0 0
0 0
0 0
0 0
0 0
0 0
0 0
0 0
0 0
0 0
0 0
0 0
0 0
0 0
0 0
0 0
0 0
0 0
0 0
0 0
0 0
0 0
0 0
0 0
0 0
0 0
0 0
0 0
0 0
0 0
0 0
0 0
0 0
0 0
0 0
0 0
0 0
0 0
0 0
0 0
0 0
0 0
0 0
0 0
0 0
0 0
0 0
0 0
0 0
0 0
0 0
0 0
0 0
0 0
0 0
0 0
0 0
0 0
0 0
0 0
0 0
0 0
0 0
0 0
0 0
0 0
0 0
0 0
0 0
0 0
0 0
0 0
0 0
0 0
0 0
0 0
0 0
0 0
0 0
0 0
0 0
0 0
0 0
0 0
0 0
0 0
0 0
0 0
0 0
0 0
0 0
0 0
0 0
0 0
0 0
0 0
0 0
0 0
0 0
0 0
0 0
0 0
0 0
0 0
0 0
0 0
0 0
0 0
0 0
0 0
0 0
0 0
0 0
0 0
0 0
0 0
0 0
0 0
0 0
0 0
0 0
0 0
0 0
0 0
0 0
0 0
0 0
0 0
0 0
0 0
0 0
0 0
0 0
0 0
0 0
0 0
0 0
0 0
0 0
0 0
0 0
0 0
0 0
0 0
0 0
0 0
0 0
0 0
0 0
0 0
0 0
0 0
0 0
0 0
0 0
0 0
0 0
0 0
0 0
0 0
0 0
0 0
0 0
0 0
0 0
0 0
0 0
0 0
0 0
0 0
0 0
0 0
0 0
0 0
0 0
0 0
0 0
0 0
0 0
0 0
0 0
0 0
0 0
0 0
0 0
0 0
0 0
0 0
0 0
0 0
0 0
0 0
0 0
0 0
0 0
0 0
0 0
0 0
0 0
0 0
0 0
0 0
0 0
0 0
0 0
0 0
0 0
0 0
0 0
0 0
0 0
0 0
0 0
0 0
0 0
0 0
0 0
0 0
0 0
0 0
0 0
0 0
0 0
0 0
0 0
0 0
0 0
0 0
0 0
0 0
0 0
0 0
0 0
0 0
0 0
0 0
0 0
0 0
0 0
0 0
0 0
0 0
0 0
0 0
0 0
0 0
0 0
0 0
0 0
0 0
0 0
0 0
0 0
0 0
0 0
0 0
0 0
0 0
0 0
0 0
0 0
0 0
0 0
0 0
0 0
0 0
0 0
0 0
0 0
0 0
0 0
0 0
0 0
0 0
0 0
0 0
0 0
0 0
0 0
0 0
0 0
0 0
0 0
0 0
0 0
0 0
0 0
0 0
0 0
0 0
0 0
0 0
0 0
0 0
0 0
0 0
0 0
0 0
0 0
0 0
0 0
0 0
0 0
0 0
0 0
0 0
0 0
0 0
0 0
0 0
0 0
0 0
0 0
0 0
0 0
0 0
0 0
0 0
0 0
0 0
0 0
0 0
0 0
0 0
0 0
0 0
0 0
0 0
0 0
0 0
0 0
0 0
0 0
0 0
0 0
0 0
0 0
0 0
0 0
0 0
0 0
0 0
0 0
0 0
0 0
0 0
0 0
0 0
0 0
0 0
0 0
0 0
0 0
0 0
0 0
0 0
0 0
0 0
0 0
0 0
0 0
0 0
0 0
0 0
0 0
0 0
0 0
0 0
0 0
0 0
0 0
0 0
0 0
0 0
0 0
0 0
0 0
0 0
0 0
0 0
0 0
0 0
0 0
0 0
0 0
0 0
0 0
0 0
0 0
0 0
0 0
0 0
0 0
0 0
0 0
0 0
0 0
0 0
0 0
0 0
0 0
0 0
0 0
0 0
0 0
0 0
0 0
0 0
0 0
0 0
0 0
0 0
0 0
0 0
0 0
0 0
0 0
0 0
0 0
0 0
0 0
0 0
0 0
0 0
0 0
0 0
0 0
0 0
0 0
0 0
0 0
0 0
0 0
0 0
0 0
0 0
0 0
0 0
0 0
0 0
0 0
0 0
0 0
0 0
0 0
0 0
0 0
0 0
0 0
0 0
0 0
0 0
0 0
0 0
0 0
0 0
0 0
0 0
0 0
0 0
0 0
0 0
0 0
0 0
0 0
0 0
0 0
0 0
0 0
0 0
0 0
0 0
0 0
0 0
0 0
0 0
0 0
0 0
0 0
0 0
0 0
0 0
0 0
0 0
0 0
0 0
0 0
0 0
0 0
0 0
0 0
0 0
0 0
0 0
0 0
0 0
0 0
0 0
0 0
0 0
0 0
0 0
0 0
0 0
0 0
0 0
0 0
0 0
0 0
0 0
0 0
0 0
0 0
0 0
0 0
0 0
0 0
0 0
0 0
0 0
0 0
0 0
0 0
0 0
0 0
0 0
0 0
0 0
0 0
0 0
0 0
0 0
0 0
0 0
0 0
0 0
0 0
0 0
0 0
0 0
0 0
0 0
0 0
0 0
0 0
0 0
0 0
0 0
0 0
0 0
0 0
0 0
0 0
0 0
0 0
0 0
0 0
0 0
0 0
0 0
0 0
0 0
0 0
0 0
0 0
0 0
0 0
0 0
0 0
0 0
0 0
0 0
0 0
0 0
0 0
0 0
0 0
0 0
0 0
0 0
0 0
0 0
0 0
0 0
0 0
0 0
0 0
0 0
0 0
0 0
0 0
0 0
0 0
0 0
0 0
0 0
0 0
0 0
0 0
0 0
0 0
0 0
0 0
0 0
0 0
0 0
0 0
0 0
0 0
0 0
0 0
0 0
0 0
0 0
0 0
0 0
0 0
0 0
0 0
0 0
0 0
0 0
0 0
0 0
0 0
0 0
0 0
0 0
0 0
0 0
0 0
0 0
0 0
0 0
0 0
0 0
0 0
0 0
0 0
0 0
0 0
0 0
0 0
0 0
0 0
0 0
0 0
0 0
0 0
0 0
0 0
0 0
0 0
0 0
0 0
0 0
0 0
0 0
0 0
0 0
0 0
0 0
0 0
0 0
0 0
0 0
0 0
0 0
0 0
0 0
0 0
0 0
0 0
0 0
0 0
0 0
0 0
0 0
0 0
0 0
0 0
0 0
0 0
0 0
0 0
0 0
0 0
0 0
0 0
0 0
0 0
0 0
0 0
0 0
0 0
0 0
0 0
0 0
0 0
0 0
0 0
0 0
0 0
0 0
0 0
0 0
0 0
0 0
0 0
0 0
0 0
0 0
0 0
0 0
0 0
0 0
0 0
0 0
0 0
0 0
0 0
0 0
0 0
0 0
0 0
0 0
0 0
0 0
0 0
0 0
0 0
0 0
0 0
0 0
0 0
0 0
0 0
0 0
0 0
0 0
0 0
0 0
0 0
0 0
0 0
0 0
0 0
0 0
0 0
0 0
0 0
0 0
0 0
0 0
0 0
0 0
0 0
0 0
0 0
0 0
0 0
0 0
0 0
0 0
0 0
0 0
0 0
0 0
0 0
0 0
0 0
0 0
0 0
0 0
0 0
0 0
0 0
0 0
0 0
0 0
0 0
0 0
0 0
0 0
0 0
0 0
0 0
0 0
0 0
0 0
0 0
0 0
0 0
0 0
0 0
0 0
0 0
0 0
0 0
0 0
0 0
0 0
0 0
0 0
0 0
0 0
0 0
0 0
0 0
0 0
0 0
0 0
0 0
0 0
0 0
0 0
0 0
0 0
0 0
0 0
0 0
0 0
0 0
0 0
0 0
0 0
0 0
0 0
0 0
0 0
0 0
0 0
0 0
0 0
0 0
0 0
0 0
0 0
0 0
0 0
0 0
0 0
0 0
0 0
0 0
0 0
0 0
0 0
0 0
0 0
0 0
0 0
0 0
0 0
0 0
0 0
0 0
0 0
0 0
0 0
0 0
0 0
0 0
0 0
0 0
0 0
0 0
0 0
0 0
0 0
0 0
0 0
0 0
0 0
0 0
0 0
0 0
0 0
0 0
0 0
0 0
0 0
0 0
0 0
0 0
0 0
0 0
0 0
0 0
0 0
0 0
0 0
0 0
0 0
0 0
0 0
0 0
0 0
0 0
0 0
0 0
0 0
0 0
0 0
0 0
0 0
0 0
0 0
0 0
0 0
0 0
0 0
0 0
0 0
0 0
0 0
0 0
0 0
0 0
0 0
0 0
0 0
0 0
0 0
0 0
0 0
0 0
0 0
0 0
0 0
0 0
0 0
0 0
0 0
0 0
0 0
0 0
0 0
0 0
0 0
0 0
0 0
0 0
0 0
0 0
0 0
0 0
0 0
0 0
0 0
0 0
0 0
0 0
0 0
0 0
0 0
0 0
0 0
0 0
0 0
0 0
0 0
0 0
0 0
0 0
0 0
0 0
0 0
0 0
0 0
0 0
0 0
0 0
0 0
0 0
0 0
0 0
0 0
0 0
0 0
0 0
0 0
0 0
0 0
0 0
0 0
0 0
0 0
0 0
0 0
0 0
0 0
0 0
0 0
0 0
0 0
0 0
0 0
0 0
0 0
0 0
0 0
0 0
0 0
0 0
0 0
0 0
0 0
0 0
0 0
0 0
0 0
0 0
0 0
0 0
0 0
0 0
0 0
0 0
0 0
0 0
0 0
0 0
0 0
0 0
0 0
0 0
0 0
0 0
0 0
0 0
0 0
0 0
0 0
0 0
0 0
0 0
0 0
0 0
0 0
0 0
0 0
0 0
0 0
0 0
0 0
0 0
0 0
0 0
0 0
0 0
0 0
0 0
0 0
0 0
0 0
0 0
0 0
0 0
0 0
0 0
0 0
0 0
0 0
0 0
0 0
0 0
0 0
0 0
0 0
0 0
0 0
0 0
0 0
0 0
0 0
0 0
0 0
0 0
0 0
0 0
0 0
0 0
0 0
0 0
0 0
0 0
0 0
0 0
0 0
0 0
0 0
0 0
0 0
0 0
0 0
0 0
0 0
0 0
0 0
0 0
0 0
0 0
0 0
0 0
0 0
0 0
0 0
0 0
0 0
0 0
0 0
0 0
0 0
0 0
0 0
0 0
0 0
0 0
0 0
0 0
0 0
0 0
0 0
0 0
0 0
0 0
0 0
0 0
0 0
0 0
0 0
0 0
0 0
0 0
0 0
0 0
0 0
0 0
0 0
0 0
0 0
0 0
0 0
0 0
0 0
0 0
0 0
0 0
0 0
0 0
0 0
0 0
0 0
0 0
0 0
0 0
0 0
0 0
0 0
0 0
0 0
0 0
0 0
0 0
0 0
0 0
0 0
0 0
0 0
0 0
0 0
0 0
0 0
0 0
0 0
0 0
0 0
0 0
0 0
0 0
0 0
0 0
0 0
0 0
0 0
0 0
0 0
0 0
0 0
0 0
0 0
0 0
0 0
0 0
0 0
0 0
0 0
0 0
0 0
0 0
0 0
0 0
0 0
0 0
0 0
0 0
0 0
0 0
0 0
0 0
0 0
0 0
0 0
0 0
0 0
0 0
0 0
0 0
0 0
0 0
0 0
0 0
0 0
0 0
0 0
0 0
0 0
0 0
0 0
0 0
0 0
0 0
0 0
0 0
0 0
0 0
0 0
0 0
0 0
0 0
0 0
0 0
0 0
0 0
0 0
0 0
0 0
0 0
0 0
0 0
0 0
0 0
0 0
0 0
0 0
0 0
0 0
0 0
0 0
0 0
0 0
0 0
0 0
0 0
0 0
0 0
0 0
0 0
0 0
0 0
0 0
0 0
0 0
0 0
0 0
0 0
0 0
0 0
0 0
0 0
0 0
0 0
0 0
0 0
0 0
0 0
0 0
0 0
0 0
0 0
0 0
0 0
0 0
0 0
0 0
0 0
0 0
0 0
0 0
0 0
0 0
0 0
0 0
0 0
0 0
0 0
0 0
0 0
0 0
0 0
0 0
0 0
0 0
0 0
0 0
0 0
0 0
0 0
0 0
0 0
0 0
0 0
0 0
0 0
0 0
0 0
0 0
0 0
0 0
0 0
0 0
0 0
0 0
0 0
0 0
0 0
0 0
0 0
0 0
0 0
0 0
0 0
0 0
0 0
0 0
0 0
0 0
0 0
0 0
0 0
0 0
0 0
0 0
0 0
0 0
0 0
0 0
0 0
0 0
0 0
0 0
0 0
0 0
0 0
0 0
0 0
0 0
0 0
0 0
0 0
0 0
0 0
0 0
0 0
0 0
0 0
0 0
0 0
0 0
0 0
0 0
0 0
0 0
0 0
0 0
0 0
0 0
0 0
0 0
0 0
0 0
0 0
0 0
0 0
0 0
0 0
0 0
0 0
0 0
0 0
0 0
0 0
0 0
0 0
0 0
0 0
0 0
0 0
0 0
0 0
0 0
0 0
0 0
0 0
0 0
0 0
0 0
0 0
0 0
0 0
0 0
0 0
0 0
0 0
0 0
0 0
0 0
0 0
0 0
0 0
0 0
0 0
0 0
0 0
0 0
0 0
0 0
0 0
0 0
0 0
0 0
0 0
0 0
0 0
0 0
0 0
0 0
0 0
0 0
0 0
0 0
0 0
0 0
0 0
0 0
0 0
0 0
0 0
0 0
0 0
0 0
0 0
0 0
0 0
0 0
0 0
0 0
0 0
0 0
0 0
0 0
0 0
0 0
0 0
0 0
0 0
0 0
0 0
0 0
0 0
0 0
0 0
0 0
0 0
0 0
0 0
0 0
0 0
0 0
0 0
0 0
0 0
0 0
0 0
0 0
0 0
0 0
0 0
0 0
0 0
0 0
0 0
0 0
0 0
0 0
0 0
0 0
0 0
0 0
0 0
0 0
0 0
0 0
0 0
0 0
0 0
0 0
0 0
0 0
0 0
0 0
0 0
0 0
0 0
0 0
0 0
0 0
0 0
0 0
0 0
0 0
0 0
0 0
0 0
0 0
0 0
0 0
0 0
0 0
0 0
0 0
0 0
0 0
0 0
0 0
0 0
0 0
0 0
0 0
0 0
0 0
0 0
0 0
0 0
0 0
0 0
0 0
0 0
0 0
0 0
0 0
0 0
0 0
0 0
0 0
0 0
0 0
0 0
0 0
0 0
0 0
0 0
0 0
0 0
0 0
0 0
0 0
0 0
0 0
0 0
0 0
0 0
0 0
0 0
0 0
0 0
0 0
0 0
0 0
0 0
0 0
0 0
0 0
0 0
0 0
0 0
0 0
0 0
0 0
0 0
0 0
0 0
0 0
0 0
0 0
0 0
0 0
0 0
0 0
0 0
0 0
0 0
0 0
0 0
0 0
0 0
0 0
0 0
0 0
0 0
0 0
0 0
0 0
0 0
0 0
0 0
0 0
0 0
0 0
0 0
0 0
0 0
0 0
0 0
0 0
0 0
0 0
0 0
0 0
0 0
0 0
0 0
0 0
0 0
0 0
0 0
0 0
0 0
0 0
0 0
0 0
0 0
0 0
0 0
0 0
0 0
0 0
0 0
0 0
0 0
0 0
0 0
0 0
0 0
0 0
0 0
0 0
0 0
0 0
0 0
0 0
0 0
0 0
0 0
0 0
0 0
0 0
0 0
0 0
0 0
0 0
0 0
0 0
0 0
0 0
0 0
0 0
0 0
0 0
0 0
0 0
0 0
0 0
0 0
0 0
0 0
0 0
0 0
0 0
0 0
0 0
0 0
0 0
0 0
0 0
0 0
0 0
0 0
0 0
0 0
0 0
0 0
0 0
0 0
0 0
0 0
0 0
0 0
0 0
0 0
0 0
0 0
0 0
0 0
0 0
0 0
0 0
0 0
0 0
0 0
0 0
0 0
0 0
0 0
0 0
0 0
0 0
0 0
0 0
0 0
0 0
0 0
0 0
0 0
0 0
0 0
0 0
0 0
0 0
0 0
0 0
0 0
0 0
0 0
0 0
0 0
0 0
0 0
0 0
0 0
0 0
0 0
0 0
0 0
0 0
0 0
0 0
0 0
0 0
0 0
0 0
0 0
0 0
0 0
0 0
0 0
0 0
0 0
0 0
0 0
0 0
0 0
0 0
0 0
0 0
0 0
0 0
0 0
0 0
0 0
0 0
0 0
0 0
0 0
0 0
0 0
0 0
0 0
0 0
0 0
0 0
0 0
0 0
0 0
0 0
0 0
0 0
0 0
0 0
0 0
0 0
0 0
0 0
0 0
0 0
0 0
0 0
0 0
0 0
0 0
0 0
0 0
0 0
0 0
0 0
0 0
0 0
0 0
0 0
0 0
0 0
0 0
0 0
0 0
0 0
0 0
0 0
0 0
0 0
0 0
0 0
0 0
0 0
0 0
0 0
0 0
0 0
0 0
0 0
0 0
0 0
0 0
0 0
0 0
0 0
0 0
0 0
0 0
0 0
0 0
0 0
0 0
0 0
0 0
0 0
0 0
0 0
0 0
0 0
0 0
0 0
0 0
0 0
0 0
0 0
0 0
0 0
0 0
0 0
0 0
0 0
0 0
0 0
0 0
0 0
0 0
0 0
0 0
0 0
0 0
0 0
0 0
0 0
0 0
0 0
0 0
0 0
0 0
0 0
0 0
0 0
0 0
0 0
0 0
0 0
0 0
0 0
0 0
0 0
0 0
0 0
0 0
0 0
0 0
0 0
0 0
0 0
0 0
0 0
0 0
0 0
0 0
0 0
0 0
0 0
0 0
0 0
0 0
0 0
0 0
0 0
0 0
0 0
0 0
0 0
0 0
0 0
0 0
0 0
0 0
0 0
0 0
0 0
0 0
0 0
0 0
0 0
0 0
0 0
0 0
0 0
0 0
0 0
0 0
0 0
0 0
0 0
0 0
0 0
0 0
0 0
0 0
0 0
0 0
0 0
0 0
0 0
0 0
0 0
0 0
0 0
0 0
0 0
0 0
0 0
0 0
0 0
0 0
0 0
0 0
0 0
0 0
0 0
0 0
0 0
0 0
0 0
0 0
0 0
0 0
0 0
0 0
0 0
0 0
0 0
0 0
0 0
0 0
0 0
0 0
0 0
0 0
0 0
0 0
0 0
0 0
0 0
0 0
0 0
0 0
0 0
0 0
0 0
0 0
0 0
0 0
0 0
0 0
0 0
0 0
0 0
0 0
0 0
0 0
0 0
0 0
0 0
0 0
0 0
0 0
0 0
0 0
0 0
0 0
0 0
0 0
0 0
0 0
0 0
0 0
0 0
0 0
0 0
0 0
0 0
0 0
0 0
0 0
0 0
0 0
0 0
0 0
0 0
0 0
0 0
0 0
0 0
0 0
0 0
0 0
0 0
0 0
0 0
0 0
0 0
0 0
0 0
0 0
0 0
0 0
0 0
0 0
0 0
0 0
0 0
0 0
0 0
0 0
0 0
0 0
0 0
0 0
0 0
0 0
0 0
0 0
0 0
0 0
0 0
0 0
0 0
0 0
0 0
0 0
0 0
0 0
0 0
0 0
0 0
0 0
0 0
0 0
0 0
0 0
0 0
0 0
0 0
0 0
0 0
0 0
0 0
0 0
0 0
0 0
0 0
0 0
0 0
0 0
0 0
0 0
0 0
0 0
0 0
0 0
0 0
0 0
0 0
0 0
0 0
0 0
0 0
0 0
0 0
0 0
0 0
0 0
0 0
0 0
0 0
0 0
0 0
0 0
0 0
0 0
0 0
0 0
0 0
0 0
0 0
0 0
0 0
0 0
0 0
0 0
0 0
0 0
0 0
0 0
0 0
0 0
0 0
0 0
0 0
0 0
0 0
0 0
0 0
0 0
0 0
0 0
0 0
0 0
0 0
0 0
0 0
0 0
0 0
0 0
0 0
0 0
0 0
0 0
0 0
0 0
0 0
0 0
0 0
0 0
0 0
0 0
0 0
0 0
0 0
0 0
0 0
0 0
0 0
0 0
0 0
0 0
0 0
0 0
0 0
0 0
0 0
0 0
0 0
0 0
0 0
0 0
0 0
0 0
0 0
0 0
0 0
0 0
0 0
0 0
0 0
0 0
0 0
0 0
0 0
0 0
0 0
0 0
0 0
0 0
0 0
0 0
0 0
0 0
0 0
0 0
0 0
0 0
0 0
0 0
0 0
0 0
0 0
0 0
0 0
0 0
0 0
0 0
0 0
0 0
0 0
0 0
0 0
0 0
0 0
0 0
0 0
0 0
0 0
0 0
0 0
0 0
0 0
0 0
0 0
0 0
0 0
0 0
0 0
0 0
0 0
0 0
0 0
0 0
0 0
0 0
0 0
0 0
0 0
0 0
0 0
0 0
0 0
0 0
0 0
0 0
0 0
0 0
0 0
0 0
0 0
0 0
0 0
0 0
0 0
0 0
0 0
0 0
0 0
0 0
0 0
0 0
0 0
0 0
0 0
0 0
0 0
0 0
0 0
0 0
0 0
0 0
0 0
0 0
0 0
0 0
0 0
0 0
0 0
0 0
0 0
0 0
0 0
0 0
0 0
0 0
0 0
0 0
0 0
0 0
0 0
0 0
0 0
0 0
0 0
0 0
0 0
0 0
0 0
0 0
0 0
0 0
0 0
0 0
0 0
0 0
0 0
0 0
0 0
0 0
0 0
0 0
0 0
0 0
0 0
0 0
0 0
0 0
0 0
0 0
0 0
0 0
0 0
0 0
0 0
0 0
0 0
0 0
0 0
0 0
0 0
0 0
0 0
0 0
0 0
0 0
0 0
0 0
0 0
0 0
0 0
0 0
0 0
0 0
0 0
0 0
0 0
0 0
0 0
0 0
0 0
0 0
0 0
0 0
0 0
0 0
0 0
0 0
0 0
0 0
0 0
0 0
0 0
0 0
0 0
0 0
0 0
0 0
0 0
0 0
0 0
0 0
0 0
0 0
0 0
0 0
0 0
0 0
0 0
0 0
0 0
0 0
0 0
0 0
0 0
0 0
0 0
0 0
0 0
0 0
0 0
0 0
0 0
0 0
0 0
0 0
0 0
0 0
0 0
0 0
0 0
0 0
0 0
0 0
0 0
0 0
0 0
0 0
0 0
0 0
0 0
0 0
0 0
0 0
0 0
0 0
0 0
0 0
0 0
0 0
0 0
0 0
0 0
0 0
0 0
0 0
0 0
0 0
0 0
0 0
0 0
0 0
0 0
0 0
0 0
0 0
0 0
0 0
0 0
0 0
0 0
0 0
0 0
0 0
0 0
0 0
0 0
0 0
0 0
0 0
0 0
0 0
0 0
0 0
0 0
0 0
0 0
0 0
0 0
0 0
0 0
0 0
0 0
0 0
0 0
0 0
0 0
0 0
0 0
0 0
0 0
0 0
0 0
0 0
0 0
0 0
0 0
0 0
0 0
0 0
0 0
0 0
0 0
0 0
0 0
0 0
0 0
0 0
0 0
0 0
0 0
0 0
0 0
0 0
0 0
0 0
0 0
0 0
0 0
0 0
0 0
0 0
0 0
0 0
0 0
0 0
0 0
0 0
0 0
0 0
0 0
0 0
0 0
0 0
0 0
0 0
0 0
0 0
0 0
0 0
0 0
0 0
0 0
0 0
0 0
0 0
0 0
0 0
0 0
0 0
0 0
0 0
0 0
0 0
0 0
0 0
0 0
0 0
0 0
0 0
0 0
0 0
0 0
0 0
0 0
0 0
0 0
0 0
0 0
0 0
0 0
0 0
0 0
0 0
0 0
0 0
0 0
0 0
0 0
0 0
0 0
0 0
0 0
0 0
0 0
0 0
0 0
0 0
0 0
0 0
0 0
0 0
0 0
0 0
0 0
0 0
0 0
0 0
0 0
0 0
0 0
0 0
0 0
0 0
0 0
0 0
0 0
0 0
0 0
0 0
0 0
0 0
0 0
0 0
0 0
0 0
0 0
0 0
0 0
0 0
0 0
0 0
0 0
0 0
0 0
0 0
0 0
0 0
0 0
0 0
0 0
0 0
0 0
0 0
0 0
0 0
0 0
0 0
0 0
0 0
0 0
0 0
0 0
0 0
0 0
0 0
0 0
0 0
0 0
0 0
0 0
0 0
0 0
0 0
0 0
0 0
0 0
0 0
      </DataArray> 
      <DataArray type="Float64" NumberOfComponents="2" Name="CauchyNormalStress" format="ascii">
5.13548 2.90262
4.64632 2.32278
5.04703 0.495698
2.62818 -0.105834
1.78419 0.0206412
1.0965 -0.0101098
0.698776 -0.0593292
0.432079 -0.057665
0.128802 -0.0268153
-0.091539 -0.00325684
-0.26522 -0.0289313
-0.370808 -0.0392209
-0.51964 -0.0207965
-0.616178 -0.00105323
-0.680682 -0.0229929
-0.695868 -0.028368
-0.743515 -0.0106557
-0.74603 0.00255158
-0.717677 -0.0212083
-0.638615 -0.0285809
-0.592346 -0.0107198
-0.499953 0.00164906
-0.368183 -0.0265277
-0.169977 -0.0385893
-0.0126564 -0.0148174
0.212332 0.00749712
0.514604 -0.0279588
0.998588 -0.111464
1.47173 -0.161247
2.2222 -0.0744089
4.52225 0.211427
-0.445446 0.329754
-0.588107 0.401041
-0.537518 0.909824
1.54399 3.7606
-0.474486 -0.0172856
-0.106736 -0.199894
-0.0229066 -0.264818
-0.0565467 -0.318296
-0.0545705 -0.331948
-0.0154338 -0.433939
-0.0111308 -0.457599
-0.0111684 -0.488381
-0.0262098 -0.485603
-0.0424286 -0.516347
-0.0479048 -0.435497
-0.0547545 -0.461614
-0.0698572 -0.443822
-0.092885 -0.44592
-0.115041 -0.404782
-0.135588 -0.394689
-0.154039 -0.327307
-0.186238 -0.339683
-0.00468845 -0.464873
-0.380411 -0.027371
-0.447692 -0.0354169
-0.342462 -0.0831665
-0.367468 -0.108826
-0.262113 -0.187727
-45.9423 -124.008
-0.269476 -1.22048
-0.0915337 -0.517963
-0.596146 -1.5399
-4.75142 -23.617
-1.63363 -20.8701
-0.000608823 -12.0095
-0.918524 -12.6051
-1.06102 -12.378
-1.90507 -14.3529
10.2507 0.636418
-7.86397 -23.6199
-10.3449 -28.2287
-14.1565 -42.2238
-4.80296 -23.4452
10.7382 0.317767
14.4259 6.03854
-11.8504 -4.46653
-41.8091 -118.787
-1.74402 -20.9512
-0.00425478 -12.1377
-0.949656 -12.6743
-1.06143 -12.4136
-1.89669 -14.3443
0.0101352 -0.576077
-0.259504 -1.20333
-0.135526 -0.521703
-0.771159 -1.38064
-0.512354 0.0647708
-0.129106 -0.942875
-0.0262528 -0.539242
-0.129311 -0.65607
-0.145648 -0.384352
-0.17896 -0.337229
-0.326417 0.346345
-0.378618 -0.00934819
-0.437005 -0.0579578
-0.328229 -0.0708818
-0.365101 -0.129585
-0.287755 -0.131468
-0.283377 -0.190462
-0.23185 -0.22057
-0.220948 -0.265195
-0.190842 -0.317801
-0.159118 -0.326768
-0.139721 -0.396416
-0.0980877 -0.380852
-0.0769222 -0.462981
-0.0448908 -0.466422
-0.0509537 -0.499192
-0.0398503 -0.470241
-0.0253833 -0.505211
-0.43771 0.635653
-0.165143 1.31177
1.67149 3.48004
-11.9867 -7.37626
-7.22902 -18.9022
-11.5947 -7.95222
-6.32139 -25.6094
-8.08026 -20.7466
-1.46111 -15.2171
-11.8492 -5.82928
3.12504 -16.8739
0.861657 -2.6434
0.635167 -2.56177
-2.16669 -26.2936
-2.28713 -27.0435
1.4742 -6.26382
0.55693 -3.04821
0.23479 -12.7355
0.274196 -11.1332
-0.217084 -12.8055
0.577633 -9.73698
0.341345 -11.3119
-1.17074 -10.7902
-0.190989 -10.8322
-0.361302 -11.7207
-1.55838 -11.5869
0.861774 -8.9864
1.12969 -8.58216
0.961546 -11.6746
-6.13927 -3.8895
-6.39216 -3.88934
-6.77683 -4.29763
0.525513 -13.5486
0.73843 -10.3299
-3.49763 -11.99
-3.34576 -11.2748
-0.228216 -15.0892
-1.01646 -14.5556
-2.72383 -12.8367
-3.05381 -13.7679
-0.29001 -14.0007
-4.73269 -3.17538
-5.61869 -3.36838
-5.21694 -3.42073
0.448106 -8.66694
0.638112 -9.12647
-5.23628 -5.49441
-3.45997 -8.21935
-0.804052 -9.38603
0.190946 -8.17151
0.11824 -8.73366
-0.836664 -10.1335
-3.68465 -8.79906
-5.57312 -5.70512
1.00974 -7.53095
1.41387 -10.4226
-8.67508 -6.59699
-8.46588 -5.26042
-7.12685 -4.22736
-7.43647 -5.781
1.79702 -10.775
1.94009 -12.9638
1.55471 -12.5362
1.22991 -10.3439
1.22066 -8.09563
1.07052 -7.19619
-9.07806 -7.54649
-5.20491 -10.9358
-5.02902 -10.2004
-8.97038 -10.5146
1.40933 -16.0182
0.0799849 -20.2737
-3.30795 -15.1634
-0.680734 -16.015
1.70837 -14.7473
-4.25769 -3.11063
-4.86067 -3.1493
-4.85583 -3.01826
-4.9872 -3.11866
-4.08932 -2.62185
-3.96533 -2.58427
-3.7909 -2.46168
-4.32506 -2.9505
0.602541 -7.39375
0.873835 -6.71344
0.936635 -6.5511
0.627207 -7.59819
-4.02784 -3.15445
-4.19344 -3.61231
-4.26103 -5.37351
-3.29949 -6.37752
-1.62057 -7.46372
-0.585656 -8.03804
-0.80089 -8.44613
-1.87434 -7.9037
-3.56949 -6.80978
-4.39878 -5.55897
-4.4392 -3.46506
-4.17887 -3.02843
0.975144 -6.35409
1.57479 -8.24349
-11.4851 -9.46708
-9.55861 -5.51455
-10.3612 -6.7005
2.33472 -10.8413
2.33258 -12.19
1.44905 -8.14337
0.948195 -5.76956
-9.12769 -11.8769
-9.13159 -15.2881
2.48977 -17.3898
-4.34129 -18.0546
-9.26979 -18.8303
-3.52392 -15.7123
0.802268 -17.9063
-3.01224 -2.18237
-3.4235 -2.39614
-3.47227 -2.36188
-3.04248 -2.09519
-2.84741 -2.04649
-2.86461 -2.03046
0.723698 -6.14006
0.605237 -6.04202
-2.96465 -2.71822
-2.21741 -4.4754
-0.284408 -6.25851
-0.607363 -6.51999
-2.41794 -4.5728
-2.96768 -2.51681
0.651265 -4.03204
0.80955 -4.64035
0.972658 -5.51321
1.16486 -5.6233
1.64718 -6.14769
2.15202 -8.03778
-9.86469 -14.9088
-12.191 -5.91007
-11.0266 -10.3002
2.6093 -10.1818
2.66248 -10.7927
2.17714 -8.89387
1.66798 -7.2441
1.28401 -6.19036
0.845888 -4.81416
0.607578 -3.5809
-10.8624 -16.3175
-10.8732 -21.4887
2.97393 -12.9113
2.71735 -23.4788
-10.3445 -24.8832
3.09291 -17.4898
2.90353 -12.152
-5.9927 -20.3084
1.67863 -21.3131
-1.61094 -1.52803
-1.75333 -1.50775
-2.15313 -1.73568
-1.87723 -1.73341
-2.48175 -1.76569
-2.31395 -1.78671
-2.35959 -1.62656
-2.3616 -1.66534
-1.91974 -1.44582
-2.03701 -1.44074
-1.82742 -1.58609
-2.0634 -1.56085
-1.52945 -1.38545
-1.67414 -1.47359
0.619805 -5.50368
0.705701 -5.34398
0.764033 -4.67623
0.561779 -3.52111
0.765819 -4.52233
0.645661 -5.51284
0.264914 -5.88415
-2.03609 -1.98225
-1.5941 -2.62212
-0.713693 -3.96875
0.0427396 -4.75827
-0.492205 -5.17977
-1.01916 -4.11474
-1.83352 -2.55164
-1.89974 -1.71355
0.250458 -1.93401
0.532296 -3.23214
0.723656 -3.57851
1.07981 -4.29804
1.50395 -5.16198
0.239161 -33.7598
-9.42472 -5.14408
-5.71352 -0.722228
-9.6725 -3.97643
-1.27754 -30.8812
2.28234 -8.02593
2.19703 -7.67423
1.51179 -5.61549
0.904621 -4.53379
0.303726 -2.20263
0.424241 -43.4006
-3.39883 -33.1331
0.231538 -41.8959
-1.54438 -35.4992
2.38178 -13.6306
-6.06001 -34.3855
-19.4706 -40.2431
2.30648 -11.2376
-18.6422 -35.4147
-1.62869 -27.3009
-0.309805 -0.887804
-0.789502 -1.11722
-1.33471 -1.11403
-1.51122 -1.03912
-1.39087 -0.97901
-0.983704 -0.999233
-0.326942 -0.925807
1.04683 -3.84137
0.409568 -2.51384
0.551804 -2.79047
0.710447 -4.18848
-0.213338 -1.21664
1.09031 -3.1127
1.60838 -2.70564
1.2196 -3.30533
0.370616 -3.4267
-0.270728 -1.12202
0.248915 -1.28119
0.240818 -1.61979
0.0601621 -0.916166
0.168191 -1.45012
0.156271 -1.43818
0.311192 -2.13244
0.2674 -1.81652
0.403928 -2.2426
0.42565 -2.2096
0.486367 -2.29812
0.405863 -2.01699
-8.51304 -14.6361
-4.54977 -1.48344
-4.10966 -1.32296
-8.77317 -10.3695
0.864615 -3.13273
1.08311 -3.75875
1.16339 -4.20687
0.806415 -3.5703
1.02027 -5.82916
0.954527 -5.25757
0.849783 -3.72786
1.05652 -3.89911
1.06611 -3.71994
0.821843 -3.05019
0.819807 -3.10699
0.614758 -2.64374
0.360912 -1.98035
0.437319 -2.3579
0.113412 -1.30784
0.163315 -1.33544
0.148282 -1.37422
0.106044 -1.19039
0.446038 -23.4819
0.552098 -31.3502
-0.567463 -41.6386
0.363902 -22.8304
0.318989 -39.9638
0.234093 -30.1552
0.365302 -7.0531
-1.19313 -6.45232
-0.945325 -48.6726
0.637746 -6.90141
1.30191 -32.9696
-0.307806 -8.95959
0.805472 -0.486706
1.83769 0.465357
1.00618 -0.637048
0.0949235 -0.56377
0.403645 -0.561754
-0.294733 -0.596315
-0.700232 -0.574719
-0.528942 -0.563716
-0.894906 -0.56009
-1.06204 -0.549912
-0.995394 -0.536451
-1.05545 -0.501057
-1.0311 -0.504589
-1.06254 -0.48713
-0.906115 -0.494648
-0.660497 -0.511089
-0.809582 -0.485506
-0.37927 -0.519537
0.234542 -0.567342
-0.146628 -0.506769
0.703304 -0.382013
2.02363 0.323069
0.950177 -0.431751
0.0625663 -0.799556
0.0636144 -0.880906
0.133513 -1.13538
0.113864 -1.10843
0.594003 -2.49615
1.21232 -0.983274
0.712212 -2.47294
1.11302 -2.892
0.948907 -1.27167
2.04199 -0.266336
1.26513 -1.71468
0.895399 -2.0093
1.79438 -0.249101
0.0876918 -0.667937
0.0753977 -0.625032
0.100415 -0.132941
0.17193 -0.470301
0.1354 -0.500797
0.059757 -0.232119
0.8132 0.218129
3.92917 1.35332
0.986412 0.237764
0.899705 -0.24603
0.995306 -0.351307
3.08233 0.268254
1.86069 -1.83062
2.34132 -0.830094
0.330397 -0.9848
0.404846 -1.02807
-0.251419 -2.10627
0.0915658 -2.15011
0.865196 -3.85542
0.766544 -3.73588
0.257451 -1.95388
0.136715 -1.33732
-0.261505 -0.636493
-0.620052 -1.0143
-1.19391 -0.974127
-1.44408 -0.979515
-1.45335 -1.081
-1.07298 -1.1267
-0.378231 -1.08695
-0.782265 -0.716151
2.30039 -15.8324
1.65453 -20.4315
2.75342 -34.5468
2.97819 -35.6163
0.349426 -2.26868
1.03978 -4.40176
1.89355 -6.42658
1.92804 -7.52689
2.38389 -9.60846
1.93217 -6.53406
-9.0453 -10.7474
-8.04548 -14.5259
1.08683 -3.97556
0.916761 -4.08305
0.7161 -3.86965
0.380756 -2.49634
0.547763 -4.5728
1.18764 -4.06307
-10.8417 -25.0499
-11.6158 -29.8058
-10.7428 -3.45981
-3.28046 -3.14632
-1.64863 -5.90138
-1.32512 -5.60422
-3.2043 -3.34055
0.24709 -7.12183
0.811015 -5.05877
0.863841 -5.50618
0.452942 -6.87511
-2.71155 -2.01193
-3.01331 -2.12123
-2.69145 -1.91792
-3.32934 -2.25922
-3.58091 -2.43777
-3.26993 -2.33349
-2.79273 -2.13607
-1.89291 -17.2432
2.65516 -15.7267
1.77144 -22.3081
2.56028 -13.6263
-11.0883 -14.0665
-11.6359 -9.97159
1.12745 -6.4369
1.87053 -9.98395
-7.92255 -4.74208
-11.0805 -7.33552
1.95839 -8.49101
1.17818 -7.15346
-5.07578 -14.126
-4.96391 -13.2501
-5.62845 -3.87595
-5.48182 -7.74444
-1.97917 -9.87748
-1.77772 -9.27811
-5.24772 -7.1933
-5.23457 -4.01639
1.00673 -8.02471
0.808685 -7.91795
-4.86712 -3.00972
-6.36838 -3.75587
0.477797 -14.782
-1.51999 -16.9673
0.594621 -12.3201
0.940772 -13.2914
0.204715 -10.2959
0.0984471 -9.45
-1.0351 -13.2463
-0.503826 -12.24
1.03099 -10.0437
1.14254 -50.9224
-0.951811 -0.759911
-5.39964 -12.3588
-2.12118 -11.0968
-1.66849 -1.52372
2.08681 -22.3338
-0.712917 -1.00707
-8.70135 -68.7308
-5.67438 -21.9171
-1.0601 -1.32842
-2.96546 -12.4699
0.912169 -31.8583
-0.0662084 -35.3598
-4.84613 -35.4128
-4.35245 -28.8971
-2.97085 -55.9578
-2.75488 -15.242
-4.48266 -16.7914
-3.04075 -24.6315
1.38409 -32.1878
1.18699 -35.4268
0.282768 -25.9905
-1.64698 -22.6031
-1.25763 -19.3326
-6.08094 -18.4581
-7.93294 -22.9737
-0.406617 -17.6446
1.11139 -29.113
-0.0799466 -36.9895
-3.96999 -29.8932
-4.87779 -37.3729
-2.9247 -25.2868
-2.76532 -15.2606
-4.47245 -16.8413
-4.93871 -61.5569
0.960191 -36.4144
1.59703 -33.42
0.454551 -26.8605
-1.22807 -19.7003
-1.5432 -23.1759
-0.370433 -17.9893
-6.09659 -18.5941
-7.92647 -23.3813
1.27037 -30.0819
-5.59883 -3.90199
0.541405 -2.08682
3.15004 0.966649
2.50781 -0.267648
-30.452 -59.4954
-14.3622 -42.8306
-22.3716 -33.5784
-8.69889 -11.1632
-6.34086 -5.14115
-6.03518 -4.78264
2.50247 0.520996
0.0511225 -2.12308
-22.3132 -37.7266
-30.0098 -60.3485
-12.1365 -4.98786
2.42121 -0.403659
-6.21159 -6.61155
-8.2713 -15.0964
-9.53402 -30.6401
-8.63356 -43.342
0.517835 -33.0895
-30.3274 -49.3976
2.61845 -24.146
-10.2779 -24.0898
-13.6151 -29.3859
-17.4202 -37.0923
-3.88677 -43.0419
-21.2853 -48.9435
1.49732 -31.9236
-30.4704 -51.69
-15.4531 -34.4106
-13.8004 -30.5548
-8.8927 -39.1223
-8.36753 -48.3488
-1.38034 -38.381
0.608028 -35.878
-6.45062 -32.8872
-9.82831 -34.3249
-2.6965 -37.695
-11.9975 -43.5711
0.00989602 -35.313
-7.34787 -28.815
1.1178 -37.4158
-5.09015 -24.3123
-2.50317 -28.5541
-6.04319 -21.4141
-9.27831 -59.1569
2.12433 -38.2659
0.641795 -33.7655
-7.82992 -2.15182
-4.4815 -1.01713
-7.17211 -3.41467
1.95737 -0.512038
-9.17336 -6.91733
-10.0383 -3.59106
-8.48628 -2.42198
-7.71147 -2.74697
-7.37325 -4.29847
-4.71498 -1.16472
-8.70817 -9.01375
-9.91347 -4.12763
1.42847 -38.4689
-1.90321 -30.8831
-3.54601 -28.0454
-8.78643 -57.5703
-4.50602 -25.1527
1.20867 -34.4722
1.88825 -37.266
-9.50303 -21.3196
-5.72842 -24.744
-1.82503 -21.7684
-3.90976 -18.8002
-11.6153 -27.2719
-6.20823 -28.1112
-0.168046 -28.3416
-1.35826 -24.6168
-10.331 -21.899
-7.70952 -19.5393
-5.39767 -17.1501
-7.17003 -16.4522
-8.98237 -15.3583
-10.1094 -14.1717
-10.3743 -17.7172
-10.4205 -10.8619
-11.1387 -13.2447
-10.5552 -20.4406
-7.21471 -13.0294
-10.2193 -14.7414
-10.1421 -12.3716
-8.91101 -12.882
-7.04945 -11.8454
-7.17195 -8.99432
-7.05891 -14.3204
-10.3741 -8.92561
-9.01968 -9.66647
-7.35466 -9.93298
-7.33945 -7.53289
-10.9969 -8.28029
-9.68896 -7.06591
-8.49924 -6.11351
-9.16014 -5.8051
-9.74781 -6.36359
-10.2816 -6.31092
-8.99311 -5.34766
-7.9847 -4.69052
-8.72192 -5.09414
-7.4424 -4.46886
-8.74666 -8.46612
-10.2612 -9.93554
-10.1527 -8.22263
-11.2103 -11.6812
-11.2592 -8.29504
-9.84606 -6.90261
-7.0007 -6.76239
-8.50508 -5.86515
-7.33017 -4.60238
-5.66912 -3.91266
-6.2017 -3.81919
-7.42527 -5.20366
-7.02453 -5.46371
-6.88622 -28.1404
-1.82338 -35.2293
-6.61105 -35.8912
0.846491 -32.217
-10.3471 -28.127
-7.83895 -23.5459
-3.71705 -24.3924
0.175977 -18.0476
-0.780093 -25.871
-1.17438 -18.9038
-9.48278 -26.5448
-12.6055 -21.4037
-1.10684 -18.5097
-0.774575 -25.1733
0.138564 -17.7053
0.751877 -31.184
-9.63944 -25.6323
-12.3214 -21.8841
-3.59074 -24.1493
-6.62307 -35.2179
-1.76581 -34.1999
-6.77492 -27.7499
14.0784 7.20456
10.7621 0.548259
-11.3588 -7.94846
-10.8643 -5.21464
-10.2878 -6.88633
-11.2892 -4.4362
-9.88103 -10.6209
-11.3828 -10.1956
-11.7712 -7.88579
-9.69198 -15.6978
-9.45464 -18.1381
-10.9406 -13.5263
-9.41506 -23.0427
-8.46351 -16.3262
-2.03872 -31.5658
-6.12062 -26.688
-4.53506 -25.084
-2.83297 -29.0926
-4.56467 -30.4623
-0.508692 -33.8981
-8.57309 -27.6094
-6.87667 -20.8334
-10.2163 -18.5431
-8.53045 -23.1806
-8.26675 -20.6707
-11.1905 -25.3899
-8.77464 -14.9539
-10.4799 -14.4875
-10.6909 -17.9573
-11.5967 -8.94854
-11.8234 -6.73339
-11.8421 -7.5251
-11.2277 -5.51492
-11.6175 -5.02246
-11.7836 -6.89182
-11.2833 -10.9114
-9.58088 -9.58806
-10.6409 -7.00815
-10.7376 -11.1125
-9.29774 -20.2002
-8.43536 -21.9032
-11.0446 -23.2601
-4.16346 -22.4094
-9.9931 -18.3277
-8.26855 -17.0667
-5.95281 -16.0061
-10.8783 -6.57377
-11.2059 -7.081
-9.93636 -6.13562
-11.7191 -8.64075
-11.5448 -7.25678
-11.944 -5.73259
-11.945 -6.75179
-12.0311 -6.43446
-2.81784 -6.65535
-1.70134 -8.76711
-1.65184 -4.47803
-0.709195 -17.8924
-0.103818 -13.3504
-1.04159 -3.79398
-1.61648 -1.191
-2.49769 -0.888445
-3.93513 -7.05661
-2.77294 -29.6386
-1.43204 -22.7641
-3.75719 -16.0572
1.5649 -24.8725
-5.8885 -11.2594
-2.90767 -33.8448
0.79686 -37.8246
-15.2485 -92.1344
-17.6736 -22.9063
-10.3715 -40.6719
-1.84057 -45.204
-9.37324 -42.9118
-24.1873 -81.3892
-17.6391 -21.9998
-18.7703 -96.4134
-10.2745 -44.2036
-9.64065 -46.8413
-2.67757 -47.6417
-23.309 -87.5872
-18.6815 -45.6724
-13.9097 -54.5957
-5.38611 -49.9363
-41.7573 -76.7659
-17.9459 -76.6297
0.689862 -38.4202
-2.72014 -40.7871
-14.8896 -38.451
-22.3471 -41.8381
1.38307 -28.4005
2.14568 -23.8251
1.84243 -27.7644
2.30663 -18.4417
2.39925 -20.3419
0.773071 -25.9868
-1.0081 -30.3889
0.485139 -34.4051
1.82645 -26.2024
-9.99873 -27.087
-12.2168 -26.7421
-12.2481 -29.8916
-10.8726 -24.7183
-12.1059 -27.249
-15.2726 -32.4921
-14.7614 -33.0715
-5.17488 -29.1502
-7.31373 -27.6419
-0.536256 -36.4807
0.759 -32.811
-0.823382 -38.1128
1.61521 -26.654
-3.0793 -47.4862
-5.42191 -38.7094
-1.77109 -33.439
-16.0401 -59.2109
-24.3626 -61.2887
-28.8248 -49.7419
-33.2257 -94.7068
-42.3143 -80.6976
-21.9097 -45.8166
-22.5735 -43.5931
-10.0637 -51.4152
-4.27074 -58.3522
-17.5753 -35.7185
-15.671 -32.5159
-14.648 -33.5268
-12.7594 -31.8128
-13.5352 -30.2894
-10.1994 -32.3309
-11.7039 -35.9691
-20.221 -38.8837
-16.4158 -37.2254
-16.5137 -50.6447
-14.4902 -55.139
-7.03836 -53.6567
-3.5663 -44.8648
-14.0846 -44.3408
-13.931 -39.8172
-12.2545 -36.8279
-10.831 -34.3554
-4.40196 -36.5287
-9.95204 -51.894
-18.6233 -55.0078
-20.6829 -45.247
-16.2799 -39.376
-5.9535 -44.4226
-14.4468 -35.25
-12.0626 -31.888
-6.42003 -33.3233
-10.4999 -29.5678
-3.82375 -25.8759
-1.84312 -24.5015
-3.85082 -23.2382
-3.93268 -21.0597
-1.90318 -19.5135
-5.86134 -22.5586
0.210713 -30.4386
1.36605 -26.2104
2.29987 -27.0513
0.958979 -24.9976
2.06125 -23.0575
2.1462 -22.3811
-2.69458 -31.1377
-3.60593 -26.4019
-0.965633 -26.5403
-3.0107 -28.3132
0.291277 -23.6017
-6.18127 -31.1029
-8.69544 -26.4164
-4.93331 -25.0942
-0.48842 -22.3062
-2.90544 -23.4817
-5.93743 -20.7174
-7.21927 -23.793
0.748844 -21.3609
-1.99746 -21.4744
-2.66451 -19.5677
-0.892717 -18.6364
0.0442875 -21.5669
1.07536 -19.6794
-0.430442 -19.7521
2.26795 -18.2523
1.81293 -16.8864
-0.507759 -17.5807
0.280654 -24.0597
0.0782343 -17.2991
-1.12139 -9.96565
0.57781 -15.8933
-1.6549 -5.65233
-0.697135 -4.73009
1.04213 -12.6431
-1.07777 -22.1721
-3.29345 -5.72512
-1.95408 -5.29564
-3.60745 -11.8807
-1.67221 -0.411327
-1.97728 -23.0447
-4.71208 -5.6768
-2.90796 -1.87325
-6.17035 -18.0814
-9.69849 -8.32613
-3.7076 -30.0078
-2.87567 -0.0541366
-4.45569 -1.00323
0.169056 -7.96951
-0.294038 -4.6827
0.195463 -3.63458
-10.8046 8.18515
-22.7117 -37.4623
0.273709 -3.70962
1.34058 -11.4742
-8.72158 -20.0645
-3.77825 -38.7897
-11.6033 -13.6118
-3.63149 0.0415339
-5.77869 2.56366
-0.638772 -7.21195
0.0559909 -3.65967
-0.507892 -3.55357
0.206124 -3.76357
-10.1501 17.3706
-22.9048 -31.7531
1.03685 -13.0807
0.387242 -2.19584
0.100887 -1.1342
0.137016 -1.32188
0.0800209 -1.10911
-0.00692537 -0.460353
-0.0326859 -0.418626
0.165703 -1.35366
0.722189 -3.3846
0.707962 -3.15914
0.484472 -2.308
0.182204 -1.38404
0.0356195 -1.07836
0.132434 -1.35632
-0.0580479 -0.327045
-0.0442625 -0.357333
0.828626 -3.53209
0.821319 -3.08163
0.226955 -1.52442
0.203311 -1.53513
0.147063 -1.48977
-0.0121646 -0.293519
-0.0622954 -0.214775
0.253219 -1.56902
1.34604 -4.78247
1.38715 -4.61722
0.932432 -3.45584
0.320138 -1.81196
0.246527 -1.52708
0.379066 -1.86537
-0.26365 -0.247229
-0.268606 -0.19768
1.46715 -5.15217
0.969156 -3.83616
0.272539 -1.96172
0.409184 -2.00935
0.348594 -2.0136
-0.366715 -0.128645
-0.345703 -0.11001
0.340165 -1.95819
1.51753 -5.60874
1.35113 -5.65413
0.89875 -4.55536
0.421201 -2.88325
0.402782 -2.0721
0.455468 -2.8225
-0.441623 -0.0579594
-0.381928 -0.0492399
1.47624 -6.43063
0.898125 -4.78225
0.368104 -1.96593
0.4684 -3.15533
0.327934 -1.94769
-0.260055 -0.25623
-0.177717 -0.330075
0.474509 -3.02169
1.72727 -7.72052
1.56627 -6.5473
0.999883 -3.92105
0.468261 -2.17389
0.254818 -1.89708
0.385114 -2.11032
-0.142058 -0.381781
-0.134941 -0.653573
1.7753 -6.74049
0.962704 -3.48337
0.249908 -1.55693
0.322467 -1.84876
0.213955 -1.53328
-0.0246495 -0.49954
-0.167661 -0.925343
0.388191 -1.89349
1.50965 -5.17821
1.42563 -4.7463
0.434725 -2.18883
0.102714 -1.21457
0.0741724 -1.06461
0.146102 -1.24663
-0.210486 -0.288861
-0.237766 -0.272354
0.0172616 -1.04714
0.761792 -2.93849
0.777933 -3.15472
0.407246 -2.25185
0.121783 -1.26969
0.134742 -1.23595
0.144417 -1.29539
-0.278538 -0.185503
-0.301908 -0.161814
0.110992 -1.21749
0.686433 -3.10757
0.655461 -3.1635
-0.388185 -0.089477
0.0774615 -1.0961
0.0964181 -1.13318
0.100648 -1.15183
0.49833 -2.797
-0.334935 -0.0721785
-9.38654 -36.3359
-2.91687 -37.2887
-4.1739 -32.1583
1.57176 -8.28753
1.52693 -9.15316
0.787123 -6.17158
2.35131 -13.2642
2.14679 -9.25094
-10.5385 -39.8268
-11.4139 -45.8748
-18.5538 -42.0099
1.66946 -9.63201
0.629892 -6.75921
1.41257 -10.1429
2.00241 -16.8176
2.37008 -11.6656
-8.64 -44.2312
-3.91212 -40.8752
-10.221 -38.975
-5.58656 -39.0477
0.962579 -4.5019
0.690365 -3.40122
0.386066 -2.3593
0.612328 -3.39293
1.17073 -4.33614
0.718541 -2.8742
1.06346 -4.13263
1.27141 -5.0322
1.68494 -6.06023
1.59677 -5.8461
1.05848 -3.85628
1.6733 -5.56597
2.01901 -7.13571
2.05729 -7.67262
1.71309 -5.77162
1.11603 -4.04463
1.72182 -6.16441
2.31426 -8.94843
2.06808 -7.34302
0.743133 -3.26871
0.446877 -2.29549
0.804362 -3.24395
1.07915 -4.17864
0.992754 -4.22145
0.491718 -2.69428
0.326628 -2.05479
0.574468 -2.8833
0.812273 -3.84263
0.714326 -3.74689
-7.96699 -24.5161
-8.14881 -22.2092
3.07691 -14.5405
2.6507 -14.5664
2.58824 -11.8363
2.63722 -16.9502
2.37427 -9.94772
2.80895 -14.0921
2.74048 -16.7767
-10.1152 -29.5038
-11.4836 -27.4363
1.1679 -5.26854
1.08625 -5.38149
1.03405 -5.46573
1.2137 -6.33748
1.88836 -8.06522
1.85809 -7.22336
1.58748 -6.4436
2.04814 -7.69973
1.35937 -5.81659
1.79258 -8.56939
2.02797 -9.47113
2.73286 -11.5905
2.58834 -9.72562
2.4344 -9.34719
2.32146 -8.48028
2.72641 -13.086
2.76867 -11.5926
2.45332 -9.10934
2.66162 -10.3545
2.3006 -8.27448
2.7183 -11.3069
2.76933 -13.2834
2.58219 -11.8742
1.87835 -7.11916
1.57542 -5.67568
1.85306 -6.53787
1.38805 -5.00805
1.27508 -4.58521
1.69348 -5.8879
2.04646 -7.30703
2.05628 -8.27577
1.81781 -7.27441
1.0479 -4.82558
0.941403 -4.60328
0.926676 -4.77619
1.17792 -6.36835
2.97711 -20.3233
2.45727 -19.6099
1.89559 -22.99
1.56727 -7.71242
1.46284 -6.72518
1.38072 -7.14418
1.27416 -7.30227
1.62471 -9.07602
2.514 -11.5193
2.37198 -9.86565
2.28656 -10.4632
2.05732 -11.1016
2.45052 -13.9556
2.2542 -9.39695
2.35394 -9.14929
2.47519 -10.5181
2.44427 -12.2292
2.1355 -9.68502
2.10442 -15.3007
1.31409 -16.2631
0.554968 -16.3646
1.1413 -14.7882
0.851107 -18.0176
1.85561 -16.7531
1.3203 -18.9758
1.97623 -14.8788
2.54484 -15.4378
2.22058 -19.6954
-0.00211183 -16.5936
1.55919 -10.1841
1.35921 -9.20895
1.06668 -9.2026
0.941397 -11.3002
1.60689 -13.6765
2.00738 -13.4436
1.95084 -12.3843
1.73527 -11.2153
1.03735 -13.6374
1.85226 -11.8905
2.06721 -10.8195
2.12195 -11.8994
1.88533 -9.61
2.22379 -13.3139
1.47573 -13.1547
1.38048 -12.0126
1.7608 -8.37714
1.68977 -9.51628
1.3245 -9.1392
1.3479 -7.70811
1.69837 -14.4201
1.10088 -14.7087
1.34593 -11.457
1.09475 -12.4315
1.55896 -6.23082
1.29434 -5.23344
1.34789 -5.25166
1.18886 -5.19363
1.70736 -7.39834
1.37928 -6.94501
1.31126 -5.96206
1.53481 -7.22119
1.08925 -3.79974
0.742636 -2.86749
1.18488 -4.17583
0.12179 -1.27391
0.855936 -3.29154
0.0144845 -1.02483
0.118896 -1.27085
0.517491 -2.2917
-0.448207 -0.0543053
-0.376311 -0.0260824
2.94286 -19.8992
2.78824 -15.3348
2.50696 -18.7734
2.74555 -13.2289
2.48183 -19.7827
2.70915 -15.1922
3.01997 -14.8822
2.77164 -17.1979
0 0
0 0
0 0
0 0
0 0
0 0
0 0
0 0
0 0
0 0
0 0
0 0
0 0
0 0
0 0
0 0
0 0
0 0
0 0
0 0
0 0
0 0
0 0
0 0
0 0
0 0
0 0
0 0
0 0
0 0
0 0
0 0
0 0
0 0
0 0
0 0
0 0
0 0
0 0
0 0
0 0
0 0
0 0
0 0
0 0
0 0
0 0
0 0
0 0
0 0
0 0
0 0
0 0
0 0
0 0
0 0
0 0
0 0
0 0
0 0
0 0
0 0
0 0
0 0
0 0
0 0
0 0
0 0
0 0
0 0
0 0
0 0
0 0
0 0
0 0
0 0
0 0
0 0
0 0
0 0
0 0
0 0
0 0
0 0
0 0
0 0
0 0
0 0
0 0
0 0
0 0
0 0
0 0
0 0
0 0
0 0
0 0
0 0
0 0
0 0
0 0
0 0
0 0
0 0
0 0
0 0
0 0
0 0
0 0
0 0
0 0
0 0
0 0
0 0
0 0
0 0
0 0
0 0
0 0
0 0
0 0
0 0
0 0
0 0
0 0
0 0
0 0
0 0
0 0
0 0
0 0
0 0
0 0
0 0
0 0
0 0
0 0
0 0
0 0
0 0
0 0
0 0
0 0
0 0
0 0
0 0
0 0
0 0
0 0
0 0
0 0
0 0
0 0
0 0
0 0
0 0
0 0
0 0
0 0
0 0
0 0
0 0
0 0
0 0
0 0
0 0
0 0
0 0
0 0
0 0
0 0
0 0
0 0
0 0
0 0
0 0
0 0
0 0
0 0
0 0
0 0
0 0
0 0
0 0
0 0
0 0
0 0
0 0
0 0
0 0
0 0
0 0
0 0
0 0
0 0
0 0
0 0
0 0
0 0
0 0
0 0
0 0
0 0
0 0
0 0
0 0
0 0
0 0
0 0
0 0
0 0
0 0
0 0
0 0
0 0
0 0
0 0
0 0
0 0
0 0
0 0
0 0
0 0
0 0
0 0
0 0
0 0
0 0
0 0
0 0
0 0
0 0
0 0
0 0
0 0
0 0
0 0
0 0
0 0
0 0
0 0
0 0
0 0
0 0
0 0
0 0
0 0
0 0
0 0
0 0
0 0
0 0
0 0
0 0
0 0
0 0
0 0
0 0
0 0
0 0
0 0
0 0
0 0
0 0
0 0
0 0
0 0
0 0
0 0
0 0
0 0
0 0
0 0
0 0
0 0
0 0
0 0
0 0
0 0
0 0
0 0
0 0
0 0
0 0
0 0
0 0
0 0
0 0
0 0
0 0
0 0
0 0
0 0
0 0
0 0
0 0
0 0
0 0
0 0
0 0
0 0
0 0
0 0
0 0
0 0
0 0
0 0
0 0
0 0
0 0
0 0
0 0
0 0
0 0
0 0
0 0
0 0
0 0
0 0
0 0
0 0
0 0
0 0
0 0
0 0
0 0
0 0
0 0
0 0
0 0
0 0
0 0
0 0
0 0
0 0
0 0
0 0
0 0
0 0
0 0
0 0
0 0
0 0
0 0
0 0
0 0
0 0
0 0
0 0
0 0
0 0
0 0
0 0
0 0
0 0
0 0
0 0
0 0
0 0
0 0
0 0
0 0
0 0
0 0
0 0
0 0
0 0
0 0
0 0
0 0
0 0
0 0
0 0
0 0
0 0
0 0
0 0
0 0
0 0
0 0
0 0
0 0
0 0
0 0
0 0
0 0
0 0
0 0
0 0
0 0
0 0
0 0
0 0
0 0
0 0
0 0
0 0
0 0
0 0
0 0
0 0
0 0
0 0
0 0
0 0
0 0
0 0
0 0
0 0
0 0
0 0
0 0
0 0
0 0
0 0
0 0
0 0
0 0
0 0
0 0
0 0
0 0
0 0
0 0
0 0
0 0
0 0
0 0
0 0
0 0
0 0
0 0
0 0
0 0
0 0
0 0
0 0
0 0
0 0
0 0
0 0
0 0
0 0
0 0
0 0
0 0
0 0
0 0
0 0
0 0
0 0
0 0
0 0
0 0
0 0
0 0
0 0
0 0
0 0
0 0
0 0
0 0
0 0
0 0
0 0
0 0
0 0
0 0
0 0
0 0
0 0
0 0
0 0
0 0
0 0
0 0
0 0
0 0
0 0
0 0
0 0
0 0
0 0
0 0
0 0
0 0
0 0
0 0
0 0
0 0
0 0
0 0
0 0
0 0
0 0
0 0
0 0
0 0
0 0
0 0
0 0
0 0
0 0
0 0
0 0
0 0
0 0
0 0
0 0
0 0
0 0
0 0
0 0
0 0
0 0
0 0
0 0
0 0
0 0
0 0
0 0
0 0
0 0
0 0
0 0
0 0
0 0
0 0
0 0
0 0
0 0
0 0
0 0
0 0
0 0
0 0
0 0
0 0
0 0
0 0
0 0
0 0
0 0
0 0
0 0
0 0
0 0
0 0
0 0
0 0
0 0
0 0
0 0
0 0
0 0
0 0
0 0
0 0
0 0
0 0
0 0
0 0
0 0
0 0
0 0
0 0
0 0
0 0
0 0
0 0
0 0
0 0
0 0
0 0
0 0
0 0
0 0
0 0
0 0
0 0
0 0
0 0
0 0
0 0
0 0
0 0
0 0
0 0
0 0
0 0
0 0
0 0
0 0
0 0
0 0
0 0
0 0
0 0
0 0
0 0
0 0
0 0
0 0
0 0
0 0
0 0
0 0
0 0
0 0
0 0
0 0
0 0
0 0
0 0
0 0
0 0
0 0
0 0
0 0
0 0
0 0
0 0
0 0
0 0
0 0
0 0
0 0
0 0
0 0
0 0
0 0
0 0
0 0
0 0
0 0
0 0
0 0
0 0
0 0
0 0
0 0
0 0
0 0
0 0
0 0
0 0
0 0
0 0
0 0
0 0
0 0
0 0
0 0
0 0
0 0
0 0
0 0
0 0
0 0
0 0
0 0
0 0
0 0
0 0
0 0
0 0
0 0
0 0
0 0
0 0
0 0
0 0
0 0
0 0
0 0
0 0
0 0
0 0
0 0
0 0
0 0
0 0
0 0
0 0
0 0
0 0
0 0
0 0
0 0
0 0
0 0
0 0
0 0
0 0
0 0
0 0
0 0
0 0
0 0
0 0
0 0
0 0
0 0
0 0
0 0
0 0
0 0
0 0
0 0
0 0
0 0
0 0
0 0
0 0
0 0
0 0
0 0
0 0
0 0
0 0
0 0
0 0
0 0
0 0
0 0
0 0
0 0
0 0
0 0
0 0
0 0
0 0
0 0
0 0
0 0
0 0
0 0
0 0
0 0
0 0
0 0
0 0
0 0
0 0
0 0
0 0
0 0
0 0
0 0
0 0
0 0
0 0
0 0
0 0
0 0
0 0
0 0
0 0
0 0
0 0
0 0
0 0
0 0
0 0
0 0
0 0
0 0
0 0
0 0
0 0
0 0
0 0
0 0
0 0
0 0
0 0
0 0
0 0
0 0
0 0
0 0
0 0
0 0
0 0
0 0
0 0
0 0
0 0
0 0
0 0
0 0
0 0
0 0
0 0
0 0
0 0
0 0
0 0
0 0
0 0
0 0
0 0
0 0
0 0
0 0
0 0
0 0
0 0
0 0
0 0
0 0
0 0
0 0
0 0
0 0
0 0
0 0
0 0
0 0
0 0
0 0
0 0
0 0
0 0
0 0
0 0
0 0
0 0
0 0
0 0
0 0
0 0
0 0
0 0
0 0
0 0
0 0
0 0
0 0
0 0
0 0
0 0
0 0
0 0
0 0
0 0
0 0
0 0
0 0
0 0
0 0
0 0
0 0
0 0
0 0
0 0
0 0
0 0
0 0
0 0
0 0
0 0
0 0
0 0
0 0
0 0
0 0
0 0
0 0
0 0
0 0
0 0
0 0
0 0
0 0
0 0
0 0
0 0
0 0
0 0
0 0
0 0
0 0
0 0
0 0
0 0
0 0
0 0
0 0
0 0
0 0
0 0
0 0
0 0
0 0
0 0
0 0
0 0
0 0
0 0
0 0
0 0
0 0
0 0
0 0
0 0
0 0
0 0
0 0
0 0
0 0
0 0
0 0
0 0
0 0
0 0
0 0
0 0
0 0
0 0
0 0
0 0
0 0
0 0
0 0
0 0
0 0
0 0
0 0
0 0
0 0
0 0
0 0
0 0
0 0
0 0
0 0
0 0
0 0
0 0
0 0
0 0
0 0
0 0
0 0
0 0
0 0
0 0
0 0
0 0
0 0
0 0
0 0
0 0
0 0
0 0
0 0
0 0
0 0
0 0
0 0
0 0
0 0
0 0
0 0
0 0
0 0
0 0
0 0
0 0
0 0
0 0
0 0
0 0
0 0
0 0
0 0
0 0
0 0
0 0
0 0
0 0
0 0
0 0
0 0
0 0
0 0
0 0
0 0
0 0
0 0
0 0
0 0
0 0
0 0
0 0
0 0
0 0
0 0
0 0
0 0
0 0
0 0
0 0
0 0
0 0
0 0
0 0
0 0
0 0
0 0
0 0
0 0
0 0
0 0
0 0
0 0
0 0
0 0
0 0
0 0
0 0
0 0
0 0
0 0
0 0
0 0
0 0
0 0
0 0
0 0
0 0
0 0
0 0
0 0
0 0
0 0
0 0
0 0
0 0
0 0
0 0
0 0
0 0
0 0
0 0
0 0
0 0
0 0
0 0
0 0
0 0
0 0
0 0
0 0
0 0
0 0
0 0
0 0
0 0
0 0
0 0
0 0
0 0
0 0
0 0
0 0
0 0
0 0
0 0
0 0
0 0
0 0
0 0
0 0
0 0
0 0
0 0
0 0
0 0
0 0
0 0
0 0
0 0
0 0
0 0
0 0
0 0
0 0
0 0
0 0
0 0
0 0
0 0
0 0
0 0
0 0
0 0
0 0
0 0
0 0
0 0
0 0
0 0
0 0
0 0
0 0
0 0
0 0
0 0
0 0
0 0
0 0
0 0
0 0
0 0
0 0
0 0
0 0
0 0
0 0
0 0
0 0
0 0
0 0
0 0
0 0
0 0
0 0
0 0
0 0
0 0
0 0
0 0
0 0
0 0
0 0
0 0
0 0
0 0
0 0
0 0
0 0
0 0
0 0
0 0
0 0
0 0
0 0
0 0
0 0
0 0
0 0
0 0
0 0
0 0
0 0
0 0
0 0
0 0
0 0
0 0
0 0
0 0
0 0
0 0
0 0
0 0
0 0
0 0
0 0
0 0
0 0
0 0
0 0
0 0
0 0
0 0
0 0
0 0
0 0
0 0
0 0
0 0
0 0
0 0
0 0
0 0
0 0
0 0
0 0
0 0
0 0
0 0
0 0
0 0
0 0
0 0
0 0
0 0
0 0
0 0
0 0
0 0
0 0
0 0
0 0
0 0
0 0
0 0
0 0
0 0
0 0
0 0
0 0
0 0
0 0
0 0
0 0
0 0
0 0
0 0
0 0
0 0
0 0
0 0
0 0
0 0
0 0
0 0
0 0
0 0
0 0
0 0
0 0
0 0
0 0
0 0
0 0
0 0
0 0
0 0
0 0
0 0
0 0
0 0
0 0
0 0
0 0
0 0
0 0
0 0
0 0
0 0
0 0
0 0
0 0
0 0
0 0
0 0
0 0
0 0
0 0
0 0
0 0
0 0
0 0
0 0
0 0
0 0
0 0
0 0
0 0
0 0
0 0
0 0
0 0
0 0
0 0
0 0
0 0
0 0
0 0
0 0
0 0
0 0
0 0
0 0
0 0
0 0
0 0
0 0
0 0
0 0
0 0
0 0
0 0
0 0
0 0
0 0
0 0
0 0
0 0
0 0
0 0
0 0
0 0
0 0
0 0
0 0
0 0
0 0
0 0
0 0
0 0
0 0
0 0
0 0
0 0
0 0
0 0
0 0
0 0
0 0
0 0
0 0
0 0
0 0
0 0
0 0
0 0
0 0
0 0
0 0
0 0
0 0
0 0
0 0
0 0
0 0
0 0
0 0
0 0
0 0
0 0
0 0
0 0
0 0
0 0
0 0
0 0
0 0
0 0
0 0
0 0
0 0
0 0
0 0
0 0
0 0
0 0
0 0
0 0
0 0
0 0
0 0
0 0
0 0
0 0
0 0
0 0
0 0
0 0
0 0
0 0
0 0
0 0
0 0
0 0
0 0
0 0
0 0
0 0
0 0
0 0
0 0
0 0
0 0
0 0
0 0
0 0
0 0
0 0
0 0
0 0
0 0
0 0
0 0
0 0
0 0
0 0
0 0
0 0
0 0
0 0
0 0
0 0
0 0
0 0
0 0
0 0
0 0
0 0
0 0
0 0
0 0
0 0
0 0
0 0
0 0
0 0
0 0
0 0
0 0
0 0
0 0
0 0
0 0
0 0
0 0
0 0
0 0
0 0
0 0
0 0
0 0
0 0
0 0
0 0
0 0
0 0
0 0
0 0
0 0
0 0
0 0
0 0
0 0
0 0
0 0
0 0
0 0
0 0
0 0
0 0
0 0
0 0
0 0
0 0
0 0
0 0
0 0
0 0
0 0
0 0
0 0
0 0
0 0
0 0
0 0
0 0
0 0
0 0
0 0
0 0
0 0
0 0
0 0
0 0
0 0
0 0
0 0
0 0
0 0
0 0
0 0
0 0
0 0
0 0
0 0
0 0
0 0
0 0
0 0
0 0
0 0
0 0
0 0
0 0
0 0
0 0
0 0
0 0
0 0
0 0
0 0
0 0
0 0
0 0
0 0
0 0
0 0
0 0
0 0
0 0
0 0
0 0
0 0
0 0
0 0
0 0
0 0
0 0
0 0
0 0
0 0
0 0
0 0
0 0
0 0
0 0
0 0
0 0
0 0
0 0
0 0
0 0
0 0
0 0
0 0
0 0
0 0
0 0
0 0
0 0
0 0
0 0
0 0
0 0
0 0
0 0
0 0
0 0
0 0
0 0
0 0
0 0
0 0
0 0
0 0
0 0
0 0
0 0
0 0
0 0
0 0
0 0
0 0
0 0
0 0
0 0
0 0
0 0
0 0
0 0
0 0
0 0
0 0
0 0
0 0
0 0
0 0
0 0
0 0
0 0
0 0
0 0
0 0
0 0
0 0
0 0
0 0
0 0
0 0
0 0
0 0
0 0
0 0
0 0
0 0
0 0
0 0
0 0
0 0
0 0
0 0
0 0
0 0
0 0
0 0
0 0
0 0
0 0
0 0
0 0
0 0
0 0
0 0
0 0
0 0
0 0
0 0
0 0
0 0
0 0
0 0
0 0
0 0
0 0
0 0
0 0
0 0
0 0
0 0
0 0
0 0
0 0
0 0
0 0
0 0
0 0
0 0
0 0
0 0
0 0
0 0
0 0
0 0
0 0
0 0
0 0
0 0
0 0
0 0
0 0
0 0
0 0
0 0
0 0
0 0
0 0
0 0
0 0
0 0
0 0
0 0
0 0
0 0
0 0
0 0
0 0
0 0
0 0
0 0
0 0
0 0
0 0
0 0
0 0
0 0
0 0
0 0
0 0
0 0
0 0
0 0
0 0
0 0
0 0
0 0
0 0
0 0
0 0
0 0
0 0
0 0
0 0
0 0
0 0
0 0
0 0
0 0
0 0
0 0
0 0
0 0
0 0
0 0
0 0
0 0
0 0
0 0
0 0
0 0
0 0
0 0
0 0
0 0
0 0
0 0
0 0
0 0
0 0
0 0
0 0
0 0
0 0
0 0
0 0
0 0
0 0
0 0
0 0
0 0
0 0
0 0
0 0
0 0
0 0
0 0
0 0
0 0
0 0
0 0
0 0
0 0
0 0
0 0
0 0
0 0
0 0
0 0
0 0
0 0
0 0
0 0
0 0
0 0
0 0
0 0
0 0
0 0
0 0
0 0
0 0
0 0
0 0
0 0
0 0
0 0
0 0
0 0
0 0
0 0
0 0
0 0
0 0
0 0
0 0
0 0
0 0
0 0
0 0
0 0
0 0
0 0
0 0
0 0
0 0
0 0
0 0
0 0
0 0
0 0
0 0
0 0
0 0
0 0
0 0
0 0
0 0
0 0
0 0
0 0
0 0
0 0
0 0
0 0
0 0
0 0
0 0
0 0
0 0
0 0
0 0
0 0
0 0
0 0
0 0
0 0
0 0
0 0
0 0
0 0
0 0
0 0
0 0
0 0
0 0
0 0
0 0
0 0
0 0
0 0
0 0
0 0
0 0
0 0
0 0
0 0
0 0
0 0
0 0
0 0
0 0
0 0
0 0
0 0
0 0
0 0
0 0
0 0
0 0
0 0
0 0
0 0
0 0
0 0
0 0
0 0
0 0
0 0
0 0
0 0
0 0
0 0
0 0
0 0
0 0
0 0
0 0
0 0
0 0
0 0
0 0
0 0
0 0
0 0
0 0
0 0
0 0
0 0
0 0
0 0
0 0
0 0
0 0
0 0
0 0
0 0
0 0
0 0
0 0
0 0
0 0
0 0
0 0
0 0
0 0
0 0
0 0
0 0
0 0
0 0
0 0
0 0
0 0
0 0
0 0
0 0
0 0
0 0
0 0
0 0
0 0
0 0
0 0
0 0
0 0
0 0
0 0
0 0
0 0
0 0
0 0
0 0
0 0
0 0
0 0
0 0
0 0
0 0
0 0
0 0
0 0
0 0
0 0
0 0
0 0
0 0
0 0
0 0
0 0
0 0
0 0
0 0
0 0
0 0
0 0
0 0
0 0
0 0
0 0
0 0
0 0
0 0
0 0
0 0
0 0
0 0
0 0
0 0
0 0
0 0
0 0
0 0
0 0
0 0
0 0
0 0
0 0
0 0
0 0
0 0
0 0
0 0
0 0
0 0
0 0
0 0
0 0
0 0
0 0
0 0
0 0
0 0
0 0
0 0
0 0
0 0
0 0
0 0
0 0
0 0
0 0
0 0
0 0
0 0
0 0
0 0
0 0
0 0
0 0
0 0
0 0
0 0
0 0
0 0
0 0
0 0
0 0
0 0
0 0
0 0
0 0
0 0
0 0
0 0
0 0
0 0
0 0
0 0
0 0
0 0
0 0
0 0
0 0
0 0
0 0
0 0
0 0
0 0
0 0
0 0
0 0
0 0
0 0
0 0
0 0
0 0
0 0
0 0
0 0
0 0
0 0
0 0
0 0
0 0
0 0
0 0
0 0
0 0
0 0
0 0
0 0
0 0
0 0
0 0
0 0
0 0
0 0
0 0
0 0
0 0
0 0
0 0
0 0
0 0
0 0
0 0
0 0
0 0
0 0
0 0
0 0
0 0
0 0
0 0
0 0
0 0
0 0
0 0
0 0
0 0
0 0
0 0
0 0
0 0
0 0
0 0
0 0
0 0
0 0
0 0
0 0
0 0
0 0
0 0
0 0
0 0
0 0
0 0
0 0
0 0
0 0
0 0
0 0
0 0
0 0
0 0
0 0
0 0
0 0
0 0
0 0
0 0
0 0
0 0
0 0
0 0
0 0
0 0
0 0
0 0
0 0
0 0
0 0
0 0
0 0
0 0
0 0
0 0
0 0
0 0
0 0
0 0
0 0
0 0
0 0
0 0
0 0
0 0
0 0
0 0
0 0
0 0
0 0
0 0
0 0
0 0
0 0
0 0
0 0
0 0
0 0
0 0
0 0
0 0
0 0
0 0
0 0
0 0
0 0
0 0
0 0
0 0
0 0
0 0
0 0
0 0
0 0
0 0
0 0
0 0
0 0
0 0
0 0
0 0
0 0
0 0
0 0
0 0
0 0
0 0
0 0
0 0
0 0
0 0
0 0
0 0
0 0
0 0
0 0
0 0
0 0
0 0
0 0
0 0
0 0
0 0
0 0
0 0
0 0
0 0
0 0
0 0
0 0
0 0
0 0
0 0
0 0
0 0
0 0
0 0
0 0
0 0
0 0
0 0
0 0
0 0
0 0
0 0
0 0
0 0
0 0
0 0
0 0
0 0
0 0
0 0
0 0
0 0
0 0
0 0
0 0
0 0
0 0
0 0
0 0
0 0
0 0
0 0
0 0
0 0
0 0
0 0
0 0
0 0
0 0
0 0
0 0
0 0
0 0
0 0
0 0
0 0
0 0
0 0
0 0
0 0
0 0
0 0
0 0
0 0
0 0
0 0
0 0
0 0
0 0
0 0
0 0
0 0
0 0
0 0
0 0
0 0
0 0
0 0
0 0
0 0
0 0
0 0
0 0
0 0
0 0
0 0
0 0
0 0
      </DataArray> 
      <DataArray type="Float64" NumberOfComponents="1" Name="CauchyShearStress" format="ascii">
-1.75731
1.53461
-0.5021
0.140506
0.0809656
0.105831
0.0731294
0.0315121
-0.0175499
-0.0255576
-0.0237332
-0.0347616
-0.0458632
-0.0339176
-0.0167771
-0.0125671
-0.0128291
0.00733599
0.0242939
0.0242252
0.0195629
0.0344044
0.0395168
0.0169795
-0.0119056
-0.0162007
-0.0405729
-0.157078
-0.197384
-0.255079
0.154727
0.0110766
0.083005
0.187491
-2.01957
0.0133061
0.0691919
0.0814749
0.0772513
0.0367014
0.0364583
0.0625648
0.0925904
0.0917341
0.126646
0.107124
0.140402
0.174627
0.196414
0.196465
0.21024
0.214599
0.223065
0.0899875
-0.04863
-0.0966732
-0.148957
-0.188917
-0.227631
0.22253
0.288844
0.413695
0.816985
-9.35528
-4.71201
-2.01575
-3.01645
-3.72245
-5.32696
0.0691259
-8.95798
-7.7881
-5.97134
9.47201
-0.824473
-6.25997
9.42949
-2.09743
4.85935
2.08834
3.04968
3.73565
5.33622
-0.115421
-0.378105
-0.463033
-0.96153
-0.000537839
-0.0330556
0.0946577
0.161526
0.28152
0.289934
0.0421734
-0.0555863
-0.0982654
-0.143479
-0.182181
-0.20572
-0.222357
-0.230657
-0.247035
-0.220488
-0.214403
-0.208026
-0.187779
-0.190526
-0.145601
-0.0965368
-0.0756833
-0.087099
0.185624
0.367904
2.10113
0.628077
-5.04286
-2.98992
-5.18611
5.79526
3.27771
1.43458
1.34949
-1.17899
-0.114222
-4.89771
4.89827
-1.14519
-1.21441
-2.40672
-2.26359
2.57456
-2.0028
2.24915
-2.20279
-2.25698
2.44184
2.45463
-1.93292
-1.8397
-2.18156
-1.06232
0.7948
1.10505
2.48081
2.05545
2.79362
-2.53196
-2.9387
-3.07757
-2.94407
3.23256
2.71748
-1.1115
0.243855
1.02738
-1.87772
1.95129
-1.40503
-1.65889
-1.90973
-1.74176
1.84408
2.10834
1.89375
1.48971
-1.78217
-1.85172
-1.59081
-0.809766
0.344436
1.6132
-1.67526
-1.64741
1.91769
1.96537
1.72904
1.69101
1.95669
2.68154
-2.37875
-2.78116
-2.17019
-3.20891
-3.56032
3.18065
1.84478
-1.26769
-0.869871
-0.0867401
-0.427316
0.331779
0.821358
0.57664
1.15669
-1.67812
-1.7215
1.68808
1.71619
-1.31922
-1.12562
-1.25318
-1.11658
-1.26992
-1.57836
1.6897
1.43993
1.27678
1.33344
1.14468
1.30871
-1.63776
-1.57788
-2.20413
0.0444907
1.24371
-1.03858
1.17234
1.62719
1.51714
3.31942
-4.04327
-0.914025
-4.40623
4.62183
3.71773
2.6397
-1.27556
-0.949896
-0.337345
0.236549
0.719932
1.15824
-1.59741
1.55808
-1.09792
-0.776797
-1.1184
1.17169
0.84699
1.13076
-1.28977
-1.40926
-1.4443
-1.3271
-0.744283
-0.558048
-5.56087
-0.993352
4.3509
-0.150359
0.155405
0.875916
1.20158
1.33616
1.34495
1.08546
4.45453
-4.40736
0.523463
1.60299
-5.4725
-1.39703
-1.15264
5.08884
1.69719
-1.20574
-1.18838
-0.900084
-1.10219
-0.457332
-0.66466
0.0565149
-0.141572
0.43217
0.264309
0.875867
0.672732
1.1981
1.03374
-1.25061
-1.45474
-1.51599
1.25751
1.44141
1.43704
1.1293
-1.03526
-0.467362
-0.450513
-0.72821
0.742183
0.540229
0.502166
1.10083
-0.750613
-1.0475
-0.92489
-0.742199
-0.276886
-9.60847
-3.73793
-0.299915
2.3813
10.2026
0.713695
-0.702913
0.715602
1.17715
0.761438
7.13143
3.73887
-6.02836
-3.79907
3.77153
-6.28118
0.432781
-2.87057
3.0141
4.3249
-1.21589
-0.785127
-0.426185
-0.0844491
0.227053
0.539762
0.981144
-1.36523
-1.03142
1.16303
1.15217
-0.62029
-0.487357
-1.20248
0.945159
0.378729
0.642642
-0.795345
0.890157
-0.228629
-0.43464
-0.383476
-0.556
-0.423213
-0.497708
-0.408293
-0.328285
-0.176177
-18.0494
-2.73187
2.2251
16.2429
0.0451107
0.334086
0.762169
1.04549
2.36105
-2.0341
-1.04229
-0.677488
-0.300825
0.0243773
0.258864
0.362555
0.314792
0.529621
0.205424
0.274943
0.322703
0.355834
5.57281
9.10929
5.03956
-5.44649
-7.16672
-9.08229
3.80979
4.81798
4.9764
-3.41975
-7.43758
-5.37499
-0.662148
-1.14141
-0.485101
-0.422403
-0.428252
-0.300588
-0.28015
-0.299142
-0.160325
-0.108454
-0.1388
0.0162299
0.069154
0.0432656
0.178717
0.21621
0.203107
0.315662
0.311207
0.330041
0.546195
1.11484
0.596618
-0.285035
-0.260793
0.412456
0.454358
-1.32314
-1.42234
1.25563
1.27705
1.33384
-0.230493
-0.426225
0.486244
0.348336
-0.457818
0.419762
-0.652042
-0.520928
0.456811
0.577463
-1.00879
-2.08319
-1.04303
1.02162
1.0911
1.69592
1.42679
-1.66944
1.00485
-1.13012
0.0381162
0.000727996
1.39334
-1.46926
0.879467
-0.576038
1.267
0.719366
0.377874
0.0826152
-0.251225
-0.598607
-0.995966
-1.27135
-4.34695
6.30969
-6.94714
7.05166
0.674241
0.897169
0.160825
-1.64717
1.9717
0.0754952
7.62989
-9.40949
-0.428719
-0.909218
-1.17442
-0.933012
0.771185
-1.03134
3.43966
-1.88753
-0.792352
0.935913
0.835783
-0.702407
-0.906853
1.5052
1.52869
-1.61811
-1.49328
1.28423
0.979494
0.46734
0.000959325
-0.679316
-1.18398
-1.30219
3.77476
0.714978
-1.37061
-0.895562
-3.77586
2.55907
1.5428
1.51022
0.876841
-0.967101
-1.16162
-1.69382
3.63622
-3.31282
1.3116
1.79299
2.0227
-1.79343
-1.58849
-1.33646
1.83104
-1.8285
0.679589
-0.190029
2.62586
-3.66814
2.33316
-2.32677
2.13662
-1.98276
2.81013
-2.53096
-2.02518
-9.41934
-1.07896
-11.3586
-7.9626
-1.31344
-5.74055
0.965571
7.24496
14.7632
1.44086
8.98825
7.79731
-8.47101
-12.89
-13.2344
-13.0964
-6.98133
-8.89821
-10.1574
-7.67929
-7.39638
-7.09714
-8.24862
-6.25756
-10.77
-13.4879
-4.57149
-6.27843
7.73966
13.458
12.2479
10.2032
7.02904
8.95011
7.78912
6.68544
7.7065
7.1565
6.34791
8.29503
4.63682
10.8494
13.5555
6.369
7.10275
0.649973
2.46965
0.81228
21.7023
5.90055
24.8137
10.7632
4.50016
-8.35343
-3.30453
-0.736458
-25.453
-21.2431
-9.71915
-1.05955
-5.72544
-12.709
7.11764
7.32614
1.41722
4.28665
-1.02416
5.44363
3.91978
-6.66539
-3.88384
-9.13174
0.842896
1.33448
-1.4425
-5.62136
-0.0323607
0.491059
-4.79842
-5.75345
-2.58469
0.632023
3.67889
-2.13689
5.67065
3.49221
9.89784
14.4531
14.3511
9.71136
10.4981
7.77473
7.95117
1.03018
0.868143
2.62205
-0.0636904
4.66471
0.686288
-0.555534
-2.05857
-3.59644
-1.40048
-6.21741
-2.11902
-8.69917
-13.812
-14.6436
-9.09878
-10.2834
-7.6234
-7.28104
4.95881
5.70806
4.29124
4.46601
-3.86324
-6.15211
-2.9115
-4.05527
4.14904
4.73883
4.37776
4.23839
4.04342
3.92068
4.52802
2.91831
3.43187
4.0909
3.47027
-3.86559
-3.31126
-3.39541
-3.04517
-2.23821
-3.74609
2.27396
2.56758
2.62168
1.90516
1.90212
1.65375
1.38935
1.05251
-0.900489
-0.485504
-0.407787
-0.0624614
0.480223
-0.501797
-2.10654
-2.49561
-1.91486
-2.92102
-1.46994
-1.26608
-1.66108
-1.19487
-0.906674
-1.25827
-0.646006
-1.29681
-1.46667
6.00012
5.19628
6.39379
5.78284
7.77285
8.974
7.26189
3.88322
5.35562
3.69495
18.829
21.4702
-3.63054
-5.27165
-3.79516
-5.71637
-18.1687
-20.851
-7.17902
-6.26523
-5.08197
-6.04804
6.85719
1.10097
2.80753
1.98837
3.27686
0.355767
5.94837
3.45437
2.00209
5.26326
5.1058
4.38573
4.38201
7.08489
6.79948
4.79087
7.84499
-7.28528
-4.36491
-6.61734
-3.3819
-7.65465
-4.78903
-4.5906
-5.53137
-3.26222
-7.41468
-4.64659
-4.14047
-2.62317
-1.88831
-1.62578
-1.97919
-0.905615
-0.990584
-3.34911
-4.69045
-3.46223
-4.20161
-4.84537
-5.23233
-4.96105
-5.19056
-4.32261
-4.5467
-4.13844
0.320061
0.952347
0.606681
1.62018
-0.300244
0.112891
1.0529
-0.185148
5.34626
6.63947
3.45287
7.66312
6.13544
2.82859
1.83716
2.32074
6.10156
10.6245
9.18188
11.1709
6.9092
8.96073
11.2844
7.02958
-15.1952
-23.9211
-17.8045
-10.0595
-17.4445
-38.0279
25.7901
9.28563
17.3057
16.6485
6.88654
35.7798
7.52267
1.67626
2.00765
1.20954
-13.4125
-8.9451
-0.18626
5.37741
3.11979
-2.48979
-3.10747
-0.0803461
-5.00777
-2.85362
1.57077
3.1905
-2.27217
-6.59559
6.18468
4.62169
5.4019
4.30447
3.83178
3.44786
5.69437
5.74088
6.17913
-1.04664
3.74671
2.55053
3.83428
-0.366768
-5.42176
-2.62543
-6.11074
-2.67199
-5.3466
12.2926
2.65034
1.16773
-3.42045
-3.51375
6.27701
-3.62338
-3.53081
-5.95045
-1.83698
-3.5228
-6.15226
-6.87289
-3.36694
-0.485704
2.36446
-5.23079
-4.56863
-3.91578
0.170401
0.430498
-0.5256
-0.737163
-2.11746
0.25115
3.17186
-1.5692
0.783113
1.57634
1.14058
2.24614
2.25116
2.095
5.03726
4.33162
5.00986
4.72262
4.0508
5.42095
-1.37031
-0.590679
1.35701
-2.01547
-0.0490346
3.69
-4.43162
-5.08214
-3.57573
-4.51797
-2.69523
-6.23185
-5.7811
-5.60174
-3.57531
-4.60021
-5.17932
-5.50881
-2.37355
-4.18947
-4.32414
-3.49763
2.96467
2.2554
3.41034
1.13432
1.64285
3.19385
2.87955
-6.95791
-6.5953
-5.83368
-4.27847
-3.25234
-4.91052
-8.41735
-5.47724
-4.52945
-9.36302
-1.19806
-9.61523
-6.56786
-1.87783
-10.5674
-10.0273
-12.9682
-2.00615
-2.64057
-4.35071
-2.7388
-1.96997
-7.02392
-25.2418
-1.66178
-3.95773
13.0201
15.688
12.1877
2.51592
3.08665
4.37243
2.19227
2.26182
1.78349
6.93563
23.8293
5.11511
0.423047
0.0663465
0.138303
0.0401236
-0.0553592
-0.0213511
0.183382
0.73199
0.5944
0.339879
0.0890936
0.033581
0.0787959
-0.0120473
-0.058109
0.629011
0.125265
0.0138057
0.06161
0.0110155
-0.058411
-0.0322923
0.0799448
0.241477
0.0875399
-0.118914
-0.088402
-0.00832671
-0.120326
0.243297
0.228631
-0.107781
-0.813035
-0.344944
-0.27132
-0.412179
0.184819
0.149313
-0.213034
-1.14988
-1.33015
-1.52578
-0.920114
-0.511281
-1.10208
0.0861447
0.0387517
-1.82811
1.68908
0.488544
1.05618
0.394214
-0.242748
-0.286224
1.28682
2.19365
1.54363
0.863307
0.307699
0.347068
0.247017
-0.283441
-0.172508
1.34266
0.16518
0.0210841
0.095438
0.0124628
-0.111107
0.00297231
0.128696
0.235399
0.0703654
-0.250272
-0.0465193
-0.0134862
-0.0805268
0.2108
0.209581
0.00793377
-0.296721
-0.394103
-0.444594
-0.127827
-0.109926
-0.16349
0.205335
0.188109
-0.0869537
-0.654754
-0.713093
0.205936
-0.100814
-0.123211
-0.16193
-0.7938
0.144551
7.33504
3.78425
4.52133
-2.464
-3.15933
-2.70694
-3.5752
-2.24035
-5.87363
-6.73389
-7.3122
3.0113
3.05313
3.84563
4.91824
2.82625
-0.0859016
-3.82161
-0.231119
2.60274
1.0242
0.847621
0.588226
0.952656
0.492006
0.306277
0.53779
0.814488
0.451206
-0.730032
-0.459671
-0.503532
-0.229579
-1.1443
0.52951
0.52183
0.790956
1.26195
0.354407
-0.593065
-0.362318
-0.530865
-0.574886
-0.820496
-0.691164
-0.458309
-0.710665
-0.906601
-1.03782
5.67075
5.33952
-1.29778
-2.23058
-1.94784
-2.75954
-1.44472
-0.266472
-0.211206
-6.23304
-5.4827
1.11492
1.26329
1.34446
1.44213
1.05202
0.782993
0.964482
0.50354
1.05233
1.34209
1.18219
-0.439811
-0.934332
-0.301601
0.141586
0.403299
0.156181
0.325026
0.629259
-0.0256057
1.29652
-0.203704
-0.523451
-0.670475
-0.494025
-0.407952
-0.576466
-0.369777
-0.129564
-0.217769
-0.849404
-0.947247
-1.11502
-1.12257
-1.24509
-1.52234
-1.27217
0.0912678
0.54435
1.41312
1.26347
1.46952
1.59608
1.58435
0.628109
0.561688
1.00485
1.3693
0.979304
-0.794242
-0.380364
-0.589966
-0.963396
-1.11086
1.31618
2.20831
2.65722
2.22373
-2.62427
-1.60313
-2.0365
-1.54007
-0.874108
-1.09287
-2.91124
1.73553
1.77908
1.90958
2.12912
1.88538
1.52337
1.5428
1.69927
2.25889
-1.66257
-1.35978
-1.35503
-1.42106
-1.29488
-1.98881
-1.99542
-1.3607
-1.63199
-1.80951
-1.62975
-1.87147
-2.27436
1.96241
2.12057
-0.935603
-0.936238
-0.758346
-1.03907
-1.16542
-1.45686
-1.229
-1.35929
-0.185182
-0.0510463
-0.101057
-0.0180917
-0.265175
-0.00667924
-0.0136899
-0.152639
0.115576
0.0542956
1.53736
2.52543
2.81021
1.67315
0.0353586
-0.196273
0.944299
0.168171
0
0
0
0
0
0
0
0
0
0
0
0
0
0
0
0
0
0
0
0
0
0
0
0
0
0
0
0
0
0
0
0
0
0
0
0
0
0
0
0
0
0
0
0
0
0
0
0
0
0
0
0
0
0
0
0
0
0
0
0
0
0
0
0
0
0
0
0
0
0
0
0
0
0
0
0
0
0
0
0
0
0
0
0
0
0
0
0
0
0
0
0
0
0
0
0
0
0
0
0
0
0
0
0
0
0
0
0
0
0
0
0
0
0
0
0
0
0
0
0
0
0
0
0
0
0
0
0
0
0
0
0
0
0
0
0
0
0
0
0
0
0
0
0
0
0
0
0
0
0
0
0
0
0
0
0
0
0
0
0
0
0
0
0
0
0
0
0
0
0
0
0
0
0
0
0
0
0
0
0
0
0
0
0
0
0
0
0
0
0
0
0
0
0
0
0
0
0
0
0
0
0
0
0
0
0
0
0
0
0
0
0
0
0
0
0
0
0
0
0
0
0
0
0
0
0
0
0
0
0
0
0
0
0
0
0
0
0
0
0
0
0
0
0
0
0
0
0
0
0
0
0
0
0
0
0
0
0
0
0
0
0
0
0
0
0
0
0
0
0
0
0
0
0
0
0
0
0
0
0
0
0
0
0
0
0
0
0
0
0
0
0
0
0
0
0
0
0
0
0
0
0
0
0
0
0
0
0
0
0
0
0
0
0
0
0
0
0
0
0
0
0
0
0
0
0
0
0
0
0
0
0
0
0
0
0
0
0
0
0
0
0
0
0
0
0
0
0
0
0
0
0
0
0
0
0
0
0
0
0
0
0
0
0
0
0
0
0
0
0
0
0
0
0
0
0
0
0
0
0
0
0
0
0
0
0
0
0
0
0
0
0
0
0
0
0
0
0
0
0
0
0
0
0
0
0
0
0
0
0
0
0
0
0
0
0
0
0
0
0
0
0
0
0
0
0
0
0
0
0
0
0
0
0
0
0
0
0
0
0
0
0
0
0
0
0
0
0
0
0
0
0
0
0
0
0
0
0
0
0
0
0
0
0
0
0
0
0
0
0
0
0
0
0
0
0
0
0
0
0
0
0
0
0
0
0
0
0
0
0
0
0
0
0
0
0
0
0
0
0
0
0
0
0
0
0
0
0
0
0
0
0
0
0
0
0
0
0
0
0
0
0
0
0
0
0
0
0
0
0
0
0
0
0
0
0
0
0
0
0
0
0
0
0
0
0
0
0
0
0
0
0
0
0
0
0
0
0
0
0
0
0
0
0
0
0
0
0
0
0
0
0
0
0
0
0
0
0
0
0
0
0
0
0
0
0
0
0
0
0
0
0
0
0
0
0
0
0
0
0
0
0
0
0
0
0
0
0
0
0
0
0
0
0
0
0
0
0
0
0
0
0
0
0
0
0
0
0
0
0
0
0
0
0
0
0
0
0
0
0
0
0
0
0
0
0
0
0
0
0
0
0
0
0
0
0
0
0
0
0
0
0
0
0
0
0
0
0
0
0
0
0
0
0
0
0
0
0
0
0
0
0
0
0
0
0
0
0
0
0
0
0
0
0
0
0
0
0
0
0
0
0
0
0
0
0
0
0
0
0
0
0
0
0
0
0
0
0
0
0
0
0
0
0
0
0
0
0
0
0
0
0
0
0
0
0
0
0
0
0
0
0
0
0
0
0
0
0
0
0
0
0
0
0
0
0
0
0
0
0
0
0
0
0
0
0
0
0
0
0
0
0
0
0
0
0
0
0
0
0
0
0
0
0
0
0
0
0
0
0
0
0
0
0
0
0
0
0
0
0
0
0
0
0
0
0
0
0
0
0
0
0
0
0
0
0
0
0
0
0
0
0
0
0
0
0
0
0
0
0
0
0
0
0
0
0
0
0
0
0
0
0
0
0
0
0
0
0
0
0
0
0
0
0
0
0
0
0
0
0
0
0
0
0
0
0
0
0
0
0
0
0
0
0
0
0
0
0
0
0
0
0
0
0
0
0
0
0
0
0
0
0
0
0
0
0
0
0
0
0
0
0
0
0
0
0
0
0
0
0
0
0
0
0
0
0
0
0
0
0
0
0
0
0
0
0
0
0
0
0
0
0
0
0
0
0
0
0
0
0
0
0
0
0
0
0
0
0
0
0
0
0
0
0
0
0
0
0
0
0
0
0
0
0
0
0
0
0
0
0
0
0
0
0
0
0
0
0
0
0
0
0
0
0
0
0
0
0
0
0
0
0
0
0
0
0
0
0
0
0
0
0
0
0
0
0
0
0
0
0
0
0
0
0
0
0
0
0
0
0
0
0
0
0
0
0
0
0
0
0
0
0
0
0
0
0
0
0
0
0
0
0
0
0
0
0
0
0
0
0
0
0
0
0
0
0
0
0
0
0
0
0
0
0
0
0
0
0
0
0
0
0
0
0
0
0
0
0
0
0
0
0
0
0
0
0
0
0
0
0
0
0
0
0
0
0
0
0
0
0
0
0
0
0
0
0
0
0
0
0
0
0
0
0
0
0
0
0
0
0
0
0
0
0
0
0
0
0
0
0
0
0
0
0
0
0
0
0
0
0
0
0
0
0
0
0
0
0
0
0
0
0
0
0
0
0
0
0
0
0
0
0
0
0
0
0
0
0
0
0
0
0
0
0
0
0
0
0
0
0
0
0
0
0
0
0
0
0
0
0
0
0
0
0
0
0
0
0
0
0
0
0
0
0
0
0
0
0
0
0
0
0
0
0
0
0
0
0
0
0
0
0
0
0
0
0
0
0
0
0
0
0
0
0
0
0
0
0
0
0
0
0
0
0
0
0
0
0
0
0
0
0
0
0
0
0
0
0
0
0
0
0
0
0
0
0
0
0
0
0
0
0
0
0
0
0
0
0
0
0
0
0
0
0
0
0
0
0
0
0
0
0
0
0
0
0
0
0
0
0
0
0
0
0
0
0
0
0
0
0
0
0
0
0
0
0
0
0
0
0
0
0
0
0
0
0
0
0
0
0
0
0
0
0
0
0
0
0
0
0
0
0
0
0
0
0
0
0
0
0
0
0
0
0
0
0
0
0
0
0
0
0
0
0
0
0
0
0
0
0
0
0
0
0
0
0
0
0
0
0
0
0
0
0
0
0
0
0
0
0
0
0
0
0
0
0
0
0
0
0
0
0
0
0
0
0
0
0
0
0
0
0
0
0
0
0
0
0
0
0
0
0
0
0
0
0
0
0
0
0
0
0
0
0
0
0
0
0
0
0
0
0
0
0
0
0
0
0
0
0
0
0
0
0
0
0
0
0
0
0
0
0
0
0
0
0
0
0
0
0
0
0
0
0
0
0
0
0
0
0
0
0
0
0
0
0
0
0
0
0
0
0
0
0
0
0
0
0
0
0
0
0
0
0
0
0
0
0
0
0
0
0
0
0
0
0
0
0
0
0
0
0
0
0
0
0
0
0
0
0
0
0
0
0
0
0
0
0
0
0
0
0
0
0
0
0
0
0
0
0
0
0
0
0
0
0
0
0
0
0
0
0
0
0
0
0
0
0
0
0
0
0
0
0
0
0
0
0
0
0
0
0
0
0
0
0
0
0
0
0
0
0
0
0
0
0
0
0
0
0
0
0
0
0
0
0
0
0
0
0
0
0
0
0
0
0
0
0
0
0
0
0
0
0
0
0
0
0
0
0
0
0
0
0
0
0
0
0
0
0
0
0
0
0
0
0
0
0
0
0
0
0
0
0
0
0
0
0
0
0
0
0
0
0
0
0
0
0
0
0
0
0
0
0
0
0
0
0
0
0
0
0
0
0
0
0
0
0
0
0
0
0
0
0
0
0
0
0
0
0
0
0
0
0
0
0
0
0
0
0
0
0
0
0
0
0
0
0
0
0
0
0
0
0
0
0
0
0
0
0
0
0
0
0
0
0
0
0
0
0
0
0
0
0
0
0
0
0
0
0
0
0
0
0
0
0
0
0
0
0
0
0
0
0
0
0
0
0
0
0
0
0
0
0
0
0
0
0
0
0
0
0
0
0
0
0
0
0
0
0
0
0
0
0
0
0
0
0
0
0
0
0
0
0
0
0
0
0
0
0
0
0
0
0
0
0
0
0
0
0
0
0
0
0
0
0
0
0
0
0
0
0
0
0
0
0
0
0
0
0
0
0
0
0
0
0
0
0
0
0
0
0
0
0
0
0
0
0
0
0
0
0
0
0
0
0
0
0
0
0
0
0
0
0
0
0
0
0
0
0
0
0
0
0
0
0
0
0
0
0
0
0
0
0
0
0
0
0
0
0
0
0
0
0
0
0
0
0
0
0
0
0
0
0
0
0
0
0
0
0
0
0
0
0
0
0
0
0
0
0
0
0
0
0
0
0
0
0
0
0
0
0
0
0
0
0
0
0
0
0
0
0
0
0
0
0
0
0
0
0
0
0
0
0
0
0
0
0
0
0
0
0
0
0
0
0
0
0
0
0
0
0
0
0
0
0
0
0
0
0
0
0
0
0
0
0
0
0
0
0
0
0
0
0
0
0
0
0
0
0
0
0
0
0
0
0
0
0
0
0
0
0
0
0
0
0
0
0
0
0
0
0
0
0
0
0
0
0
0
0
0
0
0
0
0
0
0
0
0
0
0
0
0
0
0
0
0
0
0
0
0
0
0
0
0
0
0
0
0
0
0
0
0
0
0
0
0
0
0
0
0
0
0
0
0
0
0
0
0
0
0
0
0
0
0
0
0
0
0
0
0
0
0
0
0
0
0
0
0
0
0
0
0
0
0
0
0
0
0
0
0
0
0
0
0
0
0
0
0
0
0
0
0
0
0
0
0
0
0
0
0
0
0
0
0
0
0
0
0
0
0
0
0
0
0
0
0
0
0
0
0
0
0
0
0
0
0
0
0
0
0
0
0
0
0
0
0
0
0
0
0
0
0
0
0
0
0
0
0
0
0
0
0
0
0
0
0
0
0
0
0
0
0
0
0
0
0
0
0
0
0
0
0
0
0
0
0
0
0
0
0
0
0
0
0
0
0
0
0
0
0
0
0
0
0
0
0
0
0
0
0
0
0
0
0
0
0
0
0
0
0
0
0
0
0
0
0
0
0
0
0
0
0
0
0
0
0
0
0
0
0
0
0
0
0
0
0
0
0
0
0
0
0
0
0
0
0
0
      </DataArray> 
      <DataArray type="Float64" NumberOfComponents="1" Name="NormalFibers" format="ascii">
0
0
0
0
0
0
0
0
0
0
0
0
0
0
0
0
0
0
0
0
0
0
0
0
0
0
0
0
0
0
0
0
0
0
0
0
0
0
0
0
0
0
0
0
0
0
0
0
0
0
0
0
0
0
0
0
0
0
0
0
0
0
0
0
0
0
0
0
0
0
0
0
0
0
0
0
0
0
0
0
0
0
0
0
0
0
0
0
0
0
0
0
0
0
0
0
0
0
0
0
0
0
0
0
0
0
0
0
0
0
0
0
0
0
0
0
0
0
0
0
0
0
0
0
0
0
0
0
0
0
0
0
0
0
0
0
0
0
0
0
0
0
0
0
0
0
0
0
0
0
0
0
0
0
0
0
0
0
0
0
0
0
0
0
0
0
0
0
0
0
0
0
0
0
0
0
0
0
0
0
0
0
0
0
0
0
0
0
0
0
0
0
0
0
0
0
0
0
0
0
0
0
0
0
0
0
0
0
0
0
0
0
0
0
0
0
0
0
0
0
0
0
0
0
0
0
0
0
0
0
0
0
0
0
0
0
0
0
0
0
0
0
0
0
0
0
0
0
0
0
0
0
0
0
0
0
0
0
0
0
0
0
0
0
0
0
0
0
0
0
0
0
0
0
0
0
0
0
0
0
0
0
0
0
0
0
0
0
0
0
0
0
0
0
0
0
0
0
0
0
0
0
0
0
0
0
0
0
0
0
0
0
0
0
0
0
0
0
0
0
0
0
0
0
0
0
0
0
0
0
0
0
0
0
0
0
0
0
0
0
0
0
0
0
0
0
0
0
0
0
0
0
0
0
0
0
0
0
0
0
0
0
0
0
0
0
0
0
0
0
0
0
0
0
0
0
0
0
0
0
0
0
0
0
0
0
0
0
0
0
0
0
0
0
0
0
0
0
0
0
0
0
0
0
0
0
0
0
0
0
0
0
0
0
0
0
0
0
0
0
0
0
0
0
0
0
0
0
0
0
0
0
0
0
0
0
0
0
0
0
0
0
0
0
0
0
0
0
0
0
0
0
0
0
0
0
0
0
0
0
0
0
0
0
0
0
0
0
0
0
0
0
0
0
0
0
0
0
0
0
0
0
0
0
0
0
0
0
0
0
0
0
0
0
0
0
0
0
0
0
0
0
0
0
0
0
0
0
0
0
0
0
0
0
0
0
0
0
0
0
0
0
0
0
0
0
0
0
0
0
0
0
0
0
0
0
0
0
0
0
0
0
0
0
0
0
0
0
0
0
0
0
0
0
0
0
0
0
0
0
0
0
0
0
0
0
0
0
0
0
0
0
0
0
0
0
0
0
0
0
0
0
0
0
0
0
0
0
0
0
0
0
0
0
0
0
0
0
0
0
0
0
0
0
0
0
0
0
0
0
0
0
0
0
0
0
0
0
0
0
0
0
0
0
0
0
0
0
0
0
0
0
0
0
0
0
0
0
0
0
0
0
0
0
0
0
0
0
0
0
0
0
0
0
0
0
0
0
0
0
0
0
0
0
0
0
0
0
0
0
0
0
0
0
0
0
0
0
0
0
0
0
0
0
0
0
0
0
0
0
0
0
0
0
0
0
0
0
0
0
0
0
0
0
0
0
0
0
0
0
0
0
0
0
0
0
0
0
0
0
0
0
0
0
0
0
0
0
0
0
0
0
0
0
0
0
0
0
0
0
0
0
0
0
0
0
0
0
0
0
0
0
0
0
0
0
0
0
0
0
0
0
0
0
0
0
0
0
0
0
0
0
0
0
0
0
0
0
0
0
0
0
0
0
0
0
0
0
0
0
0
0
0
0
0
0
0
0
0
0
0
0
0
0
0
0
0
0
0
0
0
0
0
0
0
0
0
0
0
0
0
0
0
0
0
0
0
0
0
0
0
0
0
0
0
0
0
0
0
0
0
0
0
0
0
0
0
0
0
0
0
0
0
0
0
0
0
0
0
0
0
0
0
0
0
0
0
0
0
0
0
0
0
0
0
0
0
0
0
0
0
0
0
0
0
0
0
0
0
0
0
0
0
0
0
0
0
0
0
0
0
0
0
0
0
0
0
0
0
0
0
0
0
0
0
0
0
0
0
0
0
0
0
0
0
0
0
0
0
0
0
0
0
0
0
0
0
0
0
0
0
0
0
0
0
0
0
0
0
0
0
0
0
0
0
0
0
0
0
0
0
0
0
0
0
0
0
0
0
0
0
0
0
0
0
0
0
0
0
0
0
0
0
0
0
0
0
0
0
0
0
0
0
0
0
0
0
0
0
0
0
0
0
0
0
0
0
0
0
0
0
0
0
0
0
0
0
0
0
0
0
0
0
0
0
0
0
0
0
0
0
0
0
0
0
0
0
0
0
0
0
0
0
0
0
0
0
0
0
0
0
0
0
0
0
0
0
0
0
0
0
0
0
0
0
0
0
0
0
0
0
0
0
0
0
0
0
0
0
0
0
0
0
0
0
0
0
0
0
0
0
0
0
0
0
0
0
0
0
0
0
0
0
0
0
0
0
0
0
0
0
0
0
0
0
0
0
0
0
0
0
0
0
0
0
0
0
0
0
0
0
0
0
0
0
0
0
0
0
0
0
0
0
0
0
0
0
0
0
0
0
0
0
0
0
0
0
0
0
0
0
0
0
0
0
0
0
0
0
0
0
0
0
0
0
0
0
0
0
0
0
0
0
0
0
0
0
0
0
0
0
0
0
0
0
0
0
0
0
0.00259815
0.00259815
0.0132667
0.0132667
-0.0431567
-0.0431567
-0.0217752
-0.0217752
-0.00133277
-0.00133277
-0.0207534
-0.0207534
0.00126162
0.00126162
0.00960962
0.00960962
-0.0531812
-0.0531812
-0.00681736
-0.00681736
-0.0180059
-0.0180059
-0.0267228
-0.0267228
-0.0455659
-0.0455659
0.0116849
0.0116849
-0.0216565
-0.0216565
0.0303871
0.0303871
-0.0183759
-0.0183759
-0.00160086
-0.00160086
0.0177175
0.0177175
-0.0113301
-0.0113301
-0.00640488
-0.00640488
-0.0273615
-0.0273615
-0.104141
-0.104141
-0.0104387
-0.0104387
-0.0134072
-0.0134072
-0.00934077
-0.00934077
-0.00657768
-0.00657768
-0.001327
-0.001327
-0.0523162
-0.0523162
0.00447834
0.00447834
0.0043602
0.0043602
0.00521033
0.00521033
-0.0704628
-0.0704628
-0.0115061
-0.0115061
-0.0786851
-0.0786851
-0.00431761
-0.00431761
-0.0170246
-0.0170246
-0.00591167
-0.00591167
0.00364189
0.00364189
-0.0203686
-0.0203686
-0.0153521
-0.0153521
0.025413
0.025413
-0.0240121
-0.0240121
-0.0216669
-0.0216669
-0.0753805
-0.0753805
-0.0207937
-0.0207937
-0.0121514
-0.0121514
-0.0130236
-0.0130236
-0.00873411
-0.00873411
-0.00799874
-0.00799874
0.0371587
0.0371587
-0.0120766
-0.0120766
0.00714812
0.00714812
-0.0619562
-0.0619562
-0.00237639
-0.00237639
-0.00634298
-0.00634298
-0.0311703
-0.0311703
-0.0392344
-0.0392344
-0.00253875
-0.00253875
-0.00807226
-0.00807226
-0.0304812
-0.0304812
0.0219907
0.0219907
0.000124286
0.000124286
-0.0299081
-0.0299081
-0.021963
-0.021963
-0.0219305
-0.0219305
-0.0224138
-0.0224138
0.0209817
0.0209817
0.0291353
0.0291353
-0.0486393
-0.0486393
-0.0335311
-0.0335311
-0.0107305
-0.0107305
-0.08046
-0.08046
0.0195464
0.0195464
-0.0403106
-0.0403106
-0.000202303
-0.000202303
-0.0120945
-0.0120945
-0.00151305
-0.00151305
-0.0312216
-0.0312216
-0.0231018
-0.0231018
-0.0524003
-0.0524003
0.00501021
0.00501021
-0.0281716
-0.0281716
-0.0737398
-0.0737398
-0.0463164
-0.0463164
-0.0372906
-0.0372906
-0.0103769
-0.0103769
-0.00303253
-0.00303253
0.0108906
0.0108906
-0.0023142
-0.0023142
-0.0106021
-0.0106021
-0.000494005
-0.000494005
0.0189175
0.0189175
-0.0396146
-0.0396146
-0.061944
-0.061944
-0.00442723
-0.00442723
0.00280371
0.00280371
-0.0157555
-0.0157555
-0.0970167
-0.0970167
-0.0206724
-0.0206724
-0.000569682
-0.000569682
-0.0266446
-0.0266446
-0.0110525
-0.0110525
-0.0211262
-0.0211262
-0.00397725
-0.00397725
0.00367226
0.00367226
-0.0728005
-0.0728005
-0.0181114
-0.0181114
-0.0125297
-0.0125297
-0.0142801
-0.0142801
-0.0457385
-0.0457385
0.0356394
0.0356394
0.0232002
0.0232002
0.00541009
0.00541009
0.0179773
0.0179773
-0.00445973
-0.00445973
-0.00211849
-0.00211849
-0.0316633
-0.0316633
-0.0502784
-0.0502784
0.00525175
0.00525175
-0.00222746
-0.00222746
-0.00979062
-0.00979062
0.00544013
0.00544013
-0.0159647
-0.0159647
-0.0258309
-0.0258309
-0.0585562
-0.0585562
-0.00207189
-0.00207189
-0.00260519
-0.00260519
0.00158379
0.00158379
-0.0752931
-0.0752931
-0.0388758
-0.0388758
0.0128
0.0128
0.00201954
0.00201954
-0.0099454
-0.0099454
0.0214052
0.0214052
-0.0134969
-0.0134969
-0.00224611
-0.00224611
-0.0288027
-0.0288027
-0.033284
-0.033284
-0.0113598
-0.0113598
-0.00388911
-0.00388911
-0.0160238
-0.0160238
-0.0025267
-0.0025267
-0.00819947
-0.00819947
-0.00602498
-0.00602498
-0.00321722
-0.00321722
-0.0105611
-0.0105611
0.00627159
0.00627159
-0.0096734
-0.0096734
-0.0326716
-0.0326716
-0.00624397
-0.00624397
-0.00364782
-0.00364782
0.00859196
0.00859196
-0.0621759
-0.0621759
-0.0538531
-0.0538531
-0.146932
-0.146932
-0.0728213
-0.0728213
-0.0557039
-0.0557039
0.000969971
0.000969971
-0.00987895
-0.00987895
-0.0284746
-0.0284746
0.0198338
0.0198338
-0.0133856
-0.0133856
0.0140187
0.0140187
-0.00270993
-0.00270993
-0.0181743
-0.0181743
-0.0303575
-0.0303575
0.0105737
0.0105737
-0.0249841
-0.0249841
-0.0148789
-0.0148789
-0.0109267
-0.0109267
-0.0355424
-0.0355424
-0.0340446
-0.0340446
-0.00458603
-0.00458603
0.0022707
0.0022707
-0.0210022
-0.0210022
-0.00595538
-0.00595538
-0.0286168
-0.0286168
-0.0253248
-0.0253248
-0.0347708
-0.0347708
-0.00459421
-0.00459421
-0.00656594
-0.00656594
-0.000638597
-0.000638597
-0.0660662
-0.0660662
-0.0375352
-0.0375352
-0.0752887
-0.0752887
-0.00332766
-0.00332766
-0.00402797
-0.00402797
0.0134767
0.0134767
0.0065122
0.0065122
0.0151039
0.0151039
0.0263973
0.0263973
-0.0235141
-0.0235141
-0.0253753
-0.0253753
0.0013262
0.0013262
-0.00820418
-0.00820418
-0.000510425
-0.000510425
-0.00640079
-0.00640079
-0.0166353
-0.0166353
0.00765978
0.00765978
-0.00980931
-0.00980931
-0.05033
-0.05033
-0.00409312
-0.00409312
0.0169882
0.0169882
-0.00764813
-0.00764813
-0.100178
-0.100178
0.0168919
0.0168919
0.00434794
0.00434794
-0.0074315
-0.0074315
-0.0377886
-0.0377886
-0.00201864
-0.00201864
-0.007127
-0.007127
-0.0423843
-0.0423843
-0.0196767
-0.0196767
0.0169291
0.0169291
-0.00930547
-0.00930547
-0.0191883
-0.0191883
-0.0484795
-0.0484795
0.0282411
0.0282411
0.0278816
0.0278816
-0.00146511
-0.00146511
-0.0588449
-0.0588449
0.00662056
0.00662056
-0.01495
-0.01495
-0.0227648
-0.0227648
-0.00412617
-0.00412617
0.000120932
0.000120932
-0.00661061
-0.00661061
-0.0464231
-0.0464231
-0.0144167
-0.0144167
-0.00460052
-0.00460052
-0.00353757
-0.00353757
-0.0147586
-0.0147586
-0.0598057
-0.0598057
0.00160918
0.00160918
-0.012705
-0.012705
-0.0179538
-0.0179538
-0.0757377
-0.0757377
-0.0536199
-0.0536199
-0.0463101
-0.0463101
-0.0137139
-0.0137139
-0.00317068
-0.00317068
-0.00283149
-0.00283149
0.0303314
0.0303314
-0.00133089
-0.00133089
-0.00589289
-0.00589289
-0.00356779
-0.00356779
0.0275848
0.0275848
-0.0534766
-0.0534766
-0.0241553
-0.0241553
-0.00384999
-0.00384999
-0.0720489
-0.0720489
-0.0732673
-0.0732673
-0.00288001
-0.00288001
-0.0814443
-0.0814443
-0.000799542
-0.000799542
-0.0474597
-0.0474597
0.0145598
0.0145598
-0.00692514
-0.00692514
-0.000234975
-0.000234975
-0.0118631
-0.0118631
-0.109837
-0.109837
-0.0137083
-0.0137083
-0.0064239
-0.0064239
-0.0144692
-0.0144692
-0.0493217
-0.0493217
-0.0231677
-0.0231677
-0.0225795
-0.0225795
0.0332495
0.0332495
-0.00441461
-0.00441461
-0.0555857
-0.0555857
-0.00673221
-0.00673221
-0.00283653
-0.00283653
-0.0724781
-0.0724781
-0.00991767
-0.00991767
-0.0586257
-0.0586257
-0.00735847
-0.00735847
-0.00130887
-0.00130887
-0.0279868
-0.0279868
0.0108718
0.0108718
0.00064382
0.00064382
-0.017479
-0.017479
-0.021932
-0.021932
-0.0155202
-0.0155202
-0.0281686
-0.0281686
-0.0667656
-0.0667656
0.0215001
0.0215001
-0.0588606
-0.0588606
0.00313055
0.00313055
-0.0691714
-0.0691714
-0.0206512
-0.0206512
-0.0274967
-0.0274967
-0.00390669
-0.00390669
0.0122018
0.0122018
-0.0792726
-0.0792726
0.0158368
0.0158368
0.0057415
0.0057415
0.0308995
0.0308995
-0.0667537
-0.0667537
-0.0201737
-0.0201737
-0.00122453
-0.00122453
-0.0356927
-0.0356927
-0.0496146
-0.0496146
-0.0138827
-0.0138827
-0.0609923
-0.0609923
-0.0240123
-0.0240123
-0.00713824
-0.00713824
-0.0111196
-0.0111196
0.0124846
0.0124846
-0.0545331
-0.0545331
0.0212828
0.0212828
-0.0173816
-0.0173816
0.000218391
0.000218391
-0.0217052
-0.0217052
0.00337148
0.00337148
0.0116081
0.0116081
-0.0198434
-0.0198434
-0.0336294
-0.0336294
-0.050667
-0.050667
0.00287171
0.00287171
-0.0740833
-0.0740833
0.0141558
0.0141558
-0.00956323
-0.00956323
-0.0297259
-0.0297259
-0.0472397
-0.0472397
-0.0643711
-0.0643711
-0.0603391
-0.0603391
-0.00794358
-0.00794358
-0.0288369
-0.0288369
-0.000434159
-0.000434159
-0.00453823
-0.00453823
-0.0812045
-0.0812045
-0.00873607
-0.00873607
0.0258495
0.0258495
0.0124239
0.0124239
-0.00955958
-0.00955958
-0.000529917
-0.000529917
0.000367894
0.000367894
-0.000338373
-0.000338373
-0.0235464
-0.0235464
-0.0223082
-0.0223082
0.00576113
0.00576113
-0.00356632
-0.00356632
-0.0338752
-0.0338752
0.00732263
0.00732263
-0.0177687
-0.0177687
-0.0120543
-0.0120543
-0.0135218
-0.0135218
-0.00610826
-0.00610826
-0.00611041
-0.00611041
-0.0419787
-0.0419787
-0.0044433
-0.0044433
0.00282324
0.00282324
-0.00236282
-0.00236282
0.0275919
0.0275919
-0.0336958
-0.0336958
-0.0273991
-0.0273991
-0.0243058
-0.0243058
-0.0281865
-0.0281865
-0.0100888
-0.0100888
-0.0423481
-0.0423481
-0.0458244
-0.0458244
-0.0211785
-0.0211785
-0.0877623
-0.0877623
0.0136465
0.0136465
-0.00654332
-0.00654332
-0.00402065
-0.00402065
0.0282551
0.0282551
0.0135966
0.0135966
-0.00418173
-0.00418173
-5.08468e-05
-5.08468e-05
-0.00764617
-0.00764617
-0.00890364
-0.00890364
-0.0336223
-0.0336223
-0.0227475
-0.0227475
-0.0223058
-0.0223058
-0.0199207
-0.0199207
-0.0298369
-0.0298369
-0.00724921
-0.00724921
0.00743908
0.00743908
0.020593
0.020593
-0.0141194
-0.0141194
-0.0215612
-0.0215612
-0.00889703
-0.00889703
-0.12595
-0.12595
0.00346874
0.00346874
0.0137657
0.0137657
-0.0672689
-0.0672689
0.0163789
0.0163789
-0.0106788
-0.0106788
0.00871166
0.00871166
-0.116136
-0.116136
-0.0141462
-0.0141462
0.0129985
0.0129985
-0.082376
-0.082376
-0.0390723
-0.0390723
-0.0213488
-0.0213488
-0.0831846
-0.0831846
-0.0081934
-0.0081934
-0.0078786
-0.0078786
-0.0275073
-0.0275073
-0.114936
-0.114936
-0.02859
-0.02859
-0.00299052
-0.00299052
-0.00899344
-0.00899344
0.00210131
0.00210131
-0.0578241
-0.0578241
-0.0305131
-0.0305131
0.00480614
0.00480614
-0.0264507
-0.0264507
-0.0104063
-0.0104063
-0.0093743
-0.0093743
-0.043311
-0.043311
-0.0473121
-0.0473121
-0.0676657
-0.0676657
-0.000917027
-0.000917027
-0.0156901
-0.0156901
-0.0257363
-0.0257363
-0.0144552
-0.0144552
-0.0166918
-0.0166918
0.00161044
0.00161044
-0.0228791
-0.0228791
0.00908971
0.00908971
-0.0166605
-0.0166605
-0.0130821
-0.0130821
-0.00527238
-0.00527238
0.0159093
0.0159093
-0.0368114
-0.0368114
-0.0472833
-0.0472833
-0.00493221
-0.00493221
-0.0536647
-0.0536647
-0.0125179
-0.0125179
-0.0830161
-0.0830161
-0.138245
-0.138245
0.00810731
0.00810731
0.0154496
0.0154496
0.00826268
0.00826268
-0.0330621
-0.0330621
0.000236229
0.000236229
-0.00153789
-0.00153789
-0.0570087
-0.0570087
-0.00395239
-0.00395239
-0.0043464
-0.0043464
0.00240928
0.00240928
-0.00287408
-0.00287408
-0.0337156
-0.0337156
-0.0917162
-0.0917162
-0.00196528
-0.00196528
-0.000127536
-0.000127536
-0.00916403
-0.00916403
-0.0101465
-0.0101465
-0.0689614
-0.0689614
-0.00349599
-0.00349599
-0.0526527
-0.0526527
0.00251553
0.00251553
-0.0248539
-0.0248539
-0.0164419
-0.0164419
0.0095858
0.0095858
-0.0141094
-0.0141094
0.00552114
0.00552114
0.00487357
0.00487357
-0.0131099
-0.0131099
-0.00232368
-0.00232368
-0.0179987
-0.0179987
-0.0190834
-0.0190834
-0.00638808
-0.00638808
0.0155789
0.0155789
-0.0146855
-0.0146855
-0.0229897
-0.0229897
0.0154758
0.0154758
-0.0034563
-0.0034563
-0.0412882
-0.0412882
-0.0018909
-0.0018909
-0.0266117
-0.0266117
-0.0789087
-0.0789087
-0.0104711
-0.0104711
-0.01961
-0.01961
-0.0348032
-0.0348032
0.0229038
0.0229038
0.00846246
0.00846246
-0.0191932
-0.0191932
0.00591341
0.00591341
-0.00257151
-0.00257151
-0.0211602
-0.0211602
-0.0180203
-0.0180203
-0.0168269
-0.0168269
-0.00428964
-0.00428964
5.01435e-05
5.01435e-05
-0.0156036
-0.0156036
-0.0161902
-0.0161902
-0.00589286
-0.00589286
-0.0111435
-0.0111435
-0.114141
-0.114141
-0.00408973
-0.00408973
-0.0136147
-0.0136147
-0.0175598
-0.0175598
-0.00765899
-0.00765899
0.00846337
0.00846337
-0.0102347
-0.0102347
-0.0161498
-0.0161498
0.00785389
0.00785389
0.00254565
0.00254565
-0.0270841
-0.0270841
-0.0204333
-0.0204333
-0.0516049
-0.0516049
-0.00863933
-0.00863933
0.00201978
0.00201978
-0.00668436
-0.00668436
-0.00514258
-0.00514258
-0.0314406
-0.0314406
-0.00380413
-0.00380413
-0.010789
-0.010789
-0.00988005
-0.00988005
-0.0587815
-0.0587815
-0.00607961
-0.00607961
-0.00712794
-0.00712794
-0.0156949
-0.0156949
-0.0488526
-0.0488526
-0.00167382
-0.00167382
-0.0551807
-0.0551807
-0.00173874
-0.00173874
-0.0708967
-0.0708967
-0.0590197
-0.0590197
-0.000533185
-0.000533185
0.0144221
0.0144221
0.00470643
0.00470643
-0.0433683
-0.0433683
-0.00130574
-0.00130574
-0.0124263
-0.0124263
-0.067043
-0.067043
0.0179435
0.0179435
-0.0432555
-0.0432555
-0.0151938
-0.0151938
-0.0403856
-0.0403856
-0.0561724
-0.0561724
0.0241859
0.0241859
-0.00898574
-0.00898574
-0.022277
-0.022277
-0.0053413
-0.0053413
-0.0237742
-0.0237742
-0.00580334
-0.00580334
-0.00765525
-0.00765525
-0.0151544
-0.0151544
-0.0414593
-0.0414593
-0.0271207
-0.0271207
0.00267897
0.00267897
-0.0458285
-0.0458285
-0.0198591
-0.0198591
-0.0232301
-0.0232301
-0.0352386
-0.0352386
-0.045228
-0.045228
-0.0279696
-0.0279696
0.00889568
0.00889568
-0.103202
-0.103202
0.00539474
0.00539474
-0.0266632
-0.0266632
-0.0123412
-0.0123412
-0.0648821
-0.0648821
-0.038245
-0.038245
0.0193121
0.0193121
-0.0339762
-0.0339762
-0.0497761
-0.0497761
-0.0149396
-0.0149396
-0.0431494
-0.0431494
-0.0689416
-0.0689416
0.0213172
0.0213172
-0.0155812
-0.0155812
8.69846e-05
8.69846e-05
-0.00586019
-0.00586019
-0.0595942
-0.0595942
-0.0576067
-0.0576067
-0.00294007
-0.00294007
-0.0170819
-0.0170819
0.0110914
0.0110914
-0.0417394
-0.0417394
-0.00327609
-0.00327609
-0.0936901
-0.0936901
-0.067864
-0.067864
-0.010235
-0.010235
-0.0111575
-0.0111575
-0.056797
-0.056797
-0.0222135
-0.0222135
0.0334583
0.0334583
-0.0489739
-0.0489739
0.0311503
0.0311503
-0.0125818
-0.0125818
-0.0119949
-0.0119949
-0.05492
-0.05492
-0.00756346
-0.00756346
-0.00177584
-0.00177584
-0.0108619
-0.0108619
-0.0160259
-0.0160259
-0.0129171
-0.0129171
-0.013039
-0.013039
0.000723133
0.000723133
-0.00885349
-0.00885349
-0.0347463
-0.0347463
-0.0116845
-0.0116845
-0.0138602
-0.0138602
-0.0101387
-0.0101387
-0.00475204
-0.00475204
-0.0167332
-0.0167332
0.00595559
0.00595559
-0.0117186
-0.0117186
0.00219613
0.00219613
-0.0070468
-0.0070468
-0.0753541
-0.0753541
-0.0135457
-0.0135457
-0.0224207
-0.0224207
0.0120074
0.0120074
-0.00606456
-0.00606456
0.00419422
0.00419422
-0.012866
-0.012866
-0.0602885
-0.0602885
-0.00456681
-0.00456681
-0.0504221
-0.0504221
-0.0112417
-0.0112417
-0.00225535
-0.00225535
-0.0128011
-0.0128011
-0.0133701
-0.0133701
-0.0119689
-0.0119689
-0.017179
-0.017179
-0.0256744
-0.0256744
0.0253871
0.0253871
0.000764548
0.000764548
-0.00176187
-0.00176187
-0.0262613
-0.0262613
0.0156521
0.0156521
-0.00717418
-0.00717418
-0.00399783
-0.00399783
-0.0144612
-0.0144612
-0.0120523
-0.0120523
-0.00189478
-0.00189478
-0.00894224
-0.00894224
-0.000524019
-0.000524019
-0.00497651
-0.00497651
-0.0172389
-0.0172389
0.00334539
0.00334539
-0.0330083
-0.0330083
-0.0161066
-0.0161066
0.0324723
0.0324723
-0.00440445
-0.00440445
0.0103323
0.0103323
-0.00973265
-0.00973265
-0.0887578
-0.0887578
-0.0751328
-0.0751328
-0.0324629
-0.0324629
0.0196675
0.0196675
-0.0497172
-0.0497172
-0.00134106
-0.00134106
-0.00550075
-0.00550075
-0.00629066
-0.00629066
-0.00166295
-0.00166295
-0.0131462
-0.0131462
-0.0166433
-0.0166433
-0.00485853
-0.00485853
-0.0244519
-0.0244519
-0.110828
-0.110828
-0.00874252
-0.00874252
-0.0131914
-0.0131914
-0.00919392
-0.00919392
-0.030561
-0.030561
0.00960516
0.00960516
-0.0499938
-0.0499938
-0.00236055
-0.00236055
0.0140754
0.0140754
-0.00245003
-0.00245003
-0.00611621
-0.00611621
-0.0774617
-0.0774617
-0.0773654
-0.0773654
-0.0668776
-0.0668776
-0.00137636
-0.00137636
0.00315884
0.00315884
-0.0153261
-0.0153261
-0.00389536
-0.00389536
-0.00521505
-0.00521505
-0.00565234
-0.00565234
-0.0031314
-0.0031314
0.0181722
0.0181722
-0.0830287
-0.0830287
-0.00516276
-0.00516276
-0.000526524
-0.000526524
-0.00322802
-0.00322802
-0.00743999
-0.00743999
-0.00346911
-0.00346911
0.00618145
0.00618145
-0.0467169
-0.0467169
-0.00999226
-0.00999226
-0.0266142
-0.0266142
-0.0505897
-0.0505897
-0.0172025
-0.0172025
-0.0676289
-0.0676289
-0.0226827
-0.0226827
-0.0217803
-0.0217803
-0.00160538
-0.00160538
-0.00803436
-0.00803436
0.0179025
0.0179025
0.0260516
0.0260516
-0.00542507
-0.00542507
-0.00290707
-0.00290707
0.00555648
0.00555648
-0.0351477
-0.0351477
-0.0033087
-0.0033087
0.0132233
0.0132233
-0.0124719
-0.0124719
5.59039e-05
5.59039e-05
-0.00498482
-0.00498482
-0.00737183
-0.00737183
-0.0647474
-0.0647474
0.0259483
0.0259483
-0.00376797
-0.00376797
-0.0237717
-0.0237717
-0.0358502
-0.0358502
-0.0393899
-0.0393899
-0.00543015
-0.00543015
-0.00274713
-0.00274713
-0.048268
-0.048268
0.00655613
0.00655613
-0.0642163
-0.0642163
-0.0839996
-0.0839996
0.00667908
0.00667908
-0.00551076
-0.00551076
-0.0598251
-0.0598251
-0.0113915
-0.0113915
-0.0149179
-0.0149179
-0.024891
-0.024891
-0.00846695
-0.00846695
0.0132642
0.0132642
-0.0558901
-0.0558901
-0.0221381
-0.0221381
0.00861689
0.00861689
-0.0488676
-0.0488676
-0.0136116
-0.0136116
-0.0113562
-0.0113562
-0.00485631
-0.00485631
-0.00349404
-0.00349404
-0.015588
-0.015588
-0.029156
-0.029156
-0.00565878
-0.00565878
0.0142806
0.0142806
-0.135937
-0.135937
0.00164259
0.00164259
-0.00728874
-0.00728874
-0.0197621
-0.0197621
0.0086342
0.0086342
-0.018945
-0.018945
-0.00909392
-0.00909392
-0.0130799
-0.0130799
-0.00180984
-0.00180984
0.00380366
0.00380366
0.00264928
0.00264928
0.00483849
0.00483849
-0.0684348
-0.0684348
-0.0191369
-0.0191369
0.00265191
0.00265191
0.0179861
0.0179861
0.00346551
0.00346551
0.0172036
0.0172036
-0.00847363
-0.00847363
0.00391015
0.00391015
-0.00783784
-0.00783784
-0.00973375
-0.00973375
-0.116114
-0.116114
0.00634032
0.00634032
-0.097601
-0.097601
0.0165008
0.0165008
0.00118912
0.00118912
-0.0179036
-0.0179036
-0.0100929
-0.0100929
-0.0314596
-0.0314596
-0.0353401
-0.0353401
-0.0117952
-0.0117952
-0.00133504
-0.00133504
0.0179459
0.0179459
-0.0410326
-0.0410326
-0.0107681
-0.0107681
-0.00893174
-0.00893174
0.0242427
0.0242427
0.000512058
0.000512058
-0.00222718
-0.00222718
0.000101244
0.000101244
-0.00424333
-0.00424333
-0.0261274
-0.0261274
-0.0556087
-0.0556087
-0.0636188
-0.0636188
-0.0100872
-0.0100872
0.0130276
0.0130276
-0.0648539
-0.0648539
-0.0256191
-0.0256191
0.0242071
0.0242071
-0.00317171
-0.00317171
0.000683037
0.000683037
-0.0177292
-0.0177292
-0.0145101
-0.0145101
-0.0043359
-0.0043359
-0.0620132
-0.0620132
0.0369907
0.0369907
-0.0445602
-0.0445602
-0.0042433
-0.0042433
-0.0189062
-0.0189062
-0.0814266
-0.0814266
0.00306604
0.00306604
-0.0154351
-0.0154351
-0.0711248
-0.0711248
0.026579
0.026579
-0.00196304
-0.00196304
0.00357441
0.00357441
-0.011244
-0.011244
0.0152643
0.0152643
-0.000944372
-0.000944372
-0.00312411
-0.00312411
-0.020991
-0.020991
-0.0343178
-0.0343178
-0.103445
-0.103445
-0.0813956
-0.0813956
0.00953571
0.00953571
-0.0764931
-0.0764931
-0.015009
-0.015009
-0.00743905
-0.00743905
0.00115132
0.00115132
-0.0244824
-0.0244824
0.00592153
0.00592153
-0.00324827
-0.00324827
0.00488402
0.00488402
-0.00285824
-0.00285824
-7.55273e-05
-7.55273e-05
-0.020928
-0.020928
-0.0124915
-0.0124915
-0.00269297
-0.00269297
-0.040925
-0.040925
0.00207132
0.00207132
-0.0159512
-0.0159512
-0.0184858
-0.0184858
0.0133133
0.0133133
-0.020518
-0.020518
-0.00962526
-0.00962526
0.0206172
0.0206172
0.00545352
0.00545352
0.0189256
0.0189256
-0.0253575
-0.0253575
-0.000949474
-0.000949474
-0.0526066
-0.0526066
-0.0156882
-0.0156882
-0.0776074
-0.0776074
-0.0422622
-0.0422622
-0.0777531
-0.0777531
-0.00635904
-0.00635904
-0.0544205
-0.0544205
0.00172063
0.00172063
-0.0142801
-0.0142801
-0.0683318
-0.0683318
-0.0777397
-0.0777397
0.0116994
0.0116994
-0.0158116
-0.0158116
0.014356
0.014356
0.0184017
0.0184017
-0.0286425
-0.0286425
-0.072453
-0.072453
-0.00273673
-0.00273673
0.00710865
0.00710865
0.00481882
0.00481882
0.0141336
0.0141336
-0.0387662
-0.0387662
-0.0142478
-0.0142478
0.00150454
0.00150454
-0.0142962
-0.0142962
-0.0156699
-0.0156699
-0.020069
-0.020069
0.00779832
0.00779832
-0.0428174
-0.0428174
-0.00531246
-0.00531246
-0.0050139
-0.0050139
-0.0098161
-0.0098161
-0.0143607
-0.0143607
-0.00424765
-0.00424765
-0.0472423
-0.0472423
-0.0668848
-0.0668848
-0.010271
-0.010271
-0.00238202
-0.00238202
-0.0151298
-0.0151298
0.00331194
0.00331194
-0.0694841
-0.0694841
-0.00116998
-0.00116998
0.0193808
0.0193808
-0.0841863
-0.0841863
-0.00119429
-0.00119429
-0.0214584
-0.0214584
-0.023708
-0.023708
-0.0537322
-0.0537322
-0.0116618
-0.0116618
-0.012601
-0.012601
-0.00201694
-0.00201694
-0.0601975
-0.0601975
-0.0150894
-0.0150894
-0.0401363
-0.0401363
0.000662468
0.000662468
-0.0058447
-0.0058447
0.00651856
0.00651856
0.0100104
0.0100104
-0.0280827
-0.0280827
0.00182125
0.00182125
0.00173987
0.00173987
0.00145678
0.00145678
0.000292107
0.000292107
-0.00255087
-0.00255087
-0.0162049
-0.0162049
-0.0163156
-0.0163156
-0.0351069
-0.0351069
-0.00562836
-0.00562836
0.0158382
0.0158382
-0.0178931
-0.0178931
-0.0545296
-0.0545296
0.0120046
0.0120046
-0.0178307
-0.0178307
-0.00604873
-0.00604873
-0.0166824
-0.0166824
-0.0122133
-0.0122133
-0.00983645
-0.00983645
-0.00566842
-0.00566842
-0.0455467
-0.0455467
-0.00642585
-0.00642585
-0.00971926
-0.00971926
-0.00950836
-0.00950836
-0.0566683
-0.0566683
-0.0907278
-0.0907278
-0.0119263
-0.0119263
-0.00595128
-0.00595128
-0.0581959
-0.0581959
-0.013082
-0.013082
-0.00562342
-0.00562342
-0.0383897
-0.0383897
-0.0411752
-0.0411752
-0.0170141
-0.0170141
-0.00388887
-0.00388887
-0.0320899
-0.0320899
0.00544988
0.00544988
0.0110135
0.0110135
0.00111115
0.00111115
-0.00341354
-0.00341354
-0.0111796
-0.0111796
0.0110054
0.0110054
0.0284996
0.0284996
-0.0587584
-0.0587584
-0.0084889
-0.0084889
-0.0110152
-0.0110152
-0.0247605
-0.0247605
-0.0181432
-0.0181432
0.00683203
0.00683203
-0.0203375
-0.0203375
0.0106846
0.0106846
-0.047573
-0.047573
-0.0683709
-0.0683709
0.0321134
0.0321134
-0.0545156
-0.0545156
-0.0660169
-0.0660169
-0.0439153
-0.0439153
-0.0229934
-0.0229934
-0.00898143
-0.00898143
-0.00849447
-0.00849447
-0.0333346
-0.0333346
-0.0231507
-0.0231507
0.00060385
0.00060385
-0.00738301
-0.00738301
-0.00404029
-0.00404029
0.00745792
0.00745792
-0.0210417
-0.0210417
-0.0479516
-0.0479516
-0.0993662
-0.0993662
-0.0688238
-0.0688238
-0.0384084
-0.0384084
-0.026539
-0.026539
-0.11876
-0.11876
-0.00578819
-0.00578819
-0.05153
-0.05153
0.0122674
0.0122674
-0.00179605
-0.00179605
-0.0690016
-0.0690016
-0.0227445
-0.0227445
-0.0201305
-0.0201305
-0.0528944
-0.0528944
-0.00461741
-0.00461741
-0.0067652
-0.0067652
-0.00418133
-0.00418133
-0.0102516
-0.0102516
-0.0521525
-0.0521525
-0.0066613
-0.0066613
-0.00509515
-0.00509515
-0.00478974
-0.00478974
-0.00103392
-0.00103392
-0.0392941
-0.0392941
-0.00241112
-0.00241112
-0.0712418
-0.0712418
-0.116564
-0.116564
-0.0119095
-0.0119095
0.00972673
0.00972673
-0.0212375
-0.0212375
-0.0221047
-0.0221047
-0.00835155
-0.00835155
-0.0294481
-0.0294481
0.00558623
0.00558623
-0.00585803
-0.00585803
-0.00452115
-0.00452115
-0.00368444
-0.00368444
-0.00317577
-0.00317577
-0.00251288
-0.00251288
-0.00199406
-0.00199406
-0.00150362
-0.00150362
-0.00106114
-0.00106114
-0.000693945
-0.000693945
-0.000327058
-0.000327058
-2.0142e-05
-2.0142e-05
0.000254256
0.000254256
0.000518143
0.000518143
0.000683859
0.000683859
0.000835412
0.000835412
0.000975797
0.000975797
0.00103018
0.00103018
0.00108111
0.00108111
0.00105651
0.00105651
0.00105084
0.00105084
0.000952646
0.000952646
0.000801462
0.000801462
0.000688278
0.000688278
0.000480169
0.000480169
0.000249319
0.000249319
-7.10619e-05
-7.10619e-05
-0.00034138
-0.00034138
-0.000634663
-0.000634663
-0.00110082
-0.00110082
-0.00147756
-0.00147756
-0.0021567
-0.0021567
-0.00254647
-0.00254647
-0.00297541
-0.00297541
-0.00397149
-0.00397149
-0.00472774
-0.00472774
-0.00500822
-0.00500822
-0.005934
-0.005934
-0.00765316
-0.00765316
-0.00841845
-0.00841845
-0.00930289
-0.00930289
-0.0115084
-0.0115084
-0.0136016
-0.0136016
-0.0160104
-0.0160104
-0.0194227
-0.0194227
-0.0252198
-0.0252198
-0.0309557
-0.0309557
-0.0424463
-0.0424463
-0.0496564
-0.0496564
-0.0242887
-0.0242887
0.00248435
0.00248435
-0.00684009
-0.00684009
-0.00973942
-0.00973942
-0.00768288
-0.00768288
-0.00773775
-0.00773775
-0.00732796
-0.00732796
-0.0101675
-0.0101675
-0.0148195
-0.0148195
-0.0177101
-0.0177101
-0.0207479
-0.0207479
-0.0236126
-0.0236126
-0.0256324
-0.0256324
-0.0261664
-0.0261664
-0.0255383
-0.0255383
-0.0242779
-0.0242779
-0.022325
-0.022325
-0.0199256
-0.0199256
-0.0172139
-0.0172139
-0.0146967
-0.0146967
-0.0122646
-0.0122646
-0.0103758
-0.0103758
-0.00952266
-0.00952266
-0.00869184
-0.00869184
-0.0049888
-0.0049888
-0.00462666
-0.00462666
-0.00400837
-0.00400837
-0.00306583
-0.00306583
-0.00255102
-0.00255102
-0.00220318
-0.00220318
-0.00147378
-0.00147378
-0.00115458
-0.00115458
-0.00063129
-0.00063129
-0.00033488
-0.00033488
-6.98043e-05
-6.98043e-05
0.000261414
0.000261414
0.000478987
0.000478987
0.000683224
0.000683224
0.000789366
0.000789366
0.000974677
0.000974677
0.0010172
0.0010172
0.00105295
0.00105295
0.00102438
0.00102438
0.00105723
0.00105723
0.000960768
0.000960768
0.000824339
0.000824339
0.000705368
0.000705368
0.000481432
0.000481432
0.000261815
0.000261815
-1.02195e-05
-1.02195e-05
-0.000338217
-0.000338217
-0.000672955
-0.000672955
-0.00108368
-0.00108368
-0.00152312
-0.00152312
-0.00203471
-0.00203471
-0.00253445
-0.00253445
-0.00311971
-0.00311971
-0.00375087
-0.00375087
-0.00458274
-0.00458274
-0.0059456
-0.0059456
-0.00854328
-0.00854328
-0.00954234
-0.00954234
-0.0103882
-0.0103882
-0.0123057
-0.0123057
-0.0146963
-0.0146963
-0.0173838
-0.0173838
-0.0202037
-0.0202037
-0.0225838
-0.0225838
-0.0245752
-0.0245752
-0.0258341
-0.0258341
-0.0262359
-0.0262359
-0.025626
-0.025626
-0.0240028
-0.0240028
-0.0204722
-0.0204722
-0.0168566
-0.0168566
-0.0131765
-0.0131765
-0.0104735
-0.0104735
-0.00889848
-0.00889848
-0.00675604
-0.00675604
-0.00698597
-0.00698597
-0.00768916
-0.00768916
-0.00644329
-0.00644329
-0.00237414
-0.00237414
-0.0202527
-0.0202527
-0.0464229
-0.0464229
-0.0459922
-0.0459922
-0.0337863
-0.0337863
-0.0239486
-0.0239486
-0.0203785
-0.0203785
-0.015322
-0.015322
-0.0133258
-0.0133258
-0.0120193
-0.0120193
-0.00959164
-0.00959164
-0.00806785
-0.00806785
-0.00754692
-0.00754692
-0.0063546
-0.0063546
      </DataArray> 
    </PointData>
    <CellData>
    </CellData>
  </Piece>
  </UnstructuredGrid>
</VTKFile>
