<?xml version="1.0"?>
<VTKFile type="UnstructuredGrid">
  <UnstructuredGrid>
  <Piece NumberOfPoints="3487"  NumberOfCells="1698">
    <Points>
      <DataArray type="Float64" NumberOfComponents="3" format="ascii">
39.9729 48.5845 0
60.0278 48.5835 0
40.634 48.7154 0
41.2965 48.8375 0
41.9603 48.9506 0
42.6255 49.0546 0
43.2919 49.1496 0
43.9594 49.2355 0
44.628 49.3125 0
45.2975 49.3804 0
45.9679 49.4392 0
46.6389 49.489 0
47.3105 49.5298 0
47.9826 49.5615 0
48.6551 49.5841 0
49.3278 49.5976 0
50.0005 49.6021 0
50.6733 49.5976 0
51.346 49.5839 0
52.0184 49.5612 0
52.6905 49.5295 0
53.3621 49.4887 0
54.0331 49.4388 0
54.7034 49.3799 0
55.3729 49.3119 0
56.0415 49.2349 0
56.709 49.1489 0
57.3753 49.0538 0
58.0404 48.9498 0
58.7042 48.8367 0
59.3666 48.7145 0
39.9929 49.6008 0
39.9926 49.3468 0
39.9891 49.0927 0
39.9824 48.8386 0
19.885 69.4935 0
39.9898 49.8624 0
39.9834 50.124 0
39.968 50.5024 0
39.9455 50.8804 0
39.9001 51.4265 0
39.8398 51.9711 0
39.7261 52.7559 0
39.5812 53.5355 0
39.3171 54.652 0
38.9891 55.7517 0
38.7127 56.5346 0
38.4039 57.3055 0
38.0634 58.0629 0
37.6916 58.8055 0
37.0999 59.8512 0
36.4463 60.8596 0
35.7333 61.8269 0
-0.0594562 49.4377 0
17.2754 69.3122 0
14.7117 68.7927 0
12.2375 67.9438 0
9.89482 66.7799 0
7.7238 65.3208 0
11.5724 31.5468 0
0.150363 46.6194 0
0.757551 43.8597 0
1.75034 41.2142 0
0 0 0
0.111327 3.70398 0
0.516873 7.39588 0
1.20789 11.0496 0
2.17898 14.6383 0
3.08893 17.2796 0
49.9997 -0.381464 0
5.1116 0 0
10.2232 0 0
15.3348 0 0
100 0 0
57.4106 -0.369599 0
64.8215 -0.326258 0
72.2241 -0.235222 0
88.4284 31.5459 0
99.8888 3.70398 0
99.4833 7.39567 0
98.7923 11.0493 0
97.8212 14.6379 0
96.9113 17.2793 0
100.06 49.4373 0
99.8498 46.619 0
99.2427 43.8593 0
98.2499 41.2137 0
80.115 69.4928 0
99.8965 52.0476 0
99.3931 54.6144 0
98.5584 57.0931 0
97.4069 59.4419 0
95.9587 61.6199 0
60.0076 49.5998 0
77.6039 69.3453 0
75.131 68.8846 0
72.7353 68.1178 0
70.4544 67.057 0
68.9645 66.1608 0
67.5579 65.1388 0
66.2452 63.9985 0
65.0365 62.7487 0
64.2667 61.8259 0
63.5538 60.8586 0
62.9003 59.8503 0
62.3085 58.8045 0
61.5963 57.3046 0
61.0111 55.7508 0
60.6832 54.6511 0
60.419 53.5345 0
60.2742 52.7548 0
60.0079 49.3457 0
60.0114 49.0917 0
60.0181 48.8376 0
52.8146 29.8609 0
26.5486 36.6846 0
40.3483 23.9951 0
24.9625 22.3038 0
71.9078 22.3209 0
72.7012 43.7254 0
54.7951 23.8138 0
15.283 47.1566 0
38.3571 49.2098 0
23.5434 64.9773 0
7.67905 7.71083 0
91.9623 7.68864 0
29.134 56.6431 0
37.1726 51.678 0
28.0851 46.9656 0
29.7228 47.9272 0
71.5172 46.4512 0
30.9797 48.8259 0
70.5199 47.9281 0
31.6384 45.4183 0
30.8857 46.8709 0
70.0651 46.4412 0
68.98 44.7685 0
31.2811 49.9201 0
30.89 51.1412 0
28.1787 48.9194 0
45.3116 41.0615 0
53.8412 40.6825 0
56.0231 40.2314 0
73.1329 47.2032 0
70.123 49.1675 0
68.324 42.2018 0
32.3192 42.5322 0
26.1355 45.4486 0
27.6794 44.4562 0
30.311 43.0885 0
70.4054 42.3995 0
72.6778 45.7173 0
44.8518 42.8536 0
51.4299 41.7602 0
55.4069 42.3463 0
32.4442 48.8638 0
68.5633 49.4053 0
39.4835 41.8444 0
35.446 43.1582 0
32.8952 46.3165 0
33.574 48.0634 0
67.1075 48.0071 0
67.9824 46.2456 0
65.0662 42.821 0
60.4126 41.4817 0
32.3546 51.1797 0
28.2015 50.7755 0
41.7862 37.0691 0
46.8266 37.4731 0
52.0475 39.6452 0
58.671 39.0149 0
26.5864 51.6687 0
24.2834 50.1018 0
74.2412 49.711 0
71.1786 50.416 0
69.159 51.9973 0
67.9333 52.1326 0
59.7527 36.1362 0
66.4927 40.4503 0
34.1175 40.8269 0
36.0395 35.5695 0
23.1749 46.9366 0
21.6473 43.0475 0
28.362 41.5733 0
74.3166 44.4779 0
76.6493 48.3169 0
43.0575 43.4414 0
46.2707 42.7274 0
49.9682 42.7752 0
48.4338 42.5582 0
51.7625 43.8126 0
54.0868 43.9282 0
52.9051 44.2238 0
56.2699 43.4769 0
33.8756 49.1581 0
33.7722 50.6702 0
66.5501 51.484 0
66.603 49.4945 0
41.8356 43.6787 0
40.7071 43.4161 0
38.4662 43.0227 0
37.1475 43.6269 0
35.3493 45.3324 0
34.3264 46.6099 0
66.0226 46.3335 0
65.0154 45.062 0
63.1843 43.3103 0
61.6987 42.8619 0
58.8745 43.2762 0
57.5359 43.5926 0
33.381 51.8919 0
29.1442 53.4943 0
40.8461 30.7957 0
50.8845 35.7872 0
55.661 34.0702 0
23.5338 53.2085 0
76.941 51.6783 0
70.259 53.1018 0
66.4245 52.7246 0
65.4568 34.9548 0
30.9718 34.3755 0
19.4325 47.0522 0
26.1402 39.813 0
71.9815 33.8987 0
72.0437 41.1613 0
77.4889 45.0767 0
43.1695 44.8834 0
45.8111 44.5197 0
48.7654 44.6105 0
51.4431 45.2389 0
53.768 45.3546 0
56.2162 45.1748 0
34.9022 49.87 0
65.0939 50.0857 0
40.8185 44.8579 0
38.3709 45.199 0
36.0289 47.0803 0
64.1397 46.8246 0
61.6464 45.1052 0
58.8216 44.974 0
36.0538 52.1448 0
34.8999 52.9053 0
33.4824 53.4142 0
31.8754 55.2021 0
26.0524 58.6567 0
22.9581 57.0567 0
32.4206 22.5186 0
47.0414 26.4811 0
63.1192 22.8527 0
19.9542 54.7631 0
80.2221 54.0289 0
75.8342 55.5428 0
71.9693 55.9016 0
69.1183 55.2282 0
65.7948 53.7337 0
64.1178 53.5814 0
68.1299 28.8076 0
26.8034 29.9009 0
17.209 51.4946 0
14.593 42.2108 0
22.4275 33.8719 0
84.915 46.6187 0
84.7537 51.7615 0
75.1529 37.7286 0
81.2182 43.711 0
42.4582 46.2137 0
41.418 46.0218 0
44.9669 46.0593 0
43.6808 45.9762 0
47.737 46.0005 0
46.3866 45.9331 0
50.62 46.3137 0
49.2724 46.2176 0
53.0503 46.7087 0
51.763 46.725 0
55.5122 46.321 0
54.2326 46.413 0
58.0601 46.2744 0
56.7789 46.4368 0
36.3706 48.4022 0
36.021 49.4026 0
35.9174 50.9156 0
63.3987 51.8497 0
63.8393 50.8366 0
63.8924 48.8459 0
63.8391 47.9439 0
40.289 45.7588 0
39.3732 45.9378 0
38.0537 46.5412 0
37.3939 47.1245 0
62.8316 46.6721 0
62.0153 46.3485 0
60.5288 45.901 0
59.3995 45.9575 0
38.045 52.3501 0
36.1549 53.6682 0
34.042 56.5235 0
29.5528 59.5804 0
22.8189 61.1118 0
21.7546 15.2959 0
39.9782 16.0256 0
48.9019 11.2977 0
56.9333 16.7503 0
76.6262 15.5243 0
15.5873 56.7987 0
84.5727 57.2328 0
73.4576 59.2384 0
66.5485 55.3913 0
62.4755 53.3559 0
82.9416 7.78634 0
79.7183 22.4618 0
16.3053 7.8701 0
18.3688 22.1853 0
10.6922 46.5052 0
16.6011 35.8011 0
15.5587 30.2307 0
89.4417 49.3752 0
83.2753 31.0692 0
81.5657 39.0842 0
41.929 47.115 0
44.2562 47.3898 0
46.8933 47.5403 0
49.5919 47.7038 0
52.2272 47.7836 0
54.7946 47.6752 0
57.3563 47.4207 0
37.3862 49.4477 0
37.9089 51.12 0
62.1968 50.6099 0
62.5839 48.6942 0
39.9724 47.1022 0
38.3962 47.864 0
38.5096 48.6338 0
61.7669 48.3314 0
61.714 47.4685 0
59.7677 47.202 0
38.8796 50.8829 0
61.3576 50.8163 0
39.1813 52.6638 0
38.445 53.2214 0
38.1491 54.3293 0
36.9953 55.0893 0
36.4849 56.8606 0
34.8311 58.3777 0
33.317 60.2298 0
30.6929 62.3314 0
27.9252 64.474 0
27.1813 7.70417 0
38.6607 8.16716 0
59.8724 8.3871 0
71.7552 7.77518 0
19.1692 64.4116 0
14.8751 62.6692 0
10.6796 59.8744 0
6.23592 56.8236 0
5.95584 50.8952 0
94.2802 51.9904 0
93.3737 57.0427 0
89.3939 60.393 0
84.6448 62.9134 0
79.5398 64.5959 0
74.6369 63.642 0
70.3236 62.3731 0
66.881 60.9303 0
65.2569 58.2642 0
62.7514 56.9458 0
62.1029 55.4191 0
61.8068 54.3111 0
61.0877 52.5788 0
93.5076 14.4952 0
89.7933 20.626 0
86.0895 24.9295 0
6.2386 14.4892 0
13.0266 24.4024 0
9.79096 20.6181 0
5.73102 45.3329 0
5.64145 40.3948 0
12.3243 34.5242 0
94.2622 46.8769 0
88.1115 36.854 0
93.3776 42.1583 0
41.0921 47.8803 0
40.4309 47.7538 0
42.1332 48.0721 0
43.4643 48.271 0
42.7974 48.1806 0
44.751 48.3542 0
46.0906 48.4809 0
45.42 48.4265 0
47.4415 48.5484 0
48.7858 48.6026 0
48.1133 48.5845 0
50.1338 48.6987 0
51.4791 48.6805 0
50.8066 48.6987 0
52.7667 48.6642 0
54.1091 48.5735 0
53.4385 48.6279 0
55.3892 48.4814 0
56.725 48.3184 0
56.0582 48.4089 0
58.007 48.156 0
59.3325 47.9209 0
58.6713 48.0474 0
39.3634 51.3363 0
39.3105 51.8816 0
60.9584 51.7967 0
60.9056 51.2514 0
38.0071 50.2109 0
39.1306 49.3971 0
61.798 49.8025 0
61.8204 49.2341 0
60.9809 49.4401 0
39.5145 47.9324 0
39.1701 48.0507 0
60.95 48.0083 0
60.4626 47.8641 0
39.4617 50.4268 0
60.5068 50.4439 0
39.4854 49.787 0
39.4807 50.0486 0
60.4878 50.0658 0
60.4831 49.8042 0
39.6382 49.2106 0
39.628 48.7027 0
39.6363 48.9566 0
60.5052 49.2353 0
60.5072 48.9814 0
60.5156 48.7276 0
61.0033 48.8715 0
39.2833 48.8208 0
60.9587 50.0087 0
38.9779 49.9734 0
60.8976 47.1449 0
39.0562 47.2806 0
62.6376 49.5966 0
37.0362 50.4485 0
61.7565 51.6237 0
38.7812 51.7923 0
58.6379 47.2581 0
56.0746 47.583 0
53.5147 47.7672 0
50.9398 47.7998 0
48.244 47.6077 0
45.5426 47.4728 0
42.9697 47.3066 0
40.8885 46.923 0
89.1744 44.5401 0
10.9159 40.6794 0
13.2801 16.0971 0
85.8799 16.3005 0
63.1947 55.0879 0
68.9562 58.2406 0
78.9935 59.6139 0
89.337 54.6508 0
11.73 52.6042 0
19.1837 59.4374 0
66.6936 15.5928 0
30.7789 15.3235 0
26.3038 61.8925 0
32.1257 57.7588 0
35.001 54.4284 0
37.3087 52.9079 0
62.5308 47.7918 0
37.7358 48.4469 0
75.9137 28.5126 0
20.5409 28.4269 0
47.9177 19.1006 0
60.1606 44.6569 0
63.1328 45.5526 0
37.0513 45.8023 0
39.6898 44.5948 0
65.1475 48.0959 0
65.0413 52.0761 0
34.7985 51.3826 0
35.0053 48.3576 0
57.4826 45.2906 0
54.9499 45.0589 0
52.5859 45.6502 0
50.3004 44.8276 0
47.2304 44.3934 0
44.3917 44.6458 0
41.9472 45.1207 0
74.3397 42.4871 0
80.2829 48.6502 0
17.9923 43.1189 0
21.2903 50.5604 0
34.4617 29.5227 0
59.972 30.0684 0
67.8078 53.3729 0
73.4232 52.8015 0
54.4579 38.5677 0
46.5129 32.7262 0
26.2054 55.1675 0
31.9633 52.4012 0
69.7497 39.8336 0
30.9914 40.2033 0
57.5893 41.8949 0
63.2364 41.0682 0
66.8981 44.572 0
33.6471 44.863 0
37.2429 41.4516 0
41.7239 42.237 0
68.0591 50.8926 0
32.7457 49.9583 0
53.2241 42.7975 0
49.6363 40.7229 0
74.2937 46.4691 0
25.7301 42.941 0
71.9722 47.9376 0
26.5408 47.9575 0
69.0678 47.9186 0
32.1425 47.7695 0
71.0626 44.9648 0
29.6287 45.9729 0
29.8164 49.882 0
88.1353 34.2088 0
96.8909 38.737 0
91.2905 35.5358 0
92.2318 38.3873 0
96.0821 37.5778 0
88.5031 40.5741 0
3.10934 38.7374 0
11.8988 32.9913 0
10.0176 34.8294 0
3.91821 37.5783 0
8.31973 37.3115 0
11.6987 36.8475 0
11.4082 22.5117 0
11.0028 26.3528 0
9.3847 24.4662 0
11.8903 28.8159 0
4.14871 19.8624 0
5.35496 22.378 0
8.24432 22.7142 0
11.5344 18.3556 0
13.1511 20.2508 0
8.01328 17.5571 0
6.96842 20.2413 0
5.1916 17.1733 0
6.70312 24.8175 0
7.80682 26.595 0
4.20808 14.5641 0
9.75762 15.2954 0
87.9421 22.7789 0
90.4076 24.469 0
88.5554 26.6136 0
91.5481 22.7175 0
95.8515 19.8621 0
94.6451 22.3776 0
87.6896 29.1249 0
85.9871 20.6163 0
87.8377 18.4613 0
91.652 17.5642 0
94.6817 17.1758 0
92.824 20.2451 0
95.6652 14.5669 0
93.2969 24.817 0
92.1932 26.5944 0
89.6958 15.4005 0
65.8151 8.06553 0
62.3379 4.02705 0
68.2867 3.71741 0
54.9445 3.99517 0
79.5536 0 0
84.6652 0 0
75.654 3.8619 0
69.2224 11.6794 0
63.2825 11.9894 0
32.92 7.91953 0
31.1814 3.68023 0
36.9274 3.91859 0
23.8145 3.83128 0
20.4464 0 0
27.7767 -0.234397 0
44.3206 3.88314 0
34.7214 11.7448 0
28.9814 11.5107 0
81.6346 34.9135 0
85.4051 34.4088 0
85.0462 37.9738 0
86.2611 31.4779 0
85.0325 42.0349 0
77.2704 33.8509 0
80.0062 31.0389 0
16.0889 32.7374 0
14.1238 35.1301 0
13.9463 32.6887 0
14.1661 38.3388 0
13.5634 30.8939 0
17.6458 29.8797 0
18.7742 32.8349 0
16.5478 27.2126 0
14.1312 28.1731 0
15.6977 23.2917 0
15.8243 19.1403 0
19.4573 25.3031 0
81.5917 27.1425 0
82.9037 23.694 0
84.8262 28.5542 0
82.7982 19.3786 0
77.8128 25.4835 0
79.7824 11.6513 0
74.1859 11.6593 0
77.3394 7.79537 0
71.6552 15.5557 0
81.2514 3.88748 0
84.4121 12.0417 0
81.2512 15.9139 0
52.9192 14.0212 0
54.3851 9.83486 0
58.4 12.5678 0
49.4498 5.45642 0
61.8125 16.1656 0
52.4248 17.9216 0
48.4098 15.1994 0
44.4388 13.6582 0
39.3219 12.0963 0
43.7833 9.72552 0
35.3798 15.6689 0
43.949 17.5596 0
19.0303 11.5812 0
21.7503 7.8043 0
24.4723 11.5101 0
18.3722 3.9289 0
26.2712 15.3088 0
17.5182 15.6977 0
14.7913 11.9817 0
74.6258 33.8748 0
78.7466 37.2784 0
78.0929 40.8588 0
74.7462 40.1074 0
21.4873 31.1481 0
19.3862 36.5524 0
17.0728 39.3554 0
19.7469 40.1601 0
73.946 31.2038 0
73.566 35.8145 0
72.4513 38.7804 0
70.8651 36.8649 0
68.7187 34.426 0
66.7925 31.8797 0
70.0543 31.3545 0
62.7132 32.5124 0
64.0501 29.4363 0
72.0209 28.6603 0
67.6016 37.3955 0
32.7178 31.9499 0
35.2512 32.5452 0
33.5059 34.972 0
33.5172 37.8878 0
36.6414 38.5099 0
30.9824 37.2893 0
59.8619 33.1019 0
62.6045 35.545 0
64.3464 38.0104 0
61.4934 38.6029 0
57.8165 32.0683 0
57.7065 35.1033 0
57.1055 37.3515 0
55.0595 36.3187 0
46.6698 35.0994 0
48.6984 34.2563 0
48.8558 36.6301 0
50.2606 38.255 0
52.6708 37.1774 0
48.2311 39.0979 0
38.913 36.3188 0
38.4438 33.1832 0
41.3164 33.9319 0
37.6543 30.1582 0
43.6795 31.7604 0
44.1503 34.8978 0
39.5157 39.2612 0
44.3064 37.271 0
46.0694 39.2673 0
43.518 41.6495 0
47.474 40.8923 0
43.5486 39.065 0
41.7554 39.6528 0
90.8735 3.8438 0
87.4538 7.74194 0
86.3717 3.90463 0
88.9263 12.0017 0
89.7768 0 0
94.8884 0 0
95.9893 3.84921 0
96.5001 10.9532 0
92.7373 11.0904 0
95.7232 7.54545 0
91.0142 28.3187 0
90.3949 29.1588 0
4.09757 7.55647 0
6.95637 11.0986 0
3.37316 10.9499 0
10.4746 11.9105 0
8.98596 28.3197 0
9.60514 29.1602 0
3.83152 3.85989 0
13.2524 3.94503 0
11.9904 7.79428 0
8.94726 3.85465 0
35.1781 -0.325753 0
42.5888 -0.369225 0
58.9565 23.3306 0
55.8634 20.2819 0
60.0258 19.802 0
51.3567 21.4559 0
64.9051 19.2208 0
61.5447 26.4595 0
57.3828 26.9419 0
67.5115 22.5847 0
70.017 25.5618 0
65.6235 25.8321 0
73.9103 25.4188 0
69.2995 18.9607 0
78.1734 18.9946 0
75.8108 22.391 0
74.2646 18.9172 0
23.36 18.7959 0
21.6674 22.2438 0
20.0604 18.7419 0
22.7514 25.3675 0
27.8717 18.8188 0
29.6133 26.2129 0
25.8856 26.1001 0
28.6933 22.4104 0
23.673 29.1636 0
31.6005 18.9202 0
33.4423 26.0197 0
30.6334 29.7115 0
40.5978 27.3957 0
43.6952 25.2364 0
43.9445 28.6387 0
44.1332 21.547 0
47.4797 22.7914 0
46.7774 29.6041 0
37.4061 26.7603 0
36.2006 19.2735 0
40.1643 20.0107 0
36.3855 23.2541 0
26.6783 33.2925 0
24.488 35.2774 0
24.617 31.8879 0
22.6039 38.8265 0
28.8883 32.1365 0
28.761 35.5308 0
28.7698 38.4428 0
51.8498 32.8238 0
54.2375 31.9655 0
53.2729 34.9284 0
56.393 29.9637 0
49.6642 31.293 0
50.9182 25.1456 0
53.8047 26.8375 0
49.9277 28.1705 0
6.56345 36.8947 0
6.97998 38.8511 0
5.22297 38.4385 0
9.6163 38.9978 0
8.27724 40.5371 0
4.37498 39.566 0
4.8079 36.4804 0
5.77448 35.4496 0
7.56422 35.9029 0
10.8569 35.8406 0
10.0081 37.0795 0
9.16779 36.0684 0
11.3062 38.7617 0
8.41458 34.6581 0
11.1698 34.6779 0
12.0107 35.6845 0
11.7298 30.1891 0
10.2427 29.9838 0
11.0643 29.3955 0
12.4567 26.6097 0
10.4367 28.567 0
10.8968 30.7847 0
89.7574 29.9822 0
88.0594 30.3413 0
88.7261 29.5483 0
89.3537 28.7203 0
86.8914 27.0278 0
89.1043 30.7833 0
85.8322 32.9428 0
87.193 32.8495 0
86.7694 34.3132 0
87.3445 31.5145 0
88.2843 32.8745 0
88.1241 35.5302 0
86.7584 35.6337 0
84.336 32.7416 0
84.7686 31.2742 0
86.7754 39.2745 0
86.768 41.3061 0
85.0402 40.0032 0
88.8393 42.5561 0
87.1043 43.2875 0
83.2991 40.5608 0
83.3057 38.5301 0
86.5789 37.4164 0
88.3082 38.7127 0
79.4518 34.3832 0
78.6378 32.4442 0
80.8179 32.977 0
76.5901 31.1818 0
77.9598 29.7766 0
81.641 31.0543 0
82.4533 32.9907 0
81.6001 36.9986 0
80.1909 36.0955 0
14.144 36.7334 0
12.9322 37.5949 0
12.9109 35.9901 0
12.5401 39.5091 0
13.2242 34.8286 0
15.3626 35.4665 0
15.3839 37.0714 0
12.9239 32.8437 0
12.7384 31.9487 0
13.757 31.7911 0
11.7352 32.2683 0
12.5685 31.2236 0
14.5608 30.5628 0
14.7557 31.461 0
13.1368 33.6094 0
12.1111 33.757 0
16.8695 31.3092 0
18.2116 31.3568 0
17.4314 32.7864 0
19.0932 29.1538 0
19.6598 30.6312 0
17.6896 34.3195 0
16.3455 34.2691 0
15.826 31.4837 0
16.6021 30.0554 0
13.8478 29.534 0
12.7297 29.8498 0
13.0109 28.4915 0
13.5782 26.288 0
14.8468 29.2002 0
16.0538 28.7219 0
17.0983 28.5453 0
18.5456 27.8186 0
17.4575 24.6997 0
86.2573 28.8363 0
86.9703 30.2964 0
85.5424 30.0169 0
84.0484 29.8102 0
85.4578 26.7409 0
82.4321 29.1062 0
80.7964 29.0896 0
80.6555 24.8026 0
78.7514 27.8265 0
80.1554 38.1823 0
79.8293 39.9715 0
78.4197 39.0683 0
76.622 39.2946 0
76.2162 41.6728 0
76.9496 37.5037 0
15.6196 38.8482 0
15.8326 40.7834 0
14.3788 40.2738 0
17.5321 41.2364 0
16.2928 42.6658 0
12.7542 41.4469 0
16.8364 37.5776 0
19.5664 38.3559 0
18.41 39.7581 0
18.2301 37.9549 0
18.8695 41.6397 0
17.9937 36.177 0
20.9082 35.2132 0
20.9948 37.6891 0
20.6969 41.6034 0
21.1758 39.494 0
24.5772 37.7565 0
22.5167 36.349 0
19.8201 43.0839 0
22.1258 40.9371 0
24.1667 40.8828 0
23.6891 42.9947 0
79.6552 42.2857 0
79.3533 44.3941 0
77.7911 42.9672 0
80.7509 46.1797 0
78.8859 46.8636 0
75.9139 43.7825 0
81.3926 41.3967 0
90.3688 39.4831 0
92.8055 40.2721 0
90.9415 41.3649 0
94.5616 38.5594 0
95.1356 40.4482 0
91.2769 43.3506 0
90.1731 37.6192 0
93.2414 36.0041 0
93.7129 37.4336 0
91.762 36.9609 0
95.1923 36.4801 0
89.7028 36.1978 0
92.2395 35.0132 0
94.226 35.4492 0
89.53 33.5194 0
91.1062 34.178 0
89.7144 34.8699 0
93.1875 34.4915 0
92.0819 33.6124 0
93.8206 44.517 0
96.3107 43.0055 0
96.7533 45.368 0
90.9141 32.8186 0
89.6956 32.1227 0
97.1616 48.1544 0
91.7193 45.707 0
10.4883 32.9046 0
10.9561 33.9058 0
9.54803 33.8264 0
6.81256 34.4919 0
7.91824 33.6127 0
5.68504 42.8641 0
3.2437 44.5954 0
3.19885 42.1241 0
2.83486 47.3818 0
9.08491 32.8186 0
10.3058 32.1221 0
8.32178 43.0018 0
66.069 59.5973 0
65.2173 60.8942 0
64.4052 59.561 0
65.9586 61.8393 0
60.1605 51.9701 0
60.1002 51.4254 0
63.7826 58.534 0
67.1064 58.2522 0
67.9184 59.5851 0
68.6023 61.6516 0
68.9405 63.7554 0
67.2195 63.0343 0
70.389 64.7146 0
60.0549 50.8793 0
60.0323 50.5014 0
69.64 60.3067 0
77.0884 64.1187 0
77.3348 66.7394 0
74.884 66.2626 0
79.8275 67.0438 0
60.017 50.123 0
60.0106 49.8614 0
72.5451 65.3487 0
76.8146 61.6272 0
79.2667 62.1043 0
82.0921 63.7544 0
84.9666 65.8518 0
82.4149 66.6929 0
87.3758 64.8451 0
94.2386 63.5907 0
92.2762 65.3203 0
81.8198 61.2631 0
91.3837 58.7179 0
93.8064 60.3157 0
91.8169 61.9907 0
95.3907 58.2413 0
90.1052 66.7793 0
87.7625 67.9432 0
89.7497 63.5852 0
89.3655 57.5211 0
91.3558 55.8459 0
93.8271 54.5164 0
96.8372 53.3006 0
96.3838 55.828 0
97.1705 50.7133 0
85.2882 68.792 0
82.7245 69.3115 0
91.8088 53.3209 0
6.0956 53.8589 0
3.42112 55.7187 0
3.28062 52.7526 0
4.41417 58.132 0
5.76144 63.5912 0
4.04134 61.6205 0
2.94756 50.1655 0
8.84243 51.7499 0
8.98194 54.712 0
8.45778 58.349 0
8.21978 61.7314 0
5.99845 60.2065 0
10.287 63.3259 0
2.59317 59.4423 0
1.44165 57.0936 0
11.2044 56.2377 0
17.0223 63.5402 0
16.9398 66.6012 0
14.7933 65.73 0
19.5272 66.9519 0
0.606988 54.6148 0
0.103571 52.048 0
12.3842 64.7233 0
17.0289 61.0528 0
19.1765 61.9239 0
29.309 63.4026 0
31.5677 63.7351 0
30.1839 64.8063 0
32.8285 62.54 0
34.9636 62.7496 0
33.7548 63.9994 0
28.7355 65.7656 0
27.1147 63.183 0
28.4985 62.1116 0
34.0741 59.3038 0
35.6388 59.6183 0
34.8818 60.5443 0
36.2615 58.5913 0
32.4421 65.1396 0
31.0355 66.1617 0
34.1404 61.4894 0
32.7215 58.994 0
33.4785 58.068 0
29.5455 67.0579 0
37.0883 57.8328 0
37.4445 57.0829 0
37.737 56.3061 0
35.7431 55.6442 0
27.2647 68.1186 0
83.5195 34.6624 0
85.2268 36.1903 0
83.3387 36.4466 0
91.8616 50.6815 0
91.8525 48.1268 0
94.2716 49.4334 0
89.3085 46.9568 0
89.3895 52.0123 0
15.1086 33.9361 0
14.0349 33.9092 0
15.0176 32.7135 0
8.32297 48.6979 0
5.8428 48.1138 0
8.21085 45.9195 0
10.8031 43.591 0
11.2108 49.5541 0
15.3396 27.6926 0
14.7884 25.8047 0
83.2091 27.8486 0
83.8382 26.0323 0
67.7524 56.816 0
65.9026 56.8274 0
64.2258 56.6761 0
64.8715 55.2394 0
74.0474 61.4398 0
72.4803 63.0073 0
71.8903 60.8052 0
71.2068 58.7394 0
76.2255 59.426 0
86.9839 58.8121 0
87.0192 61.6531 0
84.6088 60.0722 0
81.7828 58.4232 0
86.9548 55.9419 0
15.231 59.7329 0
12.7775 61.2717 0
13.1328 58.3357 0
13.6589 54.7015 0
17.3858 58.118 0
31.4351 59.9047 0
32.0049 61.2805 0
30.123 60.9556 0
27.9282 60.7364 0
30.8393 58.6696 0
35.2636 56.6918 0
35.658 57.6192 0
34.4366 57.4505 0
33.0839 57.1412 0
34.5215 55.476 0
78.0075 35.5652 0
76.2115 35.7891 0
84.8347 49.1892 0
87.179 47.9965 0
87.0978 50.569 0
87.0449 45.5807 0
87.046 53.2055 0
82.5187 50.2059 0
82.5987 47.6352 0
19.081 34.6934 0
20.6007 33.3531 0
69.0372 56.7342 0
67.8333 55.3096 0
67.178 54.3819 0
68.463 54.3006 0
73.9016 55.7222 0
74.6456 57.3901 0
72.7135 57.5699 0
77.4141 57.5781 0
70.4625 57.0707 0
72.6961 54.3512 0
74.6287 54.1722 0
82.4877 52.8955 0
84.6634 54.4962 0
82.3979 55.6305 0
79.6076 56.8205 0
80.2527 51.3386 0
18.5818 53.1287 0
17.7705 55.7808 0
16.3978 54.1456 0
19.5688 57.0996 0
14.4691 52.0496 0
19.2496 51.0278 0
20.6221 52.6613 0
24.5054 57.8565 0
24.4355 59.8842 0
22.8885 59.0838 0
26.1781 60.2743 0
24.5615 61.502 0
21.0015 60.2745 0
21.0707 58.2469 0
24.5817 56.1121 0
26.1289 56.9118 0
32.0006 56.4803 0
32.9588 55.8626 0
33.4383 54.8152 0
31.9194 53.8015 0
84.9743 44.3258 0
83.0669 45.1652 0
83.1252 42.8738 0
71.1141 54.5017 0
70.5437 55.5649 0
69.6886 54.1648 0
69.0333 53.2373 0
71.841 52.9516 0
78.5817 52.8537 0
78.0279 54.7859 0
76.3875 53.6101 0
75.1819 52.2399 0
78.6118 50.164 0
23.2459 55.1322 0
21.4564 55.9097 0
21.744 53.9859 0
22.4122 51.8842 0
24.8698 54.1877 0
78.4659 48.4839 0
77.0692 46.6964 0
75.8912 45.7728 0
75.4714 47.3932 0
22.411 44.9914 0
21.3039 46.9948 0
20.5398 45.0499 0
22.2326 48.7484 0
20.3614 48.8058 0
18.7122 45.0849 0
24.4529 44.9393 0
72.3009 51.6089 0
70.7187 51.7587 0
69.6188 50.6542 0
71.5754 49.1766 0
75.4452 49.0138 0
76.7952 49.9973 0
75.5911 50.6948 0
73.8322 51.2559 0
74.2674 48.0898 0
25.435 50.8851 0
25.0602 52.4387 0
23.9086 51.6549 0
26.3959 53.4178 0
22.7869 50.3313 0
25.4122 49.0298 0
26.5637 49.8128 0
27.6748 54.331 0
27.8655 52.5812 0
29.4804 51.688 0
30.5538 52.9478 0
23.7292 48.5188 0
24.858 47.4471 0
72.7098 50.0634 0
73.1066 48.8244 0
27.5932 57.6499 0
29.3435 58.1115 0
27.8028 59.1183 0
30.63 57.2007 0
27.6699 55.9051 0
30.51 54.3479 0
30.5047 55.9227 0
29.1392 55.0685 0
23.1812 63.0441 0
21.3564 64.6942 0
20.9937 62.7614 0
21.7137 67.2348 0
24.9234 63.4347 0
26.3967 66.6793 0
24.2064 66.9309 0
25.7344 64.7254 0
24.8689 68.8854 0
22.3961 69.3461 0
14.9375 44.6827 0
12.9874 46.8319 0
12.6414 44.3566 0
13.5056 49.8788 0
16.6372 45.1374 0
18.3204 49.2729 0
16.246 49.3252 0
17.3579 47.1051 0
58.4013 8.08598 0
60.0017 10.0076 0
79.5233 20.1563 0
77.0258 20.341 0
69.2336 13.8393 0
67.5801 15.6959 0
37.1978 13.201 0
34.8524 12.3556 0
72.2287 44.3513 0
70.3912 42.6566 0
36.722 21.9289 0
37.3199 24.3497 0
46.0456 8.06407 0
45.1602 10.4025 0
1.82672 10.3951 0
4.03363 9.21404 0
16.136 3.97697 0
14.3567 2.24539 0
37.8151 13.27 0
37.7782 10.7725 0
72.2941 1.06454 0
69.8283 1.44188 0
65.3536 24.9241 0
65.8104 22.4748 0
17.0809 0.16223 0
19.0968 1.61568 0
30.7361 0.269274 0
29.0082 2.08128 0
20.188 28.836 0
18.0612 27.5353 0
87.2174 22.8004 0
89.6985 23.1791 0
80.4395 11.8099 0
79.0246 9.75595 0
53.4932 14.2093 0
52.9669 16.6528 0
79.8584 20.5633 0
77.3534 20.5035 0
95.4344 2.46222 0
96.8475 4.52024 0
40.4159 38.2635 0
38.2089 39.4336 0
34.3886 26.9398 0
35.0486 29.3421 0
88.3441 30.3517 0
87.7331 27.9625 0
42.4531 31.7932 0
44.3312 30.1482 0
26.0863 12.7793 0
26.9192 10.4267 0
40.5631 37.3393 0
42.7917 36.2131 0
65.9069 38.5114 0
67.4371 40.4859 0
21.6777 36.3931 0
24.1693 36.5924 0
87.2995 17.9331 0
88.9309 16.061 0
31.3134 9.84803 0
28.8833 10.441 0
60.2746 8.14934 0
61.5729 10.2874 0
62.4139 9.22919 0
60.9646 7.19022 0
18.7634 6.93943 0
18.1848 9.3481 0
63.0402 43.6631 0
62.3491 46.062 0
84.27 25.727 0
83.5771 28.1026 0
47.354 44.1101 0
49.2168 42.4449 0
30.7328 4.68147 0
33.1072 5.44664 0
37.1832 2.16577 0
36.881 -0.31393 0
39.5089 0.402765 0
37.8426 2.26803 0
66.841 34.3727 0
64.5856 35.4357 0
25.2571 21.2282 0
23.6856 23.166 0
89.1987 30.1029 0
86.9384 29.0156 0
74.2744 9.97772 0
76.655 9.23987 0
80.3435 12.7336 0
81.7473 14.7939 0
81.0874 16.8589 0
80.1713 19.1588 0
78.4039 10.6813 0
79.7495 12.7804 0
67.6521 27.3452 0
65.1587 27.2314 0
62.417 24.7515 0
59.9909 24.1665 0
61.7086 24.5751 0
62.4782 26.9508 0
69.4982 32.729 0
67.0135 32.4784 0
82.5763 12.4396 0
85.0236 13.0066 0
51.4567 18.0114 0
53.5339 19.3955 0
66.9734 15.8694 0
65.1521 14.1535 0
20.0402 22.3004 0
20.492 19.8619 0
53.0597 23.9062 0
52.9517 21.4092 0
62.0671 33.7964 0
64.0315 35.3393 0
67.9282 28.1069 0
69.8922 26.5764 0
27.3739 19.2623 0
25.444 17.693 0
43.3806 3.82817 0
43.9103 1.3858 0
90.2338 10.2566 0
88.4344 8.52469 0
67.9509 36.641 0
68.6303 34.2452 0
9.51616 8.1775 0
11.9752 7.68894 0
49.9622 6.42026 0
52.337 7.20171 0
81.1173 29.0701 0
83.0615 27.5137 0
43.1487 19.8685 0
45.5387 20.5772 0
72.9986 25.4234 0
75.2224 24.2968 0
59.2996 18.4246 0
57.0564 19.5117 0
94.8405 14.8658 0
92.4185 14.2193 0
8.74497 19.4211 0
11.2081 18.9414 0
17.4687 22.6602 0
15.8032 20.8169 0
16.9565 36.3333 0
18.1706 34.1602 0
59.7774 41.8258 0
57.5865 43.0227 0
84.6045 20.3335 0
84.6493 22.8071 0
9.90281 20.0292 0
7.8017 21.3956 0
16.8637 29.9236 0
15.2386 31.8061 0
46.6505 3.29678 0
48.1052 5.32991 0
57.7802 40.24 0
55.7437 41.6834 0
67.507 36.9331 0
69.5808 38.3284 0
68.357 7.44543 0
70.2468 5.8239 0
24.8085 8.48704 0
27.2356 9.05513 0
16.1257 15.4601 0
15.2228 17.7732 0
96.9916 4.6386 0
94.5197 5.02345 0
25.2443 33.7383 0
26.0636 31.3859 0
16.8176 15.6562 0
17.9469 17.8599 0
86.8954 15.6417 0
88.6067 13.8397 0
26.9914 36.3004 0
28.264 38.4383 0
45.0613 36.9609 0
42.767 37.9454 0
25.999 33.589 0
28.4759 33.2579 0
70.5359 15.883 0
72.5056 17.4281 0
49.8258 47.5636 0
50.9703 45.3418 0
82.7593 18.2995 0
81.0787 16.4533 0
12.4048 5.58803 0
9.97844 4.98648 0
18.2971 2.65151 0
20.5317 1.51691 0
98.911 4.26042 0
97.7179 6.44292 0
80.287 37.314 0
80.874 34.9045 0
48.5356 3.49164 0
48.4421 0.994849 0
46.083 5.15823 0
43.9279 6.42711 0
61.1015 37.9465 0
59.0164 39.3165 0
81.2015 11.0703 0
81.7879 8.67248 0
79.3056 30.3636 0
76.9799 31.2621 0
52.3965 8.01334 0
50.9321 5.98737 0
25.9135 29.8823 0
23.7804 28.5951 0
94.5727 17.4271 0
96.8552 16.4158 0
29.5845 32.0128 0
31.8904 32.9608 0
65.8322 4.30813 0
65.8053 6.80671 0
53.2598 1.79604 0
51.4522 3.52483 0
14.5706 9.0416 0
15.0998 6.6224 0
7.21418 18.8127 0
5.01578 17.6345 0
61.2095 40.2296 0
59.893 42.3502 0
74.2039 7.24417 0
73.7971 4.78217 0
23.5948 30.2046 0
23.8354 27.731 0
78.8011 6.87465 0
76.6422 5.59139 0
79.0365 11.2549 0
81.1551 12.5962 0
7.63176 2.52894 0
5.13106 2.60067 0
76.4411 15.9078 0
74.4576 14.3765 0
47.9021 9.2295 0
49.6885 10.9765 0
80.0447 2.02958 0
82.5035 1.58158 0
29.1877 29.8461 0
27.2347 28.3017 0
70.9634 16.2894 0
71.5174 13.8681 0
4.5092 13.5477 0
6.46746 11.9909 0
40.5504 0.0987136 0
39.5157 2.37372 0
60.4058 12.2727 0
59.8335 14.7031 0
41.2037 3.43819 0
39.1682 4.89267 0
33.6639 29.3507 0
36.152 29.5327 0
33.2051 20.8712 0
32.9855 18.3891 0
79.5945 15.5004 0
80.1484 17.9189 0
72.6501 34.6055 0
70.5148 33.3066 0
56.7288 8.16023 0
54.3221 7.48664 0
44.5375 8.78669 0
43.2095 10.9054 0
82.5663 16.471 0
83.6818 14.2609 0
11.5873 0.311713 0
10.6883 2.63113 0
78.0087 16.0741 0
80.042 17.5357 0
59.4332 2.89974 0
60.7543 5.02293 0
72.305 1.19244 0
72.2019 3.68698 0
66.8211 2.59092 0
68.1183 0.445638 0
13.3259 3.75621 0
15.1483 2.05105 0
71.9557 26.447 0
74.4115 26.9101 0
16.847 17.437 0
15.4363 19.4897 0
72.2049 38.2043 0
72.127 35.7162 0
43.4863 20.6543 0
41.226 21.7137 0
57.2533 19.1255 0
57.5183 21.6102 0
64.672 28.6743 0
67.1526 28.409 0
24.67 31.7846 0
27.0752 31.106 0
50.1166 28.6553 0
49.1091 30.9405 0
59.803 37.0525 0
58.538 34.8983 0
22.4632 28.9666 0
24.8775 28.3223 0
39.7047 35.7703 0
37.256 36.2569 0
5.89051 10.041 0
3.86042 11.5035 0
54.7978 20.6552 0
56.8278 22.1089 0
68.5004 19.5394 0
68.8098 17.0691 0
42.0173 42.552 0
42.7806 44.9305 0
19.0988 24.4668 0
16.9493 25.7409 0
69.2689 4.06133 0
66.9248 3.18427 0
18.7347 12.7743 0
19.4371 10.396 0
97.8449 0.547452 0
97.0359 2.89465 0
21.3123 0.590081 0
21.7834 2.99644 0
13.4353 5.95665 0
14.5749 8.15528 0
94.833 5.79211 0
95.3584 3.36626 0
58.6685 11.4803 0
59.4668 13.8497 0
26.7402 39.8069 0
25.2393 41.8023 0
62.4184 18.6206 0
64.5241 17.2899 0
9.51402 7.72599 0
11.9305 7.06066 0
44.2862 17.9504 0
41.9023 18.6888 0
89.031 10.7849 0
91.4977 10.3511 0
65.4889 41.4669 0
63.0644 40.8607 0
51.2696 34.2543 0
53.6778 33.6054 0
12.7426 8.55018 0
14.7366 10.042 0
75.0417 18.3381 0
72.5462 18.1391 0
69.1533 26.2989 0
69.6075 28.7492 0
19.5802 11.7487 0
21.8442 12.7977 0
36.8994 39.8924 0
34.4942 39.2237 0
29.3294 28.1553 0
30.9444 30.0487 0
12.3818 19.5181 0
13.5818 17.3374 0
42.0392 42.9965 0
39.6463 43.7154 0
34.217 5.02845 0
33.7294 7.48117 0
94.9664 17.0237 0
93.8825 14.7784 0
53.7722 26.1287 0
54.3514 28.5589 0
68.2828 36.1562 0
67.5108 38.5244 0
71.2358 36.8737 0
69.2966 38.4385 0
30.4797 15.4363 0
32.6355 16.68 0
62.7495 7.92751 0
65.2317 8.21336 0
52.392 17.1753 0
51.1241 19.3275 0
68.8563 3.52569 0
68.911 6.02491 0
24.0161 7.67738 0
26.055 9.08684 0
31.7846 14.5405 0
33.5012 16.3414 0
72.4476 5.92255 0
74.7193 4.93838 0
47.2252 15.0912 0
45.6852 17.0593 0
36.6692 41.6724 0
38.7014 40.2185 0
22.8222 10.3715 0
24.4627 8.47925 0
22.9764 37.5994 0
25.3591 36.8358 0
79.543 20.3965 0
81.7972 21.4887 0
80.4363 16.038 0
78.1581 14.988 0
68.1685 34.0629 0
68.417 36.543 0
32.7926 26.8187 0
35.0203 27.9351 0
49.0962 3.44327 0
47.4564 5.33095 0
34.1894 40.4652 0
32.8255 42.5573 0
47.6812 12.4259 0
48.202 14.8709 0
50.2582 18.6428 0
51.6296 16.5549 0
33.8395 30.4862 0
34.5254 28.0875 0
2.34106 13.7895 0
4.82886 14.0599 0
40.0907 40.0719 0
40.833 42.4559 0
10.1196 16.1063 0
9.50527 18.5129 0
32.9431 15.9705 0
31.9016 18.2418 0
43.2493 0.801718 0
45.6691 0.151876 0
37.1324 36.6774 0
39.3731 35.5743 0
81.2529 10.0387 0
81.7506 7.62194 0
30.4401 3.53384 0
28.2952 4.82873 0
49.4057 1.2021 0
47.6076 2.941 0
60.7628 31.0943 0
62.537 32.8522 0
26.1843 37.0961 0
24.512 35.2542 0
33.9183 3.08065 0
36.4077 3.30568 0
46.8705 28.9096 0
45.8485 31.1887 0
19.4913 36.0228 0
21.2118 37.8175 0
56.1136 28.1068 0
58.6069 28.1433 0
92.8397 9.4395 0
95.2594 10.0895 0
22.099 28.8971 0
24.5694 29.2593 0
48.2804 17.547 0
50.7275 18.0272 0
28.8211 21.5485 0
27.7668 19.2988 0
88.6637 17.9661 0
91.0215 18.8243 0
85.3189 15.4541 0
82.8131 15.5823 0
59.5427 45.0379 0
60.8275 47.1821 0
89.5337 2.51677 0
89.7465 4.98866 0
95.4758 9.77393 0
93.3798 8.40743 0
64.4554 41.2854 0
62.9718 43.2916 0
56.0118 25.8985 0
58.3298 24.982 0
71.0395 1.78632 0
71.0324 4.2849 0
51.4179 11.6492 0
50.5038 9.32224 0
58.3243 27.675 0
57.6503 25.2697 0
9.31633 7.82968 0
7.77017 5.88418 0
51.6887 13.2584 0
49.2109 12.9627 0
49.714 24.1933 0
50.1424 26.6549 0
72.5861 28.2473 0
70.1849 27.5558 0
81.2827 36.1845 0
78.9711 37.1239 0
80.7575 18.1903 0
81.4095 20.5837 0
63.048 6.16652 0
60.7639 5.14865 0
49.6094 11.6255 0
47.1193 11.4561 0
44.4807 28.3317 0
42.0296 28.7926 0
88.6458 7.78797 0
88.114 10.2057 0
72.304 6.27788 0
71.0093 8.39636 0
87.6985 13.8644 0
88.6433 16.1628 0
36.5686 40.7082 0
38.2873 42.5176 0
62.5614 3.46281 0
63.7454 1.26207 0
39.9568 14.9437 0
40.1003 12.4487 0
19.3821 6.39944 0
21.5271 5.09628 0
36.3636 45.6754 0
38.7267 46.4903 0
34.5879 31.1733 0
32.3563 32.2957 0
58.9047 19.3879 0
60.6938 21.1324 0
78.2442 16.1033 0
75.8155 15.4741 0
15.8815 28.8034 0
17.2398 26.7253 0
80.555 1.65689 0
78.1474 2.30179 0
37.649 41.5108 0
35.1673 41.8017 0
84.0655 21.3021 0
84.5537 23.7301 0
86.5723 7.2987 0
86.2289 4.84635 0
44.7628 5.85512 0
46.5621 7.58957 0
84.1538 19.6584 0
84.0173 22.1283 0
71.9458 17.439 0
74.4306 17.166 0
77.101 24.872 0
76.4917 22.4632 0
97.1632 15.2505 0
94.6978 14.8089 0
38.3543 23.4495 0
40.4363 22.0698 0
40.9104 1.58257 0
39.8503 3.84655 0
60.1639 22.3442 0
57.8335 21.4499 0
23.121 0.907159 0
24.5944 2.88251 0
71.8938 32.0571 0
69.4303 32.4556 0
44.2095 38.0307 0
42.2643 39.5979 0
34.1363 4.23181 0
35.594 6.25722 0
19.9606 15.4937 0
21.715 17.2523 0
1.47143 8.34186 0
3.16203 10.1735 0
85.5977 24.8847 0
87.7249 23.5852 0
82.6817 14.7965 0
80.2487 14.1764 0
60.771 3.09423 0
60.1672 5.51876 0
17.3055 24.1675 0
15.8079 22.1882 0
51.8043 38.714 0
50.5932 36.5293 0
59.7297 46.6751 0
62.0311 45.7008 0
81.6852 19.1101 0
81.9779 21.5693 0
60.0512 14.943 0
57.6442 14.2797 0
21.6158 24.3522 0
21.5093 26.831 0
50.5581 36.4957 0
51.5006 34.1827 0
68.8147 23.9824 0
66.7521 22.5707 0
85.3863 31.8925 0
83.0435 32.7378 0
10.0142 12.678 0
7.94933 14.0935 0
90.6838 3.17694 0
88.5833 1.82093 0
85.5626 8.4255 0
87.7242 7.18072 0
32.9701 40.2826 0
33.1318 42.7704 0
16.5718 0.840503 0
18.9325 1.64798 0
80.4 27.4102 0
82.3451 25.8541 0
21.4209 10.9848 0
19.735 9.16805 0
93.5364 17.0647 0
91.2371 16.0659 0
19.4193 35.5146 0
19.2813 33.0374 0
17.9965 35.1463 0
20.2501 34.0617 0
76.6166 12.0107 0
75.0455 13.9266 0
20.8983 4.69393 0
18.548 3.86121 0
26.3425 33.6557 0
24.1891 32.4034 0
55.3269 6.88514 0
57.4766 5.61119 0
69.3514 3.71819 0
70.4247 5.9804 0
22.4254 16.9544 0
21.7287 14.5801 0
89.5041 6.13427 0
86.9991 6.11352 0
60.161 4.08032 0
57.672 3.82585 0
86.6843 11.3003 0
84.274 10.6002 0
80.9109 22.4403 0
82.0911 20.2609 0
69.7627 32.3187 0
68.9621 29.957 0
42.4538 48.7604 0
40.5303 47.164 0
30.6685 29.2381 0
31.5916 31.5492 0
19.9478 37.3435 0
20.2617 34.8794 0
64.221 5.47532 0
62.4844 7.26768 0
91.4404 1.96865 0
90.9868 4.40718 0
85.7634 10.0909 0
87.2442 12.0956 0
16.1086 1.27066 0
14.0663 2.70871 0
71.933 36.4526 0
74.3553 35.8492 0
14.9002 16.1898 0
17.3323 16.7857 0
85.8316 30.7298 0
87.5217 32.5479 0
8.11912 21.9894 0
10.6215 21.841 0
49.9337 35.3993 0
52.421 35.2126 0
9.11122 20.4756 0
10.8324 18.6623 0
62.5182 31.7665 0
60.2537 32.8091 0
37.5416 6.63595 0
39.0251 4.62236 0
9.75387 9.17378 0
11.9346 7.94376 0
60.134 25.7942 0
57.6418 25.8753 0
32.8606 17.0316 0
33.8077 19.3337 0
92.6344 11.4438 0
92.9614 13.9059 0
50.0439 4.21161 0
52.1275 5.59481 0
21.7769 11.7554 0
23.2464 13.7483 0
16.439 4.88979 0
18.7578 3.94324 0
38.9594 33.5792 0
41.0931 32.2823 0
2.03204 4.97574 0
2.94685 2.65934 0
17.435 17.0236 0
16.4085 19.2864 0
81.4493 37.3835 0
82.4644 35.1218 0
72.8931 12.4279 0
74.7295 10.7603 0
66.3076 41.2467 0
63.9179 41.9722 0
63.727 26.2605 0
65.7107 24.7542 0
49.8631 5.86193 0
48.325 7.83262 0
60.1731 40.5188 0
62.3949 41.6617 0
23.4009 10.788 0
24.5074 13.0005 0
60.0741 31.0328 0
61.0202 33.3439 0
85.0424 22.3043 0
87.5501 22.2501 0
74.5578 19.6638 0
72.1306 19.0486 0
56.0439 12.1807 0
58.4833 12.7132 0
61.6865 4.05118 0
60.646 1.77824 0
60.716 47.2818 0
58.2178 47.3808 0
50.6455 16.5985 0
50.9611 19.0785 0
26.1644 33.0202 0
27.1556 30.7333 0
43.7048 22.3868 0
41.6551 20.9679 0
70.2265 18.3864 0
72.6994 18.7656 0
72.5639 1.41703 0
72.7262 3.91047 0
33.4318 16.8798 0
35.0671 18.7563 0
55.2464 3.30482 0
57.6902 3.84315 0
62.7176 26.7698 0
60.2235 26.7894 0
59.5547 35.2798 0
59.6985 32.7877 0
41.7487 31.1214 0
39.3699 31.876 0
65.6919 33.6228 0
63.6704 32.1554 0
41.2864 35.9391 0
39.9832 38.0704 0
73.2103 29.5514 0
72.78 32.0005 0
50.7627 39.9342 0
51.8555 42.1812 0
59.814 9.84526 0
58.3197 7.83991 0
82.5486 19.8652 0
84.8551 18.9028 0
66.2759 0.533178 0
68.7754 0.312756 0
72.7559 32.4438 0
74.6295 30.8051 0
66.5071 33.3166 0
65.2335 35.4576 0
67.8018 46.0126 0
68.5209 43.6264 0
63.7086 22.8052 0
64.8059 20.5688 0
80.4251 11.1934 0
82.0348 13.102 0
31.0156 20.2638 0
30.0653 17.9661 0
25.3282 20.5202 0
26.9022 22.4436 0
53.9809 28.4702 0
56.4609 28.2154 0
85.7019 28.1441 0
85.1806 25.7283 0
37.8928 1.60776 0
40.3771 1.92552 0
42.1118 29.3158 0
43.0957 27.0197 0
19.9763 35.1654 0
22.4622 35.4172 0
84.4672 11.4622 0
86.976 11.4169 0
30.5019 1.1129 0
32.9689 0.680193 0
61.9861 42.2294 0
59.8216 40.981 0
40.0348 13.2402 0
38.0444 14.7528 0
71.8907 28.9549 0
70.0459 27.2714 0
60.3489 30.0612 0
59.5877 27.6828 0
6.58473 10.6309 0
5.71519 12.9633 0
33.622 6.65223 0
32.0002 4.75908 0
57.2823 24.5314 0
59.7138 23.9823 0
61.733 27.8258 0
59.251 28.0659 0
12.9817 2.02662 0
15.1368 3.27455 0
72.4135 4.84118 0
69.9306 4.569 0
30.5164 6.07776 0
28.1248 6.81406 0
80.7953 3.71202 0
78.2897 3.79164 0
54.3796 35.7444 0
52.3716 37.226 0
30.6071 14.1199 0
33.0279 14.7158 0
80.5764 9.12619 0
82.8689 8.13609 0
12.0414 31.3858 0
13.0188 29.13 0
46.3771 5.1404 0
48.8277 5.64117 0
2.72117 5.30761 0
5.22361 5.20865 0
10.2052 9.52146 0
11.2101 11.7869 0
4.3319 17.8162 0
6.58118 16.713 0
29.3928 8.32788 0
26.8963 8.31044 0
43.686 1.82058 0
45.9969 2.78202 0
77.3449 2.75413 0
75.5717 4.46266 0
55.2057 26.5552 0
57.4514 27.6434 0
24.8264 19.1888 0
27.0136 17.9695 0
12.8238 30.721 0
14.0671 28.5833 0
13.7579 17.7692 0
15.6228 19.4153 0
31.5584 35.8451 0
33.6594 37.1872 0
85.1068 18.8476 0
85.4398 16.3971 0
54.9579 42.1659 0
56.1313 39.9614 0
56.8581 42.8206 0
54.371 42.5931 0
69.348 40.8913 0
68.4299 43.2071 0
81.6167 5.18755 0
81.1817 7.61138 0
67.2902 28.5617 0
69.3803 27.2068 0
23.3996 28.0849 0
20.9067 28.2566 0
76.5492 32.9079 0
74.6547 31.2811 0
40.3917 1.62811 0
41.939 -0.336324 0
21.4851 3.43856 0
19.2747 2.31087 0
32.7356 27.8352 0
34.5389 29.5525 0
39.7511 2.07679 0
37.9675 3.8307 0
68.5833 6.10606 0
66.5176 7.49929 0
7.1804 2.10324 0
8.72567 0.142163 0
59.0689 33.2199 0
57.1139 31.6665 0
22.6714 35.2096 0
24.1997 37.1703 0
76.6838 24.7725 0
76.1333 22.3495 0
8.86853 16.66 0
9.716 18.9888 0
27.0415 16.5279 0
28.4648 14.473 0
31.9558 36.772 0
32.7875 34.4197 0
22.222 34.7268 0
19.9855 33.6287 0
73.3119 36.8891 0
71.9836 34.7766 0
15.0297 2.07741 0
16.9725 0.512534 0
52.2271 11.964 0
52.0954 9.46692 0
33.8308 8.5864 0
32.6894 6.37035 0
24.9782 41.5758 0
27.3712 40.8422 0
57.5708 12.3398 0
59.7918 11.2037 0
84.1727 34.9628 0
82.3627 33.2442 0
40.3995 46.9362 0
38.8898 44.9456 0
18.0791 12.0868 0
20.5424 12.5433 0
92.7182 8.1463 0
94.4009 6.31337 0
81.3424 32.8149 0
80.6256 30.4357 0
38.841 14.6583 0
38.7067 17.1532 0
28.5964 11.432 0
29.9838 13.491 0
51.9095 39.3247 0
54.3967 39.5338 0
86.5316 27.9213 0
85.8706 25.5383 0
22.1641 2.29877 0
23.5691 4.31209 0
49.3542 2.99357 0
47.2321 1.66689 0
18.8716 19.5761 0
21.3578 19.883 0
2.08727 9.0049 0
4.27268 7.78542 0
20.2608 3.56183 0
18.8556 5.61666 0
62.9371 44.2111 0
65.1585 45.3582 0
34.507 21.0185 0
36.5915 19.6395 0
94.5972 1.0307 0
93.9631 3.42997 0
49.7448 42.1973 0
49.3592 39.7284 0
58.6717 10.6191 0
56.3227 9.76755 0
36.6184 10.546 0
34.3364 11.5688 0
56.8224 43.6568 0
56.7498 46.1549 0
2.42314 12.5827 0
1.76023 10.1834 0
82.4269 4.93646 0
83.3204 2.63348 0
37.675 47.0978 0
35.4186 46.0228 0
65.9641 39.3297 0
68.2935 40.237 0
24.6728 33.8879 0
27.1475 34.2198 0
68.4526 39.24 0
70.8526 38.5521 0
13.8428 30.4523 0
12.2172 28.5825 0
58.8592 44.2235 0
61.2935 44.7883 0
24.3324 5.54778 0
24.2039 8.02745 0
81.1103 20.7774 0
78.7252 21.5294 0
29.8839 39.531 0
29.5176 41.996 0
23.7267 16.9147 0
21.4646 15.8625 0
2.72369 8.20599 0
4.9511 7.06409 0
48.0293 30.6584 0
49.9852 29.1086 0
87.0455 23.0278 0
84.6562 23.7695 0
34.6735 10.7592 0
32.3414 11.6642 0
47.5613 25.8368 0
46.1066 23.8087 0
67.4096 24.1228 0
65.4203 22.61 0
58.203 29.9593 0
56.8619 32.0624 0
32.3396 34.7038 0
34.6288 35.693 0
57.4043 36.1595 0
56.0443 34.0642 0
26.6787 3.26535 0
28.7785 1.89912 0
11.192 26.5181 0
12.7255 24.5496 0
63.4974 32.9087 0
61.9036 34.8252 0
28.503 11.2688 0
26.0559 11.8041 0
44.5062 45.5947 0
42.0081 45.6612 0
30.8575 14.3186 0
31.9876 16.5338 0
13.203 1.81952 0
15.3315 0.509257 0
76.1141 14.8896 0
73.8543 15.9388 0
12.669 6.50126 0
13.3185 8.88897 0
35.4798 4.78201 0
36.3482 7.12283 0
53.9913 17.5072 0
51.5367 17.9468 0
31.3222 8.35133 0
29.0183 7.4097 0
24.2961 6.55076 0
21.7999 6.78893 0
48.6114 3.44735 0
51.0494 4.01325 0
32.1756 13.6376 0
32.1068 11.1446 0
1.57342 3.45028 0
4.05443 3.77281 0
62.8101 44.1018 0
60.4918 43.1683 0
42.6485 24.2814 0
40.1605 24.1215 0
48.348 30.5929 0
50.5228 31.8141 0
58.8688 35.1363 0
56.3837 35.352 0
50.0162 46.411 0
52.0702 44.9883 0
26.9542 5.59224 0
26.3309 8.01333 0
43.5212 35.8768 0
42.1049 33.8228 0
52.8728 27.7883 0
50.9797 29.4131 0
60.9444 39.7918 0
62.0819 42.016 0
46.9382 23.4917 0
45.674 21.339 0
19.2528 2.93194 0
18.5399 0.574518 0
48.2304 41.7324 0
49.1921 39.4262 0
47.8206 39.3225 0
45.3713 38.8444 0
73.2038 11.4204 0
72.6776 8.98215 0
52.5221 17.6704 0
50.7816 15.8791 0
25.017 41.6267 0
27.503 41.3379 0
51.9669 23.9292 0
50.5563 25.9893 0
25.8669 30.1701 0
28.2915 30.7569 0
5.34853 7.98595 0
2.8654 7.67515 0
20.8985 35.0814 0
18.7758 36.4036 0
31.9121 19.0367 0
34.185 20.0567 0
30.1227 19.1276 0
27.7733 18.2923 0
78.7147 17.4103 0
79.4504 19.7822 0
41.9256 31.9777 0
42.4718 29.5408 0
44.7958 12.3826 0
45.2533 9.9241 0
44.2056 19.9209 0
46.0508 18.2373 0
36.1175 2.3033 0
35.7777 4.77835 0
94.4869 4.84825 0
95.3019 7.20103 0
41.9222 21.6327 0
40.3744 23.5943 0
57.7683 26.0024 0
55.7312 24.5592 0
62.6805 26.8004 0
65.0862 27.4683 0
8.5468 15.5916 0
8.47028 18.0715 0
70.803 30.785 0
68.361 30.2593 0
45.8868 35.5171 0
46.1331 33.0315 0
87.0809 2.73466 0
88.7741 4.56714 0
22.5263 38.3252 0
22.8897 40.7827 0
66.236 42.98 0
64.2027 41.5263 0
77.332 11.8786 0
77.8675 14.3023 0
50.845 46.8314 0
49.1604 48.6779 0
14.9011 13.3242 0
15.406 10.8992 0
75.5959 18.8322 0
75.3843 21.3041 0
59.0467 45.4185 0
61.0997 46.8451 0
83.742 9.40062 0
86.1945 8.89148 0
6.96141 1.79626 0
4.46167 1.89018 0
80.7277 18.866 0
82.5361 17.1601 0
13.6039 0.198425 0
11.1061 0.105095 0
14.9371 31.9969 0
17.3136 31.2348 0
14.2031 12.7885 0
15.5781 14.8504 0
66.734 0.794574 0
64.2635 1.21504 0
72.2351 24.3059 0
71.2786 26.6007 0
52.0166 31.247 0
50.0645 29.693 0
29.3414 29.005 0
28.0753 26.8643 0
76.0359 25.2112 0
76.2728 22.7406 0
88.105 17.1676 0
90.3483 18.2888 0
56.5868 8.87129 0
54.2979 9.86958 0
30.6092 42.1215 0
32.0916 44.1256 0
49.5615 38.0641 0
50.1525 35.6367 0
33.5949 30.4588 0
35.8273 31.5669 0
51.2934 19.9988 0
50.1619 22.226 0
48.0099 20.0049 0
46.7658 17.8392 0
56.3035 36.5497 0
54.2142 37.9137 0
27.9464 27.8485 0
28.526 30.2668 0
32.5885 34.2923 0
33.2189 36.7026 0
91.7495 14.6608 0
93.5829 16.3618 0
6.67715 6.14703 0
6.35049 8.61075 0
30.6086 35.6107 0
31.2795 33.2089 0
65.1885 34.7137 0
64.2562 37.0254 0
70.9054 2.09367 0
72.5091 0.190622 0
72.182 24.9034 0
72.6615 22.4646 0
12.9587 14.5588 0
14.9641 16.0365 0
48.3601 3.26335 0
50.793 3.85123 0
17.3657 5.8279 0
17.5677 8.28602 0
6.4781 18.527 0
3.98891 18.2768 0
31.855 33.7218 0
32.0348 36.2069 0
59.313 32.6871 0
59.0177 35.1657 0
80.5629 24.3117 0
80.9438 26.7613 0
96.0443 18.353 0
96.4631 15.9007 0
81.6353 13.0783 0
84.1083 12.6712 0
31.4305 34.249 0
30.3542 32.0046 0
95.0716 8.6263 0
94.1999 10.9523 0
92.6808 17.8417 0
94.9028 16.7062 0
25.3356 37.7245 0
25.0496 35.2549 0
11.1323 27.0697 0
12.9497 28.7536 0
25.2211 16.9738 0
22.7584 17.4424 0
33.0698 22.0877 0
35.5582 22.2674 0
75.0741 22.9139 0
72.5743 22.9499 0
50.0605 27.4061 0
49.6804 29.8753 0
21.0023 18.5652 0
20.4917 20.9929 0
93.0845 7.20409 0
92.2612 9.54498 0
49.1254 47.9301 0
47.6828 45.8895 0
60.2915 38.877 0
62.1674 37.2328 0
68.4893 12.4707 0
66.4338 11.0416 0
74.7424 11.3844 0
72.5719 12.5977 0
59.6055 41.7123 0
61.2415 43.6014 0
83.0178 11.9647 0
83.702 9.59182 0
12.3065 9.72225 0
11.2216 7.49429 0
46.2387 42.8511 0
44.2371 41.3587 0
78.0928 4.14717 0
75.6273 4.54008 0
79.225 34.4471 0
79.6824 32.0079 0
50.3179 26.1254 0
47.8589 25.7169 0
15.902 14.8578 0
18.381 14.4591 0
24.6467 1.75818 0
27.1255 1.92529 0
21.788 5.87026 0
23.7457 4.29929 0
38.4557 26.5894 0
36.0148 27.1102 0
39.6087 37.7712 0
37.1168 37.6267 0
20.4609 23.1278 0
19.0589 21.0794 0
55.8201 8.49608 0
53.5426 9.52119 0
30.8096 38.5495 0
33.2567 38.0409 0
56.778 41.5982 0
59.2464 41.2254 0
59.0497 12.2247 0
61.4979 11.7441 0
84.7913 1.93823 0
82.4328 2.75475 0
54.6817 35.5294 0
52.9149 37.2922 0
27.9167 39.1817 0
30.4115 39.0178 0
56.9041 32.4145 0
56.616 29.9338 0
77.5988 21.1408 0
75.7147 22.767 0
36.6927 36.372 0
36.0548 38.7855 0
70.649 32.2184 0
68.1841 32.6073 0
48.9442 32.2416 0
50.2819 30.1334 0
64.3647 19.2163 0
65.3703 21.5034 0
36.9344 30.3884 0
39.4285 30.4316 0
52.1015 2.85828 0
54.2108 4.20397 0
16.1332 26.8054 0
13.9206 25.6497 0
28.8415 37.4857 0
26.372 37.8797 0
66.2957 34.6321 0
64.7065 32.7051 0
86.8464 13.7077 0
85.7542 15.9294 0
79.8897 37.2798 0
77.5901 38.2491 0
1.06459 9.62738 0
2.75223 11.4621 0
22.3183 6.95444 0
19.8261 6.71285 0
28.0346 24.0264 0
25.5603 23.6829 0
48.7816 5.29173 0
46.41 4.49645 0
39.4163 8.21243 0
37.122 7.22966 0
13.1963 16.1118 0
11.7585 14.0905 0
35.2092 37.691 0
33.3935 39.4074 0
76.1249 7.92543 0
78.1963 6.55498 0
38.8946 43.6782 0
38.0833 41.3173 0
46.195 9.32765 0
48.2305 7.87736 0
39.9114 30.7973 0
37.4912 31.4071 0
37.3375 29.0418 0
36.6706 31.4469 0
36.7285 26.778 0
34.2564 27.123 0
30.6667 4.36328 0
33.0164 5.20134 0
71.8192 31.7744 0
73.9936 30.5577 0
24.177 12.2882 0
26.568 11.5306 0
33.223 43.4958 0
35.5113 42.4885 0
26.1025 22.3412 0
24.0819 23.8121 0
5.6285 2.55635 0
6.5559 0.243738 0
94.3985 5.87653 0
96.8104 6.55331 0
53.4056 18.7814 0
51.7019 16.9549 0
53.8037 45.2685 0
52.3225 47.2809 0
94.7414 5.22264 0
93.3351 3.16126 0
30.2485 21.017 0
27.802 20.5217 0
57.5062 1.99634 0
58.1154 4.42033 0
94.6239 11.4511 0
92.9818 9.56987 0
43.7259 7.06319 0
46.1875 6.62737 0
49.3934 42.207 0
47.4356 43.7593 0
42.4309 27.1556 0
44.8394 26.507 0
24.2649 22.4971 0
21.7904 22.134 0
69.9784 34.0057 0
70.1447 31.5217 0
18.3867 13.433 0
20.6111 14.5626 0
9.41509 28.6506 0
11.6982 27.6068 0
62.0193 24.3628 0
60.7895 22.1877 0
81.7187 25.0344 0
79.2165 24.9608 0
22.8507 29.1361 0
20.7315 30.4561 0
14.2521 29.4921 0
14.3653 31.9607 0
12.6266 12.9604 0
13.6595 15.2103 0
67.3541 22.6602 0
67.8011 20.211 0
79.3143 21.7342 0
81.7274 22.4116 0
15.2728 21.5944 0
14.2046 23.8369 0
21.2619 13.4924 0
18.9065 12.6557 0
44.9078 44.8581 0
42.4121 44.7435 0
62.2275 37.9162 0
60.8096 35.8596 0
59.61 47.1131 0
61.9404 46.2095 0
39.9796 37.6436 0
42.4749 37.5943 0
55.7227 30.1404 0
53.3858 29.2676 0
67.616 40.6148 0
65.1302 40.8652 0
71.075 5.57143 0
73.5664 5.63408 0
80.9154 3.26875 0
80.844 0.805826 0
59.6882 6.96461 0
57.9458 8.75356 0
32.3855 19.4159 0
31.5836 21.7793 0
43.9555 32.3342 0
44.0667 34.8289 0
97.8211 14.1066 0
97.9741 11.621 0
74.1 18.4612 0
72.1491 16.8931 0
77.0581 31.4216 0
76.3482 33.8019 0
55.9598 48.5117 0
56.3192 46.0385 0
40.1729 1.10008 0
37.7553 1.7548 0
72.0287 19.9547 0
74.5047 19.6154 0
41.8372 44.5647 0
44.3159 44.8755 0
87.0964 2.7419 0
86.5251 5.14998 0
19.383 21.8665 0
18.9376 19.432 0
17.5348 36.1595 0
16.303 34.0091 0
26.0822 37.9032 0
24.1969 39.5444 0
61.6704 6.20968 0
59.7009 4.6682 0
39.7385 29.9751 0
40.0535 32.4503 0
63.2628 5.4351 0
60.7921 5.80985 0
60.5814 6.55918 0
61.4347 4.2111 0
79.3085 36.8047 0
76.8727 37.3592 0
46.8277 23.2877 0
47.7841 20.9789 0
81.9565 12.292 0
79.4741 12.634 0
17.6968 12.9212 0
18.516 15.2547 0
48.21 40.5095 0
46.3972 42.2287 0
65.3631 19.7043 0
64.1362 17.5262 0
42.9294 39.9211 0
41.7524 42.1256 0
54.5032 16.8619 0
53.4319 19.1181 0
22.9317 29.2815 0
25.3216 28.5522 0
23.2483 14.8565 0
20.8048 14.3186 0
92.341 7.77979 0
90.8211 9.74578 0
32.1531 31.9726 0
33.6182 29.9509 0
68.71 28.4586 0
68.9454 30.9391 0
97.6798 2.41172 0
96.1954 4.40301 0
67.3514 14.9278 0
69.8125 14.5214 0
78.3411 23.2598 0
78.8025 20.825 0
37.5792 15.9396 0
35.2003 15.1948 0
68.9035 9.24981 0
69.4606 6.8198 0
32.9544 20.1581 0
34.2989 18.051 0
33.287 31.5406 0
34.9363 29.6652 0
87.8834 25.9026 0
89.8562 27.4475 0
84.259 23.5849 0
86.6846 24.224 0
38.5232 11.1254 0
36.0971 11.7214 0
65.6787 40.2603 0
63.5089 39.0205 0
37.7005 1.50195 0
35.5262 2.73948 0
75.47 39.8282 0
75.9008 42.2794 0
67.3537 2.13135 0
67.1291 4.62017 0
71.9758 15.1269 0
70.1324 13.4319 0
63.3605 31.815 0
65.8514 31.9717 0
39.5825 3.1037 0
38.8497 5.49384 0
46.2281 18.6227 0
47.7947 16.6765 0
37.5225 38.6482 0
36.3133 40.8337 0
90.1838 7.29917 0
90.9078 4.92812 0
92.5952 20.011 0
90.1895 19.3007 0
55.8902 19.1459 0
56.1428 16.6598 0
22.8754 18.7322 0
21.4955 20.8076 0
32.7453 15.9705 0
34.5272 17.7076 0
72.9646 38.2527 0
73.321 35.791 0
61.7384 40.6269 0
63.1701 42.6744 0
27.469 32.7779 0
29.7633 31.7872 0
27.6533 16.546 0
25.8096 14.8805 0
39.491 2.30745 0
37.4636 3.77393 0
18.6328 28.3724 0
17.802 26.0364 0
73.4928 2.61533 0
75.2259 0.851496 0
75.7677 41.9327 0
73.2693 42.0694 0
57.352 43.7941 0
54.9316 43.1751 0
27.2567 8.97775 0
28.8876 10.8471 0
24.2099 7.7606 0
23.0473 9.96969 0
76.6102 41.4189 0
74.5008 42.7517 0
30.3863 38.4359 0
32.0699 40.2731 0
47.7318 27.354 0
48.5135 29.7259 0
78.4306 6.94156 0
80.9141 6.61901 0
76.0045 10.3263 0
76.2696 12.794 0
69.5205 33.9617 0
68.9073 31.5453 0
77.7184 17.0101 0
79.7035 18.5344 0
84.4698 32.4088 0
85.6401 34.6002 0
64.8962 34.3064 0
64.2129 31.906 0
32.4152 10.0783 0
29.9192 10.0363 0
29.5302 44.2854 0
31.8239 45.276 0
20.0764 28.9295 0
22.5376 28.4979 0
45.1529 28.1969 0
47.3614 27.0361 0
19.3001 33.6985 0
20.5748 31.5587 0
66.1254 9.25561 0
66.1519 6.75754 0
61.7079 1.5555 0
64.0649 0.707953 0
80.9523 1.3862 0
79.8131 3.5617 0
40.593 47.3598 0
38.0957 47.2335 0
58.7954 25.9188 0
59.6132 28.2789 0
14.8173 23.3157 0
16.919 24.6579 0
4.09555 14.4049 0
6.14395 12.9669 0
84.2667 21.5735 0
82.6388 19.6841 0
8.18159 0.605581 0
5.72094 0.180756 0
75.4284 19.9733 0
73.0778 20.812 0
52.4318 9.72318 0
50.7794 7.84793 0
43.3124 5.61796 0
45.7108 4.90799 0
39.2679 2.65057 0
37.8578 4.71592 0
3.31723 8.62902 0
0.878621 8.07146 0
87.8962 12.0681 0
88.2202 14.5247 0
39.7027 11.1834 0
37.4379 10.1391 0
57.9428 7.17043 0
56.0206 5.57054 0
16.2712 26.7066 0
13.7823 26.9976 0
52.5475 5.18903 0
55.021 5.56054 0
89.8401 6.94603 0
92.2241 7.717 0
93.5077 4.63345 0
91.8574 2.75916 0
95.0976 0.40872 0
96.8644 2.17927 0
16.0645 29.2111 0
18.4316 28.4153 0
62.4841 9.40743 0
61.7754 11.8017 0
18.5818 7.1305 0
17.9409 4.7532 0
70.1843 44.9169 0
67.8039 44.146 0
79.68 8.30459 0
80.572 6.00313 0
91.9022 15.614 0
89.7432 14.3432 0
59.5359 8.58836 0
59.338 6.09584 0
21.41 28.3607 0
23.713 29.3182 0
24.8674 41.8289 0
26.371 39.8356 0
22.3818 13.1694 0
24.5823 14.3345 0
9.854 12.0398 0
11.0344 9.84889 0
33.518 45.191 0
34.4786 42.8869 0
67.6127 35.6603 0
69.8764 36.7202 0
25.3454 10.5861 0
26.8584 8.58858 0
84.0128 24.3809 0
82.6735 22.2856 0
87.5775 2.03337 0
89.3609 3.78054 0
51.1088 40.7454 0
53.4435 41.6313 0
82.2003 9.36471 0
80.111 7.97742 0
65.1065 14.3787 0
66.1101 16.6685 0
42.9473 6.55383 0
42.7623 4.06142 0
53.5123 5.27128 0
55.427 3.6637 0
44.3471 38.6614 0
42.8797 40.6839 0
90.59 10.8 0
92.5657 9.2819 0
23.269 16.7577 0
24.8043 18.7081 0
23.7761 9.97348 0
23.8156 7.49436 0
60.7089 35.4874 0
60.9481 37.9728 0
44.6452 0.980367 0
42.289 1.82866 0
78.283 24.1093 0
79.0187 21.7418 0
68.8569 37.6625 0
68.7512 35.1729 0
27.5556 6.33377 0
29.4598 4.70192 0
58.9262 13.0269 0
59.0178 15.5243 0
57.7172 9.30044 0
59.6459 10.8913 0
51.7583 19.2868 0
54.1682 19.9302 0
50.6767 37.9386 0
48.1814 37.9373 0
47.467 22.5969 0
46.4176 24.8645 0
22.6382 20.9549 0
22.8462 23.4261 0
81.0267 2.09896 0
78.5673 1.58724 0
95.2773 4.85568 0
95.4272 7.33687 0
48.3798 40.8932 0
46.7848 42.8166 0
26.3802 16.5026 0
25.241 18.7211 0
89.3197 21.3868 0
88.3525 23.6636 0
43.8433 3.35708 0
46.1147 4.40399 0
53.2808 27.61 0
55.5146 28.7213 0
78.2797 8.26038 0
79.9474 6.42893 0
13.6826 13.9378 0
16.1827 14.1438 0
54.0793 47.2548 0
53.9832 44.7572 0
52.4098 5.76695 0
49.9861 5.14905 0
54.1064 40.3087 0
51.8107 41.2893 0
8.32826 21.8362 0
6.37563 23.4052 0
11.1336 27.5082 0
8.64024 27.3304 0
49.7344 46.9388 0
47.2355 46.9669 0
43.5665 18.1339 0
45.9102 18.9842 0
28.4297 43.2005 0
27.7457 40.8074 0
87.1163 31.2746 0
86.4031 28.9138 0
85.7894 22.3179 0
86.656 20.0011 0
85.9777 0.786763 0
88.4135 1.36371 0
83.5004 35.4342 0
84.5259 33.1816 0
24.1679 32.43 0
25.7339 30.4874 0
45.6025 42.0147 0
47.1184 43.9997 0
21.4145 34.7039 0
23.6932 33.6749 0
6.26387 12.048 0
4.34924 10.4526 0
34.5508 14.4821 0
36.1627 12.5688 0
31.2795 45.6681 0
33.0079 43.8631 0
18.296 22.8122 0
20.7155 23.4478 0
10.2917 22.4193 0
11.9928 20.5884 0
50.2245 7.36274 0
47.8895 6.46947 0
47.4999 30.5371 0
45.1706 29.648 0
38.8759 20.7572 0
41.2836 20.0999 0
43.5988 9.70889 0
41.3945 10.8866 0
77.4774 36.6868 0
79.2469 34.9396 0
39.9129 8.68628 0
39.0853 11.046 0
74.8593 40.1103 0
73.6033 37.9545 0
60.7803 11.6043 0
58.9099 13.2543 0
96.2653 12.4826 0
94.0402 11.3334 0
43.7746 25.0986 0
41.2814 25.1145 0
54.2767 42.6088 0
56.7492 42.2606 0
84.5655 23.3748 0
82.0627 23.5142 0
2.49873 9.57508 0
4.56537 8.16523 0
82.1252 4.90254 0
84.6156 5.18294 0
36.5728 16.2059 0
38.6922 17.5165 0
44.0136 9.14488 0
42.028 10.6634 0
21.2207 26.2823 0
22.224 28.5537 0
43.0654 26.9684 0
45.3771 26.0301 0
15.0566 19.4941 0
14.8854 21.9631 0
20.1619 8.50381 0
21.0267 6.17273 0
12.2474 24.6728 0
10.9812 22.5464 0
49.8772 41.2583 0
48.6867 39.0622 0
9.60409 24.307 0
9.41487 26.7824 0
35.0997 43.7754 0
32.8871 44.9404 0
13.4098 18.1957 0
11.2178 17.0033 0
12.2751 23.6537 0
12.7078 21.2138 0
84.2122 17.3028 0
84.0546 14.8329 0
97.1202 15.3984 0
94.9148 14.2131 0
76.1668 36.4834 0
77.5579 38.5546 0
4.7148 2.93187 0
2.2574 3.41583 0
13.921 26.6275 0
11.4288 26.3652 0
9.89826 5.15875 0
8.6283 7.30147 0
87.0151 9.92099 0
86.7071 7.46367 0
50.8082 18.7072 0
49.8851 16.3847 0
22.8302 2.90236 0
23.4999 0.491588 0
24.067 40.17 0
21.586 39.8503 0
4.29276 10.4821 0
1.88186 11.1604 0
73.9808 27.898 0
72.4126 29.8289 0
51.6071 16.3555 0
49.4406 17.5937 0
94.6974 5.49712 0
96.5759 7.1476 0
92.4083 0.896342 0
90.0103 1.58647 0
54.6761 27.8092 0
57 28.717 0
3.92514 2.10277 0
2.79846 4.32734 0
25.6247 41.816 0
28.1102 41.5252 0
24.3249 32.987 0
25.791 34.9948 0
64.8517 37.6279 0
63.0379 35.9097 0
45.7872 38.7571 0
46.3334 36.3191 0
59.135 39.1935 0
58.3331 41.5582 0
42.8483 19.228 0
41.6486 17.0399 0
48.5271 16.7029 0
47.4691 14.4392 0
92.8817 4.84294 0
91.3599 6.8072 0
17.6591 6.56346 0
16.0824 4.65133 0
31.5778 30.5114 0
33.0927 28.5267 0
49.5584 44.9463 0
50.5155 47.2551 0
51.6918 13.6263 0
49.2486 14.1332 0
35.207 5.38835 0
34.5586 7.80384 0
90.7018 7.72161 0
90.2684 10.161 0
55.2533 45.5703 0
54.0032 43.4057 0
16.7306 18.0934 0
18.9199 16.8733 0
14.6115 7.02682 0
14.2722 4.57749 0
24.3176 34.1702 0
21.8257 34.3641 0
62.6057 33.4133 0
60.6408 34.9477 0
11.5583 19.5873 0
13.6677 20.9149 0
76.833 0.352325 0
74.3532 0.223001 0
59.9028 25.8844 0
57.6529 24.8033 0
70.4382 26.8852 0
67.9538 27.1238 0
46.2351 22.6441 0
46.9799 20.2582 0
76.5739 3.79643 0
74.1784 4.44126 0
47.8524 14.9561 0
50.1329 15.9686 0
88.1817 13.5166 0
89.9593 11.7772 0
71.0338 0.00108223 0
73.3376 0.973024 0
56.276 45.5036 0
57.2048 43.1846 0
68.1775 3.17041 0
65.9567 2.01751 0
22.8691 17.5584 0
24.7882 15.9512 0
81.1718 38.5163 0
83.148 37 0
49.4121 2.81394 0
51.113 4.64693 0
66.0255 3.22769 0
63.6949 2.32111 0
53.296 12.0041 0
53.0634 9.5145 0
12.6017 15.354 0
10.7821 17.0685 0
43.174 4.52131 0
43.6217 6.98006 0
56.1507 20.4305 0
58.5963 20.9233 0
60.8211 22.2362 0
58.3458 21.9261 0
28.8509 27.0509 0
27.0348 25.3493 0
40.7082 6.79998 0
38.2333 7.1411 0
17.3983 2.33771 0
19.8817 2.00801 0
42.8534 25.6946 0
40.3814 26.0263 0
7.01577 17.6474 0
8.34818 19.742 0
20.309 11.9178 0
22.1542 10.2252 0
67.3807 39.8754 0
65.4741 41.4836 0
45.1312 41.3627 0
45.9856 43.7102 0
70.7797 17.1281 0
73.1624 16.3892 0
88.2928 4.85578 0
90.0352 6.64308 0
49.8863 20.0281 0
48.1662 21.838 0
56.3464 37.5535 0
56.3484 40.0517 0
82.3368 25.9045 0
80.8127 27.8677 0
39.5749 4.30206 0
41.5651 5.81175 0
55.1604 43.421 0
57.0004 41.7332 0
55.3739 43.306 0
57.0532 41.4581 0
25.0742 15.2903 0
23.2529 13.6045 0
14.3906 27.6913 0
13.5621 30.0186 0
52.996 16.9007 0
51.1946 18.6286 0
32.5421 42.6755 0
34.8925 43.5216 0
19.7203 10.8031 0
21.4812 12.5511 0
61.5069 40.9856 0
63.7405 39.8722 0
32.9893 27.3233 0
31.0435 28.89 0
31.0383 21.081 0
32.0102 23.3711 0
72.0281 27.3197 0
71.1976 29.6638 0
38.1004 12.9726 0
40.5713 13.3153 0
47.3037 47.8183 0
45.4845 46.1053 0
70.5935 11.4304 0
70.4552 13.9162 0
98.681 10.1746 0
96.617 8.76098 0
96.4818 15.8874 0
93.9789 15.9446 0
58.941 10.0952 0
59.674 12.4857 0
54.9862 18.2445 0
56.4649 20.259 0
53.9039 41.5029 0
56.3655 41.0876 0
5.03317 4.4198 0
7.51559 4.09543 0
84.4944 18.7348 0
86.8221 19.6717 0
19.3223 30.1126 0
19.5482 32.5834 0
64.3903 35.6811 0
63.1427 33.5177 0
66.4527 23.3852 0
68.9478 23.3079 0
60.3675 25.3356 0
62.6596 24.3577 0
55.9048 21.0325 0
57.5947 19.198 0
21.6027 36.2229 0
19.1082 36.4184 0
55.938 32.1941 0
58.3667 31.6298 0
67.9542 1.59594 0
70.1381 2.81991 0
16.2164 6.23869 0
17.6139 4.18436 0
91.8056 24.1671 0
91.1258 26.5501 0
89.1997 19.0888 0
86.7259 18.6623 0
88.0944 12.5498 0
86.5308 14.4778 0
76.3864 18.7842 0
77.5826 16.6132 0
70.9786 20.8925 0
70.0668 23.2052 0
26.6576 25.3945 0
25.4403 27.5696 0
55.7911 26.2181 0
55.5444 28.7032 0
59.1585 42.9551 0
57.5181 44.838 0
66.1957 18.6575 0
68.239 17.2356 0
81.2312 33.4518 0
79.6937 31.4899 0
50.4279 8.88516 0
49.7704 11.2974 0
26.0995 27.3958 0
24.0678 28.8483 0
49.6503 27.1786 0
49.8899 24.6913 0
89.2876 25.408 0
91.7892 25.3443 0
78.9413 31.9897 0
76.6118 32.8778 0
76.1751 37.2985 0
76.6116 34.8526 0
22.6818 1.44384 0
23.5198 3.7648 0
17.2436 11.9063 0
15.7609 9.9212 0
76.507 35.6534 0
78.3681 34.003 0
25.5439 42.6565 0
23.762 40.9152 0
24.9573 3.50299 0
23.1364 1.84664 0
86.8806 24.3729 0
85.0252 22.7001 0
84.0384 33.3685 0
83.1501 31.0494 0
67.9905 9.06173 0
65.8924 7.69507 0
6.41675 3.78044 0
4.6427 5.54112 0
88.4909 7.24459 0
89.3738 4.92954 0
68.0665 40.7111 0
69.9007 39.0232 0
33.6109 18.7574 0
33.5127 21.2491 0
18.411 18.2934 0
20.0157 20.1881 0
51.0045 20.5401 0
51.9918 18.2448 0
81.1715 27.1327 0
78.9743 25.945 0
33.6744 33.5651 0
31.4949 34.7869 0
42.0899 36.5393 0
44.2768 35.3347 0
9.47865 8.07427 0
8.1056 6.00518 0
46.397 8.93368 0
43.9224 9.27416 0
38.9255 45.6805 0
36.7437 44.4634 0
56.6679 44.6597 0
57.0793 42.1953 0
50.8192 7.66979 0
52.1404 9.79179 0
69.2944 9.502 0
68.1807 11.7262 0
52.7847 10.5523 0
53.992 8.36402 0
87.9579 0.58904 0
87.4427 3.01184 0
87.5444 29.5835 0
88.4769 27.3049 0
27.8071 27.7176 0
29.3611 25.7643 0
41.1396 3.09364 0
43.5624 2.46442 0
47.3881 29.1594 0
44.8963 29.0819 0
44.9099 23.053 0
42.4393 22.7212 0
57.5428 36.0785 0
55.6824 34.4125 0
79.9236 4.74736 0
81.3136 6.81383 0
32.9793 1.40781 0
31.3239 3.28359 0
37.9924 49.5927 0
37.9162 51.16 0
37.9162 51.16 0
37.7032 52.7149 0
37.7032 52.7149 0
37.355 54.2455 0
37.355 54.2455 0
36.8745 55.7398 0
36.8745 55.7398 0
36.2654 57.1866 0
36.2654 57.1866 0
35.5323 58.5749 0
35.5323 58.5749 0
34.6809 59.8941 0
34.6809 59.8941 0
33.7178 61.1341 0
33.7178 61.1341 0
32.6502 62.2855 0
32.6502 62.2855 0
31.4864 63.3397 0
31.4864 63.3397 0
30.2352 64.2886 0
30.2352 64.2886 0
28.9062 65.1251 0
28.9062 65.1251 0
27.5094 65.8428 0
27.5094 65.8428 0
26.0554 66.4363 0
26.0554 66.4363 0
24.5553 66.9012 0
24.5553 66.9012 0
23.0205 67.2339 0
23.0205 67.2339 0
21.4625 67.432 0
21.4625 67.432 0
19.8932 67.4938 0
19.8932 67.4938 0
18.3244 67.4191 0
18.3244 67.4191 0
16.7681 67.2083 0
16.7681 67.2083 0
15.2361 66.8629 0
15.2361 66.8629 0
13.7399 66.3857 0
13.7399 66.3857 0
12.2908 65.7803 0
12.2908 65.7803 0
10.9 65.0511 0
10.9 65.0511 0
9.57784 64.2038 0
9.57784 64.2038 0
8.3345 63.2446 0
8.3345 63.2446 0
7.17939 62.181 0
7.17939 62.181 0
6.12133 61.0208 0
6.12133 61.0208 0
5.16841 59.7729 0
5.16841 59.7729 0
4.32785 58.4469 0
4.32785 58.4469 0
3.60613 57.0527 0
3.60613 57.0527 0
3.00882 55.601 0
3.00882 55.601 0
2.5405 54.1028 0
2.5405 54.1028 0
2.20478 52.5696 0
2.20478 52.5696 0
2.00437 51.0131 0
2.00437 51.0131 0
1.94083 49.445 0
1.94083 49.445 0
2.01472 47.8776 0
2.01472 47.8776 0
2.22558 46.3231 0
2.22558 46.3231 0
2.57188 44.7932 0
2.57188 44.7932 0
3.05102 43.2997 0
3.05102 43.2997 0
3.65945 41.8545 0
3.65945 41.8545 0
4.39253 40.4688 0
4.39253 40.4688 0
5.24468 39.1536 0
5.24468 39.1536 0
6.20959 37.9196 0
6.20959 37.9196 0
7.27952 36.7771 0
7.27952 36.7771 0
8.44657 35.7357 0
8.44657 35.7357 0
9.70174 34.8063 0
9.70174 34.8063 0
11.0359 33.9972 0
11.0359 33.9972 0
12.4423 33.3098 0
12.4423 33.3098 0
13.9012 32.7272 0
13.9012 32.7272 0
15.3993 32.2615 0
15.3993 32.2615 0
16.9308 31.9241 0
16.9308 31.9241 0
18.4859 31.7192 0
18.4859 31.7192 0
20.053 31.6491 0
20.053 31.6491 0
21.6203 31.7149 0
21.6203 31.7149 0
23.1755 31.9162 0
23.1755 31.9162 0
24.7063 32.2516 0
24.7063 32.2516 0
26.2017 32.7186 0
26.2017 32.7186 0
27.65 33.3143 0
27.65 33.3143 0
29.0401 34.0344 0
29.0401 34.0344 0
30.3612 34.8735 0
30.3612 34.8735 0
31.6036 35.8251 0
31.6036 35.8251 0
32.7578 36.8822 0
32.7578 36.8822 0
33.815 38.0366 0
33.815 38.0366 0
34.7672 39.2796 0
34.7672 39.2796 0
35.6073 40.6016 0
35.6073 40.6016 0
36.3287 41.9925 0
36.3287 41.9925 0
36.9259 43.4416 0
36.9259 43.4416 0
37.3943 44.9379 0
37.3943 44.9379 0
37.7301 46.4697 0
37.7301 46.4697 0
37.9303 48.0253 0
37.9303 48.0253 0
37.9924 49.5927 0
98.0593 49.4446 0
97.9957 51.0126 0
97.9957 51.0126 0
97.7953 52.5691 0
97.7953 52.5691 0
97.4596 54.1023 0
97.4596 54.1023 0
96.9913 55.6005 0
96.9913 55.6005 0
96.394 57.0523 0
96.394 57.0523 0
95.6722 58.4464 0
95.6722 58.4464 0
94.8316 59.7724 0
94.8316 59.7724 0
93.8787 61.0202 0
93.8787 61.0202 0
92.8206 62.1804 0
92.8206 62.1804 0
91.6655 63.2441 0
91.6655 63.2441 0
90.4222 64.2032 0
90.4222 64.2032 0
89.1 65.0505 0
89.1 65.0505 0
87.7092 65.7797 0
87.7092 65.7797 0
86.2601 66.3851 0
86.2601 66.3851 0
84.7639 66.8623 0
84.7639 66.8623 0
83.2318 67.2076 0
83.2318 67.2076 0
81.6755 67.4184 0
81.6755 67.4184 0
80.1068 67.4931 0
80.1068 67.4931 0
78.5375 67.4312 0
78.5375 67.4312 0
76.9795 67.2332 0
76.9795 67.2332 0
75.4447 66.9005 0
75.4447 66.9005 0
73.9446 66.4356 0
73.9446 66.4356 0
72.4906 65.842 0
72.4906 65.842 0
71.0938 65.1243 0
71.0938 65.1243 0
69.7648 64.2877 0
69.7648 64.2877 0
68.5136 63.3388 0
68.5136 63.3388 0
67.3499 62.2846 0
67.3499 62.2846 0
66.2823 61.1332 0
66.2823 61.1332 0
65.3192 59.8931 0
65.3192 59.8931 0
64.4678 58.574 0
64.4678 58.574 0
63.7348 57.1857 0
63.7348 57.1857 0
63.1257 55.7389 0
63.1257 55.7389 0
62.6452 54.2445 0
62.6452 54.2445 0
62.2971 52.714 0
62.2971 52.714 0
62.0841 51.1591 0
62.0841 51.1591 0
62.0081 49.5917 0
62.0081 49.5917 0
62.0701 48.0243 0
62.0701 48.0243 0
62.2703 46.4688 0
62.2703 46.4688 0
62.6061 44.9369 0
62.6061 44.9369 0
63.0745 43.4406 0
63.0745 43.4406 0
63.6717 41.9915 0
63.6717 41.9915 0
64.393 40.6006 0
64.393 40.6006 0
65.233 39.2786 0
65.233 39.2786 0
66.1852 38.0357 0
66.1852 38.0357 0
67.2424 36.8813 0
67.2424 36.8813 0
68.3966 35.8244 0
68.3966 35.8244 0
69.639 34.8728 0
69.639 34.8728 0
70.9603 34.0339 0
70.9603 34.0339 0
72.3502 33.3139 0
72.3502 33.3139 0
73.7984 32.7178 0
73.7984 32.7178 0
75.2938 32.2502 0
75.2938 32.2502 0
76.825 31.9146 0
76.825 31.9146 0
78.3802 31.7135 0
78.3802 31.7135 0
79.9472 31.648 0
79.9472 31.648 0
81.5144 31.7182 0
81.5144 31.7182 0
83.0697 31.9233 0
83.0697 31.9233 0
84.6016 32.2607 0
84.6016 32.2607 0
86.0998 32.7266 0
86.0998 32.7266 0
87.5573 33.3097 0
87.5573 33.3097 0
88.9647 33.9969 0
88.9647 33.9969 0
90.2992 34.8068 0
90.2992 34.8068 0
91.5537 35.7358 0
91.5537 35.7358 0
92.7207 36.7765 0
92.7207 36.7765 0
93.7908 37.9192 0
93.7908 37.9192 0
94.7555 39.1531 0
94.7555 39.1531 0
95.6077 40.4685 0
95.6077 40.4685 0
96.3408 41.8541 0
96.3408 41.8541 0
96.9492 43.2992 0
96.9492 43.2992 0
97.4283 44.7927 0
97.4283 44.7927 0
97.7746 46.3227 0
97.7746 46.3227 0
97.9855 47.8773 0
97.9855 47.8773 0
98.0593 49.4446 0
      </DataArray>
    </Points>
    <Cells>
      <DataArray type="Int32" Name="connectivity" format="ascii">
247 120 114 753 754 755 
213 114 214 748 749 750 
487 220 257 647 745 730 
257 115 260 741 742 743 
246 300 116 738 739 740 
212 116 247 731 732 733 
246 257 117 724 725 726 
299 117 312 719 720 721 
303 310 118 716 717 718 
248 118 256 711 712 713 
513 495 483 150 224 119 
507 513 483 151 119 184 
248 120 302 704 705 706 
221 258 121 1196 1197 1198 
259 121 313 1191 1192 1193 
464 430 432 332 409 122 
436 464 432 326 122 408 
346 1189 123 1186 1187 1188 
298 123 351 1181 1182 1183 
71 311 124 699 700 701 
65 124 372 692 693 694 
79 369 125 687 688 689 
684 125 309 680 681 682 
211 243 126 1178 1179 1180 
244 126 297 1173 1174 1175 
462 474 436 240 281 127 
438 462 436 294 127 327 
512 515 514 131 129 134 
513 509 511 130 132 135 
514 515 510 129 139 128 
508 514 510 148 128 147 
496 500 514 146 133 149 
513 499 495 136 145 150 
507 509 513 143 130 151 
505 491 497 141 142 154 
504 515 512 137 131 155 
174 503 511 1151 156 144 
512 514 500 134 133 159 
499 513 511 136 135 162 
494 515 504 138 137 165 
171 510 515 1164 139 166 
140 167 168 678 674 675 
167 492 168 672 661 674 
491 505 506 141 153 169 
177 498 497 656 164 170 
173 490 174 1156 1149 1171 
217 489 503 1126 176 175 
495 499 498 145 163 178 
501 500 496 158 146 179 
172 486 181 1162 1145 1169 
496 514 508 149 148 183 
480 481 140 227 152 187 
479 506 505 188 153 190 
477 505 497 191 154 193 
504 512 475 155 160 194 
472 511 503 161 156 197 
501 502 471 157 199 200 
500 501 470 158 201 202 
475 512 500 160 159 203 
499 511 472 162 161 204 
498 499 469 163 205 206 
497 498 468 164 207 208 
494 504 474 165 195 210 
211 493 171 1165 1161 1166 
167 180 212 667 668 669 
168 492 213 661 662 663 
214 488 177 657 653 658 
172 171 215 1158 1159 1160 
173 185 216 1153 1154 1155 
174 490 217 1149 1127 1150 
473 503 489 196 176 218 
177 488 219 653 643 654 
220 487 180 647 648 649 
182 181 221 1142 1143 1144 
496 508 115 183 222 747 
225 484 185 886 1138 1139 
482 502 481 198 186 226 
506 480 140 189 187 677 
480 506 479 189 188 228 
479 505 478 190 192 229 
478 505 477 192 191 230 
477 497 476 193 209 231 
474 504 475 195 194 232 
472 503 473 197 196 233 
471 502 482 199 198 234 
470 501 471 201 200 235 
475 500 470 203 202 236 
469 499 472 205 204 237 
468 498 469 207 206 238 
476 497 468 209 208 239 
494 474 461 210 241 242 
215 245 249 1133 1134 1135 
216 250 251 1128 1129 1130 
217 252 253 1123 1124 1125 
307 451 473 1047 255 254 
223 219 256 640 641 642 
583 263 223 1074 637 628 
582 261 264 1120 1121 1122 
445 482 481 265 226 268 
444 481 480 267 227 270 
443 480 479 269 228 272 
442 479 478 271 229 274 
441 478 477 273 230 276 
440 477 476 275 231 278 
474 475 436 232 280 281 
472 473 435 233 283 284 
471 482 446 234 266 286 
470 471 434 235 287 288 
464 475 470 279 236 289 
469 472 463 237 285 290 
468 469 433 238 291 292 
439 476 468 277 239 293 
461 474 462 241 240 295 
296 460 243 1071 1116 1117 
245 244 298 1107 1108 1109 
258 249 304 1100 1101 1102 
250 262 305 1095 1096 1097 
252 251 306 1088 1089 1090 
253 452 307 1084 1044 1085 
437 473 451 282 255 308 
633 314 591 871 832 1082 
262 261 316 1075 1076 1077 
318 629 578 854 810 809 
446 482 445 266 265 319 
445 481 444 268 267 320 
444 480 443 270 269 321 
443 479 442 272 271 322 
442 478 441 274 273 323 
441 477 440 276 275 324 
440 476 439 278 277 325 
436 475 464 280 279 326 
435 473 437 283 282 328 
463 472 435 285 284 329 
434 471 446 287 286 330 
464 470 434 289 288 331 
433 469 463 291 290 334 
439 468 433 293 292 335 
462 438 43 294 338 339 
461 462 45 295 340 341 
296 342 343 1068 1069 1070 
297 344 345 1063 1064 1065 
299 311 347 621 622 623 
301 300 348 616 617 618 
302 301 349 609 610 611 
309 303 350 602 603 604 
304 352 353 1058 1059 1060 
305 358 359 1053 1054 1055 
306 361 362 1048 1049 1050 
307 452 364 1044 934 1045 
437 451 109 308 367 368 
599 317 597 848 850 1042 
592 315 593 841 840 1040 
313 355 375 1035 1036 1037 
585 586 587 1032 1033 1034 
356 316 378 1027 1028 1029 
578 579 580 1024 1025 1026 
3 446 445 381 319 383 
7 445 444 384 320 386 
11 444 443 387 321 389 
15 443 442 390 322 392 
19 442 441 393 323 395 
23 441 440 396 324 398 
27 440 439 399 325 401 
432 438 436 336 327 408 
435 437 431 328 337 410 
429 463 435 333 329 411 
434 446 0 330 382 413 
430 464 434 332 331 414 
433 463 429 334 333 415 
1 439 433 402 335 416 
39 438 432 404 336 417 
431 437 940 337 407 418 
43 438 41 338 405 42 
45 462 43 340 339 44 
47 49 342 48 1019 1020 
344 343 51 1009 1010 1011 
346 345 1013 1000 1001 1002 
348 347 702 569 570 571 
350 349 75 560 561 562 
352 351 55 991 992 993 
354 353 979 984 985 986 
355 354 995 975 976 977 
357 356 89 968 969 970 
358 357 956 959 960 961 
360 359 972 952 953 954 
361 360 95 943 944 945 
363 362 99 936 937 938 
364 363 103 927 928 929 
107 451 105 366 365 106 
109 451 107 367 366 108 
931 437 109 406 368 110 
370 369 548 553 554 555 
371 370 690 544 545 546 
372 374 532 537 538 539 
374 373 696 528 529 530 
376 375 61 920 921 922 
924 523 524 915 916 917 
378 380 85 908 909 910 
516 911 518 903 904 905 
0 446 3 382 381 2 
3 445 5 383 385 4 
5 445 7 385 384 6 
7 444 9 386 388 8 
9 444 11 388 387 10 
11 443 13 389 391 12 
13 443 15 391 390 14 
15 442 17 392 394 16 
17 442 19 394 393 18 
19 441 21 395 397 20 
21 441 23 397 396 22 
23 440 25 398 400 24 
25 440 27 400 399 26 
27 439 29 401 403 28 
29 439 1 403 402 30 
41 438 39 405 404 40 
940 437 931 407 406 932 
432 430 31 409 423 419 
429 435 431 411 410 412 
93 429 431 426 412 422 
430 434 0 414 413 424 
1 433 429 416 415 428 
39 432 37 417 420 38 
947 431 940 421 418 941 
37 432 31 420 419 36 
93 431 947 422 421 948 
31 430 33 423 425 32 
33 430 0 425 424 34 
112 429 93 427 426 111 
1 429 112 428 427 113 
220 115 257 746 741 745 
518 899 519 896 897 898 
521 519 380 889 890 891 
630 264 225 882 883 884 
491 177 497 659 170 142 
481 502 140 186 676 152 
744 182 635 879 874 875 
120 247 467 753 735 707 
247 114 492 755 752 736 
114 120 488 754 710 751 
114 213 492 748 662 752 
213 214 491 750 660 665 
214 114 488 749 751 657 
115 220 496 746 652 747 
257 260 466 743 632 727 
182 485 635 878 870 874 
300 246 458 738 728 619 
246 116 487 740 737 729 
116 300 467 739 620 734 
116 212 487 731 670 737 
212 247 492 733 736 671 
247 116 467 732 734 735 
257 246 487 724 729 730 
246 117 458 726 723 728 
117 257 466 725 727 722 
117 299 458 719 625 723 
299 312 449 721 595 626 
312 117 466 720 722 596 
310 303 450 716 608 600 
303 118 457 718 715 605 
118 310 465 717 601 714 
118 248 457 711 708 715 
248 256 488 713 644 709 
256 118 465 712 714 645 
120 248 488 704 709 710 
248 302 457 706 613 708 
302 120 467 705 707 614 
311 71 573 699 72 624 
71 124 63 701 698 70 
124 311 449 700 627 695 
124 65 63 692 64 698 
65 372 67 694 542 66 
372 124 449 693 695 543 
369 79 81 687 80 556 
79 125 73 689 686 78 
125 369 450 688 559 683 
125 684 73 680 685 686 
684 309 564 682 606 565 
309 125 450 681 683 607 
167 140 502 678 676 679 
501 167 502 673 679 157 
140 168 506 675 666 677 
180 167 501 667 673 651 
167 212 492 669 671 672 
212 180 487 668 648 670 
506 168 213 666 663 664 
491 506 213 169 664 665 
491 214 177 660 658 659 
498 177 219 656 654 655 
495 498 219 178 655 646 
496 220 180 652 649 650 
501 496 180 179 650 651 
219 223 495 640 639 646 
223 256 465 642 645 636 
256 219 488 641 643 644 
495 223 263 639 637 638 
483 495 263 224 638 631 
633 635 634 867 868 869 
588 634 259 860 861 862 
629 318 630 854 855 856 
311 299 449 621 626 627 
299 347 458 623 577 625 
347 311 573 622 624 572 
300 301 467 616 615 620 
301 348 69 618 575 612 
348 300 458 617 619 576 
301 302 467 609 614 615 
302 349 457 611 568 613 
349 301 69 610 612 563 
303 309 450 602 607 608 
309 350 564 604 566 606 
350 303 457 603 605 567 
597 317 584 850 807 851 
599 550 581 845 846 847 
371 310 450 598 600 551 
590 315 592 835 841 842 
312 373 449 594 536 595 
593 589 531 836 837 838 
585 590 591 827 828 829 
587 523 589 818 819 820 
586 588 527 811 812 813 
578 583 584 802 803 804 
580 521 582 793 794 795 
579 581 516 784 785 786 
347 348 458 569 576 577 
348 702 69 571 703 575 
702 347 573 570 572 574 
349 350 457 560 567 568 
350 75 564 562 76 566 
75 349 69 561 563 74 
369 370 450 553 552 559 
370 548 557 555 549 547 
548 369 81 554 556 82 
370 371 450 544 551 552 
778 77 550 783 779 780 
690 370 557 545 547 558 
374 372 449 537 543 535 
372 532 67 539 68 542 
532 374 540 538 534 533 
373 374 449 528 535 536 
374 696 540 530 541 534 
531 59 773 772 777 774 
524 527 526 765 766 767 
762 526 376 756 757 758 
744 635 633 875 867 873 
260 744 633 877 873 872 
211 171 515 1166 166 1167 
494 211 515 1168 1167 138 
509 174 511 1152 144 132 
174 217 503 1150 175 1151 
629 583 578 1073 802 810 
465 583 223 805 628 636 
489 307 473 1086 254 218 
258 221 486 1196 1146 1105 
221 121 485 1198 1195 1147 
121 258 455 1197 1104 1194 
121 259 485 1191 864 1195 
259 313 448 1193 1038 865 
313 121 455 1192 1194 1039 
1189 346 1018 1186 1006 1023 
346 123 459 1188 1185 1007 
123 1189 35 1187 1190 1184 
123 298 459 1181 1111 1185 
298 351 456 1183 999 1112 
351 123 35 1182 1184 994 
243 211 494 1178 1168 1119 
211 126 493 1180 1177 1165 
126 243 460 1179 1116 1176 
126 244 493 1173 1115 1177 
244 297 459 1175 1066 1110 
297 126 460 1174 1176 1067 
173 174 509 1171 1152 1172 
507 173 509 1157 1172 143 
510 172 181 1163 1169 1170 
508 510 181 147 1170 1148 
171 172 510 1158 1163 1164 
172 215 486 1160 1136 1162 
215 171 493 1159 1161 1137 
185 173 507 1153 1157 1141 
173 216 490 1155 1131 1156 
216 185 484 1154 1138 1132 
181 182 508 1142 881 1148 
182 221 485 1144 1147 878 
221 181 486 1143 1145 1146 
225 185 507 1139 1141 1140 
483 225 507 887 1140 184 
245 215 493 1133 1137 1114 
215 249 486 1135 1106 1136 
249 245 456 1134 1113 1103 
250 216 484 1128 1132 1099 
216 251 490 1130 1094 1131 
251 250 453 1129 1098 1091 
252 217 490 1123 1127 1093 
217 253 489 1125 1087 1126 
253 252 452 1124 1092 1084 
261 582 447 1120 797 1078 
582 264 318 1122 888 798 
264 261 484 1121 1081 885 
461 296 243 1072 1117 1118 
494 461 243 242 1118 1119 
244 245 493 1107 1114 1115 
245 298 456 1109 1112 1113 
298 244 459 1108 1110 1111 
249 258 486 1100 1105 1106 
258 304 455 1102 1061 1104 
304 249 456 1101 1103 1062 
262 250 484 1095 1099 1080 
250 305 453 1097 1056 1098 
305 262 454 1096 1079 1057 
251 252 490 1088 1093 1094 
252 306 452 1090 1051 1092 
306 251 453 1089 1091 1052 
489 253 307 1087 1085 1086 
260 633 591 872 1082 1083 
466 260 591 632 1083 831 
261 262 484 1075 1080 1081 
262 316 454 1077 1031 1079 
316 261 447 1076 1078 1030 
583 629 263 1073 859 1074 
342 296 461 1068 1072 1022 
296 343 460 1070 1017 1071 
343 342 49 1069 1019 1012 
344 297 460 1063 1067 1016 
297 345 459 1065 1008 1066 
345 344 1004 1064 1015 1003 
352 304 456 1058 1062 998 
304 353 455 1060 990 1061 
353 352 57 1059 997 987 
358 305 454 1053 1057 966 
305 359 453 1055 958 1056 
359 358 963 1054 965 955 
361 306 453 1048 1052 950 
306 362 452 1050 942 1051 
362 361 97 1049 949 939 
451 307 364 1047 1045 1046 
105 451 364 365 1046 933 
371 599 597 849 1042 1043 
310 371 597 598 1043 852 
592 593 373 1040 839 1041 
312 592 373 844 1041 594 
355 313 455 1035 1039 982 
313 375 448 1037 926 1038 
375 355 53 1036 981 923 
586 585 314 1032 833 816 
585 587 315 1034 824 834 
587 586 377 1033 815 825 
316 356 454 1027 974 1031 
356 378 83 1029 913 971 
378 316 447 1028 1030 914 
579 578 317 1024 808 791 
578 580 318 1026 799 809 
580 579 379 1025 790 800 
45 47 342 46 1020 1021 
461 45 342 341 1021 1022 
343 344 460 1009 1016 1017 
344 51 1004 1011 52 1015 
51 343 49 1010 1012 50 
345 346 459 1000 1007 1008 
346 1013 1018 1002 1014 1006 
1013 345 1004 1001 1003 1005 
351 352 456 991 998 999 
352 55 57 993 56 997 
55 351 35 992 994 54 
353 354 455 984 983 990 
354 979 988 986 980 978 
979 353 57 985 987 58 
354 355 455 975 982 983 
355 995 53 977 996 981 
995 354 988 976 978 989 
356 357 454 968 967 974 
357 89 91 970 90 962 
89 356 83 969 971 88 
357 358 454 959 966 967 
358 956 963 961 957 965 
956 357 91 960 962 92 
359 360 453 952 951 958 
360 972 87 954 973 946 
972 359 963 953 955 964 
360 361 453 943 950 951 
361 95 97 945 96 949 
95 360 87 944 946 94 
362 363 452 936 935 942 
363 99 101 938 100 930 
99 362 97 937 939 98 
363 364 452 927 934 935 
364 103 105 929 104 933 
103 363 101 928 930 102 
375 376 448 920 760 926 
376 61 522 922 62 761 
61 375 53 921 923 60 
523 924 59 915 925 821 
924 524 918 917 769 919 
524 523 377 916 826 770 
380 378 447 908 914 894 
378 85 83 910 84 913 
85 380 517 909 893 86 
911 516 77 903 788 912 
516 518 379 905 900 789 
518 911 906 904 907 901 
899 518 906 896 901 902 
518 519 379 898 895 900 
519 899 517 897 520 892 
519 521 379 889 801 895 
521 380 447 891 894 796 
380 519 517 890 892 893 
264 630 318 882 855 888 
630 225 483 884 887 858 
225 264 484 883 885 886 
508 182 744 881 879 880 
115 508 744 222 880 876 
115 744 260 876 877 742 
633 634 314 869 866 871 
634 635 485 868 870 863 
634 588 314 860 817 866 
588 259 448 862 865 814 
259 634 485 861 863 864 
263 629 630 859 856 857 
483 263 630 631 857 858 
597 584 465 851 806 853 
310 597 465 852 853 601 
550 599 371 845 849 782 
599 581 317 847 792 848 
581 550 77 846 779 787 
466 590 592 830 842 843 
312 466 592 596 843 844 
589 593 315 836 840 823 
593 531 373 838 775 839 
531 589 59 837 822 772 
590 585 315 827 834 835 
585 591 314 829 832 833 
591 590 466 828 830 831 
523 587 377 818 825 826 
587 589 315 820 823 824 
589 523 59 819 821 822 
588 586 314 811 816 817 
586 527 377 813 771 815 
527 588 448 812 814 768 
578 584 317 804 807 808 
584 583 465 803 805 806 
521 580 379 793 800 801 
580 582 318 795 798 799 
582 521 447 794 796 797 
581 579 317 784 791 792 
579 516 379 786 789 790 
516 581 77 785 787 788 
690 778 550 691 780 781 
371 690 550 546 781 782 
531 773 696 774 697 776 
373 531 696 775 776 529 
527 524 377 765 770 771 
524 526 918 767 764 769 
526 527 448 766 768 759 
526 762 918 756 763 764 
762 376 522 758 761 525 
376 526 448 757 759 760 
1199 1200
1201 1202
1203 1204
1205 1206
1207 1208
1209 1210
1211 1212
1213 1214
1215 1216
1217 1218
1219 1220
1221 1222
1223 1224
1225 1226
1227 1228
1229 1230
1231 1232
1233 1234
1235 1236
1237 1238
1239 1240
1241 1242
1243 1244
1245 1246
1247 1248
1249 1250
1251 1252
1253 1254
1255 1256
1257 1258
1259 1260
1261 1262
1263 1264
1265 1266
1267 1268
1269 1270
1271 1272
1273 1274
1275 1276
1277 1278
1279 1280
1281 1282
1283 1284
1285 1286
1287 1288
1289 1290
1291 1292
1293 1294
1295 1296
1297 1298
1299 1300
1301 1302
1303 1304
1305 1306
1307 1308
1309 1310
1311 1312
1313 1314
1315 1316
1317 1318
1319 1320
1321 1322
1323 1324
1325 1326
1327 1328
1329 1330
1331 1332
1333 1334
1335 1336
1337 1338
1339 1340
1341 1342
1343 1344
1345 1346
1347 1348
1349 1350
1351 1352
1353 1354
1355 1356
1357 1358
1359 1360
1361 1362
1363 1364
1365 1366
1367 1368
1369 1370
1371 1372
1373 1374
1375 1376
1377 1378
1379 1380
1381 1382
1383 1384
1385 1386
1387 1388
1389 1390
1391 1392
1393 1394
1395 1396
1397 1398
1399 1400
1401 1402
1403 1404
1405 1406
1407 1408
1409 1410
1411 1412
1413 1414
1415 1416
1417 1418
1419 1420
1421 1422
1423 1424
1425 1426
1427 1428
1429 1430
1431 1432
1433 1434
1435 1436
1437 1438
1439 1440
1441 1442
1443 1444
1445 1446
1447 1448
1449 1450
1451 1452
1453 1454
1455 1456
1457 1458
1459 1460
1461 1462
1463 1464
1465 1466
1467 1468
1469 1470
1471 1472
1473 1474
1475 1476
1477 1478
1479 1480
1481 1482
1483 1484
1485 1486
1487 1488
1489 1490
1491 1492
1493 1494
1495 1496
1497 1498
1499 1500
1501 1502
1503 1504
1505 1506
1507 1508
1509 1510
1511 1512
1513 1514
1515 1516
1517 1518
1519 1520
1521 1522
1523 1524
1525 1526
1527 1528
1529 1530
1531 1532
1533 1534
1535 1536
1537 1538
1539 1540
1541 1542
1543 1544
1545 1546
1547 1548
1549 1550
1551 1552
1553 1554
1555 1556
1557 1558
1559 1560
1561 1562
1563 1564
1565 1566
1567 1568
1569 1570
1571 1572
1573 1574
1575 1576
1577 1578
1579 1580
1581 1582
1583 1584
1585 1586
1587 1588
1589 1590
1591 1592
1593 1594
1595 1596
1597 1598
1599 1600
1601 1602
1603 1604
1605 1606
1607 1608
1609 1610
1611 1612
1613 1614
1615 1616
1617 1618
1619 1620
1621 1622
1623 1624
1625 1626
1627 1628
1629 1630
1631 1632
1633 1634
1635 1636
1637 1638
1639 1640
1641 1642
1643 1644
1645 1646
1647 1648
1649 1650
1651 1652
1653 1654
1655 1656
1657 1658
1659 1660
1661 1662
1663 1664
1665 1666
1667 1668
1669 1670
1671 1672
1673 1674
1675 1676
1677 1678
1679 1680
1681 1682
1683 1684
1685 1686
1687 1688
1689 1690
1691 1692
1693 1694
1695 1696
1697 1698
1699 1700
1701 1702
1703 1704
1705 1706
1707 1708
1709 1710
1711 1712
1713 1714
1715 1716
1717 1718
1719 1720
1721 1722
1723 1724
1725 1726
1727 1728
1729 1730
1731 1732
1733 1734
1735 1736
1737 1738
1739 1740
1741 1742
1743 1744
1745 1746
1747 1748
1749 1750
1751 1752
1753 1754
1755 1756
1757 1758
1759 1760
1761 1762
1763 1764
1765 1766
1767 1768
1769 1770
1771 1772
1773 1774
1775 1776
1777 1778
1779 1780
1781 1782
1783 1784
1785 1786
1787 1788
1789 1790
1791 1792
1793 1794
1795 1796
1797 1798
1799 1800
1801 1802
1803 1804
1805 1806
1807 1808
1809 1810
1811 1812
1813 1814
1815 1816
1817 1818
1819 1820
1821 1822
1823 1824
1825 1826
1827 1828
1829 1830
1831 1832
1833 1834
1835 1836
1837 1838
1839 1840
1841 1842
1843 1844
1845 1846
1847 1848
1849 1850
1851 1852
1853 1854
1855 1856
1857 1858
1859 1860
1861 1862
1863 1864
1865 1866
1867 1868
1869 1870
1871 1872
1873 1874
1875 1876
1877 1878
1879 1880
1881 1882
1883 1884
1885 1886
1887 1888
1889 1890
1891 1892
1893 1894
1895 1896
1897 1898
1899 1900
1901 1902
1903 1904
1905 1906
1907 1908
1909 1910
1911 1912
1913 1914
1915 1916
1917 1918
1919 1920
1921 1922
1923 1924
1925 1926
1927 1928
1929 1930
1931 1932
1933 1934
1935 1936
1937 1938
1939 1940
1941 1942
1943 1944
1945 1946
1947 1948
1949 1950
1951 1952
1953 1954
1955 1956
1957 1958
1959 1960
1961 1962
1963 1964
1965 1966
1967 1968
1969 1970
1971 1972
1973 1974
1975 1976
1977 1978
1979 1980
1981 1982
1983 1984
1985 1986
1987 1988
1989 1990
1991 1992
1993 1994
1995 1996
1997 1998
1999 2000
2001 2002
2003 2004
2005 2006
2007 2008
2009 2010
2011 2012
2013 2014
2015 2016
2017 2018
2019 2020
2021 2022
2023 2024
2025 2026
2027 2028
2029 2030
2031 2032
2033 2034
2035 2036
2037 2038
2039 2040
2041 2042
2043 2044
2045 2046
2047 2048
2049 2050
2051 2052
2053 2054
2055 2056
2057 2058
2059 2060
2061 2062
2063 2064
2065 2066
2067 2068
2069 2070
2071 2072
2073 2074
2075 2076
2077 2078
2079 2080
2081 2082
2083 2084
2085 2086
2087 2088
2089 2090
2091 2092
2093 2094
2095 2096
2097 2098
2099 2100
2101 2102
2103 2104
2105 2106
2107 2108
2109 2110
2111 2112
2113 2114
2115 2116
2117 2118
2119 2120
2121 2122
2123 2124
2125 2126
2127 2128
2129 2130
2131 2132
2133 2134
2135 2136
2137 2138
2139 2140
2141 2142
2143 2144
2145 2146
2147 2148
2149 2150
2151 2152
2153 2154
2155 2156
2157 2158
2159 2160
2161 2162
2163 2164
2165 2166
2167 2168
2169 2170
2171 2172
2173 2174
2175 2176
2177 2178
2179 2180
2181 2182
2183 2184
2185 2186
2187 2188
2189 2190
2191 2192
2193 2194
2195 2196
2197 2198
2199 2200
2201 2202
2203 2204
2205 2206
2207 2208
2209 2210
2211 2212
2213 2214
2215 2216
2217 2218
2219 2220
2221 2222
2223 2224
2225 2226
2227 2228
2229 2230
2231 2232
2233 2234
2235 2236
2237 2238
2239 2240
2241 2242
2243 2244
2245 2246
2247 2248
2249 2250
2251 2252
2253 2254
2255 2256
2257 2258
2259 2260
2261 2262
2263 2264
2265 2266
2267 2268
2269 2270
2271 2272
2273 2274
2275 2276
2277 2278
2279 2280
2281 2282
2283 2284
2285 2286
2287 2288
2289 2290
2291 2292
2293 2294
2295 2296
2297 2298
2299 2300
2301 2302
2303 2304
2305 2306
2307 2308
2309 2310
2311 2312
2313 2314
2315 2316
2317 2318
2319 2320
2321 2322
2323 2324
2325 2326
2327 2328
2329 2330
2331 2332
2333 2334
2335 2336
2337 2338
2339 2340
2341 2342
2343 2344
2345 2346
2347 2348
2349 2350
2351 2352
2353 2354
2355 2356
2357 2358
2359 2360
2361 2362
2363 2364
2365 2366
2367 2368
2369 2370
2371 2372
2373 2374
2375 2376
2377 2378
2379 2380
2381 2382
2383 2384
2385 2386
2387 2388
2389 2390
2391 2392
2393 2394
2395 2396
2397 2398
2399 2400
2401 2402
2403 2404
2405 2406
2407 2408
2409 2410
2411 2412
2413 2414
2415 2416
2417 2418
2419 2420
2421 2422
2423 2424
2425 2426
2427 2428
2429 2430
2431 2432
2433 2434
2435 2436
2437 2438
2439 2440
2441 2442
2443 2444
2445 2446
2447 2448
2449 2450
2451 2452
2453 2454
2455 2456
2457 2458
2459 2460
2461 2462
2463 2464
2465 2466
2467 2468
2469 2470
2471 2472
2473 2474
2475 2476
2477 2478
2479 2480
2481 2482
2483 2484
2485 2486
2487 2488
2489 2490
2491 2492
2493 2494
2495 2496
2497 2498
2499 2500
2501 2502
2503 2504
2505 2506
2507 2508
2509 2510
2511 2512
2513 2514
2515 2516
2517 2518
2519 2520
2521 2522
2523 2524
2525 2526
2527 2528
2529 2530
2531 2532
2533 2534
2535 2536
2537 2538
2539 2540
2541 2542
2543 2544
2545 2546
2547 2548
2549 2550
2551 2552
2553 2554
2555 2556
2557 2558
2559 2560
2561 2562
2563 2564
2565 2566
2567 2568
2569 2570
2571 2572
2573 2574
2575 2576
2577 2578
2579 2580
2581 2582
2583 2584
2585 2586
2587 2588
2589 2590
2591 2592
2593 2594
2595 2596
2597 2598
2599 2600
2601 2602
2603 2604
2605 2606
2607 2608
2609 2610
2611 2612
2613 2614
2615 2616
2617 2618
2619 2620
2621 2622
2623 2624
2625 2626
2627 2628
2629 2630
2631 2632
2633 2634
2635 2636
2637 2638
2639 2640
2641 2642
2643 2644
2645 2646
2647 2648
2649 2650
2651 2652
2653 2654
2655 2656
2657 2658
2659 2660
2661 2662
2663 2664
2665 2666
2667 2668
2669 2670
2671 2672
2673 2674
2675 2676
2677 2678
2679 2680
2681 2682
2683 2684
2685 2686
2687 2688
2689 2690
2691 2692
2693 2694
2695 2696
2697 2698
2699 2700
2701 2702
2703 2704
2705 2706
2707 2708
2709 2710
2711 2712
2713 2714
2715 2716
2717 2718
2719 2720
2721 2722
2723 2724
2725 2726
2727 2728
2729 2730
2731 2732
2733 2734
2735 2736
2737 2738
2739 2740
2741 2742
2743 2744
2745 2746
2747 2748
2749 2750
2751 2752
2753 2754
2755 2756
2757 2758
2759 2760
2761 2762
2763 2764
2765 2766
2767 2768
2769 2770
2771 2772
2773 2774
2775 2776
2777 2778
2779 2780
2781 2782
2783 2784
2785 2786
2787 2788
2789 2790
2791 2792
2793 2794
2795 2796
2797 2798
2799 2800
2801 2802
2803 2804
2805 2806
2807 2808
2809 2810
2811 2812
2813 2814
2815 2816
2817 2818
2819 2820
2821 2822
2823 2824
2825 2826
2827 2828
2829 2830
2831 2832
2833 2834
2835 2836
2837 2838
2839 2840
2841 2842
2843 2844
2845 2846
2847 2848
2849 2850
2851 2852
2853 2854
2855 2856
2857 2858
2859 2860
2861 2862
2863 2864
2865 2866
2867 2868
2869 2870
2871 2872
2873 2874
2875 2876
2877 2878
2879 2880
2881 2882
2883 2884
2885 2886
2887 2888
2889 2890
2891 2892
2893 2894
2895 2896
2897 2898
2899 2900
2901 2902
2903 2904
2905 2906
2907 2908
2909 2910
2911 2912
2913 2914
2915 2916
2917 2918
2919 2920
2921 2922
2923 2924
2925 2926
2927 2928
2929 2930
2931 2932
2933 2934
2935 2936
2937 2938
2939 2940
2941 2942
2943 2944
2945 2946
2947 2948
2949 2950
2951 2952
2953 2954
2955 2956
2957 2958
2959 2960
2961 2962
2963 2964
2965 2966
2967 2968
2969 2970
2971 2972
2973 2974
2975 2976
2977 2978
2979 2980
2981 2982
2983 2984
2985 2986
2987 2988
2989 2990
2991 2992
2993 2994
2995 2996
2997 2998
2999 3000
3001 3002
3003 3004
3005 3006
3007 3008
3009 3010
3011 3012
3013 3014
3015 3016
3017 3018
3019 3020
3021 3022
3023 3024
3025 3026
3027 3028
3029 3030
3031 3032
3033 3034
3035 3036
3037 3038
3039 3040
3041 3042
3043 3044
3045 3046
3047 3048
3049 3050
3051 3052
3053 3054
3055 3056
3057 3058
3059 3060
3061 3062
3063 3064
3065 3066
3067 3068
3069 3070
3071 3072
3073 3074
3075 3076
3077 3078
3079 3080
3081 3082
3083 3084
3085 3086
3087 3088
3089 3090
3091 3092
3093 3094
3095 3096
3097 3098
3099 3100
3101 3102
3103 3104
3105 3106
3107 3108
3109 3110
3111 3112
3113 3114
3115 3116
3117 3118
3119 3120
3121 3122
3123 3124
3125 3126
3127 3128
3129 3130
3131 3132
3133 3134
3135 3136
3137 3138
3139 3140
3141 3142
3143 3144
3145 3146
3147 3148
3149 3150
3151 3152
3153 3154
3155 3156
3157 3158
3159 3160
3161 3162
3163 3164
3165 3166
3167 3168
3169 3170
3171 3172
3173 3174
3175 3176
3177 3178
3179 3180
3181 3182
3183 3184
3185 3186
3187 3188
3189 3190
3191 3192
3193 3194
3195 3196
3197 3198
3199 3200
3201 3202
3203 3204
3205 3206
3207 3208
3209 3210
3211 3212
3213 3214
3215 3216
3217 3218
3219 3220
3221 3222
3223 3224
3225 3226
3227 3228
3229 3230
3231 3232
3233 3234
3235 3236
3237 3238
3239 3240
3241 3242
3243 3244
3245 3246
3247 3248
3249 3250
3251 3252
3253 3254
3255 3256
3257 3258
3259 3260
3261 3262
3263 3264
3265 3266
3267 3268
3269 3270
3271 3272
3273 3274
3275 3276
3277 3278
3279 3280
3281 3282
3283 3284
3285 3286
3287 3288
3289 3290
3291 3292
3293 3294
3295 3296
3297 3298
3299 3300
3301 3302
3303 3304
3305 3306
3307 3308
3309 3310
3311 3312
3313 3314
3315 3316
3317 3318
3319 3320
3321 3322
3323 3324
3325 3326
3327 3328
3329 3330
3331 3332
3333 3334
3335 3336
3337 3338
3339 3340
3341 3342
3343 3344
3345 3346
3347 3348
3349 3350
3351 3352
3353 3354
3355 3356
3357 3358
3359 3360
3361 3362
3363 3364
3365 3366
3367 3368
3369 3370
3371 3372
3373 3374
3375 3376
3377 3378
3379 3380
3381 3382
3383 3384
3385 3386
3387 3388
3389 3390
3391 3392
3393 3394
3395 3396
3397 3398
3399 3400
3401 3402
3403 3404
3405 3406
3407 3408
3409 3410
3411 3412
3413 3414
3415 3416
3417 3418
3419 3420
3421 3422
3423 3424
3425 3426
3427 3428
3429 3430
3431 3432
3433 3434
3435 3436
3437 3438
3439 3440
3441 3442
3443 3444
3445 3446
3447 3448
3449 3450
3451 3452
3453 3454
3455 3456
3457 3458
3459 3460
3461 3462
3463 3464
3465 3466
3467 3468
3469 3470
3471 3472
3473 3474
3475 3476
3477 3478
3479 3480
3481 3482
3483 3484
3485 3486
      </DataArray>
      <DataArray type="Int32" Name="offsets" format="ascii">
6
12
18
24
30
36
42
48
54
60
66
72
78
84
90
96
102
108
114
120
126
132
138
144
150
156
162
168
174
180
186
192
198
204
210
216
222
228
234
240
246
252
258
264
270
276
282
288
294
300
306
312
318
324
330
336
342
348
354
360
366
372
378
384
390
396
402
408
414
420
426
432
438
444
450
456
462
468
474
480
486
492
498
504
510
516
522
528
534
540
546
552
558
564
570
576
582
588
594
600
606
612
618
624
630
636
642
648
654
660
666
672
678
684
690
696
702
708
714
720
726
732
738
744
750
756
762
768
774
780
786
792
798
804
810
816
822
828
834
840
846
852
858
864
870
876
882
888
894
900
906
912
918
924
930
936
942
948
954
960
966
972
978
984
990
996
1002
1008
1014
1020
1026
1032
1038
1044
1050
1056
1062
1068
1074
1080
1086
1092
1098
1104
1110
1116
1122
1128
1134
1140
1146
1152
1158
1164
1170
1176
1182
1188
1194
1200
1206
1212
1218
1224
1230
1236
1242
1248
1254
1260
1266
1272
1278
1284
1290
1296
1302
1308
1314
1320
1326
1332
1338
1344
1350
1356
1362
1368
1374
1380
1386
1392
1398
1404
1410
1416
1422
1428
1434
1440
1446
1452
1458
1464
1470
1476
1482
1488
1494
1500
1506
1512
1518
1524
1530
1536
1542
1548
1554
1560
1566
1572
1578
1584
1590
1596
1602
1608
1614
1620
1626
1632
1638
1644
1650
1656
1662
1668
1674
1680
1686
1692
1698
1704
1710
1716
1722
1728
1734
1740
1746
1752
1758
1764
1770
1776
1782
1788
1794
1800
1806
1812
1818
1824
1830
1836
1842
1848
1854
1860
1866
1872
1878
1884
1890
1896
1902
1908
1914
1920
1926
1932
1938
1944
1950
1956
1962
1968
1974
1980
1986
1992
1998
2004
2010
2016
2022
2028
2034
2040
2046
2052
2058
2064
2070
2076
2082
2088
2094
2100
2106
2112
2118
2124
2130
2136
2142
2148
2154
2160
2166
2172
2178
2184
2190
2196
2202
2208
2214
2220
2226
2232
2238
2244
2250
2256
2262
2268
2274
2280
2286
2292
2298
2304
2310
2316
2322
2328
2334
2340
2346
2352
2358
2364
2370
2376
2382
2388
2394
2400
2406
2412
2418
2424
2430
2436
2442
2448
2454
2460
2466
2472
2478
2484
2490
2496
2502
2508
2514
2520
2526
2532
2538
2544
2550
2556
2562
2568
2574
2580
2586
2592
2598
2604
2610
2616
2622
2628
2634
2640
2646
2652
2658
2664
2670
2676
2682
2688
2694
2700
2706
2712
2718
2724
2730
2736
2742
2748
2754
2760
2766
2772
2778
2784
2790
2796
2802
2808
2814
2820
2826
2832
2838
2844
2850
2856
2862
2868
2874
2880
2886
2892
2898
2904
2910
2916
2922
2928
2934
2940
2946
2952
2958
2964
2970
2976
2982
2988
2994
3000
3006
3012
3018
3024
3030
3036
3042
3048
3054
3060
3066
3072
3078
3084
3090
3096
3102
3108
3114
3120
3126
3132
3138
3144
3150
3156
3162
3168
3174
3180
3186
3192
3198
3204
3210
3216
3222
3228
3234
3240
3246
3252
3258
3264
3270
3276
3282
3288
3294
3300
3306
3312
3318
3324
3326
3328
3330
3332
3334
3336
3338
3340
3342
3344
3346
3348
3350
3352
3354
3356
3358
3360
3362
3364
3366
3368
3370
3372
3374
3376
3378
3380
3382
3384
3386
3388
3390
3392
3394
3396
3398
3400
3402
3404
3406
3408
3410
3412
3414
3416
3418
3420
3422
3424
3426
3428
3430
3432
3434
3436
3438
3440
3442
3444
3446
3448
3450
3452
3454
3456
3458
3460
3462
3464
3466
3468
3470
3472
3474
3476
3478
3480
3482
3484
3486
3488
3490
3492
3494
3496
3498
3500
3502
3504
3506
3508
3510
3512
3514
3516
3518
3520
3522
3524
3526
3528
3530
3532
3534
3536
3538
3540
3542
3544
3546
3548
3550
3552
3554
3556
3558
3560
3562
3564
3566
3568
3570
3572
3574
3576
3578
3580
3582
3584
3586
3588
3590
3592
3594
3596
3598
3600
3602
3604
3606
3608
3610
3612
3614
3616
3618
3620
3622
3624
3626
3628
3630
3632
3634
3636
3638
3640
3642
3644
3646
3648
3650
3652
3654
3656
3658
3660
3662
3664
3666
3668
3670
3672
3674
3676
3678
3680
3682
3684
3686
3688
3690
3692
3694
3696
3698
3700
3702
3704
3706
3708
3710
3712
3714
3716
3718
3720
3722
3724
3726
3728
3730
3732
3734
3736
3738
3740
3742
3744
3746
3748
3750
3752
3754
3756
3758
3760
3762
3764
3766
3768
3770
3772
3774
3776
3778
3780
3782
3784
3786
3788
3790
3792
3794
3796
3798
3800
3802
3804
3806
3808
3810
3812
3814
3816
3818
3820
3822
3824
3826
3828
3830
3832
3834
3836
3838
3840
3842
3844
3846
3848
3850
3852
3854
3856
3858
3860
3862
3864
3866
3868
3870
3872
3874
3876
3878
3880
3882
3884
3886
3888
3890
3892
3894
3896
3898
3900
3902
3904
3906
3908
3910
3912
3914
3916
3918
3920
3922
3924
3926
3928
3930
3932
3934
3936
3938
3940
3942
3944
3946
3948
3950
3952
3954
3956
3958
3960
3962
3964
3966
3968
3970
3972
3974
3976
3978
3980
3982
3984
3986
3988
3990
3992
3994
3996
3998
4000
4002
4004
4006
4008
4010
4012
4014
4016
4018
4020
4022
4024
4026
4028
4030
4032
4034
4036
4038
4040
4042
4044
4046
4048
4050
4052
4054
4056
4058
4060
4062
4064
4066
4068
4070
4072
4074
4076
4078
4080
4082
4084
4086
4088
4090
4092
4094
4096
4098
4100
4102
4104
4106
4108
4110
4112
4114
4116
4118
4120
4122
4124
4126
4128
4130
4132
4134
4136
4138
4140
4142
4144
4146
4148
4150
4152
4154
4156
4158
4160
4162
4164
4166
4168
4170
4172
4174
4176
4178
4180
4182
4184
4186
4188
4190
4192
4194
4196
4198
4200
4202
4204
4206
4208
4210
4212
4214
4216
4218
4220
4222
4224
4226
4228
4230
4232
4234
4236
4238
4240
4242
4244
4246
4248
4250
4252
4254
4256
4258
4260
4262
4264
4266
4268
4270
4272
4274
4276
4278
4280
4282
4284
4286
4288
4290
4292
4294
4296
4298
4300
4302
4304
4306
4308
4310
4312
4314
4316
4318
4320
4322
4324
4326
4328
4330
4332
4334
4336
4338
4340
4342
4344
4346
4348
4350
4352
4354
4356
4358
4360
4362
4364
4366
4368
4370
4372
4374
4376
4378
4380
4382
4384
4386
4388
4390
4392
4394
4396
4398
4400
4402
4404
4406
4408
4410
4412
4414
4416
4418
4420
4422
4424
4426
4428
4430
4432
4434
4436
4438
4440
4442
4444
4446
4448
4450
4452
4454
4456
4458
4460
4462
4464
4466
4468
4470
4472
4474
4476
4478
4480
4482
4484
4486
4488
4490
4492
4494
4496
4498
4500
4502
4504
4506
4508
4510
4512
4514
4516
4518
4520
4522
4524
4526
4528
4530
4532
4534
4536
4538
4540
4542
4544
4546
4548
4550
4552
4554
4556
4558
4560
4562
4564
4566
4568
4570
4572
4574
4576
4578
4580
4582
4584
4586
4588
4590
4592
4594
4596
4598
4600
4602
4604
4606
4608
4610
4612
4614
4616
4618
4620
4622
4624
4626
4628
4630
4632
4634
4636
4638
4640
4642
4644
4646
4648
4650
4652
4654
4656
4658
4660
4662
4664
4666
4668
4670
4672
4674
4676
4678
4680
4682
4684
4686
4688
4690
4692
4694
4696
4698
4700
4702
4704
4706
4708
4710
4712
4714
4716
4718
4720
4722
4724
4726
4728
4730
4732
4734
4736
4738
4740
4742
4744
4746
4748
4750
4752
4754
4756
4758
4760
4762
4764
4766
4768
4770
4772
4774
4776
4778
4780
4782
4784
4786
4788
4790
4792
4794
4796
4798
4800
4802
4804
4806
4808
4810
4812
4814
4816
4818
4820
4822
4824
4826
4828
4830
4832
4834
4836
4838
4840
4842
4844
4846
4848
4850
4852
4854
4856
4858
4860
4862
4864
4866
4868
4870
4872
4874
4876
4878
4880
4882
4884
4886
4888
4890
4892
4894
4896
4898
4900
4902
4904
4906
4908
4910
4912
4914
4916
4918
4920
4922
4924
4926
4928
4930
4932
4934
4936
4938
4940
4942
4944
4946
4948
4950
4952
4954
4956
4958
4960
4962
4964
4966
4968
4970
4972
4974
4976
4978
4980
4982
4984
4986
4988
4990
4992
4994
4996
4998
5000
5002
5004
5006
5008
5010
5012
5014
5016
5018
5020
5022
5024
5026
5028
5030
5032
5034
5036
5038
5040
5042
5044
5046
5048
5050
5052
5054
5056
5058
5060
5062
5064
5066
5068
5070
5072
5074
5076
5078
5080
5082
5084
5086
5088
5090
5092
5094
5096
5098
5100
5102
5104
5106
5108
5110
5112
5114
5116
5118
5120
5122
5124
5126
5128
5130
5132
5134
5136
5138
5140
5142
5144
5146
5148
5150
5152
5154
5156
5158
5160
5162
5164
5166
5168
5170
5172
5174
5176
5178
5180
5182
5184
5186
5188
5190
5192
5194
5196
5198
5200
5202
5204
5206
5208
5210
5212
5214
5216
5218
5220
5222
5224
5226
5228
5230
5232
5234
5236
5238
5240
5242
5244
5246
5248
5250
5252
5254
5256
5258
5260
5262
5264
5266
5268
5270
5272
5274
5276
5278
5280
5282
5284
5286
5288
5290
5292
5294
5296
5298
5300
5302
5304
5306
5308
5310
5312
5314
5316
5318
5320
5322
5324
5326
5328
5330
5332
5334
5336
5338
5340
5342
5344
5346
5348
5350
5352
5354
5356
5358
5360
5362
5364
5366
5368
5370
5372
5374
5376
5378
5380
5382
5384
5386
5388
5390
5392
5394
5396
5398
5400
5402
5404
5406
5408
5410
5412
5414
5416
5418
5420
5422
5424
5426
5428
5430
5432
5434
5436
5438
5440
5442
5444
5446
5448
5450
5452
5454
5456
5458
5460
5462
5464
5466
5468
5470
5472
5474
5476
5478
5480
5482
5484
5486
5488
5490
5492
5494
5496
5498
5500
5502
5504
5506
5508
5510
5512
5514
5516
5518
5520
5522
5524
5526
5528
5530
5532
5534
5536
5538
5540
5542
5544
5546
5548
5550
5552
5554
5556
5558
5560
5562
5564
5566
5568
5570
5572
5574
5576
5578
5580
5582
5584
5586
5588
5590
5592
5594
5596
5598
5600
5602
5604
5606
5608
5610
5612
      </DataArray>
      <DataArray type="UInt8" Name="types" format="ascii">
69
69
69
69
69
69
69
69
69
69
69
69
69
69
69
69
69
69
69
69
69
69
69
69
69
69
69
69
69
69
69
69
69
69
69
69
69
69
69
69
69
69
69
69
69
69
69
69
69
69
69
69
69
69
69
69
69
69
69
69
69
69
69
69
69
69
69
69
69
69
69
69
69
69
69
69
69
69
69
69
69
69
69
69
69
69
69
69
69
69
69
69
69
69
69
69
69
69
69
69
69
69
69
69
69
69
69
69
69
69
69
69
69
69
69
69
69
69
69
69
69
69
69
69
69
69
69
69
69
69
69
69
69
69
69
69
69
69
69
69
69
69
69
69
69
69
69
69
69
69
69
69
69
69
69
69
69
69
69
69
69
69
69
69
69
69
69
69
69
69
69
69
69
69
69
69
69
69
69
69
69
69
69
69
69
69
69
69
69
69
69
69
69
69
69
69
69
69
69
69
69
69
69
69
69
69
69
69
69
69
69
69
69
69
69
69
69
69
69
69
69
69
69
69
69
69
69
69
69
69
69
69
69
69
69
69
69
69
69
69
69
69
69
69
69
69
69
69
69
69
69
69
69
69
69
69
69
69
69
69
69
69
69
69
69
69
69
69
69
69
69
69
69
69
69
69
69
69
69
69
69
69
69
69
69
69
69
69
69
69
69
69
69
69
69
69
69
69
69
69
69
69
69
69
69
69
69
69
69
69
69
69
69
69
69
69
69
69
69
69
69
69
69
69
69
69
69
69
69
69
69
69
69
69
69
69
69
69
69
69
69
69
69
69
69
69
69
69
69
69
69
69
69
69
69
69
69
69
69
69
69
69
69
69
69
69
69
69
69
69
69
69
69
69
69
69
69
69
69
69
69
69
69
69
69
69
69
69
69
69
69
69
69
69
69
69
69
69
69
69
69
69
69
69
69
69
69
69
69
69
69
69
69
69
69
69
69
69
69
69
69
69
69
69
69
69
69
69
69
69
69
69
69
69
69
69
69
69
69
69
69
69
69
69
69
69
69
69
69
69
69
69
69
69
69
69
69
69
69
69
69
69
69
69
69
69
69
69
69
69
69
69
69
69
69
69
69
69
69
69
69
69
69
69
69
69
69
69
69
69
69
69
69
69
69
69
69
69
69
69
69
69
69
69
69
69
69
69
69
69
69
69
69
69
69
69
69
69
69
69
69
69
69
69
69
69
69
69
69
69
69
69
69
69
69
69
69
69
69
69
69
69
69
69
69
69
69
69
69
69
69
69
69
69
3
3
3
3
3
3
3
3
3
3
3
3
3
3
3
3
3
3
3
3
3
3
3
3
3
3
3
3
3
3
3
3
3
3
3
3
3
3
3
3
3
3
3
3
3
3
3
3
3
3
3
3
3
3
3
3
3
3
3
3
3
3
3
3
3
3
3
3
3
3
3
3
3
3
3
3
3
3
3
3
3
3
3
3
3
3
3
3
3
3
3
3
3
3
3
3
3
3
3
3
3
3
3
3
3
3
3
3
3
3
3
3
3
3
3
3
3
3
3
3
3
3
3
3
3
3
3
3
3
3
3
3
3
3
3
3
3
3
3
3
3
3
3
3
3
3
3
3
3
3
3
3
3
3
3
3
3
3
3
3
3
3
3
3
3
3
3
3
3
3
3
3
3
3
3
3
3
3
3
3
3
3
3
3
3
3
3
3
3
3
3
3
3
3
3
3
3
3
3
3
3
3
3
3
3
3
3
3
3
3
3
3
3
3
3
3
3
3
3
3
3
3
3
3
3
3
3
3
3
3
3
3
3
3
3
3
3
3
3
3
3
3
3
3
3
3
3
3
3
3
3
3
3
3
3
3
3
3
3
3
3
3
3
3
3
3
3
3
3
3
3
3
3
3
3
3
3
3
3
3
3
3
3
3
3
3
3
3
3
3
3
3
3
3
3
3
3
3
3
3
3
3
3
3
3
3
3
3
3
3
3
3
3
3
3
3
3
3
3
3
3
3
3
3
3
3
3
3
3
3
3
3
3
3
3
3
3
3
3
3
3
3
3
3
3
3
3
3
3
3
3
3
3
3
3
3
3
3
3
3
3
3
3
3
3
3
3
3
3
3
3
3
3
3
3
3
3
3
3
3
3
3
3
3
3
3
3
3
3
3
3
3
3
3
3
3
3
3
3
3
3
3
3
3
3
3
3
3
3
3
3
3
3
3
3
3
3
3
3
3
3
3
3
3
3
3
3
3
3
3
3
3
3
3
3
3
3
3
3
3
3
3
3
3
3
3
3
3
3
3
3
3
3
3
3
3
3
3
3
3
3
3
3
3
3
3
3
3
3
3
3
3
3
3
3
3
3
3
3
3
3
3
3
3
3
3
3
3
3
3
3
3
3
3
3
3
3
3
3
3
3
3
3
3
3
3
3
3
3
3
3
3
3
3
3
3
3
3
3
3
3
3
3
3
3
3
3
3
3
3
3
3
3
3
3
3
3
3
3
3
3
3
3
3
3
3
3
3
3
3
3
3
3
3
3
3
3
3
3
3
3
3
3
3
3
3
3
3
3
3
3
3
3
3
3
3
3
3
3
3
3
3
3
3
3
3
3
3
3
3
3
3
3
3
3
3
3
3
3
3
3
3
3
3
3
3
3
3
3
3
3
3
3
3
3
3
3
3
3
3
3
3
3
3
3
3
3
3
3
3
3
3
3
3
3
3
3
3
3
3
3
3
3
3
3
3
3
3
3
3
3
3
3
3
3
3
3
3
3
3
3
3
3
3
3
3
3
3
3
3
3
3
3
3
3
3
3
3
3
3
3
3
3
3
3
3
3
3
3
3
3
3
3
3
3
3
3
3
3
3
3
3
3
3
3
3
3
3
3
3
3
3
3
3
3
3
3
3
3
3
3
3
3
3
3
3
3
3
3
3
3
3
3
3
3
3
3
3
3
3
3
3
3
3
3
3
3
3
3
3
3
3
3
3
3
3
3
3
3
3
3
3
3
3
3
3
3
3
3
3
3
3
3
3
3
3
3
3
3
3
3
3
3
3
3
3
3
3
3
3
3
3
3
3
3
3
3
3
3
3
3
3
3
3
3
3
3
3
3
3
3
3
3
3
3
3
3
3
3
3
3
3
3
3
3
3
3
3
3
3
3
3
3
3
3
3
3
3
3
3
3
3
3
3
3
3
3
3
3
3
3
3
3
3
3
3
3
3
3
3
3
3
3
3
3
3
3
3
3
3
3
3
3
3
3
3
3
3
3
3
3
3
3
3
3
3
3
3
3
3
3
3
3
3
3
3
3
3
3
3
3
3
3
3
3
3
3
3
3
3
3
3
3
3
3
3
3
3
3
3
3
3
3
3
3
3
3
3
3
3
3
3
3
3
3
3
3
3
3
3
3
3
3
3
3
3
3
3
3
3
3
3
3
3
3
3
3
3
3
3
3
3
3
3
3
3
3
3
3
3
3
3
3
3
3
3
3
3
3
3
3
3
3
3
3
3
3
3
3
3
3
3
3
3
3
3
3
3
3
3
3
3
3
3
3
3
3
3
3
3
3
3
3
3
3
3
3
3
3
3
3
3
3
3
3
3
3
3
3
3
3
3
3
3
3
3
3
3
3
3
3
3
3
3
3
3
3
3
3
3
3
3
3
3
3
3
3
3
3
3
3
3
3
3
3
3
3
3
3
3
3
3
3
3
3
3
3
3
3
3
3
3
3
3
3
3
3
3
3
3
3
3
3
3
3
3
3
3
3
3
3
3
3
3
3
3
3
3
3
3
3
3
3
3
3
3
3
3
3
3
3
3
3
3
3
3
3
3
3
3
3
3
3
3
3
3
3
3
3
3
3
3
3
3
      </DataArray>
    </Cells>
    <PointData>
      <DataArray type="Float64" NumberOfComponents="2" Name="Displacement" format="ascii">
-0.00135019 -0.400026
0.00196523 -0.401015
-0.000376593 -0.399586
0.000303465 -0.399088
0.000662841 -0.398746
0.000912278 -0.398456
0.00106567 -0.398243
0.00116429 -0.398095
0.00120396 -0.397969
0.00120688 -0.397881
0.00117369 -0.397828
0.00111475 -0.397805
0.00102962 -0.397786
0.000927042 -0.397785
0.000808707 -0.397802
0.000681276 -0.397833
0.000545776 -0.397862
0.000408598 -0.397901
0.000273073 -0.397953
0.000143795 -0.398019
2.57164e-05 -0.398084
-7.83062e-05 -0.398167
-0.000162884 -0.398272
-0.000223936 -0.398401
-0.000250626 -0.39854
-0.000243897 -0.398719
-0.000192281 -0.398945
-9.06354e-05 -0.399226
0.000124313 -0.399526
0.000431622 -0.399933
0.00100827 -0.400494
-0.00714163 -0.399205
-0.00580093 -0.399264
-0.004468 -0.399372
-0.00308435 -0.399611
-0.115037 -0.506479
-0.00843888 -0.399206
-0.00973901 -0.399235
-0.011635 -0.399314
-0.0135485 -0.399441
-0.0163242 -0.399703
-0.0191346 -0.400055
-0.0232582 -0.400724
-0.0274343 -0.401579
-0.0335395 -0.403153
-0.0396853 -0.405117
-0.0441172 -0.406773
-0.0485284 -0.408631
-0.052895 -0.4107
-0.0571991 -0.412959
-0.063276 -0.416555
-0.0691512 -0.420513
-0.0747646 -0.424817
-0.0594562 -0.562307
-0.114057 -0.516707
-0.111919 -0.525846
-0.108902 -0.533799
-0.105181 -0.540579
-0.101009 -0.546272
0.0760174 -0.35106
-0.0493972 -0.56094
-0.0374986 -0.557303
-0.0236332 -0.551032
0 0
-0.0279424 -0.0253044
-0.0394279 -0.0419054
-0.0408787 -0.055283
-0.0338136 -0.0717034
-0.0242032 -0.0876895
-0.000334232 -0.381464
0 0
0 0
0 0
0 0
0.022219 -0.369599
0.0447456 -0.326258
0.0588623 -0.235222
-0.0752099 -0.351924
0.0280543 -0.0252671
0.0396027 -0.0420543
0.041083 -0.0555145
0.0340405 -0.0720068
0.0244307 -0.0880019
0.0596305 -0.562746
0.0495699 -0.56137
0.0377388 -0.55772
0.023833 -0.551527
0.114978 -0.507175
0.0676476 -0.562921
0.0745976 -0.562016
0.0808073 -0.560475
0.0863825 -0.558147
0.0915911 -0.555239
0.00755675 -0.400221
0.114615 -0.496445
0.112742 -0.485028
0.109194 -0.473165
0.103904 -0.461182
0.099185 -0.453014
0.0936362 -0.445063
0.0872647 -0.437471
0.0801593 -0.430331
0.0748378 -0.425737
0.0692407 -0.421449
0.0633825 -0.417502
0.057323 -0.413917
0.0486896 -0.409621
0.0398776 -0.406086
0.0337557 -0.404144
0.0276903 -0.40259
0.0235312 -0.401736
0.0062561 -0.400296
0.00496056 -0.400416
0.00358632 -0.400657
-0.00775089 -0.38822
0.034316 -0.386595
0.0268384 -0.37298
0.0454946 -0.302602
-0.0458786 -0.320529
-0.00704542 -0.418554
-0.013874 -0.382424
-0.0322358 -0.474325
-0.00568938 -0.405729
-0.0947979 -0.48901
-0.0296318 -0.0538948
0.0291241 -0.0549312
-0.0499522 -0.45274
-0.0182256 -0.412265
-0.00555631 -0.428809
-0.0077215 -0.428008
0.00314259 -0.426855
-0.0102032 -0.427336
0.00831319 -0.42951
0.00429628 -0.415819
-0.00203221 -0.421833
0.00152006 -0.42354
-0.00597539 -0.415933
-0.0147476 -0.429441
-0.020849 -0.43383
-0.0140818 -0.435477
0.00677077 -0.395318
-0.0053154 -0.395747
-0.00894771 -0.395684
0.00853165 -0.433588
0.0132844 -0.432312
-0.0152494 -0.406996
0.0145626 -0.406306
-0.00152503 -0.427277
0.00467048 -0.42002
0.0120947 -0.41068
-0.0139648 -0.410071
0.00140386 -0.426645
0.00579013 -0.39617
-0.00150569 -0.396066
-0.00600318 -0.396665
-0.00885345 -0.423309
0.0125692 -0.428494
0.0128992 -0.397441
0.0125591 -0.403675
0.00180725 -0.415637
-0.00447255 -0.418242
0.00516748 -0.42084
-0.00108821 -0.418315
-0.0132346 -0.404648
-0.0130569 -0.398009
-0.0194487 -0.429073
-0.0225607 -0.441456
0.0162938 -0.392118
0.00646697 -0.393388
-0.00305191 -0.395163
-0.0144952 -0.395086
-0.029101 -0.449594
-0.0256782 -0.45172
0.0215936 -0.446308
0.020303 -0.439244
0.0252428 -0.436973
0.0245896 -0.433018
-0.0199685 -0.391852
-0.0201646 -0.400448
0.0191546 -0.40002
0.0281627 -0.388036
-0.0132217 -0.441648
0.00231604 -0.42543
0.0167948 -0.407397
-0.00188565 -0.424812
0.0194552 -0.448188
0.00690835 -0.39669
0.00438489 -0.396116
0.000360894 -0.396361
0.00208397 -0.396164
-0.0012531 -0.396866
-0.00326177 -0.397096
-0.00206621 -0.397092
-0.00569326 -0.397316
-0.00879473 -0.419831
-0.0156925 -0.423272
0.0201438 -0.426843
0.0110316 -0.422892
0.00765615 -0.397236
0.0090445 -0.397795
0.0115361 -0.399538
0.0108961 -0.401999
0.0063567 -0.408087
0.0016492 -0.413029
-0.00205256 -0.414146
-0.00671668 -0.409224
-0.0113943 -0.402985
-0.0115843 -0.400521
-0.00843773 -0.398352
-0.00671148 -0.397776
-0.021893 -0.426982
-0.0342753 -0.445816
0.0237649 -0.383275
-0.0016733 -0.39293
-0.013185 -0.39115
-0.041176 -0.465525
0.0352632 -0.462718
0.0318593 -0.443528
0.0261188 -0.428641
-0.0313075 -0.386607
0.0372016 -0.38063
-0.0217131 -0.454902
0.0225986 -0.401473
-0.040899 -0.375659
-0.0178484 -0.406975
0.00601214 -0.435168
0.00497544 -0.397218
0.00354169 -0.396792
0.00129691 -0.396934
-0.000578019 -0.397304
-0.00200353 -0.39753
-0.00363651 -0.397897
-0.0110496 -0.418058
0.0123763 -0.419336
0.00645578 -0.398462
0.00683119 -0.401958
0.000967631 -0.409749
-0.00132936 -0.410666
-0.00659234 -0.402878
-0.00549898 -0.399118
-0.0211643 -0.417279
-0.0257607 -0.422867
-0.0294146 -0.42927
-0.0399686 -0.438754
-0.0631369 -0.469561
-0.0594498 -0.478869
0.0425814 -0.342239
0.0084374 -0.384747
-0.0346926 -0.362214
-0.0541086 -0.484588
0.051451 -0.483683
0.0509977 -0.470892
0.0476274 -0.456555
0.0412151 -0.443727
0.0307541 -0.427736
0.0289351 -0.42048
-0.0428415 -0.363147
0.0486837 -0.354006
-0.0458086 -0.484612
-0.0110778 -0.448788
0.0451407 -0.368144
0.0305564 -0.473257
0.0509101 -0.495276
-0.0302026 -0.392402
0.007465 -0.439121
0.00353353 -0.397855
0.00414139 -0.398362
0.00284758 -0.397315
0.00342174 -0.397445
0.00159117 -0.397299
0.00229351 -0.397243
9.25632e-05 -0.397541
0.000768255 -0.397434
-0.000895955 -0.39782
-0.000356759 -0.397715
-0.00209814 -0.398063
-0.0015332 -0.397881
-0.00297245 -0.398952
-0.00239209 -0.398425
-0.00366447 -0.411012
-0.00811033 -0.413671
-0.0151566 -0.416249
0.0196745 -0.415679
0.0149487 -0.416181
0.00606215 -0.413438
0.00245843 -0.411803
0.00503229 -0.399352
0.00494046 -0.40076
0.00347823 -0.403936
0.00151646 -0.40628
-0.00237082 -0.407194
-0.00350523 -0.404855
-0.00447722 -0.401549
-0.0039767 -0.399991
-0.0213732 -0.408941
-0.029004 -0.418454
-0.0454223 -0.431004
-0.0646363 -0.455581
-0.077794 -0.487658
0.0267654 -0.222128
0.0226197 -0.36428
0.00145975 -0.385103
-0.016639 -0.375491
-0.0313717 -0.239747
-0.068946 -0.508556
0.0708587 -0.510925
0.065581 -0.4693
0.039926 -0.433213
0.0270749 -0.412892
0.00338331 -0.097801
-0.0400336 -0.278368
-0.00571816 -0.0935374
0.0346555 -0.263177
-0.0399174 -0.498704
0.0348165 -0.384178
0.0601502 -0.332435
0.0509206 -0.510761
-0.0581605 -0.342691
-0.0169143 -0.408027
0.00234412 -0.398314
0.0020056 -0.397745
0.00142559 -0.397631
0.000586351 -0.39775
-0.000236346 -0.397946
-0.000899649 -0.398246
-0.00131049 -0.398889
-0.00735247 -0.409258
-0.0151167 -0.408793
0.0129804 -0.409787
0.00455258 -0.409195
0.00230025 -0.400159
-0.00033263 -0.404371
-0.00306667 -0.404744
0.00258803 -0.406269
-0.000381171 -0.405251
-0.00153088 -0.400725
-0.0136528 -0.404523
0.0137177 -0.406503
-0.0228122 -0.403555
-0.0258791 -0.407423
-0.0319069 -0.409345
-0.0363336 -0.415556
-0.0462879 -0.419156
-0.0552736 -0.428677
-0.0661088 -0.43777
-0.0785292 -0.452737
-0.0906983 -0.468028
0.0198731 -0.235559
0.00743525 -0.353887
-0.00699552 -0.362348
-0.0189522 -0.253602
-0.0945377 -0.507122
-0.0906348 -0.521911
-0.0845035 -0.533771
-0.0786757 -0.545818
-0.0615782 -0.538551
0.0653018 -0.541993
0.0791365 -0.54522
0.0861809 -0.535247
0.0912194 -0.521041
0.0946198 -0.502705
0.0877096 -0.480382
0.0792252 -0.458718
0.0701578 -0.440114
0.0548174 -0.429966
0.0467754 -0.41605
0.0381489 -0.412027
0.0320247 -0.410075
0.0226819 -0.405874
0.0275288 -0.097618
-0.00140333 -0.177121
-0.0319678 -0.260724
-0.0279011 -0.0956217
0.0264944 -0.245106
0.000347902 -0.171989
-0.0420847 -0.529018
-0.0182758 -0.520175
0.034465 -0.396724
0.0482977 -0.532685
-0.0126721 -0.429272
0.0274811 -0.515424
0.00105331 -0.398972
0.00092239 -0.399468
0.00128099 -0.398475
0.00143712 -0.398082
0.00138195 -0.398255
0.00146042 -0.397871
0.00131797 -0.39778
0.00140192 -0.397818
0.00108793 -0.397768
0.000790403 -0.397805
0.000944974 -0.397785
0.000466203 -0.397878
0.000137723 -0.397969
0.000301329 -0.397923
-0.000146143 -0.398089
-0.000397497 -0.398258
-0.000279617 -0.398169
-0.000541454 -0.398491
-0.000584132 -0.398853
-0.000579933 -0.398659
-0.000423231 -0.399363
-9.40239e-05 -0.400165
-0.000287192 -0.399726
-0.0158983 -0.402376
-0.018708 -0.40274
0.0186144 -0.405022
0.0158257 -0.404624
-0.0105762 -0.40776
-0.00616682 -0.403059
0.00894019 -0.407673
0.00633091 -0.407303
0.00687081 -0.404444
0.00016583 -0.40121
-0.000433779 -0.402262
0.000906059 -0.403548
0.000178171 -0.40209
-0.0112756 -0.40177
0.0117407 -0.402619
-0.00807 -0.401618
-0.0093866 -0.401649
0.00987111 -0.402496
0.00857131 -0.402463
-0.00509318 -0.400989
-0.00236877 -0.401136
-0.00378366 -0.401043
0.00572446 -0.402566
0.00444733 -0.402569
0.00314945 -0.402592
0.00422219 -0.40427
-0.00329024 -0.402313
0.0096393 -0.404541
-0.00907172 -0.403818
-0.0015609 -0.402921
0.00172783 -0.402138
0.00844984 -0.410439
-0.0122104 -0.411605
0.0178853 -0.408621
-0.0183151 -0.405269
-0.00144807 -0.399544
-0.001126 -0.398505
-0.000591661 -0.398077
0.000162459 -0.397848
0.00102437 -0.397674
0.00176777 -0.397645
0.00213758 -0.397985
0.00265186 -0.398982
0.0318194 -0.489726
-0.0133383 -0.467895
-0.00211917 -0.161263
-0.00166588 -0.170606
0.0366019 -0.417439
0.0566847 -0.447815
0.0731919 -0.493306
0.0683841 -0.525114
-0.0600436 -0.514267
-0.0744684 -0.499733
-0.0344705 -0.327936
0.036711 -0.306738
-0.0786297 -0.47344
-0.0532387 -0.441359
-0.0336381 -0.424342
-0.0245173 -0.412644
0.00111073 -0.407897
-0.00288387 -0.406974
-0.0516591 -0.340085
0.0536842 -0.328499
0.00543459 -0.383365
-0.00693026 -0.400341
-0.00556569 -0.406279
0.00532732 -0.405286
0.00761747 -0.399513
0.0039544 -0.415735
0.0218156 -0.422361
-0.0182357 -0.420989
-0.00450706 -0.414903
-0.00421971 -0.398388
-0.00296417 -0.397588
-0.00114168 -0.397503
0.000144356 -0.3971
0.00254373 -0.396777
0.00443648 -0.396907
0.0053721 -0.397775
-0.0106349 -0.415612
0.0284424 -0.462451
-0.00626625 -0.437619
-0.0334538 -0.4641
0.0382837 -0.370791
-0.0260018 -0.382581
0.0305825 -0.435066
0.0346463 -0.453973
-0.00775819 -0.394654
0.00890159 -0.389324
-0.0462057 -0.461156
-0.0257426 -0.433084
-0.0229348 -0.400316
0.0219479 -0.400345
-0.00914263 -0.396942
-0.0165927 -0.399441
-0.00773948 -0.411613
0.00731107 -0.410414
0.0157085 -0.398642
0.00991159 -0.396481
0.0188074 -0.430663
-0.0133864 -0.425045
-0.00318511 -0.396609
0.000831848 -0.395483
0.00696833 -0.433507
0.00901364 -0.416759
0.0101853 -0.43332
-0.01211 -0.436535
0.00666936 -0.42573
-0.00453428 -0.421293
-0.00352703 -0.420466
0.000390748 -0.421749
-0.0162973 -0.433753
-0.0357097 -0.400072
0.00784052 -0.540904
-0.0182635 -0.470397
0.00500938 -0.49305
-0.0010049 -0.533801
0.0115263 -0.462274
-0.00764776 -0.540515
0.0516046 -0.378461
0.0258685 -0.442461
0.00130072 -0.533327
0.00316178 -0.482021
0.0124041 -0.431084
0.0128115 -0.20714
0.0301534 -0.240764
0.0167851 -0.198674
0.0485569 -0.286647
-0.0123472 -0.107376
0.00164882 -0.131414
0.00593162 -0.169991
-0.00204911 -0.168614
0.00999935 -0.202064
-0.0152731 -0.130383
-0.0074136 -0.13869
-0.0221808 -0.104058
0.0169603 -0.160697
0.0287543 -0.187564
-0.0315656 -0.0833492
-0.016737 -0.126145
-0.0160383 -0.217815
-0.0171133 -0.202317
-0.0327201 -0.251288
-0.00619401 -0.17323
0.0125293 -0.1077
-0.00156035 -0.131838
-0.052386 -0.299246
-0.0144317 -0.214434
-0.000418008 -0.175835
0.0146087 -0.133804
0.0222043 -0.105463
0.0072097 -0.141413
0.0315793 -0.0844451
-0.0169063 -0.161255
-0.028645 -0.188281
0.0149296 -0.131516
-0.0116495 -0.323588
0.00977013 -0.347673
0.0112506 -0.296986
0.00480298 -0.379556
0 0
0 0
-0.00991857 -0.15249
-0.0287202 -0.295381
-0.0212833 -0.345739
0.0126307 -0.310857
-0.010898 -0.289635
-0.0108471 -0.341931
0.0106089 -0.138586
0 0
-0.058108 -0.234397
-0.00604196 -0.377385
0.0236712 -0.330866
0.0296527 -0.274275
-0.0416776 -0.375024
-0.0425688 -0.376828
-0.0151102 -0.412747
-0.0650714 -0.344196
0.00922394 -0.445925
-0.044929 -0.369733
-0.0537711 -0.347587
0.0546413 -0.356171
0.0350395 -0.387132
0.0578938 -0.357744
0.0102139 -0.420711
0.0659207 -0.336572
0.0570431 -0.333252
0.0513663 -0.35798
0.0496362 -0.304562
0.0506945 -0.302615
0.0305552 -0.256288
0.0160839 -0.213085
0.0466345 -0.298807
-0.0507582 -0.312158
-0.0362055 -0.271146
-0.0542235 -0.313804
-0.0217442 -0.227042
-0.049111 -0.312937
-0.0155351 -0.172807
-0.0299647 -0.237152
-0.016782 -0.161092
-0.0376936 -0.286681
0.00547651 -0.054589
0.00218761 -0.135987
-0.018337 -0.203666
-0.00602571 -0.383112
-0.00483562 -0.381247
-0.0146574 -0.369798
-0.000423164 -0.384967
-0.0265461 -0.357724
-0.00631324 -0.383334
0.0034268 -0.38394
0.010791 -0.378089
0.0174999 -0.359121
0.00649474 -0.37639
0.0309366 -0.341177
0.0150347 -0.377332
0.0108673 -0.159653
0.0140324 -0.147379
0.0276846 -0.218754
-0.00650907 -0.0529159
0.0361633 -0.265311
0.0132079 -0.190497
-0.00531461 -0.129278
-0.0430543 -0.372661
-0.0306213 -0.390865
-0.0134062 -0.412757
-0.0205465 -0.404459
0.0524593 -0.349582
0.0332629 -0.386029
0.0122737 -0.413851
0.0136069 -0.411694
-0.0479071 -0.359694
-0.0367649 -0.383197
-0.0266079 -0.397054
-0.0324254 -0.389195
-0.0365693 -0.381827
-0.0379219 -0.376396
-0.0433105 -0.368041
-0.0298913 -0.383773
-0.0353073 -0.374557
-0.0481936 -0.351443
-0.0287798 -0.392146
0.0387864 -0.374931
0.033798 -0.38031
0.032882 -0.384879
0.0268105 -0.392806
0.0221883 -0.393975
0.0303359 -0.390646
-0.0234235 -0.387585
-0.0258493 -0.389772
-0.0241229 -0.394098
-0.0193542 -0.394946
-0.0195911 -0.387815
-0.0169641 -0.391385
-0.013659 -0.393669
-0.0104439 -0.393142
0.00775374 -0.39157
0.00333506 -0.391515
0.00265974 -0.393207
-0.000191586 -0.39433
-0.00508447 -0.393858
0.00332469 -0.394551
0.0223343 -0.390525
0.0269985 -0.38505
0.0202637 -0.388227
0.0314229 -0.378091
0.016309 -0.386901
0.0133697 -0.390598
0.0171577 -0.394557
0.0113832 -0.39277
0.00688653 -0.394391
0.00856109 -0.39571
0.00388026 -0.395373
0.011213 -0.394055
0.0133769 -0.394553
0.0185457 -0.0279847
0.0181047 -0.0719216
0.0141942 -0.0374398
0.0189665 -0.105626
0 0
0 0
0.0226848 -0.0225773
0.0382463 -0.0620761
0.0307003 -0.0777879
0.0347749 -0.0452024
-0.0405612 -0.22085
-0.0488525 -0.240159
-0.0349209 -0.0447831
-0.0312254 -0.0762266
-0.0382422 -0.0613782
-0.0208428 -0.101015
0.0407347 -0.219887
0.048891 -0.238868
-0.0228238 -0.0224749
-0.0147271 -0.0367872
-0.0194146 -0.0698945
-0.0186814 -0.0277065
-0.0451828 -0.325753
-0.0227931 -0.369225
-0.0249345 -0.374967
-0.0160341 -0.379131
-0.0261561 -0.368407
-0.00396523 -0.384231
-0.0358689 -0.347007
-0.0312254 -0.373406
-0.0207213 -0.381719
-0.0422678 -0.343454
-0.0462649 -0.344258
-0.0398333 -0.360764
-0.0492322 -0.328222
-0.0414331 -0.320356
-0.0345259 -0.257525
-0.0451717 -0.299808
-0.0410403 -0.285475
0.037609 -0.266329
0.0418452 -0.283664
0.0293719 -0.241371
0.0493059 -0.313395
0.0421246 -0.299522
0.0469017 -0.344941
0.0497044 -0.330503
0.0458313 -0.323238
0.0520049 -0.341562
0.0404419 -0.325358
0.0416048 -0.357457
0.0443196 -0.362662
0.0259498 -0.377877
0.0179966 -0.380524
0.0168551 -0.383702
0.0163223 -0.379025
0.00713971 -0.383544
0.00889123 -0.386626
0.0336653 -0.370475
0.0337916 -0.351916
0.0258264 -0.368244
0.0358033 -0.360416
0.0437792 -0.370541
0.0397123 -0.378179
0.0483992 -0.359566
0.0244511 -0.398578
0.0436506 -0.369054
0.0366052 -0.382923
0.0279618 -0.394633
-0.0044515 -0.39086
-0.0107992 -0.389736
-0.00726224 -0.392358
-0.0171655 -0.386351
0.000977892 -0.389301
-0.00279904 -0.385406
-0.0109782 -0.385234
8.85263e-05 -0.386977
0.0065398 -0.504451
-0.00816717 -0.503099
-0.0055181 -0.521364
-0.00660511 -0.47258
-0.0172391 -0.494091
-0.0133731 -0.530459
0.0106466 -0.524389
0.0208738 -0.513244
0.0153307 -0.489449
0.0179321 -0.434615
0.0066795 -0.456574
0.0136449 -0.464334
-0.00153812 -0.451224
0.0281221 -0.473425
0.0290464 -0.418497
0.0226405 -0.415261
0.0607934 -0.311066
0.0573647 -0.261797
0.0507673 -0.278515
0.0358089 -0.265315
0.0432584 -0.254031
0.0646367 -0.293883
-0.0572556 -0.26328
-0.0633987 -0.319716
-0.052296 -0.286505
-0.0447406 -0.261503
-0.040327 -0.279383
-0.063591 -0.295279
-0.0547715 -0.361105
-0.0555797 -0.366002
-0.0399382 -0.384095
-0.0703673 -0.345463
-0.0530452 -0.378843
-0.0234574 -0.4158
-0.0275879 -0.400753
-0.0546234 -0.35719
-0.0612389 -0.342839
-0.00101102 -0.436964
0.0105324 -0.452488
-0.00209659 -0.430477
0.0222249 -0.477002
0.0212892 -0.467857
-0.00392588 -0.425765
-0.0162764 -0.4093
-0.0138619 -0.418447
0.000288958 -0.447103
-0.0439914 -0.371434
-0.0498689 -0.359349
-0.0502418 -0.360568
-0.0503279 -0.354818
-0.0529153 -0.343022
-0.055761 -0.344918
-0.0516106 -0.359577
-0.0293131 -0.391837
-0.0358155 -0.383423
0.0216512 -0.405012
0.0110907 -0.424184
0.0233502 -0.407797
-0.00245397 -0.444357
0.0349157 -0.390474
0.0351217 -0.384809
0.0228604 -0.401023
0.0561114 -0.364419
0.0661131 -0.351421
0.0640151 -0.347394
0.0634315 -0.365458
0.0716237 -0.340543
0.0628072 -0.33406
0.0621626 -0.343773
0.0477187 -0.374278
0.0426545 -0.388287
0.0579277 -0.344067
0.0557476 -0.346119
0.0528957 -0.356856
0.0552167 -0.330372
0.0548041 -0.342874
0.0450316 -0.369606
0.0451996 -0.370314
0.0596052 -0.344658
0.0584664 -0.332632
0.0588621 -0.319123
0.0601547 -0.316748
0.0498394 -0.297649
0.0379419 -0.273606
0.0572732 -0.319258
0.0554206 -0.318266
0.0547772 -0.319759
0.0528857 -0.317647
0.0412894 -0.283147
-0.0538956 -0.309752
-0.063788 -0.326757
-0.0609236 -0.32819
-0.0585378 -0.329749
-0.0431546 -0.288197
-0.0558495 -0.327115
-0.0547891 -0.331058
-0.0449169 -0.294827
-0.0525853 -0.327169
-0.0244791 -0.398476
-0.0152035 -0.41037
-0.021986 -0.402133
-0.0226778 -0.401666
-0.0120959 -0.414346
-0.0305813 -0.391495
0.0113964 -0.416205
0.000321932 -0.430999
-0.00118118 -0.435756
0.0025064 -0.426477
-0.00854664 -0.442303
-0.0124964 -0.456601
0.0229697 -0.399674
0.0232829 -0.399229
0.0130729 -0.41239
0.0233938 -0.398891
0.00363648 -0.424455
0.0341038 -0.384832
0.0405297 -0.375999
0.0286446 -0.392716
0.0077716 -0.418996
0.0194911 -0.404459
0.0303356 -0.391618
0.0357899 -0.383522
-0.00168299 -0.430817
0.0136028 -0.411937
0.0164788 -0.408668
0.00606243 -0.420644
-0.00331433 -0.425112
0.00655076 -0.436858
-0.00349781 -0.424505
0.0182924 -0.451735
0.0172788 -0.448609
-0.00273814 -0.424766
-0.00412998 -0.424472
0.0096325 -0.475273
0.0170259 -0.504971
0.0206643 -0.490079
0.00671146 -0.519754
0.0190111 -0.5276
0.0305462 -0.501149
-0.00241333 -0.462625
-0.0143354 -0.501406
-0.00184591 -0.509042
-0.00570575 -0.482377
-0.0105293 -0.524699
-0.0136668 -0.446902
-0.0243139 -0.48549
-0.0205128 -0.513829
-0.0408669 -0.423756
-0.0335365 -0.463871
-0.0254338 -0.437656
-0.0312817 -0.499742
-0.0433309 -0.482271
0.0385642 -0.52463
0.0331491 -0.539868
0.0438603 -0.54534
-0.0567043 -0.458857
-0.0660085 -0.421369
0.0546338 -0.550399
0.0409836 -0.51277
0.0500964 -0.41905
0.0366453 -0.415058
0.0375617 -0.448326
0.0313545 -0.499339
0.0433371 -0.481941
-0.0313818 -0.524388
-0.0403791 -0.544032
-0.028538 -0.541937
-0.051694 -0.549183
0.055686 -0.458855
0.0674005 -0.421925
-0.0293893 -0.502776
0.0625012 -0.435046
0.0695722 -0.431055
0.0618702 -0.426083
0.0750318 -0.435495
0.0194323 -0.401068
0.0166425 -0.400722
0.0559278 -0.422265
0.05558 -0.439149
0.0632161 -0.444405
0.0746851 -0.449522
0.0861488 -0.452427
0.0819042 -0.442852
0.0915478 -0.460418
0.0138968 -0.400468
0.012006 -0.400338
0.0680134 -0.453482
0.0912469 -0.49182
0.103042 -0.494735
0.100289 -0.483339
0.104903 -0.505559
0.0101317 -0.400254
0.00884372 -0.400223
0.0952737 -0.471624
0.0798598 -0.487625
0.0840085 -0.498667
0.0927041 -0.512173
0.10168 -0.524659
0.104091 -0.515657
0.0990101 -0.532348
0.0964371 -0.551457
0.101006 -0.546827
0.0828472 -0.507792
0.0825733 -0.540233
0.0880605 -0.549369
0.0919502 -0.544557
0.0831729 -0.552717
0.105167 -0.541165
0.108876 -0.534402
0.0958501 -0.539239
0.077395 -0.530982
0.0742119 -0.535993
0.0723498 -0.543786
0.0705412 -0.553783
0.0772316 -0.554148
0.0630438 -0.55285
0.111881 -0.526488
0.114006 -0.517359
0.0670685 -0.533254
-0.0704094 -0.542654
-0.076911 -0.554177
-0.0688218 -0.552421
-0.0828772 -0.552698
-0.0964232 -0.550921
-0.0915579 -0.554728
-0.061145 -0.551375
-0.0612888 -0.526157
-0.0703662 -0.531981
-0.0815557 -0.539776
-0.0911869 -0.543727
-0.0877804 -0.549332
-0.0950559 -0.538387
-0.0863222 -0.557662
-0.0807263 -0.559992
-0.0726836 -0.525651
-0.0924075 -0.514734
-0.103905 -0.517405
-0.101327 -0.524804
-0.104676 -0.507448
-0.0744818 -0.561541
-0.0675286 -0.562463
-0.0986855 -0.532467
-0.0830559 -0.511378
-0.0845249 -0.504094
-0.0847029 -0.46046
-0.0859025 -0.448836
-0.091906 -0.456598
-0.0790841 -0.441546
-0.080099 -0.42943
-0.0872226 -0.436576
-0.0971612 -0.464491
-0.0845181 -0.471018
-0.0783737 -0.463416
-0.0607001 -0.433219
-0.0620711 -0.424935
-0.0674742 -0.429478
-0.0561101 -0.421112
-0.0936185 -0.444192
-0.0991831 -0.452153
-0.0729606 -0.433932
-0.0595663 -0.439829
-0.0541308 -0.435248
-0.103925 -0.46035
-0.0516594 -0.416263
-0.0473465 -0.414059
-0.04292 -0.41221
-0.0398122 -0.422097
-0.109221 -0.472367
-0.0424602 -0.374715
-0.0277486 -0.395804
-0.0300951 -0.390931
0.0588189 -0.527678
0.0501562 -0.520957
0.0572047 -0.537635
0.0417713 -0.501053
0.0598537 -0.518625
0.0470581 -0.369321
0.0463164 -0.372671
0.0562579 -0.356525
-0.0517789 -0.520969
-0.0524667 -0.533977
-0.04174 -0.513453
-0.027537 -0.484677
-0.0502746 -0.507121
0.0502444 -0.303874
0.0392701 -0.277696
-0.0523075 -0.312785
-0.0437514 -0.290175
0.0483033 -0.440461
0.0472153 -0.431951
0.0456543 -0.423627
0.0381127 -0.42554
0.0767584 -0.475238
0.0834887 -0.469742
0.0720424 -0.464628
0.0610424 -0.458649
0.069286 -0.481427
0.0791597 -0.523935
0.0885225 -0.528304
0.0810916 -0.516858
0.071696 -0.502232
0.0695309 -0.517835
-0.0799873 -0.516245
-0.0873787 -0.527957
-0.0773811 -0.521985
-0.0642866 -0.511342
-0.071482 -0.504253
-0.0651648 -0.447018
-0.0723611 -0.445286
-0.0714734 -0.454443
-0.0717356 -0.464565
-0.0589557 -0.448465
-0.0457562 -0.425277
-0.0507667 -0.423904
-0.0502878 -0.429984
-0.0493178 -0.436172
-0.0395036 -0.427661
-0.0387882 -0.379716
-0.0377009 -0.381708
0.0410247 -0.485219
0.0414493 -0.492476
0.0509761 -0.502325
0.0313716 -0.480227
0.0602682 -0.510847
0.0400872 -0.478819
0.0293129 -0.467159
0.0430729 -0.37221
0.0481105 -0.36329
0.0488766 -0.445984
0.0404801 -0.438583
0.0351456 -0.434372
0.0358762 -0.439368
0.0491554 -0.463774
0.0580115 -0.470668
0.0566603 -0.463064
0.0624059 -0.482396
0.0518825 -0.452652
0.0409959 -0.455654
0.0428736 -0.462418
0.0509802 -0.489237
0.0609969 -0.503992
0.0616312 -0.497653
0.0621919 -0.489423
0.0401411 -0.474017
-0.0497682 -0.48482
-0.0618399 -0.496693
-0.0577728 -0.497612
-0.0644345 -0.49281
-0.0533293 -0.499305
-0.039644 -0.47403
-0.0439517 -0.474811
-0.0611045 -0.474408
-0.0706306 -0.478699
-0.0686403 -0.483709
-0.0708471 -0.471783
-0.0780744 -0.480713
-0.0759328 -0.49386
-0.0671963 -0.489426
-0.0528913 -0.469968
-0.0546537 -0.465659
-0.0465435 -0.44022
-0.0425692 -0.435133
-0.0367025 -0.431591
-0.0327605 -0.436065
0.0204254 -0.460611
0.0192807 -0.455816
0.00818526 -0.441629
0.0397307 -0.450039
0.0443591 -0.450131
0.036445 -0.443842
0.03114 -0.439371
0.0331327 -0.448793
0.0434843 -0.473139
0.0509883 -0.477312
0.0430465 -0.467308
0.0347839 -0.458408
0.0316633 -0.462855
-0.0503597 -0.472573
-0.0565737 -0.481913
-0.0477032 -0.474945
-0.0371841 -0.465079
-0.0435246 -0.46356
0.0237917 -0.45495
0.012812 -0.44205
0.00639188 -0.434406
0.0130942 -0.44062
-0.00558514 -0.434157
-0.0172589 -0.447818
-0.00974843 -0.440088
-0.0233814 -0.452943
-0.027553 -0.459934
-0.0141988 -0.446883
-0.0017372 -0.42875
0.0274085 -0.446497
0.0259799 -0.441648
0.0194406 -0.435052
0.0151799 -0.436487
0.020447 -0.447347
0.0273821 -0.455724
0.028386 -0.454356
0.0280558 -0.450457
0.0142501 -0.440135
-0.0273 -0.450801
-0.0351038 -0.45741
-0.0334452 -0.458803
-0.03762 -0.455634
-0.0294803 -0.45772
-0.0188079 -0.443955
-0.0205345 -0.443365
-0.0402155 -0.45339
-0.0315427 -0.447968
-0.0251406 -0.439942
-0.0299318 -0.439374
-0.0194465 -0.447049
-0.012524 -0.439086
0.0208311 -0.442835
0.015773 -0.439651
-0.0565909 -0.461129
-0.0572306 -0.454405
-0.0636991 -0.462802
-0.0514193 -0.447321
-0.0478991 -0.457184
-0.0369343 -0.442617
-0.0449323 -0.445702
-0.0420461 -0.449506
-0.0862092 -0.488751
-0.0945652 -0.498321
-0.0865324 -0.497758
-0.105423 -0.498373
-0.0869293 -0.481426
-0.102082 -0.476544
-0.103619 -0.487093
-0.0927171 -0.478776
-0.112782 -0.484267
-0.114652 -0.495709
-0.0221376 -0.462569
-0.036321 -0.48559
-0.0266392 -0.475136
-0.047081 -0.495928
-0.0197485 -0.456317
-0.0341177 -0.470299
-0.0390044 -0.47989
-0.0269032 -0.463887
-0.00474532 -0.369007
-0.011639 -0.362208
-0.0339055 -0.258147
-0.0396746 -0.276975
-0.0340454 -0.301233
-0.0358855 -0.321314
0.0235335 -0.34872
0.0250897 -0.332676
-0.00489868 -0.420294
-0.0130233 -0.410983
0.0345736 -0.359
0.0340699 -0.365613
0.00149454 -0.382148
0.00592805 -0.380039
-0.0404593 -0.0544951
-0.036682 -0.0539226
-0.0101303 -0.0463535
-0.00909281 -0.022838
0.0226344 -0.352216
0.0167664 -0.349984
0.0402959 -0.234041
0.0386013 -0.279234
-0.0394508 -0.359156
-0.0397013 -0.350591
-0.000630267 -0.00199877
-0.0038894 -0.022618
-0.0532626 -0.287393
-0.0296127 -0.259255
0.0543101 -0.330615
0.0518919 -0.313413
-0.0185714 -0.225649
-0.0122296 -0.201626
-0.0134109 -0.168519
-0.0159088 -0.1597
-0.00727285 -0.382387
-0.00713125 -0.382811
-0.034102 -0.259589
-0.0394753 -0.276123
0.0153478 -0.0146706
0.0275325 -0.0273138
0.0172649 -0.393253
0.0185824 -0.395161
0.0397417 -0.363176
0.0372926 -0.37149
-0.0617439 -0.311026
-0.0434964 -0.280637
0.0192638 -0.386104
0.0153075 -0.385539
0.0319249 -0.246559
0.0273265 -0.243608
0.0181958 -0.392227
0.0151798 -0.391507
-0.0246516 -0.395302
-0.0204388 -0.401139
0.0354037 -0.383828
0.034989 -0.385251
-0.000736513 -0.175438
0.0106525 -0.143353
0.0215233 -0.297063
0.0266171 -0.269434
-0.00672558 -0.360622
-0.014538 -0.354277
-0.0120393 -0.349648
-0.00440703 -0.357072
0.00203094 -0.103565
0.00455308 -0.126419
-0.0104759 -0.403307
-0.00423918 -0.405277
-0.0414393 -0.284068
-0.0531107 -0.313954
0.00257696 -0.396685
0.00122096 -0.396175
-0.00330239 -0.284756
-3.87127e-05 -0.311748
-0.0214447 -0.342669
-0.0398533 -0.33853
-0.0274576 -0.355625
-0.0197207 -0.347094
-0.0343061 -0.383708
-0.0291787 -0.388382
0.0442182 -0.296994
0.0461418 -0.301891
-0.0570608 -0.280171
-0.0537582 -0.306293
-0.0259606 -0.223867
-0.0212031 -0.183662
-0.0153297 -0.1793
-0.0142404 -0.188435
-0.0209877 -0.214431
-0.0294438 -0.243963
-0.0193518 -0.176042
-0.0174896 -0.185124
-0.0428967 -0.359315
-0.0385616 -0.365969
-0.0333707 -0.367983
-0.0276131 -0.373581
-0.0317399 -0.369716
-0.0331974 -0.372098
-0.040554 -0.374517
-0.0375131 -0.377817
-0.00633628 -0.156382
0.00271338 -0.141976
-0.00386658 -0.383996
-0.00962136 -0.382397
-0.0352388 -0.326518
-0.0290549 -0.336382
0.0390097 -0.274545
0.0334739 -0.255184
-0.00888929 -0.384032
-0.00843988 -0.383409
-0.0271618 -0.386911
-0.0284882 -0.38852
-0.0429632 -0.361185
-0.046146 -0.348981
0.0426467 -0.298457
0.0390495 -0.274243
-0.00679073 -0.37459
-0.0126874 -0.375007
0.0245691 -0.0830136
0.0204976 -0.0750654
-0.0309154 -0.389725
-0.0368177 -0.381295
-0.0257165 -0.0634939
-0.0195242 -0.0687923
-8.17947e-05 -0.385432
-0.000264046 -0.384592
-0.0549396 -0.330064
-0.0510126 -0.30991
0.0183829 -0.376321
0.0123096 -0.380825
-0.0486928 -0.331792
-0.04846 -0.315804
-0.0235097 -0.369546
-0.0187594 -0.376256
0.0294044 -0.0912795
0.0254944 -0.102796
-0.00702061 -0.151357
-0.00124147 -0.171045
0.0336479 -0.262384
0.0215053 -0.230497
0.0316115 -0.388265
0.0458634 -0.368109
-0.0117855 -0.397963
-0.00756744 -0.397531
-0.0184968 -0.222947
-0.0274107 -0.248839
-0.00154764 -0.168032
-0.00098256 -0.155568
0.0579464 -0.331944
0.0601219 -0.347376
-0.00457523 -0.382013
-0.00130066 -0.384403
-0.0115775 -0.395978
-0.00707591 -0.396406
-0.0298123 -0.39079
-0.0275641 -0.394987
-0.0121078 -0.297425
-0.00491814 -0.274023
0.0209374 -0.198826
0.0237801 -0.241726
0.00750454 -0.176902
0.00991532 -0.194097
0.0283091 -0.0281003
0.026123 -0.0317607
0.0437635 -0.370694
0.0478229 -0.359788
0.0105493 -0.184417
0.0199894 -0.215943
0.00434382 -0.155362
0.014912 -0.124955
0.035417 -0.385051
0.028048 -0.394656
0.0101503 -0.392669
0.0136185 -0.393081
0.0436118 -0.370972
0.0422144 -0.373134
-0.0382759 -0.297981
-0.0402222 -0.289897
0.000509182 -0.397741
-0.000249821 -0.397304
-0.0189109 -0.216123
-0.0200989 -0.21047
-0.0182679 -0.0500501
-0.0211217 -0.0380939
-0.00600486 -0.0354645
9.83154e-05 -0.037077
0.0294738 -0.0270885
0.0356442 -0.038167
-0.0290751 -0.392424
-0.04176 -0.374865
-0.00205077 -0.383949
-0.00367616 -0.382428
-0.00260435 -0.381778
-0.000814756 -0.376902
-0.0198369 -0.393989
-0.0146375 -0.395381
-0.0092906 -0.153373
-0.00330292 -0.119526
-0.0537697 -0.344138
-0.0505188 -0.354571
-0.000971614 -0.384587
0.000285465 -0.385279
0.0496931 -0.351548
0.0517572 -0.338317
0.0211597 -0.10777
0.0275172 -0.0850059
0.043023 -0.369796
0.0385235 -0.376978
0.00783715 -0.321983
-0.00622855 -0.323376
0.0058261 -0.381589
0.00168909 -0.384138
-0.0105223 -0.0960009
-0.0118131 -0.072136
-0.0127447 -0.131945
-0.0207805 -0.105022
-0.016172 -0.396992
-0.0109995 -0.398489
-0.0184212 -0.20749
-0.00672388 -0.204761
0.0517388 -0.34774
0.0513373 -0.333048
-0.0101681 -0.133165
-0.0116131 -0.153421
-0.0179886 -0.175455
-0.0121288 -0.170604
-0.0140557 -0.0171651
-0.0157499 -0.015923
-0.0325054 -0.244726
-0.0341107 -0.252096
0.00149699 -0.384721
0.00029371 -0.385496
0.00228365 -0.0371253
0.00470339 -0.0204793
0.0461051 -0.359736
0.0490527 -0.347045
-0.0389105 -0.296369
-0.0351324 -0.278936
-0.0333845 -0.0798083
-0.0314688 -0.0800944
-0.0263786 -0.360789
-0.0165061 -0.357098
-0.0175043 -0.361337
-0.0207157 -0.365244
-0.00972856 -0.366052
-0.00500123 -0.356351
0.0398308 -0.368476
0.0349769 -0.37411
0.0401669 -0.341153
0.0380078 -0.332715
-0.0228931 -0.213642
-0.0264297 -0.232234
-0.0397137 -0.37817
-0.0407006 -0.375197
-0.00370903 -0.375173
-0.00109487 -0.381578
0.00375101 -0.378688
0.00938216 -0.374568
-0.0150056 -0.198611
-0.00571385 -0.166739
-0.0018817 -0.00245741
-0.0132371 -0.020161
-0.0286708 -0.232555
-0.0258512 -0.229391
0.0124305 -0.363418
0.00417756 -0.357527
0.038571 -0.233867
0.010001 -0.238221
0.0202132 -0.31155
0.0493303 -0.302338
-0.0142287 -0.0352305
-0.00782729 -0.0221632
-0.0482254 -0.340932
-0.050228 -0.334942
0.0149937 -0.203022
0.0157945 -0.213709
-0.0286356 -0.394525
-0.0363575 -0.383657
0.0178223 -0.377422
0.0240374 -0.372914
-0.0190458 -0.375588
-0.0208245 -0.376558
-0.0369683 -0.371166
-0.0415292 -0.364314
0.0485523 -0.359092
0.0471236 -0.360648
-0.00039606 -0.387334
0.00246094 -0.388839
-0.0189323 -0.392943
-0.0189136 -0.390824
0.0528778 -0.337169
0.050899 -0.339902
0.0216033 -0.38998
0.0251595 -0.389891
-0.0336786 -0.0645015
-0.0371522 -0.0658963
-0.0133377 -0.381076
-0.0191754 -0.37832
-0.0412284 -0.327377
-0.0389162 -0.316579
0.00913419 -0.396556
0.00515628 -0.397359
0.0437847 -0.289492
0.0442613 -0.291138
0.00946192 -0.286073
0.0155865 -0.310959
0.0117899 -0.170185
0.0110729 -0.149466
0.00403211 -0.00285138
0.0186534 -0.016106
-0.00216457 -0.0378959
0.00498857 -0.0881177
-0.0163182 -0.0574936
-0.0113705 -0.0865133
0.0294177 -0.0365224
0.0199292 -0.0202607
-0.0130495 -0.368481
-0.0187443 -0.366231
0.0228752 -0.401109
0.0135074 -0.412003
-0.0303921 -0.358111
-0.0330644 -0.3453
-0.0256991 -0.0595912
-0.0198571 -0.0624892
0.0144677 -0.378166
0.0207823 -0.372511
0.0206298 -0.0936092
0.02806 -0.0779443
-0.017019 -0.402144
-0.0168849 -0.39899
-0.00277354 -0.391929
-0.00871486 -0.391262
-0.0168615 -0.0808653
-0.00870027 -0.107823
-0.0391948 -0.275611
-0.0412069 -0.293656
-0.0453013 -0.350543
-0.0450977 -0.358651
0.0134149 -0.166009
0.023369 -0.198276
0.0192306 -0.396339
0.0228569 -0.396006
0.0468142 -0.352514
0.0435809 -0.364727
0.00468579 -0.187463
0.00238891 -0.176255
0.00847543 -0.396799
0.00933715 -0.398967
-0.00321932 -0.322059
0.00982292 -0.318719
0.0231508 -0.102318
0.0277195 -0.0970426
-0.0109421 -0.384752
-0.0122159 -0.386286
-0.0323609 -0.388007
-0.0258527 -0.395496
-0.0325835 -0.389084
-0.0271044 -0.395363
0.03708 -0.304507
0.0363842 -0.325472
-0.00799516 -0.34739
-0.0115104 -0.328869
-0.00594916 -0.383359
-0.00323541 -0.384134
0.0141635 -0.291059
-0.0049157 -0.290751
0.0179153 -0.179467
0.023626 -0.224594
0.0339652 -0.313286
0.0347361 -0.330542
-0.00997882 -0.236893
-0.0124259 -0.182732
0.00597868 -0.382899
0.0104546 -0.380737
0.0156565 -0.399529
0.016603 -0.39605
0.0217715 -0.186307
0.0205075 -0.193175
0.0305026 -0.391042
0.0340186 -0.386866
-0.0345032 -0.260254
-0.0313642 -0.255583
-0.0213001 -0.211681
-0.0262923 -0.221249
-0.0365997 -0.38122
-0.0315686 -0.389197
0.0424732 -0.35791
0.0381736 -0.367629
-0.00134471 -0.384114
-0.0016684 -0.383811
0.0200449 -0.399105
0.0145195 -0.405743
0.00397251 -0.383765
0.00379588 -0.383842
-0.000860661 -0.384311
-0.00392431 -0.383926
0.0386065 -0.37238
0.0390422 -0.36681
-0.0358705 -0.0696237
-0.0317488 -0.0843982
0.0151327 -0.395306
0.0105217 -0.3971
-0.0134839 -0.135869
-0.00807937 -0.151214
0.0350041 -0.325669
0.0392909 -0.325153
-0.0161428 -0.372515
-0.0120058 -0.378519
0.0246915 -0.390634
0.0224462 -0.389561
-0.00740621 -0.14108
-0.00178639 -0.106758
-0.013511 -0.280967
-0.000969611 -0.249181
-0.00151284 -0.382804
-0.00369476 -0.383005
-0.0271286 -0.383336
-0.0291638 -0.384651
0.0329523 -0.388415
0.0397779 -0.37807
-0.0162541 -0.318072
-0.0148151 -0.338081
0.00873293 -0.386159
0.0110275 -0.387527
0.0362836 -0.382036
0.0281839 -0.393389
-0.0170516 -0.384403
-0.0235265 -0.381562
0.0314172 -0.0652122
0.0359323 -0.0611353
0.0530976 -0.335774
0.0512237 -0.344514
0.00421179 -0.383648
-0.0019984 -0.384256
0.0449704 -0.319522
0.0427191 -0.301339
0.00413897 -0.163434
0.00876093 -0.149467
-0.0018279 -0.166134
-0.012056 -0.187556
-0.0058 -0.399814
-0.00147863 -0.40277
0.0128587 -0.019047
0.0208448 -0.0387547
0.0362553 -0.0586283
0.0319913 -0.0559496
-0.0169549 -0.400843
-0.0113547 -0.402648
-0.0172193 -0.382395
-0.0234658 -0.378135
0.0336865 -0.259205
0.00686705 -0.260545
-0.00246008 -0.384898
-0.000488374 -0.38573
-0.0229691 -0.38134
-0.0216885 -0.379611
-0.0261702 -0.0598094
-0.0260353 -0.0408809
-0.00341054 -0.384305
0.00131213 -0.384752
0.000743296 -0.38501
-0.00059031 -0.386147
-0.0488722 -0.34781
-0.0463254 -0.352044
-0.0344659 -0.384978
-0.0312374 -0.389966
-0.0252212 -0.230154
-0.0296711 -0.248988
-0.00141993 -0.344696
0.00363587 -0.357511
0.00037222 -0.385226
0.0043223 -0.383376
0.015487 -0.383898
0.0218493 -0.381837
0.0213606 -0.0671287
0.0183274 -0.0928647
-0.0119648 -0.240425
-0.0202201 -0.265535
0.0116486 -0.131385
0.00938132 -0.146593
0.0178406 -0.397963
0.0126847 -0.399146
0.0131751 -0.345922
0.0294949 -0.33609
0.0213619 -0.363557
0.0169713 -0.362945
0.00285604 -0.103827
0.00693541 -0.116109
0.00556736 -0.40658
0.00368063 -0.402397
0.0365386 -0.375699
0.0388583 -0.375474
-0.0232524 -0.371385
-0.0284223 -0.367766
-0.0280673 -0.230806
-0.0330165 -0.247296
0.0557414 -0.31858
0.0484858 -0.302466
0.00346219 -0.0242767
-0.00384912 -0.0786385
0.0152367 -0.398391
0.0161812 -0.401269
-0.0236792 -0.237335
-0.0314848 -0.259563
0.0159841 -0.071482
0.0151605 -0.0474152
-0.00192397 -0.379095
0.000655315 -0.383023
-0.0179089 -0.219533
-0.0268319 -0.246427
-0.0404422 -0.294392
-0.0381704 -0.272338
-0.0485971 -0.311397
-0.0447198 -0.29657
0.031604 -0.0782527
0.0292852 -0.0918758
0.0315851 -0.36708
0.0261755 -0.371101
-0.0179502 -0.363659
-0.00918868 -0.359658
-0.027652 -0.370762
-0.021575 -0.375738
-0.0158998 -0.105559
-0.00415709 -0.158391
-0.0445329 -0.367569
-0.0409072 -0.373588
0.0109764 -0.393355
0.0126769 -0.394464
-0.00820151 -0.320848
0.00257949 -0.334143
0.0212956 -0.208705
0.0306704 -0.240273
-0.0397306 -0.0457741
-0.0385709 -0.0568621
-0.0334314 -0.264326
-0.0201037 -0.229035
-0.0107985 -0.180646
-0.0182593 -0.195031
0.0131914 -0.356593
0.00214222 -0.360786
0.0388735 -0.276831
0.026536 -0.245185
-0.00291261 -0.394678
-0.00096184 -0.393366
-0.00263719 -0.400549
-0.00518644 -0.404212
-0.0246723 -0.232329
-0.0311052 -0.255195
-0.0214721 -0.364512
-0.0158415 -0.372849
0.0467909 -0.300721
0.0513047 -0.319446
-0.000890885 -0.393342
-0.00333513 -0.391882
-0.0445574 -0.342808
-0.0412117 -0.346796
-0.060354 -0.349008
-0.0533333 -0.357068
-0.0212683 -0.10519
-0.0246404 -0.10391
0.0158997 -0.0232047
0.0097871 -0.0142184
0.0118053 -0.0887774
0.0191417 -0.0651005
0.0211205 -0.399409
0.0138726 -0.405923
-0.00318128 -0.010024
-0.00405345 -0.0228512
-0.0518153 -0.318551
-0.0457731 -0.296703
0.0190184 -0.175574
0.0104384 -0.138433
0.0205658 -0.114304
0.0178242 -0.125353
0.0389654 -0.378306
0.050208 -0.359935
0.040451 -0.376267
0.0456015 -0.36794
-0.0264988 -0.2087
-0.0328 -0.242539
0.0043562 -0.100906
-0.00584209 -0.0539361
0.0432122 -0.371807
0.0477199 -0.361738
-0.000325268 -0.379257
0.00228777 -0.372574
0.0128083 -0.285075
-0.00613964 -0.271651
0.0320327 -0.243334
0.0256666 -0.214805
0.0225007 -0.0490851
0.0174262 -0.0574031
0.00802402 -0.360358
0.00717667 -0.371392
0.0122068 -0.112157
0.00430142 -0.120865
-0.036979 -0.271066
-0.0266232 -0.241049
-0.0415349 -0.372466
-0.0433548 -0.365108
0.000965581 -0.398488
0.0022006 -0.399368
0.0445689 -0.360816
0.0409991 -0.371648
0.0294134 -0.391338
0.0420814 -0.373661
0.00146951 -0.336005
-0.0055596 -0.348805
0.0109478 -0.0138629
0.0205557 -0.0320575
0.0106035 -0.10532
0.0130252 -0.11669
-0.00480143 -0.0146918
-0.010723 -0.026949
-0.0341413 -0.387003
-0.0369352 -0.382959
0.00454539 -0.174764
0.0150868 -0.200127
-0.0631395 -0.335874
-0.0583918 -0.364306
0.00225028 -0.163443
0.00755393 -0.192113
0.000437123 -0.392591
-0.0052366 -0.392619
-0.00199138 -0.163385
-0.00342952 -0.164902
-0.0303088 -0.382472
-0.024535 -0.386791
0.00299547 -0.347344
-0.00620117 -0.35545
-0.0249517 -0.0730765
-0.0195172 -0.0710879
-0.0279417 -0.375573
-0.0216098 -0.380248
0.0365393 -0.32804
0.0378216 -0.340153
0.0301555 -0.0809123
0.0274506 -0.0970094
-6.50126e-05 -0.38466
0.000975476 -0.38448
0.0214368 -0.187219
0.0290675 -0.222404
-0.00984116 -0.0583036
-0.00480858 -0.058218
0.0255236 -0.386132
0.0221088 -0.385773
-0.0311061 -0.0303451
-0.0172645 -0.0147396
0.0160431 -0.203379
0.0186215 -0.218946
-0.0272323 -0.394623
-0.0399614 -0.377396
-0.0321815 -0.256785
-0.0273943 -0.222874
-0.0179226 -0.40234
-0.0149894 -0.401634
-0.036023 -0.367378
-0.040116 -0.357463
-0.000140787 -0.385254
0.00034053 -0.385038
-0.0144256 -0.396873
-0.014615 -0.399653
0.0239538 -0.197739
0.0303726 -0.230195
-0.0255969 -0.384084
-0.0256095 -0.386991
-0.0241325 -0.240334
-0.0151478 -0.216474
-0.0417705 -0.288564
-0.0425186 -0.301773
-0.0102284 -0.377283
-0.015062 -0.369535
0.00918751 -0.351759
0.0198233 -0.356429
-0.00125032 -0.402552
-0.00130694 -0.399315
-0.00159695 -0.384303
-0.00277171 -0.384179
0.0447635 -0.368351
0.0474724 -0.359016
0.0176317 -0.378726
0.0226607 -0.373409
-0.0414538 -0.311776
-0.0419799 -0.296124
0.0348432 -0.228308
0.00605371 -0.227555
0.0355454 -0.331466
0.0352233 -0.345509
0.00625278 -0.378639
0.00713775 -0.37133
-0.0337676 -0.371137
-0.0279941 -0.376891
-0.0205814 -0.390832
-0.0233504 -0.38725
0.0213731 -0.384588
0.0263466 -0.383567
-0.0338284 -0.382976
-0.0321749 -0.38187
0.018424 -0.390739
0.018212 -0.393055
-0.0489391 -0.352755
-0.0455909 -0.365784
-0.00091469 -0.395222
-0.00190338 -0.396268
-0.0109568 -0.363045
-0.00394804 -0.369371
-0.0239897 -0.233793
-0.0130137 -0.206052
0.0412106 -0.317619
0.0525939 -0.294817
-0.0447949 -0.367941
-0.0490472 -0.356269
-0.0355573 -0.381073
-0.0300907 -0.388014
-0.00210113 -0.417276
-0.0103532 -0.411623
-0.0359351 -0.359914
-0.03679 -0.350365
-0.0124574 -0.161869
-0.00975504 -0.168321
0.0423197 -0.326542
0.0405075 -0.311149
0.0432537 -0.292674
0.0462312 -0.31402
-0.0112272 -0.386436
-0.0179393 -0.384179
-0.0505397 -0.304482
-0.0389175 -0.277757
-0.0237476 -0.346958
-0.0173147 -0.361311
0.0214166 -0.382597
0.0195398 -0.38122
0.040763 -0.375675
0.039545 -0.377766
0.0035337 -0.129103
0.0130775 -0.11151
-0.041844 -0.283133
-0.0418535 -0.310841
-0.0131055 -0.40005
-0.0132423 -0.397191
0.0185566 -0.363013
0.024866 -0.3548
-0.0479151 -0.353207
-0.0462222 -0.351321
-0.0269049 -0.382069
-0.0261751 -0.379422
-0.0322259 -0.0712499
-0.0319081 -0.0826639
0.00609646 -0.317367
-0.00362918 -0.299672
-0.0207291 -0.379497
-0.0269147 -0.373999
-0.0312514 -0.375521
-0.0251945 -0.380525
-0.00953357 -0.0183518
-0.0107074 -0.0354599
-0.00136344 -0.235597
0.00514947 -0.277574
0.00598862 -0.282687
0.0132984 -0.249943
0.00379476 -0.0582059
-0.00478985 -0.101372
-0.00934466 -0.392826
-0.00446287 -0.393877
0.0343238 -0.301167
0.0327753 -0.323415
-0.0092111 -0.136529
0.00250525 -0.102905
0.074007 -0.34501
0.0551437 -0.307939
-0.00247165 -0.382281
-0.000722958 -0.384896
-0.0313615 -0.0320408
-0.0269767 -0.0325196
-0.0236092 -0.0780775
-0.018615 -0.104007
-0.0209427 -0.100112
-0.0212021 -0.112589
0.0188366 -0.269856
0.0216993 -0.233687
-0.0117911 -0.374595
-0.00611523 -0.380694
-0.00602759 -0.102503
-0.0108822 -0.161154
-0.0149096 -0.383811
-0.0207079 -0.382421
0.0406624 -0.280063
0.0407764 -0.28835
0.0668406 -0.331009
0.0533022 -0.307617
0.00430754 -0.182143
0.0162227 -0.214391
0.033378 -0.386102
0.0282589 -0.390959
-0.011889 -0.203376
-0.00374888 -0.175118
-0.00564327 -0.396514
-0.00939485 -0.395555
-0.00708026 -0.397185
-0.00459934 -0.396624
-0.0194729 -0.403737
-0.0118425 -0.410207
0.00470566 -0.0728499
-0.0042245 -0.112451
-0.0416662 -0.364475
-0.0454175 -0.353333
0.0517773 -0.333973
0.0533011 -0.328177
-0.0469566 -0.36507
-0.0484697 -0.358835
-0.0187434 -0.361185
-0.0246092 -0.366689
0.00449012 -0.0905279
-0.00450378 -0.0334008
0.0422181 -0.361148
0.0381155 -0.371034
-0.0176475 -0.358182
-0.0106087 -0.348769
-0.00508045 -0.294591
-0.0101249 -0.316853
-0.0121826 -0.013989
-0.000869474 -0.000993868
-0.0215974 -0.388369
-0.0181303 -0.387889
0.0403246 -0.376596
0.0326893 -0.388448
-0.0486615 -0.31251
-0.044823 -0.297725
-0.0156746 -0.130501
-0.00583786 -0.157225
0.0387147 -0.279933
0.0360966 -0.281353
0.0308535 -0.389274
0.0348353 -0.382641
0.0422442 -0.373325
0.0474619 -0.364743
-0.0332331 -0.388455
-0.0387669 -0.379594
-0.00800312 -0.0222503
-0.00193258 -0.00627458
-0.00388971 -0.384198
-0.00195249 -0.384837
0.0140494 -0.320409
0.00551375 -0.307894
0.0142304 -0.411226
0.0191303 -0.405277
-0.0129207 -0.372689
-0.0142171 -0.363639
-0.0394638 -0.379186
-0.0505133 -0.361684
0.00266201 -0.399498
0.00726087 -0.400877
0.00810569 -0.157215
0.0183175 -0.183064
0.0307107 -0.0560688
0.0303119 -0.0404309
-0.0512148 -0.358926
-0.0549818 -0.341958
0.023207 -0.358526
0.0266832 -0.359854
0.0296396 -0.269292
0.0335781 -0.292659
-0.00292018 -0.394997
-0.00696793 -0.395183
-0.0471776 -0.29506
-0.0357646 -0.27022
0.00568652 -0.0824973
0.0106451 -0.140401
-0.00112143 -0.383913
-0.00553829 -0.381891
0.0278913 -0.240448
0.0356308 -0.261445
-0.039601 -0.0492504
-0.0349721 -0.046351
0.000565338 -0.0728965
-0.00112422 -0.0869767
-0.00908161 -0.403949
-0.00575183 -0.410124
0.0382307 -0.347929
0.0333461 -0.35429
0.00672981 -0.00631512
0.0192342 -0.0219768
0.000623128 -0.396117
0.00133452 -0.395001
-0.0112827 -0.368242
-0.00688257 -0.37632
0.0178103 -0.342566
0.0235298 -0.32788
-0.00598318 -0.397549
-0.00271512 -0.398342
-0.0380531 -0.0653156
-0.0405434 -0.0534963
0.00721396 -0.0642498
0.00754767 -0.0322273
0.00173227 -0.405505
0.0042125 -0.409279
-0.0227429 -0.397352
-0.0214139 -0.400913
0.0437423 -0.370768
0.0412825 -0.375608
-0.0243916 -0.397861
-0.0272951 -0.395859
0.0635064 -0.331238
0.047972 -0.288532
-0.0068161 -0.398818
-0.00720966 -0.402
0.0137051 -0.168456
0.019051 -0.185206
-0.0311339 -0.252954
-0.0394408 -0.276026
0.0242421 -0.398534
0.015739 -0.407791
0.0349609 -0.254194
0.0269741 -0.225019
-0.0377633 -0.0463745
-0.0329079 -0.0436119
0.00536487 -0.38818
1.92855e-05 -0.387619
-0.0201267 -0.229838
-0.0313326 -0.25921
0.0206537 -0.329489
0.0259624 -0.311362
0.00694385 -0.384801
0.0111304 -0.382703
-0.0427884 -0.349142
-0.0391087 -0.352622
-0.0217335 -0.384598
-0.0172903 -0.388538
0.0349072 -0.383079
0.0300481 -0.387528
-0.0153648 -0.392523
-0.0140907 -0.391004
-0.0110412 -0.213472
-0.0315434 -0.255113
0.0314889 -0.245405
0.025979 -0.243814
-0.0309408 -0.38376
-0.0255877 -0.388889
0.029275 -0.267507
0.0299955 -0.240193
0.00345112 -0.397213
0.00449519 -0.397903
0.0344909 -0.304241
0.0370264 -0.320335
-0.00856596 -0.0167908
-0.00225963 -0.00555692
-0.0320153 -0.239145
-0.0367738 -0.269218
-0.018112 -0.0599467
-0.0148185 -0.0872893
-0.00526403 -0.332422
0.00582973 -0.340044
-0.0100588 -0.381494
-0.00405419 -0.383954
0.0162858 -0.294074
0.0154408 -0.263095
0.0155673 -0.176564
0.0113286 -0.139424
-0.00197761 -0.383963
0.00102761 -0.384528
0.0314522 -0.314362
0.0246823 -0.308052
-0.0242352 -0.0214161
-0.0222415 -0.02218
-0.00932296 -0.403581
-0.0100409 -0.399658
0.0207725 -0.378088
0.0273343 -0.372683
0.00451686 -0.388263
-0.00122966 -0.389936
-0.019356 -0.390962
-0.0139315 -0.392048
0.00039901 -0.397524
-0.00108186 -0.397273
0.00815984 -0.224913
0.0207251 -0.2216
0.013989 -0.391366
0.0186443 -0.388541
-0.0082661 -0.386451
-0.00272887 -0.387982
-0.0166083 -0.39634
-0.0136213 -0.399864
0.00873694 -0.383339
0.0120705 -0.38124
-0.0040458 -0.0458548
-0.00178429 -0.00776632
0.00256191 -0.395809
0.00164101 -0.394835
0.00394959 -0.39462
0.00834118 -0.39407
-0.0299361 -0.247867
-0.0234775 -0.243485
-0.00646064 -0.383244
-0.0018354 -0.384324
0.0140452 -0.411431
0.0172594 -0.407291
-0.0057435 -0.38464
-0.00178016 -0.385829
0.0495373 -0.352954
0.0461862 -0.361742
-0.0335807 -0.0496353
-0.0368275 -0.043942
0.0411157 -0.375113
0.0335511 -0.385563
0.040173 -0.327819
0.0379418 -0.344011
0.0418135 -0.316341
0.0414401 -0.295955
-0.0294425 -0.238853
-0.0331104 -0.255178
0.0203978 -0.385971
0.0203867 -0.383269
0.00897022 -0.378941
0.00504852 -0.380347
0.015678 -0.378522
0.0101385 -0.38139
-0.0220475 -0.335259
-0.00539614 -0.33467
0.0254578 -0.0306602
0.0336671 -0.0441219
0.0222153 -0.374593
0.0267184 -0.372586
-0.0219242 -0.380192
-0.0165342 -0.381737
-0.0336792 -0.371293
-0.0383328 -0.366817
-0.0195075 -0.11958
-0.0124391 -0.138292
-0.0450454 -0.364109
-0.0421349 -0.367707
0.00927417 -0.391687
0.00974036 -0.389472
0.0121852 -0.0245376
0.0186689 -0.0373138
0.0268522 -0.395599
0.0154141 -0.409836
-0.0129165 -0.406558
-0.0162251 -0.401085
-0.0244055 -0.199423
-0.0259955 -0.217299
5.49824e-05 -0.397672
0.000698513 -0.397826
-0.00208637 -0.144864
-0.00477408 -0.121977
-0.0391337 -0.275189
-0.0435744 -0.294647
-0.00482762 -0.399476
-0.00229582 -0.403217
0.00416481 -0.111029
0.0134344 -0.0901115
-0.0106681 -0.0118217
-0.0121526 -0.0111856
-0.0270239 -0.236985
-0.0167726 -0.206001
-0.00104675 -0.00188625
-0.000664499 -0.000787198
0.0600437 -0.349299
0.0573203 -0.343945
-0.0060813 -0.133685
0.0039968 -0.166317
0.0398224 -0.31405
0.030494 -0.33226
-0.0476031 -0.329114
-0.0476125 -0.344087
-0.00522693 -0.389536
-0.00015508 -0.388064
0.0464232 -0.356342
0.0485222 -0.342585
-0.0494395 -0.318344
-0.0454746 -0.299815
0.00460181 -0.16068
0.00858256 -0.151166
-0.00529439 -0.37554
-0.00478338 -0.381425
0.015621 -0.407055
0.00918709 -0.41122
0.00110867 -0.394154
-5.11776e-05 -0.392769
0.039058 -0.371817
0.0338497 -0.378672
-0.00375617 -0.384106
-0.00054638 -0.384481
0.00533045 -0.383443
0.00813276 -0.382302
-0.0128194 -0.393106
-0.0077357 -0.394286
0.0484755 -0.346915
0.0464743 -0.360038
0.0353266 -0.382057
0.0297786 -0.389522
0.0227952 -0.110645
0.0228384 -0.109425
-0.0280725 -0.0409723
-0.0324715 -0.0563968
0.0348306 -0.384639
0.0389603 -0.376982
-0.0312821 -0.386251
-0.0258923 -0.392044
0.030128 -0.26163
0.051776 -0.228908
-0.0478972 -0.332378
-0.0462378 -0.31731
-0.00731292 -0.142875
0.00441852 -0.173631
-0.00241504 -0.383745
0.000794405 -0.384509
-0.00706026 -0.0739973
0.000602439 -0.108317
-0.0152027 -0.123168
-0.0194713 -0.0992298
0.0372983 -0.379439
0.0320891 -0.38754
-0.0225858 -0.387426
-0.0196282 -0.390932
-0.0436479 -0.290821
-0.0500096 -0.311088
0.0194026 -0.0995976
0.0288218 -0.0856125
-0.0112276 -0.171545
-0.000465794 -0.145751
0.0368908 -0.380698
0.0420735 -0.371133
0.0349449 -0.0528542
0.0337697 -0.0703416
0.0162026 -0.126793
0.0241253 -0.101124
0.0306139 -0.391405
0.0395507 -0.378501
0.0346427 -0.250316
0.0518942 -0.30118
0.0375959 -0.267377
0.0338131 -0.250341
0.0413171 -0.344059
0.0370418 -0.355232
-0.0465425 -0.307386
-0.0467284 -0.320441
-0.000336377 -0.386546
0.000913588 -0.388119
0.0316279 -0.246867
0.0364119 -0.265553
0.0302147 -0.0486754
0.0302696 -0.0682907
0.000724967 -0.397758
0.00165496 -0.397266
-0.017182 -0.395076
-0.0225741 -0.392869
-0.0298519 -0.304975
-0.0225823 -0.3217
-0.0287497 -0.22737
-0.0326082 -0.26131
-0.0117901 -0.397765
-0.00974032 -0.400799
-0.00360956 -0.14721
0.00372267 -0.113488
-0.0172998 -0.0902109
-0.0215602 -0.0637999
0.00433909 -0.396166
0.00795238 -0.39548
-0.00580582 -0.110255
-0.010948 -0.160921
-0.0436494 -0.371975
-0.051872 -0.354906
-0.00109478 -0.385894
0.00607916 -0.384939
0.00527205 -0.168963
0.0136961 -0.184989
-0.0170362 -0.156626
-0.0274075 -0.22144
0.00915593 -0.12963
0.0109673 -0.143518
0.0313192 -0.372464
0.0365265 -0.367987
0.0192172 -0.392685
0.0231451 -0.392361
0.0422615 -0.284483
0.0330691 -0.256877
-0.00378596 -0.377905
-0.00344266 -0.382912
0.0269717 -0.394894
0.0266788 -0.393221
-0.00849615 -0.396569
-0.012162 -0.397159
-0.0151499 -0.367193
-0.0180635 -0.355611
0.0073892 -0.0212369
0.00668113 -0.0358428
-0.0101194 -0.392614
-0.00552704 -0.393931
0.0254697 -0.397846
0.0257326 -0.396561
-0.0171863 -0.388908
-0.0177476 -0.386124
-0.040467 -0.279753
-0.0459419 -0.302996
0.0258508 -0.389932
0.0223286 -0.394614
-0.0427474 -0.370432
-0.0390318 -0.376272
0.00283593 -0.389955
-0.000721103 -0.388444
-0.0348269 -0.349836
-0.0384169 -0.349901
0.0327541 -0.377507
0.0273189 -0.381083
0.00294303 -0.383375
0.00384461 -0.381154
0.0470793 -0.297931
0.035803 -0.268708
0.0309402 -0.390836
0.0300615 -0.392228
-0.0330883 -0.385001
-0.0334207 -0.381851
0.00865588 -0.135808
-0.00121507 -0.167714
-0.029669 -0.391745
-0.0267502 -0.396293
-0.0411735 -0.0499757
-0.0388673 -0.0617578
0.0129766 -0.148388
0.00527833 -0.11285
0.0475923 -0.328255
0.0476809 -0.314546
-0.000904746 -0.384773
-0.00329313 -0.382128
0.00686078 -0.358096
0.00562943 -0.345147
-0.00241751 -0.160728
-0.0129616 -0.129507
0.0254818 -0.39238
0.0232015 -0.39686
-0.0191022 -0.179823
-0.0108442 -0.138457
0.00992421 -0.399732
0.0152243 -0.397811
0.00311691 -0.382377
0.000396244 -0.384976
0.0259648 -0.382295
0.0307462 -0.380572
0.0328105 -0.375116
0.032352 -0.379574
0.0351373 -0.368959
0.0399282 -0.363316
-0.00552554 -0.283771
-0.00145655 -0.310704
-0.0449069 -0.366425
-0.0487427 -0.356206
0.028651 -0.220915
0.0297439 -0.244875
0.011616 -0.407691
0.0142975 -0.402272
0.0459853 -0.309109
0.047376 -0.308336
-0.0152536 -0.0159867
-0.0015928 -0.00156362
0.0289888 -0.0376304
0.0346072 -0.0391061
-0.00909697 -0.382436
-0.00419881 -0.383867
-0.00208408 -0.397508
-0.000412145 -0.397871
0.0271687 -0.0328264
0.0175917 -0.0207673
0.0436538 -0.325103
0.0441457 -0.308158
0.013056 -0.371092
0.0056186 -0.369879
0.0343684 -0.0717785
0.031689 -0.0656235
0.00062798 -0.376354
-0.000532159 -0.382285
0.00104121 -0.396094
0.00266516 -0.396564
0.0212857 -0.380454
0.0147995 -0.382873
0.0453771 -0.300174
0.0417795 -0.283477
-0.0387875 -0.378761
-0.0431949 -0.368533
0.0117123 -0.174306
0.0216706 -0.204866
0.0437082 -0.2315
0.0395069 -0.266377
-0.0324475 -0.36846
-0.0290916 -0.368773
-0.0439766 -0.291912
-0.0469791 -0.302705
0.0526402 -0.339264
0.0538407 -0.34351
0.0586387 -0.32024
0.0613664 -0.349162
-0.0118529 -0.124309
-0.00282174 -0.155104
-0.0421031 -0.344421
-0.0410322 -0.333718
-0.0388413 -0.274225
-0.0346877 -0.265565
0.0224943 -0.234574
0.0279517 -0.249747
0.0223772 -0.199548
0.0122157 -0.170354
0.00388621 -0.396943
0.00565372 -0.397436
-0.0215396 -0.393978
-0.0222713 -0.391122
-0.00172385 -0.400482
-0.00387509 -0.404553
0.0187922 -0.392538
0.0144886 -0.392729
-0.0153689 -0.387082
-0.00943839 -0.387469
-0.0201196 -0.401627
-0.018381 -0.400507
-0.003939 -0.261185
-0.0125177 -0.212227
0.00483217 -0.047733
0.0020892 -0.0116024
-0.00262609 -0.363353
-0.00630776 -0.370723
0.0399483 -0.332054
0.0430766 -0.335444
0.0153487 -0.387765
0.0136002 -0.390506
0.0354849 -0.0702126
0.0398442 -0.0602076
-0.0405501 -0.283714
-0.0395891 -0.289761
-0.0503368 -0.355409
-0.0444715 -0.370423
-0.000529499 -0.398644
-0.00268328 -0.398177
-0.0219087 -0.359704
-0.0230768 -0.346179
-0.0435932 -0.307357
-0.0417555 -0.288594
0.00630106 -0.397627
0.00425117 -0.396995
0.0122271 -0.0245659
0.0159623 -0.0494507
0.0362437 -0.26649
0.0276858 -0.239503
0.0336388 -0.385489
0.0468685 -0.367932
0.0299787 -0.392318
0.0225288 -0.401431
-0.00107081 -0.352953
0.00538123 -0.362898
0.0268943 -0.380648
0.0243226 -0.385137
0.00200765 -0.342851
0.000859654 -0.357518
-0.00196412 -0.358776
0.00821387 -0.35334
-0.0326311 -0.387992
-0.0312654 -0.390621
0.00904157 -0.383172
0.00610103 -0.383389
-0.00850857 -0.160198
-0.0181902 -0.186082
0.00815858 -0.16311
0.0158189 -0.194228
0.00296055 -0.395255
0.00456023 -0.395911
-0.0370846 -0.345572
-0.0326234 -0.34789
0.011309 -0.394674
0.0100418 -0.3964
-0.0109154 -0.380687
-0.00927217 -0.382462
0.0525931 -0.340404
0.0505845 -0.342585
0.0303933 -0.232463
0.0218716 -0.204035
0.0298169 -0.0544614
0.026452 -0.0759799
0.0396156 -0.374081
0.0394625 -0.370274
-0.0439608 -0.360205
-0.0423111 -0.368831
0.0164279 -0.0132477
0.025917 -0.0264839
-0.0341243 -0.321152
-0.0358327 -0.298257
-0.0443395 -0.292843
-0.0375255 -0.269362
0.0274107 -0.353745
0.0304813 -0.339305
-0.0201551 -0.293639
-0.0101983 -0.284272
0.0398888 -0.337686
0.0356792 -0.339741
0.0383936 -0.374583
0.0372761 -0.372145
-0.0305009 -0.253188
-0.0355633 -0.237246
-0.0317886 -0.260214
-0.0266424 -0.246538
0.0165307 -0.354458
0.0217647 -0.340357
-0.0202298 -0.399486
-0.021148 -0.396011
-0.0248142 -0.345638
-0.0188555 -0.331304
-0.0212368 -0.403601
-0.00967384 -0.41706
0.0255703 -0.306954
0.0053133 -0.309766
-0.0370254 -0.281295
-0.0338538 -0.290985
-0.0319482 -0.381501
-0.0362901 -0.378246
-0.0128045 -0.357877
-0.00246275 -0.354711
0.00984582 -0.381644
0.00521184 -0.383341
0.0208314 -0.394098
0.0177692 -0.398378
0.0250028 -0.0570412
0.0220521 -0.036111
0.00779292 -0.142301
0.00468026 -0.161401
-0.0155948 -0.378645
-0.0146787 -0.37743
0.0365143 -0.26229
0.0381087 -0.27047
0.03527 -0.324239
0.0349223 -0.340267
-0.0284873 -0.394795
-0.0367391 -0.383231
-0.0160374 -0.397778
-0.0129177 -0.401968
0.0441179 -0.369381
0.0431278 -0.369206
0.039043 -0.285264
0.0350359 -0.257861
-0.0168853 -0.356922
-0.011297 -0.345486
0.0542255 -0.322724
0.0467055 -0.298122
0.0166045 -0.207997
0.029058 -0.158205
-0.0114569 -0.415022
-0.0134385 -0.412231
-0.00626628 -0.397791
-0.00469612 -0.396936
0.0235637 -0.241706
0.0278451 -0.270836
0.0183917 -0.183019
0.0214658 -0.185538
-0.0127806 -0.413579
-0.00928464 -0.417123
0.0274764 -0.39453
0.0214773 -0.399925
0.00639097 -0.385638
0.00411875 -0.387625
-0.0113971 -0.138933
-0.00205819 -0.103145
-0.024643 -0.201801
-0.0286251 -0.219516
-0.03838 -0.379177
-0.0415139 -0.37116
-0.031312 -0.243402
-0.0292331 -0.241548
-0.0563274 -0.354059
-0.0401758 -0.380353
-0.0314587 -0.385539
-0.0334757 -0.380548
0.0209389 -0.309012
0.0239416 -0.281322
0.00710219 -0.416035
0.0049459 -0.415033
0.0544533 -0.331034
0.052562 -0.334233
0.0136608 -0.384362
0.00747781 -0.385246
0.0475266 -0.364841
0.052646 -0.350971
-0.0163314 -0.322041
-0.00630345 -0.320163
0.0231963 -0.350059
0.0343646 -0.333205
0.00330345 -0.0198281
0.000234274 -0.0712498
0.00180485 -0.399295
0.00149854 -0.404559
-0.0245872 -0.378399
-0.0260191 -0.380272
0.0277676 -0.249356
0.0398168 -0.279621
-0.03215 -0.0818969
-0.0309426 -0.0849779
-0.02398 -0.238643
-0.0231609 -0.231303
-0.00367997 -0.00415605
-0.0012164 -0.00111886
-0.0412659 -0.284851
-0.0442919 -0.30554
-0.00250174 -0.384453
-0.000283697 -0.385649
-0.002703 -0.374854
-0.00318221 -0.380998
-0.0154446 -0.355894
-0.00605041 -0.348444
-0.0373543 -0.0493437
-0.0400884 -0.0443239
0.0153819 -0.112328
0.0120957 -0.134206
0.0148555 -0.360551
0.0154676 -0.34746
-0.00179143 -0.370912
0.00235305 -0.377236
0.0469234 -0.297645
0.0425775 -0.284437
0.00151869 -0.383952
0.00209554 -0.379823
0.0240043 -0.0551052
0.0295753 -0.0543361
0.0237076 -0.0305134
0.0148663 -0.019206
0.00279498 -0.00243651
0.0144371 -0.0120968
0.0569761 -0.323245
0.0543476 -0.322506
-0.012697 -0.349261
-0.018616 -0.35418
0.00189616 -0.103959
-0.00693786 -0.0624653
-0.00450672 -0.418648
-0.00883763 -0.412017
-0.0113876 -0.136701
-0.00167842 -0.0990222
0.0208433 -0.116819
0.0176108 -0.121808
-0.00728466 -0.363974
0.000346887 -0.364954
0.053135 -0.330256
0.0519748 -0.342617
0.0129631 -0.412662
0.0226132 -0.401448
0.0257133 -0.207567
0.0324734 -0.241437
-0.0226127 -0.0986818
-0.0210639 -0.0849223
0.00616244 -0.411474
0.0134684 -0.404427
-0.0327707 -0.386877
-0.0322413 -0.38911
0.026795 -0.223791
0.0224902 -0.234313
-0.0359708 -0.270788
-0.0315423 -0.257856
0.0101226 -0.0173679
0.0172428 -0.0294703
-0.00131158 -0.395617
-0.00416396 -0.396156
-0.00239995 -0.124282
-0.00934017 -0.128181
-0.029455 -0.336987
-0.0350648 -0.334342
-0.000399521 -0.373757
-0.00660678 -0.372572
0.00193696 -0.382699
0.00574018 -0.37833
0.0102285 -0.393839
0.0105162 -0.395209
0.0252802 -0.08599
0.0308958 -0.0650866
0.033696 -0.248953
0.0398632 -0.276456
0.0229609 -0.195667
0.0171459 -0.175199
-0.0225551 -0.390609
-0.0195596 -0.394015
-0.0122988 -0.376775
-0.0143003 -0.369725
-0.046253 -0.300062
-0.0394338 -0.276089
-0.0290395 -0.392758
-0.0350349 -0.384371
0.0114956 -0.238735
-0.00300008 -0.267897
-0.016399 -0.367976
-0.0201323 -0.368807
-0.00739944 -0.371621
-0.0132782 -0.364177
-0.00491847 -0.383867
-0.0114474 -0.381739
-0.000990994 -0.39419
0.00371477 -0.393899
0.00716277 -0.383481
0.0102828 -0.383483
0.0405129 -0.279019
0.0459906 -0.299544
0.00440858 -0.0298877
-0.00251179 -0.0563592
0.0265103 -0.0298776
0.0340646 -0.0446275
0.00260297 -0.395446
0.00378022 -0.396175
0.0381654 -0.274086
0.0404345 -0.27979
-0.00581062 -0.18935
-0.0183288 -0.223145
-0.00749563 -0.375841
-0.00365074 -0.381595
-0.00942863 -0.386126
-0.0152935 -0.385599
-0.0155586 -0.153076
-0.00517498 -0.112801
-0.0057537 -0.141951
0.00478955 -0.163776
-0.000979035 -0.39805
-0.00256483 -0.397366
0.000951953 -0.384257
-9.89305e-05 -0.385041
-0.00596177 -0.395573
-0.00215402 -0.395903
0.00189354 -0.164908
0.00802892 -0.149387
0.0374025 -0.255288
0.0337944 -0.206803
0.000537401 -0.397621
0.0015094 -0.397515
0.0163654 -0.37659
0.0108329 -0.381188
0.0105432 -0.413753
0.0194343 -0.404817
-0.0684449 -0.340804
-0.0542328 -0.309725
-0.0216198 -0.234394
-0.00978312 -0.201914
0.00380277 -0.00780753
0.00768154 -0.0106596
-0.0367659 -0.382122
-0.052253 -0.361748
0.0476796 -0.361855
0.0493833 -0.35431
0.00565107 -0.395786
0.00283088 -0.396637
0.0426132 -0.372735
0.0449423 -0.368371
-0.0318431 -0.0794656
-0.0364934 -0.0617506
0.0302052 -0.333884
0.0237605 -0.341764
0.00309249 -0.417296
0.0103865 -0.408991
0.0366092 -0.268993
0.0435387 -0.288669
0.00890543 -0.193832
0.00714147 -0.194296
-8.80096e-05 -0.38565
-0.000553978 -0.384514
0.00679677 -0.387814
0.013244 -0.385652
0.029296 -0.3648
0.0231682 -0.371723
0.00667781 -0.375816
0.0118526 -0.367965
-0.0340497 -0.386695
-0.041518 -0.375302
0.00799692 -0.360699
0.0153955 -0.357417
-0.020459 -0.404562
-0.0295427 -0.393458
-0.016649 -0.35917
-0.0167546 -0.368128
0.0366093 -0.0707619
0.0332413 -0.0735185
0.0177664 -0.380543
0.02449 -0.376267
-0.00448118 -0.39662
-0.00765884 -0.396901
-0.0299729 -0.255617
-0.0378085 -0.274855
-0.0394119 -0.0525105
-0.0349713 -0.0490843
0.00658971 -0.0650979
0.011972 -0.0575895
0.0296165 -0.348887
0.0270961 -0.36019
0.00497704 -0.377173
0.0105382 -0.370408
0.0503017 -0.314232
0.0528029 -0.333765
0.0196294 -0.381131
0.0132847 -0.383152
0.014446 -0.210726
0.0225639 -0.235338
0.0108438 -0.135545
0.00772258 -0.122125
0.02485 -0.239973
0.0115149 -0.202967
0.000474716 -0.395737
0.00255201 -0.394591
0.0163019 -0.200834
0.0304901 -0.217217
0.0108952 -0.405437
0.00673221 -0.412047
0.00421761 -0.183361
-0.00732347 -0.152982
0.0205176 -0.228613
0.0119581 -0.207727
-0.0109791 -0.194585
-0.00552109 -0.169729
0.0311069 -0.0791133
0.0311472 -0.0870835
-0.0350651 -0.385598
-0.0253277 -0.398123
-0.0176908 -0.0176613
-0.0229172 -0.0203662
0.0408907 -0.280787
0.0311658 -0.247452
-0.0216174 -0.0393271
-0.0272783 -0.0533578
0.0150814 -0.0960715
0.0162191 -0.072574
-0.00231903 -0.384227
0.000212165 -0.384357
0.00775571 -0.105673
-0.0245462 -0.117039
0.0196228 -0.404937
0.018246 -0.406115
-0.0365956 -0.0617369
-0.0401327 -0.057671
-0.0501426 -0.341876
-0.0479067 -0.35607
-0.00382393 -0.383949
0.00130334 -0.384221
0.0281561 -0.0347367
0.035434 -0.0422267
0.00548255 -0.0060295
0.00866858 -0.0116911
-0.0132523 -0.385361
-0.019188 -0.384214
-0.0136074 -0.0121595
-0.0269852 -0.0260205
0.0138597 -0.411546
0.0168546 -0.407462
0.0462729 -0.365277
0.040006 -0.377825
-0.0254816 -0.393228
-0.0260113 -0.390241
0.00768405 -0.394059
0.00796471 -0.392455
-0.0149861 -0.395276
-0.0105438 -0.39703
0.0188114 -0.375305
0.0200292 -0.370817
0.00346048 -0.383855
0.00520282 -0.383231
0.023811 -0.0327757
0.026785 -0.0496862
-0.00369551 -0.0876137
-0.0105369 -0.0540901
0.0422122 -0.367867
0.0413078 -0.364426
0.000673086 -0.397091
0.0002413 -0.39773
-0.00347263 -0.384232
0.00144177 -0.384516
-0.00167247 -0.330649
0.0102373 -0.326368
0.0264166 -0.0589366
0.0247166 -0.0820185
-0.0026659 -0.397797
-0.00358096 -0.396902
0.0163361 -0.208931
0.0208469 -0.21374
-0.0127396 -0.0742223
-0.0138936 -0.0465248
0.0431745 -0.371915
0.0437768 -0.370748
-0.0286402 -0.385702
-0.0230775 -0.389831
0.00210338 -0.180387
0.0143134 -0.2137
0.0236392 -0.105468
0.0433333 -0.182408
-0.0273639 -0.376199
-0.0217093 -0.379139
-0.0467315 -0.348334
-0.0434557 -0.35763
0.010672 -0.382363
0.00826407 -0.38253
-0.0085297 -0.133403
-0.0057337 -0.194545
0.00457386 -0.383545
-0.000357703 -0.384401
0.0140613 -0.124698
0.0225161 -0.0977632
0.0576835 -0.259564
0.037787 -0.209785
-0.00327667 -0.398012
-0.00696294 -0.397469
0.0165049 -0.298438
0.0246881 -0.319172
0.0342931 -0.252247
0.0351963 -0.256149
-0.0210159 -0.402787
-0.0267914 -0.395292
-0.00107957 -0.383817
0.00085996 -0.384778
0.0153034 -0.319518
0.0214789 -0.337462
-0.00563449 -0.382927
-0.00294358 -0.383666
-0.00685194 -0.148205
-0.00860937 -0.149871
-0.00534017 -0.374137
0.000470719 -0.376025
-0.0168492 -0.378644
-0.023282 -0.373468
-0.0291841 -0.368741
-0.023031 -0.374964
0.0476765 -0.346037
0.0488993 -0.3309
0.000958659 -0.364647
0.00449853 -0.351335
-0.00648188 -0.0295416
-0.00221514 -0.0366042
0.0203106 -0.379624
0.0267563 -0.375611
-0.0172917 -0.122364
-0.00674307 -0.149726
0.0165545 -0.174233
0.0197964 -0.176501
-0.0221421 -0.399368
-0.0169688 -0.402169
0.00676874 -0.395465
0.00399832 -0.396501
-0.040067 -0.301914
-0.0382001 -0.278243
0.0185745 -0.0410864
0.0241061 -0.0519129
9.55676e-05 -0.384202
0.00510861 -0.383769
-0.0120541 -0.39392
-0.00963931 -0.395638
-0.045964 -0.297241
-0.0528709 -0.321013
-0.00739586 -0.35838
-0.00225881 -0.368357
-0.00469158 -0.397069
-0.00861574 -0.396695
-0.00501237 -0.397062
-0.00902415 -0.396559
0.0345152 -0.253911
0.0288917 -0.221203
0.0482832 -0.297946
0.061589 -0.324699
-0.00730791 -0.382773
-0.00332092 -0.384109
0.0141286 -0.40643
0.011629 -0.405226
0.0127387 -0.156616
0.0217544 -0.192101
-0.0151132 -0.398101
-0.0196444 -0.397641
0.0420114 -0.360181
0.0442424 -0.360389
0.043051 -0.329836
0.0434835 -0.343312
-0.0483675 -0.344943
-0.0466449 -0.35828
0.0215356 -0.353486
0.017705 -0.365364
0.00124438 -0.397681
0.00259566 -0.397304
-0.0293843 -0.279069
-0.035002 -0.289692
0.041214 -0.0526718
0.0375384 -0.0503777
0.0288858 -0.0854242
0.0248656 -0.103778
-0.0104444 -0.367002
-0.0167139 -0.364711
-0.0128786 -0.380055
-0.0175977 -0.377932
-0.00484863 -0.396121
-0.00853386 -0.396209
-0.024213 -0.0272421
-0.0207494 -0.0279071
-0.0138663 -0.2073
-0.00804233 -0.197025
0.0554253 -0.338324
0.051329 -0.35692
-0.0284689 -0.389057
-0.0295117 -0.385411
-0.0411239 -0.350622
-0.0443929 -0.339594
-0.0285479 -0.374367
-0.0338991 -0.366521
-0.016421 -0.379387
-0.0199393 -0.37478
0.0361478 -0.382732
0.0337924 -0.385295
-0.0149536 -0.38925
-0.0211813 -0.386759
0.033851 -0.302333
0.0223432 -0.274212
-0.00933509 -0.0734656
-0.00774567 -0.053806
-0.013672 -0.179421
-0.0286045 -0.206394
0.00225311 -0.168979
-0.00508996 -0.187624
0.0153671 -0.115828
0.00574528 -0.146108
-0.0377308 -0.268992
-0.0308768 -0.241008
-0.0443744 -0.31848
-0.0454096 -0.333961
0.0490797 -0.329593
0.0503973 -0.337346
-0.0165685 -0.382917
-0.0153777 -0.385555
-0.00924648 -0.39839
-0.00490354 -0.398255
-0.037444 -0.338389
-0.0385131 -0.321311
-0.0487514 -0.363861
-0.0527891 -0.351297
-0.000352888 -0.385752
0.000152015 -0.385397
0.0499996 -0.338658
0.0516093 -0.340686
0.000833282 -0.386338
0.000215739 -0.38523
-0.0244265 -0.228273
-0.020671 -0.187267
-0.0510997 -0.355908
-0.0470741 -0.364812
-0.0317514 -0.390156
-0.0411773 -0.376167
-0.00528437 -0.0922716
0.00996861 -0.132035
0.00453942 -0.148286
-0.00496269 -0.11356
-0.038272 -0.380798
-0.0450692 -0.369619
0.0100525 -0.415712
0.0158711 -0.409363
-0.000210426 -0.170579
-0.00454382 -0.109356
-0.0265234 -0.246576
-0.0257533 -0.244736
-0.0510168 -0.363038
-0.0579668 -0.342685
-0.018152 -0.303381
-0.01026 -0.322811
-0.0204132 -0.0246079
-0.0291946 -0.0341899
0.021055 -0.0626007
0.0202291 -0.0390737
-0.0199387 -0.402222
-0.0255771 -0.397491
0.0375122 -0.337518
0.0400227 -0.343814
0.0227376 -0.223963
0.0330926 -0.254892
-0.00298793 -0.384211
-0.00530382 -0.383681
-0.0509031 -0.313536
-0.0492095 -0.311777
0.0349779 -0.381091
0.0357489 -0.382558
0.0162559 -0.39165
0.0128069 -0.391059
-0.0258062 -0.0624693
-0.02591 -0.0422859
0.00242427 -0.382762
0.00534994 -0.376884
0.00560588 -0.401406
0.00889397 -0.403923
-0.00457396 -0.397876
-0.00812763 -0.396952
-0.000242408 -0.385622
-0.00225122 -0.384753
-0.0216494 -0.289644
-0.0272083 -0.306462
-0.00369513 -0.383869
-0.00224175 -0.382219
0.00340229 -0.00483452
0.0133984 -0.0262395
-0.0575466 -0.309315
-0.0370071 -0.260158
0.0486561 -0.345858
0.0472083 -0.342075
-0.0111078 -0.3656
-0.01011 -0.374568
0.00726474 -0.386651
0.0141412 -0.384927
0.0144233 -0.380928
0.0210895 -0.376583
-0.0157185 -0.39241
-0.013024 -0.391444
-0.00123533 -0.0894611
-0.000985599 -0.101082
-0.0319086 -0.309152
-0.0147094 -0.29141
-0.00763164 -0.407327
-0.0153147 -0.40879
-0.0153147 -0.40879
-0.0233779 -0.41072
-0.0233779 -0.41072
-0.0316411 -0.413276
-0.0316411 -0.413276
-0.039946 -0.416541
-0.039946 -0.416541
-0.0481729 -0.420479
-0.0481729 -0.420479
-0.0561745 -0.425087
-0.0561745 -0.425087
-0.0638329 -0.43032
-0.0638329 -0.43032
-0.0710422 -0.436121
-0.0710422 -0.436121
-0.0777052 -0.442419
-0.0777052 -0.442419
-0.083756 -0.449126
-0.083756 -0.449126
-0.0891331 -0.456149
-0.0891331 -0.456149
-0.0938011 -0.463393
-0.0938011 -0.463393
-0.0977446 -0.470757
-0.0977446 -0.470757
-0.100941 -0.47813
-0.100941 -0.47813
-0.103419 -0.485451
-0.103419 -0.485451
-0.105201 -0.492606
-0.105201 -0.492606
-0.106317 -0.499524
-0.106317 -0.499524
-0.10682 -0.506157
-0.10682 -0.506157
-0.106757 -0.512419
-0.106757 -0.512419
-0.106197 -0.518283
-0.106197 -0.518283
-0.105186 -0.523732
-0.105186 -0.523732
-0.103782 -0.528722
-0.103782 -0.528722
-0.102058 -0.533253
-0.102058 -0.533253
-0.100048 -0.537331
-0.100048 -0.537331
-0.097786 -0.540984
-0.097786 -0.540984
-0.0953201 -0.544183
-0.0953201 -0.544183
-0.0926872 -0.546966
-0.0926872 -0.546966
-0.0898662 -0.549389
-0.0898662 -0.549389
-0.0868538 -0.551433
-0.0868538 -0.551433
-0.0836931 -0.553107
-0.0836931 -0.553107
-0.0803335 -0.554381
-0.0803335 -0.554381
-0.0767124 -0.555341
-0.0767124 -0.555341
-0.0728349 -0.555952
-0.0728349 -0.555952
-0.0686843 -0.55607
-0.0686843 -0.55607
-0.0641274 -0.555729
-0.0641274 -0.555729
-0.059167 -0.554956
-0.059167 -0.554956
-0.0537759 -0.553547
-0.0537759 -0.553547
-0.0478852 -0.55124
-0.0478852 -0.55124
-0.0414572 -0.548102
-0.0414572 -0.548102
-0.0345137 -0.543973
-0.0345137 -0.543973
-0.0270084 -0.538382
-0.0270084 -0.538382
-0.0190135 -0.531159
-0.0190135 -0.531159
-0.0105786 -0.521987
-0.0105786 -0.521987
-0.00161278 -0.510193
-0.00161278 -0.510193
0.00744436 -0.494986
0.00744436 -0.494986
0.0167452 -0.475546
0.0167452 -0.475546
0.0261177 -0.449006
0.0261177 -0.449006
0.0358576 -0.414334
0.0358576 -0.414334
0.0494335 -0.376634
0.0494335 -0.376634
0.0575428 -0.358329
0.0575428 -0.358329
0.058074 -0.351838
0.058074 -0.351838
0.0564523 -0.349384
0.0564523 -0.349384
0.0547517 -0.349289
0.0547517 -0.349289
0.0529745 -0.350863
0.0529745 -0.350863
0.0514872 -0.353561
0.0514872 -0.353561
0.0497843 -0.357274
0.0497843 -0.357274
0.0475945 -0.361768
0.0475945 -0.361768
0.0453543 -0.36689
0.0453543 -0.36689
0.0429016 -0.372136
0.0429016 -0.372136
0.040053 -0.377144
0.040053 -0.377144
0.0367994 -0.381777
0.0367994 -0.381777
0.0333785 -0.386066
0.0333785 -0.386066
0.0298484 -0.389883
0.0298484 -0.389883
0.0261926 -0.393195
0.0261926 -0.393195
0.0225041 -0.396042
0.0225041 -0.396042
0.0188166 -0.398446
0.0188166 -0.398446
0.0151395 -0.40042
0.0151395 -0.40042
0.0114188 -0.402054
0.0114188 -0.402054
0.00761161 -0.403407
0.00761161 -0.403407
0.00360596 -0.404617
0.00360596 -0.404617
-0.00119037 -0.405884
-0.00119037 -0.405884
-0.00763164 -0.407327
0.0592974 -0.555437
0.0642441 -0.556206
0.0642441 -0.556206
0.0687962 -0.556528
0.0687962 -0.556528
0.0729426 -0.556418
0.0729426 -0.556418
0.0768046 -0.555831
0.0768046 -0.555831
0.0804122 -0.554877
0.0804122 -0.554877
0.0837647 -0.553618
0.0837647 -0.553618
0.0869058 -0.551955
0.0869058 -0.551955
0.0899049 -0.549934
0.0899049 -0.549934
0.0927172 -0.547518
0.0927172 -0.547518
0.095341 -0.544744
0.095341 -0.544744
0.0977958 -0.541558
0.0977958 -0.541558
0.100046 -0.537918
0.100046 -0.537918
0.102052 -0.53385
0.102052 -0.53385
0.103769 -0.529338
0.103769 -0.529338
0.105166 -0.524376
0.105166 -0.524376
0.106174 -0.518925
0.106174 -0.518925
0.106737 -0.513086
0.106737 -0.513086
0.106799 -0.506872
0.106799 -0.506872
0.106307 -0.500257
0.106307 -0.500257
0.105186 -0.49334
0.105186 -0.49334
0.103411 -0.486204
0.103411 -0.486204
0.100945 -0.478914
0.100945 -0.478914
0.0977474 -0.47155
0.0977474 -0.47155
0.0938209 -0.464203
0.0938209 -0.464203
0.0891707 -0.456991
0.0891707 -0.456991
0.0838004 -0.449979
0.0838004 -0.449979
0.0777724 -0.443294
0.0777724 -0.443294
0.0711248 -0.437016
0.0711248 -0.437016
0.0639387 -0.431227
0.0639387 -0.431227
0.0563065 -0.426006
0.0563065 -0.426006
0.0483315 -0.421403
0.0483315 -0.421403
0.0401483 -0.417478
0.0401483 -0.417478
0.0318607 -0.414231
0.0318607 -0.414231
0.0236564 -0.411676
0.0236564 -0.411676
0.0156357 -0.409738
0.0156357 -0.409738
0.00806273 -0.408262
0.00806273 -0.408262
0.0016412 -0.40685
0.0016412 -0.40685
-0.00313037 -0.405574
-0.00313037 -0.405574
-0.00718606 -0.404372
-0.00718606 -0.404372
-0.0110343 -0.403023
-0.0110343 -0.403023
-0.0148049 -0.401411
-0.0148049 -0.401411
-0.0185439 -0.39943
-0.0185439 -0.39943
-0.0222925 -0.396998
-0.0222925 -0.396998
-0.0260034 -0.394102
-0.0260034 -0.394102
-0.02968 -0.390728
-0.02968 -0.390728
-0.0332303 -0.386847
-0.0332303 -0.386847
-0.0365828 -0.382448
-0.0365828 -0.382448
-0.0397061 -0.377613
-0.0397061 -0.377613
-0.0426336 -0.372581
-0.0426336 -0.372581
-0.0452066 -0.367766
-0.0452066 -0.367766
-0.0474095 -0.363112
-0.0474095 -0.363112
-0.04929 -0.358813
-0.04929 -0.358813
-0.0510383 -0.354976
-0.0510383 -0.354976
-0.0528418 -0.35199
-0.0528418 -0.35199
-0.0544199 -0.350282
-0.0544199 -0.350282
-0.0560012 -0.350156
-0.0560012 -0.350156
-0.0571606 -0.352662
-0.0571606 -0.352662
-0.0566088 -0.358974
-0.0566088 -0.358974
-0.0498283 -0.376734
-0.0498283 -0.376734
-0.0352537 -0.414633
-0.0352537 -0.414633
-0.0252043 -0.448493
-0.0252043 -0.448493
-0.0164283 -0.475437
-0.0164283 -0.475437
-0.00726104 -0.495593
-0.00726104 -0.495593
0.00197284 -0.51061
0.00197284 -0.51061
0.0107491 -0.522506
0.0107491 -0.522506
0.0192383 -0.531548
0.0192383 -0.531548
0.027291 -0.53874
0.027291 -0.53874
0.0347514 -0.544426
0.0347514 -0.544426
0.0416484 -0.548598
0.0416484 -0.548598
0.048065 -0.55166
0.048065 -0.55166
0.0539544 -0.553945
0.0539544 -0.553945
0.0592974 -0.555437
      </DataArray> 
      <DataArray type="Float64" NumberOfComponents="2" Name="Velocity" format="ascii">
0 0
0 0
0 0
0 0
0 0
0 0
0 0
0 0
0 0
0 0
0 0
0 0
0 0
0 0
0 0
0 0
0 0
0 0
0 0
0 0
0 0
0 0
0 0
0 0
0 0
0 0
0 0
0 0
0 0
0 0
0 0
0 0
0 0
0 0
0 0
0 0
0 0
0 0
0 0
0 0
0 0
0 0
0 0
0 0
0 0
0 0
0 0
0 0
0 0
0 0
0 0
0 0
0 0
0 0
0 0
0 0
0 0
0 0
0 0
0 0
0 0
0 0
0 0
0 0
0 0
0 0
0 0
0 0
0 0
0 0
0 0
0 0
0 0
0 0
0 0
0 0
0 0
0 0
0 0
0 0
0 0
0 0
0 0
0 0
0 0
0 0
0 0
0 0
0 0
0 0
0 0
0 0
0 0
0 0
0 0
0 0
0 0
0 0
0 0
0 0
0 0
0 0
0 0
0 0
0 0
0 0
0 0
0 0
0 0
0 0
0 0
0 0
0 0
0 0
0 0
0 0
0 0
0 0
0 0
0 0
0 0
0 0
0 0
0 0
0 0
0 0
0 0
0 0
0 0
0 0
0 0
0 0
0 0
0 0
0 0
0 0
0 0
0 0
0 0
0 0
0 0
0 0
0 0
0 0
0 0
0 0
0 0
0 0
0 0
0 0
0 0
0 0
0 0
0 0
0 0
0 0
0 0
0 0
0 0
0 0
0 0
0 0
0 0
0 0
0 0
0 0
0 0
0 0
0 0
0 0
0 0
0 0
0 0
0 0
0 0
0 0
0 0
0 0
0 0
0 0
0 0
0 0
0 0
0 0
0 0
0 0
0 0
0 0
0 0
0 0
0 0
0 0
0 0
0 0
0 0
0 0
0 0
0 0
0 0
0 0
0 0
0 0
0 0
0 0
0 0
0 0
0 0
0 0
0 0
0 0
0 0
0 0
0 0
0 0
0 0
0 0
0 0
0 0
0 0
0 0
0 0
0 0
0 0
0 0
0 0
0 0
0 0
0 0
0 0
0 0
0 0
0 0
0 0
0 0
0 0
0 0
0 0
0 0
0 0
0 0
0 0
0 0
0 0
0 0
0 0
0 0
0 0
0 0
0 0
0 0
0 0
0 0
0 0
0 0
0 0
0 0
0 0
0 0
0 0
0 0
0 0
0 0
0 0
0 0
0 0
0 0
0 0
0 0
0 0
0 0
0 0
0 0
0 0
0 0
0 0
0 0
0 0
0 0
0 0
0 0
0 0
0 0
0 0
0 0
0 0
0 0
0 0
0 0
0 0
0 0
0 0
0 0
0 0
0 0
0 0
0 0
0 0
0 0
0 0
0 0
0 0
0 0
0 0
0 0
0 0
0 0
0 0
0 0
0 0
0 0
0 0
0 0
0 0
0 0
0 0
0 0
0 0
0 0
0 0
0 0
0 0
0 0
0 0
0 0
0 0
0 0
0 0
0 0
0 0
0 0
0 0
0 0
0 0
0 0
0 0
0 0
0 0
0 0
0 0
0 0
0 0
0 0
0 0
0 0
0 0
0 0
0 0
0 0
0 0
0 0
0 0
0 0
0 0
0 0
0 0
0 0
0 0
0 0
0 0
0 0
0 0
0 0
0 0
0 0
0 0
0 0
0 0
0 0
0 0
0 0
0 0
0 0
0 0
0 0
0 0
0 0
0 0
0 0
0 0
0 0
0 0
0 0
0 0
0 0
0 0
0 0
0 0
0 0
0 0
0 0
0 0
0 0
0 0
0 0
0 0
0 0
0 0
0 0
0 0
0 0
0 0
0 0
0 0
0 0
0 0
0 0
0 0
0 0
0 0
0 0
0 0
0 0
0 0
0 0
0 0
0 0
0 0
0 0
0 0
0 0
0 0
0 0
0 0
0 0
0 0
0 0
0 0
0 0
0 0
0 0
0 0
0 0
0 0
0 0
0 0
0 0
0 0
0 0
0 0
0 0
0 0
0 0
0 0
0 0
0 0
0 0
0 0
0 0
0 0
0 0
0 0
0 0
0 0
0 0
0 0
0 0
0 0
0 0
0 0
0 0
0 0
0 0
0 0
0 0
0 0
0 0
0 0
0 0
0 0
0 0
0 0
0 0
0 0
0 0
0 0
0 0
0 0
0 0
0 0
0 0
0 0
0 0
0 0
0 0
0 0
0 0
0 0
0 0
0 0
0 0
0 0
0 0
0 0
0 0
0 0
0 0
0 0
0 0
0 0
0 0
0 0
0 0
0 0
0 0
0 0
0 0
0 0
0 0
0 0
0 0
0 0
0 0
0 0
0 0
0 0
0 0
0 0
0 0
0 0
0 0
0 0
0 0
0 0
0 0
0 0
0 0
0 0
0 0
0 0
0 0
0 0
0 0
0 0
0 0
0 0
0 0
0 0
0 0
0 0
0 0
0 0
0 0
0 0
0 0
0 0
0 0
0 0
0 0
0 0
0 0
0 0
0 0
0 0
0 0
0 0
0 0
0 0
0 0
0 0
0 0
0 0
0 0
0 0
0 0
0 0
0 0
0 0
0 0
0 0
0 0
0 0
0 0
0 0
0 0
0 0
0 0
0 0
0 0
0 0
0 0
0 0
0 0
0 0
0 0
0 0
0 0
0 0
0 0
0 0
0 0
0 0
0 0
0 0
0 0
0 0
0 0
0 0
0 0
0 0
0 0
0 0
0 0
0 0
0 0
0 0
0 0
0 0
0 0
0 0
0 0
0 0
0 0
0 0
0 0
0 0
0 0
0 0
0 0
0 0
0 0
0 0
0 0
0 0
0 0
0 0
0 0
0 0
0 0
0 0
0 0
0 0
0 0
0 0
0 0
0 0
0 0
0 0
0 0
0 0
0 0
0 0
0 0
0 0
0 0
0 0
0 0
0 0
0 0
0 0
0 0
0 0
0 0
0 0
0 0
0 0
0 0
0 0
0 0
0 0
0 0
0 0
0 0
0 0
0 0
0 0
0 0
0 0
0 0
0 0
0 0
0 0
0 0
0 0
0 0
0 0
0 0
0 0
0 0
0 0
0 0
0 0
0 0
0 0
0 0
0 0
0 0
0 0
0 0
0 0
0 0
0 0
0 0
0 0
0 0
0 0
0 0
0 0
0 0
0 0
0 0
0 0
0 0
0 0
0 0
0 0
0 0
0 0
0 0
0 0
0 0
0 0
0 0
0 0
0 0
0 0
0 0
0 0
0 0
0 0
0 0
0 0
0 0
0 0
0 0
0 0
0 0
0 0
0 0
0 0
0 0
0 0
0 0
0 0
0 0
0 0
0 0
0 0
0 0
0 0
0 0
0 0
0 0
0 0
0 0
0 0
0 0
0 0
0 0
0 0
0 0
0 0
0 0
0 0
0 0
0 0
0 0
0 0
0 0
0 0
0 0
0 0
0 0
0 0
0 0
0 0
0 0
0 0
0 0
0 0
0 0
0 0
0 0
0 0
0 0
0 0
0 0
0 0
0 0
0 0
0 0
0 0
0 0
0 0
0 0
0 0
0 0
0 0
0 0
0 0
0 0
0 0
0 0
0 0
0 0
0 0
0 0
0 0
0 0
0 0
0 0
0 0
0 0
0 0
0 0
0 0
0 0
0 0
0 0
0 0
0 0
0 0
0 0
0 0
0 0
0 0
0 0
0 0
0 0
0 0
0 0
0 0
0 0
0 0
0 0
0 0
0 0
0 0
0 0
0 0
0 0
0 0
0 0
0 0
0 0
0 0
0 0
0 0
0 0
0 0
0 0
0 0
0 0
0 0
0 0
0 0
0 0
0 0
0 0
0 0
0 0
0 0
0 0
0 0
0 0
0 0
0 0
0 0
0 0
0 0
0 0
0 0
0 0
0 0
0 0
0 0
0 0
0 0
0 0
0 0
0 0
0 0
0 0
0 0
0 0
0 0
0 0
0 0
0 0
0 0
0 0
0 0
0 0
0 0
0 0
0 0
0 0
0 0
0 0
0 0
0 0
0 0
0 0
0 0
0 0
0 0
0 0
0 0
0 0
0 0
0 0
0 0
0 0
0 0
0 0
0 0
0 0
0 0
0 0
0 0
0 0
0 0
0 0
0 0
0 0
0 0
0 0
0 0
0 0
0 0
0 0
0 0
0 0
0 0
0 0
0 0
0 0
0 0
0 0
0 0
0 0
0 0
0 0
0 0
0 0
0 0
0 0
0 0
0 0
0 0
0 0
0 0
0 0
0 0
0 0
0 0
0 0
0 0
0 0
0 0
0 0
0 0
0 0
0 0
0 0
0 0
0 0
0 0
0 0
0 0
0 0
0 0
0 0
0 0
0 0
0 0
0 0
0 0
0 0
0 0
0 0
0 0
0 0
0 0
0 0
0 0
0 0
0 0
0 0
0 0
0 0
0 0
0 0
0 0
0 0
0 0
0 0
0 0
0 0
0 0
0 0
0 0
0 0
0 0
0 0
0 0
0 0
0 0
0 0
0 0
0 0
0 0
0 0
0 0
0 0
0 0
0 0
0 0
0 0
0 0
0 0
0 0
0 0
0 0
0 0
0 0
0 0
0 0
0 0
0 0
0 0
0 0
0 0
0 0
0 0
0 0
0 0
0 0
0 0
0 0
0 0
0 0
0 0
0 0
0 0
0 0
0 0
0 0
0 0
0 0
0 0
0 0
0 0
0 0
0 0
0 0
0 0
0 0
0 0
0 0
0 0
0 0
0 0
0 0
0 0
0 0
0 0
0 0
0 0
0 0
0 0
0 0
0 0
0 0
0 0
0 0
0 0
0 0
0 0
0 0
0 0
0 0
0 0
0 0
0 0
0 0
0 0
0 0
0 0
0 0
0 0
0 0
0 0
0 0
0 0
0 0
0 0
0 0
0 0
0 0
0 0
0 0
0 0
0 0
0 0
0 0
0 0
0 0
0 0
0 0
0 0
0 0
0 0
0 0
0 0
0 0
0 0
0 0
0 0
0 0
0 0
0 0
0 0
0 0
0 0
0 0
0 0
0 0
0 0
0 0
0 0
0 0
0 0
0 0
0 0
0 0
0 0
0 0
0 0
0 0
0 0
0 0
0 0
0 0
0 0
0 0
0 0
0 0
0 0
0 0
0 0
0 0
0 0
0 0
0 0
0 0
0 0
0 0
0 0
0 0
0 0
0 0
0 0
0 0
0 0
0 0
0 0
0 0
0 0
0 0
0 0
0 0
0 0
0 0
0 0
0 0
0 0
0 0
0 0
0 0
0 0
0 0
0 0
0 0
0 0
0 0
0 0
0 0
0 0
0 0
0 0
0 0
0 0
0 0
0 0
0 0
0 0
0 0
0 0
0 0
0 0
0 0
0 0
0 0
0 0
0 0
0 0
0 0
0 0
0 0
0 0
0 0
0 0
0 0
0 0
0 0
0 0
0 0
0 0
0 0
0 0
0 0
0 0
0 0
0 0
0 0
0 0
0 0
0 0
0 0
0 0
0 0
0 0
0 0
0 0
0 0
0 0
0 0
0 0
0 0
0 0
0 0
0 0
0 0
0 0
0 0
0 0
0 0
0 0
0 0
0 0
0 0
0 0
0 0
0 0
0 0
0 0
0 0
0 0
0 0
0 0
0 0
0 0
0 0
0 0
0 0
0 0
0 0
0 0
0 0
0 0
0 0
0 0
0 0
0 0
0 0
0 0
0 0
0 0
0 0
0 0
0 0
0 0
0 0
0 0
0 0
0 0
0 0
0 0
0 0
0 0
0 0
0 0
0 0
0 0
0 0
0 0
0 0
0 0
0 0
0 0
0 0
0 0
0 0
0 0
0 0
0 0
0 0
0 0
0 0
0 0
0 0
0 0
0 0
0 0
0 0
0 0
0 0
0 0
0 0
0 0
0 0
0 0
0 0
0 0
0 0
0 0
0 0
0 0
0 0
0 0
0 0
0 0
0 0
0 0
0 0
0 0
0 0
0 0
0 0
0 0
0 0
0 0
0 0
0 0
0 0
0 0
0 0
0 0
0 0
0 0
0 0
0 0
0 0
0 0
0 0
0 0
0 0
0 0
0 0
0 0
0 0
0 0
0 0
0 0
0 0
0 0
0 0
0 0
0 0
0 0
0 0
0 0
0 0
0 0
0 0
0 0
0 0
0 0
0 0
0 0
0 0
0 0
0 0
0 0
0 0
0 0
0 0
0 0
0 0
0 0
0 0
0 0
0 0
0 0
0 0
0 0
0 0
0 0
0 0
0 0
0 0
0 0
0 0
0 0
0 0
0 0
0 0
0 0
0 0
0 0
0 0
0 0
0 0
0 0
0 0
0 0
0 0
0 0
0 0
0 0
0 0
0 0
0 0
0 0
0 0
0 0
0 0
0 0
0 0
0 0
0 0
0 0
0 0
0 0
0 0
0 0
0 0
0 0
0 0
0 0
0 0
0 0
0 0
0 0
0 0
0 0
0 0
0 0
0 0
0 0
0 0
0 0
0 0
0 0
0 0
0 0
0 0
0 0
0 0
0 0
0 0
0 0
0 0
0 0
0 0
0 0
0 0
0 0
0 0
0 0
0 0
0 0
0 0
0 0
0 0
0 0
0 0
0 0
0 0
0 0
0 0
0 0
0 0
0 0
0 0
0 0
0 0
0 0
0 0
0 0
0 0
0 0
0 0
0 0
0 0
0 0
0 0
0 0
0 0
0 0
0 0
0 0
0 0
0 0
0 0
0 0
0 0
0 0
0 0
0 0
0 0
0 0
0 0
0 0
0 0
0 0
0 0
0 0
0 0
0 0
0 0
0 0
0 0
0 0
0 0
0 0
0 0
0 0
0 0
0 0
0 0
0 0
0 0
0 0
0 0
0 0
0 0
0 0
0 0
0 0
0 0
0 0
0 0
0 0
0 0
0 0
0 0
0 0
0 0
0 0
0 0
0 0
0 0
0 0
0 0
0 0
0 0
0 0
0 0
0 0
0 0
0 0
0 0
0 0
0 0
0 0
0 0
0 0
0 0
0 0
0 0
0 0
0 0
0 0
0 0
0 0
0 0
0 0
0 0
0 0
0 0
0 0
0 0
0 0
0 0
0 0
0 0
0 0
0 0
0 0
0 0
0 0
0 0
0 0
0 0
0 0
0 0
0 0
0 0
0 0
0 0
0 0
0 0
0 0
0 0
0 0
0 0
0 0
0 0
0 0
0 0
0 0
0 0
0 0
0 0
0 0
0 0
0 0
0 0
0 0
0 0
0 0
0 0
0 0
0 0
0 0
0 0
0 0
0 0
0 0
0 0
0 0
0 0
0 0
0 0
0 0
0 0
0 0
0 0
0 0
0 0
0 0
0 0
0 0
0 0
0 0
0 0
0 0
0 0
0 0
0 0
0 0
0 0
0 0
0 0
0 0
0 0
0 0
0 0
0 0
0 0
0 0
0 0
0 0
0 0
0 0
0 0
0 0
0 0
0 0
0 0
0 0
0 0
0 0
0 0
0 0
0 0
0 0
0 0
0 0
0 0
0 0
0 0
0 0
0 0
0 0
0 0
0 0
0 0
0 0
0 0
0 0
0 0
0 0
0 0
0 0
0 0
0 0
0 0
0 0
0 0
0 0
0 0
0 0
0 0
0 0
0 0
0 0
0 0
0 0
0 0
0 0
0 0
0 0
0 0
0 0
0 0
0 0
0 0
0 0
0 0
0 0
0 0
0 0
0 0
0 0
0 0
0 0
0 0
0 0
0 0
0 0
0 0
0 0
0 0
0 0
0 0
0 0
0 0
0 0
0 0
0 0
0 0
0 0
0 0
0 0
0 0
0 0
0 0
0 0
0 0
0 0
0 0
0 0
0 0
0 0
0 0
0 0
0 0
0 0
0 0
0 0
0 0
0 0
0 0
0 0
0 0
0 0
0 0
0 0
0 0
0 0
0 0
0 0
0 0
0 0
0 0
0 0
0 0
0 0
0 0
0 0
0 0
0 0
0 0
0 0
0 0
0 0
0 0
0 0
0 0
0 0
0 0
0 0
0 0
0 0
0 0
0 0
0 0
0 0
0 0
0 0
0 0
0 0
0 0
0 0
0 0
0 0
0 0
0 0
0 0
0 0
0 0
0 0
0 0
0 0
0 0
0 0
0 0
0 0
0 0
0 0
0 0
0 0
0 0
0 0
0 0
0 0
0 0
0 0
0 0
0 0
0 0
0 0
0 0
0 0
0 0
0 0
0 0
0 0
0 0
0 0
0 0
0 0
0 0
0 0
0 0
0 0
0 0
0 0
0 0
0 0
0 0
0 0
0 0
0 0
0 0
0 0
0 0
0 0
0 0
0 0
0 0
0 0
0 0
0 0
0 0
0 0
0 0
0 0
0 0
0 0
0 0
0 0
0 0
0 0
0 0
0 0
0 0
0 0
0 0
0 0
0 0
0 0
0 0
0 0
0 0
0 0
0 0
0 0
0 0
0 0
0 0
0 0
0 0
0 0
0 0
0 0
0 0
0 0
0 0
0 0
0 0
0 0
0 0
0 0
0 0
0 0
0 0
0 0
0 0
0 0
0 0
0 0
0 0
0 0
0 0
0 0
0 0
0 0
0 0
0 0
0 0
0 0
0 0
0 0
0 0
0 0
0 0
0 0
0 0
0 0
0 0
0 0
0 0
0 0
0 0
0 0
0 0
0 0
0 0
0 0
0 0
0 0
0 0
0 0
0 0
0 0
0 0
0 0
0 0
0 0
0 0
0 0
0 0
0 0
0 0
0 0
0 0
0 0
0 0
0 0
0 0
0 0
0 0
0 0
0 0
0 0
0 0
0 0
0 0
0 0
0 0
0 0
0 0
0 0
0 0
0 0
0 0
0 0
0 0
0 0
0 0
0 0
0 0
0 0
0 0
0 0
0 0
0 0
0 0
0 0
0 0
0 0
0 0
0 0
0 0
0 0
0 0
0 0
0 0
0 0
0 0
0 0
0 0
0 0
0 0
0 0
0 0
0 0
0 0
0 0
0 0
0 0
0 0
0 0
0 0
0 0
0 0
0 0
0 0
0 0
0 0
0 0
0 0
0 0
0 0
0 0
0 0
0 0
0 0
0 0
0 0
0 0
0 0
0 0
0 0
0 0
0 0
0 0
0 0
0 0
0 0
0 0
0 0
0 0
0 0
0 0
0 0
0 0
0 0
0 0
0 0
0 0
0 0
0 0
0 0
0 0
0 0
0 0
0 0
0 0
0 0
0 0
0 0
0 0
0 0
0 0
0 0
0 0
0 0
0 0
0 0
0 0
0 0
0 0
0 0
0 0
0 0
0 0
0 0
0 0
0 0
0 0
0 0
0 0
0 0
0 0
0 0
0 0
0 0
0 0
0 0
0 0
0 0
0 0
0 0
0 0
0 0
0 0
0 0
0 0
0 0
0 0
0 0
0 0
0 0
0 0
0 0
0 0
0 0
0 0
0 0
0 0
0 0
0 0
0 0
0 0
0 0
0 0
0 0
0 0
0 0
0 0
0 0
0 0
0 0
0 0
0 0
0 0
0 0
0 0
0 0
0 0
0 0
0 0
0 0
0 0
0 0
0 0
0 0
0 0
0 0
0 0
0 0
0 0
0 0
0 0
0 0
0 0
0 0
0 0
0 0
0 0
0 0
0 0
0 0
0 0
0 0
0 0
0 0
0 0
0 0
0 0
0 0
0 0
0 0
0 0
0 0
0 0
0 0
0 0
0 0
0 0
0 0
0 0
0 0
0 0
0 0
0 0
0 0
0 0
0 0
0 0
0 0
0 0
0 0
0 0
0 0
0 0
0 0
0 0
0 0
0 0
0 0
0 0
0 0
0 0
0 0
0 0
0 0
0 0
0 0
0 0
0 0
0 0
0 0
0 0
0 0
0 0
0 0
0 0
0 0
0 0
0 0
0 0
0 0
0 0
0 0
0 0
0 0
0 0
0 0
0 0
0 0
0 0
0 0
0 0
0 0
0 0
0 0
0 0
0 0
0 0
0 0
0 0
0 0
0 0
0 0
0 0
0 0
0 0
0 0
0 0
0 0
0 0
0 0
0 0
0 0
0 0
0 0
0 0
0 0
0 0
0 0
0 0
0 0
0 0
0 0
0 0
0 0
0 0
0 0
0 0
0 0
0 0
0 0
0 0
0 0
0 0
0 0
0 0
0 0
0 0
0 0
0 0
0 0
0 0
0 0
0 0
0 0
0 0
0 0
0 0
0 0
0 0
0 0
0 0
0 0
0 0
0 0
0 0
0 0
0 0
0 0
0 0
0 0
0 0
0 0
0 0
0 0
0 0
0 0
0 0
0 0
0 0
0 0
0 0
0 0
0 0
0 0
0 0
0 0
0 0
0 0
0 0
0 0
0 0
0 0
0 0
0 0
0 0
0 0
0 0
0 0
0 0
0 0
0 0
0 0
0 0
0 0
0 0
0 0
0 0
0 0
0 0
0 0
0 0
0 0
0 0
0 0
0 0
0 0
0 0
0 0
0 0
0 0
0 0
0 0
0 0
0 0
0 0
0 0
0 0
0 0
0 0
0 0
0 0
0 0
0 0
0 0
0 0
0 0
0 0
0 0
0 0
0 0
0 0
0 0
0 0
0 0
0 0
0 0
0 0
0 0
0 0
0 0
0 0
0 0
0 0
0 0
0 0
0 0
0 0
0 0
0 0
0 0
0 0
0 0
0 0
0 0
0 0
0 0
0 0
0 0
0 0
0 0
0 0
0 0
0 0
0 0
0 0
0 0
0 0
0 0
0 0
0 0
0 0
0 0
0 0
0 0
0 0
0 0
0 0
0 0
0 0
0 0
0 0
0 0
0 0
0 0
0 0
0 0
0 0
0 0
0 0
0 0
0 0
0 0
0 0
0 0
0 0
0 0
0 0
0 0
0 0
0 0
0 0
0 0
0 0
0 0
0 0
0 0
0 0
0 0
0 0
0 0
0 0
0 0
0 0
0 0
0 0
0 0
0 0
0 0
0 0
0 0
0 0
0 0
0 0
0 0
0 0
0 0
0 0
0 0
0 0
0 0
0 0
0 0
0 0
0 0
0 0
0 0
0 0
0 0
0 0
0 0
0 0
0 0
0 0
0 0
0 0
0 0
0 0
0 0
0 0
0 0
0 0
0 0
0 0
0 0
0 0
0 0
0 0
0 0
0 0
0 0
0 0
0 0
0 0
0 0
0 0
0 0
0 0
0 0
0 0
0 0
0 0
0 0
0 0
0 0
0 0
0 0
0 0
0 0
0 0
0 0
0 0
0 0
0 0
0 0
0 0
0 0
0 0
0 0
0 0
0 0
0 0
0 0
0 0
0 0
0 0
0 0
0 0
0 0
0 0
0 0
0 0
0 0
0 0
0 0
0 0
0 0
0 0
0 0
0 0
0 0
0 0
0 0
0 0
0 0
0 0
0 0
0 0
0 0
0 0
0 0
0 0
0 0
0 0
0 0
0 0
0 0
0 0
0 0
0 0
0 0
0 0
0 0
0 0
0 0
0 0
0 0
0 0
0 0
0 0
0 0
0 0
0 0
0 0
0 0
0 0
0 0
0 0
0 0
0 0
0 0
0 0
0 0
0 0
0 0
0 0
0 0
0 0
0 0
0 0
0 0
0 0
0 0
0 0
0 0
0 0
0 0
0 0
0 0
0 0
0 0
0 0
0 0
0 0
0 0
0 0
0 0
0 0
0 0
0 0
0 0
0 0
0 0
0 0
0 0
0 0
0 0
0 0
0 0
0 0
0 0
0 0
0 0
0 0
0 0
0 0
0 0
0 0
0 0
0 0
0 0
0 0
0 0
0 0
0 0
0 0
0 0
0 0
0 0
0 0
0 0
0 0
0 0
0 0
0 0
0 0
0 0
0 0
0 0
0 0
0 0
0 0
0 0
0 0
0 0
0 0
0 0
0 0
0 0
0 0
0 0
0 0
0 0
0 0
0 0
0 0
0 0
0 0
0 0
0 0
0 0
0 0
0 0
0 0
0 0
0 0
0 0
0 0
0 0
0 0
0 0
0 0
0 0
0 0
0 0
0 0
0 0
0 0
0 0
0 0
0 0
0 0
0 0
0 0
0 0
0 0
0 0
0 0
0 0
0 0
0 0
0 0
0 0
0 0
0 0
0 0
0 0
0 0
0 0
0 0
0 0
0 0
0 0
0 0
0 0
0 0
0 0
0 0
0 0
0 0
0 0
0 0
0 0
0 0
0 0
0 0
0 0
0 0
0 0
0 0
0 0
0 0
0 0
0 0
0 0
0 0
0 0
0 0
0 0
0 0
0 0
0 0
0 0
0 0
0 0
0 0
0 0
0 0
0 0
0 0
0 0
0 0
0 0
0 0
0 0
0 0
0 0
0 0
0 0
0 0
0 0
0 0
0 0
0 0
0 0
0 0
0 0
0 0
0 0
0 0
0 0
0 0
0 0
0 0
0 0
0 0
0 0
0 0
0 0
0 0
0 0
0 0
0 0
0 0
0 0
0 0
0 0
0 0
0 0
0 0
0 0
0 0
0 0
0 0
0 0
0 0
0 0
0 0
0 0
0 0
0 0
0 0
0 0
0 0
0 0
0 0
0 0
0 0
0 0
0 0
0 0
0 0
0 0
0 0
0 0
0 0
0 0
0 0
0 0
0 0
0 0
0 0
0 0
0 0
0 0
0 0
0 0
0 0
0 0
0 0
0 0
0 0
0 0
0 0
0 0
0 0
0 0
0 0
0 0
0 0
0 0
0 0
0 0
0 0
0 0
0 0
0 0
0 0
0 0
0 0
0 0
0 0
0 0
0 0
0 0
0 0
0 0
0 0
0 0
0 0
0 0
0 0
0 0
0 0
0 0
0 0
0 0
0 0
0 0
0 0
0 0
0 0
0 0
0 0
0 0
0 0
0 0
0 0
0 0
0 0
0 0
0 0
0 0
0 0
0 0
0 0
0 0
0 0
0 0
0 0
0 0
0 0
0 0
0 0
0 0
0 0
0 0
0 0
0 0
0 0
0 0
0 0
0 0
0 0
0 0
0 0
0 0
0 0
0 0
0 0
0 0
0 0
0 0
0 0
0 0
0 0
0 0
0 0
0 0
0 0
0 0
0 0
0 0
0 0
0 0
0 0
0 0
0 0
0 0
0 0
0 0
0 0
0 0
0 0
0 0
0 0
0 0
0 0
0 0
0 0
0 0
0 0
0 0
0 0
0 0
0 0
0 0
0 0
0 0
0 0
0 0
0 0
0 0
0 0
0 0
0 0
0 0
0 0
0 0
0 0
0 0
0 0
0 0
0 0
0 0
0 0
0 0
0 0
0 0
0 0
0 0
0 0
0 0
0 0
0 0
0 0
0 0
0 0
0 0
0 0
0 0
0 0
0 0
0 0
0 0
0 0
0 0
0 0
0 0
0 0
0 0
0 0
0 0
0 0
0 0
0 0
0 0
0 0
0 0
0 0
0 0
0 0
0 0
0 0
0 0
0 0
0 0
0 0
0 0
0 0
0 0
0 0
0 0
0 0
0 0
0 0
0 0
0 0
0 0
0 0
0 0
0 0
0 0
0 0
0 0
0 0
0 0
0 0
0 0
0 0
0 0
0 0
0 0
0 0
0 0
0 0
0 0
0 0
0 0
0 0
0 0
0 0
0 0
0 0
0 0
0 0
0 0
0 0
0 0
0 0
0 0
0 0
0 0
0 0
0 0
0 0
0 0
0 0
0 0
0 0
0 0
0 0
0 0
0 0
0 0
0 0
0 0
0 0
0 0
0 0
0 0
0 0
0 0
0 0
0 0
0 0
0 0
0 0
0 0
0 0
0 0
0 0
0 0
0 0
0 0
0 0
0 0
0 0
0 0
0 0
0 0
0 0
0 0
0 0
0 0
0 0
0 0
0 0
0 0
0 0
0 0
0 0
0 0
0 0
0 0
0 0
0 0
0 0
0 0
0 0
0 0
0 0
0 0
0 0
0 0
0 0
0 0
0 0
0 0
0 0
0 0
0 0
0 0
0 0
0 0
0 0
0 0
0 0
0 0
0 0
0 0
0 0
0 0
0 0
0 0
0 0
0 0
0 0
0 0
0 0
0 0
0 0
0 0
0 0
0 0
0 0
0 0
0 0
0 0
0 0
0 0
0 0
0 0
0 0
0 0
0 0
0 0
0 0
0 0
0 0
0 0
0 0
0 0
0 0
0 0
0 0
0 0
0 0
0 0
0 0
0 0
0 0
0 0
0 0
0 0
0 0
0 0
0 0
0 0
0 0
0 0
0 0
0 0
0 0
0 0
0 0
0 0
0 0
0 0
0 0
0 0
0 0
0 0
0 0
0 0
0 0
0 0
0 0
0 0
0 0
0 0
0 0
0 0
0 0
0 0
0 0
0 0
0 0
0 0
0 0
0 0
0 0
0 0
0 0
0 0
0 0
0 0
0 0
0 0
0 0
0 0
0 0
0 0
0 0
0 0
0 0
0 0
0 0
0 0
0 0
0 0
0 0
0 0
0 0
0 0
0 0
0 0
0 0
0 0
0 0
0 0
0 0
0 0
0 0
0 0
0 0
0 0
0 0
0 0
0 0
0 0
0 0
0 0
0 0
0 0
0 0
0 0
0 0
0 0
0 0
0 0
0 0
0 0
0 0
0 0
0 0
0 0
0 0
0 0
0 0
0 0
0 0
0 0
0 0
0 0
0 0
0 0
0 0
0 0
0 0
0 0
0 0
0 0
0 0
0 0
0 0
0 0
0 0
0 0
0 0
0 0
0 0
0 0
0 0
0 0
0 0
0 0
0 0
0 0
0 0
0 0
0 0
0 0
0 0
0 0
0 0
0 0
0 0
0 0
0 0
0 0
0 0
0 0
0 0
0 0
0 0
0 0
0 0
0 0
0 0
0 0
0 0
0 0
0 0
0 0
0 0
0 0
0 0
0 0
0 0
0 0
0 0
0 0
0 0
0 0
0 0
0 0
0 0
0 0
0 0
0 0
0 0
0 0
0 0
0 0
0 0
0 0
0 0
0 0
0 0
0 0
0 0
0 0
0 0
0 0
0 0
0 0
0 0
0 0
0 0
0 0
0 0
0 0
0 0
0 0
0 0
0 0
0 0
0 0
0 0
0 0
0 0
0 0
0 0
0 0
0 0
0 0
0 0
0 0
0 0
0 0
0 0
0 0
0 0
0 0
0 0
0 0
0 0
0 0
0 0
0 0
0 0
0 0
0 0
0 0
0 0
0 0
0 0
0 0
0 0
0 0
0 0
0 0
0 0
0 0
0 0
0 0
0 0
0 0
0 0
0 0
0 0
0 0
0 0
0 0
0 0
0 0
0 0
0 0
0 0
0 0
0 0
0 0
0 0
0 0
0 0
0 0
0 0
0 0
0 0
0 0
0 0
0 0
0 0
0 0
0 0
0 0
0 0
0 0
0 0
0 0
0 0
0 0
0 0
0 0
0 0
0 0
0 0
0 0
0 0
0 0
0 0
0 0
0 0
0 0
0 0
0 0
0 0
0 0
0 0
0 0
0 0
0 0
0 0
0 0
0 0
0 0
0 0
0 0
0 0
0 0
0 0
0 0
0 0
0 0
0 0
0 0
0 0
0 0
0 0
0 0
0 0
0 0
0 0
0 0
0 0
0 0
0 0
0 0
0 0
0 0
      </DataArray> 
      <DataArray type="Float64" NumberOfComponents="2" Name="Acceleration" format="ascii">
0 0
0 0
0 0
0 0
0 0
0 0
0 0
0 0
0 0
0 0
0 0
0 0
0 0
0 0
0 0
0 0
0 0
0 0
0 0
0 0
0 0
0 0
0 0
0 0
0 0
0 0
0 0
0 0
0 0
0 0
0 0
0 0
0 0
0 0
0 0
0 0
0 0
0 0
0 0
0 0
0 0
0 0
0 0
0 0
0 0
0 0
0 0
0 0
0 0
0 0
0 0
0 0
0 0
0 0
0 0
0 0
0 0
0 0
0 0
0 0
0 0
0 0
0 0
0 0
0 0
0 0
0 0
0 0
0 0
0 0
0 0
0 0
0 0
0 0
0 0
0 0
0 0
0 0
0 0
0 0
0 0
0 0
0 0
0 0
0 0
0 0
0 0
0 0
0 0
0 0
0 0
0 0
0 0
0 0
0 0
0 0
0 0
0 0
0 0
0 0
0 0
0 0
0 0
0 0
0 0
0 0
0 0
0 0
0 0
0 0
0 0
0 0
0 0
0 0
0 0
0 0
0 0
0 0
0 0
0 0
0 0
0 0
0 0
0 0
0 0
0 0
0 0
0 0
0 0
0 0
0 0
0 0
0 0
0 0
0 0
0 0
0 0
0 0
0 0
0 0
0 0
0 0
0 0
0 0
0 0
0 0
0 0
0 0
0 0
0 0
0 0
0 0
0 0
0 0
0 0
0 0
0 0
0 0
0 0
0 0
0 0
0 0
0 0
0 0
0 0
0 0
0 0
0 0
0 0
0 0
0 0
0 0
0 0
0 0
0 0
0 0
0 0
0 0
0 0
0 0
0 0
0 0
0 0
0 0
0 0
0 0
0 0
0 0
0 0
0 0
0 0
0 0
0 0
0 0
0 0
0 0
0 0
0 0
0 0
0 0
0 0
0 0
0 0
0 0
0 0
0 0
0 0
0 0
0 0
0 0
0 0
0 0
0 0
0 0
0 0
0 0
0 0
0 0
0 0
0 0
0 0
0 0
0 0
0 0
0 0
0 0
0 0
0 0
0 0
0 0
0 0
0 0
0 0
0 0
0 0
0 0
0 0
0 0
0 0
0 0
0 0
0 0
0 0
0 0
0 0
0 0
0 0
0 0
0 0
0 0
0 0
0 0
0 0
0 0
0 0
0 0
0 0
0 0
0 0
0 0
0 0
0 0
0 0
0 0
0 0
0 0
0 0
0 0
0 0
0 0
0 0
0 0
0 0
0 0
0 0
0 0
0 0
0 0
0 0
0 0
0 0
0 0
0 0
0 0
0 0
0 0
0 0
0 0
0 0
0 0
0 0
0 0
0 0
0 0
0 0
0 0
0 0
0 0
0 0
0 0
0 0
0 0
0 0
0 0
0 0
0 0
0 0
0 0
0 0
0 0
0 0
0 0
0 0
0 0
0 0
0 0
0 0
0 0
0 0
0 0
0 0
0 0
0 0
0 0
0 0
0 0
0 0
0 0
0 0
0 0
0 0
0 0
0 0
0 0
0 0
0 0
0 0
0 0
0 0
0 0
0 0
0 0
0 0
0 0
0 0
0 0
0 0
0 0
0 0
0 0
0 0
0 0
0 0
0 0
0 0
0 0
0 0
0 0
0 0
0 0
0 0
0 0
0 0
0 0
0 0
0 0
0 0
0 0
0 0
0 0
0 0
0 0
0 0
0 0
0 0
0 0
0 0
0 0
0 0
0 0
0 0
0 0
0 0
0 0
0 0
0 0
0 0
0 0
0 0
0 0
0 0
0 0
0 0
0 0
0 0
0 0
0 0
0 0
0 0
0 0
0 0
0 0
0 0
0 0
0 0
0 0
0 0
0 0
0 0
0 0
0 0
0 0
0 0
0 0
0 0
0 0
0 0
0 0
0 0
0 0
0 0
0 0
0 0
0 0
0 0
0 0
0 0
0 0
0 0
0 0
0 0
0 0
0 0
0 0
0 0
0 0
0 0
0 0
0 0
0 0
0 0
0 0
0 0
0 0
0 0
0 0
0 0
0 0
0 0
0 0
0 0
0 0
0 0
0 0
0 0
0 0
0 0
0 0
0 0
0 0
0 0
0 0
0 0
0 0
0 0
0 0
0 0
0 0
0 0
0 0
0 0
0 0
0 0
0 0
0 0
0 0
0 0
0 0
0 0
0 0
0 0
0 0
0 0
0 0
0 0
0 0
0 0
0 0
0 0
0 0
0 0
0 0
0 0
0 0
0 0
0 0
0 0
0 0
0 0
0 0
0 0
0 0
0 0
0 0
0 0
0 0
0 0
0 0
0 0
0 0
0 0
0 0
0 0
0 0
0 0
0 0
0 0
0 0
0 0
0 0
0 0
0 0
0 0
0 0
0 0
0 0
0 0
0 0
0 0
0 0
0 0
0 0
0 0
0 0
0 0
0 0
0 0
0 0
0 0
0 0
0 0
0 0
0 0
0 0
0 0
0 0
0 0
0 0
0 0
0 0
0 0
0 0
0 0
0 0
0 0
0 0
0 0
0 0
0 0
0 0
0 0
0 0
0 0
0 0
0 0
0 0
0 0
0 0
0 0
0 0
0 0
0 0
0 0
0 0
0 0
0 0
0 0
0 0
0 0
0 0
0 0
0 0
0 0
0 0
0 0
0 0
0 0
0 0
0 0
0 0
0 0
0 0
0 0
0 0
0 0
0 0
0 0
0 0
0 0
0 0
0 0
0 0
0 0
0 0
0 0
0 0
0 0
0 0
0 0
0 0
0 0
0 0
0 0
0 0
0 0
0 0
0 0
0 0
0 0
0 0
0 0
0 0
0 0
0 0
0 0
0 0
0 0
0 0
0 0
0 0
0 0
0 0
0 0
0 0
0 0
0 0
0 0
0 0
0 0
0 0
0 0
0 0
0 0
0 0
0 0
0 0
0 0
0 0
0 0
0 0
0 0
0 0
0 0
0 0
0 0
0 0
0 0
0 0
0 0
0 0
0 0
0 0
0 0
0 0
0 0
0 0
0 0
0 0
0 0
0 0
0 0
0 0
0 0
0 0
0 0
0 0
0 0
0 0
0 0
0 0
0 0
0 0
0 0
0 0
0 0
0 0
0 0
0 0
0 0
0 0
0 0
0 0
0 0
0 0
0 0
0 0
0 0
0 0
0 0
0 0
0 0
0 0
0 0
0 0
0 0
0 0
0 0
0 0
0 0
0 0
0 0
0 0
0 0
0 0
0 0
0 0
0 0
0 0
0 0
0 0
0 0
0 0
0 0
0 0
0 0
0 0
0 0
0 0
0 0
0 0
0 0
0 0
0 0
0 0
0 0
0 0
0 0
0 0
0 0
0 0
0 0
0 0
0 0
0 0
0 0
0 0
0 0
0 0
0 0
0 0
0 0
0 0
0 0
0 0
0 0
0 0
0 0
0 0
0 0
0 0
0 0
0 0
0 0
0 0
0 0
0 0
0 0
0 0
0 0
0 0
0 0
0 0
0 0
0 0
0 0
0 0
0 0
0 0
0 0
0 0
0 0
0 0
0 0
0 0
0 0
0 0
0 0
0 0
0 0
0 0
0 0
0 0
0 0
0 0
0 0
0 0
0 0
0 0
0 0
0 0
0 0
0 0
0 0
0 0
0 0
0 0
0 0
0 0
0 0
0 0
0 0
0 0
0 0
0 0
0 0
0 0
0 0
0 0
0 0
0 0
0 0
0 0
0 0
0 0
0 0
0 0
0 0
0 0
0 0
0 0
0 0
0 0
0 0
0 0
0 0
0 0
0 0
0 0
0 0
0 0
0 0
0 0
0 0
0 0
0 0
0 0
0 0
0 0
0 0
0 0
0 0
0 0
0 0
0 0
0 0
0 0
0 0
0 0
0 0
0 0
0 0
0 0
0 0
0 0
0 0
0 0
0 0
0 0
0 0
0 0
0 0
0 0
0 0
0 0
0 0
0 0
0 0
0 0
0 0
0 0
0 0
0 0
0 0
0 0
0 0
0 0
0 0
0 0
0 0
0 0
0 0
0 0
0 0
0 0
0 0
0 0
0 0
0 0
0 0
0 0
0 0
0 0
0 0
0 0
0 0
0 0
0 0
0 0
0 0
0 0
0 0
0 0
0 0
0 0
0 0
0 0
0 0
0 0
0 0
0 0
0 0
0 0
0 0
0 0
0 0
0 0
0 0
0 0
0 0
0 0
0 0
0 0
0 0
0 0
0 0
0 0
0 0
0 0
0 0
0 0
0 0
0 0
0 0
0 0
0 0
0 0
0 0
0 0
0 0
0 0
0 0
0 0
0 0
0 0
0 0
0 0
0 0
0 0
0 0
0 0
0 0
0 0
0 0
0 0
0 0
0 0
0 0
0 0
0 0
0 0
0 0
0 0
0 0
0 0
0 0
0 0
0 0
0 0
0 0
0 0
0 0
0 0
0 0
0 0
0 0
0 0
0 0
0 0
0 0
0 0
0 0
0 0
0 0
0 0
0 0
0 0
0 0
0 0
0 0
0 0
0 0
0 0
0 0
0 0
0 0
0 0
0 0
0 0
0 0
0 0
0 0
0 0
0 0
0 0
0 0
0 0
0 0
0 0
0 0
0 0
0 0
0 0
0 0
0 0
0 0
0 0
0 0
0 0
0 0
0 0
0 0
0 0
0 0
0 0
0 0
0 0
0 0
0 0
0 0
0 0
0 0
0 0
0 0
0 0
0 0
0 0
0 0
0 0
0 0
0 0
0 0
0 0
0 0
0 0
0 0
0 0
0 0
0 0
0 0
0 0
0 0
0 0
0 0
0 0
0 0
0 0
0 0
0 0
0 0
0 0
0 0
0 0
0 0
0 0
0 0
0 0
0 0
0 0
0 0
0 0
0 0
0 0
0 0
0 0
0 0
0 0
0 0
0 0
0 0
0 0
0 0
0 0
0 0
0 0
0 0
0 0
0 0
0 0
0 0
0 0
0 0
0 0
0 0
0 0
0 0
0 0
0 0
0 0
0 0
0 0
0 0
0 0
0 0
0 0
0 0
0 0
0 0
0 0
0 0
0 0
0 0
0 0
0 0
0 0
0 0
0 0
0 0
0 0
0 0
0 0
0 0
0 0
0 0
0 0
0 0
0 0
0 0
0 0
0 0
0 0
0 0
0 0
0 0
0 0
0 0
0 0
0 0
0 0
0 0
0 0
0 0
0 0
0 0
0 0
0 0
0 0
0 0
0 0
0 0
0 0
0 0
0 0
0 0
0 0
0 0
0 0
0 0
0 0
0 0
0 0
0 0
0 0
0 0
0 0
0 0
0 0
0 0
0 0
0 0
0 0
0 0
0 0
0 0
0 0
0 0
0 0
0 0
0 0
0 0
0 0
0 0
0 0
0 0
0 0
0 0
0 0
0 0
0 0
0 0
0 0
0 0
0 0
0 0
0 0
0 0
0 0
0 0
0 0
0 0
0 0
0 0
0 0
0 0
0 0
0 0
0 0
0 0
0 0
0 0
0 0
0 0
0 0
0 0
0 0
0 0
0 0
0 0
0 0
0 0
0 0
0 0
0 0
0 0
0 0
0 0
0 0
0 0
0 0
0 0
0 0
0 0
0 0
0 0
0 0
0 0
0 0
0 0
0 0
0 0
0 0
0 0
0 0
0 0
0 0
0 0
0 0
0 0
0 0
0 0
0 0
0 0
0 0
0 0
0 0
0 0
0 0
0 0
0 0
0 0
0 0
0 0
0 0
0 0
0 0
0 0
0 0
0 0
0 0
0 0
0 0
0 0
0 0
0 0
0 0
0 0
0 0
0 0
0 0
0 0
0 0
0 0
0 0
0 0
0 0
0 0
0 0
0 0
0 0
0 0
0 0
0 0
0 0
0 0
0 0
0 0
0 0
0 0
0 0
0 0
0 0
0 0
0 0
0 0
0 0
0 0
0 0
0 0
0 0
0 0
0 0
0 0
0 0
0 0
0 0
0 0
0 0
0 0
0 0
0 0
0 0
0 0
0 0
0 0
0 0
0 0
0 0
0 0
0 0
0 0
0 0
0 0
0 0
0 0
0 0
0 0
0 0
0 0
0 0
0 0
0 0
0 0
0 0
0 0
0 0
0 0
0 0
0 0
0 0
0 0
0 0
0 0
0 0
0 0
0 0
0 0
0 0
0 0
0 0
0 0
0 0
0 0
0 0
0 0
0 0
0 0
0 0
0 0
0 0
0 0
0 0
0 0
0 0
0 0
0 0
0 0
0 0
0 0
0 0
0 0
0 0
0 0
0 0
0 0
0 0
0 0
0 0
0 0
0 0
0 0
0 0
0 0
0 0
0 0
0 0
0 0
0 0
0 0
0 0
0 0
0 0
0 0
0 0
0 0
0 0
0 0
0 0
0 0
0 0
0 0
0 0
0 0
0 0
0 0
0 0
0 0
0 0
0 0
0 0
0 0
0 0
0 0
0 0
0 0
0 0
0 0
0 0
0 0
0 0
0 0
0 0
0 0
0 0
0 0
0 0
0 0
0 0
0 0
0 0
0 0
0 0
0 0
0 0
0 0
0 0
0 0
0 0
0 0
0 0
0 0
0 0
0 0
0 0
0 0
0 0
0 0
0 0
0 0
0 0
0 0
0 0
0 0
0 0
0 0
0 0
0 0
0 0
0 0
0 0
0 0
0 0
0 0
0 0
0 0
0 0
0 0
0 0
0 0
0 0
0 0
0 0
0 0
0 0
0 0
0 0
0 0
0 0
0 0
0 0
0 0
0 0
0 0
0 0
0 0
0 0
0 0
0 0
0 0
0 0
0 0
0 0
0 0
0 0
0 0
0 0
0 0
0 0
0 0
0 0
0 0
0 0
0 0
0 0
0 0
0 0
0 0
0 0
0 0
0 0
0 0
0 0
0 0
0 0
0 0
0 0
0 0
0 0
0 0
0 0
0 0
0 0
0 0
0 0
0 0
0 0
0 0
0 0
0 0
0 0
0 0
0 0
0 0
0 0
0 0
0 0
0 0
0 0
0 0
0 0
0 0
0 0
0 0
0 0
0 0
0 0
0 0
0 0
0 0
0 0
0 0
0 0
0 0
0 0
0 0
0 0
0 0
0 0
0 0
0 0
0 0
0 0
0 0
0 0
0 0
0 0
0 0
0 0
0 0
0 0
0 0
0 0
0 0
0 0
0 0
0 0
0 0
0 0
0 0
0 0
0 0
0 0
0 0
0 0
0 0
0 0
0 0
0 0
0 0
0 0
0 0
0 0
0 0
0 0
0 0
0 0
0 0
0 0
0 0
0 0
0 0
0 0
0 0
0 0
0 0
0 0
0 0
0 0
0 0
0 0
0 0
0 0
0 0
0 0
0 0
0 0
0 0
0 0
0 0
0 0
0 0
0 0
0 0
0 0
0 0
0 0
0 0
0 0
0 0
0 0
0 0
0 0
0 0
0 0
0 0
0 0
0 0
0 0
0 0
0 0
0 0
0 0
0 0
0 0
0 0
0 0
0 0
0 0
0 0
0 0
0 0
0 0
0 0
0 0
0 0
0 0
0 0
0 0
0 0
0 0
0 0
0 0
0 0
0 0
0 0
0 0
0 0
0 0
0 0
0 0
0 0
0 0
0 0
0 0
0 0
0 0
0 0
0 0
0 0
0 0
0 0
0 0
0 0
0 0
0 0
0 0
0 0
0 0
0 0
0 0
0 0
0 0
0 0
0 0
0 0
0 0
0 0
0 0
0 0
0 0
0 0
0 0
0 0
0 0
0 0
0 0
0 0
0 0
0 0
0 0
0 0
0 0
0 0
0 0
0 0
0 0
0 0
0 0
0 0
0 0
0 0
0 0
0 0
0 0
0 0
0 0
0 0
0 0
0 0
0 0
0 0
0 0
0 0
0 0
0 0
0 0
0 0
0 0
0 0
0 0
0 0
0 0
0 0
0 0
0 0
0 0
0 0
0 0
0 0
0 0
0 0
0 0
0 0
0 0
0 0
0 0
0 0
0 0
0 0
0 0
0 0
0 0
0 0
0 0
0 0
0 0
0 0
0 0
0 0
0 0
0 0
0 0
0 0
0 0
0 0
0 0
0 0
0 0
0 0
0 0
0 0
0 0
0 0
0 0
0 0
0 0
0 0
0 0
0 0
0 0
0 0
0 0
0 0
0 0
0 0
0 0
0 0
0 0
0 0
0 0
0 0
0 0
0 0
0 0
0 0
0 0
0 0
0 0
0 0
0 0
0 0
0 0
0 0
0 0
0 0
0 0
0 0
0 0
0 0
0 0
0 0
0 0
0 0
0 0
0 0
0 0
0 0
0 0
0 0
0 0
0 0
0 0
0 0
0 0
0 0
0 0
0 0
0 0
0 0
0 0
0 0
0 0
0 0
0 0
0 0
0 0
0 0
0 0
0 0
0 0
0 0
0 0
0 0
0 0
0 0
0 0
0 0
0 0
0 0
0 0
0 0
0 0
0 0
0 0
0 0
0 0
0 0
0 0
0 0
0 0
0 0
0 0
0 0
0 0
0 0
0 0
0 0
0 0
0 0
0 0
0 0
0 0
0 0
0 0
0 0
0 0
0 0
0 0
0 0
0 0
0 0
0 0
0 0
0 0
0 0
0 0
0 0
0 0
0 0
0 0
0 0
0 0
0 0
0 0
0 0
0 0
0 0
0 0
0 0
0 0
0 0
0 0
0 0
0 0
0 0
0 0
0 0
0 0
0 0
0 0
0 0
0 0
0 0
0 0
0 0
0 0
0 0
0 0
0 0
0 0
0 0
0 0
0 0
0 0
0 0
0 0
0 0
0 0
0 0
0 0
0 0
0 0
0 0
0 0
0 0
0 0
0 0
0 0
0 0
0 0
0 0
0 0
0 0
0 0
0 0
0 0
0 0
0 0
0 0
0 0
0 0
0 0
0 0
0 0
0 0
0 0
0 0
0 0
0 0
0 0
0 0
0 0
0 0
0 0
0 0
0 0
0 0
0 0
0 0
0 0
0 0
0 0
0 0
0 0
0 0
0 0
0 0
0 0
0 0
0 0
0 0
0 0
0 0
0 0
0 0
0 0
0 0
0 0
0 0
0 0
0 0
0 0
0 0
0 0
0 0
0 0
0 0
0 0
0 0
0 0
0 0
0 0
0 0
0 0
0 0
0 0
0 0
0 0
0 0
0 0
0 0
0 0
0 0
0 0
0 0
0 0
0 0
0 0
0 0
0 0
0 0
0 0
0 0
0 0
0 0
0 0
0 0
0 0
0 0
0 0
0 0
0 0
0 0
0 0
0 0
0 0
0 0
0 0
0 0
0 0
0 0
0 0
0 0
0 0
0 0
0 0
0 0
0 0
0 0
0 0
0 0
0 0
0 0
0 0
0 0
0 0
0 0
0 0
0 0
0 0
0 0
0 0
0 0
0 0
0 0
0 0
0 0
0 0
0 0
0 0
0 0
0 0
0 0
0 0
0 0
0 0
0 0
0 0
0 0
0 0
0 0
0 0
0 0
0 0
0 0
0 0
0 0
0 0
0 0
0 0
0 0
0 0
0 0
0 0
0 0
0 0
0 0
0 0
0 0
0 0
0 0
0 0
0 0
0 0
0 0
0 0
0 0
0 0
0 0
0 0
0 0
0 0
0 0
0 0
0 0
0 0
0 0
0 0
0 0
0 0
0 0
0 0
0 0
0 0
0 0
0 0
0 0
0 0
0 0
0 0
0 0
0 0
0 0
0 0
0 0
0 0
0 0
0 0
0 0
0 0
0 0
0 0
0 0
0 0
0 0
0 0
0 0
0 0
0 0
0 0
0 0
0 0
0 0
0 0
0 0
0 0
0 0
0 0
0 0
0 0
0 0
0 0
0 0
0 0
0 0
0 0
0 0
0 0
0 0
0 0
0 0
0 0
0 0
0 0
0 0
0 0
0 0
0 0
0 0
0 0
0 0
0 0
0 0
0 0
0 0
0 0
0 0
0 0
0 0
0 0
0 0
0 0
0 0
0 0
0 0
0 0
0 0
0 0
0 0
0 0
0 0
0 0
0 0
0 0
0 0
0 0
0 0
0 0
0 0
0 0
0 0
0 0
0 0
0 0
0 0
0 0
0 0
0 0
0 0
0 0
0 0
0 0
0 0
0 0
0 0
0 0
0 0
0 0
0 0
0 0
0 0
0 0
0 0
0 0
0 0
0 0
0 0
0 0
0 0
0 0
0 0
0 0
0 0
0 0
0 0
0 0
0 0
0 0
0 0
0 0
0 0
0 0
0 0
0 0
0 0
0 0
0 0
0 0
0 0
0 0
0 0
0 0
0 0
0 0
0 0
0 0
0 0
0 0
0 0
0 0
0 0
0 0
0 0
0 0
0 0
0 0
0 0
0 0
0 0
0 0
0 0
0 0
0 0
0 0
0 0
0 0
0 0
0 0
0 0
0 0
0 0
0 0
0 0
0 0
0 0
0 0
0 0
0 0
0 0
0 0
0 0
0 0
0 0
0 0
0 0
0 0
0 0
0 0
0 0
0 0
0 0
0 0
0 0
0 0
0 0
0 0
0 0
0 0
0 0
0 0
0 0
0 0
0 0
0 0
0 0
0 0
0 0
0 0
0 0
0 0
0 0
0 0
0 0
0 0
0 0
0 0
0 0
0 0
0 0
0 0
0 0
0 0
0 0
0 0
0 0
0 0
0 0
0 0
0 0
0 0
0 0
0 0
0 0
0 0
0 0
0 0
0 0
0 0
0 0
0 0
0 0
0 0
0 0
0 0
0 0
0 0
0 0
0 0
0 0
0 0
0 0
0 0
0 0
0 0
0 0
0 0
0 0
0 0
0 0
0 0
0 0
0 0
0 0
0 0
0 0
0 0
0 0
0 0
0 0
0 0
0 0
0 0
0 0
0 0
0 0
0 0
0 0
0 0
0 0
0 0
0 0
0 0
0 0
0 0
0 0
0 0
0 0
0 0
0 0
0 0
0 0
0 0
0 0
0 0
0 0
0 0
0 0
0 0
0 0
0 0
0 0
0 0
0 0
0 0
0 0
0 0
0 0
0 0
0 0
0 0
0 0
0 0
0 0
0 0
0 0
0 0
0 0
0 0
0 0
0 0
0 0
0 0
0 0
0 0
0 0
0 0
0 0
0 0
0 0
0 0
0 0
0 0
0 0
0 0
0 0
0 0
0 0
0 0
0 0
0 0
0 0
0 0
0 0
0 0
0 0
0 0
0 0
0 0
0 0
0 0
0 0
0 0
0 0
0 0
0 0
0 0
0 0
0 0
0 0
0 0
0 0
0 0
0 0
0 0
0 0
0 0
0 0
0 0
0 0
0 0
0 0
0 0
0 0
0 0
0 0
0 0
0 0
0 0
0 0
0 0
0 0
0 0
0 0
0 0
0 0
0 0
0 0
0 0
0 0
0 0
0 0
0 0
0 0
0 0
0 0
0 0
0 0
0 0
0 0
0 0
0 0
0 0
0 0
0 0
0 0
0 0
0 0
0 0
0 0
0 0
0 0
0 0
0 0
0 0
0 0
0 0
0 0
0 0
0 0
0 0
0 0
0 0
0 0
0 0
0 0
0 0
0 0
0 0
0 0
0 0
0 0
0 0
0 0
0 0
0 0
0 0
0 0
0 0
0 0
0 0
0 0
0 0
0 0
0 0
0 0
0 0
0 0
0 0
0 0
0 0
0 0
0 0
0 0
0 0
0 0
0 0
0 0
0 0
0 0
0 0
0 0
0 0
0 0
0 0
0 0
0 0
0 0
0 0
0 0
0 0
0 0
0 0
0 0
0 0
0 0
0 0
0 0
0 0
0 0
0 0
0 0
0 0
0 0
0 0
0 0
0 0
0 0
0 0
0 0
0 0
0 0
0 0
0 0
0 0
0 0
0 0
0 0
0 0
0 0
0 0
0 0
0 0
0 0
0 0
0 0
0 0
0 0
0 0
0 0
0 0
0 0
0 0
0 0
0 0
0 0
0 0
0 0
0 0
0 0
0 0
0 0
0 0
0 0
0 0
0 0
0 0
0 0
0 0
0 0
0 0
0 0
0 0
0 0
0 0
0 0
0 0
0 0
0 0
0 0
0 0
0 0
0 0
0 0
0 0
0 0
0 0
0 0
0 0
0 0
0 0
0 0
0 0
0 0
0 0
0 0
0 0
0 0
0 0
0 0
0 0
0 0
0 0
0 0
0 0
0 0
0 0
0 0
0 0
0 0
0 0
0 0
0 0
0 0
0 0
0 0
0 0
0 0
0 0
0 0
0 0
0 0
0 0
0 0
0 0
0 0
0 0
0 0
0 0
0 0
0 0
0 0
0 0
0 0
0 0
0 0
0 0
0 0
0 0
0 0
0 0
0 0
0 0
0 0
0 0
0 0
0 0
0 0
0 0
0 0
0 0
0 0
0 0
0 0
0 0
0 0
0 0
0 0
0 0
0 0
0 0
0 0
0 0
0 0
0 0
0 0
0 0
0 0
0 0
0 0
0 0
0 0
0 0
0 0
0 0
0 0
0 0
0 0
0 0
0 0
0 0
0 0
0 0
0 0
0 0
0 0
0 0
0 0
0 0
0 0
0 0
0 0
0 0
0 0
0 0
0 0
0 0
0 0
0 0
0 0
0 0
0 0
0 0
0 0
0 0
0 0
0 0
0 0
0 0
0 0
0 0
0 0
0 0
0 0
0 0
0 0
0 0
0 0
0 0
0 0
0 0
0 0
0 0
0 0
0 0
0 0
0 0
0 0
0 0
0 0
0 0
0 0
0 0
0 0
0 0
0 0
0 0
0 0
0 0
0 0
0 0
0 0
0 0
0 0
0 0
0 0
0 0
0 0
0 0
0 0
0 0
0 0
0 0
0 0
0 0
0 0
0 0
0 0
0 0
0 0
0 0
0 0
0 0
0 0
0 0
0 0
0 0
0 0
0 0
0 0
0 0
0 0
0 0
0 0
0 0
0 0
0 0
0 0
0 0
0 0
0 0
0 0
0 0
0 0
0 0
0 0
0 0
0 0
0 0
0 0
0 0
0 0
0 0
0 0
0 0
0 0
0 0
0 0
0 0
0 0
0 0
0 0
0 0
0 0
0 0
0 0
0 0
0 0
0 0
0 0
0 0
0 0
0 0
0 0
0 0
0 0
0 0
0 0
0 0
0 0
0 0
0 0
0 0
0 0
0 0
0 0
0 0
0 0
0 0
0 0
0 0
0 0
0 0
0 0
0 0
0 0
0 0
0 0
0 0
0 0
0 0
0 0
0 0
0 0
0 0
0 0
0 0
0 0
0 0
0 0
0 0
0 0
0 0
0 0
0 0
0 0
0 0
0 0
0 0
0 0
0 0
0 0
0 0
0 0
0 0
0 0
0 0
0 0
0 0
0 0
0 0
0 0
0 0
0 0
0 0
0 0
0 0
0 0
0 0
0 0
0 0
0 0
0 0
0 0
0 0
0 0
0 0
0 0
0 0
0 0
0 0
0 0
0 0
0 0
0 0
0 0
0 0
0 0
0 0
0 0
0 0
0 0
0 0
0 0
0 0
0 0
0 0
0 0
0 0
0 0
0 0
0 0
0 0
0 0
0 0
0 0
0 0
0 0
0 0
0 0
0 0
0 0
0 0
0 0
0 0
0 0
0 0
0 0
0 0
0 0
0 0
0 0
0 0
0 0
0 0
0 0
0 0
0 0
0 0
0 0
0 0
0 0
0 0
0 0
0 0
0 0
0 0
0 0
0 0
0 0
0 0
0 0
0 0
0 0
0 0
0 0
0 0
0 0
0 0
0 0
0 0
0 0
0 0
0 0
0 0
0 0
0 0
0 0
0 0
0 0
0 0
0 0
0 0
0 0
0 0
0 0
0 0
0 0
0 0
0 0
0 0
0 0
0 0
0 0
0 0
0 0
0 0
0 0
0 0
0 0
0 0
0 0
0 0
0 0
0 0
0 0
0 0
0 0
0 0
0 0
0 0
0 0
0 0
0 0
0 0
0 0
0 0
0 0
0 0
0 0
0 0
0 0
0 0
0 0
0 0
0 0
0 0
0 0
0 0
0 0
0 0
0 0
0 0
0 0
0 0
0 0
0 0
0 0
0 0
0 0
0 0
0 0
0 0
0 0
0 0
0 0
0 0
0 0
0 0
0 0
0 0
0 0
0 0
0 0
0 0
0 0
0 0
0 0
0 0
0 0
0 0
0 0
0 0
0 0
0 0
0 0
0 0
0 0
0 0
0 0
0 0
0 0
0 0
0 0
0 0
0 0
0 0
0 0
0 0
0 0
0 0
0 0
0 0
0 0
0 0
0 0
0 0
0 0
0 0
0 0
0 0
0 0
0 0
0 0
0 0
0 0
0 0
0 0
0 0
0 0
0 0
0 0
0 0
0 0
0 0
0 0
0 0
0 0
0 0
0 0
0 0
0 0
0 0
0 0
0 0
0 0
0 0
0 0
0 0
0 0
0 0
0 0
0 0
0 0
0 0
0 0
0 0
0 0
0 0
0 0
0 0
0 0
0 0
0 0
0 0
0 0
0 0
0 0
0 0
0 0
0 0
0 0
0 0
0 0
0 0
0 0
0 0
0 0
0 0
0 0
0 0
0 0
0 0
0 0
0 0
0 0
0 0
0 0
0 0
0 0
0 0
0 0
0 0
0 0
0 0
0 0
0 0
0 0
0 0
0 0
0 0
0 0
0 0
0 0
0 0
0 0
0 0
0 0
0 0
0 0
0 0
0 0
0 0
0 0
0 0
0 0
0 0
0 0
0 0
0 0
0 0
0 0
0 0
0 0
0 0
0 0
0 0
0 0
0 0
0 0
0 0
0 0
0 0
0 0
0 0
0 0
0 0
0 0
0 0
0 0
0 0
0 0
0 0
0 0
0 0
0 0
0 0
0 0
0 0
0 0
0 0
0 0
0 0
0 0
0 0
0 0
0 0
0 0
0 0
0 0
0 0
0 0
0 0
0 0
0 0
0 0
0 0
0 0
0 0
0 0
0 0
0 0
0 0
0 0
0 0
0 0
0 0
0 0
0 0
0 0
0 0
0 0
0 0
0 0
0 0
0 0
0 0
0 0
0 0
0 0
0 0
0 0
0 0
0 0
0 0
0 0
0 0
0 0
0 0
0 0
0 0
0 0
0 0
0 0
0 0
0 0
0 0
0 0
0 0
0 0
0 0
0 0
0 0
0 0
0 0
0 0
0 0
0 0
0 0
0 0
0 0
0 0
0 0
0 0
0 0
0 0
0 0
0 0
0 0
0 0
0 0
0 0
0 0
0 0
0 0
0 0
0 0
0 0
0 0
0 0
0 0
0 0
0 0
0 0
0 0
0 0
0 0
0 0
0 0
0 0
0 0
0 0
0 0
0 0
0 0
0 0
0 0
0 0
0 0
0 0
0 0
0 0
0 0
0 0
0 0
0 0
0 0
0 0
0 0
0 0
0 0
0 0
0 0
0 0
0 0
0 0
0 0
0 0
0 0
0 0
0 0
0 0
0 0
0 0
0 0
0 0
0 0
0 0
0 0
0 0
0 0
0 0
0 0
0 0
0 0
0 0
0 0
0 0
0 0
0 0
0 0
0 0
0 0
0 0
0 0
0 0
0 0
0 0
0 0
0 0
0 0
0 0
0 0
0 0
0 0
0 0
0 0
0 0
0 0
0 0
      </DataArray> 
      <DataArray type="Float64" NumberOfComponents="2" Name="CauchyNormalStress" format="ascii">
17.0836 10.4874
15.5646 8.53566
16.4542 1.70741
8.41568 -0.411527
5.6781 0.0700086
3.49348 -0.0239159
2.26891 -0.184738
1.45491 -0.184819
0.510446 -0.0829913
-0.169386 -0.00764693
-0.701889 -0.0882615
-1.02474 -0.121983
-1.48425 -0.0642545
-1.78168 -0.00288043
-1.97886 -0.0709186
-2.025 -0.087848
-2.17122 -0.0327315
-2.17904 0.0077444
-2.09076 -0.0655929
-1.84704 -0.0882511
-1.70369 -0.0322847
-1.41994 0.00552123
-1.01318 -0.082163
-0.400111 -0.119124
0.0853941 -0.0417356
0.774049 0.0269957
1.70106 -0.0879695
3.23233 -0.383756
4.69755 -0.548853
7.01667 -0.261225
14.8061 0.742589
-1.498 1.94988
-1.97479 2.26817
-1.78148 4.11015
5.25862 13.8409
-1.35804 -0.0503262
-0.362678 0.106373
-0.0795164 -0.157038
-0.194606 -0.378158
-0.186873 -0.465269
-0.0483348 -0.852826
-0.0322342 -0.975247
-0.0252841 -1.10766
-0.0745709 -1.14807
-0.116187 -1.27856
-0.13178 -1.0748
-0.142429 -1.18773
-0.183117 -1.15518
-0.248829 -1.17676
-0.313515 -1.06958
-0.369711 -1.05865
-0.421085 -0.875034
-0.513418 -0.927988
-0.0122504 -1.20103
-1.07576 -0.0791273
-1.28189 -0.100609
-0.968242 -0.237846
-1.04904 -0.307692
-0.736886 -0.533657
-142.978 -364.943
-0.809405 -3.45205
-0.253932 -1.27502
-1.73825 -4.31711
-13.9871 -70.7151
-4.8626 -62.4862
0.0439301 -35.5861
-2.77078 -37.4836
-3.20567 -36.8071
-5.82324 -42.7701
31.596 1.93465
-23.5381 -70.8889
-31.2311 -84.8332
-43.153 -127.18
-14.1372 -70.2002
33.1204 0.882566
45.7193 18.4353
-35.2403 -13.2592
-129.94 -350.03
-5.19512 -62.7352
0.0329281 -35.9743
-2.86547 -37.6932
-3.20688 -36.9144
-5.79824 -42.7436
0.0307507 -1.53715
-0.789158 -3.40151
-0.388074 -1.27467
-2.29559 -3.83863
-1.47101 0.195878
-0.390599 -2.68772
-0.0690227 -1.49493
-0.373379 -1.87789
-0.410018 -1.08141
-0.501196 -0.955739
-1.09969 2.02016
-1.06778 -0.0237023
-1.24489 -0.165814
-0.917711 -0.194452
-1.0333 -0.362551
-0.801399 -0.356216
-0.793882 -0.525562
-0.640924 -0.599502
-0.614865 -0.718966
-0.527875 -0.862857
-0.436774 -0.873443
-0.382363 -1.06415
-0.263928 -0.999166
-0.20467 -1.20401
-0.117118 -1.18142
-0.142248 -1.23651
-0.118941 -1.09698
-0.0759367 -1.16125
-1.47374 3.08013
-0.537306 5.47467
5.72826 12.9333
-36.4624 -21.7981
-22.2216 -56.8527
-35.3324 -23.5866
-19.4191 -76.9546
-24.8029 -62.2495
-4.34135 -45.8401
-36.0382 -17.1797
9.55658 -50.7246
2.95802 -7.45173
2.00236 -7.69821
-6.48713 -78.9065
-6.84888 -81.1719
4.59675 -18.8107
1.83023 -8.81584
0.887314 -38.3477
1.01965 -33.4979
-0.500018 -38.5568
1.96884 -29.262
1.22747 -34.0416
-3.4031 -32.4
-0.383767 -32.5636
-0.92221 -35.2575
-4.608 -34.8137
2.8317 -26.9952
3.62606 -25.7807
3.115 -35.1565
-18.5284 -11.458
-19.2968 -11.4645
-20.5123 -12.6323
1.77019 -40.8245
2.44606 -31.0714
-10.6023 -35.9716
-10.1256 -33.7991
-0.556911 -45.4786
-2.96345 -43.8446
-8.22962 -38.5783
-9.25559 -41.3953
-0.734822 -42.1732
-14.1947 -9.35924
-16.9151 -9.96135
-15.6961 -10.0637
1.58417 -26.0033
2.14701 -27.4128
-15.8682 -16.1868
-10.4471 -24.4829
-2.25214 -28.1376
0.833091 -24.4781
0.599262 -26.1923
-2.36558 -30.4161
-11.1432 -26.2472
-16.8985 -16.8337
3.27645 -22.5759
4.48424 -31.3722
-26.3991 -19.4871
-25.6764 -15.518
-21.5515 -12.4681
-22.5911 -17.0456
5.63646 -32.449
6.06749 -39.0651
4.90487 -37.7734
3.93211 -31.1314
3.89454 -24.312
3.43444 -21.5709
-27.6667 -22.3398
-15.8607 -32.7057
-15.3119 -30.4719
-27.4305 -31.3208
4.45155 -48.2963
0.379558 -61.1718
-10.0491 -45.6289
-1.95213 -48.2763
5.36041 -44.4534
-12.7643 -9.12121
-14.5997 -9.30935
-14.5842 -8.94258
-14.9769 -9.23328
-12.231 -7.77759
-11.834 -7.64938
-11.3231 -7.30067
-12.9561 -8.66782
2.09114 -22.1232
2.8759 -20.0645
3.04265 -19.5802
2.15251 -22.7547
-12.0558 -9.17999
-12.6276 -10.4752
-12.8851 -15.7709
-9.92863 -18.847
-4.74614 -22.2125
-1.54301 -24.0252
-2.21197 -25.2663
-5.53281 -23.5549
-10.763 -20.1675
-13.3039 -16.3339
-13.373 -10.0474
-12.4959 -8.83694
3.14272 -18.9874
4.94655 -24.7826
-35.0261 -28.1039
-29.0154 -16.2548
-31.5226 -19.7845
7.23942 -32.6505
7.24296 -36.7233
4.56927 -24.4727
3.03591 -17.2178
-27.9458 -35.4459
-28.0512 -45.7949
7.71134 -52.3987
-13.2782 -54.3786
-28.5565 -56.515
-10.7193 -47.2818
2.59182 -54.0071
-8.90407 -6.35695
-10.1838 -7.09644
-10.3536 -7.02772
-9.04513 -6.24521
-8.42627 -6.08471
-8.44111 -5.95824
2.46195 -18.2907
2.07431 -17.9991
-8.80598 -7.8016
-6.56733 -13.0597
-0.576681 -18.5793
-1.58277 -19.3771
-7.18133 -13.3609
-8.78966 -7.21504
2.10744 -11.8803
2.60457 -13.7681
3.09211 -16.4581
3.66136 -16.8329
5.10564 -18.4855
6.64487 -24.1891
-30.1908 -44.6097
-37.0806 -17.3922
-33.6484 -30.6867
8.0301 -30.6427
8.19565 -32.4828
6.74207 -26.7717
5.19744 -21.7775
4.0292 -18.5621
2.69325 -14.3271
1.9445 -10.5483
-33.3582 -48.8257
-33.5845 -64.4956
9.12136 -38.8387
8.32294 -70.5966
-31.9998 -74.9268
9.45774 -52.577
8.8751 -36.5198
-18.3934 -61.1792
5.25359 -64.2671
-4.57452 -4.44179
-4.999 -4.22832
-6.30125 -5.15646
-5.38992 -5.12048
-7.34556 -5.26266
-6.80436 -5.3193
-6.98813 -4.85409
-6.98623 -4.9677
-5.62652 -4.31734
-6.00076 -4.30218
-5.26698 -4.71232
-6.04288 -4.64913
-4.27014 -3.96367
-4.79506 -4.34383
2.24528 -16.312
2.43381 -15.8348
2.52715 -13.8097
1.83655 -10.2738
2.54744 -13.3431
2.30386 -16.3368
1.14645 -17.4686
-5.92696 -5.48528
-4.62113 -7.33661
-1.88527 -11.4577
0.502667 -13.952
-1.16758 -15.2402
-2.82624 -11.9001
-5.36158 -7.12524
-5.46338 -4.72331
0.806754 -5.42062
1.69397 -9.46904
2.27691 -10.6353
3.36843 -12.8884
4.64859 -15.524
0.945373 -100.99
-28.5582 -15.2175
-17.1418 -2.03328
-29.305 -11.7062
-3.74061 -92.35
6.98398 -24.1168
6.7239 -23.0597
4.68989 -16.8789
2.84958 -13.5151
0.969845 -6.31406
1.81985 -130.103
-10.3512 -99.6997
1.22248 -125.711
-4.56637 -106.771
7.17038 -40.7813
-18.4264 -104.055
-60.678 -121.61
6.97093 -33.6505
-58.1108 -106.859
-4.83891 -82.4736
-0.494739 -2.4846
-2.12155 -3.34527
-3.87289 -3.34266
-4.43792 -3.11612
-4.06461 -2.93627
-2.76573 -3.00105
-0.595013 -2.71798
3.56727 -11.1938
1.3516 -7.15
1.86041 -7.96159
2.55094 -12.2548
-0.265472 -3.09491
3.83283 -8.86058
5.49107 -7.61682
4.26302 -9.48764
1.56199 -9.82666
-0.407786 -2.9066
0.827101 -3.28717
0.799038 -4.32307
0.198768 -2.37756
0.539774 -4.0404
0.508956 -4.04701
0.991388 -6.2011
0.857365 -5.28566
1.28508 -6.62186
1.35738 -6.562
1.54921 -6.86678
1.30702 -6.0446
-25.7185 -42.559
-13.4233 -4.30716
-12.1135 -3.85769
-26.4978 -29.8422
2.69123 -9.41664
3.34022 -11.288
3.56202 -12.6081
2.45288 -10.6516
3.0536 -17.3579
2.86355 -15.6608
2.586 -11.1303
3.23965 -11.6865
3.29068 -11.1735
2.56479 -9.16878
2.56622 -9.33257
1.94152 -7.9143
1.16026 -5.88063
1.38692 -6.9684
0.383405 -3.75066
0.529365 -3.79045
0.480271 -3.85932
0.344783 -3.1951
1.44487 -70.2809
1.66111 -93.6058
-1.52698 -125.027
1.18955 -68.327
1.10249 -119.693
0.676947 -90.0208
1.00589 -20.8805
-3.74683 -18.8588
-2.55795 -146.217
1.84645 -20.483
3.84545 -98.5144
-1.10368 -26.4571
2.873 -1.35949
6.41024 2.0385
3.50107 -1.92914
0.551467 -1.69446
1.5296 -1.67305
-0.7006 -1.7889
-1.96821 -1.7267
-1.43333 -1.68887
-2.58228 -1.67925
-3.10036 -1.64915
-2.89355 -1.60654
-3.08453 -1.50251
-3.00875 -1.51313
-3.10598 -1.45948
-2.6163 -1.48482
-1.85122 -1.53293
-2.31504 -1.4554
-0.954564 -1.56605
0.994506 -1.71278
-0.218494 -1.52092
2.56154 -1.08835
7.05831 1.42108
3.3124 -1.21738
0.203117 -1.89085
0.20593 -2.21526
0.438197 -2.96874
0.374995 -2.82546
2.00734 -6.99585
4.10786 -2.18048
2.43587 -6.90686
3.82093 -8.2231
3.25348 -3.09382
6.92268 0.176767
4.39431 -4.48521
3.23372 -5.40857
6.19376 0.253589
0.294167 -1.36088
0.254368 -1.21696
0.34808 0.527577
0.584469 -0.654299
0.460892 -0.756989
0.21155 0.199435
2.76928 1.72827
13.164 5.60347
3.3452 1.83707
3.08004 0.227126
3.39385 -0.0892494
10.4105 2.03353
6.34897 -4.90917
7.91677 -1.67054
1.12685 -2.20143
1.37555 -2.34397
-0.42955 -5.66558
0.615796 -5.81793
2.9639 -11.2409
2.5625 -10.8846
0.838319 -5.4302
0.43712 -3.56073
-0.282588 -1.71947
-1.5833 -3.05219
-3.44139 -2.92312
-4.2332 -2.93581
-4.24928 -3.24036
-3.03554 -3.38075
-0.754974 -3.24604
-1.97017 -1.77871
6.89713 -47.3538
4.84926 -60.9661
8.65144 -103.436
9.36813 -106.636
1.10716 -6.59822
3.2494 -13.1787
5.83354 -19.331
5.86 -22.5603
7.24416 -28.8087
5.94079 -19.6501
-27.4668 -32.0216
-24.4407 -43.3339
3.3827 -11.9436
2.87198 -12.2
2.26755 -11.4528
1.21805 -7.18042
2.10339 -13.4222
4.10801 -11.8802
-33.5705 -75.3111
-36.0348 -89.813
-32.5816 -10.1075
-9.83204 -8.99133
-4.80381 -17.4213
-3.80346 -16.5116
-9.60885 -9.58494
1.04819 -21.2743
2.6253 -15.0226
2.82077 -16.3779
1.68282 -20.5253
-7.95244 -5.84471
-8.90346 -6.28482
-7.96685 -5.71667
-9.9169 -6.7282
-10.6697 -7.24174
-9.6903 -6.88118
-8.22985 -6.15175
-5.68434 -51.9763
8.2099 -47.3755
5.52824 -67.2551
7.92666 -41.0496
-33.9703 -42.0165
-35.5026 -29.6245
3.57673 -19.2746
5.84877 -30.059
-24.0098 -13.9657
-33.6988 -21.6868
6.08767 -25.5519
3.75732 -21.4436
-15.5009 -42.4096
-15.1449 -39.7549
-16.9944 -11.3452
-16.6753 -22.9793
-5.88054 -29.5883
-5.25251 -27.7637
-15.9519 -21.3035
-15.8053 -11.7501
3.26928 -24.0791
2.68832 -23.7385
-14.6031 -8.89949
-19.2102 -11.0968
1.6156 -44.5571
-4.52938 -51.1452
1.99125 -37.1041
3.04155 -40.051
0.829571 -30.9514
0.521 -28.3719
-3.01189 -39.8696
-1.36428 -36.8306
3.33815 -30.213
4.06442 -151.95
-2.75455 -1.85683
-16.6714 -35.5592
-6.69965 -32.5017
-4.87978 -4.18829
6.20504 -66.7632
-2.0358 -2.64142
-26.143 -205.612
-17.8535 -63.4821
-3.04329 -3.5607
-9.32016 -36.4424
2.6124 -95.1026
-0.191866 -105.705
-15.0812 -105.25
-13.5501 -85.7428
-8.48133 -166.688
-8.41992 -45.3451
-13.783 -49.844
-9.41238 -73.3546
4.3092 -96.2606
3.74372 -106.085
0.86305 -77.7118
-5.06886 -67.4437
-3.82657 -57.7497
-18.6487 -54.586
-24.3217 -67.7225
-1.20163 -52.7245
3.51277 -87.2338
-0.191694 -110.69
-12.3886 -88.711
-15.1544 -111.227
-9.06112 -75.3299
-8.45326 -45.3928
-13.7578 -49.9853
-14.3481 -184.51
3.08652 -109.15
4.97748 -99.9528
1.39784 -80.3229
-3.73575 -58.8523
-4.75058 -69.1678
-1.09001 -53.7636
-18.7042 -54.9806
-24.3118 -68.9232
4.00995 -90.1416
-16.7831 -11.3488
2.26405 -6.34058
10.3394 3.37042
7.97608 -0.769931
-91.5566 -175.973
-43.7965 -129.016
-67.4482 -99.0982
-26.3708 -33.1221
-19.091 -15.2198
-18.126 -13.913
8.31843 2.04681
0.813292 -6.44193
-67.2472 -111.397
-90.2547 -178.664
-36.1083 -14.8247
7.72506 -1.18152
-18.704 -19.6105
-25.0905 -44.8451
-29.3534 -92.6061
-26.1427 -131.27
1.80915 -99.8195
-94.5991 -149.582
8.05124 -72.6503
-31.7869 -72.5376
-42.3166 -88.5173
-54.0814 -112.167
-11.4867 -130.188
-65.745 -148.387
4.71137 -96.1186
-95.1417 -156.416
-48.098 -103.852
-42.8307 -92.1883
-27.3667 -118.192
-25.4754 -146.055
-4.1255 -115.323
2.01328 -107.651
-19.9106 -99.0907
-30.3766 -103.6
-8.16499 -113.441
-36.9486 -131.79
0.171978 -105.99
-22.7025 -86.7283
3.7803 -111.924
-15.414 -72.4018
-7.42609 -85.1797
-18.3659 -64.136
-28.0655 -176.943
6.8731 -114.692
2.15752 -101.116
-23.6453 -6.28498
-13.3737 -2.97204
-21.6127 -10.1167
6.24819 -1.49801
-27.8438 -20.5582
-30.4351 -10.5408
-25.6422 -7.07506
-23.2857 -8.08369
-22.219 -12.7651
-14.0657 -3.40311
-26.4426 -26.8402
-30.0644 -12.1594
4.76825 -115.154
-5.56842 -92.205
-10.6893 -83.5809
-26.5684 -172.408
-13.6571 -75.3171
3.91419 -103.223
6.13116 -111.74
-29.3311 -64.0958
-17.5575 -74.6895
-5.47819 -65.7023
-11.9377 -56.6579
-36.0489 -82.1515
-19.0176 -84.9417
-0.34667 -85.5676
-4.03483 -74.3334
-31.9266 -65.8035
-23.7284 -58.7603
-16.5268 -51.5955
-22.0252 -49.4046
-27.5767 -46.0004
-31.011 -42.3757
-31.921 -53.1091
-31.8532 -32.3477
-34.0865 -39.5369
-32.5437 -61.3562
-22.0837 -39.0109
-31.3531 -44.0988
-31.0505 -36.9267
-27.3055 -38.4965
-21.5563 -35.4266
-21.8878 -26.7537
-21.6386 -42.94
-31.6445 -26.4951
-27.5492 -28.7616
-22.4672 -29.6027
-22.3622 -22.3173
-33.5099 -24.5394
-29.5029 -20.8908
-25.8343 -18.0597
-27.8196 -17.1242
-29.6119 -18.7962
-31.2463 -18.6314
-27.2864 -15.7679
-24.1772 -13.8365
-26.4615 -15.0146
-22.5248 -13.1906
-26.6794 -25.1319
-31.339 -29.5454
-30.938 -24.374
-34.2612 -34.8043
-34.2889 -24.5786
-29.9579 -20.401
-21.3032 -19.9896
-25.8337 -17.3108
-22.1915 -13.5723
-17.1125 -11.4821
-18.7114 -11.2705
-22.5207 -15.349
-21.3208 -16.1003
-20.8851 -84.5849
-5.29491 -105.832
-19.9292 -107.94
2.7789 -96.6435
-31.2318 -84.5174
-23.459 -70.6618
-11.1312 -73.1773
0.579346 -53.95
-2.25603 -77.5838
-3.52039 -56.5511
-29.2235 -77.1969
-39.2601 -60.8305
-3.31551 -55.3564
-2.24411 -75.4819
0.463233 -52.9166
2.47558 -93.5423
-29.6544 -74.6362
-38.247 -62.382
-10.7489 -72.4374
-19.9734 -105.922
-5.13264 -102.748
-20.5465 -83.4038
44.7097 21.9947
33.1923 1.56749
-34.6028 -23.59
-32.9925 -15.3955
-31.2892 -20.4331
-34.2944 -13.0227
-30.1024 -31.6899
-34.7436 -30.3465
-35.8658 -23.3627
-29.6682 -47.0252
-29.0462 -54.3709
-33.4965 -40.4205
-29.0316 -69.2326
-25.8143 -48.8796
-6.14032 -94.7368
-18.8204 -80.2913
-13.8731 -75.2252
-8.64414 -87.294
-14.0015 -91.6777
-1.39818 -101.723
-26.4748 -83.1003
-20.9893 -62.4615
-31.4167 -55.6023
-26.3134 -69.6442
-25.37 -62.0542
-34.6625 -76.3884
-26.7787 -44.7402
-32.1038 -43.3276
-32.8782 -53.8101
-35.3566 -26.5731
-35.998 -19.9007
-36.0686 -22.2608
-34.1359 -16.2779
-35.2889 -14.77
-35.8376 -20.3489
-34.4823 -32.511
-29.1766 -28.5903
-32.3523 -20.8068
-32.793 -33.1503
-28.6829 -60.6916
-26.0057 -65.9206
-34.1725 -69.9497
-12.7097 -67.6155
-30.7856 -54.9697
-25.422 -51.2489
-18.2322 -48.0956
-33.0602 -19.4079
-34.0951 -20.9235
-30.1938 -18.1056
-35.6934 -25.6124
-35.1113 -21.4455
-36.3256 -16.8781
-36.3373 -19.9402
-36.6023 -18.9722
-8.56963 -19.2867
-5.38828 -25.6317
-4.95479 -12.9408
-2.42714 -53.0922
-0.518704 -39.6561
-3.16746 -10.9565
-4.62885 -3.06469
-7.22225 -2.1239
-11.8192 -20.3028
-8.94265 -87.9133
-4.70086 -67.6712
-11.8869 -46.8977
4.56237 -74.2745
-17.8388 -32.5814
-9.19538 -100.447
2.52171 -113.202
-47.8897 -274.553
-53.937 -62.7078
-31.8631 -119.041
-5.67635 -135.274
-28.8759 -126.986
-75.465 -237.538
-53.9149 -59.2014
-58.7805 -288.276
-31.597 -129.914
-29.6859 -138.981
-8.10127 -143.138
-72.6484 -256.445
-57.6768 -138.315
-42.9774 -164.939
-16.2715 -150.943
-130.893 -232.96
-55.6191 -228.148
2.06129 -114.863
-8.31128 -123.091
-46.1065 -116.302
-69.8718 -126.489
4.19472 -85.4245
6.49595 -71.5142
5.74389 -83.6404
6.88353 -55.1631
7.26696 -61.0872
2.45918 -78.3924
-2.94212 -91.8005
1.50132 -103.506
5.3924 -78.3505
-30.9016 -81.7228
-37.8999 -80.5627
-37.9897 -90.193
-33.6691 -74.3706
-37.5574 -82.0015
-47.5393 -97.9849
-45.8413 -99.9017
-15.7965 -88.0968
-22.4837 -83.5028
-1.37467 -110.07
2.2547 -98.5145
-2.46601 -114.735
4.85226 -80.0287
-9.15773 -143.392
-16.4183 -117.189
-5.2738 -101.001
-49.1285 -179.303
-75.7088 -185.319
-89.9155 -150.644
-103.196 -281.751
-133.103 -244.644
-68.4596 -138.526
-70.4205 -132.012
-30.8909 -155.607
-12.6622 -175.275
-54.7863 -107.934
-48.8084 -98.1531
-45.4532 -101.248
-39.6085 -95.8963
-42.0853 -91.342
-31.4686 -97.7221
-36.0914 -108.851
-63.1198 -117.608
-51.0886 -112.403
-50.975 -153.275
-44.8632 -166.303
-21.5603 -161.6
-10.8147 -134.957
-43.5895 -134.088
-43.2075 -120.359
-38.0101 -111.242
-33.5629 -103.738
-13.3782 -110.083
-30.4812 -156.826
-57.8118 -166.315
-64.3066 -136.89
-50.642 -119.044
-18.2327 -133.958
-44.9471 -106.438
-37.4694 -96.1733
-19.7291 -100.416
-32.5499 -89.1207
-11.651 -78.1436
-5.53528 -74.0008
-11.7499 -70.1441
-12.01 -63.5109
-5.72538 -58.8711
-17.9869 -68.0456
0.757502 -91.8341
4.2558 -79.0146
7.08538 -81.4066
3.06664 -75.4173
6.36543 -69.4419
6.46714 -67.1027
-8.07707 -94.1095
-10.9674 -79.7556
-2.83073 -80.1565
-9.12246 -85.538
1.0069 -71.2275
-18.9002 -94.0662
-26.8371 -79.7115
-15.0814 -75.7681
-1.36111 -67.3295
-8.82525 -70.8842
-18.2297 -62.4359
-22.2511 -71.7455
2.40657 -64.4377
-6.03073 -64.8078
-8.06756 -59.0107
-2.61538 -56.2149
0.25299 -65.0708
3.40751 -59.3617
-1.19219 -59.5949
7.03841 -55.0129
5.65938 -50.9075
-1.42887 -53.0121
0.996923 -72.6142
0.0164465 -51.3753
-3.64279 -29.3675
1.57935 -47.3659
-5.06051 -16.4205
-2.15643 -13.7672
3.03204 -37.6442
-3.55303 -65.9043
-9.91139 -16.384
-5.92589 -15.2495
-11.2827 -34.6856
-4.74441 -0.7229
-6.31622 -68.1056
-14.1659 -16.0413
-8.37257 -5.15421
-18.7639 -52.6407
-29.3872 -23.4933
-11.6065 -88.5454
-8.06977 0.5543
-12.5433 -1.94927
0.376737 -23.625
-0.959064 -13.7356
0.546989 -10.6523
-31.1185 28.4949
-68.5346 -108.54
0.786354 -10.9441
3.97387 -34.2535
-26.3668 -58.5073
-12.0996 -114.57
-35.1579 -38.8767
-10.3479 0.902394
-16.6801 8.60159
-2.06035 -21.283
0.114715 -10.7157
-1.58658 -10.3263
0.574666 -11.091
-28.7485 57.4506
-68.8173 -91.5231
2.99372 -38.9671
1.23651 -6.50792
0.362197 -3.31966
0.468031 -3.85928
0.302389 -3.26006
-0.019305 -0.980055
-0.108351 -0.797779
0.549732 -3.93808
2.26968 -10.0895
2.22604 -9.43307
1.54201 -6.88455
0.622046 -4.12327
0.173497 -3.18455
0.475717 -4.05012
-0.19787 -0.44645
-0.152453 -0.509709
2.59807 -10.5783
2.56734 -9.26024
0.761991 -4.58293
0.694668 -4.60959
0.520678 -4.48027
-0.0428975 -0.252012
-0.210343 0.0621606
0.842087 -4.70415
4.1659 -14.3841
4.28602 -13.8878
2.8937 -10.3866
1.03421 -5.44374
0.817041 -4.59113
1.20572 -5.59875
-0.748844 -0.701626
-0.756389 -0.563934
4.51945 -15.4939
2.963 -11.4766
0.854769 -5.8461
1.27932 -6.00831
1.07476 -5.9826
-1.04662 -0.367457
-0.978084 -0.318838
1.07925 -5.86591
4.62421 -16.8165
4.10565 -16.9311
2.7126 -13.5922
1.26571 -8.54258
1.22749 -6.13071
1.35858 -8.31943
-1.26346 -0.168312
-1.08065 -0.146306
4.46786 -19.2258
2.70334 -14.2651
1.12199 -5.80899
1.4035 -9.3552
1.01178 -5.78298
-0.737945 -0.728779
-0.497709 -0.934363
1.41 -8.91196
5.22126 -23.0886
4.75511 -19.6121
3.05421 -11.7263
1.45696 -6.50233
0.800092 -5.65031
1.21417 -6.32281
-0.39938 -1.07401
-0.390517 -1.87104
5.40422 -20.2175
2.98324 -10.4666
0.825964 -4.68097
1.04007 -5.55401
0.720768 -4.61105
-0.0639661 -1.37502
-0.504972 -2.63431
1.23232 -5.68261
4.64299 -15.5688
4.39649 -14.2737
1.39296 -6.55174
0.381246 -3.60684
0.296061 -3.16922
0.507375 -3.68895
-0.582291 -0.789766
-0.659421 -0.756943
0.126345 -3.12696
2.391 -8.81991
2.43977 -9.46141
1.29796 -6.67086
0.421526 -3.70284
0.464101 -3.62202
0.484476 -3.76115
-0.778015 -0.510714
-0.84483 -0.451374
0.397393 -3.58058
2.16054 -9.26353
2.06321 -9.41511
-1.10261 -0.243473
0.274796 -3.13481
0.328801 -3.22948
0.33725 -3.25709
1.57833 -8.22967
-0.937952 -0.201439
-28.7945 -110.007
-8.66104 -112.706
-12.713 -97.1961
4.73518 -24.7835
4.57331 -27.3167
2.3242 -18.3661
7.07451 -39.7078
6.50236 -27.7212
-32.3795 -120.545
-34.8734 -138.966
-57.5232 -127.181
5.01451 -28.7883
1.83276 -20.1037
4.19492 -30.2284
5.95935 -50.2917
7.16479 -34.9584
-26.5421 -133.7
-11.914 -123.035
-31.5469 -117.799
-17.1109 -117.689
3.0182 -13.4531
2.17676 -10.1042
1.2241 -6.92771
1.9373 -10.029
3.64131 -13.0331
2.25899 -8.61897
3.31346 -12.4084
3.9583 -15.1009
5.20968 -18.2245
4.88566 -17.5574
3.25832 -11.5708
5.13153 -16.7262
6.20129 -21.4549
6.27829 -23.0272
5.25117 -17.3439
3.43098 -12.1352
5.26467 -18.5135
7.05799 -26.866
6.34422 -22.0766
2.33321 -9.77275
1.42516 -6.8415
2.52308 -9.7139
3.36206 -12.544
3.10282 -12.6392
1.55569 -7.9536
1.04381 -6.03163
1.81418 -8.54632
2.55001 -11.4537
2.2547 -11.1161
-24.5644 -73.9203
-25.1293 -66.8972
9.40246 -43.7102
8.0552 -43.7341
7.87483 -35.5145
7.99902 -50.8492
7.23549 -29.8721
8.62802 -42.4152
8.42547 -50.4976
-31.2596 -89.1114
-35.5705 -82.6752
3.65646 -15.7874
3.41691 -16.0993
3.26557 -16.3359
3.82612 -18.9923
5.86675 -24.2642
5.75491 -21.7335
4.9352 -19.3722
6.32405 -23.174
4.23889 -17.461
5.59297 -25.7844
6.30665 -28.5147
8.38465 -34.8623
7.91224 -29.2306
7.46977 -28.1192
7.1443 -25.5207
8.40675 -39.4072
8.50564 -34.8855
7.527 -27.398
8.15423 -31.1368
7.07549 -24.8964
8.2994 -33.9663
8.53038 -39.9892
7.97044 -35.7572
5.81085 -21.4194
4.87521 -17.069
5.72216 -19.6702
4.30753 -15.0528
3.95449 -13.7848
5.22093 -17.7093
6.3041 -21.985
6.36804 -24.9059
5.64218 -21.8828
3.28761 -14.4327
2.95864 -13.7425
2.92449 -14.2375
3.72934 -19.0768
9.11705 -61.1272
7.56849 -59.0651
5.86783 -69.2783
4.90903 -23.1832
4.57336 -20.1938
4.34103 -21.449
4.03222 -21.9113
5.10249 -27.3048
7.7675 -34.6895
7.32461 -29.6976
7.08842 -31.5109
6.41102 -33.4376
7.59358 -42.0463
6.97525 -28.2916
7.25633 -27.5384
7.64319 -31.6672
7.57263 -36.8392
6.63022 -29.1607
6.5466 -46.1134
4.15573 -49.0376
1.83769 -49.3499
3.63676 -44.5776
2.74322 -54.3439
5.79184 -50.5015
4.15069 -57.2281
6.16136 -44.8464
7.87754 -46.5157
6.89116 -59.3667
0.122913 -50.0325
4.91705 -30.657
4.30968 -27.6974
3.4417 -27.6634
3.05155 -34.0216
5.05597 -41.2214
6.26146 -40.5137
6.09529 -37.3134
5.44579 -33.7813
3.32526 -41.1003
5.80184 -35.8233
6.4407 -32.585
6.60607 -35.8494
5.88578 -28.9311
6.91576 -40.1165
4.66296 -39.6414
4.37419 -36.1887
5.49723 -25.1983
5.30481 -28.6393
4.20934 -27.4842
4.26165 -23.1444
5.33013 -43.4664
3.51603 -44.3435
4.27546 -34.5059
3.51002 -37.4486
4.84473 -18.7252
4.03499 -15.7054
4.18967 -15.7766
3.71392 -15.5695
5.3154 -22.2473
4.33331 -20.8463
4.10271 -17.8794
4.80313 -21.6978
3.38366 -11.425
2.32591 -8.61922
3.66934 -12.5589
0.444812 -3.82995
2.67566 -9.89213
0.120746 -3.06991
0.43639 -3.81704
1.64633 -6.87917
-1.27892 -0.156194
-1.06074 -0.0743257
8.9934 -59.8413
8.47014 -46.0021
7.59943 -56.3618
8.3686 -39.7366
7.63682 -59.579
8.34462 -45.7476
9.24569 -44.7613
8.52696 -51.7663
0 0
0 0
0 0
0 0
0 0
0 0
0 0
0 0
0 0
0 0
0 0
0 0
0 0
0 0
0 0
0 0
0 0
0 0
0 0
0 0
0 0
0 0
0 0
0 0
0 0
0 0
0 0
0 0
0 0
0 0
0 0
0 0
0 0
0 0
0 0
0 0
0 0
0 0
0 0
0 0
0 0
0 0
0 0
0 0
0 0
0 0
0 0
0 0
0 0
0 0
0 0
0 0
0 0
0 0
0 0
0 0
0 0
0 0
0 0
0 0
0 0
0 0
0 0
0 0
0 0
0 0
0 0
0 0
0 0
0 0
0 0
0 0
0 0
0 0
0 0
0 0
0 0
0 0
0 0
0 0
0 0
0 0
0 0
0 0
0 0
0 0
0 0
0 0
0 0
0 0
0 0
0 0
0 0
0 0
0 0
0 0
0 0
0 0
0 0
0 0
0 0
0 0
0 0
0 0
0 0
0 0
0 0
0 0
0 0
0 0
0 0
0 0
0 0
0 0
0 0
0 0
0 0
0 0
0 0
0 0
0 0
0 0
0 0
0 0
0 0
0 0
0 0
0 0
0 0
0 0
0 0
0 0
0 0
0 0
0 0
0 0
0 0
0 0
0 0
0 0
0 0
0 0
0 0
0 0
0 0
0 0
0 0
0 0
0 0
0 0
0 0
0 0
0 0
0 0
0 0
0 0
0 0
0 0
0 0
0 0
0 0
0 0
0 0
0 0
0 0
0 0
0 0
0 0
0 0
0 0
0 0
0 0
0 0
0 0
0 0
0 0
0 0
0 0
0 0
0 0
0 0
0 0
0 0
0 0
0 0
0 0
0 0
0 0
0 0
0 0
0 0
0 0
0 0
0 0
0 0
0 0
0 0
0 0
0 0
0 0
0 0
0 0
0 0
0 0
0 0
0 0
0 0
0 0
0 0
0 0
0 0
0 0
0 0
0 0
0 0
0 0
0 0
0 0
0 0
0 0
0 0
0 0
0 0
0 0
0 0
0 0
0 0
0 0
0 0
0 0
0 0
0 0
0 0
0 0
0 0
0 0
0 0
0 0
0 0
0 0
0 0
0 0
0 0
0 0
0 0
0 0
0 0
0 0
0 0
0 0
0 0
0 0
0 0
0 0
0 0
0 0
0 0
0 0
0 0
0 0
0 0
0 0
0 0
0 0
0 0
0 0
0 0
0 0
0 0
0 0
0 0
0 0
0 0
0 0
0 0
0 0
0 0
0 0
0 0
0 0
0 0
0 0
0 0
0 0
0 0
0 0
0 0
0 0
0 0
0 0
0 0
0 0
0 0
0 0
0 0
0 0
0 0
0 0
0 0
0 0
0 0
0 0
0 0
0 0
0 0
0 0
0 0
0 0
0 0
0 0
0 0
0 0
0 0
0 0
0 0
0 0
0 0
0 0
0 0
0 0
0 0
0 0
0 0
0 0
0 0
0 0
0 0
0 0
0 0
0 0
0 0
0 0
0 0
0 0
0 0
0 0
0 0
0 0
0 0
0 0
0 0
0 0
0 0
0 0
0 0
0 0
0 0
0 0
0 0
0 0
0 0
0 0
0 0
0 0
0 0
0 0
0 0
0 0
0 0
0 0
0 0
0 0
0 0
0 0
0 0
0 0
0 0
0 0
0 0
0 0
0 0
0 0
0 0
0 0
0 0
0 0
0 0
0 0
0 0
0 0
0 0
0 0
0 0
0 0
0 0
0 0
0 0
0 0
0 0
0 0
0 0
0 0
0 0
0 0
0 0
0 0
0 0
0 0
0 0
0 0
0 0
0 0
0 0
0 0
0 0
0 0
0 0
0 0
0 0
0 0
0 0
0 0
0 0
0 0
0 0
0 0
0 0
0 0
0 0
0 0
0 0
0 0
0 0
0 0
0 0
0 0
0 0
0 0
0 0
0 0
0 0
0 0
0 0
0 0
0 0
0 0
0 0
0 0
0 0
0 0
0 0
0 0
0 0
0 0
0 0
0 0
0 0
0 0
0 0
0 0
0 0
0 0
0 0
0 0
0 0
0 0
0 0
0 0
0 0
0 0
0 0
0 0
0 0
0 0
0 0
0 0
0 0
0 0
0 0
0 0
0 0
0 0
0 0
0 0
0 0
0 0
0 0
0 0
0 0
0 0
0 0
0 0
0 0
0 0
0 0
0 0
0 0
0 0
0 0
0 0
0 0
0 0
0 0
0 0
0 0
0 0
0 0
0 0
0 0
0 0
0 0
0 0
0 0
0 0
0 0
0 0
0 0
0 0
0 0
0 0
0 0
0 0
0 0
0 0
0 0
0 0
0 0
0 0
0 0
0 0
0 0
0 0
0 0
0 0
0 0
0 0
0 0
0 0
0 0
0 0
0 0
0 0
0 0
0 0
0 0
0 0
0 0
0 0
0 0
0 0
0 0
0 0
0 0
0 0
0 0
0 0
0 0
0 0
0 0
0 0
0 0
0 0
0 0
0 0
0 0
0 0
0 0
0 0
0 0
0 0
0 0
0 0
0 0
0 0
0 0
0 0
0 0
0 0
0 0
0 0
0 0
0 0
0 0
0 0
0 0
0 0
0 0
0 0
0 0
0 0
0 0
0 0
0 0
0 0
0 0
0 0
0 0
0 0
0 0
0 0
0 0
0 0
0 0
0 0
0 0
0 0
0 0
0 0
0 0
0 0
0 0
0 0
0 0
0 0
0 0
0 0
0 0
0 0
0 0
0 0
0 0
0 0
0 0
0 0
0 0
0 0
0 0
0 0
0 0
0 0
0 0
0 0
0 0
0 0
0 0
0 0
0 0
0 0
0 0
0 0
0 0
0 0
0 0
0 0
0 0
0 0
0 0
0 0
0 0
0 0
0 0
0 0
0 0
0 0
0 0
0 0
0 0
0 0
0 0
0 0
0 0
0 0
0 0
0 0
0 0
0 0
0 0
0 0
0 0
0 0
0 0
0 0
0 0
0 0
0 0
0 0
0 0
0 0
0 0
0 0
0 0
0 0
0 0
0 0
0 0
0 0
0 0
0 0
0 0
0 0
0 0
0 0
0 0
0 0
0 0
0 0
0 0
0 0
0 0
0 0
0 0
0 0
0 0
0 0
0 0
0 0
0 0
0 0
0 0
0 0
0 0
0 0
0 0
0 0
0 0
0 0
0 0
0 0
0 0
0 0
0 0
0 0
0 0
0 0
0 0
0 0
0 0
0 0
0 0
0 0
0 0
0 0
0 0
0 0
0 0
0 0
0 0
0 0
0 0
0 0
0 0
0 0
0 0
0 0
0 0
0 0
0 0
0 0
0 0
0 0
0 0
0 0
0 0
0 0
0 0
0 0
0 0
0 0
0 0
0 0
0 0
0 0
0 0
0 0
0 0
0 0
0 0
0 0
0 0
0 0
0 0
0 0
0 0
0 0
0 0
0 0
0 0
0 0
0 0
0 0
0 0
0 0
0 0
0 0
0 0
0 0
0 0
0 0
0 0
0 0
0 0
0 0
0 0
0 0
0 0
0 0
0 0
0 0
0 0
0 0
0 0
0 0
0 0
0 0
0 0
0 0
0 0
0 0
0 0
0 0
0 0
0 0
0 0
0 0
0 0
0 0
0 0
0 0
0 0
0 0
0 0
0 0
0 0
0 0
0 0
0 0
0 0
0 0
0 0
0 0
0 0
0 0
0 0
0 0
0 0
0 0
0 0
0 0
0 0
0 0
0 0
0 0
0 0
0 0
0 0
0 0
0 0
0 0
0 0
0 0
0 0
0 0
0 0
0 0
0 0
0 0
0 0
0 0
0 0
0 0
0 0
0 0
0 0
0 0
0 0
0 0
0 0
0 0
0 0
0 0
0 0
0 0
0 0
0 0
0 0
0 0
0 0
0 0
0 0
0 0
0 0
0 0
0 0
0 0
0 0
0 0
0 0
0 0
0 0
0 0
0 0
0 0
0 0
0 0
0 0
0 0
0 0
0 0
0 0
0 0
0 0
0 0
0 0
0 0
0 0
0 0
0 0
0 0
0 0
0 0
0 0
0 0
0 0
0 0
0 0
0 0
0 0
0 0
0 0
0 0
0 0
0 0
0 0
0 0
0 0
0 0
0 0
0 0
0 0
0 0
0 0
0 0
0 0
0 0
0 0
0 0
0 0
0 0
0 0
0 0
0 0
0 0
0 0
0 0
0 0
0 0
0 0
0 0
0 0
0 0
0 0
0 0
0 0
0 0
0 0
0 0
0 0
0 0
0 0
0 0
0 0
0 0
0 0
0 0
0 0
0 0
0 0
0 0
0 0
0 0
0 0
0 0
0 0
0 0
0 0
0 0
0 0
0 0
0 0
0 0
0 0
0 0
0 0
0 0
0 0
0 0
0 0
0 0
0 0
0 0
0 0
0 0
0 0
0 0
0 0
0 0
0 0
0 0
0 0
0 0
0 0
0 0
0 0
0 0
0 0
0 0
0 0
0 0
0 0
0 0
0 0
0 0
0 0
0 0
0 0
0 0
0 0
0 0
0 0
0 0
0 0
0 0
0 0
0 0
0 0
0 0
0 0
0 0
0 0
0 0
0 0
0 0
0 0
0 0
0 0
0 0
0 0
0 0
0 0
0 0
0 0
0 0
0 0
0 0
0 0
0 0
0 0
0 0
0 0
0 0
0 0
0 0
0 0
0 0
0 0
0 0
0 0
0 0
0 0
0 0
0 0
0 0
0 0
0 0
0 0
0 0
0 0
0 0
0 0
0 0
0 0
0 0
0 0
0 0
0 0
0 0
0 0
0 0
0 0
0 0
0 0
0 0
0 0
0 0
0 0
0 0
0 0
0 0
0 0
0 0
0 0
0 0
0 0
0 0
0 0
0 0
0 0
0 0
0 0
0 0
0 0
0 0
0 0
0 0
0 0
0 0
0 0
0 0
0 0
0 0
0 0
0 0
0 0
0 0
0 0
0 0
0 0
0 0
0 0
0 0
0 0
0 0
0 0
0 0
0 0
0 0
0 0
0 0
0 0
0 0
0 0
0 0
0 0
0 0
0 0
0 0
0 0
0 0
0 0
0 0
0 0
0 0
0 0
0 0
0 0
0 0
0 0
0 0
0 0
0 0
0 0
0 0
0 0
0 0
0 0
0 0
0 0
0 0
0 0
0 0
0 0
0 0
0 0
0 0
0 0
0 0
0 0
0 0
0 0
0 0
0 0
0 0
0 0
0 0
0 0
0 0
0 0
0 0
0 0
0 0
0 0
0 0
0 0
0 0
0 0
0 0
0 0
0 0
0 0
0 0
0 0
0 0
0 0
0 0
0 0
0 0
0 0
0 0
0 0
0 0
0 0
0 0
0 0
0 0
0 0
0 0
0 0
0 0
0 0
0 0
0 0
0 0
0 0
0 0
0 0
0 0
0 0
0 0
0 0
0 0
0 0
0 0
0 0
0 0
0 0
0 0
0 0
0 0
0 0
0 0
0 0
0 0
0 0
0 0
0 0
0 0
0 0
0 0
0 0
0 0
0 0
0 0
0 0
0 0
0 0
0 0
0 0
0 0
0 0
0 0
0 0
0 0
0 0
0 0
0 0
0 0
0 0
0 0
0 0
0 0
0 0
0 0
0 0
0 0
0 0
0 0
0 0
0 0
0 0
0 0
0 0
0 0
0 0
0 0
0 0
0 0
0 0
0 0
0 0
0 0
0 0
0 0
0 0
0 0
0 0
0 0
0 0
0 0
0 0
0 0
0 0
0 0
0 0
0 0
0 0
0 0
0 0
0 0
0 0
0 0
0 0
0 0
0 0
0 0
0 0
0 0
0 0
0 0
0 0
0 0
0 0
0 0
0 0
0 0
0 0
0 0
0 0
0 0
0 0
0 0
0 0
0 0
0 0
0 0
0 0
0 0
0 0
0 0
0 0
0 0
0 0
0 0
0 0
0 0
0 0
0 0
0 0
0 0
0 0
0 0
0 0
0 0
0 0
0 0
0 0
0 0
0 0
0 0
0 0
0 0
0 0
0 0
0 0
0 0
0 0
0 0
0 0
0 0
0 0
0 0
0 0
0 0
0 0
0 0
0 0
0 0
0 0
0 0
0 0
0 0
0 0
0 0
0 0
0 0
0 0
0 0
0 0
0 0
0 0
0 0
0 0
0 0
0 0
0 0
0 0
0 0
0 0
0 0
0 0
0 0
0 0
0 0
0 0
0 0
0 0
0 0
0 0
0 0
0 0
0 0
0 0
0 0
0 0
0 0
0 0
0 0
0 0
0 0
0 0
0 0
0 0
0 0
0 0
0 0
0 0
0 0
0 0
0 0
0 0
0 0
0 0
0 0
0 0
0 0
0 0
0 0
0 0
0 0
0 0
0 0
0 0
0 0
0 0
0 0
0 0
0 0
0 0
0 0
0 0
0 0
0 0
0 0
0 0
0 0
0 0
0 0
0 0
0 0
0 0
0 0
0 0
0 0
0 0
0 0
0 0
0 0
0 0
0 0
0 0
0 0
0 0
0 0
0 0
0 0
0 0
0 0
0 0
0 0
0 0
0 0
0 0
0 0
0 0
0 0
0 0
0 0
0 0
0 0
0 0
0 0
0 0
0 0
0 0
0 0
0 0
0 0
0 0
0 0
0 0
0 0
0 0
0 0
0 0
0 0
0 0
0 0
0 0
0 0
0 0
0 0
0 0
0 0
0 0
0 0
0 0
0 0
0 0
0 0
0 0
0 0
0 0
0 0
0 0
0 0
0 0
0 0
0 0
0 0
0 0
0 0
0 0
0 0
0 0
0 0
0 0
0 0
0 0
0 0
0 0
0 0
0 0
0 0
0 0
0 0
0 0
0 0
0 0
0 0
0 0
0 0
0 0
0 0
0 0
0 0
0 0
0 0
0 0
0 0
0 0
0 0
0 0
0 0
0 0
0 0
0 0
0 0
0 0
0 0
0 0
0 0
0 0
0 0
0 0
0 0
0 0
0 0
0 0
0 0
0 0
0 0
0 0
0 0
0 0
0 0
0 0
0 0
0 0
0 0
0 0
0 0
0 0
0 0
0 0
0 0
0 0
0 0
0 0
0 0
0 0
0 0
0 0
0 0
0 0
0 0
0 0
0 0
0 0
0 0
0 0
0 0
0 0
0 0
0 0
0 0
0 0
0 0
0 0
0 0
0 0
0 0
0 0
0 0
0 0
0 0
0 0
0 0
0 0
0 0
0 0
0 0
0 0
0 0
0 0
0 0
0 0
0 0
0 0
0 0
0 0
0 0
0 0
0 0
0 0
0 0
0 0
0 0
0 0
0 0
0 0
0 0
0 0
0 0
0 0
0 0
0 0
0 0
0 0
0 0
0 0
0 0
0 0
0 0
0 0
0 0
0 0
0 0
0 0
0 0
0 0
0 0
0 0
0 0
0 0
0 0
0 0
0 0
0 0
0 0
0 0
0 0
0 0
0 0
0 0
0 0
0 0
0 0
0 0
0 0
0 0
0 0
0 0
0 0
0 0
0 0
0 0
0 0
0 0
0 0
0 0
0 0
0 0
0 0
0 0
0 0
0 0
0 0
0 0
0 0
0 0
0 0
0 0
0 0
0 0
0 0
0 0
0 0
0 0
0 0
0 0
0 0
0 0
0 0
0 0
0 0
0 0
0 0
0 0
0 0
0 0
0 0
0 0
0 0
0 0
0 0
0 0
0 0
0 0
0 0
0 0
0 0
0 0
0 0
0 0
0 0
0 0
0 0
0 0
0 0
0 0
0 0
0 0
0 0
0 0
0 0
0 0
0 0
0 0
0 0
0 0
0 0
0 0
0 0
0 0
0 0
0 0
0 0
0 0
0 0
0 0
0 0
0 0
0 0
0 0
0 0
0 0
0 0
0 0
0 0
0 0
0 0
0 0
0 0
0 0
0 0
0 0
0 0
0 0
0 0
0 0
0 0
0 0
0 0
0 0
0 0
0 0
0 0
0 0
0 0
0 0
0 0
0 0
0 0
0 0
0 0
0 0
0 0
0 0
0 0
0 0
0 0
0 0
0 0
0 0
0 0
0 0
0 0
0 0
0 0
0 0
0 0
0 0
0 0
0 0
0 0
0 0
0 0
0 0
0 0
0 0
0 0
0 0
0 0
0 0
0 0
0 0
0 0
0 0
0 0
0 0
0 0
0 0
0 0
0 0
0 0
0 0
0 0
0 0
0 0
0 0
0 0
0 0
0 0
0 0
0 0
0 0
0 0
0 0
0 0
0 0
0 0
0 0
0 0
0 0
0 0
0 0
0 0
0 0
0 0
0 0
0 0
0 0
0 0
0 0
0 0
0 0
0 0
0 0
0 0
0 0
0 0
0 0
0 0
0 0
0 0
0 0
0 0
0 0
0 0
0 0
0 0
0 0
0 0
0 0
0 0
0 0
0 0
0 0
0 0
0 0
0 0
0 0
0 0
0 0
0 0
0 0
0 0
0 0
0 0
0 0
0 0
0 0
0 0
0 0
0 0
0 0
0 0
0 0
0 0
0 0
0 0
0 0
0 0
0 0
0 0
0 0
0 0
0 0
0 0
0 0
0 0
0 0
0 0
0 0
0 0
0 0
0 0
0 0
0 0
0 0
0 0
0 0
0 0
0 0
0 0
0 0
0 0
0 0
0 0
0 0
0 0
0 0
0 0
0 0
0 0
0 0
0 0
0 0
0 0
0 0
0 0
0 0
0 0
0 0
0 0
0 0
0 0
0 0
0 0
0 0
0 0
0 0
0 0
0 0
0 0
0 0
0 0
0 0
0 0
0 0
0 0
0 0
0 0
0 0
0 0
0 0
0 0
0 0
0 0
0 0
0 0
0 0
0 0
0 0
0 0
0 0
0 0
0 0
0 0
0 0
0 0
0 0
0 0
0 0
0 0
0 0
0 0
0 0
0 0
0 0
0 0
0 0
0 0
0 0
0 0
0 0
0 0
0 0
0 0
0 0
0 0
0 0
0 0
0 0
0 0
0 0
0 0
0 0
0 0
0 0
0 0
0 0
0 0
0 0
0 0
0 0
0 0
0 0
0 0
0 0
0 0
0 0
0 0
0 0
0 0
0 0
0 0
0 0
0 0
0 0
0 0
0 0
0 0
0 0
0 0
0 0
0 0
0 0
0 0
0 0
0 0
0 0
0 0
0 0
0 0
0 0
0 0
0 0
0 0
0 0
0 0
0 0
0 0
0 0
0 0
0 0
0 0
0 0
0 0
0 0
0 0
0 0
0 0
0 0
0 0
0 0
0 0
0 0
0 0
0 0
0 0
0 0
0 0
0 0
0 0
0 0
0 0
0 0
0 0
0 0
0 0
0 0
0 0
0 0
0 0
0 0
0 0
0 0
0 0
0 0
0 0
0 0
0 0
0 0
0 0
0 0
0 0
0 0
0 0
0 0
0 0
0 0
0 0
0 0
0 0
0 0
0 0
0 0
0 0
0 0
0 0
0 0
0 0
0 0
0 0
0 0
0 0
0 0
0 0
0 0
0 0
0 0
0 0
0 0
0 0
0 0
0 0
0 0
0 0
0 0
0 0
0 0
0 0
0 0
0 0
0 0
0 0
0 0
0 0
0 0
0 0
0 0
0 0
0 0
0 0
0 0
0 0
0 0
0 0
0 0
0 0
0 0
0 0
0 0
0 0
0 0
0 0
0 0
0 0
0 0
0 0
0 0
0 0
0 0
0 0
0 0
0 0
0 0
0 0
0 0
0 0
0 0
0 0
0 0
0 0
0 0
0 0
0 0
0 0
0 0
0 0
0 0
0 0
0 0
0 0
0 0
0 0
0 0
0 0
0 0
0 0
0 0
0 0
0 0
0 0
0 0
0 0
0 0
0 0
0 0
0 0
0 0
0 0
0 0
0 0
0 0
0 0
0 0
0 0
0 0
0 0
0 0
0 0
0 0
0 0
0 0
0 0
0 0
0 0
0 0
0 0
0 0
0 0
0 0
0 0
0 0
0 0
0 0
0 0
0 0
0 0
0 0
0 0
0 0
0 0
0 0
0 0
0 0
0 0
0 0
0 0
0 0
0 0
0 0
0 0
0 0
0 0
0 0
0 0
0 0
0 0
0 0
0 0
0 0
0 0
0 0
0 0
0 0
0 0
0 0
0 0
0 0
0 0
0 0
0 0
0 0
0 0
0 0
0 0
0 0
0 0
0 0
0 0
0 0
0 0
0 0
0 0
0 0
0 0
0 0
0 0
0 0
0 0
0 0
0 0
0 0
0 0
0 0
0 0
      </DataArray> 
      <DataArray type="Float64" NumberOfComponents="1" Name="CauchyShearStress" format="ascii">
-6.12533
5.38476
-1.79024
0.514837
0.268676
0.364991
0.261722
0.124716
-0.0354275
-0.0621273
-0.0585094
-0.0959874
-0.133211
-0.0982602
-0.0472186
-0.0365581
-0.0394991
0.0207483
0.0710364
0.0685021
0.0515467
0.0949308
0.108541
0.0357036
-0.0598647
-0.0777689
-0.157495
-0.548921
-0.692679
-0.901471
0.635709
0.012239
0.246301
0.570136
-6.87306
0.0366678
0.215894
0.256019
0.232822
0.0844306
0.0720364
0.149308
0.234981
0.225781
0.32464
0.256475
0.353269
0.4563
0.522041
0.520708
0.562993
0.577241
0.605216
0.26775
-0.140291
-0.276524
-0.425903
-0.53927
-0.650164
-0.843879
0.837527
1.16886
2.32525
-28.0558
-14.0415
-5.95769
-9.01064
-11.172
-16.0653
0.205438
-27.0078
-23.4817
-17.8676
28.4162
-2.42263
-19.3263
28.2803
-5.41492
14.4879
6.17609
9.1107
11.2112
16.0931
-0.346681
-1.10789
-1.31094
-2.75316
0.00263814
-0.120914
0.250651
0.444563
0.803401
0.830265
0.171027
-0.154335
-0.27331
-0.399988
-0.507272
-0.571862
-0.616547
-0.635145
-0.680182
-0.596601
-0.576092
-0.556128
-0.495427
-0.506616
-0.373927
-0.224599
-0.168021
-0.220079
0.669983
1.30375
7.18724
1.89216
-15.3342
-8.87091
-15.4428
17.2311
9.95409
4.25174
4.31231
-3.8501
-0.35229
-14.6745
14.6812
-3.52286
-3.88832
-7.31016
-6.91034
7.82911
-6.14252
6.86293
-6.72136
-6.89899
7.44605
7.47959
-5.95109
-5.66434
-6.6426
-3.33026
2.49485
3.47
7.52338
6.28769
8.50993
-7.71927
-8.90514
-9.3482
-8.96399
9.83415
8.24257
-3.50278
0.775803
3.24965
-5.7888
6.00106
-4.39255
-5.0917
-5.85328
-5.38313
5.68382
6.44867
5.79722
4.64384
-5.52127
-5.64823
-4.89468
-2.49856
1.08559
4.99959
-5.08678
-4.95345
5.8001
6.00501
5.33116
5.24074
5.97838
8.1793
-7.26592
-8.44027
-6.50554
-9.637
-10.822
9.63578
5.52736
-4.0157
-2.7235
-0.260849
-1.33103
1.0487
2.59327
1.81092
3.6621
-5.21468
-5.36919
5.26352
5.32576
-4.21702
-3.59507
-3.93161
-3.45504
-3.9031
-4.86357
5.19425
4.41662
3.93274
4.17028
3.65522
4.17999
-5.1085
-4.84213
-6.62634
0.149299
3.79193
-3.11043
3.49995
5.00259
4.7402
10.0492
-12.2299
-2.61031
-13.3877
13.9851
11.2973
7.91985
-4.06577
-2.98389
-1.05054
0.741489
2.26233
3.68195
-5.00674
4.88494
-3.55864
-2.47961
-3.48142
3.6369
2.69487
3.66575
-4.07884
-4.43057
-4.5041
-4.1177
-2.26906
-1.66644
-16.5298
-2.96117
12.9176
-0.383648
0.390873
2.63843
3.68087
4.13162
4.21494
3.43426
13.3025
-13.1732
1.72009
5.22412
-16.6452
-4.47022
-3.63156
15.4817
4.94677
-3.85064
-3.89149
-2.81843
-3.48968
-1.41959
-2.06854
0.177694
-0.433167
1.34083
0.823802
2.75367
2.10402
3.89594
3.27444
-3.94923
-4.59832
-4.80959
4.00293
4.58524
4.54549
3.5395
-3.41265
-1.57057
-1.44906
-2.29898
2.32111
1.72572
1.68882
3.62248
-2.41969
-3.31819
-2.90046
-2.2963
-0.829313
-29.2622
-11.0354
-0.876569
7.01051
30.9343
2.23884
-2.20279
2.18816
3.6758
2.44292
21.9686
11.2714
-18.5674
-11.6375
11.6147
-19.0155
1.6838
-8.84113
9.05158
12.9753
-3.94724
-2.44845
-1.31204
-0.258618
0.697174
1.66813
3.12993
-4.38947
-3.32299
3.76364
3.69883
-2.16289
-1.5984
-3.94017
3.08111
1.23397
2.22826
-2.60839
2.91433
-0.783781
-1.42034
-1.2675
-1.78763
-1.37491
-1.59063
-1.30554
-1.04381
-0.564985
-54.4066
-7.92889
6.44434
48.8477
0.1534
1.04938
2.36178
3.2204
7.21061
-6.21924
-3.21254
-2.10329
-0.946835
0.0635074
0.798969
1.14103
1.01828
1.6875
0.712371
0.922863
1.06992
1.18652
16.8788
27.9478
15.8796
-16.4873
-22.3875
-27.8299
11.5633
14.4729
16.3348
-10.4032
-23.3341
-16.2851
-2.1476
-3.95074
-1.51802
-1.30692
-1.32446
-0.916359
-0.856568
-0.913789
-0.487665
-0.330805
-0.422874
0.0505194
0.210082
0.132105
0.545967
0.658035
0.619335
0.967727
0.945493
1.00872
1.75
3.81671
1.90856
-0.951605
-0.878284
1.35983
1.4952
-4.30146
-4.7324
4.09936
4.17882
4.44601
-0.922363
-1.44089
1.63485
1.32625
-1.52616
1.40754
-2.18024
-1.73404
1.52636
1.93825
-3.39566
-7.06266
-3.51701
3.43967
3.67884
5.77065
4.75075
-5.57079
3.33442
-3.73785
0.215593
-0.0794533
4.49158
-4.71211
2.84645
-1.87943
4.16426
2.23436
1.16022
0.254087
-0.77011
-1.84651
-3.13804
-4.24199
-13.4056
19.4592
-21.4047
21.7577
2.15339
2.78416
0.458235
-5.07842
6.0879
0.27028
22.746
-28.1702
-1.31743
-2.832
-3.69285
-2.98084
2.45226
-3.31721
10.1714
-5.42412
-2.34076
3.03654
2.58831
-2.18232
-2.93637
4.68277
4.8127
-5.08644
-4.6558
4.12793
3.09014
1.46002
0.00909964
-2.12211
-3.74215
-4.19749
11.4502
2.02803
-3.92433
-2.62145
-11.2948
7.67543
4.78965
4.59063
2.73726
-2.92845
-3.53219
-5.24826
11.0615
-10.0821
4.1517
5.50652
6.17597
-5.48274
-4.899
-4.23184
5.66158
-5.66276
2.14412
-0.581466
7.94222
-11.1225
7.09507
-7.04958
6.54231
-6.08923
8.54456
-7.70643
-6.20211
-30.2729
-2.99279
-34.0017
-24.0182
-3.64182
-17.804
2.68597
23.5309
44.6765
4.05573
27.0892
24.3788
-26.133
-39.3786
-40.2252
-41.2518
-21.0741
-26.8355
-30.8744
-23.5765
-22.8764
-21.6344
-25.0913
-18.926
-32.4336
-40.6101
-13.7912
-19.1806
23.9445
40.9596
37.4981
31.0358
21.2175
26.9952
24.8759
20.7192
23.6894
21.834
19.204
25.2482
13.9924
32.6788
40.8288
19.4787
21.1467
1.83593
7.23886
2.37822
64.3459
17.6483
74.3149
32.2625
13.3036
-24.9278
-9.79491
-2.07238
-76.2494
-62.9926
-29.1612
-3.11918
-17.0029
-38.2091
21.7339
22.1008
3.83471
13.0599
-3.47113
16.5448
11.7798
-20.464
-11.3129
-28.0612
3.10725
4.37429
-4.10959
-17.148
0.0405181
1.29702
-14.8865
-17.723
-7.70038
1.61567
11.3375
-6.73188
17.4063
10.3685
30.2903
43.6521
43.6675
29.1979
31.8861
23.904
24.3311
3.04068
2.51701
7.69861
-0.182303
13.8416
2.0091
-1.63521
-6.0831
-10.586
-4.08216
-18.5143
-6.24837
-26.6827
-42.0764
-44.3618
-27.6655
-31.0203
-23.3797
-22.3642
15.0412
17.3575
12.9716
13.5714
-11.5967
-18.7107
-8.57088
-12.1924
12.4535
14.3822
13.3189
12.8634
12.2343
11.7857
13.6081
8.7982
10.2628
12.177
10.5343
-11.6238
-9.97279
-10.2837
-9.25894
-6.83823
-11.372
6.8774
7.79756
7.98422
5.84046
5.73965
5.04832
4.27999
3.24251
-2.7512
-1.46587
-1.24892
-0.183691
1.4983
-1.54708
-6.42548
-7.54087
-5.81461
-8.75254
-4.4321
-3.8709
-5.12368
-3.68389
-2.82455
-3.96113
-2.01716
-4.02415
-4.57116
18.0204
15.7347
19.3289
17.6221
23.4389
27.0619
21.7743
11.6687
16.1443
11.0528
56.7835
64.1628
-10.8568
-15.8827
-11.3996
-17.399
-54.7126
-62.2398
-21.5209
-18.9232
-15.3664
-18.1647
21.2112
3.24681
8.32796
5.87834
9.69378
1.05817
17.7091
10.3003
5.97415
15.6411
15.209
13.0573
12.9805
21.1211
20.6063
14.2895
23.5857
-21.9941
-13.1141
-20.2008
-9.9625
-22.9006
-14.2459
-13.6616
-16.4512
-9.64514
-22.1412
-13.8489
-12.3795
-7.8298
-5.60659
-4.87474
-5.8714
-2.68805
-2.97538
-9.98133
-13.9104
-10.2507
-12.4764
-14.6355
-15.9074
-14.9745
-15.7653
-13.0104
-13.7958
-12.5868
0.974774
2.88633
1.86174
4.86402
-0.907908
0.322107
3.14045
-0.544301
15.894
19.998
10.1926
23.3643
18.6943
8.38527
5.14142
6.46645
17.9957
32.6271
28.111
33.7474
21.453
26.6476
34.9436
22.3225
-47.5334
-70.4779
-53.7705
-31.485
-53.2284
-114.955
76.4637
29.5324
52.4541
50.911
21.8043
108.379
23.0752
4.80291
5.38427
3.62074
-41.4055
-28.1943
-1.09671
16.3918
9.44669
-7.99205
-9.80699
-0.651056
-15.4853
-8.94753
4.50271
9.40131
-7.51637
-20.5559
18.8532
13.9726
16.4213
12.941
11.4409
10.3562
17.369
17.4039
18.8195
-2.6458
11.9942
8.41316
12.0716
-0.308778
-16.2447
-7.65026
-18.4085
-8.06257
-16.4465
37.1958
7.85956
3.95126
-10.436
-10.3162
20.4316
-10.9592
-10.6099
-18.2102
-5.28966
-10.5604
-18.7471
-20.9854
-10.1596
-1.15584
7.42493
-16.2059
-14.6049
-12.3019
0.667335
1.60117
-1.33765
-1.96165
-6.43152
1.03553
9.67723
-5.14946
2.1247
4.94962
3.18041
6.56932
6.65501
6.04827
15.2385
13.0544
15.1946
14.3331
12.2672
16.4896
-3.77059
-1.47923
4.55948
-5.86932
0.145781
11.5488
-13.2798
-15.3824
-10.6707
-13.5996
-8.0053
-18.9233
-17.5956
-17.0285
-10.7438
-13.9105
-15.7494
-16.7546
-7.03926
-12.668
-13.12
-10.5642
8.86761
6.70261
10.2766
3.27229
4.86807
9.64477
8.55976
-21.2592
-19.9458
-17.8636
-12.7592
-9.71583
-15.0048
-25.803
-16.1449
-13.4366
-28.1374
-3.16863
-29.3625
-19.3486
-5.1559
-31.672
-29.2879
-39.7338
-5.37466
-6.85399
-13.2094
-8.24824
-5.945
-18.6592
-74.7798
-5.05239
-12.1208
39.0016
48.5357
35.6859
6.79991
8.11087
13.2022
6.61413
6.75393
5.4112
17.6246
70.1358
15.6452
1.35504
0.271014
0.496464
0.187371
-0.130208
-0.0245725
0.634492
2.29391
1.86608
1.08408
0.31909
0.162204
0.282003
-0.00272905
-0.169993
1.95879
0.381857
0.0477428
0.206233
0.0306039
-0.179182
-0.0908185
0.270944
0.724937
0.246566
-0.384308
-0.293156
-0.0380535
-0.397268
0.69168
0.652675
-0.359898
-2.51651
-1.09494
-0.868297
-1.29977
0.526402
0.426598
-0.686951
-3.55204
-4.10027
-4.67945
-2.83269
-1.59491
-3.36673
0.24419
0.109776
-5.61269
5.17358
1.52554
3.24416
1.24496
-0.690103
-0.818946
3.9267
6.73511
4.7568
2.66844
0.979346
1.10073
0.790738
-0.809288
-0.478166
4.14789
0.527902
0.0795137
0.315482
0.0443147
-0.301652
0.0284335
0.423484
0.752797
0.241239
-0.798114
-0.194595
-0.0857128
-0.303328
0.570236
0.571849
-0.0138133
-0.924541
-1.22805
-1.42193
-0.464636
-0.40435
-0.574618
0.564132
0.518309
-0.331853
-2.0568
-2.24098
0.578387
-0.388298
-0.455914
-0.574151
-2.51608
0.403533
22.3388
11.148
13.5813
-7.56187
-9.66905
-8.2534
-11.0187
-6.90241
-17.8219
-20.3875
-22.5024
9.23931
9.29323
11.7604
15.1536
8.7119
-0.289268
-11.8794
-0.956486
7.9937
3.18878
2.66581
1.8768
3.00058
1.50754
0.956937
1.66047
2.51119
1.3624
-2.27339
-1.43627
-1.57828
-0.747483
-3.54817
1.65939
1.62662
2.46049
3.91953
1.1329
-1.85544
-1.15614
-1.65716
-1.77391
-2.54776
-2.19023
-1.47614
-2.24407
-2.83417
-3.25815
17.2529
16.2427
-4.11683
-6.94791
-6.04493
-8.60176
-4.48966
-0.948247
-0.826198
-19.0089
-16.7022
3.45301
3.92374
4.18402
4.46737
3.20059
2.37492
2.95186
1.50229
3.24208
4.09447
3.58055
-1.44252
-2.93458
-0.991395
0.37621
1.11524
0.574984
1.0606
2.01017
-0.0219343
4.05593
-0.50328
-1.5049
-2.02647
-1.49816
-1.21978
-1.76332
-1.12476
-0.366895
-0.62578
-2.56673
-2.88395
-3.46534
-3.49858
-3.88896
-4.72004
-4.14941
0.0578583
1.37525
4.33716
3.88973
4.5301
4.93042
4.84455
1.8354
1.65491
3.01178
4.131
2.87466
-2.37693
-1.10472
-1.73246
-2.85519
-3.35421
3.88883
6.62043
8.00718
6.69921
-7.87254
-4.7458
-6.04586
-4.58576
-2.52352
-3.11924
-8.78948
5.29043
5.45183
5.86757
6.48797
5.67643
4.56004
4.64265
5.15123
6.83227
-5.02362
-4.10675
-4.0694
-4.31845
-3.85908
-6.0071
-6.05226
-4.15858
-4.9811
-5.54777
-5.02588
-5.61583
-6.85686
5.96656
6.43228
-2.86721
-2.88732
-2.3284
-3.21351
-3.56403
-4.49283
-3.79778
-4.17623
-0.560072
-0.149135
-0.292535
-0.0598547
-0.815183
-0.0474727
-0.0563181
-0.481291
0.325872
0.151109
4.94653
7.8622
8.78516
5.23359
0.333095
-0.449096
3.03783
0.70164
0
0
0
0
0
0
0
0
0
0
0
0
0
0
0
0
0
0
0
0
0
0
0
0
0
0
0
0
0
0
0
0
0
0
0
0
0
0
0
0
0
0
0
0
0
0
0
0
0
0
0
0
0
0
0
0
0
0
0
0
0
0
0
0
0
0
0
0
0
0
0
0
0
0
0
0
0
0
0
0
0
0
0
0
0
0
0
0
0
0
0
0
0
0
0
0
0
0
0
0
0
0
0
0
0
0
0
0
0
0
0
0
0
0
0
0
0
0
0
0
0
0
0
0
0
0
0
0
0
0
0
0
0
0
0
0
0
0
0
0
0
0
0
0
0
0
0
0
0
0
0
0
0
0
0
0
0
0
0
0
0
0
0
0
0
0
0
0
0
0
0
0
0
0
0
0
0
0
0
0
0
0
0
0
0
0
0
0
0
0
0
0
0
0
0
0
0
0
0
0
0
0
0
0
0
0
0
0
0
0
0
0
0
0
0
0
0
0
0
0
0
0
0
0
0
0
0
0
0
0
0
0
0
0
0
0
0
0
0
0
0
0
0
0
0
0
0
0
0
0
0
0
0
0
0
0
0
0
0
0
0
0
0
0
0
0
0
0
0
0
0
0
0
0
0
0
0
0
0
0
0
0
0
0
0
0
0
0
0
0
0
0
0
0
0
0
0
0
0
0
0
0
0
0
0
0
0
0
0
0
0
0
0
0
0
0
0
0
0
0
0
0
0
0
0
0
0
0
0
0
0
0
0
0
0
0
0
0
0
0
0
0
0
0
0
0
0
0
0
0
0
0
0
0
0
0
0
0
0
0
0
0
0
0
0
0
0
0
0
0
0
0
0
0
0
0
0
0
0
0
0
0
0
0
0
0
0
0
0
0
0
0
0
0
0
0
0
0
0
0
0
0
0
0
0
0
0
0
0
0
0
0
0
0
0
0
0
0
0
0
0
0
0
0
0
0
0
0
0
0
0
0
0
0
0
0
0
0
0
0
0
0
0
0
0
0
0
0
0
0
0
0
0
0
0
0
0
0
0
0
0
0
0
0
0
0
0
0
0
0
0
0
0
0
0
0
0
0
0
0
0
0
0
0
0
0
0
0
0
0
0
0
0
0
0
0
0
0
0
0
0
0
0
0
0
0
0
0
0
0
0
0
0
0
0
0
0
0
0
0
0
0
0
0
0
0
0
0
0
0
0
0
0
0
0
0
0
0
0
0
0
0
0
0
0
0
0
0
0
0
0
0
0
0
0
0
0
0
0
0
0
0
0
0
0
0
0
0
0
0
0
0
0
0
0
0
0
0
0
0
0
0
0
0
0
0
0
0
0
0
0
0
0
0
0
0
0
0
0
0
0
0
0
0
0
0
0
0
0
0
0
0
0
0
0
0
0
0
0
0
0
0
0
0
0
0
0
0
0
0
0
0
0
0
0
0
0
0
0
0
0
0
0
0
0
0
0
0
0
0
0
0
0
0
0
0
0
0
0
0
0
0
0
0
0
0
0
0
0
0
0
0
0
0
0
0
0
0
0
0
0
0
0
0
0
0
0
0
0
0
0
0
0
0
0
0
0
0
0
0
0
0
0
0
0
0
0
0
0
0
0
0
0
0
0
0
0
0
0
0
0
0
0
0
0
0
0
0
0
0
0
0
0
0
0
0
0
0
0
0
0
0
0
0
0
0
0
0
0
0
0
0
0
0
0
0
0
0
0
0
0
0
0
0
0
0
0
0
0
0
0
0
0
0
0
0
0
0
0
0
0
0
0
0
0
0
0
0
0
0
0
0
0
0
0
0
0
0
0
0
0
0
0
0
0
0
0
0
0
0
0
0
0
0
0
0
0
0
0
0
0
0
0
0
0
0
0
0
0
0
0
0
0
0
0
0
0
0
0
0
0
0
0
0
0
0
0
0
0
0
0
0
0
0
0
0
0
0
0
0
0
0
0
0
0
0
0
0
0
0
0
0
0
0
0
0
0
0
0
0
0
0
0
0
0
0
0
0
0
0
0
0
0
0
0
0
0
0
0
0
0
0
0
0
0
0
0
0
0
0
0
0
0
0
0
0
0
0
0
0
0
0
0
0
0
0
0
0
0
0
0
0
0
0
0
0
0
0
0
0
0
0
0
0
0
0
0
0
0
0
0
0
0
0
0
0
0
0
0
0
0
0
0
0
0
0
0
0
0
0
0
0
0
0
0
0
0
0
0
0
0
0
0
0
0
0
0
0
0
0
0
0
0
0
0
0
0
0
0
0
0
0
0
0
0
0
0
0
0
0
0
0
0
0
0
0
0
0
0
0
0
0
0
0
0
0
0
0
0
0
0
0
0
0
0
0
0
0
0
0
0
0
0
0
0
0
0
0
0
0
0
0
0
0
0
0
0
0
0
0
0
0
0
0
0
0
0
0
0
0
0
0
0
0
0
0
0
0
0
0
0
0
0
0
0
0
0
0
0
0
0
0
0
0
0
0
0
0
0
0
0
0
0
0
0
0
0
0
0
0
0
0
0
0
0
0
0
0
0
0
0
0
0
0
0
0
0
0
0
0
0
0
0
0
0
0
0
0
0
0
0
0
0
0
0
0
0
0
0
0
0
0
0
0
0
0
0
0
0
0
0
0
0
0
0
0
0
0
0
0
0
0
0
0
0
0
0
0
0
0
0
0
0
0
0
0
0
0
0
0
0
0
0
0
0
0
0
0
0
0
0
0
0
0
0
0
0
0
0
0
0
0
0
0
0
0
0
0
0
0
0
0
0
0
0
0
0
0
0
0
0
0
0
0
0
0
0
0
0
0
0
0
0
0
0
0
0
0
0
0
0
0
0
0
0
0
0
0
0
0
0
0
0
0
0
0
0
0
0
0
0
0
0
0
0
0
0
0
0
0
0
0
0
0
0
0
0
0
0
0
0
0
0
0
0
0
0
0
0
0
0
0
0
0
0
0
0
0
0
0
0
0
0
0
0
0
0
0
0
0
0
0
0
0
0
0
0
0
0
0
0
0
0
0
0
0
0
0
0
0
0
0
0
0
0
0
0
0
0
0
0
0
0
0
0
0
0
0
0
0
0
0
0
0
0
0
0
0
0
0
0
0
0
0
0
0
0
0
0
0
0
0
0
0
0
0
0
0
0
0
0
0
0
0
0
0
0
0
0
0
0
0
0
0
0
0
0
0
0
0
0
0
0
0
0
0
0
0
0
0
0
0
0
0
0
0
0
0
0
0
0
0
0
0
0
0
0
0
0
0
0
0
0
0
0
0
0
0
0
0
0
0
0
0
0
0
0
0
0
0
0
0
0
0
0
0
0
0
0
0
0
0
0
0
0
0
0
0
0
0
0
0
0
0
0
0
0
0
0
0
0
0
0
0
0
0
0
0
0
0
0
0
0
0
0
0
0
0
0
0
0
0
0
0
0
0
0
0
0
0
0
0
0
0
0
0
0
0
0
0
0
0
0
0
0
0
0
0
0
0
0
0
0
0
0
0
0
0
0
0
0
0
0
0
0
0
0
0
0
0
0
0
0
0
0
0
0
0
0
0
0
0
0
0
0
0
0
0
0
0
0
0
0
0
0
0
0
0
0
0
0
0
0
0
0
0
0
0
0
0
0
0
0
0
0
0
0
0
0
0
0
0
0
0
0
0
0
0
0
0
0
0
0
0
0
0
0
0
0
0
0
0
0
0
0
0
0
0
0
0
0
0
0
0
0
0
0
0
0
0
0
0
0
0
0
0
0
0
0
0
0
0
0
0
0
0
0
0
0
0
0
0
0
0
0
0
0
0
0
0
0
0
0
0
0
0
0
0
0
0
0
0
0
0
0
0
0
0
0
0
0
0
0
0
0
0
0
0
0
0
0
0
0
0
0
0
0
0
0
0
0
0
0
0
0
0
0
0
0
0
0
0
0
0
0
0
0
0
0
0
0
0
0
0
0
0
0
0
0
0
0
0
0
0
0
0
0
0
0
0
0
0
0
0
0
0
0
0
0
0
0
0
0
0
0
0
0
0
0
0
0
0
0
0
0
0
0
0
0
0
0
0
0
0
0
0
0
0
0
0
0
0
0
0
0
0
0
0
0
0
0
0
0
0
0
0
0
0
0
0
0
0
0
0
0
0
0
0
0
0
0
0
0
0
0
0
0
0
0
0
0
0
0
0
0
0
0
0
0
0
0
0
0
0
0
0
0
0
0
0
0
0
0
0
0
0
0
0
0
0
0
0
0
0
0
0
0
0
0
0
0
0
0
0
0
0
0
0
0
0
0
0
0
0
0
0
0
0
0
0
0
0
0
0
0
0
0
0
0
0
0
0
0
0
0
0
0
0
0
0
0
0
0
0
0
0
0
0
0
0
0
0
0
0
0
0
0
0
0
0
0
0
0
0
0
0
0
0
0
0
0
0
0
0
0
0
0
0
0
0
0
0
0
0
0
0
0
0
0
0
0
0
0
0
0
0
0
0
0
0
0
0
0
0
0
0
0
0
0
0
0
0
0
0
0
0
0
0
0
0
0
0
0
0
0
0
0
0
0
0
0
0
0
0
0
0
0
0
0
0
0
0
0
0
0
0
0
0
0
0
0
0
0
0
0
0
0
0
0
0
0
0
0
0
0
0
0
0
0
0
0
0
0
0
0
0
0
0
0
0
0
0
0
0
0
0
0
0
0
0
0
0
0
0
0
0
0
0
0
0
0
0
0
0
0
0
0
0
0
0
0
0
0
0
0
0
0
0
0
0
0
0
0
0
0
0
0
0
0
0
0
0
0
0
0
0
0
0
0
0
0
0
0
0
0
0
0
0
0
0
0
0
0
0
0
0
0
0
0
0
0
0
0
0
0
0
0
0
0
0
0
0
0
0
0
0
0
0
0
0
0
0
0
0
0
0
0
0
0
0
0
0
0
0
0
0
0
0
0
0
0
0
0
0
0
0
0
0
0
0
0
0
0
0
0
0
0
0
0
0
0
0
0
0
0
0
0
0
0
0
0
0
0
0
0
0
0
0
0
0
0
0
0
0
0
0
0
0
0
0
0
0
0
0
0
0
0
0
0
0
0
0
0
0
0
0
0
0
0
0
0
0
0
0
0
0
0
0
0
0
0
0
0
0
0
0
0
0
0
0
0
0
0
0
0
0
0
0
0
0
0
0
0
0
0
0
0
0
      </DataArray> 
      <DataArray type="Float64" NumberOfComponents="1" Name="NormalFibers" format="ascii">
0
0
0
0
0
0
0
0
0
0
0
0
0
0
0
0
0
0
0
0
0
0
0
0
0
0
0
0
0
0
0
0
0
0
0
0
0
0
0
0
0
0
0
0
0
0
0
0
0
0
0
0
0
0
0
0
0
0
0
0
0
0
0
0
0
0
0
0
0
0
0
0
0
0
0
0
0
0
0
0
0
0
0
0
0
0
0
0
0
0
0
0
0
0
0
0
0
0
0
0
0
0
0
0
0
0
0
0
0
0
0
0
0
0
0
0
0
0
0
0
0
0
0
0
0
0
0
0
0
0
0
0
0
0
0
0
0
0
0
0
0
0
0
0
0
0
0
0
0
0
0
0
0
0
0
0
0
0
0
0
0
0
0
0
0
0
0
0
0
0
0
0
0
0
0
0
0
0
0
0
0
0
0
0
0
0
0
0
0
0
0
0
0
0
0
0
0
0
0
0
0
0
0
0
0
0
0
0
0
0
0
0
0
0
0
0
0
0
0
0
0
0
0
0
0
0
0
0
0
0
0
0
0
0
0
0
0
0
0
0
0
0
0
0
0
0
0
0
0
0
0
0
0
0
0
0
0
0
0
0
0
0
0
0
0
0
0
0
0
0
0
0
0
0
0
0
0
0
0
0
0
0
0
0
0
0
0
0
0
0
0
0
0
0
0
0
0
0
0
0
0
0
0
0
0
0
0
0
0
0
0
0
0
0
0
0
0
0
0
0
0
0
0
0
0
0
0
0
0
0
0
0
0
0
0
0
0
0
0
0
0
0
0
0
0
0
0
0
0
0
0
0
0
0
0
0
0
0
0
0
0
0
0
0
0
0
0
0
0
0
0
0
0
0
0
0
0
0
0
0
0
0
0
0
0
0
0
0
0
0
0
0
0
0
0
0
0
0
0
0
0
0
0
0
0
0
0
0
0
0
0
0
0
0
0
0
0
0
0
0
0
0
0
0
0
0
0
0
0
0
0
0
0
0
0
0
0
0
0
0
0
0
0
0
0
0
0
0
0
0
0
0
0
0
0
0
0
0
0
0
0
0
0
0
0
0
0
0
0
0
0
0
0
0
0
0
0
0
0
0
0
0
0
0
0
0
0
0
0
0
0
0
0
0
0
0
0
0
0
0
0
0
0
0
0
0
0
0
0
0
0
0
0
0
0
0
0
0
0
0
0
0
0
0
0
0
0
0
0
0
0
0
0
0
0
0
0
0
0
0
0
0
0
0
0
0
0
0
0
0
0
0
0
0
0
0
0
0
0
0
0
0
0
0
0
0
0
0
0
0
0
0
0
0
0
0
0
0
0
0
0
0
0
0
0
0
0
0
0
0
0
0
0
0
0
0
0
0
0
0
0
0
0
0
0
0
0
0
0
0
0
0
0
0
0
0
0
0
0
0
0
0
0
0
0
0
0
0
0
0
0
0
0
0
0
0
0
0
0
0
0
0
0
0
0
0
0
0
0
0
0
0
0
0
0
0
0
0
0
0
0
0
0
0
0
0
0
0
0
0
0
0
0
0
0
0
0
0
0
0
0
0
0
0
0
0
0
0
0
0
0
0
0
0
0
0
0
0
0
0
0
0
0
0
0
0
0
0
0
0
0
0
0
0
0
0
0
0
0
0
0
0
0
0
0
0
0
0
0
0
0
0
0
0
0
0
0
0
0
0
0
0
0
0
0
0
0
0
0
0
0
0
0
0
0
0
0
0
0
0
0
0
0
0
0
0
0
0
0
0
0
0
0
0
0
0
0
0
0
0
0
0
0
0
0
0
0
0
0
0
0
0
0
0
0
0
0
0
0
0
0
0
0
0
0
0
0
0
0
0
0
0
0
0
0
0
0
0
0
0
0
0
0
0
0
0
0
0
0
0
0
0
0
0
0
0
0
0
0
0
0
0
0
0
0
0
0
0
0
0
0
0
0
0
0
0
0
0
0
0
0
0
0
0
0
0
0
0
0
0
0
0
0
0
0
0
0
0
0
0
0
0
0
0
0
0
0
0
0
0
0
0
0
0
0
0
0
0
0
0
0
0
0
0
0
0
0
0
0
0
0
0
0
0
0
0
0
0
0
0
0
0
0
0
0
0
0
0
0
0
0
0
0
0
0
0
0
0
0
0
0
0
0
0
0
0
0
0
0
0
0
0
0
0
0
0
0
0
0
0
0
0
0
0
0
0
0
0
0
0
0
0
0
0
0
0
0
0
0
0
0
0
0
0
0
0
0
0
0
0
0
0
0
0
0
0
0
0
0
0
0
0
0
0
0
0
0
0
0
0
0
0
0
0
0
0
0
0
0
0
0
0
0
0
0
0
0
0
0
0
0
0
0
0
0
0
0
0
0
0
0
0
0
0
0
0
0
0
0
0
0
0
0
0
0
0
0
0
0
0
0
0
0
0
0
0
0
0
0
0
0
0
0
0
0
0
0
0
0
0
0
0
0
0
0
0
0
0
0
0
0
0
0
0
0
0
0
0
0
0
0
0
0
0
0
0
0
0
0
0
0
0
0
0
0
0
0
0
0
0
0
0
0
0
0
0
0
0
0
0
0
0
0
0
0
0
0
0
0
0
0
0
0
0
0
0
0
0
0
0
0
0
0
0
0
0
0
0
0
0
0
0
0
0
0
0
0
0
0
0
0
0
0
0
0
0
0
0
0
0
0
0
0
0
0
0
0
0
0
0
0
0
0
0
0
0
0
0
0
0.00748128
0.00748128
0.0404734
0.0404734
-0.12984
-0.12984
-0.0653725
-0.0653725
-0.00349292
-0.00349292
-0.0615543
-0.0615543
0.00374614
0.00374614
0.0288482
0.0288482
-0.161498
-0.161498
-0.0202728
-0.0202728
-0.0523886
-0.0523886
-0.0796463
-0.0796463
-0.13856
-0.13856
0.0356097
0.0356097
-0.0655289
-0.0655289
0.0924432
0.0924432
-0.0551197
-0.0551197
-0.00418346
-0.00418346
0.0539014
0.0539014
-0.0337643
-0.0337643
-0.0193871
-0.0193871
-0.0815279
-0.0815279
-0.318081
-0.318081
-0.031542
-0.031542
-0.040669
-0.040669
-0.028412
-0.028412
-0.0192465
-0.0192465
-0.00496891
-0.00496891
-0.158567
-0.158567
0.0136068
0.0136068
0.0127212
0.0127212
0.0151532
0.0151532
-0.213998
-0.213998
-0.034145
-0.034145
-0.23908
-0.23908
-0.012722
-0.012722
-0.0500372
-0.0500372
-0.0183884
-0.0183884
0.0111334
0.0111334
-0.0624154
-0.0624154
-0.0472199
-0.0472199
0.0776231
0.0776231
-0.0722222
-0.0722222
-0.0653404
-0.0653404
-0.228612
-0.228612
-0.0625795
-0.0625795
-0.038011
-0.038011
-0.0404341
-0.0404341
-0.0255671
-0.0255671
-0.025403
-0.025403
0.113727
0.113727
-0.0367886
-0.0367886
0.0210885
0.0210885
-0.188152
-0.188152
-0.00605378
-0.00605378
-0.0191873
-0.0191873
-0.0942731
-0.0942731
-0.1182
-0.1182
-0.00800076
-0.00800076
-0.024425
-0.024425
-0.0914512
-0.0914512
0.067033
0.067033
0.000840329
0.000840329
-0.0902564
-0.0902564
-0.0668565
-0.0668565
-0.0664275
-0.0664275
-0.0677968
-0.0677968
0.063484
0.063484
0.0884687
0.0884687
-0.147522
-0.147522
-0.101034
-0.101034
-0.0329207
-0.0329207
-0.244345
-0.244345
0.0594289
0.0594289
-0.123291
-0.123291
-0.000395562
-0.000395562
-0.0369247
-0.0369247
-0.00453713
-0.00453713
-0.0929578
-0.0929578
-0.0693438
-0.0693438
-0.158712
-0.158712
0.0150247
0.0150247
-0.084433
-0.084433
-0.223743
-0.223743
-0.140326
-0.140326
-0.113037
-0.113037
-0.0315457
-0.0315457
-0.010361
-0.010361
0.0325008
0.0325008
-0.00693346
-0.00693346
-0.031881
-0.031881
-0.00129429
-0.00129429
0.0582328
0.0582328
-0.119198
-0.119198
-0.188431
-0.188431
-0.0137513
-0.0137513
0.00873037
0.00873037
-0.0481057
-0.0481057
-0.294924
-0.294924
-0.0640614
-0.0640614
-0.0016601
-0.0016601
-0.0811339
-0.0811339
-0.0331316
-0.0331316
-0.064907
-0.064907
-0.0120735
-0.0120735
0.011536
0.011536
-0.221286
-0.221286
-0.0544695
-0.0544695
-0.0376871
-0.0376871
-0.0435364
-0.0435364
-0.137766
-0.137766
0.108972
0.108972
0.0712164
0.0712164
0.0162989
0.0162989
0.0544369
0.0544369
-0.0132143
-0.0132143
-0.00621654
-0.00621654
-0.0959023
-0.0959023
-0.151823
-0.151823
0.0158138
0.0158138
-0.00706302
-0.00706302
-0.0289202
-0.0289202
0.0166933
0.0166933
-0.0494951
-0.0494951
-0.0773027
-0.0773027
-0.177558
-0.177558
-0.00663168
-0.00663168
-0.00754337
-0.00754337
0.00462251
0.00462251
-0.228531
-0.228531
-0.11714
-0.11714
0.0390131
0.0390131
0.00586207
0.00586207
-0.0314151
-0.0314151
0.0661305
0.0661305
-0.0404181
-0.0404181
-0.00815924
-0.00815924
-0.0871676
-0.0871676
-0.0999996
-0.0999996
-0.0350636
-0.0350636
-0.0108679
-0.0108679
-0.0496281
-0.0496281
-0.00898005
-0.00898005
-0.0238366
-0.0238366
-0.0173031
-0.0173031
-0.0113908
-0.0113908
-0.0326857
-0.0326857
0.0188668
0.0188668
-0.0296513
-0.0296513
-0.0980815
-0.0980815
-0.0186771
-0.0186771
-0.0117727
-0.0117727
0.0269188
0.0269188
-0.188465
-0.188465
-0.162597
-0.162597
-0.447713
-0.447713
-0.220891
-0.220891
-0.168165
-0.168165
0.0028882
0.0028882
-0.0293283
-0.0293283
-0.0857926
-0.0857926
0.0604039
0.0604039
-0.0411392
-0.0411392
0.0429017
0.0429017
-0.00845143
-0.00845143
-0.0556323
-0.0556323
-0.091754
-0.091754
0.0318489
0.0318489
-0.0746742
-0.0746742
-0.0447989
-0.0447989
-0.0337428
-0.0337428
-0.107148
-0.107148
-0.102762
-0.102762
-0.0136574
-0.0136574
0.00657231
0.00657231
-0.0634107
-0.0634107
-0.0168422
-0.0168422
-0.0859811
-0.0859811
-0.0772237
-0.0772237
-0.104773
-0.104773
-0.0136028
-0.0136028
-0.0192694
-0.0192694
-0.00172764
-0.00172764
-0.199774
-0.199774
-0.112728
-0.112728
-0.227431
-0.227431
-0.00999251
-0.00999251
-0.011844
-0.011844
0.0410799
0.0410799
0.0195068
0.0195068
0.0458458
0.0458458
0.0805237
0.0805237
-0.0700352
-0.0700352
-0.0772199
-0.0772199
0.00415717
0.00415717
-0.0240896
-0.0240896
-0.00105241
-0.00105241
-0.0188895
-0.0188895
-0.0492935
-0.0492935
0.0231508
0.0231508
-0.0290704
-0.0290704
-0.152232
-0.152232
-0.0124475
-0.0124475
0.0523456
0.0523456
-0.0234427
-0.0234427
-0.304422
-0.304422
0.0515508
0.0515508
0.0134672
0.0134672
-0.0223378
-0.0223378
-0.115142
-0.115142
-0.00422922
-0.00422922
-0.0206046
-0.0206046
-0.129709
-0.129709
-0.0605593
-0.0605593
0.0511017
0.0511017
-0.029536
-0.029536
-0.0584598
-0.0584598
-0.14589
-0.14589
0.085855
0.085855
0.0852016
0.0852016
-0.00301455
-0.00301455
-0.178085
-0.178085
0.0198438
0.0198438
-0.0450381
-0.0450381
-0.0694058
-0.0694058
-0.0132668
-0.0132668
0.000496952
0.000496952
-0.0189382
-0.0189382
-0.140279
-0.140279
-0.0436557
-0.0436557
-0.0127123
-0.0127123
-0.0120625
-0.0120625
-0.0458629
-0.0458629
-0.181569
-0.181569
0.00528267
0.00528267
-0.0382969
-0.0382969
-0.05529
-0.05529
-0.229738
-0.229738
-0.161551
-0.161551
-0.14029
-0.14029
-0.041526
-0.041526
-0.009406
-0.009406
-0.00816509
-0.00816509
0.0930044
0.0930044
-0.00399777
-0.00399777
-0.0185753
-0.0185753
-0.0111388
-0.0111388
0.0838688
0.0838688
-0.163967
-0.163967
-0.0714709
-0.0714709
-0.012009
-0.012009
-0.218857
-0.218857
-0.222509
-0.222509
-0.00822791
-0.00822791
-0.247314
-0.247314
-0.00234281
-0.00234281
-0.143979
-0.143979
0.0438715
0.0438715
-0.0216261
-0.0216261
-0.00104269
-0.00104269
-0.03673
-0.03673
-0.333705
-0.333705
-0.0428045
-0.0428045
-0.0190248
-0.0190248
-0.0428168
-0.0428168
-0.149322
-0.149322
-0.069403
-0.069403
-0.0686925
-0.0686925
0.101551
0.101551
-0.0134387
-0.0134387
-0.168631
-0.168631
-0.0197166
-0.0197166
-0.00870039
-0.00870039
-0.220133
-0.220133
-0.0304328
-0.0304328
-0.177482
-0.177482
-0.0214281
-0.0214281
-0.00484092
-0.00484092
-0.0879018
-0.0879018
0.0330558
0.0330558
0.00224496
0.00224496
-0.0524762
-0.0524762
-0.0656805
-0.0656805
-0.0471173
-0.0471173
-0.0848201
-0.0848201
-0.202568
-0.202568
0.0651185
0.0651185
-0.178277
-0.178277
0.00952967
0.00952967
-0.209304
-0.209304
-0.0614398
-0.0614398
-0.0843541
-0.0843541
-0.0110203
-0.0110203
0.0368001
0.0368001
-0.240223
-0.240223
0.0483907
0.0483907
0.0183042
0.0183042
0.0945533
0.0945533
-0.202426
-0.202426
-0.0601208
-0.0601208
-0.00366365
-0.00366365
-0.107038
-0.107038
-0.150104
-0.150104
-0.0408769
-0.0408769
-0.184475
-0.184475
-0.0726572
-0.0726572
-0.0212066
-0.0212066
-0.0347571
-0.0347571
0.0382492
0.0382492
-0.166174
-0.166174
0.0644707
0.0644707
-0.0532395
-0.0532395
0.00103357
0.00103357
-0.0663555
-0.0663555
0.00981946
0.00981946
0.0353915
0.0353915
-0.0610321
-0.0610321
-0.100819
-0.100819
-0.153234
-0.153234
0.0091107
0.0091107
-0.224502
-0.224502
0.0436375
0.0436375
-0.0292419
-0.0292419
-0.0893543
-0.0893543
-0.143229
-0.143229
-0.196451
-0.196451
-0.182243
-0.182243
-0.024509
-0.024509
-0.0871211
-0.0871211
-0.0011899
-0.0011899
-0.0135798
-0.0135798
-0.245987
-0.245987
-0.0253825
-0.0253825
0.0788269
0.0788269
0.0371469
0.0371469
-0.0290539
-0.0290539
-0.00196319
-0.00196319
0.00172107
0.00172107
-0.000239867
-0.000239867
-0.0705355
-0.0705355
-0.0673982
-0.0673982
0.017009
0.017009
-0.012095
-0.012095
-0.1017
-0.1017
0.0228821
0.0228821
-0.0548307
-0.0548307
-0.0351812
-0.0351812
-0.0417409
-0.0417409
-0.0187265
-0.0187265
-0.0175701
-0.0175701
-0.126058
-0.126058
-0.0129364
-0.0129364
0.00817566
0.00817566
-0.0068902
-0.0068902
0.087085
0.087085
-0.102426
-0.102426
-0.0824167
-0.0824167
-0.0734026
-0.0734026
-0.0842097
-0.0842097
-0.0301142
-0.0301142
-0.127279
-0.127279
-0.137973
-0.137973
-0.0650121
-0.0650121
-0.267817
-0.267817
0.0425829
0.0425829
-0.0188825
-0.0188825
-0.0134093
-0.0134093
0.0864994
0.0864994
0.0436602
0.0436602
-0.0123536
-0.0123536
-0.000713113
-0.000713113
-0.023754
-0.023754
-0.0258395
-0.0258395
-0.101641
-0.101641
-0.0675936
-0.0675936
-0.0682072
-0.0682072
-0.0613112
-0.0613112
-0.0905698
-0.0905698
-0.0212892
-0.0212892
0.0228603
0.0228603
0.0644763
0.0644763
-0.0428717
-0.0428717
-0.0650448
-0.0650448
-0.0266346
-0.0266346
-0.387998
-0.387998
0.011197
0.011197
0.0415046
0.0415046
-0.203827
-0.203827
0.0493947
0.0493947
-0.0317998
-0.0317998
0.0272092
0.0272092
-0.351815
-0.351815
-0.0434483
-0.0434483
0.0389025
0.0389025
-0.253324
-0.253324
-0.118568
-0.118568
-0.0652078
-0.0652078
-0.25244
-0.25244
-0.0245944
-0.0245944
-0.0237529
-0.0237529
-0.083078
-0.083078
-0.350288
-0.350288
-0.0867217
-0.0867217
-0.0106358
-0.0106358
-0.027501
-0.027501
0.00641851
0.00641851
-0.174207
-0.174207
-0.0921049
-0.0921049
0.0146493
0.0146493
-0.0786226
-0.0786226
-0.0307257
-0.0307257
-0.0283802
-0.0283802
-0.131965
-0.131965
-0.143451
-0.143451
-0.204695
-0.204695
-0.00306537
-0.00306537
-0.0464474
-0.0464474
-0.0797043
-0.0797043
-0.0430627
-0.0430627
-0.0503323
-0.0503323
0.00504583
0.00504583
-0.0682464
-0.0682464
0.0276393
0.0276393
-0.0497704
-0.0497704
-0.0387972
-0.0387972
-0.0158676
-0.0158676
0.0488884
0.0488884
-0.111041
-0.111041
-0.14257
-0.14257
-0.014275
-0.014275
-0.161823
-0.161823
-0.0381283
-0.0381283
-0.252988
-0.252988
-0.41956
-0.41956
0.0251732
0.0251732
0.0473028
0.0473028
0.0247496
0.0247496
-0.100494
-0.100494
0.00108995
0.00108995
-0.00543624
-0.00543624
-0.172295
-0.172295
-0.0114312
-0.0114312
-0.0131893
-0.0131893
0.00695103
0.00695103
-0.00838522
-0.00838522
-0.100954
-0.100954
-0.278806
-0.278806
-0.00584025
-0.00584025
-0.00053517
-0.00053517
-0.0290594
-0.0290594
-0.0314825
-0.0314825
-0.209706
-0.209706
-0.0104047
-0.0104047
-0.159737
-0.159737
0.00814311
0.00814311
-0.0745735
-0.0745735
-0.0493452
-0.0493452
0.0288181
0.0288181
-0.0427408
-0.0427408
0.0169476
0.0169476
0.0144967
0.0144967
-0.0390412
-0.0390412
-0.00779709
-0.00779709
-0.053765
-0.053765
-0.0586028
-0.0586028
-0.0185344
-0.0185344
0.0481163
0.0481163
-0.0437141
-0.0437141
-0.0693178
-0.0693178
0.0470644
0.0470644
-0.0100075
-0.0100075
-0.124092
-0.124092
-0.00519946
-0.00519946
-0.0801383
-0.0801383
-0.23947
-0.23947
-0.031282
-0.031282
-0.0597154
-0.0597154
-0.104436
-0.104436
0.0705935
0.0705935
0.0263964
0.0263964
-0.0577019
-0.0577019
0.0177085
0.0177085
-0.0075596
-0.0075596
-0.0649352
-0.0649352
-0.0548788
-0.0548788
-0.0517579
-0.0517579
-0.0128174
-0.0128174
0.000399413
0.000399413
-0.0467853
-0.0467853
-0.0489552
-0.0489552
-0.0167797
-0.0167797
-0.0329473
-0.0329473
-0.347296
-0.347296
-0.011809
-0.011809
-0.0415749
-0.0415749
-0.053208
-0.053208
-0.0230915
-0.0230915
0.0255638
0.0255638
-0.0303457
-0.0303457
-0.050234
-0.050234
0.0236409
0.0236409
0.00813229
0.00813229
-0.0818735
-0.0818735
-0.061665
-0.061665
-0.156658
-0.156658
-0.0248624
-0.0248624
0.00622978
0.00622978
-0.0204015
-0.0204015
-0.016359
-0.016359
-0.094641
-0.094641
-0.0114818
-0.0114818
-0.0330483
-0.0330483
-0.0310119
-0.0310119
-0.177722
-0.177722
-0.019703
-0.019703
-0.0203311
-0.0203311
-0.0472567
-0.0472567
-0.148181
-0.148181
-0.00470696
-0.00470696
-0.167143
-0.167143
-0.00516017
-0.00516017
-0.215333
-0.215333
-0.178521
-0.178521
-0.000560655
-0.000560655
0.0445606
0.0445606
0.014208
0.014208
-0.131375
-0.131375
-0.00398841
-0.00398841
-0.0398445
-0.0398445
-0.203586
-0.203586
0.0572228
0.0572228
-0.129911
-0.129911
-0.045995
-0.045995
-0.121392
-0.121392
-0.169703
-0.169703
0.0736708
0.0736708
-0.026623
-0.026623
-0.0675238
-0.0675238
-0.0152564
-0.0152564
-0.0726023
-0.0726023
-0.0168537
-0.0168537
-0.0224803
-0.0224803
-0.0461547
-0.0461547
-0.124338
-0.124338
-0.0811776
-0.0811776
0.00811962
0.00811962
-0.138319
-0.138319
-0.0590218
-0.0590218
-0.0695334
-0.0695334
-0.106771
-0.106771
-0.135956
-0.135956
-0.084682
-0.084682
0.0277208
0.0277208
-0.314506
-0.314506
0.0163593
0.0163593
-0.0795942
-0.0795942
-0.0360893
-0.0360893
-0.197132
-0.197132
-0.114944
-0.114944
0.0592683
0.0592683
-0.102173
-0.102173
-0.15005
-0.15005
-0.044872
-0.044872
-0.130237
-0.130237
-0.210101
-0.210101
0.0646315
0.0646315
-0.0479401
-0.0479401
-0.000341716
-0.000341716
-0.0164457
-0.0164457
-0.180913
-0.180913
-0.173985
-0.173985
-0.0088439
-0.0088439
-0.0518779
-0.0518779
0.0331492
0.0331492
-0.125861
-0.125861
-0.00899267
-0.00899267
-0.284965
-0.284965
-0.205738
-0.205738
-0.0311517
-0.0311517
-0.0321408
-0.0321408
-0.171799
-0.171799
-0.0680699
-0.0680699
0.102187
0.102187
-0.14586
-0.14586
0.0952403
0.0952403
-0.039211
-0.039211
-0.0371017
-0.0371017
-0.166186
-0.166186
-0.0223428
-0.0223428
-0.0059148
-0.0059148
-0.0333095
-0.0333095
-0.048142
-0.048142
-0.0390641
-0.0390641
-0.0393806
-0.0393806
0.0016754
0.0016754
-0.0254395
-0.0254395
-0.104675
-0.104675
-0.0341912
-0.0341912
-0.0431773
-0.0431773
-0.0299679
-0.0299679
-0.0141891
-0.0141891
-0.0517632
-0.0517632
0.0184256
0.0184256
-0.0351051
-0.0351051
0.00610744
0.00610744
-0.0209083
-0.0209083
-0.228677
-0.228677
-0.0419731
-0.0419731
-0.0670882
-0.0670882
0.0374685
0.0374685
-0.0189329
-0.0189329
0.0133992
0.0133992
-0.0376397
-0.0376397
-0.18278
-0.18278
-0.0134267
-0.0134267
-0.152569
-0.152569
-0.0333663
-0.0333663
-0.00669214
-0.00669214
-0.0397097
-0.0397097
-0.0393001
-0.0393001
-0.0374118
-0.0374118
-0.0504406
-0.0504406
-0.0785323
-0.0785323
0.0771969
0.0771969
0.00248358
0.00248358
-0.00630737
-0.00630737
-0.0787208
-0.0787208
0.0472521
0.0472521
-0.0216507
-0.0216507
-0.0120948
-0.0120948
-0.0433836
-0.0433836
-0.0367123
-0.0367123
-0.00609953
-0.00609953
-0.0271473
-0.0271473
-0.00109119
-0.00109119
-0.0147409
-0.0147409
-0.0530666
-0.0530666
0.010153
0.010153
-0.098768
-0.098768
-0.0485758
-0.0485758
0.0987546
0.0987546
-0.0130175
-0.0130175
0.0310794
0.0310794
-0.0307515
-0.0307515
-0.269574
-0.269574
-0.227962
-0.227962
-0.0972304
-0.0972304
0.0597199
0.0597199
-0.150729
-0.150729
-0.00364943
-0.00364943
-0.0164214
-0.0164214
-0.0182465
-0.0182465
-0.00506947
-0.00506947
-0.0404792
-0.0404792
-0.0510379
-0.0510379
-0.0152432
-0.0152432
-0.0736604
-0.0736604
-0.337181
-0.337181
-0.0256475
-0.0256475
-0.0396981
-0.0396981
-0.0265312
-0.0265312
-0.0914527
-0.0914527
0.028608
0.028608
-0.150906
-0.150906
-0.00728056
-0.00728056
0.0436769
0.0436769
-0.00751723
-0.00751723
-0.0184215
-0.0184215
-0.23513
-0.23513
-0.234814
-0.234814
-0.204661
-0.204661
-0.00369445
-0.00369445
0.00962041
0.00962041
-0.0449923
-0.0449923
-0.0104365
-0.0104365
-0.0156237
-0.0156237
-0.018052
-0.018052
-0.00872491
-0.00872491
0.0557894
0.0557894
-0.252004
-0.252004
-0.0151893
-0.0151893
-0.0016543
-0.0016543
-0.00873128
-0.00873128
-0.021741
-0.021741
-0.0121167
-0.0121167
0.0191858
0.0191858
-0.141089
-0.141089
-0.0298914
-0.0298914
-0.0793353
-0.0793353
-0.152955
-0.152955
-0.0519248
-0.0519248
-0.204797
-0.204797
-0.0684862
-0.0684862
-0.0652452
-0.0652452
-0.00505462
-0.00505462
-0.0241978
-0.0241978
0.054664
0.054664
0.0796015
0.0796015
-0.0166113
-0.0166113
-0.00875934
-0.00875934
0.0175727
0.0175727
-0.106174
-0.106174
-0.0100142
-0.0100142
0.0396798
0.0396798
-0.0389019
-0.0389019
-0.000273712
-0.000273712
-0.0149612
-0.0149612
-0.0213565
-0.0213565
-0.195967
-0.195967
0.0786584
0.0786584
-0.010519
-0.010519
-0.0724193
-0.0724193
-0.107772
-0.107772
-0.118778
-0.118778
-0.0155585
-0.0155585
-0.00921795
-0.00921795
-0.145631
-0.145631
0.0202074
0.0202074
-0.194333
-0.194333
-0.254672
-0.254672
0.0200788
0.0200788
-0.0163266
-0.0163266
-0.180584
-0.180584
-0.0344823
-0.0344823
-0.045649
-0.045649
-0.0755594
-0.0755594
-0.02448
-0.02448
0.041336
0.041336
-0.169398
-0.169398
-0.0659168
-0.0659168
0.0261911
0.0261911
-0.147752
-0.147752
-0.0400154
-0.0400154
-0.0340941
-0.0340941
-0.014913
-0.014913
-0.0123686
-0.0123686
-0.0476807
-0.0476807
-0.0876848
-0.0876848
-0.0168762
-0.0168762
0.0446102
0.0446102
-0.41352
-0.41352
0.00533724
0.00533724
-0.0210823
-0.0210823
-0.0596574
-0.0596574
0.0260034
0.0260034
-0.0574054
-0.0574054
-0.0277439
-0.0277439
-0.0394193
-0.0394193
-0.00537607
-0.00537607
0.0120374
0.0120374
0.00779118
0.00779118
0.0145207
0.0145207
-0.207528
-0.207528
-0.0570853
-0.0570853
0.00800205
0.00800205
0.0548994
0.0548994
0.0111273
0.0111273
0.0522397
0.0522397
-0.0252757
-0.0252757
0.0126348
0.0126348
-0.025686
-0.025686
-0.0286932
-0.0286932
-0.353894
-0.353894
0.0194715
0.0194715
-0.297093
-0.297093
0.0501447
0.0501447
0.00340921
0.00340921
-0.0549798
-0.0549798
-0.0299811
-0.0299811
-0.0949343
-0.0949343
-0.107105
-0.107105
-0.0349398
-0.0349398
-0.00441571
-0.00441571
0.0544319
0.0544319
-0.124853
-0.124853
-0.0322147
-0.0322147
-0.0269173
-0.0269173
0.074929
0.074929
0.00153638
0.00153638
-0.00687346
-0.00687346
0.00091194
0.00091194
-0.0120373
-0.0120373
-0.0786858
-0.0786858
-0.168006
-0.168006
-0.192998
-0.192998
-0.0292515
-0.0292515
0.0402187
0.0402187
-0.196207
-0.196207
-0.0765263
-0.0765263
0.0733336
0.0733336
-0.00913575
-0.00913575
0.00173127
0.00173127
-0.0542353
-0.0542353
-0.044307
-0.044307
-0.012375
-0.012375
-0.187755
-0.187755
0.11381
0.11381
-0.134206
-0.134206
-0.0123718
-0.0123718
-0.0575124
-0.0575124
-0.24685
-0.24685
0.0101254
0.0101254
-0.0472424
-0.0472424
-0.216031
-0.216031
0.0813104
0.0813104
-0.00586976
-0.00586976
0.0114236
0.0114236
-0.0341989
-0.0341989
0.0461088
0.0461088
-0.00303153
-0.00303153
-0.00914651
-0.00914651
-0.0637134
-0.0637134
-0.103839
-0.103839
-0.316986
-0.316986
-0.247259
-0.247259
0.029367
0.029367
-0.234107
-0.234107
-0.0453045
-0.0453045
-0.0225008
-0.0225008
0.00303387
0.00303387
-0.073603
-0.073603
0.0174822
0.0174822
-0.00921824
-0.00921824
0.0152358
0.0152358
-0.00811511
-0.00811511
0.000271513
0.000271513
-0.0639415
-0.0639415
-0.0386251
-0.0386251
-0.00830976
-0.00830976
-0.125198
-0.125198
0.00599118
0.00599118
-0.0476156
-0.0476156
-0.0551249
-0.0551249
0.0401549
0.0401549
-0.063055
-0.063055
-0.0292679
-0.0292679
0.0630019
0.0630019
0.0163257
0.0163257
0.0583046
0.0583046
-0.0762347
-0.0762347
-0.0030474
-0.0030474
-0.158519
-0.158519
-0.0482252
-0.0482252
-0.235562
-0.235562
-0.128453
-0.128453
-0.235889
-0.235889
-0.0188228
-0.0188228
-0.163874
-0.163874
0.00557912
0.00557912
-0.0431796
-0.0431796
-0.207011
-0.207011
-0.235873
-0.235873
0.0351573
0.0351573
-0.0472041
-0.0472041
0.0434147
0.0434147
0.0561322
0.0561322
-0.0866602
-0.0866602
-0.220024
-0.220024
-0.00767628
-0.00767628
0.0195331
0.0195331
0.0142895
0.0142895
0.0424875
0.0424875
-0.116922
-0.116922
-0.0431942
-0.0431942
0.00472789
0.00472789
-0.0436088
-0.0436088
-0.0481405
-0.0481405
-0.0601164
-0.0601164
0.0235353
0.0235353
-0.129978
-0.129978
-0.0157463
-0.0157463
-0.0141682
-0.0141682
-0.0291138
-0.0291138
-0.0425635
-0.0425635
-0.0122854
-0.0122854
-0.142829
-0.142829
-0.203182
-0.203182
-0.0309375
-0.0309375
-0.00712085
-0.00712085
-0.0458483
-0.0458483
0.00956111
0.00956111
-0.210481
-0.210481
-0.00299258
-0.00299258
0.0592595
0.0592595
-0.255704
-0.255704
-0.00480862
-0.00480862
-0.0651754
-0.0651754
-0.0719917
-0.0719917
-0.158475
-0.158475
-0.03605
-0.03605
-0.0392218
-0.0392218
-0.0052752
-0.0052752
-0.180931
-0.180931
-0.0457094
-0.0457094
-0.121449
-0.121449
0.00417455
0.00417455
-0.0176794
-0.0176794
0.0206663
0.0206663
0.0301414
0.0301414
-0.0860322
-0.0860322
0.00578128
0.00578128
0.00638921
0.00638921
0.00456141
0.00456141
0.0012766
0.0012766
-0.00775662
-0.00775662
-0.0498155
-0.0498155
-0.0502832
-0.0502832
-0.105898
-0.105898
-0.0162632
-0.0162632
0.0485916
0.0485916
-0.0551525
-0.0551525
-0.164676
-0.164676
0.0369898
0.0369898
-0.0542255
-0.0542255
-0.0181019
-0.0181019
-0.0502236
-0.0502236
-0.0368885
-0.0368885
-0.0296025
-0.0296025
-0.0161751
-0.0161751
-0.137395
-0.137395
-0.0184785
-0.0184785
-0.0296286
-0.0296286
-0.0289331
-0.0289331
-0.171324
-0.171324
-0.277929
-0.277929
-0.0358125
-0.0358125
-0.0183203
-0.0183203
-0.176507
-0.176507
-0.0401216
-0.0401216
-0.0176023
-0.0176023
-0.115094
-0.115094
-0.123575
-0.123575
-0.0513156
-0.0513156
-0.0117096
-0.0117096
-0.0968963
-0.0968963
0.0163376
0.0163376
0.0333097
0.0333097
0.00323732
0.00323732
-0.0102297
-0.0102297
-0.0340834
-0.0340834
0.0332004
0.0332004
0.0871289
0.0871289
-0.177375
-0.177375
-0.0248515
-0.0248515
-0.0342111
-0.0342111
-0.0753297
-0.0753297
-0.0543375
-0.0543375
0.0202361
0.0202361
-0.062397
-0.062397
0.033272
0.033272
-0.144604
-0.144604
-0.20583
-0.20583
0.0976981
0.0976981
-0.165267
-0.165267
-0.199673
-0.199673
-0.131867
-0.131867
-0.0697347
-0.0697347
-0.0258356
-0.0258356
-0.0259369
-0.0259369
-0.10033
-0.10033
-0.0698445
-0.0698445
0.00198491
0.00198491
-0.023446
-0.023446
-0.0109533
-0.0109533
0.0223655
0.0223655
-0.065337
-0.065337
-0.145029
-0.145029
-0.303126
-0.303126
-0.209199
-0.209199
-0.117558
-0.117558
-0.0808924
-0.0808924
-0.359618
-0.359618
-0.0170018
-0.0170018
-0.155534
-0.155534
0.0368535
0.0368535
-0.00518922
-0.00518922
-0.20911
-0.20911
-0.0691905
-0.0691905
-0.0601573
-0.0601573
-0.160262
-0.160262
-0.0132148
-0.0132148
-0.0219145
-0.0219145
-0.0130918
-0.0130918
-0.0311405
-0.0311405
-0.157653
-0.157653
-0.0198278
-0.0198278
-0.0155264
-0.0155264
-0.0141202
-0.0141202
-0.00306838
-0.00306838
-0.118258
-0.118258
-0.00700156
-0.00700156
-0.215957
-0.215957
-0.355375
-0.355375
-0.0363741
-0.0363741
0.0302318
0.0302318
-0.0651911
-0.0651911
-0.0676386
-0.0676386
-0.0249817
-0.0249817
-0.0894669
-0.0894669
0.0169745
0.0169745
-0.0166075
-0.0166075
-0.0126011
-0.0126011
-0.0102346
-0.0102346
-0.00887335
-0.00887335
-0.00695786
-0.00695786
-0.00548133
-0.00548133
-0.00406938
-0.00406938
-0.00279199
-0.00279199
-0.00173044
-0.00173044
-0.000663586
-0.000663586
0.000231399
0.000231399
0.00102755
0.00102755
0.00179987
0.00179987
0.00228009
0.00228009
0.00271869
0.00271869
0.00312636
0.00312636
0.00328026
0.00328026
0.00342205
0.00342205
0.0033413
0.0033413
0.00332015
0.00332015
0.00301945
0.00301945
0.00256461
0.00256461
0.00222465
0.00222465
0.00159946
0.00159946
0.000910557
0.000910557
-4.74768e-05
-4.74768e-05
-0.000853605
-0.000853605
-0.00172647
-0.00172647
-0.00311468
-0.00311468
-0.00423617
-0.00423617
-0.00626203
-0.00626203
-0.00741799
-0.00741799
-0.00867685
-0.00867685
-0.0116559
-0.0116559
-0.0139079
-0.0139079
-0.0147096
-0.0147096
-0.0174418
-0.0174418
-0.0225967
-0.0225967
-0.0248439
-0.0248439
-0.0274392
-0.0274392
-0.0339835
-0.0339835
-0.040186
-0.040186
-0.0473224
-0.0473224
-0.0574435
-0.0574435
-0.0749248
-0.0749248
-0.0919446
-0.0919446
-0.127056
-0.127056
-0.150063
-0.150063
-0.0728359
-0.0728359
0.00922009
0.00922009
-0.0214778
-0.0214778
-0.0316824
-0.0316824
-0.0254693
-0.0254693
-0.0255828
-0.0255828
-0.0240133
-0.0240133
-0.032522
-0.032522
-0.0465523
-0.0465523
-0.0550154
-0.0550154
-0.0639581
-0.0639581
-0.0724423
-0.0724423
-0.0783669
-0.0783669
-0.0797516
-0.0797516
-0.0776027
-0.0776027
-0.0735783
-0.0735783
-0.0674773
-0.0674773
-0.0600505
-0.0600505
-0.0516679
-0.0516679
-0.043931
-0.043931
-0.0364539
-0.0364539
-0.0306538
-0.0306538
-0.0281256
-0.0281256
-0.0256294
-0.0256294
-0.0146432
-0.0146432
-0.0136015
-0.0136015
-0.0117671
-0.0117671
-0.00895064
-0.00895064
-0.00743162
-0.00743162
-0.00640172
-0.00640172
-0.00422385
-0.00422385
-0.00327554
-0.00327554
-0.00171494
-0.00171494
-0.000833589
-0.000833589
-4.31585e-05
-4.31585e-05
0.000947777
0.000947777
0.00159624
0.00159624
0.00220987
0.00220987
0.00252891
0.00252891
0.00308608
0.00308608
0.00321873
0.00321873
0.00333088
0.00333088
0.00325402
0.00325402
0.00336006
0.00336006
0.0030807
0.0030807
0.00268878
0.00268878
0.00234431
0.00234431
0.00168734
0.00168734
0.00105434
0.00105434
0.000258317
0.000258317
-0.000695972
-0.000695972
-0.00166741
-0.00166741
-0.00286136
-0.00286136
-0.00412857
-0.00412857
-0.00561226
-0.00561226
-0.00702494
-0.00702494
-0.00868537
-0.00868537
-0.0104366
-0.0104366
-0.0127911
-0.0127911
-0.0168857
-0.0168857
-0.0251619
-0.0251619
-0.0282085
-0.0282085
-0.0306905
-0.0306905
-0.0365891
-0.0365891
-0.0439181
-0.0439181
-0.0521753
-0.0521753
-0.0608943
-0.0608943
-0.0682592
-0.0682592
-0.0744714
-0.0744714
-0.0784788
-0.0784788
-0.0799409
-0.0799409
-0.0783377
-0.0783377
-0.0736592
-0.0736592
-0.0631696
-0.0631696
-0.0523907
-0.0523907
-0.0414004
-0.0414004
-0.0334358
-0.0334358
-0.0289288
-0.0289288
-0.0225117
-0.0225117
-0.0232617
-0.0232617
-0.0250848
-0.0250848
-0.0203895
-0.0203895
-0.00626034
-0.00626034
-0.0607166
-0.0607166
-0.13984
-0.13984
-0.137793
-0.137793
-0.100561
-0.100561
-0.0710274
-0.0710274
-0.0604038
-0.0604038
-0.0452378
-0.0452378
-0.0393729
-0.0393729
-0.0355541
-0.0355541
-0.0282714
-0.0282714
-0.0237765
-0.0237765
-0.0222745
-0.0222745
-0.0187191
-0.0187191
      </DataArray> 
    </PointData>
    <CellData>
    </CellData>
  </Piece>
  </UnstructuredGrid>
</VTKFile>
